# vtk DataFile Version 2.0
test grain
ASCII
DATASET UNSTRUCTURED_GRID
POINTS 5000 float
0.498305 0.000701632 0.
0.500878 0.000827852 0.
0.503269 0.000891658 0.
0.505632 0.000952573 0.
0.507721 0.000961295 0.
0.509811 0.000970098 0.
0.511879 0.00097729 0.
0.513916 0.000981842 0.
0.515953 0.000986414 0.
0.517971 0.000989998 0.
0.519981 0.000993081 0.
0.52199 0.000996174 0.
0.523993 0.000996865 0.
0.525994 0.000997245 0.
0.527996 0.000997613 0.
0.529997 0.000997872 0.
0.531998 0.000998132 0.
0.533998 0.000998394 0.
0.535999 0.000998659 0.
0.537999 0.000998924 0.
0.539999 0.000999074 0.
0.541999 0.000999132 0.
0.544 0.00099919 0.
0.546 0.000999176 0.
0.548 0.00099914 0.
0.55 0.000999105 0.
0.552 0.000999092 0.
0.554 0.000999079 0.
0.556 0.000999079 0.
0.558 0.000999119 0.
0.56 0.00099916 0.
0.562 0.000999189 0.
0.564 0.000999204 0.
0.566 0.000999219 0.
0.568 0.000999215 0.
0.57 0.000999202 0.
0.572 0.000999188 0.
0.574 0.000999195 0.
0.576 0.000999205 0.
0.578 0.000999217 0.
0.58 0.000999244 0.
0.582 0.00099927 0.
0.584 0.000999286 0.
0.586 0.000999277 0.
0.588 0.000999269 0.
0.59 0.000999272 0.
0.592 0.000999285 0.
0.594 0.000999297 0.
0.596 0.00099927 0.
0.598 0.000999232 0.
0.6 0.000999194 0.
0.602 0.000999215 0.
0.604 0.000999235 0.
0.606 0.000999253 0.
0.608 0.000999262 0.
0.61 0.000999271 0.
0.612 0.00099927 0.
0.614 0.000999255 0.
0.616 0.000999241 0.
0.618 0.00099922 0.
0.62 0.000999195 0.
0.622 0.000999171 0.
0.624 0.000999159 0.
0.626 0.000999149 0.
0.628 0.000999143 0.
0.63 0.000999164 0.
0.632 0.000999186 0.
0.634 0.000999196 0.
0.636 0.00099918 0.
0.638 0.000999165 0.
0.64 0.000999127 0.
0.642 0.000999069 0.
0.644 0.000999012 0.
0.646 0.000999015 0.
0.648 0.000999036 0.
0.65 0.000999056 0.
0.652 0.000999087 0.
0.654 0.000999118 0.
0.656 0.000999118 0.
0.658001 0.000999009 0.
0.660001 0.000998901 0.
0.662001 0.000998659 0.
0.664002 0.000998252 0.
0.666002 0.000997845 0.
0.668004 0.000997558 0.
0.670005 0.00099733 0.
0.672007 0.000997101 0.
0.674009 0.00099658 0.
0.676011 0.000996023 0.
0.678015 0.00099498 0.
0.680031 0.00099022 0.
0.682048 0.000985482 0.
0.684079 0.000980253 0.
0.686136 0.000974046 0.
0.688192 0.000967878 0.
0.690322 0.000949446 0.
0.692495 0.000924627 0.
0.694672 0.000900194 0.
0.697272 0.000827295 0.
0.699889 0.000756723 0.
0.497083 0.00196347 0.
0.499932 0.00245221 0.
0.502492 0.0026462 0.
0.505071 0.00284644 0.
0.507319 0.00288099 0.
0.509543 0.00290824 0.
0.511717 0.00293141 0.
0.513792 0.00294517 0.
0.515868 0.002959 0.
0.517914 0.00296985 0.
0.519942 0.00297914 0.
0.521971 0.00298846 0.
0.523978 0.00299059 0.
0.525982 0.00299173 0.
0.527987 0.00299284 0.
0.52999 0.00299362 0.
0.531993 0.0029944 0.
0.533995 0.00299518 0.
0.535996 0.00299597 0.
0.537997 0.00299677 0.
0.539998 0.00299722 0.
0.541998 0.0029974 0.
0.543999 0.00299757 0.
0.545999 0.00299753 0.
0.547999 0.00299742 0.
0.549999 0.00299731 0.
0.551999 0.00299728 0.
0.553999 0.00299724 0.
0.555999 0.00299724 0.
0.557999 0.00299736 0.
0.559999 0.00299748 0.
0.562 0.00299757 0.
0.564 0.00299761 0.
0.566 0.00299766 0.
0.568 0.00299765 0.
0.57 0.0029976 0.
0.572 0.00299756 0.
0.574 0.00299759 0.
0.576 0.00299761 0.
0.577999 0.00299765 0.
0.58 0.00299773 0.
0.582 0.00299781 0.
0.584 0.00299786 0.
0.586 0.00299783 0.
0.588 0.00299781 0.
0.59 0.00299782 0.
0.592 0.00299785 0.
0.594 0.00299789 0.
0.596 0.00299781 0.
0.598 0.0029977 0.
0.6 0.00299758 0.
0.602 0.00299764 0.
0.604 0.00299771 0.
0.606 0.00299776 0.
0.608 0.00299779 0.
0.61 0.00299781 0.
0.612 0.00299781 0.
0.614 0.00299777 0.
0.616 0.00299772 0.
0.618 0.00299766 0.
0.62 0.00299759 0.
0.622 0.00299751 0.
0.624 0.00299748 0.
0.626 0.00299745 0.
0.628 0.00299743 0.
0.63 0.00299749 0.
0.632 0.00299756 0.
0.634 0.00299759 0.
0.636 0.00299754 0.
0.638 0.0029975 0.
0.640001 0.00299738 0.
0.642001 0.00299721 0.
0.644001 0.00299704 0.
0.646001 0.00299705 0.
0.648001 0.00299711 0.
0.650001 0.00299717 0.
0.652001 0.00299726 0.
0.654001 0.00299735 0.
0.656001 0.00299735 0.
0.658002 0.00299703 0.
0.660002 0.0029967 0.
0.662003 0.00299598 0.
0.664005 0.00299476 0.
0.666007 0.00299353 0.
0.668011 0.00299267 0.
0.670015 0.00299199 0.
0.67202 0.0029913 0.
0.674026 0.00298973 0.
0.676033 0.00298806 0.
0.678044 0.00298481 0.
0.680091 0.00297042 0.
0.682137 0.0029561 0.
0.684211 0.00294024 0.
0.686329 0.00292139 0.
0.688448 0.00290267 0.
0.690737 0.00283918 0.
0.69309 0.00276145 0.
0.69551 0.00266981 0.
0.698256 0.00244175 0.
0.701011 0.00217276 0.
0.495769 0.00304447 0.
0.498812 0.00392063 0.
0.501635 0.00436087 0.
0.50442 0.00470691 0.
0.506888 0.00479658 0.
0.509254 0.00484346 0.
0.511551 0.0048849 0.
0.513667 0.00490803 0.
0.515783 0.00493127 0.
0.517856 0.00494951 0.
0.519904 0.00496506 0.
0.521952 0.00498067 0.
0.523964 0.0049843 0.
0.525971 0.00498621 0.
0.527978 0.00498806 0.
0.529983 0.00498936 0.
0.531988 0.00499066 0.
0.533992 0.00499196 0.
0.535994 0.00499329 0.
0.537996 0.00499462 0.
0.539997 0.00499537 0.
0.541997 0.00499566 0.
0.543998 0.00499595 0.
0.545998 0.00499588 0.
0.547999 0.0049957 0.
0.549999 0.00499552 0.
0.551999 0.00499546 0.
0.553998 0.0049954 0.
0.555998 0.00499539 0.
0.557999 0.0049956 0.
0.559999 0.0049958 0.
0.561999 0.00499595 0.
0.563999 0.00499602 0.
0.565999 0.0049961 0.
0.568 0.00499608 0.
0.57 0.00499601 0.
0.572 0.00499594 0.
0.574 0.00499598 0.
0.575999 0.00499602 0.
0.577999 0.00499608 0.
0.579999 0.00499622 0.
0.582 0.00499635 0.
0.584 0.00499643 0.
0.586 0.00499639 0.
0.588 0.00499635 0.
0.59 0.00499636 0.
0.592 0.00499642 0.
0.594 0.00499648 0.
0.596 0.00499635 0.
0.598 0.00499616 0.
0.6 0.00499597 0.
0.602 0.00499607 0.
0.604 0.00499618 0.
0.606 0.00499626 0.
0.608 0.00499631 0.
0.61 0.00499635 0.
0.612 0.00499635 0.
0.614 0.00499628 0.
0.616 0.0049962 0.
0.618 0.0049961 0.
0.62 0.00499598 0.
0.622001 0.00499586 0.
0.624001 0.0049958 0.
0.626 0.00499575 0.
0.628 0.00499571 0.
0.63 0.00499582 0.
0.632 0.00499593 0.
0.634 0.00499598 0.
0.636001 0.0049959 0.
0.638001 0.00499583 0.
0.640001 0.00499563 0.
0.642001 0.00499535 0.
0.644002 0.00499506 0.
0.646002 0.00499508 0.
0.648001 0.00499518 0.
0.650001 0.00499528 0.
0.652002 0.00499544 0.
0.654002 0.00499559 0.
0.656002 0.00499559 0.
0.658003 0.00499505 0.
0.660004 0.0049945 0.
0.662006 0.00499329 0.
0.664009 0.00499126 0.
0.666012 0.00498922 0.
0.668018 0.00498779 0.
0.670026 0.00498665 0.
0.672033 0.0049855 0.
0.674044 0.00498287 0.
0.676054 0.00498007 0.
0.678074 0.00497445 0.
0.680151 0.00495029 0.
0.682227 0.00492624 0.
0.684347 0.00489951 0.
0.68653 0.00486772 0.
0.688711 0.00483614 0.
0.691193 0.00471567 0.
0.693741 0.0045804 0.
0.696424 0.00438675 0.
0.699304 0.00400173 0.
0.702228 0.00340249 0.
0.49447 0.00398747 0.
0.49765 0.00507427 0.
0.500671 0.00577685 0.
0.503485 0.00618563 0.
0.506116 0.00641254 0.
0.508581 0.0065391 0.
0.511016 0.00666146 0.
0.513226 0.00672333 0.
0.515439 0.00678702 0.
0.517596 0.00683814 0.
0.519703 0.00687668 0.
0.521811 0.0069157 0.
0.523859 0.00693574 0.
0.525896 0.00695242 0.
0.527931 0.00696807 0.
0.529945 0.00697117 0.
0.531958 0.00697427 0.
0.53397 0.00697772 0.
0.535978 0.00698191 0.
0.537985 0.0069861 0.
0.53999 0.00698879 0.
0.541992 0.00699025 0.
0.543995 0.0069917 0.
0.545996 0.00699223 0.
0.547997 0.0069925 0.
0.549998 0.00699276 0.
0.551997 0.00699269 0.
0.553997 0.00699262 0.
0.555997 0.00699264 0.
0.557998 0.00699295 0.
0.559998 0.00699327 0.
0.561998 0.0069935 0.
0.563999 0.00699363 0.
0.565999 0.00699375 0.
0.567999 0.00699373 0.
0.569999 0.00699366 0.
0.571999 0.00699358 0.
0.573999 0.00699363 0.
0.575999 0.00699371 0.
0.577999 0.00699379 0.
0.579999 0.00699399 0.
0.581999 0.00699418 0.
0.583999 0.00699432 0.
0.585999 0.00699436 0.
0.587999 0.00699441 0.
0.59 0.00699441 0.
0.592 0.0069944 0.
0.594 0.00699438 0.
0.596 0.00699422 0.
0.598 0.00699401 0.
0.6 0.00699381 0.
0.602 0.00699393 0.
0.604 0.00699406 0.
0.606 0.00699416 0.
0.608 0.00699422 0.
0.61 0.00699427 0.
0.612 0.00699426 0.
0.614 0.00699416 0.
0.616 0.00699406 0.
0.618001 0.00699389 0.
0.620001 0.00699369 0.
0.622001 0.00699348 0.
0.624001 0.00699338 0.
0.626001 0.00699329 0.
0.628 0.00699322 0.
0.630001 0.00699335 0.
0.632001 0.00699347 0.
0.634001 0.00699351 0.
0.636001 0.00699339 0.
0.638002 0.00699326 0.
0.640002 0.00699297 0.
0.642002 0.00699254 0.
0.644003 0.00699211 0.
0.646003 0.00699202 0.
0.648003 0.00699204 0.
0.650003 0.00699206 0.
0.652004 0.00699158 0.
0.654005 0.00699111 0.
0.656007 0.00699027 0.
0.65801 0.00698815 0.
0.660014 0.00698603 0.
0.66202 0.00698224 0.
0.664031 0.00697643 0.
0.666041 0.00697062 0.
0.668057 0.00696685 0.
0.670076 0.006964 0.
0.672094 0.00696115 0.
0.674148 0.00693734 0.
0.676205 0.00691213 0.
0.678278 0.00688258 0.
0.680425 0.00683022 0.
0.68257 0.00677863 0.
0.684796 0.00670573 0.
0.687092 0.00661742 0.
0.689397 0.00652393 0.
0.691986 0.00630222 0.
0.694597 0.00608331 0.
0.697406 0.00577563 0.
0.700336 0.00533752 0.
0.703403 0.00443919 0.
0.493345 0.00493164 0.
0.496577 0.00609134 0.
0.499657 0.00705514 0.
0.502499 0.00757781 0.
0.505275 0.00797724 0.
0.507847 0.0081956 0.
0.510411 0.00841454 0.
0.51275 0.0085231 0.
0.515069 0.00863135 0.
0.517325 0.00872268 0.
0.519493 0.00878532 0.
0.521664 0.00884876 0.
0.523751 0.00888606 0.
0.525819 0.00891783 0.
0.527884 0.00894798 0.
0.529906 0.0089529 0.
0.531929 0.00895782 0.
0.533949 0.00896341 0.
0.535962 0.00897048 0.
0.537975 0.00897756 0.
0.539983 0.0089822 0.
0.541987 0.00898482 0.
0.543992 0.00898745 0.
0.545994 0.00898859 0.
0.547995 0.00898929 0.
0.549996 0.00899 0.
0.551996 0.00898992 0.
0.553996 0.00898984 0.
0.555996 0.00898988 0.
0.557997 0.00899031 0.
0.559997 0.00899075 0.
0.561998 0.00899106 0.
0.563998 0.00899123 0.
0.565998 0.00899139 0.
0.567998 0.00899139 0.
0.569999 0.0089913 0.
0.571999 0.00899121 0.
0.573999 0.00899129 0.
0.575999 0.00899139 0.
0.577998 0.0089915 0.
0.579999 0.00899175 0.
0.581999 0.00899201 0.
0.583999 0.00899222 0.
0.585999 0.00899234 0.
0.587999 0.00899247 0.
0.589999 0.00899247 0.
0.591999 0.00899237 0.
0.594 0.00899227 0.
0.596 0.00899208 0.
0.598 0.00899186 0.
0.6 0.00899165 0.
0.602 0.00899179 0.
0.604 0.00899193 0.
0.606 0.00899206 0.
0.608 0.00899212 0.
0.61 0.00899219 0.
0.612 0.00899217 0.
0.614001 0.00899204 0.
0.616001 0.00899191 0.
0.618001 0.00899168 0.
0.620001 0.00899139 0.
0.622001 0.00899111 0.
0.624001 0.00899096 0.
0.626001 0.00899083 0.
0.628001 0.00899073 0.
0.630001 0.00899087 0.
0.632001 0.00899101 0.
0.634002 0.00899104 0.
0.636002 0.00899087 0.
0.638002 0.0089907 0.
0.640003 0.0089903 0.
0.642003 0.00898973 0.
0.644004 0.00898915 0.
0.646004 0.00898897 0.
0.648004 0.0089889 0.
0.650004 0.00898883 0.
0.652006 0.00898773 0.
0.654008 0.00898662 0.
0.656011 0.00898493 0.
0.658017 0.00898123 0.
0.660024 0.00897753 0.
0.662035 0.00897114 0.
0.664053 0.00896152 0.
0.666071 0.00895192 0.
0.668096 0.00894583 0.
0.670126 0.00894125 0.
0.672155 0.00893668 0.
0.674257 0.00889008 0.
0.676361 0.00884175 0.
0.678492 0.00878734 0.
0.680713 0.00870517 0.
0.682931 0.00862428 0.
0.685287 0.0084912 0.
0.687709 0.00833938 0.
0.690169 0.00815692 0.
0.692832 0.00782771 0.
0.69553 0.00750381 0.
0.698406 0.00706765 0.
0.701371 0.00644495 0.
0.704465 0.00543512 0.
0.492448 0.0059238 0.
0.495597 0.00711017 0.
0.498659 0.00822337 0.
0.501568 0.00892117 0.
0.504434 0.00947417 0.
0.507139 0.00980533 0.
0.509814 0.0101007 0.
0.512279 0.0102655 0.
0.514688 0.0104228 0.
0.517035 0.0105653 0.
0.519258 0.0106545 0.
0.521484 0.0107457 0.
0.523615 0.010808 0.
0.525717 0.0108636 0.
0.527817 0.0109177 0.
0.529851 0.0109253 0.
0.531886 0.0109328 0.
0.533916 0.0109415 0.
0.535937 0.0109528 0.
0.537957 0.0109642 0.
0.53997 0.010972 0.
0.541978 0.0109766 0.
0.543986 0.0109812 0.
0.545989 0.0109835 0.
0.547992 0.0109852 0.
0.549994 0.0109868 0.
0.551994 0.0109869 0.
0.553995 0.010987 0.
0.555995 0.0109873 0.
0.557996 0.0109878 0.
0.559996 0.0109884 0.
0.561997 0.0109889 0.
0.563997 0.0109891 0.
0.565998 0.0109893 0.
0.567998 0.0109893 0.
0.569998 0.0109893 0.
0.571999 0.0109892 0.
0.573998 0.0109893 0.
0.575998 0.0109894 0.
0.577998 0.0109896 0.
0.579998 0.0109898 0.
0.581998 0.0109901 0.
0.583999 0.0109904 0.
0.585999 0.0109905 0.
0.587999 0.0109907 0.
0.589999 0.0109907 0.
0.591999 0.0109906 0.
0.594 0.0109905 0.
0.596 0.0109903 0.
0.598 0.0109901 0.
0.6 0.0109899 0.
0.602 0.01099 0.
0.604 0.0109902 0.
0.606 0.0109903 0.
0.608 0.0109903 0.
0.61 0.0109904 0.
0.612001 0.0109903 0.
0.614001 0.0109902 0.
0.616001 0.01099 0.
0.618001 0.0109897 0.
0.620002 0.0109894 0.
0.622002 0.0109891 0.
0.624002 0.0109889 0.
0.626001 0.0109887 0.
0.628001 0.0109886 0.
0.630002 0.0109887 0.
0.632002 0.0109888 0.
0.634002 0.0109888 0.
0.636003 0.0109886 0.
0.638003 0.0109883 0.
0.640004 0.0109878 0.
0.642005 0.010987 0.
0.644005 0.0109862 0.
0.646006 0.0109857 0.
0.648007 0.0109853 0.
0.650007 0.0109849 0.
0.652011 0.0109826 0.
0.654014 0.0109802 0.
0.656019 0.0109769 0.
0.65803 0.0109704 0.
0.660041 0.010964 0.
0.66206 0.0109539 0.
0.664087 0.0109395 0.
0.666114 0.0109252 0.
0.668155 0.0109129 0.
0.670202 0.0109015 0.
0.672249 0.0108902 0.
0.674396 0.0108117 0.
0.676544 0.0107329 0.
0.678732 0.0106481 0.
0.681018 0.0105365 0.
0.6833 0.0104272 0.
0.685774 0.0102221 0.
0.688306 0.0100078 0.
0.690899 0.00973158 0.
0.693635 0.00930979 0.
0.69643 0.00887621 0.
0.699346 0.00832914 0.
0.702348 0.00750986 0.
0.705444 0.00645906 0.
0.491806 0.00703347 0.
0.494903 0.0082094 0.
0.497954 0.00938506 0.
0.500938 0.0102135 0.
0.503853 0.0108274 0.
0.50661 0.0112565 0.
0.509306 0.0116397 0.
0.511842 0.0118932 0.
0.514299 0.0121226 0.
0.516713 0.0123428 0.
0.518984 0.0124682 0.
0.521261 0.0125963 0.
0.523444 0.012695 0.
0.525586 0.0127858 0.
0.527728 0.0128762 0.
0.529778 0.0128875 0.
0.531828 0.0128986 0.
0.533872 0.0129114 0.
0.535902 0.0129287 0.
0.537931 0.0129459 0.
0.539951 0.0129579 0.
0.541964 0.0129654 0.
0.543976 0.012973 0.
0.545982 0.012977 0.
0.547986 0.0129801 0.
0.54999 0.0129831 0.
0.551991 0.0129837 0.
0.553992 0.0129842 0.
0.555993 0.0129848 0.
0.557994 0.0129856 0.
0.559995 0.0129864 0.
0.561996 0.0129869 0.
0.563996 0.0129872 0.
0.565997 0.0129875 0.
0.567997 0.0129876 0.
0.569998 0.0129875 0.
0.571998 0.0129875 0.
0.573998 0.0129876 0.
0.575998 0.0129878 0.
0.577998 0.012988 0.
0.579998 0.0129883 0.
0.581998 0.0129885 0.
0.583998 0.0129887 0.
0.585999 0.0129889 0.
0.587999 0.012989 0.
0.589999 0.0129891 0.
0.591999 0.0129891 0.
0.594 0.0129891 0.
0.596 0.0129889 0.
0.598 0.0129887 0.
0.6 0.0129885 0.
0.602 0.0129886 0.
0.604 0.0129887 0.
0.606 0.0129888 0.
0.608 0.0129888 0.
0.610001 0.0129889 0.
0.612001 0.0129888 0.
0.614001 0.0129886 0.
0.616001 0.0129884 0.
0.618002 0.0129881 0.
0.620002 0.0129878 0.
0.622002 0.0129874 0.
0.624002 0.0129872 0.
0.626002 0.012987 0.
0.628002 0.0129869 0.
0.630002 0.0129869 0.
0.632002 0.0129869 0.
0.634003 0.0129868 0.
0.636004 0.0129865 0.
0.638004 0.0129862 0.
0.640005 0.0129854 0.
0.642006 0.0129843 0.
0.644007 0.0129831 0.
0.646009 0.0129822 0.
0.648011 0.0129812 0.
0.650012 0.0129803 0.
0.652018 0.0129761 0.
0.654024 0.0129719 0.
0.656032 0.0129662 0.
0.65805 0.0129556 0.
0.660067 0.0129451 0.
0.662094 0.0129301 0.
0.664133 0.0129099 0.
0.666171 0.0128898 0.
0.668234 0.0128663 0.
0.670307 0.0128422 0.
0.672382 0.0128164 0.
0.674572 0.012695 0.
0.676761 0.0125744 0.
0.679006 0.0124489 0.
0.681348 0.0123005 0.
0.683688 0.0121501 0.
0.68621 0.0118448 0.
0.688766 0.0115418 0.
0.691408 0.0111799 0.
0.694176 0.0107029 0.
0.697031 0.010193 0.
0.699988 0.00958524 0.
0.703038 0.00864068 0.
0.706157 0.00757778 0.
0.491303 0.00822946 0.
0.494366 0.00935892 0.
0.497398 0.010543 0.
0.500377 0.0114645 0.
0.503286 0.0121448 0.
0.506077 0.0126844 0.
0.508791 0.0131574 0.
0.511394 0.0135054 0.
0.5139 0.013808 0.
0.516379 0.014111 0.
0.518703 0.0142775 0.
0.521031 0.0144431 0.
0.523268 0.0145788 0.
0.525452 0.0147054 0.
0.527637 0.0148329 0.
0.529704 0.0148496 0.
0.53177 0.0148643 0.
0.533828 0.0148812 0.
0.535866 0.0149044 0.
0.537905 0.0149275 0.
0.539932 0.0149439 0.
0.54195 0.0149543 0.
0.543967 0.0149647 0.
0.545975 0.0149705 0.
0.547981 0.014975 0.
0.549987 0.0149795 0.
0.551988 0.0149804 0.
0.55399 0.0149813 0.
0.555992 0.0149823 0.
0.557993 0.0149833 0.
0.559994 0.0149843 0.
0.561995 0.014985 0.
0.563996 0.0149853 0.
0.565996 0.0149857 0.
0.567997 0.0149858 0.
0.569997 0.0149858 0.
0.571998 0.0149858 0.
0.573998 0.014986 0.
0.575997 0.0149862 0.
0.577997 0.0149864 0.
0.579997 0.0149867 0.
0.581998 0.0149869 0.
0.583998 0.0149871 0.
0.585999 0.0149873 0.
0.587999 0.0149874 0.
0.589999 0.0149875 0.
0.591999 0.0149876 0.
0.594 0.0149876 0.
0.596 0.0149875 0.
0.598 0.0149873 0.
0.6 0.0149871 0.
0.602 0.0149872 0.
0.604 0.0149873 0.
0.606 0.0149873 0.
0.608 0.0149873 0.
0.610001 0.0149873 0.
0.612001 0.0149872 0.
0.614001 0.014987 0.
0.616002 0.0149867 0.
0.618002 0.0149864 0.
0.620002 0.0149861 0.
0.622003 0.0149858 0.
0.624002 0.0149855 0.
0.626002 0.0149853 0.
0.628002 0.0149851 0.
0.630002 0.014985 0.
0.632003 0.014985 0.
0.634004 0.0149848 0.
0.636004 0.0149844 0.
0.638005 0.014984 0.
0.640007 0.014983 0.
0.642008 0.0149816 0.
0.64401 0.0149801 0.
0.646012 0.0149786 0.
0.648015 0.0149772 0.
0.650017 0.0149757 0.
0.652025 0.0149696 0.
0.654033 0.0149635 0.
0.656045 0.0149554 0.
0.658069 0.0149407 0.
0.660093 0.0149262 0.
0.662129 0.0149062 0.
0.664179 0.0148802 0.
0.666228 0.0148543 0.
0.668316 0.0148191 0.
0.670415 0.014782 0.
0.672519 0.0147401 0.
0.674751 0.0145747 0.
0.676981 0.0144116 0.
0.67929 0.0142453 0.
0.681687 0.0140596 0.
0.684093 0.0138529 0.
0.686651 0.0134475 0.
0.689233 0.0130543 0.
0.691918 0.0126136 0.
0.694698 0.0120769 0.
0.697573 0.0114842 0.
0.700528 0.010812 0.
0.703584 0.00981195 0.
0.706689 0.00877044 0.
0.490932 0.00951572 0.
0.493937 0.0105763 0.
0.496914 0.011735 0.
0.499856 0.0127247 0.
0.502751 0.0134593 0.
0.505564 0.0140904 0.
0.508289 0.0146339 0.
0.510939 0.0150666 0.
0.513468 0.0154199 0.
0.515976 0.0157736 0.
0.518338 0.015986 0.
0.520693 0.0161909 0.
0.522976 0.0163701 0.
0.525195 0.0165279 0.
0.527418 0.0166873 0.
0.529533 0.0167372 0.
0.531641 0.0167817 0.
0.533737 0.0168235 0.
0.535789 0.0168522 0.
0.537841 0.0168809 0.
0.539882 0.0169045 0.
0.541911 0.0169235 0.
0.54394 0.0169426 0.
0.545955 0.0169534 0.
0.547966 0.0169615 0.
0.549976 0.0169697 0.
0.55198 0.0169721 0.
0.553984 0.0169745 0.
0.555987 0.0169768 0.
0.557989 0.0169786 0.
0.559991 0.0169803 0.
0.561993 0.0169816 0.
0.563994 0.0169822 0.
0.565995 0.0169828 0.
0.567996 0.0169831 0.
0.569996 0.0169833 0.
0.571997 0.0169834 0.
0.573997 0.0169836 0.
0.575997 0.0169838 0.
0.577996 0.016984 0.
0.579997 0.0169843 0.
0.581997 0.0169846 0.
0.583998 0.0169849 0.
0.585998 0.0169851 0.
0.587999 0.0169853 0.
0.589999 0.0169854 0.
0.591999 0.0169854 0.
0.594 0.0169855 0.
0.596 0.0169854 0.
0.598 0.0169853 0.
0.6 0.0169852 0.
0.602 0.0169853 0.
0.604 0.0169853 0.
0.606 0.0169853 0.
0.608001 0.0169852 0.
0.610001 0.0169851 0.
0.612001 0.016985 0.
0.614002 0.0169847 0.
0.616002 0.0169844 0.
0.618002 0.0169841 0.
0.620003 0.0169837 0.
0.622003 0.0169833 0.
0.624003 0.016983 0.
0.626003 0.0169827 0.
0.628003 0.0169824 0.
0.630004 0.0169822 0.
0.632004 0.016982 0.
0.634005 0.0169816 0.
0.636007 0.0169808 0.
0.638008 0.01698 0.
0.64001 0.0169782 0.
0.642013 0.0169757 0.
0.644016 0.0169732 0.
0.646021 0.01697 0.
0.648026 0.0169666 0.
0.650032 0.0169631 0.
0.652046 0.0169519 0.
0.654061 0.0169407 0.
0.656082 0.0169261 0.
0.658122 0.0169009 0.
0.660161 0.0168758 0.
0.662215 0.0168467 0.
0.664284 0.0168131 0.
0.666352 0.0167796 0.
0.66848 0.0167121 0.
0.670623 0.0166388 0.
0.672778 0.0165571 0.
0.675042 0.0163601 0.
0.677301 0.0161653 0.
0.679658 0.0159514 0.
0.682085 0.0157246 0.
0.684533 0.0154565 0.
0.687104 0.0149969 0.
0.689703 0.0145341 0.
0.692413 0.0140316 0.
0.695197 0.0134422 0.
0.698072 0.0127813 0.
0.701007 0.0120466 0.
0.704018 0.0110399 0.
0.707075 0.0100591 0.
0.490644 0.0108744 0.
0.49358 0.011852 0.
0.496493 0.0129716 0.
0.499382 0.013994 0.
0.50226 0.014776 0.
0.505081 0.0154681 0.
0.507802 0.0160632 0.
0.51046 0.016569 0.
0.513007 0.0169705 0.
0.515532 0.017373 0.
0.517937 0.0176483 0.
0.520322 0.0179072 0.
0.522656 0.0181444 0.
0.524918 0.0183369 0.
0.527185 0.0185317 0.
0.529351 0.0186174 0.
0.531505 0.0186942 0.
0.533643 0.0187646 0.
0.535709 0.018799 0.
0.537776 0.0188336 0.
0.53983 0.0188643 0.
0.541871 0.0188922 0.
0.543913 0.0189203 0.
0.545935 0.0189361 0.
0.54795 0.0189479 0.
0.549966 0.0189598 0.
0.551971 0.0189638 0.
0.553977 0.0189676 0.
0.555982 0.0189713 0.
0.557985 0.0189738 0.
0.559988 0.0189764 0.
0.561991 0.0189782 0.
0.563992 0.0189791 0.
0.565994 0.01898 0.
0.567995 0.0189804 0.
0.569995 0.0189807 0.
0.571996 0.018981 0.
0.573996 0.0189812 0.
0.575996 0.0189814 0.
0.577996 0.0189816 0.
0.579996 0.018982 0.
0.581997 0.0189823 0.
0.583997 0.0189827 0.
0.585998 0.0189829 0.
0.587998 0.0189832 0.
0.589999 0.0189833 0.
0.591999 0.0189833 0.
0.593999 0.0189834 0.
0.596 0.0189833 0.
0.598 0.0189833 0.
0.6 0.0189832 0.
0.602 0.0189833 0.
0.604 0.0189834 0.
0.606 0.0189833 0.
0.608001 0.0189831 0.
0.610001 0.0189829 0.
0.612002 0.0189827 0.
0.614002 0.0189824 0.
0.616002 0.0189822 0.
0.618003 0.0189818 0.
0.620003 0.0189813 0.
0.622004 0.0189809 0.
0.624004 0.0189805 0.
0.626004 0.0189801 0.
0.628004 0.0189798 0.
0.630005 0.0189794 0.
0.632006 0.018979 0.
0.634007 0.0189783 0.
0.636009 0.0189771 0.
0.638011 0.0189759 0.
0.640014 0.0189734 0.
0.642018 0.0189698 0.
0.644023 0.0189662 0.
0.64603 0.0189612 0.
0.648038 0.0189559 0.
0.650046 0.0189503 0.
0.652068 0.018934 0.
0.654089 0.0189177 0.
0.656119 0.0188963 0.
0.658175 0.0188602 0.
0.660231 0.0188242 0.
0.662303 0.0187858 0.
0.664392 0.018744 0.
0.66648 0.0187024 0.
0.668654 0.0185975 0.
0.670844 0.018485 0.
0.673052 0.0183615 0.
0.675355 0.0181288 0.
0.677652 0.0178992 0.
0.680062 0.0176176 0.
0.682517 0.0173285 0.
0.685 0.016982 0.
0.687578 0.0164813 0.
0.690185 0.0159787 0.
0.692895 0.015431 0.
0.695668 0.0148006 0.
0.698528 0.0140884 0.
0.701433 0.0133046 0.
0.70438 0.0123178 0.
0.707363 0.011402 0.
0.490397 0.0122757 0.
0.493265 0.0131747 0.
0.496125 0.0142532 0.
0.498979 0.0152834 0.
0.501823 0.0160973 0.
0.504619 0.0168312 0.
0.50733 0.0174818 0.
0.509992 0.0180561 0.
0.512557 0.0185151 0.
0.515099 0.0189643 0.
0.517546 0.0192966 0.
0.519964 0.0196075 0.
0.522347 0.0199065 0.
0.52465 0.0201251 0.
0.526956 0.0203471 0.
0.529167 0.0204709 0.
0.53136 0.0205863 0.
0.533535 0.0206937 0.
0.535617 0.0207339 0.
0.5377 0.0207743 0.
0.539769 0.0208128 0.
0.541822 0.0208512 0.
0.543876 0.0208899 0.
0.545907 0.0209125 0.
0.547928 0.0209294 0.
0.54995 0.0209465 0.
0.551959 0.0209526 0.
0.553967 0.0209586 0.
0.555975 0.0209641 0.
0.557979 0.0209678 0.
0.559984 0.0209715 0.
0.561988 0.0209742 0.
0.56399 0.0209755 0.
0.565992 0.0209769 0.
0.567993 0.0209777 0.
0.569994 0.0209782 0.
0.571995 0.0209787 0.
0.573995 0.0209789 0.
0.575995 0.0209792 0.
0.577995 0.0209795 0.
0.579996 0.0209798 0.
0.581996 0.0209802 0.
0.583997 0.0209806 0.
0.585998 0.0209809 0.
0.587998 0.0209812 0.
0.589999 0.0209814 0.
0.591999 0.0209815 0.
0.593999 0.0209816 0.
0.596 0.0209816 0.
0.598 0.0209816 0.
0.6 0.0209816 0.
0.602 0.0209816 0.
0.604 0.0209816 0.
0.606001 0.0209816 0.
0.608001 0.0209813 0.
0.610001 0.020981 0.
0.612002 0.0209807 0.
0.614002 0.0209804 0.
0.616003 0.0209801 0.
0.618003 0.0209797 0.
0.620004 0.0209791 0.
0.622005 0.0209786 0.
0.624005 0.0209782 0.
0.626005 0.0209777 0.
0.628005 0.0209772 0.
0.630006 0.0209765 0.
0.632007 0.0209758 0.
0.634009 0.0209747 0.
0.636012 0.0209728 0.
0.638015 0.0209709 0.
0.64002 0.0209673 0.
0.642026 0.0209623 0.
0.644033 0.0209573 0.
0.646043 0.0209496 0.
0.648055 0.0209413 0.
0.650067 0.0209326 0.
0.652097 0.0209096 0.
0.654127 0.0208866 0.
0.656169 0.0208566 0.
0.658239 0.0208079 0.
0.66031 0.0207596 0.
0.662402 0.0207111 0.
0.664511 0.0206607 0.
0.666619 0.0206108 0.
0.668834 0.0204616 0.
0.671063 0.0203061 0.
0.673318 0.0201409 0.
0.675657 0.0198823 0.
0.677994 0.0196223 0.
0.680453 0.0192679 0.
0.682939 0.0189177 0.
0.685454 0.0185022 0.
0.688038 0.0179615 0.
0.690656 0.0174149 0.
0.693358 0.0168177 0.
0.696108 0.0161453 0.
0.698934 0.0154028 0.
0.701804 0.0145902 0.
0.7047 0.0136369 0.
0.707619 0.0127799 0.
0.490201 0.0137359 0.
0.493018 0.0145649 0.
0.495847 0.0156006 0.
0.498663 0.016611 0.
0.501466 0.0174485 0.
0.504238 0.0182133 0.
0.506948 0.0189126 0.
0.50961 0.0195382 0.
0.512195 0.0200433 0.
0.514756 0.020522 0.
0.517234 0.0209007 0.
0.519675 0.0212505 0.
0.522087 0.0215948 0.
0.524411 0.0218469 0.
0.52674 0.0221033 0.
0.528983 0.0222771 0.
0.5312 0.0224452 0.
0.533405 0.0226054 0.
0.535507 0.0226525 0.
0.53761 0.0226997 0.
0.539696 0.0227474 0.
0.541762 0.0227986 0.
0.543829 0.0228502 0.
0.545869 0.0228817 0.
0.5479 0.0229055 0.
0.54993 0.0229295 0.
0.551943 0.0229385 0.
0.553954 0.0229472 0.
0.555965 0.0229552 0.
0.557972 0.0229604 0.
0.559978 0.0229656 0.
0.561984 0.0229694 0.
0.563987 0.0229714 0.
0.565989 0.0229735 0.
0.567991 0.0229748 0.
0.569993 0.0229756 0.
0.571994 0.0229765 0.
0.573994 0.0229769 0.
0.575994 0.0229773 0.
0.577994 0.0229776 0.
0.579995 0.022978 0.
0.581996 0.0229783 0.
0.583997 0.0229787 0.
0.585997 0.022979 0.
0.587998 0.0229794 0.
0.589999 0.0229797 0.
0.591999 0.0229799 0.
0.593999 0.0229801 0.
0.596 0.0229802 0.
0.598 0.0229802 0.
0.6 0.0229802 0.
0.602001 0.0229801 0.
0.604001 0.0229801 0.
0.606001 0.02298 0.
0.608001 0.0229797 0.
0.610002 0.0229794 0.
0.612002 0.022979 0.
0.614003 0.0229786 0.
0.616003 0.0229782 0.
0.618004 0.0229777 0.
0.620005 0.0229771 0.
0.622006 0.0229766 0.
0.624006 0.022976 0.
0.626006 0.0229755 0.
0.628006 0.0229749 0.
0.630008 0.0229736 0.
0.63201 0.0229723 0.
0.634012 0.0229705 0.
0.636016 0.0229677 0.
0.63802 0.0229649 0.
0.640027 0.0229598 0.
0.642036 0.0229529 0.
0.644045 0.0229461 0.
0.64606 0.0229348 0.
0.648077 0.0229224 0.
0.650094 0.0229095 0.
0.652136 0.0228777 0.
0.654177 0.0228461 0.
0.656231 0.0228052 0.
0.658316 0.0227413 0.
0.660401 0.022678 0.
0.662514 0.0226171 0.
0.664646 0.022556 0.
0.666778 0.0224944 0.
0.669021 0.0222882 0.
0.671273 0.0220784 0.
0.673559 0.0218573 0.
0.675922 0.0215571 0.
0.678285 0.0212583 0.
0.680762 0.0208665 0.
0.683267 0.0204757 0.
0.685807 0.0200089 0.
0.688406 0.0194414 0.
0.691037 0.0188599 0.
0.693732 0.0182233 0.
0.696469 0.0175143 0.
0.699264 0.0167506 0.
0.702093 0.015925 0.
0.704949 0.0150087 0.
0.707825 0.0142111 0.
0.490099 0.0152744 0.
0.492852 0.016025 0.
0.495631 0.0169938 0.
0.49841 0.0179727 0.
0.501183 0.0188284 0.
0.503929 0.0196152 0.
0.506622 0.0203446 0.
0.509272 0.0209985 0.
0.511863 0.0215509 0.
0.514426 0.022067 0.
0.516925 0.0224934 0.
0.519385 0.0228828 0.
0.521821 0.0232748 0.
0.52417 0.0235647 0.
0.52652 0.0238557 0.
0.528795 0.0240778 0.
0.531038 0.0242993 0.
0.533273 0.0245166 0.
0.535396 0.0245708 0.
0.537519 0.0246249 0.
0.539623 0.0246815 0.
0.541702 0.0247456 0.
0.543781 0.0248102 0.
0.545832 0.0248507 0.
0.547871 0.0248815 0.
0.54991 0.0249124 0.
0.551926 0.0249244 0.
0.553942 0.0249358 0.
0.555956 0.0249463 0.
0.557964 0.024953 0.
0.559973 0.0249596 0.
0.561979 0.0249646 0.
0.563983 0.0249673 0.
0.565987 0.0249701 0.
0.56799 0.0249718 0.
0.569991 0.0249731 0.
0.571993 0.0249743 0.
0.573993 0.0249749 0.
0.575994 0.0249753 0.
0.577994 0.0249758 0.
0.579995 0.0249761 0.
0.581996 0.0249764 0.
0.583996 0.0249768 0.
0.585997 0.0249772 0.
0.587998 0.0249776 0.
0.589998 0.024978 0.
0.591999 0.0249783 0.
0.593999 0.0249787 0.
0.596 0.0249788 0.
0.598 0.0249788 0.
0.6 0.0249788 0.
0.602001 0.0249787 0.
0.604001 0.0249786 0.
0.606001 0.0249784 0.
0.608001 0.0249781 0.
0.610002 0.0249778 0.
0.612002 0.0249774 0.
0.614003 0.0249769 0.
0.616004 0.0249764 0.
0.618005 0.0249758 0.
0.620006 0.0249751 0.
0.622006 0.0249745 0.
0.624007 0.0249739 0.
0.626007 0.0249733 0.
0.628008 0.0249725 0.
0.63001 0.0249707 0.
0.632012 0.0249688 0.
0.634015 0.0249663 0.
0.636021 0.0249626 0.
0.638026 0.0249588 0.
0.640035 0.0249522 0.
0.642046 0.0249436 0.
0.644058 0.0249349 0.
0.646077 0.02492 0.
0.648099 0.0249036 0.
0.650122 0.0248862 0.
0.652175 0.0248457 0.
0.654228 0.0248053 0.
0.656294 0.0247532 0.
0.658394 0.0246741 0.
0.660492 0.0245957 0.
0.662627 0.0245225 0.
0.664783 0.0244505 0.
0.666941 0.0243733 0.
0.669211 0.0241096 0.
0.671486 0.0238452 0.
0.673805 0.023568 0.
0.67619 0.0232253 0.
0.67858 0.0228805 0.
0.681068 0.0224473 0.
0.683579 0.0220188 0.
0.686129 0.0215079 0.
0.688727 0.0209157 0.
0.691365 0.020304 0.
0.69405 0.0196411 0.
0.696764 0.0189091 0.
0.699526 0.0181318 0.
0.702316 0.0173028 0.
0.705127 0.0164285 0.
0.70795 0.0156896 0.
0.490087 0.0168834 0.
0.492769 0.0175458 0.
0.495499 0.0184446 0.
0.498235 0.0193878 0.
0.500963 0.0202487 0.
0.503666 0.0210457 0.
0.506329 0.02179 0.
0.508956 0.0224658 0.
0.511545 0.02306 0.
0.514107 0.0236094 0.
0.51662 0.0240811 0.
0.519092 0.0245076 0.
0.521544 0.0249356 0.
0.523908 0.0252552 0.
0.526267 0.0255722 0.
0.528564 0.0258345 0.
0.530821 0.026093 0.
0.533073 0.0263481 0.
0.535226 0.0264289 0.
0.537378 0.0265063 0.
0.53951 0.0265831 0.
0.541604 0.0266599 0.
0.543698 0.0267371 0.
0.545763 0.0267901 0.
0.547816 0.0268325 0.
0.54987 0.0268753 0.
0.551893 0.0268943 0.
0.553915 0.0269123 0.
0.555936 0.0269287 0.
0.557948 0.0269381 0.
0.559961 0.0269475 0.
0.56197 0.0269547 0.
0.563976 0.0269591 0.
0.565982 0.0269635 0.
0.567986 0.0269664 0.
0.569988 0.0269685 0.
0.571991 0.0269706 0.
0.573991 0.0269715 0.
0.575992 0.0269722 0.
0.577993 0.0269728 0.
0.579994 0.0269734 0.
0.581995 0.0269739 0.
0.583996 0.0269744 0.
0.585997 0.0269749 0.
0.587997 0.0269753 0.
0.589998 0.0269757 0.
0.591999 0.0269762 0.
0.593999 0.0269766 0.
0.596 0.0269767 0.
0.598 0.0269768 0.
0.6 0.0269769 0.
0.602001 0.0269768 0.
0.604001 0.0269766 0.
0.606001 0.0269764 0.
0.608002 0.0269759 0.
0.610002 0.0269754 0.
0.612003 0.0269749 0.
0.614004 0.0269744 0.
0.616005 0.0269738 0.
0.618006 0.0269731 0.
0.620007 0.0269722 0.
0.622008 0.0269714 0.
0.624009 0.0269704 0.
0.62601 0.0269693 0.
0.628011 0.0269681 0.
0.630014 0.0269651 0.
0.632018 0.026962 0.
0.634022 0.026958 0.
0.63603 0.026952 0.
0.638038 0.0269459 0.
0.640051 0.0269364 0.
0.642068 0.0269243 0.
0.644085 0.0269122 0.
0.646112 0.0268898 0.
0.648142 0.0268649 0.
0.650174 0.0268385 0.
0.652244 0.0267833 0.
0.654314 0.0267285 0.
0.656398 0.0266621 0.
0.658512 0.026571 0.
0.660625 0.0264804 0.
0.662787 0.0263827 0.
0.664971 0.0262833 0.
0.667159 0.0261723 0.
0.669446 0.0258747 0.
0.671734 0.0255752 0.
0.674075 0.0252518 0.
0.676472 0.0248752 0.
0.67888 0.0244921 0.
0.681371 0.024026 0.
0.683883 0.0235601 0.
0.686435 0.0230111 0.
0.689025 0.0223973 0.
0.691654 0.0217605 0.
0.694312 0.0210804 0.
0.696997 0.0203383 0.
0.69972 0.0195577 0.
0.702458 0.0187378 0.
0.705211 0.0179152 0.
0.70797 0.0172379 0.
0.49014 0.018546 0.
0.492742 0.0191291 0.
0.495413 0.0199575 0.
0.498093 0.0208528 0.
0.500769 0.021699 0.
0.50343 0.0224974 0.
0.506061 0.0232531 0.
0.50867 0.0239469 0.
0.511252 0.0245734 0.
0.513807 0.025144 0.
0.516322 0.0256456 0.
0.518792 0.0260971 0.
0.521245 0.0265521 0.
0.52362 0.0269133 0.
0.525988 0.0272655 0.
0.528307 0.0275708 0.
0.530581 0.0278637 0.
0.532852 0.0281553 0.
0.535041 0.028272 0.
0.537227 0.0283787 0.
0.539391 0.028481 0.
0.541501 0.0285708 0.
0.543612 0.0286612 0.
0.545693 0.0287274 0.
0.54776 0.0287821 0.
0.549828 0.0288373 0.
0.551859 0.0288636 0.
0.553889 0.0288885 0.
0.555915 0.0289109 0.
0.557932 0.028923 0.
0.559948 0.0289352 0.
0.561961 0.0289447 0.
0.563969 0.0289508 0.
0.565977 0.0289569 0.
0.567982 0.028961 0.
0.569985 0.028964 0.
0.571988 0.0289669 0.
0.57399 0.0289681 0.
0.575991 0.028969 0.
0.577992 0.0289699 0.
0.579993 0.0289706 0.
0.581994 0.0289714 0.
0.583995 0.028972 0.
0.585996 0.0289725 0.
0.587997 0.028973 0.
0.589998 0.0289735 0.
0.591998 0.028974 0.
0.593999 0.0289745 0.
0.596 0.0289747 0.
0.598 0.0289748 0.
0.6 0.0289749 0.
0.602001 0.0289748 0.
0.604001 0.0289747 0.
0.606001 0.0289744 0.
0.608002 0.0289737 0.
0.610003 0.0289731 0.
0.612003 0.0289724 0.
0.614004 0.0289719 0.
0.616005 0.0289713 0.
0.618007 0.0289704 0.
0.620008 0.0289694 0.
0.622009 0.0289683 0.
0.624011 0.0289669 0.
0.626012 0.0289654 0.
0.628014 0.0289636 0.
0.630019 0.0289594 0.
0.632023 0.0289552 0.
0.63403 0.0289496 0.
0.63604 0.0289413 0.
0.638051 0.028933 0.
0.640068 0.0289204 0.
0.64209 0.0289048 0.
0.644112 0.0288892 0.
0.646147 0.0288589 0.
0.648186 0.0288254 0.
0.650228 0.0287894 0.
0.652316 0.0287186 0.
0.654403 0.0286484 0.
0.656505 0.028567 0.
0.658636 0.0284632 0.
0.660766 0.02836 0.
0.66296 0.0282311 0.
0.665175 0.0280967 0.
0.667398 0.0279432 0.
0.669703 0.0276122 0.
0.672008 0.0272806 0.
0.67437 0.02691 0.
0.676772 0.0264969 0.
0.679188 0.0260755 0.
0.681674 0.0255863 0.
0.684178 0.0250936 0.
0.686722 0.0245193 0.
0.689299 0.0238907 0.
0.691912 0.0232349 0.
0.694542 0.0225417 0.
0.69719 0.0217961 0.
0.699865 0.0210229 0.
0.702546 0.0202316 0.
0.70523 0.0194727 0.
0.707906 0.0188645 0.
0.490214 0.0202494 0.
0.492743 0.020759 0.
0.495349 0.0215108 0.
0.49797 0.0223465 0.
0.500597 0.0231722 0.
0.50322 0.023971 0.
0.505827 0.0247362 0.
0.508419 0.0254423 0.
0.510986 0.0260881 0.
0.513524 0.0266735 0.
0.516031 0.0272028 0.
0.518499 0.0276831 0.
0.520952 0.0281668 0.
0.52334 0.0285667 0.
0.525716 0.0289531 0.
0.528057 0.0293028 0.
0.530347 0.0296284 0.
0.532639 0.0299516 0.
0.534861 0.0301025 0.
0.537079 0.0302393 0.
0.539271 0.0303702 0.
0.541395 0.0304719 0.
0.54352 0.0305743 0.
0.545616 0.0306538 0.
0.547698 0.0307223 0.
0.549781 0.0307914 0.
0.55182 0.0308265 0.
0.553857 0.0308592 0.
0.555891 0.0308888 0.
0.557912 0.0309043 0.
0.559933 0.0309197 0.
0.561949 0.0309321 0.
0.563959 0.0309404 0.
0.56597 0.0309487 0.
0.567976 0.0309543 0.
0.569981 0.0309585 0.
0.571985 0.0309626 0.
0.573987 0.0309643 0.
0.575989 0.0309656 0.
0.57799 0.0309669 0.
0.579992 0.0309678 0.
0.581993 0.0309688 0.
0.583994 0.0309696 0.
0.585995 0.0309702 0.
0.587997 0.0309708 0.
0.589997 0.0309714 0.
0.591998 0.030972 0.
0.593999 0.0309726 0.
0.595999 0.0309729 0.
0.598 0.0309731 0.
0.6 0.0309733 0.
0.602001 0.0309731 0.
0.604001 0.0309729 0.
0.606001 0.0309726 0.
0.608002 0.0309717 0.
0.610003 0.0309709 0.
0.612004 0.0309701 0.
0.614005 0.0309694 0.
0.616006 0.0309687 0.
0.618008 0.0309676 0.
0.62001 0.0309663 0.
0.622011 0.0309649 0.
0.624014 0.0309629 0.
0.626016 0.0309608 0.
0.628018 0.0309582 0.
0.630024 0.0309525 0.
0.63203 0.0309468 0.
0.634039 0.0309391 0.
0.636053 0.0309279 0.
0.638067 0.0309166 0.
0.640089 0.0309004 0.
0.642117 0.0308806 0.
0.644145 0.0308609 0.
0.646189 0.0308216 0.
0.648236 0.0307785 0.
0.650288 0.0307316 0.
0.652392 0.0306436 0.
0.654496 0.0305567 0.
0.656615 0.0304608 0.
0.658761 0.0303461 0.
0.660906 0.0302321 0.
0.663128 0.0300689 0.
0.665373 0.0299 0.
0.66763 0.0297064 0.
0.669953 0.0293452 0.
0.672275 0.0289828 0.
0.674657 0.0285633 0.
0.677065 0.0281142 0.
0.679489 0.027657 0.
0.68197 0.0271436 0.
0.684466 0.0266223 0.
0.686995 0.0260294 0.
0.68955 0.0253916 0.
0.692138 0.0247241 0.
0.694746 0.0240207 0.
0.697363 0.0232745 0.
0.699993 0.0225124 0.
0.702614 0.0217597 0.
0.705224 0.0210741 0.
0.707817 0.0205383 0.
0.49028 0.0219859 0.
0.492744 0.0224244 0.
0.495291 0.0231021 0.
0.497865 0.0238807 0.
0.500457 0.0246842 0.
0.503056 0.0254792 0.
0.505639 0.0262441 0.
0.508206 0.0269552 0.
0.510752 0.0276152 0.
0.513277 0.0282152 0.
0.515777 0.0287686 0.
0.518246 0.0292726 0.
0.520703 0.0297773 0.
0.523108 0.0302092 0.
0.525498 0.0306244 0.
0.527856 0.0310099 0.
0.530163 0.0313548 0.
0.53247 0.0316975 0.
0.534708 0.0318898 0.
0.536938 0.0320697 0.
0.539147 0.032241 0.
0.541283 0.0323546 0.
0.543419 0.0324688 0.
0.54553 0.0325636 0.
0.547627 0.0326491 0.
0.549725 0.0327355 0.
0.551775 0.0327814 0.
0.553819 0.0328235 0.
0.555861 0.0328618 0.
0.557887 0.0328813 0.
0.559913 0.0329007 0.
0.561934 0.0329167 0.
0.563947 0.0329278 0.
0.56596 0.0329389 0.
0.567969 0.0329464 0.
0.569975 0.032952 0.
0.571981 0.0329576 0.
0.573984 0.03296 0.
0.575986 0.0329619 0.
0.577988 0.0329638 0.
0.57999 0.032965 0.
0.581992 0.0329662 0.
0.583994 0.0329673 0.
0.585995 0.032968 0.
0.587996 0.0329687 0.
0.589997 0.0329695 0.
0.591998 0.0329702 0.
0.593999 0.0329709 0.
0.595999 0.0329713 0.
0.598 0.0329716 0.
0.6 0.0329719 0.
0.602001 0.0329716 0.
0.604001 0.0329713 0.
0.606002 0.0329708 0.
0.608003 0.0329699 0.
0.610004 0.0329689 0.
0.612005 0.032968 0.
0.614006 0.0329671 0.
0.616007 0.0329661 0.
0.618009 0.0329647 0.
0.620012 0.032963 0.
0.622014 0.0329612 0.
0.624017 0.0329584 0.
0.62602 0.0329555 0.
0.628024 0.032952 0.
0.630032 0.0329443 0.
0.63204 0.0329366 0.
0.634051 0.0329264 0.
0.63607 0.0329114 0.
0.638088 0.0328965 0.
0.640115 0.0328758 0.
0.642149 0.0328509 0.
0.644184 0.0328261 0.
0.646237 0.0327763 0.
0.648294 0.0327219 0.
0.650358 0.0326616 0.
0.652477 0.0325529 0.
0.654594 0.0324455 0.
0.656728 0.0323333 0.
0.658887 0.0322077 0.
0.661044 0.0320828 0.
0.663285 0.0318725 0.
0.665544 0.0316559 0.
0.667818 0.0314193 0.
0.670155 0.0310404 0.
0.672492 0.0306589 0.
0.674887 0.0302069 0.
0.677307 0.0297289 0.
0.679745 0.0292425 0.
0.682224 0.0287096 0.
0.684716 0.0281645 0.
0.687233 0.0275561 0.
0.689771 0.0269104 0.
0.692332 0.0262382 0.
0.694911 0.0255317 0.
0.697502 0.024789 0.
0.700101 0.0240407 0.
0.702678 0.0233285 0.
0.70523 0.02271 0.
0.70775 0.0222417 0.
0.49037 0.0237565 0.
0.492782 0.0241327 0.
0.495279 0.0247402 0.
0.497811 0.0254627 0.
0.500365 0.0262335 0.
0.502928 0.0270126 0.
0.50548 0.0277718 0.
0.508021 0.0284857 0.
0.510551 0.0291575 0.
0.513065 0.02977 0.
0.515562 0.0303395 0.
0.518027 0.0308618 0.
0.520479 0.0313839 0.
0.522891 0.0318442 0.
0.525288 0.032287 0.
0.527659 0.0327099 0.
0.529978 0.0330772 0.
0.532299 0.033442 0.
0.534554 0.0336729 0.
0.536797 0.033896 0.
0.539023 0.0341114 0.
0.541169 0.0342367 0.
0.543317 0.0343628 0.
0.545443 0.0344726 0.
0.547555 0.0345752 0.
0.549669 0.0346789 0.
0.551728 0.034736 0.
0.553781 0.0347876 0.
0.55583 0.0348348 0.
0.557862 0.0348582 0.
0.559893 0.0348817 0.
0.561918 0.0349012 0.
0.563935 0.0349151 0.
0.565951 0.0349289 0.
0.567962 0.0349384 0.
0.569969 0.0349455 0.
0.571976 0.0349526 0.
0.57398 0.0349557 0.
0.575983 0.0349583 0.
0.577987 0.0349608 0.
0.579989 0.0349622 0.
0.581991 0.0349637 0.
0.583993 0.0349649 0.
0.585994 0.0349658 0.
0.587995 0.0349667 0.
0.589997 0.0349675 0.
0.591998 0.0349684 0.
0.593999 0.0349693 0.
0.595999 0.0349698 0.
0.598 0.0349702 0.
0.6 0.0349706 0.
0.602001 0.0349701 0.
0.604002 0.0349697 0.
0.606002 0.0349691 0.
0.608003 0.0349681 0.
0.610004 0.034967 0.
0.612005 0.0349659 0.
0.614007 0.0349647 0.
0.616009 0.0349635 0.
0.618011 0.0349618 0.
0.620014 0.0349596 0.
0.622016 0.0349575 0.
0.624021 0.0349539 0.
0.626025 0.0349502 0.
0.62803 0.0349457 0.
0.63004 0.034936 0.
0.632049 0.0349264 0.
0.634064 0.0349136 0.
0.636086 0.034895 0.
0.638108 0.0348764 0.
0.640142 0.0348511 0.
0.642182 0.0348211 0.
0.644223 0.0347913 0.
0.646286 0.0347307 0.
0.648353 0.034665 0.
0.650429 0.0345908 0.
0.652562 0.0344612 0.
0.654694 0.0343332 0.
0.656842 0.0342053 0.
0.659013 0.0340687 0.
0.661183 0.0339326 0.
0.663444 0.0336714 0.
0.665717 0.033407 0.
0.668008 0.0331282 0.
0.670357 0.0327261 0.
0.672707 0.0323189 0.
0.675105 0.0318378 0.
0.677524 0.0313395 0.
0.679964 0.030832 0.
0.682437 0.0302847 0.
0.684925 0.0297212 0.
0.687433 0.0291013 0.
0.689955 0.0284482 0.
0.692492 0.027772 0.
0.695042 0.0270679 0.
0.697599 0.0263395 0.
0.700162 0.0256136 0.
0.702699 0.0249427 0.
0.705203 0.0243842 0.
0.707666 0.0239759 0.
0.490509 0.0255496 0.
0.492874 0.0258796 0.
0.495321 0.0264262 0.
0.497804 0.0270863 0.
0.500315 0.0278173 0.
0.502841 0.0285775 0.
0.505364 0.0293284 0.
0.507885 0.0300426 0.
0.510396 0.0307197 0.
0.512892 0.0313392 0.
0.515372 0.0319194 0.
0.517826 0.0324577 0.
0.520268 0.0329955 0.
0.522682 0.033481 0.
0.525082 0.03395 0.
0.527461 0.034406 0.
0.529789 0.0347919 0.
0.532116 0.035171 0.
0.534385 0.0354372 0.
0.536636 0.0357008 0.
0.538876 0.0359586 0.
0.541034 0.0360915 0.
0.543193 0.0362251 0.
0.545333 0.0363484 0.
0.547458 0.0364699 0.
0.549585 0.036593 0.
0.551658 0.0366657 0.
0.553723 0.0367312 0.
0.555784 0.0367916 0.
0.557822 0.03682 0.
0.55986 0.0368486 0.
0.561891 0.0368731 0.
0.563913 0.0368921 0.
0.565935 0.0369111 0.
0.56795 0.036924 0.
0.569959 0.0369336 0.
0.571969 0.0369432 0.
0.573974 0.0369478 0.
0.575979 0.0369518 0.
0.577983 0.0369555 0.
0.579986 0.0369576 0.
0.581989 0.0369597 0.
0.583991 0.0369615 0.
0.585993 0.0369627 0.
0.587995 0.0369638 0.
0.589996 0.0369649 0.
0.591997 0.0369659 0.
0.593998 0.0369669 0.
0.595999 0.0369675 0.
0.598 0.036968 0.
0.6 0.0369685 0.
0.602001 0.036968 0.
0.604002 0.0369675 0.
0.606003 0.0369668 0.
0.608004 0.0369655 0.
0.610005 0.0369642 0.
0.612006 0.0369627 0.
0.614009 0.0369611 0.
0.616011 0.0369596 0.
0.618014 0.036957 0.
0.620017 0.0369541 0.
0.622021 0.0369511 0.
0.624027 0.0369459 0.
0.626033 0.0369404 0.
0.628039 0.0369339 0.
0.630053 0.0369209 0.
0.632066 0.036908 0.
0.634085 0.0368906 0.
0.636114 0.0368653 0.
0.638144 0.0368401 0.
0.640184 0.0368089 0.
0.642231 0.0367736 0.
0.644279 0.0367384 0.
0.646357 0.0366614 0.
0.648439 0.0365789 0.
0.65053 0.0364867 0.
0.652673 0.03634 0.
0.654815 0.0361946 0.
0.656979 0.0360499 0.
0.659163 0.0359002 0.
0.661347 0.0357492 0.
0.663619 0.0354483 0.
0.6659 0.0351435 0.
0.668204 0.0348276 0.
0.670559 0.0344082 0.
0.672918 0.0339796 0.
0.675315 0.0334728 0.
0.677729 0.032955 0.
0.680165 0.0324292 0.
0.682623 0.0318704 0.
0.685093 0.0312944 0.
0.687583 0.0306687 0.
0.690089 0.0300113 0.
0.692605 0.0293329 0.
0.695126 0.0286338 0.
0.69765 0.0279218 0.
0.700174 0.0272234 0.
0.702667 0.0265999 0.
0.705121 0.0261014 0.
0.707532 0.0257425 0.
0.490681 0.0273592 0.
0.493002 0.0276535 0.
0.495399 0.0281485 0.
0.497832 0.0287529 0.
0.5003 0.029443 0.
0.502792 0.0301799 0.
0.505287 0.0309151 0.
0.507781 0.0316227 0.
0.510267 0.0322995 0.
0.512741 0.0329242 0.
0.515204 0.033512 0.
0.517646 0.0340616 0.
0.520078 0.0346109 0.
0.522487 0.035117 0.
0.524881 0.0356023 0.
0.527258 0.0360737 0.
0.529587 0.0364823 0.
0.531914 0.0368853 0.
0.534196 0.0371882 0.
0.536459 0.0374902 0.
0.538712 0.0377903 0.
0.540887 0.037935 0.
0.543061 0.0380777 0.
0.545217 0.0382156 0.
0.547356 0.0383581 0.
0.549496 0.0385024 0.
0.551584 0.0385924 0.
0.553662 0.0386726 0.
0.555737 0.0387473 0.
0.557781 0.0387809 0.
0.559826 0.0388147 0.
0.561864 0.0388445 0.
0.563891 0.0388687 0.
0.565919 0.0388929 0.
0.567937 0.0389094 0.
0.56995 0.0389216 0.
0.571962 0.0389338 0.
0.573968 0.0389399 0.
0.575974 0.0389452 0.
0.577979 0.0389503 0.
0.579983 0.038953 0.
0.581987 0.0389558 0.
0.58399 0.0389581 0.
0.585992 0.0389595 0.
0.587994 0.0389609 0.
0.589995 0.0389622 0.
0.591997 0.0389634 0.
0.593998 0.0389646 0.
0.595999 0.0389653 0.
0.598 0.0389658 0.
0.6 0.0389663 0.
0.602001 0.0389658 0.
0.604002 0.0389652 0.
0.606003 0.0389644 0.
0.608004 0.0389629 0.
0.610006 0.0389613 0.
0.612008 0.0389596 0.
0.61401 0.0389576 0.
0.616013 0.0389555 0.
0.618017 0.0389523 0.
0.620021 0.0389485 0.
0.622026 0.0389446 0.
0.624033 0.0389377 0.
0.626041 0.0389305 0.
0.628049 0.038922 0.
0.630066 0.0389056 0.
0.632083 0.0388892 0.
0.634107 0.0388671 0.
0.636143 0.0388349 0.
0.63818 0.0388029 0.
0.640227 0.0387657 0.
0.642282 0.0387248 0.
0.644336 0.0386841 0.
0.646431 0.0385889 0.
0.648529 0.0384881 0.
0.650637 0.0383762 0.
0.652792 0.0382116 0.
0.654945 0.0380485 0.
0.657127 0.037883 0.
0.659328 0.0377131 0.
0.661532 0.0375366 0.
0.663812 0.0372017 0.
0.666099 0.0368649 0.
0.66841 0.0365169 0.
0.670762 0.0360773 0.
0.673119 0.0356267 0.
0.675512 0.0351066 0.
0.677918 0.0345761 0.
0.680344 0.0340352 0.
0.682788 0.0334672 0.
0.685241 0.0328822 0.
0.687709 0.0322548 0.
0.690188 0.0315995 0.
0.692676 0.0309252 0.
0.69517 0.0302343 0.
0.697661 0.0295412 0.
0.700146 0.0288731 0.
0.702596 0.0282958 0.
0.705002 0.0278504 0.
0.707367 0.0275332 0.
0.490851 0.0291834 0.
0.493133 0.0294481 0.
0.495485 0.0298977 0.
0.497873 0.0304522 0.
0.500303 0.0311016 0.
0.50276 0.0318064 0.
0.505225 0.0325196 0.
0.507692 0.0332193 0.
0.510155 0.0338949 0.
0.512607 0.0345233 0.
0.515053 0.0351174 0.
0.517483 0.0356758 0.
0.519902 0.0362319 0.
0.522301 0.0367515 0.
0.524686 0.0372487 0.
0.527058 0.0377357 0.
0.529389 0.0381709 0.
0.531718 0.0385978 0.
0.534013 0.0389358 0.
0.536286 0.0392762 0.
0.538553 0.0396172 0.
0.540744 0.0397765 0.
0.542933 0.039927 0.
0.545105 0.040078 0.
0.547256 0.0402397 0.
0.549407 0.0404029 0.
0.551508 0.0405108 0.
0.553599 0.0406073 0.
0.555687 0.0406983 0.
0.557738 0.0407368 0.
0.559789 0.0407755 0.
0.561833 0.0408107 0.
0.563866 0.0408408 0.
0.5659 0.0408711 0.
0.567922 0.040892 0.
0.569937 0.0409073 0.
0.571953 0.0409227 0.
0.573961 0.0409307 0.
0.575968 0.0409376 0.
0.577975 0.0409442 0.
0.579979 0.0409477 0.
0.581984 0.0409513 0.
0.583988 0.0409543 0.
0.58599 0.0409561 0.
0.587993 0.0409579 0.
0.589994 0.0409595 0.
0.591996 0.0409609 0.
0.593997 0.0409623 0.
0.595999 0.0409631 0.
0.598 0.0409637 0.
0.6 0.0409644 0.
0.602001 0.0409637 0.
0.604002 0.040963 0.
0.606004 0.040962 0.
0.608005 0.0409602 0.
0.610007 0.0409583 0.
0.612009 0.0409561 0.
0.614012 0.0409535 0.
0.616015 0.0409509 0.
0.61802 0.0409468 0.
0.620026 0.0409419 0.
0.622032 0.0409371 0.
0.624041 0.0409281 0.
0.626051 0.0409187 0.
0.628062 0.0409078 0.
0.630082 0.0408873 0.
0.632103 0.0408668 0.
0.634132 0.0408391 0.
0.636176 0.0407994 0.
0.638219 0.0407599 0.
0.640273 0.0407167 0.
0.642335 0.0406708 0.
0.644396 0.040625 0.
0.646505 0.0405094 0.
0.648618 0.040389 0.
0.650741 0.0402577 0.
0.652906 0.0400778 0.
0.655071 0.0398993 0.
0.65727 0.0397127 0.
0.65949 0.0395233 0.
0.661713 0.0393213 0.
0.664001 0.0389528 0.
0.666294 0.0385842 0.
0.668611 0.0382053 0.
0.670958 0.0377456 0.
0.673311 0.0372716 0.
0.675696 0.0367393 0.
0.678092 0.0362002 0.
0.680506 0.0356507 0.
0.682937 0.0350769 0.
0.685375 0.0344845 0.
0.687823 0.0338554 0.
0.690275 0.0332024 0.
0.692737 0.0325341 0.
0.6952 0.0318567 0.
0.697657 0.0311895 0.
0.700104 0.030556 0.
0.702515 0.0300209 0.
0.70488 0.0296209 0.
0.707205 0.0293393 0.
0.490995 0.0310227 0.
0.493248 0.031261 0.
0.495562 0.0316685 0.
0.497911 0.0321754 0.
0.500307 0.0327839 0.
0.502734 0.0334576 0.
0.505171 0.0341496 0.
0.507615 0.0348409 0.
0.510056 0.035513 0.
0.512491 0.036143 0.
0.51492 0.0367398 0.
0.517337 0.0373032 0.
0.519745 0.0378643 0.
0.522136 0.0383964 0.
0.524517 0.0389047 0.
0.526887 0.0394039 0.
0.529223 0.0398599 0.
0.531554 0.0403056 0.
0.533853 0.04067 0.
0.536131 0.0410325 0.
0.538403 0.0413916 0.
0.54061 0.0415772 0.
0.542817 0.041751 0.
0.545003 0.0419246 0.
0.547159 0.042103 0.
0.549316 0.042283 0.
0.551429 0.0424124 0.
0.553532 0.0425302 0.
0.555632 0.0426424 0.
0.557689 0.0426858 0.
0.559747 0.0427292 0.
0.561797 0.04277 0.
0.563837 0.0428074 0.
0.565876 0.042845 0.
0.567903 0.0428711 0.
0.569922 0.0428903 0.
0.571942 0.0429096 0.
0.573952 0.0429198 0.
0.575961 0.0429287 0.
0.577969 0.0429372 0.
0.579975 0.0429416 0.
0.58198 0.0429461 0.
0.583985 0.0429499 0.
0.585988 0.0429523 0.
0.587991 0.0429547 0.
0.589993 0.0429567 0.
0.591995 0.0429583 0.
0.593997 0.0429599 0.
0.595998 0.0429609 0.
0.597999 0.0429617 0.
0.6 0.0429625 0.
0.602002 0.0429616 0.
0.604003 0.0429608 0.
0.606005 0.0429596 0.
0.608007 0.0429573 0.
0.610009 0.0429551 0.
0.612012 0.0429523 0.
0.614015 0.0429489 0.
0.616019 0.0429455 0.
0.618025 0.0429403 0.
0.620033 0.0429343 0.
0.62204 0.0429283 0.
0.624051 0.0429168 0.
0.626063 0.0429048 0.
0.628077 0.0428909 0.
0.630102 0.0428652 0.
0.632128 0.0428397 0.
0.634163 0.0428054 0.
0.636212 0.0427571 0.
0.638262 0.0427091 0.
0.640323 0.0426597 0.
0.642391 0.0426088 0.
0.644459 0.042558 0.
0.64658 0.0424162 0.
0.648704 0.0422704 0.
0.650838 0.0421155 0.
0.653013 0.0419203 0.
0.655187 0.0417267 0.
0.657399 0.0415165 0.
0.659632 0.0413025 0.
0.661869 0.0410727 0.
0.664161 0.0406874 0.
0.666458 0.0402993 0.
0.66878 0.0398961 0.
0.671126 0.0394191 0.
0.673478 0.0389258 0.
0.675857 0.0383836 0.
0.678246 0.0378362 0.
0.680649 0.0372792 0.
0.683066 0.0367027 0.
0.685489 0.0361076 0.
0.68792 0.0354789 0.
0.690354 0.0348281 0.
0.692791 0.0341673 0.
0.695227 0.0335043 0.
0.697652 0.032863 0.
0.700065 0.0322636 0.
0.702441 0.0317692 0.
0.704769 0.0314099 0.
0.707061 0.0311588 0.
0.49114 0.0328715 0.
0.49337 0.0330871 0.
0.495655 0.0334595 0.
0.497972 0.0339262 0.
0.500335 0.0344975 0.
0.502733 0.0351405 0.
0.505142 0.0358086 0.
0.507562 0.0364854 0.
0.509981 0.0371488 0.
0.512397 0.0377779 0.
0.514808 0.0383761 0.
0.517212 0.0389438 0.
0.519608 0.0395094 0.
0.521992 0.0400509 0.
0.524365 0.0405662 0.
0.526728 0.0410741 0.
0.529061 0.0415479 0.
0.531389 0.04201 0.
0.533692 0.0423976 0.
0.535973 0.0427799 0.
0.538251 0.0431591 0.
0.540475 0.0433745 0.
0.542698 0.0435731 0.
0.544901 0.0437704 0.
0.547062 0.0439655 0.
0.549224 0.0441624 0.
0.551349 0.044313 0.
0.553465 0.0444522 0.
0.555578 0.0445865 0.
0.557641 0.0446346 0.
0.559704 0.0446828 0.
0.561761 0.0447292 0.
0.563807 0.0447739 0.
0.565853 0.0448188 0.
0.567884 0.0448502 0.
0.569907 0.0448734 0.
0.57193 0.0448965 0.
0.573942 0.044909 0.
0.575953 0.0449199 0.
0.577963 0.0449302 0.
0.57997 0.0449355 0.
0.581976 0.0449409 0.
0.583982 0.0449455 0.
0.585986 0.0449485 0.
0.587989 0.0449515 0.
0.589992 0.0449539 0.
0.591994 0.0449557 0.
0.593996 0.0449576 0.
0.595998 0.0449588 0.
0.597999 0.0449597 0.
0.6 0.0449606 0.
0.602002 0.0449596 0.
0.604004 0.0449586 0.
0.606005 0.0449572 0.
0.608008 0.0449545 0.
0.61001 0.0449519 0.
0.612014 0.0449485 0.
0.614018 0.0449443 0.
0.616023 0.0449401 0.
0.61803 0.0449339 0.
0.620039 0.0449266 0.
0.622048 0.0449194 0.
0.624061 0.0449055 0.
0.626075 0.0448908 0.
0.628092 0.0448739 0.
0.630122 0.0448432 0.
0.632153 0.0448126 0.
0.634193 0.0447716 0.
0.636249 0.0447147 0.
0.638306 0.044658 0.
0.640374 0.0446026 0.
0.642448 0.0445467 0.
0.644523 0.0444904 0.
0.646656 0.044322 0.
0.64879 0.0441505 0.
0.650937 0.0439726 0.
0.653121 0.043762 0.
0.655304 0.0435532 0.
0.657529 0.0433171 0.
0.659773 0.0430771 0.
0.662022 0.0428183 0.
0.664316 0.042416 0.
0.666614 0.0420113 0.
0.668937 0.041587 0.
0.67128 0.0410948 0.
0.673629 0.0405843 0.
0.676001 0.0400356 0.
0.678381 0.0394829 0.
0.680773 0.0389209 0.
0.683175 0.0383421 0.
0.685582 0.0377458 0.
0.687994 0.0371206 0.
0.690407 0.0364768 0.
0.69282 0.0358275 0.
0.695231 0.0351817 0.
0.697626 0.0345662 0.
0.700006 0.0339988 0.
0.702348 0.0335401 0.
0.704644 0.0332152 0.
0.706908 0.0329894 0.
0.491306 0.0347324 0.
0.493518 0.03493 0.
0.495776 0.035273 0.
0.498065 0.0357054 0.
0.500398 0.036243 0.
0.502763 0.0368511 0.
0.505142 0.0374917 0.
0.507537 0.0381528 0.
0.509935 0.0388069 0.
0.512333 0.0394336 0.
0.514728 0.0400321 0.
0.517116 0.0406022 0.
0.519497 0.0411689 0.
0.521868 0.0417152 0.
0.524228 0.0422359 0.
0.52658 0.0427507 0.
0.528908 0.0432393 0.
0.531231 0.0437165 0.
0.533534 0.0441263 0.
0.535819 0.0445262 0.
0.5381 0.0449219 0.
0.540337 0.0451641 0.
0.542571 0.0453868 0.
0.544783 0.0456074 0.
0.546948 0.0458136 0.
0.549112 0.0460206 0.
0.551247 0.0461892 0.
0.553374 0.0463475 0.
0.5555 0.0465018 0.
0.557573 0.0465593 0.
0.559646 0.0466171 0.
0.561713 0.0466727 0.
0.563765 0.0467253 0.
0.565817 0.0467781 0.
0.567855 0.0468164 0.
0.569883 0.0468455 0.
0.571912 0.0468747 0.
0.573928 0.0468911 0.
0.575941 0.0469053 0.
0.577954 0.0469189 0.
0.579962 0.0469257 0.
0.581971 0.0469326 0.
0.583978 0.0469385 0.
0.585982 0.0469424 0.
0.587987 0.0469464 0.
0.58999 0.0469495 0.
0.591993 0.0469518 0.
0.593995 0.0469542 0.
0.595997 0.0469556 0.
0.597999 0.0469566 0.
0.6 0.0469577 0.
0.602002 0.0469564 0.
0.604004 0.0469551 0.
0.606007 0.0469533 0.
0.60801 0.0469499 0.
0.610013 0.0469466 0.
0.612017 0.0469422 0.
0.614023 0.0469367 0.
0.616029 0.0469312 0.
0.618038 0.0469232 0.
0.620049 0.0469142 0.
0.62206 0.0469051 0.
0.624078 0.0468869 0.
0.626095 0.0468678 0.
0.628116 0.046846 0.
0.630153 0.046808 0.
0.63219 0.0467701 0.
0.634237 0.0467213 0.
0.636299 0.0466563 0.
0.638362 0.0465916 0.
0.640441 0.0465257 0.
0.642527 0.0464588 0.
0.644615 0.0463901 0.
0.646756 0.0462013 0.
0.648899 0.0460095 0.
0.651054 0.0458132 0.
0.653242 0.0455921 0.
0.65543 0.0453724 0.
0.657664 0.0451117 0.
0.659915 0.0448475 0.
0.662172 0.0445625 0.
0.664466 0.0441455 0.
0.666764 0.0437255 0.
0.669086 0.043281 0.
0.671423 0.0427749 0.
0.673766 0.0422507 0.
0.676126 0.0416988 0.
0.678493 0.0411438 0.
0.68087 0.0405793 0.
0.683256 0.0400007 0.
0.685645 0.039405 0.
0.688038 0.0387843 0.
0.69043 0.0381484 0.
0.69282 0.0375125 0.
0.695203 0.0368862 0.
0.697567 0.0363001 0.
0.699913 0.0357659 0.
0.702223 0.0353369 0.
0.70449 0.0350398 0.
0.706729 0.0348342 0.
0.49149 0.0365996 0.
0.493685 0.036784 0.
0.49592 0.0371024 0.
0.498182 0.0375044 0.
0.500485 0.0380111 0.
0.50282 0.0385883 0.
0.505171 0.0392041 0.
0.507542 0.0398487 0.
0.509918 0.040491 0.
0.512294 0.041111 0.
0.514668 0.0417054 0.
0.517037 0.0422742 0.
0.519401 0.0428401 0.
0.521758 0.0433902 0.
0.524105 0.043915 0.
0.526447 0.044435 0.
0.52877 0.044937 0.
0.531089 0.045427 0.
0.533391 0.0458527 0.
0.535675 0.0462626 0.
0.537955 0.0466682 0.
0.540195 0.0469391 0.
0.54243 0.0471904 0.
0.544649 0.0474381 0.
0.546818 0.0476535 0.
0.548989 0.0478698 0.
0.551135 0.0480562 0.
0.553275 0.0482347 0.
0.555415 0.0484097 0.
0.557501 0.0484795 0.
0.559586 0.0485484 0.
0.561663 0.0486145 0.
0.563722 0.0486752 0.
0.565781 0.0487362 0.
0.567825 0.0487817 0.
0.569859 0.0488171 0.
0.571893 0.0488525 0.
0.573912 0.0488728 0.
0.575929 0.0488906 0.
0.577945 0.0489075 0.
0.579955 0.0489158 0.
0.581965 0.0489242 0.
0.583973 0.0489314 0.
0.585979 0.0489363 0.
0.587984 0.0489412 0.
0.589988 0.048945 0.
0.591991 0.0489479 0.
0.593994 0.0489508 0.
0.595997 0.0489524 0.
0.597999 0.0489535 0.
0.6 0.0489547 0.
0.602003 0.0489531 0.
0.604005 0.0489515 0.
0.606008 0.0489494 0.
0.608012 0.0489453 0.
0.610015 0.0489412 0.
0.612021 0.0489359 0.
0.614028 0.048929 0.
0.616036 0.0489222 0.
0.618047 0.0489125 0.
0.62006 0.0489015 0.
0.622073 0.0488905 0.
0.624094 0.048868 0.
0.626116 0.0488444 0.
0.628141 0.0488174 0.
0.630185 0.0487718 0.
0.632228 0.0487264 0.
0.634282 0.0486694 0.
0.636351 0.048596 0.
0.63842 0.048523 0.
0.640512 0.0484449 0.
0.642613 0.0483648 0.
0.644715 0.0482805 0.
0.646868 0.0480709 0.
0.64902 0.0478587 0.
0.651185 0.0476447 0.
0.653376 0.047413 0.
0.655567 0.0471827 0.
0.657805 0.0468954 0.
0.660056 0.0466059 0.
0.662314 0.0462962 0.
0.664606 0.0458693 0.
0.666902 0.0454391 0.
0.669221 0.0449807 0.
0.671552 0.0444636 0.
0.673888 0.0439278 0.
0.676238 0.0433732 0.
0.67859 0.042817 0.
0.680951 0.0422527 0.
0.683317 0.0416774 0.
0.685686 0.0410858 0.
0.688056 0.0404721 0.
0.690426 0.0398461 0.
0.692791 0.0392248 0.
0.695147 0.0386176 0.
0.697482 0.0380578 0.
0.699799 0.0375541 0.
0.702079 0.0371518 0.
0.70432 0.0368796 0.
0.706536 0.0366916 0.
0.491664 0.0384703 0.
0.493847 0.0386437 0.
0.496063 0.0389408 0.
0.498304 0.0393166 0.
0.500583 0.0397965 0.
0.502891 0.0403463 0.
0.505216 0.040939 0.
0.50756 0.0415637 0.
0.50991 0.0421894 0.
0.512265 0.0428008 0.
0.514619 0.0433911 0.
0.516971 0.0439591 0.
0.519321 0.0445243 0.
0.521665 0.0450775 0.
0.524001 0.0456055 0.
0.526332 0.0461291 0.
0.528647 0.0466391 0.
0.530957 0.0471375 0.
0.533255 0.0475781 0.
0.535536 0.0479986 0.
0.537814 0.0484152 0.
0.540056 0.0487124 0.
0.542293 0.0489921 0.
0.544517 0.0492689 0.
0.546693 0.049493 0.
0.54887 0.0497178 0.
0.551027 0.0499204 0.
0.55318 0.0501174 0.
0.555332 0.0503117 0.
0.557429 0.0503943 0.
0.559525 0.0504747 0.
0.561611 0.0505519 0.
0.563676 0.0506205 0.
0.565741 0.0506894 0.
0.567792 0.0507424 0.
0.569832 0.0507846 0.
0.571872 0.0508269 0.
0.573895 0.0508518 0.
0.575914 0.0508736 0.
0.577933 0.0508944 0.
0.579945 0.0509044 0.
0.581957 0.0509144 0.
0.583967 0.0509231 0.
0.585974 0.0509292 0.
0.587981 0.0509353 0.
0.589986 0.05094 0.
0.59199 0.0509435 0.
0.593993 0.050947 0.
0.595996 0.0509488 0.
0.597998 0.0509502 0.
0.600001 0.0509515 0.
0.602003 0.0509495 0.
0.604006 0.0509476 0.
0.606009 0.050945 0.
0.608014 0.05094 0.
0.610019 0.050935 0.
0.612026 0.0509285 0.
0.614035 0.05092 0.
0.616044 0.0509115 0.
0.618057 0.0508999 0.
0.620073 0.0508868 0.
0.622088 0.0508738 0.
0.624113 0.0508463 0.
0.626139 0.0508176 0.
0.628169 0.0507848 0.
0.630219 0.0507311 0.
0.632269 0.0506777 0.
0.634329 0.0506126 0.
0.636404 0.0505315 0.
0.638479 0.0504507 0.
0.640582 0.0503595 0.
0.642696 0.0502655 0.
0.644812 0.0501653 0.
0.646975 0.0499372 0.
0.649138 0.0497058 0.
0.651311 0.0494754 0.
0.653506 0.0492336 0.
0.6557 0.0489924 0.
0.657942 0.048678 0.
0.660194 0.0483633 0.
0.662453 0.0480302 0.
0.664743 0.0475922 0.
0.667036 0.0471508 0.
0.669348 0.0466813 0.
0.671668 0.0461589 0.
0.673994 0.0456172 0.
0.676332 0.0450606 0.
0.678673 0.0445029 0.
0.681019 0.0439385 0.
0.683368 0.0433665 0.
0.685717 0.0427798 0.
0.688066 0.0421745 0.
0.690411 0.0415611 0.
0.692749 0.0409574 0.
0.695079 0.040371 0.
0.697388 0.0398347 0.
0.699678 0.0393578 0.
0.701935 0.0389791 0.
0.704155 0.038728 0.
0.706353 0.0385552 0.
0.491819 0.0403456 0.
0.493992 0.0405092 0.
0.496193 0.0407881 0.
0.498416 0.0411424 0.
0.500674 0.041599 0.
0.502957 0.0421224 0.
0.505257 0.0426906 0.
0.507579 0.0432949 0.
0.50991 0.0439059 0.
0.512246 0.0445102 0.
0.514585 0.0450971 0.
0.516923 0.0456636 0.
0.519259 0.0462267 0.
0.521589 0.0467799 0.
0.523912 0.0473087 0.
0.526231 0.0478338 0.
0.528539 0.048351 0.
0.530843 0.0488583 0.
0.533137 0.0493118 0.
0.535416 0.04974 0.
0.537692 0.0501646 0.
0.539937 0.0504837 0.
0.542174 0.0507865 0.
0.544402 0.0510857 0.
0.546587 0.051315 0.
0.548773 0.0515451 0.
0.55094 0.0517629 0.
0.553098 0.0519811 0.
0.555256 0.052197 0.
0.55736 0.0522957 0.
0.559462 0.0523907 0.
0.561555 0.0524814 0.
0.563626 0.0525581 0.
0.565697 0.0526352 0.
0.567753 0.0526965 0.
0.5698 0.0527466 0.
0.571847 0.0527969 0.
0.573874 0.0528272 0.
0.575897 0.0528538 0.
0.577919 0.0528792 0.
0.579933 0.052891 0.
0.581947 0.0529029 0.
0.58396 0.0529134 0.
0.585968 0.052921 0.
0.587976 0.0529286 0.
0.589982 0.0529343 0.
0.591987 0.0529386 0.
0.593991 0.0529428 0.
0.595995 0.0529449 0.
0.597998 0.0529464 0.
0.600001 0.052948 0.
0.602004 0.0529456 0.
0.604008 0.0529432 0.
0.606012 0.05294 0.
0.608018 0.0529339 0.
0.610024 0.0529278 0.
0.612032 0.0529197 0.
0.614043 0.0529093 0.
0.616054 0.0528989 0.
0.61807 0.0528851 0.
0.620088 0.0528697 0.
0.622107 0.0528544 0.
0.624136 0.052821 0.
0.626166 0.0527862 0.
0.628201 0.0527467 0.
0.630258 0.0526838 0.
0.632315 0.0526212 0.
0.634382 0.0525475 0.
0.636463 0.0524589 0.
0.638543 0.0523707 0.
0.640652 0.0522624 0.
0.642771 0.0521493 0.
0.644893 0.0520289 0.
0.647064 0.0517833 0.
0.649234 0.0515352 0.
0.651415 0.0512903 0.
0.653617 0.0510405 0.
0.655818 0.0507898 0.
0.658061 0.0504569 0.
0.660312 0.050122 0.
0.662573 0.0497687 0.
0.664861 0.0493221 0.
0.667152 0.048872 0.
0.669457 0.0483928 0.
0.671769 0.0478648 0.
0.674085 0.0473189 0.
0.676411 0.046763 0.
0.678739 0.0462062 0.
0.681071 0.0456434 0.
0.683405 0.0450751 0.
0.685739 0.0444933 0.
0.68807 0.0438955 0.
0.690395 0.0432931 0.
0.692711 0.0427057 0.
0.695017 0.0421406 0.
0.697302 0.0416296 0.
0.699567 0.0411777 0.
0.701804 0.0408185 0.
0.704008 0.0405842 0.
0.706192 0.0404247 0.
0.491973 0.0422241 0.
0.494138 0.0423789 0.
0.496327 0.0426421 0.
0.498534 0.0429787 0.
0.500774 0.0434154 0.
0.503036 0.0439155 0.
0.505317 0.0444619 0.
0.507621 0.0450485 0.
0.509935 0.0456459 0.
0.512253 0.0462404 0.
0.514574 0.0468207 0.
0.516895 0.0473831 0.
0.519214 0.0479425 0.
0.52153 0.0484946 0.
0.523841 0.0490235 0.
0.52615 0.04955 0.
0.52845 0.0500734 0.
0.530747 0.0505867 0.
0.533034 0.0510479 0.
0.535307 0.0514844 0.
0.537576 0.0519178 0.
0.53982 0.0522549 0.
0.542057 0.0525767 0.
0.544285 0.0528967 0.
0.54648 0.053134 0.
0.548677 0.0533709 0.
0.550852 0.0536044 0.
0.553016 0.0538439 0.
0.55518 0.0540814 0.
0.557291 0.0541965 0.
0.559398 0.0543061 0.
0.561498 0.0544107 0.
0.563575 0.0544955 0.
0.565652 0.0545807 0.
0.567715 0.0546504 0.
0.569768 0.0547084 0.
0.571822 0.0547668 0.
0.573853 0.0548026 0.
0.57588 0.054834 0.
0.577905 0.0548639 0.
0.579922 0.0548776 0.
0.581938 0.0548914 0.
0.583952 0.0549036 0.
0.585962 0.0549127 0.
0.587972 0.0549218 0.
0.589979 0.0549286 0.
0.591984 0.0549336 0.
0.59399 0.0549386 0.
0.595994 0.054941 0.
0.597997 0.0549427 0.
0.600001 0.0549444 0.
0.602005 0.0549416 0.
0.604009 0.0549388 0.
0.606014 0.054935 0.
0.608021 0.0549278 0.
0.610028 0.0549206 0.
0.612038 0.054911 0.
0.614051 0.0548986 0.
0.616064 0.0548863 0.
0.618083 0.0548703 0.
0.620104 0.0548526 0.
0.622125 0.0548349 0.
0.624159 0.0547957 0.
0.626193 0.0547548 0.
0.628233 0.0547083 0.
0.630297 0.0546363 0.
0.632361 0.0545646 0.
0.634435 0.0544822 0.
0.636521 0.0543861 0.
0.638607 0.0542905 0.
0.640723 0.0541643 0.
0.642846 0.0540322 0.
0.644975 0.0538919 0.
0.647152 0.0536288 0.
0.649329 0.0533633 0.
0.651519 0.0531026 0.
0.653728 0.0528425 0.
0.655937 0.0525795 0.
0.658179 0.0522309 0.
0.660427 0.0518812 0.
0.662685 0.0515131 0.
0.664964 0.0510582 0.
0.667248 0.0506 0.
0.669545 0.0501143 0.
0.671849 0.0495824 0.
0.674156 0.0490325 0.
0.67647 0.0484773 0.
0.678785 0.0479221 0.
0.681103 0.0473626 0.
0.683421 0.0468004 0.
0.685738 0.046227 0.
0.68805 0.0456392 0.
0.690358 0.0450481 0.
0.692656 0.0444747 0.
0.694942 0.0439275 0.
0.697206 0.0434383 0.
0.699452 0.043009 0.
0.701672 0.0426667 0.
0.703862 0.0424455 0.
0.706035 0.0422967 0.
0.492141 0.0441055 0.
0.4943 0.0442532 0.
0.496479 0.0445038 0.
0.498674 0.0448269 0.
0.500898 0.0452474 0.
0.503143 0.0457283 0.
0.505406 0.046256 0.
0.50769 0.0468234 0.
0.509983 0.0474039 0.
0.512283 0.047987 0.
0.514585 0.04856 0.
0.516889 0.0491191 0.
0.519193 0.0496753 0.
0.521495 0.0502261 0.
0.523793 0.0507545 0.
0.52609 0.05128 0.
0.528378 0.0518054 0.
0.530663 0.0523209 0.
0.532941 0.0527879 0.
0.535206 0.0532324 0.
0.537467 0.053674 0.
0.539709 0.0540278 0.
0.541943 0.0543681 0.
0.544172 0.0547076 0.
0.546374 0.054952 0.
0.548576 0.0551946 0.
0.550756 0.0554411 0.
0.552921 0.0556975 0.
0.555085 0.0559514 0.
0.557204 0.0560837 0.
0.559318 0.0562085 0.
0.561424 0.0563273 0.
0.563507 0.0564179 0.
0.56559 0.0565087 0.
0.56766 0.0565864 0.
0.569722 0.0566539 0.
0.571784 0.056722 0.
0.573821 0.0567658 0.
0.575853 0.0568046 0.
0.577884 0.0568418 0.
0.579903 0.0568576 0.
0.581923 0.0568735 0.
0.58394 0.056888 0.
0.585952 0.0568994 0.
0.587964 0.0569108 0.
0.589973 0.0569194 0.
0.59198 0.0569256 0.
0.593987 0.0569318 0.
0.595992 0.0569346 0.
0.597997 0.0569366 0.
0.600001 0.0569385 0.
0.602007 0.0569349 0.
0.604012 0.0569312 0.
0.606018 0.0569264 0.
0.608027 0.0569175 0.
0.610036 0.0569086 0.
0.612049 0.0568967 0.
0.614065 0.0568814 0.
0.616082 0.0568661 0.
0.618104 0.0568475 0.
0.620128 0.0568274 0.
0.622152 0.0568072 0.
0.624192 0.0567593 0.
0.626233 0.0567096 0.
0.628279 0.0566539 0.
0.630351 0.0565719 0.
0.632423 0.0564904 0.
0.634504 0.0564003 0.
0.636596 0.0562992 0.
0.638688 0.0561985 0.
0.640808 0.0560551 0.
0.642936 0.0559048 0.
0.64507 0.0557453 0.
0.647249 0.0554681 0.
0.649428 0.0551885 0.
0.651623 0.0549144 0.
0.653837 0.054645 0.
0.656052 0.0543706 0.
0.658291 0.0540073 0.
0.660535 0.0536432 0.
0.662788 0.053261 0.
0.665058 0.0527993 0.
0.667332 0.0523346 0.
0.669617 0.051845 0.
0.671908 0.0513125 0.
0.674202 0.0507622 0.
0.676503 0.0502089 0.
0.678806 0.049655 0.
0.681109 0.0490985 0.
0.683412 0.0485413 0.
0.685712 0.0479757 0.
0.688006 0.0473998 0.
0.690294 0.0468234 0.
0.692572 0.0462666 0.
0.694839 0.0457364 0.
0.697086 0.0452646 0.
0.699314 0.044853 0.
0.70152 0.0445239 0.
0.703699 0.0443129 0.
0.705863 0.0441728 0.
0.492327 0.0459906 0.
0.49448 0.046133 0.
0.496651 0.046373 0.
0.498836 0.0466859 0.
0.501045 0.047093 0.
0.503272 0.047557 0.
0.505516 0.0480677 0.
0.507778 0.0486173 0.
0.510051 0.0491822 0.
0.512331 0.0497543 0.
0.514615 0.0503198 0.
0.516901 0.0508736 0.
0.519188 0.0514251 0.
0.521474 0.0519725 0.
0.523757 0.0524982 0.
0.526039 0.0530214 0.
0.528315 0.053548 0.
0.530589 0.0540655 0.
0.532859 0.0545371 0.
0.535117 0.0549891 0.
0.537371 0.0554382 0.
0.539608 0.0558038 0.
0.54184 0.0561534 0.
0.544066 0.0565012 0.
0.546267 0.0567583 0.
0.548467 0.0570124 0.
0.550648 0.0572732 0.
0.552814 0.057545 0.
0.554981 0.0578144 0.
0.557107 0.0579648 0.
0.55923 0.0581058 0.
0.561345 0.05824 0.
0.563434 0.0583365 0.
0.565524 0.0584333 0.
0.567603 0.0585193 0.
0.569673 0.0585972 0.
0.571744 0.0586755 0.
0.573788 0.058728 0.
0.575826 0.0587745 0.
0.577862 0.0588193 0.
0.579885 0.0588373 0.
0.581907 0.0588554 0.
0.583927 0.0588721 0.
0.585942 0.0588859 0.
0.587957 0.0588997 0.
0.589968 0.05891 0.
0.591976 0.0589174 0.
0.593984 0.0589249 0.
0.59599 0.0589282 0.
0.597996 0.0589304 0.
0.600001 0.0589325 0.
0.602008 0.058928 0.
0.604015 0.0589236 0.
0.606023 0.0589177 0.
0.608034 0.058907 0.
0.610045 0.0588964 0.
0.61206 0.0588823 0.
0.614079 0.0588639 0.
0.616099 0.0588457 0.
0.618125 0.0588244 0.
0.620152 0.0588017 0.
0.62218 0.058779 0.
0.624227 0.0587219 0.
0.626274 0.058663 0.
0.628328 0.0585973 0.
0.630409 0.0585047 0.
0.632489 0.0584126 0.
0.634578 0.0583144 0.
0.636676 0.058208 0.
0.638774 0.0581019 0.
0.640902 0.0579404 0.
0.643036 0.0577718 0.
0.645177 0.0575929 0.
0.647356 0.0573016 0.
0.649535 0.0570079 0.
0.651729 0.05672 0.
0.653941 0.0564402 0.
0.656154 0.0561539 0.
0.65839 0.0557833 0.
0.660631 0.0554111 0.
0.662879 0.0550181 0.
0.66514 0.05455 0.
0.667405 0.0540795 0.
0.66968 0.0535867 0.
0.671958 0.0530538 0.
0.674239 0.0525042 0.
0.676525 0.0519552 0.
0.678811 0.0514056 0.
0.681097 0.0508541 0.
0.683383 0.0503028 0.
0.685665 0.0497448 0.
0.687941 0.0491802 0.
0.69021 0.0486173 0.
0.692468 0.0480758 0.
0.694714 0.0475615 0.
0.696942 0.047105 0.
0.699154 0.0467083 0.
0.701348 0.0463895 0.
0.703518 0.0461866 0.
0.705675 0.0460542 0.
0.492513 0.0478773 0.
0.49466 0.048015 0.
0.496823 0.048246 0.
0.498999 0.0485507 0.
0.501194 0.0489469 0.
0.503404 0.0493969 0.
0.505628 0.0498937 0.
0.50787 0.0504276 0.
0.510123 0.0509777 0.
0.512384 0.0515368 0.
0.514649 0.0520912 0.
0.516918 0.0526384 0.
0.519188 0.0531854 0.
0.521458 0.0537298 0.
0.523726 0.0542533 0.
0.525995 0.0547746 0.
0.52826 0.0553018 0.
0.530523 0.0558196 0.
0.532783 0.056294 0.
0.535032 0.0567516 0.
0.537278 0.0572063 0.
0.539511 0.0575812 0.
0.541739 0.0579383 0.
0.543962 0.0582945 0.
0.546161 0.0585649 0.
0.54836 0.0588304 0.
0.550542 0.0591054 0.
0.55271 0.0593922 0.
0.554879 0.0596766 0.
0.557014 0.0598446 0.
0.559144 0.0600013 0.
0.561267 0.0601511 0.
0.563363 0.0602525 0.
0.565458 0.0603542 0.
0.567544 0.0604478 0.
0.569622 0.0605356 0.
0.5717 0.0606242 0.
0.573751 0.0606859 0.
0.575795 0.0607411 0.
0.577839 0.0607944 0.
0.579864 0.0608146 0.
0.581889 0.0608347 0.
0.583911 0.0608537 0.
0.585929 0.0608701 0.
0.587947 0.0608866 0.
0.58996 0.060899 0.
0.59197 0.0609079 0.
0.59398 0.0609167 0.
0.595988 0.0609206 0.
0.597995 0.060923 0.
0.600002 0.0609254 0.
0.60201 0.0609198 0.
0.604019 0.0609143 0.
0.606028 0.0609072 0.
0.608042 0.0608947 0.
0.610055 0.0608821 0.
0.612073 0.0608654 0.
0.614096 0.0608438 0.
0.616119 0.0608223 0.
0.618148 0.0607984 0.
0.620179 0.0607733 0.
0.62221 0.0607482 0.
0.624264 0.0606808 0.
0.626318 0.0606118 0.
0.628379 0.0605358 0.
0.630467 0.0604331 0.
0.632554 0.0603311 0.
0.63465 0.0602258 0.
0.636755 0.060115 0.
0.638859 0.0600045 0.
0.640994 0.0598246 0.
0.643134 0.0596379 0.
0.645281 0.0594402 0.
0.64746 0.0591351 0.
0.649639 0.0588277 0.
0.651833 0.058526 0.
0.654042 0.0582356 0.
0.656252 0.0579374 0.
0.658484 0.05756 0.
0.660721 0.0571817 0.
0.662962 0.056781 0.
0.665214 0.056309 0.
0.66747 0.0558342 0.
0.669734 0.0553395 0.
0.672001 0.0548068 0.
0.674269 0.0542581 0.
0.67654 0.0537126 0.
0.67881 0.0531669 0.
0.681079 0.0526209 0.
0.683347 0.0520765 0.
0.685612 0.0515284 0.
0.687869 0.0509763 0.
0.69012 0.0504274 0.
0.69236 0.0498996 0.
0.694587 0.0493985 0.
0.696798 0.0489542 0.
0.698993 0.0485698 0.
0.701175 0.0482599 0.
0.703337 0.0480639 0.
0.705487 0.0479389 0.
0.492685 0.0497671 0.
0.494827 0.0499005 0.
0.496982 0.050124 0.
0.499148 0.0504218 0.
0.50133 0.0508089 0.
0.503525 0.0512475 0.
0.505733 0.0517315 0.
0.507957 0.0522507 0.
0.510192 0.0527862 0.
0.512435 0.053333 0.
0.514683 0.0538782 0.
0.516937 0.0544196 0.
0.519192 0.0549622 0.
0.521448 0.055503 0.
0.523704 0.0560242 0.
0.52596 0.0565425 0.
0.528214 0.0570677 0.
0.530466 0.0575839 0.
0.532715 0.0580598 0.
0.534956 0.0585219 0.
0.537194 0.0589816 0.
0.539423 0.0593651 0.
0.541648 0.0597289 0.
0.543869 0.060092 0.
0.546068 0.060374 0.
0.548266 0.0606493 0.
0.550449 0.0609351 0.
0.552619 0.0612307 0.
0.554789 0.0615225 0.
0.556929 0.061708 0.
0.559065 0.0618842 0.
0.561195 0.0620535 0.
0.563294 0.0621589 0.
0.565392 0.0622645 0.
0.567482 0.0623655 0.
0.569565 0.0624645 0.
0.571649 0.0625641 0.
0.573707 0.0626369 0.
0.57576 0.0627027 0.
0.577812 0.0627666 0.
0.57984 0.0627887 0.
0.581868 0.0628109 0.
0.583893 0.0628322 0.
0.585914 0.0628517 0.
0.587935 0.0628712 0.
0.589951 0.062886 0.
0.591963 0.0628965 0.
0.593976 0.0629071 0.
0.595985 0.0629116 0.
0.597994 0.0629142 0.
0.600003 0.0629168 0.
0.602014 0.0629101 0.
0.604024 0.0629033 0.
0.606036 0.0628947 0.
0.608053 0.0628799 0.
0.610069 0.0628652 0.
0.61209 0.0628455 0.
0.614116 0.0628204 0.
0.616142 0.0627953 0.
0.618175 0.0627687 0.
0.620209 0.0627412 0.
0.622244 0.0627137 0.
0.624306 0.0626338 0.
0.626368 0.0625525 0.
0.628437 0.0624643 0.
0.630528 0.0623517 0.
0.632619 0.0622397 0.
0.634719 0.0621275 0.
0.636826 0.0620126 0.
0.638933 0.0618979 0.
0.641075 0.061697 0.
0.643222 0.0614903 0.
0.645374 0.0612753 0.
0.647553 0.0609636 0.
0.649733 0.0606483 0.
0.651927 0.0603359 0.
0.654133 0.0600356 0.
0.656341 0.0597263 0.
0.658569 0.0593433 0.
0.660802 0.0589596 0.
0.663037 0.0585518 0.
0.665279 0.0580763 0.
0.667525 0.0575988 0.
0.669778 0.0571041 0.
0.672033 0.0565741 0.
0.674289 0.0560283 0.
0.676547 0.055487 0.
0.678803 0.0549444 0.
0.681057 0.0544032 0.
0.68331 0.0538647 0.
0.685559 0.0533249 0.
0.6878 0.0527846 0.
0.690034 0.05225 0.
0.692258 0.0517366 0.
0.694469 0.051248 0.
0.696664 0.0508129 0.
0.698848 0.0504381 0.
0.701018 0.0501366 0.
0.703172 0.0499478 0.
0.705315 0.0498299 0.
0.492856 0.0516626 0.
0.494991 0.0517921 0.
0.497139 0.052008 0.
0.499296 0.0522996 0.
0.501467 0.0526789 0.
0.50365 0.0531079 0.
0.505846 0.0535815 0.
0.508054 0.0540889 0.
0.510272 0.0546122 0.
0.5125 0.055148 0.
0.514733 0.0556839 0.
0.516972 0.0562179 0.
0.519212 0.0567535 0.
0.521452 0.0572885 0.
0.523694 0.0578063 0.
0.525938 0.0583209 0.
0.52818 0.0588444 0.
0.53042 0.0593592 0.
0.532659 0.0598359 0.
0.534893 0.0603018 0.
0.537123 0.0607648 0.
0.539346 0.0611545 0.
0.541565 0.0615231 0.
0.54378 0.0618914 0.
0.545977 0.0621835 0.
0.548172 0.0624674 0.
0.550355 0.0627634 0.
0.552527 0.063067 0.
0.554699 0.0633669 0.
0.556844 0.06357 0.
0.558986 0.0637662 0.
0.561123 0.0639558 0.
0.563224 0.0640652 0.
0.565326 0.0641748 0.
0.567421 0.0642829 0.
0.569509 0.0643929 0.
0.571597 0.0645038 0.
0.573664 0.0645877 0.
0.575725 0.0646641 0.
0.577785 0.0647387 0.
0.579816 0.0647629 0.
0.581846 0.0647871 0.
0.583875 0.0648107 0.
0.585899 0.0648332 0.
0.587922 0.0648558 0.
0.589941 0.0648729 0.
0.591956 0.0648852 0.
0.593971 0.0648975 0.
0.595983 0.0649025 0.
0.597993 0.0649054 0.
0.600004 0.0649082 0.
0.602017 0.0649003 0.
0.60403 0.0648923 0.
0.606044 0.0648822 0.
0.608063 0.0648652 0.
0.610083 0.0648482 0.
0.612107 0.0648257 0.
0.614136 0.0647969 0.
0.616166 0.0647682 0.
0.618201 0.0647389 0.
0.62024 0.0647091 0.
0.622278 0.064679 0.
0.624348 0.0645866 0.
0.626419 0.0644929 0.
0.628495 0.0643926 0.
0.63059 0.0642699 0.
0.632684 0.0641479 0.
0.634787 0.0640291 0.
0.636898 0.0639101 0.
0.639008 0.0637905 0.
0.641158 0.0635683 0.
0.643311 0.0633406 0.
0.645468 0.0631081 0.
0.647648 0.0627896 0.
0.649828 0.0624674 0.
0.652021 0.0621456 0.
0.654223 0.0618375 0.
0.656428 0.0615193 0.
0.658649 0.0611325 0.
0.660873 0.0607454 0.
0.663101 0.0603323 0.
0.665334 0.0598538 0.
0.667571 0.0593737 0.
0.669813 0.0588791 0.
0.672055 0.0583517 0.
0.674298 0.0578098 0.
0.676541 0.0572742 0.
0.678781 0.0567367 0.
0.68102 0.056202 0.
0.683257 0.0556707 0.
0.685491 0.0551389 0.
0.687719 0.0546091 0.
0.689939 0.0540867 0.
0.692148 0.0535855 0.
0.694345 0.0531077 0.
0.696529 0.0526797 0.
0.698702 0.0523127 0.
0.700863 0.0520187 0.
0.703009 0.0518371 0.
0.705144 0.0517273 0.
0.493045 0.0535621 0.
0.495174 0.0536887 0.
0.497314 0.0538987 0.
0.499462 0.0541867 0.
0.501624 0.0545599 0.
0.503795 0.0549818 0.
0.505978 0.0554474 0.
0.508172 0.0559441 0.
0.510374 0.0564552 0.
0.512585 0.0569791 0.
0.5148 0.0575051 0.
0.517023 0.058031 0.
0.519247 0.0585594 0.
0.521473 0.0590888 0.
0.523702 0.0596034 0.
0.525932 0.0601142 0.
0.528161 0.060635 0.
0.530389 0.0611474 0.
0.532616 0.0616235 0.
0.534839 0.0620899 0.
0.53706 0.0625538 0.
0.539276 0.0629483 0.
0.541488 0.0633213 0.
0.543695 0.0636945 0.
0.545888 0.0639963 0.
0.548079 0.0642887 0.
0.55026 0.0645942 0.
0.552432 0.064904 0.
0.554602 0.0652097 0.
0.556751 0.0654284 0.
0.558896 0.065642 0.
0.561037 0.0658493 0.
0.563141 0.0659631 0.
0.565245 0.066077 0.
0.567344 0.0661909 0.
0.569436 0.0663074 0.
0.571528 0.0664243 0.
0.573602 0.0665187 0.
0.575671 0.0666064 0.
0.577739 0.0666928 0.
0.579777 0.0667225 0.
0.581814 0.0667523 0.
0.583848 0.0667808 0.
0.585876 0.0668064 0.
0.587903 0.066832 0.
0.589925 0.0668517 0.
0.591944 0.0668661 0.
0.593963 0.0668806 0.
0.595978 0.0668863 0.
0.597992 0.0668895 0.
0.600006 0.0668926 0.
0.602023 0.066883 0.
0.604039 0.0668734 0.
0.606057 0.0668614 0.
0.608081 0.0668415 0.
0.610105 0.0668217 0.
0.612133 0.0667962 0.
0.614165 0.0667644 0.
0.616198 0.0667326 0.
0.618241 0.0666974 0.
0.620286 0.0666609 0.
0.622332 0.0666237 0.
0.62441 0.0665203 0.
0.626487 0.0664157 0.
0.628569 0.0663058 0.
0.630666 0.066178 0.
0.632763 0.0660505 0.
0.634869 0.0659252 0.
0.636982 0.0658003 0.
0.639096 0.0656739 0.
0.641248 0.0654344 0.
0.643404 0.0651889 0.
0.645564 0.0649413 0.
0.647743 0.0646175 0.
0.649923 0.0642897 0.
0.652112 0.0639587 0.
0.65431 0.0636428 0.
0.65651 0.0633163 0.
0.658723 0.0629264 0.
0.660938 0.0625366 0.
0.663157 0.0621204 0.
0.665379 0.0616421 0.
0.667605 0.0611619 0.
0.669834 0.0606687 0.
0.672064 0.060144 0.
0.674293 0.0596059 0.
0.676521 0.0590761 0.
0.678747 0.0585434 0.
0.680969 0.0580152 0.
0.68319 0.0574921 0.
0.685407 0.0569699 0.
0.687617 0.0564507 0.
0.689822 0.0559401 0.
0.692017 0.0554497 0.
0.694201 0.0549809 0.
0.696374 0.0545581 0.
0.698536 0.0541969 0.
0.700688 0.0539087 0.
0.702827 0.0537322 0.
0.704955 0.0536288 0.
0.493252 0.0554646 0.
0.495376 0.05559 0.
0.497508 0.0557972 0.
0.499649 0.0560838 0.
0.5018 0.0564523 0.
0.503959 0.0568687 0.
0.506128 0.0573266 0.
0.508305 0.0578122 0.
0.510491 0.0583127 0.
0.512684 0.0588269 0.
0.514882 0.0593448 0.
0.517089 0.0598627 0.
0.519297 0.060384 0.
0.521507 0.060907 0.
0.52372 0.0614168 0.
0.525936 0.0619215 0.
0.528151 0.0624379 0.
0.530366 0.0629469 0.
0.532581 0.0634215 0.
0.534795 0.0638879 0.
0.537007 0.0643526 0.
0.539214 0.0647515 0.
0.541417 0.0651282 0.
0.543617 0.0655051 0.
0.545804 0.0658146 0.
0.54799 0.0661127 0.
0.550166 0.0664244 0.
0.552334 0.066739 0.
0.554501 0.0670495 0.
0.55665 0.0672814 0.
0.558796 0.0675103 0.
0.560939 0.0677337 0.
0.563049 0.0678551 0.
0.565158 0.0679753 0.
0.567262 0.0680956 0.
0.569358 0.0682177 0.
0.571454 0.0683402 0.
0.573536 0.0684455 0.
0.575613 0.0685455 0.
0.577691 0.0686442 0.
0.579736 0.0686805 0.
0.58178 0.0687163 0.
0.583821 0.0687502 0.
0.585852 0.0687789 0.
0.587883 0.0688077 0.
0.589909 0.06883 0.
0.591932 0.0688467 0.
0.593954 0.0688634 0.
0.595973 0.0688699 0.
0.597991 0.0688733 0.
0.600009 0.0688766 0.
0.602029 0.0688654 0.
0.604049 0.0688541 0.
0.606071 0.0688401 0.
0.608099 0.0688173 0.
0.610127 0.0687946 0.
0.612159 0.068766 0.
0.614195 0.0687311 0.
0.616232 0.0686963 0.
0.618282 0.0686545 0.
0.620336 0.0686104 0.
0.62239 0.068565 0.
0.624475 0.0684501 0.
0.626559 0.0683341 0.
0.628647 0.0682147 0.
0.630747 0.0680828 0.
0.632847 0.0679511 0.
0.634959 0.0678177 0.
0.637077 0.0676836 0.
0.639196 0.067546 0.
0.641348 0.0672917 0.
0.643503 0.067032 0.
0.645662 0.0667726 0.
0.647837 0.0664448 0.
0.650012 0.066113 0.
0.652197 0.0657765 0.
0.654389 0.0654555 0.
0.656583 0.0651223 0.
0.658787 0.0647296 0.
0.660994 0.0643374 0.
0.663204 0.0639184 0.
0.665417 0.0634406 0.
0.667631 0.0629615 0.
0.669847 0.0624714 0.
0.672062 0.0619515 0.
0.674277 0.0614192 0.
0.676489 0.0608964 0.
0.6787 0.0603694 0.
0.680906 0.0598472 0.
0.683109 0.0593312 0.
0.685309 0.0588176 0.
0.687502 0.0583078 0.
0.689689 0.0578076 0.
0.691868 0.0573271 0.
0.694038 0.0568674 0.
0.696199 0.0564491 0.
0.69835 0.0560914 0.
0.700493 0.0558071 0.
0.702624 0.0556327 0.
0.704746 0.0555331 0.
0.493458 0.0573714 0.
0.495576 0.0574957 0.
0.497701 0.0577005 0.
0.499832 0.057987 0.
0.501972 0.0583519 0.
0.504119 0.0587639 0.
0.506275 0.059215 0.
0.508438 0.0596915 0.
0.510609 0.060183 0.
0.512786 0.0606882 0.
0.514968 0.0611983 0.
0.517158 0.0617077 0.
0.519349 0.0622202 0.
0.521543 0.0627357 0.
0.523742 0.0632403 0.
0.525943 0.0637392 0.
0.528146 0.0642514 0.
0.530348 0.0647568 0.
0.532553 0.0652298 0.
0.534757 0.0656964 0.
0.536958 0.0661611 0.
0.539156 0.0665626 0.
0.541351 0.0669409 0.
0.543542 0.0673197 0.
0.545723 0.067635 0.
0.547902 0.0679378 0.
0.550073 0.0682556 0.
0.552237 0.0685749 0.
0.5544 0.06889 0.
0.556551 0.0691344 0.
0.558698 0.0693786 0.
0.560843 0.0696177 0.
0.562958 0.0697468 0.
0.565072 0.0698731 0.
0.567182 0.0699996 0.
0.569282 0.0701263 0.
0.571382 0.0702532 0.
0.573471 0.0703682 0.
0.575555 0.0704797 0.
0.57764 0.07059 0.
0.579692 0.0706337 0.
0.581744 0.0706766 0.
0.583791 0.0707168 0.
0.585826 0.0707484 0.
0.587861 0.0707801 0.
0.589891 0.0708051 0.
0.591918 0.070824 0.
0.593944 0.0708429 0.
0.595967 0.0708501 0.
0.59799 0.0708537 0.
0.600012 0.0708573 0.
0.602036 0.0708443 0.
0.604061 0.0708313 0.
0.606087 0.0708153 0.
0.608119 0.0707897 0.
0.610151 0.0707642 0.
0.612188 0.0707327 0.
0.614228 0.0706949 0.
0.616269 0.0706572 0.
0.618325 0.0706078 0.
0.620387 0.0705551 0.
0.622449 0.0705006 0.
0.624539 0.0703757 0.
0.62663 0.0702496 0.
0.628723 0.0701218 0.
0.630827 0.0699867 0.
0.63293 0.0698516 0.
0.635047 0.0697098 0.
0.63717 0.0695667 0.
0.639294 0.069418 0.
0.641446 0.0691493 0.
0.643601 0.0688754 0.
0.645759 0.0686048 0.
0.647929 0.0682731 0.
0.6501 0.0679372 0.
0.652279 0.0675959 0.
0.654464 0.0672715 0.
0.656651 0.0669341 0.
0.658846 0.0665404 0.
0.661044 0.0661474 0.
0.663244 0.065727 0.
0.665446 0.06525 0.
0.66765 0.0647715 0.
0.669854 0.0642843 0.
0.672055 0.0637692 0.
0.674256 0.0632428 0.
0.676454 0.0627275 0.
0.678649 0.062207 0.
0.680838 0.0616922 0.
0.683024 0.0611843 0.
0.685208 0.060679 0.
0.687385 0.060177 0.
0.689556 0.0596855 0.
0.69172 0.0592137 0.
0.693876 0.0587619 0.
0.696025 0.0583474 0.
0.698166 0.057992 0.
0.700299 0.0577104 0.
0.702423 0.0575364 0.
0.704538 0.0574398 0.
0.493648 0.0592839 0.
0.495758 0.0594066 0.
0.497876 0.0596096 0.
0.499999 0.0598968 0.
0.502129 0.0602588 0.
0.504266 0.0606669 0.
0.50641 0.0611122 0.
0.50856 0.0615801 0.
0.510718 0.0620627 0.
0.512881 0.0625591 0.
0.515048 0.063062 0.
0.517223 0.0635641 0.
0.5194 0.0640695 0.
0.52158 0.0645786 0.
0.523766 0.0650789 0.
0.525954 0.0655721 0.
0.528145 0.0660789 0.
0.530337 0.0665794 0.
0.53253 0.0670491 0.
0.534723 0.0675144 0.
0.536913 0.0679784 0.
0.539101 0.0683818 0.
0.541287 0.0687614 0.
0.543469 0.069142 0.
0.545645 0.0694629 0.
0.547818 0.06977 0.
0.549986 0.070093 0.
0.552148 0.0704152 0.
0.554308 0.070733 0.
0.556459 0.0709855 0.
0.558606 0.0712389 0.
0.560752 0.0714865 0.
0.562872 0.0716264 0.
0.564992 0.0717625 0.
0.567107 0.0718974 0.
0.569209 0.0720269 0.
0.571312 0.0721566 0.
0.573405 0.0722806 0.
0.575494 0.0724034 0.
0.577584 0.0725252 0.
0.579643 0.0725786 0.
0.581702 0.0726309 0.
0.583757 0.0726791 0.
0.585796 0.0727136 0.
0.587835 0.0727481 0.
0.58987 0.0727758 0.
0.591902 0.072797 0.
0.593933 0.0728183 0.
0.595961 0.0728263 0.
0.597988 0.0728301 0.
0.600015 0.0728339 0.
0.602045 0.072819 0.
0.604074 0.0728042 0.
0.606106 0.072786 0.
0.608142 0.0727575 0.
0.610179 0.0727291 0.
0.61222 0.0726947 0.
0.614266 0.0726542 0.
0.616311 0.0726137 0.
0.618373 0.0725546 0.
0.62044 0.0724905 0.
0.622508 0.0724245 0.
0.624603 0.0722907 0.
0.626697 0.0721559 0.
0.628795 0.0720208 0.
0.630902 0.071882 0.
0.633009 0.0717435 0.
0.63513 0.0715927 0.
0.637257 0.0714393 0.
0.639386 0.0712791 0.
0.641538 0.0710028 0.
0.643692 0.0707204 0.
0.645849 0.0704424 0.
0.648015 0.0701076 0.
0.650182 0.0697681 0.
0.652357 0.0694227 0.
0.654536 0.0690953 0.
0.656716 0.068754 0.
0.658902 0.0683595 0.
0.661089 0.067966 0.
0.663279 0.0675453 0.
0.66547 0.0670707 0.
0.667662 0.0665948 0.
0.669854 0.066112 0.
0.672043 0.0656021 0.
0.674232 0.0650816 0.
0.676416 0.0645727 0.
0.678597 0.0640572 0.
0.680773 0.0635485 0.
0.682944 0.063048 0.
0.685113 0.0625509 0.
0.687275 0.0620565 0.
0.689432 0.0615733 0.
0.691583 0.0611087 0.
0.693728 0.060664 0.
0.695866 0.0602529 0.
0.697998 0.0598995 0.
0.700122 0.0596205 0.
0.702238 0.0594459 0.
0.704347 0.0593512 0.
0.493835 0.0611993 0.
0.49594 0.0613219 0.
0.49805 0.0615253 0.
0.500166 0.0618146 0.
0.502287 0.0621734 0.
0.504414 0.0625783 0.
0.506547 0.0630185 0.
0.508686 0.063479 0.
0.510833 0.0639541 0.
0.512983 0.0644437 0.
0.515138 0.0649405 0.
0.5173 0.065436 0.
0.519463 0.0659347 0.
0.521629 0.0664375 0.
0.5238 0.0669316 0.
0.525974 0.0674171 0.
0.528152 0.067917 0.
0.530331 0.068412 0.
0.532513 0.0688782 0.
0.534693 0.0693426 0.
0.536872 0.0698061 0.
0.53905 0.0702106 0.
0.541226 0.0705908 0.
0.5434 0.070972 0.
0.54557 0.0712964 0.
0.547738 0.0716056 0.
0.549902 0.0719316 0.
0.552059 0.0722562 0.
0.554217 0.0725762 0.
0.556366 0.0728357 0.
0.558515 0.0730974 0.
0.560661 0.0733535 0.
0.562787 0.0735048 0.
0.564912 0.0736512 0.
0.567031 0.0737951 0.
0.569137 0.0739275 0.
0.571243 0.07406 0.
0.57334 0.0741927 0.
0.575433 0.0743268 0.
0.577527 0.07446 0.
0.579594 0.0745233 0.
0.581661 0.0745849 0.
0.583722 0.0746413 0.
0.585766 0.0746787 0.
0.587809 0.0747161 0.
0.589849 0.0747464 0.
0.591885 0.07477 0.
0.593922 0.0747937 0.
0.595955 0.0748024 0.
0.597987 0.0748064 0.
0.600019 0.0748104 0.
0.602054 0.0747937 0.
0.604088 0.074777 0.
0.606124 0.0747566 0.
0.608166 0.0747253 0.
0.610207 0.0746939 0.
0.612253 0.0746567 0.
0.614303 0.0746134 0.
0.616354 0.0745702 0.
0.618422 0.074501 0.
0.620494 0.0744256 0.
0.622568 0.0743481 0.
0.624666 0.0742056 0.
0.626765 0.0740621 0.
0.628868 0.0739197 0.
0.630978 0.0737772 0.
0.633088 0.0736351 0.
0.635214 0.0734743 0.
0.637345 0.0733102 0.
0.639477 0.0731382 0.
0.641629 0.0728546 0.
0.643782 0.0725654 0.
0.645937 0.0722814 0.
0.648099 0.0719441 0.
0.650262 0.0716018 0.
0.65243 0.0712548 0.
0.654603 0.0709264 0.
0.656777 0.0705829 0.
0.658953 0.0701883 0.
0.661131 0.069795 0.
0.663309 0.0693747 0.
0.665487 0.068902 0.
0.667667 0.0684285 0.
0.669846 0.0679503 0.
0.672022 0.067447 0.
0.674197 0.0669345 0.
0.676366 0.0664341 0.
0.678534 0.065925 0.
0.680696 0.0654212 0.
0.682854 0.0649261 0.
0.685011 0.0644356 0.
0.687161 0.063948 0.
0.689306 0.0634718 0.
0.691446 0.0630133 0.
0.69358 0.0625748 0.
0.695708 0.062167 0.
0.69783 0.0618151 0.
0.699946 0.0615387 0.
0.702054 0.0613624 0.
0.704156 0.061268 0.
0.49404 0.0631191 0.
0.496138 0.0632436 0.
0.498241 0.0634494 0.
0.500349 0.0637421 0.
0.502462 0.0640993 0.
0.504579 0.064502 0.
0.506701 0.0649379 0.
0.508829 0.0653924 0.
0.510963 0.0658609 0.
0.5131 0.0663436 0.
0.515242 0.0668344 0.
0.517389 0.0673226 0.
0.519536 0.0678141 0.
0.521687 0.06831 0.
0.523842 0.0687981 0.
0.526001 0.0692763 0.
0.528165 0.06977 0.
0.53033 0.0702597 0.
0.532497 0.0707213 0.
0.534665 0.0711827 0.
0.536831 0.0716429 0.
0.538999 0.0720462 0.
0.541166 0.0724258 0.
0.543332 0.0728068 0.
0.545496 0.073134 0.
0.547658 0.0734451 0.
0.549817 0.0737738 0.
0.55197 0.0741003 0.
0.554123 0.0744221 0.
0.556272 0.0746874 0.
0.558419 0.0749559 0.
0.560565 0.0752185 0.
0.562694 0.0753807 0.
0.564822 0.0755367 0.
0.566945 0.0756892 0.
0.569052 0.0758233 0.
0.571159 0.0759575 0.
0.57326 0.0760954 0.
0.575357 0.0762361 0.
0.577455 0.0763756 0.
0.57953 0.0764506 0.
0.581604 0.0765241 0.
0.583674 0.076591 0.
0.585723 0.0766308 0.
0.587774 0.0766706 0.
0.58982 0.0767032 0.
0.591863 0.0767288 0.
0.593906 0.0767543 0.
0.595946 0.0767637 0.
0.597985 0.0767678 0.
0.600024 0.0767718 0.
0.602065 0.0767537 0.
0.604106 0.0767356 0.
0.606149 0.0767134 0.
0.608197 0.0766794 0.
0.610245 0.0766455 0.
0.612297 0.0766057 0.
0.614353 0.0765599 0.
0.616409 0.0765143 0.
0.618484 0.0764344 0.
0.620563 0.0763474 0.
0.622644 0.0762584 0.
0.624746 0.07611 0.
0.626848 0.0759605 0.
0.628953 0.0758133 0.
0.631065 0.0756688 0.
0.633177 0.0755244 0.
0.635305 0.0753542 0.
0.637438 0.0751799 0.
0.639573 0.0749967 0.
0.641722 0.0747075 0.
0.643873 0.0744126 0.
0.646026 0.0741234 0.
0.648183 0.0737839 0.
0.65034 0.0734393 0.
0.652502 0.0730915 0.
0.654667 0.0727629 0.
0.656834 0.0724182 0.
0.659001 0.0720248 0.
0.661169 0.0716329 0.
0.663336 0.0712151 0.
0.665502 0.0707465 0.
0.667669 0.0702765 0.
0.669833 0.0698038 0.
0.671993 0.0693069 0.
0.674153 0.0688014 0.
0.676308 0.0683087 0.
0.67846 0.0678064 0.
0.680607 0.0673087 0.
0.68275 0.0668202 0.
0.684893 0.0663363 0.
0.687031 0.0658542 0.
0.689164 0.0653841 0.
0.691293 0.0649308 0.
0.693416 0.0644973 0.
0.695534 0.0640919 0.
0.697647 0.06374 0.
0.699754 0.0634643 0.
0.701855 0.0632842 0.
0.70395 0.063188 0.
0.494263 0.0650465 0.
0.496355 0.0651733 0.
0.498451 0.0653832 0.
0.500551 0.0656798 0.
0.502654 0.0660358 0.
0.504761 0.0664373 0.
0.506871 0.0668697 0.
0.508986 0.0673186 0.
0.511106 0.0677809 0.
0.513228 0.0682571 0.
0.515354 0.068742 0.
0.517486 0.0692242 0.
0.519617 0.06971 0.
0.521751 0.0702004 0.
0.523891 0.0706828 0.
0.526033 0.0711543 0.
0.52818 0.0716405 0.
0.530328 0.0721218 0.
0.532481 0.072576 0.
0.534637 0.0730324 0.
0.536792 0.0734882 0.
0.53895 0.0738901 0.
0.54111 0.0742688 0.
0.543268 0.0746492 0.
0.545426 0.0749789 0.
0.547581 0.0752912 0.
0.549735 0.0756212 0.
0.551884 0.0759489 0.
0.554033 0.0762716 0.
0.556179 0.0765401 0.
0.558323 0.0768125 0.
0.560467 0.0770795 0.
0.562597 0.0772522 0.
0.564726 0.0774179 0.
0.56685 0.0775795 0.
0.568959 0.0777156 0.
0.571069 0.0778518 0.
0.573174 0.0779943 0.
0.575276 0.0781409 0.
0.577379 0.0782863 0.
0.579463 0.0783739 0.
0.581545 0.0784603 0.
0.583622 0.0785386 0.
0.585679 0.078581 0.
0.587736 0.0786235 0.
0.58979 0.0786586 0.
0.59184 0.0786861 0.
0.59389 0.0787137 0.
0.595937 0.0787237 0.
0.597983 0.0787279 0.
0.600029 0.078732 0.
0.602077 0.0787124 0.
0.604125 0.0786929 0.
0.606175 0.0786688 0.
0.60823 0.078632 0.
0.610284 0.0785954 0.
0.612343 0.0785527 0.
0.614405 0.0785043 0.
0.616467 0.0784559 0.
0.61855 0.0783647 0.
0.620637 0.0782655 0.
0.622726 0.0781647 0.
0.624832 0.0780101 0.
0.626938 0.0778546 0.
0.629046 0.077703 0.
0.63116 0.0775566 0.
0.633273 0.0774104 0.
0.635402 0.0772304 0.
0.637536 0.0770462 0.
0.63967 0.0768526 0.
0.641816 0.0765601 0.
0.643964 0.0762624 0.
0.646113 0.0759709 0.
0.648265 0.0756304 0.
0.650417 0.0752841 0.
0.652572 0.0749359 0.
0.65473 0.0746072 0.
0.656888 0.0742613 0.
0.659047 0.0738695 0.
0.661206 0.0734795 0.
0.663362 0.0730646 0.
0.665515 0.0726015 0.
0.667669 0.0721374 0.
0.669818 0.0716727 0.
0.671962 0.0711839 0.
0.674105 0.0706867 0.
0.676243 0.0702009 0.
0.678379 0.0697036 0.
0.680509 0.0692109 0.
0.682636 0.0687276 0.
0.684764 0.0682492 0.
0.686888 0.0677728 0.
0.689008 0.0673087 0.
0.691124 0.0668605 0.
0.693236 0.0664315 0.
0.695344 0.0660278 0.
0.697448 0.0656745 0.
0.699547 0.0653985 0.
0.70164 0.0652137 0.
0.70373 0.0651145 0.
0.494485 0.0669819 0.
0.49657 0.0671101 0.
0.498658 0.0673243 0.
0.500749 0.0676242 0.
0.502842 0.0679791 0.
0.504939 0.06838 0.
0.507038 0.0688097 0.
0.509138 0.0692545 0.
0.511244 0.0697116 0.
0.513352 0.0701825 0.
0.515462 0.0706616 0.
0.517578 0.0711376 0.
0.519693 0.0716174 0.
0.521813 0.0721013 0.
0.523936 0.0725774 0.
0.526062 0.0730413 0.
0.528194 0.0735199 0.
0.530328 0.0739938 0.
0.532467 0.0744417 0.
0.534612 0.0748931 0.
0.536756 0.0753439 0.
0.538904 0.0757425 0.
0.541056 0.0761191 0.
0.543206 0.0764977 0.
0.545356 0.0768284 0.
0.547506 0.0771404 0.
0.549653 0.0774706 0.
0.551799 0.0777988 0.
0.553944 0.078122 0.
0.556086 0.0783935 0.
0.558228 0.0786698 0.
0.56037 0.0789411 0.
0.562501 0.0791235 0.
0.56463 0.0792988 0.
0.566757 0.0794699 0.
0.568869 0.0796079 0.
0.570981 0.0797459 0.
0.57309 0.0798924 0.
0.575197 0.0800438 0.
0.577305 0.080194 0.
0.579396 0.0802934 0.
0.581486 0.0803924 0.
0.58357 0.0804823 0.
0.585634 0.080527 0.
0.587698 0.0805718 0.
0.589758 0.0806091 0.
0.591815 0.0806385 0.
0.593873 0.0806679 0.
0.595927 0.0806785 0.
0.59798 0.0806829 0.
0.600034 0.080687 0.
0.602089 0.0806661 0.
0.604145 0.0806452 0.
0.606202 0.0806194 0.
0.608263 0.0805801 0.
0.610324 0.0805409 0.
0.612389 0.0804959 0.
0.614458 0.0804452 0.
0.616525 0.0803945 0.
0.618616 0.0802916 0.
0.62071 0.0801805 0.
0.622806 0.0800687 0.
0.624916 0.0799091 0.
0.627027 0.0797482 0.
0.629138 0.0795927 0.
0.631253 0.0794446 0.
0.633367 0.0792966 0.
0.635498 0.0791065 0.
0.637632 0.0789127 0.
0.639767 0.0787091 0.
0.64191 0.0784134 0.
0.644054 0.078113 0.
0.646199 0.0778195 0.
0.648346 0.0774792 0.
0.650493 0.0771329 0.
0.652641 0.0767857 0.
0.654791 0.0764581 0.
0.656941 0.0761123 0.
0.65909 0.0757231 0.
0.66124 0.0753359 0.
0.663386 0.074925 0.
0.665527 0.0744677 0.
0.667669 0.0740094 0.
0.669804 0.0735512 0.
0.671934 0.0730697 0.
0.674061 0.0725811 0.
0.676183 0.0721039 0.
0.678303 0.0716134 0.
0.680418 0.0711256 0.
0.682529 0.0706474 0.
0.684641 0.0701741 0.
0.686749 0.0697023 0.
0.688855 0.0692428 0.
0.690959 0.0687987 0.
0.693058 0.0683733 0.
0.695156 0.0679711 0.
0.697251 0.067616 0.
0.699341 0.0673398 0.
0.701427 0.0671513 0.
0.70351 0.0670483 0.
0.494693 0.0689241 0.
0.496769 0.069054 0.
0.498849 0.0692725 0.
0.500932 0.069576 0.
0.503015 0.0699312 0.
0.505101 0.0703325 0.
0.507187 0.0707602 0.
0.509275 0.0712022 0.
0.511367 0.0716548 0.
0.51346 0.0721191 0.
0.515557 0.0725919 0.
0.517658 0.0730616 0.
0.519759 0.0735357 0.
0.521865 0.074014 0.
0.523973 0.0744844 0.
0.526084 0.0749415 0.
0.528203 0.0754142 0.
0.530324 0.0758818 0.
0.532451 0.0763232 0.
0.534584 0.076767 0.
0.536718 0.0772097 0.
0.538857 0.077603 0.
0.541 0.0779767 0.
0.543141 0.0783531 0.
0.545286 0.0786846 0.
0.547429 0.0789963 0.
0.549572 0.0793262 0.
0.551714 0.0796548 0.
0.553856 0.0799781 0.
0.555997 0.080251 0.
0.558138 0.0805289 0.
0.560277 0.0808022 0.
0.56241 0.0809926 0.
0.564541 0.0811753 0.
0.566669 0.0813541 0.
0.568786 0.0814933 0.
0.570903 0.0816327 0.
0.573016 0.0817819 0.
0.575126 0.0819374 0.
0.577237 0.0820917 0.
0.579333 0.0822031 0.
0.581426 0.0823152 0.
0.583516 0.0824176 0.
0.585586 0.0824645 0.
0.587656 0.0825115 0.
0.589724 0.082551 0.
0.591789 0.0825824 0.
0.593854 0.0826139 0.
0.595916 0.0826252 0.
0.597978 0.0826296 0.
0.600039 0.0826339 0.
0.602102 0.0826117 0.
0.604165 0.0825896 0.
0.606229 0.082562 0.
0.608298 0.0825202 0.
0.610366 0.0824785 0.
0.612437 0.0824311 0.
0.614511 0.0823784 0.
0.616584 0.0823258 0.
0.618679 0.0822099 0.
0.620778 0.0820856 0.
0.622878 0.0819622 0.
0.624991 0.081799 0.
0.627105 0.0816347 0.
0.629221 0.0814761 0.
0.63134 0.0813261 0.
0.633458 0.0811759 0.
0.63559 0.0809791 0.
0.637725 0.0807785 0.
0.63986 0.0805675 0.
0.642002 0.0802702 0.
0.644143 0.0799685 0.
0.646286 0.0796743 0.
0.648428 0.0793345 0.
0.65057 0.0789885 0.
0.652712 0.0786429 0.
0.654854 0.0783164 0.
0.656997 0.077971 0.
0.659136 0.0775853 0.
0.661276 0.077202 0.
0.663413 0.0767972 0.
0.665542 0.0763481 0.
0.667671 0.0758975 0.
0.669795 0.0754459 0.
0.671912 0.0749697 0.
0.674026 0.074487 0.
0.676133 0.0740175 0.
0.678238 0.0735337 0.
0.68034 0.0730511 0.
0.682436 0.072578 0.
0.684534 0.0721098 0.
0.686628 0.0716432 0.
0.68872 0.0711886 0.
0.690811 0.0707482 0.
0.692898 0.070325 0.
0.694984 0.0699237 0.
0.697068 0.0695661 0.
0.699149 0.0692884 0.
0.701226 0.0690956 0.
0.703301 0.0689882 0.
0.494901 0.0708751 0.
0.496969 0.0710076 0.
0.49904 0.0712315 0.
0.501112 0.0715382 0.
0.503185 0.0718936 0.
0.50526 0.0722952 0.
0.507335 0.0727214 0.
0.509411 0.0731608 0.
0.51149 0.0736098 0.
0.51357 0.074069 0.
0.515653 0.074536 0.
0.51774 0.0750005 0.
0.519827 0.0754697 0.
0.521919 0.0759422 0.
0.524014 0.0764062 0.
0.526113 0.0768554 0.
0.528218 0.0773207 0.
0.530325 0.0777811 0.
0.532439 0.0782152 0.
0.53456 0.0786509 0.
0.536682 0.0790858 0.
0.538812 0.0794733 0.
0.540946 0.0798434 0.
0.543079 0.0802166 0.
0.545217 0.0805475 0.
0.547354 0.0808573 0.
0.549492 0.081185 0.
0.551631 0.0815134 0.
0.553769 0.081836 0.
0.555908 0.0821094 0.
0.558047 0.0823886 0.
0.560185 0.0826634 0.
0.562319 0.0828609 0.
0.564451 0.0830504 0.
0.566582 0.0832368 0.
0.568703 0.083378 0.
0.570824 0.0835191 0.
0.572941 0.0836711 0.
0.575055 0.0838308 0.
0.577169 0.0839893 0.
0.579269 0.0841124 0.
0.581366 0.0842376 0.
0.583461 0.0843528 0.
0.585538 0.084402 0.
0.587615 0.0844512 0.
0.58969 0.084493 0.
0.591763 0.0845263 0.
0.593835 0.0845598 0.
0.595906 0.0845718 0.
0.597975 0.0845764 0.
0.600045 0.0845808 0.
0.602115 0.0845573 0.
0.604186 0.0845339 0.
0.606258 0.0845045 0.
0.608333 0.0844602 0.
0.610407 0.0844159 0.
0.612485 0.0843663 0.
0.614564 0.0843116 0.
0.616643 0.084257 0.
0.618743 0.0841276 0.
0.620846 0.0839901 0.
0.62295 0.0838556 0.
0.625067 0.0836887 0.
0.627183 0.0835208 0.
0.629303 0.0833588 0.
0.631427 0.0832061 0.
0.63355 0.0830526 0.
0.635683 0.0828497 0.
0.637818 0.0826436 0.
0.639953 0.0824266 0.
0.642092 0.0821285 0.
0.644231 0.0818262 0.
0.64637 0.0815322 0.
0.648508 0.0811937 0.
0.650646 0.0808486 0.
0.652782 0.0805064 0.
0.654917 0.080183 0.
0.657051 0.0798389 0.
0.65918 0.079457 0.
0.66131 0.0790781 0.
0.663436 0.0786795 0.
0.665553 0.0782388 0.
0.66767 0.077797 0.
0.66978 0.0773533 0.
0.671884 0.0768839 0.
0.673985 0.076408 0.
0.676079 0.0759462 0.
0.678172 0.0754689 0.
0.68026 0.0749913 0.
0.682343 0.0745222 0.
0.684427 0.0740584 0.
0.686508 0.0735963 0.
0.688586 0.0731455 0.
0.690664 0.0727082 0.
0.692739 0.0722872 0.
0.694814 0.0718867 0.
0.696888 0.0715264 0.
0.698959 0.0712468 0.
0.701026 0.0710497 0.
0.703093 0.0709363 0.
0.495128 0.072835 0.
0.497187 0.0729718 0.
0.499248 0.0732031 0.
0.50131 0.0735135 0.
0.503372 0.0738697 0.
0.505435 0.0742725 0.
0.507497 0.0746981 0.
0.50956 0.0751359 0.
0.511625 0.0755813 0.
0.51369 0.076036 0.
0.515758 0.0764976 0.
0.51783 0.076956 0.
0.519901 0.077419 0.
0.521978 0.0778844 0.
0.52406 0.0783412 0.
0.526143 0.0787824 0.
0.528233 0.07924 0.
0.530325 0.0796926 0.
0.532425 0.0801187 0.
0.534534 0.0805466 0.
0.536645 0.080973 0.
0.538764 0.0813532 0.
0.540889 0.0817179 0.
0.543013 0.0820861 0.
0.545145 0.0824153 0.
0.547276 0.0827223 0.
0.54941 0.0830466 0.
0.551544 0.0833737 0.
0.553679 0.0836948 0.
0.555816 0.0839686 0.
0.557953 0.0842486 0.
0.56009 0.0845248 0.
0.562225 0.0847287 0.
0.564359 0.0849244 0.
0.566491 0.0851173 0.
0.568615 0.0852604 0.
0.570739 0.085403 0.
0.572859 0.0855573 0.
0.574974 0.0857197 0.
0.57709 0.085881 0.
0.579194 0.0860124 0.
0.581296 0.0861476 0.
0.583397 0.086273 0.
0.585482 0.0863234 0.
0.587567 0.0863738 0.
0.589651 0.0864169 0.
0.591732 0.0864516 0.
0.593814 0.0864863 0.
0.595893 0.086499 0.
0.597972 0.086504 0.
0.600051 0.0865086 0.
0.60213 0.0864845 0.
0.604209 0.0864604 0.
0.606289 0.08643 0.
0.608371 0.0863845 0.
0.610454 0.086339 0.
0.612539 0.0862872 0.
0.614626 0.0862301 0.
0.616713 0.0861729 0.
0.618818 0.0860336 0.
0.620924 0.0858866 0.
0.623032 0.0857443 0.
0.62515 0.085575 0.
0.627268 0.0854045 0.
0.629391 0.0852397 0.
0.631518 0.0850846 0.
0.633645 0.084928 0.
0.635778 0.0847199 0.
0.637913 0.0845088 0.
0.640048 0.0842864 0.
0.642184 0.0839875 0.
0.644321 0.0836851 0.
0.646457 0.0833915 0.
0.64859 0.0830553 0.
0.650723 0.0827124 0.
0.652853 0.0823752 0.
0.654981 0.0820558 0.
0.657108 0.081715 0.
0.659227 0.0813388 0.
0.661346 0.0809658 0.
0.66346 0.080574 0.
0.665565 0.0801414 0.
0.66767 0.0797073 0.
0.669766 0.0792721 0.
0.671854 0.0788104 0.
0.673941 0.0783422 0.
0.67602 0.0778886 0.
0.678097 0.0774187 0.
0.680171 0.0769477 0.
0.682239 0.0764838 0.
0.684308 0.0760246 0.
0.686374 0.0755665 0.
0.688439 0.0751186 0.
0.690503 0.0746835 0.
0.692565 0.0742637 0.
0.694628 0.0738636 0.
0.696691 0.0734995 0.
0.698752 0.0732168 0.
0.700809 0.0730151 0.
0.702866 0.0728938 0.
0.495375 0.0748049 0.
0.497424 0.0749486 0.
0.499474 0.07519 0.
0.501524 0.0755044 0.
0.503573 0.0758628 0.
0.505623 0.0762672 0.
0.507672 0.0766915 0.
0.50972 0.0771269 0.
0.511769 0.077568 0.
0.513818 0.0780179 0.
0.515869 0.0784742 0.
0.517924 0.0789276 0.
0.519977 0.0793853 0.
0.522036 0.0798439 0.
0.5241 0.0802933 0.
0.526166 0.0807257 0.
0.52824 0.0811746 0.
0.530317 0.081618 0.
0.532404 0.0820337 0.
0.534501 0.0824513 0.
0.5366 0.0828674 0.
0.53871 0.0832396 0.
0.540827 0.0835982 0.
0.542944 0.083961 0.
0.545069 0.0842884 0.
0.547195 0.0845922 0.
0.549325 0.0849124 0.
0.551457 0.0852377 0.
0.55359 0.0855568 0.
0.555726 0.0858302 0.
0.557862 0.0861105 0.
0.559999 0.0863872 0.
0.562133 0.086595 0.
0.564267 0.086794 0.
0.5664 0.086991 0.
0.568525 0.0871381 0.
0.570649 0.087284 0.
0.57277 0.0874413 0.
0.574887 0.0876061 0.
0.577004 0.0877698 0.
0.579113 0.0879086 0.
0.581222 0.0880531 0.
0.583329 0.0881889 0.
0.585423 0.0882405 0.
0.587517 0.0882922 0.
0.58961 0.0883367 0.
0.5917 0.0883728 0.
0.593791 0.088409 0.
0.59588 0.0884225 0.
0.597968 0.0884279 0.
0.600057 0.0884329 0.
0.602145 0.0884081 0.
0.604233 0.0883832 0.
0.606321 0.0883518 0.
0.608412 0.0883051 0.
0.610502 0.0882584 0.
0.612596 0.0882038 0.
0.614692 0.0881434 0.
0.616788 0.0880823 0.
0.618898 0.087934 0.
0.621009 0.0877788 0.
0.623121 0.0876303 0.
0.62524 0.0874585 0.
0.627359 0.0872856 0.
0.629483 0.0871176 0.
0.63161 0.0869592 0.
0.633737 0.0867986 0.
0.63587 0.0865875 0.
0.638004 0.0863741 0.
0.640139 0.0861483 0.
0.642274 0.0858493 0.
0.644409 0.0855471 0.
0.646543 0.0852546 0.
0.648674 0.0849213 0.
0.650803 0.084581 0.
0.652929 0.0842493 0.
0.655051 0.0839344 0.
0.657171 0.0835967 0.
0.65928 0.0832269 0.
0.66139 0.0828611 0.
0.663493 0.0824771 0.
0.665586 0.0820543 0.
0.667677 0.0816303 0.
0.669759 0.0812055 0.
0.671832 0.0807525 0.
0.673901 0.0802927 0.
0.675962 0.0798477 0.
0.678022 0.0793852 0.
0.680078 0.0789205 0.
0.682129 0.0784611 0.
0.684182 0.078006 0.
0.686232 0.077552 0.
0.688281 0.0771081 0.
0.69033 0.0766759 0.
0.692378 0.076257 0.
0.694428 0.0758573 0.
0.696478 0.0754885 0.
0.698527 0.0752013 0.
0.700574 0.0749941 0.
0.702622 0.074862 0.
0.495621 0.0767864 0.
0.49766 0.0769377 0.
0.499698 0.0771891 0.
0.501734 0.0775063 0.
0.503769 0.0778666 0.
0.505803 0.0782729 0.
0.507836 0.0786957 0.
0.509867 0.0791289 0.
0.5119 0.0795665 0.
0.513931 0.0800129 0.
0.515964 0.0804645 0.
0.518 0.0809123 0.
0.520036 0.0813631 0.
0.522079 0.0818132 0.
0.524126 0.0822545 0.
0.526176 0.0826777 0.
0.528237 0.0831172 0.
0.5303 0.0835509 0.
0.532375 0.0839562 0.
0.534461 0.0843632 0.
0.536551 0.084769 0.
0.538652 0.0851332 0.
0.540763 0.085485 0.
0.542874 0.0858411 0.
0.544994 0.0861654 0.
0.547117 0.0864653 0.
0.549243 0.0867806 0.
0.551373 0.0871034 0.
0.553503 0.0874198 0.
0.555638 0.0876926 0.
0.557773 0.0879729 0.
0.559908 0.08825 0.
0.562043 0.0884614 0.
0.564176 0.0886636 0.
0.566309 0.0888644 0.
0.568435 0.0890157 0.
0.57056 0.0891648 0.
0.572683 0.0893251 0.
0.574801 0.0894919 0.
0.57692 0.0896577 0.
0.579035 0.089803 0.
0.581149 0.0899562 0.
0.583264 0.0901012 0.
0.585367 0.0901542 0.
0.58747 0.0902069 0.
0.589571 0.0902527 0.
0.591671 0.09029 0.
0.59377 0.0903273 0.
0.595868 0.0903415 0.
0.597965 0.0903474 0.
0.600063 0.0903529 0.
0.602159 0.0903275 0.
0.604256 0.090302 0.
0.606352 0.0902699 0.
0.60845 0.0902224 0.
0.610548 0.0901749 0.
0.612651 0.0901177 0.
0.614756 0.0900541 0.
0.616861 0.089989 0.
0.618976 0.0898327 0.
0.621092 0.0896699 0.
0.623208 0.0895157 0.
0.625328 0.0893416 0.
0.627448 0.0891666 0.
0.629573 0.0889954 0.
0.6317 0.0888339 0.
0.633828 0.0886691 0.
0.635961 0.0884553 0.
0.638094 0.0882397 0.
0.640228 0.088011 0.
0.642361 0.087712 0.
0.644495 0.0874102 0.
0.646628 0.0871196 0.
0.648755 0.0867901 0.
0.650882 0.0864536 0.
0.653004 0.086128 0.
0.655121 0.0858177 0.
0.657235 0.085484 0.
0.659338 0.0851212 0.
0.66144 0.0847629 0.
0.663534 0.084387 0.
0.665615 0.0839743 0.
0.667695 0.0835607 0.
0.669764 0.0831469 0.
0.671822 0.0827037 0.
0.673877 0.0822533 0.
0.675922 0.0818178 0.
0.677964 0.0813635 0.
0.680002 0.0809061 0.
0.682035 0.0804514 0.
0.684069 0.0800004 0.
0.686102 0.0795499 0.
0.688133 0.0791088 0.
0.690167 0.0786789 0.
0.692199 0.0782611 0.
0.694233 0.0778619 0.
0.696269 0.077489 0.
0.698305 0.0771972 0.
0.700339 0.0769862 0.
0.702376 0.0768427 0.
0.495844 0.0787798 0.
0.49787 0.0789397 0.
0.499894 0.0792015 0.
0.501915 0.0795211 0.
0.503932 0.0798833 0.
0.50595 0.0802909 0.
0.507965 0.0807129 0.
0.509978 0.081144 0.
0.511994 0.0815775 0.
0.514007 0.0820191 0.
0.516024 0.0824643 0.
0.518045 0.0829047 0.
0.520066 0.0833478 0.
0.522093 0.0837904 0.
0.524126 0.0842244 0.
0.526164 0.0846389 0.
0.528213 0.0850691 0.
0.530265 0.0854933 0.
0.532331 0.0858881 0.
0.53441 0.086284 0.
0.536493 0.0866787 0.
0.538589 0.0870342 0.
0.540695 0.0873772 0.
0.542802 0.0877258 0.
0.544919 0.0880469 0.
0.547038 0.0883432 0.
0.549162 0.0886527 0.
0.551291 0.0889722 0.
0.55342 0.0892853 0.
0.555554 0.0895571 0.
0.557689 0.089837 0.
0.559823 0.090114 0.
0.561958 0.0903282 0.
0.564093 0.0905328 0.
0.566227 0.0907362 0.
0.568354 0.0908912 0.
0.570481 0.0910431 0.
0.572607 0.0912055 0.
0.574729 0.0913729 0.
0.576851 0.0915392 0.
0.578971 0.0916882 0.
0.581091 0.0918471 0.
0.58321 0.0919987 0.
0.585321 0.0920546 0.
0.587431 0.0921097 0.
0.589541 0.0921576 0.
0.591647 0.0921956 0.
0.593753 0.0922337 0.
0.595859 0.0922487 0.
0.597963 0.0922552 0.
0.600068 0.0922612 0.
0.602171 0.0922355 0.
0.604275 0.0922098 0.
0.606378 0.0921771 0.
0.608483 0.0921289 0.
0.610588 0.0920808 0.
0.612697 0.0920204 0.
0.614809 0.0919529 0.
0.61692 0.091883 0.
0.61904 0.0917211 0.
0.62116 0.0915533 0.
0.62328 0.0913959 0.
0.625404 0.0912212 0.
0.627526 0.0910455 0.
0.629653 0.0908719 0.
0.631782 0.0907076 0.
0.63391 0.0905393 0.
0.636044 0.0903235 0.
0.638178 0.0901063 0.
0.640312 0.0898752 0.
0.642445 0.0895769 0.
0.644578 0.0892762 0.
0.64671 0.0889877 0.
0.648836 0.0886625 0.
0.650961 0.0883303 0.
0.65308 0.0880115 0.
0.655193 0.087706 0.
0.657303 0.0873764 0.
0.659402 0.0870215 0.
0.6615 0.0866721 0.
0.663588 0.086305 0.
0.665661 0.0859034 0.
0.667732 0.0855011 0.
0.669791 0.085098 0.
0.671836 0.0846645 0.
0.673878 0.0842234 0.
0.675909 0.0837969 0.
0.677936 0.0833502 0.
0.679958 0.0828997 0.
0.681974 0.0824508 0.
0.683991 0.0820051 0.
0.686007 0.0815594 0.
0.688021 0.0811219 0.
0.690037 0.0806949 0.
0.692052 0.0802782 0.
0.69407 0.079879 0.
0.696089 0.0795026 0.
0.698109 0.0792064 0.
0.700129 0.0789923 0.
0.702152 0.078837 0.
0.496042 0.0807854 0.
0.498053 0.0809554 0.
0.500061 0.0812276 0.
0.502066 0.0815487 0.
0.504066 0.0819121 0.
0.506066 0.0823198 0.
0.508063 0.0827402 0.
0.510059 0.0831682 0.
0.512057 0.0835965 0.
0.514054 0.0840328 0.
0.516055 0.0844718 0.
0.518063 0.0849054 0.
0.520072 0.0853408 0.
0.522088 0.0857756 0.
0.524111 0.0862024 0.
0.526141 0.0866077 0.
0.528182 0.0870281 0.
0.530227 0.0874427 0.
0.532287 0.0878265 0.
0.53436 0.0882106 0.
0.536437 0.0885937 0.
0.538529 0.0889406 0.
0.540631 0.0892751 0.
0.542734 0.0896166 0.
0.544848 0.0899339 0.
0.546964 0.0902259 0.
0.549086 0.0905288 0.
0.551214 0.0908446 0.
0.553342 0.0911532 0.
0.555475 0.0914232 0.
0.557609 0.0917024 0.
0.559743 0.0919789 0.
0.561878 0.0921953 0.
0.564012 0.0924017 0.
0.566146 0.0926074 0.
0.568275 0.0927662 0.
0.570404 0.0929208 0.
0.572532 0.0930855 0.
0.574657 0.0932535 0.
0.576783 0.0934205 0.
0.578908 0.093573 0.
0.581032 0.0937377 0.
0.583157 0.093896 0.
0.585275 0.0939549 0.
0.587393 0.0940124 0.
0.58951 0.0940624 0.
0.591623 0.0941013 0.
0.593737 0.0941402 0.
0.595849 0.0941558 0.
0.597961 0.0941629 0.
0.600073 0.0941696 0.
0.602183 0.0941436 0.
0.604294 0.0941175 0.
0.606404 0.0940843 0.
0.608517 0.0940355 0.
0.610629 0.0939867 0.
0.612744 0.093923 0.
0.614862 0.0938515 0.
0.616979 0.0937768 0.
0.619103 0.0936092 0.
0.621227 0.0934362 0.
0.623352 0.0932758 0.
0.625478 0.0931004 0.
0.627603 0.092924 0.
0.629732 0.0927481 0.
0.631861 0.0925813 0.
0.63399 0.0924096 0.
0.636124 0.0921921 0.
0.638257 0.0919738 0.
0.640391 0.0917409 0.
0.642523 0.091444 0.
0.644655 0.0911447 0.
0.646786 0.090859 0.
0.64891 0.0905386 0.
0.651033 0.0902108 0.
0.65315 0.0898995 0.
0.655261 0.0895996 0.
0.657367 0.0892749 0.
0.659463 0.0889277 0.
0.661556 0.0885868 0.
0.663639 0.0882286 0.
0.665707 0.0878386 0.
0.667772 0.0874482 0.
0.669823 0.0870562 0.
0.671861 0.0866324 0.
0.673893 0.0862022 0.
0.675915 0.0857855 0.
0.67793 0.0853462 0.
0.679938 0.0849021 0.
0.68194 0.0844589 0.
0.683942 0.0840179 0.
0.685942 0.0835766 0.
0.687939 0.0831433 0.
0.689938 0.0827204 0.
0.691936 0.0823062 0.
0.693936 0.0819083 0.
0.695939 0.0815296 0.
0.697941 0.0812292 0.
0.699947 0.0810121 0.
0.701954 0.080845 0.
0.496208 0.0828015 0.
0.498204 0.0829817 0.
0.500196 0.0832624 0.
0.502184 0.083585 0.
0.504167 0.0839494 0.
0.506149 0.0843567 0.
0.508129 0.084775 0.
0.510108 0.0851995 0.
0.512092 0.0856232 0.
0.514076 0.0860545 0.
0.516066 0.086487 0.
0.518065 0.0869129 0.
0.520064 0.08734 0.
0.522073 0.0877661 0.
0.524089 0.0881846 0.
0.526113 0.0885799 0.
0.528148 0.0889908 0.
0.530189 0.0893958 0.
0.532245 0.0897686 0.
0.534315 0.0901413 0.
0.536389 0.0905132 0.
0.538477 0.0908517 0.
0.540575 0.0911781 0.
0.542674 0.0915124 0.
0.544783 0.0918252 0.
0.546896 0.0921119 0.
0.549015 0.0924076 0.
0.55114 0.0927187 0.
0.553266 0.0930226 0.
0.555397 0.0932903 0.
0.557531 0.0935683 0.
0.559665 0.093844 0.
0.5618 0.0940624 0.
0.563935 0.0942706 0.
0.56607 0.0944785 0.
0.5682 0.0946406 0.
0.570331 0.0947976 0.
0.572461 0.0949639 0.
0.57459 0.0951317 0.
0.576719 0.0952985 0.
0.578849 0.0954524 0.
0.580977 0.09562 0.
0.583106 0.0957816 0.
0.585231 0.0958432 0.
0.587356 0.0959024 0.
0.58948 0.0959541 0.
0.591601 0.0959936 0.
0.593722 0.0960331 0.
0.595841 0.0960494 0.
0.597959 0.0960572 0.
0.600078 0.0960645 0.
0.602195 0.0960386 0.
0.604312 0.0960127 0.
0.60643 0.0959793 0.
0.608548 0.0959302 0.
0.610666 0.0958811 0.
0.612788 0.0958149 0.
0.61491 0.0957405 0.
0.617033 0.0956619 0.
0.619162 0.0954911 0.
0.62129 0.0953149 0.
0.623419 0.0951531 0.
0.625548 0.0949777 0.
0.627676 0.0948014 0.
0.629806 0.0946237 0.
0.631936 0.0944547 0.
0.634067 0.0942798 0.
0.636201 0.094061 0.
0.638334 0.0938415 0.
0.640467 0.093607 0.
0.642599 0.0933119 0.
0.64473 0.0930147 0.
0.646859 0.0927324 0.
0.64898 0.0924172 0.
0.651101 0.0920946 0.
0.653214 0.091791 0.
0.655321 0.091497 0.
0.657425 0.0911779 0.
0.659516 0.0908387 0.
0.661605 0.0905066 0.
0.663684 0.0901569 0.
0.665749 0.089778 0.
0.66781 0.0893991 0.
0.669857 0.0890184 0.
0.671889 0.0886043 0.
0.673915 0.0881844 0.
0.67593 0.087779 0.
0.677937 0.0873491 0.
0.679936 0.0869121 0.
0.681927 0.0864747 0.
0.683918 0.0860391 0.
0.685905 0.0856023 0.
0.687888 0.0851723 0.
0.689871 0.0847527 0.
0.691852 0.0843413 0.
0.693835 0.0839449 0.
0.69582 0.0835651 0.
0.697807 0.0832611 0.
0.699797 0.0830411 0.
0.70179 0.0828639 0.
0.49633 0.0848251 0.
0.498311 0.0850156 0.
0.500288 0.0853042 0.
0.50226 0.0856294 0.
0.504228 0.0859952 0.
0.506197 0.0864015 0.
0.508164 0.0868172 0.
0.510133 0.0872375 0.
0.512107 0.0876571 0.
0.514083 0.0880837 0.
0.516065 0.0885099 0.
0.518056 0.0889284 0.
0.520048 0.0893465 0.
0.522052 0.0897635 0.
0.524063 0.0901753 0.
0.526083 0.0905596 0.
0.528115 0.0909591 0.
0.530153 0.0913537 0.
0.532207 0.0917151 0.
0.534274 0.0920765 0.
0.536345 0.092437 0.
0.53843 0.0927672 0.
0.540525 0.0930855 0.
0.542621 0.0934121 0.
0.544728 0.0937203 0.
0.546839 0.0940022 0.
0.548956 0.094291 0.
0.55108 0.0945983 0.
0.553205 0.094898 0.
0.555336 0.0951625 0.
0.55747 0.0954388 0.
0.559604 0.0957123 0.
0.561738 0.0959313 0.
0.563872 0.0961409 0.
0.566006 0.0963501 0.
0.568137 0.0965141 0.
0.570267 0.0966719 0.
0.572398 0.0968387 0.
0.574528 0.0970067 0.
0.576658 0.0971738 0.
0.578791 0.0973278 0.
0.580924 0.0974968 0.
0.583058 0.0976606 0.
0.58519 0.097725 0.
0.587321 0.0977862 0.
0.589452 0.0978398 0.
0.59158 0.0978803 0.
0.593708 0.0979207 0.
0.595833 0.0979378 0.
0.597958 0.0979462 0.
0.600083 0.097954 0.
0.602207 0.0979281 0.
0.604331 0.0979021 0.
0.606455 0.0978683 0.
0.608578 0.0978187 0.
0.610701 0.0977692 0.
0.612828 0.0977006 0.
0.614957 0.0976236 0.
0.617085 0.0975416 0.
0.619217 0.0973686 0.
0.621348 0.0971907 0.
0.623479 0.0970283 0.
0.625609 0.0968527 0.
0.627738 0.0966763 0.
0.629869 0.0964981 0.
0.631999 0.0963283 0.
0.63413 0.0961519 0.
0.636262 0.0959323 0.
0.638395 0.0957122 0.
0.640527 0.095478 0.
0.642658 0.0951859 0.
0.64479 0.0948905 0.
0.646918 0.0946117 0.
0.649038 0.094301 0.
0.651157 0.0939825 0.
0.653269 0.0936866 0.
0.655374 0.0933984 0.
0.657475 0.0930852 0.
0.659563 0.0927544 0.
0.661649 0.0924309 0.
0.663725 0.0920897 0.
0.665787 0.091722 0.
0.667844 0.0913548 0.
0.669889 0.0909864 0.
0.671919 0.0905827 0.
0.673942 0.0901745 0.
0.675953 0.0897802 0.
0.677954 0.0893583 0.
0.679947 0.0889289 0.
0.681929 0.0884981 0.
0.683911 0.0880677 0.
0.685889 0.0876357 0.
0.687862 0.087209 0.
0.689835 0.0867921 0.
0.691805 0.0863834 0.
0.693774 0.0859887 0.
0.695745 0.0856084 0.
0.697716 0.0853006 0.
0.699692 0.0850766 0.
0.701671 0.0848909 0.
CELLS 5000 10000
1 0
1 1
1 2
1 3
1 4
1 5
1 6
1 7
1 8
1 9
1 10
1 11
1 12
1 13
1 14
1 15
1 16
1 17
1 18
1 19
1 20
1 21
1 22
1 23
1 24
1 25
1 26
1 27
1 28
1 29
1 30
1 31
1 32
1 33
1 34
1 35
1 36
1 37
1 38
1 39
1 40
1 41
1 42
1 43
1 44
1 45
1 46
1 47
1 48
1 49
1 50
1 51
1 52
1 53
1 54
1 55
1 56
1 57
1 58
1 59
1 60
1 61
1 62
1 63
1 64
1 65
1 66
1 67
1 68
1 69
1 70
1 71
1 72
1 73
1 74
1 75
1 76
1 77
1 78
1 79
1 80
1 81
1 82
1 83
1 84
1 85
1 86
1 87
1 88
1 89
1 90
1 91
1 92
1 93
1 94
1 95
1 96
1 97
1 98
1 99
1 100
1 101
1 102
1 103
1 104
1 105
1 106
1 107
1 108
1 109
1 110
1 111
1 112
1 113
1 114
1 115
1 116
1 117
1 118
1 119
1 120
1 121
1 122
1 123
1 124
1 125
1 126
1 127
1 128
1 129
1 130
1 131
1 132
1 133
1 134
1 135
1 136
1 137
1 138
1 139
1 140
1 141
1 142
1 143
1 144
1 145
1 146
1 147
1 148
1 149
1 150
1 151
1 152
1 153
1 154
1 155
1 156
1 157
1 158
1 159
1 160
1 161
1 162
1 163
1 164
1 165
1 166
1 167
1 168
1 169
1 170
1 171
1 172
1 173
1 174
1 175
1 176
1 177
1 178
1 179
1 180
1 181
1 182
1 183
1 184
1 185
1 186
1 187
1 188
1 189
1 190
1 191
1 192
1 193
1 194
1 195
1 196
1 197
1 198
1 199
1 200
1 201
1 202
1 203
1 204
1 205
1 206
1 207
1 208
1 209
1 210
1 211
1 212
1 213
1 214
1 215
1 216
1 217
1 218
1 219
1 220
1 221
1 222
1 223
1 224
1 225
1 226
1 227
1 228
1 229
1 230
1 231
1 232
1 233
1 234
1 235
1 236
1 237
1 238
1 239
1 240
1 241
1 242
1 243
1 244
1 245
1 246
1 247
1 248
1 249
1 250
1 251
1 252
1 253
1 254
1 255
1 256
1 257
1 258
1 259
1 260
1 261
1 262
1 263
1 264
1 265
1 266
1 267
1 268
1 269
1 270
1 271
1 272
1 273
1 274
1 275
1 276
1 277
1 278
1 279
1 280
1 281
1 282
1 283
1 284
1 285
1 286
1 287
1 288
1 289
1 290
1 291
1 292
1 293
1 294
1 295
1 296
1 297
1 298
1 299
1 300
1 301
1 302
1 303
1 304
1 305
1 306
1 307
1 308
1 309
1 310
1 311
1 312
1 313
1 314
1 315
1 316
1 317
1 318
1 319
1 320
1 321
1 322
1 323
1 324
1 325
1 326
1 327
1 328
1 329
1 330
1 331
1 332
1 333
1 334
1 335
1 336
1 337
1 338
1 339
1 340
1 341
1 342
1 343
1 344
1 345
1 346
1 347
1 348
1 349
1 350
1 351
1 352
1 353
1 354
1 355
1 356
1 357
1 358
1 359
1 360
1 361
1 362
1 363
1 364
1 365
1 366
1 367
1 368
1 369
1 370
1 371
1 372
1 373
1 374
1 375
1 376
1 377
1 378
1 379
1 380
1 381
1 382
1 383
1 384
1 385
1 386
1 387
1 388
1 389
1 390
1 391
1 392
1 393
1 394
1 395
1 396
1 397
1 398
1 399
1 400
1 401
1 402
1 403
1 404
1 405
1 406
1 407
1 408
1 409
1 410
1 411
1 412
1 413
1 414
1 415
1 416
1 417
1 418
1 419
1 420
1 421
1 422
1 423
1 424
1 425
1 426
1 427
1 428
1 429
1 430
1 431
1 432
1 433
1 434
1 435
1 436
1 437
1 438
1 439
1 440
1 441
1 442
1 443
1 444
1 445
1 446
1 447
1 448
1 449
1 450
1 451
1 452
1 453
1 454
1 455
1 456
1 457
1 458
1 459
1 460
1 461
1 462
1 463
1 464
1 465
1 466
1 467
1 468
1 469
1 470
1 471
1 472
1 473
1 474
1 475
1 476
1 477
1 478
1 479
1 480
1 481
1 482
1 483
1 484
1 485
1 486
1 487
1 488
1 489
1 490
1 491
1 492
1 493
1 494
1 495
1 496
1 497
1 498
1 499
1 500
1 501
1 502
1 503
1 504
1 505
1 506
1 507
1 508
1 509
1 510
1 511
1 512
1 513
1 514
1 515
1 516
1 517
1 518
1 519
1 520
1 521
1 522
1 523
1 524
1 525
1 526
1 527
1 528
1 529
1 530
1 531
1 532
1 533
1 534
1 535
1 536
1 537
1 538
1 539
1 540
1 541
1 542
1 543
1 544
1 545
1 546
1 547
1 548
1 549
1 550
1 551
1 552
1 553
1 554
1 555
1 556
1 557
1 558
1 559
1 560
1 561
1 562
1 563
1 564
1 565
1 566
1 567
1 568
1 569
1 570
1 571
1 572
1 573
1 574
1 575
1 576
1 577
1 578
1 579
1 580
1 581
1 582
1 583
1 584
1 585
1 586
1 587
1 588
1 589
1 590
1 591
1 592
1 593
1 594
1 595
1 596
1 597
1 598
1 599
1 600
1 601
1 602
1 603
1 604
1 605
1 606
1 607
1 608
1 609
1 610
1 611
1 612
1 613
1 614
1 615
1 616
1 617
1 618
1 619
1 620
1 621
1 622
1 623
1 624
1 625
1 626
1 627
1 628
1 629
1 630
1 631
1 632
1 633
1 634
1 635
1 636
1 637
1 638
1 639
1 640
1 641
1 642
1 643
1 644
1 645
1 646
1 647
1 648
1 649
1 650
1 651
1 652
1 653
1 654
1 655
1 656
1 657
1 658
1 659
1 660
1 661
1 662
1 663
1 664
1 665
1 666
1 667
1 668
1 669
1 670
1 671
1 672
1 673
1 674
1 675
1 676
1 677
1 678
1 679
1 680
1 681
1 682
1 683
1 684
1 685
1 686
1 687
1 688
1 689
1 690
1 691
1 692
1 693
1 694
1 695
1 696
1 697
1 698
1 699
1 700
1 701
1 702
1 703
1 704
1 705
1 706
1 707
1 708
1 709
1 710
1 711
1 712
1 713
1 714
1 715
1 716
1 717
1 718
1 719
1 720
1 721
1 722
1 723
1 724
1 725
1 726
1 727
1 728
1 729
1 730
1 731
1 732
1 733
1 734
1 735
1 736
1 737
1 738
1 739
1 740
1 741
1 742
1 743
1 744
1 745
1 746
1 747
1 748
1 749
1 750
1 751
1 752
1 753
1 754
1 755
1 756
1 757
1 758
1 759
1 760
1 761
1 762
1 763
1 764
1 765
1 766
1 767
1 768
1 769
1 770
1 771
1 772
1 773
1 774
1 775
1 776
1 777
1 778
1 779
1 780
1 781
1 782
1 783
1 784
1 785
1 786
1 787
1 788
1 789
1 790
1 791
1 792
1 793
1 794
1 795
1 796
1 797
1 798
1 799
1 800
1 801
1 802
1 803
1 804
1 805
1 806
1 807
1 808
1 809
1 810
1 811
1 812
1 813
1 814
1 815
1 816
1 817
1 818
1 819
1 820
1 821
1 822
1 823
1 824
1 825
1 826
1 827
1 828
1 829
1 830
1 831
1 832
1 833
1 834
1 835
1 836
1 837
1 838
1 839
1 840
1 841
1 842
1 843
1 844
1 845
1 846
1 847
1 848
1 849
1 850
1 851
1 852
1 853
1 854
1 855
1 856
1 857
1 858
1 859
1 860
1 861
1 862
1 863
1 864
1 865
1 866
1 867
1 868
1 869
1 870
1 871
1 872
1 873
1 874
1 875
1 876
1 877
1 878
1 879
1 880
1 881
1 882
1 883
1 884
1 885
1 886
1 887
1 888
1 889
1 890
1 891
1 892
1 893
1 894
1 895
1 896
1 897
1 898
1 899
1 900
1 901
1 902
1 903
1 904
1 905
1 906
1 907
1 908
1 909
1 910
1 911
1 912
1 913
1 914
1 915
1 916
1 917
1 918
1 919
1 920
1 921
1 922
1 923
1 924
1 925
1 926
1 927
1 928
1 929
1 930
1 931
1 932
1 933
1 934
1 935
1 936
1 937
1 938
1 939
1 940
1 941
1 942
1 943
1 944
1 945
1 946
1 947
1 948
1 949
1 950
1 951
1 952
1 953
1 954
1 955
1 956
1 957
1 958
1 959
1 960
1 961
1 962
1 963
1 964
1 965
1 966
1 967
1 968
1 969
1 970
1 971
1 972
1 973
1 974
1 975
1 976
1 977
1 978
1 979
1 980
1 981
1 982
1 983
1 984
1 985
1 986
1 987
1 988
1 989
1 990
1 991
1 992
1 993
1 994
1 995
1 996
1 997
1 998
1 999
1 1000
1 1001
1 1002
1 1003
1 1004
1 1005
1 1006
1 1007
1 1008
1 1009
1 1010
1 1011
1 1012
1 1013
1 1014
1 1015
1 1016
1 1017
1 1018
1 1019
1 1020
1 1021
1 1022
1 1023
1 1024
1 1025
1 1026
1 1027
1 1028
1 1029
1 1030
1 1031
1 1032
1 1033
1 1034
1 1035
1 1036
1 1037
1 1038
1 1039
1 1040
1 1041
1 1042
1 1043
1 1044
1 1045
1 1046
1 1047
1 1048
1 1049
1 1050
1 1051
1 1052
1 1053
1 1054
1 1055
1 1056
1 1057
1 1058
1 1059
1 1060
1 1061
1 1062
1 1063
1 1064
1 1065
1 1066
1 1067
1 1068
1 1069
1 1070
1 1071
1 1072
1 1073
1 1074
1 1075
1 1076
1 1077
1 1078
1 1079
1 1080
1 1081
1 1082
1 1083
1 1084
1 1085
1 1086
1 1087
1 1088
1 1089
1 1090
1 1091
1 1092
1 1093
1 1094
1 1095
1 1096
1 1097
1 1098
1 1099
1 1100
1 1101
1 1102
1 1103
1 1104
1 1105
1 1106
1 1107
1 1108
1 1109
1 1110
1 1111
1 1112
1 1113
1 1114
1 1115
1 1116
1 1117
1 1118
1 1119
1 1120
1 1121
1 1122
1 1123
1 1124
1 1125
1 1126
1 1127
1 1128
1 1129
1 1130
1 1131
1 1132
1 1133
1 1134
1 1135
1 1136
1 1137
1 1138
1 1139
1 1140
1 1141
1 1142
1 1143
1 1144
1 1145
1 1146
1 1147
1 1148
1 1149
1 1150
1 1151
1 1152
1 1153
1 1154
1 1155
1 1156
1 1157
1 1158
1 1159
1 1160
1 1161
1 1162
1 1163
1 1164
1 1165
1 1166
1 1167
1 1168
1 1169
1 1170
1 1171
1 1172
1 1173
1 1174
1 1175
1 1176
1 1177
1 1178
1 1179
1 1180
1 1181
1 1182
1 1183
1 1184
1 1185
1 1186
1 1187
1 1188
1 1189
1 1190
1 1191
1 1192
1 1193
1 1194
1 1195
1 1196
1 1197
1 1198
1 1199
1 1200
1 1201
1 1202
1 1203
1 1204
1 1205
1 1206
1 1207
1 1208
1 1209
1 1210
1 1211
1 1212
1 1213
1 1214
1 1215
1 1216
1 1217
1 1218
1 1219
1 1220
1 1221
1 1222
1 1223
1 1224
1 1225
1 1226
1 1227
1 1228
1 1229
1 1230
1 1231
1 1232
1 1233
1 1234
1 1235
1 1236
1 1237
1 1238
1 1239
1 1240
1 1241
1 1242
1 1243
1 1244
1 1245
1 1246
1 1247
1 1248
1 1249
1 1250
1 1251
1 1252
1 1253
1 1254
1 1255
1 1256
1 1257
1 1258
1 1259
1 1260
1 1261
1 1262
1 1263
1 1264
1 1265
1 1266
1 1267
1 1268
1 1269
1 1270
1 1271
1 1272
1 1273
1 1274
1 1275
1 1276
1 1277
1 1278
1 1279
1 1280
1 1281
1 1282
1 1283
1 1284
1 1285
1 1286
1 1287
1 1288
1 1289
1 1290
1 1291
1 1292
1 1293
1 1294
1 1295
1 1296
1 1297
1 1298
1 1299
1 1300
1 1301
1 1302
1 1303
1 1304
1 1305
1 1306
1 1307
1 1308
1 1309
1 1310
1 1311
1 1312
1 1313
1 1314
1 1315
1 1316
1 1317
1 1318
1 1319
1 1320
1 1321
1 1322
1 1323
1 1324
1 1325
1 1326
1 1327
1 1328
1 1329
1 1330
1 1331
1 1332
1 1333
1 1334
1 1335
1 1336
1 1337
1 1338
1 1339
1 1340
1 1341
1 1342
1 1343
1 1344
1 1345
1 1346
1 1347
1 1348
1 1349
1 1350
1 1351
1 1352
1 1353
1 1354
1 1355
1 1356
1 1357
1 1358
1 1359
1 1360
1 1361
1 1362
1 1363
1 1364
1 1365
1 1366
1 1367
1 1368
1 1369
1 1370
1 1371
1 1372
1 1373
1 1374
1 1375
1 1376
1 1377
1 1378
1 1379
1 1380
1 1381
1 1382
1 1383
1 1384
1 1385
1 1386
1 1387
1 1388
1 1389
1 1390
1 1391
1 1392
1 1393
1 1394
1 1395
1 1396
1 1397
1 1398
1 1399
1 1400
1 1401
1 1402
1 1403
1 1404
1 1405
1 1406
1 1407
1 1408
1 1409
1 1410
1 1411
1 1412
1 1413
1 1414
1 1415
1 1416
1 1417
1 1418
1 1419
1 1420
1 1421
1 1422
1 1423
1 1424
1 1425
1 1426
1 1427
1 1428
1 1429
1 1430
1 1431
1 1432
1 1433
1 1434
1 1435
1 1436
1 1437
1 1438
1 1439
1 1440
1 1441
1 1442
1 1443
1 1444
1 1445
1 1446
1 1447
1 1448
1 1449
1 1450
1 1451
1 1452
1 1453
1 1454
1 1455
1 1456
1 1457
1 1458
1 1459
1 1460
1 1461
1 1462
1 1463
1 1464
1 1465
1 1466
1 1467
1 1468
1 1469
1 1470
1 1471
1 1472
1 1473
1 1474
1 1475
1 1476
1 1477
1 1478
1 1479
1 1480
1 1481
1 1482
1 1483
1 1484
1 1485
1 1486
1 1487
1 1488
1 1489
1 1490
1 1491
1 1492
1 1493
1 1494
1 1495
1 1496
1 1497
1 1498
1 1499
1 1500
1 1501
1 1502
1 1503
1 1504
1 1505
1 1506
1 1507
1 1508
1 1509
1 1510
1 1511
1 1512
1 1513
1 1514
1 1515
1 1516
1 1517
1 1518
1 1519
1 1520
1 1521
1 1522
1 1523
1 1524
1 1525
1 1526
1 1527
1 1528
1 1529
1 1530
1 1531
1 1532
1 1533
1 1534
1 1535
1 1536
1 1537
1 1538
1 1539
1 1540
1 1541
1 1542
1 1543
1 1544
1 1545
1 1546
1 1547
1 1548
1 1549
1 1550
1 1551
1 1552
1 1553
1 1554
1 1555
1 1556
1 1557
1 1558
1 1559
1 1560
1 1561
1 1562
1 1563
1 1564
1 1565
1 1566
1 1567
1 1568
1 1569
1 1570
1 1571
1 1572
1 1573
1 1574
1 1575
1 1576
1 1577
1 1578
1 1579
1 1580
1 1581
1 1582
1 1583
1 1584
1 1585
1 1586
1 1587
1 1588
1 1589
1 1590
1 1591
1 1592
1 1593
1 1594
1 1595
1 1596
1 1597
1 1598
1 1599
1 1600
1 1601
1 1602
1 1603
1 1604
1 1605
1 1606
1 1607
1 1608
1 1609
1 1610
1 1611
1 1612
1 1613
1 1614
1 1615
1 1616
1 1617
1 1618
1 1619
1 1620
1 1621
1 1622
1 1623
1 1624
1 1625
1 1626
1 1627
1 1628
1 1629
1 1630
1 1631
1 1632
1 1633
1 1634
1 1635
1 1636
1 1637
1 1638
1 1639
1 1640
1 1641
1 1642
1 1643
1 1644
1 1645
1 1646
1 1647
1 1648
1 1649
1 1650
1 1651
1 1652
1 1653
1 1654
1 1655
1 1656
1 1657
1 1658
1 1659
1 1660
1 1661
1 1662
1 1663
1 1664
1 1665
1 1666
1 1667
1 1668
1 1669
1 1670
1 1671
1 1672
1 1673
1 1674
1 1675
1 1676
1 1677
1 1678
1 1679
1 1680
1 1681
1 1682
1 1683
1 1684
1 1685
1 1686
1 1687
1 1688
1 1689
1 1690
1 1691
1 1692
1 1693
1 1694
1 1695
1 1696
1 1697
1 1698
1 1699
1 1700
1 1701
1 1702
1 1703
1 1704
1 1705
1 1706
1 1707
1 1708
1 1709
1 1710
1 1711
1 1712
1 1713
1 1714
1 1715
1 1716
1 1717
1 1718
1 1719
1 1720
1 1721
1 1722
1 1723
1 1724
1 1725
1 1726
1 1727
1 1728
1 1729
1 1730
1 1731
1 1732
1 1733
1 1734
1 1735
1 1736
1 1737
1 1738
1 1739
1 1740
1 1741
1 1742
1 1743
1 1744
1 1745
1 1746
1 1747
1 1748
1 1749
1 1750
1 1751
1 1752
1 1753
1 1754
1 1755
1 1756
1 1757
1 1758
1 1759
1 1760
1 1761
1 1762
1 1763
1 1764
1 1765
1 1766
1 1767
1 1768
1 1769
1 1770
1 1771
1 1772
1 1773
1 1774
1 1775
1 1776
1 1777
1 1778
1 1779
1 1780
1 1781
1 1782
1 1783
1 1784
1 1785
1 1786
1 1787
1 1788
1 1789
1 1790
1 1791
1 1792
1 1793
1 1794
1 1795
1 1796
1 1797
1 1798
1 1799
1 1800
1 1801
1 1802
1 1803
1 1804
1 1805
1 1806
1 1807
1 1808
1 1809
1 1810
1 1811
1 1812
1 1813
1 1814
1 1815
1 1816
1 1817
1 1818
1 1819
1 1820
1 1821
1 1822
1 1823
1 1824
1 1825
1 1826
1 1827
1 1828
1 1829
1 1830
1 1831
1 1832
1 1833
1 1834
1 1835
1 1836
1 1837
1 1838
1 1839
1 1840
1 1841
1 1842
1 1843
1 1844
1 1845
1 1846
1 1847
1 1848
1 1849
1 1850
1 1851
1 1852
1 1853
1 1854
1 1855
1 1856
1 1857
1 1858
1 1859
1 1860
1 1861
1 1862
1 1863
1 1864
1 1865
1 1866
1 1867
1 1868
1 1869
1 1870
1 1871
1 1872
1 1873
1 1874
1 1875
1 1876
1 1877
1 1878
1 1879
1 1880
1 1881
1 1882
1 1883
1 1884
1 1885
1 1886
1 1887
1 1888
1 1889
1 1890
1 1891
1 1892
1 1893
1 1894
1 1895
1 1896
1 1897
1 1898
1 1899
1 1900
1 1901
1 1902
1 1903
1 1904
1 1905
1 1906
1 1907
1 1908
1 1909
1 1910
1 1911
1 1912
1 1913
1 1914
1 1915
1 1916
1 1917
1 1918
1 1919
1 1920
1 1921
1 1922
1 1923
1 1924
1 1925
1 1926
1 1927
1 1928
1 1929
1 1930
1 1931
1 1932
1 1933
1 1934
1 1935
1 1936
1 1937
1 1938
1 1939
1 1940
1 1941
1 1942
1 1943
1 1944
1 1945
1 1946
1 1947
1 1948
1 1949
1 1950
1 1951
1 1952
1 1953
1 1954
1 1955
1 1956
1 1957
1 1958
1 1959
1 1960
1 1961
1 1962
1 1963
1 1964
1 1965
1 1966
1 1967
1 1968
1 1969
1 1970
1 1971
1 1972
1 1973
1 1974
1 1975
1 1976
1 1977
1 1978
1 1979
1 1980
1 1981
1 1982
1 1983
1 1984
1 1985
1 1986
1 1987
1 1988
1 1989
1 1990
1 1991
1 1992
1 1993
1 1994
1 1995
1 1996
1 1997
1 1998
1 1999
1 2000
1 2001
1 2002
1 2003
1 2004
1 2005
1 2006
1 2007
1 2008
1 2009
1 2010
1 2011
1 2012
1 2013
1 2014
1 2015
1 2016
1 2017
1 2018
1 2019
1 2020
1 2021
1 2022
1 2023
1 2024
1 2025
1 2026
1 2027
1 2028
1 2029
1 2030
1 2031
1 2032
1 2033
1 2034
1 2035
1 2036
1 2037
1 2038
1 2039
1 2040
1 2041
1 2042
1 2043
1 2044
1 2045
1 2046
1 2047
1 2048
1 2049
1 2050
1 2051
1 2052
1 2053
1 2054
1 2055
1 2056
1 2057
1 2058
1 2059
1 2060
1 2061
1 2062
1 2063
1 2064
1 2065
1 2066
1 2067
1 2068
1 2069
1 2070
1 2071
1 2072
1 2073
1 2074
1 2075
1 2076
1 2077
1 2078
1 2079
1 2080
1 2081
1 2082
1 2083
1 2084
1 2085
1 2086
1 2087
1 2088
1 2089
1 2090
1 2091
1 2092
1 2093
1 2094
1 2095
1 2096
1 2097
1 2098
1 2099
1 2100
1 2101
1 2102
1 2103
1 2104
1 2105
1 2106
1 2107
1 2108
1 2109
1 2110
1 2111
1 2112
1 2113
1 2114
1 2115
1 2116
1 2117
1 2118
1 2119
1 2120
1 2121
1 2122
1 2123
1 2124
1 2125
1 2126
1 2127
1 2128
1 2129
1 2130
1 2131
1 2132
1 2133
1 2134
1 2135
1 2136
1 2137
1 2138
1 2139
1 2140
1 2141
1 2142
1 2143
1 2144
1 2145
1 2146
1 2147
1 2148
1 2149
1 2150
1 2151
1 2152
1 2153
1 2154
1 2155
1 2156
1 2157
1 2158
1 2159
1 2160
1 2161
1 2162
1 2163
1 2164
1 2165
1 2166
1 2167
1 2168
1 2169
1 2170
1 2171
1 2172
1 2173
1 2174
1 2175
1 2176
1 2177
1 2178
1 2179
1 2180
1 2181
1 2182
1 2183
1 2184
1 2185
1 2186
1 2187
1 2188
1 2189
1 2190
1 2191
1 2192
1 2193
1 2194
1 2195
1 2196
1 2197
1 2198
1 2199
1 2200
1 2201
1 2202
1 2203
1 2204
1 2205
1 2206
1 2207
1 2208
1 2209
1 2210
1 2211
1 2212
1 2213
1 2214
1 2215
1 2216
1 2217
1 2218
1 2219
1 2220
1 2221
1 2222
1 2223
1 2224
1 2225
1 2226
1 2227
1 2228
1 2229
1 2230
1 2231
1 2232
1 2233
1 2234
1 2235
1 2236
1 2237
1 2238
1 2239
1 2240
1 2241
1 2242
1 2243
1 2244
1 2245
1 2246
1 2247
1 2248
1 2249
1 2250
1 2251
1 2252
1 2253
1 2254
1 2255
1 2256
1 2257
1 2258
1 2259
1 2260
1 2261
1 2262
1 2263
1 2264
1 2265
1 2266
1 2267
1 2268
1 2269
1 2270
1 2271
1 2272
1 2273
1 2274
1 2275
1 2276
1 2277
1 2278
1 2279
1 2280
1 2281
1 2282
1 2283
1 2284
1 2285
1 2286
1 2287
1 2288
1 2289
1 2290
1 2291
1 2292
1 2293
1 2294
1 2295
1 2296
1 2297
1 2298
1 2299
1 2300
1 2301
1 2302
1 2303
1 2304
1 2305
1 2306
1 2307
1 2308
1 2309
1 2310
1 2311
1 2312
1 2313
1 2314
1 2315
1 2316
1 2317
1 2318
1 2319
1 2320
1 2321
1 2322
1 2323
1 2324
1 2325
1 2326
1 2327
1 2328
1 2329
1 2330
1 2331
1 2332
1 2333
1 2334
1 2335
1 2336
1 2337
1 2338
1 2339
1 2340
1 2341
1 2342
1 2343
1 2344
1 2345
1 2346
1 2347
1 2348
1 2349
1 2350
1 2351
1 2352
1 2353
1 2354
1 2355
1 2356
1 2357
1 2358
1 2359
1 2360
1 2361
1 2362
1 2363
1 2364
1 2365
1 2366
1 2367
1 2368
1 2369
1 2370
1 2371
1 2372
1 2373
1 2374
1 2375
1 2376
1 2377
1 2378
1 2379
1 2380
1 2381
1 2382
1 2383
1 2384
1 2385
1 2386
1 2387
1 2388
1 2389
1 2390
1 2391
1 2392
1 2393
1 2394
1 2395
1 2396
1 2397
1 2398
1 2399
1 2400
1 2401
1 2402
1 2403
1 2404
1 2405
1 2406
1 2407
1 2408
1 2409
1 2410
1 2411
1 2412
1 2413
1 2414
1 2415
1 2416
1 2417
1 2418
1 2419
1 2420
1 2421
1 2422
1 2423
1 2424
1 2425
1 2426
1 2427
1 2428
1 2429
1 2430
1 2431
1 2432
1 2433
1 2434
1 2435
1 2436
1 2437
1 2438
1 2439
1 2440
1 2441
1 2442
1 2443
1 2444
1 2445
1 2446
1 2447
1 2448
1 2449
1 2450
1 2451
1 2452
1 2453
1 2454
1 2455
1 2456
1 2457
1 2458
1 2459
1 2460
1 2461
1 2462
1 2463
1 2464
1 2465
1 2466
1 2467
1 2468
1 2469
1 2470
1 2471
1 2472
1 2473
1 2474
1 2475
1 2476
1 2477
1 2478
1 2479
1 2480
1 2481
1 2482
1 2483
1 2484
1 2485
1 2486
1 2487
1 2488
1 2489
1 2490
1 2491
1 2492
1 2493
1 2494
1 2495
1 2496
1 2497
1 2498
1 2499
1 2500
1 2501
1 2502
1 2503
1 2504
1 2505
1 2506
1 2507
1 2508
1 2509
1 2510
1 2511
1 2512
1 2513
1 2514
1 2515
1 2516
1 2517
1 2518
1 2519
1 2520
1 2521
1 2522
1 2523
1 2524
1 2525
1 2526
1 2527
1 2528
1 2529
1 2530
1 2531
1 2532
1 2533
1 2534
1 2535
1 2536
1 2537
1 2538
1 2539
1 2540
1 2541
1 2542
1 2543
1 2544
1 2545
1 2546
1 2547
1 2548
1 2549
1 2550
1 2551
1 2552
1 2553
1 2554
1 2555
1 2556
1 2557
1 2558
1 2559
1 2560
1 2561
1 2562
1 2563
1 2564
1 2565
1 2566
1 2567
1 2568
1 2569
1 2570
1 2571
1 2572
1 2573
1 2574
1 2575
1 2576
1 2577
1 2578
1 2579
1 2580
1 2581
1 2582
1 2583
1 2584
1 2585
1 2586
1 2587
1 2588
1 2589
1 2590
1 2591
1 2592
1 2593
1 2594
1 2595
1 2596
1 2597
1 2598
1 2599
1 2600
1 2601
1 2602
1 2603
1 2604
1 2605
1 2606
1 2607
1 2608
1 2609
1 2610
1 2611
1 2612
1 2613
1 2614
1 2615
1 2616
1 2617
1 2618
1 2619
1 2620
1 2621
1 2622
1 2623
1 2624
1 2625
1 2626
1 2627
1 2628
1 2629
1 2630
1 2631
1 2632
1 2633
1 2634
1 2635
1 2636
1 2637
1 2638
1 2639
1 2640
1 2641
1 2642
1 2643
1 2644
1 2645
1 2646
1 2647
1 2648
1 2649
1 2650
1 2651
1 2652
1 2653
1 2654
1 2655
1 2656
1 2657
1 2658
1 2659
1 2660
1 2661
1 2662
1 2663
1 2664
1 2665
1 2666
1 2667
1 2668
1 2669
1 2670
1 2671
1 2672
1 2673
1 2674
1 2675
1 2676
1 2677
1 2678
1 2679
1 2680
1 2681
1 2682
1 2683
1 2684
1 2685
1 2686
1 2687
1 2688
1 2689
1 2690
1 2691
1 2692
1 2693
1 2694
1 2695
1 2696
1 2697
1 2698
1 2699
1 2700
1 2701
1 2702
1 2703
1 2704
1 2705
1 2706
1 2707
1 2708
1 2709
1 2710
1 2711
1 2712
1 2713
1 2714
1 2715
1 2716
1 2717
1 2718
1 2719
1 2720
1 2721
1 2722
1 2723
1 2724
1 2725
1 2726
1 2727
1 2728
1 2729
1 2730
1 2731
1 2732
1 2733
1 2734
1 2735
1 2736
1 2737
1 2738
1 2739
1 2740
1 2741
1 2742
1 2743
1 2744
1 2745
1 2746
1 2747
1 2748
1 2749
1 2750
1 2751
1 2752
1 2753
1 2754
1 2755
1 2756
1 2757
1 2758
1 2759
1 2760
1 2761
1 2762
1 2763
1 2764
1 2765
1 2766
1 2767
1 2768
1 2769
1 2770
1 2771
1 2772
1 2773
1 2774
1 2775
1 2776
1 2777
1 2778
1 2779
1 2780
1 2781
1 2782
1 2783
1 2784
1 2785
1 2786
1 2787
1 2788
1 2789
1 2790
1 2791
1 2792
1 2793
1 2794
1 2795
1 2796
1 2797
1 2798
1 2799
1 2800
1 2801
1 2802
1 2803
1 2804
1 2805
1 2806
1 2807
1 2808
1 2809
1 2810
1 2811
1 2812
1 2813
1 2814
1 2815
1 2816
1 2817
1 2818
1 2819
1 2820
1 2821
1 2822
1 2823
1 2824
1 2825
1 2826
1 2827
1 2828
1 2829
1 2830
1 2831
1 2832
1 2833
1 2834
1 2835
1 2836
1 2837
1 2838
1 2839
1 2840
1 2841
1 2842
1 2843
1 2844
1 2845
1 2846
1 2847
1 2848
1 2849
1 2850
1 2851
1 2852
1 2853
1 2854
1 2855
1 2856
1 2857
1 2858
1 2859
1 2860
1 2861
1 2862
1 2863
1 2864
1 2865
1 2866
1 2867
1 2868
1 2869
1 2870
1 2871
1 2872
1 2873
1 2874
1 2875
1 2876
1 2877
1 2878
1 2879
1 2880
1 2881
1 2882
1 2883
1 2884
1 2885
1 2886
1 2887
1 2888
1 2889
1 2890
1 2891
1 2892
1 2893
1 2894
1 2895
1 2896
1 2897
1 2898
1 2899
1 2900
1 2901
1 2902
1 2903
1 2904
1 2905
1 2906
1 2907
1 2908
1 2909
1 2910
1 2911
1 2912
1 2913
1 2914
1 2915
1 2916
1 2917
1 2918
1 2919
1 2920
1 2921
1 2922
1 2923
1 2924
1 2925
1 2926
1 2927
1 2928
1 2929
1 2930
1 2931
1 2932
1 2933
1 2934
1 2935
1 2936
1 2937
1 2938
1 2939
1 2940
1 2941
1 2942
1 2943
1 2944
1 2945
1 2946
1 2947
1 2948
1 2949
1 2950
1 2951
1 2952
1 2953
1 2954
1 2955
1 2956
1 2957
1 2958
1 2959
1 2960
1 2961
1 2962
1 2963
1 2964
1 2965
1 2966
1 2967
1 2968
1 2969
1 2970
1 2971
1 2972
1 2973
1 2974
1 2975
1 2976
1 2977
1 2978
1 2979
1 2980
1 2981
1 2982
1 2983
1 2984
1 2985
1 2986
1 2987
1 2988
1 2989
1 2990
1 2991
1 2992
1 2993
1 2994
1 2995
1 2996
1 2997
1 2998
1 2999
1 3000
1 3001
1 3002
1 3003
1 3004
1 3005
1 3006
1 3007
1 3008
1 3009
1 3010
1 3011
1 3012
1 3013
1 3014
1 3015
1 3016
1 3017
1 3018
1 3019
1 3020
1 3021
1 3022
1 3023
1 3024
1 3025
1 3026
1 3027
1 3028
1 3029
1 3030
1 3031
1 3032
1 3033
1 3034
1 3035
1 3036
1 3037
1 3038
1 3039
1 3040
1 3041
1 3042
1 3043
1 3044
1 3045
1 3046
1 3047
1 3048
1 3049
1 3050
1 3051
1 3052
1 3053
1 3054
1 3055
1 3056
1 3057
1 3058
1 3059
1 3060
1 3061
1 3062
1 3063
1 3064
1 3065
1 3066
1 3067
1 3068
1 3069
1 3070
1 3071
1 3072
1 3073
1 3074
1 3075
1 3076
1 3077
1 3078
1 3079
1 3080
1 3081
1 3082
1 3083
1 3084
1 3085
1 3086
1 3087
1 3088
1 3089
1 3090
1 3091
1 3092
1 3093
1 3094
1 3095
1 3096
1 3097
1 3098
1 3099
1 3100
1 3101
1 3102
1 3103
1 3104
1 3105
1 3106
1 3107
1 3108
1 3109
1 3110
1 3111
1 3112
1 3113
1 3114
1 3115
1 3116
1 3117
1 3118
1 3119
1 3120
1 3121
1 3122
1 3123
1 3124
1 3125
1 3126
1 3127
1 3128
1 3129
1 3130
1 3131
1 3132
1 3133
1 3134
1 3135
1 3136
1 3137
1 3138
1 3139
1 3140
1 3141
1 3142
1 3143
1 3144
1 3145
1 3146
1 3147
1 3148
1 3149
1 3150
1 3151
1 3152
1 3153
1 3154
1 3155
1 3156
1 3157
1 3158
1 3159
1 3160
1 3161
1 3162
1 3163
1 3164
1 3165
1 3166
1 3167
1 3168
1 3169
1 3170
1 3171
1 3172
1 3173
1 3174
1 3175
1 3176
1 3177
1 3178
1 3179
1 3180
1 3181
1 3182
1 3183
1 3184
1 3185
1 3186
1 3187
1 3188
1 3189
1 3190
1 3191
1 3192
1 3193
1 3194
1 3195
1 3196
1 3197
1 3198
1 3199
1 3200
1 3201
1 3202
1 3203
1 3204
1 3205
1 3206
1 3207
1 3208
1 3209
1 3210
1 3211
1 3212
1 3213
1 3214
1 3215
1 3216
1 3217
1 3218
1 3219
1 3220
1 3221
1 3222
1 3223
1 3224
1 3225
1 3226
1 3227
1 3228
1 3229
1 3230
1 3231
1 3232
1 3233
1 3234
1 3235
1 3236
1 3237
1 3238
1 3239
1 3240
1 3241
1 3242
1 3243
1 3244
1 3245
1 3246
1 3247
1 3248
1 3249
1 3250
1 3251
1 3252
1 3253
1 3254
1 3255
1 3256
1 3257
1 3258
1 3259
1 3260
1 3261
1 3262
1 3263
1 3264
1 3265
1 3266
1 3267
1 3268
1 3269
1 3270
1 3271
1 3272
1 3273
1 3274
1 3275
1 3276
1 3277
1 3278
1 3279
1 3280
1 3281
1 3282
1 3283
1 3284
1 3285
1 3286
1 3287
1 3288
1 3289
1 3290
1 3291
1 3292
1 3293
1 3294
1 3295
1 3296
1 3297
1 3298
1 3299
1 3300
1 3301
1 3302
1 3303
1 3304
1 3305
1 3306
1 3307
1 3308
1 3309
1 3310
1 3311
1 3312
1 3313
1 3314
1 3315
1 3316
1 3317
1 3318
1 3319
1 3320
1 3321
1 3322
1 3323
1 3324
1 3325
1 3326
1 3327
1 3328
1 3329
1 3330
1 3331
1 3332
1 3333
1 3334
1 3335
1 3336
1 3337
1 3338
1 3339
1 3340
1 3341
1 3342
1 3343
1 3344
1 3345
1 3346
1 3347
1 3348
1 3349
1 3350
1 3351
1 3352
1 3353
1 3354
1 3355
1 3356
1 3357
1 3358
1 3359
1 3360
1 3361
1 3362
1 3363
1 3364
1 3365
1 3366
1 3367
1 3368
1 3369
1 3370
1 3371
1 3372
1 3373
1 3374
1 3375
1 3376
1 3377
1 3378
1 3379
1 3380
1 3381
1 3382
1 3383
1 3384
1 3385
1 3386
1 3387
1 3388
1 3389
1 3390
1 3391
1 3392
1 3393
1 3394
1 3395
1 3396
1 3397
1 3398
1 3399
1 3400
1 3401
1 3402
1 3403
1 3404
1 3405
1 3406
1 3407
1 3408
1 3409
1 3410
1 3411
1 3412
1 3413
1 3414
1 3415
1 3416
1 3417
1 3418
1 3419
1 3420
1 3421
1 3422
1 3423
1 3424
1 3425
1 3426
1 3427
1 3428
1 3429
1 3430
1 3431
1 3432
1 3433
1 3434
1 3435
1 3436
1 3437
1 3438
1 3439
1 3440
1 3441
1 3442
1 3443
1 3444
1 3445
1 3446
1 3447
1 3448
1 3449
1 3450
1 3451
1 3452
1 3453
1 3454
1 3455
1 3456
1 3457
1 3458
1 3459
1 3460
1 3461
1 3462
1 3463
1 3464
1 3465
1 3466
1 3467
1 3468
1 3469
1 3470
1 3471
1 3472
1 3473
1 3474
1 3475
1 3476
1 3477
1 3478
1 3479
1 3480
1 3481
1 3482
1 3483
1 3484
1 3485
1 3486
1 3487
1 3488
1 3489
1 3490
1 3491
1 3492
1 3493
1 3494
1 3495
1 3496
1 3497
1 3498
1 3499
1 3500
1 3501
1 3502
1 3503
1 3504
1 3505
1 3506
1 3507
1 3508
1 3509
1 3510
1 3511
1 3512
1 3513
1 3514
1 3515
1 3516
1 3517
1 3518
1 3519
1 3520
1 3521
1 3522
1 3523
1 3524
1 3525
1 3526
1 3527
1 3528
1 3529
1 3530
1 3531
1 3532
1 3533
1 3534
1 3535
1 3536
1 3537
1 3538
1 3539
1 3540
1 3541
1 3542
1 3543
1 3544
1 3545
1 3546
1 3547
1 3548
1 3549
1 3550
1 3551
1 3552
1 3553
1 3554
1 3555
1 3556
1 3557
1 3558
1 3559
1 3560
1 3561
1 3562
1 3563
1 3564
1 3565
1 3566
1 3567
1 3568
1 3569
1 3570
1 3571
1 3572
1 3573
1 3574
1 3575
1 3576
1 3577
1 3578
1 3579
1 3580
1 3581
1 3582
1 3583
1 3584
1 3585
1 3586
1 3587
1 3588
1 3589
1 3590
1 3591
1 3592
1 3593
1 3594
1 3595
1 3596
1 3597
1 3598
1 3599
1 3600
1 3601
1 3602
1 3603
1 3604
1 3605
1 3606
1 3607
1 3608
1 3609
1 3610
1 3611
1 3612
1 3613
1 3614
1 3615
1 3616
1 3617
1 3618
1 3619
1 3620
1 3621
1 3622
1 3623
1 3624
1 3625
1 3626
1 3627
1 3628
1 3629
1 3630
1 3631
1 3632
1 3633
1 3634
1 3635
1 3636
1 3637
1 3638
1 3639
1 3640
1 3641
1 3642
1 3643
1 3644
1 3645
1 3646
1 3647
1 3648
1 3649
1 3650
1 3651
1 3652
1 3653
1 3654
1 3655
1 3656
1 3657
1 3658
1 3659
1 3660
1 3661
1 3662
1 3663
1 3664
1 3665
1 3666
1 3667
1 3668
1 3669
1 3670
1 3671
1 3672
1 3673
1 3674
1 3675
1 3676
1 3677
1 3678
1 3679
1 3680
1 3681
1 3682
1 3683
1 3684
1 3685
1 3686
1 3687
1 3688
1 3689
1 3690
1 3691
1 3692
1 3693
1 3694
1 3695
1 3696
1 3697
1 3698
1 3699
1 3700
1 3701
1 3702
1 3703
1 3704
1 3705
1 3706
1 3707
1 3708
1 3709
1 3710
1 3711
1 3712
1 3713
1 3714
1 3715
1 3716
1 3717
1 3718
1 3719
1 3720
1 3721
1 3722
1 3723
1 3724
1 3725
1 3726
1 3727
1 3728
1 3729
1 3730
1 3731
1 3732
1 3733
1 3734
1 3735
1 3736
1 3737
1 3738
1 3739
1 3740
1 3741
1 3742
1 3743
1 3744
1 3745
1 3746
1 3747
1 3748
1 3749
1 3750
1 3751
1 3752
1 3753
1 3754
1 3755
1 3756
1 3757
1 3758
1 3759
1 3760
1 3761
1 3762
1 3763
1 3764
1 3765
1 3766
1 3767
1 3768
1 3769
1 3770
1 3771
1 3772
1 3773
1 3774
1 3775
1 3776
1 3777
1 3778
1 3779
1 3780
1 3781
1 3782
1 3783
1 3784
1 3785
1 3786
1 3787
1 3788
1 3789
1 3790
1 3791
1 3792
1 3793
1 3794
1 3795
1 3796
1 3797
1 3798
1 3799
1 3800
1 3801
1 3802
1 3803
1 3804
1 3805
1 3806
1 3807
1 3808
1 3809
1 3810
1 3811
1 3812
1 3813
1 3814
1 3815
1 3816
1 3817
1 3818
1 3819
1 3820
1 3821
1 3822
1 3823
1 3824
1 3825
1 3826
1 3827
1 3828
1 3829
1 3830
1 3831
1 3832
1 3833
1 3834
1 3835
1 3836
1 3837
1 3838
1 3839
1 3840
1 3841
1 3842
1 3843
1 3844
1 3845
1 3846
1 3847
1 3848
1 3849
1 3850
1 3851
1 3852
1 3853
1 3854
1 3855
1 3856
1 3857
1 3858
1 3859
1 3860
1 3861
1 3862
1 3863
1 3864
1 3865
1 3866
1 3867
1 3868
1 3869
1 3870
1 3871
1 3872
1 3873
1 3874
1 3875
1 3876
1 3877
1 3878
1 3879
1 3880
1 3881
1 3882
1 3883
1 3884
1 3885
1 3886
1 3887
1 3888
1 3889
1 3890
1 3891
1 3892
1 3893
1 3894
1 3895
1 3896
1 3897
1 3898
1 3899
1 3900
1 3901
1 3902
1 3903
1 3904
1 3905
1 3906
1 3907
1 3908
1 3909
1 3910
1 3911
1 3912
1 3913
1 3914
1 3915
1 3916
1 3917
1 3918
1 3919
1 3920
1 3921
1 3922
1 3923
1 3924
1 3925
1 3926
1 3927
1 3928
1 3929
1 3930
1 3931
1 3932
1 3933
1 3934
1 3935
1 3936
1 3937
1 3938
1 3939
1 3940
1 3941
1 3942
1 3943
1 3944
1 3945
1 3946
1 3947
1 3948
1 3949
1 3950
1 3951
1 3952
1 3953
1 3954
1 3955
1 3956
1 3957
1 3958
1 3959
1 3960
1 3961
1 3962
1 3963
1 3964
1 3965
1 3966
1 3967
1 3968
1 3969
1 3970
1 3971
1 3972
1 3973
1 3974
1 3975
1 3976
1 3977
1 3978
1 3979
1 3980
1 3981
1 3982
1 3983
1 3984
1 3985
1 3986
1 3987
1 3988
1 3989
1 3990
1 3991
1 3992
1 3993
1 3994
1 3995
1 3996
1 3997
1 3998
1 3999
1 4000
1 4001
1 4002
1 4003
1 4004
1 4005
1 4006
1 4007
1 4008
1 4009
1 4010
1 4011
1 4012
1 4013
1 4014
1 4015
1 4016
1 4017
1 4018
1 4019
1 4020
1 4021
1 4022
1 4023
1 4024
1 4025
1 4026
1 4027
1 4028
1 4029
1 4030
1 4031
1 4032
1 4033
1 4034
1 4035
1 4036
1 4037
1 4038
1 4039
1 4040
1 4041
1 4042
1 4043
1 4044
1 4045
1 4046
1 4047
1 4048
1 4049
1 4050
1 4051
1 4052
1 4053
1 4054
1 4055
1 4056
1 4057
1 4058
1 4059
1 4060
1 4061
1 4062
1 4063
1 4064
1 4065
1 4066
1 4067
1 4068
1 4069
1 4070
1 4071
1 4072
1 4073
1 4074
1 4075
1 4076
1 4077
1 4078
1 4079
1 4080
1 4081
1 4082
1 4083
1 4084
1 4085
1 4086
1 4087
1 4088
1 4089
1 4090
1 4091
1 4092
1 4093
1 4094
1 4095
1 4096
1 4097
1 4098
1 4099
1 4100
1 4101
1 4102
1 4103
1 4104
1 4105
1 4106
1 4107
1 4108
1 4109
1 4110
1 4111
1 4112
1 4113
1 4114
1 4115
1 4116
1 4117
1 4118
1 4119
1 4120
1 4121
1 4122
1 4123
1 4124
1 4125
1 4126
1 4127
1 4128
1 4129
1 4130
1 4131
1 4132
1 4133
1 4134
1 4135
1 4136
1 4137
1 4138
1 4139
1 4140
1 4141
1 4142
1 4143
1 4144
1 4145
1 4146
1 4147
1 4148
1 4149
1 4150
1 4151
1 4152
1 4153
1 4154
1 4155
1 4156
1 4157
1 4158
1 4159
1 4160
1 4161
1 4162
1 4163
1 4164
1 4165
1 4166
1 4167
1 4168
1 4169
1 4170
1 4171
1 4172
1 4173
1 4174
1 4175
1 4176
1 4177
1 4178
1 4179
1 4180
1 4181
1 4182
1 4183
1 4184
1 4185
1 4186
1 4187
1 4188
1 4189
1 4190
1 4191
1 4192
1 4193
1 4194
1 4195
1 4196
1 4197
1 4198
1 4199
1 4200
1 4201
1 4202
1 4203
1 4204
1 4205
1 4206
1 4207
1 4208
1 4209
1 4210
1 4211
1 4212
1 4213
1 4214
1 4215
1 4216
1 4217
1 4218
1 4219
1 4220
1 4221
1 4222
1 4223
1 4224
1 4225
1 4226
1 4227
1 4228
1 4229
1 4230
1 4231
1 4232
1 4233
1 4234
1 4235
1 4236
1 4237
1 4238
1 4239
1 4240
1 4241
1 4242
1 4243
1 4244
1 4245
1 4246
1 4247
1 4248
1 4249
1 4250
1 4251
1 4252
1 4253
1 4254
1 4255
1 4256
1 4257
1 4258
1 4259
1 4260
1 4261
1 4262
1 4263
1 4264
1 4265
1 4266
1 4267
1 4268
1 4269
1 4270
1 4271
1 4272
1 4273
1 4274
1 4275
1 4276
1 4277
1 4278
1 4279
1 4280
1 4281
1 4282
1 4283
1 4284
1 4285
1 4286
1 4287
1 4288
1 4289
1 4290
1 4291
1 4292
1 4293
1 4294
1 4295
1 4296
1 4297
1 4298
1 4299
1 4300
1 4301
1 4302
1 4303
1 4304
1 4305
1 4306
1 4307
1 4308
1 4309
1 4310
1 4311
1 4312
1 4313
1 4314
1 4315
1 4316
1 4317
1 4318
1 4319
1 4320
1 4321
1 4322
1 4323
1 4324
1 4325
1 4326
1 4327
1 4328
1 4329
1 4330
1 4331
1 4332
1 4333
1 4334
1 4335
1 4336
1 4337
1 4338
1 4339
1 4340
1 4341
1 4342
1 4343
1 4344
1 4345
1 4346
1 4347
1 4348
1 4349
1 4350
1 4351
1 4352
1 4353
1 4354
1 4355
1 4356
1 4357
1 4358
1 4359
1 4360
1 4361
1 4362
1 4363
1 4364
1 4365
1 4366
1 4367
1 4368
1 4369
1 4370
1 4371
1 4372
1 4373
1 4374
1 4375
1 4376
1 4377
1 4378
1 4379
1 4380
1 4381
1 4382
1 4383
1 4384
1 4385
1 4386
1 4387
1 4388
1 4389
1 4390
1 4391
1 4392
1 4393
1 4394
1 4395
1 4396
1 4397
1 4398
1 4399
1 4400
1 4401
1 4402
1 4403
1 4404
1 4405
1 4406
1 4407
1 4408
1 4409
1 4410
1 4411
1 4412
1 4413
1 4414
1 4415
1 4416
1 4417
1 4418
1 4419
1 4420
1 4421
1 4422
1 4423
1 4424
1 4425
1 4426
1 4427
1 4428
1 4429
1 4430
1 4431
1 4432
1 4433
1 4434
1 4435
1 4436
1 4437
1 4438
1 4439
1 4440
1 4441
1 4442
1 4443
1 4444
1 4445
1 4446
1 4447
1 4448
1 4449
1 4450
1 4451
1 4452
1 4453
1 4454
1 4455
1 4456
1 4457
1 4458
1 4459
1 4460
1 4461
1 4462
1 4463
1 4464
1 4465
1 4466
1 4467
1 4468
1 4469
1 4470
1 4471
1 4472
1 4473
1 4474
1 4475
1 4476
1 4477
1 4478
1 4479
1 4480
1 4481
1 4482
1 4483
1 4484
1 4485
1 4486
1 4487
1 4488
1 4489
1 4490
1 4491
1 4492
1 4493
1 4494
1 4495
1 4496
1 4497
1 4498
1 4499
1 4500
1 4501
1 4502
1 4503
1 4504
1 4505
1 4506
1 4507
1 4508
1 4509
1 4510
1 4511
1 4512
1 4513
1 4514
1 4515
1 4516
1 4517
1 4518
1 4519
1 4520
1 4521
1 4522
1 4523
1 4524
1 4525
1 4526
1 4527
1 4528
1 4529
1 4530
1 4531
1 4532
1 4533
1 4534
1 4535
1 4536
1 4537
1 4538
1 4539
1 4540
1 4541
1 4542
1 4543
1 4544
1 4545
1 4546
1 4547
1 4548
1 4549
1 4550
1 4551
1 4552
1 4553
1 4554
1 4555
1 4556
1 4557
1 4558
1 4559
1 4560
1 4561
1 4562
1 4563
1 4564
1 4565
1 4566
1 4567
1 4568
1 4569
1 4570
1 4571
1 4572
1 4573
1 4574
1 4575
1 4576
1 4577
1 4578
1 4579
1 4580
1 4581
1 4582
1 4583
1 4584
1 4585
1 4586
1 4587
1 4588
1 4589
1 4590
1 4591
1 4592
1 4593
1 4594
1 4595
1 4596
1 4597
1 4598
1 4599
1 4600
1 4601
1 4602
1 4603
1 4604
1 4605
1 4606
1 4607
1 4608
1 4609
1 4610
1 4611
1 4612
1 4613
1 4614
1 4615
1 4616
1 4617
1 4618
1 4619
1 4620
1 4621
1 4622
1 4623
1 4624
1 4625
1 4626
1 4627
1 4628
1 4629
1 4630
1 4631
1 4632
1 4633
1 4634
1 4635
1 4636
1 4637
1 4638
1 4639
1 4640
1 4641
1 4642
1 4643
1 4644
1 4645
1 4646
1 4647
1 4648
1 4649
1 4650
1 4651
1 4652
1 4653
1 4654
1 4655
1 4656
1 4657
1 4658
1 4659
1 4660
1 4661
1 4662
1 4663
1 4664
1 4665
1 4666
1 4667
1 4668
1 4669
1 4670
1 4671
1 4672
1 4673
1 4674
1 4675
1 4676
1 4677
1 4678
1 4679
1 4680
1 4681
1 4682
1 4683
1 4684
1 4685
1 4686
1 4687
1 4688
1 4689
1 4690
1 4691
1 4692
1 4693
1 4694
1 4695
1 4696
1 4697
1 4698
1 4699
1 4700
1 4701
1 4702
1 4703
1 4704
1 4705
1 4706
1 4707
1 4708
1 4709
1 4710
1 4711
1 4712
1 4713
1 4714
1 4715
1 4716
1 4717
1 4718
1 4719
1 4720
1 4721
1 4722
1 4723
1 4724
1 4725
1 4726
1 4727
1 4728
1 4729
1 4730
1 4731
1 4732
1 4733
1 4734
1 4735
1 4736
1 4737
1 4738
1 4739
1 4740
1 4741
1 4742
1 4743
1 4744
1 4745
1 4746
1 4747
1 4748
1 4749
1 4750
1 4751
1 4752
1 4753
1 4754
1 4755
1 4756
1 4757
1 4758
1 4759
1 4760
1 4761
1 4762
1 4763
1 4764
1 4765
1 4766
1 4767
1 4768
1 4769
1 4770
1 4771
1 4772
1 4773
1 4774
1 4775
1 4776
1 4777
1 4778
1 4779
1 4780
1 4781
1 4782
1 4783
1 4784
1 4785
1 4786
1 4787
1 4788
1 4789
1 4790
1 4791
1 4792
1 4793
1 4794
1 4795
1 4796
1 4797
1 4798
1 4799
1 4800
1 4801
1 4802
1 4803
1 4804
1 4805
1 4806
1 4807
1 4808
1 4809
1 4810
1 4811
1 4812
1 4813
1 4814
1 4815
1 4816
1 4817
1 4818
1 4819
1 4820
1 4821
1 4822
1 4823
1 4824
1 4825
1 4826
1 4827
1 4828
1 4829
1 4830
1 4831
1 4832
1 4833
1 4834
1 4835
1 4836
1 4837
1 4838
1 4839
1 4840
1 4841
1 4842
1 4843
1 4844
1 4845
1 4846
1 4847
1 4848
1 4849
1 4850
1 4851
1 4852
1 4853
1 4854
1 4855
1 4856
1 4857
1 4858
1 4859
1 4860
1 4861
1 4862
1 4863
1 4864
1 4865
1 4866
1 4867
1 4868
1 4869
1 4870
1 4871
1 4872
1 4873
1 4874
1 4875
1 4876
1 4877
1 4878
1 4879
1 4880
1 4881
1 4882
1 4883
1 4884
1 4885
1 4886
1 4887
1 4888
1 4889
1 4890
1 4891
1 4892
1 4893
1 4894
1 4895
1 4896
1 4897
1 4898
1 4899
1 4900
1 4901
1 4902
1 4903
1 4904
1 4905
1 4906
1 4907
1 4908
1 4909
1 4910
1 4911
1 4912
1 4913
1 4914
1 4915
1 4916
1 4917
1 4918
1 4919
1 4920
1 4921
1 4922
1 4923
1 4924
1 4925
1 4926
1 4927
1 4928
1 4929
1 4930
1 4931
1 4932
1 4933
1 4934
1 4935
1 4936
1 4937
1 4938
1 4939
1 4940
1 4941
1 4942
1 4943
1 4944
1 4945
1 4946
1 4947
1 4948
1 4949
1 4950
1 4951
1 4952
1 4953
1 4954
1 4955
1 4956
1 4957
1 4958
1 4959
1 4960
1 4961
1 4962
1 4963
1 4964
1 4965
1 4966
1 4967
1 4968
1 4969
1 4970
1 4971
1 4972
1 4973
1 4974
1 4975
1 4976
1 4977
1 4978
1 4979
1 4980
1 4981
1 4982
1 4983
1 4984
1 4985
1 4986
1 4987
1 4988
1 4989
1 4990
1 4991
1 4992
1 4993
1 4994
1 4995
1 4996
1 4997
1 4998
1 4999
CELL_TYPES 5000
1 
1 
1 
1 
1 
1 
1 
1 
1 
1 
1 
1 
1 
1 
1 
1 
1 
1 
1 
1 
1 
1 
1 
1 
1 
1 
1 
1 
1 
1 
1 
1 
1 
1 
1 
1 
1 
1 
1 
1 
1 
1 
1 
1 
1 
1 
1 
1 
1 
1 
1 
1 
1 
1 
1 
1 
1 
1 
1 
1 
1 
1 
1 
1 
1 
1 
1 
1 
1 
1 
1 
1 
1 
1 
1 
1 
1 
1 
1 
1 
1 
1 
1 
1 
1 
1 
1 
1 
1 
1 
1 
1 
1 
1 
1 
1 
1 
1 
1 
1 
1 
1 
1 
1 
1 
1 
1 
1 
1 
1 
1 
1 
1 
1 
1 
1 
1 
1 
1 
1 
1 
1 
1 
1 
1 
1 
1 
1 
1 
1 
1 
1 
1 
1 
1 
1 
1 
1 
1 
1 
1 
1 
1 
1 
1 
1 
1 
1 
1 
1 
1 
1 
1 
1 
1 
1 
1 
1 
1 
1 
1 
1 
1 
1 
1 
1 
1 
1 
1 
1 
1 
1 
1 
1 
1 
1 
1 
1 
1 
1 
1 
1 
1 
1 
1 
1 
1 
1 
1 
1 
1 
1 
1 
1 
1 
1 
1 
1 
1 
1 
1 
1 
1 
1 
1 
1 
1 
1 
1 
1 
1 
1 
1 
1 
1 
1 
1 
1 
1 
1 
1 
1 
1 
1 
1 
1 
1 
1 
1 
1 
1 
1 
1 
1 
1 
1 
1 
1 
1 
1 
1 
1 
1 
1 
1 
1 
1 
1 
1 
1 
1 
1 
1 
1 
1 
1 
1 
1 
1 
1 
1 
1 
1 
1 
1 
1 
1 
1 
1 
1 
1 
1 
1 
1 
1 
1 
1 
1 
1 
1 
1 
1 
1 
1 
1 
1 
1 
1 
1 
1 
1 
1 
1 
1 
1 
1 
1 
1 
1 
1 
1 
1 
1 
1 
1 
1 
1 
1 
1 
1 
1 
1 
1 
1 
1 
1 
1 
1 
1 
1 
1 
1 
1 
1 
1 
1 
1 
1 
1 
1 
1 
1 
1 
1 
1 
1 
1 
1 
1 
1 
1 
1 
1 
1 
1 
1 
1 
1 
1 
1 
1 
1 
1 
1 
1 
1 
1 
1 
1 
1 
1 
1 
1 
1 
1 
1 
1 
1 
1 
1 
1 
1 
1 
1 
1 
1 
1 
1 
1 
1 
1 
1 
1 
1 
1 
1 
1 
1 
1 
1 
1 
1 
1 
1 
1 
1 
1 
1 
1 
1 
1 
1 
1 
1 
1 
1 
1 
1 
1 
1 
1 
1 
1 
1 
1 
1 
1 
1 
1 
1 
1 
1 
1 
1 
1 
1 
1 
1 
1 
1 
1 
1 
1 
1 
1 
1 
1 
1 
1 
1 
1 
1 
1 
1 
1 
1 
1 
1 
1 
1 
1 
1 
1 
1 
1 
1 
1 
1 
1 
1 
1 
1 
1 
1 
1 
1 
1 
1 
1 
1 
1 
1 
1 
1 
1 
1 
1 
1 
1 
1 
1 
1 
1 
1 
1 
1 
1 
1 
1 
1 
1 
1 
1 
1 
1 
1 
1 
1 
1 
1 
1 
1 
1 
1 
1 
1 
1 
1 
1 
1 
1 
1 
1 
1 
1 
1 
1 
1 
1 
1 
1 
1 
1 
1 
1 
1 
1 
1 
1 
1 
1 
1 
1 
1 
1 
1 
1 
1 
1 
1 
1 
1 
1 
1 
1 
1 
1 
1 
1 
1 
1 
1 
1 
1 
1 
1 
1 
1 
1 
1 
1 
1 
1 
1 
1 
1 
1 
1 
1 
1 
1 
1 
1 
1 
1 
1 
1 
1 
1 
1 
1 
1 
1 
1 
1 
1 
1 
1 
1 
1 
1 
1 
1 
1 
1 
1 
1 
1 
1 
1 
1 
1 
1 
1 
1 
1 
1 
1 
1 
1 
1 
1 
1 
1 
1 
1 
1 
1 
1 
1 
1 
1 
1 
1 
1 
1 
1 
1 
1 
1 
1 
1 
1 
1 
1 
1 
1 
1 
1 
1 
1 
1 
1 
1 
1 
1 
1 
1 
1 
1 
1 
1 
1 
1 
1 
1 
1 
1 
1 
1 
1 
1 
1 
1 
1 
1 
1 
1 
1 
1 
1 
1 
1 
1 
1 
1 
1 
1 
1 
1 
1 
1 
1 
1 
1 
1 
1 
1 
1 
1 
1 
1 
1 
1 
1 
1 
1 
1 
1 
1 
1 
1 
1 
1 
1 
1 
1 
1 
1 
1 
1 
1 
1 
1 
1 
1 
1 
1 
1 
1 
1 
1 
1 
1 
1 
1 
1 
1 
1 
1 
1 
1 
1 
1 
1 
1 
1 
1 
1 
1 
1 
1 
1 
1 
1 
1 
1 
1 
1 
1 
1 
1 
1 
1 
1 
1 
1 
1 
1 
1 
1 
1 
1 
1 
1 
1 
1 
1 
1 
1 
1 
1 
1 
1 
1 
1 
1 
1 
1 
1 
1 
1 
1 
1 
1 
1 
1 
1 
1 
1 
1 
1 
1 
1 
1 
1 
1 
1 
1 
1 
1 
1 
1 
1 
1 
1 
1 
1 
1 
1 
1 
1 
1 
1 
1 
1 
1 
1 
1 
1 
1 
1 
1 
1 
1 
1 
1 
1 
1 
1 
1 
1 
1 
1 
1 
1 
1 
1 
1 
1 
1 
1 
1 
1 
1 
1 
1 
1 
1 
1 
1 
1 
1 
1 
1 
1 
1 
1 
1 
1 
1 
1 
1 
1 
1 
1 
1 
1 
1 
1 
1 
1 
1 
1 
1 
1 
1 
1 
1 
1 
1 
1 
1 
1 
1 
1 
1 
1 
1 
1 
1 
1 
1 
1 
1 
1 
1 
1 
1 
1 
1 
1 
1 
1 
1 
1 
1 
1 
1 
1 
1 
1 
1 
1 
1 
1 
1 
1 
1 
1 
1 
1 
1 
1 
1 
1 
1 
1 
1 
1 
1 
1 
1 
1 
1 
1 
1 
1 
1 
1 
1 
1 
1 
1 
1 
1 
1 
1 
1 
1 
1 
1 
1 
1 
1 
1 
1 
1 
1 
1 
1 
1 
1 
1 
1 
1 
1 
1 
1 
1 
1 
1 
1 
1 
1 
1 
1 
1 
1 
1 
1 
1 
1 
1 
1 
1 
1 
1 
1 
1 
1 
1 
1 
1 
1 
1 
1 
1 
1 
1 
1 
1 
1 
1 
1 
1 
1 
1 
1 
1 
1 
1 
1 
1 
1 
1 
1 
1 
1 
1 
1 
1 
1 
1 
1 
1 
1 
1 
1 
1 
1 
1 
1 
1 
1 
1 
1 
1 
1 
1 
1 
1 
1 
1 
1 
1 
1 
1 
1 
1 
1 
1 
1 
1 
1 
1 
1 
1 
1 
1 
1 
1 
1 
1 
1 
1 
1 
1 
1 
1 
1 
1 
1 
1 
1 
1 
1 
1 
1 
1 
1 
1 
1 
1 
1 
1 
1 
1 
1 
1 
1 
1 
1 
1 
1 
1 
1 
1 
1 
1 
1 
1 
1 
1 
1 
1 
1 
1 
1 
1 
1 
1 
1 
1 
1 
1 
1 
1 
1 
1 
1 
1 
1 
1 
1 
1 
1 
1 
1 
1 
1 
1 
1 
1 
1 
1 
1 
1 
1 
1 
1 
1 
1 
1 
1 
1 
1 
1 
1 
1 
1 
1 
1 
1 
1 
1 
1 
1 
1 
1 
1 
1 
1 
1 
1 
1 
1 
1 
1 
1 
1 
1 
1 
1 
1 
1 
1 
1 
1 
1 
1 
1 
1 
1 
1 
1 
1 
1 
1 
1 
1 
1 
1 
1 
1 
1 
1 
1 
1 
1 
1 
1 
1 
1 
1 
1 
1 
1 
1 
1 
1 
1 
1 
1 
1 
1 
1 
1 
1 
1 
1 
1 
1 
1 
1 
1 
1 
1 
1 
1 
1 
1 
1 
1 
1 
1 
1 
1 
1 
1 
1 
1 
1 
1 
1 
1 
1 
1 
1 
1 
1 
1 
1 
1 
1 
1 
1 
1 
1 
1 
1 
1 
1 
1 
1 
1 
1 
1 
1 
1 
1 
1 
1 
1 
1 
1 
1 
1 
1 
1 
1 
1 
1 
1 
1 
1 
1 
1 
1 
1 
1 
1 
1 
1 
1 
1 
1 
1 
1 
1 
1 
1 
1 
1 
1 
1 
1 
1 
1 
1 
1 
1 
1 
1 
1 
1 
1 
1 
1 
1 
1 
1 
1 
1 
1 
1 
1 
1 
1 
1 
1 
1 
1 
1 
1 
1 
1 
1 
1 
1 
1 
1 
1 
1 
1 
1 
1 
1 
1 
1 
1 
1 
1 
1 
1 
1 
1 
1 
1 
1 
1 
1 
1 
1 
1 
1 
1 
1 
1 
1 
1 
1 
1 
1 
1 
1 
1 
1 
1 
1 
1 
1 
1 
1 
1 
1 
1 
1 
1 
1 
1 
1 
1 
1 
1 
1 
1 
1 
1 
1 
1 
1 
1 
1 
1 
1 
1 
1 
1 
1 
1 
1 
1 
1 
1 
1 
1 
1 
1 
1 
1 
1 
1 
1 
1 
1 
1 
1 
1 
1 
1 
1 
1 
1 
1 
1 
1 
1 
1 
1 
1 
1 
1 
1 
1 
1 
1 
1 
1 
1 
1 
1 
1 
1 
1 
1 
1 
1 
1 
1 
1 
1 
1 
1 
1 
1 
1 
1 
1 
1 
1 
1 
1 
1 
1 
1 
1 
1 
1 
1 
1 
1 
1 
1 
1 
1 
1 
1 
1 
1 
1 
1 
1 
1 
1 
1 
1 
1 
1 
1 
1 
1 
1 
1 
1 
1 
1 
1 
1 
1 
1 
1 
1 
1 
1 
1 
1 
1 
1 
1 
1 
1 
1 
1 
1 
1 
1 
1 
1 
1 
1 
1 
1 
1 
1 
1 
1 
1 
1 
1 
1 
1 
1 
1 
1 
1 
1 
1 
1 
1 
1 
1 
1 
1 
1 
1 
1 
1 
1 
1 
1 
1 
1 
1 
1 
1 
1 
1 
1 
1 
1 
1 
1 
1 
1 
1 
1 
1 
1 
1 
1 
1 
1 
1 
1 
1 
1 
1 
1 
1 
1 
1 
1 
1 
1 
1 
1 
1 
1 
1 
1 
1 
1 
1 
1 
1 
1 
1 
1 
1 
1 
1 
1 
1 
1 
1 
1 
1 
1 
1 
1 
1 
1 
1 
1 
1 
1 
1 
1 
1 
1 
1 
1 
1 
1 
1 
1 
1 
1 
1 
1 
1 
1 
1 
1 
1 
1 
1 
1 
1 
1 
1 
1 
1 
1 
1 
1 
1 
1 
1 
1 
1 
1 
1 
1 
1 
1 
1 
1 
1 
1 
1 
1 
1 
1 
1 
1 
1 
1 
1 
1 
1 
1 
1 
1 
1 
1 
1 
1 
1 
1 
1 
1 
1 
1 
1 
1 
1 
1 
1 
1 
1 
1 
1 
1 
1 
1 
1 
1 
1 
1 
1 
1 
1 
1 
1 
1 
1 
1 
1 
1 
1 
1 
1 
1 
1 
1 
1 
1 
1 
1 
1 
1 
1 
1 
1 
1 
1 
1 
1 
1 
1 
1 
1 
1 
1 
1 
1 
1 
1 
1 
1 
1 
1 
1 
1 
1 
1 
1 
1 
1 
1 
1 
1 
1 
1 
1 
1 
1 
1 
1 
1 
1 
1 
1 
1 
1 
1 
1 
1 
1 
1 
1 
1 
1 
1 
1 
1 
1 
1 
1 
1 
1 
1 
1 
1 
1 
1 
1 
1 
1 
1 
1 
1 
1 
1 
1 
1 
1 
1 
1 
1 
1 
1 
1 
1 
1 
1 
1 
1 
1 
1 
1 
1 
1 
1 
1 
1 
1 
1 
1 
1 
1 
1 
1 
1 
1 
1 
1 
1 
1 
1 
1 
1 
1 
1 
1 
1 
1 
1 
1 
1 
1 
1 
1 
1 
1 
1 
1 
1 
1 
1 
1 
1 
1 
1 
1 
1 
1 
1 
1 
1 
1 
1 
1 
1 
1 
1 
1 
1 
1 
1 
1 
1 
1 
1 
1 
1 
1 
1 
1 
1 
1 
1 
1 
1 
1 
1 
1 
1 
1 
1 
1 
1 
1 
1 
1 
1 
1 
1 
1 
1 
1 
1 
1 
1 
1 
1 
1 
1 
1 
1 
1 
1 
1 
1 
1 
1 
1 
1 
1 
1 
1 
1 
1 
1 
1 
1 
1 
1 
1 
1 
1 
1 
1 
1 
1 
1 
1 
1 
1 
1 
1 
1 
1 
1 
1 
1 
1 
1 
1 
1 
1 
1 
1 
1 
1 
1 
1 
1 
1 
1 
1 
1 
1 
1 
1 
1 
1 
1 
1 
1 
1 
1 
1 
1 
1 
1 
1 
1 
1 
1 
1 
1 
1 
1 
1 
1 
1 
1 
1 
1 
1 
1 
1 
1 
1 
1 
1 
1 
1 
1 
1 
1 
1 
1 
1 
1 
1 
1 
1 
1 
1 
1 
1 
1 
1 
1 
1 
1 
1 
1 
1 
1 
1 
1 
1 
1 
1 
1 
1 
1 
1 
1 
1 
1 
1 
1 
1 
1 
1 
1 
1 
1 
1 
1 
1 
1 
1 
1 
1 
1 
1 
1 
1 
1 
1 
1 
1 
1 
1 
1 
1 
1 
1 
1 
1 
1 
1 
1 
1 
1 
1 
1 
1 
1 
1 
1 
1 
1 
1 
1 
1 
1 
1 
1 
1 
1 
1 
1 
1 
1 
1 
1 
1 
1 
1 
1 
1 
1 
1 
1 
1 
1 
1 
1 
1 
1 
1 
1 
1 
1 
1 
1 
1 
1 
1 
1 
1 
1 
1 
1 
1 
1 
1 
1 
1 
1 
1 
1 
1 
1 
1 
1 
1 
1 
1 
1 
1 
1 
1 
1 
1 
1 
1 
1 
1 
1 
1 
1 
1 
1 
1 
1 
1 
1 
1 
1 
1 
1 
1 
1 
1 
1 
1 
1 
1 
1 
1 
1 
1 
1 
1 
1 
1 
1 
1 
1 
1 
1 
1 
1 
1 
1 
1 
1 
1 
1 
1 
1 
1 
1 
1 
1 
1 
1 
1 
1 
1 
1 
1 
1 
1 
1 
1 
1 
1 
1 
1 
1 
1 
1 
1 
1 
1 
1 
1 
1 
1 
1 
1 
1 
1 
1 
1 
1 
1 
1 
1 
1 
1 
1 
1 
1 
1 
1 
1 
1 
1 
1 
1 
1 
1 
1 
1 
1 
1 
1 
1 
1 
1 
1 
1 
1 
1 
1 
1 
1 
1 
1 
1 
1 
1 
1 
1 
1 
1 
1 
1 
1 
1 
1 
1 
1 
1 
1 
1 
1 
1 
1 
1 
1 
1 
1 
1 
1 
1 
1 
1 
1 
1 
1 
1 
1 
1 
1 
1 
1 
1 
1 
1 
1 
1 
1 
1 
1 
1 
1 
1 
1 
1 
1 
1 
1 
1 
1 
1 
1 
1 
1 
1 
1 
1 
1 
1 
1 
1 
1 
1 
1 
1 
1 
1 
1 
1 
1 
1 
1 
1 
1 
1 
1 
1 
1 
1 
1 
1 
1 
1 
1 
1 
1 
1 
1 
1 
1 
1 
1 
1 
1 
1 
1 
1 
1 
1 
1 
1 
1 
1 
1 
1 
1 
1 
1 
1 
1 
1 
1 
1 
1 
1 
1 
1 
1 
1 
1 
1 
1 
1 
1 
1 
1 
1 
1 
1 
1 
1 
1 
1 
1 
1 
1 
1 
1 
1 
1 
1 
1 
1 
1 
1 
1 
1 
1 
1 
1 
1 
1 
1 
1 
1 
1 
1 
1 
1 
1 
1 
1 
1 
1 
1 
1 
1 
1 
1 
1 
1 
1 
1 
1 
1 
1 
1 
1 
1 
1 
1 
1 
1 
1 
1 
1 
1 
1 
1 
1 
1 
1 
1 
1 
1 
1 
1 
1 
1 
1 
1 
1 
1 
1 
1 
1 
1 
1 
1 
1 
1 
1 
1 
1 
1 
1 
1 
1 
1 
1 
1 
1 
1 
1 
1 
1 
1 
1 
1 
1 
1 
1 
1 
1 
1 
1 
1 
1 
1 
1 
1 
1 
1 
1 
1 
1 
1 
1 
1 
1 
1 
1 
1 
1 
1 
1 
1 
1 
1 
1 
1 
1 
1 
1 
1 
1 
1 
1 
1 
1 
1 
1 
1 
1 
1 
1 
1 
1 
1 
1 
1 
1 
1 
1 
1 
1 
1 
1 
1 
1 
1 
1 
1 
1 
1 
1 
1 
1 
1 
1 
1 
1 
1 
1 
1 
1 
1 
1 
1 
1 
1 
1 
1 
1 
1 
1 
1 
1 
1 
1 
1 
1 
1 
1 
1 
1 
1 
1 
1 
1 
1 
1 
1 
1 
1 
1 
1 
1 
1 
1 
1 
1 
1 
1 
1 
1 
1 
1 
1 
1 
1 
1 
1 
1 
1 
1 
1 
1 
1 
1 
1 
1 
1 
1 
1 
1 
1 
1 
1 
1 
1 
1 
1 
1 
1 
1 
1 
1 
1 
1 
1 
1 
1 
1 
1 
1 
1 
1 
1 
1 
1 
1 
1 
1 
1 
1 
1 
1 
1 
1 
1 
1 
1 
1 
1 
1 
1 
1 
1 
1 
1 
1 
1 
1 
1 
1 
1 
1 
1 
1 
1 
1 
1 
1 
1 
1 
1 
1 
1 
1 
1 
1 
1 
1 
1 
1 
1 
1 
1 
1 
1 
1 
1 
1 
1 
1 
1 
1 
1 
1 
1 
1 
1 
1 
1 
1 
1 
1 
1 
1 
1 
1 
1 
1 
1 
1 
1 
1 
1 
1 
1 
1 
1 
1 
1 
1 
1 
1 
1 
1 
1 
1 
1 
1 
1 
1 
1 
1 
1 
1 
1 
1 
1 
1 
1 
1 
1 
1 
1 
1 
1 
1 
1 
1 
1 
1 
1 
1 
1 
1 
1 
1 
1 
1 
1 
1 
1 
1 
1 
1 
1 
1 
1 
1 
1 
1 
1 
1 
1 
1 
1 
1 
1 
1 
1 
1 
1 
1 
1 
1 
1 
1 
1 
1 
1 
1 
1 
1 
1 
1 
1 
1 
1 
1 
1 
1 
1 
1 
1 
1 
1 
1 
1 
1 
1 
1 
1 
1 
1 
1 
1 
1 
1 
1 
1 
1 
1 
1 
1 
1 
1 
1 
1 
1 
1 
1 
1 
1 
1 
1 
1 
1 
1 
1 
1 
1 
1 
1 
1 
1 
1 
1 
1 
1 
1 
1 
1 
1 
1 
1 
1 
1 
1 
1 
1 
1 
1 
1 
1 
1 
1 
1 
1 
1 
1 
1 
1 
1 
1 
1 
1 
1 
1 
1 
1 
1 
1 
1 
1 
1 
1 
1 
1 
1 
1 
1 
1 
1 
1 
1 
1 
1 
1 
1 
1 
1 
1 
1 
1 
1 
1 
1 
1 
1 
1 
1 
1 
1 
1 
1 
1 
1 
1 
1 
1 
1 
1 
1 
1 
1 
1 
1 
1 
1 
1 
1 
1 
1 
1 
1 
1 
1 
1 
1 
1 
1 
1 
1 
1 
1 
1 
1 
1 
1 
1 
1 
1 
1 
1 
1 
1 
1 
1 
1 
1 
1 
1 
1 
1 
1 
1 
1 
1 
1 
1 
1 
1 
1 
1 
1 
1 
1 
1 
1 
1 
1 
1 
1 
1 
1 
1 
1 
1 
1 
1 
1 
1 
1 
1 
1 
1 
1 
1 
1 
1 
1 
1 
1 
1 
1 
1 
1 
1 
1 
1 
1 
1 
1 
1 
1 
1 
1 
1 
1 
1 
1 
1 
1 
1 
1 
1 
1 
1 
1 
1 
1 
1 
1 
1 
1 
1 
1 
1 
1 
1 
1 
1 
1 
1 
1 
1 
1 
1 
1 
1 
1 
1 
1 
1 
1 
1 
1 
1 
1 
1 
1 
1 
1 
1 
1 
1 
1 
1 
1 
1 
1 
1 
1 
1 
1 
1 
1 
1 
1 
1 
1 
1 
1 
1 
1 
1 
1 
1 
1 
1 
1 
1 
1 
1 
1 
1 
1 
1 
1 
1 
1 
1 
1 
1 
1 
1 
1 
1 
1 
1 
1 
1 
1 
1 
1 
1 
1 
1 
1 
1 
1 
1 
1 
1 
1 
1 
1 
1 
1 
1 
1 
1 
1 
1 
1 
1 
1 
1 
1 
1 
1 
1 
1 
1 
1 
1 
1 
1 
1 
1 
1 
1 
1 
1 
1 
1 
1 
1 
1 
1 
1 
1 
1 
1 
1 
1 
1 
1 
1 
1 
1 
1 
1 
1 
1 
1 
1 
1 
1 
1 
1 
1 
1 
1 
1 
1 
1 
1 
1 
1 
1 
1 
1 
1 
1 
1 
1 
1 
1 
1 
1 
1 
1 
1 
1 
1 
1 
1 
1 
1 
1 
1 
1 
1 
1 
1 
1 
1 
1 
1 
1 
1 
1 
1 
1 
1 
1 
1 
1 
1 
1 
1 
1 
1 
1 
1 
1 
1 
1 
1 
1 
1 
1 
1 
1 
1 
1 
1 
1 
1 
1 
1 
1 
1 
1 
1 
1 
1 
1 
1 
1 
1 
1 
1 
1 
1 
1 
1 
1 
1 
1 
1 
1 
1 
1 
1 
1 
1 
1 
1 
1 
1 
1 
1 
1 
1 
1 
1 
1 
1 
1 
1 
1 
1 
1 
1 
1 
1 
1 
1 
1 
1 
1 
1 
1 
1 
1 
1 
1 
1 
1 
1 
1 
1 
1 
1 
1 
1 
1 
1 
1 
1 
1 
1 
1 
1 
1 
1 
1 
1 
1 
1 
1 
1 
1 
1 
1 
1 
1 
1 
1 
1 
1 
1 
1 
1 
1 
1 
1 
1 
1 
1 
1 
1 
1 
1 
1 
1 
1 
1 
1 
1 
1 
1 
1 
1 
1 
1 
1 
1 
1 
1 
1 
1 
1 
1 
1 
1 
1 
1 
1 
1 
1 
1 
1 
1 
1 
1 
1 
1 
1 
1 
1 
1 
1 
1 
1 
1 
1 
1 
1 
1 
1 
1 
1 
1 
1 
1 
1 
1 
1 
1 
1 
1 
1 
1 
1 
1 
1 
1 
1 
1 
1 
1 
1 
1 
1 
1 
1 
1 
1 
1 
1 
1 
1 
1 
1 
1 
1 
1 
1 
1 
1 
1 
1 
1 
1 
1 
1 
1 
1 
1 
1 
1 
1 
1 
1 
1 
1 
1 
1 
1 
1 
1 
1 
1 
1 
1 
1 
1 
1 
1 
1 
1 
1 
1 
1 
1 
1 
1 
1 
1 
1 
1 
1 
1 
1 
1 
1 
1 
1 
1 
1 
1 
1 
1 
1 
1 
1 
1 
1 
1 
1 
1 
1 
1 
1 
1 
1 
1 
1 
1 
1 
1 
1 
1 
1 
1 
1 
1 
1 
1 
1 
1 
1 
1 
1 
1 
1 
1 
1 
1 
1 
1 
1 
1 
1 
1 
1 
1 
1 
1 
1 
1 
1 
1 
1 
1 
1 
1 
1 
1 
1 
1 
1 
1 
1 
1 
1 
1 
1 
1 
1 
1 
1 
1 
1 
1 
1 
1 
1 
1 
1 
1 
1 
1 
1 
1 
1 
1 
1 
1 
1 
1 
1 
1 
1 
1 
1 
1 
1 
1 
1 
1 
1 
1 
1 
1 
1 
1 
1 
1 
1 
1 
1 
1 
1 
1 
1 
1 
1 
1 
1 
1 
1 
1 
1 
1 
1 
1 
1 
1 
1 
1 
1 
1 
1 
1 
1 
1 
1 
1 
1 
1 
1 
1 
1 
1 
1 
1 
1 
1 
1 
1 
1 
1 
1 
1 
1 
1 
1 
1 
1 
1 
1 
1 
1 
1 
1 
1 
1 
1 
1 
1 
1 
1 
1 
1 
1 
1 
1 
1 
1 
1 
1 
1 
1 
1 
1 
1 
1 
1 
1 
1 
1 
1 
1 
1 
1 
1 
1 
1 
1 
1 
1 
1 
1 
1 
1 
1 
1 
1 
1 
1 
1 
1 
1 
1 
1 
1 
1 
1 
1 
1 
1 
1 
1 
1 
1 
1 
1 
1 
1 
1 
1 
1 
1 
1 
1 
1 
1 
1 
1 
1 
1 
1 
1 
1 
1 
1 
1 
1 
1 
1 
1 
1 
1 
1 
1 
1 
1 
1 
1 
1 
1 
1 
1 
1 
1 
1 
1 
1 
1 
1 
1 
1 
1 
1 
1 
1 
1 
1 
1 
1 
1 
1 
1 
1 
1 
1 
1 
1 
1 
1 
1 
1 
1 
1 
1 
1 
1 
1 
1 
1 
1 
1 
1 
1 
1 
1 
1 
1 
1 
1 
1 
1 
1 
1 
1 
1 
1 
1 
1 
1 
1 
1 
1 
1 
1 
1 
1 
1 
1 
1 
1 
1 
1 
1 
1 
1 
1 
1 
1 
1 
1 
1 
1 
1 
1 
1 
1 
1 
1 
1 
1 
1 
1 
1 
1 
1 
1 
1 
1 
1 
1 
1 
1 
1 
1 
1 
1 
1 
1 
1 
1 
1 
1 
1 
1 
1 
1 
1 
1 
1 
1 
1 
1 
1 
1 
1 
1 
1 
1 
1 
1 
1 
1 
1 
1 
1 
1 
1 
1 
1 
1 
1 
1 
1 
1 
1 
1 
1 
1 
1 
1 
1 
1 
1 
1 
1 
1 
1 
1 
1 
1 
1 
1 
1 
1 
1 
1 
1 
1 
1 
1 
1 
1 
1 
1 
1 
1 
1 
1 
1 
1 
1 
1 
1 
1 
1 
1 
1 
1 
1 
1 
1 
1 
1 
1 
1 
1 
1 
1 
1 
1 
1 
1 
1 
1 
1 
1 
1 
1 
1 
1 
1 
1 
1 
1 
1 
1 
1 
1 
1 
1 
1 
1 
1 
1 
1 
1 
1 
1 
1 
1 
1 
1 
1 
1 
1 
1 
1 
1 
1 
1 
1 
1 
1 
1 
1 
1 
1 
1 
1 
1 
1 
1 
1 
1 
1 
1 
1 
1 
1 
1 
1 
1 
1 
1 
1 
1 
1 
1 
1 
1 
1 
1 
1 
1 
1 
1 
1 
1 
1 
1 
1 
1 
1 
1 
1 
1 
1 
1 
1 
1 
1 
1 
1 
1 
1 
1 
1 
1 
1 
1 
1 
1 
1 
1 
1 
1 
1 
1 
1 
1 
1 
1 
1 
1 
1 
1 
1 
1 
1 
1 
1 
1 
1 
1 
1 
1 
1 
1 
1 
1 
1 
1 
1 
1 
1 
1 
1 
1 
1 
1 
1 
1 
1 
1 
1 
1 
1 
1 
1 
1 
1 
1 
1 
1 
1 
1 
1 
1 
1 
1 
1 
1 
1 
1 
1 
1 
1 
1 
1 
1 
1 
1 
1 
1 
1 
1 
1 
1 
1 
1 
1 
1 
1 
1 
1 
1 
1 
1 
1 
1 
1 
1 
1 
1 
1 
1 
1 
1 
1 
1 
1 
1 
1 
1 
1 
1 
1 
1 
1 
1 
1 
1 
1 
1 
1 
1 
1 
1 
1 
1 
1 
1 
1 
1 
1 
1 
1 
1 
1 
1 
1 
1 
1 
1 
1 
1 
1 
1 
1 
1 
1 
1 
1 
1 
1 
1 
1 
1 
1 
1 
1 
1 
1 
1 
1 
1 
1 
1 
1 
1 
1 
1 
1 
1 
1 
1 
1 
1 
1 
1 
1 
1 
1 
1 
1 
1 
1 
1 
1 
1 
1 
1 
1 
1 
1 
1 
1 
1 
1 
1 
1 
1 
1 
1 
1 
1 
1 
1 
1 
1 
1 
1 
1 
1 
1 
1 
1 
1 
1 
1 
1 
1 
1 
1 
1 
1 
1 
1 
1 
1 
1 
1 
1 
1 
1 
1 
1 
1 
1 
1 
1 
1 
1 
1 
1 
1 
1 
1 
1 
1 
1 
1 
1 
1 
1 
1 
1 
1 
1 
1 
1 
1 
1 
1 
1 
1 
1 
1 
1 
1 
1 
1 
1 
1 
1 
1 
1 
1 
1 
1 
1 
1 
1 
1 
1 
1 
1 
1 
1 
1 
1 
1 
1 
1 
1 
1 
1 
1 
1 
1 
1 
1 
1 
1 
1 
1 
1 
1 
1 
1 
1 
1 
1 
1 
1 
1 
1 
1 
1 
1 
1 
1 
1 
1 
1 
1 
1 
1 
1 
1 
1 
1 
1 
1 
1 
1 
1 
1 
1 
1 
1 
1 
1 
1 
1 
1 
1 
1 
1 
1 
1 
1 
1 
1 
1 
1 
1 
1 
1 
1 
1 
1 
1 
1 
1 
1 
1 
1 
1 
1 
1 
1 
1 
1 
1 
1 
1 
1 
1 
1 
1 
1 
1 
1 
1 
1 
1 
1 
1 
1 
1 
1 
1 
1 
1 
1 
1 
1 
1 
1 
1 
1 
1 
1 
1 
1 
1 
1 
1 
1 
1 
1 
1 
1 
1 
1 
1 
1 
1 
1 
1 
1 
1 
1 
1 
1 
1 
1 
1 
1 
1 
1 
1 
1 
1 
1 
1 
1 
1 
1 
1 
1 
1 
1 
1 
1 
1 
1 
1 
1 
1 
1 
1 
1 
1 
1 
1 
1 
1 
1 
1 
1 
1 
1 
1 
1 
1 
1 
1 
1 
1 
1 
1 
1 
1 
1 
1 
1 
1 
1 
1 
1 
1 
1 
1 
1 
1 
1 
1 
1 
1 
1 
1 
1 
1 
1 
1 
1 
1 
1 
1 
1 
1 
1 
1 
1 
1 
1 
1 
1 
1 
1 
1 
1 
1 
1 
1 
1 
1 
1 
1 
1 
1 
1 
1 
1 
1 
1 
1 
1 
1 
1 
1 
1 
1 
1 
1 
1 
1 
1 
1 
1 
1 
1 
1 
1 
1 
1 
1 
1 
1 
1 
1 
1 
1 
1 
1 
1 
1 
1 
1 
1 
1 
1 
1 
1 
1 
1 
1 
1 
1 
1 
1 
1 
1 
1 
1 
1 
1 
1 
1 
1 
1 
1 
1 
1 
1 
1 
1 
1 
1 
1 
1 
1 
1 
1 
1 
1 
1 
1 
1 
1 
1 
1 
1 
1 
1 
1 
1 
1 
1 
1 
1 
1 
1 
1 
1 
1 
1 
1 
1 
1 
1 
1 
1 
1 
1 
1 
1 
1 
1 
1 
1 
1 
1 
1 
1 
1 
1 
1 
1 
1 
1 
1 
1 
1 
1 
1 
1 
1 
1 
1 
1 
1 
1 
1 
1 
1 
1 
1 
1 
1 
1 
1 
1 
1 
1 
1 
1 
1 
1 
1 
1 
1 
1 
1 
1 
1 
1 
1 
1 
1 
1 
1 
1 
1 
1 
1 
1 
1 
1 
1 
1 
1 
1 
1 
1 
1 
1 
1 
1 
1 
1 
1 
1 
1 
1 
1 
1 
1 
1 
1 
1 
1 
1 
1 
1 
1 
1 
1 
1 
1 
1 
1 
1 
1 
1 
1 
1 
1 
1 
1 
1 
1 
1 
1 
1 
1 
1 
1 
1 
1 
1 
1 
1 
1 
1 
1 
1 
1 
1 
1 
1 
1 
1 
1 
1 
1 
1 
1 
1 
1 
1 
1 
1 
1 
1 
1 
1 
1 
1 
1 
1 
1 
1 
1 
1 
1 
1 
1 
1 
1 
1 
1 
1 
1 
1 
1 
1 
1 
1 
1 
1 
1 
1 
1 
1 
1 
1 
1 
1 
1 
1 
1 
1 
1 
1 
1 
1 
1 
1 
1 
1 
1 
1 
1 
1 
1 
1 
1 
1 
1 
1 
1 
1 
1 
1 
1 
1 
1 
1 
1 
1 
1 
1 
1 
1 
1 
1 
1 
1 
1 
1 
1 
1 
1 
1 
1 
1 
1 
1 
1 
1 
1 
1 
1 
1 
1 
1 
1 
1 
1 
1 
1 
1 
1 
1 
1 
1 
1 
1 
1 
1 
1 
1 
1 
1 
1 
1 
1 
1 
1 
1 
1 
1 
1 
1 
1 
1 
1 
1 
1 
1 
1 
1 
1 
1 
1 
1 
1 
1 
1 
1 
1 
1 
1 
1 
1 
1 
1 
1 
1 
1 
1 
1 
1 
1 
1 
1 
1 
1 
1 
1 
1 
POINT_DATA 5000
VECTORS Stress float
-1209.86 -2258.42 0.
-3505.81 -4797.44 0.
5.21992 8.46722 0.
-3721.65 -5107.39 0.
-240.31 -412.49 0.
-21.214 -43.6891 0.
-3402.92 -5780.17 0.
-366.136 -880.137 0.
-77.9177 -211.993 0.
-3940.26 -6272.91 0.
-1546.76 -2676.06 0.
-78.6459 -157.791 0.
-1858.97 -2846.1 0.
-1536.28 -2428.33 0.
-1389.31 -2236.71 0.
-1142.59 -1988.56 0.
-888.972 -1747.32 0.
-881.241 -1836.78 0.
-689.939 -1515.87 0.
-500.874 -1192.73 0.
-545.421 -1130.42 0.
-502.814 -1059.36 0.
-460.215 -988.281 0.
-501.26 -1030.11 0.
-505.736 -1094.63 0.
-513.189 -1156.16 0.
-572.655 -1227.37 0.
-585.002 -1239.43 0.
-532.814 -1171.84 0.
-502.333 -1125.98 0.
-472.514 -1079.46 0.
-481.19 -1071.22 0.
-468.839 -1052.19 0.
-456.638 -1033.02 0.
-443.529 -1025.32 0.
-444.32 -1052.52 0.
-451.234 -1073.6 0.
-510.137 -1106.94 0.
-504.694 -1094.24 0.
-439.158 -1035.95 0.
-418.789 -1002.49 0.
-404.197 -963.264 0.
-412.361 -959.894 0.
-415.42 -972.1 0.
-419.393 -983.392 0.
-423.439 -982.262 0.
-417.067 -967.393 0.
-410.695 -952.524 0.
-382.408 -969.935 0.
-404.158 -1020.68 0.
-425.906 -1071.43 0.
-487.061 -1073.9 0.
-474.598 -1044.82 0.
-419.895 -1000.99 0.
-415.367 -990.425 0.
-410.84 -979.862 0.
-423.592 -987.352 0.
-432.623 -1005.15 0.
-443.234 -1021.38 0.
-429.824 -1022.41 0.
-441.099 -1056.48 0.
-457.942 -1084.98 0.
-523.72 -1149.54 0.
-530.53 -1165.44 0.
-489.561 -1138.69 0.
-480.675 -1103.85 0.
-476.487 -1064.31 0.
-464.342 -1054.92 0.
-474.121 -1075.53 0.
-486.447 -1093.59 0.
-498.682 -1119.65 0.
-538.713 -1189 0.
-579.478 -1257.62 0.
-619.663 -1319.36 0.
-602.481 -1296.5 0.
-576.735 -1269.29 0.
-536.204 -1152.46 0.
-536.114 -1094.74 0.
-490.546 -1066.52 0.
-560.705 -1202.03 0.
-630.916 -1337.49 0.
-584.528 -1387.25 0.
-866.954 -1891.21 0.
-1152.17 -2392.38 0.
-1136.3 -2119.21 0.
-1415.57 -2285.71 0.
-1681.55 -2465.51 0.
-1832.89 -2705.32 0.
-2287.56 -3310.55 0.
-91.3072 -234.881 0.
-955.777 -1897.25 0.
-4441.38 -7685.23 0.
0.149087 0.213214 0.
-587.947 -934.489 0.
-3425.67 -5334.91 0.
-3.4845 -23.6392 0.
-1825.79 -3705.09 0.
-1.99408 -10.6387 0.
2.45993 4.15806 0.
-1528.94 -2425.24 0.
-15.3958 -33.0108 0.
37.3433 93.7983 0.
0.339016 1.77293 0.
18.0723 45.4729 0.
-0.409847 -0.904875 0.
-0.0518436 -1.63798 0.
-312.239 -824.244 0.
-31.0176 -83.4164 0.
-0.159403 -0.441195 0.
-204.704 -314.397 0.
-155.103 -207.77 0.
-101.503 -153.793 0.
-752.792 -1269.39 0.
-476.793 -803.892 0.
-585.761 -1118.41 0.
-391.461 -817.349 0.
-216.097 -497.351 0.
-571.66 -1378.83 0.
-402.909 -1035.17 0.
-251.809 -673.855 0.
-424.835 -1037.65 0.
-382.118 -966.686 0.
-341.02 -894.098 0.
-472.003 -945.093 0.
-475.348 -1010.74 0.
-479.581 -1075.49 0.
-633.474 -1270.74 0.
-640.798 -1287.83 0.
-477.969 -1083.18 0.
-444.89 -1039.91 0.
-413.744 -994.714 0.
-473.272 -1049.44 0.
-460.52 -1030.82 0.
-455.968 -1003.99 0.
-415.309 -970.408 0.
-414.127 -999.588 0.
-416.635 -1025.08 0.
-595.088 -1143.32 0.
-589.648 -1130.62 0.
-423.329 -977.175 0.
-401.75 -944.93 0.
-383.082 -909.774 0.
-410.093 -953.628 0.
-411.928 -967.059 0.
-414.033 -980.219 0.
-433.378 -978.199 0.
-423.661 -966.677 0.
-414.831 -954.266 0.
-338.575 -897.793 0.
-356.436 -952.433 0.
-376.195 -1005.17 0.
-552.561 -1101.93 0.
-540.098 -1072.86 0.
-405.131 -982.909 0.
-404.107 -968.842 0.
-403.896 -953.962 0.
-421.514 -985.56 0.
-432.603 -1001.3 0.
-443.993 -1016.75 0.
-395.264 -958.816 0.
-408.791 -990.635 0.
-428.651 -1016.12 0.
-600.966 -1182.62 0.
-607.773 -1198.52 0.
-471.735 -1093.73 0.
-464.407 -1057.33 0.
-461.803 -1016.21 0.
-444.122 -1014.53 0.
-447.63 -1041.41 0.
-456.87 -1062.56 0.
-454.511 -1033.22 0.
-497.583 -1099.53 0.
-541.568 -1164.94 0.
-652.18 -1363.2 0.
-639.79 -1335.56 0.
-522.83 -1159.48 0.
-490.148 -1056.66 0.
-491.015 -997.982 0.
-366.971 -901.805 0.
-437.623 -1036.85 0.
-511.582 -1168.6 0.
-205.431 -552.307 0.
-418.771 -1125.85 0.
-659.986 -1671.51 0.
-104.584 -253.196 0.
-274.882 -524.638 0.
-459.246 -786.718 0.
-119.958 -300.533 0.
-514.184 -968.488 0.
0.178385 0.481634 0.
-0.13642 -1.4487 0.
-124.587 -237.172 0.
0.641063 4.11179 0.
-2.62791 -9.33404 0.
2.39159 3.68381 0.
-1.78032 -18.4475 0.
13.9999 30.3907 0.
-1.71831 -16.0685 0.
7.63151 14.5063 0.
9.64199 24.8308 0.
11.3709 25.9748 0.
0.719329 37.7769 0.
-8.31506 -59.4405 0.
0.508848 15.5904 0.
-0.305329 -5.82315 0.
4.46185 12.1354 0.
-39.1414 -101.708 0.
-0.0277575 -1.93816 0.
0.762887 2.1122 0.
-239.884 -341.789 0.
-184.966 -210.295 0.
-140.552 -177.805 0.
-174.941 -239.36 0.
-93.4312 -126.593 0.
-86.6301 -146.746 0.
-53.0278 -66.8135 0.
-54.5156 -59.4644 0.
-329.503 -853.463 0.
-189.011 -481.336 0.
-62.3242 -95.4034 0.
-354.799 -894.338 0.
-318.457 -816.981 0.
-284.87 -736.872 0.
-448.707 -854.111 0.
-452.069 -919.747 0.
-455.879 -984.925 0.
-706.419 -1302 0.
-713.743 -1319.09 0.
-441.978 -975.663 0.
-409.996 -931.295 0.
-378.929 -886.01 0.
-469.738 -1023.28 0.
-463.164 -998.479 0.
-458.433 -971.833 0.
-394.632 -907.958 0.
-392.606 -937.984 0.
-391.457 -967.133 0.
-680.039 -1179.7 0.
-674.602 -1166.99 0.
-414.69 -911.212 0.
-393.532 -878.545 0.
-373.466 -844.786 0.
-421.526 -933.661 0.
-423.369 -947.085 0.
-425.479 -960.241 0.
-457.804 -959.651 0.
-447.782 -948.434 0.
-438.203 -936.772 0.
-301.93 -818.463 0.
-320.184 -872.715 0.
-790.147 -1156.45 0.
-618.061 -1129.97 0.
-605.599 -1100.9 0.
-414.574 -940.624 0.
-413.371 -926.735 0.
-413.023 -911.992 0.
-439.074 -964.131 0.
-449.199 -980.839 0.
-460.337 -996.534 0.
-374.24 -881.684 0.
-390.173 -911.099 0.
-408.671 -937.95 0.
-678.213 -1215.7 0.
-685.017 -1231.59 0.
-467.874 -1034.8 0.
-465.317 -993.632 0.
-463.808 -951.41 0.
-427.228 -970.82 0.
-431.507 -996.929 0.
-435.314 -1023.51 0.
-432.502 -924.623 0.
-474.327 -992.192 0.
-517.064 -1058.85 0.
-705.757 -1385.98 0.
-693.247 -1358.46 0.
-403.992 -952.232 0.
-448.256 -956.703 0.
-448.134 -899.007 0.
-305.205 -675.279 0.
-356.263 -829.953 0.
-419.926 -972.023 0.
-74.8947 -189.515 0.
-91.5548 -239.516 0.
-300.413 -818.035 0.
-105.962 -235.659 0.
-114.848 -263.944 0.
-127.97 -298.28 0.
-129.897 -328.812 0.
-111.88 -265.103 0.
2.43381 6.51639 0.
0.081069 1.12251 0.
-0.514361 -3.01034 0.
-1.01037 -15.8518 0.
-1.42891 -9.20788 0.
-0.255005 -1.04686 0.
-1.29162 -20.3529 0.
11.4363 26.3173 0.
-0.524038 -6.94239 0.
12.5482 25.5808 0.
15.6787 42.4292 0.
-28.2221 -66.5338 0.
-0.0176246 -78.9387 0.
-2105.21 -4930.96 0.
10.4689 24.3651 0.
-3116.47 -5535.86 0.
0.605011 1.1744 0.
8.93218 19.6784 0.
-4189.06 -8417.25 0.
0.0542182 0.120267 0.
-3219.16 -5474.01 0.
-105.961 -256.472 0.
0.86764 2.40179 0.
-4077.06 -7990.47 0.
-117.478 -269.515 0.
-2217.76 -3905.72 0.
-1500.65 -2846.72 0.
-822.168 -1749.08 0.
-2091.91 -4408.73 0.
-1127.94 -2589.9 0.
-268.88 -666.138 0.
-1185.41 -2876.42 0.
-815.03 -2123.82 0.
-481.904 -1333.95 0.
-779.333 -1942.29 0.
-639.726 -1654.05 0.
-509.727 -1356.21 0.
-919.285 -1919.56 0.
-922.391 -1926.82 0.
-676.326 -1595.28 0.
-639.04 -1514.68 0.
-601.821 -1434.02 0.
-675.495 -1480.62 0.
-651.322 -1467.19 0.
-628.324 -1452.58 0.
-631.545 -1387.67 0.
-620.736 -1404.26 0.
-610.778 -1419.99 0.
-867.367 -1658.22 0.
-860.345 -1641.85 0.
-605.861 -1389.16 0.
-586.945 -1353.95 0.
-568.222 -1318.56 0.
-613.09 -1349.8 0.
-583.941 -1302.26 0.
-555.921 -1253.58 0.
-588.425 -1254.85 0.
-603.859 -1309.32 0.
-620.47 -1362.6 0.
-480.772 -1271.2 0.
-483.371 -1283.35 0.
-1126.8 -1613.04 0.
-758.037 -1504.2 0.
-753.497 -1493.6 0.
-600.806 -1346.13 0.
-599.567 -1331.93 0.
-599.96 -1316.1 0.
-582.95 -1332.98 0.
-596.539 -1348.12 0.
-611.13 -1362.25 0.
-560.785 -1327.36 0.
-588.039 -1384.12 0.
-615.46 -1440.71 0.
-883.854 -1712.3 0.
-892.799 -1733.17 0.
-673.013 -1503.81 0.
-684.361 -1481.79 0.
-696.906 -1458.58 0.
-635.315 -1506.01 0.
-659.733 -1525.84 0.
-684.922 -1544.9 0.
-636.705 -1502.3 0.
-683.291 -1598.35 0.
-729.976 -1694.31 0.
-928.859 -2080.62 0.
-953.748 -2138.73 0.
-513.928 -1400.48 0.
-716.737 -1863.67 0.
-912.381 -2268.35 0.
-472.797 -1266.46 0.
-922.902 -2350.91 0.
-1437.18 -3371.18 0.
-166.144 -449.878 0.
-1256.73 -3024.05 0.
-2485.16 -5460.35 0.
-858.19 -1774.58 0.
-1526.7 -2793.55 0.
-2244.86 -3762.86 0.
0.80287 2.12889 0.
-3886.48 -8541.26 0.
0.299468 3.25338 0.
-179.122 -405.385 0.
-3371.22 -6751.36 0.
8.63564 20.114 0.
-2000.11 -4116.04 0.
15.9035 36.3261 0.
-750.581 -1661.15 0.
-0.400596 -0.967136 0.
-181.423 -429.927 0.
-1.1218 -62.6277 0.
-820.032 -2247.06 0.
-551.293 -1514.51 0.
38.0992 105.028 0.
32.0667 88.6479 0.
2.39384 5.86673 0.
16.2558 39.8945 0.
17.5388 36.8416 0.
15.5937 36.908 0.
-1.90809 -16.8543 0.
-0.354259 -7.17445 0.
-35.308 -86.9984 0.
-0.0297023 -2.89978 0.
0.000381208 0.0528009 0.
-46.1791 -120.716 0.
-26.6926 -73.7844 0.
-36.3003 -84.2435 0.
0.238934 0.304865 0.
0.296555 0.395227 0.
-357.688 -801.347 0.
-55.6251 -59.4726 0.
-52.6213 -57.5894 0.
-626.255 -1688.37 0.
-315.875 -874.74 0.
-28.144 -77.339 0.
-593.345 -1616.94 0.
-473.377 -1308.95 0.
-360.896 -993.479 0.
-855.608 -1892.29 0.
-858.713 -1899.56 0.
-676.969 -1561.92 0.
-637.409 -1483.6 0.
-598.115 -1405.01 0.
-648.4 -1392.59 0.
-624.419 -1378.97 0.
-601.317 -1364.47 0.
-651.947 -1335.32 0.
-640.336 -1352.71 0.
-629.556 -1369.27 0.
-845.461 -1648.8 0.
-838.434 -1632.43 0.
-615.273 -1361.79 0.
-597.398 -1325.54 0.
-579.73 -1289.09 0.
-625.807 -1288.91 0.
-597.298 -1240.73 0.
-569.903 -1191.43 0.
-592.598 -1194.77 0.
-607.555 -1249.72 0.
-623.762 -1303.42 0.
-488.453 -1256.25 0.
-490.965 -1268.49 0.
-1401.41 -1724.21 0.
-732.933 -1493.41 0.
-728.395 -1482.81 0.
-631.887 -1309.85 0.
-630.9 -1295.4 0.
-630.612 -1280.26 0.
-569.692 -1261.89 0.
-583.211 -1277.1 0.
-597.7 -1291.33 0.
-590.399 -1303.1 0.
-617.546 -1359.97 0.
-644.858 -1416.67 0.
-874.932 -1708.45 0.
-883.876 -1729.32 0.
-680.65 -1438.25 0.
-693.155 -1415.07 0.
-706.678 -1390.87 0.
-631.585 -1428.08 0.
-654.649 -1449.26 0.
-680.886 -1467.27 0.
-592.784 -1450.97 0.
-639.739 -1546.66 0.
-686.992 -1642.05 0.
-870.5 -2009.01 0.
-910.423 -2052.09 0.
-332.889 -897.532 0.
-478.364 -1324.63 0.
-642.553 -1761.01 0.
-82.9176 -157.216 0.
-168.655 -444.175 0.
-590.481 -1559.02 0.
-39.6977 -105.491 0.
-96.6804 -267.34 0.
-257.126 -691.508 0.
-89.8968 -189.571 0.
-40.6012 -70.0654 0.
-87.6378 -148.119 0.
-0.0657895 -5.26737 0.
2.87433 6.44513 0.
-0.0307359 -2.92232 0.
3.20911 8.23631 0.
-186.33 -462.89 0.
4.43062 10.9784 0.
14.0529 31.7157 0.
13.2789 31.9883 0.
-345.693 -804.138 0.
28.4235 70.5568 0.
-258.818 -628.72 0.
-2.93509 -112.651 0.
37.931 94.3839 0.
18.282 47.2473 0.
37.1983 101.758 0.
10.0786 27.6471 0.
-6.22544 -15.8598 0.
12.2997 31.7062 0.
10.1282 22.4355 0.
12.8896 33.6439 0.
-1661.95 -4209.65 0.
6.52562 16.7492 0.
-2893.39 -6295.45 0.
-1.46181 -3.67181 0.
2.20198 5.97011 0.
-3340.94 -7436.21 0.
-152.466 -315.285 0.
-2362.79 -4463.68 0.
-1076.32 -2289.67 0.
-33.097 -89.5332 0.
-2909.97 -6461.6 0.
-1109.45 -2549.82 0.
-38.2979 -34.8666 0.
-1927.71 -4331.92 0.
-999.841 -2476.65 0.
-184.324 -509.008 0.
-1157.49 -2766 0.
-726.061 -1837.11 0.
-321.799 -881.066 0.
-895.014 -1920.06 0.
-747.168 -1674.4 0.
-546.913 -1274.59 0.
-481.908 -1152.4 0.
-417.766 -1029.35 0.
-473.571 -998.064 0.
-448.596 -959.499 0.
-424.108 -920.446 0.
-467.372 -915.063 0.
-452.266 -890.177 0.
-437.317 -865.134 0.
-646.569 -1186.78 0.
-636.377 -1163 0.
-436.501 -837.963 0.
-435.907 -845.144 0.
-435.45 -852.188 0.
-479.797 -882.539 0.
-480.31 -891.256 0.
-481.436 -899.36 0.
-503.701 -890.412 0.
-482.411 -840.079 0.
-461.387 -789.48 0.
-289.334 -763.907 0.
-276.194 -758.67 0.
-1241.42 -1206.01 0.
-502.426 -986.568 0.
-510.792 -1006.08 0.
-454.667 -825.952 0.
-463.993 -846.783 0.
-485.411 -855.523 0.
-429.721 -838.526 0.
-445.835 -870.959 0.
-462.162 -903.18 0.
-461.679 -899.283 0.
-459.413 -887.934 0.
-457.171 -876.561 0.
-658.674 -1203.93 0.
-669.762 -1229.78 0.
-461.9 -882.321 0.
-489.031 -935.376 0.
-516.291 -988.301 0.
-471.402 -1016.46 0.
-499.816 -1061.87 0.
-528.411 -1107.1 0.
-441.105 -1099.19 0.
-545.581 -1307.79 0.
-650.137 -1516.31 0.
-870.896 -1919.46 0.
-1060.71 -2249.48 0.
-276.633 -764.556 0.
-811.743 -2076.77 0.
-1383.62 -3320.38 0.
-72.0101 -199.302 0.
-1054.01 -2689.97 0.
-2297.4 -5359.81 0.
-149.252 -407.433 0.
-784.4 -1767.21 0.
-2730.22 -5484.3 0.
-234.06 -574.38 0.
-3869.52 -8350.58 0.
0.501605 1.31856 0.
1.08772 2.80783 0.
-3343.49 -8290.66 0.
6.87561 18.9823 0.
-0.162647 -9.71613 0.
-2147.66 -4944.01 0.
-0.656322 -42.3645 0.
-1286.32 -3319.39 0.
2.86716 7.17804 0.
10.0364 24.1858 0.
-0.553996 -1.40568 0.
-513.315 -1273.77 0.
22.5978 57.6612 0.
15.2514 36.9577 0.
-2.90307 -91.167 0.
-0.949736 -98.449 0.
-0.775819 -86.0274 0.
-639.913 -1750.46 0.
6.89181 18.9484 0.
-1552.07 -3980.1 0.
5.9097 15.6693 0.
-60.1976 -157.323 0.
-0.326504 -22.9881 0.
-28.9068 -73.9712 0.
1.1435 3.08101 0.
5.48745 15.1947 0.
0.922728 1.90454 0.
0.117376 0.266827 0.
-2.28487 -5.67087 0.
-0.0191295 -2.34385 0.
-0.200549 -1.71017 0.
-249.304 -515.653 0.
-24.9946 -12.2029 0.
-19.0954 -11.7756 0.
-468.339 -1120.45 0.
-0.0941491 -0.204203 0.
-38.3998 -90.9433 0.
-643.635 -1745.41 0.
-274.037 -753.611 0.
-11.0979 -12.3009 0.
-631.191 -1478.54 0.
-502.625 -1213.45 0.
-447.915 -1115.6 0.
-392.653 -983.648 0.
-340.322 -848.761 0.
-440.263 -932.234 0.
-417.593 -891.362 0.
-393.114 -852.299 0.
-445.235 -865.424 0.
-427.943 -842.725 0.
-412.882 -817.795 0.
-667.186 -1195.58 0.
-656.994 -1171.8 0.
-423.664 -809.432 0.
-422.98 -816.707 0.
-422.45 -823.827 0.
-454.934 -815.088 0.
-455.926 -823.331 0.
-457.559 -830.932 0.
-500.102 -865.415 0.
-479.086 -814.81 0.
-458.257 -764.018 0.
-292.13 -768.223 0.
-278.216 -763.761 0.
-1132.48 -1154.23 0.
-495.913 -983.746 0.
-504.278 -1003.26 0.
-438.263 -780.234 0.
-447.216 -801.441 0.
-456.579 -822.238 0.
-433.155 -797.963 0.
-449.493 -830.173 0.
-467.002 -861.213 0.
-447.021 -885.951 0.
-445.335 -874.02 0.
-443.775 -861.964 0.
-668.137 -1207.96 0.
-679.224 -1233.81 0.
-419.073 -827.15 0.
-446.131 -880.28 0.
-478.607 -927.992 0.
-399.35 -915.294 0.
-427.692 -960.781 0.
-455.778 -1006.52 0.
-339.742 -840.679 0.
-430.423 -1063.13 0.
-526.783 -1279.9 0.
-535.241 -1313.04 0.
-700.681 -1667.68 0.
-48.8382 -119.974 0.
-201.799 -556.514 0.
-694.753 -1881.06 0.
-3.42432 -9.4745 0.
-32.398 -87.7077 0.
-371.325 -993.26 0.
-10.4898 -28.1596 0.
-35.146 -92.2175 0.
-106.444 -275.063 0.
-0.0160672 -3.70461 0.
-180.265 -464.167 0.
-0.0506149 -6.06321 0.
-0.666652 -1.78195 0.
-2.28258 -6.00657 0.
8.90462 24.4988 0.
6.77989 17.984 0.
20.8349 57.6169 0.
18.8593 51.6166 0.
-347.415 -935.278 0.
5.36234 14.7903 0.
-306.79 -837.775 0.
5.5426 15.327 0.
-428.518 -1082.89 0.
-2.92434 -63.9378 0.
-8.23781 -21.1022 0.
40.6358 104.292 0.
-296.564 -776.721 0.
-2.62647 -99.4978 0.
-707.232 -1947.64 0.
16.4899 45.5855 0.
-434.514 -1131.8 0.
18.8687 50.6069 0.
1.3252 3.56127 0.
-0.121522 -27.3483 0.
-0.000669591 -31.1128 0.
5.23264 14.4431 0.
7.63694 20.8731 0.
2.06612 4.40915 0.
1.21801 2.83007 0.
1.8033 4.52101 0.
-0.0382723 -1.21057 0.
-0.491461 -3.80826 0.
-64.9384 -26.3534 0.
-46.025 -20.3289 0.
-39.6358 -20.7465 0.
0.00712404 0.0284428 0.
0.266119 0.571547 0.
-19.9915 -45.9182 0.
-233.691 -620.918 0.
-25.5822 -30.6498 0.
-0.377298 -0.261752 0.
-415.752 -988.631 0.
-304.514 -706.07 0.
-372.829 -932.703 0.
-323.756 -794.535 0.
-276.101 -654.949 0.
-412.587 -860.772 0.
-387.68 -822.135 0.
-363.444 -782.827 0.
-431.145 -807.739 0.
-413.432 -785.462 0.
-395.959 -762.943 0.
-687.804 -1204.38 0.
-677.61 -1180.61 0.
-411.472 -780.258 0.
-410.689 -787.634 0.
-410.065 -794.851 0.
-430.808 -746.9 0.
-432.352 -754.596 0.
-434.211 -761.976 0.
-501.508 -835.413 0.
-480.545 -784.757 0.
-459.67 -734.013 0.
-290.522 -776.943 0.
-280.045 -769.044 0.
-1222.52 -1205.32 0.
-495.257 -975.066 0.
-503.807 -994.395 0.
-422.125 -734.251 0.
-430.882 -755.655 0.
-439.825 -776.875 0.
-442.783 -751.205 0.
-459.067 -783.471 0.
-475.806 -815.281 0.
-445.304 -859.677 0.
-443.743 -847.62 0.
-442.337 -835.409 0.
-677.601 -1211.98 0.
-688.686 -1237.83 0.
-384.899 -763.326 0.
-417.184 -811.232 0.
-449.6 -859.006 0.
-340.29 -801.133 0.
-369.591 -845.666 0.
-397.822 -891.268 0.
-258.244 -562.298 0.
-341.082 -792.653 0.
-428.547 -1018.38 0.
-271.294 -634.907 0.
-418.246 -1008.3 0.
-9.1197 -23.0521 0.
-39.1233 -88.7928 0.
-125.195 -322.438 0.
0.586367 0.168265 0.
0.0930719 0.505722 0.
-28.5696 -77.7376 0.
-0.0316013 -0.281448 0.
0.111953 0.360318 0.
-17.0474 -37.3601 0.
-0.072488 -7.52696 0.
-0.00816722 -3.57722 0.
-0.0109653 -6.85296 0.
-0.0453877 -7.72961 0.
-0.666014 -1.79576 0.
-0.0887108 -20.3873 0.
-0.316381 -15.7327 0.
-0.0468232 -55.7792 0.
-0.0230714 -38.8016 0.
-0.0482956 -36.1708 0.
11.5727 32.0456 0.
6.53895 18.1106 0.
-39.5069 -109.426 0.
12.6056 30.0635 0.
-8.79884 -21.5062 0.
-13.2568 -34.3307 0.
32.7353 83.8192 0.
10.1913 25.682 0.
-16.3628 -42.2138 0.
-166.975 -436.708 0.
16.8938 46.792 0.
-1.29804 -58.9981 0.
-0.610975 -61.0001 0.
-0.325899 -41.6132 0.
-1055.71 -2850.79 0.
7.27757 19.9093 0.
-2122.78 -5504.69 0.
1.5986 4.21459 0.
-1976.96 -4237.86 0.
-236.63 -537.729 0.
-0.25715 -8.32138 0.
-3607.55 -8801.91 0.
1.22562 3.31949 0.
-2358.75 -4379.87 0.
-384.909 -667.653 0.
-200.15 -404.862 0.
-3023.84 -7496.14 0.
-514.53 -1330.64 0.
-0.00492415 -0.123288 0.
-1876.84 -4721.94 0.
-814.875 -2205.18 0.
-36.2864 -82.3542 0.
-1305.77 -3200.8 0.
-861.166 -2214.95 0.
-922.119 -2278.3 0.
-681.265 -1752.88 0.
-457.69 -1210.19 0.
-698.628 -1594.87 0.
-608.557 -1431.97 0.
-519.292 -1268.25 0.
-632.88 -1323.8 0.
-585.63 -1249.8 0.
-539.253 -1174.94 0.
-882.263 -1706.35 0.
-883.012 -1708.12 0.
-593.063 -1291.27 0.
-574.092 -1255.54 0.
-555.72 -1219.21 0.
-567.951 -1179.74 0.
-551.356 -1145.17 0.
-535.086 -1110.28 0.
-606.924 -1166.89 0.
-605.492 -1178.02 0.
-609.535 -1183.67 0.
-473.341 -1234.05 0.
-444.43 -1195.98 0.
-1334.3 -1582.77 0.
-624.861 -1347.49 0.
-628.879 -1356.87 0.
-540.218 -1098.29 0.
-570.79 -1167.61 0.
-611.569 -1226.71 0.
-597.933 -1221.92 0.
-595.587 -1213.31 0.
-593.377 -1204.55 0.
-558.803 -1238.28 0.
-585.712 -1293.34 0.
-614.474 -1346.54 0.
-899.151 -1781.97 0.
-918.102 -1826.18 0.
-565.715 -1275.59 0.
-622.726 -1369.78 0.
-680.963 -1462.75 0.
-516.485 -1312.24 0.
-640.017 -1582.85 0.
-768.539 -1848.47 0.
-488.95 -1263.61 0.
-780.11 -1994.14 0.
-1096.9 -2699.03 0.
-946.619 -2408.25 0.
-1536.49 -3715.5 0.
-58.5329 -129.031 0.
-836.297 -2261.79 0.
-2304.22 -5767.41 0.
-0.295476 -0.780151 0.
-251.002 -694.086 0.
-3401.21 -8215.26 0.
-22.9184 -58.0975 0.
-351.993 -775.794 0.
-3166.9 -6155.2 0.
1.68336 4.64944 0.
-3209.39 -8359.68 0.
-0.0241664 -9.09595 0.
-190 -501.328 0.
-2019.98 -4906.15 0.
1.14591 3.08015 0.
-2029.21 -5266.22 0.
-2.05897 -5.69857 0.
-328.914 -910.999 0.
11.349 31.1092 0.
5.89557 16.3186 0.
1.19287 3.29275 0.
-205.432 -567.789 0.
15.7326 37.9232 0.
-5.40837 -52.8624 0.
-2.1588 -44.7802 0.
-4.88783 -68.5648 0.
15.7439 39.8452 0.
36.3484 92.7525 0.
4.58644 11.8598 0.
19.7338 54.5999 0.
-13.9688 -38.1797 0.
14.0306 38.4843 0.
4.04949 11.1212 0.
-589.441 -1612.81 0.
-1.33879 -3.6957 0.
-77.6637 -206.076 0.
3.15685 8.50222 0.
-13.4584 -31.3882 0.
7.09922 17.995 0.
6.76253 18.5151 0.
-188.547 -508.249 0.
0.375452 1.03388 0.
-10.344 -17.2956 0.
-11.076 -20.1527 0.
-13.338 -27.2954 0.
-100.075 -261.667 0.
-0.0258519 -1.5156 0.
0.000979526 0.625348 0.
-521.708 -1432.05 0.
-9.253 -23.8518 0.
-21.5841 -54.0445 0.
-747.71 -1947.8 0.
-349.084 -914.621 0.
-594.059 -1562.04 0.
-384.414 -1005 0.
-191.36 -431.373 0.
-568.275 -1374.96 0.
-490.453 -1199.76 0.
-423.175 -1014.02 0.
-585.599 -1216.33 0.
-539.108 -1141.57 0.
-493.393 -1066.04 0.
-856.48 -1695.26 0.
-857.229 -1697.03 0.
-569.769 -1211.55 0.
-550.976 -1175.64 0.
-532.749 -1139.16 0.
-567.151 -1139.68 0.
-550.109 -1105.56 0.
-533.381 -1071.12 0.
-578.195 -1123.27 0.
-582.249 -1128.92 0.
-586.495 -1134.37 0.
-471.327 -1224.09 0.
-436.018 -1192.42 0.
-1322.91 -1575.36 0.
-617.83 -1316.23 0.
-623.759 -1323.69 0.
-538.988 -1051.94 0.
-569.346 -1121.46 0.
-600.105 -1190.59 0.
-584.389 -1179.92 0.
-580.693 -1172.65 0.
-578.2 -1164.19 0.
-535.435 -1146.54 0.
-563.083 -1200.86 0.
-591.609 -1254.31 0.
-873.403 -1767.45 0.
-896.588 -1807.43 0.
-507.323 -1137.23 0.
-563.337 -1232.43 0.
-620.522 -1326.47 0.
-385.879 -941.519 0.
-487.582 -1234.06 0.
-598.462 -1517.43 0.
-106.963 -205.46 0.
-371.006 -963.866 0.
-650.252 -1707.07 0.
-214.059 -567.285 0.
-737.281 -1943.72 0.
-46.914 -80.5245 0.
-94.7438 -197.452 0.
-427.419 -1182.94 0.
-0.0482804 -1.21741 0.
-0.324609 -0.883561 0.
-127.255 -352.298 0.
-0.099217 -4.80288 0.
-0.21368 -3.24705 0.
0.96758 2.09487 0.
0.675618 1.86164 0.
-2.54191 -7.04006 0.
-0.00810146 -12.2555 0.
2.7102 7.32655 0.
5.86761 15.2534 0.
-0.0487973 -20.0257 0.
2.64671 7.14578 0.
-0.000396039 -53.5802 0.
-282.03 -780.946 0.
-0.161585 -59.5358 0.
-3.92264 -10.8262 0.
1.1344 3.10635 0.
-439.744 -1208.5 0.
17.4769 42.6625 0.
-8.8281 -92.8704 0.
-2.89085 -71.9893 0.
23.8257 56.8397 0.
26.4446 67.3148 0.
-191.326 -482.632 0.
2.31202 5.54416 0.
28.5105 77.6483 0.
-0.78617 -2.14646 0.
-174.736 -482.25 0.
6.62673 18.3093 0.
-151.93 -418.943 0.
-1.99693 -5.53053 0.
0.402878 1.0871 0.
-0.14553 -25.1919 0.
3.65198 9.1389 0.
-1690.99 -4553.18 0.
-0.124204 -12.0822 0.
-1862.04 -5022.62 0.
-132.262 -359.652 0.
-2403.36 -4937.23 0.
-133.13 -260.991 0.
0.329343 0.701488 0.
-3071.06 -8343.21 0.
-42.9073 -116.565 0.
-20.2756 -55.6856 0.
-2481.04 -6155.11 0.
-521.224 -1398.83 0.
0.00159139 0.772825 0.
-1622.75 -4015.38 0.
-835.78 -2150.14 0.
-1145.86 -2810.13 0.
-712.148 -1824.19 0.
-309.626 -807.059 0.
-821.463 -1865.52 0.
-600.333 -1406.06 0.
-392.524 -933.278 0.
-581.395 -1201.64 0.
-468.331 -965.836 0.
-350.193 -735.107 0.
-697.751 -1394.28 0.
-662.656 -1325.48 0.
-403.158 -734.012 0.
-410.049 -756.65 0.
-417.15 -779.078 0.
-467.871 -842.771 0.
-451.388 -802.968 0.
-435.343 -762.728 0.
-458.596 -773.948 0.
-425.542 -689.946 0.
-392.743 -605.688 0.
-289.282 -746.997 0.
-287.959 -736.18 0.
-1102.62 -1135.15 0.
-482.073 -917.16 0.
-500.868 -962.202 0.
-426.138 -700.362 0.
-430.143 -718.364 0.
-434.215 -736.298 0.
-407.418 -715.174 0.
-437.418 -787.111 0.
-469.127 -857.339 0.
-430.075 -813.275 0.
-443.586 -840.56 0.
-457.558 -867.383 0.
-686.632 -1433.19 0.
-723.247 -1482.96 0.
-315.296 -712.136 0.
-487.864 -1075.74 0.
-658.2 -1441.58 0.
-387.62 -968.214 0.
-652.532 -1613.52 0.
-941.894 -2234.38 0.
-267.164 -705.026 0.
-765.083 -1974.89 0.
-1300.83 -3206.92 0.
-811.574 -2177.47 0.
-1963.21 -4948.06 0.
-26.391 -52.0542 0.
-386.538 -1068.7 0.
-2862.56 -7087.16 0.
0.0744553 0.203013 0.
-77.769 -215.404 0.
-3099.14 -8148.73 0.
1.81821 4.82977 0.
-115.411 -288.838 0.
-2694.9 -6469.06 0.
-2.84751e-06 -6.89505 0.
-1702.34 -4590.45 0.
4.10133 10.8684 0.
-0.0505544 -8.82849 0.
0.0398226 6.04616 0.
6.64081 18.3938 0.
7.93282 21.7958 0.
5.82753 16.1217 0.
-225.095 -623.396 0.
8.73126 23.9619 0.
3.03717 8.36578 0.
17.8723 48.512 0.
10.4664 28.3671 0.
-400.152 -991.515 0.
-3.32922 -7.67338 0.
-0.979051 -29.8534 0.
20.2632 48.7198 0.
-60.0401 -154.085 0.
-1.14653 -2.65616 0.
17.028 40.7478 0.
10.558 28.7218 0.
10.9822 29.9524 0.
-1097.19 -3038.24 0.
-2.40545 -6.6622 0.
-939.281 -2593.74 0.
14.1837 39.0561 0.
-1535.65 -4220.9 0.
-240.874 -666.489 0.
-59.4959 -164.658 0.
-613.538 -1691.57 0.
-0.0208428 -24.4894 0.
-199.487 -545.956 0.
-0.0486417 -9.97302 0.
-1.79663 -3.69854 0.
-0.45689 -1.54877 0.
1.65958 3.33302 0.
-51.6245 -141.422 0.
-24.4536 -67.468 0.
-3.28634 -9.10207 0.
-138.776 -383.368 0.
-0.0146715 -0.302273 0.
-0.239381 -0.872737 0.
-607.079 -1612.86 0.
-26.5389 -35.8264 0.
-583.965 -1549.49 0.
-195.478 -516.974 0.
-38.179 -62.6095 0.
-506.678 -1271.35 0.
-313.325 -783.793 0.
-143.475 -272.734 0.
-448.554 -1014.32 0.
-339.685 -774.261 0.
-245.019 -531.253 0.
-625.532 -1301.04 0.
-582.008 -1240.66 0.
-374.115 -682.284 0.
-381.144 -704.788 0.
-388.259 -727.206 0.
-432.435 -783.371 0.
-416.553 -742.967 0.
-401.297 -701.938 0.
-435.649 -756.297 0.
-402.481 -672.408 0.
-369.499 -588.332 0.
-285.586 -745.86 0.
-284.043 -735.263 0.
-857.365 -1025.53 0.
-458.953 -890.849 0.
-477.612 -936.03 0.
-405.449 -676.588 0.
-409.439 -694.606 0.
-413.591 -712.462 0.
-376.033 -651.244 0.
-405.11 -724.111 0.
-435.262 -795.902 0.
-398.683 -744.92 0.
-412.043 -772.356 0.
-425.846 -799.35 0.
-593.993 -1314.71 0.
-634.34 -1360.75 0.
-181.784 -421.286 0.
-329.531 -808.671 0.
-487.571 -1186.92 0.
-69.1463 -131.404 0.
-286.422 -739.996 0.
-537.381 -1399.84 0.
-26.8963 -47.912 0.
-96.2899 -252.899 0.
-586.878 -1532.29 0.
-37.1372 -102.511 0.
-600.23 -1652.07 0.
-0.0265741 -0.0587643 0.
-0.92913 -2.37496 0.
-106.307 -289.867 0.
-0.018431 -1.05871 0.
0.718379 1.97246 0.
-172.148 -476.449 0.
3.09174 8.37692 0.
-0.0900127 -3.70904 0.
5.44604 14.0295 0.
-0.0211398 -9.90958 0.
2.55222 7.00204 0.
-0.0923195 -21.1975 0.
-2281.18 -6085.25 0.
4.59696 12.7327 0.
7.96764 22.0653 0.
-1673.44 -4622.87 0.
7.14531 19.5696 0.
-205.012 -566.997 0.
-0.344842 -66.232 0.
-795.412 -2185.73 0.
19.2651 52.1642 0.
-0.64123 -1.73371 0.
-6.40971 -15.4725 0.
9.04889 20.8966 0.
-1.96979 -75.5709 0.
-4.1235 -35.4401 0.
21.4507 51.3881 0.
-4.63203 -10.7093 0.
-42.3221 -101.134 0.
-751.753 -2040.91 0.
7.00727 19.091 0.
13.586 37.2518 0.
-7.74748 -21.2042 0.
-425.012 -1168.75 0.
-0.216839 -44.5409 0.
-376.791 -1035.52 0.
-31.312 -86.6498 0.
12.2426 33.8844 0.
-73.1033 -202.452 0.
0.168548 0.465273 0.
-0.00565456 -12.6251 0.
-0.157278 -6.40882 0.
-1.25476 -10.4868 0.
-2.09544 -6.77352 0.
3.18055 6.12009 0.
-32.6338 -90.2322 0.
-6.72914 -18.6379 0.
-0.00841004 -3.82046 0.
-22.7997 -58.2965 0.
1.10451 2.45972 0.
0.301144 1.03277 0.
-3.01054 -1.24494 0.
-19.6825 -30.4552 0.
-95.2779 -215.637 0.
-45.2855 -77.8721 0.
-22.0474 -45.15 0.
-246.792 -622.283 0.
-84.0851 -103.76 0.
-17.207 -11.4504 0.
-329.858 -812.847 0.
-235.511 -558.214 0.
-175.807 -384.438 0.
-562.135 -1198.97 0.
-519.716 -1137.48 0.
-343.039 -632.589 0.
-352.002 -653.162 0.
-359.982 -674.719 0.
-399.187 -721.783 0.
-384.602 -680.083 0.
-370.483 -637.916 0.
-414.832 -736.516 0.
-381.804 -652.486 0.
-348.814 -568.418 0.
-289.796 -736.816 0.
-288.212 -726.261 0.
-863.428 -1026.56 0.
-438.262 -862.11 0.
-456.629 -907.583 0.
-385.705 -651.87 0.
-389.759 -669.825 0.
-393.698 -687.894 0.
-353.353 -578.609 0.
-381.137 -652.775 0.
-409.224 -726.639 0.
-367.842 -676.015 0.
-380.844 -703.81 0.
-392.604 -732.846 0.
-512.833 -1184.74 0.
-551.107 -1232.87 0.
-106.327 -196.334 0.
-218.589 -494.21 0.
-362.428 -886.781 0.
-31.7789 -63.6635 0.
-42.092 -99.5503 0.
-190.636 -507.539 0.
-17.2467 -27.6259 0.
-35.5879 -45.5069 0.
-82.8452 -175.813 0.
-40.2284 -89.3706 0.
-81.1334 -185.854 0.
-0.0869262 -0.86242 0.
-0.0327548 -0.792134 0.
-0.0127687 -1.29576 0.
-0.0455174 -1.58335 0.
1.31499 3.5534 0.
-42.8645 -118.089 0.
0.00498878 1.08036 0.
-0.0666727 -4.3671 0.
6.56369 16.766 0.
-0.0096397 -1.635 0.
1.52464 4.21826 0.
-0.00177567 -21.6145 0.
-475.59 -1298.82 0.
-0.00486854 -25.4117 0.
-0.000401341 -33.4961 0.
-0.531613 -46.7393 0.
3.00244 8.13519 0.
-814.554 -2215.57 0.
18.6573 49.2702 0.
-4.3645 -11.9579 0.
24.2011 65.3601 0.
-221.194 -596.521 0.
13.1329 31.6584 0.
-6.98606 -16.0906 0.
6.91484 16.9395 0.
-7.89692 -70.1225 0.
-7.75874 -18.7761 0.
-10.2615 -23.6983 0.
-381.112 -910.368 0.
6.64471 17.3517 0.
-1.65352 -72.7353 0.
-80.7994 -220.117 0.
-6.71459 -18.2389 0.
-173.401 -474.144 0.
-0.319725 -40.0491 0.
-0.462226 -41.3822 0.
8.93315 24.7221 0.
10.8316 29.9814 0.
-1096.89 -3032.78 0.
-0.281919 -0.772291 0.
-1898.82 -5227.47 0.
-3.75236 -10.3934 0.
5.76605 15.9696 0.
-2485.32 -6142.75 0.
3.43798 7.97383 0.
-2271.17 -6069.84 0.
-80.4937 -220.421 0.
-11.9856 -32.8108 0.
-2600.93 -6958.65 0.
-11.1897 -29.6687 0.
0.0500941 0.121684 0.
-2232.56 -5897.83 0.
-410.586 -1134.04 0.
-1482.39 -3701.02 0.
-692.432 -1814.32 0.
-36.8085 -96.975 0.
-1099.64 -2880.34 0.
-634.655 -1723.65 0.
-210.89 -525.729 0.
-784.754 -2036.15 0.
-541.118 -1433.03 0.
-318.882 -808.512 0.
-780.58 -1916.01 0.
-710.189 -1768.36 0.
-564.538 -1295.2 0.
-504.706 -1155.05 0.
-445.53 -1014.25 0.
-468.92 -1008.54 0.
-459.241 -986.897 0.
-451.334 -963.484 0.
-537.791 -1089.59 0.
-516.153 -1029.99 0.
-494.835 -970.064 0.
-445.868 -1133.43 0.
-432.893 -1098.55 0.
-967.118 -1385.67 0.
-528.215 -1192.78 0.
-530.563 -1200.91 0.
-456.372 -901.227 0.
-504.019 -1024.47 0.
-552.51 -1146.87 0.
-514.722 -1061.54 0.
-521.771 -1083.28 0.
-530.851 -1102.99 0.
-437.75 -1046.5 0.
-500.389 -1194.98 0.
-565.29 -1341.2 0.
-709.13 -1815.09 0.
-837.039 -2102.12 0.
-326.027 -803.537 0.
-626.833 -1640.98 0.
-951.881 -2454.18 0.
-119.976 -306.71 0.
-715.129 -1924.52 0.
-1351.54 -3501.07 0.
-69.0595 -191.164 0.
-769.353 -1960.79 0.
-1795.88 -4330.05 0.
-255.827 -704.827 0.
-2576.18 -6840.69 0.
0.0819799 1.10056 0.
-88.0833 -243.957 0.
-2822.02 -7520.04 0.
-14.6937 -40.5927 0.
-240.983 -648.22 0.
-2081.45 -5137.31 0.
-1.54617 -4.10637 0.
-2625.48 -7018.04 0.
-1.83069 -5.05575 0.
1.51239 4.18767 0.
-2035.35 -5588.88 0.
-4.662 -12.9106 0.
9.59297 26.509 0.
-0.0161697 -24.6799 0.
7.3947 20.4717 0.
3.91124 10.3668 0.
-110.728 -295.934 0.
-91.2271 -241.056 0.
-11.4058 -29.9053 0.
13.6873 35.6165 0.
19.8927 50.4497 0.
-99.4782 -267.566 0.
-17.6892 -42.6321 0.
15.413 35.46 0.
22.0664 54.7729 0.
13.0415 28.9644 0.
-4.31085 -10.5778 0.
9.35243 21.5865 0.
34.1765 76.0384 0.
-5.57063 -14.4701 0.
-3.75392 -9.81018 0.
-526.687 -1423.76 0.
-4.12196 -11.0928 0.
-213.078 -578.628 0.
-132.988 -358.227 0.
-3.42219 -9.14346 0.
-426.925 -1182.5 0.
9.88102 27.3232 0.
-324.766 -888.7 0.
5.97924 16.1475 0.
-129.261 -358.001 0.
3.51124 9.72551 0.
-3.00346 -8.31854 0.
-0.152039 -0.376407 0.
-0.0759422 -3.44438 0.
-137.53 -375.351 0.
-1.57901 -4.22979 0.
-5.96374 -16.1488 0.
-24.8032 -65.8562 0.
0.120649 0.30195 0.
0.328483 0.739717 0.
-408.447 -1131.21 0.
-0.0767417 -0.65095 0.
-390.009 -1040.25 0.
-27.5024 -71.6071 0.
0.00515606 0.0336163 0.
-558.335 -1532.14 0.
-128.983 -338.213 0.
-3.72532 -2.45902 0.
-553.781 -1477.34 0.
-334.493 -849.521 0.
-111.292 -244.791 0.
-653.164 -1667.22 0.
-585.753 -1516.55 0.
-501.009 -1173.15 0.
-441.683 -1032.48 0.
-382.939 -891.224 0.
-425.285 -945.139 0.
-416.691 -922.412 0.
-409.652 -898.131 0.
-527.394 -1031.95 0.
-505.994 -972.1 0.
-484.917 -911.931 0.
-448.638 -1086.08 0.
-435.915 -1050.94 0.
-873.438 -1343.07 0.
-516.785 -1152.29 0.
-519.541 -1160.02 0.
-433.64 -834.631 0.
-480.395 -958.777 0.
-528.076 -1082 0.
-485.791 -977.126 0.
-491.461 -1000.25 0.
-498.519 -1021.98 0.
-355.119 -866.12 0.
-412.779 -1019.6 0.
-473.281 -1170.25 0.
-536.563 -1456.64 0.
-653.577 -1754.68 0.
-100.057 -214.063 0.
-328.229 -842.667 0.
-622.574 -1687.22 0.
-22.0054 -24.6428 0.
-66.5405 -143.663 0.
-628.065 -1680.65 0.
-21.1844 -56.4168 0.
-10.4939 -28.9149 0.
-307.179 -786.867 0.
-8.75453 -24.0579 0.
-372.003 -1029.4 0.
-0.425179 -3.9718 0.
0.697935 1.83113 0.
-80.0435 -221.704 0.
-0.00141584 -6.55193 0.
-0.0199584 -4.99398 0.
-42.4208 -113.4 0.
2.22772 6.12803 0.
-367.357 -1002.04 0.
-0.0297462 -0.0819939 0.
-3.26699e-06 -19.0284 0.
-1.74343 -4.80894 0.
7.48788 20.6189 0.
-604.193 -1673.14 0.
-0.0943406 -43.4591 0.
-526.871 -1453.43 0.
-19.354 -50.3239 0.
-286.787 -754.045 0.
20.4603 53.6553 0.
15.7812 41.0576 0.
-219.933 -557.728 0.
-3.68686 -9.31263 0.
5.35551 13.4767 0.
-7.36654 -65.0065 0.
-15.9945 -36.792 0.
-1.68494 -41.5594 0.
19.7406 40.5133 0.
3.5966 8.14669 0.
-6.87325 -51.2212 0.
31.6995 70.959 0.
-302.112 -780.334 0.
-18.6256 -48.4035 0.
-476.637 -1276.78 0.
22.8269 59.7619 0.
-0.989218 -58.2377 0.
-285.076 -760.542 0.
-3.50491 -9.26021 0.
-440.355 -1218.85 0.
6.08265 16.7678 0.
-52.8489 -142.786 0.
10.7686 28.5689 0.
5.98646 16.5794 0.
1.92791 5.33994 0.
6.7043 18.569 0.
-1656.6 -4588.2 0.
-0.00298825 -0.650422 0.
-1858.73 -4949.02 0.
-0.0688917 -1.67361 0.
-11.7087 -25.2934 0.
-2360.24 -6449.64 0.
2.13046 5.36343 0.
1.93641 4.32201 0.
-2246.73 -6121.7 0.
0.578219 1.33457 0.
-1711.02 -4233.49 0.
-567.213 -1473.41 0.
-47.5716 -131.765 0.
-1373.42 -3609.94 0.
-613.283 -1677.88 0.
0.0485021 0.0364779 0.
-925.374 -2429.9 0.
-522.145 -1417.38 0.
-145.473 -378.29 0.
-749.269 -1853.66 0.
-559.037 -1435.25 0.
-459.406 -1071.59 0.
-388.709 -910.554 0.
-321.761 -745.772 0.
-390.625 -850.21 0.
-348.002 -743.785 0.
-306.919 -635.82 0.
-414.944 -731.067 0.
-382.152 -644.126 0.
-313.32 -593.225 0.
-328.278 -714.324 0.
-303.175 -647.73 0.
-688.764 -922.884 0.
-378.677 -775.604 0.
-405.646 -851.382 0.
-296.894 -594.431 0.
-363.521 -649.199 0.
-395.479 -738.635 0.
-343.097 -627.909 0.
-406.312 -789.224 0.
-471.116 -948.95 0.
-317.681 -782.392 0.
-422.151 -1040.25 0.
-536.098 -1288.64 0.
-584.295 -1561.49 0.
-824.148 -2130.18 0.
-92.2891 -223.537 0.
-585.279 -1599.89 0.
-1109.72 -2944.8 0.
-34.0912 -62.3757 0.
-629.462 -1700.74 0.
-1634.76 -4263.56 0.
-22.3838 -54.7333 0.
-553.449 -1420.59 0.
-1991.43 -4932.16 0.
-86.5651 -238.783 0.
-2468.06 -6641.53 0.
-0.50899 -1.38431 0.
-0.0865105 -0.237507 0.
-2294.67 -6354.08 0.
0.320988 0.887985 0.
-123.954 -339.342 0.
-2050.91 -5375.83 0.
-151.572 -417.392 0.
-200.174 -553.233 0.
1.25378 3.44892 0.
-0.00286316 -23.1956 0.
-0.433308 -23.4169 0.
-0.576065 -1.56811 0.
-265.705 -732.677 0.
-6.288 -17.2563 0.
-574.792 -1579.87 0.
-15.8953 -41.2466 0.
-103.601 -269.266 0.
18.9231 48.9517 0.
-228.335 -589.133 0.
-282.849 -714.195 0.
-5.93939 -14.9392 0.
-0.47475 -1.18973 0.
17.937 40.0292 0.
13.3967 28.0687 0.
3.50347 8.35365 0.
22.5793 47.5286 0.
9.73539 22.6399 0.
7.24477 15.4354 0.
-445.479 -1003.97 0.
-33.8385 -86.8845 0.
-11.0153 -27.0391 0.
5.32751 13.5992 0.
17.2431 44.8412 0.
-125.517 -332.211 0.
-607.17 -1602.51 0.
-243.128 -634.377 0.
-403.369 -1114.07 0.
1.06736 2.92948 0.
-1225.5 -3246.94 0.
-4.01707 -10.4733 0.
-1562.28 -4326.02 0.
-155.494 -428.056 0.
-274.586 -746.329 0.
6.5903 17.9375 0.
10.814 27.6985 0.
2.09388 0.904597 0.
-38.4869 -86.4846 0.
-141.263 -262.367 0.
-0.0140113 -4.07009 0.
-0.192204 -6.92247 0.
-0.0443968 -0.6214 0.
-220.478 -606.855 0.
-0.0949491 -1.08111 0.
-269.551 -704.813 0.
0.304703 0.783777 0.
0.246025 0.681435 0.
-554.314 -1524.07 0.
-1.59734 -3.19146 0.
0.00057357 0.000696484 0.
-522.494 -1446.54 0.
-151.446 -400.808 0.
-20.6862 -24.6613 0.
-500.719 -1319.07 0.
-332.892 -878.004 0.
-338.094 -864.79 0.
-270.006 -701.109 0.
-207.543 -531.802 0.
-342.615 -768.924 0.
-300.033 -662.449 0.
-257.486 -555.938 0.
-352.065 -675.905 0.
-319.718 -588.513 0.
-256.947 -531.543 0.
-308.323 -678.107 0.
-282.962 -611.769 0.
-496.655 -788.627 0.
-345.789 -704.98 0.
-372.38 -781.142 0.
-253.432 -539.182 0.
-313.181 -600.834 0.
-348.261 -687.155 0.
-231.191 -510.484 0.
-295.451 -670.78 0.
-358.986 -831.802 0.
-190.938 -453.419 0.
-281.902 -724.872 0.
-379.938 -989.253 0.
-316.175 -836.312 0.
-533.868 -1427.58 0.
-0.194753 -0.00523263 0.
-105.498 -259.937 0.
-595.296 -1641.25 0.
-14.22 -34.2558 0.
-11.8981 -24.8199 0.
-513.161 -1402.76 0.
0.113726 0.2935 0.
-5.05536 -13.1471 0.
-247.285 -642.501 0.
-0.0323947 -0.0857656 0.
-100.114 -277.03 0.
0.845487 2.28222 0.
-1.07384 -2.9318 0.
-378.932 -1046.97 0.
2.22608 6.11573 0.
-0.254769 -0.704893 0.
-39.4761 -107.29 0.
4.88316 13.5182 0.
-1325.95 -3656.89 0.
-4.00667 -11.0714 0.
-1517.74 -4203.8 0.
-6.09315 -16.3371 0.
8.96927 24.0354 0.
-479.338 -1310.12 0.
-13.2361 -36.137 0.
-669.747 -1832.03 0.
-33.9465 -87.9096 0.
-331.713 -860.813 0.
-7.69829 -19.8408 0.
15.3504 39.1428 0.
-0.547176 -1.36045 0.
-7.69077 -19.26 0.
-585.495 -1403.56 0.
-181.992 -413.622 0.
24.0483 51.3963 0.
9.93717 24.2055 0.
-0.540492 -1.1747 0.
-7.79462 -18.7096 0.
25.8785 55.5901 0.
32.0484 66.3432 0.
26.0331 62.8781 0.
-3.69673 -65.8576 0.
-263.414 -652.31 0.
-214.928 -555.023 0.
-154.903 -407.493 0.
-529.757 -1382.77 0.
-38.502 -94.8992 0.
-210.432 -567.305 0.
4.05605 10.8946 0.
-107.525 -282.832 0.
-1.03401 -32.8764 0.
-1.35408 -31.2593 0.
-9.39601 -25.924 0.
-18.2568 -49.8516 0.
1.96661 5.12272 0.
11.8102 28.0352 0.
-138.059 -165.548 0.
-235.974 -356.062 0.
-351.25 -537.832 0.
0.014779 4.29789 0.
-0.170543 -8.69683 0.
-0.0147131 -0.280112 0.
0.783919 1.99543 0.
-0.220651 -2.48459 0.
0.53748 1.27157 0.
-0.00284916 -0.13507 0.
1.6158e-05 0.191171 0.
-13.8355 -37.6447 0.
-0.00456495 -0.0666938 0.
0.0107128 0.03727 0.
-167.83 -414.961 0.
-38.3224 -40.7387 0.
-6.45565 -5.24401 0.
-297.541 -739.099 0.
-165.084 -377.868 0.
-245.077 -629.698 0.
-183.958 -459.008 0.
-149.957 -350.262 0.
-306.663 -675.579 0.
-266.117 -567.059 0.
-226.031 -458.078 0.
-292.829 -617.102 0.
-237.171 -553.011 0.
-205.853 -464.582 0.
-292.699 -637.56 0.
-268.545 -570.012 0.
-419.849 -743.204 0.
-310.856 -636.4 0.
-339.83 -710.184 0.
-241.405 -498.423 0.
-259.396 -555.914 0.
-308.493 -628.224 0.
-166.383 -371.624 0.
-220.069 -516.858 0.
-282.05 -679.461 0.
-100.153 -203.767 0.
-161.54 -392.257 0.
-254.108 -659.537 0.
-100.702 -190.854 0.
-272.56 -696 0.
0.0252271 0.00482404 0.
-14.6869 -18.5177 0.
-122.89 -295.699 0.
-6.99604 -18.2654 0.
-1.09769 -3.04023 0.
-2.64355 -7.19429 0.
0.0461559 0.107222 0.
-4.20799 -10.3652 0.
-28.7656 -79.0923 0.
1.01723 2.41908 0.
-2.1308 -5.73268 0.
-0.0571771 -4.00507 0.
0.173651 0.47114 0.
-236.954 -647.716 0.
-0.0860237 -11.9563 0.
-0.00197863 -13.2239 0.
0.0207669 1.00429 0.
-0.0982107 -22.1396 0.
-59.9942 -166.165 0.
0.425937 1.16693 0.
-639.685 -1766.52 0.
-0.0033448 -0.00893675 0.
10.3743 27.7059 0.
-446.086 -1188.87 0.
7.44289 19.8271 0.
-82.07 -219.857 0.
-30.6223 -79.1318 0.
-845.64 -2191.15 0.
-105.889 -271.927 0.
-30.435 -77.296 0.
-11.6297 -28.8859 0.
24.8629 59.6962 0.
-47.05 -105.388 0.
-69.7173 -161.845 0.
-5.25603 -45.5702 0.
0.915012 2.28508 0.
-4.10079 -22.7352 0.
-4.32065 -35.0722 0.
4.49612 8.68 0.
-1.01577 -2.14796 0.
-9.73371 -23.4241 0.
-492.217 -1199.46 0.
-178.183 -439.627 0.
-6.98663 -16.9566 0.
4.44552 10.7643 0.
8.02061 19.5992 0.
-49.8432 -123.347 0.
-764.275 -2021.52 0.
14.5868 38.4694 0.
-0.899699 -33.7163 0.
-2.98535 -7.60329 0.
1.23382 3.05908 0.
-2.14421 -5.92623 0.
-2.94232 -8.11402 0.
-738.043 -1937.11 0.
9.41848 25.0352 0.
-701.536 -1889.21 0.
-919.56 -1998.83 0.
-489.452 -1139.29 0.
-2153.44 -5951.75 0.
3.90443 10.7181 0.
3.40125 9.28702 0.
-2144.58 -5884.74 0.
0.618128 1.68798 0.
-1845.05 -4568.65 0.
-367.393 -927.132 0.
-75.782 -192.071 0.
-1763.64 -4737.42 0.
-372.765 -1032.2 0.
0.0145836 0.13326 0.
-1225.22 -3305.42 0.
-550.953 -1490.23 0.
-43.2412 -74.8319 0.
-925.153 -2463.11 0.
-564.045 -1511.88 0.
-645.671 -1669.4 0.
-457.603 -1217.79 0.
-286.968 -748.758 0.
-468.734 -1183.76 0.
-398.616 -995.654 0.
-331.085 -804.958 0.
-418.21 -1052.85 0.
-377.835 -944.622 0.
-324.631 -849.221 0.
-446.665 -1048.64 0.
-425.318 -989.629 0.
-537.322 -1108.7 0.
-452.975 -1026.88 0.
-473.416 -1088.06 0.
-328.201 -801.749 0.
-388.087 -961.96 0.
-448.242 -1121.9 0.
-302.08 -772.537 0.
-408.764 -1083.18 0.
-523.343 -1385.93 0.
-273.154 -736.023 0.
-497.855 -1348.4 0.
-737.156 -1946.18 0.
-587.867 -1583.47 0.
-1052.89 -2808.02 0.
-10.6459 -24.0004 0.
-527.217 -1455.8 0.
-1428.65 -3873.27 0.
-0.0081856 -0.644627 0.
-285.787 -789.51 0.
-2106.43 -5663.94 0.
-51.9988 -129.16 0.
-426.835 -1056.76 0.
-1977.12 -4967.26 0.
-0.00273329 -4.05223 0.
-2291.54 -6279.28 0.
-107.318 -297.252 0.
-310.573 -853.538 0.
-1240.05 -3394.39 0.
-0.00600238 -10.5223 0.
-2407.99 -6592.84 0.
7.59463 20.6348 0.
8.95327 24.548 0.
-1323.1 -3654.46 0.
6.07138 16.4182 0.
-211.057 -578.395 0.
-9.35907 -24.9123 0.
-289.752 -769.893 0.
-735.304 -1949.01 0.
-10.4874 -27.7953 0.
-418.541 -1114.99 0.
-2.35002 -47.2051 0.
-11.033 -26.9135 0.
-2.99297 -7.12747 0.
-679.075 -1719.1 0.
-152.346 -378.141 0.
-8.02392 -19.2358 0.
-261.863 -597.751 0.
10.365 22.0647 0.
7.57905 14.9236 0.
-2.53059 -28.5778 0.
-0.6897 -4.36789 0.
2.7693 6.18895 0.
-8.07176 -45.5601 0.
-525.01 -1141.1 0.
-120.108 -287.933 0.
-4.03346 -9.33512 0.
19.5614 46.5465 0.
-30.7866 -74.1731 0.
-24.2559 -58.2943 0.
-636.162 -1566.06 0.
-51.7276 -128.55 0.
-470.796 -1223.18 0.
-2.87155 -7.40711 0.
-315.824 -807.775 0.
-137.537 -347.162 0.
-140.399 -349.445 0.
-1080.59 -2985.19 0.
-0.106041 -28.5181 0.
-0.742283 -1.9219 0.
-0.700945 -26.6494 0.
5.05 13.2535 0.
-429.378 -1060.89 0.
-184.254 -500.179 0.
1.13969e-06 1.02252 0.
-0.0014247 -3.10803 0.
3.38112 9.32635 0.
-0.00474866 -3.86 0.
0.00197788 0.453607 0.
-35.4546 -93.0937 0.
-0.304144 -0.834166 0.
0.252362 0.686861 0.
-291.869 -805.605 0.
-0.023963 -0.257066 0.
-0.0164284 -0.722586 0.
-558.524 -1523.86 0.
-30.1918 -58.9757 0.
-27.3035 -51.7081 0.
-594.663 -1645.48 0.
-247.314 -679.708 0.
-458.614 -1172.08 0.
-283.303 -707.498 0.
-130.131 -279.522 0.
-372.795 -953.344 0.
-304.561 -763.308 0.
-237.181 -572.419 0.
-365.036 -956.299 0.
-325.131 -847.587 0.
-296.69 -757.691 0.
-426.637 -977.979 0.
-404.49 -919.768 0.
-462.731 -1033.6 0.
-415.929 -938.224 0.
-438.108 -997.68 0.
-276.966 -686.753 0.
-324.986 -819 0.
-384.847 -979.259 0.
-204.086 -470.548 0.
-305.903 -766.534 0.
-412.969 -1076.89 0.
-74.8976 -166.562 0.
-246.797 -665.095 0.
-471.649 -1277.73 0.
-183.448 -458.089 0.
-631.892 -1700.56 0.
-14.1915 -29.2284 0.
-9.15621 -16.0701 0.
-509.994 -1404.17 0.
-0.0133205 -1.12439 0.
-8.26226e-05 -0.0888393 0.
-289.084 -800.441 0.
0.457974 1.23734 0.
-2.17595 -5.66477 0.
-59.8787 -148.431 0.
1.9466 5.35018 0.
-50.0507 -138.267 0.
-0.0150365 -4.83495 0.
1.89795 5.25338 0.
-152.247 -417.693 0.
5.53971 15.3249 0.
-391.037 -1082.15 0.
-0.343005 -0.920766 0.
-0.165256 -20.6895 0.
-343.552 -942.974 0.
8.39584 22.2144 0.
-558.162 -1488.57 0.
-0.71148 -1.82578 0.
-136.438 -353.02 0.
15.8147 41.4007 0.
-2.64694 -6.97873 0.
-609.087 -1613.09 0.
-183.763 -452.364 0.
-34.0965 -82.5882 0.
4.42375 10.4888 0.
10.062 23.4347 0.
-2.9753 -6.81811 0.
-43.2108 -103.472 0.
-335.066 -782.551 0.
13.4186 29.2134 0.
14.4155 29.0009 0.
14.182 33.2123 0.
-2.0616 -15.5282 0.
-12.5786 -29.2603 0.
7.05472 14.3471 0.
22.1461 45.9104 0.
26.1773 58.5499 0.
25.4116 58.4864 0.
-6.76525 -16.0203 0.
-382.491 -914.966 0.
-480.405 -1147.13 0.
-155.683 -384.1 0.
12.3456 30.3063 0.
-46.2113 -117.982 0.
-1.76999 -4.48792 0.
-882.717 -2239.95 0.
-132.176 -330.706 0.
-13.7656 -33.9402 0.
-651.744 -1790.84 0.
-4.17111 -11.3855 0.
-2.94185 -7.44539 0.
-3.46416 -8.8123 0.
-0.625576 -18.072 0.
-158.755 -435.288 0.
-0.012974 -0.610857 0.
-1467.27 -3946.52 0.
-28.8749 -79.8665 0.
-10.6806 -29.555 0.
-2047.82 -5652.04 0.
0.592796 1.64051 0.
-1572.48 -3708.39 0.
-158.93 -372.565 0.
-187.474 -479.611 0.
-1880.52 -5173.58 0.
-44.8551 -120.097 0.
0.0042876 0.670945 0.
-1394.08 -3768.02 0.
-366.282 -1014.44 0.
0.49945 0.425124 0.
-984.548 -2626.78 0.
-461.486 -1262.36 0.
-707.346 -1772.09 0.
-454.212 -1142.66 0.
-213.693 -500.607 0.
-521.731 -1317.73 0.
-363.153 -916.652 0.
-210.033 -510.114 0.
-348.068 -914.636 0.
-282.477 -734.467 0.
-217.868 -553.316 0.
-360.837 -784.189 0.
-328.147 -692.624 0.
-329.206 -592.4 0.
-316.038 -706.117 0.
-354.691 -817.857 0.
-191.368 -494.101 0.
-294.98 -781.665 0.
-400.467 -1067.36 0.
-207.26 -503.83 0.
-413.196 -1060.62 0.
-629.51 -1607.03 0.
-159.668 -431.11 0.
-470.339 -1265.9 0.
-798.726 -2082.98 0.
-484.217 -1311.3 0.
-1188.05 -3148.51 0.
-1.003 -0.662714 0.
-296.647 -816.993 0.
-1635.26 -4407.84 0.
-1.66238e-05 -0.542771 0.
-64.3702 -178.132 0.
-2042.95 -5644.62 0.
-73.0657 -198.419 0.
-324.209 -854.889 0.
-1694.92 -4408.17 0.
0.27955 0.773589 0.
-1878.44 -5177.18 0.
-106.126 -293.477 0.
-907.152 -2511.82 0.
-155.195 -429.648 0.
1.8221 4.99926 0.
5.38859 14.909 0.
2.67169 7.07399 0.
-0.327815 -26.1642 0.
-109.849 -298.911 0.
6.31028 16.4826 0.
-684.448 -1803.59 0.
4.96528 12.6002 0.
-448.796 -1148.35 0.
-125.318 -319.265 0.
5.5924 14.1374 0.
-13.2057 -33.1172 0.
-430.35 -1051.67 0.
-540.227 -1298.96 0.
-397.895 -941.189 0.
-6.47009 -14.9972 0.
16.4588 37.572 0.
-5.0657 -48.794 0.
18.1091 40.866 0.
-2.41892 -5.10517 0.
-4.49266 -29.8961 0.
-1.7335 -26.0994 0.
0.555478 1.1966 0.
7.64293 17.4159 0.
-8.23628 -45.5704 0.
16.7659 35.5552 0.
9.43692 20.9588 0.
11.5519 26.4246 0.
-427.87 -1007.44 0.
-197.666 -468.878 0.
2.63832 5.99794 0.
18.7616 44.8888 0.
-0.542006 -1.32249 0.
-405.093 -1028.37 0.
0.076881 0.194016 0.
-55.6441 -139.353 0.
-241.855 -599.704 0.
-84.1628 -205.565 0.
-2.08118 -5.695 0.
0.116791 0.31642 0.
-1187.32 -2976.05 0.
9.89891 23.958 0.
2.39166 5.68615 0.
-2321.85 -6410.05 0.
5.22423 13.9733 0.
-185.392 -512.682 0.
-22.5748 -62.5187 0.
-11.9556 -33.1148 0.
-61.686 -168.886 0.
1.9072 5.08526 0.
-0.232475 -1.4621 0.
0.800926 1.90138 0.
-0.164119 -0.43308 0.
-346.581 -959.953 0.
-0.0750776 -0.206566 0.
-0.0297075 -1.46935 0.
-442.041 -1223.39 0.
0.000405335 0.476912 0.
0.215633 0.477525 0.
-502.856 -1378.95 0.
-42.0473 -96.949 0.
-410.455 -1068.25 0.
-171.59 -424.089 0.
-56.5269 -93.6831 0.
-362.924 -946.456 0.
-209.688 -539.878 0.
-90.3047 -210.552 0.
-280.651 -717.601 0.
-216.802 -535.656 0.
-163.313 -380.083 0.
-299.82 -620.533 0.
-282.269 -575.071 0.
-245.561 -508.157 0.
-242.003 -572.94 0.
-257.589 -620.763 0.
-138.775 -357.145 0.
-200.576 -523.972 0.
-304.745 -811.053 0.
-61.103 -119.791 0.
-207.542 -525.565 0.
-413.603 -1082.52 0.
-17.0833 -46.9449 0.
-108.54 -300.359 0.
-419.935 -1135.22 0.
-14.1313 -29.6755 0.
-547.073 -1501.97 0.
-0.0772067 -0.10904 0.
-2.69796 -6.78887 0.
-415.342 -1148.06 0.
0.584052 1.54087 0.
-9.97355 -27.408 0.
-419.053 -1159.53 0.
-7.76762 -20.9617 0.
-38.02 -99.4532 0.
-0.312153 -6.76979 0.
2.50952 6.78913 0.
-0.221119 -0.612154 0.
1.4079 3.89225 0.
0.0884594 0.244979 0.
-1035.93 -2856 0.
5.3199 14.4305 0.
-1814.18 -4977.28 0.
-0.544228 -24.0676 0.
9.82664 25.9436 0.
-966.315 -2564.7 0.
5.33797 13.7491 0.
-307.229 -799.12 0.
-41.8421 -104.942 0.
-902.735 -2283.56 0.
3.43821 8.67868 0.
-8.63094 -21.6063 0.
-14.0961 -35.0075 0.
-6.91811 -15.8955 0.
-9.40172 -21.341 0.
-227.018 -534.069 0.
-218.962 -505.546 0.
-435.261 -990.983 0.
-10.7388 -23.8577 0.
-74.1386 -170.971 0.
-1.34511 -2.90144 0.
-3.3451 -19.7794 0.
10.0097 23.1299 0.
7.48213 16.4056 0.
-158.144 -367.819 0.
14.7979 29.836 0.
-621.246 -1351.11 0.
-1.49387 -3.29319 0.
8.80904 18.6941 0.
3.35491 7.36093 0.
1.0785 2.40784 0.
-78.8193 -178.254 0.
-284.043 -675.294 0.
-10.3395 -25.0667 0.
-413.376 -1046.12 0.
-0.241171 -0.605677 0.
14.4158 35.2062 0.
-113.713 -277.096 0.
-7.28234 -17.7117 0.
-280.983 -757.28 0.
10.6241 28.2847 0.
-64.055 -155.558 0.
8.22029 19.6115 0.
8.3317 19.4991 0.
4.77865 13.0601 0.
6.07413 16.1821 0.
-72.6781 -201.244 0.
-20.6591 -57.2112 0.
-5.16498 -14.297 0.
-40.4035 -105.242 0.
0.127747 0.310966 0.
-0.185966 -1.30905 0.
1.32828 3.14496 0.
0.24435 0.634197 0.
-2.10745 -5.67379 0.
0.143583 0.368572 0.
-0.137843 -1.55439 0.
0.00121675 0.977342 0.
-0.0127743 -0.178901 0.
0.283038 0.961315 0.
-50.3361 -101.954 0.
-6.08394 -3.26684 0.
-132.007 -345.968 0.
-40.2375 -80.1748 0.
-36.0065 -54.9504 0.
-219.011 -560.285 0.
-89.8401 -209.953 0.
-40.2825 -47.7918 0.
-231.334 -548.089 0.
-187.027 -417.576 0.
-144.679 -289.407 0.
-292.217 -578.07 0.
-280.78 -548.741 0.
-186.244 -468.501 0.
-218.774 -553.183 0.
-219.302 -559.192 0.
-107.385 -257.695 0.
-143.017 -364.658 0.
-228.921 -600.157 0.
-18.8022 -23.6904 0.
-52.7354 -112.776 0.
-209.688 -546.023 0.
-9.51296 -15.9065 0.
-7.83317 -9.57478 0.
-61.0352 -167.565 0.
0.337654 0.19899 0.
-38.8473 -96.6403 0.
0.195972 0.539976 0.
0.282033 0.64783 0.
-4.56807 -12.5275 0.
0.767395 1.86281 0.
-0.0625329 -0.164692 0.
-25.784 -70.2605 0.
-0.0309662 -2.53557 0.
-0.0627276 -2.22276 0.
-0.609736 -8.95744 0.
-0.0243006 -0.988586 0.
0.595529 1.62772 0.
-0.585185 -1.61403 0.
1.79936 4.98333 0.
2.69455 7.45158 0.
-0.362769 -18.5676 0.
-127.373 -343.926 0.
-4.63784 -12.1179 0.
-5.78912 -15.2018 0.
-626.833 -1653.16 0.
1.45883 3.6345 0.
-372.822 -940.051 0.
-8.39439 -20.4191 0.
-19.6522 -47.9406 0.
-269.394 -673.421 0.
-211.179 -523.111 0.
-593.813 -1456.68 0.
-229.261 -526.333 0.
9.39444 21.329 0.
6.13386 13.6912 0.
-9.4433 -20.5797 0.
10.0207 21.3903 0.
22.3743 49.4729 0.
-10.1812 -23.9789 0.
-140.083 -309.841 0.
10.834 22.2046 0.
-3.71735 -8.80319 0.
-3.29057 -7.3673 0.
-10.4786 -24.858 0.
12.348 23.7412 0.
-5.2204 -34.8017 0.
-3.1934 -6.52886 0.
-8.62009 -18.2384 0.
1.18309 2.59022 0.
-178.469 -396.186 0.
-565.127 -1267.32 0.
-361.87 -853.742 0.
15.9289 35.8291 0.
-6.5321 -15.4342 0.
16.2007 38.766 0.
-3.75589 -9.10525 0.
-176.507 -430.395 0.
3.7433 9.11288 0.
-705.149 -1866.6 0.
6.26443 16.3322 0.
4.85711 11.6322 0.
7.44671 17.5133 0.
-1.82274 -21.0747 0.
-524.202 -1431.94 0.
6.78251 17.7865 0.
-1410.13 -3888.13 0.
-14.5476 -39.9528 0.
-39.3181 -106.865 0.
-1501.58 -4152.78 0.
-64.21 -172.858 0.
-21.529 -55.9872 0.
-1907.94 -4911.41 0.
-12.9015 -33.9858 0.
-1606.48 -4449.67 0.
-8.51403e-06 -1.36798 0.
0.682975 1.87184 0.
-1642.06 -4493.41 0.
-11.8921 -32.7967 0.
0.18028 0.499321 0.
-1223.26 -3278.49 0.
-292.047 -807.976 0.
-862.748 -2264.29 0.
-454.586 -1227.18 0.
-99.1051 -270.639 0.
-663.714 -1769.66 0.
-409.262 -1097.81 0.
-164.947 -419.658 0.
-506.364 -1318.07 0.
-373.911 -954.974 0.
-242.119 -591.221 0.
-459.065 -1018.92 0.
-427.056 -923.531 0.
-222.818 -612.171 0.
-331.254 -908.369 0.
-407.2 -1112.74 0.
-211.149 -546.796 0.
-389.559 -1055.15 0.
-569.671 -1561.8 0.
-105.986 -267.768 0.
-436.258 -1195.58 0.
-787.13 -2139.11 0.
-96.5344 -266.587 0.
-475.364 -1276 0.
-998.205 -2594.51 0.
-230.541 -638.548 0.
-1427.11 -3850.78 0.
-0.222918 -0.616264 0.
-9.02092 -24.6882 0.
-1819.64 -4992.13 0.
0.286122 0.787552 0.
-47.3126 -130.936 0.
-1674.16 -4636.7 0.
-0.0937257 -3.99893 0.
-2297.96 -5937.92 0.
-0.184462 -0.508332 0.
-0.340611 -0.9394 0.
-1940.12 -5317.3 0.
-0.426766 -1.17994 0.
-10.3174 -28.5705 0.
-1182.53 -3275.35 0.
3.02479 7.81756 0.
-306.948 -811.252 0.
-2.71455 -7.05047 0.
-33.3877 -87.1802 0.
1.15529 2.78941 0.
-7.01292 -17.2247 0.
-787.951 -1959.24 0.
-0.855609 -2.06543 0.
-263.796 -638.501 0.
13.0657 31.3373 0.
11.1125 26.3644 0.
11.5802 27.1803 0.
-314.254 -721.708 0.
-175.894 -399.162 0.
-434.119 -968.865 0.
-5.06327 -43.2044 0.
13.0323 27.9141 0.
-7.40332 -15.2782 0.
20.9003 41.5205 0.
13.1934 27.5025 0.
-6.83604 -36.1588 0.
-0.263158 -0.640171 0.
5.30505 11.3817 0.
-3.96658 -8.82491 0.
16.5603 32.3617 0.
-92.8387 -195.033 0.
16.6015 33.8051 0.
13.7591 29.0228 0.
-668.054 -1464.38 0.
-92.366 -203.963 0.
1.92849 4.07511 0.
10.0255 22.3072 0.
-48.1276 -108.593 0.
-175.23 -410.906 0.
5.91751 14.0455 0.
-437.967 -1055.25 0.
-789.363 -1923.78 0.
-280.461 -682.49 0.
-40.9804 -106.751 0.
2.37063 6.10435 0.
-709.422 -1783.52 0.
-307.015 -765.474 0.
-260.713 -645.377 0.
-339.52 -888.787 0.
8.24053 20.2067 0.
-7.2025 -19.782 0.
-34.7835 -94.3788 0.
-98.7882 -263.992 0.
-45.5737 -123.945 0.
-5.92376 -15.7107 0.
0.940069 2.40139 0.
-267.836 -733.392 0.
1.7485 4.83488 0.
-5.90307 -16.1508 0.
0.474481 1.31395 0.
0.408729 1.12475 0.
-190.795 -526.339 0.
0.50882 1.40681 0.
0.584722 1.59051 0.
-446.362 -1230.13 0.
-0.00720117 -0.377698 0.
-413.663 -1121.59 0.
-49.772 -123.163 0.
-18.0372 -23.2884 0.
-403.488 -1064.73 0.
-156.671 -384.783 0.
-32.5618 -30.8012 0.
-370.96 -964.488 0.
-245.832 -619.974 0.
-158.354 -378.468 0.
-408.978 -837.385 0.
-376.081 -737.713 0.
-160.105 -428.302 0.
-246.048 -672.913 0.
-314.944 -868.007 0.
-112.548 -266.327 0.
-213.497 -562.687 0.
-392 -1071.19 0.
0.242765 0.158012 0.
-84.6899 -220.201 0.
-422.932 -1169.87 0.
-0.0263391 -0.066649 0.
-24.6728 -67.0871 0.
-385.303 -1038.91 0.
-5.3111 -13.7467 0.
-437.075 -1209.73 0.
0.00857504 0.0233203 0.
0.373 1.03292 0.
-131.209 -357.642 0.
0.172913 0.471817 0.
-0.00258742 -2.50792 0.
-102.932 -284.937 0.
-0.014665 -5.12999 0.
-0.158697 -7.52211 0.
-0.180439 -0.491736 0.
-0.839978 -2.29508 0.
-296.222 -810.318 0.
-2.50912 -6.91526 0.
-1.00346 -2.77425 0.
-281.376 -703.611 0.
0.152446 0.386199 0.
-678.431 -1751.3 0.
-0.902738 -26.4076 0.
-766.864 -1994.72 0.
-93.525 -227.641 0.
0.627062 1.51816 0.
-102.393 -251.901 0.
-138.082 -330.547 0.
-720.065 -1728.07 0.
-78.7982 -187.88 0.
0.253885 0.59845 0.
-5.57529 -12.9999 0.
9.81669 21.4613 0.
21.1224 45.1425 0.
-60.5079 -135.232 0.
-6.38905 -13.9325 0.
-452.385 -972.785 0.
-11.0338 -22.8457 0.
12.8436 25.5778 0.
-5.32712 -11.2739 0.
-5.45923 -30.0948 0.
-1.77429 -18.9097 0.
-1.26296 -2.75859 0.
-127.97 -289.692 0.
-4.23303 -8.42661 0.
-438.978 -940.219 0.
6.55394 13.2901 0.
-5.77297 -11.2429 0.
6.37373 12.9175 0.
18.8995 38.7942 0.
-129.892 -271.773 0.
-293.619 -655.629 0.
-473.637 -1073.04 0.
-195.065 -453.354 0.
-324.745 -765.02 0.
15.9932 36.3746 0.
-9.42497 -22.1406 0.
13.9039 32.8985 0.
-512.263 -1301.83 0.
6.20647 15.6925 0.
-96.5604 -242.816 0.
-258.313 -656.165 0.
-256.854 -647.833 0.
-246.44 -611.807 0.
-2.0995 -23.3643 0.
-73.0496 -198.222 0.
-123.24 -327.278 0.
-207.336 -537.701 0.
-74.819 -201.646 0.
-238.264 -571.205 0.
0.0959613 0.223225 0.
-1281.23 -3507.24 0.
1.27885 3.46092 0.
-1549.53 -4211.93 0.
-149.837 -413.748 0.
0.658882 1.82215 0.
-1553.16 -4272.15 0.
-0.0018532 -0.700113 0.
0.33024 0.910052 0.
-1259.29 -3445.56 0.
-39.716 -109.996 0.
-946.524 -2412.52 0.
-424.976 -1128.5 0.
-71.6894 -197.473 0.
-773.786 -2068.35 0.
-378.051 -1020.53 0.
-68.4288 -165.686 0.
-516.294 -1376.79 0.
-325.542 -865.277 0.
-141.402 -347.149 0.
-458.894 -1030.9 0.
-415.032 -896.495 0.
-164.136 -453.557 0.
-299.916 -829.95 0.
-411.896 -1136.2 0.
-75.5821 -194.297 0.
-357.342 -983.223 0.
-650.185 -1766.32 0.
-19.3878 -51.1472 0.
-414.91 -1144.94 0.
-932.489 -2510.9 0.
-64.2954 -171.565 0.
-415.633 -1106.61 0.
-1051.22 -2710.94 0.
-12.8743 -35.6352 0.
-1445.36 -3963.63 0.
0.147522 0.408013 0.
-29.5211 -80.1917 0.
-1705.62 -4702.92 0.
-9.5198 -26.1312 0.
-133.297 -365.279 0.
-1549.7 -4272.24 0.
-0.000783568 -9.34294 0.
-1329.52 -3679.32 0.
-130.754 -334.108 0.
1.70068 4.5811 0.
-94.783 -256.53 0.
3.28868 9.02316 0.
-3.52101 -9.70607 0.
1.68908 4.07564 0.
-2.45987 -6.10475 0.
-468.689 -1188.37 0.
-4.04449 -10.2099 0.
-781.181 -2003.55 0.
-10.3964 -25.2693 0.
6.65521 16.0861 0.
-97.6783 -234.654 0.
-2.59013 -5.93384 0.
0.795803 1.80253 0.
-409.333 -972.138 0.
-373.742 -877.137 0.
-331.725 -740.925 0.
-484.931 -1058.24 0.
-5.09746 -39.2277 0.
6.99541 14.5835 0.
19.526 40.0366 0.
-4.4731 -9.14318 0.
-12.7901 -26.5811 0.
-6.13411 -35.9627 0.
-273.366 -588.75 0.
-1.21953 -2.42745 0.
4.11312 9.48521 0.
2.20643 4.97585 0.
2.14811 4.95349 0.
-4.80389 -9.35732 0.
-0.891867 -1.80216 0.
-3.24162 -6.05065 0.
4.62588 8.99591 0.
-57.7325 -116.99 0.
-1.4303 -2.90667 0.
-520.721 -1077.98 0.
-296.766 -664.665 0.
10.1383 21.74 0.
-4.38869 -9.61133 0.
-3.73224 -35.9357 0.
-50.7728 -115.46 0.
-179.919 -419.567 0.
-218.193 -512.551 0.
-447.559 -1118.41 0.
-6.24568 -15.4793 0.
8.03412 19.7587 0.
-158.585 -409.796 0.
-45.9949 -117.596 0.
-166.267 -406.561 0.
-1.29713 -23.6464 0.
-201.02 -496.765 0.
-816.678 -2206.22 0.
-342.649 -948.783 0.
-837.287 -2192.5 0.
-0.453399 -7.55678 0.
-0.535863 -1.29196 0.
-102.095 -265.531 0.
-0.0011516 -0.0029964 0.
-80.0663 -221.603 0.
0.369259 1.01891 0.
0.952209 2.60827 0.
-0.0150377 -1.44034 0.
0.631552 1.74655 0.
0.460998 1.26696 0.
-370.043 -1022.34 0.
-0.0414598 -1.20312 0.
-331.342 -887.555 0.
-29.4584 -75.2937 0.
-0.0532669 -0.0799029 0.
-378.268 -1042.92 0.
-44.8713 -123.717 0.
-0.64761 -1.71701 0.
-308.199 -817.195 0.
-134.609 -338.116 0.
-28.1807 -31.7059 0.
-261.451 -609.744 0.
-230.61 -507.177 0.
-32.7005 -80.1873 0.
-153.921 -420.461 0.
-235.992 -653.495 0.
-0.00681592 -0.0216232 0.
-102.735 -266.128 0.
-354.466 -965.185 0.
-6.03103 -15.5108 0.
-14.3673 -39.7439 0.
-398.74 -1099.72 0.
-3.04319 -8.35641 0.
-8.80721 -24.0516 0.
-317.036 -844.036 0.
-0.0109962 -1.02408 0.
-333.666 -924.156 0.
-0.0299549 -2.84931 0.
-3.37249e-05 -2.35869 0.
-41.4115 -112.76 0.
-0.012317 -4.10146 0.
1.15243 3.12376 0.
-99.9423 -269.051 0.
0.586716 1.59276 0.
-334.538 -912.641 0.
2.19924 5.62808 0.
-4.69656 -12.3318 0.
-1285.64 -3450.45 0.
2.1336 5.83165 0.
-1381.57 -3814.06 0.
3.55279 8.68502 0.
-3.31848 -8.19009 0.
-251.026 -624.877 0.
-4.9575 -12.3286 0.
-544.179 -1376.75 0.
-177.939 -432.144 0.
-121.091 -292.266 0.
-496.958 -1189.93 0.
-154.093 -348.839 0.
-9.82805 -22.0101 0.
-6.90045 -15.2441 0.
-5.7137 -12.4543 0.
16.664 34.7427 0.
-152.725 -332.573 0.
-13.659 -29.0561 0.
-755.614 -1568.28 0.
3.74327 7.62521 0.
11.5457 23.7757 0.
5.69406 11.2144 0.
9.33631 17.5673 0.
-6.66206 -13.7941 0.
-4.50977 -25.0078 0.
-1.10001 -2.61649 0.
3.83567 8.6143 0.
-21.0792 -48.4447 0.
9.68778 18.794 0.
-299.799 -602.46 0.
-5.1811 -9.64303 0.
-186.585 -362.273 0.
-403.649 -817.924 0.
10.6579 20.2109 0.
-3.74697 -7.26868 0.
12.9722 27.2579 0.
-20.2122 -42.9759 0.
14.1678 30.9987 0.
-132.019 -294.62 0.
-582.111 -1325.99 0.
-513.57 -1188.55 0.
-155.248 -362.123 0.
7.97988 18.7659 0.
11.2935 26.5589 0.
-2.15252 -28.4391 0.
-387.98 -979.297 0.
-48.3395 -122.076 0.
-476.928 -1155.96 0.
-0.649631 -1.57674 0.
-3.99571 -9.73786 0.
-251.013 -692.336 0.
-0.0956665 -14.49 0.
-58.5059 -148.127 0.
-0.54424 -12.3119 0.
-0.485071 -10.1932 0.
-72.7381 -181.549 0.
-0.309004 -5.96386 0.
-13.7308 -37.4222 0.
1.33435 3.58756 0.
1.16289 3.05198 0.
-0.000693211 -0.121641 0.
0.705923 1.95506 0.
0.762502 2.09084 0.
0.00329466 0.373677 0.
-0.0447833 -1.00174 0.
-14.3227 -30.9074 0.
-0.285375 -0.400654 0.
-0.248273 -0.420446 0.
-35.9213 -99.4268 0.
-0.228252 -0.60335 0.
-1.33571 -3.69784 0.
-147.08 -351.483 0.
-36.8495 -30.3261 0.
-10.6109 -5.60385 0.
-152.234 -410.203 0.
-129.459 -345.307 0.
-53.699 -103.76 0.
-82.8927 -201.369 0.
-126.505 -336.758 0.
-5.15069 -2.45311 0.
-14.0486 -13.9299 0.
-139.455 -355.814 0.
-0.913348 -2.28927 0.
-2.39597 -6.50181 0.
-10.4382 -28.8646 0.
0.0689003 0.189154 0.
-0.0124272 -0.0343094 0.
0.145987 0.387249 0.
-0.0349158 -1.39967 0.
0.408137 1.11951 0.
1.58637 4.16499 0.
-0.00721108 -2.21916 0.
0.155859 0.431296 0.
0.870337 2.39894 0.
1.73392 4.72379 0.
0.845835 2.26466 0.
-0.289005 -10.1658 0.
-15.8184 -41.9584 0.
2.74802 7.0405 0.
-2.78448 -7.30941 0.
2.81532 7.54034 0.
3.62768 9.83117 0.
-595.023 -1634.58 0.
-3.44708 -8.29433 0.
0.784739 1.90843 0.
-689.236 -1694.87 0.
-4.54146 -10.9472 0.
-73.6644 -178.611 0.
5.26588 12.2237 0.
3.19937 7.39508 0.
-353.109 -845.222 0.
-270.039 -604.15 0.
-492.765 -1088.27 0.
-393.79 -865.777 0.
-7.42814 -16.1227 0.
-5.48302 -38.3089 0.
20.154 41.2057 0.
-6.65331 -39.507 0.
-2.6858 -5.17571 0.
-33.7637 -68.3152 0.
-438.29 -910.767 0.
-5.72298 -32.7083 0.
-7.3246 -35.394 0.
-12.1096 -25.4595 0.
-3.03543 -17.7153 0.
3.37331 8.16843 0.
-34.3335 -76.7723 0.
-66.7853 -152.956 0.
7.36983 14.2356 0.
-77.5461 -155.773 0.
-6.60009 -24.2254 0.
18.9769 34.429 0.
-7.90375 -15.0118 0.
-1.188 -2.23741 0.
-465.834 -899.698 0.
-213.848 -445.266 0.
-528.106 -1109.88 0.
-131.981 -288.708 0.
-190.888 -425.936 0.
-3.51717 -7.60653 0.
-7.71088 -16.8852 0.
3.26968 7.22226 0.
-242.966 -567.242 0.
2.40335 5.6039 0.
-153.043 -357.098 0.
-779.617 -1946.4 0.
-63.6841 -158.716 0.
-351.433 -838.469 0.
-51.811 -124.32 0.
-1.99936 -4.81903 0.
-427.475 -1182.95 0.
-68.9493 -188.166 0.
-648.711 -1767.82 0.
2.75198 7.53402 0.
3.23329 8.75912 0.
-1458.47 -3941.09 0.
2.03449 5.22064 0.
-1339.54 -3532.15 0.
-0.70833 -1.96163 0.
-7.65628 -21.1728 0.
-1492.98 -4113.66 0.
1.36009 3.75747 0.
1.4086 3.77253 0.
-1477.6 -4091.78 0.
0.796834 2.12938 0.
-948.499 -2355.75 0.
-330.171 -842.299 0.
-50.2244 -128.814 0.
-941.969 -2542.4 0.
-312.113 -861.699 0.
0.0914498 0.252968 0.
-685.891 -1854.06 0.
-367.963 -975.311 0.
-86.1324 -168.647 0.
-467.053 -1286.86 0.
-408.391 -1129.69 0.
-121.724 -321.051 0.
-360.341 -989.246 0.
-573.261 -1583.07 0.
-11.1169 -28.2674 0.
-364.487 -1009.54 0.
-815.344 -2236 0.
0.00139324 0.515155 0.
-297.8 -815.482 0.
-1086.86 -2932.64 0.
-65.1346 -155.174 0.
-364.325 -934.953 0.
-1069.25 -2707.45 0.
0.275603 0.76329 0.
-1538.52 -4261.32 0.
0.163189 0.450532 0.
-0.00017864 -3.4226 0.
-1623.09 -4492.07 0.
0.87148 2.37182 0.
-143.509 -381.104 0.
-1367.74 -3642.22 0.
-0.423142 -1.13008 0.
-1531.95 -4156.94 0.
1.84543 4.91579 0.
-0.202019 -13.5364 0.
-629.141 -1690.65 0.
6.93901 18.6285 0.
-2.55153 -6.95173 0.
1.61989 3.83523 0.
-36.5843 -87.6363 0.
-553.148 -1340.68 0.
10.7455 25.5016 0.
-735.062 -1753.16 0.
-184.126 -426.124 0.
-17.1057 -39.4255 0.
-79.6053 -182.783 0.
-0.228698 -0.486776 0.
-7.01399 -14.8216 0.
-70.4697 -154.345 0.
-191.065 -412.715 0.
-227.092 -473.132 0.
-584.09 -1191.21 0.
-7.76067 -15.5515 0.
-6.16593 -11.7736 0.
-7.6865 -35.1972 0.
-3.65055 -7.01673 0.
4.97807 9.15024 0.
18.8089 35.8274 0.
-192.011 -410.821 0.
3.6841 7.4645 0.
-8.16441 -20.1393 0.
7.80968 16.6319 0.
11.0831 19.6159 0.
6.23612 11.3 0.
-44.9954 -83.4657 0.
4.56688 7.89684 0.
-250.238 -453.511 0.
-59.9934 -114.064 0.
-19.8846 -37.1854 0.
-466.294 -895.39 0.
-296.514 -610.938 0.
-10.1831 -20.2629 0.
5.96283 12.4407 0.
15.3785 32.5805 0.
-35.9763 -77.4247 0.
-129.922 -281.323 0.
-535.284 -1166.77 0.
-225.549 -521.801 0.
-159.528 -368.809 0.
-128.588 -297.184 0.
-2.39937 -5.9115 0.
7.62743 18.4364 0.
-159.972 -375.36 0.
-108.345 -254.253 0.
-211.641 -496.091 0.
-692.122 -1893.62 0.
6.70705 18.0667 0.
-316.986 -860.926 0.
4.42523 11.9735 0.
-0.393882 -1.05014 0.
-122.731 -314.894 0.
1.88658 4.58974 0.
-0.0246595 -4.60178 0.
-0.567946 -1.56842 0.
0.438282 1.21395 0.
1.22512 3.39161 0.
-0.020163 -3.07008 0.
1.67208 4.36604 0.
-64.5733 -163.913 0.
-0.0928559 -1.48927 0.
-134.038 -322.122 0.
0.354815 0.73035 0.
0.193369 0.44911 0.
-265.825 -732.322 0.
-0.0169142 -0.0463308 0.
0.163301 0.444964 0.
-310.181 -839.035 0.
-60.2358 -138.968 0.
-17.2567 -29.321 0.
-227.665 -623.948 0.
-168.637 -467.043 0.
-8.94382 -22.7511 0.
-83.3264 -218.431 0.
-249.419 -686.309 0.
-5.43434 -14.9949 0.
-0.701118 -1.70188 0.
-290.117 -802.224 0.
0.00242128 0.806917 0.
-0.00230524 -0.212837 0.
-234.586 -637.818 0.
0.413531 1.04659 0.
0.0359407 0.0869105 0.
-142.209 -344.66 0.
0.373973 1.01284 0.
-0.266557 -0.737837 0.
-0.0157057 -3.35334 0.
-0.00244619 -3.8528 0.
-7.43417 -20.5831 0.
-0.0142346 -3.77145 0.
0.0696007 0.186899 0.
-0.185242 -6.98912 0.
0.80917 2.10186 0.
-96.7769 -256.946 0.
-0.232586 -10.0008 0.
0.235595 0.621612 0.
-648.057 -1724.02 0.
-3.17596 -8.36461 0.
-736.547 -1970.13 0.
-1.35853 -3.2027 0.
-5.80369 -13.673 0.
-122.633 -288.55 0.
-2.63992 -28.6167 0.
-307.427 -722.934 0.
-443.544 -1021.66 0.
-383.218 -879.974 0.
-341.158 -780.893 0.
-412.13 -870.676 0.
-35.0904 -73.3271 0.
-39.794 -84.0987 0.
-6.26111 -13.0155 0.
1.65169 3.32007 0.
-143.547 -293.435 0.
-100.314 -200.98 0.
-540.456 -1025.71 0.
18.07 33.3045 0.
-135.397 -262.465 0.
6.76244 12.5087 0.
20.6077 36.3776 0.
-6.68092 -13.2151 0.
9.82189 19.2327 0.
-12.4816 -31.6562 0.
-16.2444 -34.9785 0.
6.88316 12.2194 0.
-5.36028 -9.74721 0.
-332.016 -618.979 0.
-10.5935 -18.2634 0.
-380.043 -687.82 0.
-18.1853 -32.9702 0.
-8.90787 -33.3365 0.
-9.51076 -17.0584 0.
0.706813 1.37338 0.
-500.29 -988.934 0.
-29.4548 -61.1191 0.
-274.875 -579.497 0.
-487.198 -1042.62 0.
-288.824 -617.721 0.
-286.147 -617.127 0.
12.3373 27.1664 0.
4.30936 9.55596 0.
-23.6307 -52.7778 0.
-388.543 -916.062 0.
-5.27304 -12.4849 0.
-465.418 -1087.29 0.
-61.937 -145.439 0.
-154.768 -363.077 0.
-548.337 -1481.04 0.
-0.381529 -21.0577 0.
-1.02349 -2.76692 0.
0.418659 1.11664 0.
-0.833622 -2.18287 0.
1.08679 2.68958 0.
-71.7638 -178.882 0.
-877.294 -2349.81 0.
-72.0816 -198.066 0.
-88.2962 -244.473 0.
-1263.99 -3485.61 0.
1.50287 4.10393 0.
-0.0111369 -2.91666 0.
-1213.25 -3355.36 0.
0.443524 1.19331 0.
-837.08 -2002.25 0.
-241.107 -605.154 0.
-123.713 -326.194 0.
-987.47 -2718.54 0.
-199.099 -551.334 0.
-0.00249103 -0.986304 0.
-782.498 -2118.36 0.
-330.1 -913.599 0.
-0.676649 -1.68339 0.
-540.195 -1479.47 0.
-475.497 -1313.32 0.
-65.4252 -173.555 0.
-368.741 -1019.38 0.
-687.507 -1893.93 0.
0.102243 0.301376 0.
-311.304 -857.022 0.
-895.041 -2418.6 0.
0.107748 0.288423 0.
-141.842 -389.085 0.
-1077.24 -2960.1 0.
-85.654 -213.033 0.
-270.636 -665.141 0.
-935.609 -2317.99 0.
1.05833 2.93126 0.
-1366.52 -3782.82 0.
1.20697 3.34271 0.
-25.7326 -71.2535 0.
-1147.54 -3167.47 0.
-0.000755437 -5.86733 0.
-153.211 -423.335 0.
-1009.57 -2768.94 0.
-0.256478 -6.12675 0.
1.27027 3.29387 0.
0.22077 0.569645 0.
0.640581 1.66464 0.
-24.0795 -62.9835 0.
3.02035 7.81031 0.
-739.324 -1947.77 0.
5.93239 14.0038 0.
-49.6689 -117.123 0.
-505.061 -1186.76 0.
-2.67364 -26.8564 0.
-111.021 -249.341 0.
6.68534 14.7407 0.
5.96785 13.0774 0.
-120.791 -275.507 0.
-442.846 -924.424 0.
-274.922 -568.977 0.
-527.141 -1114.26 0.
-53.9011 -111.671 0.
-9.34157 -18.5661 0.
-139.63 -270.136 0.
1.04105 1.96404 0.
18.8807 33.5398 0.
-25.2507 -46.0425 0.
-208.033 -406.994 0.
-237.945 -443.733 0.
-6.59403 -25.9271 0.
-104.689 -205.765 0.
10.0806 19.6041 0.
-0.545445 -1.04993 0.
-40.6035 -88.4437 0.
8.06791 14.3657 0.
13.0888 23.0665 0.
-6.72166 -12.0949 0.
17.9042 29.4449 0.
-95.7947 -162.727 0.
5.6601 9.57889 0.
11.49 19.9819 0.
-475.789 -851.866 0.
0.431138 0.833529 0.
-442.043 -871.217 0.
-132.605 -273.58 0.
-45.6614 -95.678 0.
-0.356826 -0.717553 0.
8.35109 16.8993 0.
-4.03615 -8.30379 0.
-8.67724 -19.1316 0.
-2.70052 -5.99639 0.
-237.257 -531.831 0.
-851.938 -1955.99 0.
-3.84601 -8.90266 0.
-117.467 -276.025 0.
-67.9531 -159.604 0.
-9.64422 -21.4878 0.
-133.834 -353.408 0.
-0.379743 -20.8462 0.
-674.645 -1850.44 0.
-127.717 -348.188 0.
-19.7641 -53.1707 0.
-1194.3 -3105.61 0.
1.36182 3.29223 0.
-121.183 -326.103 0.
1.21247 3.34481 0.
-0.0102994 -0.0284968 0.
-26.3347 -69.2825 0.
-0.0392717 -1.70272 0.
0.0106389 0.471762 0.
-1.80852e-07 -0.938282 0.
-0.00527781 -0.595995 0.
-38.4869 -88.9665 0.
0.37514 0.941375 0.
-0.0293542 -1.47478 0.
-232.15 -641.464 0.
-0.0291216 -0.0794779 0.
0.00226981 0.268333 0.
-174.341 -474.735 0.
0.0193593 0.47778 0.
9.44806e-07 0.33234 0.
-98.7034 -263.762 0.
-41.9526 -115.704 0.
-0.00768086 -0.0154733 0.
-4.51451 -9.81611 0.
-147.656 -408.466 0.
-0.024104 -0.451112 0.
0.211987 0.489184 0.
-133.418 -357.036 0.
0.439045 1.20682 0.
0.0463373 0.126635 0.
-258.618 -714.263 0.
0.362385 0.893976 0.
0.523226 1.15537 0.
0.0148831 0.425178 0.
-0.0316068 -4.31476 0.
-0.000366655 -4.01589 0.
1.93208 5.32276 0.
-16.1063 -44.3637 0.
-332.443 -915.787 0.
1.54627 4.2826 0.
0.721006 1.99572 0.
-1.19859 -12.506 0.
5.84047 14.1253 0.
-1500.28 -3807.79 0.
3.43352 8.89267 0.
-53.2907 -138.678 0.
-662.849 -1750.37 0.
6.72986 17.1164 0.
-83.5212 -216.247 0.
-2.93735 -6.94207 0.
-182.662 -430.596 0.
-383.871 -902.578 0.
-200.797 -444.207 0.
-883.476 -1944.84 0.
-48.4452 -105.35 0.
-8.80908 -19.0503 0.
1.26328 2.71741 0.
-11.3599 -22.2205 0.
-9.98992 -19.1966 0.
-103.834 -218.039 0.
-230.43 -476.123 0.
-220.787 -448.408 0.
-464.648 -888.795 0.
-3.44204 -6.40659 0.
-225.733 -402.999 0.
19.045 33.2451 0.
1.92626 3.58494 0.
-3.31919 -5.9887 0.
17.3728 30.414 0.
5.11529 9.77894 0.
-0.0891668 -0.172165 0.
10.4623 19.9912 0.
-4.85883 -10.1637 0.
5.05361 8.68746 0.
6.86236 12.0497 0.
-1.29222 -2.31778 0.
7.98798 13.021 0.
-509.408 -859.518 0.
8.82956 14.8771 0.
-133.075 -230.601 0.
-357.767 -638.014 0.
-7.80185 -32.1174 0.
1.56406 2.87141 0.
14.9543 28.7928 0.
10.3749 20.3207 0.
-105.004 -209.2 0.
-205.836 -415.266 0.
-594.551 -1217.67 0.
-264.944 -585.253 0.
-417.644 -930.942 0.
-147.869 -331.677 0.
5.68242 12.4116 0.
-5.07393 -11.0571 0.
-41.2797 -92.2046 0.
-46.1593 -102.942 0.
-38.6561 -86.0807 0.
-369.227 -966.061 0.
-0.448211 -19.4274 0.
-192.135 -524.423 0.
1.58641 4.28295 0.
0.307098 0.816523 0.
-2.39799 -6.01648 0.
1.1317 2.66443 0.
0.792069 2.15649 0.
0.320181 0.884814 0.
-0.00474714 -8.20658 0.
-99.4186 -249.789 0.
-0.153257 -2.96226 0.
-0.0710499 -1.23061 0.
0.826384 2.28892 0.
1.01162 2.75752 0.
0.71745 1.76775 0.
0.610295 1.57663 0.
0.133217 0.357929 0.
-2.36084 -6.17272 0.
0.216156 0.552779 0.
-0.0418482 -0.804362 0.
-0.00312561 -0.0571934 0.
-0.00726512 -0.608469 0.
0.00207785 0.437911 0.
0.108903 0.157184 0.
0.127692 0.203473 0.
0.0726587 0.171757 0.
-0.0178818 -0.328481 0.
-3.66304 -9.43071 0.
3.4008e-05 1.00704 0.
0.00797854 0.558586 0.
-0.0188778 -0.538049 0.
0.232136 0.642969 0.
-0.000467417 -0.976511 0.
0.292373 0.806499 0.
-0.0446835 -0.845541 0.
-0.227327 -2.26759 0.
0.0344949 0.608127 0.
1.70058 4.48235 0.
0.550843 1.50713 0.
0.180434 0.490549 0.
-7.7714 -21.1522 0.
-125.706 -343.139 0.
-0.00322218 -6.86689 0.
0.882162 2.44343 0.
3.9837 8.78672 0.
0.136121 0.320499 0.
-0.290143 -0.719438 0.
5.60492 14.4574 0.
0.840442 2.17568 0.
-482.899 -1268.54 0.
-3.60006 -8.97858 0.
-470.287 -1197.53 0.
-26.3205 -61.513 0.
-37.994 -88.9328 0.
-52.2115 -122.39 0.
6.01339 12.9842 0.
-231.272 -504.36 0.
-288.576 -618.092 0.
-400.007 -851.493 0.
-295.128 -625.215 0.
-572.547 -1117.5 0.
-11.9735 -22.942 0.
3.55735 6.94285 0.
-1.48392 -2.85236 0.
-8.56041 -16.2095 0.
-4.38445 -7.7579 0.
-11.9931 -22.0022 0.
-286.569 -514.134 0.
-7.35804 -12.9118 0.
-7.69853 -27.3617 0.
-257.227 -457.542 0.
15.231 26.2831 0.
-23.5749 -45.43 0.
-2.27325 -4.2529 0.
2.35737 4.27957 0.
-33.6251 -69.9644 0.
-5.85289 -20.7061 0.
11.4542 20.0397 0.
-169.167 -302.257 0.
-89.1333 -143.972 0.
-27.5217 -46.021 0.
17.0916 27.1198 0.
1.62801 2.63885 0.
6.71311 11.1251 0.
1.61277 2.87048 0.
-474.747 -861.892 0.
-79.0781 -150.727 0.
-194.505 -376.916 0.
-516.561 -1016.62 0.
-42.3644 -85.3805 0.
2.23671 4.33601 0.
-3.46968 -25.1781 0.
-4.23174 -9.01139 0.
-3.31955 -7.15671 0.
-241.868 -522.464 0.
4.83452 10.4285 0.
-633.792 -1414.46 0.
-334.074 -744.103 0.
-61.5981 -137.081 0.
-448.612 -1162.08 0.
-0.596277 -20.7815 0.
-166.733 -451.317 0.
-69.3156 -185.262 0.
6.49566 17.3127 0.
-556.256 -1430.42 0.
-46.5001 -118.268 0.
2.34119 5.82317 0.
-1081.34 -2884.63 0.
-0.0413331 -9.16706 0.
-809.994 -2239.87 0.
0.917262 2.51866 0.
-6.04158 -16.4142 0.
-1058.67 -2930.62 0.
-12.8538 -35.5849 0.
0.544633 1.49675 0.
-1303.44 -3370.33 0.
-0.00221522 -1.45918 0.
-888.269 -2455.31 0.
-84.3148 -229.999 0.
0.100312 0.276866 0.
-838.628 -2269.33 0.
-254.787 -700.076 0.
-0.0086026 -1.36046 0.
-591.387 -1602.22 0.
-511.553 -1416.58 0.
-5.51454 -14.862 0.
-333.323 -919.502 0.
-766.787 -2108.08 0.
-0.00866785 -1.00335 0.
-192.989 -522.357 0.
-959.031 -2592.26 0.
-0.0972922 -0.2599 0.
-106.254 -287.517 0.
-912.786 -2508.76 0.
0.479618 1.28202 0.
-1332.9 -3504.65 0.
-0.0578501 -5.14689 0.
-0.076748 -0.210323 0.
-966.637 -2660.58 0.
-0.746642 -2.06042 0.
-1.35603 -3.75199 0.
-549.562 -1520.2 0.
3.31547 9.17677 0.
-1209.24 -3314.64 0.
-9.43326 -23.8326 0.
-4.58545 -11.5707 0.
-320.891 -805.069 0.
-3.13275 -8.04767 0.
2.04231 5.2658 0.
-120.518 -313.086 0.
6.41807 15.6843 0.
-685.822 -1713.8 0.
-85.5423 -198.68 0.
-218.914 -509.25 0.
-477.478 -1110.57 0.
-14.704 -31.5626 0.
-77.2432 -163.414 0.
6.31256 12.8862 0.
11.1418 22.5001 0.
-6.91664 -13.8251 0.
-238.678 -464.34 0.
-117.244 -223.944 0.
-649.468 -1264.24 0.
3.89291 7.44031 0.
13.1053 24.6706 0.
-177.711 -313.177 0.
8.17025 13.9968 0.
-7.39167 -24.8265 0.
-1.68959 -2.78566 0.
1.37023 2.36242 0.
-226.271 -396.556 0.
-43.2674 -73.5139 0.
-101.503 -197.347 0.
-12.3095 -23.2124 0.
-1.60674 -2.93797 0.
3.95511 7.60279 0.
-4.25382 -12.6075 0.
12.8547 21.3939 0.
-117.261 -202.51 0.
2.83688 4.39951 0.
-105.266 -167.477 0.
-3.4537 -5.42614 0.
5.73713 9.21186 0.
-618.321 -1010.51 0.
-6.53112 -11.4816 0.
-248.752 -446.393 0.
-53.9709 -101.841 0.
7.76028 14.0785 0.
3.77161 6.91016 0.
4.4219 8.28122 0.
-340.753 -652.237 0.
9.87255 20.5292 0.
-184.988 -389.602 0.
-408.773 -872.205 0.
-493.232 -1055.59 0.
-128.522 -274.439 0.
-91.5995 -204.317 0.
-5.98361 -13.0655 0.
-2.58857 -5.69577 0.
0.148217 0.371367 0.
-5.11518 -12.7661 0.
-399.806 -1052.09 0.
-43.9141 -116.135 0.
-33.5058 -88.9407 0.
-226.883 -578.232 0.
-1.79468 -4.49089 0.
0.120044 0.293103 0.
-291.22 -804.754 0.
3.58591 9.92456 0.
0.548172 1.5175 0.
1.50235 4.15665 0.
1.69113 4.65222 0.
-11.4318 -31.6596 0.
0.623226 1.71824 0.
-0.0347684 -4.70168 0.
0.70588 1.95503 0.
-0.000129156 -0.0241024 0.
0.138113 0.372903 0.
0.00106304 0.00291489 0.
-0.187093 -0.51727 0.
-0.0148975 -0.866615 0.
-0.00437836 -0.801952 0.
-2.62521e-06 -1.52847 0.
-0.0223519 -0.389826 0.
-3.27014 -8.81127 0.
-0.160147 -0.438567 0.
-0.000279066 -0.809349 0.
-6.81296 -18.56 0.
0.711995 1.96272 0.
0.383005 1.03022 0.
0.319981 0.830591 0.
-0.0189021 -1.48 0.
0.155968 0.418527 0.
-12.8157 -34.3747 0.
0.31417 0.869917 0.
-0.309335 -0.850015 0.
0.245591 0.659828 0.
-0.552484 -1.50913 0.
-0.0101133 -6.18991 0.
-1.50787 -4.15439 0.
0.825342 2.28145 0.
-3.04437 -8.42955 0.
1.21392 3.34005 0.
-180.893 -500.911 0.
-6.30487 -15.919 0.
-4.65857 -11.7471 0.
-406.1 -1015.47 0.
-5.66446 -14.7027 0.
-83.1665 -217.612 0.
-466.251 -1142.79 0.
1.029 2.48484 0.
-12.8412 -31.0439 0.
7.56298 16.9498 0.
-96.0569 -222.052 0.
-282.133 -653.312 0.
-419.665 -896.555 0.
-574.177 -1207.67 0.
-378.009 -761.515 0.
9.73683 19.3873 0.
4.75064 9.36508 0.
-134.03 -245.603 0.
-8.27546 -14.844 0.
-5.8819 -10.6412 0.
-8.78508 -16.693 0.
-18.4149 -34.4613 0.
-428.578 -751.085 0.
12.9004 21.9828 0.
-406.059 -672.629 0.
10.5549 17.1754 0.
-2.1725 -3.46903 0.
-25.0664 -40.8447 0.
-8.50069 -13.5227 0.
9.43916 17.5223 0.
-3.22252 -12.9463 0.
6.23486 10.7079 0.
2.29642 4.41484 0.
10.3394 16.6635 0.
-32.1987 -53.8577 0.
-158.264 -275.136 0.
-120.638 -187.941 0.
-282.094 -450.846 0.
-9.81013 -15.2522 0.
-143.728 -228.196 0.
1.03933 1.58347 0.
13.0336 21.4029 0.
14.6345 24.7232 0.
-5.20647 -9.30547 0.
-13.8877 -25.0638 0.
-428.647 -780.437 0.
-2.96317 -5.47352 0.
-487.291 -920.048 0.
-126.954 -260.883 0.
-125.402 -260.721 0.
7.16235 14.4576 0.
10.1275 20.6141 0.
8.5459 17.4425 0.
-47.9682 -104.021 0.
-2.62354 -22.7798 0.
-12.417 -27.358 0.
-693.647 -1713.73 0.
3.29618 8.09319 0.
-343.723 -900.928 0.
-103.518 -272.576 0.
-111.447 -294.573 0.
-220.099 -553.274 0.
-2.90102 -7.13888 0.
-1.81677 -4.35777 0.
-0.145894 -0.402845 0.
-0.0269475 -3.17865 0.
-712.719 -1924.28 0.
-184.779 -503 0.
-35.2991 -97.5088 0.
-800.2 -2216.4 0.
1.26384 3.48075 0.
1.40667 3.75826 0.
-952.43 -2626.77 0.
0.955854 2.63202 0.
-873.09 -2244.17 0.
-78.7736 -213.027 0.
-0.782645 -2.16772 0.
-767.404 -2072.75 0.
-140.436 -387.854 0.
0.000229487 0.375505 0.
-515.514 -1417.08 0.
-461.935 -1276.77 0.
-0.0081697 -1.16539 0.
-259.008 -717.39 0.
-737.257 -2029.95 0.
-0.00295791 -2.23349 0.
-84.4331 -231.383 0.
-844.413 -2295.91 0.
-2.85507 -7.61601 0.
-84.9691 -217.353 0.
-852.839 -2186.94 0.
-0.00518981 -2.16397 0.
-954.502 -2639.08 0.
-0.19589 -6.53075 0.
0.387322 1.02909 0.
-851.47 -2336.94 0.
-130.197 -357.183 0.
-208.419 -574.203 0.
0.193379 0.535129 0.
-0.120753 -9.6533 0.
-2.85649 -7.83233 0.
-10.5132 -26.5237 0.
-10.6477 -26.8279 0.
-308.624 -771.655 0.
-94.5541 -244.409 0.
-314.011 -817.994 0.
-155.095 -364.031 0.
-3.21248 -7.60784 0.
-526.277 -1240.61 0.
-4.25585 -9.48857 0.
-4.17322 -9.22719 0.
-6.69386 -14.6788 0.
3.90754 7.92961 0.
-1.37173 -2.73897 0.
-222.298 -441.221 0.
-333.092 -653.478 0.
-161.425 -313.366 0.
-572.575 -1040.14 0.
0.962099 1.71073 0.
-84.9222 -152.78 0.
7.92955 13.9714 0.
2.9591 5.10934 0.
-6.94076 -11.2672 0.
3.45692 5.48085 0.
-191.833 -313.639 0.
-129.031 -206.88 0.
3.68265 5.79813 0.
-195.202 -317.382 0.
-10.3875 -16.4966 0.
-116.927 -221.177 0.
-2.61811 -4.76255 0.
10.6684 18.6365 0.
0.127394 0.244878 0.
8.91935 14.4228 0.
-72.4363 -121.794 0.
9.70587 14.7807 0.
0.496233 0.742014 0.
-9.25042 -13.8041 0.
19.7686 28.5051 0.
19.2221 28.3576 0.
-121.359 -183.28 0.
1.29076 2.11055 0.
-450.143 -759.182 0.
-5.85638 -10.4115 0.
-191.024 -342.823 0.
-258.674 -468.961 0.
2.83453 4.93732 0.
-7.92914 -14.1574 0.
-4.68177 -25.2765 0.
-4.43216 -25.2995 0.
-3.53039 -7.10731 0.
-170.006 -342.286 0.
-169.599 -342.41 0.
-468.869 -1016.85 0.
-305.367 -667.645 0.
-121.003 -266.835 0.
-120.44 -292.037 0.
-1.17245 -2.82958 0.
-105.789 -259.284 0.
-65.4888 -172.079 0.
0.240143 0.625468 0.
-480.48 -1186.35 0.
-30.9715 -76.4114 0.
-41.1709 -101.482 0.
-922.362 -2533.36 0.
-0.0434478 -7.7382 0.
-26.5546 -71.9598 0.
2.31263 6.36314 0.
-0.0680169 -0.18839 0.
2.28863 6.33044 0.
-0.0464776 -6.69553 0.
1.45298 3.81399 0.
0.991813 2.71597 0.
-0.0109965 -1.20202 0.
0.42351 1.09913 0.
0.0774319 0.211334 0.
-0.000738074 -1.07235 0.
-0.00130488 -1.54995 0.
-4.40589e-05 -1.41507 0.
0.000147063 0.0796252 0.
-0.0139921 -0.740685 0.
0.50451 1.39631 0.
-0.000740193 -0.767437 0.
0.459796 1.26082 0.
0.277814 0.753918 0.
0.784377 2.17258 0.
0.407905 1.12606 0.
0.0350702 0.0959885 0.
0.583506 1.5372 0.
-0.0736558 -0.185345 0.
0.327152 0.773823 0.
-0.0399463 -2.67136 0.
-0.0470912 -4.124 0.
-0.0710611 -2.52966 0.
-0.0772599 -4.51923 0.
0.858433 2.32932 0.
-38.6252 -105.189 0.
-82.8477 -229.145 0.
-606.607 -1679.43 0.
-0.225907 -13.8051 0.
-1030.84 -2789.08 0.
-22.5939 -55.4126 0.
-18.8533 -46.7518 0.
-165.316 -412.633 0.
0.785719 2.02559 0.
-204.92 -533.858 0.
-0.066482 -0.153668 0.
-1.89373 -4.39386 0.
-234.157 -542.729 0.
-303.225 -672.785 0.
-324.673 -714.657 0.
-429.997 -939.319 0.
-182.362 -372 0.
12.2428 24.5727 0.
4.62661 8.67138 0.
-7.12059 -13.0754 0.
-5.18889 -9.33979 0.
15.2484 25.6422 0.
-132.572 -233.468 0.
-306.01 -546.516 0.
-106.21 -185.991 0.
9.49672 16.2876 0.
-470.45 -761.808 0.
-8.08655 -12.7767 0.
-8.56473 -21.8437 0.
12.8949 19.217 0.
-9.45517 -22.2048 0.
-7.35073 -19.3827 0.
6.43326 10.1974 0.
-46.6188 -89.8922 0.
-2.72495 -5.0513 0.
0.0506431 0.0900855 0.
-52.2842 -103.427 0.
11.9887 19.2263 0.
-18.2956 -30.1471 0.
-11.1667 -16.3666 0.
12.7449 18.6478 0.
-119.437 -174.043 0.
7.97697 11.3874 0.
-83.6983 -122.275 0.
-428.703 -642.441 0.
-257.131 -418.866 0.
-39.599 -66.4143 0.
11.2355 18.2451 0.
-5.80168 -9.62618 0.
-4.24226 -7.20313 0.
2.79621 4.84204 0.
-554.94 -985.59 0.
12.6568 24.6436 0.
-134.02 -264.733 0.
-509.21 -1015.55 0.
-227.497 -453.19 0.
-40.5365 -81.0258 0.
-1.81715 -3.91703 0.
10.4395 22.5782 0.
-2.53213 -21.177 0.
-70.6258 -170.11 0.
-21.3877 -51.9013 0.
-283.534 -692.235 0.
-127.55 -331.044 0.
-33.0897 -85.0851 0.
-248.771 -615.726 0.
-13.7404 -33.9893 0.
-31.3959 -77.5891 0.
-0.113978 -12.8526 0.
-0.195989 -13.6532 0.
2.29213 6.28596 0.
1.44337 3.99255 0.
0.158371 0.438134 0.
-0.00931393 -3.04975 0.
-0.0216118 -1.75389 0.
1.6382 4.23383 0.
1.38231 3.7232 0.
1.2226 3.23778 0.
0.579561 1.5495 0.
-0.002685 -1.43037 0.
-0.00257216 -1.26397 0.
-5.00399e-05 -0.543848 0.
-0.00124653 -2.28359 0.
0.724367 1.98965 0.
0.00521908 0.348411 0.
0.630168 1.74281 0.
0.565915 1.56672 0.
-0.000260058 -0.595497 0.
-0.00240694 -0.925685 0.
-3.40872e-05 -0.0312115 0.
-4.31126e-05 -1.87433 0.
-0.00269513 -1.84762 0.
0.497212 1.29494 0.
-0.077382 -1.64124 0.
-0.149561 -1.97921 0.
-0.028764 -0.777103 0.
-0.0749108 -2.65419 0.
2.72571 7.10385 0.
1.22504 3.26612 0.
2.73898 7.43296 0.
3.06802 8.31145 0.
-14.1148 -38.9526 0.
-59.2931 -164.186 0.
2.65214 6.88334 0.
-118.617 -313.766 0.
4.59087 11.0715 0.
1.07769 2.63109 0.
-296.134 -729.759 0.
4.80659 12.3408 0.
-263.137 -682.469 0.
-105.504 -244.046 0.
6.67624 15.2518 0.
-1.88519 -4.23965 0.
-2.52641 -18.5964 0.
0.971129 2.02963 0.
-93.5479 -194.929 0.
-299.433 -613.533 0.
-189.569 -382.237 0.
-740.053 -1378.13 0.
-97.4331 -177.821 0.
14.4426 25.8294 0.
-369.741 -616.319 0.
0.949559 1.54206 0.
-6.4607 -20.5933 0.
-7.13339 -21.9755 0.
-6.26951 -10.6789 0.
-247.486 -399.376 0.
-54.8861 -86.4061 0.
-401.297 -598.479 0.
-91.4559 -134.308 0.
0.093181 0.134681 0.
-115.811 -175.276 0.
10.1573 15.3605 0.
-8.2528 -12.4533 0.
2.95899 5.41324 0.
7.47087 13.2272 0.
6.20831 12.8545 0.
-59.2026 -94.7857 0.
-171.409 -281.889 0.
-70.394 -100.907 0.
-181.172 -258.669 0.
-129.286 -184.034 0.
19.376 27.3745 0.
3.59463 5.03838 0.
-73.1586 -104.987 0.
-6.03551 -9.19127 0.
-185.25 -283.6 0.
-7.65842 -12.1676 0.
-13.7875 -22.3812 0.
-439.416 -727.243 0.
14.1321 24.3216 0.
-297.487 -525.56 0.
-98.3571 -190.772 0.
10.2251 18.9525 0.
-4.50309 -20.8329 0.
2.75549 5.23625 0.
-97.4832 -191.17 0.
-35.9464 -76.6715 0.
-3.66981 -7.85003 0.
-161.246 -346.342 0.
-527.554 -1267.64 0.
-43.0465 -104.083 0.
-41.7262 -101.634 0.
-250.167 -640.345 0.
-86.441 -219.182 0.
3.01094 7.4742 0.
-1.89555 -4.70182 0.
-32.8717 -82.3853 0.
-295.053 -789.508 0.
-0.247075 -13.1563 0.
-623.344 -1706.18 0.
-91.371 -251.511 0.
-1.25097 -3.45732 0.
-688.994 -1905.82 0.
0.484778 1.34275 0.
2.92669 8.09251 0.
-774.315 -2144.35 0.
-0.00844219 -5.48842 0.
-772.606 -1915.57 0.
-16.3344 -43.2419 0.
0.437131 1.1971 0.
-663.709 -1770.09 0.
-112.242 -310.172 0.
-0.00325893 -1.10831 0.
-426.187 -1168.25 0.
-391.77 -1085.08 0.
0.709307 1.96176 0.
-213.563 -589.222 0.
-605.887 -1650.5 0.
-0.239611 -0.656218 0.
-39.2091 -106.378 0.
-776.763 -2111.67 0.
-14.8709 -36.9978 0.
-0.174549 -2.85966 0.
-751.622 -1840.06 0.
1.81164 4.92119 0.
-764.917 -2118.59 0.
-0.000293585 -6.79434 0.
0.632078 1.74881 0.
-729.435 -2020.34 0.
-29.3872 -81.3884 0.
-18.873 -52.2537 0.
-457.971 -1267.97 0.
5.50028 14.1923 0.
-374.523 -978.095 0.
-72.7519 -173.132 0.
2.23471 5.3676 0.
-10.2076 -24.8174 0.
-37.9712 -97.1246 0.
-371.671 -959.072 0.
-126.233 -293.14 0.
-120.136 -274.783 0.
-224.591 -504.533 0.
-89.8454 -186.108 0.
-5.63084 -11.5607 0.
-30.3572 -59.9987 0.
4.21261 8.19378 0.
4.0476 7.74611 0.
0.749249 1.30835 0.
-44.4072 -80.528 0.
-97.1857 -172.65 0.
-413.548 -680.17 0.
2.31529 3.71239 0.
-409.699 -667.659 0.
16.0875 25.8004 0.
14.5684 23.091 0.
-4.87589 -7.34421 0.
-8.59319 -20.5661 0.
-3.59861 -5.03616 0.
-4.34774 -6.29341 0.
10.0159 14.2639 0.
-177.452 -264.562 0.
-139.361 -207.599 0.
-106.803 -158.869 0.
-27.3659 -49.8825 0.
3.72283 6.55828 0.
-1.22882 -8.33375 0.
-5.25312 -13.2777 0.
-5.6308 -14.6136 0.
14.7511 19.6123 0.
14.8791 19.966 0.
-61.5241 -83.3472 0.
-10.3473 -14.0573 0.
-186.834 -259.89 0.
-21.781 -31.0006 0.
-22.8546 -34.3057 0.
-233.118 -351.573 0.
-75.4927 -117.121 0.
-131.026 -207.541 0.
-4.23279 -6.50178 0.
-2.30034 -3.72218 0.
-2.53794 -4.21296 0.
14.1207 25.4704 0.
-4.74194 -8.6081 0.
-331.832 -608.229 0.
-183.369 -352.244 0.
-542.632 -1075.37 0.
-338.788 -716.589 0.
-83.9202 -177.574 0.
-29.5196 -62.63 0.
-26.5791 -63.5463 0.
-2.12471 -5.04345 0.
6.61481 15.8182 0.
-93.8213 -238.6 0.
-92.7732 -236.736 0.
-190.439 -483.415 0.
-36.2122 -91.3841 0.
-30.2695 -75.9065 0.
-134.327 -353.335 0.
3.29385 8.54025 0.
-31.0107 -85.3445 0.
-0.0116173 -10.6665 0.
-0.479111 -1.32629 0.
-0.772255 -2.13894 0.
-0.00316185 -7.07589 0.
1.53872 4.23853 0.
-0.00286934 -3.55872 0.
-0.0217691 -2.55831 0.
-0.0576614 -2.24379 0.
0.0476124 0.128397 0.
1.00536 2.77033 0.
0.424111 1.16956 0.
-0.000138431 -0.852601 0.
-0.006169 -1.1327 0.
0.809943 2.2222 0.
1.10458 3.05913 0.
0.623493 1.70302 0.
0.0341019 0.0944275 0.
-0.256712 -0.708055 0.
-0.213195 -0.584803 0.
0.0644644 0.17549 0.
1.0367 2.79555 0.
1.24854 3.14536 0.
1.3383 3.28396 0.
-0.302466 -0.721892 0.
-0.133753 -6.16994 0.
1.74858 4.79689 0.
1.67574 4.63473 0.
1.49265 4.13373 0.
-76.5549 -212.031 0.
-16.9506 -46.9462 0.
-8.95383 -24.7919 0.
-149.095 -412.668 0.
2.04164 5.14832 0.
-192.244 -491.347 0.
-53.6867 -129.569 0.
-53.7203 -130.217 0.
-136.572 -333.233 0.
3.19807 8.11123 0.
4.07014 10.3189 0.
2.70336 6.11301 0.
-2.10655 -4.84794 0.
-143.213 -323.634 0.
-212.812 -431.626 0.
-183.905 -369.894 0.
-392.752 -771.896 0.
-569.061 -1100.65 0.
-4.41906 -8.42437 0.
-203.878 -353.056 0.
-4.95654 -8.40052 0.
13.6725 22.7091 0.
12.0563 18.6147 0.
1.70766 2.59011 0.
-186.837 -298.613 0.
-305.757 -483.121 0.
-47.7956 -74.5399 0.
-283.039 -420.134 0.
-7.93717 -11.5368 0.
-92.9242 -128.671 0.
-166.667 -227.096 0.
-2.91807 -3.90984 0.
0.105842 0.14644 0.
-7.44085 -10.291 0.
-9.65923 -19.6662 0.
-3.42958 -11.4101 0.
7.65522 12.6164 0.
-6.13807 -14.3631 0.
-7.45746 -11.0342 0.
-33.6145 -50.2562 0.
-29.7083 -39.1527 0.
-84.6377 -112.605 0.
-211.108 -283.648 0.
-81.2005 -109.311 0.
-407.719 -562.135 0.
-45.3393 -66.7324 0.
5.52952 7.74312 0.
4.05962 5.72759 0.
4.80711 6.97706 0.
2.14252 3.16955 0.
-30.207 -45.5906 0.
2.71805 4.37301 0.
-528.592 -872.596 0.
-4.85233 -8.56814 0.
8.15113 14.4771 0.
-241.986 -434.292 0.
-25.9971 -50.3937 0.
1.06427 2.0787 0.
10.2614 20.8768 0.
-2.20727 -4.50764 0.
-3.37192 -6.91317 0.
-52.1189 -122.898 0.
-63.4672 -150.789 0.
-49.7431 -119.05 0.
-211.721 -537.188 0.
-171.857 -437.587 0.
-231.384 -587.396 0.
-64.951 -163.967 0.
-76.652 -192.312 0.
-167.421 -431.316 0.
1.91127 4.83801 0.
0.600758 1.65867 0.
4.00237 11.076 0.
-0.417201 -1.15557 0.
1.57242 4.35261 0.
-223.082 -615.466 0.
-0.607485 -1.66976 0.
-469.254 -1275.69 0.
-0.0866916 -5.76314 0.
-605.079 -1548.93 0.
0.932912 2.50464 0.
-0.0214853 -3.52182 0.
-584.087 -1566.02 0.
-37.8431 -104.732 0.
-1.58032 -4.36134 0.
-371.688 -1018.49 0.
-326.95 -905.142 0.
-3.77754 -10.2712 0.
-145.865 -403.989 0.
-483.769 -1325.69 0.
-0.0433955 -3.32791 0.
1.14414 3.10868 0.
-616.624 -1707.24 0.
-8.90571 -23.441 0.
-11.93 -30.5864 0.
-528.975 -1328.69 0.
-0.259351 -8.09086 0.
-487.371 -1297.02 0.
-145.64 -397.364 0.
-0.565982 -1.56279 0.
-3.36756 -9.31857 0.
-10.1526 -28.1193 0.
-4.75232 -13.1594 0.
6.73204 16.2661 0.
-0.392512 -0.965932 0.
-3.8195 -9.54629 0.
-86.4177 -210.101 0.
-106.405 -259.904 0.
-299.653 -737.45 0.
-134.694 -341.96 0.
-105.771 -268.251 0.
-45.6538 -102.481 0.
-1.1752 -2.62778 0.
-3.40929 -7.59039 0.
-15.7062 -31.4807 0.
-27.5271 -55.2162 0.
-6.53656 -13.1018 0.
5.59236 10.7997 0.
-3.83525 -18.7728 0.
-484.71 -833.162 0.
-112.142 -188.296 0.
6.93847 11.4077 0.
-647.544 -996.524 0.
-4.52495 -6.83113 0.
0.258964 0.385803 0.
0.841808 1.23498 0.
6.97649 10.0906 0.
16.9448 23.4347 0.
-152.23 -217.582 0.
-192.471 -270.247 0.
-332.844 -448.706 0.
19.4957 25.8138 0.
-280.816 -381.639 0.
-8.97464 -17.521 0.
6.33329 8.58849 0.
-9.62436 -15.9581 0.
-7.02743 -11.4579 0.
-1.16041 -1.66343 0.
-46.4043 -67.2173 0.
-147.378 -215.912 0.
-125.208 -163.561 0.
-31.9901 -42.1652 0.
6.2664 7.86402 0.
-7.08312 -8.89426 0.
8.76931 11.2149 0.
6.81665 9.26486 0.
8.65336 11.8383 0.
-373.309 -514.928 0.
-3.94765 -5.62347 0.
-124.371 -180.46 0.
-482.576 -712.038 0.
-114.163 -182.523 0.
-28.4581 -46.7276 0.
-5.33884 -16.4304 0.
-3.31136 -5.50637 0.
-2.49583 -4.24325 0.
-2.22408 -4.26351 0.
-319.515 -628.208 0.
-24.7807 -50.2358 0.
-65.604 -132.387 0.
-261.366 -528.642 0.
-202.876 -479.253 0.
-129.025 -306.922 0.
-25.6266 -61.3848 0.
-65.6072 -166.049 0.
-7.26709 -18.4478 0.
-101.028 -253.256 0.
-47.1153 -118.04 0.
-7.02613 -17.5975 0.
-377.557 -959.357 0.
-1.2863 -3.2527 0.
-471.856 -1300.87 0.
-63.4963 -175.675 0.
-22.1686 -61.4022 0.
-364.96 -1007.23 0.
3.38606 9.31309 0.
0.283875 0.775931 0.
-0.101845 -6.56542 0.
1.3261 3.39027 0.
1.21898 3.18488 0.
1.09693 2.93263 0.
-0.0192539 -2.49879 0.
1.46894 4.01574 0.
0.985622 2.72636 0.
1.05957 2.9304 0.
-0.29568 -0.817235 0.
0.0808276 0.223871 0.
1.3966 3.83708 0.
-0.000316759 -3.78153 0.
-0.0261951 -3.84861 0.
-0.283252 -0.770616 0.
-0.413787 -1.13524 0.
-21.8778 -60.3961 0.
-0.0635793 -3.69535 0.
1.45146 3.77326 0.
1.71331 4.34088 0.
-0.504029 -9.60116 0.
-1.20369 -3.12018 0.
-8.20481 -22.3332 0.
-2.09944 -5.73852 0.
-275.656 -755.189 0.
-44.5979 -123.346 0.
-575.279 -1592.03 0.
-47.4654 -120.793 0.
2.44517 6.23958 0.
-163.249 -418.895 0.
4.86446 12.21 0.
-0.723644 -16.6195 0.
-1.57646 -3.89143 0.
-49.4392 -125.245 0.
-136.593 -346.236 0.
-325.526 -722.861 0.
-275.47 -609.621 0.
-37.291 -82.4197 0.
-435.864 -862.755 0.
-44.9451 -89.2297 0.
-91.9361 -183.819 0.
-35.5924 -68.5081 0.
-5.12754 -9.50473 0.
4.18659 6.87815 0.
11.3994 18.2799 0.
5.2544 8.54513 0.
-310.404 -474.983 0.
-1.02864 -1.54509 0.
-505.03 -727.429 0.
-1.77939 -2.5274 0.
-6.62286 -9.28389 0.
-140.163 -190.868 0.
10.9311 14.7714 0.
-0.90992 -1.21997 0.
9.08194 11.7064 0.
15.739 19.8874 0.
-13.1036 -17.4306 0.
-77.8312 -103.639 0.
-72.2737 -96.2076 0.
-100.989 -165.832 0.
-79.6095 -128.501 0.
9.67259 12.5441 0.
1.26049 1.66083 0.
9.24923 12.3784 0.
11.0421 13.6779 0.
13.0937 16.2418 0.
-27.9896 -34.758 0.
-56.6397 -69.6879 0.
-193.358 -241.991 0.
6.14804 8.16097 0.
-41.774 -55.7823 0.
-79.7305 -107.168 0.
-9.36824 -16.6544 0.
9.07037 12.0851 0.
-42.6147 -58.0968 0.
-0.788393 -1.15365 0.
-152.54 -228.596 0.
0.0704812 0.112303 0.
-2.69399 -4.38112 0.
-534.943 -889.592 0.
10.0061 19.3826 0.
-24.7208 -49.2935 0.
-185.991 -380.713 0.
-57.0218 -113.716 0.
5.17378 10.301 0.
-30.1378 -70.9654 0.
3.18461 7.49224 0.
-1.29369 -17.0602 0.
-2.41582 -6.03522 0.
-84.6438 -212.757 0.
-187.011 -468.627 0.
-17.3291 -43.3789 0.
-2.78427 -6.96657 0.
-46.215 -115.973 0.
-2.03313 -5.05725 0.
2.43395 5.99052 0.
-0.00331747 -11.8475 0.
2.49427 6.90786 0.
-4.62722 -12.7344 0.
0.59915 1.63979 0.
-1.04321 -2.83298 0.
-0.231893 -7.50467 0.
3.08939 7.54297 0.
0.252996 0.658769 0.
0.235319 0.62666 0.
-0.0219124 -2.35927 0.
1.63374 4.45994 0.
-0.00279821 -2.80627 0.
-0.000744083 -4.22205 0.
-0.0773372 -0.21408 0.
1.11457 3.08526 0.
1.68494 4.6539 0.
-0.00304613 -4.32184 0.
1.43797 3.9041 0.
-0.443486 -1.21882 0.
-4.36634 -12.0622 0.
-26.8844 -74.4566 0.
1.24947 3.35146 0.
-0.256147 -0.673468 0.
1.06103 2.72701 0.
2.95175 6.98173 0.
-0.456965 -10.25 0.
3.62568 9.82923 0.
-1.60122 -4.36112 0.
-5.22815 -14.2958 0.
-2.39744 -6.60815 0.
-107.099 -296.581 0.
-3.44484 -8.78127 0.
1.54639 3.95605 0.
-146.224 -375.918 0.
-30.8843 -77.1349 0.
-3.12909 -7.81683 0.
-62.7395 -156.791 0.
-46.1383 -117.449 0.
1.16457 2.94097 0.
-29.3472 -64.8506 0.
-1.01527 -2.226 0.
5.39284 11.728 0.
-82.0624 -161.001 0.
-186.177 -365.359 0.
-341.515 -682.563 0.
-120.575 -231.257 0.
6.57152 12.1056 0.
-399.838 -651.474 0.
-6.52683 -18.8525 0.
-6.30212 -17.1022 0.
-8.16416 -18.0472 0.
-9.06567 -18.8835 0.
10.8193 14.1047 0.
8.76507 11.9792 0.
-58.0925 -78.7766 0.
-189.817 -254.414 0.
-215.474 -286.617 0.
-10.6741 -14.0962 0.
-256.336 -326.637 0.
-3.44472 -4.30658 0.
16.5954 20.4813 0.
8.09836 10.0546 0.
16.541 20.627 0.
-4.20713 -10.4772 0.
8.53215 12.6796 0.
-6.73954 -8.52894 0.
-15.1288 -19.44 0.
-56.299 -73.4103 0.
-0.5775 -0.707971 0.
-160.271 -196.7 0.
-85.2107 -104.708 0.
-220.922 -265.917 0.
8.42099 9.64153 0.
15.1083 17.9984 0.
-3.59316 -4.30098 0.
-9.11936 -10.9715 0.
5.40618 7.00531 0.
-139.138 -184.369 0.
-152.476 -206.936 0.
8.79124 12.5385 0.
-311.44 -455.187 0.
-5.1441 -8.00422 0.
-128.246 -203.495 0.
-7.57924 -12.0396 0.
-2.84293 -13.9524 0.
2.13802 4.16493 0.
4.12468 8.23748 0.
-5.24432 -10.2371 0.
-205.276 -407.119 0.
-31.6185 -74.3077 0.
-106.768 -250.877 0.
-120.093 -281.947 0.
-121.167 -304.535 0.
-132.88 -335.661 0.
-73.0122 -182.748 0.
-13.3966 -33.5026 0.
-36.4133 -91.0238 0.
-32.6209 -80.5932 0.
4.18358 10.231 0.
-82.9446 -203.424 0.
-186.727 -517.149 0.
-2.04792 -5.67229 0.
-212.82 -588.282 0.
-2.19613 -6.06811 0.
-0.51856 -1.43189 0.
-424.208 -1138.5 0.
3.96484 10.5226 0.
-394.244 -926.951 0.
-10.1199 -25.4157 0.
-0.336184 -0.896736 0.
-390.347 -1052.3 0.
-35.377 -96.5405 0.
-7.33158 -20.1592 0.
-298.998 -822.408 0.
-171.138 -473.856 0.
-0.0148549 -5.3295 0.
-104.258 -288.283 0.
-298.798 -827.601 0.
-82.3112 -226.84 0.
-31.6086 -87.4182 0.
-232.807 -639.366 0.
-0.178771 -0.475712 0.
-555.239 -1406.22 0.
-1.08091 -2.81565 0.
-1.00043 -2.6308 0.
-352.224 -932.763 0.
2.84994 7.88219 0.
-15.7319 -43.556 0.
-212.328 -588.096 0.
-0.218058 -0.602939 0.
-161.028 -444.923 0.
-2.56485 -6.55432 0.
-33.1935 -85.1653 0.
-122.344 -315.138 0.
-142.163 -353.421 0.
-116.426 -289.5 0.
-101.511 -252.483 0.
-218.443 -553.684 0.
-127.108 -319.704 0.
-259.078 -571.345 0.
-35.3543 -77.4112 0.
-0.179162 -0.389164 0.
-145.916 -277.2 0.
-6.92778 -12.8807 0.
-4.3262 -7.99059 0.
-5.72828 -10.3658 0.
-4.44615 -17.4505 0.
-186.501 -301.514 0.
-137.478 -216.783 0.
4.65508 7.16466 0.
-650.335 -906.083 0.
-12.6839 -17.2641 0.
-172.019 -222.944 0.
-9.40402 -11.9299 0.
1.27183 1.58129 0.
-7.42767 -9.00677 0.
-2.10232 -2.53711 0.
6.18233 7.42714 0.
-181.904 -229.285 0.
-231.266 -285.535 0.
-106.808 -127.725 0.
-66.2367 -79.7572 0.
-14.7143 -17.8134 0.
-6.14619 -8.95216 0.
-62.3172 -89.8815 0.
-64.7123 -79.8051 0.
-26.9923 -33.7791 0.
-7.34139 -9.75242 0.
13.1837 14.9727 0.
10.472 12.0123 0.
19.2606 21.7783 0.
14.1898 16.0609 0.
7.44646 8.43678 0.
-7.59051 -8.69265 0.
-10.8168 -12.4222 0.
-231.773 -267.065 0.
-1.67692 -2.16102 0.
-138.99 -183.286 0.
-145.085 -196.04 0.
-2.29704 -3.15036 0.
7.65652 10.5713 0.
0.959193 1.4229 0.
11.8577 18.265 0.
-58.5981 -93.6534 0.
-3.71706 -7.02291 0.
-293.548 -568.062 0.
-48.206 -95.808 0.
-63.5321 -123.465 0.
-200.778 -396.729 0.
-65.2622 -153.09 0.
-23.6275 -55.3914 0.
4.23276 9.91919 0.
5.11637 12.7573 0.
-13.1508 -32.9267 0.
-6.94739 -17.1236 0.
5.23614 12.9026 0.
-0.798945 -15.1924 0.
-98.6712 -242.806 0.
-11.6088 -28.6449 0.
-40.2403 -99.4322 0.
-82.5614 -228.585 0.
1.7623 4.87629 0.
-21.4642 -59.253 0.
-2.23251 -6.15837 0.
0.0286781 0.0790387 0.
3.06131 8.06495 0.
-0.302805 -10.3393 0.
1.67368 4.23509 0.
0.571639 1.47814 0.
0.446247 1.20692 0.
-0.306766 -0.822953 0.
1.40159 3.80484 0.
-1.92178 -5.26284 0.
-1.63631 -4.52926 0.
-0.0013 -5.36349 0.
-0.387658 -1.0688 0.
-0.233414 -0.64615 0.
1.20655 3.34028 0.
-7.04247 -19.4928 0.
0.682877 1.88359 0.
1.56139 4.22001 0.
2.03882 5.62944 0.
-16.9934 -46.1031 0.
3.81573 9.88561 0.
4.30602 11.2659 0.
1.03064 2.72045 0.
3.71389 10.2721 0.
1.24896 3.458 0.
-16.82 -46.5882 0.
-0.74186 -2.03978 0.
-112.762 -309.761 0.
-17.8128 -44.7018 0.
-14.9055 -37.4001 0.
-102.83 -258.104 0.
-3.95505 -9.50024 0.
-4.71636 -11.2898 0.
-1.94591 -4.64168 0.
-27.1367 -66.6302 0.
-66.277 -166.068 0.
-107.937 -238.161 0.
-69.3733 -151.76 0.
1.44882 3.14344 0.
-370.752 -701.462 0.
5.79071 10.721 0.
-122.829 -225.784 0.
-157.651 -283.876 0.
-0.27023 -0.47618 0.
-12.7599 -20.1438 0.
-6.4174 -9.82797 0.
8.04349 11.9519 0.
-4.27122 -5.66023 0.
-86.2947 -114.364 0.
-318.216 -409.498 0.
-52.925 -66.6508 0.
7.04751 8.69518 0.
-272.081 -319.381 0.
5.51908 6.45298 0.
2.40277 2.7998 0.
6.98791 7.99186 0.
3.48859 3.97861 0.
-12.8727 -16.9541 0.
-7.23902 -7.92697 0.
8.28397 8.9753 0.
7.33041 10.9911 0.
-53.0799 -74.2724 0.
-3.98798 -4.47299 0.
6.40139 7.17392 0.
-1.90178 -2.12667 0.
13.2482 14.5839 0.
-1.7477 -1.94077 0.
13.5389 15.1496 0.
-133.273 -149.209 0.
-120.529 -135.112 0.
-137.452 -151.075 0.
-8.78003 -9.01327 0.
-5.67538 -5.85237 0.
-1.83568 -2.21314 0.
-0.142739 -0.180346 0.
-16.0391 -21.3074 0.
5.93259 8.01989 0.
-260.559 -353.947 0.
9.15984 13.6494 0.
-7.30038 -11.3074 0.
-375.277 -602.472 0.
-2.20836 -4.14528 0.
-4.28151 -8.24822 0.
3.6285 7.08728 0.
-4.95397 -9.41556 0.
-29.3115 -56.2408 0.
-4.1044 -9.25756 0.
-0.281118 -0.638828 0.
-2.36652 -5.41834 0.
2.91217 7.30413 0.
-120.833 -304.382 0.
-43.0006 -105.49 0.
-9.04478 -22.1824 0.
-13.3546 -32.7411 0.
-107.128 -265.579 0.
-2.35581 -5.85167 0.
-16.9112 -42.0689 0.
-12.703 -35.0897 0.
2.17201 5.9892 0.
-32.9695 -90.843 0.
1.39331 3.83552 0.
3.91978 10.7783 0.
1.1335 2.91857 0.
3.01617 7.59991 0.
-13.5471 -32.6643 0.
-273.097 -746.148 0.
3.17197 8.67957 0.
-112.758 -296.984 0.
-14.2482 -38.0856 0.
-71.2783 -193.748 0.
-175.846 -486.9 0.
-20.1013 -55.6491 0.
-100.092 -275.626 0.
-71.2869 -197.297 0.
-108.51 -300.485 0.
-42.5163 -117.74 0.
-44.2723 -121.34 0.
-191.195 -508.626 0.
0.929586 2.56716 0.
-99.7111 -275.968 0.
-0.359027 -11.4177 0.
-2.3111 -6.01669 0.
-8.46077 -22.2284 0.
0.72913 2.01674 0.
-1.01201 -2.80194 0.
-18.4115 -50.996 0.
1.79529 4.88905 0.
-113.86 -309.83 0.
-18.3939 -46.1993 0.
-27.3362 -68.6529 0.
-178.305 -447.814 0.
-32.1178 -77.1426 0.
-66.8815 -160.099 0.
-60.9382 -150.22 0.
-142.918 -351.302 0.
-20.0119 -49.1173 0.
-3.47322 -7.50728 0.
-5.09171 -10.9185 0.
-2.0924 -15.9353 0.
-16.2758 -30.2315 0.
9.17613 16.6274 0.
-124.621 -227.603 0.
-33.0446 -59.058 0.
-0.533478 -0.933599 0.
-425.639 -670.91 0.
3.34191 5.11905 0.
-5.11042 -7.58947 0.
-242.432 -321.608 0.
-7.53117 -9.74235 0.
-8.19289 -12.7306 0.
4.03494 4.77686 0.
-1.29465 -1.48357 0.
8.32676 8.80234 0.
-224.184 -253.668 0.
-163.381 -184.421 0.
-113.136 -125.369 0.
-140.944 -155.892 0.
-27.5624 -30.439 0.
-7.05659 -7.59047 0.
-9.31571 -9.91825 0.
10.4229 11.8899 0.
6.5963 7.73898 0.
8.57131 9.42707 0.
-8.96002 -9.83771 0.
-43.6952 -47.83 0.
-103.576 -110.256 0.
-59.2539 -63.5613 0.
9.08775 9.21961 0.
5.16127 5.25579 0.
3.31515 3.38897 0.
-12.6125 -12.9245 0.
-6.89031 -6.99901 0.
-150.105 -153.056 0.
3.55373 4.18121 0.
-106.263 -131.148 0.
-168.4 -218.97 0.
-14.0418 -18.6971 0.
-50.4027 -67.5179 0.
-4.46333 -10.9025 0.
-0.0265874 -0.0404018 0.
-2.53457 -3.92766 0.
9.49705 17.2595 0.
8.21758 15.5801 0.
-5.31551 -10.4945 0.
1.79876 3.44321 0.
-200.345 -386.962 0.
7.14029 15.9685 0.
-16.6741 -37.5576 0.
-150.492 -340.844 0.
-13.725 -34.621 0.
-62.2051 -157.442 0.
-57.4257 -143.251 0.
-9.40039 -22.9443 0.
0.849771 2.00324 0.
-2.99106 -7.21252 0.
0.491855 1.18658 0.
-4.27941 -10.3293 0.
-93.2899 -254.678 0.
3.77347 10.3067 0.
-99.6129 -273.915 0.
-37.7129 -103.216 0.
-75.1277 -204.459 0.
-137.379 -344.914 0.
-2.96454 -7.31086 0.
-0.737923 -12.0057 0.
-15.0135 -41.3774 0.
0.31125 0.859454 0.
1.23858 3.30088 0.
1.98819 5.37781 0.
-0.0268441 -5.59589 0.
-0.692526 -1.91278 0.
-1.09877 -3.04295 0.
-11.2822 -31.1974 0.
-4.55425e-05 -6.99805 0.
0.681927 1.8841 0.
0.463257 1.28245 0.
-0.651628 -1.78567 0.
2.51756 6.74298 0.
3.56388 9.66578 0.
2.24611 6.14914 0.
-3.18113 -7.96729 0.
-1.35878 -3.45195 0.
-236.576 -609.085 0.
-23.4058 -64.3717 0.
-16.781 -46.2182 0.
-100.526 -277.153 0.
3.93719 10.4252 0.
-53.7355 -143.055 0.
-2.65363 -6.55964 0.
4.54987 11.2229 0.
-2.94578 -7.25049 0.
-52.1812 -125.293 0.
-82.1056 -196.45 0.
-81.3391 -200.928 0.
-70.9614 -174.878 0.
-11.7034 -28.7793 0.
-264.512 -573.938 0.
-4.38932 -9.43178 0.
6.62542 14.1224 0.
-168.662 -316.569 0.
-3.85465 -7.06195 0.
6.68844 12.0061 0.
3.21126 5.61228 0.
-3.0522 -5.19322 0.
-3.74889 -5.782 0.
6.11179 9.29569 0.
-0.614068 -0.911029 0.
-149.317 -198.403 0.
-9.12888 -11.8195 0.
-303.823 -361.253 0.
-286.108 -327.866 0.
-8.01344 -9.98222 0.
-11.3047 -11.8616 0.
7.70211 7.99602 0.
8.15241 8.58127 0.
6.87204 7.11873 0.
6.1775 6.3219 0.
-14.3161 -15.341 0.
-143.805 -151.801 0.
-61.926 -64.7274 0.
4.10264 4.47075 0.
2.29659 2.57788 0.
-4.05957 -4.01922 0.
4.21398 4.15835 0.
-10.7006 -10.4474 0.
12.5861 12.1968 0.
-1.49477 -1.43657 0.
15.1182 14.8172 0.
-5.11209 -5.02184 0.
-56.3424 -55.4639 0.
1.59346 1.59455 0.
7.02605 7.05996 0.
-14.2038 -14.3318 0.
5.30661 6.0693 0.
8.34268 9.51342 0.
-6.32463 -8.86528 0.
-6.67166 -10.8704 0.
-30.1843 -39.0898 0.
7.52899 11.2892 0.
10.0379 15.3572 0.
-228.591 -356.574 0.
7.10291 13.0233 0.
5.90988 11.322 0.
-193.851 -387.398 0.
9.03455 17.4197 0.
-56.8587 -110.662 0.
-20.5918 -45.6174 0.
2.83101 6.02714 0.
-8.51265 -18.1339 0.
-0.961058 -15.2729 0.
3.94506 9.60854 0.
-18.88 -46.4045 0.
-1.2589 -2.95677 0.
-3.9762 -9.36487 0.
-38.7328 -93.1314 0.
0.899502 2.1631 0.
-1.9635 -4.72409 0.
0.637207 1.72725 0.
3.05886 8.29288 0.
-2.19115 -6.02592 0.
1.76914 4.84388 0.
0.500039 1.36171 0.
3.84928 9.68292 0.
1.78175 4.40472 0.
5.43814 13.199 0.
-0.00190237 -9.84829 0.
-2.82295e-05 -9.22079 0.
-0.0935377 -8.22821 0.
-0.0454861 -7.30331 0.
0.496933 1.36857 0.
0.249158 0.685354 0.
-0.0049724 -6.52865 0.
0.792211 2.19345 0.
0.176295 0.488054 0.
-0.150862 -0.41598 0.
-0.00305472 -7.83869 0.
2.67239 7.32201 0.
-0.0911283 -6.82768 0.
0.134513 0.353992 0.
2.02191 5.41652 0.
-0.921475 -2.31604 0.
-0.461716 -12.6253 0.
-0.873471 -2.25451 0.
-0.333073 -0.91743 0.
-1.87011 -5.15766 0.
0.39425 1.08856 0.
-0.328363 -13.3119 0.
-54.7287 -144.087 0.
2.40808 5.89509 0.
-5.80827 -14.1885 0.
-19.5198 -47.5847 0.
-26.5854 -62.729 0.
-2.25506 -5.27351 0.
4.17733 9.94851 0.
6.67152 15.7625 0.
6.83919 16.0347 0.
-0.0236133 -0.0486088 0.
-0.000978562 -0.0021071 0.
-8.01175 -17.1134 0.
-39.4543 -74.9983 0.
6.25244 11.5908 0.
-239.378 -430.262 0.
-2.34557 -4.10433 0.
-3.86317 -13.4452 0.
-165.157 -253.758 0.
5.73447 8.69208 0.
5.63564 8.42431 0.
2.65027 3.48865 0.
4.79143 5.99536 0.
3.58671 3.83954 0.
-48.9471 -53.9521 0.
3.71281 3.96453 0.
-112.253 -111.165 0.
1.22218 1.22919 0.
-26.0915 -26.6268 0.
-63.2802 -64.33 0.
1.82979 1.8385 0.
14.3684 14.2724 0.
8.13836 7.81564 0.
0.741496 0.711122 0.
-4.9296 -4.71575 0.
7.79629 7.57121 0.
11.808 11.2684 0.
4.24759 4.0332 0.
0.02641 0.0251856 0.
-2.30083 -2.17676 0.
-73.4001 -68.8473 0.
-108.512 -102.615 0.
-74.468 -70.4674 0.
-3.90949 -3.32166 0.
12.8289 11.5816 0.
5.07245 4.75611 0.
-2.15242 -2.09878 0.
4.89654 5.35828 0.
3.61108 4.05254 0.
6.75045 7.77916 0.
-6.16111 -7.66672 0.
-256.967 -330.377 0.
3.2181 4.85789 0.
0.707104 1.08938 0.
4.88721 7.68178 0.
6.57052 11.9905 0.
-3.21734 -14.2662 0.
3.62751 6.75732 0.
9.91221 18.1107 0.
-3.22691 -6.02858 0.
-7.13326 -15.098 0.
-14.0631 -29.7847 0.
-14.5654 -30.8703 0.
3.45977 8.37709 0.
-109.984 -268.782 0.
-37.1221 -91.5698 0.
-10.3541 -24.2948 0.
-83.4662 -196.331 0.
-19.7156 -47.2437 0.
-4.40037 -10.548 0.
-13.4691 -32.3003 0.
-54.2384 -145.768 0.
1.72156 4.62543 0.
2.99207 8.23018 0.
1.20588 3.26176 0.
-1.99257 -5.39113 0.
-28.4751 -72.0016 0.
-0.590287 -1.48111 0.
1.4979 3.72814 0.
-48.3916 -133.89 0.
-1.28308 -3.53784 0.
-41.9623 -115.046 0.
0.968724 2.67099 0.
-0.685068 -1.89542 0.
-46.8793 -129.36 0.
-13.6353 -37.7317 0.
-32.2765 -89.3981 0.
-4.98779 -13.8006 0.
-19.626 -54.1076 0.
-14.826 -41.0017 0.
-11.3276 -31.1738 0.
-69.2623 -189.025 0.
-0.752135 -1.93442 0.
-33.8523 -88.8512 0.
5.11489 12.9196 0.
2.76964 6.99141 0.
-1.24175 -3.13254 0.
-27.4096 -74.4377 0.
2.52079 6.95992 0.
1.84495 5.0989 0.
-0.708369 -1.82862 0.
-55.3391 -143.954 0.
-7.44572 -18.0399 0.
-20.7204 -50.1009 0.
-60.9757 -147.122 0.
-126.168 -299.883 0.
-5.88662 -13.8796 0.
-12.9587 -30.6116 0.
-10.824 -25.3628 0.
-10.6907 -24.8557 0.
-8.32169 -17.1998 0.
-5.73423 -11.6866 0.
-2.18659 -4.39284 0.
-5.80178 -10.479 0.
7.52389 13.2166 0.
-2.18887 -3.66745 0.
-1.83493 -3.06037 0.
0.462171 0.787214 0.
-56.8268 -87.0668 0.
-3.82828 -5.78208 0.
-3.95095 -5.88377 0.
-201.409 -264.813 0.
10.1187 12.6432 0.
-13.9203 -14.6458 0.
-2.0828 -2.14458 0.
-0.0486122 -0.0490366 0.
-8.43221 -7.89962 0.
-7.49184 -6.92433 0.
9.29666 8.47905 0.
-149.673 -149.099 0.
-166.494 -163.986 0.
-31.6681 -30.8633 0.
-46.9479 -43.6467 0.
-48.8336 -45.3945 0.
-33.9778 -31.5373 0.
7.36692 6.79522 0.
0.527063 0.484727 0.
-2.51819 -0.765409 0.
6.88978 5.05497 0.
0.578694 0.443305 0.
8.71075 6.99537 0.
6.94659 5.9615 0.
-6.77089 -5.73174 0.
15.033 12.5472 0.
-12.6646 -10.0438 0.
0.665431 0.62098 0.
-108.77 -105.738 0.
-1.41334 -1.51971 0.
-0.205317 -0.226484 0.
-46.8054 -53.0916 0.
-0.660664 -0.528241 0.
3.07292 3.23894 0.
-5.96927 -12.1049 0.
-5.47154 -13.1139 0.
-1.51555 -2.39888 0.
4.27815 7.79919 0.
-4.18572 -7.71013 0.
-87.9868 -163.814 0.
-5.97228 -10.9403 0.
2.11887 3.97022 0.
-10.0024 -21.0622 0.
-21.5436 -45.396 0.
-55.8805 -117.882 0.
-14.1198 -34.3165 0.
-38.0906 -93.4528 0.
-2.93263 -12.9301 0.
0.531555 1.00977 0.
4.72074 9.6608 0.
-3.62633 -7.84394 0.
-2.42005 -5.33042 0.
2.4529 5.50435 0.
-0.413993 -1.07484 0.
-2.37814 -6.19286 0.
2.83259 7.67278 0.
1.61888 4.38626 0.
-3.8195 -10.3515 0.
0.106969 0.270668 0.
-2.98289 -7.4895 0.
4.54254 11.3152 0.
2.02644 5.57416 0.
-0.0644621 -10.6646 0.
2.33544 6.4071 0.
-1.43449 -3.9565 0.
0.422929 1.17024 0.
1.41447 3.90545 0.
1.8881 5.22616 0.
2.73043 7.5598 0.
3.40861 9.43877 0.
1.33656 3.69243 0.
2.57304 7.11214 0.
0.750161 2.06297 0.
2.68539 7.32404 0.
2.989 7.52248 0.
-9.2429 -23.8037 0.
-3.45019 -8.70831 0.
5.06399 12.7758 0.
3.14685 7.93429 0.
2.80101 7.60743 0.
1.60462 4.36433 0.
1.25514 3.41849 0.
-2.55793 -6.27699 0.
-12.5206 -30.662 0.
-0.503982 -1.11989 0.
2.5597 5.51086 0.
3.48576 7.26879 0.
1.72055 3.34865 0.
-1.25814 -4.5832 0.
-18.2253 -42.6907 0.
-42.7011 -99.1755 0.
-33.492 -77.1816 0.
-62.8645 -130.517 0.
2.43829 4.98901 0.
2.24494 4.52742 0.
-61.4457 -112.786 0.
-3.48262 -13.9558 0.
-22.7424 -37.8133 0.
-5.55522 -9.19513 0.
0.407337 0.67134 0.
9.39675 13.753 0.
-4.74388 -8.46683 0.
-4.50291 -6.25509 0.
-12.9657 -10.8358 0.
-0.969057 -1.20841 0.
-44.9284 -46.3972 0.
-37.6506 -38.0537 0.
5.20734 5.1564 0.
-173.659 -161.507 0.
-11.134 -9.23683 0.
2.47617 2.23912 0.
8.79442 7.71889 0.
-12.4044 -9.31052 0.
8.10788 7.06688 0.
10.7126 8.25366 0.
2.91809 2.12447 0.
3.24743 2.24226 0.
-14.1365 -12.4297 0.
