# vtk DataFile Version 2.0
test grain
ASCII
DATASET UNSTRUCTURED_GRID
POINTS 5000 float
0.497726 0.000613784 0.
0.500567 0.00079709 0.
0.503049 0.000864047 0.
0.505514 0.000929498 0.
0.507631 0.000946578 0.
0.509749 0.000964035 0.
0.51184 0.000976877 0.
0.513885 0.000981258 0.
0.515931 0.000985659 0.
0.517955 0.000989567 0.
0.519968 0.000993244 0.
0.521981 0.000996935 0.
0.523985 0.000997881 0.
0.525986 0.000998456 0.
0.527988 0.000998997 0.
0.52999 0.000999251 0.
0.531992 0.000999505 0.
0.533994 0.000999721 0.
0.535995 0.000999861 0.
0.537996 0.001 0.
0.539996 0.00100013 0.
0.541997 0.00100025 0.
0.543997 0.00100036 0.
0.545997 0.00100028 0.
0.547998 0.00100014 0.
0.549998 0.001 0.
0.551998 0.0010001 0.
0.553998 0.00100019 0.
0.555998 0.00100027 0.
0.557999 0.00100032 0.
0.559999 0.00100036 0.
0.561999 0.00100039 0.
0.563999 0.00100042 0.
0.565999 0.00100044 0.
0.567999 0.00100044 0.
0.569999 0.00100042 0.
0.571999 0.0010004 0.
0.573999 0.0010004 0.
0.575999 0.0010004 0.
0.577999 0.0010004 0.
0.579999 0.00100044 0.
0.581999 0.00100048 0.
0.584 0.0010005 0.
0.586 0.00100046 0.
0.588 0.00100042 0.
0.59 0.00100046 0.
0.592 0.00100058 0.
0.594 0.0010007 0.
0.596 0.00100056 0.
0.598 0.00100036 0.
0.6 0.00100015 0.
0.602 0.00100035 0.
0.604 0.00100055 0.
0.606 0.00100067 0.
0.608 0.00100057 0.
0.61 0.00100047 0.
0.612001 0.00100043 0.
0.614001 0.00100046 0.
0.616001 0.00100049 0.
0.618001 0.00100046 0.
0.620001 0.00100041 0.
0.622001 0.00100035 0.
0.624001 0.00100036 0.
0.626001 0.00100036 0.
0.628001 0.00100037 0.
0.630001 0.00100039 0.
0.632001 0.00100041 0.
0.634001 0.00100041 0.
0.636001 0.00100041 0.
0.638001 0.00100041 0.
0.640001 0.00100037 0.
0.642002 0.00100029 0.
0.644002 0.00100021 0.
0.646002 0.00100015 0.
0.648002 0.00100009 0.
0.650002 0.00100003 0.
0.652003 0.00100011 0.
0.654003 0.0010002 0.
0.656004 0.00100024 0.
0.658004 0.00100012 0.
0.660005 0.001 0.
0.662006 0.000999841 0.
0.664007 0.000999624 0.
0.666008 0.000999406 0.
0.66801 0.000999249 0.
0.670012 0.000999123 0.
0.672014 0.000998996 0.
0.674017 0.000997619 0.
0.67602 0.000996098 0.
0.678026 0.000994209 0.
0.680048 0.000989585 0.
0.68207 0.000984983 0.
0.684106 0.000979975 0.
0.686169 0.000974164 0.
0.688231 0.000968388 0.
0.690399 0.00094056 0.
0.692621 0.000902737 0.
0.694867 0.00086367 0.
0.697658 0.000765909 0.
0.700455 0.000670341 0.
0.495606 0.00158077 0.
0.498983 0.0022879 0.
0.501875 0.00255544 0.
0.504712 0.00277037 0.
0.507091 0.00283041 0.
0.50939 0.00288557 0.
0.511628 0.00293014 0.
0.513723 0.00294338 0.
0.515819 0.00295668 0.
0.517878 0.00296843 0.
0.519914 0.00297953 0.
0.52195 0.00299067 0.
0.52396 0.00299363 0.
0.525965 0.00299536 0.
0.527971 0.00299699 0.
0.529975 0.00299775 0.
0.53198 0.00299851 0.
0.533984 0.00299916 0.
0.535986 0.00299958 0.
0.537989 0.003 0.
0.53999 0.00300038 0.
0.541991 0.00300074 0.
0.543992 0.00300109 0.
0.545993 0.00300084 0.
0.547994 0.00300043 0.
0.549995 0.00300001 0.
0.551995 0.00300029 0.
0.553995 0.00300058 0.
0.555995 0.00300082 0.
0.557996 0.00300095 0.
0.559996 0.00300108 0.
0.561997 0.00300118 0.
0.563997 0.00300125 0.
0.565998 0.00300132 0.
0.567998 0.00300131 0.
0.569998 0.00300126 0.
0.571998 0.00300121 0.
0.573998 0.0030012 0.
0.575998 0.00300119 0.
0.577998 0.00300119 0.
0.579998 0.00300132 0.
0.581998 0.00300145 0.
0.583999 0.00300149 0.
0.585999 0.00300137 0.
0.587999 0.00300125 0.
0.589999 0.00300139 0.
0.591999 0.00300174 0.
0.593999 0.00300209 0.
0.595999 0.00300169 0.
0.598 0.00300108 0.
0.6 0.00300046 0.
0.602001 0.00300105 0.
0.604001 0.00300164 0.
0.606001 0.00300202 0.
0.608001 0.00300171 0.
0.610001 0.0030014 0.
0.612002 0.00300128 0.
0.614002 0.00300137 0.
0.616002 0.00300146 0.
0.618002 0.00300139 0.
0.620002 0.00300122 0.
0.622002 0.00300106 0.
0.624002 0.00300107 0.
0.626002 0.00300109 0.
0.628002 0.00300112 0.
0.630002 0.00300117 0.
0.632002 0.00300122 0.
0.634003 0.00300124 0.
0.636003 0.00300124 0.
0.638004 0.00300124 0.
0.640004 0.0030011 0.
0.642005 0.00300086 0.
0.644006 0.00300062 0.
0.646006 0.00300043 0.
0.648006 0.00300026 0.
0.650006 0.00300009 0.
0.652007 0.00300034 0.
0.654008 0.0030006 0.
0.656009 0.00300072 0.
0.658011 0.00300036 0.
0.660012 0.00300001 0.
0.662014 0.00299952 0.
0.664018 0.00299887 0.
0.666021 0.00299821 0.
0.668026 0.00299775 0.
0.670031 0.00299737 0.
0.672036 0.00299699 0.
0.674045 0.00299281 0.
0.676055 0.00298823 0.
0.678072 0.00298242 0.
0.68013 0.00296845 0.
0.682187 0.00295454 0.
0.684274 0.00293936 0.
0.686405 0.00292174 0.
0.688535 0.00290422 0.
0.69095 0.00280273 0.
0.693441 0.0026827 0.
0.696169 0.00252198 0.
0.699356 0.00221614 0.
0.70266 0.00170925 0.
0.493122 0.00219118 0.
0.496806 0.00337002 0.
0.500495 0.00419502 0.
0.503715 0.00456772 0.
0.506498 0.00470069 0.
0.508993 0.00479755 0.
0.511411 0.00488276 0.
0.513557 0.00490499 0.
0.515705 0.00492732 0.
0.5178 0.00494693 0.
0.519859 0.00496554 0.
0.521918 0.00498421 0.
0.523935 0.00498936 0.
0.525944 0.00499224 0.
0.527953 0.00499496 0.
0.52996 0.00499624 0.
0.531967 0.00499751 0.
0.533974 0.0049986 0.
0.535978 0.0049993 0.
0.537982 0.005 0.
0.539985 0.00500064 0.
0.541986 0.00500122 0.
0.543988 0.00500181 0.
0.545989 0.00500141 0.
0.54799 0.00500071 0.
0.549991 0.00500002 0.
0.551991 0.00500048 0.
0.553991 0.00500096 0.
0.555992 0.00500137 0.
0.557993 0.00500159 0.
0.559994 0.0050018 0.
0.561995 0.00500197 0.
0.563996 0.00500208 0.
0.565996 0.0050022 0.
0.567997 0.00500218 0.
0.569997 0.0050021 0.
0.571997 0.00500202 0.
0.573997 0.005002 0.
0.575997 0.00500198 0.
0.577997 0.00500199 0.
0.579997 0.0050022 0.
0.581997 0.00500241 0.
0.583998 0.00500248 0.
0.585998 0.00500228 0.
0.587998 0.00500208 0.
0.589998 0.00500232 0.
0.591998 0.00500291 0.
0.593998 0.00500349 0.
0.595998 0.00500282 0.
0.597999 0.0050018 0.
0.6 0.00500077 0.
0.602001 0.00500175 0.
0.604002 0.00500273 0.
0.606002 0.00500337 0.
0.608002 0.00500286 0.
0.610002 0.00500234 0.
0.612003 0.00500213 0.
0.614003 0.00500228 0.
0.616003 0.00500244 0.
0.618003 0.00500231 0.
0.620003 0.00500204 0.
0.622004 0.00500176 0.
0.624003 0.00500178 0.
0.626003 0.00500182 0.
0.628003 0.00500188 0.
0.630003 0.00500195 0.
0.632004 0.00500203 0.
0.634005 0.00500207 0.
0.636005 0.00500207 0.
0.638006 0.00500206 0.
0.640007 0.00500184 0.
0.642008 0.00500144 0.
0.644009 0.00500104 0.
0.64601 0.00500072 0.
0.64801 0.00500043 0.
0.650011 0.00500014 0.
0.652012 0.00500057 0.
0.654013 0.005001 0.
0.656014 0.00500119 0.
0.658017 0.0050006 0.
0.660019 0.00500001 0.
0.662023 0.0049992 0.
0.664029 0.00499811 0.
0.666034 0.00499702 0.
0.668042 0.00499624 0.
0.67005 0.00499561 0.
0.672058 0.00499497 0.
0.674074 0.00498792 0.
0.676091 0.00498029 0.
0.678119 0.00497036 0.
0.680213 0.00494689 0.
0.682307 0.00492353 0.
0.684447 0.00489797 0.
0.686649 0.00486828 0.
0.68885 0.00483876 0.
0.691588 0.00463682 0.
0.694375 0.00442527 0.
0.697784 0.00406929 0.
0.701489 0.00347806 0.
0.705276 0.00233175 0.
0.490175 0.00234475 0.
0.494513 0.00402666 0.
0.498669 0.00529102 0.
0.502083 0.00581788 0.
0.505261 0.00614594 0.
0.507927 0.00634631 0.
0.510576 0.00655348 0.
0.512898 0.00664932 0.
0.515212 0.00673665 0.
0.517449 0.00680676 0.
0.519589 0.00685351 0.
0.521732 0.00690098 0.
0.523801 0.00692935 0.
0.525854 0.00695389 0.
0.527904 0.00697715 0.
0.52992 0.0069798 0.
0.531936 0.00698245 0.
0.53395 0.00698582 0.
0.53596 0.00699079 0.
0.53797 0.00699577 0.
0.539976 0.00699883 0.
0.541979 0.00700026 0.
0.543981 0.00700169 0.
0.545983 0.00700186 0.
0.547985 0.00700166 0.
0.549986 0.00700146 0.
0.551987 0.00700171 0.
0.553987 0.00700197 0.
0.555988 0.00700223 0.
0.557989 0.00700246 0.
0.55999 0.00700269 0.
0.561992 0.00700292 0.
0.563993 0.00700316 0.
0.565994 0.00700339 0.
0.567994 0.00700349 0.
0.569995 0.00700352 0.
0.571996 0.00700354 0.
0.573996 0.00700354 0.
0.575995 0.00700354 0.
0.577995 0.00700357 0.
0.579996 0.00700377 0.
0.581996 0.00700397 0.
0.583996 0.00700409 0.
0.585996 0.00700406 0.
0.587996 0.00700403 0.
0.589997 0.00700422 0.
0.591997 0.0070046 0.
0.593997 0.00700497 0.
0.595998 0.00700452 0.
0.597999 0.00700382 0.
0.6 0.00700312 0.
0.602002 0.0070038 0.
0.604003 0.00700447 0.
0.606004 0.00700491 0.
0.608004 0.00700455 0.
0.610004 0.00700419 0.
0.612004 0.00700398 0.
0.614004 0.00700398 0.
0.616004 0.00700398 0.
0.618004 0.00700382 0.
0.620005 0.0070036 0.
0.622005 0.00700338 0.
0.624005 0.00700337 0.
0.626005 0.0070034 0.
0.628005 0.00700341 0.
0.630006 0.00700336 0.
0.632007 0.0070033 0.
0.634008 0.00700322 0.
0.636009 0.00700308 0.
0.63801 0.00700294 0.
0.640011 0.00700266 0.
0.642012 0.00700225 0.
0.644014 0.00700184 0.
0.646015 0.00700165 0.
0.648015 0.00700152 0.
0.650016 0.00700139 0.
0.652018 0.00700127 0.
0.65402 0.00700115 0.
0.656022 0.0070006 0.
0.658027 0.00699859 0.
0.660031 0.00699657 0.
0.66204 0.00699248 0.
0.664053 0.00698594 0.
0.666066 0.00697941 0.
0.668086 0.00697534 0.
0.670109 0.00697233 0.
0.672133 0.00696933 0.
0.674206 0.00693413 0.
0.676282 0.00689741 0.
0.678382 0.0068573 0.
0.680574 0.00679972 0.
0.682762 0.00674332 0.
0.685092 0.00664926 0.
0.6875 0.00653689 0.
0.690009 0.00637198 0.
0.692945 0.00600275 0.
0.696021 0.0056363 0.
0.699695 0.00515152 0.
0.704044 0.00415082 0.
0.708137 0.00256466 0.
0.487178 0.00234457 0.
0.491968 0.00429509 0.
0.496213 0.00578033 0.
0.500183 0.00685231 0.
0.503636 0.00743947 0.
0.506697 0.00781347 0.
0.509571 0.00815678 0.
0.512153 0.00836132 0.
0.514656 0.00852215 0.
0.517078 0.00866033 0.
0.519305 0.00873695 0.
0.521535 0.00881481 0.
0.523663 0.00886741 0.
0.525761 0.00891419 0.
0.527855 0.00895931 0.
0.52988 0.00896335 0.
0.531905 0.00896738 0.
0.533927 0.00897297 0.
0.535942 0.00898223 0.
0.537957 0.00899151 0.
0.539967 0.00899701 0.
0.541971 0.00899929 0.
0.543975 0.00900156 0.
0.545978 0.00900231 0.
0.54798 0.0090026 0.
0.549982 0.00900289 0.
0.551983 0.00900294 0.
0.553983 0.00900299 0.
0.555984 0.00900308 0.
0.557986 0.00900333 0.
0.559987 0.00900357 0.
0.561988 0.00900387 0.
0.56399 0.00900423 0.
0.565991 0.00900459 0.
0.567992 0.0090048 0.
0.569993 0.00900493 0.
0.571994 0.00900506 0.
0.573994 0.00900509 0.
0.575994 0.00900511 0.
0.577994 0.00900514 0.
0.579994 0.00900533 0.
0.581995 0.00900553 0.
0.583995 0.0090057 0.
0.585995 0.00900584 0.
0.587995 0.00900597 0.
0.589995 0.00900612 0.
0.591995 0.00900629 0.
0.593995 0.00900645 0.
0.595997 0.00900621 0.
0.597999 0.00900584 0.
0.6 0.00900547 0.
0.602002 0.00900585 0.
0.604004 0.00900622 0.
0.606005 0.00900646 0.
0.608005 0.00900624 0.
0.610005 0.00900603 0.
0.612005 0.00900584 0.
0.614005 0.00900568 0.
0.616006 0.00900551 0.
0.618006 0.00900534 0.
0.620007 0.00900516 0.
0.622007 0.00900499 0.
0.624007 0.00900497 0.
0.626007 0.00900497 0.
0.628007 0.00900495 0.
0.630008 0.00900476 0.
0.632009 0.00900458 0.
0.634011 0.00900436 0.
0.636012 0.00900409 0.
0.638014 0.00900383 0.
0.640015 0.00900348 0.
0.642017 0.00900306 0.
0.644018 0.00900265 0.
0.646019 0.00900258 0.
0.64802 0.00900261 0.
0.650021 0.00900263 0.
0.652024 0.00900197 0.
0.654026 0.00900131 0.
0.65603 0.00899999 0.
0.658036 0.00899656 0.
0.660043 0.00899313 0.
0.662056 0.0089857 0.
0.664077 0.00897368 0.
0.666097 0.00896169 0.
0.66813 0.00895436 0.
0.670169 0.00894897 0.
0.672208 0.00894358 0.
0.674344 0.00887791 0.
0.676481 0.00881104 0.
0.678663 0.00873894 0.
0.680961 0.00864472 0.
0.683252 0.00855244 0.
0.685846 0.00836082 0.
0.688494 0.00815299 0.
0.691424 0.00775734 0.
0.694563 0.00719845 0.
0.698131 0.00659251 0.
0.702164 0.00578007 0.
0.706621 0.00439762 0.
0.711342 0.00244731 0.
0.483889 0.00222798 0.
0.489034 0.0042897 0.
0.493689 0.0060538 0.
0.497886 0.00753143 0.
0.50186 0.00856797 0.
0.505434 0.00920656 0.
0.508526 0.00966879 0.
0.511386 0.01 0.
0.514053 0.0102298 0.
0.516664 0.0104567 0.
0.518971 0.0105667 0.
0.521286 0.0106807 0.
0.523481 0.0107665 0.
0.525627 0.0108443 0.
0.527772 0.0109218 0.
0.529813 0.0109318 0.
0.531854 0.0109418 0.
0.53389 0.0109531 0.
0.535912 0.010967 0.
0.537935 0.010981 0.
0.53995 0.0109899 0.
0.541958 0.0109943 0.
0.543966 0.0109987 0.
0.54597 0.0110006 0.
0.547973 0.0110017 0.
0.549976 0.0110027 0.
0.551978 0.0110028 0.
0.553979 0.0110029 0.
0.55598 0.011003 0.
0.557982 0.0110033 0.
0.559983 0.0110036 0.
0.561985 0.011004 0.
0.563986 0.0110045 0.
0.565988 0.0110049 0.
0.567989 0.0110052 0.
0.56999 0.0110054 0.
0.571992 0.0110057 0.
0.573992 0.0110058 0.
0.575992 0.0110059 0.
0.577992 0.011006 0.
0.579993 0.0110062 0.
0.581993 0.0110064 0.
0.583994 0.0110067 0.
0.585994 0.0110069 0.
0.587994 0.0110071 0.
0.589995 0.0110072 0.
0.591995 0.0110072 0.
0.593995 0.0110072 0.
0.595996 0.0110071 0.
0.597998 0.0110069 0.
0.6 0.0110068 0.
0.602002 0.011007 0.
0.604004 0.0110072 0.
0.606006 0.0110073 0.
0.608006 0.0110072 0.
0.610006 0.0110071 0.
0.612006 0.0110069 0.
0.614007 0.0110066 0.
0.616007 0.0110063 0.
0.618008 0.0110061 0.
0.620008 0.011006 0.
0.622009 0.0110058 0.
0.624009 0.0110057 0.
0.62601 0.0110056 0.
0.62801 0.0110055 0.
0.630011 0.0110051 0.
0.632013 0.0110048 0.
0.634014 0.0110045 0.
0.636016 0.0110042 0.
0.638018 0.0110039 0.
0.640019 0.0110034 0.
0.642021 0.0110029 0.
0.644023 0.0110024 0.
0.646025 0.0110023 0.
0.648026 0.0110022 0.
0.650028 0.0110021 0.
0.652032 0.0110004 0.
0.654036 0.0109986 0.
0.656042 0.0109957 0.
0.658054 0.0109891 0.
0.660066 0.0109825 0.
0.662086 0.0109708 0.
0.664116 0.0109535 0.
0.666146 0.0109362 0.
0.668201 0.0109192 0.
0.670265 0.0109025 0.
0.67233 0.0108851 0.
0.674529 0.0107802 0.
0.676726 0.0106765 0.
0.679001 0.010562 0.
0.681403 0.0104245 0.
0.68382 0.0102861 0.
0.686656 0.00999217 0.
0.689578 0.00967462 0.
0.692911 0.00901555 0.
0.696386 0.00825795 0.
0.700314 0.00742044 0.
0.704849 0.00606273 0.
0.709567 0.00438332 0.
0.714619 0.00224682 0.
0.480575 0.00208635 0.
0.486286 0.00429677 0.
0.491224 0.00618447 0.
0.495753 0.00799757 0.
0.500434 0.00951495 0.
0.504212 0.0103044 0.
0.507499 0.0108799 0.
0.510608 0.0113875 0.
0.513389 0.0117619 0.
0.516132 0.0121388 0.
0.518554 0.0123132 0.
0.520962 0.0124808 0.
0.523244 0.0126165 0.
0.525444 0.0127379 0.
0.527646 0.0128606 0.
0.529715 0.0128835 0.
0.53178 0.0129048 0.
0.533837 0.0129259 0.
0.535869 0.012945 0.
0.537902 0.0129641 0.
0.539925 0.0129774 0.
0.541939 0.0129853 0.
0.543953 0.0129932 0.
0.54596 0.0129967 0.
0.547965 0.0129989 0.
0.54997 0.013001 0.
0.551972 0.0130014 0.
0.553974 0.0130017 0.
0.555976 0.0130021 0.
0.557977 0.0130025 0.
0.559979 0.0130029 0.
0.561981 0.0130034 0.
0.563983 0.0130038 0.
0.565984 0.0130043 0.
0.567986 0.0130047 0.
0.569988 0.013005 0.
0.571989 0.0130053 0.
0.57399 0.0130056 0.
0.57599 0.0130059 0.
0.57799 0.0130062 0.
0.579991 0.0130065 0.
0.581992 0.0130067 0.
0.583993 0.013007 0.
0.585993 0.0130072 0.
0.587994 0.0130075 0.
0.589994 0.0130075 0.
0.591994 0.0130073 0.
0.593995 0.0130072 0.
0.595996 0.0130071 0.
0.597998 0.0130071 0.
0.6 0.0130071 0.
0.602002 0.0130072 0.
0.604004 0.0130073 0.
0.606006 0.0130074 0.
0.608006 0.0130074 0.
0.610006 0.0130074 0.
0.612007 0.0130072 0.
0.614008 0.0130069 0.
0.616008 0.0130065 0.
0.618009 0.0130062 0.
0.62001 0.013006 0.
0.622011 0.0130058 0.
0.624012 0.0130056 0.
0.626012 0.0130053 0.
0.628013 0.013005 0.
0.630015 0.0130045 0.
0.632016 0.0130041 0.
0.634018 0.0130037 0.
0.63602 0.0130034 0.
0.638022 0.0130031 0.
0.640024 0.0130026 0.
0.642026 0.0130019 0.
0.644028 0.0130012 0.
0.64603 0.0130007 0.
0.648033 0.0130003 0.
0.650036 0.0129998 0.
0.652042 0.0129965 0.
0.654049 0.0129932 0.
0.656058 0.0129878 0.
0.658079 0.0129761 0.
0.660099 0.0129645 0.
0.66213 0.0129477 0.
0.664172 0.0129252 0.
0.666214 0.0129027 0.
0.6683 0.0128676 0.
0.670401 0.0128295 0.
0.672509 0.0127868 0.
0.674775 0.0126309 0.
0.677036 0.0124776 0.
0.679441 0.0122917 0.
0.681976 0.0120777 0.
0.68459 0.0118122 0.
0.687535 0.0113211 0.
0.690662 0.0107959 0.
0.69414 0.0100564 0.
0.697964 0.00918669 0.
0.702429 0.00796676 0.
0.707175 0.00624904 0.
0.712253 0.00437904 0.
0.717967 0.00206793 0.
0.477442 0.00198283 0.
0.483521 0.00431332 0.
0.488879 0.00624805 0.
0.493701 0.00829387 0.
0.498741 0.0100904 0.
0.502697 0.0111452 0.
0.506352 0.0119976 0.
0.509708 0.0126912 0.
0.512691 0.0132523 0.
0.515552 0.0137784 0.
0.518115 0.0140498 0.
0.520619 0.0142724 0.
0.523001 0.0144616 0.
0.525257 0.0146277 0.
0.527516 0.0147964 0.
0.529615 0.0148344 0.
0.531705 0.0148672 0.
0.533784 0.0148987 0.
0.535826 0.0149229 0.
0.537869 0.0149472 0.
0.5399 0.0149648 0.
0.54192 0.0149762 0.
0.54394 0.0149876 0.
0.54595 0.0149929 0.
0.547957 0.014996 0.
0.549964 0.0149992 0.
0.551966 0.0149999 0.
0.553969 0.0150005 0.
0.555971 0.0150011 0.
0.557973 0.0150016 0.
0.559975 0.0150022 0.
0.561977 0.0150027 0.
0.563979 0.0150032 0.
0.565981 0.0150037 0.
0.567983 0.0150042 0.
0.569985 0.0150046 0.
0.571986 0.015005 0.
0.573987 0.0150055 0.
0.575988 0.0150059 0.
0.577989 0.0150064 0.
0.57999 0.0150067 0.
0.58199 0.015007 0.
0.583991 0.0150073 0.
0.585992 0.0150075 0.
0.587993 0.0150078 0.
0.589994 0.0150077 0.
0.591994 0.0150074 0.
0.593995 0.0150071 0.
0.595996 0.0150072 0.
0.597998 0.0150073 0.
0.6 0.0150075 0.
0.602002 0.0150075 0.
0.604004 0.0150074 0.
0.606006 0.0150074 0.
0.608007 0.0150076 0.
0.610007 0.0150077 0.
0.612008 0.0150076 0.
0.614009 0.0150071 0.
0.61601 0.0150066 0.
0.618011 0.0150063 0.
0.620012 0.0150061 0.
0.622013 0.0150059 0.
0.624014 0.0150054 0.
0.626015 0.0150049 0.
0.628016 0.0150044 0.
0.630018 0.0150039 0.
0.63202 0.0150033 0.
0.634022 0.0150029 0.
0.636024 0.0150026 0.
0.638026 0.0150023 0.
0.640028 0.0150017 0.
0.64203 0.0150008 0.
0.644033 0.015 0.
0.646036 0.0149992 0.
0.64804 0.0149984 0.
0.650043 0.0149974 0.
0.652052 0.0149926 0.
0.654061 0.0149877 0.
0.656075 0.0149798 0.
0.658104 0.0149631 0.
0.660133 0.0149464 0.
0.662174 0.0149244 0.
0.664229 0.0148967 0.
0.666283 0.0148691 0.
0.668402 0.0148146 0.
0.670539 0.0147545 0.
0.672696 0.0146843 0.
0.67503 0.0144762 0.
0.677357 0.0142724 0.
0.679917 0.0140034 0.
0.682589 0.0137101 0.
0.685415 0.0132644 0.
0.688456 0.0125808 0.
0.691845 0.0118119 0.
0.695497 0.0109241 0.
0.699481 0.00995767 0.
0.704478 0.0083141 0.
0.709496 0.00630537 0.
0.715116 0.00424724 0.
0.721363 0.0020017 0.
0.474312 0.00189029 0.
0.48074 0.00425948 0.
0.486461 0.00625989 0.
0.491488 0.0084407 0.
0.496705 0.0103514 0.
0.501092 0.0118529 0.
0.505126 0.0130241 0.
0.508705 0.0138985 0.
0.511942 0.0146445 0.
0.514834 0.0152444 0.
0.517522 0.0156358 0.
0.520092 0.015919 0.
0.522581 0.0161814 0.
0.524889 0.016388 0.
0.527209 0.0165999 0.
0.529379 0.0166874 0.
0.53153 0.0167636 0.
0.533664 0.0168333 0.
0.535727 0.0168648 0.
0.537789 0.0168966 0.
0.539838 0.0169229 0.
0.541873 0.0169442 0.
0.543908 0.0169656 0.
0.545926 0.0169767 0.
0.547939 0.0169843 0.
0.549951 0.0169918 0.
0.551956 0.0169942 0.
0.55396 0.0169964 0.
0.555964 0.0169984 0.
0.557968 0.0169997 0.
0.559971 0.0170009 0.
0.561973 0.0170018 0.
0.563976 0.0170025 0.
0.565978 0.0170032 0.
0.56798 0.0170037 0.
0.569982 0.0170042 0.
0.571984 0.0170047 0.
0.573985 0.0170054 0.
0.575986 0.017006 0.
0.577987 0.0170066 0.
0.579988 0.0170069 0.
0.581989 0.0170073 0.
0.58399 0.0170076 0.
0.585991 0.017008 0.
0.587993 0.0170083 0.
0.589993 0.0170082 0.
0.591994 0.0170078 0.
0.593995 0.0170074 0.
0.595997 0.0170076 0.
0.597999 0.0170081 0.
0.6 0.0170085 0.
0.602002 0.0170083 0.
0.604004 0.0170081 0.
0.606006 0.0170079 0.
0.608007 0.0170079 0.
0.610008 0.0170079 0.
0.612009 0.0170077 0.
0.61401 0.0170073 0.
0.616011 0.0170068 0.
0.618013 0.0170065 0.
0.620014 0.0170062 0.
0.622015 0.0170059 0.
0.624017 0.0170053 0.
0.626018 0.0170046 0.
0.628019 0.017004 0.
0.630021 0.0170033 0.
0.632023 0.0170027 0.
0.634025 0.017002 0.
0.636028 0.0170014 0.
0.63803 0.0170007 0.
0.640033 0.0169995 0.
0.642037 0.0169979 0.
0.644041 0.0169962 0.
0.646047 0.0169933 0.
0.648053 0.0169899 0.
0.65006 0.0169864 0.
0.652077 0.0169759 0.
0.654095 0.0169653 0.
0.65612 0.0169502 0.
0.658165 0.0169222 0.
0.660211 0.0168943 0.
0.662276 0.0168615 0.
0.664358 0.0168235 0.
0.666439 0.0167857 0.
0.668633 0.0166777 0.
0.670843 0.0165612 0.
0.673086 0.0164282 0.
0.675472 0.0161756 0.
0.677845 0.0159327 0.
0.680543 0.0155698 0.
0.683297 0.0152095 0.
0.686292 0.0145718 0.
0.689427 0.0137431 0.
0.693074 0.0127619 0.
0.697017 0.0116635 0.
0.701261 0.0104442 0.
0.706413 0.00853403 0.
0.711724 0.00634496 0.
0.717775 0.00420092 0.
0.72452 0.00195776 0.
0.471037 0.00178278 0.
0.477805 0.004191 0.
0.484032 0.00621695 0.
0.489316 0.00846885 0.
0.49469 0.0105319 0.
0.499401 0.012416 0.
0.503664 0.0138416 0.
0.507514 0.0149186 0.
0.51092 0.0157943 0.
0.513894 0.0165094 0.
0.516798 0.0171153 0.
0.519463 0.0174937 0.
0.5221 0.0178668 0.
0.524482 0.0181241 0.
0.526875 0.0183875 0.
0.529126 0.0185288 0.
0.531342 0.0186521 0.
0.53354 0.0187661 0.
0.535624 0.0188055 0.
0.537708 0.018845 0.
0.539776 0.0188803 0.
0.541826 0.0189117 0.
0.543876 0.0189434 0.
0.545902 0.0189605 0.
0.54792 0.0189724 0.
0.549939 0.0189843 0.
0.551945 0.0189884 0.
0.553952 0.0189923 0.
0.555958 0.0189958 0.
0.557962 0.0189977 0.
0.559966 0.0189996 0.
0.56197 0.019001 0.
0.563972 0.0190018 0.
0.565975 0.0190026 0.
0.567977 0.0190033 0.
0.56998 0.0190039 0.
0.571982 0.0190044 0.
0.573983 0.0190052 0.
0.575984 0.0190061 0.
0.577985 0.0190068 0.
0.579987 0.0190072 0.
0.581988 0.0190075 0.
0.58399 0.0190079 0.
0.585991 0.0190084 0.
0.587992 0.0190088 0.
0.589993 0.0190087 0.
0.591994 0.0190082 0.
0.593995 0.0190076 0.
0.595997 0.0190081 0.
0.597999 0.0190088 0.
0.6 0.0190095 0.
0.602002 0.0190091 0.
0.604004 0.0190087 0.
0.606006 0.0190083 0.
0.608007 0.0190082 0.
0.610008 0.0190081 0.
0.61201 0.0190079 0.
0.614011 0.0190075 0.
0.616013 0.019007 0.
0.618014 0.0190066 0.
0.620016 0.0190062 0.
0.622018 0.0190058 0.
0.624019 0.0190051 0.
0.62602 0.0190043 0.
0.628021 0.0190036 0.
0.630024 0.0190028 0.
0.632026 0.019002 0.
0.634029 0.0190012 0.
0.636032 0.0190002 0.
0.638035 0.0189991 0.
0.640039 0.0189973 0.
0.642044 0.0189949 0.
0.64405 0.0189925 0.
0.646058 0.0189873 0.
0.648067 0.0189815 0.
0.650076 0.0189753 0.
0.652102 0.018959 0.
0.654128 0.0189428 0.
0.656164 0.0189202 0.
0.658228 0.0188806 0.
0.66029 0.0188412 0.
0.662381 0.018797 0.
0.664492 0.0187479 0.
0.666602 0.0186991 0.
0.668883 0.0185274 0.
0.671177 0.0183483 0.
0.673518 0.0181435 0.
0.675978 0.017831 0.
0.678465 0.017512 0.
0.681298 0.0170208 0.
0.684198 0.0164998 0.
0.687335 0.0156456 0.
0.690574 0.0147362 0.
0.694359 0.0136378 0.
0.698651 0.0122789 0.
0.703238 0.0106949 0.
0.70856 0.00861863 0.
0.714102 0.00628013 0.
0.72067 0.00423177 0.
0.72772 0.00188786 0.
0.467213 0.0015964 0.
0.474753 0.00416741 0.
0.481578 0.00615326 0.
0.487161 0.00846251 0.
0.492657 0.0106486 0.
0.497528 0.0127118 0.
0.502043 0.0144419 0.
0.506146 0.0157423 0.
0.509701 0.0168164 0.
0.5129 0.017711 0.
0.51602 0.0185304 0.
0.518819 0.0190373 0.
0.521586 0.0195252 0.
0.524077 0.0198345 0.
0.526535 0.0201356 0.
0.528862 0.0203339 0.
0.531135 0.0205106 0.
0.533395 0.0206812 0.
0.535503 0.0207296 0.
0.537612 0.0207783 0.
0.539702 0.0208241 0.
0.541767 0.0208677 0.
0.543832 0.0209117 0.
0.545869 0.0209368 0.
0.547895 0.0209546 0.
0.549921 0.0209725 0.
0.551931 0.0209792 0.
0.55394 0.0209855 0.
0.555949 0.0209911 0.
0.557955 0.020994 0.
0.55996 0.0209969 0.
0.561965 0.020999 0.
0.563968 0.0210001 0.
0.565972 0.0210012 0.
0.567974 0.0210021 0.
0.569977 0.0210029 0.
0.57198 0.0210036 0.
0.573981 0.0210045 0.
0.575982 0.0210055 0.
0.577983 0.0210063 0.
0.579985 0.0210068 0.
0.581987 0.0210072 0.
0.583988 0.0210076 0.
0.58599 0.0210081 0.
0.587992 0.0210086 0.
0.589993 0.0210085 0.
0.591994 0.0210081 0.
0.593995 0.0210076 0.
0.595997 0.0210081 0.
0.597999 0.0210089 0.
0.6 0.0210098 0.
0.602002 0.0210092 0.
0.604004 0.0210087 0.
0.606006 0.0210083 0.
0.608007 0.021008 0.
0.610009 0.0210078 0.
0.61201 0.0210075 0.
0.614012 0.021007 0.
0.616014 0.0210066 0.
0.618016 0.0210061 0.
0.620018 0.0210056 0.
0.622019 0.0210052 0.
0.624021 0.0210043 0.
0.626022 0.0210035 0.
0.628023 0.0210026 0.
0.630026 0.0210016 0.
0.632029 0.0210006 0.
0.634032 0.0209994 0.
0.636036 0.0209978 0.
0.63804 0.0209963 0.
0.640046 0.0209935 0.
0.642053 0.0209898 0.
0.644061 0.0209862 0.
0.646073 0.020978 0.
0.648086 0.0209688 0.
0.6501 0.020959 0.
0.652136 0.0209346 0.
0.654173 0.0209102 0.
0.656222 0.020878 0.
0.658303 0.020826 0.
0.660384 0.0207743 0.
0.662504 0.0207128 0.
0.664649 0.0206453 0.
0.666796 0.020578 0.
0.669152 0.0203392 0.
0.671515 0.0201008 0.
0.673948 0.0198268 0.
0.676482 0.0194635 0.
0.679118 0.0190542 0.
0.682069 0.0184362 0.
0.685181 0.0176775 0.
0.688455 0.0166327 0.
0.691956 0.0155337 0.
0.695814 0.0143493 0.
0.700317 0.0127922 0.
0.705193 0.0108412 0.
0.710697 0.00861734 0.
0.716449 0.00618016 0.
0.723652 0.00424595 0.
0.731687 0.00163382 0.
0.462371 0.00137768 0.
0.471728 0.00411714 0.
0.479124 0.00607989 0.
0.485006 0.00842807 0.
0.490676 0.0107332 0.
0.49573 0.0129301 0.
0.500474 0.0149283 0.
0.504796 0.0164728 0.
0.508513 0.0177419 0.
0.511967 0.018849 0.
0.515246 0.0198163 0.
0.518193 0.0204409 0.
0.521044 0.0209938 0.
0.523643 0.0213962 0.
0.526162 0.0217758 0.
0.528569 0.0220649 0.
0.530893 0.0223171 0.
0.533214 0.022568 0.
0.535355 0.0226308 0.
0.537497 0.0226921 0.
0.539614 0.0227516 0.
0.541694 0.0228103 0.
0.543775 0.0228694 0.
0.545824 0.0229049 0.
0.547861 0.0229305 0.
0.549899 0.0229562 0.
0.551913 0.0229664 0.
0.553926 0.0229759 0.
0.555938 0.0229845 0.
0.557946 0.0229886 0.
0.559954 0.0229928 0.
0.56196 0.0229958 0.
0.563964 0.0229974 0.
0.565968 0.022999 0.
0.567971 0.0230003 0.
0.569974 0.0230013 0.
0.571977 0.0230023 0.
0.573979 0.0230033 0.
0.57598 0.0230043 0.
0.577981 0.0230052 0.
0.579983 0.0230057 0.
0.581985 0.0230062 0.
0.583987 0.0230067 0.
0.585989 0.0230072 0.
0.587991 0.0230077 0.
0.589993 0.0230077 0.
0.591994 0.0230075 0.
0.593995 0.0230072 0.
0.595997 0.0230077 0.
0.597999 0.0230085 0.
0.6 0.0230092 0.
0.602002 0.0230087 0.
0.604004 0.0230082 0.
0.606006 0.0230077 0.
0.608008 0.0230073 0.
0.610009 0.0230069 0.
0.612011 0.0230065 0.
0.614013 0.023006 0.
0.616015 0.0230054 0.
0.618017 0.0230049 0.
0.620019 0.0230044 0.
0.622021 0.0230039 0.
0.624023 0.023003 0.
0.626024 0.023002 0.
0.628026 0.023001 0.
0.630029 0.0229996 0.
0.632033 0.0229983 0.
0.634037 0.0229967 0.
0.636042 0.0229944 0.
0.638046 0.0229922 0.
0.640054 0.0229881 0.
0.642064 0.0229827 0.
0.644074 0.0229772 0.
0.646091 0.0229653 0.
0.64811 0.0229517 0.
0.650129 0.0229371 0.
0.65218 0.0229017 0.
0.654229 0.0228664 0.
0.656295 0.022822 0.
0.658396 0.022756 0.
0.660497 0.0226905 0.
0.662656 0.0225996 0.
0.664847 0.0224977 0.
0.667049 0.0223882 0.
0.669456 0.0220674 0.
0.671863 0.021752 0.
0.674405 0.0213833 0.
0.67702 0.0209543 0.
0.679792 0.0204294 0.
0.682775 0.0197705 0.
0.686109 0.0187749 0.
0.689537 0.0175638 0.
0.6933 0.0162672 0.
0.697384 0.0148608 0.
0.702024 0.0131636 0.
0.707078 0.0109257 0.
0.712768 0.00861772 0.
0.718789 0.00613276 0.
0.726607 0.00426477 0.
0.736517 0.00138203 0.
0.456424 0.00136391 0.
0.468891 0.00410093 0.
0.47679 0.00607369 0.
0.483044 0.00842494 0.
0.488874 0.0108163 0.
0.494024 0.0131131 0.
0.498869 0.0152617 0.
0.50334 0.0170059 0.
0.507332 0.0185814 0.
0.511 0.0198506 0.
0.514314 0.0208841 0.
0.517467 0.0217295 0.
0.520438 0.0224042 0.
0.523189 0.022939 0.
0.525774 0.0234003 0.
0.528267 0.0237858 0.
0.530644 0.0241144 0.
0.533023 0.0244473 0.
0.535205 0.0245311 0.
0.53738 0.0246051 0.
0.539525 0.0246784 0.
0.541621 0.0247522 0.
0.543717 0.0248267 0.
0.54578 0.0248729 0.
0.547828 0.0249062 0.
0.549876 0.0249397 0.
0.551895 0.0249535 0.
0.553912 0.0249663 0.
0.555928 0.0249778 0.
0.557937 0.0249832 0.
0.559947 0.0249887 0.
0.561955 0.0249927 0.
0.56396 0.0249947 0.
0.565964 0.0249968 0.
0.567968 0.0249984 0.
0.569972 0.0249997 0.
0.571975 0.025001 0.
0.573977 0.025002 0.
0.575978 0.025003 0.
0.57798 0.025004 0.
0.579982 0.0250046 0.
0.581984 0.0250053 0.
0.583986 0.0250059 0.
0.585988 0.0250063 0.
0.58799 0.0250068 0.
0.589992 0.0250069 0.
0.591994 0.0250069 0.
0.593995 0.0250069 0.
0.595997 0.0250074 0.
0.597999 0.025008 0.
0.6 0.0250087 0.
0.602003 0.0250082 0.
0.604005 0.0250077 0.
0.606007 0.0250072 0.
0.608008 0.0250066 0.
0.61001 0.0250061 0.
0.612012 0.0250055 0.
0.614014 0.0250049 0.
0.616016 0.0250043 0.
0.618019 0.0250037 0.
0.620021 0.0250032 0.
0.622023 0.0250027 0.
0.624025 0.0250016 0.
0.626026 0.0250005 0.
0.628028 0.0249994 0.
0.630032 0.0249977 0.
0.632036 0.0249961 0.
0.634041 0.0249939 0.
0.636047 0.024991 0.
0.638053 0.024988 0.
0.640063 0.0249826 0.
0.642076 0.0249755 0.
0.644088 0.0249683 0.
0.64611 0.0249524 0.
0.648133 0.0249345 0.
0.650159 0.024915 0.
0.652223 0.0248686 0.
0.654287 0.0248223 0.
0.656369 0.0247657 0.
0.65849 0.0246856 0.
0.66061 0.024606 0.
0.662812 0.0244828 0.
0.665049 0.0243458 0.
0.667312 0.0241883 0.
0.669768 0.0237848 0.
0.672218 0.0233918 0.
0.674894 0.022919 0.
0.677615 0.022409 0.
0.680586 0.0216723 0.
0.683658 0.0208667 0.
0.687083 0.0197278 0.
0.690704 0.0183947 0.
0.694621 0.0169446 0.
0.69898 0.0152597 0.
0.703743 0.0133828 0.
0.708983 0.0109614 0.
0.714808 0.00855627 0.
0.721141 0.00614715 0.
0.729436 0.00424577 0.
0.742543 0.00141493 0.
0.451621 0.00167 0.
0.466268 0.00406641 0.
0.474572 0.00612025 0.
0.481231 0.00844751 0.
0.487105 0.0108867 0.
0.492353 0.0132742 0.
0.497277 0.0154933 0.
0.501873 0.0174335 0.
0.506157 0.0193277 0.
0.509878 0.0207027 0.
0.51334 0.0218863 0.
0.516704 0.0229808 0.
0.519784 0.0237662 0.
0.522703 0.0244442 0.
0.525333 0.024971 0.
0.527888 0.025438 0.
0.530295 0.0258148 0.
0.532717 0.0261984 0.
0.534962 0.0263378 0.
0.537182 0.0264529 0.
0.539373 0.0265622 0.
0.541491 0.0266509 0.
0.543611 0.0267404 0.
0.545696 0.0268029 0.
0.547763 0.026852 0.
0.54983 0.0269017 0.
0.551858 0.0269234 0.
0.553883 0.0269434 0.
0.555906 0.0269613 0.
0.55792 0.0269696 0.
0.559934 0.0269779 0.
0.561945 0.0269844 0.
0.563952 0.0269883 0.
0.565959 0.0269922 0.
0.567964 0.026995 0.
0.569968 0.026997 0.
0.571972 0.0269991 0.
0.573974 0.0270004 0.
0.575976 0.0270016 0.
0.577978 0.0270028 0.
0.57998 0.0270034 0.
0.581983 0.0270041 0.
0.583985 0.0270047 0.
0.585987 0.0270054 0.
0.58799 0.027006 0.
0.589992 0.0270063 0.
0.591994 0.0270064 0.
0.593995 0.0270065 0.
0.595997 0.0270071 0.
0.597999 0.0270077 0.
0.6 0.0270083 0.
0.602003 0.0270077 0.
0.604005 0.0270071 0.
0.606007 0.0270065 0.
0.608009 0.0270059 0.
0.610011 0.0270053 0.
0.612013 0.0270046 0.
0.614015 0.027004 0.
0.616018 0.0270033 0.
0.61802 0.0270026 0.
0.620023 0.0270019 0.
0.622025 0.0270013 0.
0.624027 0.0269999 0.
0.626029 0.0269984 0.
0.628031 0.0269968 0.
0.630036 0.0269941 0.
0.632041 0.0269915 0.
0.634047 0.0269878 0.
0.636056 0.0269823 0.
0.638065 0.0269768 0.
0.64008 0.0269682 0.
0.642099 0.0269575 0.
0.644117 0.0269469 0.
0.646149 0.0269228 0.
0.648183 0.026896 0.
0.650221 0.0268662 0.
0.652306 0.0268 0.
0.654391 0.0267345 0.
0.656502 0.0266584 0.
0.658657 0.0265604 0.
0.660809 0.0264637 0.
0.663062 0.02629 0.
0.665345 0.0261025 0.
0.667676 0.0258745 0.
0.670163 0.0254177 0.
0.67264 0.0249757 0.
0.675435 0.0244183 0.
0.678276 0.0238089 0.
0.681426 0.0228474 0.
0.684677 0.0218336 0.
0.688176 0.0205329 0.
0.691918 0.0191127 0.
0.696 0.0174908 0.
0.700522 0.0156223 0.
0.705371 0.0135534 0.
0.710767 0.0110046 0.
0.716716 0.00851096 0.
0.723323 0.00624311 0.
0.732012 0.00411254 0.
0.747514 0.00180178 0.
0.448782 0.0020938 0.
0.463858 0.00405472 0.
0.472478 0.00621245 0.
0.479403 0.0084834 0.
0.485349 0.0109283 0.
0.490712 0.013405 0.
0.495702 0.0156873 0.
0.500455 0.0178077 0.
0.504934 0.0199441 0.
0.508678 0.0214458 0.
0.512339 0.0228152 0.
0.51586 0.0241127 0.
0.519029 0.0250127 0.
0.522043 0.0258113 0.
0.524718 0.0264149 0.
0.527406 0.0270218 0.
0.529881 0.0274623 0.
0.532363 0.0279049 0.
0.534689 0.0281167 0.
0.536964 0.0282837 0.
0.539209 0.02844 0.
0.541354 0.0285447 0.
0.5435 0.0286504 0.
0.545609 0.0287303 0.
0.547696 0.0287962 0.
0.549784 0.0288628 0.
0.551821 0.028893 0.
0.553854 0.0289202 0.
0.555884 0.0289447 0.
0.557903 0.0289559 0.
0.559921 0.0289671 0.
0.561936 0.0289761 0.
0.563945 0.0289818 0.
0.565954 0.0289876 0.
0.56796 0.0289915 0.
0.569965 0.0289944 0.
0.57197 0.0289972 0.
0.573972 0.0289988 0.
0.575974 0.0290003 0.
0.577976 0.0290016 0.
0.579979 0.0290023 0.
0.581981 0.0290029 0.
0.583984 0.0290036 0.
0.585987 0.0290044 0.
0.587989 0.0290052 0.
0.589991 0.0290057 0.
0.591993 0.0290059 0.
0.593995 0.0290062 0.
0.595997 0.0290067 0.
0.597999 0.0290073 0.
0.6 0.029008 0.
0.602003 0.0290073 0.
0.604005 0.0290065 0.
0.606007 0.0290058 0.
0.608009 0.0290052 0.
0.610011 0.0290045 0.
0.612014 0.0290038 0.
0.614016 0.029003 0.
0.616019 0.0290022 0.
0.618021 0.0290015 0.
0.620024 0.0290007 0.
0.622027 0.0289999 0.
0.624029 0.0289981 0.
0.626032 0.0289963 0.
0.628034 0.0289942 0.
0.63004 0.0289905 0.
0.632046 0.0289868 0.
0.634054 0.0289816 0.
0.636066 0.0289735 0.
0.638078 0.0289654 0.
0.640098 0.0289537 0.
0.642122 0.0289394 0.
0.644146 0.0289252 0.
0.646188 0.0288927 0.
0.648233 0.0288567 0.
0.650284 0.0288159 0.
0.652392 0.0287289 0.
0.654499 0.0286429 0.
0.656644 0.0285453 0.
0.658838 0.0284265 0.
0.661029 0.0283092 0.
0.663345 0.0280714 0.
0.665683 0.0278231 0.
0.668107 0.0275027 0.
0.670667 0.0269682 0.
0.673268 0.026422 0.
0.676123 0.025762 0.
0.679059 0.0250312 0.
0.682305 0.0239334 0.
0.685752 0.0227102 0.
0.689309 0.0212785 0.
0.69319 0.0197324 0.
0.697403 0.0179371 0.
0.702086 0.0159115 0.
0.706975 0.0136671 0.
0.712452 0.0110731 0.
0.718475 0.00853988 0.
0.725384 0.00636536 0.
0.734251 0.00404489 0.
0.750243 0.0022501 0.
0.447295 0.00261213 0.
0.461679 0.00405405 0.
0.470505 0.00632893 0.
0.477646 0.00854749 0.
0.483654 0.0109843 0.
0.489144 0.0135285 0.
0.494187 0.0158781 0.
0.499069 0.0181278 0.
0.503525 0.0203106 0.
0.507455 0.0220944 0.
0.511332 0.023669 0.
0.514893 0.0250388 0.
0.51813 0.0260961 0.
0.521249 0.0270669 0.
0.524077 0.0278235 0.
0.526887 0.0285695 0.
0.529464 0.0290975 0.
0.53201 0.0295951 0.
0.534419 0.0298783 0.
0.536743 0.0300959 0.
0.539041 0.0303049 0.
0.54121 0.0304243 0.
0.543382 0.0305451 0.
0.545515 0.030643 0.
0.54762 0.0307278 0.
0.549727 0.030814 0.
0.551775 0.0308546 0.
0.553817 0.0308906 0.
0.555857 0.0309232 0.
0.55788 0.030938 0.
0.559904 0.0309528 0.
0.561923 0.0309648 0.
0.563935 0.0309729 0.
0.565947 0.0309811 0.
0.567955 0.0309866 0.
0.569961 0.0309906 0.
0.571966 0.0309947 0.
0.573969 0.0309966 0.
0.575972 0.0309983 0.
0.577974 0.0309999 0.
0.579977 0.0310007 0.
0.58198 0.0310015 0.
0.583983 0.0310023 0.
0.585986 0.0310031 0.
0.587988 0.031004 0.
0.589991 0.0310046 0.
0.591993 0.0310051 0.
0.593995 0.0310055 0.
0.595997 0.031006 0.
0.597999 0.0310066 0.
0.6 0.0310072 0.
0.602003 0.0310064 0.
0.604005 0.0310056 0.
0.606007 0.0310048 0.
0.60801 0.0310041 0.
0.610012 0.0310033 0.
0.612014 0.0310026 0.
0.614017 0.0310017 0.
0.61602 0.0310009 0.
0.618023 0.031 0.
0.620026 0.0309989 0.
0.622029 0.0309979 0.
0.624032 0.0309957 0.
0.626035 0.0309934 0.
0.628039 0.0309907 0.
0.630046 0.0309855 0.
0.632053 0.0309803 0.
0.634063 0.0309729 0.
0.636079 0.0309616 0.
0.638095 0.0309504 0.
0.64012 0.0309349 0.
0.64215 0.0309164 0.
0.64418 0.030898 0.
0.646234 0.0308545 0.
0.648292 0.0308067 0.
0.650358 0.0307523 0.
0.652487 0.030644 0.
0.654615 0.0305371 0.
0.656793 0.030415 0.
0.659024 0.0302741 0.
0.661252 0.0301373 0.
0.663628 0.0298372 0.
0.666019 0.0295285 0.
0.668544 0.0291107 0.
0.671179 0.0285002 0.
0.673927 0.0278266 0.
0.676873 0.0270306 0.
0.679977 0.0260586 0.
0.683223 0.0248923 0.
0.686836 0.0235227 0.
0.690509 0.021935 0.
0.694488 0.0202709 0.
0.698817 0.0182983 0.
0.703622 0.0161338 0.
0.708601 0.0137242 0.
0.714133 0.0111148 0.
0.720231 0.00860264 0.
0.72733 0.00652046 0.
0.736337 0.00402131 0.
0.751138 0.00280654 0.
0.446553 0.00322639 0.
0.459791 0.00417598 0.
0.468612 0.00649493 0.
0.475906 0.00865962 0.
0.482042 0.0110413 0.
0.487661 0.0136718 0.
0.492713 0.0160527 0.
0.497658 0.0184012 0.
0.502163 0.0206343 0.
0.506279 0.0226985 0.
0.510276 0.0244274 0.
0.513862 0.0258431 0.
0.517266 0.0271404 0.
0.520473 0.0282649 0.
0.523467 0.0291916 0.
0.526371 0.0300281 0.
0.529035 0.0306262 0.
0.531629 0.0311652 0.
0.534117 0.0315421 0.
0.536491 0.0318403 0.
0.538854 0.032135 0.
0.541051 0.032273 0.
0.543251 0.0324124 0.
0.545409 0.0325329 0.
0.547532 0.0326419 0.
0.549656 0.0327525 0.
0.551718 0.0328066 0.
0.553773 0.0328536 0.
0.555824 0.0328963 0.
0.557853 0.0329155 0.
0.559883 0.0329346 0.
0.561907 0.0329505 0.
0.563922 0.0329614 0.
0.565938 0.0329724 0.
0.567948 0.03298 0.
0.569955 0.0329857 0.
0.571963 0.0329914 0.
0.573966 0.0329938 0.
0.575969 0.0329958 0.
0.577973 0.0329977 0.
0.579976 0.0329987 0.
0.581979 0.0329997 0.
0.583982 0.0330007 0.
0.585985 0.0330016 0.
0.587988 0.0330025 0.
0.58999 0.0330033 0.
0.591992 0.0330038 0.
0.593994 0.0330044 0.
0.595996 0.033005 0.
0.597998 0.0330055 0.
0.6 0.0330061 0.
0.602003 0.0330052 0.
0.604005 0.0330043 0.
0.606008 0.0330034 0.
0.60801 0.0330026 0.
0.610012 0.0330019 0.
0.612015 0.033001 0.
0.614018 0.0330002 0.
0.616021 0.0329993 0.
0.618024 0.0329981 0.
0.620027 0.0329967 0.
0.622031 0.0329953 0.
0.624035 0.0329925 0.
0.626039 0.0329896 0.
0.628044 0.0329861 0.
0.630053 0.0329789 0.
0.632061 0.0329717 0.
0.634075 0.0329616 0.
0.636095 0.0329465 0.
0.638116 0.0329313 0.
0.640147 0.0329113 0.
0.642184 0.0328878 0.
0.644221 0.0328644 0.
0.64629 0.0328063 0.
0.648363 0.032743 0.
0.650447 0.0326706 0.
0.652598 0.0325383 0.
0.654747 0.0324077 0.
0.656959 0.0322458 0.
0.659225 0.0320591 0.
0.661497 0.0318725 0.
0.663942 0.0315029 0.
0.666383 0.0311351 0.
0.668994 0.0306165 0.
0.671657 0.0299679 0.
0.674551 0.0291764 0.
0.677582 0.0282664 0.
0.680864 0.027043 0.
0.684225 0.0257487 0.
0.687896 0.0242813 0.
0.691691 0.0225445 0.
0.695768 0.0207167 0.
0.700186 0.0186274 0.
0.705139 0.0163172 0.
0.710147 0.0137935 0.
0.715735 0.0111649 0.
0.721921 0.00870257 0.
0.729163 0.00669019 0.
0.738166 0.00411829 0.
0.751482 0.0034795 0.
0.446661 0.00394349 0.
0.458323 0.00445246 0.
0.466953 0.00671997 0.
0.474295 0.00880192 0.
0.480536 0.0111441 0.
0.486211 0.0137938 0.
0.491289 0.0162322 0.
0.496312 0.0186539 0.
0.500867 0.0209451 0.
0.505122 0.0232585 0.
0.509118 0.0250633 0.
0.512847 0.0266121 0.
0.516419 0.0281365 0.
0.51969 0.0293696 0.
0.522786 0.0304176 0.
0.525725 0.0313361 0.
0.528532 0.032083 0.
0.53121 0.0327048 0.
0.533802 0.0331929 0.
0.53623 0.0335739 0.
0.538659 0.0339594 0.
0.54089 0.0341202 0.
0.543117 0.0342784 0.
0.545302 0.0344213 0.
0.547443 0.0345547 0.
0.549585 0.03469 0.
0.551661 0.0347584 0.
0.553728 0.0348164 0.
0.555791 0.0348694 0.
0.557826 0.0348929 0.
0.559862 0.0349164 0.
0.56189 0.0349361 0.
0.56391 0.0349499 0.
0.565929 0.0349638 0.
0.567941 0.0349735 0.
0.56995 0.0349808 0.
0.571959 0.0349881 0.
0.573963 0.034991 0.
0.575967 0.0349934 0.
0.577971 0.0349956 0.
0.579974 0.0349968 0.
0.581978 0.034998 0.
0.583981 0.0349991 0.
0.585984 0.035 0.
0.587987 0.035001 0.
0.589989 0.0350019 0.
0.591991 0.0350026 0.
0.593994 0.0350034 0.
0.595996 0.0350039 0.
0.597998 0.0350044 0.
0.600001 0.0350049 0.
0.602003 0.0350039 0.
0.604006 0.0350029 0.
0.606008 0.035002 0.
0.608011 0.0350012 0.
0.610013 0.0350004 0.
0.612016 0.0349995 0.
0.614019 0.0349986 0.
0.616022 0.0349977 0.
0.618025 0.0349962 0.
0.620029 0.0349945 0.
0.622033 0.0349928 0.
0.624038 0.0349894 0.
0.626043 0.0349858 0.
0.628049 0.0349815 0.
0.63006 0.0349723 0.
0.63207 0.0349631 0.
0.634086 0.0349503 0.
0.636112 0.0349313 0.
0.638137 0.0349122 0.
0.640174 0.0348876 0.
0.642218 0.0348592 0.
0.644263 0.0348309 0.
0.646347 0.0347577 0.
0.648435 0.0346786 0.
0.650538 0.034588 0.
0.65271 0.0344315 0.
0.654879 0.034277 0.
0.657128 0.0340716 0.
0.659431 0.0338383 0.
0.661754 0.0336005 0.
0.66427 0.0331563 0.
0.666774 0.0327187 0.
0.669514 0.0320611 0.
0.672259 0.0313188 0.
0.675246 0.0303878 0.
0.678313 0.029408 0.
0.681741 0.0279769 0.
0.685241 0.0265596 0.
0.688926 0.024996 0.
0.692828 0.0231164 0.
0.697052 0.0210917 0.
0.701555 0.0189199 0.
0.706558 0.0164892 0.
0.711586 0.0139012 0.
0.717209 0.011256 0.
0.723453 0.00887902 0.
0.730794 0.00688613 0.
0.73951 0.00438709 0.
0.751219 0.00424479 0.
0.44723 0.00474085 0.
0.457328 0.00489449 0.
0.46558 0.00701469 0.
0.472869 0.00900506 0.
0.479164 0.0113091 0.
0.484898 0.0139592 0.
0.489999 0.0164589 0.
0.495069 0.0189326 0.
0.49966 0.021267 0.
0.503964 0.0237167 0.
0.507972 0.0256363 0.
0.51186 0.0273578 0.
0.515526 0.0290144 0.
0.518851 0.0303489 0.
0.522048 0.0315795 0.
0.525052 0.0326106 0.
0.528007 0.0335178 0.
0.53076 0.0342156 0.
0.533459 0.0348152 0.
0.535918 0.0352531 0.
0.538384 0.0357067 0.
0.540659 0.0359071 0.
0.542919 0.0360942 0.
0.545139 0.0362679 0.
0.547302 0.036423 0.
0.549469 0.0365801 0.
0.551569 0.0366713 0.
0.553656 0.0367506 0.
0.555739 0.0368244 0.
0.557781 0.0368528 0.
0.559824 0.0368813 0.
0.56186 0.0369064 0.
0.563886 0.0369265 0.
0.565912 0.0369466 0.
0.567929 0.0369603 0.
0.56994 0.0369702 0.
0.571952 0.0369802 0.
0.573958 0.0369846 0.
0.575963 0.0369882 0.
0.577968 0.0369916 0.
0.579972 0.0369935 0.
0.581976 0.0369954 0.
0.58398 0.036997 0.
0.585983 0.0369983 0.
0.587986 0.0369995 0.
0.589989 0.0370006 0.
0.591991 0.0370015 0.
0.593994 0.0370024 0.
0.595996 0.0370028 0.
0.597998 0.0370032 0.
0.6 0.0370035 0.
0.602003 0.0370026 0.
0.604006 0.0370017 0.
0.606008 0.0370008 0.
0.608011 0.0369998 0.
0.610013 0.0369989 0.
0.612016 0.0369978 0.
0.61402 0.0369964 0.
0.616023 0.036995 0.
0.618027 0.0369928 0.
0.620032 0.0369903 0.
0.622037 0.0369878 0.
0.624043 0.0369828 0.
0.62605 0.0369776 0.
0.628058 0.0369715 0.
0.630073 0.0369587 0.
0.632087 0.036946 0.
0.634109 0.0369281 0.
0.636142 0.0369012 0.
0.638175 0.0368745 0.
0.64022 0.0368438 0.
0.642273 0.0368104 0.
0.644326 0.0367771 0.
0.646437 0.0366749 0.
0.648551 0.036567 0.
0.650681 0.0364494 0.
0.652877 0.0362749 0.
0.655068 0.0361024 0.
0.657363 0.035845 0.
0.659701 0.0355618 0.
0.662075 0.0352679 0.
0.664626 0.0347774 0.
0.667209 0.0342652 0.
0.670062 0.0334759 0.
0.67292 0.0326118 0.
0.676011 0.0314972 0.
0.67916 0.0303437 0.
0.682607 0.0288635 0.
0.686241 0.0273233 0.
0.68996 0.0256138 0.
0.693892 0.0236704 0.
0.698273 0.0214552 0.
0.702893 0.0191876 0.
0.707886 0.0166553 0.
0.712946 0.0140526 0.
0.718546 0.0114177 0.
0.724838 0.00912647 0.
0.732135 0.0071381 0.
0.74046 0.00481387 0.
0.750639 0.00504714 0.
0.447964 0.00559275 0.
0.456721 0.00544516 0.
0.464452 0.00736903 0.
0.471657 0.00928897 0.
0.477955 0.0115432 0.
0.483726 0.0141914 0.
0.48882 0.0167252 0.
0.493916 0.0192462 0.
0.498511 0.0215963 0.
0.502816 0.0240951 0.
0.506854 0.0261781 0.
0.510886 0.0280828 0.
0.514584 0.0297847 0.
0.517977 0.0312641 0.
0.521255 0.0326774 0.
0.524358 0.0338251 0.
0.52744 0.0348823 0.
0.530212 0.0356137 0.
0.532983 0.036307 0.
0.535501 0.0368329 0.
0.538028 0.0373789 0.
0.540376 0.0376534 0.
0.542684 0.0378858 0.
0.544954 0.0381024 0.
0.547148 0.0382812 0.
0.549345 0.0384624 0.
0.551471 0.0385789 0.
0.55358 0.0386818 0.
0.555685 0.0387784 0.
0.557736 0.038812 0.
0.559786 0.0388456 0.
0.56183 0.0388763 0.
0.563862 0.0389027 0.
0.565895 0.0389293 0.
0.567916 0.038947 0.
0.56993 0.0389597 0.
0.571945 0.0389723 0.
0.573952 0.0389782 0.
0.575959 0.038983 0.
0.577965 0.0389876 0.
0.57997 0.0389902 0.
0.581975 0.0389927 0.
0.583979 0.038995 0.
0.585982 0.0389965 0.
0.587985 0.038998 0.
0.589988 0.0389993 0.
0.591991 0.0390003 0.
0.593994 0.0390014 0.
0.595996 0.0390017 0.
0.597998 0.0390019 0.
0.6 0.039002 0.
0.602003 0.0390012 0.
0.604006 0.0390004 0.
0.606008 0.0389995 0.
0.608011 0.0389985 0.
0.610014 0.0389975 0.
0.612017 0.038996 0.
0.614021 0.0389941 0.
0.616024 0.0389922 0.
0.618029 0.0389894 0.
0.620035 0.0389861 0.
0.622041 0.0389828 0.
0.624049 0.0389763 0.
0.626057 0.0389695 0.
0.628067 0.0389613 0.
0.630086 0.0389451 0.
0.632105 0.0389288 0.
0.634132 0.0389055 0.
0.636173 0.0388707 0.
0.638214 0.038836 0.
0.640268 0.0387992 0.
0.642329 0.0387606 0.
0.644391 0.0387221 0.
0.646532 0.0385871 0.
0.648676 0.0384467 0.
0.650839 0.0382992 0.
0.653065 0.0381031 0.
0.655286 0.0379093 0.
0.657652 0.0375811 0.
0.660052 0.0372311 0.
0.66252 0.036841 0.
0.665128 0.0362537 0.
0.667773 0.0356471 0.
0.670643 0.0348239 0.
0.673617 0.0338225 0.
0.676785 0.0325531 0.
0.680058 0.031192 0.
0.683492 0.0296756 0.
0.687192 0.0280511 0.
0.690997 0.0261803 0.
0.694922 0.0241951 0.
0.699428 0.0218172 0.
0.70411 0.0194738 0.
0.709106 0.016864 0.
0.714194 0.0142515 0.
0.719765 0.0116468 0.
0.726063 0.0094343 0.
0.733249 0.00746369 0.
0.741076 0.00535838 0.
0.74998 0.00588922 0.
0.448553 0.00644146 0.
0.456277 0.00607547 0.
0.463554 0.00778683 0.
0.470607 0.00964263 0.
0.476867 0.0118398 0.
0.482637 0.0144597 0.
0.487726 0.0170226 0.
0.492802 0.0195607 0.
0.497374 0.0219282 0.
0.501695 0.0244481 0.
0.505772 0.0266939 0.
0.509868 0.0287301 0.
0.513587 0.0304654 0.
0.517098 0.0321414 0.
0.52044 0.0336893 0.
0.523647 0.0349566 0.
0.526726 0.0360683 0.
0.529607 0.0369352 0.
0.532466 0.0377543 0.
0.535078 0.0383962 0.
0.537665 0.0390339 0.
0.540092 0.0393916 0.
0.542449 0.0396684 0.
0.544772 0.0399307 0.
0.546991 0.0401283 0.
0.549217 0.0403306 0.
0.55137 0.0404736 0.
0.5535 0.0406026 0.
0.555625 0.0407264 0.
0.557684 0.040765 0.
0.559743 0.0408037 0.
0.561795 0.0408402 0.
0.563834 0.0408737 0.
0.565873 0.0409074 0.
0.567899 0.0409301 0.
0.569917 0.0409461 0.
0.571935 0.0409622 0.
0.573945 0.0409699 0.
0.575953 0.0409764 0.
0.577961 0.0409825 0.
0.579967 0.0409859 0.
0.581972 0.0409893 0.
0.583977 0.0409922 0.
0.585981 0.0409941 0.
0.587985 0.040996 0.
0.589988 0.0409975 0.
0.591991 0.0409987 0.
0.593993 0.0409999 0.
0.595996 0.0410003 0.
0.597998 0.0410004 0.
0.6 0.0410005 0.
0.602003 0.0409997 0.
0.604006 0.0409989 0.
0.606008 0.0409979 0.
0.608011 0.0409967 0.
0.610014 0.0409954 0.
0.612018 0.0409936 0.
0.614022 0.0409911 0.
0.616026 0.0409887 0.
0.618032 0.040985 0.
0.620039 0.0409807 0.
0.622046 0.0409765 0.
0.624056 0.0409679 0.
0.626066 0.040959 0.
0.628079 0.0409483 0.
0.630103 0.0409275 0.
0.632126 0.0409068 0.
0.634159 0.0408775 0.
0.636208 0.0408347 0.
0.638257 0.0407921 0.
0.640321 0.0407474 0.
0.642394 0.0407012 0.
0.644465 0.0406553 0.
0.646633 0.0404854 0.
0.648803 0.0403126 0.
0.650997 0.0401362 0.
0.653251 0.0399243 0.
0.6555 0.0397122 0.
0.657944 0.0393056 0.
0.660408 0.0388887 0.
0.662978 0.0383916 0.
0.665653 0.0377016 0.
0.668414 0.0369427 0.
0.671336 0.036019 0.
0.674344 0.0349125 0.
0.677545 0.0335607 0.
0.680946 0.0320137 0.
0.684433 0.0304175 0.
0.688128 0.0287387 0.
0.692032 0.0267096 0.
0.696032 0.0246094 0.
0.700569 0.0221624 0.
0.70526 0.0197666 0.
0.710245 0.0171055 0.
0.715331 0.0144982 0.
0.720896 0.0119259 0.
0.727123 0.00980082 0.
0.734173 0.00785062 0.
0.741539 0.00597821 0.
0.749463 0.00671406 0.
0.449018 0.00734059 0.
0.456001 0.00677238 0.
0.462849 0.00826582 0.
0.46971 0.0100597 0.
0.475876 0.0121909 0.
0.4816 0.0147412 0.
0.486683 0.0173384 0.
0.49171 0.0198777 0.
0.496266 0.0222702 0.
0.500625 0.0248105 0.
0.50473 0.0271799 0.
0.508806 0.0292914 0.
0.512606 0.0311296 0.
0.516252 0.0329922 0.
0.519641 0.0346134 0.
0.522889 0.0359891 0.
0.52602 0.0372212 0.
0.529021 0.0382328 0.
0.531961 0.0391637 0.
0.534668 0.0399101 0.
0.537277 0.0405925 0.
0.539774 0.0410415 0.
0.542175 0.0413709 0.
0.544555 0.0416922 0.
0.54681 0.0419234 0.
0.549074 0.0421606 0.
0.551258 0.0423414 0.
0.553408 0.0425055 0.
0.555556 0.0426655 0.
0.557625 0.0427096 0.
0.559693 0.0427538 0.
0.561754 0.0427967 0.
0.5638 0.0428384 0.
0.565847 0.0428804 0.
0.567878 0.042909 0.
0.569901 0.0429293 0.
0.571924 0.0429497 0.
0.573936 0.0429598 0.
0.575946 0.0429683 0.
0.577956 0.0429764 0.
0.579963 0.0429806 0.
0.581969 0.0429849 0.
0.583975 0.0429886 0.
0.585979 0.042991 0.
0.587983 0.0429934 0.
0.589987 0.0429953 0.
0.59199 0.0429967 0.
0.593993 0.042998 0.
0.595996 0.0429985 0.
0.597998 0.0429988 0.
0.6 0.042999 0.
0.602003 0.042998 0.
0.604006 0.0429971 0.
0.606009 0.042996 0.
0.608012 0.0429944 0.
0.610015 0.0429928 0.
0.612019 0.0429905 0.
0.614024 0.0429874 0.
0.616029 0.0429842 0.
0.618036 0.0429795 0.
0.620045 0.0429742 0.
0.622053 0.0429688 0.
0.624065 0.0429577 0.
0.626078 0.042946 0.
0.628094 0.0429322 0.
0.630123 0.0429057 0.
0.632152 0.0428793 0.
0.634192 0.0428433 0.
0.63625 0.0427923 0.
0.638306 0.0427415 0.
0.640384 0.0426854 0.
0.642471 0.0426266 0.
0.64456 0.0425665 0.
0.646749 0.0423557 0.
0.648939 0.0421435 0.
0.651178 0.0419174 0.
0.653493 0.0416524 0.
0.655796 0.0413956 0.
0.658286 0.0409343 0.
0.660781 0.0404732 0.
0.663425 0.0398857 0.
0.666161 0.0391181 0.
0.669038 0.0382148 0.
0.672015 0.0371951 0.
0.675127 0.0358951 0.
0.678303 0.0344979 0.
0.681791 0.032823 0.
0.685366 0.0311399 0.
0.68904 0.0294101 0.
0.693059 0.0272168 0.
0.697159 0.0249751 0.
0.701693 0.0225015 0.
0.706361 0.0200603 0.
0.711327 0.0173766 0.
0.716412 0.0147799 0.
0.721941 0.0122568 0.
0.728054 0.0102206 0.
0.734931 0.00830531 0.
0.741879 0.00666563 0.
0.749057 0.00756399 0.
0.449463 0.00823879 0.
0.455911 0.00751709 0.
0.462389 0.00883547 0.
0.469015 0.010557 0.
0.475026 0.0126048 0.
0.480676 0.015093 0.
0.485729 0.0176921 0.
0.490694 0.0202251 0.
0.495251 0.0226561 0.
0.499621 0.0251977 0.
0.503708 0.0276253 0.
0.507793 0.0298256 0.
0.51168 0.0317857 0.
0.515382 0.0337516 0.
0.518807 0.0354468 0.
0.522134 0.0370021 0.
0.525312 0.0383383 0.
0.528423 0.039474 0.
0.531372 0.0404566 0.
0.534149 0.0413091 0.
0.536822 0.042085 0.
0.539422 0.0426617 0.
0.541882 0.0430565 0.
0.54433 0.0434493 0.
0.546624 0.0437152 0.
0.548927 0.0439879 0.
0.551146 0.0442072 0.
0.553316 0.0444067 0.
0.555486 0.0446038 0.
0.557565 0.0446541 0.
0.559644 0.0447039 0.
0.561713 0.044753 0.
0.563767 0.044803 0.
0.56582 0.0448532 0.
0.567857 0.0448879 0.
0.569885 0.0449125 0.
0.571912 0.0449372 0.
0.573926 0.0449497 0.
0.575939 0.0449602 0.
0.577951 0.0449702 0.
0.579959 0.0449753 0.
0.581966 0.0449805 0.
0.583973 0.044985 0.
0.585978 0.0449879 0.
0.587982 0.0449909 0.
0.589986 0.0449931 0.
0.591989 0.0449946 0.
0.593993 0.0449962 0.
0.595995 0.0449968 0.
0.597998 0.0449971 0.
0.6 0.0449975 0.
0.602003 0.0449964 0.
0.604006 0.0449953 0.
0.606009 0.044994 0.
0.608013 0.0449921 0.
0.610016 0.0449902 0.
0.61202 0.0449875 0.
0.614026 0.0449836 0.
0.616032 0.0449797 0.
0.61804 0.0449741 0.
0.62005 0.0449676 0.
0.62206 0.0449611 0.
0.624075 0.0449474 0.
0.62609 0.044933 0.
0.628109 0.044916 0.
0.630144 0.0448838 0.
0.632179 0.0448518 0.
0.634226 0.0448089 0.
0.636291 0.0447497 0.
0.638356 0.0446908 0.
0.640447 0.0446229 0.
0.64255 0.0445514 0.
0.644656 0.0444757 0.
0.646866 0.0442238 0.
0.649076 0.0439719 0.
0.651367 0.0436926 0.
0.653746 0.0433719 0.
0.656124 0.043051 0.
0.658669 0.042522 0.
0.661214 0.0420002 0.
0.663962 0.0412807 0.
0.666715 0.0404542 0.
0.669676 0.0394453 0.
0.672705 0.0383364 0.
0.675905 0.03685 0.
0.679132 0.0353209 0.
0.682614 0.0336143 0.
0.686291 0.0318371 0.
0.689992 0.0299923 0.
0.694048 0.0277131 0.
0.698221 0.0253562 0.
0.702736 0.0228677 0.
0.707375 0.0203831 0.
0.712308 0.017704 0.
0.717376 0.0151188 0.
0.72284 0.0126632 0.
0.728814 0.0107059 0.
0.735441 0.00885679 0.
0.74199 0.00740875 0.
0.748626 0.00844133 0.
0.449966 0.0091319 0.
0.455986 0.00831009 0.
0.462131 0.00949712 0.
0.468498 0.0111291 0.
0.474328 0.0130896 0.
0.479885 0.0155242 0.
0.484882 0.0181032 0.
0.489782 0.0206285 0.
0.494327 0.0230899 0.
0.498691 0.0256243 0.
0.502783 0.0281001 0.
0.506858 0.030369 0.
0.510791 0.0324377 0.
0.514523 0.0344549 0.
0.517992 0.0362588 0.
0.521374 0.0379675 0.
0.524604 0.0393946 0.
0.52775 0.0406177 0.
0.530719 0.0416861 0.
0.533612 0.042685 0.
0.536348 0.0435526 0.
0.539057 0.0442675 0.
0.541569 0.0447242 0.
0.544066 0.0451721 0.
0.546392 0.0454659 0.
0.548723 0.045772 0.
0.550975 0.0460318 0.
0.553163 0.0462588 0.
0.555353 0.0464839 0.
0.557458 0.0465556 0.
0.559562 0.046625 0.
0.561654 0.0466913 0.
0.563716 0.0467496 0.
0.565777 0.0468082 0.
0.567822 0.0468507 0.
0.569857 0.0468825 0.
0.571892 0.0469145 0.
0.57391 0.0469314 0.
0.575926 0.0469457 0.
0.577941 0.0469594 0.
0.579951 0.0469662 0.
0.581961 0.0469729 0.
0.583969 0.0469788 0.
0.585975 0.0469828 0.
0.58798 0.0469868 0.
0.589985 0.0469897 0.
0.591988 0.0469918 0.
0.593992 0.0469939 0.
0.595995 0.0469948 0.
0.597998 0.0469954 0.
0.600001 0.0469959 0.
0.602004 0.0469945 0.
0.604007 0.046993 0.
0.60601 0.0469913 0.
0.608014 0.0469887 0.
0.610018 0.0469861 0.
0.612023 0.0469823 0.
0.614031 0.0469771 0.
0.616038 0.0469718 0.
0.618048 0.0469644 0.
0.62006 0.046956 0.
0.622072 0.0469476 0.
0.624091 0.0469295 0.
0.626111 0.0469106 0.
0.628134 0.0468881 0.
0.630179 0.0468462 0.
0.632224 0.0468046 0.
0.634281 0.0467524 0.
0.636356 0.0466844 0.
0.63843 0.0466168 0.
0.640552 0.046525 0.
0.642687 0.0464264 0.
0.644827 0.046321 0.
0.647055 0.0460426 0.
0.649276 0.0457637 0.
0.651607 0.0454294 0.
0.654028 0.0450601 0.
0.656473 0.0446851 0.
0.659067 0.0440979 0.
0.661677 0.0435012 0.
0.66452 0.0426494 0.
0.667353 0.0417146 0.
0.670365 0.0405795 0.
0.673426 0.0393928 0.
0.676676 0.0377784 0.
0.67997 0.0361132 0.
0.683402 0.0343954 0.
0.687177 0.0325147 0.
0.690951 0.0305294 0.
0.694991 0.0282133 0.
0.699164 0.025788 0.
0.703657 0.0232889 0.
0.708268 0.0207673 0.
0.713157 0.0181029 0.
0.718192 0.0155386 0.
0.723587 0.013152 0.
0.729389 0.0112611 0.
0.735718 0.00950198 0.
0.741906 0.00819587 0.
0.748112 0.00930565 0.
0.450551 0.0100249 0.
0.456162 0.00915664 0.
0.462047 0.0102381 0.
0.468113 0.0117665 0.
0.473783 0.0136494 0.
0.479212 0.0160283 0.
0.48415 0.018582 0.
0.488997 0.0211025 0.
0.493517 0.0235849 0.
0.497854 0.0261062 0.
0.501946 0.0286184 0.
0.505995 0.0309388 0.
0.509936 0.0330763 0.
0.513681 0.0351252 0.
0.517193 0.0370575 0.
0.520606 0.0388707 0.
0.523857 0.0403781 0.
0.527032 0.0417258 0.
0.530064 0.0428861 0.
0.533066 0.0440212 0.
0.535854 0.0449571 0.
0.538591 0.0457555 0.
0.541138 0.0462647 0.
0.543703 0.0467924 0.
0.546094 0.0471541 0.
0.548467 0.0475196 0.
0.550769 0.047837 0.
0.552985 0.0480939 0.
0.555204 0.0483498 0.
0.557341 0.0484483 0.
0.559475 0.0485413 0.
0.561593 0.0486279 0.
0.563663 0.0486948 0.
0.565733 0.0487621 0.
0.567787 0.0488128 0.
0.569829 0.048852 0.
0.571871 0.0488915 0.
0.573894 0.0489129 0.
0.575913 0.0489311 0.
0.577932 0.0489486 0.
0.579943 0.0489569 0.
0.581955 0.0489653 0.
0.583965 0.0489726 0.
0.585971 0.0489777 0.
0.587978 0.0489827 0.
0.589983 0.0489864 0.
0.591987 0.048989 0.
0.593991 0.0489916 0.
0.595995 0.0489928 0.
0.597998 0.0489936 0.
0.600001 0.0489944 0.
0.602004 0.0489926 0.
0.604007 0.0489908 0.
0.606011 0.0489886 0.
0.608015 0.0489853 0.
0.61002 0.048982 0.
0.612026 0.0489772 0.
0.614035 0.0489705 0.
0.616044 0.0489639 0.
0.618056 0.0489547 0.
0.62007 0.0489444 0.
0.622085 0.0489341 0.
0.624108 0.0489115 0.
0.626132 0.0488878 0.
0.628161 0.0488596 0.
0.630216 0.0488077 0.
0.63227 0.0487561 0.
0.634338 0.048694 0.
0.636424 0.0486167 0.
0.638509 0.0485398 0.
0.640666 0.0484189 0.
0.642843 0.048288 0.
0.645025 0.0481468 0.
0.647283 0.0478388 0.
0.649535 0.0475309 0.
0.651912 0.0471156 0.
0.654359 0.0466653 0.
0.656866 0.0462043 0.
0.659512 0.0455798 0.
0.662177 0.044932 0.
0.665083 0.0439842 0.
0.668012 0.0429222 0.
0.671081 0.0416623 0.
0.674198 0.0403253 0.
0.677431 0.0386881 0.
0.680803 0.0368973 0.
0.684251 0.0351104 0.
0.68802 0.0331757 0.
0.69184 0.0310877 0.
0.695886 0.0287136 0.
0.700005 0.0262712 0.
0.704456 0.0237685 0.
0.709037 0.021222 0.
0.713864 0.0185822 0.
0.71885 0.0160441 0.
0.724177 0.0137182 0.
0.729799 0.0118844 0.
0.735838 0.0102288 0.
0.741681 0.00902478 0.
0.747468 0.0101477 0.
0.451153 0.0109236 0.
0.456469 0.010063 0.
0.462081 0.0110317 0.
0.467843 0.0124615 0.
0.473378 0.0142777 0.
0.47865 0.0166017 0.
0.483514 0.0191193 0.
0.488313 0.0216335 0.
0.492798 0.0241212 0.
0.49709 0.026635 0.
0.501176 0.029173 0.
0.505203 0.0315283 0.
0.509129 0.0337143 0.
0.512853 0.0357907 0.
0.516424 0.0378488 0.
0.519833 0.0397192 0.
0.523103 0.0413265 0.
0.526306 0.0427933 0.
0.529404 0.0440527 0.
0.532438 0.0452451 0.
0.535236 0.0462278 0.
0.538034 0.047153 0.
0.540677 0.04778 0.
0.543323 0.0483972 0.
0.545792 0.0488324 0.
0.548209 0.0492571 0.
0.550566 0.049638 0.
0.552809 0.0499225 0.
0.555055 0.050202 0.
0.557223 0.0503279 0.
0.559383 0.0504473 0.
0.561524 0.0505583 0.
0.563603 0.0506333 0.
0.565683 0.0507087 0.
0.567746 0.050768 0.
0.569796 0.0508158 0.
0.571847 0.050864 0.
0.573874 0.0508908 0.
0.575897 0.0509137 0.
0.577919 0.0509356 0.
0.579933 0.0509457 0.
0.581947 0.0509559 0.
0.583959 0.0509648 0.
0.585967 0.0509712 0.
0.587975 0.0509775 0.
0.589981 0.0509822 0.
0.591986 0.0509855 0.
0.59399 0.0509888 0.
0.595994 0.0509903 0.
0.597997 0.0509912 0.
0.600001 0.0509922 0.
0.602004 0.05099 0.
0.604008 0.0509879 0.
0.606012 0.0509853 0.
0.608018 0.050981 0.
0.610023 0.0509768 0.
0.612031 0.0509707 0.
0.614041 0.0509623 0.
0.616052 0.0509539 0.
0.618067 0.0509428 0.
0.620084 0.0509304 0.
0.622101 0.050918 0.
0.624128 0.05089 0.
0.626157 0.0508608 0.
0.628192 0.0508257 0.
0.630258 0.0507622 0.
0.632323 0.0506992 0.
0.634402 0.0506273 0.
0.636498 0.0505418 0.
0.638593 0.0504567 0.
0.640785 0.0503019 0.
0.642997 0.0501368 0.
0.64522 0.0499633 0.
0.64751 0.0496305 0.
0.649792 0.0492951 0.
0.652216 0.0487876 0.
0.654689 0.0482568 0.
0.65728 0.047704 0.
0.660006 0.0470069 0.
0.662787 0.0462324 0.
0.665694 0.0452247 0.
0.668675 0.0440771 0.
0.671797 0.0427184 0.
0.674987 0.0412089 0.
0.678199 0.0395518 0.
0.681608 0.0376691 0.
0.685105 0.0358055 0.
0.68885 0.0338243 0.
0.692666 0.0316673 0.
0.69669 0.0292502 0.
0.700783 0.0267879 0.
0.705167 0.0242942 0.
0.709721 0.0217306 0.
0.714468 0.0191248 0.
0.719378 0.0166214 0.
0.724621 0.0143538 0.
0.730082 0.0125743 0.
0.735839 0.0110223 0.
0.741411 0.00992478 0.
0.746802 0.010977 0.
0.451773 0.0118131 0.
0.456849 0.0110009 0.
0.462182 0.0118688 0.
0.467677 0.0132098 0.
0.473065 0.0149691 0.
0.47817 0.0172348 0.
0.482971 0.0197127 0.
0.48771 0.0222125 0.
0.492159 0.024703 0.
0.496407 0.0272146 0.
0.500464 0.0297587 0.
0.504457 0.0321356 0.
0.508347 0.0343554 0.
0.512079 0.0364725 0.
0.515666 0.0386137 0.
0.519048 0.0405162 0.
0.522363 0.0422633 0.
0.525581 0.0438215 0.
0.528707 0.045149 0.
0.531745 0.0463829 0.
0.534627 0.0474788 0.
0.537483 0.0485197 0.
0.54022 0.0492726 0.
0.542931 0.0499558 0.
0.545464 0.0504528 0.
0.547906 0.0509226 0.
0.550309 0.0513652 0.
0.552598 0.0516801 0.
0.554907 0.0519995 0.
0.557104 0.0521688 0.
0.559279 0.0523294 0.
0.561437 0.0524773 0.
0.563529 0.0525609 0.
0.565622 0.0526448 0.
0.567697 0.0527139 0.
0.569757 0.0527724 0.
0.571817 0.0528312 0.
0.57385 0.0528646 0.
0.575877 0.052893 0.
0.577904 0.0529201 0.
0.57992 0.0529323 0.
0.581937 0.0529444 0.
0.583951 0.0529552 0.
0.585961 0.0529632 0.
0.587971 0.0529712 0.
0.589978 0.0529771 0.
0.591984 0.0529813 0.
0.593989 0.0529855 0.
0.595993 0.0529873 0.
0.597997 0.0529883 0.
0.600001 0.0529893 0.
0.602005 0.0529868 0.
0.60401 0.0529844 0.
0.606014 0.0529813 0.
0.608021 0.0529759 0.
0.610027 0.0529704 0.
0.612037 0.0529627 0.
0.614049 0.0529522 0.
0.616062 0.0529417 0.
0.61808 0.0529284 0.
0.6201 0.0529138 0.
0.62212 0.0528992 0.
0.624154 0.0528646 0.
0.626188 0.0528286 0.
0.628231 0.0527849 0.
0.630308 0.052707 0.
0.632385 0.0526298 0.
0.634477 0.0525465 0.
0.636587 0.052453 0.
0.638696 0.0523599 0.
0.640914 0.0521519 0.
0.643149 0.0519312 0.
0.645407 0.0517051 0.
0.647743 0.0513465 0.
0.650063 0.0509926 0.
0.652537 0.050409 0.
0.655009 0.0498196 0.
0.657692 0.0491823 0.
0.660498 0.0484209 0.
0.663392 0.0475098 0.
0.666345 0.0463969 0.
0.669369 0.0451368 0.
0.672494 0.0437467 0.
0.675753 0.042087 0.
0.678997 0.0403351 0.
0.682403 0.038427 0.
0.685916 0.0365147 0.
0.68964 0.0344807 0.
0.693438 0.0322641 0.
0.697426 0.0298214 0.
0.701503 0.0273412 0.
0.705813 0.0248628 0.
0.710318 0.0222957 0.
0.714994 0.0197198 0.
0.719818 0.0172585 0.
0.724939 0.0150536 0.
0.73027 0.0133226 0.
0.735753 0.011866 0.
0.741054 0.0108813 0.
0.746153 0.0118242 0.
0.452457 0.0126568 0.
0.457315 0.0119553 0.
0.462405 0.0127608 0.
0.467673 0.0140282 0.
0.472893 0.0157433 0.
0.477832 0.0179534 0.
0.482574 0.0203862 0.
0.487219 0.0228644 0.
0.491615 0.0253475 0.
0.495812 0.0278521 0.
0.499835 0.0303922 0.
0.503779 0.0327798 0.
0.50763 0.0350212 0.
0.511349 0.0371688 0.
0.514915 0.039351 0.
0.518298 0.0413154 0.
0.521639 0.0431801 0.
0.52486 0.0447886 0.
0.527998 0.0462012 0.
0.531051 0.0475072 0.
0.534011 0.048701 0.
0.536903 0.0498117 0.
0.539691 0.0506587 0.
0.542428 0.0514123 0.
0.545057 0.0520167 0.
0.547554 0.0525517 0.
0.550028 0.0530783 0.
0.552378 0.0534333 0.
0.554751 0.0537941 0.
0.556985 0.0540068 0.
0.559174 0.0542089 0.
0.561349 0.0543962 0.
0.563454 0.0544882 0.
0.565561 0.0545806 0.
0.567648 0.0546596 0.
0.569717 0.0547287 0.
0.571788 0.0547982 0.
0.573826 0.0548383 0.
0.575858 0.0548723 0.
0.577888 0.0549047 0.
0.579907 0.0549188 0.
0.581927 0.0549329 0.
0.583943 0.0549456 0.
0.585955 0.0549553 0.
0.587967 0.0549649 0.
0.589975 0.0549721 0.
0.591981 0.0549771 0.
0.593988 0.0549822 0.
0.595992 0.0549842 0.
0.597997 0.0549853 0.
0.600001 0.0549863 0.
0.602006 0.0549836 0.
0.604011 0.0549809 0.
0.606017 0.0549773 0.
0.608024 0.0549707 0.
0.610032 0.0549641 0.
0.612043 0.0549547 0.
0.614058 0.0549421 0.
0.616072 0.0549294 0.
0.618093 0.0549139 0.
0.620116 0.0548971 0.
0.622139 0.0548803 0.
0.624179 0.0548391 0.
0.62622 0.0547963 0.
0.62827 0.0547438 0.
0.630359 0.0546514 0.
0.632448 0.0545598 0.
0.634554 0.0544656 0.
0.636677 0.054364 0.
0.6388 0.0542629 0.
0.641045 0.0539977 0.
0.643303 0.053721 0.
0.6456 0.0534438 0.
0.647989 0.0530497 0.
0.650372 0.052651 0.
0.652946 0.051974 0.
0.655491 0.0513132 0.
0.65822 0.0505776 0.
0.661015 0.0497908 0.
0.664003 0.0487504 0.
0.666998 0.0475491 0.
0.670081 0.0461452 0.
0.673204 0.0447052 0.
0.676483 0.0429562 0.
0.679752 0.0411238 0.
0.683168 0.0391907 0.
0.686676 0.0372422 0.
0.690363 0.0351628 0.
0.694136 0.0328963 0.
0.698074 0.0304431 0.
0.702138 0.0279521 0.
0.706369 0.0254936 0.
0.710805 0.0229368 0.
0.715399 0.0203946 0.
0.720131 0.0179781 0.
0.725114 0.0158304 0.
0.730303 0.0141423 0.
0.735558 0.0127685 0.
0.740618 0.0118657 0.
0.745465 0.0126802 0.
0.453205 0.0135251 0.
0.457868 0.0129364 0.
0.462764 0.0137078 0.
0.467833 0.0149176 0.
0.472852 0.016595 0.
0.477638 0.0187592 0.
0.482312 0.0211436 0.
0.486844 0.0235943 0.
0.491171 0.0260602 0.
0.495308 0.0285526 0.
0.499289 0.0310794 0.
0.503178 0.0334759 0.
0.506974 0.0357243 0.
0.510666 0.0378953 0.
0.514208 0.0400878 0.
0.517592 0.0421256 0.
0.520923 0.0440614 0.
0.524141 0.0457181 0.
0.527306 0.0472489 0.
0.530369 0.0486046 0.
0.53338 0.0498586 0.
0.536276 0.0510057 0.
0.53913 0.0519934 0.
0.541911 0.0528456 0.
0.544636 0.0535687 0.
0.547183 0.0541677 0.
0.549717 0.054777 0.
0.55212 0.0551564 0.
0.554528 0.055552 0.
0.556798 0.0558136 0.
0.559005 0.0560537 0.
0.561205 0.0562805 0.
0.563333 0.0563829 0.
0.565463 0.0564864 0.
0.56757 0.0565785 0.
0.569652 0.0566617 0.
0.571736 0.0567456 0.
0.573784 0.0567963 0.
0.575825 0.0568393 0.
0.577864 0.0568807 0.
0.579886 0.0568972 0.
0.581909 0.0569137 0.
0.583929 0.0569289 0.
0.585943 0.0569414 0.
0.587958 0.056954 0.
0.589969 0.0569632 0.
0.591977 0.0569697 0.
0.593985 0.0569762 0.
0.595991 0.0569789 0.
0.597996 0.0569803 0.
0.600001 0.0569818 0.
0.602007 0.0569782 0.
0.604014 0.0569745 0.
0.606021 0.0569697 0.
0.60803 0.0569612 0.
0.61004 0.0569528 0.
0.612054 0.0569408 0.
0.614072 0.0569248 0.
0.616091 0.0569088 0.
0.618115 0.0568906 0.
0.620142 0.0568714 0.
0.622168 0.0568522 0.
0.624221 0.0567977 0.
0.626275 0.0567417 0.
0.628339 0.0566751 0.
0.630442 0.0565679 0.
0.632544 0.0564618 0.
0.634676 0.0563512 0.
0.636829 0.0562341 0.
0.638979 0.0561181 0.
0.641248 0.0558015 0.
0.643517 0.0554795 0.
0.645842 0.055156 0.
0.648254 0.0547391 0.
0.650713 0.0542897 0.
0.653378 0.0535256 0.
0.65601 0.0527817 0.
0.658818 0.0519075 0.
0.661644 0.0510115 0.
0.664629 0.0499194 0.
0.667661 0.0486502 0.
0.670775 0.0471408 0.
0.673925 0.0456013 0.
0.67718 0.0438251 0.
0.680466 0.0419337 0.
0.683855 0.0399787 0.
0.687369 0.0379924 0.
0.691005 0.0358891 0.
0.694757 0.0335793 0.
0.698634 0.0311251 0.
0.70266 0.028638 0.
0.706838 0.0261875 0.
0.711178 0.0236602 0.
0.715678 0.0211529 0.
0.720313 0.0187826 0.
0.725149 0.0166855 0.
0.730168 0.015035 0.
0.735233 0.0137291 0.
0.740096 0.0128761 0.
0.744717 0.0135183 0.
0.454022 0.0144104 0.
0.458505 0.0139609 0.
0.46323 0.014708 0.
0.468099 0.0158691 0.
0.472926 0.0175236 0.
0.477576 0.0196469 0.
0.482148 0.0219809 0.
0.486567 0.0243958 0.
0.490818 0.0268417 0.
0.494893 0.0293196 0.
0.498816 0.0318268 0.
0.502644 0.0342268 0.
0.50639 0.0364756 0.
0.510047 0.0386595 0.
0.513545 0.0408485 0.
0.516915 0.0429477 0.
0.520241 0.0449182 0.
0.523452 0.0466492 0.
0.526618 0.0482705 0.
0.529692 0.049672 0.
0.532712 0.0509696 0.
0.535642 0.0521825 0.
0.53856 0.0532936 0.
0.54138 0.054232 0.
0.544172 0.0550614 0.
0.546744 0.0556799 0.
0.549337 0.0563127 0.
0.551786 0.0567805 0.
0.554226 0.0572634 0.
0.556552 0.0575991 0.
0.558796 0.0578795 0.
0.561038 0.0581511 0.
0.563195 0.0582678 0.
0.565355 0.0583855 0.
0.567487 0.0584929 0.
0.569584 0.0585915 0.
0.571681 0.058691 0.
0.573741 0.0587531 0.
0.575791 0.0588056 0.
0.577839 0.0588564 0.
0.579865 0.0588753 0.
0.581891 0.0588942 0.
0.583914 0.058912 0.
0.585932 0.0589275 0.
0.58795 0.0589429 0.
0.589963 0.0589543 0.
0.591973 0.0589623 0.
0.593982 0.0589702 0.
0.595989 0.0589735 0.
0.597995 0.0589754 0.
0.600001 0.0589773 0.
0.602009 0.0589727 0.
0.604016 0.0589681 0.
0.606024 0.0589622 0.
0.608037 0.0589518 0.
0.610049 0.0589413 0.
0.612066 0.0589268 0.
0.614088 0.0589073 0.
0.616109 0.0588879 0.
0.618137 0.058867 0.
0.620167 0.0588453 0.
0.622198 0.0588237 0.
0.624265 0.058755 0.
0.626333 0.0586848 0.
0.628412 0.0586028 0.
0.630531 0.0584796 0.
0.632649 0.0583576 0.
0.634815 0.0582259 0.
0.637009 0.0580862 0.
0.639206 0.0579398 0.
0.641515 0.05757 0.
0.643819 0.0571993 0.
0.646215 0.0568024 0.
0.648679 0.0563134 0.
0.651185 0.0557813 0.
0.653858 0.0550059 0.
0.656559 0.0542008 0.
0.659417 0.0532028 0.
0.662292 0.0521891 0.
0.665294 0.051004 0.
0.66833 0.0496954 0.
0.671457 0.0481279 0.
0.674626 0.0464972 0.
0.677846 0.0447005 0.
0.681131 0.0427663 0.
0.684502 0.0407893 0.
0.687992 0.0387783 0.
0.691577 0.0366597 0.
0.695288 0.0343231 0.
0.699111 0.0318701 0.
0.703086 0.0293952 0.
0.707215 0.0269493 0.
0.711459 0.024456 0.
0.715858 0.021987 0.
0.720387 0.0196632 0.
0.725076 0.0176048 0.
0.729909 0.0159913 0.
0.73478 0.0147472 0.
0.73948 0.0139195 0.
0.743902 0.0143992 0.
0.454896 0.0153264 0.
0.459204 0.0150376 0.
0.463758 0.015755 0.
0.468424 0.016868 0.
0.473069 0.018511 0.
0.47761 0.0205993 0.
0.482049 0.0228779 0.
0.486366 0.0252589 0.
0.490535 0.0276792 0.
0.494534 0.0301374 0.
0.4984 0.0326289 0.
0.502173 0.0350261 0.
0.505861 0.0372688 0.
0.509463 0.0394541 0.
0.512915 0.0416349 0.
0.516281 0.0437847 0.
0.519572 0.0457673 0.
0.522771 0.0475775 0.
0.525934 0.0492623 0.
0.529004 0.0507061 0.
0.532033 0.0520664 0.
0.535 0.0533333 0.
0.53796 0.0545342 0.
0.540782 0.055529 0.
0.543591 0.0564397 0.
0.546259 0.0571357 0.
0.548935 0.0578263 0.
0.55145 0.0583894 0.
0.553922 0.0589594 0.
0.556305 0.0593802 0.
0.558586 0.0597003 0.
0.560867 0.0600128 0.
0.563054 0.0601437 0.
0.565243 0.0602756 0.
0.5674 0.0604 0.
0.569509 0.060513 0.
0.571619 0.0606269 0.
0.57369 0.0607018 0.
0.575751 0.0607663 0.
0.577811 0.0608292 0.
0.57984 0.0608504 0.
0.58187 0.0608717 0.
0.583896 0.060892 0.
0.585917 0.0609107 0.
0.587938 0.0609294 0.
0.589954 0.0609432 0.
0.591966 0.0609529 0.
0.593978 0.0609626 0.
0.595986 0.0609666 0.
0.597994 0.0609689 0.
0.600002 0.0609712 0.
0.602011 0.0609655 0.
0.60402 0.0609598 0.
0.606031 0.0609526 0.
0.608046 0.0609398 0.
0.610061 0.0609271 0.
0.612081 0.0609097 0.
0.614106 0.0608868 0.
0.616131 0.0608639 0.
0.618164 0.0608395 0.
0.620199 0.0608143 0.
0.622233 0.0607892 0.
0.624316 0.0607037 0.
0.626399 0.0606175 0.
0.628494 0.0605195 0.
0.630626 0.0603825 0.
0.632757 0.0602467 0.
0.634958 0.0600919 0.
0.637191 0.0599319 0.
0.639437 0.0597536 0.
0.641783 0.0593327 0.
0.644122 0.0589136 0.
0.646601 0.0584349 0.
0.649128 0.0578685 0.
0.651716 0.0572089 0.
0.654421 0.05635 0.
0.657169 0.0554783 0.
0.660032 0.0544453 0.
0.662942 0.0533396 0.
0.665954 0.0520801 0.
0.669011 0.0506764 0.
0.672126 0.0490992 0.
0.675305 0.0473969 0.
0.678512 0.0455606 0.
0.68177 0.0436087 0.
0.685109 0.041628 0.
0.688559 0.0395994 0.
0.692102 0.0374627 0.
0.695755 0.0351138 0.
0.699536 0.0326617 0.
0.703431 0.030215 0.
0.707509 0.0277734 0.
0.711672 0.025308 0.
0.715975 0.0228798 0.
0.720383 0.0206023 0.
0.724933 0.0185779 0.
0.72959 0.016987 0.
0.734251 0.0158035 0.
0.738797 0.0150138 0.
0.743057 0.0153201 0.
0.455777 0.0163061 0.
0.459929 0.0161427 0.
0.464303 0.0168208 0.
0.468787 0.0179129 0.
0.473281 0.019558 0.
0.477698 0.0216051 0.
0.482014 0.023831 0.
0.486232 0.0261792 0.
0.490309 0.0285731 0.
0.494231 0.0310091 0.
0.498036 0.0334806 0.
0.501739 0.0358648 0.
0.50537 0.0381019 0.
0.508905 0.0402774 0.
0.512318 0.0424493 0.
0.515667 0.0446281 0.
0.518914 0.0466312 0.
0.522113 0.0485121 0.
0.525253 0.0502156 0.
0.528326 0.0517334 0.
0.531361 0.0531524 0.
0.534357 0.0544589 0.
0.537298 0.0556875 0.
0.540156 0.0567771 0.
0.543005 0.0577947 0.
0.545766 0.0585829 0.
0.548522 0.0593212 0.
0.5511 0.0599601 0.
0.553576 0.0605844 0.
0.556015 0.0610835 0.
0.558338 0.0614378 0.
0.560675 0.0617917 0.
0.562898 0.0619637 0.
0.565114 0.0621338 0.
0.567298 0.0622906 0.
0.569418 0.0624179 0.
0.57154 0.0625464 0.
0.573627 0.0626379 0.
0.575703 0.0627188 0.
0.577779 0.0627984 0.
0.579811 0.0628219 0.
0.581844 0.0628454 0.
0.583875 0.0628684 0.
0.585899 0.0628907 0.
0.587923 0.062913 0.
0.589942 0.0629297 0.
0.591957 0.0629416 0.
0.593972 0.0629534 0.
0.595983 0.0629581 0.
0.597993 0.0629608 0.
0.600003 0.0629634 0.
0.602014 0.0629565 0.
0.604026 0.0629496 0.
0.606039 0.0629407 0.
0.608057 0.0629253 0.
0.610076 0.0629098 0.
0.612099 0.0628892 0.
0.614128 0.0628628 0.
0.616157 0.0628365 0.
0.618196 0.0628072 0.
0.620237 0.0627767 0.
0.622279 0.0627458 0.
0.62438 0.0626391 0.
0.62648 0.0625319 0.
0.628593 0.0624143 0.
0.63074 0.0622634 0.
0.632886 0.0621137 0.
0.635133 0.061904 0.
0.637413 0.0616809 0.
0.639708 0.0614449 0.
0.642094 0.0610087 0.
0.644462 0.0605721 0.
0.647004 0.0600274 0.
0.649582 0.0594027 0.
0.652242 0.058615 0.
0.654978 0.0576781 0.
0.657788 0.0567078 0.
0.660672 0.0556175 0.
0.663602 0.0544532 0.
0.666602 0.0531541 0.
0.669681 0.0516566 0.
0.672789 0.0500493 0.
0.675959 0.0482993 0.
0.679149 0.0464344 0.
0.682398 0.0444695 0.
0.685695 0.04249 0.
0.689099 0.0404503 0.
0.692597 0.038294 0.
0.696183 0.0359483 0.
0.699915 0.0335004 0.
0.703734 0.0310804 0.
0.707727 0.0286576 0.
0.711822 0.0262206 0.
0.716028 0.0238326 0.
0.720324 0.0215914 0.
0.724733 0.0196051 0.
0.729231 0.0180226 0.
0.733707 0.016886 0.
0.738085 0.0161467 0.
0.742209 0.0162979 0.
0.456664 0.0173264 0.
0.46068 0.0172705 0.
0.464898 0.0179214 0.
0.46924 0.0190218 0.
0.473594 0.0206703 0.
0.477865 0.0226739 0.
0.482079 0.0248581 0.
0.486183 0.0271711 0.
0.49015 0.029534 0.
0.493997 0.0319464 0.
0.497736 0.0343934 0.
0.501366 0.0367577 0.
0.504927 0.0389813 0.
0.508395 0.0411429 0.
0.511766 0.0433049 0.
0.515076 0.0454883 0.
0.518296 0.0475172 0.
0.521468 0.0494398 0.
0.524591 0.0511679 0.
0.527676 0.0527637 0.
0.530707 0.0542174 0.
0.533694 0.0555433 0.
0.536633 0.0568214 0.
0.539524 0.0580008 0.
0.542401 0.0591018 0.
0.545214 0.0599652 0.
0.547976 0.0607389 0.
0.550615 0.0614593 0.
0.553159 0.0621561 0.
0.555696 0.0627609 0.
0.558076 0.0631626 0.
0.560474 0.0635663 0.
0.562738 0.0637799 0.
0.564983 0.0639885 0.
0.567195 0.0641806 0.
0.569327 0.0643224 0.
0.571461 0.0644654 0.
0.573563 0.0645735 0.
0.575654 0.064671 0.
0.577746 0.0647674 0.
0.579782 0.0647934 0.
0.581819 0.0648192 0.
0.583853 0.0648448 0.
0.585881 0.0648707 0.
0.587908 0.0648966 0.
0.589931 0.0649162 0.
0.591948 0.0649302 0.
0.593966 0.0649441 0.
0.595979 0.0649497 0.
0.597991 0.0649526 0.
0.600003 0.0649556 0.
0.602017 0.0649475 0.
0.604031 0.0649394 0.
0.606047 0.0649289 0.
0.608069 0.0649107 0.
0.61009 0.0648925 0.
0.612118 0.0648688 0.
0.614151 0.0648388 0.
0.616184 0.0648089 0.
0.618228 0.0647748 0.
0.620276 0.064739 0.
0.622325 0.0647019 0.
0.624444 0.0645738 0.
0.626562 0.0644455 0.
0.628693 0.0643086 0.
0.630855 0.0641436 0.
0.633015 0.06398 0.
0.635314 0.0637093 0.
0.637643 0.0634214 0.
0.639995 0.0631249 0.
0.64244 0.0626547 0.
0.644875 0.0621773 0.
0.647495 0.0615278 0.
0.650104 0.0608372 0.
0.652801 0.0599601 0.
0.655548 0.058973 0.
0.658413 0.0579222 0.
0.661317 0.05678 0.
0.66427 0.0555345 0.
0.667257 0.0542042 0.
0.670331 0.0526417 0.
0.673427 0.0509935 0.
0.676585 0.049215 0.
0.679753 0.0473318 0.
0.682972 0.0453634 0.
0.686248 0.0433799 0.
0.689604 0.0413385 0.
0.693043 0.039171 0.
0.696561 0.0368349 0.
0.700221 0.0344046 0.
0.703974 0.0320043 0.
0.707865 0.0296128 0.
0.711879 0.0272052 0.
0.715987 0.0248627 0.
0.720173 0.0226532 0.
0.724438 0.0206946 0.
0.728792 0.0191166 0.
0.733114 0.0179976 0.
0.737336 0.0172902 0.
0.741341 0.0173229 0.
0.457559 0.0183799 0.
0.461464 0.018428 0.
0.465568 0.0190683 0.
0.469779 0.0201935 0.
0.473973 0.021839 0.
0.478121 0.0238079 0.
0.482227 0.0259624 0.
0.486205 0.0282358 0.
0.490081 0.0305699 0.
0.493843 0.0329549 0.
0.497503 0.0353726 0.
0.501058 0.0377142 0.
0.504545 0.0399216 0.
0.50794 0.042061 0.
0.511272 0.0442104 0.
0.514534 0.0463858 0.
0.517712 0.0484301 0.
0.520863 0.0503752 0.
0.523973 0.0521373 0.
0.527045 0.0537885 0.
0.530055 0.0552613 0.
0.533036 0.0566314 0.
0.535972 0.057947 0.
0.538884 0.0591781 0.
0.541762 0.0602998 0.
0.544602 0.0612553 0.
0.547387 0.0621153 0.
0.550107 0.0629415 0.
0.552716 0.0637089 0.
0.55535 0.0644242 0.
0.557784 0.0648655 0.
0.560209 0.0652957 0.
0.562514 0.0655549 0.
0.564791 0.0658077 0.
0.567042 0.0660447 0.
0.569189 0.0661948 0.
0.57134 0.0663459 0.
0.573461 0.0664712 0.
0.575568 0.0665897 0.
0.577677 0.0667082 0.
0.579727 0.066744 0.
0.581776 0.0667786 0.
0.583821 0.0668117 0.
0.585852 0.0668409 0.
0.587884 0.06687 0.
0.589911 0.0668926 0.
0.591933 0.0669094 0.
0.593955 0.0669261 0.
0.595973 0.0669328 0.
0.597989 0.0669364 0.
0.600005 0.0669399 0.
0.602024 0.0669298 0.
0.604042 0.0669197 0.
0.606062 0.0669069 0.
0.608089 0.0668854 0.
0.610116 0.0668639 0.
0.612149 0.0668366 0.
0.614187 0.0668029 0.
0.616225 0.0667693 0.
0.618284 0.066724 0.
0.620349 0.0666754 0.
0.622416 0.0666233 0.
0.624554 0.0664708 0.
0.626689 0.0663194 0.
0.628842 0.0661645 0.
0.631025 0.0659916 0.
0.633203 0.0658201 0.
0.635547 0.0654799 0.
0.637914 0.0651311 0.
0.640316 0.0647836 0.
0.642806 0.0642897 0.
0.64532 0.0637638 0.
0.648003 0.0630073 0.
0.650668 0.0622147 0.
0.653419 0.0612308 0.
0.65617 0.0602064 0.
0.659053 0.0591105 0.
0.661969 0.0579289 0.
0.664931 0.0566092 0.
0.667912 0.0552196 0.
0.67097 0.0536301 0.
0.67404 0.0519536 0.
0.677162 0.0501583 0.
0.680314 0.0482637 0.
0.683498 0.0462967 0.
0.686744 0.0443128 0.
0.690049 0.0422762 0.
0.69343 0.0401055 0.
0.69688 0.0377803 0.
0.700453 0.0353779 0.
0.704138 0.032999 0.
0.707922 0.0306449 0.
0.711836 0.0282654 0.
0.715846 0.0259718 0.
0.719927 0.0237914 0.
0.724066 0.0218447 0.
0.728275 0.0202715 0.
0.732469 0.019149 0.
0.736559 0.0184527 0.
0.740465 0.0183952 0.
0.458484 0.019491 0.
0.4623 0.0196154 0.
0.466296 0.0202648 0.
0.470359 0.021414 0.
0.474413 0.0230621 0.
0.478454 0.0250068 0.
0.482431 0.0271281 0.
0.486295 0.0293685 0.
0.490084 0.0316768 0.
0.493762 0.0340346 0.
0.497336 0.0364208 0.
0.500815 0.0387388 0.
0.504222 0.0409247 0.
0.507552 0.0430378 0.
0.510833 0.045169 0.
0.514035 0.0473262 0.
0.517177 0.0493829 0.
0.5203 0.0513359 0.
0.523376 0.0531244 0.
0.526424 0.0548061 0.
0.529415 0.0563096 0.
0.532387 0.0577222 0.
0.535315 0.0590573 0.
0.538238 0.0603109 0.
0.541116 0.0614684 0.
0.54398 0.062517 0.
0.546786 0.0634562 0.
0.549563 0.0643784 0.
0.552206 0.0651745 0.
0.554843 0.0659171 0.
0.557327 0.0664294 0.
0.559816 0.0669387 0.
0.562207 0.0672786 0.
0.564541 0.0675935 0.
0.566858 0.0678945 0.
0.56903 0.0680545 0.
0.571205 0.0682154 0.
0.573349 0.0683599 0.
0.575476 0.0685023 0.
0.577604 0.0686451 0.
0.579669 0.0686923 0.
0.581731 0.0687368 0.
0.583788 0.0687782 0.
0.585824 0.0688106 0.
0.58786 0.0688431 0.
0.589891 0.0688688 0.
0.591918 0.0688883 0.
0.593944 0.0689079 0.
0.595966 0.0689157 0.
0.597987 0.06892 0.
0.600007 0.0689241 0.
0.60203 0.068912 0.
0.604053 0.0688998 0.
0.606078 0.0688846 0.
0.60811 0.0688597 0.
0.610142 0.0688349 0.
0.61218 0.0688039 0.
0.614224 0.0687663 0.
0.616268 0.0687288 0.
0.618343 0.0686712 0.
0.620426 0.0686082 0.
0.622515 0.0685386 0.
0.624674 0.0683587 0.
0.62683 0.0681803 0.
0.629014 0.0680047 0.
0.631231 0.0678205 0.
0.633444 0.0676359 0.
0.635844 0.0672005 0.
0.638251 0.0667698 0.
0.640731 0.0663502 0.
0.64327 0.065819 0.
0.645839 0.0652374 0.
0.648537 0.0644384 0.
0.651254 0.0635508 0.
0.654049 0.0624831 0.
0.656842 0.0613984 0.
0.659721 0.0602646 0.
0.662631 0.0590541 0.
0.665587 0.0576789 0.
0.66856 0.0562298 0.
0.671582 0.0546324 0.
0.674632 0.0529349 0.
0.677709 0.0511318 0.
0.680827 0.0492336 0.
0.683973 0.0472754 0.
0.687174 0.0452987 0.
0.690436 0.0432649 0.
0.693751 0.0411025 0.
0.697147 0.0387897 0.
0.700623 0.0364197 0.
0.704231 0.0340653 0.
0.707917 0.0317454 0.
0.711722 0.0294008 0.
0.715636 0.0271377 0.
0.719608 0.0249958 0.
0.723631 0.0230546 0.
0.727703 0.0214794 0.
0.731772 0.0203457 0.
0.735758 0.0196495 0.
0.739567 0.0195105 0.
0.45943 0.0206633 0.
0.463151 0.020829 0.
0.467028 0.0215016 0.
0.470953 0.0226795 0.
0.474895 0.0243317 0.
0.478822 0.0262587 0.
0.482674 0.028347 0.
0.486453 0.0305676 0.
0.490147 0.0328465 0.
0.493735 0.0351749 0.
0.497217 0.0375292 0.
0.500615 0.0398194 0.
0.503934 0.0419739 0.
0.5072 0.044058 0.
0.510421 0.0461664 0.
0.513568 0.0483037 0.
0.516679 0.0503654 0.
0.519751 0.0523154 0.
0.522795 0.0541276 0.
0.525814 0.0558198 0.
0.528784 0.0573605 0.
0.531741 0.0588024 0.
0.534672 0.0601576 0.
0.537588 0.0614367 0.
0.54047 0.0626251 0.
0.543344 0.0637371 0.
0.546159 0.0647425 0.
0.548935 0.0656808 0.
0.551607 0.0665294 0.
0.55428 0.0673446 0.
0.556847 0.067974 0.
0.559407 0.0685647 0.
0.561891 0.0689924 0.
0.564285 0.0693701 0.
0.566674 0.0697425 0.
0.568869 0.0699106 0.
0.571066 0.0700778 0.
0.573235 0.07024 0.
0.575378 0.0704044 0.
0.577524 0.0705694 0.
0.579605 0.0706312 0.
0.581681 0.0706883 0.
0.58375 0.0707408 0.
0.585791 0.0707763 0.
0.587832 0.0708119 0.
0.589868 0.0708406 0.
0.5919 0.070863 0.
0.593931 0.0708854 0.
0.595958 0.0708944 0.
0.597984 0.0708992 0.
0.600009 0.070904 0.
0.602038 0.0708898 0.
0.604066 0.0708755 0.
0.606096 0.0708578 0.
0.608134 0.0708293 0.
0.610172 0.0708009 0.
0.612217 0.0707662 0.
0.614267 0.070725 0.
0.616317 0.0706838 0.
0.618408 0.0706103 0.
0.620509 0.0705298 0.
0.622618 0.0704399 0.
0.624797 0.0702365 0.
0.626972 0.0700347 0.
0.629188 0.0698413 0.
0.631438 0.069647 0.
0.633696 0.0694354 0.
0.636145 0.0689075 0.
0.638593 0.0683943 0.
0.641164 0.0679035 0.
0.643775 0.0673149 0.
0.646431 0.0666181 0.
0.649151 0.0657516 0.
0.651885 0.0648106 0.
0.654696 0.0637133 0.
0.657522 0.0625774 0.
0.660396 0.0613977 0.
0.6633 0.0601413 0.
0.666236 0.0587451 0.
0.669197 0.0572499 0.
0.672188 0.0556425 0.
0.675198 0.0539335 0.
0.678243 0.0521263 0.
0.681317 0.0502326 0.
0.68442 0.0482849 0.
0.687567 0.0463229 0.
0.690781 0.0442995 0.
0.694032 0.0421481 0.
0.697359 0.039859 0.
0.700762 0.037517 0.
0.704263 0.0351963 0.
0.70787 0.0329037 0.
0.711552 0.0306049 0.
0.715364 0.0283647 0.
0.719237 0.02625 0.
0.723159 0.0243184 0.
0.72711 0.0227291 0.
0.731052 0.0215783 0.
0.734931 0.0208825 0.
0.738648 0.0206826 0.
0.46037 0.0218635 0.
0.463995 0.0220611 0.
0.467756 0.0227748 0.
0.471564 0.0239904 0.
0.475407 0.0256456 0.
0.479219 0.027556 0.
0.482963 0.0296246 0.
0.486655 0.0318221 0.
0.490248 0.0340702 0.
0.493737 0.0363687 0.
0.497123 0.0386901 0.
0.500431 0.0409448 0.
0.503666 0.0430639 0.
0.506871 0.045121 0.
0.510026 0.047202 0.
0.513122 0.0493154 0.
0.516188 0.0513682 0.
0.519217 0.0533155 0.
0.522229 0.0551439 0.
0.525209 0.0568425 0.
0.528162 0.0584183 0.
0.531113 0.059877 0.
0.534033 0.0612527 0.
0.536934 0.0625579 0.
0.53982 0.0637732 0.
0.542688 0.0649202 0.
0.545497 0.0659676 0.
0.548286 0.0669505 0.
0.551005 0.0678688 0.
0.55371 0.0687468 0.
0.556347 0.069483 0.
0.558952 0.070123 0.
0.561501 0.0706232 0.
0.563924 0.07104 0.
0.566355 0.0714586 0.
0.568617 0.0716737 0.
0.570884 0.0718911 0.
0.573105 0.0720951 0.
0.575267 0.0722823 0.
0.577432 0.0724705 0.
0.57953 0.0725535 0.
0.581621 0.0726295 0.
0.583704 0.0726982 0.
0.585751 0.0727368 0.
0.587799 0.0727755 0.
0.589841 0.0728073 0.
0.591879 0.0728326 0.
0.593916 0.0728579 0.
0.595949 0.0728681 0.
0.597981 0.0728736 0.
0.600012 0.0728791 0.
0.602047 0.0728625 0.
0.604081 0.072846 0.
0.606118 0.0728255 0.
0.608163 0.0727931 0.
0.610207 0.0727608 0.
0.612259 0.0727221 0.
0.614318 0.072677 0.
0.616377 0.0726319 0.
0.618485 0.0725348 0.
0.620603 0.072428 0.
0.622733 0.0723095 0.
0.624936 0.0720829 0.
0.627134 0.0718582 0.
0.629408 0.0716178 0.
0.631722 0.0713735 0.
0.634051 0.0710955 0.
0.636527 0.0705274 0.
0.638978 0.069969 0.
0.641624 0.0694273 0.
0.644297 0.0687939 0.
0.647029 0.0679752 0.
0.649779 0.0670363 0.
0.652551 0.066008 0.
0.655362 0.0648946 0.
0.658198 0.0637386 0.
0.661069 0.062526 0.
0.663969 0.0612161 0.
0.66689 0.0598049 0.
0.669823 0.0582783 0.
0.672786 0.0566657 0.
0.675763 0.0549469 0.
0.678766 0.0531386 0.
0.681797 0.0512574 0.
0.684857 0.049324 0.
0.687947 0.047377 0.
0.691096 0.045374 0.
0.694287 0.0432374 0.
0.69754 0.040976 0.
0.700869 0.0386654 0.
0.704266 0.036382 0.
0.70778 0.0341192 0.
0.711361 0.0318577 0.
0.715048 0.0296496 0.
0.718824 0.0275543 0.
0.722641 0.0256322 0.
0.726495 0.0240226 0.
0.730322 0.0228444 0.
0.734092 0.0221463 0.
0.737719 0.0219067 0.
0.461329 0.023085 0.
0.464865 0.023331 0.
0.468522 0.0241009 0.
0.472232 0.025359 0.
0.475973 0.0270148 0.
0.479681 0.0289215 0.
0.48333 0.0309763 0.
0.486913 0.0331428 0.
0.490397 0.0353652 0.
0.493782 0.0376282 0.
0.497071 0.0399139 0.
0.50028 0.0421252 0.
0.503435 0.0442082 0.
0.506576 0.0462351 0.
0.509658 0.0482818 0.
0.512707 0.050368 0.
0.515721 0.0524038 0.
0.518711 0.0543455 0.
0.521677 0.0561783 0.
0.524626 0.0578829 0.
0.527562 0.0594853 0.
0.530491 0.0609496 0.
0.533398 0.0623502 0.
0.536286 0.0636773 0.
0.539161 0.064907 0.
0.542018 0.0660784 0.
0.544832 0.0671793 0.
0.547626 0.0681997 0.
0.550378 0.0691671 0.
0.553096 0.0700793 0.
0.555774 0.0708935 0.
0.558409 0.0715917 0.
0.561035 0.0721973 0.
0.563513 0.0726696 0.
0.566003 0.0731477 0.
0.56835 0.0734268 0.
0.570693 0.0736977 0.
0.572975 0.0739489 0.
0.575155 0.074159 0.
0.577338 0.0743704 0.
0.579454 0.0744748 0.
0.581561 0.0745699 0.
0.583658 0.0746555 0.
0.585712 0.0746973 0.
0.587766 0.0747391 0.
0.589815 0.0747739 0.
0.591858 0.0748021 0.
0.593901 0.0748303 0.
0.59594 0.0748419 0.
0.597978 0.074848 0.
0.600016 0.0748541 0.
0.602056 0.0748353 0.
0.604096 0.0748164 0.
0.60614 0.0747932 0.
0.608191 0.0747568 0.
0.610243 0.0747205 0.
0.612303 0.0746779 0.
0.61437 0.0746289 0.
0.616437 0.07458 0.
0.618563 0.0744581 0.
0.620698 0.0743248 0.
0.62285 0.0741776 0.
0.625077 0.0739276 0.
0.627299 0.0736799 0.
0.629641 0.0733839 0.
0.63203 0.0730776 0.
0.634453 0.07271 0.
0.636997 0.0720861 0.
0.639525 0.0714749 0.
0.642207 0.0708583 0.
0.644889 0.0701871 0.
0.647655 0.0692833 0.
0.650425 0.0682876 0.
0.653218 0.0671965 0.
0.656029 0.0660581 0.
0.658869 0.064876 0.
0.661729 0.0636443 0.
0.664624 0.0622955 0.
0.667526 0.060863 0.
0.670445 0.0593198 0.
0.67337 0.0577039 0.
0.676311 0.055984 0.
0.679275 0.0541762 0.
0.68226 0.0523108 0.
0.685269 0.050401 0.
0.688304 0.0484722 0.
0.691384 0.0464937 0.
0.694505 0.0443822 0.
0.697675 0.0421535 0.
0.700923 0.0398784 0.
0.704228 0.03763 0.
0.707626 0.0354092 0.
0.711118 0.0331763 0.
0.714683 0.0310008 0.
0.718345 0.0289286 0.
0.72206 0.0270105 0.
0.725813 0.0253753 0.
0.729547 0.0241574 0.
0.733212 0.0234415 0.
0.736747 0.0231758 0.
0.46231 0.0243342 0.
0.465767 0.0246522 0.
0.469333 0.0254793 0.
0.472958 0.0267795 0.
0.4766 0.028449 0.
0.480206 0.0303569 0.
0.483747 0.0323916 0.
0.48722 0.0345366 0.
0.490591 0.0367301 0.
0.493874 0.0389572 0.
0.497059 0.0412053 0.
0.500171 0.0433698 0.
0.503254 0.045414 0.
0.506314 0.0474039 0.
0.50933 0.0494164 0.
0.512324 0.0514665 0.
0.515283 0.0534784 0.
0.518221 0.0554079 0.
0.521145 0.0572342 0.
0.52406 0.0589419 0.
0.526969 0.0605567 0.
0.529876 0.0620321 0.
0.532767 0.0634532 0.
0.53563 0.0647916 0.
0.538495 0.0660355 0.
0.541345 0.0672296 0.
0.544162 0.0683729 0.
0.546954 0.0694168 0.
0.549724 0.0704202 0.
0.552456 0.0713644 0.
0.555177 0.0722655 0.
0.557849 0.0730364 0.
0.560533 0.0737451 0.
0.563074 0.0742821 0.
0.565617 0.0748071 0.
0.568039 0.0751412 0.
0.570438 0.0754636 0.
0.572775 0.07577 0.
0.574973 0.0759933 0.
0.577178 0.0762176 0.
0.579324 0.0763518 0.
0.58146 0.0764783 0.
0.583587 0.0765936 0.
0.585651 0.0766389 0.
0.587716 0.0766843 0.
0.589774 0.0767224 0.
0.591827 0.0767532 0.
0.593879 0.0767841 0.
0.595927 0.0767966 0.
0.597974 0.0768031 0.
0.600021 0.0768094 0.
0.602071 0.0767885 0.
0.60412 0.0767677 0.
0.606173 0.0767416 0.
0.608234 0.076701 0.
0.610296 0.0766605 0.
0.612368 0.0766127 0.
0.61445 0.0765582 0.
0.616531 0.0765039 0.
0.618687 0.0763465 0.
0.620849 0.076179 0.
0.623034 0.0759986 0.
0.625285 0.0757332 0.
0.627526 0.075471 0.
0.629926 0.0751162 0.
0.632369 0.0747565 0.
0.634886 0.0743032 0.
0.637494 0.0736297 0.
0.640105 0.0729591 0.
0.642823 0.0722501 0.
0.645535 0.0714782 0.
0.648308 0.0705193 0.
0.651089 0.0694971 0.
0.653893 0.0683722 0.
0.656703 0.0672171 0.
0.659538 0.0660076 0.
0.662389 0.0647517 0.
0.665268 0.063381 0.
0.668147 0.0619293 0.
0.671043 0.0603785 0.
0.673949 0.0587602 0.
0.676843 0.0570453 0.
0.679762 0.0552487 0.
0.682701 0.0533999 0.
0.685656 0.0515181 0.
0.688634 0.0496142 0.
0.691641 0.0476654 0.
0.694683 0.0455885 0.
0.697769 0.0433941 0.
0.70092 0.0411641 0.
0.70414 0.0389479 0.
0.70743 0.0367649 0.
0.710816 0.0345707 0.
0.71428 0.032416 0.
0.717819 0.0303661 0.
0.721424 0.0284537 0.
0.725075 0.0267894 0.
0.728713 0.0255257 0.
0.732289 0.0247627 0.
0.735735 0.0244637 0.
0.463321 0.0256414 0.
0.466697 0.0260333 0.
0.470183 0.0269092 0.
0.473725 0.0282587 0.
0.477266 0.0299494 0.
0.480768 0.031849 0.
0.484205 0.0338738 0.
0.487563 0.0360023 0.
0.490823 0.0381564 0.
0.494 0.0403581 0.
0.497076 0.04256 0.
0.500104 0.0446773 0.
0.503108 0.0466781 0.
0.506088 0.0486297 0.
0.50904 0.0506051 0.
0.511967 0.0526122 0.
0.514863 0.0545947 0.
0.517748 0.0565021 0.
0.520626 0.0583162 0.
0.523509 0.0600249 0.
0.52639 0.0616398 0.
0.529266 0.0631253 0.
0.532129 0.0645566 0.
0.534977 0.0659067 0.
0.53783 0.067168 0.
0.54067 0.068376 0.
0.543487 0.0695492 0.
0.54628 0.0706204 0.
0.549059 0.071653 0.
0.551814 0.0726338 0.
0.554567 0.0735914 0.
0.557277 0.0744365 0.
0.559984 0.0751968 0.
0.562577 0.0757802 0.
0.565164 0.0763354 0.
0.567659 0.0767567 0.
0.570105 0.0771667 0.
0.572512 0.0775645 0.
0.574746 0.0778043 0.
0.576989 0.0780455 0.
0.579177 0.0782143 0.
0.581349 0.0783777 0.
0.583512 0.0785287 0.
0.585588 0.0785781 0.
0.587663 0.0786276 0.
0.589733 0.0786693 0.
0.591794 0.078703 0.
0.593856 0.0787367 0.
0.595914 0.0787502 0.
0.59797 0.078757 0.
0.600026 0.0787636 0.
0.602086 0.0787406 0.
0.604145 0.0787176 0.
0.606208 0.0786885 0.
0.60828 0.0786432 0.
0.610351 0.0785981 0.
0.612438 0.0785443 0.
0.614536 0.0784834 0.
0.616632 0.0784227 0.
0.618828 0.0782222 0.
0.621026 0.0780138 0.
0.623259 0.0777938 0.
0.625557 0.0775056 0.
0.627844 0.0772208 0.
0.630328 0.0767613 0.
0.632818 0.0763134 0.
0.635391 0.0757725 0.
0.638023 0.0750904 0.
0.640691 0.0743873 0.
0.643439 0.0736092 0.
0.646185 0.0727416 0.
0.64897 0.0717339 0.
0.651759 0.0706773 0.
0.654563 0.0695425 0.
0.657382 0.0683697 0.
0.660208 0.0671371 0.
0.663047 0.0658549 0.
0.665904 0.0644747 0.
0.668765 0.0630065 0.
0.671627 0.0614555 0.
0.674505 0.0598398 0.
0.677368 0.0581321 0.
0.680236 0.056354 0.
0.68312 0.0545294 0.
0.686017 0.0526777 0.
0.688933 0.0508061 0.
0.691872 0.0488883 0.
0.694831 0.0468524 0.
0.697829 0.0446996 0.
0.700882 0.0425135 0.
0.704006 0.0403389 0.
0.707198 0.0381848 0.
0.710469 0.0360322 0.
0.713833 0.0338992 0.
0.717261 0.0318628 0.
0.720754 0.0299542 0.
0.7243 0.0282632 0.
0.727841 0.0269547 0.
0.731329 0.0261242 0.
0.7347 0.0257755 0.
0.464341 0.0270099 0.
0.467641 0.0274608 0.
0.471049 0.0283918 0.
0.474502 0.02979 0.
0.477946 0.0314965 0.
0.481347 0.0333935 0.
0.484681 0.03542 0.
0.487919 0.037515 0.
0.491075 0.0396441 0.
0.494133 0.0418137 0.
0.497105 0.0439638 0.
0.500055 0.0460326 0.
0.502973 0.0479885 0.
0.505877 0.0498992 0.
0.508754 0.05183 0.
0.511609 0.0537906 0.
0.514445 0.0557385 0.
0.517274 0.057618 0.
0.520116 0.0594206 0.
0.522969 0.0611249 0.
0.52581 0.062734 0.
0.528659 0.0642293 0.
0.531505 0.0656629 0.
0.534332 0.0670255 0.
0.537168 0.0683022 0.
0.540005 0.0695229 0.
0.54282 0.0707138 0.
0.545613 0.0718151 0.
0.548398 0.0728711 0.
0.551176 0.0738858 0.
0.553947 0.0748684 0.
0.556669 0.0757525 0.
0.55939 0.0765636 0.
0.562048 0.077239 0.
0.564694 0.077849 0.
0.567271 0.078353 0.
0.569764 0.0788512 0.
0.572246 0.0793562 0.
0.574518 0.0796116 0.
0.576798 0.079867 0.
0.579027 0.0800657 0.
0.581233 0.0802659 0.
0.583433 0.0804571 0.
0.58552 0.0805105 0.
0.587608 0.0805641 0.
0.589689 0.0806096 0.
0.59176 0.0806457 0.
0.593831 0.080682 0.
0.595899 0.0806964 0.
0.597966 0.0807033 0.
0.600033 0.0807099 0.
0.602103 0.080685 0.
0.604173 0.0806602 0.
0.606246 0.0806284 0.
0.608327 0.0805788 0.
0.610408 0.0805294 0.
0.612511 0.0804683 0.
0.614626 0.0803993 0.
0.61674 0.0803299 0.
0.618973 0.0800864 0.
0.621203 0.0798406 0.
0.623488 0.0795836 0.
0.625834 0.0792736 0.
0.628184 0.0789536 0.
0.630741 0.0783855 0.
0.633285 0.0778451 0.
0.63593 0.0772044 0.
0.638602 0.0764745 0.
0.641309 0.0757166 0.
0.64406 0.0749094 0.
0.646823 0.0739819 0.
0.649619 0.0729433 0.
0.652423 0.0718527 0.
0.655227 0.0707014 0.
0.658045 0.0695149 0.
0.660873 0.0682665 0.
0.663705 0.0669604 0.
0.666537 0.0655749 0.
0.66937 0.0640955 0.
0.672211 0.0625472 0.
0.675054 0.0609373 0.
0.677887 0.0592409 0.
0.680712 0.0574831 0.
0.68354 0.0556893 0.
0.686373 0.0538701 0.
0.689227 0.0520318 0.
0.692095 0.05015 0.
0.694979 0.0481562 0.
0.697885 0.0460545 0.
0.700839 0.0439127 0.
0.703857 0.0417839 0.
0.706944 0.0396685 0.
0.710105 0.0375464 0.
0.71336 0.0354396 0.
0.716688 0.033413 0.
0.720073 0.0315061 0.
0.72352 0.0297871 0.
0.726964 0.0284347 0.
0.730365 0.0275334 0.
0.733669 0.0271175 0.
0.465369 0.0284307 0.
0.468591 0.0289355 0.
0.471918 0.0299302 0.
0.47528 0.0313645 0.
0.478631 0.0330914 0.
0.481934 0.0349961 0.
0.48515 0.037009 0.
0.488273 0.0390765 0.
0.491312 0.041185 0.
0.494245 0.0433069 0.
0.497132 0.0454093 0.
0.499993 0.0474252 0.
0.502825 0.049332 0.
0.505646 0.0512003 0.
0.508443 0.0530833 0.
0.511229 0.054991 0.
0.514009 0.0568993 0.
0.516793 0.0587547 0.
0.519605 0.0605424 0.
0.522417 0.0622371 0.
0.525226 0.0638389 0.
0.528055 0.0653432 0.
0.530877 0.0667749 0.
0.533691 0.068151 0.
0.536522 0.0694405 0.
0.539351 0.0706704 0.
0.54216 0.0718761 0.
0.544958 0.0730069 0.
0.547749 0.0740826 0.
0.550537 0.0751116 0.
0.553308 0.0761069 0.
0.556052 0.077044 0.
0.558793 0.0779109 0.
0.561507 0.0786774 0.
0.564205 0.0793318 0.
0.566857 0.0799007 0.
0.569368 0.0804531 0.
0.571887 0.0810243 0.
0.574228 0.0813168 0.
0.576581 0.0816082 0.
0.578869 0.0818638 0.
0.581105 0.0821198 0.
0.583339 0.0823703 0.
0.585442 0.0824294 0.
0.587546 0.0824887 0.
0.589641 0.0825389 0.
0.591723 0.0825776 0.
0.593804 0.0826165 0.
0.595883 0.0826316 0.
0.597962 0.0826382 0.
0.60004 0.0826445 0.
0.602123 0.0826179 0.
0.604205 0.0825913 0.
0.606289 0.0825567 0.
0.608379 0.082503 0.
0.610469 0.0824493 0.
0.612591 0.0823749 0.
0.614728 0.0822892 0.
0.616872 0.0821967 0.
0.619161 0.0818873 0.
0.621439 0.0815814 0.
0.623789 0.0812732 0.
0.626191 0.0809382 0.
0.628607 0.0805706 0.
0.631182 0.07995 0.
0.633771 0.0793362 0.
0.636476 0.0786163 0.
0.639187 0.0778423 0.
0.641929 0.0770258 0.
0.644691 0.0761755 0.
0.64747 0.0751963 0.
0.650264 0.0741407 0.
0.653071 0.073029 0.
0.655877 0.0718653 0.
0.658696 0.070659 0.
0.66152 0.0693987 0.
0.664349 0.0680731 0.
0.667172 0.0666827 0.
0.669983 0.065197 0.
0.672798 0.0636523 0.
0.675611 0.0620498 0.
0.678406 0.0603696 0.
0.681196 0.0586329 0.
0.683978 0.0568701 0.
0.686748 0.0550874 0.
0.689535 0.0532844 0.
0.692332 0.051441 0.
0.69514 0.0494907 0.
0.697961 0.0474434 0.
0.700813 0.0453571 0.
0.703724 0.0432699 0.
0.706697 0.0411996 0.
0.709742 0.0391158 0.
0.712883 0.0370293 0.
0.716107 0.0350151 0.
0.719394 0.0331073 0.
0.722738 0.0313652 0.
0.726095 0.0299591 0.
0.729411 0.0289945 0.
0.732643 0.0285125 0.
0.466421 0.0298994 0.
0.469571 0.030465 0.
0.472816 0.0315328 0.
0.47609 0.0330052 0.
0.479349 0.0347578 0.
0.482536 0.0366661 0.
0.48563 0.0386604 0.
0.488634 0.0407104 0.
0.491537 0.0427789 0.
0.494364 0.0448543 0.
0.497159 0.0469038 0.
0.499924 0.0488598 0.
0.502668 0.0507174 0.
0.5054 0.0525396 0.
0.508121 0.0543712 0.
0.510848 0.0562266 0.
0.513578 0.0580935 0.
0.516322 0.0599188 0.
0.519096 0.0616854 0.
0.521869 0.0633679 0.
0.524655 0.064963 0.
0.527461 0.0664717 0.
0.530266 0.0679011 0.
0.533073 0.0692875 0.
0.535891 0.0705852 0.
0.538711 0.0718226 0.
0.541515 0.0730393 0.
0.544313 0.0741944 0.
0.547103 0.07528 0.
0.549893 0.076324 0.
0.552665 0.0773374 0.
0.555422 0.0783117 0.
0.558177 0.0792176 0.
0.560918 0.0800583 0.
0.563627 0.0807411 0.
0.566317 0.0813634 0.
0.568885 0.08198 0.
0.571465 0.082626 0.
0.573909 0.082998 0.
0.57635 0.0833404 0.
0.578708 0.083657 0.
0.580973 0.0839693 0.
0.583242 0.0842802 0.
0.585363 0.084348 0.
0.587483 0.0844131 0.
0.589593 0.0844681 0.
0.591685 0.0845095 0.
0.593776 0.084551 0.
0.595867 0.0845667 0.
0.597958 0.0845731 0.
0.600048 0.0845791 0.
0.602142 0.0845507 0.
0.604237 0.0845224 0.
0.606332 0.0844851 0.
0.608431 0.084427 0.
0.61053 0.0843691 0.
0.612673 0.0842805 0.
0.614833 0.0841778 0.
0.61701 0.0840579 0.
0.619356 0.0836818 0.
0.621687 0.0833125 0.
0.624122 0.0829399 0.
0.626607 0.082556 0.
0.62912 0.0820913 0.
0.631729 0.0813878 0.
0.634348 0.0807116 0.
0.637069 0.0799791 0.
0.639802 0.0791749 0.
0.64256 0.0783112 0.
0.645331 0.0774215 0.
0.648116 0.0764016 0.
0.650909 0.0753242 0.
0.653718 0.0742012 0.
0.656518 0.0730312 0.
0.659329 0.0718086 0.
0.662147 0.0705349 0.
0.664969 0.0691984 0.
0.667782 0.0678023 0.
0.670581 0.0663161 0.
0.673376 0.0647775 0.
0.676158 0.0631847 0.
0.678917 0.0615238 0.
0.681669 0.0598138 0.
0.684411 0.0580825 0.
0.687128 0.0563387 0.
0.689847 0.0545735 0.
0.692572 0.0527697 0.
0.695304 0.0508679 0.
0.698047 0.0488722 0.
0.700799 0.0468471 0.
0.703596 0.0448134 0.
0.706453 0.0427835 0.
0.709372 0.0407468 0.
0.712388 0.0386888 0.
0.715498 0.0366859 0.
0.718689 0.0347754 0.
0.721935 0.0330116 0.
0.725199 0.0315498 0.
0.728431 0.0305239 0.
0.731588 0.0299712 0.
0.467507 0.0314154 0.
0.470589 0.0320556 0.
0.473757 0.033205 0.
0.476941 0.0347278 0.
0.480087 0.0365011 0.
0.48315 0.038408 0.
0.486117 0.0403909 0.
0.488982 0.0424054 0.
0.491758 0.0444291 0.
0.494489 0.0464607 0.
0.497182 0.0484455 0.
0.499852 0.0503397 0.
0.502509 0.0521486 0.
0.505155 0.0539224 0.
0.507808 0.0557035 0.
0.510478 0.0575023 0.
0.51316 0.0593221 0.
0.515865 0.0611147 0.
0.518596 0.0628527 0.
0.521337 0.0645203 0.
0.524097 0.0661058 0.
0.526882 0.0676123 0.
0.529672 0.069041 0.
0.532464 0.0704327 0.
0.535268 0.0717365 0.
0.538077 0.072982 0.
0.540873 0.0742049 0.
0.543667 0.0753751 0.
0.546453 0.0764717 0.
0.54924 0.0775295 0.
0.552012 0.0785559 0.
0.554779 0.0795497 0.
0.557549 0.0804787 0.
0.560301 0.0813676 0.
0.563024 0.0821162 0.
0.565744 0.0828018 0.
0.568376 0.0834852 0.
0.57101 0.0842001 0.
0.573552 0.0846551 0.
0.576059 0.0850393 0.
0.578472 0.0854102 0.
0.580757 0.0857631 0.
0.583061 0.0861177 0.
0.58523 0.0862154 0.
0.58739 0.0863017 0.
0.589534 0.086373 0.
0.591639 0.0864152 0.
0.593744 0.0864574 0.
0.595849 0.0864729 0.
0.597953 0.0864784 0.
0.600058 0.0864835 0.
0.602167 0.086454 0.
0.604275 0.0864245 0.
0.606386 0.0863855 0.
0.608499 0.0863259 0.
0.610612 0.0862663 0.
0.612794 0.0861494 0.
0.614995 0.0860142 0.
0.617228 0.0858484 0.
0.619617 0.0854253 0.
0.621982 0.0850124 0.
0.624497 0.0845842 0.
0.627056 0.0841545 0.
0.629654 0.0835816 0.
0.632294 0.082799 0.
0.634955 0.0820485 0.
0.63769 0.0812846 0.
0.64043 0.0804574 0.
0.643196 0.0795699 0.
0.645982 0.0786451 0.
0.648769 0.0775989 0.
0.651557 0.0765007 0.
0.654363 0.0753706 0.
0.657162 0.0741971 0.
0.65996 0.0729623 0.
0.66276 0.0716787 0.
0.665571 0.0703365 0.
0.668374 0.0689357 0.
0.671156 0.0674545 0.
0.673933 0.0659272 0.
0.676691 0.0643448 0.
0.679417 0.0627038 0.
0.682128 0.0610251 0.
0.684831 0.0593288 0.
0.687501 0.0576235 0.
0.690162 0.0559005 0.
0.692816 0.0541372 0.
0.695467 0.0522895 0.
0.698127 0.0503542 0.
0.700794 0.048384 0.
0.703478 0.0464103 0.
0.706216 0.0444297 0.
0.70901 0.0424349 0.
0.711891 0.0404201 0.
0.71487 0.0384323 0.
0.717944 0.0365223 0.
0.721092 0.0347379 0.
0.724264 0.0332204 0.
0.727406 0.0321304 0.
0.730485 0.0314962 0.
0.468634 0.0329884 0.
0.471652 0.0337285 0.
0.474734 0.0349617 0.
0.477812 0.0365338 0.
0.480832 0.0383221 0.
0.483761 0.0402322 0.
0.486582 0.0421836 0.
0.489309 0.044156 0.
0.491976 0.0461392 0.
0.494596 0.0481079 0.
0.497191 0.0500254 0.
0.499774 0.0518615 0.
0.502344 0.0536201 0.
0.504915 0.0553468 0.
0.507505 0.0570752 0.
0.510119 0.0588143 0.
0.512756 0.060587 0.
0.515415 0.0623403 0.
0.518105 0.0640454 0.
0.520814 0.0656941 0.
0.523549 0.0672658 0.
0.526311 0.068765 0.
0.529085 0.0701944 0.
0.531863 0.0715853 0.
0.534651 0.0728956 0.
0.537446 0.074148 0.
0.540237 0.0753737 0.
0.543022 0.0765554 0.
0.545804 0.0776621 0.
0.548593 0.0787304 0.
0.551374 0.0797738 0.
0.554151 0.0807781 0.
0.556927 0.0817248 0.
0.559686 0.082648 0.
0.562425 0.0834627 0.
0.565161 0.084197 0.
0.567836 0.0849157 0.
0.57049 0.0856379 0.
0.573073 0.0861783 0.
0.575614 0.0866414 0.
0.57811 0.0871097 0.
0.580458 0.0875106 0.
0.582828 0.087916 0.
0.585067 0.0880596 0.
0.587282 0.0881773 0.
0.589472 0.0882725 0.
0.591591 0.0883155 0.
0.59371 0.0883585 0.
0.59583 0.0883738 0.
0.597949 0.0883784 0.
0.600069 0.0883825 0.
0.602193 0.0883514 0.
0.604316 0.0883203 0.
0.606442 0.0882794 0.
0.608572 0.0882182 0.
0.610702 0.088157 0.
0.612938 0.0879996 0.
0.615198 0.0878178 0.
0.617512 0.0875857 0.
0.619968 0.087104 0.
0.622399 0.0866348 0.
0.624979 0.0861317 0.
0.627571 0.0856536 0.
0.630213 0.0849866 0.
0.632874 0.0841599 0.
0.635566 0.0833669 0.
0.638309 0.0825791 0.
0.641058 0.0817209 0.
0.643829 0.0808098 0.
0.64662 0.0798583 0.
0.649411 0.0787953 0.
0.652204 0.0776778 0.
0.655006 0.0765401 0.
0.657799 0.0753618 0.
0.66059 0.0741194 0.
0.663377 0.0728286 0.
0.666166 0.0714858 0.
0.668951 0.0700824 0.
0.671719 0.0686093 0.
0.674473 0.0670963 0.
0.677206 0.0655329 0.
0.679904 0.0639115 0.
0.68258 0.0622627 0.
0.68524 0.0606073 0.
0.687871 0.0589408 0.
0.690478 0.0572602 0.
0.693067 0.0555424 0.
0.695645 0.0537444 0.
0.698221 0.0518755 0.
0.700801 0.049967 0.
0.703387 0.0480463 0.
0.706003 0.0461249 0.
0.70867 0.0441813 0.
0.711413 0.0422104 0.
0.714249 0.0402554 0.
0.717185 0.0383507 0.
0.720213 0.0365495 0.
0.723286 0.0349809 0.
0.726337 0.0338155 0.
0.729333 0.0330876 0.
0.469785 0.0346384 0.
0.472726 0.0354966 0.
0.475704 0.0367967 0.
0.47866 0.0384092 0.
0.481538 0.0402127 0.
0.484313 0.0421033 0.
0.486988 0.0440117 0.
0.489589 0.0459414 0.
0.492133 0.0478655 0.
0.494649 0.0497676 0.
0.497154 0.0516206 0.
0.499652 0.0533985 0.
0.502148 0.0551113 0.
0.504651 0.0567902 0.
0.507182 0.0584642 0.
0.509746 0.060149 0.
0.512337 0.0618722 0.
0.51495 0.0635829 0.
0.517605 0.0652547 0.
0.520289 0.0668815 0.
0.522998 0.0684384 0.
0.525745 0.0699293 0.
0.528506 0.0713582 0.
0.531267 0.0727452 0.
0.534043 0.0740617 0.
0.53683 0.0753193 0.
0.539611 0.076547 0.
0.542388 0.0777395 0.
0.545172 0.078856 0.
0.547969 0.0799322 0.
0.550755 0.0809899 0.
0.553532 0.0820046 0.
0.556315 0.0829684 0.
0.559082 0.0839154 0.
0.561833 0.0847771 0.
0.564577 0.0855328 0.
0.567278 0.0862788 0.
0.569951 0.0870339 0.
0.572578 0.0876687 0.
0.575161 0.0882191 0.
0.577736 0.0887998 0.
0.580149 0.0892489 0.
0.582588 0.0897038 0.
0.584903 0.0898952 0.
0.587172 0.0900434 0.
0.589411 0.0901665 0.
0.591544 0.0902098 0.
0.593677 0.0902531 0.
0.595811 0.0902681 0.
0.597946 0.0902717 0.
0.60008 0.0902747 0.
0.602219 0.0902423 0.
0.604357 0.09021 0.
0.606498 0.0901676 0.
0.608644 0.0901053 0.
0.61079 0.0900431 0.
0.613085 0.0898414 0.
0.615405 0.0896126 0.
0.617804 0.0893112 0.
0.620329 0.088771 0.
0.622841 0.0882355 0.
0.625474 0.087651 0.
0.628104 0.0870974 0.
0.630777 0.0863384 0.
0.633456 0.0854862 0.
0.636172 0.0846708 0.
0.638922 0.0838634 0.
0.641682 0.0829786 0.
0.644458 0.0820486 0.
0.647251 0.0810679 0.
0.650039 0.0799914 0.
0.652831 0.0788586 0.
0.655636 0.0777148 0.
0.658426 0.0765304 0.
0.661208 0.0752837 0.
0.663988 0.0739853 0.
0.666764 0.0726434 0.
0.669528 0.07124 0.
0.672276 0.0697789 0.
0.675013 0.0682798 0.
0.677724 0.0667359 0.
0.680394 0.0651389 0.
0.68304 0.0635194 0.
0.685661 0.0619032 0.
0.688251 0.0602794 0.
0.690817 0.0586367 0.
0.693351 0.0569623 0.
0.695863 0.0552143 0.
0.698364 0.053405 0.
0.700857 0.0515648 0.
0.703349 0.0497036 0.
0.705858 0.0478349 0.
0.708398 0.0459544 0.
0.711 0.0440407 0.
0.713687 0.0421217 0.
0.716469 0.0402428 0.
0.719352 0.0384331 0.
0.722304 0.0368222 0.
0.725257 0.035578 0.
0.72817 0.0347577 0.
0.47092 0.0363844 0.
0.473762 0.0373413 0.
0.476622 0.0386983 0.
0.479429 0.0403469 0.
0.482139 0.0421411 0.
0.484755 0.0439892 0.
0.487288 0.0458509 0.
0.489755 0.0477215 0.
0.492185 0.0495788 0.
0.494608 0.0514179 0.
0.497031 0.053209 0.
0.499456 0.0549351 0.
0.501883 0.0566039 0.
0.50433 0.0582354 0.
0.506812 0.0598631 0.
0.509331 0.0614954 0.
0.511877 0.0631677 0.
0.514454 0.0648371 0.
0.517083 0.0664752 0.
0.519746 0.0680797 0.
0.52244 0.0696251 0.
0.525175 0.0711056 0.
0.527924 0.0725326 0.
0.530676 0.0739161 0.
0.533445 0.0752397 0.
0.536221 0.0765001 0.
0.538997 0.0777294 0.
0.541776 0.0789304 0.
0.544568 0.0800567 0.
0.547368 0.0811391 0.
0.550155 0.0822099 0.
0.552936 0.0832351 0.
0.555723 0.0842117 0.
0.558496 0.0851748 0.
0.561256 0.086074 0.
0.564008 0.0868576 0.
0.566735 0.087634 0.
0.569431 0.0884204 0.
0.5721 0.0891298 0.
0.574727 0.0897563 0.
0.577347 0.090395 0.
0.579817 0.0908659 0.
0.5823 0.0913342 0.
0.58469 0.091605 0.
0.587035 0.0918411 0.
0.589346 0.0920406 0.
0.591496 0.0920845 0.
0.593646 0.0921284 0.
0.595795 0.0921431 0.
0.597944 0.092146 0.
0.600094 0.0921482 0.
0.602246 0.092114 0.
0.604398 0.0920799 0.
0.606554 0.0920351 0.
0.608714 0.0919699 0.
0.610874 0.0919049 0.
0.61327 0.0915996 0.
0.615676 0.0912762 0.
0.618148 0.0908955 0.
0.6207 0.0903463 0.
0.623271 0.0897836 0.
0.625949 0.0891436 0.
0.628624 0.088503 0.
0.631324 0.0876845 0.
0.634024 0.0868055 0.
0.636758 0.0859731 0.
0.639516 0.0851413 0.
0.642288 0.0842323 0.
0.64507 0.0832869 0.
0.647864 0.0822796 0.
0.65065 0.0811905 0.
0.653442 0.0800486 0.
0.656246 0.0788989 0.
0.659038 0.0777076 0.
0.661819 0.0764563 0.
0.664594 0.0751531 0.
0.667363 0.0738103 0.
0.670115 0.072408 0.
0.672844 0.070961 0.
0.675564 0.0694767 0.
0.678257 0.0679507 0.
0.680903 0.0663787 0.
0.683523 0.0647892 0.
0.686112 0.0632111 0.
0.688665 0.0616277 0.
0.691193 0.060024 0.
0.693686 0.0583863 0.
0.696144 0.0566849 0.
0.698581 0.0549308 0.
0.701 0.0531509 0.
0.703405 0.0513542 0.
0.705814 0.0495409 0.
0.708244 0.0477187 0.
0.710711 0.0458755 0.
0.713242 0.0440107 0.
0.715863 0.0421673 0.
0.718582 0.0403723 0.
0.721383 0.0387307 0.
0.724216 0.0374152 0.
0.727036 0.0365114 0.
0.471997 0.0382239 0.
0.474721 0.0392564 0.
0.47743 0.0406694 0.
0.48006 0.042322 0.
0.482596 0.0440797 0.
0.48506 0.0458809 0.
0.48745 0.0476799 0.
0.489798 0.0494847 0.
0.492136 0.0512801 0.
0.494476 0.0530583 0.
0.496829 0.0547953 0.
0.499191 0.056477 0.
0.501567 0.0581008 0.
0.503972 0.0596951 0.
0.506413 0.0612835 0.
0.508891 0.0628673 0.
0.511405 0.0644923 0.
0.513959 0.0661196 0.
0.51657 0.0677224 0.
0.519222 0.0693066 0.
0.521903 0.0708395 0.
0.524625 0.0723052 0.
0.527366 0.0737309 0.
0.530111 0.0751115 0.
0.532869 0.0764368 0.
0.535638 0.0776983 0.
0.538416 0.078929 0.
0.5412 0.0801362 0.
0.543994 0.0812693 0.
0.546795 0.0823566 0.
0.549585 0.0834398 0.
0.552367 0.0844739 0.
0.55516 0.0854599 0.
0.557937 0.0864367 0.
0.560705 0.0873671 0.
0.563466 0.0881766 0.
0.566212 0.0889823 0.
0.568926 0.0897964 0.
0.571622 0.0905355 0.
0.574267 0.0911965 0.
0.576906 0.0918826 0.
0.579446 0.0924251 0.
0.581989 0.0929412 0.
0.584464 0.0933023 0.
0.586891 0.0936312 0.
0.589282 0.0939148 0.
0.591448 0.0939592 0.
0.593614 0.0940036 0.
0.595779 0.0940182 0.
0.597943 0.0940202 0.
0.600107 0.0940216 0.
0.602274 0.0939856 0.
0.60444 0.0939497 0.
0.60661 0.0939024 0.
0.608785 0.0938344 0.
0.610959 0.0937665 0.
0.61347 0.0933427 0.
0.615979 0.0929075 0.
0.618532 0.0924277 0.
0.621118 0.0918315 0.
0.623737 0.0912098 0.
0.626426 0.0905559 0.
0.629126 0.0898746 0.
0.631847 0.0890277 0.
0.634567 0.088127 0.
0.637315 0.0872744 0.
0.64008 0.0864176 0.
0.642857 0.0854911 0.
0.645649 0.0845298 0.
0.648446 0.0835001 0.
0.651232 0.0823988 0.
0.654023 0.0812511 0.
0.656827 0.0800989 0.
0.659618 0.0789019 0.
0.662399 0.0776466 0.
0.665173 0.0763403 0.
0.667937 0.0749984 0.
0.670681 0.073601 0.
0.673397 0.0721686 0.
0.6761 0.0707015 0.
0.67878 0.0691935 0.
0.681408 0.0676449 0.
0.684004 0.0660872 0.
0.686569 0.0645453 0.
0.689094 0.0629982 0.
0.691589 0.0614299 0.
0.694049 0.0598278 0.
0.696468 0.0581653 0.
0.698856 0.0564632 0.
0.701216 0.0547362 0.
0.703551 0.0529951 0.
0.705876 0.0512392 0.
0.708208 0.0494718 0.
0.710562 0.0476943 0.
0.712951 0.0459009 0.
0.715407 0.0441047 0.
0.717954 0.0423415 0.
0.720584 0.0407019 0.
0.723265 0.0393313 0.
0.725968 0.0383411 0.
0.472935 0.0401398 0.
0.475512 0.0412283 0.
0.478043 0.0426664 0.
0.480494 0.0443037 0.
0.482873 0.0460199 0.
0.485193 0.0477566 0.
0.487463 0.0494896 0.
0.489726 0.0512331 0.
0.491994 0.052974 0.
0.494275 0.0547043 0.
0.496574 0.0563979 0.
0.498893 0.0580334 0.
0.50124 0.059627 0.
0.503618 0.0611912 0.
0.506022 0.0627417 0.
0.508471 0.0642849 0.
0.510965 0.0658645 0.
0.513505 0.0674471 0.
0.516105 0.0690186 0.
0.518747 0.070582 0.
0.521411 0.072095 0.
0.524124 0.0735435 0.
0.526854 0.0749631 0.
0.529591 0.0763368 0.
0.532343 0.0776602 0.
0.535109 0.0789237 0.
0.537887 0.0801572 0.
0.540671 0.0813641 0.
0.543463 0.0825005 0.
0.546262 0.0835933 0.
0.549049 0.0846829 0.
0.551837 0.0857255 0.
0.554631 0.0867176 0.
0.557409 0.0877044 0.
0.56018 0.0886553 0.
0.562954 0.089493 0.
0.565715 0.0903206 0.
0.56844 0.091149 0.
0.571149 0.091916 0.
0.573811 0.0926207 0.
0.576466 0.0933543 0.
0.579073 0.0939654 0.
0.581674 0.0945228 0.
0.584234 0.0949671 0.
0.586741 0.0953839 0.
0.589212 0.0957645 0.
0.591396 0.095809 0.
0.593581 0.0958535 0.
0.595763 0.0958683 0.
0.597943 0.0958702 0.
0.600123 0.0958713 0.
0.602304 0.0958345 0.
0.604484 0.0957978 0.
0.606669 0.0957487 0.
0.60886 0.0956785 0.
0.611049 0.0956085 0.
0.613673 0.095054 0.
0.61629 0.0945123 0.
0.618914 0.0939419 0.
0.621536 0.0933014 0.
0.624201 0.0926226 0.
0.626903 0.0919351 0.
0.629614 0.0912071 0.
0.632344 0.0903514 0.
0.635083 0.0894474 0.
0.637839 0.0885767 0.
0.640611 0.0876984 0.
0.643389 0.0867593 0.
0.646178 0.0857835 0.
0.64898 0.0847379 0.
0.651774 0.0836253 0.
0.654562 0.0824741 0.
0.657359 0.0813214 0.
0.660149 0.080123 0.
0.662932 0.078864 0.
0.6657 0.0775574 0.
0.668456 0.076219 0.
0.671196 0.074832 0.
0.673905 0.0734141 0.
0.676594 0.0719686 0.
0.679256 0.0704855 0.
0.681871 0.0689596 0.
0.684452 0.0674327 0.
0.686995 0.0659272 0.
0.689502 0.0644113 0.
0.691973 0.0628724 0.
0.694406 0.0613041 0.
0.696798 0.0596785 0.
0.699154 0.0580171 0.
0.701473 0.056339 0.
0.703762 0.0546455 0.
0.706028 0.0529358 0.
0.708285 0.0512213 0.
0.710551 0.049497 0.
0.712833 0.0477693 0.
0.715143 0.0460407 0.
0.717521 0.0443145 0.
0.719977 0.0426938 0.
0.722492 0.0413079 0.
0.725048 0.0402439 0.
0.473653 0.0420867 0.
0.476067 0.0432257 0.
0.478428 0.0446909 0.
0.480728 0.046304 0.
0.482969 0.0479685 0.
0.485173 0.0496422 0.
0.487369 0.0513175 0.
0.489577 0.0530116 0.
0.4918 0.0547171 0.
0.49404 0.0564076 0.
0.496308 0.0580557 0.
0.498612 0.0596569 0.
0.50095 0.0612257 0.
0.503303 0.0627585 0.
0.505681 0.0642763 0.
0.508116 0.0657792 0.
0.510597 0.0673076 0.
0.513132 0.0688512 0.
0.515721 0.070395 0.
0.518345 0.0719318 0.
0.520999 0.0734195 0.
0.523703 0.0748453 0.
0.526418 0.0762507 0.
0.529148 0.077614 0.
0.531897 0.0789291 0.
0.534663 0.0801925 0.
0.537438 0.0814299 0.
0.540216 0.0826351 0.
0.543002 0.0837684 0.
0.545802 0.0848683 0.
0.548591 0.0859607 0.
0.551373 0.0870042 0.
0.554168 0.0880047 0.
0.556952 0.0890044 0.
0.55973 0.089963 0.
0.56251 0.0908184 0.
0.565266 0.0916622 0.
0.567991 0.092509 0.
0.570713 0.0933 0.
0.5734 0.0940404 0.
0.576084 0.0948059 0.
0.578753 0.0954554 0.
0.581399 0.0960274 0.
0.584013 0.0965423 0.
0.586586 0.0970843 0.
0.589135 0.0975955 0.
0.591339 0.0976416 0.
0.593545 0.0976878 0.
0.595746 0.0977038 0.
0.597943 0.0977061 0.
0.600141 0.0977076 0.
0.602336 0.0976699 0.
0.604532 0.0976323 0.
0.606734 0.0975805 0.
0.608942 0.0975067 0.
0.611155 0.0974272 0.
0.613846 0.0966932 0.
0.616522 0.0960167 0.
0.619202 0.0954089 0.
0.621887 0.0947553 0.
0.624611 0.0940307 0.
0.627334 0.0933144 0.
0.630061 0.0925493 0.
0.632797 0.0916818 0.
0.635532 0.0907779 0.
0.638292 0.0898934 0.
0.641071 0.0890018 0.
0.643848 0.088058 0.
0.646637 0.0870652 0.
0.649434 0.0860083 0.
0.652227 0.0848944 0.
0.655025 0.0837351 0.
0.657821 0.0825796 0.
0.660604 0.0813889 0.
0.663381 0.0801338 0.
0.666147 0.0788253 0.
0.668894 0.077492 0.
0.671625 0.0761247 0.
0.674331 0.0747268 0.
0.677007 0.0733039 0.
0.679653 0.0718535 0.
0.682258 0.0703577 0.
0.684829 0.0688554 0.
0.687359 0.067384 0.
0.689849 0.0659042 0.
0.692306 0.064394 0.
0.694723 0.0628526 0.
0.697093 0.0612634 0.
0.699435 0.0596409 0.
0.701736 0.057999 0.
0.703996 0.0563545 0.
0.70623 0.0546862 0.
0.708442 0.05301 0.
0.710643 0.0513326 0.
0.71285 0.0496534 0.
0.715057 0.0479857 0.
0.717292 0.0463121 0.
0.719588 0.0447091 0.
0.721944 0.043306 0.
0.724347 0.0421869 0.
CELLS 5000 10000
1 0
1 1
1 2
1 3
1 4
1 5
1 6
1 7
1 8
1 9
1 10
1 11
1 12
1 13
1 14
1 15
1 16
1 17
1 18
1 19
1 20
1 21
1 22
1 23
1 24
1 25
1 26
1 27
1 28
1 29
1 30
1 31
1 32
1 33
1 34
1 35
1 36
1 37
1 38
1 39
1 40
1 41
1 42
1 43
1 44
1 45
1 46
1 47
1 48
1 49
1 50
1 51
1 52
1 53
1 54
1 55
1 56
1 57
1 58
1 59
1 60
1 61
1 62
1 63
1 64
1 65
1 66
1 67
1 68
1 69
1 70
1 71
1 72
1 73
1 74
1 75
1 76
1 77
1 78
1 79
1 80
1 81
1 82
1 83
1 84
1 85
1 86
1 87
1 88
1 89
1 90
1 91
1 92
1 93
1 94
1 95
1 96
1 97
1 98
1 99
1 100
1 101
1 102
1 103
1 104
1 105
1 106
1 107
1 108
1 109
1 110
1 111
1 112
1 113
1 114
1 115
1 116
1 117
1 118
1 119
1 120
1 121
1 122
1 123
1 124
1 125
1 126
1 127
1 128
1 129
1 130
1 131
1 132
1 133
1 134
1 135
1 136
1 137
1 138
1 139
1 140
1 141
1 142
1 143
1 144
1 145
1 146
1 147
1 148
1 149
1 150
1 151
1 152
1 153
1 154
1 155
1 156
1 157
1 158
1 159
1 160
1 161
1 162
1 163
1 164
1 165
1 166
1 167
1 168
1 169
1 170
1 171
1 172
1 173
1 174
1 175
1 176
1 177
1 178
1 179
1 180
1 181
1 182
1 183
1 184
1 185
1 186
1 187
1 188
1 189
1 190
1 191
1 192
1 193
1 194
1 195
1 196
1 197
1 198
1 199
1 200
1 201
1 202
1 203
1 204
1 205
1 206
1 207
1 208
1 209
1 210
1 211
1 212
1 213
1 214
1 215
1 216
1 217
1 218
1 219
1 220
1 221
1 222
1 223
1 224
1 225
1 226
1 227
1 228
1 229
1 230
1 231
1 232
1 233
1 234
1 235
1 236
1 237
1 238
1 239
1 240
1 241
1 242
1 243
1 244
1 245
1 246
1 247
1 248
1 249
1 250
1 251
1 252
1 253
1 254
1 255
1 256
1 257
1 258
1 259
1 260
1 261
1 262
1 263
1 264
1 265
1 266
1 267
1 268
1 269
1 270
1 271
1 272
1 273
1 274
1 275
1 276
1 277
1 278
1 279
1 280
1 281
1 282
1 283
1 284
1 285
1 286
1 287
1 288
1 289
1 290
1 291
1 292
1 293
1 294
1 295
1 296
1 297
1 298
1 299
1 300
1 301
1 302
1 303
1 304
1 305
1 306
1 307
1 308
1 309
1 310
1 311
1 312
1 313
1 314
1 315
1 316
1 317
1 318
1 319
1 320
1 321
1 322
1 323
1 324
1 325
1 326
1 327
1 328
1 329
1 330
1 331
1 332
1 333
1 334
1 335
1 336
1 337
1 338
1 339
1 340
1 341
1 342
1 343
1 344
1 345
1 346
1 347
1 348
1 349
1 350
1 351
1 352
1 353
1 354
1 355
1 356
1 357
1 358
1 359
1 360
1 361
1 362
1 363
1 364
1 365
1 366
1 367
1 368
1 369
1 370
1 371
1 372
1 373
1 374
1 375
1 376
1 377
1 378
1 379
1 380
1 381
1 382
1 383
1 384
1 385
1 386
1 387
1 388
1 389
1 390
1 391
1 392
1 393
1 394
1 395
1 396
1 397
1 398
1 399
1 400
1 401
1 402
1 403
1 404
1 405
1 406
1 407
1 408
1 409
1 410
1 411
1 412
1 413
1 414
1 415
1 416
1 417
1 418
1 419
1 420
1 421
1 422
1 423
1 424
1 425
1 426
1 427
1 428
1 429
1 430
1 431
1 432
1 433
1 434
1 435
1 436
1 437
1 438
1 439
1 440
1 441
1 442
1 443
1 444
1 445
1 446
1 447
1 448
1 449
1 450
1 451
1 452
1 453
1 454
1 455
1 456
1 457
1 458
1 459
1 460
1 461
1 462
1 463
1 464
1 465
1 466
1 467
1 468
1 469
1 470
1 471
1 472
1 473
1 474
1 475
1 476
1 477
1 478
1 479
1 480
1 481
1 482
1 483
1 484
1 485
1 486
1 487
1 488
1 489
1 490
1 491
1 492
1 493
1 494
1 495
1 496
1 497
1 498
1 499
1 500
1 501
1 502
1 503
1 504
1 505
1 506
1 507
1 508
1 509
1 510
1 511
1 512
1 513
1 514
1 515
1 516
1 517
1 518
1 519
1 520
1 521
1 522
1 523
1 524
1 525
1 526
1 527
1 528
1 529
1 530
1 531
1 532
1 533
1 534
1 535
1 536
1 537
1 538
1 539
1 540
1 541
1 542
1 543
1 544
1 545
1 546
1 547
1 548
1 549
1 550
1 551
1 552
1 553
1 554
1 555
1 556
1 557
1 558
1 559
1 560
1 561
1 562
1 563
1 564
1 565
1 566
1 567
1 568
1 569
1 570
1 571
1 572
1 573
1 574
1 575
1 576
1 577
1 578
1 579
1 580
1 581
1 582
1 583
1 584
1 585
1 586
1 587
1 588
1 589
1 590
1 591
1 592
1 593
1 594
1 595
1 596
1 597
1 598
1 599
1 600
1 601
1 602
1 603
1 604
1 605
1 606
1 607
1 608
1 609
1 610
1 611
1 612
1 613
1 614
1 615
1 616
1 617
1 618
1 619
1 620
1 621
1 622
1 623
1 624
1 625
1 626
1 627
1 628
1 629
1 630
1 631
1 632
1 633
1 634
1 635
1 636
1 637
1 638
1 639
1 640
1 641
1 642
1 643
1 644
1 645
1 646
1 647
1 648
1 649
1 650
1 651
1 652
1 653
1 654
1 655
1 656
1 657
1 658
1 659
1 660
1 661
1 662
1 663
1 664
1 665
1 666
1 667
1 668
1 669
1 670
1 671
1 672
1 673
1 674
1 675
1 676
1 677
1 678
1 679
1 680
1 681
1 682
1 683
1 684
1 685
1 686
1 687
1 688
1 689
1 690
1 691
1 692
1 693
1 694
1 695
1 696
1 697
1 698
1 699
1 700
1 701
1 702
1 703
1 704
1 705
1 706
1 707
1 708
1 709
1 710
1 711
1 712
1 713
1 714
1 715
1 716
1 717
1 718
1 719
1 720
1 721
1 722
1 723
1 724
1 725
1 726
1 727
1 728
1 729
1 730
1 731
1 732
1 733
1 734
1 735
1 736
1 737
1 738
1 739
1 740
1 741
1 742
1 743
1 744
1 745
1 746
1 747
1 748
1 749
1 750
1 751
1 752
1 753
1 754
1 755
1 756
1 757
1 758
1 759
1 760
1 761
1 762
1 763
1 764
1 765
1 766
1 767
1 768
1 769
1 770
1 771
1 772
1 773
1 774
1 775
1 776
1 777
1 778
1 779
1 780
1 781
1 782
1 783
1 784
1 785
1 786
1 787
1 788
1 789
1 790
1 791
1 792
1 793
1 794
1 795
1 796
1 797
1 798
1 799
1 800
1 801
1 802
1 803
1 804
1 805
1 806
1 807
1 808
1 809
1 810
1 811
1 812
1 813
1 814
1 815
1 816
1 817
1 818
1 819
1 820
1 821
1 822
1 823
1 824
1 825
1 826
1 827
1 828
1 829
1 830
1 831
1 832
1 833
1 834
1 835
1 836
1 837
1 838
1 839
1 840
1 841
1 842
1 843
1 844
1 845
1 846
1 847
1 848
1 849
1 850
1 851
1 852
1 853
1 854
1 855
1 856
1 857
1 858
1 859
1 860
1 861
1 862
1 863
1 864
1 865
1 866
1 867
1 868
1 869
1 870
1 871
1 872
1 873
1 874
1 875
1 876
1 877
1 878
1 879
1 880
1 881
1 882
1 883
1 884
1 885
1 886
1 887
1 888
1 889
1 890
1 891
1 892
1 893
1 894
1 895
1 896
1 897
1 898
1 899
1 900
1 901
1 902
1 903
1 904
1 905
1 906
1 907
1 908
1 909
1 910
1 911
1 912
1 913
1 914
1 915
1 916
1 917
1 918
1 919
1 920
1 921
1 922
1 923
1 924
1 925
1 926
1 927
1 928
1 929
1 930
1 931
1 932
1 933
1 934
1 935
1 936
1 937
1 938
1 939
1 940
1 941
1 942
1 943
1 944
1 945
1 946
1 947
1 948
1 949
1 950
1 951
1 952
1 953
1 954
1 955
1 956
1 957
1 958
1 959
1 960
1 961
1 962
1 963
1 964
1 965
1 966
1 967
1 968
1 969
1 970
1 971
1 972
1 973
1 974
1 975
1 976
1 977
1 978
1 979
1 980
1 981
1 982
1 983
1 984
1 985
1 986
1 987
1 988
1 989
1 990
1 991
1 992
1 993
1 994
1 995
1 996
1 997
1 998
1 999
1 1000
1 1001
1 1002
1 1003
1 1004
1 1005
1 1006
1 1007
1 1008
1 1009
1 1010
1 1011
1 1012
1 1013
1 1014
1 1015
1 1016
1 1017
1 1018
1 1019
1 1020
1 1021
1 1022
1 1023
1 1024
1 1025
1 1026
1 1027
1 1028
1 1029
1 1030
1 1031
1 1032
1 1033
1 1034
1 1035
1 1036
1 1037
1 1038
1 1039
1 1040
1 1041
1 1042
1 1043
1 1044
1 1045
1 1046
1 1047
1 1048
1 1049
1 1050
1 1051
1 1052
1 1053
1 1054
1 1055
1 1056
1 1057
1 1058
1 1059
1 1060
1 1061
1 1062
1 1063
1 1064
1 1065
1 1066
1 1067
1 1068
1 1069
1 1070
1 1071
1 1072
1 1073
1 1074
1 1075
1 1076
1 1077
1 1078
1 1079
1 1080
1 1081
1 1082
1 1083
1 1084
1 1085
1 1086
1 1087
1 1088
1 1089
1 1090
1 1091
1 1092
1 1093
1 1094
1 1095
1 1096
1 1097
1 1098
1 1099
1 1100
1 1101
1 1102
1 1103
1 1104
1 1105
1 1106
1 1107
1 1108
1 1109
1 1110
1 1111
1 1112
1 1113
1 1114
1 1115
1 1116
1 1117
1 1118
1 1119
1 1120
1 1121
1 1122
1 1123
1 1124
1 1125
1 1126
1 1127
1 1128
1 1129
1 1130
1 1131
1 1132
1 1133
1 1134
1 1135
1 1136
1 1137
1 1138
1 1139
1 1140
1 1141
1 1142
1 1143
1 1144
1 1145
1 1146
1 1147
1 1148
1 1149
1 1150
1 1151
1 1152
1 1153
1 1154
1 1155
1 1156
1 1157
1 1158
1 1159
1 1160
1 1161
1 1162
1 1163
1 1164
1 1165
1 1166
1 1167
1 1168
1 1169
1 1170
1 1171
1 1172
1 1173
1 1174
1 1175
1 1176
1 1177
1 1178
1 1179
1 1180
1 1181
1 1182
1 1183
1 1184
1 1185
1 1186
1 1187
1 1188
1 1189
1 1190
1 1191
1 1192
1 1193
1 1194
1 1195
1 1196
1 1197
1 1198
1 1199
1 1200
1 1201
1 1202
1 1203
1 1204
1 1205
1 1206
1 1207
1 1208
1 1209
1 1210
1 1211
1 1212
1 1213
1 1214
1 1215
1 1216
1 1217
1 1218
1 1219
1 1220
1 1221
1 1222
1 1223
1 1224
1 1225
1 1226
1 1227
1 1228
1 1229
1 1230
1 1231
1 1232
1 1233
1 1234
1 1235
1 1236
1 1237
1 1238
1 1239
1 1240
1 1241
1 1242
1 1243
1 1244
1 1245
1 1246
1 1247
1 1248
1 1249
1 1250
1 1251
1 1252
1 1253
1 1254
1 1255
1 1256
1 1257
1 1258
1 1259
1 1260
1 1261
1 1262
1 1263
1 1264
1 1265
1 1266
1 1267
1 1268
1 1269
1 1270
1 1271
1 1272
1 1273
1 1274
1 1275
1 1276
1 1277
1 1278
1 1279
1 1280
1 1281
1 1282
1 1283
1 1284
1 1285
1 1286
1 1287
1 1288
1 1289
1 1290
1 1291
1 1292
1 1293
1 1294
1 1295
1 1296
1 1297
1 1298
1 1299
1 1300
1 1301
1 1302
1 1303
1 1304
1 1305
1 1306
1 1307
1 1308
1 1309
1 1310
1 1311
1 1312
1 1313
1 1314
1 1315
1 1316
1 1317
1 1318
1 1319
1 1320
1 1321
1 1322
1 1323
1 1324
1 1325
1 1326
1 1327
1 1328
1 1329
1 1330
1 1331
1 1332
1 1333
1 1334
1 1335
1 1336
1 1337
1 1338
1 1339
1 1340
1 1341
1 1342
1 1343
1 1344
1 1345
1 1346
1 1347
1 1348
1 1349
1 1350
1 1351
1 1352
1 1353
1 1354
1 1355
1 1356
1 1357
1 1358
1 1359
1 1360
1 1361
1 1362
1 1363
1 1364
1 1365
1 1366
1 1367
1 1368
1 1369
1 1370
1 1371
1 1372
1 1373
1 1374
1 1375
1 1376
1 1377
1 1378
1 1379
1 1380
1 1381
1 1382
1 1383
1 1384
1 1385
1 1386
1 1387
1 1388
1 1389
1 1390
1 1391
1 1392
1 1393
1 1394
1 1395
1 1396
1 1397
1 1398
1 1399
1 1400
1 1401
1 1402
1 1403
1 1404
1 1405
1 1406
1 1407
1 1408
1 1409
1 1410
1 1411
1 1412
1 1413
1 1414
1 1415
1 1416
1 1417
1 1418
1 1419
1 1420
1 1421
1 1422
1 1423
1 1424
1 1425
1 1426
1 1427
1 1428
1 1429
1 1430
1 1431
1 1432
1 1433
1 1434
1 1435
1 1436
1 1437
1 1438
1 1439
1 1440
1 1441
1 1442
1 1443
1 1444
1 1445
1 1446
1 1447
1 1448
1 1449
1 1450
1 1451
1 1452
1 1453
1 1454
1 1455
1 1456
1 1457
1 1458
1 1459
1 1460
1 1461
1 1462
1 1463
1 1464
1 1465
1 1466
1 1467
1 1468
1 1469
1 1470
1 1471
1 1472
1 1473
1 1474
1 1475
1 1476
1 1477
1 1478
1 1479
1 1480
1 1481
1 1482
1 1483
1 1484
1 1485
1 1486
1 1487
1 1488
1 1489
1 1490
1 1491
1 1492
1 1493
1 1494
1 1495
1 1496
1 1497
1 1498
1 1499
1 1500
1 1501
1 1502
1 1503
1 1504
1 1505
1 1506
1 1507
1 1508
1 1509
1 1510
1 1511
1 1512
1 1513
1 1514
1 1515
1 1516
1 1517
1 1518
1 1519
1 1520
1 1521
1 1522
1 1523
1 1524
1 1525
1 1526
1 1527
1 1528
1 1529
1 1530
1 1531
1 1532
1 1533
1 1534
1 1535
1 1536
1 1537
1 1538
1 1539
1 1540
1 1541
1 1542
1 1543
1 1544
1 1545
1 1546
1 1547
1 1548
1 1549
1 1550
1 1551
1 1552
1 1553
1 1554
1 1555
1 1556
1 1557
1 1558
1 1559
1 1560
1 1561
1 1562
1 1563
1 1564
1 1565
1 1566
1 1567
1 1568
1 1569
1 1570
1 1571
1 1572
1 1573
1 1574
1 1575
1 1576
1 1577
1 1578
1 1579
1 1580
1 1581
1 1582
1 1583
1 1584
1 1585
1 1586
1 1587
1 1588
1 1589
1 1590
1 1591
1 1592
1 1593
1 1594
1 1595
1 1596
1 1597
1 1598
1 1599
1 1600
1 1601
1 1602
1 1603
1 1604
1 1605
1 1606
1 1607
1 1608
1 1609
1 1610
1 1611
1 1612
1 1613
1 1614
1 1615
1 1616
1 1617
1 1618
1 1619
1 1620
1 1621
1 1622
1 1623
1 1624
1 1625
1 1626
1 1627
1 1628
1 1629
1 1630
1 1631
1 1632
1 1633
1 1634
1 1635
1 1636
1 1637
1 1638
1 1639
1 1640
1 1641
1 1642
1 1643
1 1644
1 1645
1 1646
1 1647
1 1648
1 1649
1 1650
1 1651
1 1652
1 1653
1 1654
1 1655
1 1656
1 1657
1 1658
1 1659
1 1660
1 1661
1 1662
1 1663
1 1664
1 1665
1 1666
1 1667
1 1668
1 1669
1 1670
1 1671
1 1672
1 1673
1 1674
1 1675
1 1676
1 1677
1 1678
1 1679
1 1680
1 1681
1 1682
1 1683
1 1684
1 1685
1 1686
1 1687
1 1688
1 1689
1 1690
1 1691
1 1692
1 1693
1 1694
1 1695
1 1696
1 1697
1 1698
1 1699
1 1700
1 1701
1 1702
1 1703
1 1704
1 1705
1 1706
1 1707
1 1708
1 1709
1 1710
1 1711
1 1712
1 1713
1 1714
1 1715
1 1716
1 1717
1 1718
1 1719
1 1720
1 1721
1 1722
1 1723
1 1724
1 1725
1 1726
1 1727
1 1728
1 1729
1 1730
1 1731
1 1732
1 1733
1 1734
1 1735
1 1736
1 1737
1 1738
1 1739
1 1740
1 1741
1 1742
1 1743
1 1744
1 1745
1 1746
1 1747
1 1748
1 1749
1 1750
1 1751
1 1752
1 1753
1 1754
1 1755
1 1756
1 1757
1 1758
1 1759
1 1760
1 1761
1 1762
1 1763
1 1764
1 1765
1 1766
1 1767
1 1768
1 1769
1 1770
1 1771
1 1772
1 1773
1 1774
1 1775
1 1776
1 1777
1 1778
1 1779
1 1780
1 1781
1 1782
1 1783
1 1784
1 1785
1 1786
1 1787
1 1788
1 1789
1 1790
1 1791
1 1792
1 1793
1 1794
1 1795
1 1796
1 1797
1 1798
1 1799
1 1800
1 1801
1 1802
1 1803
1 1804
1 1805
1 1806
1 1807
1 1808
1 1809
1 1810
1 1811
1 1812
1 1813
1 1814
1 1815
1 1816
1 1817
1 1818
1 1819
1 1820
1 1821
1 1822
1 1823
1 1824
1 1825
1 1826
1 1827
1 1828
1 1829
1 1830
1 1831
1 1832
1 1833
1 1834
1 1835
1 1836
1 1837
1 1838
1 1839
1 1840
1 1841
1 1842
1 1843
1 1844
1 1845
1 1846
1 1847
1 1848
1 1849
1 1850
1 1851
1 1852
1 1853
1 1854
1 1855
1 1856
1 1857
1 1858
1 1859
1 1860
1 1861
1 1862
1 1863
1 1864
1 1865
1 1866
1 1867
1 1868
1 1869
1 1870
1 1871
1 1872
1 1873
1 1874
1 1875
1 1876
1 1877
1 1878
1 1879
1 1880
1 1881
1 1882
1 1883
1 1884
1 1885
1 1886
1 1887
1 1888
1 1889
1 1890
1 1891
1 1892
1 1893
1 1894
1 1895
1 1896
1 1897
1 1898
1 1899
1 1900
1 1901
1 1902
1 1903
1 1904
1 1905
1 1906
1 1907
1 1908
1 1909
1 1910
1 1911
1 1912
1 1913
1 1914
1 1915
1 1916
1 1917
1 1918
1 1919
1 1920
1 1921
1 1922
1 1923
1 1924
1 1925
1 1926
1 1927
1 1928
1 1929
1 1930
1 1931
1 1932
1 1933
1 1934
1 1935
1 1936
1 1937
1 1938
1 1939
1 1940
1 1941
1 1942
1 1943
1 1944
1 1945
1 1946
1 1947
1 1948
1 1949
1 1950
1 1951
1 1952
1 1953
1 1954
1 1955
1 1956
1 1957
1 1958
1 1959
1 1960
1 1961
1 1962
1 1963
1 1964
1 1965
1 1966
1 1967
1 1968
1 1969
1 1970
1 1971
1 1972
1 1973
1 1974
1 1975
1 1976
1 1977
1 1978
1 1979
1 1980
1 1981
1 1982
1 1983
1 1984
1 1985
1 1986
1 1987
1 1988
1 1989
1 1990
1 1991
1 1992
1 1993
1 1994
1 1995
1 1996
1 1997
1 1998
1 1999
1 2000
1 2001
1 2002
1 2003
1 2004
1 2005
1 2006
1 2007
1 2008
1 2009
1 2010
1 2011
1 2012
1 2013
1 2014
1 2015
1 2016
1 2017
1 2018
1 2019
1 2020
1 2021
1 2022
1 2023
1 2024
1 2025
1 2026
1 2027
1 2028
1 2029
1 2030
1 2031
1 2032
1 2033
1 2034
1 2035
1 2036
1 2037
1 2038
1 2039
1 2040
1 2041
1 2042
1 2043
1 2044
1 2045
1 2046
1 2047
1 2048
1 2049
1 2050
1 2051
1 2052
1 2053
1 2054
1 2055
1 2056
1 2057
1 2058
1 2059
1 2060
1 2061
1 2062
1 2063
1 2064
1 2065
1 2066
1 2067
1 2068
1 2069
1 2070
1 2071
1 2072
1 2073
1 2074
1 2075
1 2076
1 2077
1 2078
1 2079
1 2080
1 2081
1 2082
1 2083
1 2084
1 2085
1 2086
1 2087
1 2088
1 2089
1 2090
1 2091
1 2092
1 2093
1 2094
1 2095
1 2096
1 2097
1 2098
1 2099
1 2100
1 2101
1 2102
1 2103
1 2104
1 2105
1 2106
1 2107
1 2108
1 2109
1 2110
1 2111
1 2112
1 2113
1 2114
1 2115
1 2116
1 2117
1 2118
1 2119
1 2120
1 2121
1 2122
1 2123
1 2124
1 2125
1 2126
1 2127
1 2128
1 2129
1 2130
1 2131
1 2132
1 2133
1 2134
1 2135
1 2136
1 2137
1 2138
1 2139
1 2140
1 2141
1 2142
1 2143
1 2144
1 2145
1 2146
1 2147
1 2148
1 2149
1 2150
1 2151
1 2152
1 2153
1 2154
1 2155
1 2156
1 2157
1 2158
1 2159
1 2160
1 2161
1 2162
1 2163
1 2164
1 2165
1 2166
1 2167
1 2168
1 2169
1 2170
1 2171
1 2172
1 2173
1 2174
1 2175
1 2176
1 2177
1 2178
1 2179
1 2180
1 2181
1 2182
1 2183
1 2184
1 2185
1 2186
1 2187
1 2188
1 2189
1 2190
1 2191
1 2192
1 2193
1 2194
1 2195
1 2196
1 2197
1 2198
1 2199
1 2200
1 2201
1 2202
1 2203
1 2204
1 2205
1 2206
1 2207
1 2208
1 2209
1 2210
1 2211
1 2212
1 2213
1 2214
1 2215
1 2216
1 2217
1 2218
1 2219
1 2220
1 2221
1 2222
1 2223
1 2224
1 2225
1 2226
1 2227
1 2228
1 2229
1 2230
1 2231
1 2232
1 2233
1 2234
1 2235
1 2236
1 2237
1 2238
1 2239
1 2240
1 2241
1 2242
1 2243
1 2244
1 2245
1 2246
1 2247
1 2248
1 2249
1 2250
1 2251
1 2252
1 2253
1 2254
1 2255
1 2256
1 2257
1 2258
1 2259
1 2260
1 2261
1 2262
1 2263
1 2264
1 2265
1 2266
1 2267
1 2268
1 2269
1 2270
1 2271
1 2272
1 2273
1 2274
1 2275
1 2276
1 2277
1 2278
1 2279
1 2280
1 2281
1 2282
1 2283
1 2284
1 2285
1 2286
1 2287
1 2288
1 2289
1 2290
1 2291
1 2292
1 2293
1 2294
1 2295
1 2296
1 2297
1 2298
1 2299
1 2300
1 2301
1 2302
1 2303
1 2304
1 2305
1 2306
1 2307
1 2308
1 2309
1 2310
1 2311
1 2312
1 2313
1 2314
1 2315
1 2316
1 2317
1 2318
1 2319
1 2320
1 2321
1 2322
1 2323
1 2324
1 2325
1 2326
1 2327
1 2328
1 2329
1 2330
1 2331
1 2332
1 2333
1 2334
1 2335
1 2336
1 2337
1 2338
1 2339
1 2340
1 2341
1 2342
1 2343
1 2344
1 2345
1 2346
1 2347
1 2348
1 2349
1 2350
1 2351
1 2352
1 2353
1 2354
1 2355
1 2356
1 2357
1 2358
1 2359
1 2360
1 2361
1 2362
1 2363
1 2364
1 2365
1 2366
1 2367
1 2368
1 2369
1 2370
1 2371
1 2372
1 2373
1 2374
1 2375
1 2376
1 2377
1 2378
1 2379
1 2380
1 2381
1 2382
1 2383
1 2384
1 2385
1 2386
1 2387
1 2388
1 2389
1 2390
1 2391
1 2392
1 2393
1 2394
1 2395
1 2396
1 2397
1 2398
1 2399
1 2400
1 2401
1 2402
1 2403
1 2404
1 2405
1 2406
1 2407
1 2408
1 2409
1 2410
1 2411
1 2412
1 2413
1 2414
1 2415
1 2416
1 2417
1 2418
1 2419
1 2420
1 2421
1 2422
1 2423
1 2424
1 2425
1 2426
1 2427
1 2428
1 2429
1 2430
1 2431
1 2432
1 2433
1 2434
1 2435
1 2436
1 2437
1 2438
1 2439
1 2440
1 2441
1 2442
1 2443
1 2444
1 2445
1 2446
1 2447
1 2448
1 2449
1 2450
1 2451
1 2452
1 2453
1 2454
1 2455
1 2456
1 2457
1 2458
1 2459
1 2460
1 2461
1 2462
1 2463
1 2464
1 2465
1 2466
1 2467
1 2468
1 2469
1 2470
1 2471
1 2472
1 2473
1 2474
1 2475
1 2476
1 2477
1 2478
1 2479
1 2480
1 2481
1 2482
1 2483
1 2484
1 2485
1 2486
1 2487
1 2488
1 2489
1 2490
1 2491
1 2492
1 2493
1 2494
1 2495
1 2496
1 2497
1 2498
1 2499
1 2500
1 2501
1 2502
1 2503
1 2504
1 2505
1 2506
1 2507
1 2508
1 2509
1 2510
1 2511
1 2512
1 2513
1 2514
1 2515
1 2516
1 2517
1 2518
1 2519
1 2520
1 2521
1 2522
1 2523
1 2524
1 2525
1 2526
1 2527
1 2528
1 2529
1 2530
1 2531
1 2532
1 2533
1 2534
1 2535
1 2536
1 2537
1 2538
1 2539
1 2540
1 2541
1 2542
1 2543
1 2544
1 2545
1 2546
1 2547
1 2548
1 2549
1 2550
1 2551
1 2552
1 2553
1 2554
1 2555
1 2556
1 2557
1 2558
1 2559
1 2560
1 2561
1 2562
1 2563
1 2564
1 2565
1 2566
1 2567
1 2568
1 2569
1 2570
1 2571
1 2572
1 2573
1 2574
1 2575
1 2576
1 2577
1 2578
1 2579
1 2580
1 2581
1 2582
1 2583
1 2584
1 2585
1 2586
1 2587
1 2588
1 2589
1 2590
1 2591
1 2592
1 2593
1 2594
1 2595
1 2596
1 2597
1 2598
1 2599
1 2600
1 2601
1 2602
1 2603
1 2604
1 2605
1 2606
1 2607
1 2608
1 2609
1 2610
1 2611
1 2612
1 2613
1 2614
1 2615
1 2616
1 2617
1 2618
1 2619
1 2620
1 2621
1 2622
1 2623
1 2624
1 2625
1 2626
1 2627
1 2628
1 2629
1 2630
1 2631
1 2632
1 2633
1 2634
1 2635
1 2636
1 2637
1 2638
1 2639
1 2640
1 2641
1 2642
1 2643
1 2644
1 2645
1 2646
1 2647
1 2648
1 2649
1 2650
1 2651
1 2652
1 2653
1 2654
1 2655
1 2656
1 2657
1 2658
1 2659
1 2660
1 2661
1 2662
1 2663
1 2664
1 2665
1 2666
1 2667
1 2668
1 2669
1 2670
1 2671
1 2672
1 2673
1 2674
1 2675
1 2676
1 2677
1 2678
1 2679
1 2680
1 2681
1 2682
1 2683
1 2684
1 2685
1 2686
1 2687
1 2688
1 2689
1 2690
1 2691
1 2692
1 2693
1 2694
1 2695
1 2696
1 2697
1 2698
1 2699
1 2700
1 2701
1 2702
1 2703
1 2704
1 2705
1 2706
1 2707
1 2708
1 2709
1 2710
1 2711
1 2712
1 2713
1 2714
1 2715
1 2716
1 2717
1 2718
1 2719
1 2720
1 2721
1 2722
1 2723
1 2724
1 2725
1 2726
1 2727
1 2728
1 2729
1 2730
1 2731
1 2732
1 2733
1 2734
1 2735
1 2736
1 2737
1 2738
1 2739
1 2740
1 2741
1 2742
1 2743
1 2744
1 2745
1 2746
1 2747
1 2748
1 2749
1 2750
1 2751
1 2752
1 2753
1 2754
1 2755
1 2756
1 2757
1 2758
1 2759
1 2760
1 2761
1 2762
1 2763
1 2764
1 2765
1 2766
1 2767
1 2768
1 2769
1 2770
1 2771
1 2772
1 2773
1 2774
1 2775
1 2776
1 2777
1 2778
1 2779
1 2780
1 2781
1 2782
1 2783
1 2784
1 2785
1 2786
1 2787
1 2788
1 2789
1 2790
1 2791
1 2792
1 2793
1 2794
1 2795
1 2796
1 2797
1 2798
1 2799
1 2800
1 2801
1 2802
1 2803
1 2804
1 2805
1 2806
1 2807
1 2808
1 2809
1 2810
1 2811
1 2812
1 2813
1 2814
1 2815
1 2816
1 2817
1 2818
1 2819
1 2820
1 2821
1 2822
1 2823
1 2824
1 2825
1 2826
1 2827
1 2828
1 2829
1 2830
1 2831
1 2832
1 2833
1 2834
1 2835
1 2836
1 2837
1 2838
1 2839
1 2840
1 2841
1 2842
1 2843
1 2844
1 2845
1 2846
1 2847
1 2848
1 2849
1 2850
1 2851
1 2852
1 2853
1 2854
1 2855
1 2856
1 2857
1 2858
1 2859
1 2860
1 2861
1 2862
1 2863
1 2864
1 2865
1 2866
1 2867
1 2868
1 2869
1 2870
1 2871
1 2872
1 2873
1 2874
1 2875
1 2876
1 2877
1 2878
1 2879
1 2880
1 2881
1 2882
1 2883
1 2884
1 2885
1 2886
1 2887
1 2888
1 2889
1 2890
1 2891
1 2892
1 2893
1 2894
1 2895
1 2896
1 2897
1 2898
1 2899
1 2900
1 2901
1 2902
1 2903
1 2904
1 2905
1 2906
1 2907
1 2908
1 2909
1 2910
1 2911
1 2912
1 2913
1 2914
1 2915
1 2916
1 2917
1 2918
1 2919
1 2920
1 2921
1 2922
1 2923
1 2924
1 2925
1 2926
1 2927
1 2928
1 2929
1 2930
1 2931
1 2932
1 2933
1 2934
1 2935
1 2936
1 2937
1 2938
1 2939
1 2940
1 2941
1 2942
1 2943
1 2944
1 2945
1 2946
1 2947
1 2948
1 2949
1 2950
1 2951
1 2952
1 2953
1 2954
1 2955
1 2956
1 2957
1 2958
1 2959
1 2960
1 2961
1 2962
1 2963
1 2964
1 2965
1 2966
1 2967
1 2968
1 2969
1 2970
1 2971
1 2972
1 2973
1 2974
1 2975
1 2976
1 2977
1 2978
1 2979
1 2980
1 2981
1 2982
1 2983
1 2984
1 2985
1 2986
1 2987
1 2988
1 2989
1 2990
1 2991
1 2992
1 2993
1 2994
1 2995
1 2996
1 2997
1 2998
1 2999
1 3000
1 3001
1 3002
1 3003
1 3004
1 3005
1 3006
1 3007
1 3008
1 3009
1 3010
1 3011
1 3012
1 3013
1 3014
1 3015
1 3016
1 3017
1 3018
1 3019
1 3020
1 3021
1 3022
1 3023
1 3024
1 3025
1 3026
1 3027
1 3028
1 3029
1 3030
1 3031
1 3032
1 3033
1 3034
1 3035
1 3036
1 3037
1 3038
1 3039
1 3040
1 3041
1 3042
1 3043
1 3044
1 3045
1 3046
1 3047
1 3048
1 3049
1 3050
1 3051
1 3052
1 3053
1 3054
1 3055
1 3056
1 3057
1 3058
1 3059
1 3060
1 3061
1 3062
1 3063
1 3064
1 3065
1 3066
1 3067
1 3068
1 3069
1 3070
1 3071
1 3072
1 3073
1 3074
1 3075
1 3076
1 3077
1 3078
1 3079
1 3080
1 3081
1 3082
1 3083
1 3084
1 3085
1 3086
1 3087
1 3088
1 3089
1 3090
1 3091
1 3092
1 3093
1 3094
1 3095
1 3096
1 3097
1 3098
1 3099
1 3100
1 3101
1 3102
1 3103
1 3104
1 3105
1 3106
1 3107
1 3108
1 3109
1 3110
1 3111
1 3112
1 3113
1 3114
1 3115
1 3116
1 3117
1 3118
1 3119
1 3120
1 3121
1 3122
1 3123
1 3124
1 3125
1 3126
1 3127
1 3128
1 3129
1 3130
1 3131
1 3132
1 3133
1 3134
1 3135
1 3136
1 3137
1 3138
1 3139
1 3140
1 3141
1 3142
1 3143
1 3144
1 3145
1 3146
1 3147
1 3148
1 3149
1 3150
1 3151
1 3152
1 3153
1 3154
1 3155
1 3156
1 3157
1 3158
1 3159
1 3160
1 3161
1 3162
1 3163
1 3164
1 3165
1 3166
1 3167
1 3168
1 3169
1 3170
1 3171
1 3172
1 3173
1 3174
1 3175
1 3176
1 3177
1 3178
1 3179
1 3180
1 3181
1 3182
1 3183
1 3184
1 3185
1 3186
1 3187
1 3188
1 3189
1 3190
1 3191
1 3192
1 3193
1 3194
1 3195
1 3196
1 3197
1 3198
1 3199
1 3200
1 3201
1 3202
1 3203
1 3204
1 3205
1 3206
1 3207
1 3208
1 3209
1 3210
1 3211
1 3212
1 3213
1 3214
1 3215
1 3216
1 3217
1 3218
1 3219
1 3220
1 3221
1 3222
1 3223
1 3224
1 3225
1 3226
1 3227
1 3228
1 3229
1 3230
1 3231
1 3232
1 3233
1 3234
1 3235
1 3236
1 3237
1 3238
1 3239
1 3240
1 3241
1 3242
1 3243
1 3244
1 3245
1 3246
1 3247
1 3248
1 3249
1 3250
1 3251
1 3252
1 3253
1 3254
1 3255
1 3256
1 3257
1 3258
1 3259
1 3260
1 3261
1 3262
1 3263
1 3264
1 3265
1 3266
1 3267
1 3268
1 3269
1 3270
1 3271
1 3272
1 3273
1 3274
1 3275
1 3276
1 3277
1 3278
1 3279
1 3280
1 3281
1 3282
1 3283
1 3284
1 3285
1 3286
1 3287
1 3288
1 3289
1 3290
1 3291
1 3292
1 3293
1 3294
1 3295
1 3296
1 3297
1 3298
1 3299
1 3300
1 3301
1 3302
1 3303
1 3304
1 3305
1 3306
1 3307
1 3308
1 3309
1 3310
1 3311
1 3312
1 3313
1 3314
1 3315
1 3316
1 3317
1 3318
1 3319
1 3320
1 3321
1 3322
1 3323
1 3324
1 3325
1 3326
1 3327
1 3328
1 3329
1 3330
1 3331
1 3332
1 3333
1 3334
1 3335
1 3336
1 3337
1 3338
1 3339
1 3340
1 3341
1 3342
1 3343
1 3344
1 3345
1 3346
1 3347
1 3348
1 3349
1 3350
1 3351
1 3352
1 3353
1 3354
1 3355
1 3356
1 3357
1 3358
1 3359
1 3360
1 3361
1 3362
1 3363
1 3364
1 3365
1 3366
1 3367
1 3368
1 3369
1 3370
1 3371
1 3372
1 3373
1 3374
1 3375
1 3376
1 3377
1 3378
1 3379
1 3380
1 3381
1 3382
1 3383
1 3384
1 3385
1 3386
1 3387
1 3388
1 3389
1 3390
1 3391
1 3392
1 3393
1 3394
1 3395
1 3396
1 3397
1 3398
1 3399
1 3400
1 3401
1 3402
1 3403
1 3404
1 3405
1 3406
1 3407
1 3408
1 3409
1 3410
1 3411
1 3412
1 3413
1 3414
1 3415
1 3416
1 3417
1 3418
1 3419
1 3420
1 3421
1 3422
1 3423
1 3424
1 3425
1 3426
1 3427
1 3428
1 3429
1 3430
1 3431
1 3432
1 3433
1 3434
1 3435
1 3436
1 3437
1 3438
1 3439
1 3440
1 3441
1 3442
1 3443
1 3444
1 3445
1 3446
1 3447
1 3448
1 3449
1 3450
1 3451
1 3452
1 3453
1 3454
1 3455
1 3456
1 3457
1 3458
1 3459
1 3460
1 3461
1 3462
1 3463
1 3464
1 3465
1 3466
1 3467
1 3468
1 3469
1 3470
1 3471
1 3472
1 3473
1 3474
1 3475
1 3476
1 3477
1 3478
1 3479
1 3480
1 3481
1 3482
1 3483
1 3484
1 3485
1 3486
1 3487
1 3488
1 3489
1 3490
1 3491
1 3492
1 3493
1 3494
1 3495
1 3496
1 3497
1 3498
1 3499
1 3500
1 3501
1 3502
1 3503
1 3504
1 3505
1 3506
1 3507
1 3508
1 3509
1 3510
1 3511
1 3512
1 3513
1 3514
1 3515
1 3516
1 3517
1 3518
1 3519
1 3520
1 3521
1 3522
1 3523
1 3524
1 3525
1 3526
1 3527
1 3528
1 3529
1 3530
1 3531
1 3532
1 3533
1 3534
1 3535
1 3536
1 3537
1 3538
1 3539
1 3540
1 3541
1 3542
1 3543
1 3544
1 3545
1 3546
1 3547
1 3548
1 3549
1 3550
1 3551
1 3552
1 3553
1 3554
1 3555
1 3556
1 3557
1 3558
1 3559
1 3560
1 3561
1 3562
1 3563
1 3564
1 3565
1 3566
1 3567
1 3568
1 3569
1 3570
1 3571
1 3572
1 3573
1 3574
1 3575
1 3576
1 3577
1 3578
1 3579
1 3580
1 3581
1 3582
1 3583
1 3584
1 3585
1 3586
1 3587
1 3588
1 3589
1 3590
1 3591
1 3592
1 3593
1 3594
1 3595
1 3596
1 3597
1 3598
1 3599
1 3600
1 3601
1 3602
1 3603
1 3604
1 3605
1 3606
1 3607
1 3608
1 3609
1 3610
1 3611
1 3612
1 3613
1 3614
1 3615
1 3616
1 3617
1 3618
1 3619
1 3620
1 3621
1 3622
1 3623
1 3624
1 3625
1 3626
1 3627
1 3628
1 3629
1 3630
1 3631
1 3632
1 3633
1 3634
1 3635
1 3636
1 3637
1 3638
1 3639
1 3640
1 3641
1 3642
1 3643
1 3644
1 3645
1 3646
1 3647
1 3648
1 3649
1 3650
1 3651
1 3652
1 3653
1 3654
1 3655
1 3656
1 3657
1 3658
1 3659
1 3660
1 3661
1 3662
1 3663
1 3664
1 3665
1 3666
1 3667
1 3668
1 3669
1 3670
1 3671
1 3672
1 3673
1 3674
1 3675
1 3676
1 3677
1 3678
1 3679
1 3680
1 3681
1 3682
1 3683
1 3684
1 3685
1 3686
1 3687
1 3688
1 3689
1 3690
1 3691
1 3692
1 3693
1 3694
1 3695
1 3696
1 3697
1 3698
1 3699
1 3700
1 3701
1 3702
1 3703
1 3704
1 3705
1 3706
1 3707
1 3708
1 3709
1 3710
1 3711
1 3712
1 3713
1 3714
1 3715
1 3716
1 3717
1 3718
1 3719
1 3720
1 3721
1 3722
1 3723
1 3724
1 3725
1 3726
1 3727
1 3728
1 3729
1 3730
1 3731
1 3732
1 3733
1 3734
1 3735
1 3736
1 3737
1 3738
1 3739
1 3740
1 3741
1 3742
1 3743
1 3744
1 3745
1 3746
1 3747
1 3748
1 3749
1 3750
1 3751
1 3752
1 3753
1 3754
1 3755
1 3756
1 3757
1 3758
1 3759
1 3760
1 3761
1 3762
1 3763
1 3764
1 3765
1 3766
1 3767
1 3768
1 3769
1 3770
1 3771
1 3772
1 3773
1 3774
1 3775
1 3776
1 3777
1 3778
1 3779
1 3780
1 3781
1 3782
1 3783
1 3784
1 3785
1 3786
1 3787
1 3788
1 3789
1 3790
1 3791
1 3792
1 3793
1 3794
1 3795
1 3796
1 3797
1 3798
1 3799
1 3800
1 3801
1 3802
1 3803
1 3804
1 3805
1 3806
1 3807
1 3808
1 3809
1 3810
1 3811
1 3812
1 3813
1 3814
1 3815
1 3816
1 3817
1 3818
1 3819
1 3820
1 3821
1 3822
1 3823
1 3824
1 3825
1 3826
1 3827
1 3828
1 3829
1 3830
1 3831
1 3832
1 3833
1 3834
1 3835
1 3836
1 3837
1 3838
1 3839
1 3840
1 3841
1 3842
1 3843
1 3844
1 3845
1 3846
1 3847
1 3848
1 3849
1 3850
1 3851
1 3852
1 3853
1 3854
1 3855
1 3856
1 3857
1 3858
1 3859
1 3860
1 3861
1 3862
1 3863
1 3864
1 3865
1 3866
1 3867
1 3868
1 3869
1 3870
1 3871
1 3872
1 3873
1 3874
1 3875
1 3876
1 3877
1 3878
1 3879
1 3880
1 3881
1 3882
1 3883
1 3884
1 3885
1 3886
1 3887
1 3888
1 3889
1 3890
1 3891
1 3892
1 3893
1 3894
1 3895
1 3896
1 3897
1 3898
1 3899
1 3900
1 3901
1 3902
1 3903
1 3904
1 3905
1 3906
1 3907
1 3908
1 3909
1 3910
1 3911
1 3912
1 3913
1 3914
1 3915
1 3916
1 3917
1 3918
1 3919
1 3920
1 3921
1 3922
1 3923
1 3924
1 3925
1 3926
1 3927
1 3928
1 3929
1 3930
1 3931
1 3932
1 3933
1 3934
1 3935
1 3936
1 3937
1 3938
1 3939
1 3940
1 3941
1 3942
1 3943
1 3944
1 3945
1 3946
1 3947
1 3948
1 3949
1 3950
1 3951
1 3952
1 3953
1 3954
1 3955
1 3956
1 3957
1 3958
1 3959
1 3960
1 3961
1 3962
1 3963
1 3964
1 3965
1 3966
1 3967
1 3968
1 3969
1 3970
1 3971
1 3972
1 3973
1 3974
1 3975
1 3976
1 3977
1 3978
1 3979
1 3980
1 3981
1 3982
1 3983
1 3984
1 3985
1 3986
1 3987
1 3988
1 3989
1 3990
1 3991
1 3992
1 3993
1 3994
1 3995
1 3996
1 3997
1 3998
1 3999
1 4000
1 4001
1 4002
1 4003
1 4004
1 4005
1 4006
1 4007
1 4008
1 4009
1 4010
1 4011
1 4012
1 4013
1 4014
1 4015
1 4016
1 4017
1 4018
1 4019
1 4020
1 4021
1 4022
1 4023
1 4024
1 4025
1 4026
1 4027
1 4028
1 4029
1 4030
1 4031
1 4032
1 4033
1 4034
1 4035
1 4036
1 4037
1 4038
1 4039
1 4040
1 4041
1 4042
1 4043
1 4044
1 4045
1 4046
1 4047
1 4048
1 4049
1 4050
1 4051
1 4052
1 4053
1 4054
1 4055
1 4056
1 4057
1 4058
1 4059
1 4060
1 4061
1 4062
1 4063
1 4064
1 4065
1 4066
1 4067
1 4068
1 4069
1 4070
1 4071
1 4072
1 4073
1 4074
1 4075
1 4076
1 4077
1 4078
1 4079
1 4080
1 4081
1 4082
1 4083
1 4084
1 4085
1 4086
1 4087
1 4088
1 4089
1 4090
1 4091
1 4092
1 4093
1 4094
1 4095
1 4096
1 4097
1 4098
1 4099
1 4100
1 4101
1 4102
1 4103
1 4104
1 4105
1 4106
1 4107
1 4108
1 4109
1 4110
1 4111
1 4112
1 4113
1 4114
1 4115
1 4116
1 4117
1 4118
1 4119
1 4120
1 4121
1 4122
1 4123
1 4124
1 4125
1 4126
1 4127
1 4128
1 4129
1 4130
1 4131
1 4132
1 4133
1 4134
1 4135
1 4136
1 4137
1 4138
1 4139
1 4140
1 4141
1 4142
1 4143
1 4144
1 4145
1 4146
1 4147
1 4148
1 4149
1 4150
1 4151
1 4152
1 4153
1 4154
1 4155
1 4156
1 4157
1 4158
1 4159
1 4160
1 4161
1 4162
1 4163
1 4164
1 4165
1 4166
1 4167
1 4168
1 4169
1 4170
1 4171
1 4172
1 4173
1 4174
1 4175
1 4176
1 4177
1 4178
1 4179
1 4180
1 4181
1 4182
1 4183
1 4184
1 4185
1 4186
1 4187
1 4188
1 4189
1 4190
1 4191
1 4192
1 4193
1 4194
1 4195
1 4196
1 4197
1 4198
1 4199
1 4200
1 4201
1 4202
1 4203
1 4204
1 4205
1 4206
1 4207
1 4208
1 4209
1 4210
1 4211
1 4212
1 4213
1 4214
1 4215
1 4216
1 4217
1 4218
1 4219
1 4220
1 4221
1 4222
1 4223
1 4224
1 4225
1 4226
1 4227
1 4228
1 4229
1 4230
1 4231
1 4232
1 4233
1 4234
1 4235
1 4236
1 4237
1 4238
1 4239
1 4240
1 4241
1 4242
1 4243
1 4244
1 4245
1 4246
1 4247
1 4248
1 4249
1 4250
1 4251
1 4252
1 4253
1 4254
1 4255
1 4256
1 4257
1 4258
1 4259
1 4260
1 4261
1 4262
1 4263
1 4264
1 4265
1 4266
1 4267
1 4268
1 4269
1 4270
1 4271
1 4272
1 4273
1 4274
1 4275
1 4276
1 4277
1 4278
1 4279
1 4280
1 4281
1 4282
1 4283
1 4284
1 4285
1 4286
1 4287
1 4288
1 4289
1 4290
1 4291
1 4292
1 4293
1 4294
1 4295
1 4296
1 4297
1 4298
1 4299
1 4300
1 4301
1 4302
1 4303
1 4304
1 4305
1 4306
1 4307
1 4308
1 4309
1 4310
1 4311
1 4312
1 4313
1 4314
1 4315
1 4316
1 4317
1 4318
1 4319
1 4320
1 4321
1 4322
1 4323
1 4324
1 4325
1 4326
1 4327
1 4328
1 4329
1 4330
1 4331
1 4332
1 4333
1 4334
1 4335
1 4336
1 4337
1 4338
1 4339
1 4340
1 4341
1 4342
1 4343
1 4344
1 4345
1 4346
1 4347
1 4348
1 4349
1 4350
1 4351
1 4352
1 4353
1 4354
1 4355
1 4356
1 4357
1 4358
1 4359
1 4360
1 4361
1 4362
1 4363
1 4364
1 4365
1 4366
1 4367
1 4368
1 4369
1 4370
1 4371
1 4372
1 4373
1 4374
1 4375
1 4376
1 4377
1 4378
1 4379
1 4380
1 4381
1 4382
1 4383
1 4384
1 4385
1 4386
1 4387
1 4388
1 4389
1 4390
1 4391
1 4392
1 4393
1 4394
1 4395
1 4396
1 4397
1 4398
1 4399
1 4400
1 4401
1 4402
1 4403
1 4404
1 4405
1 4406
1 4407
1 4408
1 4409
1 4410
1 4411
1 4412
1 4413
1 4414
1 4415
1 4416
1 4417
1 4418
1 4419
1 4420
1 4421
1 4422
1 4423
1 4424
1 4425
1 4426
1 4427
1 4428
1 4429
1 4430
1 4431
1 4432
1 4433
1 4434
1 4435
1 4436
1 4437
1 4438
1 4439
1 4440
1 4441
1 4442
1 4443
1 4444
1 4445
1 4446
1 4447
1 4448
1 4449
1 4450
1 4451
1 4452
1 4453
1 4454
1 4455
1 4456
1 4457
1 4458
1 4459
1 4460
1 4461
1 4462
1 4463
1 4464
1 4465
1 4466
1 4467
1 4468
1 4469
1 4470
1 4471
1 4472
1 4473
1 4474
1 4475
1 4476
1 4477
1 4478
1 4479
1 4480
1 4481
1 4482
1 4483
1 4484
1 4485
1 4486
1 4487
1 4488
1 4489
1 4490
1 4491
1 4492
1 4493
1 4494
1 4495
1 4496
1 4497
1 4498
1 4499
1 4500
1 4501
1 4502
1 4503
1 4504
1 4505
1 4506
1 4507
1 4508
1 4509
1 4510
1 4511
1 4512
1 4513
1 4514
1 4515
1 4516
1 4517
1 4518
1 4519
1 4520
1 4521
1 4522
1 4523
1 4524
1 4525
1 4526
1 4527
1 4528
1 4529
1 4530
1 4531
1 4532
1 4533
1 4534
1 4535
1 4536
1 4537
1 4538
1 4539
1 4540
1 4541
1 4542
1 4543
1 4544
1 4545
1 4546
1 4547
1 4548
1 4549
1 4550
1 4551
1 4552
1 4553
1 4554
1 4555
1 4556
1 4557
1 4558
1 4559
1 4560
1 4561
1 4562
1 4563
1 4564
1 4565
1 4566
1 4567
1 4568
1 4569
1 4570
1 4571
1 4572
1 4573
1 4574
1 4575
1 4576
1 4577
1 4578
1 4579
1 4580
1 4581
1 4582
1 4583
1 4584
1 4585
1 4586
1 4587
1 4588
1 4589
1 4590
1 4591
1 4592
1 4593
1 4594
1 4595
1 4596
1 4597
1 4598
1 4599
1 4600
1 4601
1 4602
1 4603
1 4604
1 4605
1 4606
1 4607
1 4608
1 4609
1 4610
1 4611
1 4612
1 4613
1 4614
1 4615
1 4616
1 4617
1 4618
1 4619
1 4620
1 4621
1 4622
1 4623
1 4624
1 4625
1 4626
1 4627
1 4628
1 4629
1 4630
1 4631
1 4632
1 4633
1 4634
1 4635
1 4636
1 4637
1 4638
1 4639
1 4640
1 4641
1 4642
1 4643
1 4644
1 4645
1 4646
1 4647
1 4648
1 4649
1 4650
1 4651
1 4652
1 4653
1 4654
1 4655
1 4656
1 4657
1 4658
1 4659
1 4660
1 4661
1 4662
1 4663
1 4664
1 4665
1 4666
1 4667
1 4668
1 4669
1 4670
1 4671
1 4672
1 4673
1 4674
1 4675
1 4676
1 4677
1 4678
1 4679
1 4680
1 4681
1 4682
1 4683
1 4684
1 4685
1 4686
1 4687
1 4688
1 4689
1 4690
1 4691
1 4692
1 4693
1 4694
1 4695
1 4696
1 4697
1 4698
1 4699
1 4700
1 4701
1 4702
1 4703
1 4704
1 4705
1 4706
1 4707
1 4708
1 4709
1 4710
1 4711
1 4712
1 4713
1 4714
1 4715
1 4716
1 4717
1 4718
1 4719
1 4720
1 4721
1 4722
1 4723
1 4724
1 4725
1 4726
1 4727
1 4728
1 4729
1 4730
1 4731
1 4732
1 4733
1 4734
1 4735
1 4736
1 4737
1 4738
1 4739
1 4740
1 4741
1 4742
1 4743
1 4744
1 4745
1 4746
1 4747
1 4748
1 4749
1 4750
1 4751
1 4752
1 4753
1 4754
1 4755
1 4756
1 4757
1 4758
1 4759
1 4760
1 4761
1 4762
1 4763
1 4764
1 4765
1 4766
1 4767
1 4768
1 4769
1 4770
1 4771
1 4772
1 4773
1 4774
1 4775
1 4776
1 4777
1 4778
1 4779
1 4780
1 4781
1 4782
1 4783
1 4784
1 4785
1 4786
1 4787
1 4788
1 4789
1 4790
1 4791
1 4792
1 4793
1 4794
1 4795
1 4796
1 4797
1 4798
1 4799
1 4800
1 4801
1 4802
1 4803
1 4804
1 4805
1 4806
1 4807
1 4808
1 4809
1 4810
1 4811
1 4812
1 4813
1 4814
1 4815
1 4816
1 4817
1 4818
1 4819
1 4820
1 4821
1 4822
1 4823
1 4824
1 4825
1 4826
1 4827
1 4828
1 4829
1 4830
1 4831
1 4832
1 4833
1 4834
1 4835
1 4836
1 4837
1 4838
1 4839
1 4840
1 4841
1 4842
1 4843
1 4844
1 4845
1 4846
1 4847
1 4848
1 4849
1 4850
1 4851
1 4852
1 4853
1 4854
1 4855
1 4856
1 4857
1 4858
1 4859
1 4860
1 4861
1 4862
1 4863
1 4864
1 4865
1 4866
1 4867
1 4868
1 4869
1 4870
1 4871
1 4872
1 4873
1 4874
1 4875
1 4876
1 4877
1 4878
1 4879
1 4880
1 4881
1 4882
1 4883
1 4884
1 4885
1 4886
1 4887
1 4888
1 4889
1 4890
1 4891
1 4892
1 4893
1 4894
1 4895
1 4896
1 4897
1 4898
1 4899
1 4900
1 4901
1 4902
1 4903
1 4904
1 4905
1 4906
1 4907
1 4908
1 4909
1 4910
1 4911
1 4912
1 4913
1 4914
1 4915
1 4916
1 4917
1 4918
1 4919
1 4920
1 4921
1 4922
1 4923
1 4924
1 4925
1 4926
1 4927
1 4928
1 4929
1 4930
1 4931
1 4932
1 4933
1 4934
1 4935
1 4936
1 4937
1 4938
1 4939
1 4940
1 4941
1 4942
1 4943
1 4944
1 4945
1 4946
1 4947
1 4948
1 4949
1 4950
1 4951
1 4952
1 4953
1 4954
1 4955
1 4956
1 4957
1 4958
1 4959
1 4960
1 4961
1 4962
1 4963
1 4964
1 4965
1 4966
1 4967
1 4968
1 4969
1 4970
1 4971
1 4972
1 4973
1 4974
1 4975
1 4976
1 4977
1 4978
1 4979
1 4980
1 4981
1 4982
1 4983
1 4984
1 4985
1 4986
1 4987
1 4988
1 4989
1 4990
1 4991
1 4992
1 4993
1 4994
1 4995
1 4996
1 4997
1 4998
1 4999
CELL_TYPES 5000
1 
1 
1 
1 
1 
1 
1 
1 
1 
1 
1 
1 
1 
1 
1 
1 
1 
1 
1 
1 
1 
1 
1 
1 
1 
1 
1 
1 
1 
1 
1 
1 
1 
1 
1 
1 
1 
1 
1 
1 
1 
1 
1 
1 
1 
1 
1 
1 
1 
1 
1 
1 
1 
1 
1 
1 
1 
1 
1 
1 
1 
1 
1 
1 
1 
1 
1 
1 
1 
1 
1 
1 
1 
1 
1 
1 
1 
1 
1 
1 
1 
1 
1 
1 
1 
1 
1 
1 
1 
1 
1 
1 
1 
1 
1 
1 
1 
1 
1 
1 
1 
1 
1 
1 
1 
1 
1 
1 
1 
1 
1 
1 
1 
1 
1 
1 
1 
1 
1 
1 
1 
1 
1 
1 
1 
1 
1 
1 
1 
1 
1 
1 
1 
1 
1 
1 
1 
1 
1 
1 
1 
1 
1 
1 
1 
1 
1 
1 
1 
1 
1 
1 
1 
1 
1 
1 
1 
1 
1 
1 
1 
1 
1 
1 
1 
1 
1 
1 
1 
1 
1 
1 
1 
1 
1 
1 
1 
1 
1 
1 
1 
1 
1 
1 
1 
1 
1 
1 
1 
1 
1 
1 
1 
1 
1 
1 
1 
1 
1 
1 
1 
1 
1 
1 
1 
1 
1 
1 
1 
1 
1 
1 
1 
1 
1 
1 
1 
1 
1 
1 
1 
1 
1 
1 
1 
1 
1 
1 
1 
1 
1 
1 
1 
1 
1 
1 
1 
1 
1 
1 
1 
1 
1 
1 
1 
1 
1 
1 
1 
1 
1 
1 
1 
1 
1 
1 
1 
1 
1 
1 
1 
1 
1 
1 
1 
1 
1 
1 
1 
1 
1 
1 
1 
1 
1 
1 
1 
1 
1 
1 
1 
1 
1 
1 
1 
1 
1 
1 
1 
1 
1 
1 
1 
1 
1 
1 
1 
1 
1 
1 
1 
1 
1 
1 
1 
1 
1 
1 
1 
1 
1 
1 
1 
1 
1 
1 
1 
1 
1 
1 
1 
1 
1 
1 
1 
1 
1 
1 
1 
1 
1 
1 
1 
1 
1 
1 
1 
1 
1 
1 
1 
1 
1 
1 
1 
1 
1 
1 
1 
1 
1 
1 
1 
1 
1 
1 
1 
1 
1 
1 
1 
1 
1 
1 
1 
1 
1 
1 
1 
1 
1 
1 
1 
1 
1 
1 
1 
1 
1 
1 
1 
1 
1 
1 
1 
1 
1 
1 
1 
1 
1 
1 
1 
1 
1 
1 
1 
1 
1 
1 
1 
1 
1 
1 
1 
1 
1 
1 
1 
1 
1 
1 
1 
1 
1 
1 
1 
1 
1 
1 
1 
1 
1 
1 
1 
1 
1 
1 
1 
1 
1 
1 
1 
1 
1 
1 
1 
1 
1 
1 
1 
1 
1 
1 
1 
1 
1 
1 
1 
1 
1 
1 
1 
1 
1 
1 
1 
1 
1 
1 
1 
1 
1 
1 
1 
1 
1 
1 
1 
1 
1 
1 
1 
1 
1 
1 
1 
1 
1 
1 
1 
1 
1 
1 
1 
1 
1 
1 
1 
1 
1 
1 
1 
1 
1 
1 
1 
1 
1 
1 
1 
1 
1 
1 
1 
1 
1 
1 
1 
1 
1 
1 
1 
1 
1 
1 
1 
1 
1 
1 
1 
1 
1 
1 
1 
1 
1 
1 
1 
1 
1 
1 
1 
1 
1 
1 
1 
1 
1 
1 
1 
1 
1 
1 
1 
1 
1 
1 
1 
1 
1 
1 
1 
1 
1 
1 
1 
1 
1 
1 
1 
1 
1 
1 
1 
1 
1 
1 
1 
1 
1 
1 
1 
1 
1 
1 
1 
1 
1 
1 
1 
1 
1 
1 
1 
1 
1 
1 
1 
1 
1 
1 
1 
1 
1 
1 
1 
1 
1 
1 
1 
1 
1 
1 
1 
1 
1 
1 
1 
1 
1 
1 
1 
1 
1 
1 
1 
1 
1 
1 
1 
1 
1 
1 
1 
1 
1 
1 
1 
1 
1 
1 
1 
1 
1 
1 
1 
1 
1 
1 
1 
1 
1 
1 
1 
1 
1 
1 
1 
1 
1 
1 
1 
1 
1 
1 
1 
1 
1 
1 
1 
1 
1 
1 
1 
1 
1 
1 
1 
1 
1 
1 
1 
1 
1 
1 
1 
1 
1 
1 
1 
1 
1 
1 
1 
1 
1 
1 
1 
1 
1 
1 
1 
1 
1 
1 
1 
1 
1 
1 
1 
1 
1 
1 
1 
1 
1 
1 
1 
1 
1 
1 
1 
1 
1 
1 
1 
1 
1 
1 
1 
1 
1 
1 
1 
1 
1 
1 
1 
1 
1 
1 
1 
1 
1 
1 
1 
1 
1 
1 
1 
1 
1 
1 
1 
1 
1 
1 
1 
1 
1 
1 
1 
1 
1 
1 
1 
1 
1 
1 
1 
1 
1 
1 
1 
1 
1 
1 
1 
1 
1 
1 
1 
1 
1 
1 
1 
1 
1 
1 
1 
1 
1 
1 
1 
1 
1 
1 
1 
1 
1 
1 
1 
1 
1 
1 
1 
1 
1 
1 
1 
1 
1 
1 
1 
1 
1 
1 
1 
1 
1 
1 
1 
1 
1 
1 
1 
1 
1 
1 
1 
1 
1 
1 
1 
1 
1 
1 
1 
1 
1 
1 
1 
1 
1 
1 
1 
1 
1 
1 
1 
1 
1 
1 
1 
1 
1 
1 
1 
1 
1 
1 
1 
1 
1 
1 
1 
1 
1 
1 
1 
1 
1 
1 
1 
1 
1 
1 
1 
1 
1 
1 
1 
1 
1 
1 
1 
1 
1 
1 
1 
1 
1 
1 
1 
1 
1 
1 
1 
1 
1 
1 
1 
1 
1 
1 
1 
1 
1 
1 
1 
1 
1 
1 
1 
1 
1 
1 
1 
1 
1 
1 
1 
1 
1 
1 
1 
1 
1 
1 
1 
1 
1 
1 
1 
1 
1 
1 
1 
1 
1 
1 
1 
1 
1 
1 
1 
1 
1 
1 
1 
1 
1 
1 
1 
1 
1 
1 
1 
1 
1 
1 
1 
1 
1 
1 
1 
1 
1 
1 
1 
1 
1 
1 
1 
1 
1 
1 
1 
1 
1 
1 
1 
1 
1 
1 
1 
1 
1 
1 
1 
1 
1 
1 
1 
1 
1 
1 
1 
1 
1 
1 
1 
1 
1 
1 
1 
1 
1 
1 
1 
1 
1 
1 
1 
1 
1 
1 
1 
1 
1 
1 
1 
1 
1 
1 
1 
1 
1 
1 
1 
1 
1 
1 
1 
1 
1 
1 
1 
1 
1 
1 
1 
1 
1 
1 
1 
1 
1 
1 
1 
1 
1 
1 
1 
1 
1 
1 
1 
1 
1 
1 
1 
1 
1 
1 
1 
1 
1 
1 
1 
1 
1 
1 
1 
1 
1 
1 
1 
1 
1 
1 
1 
1 
1 
1 
1 
1 
1 
1 
1 
1 
1 
1 
1 
1 
1 
1 
1 
1 
1 
1 
1 
1 
1 
1 
1 
1 
1 
1 
1 
1 
1 
1 
1 
1 
1 
1 
1 
1 
1 
1 
1 
1 
1 
1 
1 
1 
1 
1 
1 
1 
1 
1 
1 
1 
1 
1 
1 
1 
1 
1 
1 
1 
1 
1 
1 
1 
1 
1 
1 
1 
1 
1 
1 
1 
1 
1 
1 
1 
1 
1 
1 
1 
1 
1 
1 
1 
1 
1 
1 
1 
1 
1 
1 
1 
1 
1 
1 
1 
1 
1 
1 
1 
1 
1 
1 
1 
1 
1 
1 
1 
1 
1 
1 
1 
1 
1 
1 
1 
1 
1 
1 
1 
1 
1 
1 
1 
1 
1 
1 
1 
1 
1 
1 
1 
1 
1 
1 
1 
1 
1 
1 
1 
1 
1 
1 
1 
1 
1 
1 
1 
1 
1 
1 
1 
1 
1 
1 
1 
1 
1 
1 
1 
1 
1 
1 
1 
1 
1 
1 
1 
1 
1 
1 
1 
1 
1 
1 
1 
1 
1 
1 
1 
1 
1 
1 
1 
1 
1 
1 
1 
1 
1 
1 
1 
1 
1 
1 
1 
1 
1 
1 
1 
1 
1 
1 
1 
1 
1 
1 
1 
1 
1 
1 
1 
1 
1 
1 
1 
1 
1 
1 
1 
1 
1 
1 
1 
1 
1 
1 
1 
1 
1 
1 
1 
1 
1 
1 
1 
1 
1 
1 
1 
1 
1 
1 
1 
1 
1 
1 
1 
1 
1 
1 
1 
1 
1 
1 
1 
1 
1 
1 
1 
1 
1 
1 
1 
1 
1 
1 
1 
1 
1 
1 
1 
1 
1 
1 
1 
1 
1 
1 
1 
1 
1 
1 
1 
1 
1 
1 
1 
1 
1 
1 
1 
1 
1 
1 
1 
1 
1 
1 
1 
1 
1 
1 
1 
1 
1 
1 
1 
1 
1 
1 
1 
1 
1 
1 
1 
1 
1 
1 
1 
1 
1 
1 
1 
1 
1 
1 
1 
1 
1 
1 
1 
1 
1 
1 
1 
1 
1 
1 
1 
1 
1 
1 
1 
1 
1 
1 
1 
1 
1 
1 
1 
1 
1 
1 
1 
1 
1 
1 
1 
1 
1 
1 
1 
1 
1 
1 
1 
1 
1 
1 
1 
1 
1 
1 
1 
1 
1 
1 
1 
1 
1 
1 
1 
1 
1 
1 
1 
1 
1 
1 
1 
1 
1 
1 
1 
1 
1 
1 
1 
1 
1 
1 
1 
1 
1 
1 
1 
1 
1 
1 
1 
1 
1 
1 
1 
1 
1 
1 
1 
1 
1 
1 
1 
1 
1 
1 
1 
1 
1 
1 
1 
1 
1 
1 
1 
1 
1 
1 
1 
1 
1 
1 
1 
1 
1 
1 
1 
1 
1 
1 
1 
1 
1 
1 
1 
1 
1 
1 
1 
1 
1 
1 
1 
1 
1 
1 
1 
1 
1 
1 
1 
1 
1 
1 
1 
1 
1 
1 
1 
1 
1 
1 
1 
1 
1 
1 
1 
1 
1 
1 
1 
1 
1 
1 
1 
1 
1 
1 
1 
1 
1 
1 
1 
1 
1 
1 
1 
1 
1 
1 
1 
1 
1 
1 
1 
1 
1 
1 
1 
1 
1 
1 
1 
1 
1 
1 
1 
1 
1 
1 
1 
1 
1 
1 
1 
1 
1 
1 
1 
1 
1 
1 
1 
1 
1 
1 
1 
1 
1 
1 
1 
1 
1 
1 
1 
1 
1 
1 
1 
1 
1 
1 
1 
1 
1 
1 
1 
1 
1 
1 
1 
1 
1 
1 
1 
1 
1 
1 
1 
1 
1 
1 
1 
1 
1 
1 
1 
1 
1 
1 
1 
1 
1 
1 
1 
1 
1 
1 
1 
1 
1 
1 
1 
1 
1 
1 
1 
1 
1 
1 
1 
1 
1 
1 
1 
1 
1 
1 
1 
1 
1 
1 
1 
1 
1 
1 
1 
1 
1 
1 
1 
1 
1 
1 
1 
1 
1 
1 
1 
1 
1 
1 
1 
1 
1 
1 
1 
1 
1 
1 
1 
1 
1 
1 
1 
1 
1 
1 
1 
1 
1 
1 
1 
1 
1 
1 
1 
1 
1 
1 
1 
1 
1 
1 
1 
1 
1 
1 
1 
1 
1 
1 
1 
1 
1 
1 
1 
1 
1 
1 
1 
1 
1 
1 
1 
1 
1 
1 
1 
1 
1 
1 
1 
1 
1 
1 
1 
1 
1 
1 
1 
1 
1 
1 
1 
1 
1 
1 
1 
1 
1 
1 
1 
1 
1 
1 
1 
1 
1 
1 
1 
1 
1 
1 
1 
1 
1 
1 
1 
1 
1 
1 
1 
1 
1 
1 
1 
1 
1 
1 
1 
1 
1 
1 
1 
1 
1 
1 
1 
1 
1 
1 
1 
1 
1 
1 
1 
1 
1 
1 
1 
1 
1 
1 
1 
1 
1 
1 
1 
1 
1 
1 
1 
1 
1 
1 
1 
1 
1 
1 
1 
1 
1 
1 
1 
1 
1 
1 
1 
1 
1 
1 
1 
1 
1 
1 
1 
1 
1 
1 
1 
1 
1 
1 
1 
1 
1 
1 
1 
1 
1 
1 
1 
1 
1 
1 
1 
1 
1 
1 
1 
1 
1 
1 
1 
1 
1 
1 
1 
1 
1 
1 
1 
1 
1 
1 
1 
1 
1 
1 
1 
1 
1 
1 
1 
1 
1 
1 
1 
1 
1 
1 
1 
1 
1 
1 
1 
1 
1 
1 
1 
1 
1 
1 
1 
1 
1 
1 
1 
1 
1 
1 
1 
1 
1 
1 
1 
1 
1 
1 
1 
1 
1 
1 
1 
1 
1 
1 
1 
1 
1 
1 
1 
1 
1 
1 
1 
1 
1 
1 
1 
1 
1 
1 
1 
1 
1 
1 
1 
1 
1 
1 
1 
1 
1 
1 
1 
1 
1 
1 
1 
1 
1 
1 
1 
1 
1 
1 
1 
1 
1 
1 
1 
1 
1 
1 
1 
1 
1 
1 
1 
1 
1 
1 
1 
1 
1 
1 
1 
1 
1 
1 
1 
1 
1 
1 
1 
1 
1 
1 
1 
1 
1 
1 
1 
1 
1 
1 
1 
1 
1 
1 
1 
1 
1 
1 
1 
1 
1 
1 
1 
1 
1 
1 
1 
1 
1 
1 
1 
1 
1 
1 
1 
1 
1 
1 
1 
1 
1 
1 
1 
1 
1 
1 
1 
1 
1 
1 
1 
1 
1 
1 
1 
1 
1 
1 
1 
1 
1 
1 
1 
1 
1 
1 
1 
1 
1 
1 
1 
1 
1 
1 
1 
1 
1 
1 
1 
1 
1 
1 
1 
1 
1 
1 
1 
1 
1 
1 
1 
1 
1 
1 
1 
1 
1 
1 
1 
1 
1 
1 
1 
1 
1 
1 
1 
1 
1 
1 
1 
1 
1 
1 
1 
1 
1 
1 
1 
1 
1 
1 
1 
1 
1 
1 
1 
1 
1 
1 
1 
1 
1 
1 
1 
1 
1 
1 
1 
1 
1 
1 
1 
1 
1 
1 
1 
1 
1 
1 
1 
1 
1 
1 
1 
1 
1 
1 
1 
1 
1 
1 
1 
1 
1 
1 
1 
1 
1 
1 
1 
1 
1 
1 
1 
1 
1 
1 
1 
1 
1 
1 
1 
1 
1 
1 
1 
1 
1 
1 
1 
1 
1 
1 
1 
1 
1 
1 
1 
1 
1 
1 
1 
1 
1 
1 
1 
1 
1 
1 
1 
1 
1 
1 
1 
1 
1 
1 
1 
1 
1 
1 
1 
1 
1 
1 
1 
1 
1 
1 
1 
1 
1 
1 
1 
1 
1 
1 
1 
1 
1 
1 
1 
1 
1 
1 
1 
1 
1 
1 
1 
1 
1 
1 
1 
1 
1 
1 
1 
1 
1 
1 
1 
1 
1 
1 
1 
1 
1 
1 
1 
1 
1 
1 
1 
1 
1 
1 
1 
1 
1 
1 
1 
1 
1 
1 
1 
1 
1 
1 
1 
1 
1 
1 
1 
1 
1 
1 
1 
1 
1 
1 
1 
1 
1 
1 
1 
1 
1 
1 
1 
1 
1 
1 
1 
1 
1 
1 
1 
1 
1 
1 
1 
1 
1 
1 
1 
1 
1 
1 
1 
1 
1 
1 
1 
1 
1 
1 
1 
1 
1 
1 
1 
1 
1 
1 
1 
1 
1 
1 
1 
1 
1 
1 
1 
1 
1 
1 
1 
1 
1 
1 
1 
1 
1 
1 
1 
1 
1 
1 
1 
1 
1 
1 
1 
1 
1 
1 
1 
1 
1 
1 
1 
1 
1 
1 
1 
1 
1 
1 
1 
1 
1 
1 
1 
1 
1 
1 
1 
1 
1 
1 
1 
1 
1 
1 
1 
1 
1 
1 
1 
1 
1 
1 
1 
1 
1 
1 
1 
1 
1 
1 
1 
1 
1 
1 
1 
1 
1 
1 
1 
1 
1 
1 
1 
1 
1 
1 
1 
1 
1 
1 
1 
1 
1 
1 
1 
1 
1 
1 
1 
1 
1 
1 
1 
1 
1 
1 
1 
1 
1 
1 
1 
1 
1 
1 
1 
1 
1 
1 
1 
1 
1 
1 
1 
1 
1 
1 
1 
1 
1 
1 
1 
1 
1 
1 
1 
1 
1 
1 
1 
1 
1 
1 
1 
1 
1 
1 
1 
1 
1 
1 
1 
1 
1 
1 
1 
1 
1 
1 
1 
1 
1 
1 
1 
1 
1 
1 
1 
1 
1 
1 
1 
1 
1 
1 
1 
1 
1 
1 
1 
1 
1 
1 
1 
1 
1 
1 
1 
1 
1 
1 
1 
1 
1 
1 
1 
1 
1 
1 
1 
1 
1 
1 
1 
1 
1 
1 
1 
1 
1 
1 
1 
1 
1 
1 
1 
1 
1 
1 
1 
1 
1 
1 
1 
1 
1 
1 
1 
1 
1 
1 
1 
1 
1 
1 
1 
1 
1 
1 
1 
1 
1 
1 
1 
1 
1 
1 
1 
1 
1 
1 
1 
1 
1 
1 
1 
1 
1 
1 
1 
1 
1 
1 
1 
1 
1 
1 
1 
1 
1 
1 
1 
1 
1 
1 
1 
1 
1 
1 
1 
1 
1 
1 
1 
1 
1 
1 
1 
1 
1 
1 
1 
1 
1 
1 
1 
1 
1 
1 
1 
1 
1 
1 
1 
1 
1 
1 
1 
1 
1 
1 
1 
1 
1 
1 
1 
1 
1 
1 
1 
1 
1 
1 
1 
1 
1 
1 
1 
1 
1 
1 
1 
1 
1 
1 
1 
1 
1 
1 
1 
1 
1 
1 
1 
1 
1 
1 
1 
1 
1 
1 
1 
1 
1 
1 
1 
1 
1 
1 
1 
1 
1 
1 
1 
1 
1 
1 
1 
1 
1 
1 
1 
1 
1 
1 
1 
1 
1 
1 
1 
1 
1 
1 
1 
1 
1 
1 
1 
1 
1 
1 
1 
1 
1 
1 
1 
1 
1 
1 
1 
1 
1 
1 
1 
1 
1 
1 
1 
1 
1 
1 
1 
1 
1 
1 
1 
1 
1 
1 
1 
1 
1 
1 
1 
1 
1 
1 
1 
1 
1 
1 
1 
1 
1 
1 
1 
1 
1 
1 
1 
1 
1 
1 
1 
1 
1 
1 
1 
1 
1 
1 
1 
1 
1 
1 
1 
1 
1 
1 
1 
1 
1 
1 
1 
1 
1 
1 
1 
1 
1 
1 
1 
1 
1 
1 
1 
1 
1 
1 
1 
1 
1 
1 
1 
1 
1 
1 
1 
1 
1 
1 
1 
1 
1 
1 
1 
1 
1 
1 
1 
1 
1 
1 
1 
1 
1 
1 
1 
1 
1 
1 
1 
1 
1 
1 
1 
1 
1 
1 
1 
1 
1 
1 
1 
1 
1 
1 
1 
1 
1 
1 
1 
1 
1 
1 
1 
1 
1 
1 
1 
1 
1 
1 
1 
1 
1 
1 
1 
1 
1 
1 
1 
1 
1 
1 
1 
1 
1 
1 
1 
1 
1 
1 
1 
1 
1 
1 
1 
1 
1 
1 
1 
1 
1 
1 
1 
1 
1 
1 
1 
1 
1 
1 
1 
1 
1 
1 
1 
1 
1 
1 
1 
1 
1 
1 
1 
1 
1 
1 
1 
1 
1 
1 
1 
1 
1 
1 
1 
1 
1 
1 
1 
1 
1 
1 
1 
1 
1 
1 
1 
1 
1 
1 
1 
1 
1 
1 
1 
1 
1 
1 
1 
1 
1 
1 
1 
1 
1 
1 
1 
1 
1 
1 
1 
1 
1 
1 
1 
1 
1 
1 
1 
1 
1 
1 
1 
1 
1 
1 
1 
1 
1 
1 
1 
1 
1 
1 
1 
1 
1 
1 
1 
1 
1 
1 
1 
1 
1 
1 
1 
1 
1 
1 
1 
1 
1 
1 
1 
1 
1 
1 
1 
1 
1 
1 
1 
1 
1 
1 
1 
1 
1 
1 
1 
1 
1 
1 
1 
1 
1 
1 
1 
1 
1 
1 
1 
1 
1 
1 
1 
1 
1 
1 
1 
1 
1 
1 
1 
1 
1 
1 
1 
1 
1 
1 
1 
1 
1 
1 
1 
1 
1 
1 
1 
1 
1 
1 
1 
1 
1 
1 
1 
1 
1 
1 
1 
1 
1 
1 
1 
1 
1 
1 
1 
1 
1 
1 
1 
1 
1 
1 
1 
1 
1 
1 
1 
1 
1 
1 
1 
1 
1 
1 
1 
1 
1 
1 
1 
1 
1 
1 
1 
1 
1 
1 
1 
1 
1 
1 
1 
1 
1 
1 
1 
1 
1 
1 
1 
1 
1 
1 
1 
1 
1 
1 
1 
1 
1 
1 
1 
1 
1 
1 
1 
1 
1 
1 
1 
1 
1 
1 
1 
1 
1 
1 
1 
1 
1 
1 
1 
1 
1 
1 
1 
1 
1 
1 
1 
1 
1 
1 
1 
1 
1 
1 
1 
1 
1 
1 
1 
1 
1 
1 
1 
1 
1 
1 
1 
1 
1 
1 
1 
1 
1 
1 
1 
1 
1 
1 
1 
1 
1 
1 
1 
1 
1 
1 
1 
1 
1 
1 
1 
1 
1 
1 
1 
1 
1 
1 
1 
1 
1 
1 
1 
1 
1 
1 
1 
1 
1 
1 
1 
1 
1 
1 
1 
1 
1 
1 
1 
1 
1 
1 
1 
1 
1 
1 
1 
1 
1 
1 
1 
1 
1 
1 
1 
1 
1 
1 
1 
1 
1 
1 
1 
1 
1 
1 
1 
1 
1 
1 
1 
1 
1 
1 
1 
1 
1 
1 
1 
1 
1 
1 
1 
1 
1 
1 
1 
1 
1 
1 
1 
1 
1 
1 
1 
1 
1 
1 
1 
1 
1 
1 
1 
1 
1 
1 
1 
1 
1 
1 
1 
1 
1 
1 
1 
1 
1 
1 
1 
1 
1 
1 
1 
1 
1 
1 
1 
1 
1 
1 
1 
1 
1 
1 
1 
1 
1 
1 
1 
1 
1 
1 
1 
1 
1 
1 
1 
1 
1 
1 
1 
1 
1 
1 
1 
1 
1 
1 
1 
1 
1 
1 
1 
1 
1 
1 
1 
1 
1 
1 
1 
1 
1 
1 
1 
1 
1 
1 
1 
1 
1 
1 
1 
1 
1 
1 
1 
1 
1 
1 
1 
1 
1 
1 
1 
1 
1 
1 
1 
1 
1 
1 
1 
1 
1 
1 
1 
1 
1 
1 
1 
1 
1 
1 
1 
1 
1 
1 
1 
1 
1 
1 
1 
1 
1 
1 
1 
1 
1 
1 
1 
1 
1 
1 
1 
1 
1 
1 
1 
1 
1 
1 
1 
1 
1 
1 
1 
1 
1 
1 
1 
1 
1 
1 
1 
1 
1 
1 
1 
1 
1 
1 
1 
1 
1 
1 
1 
1 
1 
1 
1 
1 
1 
1 
1 
1 
1 
1 
1 
1 
1 
1 
1 
1 
1 
1 
1 
1 
1 
1 
1 
1 
1 
1 
1 
1 
1 
1 
1 
1 
1 
1 
1 
1 
1 
1 
1 
1 
1 
1 
1 
1 
1 
1 
1 
1 
1 
1 
1 
1 
1 
1 
1 
1 
1 
1 
1 
1 
1 
1 
1 
1 
1 
1 
1 
1 
1 
1 
1 
1 
1 
1 
1 
1 
1 
1 
1 
1 
1 
1 
1 
1 
1 
1 
1 
1 
1 
1 
1 
1 
1 
1 
1 
1 
1 
1 
1 
1 
1 
1 
1 
1 
1 
1 
1 
1 
1 
1 
1 
1 
1 
1 
1 
1 
1 
1 
1 
1 
1 
1 
1 
1 
1 
1 
1 
1 
1 
1 
1 
1 
1 
1 
1 
1 
1 
1 
1 
1 
1 
1 
1 
1 
1 
1 
1 
1 
1 
1 
1 
1 
1 
1 
1 
1 
1 
1 
1 
1 
1 
1 
1 
1 
1 
1 
1 
1 
1 
1 
1 
1 
1 
1 
1 
1 
1 
1 
1 
1 
1 
1 
1 
1 
1 
1 
1 
1 
1 
1 
1 
1 
1 
1 
1 
1 
1 
1 
1 
1 
1 
1 
1 
1 
1 
1 
1 
1 
1 
1 
1 
1 
1 
1 
1 
1 
1 
1 
1 
1 
1 
1 
1 
1 
1 
1 
1 
1 
1 
1 
1 
1 
1 
1 
1 
1 
1 
1 
1 
1 
1 
1 
1 
1 
1 
1 
1 
1 
1 
1 
1 
1 
1 
1 
1 
1 
1 
1 
1 
1 
1 
1 
1 
1 
1 
1 
1 
1 
1 
1 
1 
1 
1 
1 
1 
1 
1 
1 
1 
1 
1 
1 
1 
1 
1 
1 
1 
1 
1 
1 
1 
1 
1 
1 
1 
1 
1 
1 
1 
1 
1 
1 
1 
1 
1 
1 
1 
1 
1 
1 
1 
1 
1 
1 
1 
1 
1 
1 
1 
1 
1 
1 
1 
1 
1 
1 
1 
1 
1 
1 
1 
1 
1 
1 
1 
1 
1 
1 
1 
1 
1 
1 
1 
1 
1 
1 
1 
1 
1 
1 
1 
1 
1 
1 
1 
1 
1 
1 
1 
1 
1 
1 
1 
1 
1 
1 
1 
1 
1 
1 
1 
1 
1 
1 
1 
1 
1 
1 
1 
1 
1 
1 
1 
1 
1 
1 
1 
1 
1 
1 
1 
1 
1 
1 
1 
1 
1 
1 
1 
1 
1 
1 
1 
1 
1 
1 
1 
1 
1 
1 
1 
1 
1 
1 
1 
1 
1 
1 
1 
1 
1 
1 
1 
1 
1 
1 
1 
1 
1 
1 
1 
1 
1 
1 
1 
1 
1 
1 
1 
1 
1 
1 
1 
1 
1 
1 
1 
1 
1 
1 
1 
1 
1 
1 
1 
1 
1 
1 
1 
1 
1 
1 
1 
1 
1 
1 
1 
1 
1 
1 
1 
1 
1 
1 
1 
1 
1 
1 
1 
1 
1 
1 
1 
1 
1 
1 
1 
1 
1 
1 
1 
1 
1 
1 
1 
1 
1 
1 
1 
1 
1 
1 
1 
1 
1 
1 
1 
1 
1 
1 
1 
1 
1 
1 
1 
1 
1 
1 
1 
1 
1 
1 
1 
1 
1 
1 
1 
1 
1 
1 
1 
1 
1 
1 
1 
1 
1 
1 
1 
1 
1 
1 
1 
1 
1 
1 
1 
1 
1 
1 
1 
1 
1 
1 
1 
1 
1 
1 
1 
1 
1 
1 
1 
1 
1 
1 
1 
1 
1 
1 
1 
1 
1 
1 
1 
1 
1 
1 
1 
1 
1 
1 
1 
1 
1 
1 
1 
1 
1 
1 
1 
1 
1 
1 
1 
1 
1 
1 
1 
1 
1 
1 
1 
1 
1 
1 
1 
1 
1 
1 
1 
1 
1 
1 
1 
1 
1 
1 
1 
1 
1 
1 
1 
1 
1 
1 
1 
1 
1 
1 
1 
1 
1 
1 
1 
1 
1 
1 
1 
1 
1 
1 
1 
1 
1 
1 
1 
1 
1 
1 
1 
1 
1 
1 
1 
1 
1 
1 
1 
1 
1 
1 
1 
1 
1 
1 
1 
1 
1 
1 
1 
1 
1 
1 
1 
1 
1 
1 
1 
1 
1 
1 
1 
1 
1 
1 
1 
1 
1 
1 
1 
1 
1 
1 
1 
1 
1 
1 
1 
1 
1 
1 
1 
1 
1 
1 
1 
1 
1 
1 
1 
1 
1 
1 
1 
1 
1 
1 
1 
1 
1 
1 
1 
1 
1 
1 
1 
1 
1 
1 
1 
1 
1 
1 
1 
1 
1 
1 
1 
1 
1 
1 
1 
1 
1 
1 
1 
1 
1 
1 
1 
1 
1 
1 
1 
1 
1 
1 
1 
1 
1 
1 
1 
1 
1 
1 
1 
1 
1 
1 
1 
1 
1 
1 
1 
1 
1 
1 
1 
1 
1 
1 
1 
1 
1 
1 
1 
1 
1 
1 
1 
1 
1 
1 
1 
1 
1 
1 
1 
1 
1 
1 
1 
1 
1 
1 
1 
1 
1 
1 
1 
1 
1 
1 
1 
1 
1 
1 
1 
1 
1 
1 
1 
1 
1 
1 
1 
1 
1 
1 
1 
1 
1 
1 
1 
1 
1 
1 
1 
1 
1 
1 
1 
1 
1 
1 
1 
1 
1 
1 
1 
1 
1 
1 
1 
1 
1 
1 
1 
1 
1 
1 
1 
1 
1 
1 
1 
1 
1 
1 
1 
1 
1 
1 
1 
1 
1 
1 
1 
1 
1 
1 
1 
1 
1 
1 
1 
1 
1 
1 
1 
1 
1 
1 
1 
1 
1 
1 
1 
1 
1 
1 
1 
1 
1 
1 
1 
1 
1 
1 
1 
1 
1 
1 
1 
1 
1 
1 
1 
1 
1 
1 
1 
1 
1 
1 
1 
1 
1 
1 
1 
1 
1 
1 
1 
1 
1 
1 
1 
1 
1 
1 
1 
1 
1 
1 
1 
1 
1 
1 
1 
1 
1 
1 
1 
1 
1 
1 
1 
1 
1 
1 
1 
1 
1 
1 
1 
1 
1 
1 
1 
1 
1 
1 
1 
1 
1 
1 
1 
1 
1 
1 
1 
1 
1 
1 
1 
1 
1 
1 
1 
1 
1 
1 
1 
1 
1 
1 
1 
1 
1 
1 
1 
1 
1 
1 
1 
1 
1 
1 
1 
1 
1 
1 
1 
1 
1 
1 
1 
1 
1 
1 
1 
1 
1 
1 
1 
1 
1 
1 
1 
1 
1 
1 
1 
1 
1 
1 
1 
1 
1 
1 
1 
1 
1 
1 
1 
1 
1 
1 
1 
1 
1 
1 
1 
1 
1 
1 
1 
1 
1 
1 
1 
1 
1 
1 
1 
1 
1 
1 
1 
1 
1 
1 
1 
1 
1 
1 
1 
1 
1 
1 
1 
1 
1 
1 
1 
1 
1 
1 
1 
1 
1 
1 
1 
1 
1 
1 
1 
1 
1 
1 
1 
1 
1 
1 
1 
1 
1 
1 
1 
1 
1 
1 
1 
1 
1 
1 
1 
1 
1 
1 
1 
1 
1 
1 
1 
1 
1 
1 
1 
1 
1 
1 
1 
1 
1 
1 
1 
1 
1 
1 
1 
1 
1 
1 
1 
1 
1 
1 
1 
1 
1 
1 
1 
1 
1 
1 
1 
1 
1 
1 
1 
1 
1 
1 
1 
1 
1 
1 
1 
1 
1 
1 
1 
1 
1 
1 
1 
1 
1 
1 
1 
1 
1 
1 
1 
1 
1 
1 
1 
1 
1 
1 
1 
1 
1 
1 
1 
1 
1 
1 
1 
1 
1 
1 
1 
1 
1 
1 
1 
1 
1 
1 
1 
1 
1 
1 
1 
1 
1 
1 
1 
1 
1 
1 
1 
1 
1 
1 
1 
1 
1 
1 
1 
1 
1 
1 
1 
1 
1 
1 
1 
1 
1 
1 
1 
1 
1 
1 
1 
1 
1 
1 
1 
1 
1 
1 
1 
1 
1 
1 
1 
1 
1 
1 
1 
1 
1 
1 
1 
1 
1 
1 
1 
1 
1 
1 
1 
1 
1 
1 
1 
1 
1 
1 
1 
1 
1 
1 
1 
1 
1 
1 
1 
1 
1 
1 
1 
1 
1 
1 
1 
1 
1 
1 
1 
1 
1 
1 
1 
1 
1 
1 
1 
1 
1 
1 
1 
1 
1 
1 
1 
1 
1 
1 
1 
1 
1 
1 
1 
1 
1 
1 
1 
1 
1 
1 
1 
1 
1 
1 
1 
1 
1 
1 
1 
1 
1 
1 
1 
1 
1 
1 
1 
1 
1 
1 
1 
1 
1 
1 
1 
1 
1 
1 
1 
1 
1 
1 
1 
1 
1 
1 
1 
1 
1 
1 
1 
1 
1 
1 
1 
1 
1 
1 
1 
1 
1 
1 
1 
1 
1 
1 
1 
1 
1 
1 
1 
1 
1 
1 
1 
1 
1 
1 
1 
1 
1 
1 
1 
1 
1 
1 
1 
1 
1 
1 
1 
1 
1 
1 
1 
1 
1 
1 
1 
1 
1 
1 
1 
1 
1 
1 
1 
1 
1 
1 
1 
1 
1 
1 
1 
1 
1 
1 
1 
1 
1 
1 
1 
1 
1 
1 
1 
1 
1 
POINT_DATA 5000
VECTORS Stress float
-1910.01 -2954.97 0.
-3096.04 -4159.71 0.
-218.803 -529.826 0.
-366.576 -718.582 0.
-3858.44 -7647.02 0.
-150.139 -219.91 0.
-2413.72 -2033.07 0.
-56.7561 -108.391 0.
-259.365 -262.074 0.
-3984.46 -6700.64 0.
-1206.39 -2315.53 0.
-187.57 -342.681 0.
-2198.99 -3013.62 0.
-1717.33 -2392.14 0.
-1277.32 -1827.84 0.
-1047.98 -1566.78 0.
-818.765 -1305.59 0.
-961.984 -1532.11 0.
-810.409 -1414.6 0.
-647.254 -1308.66 0.
-818.625 -1478.19 0.
-751.042 -1321.74 0.
-682.88 -1165.86 0.
-747.942 -1299.46 0.
-827.909 -1485.43 0.
-905.426 -1673.85 0.
-1041.73 -1703.51 0.
-976.234 -1585.99 0.
-747.578 -1421.38 0.
-728.275 -1359.99 0.
-701.252 -1306.33 0.
-738.129 -1317.74 0.
-716.213 -1295.01 0.
-692.086 -1274.49 0.
-713 -1314.09 0.
-716.086 -1342.27 0.
-719.119 -1370.51 0.
-798.429 -1417.15 0.
-793.902 -1426.89 0.
-718.219 -1396.23 0.
-690.887 -1345.91 0.
-663.56 -1295.59 0.
-686.928 -1290.11 0.
-709.08 -1341.81 0.
-731.232 -1393.5 0.
-714.793 -1334.59 0.
-648.034 -1178.82 0.
-581.274 -1023.04 0.
-516.276 -1141.83 0.
-634.32 -1417.25 0.
-752.359 -1692.65 0.
-682.097 -1447.7 0.
-569.303 -1184.53 0.
-587.955 -1050.84 0.
-648.02 -1191.01 0.
-708.084 -1331.17 0.
-724.934 -1386.23 0.
-706.411 -1343 0.
-687.888 -1299.77 0.
-663.912 -1317.26 0.
-698.208 -1386.68 0.
-735.086 -1453.51 0.
-832.169 -1485 0.
-832.127 -1469.01 0.
-725.156 -1399.17 0.
-724.703 -1370.01 0.
-723.663 -1341.44 0.
-697.869 -1300.62 0.
-707.569 -1293.7 0.
-715.868 -1288.17 0.
-696.665 -1290.03 0.
-752.809 -1385.19 0.
-806.261 -1483.05 0.
-993.436 -1608.26 0.
-1032.89 -1681.4 0.
-887.239 -1614.51 0.
-798.52 -1444.93 0.
-750.605 -1328.58 0.
-662.044 -1255.73 0.
-733.745 -1411.82 0.
-829.461 -1543.9 0.
-725.371 -1382.16 0.
-944.262 -1580.07 0.
-1148.14 -1792.98 0.
-1051.34 -1453.75 0.
-1218.95 -1530.62 0.
-1376.72 -1617.34 0.
-1639.72 -2656.02 0.
-2758.91 -4472.82 0.
-99.1173 -88.1768 0.
-714.098 -1156.71 0.
-4354.95 -6528.46 0.
-546.857 -572.428 0.
-495.919 -382.605 0.
-2644.93 -3004.86 0.
-24.8165 -55.9822 0.
-3539.69 -5274.76 0.
-86.628 -110.02 0.
-3387.8 -5305.78 0.
-890.475 -887.806 0.
-1883.22 -2966.82 0.
-0.00784517 -0.182035 0.
-151.454 -332.035 0.
-1.92867 -3.65266 0.
-88.3847 -131.647 0.
-132.128 -186.505 0.
-163.698 -279.752 0.
-49.9713 -116.003 0.
-924.195 -602.195 0.
-117.26 -176.982 0.
-61.6607 -106.177 0.
-77.4693 -130.86 0.
-893.207 -947.546 0.
-565.996 -423.9 0.
-350.987 -347.107 0.
-129.482 -84.6792 0.
-81.8934 -76.9669 0.
-315.177 -634.707 0.
-223.331 -478.736 0.
-190.371 -281.169 0.
-571.257 -1185.73 0.
-490.681 -1046.63 0.
-412.485 -906.103 0.
-572.873 -1036.44 0.
-637.841 -1237.46 0.
-699.49 -1441.78 0.
-1005.43 -1596.7 0.
-941.491 -1477.6 0.
-570.913 -1161.3 0.
-531.402 -1101.05 0.
-503.788 -1042.9 0.
-598.521 -1144.49 0.
-569.727 -1128.63 0.
-567.252 -1086.44 0.
-622.042 -1205.67 0.
-625.393 -1233.59 0.
-628.405 -1261.85 0.
-843.333 -1382.16 0.
-841.053 -1389.65 0.
-655.679 -1309.51 0.
-622.964 -1264.58 0.
-593.784 -1216.11 0.
-674.907 -1224.15 0.
-686.32 -1286.59 0.
-698.649 -1348.12 0.
-698.411 -1296.19 0.
-631.653 -1140.41 0.
-564.895 -984.625 0.
-412.397 -790.851 0.
-485.685 -1111.1 0.
-570.495 -1419.77 0.
-517.976 -1278.77 0.
-444.051 -976.686 0.
-565.343 -1009.75 0.
-625.394 -1149.92 0.
-685.446 -1290.1 0.
-680.293 -1335.64 0.
-669.407 -1284.77 0.
-661.17 -1231.26 0.
-586.927 -1229.09 0.
-628.622 -1291.11 0.
-671.089 -1352.36 0.
-881.983 -1454.96 0.
-878.46 -1442.45 0.
-622.612 -1245.82 0.
-602.485 -1236.33 0.
-603.119 -1206.08 0.
-539.797 -1104.17 0.
-556.403 -1090.34 0.
-574.194 -1075.33 0.
-536.972 -997.129 0.
-566.599 -1118.85 0.
-623.509 -1213.29 0.
-910.421 -1460.46 0.
-950.693 -1532.8 0.
-755.404 -1461.71 0.
-649.772 -1222.06 0.
-623.167 -1079.44 0.
-313.648 -705.143 0.
-397.938 -864.655 0.
-494.228 -1016.4 0.
-67.6784 -78.4485 0.
-171.902 -245.652 0.
-287.26 -503.708 0.
-212.16 -209.119 0.
-123.583 -88.8415 0.
-166.577 -175.964 0.
-111.441 -94.1441 0.
-434.917 -640.339 0.
-197.318 -133.937 0.
-61.7894 -56.3448 0.
-89.8986 -86.7639 0.
-216.619 -121.637 0.
-148.789 -108.069 0.
-147.478 -127.898 0.
-18.4489 -45.4665 0.
-109.546 -167.445 0.
-4.89695 -3.88483 0.
2.98427 0.154619 0.
1.32212 0.808378 0.
-458.176 -531.99 0.
0.287121 0.751678 0.
-161.904 -381.583 0.
0.873236 1.45873 0.
-92.6579 -132.05 0.
-116.125 -171.505 0.
-182.227 -270.588 0.
-50.4651 -117.188 0.
-1559.68 -971.841 0.
-72.9814 -132.193 0.
-57.2891 -97.9312 0.
-42.3986 -87.2931 0.
-397.552 -326.276 0.
-237.876 -172.899 0.
-695.072 -954.02 0.
-106.553 -83.5274 0.
-117.435 -91.5495 0.
-832.038 -1819.5 0.
-731.691 -1674.84 0.
-895.639 -2124.34 0.
-1261.88 -2369.13 0.
-985.999 -1803.17 0.
-752.922 -1338.38 0.
-693.674 -1052.77 0.
-686.716 -1074.46 0.
-1629.68 -3266.24 0.
-1241.09 -1998.89 0.
-1240.5 -2005.06 0.
-797.599 -1440.54 0.
-620.934 -1079.09 0.
-542.902 -941.652 0.
-711.829 -1208.91 0.
-638.142 -1042.48 0.
-643.867 -1069.33 0.
-710.955 -1209.51 0.
-660.874 -1097.78 0.
-732.948 -1276.4 0.
-955.405 -1474.74 0.
-995.027 -1578.82 0.
-722.311 -1143.68 0.
-624.489 -944.248 0.
-609.818 -925.758 0.
-683.121 -1127.64 0.
-699.264 -1211.22 0.
-632.651 -1120.21 0.
-700.353 -1139.94 0.
-746.64 -1278.52 0.
-800.008 -1429.33 0.
-425.007 -739.81 0.
-324.549 -547.915 0.
-4014.06 -2809.66 0.
-311.23 -666.045 0.
-412.402 -869.878 0.
-803.648 -1436.89 0.
-739.2 -1260.6 0.
-678.487 -1125.43 0.
-659.362 -1141.63 0.
-648.41 -1109.36 0.
-679.771 -1138.1 0.
-598.334 -986.672 0.
-643.277 -1094.86 0.
-667.373 -1117.96 0.
-1050.73 -1624.71 0.
-1047.4 -1606.3 0.
-657.719 -1067.07 0.
-677.042 -1203.94 0.
-685.986 -1206.86 0.
-630.536 -1135.29 0.
-615.103 -1096.23 0.
-683.777 -1214.23 0.
-573.556 -932.667 0.
-718.936 -1278.67 0.
-824.678 -1447.64 0.
-1348.67 -2283.5 0.
-1394.38 -2386.05 0.
-1661.26 -3207.32 0.
-753.088 -1088.84 0.
-797.521 -1093.87 0.
-621.353 -1359.58 0.
-951.962 -1973.83 0.
-2459.11 -5391.88 0.
-413.996 -768.593 0.
-692.603 -1525 0.
-758.911 -1584.05 0.
-295.626 -264.152 0.
-170.347 -116.482 0.
-336.465 -380.023 0.
-168.576 -118.242 0.
-200.604 -125.046 0.
-296.485 -178.781 0.
-116.151 -84.4652 0.
-148.286 -119.387 0.
-354.16 -171.77 0.
-297.361 -151.017 0.
-343.922 -206.73 0.
-32.5375 -72.6979 0.
-173.735 -245.246 0.
-2.65242 -0.768653 0.
2.9724 1.70681 0.
-2006.36 -2819.29 0.
-3816.38 -6493.76 0.
-27.4442 -70.2985 0.
2.28458 6.01191 0.
-3217.33 -5323.5 0.
-90.2813 -159.036 0.
-3275.09 -6335.91 0.
0.0257985 0.119783 0.
-840.424 -1218.2 0.
-21.6517 -59.9317 0.
-3690.95 -6571.64 0.
-261.82 -346.276 0.
-96.7358 -177.048 0.
-3873.8 -7994.21 0.
-96.9057 -85.2389 0.
-1900.26 -2707.5 0.
-1393.09 -2155.64 0.
-959.341 -1559.24 0.
-1955.92 -4285.92 0.
-677.24 -1422.75 0.
-65.5822 -76.3649 0.
-546.029 -1247.42 0.
-331.344 -755.126 0.
-202.241 -272.822 0.
-509.922 -663.894 0.
-358.75 -403.306 0.
-197.309 -171.035 0.
-612.988 -669.379 0.
-656.07 -800.643 0.
-372.791 -441.446 0.
-381.399 -487.51 0.
-400.561 -558.48 0.
-456.953 -660.839 0.
-429.291 -643.477 0.
-403.533 -616.89 0.
-431.499 -640.87 0.
-414.559 -601.25 0.
-412.154 -550.31 0.
-623.098 -855.852 0.
-613.461 -853.534 0.
-464.217 -583.172 0.
-461.746 -580.291 0.
-460.132 -580.449 0.
-551.075 -791.494 0.
-516.328 -708.889 0.
-474.597 -635.328 0.
-551.949 -693.051 0.
-576.156 -765.128 0.
-610.106 -829.131 0.
-66.8532 -46.2608 0.
-71.3234 -56.8945 0.
-3936.89 -1911.79 0.
0.00037805 0.220096 0.
-2.69288 -7.20574 0.
-555.208 -894.436 0.
-540.387 -809.783 0.
-524.641 -726.596 0.
-480.954 -627.178 0.
-539.473 -706.588 0.
-581.82 -802.134 0.
-432.534 -644.226 0.
-420.592 -611.927 0.
-409.209 -580.905 0.
-566.633 -826.222 0.
-583.608 -825.762 0.
-362.654 -516.634 0.
-368.041 -565.637 0.
-404.175 -658.38 0.
-384.633 -620.771 0.
-402.306 -625.816 0.
-431.105 -621.354 0.
-418.808 -566.425 0.
-382.745 -477.447 0.
-366.015 -440.178 0.
-613.471 -713.415 0.
-571.742 -556.846 0.
-82.5319 -82.9052 0.
-376.802 -313.686 0.
-577.02 -682.477 0.
-52.5763 -72.6749 0.
-220.974 -336.258 0.
-533.546 -1202.35 0.
-11.5951 -14.786 0.
-737.98 -1541.13 0.
-2379.33 -5115.49 0.
-339.287 -554.834 0.
-1125.08 -1886.12 0.
-2024.8 -3143.98 0.
-59.7496 -21.6339 0.
-4353.56 -8083.48 0.
-39.7335 -24.5862 0.
-45.4207 -44.0174 0.
-3685.71 -5168.57 0.
-113.55 -103.618 0.
-2826.82 -4060.35 0.
-46.8113 -48.1857 0.
-3702.54 -6338.44 0.
-529.198 -541.52 0.
-1511.62 -2373.86 0.
-84.2202 -69.5441 0.
-1693.23 -4588.1 0.
0.438464 4.50443 0.
-418.494 -348.451 0.
-2947.15 -6067.4 0.
-272.918 -490.008 0.
-64.7897 -108.131 0.
-246.154 -539.573 0.
-0.0332799 -0.603673 0.
-1.05628 -2.77174 0.
-13.5097 -34.5118 0.
-780.452 -988.585 0.
-336.41 -381.955 0.
-121.444 -269.568 0.
-136.005 -159.455 0.
-99.6856 -98.8153 0.
-54.2133 -78.962 0.
-49.3675 -78.3514 0.
-259.006 -215.92 0.
-497.236 -646.376 0.
-76.2389 -87.177 0.
-69.1557 -72.5469 0.
-221.18 -446.396 0.
-15.0894 -31.8197 0.
-48.9129 -88.1309 0.
-464.566 -564.815 0.
-315.554 -299.188 0.
-109.061 -107.219 0.
-694.435 -703.134 0.
-741.153 -829.972 0.
-376.989 -420.735 0.
-416.842 -468.343 0.
-434.482 -538.843 0.
-442.882 -561.535 0.
-414.036 -541.436 0.
-382.377 -525.147 0.
-405.543 -579.514 0.
-403.003 -525.316 0.
-405.678 -467.201 0.
-675.942 -868.087 0.
-678.894 -868.003 0.
-496.266 -592.162 0.
-494.963 -588.331 0.
-496.083 -586.912 0.
-645.987 -771.202 0.
-613.272 -705.604 0.
-566.293 -668.376 0.
-633.774 -698.46 0.
-668.043 -762.456 0.
-701.67 -826.502 0.
-70.2552 -47.7698 0.
-75.1578 -58.7274 0.
-4708 -2236.47 0.
0.00552641 0.207997 0.
-0.000386385 -0.0438261 0.
-669.828 -886.688 0.
-642.152 -814.259 0.
-625.324 -731.574 0.
-544.338 -650.956 0.
-587.436 -718.552 0.
-637.284 -805.666 0.
-479.247 -660.686 0.
-476.669 -618.324 0.
-454.98 -597.091 0.
-614.405 -844.205 0.
-616.513 -845.679 0.
-360.566 -480.453 0.
-365.34 -529.833 0.
-398.335 -628.102 0.
-380.627 -490.268 0.
-421.133 -470.39 0.
-453.66 -457.215 0.
-413.213 -569.871 0.
-378.632 -484.115 0.
-347.422 -397.332 0.
-647.883 -705.147 0.
-608.227 -551.468 0.
-63.462 -58.3406 0.
-226.431 -163.28 0.
-430.604 -518.883 0.
-38.3507 -64.1203 0.
-13.7559 -22.9164 0.
-3.45655 -6.02917 0.
-12.3829 -13.519 0.
-14.0183 -35.1182 0.
-325.962 -378.906 0.
-55.6022 -39.1428 0.
-0.101096 -0.0536515 0.
0.104921 0.0619958 0.
-39.2581 -14.3885 0.
-141.2 -50.9958 0.
-27.568 -19.2716 0.
-63.2755 -58.8582 0.
-98.7005 -117.437 0.
-102.675 -90.397 0.
-300.026 -155.592 0.
-188.944 -153.197 0.
-520.668 -434.835 0.
-299.315 -151.507 0.
-5.68485 -15.7106 0.
7.03944 18.203 0.
5.23543 11.9156 0.
-1383.18 -2305.55 0.
-118.618 -60.2748 0.
-423.271 -557.667 0.
-0.000191171 -0.0256743 0.
-38.9967 -61.2753 0.
-93.6074 -161.865 0.
-0.0578028 -2.88467 0.
-2014.37 -4238.19 0.
-773.423 -1558.44 0.
-815.319 -1977.77 0.
-1468.62 -2353.23 0.
-12.0517 -25.0818 0.
-3116.52 -5538.08 0.
-49.1079 -38.8576 0.
-176.452 -175.3 0.
-3365.6 -6453.96 0.
-225.581 -228.56 0.
-2503.24 -4400.49 0.
-872.217 -1048.1 0.
-83.7767 -112.133 0.
-2316.88 -4648.29 0.
-1158.33 -2454.13 0.
-128.021 -132.14 0.
-1200.46 -2209.45 0.
-838.105 -1568.73 0.
-537.677 -1021.35 0.
-1143.93 -1799.55 0.
-1041.48 -1691.76 0.
-769.109 -1256.25 0.
-739.734 -1191.22 0.
-711.506 -1126.88 0.
-680.765 -1109.69 0.
-658.876 -1100.73 0.
-643.412 -1085.34 0.
-720.165 -1210.42 0.
-681.931 -1152.9 0.
-646.702 -1092.38 0.
-1124.13 -1625.79 0.
-1052.63 -1529.63 0.
-744.385 -1099.56 0.
-730.815 -1066.52 0.
-718.521 -1031.8 0.
-863.685 -1222.84 0.
-855.019 -1216.31 0.
-850.256 -1217.17 0.
-931.988 -1324.41 0.
-972.973 -1421.66 0.
-1015.11 -1517.75 0.
-228.517 -427.431 0.
-191.403 -331.193 0.
-5258.77 -3352.87 0.
-157.361 -435.062 0.
-184.789 -510.749 0.
-967.196 -1551.66 0.
-934.859 -1483.89 0.
-903.035 -1415.61 0.
-736.472 -1171.48 0.
-782.483 -1193.78 0.
-803.787 -1259.65 0.
-750.949 -1102.33 0.
-757.935 -1118.12 0.
-766.933 -1131.9 0.
-1017.12 -1549.73 0.
-1084.56 -1666.47 0.
-657.344 -1184.76 0.
-688.697 -1261.56 0.
-728.937 -1337.59 0.
-722.461 -1067.97 0.
-707.431 -1067.31 0.
-694.047 -1065 0.
-632.603 -1201.78 0.
-687.792 -1283.2 0.
-747.038 -1362.69 0.
-936.099 -1639.03 0.
-1093.26 -1787.36 0.
-468.885 -859.442 0.
-889.468 -1726.53 0.
-1413.89 -2693.38 0.
0.565488 0.0707866 0.
-1100.15 -2405.99 0.
-2676.25 -5697.12 0.
-105.149 -179.245 0.
-497.013 -580.925 0.
-2249.77 -3851.66 0.
-26.629 -11.2715 0.
-3782.71 -8143.29 0.
1.59878 0.577918 0.
-37.7025 -13.6446 0.
-2960.06 -5049.81 0.
-101.756 -113.863 0.
-3107.37 -5399.38 0.
-291.304 -222.322 0.
-253.664 -153.637 0.
-314.464 -157.083 0.
-371.021 -285.634 0.
-462.524 -235.735 0.
5.76058 11.4814 0.
-2239.29 -3796.65 0.
6.26859 17.169 0.
-4119.36 -8408.41 0.
-2155.27 -3754.52 0.
2.56461 19.8594 0.
-906.458 -1408.25 0.
-0.0757172 -1.58519 0.
-22.3148 -33.329 0.
-265.019 -512.321 0.
-2713.76 -4919.4 0.
-0.117638 -0.279465 0.
-158.154 -353.08 0.
-3.40254 -7.84426 0.
-861.685 -1888.55 0.
-26.5989 -40.3044 0.
-1.82966 -2.91931 0.
-7.17166 -11.0539 0.
-49.1877 -89.3057 0.
-399.796 -689.439 0.
-41.7852 -53.7668 0.
-6.65851 -4.87086 0.
-14.6648 -31.9002 0.
-84.6101 -119.028 0.
-469.947 -801.361 0.
-27.7612 -64.3476 0.
-33.8865 -86.2622 0.
-544.301 -1076.21 0.
-278.24 -405.006 0.
-66.7201 -67.6141 0.
-831.05 -1433.19 0.
-747.932 -1379.63 0.
-660.498 -1120.2 0.
-622.14 -1084.07 0.
-604.534 -1048.38 0.
-659.632 -982.465 0.
-642.695 -972.579 0.
-626.07 -977.306 0.
-633.072 -1016.52 0.
-599.594 -966.301 0.
-565.425 -917.086 0.
-962.212 -1412.49 0.
-898.882 -1333.16 0.
-696.599 -1016.33 0.
-680.73 -985.71 0.
-665.175 -955.259 0.
-763.766 -1047.5 0.
-767.185 -1046.61 0.
-749.912 -1089.66 0.
-821.298 -1214.47 0.
-858.021 -1312.73 0.
-897.221 -1412.85 0.
-230.035 -370.739 0.
-193.149 -273.79 0.
-4199.42 -2864.91 0.
-148.283 -406.61 0.
-175.657 -481.659 0.
-861.045 -1443.78 0.
-802.366 -1337.66 0.
-762.663 -1261.03 0.
-638.155 -1039.83 0.
-640.677 -1070.15 0.
-708.186 -1067.18 0.
-625.122 -1008.11 0.
-628.598 -1016.88 0.
-638.547 -1039.43 0.
-839.233 -1381.97 0.
-907.631 -1472.09 0.
-593.414 -1065.18 0.
-605.277 -1091.55 0.
-636.453 -1154.48 0.
-675.103 -995.739 0.
-666.092 -987.885 0.
-663.445 -980.39 0.
-543.239 -1013.6 0.
-569.17 -1058.04 0.
-611.108 -1136.24 0.
-617.333 -1202.11 0.
-716.054 -1305.44 0.
-42.7319 -25.0611 0.
-175.751 -100.369 0.
-548.183 -1133.28 0.
0.264553 0.289733 0.
-8.39118 -18.0955 0.
-201.291 -224.006 0.
-16.2394 -33.6466 0.
-11.1266 -17.9981 0.
-19.0165 -36.9062 0.
-54.4311 -31.4109 0.
-228.792 -120.511 0.
-0.693771 -0.00470644 0.
-1.38242 -0.0121234 0.
-127.511 -119.97 0.
-75.2006 -92.6291 0.
-23.2858 -10.0435 0.
-91.1642 -91.8924 0.
-2800.53 -5007.07 0.
-351.893 -295.145 0.
-2530.65 -4206.19 0.
-415.81 -201.677 0.
3.82553 10.4758 0.
-0.000160133 -0.00502686 0.
6.68687 15.8204 0.
-8.93476 -35.9466 0.
-11.2955 -43.9027 0.
17.9502 37.3216 0.
-1093.18 -2645.98 0.
-17.4716 -30.9462 0.
5.40365 14.9671 0.
-162.635 -300.43 0.
-92.5241 -226.676 0.
0.622593 1.04456 0.
-81.9105 -193.05 0.
0.174176 0.771149 0.
-591.262 -1301.38 0.
-48.6446 -52.9831 0.
-1.26576 -1.9903 0.
-4.66957 -7.35476 0.
-29.6086 -44.3106 0.
-88.1445 -106.306 0.
-38.2855 -55.7075 0.
-11.547 -21.4596 0.
-14.2379 -29.9263 0.
-112.54 -129.146 0.
-115.417 -133.864 0.
-31.5928 -55.9319 0.
-31.5918 -83.717 0.
-315.346 -314.54 0.
-49.2233 -49.5173 0.
-91.7248 -84.0627 0.
-777.689 -1259.57 0.
-483.617 -688.766 0.
-516.031 -680.382 0.
-496.029 -603.25 0.
-288.732 -140.242 0.
-700.422 -808.187 0.
-346.907 -298.545 0.
-118.963 -98.9866 0.
-397.145 -491.45 0.
-427.056 -555.969 0.
-461.778 -614.995 0.
-670.085 -820.286 0.
-740.264 -923.234 0.
-523.985 -458.541 0.
-551.839 -545.525 0.
-431.589 -347.01 0.
-466.723 -472.785 0.
-415.713 -375.587 0.
-629.625 -891.841 0.
-565.086 -769.162 0.
-476.239 -549.39 0.
-518.128 -658.882 0.
-108.183 -75.6164 0.
-128.223 -80.2227 0.
-3786.06 -2346.12 0.
0.115387 0.287474 0.
-13.0463 -29.7098 0.
-551.909 -783.035 0.
-509.999 -640.013 0.
-585.946 -786.556 0.
-436.497 -434.133 0.
-568.168 -709.482 0.
-562.071 -588.066 0.
-415.68 -561.923 0.
-368.726 -436.945 0.
-411.08 -321.56 0.
-494.96 -666.771 0.
-669.509 -1073.53 0.
-327.615 -318.835 0.
-431.937 -472.11 0.
-190.234 -122.621 0.
-290.046 -295.992 0.
-241.369 -169.575 0.
-163.685 -102.538 0.
-208.307 -113.169 0.
-409.145 -524.044 0.
-442.868 -649.891 0.
-241.171 -259.623 0.
-600.346 -1057.98 0.
-21.4619 -17.3362 0.
-14.8569 -8.95269 0.
-7.78966 -3.7905 0.
-31.5485 -17.8937 0.
-39.6492 -36.6284 0.
-58.7023 -82.6152 0.
-9.22767 -5.96508 0.
-13.8209 -16.4579 0.
-24.4753 -42.1695 0.
-106.003 -69.2201 0.
0.474849 0.228923 0.
1.65633 0.62972 0.
0.949083 0.365547 0.
-58.6634 -39.3607 0.
-47.2871 -68.2728 0.
-0.425204 -0.125205 0.
-93.699 -101.065 0.
-307.541 -369.717 0.
-96.2646 -116.279 0.
-65.3099 -99.8016 0.
-1172.07 -551.671 0.
-0.293444 -12.9199 0.
-3647.37 -8031.74 0.
4.87506 9.70102 0.
-2192.32 -3309.99 0.
-2225.13 -3365.89 0.
-0.31469 -2.74385 0.
-4.50667 -39.0222 0.
-208.676 -399.328 0.
-0.405929 -12.6704 0.
-2459.71 -4868.93 0.
-323.25 -612.557 0.
-0.506136 -1.22615 0.
-83.6241 -208.715 0.
-2391.63 -4957.63 0.
-1702.76 -2665.27 0.
-67.5481 -93.6058 0.
-2986.93 -5831.16 0.
-44.0534 -70.4273 0.
-4.59012 -7.67717 0.
-3287.18 -7360.32 0.
-30.1557 -78.2799 0.
-3322.2 -4834.93 0.
-70.4666 -152.038 0.
-17.2565 -38.46 0.
-3140.48 -7093.08 0.
-178.173 -239.758 0.
-44.06 -108.06 0.
-1983.61 -4474.44 0.
-726.103 -1606 0.
-77.2585 -162.656 0.
-1261.15 -2576.85 0.
-807.097 -1635.16 0.
-817.21 -1559.93 0.
-623.343 -1156.61 0.
-435.889 -754.231 0.
-619.409 -1027.94 0.
-589.509 -978.627 0.
-556.185 -936.135 0.
-547.075 -840.592 0.
-508.715 -774.613 0.
-463.266 -717.099 0.
-797.184 -1163.78 0.
-782.463 -1143.02 0.
-534.27 -793.513 0.
-532.879 -784.643 0.
-545.073 -812.59 0.
-582.69 -882.961 0.
-556.856 -828.736 0.
-534.05 -782.119 0.
-522.561 -849.425 0.
-579.555 -974.32 0.
-650.55 -1110.49 0.
-208.694 -197.237 0.
-186.071 -128.629 0.
-2601.58 -1946.94 0.
-123.531 -321.808 0.
-135.774 -340.689 0.
-575.676 -957.215 0.
-574.864 -946.699 0.
-581.973 -926.716 0.
-569.677 -889.738 0.
-556.618 -849.255 0.
-512.058 -837.706 0.
-515.28 -833.052 0.
-506.913 -831.406 0.
-502.878 -840.853 0.
-727.281 -1185.24 0.
-740.213 -1195.24 0.
-480.976 -814.506 0.
-519.301 -876.616 0.
-555.211 -939.426 0.
-553.546 -921.498 0.
-646.941 -1104.15 0.
-738.612 -1285.87 0.
-413.76 -790.861 0.
-661.564 -1324.9 0.
-923.977 -1846.61 0.
-836.275 -1774.88 0.
-1542.92 -3251.76 0.
-28.8739 -21.2536 0.
-693.656 -1547.89 0.
-2379.08 -5340.69 0.
-0.0121865 -0.0232758 0.
-37.1497 -67.3419 0.
-3081.99 -7042.84 0.
-9.43887 -4.03351 0.
-41.6434 -36.9222 0.
-2988.93 -5686.97 0.
-98.6968 -74.8532 0.
-2543.52 -3383.38 0.
-63.5231 -96.3037 0.
-2999.9 -6118.77 0.
-15.956 -42.9407 0.
-110.292 -170.148 0.
-2490.86 -4133.12 0.
-101.803 -120.915 0.
0.87502 2.40834 0.
-0.207329 -0.481433 0.
-80.2121 -143.589 0.
-2.38647 -23.2101 0.
15.6643 43.2955 0.
9.49306 21.0269 0.
-6.2675 -59.3096 0.
-5.87995 -8.70515 0.
-17.4554 -27.4642 0.
2.02989 3.97783 0.
-1142.92 -2104.55 0.
-535.139 -1044.2 0.
-1785.23 -4126.03 0.
0.0594567 5.17242 0.
-40.5801 -105.481 0.
-0.517801 -0.629797 0.
0.777525 1.7064 0.
-519.695 -1105.13 0.
-6.73338 -7.73869 0.
-13.24 -16.6571 0.
-26.8475 -39.398 0.
-60.8315 -119.655 0.
-26.4515 -34.7426 0.
0.242376 0.579575 0.
-19.5164 -47.9163 0.
-32.7323 -84.0781 0.
-18.2806 -43.5331 0.
-15.3348 -40.7763 0.
-17.9417 -28.4155 0.
-36.3174 -65.4304 0.
-65.2504 -115.753 0.
-372.841 -722.768 0.
-52.5569 -120.133 0.
-70.571 -168.751 0.
-668.49 -1376.96 0.
-282.486 -370.087 0.
-530.409 -985.509 0.
-373.484 -547.71 0.
-222.039 -108.278 0.
-508.891 -809.115 0.
-477.541 -763.709 0.
-451.477 -713.584 0.
-513.203 -735.493 0.
-475.848 -669.99 0.
-442.3 -624.926 0.
-797.033 -1159.73 0.
-783.418 -1140.71 0.
-514.942 -662.594 0.
-515.204 -651.196 0.
-521.409 -656.214 0.
-549.063 -842.473 0.
-518.977 -772.866 0.
-489.532 -702.299 0.
-457.392 -794.879 0.
-516.286 -938.425 0.
-580.883 -1079.82 0.
-282.675 -336.947 0.
-259.572 -270.733 0.
-1908.12 -1525.75 0.
-191.203 -502.943 0.
-207.714 -517.867 0.
-543.757 -826.48 0.
-537.269 -821.068 0.
-530.124 -816.517 0.
-527.808 -792.747 0.
-505.115 -758.682 0.
-486.236 -725.918 0.
-505.25 -716.77 0.
-503.498 -711.036 0.
-517.267 -741.945 0.
-765.211 -1196.49 0.
-777.95 -1205.78 0.
-434.806 -688.886 0.
-470.951 -753.923 0.
-507.13 -825.393 0.
-369.009 -658.66 0.
-451.216 -849.789 0.
-552.283 -1028.5 0.
-34.9534 -13.7771 0.
-309.368 -521.77 0.
-535.406 -1082.28 0.
-98.7374 -42.1946 0.
-699.318 -1411.39 0.
-1.42097 -0.543123 0.
-7.50165 -3.04537 0.
-15.725 -7.32458 0.
-0.453281 -0.837506 0.
-6.4593 -16.8087 0.
-46.3661 -115.024 0.
-10.6002 -6.242 0.
0.66745 0.272248 0.
-0.148306 -0.0029329 0.
0.344245 0.15724 0.
-75.9717 -84.7108 0.
-40.5955 -74.8272 0.
-435.356 -826.902 0.
-3.85245 -10.1042 0.
-44.8431 -85.5823 0.
-64.7227 -102.034 0.
-2012.39 -2938.64 0.
1.83062 4.64133 0.
1.55194 2.265 0.
-2406.78 -4320.84 0.
-158.507 -335.669 0.
-0.717159 -42.5302 0.
-5.14863 -33.2033 0.
21.1441 40.2032 0.
-1389.47 -1873.53 0.
-2026.95 -2970.39 0.
-16.7299 -75.9952 0.
10.476 22.7725 0.
-4.25867 -75.5909 0.
-19.7269 -39.2313 0.
-0.00190728 -3.17991 0.
1.285 3.5517 0.
-2525.59 -5896.32 0.
-0.000459643 -0.00290856 0.
-326.111 -679.18 0.
1.42889 3.10013 0.
-3.41279 -4.6655 0.
-10.3518 -16.0048 0.
-123.547 -192.048 0.
-333.204 -366.172 0.
-1962.37 -4920.36 0.
-23.21 -60.421 0.
-2598.98 -4540.83 0.
-16.2851 -34.5078 0.
-20.2849 -45.2704 0.
-2988.39 -7125.05 0.
-51.2322 -90.0073 0.
-59.3584 -110.646 0.
-2516.43 -5470.91 0.
-262.044 -284.577 0.
-13.9953 -36.3662 0.
-1773.1 -3952.55 0.
-820.682 -1776.8 0.
-1131.95 -2277.19 0.
-768.281 -1528.34 0.
-446.767 -752.332 0.
-790.485 -1502.38 0.
-630.866 -1191.82 0.
-474.357 -878.383 0.
-677.739 -998.531 0.
-653.819 -957.286 0.
-630.693 -920.734 0.
-949.982 -1541.47 0.
-937.603 -1523.34 0.
-707.15 -1061.31 0.
-673.974 -991.437 0.
-646.586 -936.712 0.
-693.701 -1056.91 0.
-663.464 -1109.35 0.
-675.869 -1129.46 0.
-734.153 -1206.11 0.
-678.683 -1062.95 0.
-560.23 -984.587 0.
-404.566 -620.797 0.
-426.831 -687.611 0.
-2379.71 -2048.94 0.
-300.902 -810.948 0.
-298.266 -795.243 0.
-554.611 -980.961 0.
-598.81 -1069.92 0.
-645.523 -1163.99 0.
-621.154 -1010.04 0.
-636.499 -1047.9 0.
-655.9 -1097.89 0.
-689.983 -1045.48 0.
-696.516 -1056.86 0.
-703.109 -1068.37 0.
-905.521 -1559.65 0.
-927.47 -1618.66 0.
-548.062 -891.556 0.
-613.93 -1002.01 0.
-688.941 -1130.11 0.
-441.237 -901.817 0.
-679.116 -1383.75 0.
-928.87 -1858.58 0.
-319.376 -535.347 0.
-789.71 -1589.02 0.
-1313.75 -2599.51 0.
-707.526 -1387.15 0.
-1940.35 -4371.5 0.
-18.9226 -22.3801 0.
-24.9477 -33.7985 0.
-2785.44 -6826.36 0.
-4.03421 -5.08771 0.
-5.98749 -5.01761 0.
-2543.93 -3546.74 0.
-0.591924 -0.152013 0.
-3378.42 -7704.72 0.
-33.2444 -54.3901 0.
-42.3529 -73.427 0.
-2487.63 -5513.35 0.
-321.265 -482.157 0.
-600.198 -1360.73 0.
0.140286 0.354032 0.
-0.170079 -0.342349 0.
-18.028 -31.3348 0.
-277.918 -445.504 0.
-1774.16 -3134.59 0.
0.11713 6.65047 0.
11.2813 29.1387 0.
-2517.53 -5184.66 0.
-1.36678 -32.2115 0.
-1571.91 -3035.13 0.
-17.304 -63.2986 0.
-170.141 -223.314 0.
107.031 162.368 0.
-9.83064 -44.7851 0.
-1832.02 -3892.13 0.
-3.71611 -34.3957 0.
-69.9981 -130.029 0.
-0.0219474 -1.40127 0.
0.488094 1.34274 0.
0.177443 3.33628 0.
-0.130877 -0.733243 0.
-461.824 -1055.85 0.
-0.486091 -3.93573 0.
-2604.73 -5069.2 0.
-0.359794 -0.878708 0.
-2441.57 -5014.34 0.
-78.1628 -156.11 0.
-32.6956 -90.3279 0.
0.0867903 0.228756 0.
-18.5991 -45.5817 0.
-19.0545 -52.7578 0.
-19.6625 -54.1967 0.
-23.7231 -58.2686 0.
-26.0496 -68.3763 0.
-35.9707 -95.1244 0.
-32.753 -70.0269 0.
-21.0097 -40.7565 0.
-17.6282 -35.1712 0.
-595.081 -1275.63 0.
-24.3173 -37.5954 0.
-553.017 -1017.75 0.
-227.159 -228.243 0.
-27.9082 -76.4142 0.
-500.167 -1051.93 0.
-345.05 -705.721 0.
-213.527 -341.351 0.
-548.057 -872.425 0.
-527.622 -831.1 0.
-507.992 -798.781 0.
-855.643 -1462.28 0.
-845.283 -1446.27 0.
-618.674 -935.876 0.
-595.447 -884.728 0.
-591.689 -890.806 0.
-573.044 -985.835 0.
-586.644 -1010.47 0.
-600.654 -1035.97 0.
-612.431 -1152.18 0.
-563.835 -1015.52 0.
-514.979 -963.513 0.
-414.251 -619.13 0.
-430.255 -673.98 0.
-1163.53 -1480.51 0.
-297.173 -797.044 0.
-296.613 -777.704 0.
-517.39 -1001.55 0.
-544.653 -1035.94 0.
-596.348 -1100.88 0.
-546.85 -992.45 0.
-564.365 -1026.19 0.
-579.379 -1063.41 0.
-576.981 -981.936 0.
-569.417 -954.638 0.
-575.146 -966.776 0.
-811.322 -1477.79 0.
-832.52 -1532.21 0.
-375.626 -644.864 0.
-434.141 -762.419 0.
-495.113 -878.928 0.
-151.638 -142.657 0.
-345.859 -671.869 0.
-552.516 -1185.91 0.
-36.845 -50.5121 0.
-30.2783 -38.4707 0.
-488.088 -817.151 0.
-23.9177 -29.3726 0.
-511.974 -899.09 0.
-7.52838 -14.8409 0.
-10.2539 -19.0247 0.
-13.4215 -23.0763 0.
-6.95845 -7.70365 0.
-0.569826 -0.313453 0.
1.60239 0.901216 0.
0.579445 0.135857 0.
-20.6707 -27.2913 0.
-25.3306 -46.7971 0.
-33.4802 -64.2591 0.
-44.3264 -87.0895 0.
-45.8007 -92.0831 0.
-854.765 -1481.23 0.
-2422.97 -5618.95 0.
0.614268 1.22002 0.
-0.323917 -1.35743 0.
-4.56248 -8.24781 0.
-1356.66 -2356.84 0.
0.0911689 2.57379 0.
2.9592 7.32939 0.
15.8655 39.1282 0.
-1.07101 -14.5465 0.
-4.50646 -53.7273 0.
-29.531 -83.1569 0.
-247.416 -372.23 0.
-49.5171 -95.8859 0.
32.2123 55.8248 0.
30.4756 68.3065 0.
25.6936 64.4933 0.
-1037.95 -2408.06 0.
15.962 41.0354 0.
7.69612 18.7153 0.
-2.29857 -24.8697 0.
2.98536 5.78513 0.
0.00614797 0.689785 0.
-1258.47 -2993.34 0.
-149.066 -350.019 0.
0.175778 0.466092 0.
-25.289 -51.8124 0.
-41.1389 -88.1056 0.
-27.3 -74.6189 0.
-0.0480701 -0.0872302 0.
-0.655946 -0.945069 0.
-44.9573 -84.3189 0.
-49.1361 -78.6355 0.
-10.0222 -27.5468 0.
-17.1679 -46.7909 0.
-30.1778 -77.3185 0.
-38.6443 -70.6253 0.
-28.0836 -48.7392 0.
-33.4532 -36.8381 0.
-38.9261 -37.5022 0.
-27.4957 -39.9774 0.
-30.7794 -52.3857 0.
-20.9332 -50.5963 0.
-39.1495 -80.543 0.
-253.377 -424.787 0.
-89.107 -79.465 0.
-23.3579 -52.3004 0.
-353.472 -547.518 0.
-294.824 -387.604 0.
-70.216 -87.9984 0.
-344.491 -389.154 0.
-457.046 -705.48 0.
-33.6009 -61.0111 0.
-227.131 -374.937 0.
-69.4222 -90.7687 0.
-123.451 -184.597 0.
-142.337 -209.493 0.
-142.311 -190.87 0.
-111.689 -135.934 0.
-91.1549 -127.928 0.
-104.046 -146.493 0.
-222.265 -109.048 0.
-314.252 -322.245 0.
-560.068 -539.451 0.
-81.5492 -168.988 0.
-29.3811 -66.5774 0.
-107.812 -144.427 0.
-107.87 -141.206 0.
-136.858 -204.468 0.
-176.007 -323.897 0.
-151.679 -268.246 0.
-166.28 -301.511 0.
-92.3954 -133.28 0.
-176.51 -293.793 0.
-245.402 -355.512 0.
-381.417 -589.547 0.
-286.545 -332.046 0.
-142.812 -136.407 0.
-265.62 -477.081 0.
-367.514 -745.064 0.
-59.4733 -81.7505 0.
-55.5625 -71.1336 0.
-291.203 -526.717 0.
-47.5687 -53.1781 0.
-44.0732 -45.0302 0.
-40.9317 -37.7568 0.
-2.01699 -5.15462 0.
-12.5142 -27.3507 0.
-1.56397 -4.08377 0.
-3.27069 -8.46347 0.
-5.66202 -12.4281 0.
-10.0573 -10.4266 0.
-0.514611 -0.303977 0.
-1.13659 -0.373916 0.
0.255017 0.530923 0.
-14.6186 -34.0975 0.
-18.0719 -38.0106 0.
-26.5127 -56.3729 0.
-50.4192 -105.151 0.
0.906345 1.38489 0.
1.68374 1.48891 0.
-99.5048 -221.104 0.
-136.669 -267.66 0.
-0.303749 -1.38432 0.
-0.105372 -0.36816 0.
-1.44459 -33.8422 0.
-1620.92 -4261.45 0.
2.58594 6.13729 0.
-1.80784 -34.8101 0.
-4.64478 -44.0552 0.
-2421.73 -5472.11 0.
-30.8666 -100.643 0.
-451.969 -778.891 0.
-38.941 -215.17 0.
-4.00603 -6.62955 0.
-10.1506 -101.758 0.
-4.06372 -73.1464 0.
-3.66036 -63.9784 0.
11.5616 27.7481 0.
1.47801 3.70874 0.
-3.04977 -25.0721 0.
-0.693982 -3.30075 0.
-846.958 -2039.17 0.
-225.088 -583.723 0.
-127.361 -320.401 0.
-0.00963803 -1.33555 0.
-1.68002 -4.62461 0.
-10.9312 -28.2307 0.
-1730.8 -2387.55 0.
0.144716 0.147939 0.
-11.3106 -30.4589 0.
-2974.88 -7146.49 0.
-47.0876 -124.454 0.
-2272.52 -4071.22 0.
-35.0392 -88.3191 0.
-0.0722048 -0.593787 0.
-2574.86 -5864.43 0.
-26.3481 -37.1858 0.
-18.1918 -32.6046 0.
-2277.39 -5476.89 0.
-279.946 -425.096 0.
-1648.99 -3363.07 0.
-784.764 -1463.96 0.
-5.57981 -11.5663 0.
-1128.97 -2667.05 0.
-650.088 -1568.57 0.
-211.458 -426.441 0.
-747.017 -1712.41 0.
-520.648 -1164.65 0.
-318.487 -637.14 0.
-705.497 -1530.63 0.
-657.794 -1427.07 0.
-438.324 -830.734 0.
-441.891 -846.547 0.
-462.433 -895.654 0.
-395.946 -892.812 0.
-381.096 -863.937 0.
-369.329 -835.54 0.
-413.708 -934.949 0.
-396.779 -907.212 0.
-387.173 -877.811 0.
-418.537 -667.507 0.
-435.712 -718.236 0.
-314.331 -867.668 0.
-341.997 -784.991 0.
-330.777 -759.67 0.
-427.81 -913.285 0.
-438.309 -940.343 0.
-449.672 -968.046 0.
-352.05 -879.902 0.
-353.558 -867.501 0.
-353.874 -849.868 0.
-425.291 -859.445 0.
-433.796 -881.409 0.
-445.938 -914.624 0.
-624.33 -1533.78 0.
-714.523 -1723.15 0.
-247.281 -543.772 0.
-535.378 -1330.2 0.
-846.973 -2093.94 0.
-61.6963 -96.4343 0.
-677.366 -1652.04 0.
-1331.19 -3179.16 0.
-48.1489 -64.8606 0.
-754.964 -1403.02 0.
-1833.03 -3857.15 0.
-0.0555458 -0.434104 0.
-2300.82 -5316.33 0.
0.000789559 0.125668 0.
-13.7938 -33.8473 0.
-2713.18 -6698.04 0.
-4.20569 -6.82751 0.
-29.3553 -52.2579 0.
-2460.77 -4229.14 0.
-27.7643 -63.8368 0.
-1818.54 -4057.05 0.
0.257447 0.650511 0.
-1899.28 -4005.04 0.
-3.71547 -7.49259 0.
-0.5544 -1.18889 0.
1.24761 1.59956 0.
-88.6632 -210.553 0.
-132.828 -236.766 0.
-1127.09 -2704.78 0.
-1.44902 -4.5398 0.
11.6623 31.017 0.
-5.0995 -13.9728 0.
-3.08928 -34.2204 0.
-2065.09 -5079.26 0.
-2.63288 -69.7776 0.
34.6578 77.2761 0.
-44.3496 -122.243 0.
-10.8395 -114.987 0.
-30.6342 -240.265 0.
-51.67 -160.318 0.
-1622.62 -3660.6 0.
9.22132 22.1431 0.
-3.29415 -66.0962 0.
13.2139 29.8521 0.
-2053.54 -5286.84 0.
-1537.74 -3163.09 0.
-0.0614941 -59.9576 0.
-204.706 -474.448 0.
-105.753 -280.773 0.
0.0746198 3.62849 0.
-2036.99 -4339.23 0.
-6.05016 -16.5192 0.
-2530.97 -5762.62 0.
0.119569 1.52202 0.
0.625741 0.671858 0.
-5.7661 -11.8827 0.
-13.4286 -34.3754 0.
-8.98907 -20.1426 0.
-67.5791 -160.709 0.
-32.7144 -65.6917 0.
0.0761176 0.153402 0.
-31.1688 -41.7253 0.
-23.4225 -32.5821 0.
-24.739 -44.09 0.
-191.353 -184.992 0.
-50.9755 -34.4421 0.
-320.147 -412.017 0.
-4.80711 -4.2173 0.
-11.7042 -14.7902 0.
-536.676 -1195.03 0.
-96.2548 -54.8723 0.
-34.5908 -36.6711 0.
-539.723 -1268.66 0.
-334.69 -704.74 0.
-214.357 -337.858 0.
-611.338 -1391.47 0.
-563.576 -1292.37 0.
-381.483 -728.113 0.
-375.483 -706.188 0.
-388.737 -734.474 0.
-387.086 -803.663 0.
-375.093 -773.37 0.
-363.713 -742.931 0.
-363.088 -848.225 0.
-352.931 -815.995 0.
-342.714 -783.48 0.
-431.641 -761.1 0.
-450.014 -814.705 0.
-619.291 -1143.96 0.
-398.727 -833.775 0.
-399.162 -830.948 0.
-369.221 -771.288 0.
-378.898 -803.058 0.
-388.552 -835.179 0.
-384.401 -743.099 0.
-373.865 -750.062 0.
-367.809 -753.861 0.
-342.848 -765.255 0.
-358.813 -785.732 0.
-382.253 -814.748 0.
-499.489 -1312.29 0.
-578.07 -1500.7 0.
-52.7416 -79.8662 0.
-293.721 -674.813 0.
-576.048 -1469.67 0.
-6.79362 -18.1748 0.
-13.0002 -30.1852 0.
-482.303 -1070.34 0.
-60.1671 -91.14 0.
-44.2895 -43.7 0.
-133.901 -114.224 0.
0.22947 0.463889 0.
-0.0169927 -0.104099 0.
-0.000825967 -0.0454379 0.
0.000599883 0.053608 0.
-19.0022 -49.9895 0.
-0.0554806 -0.660913 0.
-9.15331 -20.3586 0.
-30.8332 -66.7657 0.
-46.2074 -80.4327 0.
-14.4026 -24.7061 0.
-0.0634735 -2.72922 0.
-60.7848 -133.941 0.
-25.1778 -52.9957 0.
-1641.18 -4001.63 0.
-348.79 -929.452 0.
-85.6018 -212.399 0.
-119.941 -187.203 0.
-0.0161432 -13.0404 0.
-1.29434 -3.58755 0.
10.6289 29.0009 0.
18.4255 49.7506 0.
19.7302 50.6099 0.
-2.74894 -56.9272 0.
-2.45074 -54.8081 0.
7.35603 15.9773 0.
39.0664 66.2381 0.
-17.6734 -126.841 0.
-20.4656 -210.621 0.
7.13067 11.5349 0.
-7.82871 -120.289 0.
35.3565 82.5417 0.
-1472.06 -3629.43 0.
9.87808 21.2738 0.
20.3926 54.9025 0.
6.83202 17.6104 0.
-1.49906 -37.1645 0.
-531.77 -1216.39 0.
-115.982 -310.565 0.
-447.959 -1127.42 0.
-67.8234 -144.686 0.
-0.0419056 -5.25155 0.
-56.6876 -157.005 0.
2.55989 0.281069 0.
-1.09829 -1.30685 0.
0.236549 0.407162 0.
-6.68817 -16.5851 0.
-291.505 -641.063 0.
-1936.83 -4173.32 0.
-48.1864 -107.089 0.
-18.8871 -36.569 0.
-2241.11 -5656.15 0.
-33.8489 -45.8911 0.
-10.377 -4.6603 0.
-2288.11 -5141.45 0.
-45.5761 -25.0547 0.
-1808.32 -3850.49 0.
-550.411 -890.422 0.
-14.7735 -25.0754 0.
-1428.84 -3339.75 0.
-607.147 -1344.9 0.
-45.8607 -26.7589 0.
-970.008 -2289.67 0.
-557.457 -1280.77 0.
-172.013 -246.57 0.
-755.089 -1750.26 0.
-630.905 -1495.99 0.
-457.077 -995.292 0.
-409.656 -877.872 0.
-378.239 -802.439 0.
-429.835 -846.076 0.
-424.24 -830.739 0.
-418.259 -813.453 0.
-483.23 -937.21 0.
-388.504 -881.392 0.
-352.607 -783.59 0.
-433.725 -887.484 0.
-441.162 -908.16 0.
-1010.33 -1145.12 0.
-421.614 -871.716 0.
-447.956 -938.717 0.
-401.688 -811.327 0.
-407.068 -828.822 0.
-415.53 -855.324 0.
-426.161 -787.59 0.
-439.162 -810.282 0.
-453.012 -832.947 0.
-368.057 -879.553 0.
-451.715 -1063.89 0.
-541.885 -1250.54 0.
-608.462 -1598.53 0.
-799.167 -1966.15 0.
-88.695 -171.063 0.
-573.834 -1467.27 0.
-1084.55 -2746.24 0.
-15.753 -40.507 0.
-485.238 -1147.83 0.
-1583.97 -3965.59 0.
-36.7312 -24.1982 0.
-435.795 -347.08 0.
-1841.76 -3624.92 0.
-0.0160973 -0.330097 0.
-2354.37 -5962.53 0.
-0.107568 -0.295658 0.
-0.243188 -0.67081 0.
-1905.99 -3018.02 0.
0.573724 1.5637 0.
-2366.4 -6142.69 0.
-306.183 -687.614 0.
-115.684 -132.013 0.
-113 -141.938 0.
0.0248323 1.42161 0.
-13.1289 -31.1128 0.
-32.572 -80.8055 0.
-136.088 -340.076 0.
-194.286 -489.658 0.
-353.743 -915.34 0.
-186.826 -250.384 0.
2.21276 6.07031 0.
7.60282 21.0365 0.
6.05938 16.7208 0.
-261.164 -692.257 0.
-1.80686 -52.9656 0.
20.8208 50.8194 0.
-0.736342 -1.82142 0.
-1107.2 -2360.87 0.
110.398 185.808 0.
59.2266 126.081 0.
-16.7726 -189.42 0.
32.2965 64.1409 0.
50.468 120.931 0.
13.8257 32.3322 0.
-0.377012 -75.7698 0.
-0.176099 -5.89819 0.
21.3621 56.7891 0.
0.626412 1.65011 0.
8.13872 20.8819 0.
-1198.11 -2709.59 0.
-0.0131732 -22.9516 0.
-570.548 -1460.63 0.
3.28892 7.21041 0.
3.93779 10.7252 0.
-42.0545 -114.203 0.
0.183671 0.447618 0.
-2793.06 -5139.27 0.
-17.2722 -29.5439 0.
-1788.2 -4216.38 0.
-5.78844 -15.4711 0.
-0.0213435 -0.990644 0.
-37.6906 -77.0993 0.
-23.0085 -41.5341 0.
-55.5695 -84.2893 0.
-25.4828 -22.3163 0.
0.632038 0.238566 0.
-24.2204 -9.89772 0.
-37.8893 -19.4923 0.
-59.9128 -48.9029 0.
-13.3775 -25.899 0.
-16.7871 -25.9996 0.
-448.355 -950.976 0.
-27.9942 -22.4391 0.
-28.8442 -22.474 0.
-521.345 -1246.33 0.
-142.597 -203.795 0.
-38.2174 -36.1762 0.
-530.876 -1298.32 0.
-414.107 -1042.89 0.
-369.778 -877.951 0.
-312.215 -767.59 0.
-271.125 -683.407 0.
-364.481 -844.852 0.
-357.901 -831.441 0.
-350.162 -814.357 0.
-425.813 -909.447 0.
-364.407 -863.203 0.
-337.456 -792.9 0.
-361.851 -846.116 0.
-353.477 -826.548 0.
-279.688 -659.837 0.
-456.604 -796.347 0.
-481.469 -858.625 0.
-369.557 -855.164 0.
-371.994 -861.491 0.
-378.291 -874.315 0.
-314.895 -796.26 0.
-326.779 -822.593 0.
-340.745 -845.439 0.
-233.445 -601.888 0.
-303.58 -800.749 0.
-386.432 -995.781 0.
-323.298 -877.273 0.
-487.006 -1270.65 0.
-47.4328 -103.965 0.
-50.684 -118.315 0.
-532.736 -1422.38 0.
-5.07343 -13.3133 0.
-0.0712484 -0.0707441 0.
-324.09 -835.176 0.
-50.9401 -88.9309 0.
-25.7442 -21.3865 0.
-36.0822 -49.4266 0.
-0.00107173 -0.243844 0.
-29.2776 -79.7499 0.
-0.155029 -0.422983 0.
-0.220343 -0.604533 0.
-18.5157 -50.9543 0.
-0.0189321 -1.79286 0.
-0.0238869 -1.32732 0.
-7.45057 -14.259 0.
-75.9509 -114.788 0.
-1506.45 -2149.32 0.
-1312.72 -3101.09 0.
-354.415 -925.153 0.
-41.4481 -111.817 0.
-146.613 -386.64 0.
-95.8738 -226.399 0.
-488.533 -913.692 0.
-319.106 -406.833 0.
2.55575 6.90039 0.
0.15449 0.426509 0.
-0.0698321 -26.0525 0.
-1798.57 -4693.69 0.
16.9036 43.2625 0.
-1906.55 -4600.01 0.
-13.3157 -32.6397 0.
15.9864 37.0105 0.
68.699 115.551 0.
-16.7334 -115.57 0.
-21.6046 -47.5919 0.
-9.50307 -19.4266 0.
-877.756 -2098.64 0.
10.4309 24.4421 0.
-0.886494 -97.8983 0.
-0.710563 -27.276 0.
-82.3075 -216.481 0.
15.4951 41.4468 0.
-941.371 -2430.62 0.
6.94636 17.9555 0.
16.6662 44.8575 0.
-788.045 -2033.35 0.
11.1082 30.1531 0.
-0.0772692 -10.3641 0.
-1275.38 -2610.2 0.
-0.201556 -3.34036 0.
1.45066 2.46859 0.
-0.374936 -1.79369 0.
-38.0306 -105.338 0.
-0.0128878 -1.19126 0.
0.346451 0.925339 0.
-41.8625 -80.8008 0.
-27.7433 -47.3982 0.
-68.7163 -92.954 0.
-33.373 -28.9634 0.
-0.0894474 -0.00565715 0.
-33.8067 -12.7728 0.
-29.9646 -15.3512 0.
-20.6037 -33.504 0.
-16.5903 -27.2546 0.
-21.2413 -26.9352 0.
-29.2512 -25.4923 0.
-30.3829 -23.1498 0.
-30.4689 -22.8643 0.
-129.077 -193.192 0.
-30.1987 -31.131 0.
-46.9632 -39.9003 0.
-150.745 -288.394 0.
-90.0522 -142.756 0.
-184.516 -341.643 0.
-90.2814 -150.354 0.
-55.3796 -82.7285 0.
-154.011 -240.708 0.
-174.445 -329.756 0.
-104.65 -158.04 0.
-120.076 -195.531 0.
-118.756 -154.503 0.
-161.379 -297.123 0.
-112.164 -257.087 0.
-104.063 -231.78 0.
-25.2632 -33.1525 0.
-104.724 -103.523 0.
-222.081 -251.924 0.
-26.0482 -40.6009 0.
-155.552 -214.644 0.
-57.4069 -89.0396 0.
-28.9715 -51.1872 0.
-134.817 -277.969 0.
-96.8007 -186.505 0.
-64.1672 -113.863 0.
-122.687 -262.375 0.
-117.996 -247.887 0.
-31.1129 -63.7009 0.
-174.978 -445.378 0.
-45.2611 -119.96 0.
-36.9193 -100.546 0.
-45.2265 -123.755 0.
-3.05965 -6.77573 0.
-0.147855 -0.0595337 0.
-0.271137 -0.287307 0.
-117.297 -132.704 0.
-20.8286 -13.0877 0.
-27.8121 -23.4796 0.
-0.000671341 -0.265289 0.
-0.000185715 -0.353963 0.
-0.114725 -0.310259 0.
-0.159994 -0.435946 0.
-19.3219 -51.1703 0.
-0.026123 -1.77029 0.
0.81564 2.14235 0.
0.0113603 0.213723 0.
-0.0675885 -0.296999 0.
0.000171994 0.0287391 0.
-544.22 -1492.96 0.
-142.908 -389.541 0.
-1195.91 -2985.01 0.
-0.0182208 -0.0466587 0.
-120.27 -270.831 0.
-301.328 -670.789 0.
-2.4081 -25.3178 0.
-484.919 -1300.99 0.
6.34951 17.4712 0.
19.5391 53.3028 0.
14.3048 39.1184 0.
28.2948 75.3607 0.
-2.03539 -111.389 0.
15.1805 36.295 0.
44.4139 102.438 0.
-29.3003 -47.9345 0.
34.449 66.7099 0.
-1095.93 -2217.83 0.
-9.94497 -20.8301 0.
41.4152 98.0499 0.
-7.67869 -18.0422 0.
32.3174 86.7635 0.
24.9075 65.4086 0.
-275.795 -720.374 0.
-205.617 -556.277 0.
1.93832 5.35125 0.
10.8864 28.5342 0.
1.75975 4.76169 0.
-833.955 -2168.73 0.
-0.152449 -29.8424 0.
-1539.97 -3472.84 0.
-0.00398343 -12.1386 0.
0.0634062 1.03161 0.
1.84638 3.37199 0.
-0.114961 -0.727229 0.
-11.4934 -31.7579 0.
-1861.43 -3377.12 0.
0.512644 0.93486 0.
-2414.84 -4514.49 0.
-0.0125584 -0.452721 0.
-1607.04 -3474.72 0.
-3.07032 -8.17122 0.
-26.3845 -72.0983 0.
-2142.75 -5362.01 0.
-49.8788 -66.7799 0.
-1940.91 -3580.01 0.
-210.646 -243.401 0.
-30.5123 -31.7786 0.
-1930.33 -4726.68 0.
-240.952 -433.184 0.
-6.58857 -14.3259 0.
-1247.05 -3076.07 0.
-495.02 -1147.4 0.
-45.5997 -67.8615 0.
-900.209 -2236.21 0.
-572.759 -1452.51 0.
-613.789 -1514.86 0.
-437.975 -1106.59 0.
-276.675 -701.743 0.
-401.667 -1017.8 0.
-328.483 -830.189 0.
-257.693 -645.039 0.
-349.178 -796.595 0.
-327.021 -743.256 0.
-307.584 -690.612 0.
-353.841 -759.205 0.
-411.742 -864.459 0.
-256.839 -668.718 0.
-458.057 -850.299 0.
-424.726 -753.21 0.
-299.361 -711.589 0.
-325.131 -783.127 0.
-353.886 -859.705 0.
-250.095 -691.768 0.
-367.538 -998.44 0.
-490.764 -1304.38 0.
-276.32 -759.384 0.
-468.563 -1252.29 0.
-675.73 -1733.3 0.
-526.559 -1390.56 0.
-976.997 -2531.98 0.
-12.3399 -33.3746 0.
-419.892 -1047.32 0.
-1414.79 -3547.42 0.
-23.9831 -61.9191 0.
-64.7246 -156.528 0.
-2097.84 -5503.39 0.
-18.5821 -35.6126 0.
-19.9184 -32.843 0.
-1929.76 -3334.5 0.
-0.0095658 -0.330972 0.
-2222.92 -5862.03 0.
0.24485 0.669253 0.
-0.102608 -0.480375 0.
-1825.45 -3551.85 0.
0.622878 1.55165 0.
-1601.89 -3851.92 0.
-0.00856136 -0.0230889 0.
-0.426073 -3.21832 0.
1.82244 4.99138 0.
-36.2073 -100.288 0.
0.524706 1.39045 0.
1.31735 2.77581 0.
-627.097 -1326.77 0.
-239.507 -525.102 0.
-334.801 -783.732 0.
-1.23822 -3.2786 0.
-928.198 -2478.89 0.
17.7542 48.6754 0.
-0.641101 -56.3681 0.
-137.876 -370.699 0.
20.9544 55.1798 0.
22.5291 59.0384 0.
36.9952 87.1598 0.
-361.789 -833.288 0.
-845.68 -1398.55 0.
-59.1681 -147.293 0.
24.8649 66.5839 0.
-4.17695 -162.678 0.
-38.5219 -90.6723 0.
3.41614 8.54485 0.
-1013.11 -2697.14 0.
-1.56823 -78.8595 0.
-562.668 -1527.27 0.
15.456 42.8062 0.
-28.0944 -76.9103 0.
-4.80652 -12.7363 0.
14.6428 39.7725 0.
3.04215e-05 0.197481 0.
8.01042 22.0514 0.
-623.994 -1523.64 0.
0.00178853 4.60418 0.
-0.411157 -6.14393 0.
-0.0105959 -2.51138 0.
-2041.75 -4847.27 0.
-86.5224 -213.776 0.
-24.2158 -58.6821 0.
1.0907 0.0936338 0.
-75.0576 -207.137 0.
0.159473 0.296777 0.
-0.312569 -0.761782 0.
0.0163965 0.0446569 0.
-0.00614546 -0.744797 0.
-109.651 -206.419 0.
-40.5728 -48.9962 0.
-23.6844 -32.6957 0.
-10.4886 -20.6122 0.
-13.999 -24.6762 0.
-113.914 -115.778 0.
-10.0687 -18.2543 0.
-11.6744 -20.361 0.
-485.528 -1113.35 0.
-41.9533 -49.0791 0.
-51.8055 -69.0612 0.
-509.252 -1283.21 0.
-193.728 -459.362 0.
-402.971 -1027.28 0.
-242.181 -606.747 0.
-113.074 -257.617 0.
-330.271 -857.628 0.
-262.01 -666.993 0.
-194.517 -475.999 0.
-326.986 -686.673 0.
-306.267 -630.747 0.
-297.568 -563.06 0.
-357.722 -756.168 0.
-409.81 -867.719 0.
-88.8129 -223.117 0.
-446.302 -820.149 0.
-415.298 -723.5 0.
-274.822 -610.25 0.
-303.891 -681.115 0.
-334.949 -759.363 0.
-153.643 -408.846 0.
-265.4 -722.751 0.
-384.322 -1032.37 0.
-52.1859 -142.634 0.
-207.315 -553.774 0.
-398.933 -1052.23 0.
-93.0851 -200.993 0.
-545.121 -1399.85 0.
-3.85791 -10.4161 0.
-13.9325 -38.1983 0.
-300.376 -711.936 0.
-23.9248 -59.2777 0.
-10.183 -19.604 0.
-42.6528 -110.859 0.
0.00614174 0.17918 0.
-0.0584825 -0.792113 0.
0.327202 0.724671 0.
0.125837 0.328261 0.
0.0126103 0.0349016 0.
-0.0193832 -1.31678 0.
-0.104565 -0.783018 0.
-0.243568 -0.710665 0.
0.130759 0.362037 0.
-34.8056 -96.1626 0.
0.702952 1.8711 0.
-1974.57 -4530.48 0.
1.22129 3.31065 0.
-31.7243 -86.9078 0.
-0.263673 -7.20903 0.
-0.750593 -4.52508 0.
-520.07 -1214.22 0.
-0.0153179 -0.922598 0.
-433.133 -1038.49 0.
10.9964 29.0551 0.
-0.124987 -66.1767 0.
-1234.22 -3374.57 0.
5.64386 15.0296 0.
-604.904 -1601.92 0.
-1.9709 -76.4563 0.
24.486 63.5451 0.
-11.4342 -142.794 0.
-846.364 -1950.9 0.
-943.532 -2074.2 0.
-1.26252 -64.1252 0.
14.2108 35.8951 0.
14.1944 37.0616 0.
-52.2122 -122.639 0.
-4.13509 -92.0316 0.
-10.4951 -27.4794 0.
7.41624 20.5177 0.
11.6963 31.5127 0.
28.9015 80.0266 0.
-142.934 -387.255 0.
17.3382 46.3587 0.
-736.908 -2007.93 0.
-0.00286269 -9.38266 0.
-24.2249 -64.2798 0.
-1.24718 -3.14024 0.
-0.00348994 -14.1966 0.
0.0646439 0.910185 0.
5.20929 14.1867 0.
-30.478 -66.9564 0.
-26.4633 -66.4187 0.
-32.0454 -62.4095 0.
0.401846 0.350027 0.
-4.64355 -12.5048 0.
-0.115418 -0.292136 0.
0.0127662 0.0325137 0.
-1118.21 -2485.2 0.
3.89955e-05 0.856381 0.
-1545.66 -4087.75 0.
-35.3241 -62.0915 0.
-1785.03 -3092.85 0.
-21.8463 -34.2981 0.
-22.0024 -33.5254 0.
-1913.84 -4996.94 0.
-17.3904 -22.6673 0.
-15.9145 -17.1324 0.
-1490.23 -3580.74 0.
-322.398 -685.79 0.
-32.7903 -14.5062 0.
-1028.11 -2592.98 0.
-487.771 -1208.35 0.
-720.575 -1749.58 0.
-456.069 -1130.01 0.
-210.506 -509.202 0.
-516.259 -1289.53 0.
-362.168 -928.842 0.
-216.335 -565.181 0.
-388.392 -831.914 0.
-353.215 -738.752 0.
-321.941 -653.779 0.
-412.703 -841.611 0.
-374.333 -754.466 0.
-436.222 -527.606 0.
-393.741 -621.848 0.
-419.452 -688.466 0.
-278.62 -590.24 0.
-354.784 -794.49 0.
-439.976 -1012.76 0.
-209.45 -556.415 0.
-395.473 -1035.26 0.
-595.082 -1508.54 0.
-159.25 -382.169 0.
-459.986 -1152.93 0.
-780.263 -1910.64 0.
-455.596 -1152.53 0.
-1177.1 -3013.61 0.
-0.38738 -1.05374 0.
-94.1308 -256.253 0.
-1596.84 -4170.9 0.
-20.306 -54.099 0.
-22.8282 -61.4856 0.
-1373.77 -3282.25 0.
-1.81679 -5.02664 0.
-1782.86 -3965.03 0.
-15.1554 -38.3521 0.
0.0949904 0.255413 0.
-1140.59 -2877.08 0.
0.00159698 0.0603533 0.
-0.129145 -1.25159 0.
0.239741 0.982118 0.
-2.39692 -5.83959 0.
-84.6005 -216.999 0.
-0.082219 -3.5553 0.
0.513253 1.298 0.
2.57817 7.10872 0.
-861.852 -2220.16 0.
2.07542 5.08593 0.
-10.5182 -20.4869 0.
-487.144 -1205.87 0.
-1.16191 -3.1332 0.
-599.008 -1455 0.
-1.01392 -47.5923 0.
21.7538 60.1347 0.
4.36908 11.6917 0.
-0.533114 -23.3797 0.
-1475.62 -3860.42 0.
26.7764 69.3935 0.
-211.044 -543.666 0.
-0.0650895 -0.150987 0.
22.7676 55.3441 0.
-75.836 -162.223 0.
91.3748 232.775 0.
-91.6414 -209.987 0.
4.52058 11.7878 0.
-38.8669 -91.3679 0.
-32.1365 -83.5393 0.
4.65257 12.2081 0.
13.6114 37.5804 0.
5.19388 13.8916 0.
33.1491 91.6638 0.
-267.575 -717.412 0.
-729.617 -1959.86 0.
0.56504 1.56122 0.
3.10262 8.58667 0.
-377.21 -997.864 0.
-0.119137 -35.2816 0.
-0.00240369 -21.0274 0.
-2044.68 -4308.84 0.
0.00382147 1.39185 0.
-0.644851 -6.14186 0.
0.111388 2.80149 0.
-47.2843 -79.0896 0.
-21.2091 -49.5631 0.
-1838.43 -4190.06 0.
-57.6058 -149.446 0.
-1127.61 -2600.31 0.
-3.97 -10.7797 0.
2.49264e-05 0.244859 0.
-26.508 -64.6455 0.
-0.857735 -2.23994 0.
-9.76887 -20.3328 0.
-10.9033 -21.052 0.
-11.2407 -20.7739 0.
-138.037 -224.36 0.
-13.0836 -16.3802 0.
-13.9105 -15.523 0.
-188.101 -356.852 0.
-17.3207 -13.0731 0.
-14.7746 -10.2453 0.
-478.241 -1183.09 0.
-38.5181 -45.6075 0.
-392.109 -971.25 0.
-138.815 -319.547 0.
-32.3164 -83.3839 0.
-349.705 -923.575 0.
-208.977 -554.577 0.
-97.396 -251.688 0.
-279.776 -678.51 0.
-247.98 -600.207 0.
-230.267 -547.938 0.
-398.902 -824.663 0.
-366.912 -741.839 0.
-275.293 -579.299 0.
-357.536 -642.43 0.
-374.243 -689.101 0.
-197.745 -417.151 0.
-265.435 -622.174 0.
-344.161 -834.415 0.
-60.3421 -140.298 0.
-182.876 -494.074 0.
-364.931 -979.806 0.
-28.1675 -60.5533 0.
-66.7944 -134.227 0.
-375.7 -902.301 0.
-28.584 -71.5342 0.
-458.277 -1226.55 0.
-0.00373931 -0.523555 0.
-6.3837 -17.5671 0.
-96.7041 -267.409 0.
-0.902804 -2.15627 0.
-13.3284 -35.3975 0.
-28.263 -77.83 0.
0.000276154 0.436189 0.
-413.28 -1136.82 0.
-14.7575 -40.0729 0.
0.185639 0.492156 0.
-1.1406e-05 -0.100517 0.
0.00808944 0.290341 0.
-2308.88 -5626.19 0.
0.0324777 0.195965 0.
0.0678493 1.90035 0.
-1336.98 -2328.43 0.
1.34618 3.48477 0.
0.149283 0.371069 0.
3.15805 8.74338 0.
-0.458818 -9.93758 0.
-1385.98 -3058.17 0.
-0.131301 -10.3324 0.
-413.394 -1060.33 0.
16.8274 45.5298 0.
-0.00707363 -66.3518 0.
-159.774 -420.2 0.
23.1911 64.2034 0.
1.0369 2.76577 0.
27.9646 76.6075 0.
20.8116 55.3834 0.
20.1619 51.9739 0.
-1239.57 -3176.62 0.
-18.9956 -50.0766 0.
24.2896 59.4139 0.
70.328 146.532 0.
-9.81123 -163.418 0.
-778.421 -1529.13 0.
-4.35893 -158.418 0.
-337.436 -796.826 0.
-8.07913 -21.0096 0.
-25.6255 -67.4762 0.
-28.7514 -77.2753 0.
41.2999 109.795 0.
-15.681 -41.9146 0.
-836.912 -2226.33 0.
-0.0946527 -81.4273 0.
0.0498949 0.137303 0.
4.38431 12.1326 0.
-919.71 -2430.05 0.
-0.0386779 -21.1493 0.
-12.9156 -33.1027 0.
2.69477 7.34934 0.
-0.0314708 -18.8908 0.
-42.5795 -95.3225 0.
-1027.97 -2000.55 0.
-1068.94 -1958.03 0.
-0.711211 -1.53908 0.
-67.5465 -178.593 0.
-29.424 -81.1887 0.
0.322956 0.816274 0.
-0.000925836 -0.540169 0.
0.00132068 0.169854 0.
-4.19452 -6.76021 0.
0.00394808 0.0826382 0.
-0.015366 -0.0425424 0.
-2.43569 -5.93998 0.
-2.85917 -6.29634 0.
-13.8358 -22.2161 0.
-13.0267 -18.7616 0.
-14.2073 -18.9925 0.
-6.8958 -19.0676 0.
-0.942346 -1.90859 0.
-1.08313 -2.97717 0.
-44.8622 -30.554 0.
-55.8545 -51.3534 0.
-29.162 -67.9619 0.
-22.5383 -51.3051 0.
-28.6364 -70.1391 0.
-145.638 -370.727 0.
-49.8707 -96.7116 0.
-21.9696 -53.0695 0.
-109.183 -224.658 0.
-132.26 -272.158 0.
-93.7035 -177.841 0.
-208.332 -163.632 0.
-197.128 -161.83 0.
-105.101 -62.5521 0.
-129.035 -86.1851 0.
-304.316 -409.222 0.
-56.8498 -66.0207 0.
-174.416 -320.275 0.
-183.284 -353.134 0.
-32.9275 -89.1023 0.
-26.3867 -67.12 0.
-119.016 -305.025 0.
-47.629 -65.4265 0.
-48.0204 -68.7857 0.
-58.2529 -85.7949 0.
-21.4877 -58.4789 0.
-41.4141 -94.94 0.
0.180204 0.49078 0.
-7.6032 -21.0141 0.
-24.3069 -66.5 0.
-0.565916 -1.34229 0.
-7.5828 -19.7751 0.
-18.9334 -52.0761 0.
0.00061102 0.298901 0.
-0.00291754 -0.576558 0.
-16.545 -45.7784 0.
0.263378 0.692483 0.
0.15581 0.430774 0.
0.0433505 1.5013 0.
-0.131721 -2.4468 0.
-0.144419 -2.45788 0.
0.110932 3.86327 0.
0.000232039 11.5811 0.
-1341.79 -3194.25 0.
-1.53816 -4.16453 0.
-0.000654126 -11.5442 0.
-0.0861452 -12.5825 0.
-358.561 -843.362 0.
-5.63498 -15.3656 0.
-347.118 -910.42 0.
-215.757 -585.126 0.
-0.00445741 -10.5285 0.
-1018.49 -2676.86 0.
-90.0691 -245.228 0.
12.4088 33.0359 0.
12.4284 34.0595 0.
-1.72984 -110.6 0.
51.4379 140.864 0.
39.4822 98.6289 0.
-147.581 -388.257 0.
49.4875 121.69 0.
-34.3629 -70.0538 0.
63.0155 142.435 0.
-253.118 -389.733 0.
33.7319 87.1814 0.
-46.7127 -111.115 0.
41.7101 108.451 0.
-12.0192 -31.7985 0.
-32.8542 -88.3966 0.
29.2128 77.3352 0.
-129.821 -347.045 0.
5.77704 15.6341 0.
28.7213 79.3902 0.
-120.237 -329.532 0.
-403.32 -1098.34 0.
22.1428 61.2169 0.
9.84262 27.2066 0.
-425.728 -1106.16 0.
-0.0530598 -12.0997 0.
10.7555 29.6979 0.
-17.7507 -47.4438 0.
-460.396 -1140.75 0.
4.00739 5.69401 0.
-0.235123 -1.65456 0.
-48.3355 -133.006 0.
-11.2388 -30.6497 0.
-0.061707 -1.0608 0.
-1515.88 -3293.9 0.
-0.00817828 -0.109282 0.
-1515.45 -3461.94 0.
-37.4053 -69.0694 0.
-8.69204 -15.5187 0.
-1968.24 -4389.59 0.
-0.0430666 -0.394642 0.
-1336.9 -3225.39 0.
-15.3077 -22.7741 0.
-12.6673 -17.329 0.
-1578.34 -3997.03 0.
-9.05108 -16.2326 0.
-17.8922 -40.1328 0.
-1297.9 -3262.31 0.
-235.984 -502.859 0.
-862.87 -2092.63 0.
-427.982 -1021.16 0.
-93.781 -196.962 0.
-692.851 -1782.31 0.
-415.915 -1072.21 0.
-159.009 -378.964 0.
-471.211 -1227.04 0.
-326.816 -840.311 0.
-198.472 -484.583 0.
-426.618 -933.485 0.
-394.339 -845.096 0.
-306.289 -582.017 0.
-403.478 -803.781 0.
-465.966 -963.347 0.
-202.612 -456.657 0.
-369.834 -933.002 0.
-570.352 -1476.91 0.
-65.3656 -160.889 0.
-422.215 -1143.22 0.
-794.774 -2109.4 0.
-86.8854 -147.636 0.
-490.63 -1072.89 0.
-1012.34 -2332.81 0.
-95.5683 -238.285 0.
-1356.57 -3616.69 0.
-14.8399 -37.1725 0.
-21.7849 -59.4894 0.
-1743.99 -4584.63 0.
-14.9829 -33.2228 0.
-38.2258 -82.7774 0.
-1766.29 -3137.71 0.
0.036103 0.6944 0.
-1809.51 -4569 0.
0.00643488 0.0224643 0.
-22.1021 -61.1647 0.
-1824.6 -3482.31 0.
-0.00153223 -1.83557 0.
-1176.1 -3116.34 0.
0.0273882 1.60638 0.
-0.000582902 -0.216823 0.
-0.00561867 -0.571027 0.
-244.06 -641.24 0.
-0.120358 -13.7366 0.
-1151.79 -2879.38 0.
0.0105391 3.66033 0.
-166.494 -408.372 0.
-5.86764 -16.0682 0.
24.7466 68.0674 0.
-376.77 -1023.61 0.
-0.0985796 -72.6507 0.
-6.47891 -17.8298 0.
-233.911 -637.672 0.
-16.6921 -44.4439 0.
-11.7672 -32.2552 0.
-152.916 -409.829 0.
18.7917 51.5211 0.
36.4743 92.0836 0.
-10.8691 -28.5137 0.
-414.018 -1023.68 0.
28.5746 57.2814 0.
2.38326 4.87964 0.
-454.654 -857.891 0.
-92.1396 -236.29 0.
52.506 141.315 0.
54.9951 142.92 0.
-800.45 -2130.77 0.
-36.0455 -97.0752 0.
-907.082 -2395.84 0.
-884.755 -2366.67 0.
23.8123 64.4638 0.
-5.33425 -14.7541 0.
-470.17 -1284.72 0.
-1027.09 -2802.04 0.
4.52747 12.5236 0.
9.74773 26.9231 0.
-901.742 -2366.6 0.
3.76407 10.3485 0.
-640.068 -1688.17 0.
-8.28946 -22.0718 0.
-97.9484 -263.85 0.
1.20311 24.4567 0.
-1.15175 -7.2311 0.
5.72612 13.1472 0.
-1715.68 -4047.29 0.
0.0398805 2.75175 0.
-0.186292 -1.11853 0.
-0.18 -3.08937 0.
-73.3404 -162.278 0.
-13.3373 -28.4331 0.
-0.0619284 -0.779705 0.
0.407235 0.784674 0.
-0.00453164 -0.059054 0.
-31.3354 -80.9363 0.
-15.356 -28.8313 0.
-5.38307 -8.56269 0.
-21.7388 -22.0905 0.
-19.5945 -17.0869 0.
-25.0181 -32.4771 0.
-378.486 -884.408 0.
-33.7277 -31.6449 0.
-332.428 -759.767 0.
-14.4975 -29.778 0.
-14.4941 -28.5489 0.
-397.874 -988.769 0.
-148.388 -308.492 0.
-42.461 -81.917 0.
-384.194 -948.894 0.
-268.87 -627.075 0.
-155.97 -306.913 0.
-388.757 -845.038 0.
-357.631 -761.658 0.
-137.283 -103.967 0.
-357.335 -694.959 0.
-397.499 -806.583 0.
-84.8385 -132.609 0.
-226.708 -541.104 0.
-398.166 -1020.51 0.
-15.3197 -34.947 0.
-55.0635 -118.54 0.
-402.912 -1068 0.
-55.7211 -67.4215 0.
-61.7264 -73.2559 0.
-347.015 -688.167 0.
-35.2019 -86.6619 0.
-285.162 -763.149 0.
-21.7273 -51.2365 0.
-28.5413 -75.5343 0.
-44.3951 -101.663 0.
-21.7165 -25.822 0.
-28.1938 -35.2065 0.
-54.7118 -93.1351 0.
-0.0591615 -1.42915 0.
-0.0394523 -1.37483 0.
-0.072375 -0.261739 0.
-0.189872 -0.729437 0.
0.0280208 0.114151 0.
-0.0899375 -2.99101 0.
-33.6701 -92.4833 0.
1.09066 3.02078 0.
-1647.47 -3840.64 0.
6.70158 17.5612 0.
4.82919 13.2288 0.
-0.0746601 -8.7723 0.
-184.346 -460.419 0.
-184.659 -481.463 0.
3.97049 10.0282 0.
-168.191 -461.922 0.
5.16952 14.3154 0.
-278.931 -759.082 0.
-12.3681 -34.1634 0.
-9.87486 -27.1976 0.
-891.377 -2435.63 0.
-431.177 -1151.08 0.
29.6158 81.1843 0.
-373.53 -1005.48 0.
33.2769 91.2877 0.
40.1327 102.269 0.
0.588329 1.5377 0.
36.3693 99.5676 0.
-26.107 -147.766 0.
-3.99646 -34.0932 0.
-426.873 -798.165 0.
-0.0413397 -98.2348 0.
9.69925 26.0233 0.
31.0675 80.6687 0.
-401.049 -1074.22 0.
-36.0862 -97.2667 0.
-605.498 -1598.72 0.
41.112 112.766 0.
21.3206 57.7482 0.
-14.6606 -40.5715 0.
-741.937 -2023.1 0.
-0.0124561 -59.4473 0.
-0.0177684 -49.6659 0.
-6.49025 -17.9472 0.
5.95798 16.4839 0.
14.7123 40.5241 0.
-269.823 -711.113 0.
4.19494 11.126 0.
1.64139 4.52677 0.
11.7023 32.3358 0.
-1851.62 -4154.76 0.
-0.379434 -12.8285 0.
-0.216277 -5.52693 0.
8.59869e-05 0.0291669 0.
0.0705422 0.532715 0.
-0.0563411 -1.11586 0.
-31.0227 -70.9304 0.
-4.65899 -11.376 0.
-157.409 -427.214 0.
-1505.09 -4031.32 0.
0.288499 0.70958 0.
-1566.42 -2708.2 0.
-22.0765 -58.0604 0.
0.0667112 0.0548301 0.
-1517.66 -3913.33 0.
-12.6475 -7.12721 0.
-23.0743 -17.7851 0.
-1326.1 -3389.72 0.
-20.5145 -24.2183 0.
-969.801 -2276.46 0.
-399.94 -900.814 0.
-11.8766 -13.3049 0.
-832.794 -2137.89 0.
-392.159 -984.221 0.
-19.2208 -24.1454 0.
-585.152 -1472.34 0.
-353.012 -856.929 0.
-137.986 -261.004 0.
-441.362 -1001.66 0.
-393.314 -889.002 0.
-244.339 -312.24 0.
-404.713 -895.884 0.
-510.758 -1171.94 0.
-86.7728 -163.755 0.
-350.27 -893.273 0.
-647.64 -1688.75 0.
-21.1202 -38.2159 0.
-357.884 -937.006 0.
-929.914 -2433.83 0.
-34.7559 -39.5417 0.
-385.557 -822.96 0.
-1031.99 -2363.1 0.
-21.9943 -54.2826 0.
-1468.93 -3575.47 0.
-16.6475 -42.7548 0.
-32.8879 -76.8732 0.
-1685.4 -4546.3 0.
-30.7033 -30.217 0.
-41.658 -52.8241 0.
-1392.86 -2957.11 0.
0.475075 1.25056 0.
-1043.54 -2680.4 0.
-0.0846483 -0.320313 0.
0.0804695 0.331516 0.
0.0275024 0.118599 0.
1.35974 3.20517 0.
-27.4594 -72.5483 0.
-3.29452e-05 -4.19997 0.
2.18205 5.50495 0.
2.40013 6.59435 0.
-665.749 -1695.08 0.
-0.191859 -22.5995 0.
0.497299 1.24671 0.
-373.656 -993.158 0.
-0.0781143 -9.28234 0.
-210.491 -579.38 0.
-0.000361905 -66.2164 0.
-388.328 -1058.13 0.
-33.8759 -93.617 0.
23.8919 65.8581 0.
22.6562 62.2395 0.
-1206.46 -3233.53 0.
-4.03689 -11.0662 0.
-1003.87 -2714.82 0.
43.3977 119.068 0.
-546.861 -1404.22 0.
-16.9551 -44.1128 0.
-0.628675 -118.824 0.
84.784 165.597 0.
18.6739 37.9631 0.
-318.404 -588.925 0.
-0.0116053 -10.8313 0.
47.7222 127.532 0.
-212.547 -551.243 0.
24.9815 67.3427 0.
-121.635 -328.142 0.
-41.7742 -112.196 0.
6.84967 18.8587 0.
8.51725 23.0857 0.
2.4503 6.78372 0.
-550.397 -1497.88 0.
-3.33342 -9.23301 0.
19.7462 54.6657 0.
-60.0231 -166.122 0.
20.3621 56.273 0.
8.04236 22.129 0.
-466.691 -1224.65 0.
9.18333 24.2588 0.
-612.715 -1693.45 0.
2.75431 7.6157 0.
-320.446 -757.635 0.
-0.0927924 -9.41195 0.
-0.0942464 -4.48057 0.
-0.000298187 -2.46047 0.
-1524.78 -3857.96 0.
-0.188548 -4.22079 0.
-1469.98 -2982.2 0.
0.919401 2.13629 0.
0.638593 1.72381 0.
-32.7552 -90.5788 0.
-3.53038e-05 -1.02393 0.
-33.5209 -83.0641 0.
-10.1088 -18.112 0.
-0.136902 -0.113229 0.
-3.03867 -1.60511 0.
-5.29311 -4.09616 0.
-19.1217 -31.8717 0.
-180.959 -336.496 0.
-18.779 -30.5941 0.
-223.884 -449.842 0.
-16.0414 -17.8217 0.
-13.9831 -18.5537 0.
-346.787 -887.066 0.
-15.5401 -21.7022 0.
-14.5618 -23.7754 0.
-355.819 -863.644 0.
-132.658 -240.506 0.
-47.4787 -53.2853 0.
-311.203 -682.503 0.
-264.765 -562.849 0.
-52.0569 -62.3582 0.
-187.4 -377.76 0.
-291.486 -656.473 0.
-23.8968 -43.8886 0.
-61.5321 -125.615 0.
-349.462 -922.069 0.
-19.5008 -38.8838 0.
-20.4468 -35.8733 0.
-333.296 -871.223 0.
-13.2653 -24.0491 0.
-7.71199 -19.0958 0.
-150.817 -328.844 0.
-23.5742 -44.0561 0.
-43.9295 -80.0204 0.
-13.1246 -34.9769 0.
-9.08786 -23.3822 0.
-44.8398 -119 0.
-20.7122 -25.7358 0.
-16.8501 -15.7053 0.
-35.0806 -47.5876 0.
-0.110299 -0.986957 0.
-24.491 -57.3924 0.
-3.5634 -9.68159 0.
-1503.37 -3275.3 0.
3.06391 3.01121 0.
-920.091 -2046.53 0.
-24.2672 -60.9429 0.
-4.52761e-05 -11.0675 0.
2.65237 6.85551 0.
8.43899 23.3091 0.
-9.71895 -25.4171 0.
-377.898 -996.441 0.
10.9775 30.4016 0.
-419.441 -1129.54 0.
18.0727 50.0327 0.
-424.521 -1170.39 0.
-1.77547 -4.91746 0.
-11.1276 -30.8077 0.
-239.588 -662.443 0.
4.29968 11.8622 0.
14.284 39.3564 0.
-46.6511 -127.149 0.
-83.7974 -229.695 0.
-792.673 -2152.85 0.
-17.5923 -48.2574 0.
21.4136 58.5599 0.
16.0109 41.4333 0.
-20.5358 -56.0829 0.
-7.07732 -77.1159 0.
-0.207313 -0.392676 0.
-206.898 -376.716 0.
-0.173928 -22.0827 0.
-6.23096 -16.5621 0.
-352.51 -912.665 0.
42.6738 117.6 0.
-434.926 -1174.56 0.
7.50939 20.7536 0.
29.8942 82.523 0.
-1.72354 -4.77123 0.
-85.458 -236.662 0.
-375.206 -1022.72 0.
10.4782 29.0086 0.
-109.798 -304.08 0.
-896.241 -2481.76 0.
0.0415267 0.114615 0.
-40.5671 -111.776 0.
16.4607 45.5794 0.
-5.16911 -13.5995 0.
-0.683637 -1.88747 0.
-0.0147679 -28.8356 0.
-38.949 -97.1008 0.
0.0259781 8.09618 0.
-986.54 -2083.1 0.
-0.364518 -12.7232 0.
-13.0436 -34.372 0.
0.0456706 0.123468 0.
0.0251995 0.142829 0.
0.926481 2.18785 0.
1.45444 3.88804 0.
-3.73339 -10.0674 0.
0.364558 0.916236 0.
-36.9277 -72.4015 0.
-15.3719 -12.741 0.
0.168847 0.164608 0.
-0.084767 -0.112553 0.
-2.05697 -3.64251 0.
-19.5584 -41.6563 0.
-10.8587 -27.6536 0.
-23.5292 -43.6505 0.
-38.9897 -34.5051 0.
-30.4535 -22.3151 0.
-21.7445 -20.2461 0.
-15.1837 -22.2519 0.
-14.2359 -20.3097 0.
-12.7548 -21.431 0.
-160.762 -255.318 0.
-62.1214 -54.7542 0.
-57.7413 -55.3724 0.
-112.756 -163.514 0.
-99.0953 -128.281 0.
-36.0916 -53.3922 0.
-48.5065 -50.4276 0.
-112.397 -197.429 0.
-33.0184 -40.3286 0.
-32.8743 -38.9342 0.
-78.1878 -140.146 0.
-25.893 -41.5618 0.
-27.2007 -38.707 0.
-33.8789 -42.774 0.
-0.161762 -0.44539 0.
-3.81606 -9.54946 0.
-19.8552 -49.7282 0.
-43.2906 -38.5024 0.
-57.1526 -71.0222 0.
-10.8982 -28.7126 0.
-8.09429 -19.7249 0.
-12.4445 -32.9802 0.
-14.056 -27.6498 0.
-7.85549 -11.6359 0.
-27.8034 -47.1303 0.
-13.8926 -25.0386 0.
-61.2806 -119.183 0.
0.46736 1.15593 0.
1.19083 0.20674 0.
0.0208345 7.63944 0.
0.102495 7.11985 0.
-171.857 -359.369 0.
-1070.53 -2695.05 0.
-0.1181 -4.97678 0.
3.82638 10.5912 0.
-0.079956 -33.123 0.
-401.076 -1073.64 0.
6.13746 16.9744 0.
-376.218 -1022.5 0.
14.5366 40.2206 0.
-411.408 -1135.74 0.
-10.4379 -28.9008 0.
-196.202 -542.7 0.
-404.338 -1118.46 0.
-304.384 -841.862 0.
-4.99457 -13.7923 0.
-0.0037664 -88.3313 0.
-584.166 -1601.44 0.
24.4854 67.7241 0.
41.0357 112.487 0.
6.54628 17.92 0.
-177.744 -457.005 0.
-24.7343 -67.4001 0.
11.6389 25.6885 0.
-14.2835 -55.4241 0.
-87.2588 -155.656 0.
-0.989798 -47.0923 0.
-359.454 -948.684 0.
-113.237 -292.517 0.
-15.8375 -43.6241 0.
-347.736 -942.6 0.
-2.1145 -5.84167 0.
-1.25772 -3.47815 0.
30.2896 83.8596 0.
-216.34 -599.209 0.
12.3495 33.6531 0.
26.4713 73.1789 0.
-190.272 -526.851 0.
-0.111213 -64.2951 0.
-11.588 -31.9553 0.
-330.356 -911.473 0.
12.8226 35.4937 0.
-323.579 -852.466 0.
3.42243 9.28955 0.
7.81956 21.6406 0.
6.31267 16.2552 0.
-571.392 -1498.53 0.
1.01257 2.23681 0.
-0.147184 -6.99668 0.
-12.0397 -32.9062 0.
0.276597 0.76595 0.
-0.0402152 -3.95854 0.
-1235.95 -2771.33 0.
-0.00536924 -0.0781858 0.
-1188.52 -2676.46 0.
-0.924279 -2.38036 0.
-1273.98 -2648.72 0.
-45.6661 -99.5665 0.
-16.7865 -42.8875 0.
-1415.41 -3736.67 0.
-31.2505 -86.2781 0.
-17.2427 -46.3238 0.
-1264.72 -3060.81 0.
-8.88035 -8.15068 0.
-1028.47 -2402.02 0.
-336.613 -729.575 0.
-35.0808 -32.9335 0.
-1012.78 -2650.5 0.
-238.246 -598.253 0.
-8.95194 -21.9569 0.
-731.482 -1893.11 0.
-348.462 -849.501 0.
-41.9769 -58.5732 0.
-538.855 -1328.57 0.
-441.579 -1075 0.
-98.8083 -223.213 0.
-352.188 -916.972 0.
-568.836 -1514.33 0.
-39.537 -55.8639 0.
-321.372 -808.374 0.
-824.601 -2127.23 0.
-34.5497 -57.8447 0.
-229.302 -578.133 0.
-1118.35 -2989.02 0.
-19.6309 -51.6522 0.
-304.348 -668.997 0.
-1021.66 -2342.44 0.
-28.3759 -41.49 0.
-1355.57 -3449.27 0.
0.0276812 0.00400539 0.
0.158264 0.229437 0.
-1095.62 -2694.62 0.
-18.6669 -42.3593 0.
-1650.59 -3874.71 0.
-13.7804 -28.8975 0.
-19.3496 -51.9223 0.
-1239.24 -2741.71 0.
-230.645 -357.918 0.
0.992004 0.690434 0.
-0.0794295 -1.55576 0.
0.009722 2.54436 0.
9.84252 27.255 0.
-74.6596 -199.217 0.
-134.761 -370.662 0.
6.08112 16.8425 0.
5.21782 14.4311 0.
-287.282 -777.596 0.
-21.5925 -59.7939 0.
-311.866 -853.292 0.
8.72338 24.1168 0.
18.093 49.8851 0.
-2.56094 -7.08688 0.
-133.789 -370.082 0.
17.5623 48.4904 0.
-125.392 -346.753 0.
-191.06 -528.452 0.
-0.366931 -1.01615 0.
-755.541 -2086.84 0.
20.075 55.5479 0.
-1089.18 -2980.02 0.
21.675 59.3799 0.
-6.22971 -16.8293 0.
-14.9843 -40.7006 0.
60.7668 129.834 0.
-338.826 -560.291 0.
24.1379 41.9137 0.
4.65068 11.7638 0.
-167.965 -439.299 0.
-0.712619 -123.467 0.
14.3356 39.4551 0.
-229.308 -620.759 0.
-48.2755 -133.316 0.
-956.612 -2648.76 0.
16.9867 47.0334 0.
-520.253 -1440.99 0.
4.94188 13.4645 0.
-18.4593 -50.9034 0.
-348.329 -964.196 0.
23.998 66.1313 0.
13.1445 36.2109 0.
-504.095 -1392.41 0.
9.27824 25.6721 0.
-468.897 -1254.37 0.
16.4447 45.1067 0.
-0.0042045 -18.4833 0.
-221.615 -610.936 0.
-317.218 -858.626 0.
-0.0112349 -26.9969 0.
-0.327771 -19.1006 0.
-0.456392 -18.1569 0.
-1378.97 -3475.76 0.
-2.67678e-07 -4.02842 0.
-17.4015 -41.552 0.
0.042473 1.16214 0.
-9.06275 -22.8452 0.
0.313298 0.805716 0.
-0.135713 -0.35645 0.
-0.0546646 -1.35195 0.
-0.000897541 -0.871096 0.
-52.2638 -133.747 0.
-34.3187 -79.7494 0.
-18.583 -35.2769 0.
-18.6599 -31.8792 0.
-2.39613 -0.880427 0.
-64.2666 -85.7152 0.
-22.35 -18.8501 0.
-27.983 -29.4646 0.
-187.804 -455.364 0.
-24.0389 -30.1431 0.
-18.1151 -28.6769 0.
-292.271 -707.007 0.
-28.3668 -44.9635 0.
-38.0977 -66.3038 0.
-275.92 -601.171 0.
-204 -392.697 0.
-27.8203 -57.4242 0.
-65.7361 -139.091 0.
-248.019 -655.784 0.
-33.1849 -43.7343 0.
-30.5989 -37.5048 0.
-209.008 -452.495 0.
-31.0752 -53.1049 0.
-38.4476 -71.2854 0.
-207.166 -535.584 0.
-23.1292 -58.7979 0.
-28.997 -67.3369 0.
-37.4342 -87.0326 0.
-16.594 -39.9562 0.
-32.0334 -60.5381 0.
0.0798912 0.202454 0.
0.171766 0.412922 0.
-2.68031 -5.50093 0.
-16.2249 -43.3203 0.
-22.3506 -60.442 0.
-0.0810101 -1.46541 0.
-0.0199704 -1.56747 0.
-19.6786 -50.7357 0.
2.04746 4.80358 0.
-1332.76 -2502.59 0.
-0.199124 -17.7589 0.
-803.524 -2129.17 0.
9.73253 26.7003 0.
-63.6774 -174.649 0.
-0.764478 -2.10053 0.
-757.417 -2035.34 0.
-0.00102104 -36.045 0.
-82.6175 -225.424 0.
-24.1268 -66.8262 0.
5.17423 14.005 0.
-40.2945 -111.279 0.
-90.5136 -250.146 0.
-165.331 -457.127 0.
-24.7297 -68.4056 0.
16.5006 45.5444 0.
-435.047 -1202.75 0.
-572.711 -1585.64 0.
-5.74132 -15.8979 0.
-319.609 -883.486 0.
-23.6342 -65.4172 0.
27.1775 74.2572 0.
-54.0849 -148.253 0.
45.9797 123.887 0.
26.894 72.7234 0.
-707.561 -1459.98 0.
-23.576 -118.624 0.
-1209.93 -2375.27 0.
-1.11917 -88.6774 0.
-0.194598 -60.8174 0.
-5.99624 -16.3304 0.
-257.752 -708.605 0.
45.0747 124.526 0.
-335.693 -926.668 0.
-0.268123 -95.9732 0.
-619.555 -1715.6 0.
20.4102 55.5856 0.
-84.4452 -230.037 0.
-25.6043 -70.4371 0.
-453.726 -1255.35 0.
-4.88586 -13.4489 0.
-15.8335 -43.5677 0.
-0.579857 -61.7025 0.
-3.15431 -8.73674 0.
-591.37 -1600.51 0.
-0.0713395 -46.5305 0.
-576.221 -1583.95 0.
-53.3635 -146.837 0.
-129.696 -356.651 0.
-0.0530911 -12.4903 0.
-1002.8 -2613.95 0.
-0.360859 -30.0969 0.
-24.706 -64.7587 0.
3.89079 10.7322 0.
2.0529 5.13919 0.
-0.114269 -6.40207 0.
-0.0727692 -1.64097 0.
0.359755 0.92386 0.
-62.9004 -171.362 0.
-1367.76 -3591.39 0.
0.0039991 1.3269 0.
-812.489 -1568.72 0.
-31.0552 -59.0179 0.
-59.8738 -163.749 0.
-1143.89 -3045.58 0.
-20.816 -44.8007 0.
-912.438 -1973.34 0.
-237.425 -430.501 0.
-19.0659 -12.2183 0.
-1044.18 -2782.95 0.
-115.03 -250.127 0.
-24.4397 -26.7369 0.
-848.199 -2186.25 0.
-300.206 -741.002 0.
-15.0312 -14.4244 0.
-615.115 -1529.37 0.
-507.448 -1236.57 0.
-38.4791 -69.517 0.
-360.841 -960.96 0.
-691.799 -1868.84 0.
-38.9306 -36.1099 0.
-242.663 -582.773 0.
-948.144 -2469.93 0.
-36.2518 -75.7109 0.
-25.7645 -54.346 0.
-958.122 -2484.06 0.
-48.0963 -100.992 0.
-1220.43 -2715.29 0.
-0.0165029 -0.120326 0.
-2.87382 -7.59596 0.
-1167.51 -3128.36 0.
-11.0442 -28.3163 0.
-5.36912 -13.6216 0.
-1071.48 -2742.03 0.
-119.974 -189.203 0.
-22.2934 -61.0773 0.
0.00703591 0.415713 0.
-5.30967e-05 -0.949423 0.
-41.0745 -106.235 0.
-0.0858416 -5.70306 0.
0.437453 1.00264 0.
8.21784 22.6163 0.
-48.9247 -132.265 0.
-1.67871 -4.64736 0.
-139.018 -384.772 0.
10.2317 28.0785 0.
-66.6525 -178.807 0.
-53.4847 -146.381 0.
-104.475 -286.74 0.
-24.2466 -67.1556 0.
3.96871 10.9093 0.
-312.642 -862.332 0.
-83.3862 -230.483 0.
-323.256 -892.697 0.
-117.386 -324.689 0.
13.2261 36.247 0.
-68.9521 -190.583 0.
27.9995 77.2872 0.
-42.9715 -118.975 0.
0.277005 0.759789 0.
-8.45298 -23.4032 0.
-13.5357 -37.4915 0.
-157.003 -430.569 0.
20.281 54.4807 0.
33.1469 91.6535 0.
-0.12647 -58.004 0.
21.3383 49.003 0.
26.0727 70.3982 0.
-1.18456 -50.3135 0.
15.146 41.2576 0.
-22.0605 -59.8477 0.
-108.908 -298.972 0.
-74.7494 -206.763 0.
-730.716 -2016.47 0.
-17.6194 -48.4361 0.
-252.334 -698.752 0.
-66.9603 -184.487 0.
-282.691 -769.953 0.
-55.296 -152.199 0.
-234.625 -645.507 0.
-29.9992 -82.4293 0.
-290.058 -797.033 0.
13.7945 37.2855 0.
-31.5281 -87.3256 0.
-0.355297 -0.976935 0.
-88.9307 -244.329 0.
10.4745 28.737 0.
13.3937 36.7709 0.
-57.952 -160.363 0.
-0.0279909 -34.1822 0.
-214.413 -569.436 0.
-0.0579054 -12.1428 0.
3.95639 10.6794 0.
-0.0506296 -11.6279 0.
2.73402 7.08666 0.
2.68734 6.67418 0.
-1120.82 -2863.63 0.
-49.521 -136.85 0.
0.68844 1.75102 0.
-95.096 -259.849 0.
-0.0191036 -0.603386 0.
0.0380224 0.158555 0.
-0.000168528 -0.0021648 0.
-13.0221 -36.0515 0.
-37.7305 -87.9867 0.
-5.75911 -15.5409 0.
-38.843 -60.1416 0.
-22.6368 -18.4726 0.
-20.6607 -13.14 0.
-190.894 -447.165 0.
-25.7689 -17.2123 0.
-23.8602 -27.0479 0.
-92.4377 -176.448 0.
-19.4095 -17.6164 0.
-12.7119 -13.065 0.
-96.3317 -126.333 0.
-45.5195 -39.8974 0.
-13.7464 -30.2726 0.
-18.875 -32.8316 0.
-83.9168 -173.158 0.
-20.6967 -30.5399 0.
-28.9751 -37.9518 0.
-83.8485 -144.251 0.
-23.3985 -45.8698 0.
-20.448 -26.7609 0.
-19.6253 -22.687 0.
-9.49507 -13.5584 0.
-228.076 -517.161 0.
-4.30171 -8.88247 0.
-6.71913 -16.2362 0.
-9.11752 -24.1027 0.
-13.1479 -35.1382 0.
-5.02023 -13.5747 0.
-58.3571 -154.509 0.
0.770944 2.12935 0.
-1041.64 -2150.59 0.
-0.0872043 -1.46177 0.
-1468.46 -2676.29 0.
-0.0817677 -4.77813 0.
-585.497 -1497.52 0.
4.93723 12.3814 0.
8.3238 23.0539 0.
-49.1929 -135.006 0.
7.77103 21.4949 0.
-472.682 -1282.61 0.
-0.162733 -36.7665 0.
-1.58071 -4.23564 0.
-124.16 -341.565 0.
1.31925 3.64901 0.
-94.948 -262.912 0.
-20.634 -56.6923 0.
-148.7 -409.525 0.
-110.699 -306.018 0.
7.46133 20.6268 0.
-417.109 -1153.69 0.
-8.38851 -22.9835 0.
-55.463 -153.251 0.
19.5216 53.8588 0.
-745.465 -2063.6 0.
28.0422 76.872 0.
20.8758 57.8092 0.
42.6582 118.155 0.
-349.623 -959.173 0.
-220.323 -589.822 0.
-57.8084 -158.626 0.
6.66239e-05 1.23485 0.
-19.5306 -43.2709 0.
33.1588 86.8059 0.
7.07629 17.9874 0.
-11.625 -31.2485 0.
-903.613 -2436.15 0.
-16.6828 -45.7602 0.
-118.783 -327.465 0.
-225.148 -620.941 0.
25.4329 69.8619 0.
-350.078 -969.443 0.
7.78688 21.4533 0.
-477.255 -1299.68 0.
-191.126 -526.322 0.
24.1203 66.3937 0.
-67.4729 -185.203 0.
-278.163 -763.079 0.
16.2476 44.2428 0.
-35.2831 -97.7105 0.
19.5168 53.5927 0.
-124.773 -343.826 0.
-0.00264707 -43.4142 0.
-6.48334 -17.751 0.
-547.312 -1515.91 0.
-0.0373951 -42.635 0.
-62.3165 -168.188 0.
1.68232 4.64502 0.
1.20833 3.30348 0.
5.63728 15.2177 0.
-940.374 -2153.11 0.
5.00477 13.0393 0.
-69.8779 -190.498 0.
-0.180112 -0.495611 0.
-0.249709 -4.5138 0.
0.374738 0.909332 0.
0.0547564 0.661949 0.
-0.00380599 -0.0180554 0.
-0.00830193 -0.101552 0.
-0.00863557 -0.502212 0.
-28.6577 -58.7184 0.
-2.85999 -7.84394 0.
-0.00795764 -0.280315 0.
-23.9642 -16.4462 0.
-45.5675 -25.5278 0.
-32.5865 -17.4075 0.
-34.1741 -19.5813 0.
-39.0498 -33.8289 0.
-20.751 -26.5455 0.
-22.6422 -18.1892 0.
-18.9725 -15.4842 0.
-29.8308 -22.2383 0.
-30.3888 -33.442 0.
-23.3654 -31.4581 0.
-27.0944 -33.9615 0.
-45.497 -38.1548 0.
-15.1109 -25.6085 0.
-22.2989 -35.0042 0.
-39.7494 -51.5869 0.
-16.6774 -34.3356 0.
-19.5183 -28.04 0.
-25.3541 -23.3998 0.
-33.6069 -22.8845 0.
-36.9344 -34.0919 0.
-10.231 -22.7584 0.
-12.7706 -28.6239 0.
-14.7403 -35.4002 0.
-16.2303 -44.2417 0.
-6.22589 -17.2102 0.
-28.2871 -59.0674 0.
-0.000100573 -0.664888 0.
0.08968 1.41796 0.
2.82252 7.6141 0.
-74.5799 -170.921 0.
4.9562 13.661 0.
-0.260278 -18.9547 0.
-53.103 -147.063 0.
-0.0217256 -20.6758 0.
-92.5037 -255.728 0.
12.7439 35.2099 0.
0.0153601 0.0421442 0.
-436.752 -1174.6 0.
-0.127539 -53.1832 0.
-171.366 -473.041 0.
2.41301 6.668 0.
-340.107 -941.341 0.
1.12676 3.09426 0.
-37.4014 -102.785 0.
-704.375 -1947.56 0.
-2.08776 -5.76799 0.
12.472 34.4902 0.
13.5857 37.2171 0.
-248.518 -687.195 0.
18.0901 49.8852 0.
-531.537 -1471.24 0.
-24.3328 -66.6795 0.
-62.6011 -173.377 0.
-3.85452 -10.6754 0.
26.8234 74.1976 0.
-625.646 -1667.96 0.
-10.9614 -29.6218 0.
-0.203632 -60.1017 0.
-10.6163 -22.4482 0.
-3.09114 -72.7118 0.
4.90461 13.4027 0.
15.2705 40.3055 0.
24.8029 68.6997 0.
23.9023 65.7985 0.
-159.299 -438.934 0.
24.5044 67.1741 0.
-350.006 -960.322 0.
1.05421 2.88849 0.
-0.874323 -2.40896 0.
-11.5608 -31.4182 0.
-158.555 -436.842 0.
-18.3886 -50.643 0.
-120.264 -329.726 0.
-162.932 -446.09 0.
10.3572 28.1627 0.
-413.991 -1146.18 0.
13.0595 36.0258 0.
-152.958 -422.444 0.
-2.93902 -8.13339 0.
-362.854 -990.5 0.
0.17625 0.485755 0.
-3.869 -10.6924 0.
0.553065 1.51699 0.
-246.188 -672.327 0.
-972.8 -2530.06 0.
10.7013 29.2348 0.
5.63529 13.645 0.
6.65513 17.7721 0.
5.61958 15.5497 0.
0.291822 0.78898 0.
1.4216 3.6781 0.
-846.424 -2039.27 0.
0.440411 1.21586 0.
-955.021 -1907.74 0.
-35.071 -95.7488 0.
0.206892 0.571957 0.
-1095.31 -3002.06 0.
-6.08467 -12.5602 0.
-3.70831 -5.15622 0.
-1258.64 -2661.58 0.
-23.0689 -9.1284 0.
-828.43 -2182.14 0.
-10.3551 -7.54661 0.
-30.6533 -16.1134 0.
-882.385 -2315.92 0.
-127.071 -285.483 0.
-18.0862 -25.9733 0.
-604.261 -1562.56 0.
-428.833 -1129.09 0.
-40.1893 -25.9309 0.
-256.4 -624.926 0.
-797.424 -2110.4 0.
-41.2707 -35.6672 0.
-60.2867 -97.4252 0.
-956.632 -2485.98 0.
-31.1596 -33.9632 0.
-26.072 -20.0747 0.
-1107.39 -2399.07 0.
-34.0963 -28.0066 0.
-1151.77 -2705.12 0.
-0.0012796 -0.772773 0.
-12.2338 -32.0943 0.
-1169.78 -2873.43 0.
-71.4149 -130.668 0.
-86.6089 -130.115 0.
-1260.28 -2576.03 0.
1.72346 4.23406 0.
-858.766 -1997 0.
-0.0140189 -10.7086 0.
4.51096 11.4092 0.
-0.00989081 -21.3778 0.
4.4005 12.0783 0.
-0.000493313 -24.299 0.
-627.306 -1717.66 0.
11.6164 31.9013 0.
-0.0620981 -38.3203 0.
6.41751 17.6996 0.
-247.77 -672.794 0.
0.0288016 0.0796162 0.
-215.003 -594.733 0.
3.51606 9.70458 0.
-40.7702 -112.579 0.
-257.644 -707.083 0.
15.0572 41.4849 0.
-23.9817 -66.3075 0.
7.35127 20.297 0.
2.32583 6.36383 0.
-38.3771 -105.127 0.
-5.36308 -14.6237 0.
-327.008 -901.286 0.
15.3078 42.0244 0.
-431.466 -1182.27 0.
38.8425 105.241 0.
-701.311 -1941.5 0.
-17.8177 -49.3124 0.
-11.697 -32.08 0.
-17.2268 -46.3609 0.
40.2475 108.56 0.
-86.1016 -171.107 0.
20.6556 49.6268 0.
-1.17402 -89.5423 0.
7.91404 21.5047 0.
-20.8393 -57.7045 0.
-29.6357 -81.8282 0.
-0.980997 -89.2023 0.
32.9145 90.3124 0.
22.4482 61.5489 0.
19.1742 52.5516 0.
-3.23232 -8.90723 0.
10.2437 27.7886 0.
-97.9425 -269.973 0.
-0.341247 -72.4385 0.
-617.248 -1690.05 0.
-1.5983 -4.32843 0.
-16.4748 -44.7305 0.
-10.9984 -30.4301 0.
13.5062 37.2041 0.
-205.985 -569.797 0.
-0.0297147 -35.0465 0.
-259.217 -709.67 0.
4.45741 12.3035 0.
-0.0461056 -46.8253 0.
-47.5835 -131.654 0.
-30.2862 -83.3686 0.
-0.00258286 -28.7413 0.
6.437 17.7035 0.
-0.00664814 -3.52234 0.
-634.326 -1588.15 0.
-0.5487 -20.1134 0.
-1096.3 -2607.94 0.
-0.0265077 -4.4341 0.
1.13474 2.83762 0.
-2.50129e-06 -0.122601 0.
-26.688 -73.8601 0.
0.360608 0.998579 0.
-0.00072629 -0.336598 0.
-44.9742 -86.1978 0.
-0.143775 -0.295359 0.
0.176081 0.343994 0.
-44.7309 -43.4016 0.
-6.25219 -2.90529 0.
-31.65 -49.7111 0.
-2.076 -1.92248 0.
-12.0726 -11.1747 0.
-23.4996 -17.6919 0.
-22.7563 -22.8754 0.
-26.3364 -32.8144 0.
-21.1559 -20.7778 0.
-21.7797 -21.4916 0.
-39.3155 -25.0588 0.
-45.1292 -35.3917 0.
-55.501 -63.3079 0.
-22.3351 -26.6286 0.
-36.8938 -22.1294 0.
-46.4346 -41.903 0.
-4.90118 -6.13704 0.
-17.03 -15.2067 0.
-32.3658 -30.2508 0.
-28.208 -27.3938 0.
-34.317 -40.2832 0.
9.49281e-06 0.101925 0.
0.0141326 0.724142 0.
-11.8561 -30.0633 0.
0.0307537 0.2574 0.
-0.303279 -1.27083 0.
0.0109104 4.51136 0.
3.07757 8.23775 0.
1.35918 3.37233 0.
-0.0921151 -15.8781 0.
-901.985 -2287.84 0.
-0.108271 -0.29945 0.
-1.77013 -4.89961 0.
-2.92952e-07 -28.7037 0.
-202.7 -555.566 0.
-0.039416 -23.9396 0.
-316.643 -868.307 0.
0.727856 2.01326 0.
-165.602 -452.81 0.
-10.1295 -27.9707 0.
-97.7923 -270.8 0.
-78.7074 -216.924 0.
-161.882 -446.451 0.
-154.708 -424.358 0.
-6.98442 -19.225 0.
20.7955 56.9513 0.
6.14417 16.9539 0.
-12.3131 -33.6534 0.
-171.233 -469.072 0.
9.86916 26.8912 0.
-190.991 -526.203 0.
31.3825 86.0158 0.
-288.518 -790.51 0.
23.7914 64.4675 0.
21.9139 60.4901 0.
-345.805 -957.474 0.
1.7885 4.93831 0.
-0.300079 -0.830229 0.
-7.47695 -19.6481 0.
-189.132 -345.365 0.
-13.3113 -33.2525 0.
-0.290641 -63.0024 0.
1.04868 2.90179 0.
-2.42302 -6.7035 0.
-302.212 -836.267 0.
-0.849696 -83.1878 0.
-156.147 -428.912 0.
25.6823 67.4135 0.
-387.792 -1063.34 0.
-2.20855 -6.05154 0.
-128.261 -347.31 0.
2.38483 6.57657 0.
-42.5516 -116.492 0.
-211.609 -578.61 0.
-8.18711 -22.1537 0.
-395.364 -1071.32 0.
18.6266 51.187 0.
3.57556 9.83263 0.
-245.692 -680.273 0.
1.04731 2.89135 0.
-186.311 -511.312 0.
-0.0428953 -44.8654 0.
-346.471 -958.74 0.
-40.4443 -111.924 0.
-49.9227 -138.049 0.
-0.0113942 -34.5567 0.
-0.0523864 -35.6235 0.
7.16557 19.8151 0.
-97.118 -251.651 0.
3.91385 10.4978 0.
-0.326266 -11.2163 0.
5.94085 16.4303 0.
-0.149218 -6.14165 0.
3.08378 8.53867 0.
-2.30612 -6.36814 0.
-0.0406705 -0.111406 0.
-154.983 -352.687 0.
-593.474 -1612.9 0.
-10.354 -28.6626 0.
-0.0113606 -0.144753 0.
-814.64 -2148.47 0.
-26.7959 -18.1353 0.
-855.374 -1881.47 0.
-6.18089 -13.8964 0.
-13.2252 -15.2263 0.
-825.167 -2148.54 0.
-34.0506 -38.5051 0.
-39.3002 -53.6074 0.
-545.476 -1431.65 0.
-372.613 -971.929 0.
-45.2869 -48.7361 0.
-151.981 -344.996 0.
-745.073 -1980.61 0.
-5.86737 -4.53144 0.
-25.2791 -12.0447 0.
-942.313 -2350.22 0.
-14.8509 -5.41746 0.
-5.16076 -10.2108 0.
-928.096 -1813.76 0.
-17.4854 -36.4818 0.
-879.762 -2325.86 0.
-0.00263058 -0.0911338 0.
-1.21166 -2.73536 0.
-647.831 -1670.34 0.
0.00835835 0.145736 0.
0.188817 1.36499 0.
-0.107993 -10.2514 0.
-0.0151262 -7.70863 0.
3.36206 8.83633 0.
2.43778 6.74392 0.
1.15877 3.09969 0.
-0.657243 -1.81993 0.
-501.35 -1367.62 0.
13.5398 37.5004 0.
11.8844 32.5812 0.
14.8702 41.1362 0.
-162.546 -447.716 0.
5.46218 15.1287 0.
-169.8 -466.655 0.
2.8657 7.90261 0.
-509.684 -1406.97 0.
-449.316 -1236.19 0.
-13.9569 -38.0043 0.
9.01461 24.4148 0.
-6.48244 -17.8252 0.
4.6288 12.6607 0.
-348.696 -961.885 0.
26.8357 73.2641 0.
-138.676 -379.965 0.
-36.6939 -99.9131 0.
-7.44314 -20.1145 0.
-3.22597 -8.82601 0.
16.028 42.9657 0.
-3.03626 -8.22984 0.
32.2976 88.82 0.
-337.209 -933.92 0.
-16.7058 -46.1753 0.
-10.8447 -29.9572 0.
26.556 73.1286 0.
9.60235 26.5853 0.
-593.6 -1468.73 0.
-11.4009 -30.9873 0.
20.9598 58.0456 0.
-185.655 -512.8 0.
11.6175 31.6775 0.
2.65875 7.20276 0.
-112.05 -308.144 0.
14.3833 37.8516 0.
-406.783 -1115.84 0.
15.88 43.5301 0.
-567.032 -1532.63 0.
13.9376 38.0516 0.
-209.952 -574.588 0.
22.9012 61.8686 0.
-5.7833 -15.6359 0.
-198.798 -537.929 0.
-52.4118 -140.353 0.
-15.4348 -42.363 0.
-374.903 -1033.72 0.
-5.84088 -16.1033 0.
-331.503 -911.676 0.
-0.0293797 -50.3746 0.
-158.694 -439.221 0.
-24.9021 -68.9262 0.
-112.271 -310.963 0.
-0.0655888 -37.0421 0.
-692.259 -1906.02 0.
11.8075 32.6901 0.
-36.1821 -96.1053 0.
-0.132447 -22.7742 0.
1.52053 4.05726 0.
-1.1819 -3.16343 0.
-766.082 -1837.37 0.
-1.7368 -4.35742 0.
-0.0941674 -5.32544 0.
-1013.73 -2480.67 0.
1.61103 4.46225 0.
-3.14704 -8.697 0.
-0.0121248 -0.969434 0.
-0.0300266 -0.670981 0.
-21.6347 -29.6863 0.
-10.4244 -10.1335 0.
-15.1683 -32.4976 0.
-5.74736 -7.07973 0.
-0.261207 -0.0982924 0.
-6.70581 -2.42323 0.
-13.0014 -6.8131 0.
-23.1889 -31.5777 0.
-35.0234 -30.9597 0.
-33.7735 -28.4411 0.
-21.5242 -14.2772 0.
-13.2713 -8.65263 0.
-19.3045 -14.2766 0.
-4.17574 -3.86225 0.
-16.8099 -8.15079 0.
-57.5379 -45.9135 0.
-25.4207 -9.21332 0.
-14.6421 -14.4155 0.
-18.1492 -24.8138 0.
-0.297731 -0.823001 0.
-37.4115 -99.3202 0.
0.908933 2.51759 0.
-0.0127517 -0.0332744 0.
-0.528098 -1.26743 0.
1.73967 3.91293 0.
-949.854 -1969.62 0.
-0.0824006 -15.8679 0.
-796.196 -1958.37 0.
-0.309368 -16.6063 0.
6.78757 18.7893 0.
2.98939 8.15252 0.
4.84727 13.4261 0.
-4.23689 -11.6109 0.
-2.00508 -5.53839 0.
-1.19258 -3.26649 0.
-3.04571 -8.43529 0.
-182.575 -504.403 0.
-9.17864 -25.4232 0.
9.90222 27.232 0.
12.7054 34.9829 0.
-23.258 -63.0684 0.
-69.8297 -191.753 0.
-37.1285 -101.114 0.
23.812 64.5049 0.
-402.82 -1106.29 0.
1.17492 3.20936 0.
8.80759 23.8992 0.
-85.818 -234.083 0.
-4.76625 -12.7177 0.
-736.503 -2004.12 0.
7.1653 19.3513 0.
-207.935 -567.691 0.
-38.897 -104.689 0.
-43.1877 -117.113 0.
-184.569 -508.043 0.
-18.5469 -50.9768 0.
-54.1124 -149.698 0.
26.1177 71.9728 0.
-56.1288 -153.409 0.
-0.153103 -85.5385 0.
-1.3018 -3.55702 0.
17.9836 48.3746 0.
-24.3374 -67.4061 0.
-13.0841 -35.0367 0.
6.50237 17.7473 0.
-84.2408 -228.753 0.
-2.79268 -93.0402 0.
-54.5877 -144.083 0.
-0.572605 -73.183 0.
11.8384 32.468 0.
-27.5105 -74.19 0.
18.4842 50.4424 0.
-441.078 -1206.88 0.
-1.01901 -2.75054 0.
-292.725 -790.542 0.
-34.4452 -92.1181 0.
-53.7461 -143.945 0.
-197.458 -540.72 0.
-7.41344 -19.9907 0.
9.81073 27.0049 0.
-0.132641 -49.0073 0.
5.448 15.0807 0.
-186.303 -515.722 0.
-15.3558 -42.5098 0.
-259.611 -718.556 0.
0.45141 1.24679 0.
-66.3087 -182.907 0.
15.183 42.0534 0.
-80.4264 -217.245 0.
-244.358 -660.699 0.
-593.695 -1543.08 0.
-0.136483 -19.273 0.
6.49333 17.9759 0.
2.75826 7.11906 0.
3.03461 8.20677 0.
1.6339 4.43314 0.
-0.0250671 -2.3104 0.
-0.000706354 -0.677121 0.
0.436199 1.1925 0.
0.00924836 0.395948 0.
-0.811131 -2.22787 0.
-0.0138458 -0.206031 0.
-16.2138 -24.5775 0.
-4.18285 -1.57258 0.
-0.712168 -0.257208 0.
2.47025e-06 0.271512 0.
-6.77671 -8.12321 0.
-19.5629 -29.9247 0.
-25.3413 -27.4032 0.
-29.4307 -20.5764 0.
-8.67018 -8.47489 0.
-2.57592 -2.95206 0.
-4.36378 -4.66073 0.
-5.05861 -4.38327 0.
-15.7605 -7.48027 0.
-60.711 -31.9829 0.
-36.8776 -14.4761 0.
-24.4484 -18.7388 0.
-27.5651 -29.0445 0.
0.00679328 0.264644 0.
-8.83213 -24.2493 0.
0.00991624 1.3554 0.
1.1224 3.08193 0.
0.430205 1.12182 0.
-0.3866 -5.94254 0.
-1.17984 -8.24806 0.
0.000735353 2.38069 0.
-0.255564 -13.919 0.
-0.0388678 -0.106433 0.
-439.669 -1185.06 0.
-1.18689 -3.2868 0.
10.3386 28.6306 0.
-0.00957202 -24.5265 0.
-14.1572 -39.1942 0.
-209.734 -580.731 0.
2.80016 7.75448 0.
-0.024066 -50.772 0.
-3.51936 -9.74782 0.
4.93533 13.4522 0.
-75.6559 -207.939 0.
-45.5635 -123.59 0.
11.5044 31.1231 0.
-181.211 -493.53 0.
8.13268 22.0361 0.
17.7777 47.9674 0.
-27.9271 -76.1767 0.
-14.898 -40.4923 0.
-264.444 -715.172 0.
24.6507 65.9213 0.
-148.777 -404.58 0.
-45.8811 -123.841 0.
-1.50148 -73.8754 0.
-105.819 -286.622 0.
-5.55943 -14.6127 0.
-252.464 -695.518 0.
-71.1423 -194.762 0.
-0.752359 -86.8699 0.
-479.808 -1317.14 0.
23.0806 63.9166 0.
-10.7775 -29.4869 0.
-11.5351 -31.1989 0.
-223.403 -593.294 0.
-16.8262 -46.2561 0.
-10.9423 -29.3451 0.
-377.152 -1030.85 0.
29.5283 75.652 0.
-0.866839 -2.24979 0.
-371.895 -985.017 0.
28.7362 78.2019 0.
-346.073 -949.338 0.
26.8695 71.2265 0.
24.2096 66.038 0.
17.4388 46.9553 0.
-33.1231 -89.3261 0.
-164.048 -442.676 0.
-72.6545 -194.318 0.
-501.339 -1341.42 0.
5.33907 14.4463 0.
20.1956 54.3949 0.
-81.1484 -222.977 0.
17.2921 47.2985 0.
-6.71645 -18.5933 0.
-6.10335 -16.9052 0.
-123.767 -342.672 0.
-107.597 -297.926 0.
-37.0121 -102.101 0.
14.3232 39.295 0.
8.18223 22.6608 0.
3.13924 8.69393 0.
-143.34 -392.415 0.
-0.0042358 -15.3981 0.
-0.085146 -26.8288 0.
8.78932 24.258 0.
4.84302 12.7475 0.
-0.00410733 -0.70006 0.
-563.965 -1519.75 0.
2.79423 7.72324 0.
-728.637 -1626.7 0.
0.15565 0.361232 0.
0.749434 2.04134 0.
-766.036 -1933.66 0.
-13.1902 -36.389 0.
-655.758 -1421.38 0.
-22.8561 -53.6183 0.
-12.791 -28.2244 0.
-701.584 -1821.71 0.
-13.742 -24.1134 0.
-8.31024 -16.7261 0.
-438.007 -1142.09 0.
-347.446 -901.163 0.
-57.2418 -109.32 0.
-63.984 -127.864 0.
-651.813 -1675.38 0.
-34.1946 -34.6812 0.
-27.6939 -20.3242 0.
-820.093 -2065.14 0.
-0.0417157 -0.0479975 0.
0.198531 0.188035 0.
-757.377 -1327.85 0.
-0.00231518 -0.497364 0.
-770.177 -2041.25 0.
-0.00460912 -0.919607 0.
-0.747162 -1.89641 0.
-779.324 -1747.44 0.
-2.62978 -6.13847 0.
3.96043 8.76787 0.
-0.116371 -24.2362 0.
1.78978 4.89526 0.
-0.0690068 -29.2367 0.
-57.2229 -155.615 0.
-1.83012 -5.06891 0.
-273.379 -755.878 0.
11.4729 31.6617 0.
-89.322 -247.394 0.
-74.8046 -207.183 0.
-335.971 -930.571 0.
-0.43718 -1.20907 0.
-47.6321 -131.919 0.
13.4531 36.5644 0.
15.6662 42.6014 0.
-77.424 -210.078 0.
-4.01979 -10.8785 0.
2.17274 5.79143 0.
-176.232 -477.568 0.
10.0604 27.1091 0.
-80.365 -218.886 0.
-120.255 -327.449 0.
11.5435 30.6391 0.
-360.498 -965.495 0.
3.1367 8.24052 0.
-334.469 -902.353 0.
-1.1845 -62.5338 0.
-81.2613 -220.136 0.
31.8911 84.3812 0.
-14.0221 -37.6915 0.
-458.762 -1257.69 0.
25.0098 68.0428 0.
19.779 54.7795 0.
-86.1934 -238.391 0.
-8.99988 -24.3305 0.
1.86458 5.12762 0.
15.3982 42.1817 0.
23.351 64.4498 0.
-107.36 -288.441 0.
-49.8094 -136.306 0.
-2.64032 -79.8189 0.
32.5106 84.7441 0.
20.6173 53.3041 0.
22.7012 61.8462 0.
16.4813 44.5424 0.
-146.677 -391.263 0.
1.37607 3.75211 0.
16.2943 43.9067 0.
-363.922 -980.232 0.
-0.739201 -1.96357 0.
-55.0588 -147.295 0.
-79.8454 -213.903 0.
-52.0651 -140.706 0.
-118.758 -319.465 0.
-35.7188 -97.6253 0.
12.4692 34.029 0.
-6.22872 -17.2444 0.
-2.79084 -7.73013 0.
-163.224 -451.961 0.
-31.0283 -85.9139 0.
-126.879 -349.5 0.
-6.095 -16.6875 0.
-195.651 -541.919 0.
2.63442 7.29663 0.
-84.0696 -231.853 0.
3.70705 10.2636 0.
6.7351 18.6002 0.
10.3713 28.6053 0.
-487.78 -1243.88 0.
1.90821 5.17425 0.
-0.554564 -1.53522 0.
-0.119671 -12.4356 0.
1.07402 2.24915 0.
-0.193113 -3.45242 0.
0.832143 2.27079 0.
-21.6565 -59.9317 0.
0.176483 0.430647 0.
-25.3213 -63.4556 0.
-14.8611 -38.2764 0.
-6.77474 -17.1774 0.
-22.8306 -53.0723 0.
-9.11094 -16.1052 0.
-4.79337 -5.9519 0.
-19.8839 -12.4755 0.
-2.74683 -1.02803 0.
-29.9945 -21.515 0.
-10.4975 -5.14016 0.
-17.4225 -21.9084 0.
-30.2755 -31.8709 0.
-30.4725 -19.9378 0.
-42.8923 -18.4788 0.
0.21658 0.262494 0.
-0.189348 -0.199661 0.
0.264216 0.232752 0.
0.00300313 0.398543 0.
-12.5086 -34.0842 0.
-1.77239e-06 -1.03562 0.
-0.0750517 -5.31541 0.
6.33998 17.3733 0.
-0.765279 -1.95384 0.
-505.632 -1202.68 0.
3.99244 11.0577 0.
-379.324 -1042.35 0.
5.9309 16.3894 0.
5.71466 15.6397 0.
-0.0321909 -0.0891068 0.
-88.6844 -245.503 0.
4.92165 13.6077 0.
-290.782 -804.375 0.
-36.9698 -102.4 0.
-164.858 -456.545 0.
18.6795 51.5511 0.
-435.871 -1206.87 0.
-40.6388 -110.103 0.
11.6413 31.564 0.
-48.924 -132.79 0.
-322.331 -872.778 0.
2.10276 5.59352 0.
-254.011 -688.51 0.
-83.6445 -225.11 0.
7.59803 20.4579 0.
-266.154 -726.043 0.
-5.79477 -15.3445 0.
20.6452 55.4825 0.
-14.49 -37.9954 0.
25.9858 67.4381 0.
-189.651 -504.204 0.
34.5665 89.2495 0.
-510.837 -1360.45 0.
10.8543 29.1849 0.
-35.9914 -98.8212 0.
-535.223 -1460.78 0.
-35.3465 -97.8658 0.
-0.529867 -1.46629 0.
-9.93838 -27.2554 0.
-16.1288 -44.0193 0.
-1.86333 -5.13181 0.
-206.613 -571.741 0.
-360.86 -971.21 0.
3.35819 8.41295 0.
-501.25 -1289.67 0.
5.32688 13.4682 0.
-167.238 -432.512 0.
-112.666 -307.242 0.
6.45361 17.3863 0.
-418.946 -1124.35 0.
-11.9964 -31.9031 0.
-237.32 -640.206 0.
-52.6686 -141.769 0.
-20.6646 -54.9116 0.
-73.4926 -196.642 0.
-12.1463 -32.0216 0.
-125.926 -339.875 0.
13.0469 35.0534 0.
-99.9852 -272.659 0.
-1.85258 -5.04326 0.
-357.654 -990.178 0.
3.46663 9.59321 0.
-17.8784 -49.5032 0.
12.1792 33.7218 0.
-315.794 -868.359 0.
-69.8161 -190.327 0.
-150.738 -417.509 0.
-24.7194 -68.4683 0.
-61.1037 -169.113 0.
9.31664 25.7165 0.
-479.583 -1316.98 0.
10.582 29.2861 0.
-0.496033 -17.8695 0.
-0.0886639 -19.0387 0.
0.625835 1.72836 0.
-0.248991 -11.9412 0.
2.19391 4.89024 0.
-0.168197 -4.00002 0.
-0.0233836 -3.95359 0.
-363.343 -998.239 0.
-0.0136351 -1.22869 0.
-470.849 -1061.15 0.
-20.8869 -50.3326 0.
-1.01323 -2.1231 0.
-525.908 -1426.8 0.
-10.1727 -28.1746 0.
-5.67598 -15.6163 0.
-267.195 -706.857 0.
-338.391 -909.13 0.
-57.3627 -88.875 0.
-52.9424 -86.1872 0.
-513.883 -1307.03 0.
-65.0934 -97.2041 0.
-41.8793 -27.5097 0.
-411.888 -927.281 0.
-4.32139 -9.55116 0.
-622.884 -1663.83 0.
0.925792 2.35919 0.
-35.2897 -95.2059 0.
0.240354 0.665488 0.
-0.0138403 -7.35292 0.
-0.0115819 -2.86278 0.
-9.37724e-05 -20.2191 0.
1.79347 4.80018 0.
-2.80066 -7.04775 0.
-0.00605585 -28.2797 0.
3.78408 10.4512 0.
-47.0164 -130.071 0.
-11.4342 -31.4283 0.
5.40584 14.9464 0.
-50.0668 -138.67 0.
-3.23216 -8.93392 0.
-246.948 -682.843 0.
2.34941 6.50667 0.
-178.08 -492.989 0.
-5.44615 -14.9929 0.
-118.679 -326.627 0.
-154.744 -417.79 0.
-166.427 -449.719 0.
-7.71154 -20.5543 0.
-196.035 -525.749 0.
-5.65228 -15.0032 0.
16.7197 44.2653 0.
-157.298 -422.802 0.
12.2239 32.8727 0.
8.83622 23.7052 0.
-331.69 -875.781 0.
-4.41347 -11.583 0.
-421.578 -1102.32 0.
0.24023 0.622283 0.
-154.63 -412.702 0.
2.63674 6.8405 0.
-11.287 -28.4108 0.
19.7651 53.1549 0.
28.9597 76.6876 0.
-524.067 -1434.55 0.
-193.208 -519.418 0.
-4.94533e-05 -89.7766 0.
-253.928 -683.932 0.
-57.5325 -155.306 0.
23.1168 63.8997 0.
-139.287 -385.801 0.
29.3569 74.8563 0.
-1.87552 -4.71081 0.
19.3135 47.5346 0.
-6.35445 -16.0691 0.
-609.286 -1576.54 0.
24.1174 64.2408 0.
-264.438 -709.605 0.
8.37155 21.8495 0.
-21.8958 -58.2959 0.
-301.724 -814.616 0.
-8.10597 -21.1582 0.
-203.818 -541.743 0.
22.9844 61.5504 0.
-13.8525 -36.5148 0.
-192.32 -518.365 0.
-12.4204 -32.8174 0.
-204.892 -557.328 0.
-41.4834 -112.623 0.
-12.7119 -35.1078 0.
11.7461 32.4678 0.
-80.4379 -222.719 0.
13.019 36.0458 0.
-163.091 -444.823 0.
-0.957759 -2.60966 0.
-184.37 -510.621 0.
-47.4913 -131.538 0.
-269.147 -744.87 0.
12.8614 35.5318 0.
-165.322 -456.073 0.
2.22473 6.16206 0.
-0.484382 -24.2457 0.
10.5085 28.9384 0.
-0.0795709 -15.4175 0.
-345.32 -949.472 0.
-0.00726967 -2.91802 0.
-536.988 -1231.79 0.
-0.0619356 -2.68221 0.
-12.8219 -35.457 0.
-0.000291091 -0.00879973 0.
-11.2335 -18.8249 0.
-4.45015 -2.96461 0.
-4.57928 -4.99865 0.
-13.6334 -37.3001 0.
-8.266 -21.7296 0.
-13.6115 -37.6023 0.
-7.46555 -11.2853 0.
-9.48251 -13.2219 0.
-17.6575 -22.3 0.
-11.3686 -10.3519 0.
-2.1649 -1.35352 0.
-17.908 -19.1523 0.
-0.577237 -1.32291 0.
-7.21524 -18.5443 0.
0.0266412 0.0725927 0.
-4.0657 -10.2362 0.
0.0139089 0.250582 0.
1.63767 4.53502 0.
-356.268 -936.276 0.
-0.1435 -6.48504 0.
-415.799 -970.249 0.
3.93221 10.4755 0.
4.76758 13.0427 0.
9.67841 26.3314 0.
0.86378 2.38686 0.
-0.0575239 -30.3785 0.
-40.3617 -111.794 0.
-9.60958 -26.5279 0.
-184.394 -509.182 0.
10.6677 29.4554 0.
-7.78009 -21.4981 0.
-0.00462238 -38.0211 0.
-1.84106 -5.09929 0.
0.0376175 0.10326 0.
0.641108 1.75947 0.
-48.4485 -128.927 0.
-17.033 -45.2445 0.
-88.2086 -236.945 0.
20.0749 53.4519 0.
0.239613 0.622713 0.
8.78594 23.2669 0.
3.3598 8.89989 0.
-10.1284 -26.7388 0.
-106.866 -286.975 0.
3.00663 8.05549 0.
-229.834 -605.314 0.
3.86248 10.11 0.
8.23024 20.8871 0.
24.5336 63.4181 0.
-2.13422 -65.5422 0.
-219.396 -571.859 0.
4.83499 12.1475 0.
9.45712 23.2641 0.
-462.19 -1222.79 0.
23.0212 60.7962 0.
-47.4024 -127.913 0.
-121.054 -334.923 0.
0.840935 2.32899 0.
-165.657 -440.533 0.
-0.412276 -49.744 0.
18.0117 44.9692 0.
-182.632 -468.716 0.
-3.15201 -75.197 0.
-8.89539 -22.0999 0.
-205.726 -520.408 0.
11.9325 29.6978 0.
-54.1667 -143.634 0.
-14.052 -37.5518 0.
13.2567 34.6986 0.
-125.345 -334.457 0.
0.610355 1.59345 0.
2.6997 7.19305 0.
-157.321 -418.311 0.
-15.0979 -39.5672 0.
-96.556 -254.477 0.
-82.6573 -220.846 0.
-1.21098 -55.9664 0.
-69.4904 -184.451 0.
-50.5723 -136.894 0.
-74.3335 -197.099 0.
-7.09179 -19.5711 0.
-4.22105 -11.6606 0.
-0.0719431 -46.1583 0.
-0.926756 -2.55629 0.
-5.37156 -14.6276 0.
1.65541 4.50288 0.
-35.4487 -98.1144 0.
6.8355 18.9029 0.
10.5091 28.9756 0.
5.97635 16.4159 0.
-0.0102536 -26.955 0.
10.5857 29.2853 0.
-281.664 -763.066 0.
-1.90081 -5.21071 0.
3.20583 8.87938 0.
-0.0388015 -2.98264 0.
-0.212047 -3.92503 0.
4.79914 13.088 0.
0.289186 0.796119 0.
0.0235422 0.503306 0.
0.260421 1.56357 0.
-5.27375 -2.55373 0.
-11.4429 -10.2064 0.
-13.0171 -33.6726 0.
-15.8266 -42.968 0.
-22.2914 -61.6467 0.
-8.07223 -12.5617 0.
-7.54806 -13.3229 0.
-15.2838 -21.1145 0.
-8.84305 -8.9355 0.
-0.106386 -0.109213 0.
-0.0375312 -0.00519946 0.
-1.13565 -1.98764 0.
-5.52326 -13.7581 0.
0.390034 1.07235 0.
0.15691 0.428845 0.
-0.121202 -1.85943 0.
2.0109 5.49252 0.
-0.0709882 -0.194832 0.
5.57019 14.959 0.
-0.355847 -6.79685 0.
-0.0753668 -18.0022 0.
-321.386 -858.581 0.
10.209 28.2674 0.
2.15409 5.9376 0.
-0.0917609 -24.42 0.
-61.1588 -169.3 0.
-1.67193 -4.61599 0.
-80.0446 -221.055 0.
-56.1125 -154.346 0.
-0.15199 -0.419852 0.
-0.0127024 -38.2436 0.
13.7116 37.9698 0.
-45.1075 -123.015 0.
-88.6952 -242.53 0.
-35.0414 -93.4719 0.
-9.21957 -24.5507 0.
-93.439 -250.758 0.
-10.7547 -28.6045 0.
-29.1471 -75.6738 0.
-0.422459 -1.11608 0.
-40.2169 -106.594 0.
-10.5015 -27.7415 0.
-79.785 -213.962 0.
-20.8238 -55.7141 0.
-10.2858 -26.5009 0.
-26.546 -69.2783 0.
-80.1677 -204.086 0.
-53.9921 -139.223 0.
-113.954 -293.236 0.
1.26977 3.19097 0.
-527.429 -1322.53 0.
-15.0733 -36.9999 0.
-174.081 -460.977 0.
28.299 73.7043 0.
-14.7909 -38.3188 0.
8.863 24.5133 0.
-1.68696 -4.66965 0.
-0.373961 -1.00269 0.
0.743633 2.03295 0.
-13.2803 -33.4196 0.
-201.149 -519.995 0.
18.7997 44.8759 0.
-288.722 -724.825 0.
1.97764 4.73983 0.
-1.56093 -64.9324 0.
-296.539 -782.251 0.
9.04314 23.2292 0.
-541.064 -1419.59 0.
13.3353 34.0268 0.
-7.46921 -19.5261 0.
-299.007 -797.758 0.
18.6544 47.9801 0.
1.83987 4.82216 0.
-1.32236 -3.48568 0.
12.3228 31.8293 0.
2.29485 6.02293 0.
-205.39 -543.399 0.
-44.5821 -118.446 0.
-53.6747 -142.4 0.
-250.022 -688.53 0.
-28.1802 -77.3349 0.
-0.0806079 -47.6074 0.
-6.03659 -16.645 0.
-11.8606 -32.2793 0.
-54.7616 -148.814 0.
-32.8096 -90.7998 0.
7.99828 22.115 0.
1.16641 3.20829 0.
0.301311 0.824913 0.
-41.17 -113.971 0.
6.66216 18.4259 0.
-88.7364 -242.347 0.
-0.0435391 -22.471 0.
0.814558 2.24287 0.
-0.620035 -24.7011 0.
-0.0960767 -3.08247 0.
6.44358 17.0187 0.
-363.212 -884.465 0.
0.0380398 0.102378 0.
2.31249 6.2847 0.
-496.568 -1240.01 0.
0.0345237 0.0800223 0.
-173.362 -438.526 0.
-15.9424 -42.7933 0.
-104.413 -277.978 0.
-76.785 -203.895 0.
-325.948 -900.427 0.
-18.8395 -36.6359 0.
-16.4728 -28.8732 0.
-380.65 -1007.86 0.
-17.6223 -37.8605 0.
-12.9615 -21.3738 0.
-309.754 -635.189 0.
0.730998 2.01182 0.
-450.04 -1165.97 0.
-0.0603309 -7.95757 0.
-0.00880681 -5.29938 0.
-273.334 -721.053 0.
-0.020571 -2.41404 0.
-0.437223 -11.2864 0.
-0.00390392 -22.0099 0.
-90.0911 -245.859 0.
-5.95122 -16.4618 0.
-125.721 -348.223 0.
-59.2688 -163.606 0.
-180.178 -497.838 0.
0.678429 1.87327 0.
-22.6893 -62.6665 0.
-38.5815 -106.13 0.
-140.821 -387.463 0.
-8.50738 -23.5272 0.
9.09477 25.1737 0.
-54.0854 -147.453 0.
-32.2031 -87.7885 0.
-19.241 -51.4453 0.
-42.9891 -114.753 0.
-2.64584 -7.02477 0.
-149.812 -397.974 0.
-151.685 -393.462 0.
-10.3235 -26.6636 0.
-294.068 -779.935 0.
-13.1529 -34.7688 0.
-0.884865 -52.9736 0.
-280.564 -749.36 0.
-1.38321 -3.5749 0.
-1.02314 -2.59461 0.
-304.675 -778.134 0.
0.198361 0.4966 0.
-488.763 -1259.69 0.
-3.70904 -9.3342 0.
5.31373 12.7097 0.
-5.11472 -12.5254 0.
5.1626 12.9327 0.
-176 -458.342 0.
-18.193 -47.6985 0.
-6.06558 -15.4077 0.
-0.195859 -54.5965 0.
-4.15798 -11.2505 0.
-177.335 -487.715 0.
-0.116922 -0.296752 0.
-6.08485 -67.8076 0.
-161.799 -390.768 0.
-4.15797 -48.0242 0.
-3.74037 -62.2793 0.
6.61453 17.2267 0.
-11.416 -29.04 0.
10.4399 26.9165 0.
-3.386 -8.52745 0.
13.8867 35.4452 0.
-207.289 -542.779 0.
-10.4376 -27.0301 0.
17.2605 44.4048 0.
-228.781 -599.638 0.
-6.18483 -15.7536 0.
-27.266 -70.2629 0.
-153.784 -402.157 0.
4.40296 11.3972 0.
-38.1945 -101.526 0.
-158.479 -420.608 0.
9.71203 26.61 0.
-53.583 -147.036 0.
-1.94341 -5.35926 0.
11.4326 31.5121 0.
-21.9301 -59.5049 0.
-26.0702 -70.8434 0.
-42.3855 -117.287 0.
0.85398 2.36085 0.
-10.322 -28.3119 0.
-87.2453 -238.633 0.
-20.9894 -58.0955 0.
-3.76843 -10.4196 0.
12.4369 34.1639 0.
-2.81479 -7.78477 0.
-0.153712 -21.8532 0.
-3.48647 -9.47122 0.
-241.797 -642.507 0.
-0.0618475 -16.1246 0.
-0.245678 -0.630773 0.
2.70767 7.44928 0.
-0.0954772 -8.08402 0.
-0.223955 -0.56395 0.
-0.000883658 -1.63587 0.
-20.1759 -52.1438 0.
-8.84289 -19.8689 0.
-34.5226 -85.7336 0.
-18.858 -38.4423 0.
-13.0555 -23.7291 0.
-5.26766 -13.6719 0.
-1.6853 -3.28538 0.
-2.7704 -4.96058 0.
-9.75008 -6.31417 0.
-4.29838 -1.88152 0.
-1.66083 -0.620529 0.
-0.0173989 -2.92682 0.
-0.0236313 -2.16899 0.
-0.0763302 -7.31175 0.
-0.000949927 -7.46178 0.
-0.00288039 -25.2959 0.
8.16943 22.2033 0.
-309.044 -813.907 0.
-0.0191321 -28.4732 0.
9.1858 25.3339 0.
-0.0203079 -0.05609 0.
-132.812 -367.792 0.
-45.9915 -126.965 0.
-108.284 -299.093 0.
9.49945 26.2326 0.
-16.094 -44.4551 0.
-35.8628 -98.6547 0.
-76.4731 -210.43 0.
-0.153703 -46.4374 0.
-272.47 -753.609 0.
-66.0521 -180.021 0.
-26.4129 -71.9801 0.
12.7211 33.9029 0.
-161.987 -433.403 0.
-6.00605 -15.908 0.
-6.04209 -15.9435 0.
-67.6716 -175.346 0.
-7.12515 -18.3844 0.
7.59324 19.7641 0.
-64.1672 -169.734 0.
-4.54223 -12.0948 0.
14.9647 39.3384 0.
-175.722 -455.586 0.
15.4175 39.2473 0.
-34.4861 -88.3917 0.
-10.042 -25.2411 0.
7.01352 17.6071 0.
-65.6548 -165.429 0.
-16.9368 -41.2282 0.
25.1544 58.2346 0.
0.743873 1.87748 0.
29.5811 72.306 0.
3.51951 9.34217 0.
-5.57813 -14.3772 0.
11.1259 30.7567 0.
-14.268 -38.9318 0.
14.4396 33.8483 0.
-3.34327 -7.98002 0.
-123.853 -287.116 0.
-4.15913 -45.5248 0.
29.496 68.8591 0.
-45.3787 -111.434 0.
-2.24908 -50.0232 0.
-168.156 -430.283 0.
-47.6419 -123.254 0.
-2.19756 -52.4367 0.
-159.89 -408.092 0.
19.6629 50.1099 0.
15.1761 39.3683 0.
13.6934 35.2325 0.
-5.32668 -13.558 0.
-14.7083 -37.3663 0.
-193.88 -498.448 0.
-1.90987 -54.2003 0.
9.54712 24.678 0.
-71.1726 -189.265 0.
-20.3644 -54.0834 0.
-5.71281 -15.6512 0.
-59.7723 -164.009 0.
-208.076 -573.585 0.
-7.16895 -19.6654 0.
-33.6625 -91.3379 0.
-42.6758 -115.967 0.
-180.384 -499.078 0.
-0.592064 -1.63649 0.
-45.7774 -125.163 0.
-13.1609 -36.0045 0.
-62.4348 -172.774 0.
-4.60666 -12.7336 0.
10.5566 29.1127 0.
4.14152 11.4582 0.
-253.931 -701.221 0.
2.25006 6.11204 0.
-2.69857 -7.36076 0.
-1.21294e-05 -12.7455 0.
8.58443 23.0544 0.
-2.35388e-05 -0.0803779 0.
-0.164103 -11.4675 0.
0.758507 2.07317 0.
-18.5494 -51.0104 0.
-117.194 -252.336 0.
-47.6696 -80.285 0.
-48.5773 -114.109 0.
-56.8398 -143.66 0.
-150.326 -402.564 0.
-8.55011 -22.7278 0.
-9.8297 -26.4931 0.
-187.273 -500.581 0.
-18.2873 -12.1053 0.
-21.5834 -19.3202 0.
-166.643 -405.522 0.
0.0311348 1.66904 0.
1.90501 5.2716 0.
5.1778 13.9191 0.
-0.00151653 -14.9083 0.
0.00421076 5.07339 0.
-0.0531942 -20.6289 0.
3.28648 8.82824 0.
8.26925 22.7171 0.
-85.4195 -233.103 0.
9.26732 25.5482 0.
-99.7054 -275.109 0.
-4.91677 -13.574 0.
-0.112434 -41.0871 0.
-0.130457 -39.5032 0.
-7.24312 -19.9195 0.
-15.445 -42.4888 0.
7.23522 19.8723 0.
14.3931 39.473 0.
17.8879 47.8337 0.
-86.5999 -235.948 0.
7.90739 21.1742 0.
0.467734 1.24381 0.
-69.0646 -183.193 0.
-6.62067 -17.4921 0.
18.8581 49.6361 0.
1.3635 3.48117 0.
-12.0798 -31.1367 0.
11.751 30.6808 0.
-1.33066 -40.5956 0.
-56.8441 -151.324 0.
8.64555 22.7203 0.
-1.69566 -44.8496 0.
-1.9758 -55.8489 0.
1.67258 4.17266 0.
-95.772 -241.65 0.
-95.1304 -241.156 0.
0.0614267 0.151545 0.
-7.4169 -18.263 0.
9.74982 23.0288 0.
17.4218 39.0002 0.
24.1178 59.4406 0.
19.8654 50.1131 0.
-4.41961 -71.9851 0.
-395.474 -1095.13 0.
-13.3153 -35.678 0.
26.8897 63.1748 0.
-181.656 -434.41 0.
6.72563 14.9627 0.
21.003 48.5792 0.
24.824 58.669 0.
19.1759 45.556 0.
-0.670478 -1.68863 0.
2.74433 7.05788 0.
17.6934 43.977 0.
-157.605 -396.997 0.
-9.1471 -23.3447 0.
4.59302 11.7241 0.
-255.772 -664.266 0.
19.3714 49.8341 0.
-31.6092 -80.7631 0.
-6.11593 -15.4918 0.
-159.113 -407.918 0.
9.0607 23.1162 0.
-16.2275 -41.881 0.
-21.3936 -56.9233 0.
-3.40363 -8.88282 0.
9.03297 24.7458 0.
-71.8338 -197.092 0.
-5.22661 -14.2624 0.
-0.20312 -0.556375 0.
-44.5728 -120.941 0.
-77.0312 -209.329 0.
-8.02495 -21.9825 0.
2.2523 6.1852 0.
-53.528 -146.389 0.
-20.9173 -57.2371 0.
-80.9626 -223.994 0.
10.6425 29.1262 0.
-92.4868 -256.129 0.
8.14048 22.5461 0.
10.35 28.5641 0.
-2.91727 -7.92312 0.
4.96928 13.1173 0.
-0.0210339 -10.1111 0.
9.69382 26.8008 0.
-121.872 -329.835 0.
-0.0286401 -14.0575 0.
-103.059 -277.218 0.
-0.0021661 -0.901974 0.
-30.0643 -68.5405 0.
-16.022 -37.4072 0.
-17.6003 -43.4812 0.
-13.2726 -26.9323 0.
-14.8185 -30.9915 0.
-1.09835 -3.01909 0.
-0.126955 -0.349687 0.
-3.60346 -9.75696 0.
-5.63799 -3.93681 0.
-7.5908 -7.1071 0.
-19.4756 -36.642 0.
0.00270169 0.849658 0.
-113.129 -300.731 0.
-0.0063907 -9.91045 0.
-135.653 -371.284 0.
11.1093 30.5135 0.
-0.00596285 -16.4581 0.
-0.431521 -20.6962 0.
5.49624 14.9528 0.
4.71692 12.8907 0.
3.01292 8.24959 0.
10.936 29.8677 0.
9.72899 26.8603 0.
-0.146719 -41.527 0.
1.80926 4.96198 0.
8.2539 22.4567 0.
-3.38324 -9.20819 0.
-3.60601 -9.88337 0.
12.6085 34.5024 0.
15.6282 41.8212 0.
7.67831 20.4857 0.
-104.331 -278.787 0.
5.88349 15.6089 0.
-6.42383 -16.7067 0.
-11.9508 -31.4913 0.
-3.11767 -8.09929 0.
-1.67934 -47.1702 0.
-119.401 -317.045 0.
-9.80018 -25.6661 0.
0.51561 1.32937 0.
18.9522 48.7636 0.
3.91482 10.2825 0.
6.5069 16.5926 0.
-9.63314 -24.692 0.
-150.766 -378.399 0.
13.9037 34.0388 0.
-126.908 -324.637 0.
-31.1682 -77.7175 0.
-5.76918 -13.9743 0.
-47.5579 -114.514 0.
-5.55908 -61.508 0.
-3.12574 -38.9645 0.
14.0379 33.7538 0.
15.9107 39.1354 0.
1.8504 4.35681 0.
-64.8 -174.116 0.
-10.3221 -24.2894 0.
-2.63654 -6.0651 0.
1.12941 2.54615 0.
-390.739 -914.107 0.
15.3583 35.1625 0.
-6.0185 -14.5698 0.
18.779 47.5497 0.
-2.37796 -45.2623 0.
9.65235 23.9816 0.
1.19422 3.00675 0.
18.2987 45.5415 0.
2.26916 5.80022 0.
-51.9294 -135.073 0.
19.6021 49.6224 0.
-70.183 -180.026 0.
-44.9383 -113.474 0.
17.6222 44.0431 0.
-19.3136 -49.9125 0.
-43.3721 -111.772 0.
3.11136 7.79363 0.
1.54899 4.03486 0.
-46.4681 -122.535 0.
-4.23569 -11.3926 0.
-2.80567 -7.61863 0.
5.86761 16.0472 0.
16.0253 43.9865 0.
15.1021 39.5596 0.
-0.447362 -1.18993 0.
-0.185771 -42.0719 0.
10.9326 30.0393 0.
-35.2579 -96.5013 0.
8.44847 22.5065 0.
8.58276 23.4698 0.
-8.21069 -22.5154 0.
3.20119 8.86442 0.
-0.00694843 -30.2905 0.
-1.46936 -3.98972 0.
0.126649 0.342255 0.
2.47315 6.84561 0.
1.80826 4.95315 0.
-0.669382 -1.84679 0.
-0.115219 -13.1342 0.
-0.00703344 -4.17194 0.
1.74304 4.70001 0.
-9.20551 -25.0796 0.
0.0469611 0.129679 0.
-0.000229395 -0.00790143 0.
-16.1823 -37.4318 0.
-26.5705 -66.0228 0.
-2.10889 -5.50901 0.
-0.705688 -1.92653 0.
-4.23766 -11.7365 0.
-0.0106405 -0.0237176 0.
-0.273055 -0.626007 0.
-14.1434 -32.801 0.
0.0186949 1.326 0.
0.217812 0.599082 0.
-0.000271729 -12.1277 0.
-0.583039 -1.6079 0.
3.48137 9.61003 0.
-37.294 -103.287 0.
14.2228 36.8414 0.
1.25446 3.3725 0.
3.86479 10.5749 0.
0.210914 0.578154 0.
6.43313 17.5573 0.
12.9669 35.2702 0.
-6.33269 -17.3558 0.
10.0206 27.4219 0.
8.84296 24.0262 0.
-7.01102 -19.0564 0.
-8.27102 -22.2105 0.
-109.089 -297.782 0.
2.19062 5.86655 0.
4.70998 12.5759 0.
9.17139 23.5602 0.
-9.58537 -25.3692 0.
-25.0509 -65.1832 0.
-5.15948 -13.1195 0.
-75.2156 -195.491 0.
-3.51127 -8.96954 0.
-8.82738 -22.9553 0.
6.72195 17.6598 0.
3.58828 9.43158 0.
7.20732 18.5661 0.
-11.4789 -30.1296 0.
-82.4893 -211.02 0.
1.1097 2.80676 0.
-0.138125 -0.348799 0.
15.7329 38.7739 0.
11.1234 27.6676 0.
-8.15381 -20.5301 0.
-2.24371 -40.5309 0.
-4.60578 -10.9425 0.
2.103 4.91003 0.
13.4149 31.3234 0.
-4.07404 -40.3519 0.
-85.7508 -214.267 0.
22.0235 52.7588 0.
32.37 65.743 0.
14.7502 31.88 0.
-6.25144 -55.3367 0.
-4.52724 -49.161 0.
-2.71209 -26.0985 0.
16.1324 37.659 0.
-196.243 -483.22 0.
6.22707 14.9742 0.
-75.335 -186.01 0.
-146.087 -369.884 0.
-4.45365 -10.7272 0.
-19.8328 -49.6316 0.
-1.66552 -48.3102 0.
-1.76995 -43.6175 0.
6.05084 15.3868 0.
-15.0537 -38.7724 0.
-1.55861 -3.90073 0.
13.8358 34.7978 0.
-41.1224 -106.891 0.
-2.43935 -34.5398 0.
7.65204 19.1904 0.
6.92732 18.0126 0.
-11.9548 -31.4783 0.
-1.44173 -3.87726 0.
8.93647 24.267 0.
-4.03152 -11.0079 0.
5.7151 14.9505 0.
-1.01492 -42.1761 0.
-5.35335 -14.2429 0.
-23.9748 -65.563 0.
6.38336 17.5046 0.
-3.31591 -8.74683 0.
-2.79471 -7.4387 0.
-0.409185 -1.11799 0.
-18.8179 -51.5654 0.
9.84117 27.2138 0.
8.48725 23.0007 0.
8.52 22.9735 0.
2.60218 7.03555 0.
-24.2994 -66.9174 0.
11.0485 29.8398 0.
1.59486 4.41741 0.
-0.273126 -17.227 0.
-0.000296617 -4.76602 0.
-0.0287535 -7.49048 0.
-28.6317 -77.9801 0.
-1.7925 -4.95706 0.
0.0123847 0.294795 0.
-21.8188 -56.9873 0.
-26.6085 -73.352 0.
-10.8811 -29.954 0.
-3.69 -9.41501 0.
-15.385 -38.3366 0.
-7.50813 -19.1829 0.
-4.78242 -11.2092 0.
-30.3801 -73.7537 0.
-0.0888698 -2.98243 0.
1.91207 5.29608 0.
-0.0166393 -17.3349 0.
-0.440308 -1.21869 0.
-0.0962742 -20.461 0.
-3.5804 -9.90543 0.
4.12722 10.7885 0.
-5.27196 -13.7869 0.
2.12995 5.83459 0.
-2.56132 -7.02842 0.
0.618732 1.68745 0.
4.88664 13.2812 0.
7.09229 18.8063 0.
-146.759 -400.646 0.
-8.64469 -23.4538 0.
-3.07706 -8.35198 0.
-11.3055 -30.3087 0.
8.23433 21.6632 0.
-98.098 -262.928 0.
-7.51726 -20.0882 0.
10.5479 26.9149 0.
13.6116 35.9384 0.
-53.9279 -140.451 0.
8.34464 21.2303 0.
-5.31894 -12.9278 0.
7.96836 20.3689 0.
-1.20399 -44.72 0.
13.9281 34.9383 0.
11.4081 30.031 0.
-6.34382 -16.3642 0.
-2.89918 -7.31155 0.
11.3548 29.1473 0.
6.37781 16.1906 0.
10.4844 25.855 0.
-2.15307 -43.6567 0.
16.9288 42.3999 0.
12.5279 29.8325 0.
21.4531 53.1 0.
-4.37053 -10.663 0.
-3.72944 -37.9396 0.
-0.170012 -0.395945 0.
6.50001 14.5539 0.
-3.95754 -9.2399 0.
-2.68998 -6.16007 0.
27.2453 54.8747 0.
22.5557 48.3537 0.
-4.38634 -40.9615 0.
12.8991 26.0421 0.
-3.31181 -33.7523 0.
-6.53835 -15.5402 0.
7.93339 18.4256 0.
-4.67921 -11.2659 0.
-85.106 -210.44 0.
10.7181 25.372 0.
3.7941 9.19406 0.
-110.226 -277.548 0.
10.0566 23.8411 0.
-5.01667 -12.7594 0.
19.6762 50.2835 0.
8.0765 18.9357 0.
-5.85481 -14.6366 0.
5.83799 14.7993 0.
-3.63514 -41.3079 0.
17.8328 42.4115 0.
-7.50477 -18.8787 0.
-3.989 -10.3573 0.
-1.81485 -37.6208 0.
1.90422 5.12197 0.
-86.9336 -236.132 0.
17.3115 43.4539 0.
3.82112 9.94684 0.
-4.10155 -10.7481 0.
-84.4563 -224.869 0.
-65.6951 -179.224 0.
8.30196 21.5205 0.
2.67404 7.04754 0.
1.89844 5.04972 0.
-29.1576 -79.601 0.
-6.45901 -17.6874 0.
12.1059 32.0774 0.
-81.4268 -219.974 0.
-5.93381 -16.008 0.
2.3611 6.38706 0.
-30.1556 -82.3031 0.
10.4694 27.7966 0.
4.72088 12.4738 0.
5.99943 15.6217 0.
-26.8994 -74.4258 0.
-0.189175 -9.71469 0.
-1.82688 -4.95021 0.
-0.0106707 -0.316857 0.
-0.0378793 -0.363271 0.
-17.7702 -43.2046 0.
-22.2137 -59.607 0.
-2.47504 -6.84244 0.
0.0103311 0.0279777 0.
-3.49407 -8.81013 0.
-5.96878 -14.9332 0.
-3.16185 -7.3042 0.
12.3183 24.4788 0.
-0.108627 -1.914 0.
4.1562 11.1715 0.
-1.63439 -4.32023 0.
-2.37047 -6.56525 0.
8.93852 24.2138 0.
4.65245 12.8134 0.
-0.587228 -1.53252 0.
1.11868 2.92078 0.
7.46448 19.5091 0.
4.97985 13.6778 0.
9.0083 24.5521 0.
7.49135 20.3454 0.
-6.96752 -18.3718 0.
-7.36116 -19.2101 0.
10.2678 27.8157 0.
-22.1136 -59.9349 0.
-16.4415 -44.0184 0.
7.2056 18.9156 0.
7.79056 19.2471 0.
14.0038 37.4568 0.
12.3926 31.4149 0.
17.4105 42.8454 0.
-111.123 -289.915 0.
11.3727 28.9765 0.
-5.54353 -13.538 0.
-2.87055 -27.9238 0.
-77.7731 -202.872 0.
14.8842 37.3741 0.
-2.38132 -40.4984 0.
-4.21415 -10.8925 0.
-162.813 -400.258 0.
-3.70727 -49.1924 0.
2.57611 6.56533 0.
16.3977 40.9561 0.
2.59893 5.95475 0.
-135.095 -340.828 0.
18.2252 43.6433 0.
2.42485 5.49264 0.
-29.293 -73.33 0.
18.7309 43.4239 0.
6.37648 13.4816 0.
12.6324 28.0765 0.
17.7235 37.9138 0.
-5.64552 -12.7664 0.
