# vtk DataFile Version 2.0
test grain
ASCII
DATASET UNSTRUCTURED_GRID
POINTS 5000 float
0.497721 0.000613203 0.
0.500566 0.000797538 0.
0.503048 0.000864324 0.
0.505513 0.000929574 0.
0.507631 0.000946784 0.
0.509749 0.000964382 0.
0.51184 0.000977292 0.
0.513885 0.000981597 0.
0.515931 0.000985922 0.
0.517955 0.000989767 0.
0.519968 0.00099339 0.
0.521981 0.000997026 0.
0.523984 0.000997974 0.
0.525986 0.000998559 0.
0.527988 0.000999105 0.
0.52999 0.000999326 0.
0.531992 0.000999547 0.
0.533993 0.000999739 0.
0.535994 0.00099987 0.
0.537995 0.001 0.
0.539996 0.00100013 0.
0.541996 0.00100026 0.
0.543997 0.00100038 0.
0.545997 0.00100031 0.
0.547998 0.00100018 0.
0.549998 0.00100006 0.
0.551998 0.00100016 0.
0.553998 0.00100025 0.
0.555998 0.00100034 0.
0.557998 0.00100038 0.
0.559998 0.00100042 0.
0.561999 0.00100045 0.
0.563999 0.00100048 0.
0.565999 0.0010005 0.
0.567999 0.00100051 0.
0.569999 0.00100051 0.
0.571999 0.00100051 0.
0.573999 0.00100047 0.
0.575999 0.00100042 0.
0.577999 0.00100038 0.
0.579999 0.00100041 0.
0.581999 0.00100044 0.
0.583999 0.00100044 0.
0.585998 0.0010004 0.
0.587998 0.00100035 0.
0.589998 0.00100044 0.
0.591998 0.00100063 0.
0.593998 0.00100083 0.
0.595999 0.00100063 0.
0.597999 0.00100031 0.
0.6 0.000999997 0.
0.602001 0.00100032 0.
0.604001 0.00100065 0.
0.606002 0.00100086 0.
0.608002 0.00100065 0.
0.610002 0.00100044 0.
0.612001 0.00100035 0.
0.614001 0.00100041 0.
0.616001 0.00100047 0.
0.618001 0.00100046 0.
0.620001 0.00100042 0.
0.622001 0.00100037 0.
0.624001 0.0010004 0.
0.626001 0.00100043 0.
0.628001 0.00100046 0.
0.630001 0.00100048 0.
0.632001 0.00100049 0.
0.634001 0.0010005 0.
0.636001 0.00100049 0.
0.638001 0.00100047 0.
0.640002 0.00100042 0.
0.642002 0.00100032 0.
0.644002 0.00100023 0.
0.646002 0.00100017 0.
0.648002 0.00100012 0.
0.650002 0.00100007 0.
0.652003 0.00100015 0.
0.654003 0.00100022 0.
0.656004 0.00100026 0.
0.658004 0.00100013 0.
0.660005 0.001 0.
0.662006 0.000999843 0.
0.664007 0.000999645 0.
0.666008 0.000999447 0.
0.66801 0.000999307 0.
0.670012 0.000999197 0.
0.672014 0.000999087 0.
0.674017 0.000997686 0.
0.67602 0.000996136 0.
0.678026 0.000994224 0.
0.680048 0.000989614 0.
0.68207 0.000985026 0.
0.684106 0.000980005 0.
0.686169 0.000974137 0.
0.688231 0.000968305 0.
0.690399 0.000940418 0.
0.692622 0.000902539 0.
0.694869 0.000863414 0.
0.697663 0.000765582 0.
0.700462 0.000669791 0.
0.495593 0.00157698 0.
0.498976 0.00228771 0.
0.501872 0.00255655 0.
0.50471 0.00277081 0.
0.50709 0.00283093 0.
0.50939 0.00288654 0.
0.511628 0.00293141 0.
0.513724 0.00294442 0.
0.515819 0.00295749 0.
0.517878 0.00296904 0.
0.519914 0.00297997 0.
0.52195 0.00299094 0.
0.523959 0.00299391 0.
0.525965 0.00299566 0.
0.52797 0.00299731 0.
0.529975 0.00299797 0.
0.531979 0.00299864 0.
0.533983 0.00299921 0.
0.535986 0.00299961 0.
0.537988 0.003 0.
0.53999 0.00300039 0.
0.541991 0.00300077 0.
0.543992 0.00300115 0.
0.545992 0.00300094 0.
0.547993 0.00300055 0.
0.549994 0.00300017 0.
0.551994 0.00300046 0.
0.553994 0.00300076 0.
0.555994 0.00300102 0.
0.557995 0.00300114 0.
0.559995 0.00300127 0.
0.561996 0.00300136 0.
0.563996 0.00300143 0.
0.565997 0.0030015 0.
0.567997 0.00300152 0.
0.569997 0.00300152 0.
0.571997 0.00300152 0.
0.573997 0.0030014 0.
0.575996 0.00300126 0.
0.577996 0.00300115 0.
0.579996 0.00300124 0.
0.581996 0.00300132 0.
0.583996 0.00300133 0.
0.585995 0.00300119 0.
0.587995 0.00300105 0.
0.589995 0.00300131 0.
0.591995 0.0030019 0.
0.593995 0.00300248 0.
0.595996 0.00300188 0.
0.597998 0.00300093 0.
0.6 0.00299999 0.
0.602002 0.00300097 0.
0.604004 0.00300196 0.
0.606005 0.00300258 0.
0.608005 0.00300195 0.
0.610005 0.00300132 0.
0.612004 0.00300106 0.
0.614004 0.00300124 0.
0.616004 0.00300141 0.
0.618004 0.00300138 0.
0.620004 0.00300125 0.
0.622004 0.00300111 0.
0.624004 0.00300119 0.
0.626003 0.00300129 0.
0.628003 0.00300138 0.
0.630003 0.00300143 0.
0.632003 0.00300147 0.
0.634003 0.00300149 0.
0.636004 0.00300146 0.
0.638004 0.00300142 0.
0.640005 0.00300125 0.
0.642005 0.00300096 0.
0.644006 0.00300068 0.
0.646006 0.0030005 0.
0.648006 0.00300035 0.
0.650007 0.0030002 0.
0.652007 0.00300044 0.
0.654008 0.00300067 0.
0.656009 0.00300077 0.
0.658011 0.00300039 0.
0.660012 0.003 0.
0.662015 0.00299953 0.
0.664018 0.00299893 0.
0.666021 0.00299834 0.
0.668026 0.00299792 0.
0.670031 0.00299759 0.
0.672036 0.00299726 0.
0.674045 0.00299301 0.
0.676055 0.00298835 0.
0.678072 0.00298247 0.
0.68013 0.00296853 0.
0.682187 0.00295467 0.
0.684274 0.00293944 0.
0.686405 0.00292164 0.
0.688536 0.00290394 0.
0.690953 0.00280225 0.
0.693444 0.00268204 0.
0.696175 0.00252108 0.
0.699365 0.00221502 0.
0.702678 0.0017055 0.
0.493083 0.00217782 0.
0.496787 0.0033647 0.
0.500488 0.0041974 0.
0.503711 0.00456888 0.
0.506497 0.00470135 0.
0.508993 0.00479903 0.
0.511411 0.00488491 0.
0.513557 0.00490674 0.
0.515705 0.00492867 0.
0.517799 0.00494796 0.
0.519858 0.00496628 0.
0.521917 0.00498467 0.
0.523934 0.00498982 0.
0.525943 0.00499275 0.
0.527952 0.00499551 0.
0.529959 0.00499661 0.
0.531966 0.00499772 0.
0.533972 0.00499869 0.
0.535977 0.00499934 0.
0.537981 0.005 0.
0.539984 0.00500065 0.
0.541985 0.00500128 0.
0.543986 0.00500192 0.
0.545987 0.00500157 0.
0.547989 0.00500092 0.
0.54999 0.00500028 0.
0.55199 0.00500077 0.
0.55399 0.00500127 0.
0.55599 0.0050017 0.
0.557991 0.00500191 0.
0.559992 0.00500211 0.
0.561993 0.00500227 0.
0.563994 0.00500238 0.
0.565994 0.00500249 0.
0.567994 0.00500253 0.
0.569995 0.00500253 0.
0.571995 0.00500254 0.
0.573994 0.00500233 0.
0.575994 0.00500211 0.
0.577993 0.00500192 0.
0.579993 0.00500206 0.
0.581993 0.00500221 0.
0.583993 0.00500222 0.
0.585992 0.00500199 0.
0.587992 0.00500175 0.
0.589992 0.00500219 0.
0.591991 0.00500316 0.
0.593991 0.00500413 0.
0.595993 0.00500313 0.
0.597997 0.00500156 0.
0.6 0.00499999 0.
0.602003 0.00500163 0.
0.604006 0.00500326 0.
0.606008 0.0050043 0.
0.608008 0.00500326 0.
0.610008 0.00500221 0.
0.612007 0.00500176 0.
0.614007 0.00500206 0.
0.616007 0.00500236 0.
0.618007 0.00500231 0.
0.620007 0.00500208 0.
0.622006 0.00500186 0.
0.624006 0.00500198 0.
0.626005 0.00500215 0.
0.628005 0.0050023 0.
0.630005 0.00500238 0.
0.632005 0.00500246 0.
0.634006 0.00500249 0.
0.636006 0.00500243 0.
0.638007 0.00500237 0.
0.640008 0.00500208 0.
0.642009 0.0050016 0.
0.64401 0.00500112 0.
0.64601 0.00500083 0.
0.648011 0.00500058 0.
0.650011 0.00500034 0.
0.652012 0.00500073 0.
0.654013 0.00500112 0.
0.656014 0.00500128 0.
0.658017 0.00500064 0.
0.660019 0.005 0.
0.662023 0.0049992 0.
0.664029 0.00499821 0.
0.666034 0.00499722 0.
0.668042 0.00499653 0.
0.67005 0.00499598 0.
0.672058 0.00499543 0.
0.674074 0.00498825 0.
0.67609 0.00498047 0.
0.678119 0.00497043 0.
0.680213 0.00494704 0.
0.682307 0.00492376 0.
0.684448 0.00489808 0.
0.68665 0.00486808 0.
0.688851 0.00483826 0.
0.691592 0.00463595 0.
0.694382 0.00442406 0.
0.697794 0.00406753 0.
0.701512 0.00347295 0.
0.705312 0.00232281 0.
0.490091 0.00231546 0.
0.494479 0.00401396 0.
0.498647 0.00528822 0.
0.502071 0.0058192 0.
0.505254 0.00614632 0.
0.507922 0.00634717 0.
0.510574 0.00655485 0.
0.512897 0.00665103 0.
0.515211 0.00673873 0.
0.517448 0.00680895 0.
0.519588 0.00685521 0.
0.52173 0.00690218 0.
0.523799 0.00693047 0.
0.525852 0.00695505 0.
0.527903 0.00697833 0.
0.529919 0.00698071 0.
0.531935 0.0069831 0.
0.533949 0.00698626 0.
0.535959 0.00699118 0.
0.537968 0.00699611 0.
0.539974 0.00699911 0.
0.541977 0.00700048 0.
0.54398 0.00700185 0.
0.545982 0.00700209 0.
0.547983 0.007002 0.
0.549985 0.00700191 0.
0.551985 0.00700214 0.
0.553985 0.00700237 0.
0.555986 0.0070026 0.
0.557987 0.00700284 0.
0.559988 0.00700308 0.
0.561989 0.00700333 0.
0.56399 0.0070036 0.
0.565991 0.00700386 0.
0.567992 0.00700404 0.
0.569992 0.00700417 0.
0.571993 0.0070043 0.
0.573992 0.00700414 0.
0.575992 0.00700395 0.
0.577991 0.00700378 0.
0.579991 0.00700391 0.
0.581991 0.00700404 0.
0.583991 0.0070041 0.
0.58599 0.00700402 0.
0.58799 0.00700394 0.
0.58999 0.00700428 0.
0.591989 0.00700498 0.
0.593988 0.00700568 0.
0.595992 0.0070049 0.
0.597996 0.00700371 0.
0.6 0.00700251 0.
0.602004 0.0070038 0.
0.604008 0.00700508 0.
0.606011 0.0070059 0.
0.608011 0.00700511 0.
0.61001 0.00700431 0.
0.61201 0.00700393 0.
0.614009 0.00700407 0.
0.616009 0.00700421 0.
0.618009 0.00700413 0.
0.620009 0.00700395 0.
0.622009 0.00700377 0.
0.624008 0.00700385 0.
0.626008 0.00700395 0.
0.628007 0.00700404 0.
0.630008 0.00700397 0.
0.632008 0.00700391 0.
0.634009 0.0070038 0.
0.63601 0.0070036 0.
0.638011 0.0070034 0.
0.640012 0.00700303 0.
0.642013 0.00700254 0.
0.644014 0.00700204 0.
0.646015 0.00700187 0.
0.648016 0.00700179 0.
0.650016 0.00700172 0.
0.652018 0.00700152 0.
0.65402 0.00700132 0.
0.656022 0.00700075 0.
0.658027 0.00699892 0.
0.660032 0.0069971 0.
0.66204 0.0069931 0.
0.664053 0.00698655 0.
0.666066 0.00698003 0.
0.668086 0.00697599 0.
0.670109 0.00697304 0.
0.672132 0.00697009 0.
0.674206 0.00693492 0.
0.676281 0.00689824 0.
0.678382 0.00685808 0.
0.680574 0.00680028 0.
0.682763 0.00674367 0.
0.685093 0.00664898 0.
0.687502 0.00653588 0.
0.690013 0.00637051 0.
0.692953 0.00600113 0.
0.696033 0.00563428 0.
0.699708 0.00514884 0.
0.704096 0.00413808 0.
0.708227 0.00251761 0.
0.487034 0.00230395 0.
0.491867 0.00425787 0.
0.496154 0.00576259 0.
0.500159 0.00685274 0.
0.503618 0.00743948 0.
0.506686 0.00781382 0.
0.509564 0.00815734 0.
0.51215 0.00836244 0.
0.514654 0.00852457 0.
0.517077 0.00866378 0.
0.519303 0.00873968 0.
0.521534 0.00881679 0.
0.523661 0.00886918 0.
0.525759 0.00891599 0.
0.527854 0.00896113 0.
0.529879 0.0089648 0.
0.531903 0.00896846 0.
0.533925 0.00897377 0.
0.53594 0.00898297 0.
0.537956 0.00899219 0.
0.539965 0.00899757 0.
0.541969 0.00899967 0.
0.543973 0.00900177 0.
0.545976 0.00900261 0.
0.547978 0.00900307 0.
0.54998 0.00900353 0.
0.55198 0.0090035 0.
0.553981 0.00900347 0.
0.555982 0.00900351 0.
0.557983 0.00900378 0.
0.559985 0.00900406 0.
0.561986 0.0090044 0.
0.563987 0.00900482 0.
0.565988 0.00900524 0.
0.567989 0.00900555 0.
0.56999 0.00900581 0.
0.57199 0.00900607 0.
0.57399 0.00900595 0.
0.575989 0.00900579 0.
0.577989 0.00900565 0.
0.579989 0.00900576 0.
0.581989 0.00900588 0.
0.583989 0.00900598 0.
0.585989 0.00900605 0.
0.587988 0.00900612 0.
0.589987 0.00900638 0.
0.591987 0.0090068 0.
0.593986 0.00900722 0.
0.59599 0.00900668 0.
0.597995 0.00900586 0.
0.6 0.00900503 0.
0.602005 0.00900597 0.
0.60401 0.0090069 0.
0.606014 0.0090075 0.
0.608013 0.00900696 0.
0.610012 0.00900641 0.
0.612012 0.0090061 0.
0.614011 0.00900608 0.
0.616011 0.00900606 0.
0.618011 0.00900596 0.
0.620011 0.00900582 0.
0.622011 0.00900569 0.
0.624011 0.00900571 0.
0.62601 0.00900576 0.
0.62801 0.00900578 0.
0.630011 0.00900557 0.
0.632012 0.00900536 0.
0.634013 0.00900511 0.
0.636014 0.00900476 0.
0.638015 0.00900442 0.
0.640016 0.00900399 0.
0.642018 0.00900348 0.
0.644019 0.00900296 0.
0.64602 0.00900292 0.
0.648021 0.00900301 0.
0.650022 0.00900309 0.
0.652024 0.0090023 0.
0.654027 0.00900152 0.
0.65603 0.00900022 0.
0.658037 0.0089972 0.
0.660044 0.00899419 0.
0.662057 0.00898694 0.
0.664077 0.00897481 0.
0.666097 0.00896272 0.
0.66813 0.00895538 0.
0.670168 0.00895 0.
0.672207 0.00894463 0.
0.674342 0.0088792 0.
0.67648 0.00881255 0.
0.678662 0.00874036 0.
0.680961 0.0086456 0.
0.683252 0.00855281 0.
0.685848 0.00835986 0.
0.688497 0.00815076 0.
0.691433 0.00775499 0.
0.694578 0.00719609 0.
0.698146 0.00658956 0.
0.702228 0.00576168 0.
0.706727 0.00435304 0.
0.711497 0.00236172 0.
0.483679 0.00218024 0.
0.488857 0.00422514 0.
0.493557 0.00600502 0.
0.497803 0.00751124 0.
0.501828 0.00856669 0.
0.505414 0.00920663 0.
0.508513 0.00966881 0.
0.51138 0.01 0.
0.514049 0.010232 0.
0.516662 0.010461 0.
0.518969 0.0105703 0.
0.521284 0.0106835 0.
0.523479 0.0107691 0.
0.525625 0.0108468 0.
0.52777 0.0109244 0.
0.529811 0.0109339 0.
0.531852 0.0109434 0.
0.533887 0.0109542 0.
0.53591 0.0109681 0.
0.537933 0.010982 0.
0.539948 0.0109907 0.
0.541956 0.0109949 0.
0.543964 0.0109991 0.
0.545968 0.011001 0.
0.547971 0.0110022 0.
0.549974 0.0110034 0.
0.551975 0.0110034 0.
0.553976 0.0110034 0.
0.555977 0.0110035 0.
0.557979 0.0110039 0.
0.55998 0.0110043 0.
0.561982 0.0110047 0.
0.563983 0.0110052 0.
0.565985 0.0110057 0.
0.567986 0.0110062 0.
0.569987 0.0110065 0.
0.571988 0.0110069 0.
0.573988 0.0110069 0.
0.575987 0.0110068 0.
0.577987 0.0110068 0.
0.579987 0.011007 0.
0.581987 0.0110071 0.
0.583987 0.0110072 0.
0.585987 0.0110074 0.
0.587987 0.0110075 0.
0.589986 0.0110077 0.
0.591985 0.0110077 0.
0.593985 0.0110078 0.
0.595989 0.0110077 0.
0.597995 0.0110075 0.
0.6 0.0110072 0.
0.602006 0.0110076 0.
0.604011 0.0110079 0.
0.606015 0.0110082 0.
0.608015 0.0110079 0.
0.610014 0.0110077 0.
0.612013 0.0110076 0.
0.614013 0.0110074 0.
0.616013 0.0110072 0.
0.618013 0.0110071 0.
0.620013 0.011007 0.
0.622013 0.0110068 0.
0.624013 0.0110067 0.
0.626013 0.0110067 0.
0.628013 0.0110066 0.
0.630014 0.0110062 0.
0.632015 0.0110059 0.
0.634016 0.0110055 0.
0.636018 0.0110051 0.
0.638019 0.0110047 0.
0.640021 0.0110041 0.
0.642023 0.0110035 0.
0.644024 0.0110029 0.
0.646026 0.0110028 0.
0.648027 0.0110027 0.
0.650029 0.0110026 0.
0.652033 0.0110008 0.
0.654037 0.0109989 0.
0.656042 0.0109961 0.
0.658054 0.01099 0.
0.660066 0.0109839 0.
0.662087 0.0109725 0.
0.664116 0.0109551 0.
0.666146 0.0109377 0.
0.6682 0.0109208 0.
0.670263 0.0109045 0.
0.672328 0.0108873 0.
0.674527 0.0107824 0.
0.676724 0.0106786 0.
0.679001 0.0105637 0.
0.681404 0.0104255 0.
0.683821 0.010286 0.
0.686658 0.00999021 0.
0.689585 0.00967128 0.
0.692926 0.00901249 0.
0.696403 0.00825469 0.
0.700346 0.00741163 0.
0.704992 0.00601847 0.
0.709769 0.0042677 0.
0.71492 0.0021489 0.
0.480185 0.00195667 0.
0.485986 0.00421728 0.
0.490957 0.00607389 0.
0.495599 0.00795251 0.
0.500389 0.00951185 0.
0.504178 0.0103018 0.
0.507472 0.0108765 0.
0.510593 0.0113869 0.
0.51338 0.0117636 0.
0.516128 0.0121423 0.
0.518551 0.0123169 0.
0.520959 0.0124844 0.
0.523241 0.0126201 0.
0.525442 0.0127414 0.
0.527644 0.0128639 0.
0.529712 0.0128862 0.
0.531778 0.0129069 0.
0.533835 0.0129275 0.
0.535867 0.0129464 0.
0.5379 0.0129653 0.
0.539922 0.0129784 0.
0.541936 0.0129861 0.
0.54395 0.0129938 0.
0.545957 0.0129973 0.
0.547962 0.0129994 0.
0.549967 0.0130015 0.
0.551969 0.0130019 0.
0.553971 0.0130022 0.
0.555972 0.0130026 0.
0.557974 0.0130032 0.
0.559976 0.0130037 0.
0.561978 0.0130042 0.
0.563979 0.0130048 0.
0.565981 0.0130054 0.
0.567982 0.0130059 0.
0.569983 0.0130063 0.
0.571985 0.0130067 0.
0.573985 0.0130069 0.
0.575985 0.0130071 0.
0.577985 0.0130073 0.
0.579985 0.0130075 0.
0.581986 0.0130077 0.
0.583986 0.0130079 0.
0.585986 0.013008 0.
0.587986 0.0130082 0.
0.589985 0.0130081 0.
0.591985 0.0130078 0.
0.593985 0.0130075 0.
0.595989 0.0130079 0.
0.597995 0.0130085 0.
0.6 0.0130091 0.
0.602006 0.0130086 0.
0.604011 0.0130082 0.
0.606015 0.0130079 0.
0.608015 0.0130081 0.
0.610014 0.0130083 0.
0.612014 0.0130083 0.
0.614014 0.013008 0.
0.616014 0.0130077 0.
0.618015 0.0130075 0.
0.620015 0.0130074 0.
0.622016 0.0130072 0.
0.624016 0.013007 0.
0.626016 0.0130067 0.
0.628016 0.0130064 0.
0.630018 0.0130059 0.
0.632019 0.0130054 0.
0.63402 0.0130049 0.
0.636022 0.0130045 0.
0.638024 0.0130041 0.
0.640025 0.0130035 0.
0.642027 0.0130027 0.
0.644029 0.0130019 0.
0.646032 0.0130014 0.
0.648034 0.0130009 0.
0.650037 0.0130003 0.
0.652043 0.0129969 0.
0.654049 0.0129935 0.
0.656059 0.0129882 0.
0.65808 0.0129771 0.
0.6601 0.0129661 0.
0.66213 0.0129496 0.
0.664172 0.0129271 0.
0.666214 0.0129046 0.
0.6683 0.0128703 0.
0.670399 0.0128332 0.
0.672507 0.0127911 0.
0.674773 0.0126341 0.
0.677035 0.01248 0.
0.679441 0.0122932 0.
0.681977 0.0120783 0.
0.684595 0.0118107 0.
0.687543 0.0113164 0.
0.690676 0.0107905 0.
0.694161 0.0100527 0.
0.697984 0.00918264 0.
0.702576 0.00791791 0.
0.707462 0.00612935 0.
0.712621 0.00421406 0.
0.718444 0.00195535 0.
0.476844 0.00178598 0.
0.48309 0.00421538 0.
0.488478 0.00608043 0.
0.49342 0.00819125 0.
0.498629 0.0100654 0.
0.502641 0.0111378 0.
0.506304 0.0119872 0.
0.509679 0.0126874 0.
0.512676 0.0132538 0.
0.515544 0.0137813 0.
0.518111 0.0140533 0.
0.520616 0.0142766 0.
0.522997 0.0144662 0.
0.525254 0.0146321 0.
0.527514 0.0148005 0.
0.529612 0.0148378 0.
0.531703 0.0148698 0.
0.533782 0.0149006 0.
0.535824 0.0149246 0.
0.537866 0.0149486 0.
0.539897 0.014966 0.
0.541917 0.0149772 0.
0.543937 0.0149885 0.
0.545947 0.0149935 0.
0.547953 0.0149965 0.
0.54996 0.0149995 0.
0.551963 0.0150003 0.
0.553965 0.015001 0.
0.555967 0.0150018 0.
0.557969 0.0150024 0.
0.559971 0.0150031 0.
0.561973 0.0150038 0.
0.563975 0.0150044 0.
0.565977 0.0150051 0.
0.567978 0.0150056 0.
0.56998 0.0150061 0.
0.571982 0.0150065 0.
0.573982 0.015007 0.
0.575982 0.0150074 0.
0.577983 0.0150078 0.
0.579983 0.015008 0.
0.581984 0.0150083 0.
0.583984 0.0150085 0.
0.585985 0.0150087 0.
0.587985 0.0150089 0.
0.589985 0.0150086 0.
0.591985 0.0150079 0.
0.593985 0.0150072 0.
0.595989 0.0150081 0.
0.597995 0.0150096 0.
0.6 0.015011 0.
0.602006 0.0150097 0.
0.604011 0.0150084 0.
0.606015 0.0150076 0.
0.608015 0.0150082 0.
0.610015 0.0150088 0.
0.612015 0.015009 0.
0.614016 0.0150086 0.
0.616016 0.0150082 0.
0.618017 0.015008 0.
0.620017 0.0150078 0.
0.622018 0.0150076 0.
0.624019 0.0150072 0.
0.626019 0.0150067 0.
0.62802 0.0150062 0.
0.630021 0.0150056 0.
0.632023 0.0150049 0.
0.634024 0.0150044 0.
0.636026 0.015004 0.
0.638028 0.0150036 0.
0.64003 0.0150029 0.
0.642032 0.0150019 0.
0.644035 0.0150009 0.
0.646038 0.015 0.
0.648041 0.014999 0.
0.650044 0.014998 0.
0.652053 0.0149931 0.
0.654062 0.0149881 0.
0.656076 0.0149804 0.
0.658105 0.0149642 0.
0.660133 0.0149482 0.
0.662175 0.0149266 0.
0.664229 0.014899 0.
0.666283 0.0148715 0.
0.668401 0.0148184 0.
0.670537 0.01476 0.
0.672693 0.0146906 0.
0.675028 0.0144804 0.
0.677355 0.0142748 0.
0.679918 0.0140047 0.
0.682593 0.0137104 0.
0.685424 0.0132606 0.
0.68847 0.0125727 0.
0.69187 0.0118034 0.
0.695548 0.0109079 0.
0.699503 0.00995291 0.
0.704755 0.00821968 0.
0.709942 0.00609553 0.
0.715733 0.00405448 0.
0.72208 0.00186321 0.
0.473347 0.00167762 0.
0.47995 0.00399386 0.
0.485815 0.00605952 0.
0.490991 0.00822492 0.
0.496472 0.010283 0.
0.501015 0.0118424 0.
0.505055 0.0130062 0.
0.508656 0.0138886 0.
0.511919 0.0146459 0.
0.514819 0.0152457 0.
0.517514 0.0156395 0.
0.520085 0.0159236 0.
0.522576 0.0161867 0.
0.524885 0.0163935 0.
0.527204 0.0166056 0.
0.529375 0.0166921 0.
0.531526 0.0167668 0.
0.533661 0.0168352 0.
0.535723 0.0168668 0.
0.537786 0.0168986 0.
0.539835 0.0169247 0.
0.54187 0.0169457 0.
0.543905 0.0169668 0.
0.545923 0.0169778 0.
0.547935 0.0169852 0.
0.549948 0.0169927 0.
0.551952 0.016995 0.
0.553956 0.0169973 0.
0.555961 0.0169993 0.
0.557964 0.0170006 0.
0.559967 0.0170019 0.
0.561969 0.017003 0.
0.563971 0.0170038 0.
0.565974 0.0170047 0.
0.567975 0.0170053 0.
0.569977 0.0170059 0.
0.571979 0.0170065 0.
0.57398 0.0170071 0.
0.57598 0.0170077 0.
0.577981 0.0170083 0.
0.579982 0.0170085 0.
0.581983 0.0170087 0.
0.583984 0.017009 0.
0.585984 0.0170092 0.
0.587985 0.0170095 0.
0.589985 0.0170091 0.
0.591986 0.0170083 0.
0.593986 0.0170074 0.
0.59599 0.0170088 0.
0.597995 0.0170108 0.
0.6 0.0170128 0.
0.602005 0.017011 0.
0.60401 0.0170091 0.
0.606014 0.0170078 0.
0.608014 0.0170085 0.
0.610015 0.0170091 0.
0.612015 0.0170093 0.
0.614016 0.017009 0.
0.616017 0.0170086 0.
0.618018 0.0170084 0.
0.620019 0.0170081 0.
0.62202 0.0170078 0.
0.624021 0.0170073 0.
0.626021 0.0170066 0.
0.628022 0.017006 0.
0.630024 0.0170052 0.
0.632026 0.0170045 0.
0.634028 0.0170037 0.
0.63603 0.0170029 0.
0.638033 0.0170021 0.
0.640036 0.0170008 0.
0.642039 0.0169991 0.
0.644043 0.0169974 0.
0.646049 0.0169943 0.
0.648055 0.0169909 0.
0.650061 0.0169873 0.
0.652078 0.0169767 0.
0.654096 0.016966 0.
0.65612 0.016951 0.
0.658166 0.0169236 0.
0.660212 0.0168965 0.
0.662276 0.0168642 0.
0.664358 0.0168265 0.
0.666439 0.016789 0.
0.668632 0.0166825 0.
0.670842 0.0165678 0.
0.673085 0.0164349 0.
0.675471 0.0161798 0.
0.677844 0.0159346 0.
0.680547 0.0155704 0.
0.683304 0.0152092 0.
0.686306 0.0145649 0.
0.689449 0.0137314 0.
0.693111 0.01275 0.
0.697148 0.0116128 0.
0.701455 0.0103731 0.
0.706888 0.00835476 0.
0.712402 0.00604807 0.
0.718738 0.00397304 0.
0.725629 0.0017065 0.
0.469643 0.00152703 0.
0.476586 0.00377527 0.
0.483159 0.0059891 0.
0.488615 0.00814537 0.
0.494323 0.0104142 0.
0.499234 0.0123739 0.
0.503571 0.0138205 0.
0.507441 0.0148994 0.
0.510875 0.0157832 0.
0.513861 0.0165015 0.
0.516781 0.0171197 0.
0.51945 0.0174988 0.
0.522093 0.0178726 0.
0.524475 0.0181306 0.
0.526869 0.0183947 0.
0.529121 0.0185351 0.
0.531338 0.0186562 0.
0.533536 0.0187681 0.
0.53562 0.0188078 0.
0.537704 0.0188476 0.
0.539772 0.0188828 0.
0.541822 0.0189137 0.
0.543872 0.0189448 0.
0.545899 0.0189619 0.
0.547917 0.0189738 0.
0.549935 0.0189858 0.
0.551942 0.0189897 0.
0.553948 0.0189935 0.
0.555954 0.0189969 0.
0.557958 0.0189988 0.
0.559962 0.0190007 0.
0.561965 0.0190022 0.
0.563968 0.0190033 0.
0.56597 0.0190043 0.
0.567973 0.0190051 0.
0.569975 0.0190057 0.
0.571977 0.0190064 0.
0.573978 0.0190072 0.
0.575978 0.0190079 0.
0.577979 0.0190087 0.
0.57998 0.019009 0.
0.581982 0.0190092 0.
0.583983 0.0190095 0.
0.585984 0.0190098 0.
0.587985 0.01901 0.
0.589986 0.0190096 0.
0.591987 0.0190087 0.
0.593987 0.0190077 0.
0.595991 0.0190095 0.
0.597996 0.0190121 0.
0.6 0.0190146 0.
0.602005 0.0190122 0.
0.604009 0.0190098 0.
0.606012 0.0190081 0.
0.608013 0.0190088 0.
0.610014 0.0190094 0.
0.612016 0.0190096 0.
0.614017 0.0190094 0.
0.616018 0.0190091 0.
0.618019 0.0190088 0.
0.620021 0.0190084 0.
0.622022 0.0190081 0.
0.624023 0.0190073 0.
0.626024 0.0190066 0.
0.628024 0.0190058 0.
0.630027 0.0190049 0.
0.632029 0.019004 0.
0.634031 0.019003 0.
0.636034 0.0190018 0.
0.638037 0.0190007 0.
0.640041 0.0189988 0.
0.642047 0.0189963 0.
0.644052 0.0189939 0.
0.64606 0.0189887 0.
0.648069 0.0189828 0.
0.650078 0.0189766 0.
0.652104 0.0189601 0.
0.654129 0.0189437 0.
0.656165 0.0189212 0.
0.658228 0.0188824 0.
0.660291 0.0188438 0.
0.662381 0.0188003 0.
0.664493 0.0187517 0.
0.666603 0.0187034 0.
0.668884 0.0185333 0.
0.671178 0.0183558 0.
0.673519 0.0181502 0.
0.675979 0.0178347 0.
0.678467 0.0175131 0.
0.681307 0.0170198 0.
0.684216 0.0164948 0.
0.687362 0.0156328 0.
0.690609 0.0147211 0.
0.69441 0.0136222 0.
0.698904 0.0121752 0.
0.703655 0.0105393 0.
0.709311 0.00831082 0.
0.715123 0.00590445 0.
0.72213 0.00394729 0.
0.729267 0.0015418 0.
0.465348 0.00127445 0.
0.472687 0.00369577 0.
0.480278 0.00573463 0.
0.486065 0.00807915 0.
0.491996 0.0103718 0.
0.49712 0.0125741 0.
0.501929 0.0144201 0.
0.50602 0.0157038 0.
0.509609 0.0167836 0.
0.512844 0.0176877 0.
0.515987 0.0185294 0.
0.518798 0.0190432 0.
0.521574 0.0195314 0.
0.524068 0.0198417 0.
0.526527 0.0201442 0.
0.528856 0.0203419 0.
0.53113 0.0205156 0.
0.53339 0.0206832 0.
0.535498 0.0207322 0.
0.537608 0.0207816 0.
0.539698 0.0208275 0.
0.541763 0.0208704 0.
0.543828 0.0209136 0.
0.545865 0.0209385 0.
0.547891 0.0209564 0.
0.549917 0.0209744 0.
0.551927 0.0209809 0.
0.553936 0.020987 0.
0.555945 0.0209925 0.
0.55795 0.0209953 0.
0.559956 0.0209982 0.
0.56196 0.0210004 0.
0.563964 0.0210017 0.
0.565967 0.021003 0.
0.567969 0.021004 0.
0.569972 0.0210049 0.
0.571974 0.0210057 0.
0.573976 0.0210066 0.
0.575976 0.0210075 0.
0.577977 0.0210084 0.
0.579979 0.0210087 0.
0.581981 0.021009 0.
0.583982 0.0210093 0.
0.585983 0.0210096 0.
0.587985 0.0210098 0.
0.589986 0.0210094 0.
0.591987 0.0210084 0.
0.593989 0.0210074 0.
0.595992 0.0210092 0.
0.597996 0.0210119 0.
0.6 0.0210145 0.
0.602004 0.0210121 0.
0.604008 0.0210096 0.
0.606011 0.0210079 0.
0.608013 0.0210085 0.
0.610014 0.0210091 0.
0.612016 0.0210093 0.
0.614017 0.021009 0.
0.616019 0.0210088 0.
0.618021 0.0210084 0.
0.620022 0.0210081 0.
0.622024 0.0210077 0.
0.624025 0.0210068 0.
0.626026 0.0210059 0.
0.628027 0.0210049 0.
0.63003 0.0210038 0.
0.632032 0.0210027 0.
0.634035 0.0210014 0.
0.636039 0.0209997 0.
0.638043 0.020998 0.
0.640048 0.0209952 0.
0.642056 0.0209915 0.
0.644063 0.0209878 0.
0.646075 0.0209797 0.
0.648087 0.0209705 0.
0.650101 0.0209607 0.
0.652138 0.0209361 0.
0.654174 0.0209116 0.
0.656223 0.0208794 0.
0.658304 0.0208281 0.
0.660385 0.0207771 0.
0.662505 0.0207166 0.
0.66465 0.0206502 0.
0.666797 0.0205839 0.
0.669154 0.0203462 0.
0.671518 0.0201093 0.
0.673951 0.0198334 0.
0.676484 0.0194667 0.
0.679124 0.0190542 0.
0.682084 0.0184333 0.
0.685215 0.0176656 0.
0.688503 0.0166113 0.
0.69201 0.0155132 0.
0.69601 0.0142715 0.
0.700766 0.012606 0.
0.705828 0.0106028 0.
0.711724 0.00818747 0.
0.717817 0.00574732 0.
0.725941 0.00372252 0.
0.733916 0.00128779 0.
0.459464 0.000906388 0.
0.468598 0.00352127 0.
0.477415 0.00546298 0.
0.483512 0.00799087 0.
0.489728 0.0102986 0.
0.495075 0.0126932 0.
0.500341 0.014907 0.
0.504567 0.0163964 0.
0.508361 0.0176882 0.
0.511885 0.0188054 0.
0.515193 0.0198037 0.
0.518155 0.0204452 0.
0.52102 0.0209983 0.
0.523631 0.0214028 0.
0.526153 0.0217848 0.
0.528562 0.0220745 0.
0.530887 0.022323 0.
0.533208 0.02257 0.
0.53535 0.0226337 0.
0.537492 0.0226962 0.
0.53961 0.0227561 0.
0.54169 0.0228139 0.
0.543771 0.0228721 0.
0.545821 0.0229072 0.
0.547858 0.0229327 0.
0.549895 0.0229582 0.
0.551909 0.0229683 0.
0.553922 0.0229777 0.
0.555934 0.0229861 0.
0.557942 0.0229902 0.
0.559949 0.0229943 0.
0.561955 0.0229974 0.
0.563959 0.0229991 0.
0.565963 0.0230009 0.
0.567966 0.0230022 0.
0.569969 0.0230033 0.
0.571972 0.0230044 0.
0.573973 0.0230054 0.
0.575975 0.0230064 0.
0.577976 0.0230074 0.
0.579978 0.0230078 0.
0.581979 0.0230082 0.
0.583981 0.0230085 0.
0.585983 0.0230087 0.
0.587985 0.0230089 0.
0.589987 0.0230085 0.
0.591988 0.0230075 0.
0.59399 0.0230066 0.
0.595993 0.0230081 0.
0.597997 0.0230102 0.
0.6 0.0230124 0.
0.602004 0.0230104 0.
0.604007 0.0230085 0.
0.606011 0.0230071 0.
0.608012 0.0230076 0.
0.610014 0.0230081 0.
0.612016 0.0230082 0.
0.614018 0.023008 0.
0.61602 0.0230078 0.
0.618022 0.0230074 0.
0.620024 0.023007 0.
0.622025 0.0230066 0.
0.624027 0.0230056 0.
0.626028 0.0230045 0.
0.628029 0.0230034 0.
0.630032 0.023002 0.
0.632036 0.0230006 0.
0.63404 0.0229988 0.
0.636044 0.0229965 0.
0.638049 0.0229941 0.
0.640057 0.02299 0.
0.642067 0.0229845 0.
0.644077 0.0229791 0.
0.646093 0.0229672 0.
0.648111 0.0229538 0.
0.650131 0.0229393 0.
0.652181 0.0229038 0.
0.654231 0.0228685 0.
0.656296 0.0228242 0.
0.658398 0.0227584 0.
0.660498 0.0226931 0.
0.662658 0.0226039 0.
0.664848 0.0225044 0.
0.667051 0.0223966 0.
0.66946 0.0220754 0.
0.671868 0.0217603 0.
0.674412 0.0213889 0.
0.677027 0.0209565 0.
0.679807 0.0204258 0.
0.682798 0.0197654 0.
0.686163 0.0187549 0.
0.689607 0.0175345 0.
0.693374 0.0162405 0.
0.697776 0.014699 0.
0.702776 0.0128552 0.
0.708069 0.0105266 0.
0.714294 0.00801495 0.
0.720726 0.00563024 0.
0.72989 0.00348987 0.
0.7399 0.000910317 0.
0.449743 0.000668936 0.
0.464542 0.00331746 0.
0.474316 0.00532917 0.
0.481042 0.00782939 0.
0.487589 0.0102464 0.
0.493053 0.0127281 0.
0.498432 0.0151125 0.
0.502936 0.0168558 0.
0.50711 0.0185075 0.
0.510885 0.0197836 0.
0.5142 0.0208393 0.
0.51739 0.0217268 0.
0.520391 0.0224047 0.
0.523172 0.0229445 0.
0.525763 0.0234093 0.
0.528261 0.0237971 0.
0.530638 0.0241213 0.
0.533017 0.0244495 0.
0.5352 0.0245341 0.
0.537375 0.0246099 0.
0.539521 0.024684 0.
0.541617 0.0247568 0.
0.543713 0.0248301 0.
0.545776 0.0248757 0.
0.547824 0.0249088 0.
0.549872 0.024942 0.
0.55189 0.0249556 0.
0.553908 0.0249683 0.
0.555923 0.0249796 0.
0.557933 0.024985 0.
0.559942 0.0249904 0.
0.56195 0.0249944 0.
0.563955 0.0249966 0.
0.565959 0.0249987 0.
0.567963 0.0250004 0.
0.569967 0.0250018 0.
0.57197 0.0250032 0.
0.573971 0.0250043 0.
0.575973 0.0250054 0.
0.577974 0.0250064 0.
0.579976 0.0250068 0.
0.581978 0.0250073 0.
0.583981 0.0250076 0.
0.585983 0.0250078 0.
0.587985 0.025008 0.
0.589987 0.0250076 0.
0.591989 0.0250067 0.
0.593991 0.0250058 0.
0.595994 0.0250069 0.
0.597997 0.0250086 0.
0.6 0.0250102 0.
0.602004 0.0250088 0.
0.604007 0.0250074 0.
0.60601 0.0250063 0.
0.608012 0.0250067 0.
0.610014 0.0250071 0.
0.612016 0.0250072 0.
0.614018 0.025007 0.
0.61602 0.0250067 0.
0.618023 0.0250064 0.
0.620025 0.025006 0.
0.622027 0.0250056 0.
0.624029 0.0250044 0.
0.62603 0.0250032 0.
0.628031 0.0250019 0.
0.630035 0.0250002 0.
0.632039 0.0249984 0.
0.634044 0.0249963 0.
0.63605 0.0249932 0.
0.638056 0.0249902 0.
0.640065 0.0249848 0.
0.642078 0.0249776 0.
0.644091 0.0249704 0.
0.646112 0.0249547 0.
0.648135 0.024937 0.
0.650161 0.0249177 0.
0.652225 0.0248713 0.
0.654288 0.0248251 0.
0.65637 0.0247684 0.
0.658492 0.0246881 0.
0.660612 0.0246084 0.
0.662814 0.0244879 0.
0.665051 0.0243544 0.
0.667314 0.0241989 0.
0.669773 0.0237936 0.
0.672226 0.0233995 0.
0.674907 0.0229233 0.
0.677631 0.0224099 0.
0.68062 0.0216575 0.
0.683705 0.020846 0.
0.68716 0.0196983 0.
0.690795 0.0183588 0.
0.694751 0.0168907 0.
0.699595 0.0149965 0.
0.70479 0.0129561 0.
0.710323 0.0104032 0.
0.716796 0.0078009 0.
0.723735 0.00552315 0.
0.734125 0.00336738 0.
0.750029 0.000663443 0.
0.43847 0.000765717 0.
0.460665 0.00299068 0.
0.471203 0.00526385 0.
0.47868 0.00760636 0.
0.485294 0.0102151 0.
0.490996 0.0126742 0.
0.496463 0.0151808 0.
0.501255 0.0171885 0.
0.505858 0.0192346 0.
0.509628 0.0205846 0.
0.513142 0.0217942 0.
0.516578 0.0229685 0.
0.519706 0.0237611 0.
0.52268 0.0244483 0.
0.525318 0.0249796 0.
0.527878 0.025451 0.
0.530283 0.0258225 0.
0.532706 0.0262006 0.
0.534953 0.0263403 0.
0.537175 0.0264577 0.
0.539367 0.0265685 0.
0.541486 0.026656 0.
0.543606 0.0267444 0.
0.545691 0.0268062 0.
0.547758 0.0268551 0.
0.549826 0.0269044 0.
0.551854 0.0269259 0.
0.553879 0.0269456 0.
0.555902 0.0269633 0.
0.557916 0.0269716 0.
0.559929 0.0269798 0.
0.56194 0.0269863 0.
0.563947 0.0269904 0.
0.565954 0.0269944 0.
0.567959 0.0269972 0.
0.569963 0.0269994 0.
0.571967 0.0270015 0.
0.573969 0.0270028 0.
0.575971 0.027004 0.
0.577973 0.0270052 0.
0.579975 0.0270056 0.
0.581977 0.0270061 0.
0.58398 0.0270064 0.
0.585982 0.0270066 0.
0.587985 0.0270068 0.
0.589987 0.0270065 0.
0.591989 0.0270058 0.
0.593992 0.0270051 0.
0.595994 0.0270061 0.
0.597997 0.0270075 0.
0.6 0.0270088 0.
0.602003 0.0270076 0.
0.604006 0.0270064 0.
0.606009 0.0270055 0.
0.608011 0.0270058 0.
0.610014 0.0270061 0.
0.612016 0.0270061 0.
0.614019 0.0270059 0.
0.616021 0.0270056 0.
0.618024 0.0270052 0.
0.620026 0.0270048 0.
0.622029 0.0270043 0.
0.624031 0.0270029 0.
0.626032 0.0270013 0.
0.628035 0.0269996 0.
0.630039 0.0269968 0.
0.632044 0.0269941 0.
0.63405 0.0269903 0.
0.636059 0.0269848 0.
0.638068 0.0269792 0.
0.640083 0.0269706 0.
0.642101 0.0269599 0.
0.644119 0.0269493 0.
0.646151 0.0269254 0.
0.648185 0.0268988 0.
0.650223 0.0268693 0.
0.652308 0.0268034 0.
0.654393 0.0267382 0.
0.656504 0.0266619 0.
0.658659 0.0265631 0.
0.660811 0.0264657 0.
0.663065 0.0262959 0.
0.665347 0.0261131 0.
0.66768 0.0258858 0.
0.670171 0.0254257 0.
0.672651 0.0249823 0.
0.675455 0.0244215 0.
0.678306 0.0238035 0.
0.681482 0.0228168 0.
0.684767 0.0217907 0.
0.688294 0.0204857 0.
0.692028 0.0190706 0.
0.696415 0.0172691 0.
0.701458 0.0151986 0.
0.706748 0.012989 0.
0.712501 0.0102818 0.
0.719278 0.0076443 0.
0.726832 0.00529859 0.
0.738018 0.00306056 0.
0.764977 0.000860151 0.
0.426178 0.00121565 0.
0.456926 0.00254012 0.
0.467919 0.00515806 0.
0.476278 0.00739096 0.
0.483023 0.0101614 0.
0.48898 0.0125947 0.
0.494522 0.0152135 0.
0.499584 0.0174484 0.
0.504407 0.0197537 0.
0.508232 0.0212484 0.
0.512042 0.0226646 0.
0.515654 0.0240583 0.
0.518909 0.025 0.
0.52198 0.0257984 0.
0.524666 0.0264086 0.
0.527373 0.0270316 0.
0.529856 0.0274704 0.
0.532346 0.0279073 0.
0.534676 0.0281184 0.
0.536954 0.0282883 0.
0.539201 0.0284468 0.
0.541347 0.0285505 0.
0.543494 0.028655 0.
0.545604 0.0287342 0.
0.547691 0.0287997 0.
0.549779 0.0288659 0.
0.551816 0.0288957 0.
0.553849 0.0289227 0.
0.555879 0.0289469 0.
0.557898 0.028958 0.
0.559916 0.0289692 0.
0.561931 0.0289782 0.
0.56394 0.0289842 0.
0.565949 0.0289901 0.
0.567955 0.0289941 0.
0.56996 0.0289969 0.
0.571965 0.0289998 0.
0.573967 0.0290014 0.
0.575969 0.0290027 0.
0.577971 0.029004 0.
0.579974 0.0290044 0.
0.581977 0.0290048 0.
0.583979 0.0290052 0.
0.585982 0.0290054 0.
0.587985 0.0290057 0.
0.589988 0.0290055 0.
0.59199 0.029005 0.
0.593992 0.0290045 0.
0.595995 0.0290052 0.
0.597998 0.0290063 0.
0.6 0.0290074 0.
0.602003 0.0290065 0.
0.604006 0.0290055 0.
0.606009 0.0290047 0.
0.608011 0.0290049 0.
0.610014 0.0290051 0.
0.612016 0.029005 0.
0.614019 0.0290048 0.
0.616022 0.0290045 0.
0.618025 0.0290041 0.
0.620027 0.0290036 0.
0.62203 0.0290031 0.
0.624033 0.0290013 0.
0.626035 0.0289994 0.
0.628038 0.0289973 0.
0.630043 0.0289935 0.
0.632049 0.0289897 0.
0.634057 0.0289844 0.
0.636069 0.0289762 0.
0.638081 0.0289681 0.
0.6401 0.0289564 0.
0.642124 0.0289421 0.
0.644148 0.0289279 0.
0.64619 0.0288957 0.
0.648235 0.0288598 0.
0.650286 0.0288193 0.
0.652395 0.028733 0.
0.654502 0.0286476 0.
0.656647 0.0285495 0.
0.658841 0.0284293 0.
0.661032 0.0283107 0.
0.663348 0.0280785 0.
0.665685 0.0278358 0.
0.668115 0.0275127 0.
0.670683 0.0269712 0.
0.673296 0.0264208 0.
0.676164 0.0257591 0.
0.679111 0.0250125 0.
0.682387 0.0238824 0.
0.685894 0.0226446 0.
0.689509 0.0211916 0.
0.693318 0.0196843 0.
0.698137 0.0175187 0.
0.703407 0.0153128 0.
0.708798 0.0128833 0.
0.714752 0.0101219 0.
0.721709 0.00755118 0.
0.729908 0.00511979 0.
0.741448 0.00271249 0.
0.777388 0.00151543 0.
0.418516 0.00167753 0.
0.453277 0.0022482 0.
0.464598 0.00504662 0.
0.473759 0.00722303 0.
0.48068 0.0100258 0.
0.486945 0.0125113 0.
0.492579 0.0151908 0.
0.497793 0.0175757 0.
0.502616 0.0199351 0.
0.506774 0.0217997 0.
0.510919 0.023449 0.
0.514589 0.0249267 0.
0.517904 0.0260414 0.
0.521099 0.02702 0.
0.523978 0.0277965 0.
0.526823 0.0285703 0.
0.529423 0.0291061 0.
0.531982 0.0295976 0.
0.534403 0.0298792 0.
0.53673 0.0301 0.
0.539031 0.0303122 0.
0.541201 0.0304305 0.
0.543375 0.0305501 0.
0.545508 0.0306473 0.
0.547614 0.0307316 0.
0.549722 0.0308172 0.
0.55177 0.0308575 0.
0.553813 0.0308933 0.
0.555852 0.0309257 0.
0.557876 0.0309404 0.
0.559899 0.0309551 0.
0.561918 0.0309672 0.
0.56393 0.0309755 0.
0.565942 0.0309838 0.
0.56795 0.0309893 0.
0.569956 0.0309933 0.
0.571961 0.0309973 0.
0.573964 0.0309992 0.
0.575967 0.0310008 0.
0.57797 0.0310023 0.
0.579973 0.0310028 0.
0.581976 0.0310032 0.
0.583979 0.0310036 0.
0.585982 0.0310039 0.
0.587985 0.0310042 0.
0.589988 0.0310042 0.
0.59199 0.0310038 0.
0.593993 0.0310035 0.
0.595995 0.0310041 0.
0.597998 0.031005 0.
0.6 0.0310059 0.
0.602003 0.0310051 0.
0.604006 0.0310042 0.
0.606008 0.0310036 0.
0.608011 0.0310036 0.
0.610014 0.0310037 0.
0.612017 0.0310036 0.
0.61402 0.0310033 0.
0.616023 0.031003 0.
0.618026 0.0310025 0.
0.620029 0.0310018 0.
0.622032 0.0310011 0.
0.624035 0.030999 0.
0.626038 0.0309966 0.
0.628042 0.0309939 0.
0.630049 0.0309887 0.
0.632056 0.0309834 0.
0.634066 0.030976 0.
0.636082 0.0309646 0.
0.638098 0.0309533 0.
0.640122 0.0309378 0.
0.642152 0.0309194 0.
0.644183 0.030901 0.
0.646237 0.0308577 0.
0.648295 0.0308101 0.
0.65036 0.030756 0.
0.65249 0.0306486 0.
0.654618 0.0305425 0.
0.656796 0.0304198 0.
0.659028 0.0302769 0.
0.661256 0.0301387 0.
0.663631 0.0298456 0.
0.66602 0.0295436 0.
0.668556 0.029118 0.
0.671205 0.0284967 0.
0.67398 0.0278167 0.
0.676949 0.0270177 0.
0.680092 0.0260037 0.
0.683333 0.0248174 0.
0.687037 0.023434 0.
0.690898 0.0217442 0.
0.694745 0.0201491 0.
0.69989 0.0176663 0.
0.705323 0.0153665 0.
0.710853 0.0127269 0.
0.716981 0.00994987 0.
0.724225 0.00742021 0.
0.733223 0.00506373 0.
0.744759 0.0023573 0.
0.781406 0.00192392 0.
0.414517 0.00191764 0.
0.449468 0.00217292 0.
0.461106 0.00486235 0.
0.471137 0.00710768 0.
0.478371 0.00979227 0.
0.484869 0.0124618 0.
0.490644 0.0150969 0.
0.495964 0.0176437 0.
0.50087 0.0200585 0.
0.505327 0.0222861 0.
0.50961 0.0240964 0.
0.51338 0.0256231 0.
0.51692 0.0270372 0.
0.520222 0.0281772 0.
0.523316 0.0291391 0.
0.52627 0.0300148 0.
0.528967 0.0306295 0.
0.531581 0.0311617 0.
0.534091 0.0315382 0.
0.536471 0.0318415 0.
0.538841 0.032142 0.
0.54104 0.0322791 0.
0.543241 0.0324176 0.
0.545401 0.0325373 0.
0.547525 0.0326457 0.
0.549651 0.0327557 0.
0.551713 0.0328097 0.
0.553768 0.0328567 0.
0.555819 0.0328993 0.
0.557849 0.0329183 0.
0.559878 0.0329373 0.
0.561902 0.0329531 0.
0.563917 0.0329642 0.
0.565933 0.0329753 0.
0.567943 0.0329829 0.
0.56995 0.0329885 0.
0.571958 0.032994 0.
0.573962 0.0329964 0.
0.575965 0.0329982 0.
0.577968 0.033 0.
0.579972 0.0330006 0.
0.581975 0.0330013 0.
0.583978 0.0330018 0.
0.585981 0.0330021 0.
0.587985 0.0330024 0.
0.589987 0.0330024 0.
0.59199 0.0330023 0.
0.593992 0.0330021 0.
0.595995 0.0330027 0.
0.597998 0.0330035 0.
0.6 0.0330044 0.
0.602003 0.0330035 0.
0.604006 0.0330027 0.
0.606009 0.033002 0.
0.608011 0.033002 0.
0.610014 0.0330019 0.
0.612017 0.0330017 0.
0.61402 0.0330015 0.
0.616023 0.0330012 0.
0.618027 0.0330005 0.
0.62003 0.0329995 0.
0.622034 0.0329985 0.
0.624038 0.0329958 0.
0.626042 0.0329929 0.
0.628047 0.0329895 0.
0.630056 0.0329823 0.
0.632065 0.0329752 0.
0.634078 0.032965 0.
0.636098 0.0329497 0.
0.638119 0.0329344 0.
0.640149 0.0329144 0.
0.642187 0.0328911 0.
0.644224 0.0328678 0.
0.646293 0.0328097 0.
0.648366 0.0327464 0.
0.65045 0.0326744 0.
0.652601 0.0325431 0.
0.65475 0.0324135 0.
0.656964 0.0322505 0.
0.659233 0.0320615 0.
0.661507 0.0318742 0.
0.663956 0.0315119 0.
0.666398 0.0311515 0.
0.669024 0.0306142 0.
0.671695 0.0299568 0.
0.674634 0.0291572 0.
0.677699 0.028243 0.
0.681055 0.026941 0.
0.684465 0.0256101 0.
0.688162 0.0241693 0.
0.692343 0.0222045 0.
0.696523 0.0202664 0.
0.701681 0.0177732 0.
0.707282 0.0153513 0.
0.712879 0.0125723 0.
0.719225 0.00982107 0.
0.726768 0.00716724 0.
0.736725 0.00495956 0.
0.748146 0.00217783 0.
0.783312 0.00232423 0.
0.413976 0.00229454 0.
0.445883 0.00218416 0.
0.457854 0.00450432 0.
0.468493 0.00697183 0.
0.476195 0.00957953 0.
0.482838 0.0123947 0.
0.48877 0.0150129 0.
0.494214 0.017696 0.
0.499199 0.0201657 0.
0.503779 0.0226076 0.
0.508138 0.0245946 0.
0.51216 0.0262672 0.
0.515909 0.0279491 0.
0.519324 0.0292353 0.
0.522565 0.0303302 0.
0.525546 0.0312866 0.
0.52842 0.0320717 0.
0.531132 0.0326916 0.
0.533765 0.0331833 0.
0.536203 0.0335716 0.
0.538642 0.0339653 0.
0.540875 0.0341264 0.
0.543105 0.0342838 0.
0.545292 0.0344259 0.
0.547435 0.0345586 0.
0.549579 0.0346933 0.
0.551656 0.0347617 0.
0.553723 0.0348197 0.
0.555787 0.0348729 0.
0.557822 0.0348961 0.
0.559857 0.0349194 0.
0.561886 0.0349389 0.
0.563905 0.0349528 0.
0.565924 0.0349668 0.
0.567936 0.0349764 0.
0.569945 0.0349836 0.
0.571954 0.0349907 0.
0.573959 0.0349935 0.
0.575963 0.0349957 0.
0.577967 0.0349977 0.
0.579971 0.0349985 0.
0.581974 0.0349993 0.
0.583978 0.0349999 0.
0.585981 0.0350002 0.
0.587984 0.0350005 0.
0.589987 0.0350007 0.
0.59199 0.0350008 0.
0.593992 0.0350008 0.
0.595995 0.0350014 0.
0.597998 0.0350021 0.
0.6 0.0350028 0.
0.602003 0.035002 0.
0.604006 0.0350011 0.
0.606009 0.0350005 0.
0.608011 0.0350003 0.
0.610014 0.0350001 0.
0.612017 0.0349999 0.
0.61402 0.0349997 0.
0.616024 0.0349994 0.
0.618027 0.0349985 0.
0.620031 0.0349972 0.
0.622036 0.0349958 0.
0.624041 0.0349926 0.
0.626046 0.0349892 0.
0.628052 0.034985 0.
0.630063 0.0349759 0.
0.632073 0.0349669 0.
0.63409 0.0349541 0.
0.636115 0.0349348 0.
0.63814 0.0349155 0.
0.640177 0.0348909 0.
0.642221 0.0348627 0.
0.644265 0.0348345 0.
0.64635 0.0347613 0.
0.648439 0.0346822 0.
0.650541 0.0345918 0.
0.652714 0.0344365 0.
0.654884 0.0342832 0.
0.657136 0.0340762 0.
0.659442 0.0338402 0.
0.661771 0.0336024 0.
0.6643 0.0331659 0.
0.666814 0.0327333 0.
0.66958 0.032036 0.
0.672342 0.0312725 0.
0.675384 0.0303504 0.
0.678497 0.0293484 0.
0.682022 0.0278179 0.
0.685698 0.0263062 0.
0.689309 0.0248323 0.
0.693805 0.0225911 0.
0.698286 0.0203198 0.
0.703535 0.017852 0.
0.709232 0.0152415 0.
0.714904 0.0123828 0.
0.72149 0.0097447 0.
0.729212 0.00696784 0.
0.740041 0.0048171 0.
0.751402 0.00217835 0.
0.783641 0.00282018 0.
0.41445 0.00282168 0.
0.44275 0.00228683 0.
0.45495 0.00418482 0.
0.465993 0.00686047 0.
0.474061 0.00943309 0.
0.480888 0.0123014 0.
0.48696 0.0149611 0.
0.492531 0.0177465 0.
0.497555 0.0202519 0.
0.502237 0.0228041 0.
0.506642 0.0249926 0.
0.51094 0.0268719 0.
0.514798 0.0286976 0.
0.518344 0.0301514 0.
0.521701 0.0314344 0.
0.524784 0.0325187 0.
0.527844 0.0334899 0.
0.530647 0.0341908 0.
0.53341 0.0347994 0.
0.535879 0.0352457 0.
0.538355 0.0357098 0.
0.540635 0.0359119 0.
0.542899 0.0360978 0.
0.545124 0.0362705 0.
0.54729 0.0364254 0.
0.54946 0.0365825 0.
0.551562 0.0366741 0.
0.55365 0.0367538 0.
0.555734 0.036828 0.
0.557776 0.0368562 0.
0.559819 0.0368845 0.
0.561855 0.0369095 0.
0.563881 0.0369295 0.
0.565907 0.0369497 0.
0.567924 0.0369632 0.
0.569935 0.036973 0.
0.571947 0.0369828 0.
0.573953 0.036987 0.
0.575959 0.0369903 0.
0.577964 0.0369934 0.
0.579969 0.0369948 0.
0.581973 0.0369962 0.
0.583977 0.0369974 0.
0.585981 0.036998 0.
0.587984 0.0369987 0.
0.589987 0.0369991 0.
0.59199 0.0369994 0.
0.593992 0.0369998 0.
0.595995 0.0370002 0.
0.597998 0.0370006 0.
0.6 0.0370011 0.
0.602003 0.0370004 0.
0.604006 0.0369998 0.
0.606008 0.0369992 0.
0.608011 0.0369988 0.
0.610014 0.0369984 0.
0.612017 0.0369978 0.
0.614021 0.0369971 0.
0.616025 0.0369963 0.
0.618029 0.0369947 0.
0.620034 0.0369927 0.
0.622039 0.0369907 0.
0.624046 0.036986 0.
0.626053 0.036981 0.
0.628061 0.036975 0.
0.630076 0.0369624 0.
0.632091 0.0369498 0.
0.634112 0.0369319 0.
0.636145 0.0369049 0.
0.638178 0.036878 0.
0.640224 0.0368474 0.
0.642276 0.036814 0.
0.644329 0.0367808 0.
0.646441 0.0366784 0.
0.648556 0.0365704 0.
0.650687 0.0364531 0.
0.652884 0.0362797 0.
0.655076 0.0361084 0.
0.657375 0.0358483 0.
0.659718 0.0355618 0.
0.662103 0.035269 0.
0.664673 0.0347877 0.
0.667279 0.0342677 0.
0.670169 0.0334214 0.
0.673084 0.0325289 0.
0.676268 0.0314235 0.
0.679466 0.0302133 0.
0.682988 0.0286385 0.
0.686985 0.0269137 0.
0.690861 0.025138 0.
0.69526 0.0229119 0.
0.69997 0.0203689 0.
0.705358 0.0179071 0.
0.711065 0.015136 0.
0.716863 0.0122377 0.
0.72365 0.00967907 0.
0.731659 0.00684771 0.
0.742979 0.0046332 0.
0.75453 0.00224392 0.
0.783427 0.00337469 0.
0.415055 0.00342371 0.
0.44005 0.00250741 0.
0.452246 0.00410943 0.
0.463545 0.00678079 0.
0.472059 0.0093433 0.
0.479049 0.0122025 0.
0.485144 0.0149415 0.
0.490888 0.0177572 0.
0.495948 0.0203241 0.
0.500726 0.0229244 0.
0.505167 0.0253214 0.
0.509636 0.0273916 0.
0.513613 0.0293212 0.
0.51728 0.030962 0.
0.520733 0.0324446 0.
0.523988 0.0336854 0.
0.527206 0.0348239 0.
0.530048 0.0355615 0.
0.532896 0.0362717 0.
0.535436 0.0368129 0.
0.537974 0.0373755 0.
0.540333 0.037656 0.
0.542652 0.0378866 0.
0.544933 0.0381019 0.
0.547131 0.0382815 0.
0.549333 0.0384638 0.
0.551462 0.0385812 0.
0.553573 0.0386848 0.
0.55568 0.0387822 0.
0.55773 0.0388156 0.
0.559781 0.038849 0.
0.561825 0.0388796 0.
0.563857 0.0389059 0.
0.56589 0.0389323 0.
0.567911 0.0389499 0.
0.569926 0.0389624 0.
0.57194 0.0389749 0.
0.573948 0.0389804 0.
0.575955 0.0389849 0.
0.577962 0.0389891 0.
0.579967 0.0389912 0.
0.581972 0.0389932 0.
0.583977 0.0389949 0.
0.58598 0.0389958 0.
0.587984 0.0389968 0.
0.589987 0.0389975 0.
0.59199 0.0389981 0.
0.593993 0.0389987 0.
0.595995 0.038999 0.
0.597998 0.0389992 0.
0.6 0.0389994 0.
0.602003 0.0389989 0.
0.604005 0.0389984 0.
0.606008 0.0389979 0.
0.608011 0.0389973 0.
0.610014 0.0389967 0.
0.612017 0.0389957 0.
0.614021 0.0389945 0.
0.616025 0.0389933 0.
0.618031 0.038991 0.
0.620037 0.0389883 0.
0.622043 0.0389855 0.
0.624051 0.0389793 0.
0.62606 0.0389727 0.
0.62807 0.0389648 0.
0.630089 0.0389487 0.
0.632108 0.0389326 0.
0.634136 0.0389094 0.
0.636176 0.0388745 0.
0.638217 0.0388398 0.
0.640271 0.038803 0.
0.642333 0.0387643 0.
0.644395 0.0387258 0.
0.646537 0.0385905 0.
0.648683 0.0384499 0.
0.650847 0.0383025 0.
0.653075 0.0381075 0.
0.655299 0.0379148 0.
0.657672 0.0375813 0.
0.660079 0.0372259 0.
0.662569 0.0368326 0.
0.665206 0.0362494 0.
0.667895 0.0356175 0.
0.670794 0.0347333 0.
0.673889 0.0337021 0.
0.677183 0.0324419 0.
0.680591 0.0309297 0.
0.684068 0.0293391 0.
0.688276 0.027451 0.
0.692427 0.0253705 0.
0.696776 0.0231083 0.
0.70163 0.0204307 0.
0.707074 0.0179668 0.
0.712824 0.0150594 0.
0.718758 0.0121427 0.
0.725759 0.00956061 0.
0.734044 0.00682466 0.
0.745593 0.00448708 0.
0.757195 0.00238042 0.
0.783092 0.00399443 0.
0.415394 0.00405776 0.
0.43749 0.0028166 0.
0.449788 0.00419103 0.
0.461228 0.00670796 0.
0.470087 0.00932417 0.
0.477261 0.0120992 0.
0.483394 0.0149438 0.
0.489279 0.0177598 0.
0.494338 0.0203903 0.
0.499249 0.0230246 0.
0.503673 0.0255229 0.
0.508254 0.0277935 0.
0.512338 0.0298255 0.
0.516181 0.0317056 0.
0.519723 0.0333488 0.
0.523167 0.0347644 0.
0.526366 0.0359261 0.
0.529371 0.0368306 0.
0.532327 0.0376882 0.
0.534984 0.0383615 0.
0.537586 0.0390221 0.
0.54003 0.0393921 0.
0.542404 0.0396665 0.
0.544744 0.039927 0.
0.546969 0.0401262 0.
0.549201 0.0403303 0.
0.551358 0.0404748 0.
0.55349 0.0406051 0.
0.555619 0.0407302 0.
0.557678 0.0407687 0.
0.559738 0.0408074 0.
0.561789 0.0408438 0.
0.563829 0.040877 0.
0.565868 0.0409104 0.
0.567894 0.0409328 0.
0.569913 0.0409487 0.
0.571931 0.0409646 0.
0.573941 0.040972 0.
0.57595 0.040978 0.
0.577958 0.0409838 0.
0.579964 0.0409866 0.
0.58197 0.0409894 0.
0.583975 0.0409917 0.
0.585979 0.0409931 0.
0.587983 0.0409944 0.
0.589987 0.0409955 0.
0.59199 0.0409964 0.
0.593993 0.0409973 0.
0.595995 0.0409976 0.
0.597998 0.0409977 0.
0.6 0.0409978 0.
0.602003 0.0409974 0.
0.604005 0.0409969 0.
0.606008 0.0409963 0.
0.608011 0.0409954 0.
0.610014 0.0409944 0.
0.612018 0.0409931 0.
0.614023 0.0409912 0.
0.616027 0.0409893 0.
0.618034 0.0409863 0.
0.620041 0.0409826 0.
0.622048 0.040979 0.
0.624058 0.0409708 0.
0.626069 0.0409621 0.
0.628082 0.0409517 0.
0.630106 0.0409311 0.
0.63213 0.0409105 0.
0.634163 0.0408814 0.
0.636212 0.0408386 0.
0.638261 0.0407961 0.
0.640326 0.0407512 0.
0.642399 0.0407048 0.
0.644471 0.0406587 0.
0.64664 0.0404885 0.
0.648812 0.0403153 0.
0.651009 0.040139 0.
0.653266 0.0399282 0.
0.655519 0.0397171 0.
0.657973 0.0393021 0.
0.660446 0.0388778 0.
0.663053 0.0383707 0.
0.665767 0.0376771 0.
0.668632 0.0368601 0.
0.671614 0.0358667 0.
0.674746 0.0347548 0.
0.678113 0.0334007 0.
0.681751 0.0315835 0.
0.685427 0.0298402 0.
0.689618 0.0278969 0.
0.693981 0.0255586 0.
0.698371 0.0231738 0.
0.703367 0.0204797 0.
0.708778 0.0179628 0.
0.714584 0.0149568 0.
0.72061 0.0120869 0.
0.727763 0.00942239 0.
0.736449 0.00678042 0.
0.747961 0.00442826 0.
0.759563 0.00258957 0.
0.782828 0.00464605 0.
0.415539 0.00478917 0.
0.435096 0.00325748 0.
0.447553 0.0043148 0.
0.459033 0.00659335 0.
0.468125 0.00929323 0.
0.47549 0.0119929 0.
0.481664 0.0149247 0.
0.487672 0.0177401 0.
0.492704 0.0204462 0.
0.497758 0.023137 0.
0.502183 0.0256512 0.
0.506832 0.0280935 0.
0.51105 0.030268 0.
0.515035 0.0323394 0.
0.518718 0.0341504 0.
0.522218 0.0356952 0.
0.525499 0.036981 0.
0.528706 0.0380663 0.
0.531763 0.0390575 0.
0.534546 0.0398591 0.
0.537157 0.0405633 0.
0.539681 0.0410302 0.
0.542106 0.0413587 0.
0.544514 0.0416814 0.
0.546778 0.0419157 0.
0.549051 0.0421567 0.
0.551242 0.0423403 0.
0.553396 0.0425067 0.
0.555549 0.0426691 0.
0.557618 0.0427134 0.
0.559687 0.0427578 0.
0.561748 0.0428007 0.
0.563795 0.0428419 0.
0.565841 0.0428833 0.
0.567873 0.0429115 0.
0.569896 0.0429316 0.
0.571919 0.0429518 0.
0.573932 0.0429615 0.
0.575943 0.0429696 0.
0.577953 0.0429773 0.
0.57996 0.0429809 0.
0.581967 0.0429846 0.
0.583974 0.0429877 0.
0.585978 0.0429897 0.
0.587983 0.0429917 0.
0.589986 0.0429932 0.
0.591989 0.0429943 0.
0.593992 0.0429955 0.
0.595995 0.0429959 0.
0.597997 0.0429962 0.
0.6 0.0429964 0.
0.602003 0.0429958 0.
0.604005 0.0429951 0.
0.606008 0.0429943 0.
0.608012 0.042993 0.
0.610015 0.0429917 0.
0.612019 0.0429898 0.
0.614024 0.0429872 0.
0.61603 0.0429845 0.
0.618037 0.0429805 0.
0.620046 0.0429758 0.
0.622055 0.0429711 0.
0.624068 0.0429603 0.
0.626081 0.0429489 0.
0.628097 0.0429354 0.
0.630126 0.0429091 0.
0.632156 0.0428828 0.
0.634197 0.042847 0.
0.636254 0.0427961 0.
0.638311 0.0427455 0.
0.640389 0.042689 0.
0.642478 0.0426297 0.
0.644567 0.0425691 0.
0.646758 0.0423577 0.
0.648949 0.0421449 0.
0.651198 0.041916 0.
0.653526 0.0416475 0.
0.655841 0.0413881 0.
0.658344 0.0409215 0.
0.660844 0.0404544 0.
0.663529 0.0398493 0.
0.666314 0.0390703 0.
0.669382 0.0380715 0.
0.672471 0.0369673 0.
0.675776 0.0356361 0.
0.679149 0.0341754 0.
0.682908 0.0321934 0.
0.686877 0.0302377 0.
0.691039 0.0282113 0.
0.695529 0.0257069 0.
0.699975 0.0231922 0.
0.705101 0.0205202 0.
0.710485 0.0179002 0.
0.716321 0.014848 0.
0.722505 0.0120598 0.
0.729717 0.00930216 0.
0.738789 0.00675358 0.
0.750179 0.00446989 0.
0.761732 0.00288851 0.
0.782598 0.0053823 0.
0.415789 0.00557108 0.
0.433192 0.00373263 0.
0.445655 0.0044931 0.
0.457075 0.00650032 0.
0.466305 0.00928811 0.
0.473779 0.0119535 0.
0.479979 0.0148621 0.
0.486082 0.0177388 0.
0.491119 0.020475 0.
0.496213 0.0232197 0.
0.500696 0.0257348 0.
0.505472 0.0283598 0.
0.509749 0.0306287 0.
0.513841 0.032852 0.
0.517643 0.0348326 0.
0.521191 0.0365474 0.
0.524601 0.037991 0.
0.528022 0.0392372 0.
0.531073 0.0402837 0.
0.53393 0.0412206 0.
0.53663 0.0420239 0.
0.53929 0.0426318 0.
0.541785 0.0430309 0.
0.544274 0.0434308 0.
0.546581 0.0437018 0.
0.548897 0.0439799 0.
0.551125 0.0442036 0.
0.553301 0.0444065 0.
0.555477 0.0446071 0.
0.557557 0.0446579 0.
0.559636 0.0447081 0.
0.561707 0.0447574 0.
0.56376 0.0448066 0.
0.565814 0.044856 0.
0.567852 0.0448902 0.
0.56988 0.0449145 0.
0.571908 0.0449389 0.
0.573923 0.044951 0.
0.575936 0.0449611 0.
0.577948 0.0449708 0.
0.579956 0.0449753 0.
0.581965 0.0449799 0.
0.583972 0.0449838 0.
0.585977 0.0449863 0.
0.587982 0.0449889 0.
0.589986 0.0449908 0.
0.591989 0.0449922 0.
0.593992 0.0449937 0.
0.595995 0.0449943 0.
0.597997 0.0449946 0.
0.6 0.044995 0.
0.602003 0.0449941 0.
0.604006 0.0449933 0.
0.606009 0.0449923 0.
0.608012 0.0449907 0.
0.610016 0.044989 0.
0.61202 0.0449865 0.
0.614026 0.0449831 0.
0.616032 0.0449797 0.
0.618041 0.0449747 0.
0.620051 0.0449689 0.
0.622062 0.0449632 0.
0.624077 0.0449498 0.
0.626093 0.0449358 0.
0.628112 0.0449191 0.
0.630147 0.0448871 0.
0.632182 0.0448551 0.
0.63423 0.0448124 0.
0.636296 0.0447535 0.
0.638361 0.0446947 0.
0.640454 0.0446263 0.
0.642558 0.044554 0.
0.644665 0.0444774 0.
0.646877 0.0442246 0.
0.649089 0.0439719 0.
0.651398 0.0436861 0.
0.653801 0.0433566 0.
0.656203 0.0430292 0.
0.658775 0.0424963 0.
0.661342 0.0419652 0.
0.664172 0.0411884 0.
0.666963 0.0403504 0.
0.670175 0.0392331 0.
0.673428 0.0379965 0.
0.676847 0.0364483 0.
0.680323 0.0347697 0.
0.684099 0.0327436 0.
0.688319 0.0305847 0.
0.692518 0.0283976 0.
0.69707 0.0258198 0.
0.701533 0.0232331 0.
0.70677 0.0205745 0.
0.712105 0.0178534 0.
0.718004 0.0147829 0.
0.724354 0.0120113 0.
0.731581 0.00923592 0.
0.740938 0.0067715 0.
0.752086 0.00461149 0.
0.763624 0.00324742 0.
0.782337 0.0061307 0.
0.416078 0.00633669 0.
0.431817 0.00420468 0.
0.444056 0.00472198 0.
0.455354 0.0064745 0.
0.464594 0.0093028 0.
0.472162 0.0119714 0.
0.478383 0.014822 0.
0.484514 0.0177613 0.
0.489593 0.020514 0.
0.494719 0.0233175 0.
0.499289 0.0258482 0.
0.504156 0.0285975 0.
0.508417 0.0309253 0.
0.512652 0.0332959 0.
0.516497 0.0354205 0.
0.520094 0.0372914 0.
0.523676 0.0389332 0.
0.527178 0.0402573 0.
0.530236 0.04139 0.
0.533275 0.0425536 0.
0.536069 0.043456 0.
0.538881 0.0442174 0.
0.54144 0.0446837 0.
0.543987 0.0451432 0.
0.546332 0.0454441 0.
0.548678 0.0457574 0.
0.550944 0.0460236 0.
0.553139 0.0462546 0.
0.555336 0.0464838 0.
0.557445 0.0465573 0.
0.559552 0.0466282 0.
0.561647 0.0466955 0.
0.563708 0.0467529 0.
0.565771 0.0468106 0.
0.567817 0.0468526 0.
0.569852 0.0468841 0.
0.571888 0.0469158 0.
0.573907 0.0469323 0.
0.575923 0.0469463 0.
0.577939 0.0469596 0.
0.579949 0.0469658 0.
0.581959 0.0469719 0.
0.583968 0.0469773 0.
0.585974 0.046981 0.
0.58798 0.0469846 0.
0.589984 0.0469874 0.
0.591988 0.0469894 0.
0.593991 0.0469915 0.
0.595994 0.0469923 0.
0.597997 0.0469929 0.
0.6 0.0469935 0.
0.602003 0.0469923 0.
0.604006 0.0469911 0.
0.606009 0.0469896 0.
0.608013 0.0469872 0.
0.610018 0.0469847 0.
0.612023 0.0469812 0.
0.614031 0.0469763 0.
0.616038 0.0469715 0.
0.618049 0.0469647 0.
0.620062 0.0469571 0.
0.622074 0.0469494 0.
0.624093 0.0469318 0.
0.626113 0.0469132 0.
0.628137 0.0468911 0.
0.630183 0.0468494 0.
0.632228 0.0468079 0.
0.634286 0.0467558 0.
0.636361 0.046688 0.
0.638436 0.0466205 0.
0.64056 0.0465274 0.
0.642699 0.0464273 0.
0.644842 0.0463206 0.
0.647071 0.0460418 0.
0.649294 0.0457623 0.
0.651651 0.0454152 0.
0.654107 0.0450327 0.
0.65659 0.0446493 0.
0.659224 0.0440596 0.
0.661897 0.0434294 0.
0.664862 0.0424802 0.
0.667844 0.0414696 0.
0.67109 0.0402545 0.
0.674452 0.0389057 0.
0.67794 0.0372037 0.
0.681591 0.0352364 0.
0.68536 0.0331867 0.
0.689721 0.030881 0.
0.693993 0.0285282 0.
0.69858 0.0259124 0.
0.703048 0.0232999 0.
0.708362 0.0206259 0.
0.713635 0.0178413 0.
0.719623 0.0147546 0.
0.726063 0.0119938 0.
0.733314 0.00926122 0.
0.742826 0.00683257 0.
0.753633 0.00482685 0.
0.765079 0.00365892 0.
0.781997 0.00684827 0.
0.416421 0.00708763 0.
0.430828 0.00470004 0.
0.442703 0.00500643 0.
0.453788 0.00653675 0.
0.462999 0.00934111 0.
0.470619 0.0120459 0.
0.476873 0.014827 0.
0.483047 0.0178263 0.
0.488167 0.0205941 0.
0.4933 0.0234524 0.
0.497895 0.0260083 0.
0.502761 0.0287622 0.
0.50708 0.0311803 0.
0.511473 0.0336947 0.
0.515274 0.0359087 0.
0.518962 0.0379442 0.
0.522673 0.0397806 0.
0.526128 0.0411493 0.
0.529378 0.0424385 0.
0.532569 0.0438033 0.
0.535474 0.0448222 0.
0.538321 0.0456514 0.
0.540933 0.0461804 0.
0.543565 0.046736 0.
0.545998 0.0471169 0.
0.548399 0.0474943 0.
0.550725 0.0478224 0.
0.552948 0.0480843 0.
0.555177 0.0483456 0.
0.55732 0.0484473 0.
0.559461 0.0485432 0.
0.561584 0.0486318 0.
0.563655 0.0486978 0.
0.565726 0.048764 0.
0.567781 0.0488141 0.
0.569824 0.0488532 0.
0.571867 0.0488924 0.
0.573891 0.0489135 0.
0.57591 0.0489314 0.
0.577929 0.0489484 0.
0.579941 0.0489562 0.
0.581953 0.048964 0.
0.583963 0.0489708 0.
0.58597 0.0489756 0.
0.587977 0.0489804 0.
0.589983 0.048984 0.
0.591987 0.0489866 0.
0.593991 0.0489893 0.
0.595994 0.0489904 0.
0.597997 0.0489912 0.
0.6 0.048992 0.
0.602003 0.0489904 0.
0.604007 0.0489888 0.
0.60601 0.0489868 0.
0.608015 0.0489837 0.
0.61002 0.0489805 0.
0.612026 0.0489759 0.
0.614035 0.0489695 0.
0.616044 0.0489632 0.
0.618057 0.0489547 0.
0.620072 0.0489451 0.
0.622087 0.0489356 0.
0.62411 0.0489135 0.
0.626134 0.0488903 0.
0.628164 0.0488625 0.
0.63022 0.0488108 0.
0.632275 0.0487594 0.
0.634344 0.0486974 0.
0.63643 0.04862 0.
0.638515 0.048543 0.
0.640678 0.0484201 0.
0.642859 0.0482868 0.
0.645047 0.0481439 0.
0.647307 0.0478361 0.
0.649561 0.0475283 0.
0.651975 0.0470857 0.
0.654465 0.0466087 0.
0.657047 0.0461358 0.
0.659755 0.0455163 0.
0.662507 0.0448049 0.
0.665576 0.0437208 0.
0.668783 0.0425153 0.
0.672122 0.041156 0.
0.675558 0.0396534 0.
0.679084 0.0378499 0.
0.682876 0.0356643 0.
0.686724 0.0334985 0.
0.69111 0.0311028 0.
0.695397 0.0286755 0.
0.700046 0.0260054 0.
0.704513 0.0234029 0.
0.709852 0.0206964 0.
0.715092 0.0178635 0.
0.721114 0.0147845 0.
0.7276 0.0120278 0.
0.734921 0.00931663 0.
0.744452 0.00692985 0.
0.754944 0.00509026 0.
0.766118 0.00408385 0.
0.781513 0.00751853 0.
0.416794 0.00781759 0.
0.430248 0.00519202 0.
0.441614 0.00534637 0.
0.452361 0.00668356 0.
0.461569 0.00942985 0.
0.46915 0.0121482 0.
0.475393 0.0148645 0.
0.481652 0.0179151 0.
0.486785 0.0206736 0.
0.491888 0.0235811 0.
0.496499 0.0261728 0.
0.501365 0.0289004 0.
0.505763 0.031418 0.
0.510254 0.0340409 0.
0.514013 0.0363224 0.
0.517803 0.0385168 0.
0.521519 0.0404561 0.
0.525032 0.0419707 0.
0.528495 0.0434264 0.
0.531742 0.0448864 0.
0.53466 0.0459871 0.
0.537605 0.0469579 0.
0.540378 0.0476374 0.
0.543118 0.0483052 0.
0.545658 0.0487786 0.
0.548114 0.04922 0.
0.550507 0.0496166 0.
0.55276 0.0499074 0.
0.555017 0.0501927 0.
0.557195 0.0503232 0.
0.559364 0.0504471 0.
0.561513 0.0505618 0.
0.563593 0.0506357 0.
0.565675 0.0507099 0.
0.567739 0.0507686 0.
0.56979 0.0508164 0.
0.571842 0.0508645 0.
0.573871 0.050891 0.
0.575894 0.0509135 0.
0.577917 0.050935 0.
0.579931 0.0509446 0.
0.581945 0.0509542 0.
0.583957 0.0509627 0.
0.585966 0.0509689 0.
0.587974 0.0509751 0.
0.589981 0.0509798 0.
0.591985 0.0509831 0.
0.59399 0.0509865 0.
0.595993 0.050988 0.
0.597997 0.0509889 0.
0.6 0.0509898 0.
0.602004 0.0509878 0.
0.604007 0.0509859 0.
0.606012 0.0509834 0.
0.608017 0.0509793 0.
0.610023 0.0509751 0.
0.612031 0.0509692 0.
0.614041 0.050961 0.
0.616052 0.0509529 0.
0.618067 0.0509424 0.
0.620085 0.0509308 0.
0.622102 0.0509192 0.
0.624131 0.0508918 0.
0.62616 0.0508631 0.
0.628196 0.0508285 0.
0.630262 0.0507651 0.
0.632328 0.0507024 0.
0.634408 0.0506304 0.
0.636505 0.0505447 0.
0.638601 0.0504595 0.
0.6408 0.0503013 0.
0.64302 0.050133 0.
0.645249 0.0499581 0.
0.647542 0.0496262 0.
0.649826 0.0492913 0.
0.652301 0.0487384 0.
0.654824 0.0481672 0.
0.657552 0.0475947 0.
0.660404 0.0468947 0.
0.663353 0.0459622 0.
0.666354 0.0448498 0.
0.669759 0.0434894 0.
0.673205 0.0419897 0.
0.676766 0.0402631 0.
0.680319 0.0383417 0.
0.684157 0.0360492 0.
0.6881 0.0337534 0.
0.692521 0.0312788 0.
0.696815 0.0288286 0.
0.701445 0.0261352 0.
0.70593 0.0235296 0.
0.711265 0.020783 0.
0.716476 0.0179043 0.
0.722527 0.0148619 0.
0.729009 0.0121151 0.
0.73645 0.00938151 0.
0.745895 0.00708773 0.
0.756044 0.00541706 0.
0.767104 0.00452368 0.
0.780994 0.00814728 0.
0.417261 0.00851779 0.
0.429813 0.00570443 0.
0.440674 0.00572886 0.
0.451079 0.00689791 0.
0.460211 0.00953411 0.
0.467725 0.0122655 0.
0.473973 0.0149428 0.
0.480299 0.017999 0.
0.485439 0.0207808 0.
0.490538 0.0237077 0.
0.495125 0.026338 0.
0.500009 0.0290433 0.
0.504428 0.0316353 0.
0.508909 0.0342821 0.
0.512728 0.0366786 0.
0.516608 0.0390059 0.
0.520276 0.0410142 0.
0.523904 0.0427261 0.
0.527554 0.0443158 0.
0.530722 0.0457664 0.
0.53382 0.0471153 0.
0.536869 0.0482214 0.
0.539817 0.0490633 0.
0.54265 0.0498206 0.
0.545281 0.0503754 0.
0.547769 0.0508641 0.
0.550222 0.05133 0.
0.552527 0.0516518 0.
0.554857 0.0519791 0.
0.557069 0.0521563 0.
0.559253 0.0523249 0.
0.56142 0.05248 0.
0.563515 0.0525622 0.
0.565612 0.0526448 0.
0.567689 0.0527135 0.
0.569751 0.0527721 0.
0.571813 0.0528312 0.
0.573846 0.0528644 0.
0.575874 0.0528924 0.
0.577901 0.0529192 0.
0.579918 0.0529308 0.
0.581935 0.0529425 0.
0.58395 0.0529529 0.
0.58596 0.0529608 0.
0.58797 0.0529687 0.
0.589977 0.0529746 0.
0.591983 0.0529789 0.
0.593988 0.0529831 0.
0.595993 0.0529849 0.
0.597996 0.0529859 0.
0.6 0.0529869 0.
0.602005 0.0529846 0.
0.604009 0.0529823 0.
0.606014 0.0529794 0.
0.60802 0.052974 0.
0.610027 0.0529687 0.
0.612037 0.0529611 0.
0.61405 0.0529507 0.
0.616063 0.0529404 0.
0.618081 0.0529277 0.
0.620101 0.0529139 0.
0.622122 0.0529 0.
0.624156 0.0528662 0.
0.626191 0.0528308 0.
0.628235 0.0527876 0.
0.630313 0.0527097 0.
0.632391 0.0526324 0.
0.634485 0.0525491 0.
0.636597 0.0524554 0.
0.638708 0.0523621 0.
0.640936 0.052147 0.
0.643181 0.0519194 0.
0.645455 0.0516892 0.
0.64781 0.0513307 0.
0.650141 0.0509748 0.
0.652666 0.0503288 0.
0.655174 0.0496937 0.
0.658079 0.0490293 0.
0.661076 0.0482566 0.
0.664239 0.0470478 0.
0.667353 0.0457707 0.
0.670793 0.0443522 0.
0.674339 0.0427272 0.
0.677976 0.0408338 0.
0.681604 0.0387191 0.
0.685484 0.0363594 0.
0.689442 0.0339961 0.
0.693914 0.0314493 0.
0.698235 0.0289791 0.
0.702817 0.0262758 0.
0.707335 0.0236615 0.
0.712642 0.0208603 0.
0.717794 0.0179845 0.
0.723912 0.014951 0.
0.730345 0.0122254 0.
0.73785 0.00949194 0.
0.747206 0.00729015 0.
0.756965 0.0057909 0.
0.767763 0.00499818 0.
0.780485 0.00878077 0.
0.417903 0.00913255 0.
0.429664 0.00622158 0.
0.439983 0.0061677 0.
0.450054 0.00718871 0.
0.459016 0.00967299 0.
0.466447 0.0124405 0.
0.472717 0.0150886 0.
0.479038 0.0181225 0.
0.484156 0.0209282 0.
0.489267 0.0238681 0.
0.493832 0.026528 0.
0.498681 0.0292087 0.
0.503093 0.0318275 0.
0.507532 0.0344758 0.
0.511425 0.0369878 0.
0.515351 0.039412 0.
0.519009 0.0415069 0.
0.522755 0.0434004 0.
0.526412 0.0450345 0.
0.529656 0.0465873 0.
0.532938 0.048193 0.
0.536076 0.0493991 0.
0.539132 0.0503592 0.
0.541997 0.0511941 0.
0.544801 0.0518967 0.
0.547358 0.0524615 0.
0.549903 0.0530262 0.
0.552282 0.053391 0.
0.554687 0.0537622 0.
0.556941 0.053986 0.
0.559141 0.0541997 0.
0.561326 0.0543979 0.
0.563437 0.0544885 0.
0.565548 0.0545796 0.
0.567639 0.054658 0.
0.56971 0.0547277 0.
0.571783 0.0547977 0.
0.573822 0.0548377 0.
0.575854 0.0548713 0.
0.577885 0.0549034 0.
0.579905 0.0549171 0.
0.581925 0.0549307 0.
0.583942 0.0549431 0.
0.585954 0.0549527 0.
0.587966 0.0549623 0.
0.589974 0.0549695 0.
0.591981 0.0549746 0.
0.593987 0.0549798 0.
0.595992 0.0549818 0.
0.597996 0.0549829 0.
0.6 0.054984 0.
0.602005 0.0549814 0.
0.60401 0.0549788 0.
0.606016 0.0549753 0.
0.608024 0.0549688 0.
0.610031 0.0549622 0.
0.612043 0.054953 0.
0.614058 0.0549404 0.
0.616073 0.0549279 0.
0.618094 0.054913 0.
0.620117 0.0548969 0.
0.622141 0.0548809 0.
0.624181 0.0548404 0.
0.626223 0.0547984 0.
0.628274 0.0547464 0.
0.630365 0.0546538 0.
0.632455 0.054562 0.
0.634563 0.0544676 0.
0.63669 0.0543658 0.
0.638816 0.0542644 0.
0.641074 0.053988 0.
0.643344 0.0537008 0.
0.645672 0.0534163 0.
0.648103 0.0530191 0.
0.650534 0.0525989 0.
0.6532 0.0518278 0.
0.655805 0.0511033 0.
0.658789 0.0503386 0.
0.661824 0.0495168 0.
0.665161 0.0480558 0.
0.66845 0.0466233 0.
0.671928 0.0450883 0.
0.675509 0.0433636 0.
0.679196 0.0413302 0.
0.682869 0.0390644 0.
0.686828 0.0366205 0.
0.69082 0.0342049 0.
0.695249 0.0316448 0.
0.699586 0.0291551 0.
0.704132 0.0264424 0.
0.708701 0.0238016 0.
0.713951 0.0209739 0.
0.71904 0.0181119 0.
0.72519 0.0150848 0.
0.731552 0.0123913 0.
0.739046 0.00967071 0.
0.74825 0.00757325 0.
0.757721 0.00622118 0.
0.768104 0.00551507 0.
0.779879 0.00937798 0.
0.418684 0.00968651 0.
0.429767 0.00673801 0.
0.439573 0.00665704 0.
0.449309 0.00754258 0.
0.458039 0.00989169 0.
0.465315 0.01266 0.
0.471648 0.0153086 0.
0.477889 0.0183053 0.
0.482961 0.0211216 0.
0.488079 0.0240668 0.
0.492616 0.0267408 0.
0.497383 0.0294087 0.
0.501781 0.0320172 0.
0.506188 0.0346708 0.
0.510143 0.0372739 0.
0.514007 0.0397331 0.
0.51773 0.0419494 0.
0.521565 0.0439979 0.
0.525146 0.0456723 0.
0.528566 0.0473437 0.
0.531968 0.0491073 0.
0.535132 0.0504018 0.
0.538308 0.0515582 0.
0.541294 0.052528 0.
0.5443 0.0534017 0.
0.546924 0.0540418 0.
0.549546 0.0547018 0.
0.551994 0.0550982 0.
0.55444 0.0555055 0.
0.556734 0.055782 0.
0.558953 0.0560358 0.
0.561168 0.0562765 0.
0.563305 0.0563788 0.
0.565445 0.0564826 0.
0.567559 0.0565752 0.
0.569644 0.0566592 0.
0.571729 0.056744 0.
0.573779 0.0567947 0.
0.57582 0.0568376 0.
0.577861 0.056879 0.
0.579884 0.056895 0.
0.581907 0.0569111 0.
0.583927 0.0569261 0.
0.585942 0.0569386 0.
0.587957 0.0569512 0.
0.589968 0.0569605 0.
0.591976 0.0569671 0.
0.593984 0.0569737 0.
0.59599 0.0569764 0.
0.597995 0.0569779 0.
0.6 0.0569795 0.
0.602007 0.0569759 0.
0.604013 0.0569723 0.
0.60602 0.0569676 0.
0.60803 0.0569592 0.
0.61004 0.0569507 0.
0.612054 0.0569388 0.
0.614073 0.0569229 0.
0.616091 0.056907 0.
0.618116 0.0568894 0.
0.620143 0.056871 0.
0.62217 0.0568525 0.
0.624224 0.0567984 0.
0.626279 0.0567428 0.
0.628345 0.0566764 0.
0.630451 0.056569 0.
0.632555 0.0564625 0.
0.63469 0.056351 0.
0.636848 0.0562326 0.
0.639004 0.056115 0.
0.64129 0.0557838 0.
0.643573 0.0554488 0.
0.645946 0.0551147 0.
0.648422 0.054693 0.
0.650972 0.0541924 0.
0.653773 0.053301 0.
0.656558 0.0524495 0.
0.659656 0.0514875 0.
0.662789 0.0504343 0.
0.666121 0.048957 0.
0.669573 0.0474113 0.
0.673087 0.0457582 0.
0.676708 0.0439057 0.
0.680434 0.0417481 0.
0.684125 0.0393898 0.
0.688104 0.0368878 0.
0.692178 0.0344098 0.
0.696538 0.0318773 0.
0.700871 0.0293664 0.
0.705367 0.0266496 0.
0.709959 0.0239878 0.
0.715175 0.0211319 0.
0.720194 0.0182914 0.
0.726318 0.0152849 0.
0.732619 0.0126222 0.
0.740038 0.00992806 0.
0.749 0.00792761 0.
0.758267 0.00671776 0.
0.768145 0.00602349 0.
0.779068 0.00989336 0.
0.419651 0.0101546 0.
0.430069 0.00726012 0.
0.439364 0.00718864 0.
0.44876 0.00794554 0.
0.457247 0.0101845 0.
0.464335 0.0129303 0.
0.470694 0.0155885 0.
0.47683 0.0185417 0.
0.481843 0.0213545 0.
0.486935 0.0242837 0.
0.491461 0.0269794 0.
0.496143 0.0296419 0.
0.500536 0.0322331 0.
0.504906 0.0348927 0.
0.508855 0.0375207 0.
0.512672 0.0400258 0.
0.51647 0.0423587 0.
0.520262 0.0444779 0.
0.523862 0.0462604 0.
0.527444 0.0480314 0.
0.530847 0.0498227 0.
0.534106 0.0513142 0.
0.537393 0.0526582 0.
0.540547 0.0538013 0.
0.543699 0.0548173 0.
0.546382 0.055495 0.
0.549087 0.0561855 0.
0.551609 0.0566882 0.
0.554092 0.0571942 0.
0.556452 0.0575535 0.
0.558716 0.0578498 0.
0.56098 0.0581381 0.
0.563154 0.0582578 0.
0.56533 0.058378 0.
0.567474 0.0584877 0.
0.569573 0.0585874 0.
0.571673 0.0586881 0.
0.573734 0.0587506 0.
0.575785 0.0588033 0.
0.577836 0.0588542 0.
0.579862 0.0588728 0.
0.581888 0.0588913 0.
0.583912 0.0589089 0.
0.58593 0.0589245 0.
0.587948 0.05894 0.
0.589962 0.0589515 0.
0.591971 0.0589596 0.
0.593981 0.0589676 0.
0.595988 0.058971 0.
0.597994 0.058973 0.
0.600001 0.0589749 0.
0.602008 0.0589704 0.
0.604015 0.0589658 0.
0.606024 0.0589599 0.
0.608036 0.0589495 0.
0.610049 0.0589391 0.
0.612066 0.0589246 0.
0.614088 0.0589053 0.
0.61611 0.058886 0.
0.618138 0.0588657 0.
0.620169 0.0588447 0.
0.6222 0.0588238 0.
0.624269 0.0587551 0.
0.626338 0.0586848 0.
0.62842 0.0586027 0.
0.630543 0.0584791 0.
0.632664 0.0583567 0.
0.634836 0.0582227 0.
0.637038 0.05808 0.
0.639245 0.0579283 0.
0.641579 0.0575403 0.
0.643905 0.057153 0.
0.646391 0.0567211 0.
0.648946 0.0562083 0.
0.651598 0.0555882 0.
0.65441 0.0546905 0.
0.657365 0.0537099 0.
0.660542 0.0525702 0.
0.663823 0.0512504 0.
0.66718 0.0497109 0.
0.67071 0.0481337 0.
0.674276 0.0463607 0.
0.677916 0.0443925 0.
0.681672 0.0421139 0.
0.685406 0.0396778 0.
0.689356 0.0371592 0.
0.693466 0.0346437 0.
0.697773 0.0321418 0.
0.702088 0.0296064 0.
0.706533 0.0268998 0.
0.711118 0.0242261 0.
0.716302 0.0213405 0.
0.721262 0.0185241 0.
0.727304 0.0155435 0.
0.733582 0.0129073 0.
0.740846 0.0102575 0.
0.749512 0.00833348 0.
0.758576 0.00728187 0.
0.767935 0.00652073 0.
0.778075 0.0103072 0.
0.420759 0.0104982 0.
0.430482 0.00779323 0.
0.439276 0.00775724 0.
0.448375 0.00838554 0.
0.456562 0.010532 0.
0.463478 0.0132468 0.
0.469803 0.0159027 0.
0.475818 0.018815 0.
0.480794 0.021616 0.
0.485812 0.024515 0.
0.490354 0.0272458 0.
0.494968 0.0299044 0.
0.499347 0.0324741 0.
0.503633 0.0351192 0.
0.507575 0.0377454 0.
0.511386 0.0403138 0.
0.515182 0.042721 0.
0.518905 0.0448835 0.
0.522566 0.0467982 0.
0.526217 0.0486077 0.
0.52964 0.050439 0.
0.533036 0.0521554 0.
0.536405 0.0536468 0.
0.539679 0.054943 0.
0.54281 0.0560099 0.
0.545726 0.0568547 0.
0.548579 0.0576319 0.
0.55122 0.0582595 0.
0.55374 0.0588641 0.
0.556167 0.0593201 0.
0.558475 0.0596584 0.
0.560788 0.0599898 0.
0.562999 0.0601264 0.
0.56521 0.0602636 0.
0.567384 0.0603927 0.
0.569495 0.060507 0.
0.571608 0.0606223 0.
0.573681 0.060698 0.
0.575745 0.060763 0.
0.577807 0.0608265 0.
0.579837 0.0608475 0.
0.581866 0.0608684 0.
0.583894 0.0608886 0.
0.585915 0.0609074 0.
0.587936 0.0609262 0.
0.589953 0.0609402 0.
0.591965 0.0609501 0.
0.593977 0.0609599 0.
0.595985 0.060964 0.
0.597993 0.0609664 0.
0.600001 0.0609688 0.
0.60201 0.0609631 0.
0.604019 0.0609575 0.
0.60603 0.0609502 0.
0.608045 0.0609374 0.
0.610061 0.0609247 0.
0.612081 0.0609073 0.
0.614106 0.0608846 0.
0.616132 0.0608619 0.
0.618165 0.0608379 0.
0.6202 0.0608134 0.
0.622236 0.0607889 0.
0.624321 0.0607029 0.
0.626406 0.0606162 0.
0.628504 0.0605177 0.
0.630641 0.0603801 0.
0.632777 0.0602438 0.
0.634986 0.0600851 0.
0.637229 0.0599207 0.
0.639492 0.0597331 0.
0.641872 0.0592901 0.
0.644241 0.0588508 0.
0.646863 0.0583028 0.
0.649517 0.0576841 0.
0.652355 0.0568653 0.
0.65525 0.0558595 0.
0.658266 0.0547853 0.
0.661463 0.0535641 0.
0.664887 0.0520266 0.
0.668321 0.0504247 0.
0.671878 0.0487733 0.
0.675497 0.0468857 0.
0.679173 0.0447976 0.
0.682926 0.042429 0.
0.686684 0.0399415 0.
0.690602 0.0374283 0.
0.6947 0.0349033 0.
0.698972 0.0324201 0.
0.703249 0.0298713 0.
0.707665 0.0271668 0.
0.712204 0.0244932 0.
0.717347 0.021599 0.
0.722264 0.0187948 0.
0.728202 0.0158431 0.
0.734464 0.0132222 0.
0.741525 0.0106357 0.
0.749874 0.00877253 0.
0.758718 0.00788865 0.
0.767609 0.00703888 0.
0.777005 0.0105772 0.
0.421909 0.0107675 0.
0.430943 0.00834122 0.
0.439305 0.00834162 0.
0.448088 0.00885417 0.
0.455993 0.0109385 0.
0.462731 0.0136104 0.
0.468999 0.0162541 0.
0.474865 0.0191247 0.
0.479803 0.0219056 0.
0.484741 0.0247843 0.
0.489283 0.0275384 0.
0.493826 0.0301846 0.
0.498175 0.0327316 0.
0.502384 0.0353492 0.
0.506323 0.0379703 0.
0.510121 0.0405915 0.
0.513867 0.0430357 0.
0.51757 0.0452664 0.
0.521257 0.0472758 0.
0.524915 0.0491333 0.
0.528418 0.0510242 0.
0.531899 0.0528792 0.
0.53531 0.0544787 0.
0.538649 0.0558938 0.
0.541867 0.0571272 0.
0.545034 0.0581933 0.
0.548036 0.0590489 0.
0.550817 0.0597895 0.
0.553317 0.0604484 0.
0.555829 0.0609965 0.
0.558191 0.0613674 0.
0.560572 0.0617392 0.
0.562827 0.0619263 0.
0.565071 0.0621116 0.
0.567275 0.0622809 0.
0.5694 0.0624096 0.
0.571526 0.0625393 0.
0.573616 0.0626322 0.
0.575695 0.0627143 0.
0.577774 0.0627952 0.
0.579807 0.0628185 0.
0.581841 0.0628418 0.
0.583872 0.0628647 0.
0.585896 0.0628872 0.
0.587921 0.0629096 0.
0.589941 0.0629265 0.
0.591955 0.0629385 0.
0.59397 0.0629505 0.
0.595982 0.0629554 0.
0.597992 0.0629581 0.
0.600002 0.0629608 0.
0.602013 0.0629539 0.
0.604025 0.0629471 0.
0.606039 0.0629382 0.
0.608057 0.0629227 0.
0.610076 0.0629072 0.
0.612099 0.0628867 0.
0.614129 0.0628604 0.
0.616158 0.0628342 0.
0.618197 0.0628053 0.
0.620239 0.0627753 0.
0.622282 0.0627449 0.
0.624386 0.062637 0.
0.62649 0.0625286 0.
0.628607 0.0624099 0.
0.63076 0.0622579 0.
0.632911 0.0621072 0.
0.63518 0.0618863 0.
0.637483 0.0616513 0.
0.63982 0.0613951 0.
0.642262 0.06093 0.
0.644665 0.0604702 0.
0.647365 0.0598337 0.
0.650108 0.0591267 0.
0.653146 0.0581022 0.
0.656149 0.0569788 0.
0.659313 0.0557131 0.
0.662486 0.0543867 0.
0.665988 0.0527536 0.
0.66951 0.0511028 0.
0.67309 0.0493543 0.
0.676737 0.0473494 0.
0.680449 0.045141 0.
0.684165 0.0427255 0.
0.687967 0.0401927 0.
0.691854 0.0376856 0.
0.695925 0.0351752 0.
0.700148 0.0327087 0.
0.704371 0.0301573 0.
0.70876 0.0274543 0.
0.713257 0.0247747 0.
0.718308 0.0219062 0.
0.723198 0.0191077 0.
0.729032 0.0161853 0.
0.735252 0.0135739 0.
0.742113 0.0110539 0.
0.750129 0.00923833 0.
0.758778 0.00852328 0.
0.767244 0.00760324 0.
0.775883 0.0107484 0.
0.423106 0.0110074 0.
0.431479 0.0089193 0.
0.43952 0.00892519 0.
0.447991 0.00936948 0.
0.455603 0.0114246 0.
0.462122 0.014038 0.
0.468344 0.0166706 0.
0.474006 0.0194937 0.
0.478876 0.0222398 0.
0.483763 0.025108 0.
0.488267 0.0278707 0.
0.492732 0.0304959 0.
0.497039 0.0330245 0.
0.50119 0.0356072 0.
0.50512 0.0382186 0.
0.508878 0.0408535 0.
0.512586 0.0433357 0.
0.516255 0.045631 0.
0.519927 0.0477051 0.
0.523606 0.0496358 0.
0.527196 0.0515717 0.
0.530691 0.0534729 0.
0.534136 0.0551914 0.
0.537535 0.0567427 0.
0.540868 0.0581501 0.
0.544252 0.0594518 0.
0.547241 0.0603194 0.
0.550116 0.0611962 0.
0.552744 0.0619488 0.
0.555454 0.0626385 0.
0.557888 0.0630597 0.
0.560346 0.0634839 0.
0.562651 0.0637207 0.
0.564928 0.0639549 0.
0.567166 0.0641684 0.
0.569304 0.0643116 0.
0.571443 0.0644559 0.
0.573549 0.0645657 0.
0.575645 0.0646652 0.
0.57774 0.0647636 0.
0.579778 0.0647895 0.
0.581815 0.0648152 0.
0.58385 0.0648408 0.
0.585878 0.0648669 0.
0.587906 0.064893 0.
0.589928 0.0649127 0.
0.591946 0.0649269 0.
0.593964 0.0649411 0.
0.595978 0.0649467 0.
0.59799 0.0649498 0.
0.600002 0.0649529 0.
0.602017 0.0649448 0.
0.604031 0.0649366 0.
0.606047 0.0649262 0.
0.608069 0.0649079 0.
0.610091 0.0648898 0.
0.612118 0.0648661 0.
0.614151 0.0648362 0.
0.616184 0.0648064 0.
0.618229 0.0647725 0.
0.620278 0.0647371 0.
0.622328 0.0647002 0.
0.624452 0.0645702 0.
0.626575 0.0644402 0.
0.628712 0.0643015 0.
0.630881 0.0641349 0.
0.633047 0.0639698 0.
0.635383 0.0636793 0.
0.63775 0.0633713 0.
0.640183 0.0630373 0.
0.642735 0.0625193 0.
0.645289 0.0619663 0.
0.648115 0.0611625 0.
0.650916 0.06036 0.
0.654011 0.0592584 0.
0.657137 0.0579927 0.
0.660401 0.0565859 0.
0.663679 0.0550888 0.
0.667135 0.0534317 0.
0.670735 0.0517217 0.
0.674334 0.0498675 0.
0.677973 0.0477769 0.
0.681709 0.0454568 0.
0.685397 0.0430071 0.
0.689196 0.0404662 0.
0.693077 0.037953 0.
0.69712 0.0354704 0.
0.701277 0.0330247 0.
0.705436 0.0304808 0.
0.709779 0.02779 0.
0.714244 0.0250962 0.
0.719178 0.0222661 0.
0.724032 0.0194803 0.
0.72974 0.0165934 0.
0.735869 0.0140014 0.
0.742521 0.0115335 0.
0.750223 0.00974159 0.
0.758656 0.00916639 0.
0.766716 0.00821757 0.
0.774709 0.0108435 0.
0.42431 0.0112644 0.
0.432114 0.00952265 0.
0.43992 0.00952035 0.
0.448093 0.00993642 0.
0.455344 0.0119793 0.
0.461674 0.0145358 0.
0.467793 0.0171515 0.
0.473243 0.0199254 0.
0.47806 0.0226428 0.
0.482888 0.0254968 0.
0.487317 0.0282438 0.
0.491709 0.0308529 0.
0.49596 0.0333686 0.
0.500053 0.0359077 0.
0.503963 0.0385037 0.
0.507686 0.0411332 0.
0.511345 0.0436437 0.
0.514988 0.0459917 0.
0.518647 0.0481256 0.
0.52232 0.0501122 0.
0.525937 0.0520547 0.
0.529451 0.0540156 0.
0.532934 0.0558556 0.
0.536373 0.0574911 0.
0.539802 0.0590227 0.
0.543173 0.0603846 0.
0.546251 0.0614302 0.
0.549307 0.0625386 0.
0.552109 0.0634181 0.
0.555015 0.0642511 0.
0.55755 0.0647294 0.
0.560041 0.0651791 0.
0.562398 0.0654685 0.
0.564711 0.0657569 0.
0.566999 0.0660272 0.
0.569155 0.066179 0.
0.571315 0.066332 0.
0.573443 0.0664598 0.
0.575555 0.0665812 0.
0.577669 0.0667029 0.
0.579721 0.066739 0.
0.581771 0.0667739 0.
0.583817 0.0668073 0.
0.585849 0.0668366 0.
0.587881 0.0668659 0.
0.589908 0.0668888 0.
0.591931 0.0669057 0.
0.593953 0.0669227 0.
0.595971 0.0669295 0.
0.597988 0.0669332 0.
0.600004 0.0669369 0.
0.602023 0.0669268 0.
0.604041 0.0669167 0.
0.606062 0.0669039 0.
0.608089 0.0668824 0.
0.610116 0.066861 0.
0.612149 0.0668337 0.
0.614188 0.0668002 0.
0.616226 0.0667668 0.
0.618286 0.0667214 0.
0.620352 0.0666725 0.
0.622422 0.0666199 0.
0.624566 0.0664638 0.
0.626708 0.0663092 0.
0.628869 0.0661521 0.
0.63106 0.0659778 0.
0.633245 0.0658048 0.
0.635646 0.0654326 0.
0.638062 0.0650573 0.
0.640597 0.0646522 0.
0.643247 0.0640908 0.
0.645977 0.0634096 0.
0.648919 0.0624333 0.
0.651896 0.0614318 0.
0.655031 0.0602413 0.
0.658221 0.0588869 0.
0.661536 0.05739 0.
0.664925 0.0557416 0.
0.668364 0.0540569 0.
0.671974 0.0522851 0.
0.675602 0.0503184 0.
0.679214 0.0481591 0.
0.682923 0.0457778 0.
0.686606 0.0432952 0.
0.690375 0.0407682 0.
0.694242 0.0382579 0.
0.698247 0.0358129 0.
0.70235 0.0333787 0.
0.706441 0.0308477 0.
0.710714 0.0281833 0.
0.715132 0.0254801 0.
0.719956 0.0226876 0.
0.724751 0.0199227 0.
0.730286 0.0170799 0.
0.736314 0.0145122 0.
0.742755 0.0120811 0.
0.750154 0.0102886 0.
0.758349 0.00980382 0.
0.766069 0.00889323 0.
0.77355 0.0109621 0.
0.42553 0.0115961 0.
0.432907 0.010131 0.
0.440474 0.0101229 0.
0.448309 0.0105477 0.
0.455191 0.0125951 0.
0.461393 0.0151037 0.
0.467311 0.0176883 0.
0.472578 0.0204213 0.
0.477365 0.023117 0.
0.482101 0.025946 0.
0.486435 0.0286691 0.
0.490764 0.0312638 0.
0.494943 0.0337622 0.
0.498987 0.0362578 0.
0.502858 0.0388339 0.
0.506538 0.0414414 0.
0.510157 0.0439757 0.
0.513764 0.0463568 0.
0.517397 0.048541 0.
0.521049 0.0505699 0.
0.524665 0.0525161 0.
0.5282 0.054529 0.
0.531695 0.0564438 0.
0.535185 0.0581642 0.
0.538633 0.059766 0.
0.54199 0.0611845 0.
0.545214 0.0624499 0.
0.548382 0.0637422 0.
0.551366 0.0647843 0.
0.554286 0.0656264 0.
0.556943 0.0662133 0.
0.559538 0.0667613 0.
0.562029 0.067153 0.
0.56442 0.0675174 0.
0.566796 0.0678692 0.
0.568982 0.068032 0.
0.571172 0.068196 0.
0.573326 0.0683442 0.
0.575459 0.0684907 0.
0.577593 0.0686378 0.
0.57966 0.0686861 0.
0.581725 0.0687312 0.
0.583783 0.0687732 0.
0.58582 0.0688059 0.
0.587856 0.0688385 0.
0.589888 0.0688645 0.
0.591915 0.0688843 0.
0.593942 0.0689041 0.
0.595964 0.0689121 0.
0.597985 0.0689165 0.
0.600006 0.0689208 0.
0.602029 0.0689086 0.
0.604052 0.0688965 0.
0.606078 0.0688814 0.
0.60811 0.0688565 0.
0.610143 0.0688317 0.
0.612181 0.0688008 0.
0.614225 0.0687635 0.
0.616269 0.0687262 0.
0.618346 0.068668 0.
0.620431 0.0686042 0.
0.622523 0.0685331 0.
0.624693 0.0683475 0.
0.626859 0.0681639 0.
0.629052 0.0679854 0.
0.631279 0.0677998 0.
0.633506 0.0676105 0.
0.635992 0.0671234 0.
0.63847 0.0666503 0.
0.641164 0.0661261 0.
0.643905 0.0655115 0.
0.646767 0.0647013 0.
0.649773 0.0636249 0.
0.65292 0.0624402 0.
0.656126 0.0611365 0.
0.659407 0.0596497 0.
0.662757 0.0580722 0.
0.666191 0.0563528 0.
0.669657 0.054628 0.
0.673231 0.0527964 0.
0.676856 0.0507432 0.
0.680457 0.0485084 0.
0.684111 0.046106 0.
0.687772 0.0436089 0.
0.691504 0.0411085 0.
0.695335 0.0386142 0.
0.699304 0.0362053 0.
0.703349 0.0337871 0.
0.707399 0.0312575 0.
0.711571 0.0286306 0.
0.715928 0.0259283 0.
0.720655 0.0231709 0.
0.725378 0.0204318 0.
0.730714 0.0176297 0.
0.736625 0.0150867 0.
0.742856 0.0126931 0.
0.749942 0.0108785 0.
0.757877 0.0104424 0.
0.765363 0.00962537 0.
0.772409 0.0111664 0.
0.426719 0.0120222 0.
0.433758 0.0107489 0.
0.441073 0.0107255 0.
0.448556 0.0112004 0.
0.455124 0.0132644 0.
0.461193 0.0157246 0.
0.466901 0.018278 0.
0.472006 0.0209836 0.
0.476766 0.0236545 0.
0.481378 0.0264441 0.
0.485624 0.0291475 0.
0.489873 0.0317177 0.
0.493966 0.0341894 0.
0.497952 0.0366428 0.
0.501774 0.0391889 0.
0.505416 0.0417752 0.
0.509004 0.04432 0.
0.512557 0.0467195 0.
0.516166 0.0489508 0.
0.519793 0.0510081 0.
0.523391 0.0529748 0.
0.526941 0.0550037 0.
0.530449 0.0569676 0.
0.53395 0.0587877 0.
0.537407 0.0604353 0.
0.540788 0.0619327 0.
0.544114 0.0633586 0.
0.547325 0.0647187 0.
0.550401 0.0658947 0.
0.553402 0.0668626 0.
0.556277 0.0676595 0.
0.558995 0.0683154 0.
0.561647 0.0688237 0.
0.564117 0.0692652 0.
0.566591 0.0697083 0.
0.568806 0.0698813 0.
0.571023 0.0700524 0.
0.573206 0.0702196 0.
0.575357 0.0703892 0.
0.57751 0.0705596 0.
0.579594 0.0706233 0.
0.581673 0.0706817 0.
0.583744 0.0707354 0.
0.585786 0.0707711 0.
0.587827 0.0708069 0.
0.589864 0.0708358 0.
0.591896 0.0708585 0.
0.593929 0.0708812 0.
0.595956 0.0708904 0.
0.597982 0.0708953 0.
0.600008 0.0709003 0.
0.602037 0.0708861 0.
0.604065 0.0708719 0.
0.606096 0.0708543 0.
0.608134 0.0708259 0.
0.610173 0.0707976 0.
0.612217 0.0707631 0.
0.614268 0.0707221 0.
0.616319 0.0706812 0.
0.618412 0.0706063 0.
0.620516 0.0705242 0.
0.622631 0.0704316 0.
0.624823 0.0702206 0.
0.627011 0.0700119 0.
0.629238 0.0698151 0.
0.631501 0.0696195 0.
0.633787 0.0693939 0.
0.636348 0.0687958 0.
0.63889 0.0682243 0.
0.641789 0.0675568 0.
0.644674 0.0668322 0.
0.647728 0.0657825 0.
0.650759 0.0646508 0.
0.654007 0.0633532 0.
0.657292 0.0619368 0.
0.660641 0.0603361 0.
0.66403 0.0586714 0.
0.667477 0.0569142 0.
0.670965 0.055156 0.
0.674505 0.0532549 0.
0.678113 0.0511422 0.
0.681687 0.0488454 0.
0.685295 0.0464325 0.
0.68892 0.0439393 0.
0.692607 0.0414695 0.
0.696387 0.0390111 0.
0.700317 0.0366355 0.
0.704301 0.0342349 0.
0.708297 0.0317146 0.
0.712395 0.0291095 0.
0.716644 0.0264349 0.
0.721275 0.0237064 0.
0.725917 0.0210057 0.
0.731064 0.0182409 0.
0.736812 0.0157179 0.
0.742894 0.0133541 0.
0.749659 0.0115053 0.
0.757307 0.0110764 0.
0.764583 0.0103966 0.
0.771292 0.0115045 0.
0.427875 0.0124863 0.
0.434613 0.0113753 0.
0.441692 0.011334 0.
0.448834 0.0118961 0.
0.45514 0.0139834 0.
0.461052 0.0163958 0.
0.466571 0.0189255 0.
0.471529 0.0216102 0.
0.476216 0.0242439 0.
0.480695 0.0269846 0.
0.484852 0.0296653 0.
0.489002 0.0322017 0.
0.493012 0.0346424 0.
0.496936 0.0370607 0.
0.500709 0.0395677 0.
0.504307 0.0421288 0.
0.507851 0.044664 0.
0.511367 0.0470851 0.
0.514946 0.0493525 0.
0.518539 0.0514377 0.
0.522125 0.0534279 0.
0.525696 0.0554456 0.
0.529194 0.0574452 0.
0.532685 0.0593644 0.
0.53615 0.0610586 0.
0.53956 0.0626327 0.
0.542925 0.0641274 0.
0.54618 0.0655403 0.
0.549382 0.066929 0.
0.552475 0.0680335 0.
0.555566 0.0690585 0.
0.558383 0.0697893 0.
0.561143 0.0703939 0.
0.563642 0.0708749 0.
0.566177 0.0713634 0.
0.568494 0.0716057 0.
0.570811 0.0718457 0.
0.573069 0.0720684 0.
0.57524 0.0722619 0.
0.577413 0.0724567 0.
0.579516 0.0725428 0.
0.581611 0.0726213 0.
0.583697 0.0726922 0.
0.585746 0.072731 0.
0.587794 0.0727699 0.
0.589837 0.0728019 0.
0.591875 0.0728275 0.
0.593913 0.0728531 0.
0.595947 0.0728636 0.
0.597979 0.0728693 0.
0.600011 0.0728749 0.
0.602046 0.0728585 0.
0.60408 0.0728421 0.
0.606118 0.0728217 0.
0.608163 0.0727894 0.
0.610208 0.0727573 0.
0.61226 0.0727188 0.
0.614319 0.0726739 0.
0.616378 0.0726292 0.
0.618491 0.0725294 0.
0.620613 0.0724196 0.
0.622752 0.0722962 0.
0.624972 0.0720584 0.
0.627188 0.0718234 0.
0.629491 0.0715752 0.
0.631833 0.0713256 0.
0.63423 0.0710084 0.
0.636826 0.0703557 0.
0.6394 0.0697211 0.
0.642474 0.0689353 0.
0.645531 0.068057 0.
0.648733 0.0667961 0.
0.651891 0.0655246 0.
0.65516 0.0641727 0.
0.658502 0.0626346 0.
0.661893 0.0609711 0.
0.665331 0.0592287 0.
0.668789 0.0574505 0.
0.672283 0.0556481 0.
0.675788 0.0536747 0.
0.67936 0.051511 0.
0.682919 0.049171 0.
0.686476 0.046761 0.
0.690063 0.0442879 0.
0.693705 0.041846 0.
0.697431 0.0394313 0.
0.701305 0.0370941 0.
0.705219 0.0347136 0.
0.709153 0.0322093 0.
0.713181 0.029628 0.
0.717322 0.0269859 0.
0.721823 0.0242929 0.
0.72641 0.0216273 0.
0.731349 0.0189072 0.
0.736895 0.0164059 0.
0.742841 0.0140705 0.
0.749326 0.0121755 0.
0.756667 0.0116995 0.
0.763743 0.0111817 0.
0.770196 0.0119677 0.
0.429061 0.0129656 0.
0.435521 0.0120228 0.
0.442412 0.0119608 0.
0.449217 0.0126505 0.
0.455304 0.0147731 0.
0.461038 0.0171452 0.
0.466347 0.0196541 0.
0.471164 0.0223098 0.
0.475737 0.0248989 0.
0.480071 0.0275845 0.
0.484139 0.0302346 0.
0.48817 0.0327302 0.
0.492098 0.0351379 0.
0.495957 0.0375248 0.
0.499669 0.0399816 0.
0.503222 0.0425122 0.
0.506724 0.0450322 0.
0.51021 0.0474693 0.
0.513739 0.0497565 0.
0.517309 0.0518751 0.
0.520879 0.0538845 0.
0.524446 0.0558744 0.
0.527932 0.0579056 0.
0.531411 0.0598758 0.
0.534875 0.0616366 0.
0.538312 0.0632914 0.
0.541694 0.0648344 0.
0.545001 0.0663096 0.
0.548274 0.0678112 0.
0.551465 0.069095 0.
0.554643 0.0702391 0.
0.557523 0.0710562 0.
0.560431 0.0718524 0.
0.563058 0.0724223 0.
0.565702 0.0729799 0.
0.568157 0.073313 0.
0.570584 0.0736283 0.
0.572931 0.0739156 0.
0.575122 0.0741333 0.
0.577315 0.0743525 0.
0.579437 0.0744614 0.
0.581549 0.0745601 0.
0.58365 0.0746489 0.
0.585705 0.0746909 0.
0.58776 0.0747329 0.
0.58981 0.074768 0.
0.591854 0.0747965 0.
0.593898 0.074825 0.
0.595938 0.0748368 0.
0.597976 0.0748432 0.
0.600014 0.0748495 0.
0.602055 0.0748308 0.
0.604096 0.0748122 0.
0.606139 0.0747891 0.
0.608191 0.0747529 0.
0.610243 0.0747168 0.
0.612303 0.0746744 0.
0.614371 0.0746257 0.
0.616439 0.0745771 0.
0.61857 0.0744512 0.
0.620712 0.0743135 0.
0.622875 0.0741589 0.
0.625124 0.0738941 0.
0.627367 0.0736326 0.
0.629763 0.0733224 0.
0.632205 0.0730039 0.
0.634767 0.0725472 0.
0.637492 0.07179 0.
0.640274 0.0710059 0.
0.643376 0.0701397 0.
0.64652 0.069118 0.
0.649797 0.0677246 0.
0.653078 0.066331 0.
0.656369 0.0649079 0.
0.659752 0.0632655 0.
0.663164 0.0615311 0.
0.666625 0.0597569 0.
0.6701 0.0579723 0.
0.673578 0.0561162 0.
0.677078 0.0540722 0.
0.680595 0.0518639 0.
0.684126 0.0495088 0.
0.687649 0.047101 0.
0.691189 0.044664 0.
0.694783 0.0422521 0.
0.698454 0.0398875 0.
0.70226 0.0375901 0.
0.706092 0.0352352 0.
0.709945 0.03276 0.
0.713896 0.0302054 0.
0.717947 0.0275936 0.
0.72229 0.0249502 0.
0.726808 0.0223211 0.
0.731547 0.019641 0.
0.736871 0.0171677 0.
0.742635 0.0148626 0.
0.748869 0.0129081 0.
0.7559 0.012315 0.
0.762819 0.0119766 0.
0.769042 0.0125089 0.
0.430273 0.0134775 0.
0.436511 0.0127007 0.
0.443238 0.0126083 0.
0.449729 0.0134798 0.
0.455608 0.0156434 0.
0.461139 0.0179703 0.
0.466223 0.0204608 0.
0.470886 0.0230819 0.
0.475333 0.0256221 0.
0.47952 0.0282526 0.
0.483479 0.0308622 0.
0.487385 0.0333115 0.
0.491239 0.0356861 0.
0.495019 0.0380388 0.
0.498672 0.040444 0.
0.502174 0.042938 0.
0.505631 0.0454332 0.
0.509063 0.0478639 0.
0.512559 0.0501706 0.
0.516095 0.052318 0.
0.519639 0.0543391 0.
0.523189 0.0563118 0.
0.526673 0.0583506 0.
0.53012 0.0603413 0.
0.533589 0.0621828 0.
0.537045 0.0639056 0.
0.540433 0.0654918 0.
0.543794 0.0670178 0.
0.547102 0.0685825 0.
0.550349 0.070012 0.
0.553551 0.0712253 0.
0.556604 0.0722492 0.
0.559628 0.0732286 0.
0.562426 0.0739482 0.
0.565173 0.0745629 0.
0.567766 0.074974 0.
0.570279 0.0753593 0.
0.572718 0.075728 0.
0.574927 0.0759592 0.
0.577144 0.0761916 0.
0.579299 0.0763323 0.
0.581443 0.0764648 0.
0.583578 0.076586 0.
0.585643 0.0766315 0.
0.587709 0.0766773 0.
0.589769 0.0767157 0.
0.591822 0.0767468 0.
0.593875 0.076778 0.
0.595924 0.0767908 0.
0.597972 0.0767976 0.
0.600019 0.0768042 0.
0.602069 0.0767836 0.
0.604119 0.0767631 0.
0.606173 0.0767373 0.
0.608234 0.0766969 0.
0.610296 0.0766566 0.
0.612369 0.0766089 0.
0.614452 0.0765544 0.
0.616534 0.0765002 0.
0.6187 0.0763357 0.
0.620871 0.0761612 0.
0.623073 0.0759697 0.
0.625354 0.0756862 0.
0.627618 0.0754076 0.
0.630098 0.0750324 0.
0.632615 0.074655 0.
0.635363 0.0740427 0.
0.638216 0.0731856 0.
0.641239 0.0722074 0.
0.644423 0.0711859 0.
0.647655 0.0699578 0.
0.650932 0.0685421 0.
0.654301 0.0670742 0.
0.657641 0.0655445 0.
0.661028 0.0638525 0.
0.664458 0.0620576 0.
0.66792 0.0602628 0.
0.671402 0.058473 0.
0.674857 0.0565616 0.
0.678339 0.0544661 0.
0.681829 0.0522128 0.
0.68531 0.049868 0.
0.688799 0.0474697 0.
0.692295 0.045073 0.
0.695834 0.0426988 0.
0.699449 0.0403848 0.
0.703176 0.038131 0.
0.70692 0.035806 0.
0.710685 0.0333646 0.
0.714539 0.03085 0.
0.718504 0.0282661 0.
0.722689 0.0256751 0.
0.727095 0.023094 0.
0.731684 0.0204462 0.
0.736771 0.0179934 0.
0.742309 0.0157258 0.
0.748294 0.0137139 0.
0.754989 0.0129348 0.
0.761795 0.0127717 0.
0.767821 0.0131192 0.
0.431535 0.0140407 0.
0.437603 0.0133976 0.
0.444165 0.0132905 0.
0.450338 0.0143931 0.
0.45599 0.016575 0.
0.461303 0.0188613 0.
0.46618 0.0213402 0.
0.470665 0.023921 0.
0.47498 0.0264077 0.
0.479019 0.0289837 0.
0.482854 0.0315443 0.
0.48666 0.0339482 0.
0.490427 0.0362854 0.
0.49412 0.0386017 0.
0.497711 0.0409559 0.
0.501158 0.0434048 0.
0.504553 0.0458644 0.
0.507943 0.0482788 0.
0.511394 0.0505945 0.
0.514892 0.0527664 0.
0.518411 0.0548013 0.
0.521935 0.0567614 0.
0.525399 0.0587759 0.
0.528833 0.0607846 0.
0.532308 0.0627017 0.
0.535757 0.0644706 0.
0.539161 0.0661187 0.
0.542547 0.0676845 0.
0.545873 0.0692722 0.
0.549178 0.0708242 0.
0.552434 0.0721416 0.
0.555644 0.0733555 0.
0.558744 0.0744587 0.
0.561691 0.0753203 0.
0.564527 0.0759572 0.
0.567273 0.0764844 0.
0.56987 0.0769984 0.
0.572431 0.0775109 0.
0.574681 0.0777593 0.
0.576939 0.0780093 0.
0.579141 0.0781871 0.
0.581326 0.0783599 0.
0.583502 0.0785199 0.
0.585578 0.0785697 0.
0.587656 0.0786197 0.
0.589726 0.0786618 0.
0.591789 0.0786957 0.
0.593851 0.0787297 0.
0.59591 0.0787436 0.
0.597967 0.0787508 0.
0.600024 0.0787578 0.
0.602084 0.0787352 0.
0.604144 0.0787127 0.
0.606207 0.078684 0.
0.608279 0.078639 0.
0.610351 0.0785941 0.
0.61244 0.0785403 0.
0.614539 0.0784789 0.
0.616638 0.0784179 0.
0.618848 0.0782062 0.
0.621059 0.0779872 0.
0.623321 0.0777502 0.
0.625663 0.0774381 0.
0.627997 0.0771285 0.
0.630644 0.0766126 0.
0.63325 0.0761294 0.
0.636116 0.0753401 0.
0.638997 0.0744774 0.
0.642241 0.0733103 0.
0.645519 0.0721221 0.
0.648834 0.0707142 0.
0.652153 0.069261 0.
0.655543 0.0677643 0.
0.658919 0.0661317 0.
0.662323 0.0643927 0.
0.665761 0.0625661 0.
0.669222 0.0607699 0.
0.672693 0.0589587 0.
0.676133 0.0569885 0.
0.679579 0.0548517 0.
0.683041 0.0525766 0.
0.686486 0.0502443 0.
0.68993 0.0478705 0.
0.693378 0.0455169 0.
0.696858 0.0431886 0.
0.700411 0.0409269 0.
0.704057 0.0387144 0.
0.707712 0.0364234 0.
0.711389 0.0340211 0.
0.715127 0.0315533 0.
0.718992 0.0290052 0.
0.723039 0.0264614 0.
0.727304 0.0239374 0.
0.731753 0.0213254 0.
0.736604 0.0188839 0.
0.74192 0.0166472 0.
0.747633 0.0145944 0.
0.753987 0.0135898 0.
0.760626 0.0135512 0.
0.766566 0.0138044 0.
0.432849 0.0146732 0.
0.438787 0.0140936 0.
0.445142 0.0140372 0.
0.450996 0.0153765 0.
0.456416 0.0175506 0.
0.461508 0.0198188 0.
0.466171 0.0222806 0.
0.470502 0.0248131 0.
0.474654 0.0272477 0.
0.478533 0.0297606 0.
0.482242 0.0322653 0.
0.48596 0.0346258 0.
0.489635 0.0369215 0.
0.493236 0.0391956 0.
0.496754 0.0414997 0.
0.500138 0.0438895 0.
0.503477 0.0463125 0.
0.50683 0.0487028 0.
0.510245 0.0510278 0.
0.513704 0.0532183 0.
0.517181 0.055266 0.
0.520676 0.0572248 0.
0.524139 0.0592054 0.
0.527564 0.061225 0.
0.531025 0.0631855 0.
0.534471 0.0650106 0.
0.537886 0.0667258 0.
0.541277 0.0683214 0.
0.544638 0.0699132 0.
0.547986 0.0715387 0.
0.5513 0.07299 0.
0.554592 0.0743162 0.
0.557735 0.075484 0.
0.560849 0.0765766 0.
0.56382 0.0773062 0.
0.56676 0.0779613 0.
0.569441 0.0786051 0.
0.572139 0.0792886 0.
0.574432 0.0795555 0.
0.576732 0.0798205 0.
0.57898 0.0800302 0.
0.581203 0.0802427 0.
0.58342 0.080447 0.
0.585509 0.080501 0.
0.587599 0.0805553 0.
0.589682 0.0806012 0.
0.591754 0.0806376 0.
0.593826 0.0806741 0.
0.595895 0.080689 0.
0.597963 0.0806963 0.
0.60003 0.0807034 0.
0.602101 0.0806791 0.
0.604171 0.0806549 0.
0.606245 0.0806235 0.
0.608327 0.0805744 0.
0.610408 0.0805254 0.
0.612513 0.0804637 0.
0.614631 0.0803937 0.
0.616749 0.0803229 0.
0.619001 0.0800642 0.
0.621249 0.0798046 0.
0.623576 0.0795241 0.
0.625981 0.0791842 0.
0.628431 0.0788196 0.
0.631232 0.0781588 0.
0.633995 0.0775023 0.
0.637023 0.0764789 0.
0.640027 0.0754757 0.
0.643309 0.0742631 0.
0.646655 0.0729365 0.
0.650009 0.0714327 0.
0.653392 0.0699354 0.
0.656797 0.0683985 0.
0.660191 0.0666887 0.
0.663601 0.0648977 0.
0.667057 0.0630619 0.
0.670526 0.061275 0.
0.673979 0.0594297 0.
0.677396 0.0574083 0.
0.680815 0.0552301 0.
0.684241 0.0529528 0.
0.687652 0.0506341 0.
0.69106 0.0482914 0.
0.694464 0.0459805 0.
0.697877 0.043706 0.
0.701363 0.041497 0.
0.704931 0.0393255 0.
0.708502 0.0370685 0.
0.712081 0.0347118 0.
0.7157 0.0322946 0.
0.719445 0.0297957 0.
0.723366 0.0273039 0.
0.727468 0.0248379 0.
0.731765 0.0222635 0.
0.736407 0.0198338 0.
0.741496 0.0176196 0.
0.746946 0.0155448 0.
0.752967 0.0143041 0.
0.759366 0.0142925 0.
0.76528 0.0145405 0.
0.434225 0.0153489 0.
0.440047 0.0147755 0.
0.446114 0.0148643 0.
0.451666 0.0164134 0.
0.456869 0.0185796 0.
0.461739 0.0208367 0.
0.466168 0.0232664 0.
0.470353 0.0257465 0.
0.47431 0.0281223 0.
0.478028 0.0305616 0.
0.48163 0.0330135 0.
0.485249 0.0353323 0.
0.488822 0.0375759 0.
0.492331 0.0398063 0.
0.495764 0.0420579 0.
0.49909 0.0443804 0.
0.502386 0.0467644 0.
0.505708 0.0491348 0.
0.509095 0.0514624 0.
0.512508 0.0536656 0.
0.515947 0.0557301 0.
0.519419 0.0576937 0.
0.522877 0.0596454 0.
0.526303 0.0616647 0.
0.529757 0.0636556 0.
0.533198 0.0655368 0.
0.536608 0.0673002 0.
0.540009 0.0689419 0.
0.543409 0.0705313 0.
0.546784 0.0721893 0.
0.550134 0.0737679 0.
0.55346 0.0751606 0.
0.55669 0.0764351 0.
0.559918 0.0777216 0.
0.563058 0.0786082 0.
0.566192 0.0793736 0.
0.568913 0.0800952 0.
0.571635 0.0808696 0.
0.574054 0.0812196 0.
0.576468 0.0815336 0.
0.578807 0.0818124 0.
0.581065 0.0820872 0.
0.583324 0.0823585 0.
0.58543 0.0824185 0.
0.587536 0.0824787 0.
0.589633 0.0825295 0.
0.591715 0.0825685 0.
0.593798 0.0826076 0.
0.595878 0.0826232 0.
0.597958 0.0826304 0.
0.600037 0.0826373 0.
0.60212 0.0826114 0.
0.604203 0.0825855 0.
0.606288 0.0825516 0.
0.608379 0.0824984 0.
0.610469 0.0824453 0.
0.612594 0.0823691 0.
0.614736 0.0822806 0.
0.616887 0.0821831 0.
0.619213 0.0818477 0.
0.621521 0.0815197 0.
0.623951 0.0811727 0.
0.626437 0.0807989 0.
0.62902 0.0803557 0.
0.631877 0.0796324 0.
0.634823 0.0787439 0.
0.637973 0.0775431 0.
0.641144 0.0763654 0.
0.644455 0.0750951 0.
0.647834 0.073664 0.
0.651217 0.0721086 0.
0.654629 0.0705823 0.
0.658046 0.0689903 0.
0.661441 0.0672407 0.
0.664871 0.0653969 0.
0.668331 0.0635662 0.
0.671806 0.0617788 0.
0.675261 0.0598837 0.
0.678663 0.0578165 0.
0.682051 0.0556077 0.
0.685451 0.0533367 0.
0.688819 0.0510361 0.
0.692198 0.0487274 0.
0.695565 0.0464571 0.
0.698923 0.0442371 0.
0.702335 0.0420839 0.
0.705821 0.0399524 0.
0.709302 0.0377308 0.
0.712789 0.0354238 0.
0.716305 0.0330595 0.
0.719909 0.0306187 0.
0.723692 0.0281847 0.
0.727621 0.0257833 0.
0.731746 0.0232574 0.
0.736195 0.0208409 0.
0.741054 0.0186408 0.
0.746254 0.0165616 0.
0.751955 0.0150996 0.
0.758079 0.0150049 0.
0.763929 0.0153097 0.
0.435667 0.0160266 0.
0.441384 0.0154616 0.
0.447122 0.0157985 0.
0.452413 0.0175321 0.
0.457382 0.0196839 0.
0.461989 0.0219219 0.
0.466217 0.0243194 0.
0.470205 0.0267355 0.
0.473955 0.0290425 0.
0.477536 0.0314087 0.
0.481033 0.0338047 0.
0.484533 0.0360707 0.
0.487996 0.0382568 0.
0.491413 0.0404412 0.
0.494761 0.0426393 0.
0.498045 0.0449023 0.
0.501308 0.0472438 0.
0.504601 0.0495878 0.
0.50795 0.0519055 0.
0.511319 0.0541172 0.
0.514733 0.0562023 0.
0.518184 0.0581766 0.
0.52164 0.0601108 0.
0.52507 0.0621165 0.
0.528507 0.0641206 0.
0.531946 0.0660469 0.
0.535347 0.0678552 0.
0.538757 0.0695443 0.
0.542175 0.0711398 0.
0.545574 0.0728048 0.
0.54895 0.0744786 0.
0.552287 0.0759306 0.
0.555604 0.0773085 0.
0.558886 0.0787221 0.
0.562142 0.0797888 0.
0.565311 0.0805846 0.
0.568165 0.0814046 0.
0.57099 0.0823244 0.
0.57361 0.0828447 0.
0.576174 0.0832314 0.
0.578631 0.0835889 0.
0.580925 0.0839266 0.
0.583223 0.0842655 0.
0.585349 0.0843356 0.
0.587472 0.0844019 0.
0.589584 0.0844578 0.
0.591677 0.0844994 0.
0.59377 0.084541 0.
0.595862 0.0845574 0.
0.597953 0.0845645 0.
0.600045 0.0845712 0.
0.60214 0.0845436 0.
0.604235 0.0845161 0.
0.606331 0.0844795 0.
0.608431 0.0844223 0.
0.610531 0.0843652 0.
0.612677 0.0842734 0.
0.614842 0.0841662 0.
0.617033 0.0840364 0.
0.619434 0.0836228 0.
0.621812 0.083221 0.
0.624392 0.0827832 0.
0.627018 0.0823368 0.
0.629823 0.0817064 0.
0.632747 0.0808549 0.
0.635798 0.0797757 0.
0.639007 0.0785013 0.
0.642302 0.0772019 0.
0.645643 0.0758432 0.
0.649042 0.0743345 0.
0.652445 0.072761 0.
0.655865 0.0712084 0.
0.659292 0.0695511 0.
0.662681 0.0677693 0.
0.666112 0.0659084 0.
0.669574 0.0640904 0.
0.673048 0.0622861 0.
0.676502 0.0603385 0.
0.679907 0.058221 0.
0.683277 0.0559978 0.
0.686644 0.053743 0.
0.689976 0.0514642 0.
0.693319 0.0491943 0.
0.696657 0.0469637 0.
0.699974 0.0447969 0.
0.703315 0.042698 0.
0.706709 0.0406082 0.
0.710105 0.038423 0.
0.713503 0.0361663 0.
0.716917 0.0338576 0.
0.720378 0.0314831 0.
0.724003 0.0291129 0.
0.727764 0.026778 0.
0.731699 0.0243218 0.
0.735932 0.0219208 0.
0.740562 0.0197331 0.
0.745524 0.0176609 0.
0.750896 0.0160105 0.
0.756728 0.0157086 0.
0.762468 0.0160769 0.
0.43721 0.0166806 0.
0.442781 0.0161969 0.
0.448197 0.0168651 0.
0.453232 0.0187402 0.
0.457931 0.0208656 0.
0.462268 0.0230869 0.
0.466283 0.0254414 0.
0.470039 0.0277709 0.
0.473606 0.0300118 0.
0.477061 0.0323112 0.
0.480443 0.0346397 0.
0.483818 0.0368441 0.
0.487182 0.0389777 0.
0.4905 0.0411093 0.
0.493769 0.0432574 0.
0.49702 0.0454639 0.
0.500254 0.0477556 0.
0.503516 0.050072 0.
0.50682 0.0523648 0.
0.510154 0.0545823 0.
0.51354 0.0566844 0.
0.516976 0.0586749 0.
0.520425 0.0606035 0.
0.523847 0.0625787 0.
0.527273 0.0645866 0.
0.530699 0.0665456 0.
0.534093 0.0683963 0.
0.537508 0.0701302 0.
0.540935 0.0717451 0.
0.544354 0.0733961 0.
0.547738 0.075104 0.
0.551096 0.0766517 0.
0.55448 0.0781016 0.
0.557791 0.0795562 0.
0.561102 0.0808196 0.
0.56433 0.0817128 0.
0.567369 0.0826564 0.
0.570289 0.0837145 0.
0.573106 0.0844387 0.
0.575802 0.0848895 0.
0.57837 0.0853207 0.
0.580687 0.0857046 0.
0.583033 0.0860956 0.
0.585211 0.0861999 0.
0.587376 0.0862885 0.
0.589524 0.0863615 0.
0.59163 0.0864039 0.
0.593736 0.0864463 0.
0.595842 0.0864625 0.
0.597948 0.0864688 0.
0.600054 0.0864747 0.
0.602164 0.0864461 0.
0.604273 0.0864175 0.
0.606384 0.0863794 0.
0.608498 0.0863207 0.
0.610612 0.086262 0.
0.612803 0.086139 0.
0.615016 0.0859961 0.
0.617276 0.0858095 0.
0.619737 0.0853355 0.
0.622154 0.0848882 0.
0.624895 0.0843624 0.
0.627656 0.0838455 0.
0.630682 0.0829843 0.
0.633689 0.0819803 0.
0.636875 0.080643 0.
0.64013 0.0793323 0.
0.643476 0.0779785 0.
0.646847 0.0765229 0.
0.650265 0.0749662 0.
0.653682 0.0733936 0.
0.657102 0.0718074 0.
0.660528 0.0700966 0.
0.663929 0.0682795 0.
0.667346 0.0664246 0.
0.670796 0.0646292 0.
0.674266 0.0627936 0.
0.677716 0.0607962 0.
0.681109 0.058641 0.
0.684476 0.0564153 0.
0.687817 0.0541733 0.
0.691116 0.051922 0.
0.694418 0.0496921 0.
0.697729 0.0475056 0.
0.701009 0.0453904 0.
0.704296 0.0433429 0.
0.707598 0.0412903 0.
0.710898 0.0391535 0.
0.714206 0.036951 0.
0.71752 0.0346957 0.
0.720855 0.032387 0.
0.724311 0.0300956 0.
0.727905 0.0278249 0.
0.731631 0.0254504 0.
0.735634 0.0230811 0.
0.740001 0.0209118 0.
0.744723 0.0188496 0.
0.749776 0.0170654 0.
0.755285 0.0164419 0.
0.760847 0.0168034 0.
0.438884 0.0173154 0.
0.444228 0.0170446 0.
0.449326 0.0180776 0.
0.454073 0.0200349 0.
0.458489 0.0221267 0.
0.462551 0.0243271 0.
0.466315 0.026608 0.
0.469851 0.0288502 0.
0.473266 0.0310322 0.
0.476578 0.0332532 0.
0.479844 0.0355066 0.
0.483111 0.0376565 0.
0.486372 0.0397356 0.
0.489597 0.0418128 0.
0.492804 0.0439151 0.
0.496017 0.0460645 0.
0.49922 0.0483008 0.
0.502441 0.0505831 0.
0.505704 0.0528453 0.
0.509009 0.0550611 0.
0.512372 0.0571788 0.
0.515786 0.0591836 0.
0.519219 0.0611119 0.
0.522637 0.0630569 0.
0.52605 0.0650582 0.
0.529455 0.0670355 0.
0.532855 0.0689286 0.
0.536268 0.0706991 0.
0.539697 0.0723461 0.
0.543139 0.0739791 0.
0.546538 0.0757004 0.
0.549921 0.0773509 0.
0.55333 0.0788389 0.
0.556675 0.0803057 0.
0.560023 0.0817391 0.
0.563318 0.0827757 0.
0.566526 0.0838037 0.
0.569498 0.0849122 0.
0.572425 0.0858259 0.
0.575199 0.0863869 0.
0.577947 0.0869841 0.
0.580348 0.0874276 0.
0.582783 0.0878821 0.
0.585043 0.0880401 0.
0.587265 0.0881616 0.
0.58946 0.0882597 0.
0.591581 0.088303 0.
0.593702 0.0883462 0.
0.595822 0.0883623 0.
0.597943 0.0883677 0.
0.600064 0.0883727 0.
0.602189 0.0883426 0.
0.604314 0.0883125 0.
0.606441 0.0882726 0.
0.608571 0.0882123 0.
0.610702 0.088152 0.
0.612957 0.0879841 0.
0.615238 0.0877899 0.
0.617612 0.0875138 0.
0.620181 0.0869463 0.
0.622729 0.0863982 0.
0.625579 0.0857647 0.
0.628439 0.0851735 0.
0.631591 0.0841401 0.
0.634711 0.0829267 0.
0.637975 0.0814589 0.
0.641288 0.080112 0.
0.644653 0.0787181 0.
0.648045 0.0771712 0.
0.651471 0.0755896 0.
0.654903 0.0740185 0.
0.658335 0.0723872 0.
0.661759 0.0706375 0.
0.665167 0.0687895 0.
0.66858 0.0669535 0.
0.672019 0.0651689 0.
0.67547 0.0632935 0.
0.678903 0.061255 0.
0.682291 0.0590741 0.
0.685645 0.0568593 0.
0.688966 0.0546329 0.
0.69224 0.0524091 0.
0.695505 0.050221 0.
0.698779 0.0480828 0.
0.702032 0.0460166 0.
0.705273 0.0440178 0.
0.708495 0.0420003 0.
0.711702 0.0399099 0.
0.714915 0.037767 0.
0.718125 0.0355714 0.
0.721354 0.0333242 0.
0.724651 0.0311124 0.
0.728062 0.0289174 0.
0.731589 0.0266258 0.
0.735348 0.0243161 0.
0.739426 0.0221671 0.
0.743855 0.0201361 0.
0.748617 0.0182645 0.
0.753763 0.0172844 0.
0.759089 0.0174965 0.
0.440617 0.0179919 0.
0.44566 0.0180672 0.
0.45044 0.0194153 0.
0.454876 0.0213928 0.
0.458981 0.0234491 0.
0.462755 0.025603 0.
0.466266 0.0277934 0.
0.469615 0.029955 0.
0.472864 0.032063 0.
0.476043 0.034205 0.
0.479201 0.0363816 0.
0.482368 0.0384793 0.
0.485535 0.0405104 0.
0.488678 0.0425339 0.
0.491832 0.0445896 0.
0.495005 0.0466854 0.
0.498171 0.0488644 0.
0.501351 0.0511044 0.
0.50458 0.053336 0.
0.507871 0.0555499 0.
0.51121 0.0576778 0.
0.514607 0.0596992 0.
0.518027 0.0616342 0.
0.521436 0.0635532 0.
0.52484 0.0655408 0.
0.528235 0.0675257 0.
0.531637 0.0694503 0.
0.535047 0.0712649 0.
0.538487 0.0729505 0.
0.541952 0.0745782 0.
0.545364 0.0762919 0.
0.548759 0.0780101 0.
0.552177 0.0795511 0.
0.555569 0.0810275 0.
0.558935 0.0825457 0.
0.562293 0.0837619 0.
0.565586 0.084834 0.
0.568613 0.0859562 0.
0.571667 0.0870958 0.
0.574559 0.0878327 0.
0.577484 0.0886222 0.
0.579993 0.0891381 0.
0.582522 0.0896554 0.
0.584873 0.0898714 0.
0.587152 0.0900249 0.
0.589398 0.0901524 0.
0.591532 0.090196 0.
0.593668 0.0902397 0.
0.595803 0.0902554 0.
0.597939 0.09026 0.
0.600075 0.0902641 0.
0.602214 0.0902327 0.
0.604354 0.0902014 0.
0.606496 0.0901601 0.
0.608643 0.0900988 0.
0.61079 0.0900375 0.
0.613114 0.0898202 0.
0.615465 0.0895741 0.
0.617967 0.0891968 0.
0.62065 0.0885342 0.
0.623367 0.0878511 0.
0.626327 0.0870738 0.
0.629353 0.0862742 0.
0.632547 0.085147 0.
0.635766 0.0837639 0.
0.639083 0.0822334 0.
0.642446 0.0808599 0.
0.645824 0.0794118 0.
0.649231 0.0778094 0.
0.652668 0.0762224 0.
0.656101 0.0746392 0.
0.659535 0.0729612 0.
0.66297 0.0711708 0.
0.666389 0.069312 0.
0.669799 0.0675008 0.
0.673229 0.0657074 0.
0.676668 0.0637864 0.
0.680082 0.0617084 0.
0.683458 0.0595201 0.
0.686807 0.0573191 0.
0.690107 0.0551119 0.
0.69336 0.0529192 0.
0.696598 0.0507719 0.
0.699835 0.0486843 0.
0.703059 0.0466677 0.
0.706263 0.0447076 0.
0.709425 0.0427196 0.
0.712548 0.0406748 0.
0.715671 0.0385857 0.
0.718782 0.0364518 0.
0.721902 0.0342739 0.
0.725065 0.0321313 0.
0.728299 0.0300194 0.
0.731632 0.0278235 0.
0.735135 0.0255899 0.
0.738928 0.0234734 0.
0.743029 0.0214904 0.
0.747471 0.0195883 0.
0.752254 0.0182923 0.
0.757293 0.0182156 0.
0.442294 0.0187958 0.
0.447013 0.0192642 0.
0.451461 0.0208367 0.
0.455545 0.0227925 0.
0.459315 0.024797 0.
0.4628 0.0268688 0.
0.466084 0.0289655 0.
0.469251 0.031041 0.
0.472343 0.0330727 0.
0.475408 0.0351409 0.
0.478471 0.037241 0.
0.481546 0.0392917 0.
0.484623 0.0412807 0.
0.487704 0.0432551 0.
0.490816 0.0452687 0.
0.493947 0.0473132 0.
0.497078 0.0494345 0.
0.500227 0.051628 0.
0.503438 0.0538355 0.
0.506723 0.0560454 0.
0.510047 0.0581856 0.
0.513433 0.0602234 0.
0.516844 0.062169 0.
0.520244 0.0640773 0.
0.523645 0.0660452 0.
0.527035 0.0680269 0.
0.530445 0.0699787 0.
0.533865 0.0718374 0.
0.537318 0.0735625 0.
0.540794 0.0752004 0.
0.544225 0.0768968 0.
0.547627 0.0786442 0.
0.551058 0.0802459 0.
0.554479 0.0817409 0.
0.557868 0.0833033 0.
0.561262 0.0846984 0.
0.564573 0.0857825 0.
0.567719 0.0869578 0.
0.570869 0.0882428 0.
0.573915 0.0892159 0.
0.57694 0.0901127 0.
0.579574 0.0906929 0.
0.582177 0.0912446 0.
0.58464 0.0915669 0.
0.587004 0.0918147 0.
0.589332 0.092025 0.
0.591484 0.0920692 0.
0.593635 0.0921135 0.
0.595786 0.0921291 0.
0.597937 0.0921331 0.
0.600087 0.0921365 0.
0.602241 0.0921035 0.
0.604394 0.0920705 0.
0.606551 0.0920268 0.
0.608713 0.0919626 0.
0.610874 0.0918986 0.
0.613335 0.091556 0.
0.615799 0.0912001 0.
0.618415 0.0907031 0.
0.621142 0.0900171 0.
0.624013 0.0892265 0.
0.627076 0.0883303 0.
0.630269 0.0873088 0.
0.633518 0.0860734 0.
0.636817 0.0845288 0.
0.640179 0.0829971 0.
0.643577 0.0815983 0.
0.646967 0.0800732 0.
0.650386 0.0784482 0.
0.653833 0.0768686 0.
0.657269 0.0752624 0.
0.660707 0.0735385 0.
0.66415 0.0717132 0.
0.667582 0.0698567 0.
0.671003 0.0680655 0.
0.674429 0.0662472 0.
0.677859 0.0642817 0.
0.681265 0.0621635 0.
0.68463 0.0599785 0.
0.687973 0.0577912 0.
0.691261 0.0556066 0.
0.694495 0.0534446 0.
0.697712 0.0513377 0.
0.70092 0.0493008 0.
0.704115 0.0473339 0.
0.707282 0.0454047 0.
0.710402 0.0434411 0.
0.713464 0.0414351 0.
0.716509 0.0393906 0.
0.719536 0.0373112 0.
0.722548 0.0352072 0.
0.725588 0.0331351 0.
0.728682 0.0310954 0.
0.731834 0.0290002 0.
0.735091 0.0268623 0.
0.738591 0.0248026 0.
0.742372 0.0228715 0.
0.746441 0.0209966 0.
0.750853 0.0194865 0.
0.755558 0.0190334 0.
0.443859 0.0197938 0.
0.448228 0.0206274 0.
0.452281 0.0223076 0.
0.456 0.0242126 0.
0.459437 0.0261381 0.
0.46266 0.0281181 0.
0.465737 0.030114 0.
0.468743 0.0321013 0.
0.471714 0.0340667 0.
0.474683 0.0360669 0.
0.477663 0.0380966 0.
0.48066 0.0401105 0.
0.483668 0.0420625 0.
0.486708 0.0439981 0.
0.48978 0.0459739 0.
0.49287 0.0479724 0.
0.49598 0.0500424 0.
0.499115 0.0521892 0.
0.502325 0.0543756 0.
0.505609 0.0565775 0.
0.508926 0.0587298 0.
0.5123 0.0607773 0.
0.515699 0.0627348 0.
0.519094 0.0646448 0.
0.52249 0.0665868 0.
0.525886 0.0685638 0.
0.529307 0.0705318 0.
0.532739 0.0724291 0.
0.536204 0.0741883 0.
0.539685 0.0758514 0.
0.54313 0.0775289 0.
0.546539 0.0792788 0.
0.549985 0.0809427 0.
0.553428 0.0824716 0.
0.556841 0.0840418 0.
0.560247 0.0855563 0.
0.563577 0.0867167 0.
0.566814 0.0879173 0.
0.570046 0.0892865 0.
0.573188 0.090409 0.
0.576243 0.0913845 0.
0.579066 0.0921475 0.
0.581786 0.0927927 0.
0.584392 0.0932481 0.
0.586848 0.093596 0.
0.589267 0.0938976 0.
0.591434 0.0939424 0.
0.593603 0.0939873 0.
0.595769 0.0940029 0.
0.597935 0.0940063 0.
0.6001 0.094009 0.
0.602268 0.0939742 0.
0.604435 0.0939395 0.
0.606607 0.0938933 0.
0.608783 0.0938264 0.
0.610958 0.0937596 0.
0.613581 0.0932709 0.
0.616187 0.09278 0.
0.618942 0.0921194 0.
0.621731 0.0913472 0.
0.624728 0.0904167 0.
0.627841 0.0894801 0.
0.631176 0.0882875 0.
0.63449 0.0869147 0.
0.637831 0.0852745 0.
0.641234 0.0837632 0.
0.644653 0.0823377 0.
0.648058 0.0807396 0.
0.651493 0.0791107 0.
0.65495 0.0775305 0.
0.658386 0.0758983 0.
0.661828 0.0741355 0.
0.665284 0.0722803 0.
0.668724 0.0704431 0.
0.672156 0.0686597 0.
0.675581 0.0668069 0.
0.679002 0.0648005 0.
0.682407 0.0626515 0.
0.685768 0.0604802 0.
0.689108 0.0583032 0.
0.692391 0.0561425 0.
0.695611 0.0540148 0.
0.698811 0.0519468 0.
0.701998 0.0499556 0.
0.705166 0.0480357 0.
0.708302 0.0461281 0.
0.711396 0.0441831 0.
0.714415 0.0422084 0.
0.717398 0.0402016 0.
0.720357 0.0381678 0.
0.72329 0.0361311 0.
0.726229 0.0341287 0.
0.729199 0.03215 0.
0.732203 0.0301448 0.
0.735256 0.0281118 0.
0.738465 0.026137 0.
0.741931 0.024263 0.
0.745639 0.0224465 0.
0.749643 0.0208552 0.
0.753968 0.020037 0.
0.445182 0.0210001 0.
0.449153 0.0220782 0.
0.452798 0.0237848 0.
0.456164 0.0256243 0.
0.459305 0.0274571 0.
0.462303 0.0293337 0.
0.465216 0.031233 0.
0.468116 0.0331499 0.
0.471008 0.0350665 0.
0.473902 0.0370106 0.
0.476813 0.0389854 0.
0.479765 0.0409667 0.
0.482736 0.0428934 0.
0.485753 0.0448054 0.
0.48878 0.0467458 0.
0.491839 0.0487025 0.
0.494942 0.0507258 0.
0.498079 0.0528299 0.
0.501293 0.0549934 0.
0.504575 0.0571809 0.
0.507889 0.0593392 0.
0.511247 0.0613856 0.
0.514629 0.0633496 0.
0.51802 0.0652645 0.
0.521415 0.067187 0.
0.524826 0.0691584 0.
0.52825 0.0711285 0.
0.531696 0.0730527 0.
0.53517 0.0748539 0.
0.538643 0.076538 0.
0.542088 0.0781999 0.
0.54552 0.0799379 0.
0.548979 0.0816495 0.
0.552427 0.0832196 0.
0.555866 0.0847805 0.
0.559275 0.0863585 0.
0.562617 0.0876366 0.
0.565918 0.0888321 0.
0.569207 0.090216 0.
0.572423 0.0915073 0.
0.575529 0.0926031 0.
0.578536 0.0935687 0.
0.581376 0.0943024 0.
0.584137 0.0948955 0.
0.586678 0.0953352 0.
0.589196 0.0957457 0.
0.591382 0.0957907 0.
0.593568 0.0958358 0.
0.595752 0.0958517 0.
0.597933 0.095855 0.
0.600115 0.0958576 0.
0.602297 0.0958221 0.
0.604479 0.0957867 0.
0.606666 0.0957388 0.
0.608857 0.0956697 0.
0.611047 0.0956009 0.
0.613837 0.0949497 0.
0.616593 0.0943278 0.
0.619476 0.0935032 0.
0.622329 0.0926449 0.
0.625458 0.0915295 0.
0.628637 0.0904925 0.
0.632061 0.0892004 0.
0.635433 0.0876919 0.
0.638801 0.0860212 0.
0.642231 0.0845445 0.
0.645668 0.0830733 0.
0.649084 0.0814337 0.
0.652524 0.0798124 0.
0.655992 0.0782217 0.
0.659439 0.0765579 0.
0.662877 0.0747626 0.
0.666339 0.0728921 0.
0.669789 0.0710795 0.
0.673232 0.0692935 0.
0.676643 0.0674111 0.
0.680052 0.0653698 0.
0.683469 0.0632007 0.
0.686833 0.061048 0.
0.690173 0.0588882 0.
0.693447 0.0567581 0.
0.696654 0.0546668 0.
0.699843 0.0526337 0.
0.703014 0.0506868 0.
0.706164 0.0488015 0.
0.709273 0.0469101 0.
0.712345 0.0449817 0.
0.715345 0.0430287 0.
0.718287 0.0410528 0.
0.721203 0.0390556 0.
0.724088 0.0370759 0.
0.726948 0.0351387 0.
0.729832 0.0332045 0.
0.732728 0.0312691 0.
0.735635 0.0293333 0.
0.738609 0.0274487 0.
0.741759 0.025646 0.
0.745142 0.0239 0.
0.74876 0.0223021 0.
0.75267 0.021227 0.
0.44614 0.0223303 0.
0.449717 0.0235652 0.
0.452993 0.0252716 0.
0.456049 0.0270358 0.
0.458946 0.0287725 0.
0.461778 0.0305454 0.
0.464591 0.0323709 0.
0.467431 0.0342438 0.
0.470271 0.0361305 0.
0.473113 0.0380355 0.
0.475996 0.0399749 0.
0.478937 0.0419248 0.
0.4819 0.0438306 0.
0.484895 0.0457257 0.
0.487877 0.0476307 0.
0.490925 0.0495492 0.
0.494031 0.0515326 0.
0.497177 0.0535986 0.
0.500389 0.0557289 0.
0.503662 0.0578945 0.
0.506978 0.06005 0.
0.510319 0.0620823 0.
0.513684 0.0640519 0.
0.517075 0.0659683 0.
0.520469 0.0678722 0.
0.523896 0.0698336 0.
0.527324 0.0718039 0.
0.530778 0.0737514 0.
0.534248 0.075585 0.
0.537708 0.0772834 0.
0.541169 0.0789447 0.
0.544616 0.0806591 0.
0.548076 0.0823945 0.
0.55154 0.0840118 0.
0.555004 0.0855718 0.
0.558413 0.0871728 0.
0.561758 0.0885601 0.
0.56509 0.0897696 0.
0.568422 0.0911347 0.
0.571688 0.0925536 0.
0.57487 0.0937793 0.
0.578062 0.0949256 0.
0.580992 0.0956974 0.
0.583828 0.0964173 0.
0.586474 0.0970055 0.
0.589117 0.0975751 0.
0.591324 0.0976218 0.
0.593531 0.0976686 0.
0.595734 0.0976858 0.
0.597933 0.0976898 0.
0.600132 0.0976929 0.
0.602329 0.0976565 0.
0.604526 0.0976202 0.
0.60673 0.0975697 0.
0.60894 0.0974971 0.
0.611158 0.0974149 0.
0.614073 0.0964939 0.
0.616929 0.0957052 0.
0.619905 0.0948357 0.
0.62289 0.093874 0.
0.626136 0.0926138 0.
0.629393 0.0914566 0.
0.632837 0.0900941 0.
0.636278 0.0884854 0.
0.639673 0.086808 0.
0.643112 0.0853551 0.
0.646569 0.0838425 0.
0.649991 0.0821877 0.
0.653432 0.0805742 0.
0.656912 0.0789647 0.
0.660362 0.0772818 0.
0.663805 0.0754546 0.
0.667276 0.0735742 0.
0.670733 0.07179 0.
0.674179 0.0700029 0.
0.67758 0.0680933 0.
0.680969 0.0660264 0.
0.684395 0.0638532 0.
0.687768 0.0617268 0.
0.691105 0.0595958 0.
0.694376 0.0574958 0.
0.69757 0.0554357 0.
0.700756 0.0534351 0.
0.703913 0.0515315 0.
0.707045 0.0496808 0.
0.710143 0.047804 0.
0.713191 0.0458879 0.
0.716184 0.0439506 0.
0.719119 0.041997 0.
0.722013 0.0400293 0.
0.724875 0.0381027 0.
0.727695 0.0362276 0.
0.73052 0.0343351 0.
0.733347 0.0324395 0.
0.736156 0.0305764 0.
0.738977 0.028774 0.
0.74187 0.0270355 0.
0.744945 0.0253541 0.
0.748225 0.0237819 0.
0.751742 0.0225449 0.
CELLS 5000 10000
1 0
1 1
1 2
1 3
1 4
1 5
1 6
1 7
1 8
1 9
1 10
1 11
1 12
1 13
1 14
1 15
1 16
1 17
1 18
1 19
1 20
1 21
1 22
1 23
1 24
1 25
1 26
1 27
1 28
1 29
1 30
1 31
1 32
1 33
1 34
1 35
1 36
1 37
1 38
1 39
1 40
1 41
1 42
1 43
1 44
1 45
1 46
1 47
1 48
1 49
1 50
1 51
1 52
1 53
1 54
1 55
1 56
1 57
1 58
1 59
1 60
1 61
1 62
1 63
1 64
1 65
1 66
1 67
1 68
1 69
1 70
1 71
1 72
1 73
1 74
1 75
1 76
1 77
1 78
1 79
1 80
1 81
1 82
1 83
1 84
1 85
1 86
1 87
1 88
1 89
1 90
1 91
1 92
1 93
1 94
1 95
1 96
1 97
1 98
1 99
1 100
1 101
1 102
1 103
1 104
1 105
1 106
1 107
1 108
1 109
1 110
1 111
1 112
1 113
1 114
1 115
1 116
1 117
1 118
1 119
1 120
1 121
1 122
1 123
1 124
1 125
1 126
1 127
1 128
1 129
1 130
1 131
1 132
1 133
1 134
1 135
1 136
1 137
1 138
1 139
1 140
1 141
1 142
1 143
1 144
1 145
1 146
1 147
1 148
1 149
1 150
1 151
1 152
1 153
1 154
1 155
1 156
1 157
1 158
1 159
1 160
1 161
1 162
1 163
1 164
1 165
1 166
1 167
1 168
1 169
1 170
1 171
1 172
1 173
1 174
1 175
1 176
1 177
1 178
1 179
1 180
1 181
1 182
1 183
1 184
1 185
1 186
1 187
1 188
1 189
1 190
1 191
1 192
1 193
1 194
1 195
1 196
1 197
1 198
1 199
1 200
1 201
1 202
1 203
1 204
1 205
1 206
1 207
1 208
1 209
1 210
1 211
1 212
1 213
1 214
1 215
1 216
1 217
1 218
1 219
1 220
1 221
1 222
1 223
1 224
1 225
1 226
1 227
1 228
1 229
1 230
1 231
1 232
1 233
1 234
1 235
1 236
1 237
1 238
1 239
1 240
1 241
1 242
1 243
1 244
1 245
1 246
1 247
1 248
1 249
1 250
1 251
1 252
1 253
1 254
1 255
1 256
1 257
1 258
1 259
1 260
1 261
1 262
1 263
1 264
1 265
1 266
1 267
1 268
1 269
1 270
1 271
1 272
1 273
1 274
1 275
1 276
1 277
1 278
1 279
1 280
1 281
1 282
1 283
1 284
1 285
1 286
1 287
1 288
1 289
1 290
1 291
1 292
1 293
1 294
1 295
1 296
1 297
1 298
1 299
1 300
1 301
1 302
1 303
1 304
1 305
1 306
1 307
1 308
1 309
1 310
1 311
1 312
1 313
1 314
1 315
1 316
1 317
1 318
1 319
1 320
1 321
1 322
1 323
1 324
1 325
1 326
1 327
1 328
1 329
1 330
1 331
1 332
1 333
1 334
1 335
1 336
1 337
1 338
1 339
1 340
1 341
1 342
1 343
1 344
1 345
1 346
1 347
1 348
1 349
1 350
1 351
1 352
1 353
1 354
1 355
1 356
1 357
1 358
1 359
1 360
1 361
1 362
1 363
1 364
1 365
1 366
1 367
1 368
1 369
1 370
1 371
1 372
1 373
1 374
1 375
1 376
1 377
1 378
1 379
1 380
1 381
1 382
1 383
1 384
1 385
1 386
1 387
1 388
1 389
1 390
1 391
1 392
1 393
1 394
1 395
1 396
1 397
1 398
1 399
1 400
1 401
1 402
1 403
1 404
1 405
1 406
1 407
1 408
1 409
1 410
1 411
1 412
1 413
1 414
1 415
1 416
1 417
1 418
1 419
1 420
1 421
1 422
1 423
1 424
1 425
1 426
1 427
1 428
1 429
1 430
1 431
1 432
1 433
1 434
1 435
1 436
1 437
1 438
1 439
1 440
1 441
1 442
1 443
1 444
1 445
1 446
1 447
1 448
1 449
1 450
1 451
1 452
1 453
1 454
1 455
1 456
1 457
1 458
1 459
1 460
1 461
1 462
1 463
1 464
1 465
1 466
1 467
1 468
1 469
1 470
1 471
1 472
1 473
1 474
1 475
1 476
1 477
1 478
1 479
1 480
1 481
1 482
1 483
1 484
1 485
1 486
1 487
1 488
1 489
1 490
1 491
1 492
1 493
1 494
1 495
1 496
1 497
1 498
1 499
1 500
1 501
1 502
1 503
1 504
1 505
1 506
1 507
1 508
1 509
1 510
1 511
1 512
1 513
1 514
1 515
1 516
1 517
1 518
1 519
1 520
1 521
1 522
1 523
1 524
1 525
1 526
1 527
1 528
1 529
1 530
1 531
1 532
1 533
1 534
1 535
1 536
1 537
1 538
1 539
1 540
1 541
1 542
1 543
1 544
1 545
1 546
1 547
1 548
1 549
1 550
1 551
1 552
1 553
1 554
1 555
1 556
1 557
1 558
1 559
1 560
1 561
1 562
1 563
1 564
1 565
1 566
1 567
1 568
1 569
1 570
1 571
1 572
1 573
1 574
1 575
1 576
1 577
1 578
1 579
1 580
1 581
1 582
1 583
1 584
1 585
1 586
1 587
1 588
1 589
1 590
1 591
1 592
1 593
1 594
1 595
1 596
1 597
1 598
1 599
1 600
1 601
1 602
1 603
1 604
1 605
1 606
1 607
1 608
1 609
1 610
1 611
1 612
1 613
1 614
1 615
1 616
1 617
1 618
1 619
1 620
1 621
1 622
1 623
1 624
1 625
1 626
1 627
1 628
1 629
1 630
1 631
1 632
1 633
1 634
1 635
1 636
1 637
1 638
1 639
1 640
1 641
1 642
1 643
1 644
1 645
1 646
1 647
1 648
1 649
1 650
1 651
1 652
1 653
1 654
1 655
1 656
1 657
1 658
1 659
1 660
1 661
1 662
1 663
1 664
1 665
1 666
1 667
1 668
1 669
1 670
1 671
1 672
1 673
1 674
1 675
1 676
1 677
1 678
1 679
1 680
1 681
1 682
1 683
1 684
1 685
1 686
1 687
1 688
1 689
1 690
1 691
1 692
1 693
1 694
1 695
1 696
1 697
1 698
1 699
1 700
1 701
1 702
1 703
1 704
1 705
1 706
1 707
1 708
1 709
1 710
1 711
1 712
1 713
1 714
1 715
1 716
1 717
1 718
1 719
1 720
1 721
1 722
1 723
1 724
1 725
1 726
1 727
1 728
1 729
1 730
1 731
1 732
1 733
1 734
1 735
1 736
1 737
1 738
1 739
1 740
1 741
1 742
1 743
1 744
1 745
1 746
1 747
1 748
1 749
1 750
1 751
1 752
1 753
1 754
1 755
1 756
1 757
1 758
1 759
1 760
1 761
1 762
1 763
1 764
1 765
1 766
1 767
1 768
1 769
1 770
1 771
1 772
1 773
1 774
1 775
1 776
1 777
1 778
1 779
1 780
1 781
1 782
1 783
1 784
1 785
1 786
1 787
1 788
1 789
1 790
1 791
1 792
1 793
1 794
1 795
1 796
1 797
1 798
1 799
1 800
1 801
1 802
1 803
1 804
1 805
1 806
1 807
1 808
1 809
1 810
1 811
1 812
1 813
1 814
1 815
1 816
1 817
1 818
1 819
1 820
1 821
1 822
1 823
1 824
1 825
1 826
1 827
1 828
1 829
1 830
1 831
1 832
1 833
1 834
1 835
1 836
1 837
1 838
1 839
1 840
1 841
1 842
1 843
1 844
1 845
1 846
1 847
1 848
1 849
1 850
1 851
1 852
1 853
1 854
1 855
1 856
1 857
1 858
1 859
1 860
1 861
1 862
1 863
1 864
1 865
1 866
1 867
1 868
1 869
1 870
1 871
1 872
1 873
1 874
1 875
1 876
1 877
1 878
1 879
1 880
1 881
1 882
1 883
1 884
1 885
1 886
1 887
1 888
1 889
1 890
1 891
1 892
1 893
1 894
1 895
1 896
1 897
1 898
1 899
1 900
1 901
1 902
1 903
1 904
1 905
1 906
1 907
1 908
1 909
1 910
1 911
1 912
1 913
1 914
1 915
1 916
1 917
1 918
1 919
1 920
1 921
1 922
1 923
1 924
1 925
1 926
1 927
1 928
1 929
1 930
1 931
1 932
1 933
1 934
1 935
1 936
1 937
1 938
1 939
1 940
1 941
1 942
1 943
1 944
1 945
1 946
1 947
1 948
1 949
1 950
1 951
1 952
1 953
1 954
1 955
1 956
1 957
1 958
1 959
1 960
1 961
1 962
1 963
1 964
1 965
1 966
1 967
1 968
1 969
1 970
1 971
1 972
1 973
1 974
1 975
1 976
1 977
1 978
1 979
1 980
1 981
1 982
1 983
1 984
1 985
1 986
1 987
1 988
1 989
1 990
1 991
1 992
1 993
1 994
1 995
1 996
1 997
1 998
1 999
1 1000
1 1001
1 1002
1 1003
1 1004
1 1005
1 1006
1 1007
1 1008
1 1009
1 1010
1 1011
1 1012
1 1013
1 1014
1 1015
1 1016
1 1017
1 1018
1 1019
1 1020
1 1021
1 1022
1 1023
1 1024
1 1025
1 1026
1 1027
1 1028
1 1029
1 1030
1 1031
1 1032
1 1033
1 1034
1 1035
1 1036
1 1037
1 1038
1 1039
1 1040
1 1041
1 1042
1 1043
1 1044
1 1045
1 1046
1 1047
1 1048
1 1049
1 1050
1 1051
1 1052
1 1053
1 1054
1 1055
1 1056
1 1057
1 1058
1 1059
1 1060
1 1061
1 1062
1 1063
1 1064
1 1065
1 1066
1 1067
1 1068
1 1069
1 1070
1 1071
1 1072
1 1073
1 1074
1 1075
1 1076
1 1077
1 1078
1 1079
1 1080
1 1081
1 1082
1 1083
1 1084
1 1085
1 1086
1 1087
1 1088
1 1089
1 1090
1 1091
1 1092
1 1093
1 1094
1 1095
1 1096
1 1097
1 1098
1 1099
1 1100
1 1101
1 1102
1 1103
1 1104
1 1105
1 1106
1 1107
1 1108
1 1109
1 1110
1 1111
1 1112
1 1113
1 1114
1 1115
1 1116
1 1117
1 1118
1 1119
1 1120
1 1121
1 1122
1 1123
1 1124
1 1125
1 1126
1 1127
1 1128
1 1129
1 1130
1 1131
1 1132
1 1133
1 1134
1 1135
1 1136
1 1137
1 1138
1 1139
1 1140
1 1141
1 1142
1 1143
1 1144
1 1145
1 1146
1 1147
1 1148
1 1149
1 1150
1 1151
1 1152
1 1153
1 1154
1 1155
1 1156
1 1157
1 1158
1 1159
1 1160
1 1161
1 1162
1 1163
1 1164
1 1165
1 1166
1 1167
1 1168
1 1169
1 1170
1 1171
1 1172
1 1173
1 1174
1 1175
1 1176
1 1177
1 1178
1 1179
1 1180
1 1181
1 1182
1 1183
1 1184
1 1185
1 1186
1 1187
1 1188
1 1189
1 1190
1 1191
1 1192
1 1193
1 1194
1 1195
1 1196
1 1197
1 1198
1 1199
1 1200
1 1201
1 1202
1 1203
1 1204
1 1205
1 1206
1 1207
1 1208
1 1209
1 1210
1 1211
1 1212
1 1213
1 1214
1 1215
1 1216
1 1217
1 1218
1 1219
1 1220
1 1221
1 1222
1 1223
1 1224
1 1225
1 1226
1 1227
1 1228
1 1229
1 1230
1 1231
1 1232
1 1233
1 1234
1 1235
1 1236
1 1237
1 1238
1 1239
1 1240
1 1241
1 1242
1 1243
1 1244
1 1245
1 1246
1 1247
1 1248
1 1249
1 1250
1 1251
1 1252
1 1253
1 1254
1 1255
1 1256
1 1257
1 1258
1 1259
1 1260
1 1261
1 1262
1 1263
1 1264
1 1265
1 1266
1 1267
1 1268
1 1269
1 1270
1 1271
1 1272
1 1273
1 1274
1 1275
1 1276
1 1277
1 1278
1 1279
1 1280
1 1281
1 1282
1 1283
1 1284
1 1285
1 1286
1 1287
1 1288
1 1289
1 1290
1 1291
1 1292
1 1293
1 1294
1 1295
1 1296
1 1297
1 1298
1 1299
1 1300
1 1301
1 1302
1 1303
1 1304
1 1305
1 1306
1 1307
1 1308
1 1309
1 1310
1 1311
1 1312
1 1313
1 1314
1 1315
1 1316
1 1317
1 1318
1 1319
1 1320
1 1321
1 1322
1 1323
1 1324
1 1325
1 1326
1 1327
1 1328
1 1329
1 1330
1 1331
1 1332
1 1333
1 1334
1 1335
1 1336
1 1337
1 1338
1 1339
1 1340
1 1341
1 1342
1 1343
1 1344
1 1345
1 1346
1 1347
1 1348
1 1349
1 1350
1 1351
1 1352
1 1353
1 1354
1 1355
1 1356
1 1357
1 1358
1 1359
1 1360
1 1361
1 1362
1 1363
1 1364
1 1365
1 1366
1 1367
1 1368
1 1369
1 1370
1 1371
1 1372
1 1373
1 1374
1 1375
1 1376
1 1377
1 1378
1 1379
1 1380
1 1381
1 1382
1 1383
1 1384
1 1385
1 1386
1 1387
1 1388
1 1389
1 1390
1 1391
1 1392
1 1393
1 1394
1 1395
1 1396
1 1397
1 1398
1 1399
1 1400
1 1401
1 1402
1 1403
1 1404
1 1405
1 1406
1 1407
1 1408
1 1409
1 1410
1 1411
1 1412
1 1413
1 1414
1 1415
1 1416
1 1417
1 1418
1 1419
1 1420
1 1421
1 1422
1 1423
1 1424
1 1425
1 1426
1 1427
1 1428
1 1429
1 1430
1 1431
1 1432
1 1433
1 1434
1 1435
1 1436
1 1437
1 1438
1 1439
1 1440
1 1441
1 1442
1 1443
1 1444
1 1445
1 1446
1 1447
1 1448
1 1449
1 1450
1 1451
1 1452
1 1453
1 1454
1 1455
1 1456
1 1457
1 1458
1 1459
1 1460
1 1461
1 1462
1 1463
1 1464
1 1465
1 1466
1 1467
1 1468
1 1469
1 1470
1 1471
1 1472
1 1473
1 1474
1 1475
1 1476
1 1477
1 1478
1 1479
1 1480
1 1481
1 1482
1 1483
1 1484
1 1485
1 1486
1 1487
1 1488
1 1489
1 1490
1 1491
1 1492
1 1493
1 1494
1 1495
1 1496
1 1497
1 1498
1 1499
1 1500
1 1501
1 1502
1 1503
1 1504
1 1505
1 1506
1 1507
1 1508
1 1509
1 1510
1 1511
1 1512
1 1513
1 1514
1 1515
1 1516
1 1517
1 1518
1 1519
1 1520
1 1521
1 1522
1 1523
1 1524
1 1525
1 1526
1 1527
1 1528
1 1529
1 1530
1 1531
1 1532
1 1533
1 1534
1 1535
1 1536
1 1537
1 1538
1 1539
1 1540
1 1541
1 1542
1 1543
1 1544
1 1545
1 1546
1 1547
1 1548
1 1549
1 1550
1 1551
1 1552
1 1553
1 1554
1 1555
1 1556
1 1557
1 1558
1 1559
1 1560
1 1561
1 1562
1 1563
1 1564
1 1565
1 1566
1 1567
1 1568
1 1569
1 1570
1 1571
1 1572
1 1573
1 1574
1 1575
1 1576
1 1577
1 1578
1 1579
1 1580
1 1581
1 1582
1 1583
1 1584
1 1585
1 1586
1 1587
1 1588
1 1589
1 1590
1 1591
1 1592
1 1593
1 1594
1 1595
1 1596
1 1597
1 1598
1 1599
1 1600
1 1601
1 1602
1 1603
1 1604
1 1605
1 1606
1 1607
1 1608
1 1609
1 1610
1 1611
1 1612
1 1613
1 1614
1 1615
1 1616
1 1617
1 1618
1 1619
1 1620
1 1621
1 1622
1 1623
1 1624
1 1625
1 1626
1 1627
1 1628
1 1629
1 1630
1 1631
1 1632
1 1633
1 1634
1 1635
1 1636
1 1637
1 1638
1 1639
1 1640
1 1641
1 1642
1 1643
1 1644
1 1645
1 1646
1 1647
1 1648
1 1649
1 1650
1 1651
1 1652
1 1653
1 1654
1 1655
1 1656
1 1657
1 1658
1 1659
1 1660
1 1661
1 1662
1 1663
1 1664
1 1665
1 1666
1 1667
1 1668
1 1669
1 1670
1 1671
1 1672
1 1673
1 1674
1 1675
1 1676
1 1677
1 1678
1 1679
1 1680
1 1681
1 1682
1 1683
1 1684
1 1685
1 1686
1 1687
1 1688
1 1689
1 1690
1 1691
1 1692
1 1693
1 1694
1 1695
1 1696
1 1697
1 1698
1 1699
1 1700
1 1701
1 1702
1 1703
1 1704
1 1705
1 1706
1 1707
1 1708
1 1709
1 1710
1 1711
1 1712
1 1713
1 1714
1 1715
1 1716
1 1717
1 1718
1 1719
1 1720
1 1721
1 1722
1 1723
1 1724
1 1725
1 1726
1 1727
1 1728
1 1729
1 1730
1 1731
1 1732
1 1733
1 1734
1 1735
1 1736
1 1737
1 1738
1 1739
1 1740
1 1741
1 1742
1 1743
1 1744
1 1745
1 1746
1 1747
1 1748
1 1749
1 1750
1 1751
1 1752
1 1753
1 1754
1 1755
1 1756
1 1757
1 1758
1 1759
1 1760
1 1761
1 1762
1 1763
1 1764
1 1765
1 1766
1 1767
1 1768
1 1769
1 1770
1 1771
1 1772
1 1773
1 1774
1 1775
1 1776
1 1777
1 1778
1 1779
1 1780
1 1781
1 1782
1 1783
1 1784
1 1785
1 1786
1 1787
1 1788
1 1789
1 1790
1 1791
1 1792
1 1793
1 1794
1 1795
1 1796
1 1797
1 1798
1 1799
1 1800
1 1801
1 1802
1 1803
1 1804
1 1805
1 1806
1 1807
1 1808
1 1809
1 1810
1 1811
1 1812
1 1813
1 1814
1 1815
1 1816
1 1817
1 1818
1 1819
1 1820
1 1821
1 1822
1 1823
1 1824
1 1825
1 1826
1 1827
1 1828
1 1829
1 1830
1 1831
1 1832
1 1833
1 1834
1 1835
1 1836
1 1837
1 1838
1 1839
1 1840
1 1841
1 1842
1 1843
1 1844
1 1845
1 1846
1 1847
1 1848
1 1849
1 1850
1 1851
1 1852
1 1853
1 1854
1 1855
1 1856
1 1857
1 1858
1 1859
1 1860
1 1861
1 1862
1 1863
1 1864
1 1865
1 1866
1 1867
1 1868
1 1869
1 1870
1 1871
1 1872
1 1873
1 1874
1 1875
1 1876
1 1877
1 1878
1 1879
1 1880
1 1881
1 1882
1 1883
1 1884
1 1885
1 1886
1 1887
1 1888
1 1889
1 1890
1 1891
1 1892
1 1893
1 1894
1 1895
1 1896
1 1897
1 1898
1 1899
1 1900
1 1901
1 1902
1 1903
1 1904
1 1905
1 1906
1 1907
1 1908
1 1909
1 1910
1 1911
1 1912
1 1913
1 1914
1 1915
1 1916
1 1917
1 1918
1 1919
1 1920
1 1921
1 1922
1 1923
1 1924
1 1925
1 1926
1 1927
1 1928
1 1929
1 1930
1 1931
1 1932
1 1933
1 1934
1 1935
1 1936
1 1937
1 1938
1 1939
1 1940
1 1941
1 1942
1 1943
1 1944
1 1945
1 1946
1 1947
1 1948
1 1949
1 1950
1 1951
1 1952
1 1953
1 1954
1 1955
1 1956
1 1957
1 1958
1 1959
1 1960
1 1961
1 1962
1 1963
1 1964
1 1965
1 1966
1 1967
1 1968
1 1969
1 1970
1 1971
1 1972
1 1973
1 1974
1 1975
1 1976
1 1977
1 1978
1 1979
1 1980
1 1981
1 1982
1 1983
1 1984
1 1985
1 1986
1 1987
1 1988
1 1989
1 1990
1 1991
1 1992
1 1993
1 1994
1 1995
1 1996
1 1997
1 1998
1 1999
1 2000
1 2001
1 2002
1 2003
1 2004
1 2005
1 2006
1 2007
1 2008
1 2009
1 2010
1 2011
1 2012
1 2013
1 2014
1 2015
1 2016
1 2017
1 2018
1 2019
1 2020
1 2021
1 2022
1 2023
1 2024
1 2025
1 2026
1 2027
1 2028
1 2029
1 2030
1 2031
1 2032
1 2033
1 2034
1 2035
1 2036
1 2037
1 2038
1 2039
1 2040
1 2041
1 2042
1 2043
1 2044
1 2045
1 2046
1 2047
1 2048
1 2049
1 2050
1 2051
1 2052
1 2053
1 2054
1 2055
1 2056
1 2057
1 2058
1 2059
1 2060
1 2061
1 2062
1 2063
1 2064
1 2065
1 2066
1 2067
1 2068
1 2069
1 2070
1 2071
1 2072
1 2073
1 2074
1 2075
1 2076
1 2077
1 2078
1 2079
1 2080
1 2081
1 2082
1 2083
1 2084
1 2085
1 2086
1 2087
1 2088
1 2089
1 2090
1 2091
1 2092
1 2093
1 2094
1 2095
1 2096
1 2097
1 2098
1 2099
1 2100
1 2101
1 2102
1 2103
1 2104
1 2105
1 2106
1 2107
1 2108
1 2109
1 2110
1 2111
1 2112
1 2113
1 2114
1 2115
1 2116
1 2117
1 2118
1 2119
1 2120
1 2121
1 2122
1 2123
1 2124
1 2125
1 2126
1 2127
1 2128
1 2129
1 2130
1 2131
1 2132
1 2133
1 2134
1 2135
1 2136
1 2137
1 2138
1 2139
1 2140
1 2141
1 2142
1 2143
1 2144
1 2145
1 2146
1 2147
1 2148
1 2149
1 2150
1 2151
1 2152
1 2153
1 2154
1 2155
1 2156
1 2157
1 2158
1 2159
1 2160
1 2161
1 2162
1 2163
1 2164
1 2165
1 2166
1 2167
1 2168
1 2169
1 2170
1 2171
1 2172
1 2173
1 2174
1 2175
1 2176
1 2177
1 2178
1 2179
1 2180
1 2181
1 2182
1 2183
1 2184
1 2185
1 2186
1 2187
1 2188
1 2189
1 2190
1 2191
1 2192
1 2193
1 2194
1 2195
1 2196
1 2197
1 2198
1 2199
1 2200
1 2201
1 2202
1 2203
1 2204
1 2205
1 2206
1 2207
1 2208
1 2209
1 2210
1 2211
1 2212
1 2213
1 2214
1 2215
1 2216
1 2217
1 2218
1 2219
1 2220
1 2221
1 2222
1 2223
1 2224
1 2225
1 2226
1 2227
1 2228
1 2229
1 2230
1 2231
1 2232
1 2233
1 2234
1 2235
1 2236
1 2237
1 2238
1 2239
1 2240
1 2241
1 2242
1 2243
1 2244
1 2245
1 2246
1 2247
1 2248
1 2249
1 2250
1 2251
1 2252
1 2253
1 2254
1 2255
1 2256
1 2257
1 2258
1 2259
1 2260
1 2261
1 2262
1 2263
1 2264
1 2265
1 2266
1 2267
1 2268
1 2269
1 2270
1 2271
1 2272
1 2273
1 2274
1 2275
1 2276
1 2277
1 2278
1 2279
1 2280
1 2281
1 2282
1 2283
1 2284
1 2285
1 2286
1 2287
1 2288
1 2289
1 2290
1 2291
1 2292
1 2293
1 2294
1 2295
1 2296
1 2297
1 2298
1 2299
1 2300
1 2301
1 2302
1 2303
1 2304
1 2305
1 2306
1 2307
1 2308
1 2309
1 2310
1 2311
1 2312
1 2313
1 2314
1 2315
1 2316
1 2317
1 2318
1 2319
1 2320
1 2321
1 2322
1 2323
1 2324
1 2325
1 2326
1 2327
1 2328
1 2329
1 2330
1 2331
1 2332
1 2333
1 2334
1 2335
1 2336
1 2337
1 2338
1 2339
1 2340
1 2341
1 2342
1 2343
1 2344
1 2345
1 2346
1 2347
1 2348
1 2349
1 2350
1 2351
1 2352
1 2353
1 2354
1 2355
1 2356
1 2357
1 2358
1 2359
1 2360
1 2361
1 2362
1 2363
1 2364
1 2365
1 2366
1 2367
1 2368
1 2369
1 2370
1 2371
1 2372
1 2373
1 2374
1 2375
1 2376
1 2377
1 2378
1 2379
1 2380
1 2381
1 2382
1 2383
1 2384
1 2385
1 2386
1 2387
1 2388
1 2389
1 2390
1 2391
1 2392
1 2393
1 2394
1 2395
1 2396
1 2397
1 2398
1 2399
1 2400
1 2401
1 2402
1 2403
1 2404
1 2405
1 2406
1 2407
1 2408
1 2409
1 2410
1 2411
1 2412
1 2413
1 2414
1 2415
1 2416
1 2417
1 2418
1 2419
1 2420
1 2421
1 2422
1 2423
1 2424
1 2425
1 2426
1 2427
1 2428
1 2429
1 2430
1 2431
1 2432
1 2433
1 2434
1 2435
1 2436
1 2437
1 2438
1 2439
1 2440
1 2441
1 2442
1 2443
1 2444
1 2445
1 2446
1 2447
1 2448
1 2449
1 2450
1 2451
1 2452
1 2453
1 2454
1 2455
1 2456
1 2457
1 2458
1 2459
1 2460
1 2461
1 2462
1 2463
1 2464
1 2465
1 2466
1 2467
1 2468
1 2469
1 2470
1 2471
1 2472
1 2473
1 2474
1 2475
1 2476
1 2477
1 2478
1 2479
1 2480
1 2481
1 2482
1 2483
1 2484
1 2485
1 2486
1 2487
1 2488
1 2489
1 2490
1 2491
1 2492
1 2493
1 2494
1 2495
1 2496
1 2497
1 2498
1 2499
1 2500
1 2501
1 2502
1 2503
1 2504
1 2505
1 2506
1 2507
1 2508
1 2509
1 2510
1 2511
1 2512
1 2513
1 2514
1 2515
1 2516
1 2517
1 2518
1 2519
1 2520
1 2521
1 2522
1 2523
1 2524
1 2525
1 2526
1 2527
1 2528
1 2529
1 2530
1 2531
1 2532
1 2533
1 2534
1 2535
1 2536
1 2537
1 2538
1 2539
1 2540
1 2541
1 2542
1 2543
1 2544
1 2545
1 2546
1 2547
1 2548
1 2549
1 2550
1 2551
1 2552
1 2553
1 2554
1 2555
1 2556
1 2557
1 2558
1 2559
1 2560
1 2561
1 2562
1 2563
1 2564
1 2565
1 2566
1 2567
1 2568
1 2569
1 2570
1 2571
1 2572
1 2573
1 2574
1 2575
1 2576
1 2577
1 2578
1 2579
1 2580
1 2581
1 2582
1 2583
1 2584
1 2585
1 2586
1 2587
1 2588
1 2589
1 2590
1 2591
1 2592
1 2593
1 2594
1 2595
1 2596
1 2597
1 2598
1 2599
1 2600
1 2601
1 2602
1 2603
1 2604
1 2605
1 2606
1 2607
1 2608
1 2609
1 2610
1 2611
1 2612
1 2613
1 2614
1 2615
1 2616
1 2617
1 2618
1 2619
1 2620
1 2621
1 2622
1 2623
1 2624
1 2625
1 2626
1 2627
1 2628
1 2629
1 2630
1 2631
1 2632
1 2633
1 2634
1 2635
1 2636
1 2637
1 2638
1 2639
1 2640
1 2641
1 2642
1 2643
1 2644
1 2645
1 2646
1 2647
1 2648
1 2649
1 2650
1 2651
1 2652
1 2653
1 2654
1 2655
1 2656
1 2657
1 2658
1 2659
1 2660
1 2661
1 2662
1 2663
1 2664
1 2665
1 2666
1 2667
1 2668
1 2669
1 2670
1 2671
1 2672
1 2673
1 2674
1 2675
1 2676
1 2677
1 2678
1 2679
1 2680
1 2681
1 2682
1 2683
1 2684
1 2685
1 2686
1 2687
1 2688
1 2689
1 2690
1 2691
1 2692
1 2693
1 2694
1 2695
1 2696
1 2697
1 2698
1 2699
1 2700
1 2701
1 2702
1 2703
1 2704
1 2705
1 2706
1 2707
1 2708
1 2709
1 2710
1 2711
1 2712
1 2713
1 2714
1 2715
1 2716
1 2717
1 2718
1 2719
1 2720
1 2721
1 2722
1 2723
1 2724
1 2725
1 2726
1 2727
1 2728
1 2729
1 2730
1 2731
1 2732
1 2733
1 2734
1 2735
1 2736
1 2737
1 2738
1 2739
1 2740
1 2741
1 2742
1 2743
1 2744
1 2745
1 2746
1 2747
1 2748
1 2749
1 2750
1 2751
1 2752
1 2753
1 2754
1 2755
1 2756
1 2757
1 2758
1 2759
1 2760
1 2761
1 2762
1 2763
1 2764
1 2765
1 2766
1 2767
1 2768
1 2769
1 2770
1 2771
1 2772
1 2773
1 2774
1 2775
1 2776
1 2777
1 2778
1 2779
1 2780
1 2781
1 2782
1 2783
1 2784
1 2785
1 2786
1 2787
1 2788
1 2789
1 2790
1 2791
1 2792
1 2793
1 2794
1 2795
1 2796
1 2797
1 2798
1 2799
1 2800
1 2801
1 2802
1 2803
1 2804
1 2805
1 2806
1 2807
1 2808
1 2809
1 2810
1 2811
1 2812
1 2813
1 2814
1 2815
1 2816
1 2817
1 2818
1 2819
1 2820
1 2821
1 2822
1 2823
1 2824
1 2825
1 2826
1 2827
1 2828
1 2829
1 2830
1 2831
1 2832
1 2833
1 2834
1 2835
1 2836
1 2837
1 2838
1 2839
1 2840
1 2841
1 2842
1 2843
1 2844
1 2845
1 2846
1 2847
1 2848
1 2849
1 2850
1 2851
1 2852
1 2853
1 2854
1 2855
1 2856
1 2857
1 2858
1 2859
1 2860
1 2861
1 2862
1 2863
1 2864
1 2865
1 2866
1 2867
1 2868
1 2869
1 2870
1 2871
1 2872
1 2873
1 2874
1 2875
1 2876
1 2877
1 2878
1 2879
1 2880
1 2881
1 2882
1 2883
1 2884
1 2885
1 2886
1 2887
1 2888
1 2889
1 2890
1 2891
1 2892
1 2893
1 2894
1 2895
1 2896
1 2897
1 2898
1 2899
1 2900
1 2901
1 2902
1 2903
1 2904
1 2905
1 2906
1 2907
1 2908
1 2909
1 2910
1 2911
1 2912
1 2913
1 2914
1 2915
1 2916
1 2917
1 2918
1 2919
1 2920
1 2921
1 2922
1 2923
1 2924
1 2925
1 2926
1 2927
1 2928
1 2929
1 2930
1 2931
1 2932
1 2933
1 2934
1 2935
1 2936
1 2937
1 2938
1 2939
1 2940
1 2941
1 2942
1 2943
1 2944
1 2945
1 2946
1 2947
1 2948
1 2949
1 2950
1 2951
1 2952
1 2953
1 2954
1 2955
1 2956
1 2957
1 2958
1 2959
1 2960
1 2961
1 2962
1 2963
1 2964
1 2965
1 2966
1 2967
1 2968
1 2969
1 2970
1 2971
1 2972
1 2973
1 2974
1 2975
1 2976
1 2977
1 2978
1 2979
1 2980
1 2981
1 2982
1 2983
1 2984
1 2985
1 2986
1 2987
1 2988
1 2989
1 2990
1 2991
1 2992
1 2993
1 2994
1 2995
1 2996
1 2997
1 2998
1 2999
1 3000
1 3001
1 3002
1 3003
1 3004
1 3005
1 3006
1 3007
1 3008
1 3009
1 3010
1 3011
1 3012
1 3013
1 3014
1 3015
1 3016
1 3017
1 3018
1 3019
1 3020
1 3021
1 3022
1 3023
1 3024
1 3025
1 3026
1 3027
1 3028
1 3029
1 3030
1 3031
1 3032
1 3033
1 3034
1 3035
1 3036
1 3037
1 3038
1 3039
1 3040
1 3041
1 3042
1 3043
1 3044
1 3045
1 3046
1 3047
1 3048
1 3049
1 3050
1 3051
1 3052
1 3053
1 3054
1 3055
1 3056
1 3057
1 3058
1 3059
1 3060
1 3061
1 3062
1 3063
1 3064
1 3065
1 3066
1 3067
1 3068
1 3069
1 3070
1 3071
1 3072
1 3073
1 3074
1 3075
1 3076
1 3077
1 3078
1 3079
1 3080
1 3081
1 3082
1 3083
1 3084
1 3085
1 3086
1 3087
1 3088
1 3089
1 3090
1 3091
1 3092
1 3093
1 3094
1 3095
1 3096
1 3097
1 3098
1 3099
1 3100
1 3101
1 3102
1 3103
1 3104
1 3105
1 3106
1 3107
1 3108
1 3109
1 3110
1 3111
1 3112
1 3113
1 3114
1 3115
1 3116
1 3117
1 3118
1 3119
1 3120
1 3121
1 3122
1 3123
1 3124
1 3125
1 3126
1 3127
1 3128
1 3129
1 3130
1 3131
1 3132
1 3133
1 3134
1 3135
1 3136
1 3137
1 3138
1 3139
1 3140
1 3141
1 3142
1 3143
1 3144
1 3145
1 3146
1 3147
1 3148
1 3149
1 3150
1 3151
1 3152
1 3153
1 3154
1 3155
1 3156
1 3157
1 3158
1 3159
1 3160
1 3161
1 3162
1 3163
1 3164
1 3165
1 3166
1 3167
1 3168
1 3169
1 3170
1 3171
1 3172
1 3173
1 3174
1 3175
1 3176
1 3177
1 3178
1 3179
1 3180
1 3181
1 3182
1 3183
1 3184
1 3185
1 3186
1 3187
1 3188
1 3189
1 3190
1 3191
1 3192
1 3193
1 3194
1 3195
1 3196
1 3197
1 3198
1 3199
1 3200
1 3201
1 3202
1 3203
1 3204
1 3205
1 3206
1 3207
1 3208
1 3209
1 3210
1 3211
1 3212
1 3213
1 3214
1 3215
1 3216
1 3217
1 3218
1 3219
1 3220
1 3221
1 3222
1 3223
1 3224
1 3225
1 3226
1 3227
1 3228
1 3229
1 3230
1 3231
1 3232
1 3233
1 3234
1 3235
1 3236
1 3237
1 3238
1 3239
1 3240
1 3241
1 3242
1 3243
1 3244
1 3245
1 3246
1 3247
1 3248
1 3249
1 3250
1 3251
1 3252
1 3253
1 3254
1 3255
1 3256
1 3257
1 3258
1 3259
1 3260
1 3261
1 3262
1 3263
1 3264
1 3265
1 3266
1 3267
1 3268
1 3269
1 3270
1 3271
1 3272
1 3273
1 3274
1 3275
1 3276
1 3277
1 3278
1 3279
1 3280
1 3281
1 3282
1 3283
1 3284
1 3285
1 3286
1 3287
1 3288
1 3289
1 3290
1 3291
1 3292
1 3293
1 3294
1 3295
1 3296
1 3297
1 3298
1 3299
1 3300
1 3301
1 3302
1 3303
1 3304
1 3305
1 3306
1 3307
1 3308
1 3309
1 3310
1 3311
1 3312
1 3313
1 3314
1 3315
1 3316
1 3317
1 3318
1 3319
1 3320
1 3321
1 3322
1 3323
1 3324
1 3325
1 3326
1 3327
1 3328
1 3329
1 3330
1 3331
1 3332
1 3333
1 3334
1 3335
1 3336
1 3337
1 3338
1 3339
1 3340
1 3341
1 3342
1 3343
1 3344
1 3345
1 3346
1 3347
1 3348
1 3349
1 3350
1 3351
1 3352
1 3353
1 3354
1 3355
1 3356
1 3357
1 3358
1 3359
1 3360
1 3361
1 3362
1 3363
1 3364
1 3365
1 3366
1 3367
1 3368
1 3369
1 3370
1 3371
1 3372
1 3373
1 3374
1 3375
1 3376
1 3377
1 3378
1 3379
1 3380
1 3381
1 3382
1 3383
1 3384
1 3385
1 3386
1 3387
1 3388
1 3389
1 3390
1 3391
1 3392
1 3393
1 3394
1 3395
1 3396
1 3397
1 3398
1 3399
1 3400
1 3401
1 3402
1 3403
1 3404
1 3405
1 3406
1 3407
1 3408
1 3409
1 3410
1 3411
1 3412
1 3413
1 3414
1 3415
1 3416
1 3417
1 3418
1 3419
1 3420
1 3421
1 3422
1 3423
1 3424
1 3425
1 3426
1 3427
1 3428
1 3429
1 3430
1 3431
1 3432
1 3433
1 3434
1 3435
1 3436
1 3437
1 3438
1 3439
1 3440
1 3441
1 3442
1 3443
1 3444
1 3445
1 3446
1 3447
1 3448
1 3449
1 3450
1 3451
1 3452
1 3453
1 3454
1 3455
1 3456
1 3457
1 3458
1 3459
1 3460
1 3461
1 3462
1 3463
1 3464
1 3465
1 3466
1 3467
1 3468
1 3469
1 3470
1 3471
1 3472
1 3473
1 3474
1 3475
1 3476
1 3477
1 3478
1 3479
1 3480
1 3481
1 3482
1 3483
1 3484
1 3485
1 3486
1 3487
1 3488
1 3489
1 3490
1 3491
1 3492
1 3493
1 3494
1 3495
1 3496
1 3497
1 3498
1 3499
1 3500
1 3501
1 3502
1 3503
1 3504
1 3505
1 3506
1 3507
1 3508
1 3509
1 3510
1 3511
1 3512
1 3513
1 3514
1 3515
1 3516
1 3517
1 3518
1 3519
1 3520
1 3521
1 3522
1 3523
1 3524
1 3525
1 3526
1 3527
1 3528
1 3529
1 3530
1 3531
1 3532
1 3533
1 3534
1 3535
1 3536
1 3537
1 3538
1 3539
1 3540
1 3541
1 3542
1 3543
1 3544
1 3545
1 3546
1 3547
1 3548
1 3549
1 3550
1 3551
1 3552
1 3553
1 3554
1 3555
1 3556
1 3557
1 3558
1 3559
1 3560
1 3561
1 3562
1 3563
1 3564
1 3565
1 3566
1 3567
1 3568
1 3569
1 3570
1 3571
1 3572
1 3573
1 3574
1 3575
1 3576
1 3577
1 3578
1 3579
1 3580
1 3581
1 3582
1 3583
1 3584
1 3585
1 3586
1 3587
1 3588
1 3589
1 3590
1 3591
1 3592
1 3593
1 3594
1 3595
1 3596
1 3597
1 3598
1 3599
1 3600
1 3601
1 3602
1 3603
1 3604
1 3605
1 3606
1 3607
1 3608
1 3609
1 3610
1 3611
1 3612
1 3613
1 3614
1 3615
1 3616
1 3617
1 3618
1 3619
1 3620
1 3621
1 3622
1 3623
1 3624
1 3625
1 3626
1 3627
1 3628
1 3629
1 3630
1 3631
1 3632
1 3633
1 3634
1 3635
1 3636
1 3637
1 3638
1 3639
1 3640
1 3641
1 3642
1 3643
1 3644
1 3645
1 3646
1 3647
1 3648
1 3649
1 3650
1 3651
1 3652
1 3653
1 3654
1 3655
1 3656
1 3657
1 3658
1 3659
1 3660
1 3661
1 3662
1 3663
1 3664
1 3665
1 3666
1 3667
1 3668
1 3669
1 3670
1 3671
1 3672
1 3673
1 3674
1 3675
1 3676
1 3677
1 3678
1 3679
1 3680
1 3681
1 3682
1 3683
1 3684
1 3685
1 3686
1 3687
1 3688
1 3689
1 3690
1 3691
1 3692
1 3693
1 3694
1 3695
1 3696
1 3697
1 3698
1 3699
1 3700
1 3701
1 3702
1 3703
1 3704
1 3705
1 3706
1 3707
1 3708
1 3709
1 3710
1 3711
1 3712
1 3713
1 3714
1 3715
1 3716
1 3717
1 3718
1 3719
1 3720
1 3721
1 3722
1 3723
1 3724
1 3725
1 3726
1 3727
1 3728
1 3729
1 3730
1 3731
1 3732
1 3733
1 3734
1 3735
1 3736
1 3737
1 3738
1 3739
1 3740
1 3741
1 3742
1 3743
1 3744
1 3745
1 3746
1 3747
1 3748
1 3749
1 3750
1 3751
1 3752
1 3753
1 3754
1 3755
1 3756
1 3757
1 3758
1 3759
1 3760
1 3761
1 3762
1 3763
1 3764
1 3765
1 3766
1 3767
1 3768
1 3769
1 3770
1 3771
1 3772
1 3773
1 3774
1 3775
1 3776
1 3777
1 3778
1 3779
1 3780
1 3781
1 3782
1 3783
1 3784
1 3785
1 3786
1 3787
1 3788
1 3789
1 3790
1 3791
1 3792
1 3793
1 3794
1 3795
1 3796
1 3797
1 3798
1 3799
1 3800
1 3801
1 3802
1 3803
1 3804
1 3805
1 3806
1 3807
1 3808
1 3809
1 3810
1 3811
1 3812
1 3813
1 3814
1 3815
1 3816
1 3817
1 3818
1 3819
1 3820
1 3821
1 3822
1 3823
1 3824
1 3825
1 3826
1 3827
1 3828
1 3829
1 3830
1 3831
1 3832
1 3833
1 3834
1 3835
1 3836
1 3837
1 3838
1 3839
1 3840
1 3841
1 3842
1 3843
1 3844
1 3845
1 3846
1 3847
1 3848
1 3849
1 3850
1 3851
1 3852
1 3853
1 3854
1 3855
1 3856
1 3857
1 3858
1 3859
1 3860
1 3861
1 3862
1 3863
1 3864
1 3865
1 3866
1 3867
1 3868
1 3869
1 3870
1 3871
1 3872
1 3873
1 3874
1 3875
1 3876
1 3877
1 3878
1 3879
1 3880
1 3881
1 3882
1 3883
1 3884
1 3885
1 3886
1 3887
1 3888
1 3889
1 3890
1 3891
1 3892
1 3893
1 3894
1 3895
1 3896
1 3897
1 3898
1 3899
1 3900
1 3901
1 3902
1 3903
1 3904
1 3905
1 3906
1 3907
1 3908
1 3909
1 3910
1 3911
1 3912
1 3913
1 3914
1 3915
1 3916
1 3917
1 3918
1 3919
1 3920
1 3921
1 3922
1 3923
1 3924
1 3925
1 3926
1 3927
1 3928
1 3929
1 3930
1 3931
1 3932
1 3933
1 3934
1 3935
1 3936
1 3937
1 3938
1 3939
1 3940
1 3941
1 3942
1 3943
1 3944
1 3945
1 3946
1 3947
1 3948
1 3949
1 3950
1 3951
1 3952
1 3953
1 3954
1 3955
1 3956
1 3957
1 3958
1 3959
1 3960
1 3961
1 3962
1 3963
1 3964
1 3965
1 3966
1 3967
1 3968
1 3969
1 3970
1 3971
1 3972
1 3973
1 3974
1 3975
1 3976
1 3977
1 3978
1 3979
1 3980
1 3981
1 3982
1 3983
1 3984
1 3985
1 3986
1 3987
1 3988
1 3989
1 3990
1 3991
1 3992
1 3993
1 3994
1 3995
1 3996
1 3997
1 3998
1 3999
1 4000
1 4001
1 4002
1 4003
1 4004
1 4005
1 4006
1 4007
1 4008
1 4009
1 4010
1 4011
1 4012
1 4013
1 4014
1 4015
1 4016
1 4017
1 4018
1 4019
1 4020
1 4021
1 4022
1 4023
1 4024
1 4025
1 4026
1 4027
1 4028
1 4029
1 4030
1 4031
1 4032
1 4033
1 4034
1 4035
1 4036
1 4037
1 4038
1 4039
1 4040
1 4041
1 4042
1 4043
1 4044
1 4045
1 4046
1 4047
1 4048
1 4049
1 4050
1 4051
1 4052
1 4053
1 4054
1 4055
1 4056
1 4057
1 4058
1 4059
1 4060
1 4061
1 4062
1 4063
1 4064
1 4065
1 4066
1 4067
1 4068
1 4069
1 4070
1 4071
1 4072
1 4073
1 4074
1 4075
1 4076
1 4077
1 4078
1 4079
1 4080
1 4081
1 4082
1 4083
1 4084
1 4085
1 4086
1 4087
1 4088
1 4089
1 4090
1 4091
1 4092
1 4093
1 4094
1 4095
1 4096
1 4097
1 4098
1 4099
1 4100
1 4101
1 4102
1 4103
1 4104
1 4105
1 4106
1 4107
1 4108
1 4109
1 4110
1 4111
1 4112
1 4113
1 4114
1 4115
1 4116
1 4117
1 4118
1 4119
1 4120
1 4121
1 4122
1 4123
1 4124
1 4125
1 4126
1 4127
1 4128
1 4129
1 4130
1 4131
1 4132
1 4133
1 4134
1 4135
1 4136
1 4137
1 4138
1 4139
1 4140
1 4141
1 4142
1 4143
1 4144
1 4145
1 4146
1 4147
1 4148
1 4149
1 4150
1 4151
1 4152
1 4153
1 4154
1 4155
1 4156
1 4157
1 4158
1 4159
1 4160
1 4161
1 4162
1 4163
1 4164
1 4165
1 4166
1 4167
1 4168
1 4169
1 4170
1 4171
1 4172
1 4173
1 4174
1 4175
1 4176
1 4177
1 4178
1 4179
1 4180
1 4181
1 4182
1 4183
1 4184
1 4185
1 4186
1 4187
1 4188
1 4189
1 4190
1 4191
1 4192
1 4193
1 4194
1 4195
1 4196
1 4197
1 4198
1 4199
1 4200
1 4201
1 4202
1 4203
1 4204
1 4205
1 4206
1 4207
1 4208
1 4209
1 4210
1 4211
1 4212
1 4213
1 4214
1 4215
1 4216
1 4217
1 4218
1 4219
1 4220
1 4221
1 4222
1 4223
1 4224
1 4225
1 4226
1 4227
1 4228
1 4229
1 4230
1 4231
1 4232
1 4233
1 4234
1 4235
1 4236
1 4237
1 4238
1 4239
1 4240
1 4241
1 4242
1 4243
1 4244
1 4245
1 4246
1 4247
1 4248
1 4249
1 4250
1 4251
1 4252
1 4253
1 4254
1 4255
1 4256
1 4257
1 4258
1 4259
1 4260
1 4261
1 4262
1 4263
1 4264
1 4265
1 4266
1 4267
1 4268
1 4269
1 4270
1 4271
1 4272
1 4273
1 4274
1 4275
1 4276
1 4277
1 4278
1 4279
1 4280
1 4281
1 4282
1 4283
1 4284
1 4285
1 4286
1 4287
1 4288
1 4289
1 4290
1 4291
1 4292
1 4293
1 4294
1 4295
1 4296
1 4297
1 4298
1 4299
1 4300
1 4301
1 4302
1 4303
1 4304
1 4305
1 4306
1 4307
1 4308
1 4309
1 4310
1 4311
1 4312
1 4313
1 4314
1 4315
1 4316
1 4317
1 4318
1 4319
1 4320
1 4321
1 4322
1 4323
1 4324
1 4325
1 4326
1 4327
1 4328
1 4329
1 4330
1 4331
1 4332
1 4333
1 4334
1 4335
1 4336
1 4337
1 4338
1 4339
1 4340
1 4341
1 4342
1 4343
1 4344
1 4345
1 4346
1 4347
1 4348
1 4349
1 4350
1 4351
1 4352
1 4353
1 4354
1 4355
1 4356
1 4357
1 4358
1 4359
1 4360
1 4361
1 4362
1 4363
1 4364
1 4365
1 4366
1 4367
1 4368
1 4369
1 4370
1 4371
1 4372
1 4373
1 4374
1 4375
1 4376
1 4377
1 4378
1 4379
1 4380
1 4381
1 4382
1 4383
1 4384
1 4385
1 4386
1 4387
1 4388
1 4389
1 4390
1 4391
1 4392
1 4393
1 4394
1 4395
1 4396
1 4397
1 4398
1 4399
1 4400
1 4401
1 4402
1 4403
1 4404
1 4405
1 4406
1 4407
1 4408
1 4409
1 4410
1 4411
1 4412
1 4413
1 4414
1 4415
1 4416
1 4417
1 4418
1 4419
1 4420
1 4421
1 4422
1 4423
1 4424
1 4425
1 4426
1 4427
1 4428
1 4429
1 4430
1 4431
1 4432
1 4433
1 4434
1 4435
1 4436
1 4437
1 4438
1 4439
1 4440
1 4441
1 4442
1 4443
1 4444
1 4445
1 4446
1 4447
1 4448
1 4449
1 4450
1 4451
1 4452
1 4453
1 4454
1 4455
1 4456
1 4457
1 4458
1 4459
1 4460
1 4461
1 4462
1 4463
1 4464
1 4465
1 4466
1 4467
1 4468
1 4469
1 4470
1 4471
1 4472
1 4473
1 4474
1 4475
1 4476
1 4477
1 4478
1 4479
1 4480
1 4481
1 4482
1 4483
1 4484
1 4485
1 4486
1 4487
1 4488
1 4489
1 4490
1 4491
1 4492
1 4493
1 4494
1 4495
1 4496
1 4497
1 4498
1 4499
1 4500
1 4501
1 4502
1 4503
1 4504
1 4505
1 4506
1 4507
1 4508
1 4509
1 4510
1 4511
1 4512
1 4513
1 4514
1 4515
1 4516
1 4517
1 4518
1 4519
1 4520
1 4521
1 4522
1 4523
1 4524
1 4525
1 4526
1 4527
1 4528
1 4529
1 4530
1 4531
1 4532
1 4533
1 4534
1 4535
1 4536
1 4537
1 4538
1 4539
1 4540
1 4541
1 4542
1 4543
1 4544
1 4545
1 4546
1 4547
1 4548
1 4549
1 4550
1 4551
1 4552
1 4553
1 4554
1 4555
1 4556
1 4557
1 4558
1 4559
1 4560
1 4561
1 4562
1 4563
1 4564
1 4565
1 4566
1 4567
1 4568
1 4569
1 4570
1 4571
1 4572
1 4573
1 4574
1 4575
1 4576
1 4577
1 4578
1 4579
1 4580
1 4581
1 4582
1 4583
1 4584
1 4585
1 4586
1 4587
1 4588
1 4589
1 4590
1 4591
1 4592
1 4593
1 4594
1 4595
1 4596
1 4597
1 4598
1 4599
1 4600
1 4601
1 4602
1 4603
1 4604
1 4605
1 4606
1 4607
1 4608
1 4609
1 4610
1 4611
1 4612
1 4613
1 4614
1 4615
1 4616
1 4617
1 4618
1 4619
1 4620
1 4621
1 4622
1 4623
1 4624
1 4625
1 4626
1 4627
1 4628
1 4629
1 4630
1 4631
1 4632
1 4633
1 4634
1 4635
1 4636
1 4637
1 4638
1 4639
1 4640
1 4641
1 4642
1 4643
1 4644
1 4645
1 4646
1 4647
1 4648
1 4649
1 4650
1 4651
1 4652
1 4653
1 4654
1 4655
1 4656
1 4657
1 4658
1 4659
1 4660
1 4661
1 4662
1 4663
1 4664
1 4665
1 4666
1 4667
1 4668
1 4669
1 4670
1 4671
1 4672
1 4673
1 4674
1 4675
1 4676
1 4677
1 4678
1 4679
1 4680
1 4681
1 4682
1 4683
1 4684
1 4685
1 4686
1 4687
1 4688
1 4689
1 4690
1 4691
1 4692
1 4693
1 4694
1 4695
1 4696
1 4697
1 4698
1 4699
1 4700
1 4701
1 4702
1 4703
1 4704
1 4705
1 4706
1 4707
1 4708
1 4709
1 4710
1 4711
1 4712
1 4713
1 4714
1 4715
1 4716
1 4717
1 4718
1 4719
1 4720
1 4721
1 4722
1 4723
1 4724
1 4725
1 4726
1 4727
1 4728
1 4729
1 4730
1 4731
1 4732
1 4733
1 4734
1 4735
1 4736
1 4737
1 4738
1 4739
1 4740
1 4741
1 4742
1 4743
1 4744
1 4745
1 4746
1 4747
1 4748
1 4749
1 4750
1 4751
1 4752
1 4753
1 4754
1 4755
1 4756
1 4757
1 4758
1 4759
1 4760
1 4761
1 4762
1 4763
1 4764
1 4765
1 4766
1 4767
1 4768
1 4769
1 4770
1 4771
1 4772
1 4773
1 4774
1 4775
1 4776
1 4777
1 4778
1 4779
1 4780
1 4781
1 4782
1 4783
1 4784
1 4785
1 4786
1 4787
1 4788
1 4789
1 4790
1 4791
1 4792
1 4793
1 4794
1 4795
1 4796
1 4797
1 4798
1 4799
1 4800
1 4801
1 4802
1 4803
1 4804
1 4805
1 4806
1 4807
1 4808
1 4809
1 4810
1 4811
1 4812
1 4813
1 4814
1 4815
1 4816
1 4817
1 4818
1 4819
1 4820
1 4821
1 4822
1 4823
1 4824
1 4825
1 4826
1 4827
1 4828
1 4829
1 4830
1 4831
1 4832
1 4833
1 4834
1 4835
1 4836
1 4837
1 4838
1 4839
1 4840
1 4841
1 4842
1 4843
1 4844
1 4845
1 4846
1 4847
1 4848
1 4849
1 4850
1 4851
1 4852
1 4853
1 4854
1 4855
1 4856
1 4857
1 4858
1 4859
1 4860
1 4861
1 4862
1 4863
1 4864
1 4865
1 4866
1 4867
1 4868
1 4869
1 4870
1 4871
1 4872
1 4873
1 4874
1 4875
1 4876
1 4877
1 4878
1 4879
1 4880
1 4881
1 4882
1 4883
1 4884
1 4885
1 4886
1 4887
1 4888
1 4889
1 4890
1 4891
1 4892
1 4893
1 4894
1 4895
1 4896
1 4897
1 4898
1 4899
1 4900
1 4901
1 4902
1 4903
1 4904
1 4905
1 4906
1 4907
1 4908
1 4909
1 4910
1 4911
1 4912
1 4913
1 4914
1 4915
1 4916
1 4917
1 4918
1 4919
1 4920
1 4921
1 4922
1 4923
1 4924
1 4925
1 4926
1 4927
1 4928
1 4929
1 4930
1 4931
1 4932
1 4933
1 4934
1 4935
1 4936
1 4937
1 4938
1 4939
1 4940
1 4941
1 4942
1 4943
1 4944
1 4945
1 4946
1 4947
1 4948
1 4949
1 4950
1 4951
1 4952
1 4953
1 4954
1 4955
1 4956
1 4957
1 4958
1 4959
1 4960
1 4961
1 4962
1 4963
1 4964
1 4965
1 4966
1 4967
1 4968
1 4969
1 4970
1 4971
1 4972
1 4973
1 4974
1 4975
1 4976
1 4977
1 4978
1 4979
1 4980
1 4981
1 4982
1 4983
1 4984
1 4985
1 4986
1 4987
1 4988
1 4989
1 4990
1 4991
1 4992
1 4993
1 4994
1 4995
1 4996
1 4997
1 4998
1 4999
CELL_TYPES 5000
1 
1 
1 
1 
1 
1 
1 
1 
1 
1 
1 
1 
1 
1 
1 
1 
1 
1 
1 
1 
1 
1 
1 
1 
1 
1 
1 
1 
1 
1 
1 
1 
1 
1 
1 
1 
1 
1 
1 
1 
1 
1 
1 
1 
1 
1 
1 
1 
1 
1 
1 
1 
1 
1 
1 
1 
1 
1 
1 
1 
1 
1 
1 
1 
1 
1 
1 
1 
1 
1 
1 
1 
1 
1 
1 
1 
1 
1 
1 
1 
1 
1 
1 
1 
1 
1 
1 
1 
1 
1 
1 
1 
1 
1 
1 
1 
1 
1 
1 
1 
1 
1 
1 
1 
1 
1 
1 
1 
1 
1 
1 
1 
1 
1 
1 
1 
1 
1 
1 
1 
1 
1 
1 
1 
1 
1 
1 
1 
1 
1 
1 
1 
1 
1 
1 
1 
1 
1 
1 
1 
1 
1 
1 
1 
1 
1 
1 
1 
1 
1 
1 
1 
1 
1 
1 
1 
1 
1 
1 
1 
1 
1 
1 
1 
1 
1 
1 
1 
1 
1 
1 
1 
1 
1 
1 
1 
1 
1 
1 
1 
1 
1 
1 
1 
1 
1 
1 
1 
1 
1 
1 
1 
1 
1 
1 
1 
1 
1 
1 
1 
1 
1 
1 
1 
1 
1 
1 
1 
1 
1 
1 
1 
1 
1 
1 
1 
1 
1 
1 
1 
1 
1 
1 
1 
1 
1 
1 
1 
1 
1 
1 
1 
1 
1 
1 
1 
1 
1 
1 
1 
1 
1 
1 
1 
1 
1 
1 
1 
1 
1 
1 
1 
1 
1 
1 
1 
1 
1 
1 
1 
1 
1 
1 
1 
1 
1 
1 
1 
1 
1 
1 
1 
1 
1 
1 
1 
1 
1 
1 
1 
1 
1 
1 
1 
1 
1 
1 
1 
1 
1 
1 
1 
1 
1 
1 
1 
1 
1 
1 
1 
1 
1 
1 
1 
1 
1 
1 
1 
1 
1 
1 
1 
1 
1 
1 
1 
1 
1 
1 
1 
1 
1 
1 
1 
1 
1 
1 
1 
1 
1 
1 
1 
1 
1 
1 
1 
1 
1 
1 
1 
1 
1 
1 
1 
1 
1 
1 
1 
1 
1 
1 
1 
1 
1 
1 
1 
1 
1 
1 
1 
1 
1 
1 
1 
1 
1 
1 
1 
1 
1 
1 
1 
1 
1 
1 
1 
1 
1 
1 
1 
1 
1 
1 
1 
1 
1 
1 
1 
1 
1 
1 
1 
1 
1 
1 
1 
1 
1 
1 
1 
1 
1 
1 
1 
1 
1 
1 
1 
1 
1 
1 
1 
1 
1 
1 
1 
1 
1 
1 
1 
1 
1 
1 
1 
1 
1 
1 
1 
1 
1 
1 
1 
1 
1 
1 
1 
1 
1 
1 
1 
1 
1 
1 
1 
1 
1 
1 
1 
1 
1 
1 
1 
1 
1 
1 
1 
1 
1 
1 
1 
1 
1 
1 
1 
1 
1 
1 
1 
1 
1 
1 
1 
1 
1 
1 
1 
1 
1 
1 
1 
1 
1 
1 
1 
1 
1 
1 
1 
1 
1 
1 
1 
1 
1 
1 
1 
1 
1 
1 
1 
1 
1 
1 
1 
1 
1 
1 
1 
1 
1 
1 
1 
1 
1 
1 
1 
1 
1 
1 
1 
1 
1 
1 
1 
1 
1 
1 
1 
1 
1 
1 
1 
1 
1 
1 
1 
1 
1 
1 
1 
1 
1 
1 
1 
1 
1 
1 
1 
1 
1 
1 
1 
1 
1 
1 
1 
1 
1 
1 
1 
1 
1 
1 
1 
1 
1 
1 
1 
1 
1 
1 
1 
1 
1 
1 
1 
1 
1 
1 
1 
1 
1 
1 
1 
1 
1 
1 
1 
1 
1 
1 
1 
1 
1 
1 
1 
1 
1 
1 
1 
1 
1 
1 
1 
1 
1 
1 
1 
1 
1 
1 
1 
1 
1 
1 
1 
1 
1 
1 
1 
1 
1 
1 
1 
1 
1 
1 
1 
1 
1 
1 
1 
1 
1 
1 
1 
1 
1 
1 
1 
1 
1 
1 
1 
1 
1 
1 
1 
1 
1 
1 
1 
1 
1 
1 
1 
1 
1 
1 
1 
1 
1 
1 
1 
1 
1 
1 
1 
1 
1 
1 
1 
1 
1 
1 
1 
1 
1 
1 
1 
1 
1 
1 
1 
1 
1 
1 
1 
1 
1 
1 
1 
1 
1 
1 
1 
1 
1 
1 
1 
1 
1 
1 
1 
1 
1 
1 
1 
1 
1 
1 
1 
1 
1 
1 
1 
1 
1 
1 
1 
1 
1 
1 
1 
1 
1 
1 
1 
1 
1 
1 
1 
1 
1 
1 
1 
1 
1 
1 
1 
1 
1 
1 
1 
1 
1 
1 
1 
1 
1 
1 
1 
1 
1 
1 
1 
1 
1 
1 
1 
1 
1 
1 
1 
1 
1 
1 
1 
1 
1 
1 
1 
1 
1 
1 
1 
1 
1 
1 
1 
1 
1 
1 
1 
1 
1 
1 
1 
1 
1 
1 
1 
1 
1 
1 
1 
1 
1 
1 
1 
1 
1 
1 
1 
1 
1 
1 
1 
1 
1 
1 
1 
1 
1 
1 
1 
1 
1 
1 
1 
1 
1 
1 
1 
1 
1 
1 
1 
1 
1 
1 
1 
1 
1 
1 
1 
1 
1 
1 
1 
1 
1 
1 
1 
1 
1 
1 
1 
1 
1 
1 
1 
1 
1 
1 
1 
1 
1 
1 
1 
1 
1 
1 
1 
1 
1 
1 
1 
1 
1 
1 
1 
1 
1 
1 
1 
1 
1 
1 
1 
1 
1 
1 
1 
1 
1 
1 
1 
1 
1 
1 
1 
1 
1 
1 
1 
1 
1 
1 
1 
1 
1 
1 
1 
1 
1 
1 
1 
1 
1 
1 
1 
1 
1 
1 
1 
1 
1 
1 
1 
1 
1 
1 
1 
1 
1 
1 
1 
1 
1 
1 
1 
1 
1 
1 
1 
1 
1 
1 
1 
1 
1 
1 
1 
1 
1 
1 
1 
1 
1 
1 
1 
1 
1 
1 
1 
1 
1 
1 
1 
1 
1 
1 
1 
1 
1 
1 
1 
1 
1 
1 
1 
1 
1 
1 
1 
1 
1 
1 
1 
1 
1 
1 
1 
1 
1 
1 
1 
1 
1 
1 
1 
1 
1 
1 
1 
1 
1 
1 
1 
1 
1 
1 
1 
1 
1 
1 
1 
1 
1 
1 
1 
1 
1 
1 
1 
1 
1 
1 
1 
1 
1 
1 
1 
1 
1 
1 
1 
1 
1 
1 
1 
1 
1 
1 
1 
1 
1 
1 
1 
1 
1 
1 
1 
1 
1 
1 
1 
1 
1 
1 
1 
1 
1 
1 
1 
1 
1 
1 
1 
1 
1 
1 
1 
1 
1 
1 
1 
1 
1 
1 
1 
1 
1 
1 
1 
1 
1 
1 
1 
1 
1 
1 
1 
1 
1 
1 
1 
1 
1 
1 
1 
1 
1 
1 
1 
1 
1 
1 
1 
1 
1 
1 
1 
1 
1 
1 
1 
1 
1 
1 
1 
1 
1 
1 
1 
1 
1 
1 
1 
1 
1 
1 
1 
1 
1 
1 
1 
1 
1 
1 
1 
1 
1 
1 
1 
1 
1 
1 
1 
1 
1 
1 
1 
1 
1 
1 
1 
1 
1 
1 
1 
1 
1 
1 
1 
1 
1 
1 
1 
1 
1 
1 
1 
1 
1 
1 
1 
1 
1 
1 
1 
1 
1 
1 
1 
1 
1 
1 
1 
1 
1 
1 
1 
1 
1 
1 
1 
1 
1 
1 
1 
1 
1 
1 
1 
1 
1 
1 
1 
1 
1 
1 
1 
1 
1 
1 
1 
1 
1 
1 
1 
1 
1 
1 
1 
1 
1 
1 
1 
1 
1 
1 
1 
1 
1 
1 
1 
1 
1 
1 
1 
1 
1 
1 
1 
1 
1 
1 
1 
1 
1 
1 
1 
1 
1 
1 
1 
1 
1 
1 
1 
1 
1 
1 
1 
1 
1 
1 
1 
1 
1 
1 
1 
1 
1 
1 
1 
1 
1 
1 
1 
1 
1 
1 
1 
1 
1 
1 
1 
1 
1 
1 
1 
1 
1 
1 
1 
1 
1 
1 
1 
1 
1 
1 
1 
1 
1 
1 
1 
1 
1 
1 
1 
1 
1 
1 
1 
1 
1 
1 
1 
1 
1 
1 
1 
1 
1 
1 
1 
1 
1 
1 
1 
1 
1 
1 
1 
1 
1 
1 
1 
1 
1 
1 
1 
1 
1 
1 
1 
1 
1 
1 
1 
1 
1 
1 
1 
1 
1 
1 
1 
1 
1 
1 
1 
1 
1 
1 
1 
1 
1 
1 
1 
1 
1 
1 
1 
1 
1 
1 
1 
1 
1 
1 
1 
1 
1 
1 
1 
1 
1 
1 
1 
1 
1 
1 
1 
1 
1 
1 
1 
1 
1 
1 
1 
1 
1 
1 
1 
1 
1 
1 
1 
1 
1 
1 
1 
1 
1 
1 
1 
1 
1 
1 
1 
1 
1 
1 
1 
1 
1 
1 
1 
1 
1 
1 
1 
1 
1 
1 
1 
1 
1 
1 
1 
1 
1 
1 
1 
1 
1 
1 
1 
1 
1 
1 
1 
1 
1 
1 
1 
1 
1 
1 
1 
1 
1 
1 
1 
1 
1 
1 
1 
1 
1 
1 
1 
1 
1 
1 
1 
1 
1 
1 
1 
1 
1 
1 
1 
1 
1 
1 
1 
1 
1 
1 
1 
1 
1 
1 
1 
1 
1 
1 
1 
1 
1 
1 
1 
1 
1 
1 
1 
1 
1 
1 
1 
1 
1 
1 
1 
1 
1 
1 
1 
1 
1 
1 
1 
1 
1 
1 
1 
1 
1 
1 
1 
1 
1 
1 
1 
1 
1 
1 
1 
1 
1 
1 
1 
1 
1 
1 
1 
1 
1 
1 
1 
1 
1 
1 
1 
1 
1 
1 
1 
1 
1 
1 
1 
1 
1 
1 
1 
1 
1 
1 
1 
1 
1 
1 
1 
1 
1 
1 
1 
1 
1 
1 
1 
1 
1 
1 
1 
1 
1 
1 
1 
1 
1 
1 
1 
1 
1 
1 
1 
1 
1 
1 
1 
1 
1 
1 
1 
1 
1 
1 
1 
1 
1 
1 
1 
1 
1 
1 
1 
1 
1 
1 
1 
1 
1 
1 
1 
1 
1 
1 
1 
1 
1 
1 
1 
1 
1 
1 
1 
1 
1 
1 
1 
1 
1 
1 
1 
1 
1 
1 
1 
1 
1 
1 
1 
1 
1 
1 
1 
1 
1 
1 
1 
1 
1 
1 
1 
1 
1 
1 
1 
1 
1 
1 
1 
1 
1 
1 
1 
1 
1 
1 
1 
1 
1 
1 
1 
1 
1 
1 
1 
1 
1 
1 
1 
1 
1 
1 
1 
1 
1 
1 
1 
1 
1 
1 
1 
1 
1 
1 
1 
1 
1 
1 
1 
1 
1 
1 
1 
1 
1 
1 
1 
1 
1 
1 
1 
1 
1 
1 
1 
1 
1 
1 
1 
1 
1 
1 
1 
1 
1 
1 
1 
1 
1 
1 
1 
1 
1 
1 
1 
1 
1 
1 
1 
1 
1 
1 
1 
1 
1 
1 
1 
1 
1 
1 
1 
1 
1 
1 
1 
1 
1 
1 
1 
1 
1 
1 
1 
1 
1 
1 
1 
1 
1 
1 
1 
1 
1 
1 
1 
1 
1 
1 
1 
1 
1 
1 
1 
1 
1 
1 
1 
1 
1 
1 
1 
1 
1 
1 
1 
1 
1 
1 
1 
1 
1 
1 
1 
1 
1 
1 
1 
1 
1 
1 
1 
1 
1 
1 
1 
1 
1 
1 
1 
1 
1 
1 
1 
1 
1 
1 
1 
1 
1 
1 
1 
1 
1 
1 
1 
1 
1 
1 
1 
1 
1 
1 
1 
1 
1 
1 
1 
1 
1 
1 
1 
1 
1 
1 
1 
1 
1 
1 
1 
1 
1 
1 
1 
1 
1 
1 
1 
1 
1 
1 
1 
1 
1 
1 
1 
1 
1 
1 
1 
1 
1 
1 
1 
1 
1 
1 
1 
1 
1 
1 
1 
1 
1 
1 
1 
1 
1 
1 
1 
1 
1 
1 
1 
1 
1 
1 
1 
1 
1 
1 
1 
1 
1 
1 
1 
1 
1 
1 
1 
1 
1 
1 
1 
1 
1 
1 
1 
1 
1 
1 
1 
1 
1 
1 
1 
1 
1 
1 
1 
1 
1 
1 
1 
1 
1 
1 
1 
1 
1 
1 
1 
1 
1 
1 
1 
1 
1 
1 
1 
1 
1 
1 
1 
1 
1 
1 
1 
1 
1 
1 
1 
1 
1 
1 
1 
1 
1 
1 
1 
1 
1 
1 
1 
1 
1 
1 
1 
1 
1 
1 
1 
1 
1 
1 
1 
1 
1 
1 
1 
1 
1 
1 
1 
1 
1 
1 
1 
1 
1 
1 
1 
1 
1 
1 
1 
1 
1 
1 
1 
1 
1 
1 
1 
1 
1 
1 
1 
1 
1 
1 
1 
1 
1 
1 
1 
1 
1 
1 
1 
1 
1 
1 
1 
1 
1 
1 
1 
1 
1 
1 
1 
1 
1 
1 
1 
1 
1 
1 
1 
1 
1 
1 
1 
1 
1 
1 
1 
1 
1 
1 
1 
1 
1 
1 
1 
1 
1 
1 
1 
1 
1 
1 
1 
1 
1 
1 
1 
1 
1 
1 
1 
1 
1 
1 
1 
1 
1 
1 
1 
1 
1 
1 
1 
1 
1 
1 
1 
1 
1 
1 
1 
1 
1 
1 
1 
1 
1 
1 
1 
1 
1 
1 
1 
1 
1 
1 
1 
1 
1 
1 
1 
1 
1 
1 
1 
1 
1 
1 
1 
1 
1 
1 
1 
1 
1 
1 
1 
1 
1 
1 
1 
1 
1 
1 
1 
1 
1 
1 
1 
1 
1 
1 
1 
1 
1 
1 
1 
1 
1 
1 
1 
1 
1 
1 
1 
1 
1 
1 
1 
1 
1 
1 
1 
1 
1 
1 
1 
1 
1 
1 
1 
1 
1 
1 
1 
1 
1 
1 
1 
1 
1 
1 
1 
1 
1 
1 
1 
1 
1 
1 
1 
1 
1 
1 
1 
1 
1 
1 
1 
1 
1 
1 
1 
1 
1 
1 
1 
1 
1 
1 
1 
1 
1 
1 
1 
1 
1 
1 
1 
1 
1 
1 
1 
1 
1 
1 
1 
1 
1 
1 
1 
1 
1 
1 
1 
1 
1 
1 
1 
1 
1 
1 
1 
1 
1 
1 
1 
1 
1 
1 
1 
1 
1 
1 
1 
1 
1 
1 
1 
1 
1 
1 
1 
1 
1 
1 
1 
1 
1 
1 
1 
1 
1 
1 
1 
1 
1 
1 
1 
1 
1 
1 
1 
1 
1 
1 
1 
1 
1 
1 
1 
1 
1 
1 
1 
1 
1 
1 
1 
1 
1 
1 
1 
1 
1 
1 
1 
1 
1 
1 
1 
1 
1 
1 
1 
1 
1 
1 
1 
1 
1 
1 
1 
1 
1 
1 
1 
1 
1 
1 
1 
1 
1 
1 
1 
1 
1 
1 
1 
1 
1 
1 
1 
1 
1 
1 
1 
1 
1 
1 
1 
1 
1 
1 
1 
1 
1 
1 
1 
1 
1 
1 
1 
1 
1 
1 
1 
1 
1 
1 
1 
1 
1 
1 
1 
1 
1 
1 
1 
1 
1 
1 
1 
1 
1 
1 
1 
1 
1 
1 
1 
1 
1 
1 
1 
1 
1 
1 
1 
1 
1 
1 
1 
1 
1 
1 
1 
1 
1 
1 
1 
1 
1 
1 
1 
1 
1 
1 
1 
1 
1 
1 
1 
1 
1 
1 
1 
1 
1 
1 
1 
1 
1 
1 
1 
1 
1 
1 
1 
1 
1 
1 
1 
1 
1 
1 
1 
1 
1 
1 
1 
1 
1 
1 
1 
1 
1 
1 
1 
1 
1 
1 
1 
1 
1 
1 
1 
1 
1 
1 
1 
1 
1 
1 
1 
1 
1 
1 
1 
1 
1 
1 
1 
1 
1 
1 
1 
1 
1 
1 
1 
1 
1 
1 
1 
1 
1 
1 
1 
1 
1 
1 
1 
1 
1 
1 
1 
1 
1 
1 
1 
1 
1 
1 
1 
1 
1 
1 
1 
1 
1 
1 
1 
1 
1 
1 
1 
1 
1 
1 
1 
1 
1 
1 
1 
1 
1 
1 
1 
1 
1 
1 
1 
1 
1 
1 
1 
1 
1 
1 
1 
1 
1 
1 
1 
1 
1 
1 
1 
1 
1 
1 
1 
1 
1 
1 
1 
1 
1 
1 
1 
1 
1 
1 
1 
1 
1 
1 
1 
1 
1 
1 
1 
1 
1 
1 
1 
1 
1 
1 
1 
1 
1 
1 
1 
1 
1 
1 
1 
1 
1 
1 
1 
1 
1 
1 
1 
1 
1 
1 
1 
1 
1 
1 
1 
1 
1 
1 
1 
1 
1 
1 
1 
1 
1 
1 
1 
1 
1 
1 
1 
1 
1 
1 
1 
1 
1 
1 
1 
1 
1 
1 
1 
1 
1 
1 
1 
1 
1 
1 
1 
1 
1 
1 
1 
1 
1 
1 
1 
1 
1 
1 
1 
1 
1 
1 
1 
1 
1 
1 
1 
1 
1 
1 
1 
1 
1 
1 
1 
1 
1 
1 
1 
1 
1 
1 
1 
1 
1 
1 
1 
1 
1 
1 
1 
1 
1 
1 
1 
1 
1 
1 
1 
1 
1 
1 
1 
1 
1 
1 
1 
1 
1 
1 
1 
1 
1 
1 
1 
1 
1 
1 
1 
1 
1 
1 
1 
1 
1 
1 
1 
1 
1 
1 
1 
1 
1 
1 
1 
1 
1 
1 
1 
1 
1 
1 
1 
1 
1 
1 
1 
1 
1 
1 
1 
1 
1 
1 
1 
1 
1 
1 
1 
1 
1 
1 
1 
1 
1 
1 
1 
1 
1 
1 
1 
1 
1 
1 
1 
1 
1 
1 
1 
1 
1 
1 
1 
1 
1 
1 
1 
1 
1 
1 
1 
1 
1 
1 
1 
1 
1 
1 
1 
1 
1 
1 
1 
1 
1 
1 
1 
1 
1 
1 
1 
1 
1 
1 
1 
1 
1 
1 
1 
1 
1 
1 
1 
1 
1 
1 
1 
1 
1 
1 
1 
1 
1 
1 
1 
1 
1 
1 
1 
1 
1 
1 
1 
1 
1 
1 
1 
1 
1 
1 
1 
1 
1 
1 
1 
1 
1 
1 
1 
1 
1 
1 
1 
1 
1 
1 
1 
1 
1 
1 
1 
1 
1 
1 
1 
1 
1 
1 
1 
1 
1 
1 
1 
1 
1 
1 
1 
1 
1 
1 
1 
1 
1 
1 
1 
1 
1 
1 
1 
1 
1 
1 
1 
1 
1 
1 
1 
1 
1 
1 
1 
1 
1 
1 
1 
1 
1 
1 
1 
1 
1 
1 
1 
1 
1 
1 
1 
1 
1 
1 
1 
1 
1 
1 
1 
1 
1 
1 
1 
1 
1 
1 
1 
1 
1 
1 
1 
1 
1 
1 
1 
1 
1 
1 
1 
1 
1 
1 
1 
1 
1 
1 
1 
1 
1 
1 
1 
1 
1 
1 
1 
1 
1 
1 
1 
1 
1 
1 
1 
1 
1 
1 
1 
1 
1 
1 
1 
1 
1 
1 
1 
1 
1 
1 
1 
1 
1 
1 
1 
1 
1 
1 
1 
1 
1 
1 
1 
1 
1 
1 
1 
1 
1 
1 
1 
1 
1 
1 
1 
1 
1 
1 
1 
1 
1 
1 
1 
1 
1 
1 
1 
1 
1 
1 
1 
1 
1 
1 
1 
1 
1 
1 
1 
1 
1 
1 
1 
1 
1 
1 
1 
1 
1 
1 
1 
1 
1 
1 
1 
1 
1 
1 
1 
1 
1 
1 
1 
1 
1 
1 
1 
1 
1 
1 
1 
1 
1 
1 
1 
1 
1 
1 
1 
1 
1 
1 
1 
1 
1 
1 
1 
1 
1 
1 
1 
1 
1 
1 
1 
1 
1 
1 
1 
1 
1 
1 
1 
1 
1 
1 
1 
1 
1 
1 
1 
1 
1 
1 
1 
1 
1 
1 
1 
1 
1 
1 
1 
1 
1 
1 
1 
1 
1 
1 
1 
1 
1 
1 
1 
1 
1 
1 
1 
1 
1 
1 
1 
1 
1 
1 
1 
1 
1 
1 
1 
1 
1 
1 
1 
1 
1 
1 
1 
1 
1 
1 
1 
1 
1 
1 
1 
1 
1 
1 
1 
1 
1 
1 
1 
1 
1 
1 
1 
1 
1 
1 
1 
1 
1 
1 
1 
1 
1 
1 
1 
1 
1 
1 
1 
1 
1 
1 
1 
1 
1 
1 
1 
1 
1 
1 
1 
1 
1 
1 
1 
1 
1 
1 
1 
1 
1 
1 
1 
1 
1 
1 
1 
1 
1 
1 
1 
1 
1 
1 
1 
1 
1 
1 
1 
1 
1 
1 
1 
1 
1 
1 
1 
1 
1 
1 
1 
1 
1 
1 
1 
1 
1 
1 
1 
1 
1 
1 
1 
1 
1 
1 
1 
1 
1 
1 
1 
1 
1 
1 
1 
1 
1 
1 
1 
1 
1 
1 
1 
1 
1 
1 
1 
1 
1 
1 
1 
1 
1 
1 
1 
1 
1 
1 
1 
1 
1 
1 
1 
1 
1 
1 
1 
1 
1 
1 
1 
1 
1 
1 
1 
1 
1 
1 
1 
1 
1 
1 
1 
1 
1 
1 
1 
1 
1 
1 
1 
1 
1 
1 
1 
1 
1 
1 
1 
1 
1 
1 
1 
1 
1 
1 
1 
1 
1 
1 
1 
1 
1 
1 
1 
1 
1 
1 
1 
1 
1 
1 
1 
1 
1 
1 
1 
1 
1 
1 
1 
1 
1 
1 
1 
1 
1 
1 
1 
1 
1 
1 
1 
1 
1 
1 
1 
1 
1 
1 
1 
1 
1 
1 
1 
1 
1 
1 
1 
1 
1 
1 
1 
1 
1 
1 
1 
1 
1 
1 
1 
1 
1 
1 
1 
1 
1 
1 
1 
1 
1 
1 
1 
1 
1 
1 
1 
1 
1 
1 
1 
1 
1 
1 
1 
1 
1 
1 
1 
1 
1 
1 
1 
1 
1 
1 
1 
1 
1 
1 
1 
1 
1 
1 
1 
1 
1 
1 
1 
1 
1 
1 
1 
1 
1 
1 
1 
1 
1 
1 
1 
1 
1 
1 
1 
1 
1 
1 
1 
1 
1 
1 
1 
1 
1 
1 
1 
1 
1 
1 
1 
1 
1 
1 
1 
1 
1 
1 
1 
1 
1 
1 
1 
1 
1 
1 
1 
1 
1 
1 
1 
1 
1 
1 
1 
1 
1 
1 
1 
1 
1 
1 
1 
1 
1 
1 
1 
1 
1 
1 
1 
1 
1 
1 
1 
1 
1 
1 
1 
1 
1 
1 
1 
1 
1 
1 
1 
1 
1 
1 
1 
1 
1 
1 
1 
1 
1 
1 
1 
1 
1 
1 
1 
1 
1 
1 
1 
1 
1 
1 
1 
1 
1 
1 
1 
1 
1 
1 
1 
1 
1 
1 
1 
1 
1 
1 
1 
1 
1 
1 
1 
1 
1 
1 
1 
1 
1 
1 
1 
1 
1 
1 
1 
1 
1 
1 
1 
1 
1 
1 
1 
1 
1 
1 
1 
1 
1 
1 
1 
1 
1 
1 
1 
1 
1 
1 
1 
1 
1 
1 
1 
1 
1 
1 
1 
1 
1 
1 
1 
1 
1 
1 
1 
1 
1 
1 
1 
1 
1 
1 
1 
1 
1 
1 
1 
1 
1 
1 
1 
1 
1 
1 
1 
1 
1 
1 
1 
1 
1 
1 
1 
1 
1 
1 
1 
1 
1 
1 
1 
1 
1 
1 
1 
1 
1 
1 
1 
1 
1 
1 
1 
1 
1 
1 
1 
1 
1 
1 
1 
1 
1 
1 
1 
1 
1 
1 
1 
1 
1 
1 
1 
1 
1 
1 
1 
1 
1 
1 
1 
1 
1 
1 
1 
1 
1 
1 
1 
1 
1 
1 
1 
1 
1 
1 
1 
1 
1 
1 
1 
1 
1 
1 
1 
1 
1 
1 
1 
1 
1 
1 
1 
1 
1 
1 
1 
1 
1 
1 
1 
1 
1 
1 
1 
1 
1 
1 
1 
1 
1 
1 
1 
1 
1 
1 
1 
1 
1 
1 
1 
1 
1 
1 
1 
1 
1 
1 
1 
1 
1 
1 
1 
1 
1 
1 
1 
1 
1 
1 
1 
1 
1 
1 
1 
1 
1 
1 
1 
1 
1 
1 
1 
1 
1 
1 
1 
1 
1 
1 
1 
1 
1 
1 
1 
1 
1 
1 
1 
1 
1 
1 
1 
1 
1 
1 
1 
1 
1 
1 
1 
1 
1 
1 
1 
1 
1 
1 
1 
1 
1 
1 
1 
1 
1 
1 
1 
1 
1 
1 
1 
1 
1 
1 
1 
1 
1 
1 
1 
1 
1 
1 
1 
1 
1 
1 
1 
1 
1 
1 
1 
1 
1 
1 
1 
1 
1 
1 
1 
1 
1 
1 
1 
1 
1 
1 
1 
1 
1 
1 
1 
1 
1 
1 
1 
1 
1 
1 
1 
1 
1 
1 
1 
1 
1 
1 
1 
1 
1 
1 
1 
1 
1 
1 
1 
1 
1 
1 
1 
1 
1 
1 
1 
1 
1 
1 
1 
1 
1 
1 
1 
1 
1 
1 
1 
1 
1 
1 
1 
1 
1 
1 
1 
1 
1 
1 
1 
1 
1 
1 
1 
1 
1 
1 
1 
1 
1 
1 
1 
1 
1 
1 
1 
1 
1 
1 
1 
1 
1 
1 
1 
1 
1 
1 
1 
1 
1 
1 
1 
1 
1 
1 
1 
1 
1 
1 
1 
1 
1 
1 
1 
1 
1 
1 
1 
1 
1 
1 
1 
1 
1 
1 
1 
1 
1 
1 
1 
1 
1 
1 
1 
1 
1 
1 
1 
1 
1 
1 
1 
1 
1 
1 
1 
1 
1 
1 
1 
1 
1 
1 
1 
1 
1 
1 
1 
1 
1 
1 
1 
1 
1 
1 
1 
1 
1 
1 
1 
1 
1 
1 
1 
1 
1 
1 
1 
1 
1 
1 
1 
1 
1 
1 
1 
1 
1 
1 
1 
1 
1 
1 
1 
1 
1 
1 
1 
1 
1 
1 
1 
1 
1 
1 
1 
1 
1 
1 
1 
1 
1 
1 
1 
1 
1 
1 
1 
1 
1 
1 
1 
1 
1 
1 
1 
1 
1 
1 
1 
1 
1 
1 
1 
1 
1 
1 
1 
1 
1 
1 
1 
1 
1 
1 
1 
1 
1 
1 
1 
1 
1 
1 
1 
1 
1 
1 
1 
1 
1 
1 
1 
1 
1 
1 
1 
1 
1 
1 
1 
1 
1 
1 
1 
1 
1 
1 
1 
1 
1 
1 
1 
1 
1 
1 
1 
1 
1 
1 
1 
1 
1 
1 
1 
1 
1 
1 
1 
1 
1 
1 
1 
1 
1 
1 
1 
1 
1 
1 
1 
1 
1 
1 
1 
1 
1 
1 
1 
1 
1 
1 
1 
1 
1 
1 
1 
1 
1 
1 
1 
1 
1 
1 
1 
1 
1 
1 
1 
1 
1 
1 
1 
1 
1 
1 
1 
1 
1 
1 
1 
1 
1 
1 
1 
1 
1 
1 
1 
1 
1 
1 
1 
1 
1 
1 
1 
1 
1 
1 
1 
1 
1 
1 
1 
1 
1 
1 
1 
1 
1 
1 
1 
1 
1 
1 
1 
1 
1 
1 
1 
1 
1 
1 
1 
1 
1 
1 
1 
1 
1 
1 
1 
1 
1 
1 
1 
1 
1 
1 
1 
1 
1 
1 
1 
1 
1 
1 
1 
1 
1 
1 
1 
1 
1 
1 
1 
1 
1 
1 
1 
1 
1 
1 
1 
1 
1 
1 
1 
1 
1 
1 
1 
1 
1 
1 
1 
1 
1 
1 
1 
1 
1 
1 
1 
1 
1 
1 
1 
1 
1 
1 
1 
1 
1 
1 
1 
1 
1 
1 
1 
1 
1 
1 
1 
1 
1 
1 
1 
1 
1 
1 
1 
1 
1 
1 
1 
1 
1 
1 
1 
1 
1 
1 
1 
1 
1 
1 
1 
1 
1 
1 
1 
1 
1 
1 
1 
1 
1 
1 
1 
1 
1 
1 
1 
1 
1 
1 
1 
1 
1 
1 
1 
1 
1 
1 
1 
1 
1 
1 
1 
1 
1 
1 
1 
1 
1 
1 
1 
1 
1 
1 
1 
1 
1 
1 
1 
1 
1 
1 
1 
1 
1 
1 
1 
1 
1 
1 
1 
1 
1 
1 
1 
1 
1 
1 
1 
1 
1 
1 
1 
1 
1 
1 
1 
1 
1 
1 
1 
1 
1 
1 
1 
1 
1 
1 
1 
1 
1 
1 
1 
1 
1 
1 
1 
1 
1 
1 
1 
1 
1 
1 
1 
1 
1 
1 
1 
1 
1 
1 
1 
1 
1 
1 
1 
1 
1 
1 
1 
1 
1 
1 
1 
1 
1 
1 
1 
1 
1 
1 
1 
1 
1 
1 
1 
1 
1 
1 
1 
1 
1 
1 
1 
1 
1 
1 
1 
1 
1 
1 
1 
1 
1 
1 
1 
1 
1 
1 
1 
1 
1 
1 
1 
1 
1 
1 
1 
1 
1 
1 
1 
1 
1 
1 
1 
1 
1 
1 
1 
1 
1 
1 
1 
1 
1 
1 
1 
1 
1 
1 
1 
1 
1 
1 
1 
1 
1 
1 
1 
1 
1 
1 
1 
1 
1 
1 
1 
1 
1 
1 
1 
1 
1 
1 
1 
1 
1 
1 
1 
1 
1 
1 
1 
1 
1 
1 
1 
1 
1 
1 
1 
1 
1 
1 
1 
1 
1 
1 
1 
1 
1 
1 
1 
1 
1 
1 
1 
1 
1 
1 
1 
1 
1 
1 
1 
1 
1 
1 
1 
1 
1 
1 
1 
1 
1 
1 
1 
1 
1 
1 
1 
1 
1 
1 
1 
1 
1 
1 
1 
1 
1 
1 
1 
1 
1 
1 
1 
1 
1 
1 
1 
1 
1 
1 
1 
1 
1 
1 
1 
1 
1 
1 
1 
1 
1 
1 
1 
1 
1 
1 
1 
1 
1 
1 
1 
1 
1 
1 
1 
1 
1 
1 
1 
1 
1 
1 
1 
1 
1 
1 
1 
1 
1 
1 
1 
1 
1 
1 
1 
1 
1 
1 
1 
1 
1 
1 
1 
1 
1 
1 
1 
1 
1 
1 
1 
1 
1 
1 
1 
1 
1 
1 
1 
1 
1 
1 
1 
1 
1 
1 
1 
1 
1 
1 
1 
1 
1 
1 
1 
1 
1 
1 
1 
1 
1 
1 
1 
1 
1 
1 
1 
1 
1 
1 
1 
1 
1 
1 
1 
1 
1 
1 
1 
1 
1 
1 
1 
1 
1 
1 
1 
1 
1 
1 
1 
1 
1 
1 
1 
1 
1 
1 
1 
1 
1 
1 
1 
1 
1 
1 
1 
1 
1 
1 
1 
1 
1 
1 
1 
1 
1 
1 
1 
1 
1 
1 
1 
1 
1 
1 
1 
1 
1 
1 
1 
1 
1 
1 
1 
1 
1 
1 
1 
1 
1 
1 
1 
1 
1 
1 
1 
1 
1 
1 
1 
1 
1 
1 
1 
1 
1 
1 
1 
1 
1 
1 
1 
1 
1 
1 
1 
1 
1 
1 
1 
1 
1 
1 
1 
1 
1 
1 
1 
1 
1 
1 
1 
1 
1 
1 
1 
1 
1 
1 
1 
1 
1 
1 
1 
1 
1 
1 
1 
1 
1 
1 
1 
1 
1 
1 
1 
1 
1 
1 
1 
1 
1 
1 
1 
1 
1 
1 
1 
1 
1 
1 
1 
1 
1 
1 
1 
1 
1 
1 
1 
1 
1 
1 
1 
1 
1 
1 
1 
1 
1 
1 
1 
1 
1 
1 
1 
1 
1 
1 
1 
1 
1 
1 
1 
POINT_DATA 5000
VECTORS Stress float
-1521.26 -2500.43 0.
-2629.95 -3134.53 0.
-49.298 -70.4157 0.
-176.828 -311.131 0.
-3689.64 -7237.45 0.
-5.90564 -5.13358 0.
-2188.06 -1492.81 0.
-29.2726 -44.1187 0.
-45.6114 -86.8265 0.
-3902.34 -6419.66 0.
-1152.87 -2124.03 0.
-164.257 -239.05 0.
-2141.76 -2891.47 0.
-1652.91 -2253.23 0.
-1246.18 -1684.38 0.
-1043.25 -1459.85 0.
-838.35 -1237.29 0.
-968.283 -1467.69 0.
-818.515 -1367.61 0.
-650.363 -1285.92 0.
-832.883 -1483.55 0.
-758.155 -1310.42 0.
-682.848 -1137.87 0.
-728.924 -1253.24 0.
-804.124 -1428.09 0.
-876.875 -1605.39 0.
-1021.54 -1633.08 0.
-953.125 -1508.75 0.
-722.214 -1339.14 0.
-703.601 -1279.37 0.
-677.269 -1227.32 0.
-712.667 -1239.72 0.
-691.806 -1219.45 0.
-668.734 -1201.38 0.
-700.28 -1233.79 0.
-693.577 -1239.14 0.
-686.822 -1244.54 0.
-818.74 -1353.28 0.
-850.647 -1408.57 0.
-829.4 -1381.35 0.
-823.126 -1333.52 0.
-814.808 -1287.75 0.
-847.824 -1302.51 0.
-880.683 -1359.53 0.
-913.797 -1416.3 0.
-871.76 -1306.31 0.
-778.824 -1025.04 0.
-662.032 -767.635 0.
-423.832 -642.186 0.
-508.11 -1162.4 0.
-607.927 -1667.04 0.
-539.489 -1212.31 0.
-439.358 -682.377 0.
-622.245 -731.347 0.
-743.705 -1012.26 0.
-841.835 -1316.5 0.
-891.592 -1426.99 0.
-853.566 -1349.23 0.
-815.63 -1271.38 0.
-782.459 -1274.74 0.
-795.727 -1349.67 0.
-807.693 -1425.9 0.
-861.005 -1453.06 0.
-846.567 -1403.47 0.
-702.238 -1293.22 0.
-701.58 -1263.58 0.
-700.337 -1234.53 0.
-673.763 -1196.95 0.
-689.488 -1204.08 0.
-703.811 -1212.62 0.
-679.84 -1228 0.
-745.871 -1346.24 0.
-809.212 -1467.17 0.
-994.834 -1587.15 0.
-1028.41 -1646.58 0.
-869.746 -1562.94 0.
-785.019 -1402.67 0.
-741.096 -1295.63 0.
-642.965 -1226.92 0.
-732.931 -1383.02 0.
-824.797 -1537.23 0.
-744.126 -1381.22 0.
-952.62 -1553.6 0.
-1146.71 -1740.38 0.
-1028.55 -1380.73 0.
-1186.54 -1435.17 0.
-1334.7 -1499.46 0.
-1588.12 -2560.42 0.
-2723.9 -4415.9 0.
-43.3434 -84.1215 0.
-674.967 -1107 0.
-4316.09 -6449.46 0.
-487.639 -511.932 0.
-471.94 -404.415 0.
-2656.34 -3108.81 0.
-39.4676 -82.1714 0.
-3487.84 -5319.12 0.
-62.6915 -147.926 0.
-2762.52 -4740.04 0.
-832.302 -1162.66 0.
-1780.3 -3205.12 0.
0.0982261 0.00217862 0.
-28.3615 -14.3316 0.
-14.7195 -5.49361 0.
-2.21005 -1.23808 0.
-3.61028 -3.02055 0.
-27.8288 -35.2461 0.
-17.9529 -29.3351 0.
-781.463 -390.581 0.
-27.5094 -74.4234 0.
-28.8797 -78.8499 0.
-54.6744 -105.405 0.
-822.953 -819.981 0.
-488.534 -279.548 0.
-356.632 -237.574 0.
-98.7254 -74.59 0.
-92.3981 -88.6595 0.
-308.404 -536.788 0.
-217.075 -399.551 0.
-164.271 -241.079 0.
-614.241 -1203.45 0.
-526.522 -1047.66 0.
-441.183 -890.457 0.
-566.133 -983.597 0.
-617.998 -1181.83 0.
-674.878 -1375.03 0.
-1005.93 -1535.14 0.
-939.074 -1409.24 0.
-570.934 -1089.94 0.
-532.114 -1031.3 0.
-505.192 -974.77 0.
-595.325 -1076.01 0.
-567.586 -1062.6 0.
-566.166 -1022.88 0.
-658.784 -1146.59 0.
-652.346 -1151.67 0.
-645.568 -1157.09 0.
-981.604 -1368.8 0.
-1003.91 -1433.68 0.
-830.819 -1364.99 0.
-821.647 -1320.07 0.
-813.883 -1273.75 0.
-901.533 -1315.57 0.
-935.556 -1371.43 0.
-967.262 -1429.6 0.
-906.83 -1372.9 0.
-821.546 -1084.01 0.
-714.828 -816.553 0.
-21.9932 -31.6324 0.
-85.2139 -177.353 0.
-238.064 -629.323 0.
-173.613 -402.039 0.
-4.67867 -9.64651 0.
-657.938 -769.706 0.
-768.568 -1061.41 0.
-858.379 -1373.94 0.
-941.979 -1429.79 0.
-903.742 -1352.25 0.
-865.496 -1274.72 0.
-783.621 -1266.66 0.
-799.073 -1339.4 0.
-826.585 -1400.07 0.
-1015.46 -1467.84 0.
-997.547 -1421.75 0.
-655.338 -1163.72 0.
-635.008 -1153.75 0.
-635.44 -1123.03 0.
-564.239 -1021.32 0.
-586.87 -1021.55 0.
-610.685 -1020.6 0.
-542.245 -944.599 0.
-581.76 -1089.4 0.
-648.558 -1206.91 0.
-935.941 -1449.67 0.
-970.333 -1508.29 0.
-749.434 -1415.1 0.
-647.796 -1184.76 0.
-625.186 -1051.46 0.
-281.508 -670.765 0.
-371.284 -843.075 0.
-473.06 -1007.62 0.
-106.093 -99.3037 0.
-205.591 -235.255 0.
-309.42 -468.861 0.
-210.412 -145.502 0.
-43.8902 -71.0717 0.
-102.487 -110.494 0.
-30.2901 -51.5683 0.
-381.333 -576.003 0.
-92.7949 -109.682 0.
-33.169 -73.0401 0.
-44.0605 -85.0093 0.
-53.4952 -86.3749 0.
-60.1072 -99.5278 0.
-108.657 -191.561 0.
-33.3305 -70.6651 0.
-80.7207 -142.015 0.
-44.9998 -111.571 0.
-156.127 -383.661 0.
-16.8996 -34.7169 0.
-1.26439 -0.199378 0.
-1.0207 -0.0256991 0.
-71.3098 -50.9086 0.
-1.42165 -0.00868558 0.
0.852021 0.501567 0.
-8.39637 -6.68486 0.
-43.3217 -51.0517 0.
-25.5746 -39.2411 0.
-1519.33 -770.172 0.
-28.2534 -75.7806 0.
-27.3525 -74.5678 0.
-55.1336 -104.96 0.
-308.247 -199.33 0.
-85.196 -87.8419 0.
-756.151 -859.767 0.
-134.538 -85.5126 0.
-171.372 -130.728 0.
-810.589 -1689.69 0.
-712.455 -1562.07 0.
-1084.32 -2719.09 0.
-1253.21 -2211.65 0.
-1012.28 -1727.25 0.
-814.15 -1344.02 0.
-707.21 -992.312 0.
-684.164 -965.124 0.
-1594.4 -3167.07 0.
-1252.31 -1923.04 0.
-1266.37 -1963.39 0.
-843.25 -1427.35 0.
-662.123 -1055.49 0.
-579.629 -907.642 0.
-733.507 -1156.04 0.
-650.722 -968.386 0.
-647.35 -974.001 0.
-777.782 -1126.55 0.
-720.611 -998.271 0.
-785.595 -1160.34 0.
-1172.61 -1421.09 0.
-1208.31 -1516.03 0.
-872.095 -1047.36 0.
-775.988 -851.927 0.
-763.032 -837.441 0.
-859.766 -1054.33 0.
-880.297 -1148.17 0.
-818.072 -1067.42 0.
-915.101 -1124.06 0.
-980.943 -1308.17 0.
-1053.86 -1504.52 0.
-10.8011 -12.5936 0.
-32.4078 -47.9544 0.
-7148.97 -4748.51 0.
-0.00932539 -0.651735 0.
-0.00255484 -0.426343 0.
-1030.29 -1501.34 0.
-938.193 -1260.66 0.
-849.83 -1061.09 0.
-830.893 -1048.48 0.
-820.105 -1016.57 0.
-851.631 -1045.67 0.
-786.913 -900.755 0.
-831.293 -1007.63 0.
-854.825 -1029.42 0.
-1233.56 -1553.56 0.
-1241.7 -1561.95 0.
-740.094 -994.922 0.
-762.998 -1140.14 0.
-775.523 -1151.41 0.
-706.57 -1080.47 0.
-694.08 -1048.28 0.
-765.699 -1173.14 0.
-591.965 -868.705 0.
-739.103 -1218.82 0.
-846.604 -1391.89 0.
-1374.47 -2227.42 0.
-1418.35 -2325.69 0.
-1651.09 -3128.97 0.
-764.259 -1033.81 0.
-816.711 -1075.49 0.
-569.865 -1304.91 0.
-852.687 -1742.51 0.
-2624.36 -5842.98 0.
-486.827 -796.482 0.
-754.619 -1527.68 0.
-810.113 -1561.51 0.
-315.661 -209.197 0.
-115.92 -103.837 0.
-337.197 -280.068 0.
-41.3212 -67.7594 0.
-83.4597 -98.2867 0.
-151.705 -125.828 0.
-37.3374 -72.3293 0.
-51.7959 -84.7386 0.
-88.6419 -118.717 0.
-114.33 -142.312 0.
-213.393 -272.266 0.
-35.875 -64.7416 0.
-39.6352 -76.939 0.
-62.6347 -155.167 0.
-66.4663 -113.423 0.
-1156.16 -1444.52 0.
-2289.02 -4111.4 0.
-52.2122 -49.8066 0.
1.57135 1.1173 0.
-2674.66 -4013.23 0.
-103.47 -204.275 0.
-2839.34 -5048.83 0.
-76.5595 -72.8083 0.
-824.347 -1142.67 0.
-42.2657 -82.7838 0.
-3610.04 -5751.67 0.
-31.772 -87.1566 0.
-48.6664 -94.4654 0.
-3661.19 -7454.92 0.
-34.9999 -53.2203 0.
-1843.92 -2261.23 0.
-1365.81 -1780.7 0.
-948.207 -1268.54 0.
-1815.04 -4029.43 0.
-552.772 -1154.21 0.
-40.441 -54.7072 0.
-539.264 -1063.83 0.
-340.914 -671.801 0.
-246.782 -271.119 0.
-528.143 -637.778 0.
-357.965 -331.232 0.
-138.537 -91.9853 0.
-586.005 -576.334 0.
-643.202 -742.315 0.
-412.786 -425.848 0.
-416.932 -461.503 0.
-431.632 -522.064 0.
-514.008 -623.162 0.
-477.249 -584.57 0.
-442.394 -536.753 0.
-498.367 -557.94 0.
-474.335 -501.772 0.
-464.837 -434.283 0.
-831.227 -798.319 0.
-817.673 -786.862 0.
-655.197 -504.504 0.
-654.442 -505.626 0.
-654.544 -509.787 0.
-802.674 -750.296 0.
-772.321 -677.958 0.
-734.184 -615.461 0.
-892.673 -731.142 0.
-936.419 -848.744 0.
-989.907 -958.271 0.
-5.01532 -5.59254 0.
-24.2592 -51.6239 0.
-7839.67 -3486.72 0.
-0.0159613 -0.857898 0.
-0.00770306 -0.98409 0.
-931.946 -1023.16 0.
-889.493 -874.125 0.
-846.113 -726.558 0.
-742.114 -573.969 0.
-801.862 -652.665 0.
-844.366 -748.57 0.
-642.227 -567.352 0.
-629.722 -533.741 0.
-617.775 -501.406 0.
-763.411 -761.077 0.
-791.87 -787.415 0.
-459.772 -450.813 0.
-468.74 -508.168 0.
-508.453 -609.263 0.
-455.958 -563.947 0.
-476.575 -575.858 0.
-508.317 -578.261 0.
-458.281 -511.495 0.
-423.976 -426.627 0.
-409.005 -393.469 0.
-657.686 -659.147 0.
-603.523 -508.896 0.
-39.9226 -28.6103 0.
-368.11 -270.151 0.
-587.726 -664.22 0.
-32.3263 -42.8215 0.
-128.514 -153.907 0.
-451.533 -784.847 0.
-35.1469 -90.897 0.
-693.739 -1237.81 0.
-2361.81 -4874.69 0.
-386.376 -372.469 0.
-1183.6 -1730.69 0.
-2094.74 -3015.49 0.
-44.8394 -86.708 0.
-4087.16 -7591.44 0.
-62.995 -137.523 0.
-34.7149 -92.1599 0.
-3455.94 -4989.64 0.
-31.0511 -57.2868 0.
-2727.32 -4404.23 0.
-21.8395 -20.8045 0.
-2665.21 -5125.81 0.
-130.499 -269.359 0.
-1079.67 -1948.36 0.
0.0026645 0.00733657 0.
-1480.76 -3793.86 0.
0.0985105 0.202607 0.
-0.37323 -0.240852 0.
-2177.95 -4127.47 0.
-87.4011 -128.74 0.
-42.0453 -18.5434 0.
-72.9813 -70.5274 0.
-30.941 -29.3463 0.
-63.5547 -91.9143 0.
-28.1876 -51.7869 0.
-493.529 -400.775 0.
-55.7253 -120.662 0.
-68.118 -112.826 0.
-64.9045 -125.336 0.
-44.4147 -88.1176 0.
-37.4986 -43.2887 0.
-44.3851 -51.9246 0.
-50.6207 -62.8641 0.
-399.549 -408.362 0.
-42.0069 -48.4704 0.
-42.2568 -57.4764 0.
-217.4 -235.639 0.
-37.4573 -45.324 0.
-86.3758 -69.4697 0.
-510.032 -550.48 0.
-341.538 -239.371 0.
-65.4923 -51.9891 0.
-627.727 -594.411 0.
-693.267 -751.27 0.
-411.327 -402.732 0.
-446.719 -439.93 0.
-459.897 -500.02 0.
-535.315 -539.049 0.
-497.372 -497.719 0.
-456.617 -460.198 0.
-472.451 -496.616 0.
-462.817 -425.868 0.
-455.91 -353.691 0.
-874.998 -806.673 0.
-874.034 -797.448 0.
-728.443 -531.15 0.
-728.856 -531.321 0.
-731.693 -533.905 0.
-972.54 -762.119 0.
-944.224 -706.79 0.
-901.644 -679.832 0.
-1100.48 -790.518 0.
-1154.27 -900.031 0.
-1207.41 -1009.59 0.
-2.84409 -4.59628 0.
-24.9834 -47.4329 0.
-9584.52 -4228.72 0.
-0.0275539 -1.03094 0.
-0.0200172 -1.60556 0.
-1196.66 -1079.68 0.
-1141.37 -942.884 0.
-1096.93 -795.831 0.
-897.272 -635.552 0.
-940.519 -703.503 0.
-990.516 -790.973 0.
-710.052 -592.856 0.
-706.912 -549.182 0.
-684.659 -526.636 0.
-825.138 -785.061 0.
-838.731 -813.335 0.
-472.427 -420.959 0.
-480.781 -478.693 0.
-517.355 -585.315 0.
-447.243 -431.438 0.
-490.693 -418.427 0.
-526.163 -412.118 0.
-473.75 -523.971 0.
-440.927 -442.327 0.
-411.475 -359.653 0.
-703.358 -659.84 0.
-649.542 -514.204 0.
-33.8256 -23.0189 0.
-217.817 -111.296 0.
-435.399 -498.182 0.
-51.2782 -57.1466 0.
-48.7578 -70.5814 0.
-50.1614 -102.168 0.
-37.1786 -98.1775 0.
-29.3165 -67.9911 0.
-300.104 -191.256 0.
-52.6304 -83.7083 0.
-50.9596 -72.8017 0.
-64.6222 -108.616 0.
-46.2119 -78.0571 0.
-60.6196 -112.61 0.
-37.0334 -97.854 0.
-33.5764 -81.6542 0.
-37.0775 -90.4772 0.
-20.4415 -42.6552 0.
-161.015 -406.355 0.
-12.714 -8.95822 0.
-352.342 -525.177 0.
-59.5413 -150.656 0.
-33.1031 -79.066 0.
-0.0107392 -1.24286 0.
-194.99 -428.001 0.
-1197.77 -1779.14 0.
0.441675 1.10998 0.
0.226192 0.34293 0.
0.412372 0.259805 0.
-12.714 -4.59183 0.
-73.6089 -45.7888 0.
-27.0383 -26.5068 0.
-2278.8 -4276.67 0.
-168.297 -236.158 0.
-293.493 -804.093 0.
-1741.52 -2277.61 0.
-102.21 -111.411 0.
-2807.54 -4634.3 0.
-15.8384 -24.8533 0.
-18.5348 -29.8786 0.
-3254.05 -5969.55 0.
-30.9138 -31.7768 0.
-2447.48 -4125.23 0.
-815.382 -843.86 0.
-20.5259 -20.6646 0.
-2313.06 -4533.4 0.
-1153.6 -2312.22 0.
-30.3477 -55.2303 0.
-1232.66 -2143.28 0.
-918.002 -1613.86 0.
-665.266 -1177.77 0.
-1154.56 -1850.76 0.
-1021.88 -1685.73 0.
-797.37 -1227.5 0.
-755.744 -1133.88 0.
-715.266 -1040.96 0.
-754.158 -1034.52 0.
-725.121 -1008.89 0.
-702.511 -976.824 0.
-784.55 -1113.65 0.
-757.517 -1082.26 0.
-733.49 -1047.86 0.
-1333.29 -1606.09 0.
-1243.94 -1468.26 0.
-970.905 -1023.02 0.
-957.962 -991.449 0.
-946.297 -958.194 0.
-1199.61 -1194.7 0.
-1188.26 -1181.9 0.
-1180.82 -1176.5 0.
-1417.31 -1423.53 0.
-1530.44 -1689.09 0.
-1644.71 -1953.5 0.
-6.85979 -17.525 0.
-3.63299 -8.63269 0.
-9724.88 -4419.64 0.
-0.057778 -0.296267 0.
-0.00831914 -0.89858 0.
-1652.76 -2054.8 0.
-1528.34 -1772.15 0.
-1404.44 -1489 0.
-1078.9 -1086.65 0.
-1132.7 -1127.12 0.
-1161.79 -1211.15 0.
-972.573 -1001.01 0.
-980.133 -1018.13 0.
-989.706 -1033.24 0.
-1214.24 -1443.72 0.
-1283.75 -1565.27 0.
-740.639 -1038.51 0.
-777.248 -1127.57 0.
-822.744 -1215.86 0.
-756.3 -929.334 0.
-744.639 -936.535 0.
-734.623 -942.09 0.
-670.543 -1084.23 0.
-729.155 -1173.63 0.
-791.824 -1261.11 0.
-996.859 -1563.86 0.
-1174.37 -1763.73 0.
-496.772 -865.718 0.
-906.771 -1708.17 0.
-1420.61 -2650.38 0.
-26.5546 -26.1332 0.
-1182.35 -2279.17 0.
-2753.28 -5544.87 0.
-169.142 -97.1511 0.
-549.835 -408.164 0.
-2272.03 -3607.62 0.
-35.9633 -55.0561 0.
-3672.21 -7162.56 0.
-46.9473 -62.2343 0.
-42.5005 -50.7626 0.
-2741.23 -4682.62 0.
-21.3084 -59.013 0.
-2829.46 -5054 0.
-44.6912 -83.143 0.
-15.5518 -34.2208 0.
0.892825 0.624669 0.
-5.22762 -3.32439 0.
-446.611 -573.565 0.
-0.0259381 -0.697159 0.
-1930.97 -2855.59 0.
-7.89774 -21.3142 0.
-2569.21 -4367.6 0.
-2440.64 -3865.74 0.
-0.0139543 -0.0703506 0.
-1586.2 -2475.14 0.
0.0629884 0.176291 0.
-73.0846 -33.0098 0.
-674.797 -916.982 0.
-2185.15 -3915.22 0.
-59.3888 -85.8804 0.
-0.00243548 -0.404742 0.
0.00184497 1.26352 0.
-1009.77 -1877.93 0.
-93.4407 -114.523 0.
-15.6916 -22.0547 0.
-11.9985 -15.8954 0.
-13.2068 -19.8914 0.
-253.586 -265.987 0.
-8.07641 -8.8534 0.
-28.3928 -59.6673 0.
-12.4426 -21.6677 0.
-10.746 -25.1877 0.
-516.512 -708.268 0.
-19.8974 -22.1375 0.
-32.6842 -66.0402 0.
-571.092 -1007.26 0.
-352.766 -447.449 0.
-191.111 -219.324 0.
-878.53 -1507.17 0.
-769.179 -1392.36 0.
-690.815 -1092.38 0.
-640.206 -1027.66 0.
-610.348 -963.374 0.
-706.617 -896.003 0.
-682.531 -869.442 0.
-658.757 -857.496 0.
-705.762 -923.276 0.
-683.487 -899.19 0.
-660.52 -876.11 0.
-1161.47 -1388.59 0.
-1080.28 -1267.58 0.
-884.842 -923.391 0.
-869.599 -894.233 0.
-854.671 -865.246 0.
-1068.47 -1005.97 0.
-1069.21 -998.828 0.
-1049.26 -1035.62 0.
-1220.4 -1276.59 0.
-1329.28 -1543.19 0.
-1440.63 -1811.66 0.
-3.99902 -8.81466 0.
0.359815 0.38565 0.
-7747.78 -3538.36 0.
0.208656 0.218909 0.
-0.00661245 -0.0581222 0.
-1461.67 -1910.51 0.
-1310.88 -1589.48 0.
-1179.07 -1297.93 0.
-937.975 -936.759 0.
-948.29 -985.234 0.
-1023.59 -1000.44 0.
-838.5 -903.26 0.
-842.551 -913.358 0.
-853.075 -937.247 0.
-1038.34 -1276.81 0.
-1108.8 -1371.75 0.
-683.137 -921.695 0.
-700.256 -960.331 0.
-736.687 -1035.52 0.
-717.101 -860.617 0.
-711.457 -860.626 0.
-712.177 -860.993 0.
-580.106 -895.591 0.
-609.46 -948.024 0.
-654.821 -1034.21 0.
-668.155 -1137.05 0.
-791.317 -1287.85 0.
-91.3303 -59.2011 0.
-226.016 -97.537 0.
-588.877 -1104.71 0.
-34.0573 -29.6974 0.
-39.0707 -22.3056 0.
-195.086 -168.742 0.
-35.2617 -41.7871 0.
-34.2732 -43.5809 0.
-28.5098 -61.7585 0.
-38.6736 -52.2014 0.
-58.092 -76.832 0.
-45.2924 -51.1322 0.
-39.7515 -48.4873 0.
-48.0385 -77.3092 0.
-10.972 -30.1647 0.
-3.80301 -7.83414 0.
-11.3293 -25.9321 0.
-2772.12 -5428.87 0.
-37.4047 -100.822 0.
-2502.97 -4427.36 0.
-594.4 -695.6 0.
0.456309 1.26269 0.
3.0172 6.99956 0.
0.708458 1.64824 0.
-44.1499 -60.7545 0.
0.915067 1.89771 0.
-0.145627 -7.68627 0.
-25.3404 -40.9778 0.
0.154752 2.83195 0.
2.03815 4.02795 0.
-218.571 -266.89 0.
-14.738 -21.447 0.
-53.3037 -77.1386 0.
0.00568105 0.365108 0.
0.0425984 1.58779 0.
-645.436 -1332.51 0.
-109.604 -98.8655 0.
-12.9837 -14.098 0.
-11.4158 -14.5239 0.
-24.4191 -33.7165 0.
-4.19613 -6.90514 0.
-0.0326996 -0.0934854 0.
-36.7972 -84.2414 0.
-18.1451 -34.7201 0.
-16.7977 -30.3679 0.
-174.041 -100.886 0.
-36.8388 -63.1193 0.
-66.5432 -75.096 0.
-336.721 -242.801 0.
-102.862 -104.792 0.
-175.687 -173.047 0.
-800.954 -1197.88 0.
-449.942 -494.218 0.
-508.711 -560.881 0.
-503.515 -518.282 0.
-260.708 -140.123 0.
-748.92 -775.52 0.
-383.941 -239.121 0.
-92.194 -65.1428 0.
-486.988 -422.464 0.
-514.603 -481.626 0.
-547.027 -535.294 0.
-855.904 -784.023 0.
-926.594 -888.174 0.
-705.198 -422.148 0.
-732.965 -508.943 0.
-612.627 -310.24 0.
-776.086 -501.945 0.
-742.721 -445.936 0.
-974.278 -1003.38 0.
-926.047 -906.764 0.
-841.073 -695.966 0.
-886.837 -814.432 0.
0.00910061 0.614263 0.
-0.1537 -0.104051 0.
-6743.65 -3177.02 0.
-1.83206 -0.927399 0.
-1.85891 -1.09051 0.
-999.831 -1055.68 0.
-924.979 -835.852 0.
-967.985 -905.585 0.
-769.575 -490.184 0.
-892.539 -745.18 0.
-877.735 -603.41 0.
-655.96 -535.826 0.
-606.145 -404.166 0.
-645.637 -282.1 0.
-724.51 -629.013 0.
-901.65 -1041.81 0.
-453.449 -247.563 0.
-565.071 -417.856 0.
-283.945 -132.111 0.
-375.709 -247.342 0.
-310.732 -152.297 0.
-229.624 -103.756 0.
-238.599 -95.4992 0.
-459.761 -440.166 0.
-483.312 -542.278 0.
-281.718 -189.113 0.
-672.782 -1043.4 0.
-104.339 -65.7723 0.
-72.3189 -47.4161 0.
-46.4865 -35.962 0.
-41.9587 -32.5777 0.
-45.7505 -25.9354 0.
-57.3949 -36.1956 0.
-63.4304 -52.7246 0.
-56.5727 -57.9503 0.
-50.541 -72.7916 0.
-87.185 -116.127 0.
-71.8225 -109.623 0.
-54.3842 -68.5474 0.
-53.5823 -75.3326 0.
-53.9871 -86.6855 0.
-2.07255 -1.2674 0.
-0.122398 -0.0292874 0.
-17.1421 -40.2297 0.
-157.27 -359.823 0.
-23.4736 -60.8475 0.
-54.2504 -133.281 0.
-1446.99 -1240.16 0.
-1.38354 -3.69151 0.
-1912.67 -3627.12 0.
4.67111 9.14454 0.
-1084.53 -1267.01 0.
-1704.06 -2880.43 0.
1.48138 3.82964 0.
-2650.41 -4092.35 0.
-0.598913 -4.48573 0.
-2048.11 -4454.5 0.
-1491.21 -2164.68 0.
-71.679 -118.263 0.
-43.3439 -63.7404 0.
-0.0104609 -0.83362 0.
-2067.23 -4102.36 0.
-937.422 -996.448 0.
-60.9937 -43.7241 0.
-2763.88 -4904.65 0.
-29.4332 -53.4081 0.
-32.7485 -81.5767 0.
-3124.38 -5907.44 0.
-2.39223 -4.3512 0.
-3291.58 -4626.24 0.
-14.7222 -24.035 0.
-19.5062 -33.5874 0.
-3104.9 -6594.94 0.
-25.1088 -49.8059 0.
-33.1557 -82.9747 0.
-1962.98 -4288.36 0.
-667.234 -1330.61 0.
-23.5812 -65.2774 0.
-1200.82 -2297.46 0.
-785.15 -1445.33 0.
-825.091 -1446.85 0.
-646.043 -1078.08 0.
-473.408 -710.259 0.
-666.87 -994.871 0.
-625.503 -918.798 0.
-580.711 -849.543 0.
-619.362 -764.088 0.
-578.703 -692.751 0.
-530.955 -629.879 0.
-962.146 -1118.57 0.
-947.935 -1099.02 0.
-670.499 -737.843 0.
-669.021 -728.783 0.
-681.127 -756.539 0.
-808.852 -876.449 0.
-800.662 -863.417 0.
-795.501 -857.993 0.
-762.197 -935.033 0.
-823.073 -1068.91 0.
-897.95 -1214.05 0.
-5.7583 -15.8809 0.
0.00130431 0.321317 0.
-4861.65 -2478.9 0.
-1.75451 -0.952016 0.
-1.7827 -1.28735 0.
-875.795 -1166.53 0.
-842.038 -1079.19 0.
-816.201 -982.386 0.
-817.171 -909.103 0.
-795.402 -848.263 0.
-742.13 -816.357 0.
-702.351 -784.15 0.
-691.125 -775.821 0.
-684.231 -778.587 0.
-934.62 -1137.97 0.
-950.144 -1154.01 0.
-578.469 -731.103 0.
-624.097 -810.236 0.
-667.31 -890.068 0.
-614.355 -862.211 0.
-712.282 -1055.41 0.
-808.484 -1247.69 0.
-486.476 -742.602 0.
-720.501 -1244.5 0.
-969.134 -1734.07 0.
-857.585 -1632.56 0.
-1554.83 -3087.52 0.
-30.0895 -12.3099 0.
-756.608 -1417.79 0.
-2456.89 -5245.75 0.
-22.109 -27.7883 0.
-44.5605 -52.9467 0.
-3131 -6668.77 0.
-62.101 -87.0808 0.
-47.7037 -52.1422 0.
-2942.64 -4998.13 0.
-45.0361 -64.4132 0.
-2687.31 -2807.36 0.
-39.7888 -35.7213 0.
-2857.02 -5842.63 0.
-6.50864 -16.6963 0.
-24.0446 -63.3767 0.
-2131.97 -3702.82 0.
-25.4217 -61.7915 0.
-8.90064 -23.8798 0.
-18.5759 -47.6353 0.
-58.5288 -123.136 0.
0.00386882 3.29415 0.
3.5098 9.15396 0.
-1.97583 -9.83162 0.
3.62543 5.38546 0.
-1309.1 -1979.18 0.
-944.204 -1319.67 0.
0.0223402 0.370607 0.
-2.34889 -11.5913 0.
2.85822 5.71601 0.
-0.85678 -1.95908 0.
0.077955 4.41726 0.
-7.27744 -9.21769 0.
-29.3152 -44.7996 0.
-86.1764 -165.283 0.
-183.663 -445.947 0.
-110.268 -133.705 0.
-29.8106 -30.1077 0.
-78.4733 -95.9877 0.
-0.316379 -0.543572 0.
-5.53636 -9.18824 0.
-28.9448 -80.1532 0.
-11.5739 -22.9708 0.
-38.977 -66.9464 0.
-25.9828 -35.5808 0.
-19.1789 -34.0248 0.
-12.5234 -25.6896 0.
-18.6351 -39.8318 0.
-44.0828 -114.898 0.
-361.283 -541.429 0.
-20.5331 -56.7757 0.
-19.2523 -53.3256 0.
-619.835 -1102.2 0.
-253.607 -203.64 0.
-553.491 -878.852 0.
-411.398 -475.627 0.
-216.248 -129.305 0.
-555.315 -775.65 0.
-512.495 -703.476 0.
-474.961 -626.583 0.
-567.933 -651.471 0.
-528.278 -580.61 0.
-492.43 -530.187 0.
-941.138 -1105.57 0.
-928.03 -1087.76 0.
-606.186 -587.646 0.
-606.361 -576.057 0.
-612.478 -580.882 0.
-692.023 -800.29 0.
-679.581 -771.881 0.
-667.78 -742.512 0.
-575.702 -828.493 0.
-638.487 -981.025 0.
-706.975 -1131.4 0.
-21.3525 -32.2921 0.
-9.68984 -5.25983 0.
-3374.14 -1717.4 0.
-1.67761 -1.28967 0.
-1.69544 -0.890165 0.
-696.075 -972.465 0.
-656.638 -890.217 0.
-616.543 -808.829 0.
-689.719 -775.427 0.
-658.311 -721.001 0.
-630.717 -667.875 0.
-639.112 -645.061 0.
-634.503 -632.645 0.
-645.416 -656.872 0.
-950.339 -1139.71 0.
-965.671 -1155.03 0.
-503.956 -593.353 0.
-547.408 -675.416 0.
-590.893 -763.912 0.
-404.964 -588.738 0.
-491.709 -790.422 0.
-597.313 -979.691 0.
-59.7192 -25.3005 0.
-376.624 -444.847 0.
-588.87 -973.193 0.
-52.0592 -21.4916 0.
-715.612 -1248.9 0.
-54.0913 -20.866 0.
-49.4851 -25.0185 0.
-48.446 -35.208 0.
-27.7227 -29.7372 0.
-39.8034 -46.6772 0.
-76.1799 -94.5651 0.
-62.5322 -92.3522 0.
-22.3094 -26.6201 0.
-34.4512 -31.3833 0.
-15.1361 -19.7836 0.
-23.2528 -41.8675 0.
-86.5566 -129.977 0.
-454.436 -788.8 0.
-3.37107 -9.29495 0.
-10.0975 -26.901 0.
0.178017 0.390305 0.
-1607.32 -2891.22 0.
-0.0121673 -1.14611 0.
-14.7724 -37.7647 0.
-77.7191 -149.469 0.
-1673.88 -3531.8 0.
-1.01755 -12.3073 0.
-1646.53 -2821.93 0.
-5.22056 -9.51328 0.
-1000.24 -1468.61 0.
-936.858 -1220.93 0.
4.10707 7.77897 0.
-1682.78 -2582.8 0.
1.31664 2.3552 0.
-1.39144 -2.68593 0.
-0.0317073 -0.564902 0.
0.773864 0.884073 0.
-1854.9 -2896.87 0.
1.77914 3.64715 0.
-196.923 -525.204 0.
-1.93947 -3.54796 0.
-56.8589 -44.8261 0.
-116.384 -111.596 0.
-0.229517 -0.404529 0.
-23.1949 -46.6917 0.
-1495.62 -3350.58 0.
-12.9473 -21.1593 0.
-2503.1 -4396.38 0.
-16.3286 -19.9999 0.
-32.9399 -56.4884 0.
-2800.07 -6162.86 0.
-3.84776 -8.66078 0.
-17.4974 -40.1537 0.
-2440.38 -5113.99 0.
-123.967 -157.709 0.
-8.74957 -22.9241 0.
-1784.4 -3830.76 0.
-823.921 -1636.36 0.
-1143.31 -2131.16 0.
-788.168 -1402.21 0.
-475.177 -646.097 0.
-816.702 -1419.86 0.
-675.954 -1153.33 0.
-538.315 -883.915 0.
-760.302 -1020.92 0.
-733.451 -972.855 0.
-707.395 -929.483 0.
-1091.54 -1553.62 0.
-1064.96 -1502.41 0.
-767.675 -990.151 0.
-748.353 -952.623 0.
-734.82 -930.238 0.
-794.008 -1079.01 0.
-772.817 -1152.58 0.
-794.267 -1193.82 0.
-772.967 -1292.44 0.
-763.666 -1256.91 0.
-691.381 -1286.17 0.
-7.98987 -9.76922 0.
-22.4867 -14.7377 0.
-3818.54 -3529.97 0.
-112.589 -194.439 0.
-9.60998 -18.8288 0.
-609.336 -1139.7 0.
-636.34 -1188.57 0.
-665.857 -1242.56 0.
-755.26 -1098.36 0.
-746.032 -1078.85 0.
-740.86 -1071.47 0.
-793.157 -1002.2 0.
-792.397 -996.535 0.
-791.697 -991.003 0.
-1076.45 -1541.11 0.
-1112.95 -1634.02 0.
-639.334 -888.804 0.
-696.713 -979.437 0.
-763.235 -1087.71 0.
-460.135 -819.33 0.
-689.316 -1280.96 0.
-930.371 -1735.49 0.
-374.941 -428.849 0.
-845.677 -1483.44 0.
-1370.12 -2494.84 0.
-726.618 -1221.77 0.
-1930.3 -4138.16 0.
-28.9581 -25.0281 0.
-8.43373 -5.5132 0.
-2779.85 -6416.44 0.
-0.318109 -0.742075 0.
-8.60181 -4.87704 0.
-2585.94 -3571.02 0.
-40.5932 -81.7667 0.
-3220.54 -6423.24 0.
-35.4489 -59.534 0.
-52.2341 -88.4564 0.
-2429.67 -4772.25 0.
-428.616 -356.665 0.
-848.309 -1488.87 0.
-0.964781 -2.67202 0.
-3.16717 -8.14525 0.
-0.0325723 -0.261181 0.
-3.78959 -6.41182 0.
-1295.97 -2444.45 0.
-8.80841 -17.5777 0.
9.0077 23.6092 0.
2.19236 4.88228 0.
1.71581 3.61841 0.
-109.923 -176.619 0.
5.15406 9.87756 0.
-826.359 -1113.34 0.
-747.191 -1012.08 0.
-7.4291 -21.099 0.
-4.46931 -17.9379 0.
2.98828 4.95486 0.
-1680.85 -2973.34 0.
-0.62456 -6.93813 0.
-1.30497 -1.55013 0.
2.70203 4.81501 0.
1.46918 2.94001 0.
-509.189 -1375.61 0.
-9.16504 -12.7041 0.
-1574.62 -2048.74 0.
-37.657 -70.5972 0.
-1803.46 -3622 0.
-16.5927 -40.3644 0.
-67.2751 -167.207 0.
-12.0619 -31.9486 0.
-2.53223 -6.38646 0.
1.57186e-05 1.70903e-05 0.
-4.97622 -10.0471 0.
-0.459636 -0.848795 0.
0.230939 0.465908 0.
-14.086 -29.5811 0.
-14.1837 -38.4814 0.
-8.81001 -23.8128 0.
-9.15873 -24.8281 0.
-580.308 -1142.81 0.
-11.2073 -28.3564 0.
-561.611 -870.448 0.
-206.404 -138.736 0.
-33.9518 -48.6803 0.
-529.395 -970.605 0.
-393.156 -668.442 0.
-280.513 -348.117 0.
-604.695 -883.714 0.
-581.326 -835.564 0.
-558.762 -796.422 0.
-942.373 -1450.96 0.
-917.812 -1401.86 0.
-644.848 -849.979 0.
-635.476 -831.174 0.
-645.574 -869.596 0.
-584.617 -969.901 0.
-607.264 -1015.67 0.
-630.321 -1062.3 0.
-522.567 -1183.37 0.
-520.136 -1154.35 0.
-517.445 -1209.97 0.
-14.1742 -12.3147 0.
-104.953 -211.256 0.
-1753.68 -2597.84 0.
-252.712 -482.878 0.
-106.969 -153.201 0.
-467.069 -1115.27 0.
-477.14 -1109.58 0.
-511.645 -1134.43 0.
-587.511 -1040.71 0.
-580.45 -1017.08 0.
-570.889 -996.915 0.
-628.36 -916.454 0.
-613.503 -872.111 0.
-611.94 -867.204 0.
-929.734 -1436.76 0.
-965.489 -1525.09 0.
-451.931 -635.678 0.
-501.957 -733.405 0.
-554.44 -830.085 0.
-145.904 -79.3996 0.
-352.297 -567.424 0.
-550.253 -1061.15 0.
-23.1558 -16.9876 0.
-22.4621 -13.6295 0.
-541.242 -707.131 0.
-15.5024 -13.0822 0.
-507.003 -667.278 0.
-21.9163 -22.5919 0.
-3.76212 -4.62988 0.
-0.4132 -0.992014 0.
-1.19193 -2.23776 0.
-0.5715 -1.23225 0.
-86.4303 -94.2398 0.
-26.6198 -22.9841 0.
-52.3786 -86.8552 0.
-15.9928 -27.2869 0.
-10.645 -17.9149 0.
-41.755 -102.823 0.
-51.4203 -74.3144 0.
-750.084 -999.225 0.
-2649.26 -5998.13 0.
-0.969548 -2.49268 0.
-0.358276 -2.71201 0.
-44.081 -76.8579 0.
-1020.81 -1980.76 0.
0.187255 -0.149598 0.
7.28996 20.1104 0.
-0.991727 -6.92343 0.
-0.703485 -1.40666 0.
-1796.12 -2816.95 0.
-6.57249 -22.5666 0.
-1489.66 -2230 0.
-85.8658 -137.684 0.
-15.3488 -37.0097 0.
-1879.51 -3447.19 0.
5.18386 10.4951 0.
-3.3165 -13.3229 0.
4.88894 11.2816 0.
-1.00084 -10.0897 0.
4.00042 7.10371 0.
3.26022 6.39493 0.
-0.059537 -2.19993 0.
-1197.89 -2503.42 0.
-1.72808 -1.37803 0.
-27.4192 -41.9673 0.
-34.7756 -90.5937 0.
-36.2038 -84.479 0.
-171.418 -364.2 0.
-92.3475 -163.372 0.
-161.541 -210.298 0.
0.245679 0.235604 0.
-0.0341645 -0.171553 0.
0.15511 0.248454 0.
-0.219347 -0.39132 0.
-9.78171 -18.6988 0.
-16.4299 -45.2609 0.
-11.6688 -32.133 0.
-18.2182 -50.4142 0.
-8.59886 -23.6145 0.
-4.09649 -10.3277 0.
-26.4006 -37.9114 0.
-27.1822 -42.2688 0.
-49.9775 -56.1868 0.
-285.615 -344.662 0.
-111.685 -71.9495 0.
-82.546 -71.1237 0.
-340.574 -445.942 0.
-260.887 -236.945 0.
-30.9892 -32.9015 0.
-360.784 -317.941 0.
-490.951 -675.397 0.
-76.9429 -56.8643 0.
-273.26 -401.096 0.
-129.994 -135.577 0.
-104.764 -211.214 0.
-152.648 -316.637 0.
-184.553 -375.611 0.
-69.3311 -174.541 0.
-54.9951 -141.627 0.
-59.6879 -149.68 0.
-39.6276 -33.9733 0.
-35.0486 -23.0814 0.
-609.374 -1137.56 0.
-113.157 -166.818 0.
-77.4098 -84.1728 0.
-11.794 -18.2239 0.
-31.255 -56.123 0.
-75.1318 -164.602 0.
-184.826 -439.332 0.
-138.492 -335.114 0.
-137.902 -312.999 0.
-140.458 -158.616 0.
-202.282 -267.142 0.
-248.898 -276.859 0.
-439.999 -508.968 0.
-332.74 -222.51 0.
-48.8438 -39.5599 0.
-279.52 -350.748 0.
-411.874 -689.779 0.
-32.389 -38.9652 0.
-18.5898 -24.5961 0.
-285.175 -400.293 0.
-22.3504 -17.784 0.
-14.7518 -10.6229 0.
-14.471 -11.0437 0.
-18.0046 -13.1001 0.
-10.2789 -12.9241 0.
-25.5485 -24.0017 0.
-9.12035 -9.02649 0.
-0.146853 -0.395571 0.
-3.31988 -4.18657 0.
-2.09722 -2.49246 0.
-104.179 -102.053 0.
-21.3989 -12.0546 0.
-59.1881 -68.4429 0.
-6.38557 -13.1802 0.
-4.67898 -9.76364 0.
-21.8194 -34.4836 0.
-21.786 -29.0257 0.
-66.6896 -143.597 0.
-120.228 -327.192 0.
-0.179561 -2.28703 0.
-0.286535 -2.0113 0.
-104.606 -188.332 0.
-0.0292156 -17.4005 0.
-1138.22 -2365.95 0.
7.54624 19.4374 0.
-1469.82 -2998.26 0.
-2.48784 -4.56371 0.
-3.81453 -22.5355 0.
7.96445 12.9582 0.
13.9388 21.9695 0.
-50.7581 -265.708 0.
-14.8743 -39.8187 0.
11.5639 22.7756 0.
14.7855 26.8325 0.
-1165.35 -2097.6 0.
6.97488 14.3984 0.
-1.34095 -2.93936 0.
-1712.14 -3454.39 0.
-0.425821 -2.17957 0.
-933.475 -1959.43 0.
-13.696 -22.2164 0.
1.35219 0.232975 0.
-16.4573 -21.1061 0.
-37.2658 -100.943 0.
-166.799 -151.334 0.
-1548.22 -1875.25 0.
-2.3898 -3.89105 0.
-0.108209 -0.162825 0.
-2895.62 -6423.07 0.
0.079757 0.0840282 0.
-2214.47 -3215.05 0.
0.00148802 0.00274489 0.
-26.7025 -59.2117 0.
-2460.96 -5317.76 0.
-32.622 -81.1859 0.
-24.8428 -60.7901 0.
-2220.29 -5224.47 0.
-227.86 -234.258 0.
-1664.33 -3269.33 0.
-799.463 -1364.77 0.
-28.6915 -39.2167 0.
-1132.72 -2548.08 0.
-639.298 -1415.73 0.
-186.131 -239.731 0.
-691.302 -1521.05 0.
-479.708 -1007.77 0.
-292.321 -514.749 0.
-683.536 -1442.98 0.
-653.445 -1380.56 0.
-431.485 -815.259 0.
-444.975 -854.246 0.
-475.439 -926.529 0.
-336.08 -898.487 0.
-353.177 -947.203 0.
-371.854 -997.898 0.
-349.36 -947.288 0.
-330.42 -902.845 0.
-313.856 -861.686 0.
-125.001 -240.073 0.
-210.916 -471.233 0.
-333.605 -854.48 0.
-336.166 -701.857 0.
-242.546 -426.463 0.
-302.739 -802.781 0.
-329.295 -873.898 0.
-356.45 -945.925 0.
-355.775 -955.52 0.
-332.81 -897.014 0.
-312.527 -829.402 0.
-421.333 -862.48 0.
-407.561 -832.437 0.
-397.426 -813.645 0.
-634.685 -1432.51 0.
-712.496 -1592.92 0.
-249.069 -395.074 0.
-539.407 -1186.72 0.
-853.243 -1955.68 0.
-6.97543 -15.1287 0.
-678.659 -1513.63 0.
-1332.13 -3040.02 0.
-20.3401 -32.8093 0.
-781.699 -1253.42 0.
-1852.77 -3691.2 0.
-10.6478 -11.424 0.
-2303.01 -5035.3 0.
-43.6266 -28.0436 0.
-4.15755 -11.4664 0.
-2614.91 -6003.68 0.
-22.195 -22.9399 0.
-24.8917 -32.9698 0.
-2443.27 -4271.01 0.
-65.4446 -114.513 0.
-1874.7 -2719.21 0.
-0.00416338 -0.136043 0.
-2158.58 -4893.6 0.
-12.844 -20.607 0.
-3.90832 -3.77984 0.
0.0570937 0.551812 0.
-40.901 -112.837 0.
0.289513 0.667692 0.
-1961.96 -3684.21 0.
-160.491 -302.877 0.
6.57882 16.9211 0.
-80.2216 -194.362 0.
-0.444751 -4.65511 0.
-308.959 -607.99 0.
4.99833 8.64651 0.
-1692.09 -3135.3 0.
-13.5103 -19.4863 0.
41.6742 71.3002 0.
-165.69 -248.188 0.
17.3385 26.0289 0.
-1184.99 -2162.49 0.
14.5478 27.8772 0.
-1.08243 -11.5371 0.
4.89906 9.14957 0.
-1182.75 -2543.79 0.
0.0129789 0.569655 0.
0.0209197 0.513676 0.
-1.9035 -5.07303 0.
-31.7156 -75.2466 0.
0.871911 0.753687 0.
-1089.19 -1973.57 0.
-161.629 -272.633 0.
-2634.5 -4912.12 0.
-0.0534521 -0.718008 0.
0.363106 0.650437 0.
-0.338426 -0.552078 0.
-16.6212 -17.5106 0.
-4.30063 -3.38031 0.
-0.23133 -0.203141 0.
-5.26437 -6.40865 0.
-39.5288 -75.5865 0.
-28.2175 -68.8055 0.
-17.4085 -42.0971 0.
-16.8886 -40.777 0.
-31.9277 -65.1996 0.
-20.254 -41.7265 0.
-326.44 -302.7 0.
-36.6358 -43.068 0.
-38.6936 -49.0188 0.
-525.912 -1069.97 0.
-34.392 -42.965 0.
-37.0649 -44.7128 0.
-478.669 -1074.96 0.
-288.412 -545.537 0.
-182.856 -213.149 0.
-557.698 -1280.82 0.
-524 -1226.4 0.
-331.596 -694.176 0.
-335.521 -695.429 0.
-358.7 -746.893 0.
-288.155 -786.283 0.
-304.854 -836.844 0.
-323.21 -886.216 0.
-298.107 -812.939 0.
-281.886 -768.05 0.
-265.234 -723.247 0.
-228.009 -500.861 0.
-305.233 -744.752 0.
-521.135 -1342.61 0.
-419.652 -928.482 0.
-342.402 -670.893 0.
-251.569 -639.596 0.
-279.857 -712.879 0.
-307.119 -787.519 0.
-321.144 -840.785 0.
-304.727 -783.046 0.
-289.058 -725.876 0.
-286.883 -745.975 0.
-280.571 -714.44 0.
-281.735 -691.443 0.
-462.74 -1189.2 0.
-531.359 -1346.23 0.
-39.1288 -41.2969 0.
-294.678 -530.027 0.
-579.248 -1330.11 0.
-6.1909 -15.8007 0.
-9.03784 -24.4493 0.
-498.568 -937.751 0.
-23.336 -29.813 0.
-16.0977 -13.7209 0.
-67.1609 -33.5515 0.
-2.41546 -3.87264 0.
-6.49251 -9.78199 0.
-33.2195 -28.5195 0.
-0.0660805 -0.0531455 0.
0.2098 0.20005 0.
-22.1283 -23.0206 0.
-26.39 -34.2511 0.
-79.8431 -126.545 0.
-148.028 -251.233 0.
-75.5699 -121.79 0.
-0.0638616 -0.883339 0.
-32.5833 -88.1863 0.
-10.61 -22.7118 0.
-1817.17 -3009.8 0.
-1172.14 -2608.43 0.
-66.5072 -184.121 0.
1.58925 3.60306 0.
-0.416048 -7.93841 0.
-246.351 -495.807 0.
-1.34962 -16.4499 0.
-131.22 -317.302 0.
-0.54582 -4.33954 0.
-979.52 -1930.14 0.
-33.0604 -54.8685 0.
-10.4343 -41.8611 0.
2.30484 3.94498 0.
-194.402 -179.794 0.
-4.84596 -86.7405 0.
-123.211 -196.387 0.
1.91723 3.61154 0.
7.95071 15.6571 0.
-634.577 -1420.91 0.
9.86326 20.5831 0.
-325.518 -692.014 0.
-0.268338 -7.06332 0.
5.56242 12.9528 0.
-1026.84 -2235.31 0.
0.680712 2.24347 0.
1.83524 0.00348774 0.
-944.095 -1630.47 0.
-0.942872 -2.09373 0.
-69.9168 -193.458 0.
-0.00710189 -0.154189 0.
-0.34786 -0.664683 0.
0.929985 1.62411 0.
-39.9019 -35.8858 0.
-119.314 -118.75 0.
-1864.15 -3283.2 0.
0.0157632 0.0283492 0.
-39.2202 -74.9347 0.
-2116.05 -4909.79 0.
-15.417 -29.716 0.
-3.53382 -7.10731 0.
-2240.45 -4934.73 0.
-26.8548 -45.9373 0.
-1746.49 -3534.6 0.
-521.26 -629.844 0.
-37.0338 -28.0218 0.
-1404.64 -3204.41 0.
-593.08 -1244.69 0.
-23.1467 -24.7548 0.
-960.701 -2239.29 0.
-558.409 -1254.4 0.
-183.223 -244.202 0.
-734.987 -1711.1 0.
-617.098 -1499.13 0.
-415.344 -1033.6 0.
-368.553 -960.924 0.
-350.525 -917.474 0.
-338.137 -913.598 0.
-335.124 -921.741 0.
-334.162 -925.499 0.
-350.521 -932.61 0.
-303.917 -803.262 0.
-261.777 -686.295 0.
-255.727 -628.369 0.
-272.989 -695.4 0.
-753.429 -1269.48 0.
-380.855 -816.362 0.
-382.113 -808.328 0.
-294.686 -735.581 0.
-314.334 -800.938 0.
-338.096 -874.27 0.
-346.462 -909.878 0.
-345.966 -898.171 0.
-348.709 -884.047 0.
-337.884 -903.908 0.
-408.541 -1063.72 0.
-495.584 -1215.98 0.
-605.912 -1569.3 0.
-777.465 -1887.29 0.
-112.225 -105.429 0.
-575.565 -1350.65 0.
-1068.52 -2574.6 0.
-5.545 -15.0428 0.
-505.344 -1016.72 0.
-1621.78 -3875.72 0.
-21.7758 -9.41928 0.
-428.061 -249.932 0.
-1851.99 -3456.12 0.
-7.12321 -9.59383 0.
-2344.99 -5709.43 0.
-4.64139 -8.16312 0.
0.0388929 0.0540073 0.
-1901.37 -2618.11 0.
-0.504774 -0.0200518 0.
-2302.5 -5647.39 0.
-1111.89 -1344.24 0.
-441.991 -527.833 0.
-90.3588 -112.715 0.
-0.0138614 -0.147991 0.
-31.0072 -85.8102 0.
-0.142669 -1.17014 0.
0.712703 1.10763 0.
-59.4385 -149.035 0.
-259.366 -718.374 0.
2.58341 5.76124 0.
3.57685 8.38441 0.
-2.15345 -34.934 0.
-1228.18 -2726.38 0.
-1369.62 -3264.97 0.
8.31872 16.9492 0.
2.39059 4.82204 0.
5.55954 12.2922 0.
-1387.66 -2352 0.
-1309.8 -2185.43 0.
23.5714 177.385 0.
32.3238 84.6776 0.
22.1826 35.442 0.
19.1727 33.2792 0.
-3.85439 -7.92915 0.
15.5725 32.03 0.
8.75733 17.7341 0.
-1480.35 -2977.9 0.
0.346068 0.852209 0.
-664.277 -1402.04 0.
0.298537 9.04191 0.
-16.3235 -40.433 0.
-726.898 -1842.8 0.
-101.48 -154.437 0.
-0.58451 -1.75467 0.
-12.3776 -32.498 0.
0.22912 2.41595 0.
-2373.24 -4379.7 0.
2.30136 0.00349225 0.
-1709.82 -3924.17 0.
0.258246 0.058757 0.
0.558741 0.543886 0.
0.0817618 0.116052 0.
-68.0146 -93.6884 0.
-31.9676 -55.1341 0.
-16.3917 -28.6763 0.
-1.26137 -2.24938 0.
-62.0117 -83.9865 0.
-37.5806 -54.4087 0.
-41.9927 -52.3175 0.
-40.127 -41.7288 0.
-43.7672 -32.1076 0.
-419.253 -792.291 0.
-28.1589 -22.2465 0.
-35.3938 -28.9178 0.
-493.541 -1187.97 0.
-125.045 -169.444 0.
-45.261 -34.4477 0.
-490.302 -1201.72 0.
-393.516 -974.925 0.
-325.577 -834.443 0.
-285.064 -752.402 0.
-263.269 -694.293 0.
-300.916 -812.64 0.
-299.259 -820.368 0.
-297.768 -823.098 0.
-343.662 -926.077 0.
-310.027 -826.661 0.
-279.085 -734.947 0.
-279.095 -715.606 0.
-279.557 -743.378 0.
-251.91 -679.446 0.
-398.621 -865.095 0.
-400.26 -850.469 0.
-303.618 -793.964 0.
-318.609 -849.863 0.
-336.904 -912.819 0.
-297.495 -795.753 0.
-296.447 -787.12 0.
-297.272 -775.208 0.
-208.794 -556.984 0.
-271.961 -725.29 0.
-345.173 -892.439 0.
-306.973 -805.21 0.
-450.903 -1149.57 0.
-36.9079 -36.7604 0.
-18.5417 -26.9908 0.
-504.159 -1227.59 0.
-17.7756 -24.9482 0.
-13.3202 -13.5327 0.
-359.797 -736.137 0.
-43.1047 -16.0318 0.
-21.8234 -15.3013 0.
-33.4287 -28.4091 0.
-11.7307 -14.8845 0.
-9.67308 -11.9665 0.
-6.54913 -12.5971 0.
0.0329929 0.0751477 0.
0.148618 0.111385 0.
-0.444642 -0.000420018 0.
0.690676 1.07266e-06 0.
-0.806724 -0.00150429 0.
-25.7613 -50.9948 0.
-469.689 -637.815 0.
-1987.55 -4708 0.
-31.1314 -84.3902 0.
1.57349 3.42768 0.
0.921797 1.51017 0.
-28.263 -73.7483 0.
-1374.37 -3026.83 0.
2.9786 6.54519 0.
-1.95623 -4.4223 0.
-1.83028 -33.2755 0.
7.28668 18.3972 0.
-259.164 -564.284 0.
-2.6154 -24.6499 0.
-2.19068 -4.17586 0.
-2.17338 -4.46467 0.
-5.77713 -19.0953 0.
-93.0402 -142.913 0.
-3.14959 -85.5673 0.
-0.0180436 -3.51892 0.
-360.575 -573.418 0.
-18.9938 -61.5827 0.
-8.56481 -47.4259 0.
8.99846 18.3328 0.
-0.451827 -9.10149 0.
-12.6884 -28.6479 0.
-1.34757 -23.1211 0.
5.71225 14.4327 0.
0.00581908 6.02364 0.
-82.9285 -229.677 0.
-405.377 -1067.05 0.
-129.879 -232.312 0.
2.94673 5.16569 0.
-989.022 -2435.37 0.
-38.2347 -102.68 0.
0.662798 1.9144 0.
0.23077 1.39933 0.
1.06217 0.0441057 0.
0.049773 0.791272 0.
-0.0286975 -0.0762637 0.
-6.26807 -6.82285 0.
-100.827 -111.498 0.
-55.5421 -89.2248 0.
-39.4974 -63.0499 0.
-23.0701 -37.2042 0.
-79.2164 -92.32 0.
-54.1211 -64.4594 0.
-49.0756 -58.2197 0.
-46.1444 -45.9225 0.
-50.1405 -36.164 0.
-36.406 -22.174 0.
-42.6706 -27.3076 0.
-49.5008 -33.4707 0.
-89.0231 -120.584 0.
-22.8875 -23.9652 0.
-41.2371 -33.3561 0.
-74.766 -149.302 0.
-30.1957 -36.1562 0.
-108.39 -245.774 0.
-43.5864 -70.4215 0.
-24.5719 -32.1213 0.
-47.4333 -120.377 0.
-124.486 -322.085 0.
-55.7009 -140.335 0.
-90.8097 -199.994 0.
-47.1953 -78.2405 0.
-73.2874 -114.372 0.
-39.5641 -108.937 0.
-52.435 -141.123 0.
-21.4187 -56.3324 0.
-115.568 -104.053 0.
-158.02 -201.914 0.
-22.331 -44.1758 0.
-96.6368 -212.586 0.
-57.9025 -137.69 0.
-34.4774 -66.0695 0.
-86.493 -211.935 0.
-34.342 -62.3539 0.
-16.9036 -27.8334 0.
-61.009 -153.239 0.
-48.5382 -109.011 0.
-16.4982 -45.1068 0.
-117.971 -288.567 0.
-21.0882 -30.7783 0.
-13.1575 -24.0088 0.
-9.43238 -23.5885 0.
-38.2943 -35.7922 0.
-33.7705 -21.7149 0.
-31.2755 -13.0185 0.
-93.8631 -45.8571 0.
-14.6439 -12.5697 0.
-26.194 -25.7767 0.
-24.5229 -20.8364 0.
-23.3471 -19.9707 0.
-11.2604 -15.5754 0.
-0.186518 -0.169299 0.
0.150785 0.0858932 0.
-0.371608 -0.00825476 0.
0.416557 0.00442159 0.
0.199346 0.0212515 0.
-22.6011 -59.7824 0.
0.0240109 0.446191 0.
-254.757 -700.633 0.
2.1166 5.21368 0.
-2031.6 -3698.04 0.
3.32858 8.86533 0.
-44.9047 -119.468 0.
7.23138 16.0019 0.
-0.0485362 -4.50729 0.
-1535.39 -3268.51 0.
10.8337 26.8649 0.
2.21291 5.56419 0.
-223.401 -471.336 0.
-139.975 -304.786 0.
-2.78996 -5.08122 0.
-3.0202 -5.71366 0.
-14.579 -73.2067 0.
-43.0837 -69.2297 0.
3.96226 74.7701 0.
-0.421322 -38.6078 0.
80.1593 138.679 0.
-3.39071 -19.7082 0.
-8.68502 -51.26 0.
-4.00677 -27.3267 0.
-1.42553 -26.3221 0.
-1.34819 -18.9009 0.
7.94512 18.7697 0.
-266.661 -656.267 0.
-0.221778 -32.8754 0.
-147.498 -395.615 0.
8.59405 20.1683 0.
-128.608 -185.676 0.
-524.041 -1282.54 0.
0.805912 2.21237 0.
-113.224 -235.414 0.
1.87148 2.16264 0.
-0.00977394 -0.221943 0.
1.53849 0.0278058 0.
-1577.29 -3215.45 0.
0.739533 1.44963 0.
-2198.06 -2733.65 0.
-110.426 -142.378 0.
-1738.42 -3475.99 0.
-71.0497 -193.549 0.
-4.40097 -8.73085 0.
-2082.57 -4892.31 0.
-77.8961 -82.1836 0.
-2006.63 -3381.32 0.
-166.765 -100.095 0.
-13.6043 -24.1868 0.
-1887.76 -4533.45 0.
-228.4 -311.007 0.
-50.0688 -40.6203 0.
-1201.99 -2993.56 0.
-446.947 -1087.33 0.
-27.6084 -29.7813 0.
-847.539 -2141.92 0.
-542.729 -1412.9 0.
-575.348 -1474.66 0.
-417.514 -1107.23 0.
-274.484 -742.925 0.
-394.185 -1049.54 0.
-313.76 -837.525 0.
-235.466 -628.235 0.
-332.079 -875.619 0.
-283.692 -725.49 0.
-234.316 -579.766 0.
-256.809 -687.575 0.
-319.752 -866.243 0.
-217.696 -586.987 0.
-421.165 -920.919 0.
-366.001 -772.92 0.
-247.177 -640.294 0.
-299.366 -795.539 0.
-355.146 -955.219 0.
-248.842 -647.787 0.
-367.23 -958.691 0.
-490.343 -1269.92 0.
-276.302 -751.305 0.
-450.406 -1196.66 0.
-637.934 -1631.62 0.
-497.093 -1324.92 0.
-936.251 -2428.81 0.
-14.7571 -33.5498 0.
-408.178 -970.845 0.
-1408.08 -3449.89 0.
-41.1178 -33.456 0.
-69.2261 -35.8001 0.
-2104 -5276.11 0.
-5.03602 -10.0412 0.
-5.00675 -9.41603 0.
-1995.49 -3190.33 0.
-7.96436 -5.64137 0.
-2209.62 -5358.35 0.
-0.662227 -0.319833 0.
-0.0554192 -0.0902545 0.
-1970.35 -2919.19 0.
-2.15156 -5.8449 0.
-1812.23 -4112.58 0.
0.049812 0.189254 0.
-28.8681 -60.9088 0.
-0.0752826 -1.49695 0.
-11.12 -30.7746 0.
4.55784 11.2984 0.
4.79467 9.17466 0.
-661.876 -1561.65 0.
-95.8333 -257.741 0.
7.66298 16.7779 0.
-1.11049 -41.8025 0.
5.06454 12.6149 0.
-694.513 -1742.3 0.
-107.017 -268.242 0.
-877.852 -1822.24 0.
-4.38205 -40.2256 0.
0.0947158 1.79497 0.
1.9132 3.48319 0.
21.4142 40.7716 0.
-959.291 -1586.8 0.
0.0767628 23.5606 0.
-1.01158 -30.7594 0.
-799.747 -1355.52 0.
26.0779 47.6421 0.
22.0669 42.9389 0.
16.916 37.0772 0.
-741.666 -1786.04 0.
-0.457085 -5.10464 0.
-7.67917 -17.6458 0.
-924.05 -2220.16 0.
-0.358259 -13.3496 0.
-271.851 -712.707 0.
-0.0360349 -8.99917 0.
-126.236 -138.874 0.
-3.87713 -9.28304 0.
-0.00423834 -0.881715 0.
-224.258 -324.526 0.
-252.738 -207.257 0.
-1485.37 -3887.61 0.
1.04456 2.80711 0.
-46.5083 -111.404 0.
0.689323 1.67635 0.
-0.0848377 -0.12329 0.
-0.392266 -1.17575 0.
-75.9417 -198.268 0.
-14.1043 -29.4815 0.
-0.460236 -0.940988 0.
-93.4475 -106.307 0.
-41.6595 -48.3325 0.
-57.6854 -80.8918 0.
-32.8519 -49.6758 0.
-19.1631 -30.612 0.
-6.61171 -18.2312 0.
-18.9094 -24.1445 0.
-54.6643 -42.8365 0.
-405.56 -952.933 0.
-15.4458 -23.4535 0.
-19.0791 -27.4054 0.
-460.276 -1162.64 0.
-165.145 -395.766 0.
-358.024 -940.346 0.
-212.652 -563.219 0.
-98.6605 -257.794 0.
-336.66 -903.117 0.
-258.847 -690.39 0.
-183.57 -475.536 0.
-319.001 -843.313 0.
-264.225 -698.423 0.
-217.336 -545.906 0.
-273.544 -723.771 0.
-338.236 -901.167 0.
-119.427 -144.427 0.
-461.941 -913.285 0.
-409.109 -765.728 0.
-232.492 -576.718 0.
-281.187 -738.088 0.
-337.904 -900.809 0.
-144.547 -359.102 0.
-260.532 -673.959 0.
-379.119 -989.098 0.
-43.5005 -117.574 0.
-182.659 -478.976 0.
-359.314 -926.685 0.
-40.0011 -98.6638 0.
-477.703 -1263.05 0.
-14.2704 -33.6094 0.
-13.8117 -24.9892 0.
-255.277 -538.567 0.
-26.4525 -23.9721 0.
-15.7743 -12.6153 0.
-16.7718 -16.6977 0.
-7.95923 -12.3198 0.
-7.7748 -11.623 0.
-7.63598 -11.0787 0.
-6.88385 -3.43674 0.
-33.2347 -20.1779 0.
-0.318851 -0.207631 0.
-2.92883 -3.84077 0.
-42.275 -67.2231 0.
0.18073 0.396068 0.
-0.0223328 -0.0423655 0.
0.078944 0.782621 0.
-1835.72 -4072.51 0.
0.0269687 1.27269 0.
-0.00631254 -4.34969 0.
-0.350466 -6.95127 0.
2.86586 5.63333 0.
-12.2034 -28.4533 0.
-0.0115165 -4.38184 0.
-975.923 -2093.47 0.
10.5654 27.8006 0.
0.773079 1.94647 0.
-8.00122 -20.007 0.
-22.5901 -51.5144 0.
-494.757 -1097.04 0.
12.6347 26.2585 0.
8.09273 18.8408 0.
-0.0939503 -0.193157 0.
56.216 98.1803 0.
-267.527 -441.581 0.
-4.61888 -46.0468 0.
-0.0882465 -1.43495 0.
-10.9012 -18.7417 0.
-63.4956 -101.002 0.
-859.555 -1641.75 0.
-6.61308 -49.7551 0.
12.7409 31.2215 0.
2.92309 6.52473 0.
-125.534 -280.86 0.
3.31125 7.89769 0.
-1.01846 -34.6231 0.
-3.87353 -10.197 0.
6.93823 19.1183 0.
-176.546 -149.79 0.
-0.0551472 -10.3303 0.
2.47675 6.75961 0.
-334.713 -411.396 0.
-259.979 -514.199 0.
-17.3187 -47.1604 0.
-0.965974 -2.62594 0.
-38.4604 -100.688 0.
0.299132 0.813967 0.
-0.272078 -0.865403 0.
-0.0600261 -0.273286 0.
-50.2087 -113.497 0.
-970.735 -2298.69 0.
0.0368883 0.0819448 0.
-1481.98 -3607.66 0.
-35.1522 -46.9126 0.
-1780.54 -2975.79 0.
-4.59366 -9.27653 0.
-0.343466 -0.761945 0.
-1847.23 -4652.78 0.
-1.53754 -4.25781 0.
-67.233 -61.1902 0.
-1448.64 -3510.29 0.
-284.811 -654.964 0.
-12.4178 -26.8058 0.
-1023.11 -2585.4 0.
-477.007 -1198.33 0.
-681.511 -1677.07 0.
-425.015 -1065.39 0.
-183.431 -456.516 0.
-511.962 -1279.81 0.
-348.427 -878.609 0.
-192.664 -474.914 0.
-387.337 -921.583 0.
-317.643 -747.857 0.
-251.852 -582.319 0.
-295.891 -740.082 0.
-260.742 -660.454 0.
-401.963 -473.729 0.
-385.322 -595.659 0.
-419.748 -682.627 0.
-221.138 -565.986 0.
-312.568 -799.194 0.
-410.474 -1048.97 0.
-161.744 -394.218 0.
-370.487 -937.419 0.
-588.532 -1479.32 0.
-152.361 -364.039 0.
-444.648 -1082.94 0.
-749.729 -1795.53 0.
-414.762 -1074.63 0.
-1133.98 -2920.78 0.
-22.07 -33.6092 0.
-68.9415 -154.128 0.
-1572.99 -4069.12 0.
-55.6672 -50.3113 0.
-32.5732 -26.4165 0.
-1403.69 -3170.1 0.
0.178131 0.0737536 0.
-1805.31 -3874.88 0.
-40.9449 -47.8726 0.
-16.8054 -7.3421 0.
-1146.45 -2760.18 0.
-238.994 -396.947 0.
-16.9346 -19.2588 0.
-63.4774 -88.0555 0.
-0.0815495 -0.662136 0.
-0.106975 -0.270549 0.
0.177315 1.24756 0.
0.117539 0.492254 0.
3.62304 9.7322 0.
-1542 -3157.18 0.
6.68936 16.4444 0.
-0.000430816 -1.82224 0.
-330.662 -782.552 0.
15.8094 42.532 0.
2.13484 5.70334 0.
-668.692 -1764.75 0.
-5.41267 -13.7524 0.
15.8942 38.5122 0.
10.958 24.4175 0.
14.9772 36.2062 0.
-1787.12 -3608.78 0.
6.59458 14.6171 0.
0.882394 1.79492 0.
-34.4134 -109.895 0.
-1719.84 -2941.42 0.
21.5973 109.642 0.
-549.14 -1441.04 0.
71.1869 130.798 0.
30.7331 48.7471 0.
33.7874 75.3489 0.
-8.36079 -55.0453 0.
6.32334 14.515 0.
-0.322976 -15.2434 0.
-2.26969 -42.6458 0.
13.9064 32.9001 0.
-0.379381 -0.962171 0.
14.9984 39.5825 0.
-478.183 -1286.46 0.
7.74062 21.0278 0.
-0.185852 -0.512894 0.
-0.0253658 -3.25955 0.
-812.968 -1867.2 0.
-119.447 -261.256 0.
-11.3749 -31.1856 0.
0.179568 0.492266 0.
-33.3816 -91.3597 0.
-139.729 -356.402 0.
-1410.9 -2673.26 0.
-0.0976135 -0.210077 0.
-886.73 -2202.02 0.
-14.7779 -39.5507 0.
-0.0564195 -0.487228 0.
-87.4936 -155.394 0.
-11.4373 -27.1269 0.
-9.1018 -20.1585 0.
-4.7635 -8.89431 0.
-1.63733 -3.2269 0.
-0.882255 -2.40306 0.
-0.518124 -1.41666 0.
-6.46784 -16.941 0.
-116.682 -232.163 0.
-9.24609 -23.7457 0.
-7.18752 -15.7823 0.
-445.047 -1126.84 0.
-26.5961 -47.0027 0.
-366.483 -901.819 0.
-114.301 -264.928 0.
-19.3266 -44.7131 0.
-351.016 -912.593 0.
-198.073 -505.838 0.
-72.1823 -167.284 0.
-307.356 -777.46 0.
-243.388 -616.241 0.
-191.143 -483.417 0.
-323.206 -740.757 0.
-294.441 -665.451 0.
-161.04 -403.271 0.
-362.965 -622.178 0.
-388.386 -689.198 0.
-141.527 -382.313 0.
-226.389 -614.395 0.
-317.581 -858.402 0.
-12.1681 -19.9173 0.
-162.088 -415.71 0.
-368.111 -964.567 0.
-12.6864 -20.7332 0.
-26.3973 -56.7923 0.
-330.357 -769.474 0.
-12.1751 -30.4563 0.
-421.548 -1106.34 0.
-18.106 -24.0992 0.
-19.4976 -20.7022 0.
-66.4659 -126.753 0.
-31.3198 -14.5149 0.
-10.3843 -3.84233 0.
-14.8041 -5.37096 0.
0.15092 0.0618531 0.
-324.86 -808.268 0.
-41.0065 -44.3151 0.
-4.40227 -2.65368 0.
-24.9697 -24.3763 0.
-0.123147 -0.3145 0.
-1958.86 -4296.49 0.
-44.8493 -91.4686 0.
-61.6796 -97.4062 0.
-1302.51 -1922.06 0.
0.0461768 1.935 0.
0.154471 0.90741 0.
0.015185 1.4638 0.
0.137044 3.08528 0.
-1172.56 -2547.81 0.
-0.0100383 -27.0438 0.
-881.091 -2106.65 0.
4.30068 11.1441 0.
2.32209 6.25165 0.
-316.852 -843.068 0.
-14.0799 -36.0564 0.
-615.061 -1444.9 0.
-9.85502 -21.4668 0.
5.9984 14.2154 0.
7.93079 18.6613 0.
-4.7056 -26.7799 0.
-1633.72 -3355.84 0.
22.8003 36.5527 0.
-5.57847 -34.4349 0.
2.49897 52.3788 0.
16.7814 0.885965 0.
-5.89119 -12.2691 0.
56.4344 89.2747 0.
-196.564 -415.53 0.
5.96477 12.6558 0.
-52.2811 -113.497 0.
5.58927 14.5875 0.
-8.39433 -19.9545 0.
-388.864 -910.568 0.
4.2031 10.4238 0.
-603.249 -1593.98 0.
1.20167 3.1684 0.
4.26917 11.5867 0.
-0.274618 -23.5286 0.
-133.547 -346.536 0.
-0.476035 -14.7376 0.
-19.5294 -41.5397 0.
-55.0291 -151.508 0.
-600.449 -1395.42 0.
-1073.99 -2278.04 0.
0.165203 0.430601 0.
1.40064 3.10514 0.
-0.222697 -2.73905 0.
0.016022 0.3171 0.
-0.00963498 -0.455523 0.
0.556862 1.21107 0.
-44.4902 -68.5565 0.
-15.005 -30.0661 0.
-4.19025 -10.0754 0.
-6.39003 -10.8157 0.
-3.08266 -5.33569 0.
-0.90698 -2.32349 0.
-0.394053 -0.990401 0.
-0.00286714 -0.0460484 0.
-10.4984 -23.8911 0.
-7.35692 -14.8852 0.
-6.67641 -14.2016 0.
-22.6311 -31.3712 0.
-26.8286 -41.9553 0.
-8.74427 -18.3457 0.
-8.92888 -23.2446 0.
-15.3599 -36.7575 0.
-142.016 -369.02 0.
-28.641 -62.6286 0.
-14.9813 -33.1546 0.
-161.177 -337.11 0.
-149.737 -304.032 0.
-78.2559 -127.547 0.
-173.752 -97.3492 0.
-165.775 -103.066 0.
-22.2799 -10.3474 0.
-135.095 -85.0841 0.
-332.306 -415.257 0.
-11.2689 -26.7547 0.
-117.488 -321.066 0.
-140.261 -384.258 0.
-8.92523 -17.461 0.
-6.24801 -11.7874 0.
-119.235 -316.448 0.
-15.0389 -25.5828 0.
-13.4486 -22.8685 0.
-18.0079 -33.4059 0.
-13.4599 -30.9439 0.
-13.8968 -27.6978 0.
-29.0994 -30.0281 0.
-29.8039 -27.1797 0.
-30.4653 -28.097 0.
-24.9852 -11.6746 0.
-16.3811 -6.75636 0.
-23.5122 -8.58197 0.
0.0724823 0.0293921 0.
-16.6817 -9.69346 0.
-40.9163 -42.0378 0.
0.00429526 0.0816603 0.
-22.8199 -22.1442 0.
0.363513 0.900884 0.
-0.386317 -1.06963 0.
0.949871 2.14482 0.
-0.657482 -2.73217 0.
-0.135254 -3.15861 0.
-1604.84 -3771.32 0.
3.29701 8.82866 0.
-0.0663998 -6.73247 0.
-0.612273 -18.5814 0.
-539.837 -1198.53 0.
-0.0286792 -8.78381 0.
-0.360008 -25.923 0.
-578.713 -1516.99 0.
15.021 40.6611 0.
-280.643 -743.244 0.
4.38565 10.6195 0.
4.42841 9.86299 0.
-4.45649 -11.0041 0.
-2.81457 -39.3117 0.
13.766 31.0014 0.
-0.271795 -0.522907 0.
0.746772 1.72075 0.
33.1125 54.1275 0.
-5.21994 -25.4092 0.
33.6774 79.8528 0.
26.3917 2.03361 0.
-6.88218 -14.4298 0.
-26.9743 -155.416 0.
-2.00437 -4.42204 0.
8.92802 18.5791 0.
-292.359 -625.926 0.
-70.634 -182.744 0.
-1203.51 -2807.88 0.
-1398.35 -3244.46 0.
15.7691 38.2518 0.
-349.679 -911.332 0.
18.7404 49.5247 0.
-0.39618 -43.7082 0.
-9.57606 -25.1108 0.
-110.338 -294.209 0.
4.15323 10.8953 0.
-0.932876 -6.58175 0.
-928.846 -2148.52 0.
1.86193 4.53605 0.
-0.0111628 -1.30529 0.
-0.0441721 -1.1271 0.
-0.0175669 -1.50682 0.
-0.0673807 -1.28609 0.
-41.4871 -97.2936 0.
-1219.19 -2978.39 0.
0.00257392 0.303605 0.
-1342.04 -2956.76 0.
-7.02534 -11.7229 0.
-17.056 -37.9352 0.
-1930.05 -3992.85 0.
-7.08736 -11.9809 0.
-1331.93 -2846.67 0.
-9.38561 -18.0099 0.
-24.2877 -47.6965 0.
-1515.77 -3841.67 0.
-21.7099 -59.9799 0.
-15.2105 -39.7173 0.
-1241.08 -3173.52 0.
-177.311 -421.212 0.
-860.313 -2051.12 0.
-421.214 -976.181 0.
-75.9921 -155.335 0.
-688.221 -1792.38 0.
-390.337 -1010.42 0.
-111.82 -245.975 0.
-484.559 -1261.64 0.
-324.785 -834.879 0.
-180.942 -439.237 0.
-398.957 -886.115 0.
-370.123 -805.76 0.
-204.144 -515.768 0.
-427.405 -807.131 0.
-498.028 -985.666 0.
-160.918 -437.682 0.
-345.184 -942.583 0.
-560.649 -1517.14 0.
-25.5428 -63.6325 0.
-409.358 -1078 0.
-797.411 -2087.69 0.
-32.5563 -70.8527 0.
-444.839 -973.881 0.
-969.814 -2216.85 0.
-60.4276 -137.912 0.
-1313.65 -3454.27 0.
-28.0681 -31.8264 0.
-21.8236 -17.1679 0.
-1633.24 -4174.23 0.
-24.5281 -10.2543 0.
-33.2323 -12.3156 0.
-1710.5 -3086.08 0.
-5.45663 -4.63745 0.
-1673.69 -3783.83 0.
-81.8621 -113.367 0.
-37.4967 -38.9451 0.
-1628.31 -2618.64 0.
-0.0930701 -1.60867 0.
-1194.21 -3297.56 0.
2.20208 5.12463 0.
-0.0508782 -0.264852 0.
0.0509968 3.77329 0.
-1.80818 -4.11716 0.
-0.12363 -12.8004 0.
-1181.73 -2943.13 0.
-0.0959026 -3.42618 0.
0.469088 1.28151 0.
3.56421 9.5183 0.
13.5766 36.733 0.
-0.515833 -1.42157 0.
10.2546 27.8707 0.
-354.752 -935.428 0.
13.3869 31.4989 0.
-441.242 -977.656 0.
17.4519 41.8575 0.
-2.68314 -28.3682 0.
28.4431 61.7714 0.
-5.41046 -10.1727 0.
-344.699 -778.754 0.
53.2253 88.3979 0.
77.9451 142.385 0.
-4.07978 -39.7136 0.
-4.82957 -2.83545 0.
-143.169 -302.466 0.
-12.2652 -107.253 0.
3.23761 7.08206 0.
-1.22455 -2.5076 0.
-15.0449 -31.4275 0.
-1.79141 -61.1212 0.
-3.29753 -61.1352 0.
10.8848 27.9288 0.
-1.10566 -37.8007 0.
-401.98 -1026.11 0.
-0.885044 -46.2892 0.
3.0092 8.14724 0.
-1112.49 -2867.7 0.
-89.244 -236.575 0.
-251.01 -661.327 0.
-1.27253 -8.03777 0.
-74.455 -178.401 0.
0.635903 1.61622 0.
0.0503301 6.58268 0.
1.84794 4.56283 0.
-1.15539 -2.97478 0.
-1190.05 -2768.59 0.
-0.302366 -0.763303 0.
-107.864 -297.622 0.
0.987895 2.49304 0.
0.770763 1.10268 0.
-0.0142085 -0.066134 0.
0.352024 0.825032 0.
0.123378 0.295286 0.
0.0394825 0.21782 0.
-6.32472 -3.02504 0.
-9.33948 -4.48536 0.
-10.9938 -7.49341 0.
-22.5165 -60.9436 0.
-11.1946 -28.8119 0.
-3.21306 -8.47678 0.
-319.305 -800.422 0.
-16.17 -34.5847 0.
-320.013 -718.602 0.
-11.505 -19.108 0.
-18.8859 -34.7855 0.
-398.091 -1038.25 0.
-125.161 -288.58 0.
-23.0538 -27.479 0.
-389.085 -980.869 0.
-257.127 -620.257 0.
-127.593 -261.302 0.
-359.536 -796.997 0.
-331.855 -721.653 0.
-61.5104 -57.2172 0.
-377.66 -696.768 0.
-425.96 -827.364 0.
-54.7806 -117.585 0.
-212.84 -555.498 0.
-398.381 -1066.43 0.
-20.1812 -34.3433 0.
-34.8359 -71.2282 0.
-403.622 -1058.79 0.
-20.6628 -47.2396 0.
-18.5121 -41.6939 0.
-275.502 -578.609 0.
-21.2106 -43.3667 0.
-245.639 -592.242 0.
-29.0346 -31.8827 0.
-22.1063 -17.5548 0.
-11.1475 -7.35717 0.
-37.9396 -16.7803 0.
-48.711 -17.7179 0.
-54.7395 -33.6447 0.
-4.03082 -3.82705 0.
-22.389 -22.259 0.
-155.034 -167.847 0.
-49.1267 -42.4963 0.
-52.6059 -43.6579 0.
1.23851 2.95191 0.
-4.05896 -11.2104 0.
1.11853 2.59215 0.
-1264.15 -2347.59 0.
0.0227404 4.56828 0.
3.09626 7.48676 0.
8.15799 22.2027 0.
-44.24 -110.376 0.
-0.087607 -3.22479 0.
-0.13172 -30.0017 0.
-747.81 -2004.49 0.
-0.273543 -36.5127 0.
-24.1808 -66.1688 0.
-85.4601 -228.522 0.
-231.52 -591.719 0.
9.87079 22.4948 0.
-1031.17 -2282.73 0.
-44.6143 -104.409 0.
15.0119 32.9349 0.
-792.254 -1680.01 0.
8.2991 18.512 0.
-627.572 -1365.02 0.
-1323.88 -2015.32 0.
-16.5446 -64.522 0.
20.1044 42.0281 0.
0.45756 4.30729 0.
-30.4965 -44.8917 0.
53.9019 118.495 0.
-9.24211 -20.0729 0.
1.18221 2.39075 0.
-349.341 -711.854 0.
14.7039 36.694 0.
-8.84289 -21.2873 0.
-1.6072 -4.05762 0.
8.08097 20.7546 0.
-454.311 -1135.79 0.
5.42578 14.404 0.
-622.638 -1684.29 0.
14.5439 39.8485 0.
-79.7834 -210.133 0.
-616.281 -1623.09 0.
3.08731 8.21524 0.
-58.0068 -142.223 0.
3.84498 9.98012 0.
-0.0398358 -8.34373 0.
-788.667 -1557.8 0.
-0.250583 -7.28967 0.
-83.3316 -212.379 0.
0.905692 2.38955 0.
0.703702 1.92791 0.
-0.200446 -3.10805 0.
0.349469 0.912511 0.
-0.197527 -0.956993 0.
-141.454 -307.757 0.
-1297.07 -3495.61 0.
-7.36347 -20.3906 0.
-1508.2 -2230.32 0.
-33.1057 -51.3318 0.
-30.7136 -45.8284 0.
-1505.37 -3830 0.
-13.1055 -36.1614 0.
-8.62048 -23.8528 0.
-1297.21 -3343.29 0.
-22.2904 -51.5296 0.
-969.412 -2222.99 0.
-378.386 -817.64 0.
-7.53265 -7.69309 0.
-825.934 -2132.13 0.
-368.747 -932.673 0.
-18.2195 -24.4277 0.
-581.08 -1507.32 0.
-345.428 -883.765 0.
-126.89 -279.7 0.
-434.354 -1010.74 0.
-379.608 -882.46 0.
-114.824 -243.325 0.
-432.133 -913.677 0.
-548.384 -1213.56 0.
-74.463 -157.805 0.
-341.609 -899.775 0.
-645.572 -1704.76 0.
-20.0129 -24.9534 0.
-332.839 -851.735 0.
-921.105 -2393.67 0.
-9.34934 -20.445 0.
-340.715 -727.112 0.
-995.811 -2272.73 0.
-25.5385 -41.7564 0.
-1411.96 -3293.4 0.
-21.5557 -28.5906 0.
-11.4978 -8.21242 0.
-1597.64 -4200.7 0.
-21.26 -9.88768 0.
-22.5575 -10.5503 0.
-1455.87 -2556.03 0.
-58.8583 -83.0299 0.
-1368.83 -3328.79 0.
-270.647 -295.687 0.
-115.37 -79.7498 0.
-90.3135 -54.6115 0.
1.10385 2.60193 0.
0.543971 1.47934 0.
-0.73257 -11.9474 0.
0.301137 0.597208 0.
-705.715 -1776.33 0.
-0.311063 -6.81408 0.
6.21102 16.943 0.
-0.249217 -21.3509 0.
-807.39 -2101.03 0.
-0.93118 -2.55626 0.
-0.0459588 -26.3271 0.
-291.713 -796.448 0.
-70.5658 -191.22 0.
-79.7471 -212.43 0.
20.8081 51.5639 0.
-0.0922956 -2.10448 0.
-1.94217 -62.2574 0.
-1188.25 -2738.21 0.
-0.289655 -6.58152 0.
-17.07 -34.7089 0.
-8.9872 -82.3443 0.
48.7705 100.813 0.
-126.526 -178.181 0.
-5434.66 -9128.48 0.
-4.87326 -26.3345 0.
43.5161 77.4174 0.
77.3833 111.022 0.
32.3416 71.0592 0.
-35.2876 -76.2011 0.
55.3489 147.316 0.
-1278.77 -2546.81 0.
22.9486 55.3076 0.
-36.2744 -85.6777 0.
12.0672 30.0184 0.
12.2883 31.3356 0.
-722.833 -1771.93 0.
-129.807 -345.646 0.
5.42705 13.9479 0.
-6.50299 -17.7968 0.
-74.5167 -194.902 0.
13.6843 37.1643 0.
-5.11252 -13.5448 0.
-54.5526 -134.909 0.
-0.126226 -26.9141 0.
-568.253 -1374.28 0.
5.60892 11.2466 0.
4.47346 11.3966 0.
-58.1057 -153.291 0.
-0.345641 -0.937328 0.
-1075.63 -2820.79 0.
-0.147326 -4.12464 0.
-1264.52 -2417.91 0.
0.238995 0.486364 0.
0.0193741 0.485268 0.
-8.24444 -22.7519 0.
2.76292e-05 0.196879 0.
-15.8074 -21.3724 0.
-8.17173 -11.6858 0.
-7.78089 -13.8801 0.
-10.6337 -29.4236 0.
-4.53758 -12.5444 0.
-1.65939 -4.58528 0.
-130.736 -291.581 0.
-17.0995 -42.3408 0.
-189.568 -400.397 0.
-7.43109 -13.9548 0.
-3.89191 -5.50508 0.
-338.616 -886.832 0.
-13.5981 -21.7455 0.
-13.0794 -23.0421 0.
-340.138 -885.258 0.
-111.137 -256.294 0.
-36.3668 -46.9965 0.
-300.219 -689.886 0.
-247.082 -554.605 0.
-63.9841 -56.7021 0.
-219.057 -397.377 0.
-333.351 -699.921 0.
-16.9058 -23.1622 0.
-49.694 -116.557 0.
-343.617 -923.138 0.
-19.4431 -24.4611 0.
-18.896 -22.8048 0.
-318.224 -828.398 0.
-10.2692 -21.4297 0.
-11.189 -24.7506 0.
-136.492 -284.107 0.
-23.3263 -26.6103 0.
-20.8904 -27.2614 0.
-14.3661 -20.8103 0.
0.13187 0.132751 0.
-0.091353 -0.0462231 0.
0.272587 0.142381 0.
0.13883 0.0692455 0.
-29.5624 -15.0724 0.
0.0420942 0.113704 0.
-68.9357 -166.708 0.
-0.17437 -1.41014 0.
-934.307 -1337.14 0.
-8.61387e-06 -0.000601543 0.
-1261.5 -3179.36 0.
0.304801 0.815257 0.
0.120542 2.43914 0.
-0.73002 -5.08036 0.
-35.7023 -94.0578 0.
-1.29824 -3.49719 0.
-0.158918 -24.5338 0.
-0.179168 -20.2522 0.
2.87316 7.9576 0.
3.11134 8.54742 0.
1.59615 4.37319 0.
-4.53982 -12.5535 0.
-804.687 -2158.05 0.
-59.6014 -158.144 0.
-0.851854 -2.06162 0.
-1.86469 -40.3161 0.
21.5734 54.9761 0.
-13.1945 -31.5653 0.
23.1675 56.6575 0.
-209.053 -423.552 0.
-4.33206 -9.52878 0.
7.94697 16.185 0.
-317.889 -453.397 0.
-2.18356 -3.43519 0.
12.9107 23.5878 0.
42.1442 60.8743 0.
-13.5596 -19.1834 0.
45.1852 98.4501 0.
-1.40917 -3.03077 0.
31.4545 81.695 0.
39.6452 87.553 0.
-966.242 -2186.41 0.
-167.505 -389.19 0.
-405.659 -998.043 0.
14.1563 35.9114 0.
4.12373 10.6116 0.
-0.801706 -55.7958 0.
-9.10869 -22.9641 0.
6.37382 17.4209 0.
-340.389 -883.676 0.
11.9065 32.1795 0.
-29.1745 -76.9149 0.
-714.759 -1769.32 0.
18.8031 49.8826 0.
-250.135 -620.818 0.
-0.0450504 -37.9909 0.
-0.08838 -2.17201 0.
-902.875 -1745.21 0.
-22.2636 -48.8672 0.
-186.371 -479.835 0.
1.27821 3.25675 0.
1.2775 3.42004 0.
-0.0689244 -0.859993 0.
-0.0489093 -4.38411 0.
0.226924 0.62794 0.
0.366601 1.00687 0.
-4.95718 -7.32245 0.
-1.54436 -2.86781 0.
-1.93498 -4.72985 0.
-4.21495 -11.6204 0.
-1.66149 -4.55662 0.
-1.83257 -5.06506 0.
-13.6299 -35.0672 0.
-12.5395 -31.5353 0.
-13.223 -26.0554 0.
-4.93547 -6.17362 0.
-4.58213 -5.81035 0.
-12.154 -22.2003 0.
-12.0643 -23.5535 0.
-11.6207 -25.0889 0.
-125.282 -271.761 0.
-38.3997 -47.7571 0.
-29.8415 -40.8705 0.
-97.7958 -169.199 0.
-77.4344 -118.335 0.
-22.1278 -21.0061 0.
-83.6359 -72.6347 0.
-158.504 -242.708 0.
-25.3806 -24.9393 0.
-24.8513 -27.3247 0.
-63.7157 -131.125 0.
-19.0819 -23.9578 0.
-18.7453 -22.4076 0.
-22.0791 -31.3447 0.
-12.7433 -21.0801 0.
-13.467 -23.9656 0.
-24.8824 -53.1217 0.
-29.8801 -25.7835 0.
-30.4644 -30.898 0.
-13.3652 -18.9606 0.
0.177552 0.183514 0.
-0.0801679 -0.050429 0.
-0.0562033 -0.0290264 0.
-0.0584307 -0.0289369 0.
-7.65128 -3.66996 0.
-0.0094704 -0.146646 0.
-0.850105 -2.35124 0.
-0.21611 -3.2502 0.
2.49149 4.59079 0.
3.3454 9.24415 0.
-19.2769 -51.3479 0.
-0.671411 -18.1012 0.
-1240.05 -3002.85 0.
6.81461 18.4508 0.
-46.0926 -124.034 0.
-6.79028 -18.2867 0.
-392.433 -1020.76 0.
-2.06307 -5.61842 0.
-0.0838742 -37.436 0.
-7.97805 -21.9269 0.
-0.384901 -46.3578 0.
-0.0939777 -37.99 0.
-30.4858 -79.9135 0.
-40.5687 -107.239 0.
-49.603 -117.782 0.
3.29136 8.18447 0.
-9.36761 -23.6415 0.
-0.902812 -2.16171 0.
36.4645 89.3547 0.
-661.725 -1340.36 0.
13.2299 33.2625 0.
33.9565 68.6646 0.
-391.531 -564.409 0.
-4.18146 -58.8078 0.
-11.4025 -19.5672 0.
18.9179 23.5955 0.
-35.5345 -75.7927 0.
-11.3737 -88.9984 0.
-778.829 -1501.43 0.
-1.82471 -51.778 0.
-24.5595 -53.8221 0.
4.01817 9.25123 0.
-802.516 -1837.62 0.
14.1268 35.8864 0.
5.66035 15.1686 0.
-7.3456 -18.5541 0.
15.0939 39.8841 0.
3.80966 9.42538 0.
14.6459 39.9801 0.
4.41665 11.6657 0.
-0.703862 -54.5599 0.
-529.182 -1386.23 0.
11.5047 31.2407 0.
9.5605 25.5087 0.
-442.839 -1112.82 0.
0.00132786 4.64417 0.
-817.134 -1890.04 0.
-0.026759 -5.62952 0.
-0.540702 -6.96835 0.
0.0611126 2.10836 0.
-0.0187757 -0.485297 0.
-0.00119308 -0.0720754 0.
-736.555 -1917.07 0.
1.2715 3.30308 0.
-910.866 -2015.85 0.
-5.637 -12.625 0.
-1142.41 -2193.9 0.
-9.93862 -22.7955 0.
0.155265 0.422435 0.
-1372.9 -3632.93 0.
-10.2681 -27.7297 0.
0.0847173 0.0502264 0.
-1269.9 -2960 0.
-15.907 -38.8047 0.
-1017.85 -2367.04 0.
-305.874 -665.208 0.
-15.4648 -34.5751 0.
-1017.86 -2667.14 0.
-226.216 -572.385 0.
-10.7943 -18.4576 0.
-709.854 -1911.4 0.
-317.505 -853.354 0.
-21.9468 -32.8405 0.
-511.941 -1343.63 0.
-406.952 -1072.1 0.
-94.0298 -199.8 0.
-372.004 -930.369 0.
-601.497 -1553.35 0.
-25.202 -33.7945 0.
-311.236 -796.988 0.
-823.949 -2142.27 0.
-15.6303 -30.7864 0.
-193.033 -494.493 0.
-1082.23 -2897.46 0.
-24.7752 -33.1137 0.
-285.618 -537.497 0.
-1031.43 -2202.87 0.
-26.4456 -36.822 0.
-1324.2 -3230.28 0.
-31.4037 -55.748 0.
-19.6901 -36.3082 0.
-1113.57 -2353.04 0.
-25.734 -41.019 0.
-1703.29 -3606.5 0.
0.000105593 0.124012 0.
-0.0214357 -1.55732 0.
-1135.16 -2687.47 0.
1.75954 4.33074 0.
0.247544 1.60933 0.
3.23687 8.67708 0.
-0.0214936 -8.52896 0.
2.53178 6.6616 0.
-90.2539 -225.332 0.
-51.869 -143.587 0.
-573.676 -1557.04 0.
6.28611 16.9129 0.
12.0642 32.2087 0.
1.35542 3.70134 0.
5.03811 13.7164 0.
-0.00859535 -36.1805 0.
-765.378 -2054.76 0.
5.86905 16.0593 0.
-244.777 -629.091 0.
16.1798 43.5936 0.
-570.827 -1339.09 0.
10.6793 26.5188 0.
14.4248 36.1401 0.
5.75631 13.8122 0.
-193.907 -472.572 0.
-1121.04 -2277.03 0.
44.5386 111.166 0.
-179.857 -363.671 0.
-568.503 -827.11 0.
42.1477 98.5977 0.
-13.1126 -21.3526 0.
-0.727086 -4.68383 0.
-37.4423 -80.5204 0.
-17.6493 -122.599 0.
-648.523 -1253.11 0.
62.4571 153.046 0.
-12.431 -107.841 0.
-17.4544 -40.4524 0.
-5.85727 -81.4995 0.
14.2191 35.7692 0.
31.9886 85.0105 0.
14.6292 36.3227 0.
-7.78172 -20.301 0.
-689.782 -1681.5 0.
29.2753 78.2789 0.
21.6098 56.3963 0.
22.146 58.4663 0.
19.0248 50.4276 0.
21.4542 58.0127 0.
13.6614 36.6 0.
18.94 52.0741 0.
-0.000930461 -11.0345 0.
-187.627 -448.071 0.
-0.0797203 -27.6088 0.
1.6367 3.99208 0.
-0.0280469 -1.7012 0.
-567.281 -1257.87 0.
1.75686 4.69106 0.
-21.275 -57.5528 0.
-0.0155616 -3.76754 0.
0.158421 0.340211 0.
0.901452 2.10073 0.
0.775331 1.95415 0.
0.151858 0.403451 0.
-0.00219059 -0.760375 0.
-32.1615 -87.4346 0.
-14.4015 -33.6993 0.
0.0995521 0.0265018 0.
-11.444 -26.4682 0.
-4.22113 -3.04717 0.
-44.0932 -81.7133 0.
-11.9388 -22.4693 0.
-10.4006 -19.9098 0.
-176.797 -459.622 0.
-14.8998 -35.247 0.
-5.29699 -10.5542 0.
-259.121 -697.669 0.
-12.7608 -24.1928 0.
-12.0128 -25.5462 0.
-236.396 -600.749 0.
-154.038 -377.016 0.
-42.0263 -42.1377 0.
-69.9361 -120.483 0.
-265.258 -662.645 0.
-26.8703 -34.339 0.
-27.2003 -41.4599 0.
-186.341 -452.667 0.
-13.6768 -31.8668 0.
-16.6478 -39.9184 0.
-175.691 -464.683 0.
-34.71 -33.9088 0.
-38.6371 -43.1425 0.
-42.9966 -52.1212 0.
-15.3564 -14.6669 0.
-28.7429 -49.9063 0.
-0.0393714 -0.0146864 0.
-1.3988 -2.85373 0.
-5.97405 -14.1827 0.
-0.00978465 -0.124996 0.
-0.0741147 -0.295712 0.
0.720162 1.98088 0.
0.00200958 0.382828 0.
0.601202 1.55133 0.
-0.0894923 -8.95315 0.
-1010.14 -2532.31 0.
-1.40343 -3.87821 0.
1.24254 3.44156 0.
8.55329 22.9524 0.
-109.513 -279.754 0.
-43.4956 -120.293 0.
-1.1444 -3.14956 0.
11.5916 31.1459 0.
-9.92586 -26.2308 0.
16.2488 44.7511 0.
4.93733 13.2325 0.
-0.00306172 -38.2519 0.
-3.11874 -8.50406 0.
14.2919 38.8096 0.
-440.162 -1112.13 0.
3.05722 8.12796 0.
-2.98093 -72.1879 0.
-258.981 -679.53 0.
-341.758 -850.953 0.
-64.266 -154.654 0.
-545.288 -1323.76 0.
-456.545 -1032.46 0.
-679.735 -1550.61 0.
-8.10232 -16.449 0.
-280.814 -410.974 0.
-5.56236 -68.0684 0.
9.93506 27.378 0.
-368.974 -629.659 0.
56.6851 80.7175 0.
19.9345 40.1226 0.
-369.929 -718.135 0.
-6.02529 -14.8232 0.
5.58053 12.2279 0.
-8.56192 -107.028 0.
-4.80302 -11.385 0.
5.66184 14.1254 0.
-1.20054 -56.5983 0.
9.86938 24.1307 0.
-8.82562 -22.7546 0.
-2.78214 -76.2209 0.
-1.95632 -50.6687 0.
-299.95 -772.398 0.
-448.512 -1188.41 0.
-0.966364 -57.0534 0.
0.681104 1.83254 0.
-632.209 -1698.65 0.
16.5539 45.5518 0.
7.88257 21.4386 0.
-0.0456433 -32.8263 0.
0.0172731 6.25958 0.
2.20927 5.5195 0.
-585.794 -1388.5 0.
0.446001 0.992257 0.
1.92798 5.10157 0.
-56.0613 -154.938 0.
-0.00293802 -5.05291 0.
0.135265 0.302291 0.
0.367497 0.884009 0.
0.89914 2.31206 0.
-1131.44 -3090.87 0.
-0.00067099 -2.72194 0.
-761.693 -1604.46 0.
-12.2203 -32.7324 0.
-34.5923 -95.6745 0.
-1073.66 -2776.77 0.
-16.05 -37.0985 0.
-922.999 -2027.35 0.
-207.95 -437.893 0.
-6.68163 -10.7371 0.
-1026.04 -2769.18 0.
-86.1103 -226.744 0.
-7.2538 -20.0764 0.
-837.046 -2220.78 0.
-279.311 -757.166 0.
-9.01834 -18.8147 0.
-596.69 -1582.52 0.
-481.532 -1288.56 0.
-48.8036 -84.5722 0.
-375.971 -988.83 0.
-713.177 -1908.08 0.
-23.54 -29.9006 0.
-216.738 -553.309 0.
-917.521 -2433.48 0.
-7.2645 -15.0137 0.
-7.61782 -17.1805 0.
-937.739 -2442.84 0.
-40.371 -37.8738 0.
-1238.18 -2686.65 0.
0.00900854 0.0095099 0.
-22.4546 -51.1605 0.
-1107.08 -2820.29 0.
-16.1336 -33.4362 0.
-3.96078 -6.91943 0.
-982.029 -2205.52 0.
-267.405 -560.047 0.
0.60258 1.24865 0.
0.892641 2.44286 0.
-0.00370934 -2.43363 0.
-0.0366436 -2.0055 0.
-0.00196322 -9.93957 0.
-59.405 -158.453 0.
-0.0394082 -12.5395 0.
-840.802 -2078.71 0.
9.17342 24.8627 0.
8.72842 23.7456 0.
-104.589 -288.849 0.
-261.1 -695.218 0.
-3.25688 -8.73365 0.
-237.19 -619.501 0.
-0.00513035 -47.041 0.
-746.872 -1962.42 0.
1.82749 5.04983 0.
4.38779 11.9093 0.
-0.194737 -57.8642 0.
-740.018 -1842.58 0.
11.8493 31.1152 0.
7.47244 18.618 0.
10.1119 27.252 0.
-16.0097 -41.078 0.
-28.6548 -73.6034 0.
-10.5637 -25.5734 0.
-28.47 -64.5435 0.
-495.35 -1122.17 0.
29.9106 61.144 0.
-246.536 -362.747 0.
-1.96688 -4.54925 0.
-28.4351 -40.086 0.
-889.001 -1448.14 0.
18.0722 25.9446 0.
60.5193 117.095 0.
-174.704 -341.333 0.
58.6781 144.656 0.
-63.116 -139 0.
-35.0583 -82.3751 0.
-0.835889 -1.98262 0.
-18.9632 -46.9844 0.
7.48247 19.5844 0.
-910.377 -2196.37 0.
-17.828 -46.2546 0.
10.6882 27.2922 0.
4.86254 12.4522 0.
-759.337 -1930.45 0.
8.32598 22.253 0.
1.84924 4.94081 0.
-479.569 -1309.22 0.
-4.82623 -13.1851 0.
-4.00946 -11.0365 0.
-794.273 -2161.64 0.
-0.0351599 -28.4706 0.
-0.0948723 -24.3015 0.
10.3065 27.4102 0.
-46.477 -119.487 0.
2.59915 5.82615 0.
-0.0694807 -2.97981 0.
-175.638 -485.447 0.
-0.167304 -6.42371 0.
-800.854 -1982.94 0.
0.191009 0.489577 0.
1.57386 4.34747 0.
-43.3902 -119.274 0.
1.09133 2.95274 0.
-0.826649 -1.88218 0.
0.017138 0.0438841 0.
-15.39 -42.6139 0.
-16.4191 -45.4354 0.
-6.4938 -17.3554 0.
0.304044 0.075759 0.
-17.378 -32.9089 0.
-5.95531 -11.8836 0.
-156.266 -412.927 0.
-4.99712 -13.593 0.
-3.20167 -8.04426 0.
-70.4505 -188.042 0.
-11.1078 -24.9628 0.
-6.20706 -13.2267 0.
-68.1945 -154.205 0.
-28.341 -48.1454 0.
-21.3317 -28.3074 0.
-20.0088 -25.8413 0.
-71.4965 -169.462 0.
-20.5214 -28.4743 0.
-18.8463 -24.6522 0.
-49.7578 -109.388 0.
-12.4999 -26.1899 0.
-12.7725 -26.7843 0.
-17.283 -38.3382 0.
-28.7269 -34.3839 0.
-208.967 -439.822 0.
0.0186379 0.022931 0.
-1.65879 -2.83702 0.
-26.6394 -73.7849 0.
0.0258846 0.0671642 0.
-0.26454 -0.573562 0.
-0.679671 -1.27369 0.
0.879057 2.20171 0.
-714.593 -1657.09 0.
0.920527 2.5019 0.
-1018.99 -2231.23 0.
-0.169443 -7.75798 0.
-0.000228317 -0.129579 0.
-0.0562869 -7.70391 0.
-0.111915 -19.5647 0.
-0.0964912 -5.04086 0.
-76.7092 -187.099 0.
-0.166141 -33.2903 0.
-375.506 -1034.96 0.
-32.8713 -86.7436 0.
10.5899 29.1398 0.
-592.707 -1529.56 0.
-0.649942 -60.9958 0.
15.2954 41.8467 0.
-297.958 -797.565 0.
-0.663884 -62.6496 0.
20.7482 55.4417 0.
-68.1395 -174.233 0.
-54.3254 -137.201 0.
0.513183 1.26454 0.
13.9119 37.3302 0.
-10.899 -27.8435 0.
-3.60554 -104.588 0.
-30.575 -74.164 0.
10.1078 23.0275 0.
-327.436 -736.848 0.
-343.489 -629.982 0.
-165.357 -244.449 0.
8.92288 20.5681 0.
-24.6079 -33.6893 0.
-13.2429 -74.0325 0.
-35.4717 -51.4223 0.
16.6389 30.8134 0.
64.7637 127.715 0.
2.72604 6.7104 0.
-280.754 -623.672 0.
-275.056 -651.57 0.
-8.90911 -21.1639 0.
-402.093 -991.18 0.
-566.952 -1432.33 0.
-2.91941 -77.8036 0.
-2.18889 -81.9355 0.
6.87956 17.6065 0.
-9.8957 -25.5515 0.
6.45694 16.9259 0.
-39.5335 -105.682 0.
18.701 50.1308 0.
22.7533 62.5136 0.
-8.44735 -23.0706 0.
-3.45071 -9.49983 0.
-8.74445e-05 -54.6657 0.
-5.14191 -14.1991 0.
-286.025 -768.768 0.
-1.77018 -4.73905 0.
-7.47448 -19.7473 0.
0.0520238 2.88109 0.
-457.744 -1050.23 0.
-517.287 -1199.46 0.
2.89638 7.66743 0.
0.0015277 1.46933 0.
-0.0488659 -2.6267 0.
1.10118 3.0499 0.
-12.4438 -33.2426 0.
-0.0891242 -3.00188 0.
-0.033438 -0.0828881 0.
0.029396 0.0790659 0.
-9.20218 -25.4877 0.
-14.3689 -36.9446 0.
-4.79114 -8.10783 0.
0.12488 0.0355143 0.
-21.0077 -41.0326 0.
-11.2572 -20.3433 0.
-3.69403 -10.0306 0.
-0.838123 -1.80061 0.
-0.164498 -0.420939 0.
-20.1194 -38.5767 0.
-9.97612 -15.4195 0.
-6.14868 -8.30162 0.
-19.8 -25.8379 0.
-18.0015 -22.8742 0.
-12.2016 -21.7205 0.
-11.1549 -20.4838 0.
-10.9179 -20.3375 0.
-19.8502 -32.3561 0.
-17.7866 -27.2701 0.
-16.6924 -24.7131 0.
-20.7996 -35.5332 0.
-21.4924 -37.0707 0.
-24.6663 -45.0723 0.
-21.4576 -27.8951 0.
-29.9854 -55.6112 0.
-0.0537015 -0.0997473 0.
0.0241435 0.0411419 0.
-14.2826 -35.4116 0.
-0.00145098 -0.167123 0.
-0.0213546 -0.0517298 0.
-0.107107 -0.229306 0.
0.00766439 0.489496 0.
0.249119 0.621308 0.
0.000195218 0.249641 0.
-0.339117 -5.60354 0.
-0.0280066 -3.94172 0.
-875.994 -2230.27 0.
1.17792 3.164 0.
9.25849 25.1039 0.
7.66268 20.5119 0.
-771.288 -1915.96 0.
-2.53723 -6.94472 0.
-0.24594 -50.3082 0.
-85.4823 -223.281 0.
-0.205198 -37.5682 0.
-0.270941 -50.2491 0.
-5.30956 -14.3779 0.
11.9921 32.8091 0.
-197.65 -539.265 0.
-107.832 -289.999 0.
-15.879 -42.4815 0.
-14.5718 -37.4173 0.
-588.775 -1494.47 0.
-338.86 -827.913 0.
-10.5278 -26.6194 0.
35.8761 91.4429 0.
3.93982 10.0635 0.
-33.5388 -81.5744 0.
-72.6345 -166.65 0.
-180.289 -403.382 0.
-955.44 -1748.11 0.
-209.977 -311.418 0.
-8.83562 -102.501 0.
-8.92136 -11.8955 0.
27.5627 49.913 0.
-669.754 -983.281 0.
53.0709 93.8689 0.
-7.06842 -14.114 0.
13.6929 31.5549 0.
-13.8556 -139.281 0.
-298.868 -714.118 0.
9.02065 21.4787 0.
-762.26 -1874.83 0.
21.6912 56.4952 0.
21.9493 56.0538 0.
-5.54563 -14.4884 0.
-263.059 -675.056 0.
-28.1646 -73.2794 0.
1.31164 3.46311 0.
-176.782 -472.755 0.
-54.8634 -147.517 0.
16.6388 45.6579 0.
8.12876 22.194 0.
-410.975 -1137.45 0.
7.86314 21.7795 0.
1.77324 4.89557 0.
-6.22436 -17.2366 0.
-0.55349 -46.3557 0.
-311.433 -830.255 0.
13.2123 36.5084 0.
-15.1747 -36.6014 0.
0.0220203 2.1014 0.
5.13241 13.6826 0.
-0.00878161 -11.8552 0.
-0.0144843 -1.33267 0.
0.517175 1.34808 0.
-735.942 -2011.59 0.
0.19844 0.549192 0.
-759.239 -1548.88 0.
-29.7578 -70.2591 0.
-0.360315 -0.950723 0.
-934.207 -2547.88 0.
-8.66273 -23.7385 0.
-8.31671 -22.5197 0.
-1219.05 -2680.36 0.
-18.104 -43.1087 0.
-840.26 -2206.87 0.
-17.049 -43.3143 0.
-13.3042 -33.0972 0.
-882.07 -2353.07 0.
-113.261 -309.918 0.
-12.2847 -31.4909 0.
-610.553 -1631.02 0.
-434.818 -1189.76 0.
-26.4875 -73.3639 0.
-235.296 -651.617 0.
-768.486 -2116.78 0.
-26.7053 -61.868 0.
-40.2057 -99.867 0.
-929.306 -2476.47 0.
-21.8376 -40.5357 0.
-18.5263 -32.9659 0.
-1049.34 -2271.9 0.
-12.6253 -29.5467 0.
-1072.89 -2549.28 0.
-5.71188 -15.5906 0.
-7.88964 -21.8095 0.
-1001.34 -2499.32 0.
-1.68152 -4.31945 0.
-30.6908 -74.9138 0.
-1045.75 -2149.33 0.
0.874607 2.29296 0.
-721.485 -1792.44 0.
-2.13134e-05 -9.19373 0.
-0.110693 -3.27185 0.
7.60429 20.9727 0.
0.824278 2.16403 0.
11.7839 31.7324 0.
-754.022 -1954.09 0.
-0.291384 -23.3235 0.
4.41361 12.2164 0.
4.41532 12.0828 0.
11.0483 30.0449 0.
-561.93 -1452.29 0.
-3.61437 -9.70428 0.
-3.80929 -10.4366 0.
-208.952 -567.119 0.
5.05732 13.837 0.
-12.0692 -32.9692 0.
-533.263 -1429.4 0.
10.3652 27.7664 0.
-3.40993 -8.79276 0.
2.20155 5.79452 0.
-677.423 -1645.1 0.
-8.60109 -21.7945 0.
-33.053 -84.2099 0.
18.9567 48.3671 0.
-4.89452 -11.9474 0.
-60.041 -138.973 0.
-17.5223 -39.0131 0.
12.1387 25.6836 0.
-148.487 -220.47 0.
13.0271 27.2312 0.
-26.375 -34.2775 0.
10.9881 18.363 0.
15.2427 25.4999 0.
3.86061 6.92409 0.
31.8883 71.9011 0.
19.8532 45.5534 0.
32.36 85.267 0.
-191.899 -462.691 0.
-848.351 -2025.76 0.
-191.89 -470.002 0.
13.8496 36.2117 0.
34.1633 87.6172 0.
11.286 29.5767 0.
-616.15 -1586.66 0.
-201.551 -538.439 0.
13.6212 36.2008 0.
-284.107 -760.17 0.
23.1437 62.8825 0.
-9.39163 -25.7413 0.
9.75061 26.614 0.
13.0812 36.059 0.
-0.000335813 -50.0798 0.
-3.68335 -10.1659 0.
3.00274 8.31115 0.
14.9753 40.5269 0.
-5.31234 -14.3288 0.
0.486846 1.34619 0.
-368.168 -917.085 0.
7.59574 20.7569 0.
-0.0629531 -4.00382 0.
-0.443451 -19.0504 0.
-718.491 -1770.88 0.
-0.115899 -8.46044 0.
-0.101399 -0.280412 0.
-0.0271615 -3.58696 0.
-0.816782 -1.9848 0.
-0.0202167 -0.714589 0.
0.615429 1.68533 0.
-31.4131 -83.3238 0.
0.184795 0.510586 0.
0.0699829 0.189122 0.
-17.5839 -45.3063 0.
-11.7787 -31.3406 0.
-23.166 -60.1913 0.
-14.6684 -36.4603 0.
-9.62104 -22.489 0.
-21.161 -55.3666 0.
-13.1085 -35.2054 0.
-5.47184 -15.1479 0.
-15.523 -36.5548 0.
-12.4406 -28.5913 0.
-18.9245 -50.7924 0.
-15.6356 -41.5298 0.
-18.4283 -48.8475 0.
-25.8421 -68.5692 0.
-18.6602 -50.1088 0.
-19.4971 -51.971 0.
-24.0125 -45.7121 0.
-24.2772 -48.7453 0.
-33.7764 -56.656 0.
-7.67017 -21.2407 0.
-27.9359 -77.1311 0.
-3.89882 -10.502 0.
-6.2865 -17.2814 0.
-8.57792 -23.7468 0.
0.106216 0.285987 0.
-17.1228 -44.4925 0.
-0.049827 -5.13549 0.
1.04251 2.85316 0.
-0.79399 -2.02927 0.
5.28237 14.5795 0.
-661.323 -1721.92 0.
7.42554 20.55 0.
5.2687 14.0703 0.
12.0383 32.4626 0.
-0.0527411 -21.6312 0.
12.4149 33.4129 0.
-1.66065 -4.59545 0.
-580.13 -1585.68 0.
-0.599374 -53.4412 0.
-3.38656 -9.23643 0.
-196.542 -528.837 0.
19.3755 53.1705 0.
-189.074 -522.276 0.
21.9173 59.9781 0.
7.00787 19.1671 0.
16.3802 44.184 0.
-23.6947 -63.5582 0.
16.1349 41.7814 0.
-9.03039 -23.8338 0.
9.30919 23.7711 0.
-28.5738 -72.5651 0.
-204.2 -520.975 0.
-18.9273 -47.3847 0.
-26.9771 -66.1279 0.
-224.877 -575.605 0.
-31.2641 -69.3092 0.
65.3088 157.536 0.
-172.998 -359.394 0.
-6.53224 -12.5369 0.
-0.512232 -0.64888 0.
-22.4847 -60.7111 0.
24.789 47.9618 0.
-37.1328 -68.4656 0.
-10.5232 -100.976 0.
-15.8871 -36.2655 0.
6.26637 16.5016 0.
11.6797 28.4261 0.
48.2916 121.959 0.
-108.264 -265.879 0.
-8.5427 -22.4159 0.
26.1453 67.3352 0.
2.24237 5.89346 0.
-76.972 -200.286 0.
-158.12 -422.685 0.
8.41416 22.4951 0.
-220.893 -603.687 0.
7.31497 19.8794 0.
-140.243 -383.969 0.
-0.0629308 -64.6797 0.
-37.4175 -103.104 0.
18.632 51.6052 0.
0.963186 2.66762 0.
-1.28767 -3.56133 0.
-268.538 -729.989 0.
-111.124 -301.991 0.
-8.52717 -23.5877 0.
-0.0816654 -40.9249 0.
-0.190383 -39.6947 0.
-713.524 -1649.43 0.
7.93069 20.897 0.
0.460817 1.16502 0.
-0.0191853 -2.47715 0.
1.19682 3.31026 0.
-0.0124545 -0.707051 0.
0.138681 1.89638 0.
0.375208 1.00925 0.
-11.9807 -32.624 0.
-473.944 -1296.82 0.
-26.842 -74.2936 0.
-5.32645 -14.1589 0.
-750.813 -2020.21 0.
-10.5463 -29.1467 0.
-844.334 -1926.15 0.
-16.04 -42.6985 0.
-16.8555 -44.9245 0.
-808.266 -2161.43 0.
-13.7429 -38.0166 0.
-14.7149 -40.6071 0.
-543.678 -1488.27 0.
-360.225 -997.411 0.
-44.2595 -116.751 0.
-140.04 -381.876 0.
-722.448 -1986.13 0.
-20.2251 -50.7452 0.
-14.5138 -39.5352 0.
-884.231 -2308.56 0.
-28.4393 -58.0623 0.
-24.865 -49.1419 0.
-877.327 -1739.35 0.
-2.51576 -6.88071 0.
-808.911 -2155.37 0.
-0.366586 -0.992443 0.
-1.56211 -4.13078 0.
-573.354 -1505.84 0.
0.216098 0.59437 0.
-5.47966 -14.7247 0.
2.91755 7.7505 0.
-0.000326536 -1.15699 0.
8.05778 21.3502 0.
3.05118 8.4484 0.
10.7697 29.4812 0.
-41.7938 -114.422 0.
-0.0560065 -27.2926 0.
5.5733 15.0313 0.
9.44871 26.0564 0.
-336.857 -911.732 0.
8.07373 22.3335 0.
8.57949 23.362 0.
4.03255 10.8528 0.
-0.308989 -51.4371 0.
9.09443 25.161 0.
15.0016 41.2234 0.
-21.1149 -58.3128 0.
-241.599 -662.345 0.
-81.1625 -222.251 0.
-60.314 -162.872 0.
-115.651 -311.722 0.
29.6765 77.1706 0.
24.0173 63.5528 0.
23.6821 60.6111 0.
-348.485 -886.999 0.
-483.13 -1236.39 0.
-0.222636 -0.556916 0.
-58.38 -143.785 0.
-95.636 -244.333 0.
-479.816 -1059.35 0.
11.0671 26.4212 0.
-377.837 -802.532 0.
-17.6319 -79.1693 0.
-5.61766 -80.0795 0.
-17.8454 -47.4547 0.
1.92337 3.59341 0.
47.948 90.8609 0.
2.12136 4.67244 0.
-0.436931 -0.991288 0.
-109.157 -278.526 0.
24.8983 63.0331 0.
33.3229 84.4181 0.
-68.9686 -169.883 0.
19.5765 51.5383 0.
25.4562 65.8337 0.
-112.392 -296.207 0.
-143.426 -374.446 0.
-148.739 -397.876 0.
-370.892 -997.291 0.
-5.98852 -16.377 0.
-10.3819 -28.22 0.
-481.455 -1316.92 0.
4.28797 11.8413 0.
-185.341 -510.504 0.
-0.0135687 -53.3979 0.
-70.2841 -194.654 0.
0.46956 1.2973 0.
-3.12105 -8.6421 0.
-21.3307 -57.803 0.
-376.972 -1043.03 0.
12.0189 33.1367 0.
-3.93031 -10.4188 0.
-0.0269272 -6.20356 0.
-0.658285 -31.0254 0.
0.025464 0.0656414 0.
6.0679 16.6046 0.
-472.314 -1002.02 0.
0.0559447 0.141923 0.
-0.000222255 -3.35712 0.
-881.322 -2325.04 0.
0.928337 2.55833 0.
-7.55167 -20.9162 0.
0.189376 0.516414 0.
0.386167 1.00611 0.
-15.3674 -42.1588 0.
-5.61143 -15.4583 0.
-16.4132 -45.4591 0.
-10.7131 -29.5856 0.
-8.26704 -22.6414 0.
-9.90754 -26.9513 0.
-5.8932 -16.1823 0.
-3.26514 -9.02561 0.
-12.7964 -35.4136 0.
-9.8708 -27.1602 0.
-26.8783 -69.3305 0.
-12.6286 -31.9356 0.
-8.83368 -21.8256 0.
-12.4171 -34.2522 0.
-8.79821 -24.1964 0.
-10.3201 -28.5804 0.
-18.4019 -44.6687 0.
-14.3875 -31.5365 0.
-20.7517 -42.2101 0.
-0.00807559 -0.369847 0.
-0.872898 -2.41192 0.
-0.00746442 -0.755502 0.
-0.00398499 -0.728625 0.
-0.135998 -0.33765 0.
-0.0697543 -1.26572 0.
-788.43 -1563.93 0.
-0.00210111 -12.0272 0.
-626.989 -1539.48 0.
0.0479347 2.32445 0.
6.74663 18.6861 0.
-0.0659274 -12.8894 0.
-7.85429 -21.5528 0.
-2.2201 -5.94337 0.
-0.416683 -35.8904 0.
15.97 44.0697 0.
-0.0392153 -49.4715 0.
-0.0295067 -39.0612 0.
12.6604 34.5474 0.
-307.64 -850.479 0.
-0.345133 -61.0675 0.
-7.84278 -21.7057 0.
-248.571 -683.815 0.
-43.4461 -119.969 0.
2.75588 7.56393 0.
-178.89 -490.406 0.
-58.9982 -159.51 0.
16.3581 44.1665 0.
-119.398 -311.729 0.
25.5667 67.8236 0.
-13.58 -34.8386 0.
1.45852 3.8313 0.
-400.586 -1029.14 0.
-24.7728 -61.9129 0.
-561.758 -1391.32 0.
-53.0907 -135.346 0.
-85.1411 -187.306 0.
19.5184 46.0114 0.
-142.663 -309.738 0.
47.2488 85.293 0.
-9.92204 -68.873 0.
50.0447 77.3682 0.
52.2604 94.1937 0.
0.599903 1.17038 0.
-74.9974 -162.753 0.
-20.5257 -46.2227 0.
-146.735 -372.39 0.
-53.8298 -136.06 0.
-18.9282 -48.0589 0.
-0.0937912 -0.231841 0.
-17.4099 -45.9774 0.
-164.298 -442.372 0.
-354.115 -956.061 0.
8.19778 21.8989 0.
-141.327 -378.307 0.
-26.3977 -70.6269 0.
-25.6085 -70.072 0.
12.4274 34.0915 0.
-8.42806 -23.1249 0.
11.5747 31.9414 0.
-370.893 -1021.24 0.
0.744445 2.06034 0.
-116.872 -323.673 0.
-322.21 -889.086 0.
21.2768 58.9319 0.
-15.8147 -42.7221 0.
4.18337 11.4872 0.
16.7163 46.1099 0.
-495.72 -1328.64 0.
2.69256 7.41943 0.
-0.425115 -18.6314 0.
-0.398738 -28.1215 0.
-634.331 -1576.89 0.
-0.0282697 -2.95513 0.
-0.0802684 -2.43346 0.
-0.00131516 -10.839 0.
-0.00782625 -4.15768 0.
-0.0476622 -3.88938 0.
-0.000544095 -0.514795 0.
-0.00368405 -0.368242 0.
-0.0323913 -1.07882 0.
-6.57764 -18.1067 0.
-4.42274 -12.1852 0.
-18.9766 -51.148 0.
-12.687 -34.1054 0.
-9.15737 -24.7064 0.
-5.87634 -15.8243 0.
-1.73063 -4.6969 0.
0.0312127 0.0820564 0.
-10.222 -28.2991 0.
-8.82079 -24.3217 0.
-20.0162 -51.2804 0.
-13.6779 -35.7579 0.
-9.37049 -24.674 0.
-8.17286 -21.1308 0.
-7.45245 -19.8251 0.
-10.0405 -27.5508 0.
-12.9745 -33.6224 0.
-7.77847 -19.3291 0.
-10.8739 -25.5859 0.
-0.00486937 -0.130215 0.
-0.00373874 -0.427317 0.
-0.00245207 -0.240416 0.
-0.000481447 -0.352288 0.
-0.0184647 -0.713838 0.
0.0121843 0.353002 0.
0.85962 1.98009 0.
-0.0395294 -15.4226 0.
0.579708 1.51129 0.
7.40033 20.4227 0.
-461.465 -1213.15 0.
-0.112757 -27.0957 0.
-415.249 -1140.01 0.
-5.28318 -14.0914 0.
-0.0180691 -29.0367 0.
8.60295 23.7469 0.
-10.5371 -29.1382 0.
12.8007 35.3696 0.
-0.29581 -53.6963 0.
-93.7324 -259.156 0.
-124.499 -340.459 0.
-13.3583 -36.9805 0.
-113.255 -313.186 0.
-36.7536 -101.475 0.
-26.2725 -72.1829 0.
-159.239 -433.765 0.
-113.31 -306.709 0.
-6.48541 -17.5383 0.
-9.53456 -25.9191 0.
-18 -47.8661 0.
-2.91065 -7.8887 0.
-2.2155 -5.83869 0.
-60.6727 -149.664 0.
10.8242 27.0168 0.
-36.0736 -89.81 0.
-89.2676 -227.014 0.
-13.0439 -28.6152 0.
-16.3686 -37.9403 0.
-265.337 -590.401 0.
-18.0052 -68.2982 0.
34.4206 63.1687 0.
32.3001 50.0741 0.
-15.6683 -27.2108 0.
22.6371 45.5502 0.
2.36712 5.04863 0.
-4.15139 -92.8829 0.
-8.33655 -21.8282 0.
29.4968 77.7514 0.
14.2556 36.2537 0.
-55.9265 -147.05 0.
32.6385 86.4321 0.
-190.773 -513.911 0.
-8.76978 -23.6871 0.
-10.8836 -29.0792 0.
-181.885 -487.192 0.
27.9072 76.0853 0.
-43.0148 -117.764 0.
-86.2469 -236.781 0.
-7.09329 -19.4759 0.
-0.00508998 -69.0139 0.
-0.0128476 -68.2261 0.
9.43897 26.1185 0.
-176.036 -487.51 0.
-6.26781 -17.3561 0.
17.5534 48.5741 0.
-328.714 -884.818 0.
8.14381 22.3129 0.
1.41447 3.91778 0.
5.14042 14.2139 0.
2.62392 7.24707 0.
-339.409 -901.628 0.
1.17412 3.17226 0.
-18.129 -46.9064 0.
-0.0198105 -8.90489 0.
-0.379059 -12.546 0.
0.00127711 1.73231 0.
-6.8453e-05 -2.15737 0.
0.549763 1.50789 0.
-552.096 -1452.44 0.
-21.6623 -55.9306 0.
-5.23797 -14.124 0.
-585.037 -1583.02 0.
0.0188455 0.0519905 0.
-648.344 -1510.2 0.
-16.2642 -44.6743 0.
-14.431 -39.3877 0.
-690.425 -1815.62 0.
-15.3647 -42.3642 0.
-14.1203 -38.7678 0.
-438.084 -1208.3 0.
-325.52 -901.297 0.
-85.1781 -235.779 0.
-59.5789 -161.743 0.
-611.808 -1619.95 0.
-38.0622 -99.669 0.
-21.2371 -57.2128 0.
-761.348 -2016.54 0.
-7.89914 -21.4717 0.
-17.1667 -41.5549 0.
-703.443 -1299.43 0.
0.000248 0.0734405 0.
-661.424 -1790.8 0.
-8.795e-05 -1.44781 0.
-3.73942 -9.45547 0.
-639.601 -1453.22 0.
-119.316 -220.828 0.
0.758255 1.81844 0.
-0.00255948 -0.588815 0.
6.05849 16.2356 0.
-0.0181657 -23.7007 0.
7.78163 20.6668 0.
3.33743 9.18882 0.
-2.19973 -6.03874 0.
5.07863 13.4881 0.
-0.248352 -51.2379 0.
-10.7906 -29.7879 0.
-24.2674 -67.1256 0.
-131.927 -364.86 0.
-11.9021 -32.585 0.
-17.1121 -47.3183 0.
-11.2557 -31.1762 0.
-188.771 -522.698 0.
6.33485 17.5158 0.
-137.615 -379.913 0.
3.13046 8.62883 0.
-47.481 -129.194 0.
-322.395 -877.118 0.
5.83199 15.7962 0.
-0.666653 -85.2272 0.
-247.778 -660.408 0.
19.9108 53.9186 0.
-4.41572 -11.6692 0.
35.6795 93.128 0.
9.04516 22.5407 0.
-2.82037 -7.19134 0.
-95.8164 -242.989 0.
15.5415 39.5088 0.
-23.0015 -52.1564 0.
54.028 112.239 0.
16.951 28.7332 0.
-1051.69 -1703.78 0.
-31.7468 -49.3259 0.
-27.8448 -92.1536 0.
2.60103 5.40518 0.
-1.04114 -2.40398 0.
-16.9827 -42.2834 0.
-11.0816 -28.9161 0.
-2.48174 -108.753 0.
24.8645 63.3096 0.
-44.1761 -116.301 0.
-141.399 -375.463 0.
7.14479 19.3244 0.
27.1989 73.4963 0.
-14.1171 -37.7261 0.
17.6746 47.1799 0.
-5.30088 -14.4663 0.
-41.5499 -113.812 0.
-9.32728 -25.7216 0.
-7.11342 -19.544 0.
-129.471 -358.561 0.
-4.2764 -11.8402 0.
-2.33599 -6.46265 0.
-0.0588843 -63.3169 0.
-4.19204 -11.6088 0.
6.32348 17.506 0.
4.42406 12.2529 0.
19.8572 54.2704 0.
-177.497 -491.581 0.
-0.0217924 -45.0226 0.
-0.0310839 -41.722 0.
-6.12664 -16.9008 0.
15.008 40.7945 0.
-23.1027 -61.0731 0.
-0.00300132 -7.17109 0.
-471.149 -1209.33 0.
6.05013 16.0505 0.
-402.618 -1048.41 0.
3.64315 10.0907 0.
-17.2539 -42.7645 0.
0.328833 0.856227 0.
0.285992 0.775197 0.
-4.15324 -11.4572 0.
0.163969 0.442125 0.
-24.048 -66.1617 0.
-20.5093 -56.4693 0.
-18.2621 -50.2548 0.
-8.87937 -24.3017 0.
-9.47727 -25.8473 0.
-12.2513 -33.5095 0.
-16.204 -44.5793 0.
-10.0875 -27.7966 0.
-31.3315 -84.612 0.
-9.68234 -26.6588 0.
-7.04872 -19.2112 0.
-29.8877 -78.2153 0.
-21.0719 -57.0926 0.
-26.119 -70.5963 0.
0.00187253 0.0051733 0.
-0.0795265 -0.216403 0.
-9.0035 -22.2499 0.
-0.00346447 -0.844161 0.
0.159745 0.442449 0.
-0.000639239 -0.466531 0.
-0.0402976 -2.48094 0.
0.000309233 3.09159 0.
3.84055 8.67221 0.
-415.558 -775.045 0.
-245.753 -649.475 0.
-0.213264 -19.3231 0.
2.35238 6.50779 0.
-0.012571 -22.8979 0.
3.60656 9.95561 0.
17.896 48.9612 0.
-502.836 -1329.59 0.
-57.6878 -157.896 0.
15.2186 41.7196 0.
-493.874 -1366.48 0.
-97.4474 -269.54 0.
18.3223 50.7187 0.
-12.8808 -35.6222 0.
21.2451 58.8429 0.
-421.143 -1166.32 0.
-61.4008 -170.069 0.
2.41857 6.65612 0.
24.8535 68.5151 0.
-46.9113 -127.483 0.
9.56945 26.0921 0.
-103.574 -280.97 0.
-1.47559 -4.01205 0.
-349.385 -944.173 0.
-0.859683 -86.9084 0.
-314.515 -833.097 0.
30.3317 79.2511 0.
-241.36 -600.398 0.
9.29577 23.6676 0.
-192.45 -486.588 0.
-5.69418 -14.4041 0.
-179.84 -397.048 0.
18.193 37.2585 0.
-23.1587 -100.323 0.
-22.2034 -43.1099 0.
-565.756 -879.37 0.
-66.6675 -107.458 0.
-39.7094 -88.3787 0.
-3.82533 -97.518 0.
12.2582 30.3455 0.
-3.15819 -114.552 0.
12.1327 31.7361 0.
-20.2336 -51.5518 0.
14.7108 38.7834 0.
-140.758 -374.711 0.
-26.1096 -70.7064 0.
26.9016 72.7275 0.
-69.0623 -184.592 0.
25.6598 68.5103 0.
-39.3088 -107.378 0.
-286.685 -785.707 0.
20.8758 57.6104 0.
7.36244 20.2408 0.
9.85426 27.2846 0.
9.07329 25.1229 0.
-6.08777 -16.8526 0.
7.97058 22.0442 0.
-6.50726 -18.021 0.
-203.057 -561.34 0.
-2.84971e-06 -57.127 0.
13.5318 37.2209 0.
1.77887 4.89372 0.
10.6092 29.3646 0.
-4.1977 -11.6127 0.
-9.54697 -26.3104 0.
9.89934 27.0245 0.
7.57791 20.9221 0.
8.34736 22.9734 0.
-0.0692559 -7.67927 0.
3.4029 9.11644 0.
-0.169935 -12.6483 0.
4.41345 12.179 0.
0.407919 7.49287 0.
0.542883 1.42675 0.
0.143628 0.390617 0.
-319.89 -870.437 0.
0.169323 0.431503 0.
-436.438 -1110.92 0.
-13.1421 -35.4579 0.
-5.03054 -12.7863 0.
-522.531 -1422.85 0.
-11.6242 -32.1271 0.
-10.4635 -28.9573 0.
-279.749 -774.768 0.
-324.515 -898.416 0.
-70.9009 -195.959 0.
-40.3362 -106.562 0.
-466.981 -1248.86 0.
-82.0173 -221.076 0.
-25.7947 -62.0994 0.
-357.582 -732.946 0.
-0.000264258 -0.252852 0.
-593.615 -1624.68 0.
-0.0497137 -0.923166 0.
-15.7185 -43.466 0.
-2.25257e-05 -0.575335 0.
-0.0061088 -2.1472 0.
0.00361072 0.496867 0.
-0.00123047 -5.64857 0.
5.17623 12.759 0.
-0.0172043 -3.47648 0.
-23.8097 -64.5798 0.
8.50702 23.4501 0.
7.23845 20.0225 0.
9.73605 26.9381 0.
-214.56 -590.222 0.
-3.11478 -8.48864 0.
6.67231 18.4279 0.
-289.262 -791.508 0.
-7.88319 -21.6358 0.
-2.05827 -5.69766 0.
-107.123 -296.343 0.
15.4341 42.727 0.
-118.968 -329.04 0.
-19.3155 -53.4108 0.
-31.1568 -86.2873 0.
-52.1081 -144.33 0.
3.33144 9.16983 0.
-57.9605 -158.001 0.
-67.7957 -183.989 0.
-9.56362 -26.1106 0.
-275.301 -747.982 0.
-18.4585 -50.1914 0.
-17.7834 -48.0139 0.
14.6143 39.5031 0.
-351.703 -933.449 0.
25.0426 65.4921 0.
7.58405 18.8246 0.
-13.8402 -35.1757 0.
-189.308 -477.026 0.
-19.735 -49.6458 0.
-12.4256 -30.6511 0.
-1448.74 -2911.39 0.
55.4451 107.065 0.
1.63222 3.04601 0.
12.1754 25.0464 0.
75.4325 142.509 0.
-302.371 -656.368 0.
25.6239 64.4256 0.
-104.278 -256.537 0.
-1.63328 -102.782 0.
-1.30256 -3.39162 0.
-16.9463 -45.088 0.
-94.9262 -250.566 0.
-61.165 -166.024 0.
-193.443 -524.536 0.
-11.1296 -30.4988 0.
-311.051 -849.108 0.
-14.3297 -38.2684 0.
-116.555 -318.686 0.
-59.4613 -162.147 0.
20.9541 57.866 0.
-76.8416 -211.388 0.
6.4993 17.9965 0.
-16.2659 -45.0405 0.
21.4804 59.497 0.
18.3145 50.6822 0.
-22.1862 -61.4441 0.
-57.8818 -159.957 0.
10.2468 28.3801 0.
-188.996 -520.624 0.
-1.85573 -5.11399 0.
10.2806 28.4645 0.
-39.8727 -109.491 0.
2.6278 7.23663 0.
4.65118 12.7357 0.
-0.25433 -43.1065 0.
-0.555902 -1.53259 0.
-0.0349207 -3.93045 0.
-0.157235 -14.0272 0.
4.26214 11.7379 0.
-131.458 -360.792 0.
4.49206 12.3363 0.
-478.167 -1102.69 0.
1.73239 4.71427 0.
-20.2139 -53.3473 0.
-0.0374077 -0.613653 0.
-0.0300538 -0.216761 0.
-3.38566 -8.43868 0.
-0.419813 -1.00127 0.
-10.3246 -28.1753 0.
-6.53607 -17.6402 0.
-13.3743 -36.9762 0.
-11.7274 -30.7489 0.
-9.08299 -23.3073 0.
-21.6941 -59.3023 0.
-1.46632 -4.05691 0.
0.0361546 0.0999781 0.
-22.1438 -56.5183 0.
-10.4167 -25.7836 0.
-16.3651 -40.2077 0.
0.104487 0.274572 0.
-9.22141 -24.7235 0.
0.684507 1.64151 0.
-0.000392194 -0.143569 0.
-349.337 -919.496 0.
1.84573 4.98545 0.
-455.77 -1045.56 0.
5.70981 15.2016 0.
-0.452664 -13.2402 0.
-0.120213 -13.8732 0.
-225.543 -618.558 0.
14.5562 40.122 0.
-114.916 -317.757 0.
-0.94475 -2.61488 0.
-0.32315 -0.890209 0.
-74.138 -203.243 0.
14.0259 38.7238 0.
7.43792 20.5974 0.
-49.9605 -138.38 0.
-0.876925 -2.42769 0.
-102.617 -283.911 0.
22.3299 61.8211 0.
5.28974 14.6305 0.
-45.927 -127.035 0.
-22.1619 -61.3785 0.
-67.9846 -188.305 0.
-23.4393 -64.5267 0.
-7.99216 -21.8087 0.
-86.0209 -233.114 0.
-7.68237 -21.0012 0.
11.1995 30.4228 0.
-21.768 -59.195 0.
1.51564 4.15836 0.
-98.1919 -265.163 0.
9.14222 24.9961 0.
-98.0046 -256.552 0.
17.5713 46.7086 0.
-317.735 -806.218 0.
-10.367 -27.1278 0.
-394.408 -986.213 0.
-20.8119 -50.9829 0.
27.3782 57.1488 0.
9.75649 22.3666 0.
22.9487 54.4571 0.
-13.179 -26.2577 0.
-14.0956 -121.401 0.
42.7993 98.3497 0.
-2.12659 -5.297 0.
-8.66322 -21.1842 0.
31.1004 82.5753 0.
-297.379 -770.135 0.
-8.77458 -23.2381 0.
-201.849 -533.508 0.
-17.4746 -47.0136 0.
-31.1086 -84.4485 0.
18.5954 51.0047 0.
-52.0408 -142.249 0.
4.54485 12.4217 0.
-297.856 -815.111 0.
-97.2332 -265.434 0.
-58.6367 -162.027 0.
-100.261 -276.329 0.
10.3582 28.6833 0.
-1.09635 -3.03597 0.
-2.9845 -8.26646 0.
-5.07928 -14.0622 0.
22.4952 62.303 0.
-5.95983 -16.4639 0.
-128.772 -356.589 0.
-8.43739 -23.2391 0.
-12.8875 -35.5654 0.
-6.17303 -17.0396 0.
-31.7881 -87.3646 0.
-87.9896 -242.169 0.
10.7501 29.1093 0.
-12.5748 -34.3355 0.
-231.203 -637.662 0.
12.4287 33.8182 0.
-0.0741997 -7.73085 0.
-21.6037 -57.8511 0.
-14.5958 -40.4032 0.
-0.228299 -19.374 0.
-0.31686 -6.91605 0.
2.23665 6.18544 0.
-15.2738 -38.8607 0.
-0.160456 -1.95514 0.
0.0928978 0.582273 0.
-0.761688 -1.88664 0.
-0.302569 -0.748518 0.
-10.4227 -28.3503 0.
-11.3642 -31.1404 0.
-18.6369 -51.62 0.
-9.7914 -24.64 0.
-7.19411 -17.4453 0.
-0.000349315 -0.120921 0.
-0.000488451 -0.00134702 0.
0.00129996 0.00359186 0.
-14.32 -37.2831 0.
-7.85308 -19.6235 0.
-11.1036 -27.6184 0.
-0.232781 -0.555492 0.
-12.6812 -31.6999 0.
-0.129818 -1.79943 0.
0.527479 1.42548 0.
0.530002 1.46444 0.
-0.0113075 -6.67463 0.
2.40817 6.02428 0.
-0.0513991 -6.37531 0.
-244.658 -612.453 0.
13.2225 35.8387 0.
3.86844 10.7066 0.
9.24313 25.4722 0.
-0.0507456 -47.89 0.
-4.06373 -11.2512 0.
4.13187 11.3987 0.
-206.621 -571.813 0.
-9.66399 -26.6709 0.
2.96911 8.22204 0.
-130.446 -361.305 0.
-13.3074 -36.8434 0.
-8.61563 -23.8575 0.
5.15212 14.2598 0.
23.9032 66.1316 0.
-141.011 -390.146 0.
-6.30762 -17.4698 0.
-38.6847 -107.061 0.
-248.461 -684.14 0.
-4.07134 -11.1216 0.
2.13016 5.76397 0.
8.56341 23.4386 0.
-13.8287 -37.8042 0.
-58.9588 -160.342 0.
8.9138 24.4654 0.
-62.5708 -170.546 0.
11.3356 31.0026 0.
-261.642 -685.599 0.
1.86197 4.95094 0.
-469.762 -1189.37 0.
-6.7759 -17.6618 0.
-401.142 -996.098 0.
-206.308 -501.657 0.
-4.76877 -9.93088 0.
8.22723 18.3631 0.
18.9336 39.7064 0.
-21.2133 -40.8555 0.
-10.1972 -75.4062 0.
26.7866 61.635 0.
-18.7995 -46.3018 0.
-2.5623 -87.3762 0.
-18.5235 -48.8995 0.
-11.7573 -31.2672 0.
-121.982 -321.345 0.
-3.27355 -8.91029 0.
33.5014 89.9682 0.
-48.3885 -131.516 0.
11.0573 30.3559 0.
-145.494 -398.157 0.
-6.93531 -18.9767 0.
2.09634 5.7351 0.
7.04799 19.4259 0.
-168.379 -465.518 0.
2.41661 6.69109 0.
1.06611 2.95237 0.
-203.458 -563.374 0.
-2.25378 -6.24226 0.
1.20459 3.33593 0.
-6.19462 -17.1568 0.
-0.471821 -1.30288 0.
-132.99 -367.655 0.
10.0038 27.5474 0.
-33.9456 -93.7859 0.
-18.7544 -51.9374 0.
-13.5562 -37.287 0.
19.5503 53.7339 0.
9.76424 26.9468 0.
-8.6014 -23.4753 0.
-0.0408231 -40.4437 0.
-0.240379 -43.0151 0.
-0.127465 -22.7123 0.
-2.10348 -5.59799 0.
-204.264 -565.373 0.
-0.131515 -6.78577 0.
-0.0237266 -0.899521 0.
1.03005e-05 4.03005 0.
-306.937 -841.812 0.
0.503442 1.3582 0.
-0.251294 -2.86769 0.
-404.375 -1104.57 0.
-6.04933 -16.6165 0.
-200.724 -513.634 0.
-32.0931 -88.4895 0.
-107.184 -296.422 0.
-88.4424 -239.397 0.
-314.589 -868.026 0.
-41.1815 -112.227 0.
-19.4729 -53.1732 0.
-357.807 -958.184 0.
-42.5915 -117.405 0.
-19.1858 -49.666 0.
-273.734 -653.109 0.
-0.724739 -1.98942 0.
-282.135 -728.626 0.
-0.00800442 -0.969686 0.
-235.723 -585.271 0.
-0.000190848 -1.72848 0.
0.000334066 3.18824 0.
-0.232287 -8.60777 0.
8.44562 23.1483 0.
11.2255 29.6795 0.
0.6116 1.68489 0.
6.02256 16.6664 0.
-9.23347 -25.438 0.
-8.07804 -22.3005 0.
-0.0101423 -55.2146 0.
-12.8849 -35.5856 0.
5.93418 16.4228 0.
-29.992 -83.0216 0.
-12.7185 -35.2194 0.
-13.1696 -36.2754 0.
-26.0205 -72.0467 0.
-0.00874468 -64.6848 0.
7.17126 19.8461 0.
15.9187 44.0522 0.
-10.7972 -29.898 0.
-12.1513 -33.6554 0.
-64.3085 -178.027 0.
-208.397 -573.901 0.
8.64774 23.6472 0.
14.3297 39.5049 0.
-62.3672 -170.915 0.
27.5598 75.3801 0.
-281.581 -765.837 0.
-21.2202 -58.2641 0.
-225.928 -616.109 0.
20.5758 56.2919 0.
-19.8606 -53.205 0.
-94.4938 -251.334 0.
3.5756 9.56853 0.
12.675 32.8895 0.
9.66363 24.8593 0.
-286.261 -690.202 0.
-20.293 -49.8973 0.
-254.241 -537.185 0.
-2.67469 -15.3038 0.
37.3128 77.8621 0.
8.17849 16.7019 0.
-30.7985 -70.9316 0.
-1.99888 -81.218 0.
16.182 41.5625 0.
20.8557 54.6979 0.
-2.61787 -6.9379 0.
-515.122 -1349.03 0.
9.22199 25.0544 0.
-33.1247 -88.7804 0.
8.5066 23.4752 0.
-4.83741 -13.2913 0.
-163.812 -448.789 0.
-8.91761 -24.4276 0.
5.58533 15.2974 0.
1.43261 3.94883 0.
-11.259 -31.0935 0.
-25.1331 -69.5848 0.
-29.5665 -81.8815 0.
-10.115 -28.0118 0.
6.71316 18.5921 0.
-96.2645 -266.631 0.
-18.2463 -50.5352 0.
3.1991 8.83024 0.
-11.4866 -31.5349 0.
-22.4718 -61.8649 0.
14.2753 39.2847 0.
-17.2997 -47.9102 0.
-56.4589 -155.416 0.
14.8649 40.8881 0.
-45.078 -124.435 0.
-103.558 -284.881 0.
5.84172 16.1348 0.
-7.24898 -19.928 0.
17.5585 47.6495 0.
-3.7364 -9.87908 0.
3.25975 8.97783 0.
4.82787 12.6625 0.
-220.758 -585.416 0.
1.84883 5.11783 0.
-0.130972 -0.362694 0.
1.22769 3.27582 0.
-0.0862977 -1.08252 0.
-11.6523 -32.1939 0.
-1.9958 -5.52771 0.
-6.75625 -18.0825 0.
-7.16588 -19.1907 0.
-20.5679 -55.4859 0.
-6.87887 -19.0295 0.
-10.3104 -28.2479 0.
-19.1478 -52.2238 0.
-2.47301 -6.67534 0.
0.0073387 0.0194086 0.
-16.0458 -43.6128 0.
-7.41312 -19.0931 0.
-11.3571 -27.352 0.
-4.30954e-05 -0.232293 0.
-0.0621111 -0.166794 0.
-0.0156927 -1.20186 0.
-0.054673 -3.90581 0.
-0.0253696 -4.49544 0.
-254.26 -685.789 0.
10.7335 29.7247 0.
-0.0436626 -14.7929 0.
-0.894299 -43.2436 0.
-133.461 -367.218 0.
-54.2433 -150.069 0.
-2.83048 -7.77685 0.
13.72 37.8463 0.
-8.80126 -24.3779 0.
-87.9291 -243.061 0.
-0.0197744 -57.3155 0.
12.1841 33.2789 0.
2.88779 7.99663 0.
-6.58832 -18.1706 0.
-13.0797 -36.1763 0.
-8.19874 -22.7001 0.
-0.228561 -64.4745 0.
16.9839 47.0104 0.
-9.89919 -27.3955 0.
-18.8713 -52.2358 0.
-51.9987 -143.982 0.
5.6559 15.6309 0.
-94.121 -257.637 0.
24.8085 68.4128 0.
-160.916 -441.515 0.
4.15197 11.3622 0.
5.32349 14.5795 0.
28.5048 78.2919 0.
-5.08706 -14.071 0.
-137.013 -374.96 0.
-14.7489 -39.5487 0.
-298.698 -793.55 0.
-6.03602 -16.1292 0.
-289.725 -748.242 0.
-89.7783 -226.827 0.
12.8254 33.7298 0.
11.062 26.9477 0.
-134.485 -283.113 0.
37.1471 73.06 0.
-8.2046 -49.5527 0.
-3.97039 -8.97545 0.
-60.5273 -153.695 0.
-188.69 -488.853 0.
21.3413 54.3518 0.
-1.05852 -82.134 0.
4.3756 11.5563 0.
-31.933 -83.119 0.
-0.732113 -81.7998 0.
-62.5239 -167.237 0.
23.9512 66.1081 0.
-39.5292 -108.65 0.
15.5736 43.1079 0.
-158.758 -438.141 0.
5.32052 14.588 0.
-78.7207 -216.995 0.
-0.0877772 -71.6159 0.
-40.4906 -112.099 0.
13.839 38.33 0.
14.1024 39.055 0.
-23.5163 -65.1225 0.
-15.1401 -41.9329 0.
-14.0153 -38.8169 0.
-8.53446 -23.6345 0.
-12.1682 -33.396 0.
12.1233 33.3681 0.
-1.33817 -3.68161 0.
-36.7302 -101.724 0.
16.3384 45.2382 0.
-0.780769 -2.1492 0.
-65.6204 -181.181 0.
12.4666 34.3047 0.
-6.75094 -18.6377 0.
-150.857 -413.289 0.
-0.38895 -34.3474 0.
-0.831809 -2.1843 0.
6.50893 17.859 0.
-5.52747 -15.2192 0.
-0.212617 -5.44042 0.
3.19666 8.84199 0.
-0.192253 -4.92917 0.
-0.080594 -4.19318 0.
-0.165289 -2.2196 0.
-6.23724 -17.276 0.
-0.0667848 -0.184211 0.
-106.525 -292.981 0.
-25.1558 -66.6497 0.
-16.3595 -44.0353 0.
-71.1619 -188.566 0.
-126.469 -340.494 0.
-27.2385 -73.5393 0.
-5.98193 -16.1054 0.
-158.986 -432.433 0.
-27.345 -75.3431 0.
-16.194 -44.7367 0.
-111.184 -306.851 0.
0.213184 0.586214 0.
0.0366255 0.100572 0.
-0.0578614 -3.76073 0.
0.954817 2.6156 0.
-0.214386 -17.3531 0.
-2.55208 -7.01306 0.
-1.5172e-05 -35.6099 0.
-181.955 -497.018 0.
16.6765 44.0367 0.
-4.91982 -13.626 0.
4.16818 11.5276 0.
-6.14511 -16.8632 0.
-159.455 -439.461 0.
-3.68174 -10.1977 0.
-7.42746 -20.5506 0.
1.10983 3.07151 0.
-9.81262 -26.7403 0.
1.2319 3.41123 0.
-3.28141 -9.06018 0.
1.12206 3.10791 0.
9.97051 27.6037 0.
-10.73 -29.4 0.
-222.144 -615.299 0.
3.00094 8.2975 0.
0.424175 1.17206 0.
-73.8841 -204.615 0.
-3.61022 -9.98112 0.
-168.22 -460.921 0.
-8.02876 -22.1462 0.
-62.5752 -170.705 0.
11.8002 32.3094 0.
-2.31773 -6.39717 0.
-155.173 -426.395 0.
1.09603 3.0314 0.
-34.9375 -95.6479 0.
-20.532 -55.1196 0.
-7.50519 -20.2675 0.
-108.018 -288.246 0.
-7.68517 -20.6668 0.
-67.1263 -166.238 0.
18.4148 47.4728 0.
-209.996 -506.464 0.
-105.77 -221.869 0.
47.6146 92.9699 0.
6.01821 11.6807 0.
-29.1223 -66.0018 0.
-7.01407 -18.3515 0.
21.9199 56.0962 0.
-23.1702 -58.5051 0.
-10.4047 -27.8663 0.
-420.856 -1108.1 0.
18.6821 50.2744 0.
1.69106 4.57742 0.
-3.56903 -9.7574 0.
-7.32345 -20.2185 0.
-88.7316 -244.004 0.
-12.4307 -34.4052 0.
-270.005 -744.999 0.
12.6004 34.8439 0.
-140.403 -384.947 0.
26.4482 73.0417 0.
-40.8495 -113.085 0.
23.1095 64.008 0.
-4.81112 -13.3241 0.
-164.71 -456.203 0.
-7.44569 -20.5897 0.
-37.2119 -103.062 0.
-13.7179 -37.9889 0.
-0.230964 -58.3117 0.
-67.4909 -185.627 0.
-13.2275 -36.3822 0.
-75.4516 -208.966 0.
-5.15254 -14.267 0.
20.08 55.3822 0.
17.3373 48.0206 0.
-0.251363 -0.69188 0.
-10.655 -29.4718 0.
-0.0409035 -48.1561 0.
-4.9993 -13.3997 0.
-0.563829 -21.7351 0.
-4.11613 -11.0071 0.
-0.0814159 -0.224134 0.
10.8421 27.7002 0.
4.20142 11.5667 0.
3.21248 8.76255 0.
-128.005 -349.34 0.
-0.0931683 -5.31034 0.
-124.441 -343.614 0.
-0.0142689 -0.668501 0.
-19.8693 -51.355 0.
-3.93451 -10.1388 0.
-9.74751 -26.5881 0.
-17.5139 -47.9149 0.
-7.06316 -19.5274 0.
-18.2399 -49.4437 0.
-3.07988 -8.34449 0.
-2.34855 -6.25387 0.
-17.3656 -48.0958 0.
-2.37131 -6.56726 0.
-5.76711 -15.961 0.
-0.003574 -0.0098783 0.
-163.056 -401.701 0.
-0.0400267 -8.02633 0.
-86.7741 -237.37 0.
6.30695 16.7787 0.
6.17045 17.0658 0.
11.443 31.6912 0.
12.3624 31.8239 0.
9.18772 24.2945 0.
-0.770191 -2.13292 0.
1.68999 4.67204 0.
10.5402 28.8421 0.
10.3371 28.6289 0.
-21.4137 -59.3111 0.
-6.54181 -18.0264 0.
5.93315 16.4205 0.
20.9897 57.0627 0.
-167.419 -461.057 0.
-18.2059 -50.3149 0.
-0.00376633 -63.256 0.
-114.675 -316.815 0.
16.4331 44.9062 0.
-32.6724 -90.4778 0.
-5.30105 -14.6391 0.
15.9274 43.9974 0.
-147.584 -405.229 0.
18.9196 52.3254 0.
-144.454 -395.655 0.
-2.58145 -7.12246 0.
4.22615 11.6796 0.
-40.5195 -111.008 0.
-3.87062 -10.6882 0.
-111.024 -305.209 0.
-17.2251 -47.639 0.
25.9601 71.015 0.
-28.4554 -76.5012 0.
16.9355 45.5945 0.
-178.876 -476.698 0.
22.5839 60.2718 0.
-181.429 -475.133 0.
-13.0747 -32.9725 0.
4.09092 10.1455 0.
-163.575 -342.055 0.
-296.424 -629.02 0.
-10.1937 -19.0344 0.
13.556 32.7934 0.
-2.49076 -83.9894 0.
1.43591 3.67623 0.
3.21102 8.36092 0.
17.3688 46.3827 0.
-0.0675667 -0.183418 0.
31.1703 83.7676 0.
-462.728 -1233.27 0.
13.29 36.3941 0.
1.71357 4.6763 0.
13.5338 37.4621 0.
-12.9199 -35.756 0.
-50.9934 -140.68 0.
-4.16226 -11.5135 0.
6.49143 17.8102 0.
-0.00172614 -59.0955 0.
17.8593 49.2345 0.
-1.02415 -2.83671 0.
17.8287 49.3768 0.
-73.6577 -204.009 0.
-0.0531453 -60.9625 0.
-82.1069 -227.421 0.
-18.8337 -52.156 0.
18.8448 51.6909 0.
2.63757 7.25267 0.
-4.16709 -11.2872 0.
15.5375 42.412 0.
-36.5614 -101.239 0.
14.2592 39.258 0.
-25.705 -71.183 0.
7.57194 20.847 0.
-58.6234 -156.618 0.
3.94052 10.8873 0.
-0.718362 -43.6873 0.
14.182 37.9179 0.
-17.2109 -46.1155 0.
-74.209 -204.341 0.
-0.87051 -27.5289 0.
-25.1009 -69.3725 0.
8.09258 21.8636 0.
2.47289 6.83185 0.
2.6646 7.00459 0.
-0.000397728 -1.12584 0.
0.679702 1.72599 0.
-3.52596 -7.92829 0.
-6.01072 -15.5183 0.
-14.7546 -40.5984 0.
-11.9001 -32.9426 0.
-13.9287 -38.4076 0.
-11.4742 -31.2768 0.
-5.23746 -14.2534 0.
-4.50784 -12.1265 0.
-10.8906 -30.1347 0.
-0.0152173 -0.0421475 0.
-0.0823446 -0.227734 0.
0.321568 0.881575 0.
0.330707 0.889053 0.
-0.0228859 -1.84756 0.
-7.12593 -19.7062 0.
-4.00645 -10.8094 0.
7.05725 19.1126 0.
-0.00458171 -33.8047 0.
-1.65661 -43.3596 0.
3.04069 7.72419 0.
-4.44091 -12.2967 0.
-9.30514 -25.5129 0.
8.18201 22.3648 0.
-89.6348 -248.232 0.
-60.2891 -166.984 0.
-9.54564 -26.2859 0.
-115.602 -316.856 0.
6.3663 17.2642 0.
-3.25267 -8.94206 0.
-157.265 -434.947 0.
-0.649617 -1.79842 0.
-351.475 -969.893 0.
16.2562 44.2937 0.
15.4597 41.9253 0.
17.4056 48.0602 0.
-13.3804 -36.9504 0.
-89.7364 -246.533 0.
8.81808 24.395 0.
-15.8474 -43.4224 0.
13.2992 36.7022 0.
-7.10333 -19.6528 0.
-334.689 -920.978 0.
7.61975 21.0508 0.
6.3046 17.4569 0.
-19.7361 -54.5827 0.
27.5172 75.0823 0.
-114.37 -308.013 0.
23.1133 62.0519 0.
33.8879 92.4168 0.
-161.921 -428.657 0.
19.718 53.1057 0.
-223.346 -550.1 0.
32.1791 78.0726 0.
9.50737 24.2186 0.
-6.59424 -96.4066 0.
15.0849 38.6246 0.
22.9129 53.6142 0.
-225.631 -577.354 0.
2.28176 6.09852 0.
-2.52583 -78.6256 0.
-1.48188 -89.7278 0.
3.49429 9.45349 0.
12.1561 32.629 0.
-6.85496 -18.7175 0.
-55.2152 -151.463 0.
-200.565 -548.493 0.
9.63881 26.6806 0.
15.1758 41.8365 0.
-0.928085 -2.5596 0.
7.46036 20.6634 0.
-10.1629 -27.8941 0.
27.3653 75.7913 0.
17.8492 49.196 0.
-6.30168 -17.4538 0.
-0.0913983 -0.251565 0.
21.0569 58.3196 0.
0.921578 2.5461 0.
-40.1367 -111.167 0.
2.36329 6.51913 0.
-10.5249 -29.0016 0.
-7.33788 -20.1743 0.
7.73153 20.896 0.
-13.6295 -37.1393 0.
-54.2446 -150.206 0.
-6.74886 -18.6583 0.
-8.9874 -24.8778 0.
3.6824 10.14 0.
-5.92753 -15.8516 0.
11.5858 31.9945 0.
-5.55883 -14.7262 0.
2.94868 7.80537 0.
-27.4459 -73.6764 0.
4.74704 13.0061 0.
14.3468 36.7641 0.
-18.4574 -51.1138 0.
-0.133756 -9.80704 0.
1.12386 3.11281 0.
-0.161735 -6.41577 0.
0.00518911 0.014216 0.
0.932178 2.51212 0.
-21.8029 -60.1015 0.
-6.63085 -17.5786 0.
-0.557661 -1.33875 0.
-20.1312 -55.1125 0.
-5.55958 -15.3978 0.
-17.1174 -43.5609 0.
-0.792942 -2.13482 0.
-11.9176 -31.648 0.
-17.7639 -48.9869 0.
-6.94316 -19.2308 0.
-15.5387 -42.8861 0.
0.00389686 0.543787 0.
0.17079 0.466946 0.
-0.144028 -7.49049 0.
-0.504261 -5.22444 0.
-0.314743 -0.837104 0.
4.86566 13.1712 0.
15.0835 41.7567 0.
14.9445 37.4436 0.
5.1861 13.0177 0.
3.86574 10.7025 0.
-14.7806 -40.4873 0.
10.4643 28.5724 0.
10.9355 30.2833 0.
-11.0337 -30.4878 0.
-0.151436 -55.9123 0.
-78.9219 -215.983 0.
-0.561248 -56.5201 0.
12.0292 33.0077 0.
-18.902 -52.3535 0.
5.97594 16.5353 0.
19.9009 54.4179 0.
6.47342 17.5473 0.
-0.170665 -0.463262 0.
-6.44595 -17.7925 0.
3.27365 9.03736 0.
-35.1858 -96.6939 0.
14.0844 38.9706 0.
3.14809 8.7175 0.
13.8991 38.4097 0.
-5.79699 -16.0501 0.
19.6673 54.1639 0.
7.90325 21.8428 0.
-2.78755 -7.71635 0.
-27.232 -75.3118 0.
1.81047 4.92524 0.
-0.00701796 -76.0533 0.
21.4201 57.3519 0.
21.081 57.3667 0.
-47.089 -123.598 0.
9.92538 26.5174 0.
-2.75916 -7.11148 0.
-133.75 -317.525 0.
-2.13478 -45.6525 0.
10.3985 24.5081 0.
5.06713 12.6458 0.
-168.862 -382.861 0.
10.1907 27.3917 0.
-0.664444 -1.75802 0.
3.29042 8.36799 0.
-0.0606877 -47.6381 0.
11.3727 30.6638 0.
26.4101 70.7992 0.
-0.722557 -79.914 0.
-132.692 -364.593 0.
-2.77312 -7.59754 0.
23.594 65.3201 0.
-1.12169 -3.08911 0.
-0.00585223 -69.9275 0.
-0.00461485 -73.7185 0.
-14.4484 -39.6504 0.
18.6862 51.6099 0.
24.3348 67.015 0.
9.64285 26.5382 0.
-0.211012 -0.579683 0.
9.51554 26.1268 0.
9.29917 25.6885 0.
-20.8086 -57.6319 0.
-84.7432 -233.606 0.
-0.146139 -59.2619 0.
-12.4481 -34.222 0.
0.627161 1.70091 0.
-69.3989 -188.81 0.
-0.0283564 -49.682 0.
13.4189 37.106 0.
-28.5986 -79.1233 0.
16.0838 42.353 0.
19.0283 50.956 0.
-7.43445 -20.5187 0.
-1.57384 -47.1248 0.
3.24737 8.50747 0.
-48.9086 -131.572 0.
-0.154742 -37.2785 0.
-20.467 -51.4436 0.
1.03133 2.45979 0.
5.98519 15.9477 0.
-0.00127561 -3.70122 0.
-2.1102 -5.7429 0.
-17.3536 -42.5332 0.
-0.00017246 -3.65988 0.
-8.56 -22.6268 0.
-3.84289 -10.1947 0.
-5.76888 -15.6045 0.
0.0124853 0.0345723 0.
-18.3711 -50.6331 0.
-4.97155 -12.888 0.
-2.6296 -7.02849 0.
-7.44856 -19.838 0.
-2.50243 -6.84427 0.
-2.04477 -5.62071 0.
0.0609094 0.704428 0.
-7.11553 -19.0261 0.
3.41733 9.43902 0.
3.3981 8.85977 0.
-1.73078 -16.7201 0.
-11.9196 -31.2792 0.
-30.7111 -82.4283 0.
3.55354 9.25303 0.
-18.1925 -44.9692 0.
19.4734 52.6991 0.
-60.6932 -164.795 0.
-47.5067 -130.012 0.
-39.1694 -106.838 0.
-3.22064 -8.90028 0.
-2.57429 -7.11134 0.
6.19632 17.0432 0.
8.74706 23.5232 0.
-12.5014 -34.3879 0.
13.9307 38.1511 0.
18.8733 50.995 0.
20.8005 57.5195 0.
-31.6989 -86.3547 0.
-0.487308 -55.838 0.
20.9136 56.8184 0.
-9.40236 -25.9436 0.
-6.15732 -16.992 0.
-10.8371 -29.9502 0.
-0.804982 -2.22959 0.
-4.26288 -11.8055 0.
15.0578 41.6575 0.
-0.00145205 -64.9 0.
22.5244 62.2896 0.
-0.0584402 -74.1632 0.
-0.0170696 -58.4342 0.
-1.16176 -50.032 0.
-40.9721 -110.964 0.
-0.0160356 -53.519 0.
-102.14 -272.64 0.
18.2941 48.7151 0.
-0.741481 -70.7866 0.
-106.516 -253.488 0.
-13.3172 -33.7837 0.
8.57712 22.2753 0.
14.6611 35.789 0.
29.5513 69.461 0.
