# vtk DataFile Version 2.0
test grain
ASCII
DATASET UNSTRUCTURED_GRID
POINTS 5000 float
0.497758 0.00062062 0.
0.500579 0.000797515 0.
0.503056 0.000865164 0.
0.505517 0.000931402 0.
0.507633 0.000947141 0.
0.509749 0.000963168 0.
0.511839 0.000975306 0.
0.513885 0.000980368 0.
0.515931 0.000985456 0.
0.517955 0.00098961 0.
0.519968 0.000993283 0.
0.521981 0.00099697 0.
0.523984 0.000997838 0.
0.525986 0.000998325 0.
0.527988 0.000998792 0.
0.52999 0.000999084 0.
0.531992 0.000999375 0.
0.533994 0.000999632 0.
0.535995 0.000999817 0.
0.537996 0.001 0.
0.539996 0.00100011 0.
0.541997 0.00100015 0.
0.543997 0.00100019 0.
0.545998 0.00100014 0.
0.547998 0.00100007 0.
0.549998 0.000999999 0.
0.551998 0.00100007 0.
0.553998 0.00100015 0.
0.555998 0.00100021 0.
0.557999 0.00100026 0.
0.559999 0.0010003 0.
0.561999 0.00100033 0.
0.563999 0.00100036 0.
0.565999 0.00100039 0.
0.567999 0.0010004 0.
0.57 0.0010004 0.
0.572 0.0010004 0.
0.574 0.00100039 0.
0.576 0.00100039 0.
0.578 0.00100039 0.
0.58 0.00100043 0.
0.582 0.00100047 0.
0.584 0.00100049 0.
0.586 0.00100046 0.
0.588 0.00100043 0.
0.59 0.00100044 0.
0.592 0.00100048 0.
0.594 0.00100052 0.
0.596 0.00100045 0.
0.598 0.00100035 0.
0.6 0.00100024 0.
0.602 0.00100033 0.
0.604 0.00100042 0.
0.606 0.00100049 0.
0.608 0.00100046 0.
0.61 0.00100043 0.
0.612 0.00100043 0.
0.614 0.00100045 0.
0.616 0.00100046 0.
0.618 0.00100044 0.
0.62 0.00100039 0.
0.622 0.00100034 0.
0.624 0.00100031 0.
0.626 0.00100028 0.
0.628 0.00100026 0.
0.63 0.00100029 0.
0.632001 0.00100032 0.
0.634001 0.00100033 0.
0.636001 0.00100033 0.
0.638001 0.00100033 0.
0.640001 0.00100028 0.
0.642001 0.00100018 0.
0.644002 0.00100009 0.
0.646002 0.00100005 0.
0.648002 0.00100002 0.
0.650002 0.001 0.
0.652002 0.00100006 0.
0.654003 0.00100013 0.
0.656004 0.00100016 0.
0.658004 0.00100008 0.
0.660005 0.001 0.
0.662006 0.000999826 0.
0.664007 0.000999529 0.
0.666008 0.000999232 0.
0.66801 0.000999057 0.
0.670012 0.000998942 0.
0.672014 0.000998827 0.
0.674017 0.000997508 0.
0.67602 0.00099605 0.
0.678026 0.000994184 0.
0.680048 0.000989302 0.
0.68207 0.000984445 0.
0.684107 0.000979349 0.
0.686169 0.000973722 0.
0.688231 0.000968129 0.
0.690397 0.000940878 0.
0.692616 0.00090377 0.
0.694857 0.0008656 0.
0.697632 0.000769816 0.
0.700412 0.000677097 0.
0.495714 0.00161422 0.
0.499038 0.00229949 0.
0.501898 0.00255783 0.
0.504725 0.00277537 0.
0.507097 0.00283317 0.
0.509391 0.00288371 0.
0.511625 0.00292522 0.
0.513722 0.00294055 0.
0.515819 0.00295596 0.
0.517878 0.00296856 0.
0.519913 0.00297965 0.
0.521949 0.00299077 0.
0.523959 0.0029935 0.
0.525965 0.00299497 0.
0.52797 0.00299637 0.
0.529975 0.00299725 0.
0.53198 0.00299812 0.
0.533984 0.00299889 0.
0.535986 0.00299945 0.
0.537989 0.003 0.
0.539991 0.00300032 0.
0.541992 0.00300044 0.
0.543993 0.00300057 0.
0.545993 0.00300043 0.
0.547994 0.00300021 0.
0.549995 0.003 0.
0.551995 0.00300022 0.
0.553995 0.00300044 0.
0.555995 0.00300064 0.
0.557996 0.00300076 0.
0.559997 0.00300089 0.
0.561997 0.003001 0.
0.563998 0.00300109 0.
0.565998 0.00300118 0.
0.567998 0.0030012 0.
0.569999 0.0030012 0.
0.571999 0.00300119 0.
0.573999 0.00300118 0.
0.575999 0.00300116 0.
0.577999 0.00300116 0.
0.579999 0.00300128 0.
0.581999 0.0030014 0.
0.583999 0.00300146 0.
0.585999 0.00300138 0.
0.587999 0.0030013 0.
0.589999 0.00300133 0.
0.591999 0.00300145 0.
0.593999 0.00300157 0.
0.596 0.00300135 0.
0.598 0.00300104 0.
0.6 0.00300073 0.
0.602 0.003001 0.
0.604 0.00300127 0.
0.606 0.00300146 0.
0.608 0.00300138 0.
0.61 0.0030013 0.
0.612 0.00300128 0.
0.614001 0.00300134 0.
0.616001 0.00300139 0.
0.618001 0.00300131 0.
0.620001 0.00300116 0.
0.622001 0.00300102 0.
0.624001 0.00300093 0.
0.626001 0.00300085 0.
0.628001 0.00300079 0.
0.630001 0.00300087 0.
0.632002 0.00300095 0.
0.634002 0.003001 0.
0.636003 0.00300099 0.
0.638003 0.00300099 0.
0.640004 0.00300082 0.
0.642004 0.00300054 0.
0.644005 0.00300026 0.
0.646005 0.00300014 0.
0.648006 0.00300007 0.
0.650006 0.003 0.
0.652007 0.00300019 0.
0.654007 0.00300039 0.
0.656008 0.00300048 0.
0.65801 0.00300024 0.
0.660012 0.003 0.
0.662014 0.00299947 0.
0.664017 0.00299858 0.
0.666021 0.00299769 0.
0.668025 0.00299717 0.
0.670031 0.00299683 0.
0.672036 0.00299648 0.
0.674045 0.00299248 0.
0.676055 0.00298809 0.
0.678072 0.00298233 0.
0.68013 0.00296757 0.
0.682188 0.00295288 0.
0.684274 0.00293753 0.
0.686406 0.00292047 0.
0.688536 0.00290352 0.
0.690942 0.00280423 0.
0.693421 0.00268656 0.
0.696123 0.00253094 0.
0.699277 0.00223126 0.
0.702515 0.00174822 0.
0.49337 0.00227868 0.
0.496966 0.00342129 0.
0.500537 0.00419718 0.
0.503741 0.00457457 0.
0.506511 0.00470723 0.
0.508996 0.00479579 0.
0.511406 0.00487418 0.
0.513554 0.00489998 0.
0.515704 0.00492592 0.
0.517799 0.00494715 0.
0.519858 0.00496573 0.
0.521917 0.00498438 0.
0.523933 0.00498915 0.
0.525943 0.00499159 0.
0.527952 0.00499393 0.
0.52996 0.0049954 0.
0.531967 0.00499686 0.
0.533974 0.00499815 0.
0.535978 0.00499907 0.
0.537982 0.005 0.
0.539985 0.00500053 0.
0.541986 0.00500074 0.
0.543988 0.00500094 0.
0.545989 0.00500071 0.
0.54799 0.00500036 0.
0.549992 0.005 0.
0.551992 0.00500036 0.
0.553992 0.00500073 0.
0.555992 0.00500107 0.
0.557993 0.00500127 0.
0.559994 0.00500148 0.
0.561995 0.00500166 0.
0.563996 0.00500181 0.
0.565997 0.00500196 0.
0.567997 0.005002 0.
0.569998 0.00500199 0.
0.571998 0.00500199 0.
0.573998 0.00500196 0.
0.575998 0.00500193 0.
0.577998 0.00500193 0.
0.579998 0.00500214 0.
0.581998 0.00500234 0.
0.583999 0.00500243 0.
0.585999 0.0050023 0.
0.587999 0.00500216 0.
0.589999 0.00500221 0.
0.591999 0.00500242 0.
0.593999 0.00500262 0.
0.595999 0.00500226 0.
0.598 0.00500174 0.
0.6 0.00500122 0.
0.602 0.00500166 0.
0.604 0.00500211 0.
0.606001 0.00500243 0.
0.608001 0.0050023 0.
0.610001 0.00500217 0.
0.612001 0.00500214 0.
0.614001 0.00500223 0.
0.616001 0.00500231 0.
0.618001 0.00500218 0.
0.620002 0.00500194 0.
0.622002 0.0050017 0.
0.624002 0.00500155 0.
0.626002 0.00500142 0.
0.628002 0.00500132 0.
0.630002 0.00500146 0.
0.632003 0.00500159 0.
0.634003 0.00500167 0.
0.636004 0.00500165 0.
0.638005 0.00500164 0.
0.640006 0.00500137 0.
0.642007 0.0050009 0.
0.644008 0.00500043 0.
0.646009 0.00500024 0.
0.648009 0.00500012 0.
0.65001 0.00500001 0.
0.652011 0.00500032 0.
0.654012 0.00500064 0.
0.656013 0.0050008 0.
0.658016 0.0050004 0.
0.660019 0.005 0.
0.662022 0.00499911 0.
0.664028 0.00499763 0.
0.666034 0.00499614 0.
0.668041 0.00499528 0.
0.670049 0.00499471 0.
0.672058 0.00499413 0.
0.674074 0.00498738 0.
0.67609 0.00498006 0.
0.678118 0.00497017 0.
0.680213 0.00494537 0.
0.682308 0.00492069 0.
0.684448 0.00489499 0.
0.686651 0.00486628 0.
0.688852 0.00483774 0.
0.691568 0.00464038 0.
0.694334 0.00443313 0.
0.697682 0.00409039 0.
0.701281 0.00353269 0.
0.704985 0.00242037 0.
0.490629 0.0025109 0.
0.494806 0.00413114 0.
0.498825 0.00533429 0.
0.502162 0.00583354 0.
0.505309 0.00616771 0.
0.507959 0.00635701 0.
0.510594 0.0065501 0.
0.512909 0.00664528 0.
0.515217 0.00673553 0.
0.517449 0.00680729 0.
0.519589 0.00685366 0.
0.521732 0.00690074 0.
0.523801 0.0069286 0.
0.525854 0.00695261 0.
0.527904 0.00697538 0.
0.52992 0.00697835 0.
0.531937 0.00698132 0.
0.533951 0.00698493 0.
0.535961 0.00699 0.
0.53797 0.00699508 0.
0.539976 0.00699812 0.
0.541979 0.00699944 0.
0.543982 0.00700076 0.
0.545984 0.00700106 0.
0.547986 0.00700105 0.
0.549987 0.00700105 0.
0.551988 0.00700132 0.
0.553988 0.0070016 0.
0.555989 0.00700186 0.
0.55799 0.00700208 0.
0.559991 0.00700229 0.
0.561992 0.00700253 0.
0.563993 0.00700281 0.
0.565994 0.00700309 0.
0.567995 0.00700325 0.
0.569996 0.00700334 0.
0.571996 0.00700343 0.
0.573996 0.00700345 0.
0.575996 0.00700346 0.
0.577996 0.0070035 0.
0.579997 0.00700369 0.
0.581997 0.00700389 0.
0.583998 0.00700404 0.
0.585998 0.00700408 0.
0.587998 0.00700413 0.
0.589998 0.00700417 0.
0.591998 0.0070042 0.
0.593998 0.00700422 0.
0.595999 0.00700397 0.
0.598 0.00700364 0.
0.6 0.0070033 0.
0.602001 0.00700361 0.
0.604001 0.00700392 0.
0.606001 0.00700414 0.
0.608001 0.00700407 0.
0.610001 0.007004 0.
0.612002 0.00700393 0.
0.614002 0.00700388 0.
0.616002 0.00700383 0.
0.618003 0.00700367 0.
0.620003 0.00700345 0.
0.622004 0.00700323 0.
0.624004 0.00700306 0.
0.626004 0.00700289 0.
0.628004 0.00700274 0.
0.630005 0.00700273 0.
0.632005 0.00700273 0.
0.634006 0.00700267 0.
0.636007 0.00700251 0.
0.638009 0.00700235 0.
0.64001 0.00700202 0.
0.642011 0.00700156 0.
0.644012 0.0070011 0.
0.646013 0.00700095 0.
0.648014 0.00700088 0.
0.650015 0.00700081 0.
0.652017 0.0070007 0.
0.654018 0.00700059 0.
0.656021 0.007 0.
0.658026 0.00699779 0.
0.66003 0.00699558 0.
0.662039 0.00699133 0.
0.664052 0.00698468 0.
0.666065 0.00697805 0.
0.668085 0.00697388 0.
0.670109 0.00697077 0.
0.672132 0.00696767 0.
0.674205 0.00693307 0.
0.676281 0.00689698 0.
0.67838 0.0068568 0.
0.68057 0.0067974 0.
0.682757 0.0067392 0.
0.685081 0.00664777 0.
0.687485 0.0065393 0.
0.689973 0.00638211 0.
0.692873 0.00602357 0.
0.695901 0.00566563 0.
0.699514 0.00519068 0.
0.703631 0.00427641 0.
0.707621 0.00273523 0.
0.487927 0.00259114 0.
0.492555 0.00451239 0.
0.496611 0.005936 0.
0.50035 0.00688138 0.
0.503756 0.00747539 0.
0.506769 0.00784313 0.
0.509621 0.00816574 0.
0.512184 0.008359 0.
0.51467 0.00852183 0.
0.517078 0.0086613 0.
0.519306 0.00873715 0.
0.521537 0.00881421 0.
0.523665 0.00886612 0.
0.525762 0.00891227 0.
0.527856 0.0089568 0.
0.529881 0.00896128 0.
0.531906 0.00896576 0.
0.533928 0.00897165 0.
0.535943 0.00898088 0.
0.537958 0.00899012 0.
0.539968 0.0089957 0.
0.541972 0.00899814 0.
0.543976 0.00900058 0.
0.545979 0.00900141 0.
0.547981 0.00900175 0.
0.549983 0.00900209 0.
0.551983 0.00900228 0.
0.553984 0.00900247 0.
0.555985 0.00900266 0.
0.557986 0.00900288 0.
0.559988 0.00900309 0.
0.561989 0.0090034 0.
0.56399 0.00900381 0.
0.565992 0.00900422 0.
0.567993 0.00900449 0.
0.569994 0.00900468 0.
0.571995 0.00900488 0.
0.573995 0.00900495 0.
0.575995 0.00900499 0.
0.577995 0.00900506 0.
0.579995 0.00900525 0.
0.581996 0.00900544 0.
0.583997 0.00900565 0.
0.585997 0.00900587 0.
0.587997 0.0090061 0.
0.589997 0.00900612 0.
0.591998 0.00900598 0.
0.593998 0.00900583 0.
0.595999 0.00900569 0.
0.598 0.00900554 0.
0.6 0.00900539 0.
0.602001 0.00900556 0.
0.604001 0.00900573 0.
0.606002 0.00900586 0.
0.608002 0.00900584 0.
0.610002 0.00900582 0.
0.612002 0.00900573 0.
0.614003 0.00900554 0.
0.616003 0.00900535 0.
0.618004 0.00900516 0.
0.620005 0.00900496 0.
0.622005 0.00900477 0.
0.624005 0.00900456 0.
0.626006 0.00900435 0.
0.628006 0.00900415 0.
0.630007 0.00900401 0.
0.632008 0.00900387 0.
0.634009 0.00900367 0.
0.636011 0.00900337 0.
0.638012 0.00900306 0.
0.640014 0.00900267 0.
0.642015 0.00900222 0.
0.644017 0.00900177 0.
0.646018 0.00900166 0.
0.648019 0.00900164 0.
0.65002 0.00900161 0.
0.652022 0.00900108 0.
0.654025 0.00900054 0.
0.656028 0.00899918 0.
0.658035 0.00899516 0.
0.660042 0.00899113 0.
0.662055 0.00898349 0.
0.664076 0.00897166 0.
0.666096 0.00895986 0.
0.66813 0.0089524 0.
0.670168 0.00894674 0.
0.672207 0.00894109 0.
0.674342 0.00887638 0.
0.676479 0.00881046 0.
0.678659 0.00873801 0.
0.680951 0.00864144 0.
0.683238 0.00854687 0.
0.68582 0.00836296 0.
0.688457 0.00816256 0.
0.691325 0.00778941 0.
0.694408 0.00724846 0.
0.697882 0.00665315 0.
0.701709 0.00592537 0.
0.70596 0.00461726 0.
0.710608 0.00269459 0.
0.48504 0.00256126 0.
0.489965 0.00463706 0.
0.494396 0.0063584 0.
0.498354 0.00770748 0.
0.502078 0.00861951 0.
0.505552 0.00925961 0.
0.508613 0.00969471 0.
0.511441 0.01 0.
0.514083 0.0102323 0.
0.516667 0.0104602 0.
0.518975 0.0105681 0.
0.521291 0.0106792 0.
0.523486 0.0107637 0.
0.52563 0.0108417 0.
0.527773 0.0109196 0.
0.529814 0.0109297 0.
0.531854 0.0109398 0.
0.53389 0.0109511 0.
0.535913 0.0109651 0.
0.537936 0.0109791 0.
0.539951 0.0109882 0.
0.541959 0.0109928 0.
0.543967 0.0109975 0.
0.545971 0.0109995 0.
0.547974 0.0110006 0.
0.549977 0.0110018 0.
0.551978 0.011002 0.
0.55398 0.0110023 0.
0.555981 0.0110026 0.
0.557982 0.0110028 0.
0.559984 0.0110031 0.
0.561986 0.0110035 0.
0.563987 0.011004 0.
0.565989 0.0110045 0.
0.56799 0.0110048 0.
0.569991 0.0110051 0.
0.571993 0.0110053 0.
0.573993 0.0110055 0.
0.575993 0.0110057 0.
0.577993 0.0110059 0.
0.579994 0.0110061 0.
0.581995 0.0110063 0.
0.583995 0.0110065 0.
0.585996 0.0110068 0.
0.587996 0.0110071 0.
0.589997 0.0110072 0.
0.591997 0.011007 0.
0.593998 0.0110068 0.
0.595998 0.0110067 0.
0.597999 0.0110067 0.
0.6 0.0110066 0.
0.602001 0.0110067 0.
0.604002 0.0110068 0.
0.606002 0.0110069 0.
0.608003 0.0110069 0.
0.610003 0.0110069 0.
0.612003 0.0110068 0.
0.614004 0.0110064 0.
0.616005 0.0110061 0.
0.618005 0.0110059 0.
0.620006 0.0110057 0.
0.622007 0.0110055 0.
0.624007 0.0110052 0.
0.626008 0.0110049 0.
0.628008 0.0110045 0.
0.63001 0.0110043 0.
0.632011 0.011004 0.
0.634012 0.0110037 0.
0.636014 0.0110033 0.
0.638016 0.011003 0.
0.640018 0.0110025 0.
0.642019 0.011002 0.
0.644021 0.0110015 0.
0.646023 0.0110012 0.
0.648024 0.011001 0.
0.650026 0.0110008 0.
0.65203 0.0109992 0.
0.654034 0.0109975 0.
0.65604 0.0109946 0.
0.658052 0.0109872 0.
0.660064 0.0109798 0.
0.662085 0.0109679 0.
0.664115 0.0109508 0.
0.666145 0.0109337 0.
0.6682 0.0109164 0.
0.670264 0.0108993 0.
0.672329 0.0108816 0.
0.674527 0.0107787 0.
0.676722 0.0106766 0.
0.678993 0.0105613 0.
0.681386 0.0104207 0.
0.683792 0.0102824 0.
0.68661 0.00999999 0.
0.689494 0.00970031 0.
0.692725 0.00907878 0.
0.696096 0.00834017 0.
0.699895 0.00752475 0.
0.704059 0.00636084 0.
0.708544 0.00473574 0.
0.713392 0.00265935 0.
0.482297 0.00254871 0.
0.48778 0.00477446 0.
0.492414 0.00669098 0.
0.496573 0.00836203 0.
0.500755 0.00958193 0.
0.504438 0.0103858 0.
0.507655 0.0109394 0.
0.510697 0.0114106 0.
0.51344 0.0117777 0.
0.516152 0.0121513 0.
0.518568 0.0123189 0.
0.520974 0.0124785 0.
0.523254 0.0126107 0.
0.52545 0.0127344 0.
0.527649 0.0128597 0.
0.529716 0.0128821 0.
0.531781 0.0129026 0.
0.533837 0.0129232 0.
0.53587 0.0129426 0.
0.537903 0.012962 0.
0.539926 0.0129755 0.
0.54194 0.0129835 0.
0.543954 0.0129916 0.
0.545961 0.0129954 0.
0.547966 0.0129977 0.
0.549971 0.0130001 0.
0.551973 0.0130006 0.
0.553975 0.0130011 0.
0.555976 0.0130016 0.
0.557978 0.0130019 0.
0.55998 0.0130023 0.
0.561982 0.0130028 0.
0.563984 0.0130033 0.
0.565985 0.0130038 0.
0.567987 0.0130042 0.
0.569989 0.0130045 0.
0.57199 0.0130048 0.
0.573991 0.0130052 0.
0.575991 0.0130056 0.
0.577992 0.013006 0.
0.579993 0.0130062 0.
0.581994 0.0130064 0.
0.583994 0.0130067 0.
0.585995 0.013007 0.
0.587996 0.0130073 0.
0.589996 0.0130074 0.
0.591997 0.0130073 0.
0.593997 0.0130071 0.
0.595998 0.0130071 0.
0.597999 0.0130071 0.
0.6 0.013007 0.
0.602001 0.0130071 0.
0.604002 0.0130072 0.
0.606002 0.0130073 0.
0.608003 0.0130072 0.
0.610003 0.0130072 0.
0.612004 0.013007 0.
0.614005 0.0130066 0.
0.616006 0.0130061 0.
0.618007 0.0130058 0.
0.620008 0.0130056 0.
0.622009 0.0130054 0.
0.62401 0.0130049 0.
0.62601 0.0130044 0.
0.628011 0.0130039 0.
0.630013 0.0130035 0.
0.632014 0.0130032 0.
0.634016 0.0130028 0.
0.636018 0.0130024 0.
0.63802 0.013002 0.
0.640022 0.0130015 0.
0.642024 0.0130009 0.
0.644026 0.0130003 0.
0.646028 0.0129997 0.
0.648031 0.012999 0.
0.650034 0.0129983 0.
0.65204 0.0129949 0.
0.654047 0.0129916 0.
0.656057 0.0129861 0.
0.658077 0.0129738 0.
0.660098 0.0129615 0.
0.662129 0.0129444 0.
0.664171 0.0129218 0.
0.666213 0.0128993 0.
0.668299 0.0128638 0.
0.6704 0.012825 0.
0.672508 0.0127823 0.
0.674771 0.0126301 0.
0.677029 0.0124803 0.
0.679424 0.0122928 0.
0.681945 0.0120751 0.
0.684532 0.0118216 0.
0.687441 0.0113561 0.
0.690485 0.0108631 0.
0.69386 0.0101552 0.
0.697536 0.00929887 0.
0.70163 0.00825827 0.
0.70597 0.00674497 0.
0.710786 0.00487518 0.
0.716207 0.00263065 0.
0.479813 0.00257796 0.
0.485683 0.0049411 0.
0.49054 0.00695175 0.
0.49491 0.00886489 0.
0.49936 0.0103073 0.
0.503135 0.0113059 0.
0.506611 0.0121026 0.
0.50986 0.0127485 0.
0.512766 0.0132837 0.
0.515592 0.013802 0.
0.518139 0.0140617 0.
0.520639 0.0142708 0.
0.523016 0.0144523 0.
0.525266 0.0146229 0.
0.52752 0.0147966 0.
0.529617 0.0148337 0.
0.531706 0.0148648 0.
0.533784 0.014895 0.
0.535827 0.0149199 0.
0.537869 0.0149448 0.
0.5399 0.0149627 0.
0.541921 0.0149742 0.
0.543941 0.0149857 0.
0.545951 0.0149912 0.
0.547958 0.0149948 0.
0.549965 0.0149984 0.
0.551967 0.0149992 0.
0.55397 0.0149999 0.
0.555972 0.0150006 0.
0.557974 0.015001 0.
0.559976 0.0150015 0.
0.561978 0.015002 0.
0.56398 0.0150026 0.
0.565982 0.0150032 0.
0.567984 0.0150036 0.
0.569986 0.015004 0.
0.571988 0.0150043 0.
0.573989 0.0150049 0.
0.575989 0.0150055 0.
0.57799 0.0150061 0.
0.579991 0.0150063 0.
0.581992 0.0150066 0.
0.583993 0.0150068 0.
0.585994 0.0150071 0.
0.587995 0.0150074 0.
0.589996 0.0150075 0.
0.591997 0.0150075 0.
0.593997 0.0150075 0.
0.595998 0.0150075 0.
0.597999 0.0150074 0.
0.6 0.0150074 0.
0.602001 0.0150075 0.
0.604002 0.0150076 0.
0.606002 0.0150076 0.
0.608003 0.0150076 0.
0.610004 0.0150075 0.
0.612005 0.0150072 0.
0.614006 0.0150067 0.
0.616007 0.0150061 0.
0.618008 0.0150058 0.
0.62001 0.0150055 0.
0.622011 0.0150053 0.
0.624012 0.0150046 0.
0.626013 0.0150039 0.
0.628014 0.0150033 0.
0.630016 0.0150028 0.
0.632018 0.0150023 0.
0.634019 0.0150019 0.
0.636021 0.0150015 0.
0.638023 0.0150011 0.
0.640026 0.0150005 0.
0.642028 0.0149999 0.
0.644031 0.0149992 0.
0.646034 0.0149981 0.
0.648038 0.014997 0.
0.650041 0.0149958 0.
0.65205 0.0149907 0.
0.654059 0.0149856 0.
0.656073 0.0149775 0.
0.658103 0.0149603 0.
0.660132 0.0149431 0.
0.662173 0.0149208 0.
0.664227 0.0148927 0.
0.666281 0.0148648 0.
0.668401 0.0148096 0.
0.670539 0.0147488 0.
0.672694 0.0146791 0.
0.675024 0.0144766 0.
0.677346 0.014278 0.
0.679889 0.0140062 0.
0.682543 0.0137083 0.
0.685314 0.0132964 0.
0.688301 0.0126514 0.
0.691546 0.0119338 0.
0.695043 0.011093 0.
0.698911 0.0100987 0.
0.703286 0.0088141 0.
0.707769 0.00702673 0.
0.712822 0.00502054 0.
0.718695 0.00269869 0.
0.47761 0.00265332 0.
0.483764 0.00511169 0.
0.488783 0.00718878 0.
0.493297 0.00927346 0.
0.497808 0.0108551 0.
0.501797 0.0121272 0.
0.505536 0.0131905 0.
0.508949 0.0139979 0.
0.512042 0.0146934 0.
0.514905 0.0152847 0.
0.517568 0.0156557 0.
0.520129 0.0159231 0.
0.522604 0.0161735 0.
0.524906 0.0163848 0.
0.527218 0.016601 0.
0.529386 0.0166878 0.
0.531534 0.0167618 0.
0.533667 0.0168296 0.
0.535728 0.0168616 0.
0.537791 0.0168937 0.
0.539839 0.0169203 0.
0.541874 0.0169418 0.
0.543909 0.0169634 0.
0.545927 0.0169748 0.
0.54794 0.0169826 0.
0.549952 0.0169905 0.
0.551957 0.0169931 0.
0.553961 0.0169955 0.
0.555965 0.0169977 0.
0.557969 0.0169989 0.
0.559972 0.0170001 0.
0.561975 0.0170011 0.
0.563977 0.0170019 0.
0.565979 0.0170026 0.
0.567981 0.0170031 0.
0.569983 0.0170036 0.
0.571985 0.017004 0.
0.573986 0.0170048 0.
0.575987 0.0170055 0.
0.577988 0.0170062 0.
0.57999 0.0170065 0.
0.581991 0.0170068 0.
0.583992 0.0170071 0.
0.585993 0.0170075 0.
0.587994 0.0170079 0.
0.589995 0.0170081 0.
0.591996 0.017008 0.
0.593997 0.0170079 0.
0.595998 0.0170081 0.
0.597999 0.0170083 0.
0.6 0.0170086 0.
0.602001 0.0170085 0.
0.604002 0.0170084 0.
0.606003 0.0170083 0.
0.608004 0.017008 0.
0.610005 0.0170078 0.
0.612006 0.0170074 0.
0.614007 0.0170068 0.
0.616009 0.0170063 0.
0.61801 0.0170058 0.
0.620012 0.0170055 0.
0.622013 0.0170051 0.
0.624014 0.0170044 0.
0.626015 0.0170036 0.
0.628016 0.0170028 0.
0.630018 0.0170022 0.
0.63202 0.0170015 0.
0.634023 0.0170009 0.
0.636025 0.0170001 0.
0.638028 0.0169993 0.
0.640031 0.0169981 0.
0.642035 0.0169965 0.
0.644039 0.0169948 0.
0.646045 0.0169917 0.
0.648051 0.0169882 0.
0.650058 0.0169844 0.
0.652075 0.0169737 0.
0.654093 0.0169629 0.
0.656118 0.0169474 0.
0.658164 0.0169184 0.
0.660209 0.0168897 0.
0.662274 0.0168566 0.
0.664355 0.0168187 0.
0.666435 0.0167811 0.
0.668626 0.0166722 0.
0.670833 0.0165547 0.
0.673074 0.0164239 0.
0.675457 0.0161788 0.
0.677825 0.0159426 0.
0.680497 0.0155762 0.
0.68323 0.0152099 0.
0.686136 0.014635 0.
0.689181 0.0138607 0.
0.692633 0.0129453 0.
0.696302 0.0119475 0.
0.70028 0.0108027 0.
0.704801 0.00926987 0.
0.709449 0.00729749 0.
0.714637 0.00524244 0.
0.720895 0.00280463 0.
0.475477 0.00276068 0.
0.481982 0.0053136 0.
0.487116 0.00740693 0.
0.491719 0.00955758 0.
0.496274 0.0113285 0.
0.500456 0.0128583 0.
0.504358 0.0141335 0.
0.507883 0.0150695 0.
0.511109 0.0159036 0.
0.514048 0.0165949 0.
0.516889 0.0171431 0.
0.519528 0.017506 0.
0.522132 0.0178641 0.
0.524506 0.0181239 0.
0.526892 0.01839 0.
0.529138 0.0185305 0.
0.53135 0.018651 0.
0.533544 0.0187624 0.
0.535627 0.018802 0.
0.53771 0.0188417 0.
0.539777 0.0188771 0.
0.541827 0.0189089 0.
0.543877 0.0189409 0.
0.545904 0.0189583 0.
0.547922 0.0189704 0.
0.54994 0.0189825 0.
0.551946 0.0189869 0.
0.553953 0.0189911 0.
0.555959 0.0189949 0.
0.557963 0.0189968 0.
0.559967 0.0189987 0.
0.561971 0.0190002 0.
0.563973 0.0190011 0.
0.565976 0.019002 0.
0.567978 0.0190026 0.
0.569981 0.0190032 0.
0.571983 0.0190038 0.
0.573984 0.0190046 0.
0.575985 0.0190055 0.
0.577986 0.0190064 0.
0.579988 0.0190067 0.
0.58199 0.019007 0.
0.583991 0.0190074 0.
0.585992 0.0190079 0.
0.587994 0.0190084 0.
0.589995 0.0190086 0.
0.591996 0.0190085 0.
0.593997 0.0190084 0.
0.595998 0.0190087 0.
0.597999 0.0190092 0.
0.6 0.0190097 0.
0.602001 0.0190094 0.
0.604002 0.0190092 0.
0.606003 0.0190089 0.
0.608004 0.0190085 0.
0.610006 0.019008 0.
0.612007 0.0190075 0.
0.614008 0.019007 0.
0.61601 0.0190064 0.
0.618012 0.0190059 0.
0.620013 0.0190055 0.
0.622015 0.019005 0.
0.624016 0.0190041 0.
0.626017 0.0190032 0.
0.628018 0.0190023 0.
0.630021 0.0190015 0.
0.632023 0.0190007 0.
0.634026 0.0189999 0.
0.636029 0.0189987 0.
0.638032 0.0189976 0.
0.640037 0.0189956 0.
0.642042 0.018993 0.
0.644047 0.0189905 0.
0.646056 0.0189852 0.
0.648065 0.0189793 0.
0.650074 0.0189731 0.
0.6521 0.0189565 0.
0.654126 0.01894 0.
0.656163 0.0189167 0.
0.658226 0.0188758 0.
0.660289 0.0188351 0.
0.662378 0.0187908 0.
0.664488 0.0187424 0.
0.666596 0.0186943 0.
0.668869 0.0185214 0.
0.671155 0.0183411 0.
0.673493 0.0181411 0.
0.675952 0.0178382 0.
0.678426 0.0175266 0.
0.681219 0.0170364 0.
0.684054 0.0165425 0.
0.68708 0.0157696 0.
0.690193 0.0149137 0.
0.693759 0.0138891 0.
0.697612 0.0127186 0.
0.701726 0.0113728 0.
0.706274 0.00966524 0.
0.711017 0.00757259 0.
0.716301 0.00551887 0.
0.722765 0.00299964 0.
0.473365 0.00290081 0.
0.480316 0.00556644 0.
0.485506 0.00766165 0.
0.490241 0.00982855 0.
0.494822 0.011765 0.
0.499119 0.013486 0.
0.503079 0.0148952 0.
0.506719 0.0160031 0.
0.51008 0.0170324 0.
0.513156 0.0178642 0.
0.516179 0.0185857 0.
0.518922 0.0190576 0.
0.521636 0.0195306 0.
0.524109 0.0198377 0.
0.526559 0.0201402 0.
0.52888 0.0203375 0.
0.531148 0.0205109 0.
0.533402 0.0206779 0.
0.535508 0.020726 0.
0.537616 0.0207744 0.
0.539705 0.0208202 0.
0.541769 0.0208642 0.
0.543834 0.0209086 0.
0.54587 0.0209341 0.
0.547896 0.0209523 0.
0.549922 0.0209705 0.
0.551932 0.0209775 0.
0.553941 0.0209841 0.
0.55595 0.02099 0.
0.557956 0.020993 0.
0.559961 0.020996 0.
0.561966 0.0209982 0.
0.563969 0.0209994 0.
0.565973 0.0210006 0.
0.567975 0.0210015 0.
0.569978 0.0210022 0.
0.571981 0.0210029 0.
0.573982 0.0210039 0.
0.575983 0.0210049 0.
0.577984 0.0210058 0.
0.579986 0.0210062 0.
0.581988 0.0210066 0.
0.58399 0.0210071 0.
0.585991 0.0210077 0.
0.587993 0.0210083 0.
0.589994 0.0210085 0.
0.591996 0.0210085 0.
0.593997 0.0210084 0.
0.595998 0.0210089 0.
0.597999 0.0210095 0.
0.6 0.0210101 0.
0.602002 0.0210097 0.
0.604003 0.0210094 0.
0.606004 0.021009 0.
0.608005 0.0210084 0.
0.610006 0.0210078 0.
0.612008 0.0210072 0.
0.61401 0.0210065 0.
0.616011 0.0210059 0.
0.618013 0.0210054 0.
0.620015 0.0210048 0.
0.622017 0.0210043 0.
0.624018 0.0210033 0.
0.626019 0.0210023 0.
0.628021 0.0210012 0.
0.630024 0.0210002 0.
0.632027 0.0209992 0.
0.63403 0.0209979 0.
0.636034 0.0209963 0.
0.638038 0.0209946 0.
0.640044 0.0209916 0.
0.642051 0.0209877 0.
0.644058 0.0209838 0.
0.64607 0.0209756 0.
0.648083 0.0209663 0.
0.650097 0.0209564 0.
0.652134 0.0209316 0.
0.654171 0.0209068 0.
0.65622 0.0208739 0.
0.658301 0.0208204 0.
0.660382 0.0207673 0.
0.6625 0.020706 0.
0.664642 0.0206395 0.
0.666786 0.0205731 0.
0.66913 0.0203336 0.
0.671481 0.0200934 0.
0.673912 0.019827 0.
0.676445 0.0194755 0.
0.679053 0.0190761 0.
0.68195 0.0184636 0.
0.684926 0.017786 0.
0.688058 0.0168453 0.
0.691347 0.0158255 0.
0.694909 0.014749 0.
0.698902 0.0134216 0.
0.703158 0.0118386 0.
0.707699 0.00998438 0.
0.712491 0.00786536 0.
0.717879 0.00579538 0.
0.724834 0.00320085 0.
0.471508 0.00316612 0.
0.478817 0.00588392 0.
0.484087 0.00797962 0.
0.48891 0.0101406 0.
0.493523 0.0122094 0.
0.497848 0.0140431 0.
0.501868 0.0155801 0.
0.50564 0.0168968 0.
0.509095 0.0180713 0.
0.512338 0.0190872 0.
0.515492 0.0199213 0.
0.51835 0.0204797 0.
0.521133 0.0210159 0.
0.523691 0.0214073 0.
0.526197 0.0217868 0.
0.528592 0.0220734 0.
0.530911 0.0223205 0.
0.533226 0.0225658 0.
0.535365 0.0226274 0.
0.537503 0.0226877 0.
0.539618 0.0227466 0.
0.541698 0.0228059 0.
0.543778 0.0228656 0.
0.545827 0.0229017 0.
0.547863 0.0229278 0.
0.5499 0.0229541 0.
0.551914 0.0229646 0.
0.553927 0.0229744 0.
0.555939 0.0229832 0.
0.557947 0.0229875 0.
0.559955 0.0229917 0.
0.561961 0.0229949 0.
0.563965 0.0229966 0.
0.565969 0.0229983 0.
0.567972 0.0229996 0.
0.569975 0.0230005 0.
0.571978 0.0230015 0.
0.57398 0.0230025 0.
0.575981 0.0230036 0.
0.577983 0.0230045 0.
0.579984 0.0230051 0.
0.581986 0.0230057 0.
0.583988 0.0230062 0.
0.58599 0.0230069 0.
0.587992 0.0230075 0.
0.589994 0.0230078 0.
0.591995 0.023008 0.
0.593996 0.0230081 0.
0.595998 0.0230086 0.
0.597999 0.0230091 0.
0.6 0.0230097 0.
0.602002 0.0230093 0.
0.604003 0.0230089 0.
0.606004 0.0230084 0.
0.608006 0.0230077 0.
0.610007 0.023007 0.
0.612009 0.0230062 0.
0.614011 0.0230056 0.
0.616013 0.0230049 0.
0.618015 0.0230042 0.
0.620017 0.0230036 0.
0.622019 0.023003 0.
0.62402 0.0230019 0.
0.626022 0.0230008 0.
0.628023 0.0229997 0.
0.630027 0.0229982 0.
0.63203 0.0229968 0.
0.634034 0.0229951 0.
0.636039 0.0229927 0.
0.638044 0.0229903 0.
0.640052 0.0229861 0.
0.642062 0.0229804 0.
0.644072 0.0229747 0.
0.646089 0.0229626 0.
0.648107 0.0229489 0.
0.650127 0.0229342 0.
0.652177 0.0228982 0.
0.654227 0.0228624 0.
0.656293 0.0228173 0.
0.658393 0.0227501 0.
0.660493 0.0226834 0.
0.662648 0.0225929 0.
0.664834 0.0224922 0.
0.66703 0.0223841 0.
0.669424 0.0220663 0.
0.671817 0.0217526 0.
0.674344 0.0213917 0.
0.676952 0.0209727 0.
0.679676 0.0204731 0.
0.682613 0.0198114 0.
0.685723 0.0189633 0.
0.688947 0.0178899 0.
0.692414 0.0167066 0.
0.696065 0.0154827 0.
0.700082 0.0141018 0.
0.704452 0.0122981 0.
0.708997 0.0103248 0.
0.713851 0.0082066 0.
0.719292 0.00612571 0.
0.726752 0.00347712 0.
0.470145 0.00366099 0.
0.477553 0.00629631 0.
0.482866 0.00836438 0.
0.487748 0.0105047 0.
0.492361 0.0126446 0.
0.496662 0.0145657 0.
0.500726 0.0162305 0.
0.504584 0.0177078 0.
0.508126 0.0190304 0.
0.511498 0.0201889 0.
0.514699 0.0210968 0.
0.517709 0.0218137 0.
0.520583 0.0224542 0.
0.523256 0.0229592 0.
0.525823 0.0234182 0.
0.528297 0.0237994 0.
0.530667 0.0241212 0.
0.533041 0.0244467 0.
0.535219 0.024528 0.
0.537389 0.0246002 0.
0.539531 0.0246724 0.
0.541626 0.0247469 0.
0.543721 0.024822 0.
0.545783 0.024869 0.
0.54783 0.0249033 0.
0.549877 0.0249377 0.
0.551896 0.0249517 0.
0.553913 0.0249647 0.
0.555929 0.0249763 0.
0.557938 0.0249819 0.
0.559948 0.0249875 0.
0.561956 0.0249916 0.
0.56396 0.0249939 0.
0.565965 0.0249961 0.
0.567969 0.0249977 0.
0.569973 0.0249989 0.
0.571976 0.0250001 0.
0.573978 0.0250012 0.
0.575979 0.0250022 0.
0.577981 0.0250032 0.
0.579983 0.025004 0.
0.581985 0.0250047 0.
0.583987 0.0250054 0.
0.585989 0.025006 0.
0.587991 0.0250067 0.
0.589993 0.0250071 0.
0.591994 0.0250074 0.
0.593996 0.0250078 0.
0.595997 0.0250083 0.
0.597999 0.0250088 0.
0.6 0.0250093 0.
0.602002 0.0250089 0.
0.604003 0.0250084 0.
0.606005 0.0250079 0.
0.608007 0.025007 0.
0.610008 0.0250061 0.
0.61201 0.0250053 0.
0.614012 0.0250046 0.
0.616014 0.0250038 0.
0.618016 0.0250031 0.
0.620019 0.0250024 0.
0.622021 0.0250016 0.
0.624022 0.0250005 0.
0.626024 0.0249993 0.
0.628026 0.0249981 0.
0.63003 0.0249963 0.
0.632034 0.0249945 0.
0.634038 0.0249923 0.
0.636044 0.0249892 0.
0.638051 0.0249861 0.
0.640061 0.0249805 0.
0.642073 0.0249731 0.
0.644086 0.0249656 0.
0.646108 0.0249496 0.
0.648131 0.0249315 0.
0.650157 0.0249118 0.
0.652221 0.0248646 0.
0.654284 0.0248176 0.
0.656366 0.0247602 0.
0.658486 0.0246793 0.
0.660605 0.024599 0.
0.662801 0.0244764 0.
0.66503 0.0243406 0.
0.667284 0.0241859 0.
0.669725 0.0237893 0.
0.67216 0.0234013 0.
0.674801 0.0229356 0.
0.677498 0.022434 0.
0.680365 0.0217818 0.
0.68336 0.0210091 0.
0.686545 0.0200108 0.
0.68984 0.0188696 0.
0.693425 0.0175539 0.
0.697188 0.0161695 0.
0.701227 0.0146877 0.
0.705616 0.0127669 0.
0.710163 0.0107146 0.
0.715052 0.00861611 0.
0.720523 0.00654446 0.
0.728123 0.00394169 0.
0.469486 0.00439653 0.
0.476575 0.00682922 0.
0.481875 0.00884806 0.
0.486767 0.0109539 0.
0.491306 0.0131042 0.
0.495584 0.0150959 0.
0.499679 0.0168743 0.
0.503533 0.0184481 0.
0.507173 0.0199 0.
0.510628 0.0212025 0.
0.51389 0.0222306 0.
0.517046 0.023119 0.
0.52 0.0238528 0.
0.522791 0.0244743 0.
0.525396 0.0249966 0.
0.52793 0.0254574 0.
0.530331 0.0258265 0.
0.532742 0.0262021 0.
0.53498 0.0263373 0.
0.537196 0.0264492 0.
0.539383 0.0265562 0.
0.5415 0.0266459 0.
0.543618 0.0267365 0.
0.545701 0.0267998 0.
0.547766 0.0268497 0.
0.549832 0.0269001 0.
0.551859 0.0269218 0.
0.553884 0.0269417 0.
0.555907 0.0269595 0.
0.557921 0.026968 0.
0.559935 0.0269765 0.
0.561946 0.0269832 0.
0.563953 0.0269872 0.
0.56596 0.0269913 0.
0.567965 0.0269941 0.
0.569969 0.0269962 0.
0.571973 0.0269982 0.
0.573975 0.0269996 0.
0.575977 0.0270008 0.
0.577979 0.027002 0.
0.579981 0.0270028 0.
0.581983 0.0270035 0.
0.583986 0.0270043 0.
0.585988 0.0270051 0.
0.58799 0.0270059 0.
0.589992 0.0270065 0.
0.591994 0.0270069 0.
0.593996 0.0270074 0.
0.595997 0.0270079 0.
0.597999 0.0270086 0.
0.6 0.0270092 0.
0.602002 0.0270086 0.
0.604004 0.027008 0.
0.606005 0.0270073 0.
0.608007 0.0270064 0.
0.610009 0.0270055 0.
0.612011 0.0270046 0.
0.614013 0.0270037 0.
0.616016 0.0270028 0.
0.618018 0.027002 0.
0.62002 0.0270011 0.
0.622023 0.0270003 0.
0.624025 0.0269988 0.
0.626027 0.0269971 0.
0.628029 0.0269954 0.
0.630034 0.0269925 0.
0.632039 0.0269897 0.
0.634045 0.0269858 0.
0.636054 0.0269802 0.
0.638063 0.0269746 0.
0.640078 0.0269658 0.
0.642096 0.0269547 0.
0.644115 0.0269437 0.
0.646146 0.0269195 0.
0.64818 0.0268926 0.
0.650218 0.0268626 0.
0.652303 0.0267954 0.
0.654388 0.0267289 0.
0.656497 0.0266524 0.
0.658648 0.0265547 0.
0.660796 0.0264582 0.
0.663041 0.026287 0.
0.665314 0.0261019 0.
0.667632 0.0258787 0.
0.670104 0.0254298 0.
0.672562 0.0249948 0.
0.675301 0.0244426 0.
0.678081 0.0238636 0.
0.681078 0.023051 0.
0.684148 0.0221448 0.
0.687402 0.020974 0.
0.690748 0.0197569 0.
0.694378 0.0183782 0.
0.698241 0.0168464 0.
0.702296 0.0152193 0.
0.706654 0.0132617 0.
0.711203 0.0111658 0.
0.716039 0.00911117 0.
0.721501 0.00707713 0.
0.72875 0.00468138 0.
0.469355 0.0053824 0.
0.475809 0.00748736 0.
0.481034 0.00941544 0.
0.485872 0.0114684 0.
0.490345 0.0136045 0.
0.494599 0.0156473 0.
0.498666 0.0174978 0.
0.502537 0.0191591 0.
0.506244 0.0207128 0.
0.50974 0.0221471 0.
0.513073 0.0233084 0.
0.516345 0.0243532 0.
0.519336 0.0251491 0.
0.522207 0.0258883 0.
0.524851 0.02648 0.
0.527485 0.0270523 0.
0.529938 0.0274798 0.
0.5324 0.0279143 0.
0.534713 0.0281199 0.
0.536984 0.0282821 0.
0.539224 0.0284341 0.
0.541366 0.0285403 0.
0.54351 0.0286474 0.
0.545616 0.0287282 0.
0.5477 0.0287946 0.
0.549786 0.0288617 0.
0.551822 0.0288915 0.
0.553854 0.0289184 0.
0.555885 0.0289426 0.
0.557903 0.028954 0.
0.559922 0.0289655 0.
0.561937 0.0289747 0.
0.563946 0.0289806 0.
0.565955 0.0289866 0.
0.567961 0.0289905 0.
0.569966 0.0289934 0.
0.571971 0.0289963 0.
0.573973 0.0289979 0.
0.575975 0.0289994 0.
0.577977 0.0290008 0.
0.579979 0.0290016 0.
0.581982 0.0290024 0.
0.583985 0.0290032 0.
0.585987 0.0290042 0.
0.587989 0.0290052 0.
0.589992 0.0290059 0.
0.591993 0.0290064 0.
0.593995 0.029007 0.
0.595997 0.0290076 0.
0.597999 0.0290083 0.
0.6 0.029009 0.
0.602002 0.0290082 0.
0.604004 0.0290075 0.
0.606006 0.0290067 0.
0.608008 0.0290058 0.
0.61001 0.0290048 0.
0.612012 0.0290038 0.
0.614015 0.0290028 0.
0.616017 0.0290018 0.
0.61802 0.0290008 0.
0.620022 0.0289999 0.
0.622025 0.028999 0.
0.624027 0.028997 0.
0.62603 0.0289949 0.
0.628032 0.0289926 0.
0.630038 0.0289887 0.
0.632043 0.0289848 0.
0.634051 0.0289794 0.
0.636064 0.0289713 0.
0.638076 0.0289631 0.
0.640095 0.028951 0.
0.64212 0.0289362 0.
0.644144 0.0289214 0.
0.646186 0.0288889 0.
0.64823 0.0288529 0.
0.650281 0.028812 0.
0.652389 0.0287236 0.
0.654495 0.0286363 0.
0.656636 0.0285389 0.
0.658822 0.0284217 0.
0.661006 0.028306 0.
0.66331 0.0280736 0.
0.665635 0.0278302 0.
0.66804 0.0275175 0.
0.670579 0.0269921 0.
0.673135 0.0264615 0.
0.675917 0.0258146 0.
0.678752 0.0251618 0.
0.681813 0.0242573 0.
0.684967 0.0231961 0.
0.688256 0.021903 0.
0.691674 0.0205766 0.
0.695299 0.0191624 0.
0.699222 0.0175258 0.
0.703294 0.0157657 0.
0.707576 0.0137956 0.
0.712077 0.0116976 0.
0.716838 0.00968443 0.
0.722211 0.00774201 0.
0.7289 0.00569185 0.
0.469424 0.00649266 0.
0.475219 0.00824761 0.
0.480329 0.0100546 0.
0.485063 0.0120432 0.
0.489464 0.0141455 0.
0.493682 0.0162176 0.
0.49772 0.0181251 0.
0.501599 0.0198521 0.
0.505347 0.0215043 0.
0.508862 0.0230255 0.
0.512263 0.0243246 0.
0.515563 0.0254328 0.
0.518607 0.0263419 0.
0.521561 0.0272378 0.
0.524294 0.0279411 0.
0.527018 0.0286235 0.
0.529545 0.0291208 0.
0.53206 0.0296101 0.
0.53445 0.0298857 0.
0.536768 0.0300967 0.
0.539061 0.0302993 0.
0.541227 0.0304206 0.
0.543395 0.0305435 0.
0.545524 0.0306425 0.
0.547626 0.0307273 0.
0.549729 0.0308134 0.
0.551777 0.0308534 0.
0.553819 0.0308888 0.
0.555858 0.0309209 0.
0.557881 0.0309359 0.
0.559905 0.030951 0.
0.561924 0.0309633 0.
0.563936 0.0309716 0.
0.565948 0.0309799 0.
0.567956 0.0309855 0.
0.569962 0.0309896 0.
0.571967 0.0309937 0.
0.57397 0.0309957 0.
0.575973 0.0309975 0.
0.577975 0.0309992 0.
0.579978 0.0310001 0.
0.581981 0.031001 0.
0.583983 0.0310019 0.
0.585986 0.031003 0.
0.587989 0.0310041 0.
0.589991 0.0310049 0.
0.591993 0.0310056 0.
0.593995 0.0310062 0.
0.595997 0.0310069 0.
0.597999 0.0310076 0.
0.6 0.0310083 0.
0.602002 0.0310074 0.
0.604004 0.0310066 0.
0.606006 0.0310057 0.
0.608008 0.0310047 0.
0.610011 0.0310038 0.
0.612013 0.0310027 0.
0.614016 0.0310016 0.
0.616018 0.0310005 0.
0.618021 0.0309994 0.
0.620024 0.0309982 0.
0.622027 0.030997 0.
0.62403 0.0309946 0.
0.626033 0.030992 0.
0.628037 0.030989 0.
0.630044 0.0309836 0.
0.63205 0.0309781 0.
0.634061 0.0309706 0.
0.636077 0.0309592 0.
0.638093 0.0309479 0.
0.640118 0.0309319 0.
0.642148 0.0309127 0.
0.644179 0.0308936 0.
0.646232 0.0308504 0.
0.648289 0.030803 0.
0.650354 0.0307486 0.
0.652482 0.0306385 0.
0.654609 0.0305298 0.
0.65678 0.0304092 0.
0.659 0.0302715 0.
0.661218 0.0301376 0.
0.663578 0.0298451 0.
0.665954 0.029544 0.
0.668452 0.0291365 0.
0.671061 0.0285365 0.
0.673721 0.0278975 0.
0.67656 0.0271341 0.
0.679485 0.0263391 0.
0.682572 0.0253584 0.
0.685775 0.0241869 0.
0.689094 0.022806 0.
0.692591 0.0213748 0.
0.696224 0.0198814 0.
0.700122 0.0182078 0.
0.704206 0.0163376 0.
0.708433 0.0143602 0.
0.712861 0.0122844 0.
0.717514 0.0103154 0.
0.722751 0.00850333 0.
0.728774 0.00682279 0.
0.46952 0.0076609 0.
0.474797 0.00910817 0.
0.479729 0.0107694 0.
0.484335 0.012685 0.
0.488685 0.0147459 0.
0.492858 0.0168233 0.
0.496868 0.0187734 0.
0.500734 0.0205539 0.
0.504507 0.0222798 0.
0.508055 0.0238819 0.
0.511482 0.0252865 0.
0.514791 0.0264564 0.
0.517921 0.0275038 0.
0.520945 0.0285385 0.
0.523781 0.0293723 0.
0.526566 0.0301176 0.
0.529156 0.0306656 0.
0.531711 0.031195 0.
0.534162 0.0315577 0.
0.536528 0.0318463 0.
0.53888 0.0321303 0.
0.541072 0.032271 0.
0.543266 0.0324134 0.
0.545419 0.0325351 0.
0.547539 0.0326432 0.
0.54966 0.0327529 0.
0.551721 0.032806 0.
0.553775 0.0328519 0.
0.555825 0.0328937 0.
0.557855 0.0329132 0.
0.559884 0.0329328 0.
0.561908 0.0329489 0.
0.563923 0.03296 0.
0.565939 0.0329712 0.
0.567949 0.0329789 0.
0.569956 0.0329846 0.
0.571963 0.0329904 0.
0.573967 0.032993 0.
0.57597 0.0329951 0.
0.577973 0.0329972 0.
0.579976 0.0329982 0.
0.581979 0.0329993 0.
0.583982 0.0330004 0.
0.585985 0.0330015 0.
0.587988 0.0330027 0.
0.58999 0.0330036 0.
0.591992 0.0330043 0.
0.593994 0.0330051 0.
0.595996 0.0330058 0.
0.597998 0.0330064 0.
0.6 0.0330071 0.
0.602003 0.0330062 0.
0.604005 0.0330052 0.
0.606007 0.0330043 0.
0.608009 0.0330033 0.
0.610012 0.0330023 0.
0.612014 0.0330012 0.
0.614017 0.0330001 0.
0.61602 0.032999 0.
0.618023 0.0329976 0.
0.620026 0.032996 0.
0.622029 0.0329945 0.
0.624033 0.0329914 0.
0.626037 0.0329882 0.
0.628042 0.0329845 0.
0.630051 0.032977 0.
0.63206 0.0329695 0.
0.634073 0.0329592 0.
0.636093 0.0329439 0.
0.638114 0.0329286 0.
0.640145 0.0329079 0.
0.642182 0.0328836 0.
0.64422 0.0328594 0.
0.646287 0.0328022 0.
0.648359 0.0327399 0.
0.650441 0.032668 0.
0.652588 0.0325334 0.
0.654734 0.0324006 0.
0.656937 0.0322436 0.
0.659191 0.0320652 0.
0.661448 0.0318864 0.
0.663865 0.0315248 0.
0.666284 0.0311645 0.
0.668858 0.0306624 0.
0.671509 0.0300163 0.
0.674258 0.0292875 0.
0.677149 0.02843 0.
0.68017 0.0274951 0.
0.683296 0.0264278 0.
0.686547 0.0251246 0.
0.689895 0.0236919 0.
0.69343 0.0221803 0.
0.697106 0.0205893 0.
0.700989 0.0188823 0.
0.705022 0.0169564 0.
0.709201 0.0149793 0.
0.713564 0.0129312 0.
0.71809 0.0110205 0.
0.723144 0.00936468 0.
0.728596 0.00800508 0.
0.469784 0.00890955 0.
0.474611 0.0100784 0.
0.479294 0.0115834 0.
0.483757 0.0134188 0.
0.488038 0.0154208 0.
0.492133 0.0174811 0.
0.49611 0.0194592 0.
0.499972 0.0212836 0.
0.50373 0.0230533 0.
0.507297 0.024724 0.
0.51074 0.0262279 0.
0.51406 0.0274666 0.
0.517265 0.0286305 0.
0.520329 0.0297527 0.
0.523224 0.0306839 0.
0.526038 0.031502 0.
0.528718 0.0321551 0.
0.531335 0.0327559 0.
0.533864 0.0332177 0.
0.536279 0.0335858 0.
0.538692 0.0339568 0.
0.540914 0.0341198 0.
0.543135 0.0342819 0.
0.545314 0.0344265 0.
0.547451 0.034558 0.
0.54959 0.0346914 0.
0.551665 0.0347582 0.
0.553731 0.0348147 0.
0.555793 0.0348665 0.
0.557828 0.0348905 0.
0.559863 0.0349145 0.
0.561892 0.0349345 0.
0.563911 0.0349485 0.
0.56593 0.0349625 0.
0.567942 0.0349723 0.
0.569951 0.0349797 0.
0.57196 0.0349871 0.
0.573964 0.0349902 0.
0.575968 0.0349927 0.
0.577972 0.0349951 0.
0.579975 0.0349964 0.
0.581978 0.0349977 0.
0.583981 0.0349989 0.
0.585984 0.0350001 0.
0.587987 0.0350012 0.
0.589989 0.0350022 0.
0.591991 0.0350031 0.
0.593994 0.035004 0.
0.595996 0.0350047 0.
0.597998 0.0350053 0.
0.6 0.0350059 0.
0.602003 0.0350049 0.
0.604005 0.0350039 0.
0.606008 0.0350029 0.
0.60801 0.0350018 0.
0.610012 0.0350008 0.
0.612015 0.0349997 0.
0.614018 0.0349986 0.
0.616021 0.0349974 0.
0.618024 0.0349958 0.
0.620028 0.0349939 0.
0.622032 0.034992 0.
0.624036 0.0349883 0.
0.626041 0.0349845 0.
0.628047 0.0349799 0.
0.630058 0.0349704 0.
0.632069 0.0349609 0.
0.634085 0.0349478 0.
0.63611 0.0349285 0.
0.638135 0.0349092 0.
0.640172 0.0348839 0.
0.642217 0.0348545 0.
0.644261 0.0348252 0.
0.646343 0.0347535 0.
0.64843 0.0346762 0.
0.650529 0.0345863 0.
0.652696 0.0344271 0.
0.65486 0.03427 0.
0.657098 0.0340737 0.
0.659386 0.033854 0.
0.661688 0.0336281 0.
0.664163 0.0331933 0.
0.666632 0.032765 0.
0.669301 0.0321437 0.
0.672009 0.0314184 0.
0.674825 0.0305752 0.
0.67773 0.029668 0.
0.680828 0.0286213 0.
0.68399 0.0274746 0.
0.687279 0.0260439 0.
0.690653 0.0245578 0.
0.694209 0.0229966 0.
0.697901 0.0213218 0.
0.701757 0.0195716 0.
0.705742 0.0176257 0.
0.709858 0.0156654 0.
0.714128 0.0136589 0.
0.71853 0.0118185 0.
0.723296 0.010314 0.
0.728277 0.00924194 0.
0.470176 0.0101999 0.
0.474611 0.0111564 0.
0.479025 0.0125046 0.
0.483323 0.0142416 0.
0.487514 0.0161789 0.
0.491549 0.0182144 0.
0.495482 0.0202036 0.
0.499309 0.0220512 0.
0.503042 0.0238504 0.
0.506603 0.0255725 0.
0.510051 0.0271648 0.
0.513377 0.0284728 0.
0.516627 0.0297169 0.
0.519697 0.0308791 0.
0.522651 0.0319592 0.
0.5255 0.0328657 0.
0.528266 0.0336268 0.
0.530936 0.0342921 0.
0.533538 0.0348501 0.
0.535985 0.0352738 0.
0.538433 0.0357119 0.
0.540695 0.0359117 0.
0.542945 0.0361022 0.
0.545157 0.0362769 0.
0.547316 0.0364291 0.
0.549478 0.0365831 0.
0.551576 0.0366721 0.
0.553661 0.0367495 0.
0.555742 0.0368215 0.
0.557785 0.0368506 0.
0.559827 0.0368797 0.
0.561862 0.0369051 0.
0.563888 0.0369252 0.
0.565913 0.0369453 0.
0.56793 0.0369591 0.
0.569941 0.0369691 0.
0.571953 0.0369792 0.
0.573959 0.0369838 0.
0.575964 0.0369876 0.
0.577969 0.0369912 0.
0.579973 0.0369931 0.
0.581976 0.0369951 0.
0.58398 0.0369969 0.
0.585983 0.0369983 0.
0.587986 0.0369998 0.
0.589989 0.037001 0.
0.591991 0.037002 0.
0.593994 0.037003 0.
0.595996 0.0370036 0.
0.597998 0.037004 0.
0.6 0.0370045 0.
0.602003 0.0370035 0.
0.604005 0.0370026 0.
0.606008 0.0370016 0.
0.60801 0.0370005 0.
0.610013 0.0369994 0.
0.612016 0.036998 0.
0.614019 0.0369964 0.
0.616022 0.0369948 0.
0.618026 0.0369924 0.
0.620031 0.0369897 0.
0.622036 0.0369869 0.
0.624042 0.0369818 0.
0.626049 0.0369764 0.
0.628056 0.0369699 0.
0.630071 0.0369569 0.
0.632086 0.0369438 0.
0.634107 0.0369255 0.
0.63614 0.0368984 0.
0.638173 0.0368715 0.
0.640217 0.0368402 0.
0.64227 0.0368059 0.
0.644322 0.0367716 0.
0.64643 0.036672 0.
0.648541 0.0365668 0.
0.650667 0.0364504 0.
0.652855 0.0362735 0.
0.655039 0.0360986 0.
0.657316 0.0358553 0.
0.659636 0.0355899 0.
0.661981 0.0353117 0.
0.664484 0.0348298 0.
0.667008 0.0343368 0.
0.669761 0.033602 0.
0.672524 0.0327976 0.
0.675411 0.0318227 0.
0.678343 0.0308269 0.
0.681461 0.0297183 0.
0.684663 0.0284886 0.
0.687958 0.0269711 0.
0.691343 0.0254204 0.
0.694896 0.0238354 0.
0.698603 0.0220951 0.
0.702407 0.0203078 0.
0.706343 0.0183644 0.
0.71037 0.0164311 0.
0.71454 0.0144808 0.
0.718811 0.012712 0.
0.723293 0.0113419 0.
0.727872 0.0104809 0.
0.470637 0.011533 0.
0.474714 0.0123107 0.
0.478883 0.0135233 0.
0.483032 0.0151582 0.
0.487113 0.017025 0.
0.491082 0.0190263 0.
0.494953 0.0210058 0.
0.498736 0.0228641 0.
0.502437 0.0246784 0.
0.505982 0.0264464 0.
0.509399 0.0280987 0.
0.512733 0.0294802 0.
0.515993 0.0307565 0.
0.519073 0.031987 0.
0.522074 0.0332067 0.
0.524955 0.0341808 0.
0.527787 0.03504 0.
0.530477 0.0357476 0.
0.533137 0.036373 0.
0.53562 0.0368738 0.
0.53811 0.0373996 0.
0.540432 0.0376672 0.
0.542724 0.0379002 0.
0.54498 0.0381158 0.
0.547167 0.0382905 0.
0.549358 0.0384674 0.
0.551481 0.0385809 0.
0.553588 0.0386814 0.
0.555691 0.0387757 0.
0.55774 0.0388099 0.
0.55979 0.0388443 0.
0.561833 0.0388754 0.
0.563865 0.0389016 0.
0.565897 0.038928 0.
0.567917 0.0389458 0.
0.569931 0.0389586 0.
0.571946 0.0389713 0.
0.573953 0.0389774 0.
0.57596 0.0389824 0.
0.577966 0.0389872 0.
0.57997 0.0389899 0.
0.581975 0.0389926 0.
0.583979 0.0389949 0.
0.585982 0.0389966 0.
0.587986 0.0389983 0.
0.589988 0.0389997 0.
0.591991 0.0390008 0.
0.593994 0.0390019 0.
0.595996 0.0390024 0.
0.597998 0.0390028 0.
0.6 0.0390031 0.
0.602003 0.0390022 0.
0.604005 0.0390014 0.
0.606008 0.0390004 0.
0.608011 0.0389992 0.
0.610013 0.038998 0.
0.612016 0.0389963 0.
0.61402 0.0389942 0.
0.616024 0.0389921 0.
0.618029 0.038989 0.
0.620034 0.0389854 0.
0.62204 0.0389819 0.
0.624048 0.0389752 0.
0.626056 0.0389682 0.
0.628066 0.0389599 0.
0.630084 0.0389432 0.
0.632103 0.0389266 0.
0.63413 0.038903 0.
0.63617 0.038868 0.
0.638211 0.038833 0.
0.640264 0.0387956 0.
0.642324 0.0387562 0.
0.644385 0.0387169 0.
0.646521 0.0385857 0.
0.648661 0.0384491 0.
0.650817 0.0383034 0.
0.653033 0.038106 0.
0.655245 0.0379108 0.
0.657579 0.0376037 0.
0.659948 0.0372765 0.
0.662366 0.0369145 0.
0.664914 0.0363495 0.
0.667479 0.0357743 0.
0.670244 0.0349995 0.
0.673055 0.0341239 0.
0.675992 0.0330384 0.
0.678968 0.0319554 0.
0.682087 0.0307733 0.
0.685288 0.0294754 0.
0.688591 0.0279091 0.
0.691992 0.0262999 0.
0.695511 0.0246876 0.
0.699193 0.0229127 0.
0.702956 0.0211055 0.
0.706834 0.0191752 0.
0.71077 0.0172728 0.
0.714825 0.0153898 0.
0.718964 0.0137018 0.
0.723194 0.0124546 0.
0.727416 0.0117428 0.
0.471088 0.0128794 0.
0.474882 0.0135302 0.
0.478843 0.0146231 0.
0.482838 0.0161514 0.
0.486806 0.0179427 0.
0.490692 0.019898 0.
0.494503 0.0218613 0.
0.498239 0.02372 0.
0.50188 0.0255329 0.
0.50539 0.0273376 0.
0.508789 0.0290308 0.
0.512121 0.0304727 0.
0.515367 0.0317896 0.
0.518461 0.0330791 0.
0.521502 0.0344005 0.
0.524412 0.0354335 0.
0.527271 0.0363955 0.
0.530003 0.037171 0.
0.532718 0.0378736 0.
0.535254 0.0384589 0.
0.537785 0.0390714 0.
0.54017 0.0394152 0.
0.542505 0.0396898 0.
0.544806 0.0399487 0.
0.547018 0.0401413 0.
0.549236 0.0403378 0.
0.551384 0.0404768 0.
0.553511 0.0406031 0.
0.555633 0.0407242 0.
0.557691 0.0407635 0.
0.559748 0.0408028 0.
0.561798 0.0408396 0.
0.563837 0.0408728 0.
0.565875 0.0409063 0.
0.567901 0.0409289 0.
0.569919 0.0409451 0.
0.571936 0.0409613 0.
0.573946 0.0409692 0.
0.575954 0.0409758 0.
0.577962 0.0409822 0.
0.579967 0.0409857 0.
0.581973 0.0409891 0.
0.583978 0.0409922 0.
0.585981 0.0409942 0.
0.587985 0.0409963 0.
0.589988 0.0409979 0.
0.591991 0.0409992 0.
0.593993 0.0410005 0.
0.595996 0.041001 0.
0.597998 0.0410013 0.
0.6 0.0410016 0.
0.602003 0.0410007 0.
0.604006 0.0409998 0.
0.606008 0.0409988 0.
0.608011 0.0409974 0.
0.610014 0.0409959 0.
0.612018 0.040994 0.
0.614022 0.0409913 0.
0.616026 0.0409886 0.
0.618032 0.0409846 0.
0.620039 0.0409801 0.
0.622045 0.0409756 0.
0.624055 0.0409669 0.
0.626066 0.0409577 0.
0.628078 0.040947 0.
0.630101 0.0409258 0.
0.632124 0.0409048 0.
0.634157 0.0408752 0.
0.636206 0.040832 0.
0.638254 0.040789 0.
0.640316 0.0407442 0.
0.642387 0.0406979 0.
0.644456 0.0406519 0.
0.646618 0.0404865 0.
0.648782 0.0403181 0.
0.650967 0.0401443 0.
0.653209 0.0399317 0.
0.655448 0.0397191 0.
0.657843 0.0393416 0.
0.660262 0.0389527 0.
0.662757 0.0385016 0.
0.665356 0.0378515 0.
0.667988 0.0371563 0.
0.670775 0.0362963 0.
0.6736 0.0353571 0.
0.67655 0.0342247 0.
0.67957 0.0330705 0.
0.682692 0.0318268 0.
0.685893 0.0304348 0.
0.689182 0.028853 0.
0.692593 0.0271948 0.
0.696092 0.0255451 0.
0.699726 0.0237621 0.
0.703437 0.0219502 0.
0.707232 0.0200528 0.
0.711098 0.0181779 0.
0.715031 0.0163669 0.
0.71903 0.0147735 0.
0.723051 0.013627 0.
0.726965 0.0130219 0.
0.471515 0.0142743 0.
0.475099 0.0148107 0.
0.478881 0.0157839 0.
0.482714 0.0172084 0.
0.486572 0.0189226 0.
0.490369 0.0208278 0.
0.49411 0.0227664 0.
0.497783 0.0246174 0.
0.501361 0.0264209 0.
0.504838 0.028248 0.
0.508228 0.029966 0.
0.511541 0.0314752 0.
0.514777 0.0328366 0.
0.517905 0.0341737 0.
0.520957 0.0355299 0.
0.523889 0.0366574 0.
0.526778 0.0377277 0.
0.529559 0.0385883 0.
0.532322 0.0393531 0.
0.534906 0.0399953 0.
0.537452 0.0406592 0.
0.539882 0.0410819 0.
0.542257 0.0414071 0.
0.544609 0.0417223 0.
0.546852 0.0419444 0.
0.549102 0.0421715 0.
0.551278 0.0423461 0.
0.553423 0.0425075 0.
0.555566 0.0426647 0.
0.557633 0.0427091 0.
0.5597 0.0427535 0.
0.561759 0.0427964 0.
0.563804 0.0428378 0.
0.565849 0.0428795 0.
0.567881 0.0429081 0.
0.569903 0.0429285 0.
0.571925 0.042949 0.
0.573937 0.0429592 0.
0.575947 0.0429678 0.
0.577957 0.042976 0.
0.579963 0.0429804 0.
0.58197 0.0429849 0.
0.583976 0.0429887 0.
0.58598 0.0429913 0.
0.587984 0.0429938 0.
0.589987 0.0429957 0.
0.59199 0.0429972 0.
0.593993 0.0429987 0.
0.595996 0.0429993 0.
0.597998 0.0429996 0.
0.6 0.043 0.
0.602003 0.042999 0.
0.604006 0.042998 0.
0.606009 0.0429968 0.
0.608012 0.0429951 0.
0.610015 0.0429934 0.
0.612019 0.0429909 0.
0.614024 0.0429875 0.
0.616029 0.0429841 0.
0.618036 0.0429792 0.
0.620044 0.0429735 0.
0.622052 0.0429679 0.
0.624065 0.0429567 0.
0.626078 0.0429449 0.
0.628093 0.0429309 0.
0.630122 0.0429043 0.
0.63215 0.0428777 0.
0.63419 0.0428412 0.
0.636246 0.0427894 0.
0.638302 0.0427377 0.
0.640377 0.0426829 0.
0.642462 0.042626 0.
0.644546 0.042568 0.
0.646726 0.0423618 0.
0.648907 0.0421541 0.
0.65113 0.0419352 0.
0.65342 0.0416779 0.
0.655701 0.0414284 0.
0.658133 0.0409981 0.
0.66058 0.0405644 0.
0.663133 0.0400373 0.
0.665776 0.0393279 0.
0.668464 0.038523 0.
0.671273 0.0375853 0.
0.674128 0.0365574 0.
0.677083 0.035378 0.
0.680123 0.0341808 0.
0.683246 0.0328941 0.
0.68646 0.0314073 0.
0.68974 0.0298022 0.
0.693148 0.0281134 0.
0.696621 0.0264355 0.
0.700207 0.0246505 0.
0.703869 0.0228401 0.
0.707586 0.0209819 0.
0.711365 0.0191487 0.
0.715179 0.0174119 0.
0.719026 0.0159188 0.
0.722861 0.0148679 0.
0.726536 0.0143265 0.
0.471961 0.0156722 0.
0.47539 0.0161245 0.
0.479004 0.0170108 0.
0.482695 0.0183427 0.
0.486429 0.0199808 0.
0.490125 0.0218248 0.
0.493787 0.0237301 0.
0.497387 0.0255611 0.
0.500907 0.0273533 0.
0.504347 0.0291886 0.
0.507714 0.030922 0.
0.511017 0.0324975 0.
0.514248 0.0338918 0.
0.51738 0.0352566 0.
0.52043 0.036644 0.
0.523385 0.0378695 0.
0.526297 0.0390307 0.
0.529113 0.0399655 0.
0.531888 0.0407617 0.
0.534512 0.041474 0.
0.537083 0.0422048 0.
0.539566 0.0427238 0.
0.541994 0.0431104 0.
0.544407 0.0434927 0.
0.546683 0.0437451 0.
0.548965 0.0440028 0.
0.551171 0.0442134 0.
0.553335 0.0444102 0.
0.555499 0.0446046 0.
0.557575 0.0446546 0.
0.559651 0.0447042 0.
0.561719 0.044753 0.
0.563771 0.0448027 0.
0.565823 0.0448526 0.
0.56786 0.0448872 0.
0.569887 0.0449119 0.
0.571913 0.0449366 0.
0.573928 0.0449492 0.
0.57594 0.0449597 0.
0.577951 0.0449699 0.
0.579959 0.0449752 0.
0.581967 0.0449806 0.
0.583974 0.0449852 0.
0.585978 0.0449883 0.
0.587983 0.0449913 0.
0.589986 0.0449935 0.
0.59199 0.0449952 0.
0.593993 0.0449968 0.
0.595995 0.0449975 0.
0.597998 0.044998 0.
0.6 0.0449984 0.
0.602003 0.0449973 0.
0.604006 0.0449961 0.
0.60601 0.0449948 0.
0.608013 0.0449928 0.
0.610016 0.0449908 0.
0.612021 0.0449878 0.
0.614026 0.0449837 0.
0.616032 0.0449796 0.
0.61804 0.0449737 0.
0.62005 0.044967 0.
0.622059 0.0449602 0.
0.624074 0.0449464 0.
0.62609 0.044932 0.
0.628108 0.0449149 0.
0.630142 0.0448827 0.
0.632177 0.0448505 0.
0.634223 0.0448071 0.
0.636287 0.0447466 0.
0.638351 0.0446863 0.
0.640439 0.0446212 0.
0.642537 0.0445537 0.
0.644638 0.044482 0.
0.646836 0.0442349 0.
0.649034 0.0439877 0.
0.651298 0.0437214 0.
0.653639 0.0434177 0.
0.655975 0.0431161 0.
0.658449 0.0426246 0.
0.660932 0.0421366 0.
0.663538 0.0415106 0.
0.666204 0.0407443 0.
0.668938 0.0398564 0.
0.671756 0.0388571 0.
0.674634 0.0377567 0.
0.677594 0.0365342 0.
0.680645 0.0352831 0.
0.683766 0.0339638 0.
0.686972 0.0324 0.
0.690243 0.0307617 0.
0.693638 0.0290687 0.
0.697083 0.0273712 0.
0.700605 0.025598 0.
0.704217 0.0237941 0.
0.707865 0.0219749 0.
0.711538 0.0201991 0.
0.715243 0.0185372 0.
0.718925 0.0171359 0.
0.722586 0.0161774 0.
0.726072 0.0156917 0.
0.472436 0.0170771 0.
0.475733 0.0174736 0.
0.479203 0.0183008 0.
0.482763 0.0195528 0.
0.48637 0.0211109 0.
0.489963 0.0228937 0.
0.493539 0.0247552 0.
0.497063 0.0265591 0.
0.500525 0.0283391 0.
0.50394 0.0301708 0.
0.507281 0.0319204 0.
0.510561 0.0335429 0.
0.51377 0.0349638 0.
0.516897 0.0363574 0.
0.519941 0.0377698 0.
0.522908 0.0390693 0.
0.525826 0.0402769 0.
0.528666 0.0412866 0.
0.53145 0.0421528 0.
0.534118 0.0429416 0.
0.53671 0.0437359 0.
0.539239 0.0443525 0.
0.541713 0.0447967 0.
0.544174 0.0452318 0.
0.546475 0.045509 0.
0.548779 0.0457961 0.
0.551011 0.0460432 0.
0.553192 0.0462674 0.
0.555374 0.0464894 0.
0.557474 0.0465592 0.
0.559573 0.0466269 0.
0.561661 0.0466918 0.
0.563721 0.0467499 0.
0.565782 0.0468083 0.
0.567826 0.0468506 0.
0.56986 0.0468822 0.
0.571894 0.046914 0.
0.573912 0.046931 0.
0.575927 0.0469454 0.
0.577942 0.0469592 0.
0.579952 0.0469662 0.
0.581961 0.0469731 0.
0.58397 0.0469792 0.
0.585975 0.0469832 0.
0.587981 0.0469873 0.
0.589985 0.0469903 0.
0.591989 0.0469925 0.
0.593992 0.0469946 0.
0.595995 0.0469956 0.
0.597998 0.0469962 0.
0.600001 0.0469968 0.
0.602004 0.0469953 0.
0.604007 0.0469938 0.
0.60601 0.0469921 0.
0.608014 0.0469893 0.
0.610018 0.0469866 0.
0.612024 0.0469827 0.
0.614031 0.0469773 0.
0.616038 0.0469718 0.
0.618048 0.0469642 0.
0.62006 0.0469555 0.
0.622072 0.0469469 0.
0.624091 0.0469287 0.
0.62611 0.0469096 0.
0.628134 0.0468871 0.
0.630177 0.0468457 0.
0.632221 0.0468045 0.
0.634276 0.0467517 0.
0.636349 0.0466823 0.
0.638422 0.0466131 0.
0.640535 0.0465269 0.
0.642662 0.0464357 0.
0.644793 0.0463367 0.
0.647007 0.0460625 0.
0.649216 0.0457876 0.
0.65151 0.0454742 0.
0.653883 0.0451291 0.
0.656266 0.0447842 0.
0.658776 0.044241 0.
0.661291 0.0436986 0.
0.663945 0.0429687 0.
0.66663 0.042134 0.
0.669398 0.0411582 0.
0.672225 0.0401143 0.
0.675118 0.0389538 0.
0.67807 0.0377004 0.
0.681126 0.0363946 0.
0.684237 0.0350317 0.
0.687437 0.0334235 0.
0.690681 0.0317592 0.
0.694035 0.0300696 0.
0.697451 0.0283641 0.
0.700921 0.0266046 0.
0.704465 0.0248193 0.
0.708048 0.0230378 0.
0.711624 0.0213243 0.
0.715213 0.0197417 0.
0.718746 0.0184208 0.
0.722237 0.017538 0.
0.725578 0.0170989 0.
0.472923 0.0184984 0.
0.476114 0.0188642 0.
0.479459 0.019651 0.
0.482891 0.0208271 0.
0.486374 0.0223071 0.
0.489867 0.024031 0.
0.493365 0.0258463 0.
0.496819 0.0276187 0.
0.500233 0.0293833 0.
0.503611 0.031201 0.
0.506912 0.0329623 0.
0.510163 0.0346172 0.
0.513347 0.0360612 0.
0.51646 0.037479 0.
0.519481 0.0389052 0.
0.522454 0.0402549 0.
0.525378 0.0415003 0.
0.528236 0.0426 0.
0.531027 0.0435259 0.
0.533733 0.0443842 0.
0.536337 0.0452187 0.
0.538898 0.0459101 0.
0.541395 0.0463967 0.
0.543885 0.0468898 0.
0.546223 0.047221 0.
0.548552 0.0475595 0.
0.55082 0.0478566 0.
0.553026 0.0481095 0.
0.555235 0.048361 0.
0.557364 0.0484558 0.
0.55949 0.0485452 0.
0.561602 0.0486288 0.
0.56367 0.0486957 0.
0.565739 0.0487628 0.
0.567791 0.0488132 0.
0.569832 0.0488521 0.
0.571874 0.0488912 0.
0.573896 0.0489126 0.
0.575915 0.048931 0.
0.577933 0.0489485 0.
0.579944 0.0489571 0.
0.581956 0.0489656 0.
0.583965 0.0489731 0.
0.585972 0.0489782 0.
0.587979 0.0489833 0.
0.589984 0.0489871 0.
0.591988 0.0489897 0.
0.593992 0.0489924 0.
0.595995 0.0489936 0.
0.597998 0.0489945 0.
0.600001 0.0489953 0.
0.602004 0.0489934 0.
0.604008 0.0489916 0.
0.606011 0.0489893 0.
0.608016 0.0489859 0.
0.61002 0.0489825 0.
0.612027 0.0489775 0.
0.614035 0.0489708 0.
0.616044 0.048964 0.
0.618056 0.0489546 0.
0.620071 0.048944 0.
0.622085 0.0489334 0.
0.624108 0.0489107 0.
0.626131 0.048887 0.
0.62816 0.0488589 0.
0.630213 0.0488079 0.
0.632266 0.0487571 0.
0.634332 0.0486947 0.
0.636414 0.0486157 0.
0.638496 0.0485372 0.
0.64064 0.0484254 0.
0.642802 0.0483057 0.
0.644969 0.0481738 0.
0.647209 0.0478701 0.
0.649445 0.0475665 0.
0.651774 0.0471881 0.
0.654166 0.0467773 0.
0.656584 0.0463619 0.
0.659123 0.0457832 0.
0.661666 0.0452041 0.
0.664344 0.044402 0.
0.66705 0.0435028 0.
0.669847 0.0424561 0.
0.672678 0.041368 0.
0.675572 0.0401544 0.
0.678526 0.0388755 0.
0.681573 0.0375175 0.
0.684664 0.0361046 0.
0.687841 0.0344813 0.
0.691064 0.0328 0.
0.694365 0.0311155 0.
0.697734 0.0294149 0.
0.701155 0.0276716 0.
0.70462 0.0259116 0.
0.708137 0.0241685 0.
0.711631 0.0225144 0.
0.715108 0.0210114 0.
0.718513 0.0197654 0.
0.721849 0.0189375 0.
0.725056 0.0185304 0.
0.473416 0.0199573 0.
0.476522 0.0203044 0.
0.479748 0.0210465 0.
0.483056 0.0221487 0.
0.486425 0.0235628 0.
0.489835 0.0252295 0.
0.493248 0.0269911 0.
0.496639 0.0287299 0.
0.500006 0.0304716 0.
0.503333 0.0322742 0.
0.506597 0.0340444 0.
0.509819 0.0357113 0.
0.512967 0.0371808 0.
0.516046 0.0386194 0.
0.519061 0.0400546 0.
0.522033 0.0414478 0.
0.524951 0.0427248 0.
0.527822 0.0439 0.
0.530614 0.0448766 0.
0.533333 0.0457938 0.
0.535954 0.0466688 0.
0.538555 0.0474389 0.
0.541076 0.0479869 0.
0.543595 0.0485405 0.
0.545971 0.0489251 0.
0.548328 0.0493145 0.
0.550632 0.049666 0.
0.552863 0.0499452 0.
0.555097 0.0502199 0.
0.557253 0.0503403 0.
0.559403 0.0504541 0.
0.561536 0.0505601 0.
0.563613 0.0506351 0.
0.565691 0.0507104 0.
0.567751 0.0507692 0.
0.5698 0.0508164 0.
0.57185 0.0508639 0.
0.573876 0.0508907 0.
0.575899 0.0509137 0.
0.577921 0.0509356 0.
0.579934 0.0509459 0.
0.581948 0.0509563 0.
0.58396 0.0509654 0.
0.585968 0.0509718 0.
0.587976 0.0509782 0.
0.589982 0.050983 0.
0.591987 0.0509863 0.
0.593991 0.0509897 0.
0.595995 0.0509911 0.
0.597998 0.0509921 0.
0.600001 0.050993 0.
0.602005 0.0509908 0.
0.604009 0.0509887 0.
0.606013 0.050986 0.
0.608018 0.0509816 0.
0.610024 0.0509773 0.
0.612031 0.050971 0.
0.614042 0.0509625 0.
0.616052 0.050954 0.
0.618067 0.0509427 0.
0.620084 0.0509301 0.
0.622101 0.0509174 0.
0.624128 0.0508894 0.
0.626156 0.0508601 0.
0.628191 0.0508252 0.
0.630254 0.0507632 0.
0.632317 0.0507018 0.
0.634393 0.0506297 0.
0.636484 0.0505426 0.
0.638575 0.0504559 0.
0.640748 0.0503143 0.
0.64294 0.0501641 0.
0.645142 0.0500015 0.
0.64741 0.0496734 0.
0.649671 0.0493424 0.
0.652035 0.0488918 0.
0.654447 0.0484157 0.
0.656905 0.0479309 0.
0.659481 0.0472987 0.
0.662067 0.0466457 0.
0.664754 0.0457797 0.
0.667463 0.044841 0.
0.670281 0.04375 0.
0.673121 0.042614 0.
0.676009 0.0413521 0.
0.678948 0.040048 0.
0.681984 0.038656 0.
0.685061 0.0371972 0.
0.688197 0.0355687 0.
0.691392 0.0338784 0.
0.694649 0.0321999 0.
0.697954 0.0305149 0.
0.701332 0.0287864 0.
0.704724 0.0270548 0.
0.708152 0.0253585 0.
0.711573 0.0237619 0.
0.714953 0.0223331 0.
0.718239 0.0211592 0.
0.721451 0.020375 0.
0.724541 0.0199794 0.
0.473917 0.0214492 0.
0.476936 0.0217739 0.
0.48005 0.0224701 0.
0.483243 0.023515 0.
0.486513 0.0248728 0.
0.489838 0.0264789 0.
0.493178 0.028184 0.
0.496513 0.0298895 0.
0.499827 0.0316072 0.
0.503105 0.0333926 0.
0.506327 0.0351629 0.
0.509506 0.036832 0.
0.512615 0.0383259 0.
0.515681 0.0397801 0.
0.518679 0.0412229 0.
0.521633 0.0426485 0.
0.524546 0.0439566 0.
0.527421 0.0451878 0.
0.530199 0.046212 0.
0.532938 0.0472022 0.
0.535588 0.0481187 0.
0.538227 0.0489549 0.
0.540776 0.0495623 0.
0.54331 0.0501545 0.
0.545716 0.0505847 0.
0.548094 0.0510152 0.
0.55043 0.0514162 0.
0.552692 0.0517227 0.
0.554965 0.0520315 0.
0.557143 0.0521907 0.
0.559307 0.0523417 0.
0.561455 0.052481 0.
0.563543 0.0525642 0.
0.565633 0.0526477 0.
0.567704 0.0527162 0.
0.569762 0.0527736 0.
0.571821 0.0528314 0.
0.573853 0.0528647 0.
0.57588 0.0528931 0.
0.577906 0.0529204 0.
0.579922 0.0529326 0.
0.581938 0.0529449 0.
0.583952 0.0529558 0.
0.585962 0.0529639 0.
0.587972 0.0529719 0.
0.589979 0.0529779 0.
0.591984 0.0529821 0.
0.59399 0.0529864 0.
0.595994 0.0529881 0.
0.597998 0.0529891 0.
0.600002 0.05299 0.
0.602006 0.0529876 0.
0.60401 0.0529851 0.
0.606015 0.052982 0.
0.608022 0.0529765 0.
0.610028 0.0529709 0.
0.612037 0.0529631 0.
0.61405 0.0529524 0.
0.616063 0.0529418 0.
0.61808 0.0529283 0.
0.6201 0.0529135 0.
0.62212 0.0528987 0.
0.624153 0.052864 0.
0.626187 0.052828 0.
0.628228 0.0527848 0.
0.630303 0.0527093 0.
0.632378 0.0526345 0.
0.634465 0.0525519 0.
0.636568 0.0524576 0.
0.63867 0.0523635 0.
0.640862 0.0521748 0.
0.643071 0.0519744 0.
0.645299 0.0517654 0.
0.647603 0.0514166 0.
0.649896 0.0510689 0.
0.652292 0.0505574 0.
0.654716 0.0500284 0.
0.657213 0.0494835 0.
0.659822 0.0488073 0.
0.662447 0.04808 0.
0.66515 0.0471454 0.
0.667877 0.046145 0.
0.670685 0.0450378 0.
0.673533 0.0438665 0.
0.676422 0.0425623 0.
0.679348 0.0412236 0.
0.682357 0.0398121 0.
0.685414 0.0383202 0.
0.688522 0.0366866 0.
0.691678 0.035 0.
0.694892 0.0333255 0.
0.698138 0.0316576 0.
0.701454 0.0299515 0.
0.704789 0.0282457 0.
0.708131 0.026596 0.
0.711468 0.0250627 0.
0.714763 0.0237005 0.
0.71795 0.0225896 0.
0.721054 0.0218461 0.
0.724048 0.021464 0.
0.474441 0.0229448 0.
0.477377 0.0232637 0.
0.48039 0.0239324 0.
0.48349 0.0249407 0.
0.486671 0.0262453 0.
0.489912 0.0277888 0.
0.493182 0.0294395 0.
0.496458 0.031108 0.
0.499713 0.0327981 0.
0.502936 0.0345629 0.
0.506107 0.0363236 0.
0.509238 0.0379902 0.
0.512318 0.0395002 0.
0.515354 0.0409597 0.
0.518324 0.0424133 0.
0.521269 0.0438636 0.
0.52417 0.0451955 0.
0.527025 0.0464558 0.
0.529802 0.0475435 0.
0.532549 0.0486015 0.
0.535223 0.0495582 0.
0.537876 0.0504183 0.
0.540434 0.0510779 0.
0.54298 0.0517264 0.
0.54543 0.0522169 0.
0.54784 0.0526951 0.
0.550216 0.053157 0.
0.552516 0.0534974 0.
0.554828 0.0538409 0.
0.557033 0.0540385 0.
0.55921 0.054227 0.
0.561373 0.0544017 0.
0.563473 0.0544931 0.
0.565574 0.0545849 0.
0.567657 0.0546629 0.
0.569724 0.0547306 0.
0.571792 0.0547987 0.
0.573829 0.0548386 0.
0.57586 0.0548726 0.
0.57789 0.0549051 0.
0.579909 0.0549193 0.
0.581928 0.0549335 0.
0.583945 0.0549463 0.
0.585956 0.054956 0.
0.587968 0.0549656 0.
0.589976 0.0549728 0.
0.591982 0.054978 0.
0.593989 0.0549831 0.
0.595993 0.054985 0.
0.597998 0.054986 0.
0.600002 0.0549871 0.
0.602007 0.0549843 0.
0.604012 0.0549816 0.
0.606018 0.054978 0.
0.608025 0.0549713 0.
0.610033 0.0549646 0.
0.612044 0.0549551 0.
0.614058 0.0549423 0.
0.616073 0.0549296 0.
0.618094 0.0549139 0.
0.620116 0.0548969 0.
0.622139 0.0548799 0.
0.624178 0.0548386 0.
0.626217 0.0547958 0.
0.628266 0.054744 0.
0.630352 0.0546551 0.
0.632438 0.0545669 0.
0.634537 0.054474 0.
0.636652 0.0543723 0.
0.638766 0.054271 0.
0.640978 0.0540318 0.
0.643203 0.053781 0.
0.64546 0.0535277 0.
0.647804 0.0531526 0.
0.650135 0.0527777 0.
0.652578 0.0521947 0.
0.655035 0.0516114 0.
0.657565 0.050999 0.
0.660176 0.0502811 0.
0.662822 0.0494918 0.
0.665532 0.0485082 0.
0.66827 0.0474527 0.
0.671072 0.0463149 0.
0.673907 0.0451173 0.
0.676785 0.0437891 0.
0.679709 0.0424214 0.
0.68269 0.0409949 0.
0.68572 0.0394785 0.
0.688794 0.0378442 0.
0.691906 0.0361695 0.
0.695079 0.0345017 0.
0.698268 0.032854 0.
0.70151 0.0311761 0.
0.704782 0.0294999 0.
0.708048 0.0278945 0.
0.711298 0.0264221 0.
0.714509 0.0251207 0.
0.717616 0.0240612 0.
0.720633 0.0233522 0.
0.723549 0.0229814 0.
0.47498 0.0244536 0.
0.477844 0.0247829 0.
0.480779 0.0254386 0.
0.483799 0.0264164 0.
0.486891 0.0276713 0.
0.490061 0.0291602 0.
0.493263 0.0307575 0.
0.496469 0.0323838 0.
0.499662 0.0340446 0.
0.502826 0.0357886 0.
0.505941 0.0375312 0.
0.509027 0.0391915 0.
0.512068 0.0407109 0.
0.515068 0.0421725 0.
0.518023 0.0436357 0.
0.520947 0.0450969 0.
0.523817 0.0464441 0.
0.526654 0.0477324 0.
0.52943 0.0488749 0.
0.532174 0.0499741 0.
0.534849 0.0509479 0.
0.537504 0.0518472 0.
0.540085 0.0525818 0.
0.542647 0.0532904 0.
0.545138 0.0538425 0.
0.547576 0.054367 0.
0.549984 0.0548894 0.
0.552309 0.0552483 0.
0.55464 0.0556203 0.
0.556869 0.0558586 0.
0.559061 0.0560822 0.
0.561245 0.0562926 0.
0.563363 0.0563929 0.
0.565482 0.056494 0.
0.567582 0.0565838 0.
0.569662 0.056665 0.
0.571742 0.0567471 0.
0.573789 0.0567972 0.
0.575828 0.05684 0.
0.577866 0.0568812 0.
0.579888 0.0568978 0.
0.581911 0.0569144 0.
0.58393 0.0569297 0.
0.585945 0.0569422 0.
0.587959 0.0569547 0.
0.58997 0.056964 0.
0.591978 0.0569705 0.
0.593986 0.056977 0.
0.595992 0.0569797 0.
0.597997 0.0569811 0.
0.600002 0.0569826 0.
0.602008 0.0569789 0.
0.604015 0.0569753 0.
0.606022 0.0569705 0.
0.608032 0.0569619 0.
0.610041 0.0569534 0.
0.612055 0.0569413 0.
0.614073 0.0569251 0.
0.616091 0.0569089 0.
0.618115 0.0568906 0.
0.620142 0.0568713 0.
0.622168 0.0568519 0.
0.624219 0.0567981 0.
0.62627 0.0567428 0.
0.628332 0.0566777 0.
0.63043 0.0565745 0.
0.632528 0.0564723 0.
0.634649 0.0563658 0.
0.636789 0.0562522 0.
0.638925 0.0561399 0.
0.641152 0.0558554 0.
0.643384 0.0555626 0.
0.645661 0.0552685 0.
0.648022 0.0548767 0.
0.65039 0.0544733 0.
0.652871 0.0538247 0.
0.655359 0.0531881 0.
0.657923 0.0525022 0.
0.660537 0.0517241 0.
0.663191 0.0508662 0.
0.665901 0.0498564 0.
0.668637 0.0487642 0.
0.671426 0.0476055 0.
0.674251 0.0463767 0.
0.677109 0.0450362 0.
0.680008 0.043651 0.
0.682968 0.0422141 0.
0.685964 0.0406851 0.
0.689009 0.0390481 0.
0.692075 0.0373853 0.
0.695192 0.0357365 0.
0.698337 0.0341046 0.
0.701505 0.0324588 0.
0.704698 0.03082 0.
0.707895 0.0292553 0.
0.711065 0.0278368 0.
0.714197 0.0265872 0.
0.717232 0.0255723 0.
0.720179 0.0248874 0.
0.72303 0.0245262 0.
0.475537 0.0260013 0.
0.478335 0.0263409 0.
0.481199 0.0269807 0.
0.484146 0.0279326 0.
0.487171 0.0291485 0.
0.490274 0.0305874 0.
0.493398 0.0321291 0.
0.496535 0.0337155 0.
0.499667 0.0353512 0.
0.502766 0.0370671 0.
0.505826 0.0387887 0.
0.508866 0.040442 0.
0.511867 0.041962 0.
0.514836 0.0434233 0.
0.51776 0.0448884 0.
0.520653 0.0463506 0.
0.523499 0.0477166 0.
0.526316 0.0490241 0.
0.529077 0.0502008 0.
0.531803 0.05132 0.
0.534478 0.0523351 0.
0.537139 0.0532722 0.
0.539739 0.0540689 0.
0.542311 0.0548208 0.
0.544822 0.0554271 0.
0.547273 0.0559761 0.
0.549706 0.0565248 0.
0.552051 0.0569407 0.
0.5544 0.0573697 0.
0.556664 0.0576613 0.
0.558884 0.0579218 0.
0.561099 0.0581726 0.
0.56324 0.0582843 0.
0.565382 0.0583969 0.
0.567503 0.0585002 0.
0.569596 0.0585964 0.
0.571691 0.0586936 0.
0.573748 0.0587547 0.
0.575796 0.0588068 0.
0.577842 0.0588571 0.
0.579867 0.0588761 0.
0.581893 0.0588952 0.
0.583916 0.058913 0.
0.585934 0.0589284 0.
0.587951 0.0589437 0.
0.589964 0.0589551 0.
0.591974 0.058963 0.
0.593983 0.058971 0.
0.59599 0.0589743 0.
0.597997 0.0589762 0.
0.600003 0.0589781 0.
0.60201 0.0589735 0.
0.604017 0.0589689 0.
0.606026 0.0589629 0.
0.608038 0.0589525 0.
0.61005 0.058942 0.
0.612067 0.0589273 0.
0.614088 0.0589077 0.
0.61611 0.0588881 0.
0.618138 0.0588671 0.
0.620168 0.0588453 0.
0.622198 0.0588236 0.
0.624262 0.0587564 0.
0.626326 0.0586877 0.
0.628401 0.0586081 0.
0.630514 0.0584895 0.
0.632625 0.0583721 0.
0.634775 0.0582484 0.
0.636949 0.0581178 0.
0.639121 0.0579837 0.
0.641371 0.0576542 0.
0.643624 0.0573206 0.
0.645935 0.0569707 0.
0.648317 0.0565218 0.
0.650703 0.056064 0.
0.653189 0.0553994 0.
0.655687 0.0547442 0.
0.658272 0.0539909 0.
0.660889 0.0531595 0.
0.66355 0.0522398 0.
0.666251 0.0512045 0.
0.668984 0.0500849 0.
0.671758 0.0489101 0.
0.674559 0.0476589 0.
0.677393 0.0463091 0.
0.680269 0.0449139 0.
0.683195 0.0434685 0.
0.686155 0.0419336 0.
0.68916 0.0403044 0.
0.692187 0.0386514 0.
0.69525 0.0370203 0.
0.698342 0.0354104 0.
0.70145 0.033794 0.
0.704568 0.032193 0.
0.707687 0.0306713 0.
0.710785 0.0292978 0.
0.71384 0.028091 0.
0.716811 0.0271136 0.
0.719698 0.0264468 0.
0.722492 0.0260941 0.
0.476091 0.0275827 0.
0.47883 0.0279247 0.
0.481633 0.0285518 0.
0.48452 0.0294815 0.
0.487482 0.0306632 0.
0.490515 0.0320509 0.
0.493565 0.0335459 0.
0.496638 0.0350983 0.
0.4997 0.0367029 0.
0.502735 0.0383884 0.
0.50575 0.0400909 0.
0.508743 0.041731 0.
0.511703 0.0432459 0.
0.514633 0.0447049 0.
0.517524 0.0461661 0.
0.520386 0.0476256 0.
0.523206 0.0490066 0.
0.525991 0.0503288 0.
0.528734 0.0515323 0.
0.531445 0.0526724 0.
0.534117 0.0537206 0.
0.536775 0.0546818 0.
0.539385 0.0555294 0.
0.541958 0.056321 0.
0.544491 0.05699 0.
0.546963 0.0575677 0.
0.549425 0.0581509 0.
0.551793 0.0586253 0.
0.55416 0.0591109 0.
0.556459 0.0594602 0.
0.558707 0.0597571 0.
0.560952 0.0600454 0.
0.563115 0.0601681 0.
0.56528 0.0602921 0.
0.56742 0.0604097 0.
0.569525 0.06052 0.
0.571631 0.0606313 0.
0.5737 0.0607048 0.
0.575757 0.0607682 0.
0.577814 0.0608301 0.
0.579843 0.0608514 0.
0.581872 0.0608728 0.
0.583898 0.0608932 0.
0.585919 0.0609117 0.
0.58794 0.0609303 0.
0.589956 0.060944 0.
0.591968 0.0609537 0.
0.593979 0.0609634 0.
0.595988 0.0609674 0.
0.597996 0.0609697 0.
0.600003 0.060972 0.
0.602012 0.0609663 0.
0.604021 0.0609607 0.
0.606032 0.0609534 0.
0.608047 0.0609406 0.
0.610062 0.0609279 0.
0.612082 0.0609104 0.
0.614107 0.0608873 0.
0.616132 0.0608642 0.
0.618164 0.0608397 0.
0.620199 0.0608145 0.
0.622233 0.0607894 0.
0.624311 0.0607067 0.
0.626389 0.060623 0.
0.628478 0.0605284 0.
0.630602 0.0603966 0.
0.632724 0.0602657 0.
0.634902 0.0601238 0.
0.637109 0.0599777 0.
0.639318 0.0598213 0.
0.64159 0.0594491 0.
0.643862 0.0590748 0.
0.646209 0.0586649 0.
0.648614 0.0581584 0.
0.65103 0.0576292 0.
0.653532 0.0569264 0.
0.656044 0.0562365 0.
0.658627 0.0554508 0.
0.661236 0.0545863 0.
0.663899 0.0536157 0.
0.66659 0.0525583 0.
0.66931 0.0514146 0.
0.672067 0.0502276 0.
0.674856 0.0489577 0.
0.677657 0.0476021 0.
0.680498 0.0462034 0.
0.683389 0.0447552 0.
0.686313 0.0432145 0.
0.689272 0.041596 0.
0.692258 0.0399604 0.
0.695268 0.0383459 0.
0.698307 0.0367593 0.
0.701361 0.0351725 0.
0.704416 0.0336067 0.
0.70746 0.0321247 0.
0.71048 0.0307945 0.
0.713466 0.0296233 0.
0.716371 0.0286799 0.
0.719204 0.0280267 0.
0.721948 0.0276844 0.
0.476633 0.0291961 0.
0.47932 0.029535 0.
0.482071 0.0301494 0.
0.484904 0.031059 0.
0.487809 0.0322053 0.
0.490774 0.0335502 0.
0.493761 0.0350069 0.
0.496765 0.0365224 0.
0.499758 0.0380959 0.
0.502736 0.0397544 0.
0.505702 0.0414317 0.
0.508643 0.043052 0.
0.511562 0.0445622 0.
0.514453 0.0460175 0.
0.517308 0.0474691 0.
0.520137 0.0489275 0.
0.522926 0.0503229 0.
0.525685 0.0516558 0.
0.528409 0.0528784 0.
0.531103 0.0540324 0.
0.53377 0.0551086 0.
0.536425 0.0560871 0.
0.539039 0.0569836 0.
0.541615 0.057819 0.
0.544167 0.0585526 0.
0.546662 0.0591583 0.
0.549148 0.0597649 0.
0.55153 0.060279 0.
0.553906 0.0608006 0.
0.556232 0.0611998 0.
0.558509 0.0615298 0.
0.560791 0.0618567 0.
0.56298 0.0620099 0.
0.565167 0.0621615 0.
0.567327 0.0623036 0.
0.569442 0.0624284 0.
0.571557 0.0625542 0.
0.573639 0.0626435 0.
0.575711 0.0627222 0.
0.577782 0.0627994 0.
0.579814 0.0628231 0.
0.581847 0.0628467 0.
0.583877 0.0628698 0.
0.585901 0.0628919 0.
0.587925 0.0629141 0.
0.589944 0.0629306 0.
0.591959 0.0629424 0.
0.593973 0.0629541 0.
0.595984 0.0629589 0.
0.597994 0.0629616 0.
0.600004 0.0629643 0.
0.602016 0.0629574 0.
0.604027 0.0629505 0.
0.60604 0.0629416 0.
0.608058 0.0629261 0.
0.610077 0.0629107 0.
0.6121 0.06289 0.
0.614129 0.0628634 0.
0.616158 0.0628368 0.
0.618196 0.0628076 0.
0.620237 0.0627772 0.
0.622278 0.0627465 0.
0.624372 0.0626444 0.
0.626466 0.0625415 0.
0.62857 0.062429 0.
0.630705 0.0622844 0.
0.632839 0.0621408 0.
0.635039 0.0619605 0.
0.637269 0.0617693 0.
0.639504 0.0615701 0.
0.641811 0.0611831 0.
0.64411 0.0607903 0.
0.646485 0.0603296 0.
0.648905 0.0597797 0.
0.651346 0.0591894 0.
0.653863 0.0584542 0.
0.656392 0.0577257 0.
0.658978 0.0568973 0.
0.661581 0.0559992 0.
0.664231 0.0549995 0.
0.666913 0.0539244 0.
0.669622 0.0527588 0.
0.672357 0.0515597 0.
0.675124 0.0502785 0.
0.67791 0.0489195 0.
0.680716 0.0475162 0.
0.683563 0.0460708 0.
0.686449 0.0445304 0.
0.689362 0.0429215 0.
0.692303 0.0413064 0.
0.695263 0.0397122 0.
0.698244 0.0381485 0.
0.70124 0.0365931 0.
0.704236 0.0350618 0.
0.70722 0.033613 0.
0.710169 0.0323204 0.
0.713084 0.0311841 0.
0.715928 0.030272 0.
0.718709 0.0296306 0.
0.721406 0.0293 0.
0.477185 0.0308295 0.
0.479827 0.0311648 0.
0.482534 0.0317729 0.
0.485321 0.032663 0.
0.48817 0.0337821 0.
0.491074 0.0350933 0.
0.493997 0.0365133 0.
0.496928 0.0379934 0.
0.499855 0.0395402 0.
0.502779 0.04117 0.
0.505689 0.0428157 0.
0.508581 0.0444155 0.
0.511455 0.0459167 0.
0.514303 0.0473611 0.
0.51712 0.048806 0.
0.519915 0.0502637 0.
0.522673 0.051664 0.
0.525399 0.0530007 0.
0.528106 0.0542408 0.
0.53079 0.0554049 0.
0.533449 0.0565018 0.
0.53609 0.0574987 0.
0.538702 0.058437 0.
0.541275 0.0593093 0.
0.543833 0.0600846 0.
0.546333 0.0607083 0.
0.548819 0.0613453 0.
0.551228 0.0619029 0.
0.553627 0.062465 0.
0.555991 0.0629237 0.
0.558305 0.0632949 0.
0.560626 0.0636649 0.
0.562843 0.0638491 0.
0.565052 0.0640286 0.
0.567233 0.064197 0.
0.569357 0.0643362 0.
0.571483 0.0644766 0.
0.573578 0.0645816 0.
0.575664 0.0646757 0.
0.577749 0.0647686 0.
0.579786 0.0647947 0.
0.581822 0.0648207 0.
0.583856 0.0648464 0.
0.585883 0.0648721 0.
0.58791 0.0648978 0.
0.589933 0.0649172 0.
0.59195 0.064931 0.
0.593968 0.0649448 0.
0.595981 0.0649503 0.
0.597993 0.0649535 0.
0.600005 0.0649566 0.
0.602019 0.0649484 0.
0.604033 0.0649403 0.
0.606049 0.0649298 0.
0.60807 0.0649116 0.
0.610092 0.0648934 0.
0.612119 0.0648696 0.
0.614152 0.0648395 0.
0.616184 0.0648094 0.
0.618228 0.0647753 0.
0.620275 0.0647398 0.
0.622323 0.0647031 0.
0.624434 0.0645815 0.
0.626543 0.0644594 0.
0.628663 0.0643291 0.
0.630809 0.0641717 0.
0.632955 0.0640154 0.
0.635179 0.0637931 0.
0.63743 0.0635564 0.
0.639695 0.0633145 0.
0.642042 0.0629034 0.
0.644379 0.0624877 0.
0.64679 0.061962 0.
0.649226 0.0613599 0.
0.651684 0.0607183 0.
0.654201 0.0599651 0.
0.656736 0.0592069 0.
0.659321 0.0583438 0.
0.661919 0.0574124 0.
0.664555 0.0563873 0.
0.667214 0.0553024 0.
0.669905 0.0541225 0.
0.672623 0.0529113 0.
0.675365 0.051621 0.
0.678126 0.0502643 0.
0.680909 0.0488594 0.
0.683716 0.0474157 0.
0.686552 0.0458855 0.
0.68942 0.0442903 0.
0.69231 0.042696 0.
0.695218 0.0411269 0.
0.698141 0.0395861 0.
0.701077 0.0380603 0.
0.704011 0.0365665 0.
0.706935 0.0351468 0.
0.709825 0.0338827 0.
0.712679 0.0327746 0.
0.715467 0.0318882 0.
0.718198 0.0312592 0.
0.720851 0.0309317 0.
0.477747 0.0324716 0.
0.480351 0.0328105 0.
0.483024 0.0334206 0.
0.485766 0.034296 0.
0.488566 0.0353961 0.
0.491408 0.0366772 0.
0.494267 0.038065 0.
0.49713 0.0395149 0.
0.499999 0.0410378 0.
0.502862 0.0426338 0.
0.505719 0.044249 0.
0.508564 0.0458275 0.
0.51139 0.0473117 0.
0.514192 0.0487458 0.
0.516971 0.050184 0.
0.519727 0.0516316 0.
0.522448 0.0530323 0.
0.525149 0.0543731 0.
0.52784 0.0556235 0.
0.530504 0.0567935 0.
0.533146 0.0579079 0.
0.535768 0.0589219 0.
0.538372 0.0598872 0.
0.540936 0.0607749 0.
0.543488 0.061576 0.
0.545994 0.0622447 0.
0.548486 0.0629218 0.
0.550919 0.0635213 0.
0.553337 0.0641214 0.
0.555734 0.0646391 0.
0.558075 0.0650396 0.
0.560417 0.0654366 0.
0.562661 0.0656557 0.
0.56489 0.0658683 0.
0.567096 0.0660688 0.
0.569232 0.0662159 0.
0.571371 0.0663636 0.
0.573482 0.0664847 0.
0.575583 0.0665982 0.
0.577685 0.0667115 0.
0.579733 0.0667465 0.
0.581781 0.0667807 0.
0.583824 0.0668135 0.
0.585855 0.0668424 0.
0.587887 0.0668714 0.
0.589913 0.0668938 0.
0.591935 0.0669103 0.
0.593957 0.0669269 0.
0.595975 0.0669336 0.
0.597991 0.0669373 0.
0.600007 0.0669409 0.
0.602025 0.0669308 0.
0.604044 0.0669208 0.
0.606064 0.066908 0.
0.608091 0.0668864 0.
0.610117 0.066865 0.
0.612149 0.0668375 0.
0.614188 0.0668036 0.
0.616226 0.0667697 0.
0.618282 0.0667255 0.
0.620345 0.0666782 0.
0.622409 0.0666281 0.
0.624534 0.0664849 0.
0.626657 0.0663423 0.
0.628793 0.0661963 0.
0.630954 0.0660325 0.
0.633112 0.0658694 0.
0.635359 0.0656025 0.
0.637626 0.0653213 0.
0.639915 0.0650402 0.
0.642289 0.0646156 0.
0.644661 0.0641812 0.
0.647102 0.0635859 0.
0.649553 0.0629319 0.
0.652028 0.0622369 0.
0.654546 0.0614574 0.
0.657082 0.0606704 0.
0.659656 0.0597877 0.
0.662241 0.0588345 0.
0.664862 0.0577908 0.
0.6675 0.0566945 0.
0.670162 0.0555079 0.
0.672854 0.0542889 0.
0.675573 0.0529943 0.
0.678303 0.05164 0.
0.681056 0.050239 0.
0.68383 0.0488 0.
0.686622 0.047281 0.
0.689436 0.0457077 0.
0.692277 0.0441348 0.
0.69513 0.0425895 0.
0.697993 0.0410757 0.
0.700869 0.0395764 0.
0.703744 0.0381167 0.
0.706608 0.0367274 0.
0.709443 0.0354836 0.
0.712246 0.0343959 0.
0.714987 0.0335275 0.
0.717676 0.032907 0.
0.720292 0.0325755 0.
0.478319 0.0341328 0.
0.480891 0.0344773 0.
0.483532 0.0350931 0.
0.486231 0.0359539 0.
0.48898 0.0370403 0.
0.491763 0.0382981 0.
0.494561 0.0396574 0.
0.497368 0.0410836 0.
0.500178 0.042583 0.
0.502986 0.044148 0.
0.505794 0.0457359 0.
0.50859 0.0472878 0.
0.511365 0.0487553 0.
0.514123 0.0501772 0.
0.516859 0.0516007 0.
0.519571 0.0530353 0.
0.52226 0.0544353 0.
0.524936 0.0557736 0.
0.527598 0.057029 0.
0.530235 0.0582036 0.
0.532858 0.0593293 0.
0.535463 0.0603542 0.
0.538047 0.0613346 0.
0.540602 0.0622401 0.
0.543147 0.063069 0.
0.545657 0.0637751 0.
0.548149 0.0644814 0.
0.550595 0.0651143 0.
0.55302 0.0657318 0.
0.555431 0.0662819 0.
0.557788 0.0667164 0.
0.560149 0.0671568 0.
0.562431 0.0674272 0.
0.564693 0.0676851 0.
0.566935 0.0679297 0.
0.56909 0.068085 0.
0.571247 0.068241 0.
0.573378 0.0683795 0.
0.575497 0.068515 0.
0.577617 0.0686507 0.
0.579678 0.0686963 0.
0.581738 0.0687396 0.
0.583791 0.0687801 0.
0.585827 0.0688123 0.
0.587863 0.0688445 0.
0.589894 0.06887 0.
0.59192 0.0688894 0.
0.593946 0.0689088 0.
0.595968 0.0689167 0.
0.597988 0.0689209 0.
0.600009 0.0689252 0.
0.602032 0.0689131 0.
0.604054 0.068901 0.
0.606079 0.0688858 0.
0.608111 0.0688609 0.
0.610143 0.068836 0.
0.612181 0.0688049 0.
0.614225 0.0687669 0.
0.616268 0.0687291 0.
0.61834 0.0686737 0.
0.620418 0.0686134 0.
0.622501 0.0685478 0.
0.624642 0.0683807 0.
0.626781 0.0682145 0.
0.628938 0.0680511 0.
0.631122 0.067879 0.
0.633302 0.0677078 0.
0.635584 0.067386 0.
0.637878 0.0670544 0.
0.640202 0.0667202 0.
0.642592 0.0662574 0.
0.644979 0.0657949 0.
0.647427 0.0651737 0.
0.649884 0.0644906 0.
0.652371 0.0637512 0.
0.654887 0.0629503 0.
0.657421 0.0621352 0.
0.659982 0.0612351 0.
0.662553 0.0602651 0.
0.665151 0.0592119 0.
0.667764 0.0581087 0.
0.670398 0.0569176 0.
0.673056 0.055696 0.
0.675742 0.0544009 0.
0.678443 0.0530511 0.
0.681163 0.0516573 0.
0.683898 0.0502282 0.
0.686651 0.0487221 0.
0.68942 0.0471727 0.
0.692202 0.0456263 0.
0.695006 0.044102 0.
0.697811 0.0426113 0.
0.700626 0.0411394 0.
0.703448 0.0397056 0.
0.706256 0.0383436 0.
0.709035 0.0371186 0.
0.711789 0.0360453 0.
0.71449 0.0351893 0.
0.717141 0.0345772 0.
0.719724 0.0342366 0.
0.47889 0.0358257 0.
0.481429 0.0361675 0.
0.484036 0.0367811 0.
0.486693 0.0376324 0.
0.489396 0.0387129 0.
0.492125 0.0399494 0.
0.494872 0.0412854 0.
0.497626 0.0426911 0.
0.500383 0.0441689 0.
0.50314 0.0457063 0.
0.505897 0.0472637 0.
0.508639 0.0487896 0.
0.511364 0.0502382 0.
0.514072 0.0516409 0.
0.516761 0.0530483 0.
0.519435 0.0544709 0.
0.522094 0.0558639 0.
0.524735 0.0571943 0.
0.527365 0.0584526 0.
0.529981 0.0596299 0.
0.532581 0.0607603 0.
0.535163 0.0617934 0.
0.537732 0.0627896 0.
0.540276 0.0637121 0.
0.542811 0.0645568 0.
0.545316 0.0652913 0.
0.547801 0.0660202 0.
0.550256 0.0666823 0.
0.552692 0.0673213 0.
0.555121 0.0679068 0.
0.557498 0.0683881 0.
0.559881 0.0688713 0.
0.5622 0.069193 0.
0.564494 0.069496 0.
0.566774 0.0697891 0.
0.568947 0.0699508 0.
0.571121 0.0701121 0.
0.573272 0.0702664 0.
0.575406 0.0704224 0.
0.577542 0.0705787 0.
0.579617 0.0706376 0.
0.581689 0.0706924 0.
0.583754 0.0707429 0.
0.585795 0.0707782 0.
0.587835 0.0708136 0.
0.589871 0.0708421 0.
0.591903 0.0708643 0.
0.593934 0.0708865 0.
0.595961 0.0708955 0.
0.597986 0.0709004 0.
0.600011 0.0709052 0.
0.602039 0.0708909 0.
0.604067 0.0708768 0.
0.606097 0.0708591 0.
0.608135 0.0708306 0.
0.610173 0.0708023 0.
0.612217 0.0707674 0.
0.614267 0.0707257 0.
0.616317 0.0706842 0.
0.618402 0.0706145 0.
0.620497 0.0705384 0.
0.622596 0.0704551 0.
0.624752 0.0702678 0.
0.626906 0.070081 0.
0.629084 0.0699027 0.
0.631289 0.0697237 0.
0.633493 0.0695424 0.
0.63581 0.0691635 0.
0.638132 0.0687815 0.
0.640491 0.0683943 0.
0.642902 0.0678882 0.
0.645312 0.0673732 0.
0.647769 0.0667203 0.
0.650229 0.0660193 0.
0.652718 0.0652587 0.
0.655226 0.0644426 0.
0.657752 0.063604 0.
0.660298 0.0626916 0.
0.662852 0.0617079 0.
0.665428 0.0606476 0.
0.668017 0.0595391 0.
0.670619 0.0583469 0.
0.673245 0.0571241 0.
0.675896 0.0558332 0.
0.678561 0.0544892 0.
0.681247 0.0531056 0.
0.683944 0.0516906 0.
0.686654 0.0502027 0.
0.689378 0.0486764 0.
0.69211 0.0471587 0.
0.694855 0.0456595 0.
0.697606 0.0441866 0.
0.700363 0.0427395 0.
0.70313 0.0413318 0.
0.705892 0.0399894 0.
0.708625 0.0387789 0.
0.71133 0.0377192 0.
0.713991 0.0368714 0.
0.716606 0.0362707 0.
0.719158 0.0359224 0.
0.479449 0.0375336 0.
0.481957 0.0378709 0.
0.484532 0.0384855 0.
0.487152 0.0393349 0.
0.489811 0.0404087 0.
0.492493 0.041627 0.
0.495194 0.0429457 0.
0.497897 0.0443336 0.
0.500603 0.0457916 0.
0.503309 0.0473002 0.
0.50601 0.0488299 0.
0.508697 0.0503295 0.
0.511369 0.0517538 0.
0.514028 0.0531372 0.
0.516674 0.0545303 0.
0.51931 0.0559368 0.
0.52193 0.0573139 0.
0.52454 0.0586364 0.
0.527145 0.0598941 0.
0.529734 0.0610718 0.
0.53231 0.0622045 0.
0.534876 0.0632459 0.
0.537425 0.0642513 0.
0.539953 0.0651867 0.
0.542476 0.0660456 0.
0.544977 0.0668083 0.
0.547459 0.0675596 0.
0.549923 0.0682526 0.
0.552368 0.0689108 0.
0.55481 0.069521 0.
0.557204 0.0700352 0.
0.559593 0.0705403 0.
0.561936 0.0709041 0.
0.564249 0.0712417 0.
0.566556 0.0715737 0.
0.568762 0.0717595 0.
0.570975 0.0719493 0.
0.573156 0.072131 0.
0.575305 0.0723084 0.
0.577455 0.0724865 0.
0.579546 0.0725641 0.
0.581631 0.0726355 0.
0.583709 0.0727003 0.
0.585756 0.0727388 0.
0.587803 0.0727773 0.
0.589845 0.072809 0.
0.591882 0.0728342 0.
0.593919 0.0728594 0.
0.595952 0.0728696 0.
0.597983 0.072875 0.
0.600014 0.0728804 0.
0.602048 0.0728638 0.
0.604082 0.0728473 0.
0.606119 0.0728269 0.
0.608163 0.0727945 0.
0.610208 0.0727622 0.
0.61226 0.0727234 0.
0.614318 0.0726779 0.
0.616376 0.0726325 0.
0.618475 0.0725421 0.
0.620583 0.0724428 0.
0.622699 0.072335 0.
0.624871 0.0721301 0.
0.62704 0.0719259 0.
0.629253 0.0717157 0.
0.631497 0.071502 0.
0.633739 0.0712851 0.
0.636075 0.0708799 0.
0.638411 0.0704698 0.
0.640791 0.0700431 0.
0.643211 0.0695066 0.
0.645641 0.068947 0.
0.648106 0.0682689 0.
0.650572 0.0675449 0.
0.653061 0.0667632 0.
0.655559 0.0659342 0.
0.658078 0.0650775 0.
0.660612 0.0641574 0.
0.663148 0.0631629 0.
0.665699 0.0620983 0.
0.668264 0.0609877 0.
0.67084 0.0597958 0.
0.673431 0.0585731 0.
0.676046 0.0572892 0.
0.678675 0.0559549 0.
0.681321 0.0545822 0.
0.68398 0.0531835 0.
0.686646 0.0517188 0.
0.689323 0.0502177 0.
0.692004 0.0487262 0.
0.694694 0.0472542 0.
0.697387 0.0458012 0.
0.700091 0.0443725 0.
0.702802 0.0429872 0.
0.705514 0.041665 0.
0.708209 0.0404631 0.
0.710872 0.039414 0.
0.713495 0.0385706 0.
0.716075 0.0379788 0.
0.718599 0.0376244 0.
0.480018 0.0392514 0.
0.482503 0.0395972 0.
0.485049 0.0402185 0.
0.487631 0.0410671 0.
0.49025 0.0421333 0.
0.492892 0.0433438 0.
0.495546 0.0446502 0.
0.498194 0.0460181 0.
0.500849 0.0474559 0.
0.5035 0.0489404 0.
0.506146 0.0504423 0.
0.508777 0.0519107 0.
0.511395 0.0533102 0.
0.514006 0.0546762 0.
0.516606 0.0560515 0.
0.519199 0.0574332 0.
0.521785 0.0587936 0.
0.524364 0.060106 0.
0.526937 0.0613581 0.
0.5295 0.0625332 0.
0.532052 0.0636641 0.
0.534592 0.06471 0.
0.537122 0.0657209 0.
0.539636 0.0666689 0.
0.542146 0.0675398 0.
0.544641 0.0683255 0.
0.547117 0.0690937 0.
0.549582 0.0698096 0.
0.552028 0.070476 0.
0.554471 0.0710977 0.
0.556876 0.0716462 0.
0.559277 0.0721806 0.
0.561648 0.0725918 0.
0.563987 0.0729695 0.
0.566324 0.0733446 0.
0.568573 0.0735641 0.
0.570825 0.0737835 0.
0.573039 0.0739945 0.
0.575202 0.0741934 0.
0.577367 0.0743932 0.
0.579473 0.0744898 0.
0.581573 0.074578 0.
0.583664 0.0746576 0.
0.585717 0.0746993 0.
0.587771 0.0747411 0.
0.589819 0.0747759 0.
0.591862 0.074804 0.
0.593905 0.0748321 0.
0.595943 0.0748436 0.
0.59798 0.0748497 0.
0.600018 0.0748556 0.
0.602058 0.0748367 0.
0.604098 0.0748179 0.
0.606141 0.0747946 0.
0.608192 0.0747583 0.
0.610243 0.0747221 0.
0.612302 0.0746793 0.
0.614369 0.07463 0.
0.616435 0.0745808 0.
0.618549 0.0744687 0.
0.620671 0.0743459 0.
0.622803 0.074214 0.
0.62499 0.0739915 0.
0.627175 0.0737697 0.
0.629427 0.0735235 0.
0.631716 0.073269 0.
0.634005 0.073005 0.
0.636368 0.0725677 0.
0.638728 0.0721281 0.
0.64113 0.0716572 0.
0.643553 0.0710899 0.
0.645987 0.0704947 0.
0.648449 0.0698057 0.
0.650914 0.0690675 0.
0.653399 0.06827 0.
0.655888 0.0674297 0.
0.658394 0.066558 0.
0.660913 0.0656337 0.
0.663436 0.0646319 0.
0.665965 0.0635653 0.
0.668503 0.0624544 0.
0.67105 0.0612677 0.
0.673612 0.0600482 0.
0.676187 0.058773 0.
0.678775 0.0574518 0.
0.681378 0.0560965 0.
0.683995 0.0547159 0.
0.686616 0.053276 0.
0.689242 0.0518043 0.
0.691872 0.0503391 0.
0.694508 0.04889 0.
0.697145 0.0474602 0.
0.699793 0.046051 0.
0.702453 0.044681 0.
0.705111 0.043379 0.
0.707764 0.0421832 0.
0.710392 0.0411371 0.
0.712981 0.0402926 0.
0.715526 0.0397072 0.
0.718022 0.039351 0.
0.480606 0.0409785 0.
0.483069 0.0413426 0.
0.485584 0.0419704 0.
0.488134 0.0428237 0.
0.49072 0.0438939 0.
0.49332 0.0451026 0.
0.49592 0.0463922 0.
0.498518 0.0477433 0.
0.501123 0.0491674 0.
0.503718 0.0506269 0.
0.506307 0.052099 0.
0.508884 0.0535382 0.
0.511451 0.0549141 0.
0.514011 0.0562613 0.
0.516561 0.0576126 0.
0.519113 0.0589681 0.
0.521661 0.0603094 0.
0.524202 0.0616061 0.
0.526741 0.0628458 0.
0.529272 0.0640153 0.
0.531794 0.0651426 0.
0.534313 0.0661895 0.
0.536823 0.0672021 0.
0.53932 0.0681597 0.
0.541815 0.0690387 0.
0.544304 0.0698423 0.
0.546773 0.0706178 0.
0.549234 0.0713467 0.
0.551678 0.0720295 0.
0.554124 0.0726706 0.
0.556542 0.0732522 0.
0.558953 0.0738139 0.
0.561348 0.0742712 0.
0.563709 0.0746853 0.
0.566068 0.0750911 0.
0.56835 0.0753417 0.
0.570629 0.0755904 0.
0.572869 0.0758312 0.
0.575044 0.0760421 0.
0.577223 0.0762531 0.
0.579355 0.0763759 0.
0.581479 0.0764913 0.
0.583596 0.0765964 0.
0.585659 0.0766415 0.
0.587722 0.0766868 0.
0.589779 0.0767248 0.
0.591831 0.0767556 0.
0.593883 0.0767864 0.
0.59593 0.0767988 0.
0.597977 0.0768052 0.
0.600023 0.0768114 0.
0.602072 0.0767904 0.
0.604121 0.0767694 0.
0.606174 0.0767433 0.
0.608235 0.0767027 0.
0.610296 0.0766622 0.
0.612367 0.0766147 0.
0.614445 0.0765606 0.
0.616523 0.0765067 0.
0.618661 0.0763652 0.
0.620805 0.0762136 0.
0.62296 0.0760552 0.
0.625162 0.0758226 0.
0.627358 0.0755905 0.
0.629639 0.0753072 0.
0.631958 0.0750159 0.
0.634287 0.0747117 0.
0.636673 0.0742489 0.
0.639056 0.0737819 0.
0.641475 0.073265 0.
0.643901 0.0726652 0.
0.646341 0.0720339 0.
0.648801 0.0713324 0.
0.651261 0.0705826 0.
0.653735 0.0697767 0.
0.656213 0.068931 0.
0.658708 0.0680487 0.
0.661208 0.0671214 0.
0.663712 0.0661158 0.
0.666221 0.0650502 0.
0.668735 0.0639409 0.
0.671251 0.0627629 0.
0.673779 0.0615515 0.
0.676316 0.0602912 0.
0.678861 0.0589855 0.
0.681415 0.0576495 0.
0.683984 0.0562939 0.
0.686556 0.0548804 0.
0.689134 0.0534359 0.
0.691708 0.0520006 0.
0.694292 0.0505744 0.
0.696879 0.0491606 0.
0.699471 0.0477736 0.
0.70208 0.0464171 0.
0.704689 0.0451288 0.
0.707293 0.0439403 0.
0.709884 0.0428908 0.
0.712443 0.0420363 0.
0.714958 0.0414483 0.
0.717426 0.0410901 0.
0.481211 0.0427293 0.
0.48365 0.0431113 0.
0.486137 0.0437455 0.
0.48866 0.0446161 0.
0.491206 0.0456944 0.
0.493758 0.0468935 0.
0.496311 0.0481701 0.
0.498864 0.0495143 0.
0.501415 0.0509194 0.
0.503954 0.0523548 0.
0.506492 0.0538017 0.
0.509016 0.0552127 0.
0.51153 0.056564 0.
0.514037 0.0578885 0.
0.51654 0.0592162 0.
0.519048 0.0605458 0.
0.521551 0.0618615 0.
0.524052 0.063137 0.
0.526552 0.0643619 0.
0.529049 0.0655232 0.
0.531543 0.066641 0.
0.534035 0.0676839 0.
0.536522 0.068694 0.
0.539005 0.0696589 0.
0.541489 0.0705437 0.
0.543968 0.0713593 0.
0.546429 0.0721416 0.
0.548888 0.0728854 0.
0.551333 0.0735816 0.
0.55378 0.0742354 0.
0.556206 0.0748421 0.
0.558626 0.0754203 0.
0.561034 0.0759085 0.
0.563408 0.0763412 0.
0.565782 0.0767709 0.
0.568089 0.0770688 0.
0.570387 0.0773638 0.
0.572655 0.0776491 0.
0.574854 0.0778729 0.
0.577058 0.0780971 0.
0.579221 0.0782496 0.
0.581376 0.0783969 0.
0.583524 0.0785324 0.
0.585597 0.0785814 0.
0.58767 0.0786306 0.
0.589738 0.0786722 0.
0.591799 0.0787058 0.
0.59386 0.0787395 0.
0.595917 0.078753 0.
0.597973 0.0787596 0.
0.600029 0.0787661 0.
0.602087 0.0787429 0.
0.604146 0.0787197 0.
0.606209 0.0786905 0.
0.60828 0.0786452 0.
0.610351 0.0786 0.
0.612435 0.0785471 0.
0.614527 0.0784874 0.
0.616618 0.0784279 0.
0.618787 0.0782518 0.
0.620959 0.0780666 0.
0.623146 0.0778784 0.
0.625375 0.0776324 0.
0.627597 0.0773872 0.
0.629907 0.077049 0.
0.632241 0.0767047 0.
0.634589 0.0763516 0.
0.636987 0.0758778 0.
0.639385 0.0753992 0.
0.641815 0.074857 0.
0.644248 0.0742326 0.
0.646693 0.0735729 0.
0.649151 0.0728619 0.
0.651607 0.0721014 0.
0.654071 0.0712869 0.
0.656539 0.0704367 0.
0.659019 0.0695497 0.
0.661502 0.0686213 0.
0.663985 0.0676142 0.
0.666469 0.0665534 0.
0.668958 0.0654506 0.
0.671445 0.0642837 0.
0.673937 0.0630841 0.
0.676432 0.0618438 0.
0.678931 0.0605593 0.
0.681436 0.0592447 0.
0.683952 0.0579132 0.
0.686471 0.0565313 0.
0.688998 0.0551153 0.
0.691522 0.0537053 0.
0.694051 0.0523042 0.
0.696591 0.0509046 0.
0.699134 0.0495345 0.
0.701691 0.048195 0.
0.704252 0.0469138 0.
0.706811 0.0457288 0.
0.70936 0.0446786 0.
0.711885 0.0438121 0.
0.714374 0.0432091 0.
0.716817 0.0428449 0.
0.48182 0.0445039 0.
0.484234 0.0449004 0.
0.486694 0.0455481 0.
0.489183 0.0464401 0.
0.491686 0.0475163 0.
0.494197 0.0487105 0.
0.496708 0.0499848 0.
0.499212 0.051317 0.
0.50171 0.052703 0.
0.504198 0.0541216 0.
0.506682 0.0555416 0.
0.509152 0.0569223 0.
0.511613 0.0582491 0.
0.514068 0.0595506 0.
0.516522 0.0608521 0.
0.518982 0.0621504 0.
0.521438 0.0634382 0.
0.523896 0.0646924 0.
0.526362 0.0659007 0.
0.528826 0.0670493 0.
0.531289 0.0681541 0.
0.533758 0.0691911 0.
0.53623 0.0701969 0.
0.538698 0.0711654 0.
0.541167 0.0720535 0.
0.543636 0.0728799 0.
0.546093 0.0736693 0.
0.54855 0.0744224 0.
0.550996 0.0751259 0.
0.553444 0.0757906 0.
0.555877 0.0764171 0.
0.558302 0.0770123 0.
0.56072 0.0775314 0.
0.563107 0.0779921 0.
0.565496 0.0784481 0.
0.567827 0.078788 0.
0.570144 0.0791294 0.
0.572442 0.079465 0.
0.574665 0.0797006 0.
0.576892 0.0799352 0.
0.579086 0.0801131 0.
0.581271 0.0802924 0.
0.583448 0.0804621 0.
0.585532 0.0805149 0.
0.587616 0.0805679 0.
0.589695 0.0806129 0.
0.591765 0.0806491 0.
0.593836 0.0806853 0.
0.595903 0.0806997 0.
0.597969 0.0807064 0.
0.600035 0.0807129 0.
0.602104 0.0806878 0.
0.604173 0.0806627 0.
0.606246 0.0806307 0.
0.608327 0.080581 0.
0.610408 0.0805315 0.
0.612505 0.0804724 0.
0.614611 0.0804062 0.
0.616717 0.0803401 0.
0.618914 0.0801289 0.
0.621113 0.0799126 0.
0.623333 0.0796979 0.
0.625588 0.0794398 0.
0.627837 0.0791819 0.
0.630175 0.0787821 0.
0.632525 0.078385 0.
0.634893 0.0779873 0.
0.637302 0.0774929 0.
0.639711 0.0769891 0.
0.642145 0.0764264 0.
0.644581 0.0757899 0.
0.647032 0.0751114 0.
0.649492 0.074392 0.
0.651946 0.0736227 0.
0.654405 0.0728025 0.
0.656862 0.0719476 0.
0.659328 0.0710585 0.
0.661794 0.0701301 0.
0.664256 0.0691253 0.
0.666719 0.0680718 0.
0.669182 0.0669775 0.
0.671638 0.065826 0.
0.674096 0.0646417 0.
0.676551 0.0634219 0.
0.679004 0.0621622 0.
0.681458 0.0608737 0.
0.683921 0.0595666 0.
0.686385 0.0582143 0.
0.688858 0.0568318 0.
0.691331 0.0554473 0.
0.693806 0.0540687 0.
0.696293 0.0526868 0.
0.698788 0.0513284 0.
0.701297 0.0500037 0.
0.703813 0.0487309 0.
0.70633 0.0475422 0.
0.708839 0.0464882 0.
0.711327 0.0456163 0.
0.713785 0.0449931 0.
0.716205 0.0446158 0.
0.482429 0.0462994 0.
0.484816 0.0467122 0.
0.487242 0.0473779 0.
0.489695 0.0482844 0.
0.49216 0.0493637 0.
0.494632 0.0505617 0.
0.497096 0.0518264 0.
0.499549 0.0531468 0.
0.501995 0.0545221 0.
0.504428 0.0559206 0.
0.506857 0.05731 0.
0.509272 0.0586636 0.
0.511677 0.0599653 0.
0.51408 0.0612418 0.
0.516484 0.0625131 0.
0.518894 0.0637775 0.
0.521307 0.0650378 0.
0.523727 0.0662708 0.
0.526157 0.0674579 0.
0.528591 0.0685912 0.
0.531028 0.0696825 0.
0.533481 0.0707114 0.
0.535937 0.0717102 0.
0.538391 0.0726805 0.
0.54085 0.073572 0.
0.54331 0.0744064 0.
0.545764 0.0752002 0.
0.54822 0.0759611 0.
0.550666 0.0766728 0.
0.553113 0.0773463 0.
0.555551 0.0779911 0.
0.55798 0.0786018 0.
0.560407 0.0791471 0.
0.562808 0.0796313 0.
0.565205 0.0801028 0.
0.567556 0.0804745 0.
0.569889 0.0808506 0.
0.572213 0.0812268 0.
0.574469 0.0814706 0.
0.576734 0.0817161 0.
0.578957 0.0819312 0.
0.581159 0.0821585 0.
0.583358 0.0823783 0.
0.585456 0.0824358 0.
0.587555 0.0824935 0.
0.589647 0.0825425 0.
0.591727 0.0825814 0.
0.593808 0.0826204 0.
0.595887 0.0826354 0.
0.597965 0.0826419 0.
0.600043 0.0826481 0.
0.602124 0.0826212 0.
0.604205 0.0825944 0.
0.606289 0.0825595 0.
0.608379 0.0825055 0.
0.610468 0.0824516 0.
0.612582 0.0823824 0.
0.614707 0.0823037 0.
0.616834 0.082222 0.
0.619059 0.0819638 0.
0.621282 0.0817032 0.
0.623532 0.0814551 0.
0.625818 0.0811846 0.
0.628098 0.080912 0.
0.630451 0.0804773 0.
0.63281 0.0800435 0.
0.635194 0.079612 0.
0.637611 0.0791023 0.
0.640031 0.0785766 0.
0.642471 0.0779953 0.
0.64491 0.077346 0.
0.647361 0.0766517 0.
0.649818 0.075926 0.
0.652272 0.0751503 0.
0.654728 0.0743255 0.
0.657181 0.0734668 0.
0.659637 0.0725771 0.
0.662089 0.0716501 0.
0.664533 0.0706501 0.
0.666977 0.0696065 0.
0.669417 0.0685223 0.
0.671843 0.0673869 0.
0.674267 0.0662216 0.
0.676684 0.0650249 0.
0.679095 0.0637889 0.
0.681499 0.0625287 0.
0.683908 0.0612513 0.
0.686317 0.0599282 0.
0.688732 0.0585776 0.
0.69115 0.0572218 0.
0.693571 0.055865 0.
0.696003 0.0545015 0.
0.698448 0.0531549 0.
0.70091 0.0518391 0.
0.703379 0.0505767 0.
0.705854 0.0493871 0.
0.708327 0.0483199 0.
0.71078 0.0474413 0.
0.713206 0.0468007 0.
0.715598 0.0464092 0.
0.483052 0.0481184 0.
0.48541 0.0485514 0.
0.487802 0.049241 0.
0.49022 0.0501642 0.
0.492648 0.051252 0.
0.495075 0.0524504 0.
0.497488 0.0537064 0.
0.49989 0.0550239 0.
0.50228 0.0563834 0.
0.504655 0.0577556 0.
0.507025 0.0591185 0.
0.509382 0.0604436 0.
0.511731 0.061717 0.
0.51408 0.0629652 0.
0.516434 0.0642055 0.
0.5188 0.0654373 0.
0.521169 0.0666681 0.
0.523551 0.0678734 0.
0.525949 0.0690371 0.
0.528357 0.0701541 0.
0.530775 0.0712288 0.
0.533211 0.0722471 0.
0.535652 0.0732373 0.
0.538095 0.074206 0.
0.540543 0.0750985 0.
0.542995 0.0759372 0.
0.545442 0.0767344 0.
0.547892 0.0775018 0.
0.550336 0.0782191 0.
0.552781 0.0788983 0.
0.555221 0.0795589 0.
0.55765 0.0801805 0.
0.560079 0.0807369 0.
0.562484 0.081244 0.
0.564885 0.0817384 0.
0.567259 0.0821411 0.
0.569616 0.0825511 0.
0.571969 0.0829696 0.
0.574265 0.0832342 0.
0.57657 0.0834953 0.
0.578826 0.0837455 0.
0.581047 0.0840211 0.
0.583266 0.0842927 0.
0.58538 0.0843565 0.
0.587493 0.0844189 0.
0.589599 0.0844721 0.
0.59169 0.0845137 0.
0.593781 0.0845554 0.
0.595871 0.0845712 0.
0.59796 0.0845775 0.
0.60005 0.0845834 0.
0.602144 0.0845547 0.
0.604237 0.084526 0.
0.606332 0.0844883 0.
0.608431 0.0844299 0.
0.610529 0.0843716 0.
0.612659 0.0842916 0.
0.614803 0.0842005 0.
0.616954 0.0841005 0.
0.619206 0.0837952 0.
0.621454 0.0834893 0.
0.623739 0.0832045 0.
0.626061 0.0829114 0.
0.62838 0.0826073 0.
0.63075 0.0821413 0.
0.633123 0.0816813 0.
0.635521 0.0812236 0.
0.637938 0.0806958 0.
0.64036 0.0801503 0.
0.6428 0.0795594 0.
0.645239 0.0789006 0.
0.647687 0.0781923 0.
0.65014 0.0774618 0.
0.652589 0.0766819 0.
0.655038 0.0758556 0.
0.657486 0.0749948 0.
0.659933 0.0741066 0.
0.662375 0.0731824 0.
0.664805 0.0721899 0.
0.667231 0.0711591 0.
0.669648 0.0700892 0.
0.672046 0.0689718 0.
0.674438 0.0678269 0.
0.67682 0.0666573 0.
0.679189 0.0654493 0.
0.681546 0.0642163 0.
0.683904 0.0629699 0.
0.686258 0.061679 0.
0.688617 0.0603607 0.
0.690975 0.0590343 0.
0.693338 0.0577002 0.
0.695715 0.0563553 0.
0.698102 0.0550239 0.
0.700512 0.0537159 0.
0.702936 0.0524579 0.
0.705367 0.0512726 0.
0.707801 0.0501909 0.
0.710221 0.0492959 0.
0.712615 0.048634 0.
0.714979 0.0482235 0.
0.483697 0.0499699 0.
0.486026 0.0504263 0.
0.488387 0.0511452 0.
0.490767 0.0520878 0.
0.49315 0.0531852 0.
0.495527 0.0543836 0.
0.497888 0.0556381 0.
0.500233 0.0569477 0.
0.502563 0.058285 0.
0.50488 0.0596366 0.
0.50719 0.06097 0.
0.509486 0.0622607 0.
0.511781 0.0635061 0.
0.514077 0.0647264 0.
0.516383 0.0659352 0.
0.518703 0.0671306 0.
0.521032 0.0683266 0.
0.523379 0.0695023 0.
0.525748 0.0706398 0.
0.528132 0.0717356 0.
0.530529 0.0727915 0.
0.532948 0.0737976 0.
0.535373 0.0747774 0.
0.537802 0.0757419 0.
0.540237 0.0766334 0.
0.542679 0.0774735 0.
0.545119 0.0782727 0.
0.547562 0.0790433 0.
0.550002 0.0797644 0.
0.552445 0.080447 0.
0.554881 0.0811179 0.
0.557308 0.0817479 0.
0.559739 0.082317 0.
0.56215 0.08285 0.
0.564557 0.0833669 0.
0.56695 0.0837982 0.
0.569329 0.0842414 0.
0.571704 0.0846964 0.
0.574036 0.0849822 0.
0.576364 0.0852534 0.
0.578642 0.0855306 0.
0.580873 0.0858409 0.
0.583108 0.0861464 0.
0.585258 0.0862321 0.
0.587405 0.0863113 0.
0.58954 0.0863773 0.
0.591644 0.0864198 0.
0.593748 0.0864623 0.
0.595852 0.086478 0.
0.597956 0.0864835 0.
0.60006 0.0864885 0.
0.602168 0.0864586 0.
0.604276 0.0864288 0.
0.606385 0.0863894 0.
0.608498 0.0863293 0.
0.61061 0.0862693 0.
0.612769 0.0861691 0.
0.614944 0.0860544 0.
0.617128 0.0859246 0.
0.619399 0.0855888 0.
0.621664 0.0852515 0.
0.623975 0.0849384 0.
0.626323 0.0846265 0.
0.628675 0.0842926 0.
0.631059 0.0837986 0.
0.633445 0.083313 0.
0.635855 0.0828293 0.
0.638274 0.0822823 0.
0.640699 0.0817154 0.
0.643139 0.081116 0.
0.645574 0.0804514 0.
0.648017 0.0797334 0.
0.650463 0.0789993 0.
0.652906 0.0782179 0.
0.655347 0.0773917 0.
0.657784 0.0765315 0.
0.660221 0.075648 0.
0.66265 0.0747286 0.
0.665067 0.0737455 0.
0.667477 0.0727295 0.
0.669872 0.0716764 0.
0.672244 0.07058 0.
0.674606 0.0694584 0.
0.676954 0.0683171 0.
0.679285 0.0671402 0.
0.681599 0.065939 0.
0.683907 0.0647244 0.
0.686204 0.0634682 0.
0.688504 0.0621839 0.
0.690805 0.0608876 0.
0.693107 0.0595803 0.
0.695425 0.0582535 0.
0.697757 0.0569357 0.
0.700109 0.0556413 0.
0.702479 0.0543861 0.
0.704863 0.0532007 0.
0.707254 0.0521081 0.
0.709636 0.051194 0.
0.711995 0.0505055 0.
0.714329 0.0500667 0.
0.484369 0.0518565 0.
0.486666 0.0523408 0.
0.488991 0.0530965 0.
0.491327 0.054059 0.
0.493662 0.0551671 0.
0.495986 0.0563683 0.
0.498287 0.0576165 0.
0.500572 0.0589136 0.
0.502839 0.0602333 0.
0.505094 0.0615582 0.
0.507344 0.0628548 0.
0.509583 0.0641138 0.
0.511824 0.0653311 0.
0.514071 0.0665203 0.
0.51633 0.0676951 0.
0.518606 0.0688524 0.
0.520897 0.0700141 0.
0.523211 0.0711588 0.
0.525551 0.0722635 0.
0.52791 0.0733353 0.
0.530287 0.0743711 0.
0.532686 0.0753621 0.
0.535095 0.0763297 0.
0.537507 0.0772864 0.
0.53993 0.0781759 0.
0.542362 0.0790149 0.
0.544796 0.0798151 0.
0.547233 0.0805878 0.
0.549668 0.0813108 0.
0.552108 0.0819958 0.
0.554543 0.082676 0.
0.556971 0.0833143 0.
0.559403 0.0838924 0.
0.561819 0.0844438 0.
0.564232 0.0849765 0.
0.566636 0.0854268 0.
0.569023 0.0858826 0.
0.571406 0.0863436 0.
0.573748 0.08667 0.
0.576086 0.0869769 0.
0.57839 0.0872899 0.
0.580649 0.0876316 0.
0.582915 0.0879703 0.
0.585113 0.0880887 0.
0.587305 0.0881923 0.
0.589477 0.088277 0.
0.591596 0.0883205 0.
0.593715 0.088364 0.
0.595833 0.0883795 0.
0.597952 0.0883841 0.
0.600071 0.0883883 0.
0.602194 0.0883568 0.
0.604317 0.0883253 0.
0.606442 0.088284 0.
0.608571 0.0882222 0.
0.610699 0.0881605 0.
0.612896 0.088032 0.
0.615111 0.0878841 0.
0.617341 0.0877136 0.
0.619642 0.087346 0.
0.621936 0.0869784 0.
0.624271 0.0866321 0.
0.626627 0.0862919 0.
0.62899 0.0859231 0.
0.631379 0.0854234 0.
0.633772 0.0849275 0.
0.636187 0.0844255 0.
0.638608 0.0838623 0.
0.641036 0.0832791 0.
0.643476 0.0826728 0.
0.645909 0.0820024 0.
0.648347 0.0812764 0.
0.650787 0.08054 0.
0.653223 0.0797591 0.
0.655656 0.0789342 0.
0.658084 0.0780752 0.
0.660508 0.0771985 0.
0.662923 0.0762866 0.
0.665324 0.0753159 0.
0.667717 0.0743157 0.
0.670091 0.073283 0.
0.67244 0.0722085 0.
0.674773 0.0711132 0.
0.67709 0.0700035 0.
0.679385 0.0688582 0.
0.681659 0.0676908 0.
0.68392 0.0665124 0.
0.686165 0.0652909 0.
0.688407 0.0640428 0.
0.690649 0.0627773 0.
0.692892 0.0614976 0.
0.695147 0.0601963 0.
0.697416 0.0588933 0.
0.699707 0.0576107 0.
0.702018 0.0563657 0.
0.704346 0.0551789 0.
0.70669 0.0540724 0.
0.709028 0.0531373 0.
0.711346 0.0524235 0.
0.713645 0.0519463 0.
0.485048 0.0537781 0.
0.487309 0.0542987 0.
0.489591 0.055093 0.
0.491878 0.056074 0.
0.494157 0.0571902 0.
0.496419 0.0583881 0.
0.498656 0.0596271 0.
0.500875 0.060911 0.
0.503076 0.0622064 0.
0.505268 0.0634974 0.
0.507456 0.0647596 0.
0.509643 0.0659857 0.
0.511836 0.0671706 0.
0.514035 0.0683285 0.
0.516251 0.0694694 0.
0.518489 0.0705918 0.
0.520747 0.0717191 0.
0.523031 0.072829 0.
0.525345 0.073902 0.
0.527681 0.0749493 0.
0.530037 0.0759634 0.
0.532419 0.0769369 0.
0.534813 0.0778904 0.
0.537213 0.078837 0.
0.539626 0.0797246 0.
0.542051 0.0805617 0.
0.544479 0.0813625 0.
0.546909 0.0821353 0.
0.549341 0.0828599 0.
0.551778 0.0835473 0.
0.554212 0.0842342 0.
0.556641 0.08488 0.
0.559075 0.0854669 0.
0.561497 0.0860329 0.
0.563913 0.0865766 0.
0.566321 0.0870447 0.
0.568716 0.0875111 0.
0.571109 0.0879842 0.
0.573462 0.0883507 0.
0.575809 0.0886929 0.
0.578137 0.0890444 0.
0.580425 0.0894171 0.
0.582722 0.089787 0.
0.584968 0.0899374 0.
0.587205 0.0900651 0.
0.589416 0.0901712 0.
0.591549 0.0902152 0.
0.593682 0.0902592 0.
0.595815 0.0902744 0.
0.597948 0.0902781 0.
0.600082 0.0902813 0.
0.60222 0.0902485 0.
0.604357 0.0902157 0.
0.606497 0.0901729 0.
0.608642 0.0901099 0.
0.610787 0.0900471 0.
0.613024 0.0898881 0.
0.615279 0.089707 0.
0.617554 0.0894966 0.
0.619886 0.0890983 0.
0.622208 0.0887006 0.
0.624566 0.0883196 0.
0.626933 0.0879492 0.
0.629306 0.0875452 0.
0.631701 0.0870351 0.
0.634099 0.0865282 0.
0.636516 0.0860141 0.
0.638938 0.0854401 0.
0.641369 0.0848441 0.
0.643808 0.0842311 0.
0.646239 0.0835549 0.
0.648673 0.0828227 0.
0.651108 0.0820847 0.
0.653537 0.0813058 0.
0.655962 0.0804831 0.
0.658382 0.0796267 0.
0.660796 0.0787566 0.
0.6632 0.0778524 0.
0.665585 0.0768968 0.
0.667961 0.0759147 0.
0.670317 0.0749028 0.
0.672645 0.0738513 0.
0.674953 0.072782 0.
0.677241 0.0717035 0.
0.679504 0.070593 0.
0.681744 0.0694583 0.
0.683965 0.0683149 0.
0.686166 0.0671289 0.
0.688355 0.0659171 0.
0.690538 0.0646859 0.
0.692719 0.0634364 0.
0.69491 0.0621628 0.
0.697114 0.0608826 0.
0.699336 0.0596145 0.
0.701581 0.0583794 0.
0.703847 0.0571967 0.
0.706133 0.056082 0.
0.708422 0.055123 0.
0.710696 0.0543865 0.
0.712957 0.0538666 0.
0.485709 0.0557413 0.
0.487927 0.0563034 0.
0.490157 0.0571297 0.
0.492385 0.058124 0.
0.494598 0.0592441 0.
0.496789 0.0604352 0.
0.498955 0.0616607 0.
0.501103 0.0629223 0.
0.503235 0.0641867 0.
0.505364 0.0654444 0.
0.507499 0.0666713 0.
0.509638 0.0678612 0.
0.511784 0.0690154 0.
0.513945 0.0701428 0.
0.516124 0.0712529 0.
0.518331 0.0723414 0.
0.520561 0.0734338 0.
0.52282 0.0745112 0.
0.525113 0.0755526 0.
0.527431 0.0765739 0.
0.529769 0.0775676 0.
0.532139 0.0785223 0.
0.534525 0.079461 0.
0.536916 0.0803975 0.
0.539323 0.0812834 0.
0.54174 0.0821168 0.
0.544164 0.0829167 0.
0.546592 0.0836887 0.
0.549023 0.0844145 0.
0.551462 0.0851035 0.
0.553896 0.0857944 0.
0.556326 0.0864474 0.
0.558761 0.0870422 0.
0.561187 0.0876209 0.
0.563607 0.0881753 0.
0.566022 0.0886614 0.
0.568427 0.0891366 0.
0.57083 0.0896193 0.
0.573199 0.0900161 0.
0.575558 0.0903842 0.
0.577906 0.0907584 0.
0.580223 0.0911352 0.
0.582548 0.0915052 0.
0.584831 0.0917034 0.
0.587105 0.0918901 0.
0.589352 0.0920455 0.
0.591501 0.0920902 0.
0.59365 0.0921349 0.
0.595799 0.0921501 0.
0.597947 0.0921531 0.
0.600095 0.0921555 0.
0.602247 0.0921209 0.
0.604398 0.0920864 0.
0.606553 0.0920411 0.
0.608712 0.0919753 0.
0.610871 0.0919098 0.
0.613154 0.0916893 0.
0.615453 0.0914475 0.
0.617765 0.0911926 0.
0.620115 0.0907937 0.
0.622461 0.0903894 0.
0.624835 0.0899905 0.
0.627217 0.0895971 0.
0.629603 0.0891652 0.
0.632006 0.088646 0.
0.634412 0.0881288 0.
0.636832 0.0876012 0.
0.639255 0.0870173 0.
0.641687 0.0864112 0.
0.644126 0.0857926 0.
0.646558 0.0851111 0.
0.64899 0.0843749 0.
0.651424 0.0836364 0.
0.653849 0.0828594 0.
0.656269 0.0820392 0.
0.658683 0.0811878 0.
0.66109 0.0803258 0.
0.663485 0.0794282 0.
0.66586 0.0784867 0.
0.668224 0.0775236 0.
0.670564 0.076534 0.
0.672874 0.0755055 0.
0.675161 0.0744628 0.
0.677424 0.0734128 0.
0.679661 0.0723347 0.
0.681871 0.0712356 0.
0.68406 0.0701252 0.
0.686224 0.0689723 0.
0.688371 0.0677945 0.
0.690504 0.0665986 0.
0.692627 0.0653838 0.
0.694753 0.0641398 0.
0.696888 0.0628851 0.
0.699039 0.06164 0.
0.701211 0.0604209 0.
0.703404 0.0592445 0.
0.705623 0.0581271 0.
0.707853 0.0571479 0.
0.710076 0.0563896 0.
0.712294 0.0558301 0.
0.486331 0.0577466 0.
0.488496 0.0583501 0.
0.490665 0.059201 0.
0.49282 0.0602057 0.
0.494957 0.0613226 0.
0.497073 0.0624998 0.
0.499164 0.063705 0.
0.50124 0.0649397 0.
0.503309 0.0661723 0.
0.505384 0.0673943 0.
0.507471 0.068586 0.
0.50957 0.0697427 0.
0.511681 0.070865 0.
0.513812 0.0719631 0.
0.515963 0.0730468 0.
0.518148 0.0741047 0.
0.520356 0.075166 0.
0.522598 0.0762087 0.
0.524877 0.077218 0.
0.527181 0.0782141 0.
0.529509 0.0791889 0.
0.53187 0.0801259 0.
0.534248 0.0810502 0.
0.536632 0.0819731 0.
0.539032 0.0828542 0.
0.541444 0.0836825 0.
0.543866 0.0844808 0.
0.546294 0.0852522 0.
0.548724 0.0859772 0.
0.551162 0.0866653 0.
0.553597 0.0873589 0.
0.556028 0.088018 0.
0.558466 0.0886197 0.
0.560898 0.0892092 0.
0.563323 0.0897729 0.
0.565745 0.0902721 0.
0.568155 0.0907574 0.
0.570562 0.0912538 0.
0.572942 0.0916726 0.
0.575309 0.0920567 0.
0.577672 0.0924517 0.
0.580017 0.0928381 0.
0.582371 0.093218 0.
0.584691 0.0934637 0.
0.587002 0.093711 0.
0.589287 0.0939199 0.
0.591452 0.0939653 0.
0.593618 0.0940106 0.
0.595782 0.0940258 0.
0.597945 0.094028 0.
0.600109 0.0940297 0.
0.602274 0.0939933 0.
0.60444 0.093957 0.
0.606609 0.0939092 0.
0.608782 0.0938406 0.
0.610955 0.0937722 0.
0.613289 0.0934838 0.
0.615634 0.0931747 0.
0.617984 0.0928727 0.
0.620353 0.0924636 0.
0.622717 0.0920469 0.
0.625099 0.0916374 0.
0.627484 0.0912353 0.
0.629877 0.090786 0.
0.632286 0.0902569 0.
0.6347 0.0897293 0.
0.637125 0.0891903 0.
0.639552 0.088597 0.
0.641987 0.0879822 0.
0.644426 0.0873584 0.
0.646858 0.0866726 0.
0.649289 0.0859351 0.
0.651722 0.0851978 0.
0.654145 0.0844237 0.
0.656563 0.0836066 0.
0.658972 0.0827607 0.
0.661372 0.0819075 0.
0.663758 0.0810201 0.
0.666125 0.0800939 0.
0.668481 0.0791485 0.
0.670811 0.0781815 0.
0.673107 0.0771761 0.
0.675376 0.0761599 0.
0.677623 0.0751383 0.
0.679838 0.0740896 0.
0.682028 0.0730225 0.
0.684192 0.0719453 0.
0.686327 0.0708234 0.
0.688442 0.069678 0.
0.690536 0.0685139 0.
0.692613 0.067333 0.
0.694684 0.0661231 0.
0.696754 0.0648966 0.
0.698833 0.0636752 0.
0.70093 0.0624765 0.
0.703048 0.0613167 0.
0.70519 0.0602044 0.
0.707348 0.0592099 0.
0.70951 0.0584295 0.
0.711675 0.0578359 0.
0.486859 0.0597866 0.
0.488962 0.0604305 0.
0.49106 0.0612968 0.
0.493141 0.0623042 0.
0.495201 0.0634118 0.
0.497239 0.0645712 0.
0.499261 0.065752 0.
0.50128 0.066955 0.
0.503303 0.0681553 0.
0.505337 0.0693464 0.
0.50739 0.070507 0.
0.509461 0.071628 0.
0.511551 0.0727199 0.
0.513663 0.0737937 0.
0.515797 0.074856 0.
0.517966 0.075887 0.
0.520161 0.0769152 0.
0.522391 0.0779245 0.
0.524661 0.0789051 0.
0.526958 0.0798781 0.
0.529277 0.0808339 0.
0.531628 0.0817499 0.
0.533997 0.0826572 0.
0.536376 0.0835655 0.
0.538772 0.0844401 0.
0.54118 0.0852634 0.
0.543599 0.0860594 0.
0.546023 0.0868268 0.
0.54845 0.0875491 0.
0.550886 0.0882354 0.
0.553321 0.0889302 0.
0.555756 0.0895941 0.
0.558197 0.0902019 0.
0.56063 0.0907988 0.
0.563056 0.0913689 0.
0.565478 0.0918784 0.
0.56789 0.0923758 0.
0.570299 0.0928861 0.
0.572689 0.0933248 0.
0.575065 0.0937242 0.
0.57744 0.0941375 0.
0.579814 0.0945305 0.
0.582195 0.0949126 0.
0.58455 0.0951972 0.
0.586896 0.0955039 0.
0.589217 0.09577 0.
0.5914 0.0958154 0.
0.593584 0.095861 0.
0.595765 0.0958764 0.
0.597945 0.0958786 0.
0.600124 0.09588 0.
0.602304 0.0958429 0.
0.604483 0.0958058 0.
0.606668 0.0957563 0.
0.608857 0.0956856 0.
0.611045 0.0956151 0.
0.613424 0.0952558 0.
0.615814 0.0948831 0.
0.618198 0.094543 0.
0.620586 0.0941269 0.
0.622968 0.0937004 0.
0.625357 0.0932816 0.
0.627746 0.0928708 0.
0.630145 0.0924052 0.
0.632554 0.0918665 0.
0.634968 0.0913296 0.
0.637393 0.0907821 0.
0.639822 0.0901823 0.
0.642259 0.0895607 0.
0.644699 0.0889318 0.
0.647133 0.0882425 0.
0.649564 0.0875045 0.
0.651994 0.0867701 0.
0.654412 0.0860021 0.
0.656826 0.0851902 0.
0.659232 0.0843505 0.
0.661625 0.0835056 0.
0.664004 0.0826286 0.
0.666364 0.0817202 0.
0.66871 0.0807974 0.
0.671031 0.079853 0.
0.673319 0.0788691 0.
0.675578 0.0778781 0.
0.677812 0.0768827 0.
0.680012 0.0758639 0.
0.682187 0.0748264 0.
0.684337 0.0737777 0.
0.686452 0.0726845 0.
0.688544 0.0715679 0.
0.690614 0.0704347 0.
0.692662 0.0692846 0.
0.694694 0.0681059 0.
0.696715 0.0669099 0.
0.698737 0.0657138 0.
0.700767 0.0645361 0.
0.702811 0.0633951 0.
0.704876 0.0622955 0.
0.706959 0.061299 0.
0.709051 0.0605024 0.
0.711152 0.0598825 0.
0.487251 0.0618475 0.
0.489291 0.0625263 0.
0.491317 0.0634082 0.
0.493325 0.0644198 0.
0.495313 0.0655196 0.
0.49729 0.066658 0.
0.499264 0.067812 0.
0.501246 0.0689893 0.
0.503239 0.0701653 0.
0.505247 0.0713267 0.
0.507281 0.0724511 0.
0.509341 0.0735352 0.
0.511424 0.0746032 0.
0.513529 0.0756605 0.
0.515649 0.076701 0.
0.517809 0.0777014 0.
0.519999 0.0786953 0.
0.522224 0.0796736 0.
0.524491 0.0806302 0.
0.526778 0.0815783 0.
0.529089 0.0825111 0.
0.53143 0.0834028 0.
0.533793 0.0842944 0.
0.536172 0.0851896 0.
0.538561 0.0860511 0.
0.54096 0.0868652 0.
0.543375 0.0876587 0.
0.545796 0.0884229 0.
0.54822 0.0891384 0.
0.550659 0.0898248 0.
0.553098 0.0905216 0.
0.555528 0.0911839 0.
0.557964 0.0917948 0.
0.560394 0.092398 0.
0.562819 0.0929742 0.
0.565243 0.0934914 0.
0.567658 0.0939999 0.
0.570069 0.0945226 0.
0.572469 0.0949785 0.
0.574857 0.0953857 0.
0.577241 0.0957949 0.
0.579632 0.0961878 0.
0.582024 0.0965703 0.
0.584403 0.0968943 0.
0.586781 0.0972683 0.
0.589139 0.0976014 0.
0.591343 0.0976485 0.
0.593548 0.0976957 0.
0.595748 0.0977123 0.
0.597945 0.0977151 0.
0.600141 0.0977169 0.
0.602336 0.097679 0.
0.60453 0.0976411 0.
0.606732 0.097589 0.
0.608939 0.0975147 0.
0.611146 0.0974393 0.
0.613554 0.0969989 0.
0.615966 0.0965556 0.
0.618371 0.096189 0.
0.620775 0.0957753 0.
0.623175 0.0953477 0.
0.625573 0.0949287 0.
0.627972 0.0945102 0.
0.630379 0.0940318 0.
0.632791 0.0934845 0.
0.635206 0.0929382 0.
0.637629 0.0923843 0.
0.640054 0.0917795 0.
0.642485 0.091154 0.
0.644921 0.0905225 0.
0.647355 0.0898344 0.
0.649791 0.0890935 0.
0.652223 0.0883596 0.
0.654638 0.0876016 0.
0.657047 0.086798 0.
0.659443 0.085968 0.
0.661828 0.0851335 0.
0.664201 0.0842702 0.
0.666556 0.0833775 0.
0.668894 0.0824754 0.
0.671206 0.0815598 0.
0.673487 0.0806023 0.
0.67574 0.0796326 0.
0.67797 0.0786592 0.
0.680161 0.0776675 0.
0.682327 0.0766622 0.
0.684468 0.0756444 0.
0.686573 0.0745771 0.
0.688656 0.0734842 0.
0.690715 0.0723788 0.
0.692748 0.0712617 0.
0.694761 0.0701146 0.
0.696751 0.0689456 0.
0.698731 0.0677725 0.
0.700712 0.0666135 0.
0.702697 0.0654906 0.
0.704694 0.0644024 0.
0.706706 0.0634045 0.
0.708729 0.0625925 0.
0.710767 0.0619516 0.
CELLS 5000 10000
1 0
1 1
1 2
1 3
1 4
1 5
1 6
1 7
1 8
1 9
1 10
1 11
1 12
1 13
1 14
1 15
1 16
1 17
1 18
1 19
1 20
1 21
1 22
1 23
1 24
1 25
1 26
1 27
1 28
1 29
1 30
1 31
1 32
1 33
1 34
1 35
1 36
1 37
1 38
1 39
1 40
1 41
1 42
1 43
1 44
1 45
1 46
1 47
1 48
1 49
1 50
1 51
1 52
1 53
1 54
1 55
1 56
1 57
1 58
1 59
1 60
1 61
1 62
1 63
1 64
1 65
1 66
1 67
1 68
1 69
1 70
1 71
1 72
1 73
1 74
1 75
1 76
1 77
1 78
1 79
1 80
1 81
1 82
1 83
1 84
1 85
1 86
1 87
1 88
1 89
1 90
1 91
1 92
1 93
1 94
1 95
1 96
1 97
1 98
1 99
1 100
1 101
1 102
1 103
1 104
1 105
1 106
1 107
1 108
1 109
1 110
1 111
1 112
1 113
1 114
1 115
1 116
1 117
1 118
1 119
1 120
1 121
1 122
1 123
1 124
1 125
1 126
1 127
1 128
1 129
1 130
1 131
1 132
1 133
1 134
1 135
1 136
1 137
1 138
1 139
1 140
1 141
1 142
1 143
1 144
1 145
1 146
1 147
1 148
1 149
1 150
1 151
1 152
1 153
1 154
1 155
1 156
1 157
1 158
1 159
1 160
1 161
1 162
1 163
1 164
1 165
1 166
1 167
1 168
1 169
1 170
1 171
1 172
1 173
1 174
1 175
1 176
1 177
1 178
1 179
1 180
1 181
1 182
1 183
1 184
1 185
1 186
1 187
1 188
1 189
1 190
1 191
1 192
1 193
1 194
1 195
1 196
1 197
1 198
1 199
1 200
1 201
1 202
1 203
1 204
1 205
1 206
1 207
1 208
1 209
1 210
1 211
1 212
1 213
1 214
1 215
1 216
1 217
1 218
1 219
1 220
1 221
1 222
1 223
1 224
1 225
1 226
1 227
1 228
1 229
1 230
1 231
1 232
1 233
1 234
1 235
1 236
1 237
1 238
1 239
1 240
1 241
1 242
1 243
1 244
1 245
1 246
1 247
1 248
1 249
1 250
1 251
1 252
1 253
1 254
1 255
1 256
1 257
1 258
1 259
1 260
1 261
1 262
1 263
1 264
1 265
1 266
1 267
1 268
1 269
1 270
1 271
1 272
1 273
1 274
1 275
1 276
1 277
1 278
1 279
1 280
1 281
1 282
1 283
1 284
1 285
1 286
1 287
1 288
1 289
1 290
1 291
1 292
1 293
1 294
1 295
1 296
1 297
1 298
1 299
1 300
1 301
1 302
1 303
1 304
1 305
1 306
1 307
1 308
1 309
1 310
1 311
1 312
1 313
1 314
1 315
1 316
1 317
1 318
1 319
1 320
1 321
1 322
1 323
1 324
1 325
1 326
1 327
1 328
1 329
1 330
1 331
1 332
1 333
1 334
1 335
1 336
1 337
1 338
1 339
1 340
1 341
1 342
1 343
1 344
1 345
1 346
1 347
1 348
1 349
1 350
1 351
1 352
1 353
1 354
1 355
1 356
1 357
1 358
1 359
1 360
1 361
1 362
1 363
1 364
1 365
1 366
1 367
1 368
1 369
1 370
1 371
1 372
1 373
1 374
1 375
1 376
1 377
1 378
1 379
1 380
1 381
1 382
1 383
1 384
1 385
1 386
1 387
1 388
1 389
1 390
1 391
1 392
1 393
1 394
1 395
1 396
1 397
1 398
1 399
1 400
1 401
1 402
1 403
1 404
1 405
1 406
1 407
1 408
1 409
1 410
1 411
1 412
1 413
1 414
1 415
1 416
1 417
1 418
1 419
1 420
1 421
1 422
1 423
1 424
1 425
1 426
1 427
1 428
1 429
1 430
1 431
1 432
1 433
1 434
1 435
1 436
1 437
1 438
1 439
1 440
1 441
1 442
1 443
1 444
1 445
1 446
1 447
1 448
1 449
1 450
1 451
1 452
1 453
1 454
1 455
1 456
1 457
1 458
1 459
1 460
1 461
1 462
1 463
1 464
1 465
1 466
1 467
1 468
1 469
1 470
1 471
1 472
1 473
1 474
1 475
1 476
1 477
1 478
1 479
1 480
1 481
1 482
1 483
1 484
1 485
1 486
1 487
1 488
1 489
1 490
1 491
1 492
1 493
1 494
1 495
1 496
1 497
1 498
1 499
1 500
1 501
1 502
1 503
1 504
1 505
1 506
1 507
1 508
1 509
1 510
1 511
1 512
1 513
1 514
1 515
1 516
1 517
1 518
1 519
1 520
1 521
1 522
1 523
1 524
1 525
1 526
1 527
1 528
1 529
1 530
1 531
1 532
1 533
1 534
1 535
1 536
1 537
1 538
1 539
1 540
1 541
1 542
1 543
1 544
1 545
1 546
1 547
1 548
1 549
1 550
1 551
1 552
1 553
1 554
1 555
1 556
1 557
1 558
1 559
1 560
1 561
1 562
1 563
1 564
1 565
1 566
1 567
1 568
1 569
1 570
1 571
1 572
1 573
1 574
1 575
1 576
1 577
1 578
1 579
1 580
1 581
1 582
1 583
1 584
1 585
1 586
1 587
1 588
1 589
1 590
1 591
1 592
1 593
1 594
1 595
1 596
1 597
1 598
1 599
1 600
1 601
1 602
1 603
1 604
1 605
1 606
1 607
1 608
1 609
1 610
1 611
1 612
1 613
1 614
1 615
1 616
1 617
1 618
1 619
1 620
1 621
1 622
1 623
1 624
1 625
1 626
1 627
1 628
1 629
1 630
1 631
1 632
1 633
1 634
1 635
1 636
1 637
1 638
1 639
1 640
1 641
1 642
1 643
1 644
1 645
1 646
1 647
1 648
1 649
1 650
1 651
1 652
1 653
1 654
1 655
1 656
1 657
1 658
1 659
1 660
1 661
1 662
1 663
1 664
1 665
1 666
1 667
1 668
1 669
1 670
1 671
1 672
1 673
1 674
1 675
1 676
1 677
1 678
1 679
1 680
1 681
1 682
1 683
1 684
1 685
1 686
1 687
1 688
1 689
1 690
1 691
1 692
1 693
1 694
1 695
1 696
1 697
1 698
1 699
1 700
1 701
1 702
1 703
1 704
1 705
1 706
1 707
1 708
1 709
1 710
1 711
1 712
1 713
1 714
1 715
1 716
1 717
1 718
1 719
1 720
1 721
1 722
1 723
1 724
1 725
1 726
1 727
1 728
1 729
1 730
1 731
1 732
1 733
1 734
1 735
1 736
1 737
1 738
1 739
1 740
1 741
1 742
1 743
1 744
1 745
1 746
1 747
1 748
1 749
1 750
1 751
1 752
1 753
1 754
1 755
1 756
1 757
1 758
1 759
1 760
1 761
1 762
1 763
1 764
1 765
1 766
1 767
1 768
1 769
1 770
1 771
1 772
1 773
1 774
1 775
1 776
1 777
1 778
1 779
1 780
1 781
1 782
1 783
1 784
1 785
1 786
1 787
1 788
1 789
1 790
1 791
1 792
1 793
1 794
1 795
1 796
1 797
1 798
1 799
1 800
1 801
1 802
1 803
1 804
1 805
1 806
1 807
1 808
1 809
1 810
1 811
1 812
1 813
1 814
1 815
1 816
1 817
1 818
1 819
1 820
1 821
1 822
1 823
1 824
1 825
1 826
1 827
1 828
1 829
1 830
1 831
1 832
1 833
1 834
1 835
1 836
1 837
1 838
1 839
1 840
1 841
1 842
1 843
1 844
1 845
1 846
1 847
1 848
1 849
1 850
1 851
1 852
1 853
1 854
1 855
1 856
1 857
1 858
1 859
1 860
1 861
1 862
1 863
1 864
1 865
1 866
1 867
1 868
1 869
1 870
1 871
1 872
1 873
1 874
1 875
1 876
1 877
1 878
1 879
1 880
1 881
1 882
1 883
1 884
1 885
1 886
1 887
1 888
1 889
1 890
1 891
1 892
1 893
1 894
1 895
1 896
1 897
1 898
1 899
1 900
1 901
1 902
1 903
1 904
1 905
1 906
1 907
1 908
1 909
1 910
1 911
1 912
1 913
1 914
1 915
1 916
1 917
1 918
1 919
1 920
1 921
1 922
1 923
1 924
1 925
1 926
1 927
1 928
1 929
1 930
1 931
1 932
1 933
1 934
1 935
1 936
1 937
1 938
1 939
1 940
1 941
1 942
1 943
1 944
1 945
1 946
1 947
1 948
1 949
1 950
1 951
1 952
1 953
1 954
1 955
1 956
1 957
1 958
1 959
1 960
1 961
1 962
1 963
1 964
1 965
1 966
1 967
1 968
1 969
1 970
1 971
1 972
1 973
1 974
1 975
1 976
1 977
1 978
1 979
1 980
1 981
1 982
1 983
1 984
1 985
1 986
1 987
1 988
1 989
1 990
1 991
1 992
1 993
1 994
1 995
1 996
1 997
1 998
1 999
1 1000
1 1001
1 1002
1 1003
1 1004
1 1005
1 1006
1 1007
1 1008
1 1009
1 1010
1 1011
1 1012
1 1013
1 1014
1 1015
1 1016
1 1017
1 1018
1 1019
1 1020
1 1021
1 1022
1 1023
1 1024
1 1025
1 1026
1 1027
1 1028
1 1029
1 1030
1 1031
1 1032
1 1033
1 1034
1 1035
1 1036
1 1037
1 1038
1 1039
1 1040
1 1041
1 1042
1 1043
1 1044
1 1045
1 1046
1 1047
1 1048
1 1049
1 1050
1 1051
1 1052
1 1053
1 1054
1 1055
1 1056
1 1057
1 1058
1 1059
1 1060
1 1061
1 1062
1 1063
1 1064
1 1065
1 1066
1 1067
1 1068
1 1069
1 1070
1 1071
1 1072
1 1073
1 1074
1 1075
1 1076
1 1077
1 1078
1 1079
1 1080
1 1081
1 1082
1 1083
1 1084
1 1085
1 1086
1 1087
1 1088
1 1089
1 1090
1 1091
1 1092
1 1093
1 1094
1 1095
1 1096
1 1097
1 1098
1 1099
1 1100
1 1101
1 1102
1 1103
1 1104
1 1105
1 1106
1 1107
1 1108
1 1109
1 1110
1 1111
1 1112
1 1113
1 1114
1 1115
1 1116
1 1117
1 1118
1 1119
1 1120
1 1121
1 1122
1 1123
1 1124
1 1125
1 1126
1 1127
1 1128
1 1129
1 1130
1 1131
1 1132
1 1133
1 1134
1 1135
1 1136
1 1137
1 1138
1 1139
1 1140
1 1141
1 1142
1 1143
1 1144
1 1145
1 1146
1 1147
1 1148
1 1149
1 1150
1 1151
1 1152
1 1153
1 1154
1 1155
1 1156
1 1157
1 1158
1 1159
1 1160
1 1161
1 1162
1 1163
1 1164
1 1165
1 1166
1 1167
1 1168
1 1169
1 1170
1 1171
1 1172
1 1173
1 1174
1 1175
1 1176
1 1177
1 1178
1 1179
1 1180
1 1181
1 1182
1 1183
1 1184
1 1185
1 1186
1 1187
1 1188
1 1189
1 1190
1 1191
1 1192
1 1193
1 1194
1 1195
1 1196
1 1197
1 1198
1 1199
1 1200
1 1201
1 1202
1 1203
1 1204
1 1205
1 1206
1 1207
1 1208
1 1209
1 1210
1 1211
1 1212
1 1213
1 1214
1 1215
1 1216
1 1217
1 1218
1 1219
1 1220
1 1221
1 1222
1 1223
1 1224
1 1225
1 1226
1 1227
1 1228
1 1229
1 1230
1 1231
1 1232
1 1233
1 1234
1 1235
1 1236
1 1237
1 1238
1 1239
1 1240
1 1241
1 1242
1 1243
1 1244
1 1245
1 1246
1 1247
1 1248
1 1249
1 1250
1 1251
1 1252
1 1253
1 1254
1 1255
1 1256
1 1257
1 1258
1 1259
1 1260
1 1261
1 1262
1 1263
1 1264
1 1265
1 1266
1 1267
1 1268
1 1269
1 1270
1 1271
1 1272
1 1273
1 1274
1 1275
1 1276
1 1277
1 1278
1 1279
1 1280
1 1281
1 1282
1 1283
1 1284
1 1285
1 1286
1 1287
1 1288
1 1289
1 1290
1 1291
1 1292
1 1293
1 1294
1 1295
1 1296
1 1297
1 1298
1 1299
1 1300
1 1301
1 1302
1 1303
1 1304
1 1305
1 1306
1 1307
1 1308
1 1309
1 1310
1 1311
1 1312
1 1313
1 1314
1 1315
1 1316
1 1317
1 1318
1 1319
1 1320
1 1321
1 1322
1 1323
1 1324
1 1325
1 1326
1 1327
1 1328
1 1329
1 1330
1 1331
1 1332
1 1333
1 1334
1 1335
1 1336
1 1337
1 1338
1 1339
1 1340
1 1341
1 1342
1 1343
1 1344
1 1345
1 1346
1 1347
1 1348
1 1349
1 1350
1 1351
1 1352
1 1353
1 1354
1 1355
1 1356
1 1357
1 1358
1 1359
1 1360
1 1361
1 1362
1 1363
1 1364
1 1365
1 1366
1 1367
1 1368
1 1369
1 1370
1 1371
1 1372
1 1373
1 1374
1 1375
1 1376
1 1377
1 1378
1 1379
1 1380
1 1381
1 1382
1 1383
1 1384
1 1385
1 1386
1 1387
1 1388
1 1389
1 1390
1 1391
1 1392
1 1393
1 1394
1 1395
1 1396
1 1397
1 1398
1 1399
1 1400
1 1401
1 1402
1 1403
1 1404
1 1405
1 1406
1 1407
1 1408
1 1409
1 1410
1 1411
1 1412
1 1413
1 1414
1 1415
1 1416
1 1417
1 1418
1 1419
1 1420
1 1421
1 1422
1 1423
1 1424
1 1425
1 1426
1 1427
1 1428
1 1429
1 1430
1 1431
1 1432
1 1433
1 1434
1 1435
1 1436
1 1437
1 1438
1 1439
1 1440
1 1441
1 1442
1 1443
1 1444
1 1445
1 1446
1 1447
1 1448
1 1449
1 1450
1 1451
1 1452
1 1453
1 1454
1 1455
1 1456
1 1457
1 1458
1 1459
1 1460
1 1461
1 1462
1 1463
1 1464
1 1465
1 1466
1 1467
1 1468
1 1469
1 1470
1 1471
1 1472
1 1473
1 1474
1 1475
1 1476
1 1477
1 1478
1 1479
1 1480
1 1481
1 1482
1 1483
1 1484
1 1485
1 1486
1 1487
1 1488
1 1489
1 1490
1 1491
1 1492
1 1493
1 1494
1 1495
1 1496
1 1497
1 1498
1 1499
1 1500
1 1501
1 1502
1 1503
1 1504
1 1505
1 1506
1 1507
1 1508
1 1509
1 1510
1 1511
1 1512
1 1513
1 1514
1 1515
1 1516
1 1517
1 1518
1 1519
1 1520
1 1521
1 1522
1 1523
1 1524
1 1525
1 1526
1 1527
1 1528
1 1529
1 1530
1 1531
1 1532
1 1533
1 1534
1 1535
1 1536
1 1537
1 1538
1 1539
1 1540
1 1541
1 1542
1 1543
1 1544
1 1545
1 1546
1 1547
1 1548
1 1549
1 1550
1 1551
1 1552
1 1553
1 1554
1 1555
1 1556
1 1557
1 1558
1 1559
1 1560
1 1561
1 1562
1 1563
1 1564
1 1565
1 1566
1 1567
1 1568
1 1569
1 1570
1 1571
1 1572
1 1573
1 1574
1 1575
1 1576
1 1577
1 1578
1 1579
1 1580
1 1581
1 1582
1 1583
1 1584
1 1585
1 1586
1 1587
1 1588
1 1589
1 1590
1 1591
1 1592
1 1593
1 1594
1 1595
1 1596
1 1597
1 1598
1 1599
1 1600
1 1601
1 1602
1 1603
1 1604
1 1605
1 1606
1 1607
1 1608
1 1609
1 1610
1 1611
1 1612
1 1613
1 1614
1 1615
1 1616
1 1617
1 1618
1 1619
1 1620
1 1621
1 1622
1 1623
1 1624
1 1625
1 1626
1 1627
1 1628
1 1629
1 1630
1 1631
1 1632
1 1633
1 1634
1 1635
1 1636
1 1637
1 1638
1 1639
1 1640
1 1641
1 1642
1 1643
1 1644
1 1645
1 1646
1 1647
1 1648
1 1649
1 1650
1 1651
1 1652
1 1653
1 1654
1 1655
1 1656
1 1657
1 1658
1 1659
1 1660
1 1661
1 1662
1 1663
1 1664
1 1665
1 1666
1 1667
1 1668
1 1669
1 1670
1 1671
1 1672
1 1673
1 1674
1 1675
1 1676
1 1677
1 1678
1 1679
1 1680
1 1681
1 1682
1 1683
1 1684
1 1685
1 1686
1 1687
1 1688
1 1689
1 1690
1 1691
1 1692
1 1693
1 1694
1 1695
1 1696
1 1697
1 1698
1 1699
1 1700
1 1701
1 1702
1 1703
1 1704
1 1705
1 1706
1 1707
1 1708
1 1709
1 1710
1 1711
1 1712
1 1713
1 1714
1 1715
1 1716
1 1717
1 1718
1 1719
1 1720
1 1721
1 1722
1 1723
1 1724
1 1725
1 1726
1 1727
1 1728
1 1729
1 1730
1 1731
1 1732
1 1733
1 1734
1 1735
1 1736
1 1737
1 1738
1 1739
1 1740
1 1741
1 1742
1 1743
1 1744
1 1745
1 1746
1 1747
1 1748
1 1749
1 1750
1 1751
1 1752
1 1753
1 1754
1 1755
1 1756
1 1757
1 1758
1 1759
1 1760
1 1761
1 1762
1 1763
1 1764
1 1765
1 1766
1 1767
1 1768
1 1769
1 1770
1 1771
1 1772
1 1773
1 1774
1 1775
1 1776
1 1777
1 1778
1 1779
1 1780
1 1781
1 1782
1 1783
1 1784
1 1785
1 1786
1 1787
1 1788
1 1789
1 1790
1 1791
1 1792
1 1793
1 1794
1 1795
1 1796
1 1797
1 1798
1 1799
1 1800
1 1801
1 1802
1 1803
1 1804
1 1805
1 1806
1 1807
1 1808
1 1809
1 1810
1 1811
1 1812
1 1813
1 1814
1 1815
1 1816
1 1817
1 1818
1 1819
1 1820
1 1821
1 1822
1 1823
1 1824
1 1825
1 1826
1 1827
1 1828
1 1829
1 1830
1 1831
1 1832
1 1833
1 1834
1 1835
1 1836
1 1837
1 1838
1 1839
1 1840
1 1841
1 1842
1 1843
1 1844
1 1845
1 1846
1 1847
1 1848
1 1849
1 1850
1 1851
1 1852
1 1853
1 1854
1 1855
1 1856
1 1857
1 1858
1 1859
1 1860
1 1861
1 1862
1 1863
1 1864
1 1865
1 1866
1 1867
1 1868
1 1869
1 1870
1 1871
1 1872
1 1873
1 1874
1 1875
1 1876
1 1877
1 1878
1 1879
1 1880
1 1881
1 1882
1 1883
1 1884
1 1885
1 1886
1 1887
1 1888
1 1889
1 1890
1 1891
1 1892
1 1893
1 1894
1 1895
1 1896
1 1897
1 1898
1 1899
1 1900
1 1901
1 1902
1 1903
1 1904
1 1905
1 1906
1 1907
1 1908
1 1909
1 1910
1 1911
1 1912
1 1913
1 1914
1 1915
1 1916
1 1917
1 1918
1 1919
1 1920
1 1921
1 1922
1 1923
1 1924
1 1925
1 1926
1 1927
1 1928
1 1929
1 1930
1 1931
1 1932
1 1933
1 1934
1 1935
1 1936
1 1937
1 1938
1 1939
1 1940
1 1941
1 1942
1 1943
1 1944
1 1945
1 1946
1 1947
1 1948
1 1949
1 1950
1 1951
1 1952
1 1953
1 1954
1 1955
1 1956
1 1957
1 1958
1 1959
1 1960
1 1961
1 1962
1 1963
1 1964
1 1965
1 1966
1 1967
1 1968
1 1969
1 1970
1 1971
1 1972
1 1973
1 1974
1 1975
1 1976
1 1977
1 1978
1 1979
1 1980
1 1981
1 1982
1 1983
1 1984
1 1985
1 1986
1 1987
1 1988
1 1989
1 1990
1 1991
1 1992
1 1993
1 1994
1 1995
1 1996
1 1997
1 1998
1 1999
1 2000
1 2001
1 2002
1 2003
1 2004
1 2005
1 2006
1 2007
1 2008
1 2009
1 2010
1 2011
1 2012
1 2013
1 2014
1 2015
1 2016
1 2017
1 2018
1 2019
1 2020
1 2021
1 2022
1 2023
1 2024
1 2025
1 2026
1 2027
1 2028
1 2029
1 2030
1 2031
1 2032
1 2033
1 2034
1 2035
1 2036
1 2037
1 2038
1 2039
1 2040
1 2041
1 2042
1 2043
1 2044
1 2045
1 2046
1 2047
1 2048
1 2049
1 2050
1 2051
1 2052
1 2053
1 2054
1 2055
1 2056
1 2057
1 2058
1 2059
1 2060
1 2061
1 2062
1 2063
1 2064
1 2065
1 2066
1 2067
1 2068
1 2069
1 2070
1 2071
1 2072
1 2073
1 2074
1 2075
1 2076
1 2077
1 2078
1 2079
1 2080
1 2081
1 2082
1 2083
1 2084
1 2085
1 2086
1 2087
1 2088
1 2089
1 2090
1 2091
1 2092
1 2093
1 2094
1 2095
1 2096
1 2097
1 2098
1 2099
1 2100
1 2101
1 2102
1 2103
1 2104
1 2105
1 2106
1 2107
1 2108
1 2109
1 2110
1 2111
1 2112
1 2113
1 2114
1 2115
1 2116
1 2117
1 2118
1 2119
1 2120
1 2121
1 2122
1 2123
1 2124
1 2125
1 2126
1 2127
1 2128
1 2129
1 2130
1 2131
1 2132
1 2133
1 2134
1 2135
1 2136
1 2137
1 2138
1 2139
1 2140
1 2141
1 2142
1 2143
1 2144
1 2145
1 2146
1 2147
1 2148
1 2149
1 2150
1 2151
1 2152
1 2153
1 2154
1 2155
1 2156
1 2157
1 2158
1 2159
1 2160
1 2161
1 2162
1 2163
1 2164
1 2165
1 2166
1 2167
1 2168
1 2169
1 2170
1 2171
1 2172
1 2173
1 2174
1 2175
1 2176
1 2177
1 2178
1 2179
1 2180
1 2181
1 2182
1 2183
1 2184
1 2185
1 2186
1 2187
1 2188
1 2189
1 2190
1 2191
1 2192
1 2193
1 2194
1 2195
1 2196
1 2197
1 2198
1 2199
1 2200
1 2201
1 2202
1 2203
1 2204
1 2205
1 2206
1 2207
1 2208
1 2209
1 2210
1 2211
1 2212
1 2213
1 2214
1 2215
1 2216
1 2217
1 2218
1 2219
1 2220
1 2221
1 2222
1 2223
1 2224
1 2225
1 2226
1 2227
1 2228
1 2229
1 2230
1 2231
1 2232
1 2233
1 2234
1 2235
1 2236
1 2237
1 2238
1 2239
1 2240
1 2241
1 2242
1 2243
1 2244
1 2245
1 2246
1 2247
1 2248
1 2249
1 2250
1 2251
1 2252
1 2253
1 2254
1 2255
1 2256
1 2257
1 2258
1 2259
1 2260
1 2261
1 2262
1 2263
1 2264
1 2265
1 2266
1 2267
1 2268
1 2269
1 2270
1 2271
1 2272
1 2273
1 2274
1 2275
1 2276
1 2277
1 2278
1 2279
1 2280
1 2281
1 2282
1 2283
1 2284
1 2285
1 2286
1 2287
1 2288
1 2289
1 2290
1 2291
1 2292
1 2293
1 2294
1 2295
1 2296
1 2297
1 2298
1 2299
1 2300
1 2301
1 2302
1 2303
1 2304
1 2305
1 2306
1 2307
1 2308
1 2309
1 2310
1 2311
1 2312
1 2313
1 2314
1 2315
1 2316
1 2317
1 2318
1 2319
1 2320
1 2321
1 2322
1 2323
1 2324
1 2325
1 2326
1 2327
1 2328
1 2329
1 2330
1 2331
1 2332
1 2333
1 2334
1 2335
1 2336
1 2337
1 2338
1 2339
1 2340
1 2341
1 2342
1 2343
1 2344
1 2345
1 2346
1 2347
1 2348
1 2349
1 2350
1 2351
1 2352
1 2353
1 2354
1 2355
1 2356
1 2357
1 2358
1 2359
1 2360
1 2361
1 2362
1 2363
1 2364
1 2365
1 2366
1 2367
1 2368
1 2369
1 2370
1 2371
1 2372
1 2373
1 2374
1 2375
1 2376
1 2377
1 2378
1 2379
1 2380
1 2381
1 2382
1 2383
1 2384
1 2385
1 2386
1 2387
1 2388
1 2389
1 2390
1 2391
1 2392
1 2393
1 2394
1 2395
1 2396
1 2397
1 2398
1 2399
1 2400
1 2401
1 2402
1 2403
1 2404
1 2405
1 2406
1 2407
1 2408
1 2409
1 2410
1 2411
1 2412
1 2413
1 2414
1 2415
1 2416
1 2417
1 2418
1 2419
1 2420
1 2421
1 2422
1 2423
1 2424
1 2425
1 2426
1 2427
1 2428
1 2429
1 2430
1 2431
1 2432
1 2433
1 2434
1 2435
1 2436
1 2437
1 2438
1 2439
1 2440
1 2441
1 2442
1 2443
1 2444
1 2445
1 2446
1 2447
1 2448
1 2449
1 2450
1 2451
1 2452
1 2453
1 2454
1 2455
1 2456
1 2457
1 2458
1 2459
1 2460
1 2461
1 2462
1 2463
1 2464
1 2465
1 2466
1 2467
1 2468
1 2469
1 2470
1 2471
1 2472
1 2473
1 2474
1 2475
1 2476
1 2477
1 2478
1 2479
1 2480
1 2481
1 2482
1 2483
1 2484
1 2485
1 2486
1 2487
1 2488
1 2489
1 2490
1 2491
1 2492
1 2493
1 2494
1 2495
1 2496
1 2497
1 2498
1 2499
1 2500
1 2501
1 2502
1 2503
1 2504
1 2505
1 2506
1 2507
1 2508
1 2509
1 2510
1 2511
1 2512
1 2513
1 2514
1 2515
1 2516
1 2517
1 2518
1 2519
1 2520
1 2521
1 2522
1 2523
1 2524
1 2525
1 2526
1 2527
1 2528
1 2529
1 2530
1 2531
1 2532
1 2533
1 2534
1 2535
1 2536
1 2537
1 2538
1 2539
1 2540
1 2541
1 2542
1 2543
1 2544
1 2545
1 2546
1 2547
1 2548
1 2549
1 2550
1 2551
1 2552
1 2553
1 2554
1 2555
1 2556
1 2557
1 2558
1 2559
1 2560
1 2561
1 2562
1 2563
1 2564
1 2565
1 2566
1 2567
1 2568
1 2569
1 2570
1 2571
1 2572
1 2573
1 2574
1 2575
1 2576
1 2577
1 2578
1 2579
1 2580
1 2581
1 2582
1 2583
1 2584
1 2585
1 2586
1 2587
1 2588
1 2589
1 2590
1 2591
1 2592
1 2593
1 2594
1 2595
1 2596
1 2597
1 2598
1 2599
1 2600
1 2601
1 2602
1 2603
1 2604
1 2605
1 2606
1 2607
1 2608
1 2609
1 2610
1 2611
1 2612
1 2613
1 2614
1 2615
1 2616
1 2617
1 2618
1 2619
1 2620
1 2621
1 2622
1 2623
1 2624
1 2625
1 2626
1 2627
1 2628
1 2629
1 2630
1 2631
1 2632
1 2633
1 2634
1 2635
1 2636
1 2637
1 2638
1 2639
1 2640
1 2641
1 2642
1 2643
1 2644
1 2645
1 2646
1 2647
1 2648
1 2649
1 2650
1 2651
1 2652
1 2653
1 2654
1 2655
1 2656
1 2657
1 2658
1 2659
1 2660
1 2661
1 2662
1 2663
1 2664
1 2665
1 2666
1 2667
1 2668
1 2669
1 2670
1 2671
1 2672
1 2673
1 2674
1 2675
1 2676
1 2677
1 2678
1 2679
1 2680
1 2681
1 2682
1 2683
1 2684
1 2685
1 2686
1 2687
1 2688
1 2689
1 2690
1 2691
1 2692
1 2693
1 2694
1 2695
1 2696
1 2697
1 2698
1 2699
1 2700
1 2701
1 2702
1 2703
1 2704
1 2705
1 2706
1 2707
1 2708
1 2709
1 2710
1 2711
1 2712
1 2713
1 2714
1 2715
1 2716
1 2717
1 2718
1 2719
1 2720
1 2721
1 2722
1 2723
1 2724
1 2725
1 2726
1 2727
1 2728
1 2729
1 2730
1 2731
1 2732
1 2733
1 2734
1 2735
1 2736
1 2737
1 2738
1 2739
1 2740
1 2741
1 2742
1 2743
1 2744
1 2745
1 2746
1 2747
1 2748
1 2749
1 2750
1 2751
1 2752
1 2753
1 2754
1 2755
1 2756
1 2757
1 2758
1 2759
1 2760
1 2761
1 2762
1 2763
1 2764
1 2765
1 2766
1 2767
1 2768
1 2769
1 2770
1 2771
1 2772
1 2773
1 2774
1 2775
1 2776
1 2777
1 2778
1 2779
1 2780
1 2781
1 2782
1 2783
1 2784
1 2785
1 2786
1 2787
1 2788
1 2789
1 2790
1 2791
1 2792
1 2793
1 2794
1 2795
1 2796
1 2797
1 2798
1 2799
1 2800
1 2801
1 2802
1 2803
1 2804
1 2805
1 2806
1 2807
1 2808
1 2809
1 2810
1 2811
1 2812
1 2813
1 2814
1 2815
1 2816
1 2817
1 2818
1 2819
1 2820
1 2821
1 2822
1 2823
1 2824
1 2825
1 2826
1 2827
1 2828
1 2829
1 2830
1 2831
1 2832
1 2833
1 2834
1 2835
1 2836
1 2837
1 2838
1 2839
1 2840
1 2841
1 2842
1 2843
1 2844
1 2845
1 2846
1 2847
1 2848
1 2849
1 2850
1 2851
1 2852
1 2853
1 2854
1 2855
1 2856
1 2857
1 2858
1 2859
1 2860
1 2861
1 2862
1 2863
1 2864
1 2865
1 2866
1 2867
1 2868
1 2869
1 2870
1 2871
1 2872
1 2873
1 2874
1 2875
1 2876
1 2877
1 2878
1 2879
1 2880
1 2881
1 2882
1 2883
1 2884
1 2885
1 2886
1 2887
1 2888
1 2889
1 2890
1 2891
1 2892
1 2893
1 2894
1 2895
1 2896
1 2897
1 2898
1 2899
1 2900
1 2901
1 2902
1 2903
1 2904
1 2905
1 2906
1 2907
1 2908
1 2909
1 2910
1 2911
1 2912
1 2913
1 2914
1 2915
1 2916
1 2917
1 2918
1 2919
1 2920
1 2921
1 2922
1 2923
1 2924
1 2925
1 2926
1 2927
1 2928
1 2929
1 2930
1 2931
1 2932
1 2933
1 2934
1 2935
1 2936
1 2937
1 2938
1 2939
1 2940
1 2941
1 2942
1 2943
1 2944
1 2945
1 2946
1 2947
1 2948
1 2949
1 2950
1 2951
1 2952
1 2953
1 2954
1 2955
1 2956
1 2957
1 2958
1 2959
1 2960
1 2961
1 2962
1 2963
1 2964
1 2965
1 2966
1 2967
1 2968
1 2969
1 2970
1 2971
1 2972
1 2973
1 2974
1 2975
1 2976
1 2977
1 2978
1 2979
1 2980
1 2981
1 2982
1 2983
1 2984
1 2985
1 2986
1 2987
1 2988
1 2989
1 2990
1 2991
1 2992
1 2993
1 2994
1 2995
1 2996
1 2997
1 2998
1 2999
1 3000
1 3001
1 3002
1 3003
1 3004
1 3005
1 3006
1 3007
1 3008
1 3009
1 3010
1 3011
1 3012
1 3013
1 3014
1 3015
1 3016
1 3017
1 3018
1 3019
1 3020
1 3021
1 3022
1 3023
1 3024
1 3025
1 3026
1 3027
1 3028
1 3029
1 3030
1 3031
1 3032
1 3033
1 3034
1 3035
1 3036
1 3037
1 3038
1 3039
1 3040
1 3041
1 3042
1 3043
1 3044
1 3045
1 3046
1 3047
1 3048
1 3049
1 3050
1 3051
1 3052
1 3053
1 3054
1 3055
1 3056
1 3057
1 3058
1 3059
1 3060
1 3061
1 3062
1 3063
1 3064
1 3065
1 3066
1 3067
1 3068
1 3069
1 3070
1 3071
1 3072
1 3073
1 3074
1 3075
1 3076
1 3077
1 3078
1 3079
1 3080
1 3081
1 3082
1 3083
1 3084
1 3085
1 3086
1 3087
1 3088
1 3089
1 3090
1 3091
1 3092
1 3093
1 3094
1 3095
1 3096
1 3097
1 3098
1 3099
1 3100
1 3101
1 3102
1 3103
1 3104
1 3105
1 3106
1 3107
1 3108
1 3109
1 3110
1 3111
1 3112
1 3113
1 3114
1 3115
1 3116
1 3117
1 3118
1 3119
1 3120
1 3121
1 3122
1 3123
1 3124
1 3125
1 3126
1 3127
1 3128
1 3129
1 3130
1 3131
1 3132
1 3133
1 3134
1 3135
1 3136
1 3137
1 3138
1 3139
1 3140
1 3141
1 3142
1 3143
1 3144
1 3145
1 3146
1 3147
1 3148
1 3149
1 3150
1 3151
1 3152
1 3153
1 3154
1 3155
1 3156
1 3157
1 3158
1 3159
1 3160
1 3161
1 3162
1 3163
1 3164
1 3165
1 3166
1 3167
1 3168
1 3169
1 3170
1 3171
1 3172
1 3173
1 3174
1 3175
1 3176
1 3177
1 3178
1 3179
1 3180
1 3181
1 3182
1 3183
1 3184
1 3185
1 3186
1 3187
1 3188
1 3189
1 3190
1 3191
1 3192
1 3193
1 3194
1 3195
1 3196
1 3197
1 3198
1 3199
1 3200
1 3201
1 3202
1 3203
1 3204
1 3205
1 3206
1 3207
1 3208
1 3209
1 3210
1 3211
1 3212
1 3213
1 3214
1 3215
1 3216
1 3217
1 3218
1 3219
1 3220
1 3221
1 3222
1 3223
1 3224
1 3225
1 3226
1 3227
1 3228
1 3229
1 3230
1 3231
1 3232
1 3233
1 3234
1 3235
1 3236
1 3237
1 3238
1 3239
1 3240
1 3241
1 3242
1 3243
1 3244
1 3245
1 3246
1 3247
1 3248
1 3249
1 3250
1 3251
1 3252
1 3253
1 3254
1 3255
1 3256
1 3257
1 3258
1 3259
1 3260
1 3261
1 3262
1 3263
1 3264
1 3265
1 3266
1 3267
1 3268
1 3269
1 3270
1 3271
1 3272
1 3273
1 3274
1 3275
1 3276
1 3277
1 3278
1 3279
1 3280
1 3281
1 3282
1 3283
1 3284
1 3285
1 3286
1 3287
1 3288
1 3289
1 3290
1 3291
1 3292
1 3293
1 3294
1 3295
1 3296
1 3297
1 3298
1 3299
1 3300
1 3301
1 3302
1 3303
1 3304
1 3305
1 3306
1 3307
1 3308
1 3309
1 3310
1 3311
1 3312
1 3313
1 3314
1 3315
1 3316
1 3317
1 3318
1 3319
1 3320
1 3321
1 3322
1 3323
1 3324
1 3325
1 3326
1 3327
1 3328
1 3329
1 3330
1 3331
1 3332
1 3333
1 3334
1 3335
1 3336
1 3337
1 3338
1 3339
1 3340
1 3341
1 3342
1 3343
1 3344
1 3345
1 3346
1 3347
1 3348
1 3349
1 3350
1 3351
1 3352
1 3353
1 3354
1 3355
1 3356
1 3357
1 3358
1 3359
1 3360
1 3361
1 3362
1 3363
1 3364
1 3365
1 3366
1 3367
1 3368
1 3369
1 3370
1 3371
1 3372
1 3373
1 3374
1 3375
1 3376
1 3377
1 3378
1 3379
1 3380
1 3381
1 3382
1 3383
1 3384
1 3385
1 3386
1 3387
1 3388
1 3389
1 3390
1 3391
1 3392
1 3393
1 3394
1 3395
1 3396
1 3397
1 3398
1 3399
1 3400
1 3401
1 3402
1 3403
1 3404
1 3405
1 3406
1 3407
1 3408
1 3409
1 3410
1 3411
1 3412
1 3413
1 3414
1 3415
1 3416
1 3417
1 3418
1 3419
1 3420
1 3421
1 3422
1 3423
1 3424
1 3425
1 3426
1 3427
1 3428
1 3429
1 3430
1 3431
1 3432
1 3433
1 3434
1 3435
1 3436
1 3437
1 3438
1 3439
1 3440
1 3441
1 3442
1 3443
1 3444
1 3445
1 3446
1 3447
1 3448
1 3449
1 3450
1 3451
1 3452
1 3453
1 3454
1 3455
1 3456
1 3457
1 3458
1 3459
1 3460
1 3461
1 3462
1 3463
1 3464
1 3465
1 3466
1 3467
1 3468
1 3469
1 3470
1 3471
1 3472
1 3473
1 3474
1 3475
1 3476
1 3477
1 3478
1 3479
1 3480
1 3481
1 3482
1 3483
1 3484
1 3485
1 3486
1 3487
1 3488
1 3489
1 3490
1 3491
1 3492
1 3493
1 3494
1 3495
1 3496
1 3497
1 3498
1 3499
1 3500
1 3501
1 3502
1 3503
1 3504
1 3505
1 3506
1 3507
1 3508
1 3509
1 3510
1 3511
1 3512
1 3513
1 3514
1 3515
1 3516
1 3517
1 3518
1 3519
1 3520
1 3521
1 3522
1 3523
1 3524
1 3525
1 3526
1 3527
1 3528
1 3529
1 3530
1 3531
1 3532
1 3533
1 3534
1 3535
1 3536
1 3537
1 3538
1 3539
1 3540
1 3541
1 3542
1 3543
1 3544
1 3545
1 3546
1 3547
1 3548
1 3549
1 3550
1 3551
1 3552
1 3553
1 3554
1 3555
1 3556
1 3557
1 3558
1 3559
1 3560
1 3561
1 3562
1 3563
1 3564
1 3565
1 3566
1 3567
1 3568
1 3569
1 3570
1 3571
1 3572
1 3573
1 3574
1 3575
1 3576
1 3577
1 3578
1 3579
1 3580
1 3581
1 3582
1 3583
1 3584
1 3585
1 3586
1 3587
1 3588
1 3589
1 3590
1 3591
1 3592
1 3593
1 3594
1 3595
1 3596
1 3597
1 3598
1 3599
1 3600
1 3601
1 3602
1 3603
1 3604
1 3605
1 3606
1 3607
1 3608
1 3609
1 3610
1 3611
1 3612
1 3613
1 3614
1 3615
1 3616
1 3617
1 3618
1 3619
1 3620
1 3621
1 3622
1 3623
1 3624
1 3625
1 3626
1 3627
1 3628
1 3629
1 3630
1 3631
1 3632
1 3633
1 3634
1 3635
1 3636
1 3637
1 3638
1 3639
1 3640
1 3641
1 3642
1 3643
1 3644
1 3645
1 3646
1 3647
1 3648
1 3649
1 3650
1 3651
1 3652
1 3653
1 3654
1 3655
1 3656
1 3657
1 3658
1 3659
1 3660
1 3661
1 3662
1 3663
1 3664
1 3665
1 3666
1 3667
1 3668
1 3669
1 3670
1 3671
1 3672
1 3673
1 3674
1 3675
1 3676
1 3677
1 3678
1 3679
1 3680
1 3681
1 3682
1 3683
1 3684
1 3685
1 3686
1 3687
1 3688
1 3689
1 3690
1 3691
1 3692
1 3693
1 3694
1 3695
1 3696
1 3697
1 3698
1 3699
1 3700
1 3701
1 3702
1 3703
1 3704
1 3705
1 3706
1 3707
1 3708
1 3709
1 3710
1 3711
1 3712
1 3713
1 3714
1 3715
1 3716
1 3717
1 3718
1 3719
1 3720
1 3721
1 3722
1 3723
1 3724
1 3725
1 3726
1 3727
1 3728
1 3729
1 3730
1 3731
1 3732
1 3733
1 3734
1 3735
1 3736
1 3737
1 3738
1 3739
1 3740
1 3741
1 3742
1 3743
1 3744
1 3745
1 3746
1 3747
1 3748
1 3749
1 3750
1 3751
1 3752
1 3753
1 3754
1 3755
1 3756
1 3757
1 3758
1 3759
1 3760
1 3761
1 3762
1 3763
1 3764
1 3765
1 3766
1 3767
1 3768
1 3769
1 3770
1 3771
1 3772
1 3773
1 3774
1 3775
1 3776
1 3777
1 3778
1 3779
1 3780
1 3781
1 3782
1 3783
1 3784
1 3785
1 3786
1 3787
1 3788
1 3789
1 3790
1 3791
1 3792
1 3793
1 3794
1 3795
1 3796
1 3797
1 3798
1 3799
1 3800
1 3801
1 3802
1 3803
1 3804
1 3805
1 3806
1 3807
1 3808
1 3809
1 3810
1 3811
1 3812
1 3813
1 3814
1 3815
1 3816
1 3817
1 3818
1 3819
1 3820
1 3821
1 3822
1 3823
1 3824
1 3825
1 3826
1 3827
1 3828
1 3829
1 3830
1 3831
1 3832
1 3833
1 3834
1 3835
1 3836
1 3837
1 3838
1 3839
1 3840
1 3841
1 3842
1 3843
1 3844
1 3845
1 3846
1 3847
1 3848
1 3849
1 3850
1 3851
1 3852
1 3853
1 3854
1 3855
1 3856
1 3857
1 3858
1 3859
1 3860
1 3861
1 3862
1 3863
1 3864
1 3865
1 3866
1 3867
1 3868
1 3869
1 3870
1 3871
1 3872
1 3873
1 3874
1 3875
1 3876
1 3877
1 3878
1 3879
1 3880
1 3881
1 3882
1 3883
1 3884
1 3885
1 3886
1 3887
1 3888
1 3889
1 3890
1 3891
1 3892
1 3893
1 3894
1 3895
1 3896
1 3897
1 3898
1 3899
1 3900
1 3901
1 3902
1 3903
1 3904
1 3905
1 3906
1 3907
1 3908
1 3909
1 3910
1 3911
1 3912
1 3913
1 3914
1 3915
1 3916
1 3917
1 3918
1 3919
1 3920
1 3921
1 3922
1 3923
1 3924
1 3925
1 3926
1 3927
1 3928
1 3929
1 3930
1 3931
1 3932
1 3933
1 3934
1 3935
1 3936
1 3937
1 3938
1 3939
1 3940
1 3941
1 3942
1 3943
1 3944
1 3945
1 3946
1 3947
1 3948
1 3949
1 3950
1 3951
1 3952
1 3953
1 3954
1 3955
1 3956
1 3957
1 3958
1 3959
1 3960
1 3961
1 3962
1 3963
1 3964
1 3965
1 3966
1 3967
1 3968
1 3969
1 3970
1 3971
1 3972
1 3973
1 3974
1 3975
1 3976
1 3977
1 3978
1 3979
1 3980
1 3981
1 3982
1 3983
1 3984
1 3985
1 3986
1 3987
1 3988
1 3989
1 3990
1 3991
1 3992
1 3993
1 3994
1 3995
1 3996
1 3997
1 3998
1 3999
1 4000
1 4001
1 4002
1 4003
1 4004
1 4005
1 4006
1 4007
1 4008
1 4009
1 4010
1 4011
1 4012
1 4013
1 4014
1 4015
1 4016
1 4017
1 4018
1 4019
1 4020
1 4021
1 4022
1 4023
1 4024
1 4025
1 4026
1 4027
1 4028
1 4029
1 4030
1 4031
1 4032
1 4033
1 4034
1 4035
1 4036
1 4037
1 4038
1 4039
1 4040
1 4041
1 4042
1 4043
1 4044
1 4045
1 4046
1 4047
1 4048
1 4049
1 4050
1 4051
1 4052
1 4053
1 4054
1 4055
1 4056
1 4057
1 4058
1 4059
1 4060
1 4061
1 4062
1 4063
1 4064
1 4065
1 4066
1 4067
1 4068
1 4069
1 4070
1 4071
1 4072
1 4073
1 4074
1 4075
1 4076
1 4077
1 4078
1 4079
1 4080
1 4081
1 4082
1 4083
1 4084
1 4085
1 4086
1 4087
1 4088
1 4089
1 4090
1 4091
1 4092
1 4093
1 4094
1 4095
1 4096
1 4097
1 4098
1 4099
1 4100
1 4101
1 4102
1 4103
1 4104
1 4105
1 4106
1 4107
1 4108
1 4109
1 4110
1 4111
1 4112
1 4113
1 4114
1 4115
1 4116
1 4117
1 4118
1 4119
1 4120
1 4121
1 4122
1 4123
1 4124
1 4125
1 4126
1 4127
1 4128
1 4129
1 4130
1 4131
1 4132
1 4133
1 4134
1 4135
1 4136
1 4137
1 4138
1 4139
1 4140
1 4141
1 4142
1 4143
1 4144
1 4145
1 4146
1 4147
1 4148
1 4149
1 4150
1 4151
1 4152
1 4153
1 4154
1 4155
1 4156
1 4157
1 4158
1 4159
1 4160
1 4161
1 4162
1 4163
1 4164
1 4165
1 4166
1 4167
1 4168
1 4169
1 4170
1 4171
1 4172
1 4173
1 4174
1 4175
1 4176
1 4177
1 4178
1 4179
1 4180
1 4181
1 4182
1 4183
1 4184
1 4185
1 4186
1 4187
1 4188
1 4189
1 4190
1 4191
1 4192
1 4193
1 4194
1 4195
1 4196
1 4197
1 4198
1 4199
1 4200
1 4201
1 4202
1 4203
1 4204
1 4205
1 4206
1 4207
1 4208
1 4209
1 4210
1 4211
1 4212
1 4213
1 4214
1 4215
1 4216
1 4217
1 4218
1 4219
1 4220
1 4221
1 4222
1 4223
1 4224
1 4225
1 4226
1 4227
1 4228
1 4229
1 4230
1 4231
1 4232
1 4233
1 4234
1 4235
1 4236
1 4237
1 4238
1 4239
1 4240
1 4241
1 4242
1 4243
1 4244
1 4245
1 4246
1 4247
1 4248
1 4249
1 4250
1 4251
1 4252
1 4253
1 4254
1 4255
1 4256
1 4257
1 4258
1 4259
1 4260
1 4261
1 4262
1 4263
1 4264
1 4265
1 4266
1 4267
1 4268
1 4269
1 4270
1 4271
1 4272
1 4273
1 4274
1 4275
1 4276
1 4277
1 4278
1 4279
1 4280
1 4281
1 4282
1 4283
1 4284
1 4285
1 4286
1 4287
1 4288
1 4289
1 4290
1 4291
1 4292
1 4293
1 4294
1 4295
1 4296
1 4297
1 4298
1 4299
1 4300
1 4301
1 4302
1 4303
1 4304
1 4305
1 4306
1 4307
1 4308
1 4309
1 4310
1 4311
1 4312
1 4313
1 4314
1 4315
1 4316
1 4317
1 4318
1 4319
1 4320
1 4321
1 4322
1 4323
1 4324
1 4325
1 4326
1 4327
1 4328
1 4329
1 4330
1 4331
1 4332
1 4333
1 4334
1 4335
1 4336
1 4337
1 4338
1 4339
1 4340
1 4341
1 4342
1 4343
1 4344
1 4345
1 4346
1 4347
1 4348
1 4349
1 4350
1 4351
1 4352
1 4353
1 4354
1 4355
1 4356
1 4357
1 4358
1 4359
1 4360
1 4361
1 4362
1 4363
1 4364
1 4365
1 4366
1 4367
1 4368
1 4369
1 4370
1 4371
1 4372
1 4373
1 4374
1 4375
1 4376
1 4377
1 4378
1 4379
1 4380
1 4381
1 4382
1 4383
1 4384
1 4385
1 4386
1 4387
1 4388
1 4389
1 4390
1 4391
1 4392
1 4393
1 4394
1 4395
1 4396
1 4397
1 4398
1 4399
1 4400
1 4401
1 4402
1 4403
1 4404
1 4405
1 4406
1 4407
1 4408
1 4409
1 4410
1 4411
1 4412
1 4413
1 4414
1 4415
1 4416
1 4417
1 4418
1 4419
1 4420
1 4421
1 4422
1 4423
1 4424
1 4425
1 4426
1 4427
1 4428
1 4429
1 4430
1 4431
1 4432
1 4433
1 4434
1 4435
1 4436
1 4437
1 4438
1 4439
1 4440
1 4441
1 4442
1 4443
1 4444
1 4445
1 4446
1 4447
1 4448
1 4449
1 4450
1 4451
1 4452
1 4453
1 4454
1 4455
1 4456
1 4457
1 4458
1 4459
1 4460
1 4461
1 4462
1 4463
1 4464
1 4465
1 4466
1 4467
1 4468
1 4469
1 4470
1 4471
1 4472
1 4473
1 4474
1 4475
1 4476
1 4477
1 4478
1 4479
1 4480
1 4481
1 4482
1 4483
1 4484
1 4485
1 4486
1 4487
1 4488
1 4489
1 4490
1 4491
1 4492
1 4493
1 4494
1 4495
1 4496
1 4497
1 4498
1 4499
1 4500
1 4501
1 4502
1 4503
1 4504
1 4505
1 4506
1 4507
1 4508
1 4509
1 4510
1 4511
1 4512
1 4513
1 4514
1 4515
1 4516
1 4517
1 4518
1 4519
1 4520
1 4521
1 4522
1 4523
1 4524
1 4525
1 4526
1 4527
1 4528
1 4529
1 4530
1 4531
1 4532
1 4533
1 4534
1 4535
1 4536
1 4537
1 4538
1 4539
1 4540
1 4541
1 4542
1 4543
1 4544
1 4545
1 4546
1 4547
1 4548
1 4549
1 4550
1 4551
1 4552
1 4553
1 4554
1 4555
1 4556
1 4557
1 4558
1 4559
1 4560
1 4561
1 4562
1 4563
1 4564
1 4565
1 4566
1 4567
1 4568
1 4569
1 4570
1 4571
1 4572
1 4573
1 4574
1 4575
1 4576
1 4577
1 4578
1 4579
1 4580
1 4581
1 4582
1 4583
1 4584
1 4585
1 4586
1 4587
1 4588
1 4589
1 4590
1 4591
1 4592
1 4593
1 4594
1 4595
1 4596
1 4597
1 4598
1 4599
1 4600
1 4601
1 4602
1 4603
1 4604
1 4605
1 4606
1 4607
1 4608
1 4609
1 4610
1 4611
1 4612
1 4613
1 4614
1 4615
1 4616
1 4617
1 4618
1 4619
1 4620
1 4621
1 4622
1 4623
1 4624
1 4625
1 4626
1 4627
1 4628
1 4629
1 4630
1 4631
1 4632
1 4633
1 4634
1 4635
1 4636
1 4637
1 4638
1 4639
1 4640
1 4641
1 4642
1 4643
1 4644
1 4645
1 4646
1 4647
1 4648
1 4649
1 4650
1 4651
1 4652
1 4653
1 4654
1 4655
1 4656
1 4657
1 4658
1 4659
1 4660
1 4661
1 4662
1 4663
1 4664
1 4665
1 4666
1 4667
1 4668
1 4669
1 4670
1 4671
1 4672
1 4673
1 4674
1 4675
1 4676
1 4677
1 4678
1 4679
1 4680
1 4681
1 4682
1 4683
1 4684
1 4685
1 4686
1 4687
1 4688
1 4689
1 4690
1 4691
1 4692
1 4693
1 4694
1 4695
1 4696
1 4697
1 4698
1 4699
1 4700
1 4701
1 4702
1 4703
1 4704
1 4705
1 4706
1 4707
1 4708
1 4709
1 4710
1 4711
1 4712
1 4713
1 4714
1 4715
1 4716
1 4717
1 4718
1 4719
1 4720
1 4721
1 4722
1 4723
1 4724
1 4725
1 4726
1 4727
1 4728
1 4729
1 4730
1 4731
1 4732
1 4733
1 4734
1 4735
1 4736
1 4737
1 4738
1 4739
1 4740
1 4741
1 4742
1 4743
1 4744
1 4745
1 4746
1 4747
1 4748
1 4749
1 4750
1 4751
1 4752
1 4753
1 4754
1 4755
1 4756
1 4757
1 4758
1 4759
1 4760
1 4761
1 4762
1 4763
1 4764
1 4765
1 4766
1 4767
1 4768
1 4769
1 4770
1 4771
1 4772
1 4773
1 4774
1 4775
1 4776
1 4777
1 4778
1 4779
1 4780
1 4781
1 4782
1 4783
1 4784
1 4785
1 4786
1 4787
1 4788
1 4789
1 4790
1 4791
1 4792
1 4793
1 4794
1 4795
1 4796
1 4797
1 4798
1 4799
1 4800
1 4801
1 4802
1 4803
1 4804
1 4805
1 4806
1 4807
1 4808
1 4809
1 4810
1 4811
1 4812
1 4813
1 4814
1 4815
1 4816
1 4817
1 4818
1 4819
1 4820
1 4821
1 4822
1 4823
1 4824
1 4825
1 4826
1 4827
1 4828
1 4829
1 4830
1 4831
1 4832
1 4833
1 4834
1 4835
1 4836
1 4837
1 4838
1 4839
1 4840
1 4841
1 4842
1 4843
1 4844
1 4845
1 4846
1 4847
1 4848
1 4849
1 4850
1 4851
1 4852
1 4853
1 4854
1 4855
1 4856
1 4857
1 4858
1 4859
1 4860
1 4861
1 4862
1 4863
1 4864
1 4865
1 4866
1 4867
1 4868
1 4869
1 4870
1 4871
1 4872
1 4873
1 4874
1 4875
1 4876
1 4877
1 4878
1 4879
1 4880
1 4881
1 4882
1 4883
1 4884
1 4885
1 4886
1 4887
1 4888
1 4889
1 4890
1 4891
1 4892
1 4893
1 4894
1 4895
1 4896
1 4897
1 4898
1 4899
1 4900
1 4901
1 4902
1 4903
1 4904
1 4905
1 4906
1 4907
1 4908
1 4909
1 4910
1 4911
1 4912
1 4913
1 4914
1 4915
1 4916
1 4917
1 4918
1 4919
1 4920
1 4921
1 4922
1 4923
1 4924
1 4925
1 4926
1 4927
1 4928
1 4929
1 4930
1 4931
1 4932
1 4933
1 4934
1 4935
1 4936
1 4937
1 4938
1 4939
1 4940
1 4941
1 4942
1 4943
1 4944
1 4945
1 4946
1 4947
1 4948
1 4949
1 4950
1 4951
1 4952
1 4953
1 4954
1 4955
1 4956
1 4957
1 4958
1 4959
1 4960
1 4961
1 4962
1 4963
1 4964
1 4965
1 4966
1 4967
1 4968
1 4969
1 4970
1 4971
1 4972
1 4973
1 4974
1 4975
1 4976
1 4977
1 4978
1 4979
1 4980
1 4981
1 4982
1 4983
1 4984
1 4985
1 4986
1 4987
1 4988
1 4989
1 4990
1 4991
1 4992
1 4993
1 4994
1 4995
1 4996
1 4997
1 4998
1 4999
CELL_TYPES 5000
1 
1 
1 
1 
1 
1 
1 
1 
1 
1 
1 
1 
1 
1 
1 
1 
1 
1 
1 
1 
1 
1 
1 
1 
1 
1 
1 
1 
1 
1 
1 
1 
1 
1 
1 
1 
1 
1 
1 
1 
1 
1 
1 
1 
1 
1 
1 
1 
1 
1 
1 
1 
1 
1 
1 
1 
1 
1 
1 
1 
1 
1 
1 
1 
1 
1 
1 
1 
1 
1 
1 
1 
1 
1 
1 
1 
1 
1 
1 
1 
1 
1 
1 
1 
1 
1 
1 
1 
1 
1 
1 
1 
1 
1 
1 
1 
1 
1 
1 
1 
1 
1 
1 
1 
1 
1 
1 
1 
1 
1 
1 
1 
1 
1 
1 
1 
1 
1 
1 
1 
1 
1 
1 
1 
1 
1 
1 
1 
1 
1 
1 
1 
1 
1 
1 
1 
1 
1 
1 
1 
1 
1 
1 
1 
1 
1 
1 
1 
1 
1 
1 
1 
1 
1 
1 
1 
1 
1 
1 
1 
1 
1 
1 
1 
1 
1 
1 
1 
1 
1 
1 
1 
1 
1 
1 
1 
1 
1 
1 
1 
1 
1 
1 
1 
1 
1 
1 
1 
1 
1 
1 
1 
1 
1 
1 
1 
1 
1 
1 
1 
1 
1 
1 
1 
1 
1 
1 
1 
1 
1 
1 
1 
1 
1 
1 
1 
1 
1 
1 
1 
1 
1 
1 
1 
1 
1 
1 
1 
1 
1 
1 
1 
1 
1 
1 
1 
1 
1 
1 
1 
1 
1 
1 
1 
1 
1 
1 
1 
1 
1 
1 
1 
1 
1 
1 
1 
1 
1 
1 
1 
1 
1 
1 
1 
1 
1 
1 
1 
1 
1 
1 
1 
1 
1 
1 
1 
1 
1 
1 
1 
1 
1 
1 
1 
1 
1 
1 
1 
1 
1 
1 
1 
1 
1 
1 
1 
1 
1 
1 
1 
1 
1 
1 
1 
1 
1 
1 
1 
1 
1 
1 
1 
1 
1 
1 
1 
1 
1 
1 
1 
1 
1 
1 
1 
1 
1 
1 
1 
1 
1 
1 
1 
1 
1 
1 
1 
1 
1 
1 
1 
1 
1 
1 
1 
1 
1 
1 
1 
1 
1 
1 
1 
1 
1 
1 
1 
1 
1 
1 
1 
1 
1 
1 
1 
1 
1 
1 
1 
1 
1 
1 
1 
1 
1 
1 
1 
1 
1 
1 
1 
1 
1 
1 
1 
1 
1 
1 
1 
1 
1 
1 
1 
1 
1 
1 
1 
1 
1 
1 
1 
1 
1 
1 
1 
1 
1 
1 
1 
1 
1 
1 
1 
1 
1 
1 
1 
1 
1 
1 
1 
1 
1 
1 
1 
1 
1 
1 
1 
1 
1 
1 
1 
1 
1 
1 
1 
1 
1 
1 
1 
1 
1 
1 
1 
1 
1 
1 
1 
1 
1 
1 
1 
1 
1 
1 
1 
1 
1 
1 
1 
1 
1 
1 
1 
1 
1 
1 
1 
1 
1 
1 
1 
1 
1 
1 
1 
1 
1 
1 
1 
1 
1 
1 
1 
1 
1 
1 
1 
1 
1 
1 
1 
1 
1 
1 
1 
1 
1 
1 
1 
1 
1 
1 
1 
1 
1 
1 
1 
1 
1 
1 
1 
1 
1 
1 
1 
1 
1 
1 
1 
1 
1 
1 
1 
1 
1 
1 
1 
1 
1 
1 
1 
1 
1 
1 
1 
1 
1 
1 
1 
1 
1 
1 
1 
1 
1 
1 
1 
1 
1 
1 
1 
1 
1 
1 
1 
1 
1 
1 
1 
1 
1 
1 
1 
1 
1 
1 
1 
1 
1 
1 
1 
1 
1 
1 
1 
1 
1 
1 
1 
1 
1 
1 
1 
1 
1 
1 
1 
1 
1 
1 
1 
1 
1 
1 
1 
1 
1 
1 
1 
1 
1 
1 
1 
1 
1 
1 
1 
1 
1 
1 
1 
1 
1 
1 
1 
1 
1 
1 
1 
1 
1 
1 
1 
1 
1 
1 
1 
1 
1 
1 
1 
1 
1 
1 
1 
1 
1 
1 
1 
1 
1 
1 
1 
1 
1 
1 
1 
1 
1 
1 
1 
1 
1 
1 
1 
1 
1 
1 
1 
1 
1 
1 
1 
1 
1 
1 
1 
1 
1 
1 
1 
1 
1 
1 
1 
1 
1 
1 
1 
1 
1 
1 
1 
1 
1 
1 
1 
1 
1 
1 
1 
1 
1 
1 
1 
1 
1 
1 
1 
1 
1 
1 
1 
1 
1 
1 
1 
1 
1 
1 
1 
1 
1 
1 
1 
1 
1 
1 
1 
1 
1 
1 
1 
1 
1 
1 
1 
1 
1 
1 
1 
1 
1 
1 
1 
1 
1 
1 
1 
1 
1 
1 
1 
1 
1 
1 
1 
1 
1 
1 
1 
1 
1 
1 
1 
1 
1 
1 
1 
1 
1 
1 
1 
1 
1 
1 
1 
1 
1 
1 
1 
1 
1 
1 
1 
1 
1 
1 
1 
1 
1 
1 
1 
1 
1 
1 
1 
1 
1 
1 
1 
1 
1 
1 
1 
1 
1 
1 
1 
1 
1 
1 
1 
1 
1 
1 
1 
1 
1 
1 
1 
1 
1 
1 
1 
1 
1 
1 
1 
1 
1 
1 
1 
1 
1 
1 
1 
1 
1 
1 
1 
1 
1 
1 
1 
1 
1 
1 
1 
1 
1 
1 
1 
1 
1 
1 
1 
1 
1 
1 
1 
1 
1 
1 
1 
1 
1 
1 
1 
1 
1 
1 
1 
1 
1 
1 
1 
1 
1 
1 
1 
1 
1 
1 
1 
1 
1 
1 
1 
1 
1 
1 
1 
1 
1 
1 
1 
1 
1 
1 
1 
1 
1 
1 
1 
1 
1 
1 
1 
1 
1 
1 
1 
1 
1 
1 
1 
1 
1 
1 
1 
1 
1 
1 
1 
1 
1 
1 
1 
1 
1 
1 
1 
1 
1 
1 
1 
1 
1 
1 
1 
1 
1 
1 
1 
1 
1 
1 
1 
1 
1 
1 
1 
1 
1 
1 
1 
1 
1 
1 
1 
1 
1 
1 
1 
1 
1 
1 
1 
1 
1 
1 
1 
1 
1 
1 
1 
1 
1 
1 
1 
1 
1 
1 
1 
1 
1 
1 
1 
1 
1 
1 
1 
1 
1 
1 
1 
1 
1 
1 
1 
1 
1 
1 
1 
1 
1 
1 
1 
1 
1 
1 
1 
1 
1 
1 
1 
1 
1 
1 
1 
1 
1 
1 
1 
1 
1 
1 
1 
1 
1 
1 
1 
1 
1 
1 
1 
1 
1 
1 
1 
1 
1 
1 
1 
1 
1 
1 
1 
1 
1 
1 
1 
1 
1 
1 
1 
1 
1 
1 
1 
1 
1 
1 
1 
1 
1 
1 
1 
1 
1 
1 
1 
1 
1 
1 
1 
1 
1 
1 
1 
1 
1 
1 
1 
1 
1 
1 
1 
1 
1 
1 
1 
1 
1 
1 
1 
1 
1 
1 
1 
1 
1 
1 
1 
1 
1 
1 
1 
1 
1 
1 
1 
1 
1 
1 
1 
1 
1 
1 
1 
1 
1 
1 
1 
1 
1 
1 
1 
1 
1 
1 
1 
1 
1 
1 
1 
1 
1 
1 
1 
1 
1 
1 
1 
1 
1 
1 
1 
1 
1 
1 
1 
1 
1 
1 
1 
1 
1 
1 
1 
1 
1 
1 
1 
1 
1 
1 
1 
1 
1 
1 
1 
1 
1 
1 
1 
1 
1 
1 
1 
1 
1 
1 
1 
1 
1 
1 
1 
1 
1 
1 
1 
1 
1 
1 
1 
1 
1 
1 
1 
1 
1 
1 
1 
1 
1 
1 
1 
1 
1 
1 
1 
1 
1 
1 
1 
1 
1 
1 
1 
1 
1 
1 
1 
1 
1 
1 
1 
1 
1 
1 
1 
1 
1 
1 
1 
1 
1 
1 
1 
1 
1 
1 
1 
1 
1 
1 
1 
1 
1 
1 
1 
1 
1 
1 
1 
1 
1 
1 
1 
1 
1 
1 
1 
1 
1 
1 
1 
1 
1 
1 
1 
1 
1 
1 
1 
1 
1 
1 
1 
1 
1 
1 
1 
1 
1 
1 
1 
1 
1 
1 
1 
1 
1 
1 
1 
1 
1 
1 
1 
1 
1 
1 
1 
1 
1 
1 
1 
1 
1 
1 
1 
1 
1 
1 
1 
1 
1 
1 
1 
1 
1 
1 
1 
1 
1 
1 
1 
1 
1 
1 
1 
1 
1 
1 
1 
1 
1 
1 
1 
1 
1 
1 
1 
1 
1 
1 
1 
1 
1 
1 
1 
1 
1 
1 
1 
1 
1 
1 
1 
1 
1 
1 
1 
1 
1 
1 
1 
1 
1 
1 
1 
1 
1 
1 
1 
1 
1 
1 
1 
1 
1 
1 
1 
1 
1 
1 
1 
1 
1 
1 
1 
1 
1 
1 
1 
1 
1 
1 
1 
1 
1 
1 
1 
1 
1 
1 
1 
1 
1 
1 
1 
1 
1 
1 
1 
1 
1 
1 
1 
1 
1 
1 
1 
1 
1 
1 
1 
1 
1 
1 
1 
1 
1 
1 
1 
1 
1 
1 
1 
1 
1 
1 
1 
1 
1 
1 
1 
1 
1 
1 
1 
1 
1 
1 
1 
1 
1 
1 
1 
1 
1 
1 
1 
1 
1 
1 
1 
1 
1 
1 
1 
1 
1 
1 
1 
1 
1 
1 
1 
1 
1 
1 
1 
1 
1 
1 
1 
1 
1 
1 
1 
1 
1 
1 
1 
1 
1 
1 
1 
1 
1 
1 
1 
1 
1 
1 
1 
1 
1 
1 
1 
1 
1 
1 
1 
1 
1 
1 
1 
1 
1 
1 
1 
1 
1 
1 
1 
1 
1 
1 
1 
1 
1 
1 
1 
1 
1 
1 
1 
1 
1 
1 
1 
1 
1 
1 
1 
1 
1 
1 
1 
1 
1 
1 
1 
1 
1 
1 
1 
1 
1 
1 
1 
1 
1 
1 
1 
1 
1 
1 
1 
1 
1 
1 
1 
1 
1 
1 
1 
1 
1 
1 
1 
1 
1 
1 
1 
1 
1 
1 
1 
1 
1 
1 
1 
1 
1 
1 
1 
1 
1 
1 
1 
1 
1 
1 
1 
1 
1 
1 
1 
1 
1 
1 
1 
1 
1 
1 
1 
1 
1 
1 
1 
1 
1 
1 
1 
1 
1 
1 
1 
1 
1 
1 
1 
1 
1 
1 
1 
1 
1 
1 
1 
1 
1 
1 
1 
1 
1 
1 
1 
1 
1 
1 
1 
1 
1 
1 
1 
1 
1 
1 
1 
1 
1 
1 
1 
1 
1 
1 
1 
1 
1 
1 
1 
1 
1 
1 
1 
1 
1 
1 
1 
1 
1 
1 
1 
1 
1 
1 
1 
1 
1 
1 
1 
1 
1 
1 
1 
1 
1 
1 
1 
1 
1 
1 
1 
1 
1 
1 
1 
1 
1 
1 
1 
1 
1 
1 
1 
1 
1 
1 
1 
1 
1 
1 
1 
1 
1 
1 
1 
1 
1 
1 
1 
1 
1 
1 
1 
1 
1 
1 
1 
1 
1 
1 
1 
1 
1 
1 
1 
1 
1 
1 
1 
1 
1 
1 
1 
1 
1 
1 
1 
1 
1 
1 
1 
1 
1 
1 
1 
1 
1 
1 
1 
1 
1 
1 
1 
1 
1 
1 
1 
1 
1 
1 
1 
1 
1 
1 
1 
1 
1 
1 
1 
1 
1 
1 
1 
1 
1 
1 
1 
1 
1 
1 
1 
1 
1 
1 
1 
1 
1 
1 
1 
1 
1 
1 
1 
1 
1 
1 
1 
1 
1 
1 
1 
1 
1 
1 
1 
1 
1 
1 
1 
1 
1 
1 
1 
1 
1 
1 
1 
1 
1 
1 
1 
1 
1 
1 
1 
1 
1 
1 
1 
1 
1 
1 
1 
1 
1 
1 
1 
1 
1 
1 
1 
1 
1 
1 
1 
1 
1 
1 
1 
1 
1 
1 
1 
1 
1 
1 
1 
1 
1 
1 
1 
1 
1 
1 
1 
1 
1 
1 
1 
1 
1 
1 
1 
1 
1 
1 
1 
1 
1 
1 
1 
1 
1 
1 
1 
1 
1 
1 
1 
1 
1 
1 
1 
1 
1 
1 
1 
1 
1 
1 
1 
1 
1 
1 
1 
1 
1 
1 
1 
1 
1 
1 
1 
1 
1 
1 
1 
1 
1 
1 
1 
1 
1 
1 
1 
1 
1 
1 
1 
1 
1 
1 
1 
1 
1 
1 
1 
1 
1 
1 
1 
1 
1 
1 
1 
1 
1 
1 
1 
1 
1 
1 
1 
1 
1 
1 
1 
1 
1 
1 
1 
1 
1 
1 
1 
1 
1 
1 
1 
1 
1 
1 
1 
1 
1 
1 
1 
1 
1 
1 
1 
1 
1 
1 
1 
1 
1 
1 
1 
1 
1 
1 
1 
1 
1 
1 
1 
1 
1 
1 
1 
1 
1 
1 
1 
1 
1 
1 
1 
1 
1 
1 
1 
1 
1 
1 
1 
1 
1 
1 
1 
1 
1 
1 
1 
1 
1 
1 
1 
1 
1 
1 
1 
1 
1 
1 
1 
1 
1 
1 
1 
1 
1 
1 
1 
1 
1 
1 
1 
1 
1 
1 
1 
1 
1 
1 
1 
1 
1 
1 
1 
1 
1 
1 
1 
1 
1 
1 
1 
1 
1 
1 
1 
1 
1 
1 
1 
1 
1 
1 
1 
1 
1 
1 
1 
1 
1 
1 
1 
1 
1 
1 
1 
1 
1 
1 
1 
1 
1 
1 
1 
1 
1 
1 
1 
1 
1 
1 
1 
1 
1 
1 
1 
1 
1 
1 
1 
1 
1 
1 
1 
1 
1 
1 
1 
1 
1 
1 
1 
1 
1 
1 
1 
1 
1 
1 
1 
1 
1 
1 
1 
1 
1 
1 
1 
1 
1 
1 
1 
1 
1 
1 
1 
1 
1 
1 
1 
1 
1 
1 
1 
1 
1 
1 
1 
1 
1 
1 
1 
1 
1 
1 
1 
1 
1 
1 
1 
1 
1 
1 
1 
1 
1 
1 
1 
1 
1 
1 
1 
1 
1 
1 
1 
1 
1 
1 
1 
1 
1 
1 
1 
1 
1 
1 
1 
1 
1 
1 
1 
1 
1 
1 
1 
1 
1 
1 
1 
1 
1 
1 
1 
1 
1 
1 
1 
1 
1 
1 
1 
1 
1 
1 
1 
1 
1 
1 
1 
1 
1 
1 
1 
1 
1 
1 
1 
1 
1 
1 
1 
1 
1 
1 
1 
1 
1 
1 
1 
1 
1 
1 
1 
1 
1 
1 
1 
1 
1 
1 
1 
1 
1 
1 
1 
1 
1 
1 
1 
1 
1 
1 
1 
1 
1 
1 
1 
1 
1 
1 
1 
1 
1 
1 
1 
1 
1 
1 
1 
1 
1 
1 
1 
1 
1 
1 
1 
1 
1 
1 
1 
1 
1 
1 
1 
1 
1 
1 
1 
1 
1 
1 
1 
1 
1 
1 
1 
1 
1 
1 
1 
1 
1 
1 
1 
1 
1 
1 
1 
1 
1 
1 
1 
1 
1 
1 
1 
1 
1 
1 
1 
1 
1 
1 
1 
1 
1 
1 
1 
1 
1 
1 
1 
1 
1 
1 
1 
1 
1 
1 
1 
1 
1 
1 
1 
1 
1 
1 
1 
1 
1 
1 
1 
1 
1 
1 
1 
1 
1 
1 
1 
1 
1 
1 
1 
1 
1 
1 
1 
1 
1 
1 
1 
1 
1 
1 
1 
1 
1 
1 
1 
1 
1 
1 
1 
1 
1 
1 
1 
1 
1 
1 
1 
1 
1 
1 
1 
1 
1 
1 
1 
1 
1 
1 
1 
1 
1 
1 
1 
1 
1 
1 
1 
1 
1 
1 
1 
1 
1 
1 
1 
1 
1 
1 
1 
1 
1 
1 
1 
1 
1 
1 
1 
1 
1 
1 
1 
1 
1 
1 
1 
1 
1 
1 
1 
1 
1 
1 
1 
1 
1 
1 
1 
1 
1 
1 
1 
1 
1 
1 
1 
1 
1 
1 
1 
1 
1 
1 
1 
1 
1 
1 
1 
1 
1 
1 
1 
1 
1 
1 
1 
1 
1 
1 
1 
1 
1 
1 
1 
1 
1 
1 
1 
1 
1 
1 
1 
1 
1 
1 
1 
1 
1 
1 
1 
1 
1 
1 
1 
1 
1 
1 
1 
1 
1 
1 
1 
1 
1 
1 
1 
1 
1 
1 
1 
1 
1 
1 
1 
1 
1 
1 
1 
1 
1 
1 
1 
1 
1 
1 
1 
1 
1 
1 
1 
1 
1 
1 
1 
1 
1 
1 
1 
1 
1 
1 
1 
1 
1 
1 
1 
1 
1 
1 
1 
1 
1 
1 
1 
1 
1 
1 
1 
1 
1 
1 
1 
1 
1 
1 
1 
1 
1 
1 
1 
1 
1 
1 
1 
1 
1 
1 
1 
1 
1 
1 
1 
1 
1 
1 
1 
1 
1 
1 
1 
1 
1 
1 
1 
1 
1 
1 
1 
1 
1 
1 
1 
1 
1 
1 
1 
1 
1 
1 
1 
1 
1 
1 
1 
1 
1 
1 
1 
1 
1 
1 
1 
1 
1 
1 
1 
1 
1 
1 
1 
1 
1 
1 
1 
1 
1 
1 
1 
1 
1 
1 
1 
1 
1 
1 
1 
1 
1 
1 
1 
1 
1 
1 
1 
1 
1 
1 
1 
1 
1 
1 
1 
1 
1 
1 
1 
1 
1 
1 
1 
1 
1 
1 
1 
1 
1 
1 
1 
1 
1 
1 
1 
1 
1 
1 
1 
1 
1 
1 
1 
1 
1 
1 
1 
1 
1 
1 
1 
1 
1 
1 
1 
1 
1 
1 
1 
1 
1 
1 
1 
1 
1 
1 
1 
1 
1 
1 
1 
1 
1 
1 
1 
1 
1 
1 
1 
1 
1 
1 
1 
1 
1 
1 
1 
1 
1 
1 
1 
1 
1 
1 
1 
1 
1 
1 
1 
1 
1 
1 
1 
1 
1 
1 
1 
1 
1 
1 
1 
1 
1 
1 
1 
1 
1 
1 
1 
1 
1 
1 
1 
1 
1 
1 
1 
1 
1 
1 
1 
1 
1 
1 
1 
1 
1 
1 
1 
1 
1 
1 
1 
1 
1 
1 
1 
1 
1 
1 
1 
1 
1 
1 
1 
1 
1 
1 
1 
1 
1 
1 
1 
1 
1 
1 
1 
1 
1 
1 
1 
1 
1 
1 
1 
1 
1 
1 
1 
1 
1 
1 
1 
1 
1 
1 
1 
1 
1 
1 
1 
1 
1 
1 
1 
1 
1 
1 
1 
1 
1 
1 
1 
1 
1 
1 
1 
1 
1 
1 
1 
1 
1 
1 
1 
1 
1 
1 
1 
1 
1 
1 
1 
1 
1 
1 
1 
1 
1 
1 
1 
1 
1 
1 
1 
1 
1 
1 
1 
1 
1 
1 
1 
1 
1 
1 
1 
1 
1 
1 
1 
1 
1 
1 
1 
1 
1 
1 
1 
1 
1 
1 
1 
1 
1 
1 
1 
1 
1 
1 
1 
1 
1 
1 
1 
1 
1 
1 
1 
1 
1 
1 
1 
1 
1 
1 
1 
1 
1 
1 
1 
1 
1 
1 
1 
1 
1 
1 
1 
1 
1 
1 
1 
1 
1 
1 
1 
1 
1 
1 
1 
1 
1 
1 
1 
1 
1 
1 
1 
1 
1 
1 
1 
1 
1 
1 
1 
1 
1 
1 
1 
1 
1 
1 
1 
1 
1 
1 
1 
1 
1 
1 
1 
1 
1 
1 
1 
1 
1 
1 
1 
1 
1 
1 
1 
1 
1 
1 
1 
1 
1 
1 
1 
1 
1 
1 
1 
1 
1 
1 
1 
1 
1 
1 
1 
1 
1 
1 
1 
1 
1 
1 
1 
1 
1 
1 
1 
1 
1 
1 
1 
1 
1 
1 
1 
1 
1 
1 
1 
1 
1 
1 
1 
1 
1 
1 
1 
1 
1 
1 
1 
1 
1 
1 
1 
1 
1 
1 
1 
1 
1 
1 
1 
1 
1 
1 
1 
1 
1 
1 
1 
1 
1 
1 
1 
1 
1 
1 
1 
1 
1 
1 
1 
1 
1 
1 
1 
1 
1 
1 
1 
1 
1 
1 
1 
1 
1 
1 
1 
1 
1 
1 
1 
1 
1 
1 
1 
1 
1 
1 
1 
1 
1 
1 
1 
1 
1 
1 
1 
1 
1 
1 
1 
1 
1 
1 
1 
1 
1 
1 
1 
1 
1 
1 
1 
1 
1 
1 
1 
1 
1 
1 
1 
1 
1 
1 
1 
1 
1 
1 
1 
1 
1 
1 
1 
1 
1 
1 
1 
1 
1 
1 
1 
1 
1 
1 
1 
1 
1 
1 
1 
1 
1 
1 
1 
1 
1 
1 
1 
1 
1 
1 
1 
1 
1 
1 
1 
1 
1 
1 
1 
1 
1 
1 
1 
1 
1 
1 
1 
1 
1 
1 
1 
1 
1 
1 
1 
1 
1 
1 
1 
1 
1 
1 
1 
1 
1 
1 
1 
1 
1 
1 
1 
1 
1 
1 
1 
1 
1 
1 
1 
1 
1 
1 
1 
1 
1 
1 
1 
1 
1 
1 
1 
1 
1 
1 
1 
1 
1 
1 
1 
1 
1 
1 
1 
1 
1 
1 
1 
1 
1 
1 
1 
1 
1 
1 
1 
1 
1 
1 
1 
1 
1 
1 
1 
1 
1 
1 
1 
1 
1 
1 
1 
1 
1 
1 
1 
1 
1 
1 
1 
1 
1 
1 
1 
1 
1 
1 
1 
1 
1 
1 
1 
1 
1 
1 
1 
1 
1 
1 
1 
1 
1 
1 
1 
1 
1 
1 
1 
1 
1 
1 
1 
1 
1 
1 
1 
1 
1 
1 
1 
1 
1 
1 
1 
1 
1 
1 
1 
1 
1 
1 
1 
1 
1 
1 
1 
1 
1 
1 
1 
1 
1 
1 
1 
1 
1 
1 
1 
1 
1 
1 
1 
1 
1 
1 
1 
1 
1 
1 
1 
1 
1 
1 
1 
1 
1 
1 
1 
1 
1 
1 
1 
1 
1 
1 
1 
1 
1 
1 
1 
1 
1 
1 
1 
1 
1 
1 
1 
1 
1 
1 
1 
1 
1 
1 
1 
1 
1 
1 
1 
1 
1 
1 
1 
1 
1 
1 
1 
1 
1 
1 
1 
1 
1 
1 
1 
1 
1 
1 
1 
1 
1 
1 
1 
1 
1 
1 
1 
1 
1 
1 
1 
1 
1 
1 
1 
1 
1 
1 
1 
1 
1 
1 
1 
1 
1 
1 
1 
1 
1 
1 
1 
1 
1 
1 
1 
1 
1 
1 
1 
1 
1 
1 
1 
1 
1 
1 
1 
1 
1 
1 
1 
1 
1 
1 
1 
1 
1 
1 
1 
1 
1 
1 
1 
1 
1 
1 
1 
1 
1 
1 
1 
1 
1 
1 
1 
1 
1 
1 
1 
1 
1 
1 
1 
1 
1 
1 
1 
1 
1 
1 
1 
1 
1 
1 
1 
1 
1 
1 
1 
1 
1 
1 
1 
1 
1 
1 
1 
1 
1 
1 
1 
1 
1 
1 
1 
1 
1 
1 
1 
1 
1 
1 
1 
1 
1 
1 
1 
1 
1 
1 
1 
1 
1 
1 
1 
1 
1 
1 
1 
1 
1 
1 
1 
1 
1 
1 
1 
1 
1 
1 
1 
1 
1 
1 
1 
1 
1 
1 
1 
1 
1 
1 
1 
1 
1 
1 
1 
1 
1 
1 
1 
1 
1 
1 
1 
1 
1 
1 
1 
1 
1 
1 
1 
1 
1 
1 
1 
1 
1 
1 
1 
1 
1 
1 
1 
1 
1 
1 
1 
1 
1 
1 
1 
1 
1 
1 
1 
1 
1 
1 
1 
1 
1 
1 
1 
1 
1 
1 
1 
1 
1 
1 
1 
1 
1 
1 
1 
1 
1 
1 
1 
1 
1 
1 
1 
1 
1 
1 
1 
1 
1 
1 
1 
1 
1 
1 
1 
1 
1 
1 
1 
1 
1 
1 
1 
1 
1 
1 
1 
1 
1 
1 
1 
1 
1 
1 
1 
1 
1 
1 
1 
1 
1 
1 
1 
1 
1 
1 
1 
1 
1 
1 
1 
1 
1 
1 
1 
1 
1 
1 
1 
1 
1 
1 
1 
1 
1 
1 
1 
1 
1 
1 
1 
1 
1 
1 
1 
1 
1 
1 
1 
1 
1 
1 
1 
1 
1 
1 
1 
1 
1 
1 
1 
1 
1 
1 
1 
1 
1 
1 
1 
1 
1 
1 
1 
1 
1 
1 
1 
1 
1 
1 
1 
1 
1 
1 
1 
1 
1 
1 
1 
1 
1 
1 
1 
1 
1 
1 
1 
1 
1 
1 
1 
1 
1 
1 
1 
1 
1 
1 
1 
1 
1 
1 
1 
1 
1 
1 
1 
1 
1 
1 
1 
1 
1 
1 
1 
1 
1 
1 
1 
1 
1 
1 
1 
1 
1 
1 
1 
1 
1 
1 
1 
1 
1 
1 
1 
1 
1 
1 
1 
1 
1 
1 
1 
1 
1 
1 
1 
1 
1 
1 
1 
1 
1 
1 
1 
1 
1 
1 
1 
1 
1 
1 
1 
1 
1 
1 
1 
1 
1 
1 
1 
1 
1 
1 
1 
1 
1 
1 
1 
1 
1 
1 
1 
1 
1 
1 
1 
1 
1 
1 
1 
1 
1 
1 
1 
1 
1 
1 
1 
1 
1 
1 
1 
1 
1 
1 
1 
1 
1 
1 
1 
1 
1 
1 
1 
1 
1 
1 
1 
1 
1 
1 
1 
1 
1 
1 
1 
1 
1 
1 
1 
1 
1 
1 
1 
1 
1 
1 
1 
1 
1 
1 
1 
1 
1 
1 
1 
1 
1 
1 
1 
1 
1 
1 
1 
1 
1 
1 
1 
1 
1 
1 
1 
1 
1 
1 
1 
1 
1 
1 
1 
1 
1 
1 
1 
1 
1 
1 
1 
1 
1 
1 
1 
1 
1 
1 
1 
1 
1 
1 
1 
1 
1 
1 
1 
1 
1 
1 
1 
1 
1 
1 
1 
1 
1 
1 
1 
1 
1 
1 
1 
1 
1 
1 
1 
1 
1 
1 
1 
1 
1 
1 
1 
1 
1 
1 
1 
1 
1 
1 
1 
1 
1 
1 
1 
1 
1 
1 
1 
1 
1 
1 
1 
1 
1 
1 
1 
1 
1 
1 
1 
1 
1 
1 
1 
1 
1 
1 
1 
1 
1 
1 
1 
1 
1 
1 
1 
1 
1 
1 
1 
1 
1 
1 
1 
1 
1 
1 
1 
1 
1 
1 
1 
1 
1 
1 
1 
1 
1 
1 
1 
1 
1 
1 
1 
1 
1 
1 
1 
1 
1 
1 
1 
1 
1 
1 
1 
1 
1 
1 
1 
1 
1 
1 
1 
1 
1 
1 
1 
1 
1 
1 
1 
1 
1 
1 
1 
1 
1 
1 
1 
1 
1 
1 
1 
1 
1 
1 
1 
1 
1 
1 
1 
1 
1 
1 
1 
1 
1 
1 
1 
1 
1 
1 
1 
1 
1 
1 
1 
1 
1 
1 
1 
1 
1 
1 
1 
1 
1 
1 
1 
1 
1 
1 
1 
1 
1 
1 
1 
1 
1 
1 
1 
1 
1 
1 
1 
1 
1 
1 
1 
1 
1 
1 
1 
1 
1 
1 
1 
1 
1 
1 
1 
1 
1 
1 
1 
1 
1 
1 
1 
1 
1 
1 
1 
1 
1 
1 
1 
1 
1 
1 
1 
1 
1 
1 
1 
1 
1 
1 
1 
1 
1 
1 
1 
1 
1 
1 
1 
1 
1 
1 
1 
1 
1 
1 
1 
1 
1 
1 
1 
1 
1 
1 
1 
1 
1 
1 
1 
1 
1 
1 
1 
1 
1 
1 
1 
1 
1 
1 
1 
1 
1 
1 
1 
1 
1 
1 
1 
1 
1 
1 
1 
1 
1 
1 
1 
1 
1 
1 
1 
1 
1 
1 
1 
1 
1 
1 
1 
1 
1 
1 
1 
1 
1 
1 
1 
1 
1 
1 
1 
1 
1 
1 
1 
1 
1 
1 
1 
1 
1 
1 
1 
1 
1 
1 
1 
1 
1 
1 
1 
1 
1 
1 
1 
1 
1 
1 
1 
1 
1 
1 
1 
1 
1 
1 
1 
1 
1 
1 
1 
1 
1 
1 
1 
1 
1 
1 
1 
1 
1 
1 
1 
1 
1 
1 
1 
1 
1 
1 
1 
1 
1 
1 
1 
1 
1 
1 
1 
1 
1 
1 
1 
1 
1 
1 
1 
1 
1 
1 
1 
1 
1 
1 
1 
1 
1 
1 
1 
1 
1 
1 
1 
1 
1 
1 
1 
1 
1 
1 
1 
1 
1 
1 
1 
1 
1 
1 
1 
1 
1 
1 
1 
1 
1 
1 
1 
1 
1 
1 
1 
1 
1 
1 
1 
1 
1 
1 
1 
1 
1 
1 
1 
1 
1 
1 
1 
1 
1 
1 
1 
1 
1 
1 
1 
1 
1 
1 
1 
1 
1 
1 
1 
1 
1 
1 
1 
1 
1 
1 
1 
1 
1 
1 
1 
1 
1 
1 
1 
1 
1 
1 
1 
1 
1 
1 
1 
1 
1 
1 
1 
1 
1 
1 
1 
1 
1 
1 
1 
1 
1 
1 
1 
1 
1 
1 
1 
1 
1 
1 
1 
1 
1 
1 
1 
1 
1 
1 
1 
1 
1 
1 
1 
1 
1 
1 
1 
1 
1 
1 
1 
1 
1 
1 
1 
1 
1 
1 
1 
1 
1 
1 
1 
1 
1 
1 
1 
1 
1 
1 
1 
1 
1 
1 
1 
1 
1 
1 
1 
1 
1 
1 
1 
1 
1 
1 
1 
1 
1 
1 
1 
1 
1 
1 
1 
1 
1 
1 
1 
1 
1 
1 
1 
1 
1 
1 
1 
1 
1 
1 
1 
1 
1 
1 
1 
1 
1 
1 
1 
1 
1 
1 
1 
1 
1 
1 
1 
1 
1 
1 
1 
1 
1 
1 
1 
1 
1 
1 
1 
1 
1 
1 
1 
1 
1 
1 
1 
1 
1 
1 
1 
1 
1 
1 
1 
1 
1 
1 
1 
1 
1 
1 
1 
1 
1 
1 
1 
1 
1 
1 
1 
1 
1 
1 
1 
1 
1 
1 
1 
1 
1 
1 
1 
1 
1 
1 
1 
1 
1 
1 
1 
1 
1 
1 
1 
1 
1 
1 
1 
1 
1 
1 
1 
1 
1 
1 
1 
1 
1 
1 
1 
1 
1 
1 
1 
1 
1 
1 
1 
1 
1 
1 
1 
1 
1 
1 
1 
1 
1 
1 
1 
1 
1 
1 
1 
1 
1 
1 
1 
1 
1 
1 
1 
1 
1 
1 
1 
1 
1 
1 
1 
1 
1 
1 
1 
1 
1 
1 
1 
1 
1 
1 
1 
1 
1 
1 
1 
1 
1 
1 
1 
1 
1 
1 
1 
1 
1 
1 
1 
1 
1 
1 
1 
1 
1 
1 
1 
1 
1 
1 
1 
1 
1 
1 
1 
1 
1 
1 
1 
1 
1 
1 
1 
1 
1 
1 
1 
1 
1 
1 
1 
1 
1 
1 
1 
1 
1 
1 
1 
1 
1 
1 
1 
1 
1 
1 
1 
1 
1 
1 
1 
1 
1 
1 
1 
1 
1 
1 
1 
1 
1 
1 
1 
1 
1 
1 
1 
1 
1 
1 
1 
1 
1 
1 
1 
1 
1 
1 
1 
1 
1 
1 
1 
1 
1 
1 
1 
1 
1 
1 
1 
1 
1 
1 
1 
1 
1 
1 
1 
1 
1 
1 
1 
1 
1 
1 
1 
1 
1 
1 
1 
1 
1 
1 
1 
1 
1 
1 
1 
1 
1 
1 
1 
1 
1 
1 
1 
1 
1 
1 
1 
1 
1 
1 
1 
1 
1 
1 
1 
1 
1 
1 
1 
1 
1 
1 
1 
1 
1 
1 
1 
1 
1 
1 
1 
1 
1 
1 
1 
1 
1 
1 
1 
1 
1 
1 
1 
POINT_DATA 5000
VECTORS Stress float
-782.357 -1725.84 0.
-3725.99 -5757.68 0.
-588.166 -1155.68 0.
-116.788 -280.7 0.
-4020.28 -7822.3 0.
-688.175 -1694.13 0.
-3173.89 -4026.2 0.
-72.3556 -135.651 0.
-271.552 -315.539 0.
-3993.25 -6669.07 0.
-1230.73 -2285.42 0.
-155.596 -385.891 0.
-2188.71 -3061.97 0.
-1756.25 -2555.34 0.
-1356.81 -2087.81 0.
-1104.85 -1773.99 0.
-853.021 -1460.05 0.
-1003.69 -1652.45 0.
-832.462 -1472.89 0.
-644.796 -1309.76 0.
-825.283 -1506.77 0.
-799.835 -1448.63 0.
-773.807 -1391.07 0.
-819.401 -1478.45 0.
-861.64 -1576.38 0.
-901.43 -1676.77 0.
-1051.57 -1734.54 0.
-997.764 -1644.3 0.
-787.781 -1505.74 0.
-770.174 -1448.32 0.
-744.847 -1398.62 0.
-765.677 -1400.48 0.
-738.466 -1365.39 0.
-709.044 -1332.51 0.
-730.167 -1360.66 0.
-726.816 -1373.82 0.
-723.412 -1387.04 0.
-796.282 -1429.06 0.
-791.462 -1438.11 0.
-719.302 -1408.72 0.
-693.154 -1361.17 0.
-667.01 -1313.61 0.
-689.982 -1304.87 0.
-704.9 -1339.68 0.
-719.818 -1374.5 0.
-731.474 -1367.44 0.
-708.143 -1313 0.
-684.812 -1258.56 0.
-631.481 -1314.16 0.
-691.088 -1453.24 0.
-750.693 -1592.32 0.
-786.73 -1510.82 0.
-735.843 -1392.08 0.
-690.075 -1303.28 0.
-704.792 -1337.64 0.
-719.509 -1371.99 0.
-713.933 -1376.06 0.
-703.188 -1350.98 0.
-692.443 -1325.89 0.
-666.926 -1344.11 0.
-698.424 -1406.99 0.
-732.502 -1467.29 0.
-854.121 -1542 0.
-873.739 -1571.89 0.
-776.998 -1538.51 0.
-770.828 -1496.01 0.
-764.072 -1454.1 0.
-739.728 -1407.49 0.
-750.74 -1403.62 0.
-760.351 -1401.16 0.
-751.404 -1416.92 0.
-815.475 -1530.59 0.
-876.856 -1646.94 0.
-1041.83 -1735.57 0.
-1060.79 -1760.89 0.
-903.057 -1649.85 0.
-828.056 -1512.27 0.
-793.859 -1427.93 0.
-695.986 -1361.15 0.
-743.679 -1461.22 0.
-815.387 -1537.27 0.
-733.565 -1399.58 0.
-999.188 -1706.53 0.
-1249.8 -2028.49 0.
-1167.91 -1716.22 0.
-1328.68 -1777.13 0.
-1479.61 -1847.89 0.
-1671.64 -2791.22 0.
-2753.61 -4521.1 0.
-36.4827 -33.362 0.
-822.353 -1518.6 0.
-4605.14 -7258.86 0.
-870.981 -1421.2 0.
-709.561 -973.053 0.
-2748.1 -3337.02 0.
-44.6296 -109.12 0.
-3885.12 -5736.99 0.
-246.84 -658.257 0.
-4095.96 -6632.74 0.
-1522.2 -2670.69 0.
-1206.31 -2384.07 0.
-0.0895244 -12.0533 0.
-97.8546 -268.438 0.
0.201453 0.993518 0.
-241.236 -667.965 0.
-28.5329 -60.2431 0.
-129.838 -199.086 0.
-107.336 -128.581 0.
-572.264 -447.688 0.
-129.75 -277.112 0.
-90.5772 -171.249 0.
-110.483 -245.88 0.
-804.236 -961.022 0.
-526.279 -552.406 0.
-356.411 -575.733 0.
-169.289 -203.41 0.
-39.6349 -53.6938 0.
-350.463 -755.12 0.
-240.753 -535.243 0.
-183.261 -280.438 0.
-562.923 -1207.66 0.
-524.492 -1166.89 0.
-488.441 -1124.7 0.
-629.049 -1209.03 0.
-656.284 -1321.99 0.
-680.201 -1438.27 0.
-1005.89 -1623.67 0.
-953.634 -1531.86 0.
-618.969 -1249.02 0.
-581.152 -1192.73 0.
-555.232 -1138.55 0.
-611.159 -1220.85 0.
-577.07 -1192.63 0.
-569.3 -1138.08 0.
-628.105 -1247.49 0.
-625.02 -1260.39 0.
-621.596 -1273.62 0.
-825.787 -1387.48 0.
-823.216 -1394.27 0.
-643.234 -1316.21 0.
-611.7 -1274.04 0.
-583.702 -1228.34 0.
-666.897 -1234.17 0.
-671.074 -1279.73 0.
-676.167 -1324.38 0.
-727.55 -1334.34 0.
-704.22 -1279.89 0.
-680.889 -1225.45 0.
-451.879 -1184.47 0.
-496.592 -1338.46 0.
-556.198 -1477.53 0.
-765.813 -1470.41 0.
-714.932 -1351.67 0.
-648.329 -1253.96 0.
-663.034 -1288.32 0.
-677.74 -1322.68 0.
-650.914 -1317.6 0.
-647.808 -1284.89 0.
-647.35 -1249.52 0.
-575.925 -1249.93 0.
-614.822 -1305.42 0.
-654.491 -1360.13 0.
-896.28 -1508.7 0.
-912.417 -1542.07 0.
-655.325 -1376.96 0.
-629.481 -1354.13 0.
-624.399 -1310.54 0.
-572.857 -1207.27 0.
-590.776 -1196.5 0.
-609.88 -1184.55 0.
-592.173 -1124.24 0.
-629.729 -1264.46 0.
-694.568 -1377.4 0.
-940.594 -1579.89 0.
-960.371 -1604.41 0.
-775.711 -1499.02 0.
-683.8 -1291.38 0.
-670.917 -1180.78 0.
-315.911 -800.713 0.
-378.877 -901.486 0.
-451.15 -997.185 0.
-93.2844 -82.6706 0.
-229.559 -373.771 0.
-391.703 -740.989 0.
-333.05 -473.329 0.
-231.931 -342.768 0.
-260.971 -421.017 0.
-123.446 -159.874 0.
-373.603 -663.364 0.
-21.0873 -27.0898 0.
-80.3789 -106.056 0.
-245.202 -512.415 0.
-659.282 -689.323 0.
-503.103 -383.761 0.
-306.933 -218.247 0.
-28.4326 -69.7887 0.
-170.649 -434.368 0.
1.25224 3.03478 0.
-221.659 -432.859 0.
-694.535 -1236.4 0.
-18.2112 -30.2913 0.
-0.135174 -16.4892 0.
-101.913 -281.253 0.
-0.250043 -1.83851 0.
-126.208 -326.497 0.
0.969001 1.39518 0.
-175.121 -205.417 0.
-226.387 -216.334 0.
-866.095 -589.117 0.
-93.3635 -134.101 0.
-55.2456 -40.2356 0.
-91.065 -151.128 0.
-254.474 -280.292 0.
-196.963 -189.269 0.
-626.433 -1151.3 0.
-115.06 -105.545 0.
-64.9882 -65.8131 0.
-862.381 -1938.51 0.
-742.831 -1731.21 0.
-733.076 -1769.91 0.
-1397.83 -2756.06 0.
-1045.87 -2012.62 0.
-736.73 -1370.35 0.
-689.692 -1114.17 0.
-713.45 -1234.94 0.
-1563 -3181.41 0.
-1294.42 -2167.04 0.
-1258.78 -2091.38 0.
-832.771 -1483.31 0.
-659.529 -1129.8 0.
-584.919 -1000.3 0.
-694.917 -1244.64 0.
-619.738 -1074.73 0.
-623.972 -1098.09 0.
-703.521 -1240.96 0.
-652.086 -1126.1 0.
-722.805 -1301.59 0.
-927.665 -1485.59 0.
-963.439 -1580.72 0.
-694.508 -1140.32 0.
-594.99 -936.914 0.
-578.622 -914.453 0.
-655.755 -1113.72 0.
-668.564 -1189.47 0.
-598.616 -1090.64 0.
-713.276 -1116.72 0.
-749.211 -1231.16 0.
-792.226 -1357.83 0.
-423.791 -1084.79 0.
-373.107 -980.947 0.
-2693.19 -2389.88 0.
-618.029 -1134.78 0.
-661.657 -1236.64 0.
-708.245 -1301.35 0.
-672.808 -1192.74 0.
-641.106 -1125.25 0.
-635.842 -1172.32 0.
-618.175 -1124.4 0.
-642.821 -1137.48 0.
-568.968 -991.341 0.
-618.841 -1111.04 0.
-647.866 -1145.66 0.
-1057.6 -1675.74 0.
-1060.75 -1672.47 0.
-647.454 -1134.29 0.
-667.769 -1273.48 0.
-677.706 -1278.73 0.
-649.454 -1222.15 0.
-637.273 -1190.68 0.
-709.2 -1316.26 0.
-622.093 -1043.31 0.
-763.668 -1380.44 0.
-865.605 -1540.53 0.
-1368.61 -2413.66 0.
-1446.43 -2591.14 0.
-1708.55 -3299.08 0.
-855.842 -1310.05 0.
-865.534 -1234.04 0.
-607.762 -1464.2 0.
-1054.26 -2348.89 0.
-2209.58 -4946.03 0.
-427.543 -789.084 0.
-752.99 -1654.77 0.
-866.139 -1823.1 0.
-420.838 -530.105 0.
-285.714 -369.421 0.
-447.965 -613.97 0.
-132.442 -156.978 0.
-94.3191 -107.906 0.
-20.1065 -32.7557 0.
-94.583 -121.647 0.
-205.826 -266.949 0.
-805.094 -567.57 0.
-616.86 -285.98 0.
-366.553 -246.538 0.
-16.2248 -40.4915 0.
-144.257 -395.568 0.
-0.360083 -6.41535 0.
0.0782979 1.08423 0.
-2756.98 -4775.47 0.
-1571.04 -2256.62 0.
8.91452 24.1403 0.
-140.37 -292.318 0.
-2857.3 -5190.95 0.
-97.0346 -224.799 0.
-3199.14 -6248.42 0.
0.503942 2.33557 0.
-2159.26 -2904.87 0.
-34.2293 -55.1895 0.
-3525.9 -6328.16 0.
-209.833 -350.425 0.
-88.7439 -193.253 0.
-3899.16 -8644.5 0.
-71.6014 -77.2397 0.
-1985.39 -3200 0.
-1449.32 -2558.79 0.
-1007.28 -1852.42 0.
-2029.01 -4563.24 0.
-784.826 -1780.76 0.
-83.1228 -201.417 0.
-699.687 -1642.57 0.
-408.891 -972.681 0.
-199.597 -316.855 0.
-542.664 -740.844 0.
-430.435 -571.14 0.
-325 -412.69 0.
-678.59 -842.921 0.
-686.606 -892.353 0.
-400.465 -480.978 0.
-412.489 -534.987 0.
-435.068 -613.903 0.
-460.611 -705.39 0.
-431.46 -684.542 0.
-404.214 -654.467 0.
-421.465 -671.204 0.
-403.173 -628.454 0.
-399.416 -574.383 0.
-576.433 -858.6 0.
-562.95 -847.332 0.
-428.866 -576.577 0.
-424.696 -569.725 0.
-421.382 -565.911 0.
-466.072 -752.867 0.
-427.983 -662.444 0.
-382.91 -581.064 0.
-483.317 -634.882 0.
-497.178 -682.822 0.
-520.781 -722.686 0.
-121.452 -306.456 0.
-81.5273 -208.575 0.
-2255.66 -1337.57 0.
-291.202 -412.789 0.
-328.6 -503.459 0.
-411.048 -738.027 0.
-425.238 -721.053 0.
-438.501 -705.546 0.
-403.698 -634.834 0.
-455.509 -698.588 0.
-491.149 -778.48 0.
-394.156 -645.044 0.
-387.146 -624.257 0.
-380.695 -604.747 0.
-553.523 -868.698 0.
-576.982 -883.375 0.
-366.683 -589.987 0.
-373.06 -641.314 0.
-410.183 -736.382 0.
-393.261 -703.228 0.
-414.186 -715.863 0.
-446.236 -718.991 0.
-491.713 -687.495 0.
-451.843 -589.641 0.
-431.307 -543.497 0.
-673.624 -860.945 0.
-665.565 -777.753 0.
-286.536 -257.326 0.
-436.756 -516.355 0.
-602.235 -804.083 0.
-103.461 -141.601 0.
-351.951 -724.67 0.
-775.319 -1866.7 0.
-116.084 -138.494 0.
-919.888 -2046.49 0.
-2473.36 -5415.49 0.
-462.776 -882.423 0.
-1297.34 -2327.44 0.
-2245.83 -3699.03 0.
-358.547 -396.186 0.
-4519.06 -8298.18 0.
-113.514 -313.037 0.
-63.6031 -176.099 0.
-4113.11 -7663.19 0.
-10.5907 -26.3554 0.
-2727.68 -3396.32 0.
0.0851992 4.8986 0.
-3989.72 -7509.35 0.
-72.9054 -125.862 0.
-3717.56 -5828.93 0.
-3.41605 -24.9015 0.
14.8342 29.9647 0.
0.492151 4.98967 0.
12.9502 29.1502 0.
-2384.98 -4993.97 0.
3.1226 3.27674 0.
5.46773 9.93468 0.
-284.529 -668.855 0.
-0.0431911 -6.05249 0.
1.71802 1.90084 0.
-8.65768 -13.7618 0.
-312.451 -559.317 0.
-52.5021 -137.536 0.
-67.2967 -162.329 0.
-105.577 -147.435 0.
-77.4036 -103.834 0.
-18.405 -50.9291 0.
-180.121 -191.36 0.
-576.329 -374.165 0.
-526.906 -904.339 0.
-173.409 -233.897 0.
-117.046 -219.985 0.
-385.848 -856.488 0.
-152.861 -156.19 0.
-77.6558 -74.7822 0.
-534.031 -657.312 0.
-423.976 -482.589 0.
-327.107 -310.858 0.
-772.304 -882.073 0.
-783.947 -927.07 0.
-397.165 -457.033 0.
-440.429 -512.589 0.
-461.479 -591.037 0.
-467.11 -614.906 0.
-436.779 -591.319 0.
-403.635 -571.541 0.
-392.908 -608.738 0.
-389.019 -551.407 0.
-390.346 -490.159 0.
-610.354 -862.734 0.
-609.461 -853.698 0.
-453.368 -582.334 0.
-450.362 -574.532 0.
-449.78 -569.142 0.
-503.346 -707.875 0.
-467.282 -634.46 0.
-416.955 -589.415 0.
-483.587 -605.336 0.
-507.516 -645.198 0.
-530.802 -685.11 0.
-103.244 -272.954 0.
-66.386 -175.168 0.
-2630.61 -1492.47 0.
-256.648 -298.684 0.
-293.174 -390.672 0.
-476.913 -709.404 0.
-478.245 -704.652 0.
-490.425 -689.645 0.
-413.345 -635.575 0.
-449.743 -687.516 0.
-492.891 -758.975 0.
-431.855 -657.654 0.
-434.213 -626.804 0.
-417.459 -617.082 0.
-581.314 -878.126 0.
-589.906 -894.74 0.
-378.89 -559.936 0.
-384.651 -611.643 0.
-418.633 -712.239 0.
-378.965 -568.321 0.
-422.722 -556.036 0.
-458.5 -550.453 0.
-510.486 -701.369 0.
-472.097 -606.736 0.
-437.079 -511.075 0.
-744.406 -873.883 0.
-749.129 -782.889 0.
-61.1044 -120.394 0.
-251.102 -339.895 0.
-413.022 -621.927 0.
-120.553 -156.215 0.
-107.956 -123.11 0.
-322.149 -497.562 0.
-92.002 -50.8989 0.
-142.726 -162.223 0.
-372.589 -652.906 0.
-115.319 -100.202 0.
-135.885 -117.79 0.
-270.051 -287.125 0.
-247.262 -272.813 0.
-305.724 -484.808 0.
-69.6891 -192.38 0.
-41.8364 -115.874 0.
-32.9517 -91.0073 0.
-0.283493 -1.20584 0.
2.68221 0.00843435 0.
0.062648 0.982714 0.
-1061 -2185.91 0.
-5.4472 -19.1541 0.
14.6899 29.7945 0.
0.398046 14.777 0.
-3966.64 -7278.11 0.
-447.548 -884.207 0.
-11.213 -42.4876 0.
-5.60391 -13.4258 0.
-0.0162482 -12.269 0.
9.31675 13.0539 0.
-25.4472 -52.2226 0.
1.20331 3.32772 0.
-3533.31 -7750.78 0.
-376.892 -971.14 0.
-3515.61 -5782.22 0.
-89.9377 -221.113 0.
-94.6113 -229.267 0.
-3818.19 -9296.18 0.
-243.788 -607.706 0.
-58.0734 -136.909 0.
-3246.42 -6184.13 0.
-309.979 -635.261 0.
-2606.39 -4896.74 0.
-892.145 -1350.54 0.
-128.288 -101.884 0.
-2356.95 -4756.82 0.
-1228.38 -2632.75 0.
-237.932 -370.971 0.
-1328.7 -2412.19 0.
-916.95 -1656.22 0.
-567.129 -993.58 0.
-1138.35 -1779.45 0.
-1048.53 -1701.12 0.
-778.96 -1285.79 0.
-749.718 -1221.07 0.
-721.623 -1157.03 0.
-699.709 -1145.07 0.
-679.416 -1139.83 0.
-665.55 -1128.15 0.
-722.975 -1265.21 0.
-700.018 -1243.34 0.
-680.067 -1218.46 0.
-1089.57 -1704.53 0.
-1005.29 -1578.52 0.
-710.28 -1133.63 0.
-702.927 -1115.1 0.
-696.849 -1094.89 0.
-752.123 -1259.45 0.
-750.014 -1268.19 0.
-751.808 -1284.34 0.
-797.24 -1313.13 0.
-773.291 -1258.87 0.
-750.497 -1203.45 0.
-352.285 -973.229 0.
-349.39 -965.786 0.
-3102.75 -2395.36 0.
-562.315 -1114.27 0.
-565.947 -1126.82 0.
-737.762 -1297.68 0.
-742.243 -1315.84 0.
-747.236 -1333.5 0.
-592.51 -1141.07 0.
-647.692 -1184.79 0.
-678.167 -1272.07 0.
-724.469 -1164.14 0.
-732.36 -1182.04 0.
-742.263 -1197.93 0.
-1001.02 -1617.36 0.
-1067.13 -1730.97 0.
-682.44 -1263.98 0.
-708.13 -1327.55 0.
-742.707 -1390.34 0.
-707.828 -1106.26 0.
-700.295 -1123.07 0.
-694.407 -1138.24 0.
-699.853 -1286.73 0.
-733.503 -1317.87 0.
-771.21 -1347.08 0.
-975.922 -1659.55 0.
-1151.65 -1873.67 0.
-440.662 -947.595 0.
-903.132 -1912.48 0.
-1469.44 -2977.11 0.
-96.0486 -94.5321 0.
-1168.73 -2680.86 0.
-2702.7 -5882.74 0.
-257.286 -283.165 0.
-626.473 -985.979 0.
-2461.63 -4452.75 0.
-180.323 -316.379 0.
-3990.22 -8980.13 0.
-415.436 -908.454 0.
-216.222 -301.686 0.
-2911.66 -4160.16 0.
-9.7698 -25.7169 0.
-4304.12 -9099.64 0.
-17.5059 -23.6594 0.
-2586.65 -5545.04 0.
1.03787 11.4374 0.
-0.837648 -16.1935 0.
-2.73068 -24.9033 0.
-7.16891 -24.1503 0.
-3111.41 -6995.78 0.
-2.88401 -35.5855 0.
-16.9264 -51.3813 0.
65.8538 116.674 0.
-0.597365 -33.3543 0.
-264.242 -606.055 0.
20.0493 54.6433 0.
1.46971 2.22628 0.
-1271.54 -2375.06 0.
-3056.5 -7478.3 0.
-4.24023 -11.3315 0.
-417.944 -619.189 0.
-430.951 -435.602 0.
-15.925 -44 0.
0.159371 1.67039 0.
-13.1284 -26.7915 0.
-0.0654173 -0.619149 0.
-7.66303 -20.7088 0.
-339.228 -722.744 0.
-31.5231 -83.5229 0.
-38.5812 -59.3317 0.
-15.972 -22.4387 0.
-113.958 -101.254 0.
-479.925 -896.277 0.
-88.7023 -78.1012 0.
-81.101 -105.374 0.
-664.344 -1275.91 0.
-348.835 -489.348 0.
-76.9313 -47.5293 0.
-817.894 -1409.77 0.
-747.414 -1385.68 0.
-659.636 -1145.16 0.
-621.411 -1109.33 0.
-603.938 -1073.94 0.
-664.125 -1011.65 0.
-648.783 -1005.48 0.
-633.752 -1013.92 0.
-649.323 -1077.03 0.
-631.128 -1062.45 0.
-612.241 -1048.89 0.
-934.154 -1494.05 0.
-858.035 -1384.86 0.
-645.569 -1043.14 0.
-635.916 -1027.02 0.
-626.576 -1011.08 0.
-680.486 -1096.22 0.
-690.465 -1110.62 0.
-679.751 -1168.95 0.
-719.184 -1217.2 0.
-690.964 -1163.92 0.
-665.222 -1112.52 0.
-330.834 -914.537 0.
-327.943 -906.608 0.
-2420.81 -2069.16 0.
-541.678 -1072.11 0.
-545.345 -1083.93 0.
-670.759 -1206.58 0.
-648.906 -1186.41 0.
-646.03 -1195.72 0.
-531.299 -1025.33 0.
-542.992 -1077.06 0.
-619.673 -1095.51 0.
-590.751 -1066.56 0.
-595.134 -1077.44 0.
-605.988 -1102.1 0.
-849.123 -1460.72 0.
-916.184 -1547.72 0.
-621.195 -1145.53 0.
-627.392 -1158.67 0.
-652.901 -1208.37 0.
-680.681 -1042.72 0.
-679.165 -1052.34 0.
-684.014 -1062.32 0.
-561.643 -1077.52 0.
-566.033 -1071.68 0.
-586.431 -1099.59 0.
-620.582 -1207.1 0.
-741.195 -1372.94 0.
-60.4923 -113.628 0.
-221.712 -300.55 0.
-636.058 -1431.36 0.
-79.9294 -79.7613 0.
-67.8393 -44.1756 0.
-221.636 -308.979 0.
-55.0655 -20.1601 0.
-26.5586 -9.93948 0.
-90.3102 -73.2572 0.
-58.6998 -42.383 0.
-357.272 -854.499 0.
-0.0643352 -0.306336 0.
-8.18071 -20.1185 0.
-33.6683 -88.3473 0.
1.0937 2.59986 0.
-251.984 -518.04 0.
-0.475699 -2.78646 0.
-1070.1 -2243.37 0.
-638.71 -1643.94 0.
-2128.23 -4937.4 0.
0.644092 5.07447 0.
18.3569 43.5884 0.
9.0973 23.8132 0.
-7.55244 -16.4242 0.
-2086.86 -2962.46 0.
-73.1531 -117.744 0.
0.038647 0.723767 0.
-670.687 -1488.02 0.
-128.283 -344.954 0.
2.34932 6.33467 0.
-364.456 -737.829 0.
-0.00415003 -17.0027 0.
7.66555 18.8747 0.
-584.142 -414.337 0.
-739.478 -548.687 0.
-0.0123923 -0.735648 0.
-0.377555 -3.98173 0.
-0.490533 -1.27645 0.
-0.192221 -1.13442 0.
-0.0733027 -1.04015 0.
-53.5672 -129.169 0.
-44.6215 -111.517 0.
-46.5492 -60.9129 0.
-20.1007 -24.1072 0.
-114.333 -105.213 0.
-191.905 -118.564 0.
-112.75 -91.8023 0.
-96.1251 -111.901 0.
-427.194 -511.21 0.
-154.06 -88.2277 0.
-98.8004 -55.5627 0.
-760.523 -1241.13 0.
-522.593 -801.307 0.
-547.789 -801.837 0.
-512.785 -689.708 0.
-302.438 -179.752 0.
-692.86 -836.705 0.
-335.999 -319.255 0.
-126.487 -90.1089 0.
-404.625 -505.879 0.
-430.084 -559.993 0.
-460.352 -608.614 0.
-604.303 -801.489 0.
-684.115 -926.892 0.
-453.603 -472.241 0.
-480.167 -556.18 0.
-358.626 -354.621 0.
-384.75 -470.583 0.
-326.942 -357.51 0.
-534.058 -857.889 0.
-460.487 -703.995 0.
-351.132 -436.356 0.
-372.514 -497.982 0.
-82.9769 -193.483 0.
-102.743 -259.154 0.
-2247.13 -1630.8 0.
-403.332 -618.063 0.
-392.494 -595.981 0.
-419.496 -606.138 0.
-402.293 -520.765 0.
-502.947 -724.957 0.
-354.46 -406.852 0.
-495.348 -703.736 0.
-498.468 -603.854 0.
-362.78 -591.987 0.
-318.899 -474.194 0.
-364.325 -365.995 0.
-521.029 -733.805 0.
-690.151 -1127.93 0.
-342.706 -364.446 0.
-458.996 -545.65 0.
-230.484 -222.87 0.
-344.684 -419.074 0.
-295.925 -292.45 0.
-224.428 -218.939 0.
-247.284 -248.488 0.
-473.596 -788.3 0.
-400.373 -664.602 0.
-204.397 -252.526 0.
-584.789 -1114.12 0.
-71.5809 -103.819 0.
-57.3396 -64.7816 0.
-67.6918 -93.1939 0.
-74.7361 -73.3479 0.
-49.1831 -23.0425 0.
-45.8778 -19.0374 0.
-22.478 -8.88622 0.
-8.33011 -3.34552 0.
-30.2532 -11.0034 0.
-10.9171 -7.74047 0.
-153.528 -344.557 0.
-0.461479 -1.23 0.
-9.66202 -20.4407 0.
-34.3056 -83.0674 0.
1.39865 3.04877 0.
-90.698 -173.074 0.
-0.664704 -10.3341 0.
-958.236 -2176.98 0.
9.29622 23.7565 0.
-1.55903 -41.1668 0.
-3436.61 -8263.76 0.
-1.96449 -33.7377 0.
27.9256 69.8405 0.
-0.522466 -1.13851 0.
7.45681 13.9655 0.
22.2503 41.2515 0.
-702.219 -1804.73 0.
41.9628 108.183 0.
4.52088 11.7626 0.
29.9761 79.8147 0.
-439.32 -940.94 0.
-0.0464114 -15.2013 0.
-1.09467 -15.7391 0.
-804.804 -373.481 0.
-984.201 -979.934 0.
-3121.17 -6816.44 0.
4.07299 6.34236 0.
-2700.75 -6319.11 0.
-5.52747 -15.2802 0.
-63.9589 -162.491 0.
-3521.56 -8393.1 0.
-48.5548 -82.991 0.
-3296.28 -5128.95 0.
-349.532 -406.136 0.
-47.6311 -44.3552 0.
-3263.45 -7555.32 0.
-303.469 -557.388 0.
-0.00129008 -0.0280661 0.
-2123.81 -4693.91 0.
-893.854 -1889.58 0.
-41.2783 -54.4665 0.
-1369.29 -2835.6 0.
-886.835 -1826.64 0.
-845.894 -1680.16 0.
-637.018 -1241.82 0.
-434.555 -804.431 0.
-619.883 -1059.91 0.
-586.636 -1002.79 0.
-549.965 -952.488 0.
-561.644 -858.068 0.
-518.831 -781.681 0.
-468.929 -713.76 0.
-734.89 -1146.46 0.
-729.802 -1148.16 0.
-478.008 -813.259 0.
-475.324 -801.348 0.
-486.224 -826.254 0.
-535.922 -895.849 0.
-503.291 -825.75 0.
-473.689 -763.259 0.
-444.666 -795.701 0.
-481.15 -872.723 0.
-531.634 -961.015 0.
-288.826 -739.353 0.
-272.595 -696.808 0.
-1418.21 -1384.01 0.
-478.316 -839.612 0.
-473.963 -827.879 0.
-501.394 -805.233 0.
-525.287 -852.373 0.
-557.101 -890.047 0.
-523.792 -877.948 0.
-519.953 -859.001 0.
-484.612 -868.987 0.
-486.976 -873.669 0.
-481.681 -879.206 0.
-480.719 -895.837 0.
-773.525 -1260.91 0.
-781.03 -1258.27 0.
-493.929 -859.231 0.
-544.223 -949.276 0.
-592.102 -1040.02 0.
-583.656 -1034.07 0.
-676.973 -1216.51 0.
-768.566 -1398.04 0.
-433.83 -948.093 0.
-727.078 -1588.17 0.
-1034.93 -2215.92 0.
-949.515 -2112.96 0.
-1623.53 -3513.68 0.
-63.756 -87.9061 0.
-761.425 -1769.97 0.
-2460.21 -5593.79 0.
-113.637 -160.716 0.
-110.387 -185.684 0.
-3331.65 -8071.84 0.
-40.5214 -76.7669 0.
-129.676 -256.959 0.
-3236.19 -6516.07 0.
-0.352957 -0.816006 0.
-3094.55 -6193.52 0.
0.02363 1.55674 0.
-3430.26 -7218.85 0.
-58.3736 -111.467 0.
0.422734 0.872801 0.
-1821.25 -4826.77 0.
-0.213962 -7.25586 0.
0.0087157 3.80384 0.
10.5022 27.0481 0.
-0.331149 -0.858758 0.
7.75105 21.3558 0.
-7.35245 -18.1905 0.
-4.84471 -75.3282 0.
-427.527 -965.337 0.
-2388.21 -4613.2 0.
46.7336 91.7364 0.
-7.29947 -153.395 0.
5.64536 14.6044 0.
4.47523 11.3111 0.
-1.16359 -50.993 0.
-1995.13 -4379.22 0.
-0.244518 -38.0338 0.
-163.849 -410.748 0.
-2374.69 -5899.13 0.
-414.733 -671.463 0.
2.70941 4.03041 0.
-0.437852 -1.18002 0.
2.95455 5.56579 0.
-0.193628 -0.51524 0.
-29.7738 -71.2039 0.
-81.6873 -183.417 0.
-21.5289 -27.022 0.
-100.47 -109.334 0.
-87.5171 -86.1559 0.
-71.4907 -64.9782 0.
-164.973 -171.92 0.
-52.6858 -24.9278 0.
-8.70963 -3.34203 0.
-535.643 -951.292 0.
-35.656 -21.3618 0.
-56.5325 -58.8978 0.
-785.557 -1639.4 0.
-370.834 -565.495 0.
-556.019 -1104.51 0.
-384.078 -631.681 0.
-224.84 -149.992 0.
-517.4 -844.539 0.
-482.703 -791.324 0.
-453.293 -733.39 0.
-534.86 -756.015 0.
-493.053 -680.102 0.
-455.052 -624.628 0.
-738.227 -1143.89 0.
-734.245 -1147.34 0.
-472.8 -688.384 0.
-471.766 -673.95 0.
-476.673 -675.93 0.
-537.499 -870.45 0.
-500.617 -784.972 0.
-464.376 -698.533 0.
-406.2 -752.599 0.
-444.581 -848.264 0.
-488.666 -941.775 0.
-328.256 -774.612 0.
-312.412 -733.575 0.
-1068.4 -1110.09 0.
-517.589 -887.875 0.
-531.361 -858.342 0.
-527.608 -699.411 0.
-545.822 -751.665 0.
-563.379 -804.779 0.
-518.076 -796.448 0.
-504.604 -783.919 0.
-494.946 -772.691 0.
-501.542 -767.938 0.
-502.862 -769.387 0.
-519.703 -807.479 0.
-831.63 -1280.8 0.
-838.942 -1277.44 0.
-445.62 -732.726 0.
-493.736 -825.702 0.
-541.884 -925.112 0.
-374.591 -760.717 0.
-456.723 -951.645 0.
-557.715 -1130.16 0.
-86.5123 -142.525 0.
-376.854 -786.178 0.
-648.366 -1452.8 0.
-145.332 -223.851 0.
-776.239 -1671.31 0.
-64.344 -83.0315 0.
-67.7155 -92.1418 0.
-84.0483 -132.607 0.
-166.301 -202.087 0.
-84.1047 -99.5318 0.
-114.608 -180.101 0.
0.00299484 0.39181 0.
0.391109 0.930532 0.
-122.829 -256.292 0.
-0.528594 -1.54454 0.
0.0962638 0.146184 0.
-0.0760061 -0.471583 0.
-305.95 -737.854 0.
-299.127 -541.603 0.
1.776 3.82866 0.
8.91436 24.4991 0.
-1442.32 -3794.82 0.
-0.00397718 -1.51018 0.
10.6704 27.5853 0.
8.90941 23.4165 0.
11.0634 30.1943 0.
-0.0574315 -9.11315 0.
-2738.29 -6420.37 0.
-1118.04 -2596.48 0.
102.789 225.755 0.
-1562.68 -3230.2 0.
-13.8507 -35.0922 0.
-3.04039 -108.028 0.
3.3799 8.33471 0.
-1630.35 -4206.92 0.
34.6268 94.5364 0.
-0.0372791 -3.1866 0.
-247.559 -622.398 0.
7.51905 20.288 0.
-158.344 -336.743 0.
-0.00859399 -0.121745 0.
1.13814 2.99709 0.
-0.556233 -3.01669 0.
-0.103073 -0.239254 0.
-111.171 -179.771 0.
-1937.09 -4881.49 0.
-34.1074 -63.059 0.
-2778.38 -5213.44 0.
-90.817 -103.698 0.
-65.0509 -72.1639 0.
-3257.97 -8260.94 0.
-58.756 -61.8505 0.
-52.2325 -57.2034 0.
-2743.15 -6099.02 0.
-458.027 -657.797 0.
-22.1286 -8.20287 0.
-1796.81 -3996.41 0.
-871.781 -1859.52 0.
-1138.79 -2370.93 0.
-769.526 -1603.85 0.
-440.855 -811.172 0.
-813 -1560.58 0.
-647.223 -1235.65 0.
-484.556 -907.828 0.
-700.334 -1033.55 0.
-679.883 -1000.43 0.
-660.226 -972 0.
-926.283 -1572.9 0.
-915.233 -1557.83 0.
-693.992 -1099.58 0.
-648.656 -1001.31 0.
-609.108 -918.187 0.
-676.902 -1024.04 0.
-634.482 -1048.05 0.
-634.703 -1039.74 0.
-689.244 -1119.18 0.
-647.885 -1008.98 0.
-543.542 -963.556 0.
-425.804 -1027.77 0.
-433.69 -1050.87 0.
-1685.63 -1651.57 0.
-650.86 -1105.29 0.
-688.766 -1116.08 0.
-616.988 -1010.92 0.
-653.59 -1082.14 0.
-692.705 -1158.46 0.
-622.898 -974.375 0.
-635.125 -1004.98 0.
-651.409 -1047.71 0.
-663.013 -1005.16 0.
-686.245 -1055.51 0.
-709.537 -1105.99 0.
-966.624 -1607.06 0.
-978.69 -1643.01 0.
-527.778 -871.894 0.
-607.38 -1014.39 0.
-696.124 -1174.52 0.
-413.887 -951.16 0.
-655.771 -1442.45 0.
-909.53 -1926.64 0.
-321.228 -616.573 0.
-791.001 -1673.36 0.
-1305.2 -2696.24 0.
-731.316 -1506.81 0.
-1980.74 -4530.09 0.
-71.9824 -123.64 0.
-85.0328 -168.827 0.
-2896.82 -7297.38 0.
-173.121 -313.667 0.
-103.247 -158.187 0.
-2496.18 -3806.83 0.
0.548958 1.50012 0.
-3883.96 -9558.82 0.
-5.85797 -15.2647 0.
-43.6583 -103.275 0.
-2728.95 -6839.15 0.
0.31828 1.84816 0.
-0.0867138 -2.50269 0.
-583.659 -920.376 0.
-102.334 -214.086 0.
-0.0349735 -12.4886 0.
-11.3492 -29.9001 0.
-764.595 -1984.7 0.
-0.181775 -53.7424 0.
-207.313 -549.168 0.
-72.9025 -196.751 0.
-0.182662 -12.6193 0.
-21.248 -50.5036 0.
-162.18 -429.811 0.
34.0075 73.2161 0.
-9.64654 -149.757 0.
-61.7996 -158.853 0.
23.7238 61.7757 0.
-34.8957 -92.9404 0.
10.2725 27.2099 0.
-0.26499 -29.6138 0.
-476.531 -1258.99 0.
-1019.47 -2529.64 0.
-0.441172 -41.1762 0.
-41.1313 -99.1393 0.
0.0390304 1.43055 0.
-3270.51 -7457.19 0.
0.253477 4.80075 0.
-2603.5 -5803.43 0.
-43.916 -51.8944 0.
-48.1414 -105.989 0.
-28.8715 -59.1617 0.
-24.1834 -41.6677 0.
-75.8176 -102.218 0.
-47.0404 -67.2534 0.
-92.1385 -81.81 0.
-27.1588 -46.0787 0.
-29.7625 -44.4698 0.
-109.571 -53.8863 0.
-38.7008 -14.7251 0.
-13.2625 -4.8116 0.
-641.389 -1322.89 0.
-27.0327 -15.0563 0.
-542.574 -1113.3 0.
-212.535 -304.109 0.
-39.0959 -47.7898 0.
-525.042 -1111.16 0.
-363.766 -750.575 0.
-226.084 -371.823 0.
-550.677 -898.88 0.
-533.711 -865.675 0.
-517.549 -841.476 0.
-864.73 -1507.76 0.
-855.699 -1494.81 0.
-649.142 -992.872 0.
-613.758 -913.321 0.
-597.843 -890.997 0.
-572.256 -959.85 0.
-573.674 -956.045 0.
-575.502 -953.107 0.
-602.994 -1080.46 0.
-568.518 -976.75 0.
-533.781 -957.69 0.
-354.892 -928.481 0.
-356.019 -940.119 0.
-826.498 -1236.17 0.
-670.645 -1019.89 0.
-686.073 -1051.6 0.
-549.987 -1018.74 0.
-569.654 -1035.39 0.
-613.754 -1082.59 0.
-581.95 -971.08 0.
-596.346 -997.563 0.
-608.241 -1027.52 0.
-564.529 -947.866 0.
-573.667 -959.544 0.
-596.097 -1010.66 0.
-878.002 -1527.56 0.
-889.318 -1558.93 0.
-348.068 -622.112 0.
-420.321 -771.713 0.
-495.032 -920.269 0.
-131.978 -183.144 0.
-321.691 -730.233 0.
-532.357 -1253.64 0.
-51.8414 -94.587 0.
-39.4856 -62.8854 0.
-506.349 -929.684 0.
-17.8398 -40.3013 0.
-573.432 -1067.08 0.
-19.3891 -35.1681 0.
-33.2835 -79.7456 0.
-68.6645 -169.461 0.
-14.99 -5.84066 0.
-33.367 -19.2512 0.
-68.515 -101.286 0.
-0.100134 -1.53851 0.
-98.9344 -273.593 0.
-0.577675 -1.58935 0.
-13.2431 -34.3713 0.
-47.9594 -115.947 0.
-0.0926138 -4.61842 0.
-1732.36 -4698.99 0.
-1515.92 -2839.44 0.
-359.598 -480.901 0.
-0.0176349 -6.48783 0.
16.6406 45.6523 0.
-661.907 -1719.4 0.
-420.252 -1093.13 0.
-0.127524 -26.6633 0.
-367.202 -982.707 0.
-20.0952 -54.6249 0.
-14.6055 -35.5648 0.
-46.6609 -121.821 0.
14.1347 29.9841 0.
-10.528 -236.849 0.
-532.382 -1445.54 0.
-4.54395 -140.226 0.
-4.73111 -13.049 0.
-1.21769 -94.6562 0.
-0.46457 -38.9431 0.
-2033.63 -5397.6 0.
-0.25757 -55.4029 0.
-0.501144 -46.8109 0.
-1606.17 -3866 0.
-0.508655 -21.427 0.
-58.5231 -149.806 0.
6.72801 17.5671 0.
0.808943 0.297009 0.
-150.077 -146.912 0.
-81.7099 -210.028 0.
-61.1809 -149.721 0.
-43.6013 -89.6147 0.
-65.9362 -95.7489 0.
-34.161 -60.1117 0.
-23.4917 -52.1636 0.
-20.2694 -40.8476 0.
-21.1831 -35.7479 0.
-101.289 -51.7245 0.
-39.2817 -16.681 0.
-11.9009 -4.31889 0.
-20.0129 -8.11493 0.
-32.0686 -14.5632 0.
-5.15912 -7.44754 0.
-6.86143 -15.6349 0.
-24.1462 -42.8034 0.
-280.612 -485.059 0.
-134.352 -101.181 0.
-59.8193 -55.5118 0.
-336.118 -565.404 0.
-287.87 -429.783 0.
-24.0936 -52.286 0.
-377.402 -427.795 0.
-486.785 -736.705 0.
-91.61 -96.4879 0.
-278.114 -396.851 0.
-101.34 -111.158 0.
-141.942 -173.081 0.
-161.132 -198.659 0.
-161.41 -180.719 0.
-168.112 -150.576 0.
-155.713 -161.57 0.
-176.739 -199.134 0.
-21.1023 -58.3222 0.
-179.614 -493.126 0.
-450.785 -393.918 0.
-420.376 -352.468 0.
-322.78 -147.242 0.
-87.8982 -95.2129 0.
-77.3228 -69.3954 0.
-91.4284 -114.309 0.
-225.252 -272.258 0.
-219.988 -261.075 0.
-253.652 -338.809 0.
-109.11 -139.715 0.
-183.574 -277.719 0.
-242.816 -316.928 0.
-442.722 -616.142 0.
-363.778 -395.816 0.
-131.147 -164.618 0.
-244.531 -483.296 0.
-360.167 -783.337 0.
-40.1619 -111.239 0.
-33.0724 -91.1633 0.
-270.224 -594.11 0.
-93.1425 -117.304 0.
-69.1037 -88.4738 0.
-55.1769 -63.4069 0.
-23.9671 -56.0533 0.
-89.7921 -118.772 0.
-4.84175 -2.19053 0.
-9.45879 -15.6819 0.
-28.7889 -68.096 0.
-2.56925 -1.13474 0.
-16.6876 -10.6793 0.
-27.5564 -25.7882 0.
0.748934 1.47405 0.
-107.233 -285.181 0.
0.248462 0.687781 0.
-1.77228 -4.80937 0.
-22.2511 -57.2594 0.
-0.0366416 -0.430031 0.
1.61413 2.6836 0.
-767.779 -1830.23 0.
-514.414 -1405.63 0.
-463.934 -1266.88 0.
-0.131982 -27.8373 0.
-456.541 -1185.33 0.
-680.324 -1776.04 0.
-0.148464 -87.2441 0.
-671.115 -1838.02 0.
-25.8702 -70.5364 0.
-383.117 -951.282 0.
-5.25743 -166.021 0.
155.763 332.358 0.
115.359 294.73 0.
-51.8873 -140.683 0.
29.1756 76.0057 0.
-0.214341 -129.58 0.
-0.687612 -82.4704 0.
-0.00199225 -103.621 0.
-4.71715 -13.0657 0.
25.1743 69.2523 0.
-0.597345 -54.2513 0.
-0.201059 -30.049 0.
-0.351264 -16.7734 0.
-2.30658 -6.19915 0.
-0.127735 -5.13377 0.
-2.10726 -0.788197 0.
-544.38 -540.96 0.
-2384.53 -4637.03 0.
2.47703 0.0192122 0.
0.0898389 1.20964 0.
-3264.6 -7585.76 0.
-23.2215 -63.9849 0.
-2356.26 -5348.3 0.
-47.3036 -31.4058 0.
0.325452 0.0296166 0.
-2673.74 -6500.89 0.
0.308653 0.142272 0.
-37.2372 -15.3646 0.
-2261.5 -5521.18 0.
-352.56 -639.05 0.
-1674.76 -3545.65 0.
-797.387 -1623.96 0.
-37.8663 -15.8621 0.
-1169.98 -2798.93 0.
-688.063 -1682.81 0.
-243.21 -526.214 0.
-756.728 -1786.38 0.
-520.484 -1215.56 0.
-308.449 -665.003 0.
-751.689 -1574.97 0.
-700.815 -1464 0.
-501.316 -869.564 0.
-498.705 -870.963 0.
-513.067 -905.657 0.
-440.912 -892.64 0.
-426.368 -864.449 0.
-414.906 -836.735 0.
-462.857 -946.467 0.
-454.066 -937.729 0.
-452.599 -927.326 0.
-314.821 -825.86 0.
-312.646 -817.95 0.
-312.144 -858.136 0.
-607.269 -914.676 0.
-606.978 -917.731 0.
-457.503 -885.325 0.
-458.016 -889.133 0.
-459.393 -893.586 0.
-378.686 -818.586 0.
-399.26 -850.658 0.
-418.643 -877.498 0.
-447.43 -868.191 0.
-446.282 -867.644 0.
-448.773 -878.347 0.
-696.176 -1564.95 0.
-809.475 -1808.25 0.
-282.262 -643.827 0.
-579.299 -1451.16 0.
-899.836 -2235.8 0.
-116.251 -217.623 0.
-704.968 -1773.5 0.
-1350.75 -3282 0.
-42.4361 -104.142 0.
-803.051 -1641.34 0.
-1924.38 -4195.48 0.
-43.7501 -111.853 0.
-2461.78 -5692.26 0.
-25.5127 -68.7631 0.
-69.5695 -187.052 0.
-2905.96 -7685.62 0.
0.641485 1.32205 0.
-0.162556 -0.263604 0.
-2779.05 -5337 0.
-0.0245694 -0.645084 0.
-2137.23 -4870.6 0.
-0.00442302 -0.445676 0.
-2751.09 -7201.19 0.
2.0977 5.17219 0.
4.68582 9.55832 0.
0.702185 15.4434 0.
-325.868 -870.789 0.
-1.29135 -3.54751 0.
-714.139 -1959.8 0.
4.18758 11.4457 0.
-351.099 -910.912 0.
-863.193 -2260.88 0.
12.2293 33.5696 0.
-9.74153 -26.7479 0.
33.0306 90.2575 0.
-715.105 -1805.81 0.
63.9668 163.054 0.
72.6743 156.599 0.
-0.995361 -226.92 0.
-45.0056 -121.732 0.
-10.6072 -27.9497 0.
4.21557 11.6337 0.
35.231 96.4207 0.
-1213.87 -3362.17 0.
19.3475 53.5791 0.
11.9048 32.8416 0.
-2769.2 -7387.83 0.
12.9881 35.6498 0.
6.35746 16.8179 0.
-0.0196713 -25.5484 0.
-1255.72 -3345.92 0.
-115.321 -316.149 0.
-1961.86 -3902.7 0.
9.16237 2.75718 0.
3.93778 2.88474 0.
3.38749 0.680501 0.
-152.723 -420.956 0.
-23.2091 -63.4461 0.
-51.3037 -102.066 0.
-28.8789 -26.9256 0.
0.335834 0.0893957 0.
0.82953 0.377042 0.
-0.203446 -0.110002 0.
-5.89091 -4.06107 0.
-223.24 -296.967 0.
-28.0888 -10.3274 0.
-346.123 -596.02 0.
-65.7537 -27.8458 0.
-57.4931 -21.9907 0.
-546.872 -1336.13 0.
-113.034 -168.658 0.
-52.0118 -49.4024 0.
-553.183 -1344.27 0.
-338.273 -757.294 0.
-208.063 -367.352 0.
-670.811 -1441.51 0.
-619.878 -1334.99 0.
-450.307 -769.449 0.
-438.126 -733.108 0.
-445.2 -746.978 0.
-458.527 -814.836 0.
-446.841 -785.227 0.
-435.769 -755.472 0.
-404.963 -856.619 0.
-402.947 -843.387 0.
-400.871 -829.871 0.
-341.511 -846.275 0.
-340.001 -841.773 0.
-696.372 -1078.3 0.
-619.859 -880.25 0.
-626.306 -910.726 0.
-448.521 -764.583 0.
-448.209 -773.1 0.
-447.875 -781.969 0.
-388.427 -672.105 0.
-396.96 -723.547 0.
-409.973 -771.825 0.
-370.41 -776.312 0.
-376.722 -774.276 0.
-390.509 -780.778 0.
-581.875 -1348.03 0.
-683.565 -1590.38 0.
-86.5096 -208.497 0.
-357.098 -804.145 0.
-648.358 -1619.91 0.
-43.2939 -119.9 0.
-31.5978 -87.5136 0.
-533.05 -1186.44 0.
-58.1258 -113.089 0.
-35.4276 -95.3568 0.
-267.657 -288.18 0.
-45.2132 -119.037 0.
-112.951 -273.395 0.
-9.40964 -25.1151 0.
-41.5826 -115.166 0.
-162.035 -444.188 0.
0.00631571 0.131034 0.
1.00766 2.04896 0.
1.05682 1.85821 0.
1.09217 2.80734 0.
-0.0123832 -0.260416 0.
-3.34521e-05 -1.26005 0.
-44.004 -121.044 0.
5.36248 14.2179 0.
-2455.12 -6542.21 0.
-0.0982028 -24.0242 0.
-51.177 -140.833 0.
10.1642 28.0279 0.
-1051.4 -2896.21 0.
-98.0984 -266.614 0.
11.7729 32.6055 0.
-1397.81 -3672.57 0.
-82.7624 -227.707 0.
4.72766 13.0107 0.
-1.74694 -4.765 0.
68.342 183.755 0.
-18.6028 -47.1077 0.
-0.0606049 -193.583 0.
-0.286521 -167.397 0.
43.5236 117.254 0.
-13.1107 -36.2661 0.
24.3499 67.2213 0.
-509.047 -1401.28 0.
16.5122 45.3935 0.
-14.391 -39.8302 0.
14.6806 40.5746 0.
4.17027 11.4465 0.
3.52802 9.72713 0.
11.6758 30.9299 0.
17.78 48.7775 0.
-712.811 -1910.52 0.
5.06643 13.9506 0.
-851.376 -2052.9 0.
0.00942419 7.65787 0.
0.883025 4.23671 0.
-0.209174 -1.33868 0.
-83.0534 -218.58 0.
-516.318 -1071.65 0.
-2338.82 -6192 0.
-86.4643 -172.862 0.
-0.000476669 -0.567447 0.
-2342.54 -5720.44 0.
-36.7721 -30.8973 0.
-96.258 -161.796 0.
-2279.97 -5238.81 0.
-2.05819 -1.36681 0.
-1792.74 -4100.69 0.
-519.995 -1056.56 0.
-40.5292 -16.1786 0.
-1397.57 -3398.5 0.
-590.21 -1415.84 0.
-28.9526 -22.1904 0.
-973.61 -2328.2 0.
-550.658 -1295 0.
-154.813 -236.49 0.
-796.611 -1742.23 0.
-660.042 -1459.06 0.
-480.834 -935.562 0.
-437.436 -827.523 0.
-410.041 -761.473 0.
-485.16 -820.212 0.
-479.329 -804.353 0.
-473.113 -786.546 0.
-508.484 -915.698 0.
-431.196 -900.58 0.
-412.737 -843.479 0.
-431.189 -959.952 0.
-460.428 -952.304 0.
-896.513 -1127.57 0.
-635.852 -983.126 0.
-656.115 -1035.89 0.
-511.463 -857.266 0.
-516.712 -874.421 0.
-525.043 -900.583 0.
-461.761 -794.187 0.
-466.798 -798.312 0.
-472.684 -802.41 0.
-383.162 -850.857 0.
-473.582 -1050.97 0.
-570.515 -1253.4 0.
-688.197 -1621.71 0.
-869.1 -1986.67 0.
-94.1075 -149.38 0.
-595.022 -1482.38 0.
-1121.51 -2798.14 0.
-39.63 -109.717 0.
-570.863 -1287.11 0.
-1687.68 -4147.4 0.
-41.6329 -106.415 0.
-441.128 -568.529 0.
-1846.51 -3986.61 0.
-44.0785 -109.197 0.
-2376.47 -6086.62 0.
-58.3253 -161.549 0.
-45.5105 -116.871 0.
-1904.95 -4065.76 0.
-0.00932546 -0.828062 0.
-2611.41 -6821.21 0.
-62.2565 -168.388 0.
-0.0138802 -0.533935 0.
-0.00812756 -0.199952 0.
3.07363 8.34594 0.
-57.3035 -158.606 0.
3.90997 10.6977 0.
-385.142 -995.523 0.
-0.0920264 -32.9249 0.
-1611.27 -4454.61 0.
-29.1164 -80.488 0.
-1.15723e-06 -36.8587 0.
-144.491 -393.112 0.
3.59308 9.94917 0.
23.8439 65.9955 0.
-221.539 -610.717 0.
12.7287 35.0971 0.
-29.6834 -80.8616 0.
25.8361 70.9456 0.
81.2702 189.376 0.
71.4933 195.744 0.
-0.00234481 -36.7196 0.
-53.8161 -144.132 0.
-0.0364599 -140.024 0.
-338.728 -935.484 0.
29.5408 81.7128 0.
-11.0385 -30.3544 0.
15.388 42.5488 0.
-30.3641 -83.9645 0.
-0.327014 -58.6097 0.
17.3552 47.9833 0.
-2420.38 -6641.06 0.
13.7636 37.9545 0.
-279.666 -752.889 0.
-0.0405218 -31.3902 0.
-141.066 -375.167 0.
5.47906 15.1568 0.
-2502.08 -5961.75 0.
-24.845 -59.3831 0.
-1803.3 -4038.41 0.
-59.3042 -161.753 0.
0.608637 1.48558 0.
-0.593611 -1.64056 0.
0.0377537 0.104366 0.
-9.82678 -12.5756 0.
-12.8845 -11.2071 0.
-47.5974 -67.4161 0.
-121.299 -245.286 0.
-0.994591 -0.675448 0.
-184.736 -253.694 0.
-7.15547 -3.44223 0.
-46.285 -22.1202 0.
-461.342 -1076.34 0.
-17.3375 -11.5658 0.
-27.0857 -21.5437 0.
-536.102 -1289.71 0.
-146.955 -222.852 0.
-34.5749 -20.3269 0.
-576.104 -1291.91 0.
-446.947 -1007.58 0.
-383.432 -813.87 0.
-329.888 -712.893 0.
-292.817 -638.093 0.
-392.846 -807.433 0.
-386.03 -793.497 0.
-378.055 -775.889 0.
-448.95 -887.02 0.
-404.984 -881.474 0.
-395.472 -851.87 0.
-384.402 -933.109 0.
-374.354 -908.69 0.
-335.811 -789.324 0.
-606.174 -880.04 0.
-624.961 -928.082 0.
-449.65 -888.381 0.
-451.956 -894.368 0.
-458.122 -906.854 0.
-368.886 -810.732 0.
-372.805 -818.497 0.
-378.805 -822.775 0.
-254.347 -575.682 0.
-328.357 -793.209 0.
-417.443 -1004.55 0.
-381.364 -929.208 0.
-537.511 -1317.68 0.
-38.8307 -89.1046 0.
-66.4165 -134.562 0.
-558.239 -1481.48 0.
-39.7973 -95.6187 0.
-40.2712 -92.7006 0.
-454.731 -1032.76 0.
-107.609 -170.769 0.
-38.1505 -91.6704 0.
-32.991 -76.7902 0.
-1.22658e-05 -0.496163 0.
-216.17 -582.051 0.
0.326984 0.74524 0.
0.00677579 0.0378353 0.
-0.115809 -0.452793 0.
-0.00023071 -1.2869 0.
-360.613 -998.723 0.
-34.8872 -95.1954 0.
-41.3313 -114.307 0.
-2282.22 -6065.73 0.
-0.000384825 -10.1422 0.
-1571.49 -4021.75 0.
-0.0142326 -18.7515 0.
-277.558 -736.479 0.
-0.0468024 -25.4509 0.
-25.2998 -70.0662 0.
-297.805 -824.722 0.
4.08048 11.3022 0.
-636.853 -1736.77 0.
4.4652 12.3646 0.
9.80477 27.1536 0.
-565.4 -1561.25 0.
4.66512 12.8842 0.
-595.815 -1621.07 0.
22.6205 62.2453 0.
-10.3787 -23.5644 0.
24.3051 63.9304 0.
56.6885 156.206 0.
-0.00134504 -24.0362 0.
7.27428 20.1428 0.
-179.26 -495.272 0.
10.1738 28.0992 0.
-26.9978 -74.2469 0.
-259.675 -717.176 0.
-771.852 -2108.94 0.
-0.410964 -54.1917 0.
17.1604 47.5133 0.
20.8757 57.1358 0.
-0.0276846 -48.1461 0.
-270.836 -732.913 0.
2.23262 6.1739 0.
-1077.03 -2885.88 0.
2.82844 7.83419 0.
-209.501 -492.455 0.
3.80101 9.79285 0.
-104.488 -282.953 0.
-16.5924 -45.5814 0.
-0.0478791 -0.463656 0.
0.178105 0.493318 0.
0.177412 0.485966 0.
0.0946192 0.186492 0.
0.0352616 0.304396 0.
-25.9706 -36.3656 0.
-85.0872 -77.2982 0.
-25.1299 -9.50393 0.
-4.64711 -4.15424 0.
-14.5333 -6.40709 0.
-55.3571 -25.8126 0.
-23.7675 -11.7255 0.
-21.5365 -12.5319 0.
-29.7721 -22.6133 0.
-154.989 -241.415 0.
-42.4508 -27.8983 0.
-49.2803 -39.4154 0.
-193.963 -289.334 0.
-123.048 -112.612 0.
-188.067 -273.214 0.
-97.5636 -91.5928 0.
-56.1655 -43.8624 0.
-155.415 -191.733 0.
-211.149 -363.168 0.
-130.81 -138.436 0.
-152.774 -199.457 0.
-144.846 -187.868 0.
-207.771 -333.018 0.
-172.053 -288.417 0.
-154.952 -242.123 0.
-20.1039 -8.72733 0.
-186.888 -100.387 0.
-295.195 -280.219 0.
-39.7443 -70.6096 0.
-201.936 -225.679 0.
-89.3117 -92.1102 0.
-72.1338 -76.7397 0.
-224.292 -340.223 0.
-153.25 -171.713 0.
-80.7675 -100.244 0.
-156.145 -254.443 0.
-158.213 -255.741 0.
-55.7068 -122.651 0.
-227.995 -496.97 0.
-37.9765 -92.3395 0.
-32.7143 -71.7406 0.
-84.615 -165.176 0.
-55.9174 -91.0935 0.
-57.2771 -87.3328 0.
-68.5247 -113.031 0.
-223.891 -216.01 0.
-97.8121 -144.067 0.
-41.1027 -87.8219 0.
-2.81895e-05 -0.798802 0.
-38.285 -101.3 0.
0.028933 0.465878 0.
-0.047993 -0.406834 0.
0.465577 0.917195 0.
0.0121654 1.01519 0.
-0.00874205 -4.01019 0.
-9.72009 -26.7406 0.
-16.1952 -44.8576 0.
-22.487 -61.8525 0.
-0.000620858 -4.16158 0.
-14.5985 -38.0501 0.
-867.236 -2376.71 0.
-178.167 -480.57 0.
3.88664 10.7362 0.
10.6801 28.7937 0.
-404.036 -1118.98 0.
19.5054 54.0265 0.
-1519.69 -4154.24 0.
-15.1585 -41.9515 0.
20.0632 55.5713 0.
-490.221 -1353.83 0.
24.4539 67.6727 0.
-1249.74 -3399.46 0.
33.7716 93.0271 0.
-1.35717 -86.5882 0.
-6.94712 -16.3079 0.
-0.0262909 -47.8686 0.
44.5932 123.003 0.
43.2884 119.884 0.
-273.882 -752.234 0.
24.3799 67.2707 0.
-29.6347 -81.4843 0.
-312.578 -853.403 0.
29.6818 80.9914 0.
25.5658 69.1691 0.
-862.181 -2380.86 0.
0.886203 2.41805 0.
16.0982 44.5852 0.
-0.0238785 -53.2269 0.
-249.517 -690.751 0.
-8.85183 -24.1297 0.
9.97228 27.61 0.
-147.503 -365.465 0.
-0.131452 -9.80952 0.
-57.9604 -160.491 0.
-1312.79 -3433.15 0.
0.592972 2.70216 0.
-2202.63 -4456.01 0.
1.0516 2.4741 0.
-1597.12 -3344.16 0.
-211.958 -426.831 0.
0.26357 0.594852 0.
-2208.73 -5788.46 0.
-28.1277 -59.3848 0.
-1880.09 -4100.27 0.
-351.735 -471.227 0.
-90.3358 -106.273 0.
-1901.41 -4822.89 0.
-262.699 -620.774 0.
-32.9944 -27.0416 0.
-1258.47 -3141.19 0.
-509.687 -1205.98 0.
-58.5711 -71.5338 0.
-955.554 -2302.44 0.
-629.489 -1507.38 0.
-619.227 -1529.97 0.
-440.92 -1119.25 0.
-277.843 -711.229 0.
-426.952 -1016.89 0.
-357.096 -831.343 0.
-289.996 -647.897 0.
-369.176 -795.073 0.
-353.866 -757.718 0.
-341.277 -721.059 0.
-392.547 -781.457 0.
-441.451 -865.724 0.
-275.758 -672.287 0.
-508.172 -855.956 0.
-481.558 -774.53 0.
-342.033 -733.854 0.
-361.07 -789.68 0.
-383.092 -850.547 0.
-308.453 -687.524 0.
-418.626 -991.418 0.
-538.121 -1291.04 0.
-306.923 -748.261 0.
-510.176 -1275.98 0.
-728.777 -1791.38 0.
-570.416 -1473.39 0.
-1016.42 -2582.24 0.
-35.3087 -86.8263 0.
-445.15 -1137.39 0.
-1429.55 -3652.13 0.
-83.4867 -154.837 0.
-159.062 -202.186 0.
-2128.76 -5600.04 0.
-121.823 -217.93 0.
-70.2535 -155.05 0.
-1794.89 -3646.6 0.
-16.8691 -45.5467 0.
-2341.47 -6346.75 0.
0.721729 1.71823 0.
-38.3281 -88.662 0.
-2138.93 -4278.64 0.
1.38111 3.8095 0.
-1948.49 -5266.77 0.
-1.79124 -4.61371 0.
0.833772 2.30264 0.
9.06333 23.0575 0.
7.14743 19.77 0.
7.13108 19.4162 0.
-647.84 -1792.77 0.
-226.46 -627.25 0.
12.6484 34.9806 0.
3.07272 8.23621 0.
-475.996 -1317.02 0.
10.4217 28.865 0.
20.5624 56.0422 0.
-55.8985 -154.55 0.
-182.379 -498.611 0.
1.25639 3.47035 0.
14.0176 38.7975 0.
-1055.94 -2876.34 0.
9.84191 27.1093 0.
-1.97579 -117.552 0.
-865.006 -2203.24 0.
0.157122 24.5638 0.
-0.532825 -84.9567 0.
35.9417 99.5419 0.
-0.110089 -117.141 0.
-9.27593 -25.5721 0.
-515.828 -1417.79 0.
-545.258 -1487.15 0.
35.5296 96.8469 0.
-1.0152 -80.6805 0.
-874.385 -2411.56 0.
-2.7188 -7.39412 0.
-3.49874 -9.6879 0.
-183.132 -507.233 0.
-447.233 -1238.17 0.
-0.53346 -38.8029 0.
-0.00778197 -12.8495 0.
-1449.76 -3375.94 0.
-93.2039 -223.554 0.
-0.229349 -4.87672 0.
-211.521 -531.959 0.
0.309093 4.67896 0.
3.11028 5.29113 0.
-0.0463006 -0.601136 0.
-10.2516 -28.392 0.
-0.149362 -0.379708 0.
-0.136771 -0.8831 0.
-60.8341 -123.867 0.
-38.4541 -62.6466 0.
-46.9433 -86.1831 0.
-28.132 -38.4848 0.
-29.2088 -22.8011 0.
-136.834 -329.763 0.
-23.7955 -21.38 0.
-19.7373 -18.7519 0.
-520.449 -1218.88 0.
-49.121 -42.1706 0.
-60.5241 -62.9757 0.
-574.508 -1384.37 0.
-257.788 -551.765 0.
-425.023 -1020.7 0.
-259.782 -599.673 0.
-127.215 -249.053 0.
-381.884 -858.983 0.
-315.692 -671.677 0.
-251.433 -482.847 0.
-334.284 -679.703 0.
-320.413 -639.761 0.
-318.561 -588.059 0.
-375.245 -769.342 0.
-418.339 -859.906 0.
-132.628 -327.101 0.
-480.137 -818.829 0.
-455.848 -737.844 0.
-307.054 -628.033 0.
-329.385 -683.188 0.
-353.705 -745.727 0.
-212.727 -402.853 0.
-316.73 -714.461 0.
-426.365 -1023.32 0.
-78.9919 -137.323 0.
-248.966 -579.46 0.
-452.36 -1111.98 0.
-137.316 -251.966 0.
-573.419 -1429.74 0.
-26.4689 -62.1295 0.
-22.9749 -52.6444 0.
-372.235 -907.956 0.
-67.3336 -105.808 0.
-70.955 -116.578 0.
-125.908 -221.486 0.
-182.674 -319.647 0.
-20.6126 -56.2915 0.
-30.4894 -84.3955 0.
6.72075e-05 0.0504948 0.
-324.391 -891.617 0.
-0.0903656 -1.78095 0.
0.426362 1.01088 0.
0.0303858 0.0692086 0.
-0.0107319 -1.86298 0.
2.31875 6.42204 0.
1.89275 5.12832 0.
-1884.56 -4546.25 0.
-0.0116757 -8.879 0.
-1150.55 -3159.32 0.
-0.097464 -5.41741 0.
-466.792 -1291.9 0.
7.18178 19.8906 0.
-891.366 -2439.48 0.
14.2813 38.0685 0.
-475.363 -1312.96 0.
-15.3752 -42.5732 0.
4.485 12.1775 0.
-590.323 -1629.68 0.
-90.4075 -247.288 0.
-249.177 -688.467 0.
-88.2379 -244.248 0.
42.2094 116.885 0.
-6.78842 -18.6779 0.
25.8451 68.5812 0.
15.8248 42.7765 0.
-0.0239867 -1.05172 0.
5.86661 15.7047 0.
11.1547 30.893 0.
24.8959 68.8537 0.
20.1703 55.5603 0.
-13.1341 -36.0771 0.
-1008.88 -2748.41 0.
10.3879 28.2829 0.
-65.5342 -174.79 0.
-10.9164 -28.3291 0.
23.8533 64.6404 0.
-370.802 -1026.59 0.
-68.4347 -189.55 0.
-656.56 -1811.64 0.
-0.640497 -33.5858 0.
-1019.52 -2820.94 0.
-0.0335558 -15.4219 0.
-1.56445 -4.06897 0.
-0.165847 -15.6069 0.
4.88334 12.1986 0.
0.309641 1.82356 0.
-1.18974 -5.30659 0.
-0.223063 -2.89272 0.
-0.812602 -2.14231 0.
-1082.14 -2399.22 0.
-0.00583075 -1.0427 0.
-1868.37 -5137.08 0.
-23.7062 -22.2604 0.
-1865.07 -3113.89 0.
-45.3356 -39.6524 0.
-63.3961 -87.0458 0.
-1991.78 -5325.09 0.
-46.0485 -96.301 0.
-28.852 -49.2369 0.
-1481.68 -3656.33 0.
-338.094 -762.196 0.
-33.8103 -35.3831 0.
-1065.55 -2643.21 0.
-540.501 -1292.02 0.
-746.089 -1767.1 0.
-474.157 -1107.89 0.
-219.15 -449.467 0.
-531.96 -1242.06 0.
-396.082 -912.468 0.
-269.136 -579.23 0.
-405.122 -830.579 0.
-365.19 -726.291 0.
-329.161 -630.191 0.
-412.55 -830.308 0.
-386.037 -770.83 0.
-374.368 -535.029 0.
-421.644 -668.048 0.
-447.544 -735.061 0.
-319.844 -639.453 0.
-388.425 -826.006 0.
-466.036 -1026.58 0.
-265.702 -590.973 0.
-444.33 -1077.52 0.
-638.55 -1556.48 0.
-184.102 -414.548 0.
-476.759 -1184.3 0.
-787.122 -1942.83 0.
-477.218 -1161.04 0.
-1196.64 -2998.31 0.
-21.9183 -48.5953 0.
-142.867 -373.614 0.
-1608.1 -4202.14 0.
-86.5739 -153.59 0.
-26.547 -29.8875 0.
-1587.58 -4109.14 0.
-174.888 -408.216 0.
-1703.45 -3418.37 0.
-76.4759 -206.182 0.
-80.4681 -221.681 0.
-1251.44 -3373.65 0.
-270.085 -642.038 0.
0.519122 1.27179 0.
-0.206805 -0.487802 0.
-0.0712777 -6.56943 0.
-0.00329224 -5.1354 0.
2.44436 6.7298 0.
2.80969 7.06545 0.
-0.00756566 -23.3978 0.
-741.12 -2049.46 0.
9.80506 26.7191 0.
-613.315 -1687.28 0.
17.6113 48.7612 0.
-398.91 -1090.99 0.
-234.885 -648.257 0.
-1.18285 -84.9249 0.
-180.443 -498.917 0.
14.3861 38.9451 0.
-562.908 -1550.91 0.
-30.6811 -83.9656 0.
6.25726 17.2621 0.
-811.603 -2246.9 0.
28.3126 78.4099 0.
-740.32 -2030.04 0.
30.7281 81.2196 0.
44.8256 120.663 0.
24.3729 59.215 0.
-3.32587 -126.763 0.
0.38341 1.04961 0.
13.2213 36.5925 0.
-1.3682 -3.76596 0.
-1.51833 -89.1117 0.
-1.24015 -90.7495 0.
11.4461 31.1276 0.
-153.344 -407.875 0.
35.1148 90.8361 0.
-7.67427 -20.7205 0.
-446.159 -1235.21 0.
-55.8956 -154.82 0.
-680.705 -1868.04 0.
-0.743526 -50.8671 0.
-600.011 -1661.86 0.
-0.0727319 -13.4447 0.
-0.989162 -2.68207 0.
-0.00244358 -19.5866 0.
-680.698 -1877.64 0.
-155.911 -431.337 0.
-2284.08 -5267.82 0.
-26.4079 -63.3314 0.
-889.391 -2022.92 0.
-0.142535 -1.61189 0.
-0.00193669 -0.478494 0.
-48.768 -110.4 0.
0.0368807 0.0455142 0.
-0.0482617 -0.0212556 0.
0.453541 0.39876 0.
-20.6038 -27.4521 0.
-231.094 -618.263 0.
-30.6436 -66.2057 0.
-23.0403 -44.3574 0.
-242.155 -570.671 0.
-32.9539 -36.1527 0.
-17.529 -26.3207 0.
-507.475 -1224.05 0.
-55.2275 -53.2069 0.
-423.119 -1013.8 0.
-161.562 -323.286 0.
-25.9785 -43.681 0.
-343.5 -866.999 0.
-217.416 -532.674 0.
-120.465 -264.469 0.
-326.433 -690.004 0.
-289.882 -600.575 0.
-267.416 -537.179 0.
-402.247 -814.854 0.
-382.115 -759.698 0.
-358.966 -662.559 0.
-337.275 -667.986 0.
-354.172 -715.056 0.
-238.465 -466.141 0.
-298.571 -653.467 0.
-369.713 -848.01 0.
-104.335 -172.009 0.
-230.173 -522.788 0.
-412.679 -1008.38 0.
-23.549 -64.4205 0.
-86.3231 -167.557 0.
-377.2 -944.562 0.
-42.4868 -67.2999 0.
-516.252 -1220.18 0.
-27.0884 -64.3788 0.
-28.3937 -67.2699 0.
-121.008 -329.092 0.
-15.9428 -41.9459 0.
-3.96341 -8.88752 0.
-2.2244 -5.22365 0.
-0.0789377 -0.340814 0.
-512.524 -1398.98 0.
-0.0645825 -2.54901 0.
0.717052 1.93692 0.
-0.0047685 -1.45962 0.
1.79955 4.91847 0.
-2689.05 -6701.61 0.
-0.00751471 -5.22366 0.
0.373078 1.00793 0.
-1915.4 -4898.37 0.
-0.0474262 -8.35608 0.
1.0478 2.7324 0.
4.98628 13.6744 0.
-276.959 -767.075 0.
-0.241028 -34.339 0.
-613.499 -1692.74 0.
9.54854 26.4259 0.
8.89613 24.3421 0.
-391.536 -1077.78 0.
-1.63585 -96.306 0.
-986.045 -2718.97 0.
7.80966 21.136 0.
-421.678 -1156.02 0.
-503.787 -1380.03 0.
-0.206922 -97.8087 0.
-757.652 -2084.2 0.
28.0839 77.7842 0.
-6.54361 -18.0868 0.
43.7024 114.973 0.
-252.335 -676.297 0.
-1904.85 -4855.18 0.
41.0221 110.622 0.
4.87638 13.3924 0.
-325.023 -900.098 0.
-43.3089 -119.134 0.
-1.80725 -101.394 0.
38.9626 104.311 0.
-21.2205 -57.3394 0.
-452.388 -1199.42 0.
32.5229 83.84 0.
24.5993 67.3722 0.
11.0353 29.7217 0.
-196.156 -543.309 0.
-233.503 -620.999 0.
-4.71407 -12.5735 0.
-328.82 -909.39 0.
-0.156219 -16.8413 0.
-0.0222317 -16.2947 0.
-204.893 -567.519 0.
-583.314 -1613.37 0.
-132.343 -365.097 0.
-228.761 -582.119 0.
3.16929 8.43167 0.
-0.0001411 -0.785853 0.
0.0838231 1.38683 0.
0.0556709 2.38716 0.
-21.5761 -55.2783 0.
0.442665 0.281603 0.
0.278211 0.347029 0.
0.435855 0.391103 0.
-20.16 -24.1651 0.
-43.5805 -112.266 0.
-20.9875 -44.2304 0.
-18.2958 -39.1509 0.
-46.2436 -61.7179 0.
-35.8799 -35.5268 0.
-17.5299 -26.6981 0.
-55.5901 -48.8096 0.
-52.9863 -45.8309 0.
-85.1967 -116.018 0.
-35.7177 -60.5449 0.
-29.4523 -44.4243 0.
-116.56 -306.016 0.
-32.8145 -69.298 0.
-10.0685 -25.4906 0.
-185.765 -248.982 0.
-204.091 -285.354 0.
-160.783 -179.91 0.
-215.177 -155.316 0.
-215.829 -181.185 0.
-83.2512 -74.3161 0.
-66.6016 -85.1058 0.
-236.082 -414.537 0.
-104.216 -107.638 0.
-207.047 -351.344 0.
-208.329 -366.506 0.
-60.3349 -107.852 0.
-52.5327 -92.4249 0.
-161.002 -324.264 0.
-26.3699 -60.3804 0.
-19.8302 -44.1068 0.
-29.7719 -72.934 0.
-69.6571 -77.093 0.
-108.778 -126.566 0.
-43.5683 -76.8496 0.
-47.2937 -74.8095 0.
-73.19 -147.086 0.
-12.6299 -33.7276 0.
0.141395 0.655002 0.
0.0164596 0.258724 0.
0.32905 0.599052 0.
-113.45 -272.414 0.
-0.0941548 -2.36488 0.
0.397853 1.05097 0.
0.75963 2.05915 0.
3.61194e-05 1.939 0.
-0.0484918 -2.29275 0.
3.00432 8.31049 0.
0.818199 2.22761 0.
2.4098 6.37095 0.
2.35077 6.50341 0.
-1783.69 -4842.18 0.
1.11598 3.01365 0.
-421.328 -1162.31 0.
-3.76465 -10.2492 0.
-0.913461 -2.5217 0.
-613.855 -1696.6 0.
-0.639248 -26.5577 0.
-598.087 -1641.02 0.
29.4202 79.6324 0.
-551.292 -1514.98 0.
-23.6398 -63.9792 0.
37.2129 98.8096 0.
-354.976 -972.875 0.
1.34143 3.69267 0.
34.4321 95.1709 0.
-104.67 -289.918 0.
35.2357 97.4956 0.
-2.76151 -136.769 0.
-0.273506 -61.82 0.
9.84332 26.7539 0.
33.1269 88.5394 0.
-17.6616 -48.6593 0.
-268.952 -744.941 0.
-1.7307 -110.145 0.
-11.7574 -31.1831 0.
6.76032 18.0684 0.
9.95106 26.8909 0.
-594.144 -1568.92 0.
-2.68306 -89.5985 0.
-154.716 -422.875 0.
6.40568 17.2015 0.
-109.361 -302.905 0.
-526.429 -1394.87 0.
-6.09311 -16.1987 0.
-418.512 -1153.15 0.
0.659744 1.79188 0.
-913.472 -2497.32 0.
-75.4694 -208.835 0.
-630.368 -1744.55 0.
-123.291 -334.544 0.
-150.106 -403.325 0.
-0.0127505 -8.26376 0.
-23.0771 -62.8072 0.
-1968.87 -5333.89 0.
-0.0786301 -3.05102 0.
-1649.12 -2860.09 0.
-126.691 -250.326 0.
-54.01 -125.07 0.
-2197.47 -5045.85 0.
0.479341 0.837183 0.
-1433.56 -3739.92 0.
-38.7311 -104.634 0.
0.215922 0.0430727 0.
-1645.08 -4274.86 0.
-24.4582 -34.3867 0.
-22.6604 -26.3019 0.
-1323.02 -3332.05 0.
-260.328 -570.313 0.
-876.201 -2101.03 0.
-449.916 -1036.14 0.
-126.913 -215.939 0.
-667.971 -1770.64 0.
-393.741 -1052.88 0.
-139.234 -352.282 0.
-487.071 -1184.2 0.
-346.484 -806.438 0.
-221.948 -459.674 0.
-455.779 -927.753 0.
-433.738 -863.23 0.
-218.168 -564.968 0.
-324.583 -786.148 0.
-384.694 -940.16 0.
-237.013 -479.748 0.
-402.807 -959.064 0.
-601.94 -1505.9 0.
-108.311 -191.988 0.
-453.889 -1147.25 0.
-815.338 -2086.22 0.
-88.4362 -160.065 0.
-467.886 -1104.91 0.
-988.309 -2361.4 0.
-165.934 -248.158 0.
-1419.93 -3634.56 0.
-17.8075 -24.9881 0.
-46.2361 -66.0563 0.
-1712.17 -4483.29 0.
-29.4339 -80.9137 0.
-36.8757 -101.908 0.
-1854.39 -3930.28 0.
-0.0641036 -1.53054 0.
-1919.76 -4824.37 0.
0.698534 1.84603 0.
0.859809 2.09272 0.
-2157.39 -4773.07 0.
-0.0115354 -5.42885 0.
-1214.61 -3317.83 0.
-0.000864498 -6.82382 0.
-0.045549 -9.32404 0.
-0.0223323 -1.77523 0.
3.51003 9.70997 0.
-52.1161 -143.578 0.
10.6094 29.0978 0.
-910.042 -2520.51 0.
11.1372 30.3036 0.
-0.117504 -31.7018 0.
-441.061 -1221.62 0.
0.047308 0.123506 0.
-668.019 -1825.73 0.
-0.992638 -77.3779 0.
4.55826 12.0998 0.
-538.107 -1457.14 0.
5.66757 15.0359 0.
-39.9122 -109.431 0.
-48.2725 -132.747 0.
-16.6296 -45.9545 0.
38.5375 106.725 0.
-515.275 -1427 0.
44.4965 116.805 0.
-4.27319 -11.6952 0.
-0.878377 -73.9533 0.
-9.13544 -24.1539 0.
-85.5521 -236.346 0.
-6.115 -16.855 0.
9.08067 24.2863 0.
26.9383 71.3202 0.
33.5889 88.072 0.
-216.76 -585.817 0.
-295.857 -777.623 0.
33.5372 86.1081 0.
-625.976 -1706.62 0.
24.8392 66.4796 0.
-290.583 -795.464 0.
-1.01944 -57.6704 0.
5.59477 14.8238 0.
-840.677 -2294.31 0.
3.62914 9.77056 0.
-477.88 -1301.17 0.
-4.83878 -13.3664 0.
-693.828 -1907.48 0.
-73.6361 -201.971 0.
-1516.27 -4078.62 0.
-43.47 -116.941 0.
0.545814 1.49242 0.
-7.37819 -19.8693 0.
2.02544 5.61011 0.
1.0444 1.96399 0.
-0.440858 -0.929875 0.
-10.5297 -24.6065 0.
0.267754 0.703035 0.
0.00381915 1.54836 0.
-84.4982 -232.565 0.
-20.3678 -54.869 0.
0.925243 0.510089 0.
-24.4793 -36.6687 0.
-14.1779 -15.0935 0.
-13.3584 -15.592 0.
-419.925 -991.017 0.
-32.7923 -17.3594 0.
-354.782 -780.67 0.
-16.0709 -20.4367 0.
-22.5872 -37.6707 0.
-385.92 -976.153 0.
-134.081 -293.278 0.
-10.9542 -14.1207 0.
-360.688 -889.183 0.
-249.163 -576.326 0.
-140.062 -265.126 0.
-443.957 -850.46 0.
-423.071 -790.951 0.
-97.9185 -180.756 0.
-277.506 -676.925 0.
-315.292 -782.994 0.
-118.561 -165.507 0.
-263.755 -572.217 0.
-431.135 -1057.24 0.
-33.3317 -68.6602 0.
-77.4236 -135.133 0.
-415.27 -1056.24 0.
-26.6874 -47.9348 0.
-28.8531 -47.4715 0.
-343.455 -719.844 0.
-90.216 -76.7996 0.
-357.324 -768.183 0.
-35.0847 -26.7526 0.
-42.9393 -43.1747 0.
-94.0503 -181.888 0.
-5.07376 -13.9483 0.
-21.0868 -52.8247 0.
-53.9266 -143.882 0.
1.04691 2.69897 0.
1.03309 2.86042 0.
0.0163826 0.754565 0.
1.35153 3.31391 0.
0.0341741 0.327645 0.
0.00362268 0.944498 0.
-12.7946 -35.4388 0.
3.08258 8.5275 0.
-1613.39 -4229.11 0.
7.67479 21.2572 0.
2.04129 5.60484 0.
2.94785 7.77839 0.
-0.14295 -34.4585 0.
-0.21842 -24.2281 0.
-913.319 -2514.06 0.
-0.185979 -27.25 0.
-427.668 -1183.56 0.
-16.2465 -42.299 0.
25.0822 68.2188 0.
-13.2787 -35.3836 0.
-15.6448 -41.172 0.
-432.103 -1171.15 0.
-17.9975 -47.7249 0.
-10.9677 -28.538 0.
-818.134 -2246.99 0.
-11.2116 -30.9804 0.
-2.75333 -7.51854 0.
-615.844 -1705.73 0.
-505.771 -1394.73 0.
-841.888 -2303.31 0.
22.5067 59.916 0.
2.84611 7.65502 0.
-0.506451 -74.7355 0.
-25.2948 -69.8331 0.
-432.172 -1158.98 0.
36.8468 94.2226 0.
19.1412 50.0984 0.
-989.86 -2676.81 0.
-3.25864 -8.16336 0.
-13.4332 -34.2388 0.
-471.504 -1281.54 0.
15.0097 39.1092 0.
-514.261 -1398.29 0.
-3.44349 -9.04816 0.
-491.665 -1311.32 0.
-1.27113 -43.4314 0.
10.5908 28.2359 0.
-362.429 -981.755 0.
8.01276 22.0958 0.
-949.298 -2627.52 0.
8.72532 23.8889 0.
-0.26307 -14.457 0.
-0.224515 -0.606932 0.
-0.0515201 -14.2601 0.
2.37946 6.58558 0.
-0.0476185 -4.47267 0.
-0.372881 -1.98163 0.
-0.3733 -3.00022 0.
-111.476 -294.03 0.
-1503.16 -4163.11 0.
-0.02046 -2.044 0.
-1571.61 -2815.27 0.
-29.7248 -77.5376 0.
-14.1727 -38.7078 0.
-1632.55 -4299.52 0.
-30.4352 -67.9464 0.
0.348968 0.131936 0.
-1356.03 -3522.07 0.
-45.7121 -51.2723 0.
-985.823 -2301.11 0.
-427.251 -942.1 0.
-17.2178 -33.9389 0.
-838.416 -2136.18 0.
-401.932 -991.623 0.
-7.63861 -9.84966 0.
-557.594 -1442.52 0.
-328.975 -835.324 0.
-117.471 -247.62 0.
-504.274 -1032.81 0.
-461.134 -931.635 0.
-170.21 -303.404 0.
-343.106 -882.503 0.
-443.899 -1146.4 0.
-109.635 -185.572 0.
-373.089 -912.882 0.
-670.602 -1705.96 0.
-11.8113 -21.4636 0.
-377.644 -977.951 0.
-949.535 -2474.5 0.
-28.9874 -34.7414 0.
-408.87 -889.417 0.
-1049.49 -2411.89 0.
-77.5722 -68.4926 0.
-1511.01 -3796.51 0.
-15.8433 -24.2574 0.
-53.569 -99.5613 0.
-1671.2 -4398.74 0.
-180.192 -386.397 0.
-142.705 -281.041 0.
-1511.14 -2666.91 0.
-0.00521938 -1.77307 0.
-1767.25 -4875.32 0.
-79.621 -209.743 0.
-0.154098 -2.94587 0.
1.56735 3.55713 0.
-0.253421 -11.3453 0.
-0.984435 -2.69177 0.
-0.00220049 -3.1564 0.
-0.443445 -18.7797 0.
6.94077 19.0938 0.
-1367.6 -3781.46 0.
-0.547053 -27.731 0.
-0.109976 -26.1273 0.
1.85181 4.96318 0.
-611.516 -1672.65 0.
7.63239 20.6257 0.
-455.442 -1256.59 0.
-51.0831 -132.638 0.
-15.1977 -38.8817 0.
-690.952 -1823.45 0.
24.9131 65.8843 0.
-16.688 -43.6153 0.
-772.803 -2049.72 0.
29.788 77.4929 0.
-2.16498 -85.1531 0.
-1081.64 -2987.73 0.
29.295 80.0002 0.
-20.8265 -56.9178 0.
-5.29343 -14.0969 0.
24.805 67.5519 0.
-0.336137 -81.0831 0.
-1.09233 -79.4432 0.
31.474 86.0775 0.
-64.2929 -177.753 0.
7.45556 20.0303 0.
35.1124 89.6145 0.
-321.095 -839.575 0.
22.7823 61.6329 0.
-8.56541 -22.6823 0.
-549.693 -1388.78 0.
-2.62252 -81.3106 0.
2.22011 5.76905 0.
-759.693 -2049.14 0.
-1.6891 -60.0357 0.
-386.951 -1022.14 0.
-4.7058 -12.033 0.
-1.82647 -4.81772 0.
-182.771 -486.353 0.
-629.277 -1735.74 0.
3.53261 9.74126 0.
5.02473 13.7272 0.
10.6791 28.2813 0.
-0.961414 -2.61466 0.
3.68427 9.76564 0.
-1142.55 -3146.72 0.
-0.216225 -0.595662 0.
-1370.67 -3015.3 0.
-0.684203 -1.74673 0.
0.000463202 1.33498 0.
-134.418 -361.703 0.
0.568034 1.5005 0.
-7.08809 -13.676 0.
-0.995428 -2.17365 0.
-0.0415878 -0.106065 0.
-46.3737 -126.195 0.
-10.0863 -21.9754 0.
0.277665 0.431495 0.
-244.697 -551.418 0.
-13.9133 -13.3488 0.
-247.576 -496.974 0.
-11.6614 -12.5958 0.
-18.373 -33.6523 0.
-363.167 -897.132 0.
-12.2755 -26.1049 0.
-10.1603 -19.1845 0.
-326.86 -833.206 0.
-107.221 -218.293 0.
-19.5786 -33.1411 0.
-339.434 -698.782 0.
-297.905 -590.614 0.
-30.746 -46.0333 0.
-166.862 -381.975 0.
-265.688 -648.518 0.
-41.1587 -50.9126 0.
-87.2998 -135.13 0.
-374.138 -930.429 0.
-11.625 -23.2933 0.
-9.51887 -19.3535 0.
-350.59 -909.245 0.
-20.3445 -24.9806 0.
-32.0632 -33.2166 0.
-187.049 -367.597 0.
-18.3598 -23.3644 0.
-17.0917 -18.0998 0.
-0.213738 -0.502758 0.
-8.49421 -22.7771 0.
-85.2868 -229.426 0.
-12.2599 -33.3649 0.
-7.51348 -20.2495 0.
-24.1338 -64.4056 0.
1.30978 3.54737 0.
-0.000165279 -3.69062 0.
1.96413 5.0873 0.
2.26896 5.23565 0.
-1563.3 -3750.58 0.
0.00114314 2.0967 0.
-1369.25 -3687.51 0.
-0.0219974 -26.0951 0.
-0.28767 -14.3804 0.
-0.184766 -18.115 0.
-94.9837 -262.886 0.
12.1549 33.297 0.
-568.035 -1563.6 0.
-0.510255 -26.3973 0.
-386.764 -1049.54 0.
13.2079 35.4829 0.
12.4267 34.124 0.
-452.179 -1171.39 0.
-57.6734 -147.138 0.
-3.93074 -69.4235 0.
-508.681 -1347.05 0.
29.9691 78.4173 0.
24.6091 65.2493 0.
6.16659 16.0441 0.
10.0124 26.1124 0.
31.6928 85.3717 0.
-337.157 -920.727 0.
-72.033 -198.045 0.
10.3926 27.9905 0.
-0.0221276 -59.2059 0.
-0.381083 -80.3918 0.
7.32994 19.5905 0.
-385.8 -1058.71 0.
5.60935 14.8913 0.
-2.65505 -89.9147 0.
7.01896 17.8868 0.
-28.4549 -74.2653 0.
34.9573 90.6363 0.
-48.8296 -129.327 0.
-909.525 -2276.93 0.
-2.22368 -5.70414 0.
-49.8621 -129.208 0.
-139.195 -371.805 0.
-10.4299 -27.2568 0.
-309.564 -809.221 0.
3.22427 8.13751 0.
-235.916 -631.853 0.
-94.6459 -252.326 0.
-384.847 -1065.95 0.
14.6299 39.7711 0.
1.84351 5.02616 0.
5.67873 15.7079 0.
-1182.81 -3143.26 0.
-0.143728 -19.7216 0.
-9.04875 -24.7856 0.
0.636284 1.76104 0.
1.31646 3.33249 0.
-0.0515579 -8.30911 0.
-0.0634821 -6.43051 0.
-186.614 -471.669 0.
0.655549 1.67952 0.
-0.0996068 -0.88846 0.
-0.0345186 -0.618858 0.
-0.00587294 -0.542546 0.
-29.5876 -81.9461 0.
-2.72225 -7.37196 0.
0.592129 0.132858 0.
-15.369 -30.4602 0.
-13.367 -32.754 0.
-18.9096 -14.2126 0.
-17.0826 -9.70184 0.
-24.3235 -28.9927 0.
-19.4999 -40.992 0.
-17.7352 -33.7752 0.
-15.0721 -27.3688 0.
-130.402 -224.27 0.
-22.0083 -24.4959 0.
-33.1556 -41.3853 0.
-106.306 -164.923 0.
-97.5544 -141.179 0.
-53.1786 -61.5872 0.
-76.6089 -64.6671 0.
-127.66 -207.063 0.
-40.5269 -51.4029 0.
-33.9151 -39.5805 0.
-100.225 -144.002 0.
-22.3936 -34.0424 0.
-20.2398 -30.2595 0.
-26.6793 -37.2762 0.
-36.3746 -30.5648 0.
-47.4057 -37.9889 0.
-62.7062 -70.1641 0.
-25.9134 -26.5109 0.
-23.4294 -20.7725 0.
0.233442 0.562983 0.
-0.012456 -0.479183 0.
-19.9411 -52.8393 0.
-1.17203 -3.21615 0.
-6.17235 -17.0714 0.
-12.313 -33.7145 0.
-0.0444512 -2.79387 0.
1.54839 4.26836 0.
-0.244944 -8.67245 0.
1.98264 4.67422 0.
0.136887 5.33896 0.
-0.00821573 -3.48365 0.
-0.00286967 -1.10207 0.
-0.0145484 -7.83527 0.
-1120.72 -3051.56 0.
-0.468696 -23.8362 0.
-0.0909424 -28.7341 0.
5.34584 14.5941 0.
-329.457 -904.256 0.
7.12959 18.5122 0.
-125.172 -336.499 0.
12.6766 33.8322 0.
-3.67839 -9.79081 0.
-290.297 -749.924 0.
-362.797 -923.72 0.
4.5127 11.057 0.
-605.696 -1605.82 0.
-222.898 -584.185 0.
16.1506 41.0181 0.
-2.42807 -90.4455 0.
-740.25 -1925.31 0.
31.2769 84.242 0.
28.6858 75.5459 0.
-597.859 -1650.78 0.
4.46231 12.1441 0.
-27.5974 -76.2302 0.
24.3549 66.58 0.
-18.4096 -49.9443 0.
4.03053 10.5757 0.
29.9982 75.1715 0.
-2.17848 -80.9174 0.
-24.2525 -61.738 0.
15.8073 38.5201 0.
-45.6195 -118.37 0.
-504.083 -1336.5 0.
-3.73698 -8.63605 0.
-81.721 -209.035 0.
-153.192 -395.816 0.
7.38499 19.1057 0.
12.9182 33.6921 0.
-325.595 -841.536 0.
-1.98111 -51.3962 0.
-126.619 -339.645 0.
5.08365 13.5771 0.
-107.212 -295.63 0.
2.14519 5.72333 0.
-1270.4 -3518.77 0.
4.9752 13.7397 0.
-23.3595 -62.9655 0.
-0.0403349 -22.7429 0.
4.24775 11.7135 0.
-0.360806 -0.999236 0.
1.31761 3.61417 0.
-1336.29 -3666.31 0.
-3.34697e-06 -1.20243 0.
-1019.32 -2347.46 0.
0.0270047 0.068134 0.
-1479.06 -3213.64 0.
0.286723 0.607045 0.
0.04563 0.109469 0.
-1561.43 -4230.77 0.
-25.9804 -69.0353 0.
-8.46782 -23.4523 0.
-1384.52 -3573.61 0.
-3.30325 -6.31923 0.
-1052.29 -2454.46 0.
-360.705 -789.569 0.
-21.2953 -35.5827 0.
-1021.47 -2651.61 0.
-266.285 -638.879 0.
-26.1211 -51.5319 0.
-734.738 -1905.84 0.
-358.136 -866.604 0.
-29.0865 -52.4549 0.
-524.306 -1331.61 0.
-419.748 -1061.07 0.
-112.274 -210.574 0.
-364.609 -908.753 0.
-583.834 -1511.72 0.
-25.0143 -39.2925 0.
-325.979 -805.075 0.
-815.067 -2104.01 0.
-10.9808 -12.2383 0.
-229.75 -599.02 0.
-1128.16 -3033.39 0.
-50.6494 -88.5555 0.
-329.234 -708.07 0.
-1031.17 -2345.72 0.
-22.4721 -44.2351 0.
-1458.81 -3750.07 0.
-23.8594 -58.9177 0.
-0.0619801 -0.59282 0.
-1265.08 -3023.07 0.
-27.4411 -59.9312 0.
-1691.82 -3628.66 0.
0.00246516 0.232429 0.
-0.000520169 -6.9319 0.
-1196.16 -3279.96 0.
-8.42537 -20.756 0.
-0.412664 -6.06835 0.
0.127273 4.50956 0.
0.0235821 5.07956 0.
5.513 15.2481 0.
-0.00713 -15.1449 0.
-196.3 -542.45 0.
4.12464 10.8988 0.
-1.30667 -3.55109 0.
6.91718 18.8114 0.
-746.44 -2042.17 0.
4.15304 10.7219 0.
-33.0818 -86.658 0.
-9.96092 -26.3923 0.
-500.485 -1322.67 0.
9.59062 23.4461 0.
-535.622 -1333.65 0.
-14.7752 -36.3148 0.
2.33025 5.94036 0.
-12.4812 -32.764 0.
-192.638 -489.228 0.
-3.38155 -67.3719 0.
-555.077 -1442.73 0.
5.98739 15.387 0.
24.8887 65.5435 0.
-1.10328 -3.01494 0.
-53.1544 -145.932 0.
-934.744 -2572.85 0.
-4.81254 -13.3256 0.
12.4392 31.6293 0.
-6.0445 -16.0322 0.
16.4084 41.4276 0.
-81.0796 -212.389 0.
20.267 47.8027 0.
-21.723 -53.272 0.
-94.4232 -245.279 0.
14.1983 35.8101 0.
-273.697 -634.296 0.
-562.189 -1432.4 0.
9.34904 22.9879 0.
-250.379 -646.638 0.
10.865 28.2835 0.
-107.418 -274.184 0.
18.3784 46.4197 0.
-688.998 -1852.11 0.
3.40919 9.12072 0.
-180.922 -493.272 0.
-1.05677 -2.86345 0.
-2.41668 -6.68671 0.
-2.19116 -6.03834 0.
-5.07154 -13.8723 0.
-0.0008423 -18.8992 0.
-1031.54 -2806.3 0.
-70.5196 -195.32 0.
-157.14 -428.72 0.
-0.488848 -1.34462 0.
3.10925 8.43184 0.
-0.125395 -0.317483 0.
0.686964 1.85496 0.
-0.00303046 -3.18402 0.
0.391052 0.907768 0.
-0.0263891 -0.745779 0.
-60.0961 -165.101 0.
-7.51555 -20.5816 0.
-2.82089 -7.80349 0.
-2.65632 -7.00467 0.
-0.011543 -0.479484 0.
-96.9755 -131.142 0.
-21.0859 -35.1019 0.
-20.8353 -34.7849 0.
-200.509 -481.696 0.
-12.4046 -33.8526 0.
-21.0615 -49.5296 0.
-308.059 -742.355 0.
-29.5377 -45.0572 0.
-33.2401 -47.7083 0.
-250.777 -599.683 0.
-171.569 -374.227 0.
-34.2693 -32.6082 0.
-84.0434 -133.216 0.
-268.53 -655.895 0.
-19.8405 -46.5554 0.
-15.8016 -22.0376 0.
-189.548 -453.143 0.
-17.7534 -19.464 0.
-23.7054 -36.3874 0.
-220.699 -587.826 0.
-35.9182 -60.6357 0.
-32.1351 -46.7876 0.
-38.2634 -48.2332 0.
-6.37564 -17.4159 0.
-51.9938 -136.643 0.
-0.0178117 -0.950706 0.
-0.0244078 -0.37083 0.
-0.0882146 -0.67936 0.
0.159612 0.425195 0.
-122.204 -306.967 0.
-0.116099 -3.98539 0.
0.500239 1.37272 0.
-2.06079 -5.70379 0.
4.14951 10.693 0.
-1213.89 -2896.11 0.
-2.29338 -6.35148 0.
-766.422 -2089.35 0.
-0.20454 -7.98607 0.
-0.146295 -23.7135 0.
-40.5755 -112.294 0.
-6.43305 -16.982 0.
-800.271 -2167.77 0.
15.5558 41.9815 0.
-266.904 -727.588 0.
-6.86443 -17.6156 0.
-375.027 -977.28 0.
-3.88929 -10.2221 0.
-631.945 -1657.52 0.
-12.5547 -30.5254 0.
7.59245 18.2319 0.
-1006.79 -2485.37 0.
5.80147 14.6526 0.
27.2389 67.5853 0.
-824.821 -2093.51 0.
-3.35404 -8.30746 0.
-1.27283 -3.09415 0.
-1.27639 -3.2777 0.
-370.899 -976.238 0.
-93.0762 -255.906 0.
27.9962 75.2817 0.
-8.8079 -24.395 0.
17.0902 47.3289 0.
22.8818 58.9926 0.
-210.304 -563.913 0.
-3.06584 -82.8421 0.
-3.61785 -68.783 0.
18.5627 44.1132 0.
-994.871 -2462.62 0.
-3.11823 -57.6135 0.
-2.74829 -63.9057 0.
-824.504 -1916.45 0.
22.1559 53.8261 0.
-6.00707 -14.6825 0.
-632.039 -1628.94 0.
-11.375 -29.5548 0.
10.1108 25.6275 0.
-2.90345 -7.29818 0.
-216.047 -581.334 0.
-1.07719 -43.8595 0.
-60.3533 -163.819 0.
-0.242315 -0.653684 0.
-5.74619 -15.8789 0.
7.21375 19.8299 0.
-982.544 -2703.22 0.
5.21369 14.4353 0.
3.51817 9.49833 0.
-0.00581482 -16.5173 0.
-0.456309 -1.25376 0.
-52.2407 -139.659 0.
-0.418963 -12.9489 0.
1.86194 4.95845 0.
-0.00076192 -0.606083 0.
-72.0395 -194.695 0.
-1325.37 -3665.8 0.
-0.017362 -1.76987 0.
-919.886 -1806.85 0.
-3.99929 -10.9154 0.
-118.918 -322.624 0.
-1287.37 -3486.81 0.
0.180191 0.475588 0.
-933.204 -2091.12 0.
-264.871 -508.333 0.
-22.7456 -46.5694 0.
-1031.12 -2802.36 0.
-113.918 -285.63 0.
-3.72402 -10.2901 0.
-844.193 -2161.81 0.
-317.2 -770.755 0.
-25.8435 -29.4343 0.
-598.816 -1541.68 0.
-478.473 -1219.26 0.
-51.7439 -51.9844 0.
-376.185 -938.163 0.
-701.912 -1848.09 0.
-9.98435 -12.4928 0.
-228.175 -599.287 0.
-929.572 -2478.59 0.
-20.9135 -36.5138 0.
-20.1484 -28.3003 0.
-952.742 -2510.49 0.
-87.9674 -169.934 0.
-1204.36 -2722.92 0.
-4.05785 -11.1255 0.
-4.03913 -10.378 0.
-1313.25 -3501.95 0.
-0.00966584 -0.252941 0.
-0.0479921 -1.25174 0.
-1268.2 -2856.58 0.
-123.144 -326.849 0.
-138.164 -376.494 0.
-0.342865 -7.2828 0.
-0.106442 -7.92235 0.
0.259938 0.717732 0.
-0.168448 -9.06199 0.
-0.672461 -15.327 0.
5.88532 16.2401 0.
-25.9754 -71.7225 0.
2.11999 5.85627 0.
-404.775 -1121.02 0.
-0.992463 -27.5898 0.
1.41037 3.71949 0.
-300.553 -812.713 0.
4.63907 12.4299 0.
-444.156 -1195.84 0.
-8.95524 -22.8397 0.
-404.966 -1049.62 0.
-4.71152 -12.1143 0.
-109.614 -263.807 0.
-141.002 -340.852 0.
8.6717 20.716 0.
-3.42937 -8.48718 0.
-389.436 -973.903 0.
-4.06552 -75.1233 0.
-11.0553 -26.0451 0.
-272.959 -676.298 0.
-153.604 -375.165 0.
34.1379 79.633 0.
-372.899 -981.805 0.
-143.781 -368.666 0.
-89.0307 -241.799 0.
1.27014 3.34296 0.
-129.493 -358.652 0.
-64.5805 -168.889 0.
-7.79895 -20.087 0.
11.3162 26.7424 0.
-9.1643 -22.6588 0.
27.8849 66.8065 0.
-16.5014 -38.1903 0.
-4.12795 -10.1024 0.
-3.18486 -71.3634 0.
-304.216 -711.36 0.
28.6589 69.2072 0.
-201.691 -489.781 0.
-336.73 -865.902 0.
16.8614 43.1906 0.
-234.111 -590.254 0.
-141.287 -353.25 0.
-11.4296 -29.8785 0.
-1.30559 -46.0517 0.
-483.717 -1307.35 0.
-0.68514 -1.83952 0.
-144.227 -398.092 0.
1.75384 4.82085 0.
-126.986 -350.986 0.
7.44469 20.6054 0.
-0.0379979 -7.26865 0.
-0.0235137 -24.7753 0.
-0.0432012 -26.6186 0.
-845.309 -2333.27 0.
-0.0825225 -12.006 0.
-981.907 -2397.8 0.
-0.015819 -4.77222 0.
0.843107 2.30088 0.
-1.34021 -3.70956 0.
1.25173 3.46441 0.
-0.00103597 -0.00277385 0.
0.516005 1.42397 0.
-0.00389585 -1.31279 0.
-13.0771 -35.5092 0.
0.177184 0.451637 0.
-12.6911 -26.387 0.
-10.845 -25.4792 0.
-20.3587 -49.7069 0.
-185.818 -504.194 0.
-7.46587 -16.9274 0.
-1.67597 -2.18073 0.
-93.201 -176.821 0.
-15.1568 -17.3502 0.
-15.8211 -24.2536 0.
-98.6767 -146.673 0.
-26.1012 -39.6666 0.
-21.8687 -24.9801 0.
-19.9624 -20.4566 0.
-89.9874 -168.488 0.
-6.77427 -7.98185 0.
-8.31031 -12.2266 0.
-67.8615 -154.663 0.
-24.4983 -40.4217 0.
-18.657 -26.4203 0.
-17.6312 -21.0881 0.
-0.556048 -0.917865 0.
-282.284 -708.895 0.
-0.117061 -0.32139 0.
0.370291 0.971312 0.
-10.8652 -26.4199 0.
0.807997 2.08172 0.
-0.0344672 -1.09293 0.
0.209163 0.538614 0.
-0.0222818 -4.78291 0.
-1214.67 -3215.66 0.
4.1346 11.4359 0.
0.959446 2.64373 0.
-1183.86 -3142.49 0.
-0.463566 -17.7668 0.
-0.331972 -10.9018 0.
-0.103226 -16.9478 0.
-9.99722 -27.69 0.
9.34581 25.6513 0.
-343.356 -949.955 0.
-96.1534 -262.728 0.
-30.6148 -83.0923 0.
-4.2805 -11.2811 0.
-70.1889 -186.522 0.
-550.284 -1364.5 0.
-2.55015 -50.8511 0.
-163.955 -417.919 0.
-152.152 -387.98 0.
25.0542 59.3008 0.
-483.927 -1162.51 0.
-498.177 -1182.42 0.
4.03506 9.46954 0.
-297.482 -735.495 0.
-2.32112 -5.63613 0.
-12.0129 -28.2143 0.
32.7768 75.3786 0.
-869.162 -2132.82 0.
-6.24363 -14.6426 0.
26.0294 62.5987 0.
6.68002 15.4096 0.
-252.772 -692.653 0.
-7.81434 -20.8618 0.
-4.03853 -11.1848 0.
0.973534 2.47036 0.
-1.52507 -53.3055 0.
-5.77566 -13.696 0.
-640.812 -1593.66 0.
1.42015 3.16182 0.
-94.0036 -217.933 0.
-483.118 -1179.94 0.
1.92056 4.79421 0.
-8.05636 -68.9339 0.
-48.8937 -117.292 0.
-294.906 -711.567 0.
-6.14642 -15.4895 0.
-10.0169 -25.4764 0.
-473.888 -1187.88 0.
10.7931 25.6191 0.
-2.49641 -6.47296 0.
6.09366 15.6684 0.
-701.3 -1882.9 0.
-8.77577 -23.3873 0.
-707.952 -1949.89 0.
10.2813 28.1805 0.
9.05441 24.645 0.
3.61068 9.95347 0.
-8.32165 -22.9157 0.
-819.623 -2229.87 0.
4.50355 12.344 0.
-0.51406 -1.42323 0.
3.75738 10.0451 0.
2.5222 6.54925 0.
-0.0090465 -3.37448 0.
2.88929 7.92754 0.
-120.222 -324.555 0.
0.354347 0.949057 0.
-0.00699357 -1.07959 0.
-0.00010122 -1.80856 0.
0.973815 2.66191 0.
0.105345 0.280455 0.
-0.0180398 -0.365411 0.
-0.11284 -1.04707 0.
-11.3731 -27.9851 0.
-45.7476 -64.1971 0.
-25.2546 -43.6061 0.
-17.9975 -26.2301 0.
-11.604 -12.5542 0.
-15.8417 -21.192 0.
-14.5369 -20.1828 0.
-15.8609 -26.4911 0.
-20.4621 -34.7703 0.
-28.682 -40.5441 0.
-24.0575 -36.2858 0.
-18.2962 -28.0861 0.
-16.5548 -25.8888 0.
-5.72671 -6.58697 0.
-9.21305 -16.211 0.
-21.8641 -41.8455 0.
-30.0229 -48.719 0.
-19.6809 -24.1358 0.
-17.3818 -21.8371 0.
-5.91404 -12.5441 0.
-7.67148 -21.2209 0.
-0.00392959 -1.28759 0.
0.41291 1.096 0.
0.0906772 0.227015 0.
-0.00351859 -0.141024 0.
0.5326 1.39065 0.
-0.0183952 -0.710297 0.
-0.0481279 -1.97672 0.
-0.78368 -2.17054 0.
-0.197593 -0.545346 0.
0.188395 0.51724 0.
-0.0621497 -8.78672 0.
-0.223952 -20.0637 0.
-1005.12 -2603.91 0.
-3.47614 -9.54849 0.
9.47038 26.1506 0.
4.69256 12.7623 0.
-264.97 -729.923 0.
-105.891 -290.306 0.
-71.5123 -194.892 0.
-135.01 -356.026 0.
-161.095 -424.223 0.
-13.1751 -32.478 0.
-14.4499 -35.584 0.
-9.9665 -24.2307 0.
-664.244 -1680.06 0.
-490.697 -1159.99 0.
11.8954 27.9314 0.
-216.131 -510.482 0.
-314.641 -734.205 0.
2.29135 5.3724 0.
-368.259 -883.307 0.
-682.069 -1595.91 0.
28.8318 66.0991 0.
-1.09524 -2.5201 0.
7.75916 18.3162 0.
-323.613 -783.109 0.
-5.40977 -65.7212 0.
16.9416 44.8493 0.
14.1049 36.5745 0.
-14.7371 -40.7439 0.
4.87962 12.4768 0.
-86.5839 -226.072 0.
-4.49441 -64.6949 0.
20.4 46.6297 0.
28.5309 63.6288 0.
-172.838 -401.659 0.
-58.0448 -140.985 0.
34.5429 72.8066 0.
-467.179 -1018.51 0.
-393.272 -936.371 0.
-4.69994 -55.8846 0.
11.2931 28.2504 0.
-395.223 -995.998 0.
-15.2841 -36.0511 0.
-11.3175 -26.8129 0.
-495.819 -1276.02 0.
17.3967 44.301 0.
-406.65 -1080.62 0.
-7.85263 -20.753 0.
-4.91427 -12.8868 0.
-5.08056 -13.881 0.
1.92457 5.217 0.
-556.244 -1532.77 0.
-5.90471 -16.2331 0.
-104.504 -287.827 0.
-0.0153987 -25.4768 0.
-0.0358816 -13.7711 0.
-0.208121 -9.10324 0.
-0.234203 -10.5432 0.
-761.875 -1957.81 0.
-0.15051 -6.64108 0.
-865.149 -2059.43 0.
0.919703 2.52822 0.
-910.829 -2149.91 0.
-28.0749 -76.8116 0.
0.266383 0.732862 0.
-1222.47 -3368.38 0.
-11.8472 -32.8124 0.
0.487115 1.33325 0.
-1264.8 -2872.46 0.
-9.00217 -24.9189 0.
-862.261 -2260.4 0.
-16.8705 -11.351 0.
-14.4477 -10.9656 0.
-886.815 -2357.51 0.
-136.522 -315.903 0.
-18.2201 -21.4967 0.
-608.295 -1536.43 0.
-448.277 -1129.62 0.
-21.0121 -29.6821 0.
-261.337 -632.918 0.
-792.947 -2088.18 0.
-10.8079 -20.0513 0.
-64.7521 -107.992 0.
-946.529 -2521.12 0.
-14.9912 -18.0823 0.
-13.396 -15.8172 0.
-1146.24 -2623.78 0.
0.00237634 0.0968397 0.
-1153.36 -2712.58 0.
0.00772015 1.73866 0.
-0.00100858 -0.0244471 0.
-1299.34 -3487.03 0.
1.23385 2.91726 0.
-0.765765 -1.58463 0.
-1222 -2452.96 0.
1.08629 2.98801 0.
-649.287 -1795.18 0.
-160.718 -431.006 0.
1.28824 3.52196 0.
10.9009 30.1768 0.
-0.0400512 -11.5789 0.
-2.70066 -7.23416 0.
0.0376588 0.102946 0.
-362.235 -1001.63 0.
-27.3196 -73.8764 0.
-141.566 -387.492 0.
-122.05 -335.609 0.
-165.717 -453.364 0.
-69.566 -183.22 0.
-84.2562 -223.283 0.
-84.2185 -206.412 0.
-290.185 -710.557 0.
-122.419 -297.235 0.
-73.0634 -176.645 0.
-243.668 -576.289 0.
-6.22894 -14.6277 0.
-5.7734 -62.8389 0.
-27.0326 -62.7336 0.
-148.617 -351.62 0.
18.2723 41.7831 0.
-230.49 -538.038 0.
14.285 32.6489 0.
-57.0442 -131.974 0.
0.864271 1.93195 0.
-356.934 -870.702 0.
3.93441 9.20553 0.
12.1709 32.3186 0.
4.29198 11.1633 0.
14.3642 36.2078 0.
-33.394 -86.0659 0.
-5.25818 -39.3255 0.
27.4709 60.8247 0.
-3.11162 -6.67174 0.
-681.926 -1524.12 0.
12.2129 28.835 0.
-6.50547 -61.5749 0.
-9.18069 -67.13 0.
-15.8295 -34.536 0.
9.76282 21.9488 0.
-53.453 -122.645 0.
-564.499 -1397.69 0.
-8.5751 -20.3315 0.
18.7902 44.2461 0.
-405.809 -958.837 0.
-265.614 -676.826 0.
-5.40141 -13.3552 0.
-266.86 -666.998 0.
-103.825 -271.712 0.
5.92365 15.3751 0.
-56.119 -153.242 0.
-2.10659 -5.71409 0.
-221.95 -610.955 0.
1.79716 4.93171 0.
-118.555 -328.229 0.
9.34702 25.8772 0.
-736.678 -2026.65 0.
-101.499 -277.8 0.
-83.7476 -227.856 0.
-168.619 -459.125 0.
2.4955 6.90024 0.
3.35208 8.56673 0.
0.000327196 0.578443 0.
-31.2907 -86.2699 0.
-2.93526 -8.12077 0.
-8.03519e-06 -1.77539 0.
-39.4984 -109.383 0.
-0.000183156 -1.03953 0.
0.000617954 0.0563392 0.
-39.5399 -104.726 0.
0.59896 0.139392 0.
-62.125 -98.2206 0.
-33.9349 -27.9644 0.
-7.99129 -5.30686 0.
-6.65235 -8.32214 0.
-7.44425 -7.97257 0.
-13.6579 -18.1905 0.
-13.9603 -20.1706 0.
-5.19715 -11.002 0.
-21.1851 -28.2958 0.
-19.345 -25.3438 0.
-23.6301 -32.6864 0.
-22.2009 -34.4685 0.
-8.09904 -11.4403 0.
-9.39183 -11.501 0.
-9.62857 -11.9154 0.
-9.03439 -11.2703 0.
-37.6464 -72.4387 0.
-0.00194227 -0.217737 0.
-13.3609 -36.9193 0.
-0.00294291 -3.5032 0.
1.11616 3.02893 0.
-0.022842 -0.737785 0.
-0.160186 -4.8531 0.
-0.359007 -4.24602 0.
-0.154122 -0.324045 0.
2.87824 7.71647 0.
-0.597729 -1.64717 0.
-0.074468 -10.7035 0.
-964.274 -2514.55 0.
0.804338 2.18338 0.
-639.803 -1730.05 0.
-1.16876 -3.18655 0.
-0.232986 -30.2087 0.
-259.475 -715.786 0.
6.69585 18.0754 0.
-215.801 -582.227 0.
12.1542 33.1983 0.
-449.218 -1232.83 0.
-29.4044 -77.3316 0.
-34.4474 -91.1635 0.
-10.6493 -26.2789 0.
-170.187 -414.315 0.
-188.502 -457.063 0.
-159.015 -384.029 0.
8.71934 19.8008 0.
-280.56 -658.701 0.
12.1298 27.4644 0.
5.11368 11.3223 0.
-561.638 -1340.85 0.
-229.695 -530.859 0.
-11.7693 -25.8883 0.
-13.1275 -29.9093 0.
-638.597 -1484.84 0.
24.8905 55.981 0.
-44.0936 -103.4 0.
16.3082 36.2205 0.
-198.148 -527.927 0.
-12.2371 -31.9334 0.
-5.95932 -14.1306 0.
-0.306422 -0.749633 0.
-5.56621 -43.8782 0.
-144.921 -324.799 0.
-10.4304 -22.3946 0.
-56.946 -127.551 0.
-8.27916 -17.7802 0.
-363.469 -806.756 0.
3.53529 7.4562 0.
-19.4673 -39.8828 0.
9.65628 21.5045 0.
-548.351 -1245.83 0.
-4.23468 -52.412 0.
10.7592 25.43 0.
-112.171 -263.537 0.
-325.175 -766.905 0.
-17.3872 -39.4969 0.
-64.9571 -159.33 0.
-42.5203 -105.276 0.
-171.982 -445.318 0.
-151.331 -393.493 0.
-35.722 -97.5263 0.
11.4697 31.1103 0.
-123.121 -338.404 0.
5.30184 14.5204 0.
-530.764 -1469.65 0.
-1.02718 -2.83737 0.
0.986934 2.72047 0.
1.59612 4.38125 0.
7.80898 21.3243 0.
6.34689 17.5797 0.
-0.0310941 -5.57567 0.
0.0581095 2.97102 0.
-0.000148042 -3.34834 0.
-19.9549 -55.2703 0.
-0.00113932 -2.29143 0.
-110.692 -287.103 0.
-530.79 -1466.48 0.
-0.00390768 -0.488432 0.
0.241472 0.658034 0.
-882.485 -2351.6 0.
0.249461 0.653722 0.
-894.338 -2116.11 0.
-29.2793 -56.2314 0.
-28.5187 -43.558 0.
-824.03 -2224.28 0.
-31.5056 -70.4197 0.
-13.2868 -22.4941 0.
-522.499 -1415.12 0.
-367.407 -984.315 0.
-21.0463 -21.0546 0.
-181.079 -322.813 0.
-780.827 -2010.61 0.
-9.83192 -10.6108 0.
-2.89941 -3.17405 0.
-967.016 -2440.31 0.
-4.6833 -11.1619 0.
-2.96127 -6.46975 0.
-933.586 -1983.81 0.
-2.0249e-05 -0.562263 0.
-923.935 -2482.78 0.
-0.00406907 -3.13247 0.
-0.0264641 -1.76676 0.
-610.606 -1574.92 0.
-0.105573 -6.78559 0.
-0.132126 -2.63805 0.
6.06969 14.4977 0.
-0.108507 -3.85876 0.
-0.103498 -11.5601 0.
3.18528 8.75713 0.
7.90046 20.8292 0.
-0.482169 -1.32965 0.
-247.133 -678.392 0.
-73.1814 -200.378 0.
-44.8071 -122.785 0.
-210.562 -579.093 0.
-0.367347 -31.1649 0.
-218.116 -587.756 0.
12.5635 34.0494 0.
-7.29163 -19.9131 0.
1.93152 5.07171 0.
-696.024 -1840.57 0.
-9.02374 -22.1285 0.
15.9099 38.7038 0.
-50.1885 -121.59 0.
-496.816 -1198.33 0.
21.3106 48.4435 0.
-8.20776 -18.1391 0.
-801.359 -1798.84 0.
13.33 29.2772 0.
-14.8512 -34.0292 0.
-183.797 -429.466 0.
-241.8 -527.749 0.
-3.83811 -8.0974 0.
3.9163 9.15792 0.
-531.889 -1202.43 0.
-152.104 -363.32 0.
2.71348 6.13952 0.
12.1473 25.9405 0.
-0.926142 -2.31004 0.
-8.49621 -20.2728 0.
-2.65474 -6.53747 0.
-1.62577 -3.52802 0.
-15.2116 -34.5163 0.
9.01863 17.8756 0.
-9.00367 -58.331 0.
-2.68058 -5.73678 0.
-383.727 -848.757 0.
26.2355 51.6001 0.
-99.92 -205.096 0.
-212.871 -469.18 0.
-7.07078 -49.5369 0.
-2.68555 -6.23326 0.
-451.179 -1061.38 0.
-122.486 -287.211 0.
15.7163 35.4536 0.
-251.871 -570.85 0.
-278.297 -677.213 0.
-148.721 -365.169 0.
-0.523607 -1.36012 0.
-151.904 -394.935 0.
-514.905 -1405.36 0.
8.59283 23.3059 0.
-22.8002 -62.4648 0.
-5.52411 -15.0883 0.
-163.092 -450.806 0.
-0.0620198 -22.6268 0.
1.8025 4.9215 0.
-1.12982 -3.10821 0.
-2.64909 -7.25452 0.
-649.156 -1797.26 0.
-1.56065 -4.29921 0.
-741.409 -1909.99 0.
2.39288 6.2843 0.
5.98225 15.9572 0.
-1061.89 -2693.3 0.
-0.00575878 -1.87414 0.
0.043677 1.19471 0.
0.597342 1.56009 0.
0.156624 0.412599 0.
-19.272 -53.3794 0.
-0.0401279 -1.46386 0.
-17.5134 -40.2057 0.
-8.54369 -16.3454 0.
-2.79409 -3.39763 0.
-10.5631 -18.141 0.
-7.89829 -13.2339 0.
-5.91963 -11.7604 0.
-11.3553 -20.331 0.
-3.61409 -7.2168 0.
-13.0606 -14.3256 0.
-5.44412 -4.95624 0.
-7.86144 -7.547 0.
-18.1597 -18.311 0.
-3.08791 -3.12971 0.
-6.1064 -6.70205 0.
0.0724213 0.188605 0.
-0.96903 -2.50757 0.
-17.5886 -37.5091 0.
-0.00198844 -0.206676 0.
-0.003105 -1.04139 0.
0.000164241 0.919197 0.
-0.024642 -3.02001 0.
1.18207 3.08666 0.
3.57534 9.85832 0.
-1179.97 -3126.82 0.
4.0736 11.1225 0.
-7.08087e-06 -14.7948 0.
-703.683 -1932.09 0.
0.166538 0.450118 0.
9.08887 24.3679 0.
6.11899 16.9478 0.
-59.9979 -166.015 0.
-0.657338 -1.80033 0.
-19.8525 -54.4221 0.
-544.148 -1487.88 0.
-2.97952 -7.96543 0.
12.6425 34.0318 0.
-0.452483 -34.4408 0.
-99.988 -271.015 0.
6.9909 18.2245 0.
6.2858 16.5836 0.
-380.382 -927.059 0.
2.09139 5.0546 0.
16.1547 38.8971 0.
-111.709 -269.141 0.
-536.14 -1220.25 0.
11.5747 25.6074 0.
-14.2151 -29.0098 0.
-306.151 -666.48 0.
-109.47 -251.108 0.
-6.59792 -58.8443 0.
-124.085 -268.432 0.
-549.281 -1148.07 0.
7.82567 15.8417 0.
-4.39484 -9.14581 0.
-95.0312 -208.951 0.
-300.761 -694.668 0.
23.1257 50.3628 0.
-2.24005 -5.65673 0.
16.9534 40.7259 0.
-12.6488 -31.3742 0.
27.4735 56.6637 0.
-9.78175 -20.8355 0.
-8.91496 -51.2809 0.
-413.675 -849.788 0.
17.5719 37.4757 0.
22.7353 46.7837 0.
19.3628 38.1358 0.
-603.172 -1242.94 0.
20.3517 40.5447 0.
-48.7913 -101.603 0.
-102.428 -236.829 0.
-160.544 -376.759 0.
-18.9101 -43.5768 0.
-5.38453 -12.1188 0.
-574.317 -1299.78 0.
0.298005 0.732219 0.
-10.2045 -24.9798 0.
-4.05187 -10.5198 0.
-219.663 -570.889 0.
2.0674 5.64216 0.
4.61653 12.4048 0.
-236.022 -644.863 0.
-0.832477 -2.26656 0.
-52.4052 -144.408 0.
3.50863 9.60479 0.
9.71976 26.341 0.
-254.292 -704.343 0.
-2.64126 -7.30972 0.
-26.1365 -72.3541 0.
-0.609555 -1.66732 0.
-0.318889 -14.5934 0.
4.45549 11.8982 0.
1.75303 4.74522 0.
1.91468 5.27747 0.
0.02624 1.37442 0.
-0.0100085 -0.1426 0.
-0.0856554 -1.59647 0.
0.439705 1.10353 0.
0.88809 2.45054 0.
-0.0714378 -2.44672 0.
-4.41858 -9.3193 0.
-0.042009 -0.122189 0.
-0.125607 -0.108566 0.
-6.31651 -10.4091 0.
-3.3957 -6.54005 0.
-1.38917 -3.80682 0.
-17.8316 -26.9153 0.
-9.65391 -14.4761 0.
-6.81383 -8.15115 0.
-5.29473 -5.92224 0.
-8.26774 -9.37505 0.
-30.2928 -28.0311 0.
-17.9074 -15.5219 0.
-19.5608 -18.2031 0.
0.0824378 0.217471 0.
-0.00479886 -0.230726 0.
-14.8326 -36.0004 0.
-0.00709713 -0.308694 0.
-0.000535704 -1.09345 0.
-6.8048e-05 -3.87785 0.
1.81198 4.96781 0.
1.25077 3.33117 0.
2.91875 8.0207 0.
2.88453 7.92927 0.
-0.122474 -18.306 0.
1.06725 2.95512 0.
0.617182 1.69714 0.
3.02625 8.27924 0.
-459.449 -1254.55 0.
-3.47471 -9.57195 0.
-64.8785 -179.563 0.
5.68876 15.5875 0.
-35.3028 -96.8211 0.
10.5645 28.2193 0.
-22.672 -60.4617 0.
-77.5287 -206.447 0.
-3.64699 -9.68745 0.
-393.28 -1055.28 0.
-27.944 -72.9977 0.
7.77484 20.0968 0.
19.0705 44.2949 0.
-346.078 -830.951 0.
-52.3709 -125.767 0.
-11.2214 -26.4292 0.
-255.903 -583.401 0.
3.88022 8.59574 0.
-79.3681 -161.961 0.
14.8119 29.1041 0.
-202.78 -465.94 0.
-412.68 -906.946 0.
3.38966 7.14586 0.
-346.465 -716.57 0.
-8.52883 -17.0803 0.
-125.304 -259.512 0.
-9.71493 -58.6225 0.
5.34018 11.6922 0.
-2.08624 -4.64301 0.
9.14897 23.4104 0.
-1.93068 -22.1263 0.
-2.35096 -5.66394 0.
-4.77296 -9.89944 0.
-252.727 -542.633 0.
-167.485 -333.864 0.
2.00939 3.91788 0.
20.552 41.0901 0.
-291.912 -597.993 0.
16.4034 32.368 0.
10.7256 20.0736 0.
1.28749 2.55722 0.
-642.791 -1335.57 0.
-41.5746 -95.811 0.
17.0383 38.2127 0.
-76.6626 -179.065 0.
19.0375 42.7479 0.
20.4503 47.3348 0.
-12.3311 -30.1449 0.
-92.1437 -224.363 0.
-244.665 -634.28 0.
-119.034 -301.374 0.
12.7536 34.2107 0.
1.52764 4.08944 0.
-233.665 -636.51 0.
3.08849 8.38001 0.
-2.27241 -6.13951 0.
-216.404 -596.592 0.
-93.2749 -256.764 0.
-97.3527 -269.406 0.
5.05161 13.9424 0.
-0.0298113 -20.4912 0.
0.340037 0.922573 0.
-1.41233 -3.77097 0.
2.59507 7.01817 0.
-144.567 -398.697 0.
-186.62 -515.809 0.
4.949 13.1532 0.
-920.562 -1845.56 0.
-82.1995 -160.515 0.
-44.8081 -89.8563 0.
-756.692 -1930.26 0.
1.22852 3.39853 0.
-760.015 -1823.69 0.
0.108185 0.278993 0.
-0.0459487 -0.300483 0.
-716.017 -1897.53 0.
-16.1263 -34.1975 0.
-6.39759 -12.3921 0.
-431.541 -1137.98 0.
-342.966 -905.783 0.
-33.9561 -48.98 0.
-55.9369 -115.359 0.
-660.361 -1709.35 0.
-19.4105 -16.8583 0.
-11.2852 -9.95913 0.
-863.561 -2168.54 0.
0.222025 0.54138 0.
-0.0334996 -0.333435 0.
-766.939 -1502.35 0.
-0.000383487 -2.14347 0.
-816.231 -2234.32 0.
0.000757165 0.169982 0.
-0.196608 -4.02358 0.
-763.316 -1741.79 0.
-0.00918737 -7.52337 0.
-430.257 -1173.42 0.
-0.153993 -21.405 0.
8.00897 22.162 0.
-0.0107391 -9.41412 0.
-0.0412873 -22.4416 0.
-146.612 -403.51 0.
2.3385 6.42382 0.
-343.866 -950.682 0.
1.61492 4.43376 0.
-10.5629 -28.9803 0.
-30.4875 -81.229 0.
-59.6597 -158.692 0.
-305.397 -794.15 0.
-0.868991 -2.25464 0.
-3.26688 -8.45006 0.
-109.822 -287.424 0.
-364.738 -944.759 0.
0.0806309 0.187856 0.
9.69454 22.1321 0.
-475.607 -1138.6 0.
-3.98204 -9.35341 0.
-8.85931 -19.4215 0.
-12.0367 -26.7107 0.
-283.952 -579.446 0.
12.6188 24.796 0.
14.9708 28.333 0.
-549.892 -1209.86 0.
-6.47218 -47.3978 0.
24.4549 46.2137 0.
17.4342 31.9467 0.
-457.235 -942.231 0.
27.6374 55.3032 0.
-7.66424 -16.8132 0.
-5.63194 -12.1114 0.
-28.9059 -74.439 0.
8.67686 20.5039 0.
18.4434 37.2273 0.
-6.71095 -46.8919 0.
-145.629 -314.518 0.
16.8829 32.0547 0.
-16.151 -31.4468 0.
-9.89446 -19.6895 0.
-191.465 -390.555 0.
28.5448 51.8362 0.
-40.8897 -76.1426 0.
18.9368 37.5022 0.
5.41823 10.4047 0.
-3.08509 -6.72437 0.
-441.329 -1005.15 0.
-138.846 -329.008 0.
-5.76727 -12.918 0.
1.83065 4.26121 0.
-146.21 -355.488 0.
-145.229 -351.651 0.
-15.0491 -38.1954 0.
-68.8165 -175.168 0.
-401.197 -1070.58 0.
3.13459 8.35802 0.
-73.2659 -198.909 0.
-6.59024 -17.9354 0.
-5.67351 -15.4474 0.
-188.521 -519.641 0.
-4.55571 -12.5373 0.
-207.521 -572.808 0.
3.24408 8.91515 0.
3.00175 8.24811 0.
-24.4384 -67.0647 0.
-209.359 -572.729 0.
-395.664 -1084.75 0.
3.81631 10.57 0.
5.29145 14.3284 0.
-0.0869866 -2.2598 0.
-31.4165 -59.2 0.
-6.77325 -12.9666 0.
1.06058 2.07901 0.
-0.0052479 -0.909822 0.
-0.0112163 -4.65843 0.
-0.00047266 -0.382403 0.
0.132125 0.339799 0.
0.242166 0.532367 0.
-36.4606 -74.4477 0.
-26.5041 -53.3192 0.
-16.5818 -31.7773 0.
-22.4163 -30.5208 0.
-15.0407 -17.9069 0.
-13.5282 -16.9372 0.
-2.13471 -2.41564 0.
0.205197 0.220016 0.
-15.3902 -14.1091 0.
-9.92083 -9.17135 0.
-11.8139 -11.1041 0.
-5.74091e-05 -0.0892511 0.
0.214184 0.562793 0.
-2.62874 -6.56221 0.
0.00236111 0.641542 0.
-0.00123998 -1.66475 0.
-0.000112302 -11.3924 0.
3.42407 9.07442 0.
2.0829 5.09216 0.
0.521415 1.44015 0.
-0.992897 -2.74596 0.
7.30306 20.1831 0.
-578.101 -1601.08 0.
-6.51004e-05 -25.7603 0.
6.04339 16.7303 0.
-195.057 -539.41 0.
-5.25618 -14.3939 0.
-189.191 -522.086 0.
10.4853 28.7547 0.
-53.5858 -147.024 0.
-53.3786 -142.202 0.
-241.599 -641.1 0.
-178.884 -464.185 0.
-17.9349 -46.3986 0.
-25.7529 -66.4152 0.
6.80977 17.3405 0.
-127.652 -331.416 0.
-433.38 -1013.79 0.
-4.87174 -11.1598 0.
-3.20454 -35.4249 0.
-245.696 -575.376 0.
-456.958 -998.871 0.
6.89463 14.7068 0.
23.4405 45.8853 0.
-559.116 -1096.63 0.
4.56465 8.63684 0.
-9.98011 -19.845 0.
-34.495 -72.7509 0.
-468.185 -882.791 0.
27.9229 51.05 0.
0.37479 0.718297 0.
-224.069 -445.772 0.
-311.893 -686.864 0.
-4.12949 -8.89675 0.
-88.1746 -232.93 0.
-1.51995 -3.69189 0.
4.46238 9.05977 0.
24.6947 49.2876 0.
0.257026 0.475129 0.
-215.27 -407.888 0.
-143.09 -278.161 0.
4.89531 9.68677 0.
15.4048 28.843 0.
-3.38209 -6.10818 0.
-269.787 -499.394 0.
-8.75161 -39.668 0.
-9.44804 -18.0934 0.
4.97461 11.0337 0.
-111.961 -259.261 0.
-3.29824 -41.1332 0.
12.8759 29.0073 0.
-472.539 -1104.98 0.
-64.0217 -154.823 0.
5.94172 13.8918 0.
13.6853 34.9206 0.
-95.5471 -244.469 0.
-74.8963 -199.266 0.
-4.85035 -12.8531 0.
-4.27681 -11.3772 0.
-37.3046 -101.253 0.
-14.8399 -40.2936 0.
-191.279 -527.171 0.
-5.50196 -15.1379 0.
-222.881 -611.01 0.
4.99546 13.6649 0.
-340.995 -937.313 0.
-6.01233 -16.4857 0.
3.09063 8.44956 0.
-75.4422 -208.607 0.
-0.0214862 -12.653 0.
-0.362423 -16.8197 0.
9.28051 22.6223 0.
0.135584 0.253282 0.
0.109178 0.209816 0.
-0.149287 -0.295266 0.
-633.489 -1746.08 0.
-0.0471027 -3.91921 0.
-652.997 -1141.01 0.
-0.0334492 -0.347396 0.
-0.112486 -0.892943 0.
-634.24 -1637.87 0.
-13.983 -30.9344 0.
-8.33915 -18.4464 0.
-292.739 -738.962 0.
-346.333 -932.619 0.
-26.0774 -45.8744 0.
-35.6365 -74.1513 0.
-505.501 -1331.01 0.
-28.1889 -10.1836 0.
-0.335767 -0.296077 0.
-447.441 -1033.36 0.
0.000317167 0.318472 0.
-665.866 -1689.37 0.
-0.00207106 -0.325209 0.
-193.081 -498.348 0.
-0.000361663 -1.83754 0.
-0.0181211 -14.8595 0.
-0.0563233 -8.55709 0.
8.31352 21.4689 0.
1.2346 3.35416 0.
-3.50792 -9.70043 0.
6.02804 16.6374 0.
-0.00442414 -20.8025 0.
8.84977 24.4911 0.
-159.485 -441.675 0.
-175.538 -480.886 0.
-0.426427 -1.16529 0.
10.0258 27.5952 0.
-8.319 -22.7868 0.
-280.334 -768.134 0.
-54.3425 -144.934 0.
-46.0663 -122.662 0.
-7.04625 -18.3231 0.
-102.125 -263.417 0.
-167.274 -424.622 0.
-109.574 -278.214 0.
14.1814 36.0403 0.
-270.648 -635.075 0.
17.6205 40.5054 0.
-85.4478 -195.092 0.
-4.15244 -41.0765 0.
-310.086 -676.242 0.
12.4781 26.5436 0.
10.5229 21.8427 0.
-9.34706 -41.8417 0.
18.967 35.8832 0.
-77.1067 -149.269 0.
-8.64308 -43.4966 0.
12.9801 22.7629 0.
-160.333 -292.321 0.
-137.632 -261.955 0.
-9.29799 -44.3095 0.
-4.84679 -39.234 0.
-6.52674 -14.05 0.
-28.6583 -60.623 0.
-7.67332 -18.3076 0.
12.242 23.6412 0.
1.77559 3.53991 0.
11.1578 20.576 0.
-114.216 -215.976 0.
23.7653 42.8458 0.
2.90539 5.30266 0.
-200.424 -370.32 0.
7.30299 13.1078 0.
-10.671 -18.4578 0.
7.16252 13.248 0.
-551.515 -1055.94 0.
-4.73198 -10.6884 0.
5.68352 12.8006 0.
-6.61526 -15.3347 0.
-4.43415 -10.0491 0.
5.6261 12.5458 0.
-6.33471 -14.6167 0.
-204.577 -479.077 0.
-124.624 -319.707 0.
-1.31287 -40.5519 0.
-1.3512 -3.55775 0.
-6.48371 -17.1385 0.
-34.6738 -92.0051 0.
-244.913 -662.872 0.
-103.783 -280.979 0.
10.614 28.9999 0.
7.62665 20.8335 0.
-36.3653 -99.6732 0.
10.6659 29.1576 0.
-68.4815 -186.684 0.
-6.6597 -18.2451 0.
3.64157 9.94609 0.
-1.91185 -5.29513 0.
-3.67841 -10.1839 0.
-394.638 -1092.44 0.
-0.628133 -1.73039 0.
2.98419 8.14421 0.
-229.52 -573.639 0.
-73.3107 -200.041 0.
1.0047 2.70399 0.
2.74435 6.90201 0.
0.0890172 0.206675 0.
-0.0353569 -0.325468 0.
-0.146841 -1.05292 0.
-15.2745 -31.8624 0.
-8.11902 -17.3818 0.
-2.74472 -6.32217 0.
-16.4706 -25.04 0.
-7.75144 -13.278 0.
-11.5506 -23.0585 0.
-6.4316 -9.90439 0.
-23.4221 -23.8289 0.
-20.6995 -10.2171 0.
0.0991036 0.103126 0.
0.0250299 0.0312891 0.
0.675489 1.8218 0.
0.462673 1.26675 0.
-0.114461 -4.38784 0.
1.59746 4.39341 0.
-227.347 -581.805 0.
-0.0170606 -0.046366 0.
-679.432 -1802.47 0.
-0.0720695 -19.2376 0.
7.65992 21.1598 0.
-347.336 -961.956 0.
-0.0343948 -16.3072 0.
7.52393 20.8147 0.
9.38704 25.9103 0.
-89.1841 -246.963 0.
-7.50575 -20.5267 0.
6.24661 17.0429 0.
-60.584 -164.905 0.
-4.45074 -11.9848 0.
-93.9091 -257.015 0.
-114.236 -305.007 0.
-137.227 -365.816 0.
12.8068 33.1934 0.
14.1523 36.4447 0.
-65.1964 -165.193 0.
-111.964 -283.662 0.
6.90509 17.507 0.
-2.95192 -6.80037 0.
-6.3183 -14.2394 0.
-442.606 -1008.19 0.
-1.26727 -2.83692 0.
11.2669 23.4093 0.
-2.45813 -5.2121 0.
14.1511 29.2763 0.
21.4115 39.4601 0.
8.84144 15.4355 0.
-356.395 -667.773 0.
-123.934 -230.564 0.
-19.887 -34.5884 0.
-13.5596 -23.2307 0.
-114.686 -216.703 0.
-263.968 -493.847 0.
22.1799 41.0709 0.
1.22584 2.53886 0.
-5.09456 -25.5674 0.
-1.81075 -4.3585 0.
-8.2958 -15.9893 0.
-288.321 -574.094 0.
-10.5488 -18.2293 0.
-1.5542 -2.72972 0.
-10.992 -43.6176 0.
-423.854 -762.592 0.
21.9961 37.4331 0.
20.8947 34.8428 0.
-238.601 -406.348 0.
-2.32746 -4.28727 0.
4.67315 8.57601 0.
-5.20678 -11.3145 0.
-273.636 -611.96 0.
-312.868 -721.277 0.
-4.13803 -34.902 0.
9.59637 21.2895 0.
3.26579 7.54826 0.
-146.432 -343.444 0.
12.0397 30.2299 0.
-6.70448 -16.8917 0.
-12.6329 -31.9445 0.
-105.637 -278.376 0.
-194.853 -515.448 0.
-60.6825 -161.703 0.
-22.5679 -60.1262 0.
-63.6641 -173.429 0.
11.056 30.108 0.
-6.13324 -16.8014 0.
-2.43959 -6.66467 0.
3.76865 10.2642 0.
-50.2061 -137.557 0.
10.5726 28.9028 0.
-324.344 -897.353 0.
-1.9645 -5.44075 0.
-6.52969 -18.0304 0.
-3.85123 -10.5615 0.
7.4778 20.2656 0.
-52.9071 -140.43 0.
-0.000500305 -10.9349 0.
1.15418 2.97117 0.
1.54737 3.6353 0.
-0.632571 -3.82454 0.
0.436178 0.946087 0.
-0.140202 -0.92367 0.
-15.6656 -31.0188 0.
-5.75927 -12.3617 0.
-6.62132 -14.0942 0.
-23.6159 -33.5448 0.
-13.8129 -23.1734 0.
-28.77 -32.8157 0.
-22.6557 -18.9153 0.
-14.6527 -7.92704 0.
-27.8601 -14.7091 0.
-15.0605 -7.9496 0.
-1.84129 -2.52457 0.
-0.04044 -2.00778 0.
-1.76452e-06 -2.03346 0.
-0.123832 -3.22827 0.
-0.00103279 -1.61498 0.
-0.0557353 -5.07651 0.
1.18818 3.28587 0.
-0.113788 -0.310829 0.
3.55723 9.75266 0.
-0.436408 -1.20453 0.
-1.01366 -2.80671 0.
-0.0124273 -21.3281 0.
-171.692 -475.217 0.
8.27855 22.7607 0.
-10.1093 -27.9514 0.
-35.8268 -97.8215 0.
-63.2669 -172.32 0.
-165.123 -444.257 0.
4.74086 12.7346 0.
-17.9419 -48.0905 0.
-18.8951 -50.4933 0.
-270.127 -720.777 0.
-107.177 -276.975 0.
7.94475 20.3881 0.
6.20483 15.623 0.
-0.117124 -0.291929 0.
-146.406 -370.082 0.
-357.723 -829.595 0.
-0.800124 -1.81934 0.
-5.35032 -11.8649 0.
-107.452 -240.002 0.
-427.713 -885.735 0.
6.5066 12.9131 0.
14.8718 28.3248 0.
-604.461 -1104.16 0.
-10.4905 -38.619 0.
15.875 26.6717 0.
22.861 37.9402 0.
-376.207 -648.328 0.
0.209753 0.356278 0.
-0.467965 -0.783424 0.
17.5686 30.5861 0.
-9.32595 -17.1406 0.
-97.7969 -210.275 0.
0.977827 1.93926 0.
20.0261 37.2508 0.
14.2828 25.1474 0.
-1.68124 -3.12113 0.
21.7742 37.0249 0.
-124.022 -214.231 0.
-8.72979 -15.3166 0.
-10.0976 -31.2128 0.
-12.4519 -37.0973 0.
-6.66808 -10.9317 0.
-320.925 -537.092 0.
-11.8945 -21.2042 0.
-32.3709 -58.6936 0.
-7.29132 -15.7021 0.
9.22526 20.4449 0.
2.39458 5.31992 0.
19.2736 41.6659 0.
-506.571 -1116.58 0.
-7.77588 -18.0049 0.
3.97004 9.04364 0.
-1.42314 -3.55722 0.
-82.4751 -206.893 0.
-62.1309 -156.417 0.
-229.954 -604.03 0.
3.61909 9.44352 0.
-75.6804 -201.604 0.
-40.3597 -107.493 0.
-196.273 -532.77 0.
2.08015 5.64537 0.
-83.4104 -228.341 0.
-66.328 -180.546 0.
-4.81922 -13.1047 0.
-40.5547 -110.769 0.
-6.18548 -16.8516 0.
-3.92838 -10.8769 0.
9.86582 27.3266 0.
7.01328 19.3053 0.
-3.15059 -8.59499 0.
6.31833 16.9979 0.
3.02964 8.2778 0.
2.61651 6.96032 0.
-204.18 -552.522 0.
-0.000639148 -7.17285 0.
0.00268811 0.151286 0.
-568.095 -1355.19 0.
-0.0108338 -1.98222 0.
-261.386 -621.705 0.
-37.2759 -91.9512 0.
-86.8264 -225.68 0.
-101.538 -214.37 0.
-325.253 -871.103 0.
-25.182 -17.2163 0.
-0.164448 -0.148999 0.
-406.898 -1015.46 0.
-0.120918 -0.133266 0.
0.0156415 0.0120054 0.
-403.728 -693.877 0.
-0.0165792 -4.03217 0.
-522.491 -1384.47 0.
3.23832 8.8948 0.
-0.0358778 -13.372 0.
-277.426 -737.53 0.
-0.008995 -12.4812 0.
1.86599 5.15898 0.
5.19602 14.2288 0.
1.64989 4.54999 0.
5.30449 14.6146 0.
8.99087 24.8113 0.
-100.425 -277.486 0.
-4.90292 -13.4607 0.
-157.124 -432.124 0.
6.74858 18.1817 0.
-146.741 -398.87 0.
-30.147 -80.9338 0.
-15.0442 -40.3014 0.
-177.565 -474.389 0.
-10.5351 -27.3785 0.
-47.6701 -123.66 0.
-73.5147 -189.3 0.
-229.958 -588.506 0.
-48.8406 -122.587 0.
9.59949 23.8458 0.
-9.77471 -22.5609 0.
-10.7457 -25.1818 0.
9.15 20.9995 0.
-146.143 -322.781 0.
13.8816 30.0608 0.
-276.015 -569.74 0.
11.124 21.9804 0.
-5.5847 -27.1048 0.
-11.9169 -20.3549 0.
-188.557 -324.453 0.
-387.886 -641.108 0.
15.3023 24.9789 0.
9.71851 15.2985 0.
-77.9069 -131.093 0.
2.16419 3.59066 0.
12.2519 21.1335 0.
-11.0892 -37.552 0.
-1.62541 -3.28844 0.
-2.11286 -4.14868 0.
9.087 15.3257 0.
12.4096 22.093 0.
-43.8563 -72.1732 0.
-128.416 -214.569 0.
27.9032 42.7426 0.
4.01871 6.28966 0.
-34.1518 -54.2015 0.
13.8345 21.8602 0.
-4.90148 -7.66802 0.
-52.2936 -86.1936 0.
-29.1144 -51.2325 0.
-212.364 -379.827 0.
-4.73174 -32.8033 0.
-3.42277 -27.9329 0.
-5.00588 -11.1992 0.
13.2525 28.4717 0.
11.091 23.5342 0.
11.1141 25.0319 0.
-124.537 -284.27 0.
-28.6823 -71.362 0.
-46.5313 -116.171 0.
-7.65688 -19.121 0.
12.9632 33.7626 0.
11.3663 29.5561 0.
-172.814 -460.16 0.
-25.659 -68.3208 0.
-103.881 -280.955 0.
-5.16526 -13.909 0.
3.62924 9.78478 0.
-100.225 -272.431 0.
-3.57729 -9.71373 0.
-87.3666 -237.808 0.
3.15006 8.54951 0.
2.7005 7.47932 0.
10.7945 29.8956 0.
-4.66115 -12.9087 0.
-22.4703 -61.7071 0.
5.77906 15.81 0.
-211.993 -571.392 0.
-0.062064 -17.7647 0.
0.88781 2.44219 0.
-0.021091 -13.0161 0.
-0.320864 -14.8306 0.
1.50892 4.13167 0.
0.00688525 0.352974 0.
-19.4537 -53.6276 0.
-10.3286 -27.5693 0.
-10.4661 -28.3741 0.
-35.2743 -40.3121 0.
-19.0796 -19.9681 0.
-31.5409 -21.8509 0.
-4.80626 -4.46501 0.
-0.143354 -0.144176 0.
-0.396507 -0.335542 0.
0.179909 0.125728 0.
-0.000439311 -9.33512e-05 0.
-0.0824021 -3.95595 0.
-0.00314655 -4.37873 0.
-0.171625 -18.5544 0.
-0.000170273 -8.17214 0.
5.06714 13.7877 0.
2.46632 6.83017 0.
-229.212 -631.789 0.
1.27663 3.52637 0.
-225.689 -623.816 0.
-0.0366172 -0.100476 0.
-0.0653524 -22.5195 0.
-111.896 -308.355 0.
6.43729 17.6466 0.
-122.976 -337.782 0.
6.87496 18.4817 0.
-25.1155 -67.6088 0.
2.28841 6.09671 0.
-51.2905 -137.005 0.
-46.4715 -121.051 0.
-54.1428 -140.799 0.
-93.9087 -243.786 0.
10.8635 27.1099 0.
-2.43155 -6.0381 0.
-126.871 -317.381 0.
-131.635 -325.882 0.
-124.77 -288.829 0.
16.2396 37.0347 0.
13.5057 30.3354 0.
-256.8 -564.436 0.
-2.6997 -5.82333 0.
-40.4255 -81.638 0.
-6.10873 -31.7585 0.
16.5107 31.0837 0.
-368.72 -625.939 0.
6.56044 10.9069 0.
-6.03264 -9.69723 0.
-254.705 -408.525 0.
14.9832 23.7772 0.
-2.63569 -4.0188 0.
14.6627 21.9974 0.
-206.141 -351.968 0.
-10.7824 -18.0001 0.
-44.5621 -89.5699 0.
-2.60553 -5.07992 0.
11.5999 19.7625 0.
-264.147 -476.255 0.
-12.184 -18.1184 0.
-12.7369 -31.1111 0.
-13.9017 -33.9309 0.
-14.3526 -21.8177 0.
-222.413 -342.043 0.
-10.6217 -26.3423 0.
-5.80199 -9.15932 0.
-190.978 -317.95 0.
-150.713 -261.314 0.
-18.1333 -31.2704 0.
3.53843 7.41646 0.
-3.73622 -31.5182 0.
-82.2305 -185.265 0.
-2.96636 -6.11896 0.
1.73317 3.73337 0.
13.4029 30.2589 0.
-74.6049 -170.7 0.
-54.5547 -126.502 0.
-1.93643 -35.4782 0.
-11.2524 -28.135 0.
-18.9012 -49.0588 0.
-50.8335 -131.741 0.
-96.7423 -257.541 0.
-6.00689 -15.8202 0.
-80.4676 -216.311 0.
-41.2242 -110.967 0.
2.89658 7.80744 0.
-130.228 -353.482 0.
-15.1681 -41.1263 0.
-136.833 -371.039 0.
-51.441 -137.51 0.
-68.6475 -189.772 0.
1.44496 3.99723 0.
9.76005 27.0156 0.
-5.26158 -14.3934 0.
3.76518 10.2509 0.
-110.787 -304.991 0.
7.20227 19.9489 0.
-0.00279171 -5.47008 0.
-0.0507973 -13.0093 0.
6.70326 17.543 0.
-3.58923e-05 -3.47896 0.
2.616 7.24176 0.
-185.595 -393.022 0.
-39.1472 -60.0272 0.
-35.8929 -51.4651 0.
-104.94 -222.033 0.
-174.191 -443.19 0.
-14.1141 -13.8999 0.
-6.8553 -5.14196 0.
-240.708 -526.591 0.
0.230756 0.120411 0.
-21.7974 -9.11988 0.
-240.632 -460.363 0.
0.0297095 0.86895 0.
0.000399788 0.240367 0.
7.01647 18.7568 0.
-0.0183324 -18.781 0.
1.81316 4.9962 0.
-1.39724 -3.86366 0.
6.51985 18.0526 0.
9.31804 25.7024 0.
-59.2049 -163.442 0.
9.60485 26.2834 0.
-17.6304 -48.3525 0.
-5.32591 -14.5577 0.
0.044197 0.120964 0.
6.84829 18.7831 0.
-12.3321 -33.0763 0.
-118.701 -318.817 0.
-4.70605 -12.5106 0.
10.3388 27.4995 0.
-3.86099 -10.0524 0.
-14.889 -38.7514 0.
-50.6753 -131.667 0.
-138.504 -346.453 0.
-7.16722 -17.8346 0.
10.9341 26.6867 0.
-48.0814 -118.576 0.
-359.205 -834.809 0.
14.6273 33.453 0.
5.96479 13.4366 0.
-5.7706 -12.2561 0.
-154.019 -330.374 0.
-378.266 -773.122 0.
10.5585 20.6174 0.
7.97565 14.885 0.
-140.604 -238.077 0.
10.5437 17.4501 0.
-5.25874 -8.43582 0.
-10.6842 -29.7022 0.
-6.66143 -10.3708 0.
-207.577 -311.591 0.
1.69385 2.50218 0.
12.8662 19.4716 0.
1.97486 2.99014 0.
5.2125 8.41169 0.
-92.4492 -178.829 0.
-9.85276 -28.9864 0.
4.35902 7.20542 0.
19.7249 28.5554 0.
-19.1106 -27.6583 0.
17.0586 24.8547 0.
-8.09693 -11.3806 0.
-7.24299 -10.3507 0.
-3.72246 -5.61961 0.
-131.504 -209.282 0.
12.2547 19.8103 0.
14.4686 24.4047 0.
-290.933 -506.559 0.
-5.78906 -12.2078 0.
0.290332 0.613125 0.
11.6971 25.0237 0.
-1.37413 -2.87924 0.
-230.004 -502.972 0.
6.82005 15.4324 0.
-3.94196 -35.902 0.
0.25226 0.565289 0.
14.652 35.9845 0.
-29.0085 -72.6235 0.
-94.4362 -244.325 0.
-7.04432 -17.7771 0.
7.74135 20.2964 0.
1.37013 3.60125 0.
-24.1784 -63.7111 0.
-57.6683 -155.188 0.
-9.55728 -25.7534 0.
4.85909 12.9355 0.
4.76716 12.6887 0.
-48.1035 -128.975 0.
-21.0682 -56.5091 0.
-65.3748 -180.472 0.
-4.47865 -12.375 0.
-2.47262 -6.83783 0.
7.42286 20.2146 0.
-4.25471 -11.5212 0.
6.35895 17.6025 0.
-0.0122102 -22.6372 0.
-166.119 -454.342 0.
-2.7542 -7.5909 0.
-0.671521 -1.85845 0.
-214.907 -594.145 0.
-0.280949 -12.0423 0.
-22.3978 -44.617 0.
-12.3145 -18.5969 0.
-9.49296 -8.93182 0.
-24.8589 -24.8507 0.
-24.0907 -17.3641 0.
-7.57779 -9.84718 0.
-0.0870467 -0.112279 0.
0.255842 0.221997 0.
-2.728 -1.38481 0.
-2.57372 -1.18304 0.
-16.3455 -6.68207 0.
-0.105029 -4.47938 0.
-186.41 -515.997 0.
1.70314 4.71434 0.
-132.506 -366.949 0.
-1.02349 -2.8113 0.
-0.0578813 -17.76 0.
8.87742 24.5706 0.
-5.14787 -14.1759 0.
-15.7141 -43.3153 0.
-5.15433 -14.0488 0.
-29.2107 -79.835 0.
8.95462 24.448 0.
-0.483659 -1.31649 0.
0.393929 1.06878 0.
-4.5646 -12.0143 0.
-64.7687 -173.58 0.
-13.0702 -34.6691 0.
3.58078 9.50347 0.
11.6991 30.4097 0.
-1.35605 -3.50609 0.
6.31354 16.2367 0.
-7.25242 -18.1713 0.
13.8597 34.5562 0.
-87.0208 -212.355 0.
3.39239 8.19889 0.
-6.06646 -13.7748 0.
12.2587 28.1147 0.
-5.53929 -12.5137 0.
-123.828 -264.195 0.
15.1073 31.2997 0.
8.20481 16.216 0.
-5.3983 -10.6494 0.
-1.08231 -2.03903 0.
-108.624 -181.673 0.
-8.39644 -26.6017 0.
-80.1821 -128.208 0.
-7.29522 -11.4014 0.
-10.1325 -26.3997 0.
5.47533 7.879 0.
17.2958 25.1003 0.
-11.014 -16.0658 0.
-4.91083 -7.18752 0.
-7.21546 -10.5504 0.
-5.33506 -22.8442 0.
13.6316 21.6148 0.
-118.23 -193.288 0.
-23.1333 -32.5133 0.
-15.6298 -28.8153 0.
-13.6562 -26.9029 0.
18.5028 25.5916 0.
-231.203 -325.223 0.
-9.73857 -14.7826 0.
-7.86267 -21.5725 0.
-50.6926 -82.0499 0.
9.48082 16.1581 0.
-83.7661 -147.443 0.
11.675 24.0685 0.
5.55522 11.5915 0.
-31.5888 -66.7789 0.
-6.34684 -13.518 0.
-3.87877 -28.812 0.
14.8346 32.3185 0.
9.82382 21.7261 0.
-223.334 -501.196 0.
-4.07971 -10.0311 0.
-3.53935 -8.50212 0.
-7.31045 -18.281 0.
-0.631439 -1.59267 0.
1.69068 4.42335 0.
-24.1276 -63.286 0.
-53.3793 -140.375 0.
3.63052 9.52632 0.
8.62175 22.7241 0.
8.51259 22.5809 0.
-5.6471 -14.9764 0.
-71.4737 -192.253 0.
9.2981 25.0198 0.
-20.881 -56.2005 0.
-16.9955 -46.8872 0.
9.93063 27.2386 0.
-2.57615 -6.86648 0.
1.6452 4.35519 0.
-4.90978 -13.5613 0.
4.48471 12.3677 0.
5.5818 15.3597 0.
-0.0348652 -17.992 0.
3.10544 8.59493 0.
0.688562 1.89081 0.
-0.590145 -12.1627 0.
-18.596 -36.6188 0.
-6.61887 -5.22654 0.
-0.0388602 -0.0144623 0.
-23.5754 -26.645 0.
-14.9039 -11.5016 0.
-7.38729 -10.0315 0.
-0.0678602 -0.0975434 0.
0.0511788 0.045781 0.
-7.8158 -3.84583 0.
-8.42433 -3.80505 0.
-22.4513 -8.83533 0.
-0.548248 -11.5758 0.
1.84671 5.06693 0.
-0.0331579 -23.7841 0.
8.06989 22.3454 0.
6.07987 16.681 0.
-4.6916 -12.8772 0.
-30.305 -83.2107 0.
8.40964 22.8406 0.
-27.0764 -73.6213 0.
2.80811 7.62001 0.
-86.1945 -234.656 0.
-8.69661 -23.7152 0.
-1.92081 -5.2214 0.
-65.2698 -176.829 0.
-5.93606 -15.6221 0.
10.4764 27.5471 0.
-3.25046 -8.39164 0.
-88.1917 -233.512 0.
-80.047 -207.671 0.
3.00362 7.75206 0.
2.45612 6.08824 0.
-5.62259 -13.7671 0.
8.45523 20.4475 0.
-169.509 -413.562 0.
-2.1135 -34.1409 0.
-3.09247 -33.5783 0.
-3.12994 -27.9411 0.
5.94072 12.5884 0.
-208.317 -446.719 0.
5.525 11.5089 0.
-10.2593 -20.2555 0.
12.294 23.5096 0.
8.79738 16.7263 0.
-148.926 -247.821 0.
10.805 17.6937 0.
-8.41555 -13.5798 0.
7.97801 12.4137 0.
-2.76124 -4.20324 0.
-48.2711 -68.57 0.
-13.3593 -26.9174 0.
-14.4402 -27.1058 0.
-80.2535 -113.15 0.
-42.8223 -60.4819 0.
-5.31046 -9.90139 0.
-19.4052 -30.3619 0.
-15.8059 -25.7424 0.
19.2016 24.4722 0.
8.57585 11.1107 0.
-1.11553 -1.49329 0.
-14.5795 -19.7975 0.
4.66395 6.30682 0.
5.48963 8.25204 0.
10.7054 16.687 0.
-239.349 -387.464 0.
10.9633 17.3505 0.
-9.44686 -16.2818 0.
0.237901 0.484131 0.
-11.7371 -24.1765 0.
3.73576 7.79558 0.
16.5844 33.8119 0.
-0.229497 -0.490946 0.
2.2003 4.80158 0.
-3.47471 -32.2037 0.
1.85384 4.16914 0.
12.5084 29.4488 0.
-4.28616 -10.3049 0.
-7.89402 -19.7303 0.
-1.74041 -4.3881 0.
-58.7234 -149.336 0.
2.47601 6.14779 0.
-2.84983 -7.18901 0.
2.45793 6.44919 0.
5.2999 13.9685 0.
-25.9071 -68.4685 0.
-22.4611 -59.3434 0.
8.50405 22.9459 0.
6.77856 17.7856 0.
8.44754 22.4074 0.
8.51623 23.3162 0.
6.2226 17.053 0.
-4.73006 -12.5261 0.
4.63731 12.1879 0.
-74.707 -205.624 0.
6.86321 18.8376 0.
4.98167 13.6265 0.
0.92332 2.54624 0.
2.29754 6.35925 0.
-0.694998 -1.81078 0.
7.02841 16.4525 0.
-75.3065 -121.676 0.
-6.89155 -3.59488 0.
-3.99109 -1.92927 0.
-47.5734 -81.4544 0.
-38.8104 -45.4393 0.
-47.0673 -19.8543 0.
0.00266411 0.0053937 0.
-40.5882 -20.3885 0.
-15.0043 -11.1482 0.
-9.165 -5.14141 0.
-93.2469 -89.6147 0.
-0.63664 -7.92266 0.
-0.134346 -9.57403 0.
-0.0478174 -14.8552 0.
-0.0219918 -24.1177 0.
1.89419 5.19064 0.
1.31168 3.59601 0.
-36.0514 -98.8768 0.
2.77223 7.52295 0.
-22.0066 -59.7854 0.
0.677766 1.79253 0.
-6.61743 -17.4436 0.
10.3762 27.2628 0.
-59.7895 -162.296 0.
-56.851 -149.736 0.
11.0909 29.1842 0.
8.94951 23.5293 0.
0.12854 0.33099 0.
7.24317 18.5275 0.
-3.78316 -9.2584 0.
-15.2019 -39.1635 0.
-94.1342 -232.859 0.
7.83178 19.1343 0.
3.19436 7.7062 0.
6.61131 15.2469 0.
-0.768281 -1.85747 0.
-142.501 -326.499 0.
5.02283 11.0921 0.
11.0498 22.8426 0.
13.727 27.0908 0.
9.71017 20.3466 0.
-171.766 -338.768 0.
-3.05781 -5.83463 0.
-6.02304 -26.916 0.
16.9072 26.0112 0.
-11.8921 -19.3563 0.
-95.2934 -155.376 0.
15.0178 23.105 0.
-6.73635 -15.518 0.
-147.463 -205.859 0.
-11.6732 -15.7924 0.
-3.6066 -4.73598 0.
-13.0682 -21.6445 0.
-11.7344 -19.4762 0.
1.6355 3.11578 0.
4.42078 6.18266 0.
-6.897 -8.45016 0.
16.8826 21.0082 0.
-257.462 -325.339 0.
14.1935 15.8451 0.
5.4741 6.71936 0.
-3.94711 -5.39017 0.
14.9094 22.3486 0.
-15.875 -22.4119 0.
15.8486 22.0456 0.
10.3564 16.7399 0.
-6.98159 -12.3568 0.
-4.57131 -9.17436 0.
-5.49162 -17.8823 0.
5.67865 10.6717 0.
11.9522 24.6538 0.
-45.9466 -99.559 0.
8.55183 18.7009 0.
4.58773 8.37556 0.
-0.997999 -2.09476 0.
8.13986 19.1826 0.
-119.663 -288.048 0.
4.04231 10.0995 0.
17.4211 36.3686 0.
-2.89729 -6.8813 0.
2.26479 5.58956 0.
-6.16081 -15.4574 0.
11.1306 29.2059 0.
-58.8969 -155.244 0.
-43.1398 -113.57 0.
-2.29393 -27.283 0.
-43.1121 -109.362 0.
0.687645 1.79724 0.
3.29008 8.69774 0.
-29.3344 -80.2287 0.
-19.4939 -53.3708 0.
-4.08352 -10.7398 0.
-0.660269 -25.4521 0.
-0.107113 -22.0062 0.
-1.29446 -17.5865 0.
5.98284 15.6431 0.
-20.8382 -57.5061 0.
-21.4892 -59.1481 0.
1.03535 2.57722 0.
-0.593417 -5.40498 0.
-16.0453 -10.788 0.
-14.2773 -8.13736 0.
-12.3719 -6.48622 0.
-31.8754 -40.7915 0.
-16.3233 -12.6675 0.
-52.4665 -20.1017 0.
-8.00036 -3.8521 0.
-7.27337 -8.35627 0.
-0.982068 -2.32052 0.
0.172252 0.20407 0.
15.8841 28.0671 0.
7.08308 15.1927 0.
-3.79314 -9.17979 0.
-25.9959 -68.6823 0.
7.58709 20.0071 0.
-0.682924 -1.68003 0.
-4.65994 -12.7595 0.
-0.243749 -25.7109 0.
6.803 18.445 0.
-38.3003 -103.957 0.
0.6577 1.73365 0.
-1.98298 -5.20931 0.
-21.5079 -56.3873 0.
9.80899 25.0619 0.
-2.21 -29.8763 0.
0.748833 1.97029 0.
-23.2134 -61.0276 0.
-62.0177 -159.289 0.
-4.54356 -11.5904 0.
5.38148 13.251 0.
13.7345 32.0896 0.
-5.28581 -33.6703 0.
-14.3163 -34.9054 0.
7.67422 18.4711 0.
-64.2858 -148.427 0.
-3.26727 -30.4069 0.
2.75937 5.35783 0.
-3.24941 -30.3984 0.
-144.618 -301.934 0.
13.7973 27.485 0.
-5.86689 -28.57 0.
-4.90988 -14.5333 0.
6.5056 12.384 0.
11.4623 21.1114 0.
12.6513 19.7332 0.
20.3759 28.6972 0.
10.8258 13.5189 0.
-3.43445 -5.32297 0.
11.7194 17.1352 0.
-1.64254 -2.06174 0.
16.1202 17.5022 0.
22.126 28.4661 0.
7.20758 8.67247 0.
-15.9858 -24.0441 0.
-10.6574 -12.8848 0.
