# vtk DataFile Version 2.0
test grain
ASCII
DATASET UNSTRUCTURED_GRID
POINTS 5000 float
0.498055 0.000663758 0.
0.500731 0.000812713 0.
0.503167 0.000879274 0.
0.505579 0.000943474 0.
0.507685 0.000954988 0.
0.509792 0.000966643 0.
0.511872 0.0009757 0.
0.513911 0.000980391 0.
0.515951 0.000985104 0.
0.517971 0.000989057 0.
0.51998 0.000992637 0.
0.52199 0.000996229 0.
0.523993 0.00099692 0.
0.525994 0.000997236 0.
0.527996 0.000997545 0.
0.529997 0.000997798 0.
0.531998 0.000998052 0.
0.533998 0.000998313 0.
0.535999 0.00099859 0.
0.537999 0.000998868 0.
0.54 0.000999027 0.
0.542 0.000999092 0.
0.544 0.000999157 0.
0.546 0.000999157 0.
0.548 0.000999139 0.
0.55 0.000999121 0.
0.552 0.000999112 0.
0.554 0.000999103 0.
0.556 0.000999107 0.
0.558 0.000999156 0.
0.56 0.000999204 0.
0.562 0.00099924 0.
0.564 0.000999259 0.
0.566 0.000999279 0.
0.568 0.000999275 0.
0.57 0.000999259 0.
0.572 0.000999242 0.
0.574 0.000999237 0.
0.576 0.000999233 0.
0.578 0.000999233 0.
0.58 0.000999259 0.
0.582 0.000999285 0.
0.584 0.000999307 0.
0.586 0.000999321 0.
0.588 0.000999336 0.
0.59 0.000999343 0.
0.592 0.000999346 0.
0.594 0.000999349 0.
0.596 0.000999324 0.
0.598 0.000999291 0.
0.6 0.000999259 0.
0.602 0.000999289 0.
0.604 0.00099932 0.
0.606 0.000999344 0.
0.608 0.000999343 0.
0.61 0.000999342 0.
0.612 0.000999334 0.
0.614 0.000999317 0.
0.616 0.000999301 0.
0.618 0.000999276 0.
0.62 0.000999247 0.
0.622 0.000999219 0.
0.624 0.000999232 0.
0.626 0.00099925 0.
0.628 0.000999266 0.
0.63 0.000999269 0.
0.632 0.000999273 0.
0.634 0.000999271 0.
0.636 0.000999259 0.
0.638 0.000999247 0.
0.64 0.000999211 0.
0.642 0.000999158 0.
0.644 0.000999104 0.
0.646 0.000999108 0.
0.648 0.000999127 0.
0.65 0.000999147 0.
0.652 0.000999149 0.
0.654 0.000999152 0.
0.656 0.000999135 0.
0.658001 0.000999051 0.
0.660001 0.000998966 0.
0.662001 0.000998725 0.
0.664002 0.000998288 0.
0.666003 0.000997851 0.
0.668004 0.000997627 0.
0.670005 0.000997509 0.
0.672007 0.000997391 0.
0.674009 0.000996403 0.
0.676011 0.000995311 0.
0.678016 0.000993814 0.
0.680035 0.000989193 0.
0.682053 0.000984595 0.
0.684086 0.000979508 0.
0.686145 0.000973454 0.
0.688204 0.000967438 0.
0.690351 0.000944478 0.
0.692548 0.000913094 0.
0.694754 0.000881902 0.
0.697439 0.000799038 0.
0.700136 0.000719889 0.
0.49651 0.00180818 0.
0.499555 0.00239218 0.
0.502228 0.00260536 0.
0.504919 0.0028162 0.
0.507225 0.00286031 0.
0.50949 0.00289669 0.
0.511695 0.0029266 0.
0.513778 0.00294079 0.
0.515862 0.00295505 0.
0.517911 0.00296698 0.
0.519941 0.00297778 0.
0.521971 0.00298861 0.
0.523978 0.00299076 0.
0.525983 0.0029917 0.
0.527987 0.00299263 0.
0.52999 0.00299339 0.
0.531993 0.00299415 0.
0.533995 0.00299494 0.
0.535997 0.00299577 0.
0.537998 0.0029966 0.
0.539999 0.00299708 0.
0.541999 0.00299728 0.
0.543999 0.00299747 0.
0.545999 0.00299747 0.
0.548 0.00299742 0.
0.55 0.00299736 0.
0.552 0.00299734 0.
0.553999 0.00299731 0.
0.555999 0.00299732 0.
0.557999 0.00299747 0.
0.56 0.00299761 0.
0.562 0.00299772 0.
0.564 0.00299778 0.
0.566 0.00299784 0.
0.568 0.00299782 0.
0.57 0.00299778 0.
0.572 0.00299773 0.
0.574 0.00299771 0.
0.576 0.0029977 0.
0.577999 0.0029977 0.
0.58 0.00299778 0.
0.582 0.00299786 0.
0.584 0.00299792 0.
0.586 0.00299796 0.
0.588 0.00299801 0.
0.59 0.00299803 0.
0.592 0.00299804 0.
0.594 0.00299805 0.
0.596 0.00299797 0.
0.598 0.00299787 0.
0.6 0.00299778 0.
0.602 0.00299787 0.
0.604 0.00299796 0.
0.606 0.00299803 0.
0.608 0.00299803 0.
0.61 0.00299803 0.
0.612 0.002998 0.
0.614 0.00299795 0.
0.616 0.0029979 0.
0.618 0.00299783 0.
0.620001 0.00299774 0.
0.622001 0.00299766 0.
0.624001 0.0029977 0.
0.626 0.00299775 0.
0.628 0.0029978 0.
0.63 0.00299781 0.
0.632001 0.00299782 0.
0.634001 0.00299781 0.
0.636001 0.00299778 0.
0.638001 0.00299774 0.
0.640001 0.00299763 0.
0.642001 0.00299747 0.
0.644001 0.00299731 0.
0.646001 0.00299732 0.
0.648001 0.00299738 0.
0.650001 0.00299744 0.
0.652001 0.00299745 0.
0.654001 0.00299746 0.
0.656001 0.00299741 0.
0.658002 0.00299715 0.
0.660002 0.0029969 0.
0.662004 0.00299617 0.
0.664006 0.00299486 0.
0.666008 0.00299355 0.
0.668011 0.00299288 0.
0.670016 0.00299253 0.
0.67202 0.00299218 0.
0.674027 0.00298919 0.
0.676034 0.0029859 0.
0.678047 0.00298131 0.
0.6801 0.00296735 0.
0.682152 0.00295345 0.
0.684232 0.00293803 0.
0.686358 0.00291966 0.
0.688483 0.0029014 0.
0.690823 0.00282017 0.
0.693236 0.00272124 0.
0.695765 0.00260231 0.
0.69867 0.00234403 0.
0.701612 0.00197455 0.
0.49482 0.00272313 0.
0.498078 0.00372964 0.
0.501164 0.00428605 0.
0.504131 0.00465082 0.
0.506726 0.00475896 0.
0.509159 0.00482207 0.
0.511514 0.00487683 0.
0.513642 0.00490068 0.
0.515771 0.00492466 0.
0.517851 0.00494466 0.
0.519901 0.00496274 0.
0.521951 0.0049809 0.
0.523964 0.00498459 0.
0.525971 0.00498617 0.
0.527978 0.00498772 0.
0.529983 0.00498899 0.
0.531988 0.00499026 0.
0.533992 0.00499156 0.
0.535994 0.00499295 0.
0.537996 0.00499434 0.
0.539998 0.00499513 0.
0.541998 0.00499546 0.
0.543999 0.00499578 0.
0.545999 0.00499579 0.
0.547999 0.0049957 0.
0.55 0.00499561 0.
0.551999 0.00499556 0.
0.553999 0.00499552 0.
0.555999 0.00499554 0.
0.557999 0.00499578 0.
0.559999 0.00499602 0.
0.561999 0.0049962 0.
0.563999 0.0049963 0.
0.566 0.0049964 0.
0.568 0.00499637 0.
0.57 0.00499629 0.
0.572 0.00499621 0.
0.574 0.00499619 0.
0.575999 0.00499617 0.
0.577999 0.00499616 0.
0.579999 0.00499629 0.
0.581999 0.00499643 0.
0.584 0.00499654 0.
0.586 0.00499661 0.
0.588 0.00499668 0.
0.59 0.00499672 0.
0.592 0.00499673 0.
0.594 0.00499674 0.
0.596 0.00499662 0.
0.598 0.00499646 0.
0.6 0.00499629 0.
0.602 0.00499645 0.
0.604 0.0049966 0.
0.606 0.00499672 0.
0.608 0.00499672 0.
0.61 0.00499671 0.
0.612001 0.00499667 0.
0.614001 0.00499659 0.
0.616001 0.0049965 0.
0.618001 0.00499638 0.
0.620001 0.00499624 0.
0.622001 0.00499609 0.
0.624001 0.00499616 0.
0.626001 0.00499625 0.
0.628 0.00499633 0.
0.630001 0.00499635 0.
0.632001 0.00499637 0.
0.634001 0.00499636 0.
0.636001 0.0049963 0.
0.638001 0.00499623 0.
0.640001 0.00499606 0.
0.642002 0.00499579 0.
0.644002 0.00499552 0.
0.646002 0.00499554 0.
0.648001 0.00499564 0.
0.650001 0.00499573 0.
0.652002 0.00499575 0.
0.654002 0.00499576 0.
0.656002 0.00499568 0.
0.658003 0.00499525 0.
0.660004 0.00499483 0.
0.662006 0.00499362 0.
0.664009 0.00499143 0.
0.666013 0.00498925 0.
0.668019 0.00498814 0.
0.670026 0.00498755 0.
0.672034 0.00498696 0.
0.674045 0.00498194 0.
0.676057 0.00497646 0.
0.67808 0.00496864 0.
0.680166 0.0049452 0.
0.682252 0.00492187 0.
0.684383 0.00489587 0.
0.686577 0.0048649 0.
0.68877 0.00483412 0.
0.691352 0.00467647 0.
0.694001 0.0045032 0.
0.696914 0.00425163 0.
0.700027 0.0038162 0.
0.703297 0.00293526 0.
0.493 0.00336021 0.
0.496515 0.00470125 0.
0.499953 0.00562127 0.
0.502962 0.00604912 0.
0.505784 0.00631313 0.
0.508338 0.00646164 0.
0.510867 0.00660745 0.
0.513121 0.00668257 0.
0.515376 0.0067597 0.
0.517561 0.00682131 0.
0.519679 0.00686551 0.
0.521798 0.00691033 0.
0.523851 0.0069324 0.
0.525892 0.00695017 0.
0.52793 0.00696684 0.
0.529944 0.00697004 0.
0.531959 0.00697324 0.
0.533971 0.00697681 0.
0.535979 0.00698118 0.
0.537986 0.00698555 0.
0.539991 0.00698838 0.
0.541994 0.00698994 0.
0.543996 0.0069915 0.
0.545997 0.00699215 0.
0.547998 0.00699255 0.
0.549999 0.00699294 0.
0.551998 0.00699292 0.
0.553998 0.00699289 0.
0.555998 0.00699295 0.
0.557998 0.0069933 0.
0.559998 0.00699364 0.
0.561999 0.00699388 0.
0.563999 0.00699401 0.
0.565999 0.00699413 0.
0.567999 0.00699412 0.
0.569999 0.00699403 0.
0.572 0.00699395 0.
0.573999 0.00699392 0.
0.575999 0.0069939 0.
0.577999 0.0069939 0.
0.579999 0.00699411 0.
0.581999 0.00699432 0.
0.583999 0.00699447 0.
0.585999 0.00699454 0.
0.587999 0.0069946 0.
0.59 0.00699464 0.
0.592 0.00699465 0.
0.594 0.00699467 0.
0.596 0.00699456 0.
0.598 0.00699442 0.
0.6 0.00699428 0.
0.602001 0.00699443 0.
0.604001 0.00699459 0.
0.606001 0.00699471 0.
0.608001 0.0069947 0.
0.610001 0.0069947 0.
0.612001 0.00699464 0.
0.614001 0.00699452 0.
0.616001 0.0069944 0.
0.618001 0.00699424 0.
0.620002 0.00699406 0.
0.622002 0.00699388 0.
0.624002 0.0069939 0.
0.626001 0.00699394 0.
0.628001 0.00699399 0.
0.630001 0.00699405 0.
0.632002 0.00699411 0.
0.634002 0.00699412 0.
0.636002 0.00699402 0.
0.638002 0.00699393 0.
0.640002 0.00699366 0.
0.642003 0.00699324 0.
0.644003 0.00699283 0.
0.646003 0.00699275 0.
0.648003 0.00699277 0.
0.650003 0.00699278 0.
0.652004 0.00699212 0.
0.654005 0.00699146 0.
0.656007 0.00699045 0.
0.658011 0.00698821 0.
0.660014 0.00698598 0.
0.662021 0.00698203 0.
0.664032 0.00697601 0.
0.666044 0.00696999 0.
0.668061 0.00696646 0.
0.670081 0.00696407 0.
0.672101 0.00696168 0.
0.674164 0.00693132 0.
0.676229 0.00689923 0.
0.678313 0.00686427 0.
0.680479 0.00681085 0.
0.682642 0.00675833 0.
0.684907 0.00667732 0.
0.687249 0.00657842 0.
0.689621 0.00646035 0.
0.692338 0.00617322 0.
0.695093 0.00589301 0.
0.698197 0.00551428 0.
0.701504 0.00492121 0.
0.705001 0.00363686 0.
0.491285 0.00384561 0.
0.495103 0.00547126 0.
0.498597 0.00668174 0.
0.501711 0.00732822 0.
0.504714 0.00779473 0.
0.507427 0.0080518 0.
0.510116 0.00830323 0.
0.512546 0.00844109 0.
0.51494 0.0085776 0.
0.517257 0.00869273 0.
0.519446 0.00876447 0.
0.521639 0.00883727 0.
0.523736 0.0088789 0.
0.52581 0.00891323 0.
0.527881 0.00894585 0.
0.529905 0.008951 0.
0.531929 0.00895615 0.
0.533949 0.00896199 0.
0.535963 0.00896936 0.
0.537976 0.00897673 0.
0.539985 0.0089816 0.
0.541989 0.0089844 0.
0.543993 0.00898721 0.
0.545995 0.00898852 0.
0.547996 0.00898939 0.
0.549998 0.00899026 0.
0.551997 0.00899027 0.
0.553997 0.00899027 0.
0.555997 0.00899037 0.
0.557997 0.00899081 0.
0.559998 0.00899125 0.
0.561998 0.00899157 0.
0.563998 0.00899171 0.
0.565998 0.00899186 0.
0.567999 0.00899186 0.
0.569999 0.00899178 0.
0.571999 0.00899169 0.
0.573999 0.00899166 0.
0.575999 0.00899163 0.
0.577998 0.00899164 0.
0.579999 0.00899192 0.
0.581999 0.00899221 0.
0.583999 0.00899241 0.
0.585999 0.00899246 0.
0.587999 0.00899252 0.
0.589999 0.00899255 0.
0.592 0.00899258 0.
0.594 0.0089926 0.
0.596 0.00899251 0.
0.598 0.00899238 0.
0.6 0.00899226 0.
0.602001 0.00899242 0.
0.604001 0.00899257 0.
0.606001 0.00899269 0.
0.608001 0.00899269 0.
0.610001 0.00899269 0.
0.612001 0.00899261 0.
0.614001 0.00899245 0.
0.616002 0.00899229 0.
0.618002 0.00899209 0.
0.620002 0.00899188 0.
0.622002 0.00899166 0.
0.624002 0.00899164 0.
0.626002 0.00899164 0.
0.628002 0.00899165 0.
0.630002 0.00899175 0.
0.632002 0.00899185 0.
0.634003 0.00899188 0.
0.636003 0.00899175 0.
0.638003 0.00899162 0.
0.640003 0.00899126 0.
0.642004 0.0089907 0.
0.644004 0.00899014 0.
0.646004 0.00898996 0.
0.648004 0.00898989 0.
0.650004 0.00898983 0.
0.652006 0.00898849 0.
0.654008 0.00898716 0.
0.656011 0.00898521 0.
0.658018 0.00898115 0.
0.660025 0.0089771 0.
0.662037 0.00897039 0.
0.664056 0.00896049 0.
0.666075 0.00895062 0.
0.668103 0.0089447 0.
0.670136 0.00894048 0.
0.672169 0.00893627 0.
0.674286 0.00887844 0.
0.676407 0.00881879 0.
0.678558 0.00875591 0.
0.680809 0.00867059 0.
0.683055 0.00858673 0.
0.685495 0.00843055 0.
0.688004 0.00825427 0.
0.690602 0.00799958 0.
0.693426 0.00757286 0.
0.696359 0.00714397 0.
0.69954 0.00661444 0.
0.702974 0.00566622 0.
0.706664 0.00421244 0.
0.489909 0.00436759 0.
0.49379 0.00619052 0.
0.497255 0.00757546 0.
0.50051 0.00854038 0.
0.503613 0.0091832 0.
0.506527 0.00959073 0.
0.509361 0.00992743 0.
0.511966 0.0101325 0.
0.51448 0.010332 0.
0.516924 0.0105165 0.
0.519178 0.0106187 0.
0.521439 0.0107237 0.
0.523588 0.010794 0.
0.5257 0.0108545 0.
0.52781 0.0109138 0.
0.529847 0.0109219 0.
0.531884 0.0109301 0.
0.533917 0.0109394 0.
0.535937 0.0109512 0.
0.537958 0.0109631 0.
0.539972 0.0109712 0.
0.54198 0.0109761 0.
0.543987 0.0109811 0.
0.545991 0.0109836 0.
0.547993 0.0109854 0.
0.549995 0.0109871 0.
0.551995 0.0109874 0.
0.553995 0.0109876 0.
0.555996 0.0109879 0.
0.557996 0.0109885 0.
0.559997 0.0109891 0.
0.561997 0.0109895 0.
0.563998 0.0109897 0.
0.565998 0.0109899 0.
0.567998 0.0109899 0.
0.569998 0.0109898 0.
0.571999 0.0109897 0.
0.573999 0.0109897 0.
0.575998 0.0109897 0.
0.577998 0.0109898 0.
0.579998 0.0109901 0.
0.581998 0.0109904 0.
0.583999 0.0109906 0.
0.585999 0.0109906 0.
0.587999 0.0109907 0.
0.589999 0.0109907 0.
0.591999 0.0109908 0.
0.594 0.0109908 0.
0.596 0.0109907 0.
0.598 0.0109907 0.
0.6 0.0109906 0.
0.602001 0.0109907 0.
0.604001 0.0109908 0.
0.606001 0.010991 0.
0.608001 0.0109909 0.
0.610001 0.0109909 0.
0.612002 0.0109908 0.
0.614002 0.0109906 0.
0.616002 0.0109905 0.
0.618002 0.0109902 0.
0.620003 0.01099 0.
0.622003 0.0109898 0.
0.624003 0.0109897 0.
0.626002 0.0109897 0.
0.628002 0.0109897 0.
0.630003 0.0109898 0.
0.632003 0.0109898 0.
0.634003 0.0109898 0.
0.636004 0.0109897 0.
0.638004 0.0109895 0.
0.640005 0.010989 0.
0.642005 0.0109882 0.
0.644006 0.0109874 0.
0.646007 0.0109869 0.
0.648007 0.0109866 0.
0.650008 0.0109862 0.
0.652011 0.0109835 0.
0.654015 0.0109809 0.
0.65602 0.0109772 0.
0.658032 0.01097 0.
0.660044 0.0109628 0.
0.662063 0.0109522 0.
0.664092 0.0109377 0.
0.66612 0.0109232 0.
0.668167 0.01091 0.
0.67022 0.0108976 0.
0.672274 0.010885 0.
0.674446 0.0107901 0.
0.676618 0.0106955 0.
0.678839 0.010598 0.
0.681168 0.0104784 0.
0.683493 0.0103619 0.
0.686097 0.0101174 0.
0.688757 0.00987037 0.
0.691559 0.00946036 0.
0.694489 0.00890908 0.
0.697599 0.00832474 0.
0.700843 0.00764233 0.
0.704321 0.00637659 0.
0.708064 0.00478831 0.
0.488932 0.00508081 0.
0.492774 0.00692363 0.
0.496263 0.0084751 0.
0.499632 0.00969179 0.
0.502819 0.0104027 0.
0.505838 0.0109364 0.
0.508716 0.0113634 0.
0.511425 0.0116733 0.
0.514 0.0119684 0.
0.516533 0.0122611 0.
0.518856 0.0124076 0.
0.521185 0.0125568 0.
0.523399 0.0126698 0.
0.525555 0.0127694 0.
0.527712 0.0128692 0.
0.529768 0.012882 0.
0.531823 0.0128944 0.
0.533872 0.0129085 0.
0.535902 0.0129264 0.
0.537932 0.0129443 0.
0.539953 0.0129569 0.
0.541965 0.012965 0.
0.543978 0.0129731 0.
0.545984 0.0129773 0.
0.547988 0.0129804 0.
0.549992 0.0129836 0.
0.551992 0.0129842 0.
0.553993 0.0129848 0.
0.555994 0.0129855 0.
0.557995 0.0129863 0.
0.559996 0.0129871 0.
0.561996 0.0129876 0.
0.563997 0.0129879 0.
0.565997 0.0129881 0.
0.567998 0.0129882 0.
0.569998 0.0129881 0.
0.571998 0.0129881 0.
0.573998 0.0129881 0.
0.575998 0.0129882 0.
0.577998 0.0129882 0.
0.579998 0.0129885 0.
0.581998 0.0129888 0.
0.583998 0.012989 0.
0.585999 0.012989 0.
0.587999 0.0129891 0.
0.589999 0.0129892 0.
0.591999 0.0129892 0.
0.594 0.0129893 0.
0.596 0.0129893 0.
0.598 0.0129892 0.
0.6 0.0129892 0.
0.602001 0.0129893 0.
0.604001 0.0129894 0.
0.606001 0.0129895 0.
0.608002 0.0129894 0.
0.610002 0.0129894 0.
0.612002 0.0129893 0.
0.614002 0.0129891 0.
0.616003 0.0129889 0.
0.618003 0.0129887 0.
0.620003 0.0129885 0.
0.622003 0.0129882 0.
0.624003 0.0129882 0.
0.626003 0.0129881 0.
0.628003 0.012988 0.
0.630003 0.0129881 0.
0.632004 0.0129881 0.
0.634004 0.012988 0.
0.636005 0.0129878 0.
0.638005 0.0129875 0.
0.640006 0.0129868 0.
0.642007 0.0129857 0.
0.644008 0.0129846 0.
0.64601 0.0129837 0.
0.648011 0.0129827 0.
0.650013 0.0129818 0.
0.652019 0.0129772 0.
0.654025 0.0129726 0.
0.656033 0.0129664 0.
0.658052 0.0129545 0.
0.660071 0.0129427 0.
0.6621 0.0129271 0.
0.664141 0.0129071 0.
0.666181 0.0128872 0.
0.668254 0.0128606 0.
0.670339 0.0128324 0.
0.672427 0.012801 0.
0.67465 0.0126575 0.
0.676871 0.0125157 0.
0.679172 0.0123677 0.
0.681584 0.0121971 0.
0.684008 0.0120133 0.
0.686673 0.0116343 0.
0.689377 0.011266 0.
0.692258 0.0107557 0.
0.69527 0.010136 0.
0.698501 0.00945221 0.
0.701819 0.00860658 0.
0.705291 0.00719059 0.
0.709016 0.00555048 0.
0.488203 0.00593833 0.
0.49196 0.00772124 0.
0.495455 0.00937312 0.
0.498835 0.0106984 0.
0.502049 0.011542 0.
0.505135 0.0122388 0.
0.508054 0.0127707 0.
0.510868 0.0131894 0.
0.513505 0.0135811 0.
0.516118 0.0139834 0.
0.518521 0.0141901 0.
0.52092 0.0143844 0.
0.523205 0.0145416 0.
0.525407 0.0146813 0.
0.527611 0.0148223 0.
0.529688 0.0148419 0.
0.531762 0.0148586 0.
0.533827 0.0148774 0.
0.535866 0.0149014 0.
0.537905 0.0149255 0.
0.539933 0.0149427 0.
0.541951 0.0149538 0.
0.543969 0.014965 0.
0.545977 0.0149711 0.
0.547982 0.0149755 0.
0.549988 0.01498 0.
0.55199 0.014981 0.
0.553991 0.0149821 0.
0.555993 0.0149831 0.
0.557994 0.0149841 0.
0.559995 0.0149851 0.
0.561996 0.0149857 0.
0.563996 0.0149861 0.
0.565997 0.0149864 0.
0.567997 0.0149865 0.
0.569998 0.0149864 0.
0.571998 0.0149864 0.
0.573998 0.0149865 0.
0.575997 0.0149866 0.
0.577997 0.0149867 0.
0.579997 0.0149869 0.
0.581998 0.0149872 0.
0.583998 0.0149873 0.
0.585998 0.0149875 0.
0.587999 0.0149876 0.
0.589999 0.0149877 0.
0.591999 0.0149877 0.
0.593999 0.0149877 0.
0.596 0.0149878 0.
0.598 0.0149878 0.
0.6 0.0149878 0.
0.602001 0.0149879 0.
0.604001 0.014988 0.
0.606001 0.014988 0.
0.608002 0.014988 0.
0.610002 0.0149879 0.
0.612002 0.0149877 0.
0.614003 0.0149875 0.
0.616003 0.0149873 0.
0.618003 0.0149871 0.
0.620004 0.0149869 0.
0.622004 0.0149867 0.
0.624004 0.0149866 0.
0.626003 0.0149865 0.
0.628003 0.0149864 0.
0.630004 0.0149864 0.
0.632004 0.0149863 0.
0.634005 0.0149862 0.
0.636006 0.0149858 0.
0.638006 0.0149855 0.
0.640008 0.0149846 0.
0.642009 0.0149832 0.
0.644011 0.0149819 0.
0.646013 0.0149804 0.
0.648016 0.0149789 0.
0.650018 0.0149774 0.
0.652026 0.0149709 0.
0.654034 0.0149644 0.
0.656047 0.0149555 0.
0.658073 0.014939 0.
0.660099 0.0149226 0.
0.662138 0.014902 0.
0.66419 0.0148765 0.
0.666243 0.014851 0.
0.668343 0.0148101 0.
0.670459 0.0147659 0.
0.672584 0.0147137 0.
0.67486 0.0145204 0.
0.677131 0.0143305 0.
0.679523 0.0141289 0.
0.682019 0.0139062 0.
0.684546 0.01363 0.
0.68726 0.0131176 0.
0.69002 0.012614 0.
0.692954 0.0120104 0.
0.696009 0.0113073 0.
0.699262 0.0105337 0.
0.702616 0.0095366 0.
0.706068 0.00805301 0.
0.70973 0.00643176 0.
0.487664 0.00692423 0.
0.491295 0.00860939 0.
0.494753 0.0102967 0.
0.498081 0.0116808 0.
0.501307 0.0126625 0.
0.504431 0.0134907 0.
0.507399 0.0141323 0.
0.510284 0.0146497 0.
0.512967 0.0151059 0.
0.515609 0.0155706 0.
0.51807 0.0158469 0.
0.520506 0.0160913 0.
0.522856 0.0163054 0.
0.525106 0.0164795 0.
0.527364 0.0166561 0.
0.529497 0.0167154 0.
0.531619 0.0167675 0.
0.533727 0.016816 0.
0.535781 0.0168462 0.
0.537837 0.0168765 0.
0.539879 0.0169015 0.
0.54191 0.0169219 0.
0.543941 0.0169425 0.
0.545956 0.0169537 0.
0.547967 0.016962 0.
0.549977 0.0169704 0.
0.551981 0.0169729 0.
0.553984 0.0169754 0.
0.555988 0.0169777 0.
0.55799 0.0169795 0.
0.559992 0.0169813 0.
0.561994 0.0169825 0.
0.563994 0.0169831 0.
0.565995 0.0169836 0.
0.567996 0.0169838 0.
0.569997 0.0169839 0.
0.571997 0.016984 0.
0.573997 0.0169841 0.
0.575997 0.0169843 0.
0.577997 0.0169844 0.
0.579997 0.0169847 0.
0.581997 0.016985 0.
0.583998 0.0169852 0.
0.585998 0.0169853 0.
0.587999 0.0169854 0.
0.589999 0.0169855 0.
0.591999 0.0169856 0.
0.593999 0.0169857 0.
0.596 0.0169857 0.
0.598 0.0169857 0.
0.6 0.0169858 0.
0.602001 0.0169858 0.
0.604001 0.0169859 0.
0.606002 0.0169859 0.
0.608002 0.0169859 0.
0.610002 0.0169858 0.
0.612003 0.0169856 0.
0.614003 0.0169854 0.
0.616004 0.0169852 0.
0.618004 0.016985 0.
0.620004 0.0169847 0.
0.622005 0.0169844 0.
0.624005 0.0169842 0.
0.626004 0.0169841 0.
0.628004 0.016984 0.
0.630005 0.0169838 0.
0.632006 0.0169836 0.
0.634007 0.0169832 0.
0.636008 0.0169824 0.
0.638009 0.0169817 0.
0.640012 0.01698 0.
0.642015 0.0169775 0.
0.644018 0.0169751 0.
0.646023 0.0169719 0.
0.648028 0.0169684 0.
0.650033 0.0169648 0.
0.652049 0.016953 0.
0.654064 0.0169412 0.
0.656087 0.0169253 0.
0.65813 0.0168971 0.
0.660172 0.0168691 0.
0.662231 0.0168388 0.
0.664305 0.0168053 0.
0.666378 0.016772 0.
0.668533 0.0166891 0.
0.670705 0.0165987 0.
0.672895 0.0164964 0.
0.67521 0.0162688 0.
0.677517 0.0160449 0.
0.67998 0.0157803 0.
0.682523 0.0155042 0.
0.685122 0.01513 0.
0.687862 0.0145357 0.
0.69067 0.0139235 0.
0.693638 0.0132439 0.
0.696719 0.0124646 0.
0.699957 0.0116124 0.
0.703278 0.0104926 0.
0.706687 0.00897951 0.
0.710259 0.00743774 0.
0.487241 0.00801502 0.
0.490744 0.00959757 0.
0.494131 0.0112594 0.
0.497386 0.012671 0.
0.500606 0.0137713 0.
0.503752 0.0146891 0.
0.506747 0.0154215 0.
0.509641 0.0160172 0.
0.512366 0.0165324 0.
0.515032 0.0170605 0.
0.517556 0.0174333 0.
0.520036 0.0177509 0.
0.522461 0.018046 0.
0.524774 0.0182598 0.
0.527098 0.0184772 0.
0.529294 0.0185793 0.
0.531468 0.0186703 0.
0.533623 0.0187534 0.
0.535695 0.01879 0.
0.537767 0.0188266 0.
0.539824 0.0188595 0.
0.541868 0.0188894 0.
0.543913 0.0189195 0.
0.545935 0.0189362 0.
0.547951 0.0189484 0.
0.549967 0.0189607 0.
0.551972 0.0189648 0.
0.553978 0.0189687 0.
0.555983 0.0189724 0.
0.557986 0.0189749 0.
0.559989 0.0189775 0.
0.561992 0.0189793 0.
0.563993 0.01898 0.
0.565994 0.0189808 0.
0.567995 0.0189812 0.
0.569996 0.0189814 0.
0.571997 0.0189816 0.
0.573996 0.0189818 0.
0.575996 0.0189819 0.
0.577996 0.0189821 0.
0.579996 0.0189824 0.
0.581997 0.0189828 0.
0.583997 0.018983 0.
0.585998 0.0189832 0.
0.587998 0.0189833 0.
0.589999 0.0189834 0.
0.591999 0.0189835 0.
0.594 0.0189836 0.
0.596 0.0189836 0.
0.598 0.0189837 0.
0.6 0.0189837 0.
0.602001 0.0189838 0.
0.604002 0.0189838 0.
0.606002 0.0189839 0.
0.608002 0.0189837 0.
0.610003 0.0189836 0.
0.612003 0.0189835 0.
0.614004 0.0189833 0.
0.616004 0.0189831 0.
0.618005 0.0189828 0.
0.620005 0.0189825 0.
0.622006 0.0189821 0.
0.624006 0.0189819 0.
0.626005 0.0189817 0.
0.628005 0.0189815 0.
0.630006 0.0189812 0.
0.632007 0.0189808 0.
0.634008 0.0189801 0.
0.63601 0.018979 0.
0.638012 0.0189779 0.
0.640015 0.0189754 0.
0.64202 0.0189718 0.
0.644024 0.0189683 0.
0.646032 0.0189632 0.
0.64804 0.0189578 0.
0.650049 0.0189521 0.
0.652072 0.0189349 0.
0.654095 0.0189177 0.
0.656127 0.0188945 0.
0.658187 0.0188542 0.
0.660247 0.0188143 0.
0.662327 0.0187741 0.
0.664424 0.0187321 0.
0.666521 0.0186903 0.
0.668737 0.0185575 0.
0.67097 0.0184162 0.
0.67323 0.0182613 0.
0.675595 0.0179929 0.
0.677954 0.0177279 0.
0.680489 0.0173704 0.
0.683069 0.0170126 0.
0.685727 0.0165205 0.
0.688485 0.0158692 0.
0.69133 0.015188 0.
0.69431 0.014453 0.
0.697392 0.0136104 0.
0.700602 0.01269 0.
0.703875 0.011484 0.
0.707207 0.00998971 0.
0.710661 0.00853102 0.
0.486892 0.00921173 0.
0.49027 0.0106588 0.
0.493567 0.0122588 0.
0.496773 0.0136884 0.
0.499968 0.0148744 0.
0.503099 0.0158384 0.
0.506099 0.0166734 0.
0.509002 0.0173564 0.
0.511773 0.0179471 0.
0.514462 0.0185366 0.
0.517049 0.0189989 0.
0.519575 0.0193879 0.
0.52207 0.0197721 0.
0.524445 0.0200168 0.
0.526827 0.0202658 0.
0.529083 0.0204141 0.
0.531302 0.0205495 0.
0.533502 0.0206763 0.
0.535593 0.0207198 0.
0.537684 0.0207636 0.
0.539759 0.0208053 0.
0.541816 0.0208465 0.
0.543874 0.0208881 0.
0.545905 0.0209119 0.
0.547928 0.0209295 0.
0.549951 0.0209472 0.
0.55196 0.0209536 0.
0.553968 0.0209597 0.
0.555976 0.0209654 0.
0.55798 0.0209691 0.
0.559985 0.0209727 0.
0.561988 0.0209753 0.
0.56399 0.0209765 0.
0.565992 0.0209777 0.
0.567994 0.0209785 0.
0.569995 0.0209789 0.
0.571996 0.0209794 0.
0.573996 0.0209796 0.
0.575995 0.0209798 0.
0.577995 0.02098 0.
0.579996 0.0209804 0.
0.581997 0.0209808 0.
0.583997 0.0209811 0.
0.585998 0.0209812 0.
0.587998 0.0209814 0.
0.589999 0.0209815 0.
0.591999 0.0209817 0.
0.594 0.0209818 0.
0.596 0.0209818 0.
0.598 0.0209819 0.
0.6 0.020982 0.
0.602001 0.020982 0.
0.604002 0.020982 0.
0.606002 0.020982 0.
0.608003 0.0209819 0.
0.610003 0.0209817 0.
0.612004 0.0209816 0.
0.614004 0.0209814 0.
0.616005 0.0209812 0.
0.618005 0.0209808 0.
0.620006 0.0209804 0.
0.622006 0.02098 0.
0.624006 0.0209798 0.
0.626006 0.0209795 0.
0.628006 0.0209792 0.
0.630008 0.0209785 0.
0.632009 0.0209777 0.
0.634011 0.0209766 0.
0.636014 0.0209748 0.
0.638016 0.020973 0.
0.640021 0.0209694 0.
0.642028 0.0209645 0.
0.644034 0.0209595 0.
0.646045 0.0209516 0.
0.648058 0.020943 0.
0.65007 0.020934 0.
0.652103 0.0209097 0.
0.654136 0.0208854 0.
0.656181 0.0208532 0.
0.658257 0.0207998 0.
0.660333 0.0207468 0.
0.662436 0.0206938 0.
0.664559 0.0206397 0.
0.666681 0.0205864 0.
0.668952 0.0203975 0.
0.671236 0.0202038 0.
0.673558 0.0199997 0.
0.675972 0.0197006 0.
0.678393 0.01939 0.
0.680988 0.0189376 0.
0.683609 0.0184967 0.
0.686323 0.0178986 0.
0.689097 0.0171899 0.
0.691966 0.0164358 0.
0.694937 0.0156384 0.
0.698015 0.0147428 0.
0.701188 0.0137623 0.
0.704406 0.0125133 0.
0.70767 0.0110713 0.
0.711019 0.00969506 0.
0.486621 0.0105019 0.
0.489884 0.0118068 0.
0.493109 0.0133332 0.
0.496279 0.0147657 0.
0.499446 0.015999 0.
0.50254 0.0170063 0.
0.505545 0.0179318 0.
0.508455 0.0186864 0.
0.511274 0.0193461 0.
0.513991 0.019979 0.
0.516628 0.0205098 0.
0.519192 0.0209414 0.
0.521732 0.0213695 0.
0.524143 0.0216714 0.
0.526555 0.0219801 0.
0.528857 0.0221956 0.
0.531111 0.0223902 0.
0.533353 0.0225774 0.
0.535468 0.0226302 0.
0.537584 0.0226832 0.
0.53968 0.022736 0.
0.541751 0.0227912 0.
0.543822 0.0228468 0.
0.545865 0.02288 0.
0.547898 0.0229047 0.
0.549931 0.0229296 0.
0.551943 0.0229391 0.
0.553955 0.0229483 0.
0.555966 0.0229567 0.
0.557972 0.0229618 0.
0.559979 0.0229669 0.
0.561984 0.0229706 0.
0.563987 0.0229725 0.
0.56599 0.0229744 0.
0.567992 0.0229756 0.
0.569993 0.0229764 0.
0.571995 0.0229773 0.
0.573995 0.0229776 0.
0.575995 0.0229779 0.
0.577995 0.0229782 0.
0.579995 0.0229785 0.
0.581996 0.0229789 0.
0.583997 0.0229792 0.
0.585997 0.0229794 0.
0.587998 0.0229797 0.
0.589999 0.0229799 0.
0.591999 0.02298 0.
0.594 0.0229802 0.
0.596 0.0229803 0.
0.598 0.0229804 0.
0.6 0.0229805 0.
0.602001 0.0229805 0.
0.604002 0.0229804 0.
0.606002 0.0229804 0.
0.608003 0.0229802 0.
0.610003 0.0229801 0.
0.612004 0.0229799 0.
0.614004 0.0229796 0.
0.616005 0.0229794 0.
0.618006 0.022979 0.
0.620007 0.0229786 0.
0.622007 0.0229782 0.
0.624008 0.0229778 0.
0.626008 0.0229774 0.
0.628008 0.0229769 0.
0.63001 0.0229757 0.
0.632012 0.0229744 0.
0.634014 0.0229726 0.
0.636018 0.0229698 0.
0.638022 0.022967 0.
0.640029 0.022962 0.
0.642038 0.0229553 0.
0.644048 0.0229487 0.
0.646063 0.0229368 0.
0.64808 0.0229237 0.
0.650099 0.0229099 0.
0.652145 0.0228764 0.
0.65419 0.0228431 0.
0.656249 0.0227996 0.
0.658341 0.0227311 0.
0.660433 0.0226631 0.
0.662564 0.0225908 0.
0.664721 0.0225155 0.
0.666879 0.0224377 0.
0.669185 0.0221821 0.
0.671498 0.0219254 0.
0.673865 0.0216544 0.
0.676316 0.021306 0.
0.678784 0.0209395 0.
0.681406 0.0204375 0.
0.68406 0.0199344 0.
0.686813 0.0192649 0.
0.689619 0.0185049 0.
0.692502 0.0176929 0.
0.695463 0.0168403 0.
0.698522 0.0159048 0.
0.701666 0.0148777 0.
0.704842 0.0136069 0.
0.708047 0.0122273 0.
0.711321 0.0109582 0.
0.486461 0.0118856 0.
0.489603 0.0130508 0.
0.492748 0.0144846 0.
0.495889 0.0158961 0.
0.499006 0.0171497 0.
0.502064 0.0181954 0.
0.505049 0.0191809 0.
0.507964 0.0199895 0.
0.510811 0.0207095 0.
0.51354 0.0213887 0.
0.51621 0.0219911 0.
0.518807 0.0224713 0.
0.521385 0.0229514 0.
0.523836 0.0233162 0.
0.526278 0.023685 0.
0.528627 0.0239705 0.
0.530916 0.0242249 0.
0.533201 0.0244766 0.
0.535342 0.02454 0.
0.537483 0.0246024 0.
0.539601 0.0246661 0.
0.541685 0.0247354 0.
0.54377 0.0248051 0.
0.545825 0.024848 0.
0.547867 0.0248798 0.
0.54991 0.0249118 0.
0.551926 0.0249246 0.
0.553942 0.0249369 0.
0.555956 0.024948 0.
0.557965 0.0249545 0.
0.559973 0.0249611 0.
0.56198 0.0249659 0.
0.563984 0.0249684 0.
0.565988 0.024971 0.
0.56799 0.0249727 0.
0.569992 0.024974 0.
0.571993 0.0249752 0.
0.573994 0.0249757 0.
0.575994 0.024976 0.
0.577994 0.0249763 0.
0.579995 0.0249767 0.
0.581996 0.024977 0.
0.583997 0.0249774 0.
0.585997 0.0249777 0.
0.587998 0.024978 0.
0.589999 0.0249782 0.
0.591999 0.0249784 0.
0.594 0.0249786 0.
0.596 0.0249788 0.
0.598 0.0249789 0.
0.6 0.024979 0.
0.602001 0.0249789 0.
0.604002 0.0249789 0.
0.606002 0.0249788 0.
0.608003 0.0249786 0.
0.610003 0.0249784 0.
0.612004 0.0249782 0.
0.614005 0.0249778 0.
0.616006 0.0249775 0.
0.618006 0.0249771 0.
0.620007 0.0249767 0.
0.622008 0.0249763 0.
0.624009 0.0249758 0.
0.626009 0.0249753 0.
0.62801 0.0249746 0.
0.630012 0.0249729 0.
0.632014 0.0249711 0.
0.634017 0.0249686 0.
0.636023 0.0249648 0.
0.638028 0.0249609 0.
0.640037 0.0249545 0.
0.642049 0.0249461 0.
0.644061 0.0249378 0.
0.646081 0.0249219 0.
0.648103 0.0249042 0.
0.650127 0.0248856 0.
0.652186 0.024843 0.
0.654245 0.0248006 0.
0.656319 0.0247455 0.
0.658426 0.0246618 0.
0.660533 0.0245788 0.
0.662695 0.0244859 0.
0.664886 0.0243892 0.
0.667083 0.0242826 0.
0.669422 0.0239598 0.
0.671763 0.0236395 0.
0.67418 0.0233005 0.
0.676669 0.022898 0.
0.679185 0.0224585 0.
0.681827 0.0218941 0.
0.684505 0.0213209 0.
0.687265 0.0206055 0.
0.690082 0.0198069 0.
0.692976 0.0189488 0.
0.695929 0.0180569 0.
0.698952 0.0170951 0.
0.702045 0.016037 0.
0.705182 0.0147701 0.
0.708332 0.0134521 0.
0.711521 0.0122922 0.
0.486413 0.013368 0.
0.48944 0.0143951 0.
0.492514 0.015728 0.
0.495589 0.0170894 0.
0.498638 0.0183421 0.
0.501655 0.0194155 0.
0.504622 0.0204309 0.
0.507516 0.0212834 0.
0.510357 0.0220624 0.
0.513098 0.0227913 0.
0.515791 0.0234569 0.
0.518417 0.0239924 0.
0.521022 0.0245129 0.
0.523506 0.0249273 0.
0.525961 0.0253428 0.
0.528344 0.0256898 0.
0.530652 0.025984 0.
0.532959 0.0262772 0.
0.535141 0.0263772 0.
0.53732 0.0264712 0.
0.539472 0.0265617 0.
0.541575 0.0266428 0.
0.543678 0.0267244 0.
0.54575 0.0267812 0.
0.547808 0.0268272 0.
0.549867 0.0268737 0.
0.551892 0.0268939 0.
0.553915 0.026913 0.
0.555935 0.0269301 0.
0.557948 0.0269394 0.
0.559961 0.0269487 0.
0.561971 0.0269559 0.
0.563977 0.0269602 0.
0.565983 0.0269645 0.
0.567986 0.0269673 0.
0.569989 0.0269695 0.
0.571991 0.0269716 0.
0.573992 0.0269723 0.
0.575992 0.0269729 0.
0.577993 0.0269735 0.
0.579994 0.026974 0.
0.581995 0.0269745 0.
0.583996 0.026975 0.
0.585997 0.0269753 0.
0.587998 0.0269756 0.
0.589998 0.026976 0.
0.591999 0.0269763 0.
0.594 0.0269766 0.
0.596 0.0269767 0.
0.598 0.0269769 0.
0.600001 0.026977 0.
0.602001 0.0269769 0.
0.604002 0.0269768 0.
0.606003 0.0269767 0.
0.608003 0.0269764 0.
0.610004 0.0269761 0.
0.612005 0.0269758 0.
0.614005 0.0269755 0.
0.616006 0.0269751 0.
0.618007 0.0269745 0.
0.620009 0.0269739 0.
0.62201 0.0269733 0.
0.624011 0.0269724 0.
0.626012 0.0269715 0.
0.628013 0.0269703 0.
0.630016 0.0269674 0.
0.63202 0.0269645 0.
0.634025 0.0269605 0.
0.636033 0.0269543 0.
0.638041 0.0269482 0.
0.640054 0.0269386 0.
0.642071 0.0269265 0.
0.644089 0.0269143 0.
0.646118 0.0268906 0.
0.648149 0.0268642 0.
0.650184 0.026836 0.
0.652263 0.0267757 0.
0.654341 0.0267161 0.
0.656437 0.0266444 0.
0.658568 0.026547 0.
0.660697 0.0264505 0.
0.662892 0.0263236 0.
0.665114 0.0261899 0.
0.667352 0.0260367 0.
0.669711 0.0256734 0.
0.672069 0.0253117 0.
0.674525 0.0249157 0.
0.67704 0.0244688 0.
0.679593 0.0239606 0.
0.682248 0.0233423 0.
0.68494 0.0227029 0.
0.687699 0.0219408 0.
0.690508 0.0211061 0.
0.693386 0.0202197 0.
0.696317 0.0192986 0.
0.699311 0.0183214 0.
0.702347 0.0172482 0.
0.705413 0.0160138 0.
0.70849 0.014778 0.
0.711574 0.0137268 0.
0.486451 0.0149218 0.
0.489358 0.0158297 0.
0.492335 0.0170413 0.
0.495332 0.0183371 0.
0.498332 0.0195746 0.
0.501309 0.0206644 0.
0.504235 0.0216911 0.
0.507102 0.022587 0.
0.509929 0.0234148 0.
0.512675 0.0241831 0.
0.515377 0.0248888 0.
0.518014 0.0254657 0.
0.520625 0.0260191 0.
0.523133 0.0264891 0.
0.525605 0.0269578 0.
0.528024 0.0273741 0.
0.530356 0.0277092 0.
0.532688 0.0280457 0.
0.534919 0.028194 0.
0.537141 0.028328 0.
0.539336 0.028453 0.
0.541458 0.0285465 0.
0.543581 0.0286404 0.
0.545672 0.0287117 0.
0.547748 0.0287729 0.
0.549824 0.0288345 0.
0.551857 0.0288626 0.
0.553887 0.0288886 0.
0.555914 0.028912 0.
0.557931 0.0289241 0.
0.559948 0.0289362 0.
0.561961 0.0289457 0.
0.563969 0.0289518 0.
0.565977 0.0289579 0.
0.567982 0.028962 0.
0.569986 0.0289649 0.
0.571989 0.0289679 0.
0.57399 0.028969 0.
0.575991 0.0289698 0.
0.577992 0.0289707 0.
0.579993 0.0289713 0.
0.581994 0.028972 0.
0.583996 0.0289726 0.
0.585996 0.0289729 0.
0.587997 0.0289733 0.
0.589998 0.0289737 0.
0.591999 0.0289741 0.
0.594 0.0289745 0.
0.596 0.0289747 0.
0.598 0.0289749 0.
0.600001 0.0289751 0.
0.602001 0.0289749 0.
0.604002 0.0289748 0.
0.606003 0.0289746 0.
0.608003 0.0289742 0.
0.610004 0.0289739 0.
0.612005 0.0289735 0.
0.614006 0.0289731 0.
0.616007 0.0289727 0.
0.618008 0.0289719 0.
0.62001 0.0289711 0.
0.622011 0.0289702 0.
0.624013 0.028969 0.
0.626014 0.0289676 0.
0.628016 0.028966 0.
0.630021 0.0289619 0.
0.632025 0.0289578 0.
0.634032 0.0289522 0.
0.636043 0.0289438 0.
0.638054 0.0289354 0.
0.640071 0.0289226 0.
0.642094 0.0289065 0.
0.644117 0.0288905 0.
0.646155 0.0288586 0.
0.648196 0.0288232 0.
0.650242 0.0287846 0.
0.652342 0.0287056 0.
0.654442 0.0286274 0.
0.656563 0.0285378 0.
0.65872 0.0284253 0.
0.660876 0.0283136 0.
0.663108 0.0281438 0.
0.665365 0.0279651 0.
0.667647 0.0277558 0.
0.670032 0.0273505 0.
0.672416 0.0269482 0.
0.674905 0.0264854 0.
0.677431 0.0259898 0.
0.680009 0.0254196 0.
0.68267 0.0247651 0.
0.685366 0.0240751 0.
0.688112 0.0232794 0.
0.690906 0.0224174 0.
0.69376 0.0215118 0.
0.696655 0.0205755 0.
0.699602 0.0195865 0.
0.702585 0.0185093 0.
0.705582 0.0173224 0.
0.70856 0.0161919 0.
0.711522 0.0152594 0.
0.486519 0.0165305 0.
0.489309 0.0173186 0.
0.492195 0.0184115 0.
0.495129 0.0196352 0.
0.498072 0.0208474 0.
0.500995 0.0219373 0.
0.503885 0.022971 0.
0.50673 0.0239023 0.
0.509532 0.0247637 0.
0.512275 0.025556 0.
0.514972 0.0262897 0.
0.517614 0.02692 0.
0.520229 0.0275165 0.
0.522764 0.0280414 0.
0.525254 0.0285624 0.
0.52771 0.0290523 0.
0.530065 0.0294269 0.
0.532424 0.0298021 0.
0.534701 0.0299962 0.
0.536964 0.0301701 0.
0.539198 0.0303343 0.
0.541337 0.0304388 0.
0.543478 0.0305439 0.
0.545588 0.0306299 0.
0.547679 0.0307079 0.
0.549772 0.0307868 0.
0.551814 0.0308243 0.
0.553853 0.0308584 0.
0.555888 0.0308892 0.
0.55791 0.0309048 0.
0.559932 0.0309204 0.
0.561949 0.0309329 0.
0.56396 0.0309413 0.
0.56597 0.0309498 0.
0.567977 0.0309554 0.
0.569981 0.0309595 0.
0.571986 0.0309636 0.
0.573987 0.0309652 0.
0.575989 0.0309665 0.
0.577991 0.0309677 0.
0.579992 0.0309686 0.
0.581994 0.0309695 0.
0.583995 0.0309702 0.
0.585996 0.0309707 0.
0.587997 0.0309711 0.
0.589998 0.0309716 0.
0.591999 0.0309721 0.
0.594 0.0309726 0.
0.596 0.0309729 0.
0.598 0.0309731 0.
0.600001 0.0309734 0.
0.602001 0.0309731 0.
0.604002 0.0309729 0.
0.606003 0.0309726 0.
0.608004 0.0309722 0.
0.610005 0.0309717 0.
0.612006 0.0309712 0.
0.614007 0.0309707 0.
0.616008 0.0309702 0.
0.61801 0.0309692 0.
0.620011 0.0309681 0.
0.622013 0.0309669 0.
0.624016 0.030965 0.
0.626018 0.0309631 0.
0.628021 0.0309608 0.
0.630027 0.0309552 0.
0.632033 0.0309495 0.
0.634042 0.0309419 0.
0.636056 0.0309304 0.
0.638071 0.030919 0.
0.640094 0.0309022 0.
0.642123 0.0308816 0.
0.644152 0.0308611 0.
0.6462 0.0308195 0.
0.648252 0.030774 0.
0.65031 0.0307232 0.
0.652429 0.0306236 0.
0.654546 0.0305255 0.
0.656691 0.0304181 0.
0.658873 0.030292 0.
0.661053 0.0301674 0.
0.663321 0.0299519 0.
0.66561 0.0297285 0.
0.667935 0.0294657 0.
0.670349 0.0290212 0.
0.672763 0.0285763 0.
0.67528 0.0280453 0.
0.677818 0.0274968 0.
0.680413 0.0268638 0.
0.683071 0.0261744 0.
0.685768 0.0254405 0.
0.688507 0.0246205 0.
0.691278 0.0237376 0.
0.6941 0.0228202 0.
0.696961 0.0218734 0.
0.699859 0.0208845 0.
0.702784 0.0198125 0.
0.705713 0.0186803 0.
0.708599 0.0176568 0.
0.711437 0.016843 0.
0.486584 0.0181812 0.
0.48928 0.0188618 0.
0.492088 0.019845 0.
0.494961 0.0209913 0.
0.497848 0.0221619 0.
0.500734 0.0232477 0.
0.503593 0.0242847 0.
0.506408 0.025242 0.
0.509186 0.0261255 0.
0.511916 0.0269403 0.
0.514607 0.0277007 0.
0.517255 0.0283757 0.
0.51988 0.0290082 0.
0.522444 0.0295814 0.
0.524956 0.0301444 0.
0.527436 0.0306808 0.
0.529817 0.0310852 0.
0.532202 0.0314883 0.
0.534507 0.0317381 0.
0.536791 0.0319696 0.
0.539052 0.0321905 0.
0.541208 0.0323075 0.
0.543365 0.0324253 0.
0.545492 0.0325287 0.
0.5476 0.0326276 0.
0.549709 0.0327279 0.
0.551763 0.0327771 0.
0.553811 0.032821 0.
0.555857 0.0328609 0.
0.557884 0.0328808 0.
0.559912 0.0329008 0.
0.561933 0.0329172 0.
0.563947 0.0329285 0.
0.565961 0.0329398 0.
0.567969 0.0329474 0.
0.569975 0.032953 0.
0.571981 0.0329587 0.
0.573984 0.032961 0.
0.575986 0.0329628 0.
0.577989 0.0329646 0.
0.579991 0.0329658 0.
0.581992 0.0329669 0.
0.583994 0.0329679 0.
0.585995 0.0329685 0.
0.587997 0.0329691 0.
0.589998 0.0329697 0.
0.591999 0.0329703 0.
0.593999 0.0329709 0.
0.596 0.0329713 0.
0.598 0.0329716 0.
0.600001 0.0329719 0.
0.602001 0.0329716 0.
0.604002 0.0329713 0.
0.606003 0.0329709 0.
0.608004 0.0329703 0.
0.610005 0.0329697 0.
0.612006 0.032969 0.
0.614008 0.0329683 0.
0.616009 0.0329676 0.
0.618011 0.0329663 0.
0.620013 0.0329648 0.
0.622016 0.0329633 0.
0.624019 0.0329606 0.
0.626022 0.0329578 0.
0.628026 0.0329545 0.
0.630034 0.032947 0.
0.632042 0.0329395 0.
0.634054 0.0329292 0.
0.636073 0.0329139 0.
0.638092 0.0328987 0.
0.640121 0.032877 0.
0.642158 0.0328508 0.
0.644194 0.0328247 0.
0.646255 0.0327715 0.
0.64832 0.0327136 0.
0.650393 0.0326475 0.
0.652526 0.0325231 0.
0.654658 0.0324005 0.
0.656822 0.0322712 0.
0.659023 0.0321276 0.
0.661221 0.0319848 0.
0.663524 0.0317108 0.
0.665839 0.0314326 0.
0.668192 0.0311134 0.
0.670622 0.0306427 0.
0.673061 0.0301685 0.
0.675595 0.0295938 0.
0.678153 0.0289948 0.
0.680769 0.0283121 0.
0.683427 0.0275915 0.
0.68612 0.0268208 0.
0.688845 0.0259822 0.
0.691608 0.0250861 0.
0.694404 0.0241591 0.
0.697222 0.0232054 0.
0.700075 0.0222194 0.
0.702949 0.0211686 0.
0.705817 0.0200955 0.
0.708629 0.0191708 0.
0.711368 0.0184639 0.
0.486692 0.0198782 0.
0.489314 0.020469 0.
0.492046 0.0213441 0.
0.494852 0.0224026 0.
0.497687 0.0235246 0.
0.500524 0.0245994 0.
0.503344 0.0256361 0.
0.506125 0.0266041 0.
0.508875 0.0275033 0.
0.511596 0.0283389 0.
0.514283 0.0291191 0.
0.516936 0.0298297 0.
0.519562 0.0304911 0.
0.522139 0.0310996 0.
0.524658 0.0316963 0.
0.527152 0.0322781 0.
0.529563 0.0327283 0.
0.531977 0.0331687 0.
0.534312 0.0334735 0.
0.536616 0.0337629 0.
0.538905 0.034046 0.
0.541077 0.0341757 0.
0.54325 0.0343062 0.
0.545396 0.0344263 0.
0.54752 0.0345464 0.
0.549645 0.0346681 0.
0.551711 0.0347297 0.
0.55377 0.0347834 0.
0.555825 0.0348324 0.
0.557858 0.0348568 0.
0.559891 0.0348812 0.
0.561918 0.0349014 0.
0.563935 0.0349156 0.
0.565951 0.0349298 0.
0.567962 0.0349395 0.
0.56997 0.0349466 0.
0.571977 0.0349537 0.
0.573981 0.0349567 0.
0.575984 0.0349592 0.
0.577987 0.0349616 0.
0.579989 0.034963 0.
0.581991 0.0349644 0.
0.583993 0.0349655 0.
0.585995 0.0349663 0.
0.587996 0.034967 0.
0.589997 0.0349677 0.
0.591998 0.0349685 0.
0.593999 0.0349692 0.
0.596 0.0349696 0.
0.598 0.03497 0.
0.600001 0.0349704 0.
0.602002 0.03497 0.
0.604002 0.0349696 0.
0.606003 0.0349692 0.
0.608004 0.0349684 0.
0.610005 0.0349676 0.
0.612007 0.0349668 0.
0.614008 0.0349659 0.
0.61601 0.034965 0.
0.618012 0.0349634 0.
0.620015 0.0349615 0.
0.622018 0.0349596 0.
0.624023 0.0349562 0.
0.626027 0.0349526 0.
0.628032 0.0349482 0.
0.630042 0.0349388 0.
0.632052 0.0349294 0.
0.634067 0.0349165 0.
0.63609 0.0348974 0.
0.638114 0.0348783 0.
0.640149 0.0348516 0.
0.642193 0.0348199 0.
0.644236 0.0347883 0.
0.64631 0.0347232 0.
0.648388 0.0346528 0.
0.650476 0.0345707 0.
0.652623 0.0344212 0.
0.65477 0.0342739 0.
0.656955 0.034123 0.
0.659174 0.0339619 0.
0.661393 0.0337982 0.
0.663729 0.0334637 0.
0.666073 0.0331288 0.
0.668455 0.0327501 0.
0.670903 0.0322406 0.
0.673364 0.0317207 0.
0.675902 0.0311057 0.
0.678463 0.0304726 0.
0.681084 0.0297633 0.
0.683741 0.0290162 0.
0.686428 0.0282176 0.
0.689139 0.0273633 0.
0.691879 0.0264588 0.
0.694646 0.0255296 0.
0.697436 0.0245758 0.
0.700243 0.0235974 0.
0.70306 0.022576 0.
0.705866 0.0215718 0.
0.708607 0.0207405 0.
0.711265 0.0201297 0.
0.486869 0.02161 0.
0.489418 0.0221263 0.
0.492072 0.022903 0.
0.494811 0.0238748 0.
0.497586 0.0249442 0.
0.500374 0.0259973 0.
0.503148 0.0270218 0.
0.505895 0.0279943 0.
0.508621 0.0289049 0.
0.511328 0.0297574 0.
0.514005 0.030551 0.
0.516649 0.0312891 0.
0.519261 0.0319745 0.
0.52184 0.0326169 0.
0.524365 0.0332472 0.
0.526867 0.0338695 0.
0.529302 0.0343609 0.
0.531735 0.0348306 0.
0.534095 0.0351848 0.
0.536412 0.0355231 0.
0.53872 0.0358577 0.
0.540911 0.0360043 0.
0.543103 0.0361513 0.
0.545268 0.0362911 0.
0.547407 0.0364307 0.
0.549548 0.0365718 0.
0.551631 0.0366517 0.
0.553705 0.0367218 0.
0.555776 0.0367866 0.
0.557816 0.0368164 0.
0.559856 0.0368462 0.
0.561889 0.036872 0.
0.563912 0.0368918 0.
0.565935 0.0369117 0.
0.567949 0.036925 0.
0.569959 0.0369347 0.
0.571969 0.0369444 0.
0.573975 0.0369489 0.
0.575979 0.0369527 0.
0.577983 0.0369563 0.
0.579986 0.0369583 0.
0.581989 0.0369604 0.
0.583992 0.0369621 0.
0.585994 0.0369631 0.
0.587995 0.0369642 0.
0.589997 0.0369651 0.
0.591998 0.036966 0.
0.593999 0.0369669 0.
0.596 0.0369675 0.
0.598 0.0369679 0.
0.600001 0.0369684 0.
0.602002 0.0369679 0.
0.604003 0.0369674 0.
0.606004 0.0369668 0.
0.608005 0.0369658 0.
0.610006 0.0369648 0.
0.612008 0.0369636 0.
0.61401 0.0369623 0.
0.616012 0.0369609 0.
0.618015 0.0369586 0.
0.620019 0.0369559 0.
0.622023 0.0369531 0.
0.624029 0.0369481 0.
0.626035 0.0369428 0.
0.628042 0.0369366 0.
0.630056 0.0369236 0.
0.63207 0.0369106 0.
0.63409 0.0368927 0.
0.636121 0.0368663 0.
0.638152 0.03684 0.
0.640196 0.036807 0.
0.642247 0.0367696 0.
0.644298 0.0367323 0.
0.64639 0.0366465 0.
0.648487 0.0365552 0.
0.650594 0.0364514 0.
0.652756 0.0362843 0.
0.654916 0.0361186 0.
0.657121 0.0359419 0.
0.659357 0.0357572 0.
0.661598 0.0355663 0.
0.663955 0.0351882 0.
0.66632 0.0348086 0.
0.668726 0.0343742 0.
0.671185 0.0338317 0.
0.673663 0.0332706 0.
0.676201 0.0326166 0.
0.678762 0.0319447 0.
0.681373 0.0312148 0.
0.684012 0.030453 0.
0.686681 0.0296359 0.
0.689377 0.0287699 0.
0.692095 0.0278608 0.
0.694829 0.0269323 0.
0.697578 0.0259878 0.
0.700343 0.0250252 0.
0.703107 0.0240398 0.
0.705848 0.0231037 0.
0.708519 0.0223606 0.
0.711102 0.0218344 0.
0.487087 0.0233641 0.
0.489573 0.0238222 0.
0.492153 0.0245177 0.
0.494823 0.025414 0.
0.497537 0.0264184 0.
0.50027 0.0274353 0.
0.502997 0.028443 0.
0.505713 0.0294163 0.
0.508419 0.0303331 0.
0.511104 0.0311929 0.
0.513758 0.0319958 0.
0.516386 0.0327546 0.
0.518984 0.0334611 0.
0.521554 0.0341328 0.
0.524078 0.0347855 0.
0.526582 0.0354279 0.
0.529025 0.0359586 0.
0.53146 0.0364625 0.
0.53384 0.0368668 0.
0.536175 0.037249 0.
0.538504 0.0376317 0.
0.540724 0.0378106 0.
0.542941 0.0379829 0.
0.545131 0.0381478 0.
0.547287 0.0383077 0.
0.549445 0.0384694 0.
0.551547 0.0385694 0.
0.553638 0.0386575 0.
0.555725 0.0387396 0.
0.557772 0.038775 0.
0.559819 0.0388104 0.
0.561859 0.0388419 0.
0.563889 0.0388676 0.
0.565918 0.0388933 0.
0.567936 0.0389104 0.
0.569949 0.0389227 0.
0.571962 0.0389349 0.
0.573969 0.0389409 0.
0.575974 0.0389461 0.
0.57798 0.0389509 0.
0.579984 0.0389536 0.
0.581987 0.0389563 0.
0.58399 0.0389586 0.
0.585993 0.0389599 0.
0.587995 0.0389613 0.
0.589996 0.0389625 0.
0.591998 0.0389635 0.
0.593999 0.0389646 0.
0.596 0.0389653 0.
0.598 0.0389658 0.
0.600001 0.0389664 0.
0.602002 0.0389658 0.
0.604003 0.0389651 0.
0.606004 0.0389644 0.
0.608005 0.0389632 0.
0.610007 0.0389619 0.
0.612009 0.0389604 0.
0.614011 0.0389586 0.
0.616014 0.0389568 0.
0.618018 0.0389538 0.
0.620023 0.0389502 0.
0.622028 0.0389466 0.
0.624036 0.03894 0.
0.626043 0.038933 0.
0.628053 0.0389248 0.
0.63007 0.0389081 0.
0.632088 0.0388915 0.
0.634113 0.0388685 0.
0.636153 0.0388345 0.
0.638192 0.0388006 0.
0.640243 0.0387611 0.
0.642303 0.0387178 0.
0.644362 0.0386747 0.
0.646475 0.0385656 0.
0.648592 0.0384508 0.
0.650721 0.0383232 0.
0.652901 0.0381381 0.
0.655078 0.0379546 0.
0.657308 0.037743 0.
0.659567 0.0375217 0.
0.661836 0.037287 0.
0.664204 0.0368675 0.
0.666578 0.0364495 0.
0.669001 0.0359727 0.
0.671465 0.0354032 0.
0.673951 0.034805 0.
0.676487 0.0341242 0.
0.679043 0.0334226 0.
0.68164 0.0326757 0.
0.684259 0.0319015 0.
0.686903 0.0310755 0.
0.689569 0.0302049 0.
0.692258 0.0292958 0.
0.694961 0.0283712 0.
0.697673 0.0274375 0.
0.70039 0.0264995 0.
0.703097 0.0255619 0.
0.705776 0.0246948 0.
0.708379 0.0240253 0.
0.710895 0.0235684 0.
0.487311 0.0251375 0.
0.489739 0.0255487 0.
0.492254 0.026174 0.
0.494856 0.0269924 0.
0.497509 0.0279293 0.
0.500191 0.0289072 0.
0.502885 0.0298963 0.
0.505572 0.0308638 0.
0.508245 0.0317782 0.
0.510899 0.0326424 0.
0.513529 0.0334535 0.
0.516142 0.0342287 0.
0.518727 0.034952 0.
0.521287 0.0356432 0.
0.523805 0.036313 0.
0.526305 0.0369752 0.
0.528753 0.0375489 0.
0.53119 0.0380897 0.
0.533589 0.0385444 0.
0.535942 0.0389706 0.
0.53829 0.0394002 0.
0.540539 0.0396127 0.
0.542781 0.0398091 0.
0.544996 0.0399995 0.
0.547167 0.0401772 0.
0.54934 0.0403565 0.
0.55146 0.040477 0.
0.553567 0.040585 0.
0.555671 0.0406875 0.
0.557725 0.0407282 0.
0.559779 0.040769 0.
0.561826 0.0408062 0.
0.563861 0.0408386 0.
0.565897 0.040871 0.
0.56792 0.0408927 0.
0.569936 0.0409081 0.
0.571952 0.0409236 0.
0.573961 0.0409315 0.
0.575968 0.0409383 0.
0.577975 0.0409447 0.
0.57998 0.0409482 0.
0.581984 0.0409518 0.
0.583988 0.0409547 0.
0.585991 0.0409565 0.
0.587993 0.0409583 0.
0.589995 0.0409598 0.
0.591997 0.0409611 0.
0.593998 0.0409623 0.
0.595999 0.0409631 0.
0.598 0.0409638 0.
0.600001 0.0409644 0.
0.602002 0.0409637 0.
0.604003 0.0409629 0.
0.606004 0.040962 0.
0.608006 0.0409604 0.
0.610008 0.0409588 0.
0.61201 0.0409569 0.
0.614014 0.0409545 0.
0.616017 0.040952 0.
0.618022 0.0409481 0.
0.620028 0.0409435 0.
0.622034 0.0409389 0.
0.624044 0.0409302 0.
0.626054 0.0409211 0.
0.628065 0.0409104 0.
0.630088 0.0408893 0.
0.63211 0.0408683 0.
0.634141 0.0408393 0.
0.636188 0.0407971 0.
0.638235 0.040755 0.
0.640294 0.040709 0.
0.642362 0.0406602 0.
0.644429 0.0406116 0.
0.646561 0.040476 0.
0.648697 0.0403363 0.
0.650846 0.0401859 0.
0.653042 0.0399864 0.
0.655236 0.0397875 0.
0.657492 0.0395385 0.
0.659774 0.0392809 0.
0.66207 0.0390036 0.
0.664449 0.0385433 0.
0.666832 0.0380859 0.
0.66927 0.0375644 0.
0.671734 0.0369668 0.
0.674221 0.0363336 0.
0.67675 0.0356327 0.
0.6793 0.0349078 0.
0.681885 0.0341473 0.
0.684489 0.033363 0.
0.687109 0.0325304 0.
0.689746 0.03166 0.
0.692397 0.0307565 0.
0.695066 0.0298372 0.
0.697741 0.0289181 0.
0.700416 0.0280063 0.
0.70307 0.0271196 0.
0.705688 0.0263251 0.
0.708231 0.0257223 0.
0.71069 0.025322 0.
0.487508 0.0269266 0.
0.48989 0.0272935 0.
0.492348 0.0278537 0.
0.494893 0.0286017 0.
0.497497 0.0294771 0.
0.50014 0.0304182 0.
0.502794 0.0313821 0.
0.505445 0.032336 0.
0.508087 0.0332463 0.
0.510716 0.0341146 0.
0.513331 0.0349334 0.
0.515929 0.0357192 0.
0.518499 0.0364553 0.
0.521046 0.0371643 0.
0.52356 0.037851 0.
0.526058 0.0385299 0.
0.528512 0.0391384 0.
0.530954 0.0397113 0.
0.533366 0.0402066 0.
0.53573 0.0406583 0.
0.53809 0.0411098 0.
0.540364 0.0413639 0.
0.542626 0.0415978 0.
0.544863 0.041824 0.
0.547046 0.0420192 0.
0.549231 0.0422163 0.
0.551367 0.0423626 0.
0.55349 0.0424979 0.
0.555611 0.0426279 0.
0.557672 0.0426737 0.
0.559733 0.0427197 0.
0.561787 0.0427632 0.
0.563829 0.0428035 0.
0.565872 0.0428439 0.
0.5679 0.0428712 0.
0.56992 0.0428907 0.
0.571941 0.0429102 0.
0.573951 0.0429204 0.
0.575961 0.0429292 0.
0.577969 0.0429375 0.
0.579975 0.042942 0.
0.581981 0.0429465 0.
0.583986 0.0429503 0.
0.585989 0.0429526 0.
0.587992 0.042955 0.
0.589994 0.0429569 0.
0.591996 0.0429585 0.
0.593998 0.0429601 0.
0.595999 0.042961 0.
0.598 0.0429618 0.
0.600001 0.0429625 0.
0.602002 0.0429616 0.
0.604004 0.0429608 0.
0.606005 0.0429596 0.
0.608007 0.0429576 0.
0.61001 0.0429555 0.
0.612013 0.0429529 0.
0.614017 0.0429497 0.
0.616021 0.0429465 0.
0.618027 0.0429415 0.
0.620035 0.0429358 0.
0.622042 0.04293 0.
0.624054 0.0429187 0.
0.626067 0.0429067 0.
0.628081 0.0428929 0.
0.630109 0.0428665 0.
0.632136 0.0428402 0.
0.634174 0.0428041 0.
0.636229 0.0427522 0.
0.638283 0.0427007 0.
0.640351 0.0426479 0.
0.642426 0.0425935 0.
0.644502 0.0425389 0.
0.64665 0.042369 0.
0.648799 0.0421963 0.
0.650965 0.0420162 0.
0.653179 0.0417973 0.
0.65539 0.041581 0.
0.657666 0.0412961 0.
0.659965 0.0410028 0.
0.662281 0.0406842 0.
0.664666 0.0402001 0.
0.667057 0.0397156 0.
0.669506 0.0391589 0.
0.671976 0.0385355 0.
0.674463 0.0378713 0.
0.676985 0.037153 0.
0.679525 0.0364114 0.
0.682095 0.0356414 0.
0.684685 0.0348477 0.
0.68729 0.0340091 0.
0.689905 0.0331385 0.
0.692526 0.0322412 0.
0.695159 0.0313345 0.
0.697794 0.030435 0.
0.700428 0.029552 0.
0.703036 0.0287118 0.
0.705603 0.0279813 0.
0.708093 0.0274383 0.
0.710505 0.0270875 0.
0.487708 0.0287269 0.
0.490053 0.0290567 0.
0.492468 0.0295637 0.
0.494966 0.0302535 0.
0.497524 0.03107 0.
0.500121 0.0319664 0.
0.502733 0.0328999 0.
0.505349 0.0338375 0.
0.507965 0.0347422 0.
0.510571 0.0356122 0.
0.513161 0.0364332 0.
0.515739 0.037224 0.
0.518292 0.0379712 0.
0.520827 0.038695 0.
0.523334 0.0393949 0.
0.525828 0.0400865 0.
0.528285 0.0407233 0.
0.530729 0.0413214 0.
0.533147 0.0418515 0.
0.535519 0.0423302 0.
0.537888 0.0428086 0.
0.540185 0.0431075 0.
0.542469 0.0433817 0.
0.544729 0.0436475 0.
0.546923 0.0438604 0.
0.54912 0.0440752 0.
0.551273 0.0442468 0.
0.553413 0.0444095 0.
0.55555 0.0445681 0.
0.557618 0.0446192 0.
0.559687 0.0446704 0.
0.561748 0.04472 0.
0.563797 0.0447682 0.
0.565846 0.0448167 0.
0.56788 0.0448497 0.
0.569905 0.0448732 0.
0.571929 0.0448967 0.
0.573942 0.0449092 0.
0.575953 0.04492 0.
0.577964 0.0449303 0.
0.57997 0.0449358 0.
0.581977 0.0449413 0.
0.583983 0.0449459 0.
0.585986 0.0449488 0.
0.58799 0.0449518 0.
0.589993 0.0449541 0.
0.591995 0.0449559 0.
0.593997 0.0449578 0.
0.595998 0.0449589 0.
0.598 0.0449597 0.
0.600001 0.0449606 0.
0.602003 0.0449596 0.
0.604004 0.0449586 0.
0.606006 0.0449573 0.
0.608009 0.0449547 0.
0.610011 0.0449522 0.
0.612015 0.044949 0.
0.61402 0.044945 0.
0.616025 0.0449409 0.
0.618032 0.0449349 0.
0.620041 0.044928 0.
0.62205 0.044921 0.
0.624065 0.0449071 0.
0.62608 0.0448924 0.
0.628097 0.0448753 0.
0.63013 0.0448436 0.
0.632163 0.0448121 0.
0.634208 0.0447686 0.
0.636269 0.0447072 0.
0.638331 0.0446461 0.
0.640407 0.0445866 0.
0.642492 0.0445267 0.
0.644577 0.0444648 0.
0.646739 0.0442604 0.
0.648902 0.0440544 0.
0.651087 0.0438454 0.
0.653318 0.043607 0.
0.655545 0.0433714 0.
0.657844 0.043046 0.
0.660162 0.0427158 0.
0.662495 0.0423541 0.
0.664883 0.0418412 0.
0.667279 0.0413264 0.
0.669728 0.040747 0.
0.672197 0.0401049 0.
0.674688 0.0394133 0.
0.677202 0.0386807 0.
0.67973 0.0379268 0.
0.68228 0.0371508 0.
0.684848 0.0363538 0.
0.687432 0.0355144 0.
0.690026 0.0346446 0.
0.692622 0.0337542 0.
0.695224 0.0328612 0.
0.69782 0.0319854 0.
0.700408 0.0311376 0.
0.70297 0.0303449 0.
0.705489 0.029671 0.
0.707934 0.0291764 0.
0.710306 0.0288651 0.
0.487928 0.0305427 0.
0.490245 0.0308421 0.
0.492623 0.0313052 0.
0.495079 0.0319417 0.
0.49759 0.0327009 0.
0.500141 0.0335533 0.
0.502712 0.0344563 0.
0.505295 0.0353751 0.
0.507882 0.0362697 0.
0.51046 0.0371343 0.
0.513026 0.0379546 0.
0.515581 0.0387481 0.
0.518115 0.0395047 0.
0.520635 0.0402408 0.
0.523133 0.0409498 0.
0.525616 0.0416498 0.
0.528071 0.0423101 0.
0.53051 0.042932 0.
0.532932 0.0434945 0.
0.53531 0.0440001 0.
0.537686 0.0445016 0.
0.540003 0.0448412 0.
0.542302 0.0451533 0.
0.544577 0.0454579 0.
0.54678 0.0456819 0.
0.548984 0.0459074 0.
0.55115 0.0460999 0.
0.553302 0.0462868 0.
0.555453 0.0464707 0.
0.557537 0.0465349 0.
0.55962 0.0465986 0.
0.561694 0.0466597 0.
0.563751 0.0467162 0.
0.565807 0.0467729 0.
0.567848 0.0468135 0.
0.569879 0.0468435 0.
0.57191 0.0468738 0.
0.573926 0.0468905 0.
0.57594 0.046905 0.
0.577954 0.0469188 0.
0.579962 0.0469258 0.
0.581971 0.0469327 0.
0.583978 0.0469387 0.
0.585983 0.0469426 0.
0.587987 0.0469466 0.
0.589991 0.0469497 0.
0.591994 0.046952 0.
0.593996 0.0469544 0.
0.595998 0.0469557 0.
0.598 0.0469567 0.
0.600001 0.0469577 0.
0.602003 0.0469564 0.
0.604005 0.0469551 0.
0.606007 0.0469533 0.
0.608011 0.04695 0.
0.610014 0.0469467 0.
0.612018 0.0469424 0.
0.614025 0.046937 0.
0.616031 0.0469316 0.
0.618041 0.0469239 0.
0.620052 0.0469151 0.
0.622064 0.0469063 0.
0.624082 0.0468878 0.
0.626101 0.0468684 0.
0.628124 0.0468459 0.
0.630165 0.046806 0.
0.632205 0.0467662 0.
0.634258 0.0467142 0.
0.636326 0.0466443 0.
0.638395 0.0465747 0.
0.640487 0.0465017 0.
0.642589 0.0464272 0.
0.644692 0.0463479 0.
0.646864 0.0461189 0.
0.649036 0.0458877 0.
0.651233 0.0456542 0.
0.653474 0.0453999 0.
0.655713 0.045149 0.
0.658027 0.0447883 0.
0.660358 0.0444231 0.
0.662705 0.044021 0.
0.665096 0.0434814 0.
0.667494 0.0429376 0.
0.669938 0.0423349 0.
0.672398 0.0416755 0.
0.674881 0.0409644 0.
0.677386 0.0402233 0.
0.679903 0.0394598 0.
0.682435 0.0386792 0.
0.684978 0.0378808 0.
0.687537 0.037045 0.
0.690103 0.0361826 0.
0.692673 0.0353032 0.
0.695245 0.0344239 0.
0.697806 0.0335722 0.
0.70035 0.0327593 0.
0.702864 0.0320148 0.
0.705333 0.0313944 0.
0.707738 0.0309405 0.
0.710075 0.0306605 0.
0.488167 0.0323647 0.
0.49046 0.0326395 0.
0.492807 0.0330667 0.
0.495224 0.033658 0.
0.497689 0.0343683 0.
0.500198 0.0351831 0.
0.502731 0.0360542 0.
0.505278 0.0369461 0.
0.507831 0.0378254 0.
0.510379 0.0386818 0.
0.512919 0.0395001 0.
0.51545 0.0402951 0.
0.517965 0.041057 0.
0.520466 0.0417986 0.
0.522948 0.0425138 0.
0.52542 0.0432212 0.
0.527872 0.0439023 0.
0.530309 0.0445456 0.
0.532731 0.0451294 0.
0.535112 0.0456526 0.
0.537487 0.046169 0.
0.539811 0.046548 0.
0.542116 0.0469012 0.
0.544405 0.0472513 0.
0.546617 0.0474874 0.
0.548832 0.0477252 0.
0.551013 0.0479395 0.
0.55318 0.0481524 0.
0.555347 0.048363 0.
0.557448 0.0484445 0.
0.559548 0.0485229 0.
0.561638 0.0485974 0.
0.563702 0.0486625 0.
0.565767 0.0487278 0.
0.567815 0.0487762 0.
0.569852 0.0488132 0.
0.57189 0.0488503 0.
0.57391 0.0488714 0.
0.575927 0.0488897 0.
0.577944 0.0489072 0.
0.579954 0.0489156 0.
0.581965 0.0489241 0.
0.583973 0.0489314 0.
0.585979 0.0489364 0.
0.587985 0.0489414 0.
0.589989 0.0489452 0.
0.591992 0.0489481 0.
0.593995 0.048951 0.
0.595998 0.0489525 0.
0.597999 0.0489536 0.
0.600001 0.0489548 0.
0.602004 0.0489532 0.
0.604006 0.0489516 0.
0.606009 0.0489494 0.
0.608012 0.0489453 0.
0.610016 0.0489412 0.
0.612022 0.0489359 0.
0.61403 0.0489291 0.
0.616038 0.0489222 0.
0.61805 0.0489128 0.
0.620064 0.0489021 0.
0.622077 0.0488914 0.
0.6241 0.0488683 0.
0.626123 0.048844 0.
0.628151 0.0488159 0.
0.6302 0.0487672 0.
0.632249 0.0487188 0.
0.634309 0.0486579 0.
0.636386 0.0485792 0.
0.638462 0.048501 0.
0.640573 0.0484117 0.
0.642696 0.0483191 0.
0.644822 0.0482177 0.
0.647006 0.0479635 0.
0.64919 0.0477079 0.
0.651402 0.0474473 0.
0.65365 0.0471696 0.
0.655899 0.0468921 0.
0.65822 0.0465001 0.
0.660553 0.0461074 0.
0.662905 0.0456729 0.
0.665296 0.0451148 0.
0.667696 0.044548 0.
0.670133 0.0439285 0.
0.672583 0.043254 0.
0.675057 0.0425262 0.
0.677547 0.0417796 0.
0.680047 0.0410128 0.
0.682561 0.0402309 0.
0.685084 0.0394322 0.
0.687616 0.0386006 0.
0.690152 0.0377471 0.
0.69269 0.0368841 0.
0.695226 0.0360252 0.
0.69775 0.035199 0.
0.700255 0.0344187 0.
0.702729 0.0337157 0.
0.705153 0.033142 0.
0.707521 0.0327245 0.
0.709828 0.032471 0.
0.4884 0.0341915 0.
0.490674 0.0344449 0.
0.492996 0.0348416 0.
0.495379 0.0353949 0.
0.497804 0.036063 0.
0.500274 0.0368406 0.
0.502767 0.0376771 0.
0.505277 0.0385407 0.
0.507798 0.0394037 0.
0.510317 0.0402521 0.
0.512832 0.0410673 0.
0.515339 0.0418592 0.
0.517832 0.042623 0.
0.520315 0.0433693 0.
0.522785 0.0440904 0.
0.525248 0.0448048 0.
0.527694 0.0454993 0.
0.530122 0.0461529 0.
0.532535 0.046753 0.
0.534915 0.0472981 0.
0.53729 0.047834 0.
0.53962 0.0482511 0.
0.541933 0.0486455 0.
0.544234 0.0490413 0.
0.546458 0.0492922 0.
0.548683 0.0495415 0.
0.55088 0.0497756 0.
0.553061 0.0500128 0.
0.555243 0.0502474 0.
0.55736 0.0503467 0.
0.559475 0.0504409 0.
0.561579 0.0505301 0.
0.56365 0.0506034 0.
0.565722 0.0506771 0.
0.567778 0.0507336 0.
0.569822 0.0507782 0.
0.571866 0.0508231 0.
0.573891 0.0508492 0.
0.575912 0.050872 0.
0.577932 0.0508937 0.
0.579944 0.0509038 0.
0.581957 0.0509139 0.
0.583967 0.0509228 0.
0.585974 0.0509291 0.
0.587981 0.0509353 0.
0.589987 0.0509401 0.
0.59199 0.0509436 0.
0.593994 0.0509471 0.
0.595997 0.0509489 0.
0.597999 0.0509502 0.
0.600002 0.0509515 0.
0.602004 0.0509496 0.
0.604007 0.0509476 0.
0.60601 0.0509449 0.
0.608015 0.0509399 0.
0.61002 0.0509348 0.
0.612027 0.0509282 0.
0.614037 0.0509196 0.
0.616046 0.0509111 0.
0.618061 0.0508997 0.
0.620077 0.0508869 0.
0.622094 0.0508742 0.
0.624121 0.0508457 0.
0.626148 0.0508159 0.
0.628181 0.0507814 0.
0.630239 0.0507232 0.
0.632296 0.0506654 0.
0.634365 0.0505955 0.
0.636448 0.0505091 0.
0.638531 0.0504229 0.
0.640659 0.0503155 0.
0.642801 0.0502037 0.
0.644947 0.0500805 0.
0.647144 0.0498046 0.
0.649341 0.0495256 0.
0.651567 0.0492379 0.
0.653824 0.0489372 0.
0.656082 0.048633 0.
0.658409 0.0482093 0.
0.660745 0.047787 0.
0.663099 0.0473214 0.
0.665488 0.0467471 0.
0.667886 0.0461609 0.
0.670315 0.0455248 0.
0.672754 0.0448399 0.
0.675214 0.0441014 0.
0.67769 0.0433492 0.
0.680174 0.0425796 0.
0.682667 0.0417991 0.
0.685168 0.0410052 0.
0.687675 0.0401797 0.
0.690185 0.0393346 0.
0.692691 0.0384872 0.
0.695193 0.0376495 0.
0.697678 0.0368523 0.
0.700144 0.0361065 0.
0.70258 0.0354414 0.
0.704968 0.0349075 0.
0.707306 0.0345211 0.
0.709589 0.0342899 0.
0.488614 0.0360243 0.
0.490873 0.036257 0.
0.493173 0.0366269 0.
0.495524 0.0371468 0.
0.497914 0.0377782 0.
0.500347 0.0385215 0.
0.502807 0.0393248 0.
0.505288 0.0401629 0.
0.50778 0.0410102 0.
0.510271 0.0418466 0.
0.512762 0.0426557 0.
0.515247 0.0434443 0.
0.517723 0.0442101 0.
0.520192 0.0449602 0.
0.52265 0.0456847 0.
0.525101 0.0464016 0.
0.527535 0.0471056 0.
0.529953 0.0477704 0.
0.532358 0.0483854 0.
0.534738 0.0489485 0.
0.537112 0.0495011 0.
0.539448 0.0499508 0.
0.541766 0.0503766 0.
0.544073 0.0508003 0.
0.546312 0.0510678 0.
0.548553 0.0513307 0.
0.550765 0.0515867 0.
0.552956 0.0518469 0.
0.555147 0.0521056 0.
0.557275 0.0522283 0.
0.559399 0.0523441 0.
0.561511 0.0524529 0.
0.563591 0.052535 0.
0.565671 0.0526176 0.
0.567734 0.0526834 0.
0.569787 0.052737 0.
0.571839 0.0527909 0.
0.573868 0.0528231 0.
0.575893 0.0528512 0.
0.577917 0.052878 0.
0.579932 0.05289 0.
0.581947 0.0529021 0.
0.583959 0.0529128 0.
0.585968 0.0529206 0.
0.587977 0.0529284 0.
0.589983 0.0529343 0.
0.591988 0.0529386 0.
0.593992 0.0529429 0.
0.595996 0.052945 0.
0.597999 0.0529465 0.
0.600002 0.052948 0.
0.602005 0.0529456 0.
0.604009 0.0529431 0.
0.606013 0.0529398 0.
0.608019 0.0529337 0.
0.610025 0.0529275 0.
0.612034 0.0529192 0.
0.614046 0.0529085 0.
0.616057 0.0528979 0.
0.618074 0.0528842 0.
0.620094 0.0528692 0.
0.622113 0.0528542 0.
0.624145 0.0528194 0.
0.626178 0.052783 0.
0.628216 0.0527408 0.
0.630283 0.0526713 0.
0.63235 0.0526023 0.
0.634427 0.0525227 0.
0.636518 0.0524286 0.
0.638608 0.052335 0.
0.640746 0.0522014 0.
0.642897 0.0520609 0.
0.645053 0.0519086 0.
0.647264 0.0516148 0.
0.649473 0.0513189 0.
0.651712 0.0510075 0.
0.653978 0.0506872 0.
0.656248 0.0503605 0.
0.658579 0.0499147 0.
0.660916 0.049468 0.
0.663274 0.0489747 0.
0.665661 0.0483864 0.
0.668057 0.0477837 0.
0.670476 0.0471331 0.
0.672904 0.0464369 0.
0.675351 0.045693 0.
0.677812 0.0449382 0.
0.680281 0.0441668 0.
0.682757 0.0433876 0.
0.685236 0.0425986 0.
0.687719 0.0417825 0.
0.690203 0.0409489 0.
0.692681 0.0401171 0.
0.695154 0.0392987 0.
0.697607 0.0385272 0.
0.700038 0.0378144 0.
0.70244 0.0371853 0.
0.704795 0.0366865 0.
0.707107 0.036327 0.
0.709371 0.036115 0.
0.488827 0.0378599 0.
0.491072 0.0380745 0.
0.493354 0.0384233 0.
0.495678 0.0389162 0.
0.498039 0.0395162 0.
0.500444 0.04023 0.
0.502874 0.0410029 0.
0.505325 0.0418146 0.
0.50779 0.0426433 0.
0.510255 0.0434664 0.
0.512723 0.0442695 0.
0.515187 0.0450546 0.
0.517646 0.0458192 0.
0.520097 0.0465679 0.
0.522538 0.047292 0.
0.524973 0.0480108 0.
0.527396 0.048723 0.
0.529804 0.0493969 0.
0.532201 0.050023 0.
0.534575 0.0506035 0.
0.536941 0.0511707 0.
0.539278 0.0516429 0.
0.541596 0.0520914 0.
0.543905 0.0525399 0.
0.546163 0.0528328 0.
0.548421 0.0531155 0.
0.550649 0.0533962 0.
0.55285 0.05368 0.
0.555051 0.0539626 0.
0.55719 0.0541087 0.
0.559322 0.0542461 0.
0.561444 0.0543754 0.
0.563531 0.0544664 0.
0.565619 0.0545579 0.
0.567691 0.0546329 0.
0.569751 0.0546956 0.
0.571811 0.0547585 0.
0.573846 0.0547969 0.
0.575875 0.0548304 0.
0.577903 0.0548623 0.
0.57992 0.0548762 0.
0.581937 0.0548902 0.
0.583952 0.0549027 0.
0.585962 0.0549121 0.
0.587972 0.0549215 0.
0.58998 0.0549285 0.
0.591985 0.0549336 0.
0.593991 0.0549386 0.
0.595995 0.0549411 0.
0.597998 0.0549428 0.
0.600002 0.0549445 0.
0.602006 0.0549416 0.
0.604011 0.0549387 0.
0.606016 0.0549347 0.
0.608023 0.0549274 0.
0.61003 0.0549201 0.
0.61204 0.0549102 0.
0.614054 0.0548974 0.
0.616068 0.0548846 0.
0.618088 0.0548687 0.
0.620111 0.0548514 0.
0.622133 0.0548341 0.
0.62417 0.0547929 0.
0.626207 0.05475 0.
0.628252 0.0547 0.
0.630328 0.0546192 0.
0.632404 0.0545389 0.
0.634489 0.0544496 0.
0.636588 0.054348 0.
0.638685 0.0542468 0.
0.640834 0.0540858 0.
0.642993 0.0539163 0.
0.645161 0.0537359 0.
0.647385 0.0534232 0.
0.649607 0.0531087 0.
0.651858 0.0527706 0.
0.654135 0.0524282 0.
0.656416 0.0520766 0.
0.658744 0.0516115 0.
0.661079 0.0511469 0.
0.663435 0.0506333 0.
0.665815 0.0500329 0.
0.668205 0.0494146 0.
0.670614 0.0487522 0.
0.673032 0.0480468 0.
0.675465 0.0472987 0.
0.677909 0.0465446 0.
0.680358 0.0457756 0.
0.682816 0.0449994 0.
0.685276 0.044216 0.
0.687735 0.0434099 0.
0.690194 0.0425888 0.
0.692644 0.0417751 0.
0.695089 0.0409774 0.
0.697513 0.0402298 0.
0.699914 0.0395446 0.
0.702288 0.0389458 0.
0.704617 0.0384771 0.
0.706909 0.0381397 0.
0.709159 0.0379426 0.
0.489056 0.0396996 0.
0.49129 0.0398999 0.
0.493557 0.040233 0.
0.495861 0.0407031 0.
0.498197 0.041277 0.
0.500575 0.0419645 0.
0.502974 0.0427087 0.
0.505397 0.0434946 0.
0.507834 0.0443051 0.
0.510274 0.0451154 0.
0.512719 0.0459096 0.
0.515159 0.0466873 0.
0.517596 0.0474475 0.
0.520027 0.0481939 0.
0.522451 0.0489178 0.
0.524871 0.0496377 0.
0.52728 0.0503555 0.
0.529674 0.0510351 0.
0.532059 0.051669 0.
0.534423 0.0522631 0.
0.536779 0.0528427 0.
0.539114 0.0533364 0.
0.54143 0.0538072 0.
0.54374 0.0542789 0.
0.546012 0.0545954 0.
0.548283 0.0548965 0.
0.550522 0.0551992 0.
0.552726 0.0555013 0.
0.55493 0.0558022 0.
0.557079 0.0559717 0.
0.55922 0.0561308 0.
0.561352 0.056281 0.
0.563448 0.0563785 0.
0.565544 0.0564764 0.
0.567626 0.0565607 0.
0.569697 0.0566347 0.
0.571768 0.0567093 0.
0.57381 0.056757 0.
0.575845 0.0567989 0.
0.577879 0.056839 0.
0.5799 0.0568551 0.
0.58192 0.0568713 0.
0.583938 0.0568861 0.
0.585951 0.0568981 0.
0.587964 0.05691 0.
0.589974 0.056919 0.
0.591981 0.0569253 0.
0.593988 0.0569317 0.
0.595993 0.0569346 0.
0.597998 0.0569366 0.
0.600002 0.0569385 0.
0.602008 0.0569347 0.
0.604013 0.056931 0.
0.60602 0.056926 0.
0.608029 0.0569169 0.
0.610039 0.0569077 0.
0.612052 0.0568954 0.
0.614069 0.0568793 0.
0.616087 0.0568633 0.
0.61811 0.0568447 0.
0.620136 0.056825 0.
0.622162 0.0568053 0.
0.624208 0.0567538 0.
0.626254 0.0567006 0.
0.628308 0.0566395 0.
0.630393 0.0565464 0.
0.632477 0.0564541 0.
0.634573 0.0563562 0.
0.63668 0.0562495 0.
0.638787 0.0561431 0.
0.640945 0.0559542 0.
0.643111 0.055757 0.
0.645287 0.0555501 0.
0.647516 0.0552234 0.
0.649746 0.0548952 0.
0.652006 0.0545318 0.
0.654289 0.0541683 0.
0.656578 0.0537939 0.
0.658903 0.0533103 0.
0.661233 0.0528275 0.
0.663585 0.0522949 0.
0.665953 0.0516848 0.
0.668332 0.0510555 0.
0.67073 0.0503853 0.
0.673135 0.0496728 0.
0.675551 0.0489227 0.
0.677978 0.0481699 0.
0.680408 0.0474048 0.
0.682844 0.0466354 0.
0.68528 0.04586 0.
0.687717 0.0450641 0.
0.690151 0.0442565 0.
0.692575 0.0434602 0.
0.694991 0.0426832 0.
0.697387 0.0419599 0.
0.69976 0.0413022 0.
0.702108 0.0407261 0.
0.704416 0.0402802 0.
0.70669 0.0399608 0.
0.708928 0.0397756 0.
0.489304 0.0415442 0.
0.491528 0.0417318 0.
0.493783 0.0420523 0.
0.496069 0.0425045 0.
0.498384 0.0430589 0.
0.500735 0.0437236 0.
0.503106 0.0444421 0.
0.505499 0.0452063 0.
0.507907 0.0459979 0.
0.510318 0.0467903 0.
0.512735 0.047572 0.
0.515151 0.0483411 0.
0.517566 0.0490971 0.
0.519977 0.0498411 0.
0.522382 0.0505634 0.
0.524784 0.051282 0.
0.527175 0.0520011 0.
0.529555 0.0526843 0.
0.531928 0.0533245 0.
0.534283 0.0539313 0.
0.536631 0.0545228 0.
0.538962 0.0550326 0.
0.541277 0.055515 0.
0.543585 0.0559959 0.
0.545859 0.0563377 0.
0.548129 0.0566616 0.
0.550373 0.0569899 0.
0.552581 0.057311 0.
0.55479 0.057631 0.
0.556952 0.0578252 0.
0.559105 0.0580072 0.
0.561251 0.0581805 0.
0.563357 0.0582851 0.
0.565464 0.0583901 0.
0.567558 0.0584846 0.
0.56964 0.058571 0.
0.571723 0.0586581 0.
0.573773 0.0587158 0.
0.575815 0.0587665 0.
0.577856 0.0588153 0.
0.579879 0.0588337 0.
0.581903 0.0588521 0.
0.583924 0.0588693 0.
0.58594 0.0588839 0.
0.587956 0.0588985 0.
0.589968 0.0589093 0.
0.591977 0.058917 0.
0.593985 0.0589247 0.
0.595991 0.0589281 0.
0.597997 0.0589302 0.
0.600003 0.0589324 0.
0.60201 0.0589278 0.
0.604016 0.0589232 0.
0.606024 0.0589172 0.
0.608036 0.0589062 0.
0.610048 0.0588953 0.
0.612064 0.0588804 0.
0.614085 0.058861 0.
0.616106 0.0588416 0.
0.618133 0.0588203 0.
0.620162 0.058798 0.
0.622192 0.0587758 0.
0.624247 0.0587134 0.
0.626304 0.0586492 0.
0.628368 0.058576 0.
0.630462 0.0584698 0.
0.632555 0.0583643 0.
0.634662 0.0582572 0.
0.636783 0.0581446 0.
0.638901 0.0580324 0.
0.641071 0.0578125 0.
0.643246 0.0575863 0.
0.645432 0.0573522 0.
0.647662 0.0570087 0.
0.649892 0.056664 0.
0.652155 0.0562787 0.
0.654437 0.0558976 0.
0.656727 0.055503 0.
0.659047 0.0550087 0.
0.661375 0.0545134 0.
0.663721 0.053966 0.
0.66608 0.0533464 0.
0.668448 0.0527071 0.
0.670831 0.0520314 0.
0.67322 0.0513163 0.
0.67562 0.0505672 0.
0.678029 0.0498167 0.
0.680438 0.0490561 0.
0.682851 0.0482935 0.
0.685263 0.0475272 0.
0.687673 0.0467445 0.
0.690081 0.0459533 0.
0.692477 0.0451755 0.
0.694865 0.0444173 0.
0.697232 0.0437138 0.
0.699577 0.0430793 0.
0.701901 0.0425222 0.
0.70419 0.0420937 0.
0.70645 0.0417883 0.
0.708678 0.0416116 0.
0.489554 0.0433898 0.
0.491769 0.0435662 0.
0.494012 0.0438781 0.
0.496282 0.0443167 0.
0.498576 0.0448552 0.
0.500902 0.0455006 0.
0.503243 0.046197 0.
0.505606 0.0469393 0.
0.507985 0.0477094 0.
0.510369 0.0484834 0.
0.512762 0.0492534 0.
0.515155 0.0500151 0.
0.517548 0.0507658 0.
0.519937 0.0515047 0.
0.522321 0.0522224 0.
0.524704 0.0529384 0.
0.52708 0.053658 0.
0.529446 0.0543443 0.
0.531808 0.0549913 0.
0.534154 0.0556087 0.
0.536493 0.0562081 0.
0.538817 0.0567295 0.
0.541128 0.0572202 0.
0.543433 0.0577104 0.
0.545707 0.0580778 0.
0.547977 0.0584254 0.
0.550227 0.0587804 0.
0.552439 0.05912 0.
0.554653 0.0594586 0.
0.556827 0.0596768 0.
0.558992 0.0598813 0.
0.561151 0.0600779 0.
0.563267 0.0601883 0.
0.565384 0.0602992 0.
0.567488 0.0604027 0.
0.56958 0.0605014 0.
0.571672 0.060601 0.
0.57373 0.0606695 0.
0.57578 0.0607301 0.
0.577829 0.0607888 0.
0.579856 0.0608095 0.
0.581883 0.0608301 0.
0.583908 0.0608498 0.
0.585927 0.0608672 0.
0.587946 0.0608848 0.
0.58996 0.0608978 0.
0.591971 0.060907 0.
0.593981 0.0609163 0.
0.595989 0.0609203 0.
0.597996 0.0609227 0.
0.600003 0.0609251 0.
0.602012 0.0609195 0.
0.604021 0.0609139 0.
0.606031 0.0609066 0.
0.608045 0.0608934 0.
0.610059 0.0608804 0.
0.612078 0.0608627 0.
0.614103 0.0608397 0.
0.616128 0.0608168 0.
0.618159 0.0607925 0.
0.620192 0.0607673 0.
0.622226 0.0607422 0.
0.624291 0.0606677 0.
0.626357 0.0605917 0.
0.628431 0.0605063 0.
0.630532 0.0603882 0.
0.632633 0.0602707 0.
0.634751 0.0601549 0.
0.636883 0.0600373 0.
0.639014 0.0599195 0.
0.641194 0.0596688 0.
0.643379 0.0594136 0.
0.645574 0.0591536 0.
0.647805 0.0587937 0.
0.650035 0.0584326 0.
0.652302 0.058024 0.
0.654584 0.0576252 0.
0.656872 0.0572116 0.
0.659187 0.0567066 0.
0.661508 0.0562004 0.
0.663846 0.0556438 0.
0.666195 0.0550179 0.
0.668553 0.0543696 0.
0.670924 0.0536887 0.
0.673298 0.0529718 0.
0.675679 0.0522257 0.
0.678068 0.051481 0.
0.680455 0.0507272 0.
0.682845 0.0499715 0.
0.685234 0.0492137 0.
0.68762 0.0484432 0.
0.690002 0.0476676 0.
0.692371 0.0469102 0.
0.694732 0.0461728 0.
0.697072 0.0454867 0.
0.699391 0.0448707 0.
0.701692 0.0443284 0.
0.703963 0.0439145 0.
0.706208 0.0436216 0.
0.708428 0.0434517 0.
0.489789 0.04524 0.
0.491996 0.0454069 0.
0.494226 0.0457119 0.
0.49648 0.0461371 0.
0.498755 0.0466615 0.
0.501059 0.0472897 0.
0.503376 0.0479662 0.
0.505713 0.0486894 0.
0.508067 0.049441 0.
0.510427 0.0502006 0.
0.512795 0.0509584 0.
0.515164 0.0517095 0.
0.517535 0.0524519 0.
0.519904 0.0531846 0.
0.522271 0.053899 0.
0.524639 0.0546132 0.
0.527001 0.0553339 0.
0.529353 0.0560222 0.
0.531701 0.0566711 0.
0.534036 0.0572948 0.
0.536364 0.0579007 0.
0.538682 0.0584329 0.
0.540989 0.0589315 0.
0.543292 0.0594295 0.
0.545567 0.0598194 0.
0.547838 0.0601884 0.
0.550091 0.0605658 0.
0.552307 0.0609153 0.
0.554524 0.0612616 0.
0.556707 0.061502 0.
0.558883 0.0617333 0.
0.561055 0.0619592 0.
0.563178 0.0620761 0.
0.565303 0.0621932 0.
0.567415 0.0623065 0.
0.569512 0.0624192 0.
0.571609 0.0625329 0.
0.573678 0.0626148 0.
0.575739 0.0626877 0.
0.577799 0.0627587 0.
0.579829 0.0627817 0.
0.58186 0.0628046 0.
0.583888 0.0628268 0.
0.58591 0.0628476 0.
0.587932 0.0628685 0.
0.58995 0.0628841 0.
0.591963 0.0628952 0.
0.593976 0.0629064 0.
0.595986 0.062911 0.
0.597995 0.0629137 0.
0.600005 0.0629165 0.
0.602015 0.0629096 0.
0.604026 0.0629027 0.
0.606039 0.0628938 0.
0.608056 0.0628782 0.
0.610074 0.0628626 0.
0.612097 0.0628417 0.
0.614125 0.0628149 0.
0.616153 0.0627882 0.
0.618189 0.06276 0.
0.620228 0.0627312 0.
0.622267 0.0627022 0.
0.624343 0.062613 0.
0.626418 0.0625227 0.
0.628501 0.0624233 0.
0.630607 0.0622948 0.
0.632714 0.062167 0.
0.634841 0.062037 0.
0.636981 0.0619046 0.
0.639121 0.0617703 0.
0.641311 0.0614993 0.
0.643504 0.0612226 0.
0.645707 0.0609418 0.
0.647938 0.0605719 0.
0.65017 0.0601995 0.
0.652438 0.0597726 0.
0.654721 0.059357 0.
0.657008 0.0589256 0.
0.659318 0.0584109 0.
0.661633 0.0578946 0.
0.663963 0.05733 0.
0.666299 0.0567004 0.
0.668643 0.0560476 0.
0.670999 0.0553648 0.
0.67336 0.0546463 0.
0.675726 0.0539024 0.
0.678097 0.0531626 0.
0.680464 0.052416 0.
0.682833 0.05167 0.
0.6852 0.0509222 0.
0.687563 0.0501636 0.
0.689922 0.0494024 0.
0.692266 0.0486622 0.
0.694602 0.0479436 0.
0.696918 0.0472739 0.
0.699215 0.0466738 0.
0.701496 0.0461442 0.
0.703751 0.0457437 0.
0.705984 0.0454639 0.
0.708194 0.0453007 0.
0.490024 0.0470966 0.
0.492221 0.0472553 0.
0.49444 0.0475535 0.
0.496679 0.0479662 0.
0.498938 0.04848 0.
0.501223 0.0490943 0.
0.50352 0.0497546 0.
0.505836 0.0504638 0.
0.508165 0.0511988 0.
0.510501 0.0519409 0.
0.512845 0.0526842 0.
0.515192 0.0534241 0.
0.517542 0.0541583 0.
0.519893 0.054885 0.
0.522243 0.0555963 0.
0.524593 0.0563071 0.
0.526937 0.0570248 0.
0.529274 0.0577119 0.
0.531607 0.0583618 0.
0.53393 0.0589909 0.
0.536249 0.0596024 0.
0.53856 0.0601431 0.
0.540861 0.0606477 0.
0.543156 0.0611516 0.
0.54543 0.0615596 0.
0.547698 0.0619466 0.
0.549951 0.0623454 0.
0.552171 0.0627044 0.
0.554392 0.0630602 0.
0.556585 0.0633235 0.
0.558773 0.0635834 0.
0.560958 0.0638389 0.
0.563089 0.0639635 0.
0.565221 0.0640869 0.
0.567341 0.0642098 0.
0.569444 0.0643365 0.
0.571546 0.0644644 0.
0.573625 0.0645598 0.
0.575697 0.064645 0.
0.577769 0.0647286 0.
0.579803 0.0647538 0.
0.581836 0.0647791 0.
0.583868 0.0648038 0.
0.585893 0.064828 0.
0.587919 0.0648522 0.
0.589939 0.0648704 0.
0.591955 0.0648834 0.
0.593971 0.0648964 0.
0.595983 0.0649017 0.
0.597994 0.0649048 0.
0.600006 0.0649078 0.
0.602019 0.0648996 0.
0.604032 0.0648915 0.
0.606047 0.064881 0.
0.608068 0.0648629 0.
0.610089 0.0648448 0.
0.612115 0.0648207 0.
0.614147 0.0647901 0.
0.616179 0.0647595 0.
0.61822 0.0647276 0.
0.620264 0.064695 0.
0.622309 0.0646618 0.
0.624394 0.064558 0.
0.62648 0.0644532 0.
0.628571 0.0643401 0.
0.630683 0.0642012 0.
0.632795 0.064063 0.
0.63493 0.0639183 0.
0.637079 0.0637709 0.
0.639229 0.0636197 0.
0.641429 0.0633263 0.
0.643631 0.0630279 0.
0.645842 0.0627262 0.
0.648077 0.0623437 0.
0.650311 0.0619569 0.
0.652577 0.061516 0.
0.654855 0.0610888 0.
0.657139 0.0606437 0.
0.659441 0.0601219 0.
0.661748 0.0595973 0.
0.664067 0.0590265 0.
0.666392 0.0583934 0.
0.668723 0.0577369 0.
0.671062 0.0570546 0.
0.673405 0.0563393 0.
0.675753 0.0555996 0.
0.678105 0.0548648 0.
0.680453 0.0541247 0.
0.682802 0.0533876 0.
0.685148 0.0526507 0.
0.687488 0.0519058 0.
0.689825 0.0511607 0.
0.692147 0.0504372 0.
0.694461 0.0497346 0.
0.696757 0.0490768 0.
0.699034 0.0484892 0.
0.701299 0.0479699 0.
0.70354 0.0475797 0.
0.70576 0.047313 0.
0.707959 0.0471573 0.
0.490278 0.0489572 0.
0.492465 0.04911 0.
0.494674 0.049405 0.
0.4969 0.0498094 0.
0.499146 0.0503162 0.
0.501412 0.0509188 0.
0.503688 0.0515657 0.
0.505982 0.0522604 0.
0.508287 0.0529775 0.
0.510597 0.0537033 0.
0.512919 0.0544345 0.
0.515245 0.0551641 0.
0.517575 0.0558887 0.
0.519905 0.0566071 0.
0.522234 0.057312 0.
0.524565 0.0580172 0.
0.526891 0.0587311 0.
0.529211 0.0594172 0.
0.531529 0.0600685 0.
0.53384 0.0607004 0.
0.536146 0.0613132 0.
0.538447 0.0618585 0.
0.540739 0.0623682 0.
0.543026 0.0628775 0.
0.545296 0.063302 0.
0.547559 0.0637068 0.
0.549811 0.0641261 0.
0.552033 0.0644939 0.
0.554254 0.0648568 0.
0.556454 0.0651391 0.
0.558649 0.0654221 0.
0.56084 0.0656995 0.
0.562979 0.0658357 0.
0.565118 0.0659689 0.
0.567245 0.0661023 0.
0.569353 0.0662366 0.
0.571461 0.0663712 0.
0.573549 0.0664791 0.
0.575631 0.0665782 0.
0.577713 0.0666762 0.
0.579756 0.0667086 0.
0.581799 0.0667408 0.
0.583838 0.0667716 0.
0.585867 0.066799 0.
0.587897 0.0668264 0.
0.589922 0.0668476 0.
0.591942 0.0668631 0.
0.593962 0.0668786 0.
0.595978 0.0668849 0.
0.597993 0.0668883 0.
0.600008 0.0668917 0.
0.602025 0.0668816 0.
0.604043 0.0668716 0.
0.606062 0.0668589 0.
0.608088 0.0668375 0.
0.610114 0.0668162 0.
0.612144 0.0667888 0.
0.61418 0.0667547 0.
0.616216 0.0667207 0.
0.618266 0.0666812 0.
0.62032 0.06664 0.
0.622375 0.0665975 0.
0.62447 0.0664797 0.
0.626564 0.0663611 0.
0.628664 0.0662366 0.
0.630781 0.0660928 0.
0.632896 0.0659492 0.
0.635039 0.0657897 0.
0.637194 0.0656264 0.
0.639351 0.0654575 0.
0.641555 0.0651471 0.
0.643763 0.0648309 0.
0.64598 0.0645101 0.
0.648216 0.0641166 0.
0.650451 0.0637166 0.
0.652713 0.0632622 0.
0.654985 0.0628234 0.
0.657263 0.0623662 0.
0.659554 0.0618398 0.
0.661851 0.0613103 0.
0.664158 0.0607356 0.
0.666471 0.060101 0.
0.668788 0.059442 0.
0.671111 0.0587603 0.
0.673435 0.0580478 0.
0.675763 0.0573142 0.
0.678095 0.0565877 0.
0.680422 0.0558564 0.
0.682749 0.055129 0.
0.685074 0.0544026 0.
0.687391 0.0536705 0.
0.689705 0.0529402 0.
0.692004 0.0522333 0.
0.694294 0.0515474 0.
0.696571 0.0509001 0.
0.69883 0.0503214 0.
0.701079 0.0498093 0.
0.703308 0.0494266 0.
0.705516 0.0491701 0.
0.707706 0.0490183 0.
0.490553 0.0508222 0.
0.492732 0.0509727 0.
0.494931 0.0512679 0.
0.497144 0.0516659 0.
0.499374 0.0521668 0.
0.501622 0.0527598 0.
0.503878 0.0533951 0.
0.506149 0.0540767 0.
0.50843 0.0547794 0.
0.510716 0.0554925 0.
0.513015 0.056211 0.
0.515317 0.0569271 0.
0.517624 0.0576399 0.
0.519931 0.0583489 0.
0.52224 0.0590478 0.
0.52455 0.0597473 0.
0.526857 0.0604571 0.
0.52916 0.0611409 0.
0.531462 0.0617901 0.
0.53376 0.0624215 0.
0.536053 0.0630344 0.
0.538342 0.0635834 0.
0.540625 0.0640976 0.
0.542903 0.0646114 0.
0.545167 0.06505 0.
0.547423 0.0654671 0.
0.549669 0.0658972 0.
0.55189 0.0662732 0.
0.554111 0.0666434 0.
0.556315 0.0669415 0.
0.558511 0.0672422 0.
0.560705 0.0675382 0.
0.562854 0.0676937 0.
0.565001 0.0678433 0.
0.567138 0.0679908 0.
0.569254 0.0681309 0.
0.57137 0.0682714 0.
0.573469 0.0683924 0.
0.575561 0.0685068 0.
0.577654 0.0686204 0.
0.579707 0.0686612 0.
0.58176 0.0687011 0.
0.583807 0.0687386 0.
0.585841 0.0687693 0.
0.587875 0.0688001 0.
0.589903 0.0688242 0.
0.591928 0.0688424 0.
0.593952 0.0688605 0.
0.595972 0.0688677 0.
0.597991 0.0688715 0.
0.60001 0.0688754 0.
0.602032 0.0688633 0.
0.604054 0.0688513 0.
0.606078 0.0688362 0.
0.608108 0.0688115 0.
0.610139 0.0687869 0.
0.612174 0.068756 0.
0.614215 0.0687184 0.
0.616256 0.0686809 0.
0.618315 0.0686331 0.
0.620379 0.0685822 0.
0.622446 0.0685289 0.
0.624551 0.068396 0.
0.626656 0.0682625 0.
0.628765 0.0681263 0.
0.630888 0.0679779 0.
0.63301 0.0678298 0.
0.635161 0.0676523 0.
0.637323 0.0674694 0.
0.639488 0.067279 0.
0.641694 0.0669519 0.
0.643903 0.0666201 0.
0.64612 0.0662857 0.
0.648354 0.065885 0.
0.650588 0.0654747 0.
0.652843 0.0650124 0.
0.655107 0.0645654 0.
0.657377 0.0640978 0.
0.659659 0.0635671 0.
0.661945 0.0630333 0.
0.664239 0.0624565 0.
0.666537 0.0618231 0.
0.668839 0.0611651 0.
0.671146 0.060486 0.
0.673452 0.059777 0.
0.675761 0.0590494 0.
0.678071 0.0583305 0.
0.680376 0.057609 0.
0.682679 0.0568933 0.
0.68498 0.0561796 0.
0.687274 0.0554616 0.
0.689564 0.0547445 0.
0.69184 0.0540507 0.
0.694107 0.0533788 0.
0.696364 0.0527412 0.
0.698605 0.0521699 0.
0.700838 0.0516625 0.
0.703053 0.0512844 0.
0.70525 0.051036 0.
0.707431 0.0508858 0.
0.490827 0.0526932 0.
0.492998 0.0528423 0.
0.495186 0.0531374 0.
0.497385 0.0535302 0.
0.499601 0.0540278 0.
0.50183 0.0546133 0.
0.504067 0.0552388 0.
0.506318 0.0559095 0.
0.508577 0.0565985 0.
0.51084 0.0572972 0.
0.513116 0.0580029 0.
0.515395 0.0587066 0.
0.51768 0.0594092 0.
0.519964 0.0601104 0.
0.522251 0.060803 0.
0.524541 0.0614944 0.
0.52683 0.0621966 0.
0.529116 0.0628758 0.
0.531403 0.0635223 0.
0.533687 0.0641536 0.
0.535968 0.0647669 0.
0.538247 0.0653196 0.
0.540519 0.0658378 0.
0.542785 0.0663553 0.
0.545039 0.0668018 0.
0.547288 0.0672254 0.
0.549528 0.0676639 0.
0.551749 0.0680513 0.
0.55397 0.0684302 0.
0.556177 0.0687438 0.
0.558375 0.0690621 0.
0.560571 0.0693762 0.
0.562729 0.0695505 0.
0.564885 0.0697161 0.
0.567033 0.0698786 0.
0.569156 0.0700232 0.
0.571279 0.0701681 0.
0.573387 0.0703008 0.
0.57549 0.0704293 0.
0.577592 0.070557 0.
0.579655 0.0706076 0.
0.581717 0.0706568 0.
0.583773 0.0707023 0.
0.585811 0.0707362 0.
0.587849 0.0707701 0.
0.589882 0.0707971 0.
0.591912 0.0708179 0.
0.593941 0.0708387 0.
0.595966 0.0708468 0.
0.59799 0.070851 0.
0.600014 0.0708551 0.
0.60204 0.0708411 0.
0.604067 0.0708271 0.
0.606096 0.0708097 0.
0.608131 0.0707816 0.
0.610167 0.0707536 0.
0.612208 0.0707193 0.
0.614254 0.0706785 0.
0.616299 0.0706378 0.
0.618367 0.0705802 0.
0.620441 0.0705182 0.
0.622517 0.0704531 0.
0.624632 0.0703069 0.
0.626746 0.0701601 0.
0.628865 0.070014 0.
0.630994 0.0698621 0.
0.633122 0.0697101 0.
0.635282 0.0695136 0.
0.637451 0.0693113 0.
0.639623 0.0691002 0.
0.641832 0.0687568 0.
0.644042 0.0684091 0.
0.64626 0.0680606 0.
0.648491 0.0676527 0.
0.650723 0.0672326 0.
0.652969 0.0667648 0.
0.655224 0.0663136 0.
0.657484 0.0658398 0.
0.659754 0.0653055 0.
0.662029 0.0647675 0.
0.66431 0.0641888 0.
0.666594 0.0635563 0.
0.668882 0.0628993 0.
0.671172 0.0622246 0.
0.673461 0.0615223 0.
0.67575 0.0608033 0.
0.67804 0.0600932 0.
0.680324 0.0593802 0.
0.682604 0.0586745 0.
0.684881 0.0579725 0.
0.687151 0.0572685 0.
0.689417 0.0565658 0.
0.691671 0.0558844 0.
0.693917 0.0552242 0.
0.696155 0.0545946 0.
0.698381 0.0540295 0.
0.700597 0.0535254 0.
0.702799 0.0531489 0.
0.704984 0.0529069 0.
0.707156 0.0527587 0.
0.491084 0.0545701 0.
0.493246 0.0547192 0.
0.495423 0.0550139 0.
0.497611 0.0554036 0.
0.499812 0.0558992 0.
0.502025 0.0564768 0.
0.504246 0.0570934 0.
0.506478 0.0577533 0.
0.508717 0.0584302 0.
0.510961 0.0591166 0.
0.513215 0.0598123 0.
0.515473 0.0605065 0.
0.517735 0.061199 0.
0.519998 0.06189 0.
0.522265 0.0625744 0.
0.524536 0.0632571 0.
0.526808 0.063952 0.
0.52908 0.0646268 0.
0.531353 0.0652703 0.
0.533624 0.0659006 0.
0.535892 0.0665132 0.
0.538158 0.067067 0.
0.540416 0.0675871 0.
0.54267 0.0681067 0.
0.544916 0.0685608 0.
0.547157 0.0689906 0.
0.549392 0.0694361 0.
0.551614 0.0698331 0.
0.553834 0.0702186 0.
0.556043 0.0705434 0.
0.558241 0.0708721 0.
0.560438 0.0711952 0.
0.562605 0.071388 0.
0.56477 0.0715706 0.
0.566927 0.0717487 0.
0.569056 0.0718997 0.
0.571186 0.0720515 0.
0.573303 0.0721959 0.
0.575414 0.0723376 0.
0.577525 0.0724785 0.
0.579597 0.0725425 0.
0.581667 0.0726045 0.
0.583731 0.0726611 0.
0.585775 0.072698 0.
0.587819 0.0727349 0.
0.589858 0.072765 0.
0.591893 0.0727885 0.
0.593927 0.0728121 0.
0.595958 0.0728211 0.
0.597988 0.0728257 0.
0.600018 0.0728301 0.
0.60205 0.072814 0.
0.604083 0.0727978 0.
0.606117 0.0727778 0.
0.608159 0.0727461 0.
0.6102 0.0727146 0.
0.612247 0.0726769 0.
0.614299 0.072633 0.
0.616351 0.0725892 0.
0.618426 0.0725186 0.
0.620507 0.0724418 0.
0.622591 0.0723611 0.
0.624712 0.0722026 0.
0.626832 0.0720435 0.
0.628959 0.0718874 0.
0.631098 0.0717301 0.
0.633235 0.0715735 0.
0.635404 0.0713588 0.
0.637579 0.0711384 0.
0.639758 0.0709089 0.
0.641966 0.0705567 0.
0.644175 0.0701992 0.
0.646393 0.0698405 0.
0.648621 0.0694263 0.
0.650851 0.0689972 0.
0.653091 0.0685247 0.
0.655337 0.0680696 0.
0.657588 0.0675907 0.
0.659845 0.067055 0.
0.662106 0.0665156 0.
0.664374 0.0659369 0.
0.666643 0.0653059 0.
0.668916 0.0646504 0.
0.671191 0.0639797 0.
0.673464 0.0632833 0.
0.675735 0.0625736 0.
0.678004 0.0618741 0.
0.680268 0.0611711 0.
0.682527 0.0604757 0.
0.684783 0.0597841 0.
0.687031 0.0590913 0.
0.689276 0.0584001 0.
0.69151 0.0577298 0.
0.693738 0.05708 0.
0.695959 0.0564579 0.
0.698169 0.0558981 0.
0.700371 0.0553983 0.
0.70256 0.0550217 0.
0.704735 0.0547835 0.
0.706898 0.0546363 0.
0.49134 0.0564508 0.
0.493493 0.0566025 0.
0.495661 0.0568985 0.
0.497837 0.0572864 0.
0.500025 0.0577806 0.
0.502224 0.058352 0.
0.504429 0.0589624 0.
0.506644 0.0596136 0.
0.508866 0.0602808 0.
0.511092 0.0609575 0.
0.513325 0.0616426 0.
0.515562 0.0623249 0.
0.517803 0.0630068 0.
0.520045 0.0636892 0.
0.522292 0.064366 0.
0.524545 0.06504 0.
0.526799 0.0657261 0.
0.529055 0.066394 0.
0.531313 0.0670315 0.
0.533568 0.067659 0.
0.535821 0.06827 0.
0.538072 0.068824 0.
0.540318 0.0693457 0.
0.542559 0.0698673 0.
0.544796 0.0703271 0.
0.547031 0.0707596 0.
0.54926 0.0712078 0.
0.551478 0.0716132 0.
0.553695 0.0720054 0.
0.555904 0.0723405 0.
0.558104 0.0726783 0.
0.560303 0.0730109 0.
0.562478 0.0732222 0.
0.564652 0.0734225 0.
0.566819 0.073618 0.
0.568956 0.0737758 0.
0.571093 0.0739344 0.
0.573219 0.0740905 0.
0.575338 0.0742454 0.
0.577458 0.0743996 0.
0.579539 0.074477 0.
0.581617 0.0745519 0.
0.583689 0.0746199 0.
0.585739 0.0746598 0.
0.587788 0.0746998 0.
0.589833 0.0747327 0.
0.591874 0.0747591 0.
0.593914 0.0747855 0.
0.595951 0.0747955 0.
0.597986 0.0748004 0.
0.600021 0.0748051 0.
0.60206 0.0747868 0.
0.604098 0.0747685 0.
0.606139 0.0747459 0.
0.608186 0.0747107 0.
0.610233 0.0746755 0.
0.612286 0.0746344 0.
0.614344 0.0745875 0.
0.616402 0.0745406 0.
0.618485 0.0744566 0.
0.620573 0.0743648 0.
0.622665 0.0742687 0.
0.624792 0.0740977 0.
0.626919 0.0739264 0.
0.629055 0.0737605 0.
0.631203 0.0735975 0.
0.633349 0.0734352 0.
0.635527 0.0732003 0.
0.637711 0.0729611 0.
0.639897 0.0727137 0.
0.642103 0.072353 0.
0.644311 0.0719873 0.
0.646527 0.0716203 0.
0.64875 0.0712013 0.
0.650974 0.0707654 0.
0.653207 0.0702908 0.
0.655445 0.0698338 0.
0.657686 0.0693509 0.
0.659931 0.0688142 0.
0.662179 0.0682741 0.
0.664431 0.0676969 0.
0.666684 0.0670691 0.
0.66894 0.0664182 0.
0.671196 0.065754 0.
0.673452 0.0650648 0.
0.675705 0.0643643 0.
0.677956 0.0636747 0.
0.680199 0.0629818 0.
0.682436 0.0622962 0.
0.684672 0.0616154 0.
0.686901 0.0609339 0.
0.689127 0.0602533 0.
0.691343 0.0595917 0.
0.693554 0.0589498 0.
0.69576 0.0583339 0.
0.697956 0.0577778 0.
0.700145 0.0572809 0.
0.702322 0.0569031 0.
0.704485 0.0566672 0.
0.706639 0.05652 0.
0.491615 0.0583381 0.
0.49376 0.0584958 0.
0.495917 0.0587943 0.
0.498082 0.0591825 0.
0.500258 0.0596783 0.
0.502443 0.0602455 0.
0.504632 0.0608505 0.
0.506829 0.0614935 0.
0.509032 0.0621508 0.
0.511238 0.062817 0.
0.513451 0.0634924 0.
0.515666 0.0641648 0.
0.517886 0.0648375 0.
0.520107 0.0655118 0.
0.522333 0.0661802 0.
0.524565 0.0668424 0.
0.526798 0.067517 0.
0.529036 0.0681764 0.
0.531274 0.0688071 0.
0.533514 0.069431 0.
0.53575 0.0700397 0.
0.537987 0.0705934 0.
0.54022 0.0711158 0.
0.542451 0.071637 0.
0.544679 0.0720993 0.
0.546906 0.0725328 0.
0.549128 0.0729828 0.
0.551342 0.0733958 0.
0.553554 0.0737943 0.
0.555762 0.074139 0.
0.557963 0.0744844 0.
0.560163 0.0748242 0.
0.562345 0.0750523 0.
0.564525 0.0752693 0.
0.566698 0.0754819 0.
0.56884 0.0756439 0.
0.570982 0.0758064 0.
0.573114 0.0759701 0.
0.575239 0.076134 0.
0.577365 0.0762973 0.
0.579457 0.0763905 0.
0.581546 0.0764811 0.
0.58363 0.0765632 0.
0.585687 0.0766057 0.
0.587744 0.0766484 0.
0.589797 0.076684 0.
0.591846 0.0767127 0.
0.593895 0.0767415 0.
0.59594 0.0767523 0.
0.597984 0.0767574 0.
0.600027 0.0767622 0.
0.602074 0.0767422 0.
0.604121 0.0767221 0.
0.606169 0.0766973 0.
0.608224 0.076659 0.
0.610279 0.0766208 0.
0.61234 0.0765765 0.
0.614405 0.0765264 0.
0.616471 0.0764763 0.
0.618565 0.0763774 0.
0.620664 0.07627 0.
0.622766 0.0761582 0.
0.624897 0.0759789 0.
0.627027 0.0757989 0.
0.629169 0.0756253 0.
0.631322 0.0754574 0.
0.633476 0.0752896 0.
0.635659 0.0750378 0.
0.637848 0.0747814 0.
0.640039 0.0745177 0.
0.642243 0.0741499 0.
0.644449 0.0737773 0.
0.646661 0.0734026 0.
0.648878 0.0729794 0.
0.651097 0.0725376 0.
0.653321 0.0720626 0.
0.65555 0.071606 0.
0.657782 0.0711217 0.
0.660014 0.0705857 0.
0.662249 0.0700452 0.
0.664485 0.06947 0.
0.666722 0.0688461 0.
0.66896 0.0682005 0.
0.671196 0.0675452 0.
0.67343 0.0668662 0.
0.675661 0.0661776 0.
0.677891 0.0654992 0.
0.680114 0.0648149 0.
0.682331 0.0641379 0.
0.684546 0.0634669 0.
0.686755 0.0627956 0.
0.688961 0.0621249 0.
0.691159 0.0614729 0.
0.693352 0.0608389 0.
0.695542 0.0602279 0.
0.697724 0.0596735 0.
0.6999 0.0591777 0.
0.702066 0.0587948 0.
0.704218 0.0585586 0.
0.706363 0.0584098 0.
0.491911 0.0602355 0.
0.494048 0.0604015 0.
0.496195 0.0607034 0.
0.498348 0.0610939 0.
0.500511 0.0615921 0.
0.502679 0.0621549 0.
0.504852 0.0627556 0.
0.50703 0.0633912 0.
0.509212 0.0640397 0.
0.511397 0.0646971 0.
0.513588 0.0653642 0.
0.515783 0.0660276 0.
0.51798 0.0666907 0.
0.520177 0.0673552 0.
0.52238 0.068014 0.
0.524589 0.0686649 0.
0.526801 0.0693279 0.
0.529018 0.0699786 0.
0.531238 0.0706015 0.
0.53346 0.0712193 0.
0.535681 0.0718226 0.
0.537904 0.0723736 0.
0.540126 0.0728946 0.
0.542345 0.0734143 0.
0.544565 0.0738787 0.
0.546784 0.0743126 0.
0.548999 0.0747634 0.
0.551209 0.0751828 0.
0.553418 0.0755855 0.
0.555624 0.075936 0.
0.557823 0.0762846 0.
0.560022 0.0766278 0.
0.562206 0.0768719 0.
0.564388 0.0771065 0.
0.566565 0.0773375 0.
0.568711 0.0775035 0.
0.570859 0.0776696 0.
0.572998 0.0778408 0.
0.57513 0.0780147 0.
0.577262 0.0781882 0.
0.579368 0.0782984 0.
0.58147 0.078406 0.
0.583567 0.0785038 0.
0.585633 0.0785493 0.
0.587698 0.0785949 0.
0.58976 0.0786333 0.
0.591817 0.0786646 0.
0.593874 0.0786959 0.
0.595928 0.0787077 0.
0.597981 0.0787129 0.
0.600034 0.0787179 0.
0.602089 0.078696 0.
0.604144 0.0786741 0.
0.606201 0.0786469 0.
0.608264 0.0786053 0.
0.610327 0.0785639 0.
0.612396 0.0785161 0.
0.61447 0.0784623 0.
0.616543 0.0784086 0.
0.618652 0.0782932 0.
0.620764 0.0781689 0.
0.622879 0.0780408 0.
0.625015 0.0778529 0.
0.627151 0.0776644 0.
0.629299 0.077481 0.
0.631457 0.077304 0.
0.633615 0.0771251 0.
0.6358 0.0768603 0.
0.637988 0.0765918 0.
0.640179 0.0763163 0.
0.642381 0.0759452 0.
0.644584 0.0755692 0.
0.646793 0.0751903 0.
0.649005 0.0747641 0.
0.651217 0.0743171 0.
0.653434 0.0738421 0.
0.655653 0.0733859 0.
0.657874 0.0729008 0.
0.660095 0.0723673 0.
0.662318 0.0718291 0.
0.664539 0.0712582 0.
0.666758 0.0706403 0.
0.668977 0.0700022 0.
0.671193 0.0693558 0.
0.673406 0.0686865 0.
0.675614 0.0680104 0.
0.67782 0.0673439 0.
0.680019 0.0666698 0.
0.682213 0.0660019 0.
0.684406 0.0653397 0.
0.686595 0.0646766 0.
0.688782 0.0640146 0.
0.690962 0.063371 0.
0.693136 0.0627447 0.
0.695307 0.0621388 0.
0.697474 0.0615851 0.
0.699636 0.0610894 0.
0.701791 0.0606994 0.
0.703933 0.0604605 0.
0.706069 0.0603094 0.
0.492209 0.062142 0.
0.494335 0.0623169 0.
0.496471 0.0626218 0.
0.498612 0.0630156 0.
0.500761 0.0635162 0.
0.502913 0.0640766 0.
0.505068 0.0646747 0.
0.507227 0.0653039 0.
0.509389 0.0659446 0.
0.511554 0.0665934 0.
0.513723 0.0672504 0.
0.515895 0.0679039 0.
0.518069 0.0685582 0.
0.520244 0.069215 0.
0.522424 0.0698653 0.
0.524612 0.0705044 0.
0.526804 0.0711551 0.
0.529001 0.0717956 0.
0.531203 0.0724089 0.
0.533408 0.0730189 0.
0.535614 0.0736159 0.
0.537823 0.0741627 0.
0.540034 0.0746821 0.
0.542242 0.0751996 0.
0.544453 0.0756645 0.
0.546665 0.0760978 0.
0.548874 0.0765484 0.
0.55108 0.0769715 0.
0.553284 0.0773769 0.
0.555487 0.0777327 0.
0.557684 0.0780848 0.
0.559881 0.078432 0.
0.562068 0.0786906 0.
0.564252 0.0789425 0.
0.566432 0.079192 0.
0.568584 0.0793629 0.
0.570737 0.0795324 0.
0.572884 0.0797102 0.
0.575022 0.0798932 0.
0.577161 0.0800749 0.
0.579279 0.080201 0.
0.581394 0.0803256 0.
0.583504 0.0804398 0.
0.585577 0.0804879 0.
0.587651 0.0805361 0.
0.589721 0.080577 0.
0.591787 0.0806105 0.
0.593853 0.080644 0.
0.595916 0.0806566 0.
0.597978 0.080662 0.
0.60004 0.0806672 0.
0.602104 0.0806437 0.
0.604168 0.0806202 0.
0.606234 0.0805909 0.
0.608305 0.0805464 0.
0.610376 0.080502 0.
0.612454 0.080451 0.
0.614535 0.080394 0.
0.616617 0.0803371 0.
0.618738 0.0802045 0.
0.620863 0.0800638 0.
0.62299 0.0799209 0.
0.625132 0.0797255 0.
0.627273 0.0795293 0.
0.629428 0.079336 0.
0.63159 0.0791501 0.
0.633753 0.0789601 0.
0.635939 0.0786825 0.
0.638128 0.0784018 0.
0.640319 0.0781152 0.
0.642518 0.0777407 0.
0.644718 0.0773613 0.
0.646923 0.0769795 0.
0.649128 0.0765524 0.
0.651335 0.0761027 0.
0.653544 0.0756285 0.
0.655755 0.0751732 0.
0.657966 0.0746887 0.
0.660174 0.0741584 0.
0.662384 0.073623 0.
0.664591 0.0730575 0.
0.666794 0.0724472 0.
0.668996 0.0718198 0.
0.671193 0.071185 0.
0.673384 0.0705259 0.
0.675569 0.0698599 0.
0.677752 0.0692042 0.
0.679929 0.0685395 0.
0.682102 0.0678798 0.
0.684272 0.0672269 0.
0.686439 0.0665735 0.
0.688605 0.0659205 0.
0.690766 0.0652836 0.
0.692923 0.0646633 0.
0.695077 0.0640621 0.
0.697227 0.0635082 0.
0.699375 0.0630114 0.
0.701516 0.0626147 0.
0.703648 0.062372 0.
0.705774 0.0622185 0.
0.492491 0.0640571 0.
0.494608 0.0642412 0.
0.496731 0.0645489 0.
0.49886 0.0649479 0.
0.500994 0.0654519 0.
0.50313 0.0660109 0.
0.505267 0.0666063 0.
0.507408 0.0672298 0.
0.50955 0.0678631 0.
0.511696 0.0685034 0.
0.513844 0.0691522 0.
0.515994 0.0697977 0.
0.518147 0.0704445 0.
0.520301 0.0710936 0.
0.522462 0.0717337 0.
0.52463 0.0723591 0.
0.526803 0.0729975 0.
0.528981 0.0736293 0.
0.531164 0.074234 0.
0.533353 0.074835 0.
0.535543 0.0754243 0.
0.537739 0.0759653 0.
0.539939 0.0764809 0.
0.542138 0.0769935 0.
0.544341 0.0774574 0.
0.546546 0.0778898 0.
0.548749 0.0783395 0.
0.550951 0.078766 0.
0.553152 0.0791737 0.
0.555353 0.0795332 0.
0.55755 0.0798871 0.
0.559745 0.0802362 0.
0.561933 0.0805057 0.
0.564118 0.0807694 0.
0.566301 0.0810295 0.
0.568461 0.0812072 0.
0.570622 0.0813819 0.
0.572777 0.081566 0.
0.574922 0.0817542 0.
0.577068 0.0819417 0.
0.579195 0.0820857 0.
0.581318 0.082231 0.
0.583436 0.0823655 0.
0.585518 0.0824162 0.
0.5876 0.082467 0.
0.589679 0.0825104 0.
0.591754 0.082546 0.
0.59383 0.0825816 0.
0.595904 0.082595 0.
0.597976 0.0826008 0.
0.600048 0.0826063 0.
0.602121 0.0825813 0.
0.604195 0.0825563 0.
0.606269 0.0825249 0.
0.608348 0.0824774 0.
0.610427 0.08243 0.
0.612513 0.0823757 0.
0.614603 0.0823155 0.
0.616693 0.0822553 0.
0.618822 0.0821007 0.
0.620954 0.0819386 0.
0.623089 0.0817789 0.
0.62524 0.0815808 0.
0.627388 0.0813816 0.
0.62955 0.0811802 0.
0.631718 0.0809861 0.
0.633887 0.0807857 0.
0.636075 0.0805003 0.
0.638264 0.0802113 0.
0.640456 0.0799161 0.
0.642653 0.0795396 0.
0.64485 0.0791582 0.
0.647052 0.0787745 0.
0.649252 0.0783469 0.
0.651453 0.0778953 0.
0.653655 0.0774228 0.
0.655858 0.076969 0.
0.658059 0.0764874 0.
0.660256 0.0759634 0.
0.662454 0.0754329 0.
0.664646 0.074873 0.
0.666833 0.0742703 0.
0.669018 0.0736539 0.
0.671197 0.0730304 0.
0.673369 0.0723817 0.
0.675534 0.0717266 0.
0.677695 0.0710827 0.
0.679851 0.070427 0.
0.682003 0.0697742 0.
0.684152 0.0691289 0.
0.686299 0.0684836 0.
0.688444 0.067839 0.
0.690587 0.0672093 0.
0.692726 0.0665947 0.
0.694863 0.0659973 0.
0.696997 0.0654433 0.
0.69913 0.0649448 0.
0.701257 0.064541 0.
0.703376 0.0642927 0.
0.70549 0.0641368 0.
0.492775 0.0659842 0.
0.49488 0.0661787 0.
0.496991 0.0664902 0.
0.499106 0.0668948 0.
0.501225 0.0674012 0.
0.503345 0.0679592 0.
0.505466 0.0685532 0.
0.507589 0.069172 0.
0.509712 0.0697997 0.
0.511838 0.0704338 0.
0.513965 0.0710744 0.
0.516095 0.0717107 0.
0.518227 0.0723489 0.
0.520361 0.0729892 0.
0.522504 0.073619 0.
0.524652 0.0742324 0.
0.526804 0.0748601 0.
0.528962 0.0754826 0.
0.531127 0.0760769 0.
0.533298 0.0766661 0.
0.535474 0.0772454 0.
0.537657 0.0777786 0.
0.539846 0.0782888 0.
0.542036 0.0787955 0.
0.544231 0.0792571 0.
0.546429 0.0796871 0.
0.548626 0.0801347 0.
0.550823 0.0805636 0.
0.55302 0.0809717 0.
0.555218 0.0813322 0.
0.557412 0.0816887 0.
0.559606 0.0820409 0.
0.561796 0.0823188 0.
0.563983 0.0825907 0.
0.566168 0.0828599 0.
0.568337 0.0830469 0.
0.570506 0.083229 0.
0.572669 0.0834208 0.
0.574821 0.0836149 0.
0.576975 0.0838082 0.
0.57911 0.0839694 0.
0.581241 0.0841354 0.
0.583369 0.0842911 0.
0.585459 0.0843444 0.
0.587549 0.0843979 0.
0.589636 0.0844438 0.
0.591722 0.0844814 0.
0.593807 0.0845191 0.
0.595891 0.0845335 0.
0.597973 0.0845396 0.
0.600056 0.0845454 0.
0.602139 0.0845189 0.
0.604221 0.0844924 0.
0.606305 0.0844589 0.
0.608391 0.0844084 0.
0.610478 0.084358 0.
0.612572 0.0843004 0.
0.614671 0.0842368 0.
0.61677 0.0841726 0.
0.618907 0.0839958 0.
0.621046 0.0838122 0.
0.623189 0.0836367 0.
0.625348 0.083435 0.
0.627506 0.0832322 0.
0.629674 0.0830214 0.
0.631848 0.082818 0.
0.634023 0.0826068 0.
0.636211 0.082315 0.
0.638401 0.08202 0.
0.640593 0.0817184 0.
0.642787 0.0813397 0.
0.644982 0.0809563 0.
0.647179 0.0805725 0.
0.649375 0.0801457 0.
0.65157 0.0796926 0.
0.653765 0.0792237 0.
0.655959 0.0787729 0.
0.65815 0.0782954 0.
0.660336 0.0777788 0.
0.662521 0.0772554 0.
0.664698 0.0767037 0.
0.666868 0.076111 0.
0.669035 0.0755072 0.
0.671196 0.0748955 0.
0.67335 0.0742566 0.
0.675493 0.0736111 0.
0.677634 0.0729781 0.
0.679771 0.0723324 0.
0.681903 0.0716882 0.
0.684032 0.0710506 0.
0.686159 0.0704127 0.
0.688285 0.0697752 0.
0.690408 0.0691507 0.
0.69253 0.068541 0.
0.69465 0.067947 0.
0.696769 0.0673923 0.
0.698886 0.0668922 0.
0.701 0.0664821 0.
0.703105 0.0662267 0.
0.705206 0.0660671 0.
0.493082 0.0679252 0.
0.495175 0.0681313 0.
0.497272 0.0684492 0.
0.499372 0.0688619 0.
0.501474 0.0693716 0.
0.503577 0.0699302 0.
0.50568 0.0705238 0.
0.507783 0.071138 0.
0.509885 0.0717592 0.
0.51199 0.0723859 0.
0.514096 0.0730176 0.
0.516204 0.0736446 0.
0.518314 0.0742744 0.
0.520427 0.0749062 0.
0.522548 0.0755264 0.
0.524673 0.0761266 0.
0.526804 0.0767406 0.
0.528941 0.0773503 0.
0.531087 0.0779316 0.
0.533242 0.0785089 0.
0.535403 0.0790782 0.
0.537572 0.0796027 0.
0.539751 0.0801064 0.
0.541931 0.0806058 0.
0.544118 0.0810637 0.
0.546309 0.0814906 0.
0.5485 0.0819343 0.
0.550692 0.0823634 0.
0.552884 0.0827701 0.
0.55508 0.0831311 0.
0.557272 0.0834905 0.
0.559465 0.0838455 0.
0.561655 0.0841312 0.
0.563844 0.0844107 0.
0.566031 0.0846876 0.
0.568207 0.0848835 0.
0.570382 0.0850724 0.
0.572551 0.0852709 0.
0.574708 0.0854685 0.
0.576865 0.0856653 0.
0.579007 0.0858389 0.
0.581144 0.0860206 0.
0.583281 0.0861934 0.
0.585384 0.0862503 0.
0.587488 0.0863071 0.
0.589589 0.0863559 0.
0.591685 0.0863946 0.
0.593781 0.0864333 0.
0.595875 0.0864482 0.
0.597969 0.0864546 0.
0.600063 0.0864605 0.
0.602157 0.0864336 0.
0.604251 0.0864068 0.
0.606345 0.0863724 0.
0.608442 0.0863207 0.
0.610538 0.086269 0.
0.612645 0.0862064 0.
0.614755 0.0861368 0.
0.616867 0.0860651 0.
0.61901 0.0858731 0.
0.621153 0.0856744 0.
0.623303 0.0854881 0.
0.625467 0.0852841 0.
0.62763 0.0850794 0.
0.629804 0.0848601 0.
0.631982 0.0846478 0.
0.634162 0.0844265 0.
0.636351 0.084129 0.
0.638541 0.0838288 0.
0.640732 0.0835211 0.
0.642924 0.0831406 0.
0.645115 0.0827554 0.
0.647309 0.0823722 0.
0.649499 0.0819478 0.
0.651689 0.0814955 0.
0.653877 0.0810319 0.
0.656063 0.0805854 0.
0.658244 0.0801137 0.
0.660417 0.0796056 0.
0.662589 0.0790899 0.
0.664751 0.0785466 0.
0.666905 0.0779639 0.
0.669054 0.0773733 0.
0.671195 0.0767762 0.
0.673329 0.0761506 0.
0.675453 0.0755174 0.
0.677571 0.0748961 0.
0.679685 0.0742593 0.
0.681795 0.0736231 0.
0.683903 0.072993 0.
0.686008 0.0723635 0.
0.688113 0.0717339 0.
0.690217 0.0711151 0.
0.692318 0.0705098 0.
0.69442 0.0699188 0.
0.696522 0.0693629 0.
0.698624 0.0688593 0.
0.700722 0.068442 0.
0.702813 0.0681764 0.
0.704901 0.0680102 0.
0.493413 0.0698824 0.
0.495492 0.070102 0.
0.497573 0.0704293 0.
0.499656 0.0708525 0.
0.50174 0.0713652 0.
0.503823 0.0719242 0.
0.505906 0.0725159 0.
0.507987 0.0731258 0.
0.510066 0.0737408 0.
0.512147 0.0743597 0.
0.514229 0.0749835 0.
0.516314 0.0756027 0.
0.5184 0.0762241 0.
0.520489 0.0768454 0.
0.522585 0.0774527 0.
0.524686 0.0780375 0.
0.526794 0.0786369 0.
0.528911 0.0792335 0.
0.531038 0.0798006 0.
0.533178 0.080364 0.
0.535325 0.0809215 0.
0.537483 0.0814357 0.
0.539651 0.0819312 0.
0.541822 0.0824222 0.
0.544001 0.0828758 0.
0.546185 0.0832988 0.
0.548371 0.0837378 0.
0.55056 0.0841668 0.
0.55275 0.0845717 0.
0.554944 0.0849327 0.
0.557137 0.0852942 0.
0.559329 0.0856511 0.
0.56152 0.0859415 0.
0.563709 0.0862244 0.
0.565898 0.0865054 0.
0.568075 0.0867107 0.
0.570252 0.0869074 0.
0.572423 0.0871135 0.
0.574582 0.0873146 0.
0.57674 0.0875148 0.
0.57889 0.087699 0.
0.581036 0.087896 0.
0.583181 0.0880855 0.
0.585302 0.0881485 0.
0.587423 0.0882102 0.
0.589539 0.0882628 0.
0.591646 0.0883026 0.
0.593753 0.0883424 0.
0.595859 0.0883579 0.
0.597964 0.0883646 0.
0.60007 0.0883708 0.
0.602176 0.0883434 0.
0.604282 0.0883161 0.
0.606388 0.0882809 0.
0.608495 0.0882281 0.
0.610603 0.0881753 0.
0.612723 0.0881057 0.
0.614849 0.0880274 0.
0.616975 0.0879446 0.
0.619126 0.0877393 0.
0.621276 0.087528 0.
0.623432 0.0873331 0.
0.625596 0.0871247 0.
0.627761 0.0869157 0.
0.629936 0.086689 0.
0.632116 0.0864702 0.
0.634297 0.0862404 0.
0.636486 0.0859399 0.
0.638675 0.0856372 0.
0.640866 0.085326 0.
0.643057 0.0849442 0.
0.645247 0.0845577 0.
0.647439 0.0841755 0.
0.649626 0.083754 0.
0.651811 0.083303 0.
0.653993 0.0828454 0.
0.656171 0.0824041 0.
0.658343 0.081939 0.
0.660506 0.0814413 0.
0.662665 0.0809354 0.
0.664813 0.0804019 0.
0.666951 0.07983 0.
0.669082 0.0792534 0.
0.671204 0.0786715 0.
0.673316 0.0780602 0.
0.675418 0.0774418 0.
0.677513 0.0768358 0.
0.679603 0.0762106 0.
0.681688 0.0755831 0.
0.68377 0.0749597 0.
0.685852 0.0743367 0.
0.687933 0.0737138 0.
0.690015 0.0731012 0.
0.692095 0.0725009 0.
0.694176 0.0719133 0.
0.696259 0.0713563 0.
0.698343 0.0708488 0.
0.700424 0.0704241 0.
0.7025 0.0701448 0.
0.704574 0.0699684 0.
0.493746 0.0718571 0.
0.495808 0.0720896 0.
0.497872 0.0724268 0.
0.499936 0.0728599 0.
0.501998 0.0733741 0.
0.504059 0.0739343 0.
0.506118 0.0745249 0.
0.508174 0.0751299 0.
0.510229 0.0757381 0.
0.512286 0.0763502 0.
0.514343 0.0769656 0.
0.516403 0.0775746 0.
0.518464 0.0781858 0.
0.520528 0.0787952 0.
0.5226 0.0793904 0.
0.524679 0.0799615 0.
0.526768 0.0805471 0.
0.528867 0.081129 0.
0.53098 0.0816802 0.
0.533106 0.082228 0.
0.535241 0.0827722 0.
0.53739 0.0832757 0.
0.53955 0.0837625 0.
0.541713 0.0842443 0.
0.543886 0.0846929 0.
0.546065 0.0851117 0.
0.548247 0.0855455 0.
0.550434 0.0859732 0.
0.552621 0.0863758 0.
0.554814 0.0867362 0.
0.557005 0.0870989 0.
0.559196 0.0874569 0.
0.561387 0.0877515 0.
0.563576 0.0880378 0.
0.565765 0.0883227 0.
0.567945 0.0885371 0.
0.570123 0.0887416 0.
0.572297 0.0889557 0.
0.574457 0.08916 0.
0.576618 0.0893634 0.
0.578774 0.089557 0.
0.580929 0.0897686 0.
0.583085 0.089973 0.
0.585223 0.0900424 0.
0.587361 0.0901087 0.
0.589492 0.0901654 0.
0.591609 0.0902061 0.
0.593727 0.0902467 0.
0.595844 0.0902627 0.
0.59796 0.0902696 0.
0.600077 0.0902759 0.
0.602194 0.0902483 0.
0.604311 0.0902207 0.
0.606429 0.0901849 0.
0.608547 0.0901316 0.
0.610665 0.0900782 0.
0.6128 0.0900016 0.
0.61494 0.0899148 0.
0.617081 0.0898211 0.
0.61924 0.0896033 0.
0.621397 0.0893801 0.
0.623558 0.0891773 0.
0.625724 0.0889647 0.
0.627889 0.0887514 0.
0.630067 0.0885174 0.
0.632248 0.0882922 0.
0.63443 0.0880545 0.
0.636619 0.087751 0.
0.638808 0.0874459 0.
0.640998 0.0871316 0.
0.643187 0.0867495 0.
0.645376 0.0863626 0.
0.647565 0.0859821 0.
0.649748 0.0855641 0.
0.65193 0.0851156 0.
0.654107 0.0846644 0.
0.656279 0.0842281 0.
0.658445 0.0837702 0.
0.660599 0.083283 0.
0.662749 0.0827874 0.
0.664886 0.0822649 0.
0.66701 0.0817064 0.
0.669126 0.081145 0.
0.671231 0.080579 0.
0.673323 0.0799818 0.
0.675404 0.0793781 0.
0.677477 0.0787871 0.
0.679543 0.0781742 0.
0.681601 0.0775567 0.
0.683658 0.0769414 0.
0.685715 0.0763271 0.
0.687771 0.0757115 0.
0.689828 0.075104 0.
0.691884 0.0745079 0.
0.693941 0.0739236 0.
0.696003 0.0733658 0.
0.698065 0.0728543 0.
0.700127 0.072424 0.
0.702185 0.0721309 0.
0.704244 0.0719434 0.
0.494052 0.0738509 0.
0.496096 0.0740948 0.
0.498139 0.074442 0.
0.50018 0.0748842 0.
0.502218 0.0753998 0.
0.504255 0.0759611 0.
0.506289 0.0765487 0.
0.508319 0.0771473 0.
0.51035 0.0777475 0.
0.512381 0.0783522 0.
0.514413 0.0789588 0.
0.516449 0.0795572 0.
0.518486 0.0801571 0.
0.520528 0.0807551 0.
0.522581 0.0813388 0.
0.524644 0.0818956 0.
0.526718 0.0824663 0.
0.528804 0.083033 0.
0.530906 0.0835687 0.
0.533023 0.0841011 0.
0.53515 0.0846322 0.
0.537292 0.0851254 0.
0.539446 0.085602 0.
0.541604 0.0860744 0.
0.543772 0.0865184 0.
0.545947 0.0869318 0.
0.548126 0.0873582 0.
0.55031 0.087783 0.
0.552496 0.0881823 0.
0.554688 0.0885419 0.
0.556878 0.0889053 0.
0.559068 0.0892642 0.
0.56126 0.0895622 0.
0.563451 0.0898511 0.
0.565642 0.090139 0.
0.567824 0.0903615 0.
0.570005 0.0905728 0.
0.572183 0.0907937 0.
0.574349 0.0909988 0.
0.576516 0.0912029 0.
0.578681 0.0914005 0.
0.580845 0.0916187 0.
0.58301 0.0918301 0.
0.585159 0.0919113 0.
0.587307 0.0919884 0.
0.589449 0.0920535 0.
0.591577 0.092095 0.
0.593705 0.0921366 0.
0.595831 0.0921529 0.
0.597958 0.0921596 0.
0.600084 0.0921658 0.
0.602211 0.0921377 0.
0.604338 0.0921096 0.
0.606465 0.0920731 0.
0.608593 0.0920192 0.
0.610721 0.0919653 0.
0.612867 0.0918775 0.
0.615017 0.0917774 0.
0.617168 0.0916705 0.
0.619335 0.0914484 0.
0.6215 0.0912204 0.
0.623667 0.0910145 0.
0.625837 0.0908001 0.
0.628006 0.0905841 0.
0.630187 0.0903444 0.
0.632371 0.0901134 0.
0.634555 0.0898686 0.
0.636745 0.0895627 0.
0.638936 0.0892557 0.
0.641126 0.0889388 0.
0.643313 0.088557 0.
0.645501 0.0881705 0.
0.647689 0.0877921 0.
0.64987 0.0873784 0.
0.652049 0.0869339 0.
0.654222 0.0864913 0.
0.656389 0.0860614 0.
0.658549 0.0856098 0.
0.660698 0.0851328 0.
0.662842 0.0846478 0.
0.664971 0.0841361 0.
0.667086 0.0835911 0.
0.669191 0.0830457 0.
0.671283 0.082496 0.
0.673359 0.081914 0.
0.675423 0.081326 0.
0.677477 0.0807501 0.
0.679522 0.0801489 0.
0.681557 0.0795408 0.
0.683588 0.0789338 0.
0.68562 0.0783285 0.
0.68765 0.0777211 0.
0.689682 0.0771206 0.
0.691713 0.0765304 0.
0.693745 0.0759505 0.
0.695782 0.0753929 0.
0.69782 0.0748774 0.
0.699859 0.0744427 0.
0.701898 0.0741358 0.
0.703938 0.0739357 0.
0.494324 0.0758641 0.
0.496347 0.0761183 0.
0.498369 0.0764747 0.
0.500387 0.0769241 0.
0.502399 0.07744 0.
0.504408 0.0780006 0.
0.506416 0.0785837 0.
0.508421 0.0791757 0.
0.510426 0.079768 0.
0.512432 0.0803647 0.
0.51444 0.0809625 0.
0.516457 0.0815503 0.
0.518478 0.0821374 0.
0.520506 0.082723 0.
0.522545 0.0832952 0.
0.524598 0.0838377 0.
0.52666 0.0843936 0.
0.528738 0.0849465 0.
0.530833 0.085467 0.
0.532942 0.0859837 0.
0.535063 0.0865005 0.
0.537198 0.086982 0.
0.539347 0.0874479 0.
0.5415 0.0879112 0.
0.543663 0.0883497 0.
0.545834 0.0887572 0.
0.548011 0.0891756 0.
0.550194 0.089597 0.
0.552379 0.0899925 0.
0.55457 0.0903506 0.
0.556761 0.0907143 0.
0.558952 0.0910733 0.
0.561144 0.0913738 0.
0.563335 0.0916648 0.
0.565525 0.0919553 0.
0.567709 0.0921849 0.
0.569891 0.0924025 0.
0.572072 0.0926298 0.
0.574244 0.0928362 0.
0.576417 0.0930413 0.
0.578589 0.0932423 0.
0.580762 0.0934676 0.
0.582935 0.0936868 0.
0.585095 0.0937797 0.
0.587254 0.0938676 0.
0.589407 0.0939415 0.
0.591544 0.0939839 0.
0.593682 0.0940264 0.
0.595819 0.094043 0.
0.597955 0.0940496 0.
0.600092 0.0940556 0.
0.602228 0.0940271 0.
0.604364 0.0939985 0.
0.606501 0.0939613 0.
0.608639 0.0939069 0.
0.610777 0.0938524 0.
0.612934 0.0937528 0.
0.615094 0.0936391 0.
0.617256 0.0935188 0.
0.619429 0.0932914 0.
0.621602 0.0930587 0.
0.623775 0.09285 0.
0.625948 0.0926339 0.
0.628121 0.0924154 0.
0.630303 0.0921705 0.
0.632486 0.0919345 0.
0.634671 0.0916836 0.
0.636861 0.091376 0.
0.639051 0.0910676 0.
0.641241 0.0907489 0.
0.643429 0.0903679 0.
0.645618 0.089982 0.
0.647805 0.089606 0.
0.649985 0.0891966 0.
0.652162 0.0887564 0.
0.654332 0.0883229 0.
0.656495 0.0879006 0.
0.658649 0.0874566 0.
0.660792 0.0869901 0.
0.66293 0.0865164 0.
0.665053 0.0860164 0.
0.667161 0.0854854 0.
0.669258 0.0849559 0.
0.671341 0.0844218 0.
0.673406 0.083854 0.
0.675457 0.0832822 0.
0.677498 0.0827222 0.
0.679528 0.0821332 0.
0.681545 0.0815351 0.
0.683558 0.080937 0.
0.685568 0.0803406 0.
0.687574 0.0797411 0.
0.68958 0.079148 0.
0.691584 0.078564 0.
0.69359 0.0779892 0.
0.695602 0.0774342 0.
0.697614 0.0769172 0.
0.699628 0.0764793 0.
0.701644 0.0761594 0.
0.703664 0.0759456 0.
0.494553 0.0778915 0.
0.496555 0.0781555 0.
0.498552 0.0785208 0.
0.500545 0.0789753 0.
0.502531 0.0794905 0.
0.504513 0.0800493 0.
0.506497 0.0806279 0.
0.508479 0.0812125 0.
0.510463 0.0817961 0.
0.51245 0.082385 0.
0.514442 0.0829736 0.
0.516444 0.08355 0.
0.518453 0.084125 0.
0.52047 0.0846981 0.
0.522501 0.0852577 0.
0.524547 0.0857856 0.
0.526603 0.0863278 0.
0.528674 0.0868666 0.
0.530763 0.087371 0.
0.532867 0.0878716 0.
0.534983 0.0883741 0.
0.537115 0.0888445 0.
0.539259 0.0893002 0.
0.541408 0.0897546 0.
0.543568 0.0901877 0.
0.545735 0.090589 0.
0.54791 0.0909988 0.
0.55009 0.0914154 0.
0.552272 0.091806 0.
0.554461 0.0921615 0.
0.556651 0.0925245 0.
0.55884 0.0928827 0.
0.561031 0.0931855 0.
0.563222 0.0934787 0.
0.565412 0.0937716 0.
0.567597 0.0940076 0.
0.569781 0.0942312 0.
0.571965 0.0944641 0.
0.574143 0.0946712 0.
0.576321 0.0948762 0.
0.578501 0.0950781 0.
0.580682 0.0953068 0.
0.582863 0.0955297 0.
0.585033 0.0956329 0.
0.587201 0.0957308 0.
0.589365 0.0958132 0.
0.591512 0.0958561 0.
0.59366 0.0958991 0.
0.595807 0.0959161 0.
0.597953 0.0959228 0.
0.600099 0.0959289 0.
0.602245 0.0959002 0.
0.60439 0.0958715 0.
0.606537 0.0958341 0.
0.608684 0.0957796 0.
0.610831 0.095725 0.
0.612997 0.0956149 0.
0.615166 0.0954896 0.
0.617338 0.0953583 0.
0.619518 0.0951282 0.
0.621698 0.0948929 0.
0.623877 0.0946829 0.
0.626055 0.0944658 0.
0.628232 0.0942454 0.
0.630415 0.0939959 0.
0.632599 0.0937551 0.
0.634784 0.0934987 0.
0.636973 0.0931896 0.
0.639162 0.0928801 0.
0.641351 0.0925602 0.
0.643537 0.0921811 0.
0.645724 0.0917972 0.
0.647908 0.0914245 0.
0.650085 0.0910201 0.
0.652259 0.0905851 0.
0.654427 0.0901609 0.
0.656588 0.0897457 0.
0.658739 0.0893092 0.
0.660877 0.0888532 0.
0.663009 0.0883908 0.
0.665127 0.0879026 0.
0.66723 0.0873859 0.
0.669321 0.0868726 0.
0.671398 0.0863549 0.
0.673457 0.0858013 0.
0.675501 0.0852442 0.
0.677533 0.0847003 0.
0.679551 0.0841251 0.
0.681556 0.0835373 0.
0.683553 0.0829481 0.
0.685547 0.0823609 0.
0.687535 0.0817695 0.
0.689521 0.0811835 0.
0.691504 0.0806066 0.
0.693486 0.0800376 0.
0.695471 0.0794854 0.
0.697457 0.0789677 0.
0.699446 0.0785276 0.
0.701439 0.0781983 0.
0.703436 0.0779713 0.
0.494722 0.0799269 0.
0.496701 0.0802021 0.
0.498675 0.0805772 0.
0.500645 0.0810366 0.
0.502608 0.081552 0.
0.50457 0.0821086 0.
0.506535 0.0826826 0.
0.508501 0.0832602 0.
0.510471 0.0838357 0.
0.512445 0.084418 0.
0.514425 0.0849971 0.
0.516417 0.0855602 0.
0.518418 0.086122 0.
0.52043 0.0866811 0.
0.522455 0.087229 0.
0.524496 0.0877426 0.
0.526548 0.0882704 0.
0.528616 0.0887956 0.
0.530703 0.0892834 0.
0.532804 0.0897673 0.
0.53492 0.0902576 0.
0.537048 0.0907165 0.
0.539188 0.0911594 0.
0.541333 0.0916048 0.
0.543489 0.092032 0.
0.545653 0.0924271 0.
0.547823 0.092828 0.
0.550001 0.0932399 0.
0.552181 0.093626 0.
0.554367 0.0939784 0.
0.556558 0.094341 0.
0.558749 0.0946988 0.
0.560942 0.0950029 0.
0.563133 0.0952985 0.
0.565322 0.0955924 0.
0.567506 0.0958311 0.
0.56969 0.096057 0.
0.571874 0.0962916 0.
0.574054 0.0964995 0.
0.576235 0.0967045 0.
0.578419 0.0969059 0.
0.580605 0.0971362 0.
0.582791 0.0973613 0.
0.58497 0.097475 0.
0.587149 0.0975835 0.
0.589323 0.0976752 0.
0.591481 0.097719 0.
0.593639 0.0977629 0.
0.595795 0.0977805 0.
0.59795 0.0977876 0.
0.600105 0.097794 0.
0.602261 0.0977648 0.
0.604416 0.0977356 0.
0.606572 0.0976975 0.
0.608728 0.0976424 0.
0.610883 0.0975872 0.
0.613058 0.097467 0.
0.615236 0.0973312 0.
0.617414 0.0971906 0.
0.619597 0.0969586 0.
0.62178 0.0967219 0.
0.623962 0.0965118 0.
0.626142 0.0962942 0.
0.628322 0.0960725 0.
0.630505 0.0958215 0.
0.632689 0.0955785 0.
0.634874 0.0953203 0.
0.637062 0.0950104 0.
0.639252 0.0946987 0.
0.641441 0.0943785 0.
0.643628 0.0940012 0.
0.645815 0.0936187 0.
0.647997 0.0932496 0.
0.650171 0.0928497 0.
0.652342 0.0924199 0.
0.654506 0.0920055 0.
0.656663 0.0915987 0.
0.658811 0.0911702 0.
0.660946 0.0907241 0.
0.663074 0.0902757 0.
0.665189 0.0897992 0.
0.66729 0.0892949 0.
0.669377 0.0887978 0.
0.671451 0.0882968 0.
0.673507 0.0877566 0.
0.675547 0.0872142 0.
0.677575 0.0866856 0.
0.679587 0.0861252 0.
0.681583 0.0855508 0.
0.68357 0.0849716 0.
0.685551 0.084394 0.
0.687526 0.08381 0.
0.689498 0.0832291 0.
0.691465 0.0826583 0.
0.693429 0.0820955 0.
0.695395 0.0815471 0.
0.697359 0.0810287 0.
0.699325 0.0805851 0.
0.701297 0.0802472 0.
0.703273 0.0800082 0.
CELLS 5000 10000
1 0
1 1
1 2
1 3
1 4
1 5
1 6
1 7
1 8
1 9
1 10
1 11
1 12
1 13
1 14
1 15
1 16
1 17
1 18
1 19
1 20
1 21
1 22
1 23
1 24
1 25
1 26
1 27
1 28
1 29
1 30
1 31
1 32
1 33
1 34
1 35
1 36
1 37
1 38
1 39
1 40
1 41
1 42
1 43
1 44
1 45
1 46
1 47
1 48
1 49
1 50
1 51
1 52
1 53
1 54
1 55
1 56
1 57
1 58
1 59
1 60
1 61
1 62
1 63
1 64
1 65
1 66
1 67
1 68
1 69
1 70
1 71
1 72
1 73
1 74
1 75
1 76
1 77
1 78
1 79
1 80
1 81
1 82
1 83
1 84
1 85
1 86
1 87
1 88
1 89
1 90
1 91
1 92
1 93
1 94
1 95
1 96
1 97
1 98
1 99
1 100
1 101
1 102
1 103
1 104
1 105
1 106
1 107
1 108
1 109
1 110
1 111
1 112
1 113
1 114
1 115
1 116
1 117
1 118
1 119
1 120
1 121
1 122
1 123
1 124
1 125
1 126
1 127
1 128
1 129
1 130
1 131
1 132
1 133
1 134
1 135
1 136
1 137
1 138
1 139
1 140
1 141
1 142
1 143
1 144
1 145
1 146
1 147
1 148
1 149
1 150
1 151
1 152
1 153
1 154
1 155
1 156
1 157
1 158
1 159
1 160
1 161
1 162
1 163
1 164
1 165
1 166
1 167
1 168
1 169
1 170
1 171
1 172
1 173
1 174
1 175
1 176
1 177
1 178
1 179
1 180
1 181
1 182
1 183
1 184
1 185
1 186
1 187
1 188
1 189
1 190
1 191
1 192
1 193
1 194
1 195
1 196
1 197
1 198
1 199
1 200
1 201
1 202
1 203
1 204
1 205
1 206
1 207
1 208
1 209
1 210
1 211
1 212
1 213
1 214
1 215
1 216
1 217
1 218
1 219
1 220
1 221
1 222
1 223
1 224
1 225
1 226
1 227
1 228
1 229
1 230
1 231
1 232
1 233
1 234
1 235
1 236
1 237
1 238
1 239
1 240
1 241
1 242
1 243
1 244
1 245
1 246
1 247
1 248
1 249
1 250
1 251
1 252
1 253
1 254
1 255
1 256
1 257
1 258
1 259
1 260
1 261
1 262
1 263
1 264
1 265
1 266
1 267
1 268
1 269
1 270
1 271
1 272
1 273
1 274
1 275
1 276
1 277
1 278
1 279
1 280
1 281
1 282
1 283
1 284
1 285
1 286
1 287
1 288
1 289
1 290
1 291
1 292
1 293
1 294
1 295
1 296
1 297
1 298
1 299
1 300
1 301
1 302
1 303
1 304
1 305
1 306
1 307
1 308
1 309
1 310
1 311
1 312
1 313
1 314
1 315
1 316
1 317
1 318
1 319
1 320
1 321
1 322
1 323
1 324
1 325
1 326
1 327
1 328
1 329
1 330
1 331
1 332
1 333
1 334
1 335
1 336
1 337
1 338
1 339
1 340
1 341
1 342
1 343
1 344
1 345
1 346
1 347
1 348
1 349
1 350
1 351
1 352
1 353
1 354
1 355
1 356
1 357
1 358
1 359
1 360
1 361
1 362
1 363
1 364
1 365
1 366
1 367
1 368
1 369
1 370
1 371
1 372
1 373
1 374
1 375
1 376
1 377
1 378
1 379
1 380
1 381
1 382
1 383
1 384
1 385
1 386
1 387
1 388
1 389
1 390
1 391
1 392
1 393
1 394
1 395
1 396
1 397
1 398
1 399
1 400
1 401
1 402
1 403
1 404
1 405
1 406
1 407
1 408
1 409
1 410
1 411
1 412
1 413
1 414
1 415
1 416
1 417
1 418
1 419
1 420
1 421
1 422
1 423
1 424
1 425
1 426
1 427
1 428
1 429
1 430
1 431
1 432
1 433
1 434
1 435
1 436
1 437
1 438
1 439
1 440
1 441
1 442
1 443
1 444
1 445
1 446
1 447
1 448
1 449
1 450
1 451
1 452
1 453
1 454
1 455
1 456
1 457
1 458
1 459
1 460
1 461
1 462
1 463
1 464
1 465
1 466
1 467
1 468
1 469
1 470
1 471
1 472
1 473
1 474
1 475
1 476
1 477
1 478
1 479
1 480
1 481
1 482
1 483
1 484
1 485
1 486
1 487
1 488
1 489
1 490
1 491
1 492
1 493
1 494
1 495
1 496
1 497
1 498
1 499
1 500
1 501
1 502
1 503
1 504
1 505
1 506
1 507
1 508
1 509
1 510
1 511
1 512
1 513
1 514
1 515
1 516
1 517
1 518
1 519
1 520
1 521
1 522
1 523
1 524
1 525
1 526
1 527
1 528
1 529
1 530
1 531
1 532
1 533
1 534
1 535
1 536
1 537
1 538
1 539
1 540
1 541
1 542
1 543
1 544
1 545
1 546
1 547
1 548
1 549
1 550
1 551
1 552
1 553
1 554
1 555
1 556
1 557
1 558
1 559
1 560
1 561
1 562
1 563
1 564
1 565
1 566
1 567
1 568
1 569
1 570
1 571
1 572
1 573
1 574
1 575
1 576
1 577
1 578
1 579
1 580
1 581
1 582
1 583
1 584
1 585
1 586
1 587
1 588
1 589
1 590
1 591
1 592
1 593
1 594
1 595
1 596
1 597
1 598
1 599
1 600
1 601
1 602
1 603
1 604
1 605
1 606
1 607
1 608
1 609
1 610
1 611
1 612
1 613
1 614
1 615
1 616
1 617
1 618
1 619
1 620
1 621
1 622
1 623
1 624
1 625
1 626
1 627
1 628
1 629
1 630
1 631
1 632
1 633
1 634
1 635
1 636
1 637
1 638
1 639
1 640
1 641
1 642
1 643
1 644
1 645
1 646
1 647
1 648
1 649
1 650
1 651
1 652
1 653
1 654
1 655
1 656
1 657
1 658
1 659
1 660
1 661
1 662
1 663
1 664
1 665
1 666
1 667
1 668
1 669
1 670
1 671
1 672
1 673
1 674
1 675
1 676
1 677
1 678
1 679
1 680
1 681
1 682
1 683
1 684
1 685
1 686
1 687
1 688
1 689
1 690
1 691
1 692
1 693
1 694
1 695
1 696
1 697
1 698
1 699
1 700
1 701
1 702
1 703
1 704
1 705
1 706
1 707
1 708
1 709
1 710
1 711
1 712
1 713
1 714
1 715
1 716
1 717
1 718
1 719
1 720
1 721
1 722
1 723
1 724
1 725
1 726
1 727
1 728
1 729
1 730
1 731
1 732
1 733
1 734
1 735
1 736
1 737
1 738
1 739
1 740
1 741
1 742
1 743
1 744
1 745
1 746
1 747
1 748
1 749
1 750
1 751
1 752
1 753
1 754
1 755
1 756
1 757
1 758
1 759
1 760
1 761
1 762
1 763
1 764
1 765
1 766
1 767
1 768
1 769
1 770
1 771
1 772
1 773
1 774
1 775
1 776
1 777
1 778
1 779
1 780
1 781
1 782
1 783
1 784
1 785
1 786
1 787
1 788
1 789
1 790
1 791
1 792
1 793
1 794
1 795
1 796
1 797
1 798
1 799
1 800
1 801
1 802
1 803
1 804
1 805
1 806
1 807
1 808
1 809
1 810
1 811
1 812
1 813
1 814
1 815
1 816
1 817
1 818
1 819
1 820
1 821
1 822
1 823
1 824
1 825
1 826
1 827
1 828
1 829
1 830
1 831
1 832
1 833
1 834
1 835
1 836
1 837
1 838
1 839
1 840
1 841
1 842
1 843
1 844
1 845
1 846
1 847
1 848
1 849
1 850
1 851
1 852
1 853
1 854
1 855
1 856
1 857
1 858
1 859
1 860
1 861
1 862
1 863
1 864
1 865
1 866
1 867
1 868
1 869
1 870
1 871
1 872
1 873
1 874
1 875
1 876
1 877
1 878
1 879
1 880
1 881
1 882
1 883
1 884
1 885
1 886
1 887
1 888
1 889
1 890
1 891
1 892
1 893
1 894
1 895
1 896
1 897
1 898
1 899
1 900
1 901
1 902
1 903
1 904
1 905
1 906
1 907
1 908
1 909
1 910
1 911
1 912
1 913
1 914
1 915
1 916
1 917
1 918
1 919
1 920
1 921
1 922
1 923
1 924
1 925
1 926
1 927
1 928
1 929
1 930
1 931
1 932
1 933
1 934
1 935
1 936
1 937
1 938
1 939
1 940
1 941
1 942
1 943
1 944
1 945
1 946
1 947
1 948
1 949
1 950
1 951
1 952
1 953
1 954
1 955
1 956
1 957
1 958
1 959
1 960
1 961
1 962
1 963
1 964
1 965
1 966
1 967
1 968
1 969
1 970
1 971
1 972
1 973
1 974
1 975
1 976
1 977
1 978
1 979
1 980
1 981
1 982
1 983
1 984
1 985
1 986
1 987
1 988
1 989
1 990
1 991
1 992
1 993
1 994
1 995
1 996
1 997
1 998
1 999
1 1000
1 1001
1 1002
1 1003
1 1004
1 1005
1 1006
1 1007
1 1008
1 1009
1 1010
1 1011
1 1012
1 1013
1 1014
1 1015
1 1016
1 1017
1 1018
1 1019
1 1020
1 1021
1 1022
1 1023
1 1024
1 1025
1 1026
1 1027
1 1028
1 1029
1 1030
1 1031
1 1032
1 1033
1 1034
1 1035
1 1036
1 1037
1 1038
1 1039
1 1040
1 1041
1 1042
1 1043
1 1044
1 1045
1 1046
1 1047
1 1048
1 1049
1 1050
1 1051
1 1052
1 1053
1 1054
1 1055
1 1056
1 1057
1 1058
1 1059
1 1060
1 1061
1 1062
1 1063
1 1064
1 1065
1 1066
1 1067
1 1068
1 1069
1 1070
1 1071
1 1072
1 1073
1 1074
1 1075
1 1076
1 1077
1 1078
1 1079
1 1080
1 1081
1 1082
1 1083
1 1084
1 1085
1 1086
1 1087
1 1088
1 1089
1 1090
1 1091
1 1092
1 1093
1 1094
1 1095
1 1096
1 1097
1 1098
1 1099
1 1100
1 1101
1 1102
1 1103
1 1104
1 1105
1 1106
1 1107
1 1108
1 1109
1 1110
1 1111
1 1112
1 1113
1 1114
1 1115
1 1116
1 1117
1 1118
1 1119
1 1120
1 1121
1 1122
1 1123
1 1124
1 1125
1 1126
1 1127
1 1128
1 1129
1 1130
1 1131
1 1132
1 1133
1 1134
1 1135
1 1136
1 1137
1 1138
1 1139
1 1140
1 1141
1 1142
1 1143
1 1144
1 1145
1 1146
1 1147
1 1148
1 1149
1 1150
1 1151
1 1152
1 1153
1 1154
1 1155
1 1156
1 1157
1 1158
1 1159
1 1160
1 1161
1 1162
1 1163
1 1164
1 1165
1 1166
1 1167
1 1168
1 1169
1 1170
1 1171
1 1172
1 1173
1 1174
1 1175
1 1176
1 1177
1 1178
1 1179
1 1180
1 1181
1 1182
1 1183
1 1184
1 1185
1 1186
1 1187
1 1188
1 1189
1 1190
1 1191
1 1192
1 1193
1 1194
1 1195
1 1196
1 1197
1 1198
1 1199
1 1200
1 1201
1 1202
1 1203
1 1204
1 1205
1 1206
1 1207
1 1208
1 1209
1 1210
1 1211
1 1212
1 1213
1 1214
1 1215
1 1216
1 1217
1 1218
1 1219
1 1220
1 1221
1 1222
1 1223
1 1224
1 1225
1 1226
1 1227
1 1228
1 1229
1 1230
1 1231
1 1232
1 1233
1 1234
1 1235
1 1236
1 1237
1 1238
1 1239
1 1240
1 1241
1 1242
1 1243
1 1244
1 1245
1 1246
1 1247
1 1248
1 1249
1 1250
1 1251
1 1252
1 1253
1 1254
1 1255
1 1256
1 1257
1 1258
1 1259
1 1260
1 1261
1 1262
1 1263
1 1264
1 1265
1 1266
1 1267
1 1268
1 1269
1 1270
1 1271
1 1272
1 1273
1 1274
1 1275
1 1276
1 1277
1 1278
1 1279
1 1280
1 1281
1 1282
1 1283
1 1284
1 1285
1 1286
1 1287
1 1288
1 1289
1 1290
1 1291
1 1292
1 1293
1 1294
1 1295
1 1296
1 1297
1 1298
1 1299
1 1300
1 1301
1 1302
1 1303
1 1304
1 1305
1 1306
1 1307
1 1308
1 1309
1 1310
1 1311
1 1312
1 1313
1 1314
1 1315
1 1316
1 1317
1 1318
1 1319
1 1320
1 1321
1 1322
1 1323
1 1324
1 1325
1 1326
1 1327
1 1328
1 1329
1 1330
1 1331
1 1332
1 1333
1 1334
1 1335
1 1336
1 1337
1 1338
1 1339
1 1340
1 1341
1 1342
1 1343
1 1344
1 1345
1 1346
1 1347
1 1348
1 1349
1 1350
1 1351
1 1352
1 1353
1 1354
1 1355
1 1356
1 1357
1 1358
1 1359
1 1360
1 1361
1 1362
1 1363
1 1364
1 1365
1 1366
1 1367
1 1368
1 1369
1 1370
1 1371
1 1372
1 1373
1 1374
1 1375
1 1376
1 1377
1 1378
1 1379
1 1380
1 1381
1 1382
1 1383
1 1384
1 1385
1 1386
1 1387
1 1388
1 1389
1 1390
1 1391
1 1392
1 1393
1 1394
1 1395
1 1396
1 1397
1 1398
1 1399
1 1400
1 1401
1 1402
1 1403
1 1404
1 1405
1 1406
1 1407
1 1408
1 1409
1 1410
1 1411
1 1412
1 1413
1 1414
1 1415
1 1416
1 1417
1 1418
1 1419
1 1420
1 1421
1 1422
1 1423
1 1424
1 1425
1 1426
1 1427
1 1428
1 1429
1 1430
1 1431
1 1432
1 1433
1 1434
1 1435
1 1436
1 1437
1 1438
1 1439
1 1440
1 1441
1 1442
1 1443
1 1444
1 1445
1 1446
1 1447
1 1448
1 1449
1 1450
1 1451
1 1452
1 1453
1 1454
1 1455
1 1456
1 1457
1 1458
1 1459
1 1460
1 1461
1 1462
1 1463
1 1464
1 1465
1 1466
1 1467
1 1468
1 1469
1 1470
1 1471
1 1472
1 1473
1 1474
1 1475
1 1476
1 1477
1 1478
1 1479
1 1480
1 1481
1 1482
1 1483
1 1484
1 1485
1 1486
1 1487
1 1488
1 1489
1 1490
1 1491
1 1492
1 1493
1 1494
1 1495
1 1496
1 1497
1 1498
1 1499
1 1500
1 1501
1 1502
1 1503
1 1504
1 1505
1 1506
1 1507
1 1508
1 1509
1 1510
1 1511
1 1512
1 1513
1 1514
1 1515
1 1516
1 1517
1 1518
1 1519
1 1520
1 1521
1 1522
1 1523
1 1524
1 1525
1 1526
1 1527
1 1528
1 1529
1 1530
1 1531
1 1532
1 1533
1 1534
1 1535
1 1536
1 1537
1 1538
1 1539
1 1540
1 1541
1 1542
1 1543
1 1544
1 1545
1 1546
1 1547
1 1548
1 1549
1 1550
1 1551
1 1552
1 1553
1 1554
1 1555
1 1556
1 1557
1 1558
1 1559
1 1560
1 1561
1 1562
1 1563
1 1564
1 1565
1 1566
1 1567
1 1568
1 1569
1 1570
1 1571
1 1572
1 1573
1 1574
1 1575
1 1576
1 1577
1 1578
1 1579
1 1580
1 1581
1 1582
1 1583
1 1584
1 1585
1 1586
1 1587
1 1588
1 1589
1 1590
1 1591
1 1592
1 1593
1 1594
1 1595
1 1596
1 1597
1 1598
1 1599
1 1600
1 1601
1 1602
1 1603
1 1604
1 1605
1 1606
1 1607
1 1608
1 1609
1 1610
1 1611
1 1612
1 1613
1 1614
1 1615
1 1616
1 1617
1 1618
1 1619
1 1620
1 1621
1 1622
1 1623
1 1624
1 1625
1 1626
1 1627
1 1628
1 1629
1 1630
1 1631
1 1632
1 1633
1 1634
1 1635
1 1636
1 1637
1 1638
1 1639
1 1640
1 1641
1 1642
1 1643
1 1644
1 1645
1 1646
1 1647
1 1648
1 1649
1 1650
1 1651
1 1652
1 1653
1 1654
1 1655
1 1656
1 1657
1 1658
1 1659
1 1660
1 1661
1 1662
1 1663
1 1664
1 1665
1 1666
1 1667
1 1668
1 1669
1 1670
1 1671
1 1672
1 1673
1 1674
1 1675
1 1676
1 1677
1 1678
1 1679
1 1680
1 1681
1 1682
1 1683
1 1684
1 1685
1 1686
1 1687
1 1688
1 1689
1 1690
1 1691
1 1692
1 1693
1 1694
1 1695
1 1696
1 1697
1 1698
1 1699
1 1700
1 1701
1 1702
1 1703
1 1704
1 1705
1 1706
1 1707
1 1708
1 1709
1 1710
1 1711
1 1712
1 1713
1 1714
1 1715
1 1716
1 1717
1 1718
1 1719
1 1720
1 1721
1 1722
1 1723
1 1724
1 1725
1 1726
1 1727
1 1728
1 1729
1 1730
1 1731
1 1732
1 1733
1 1734
1 1735
1 1736
1 1737
1 1738
1 1739
1 1740
1 1741
1 1742
1 1743
1 1744
1 1745
1 1746
1 1747
1 1748
1 1749
1 1750
1 1751
1 1752
1 1753
1 1754
1 1755
1 1756
1 1757
1 1758
1 1759
1 1760
1 1761
1 1762
1 1763
1 1764
1 1765
1 1766
1 1767
1 1768
1 1769
1 1770
1 1771
1 1772
1 1773
1 1774
1 1775
1 1776
1 1777
1 1778
1 1779
1 1780
1 1781
1 1782
1 1783
1 1784
1 1785
1 1786
1 1787
1 1788
1 1789
1 1790
1 1791
1 1792
1 1793
1 1794
1 1795
1 1796
1 1797
1 1798
1 1799
1 1800
1 1801
1 1802
1 1803
1 1804
1 1805
1 1806
1 1807
1 1808
1 1809
1 1810
1 1811
1 1812
1 1813
1 1814
1 1815
1 1816
1 1817
1 1818
1 1819
1 1820
1 1821
1 1822
1 1823
1 1824
1 1825
1 1826
1 1827
1 1828
1 1829
1 1830
1 1831
1 1832
1 1833
1 1834
1 1835
1 1836
1 1837
1 1838
1 1839
1 1840
1 1841
1 1842
1 1843
1 1844
1 1845
1 1846
1 1847
1 1848
1 1849
1 1850
1 1851
1 1852
1 1853
1 1854
1 1855
1 1856
1 1857
1 1858
1 1859
1 1860
1 1861
1 1862
1 1863
1 1864
1 1865
1 1866
1 1867
1 1868
1 1869
1 1870
1 1871
1 1872
1 1873
1 1874
1 1875
1 1876
1 1877
1 1878
1 1879
1 1880
1 1881
1 1882
1 1883
1 1884
1 1885
1 1886
1 1887
1 1888
1 1889
1 1890
1 1891
1 1892
1 1893
1 1894
1 1895
1 1896
1 1897
1 1898
1 1899
1 1900
1 1901
1 1902
1 1903
1 1904
1 1905
1 1906
1 1907
1 1908
1 1909
1 1910
1 1911
1 1912
1 1913
1 1914
1 1915
1 1916
1 1917
1 1918
1 1919
1 1920
1 1921
1 1922
1 1923
1 1924
1 1925
1 1926
1 1927
1 1928
1 1929
1 1930
1 1931
1 1932
1 1933
1 1934
1 1935
1 1936
1 1937
1 1938
1 1939
1 1940
1 1941
1 1942
1 1943
1 1944
1 1945
1 1946
1 1947
1 1948
1 1949
1 1950
1 1951
1 1952
1 1953
1 1954
1 1955
1 1956
1 1957
1 1958
1 1959
1 1960
1 1961
1 1962
1 1963
1 1964
1 1965
1 1966
1 1967
1 1968
1 1969
1 1970
1 1971
1 1972
1 1973
1 1974
1 1975
1 1976
1 1977
1 1978
1 1979
1 1980
1 1981
1 1982
1 1983
1 1984
1 1985
1 1986
1 1987
1 1988
1 1989
1 1990
1 1991
1 1992
1 1993
1 1994
1 1995
1 1996
1 1997
1 1998
1 1999
1 2000
1 2001
1 2002
1 2003
1 2004
1 2005
1 2006
1 2007
1 2008
1 2009
1 2010
1 2011
1 2012
1 2013
1 2014
1 2015
1 2016
1 2017
1 2018
1 2019
1 2020
1 2021
1 2022
1 2023
1 2024
1 2025
1 2026
1 2027
1 2028
1 2029
1 2030
1 2031
1 2032
1 2033
1 2034
1 2035
1 2036
1 2037
1 2038
1 2039
1 2040
1 2041
1 2042
1 2043
1 2044
1 2045
1 2046
1 2047
1 2048
1 2049
1 2050
1 2051
1 2052
1 2053
1 2054
1 2055
1 2056
1 2057
1 2058
1 2059
1 2060
1 2061
1 2062
1 2063
1 2064
1 2065
1 2066
1 2067
1 2068
1 2069
1 2070
1 2071
1 2072
1 2073
1 2074
1 2075
1 2076
1 2077
1 2078
1 2079
1 2080
1 2081
1 2082
1 2083
1 2084
1 2085
1 2086
1 2087
1 2088
1 2089
1 2090
1 2091
1 2092
1 2093
1 2094
1 2095
1 2096
1 2097
1 2098
1 2099
1 2100
1 2101
1 2102
1 2103
1 2104
1 2105
1 2106
1 2107
1 2108
1 2109
1 2110
1 2111
1 2112
1 2113
1 2114
1 2115
1 2116
1 2117
1 2118
1 2119
1 2120
1 2121
1 2122
1 2123
1 2124
1 2125
1 2126
1 2127
1 2128
1 2129
1 2130
1 2131
1 2132
1 2133
1 2134
1 2135
1 2136
1 2137
1 2138
1 2139
1 2140
1 2141
1 2142
1 2143
1 2144
1 2145
1 2146
1 2147
1 2148
1 2149
1 2150
1 2151
1 2152
1 2153
1 2154
1 2155
1 2156
1 2157
1 2158
1 2159
1 2160
1 2161
1 2162
1 2163
1 2164
1 2165
1 2166
1 2167
1 2168
1 2169
1 2170
1 2171
1 2172
1 2173
1 2174
1 2175
1 2176
1 2177
1 2178
1 2179
1 2180
1 2181
1 2182
1 2183
1 2184
1 2185
1 2186
1 2187
1 2188
1 2189
1 2190
1 2191
1 2192
1 2193
1 2194
1 2195
1 2196
1 2197
1 2198
1 2199
1 2200
1 2201
1 2202
1 2203
1 2204
1 2205
1 2206
1 2207
1 2208
1 2209
1 2210
1 2211
1 2212
1 2213
1 2214
1 2215
1 2216
1 2217
1 2218
1 2219
1 2220
1 2221
1 2222
1 2223
1 2224
1 2225
1 2226
1 2227
1 2228
1 2229
1 2230
1 2231
1 2232
1 2233
1 2234
1 2235
1 2236
1 2237
1 2238
1 2239
1 2240
1 2241
1 2242
1 2243
1 2244
1 2245
1 2246
1 2247
1 2248
1 2249
1 2250
1 2251
1 2252
1 2253
1 2254
1 2255
1 2256
1 2257
1 2258
1 2259
1 2260
1 2261
1 2262
1 2263
1 2264
1 2265
1 2266
1 2267
1 2268
1 2269
1 2270
1 2271
1 2272
1 2273
1 2274
1 2275
1 2276
1 2277
1 2278
1 2279
1 2280
1 2281
1 2282
1 2283
1 2284
1 2285
1 2286
1 2287
1 2288
1 2289
1 2290
1 2291
1 2292
1 2293
1 2294
1 2295
1 2296
1 2297
1 2298
1 2299
1 2300
1 2301
1 2302
1 2303
1 2304
1 2305
1 2306
1 2307
1 2308
1 2309
1 2310
1 2311
1 2312
1 2313
1 2314
1 2315
1 2316
1 2317
1 2318
1 2319
1 2320
1 2321
1 2322
1 2323
1 2324
1 2325
1 2326
1 2327
1 2328
1 2329
1 2330
1 2331
1 2332
1 2333
1 2334
1 2335
1 2336
1 2337
1 2338
1 2339
1 2340
1 2341
1 2342
1 2343
1 2344
1 2345
1 2346
1 2347
1 2348
1 2349
1 2350
1 2351
1 2352
1 2353
1 2354
1 2355
1 2356
1 2357
1 2358
1 2359
1 2360
1 2361
1 2362
1 2363
1 2364
1 2365
1 2366
1 2367
1 2368
1 2369
1 2370
1 2371
1 2372
1 2373
1 2374
1 2375
1 2376
1 2377
1 2378
1 2379
1 2380
1 2381
1 2382
1 2383
1 2384
1 2385
1 2386
1 2387
1 2388
1 2389
1 2390
1 2391
1 2392
1 2393
1 2394
1 2395
1 2396
1 2397
1 2398
1 2399
1 2400
1 2401
1 2402
1 2403
1 2404
1 2405
1 2406
1 2407
1 2408
1 2409
1 2410
1 2411
1 2412
1 2413
1 2414
1 2415
1 2416
1 2417
1 2418
1 2419
1 2420
1 2421
1 2422
1 2423
1 2424
1 2425
1 2426
1 2427
1 2428
1 2429
1 2430
1 2431
1 2432
1 2433
1 2434
1 2435
1 2436
1 2437
1 2438
1 2439
1 2440
1 2441
1 2442
1 2443
1 2444
1 2445
1 2446
1 2447
1 2448
1 2449
1 2450
1 2451
1 2452
1 2453
1 2454
1 2455
1 2456
1 2457
1 2458
1 2459
1 2460
1 2461
1 2462
1 2463
1 2464
1 2465
1 2466
1 2467
1 2468
1 2469
1 2470
1 2471
1 2472
1 2473
1 2474
1 2475
1 2476
1 2477
1 2478
1 2479
1 2480
1 2481
1 2482
1 2483
1 2484
1 2485
1 2486
1 2487
1 2488
1 2489
1 2490
1 2491
1 2492
1 2493
1 2494
1 2495
1 2496
1 2497
1 2498
1 2499
1 2500
1 2501
1 2502
1 2503
1 2504
1 2505
1 2506
1 2507
1 2508
1 2509
1 2510
1 2511
1 2512
1 2513
1 2514
1 2515
1 2516
1 2517
1 2518
1 2519
1 2520
1 2521
1 2522
1 2523
1 2524
1 2525
1 2526
1 2527
1 2528
1 2529
1 2530
1 2531
1 2532
1 2533
1 2534
1 2535
1 2536
1 2537
1 2538
1 2539
1 2540
1 2541
1 2542
1 2543
1 2544
1 2545
1 2546
1 2547
1 2548
1 2549
1 2550
1 2551
1 2552
1 2553
1 2554
1 2555
1 2556
1 2557
1 2558
1 2559
1 2560
1 2561
1 2562
1 2563
1 2564
1 2565
1 2566
1 2567
1 2568
1 2569
1 2570
1 2571
1 2572
1 2573
1 2574
1 2575
1 2576
1 2577
1 2578
1 2579
1 2580
1 2581
1 2582
1 2583
1 2584
1 2585
1 2586
1 2587
1 2588
1 2589
1 2590
1 2591
1 2592
1 2593
1 2594
1 2595
1 2596
1 2597
1 2598
1 2599
1 2600
1 2601
1 2602
1 2603
1 2604
1 2605
1 2606
1 2607
1 2608
1 2609
1 2610
1 2611
1 2612
1 2613
1 2614
1 2615
1 2616
1 2617
1 2618
1 2619
1 2620
1 2621
1 2622
1 2623
1 2624
1 2625
1 2626
1 2627
1 2628
1 2629
1 2630
1 2631
1 2632
1 2633
1 2634
1 2635
1 2636
1 2637
1 2638
1 2639
1 2640
1 2641
1 2642
1 2643
1 2644
1 2645
1 2646
1 2647
1 2648
1 2649
1 2650
1 2651
1 2652
1 2653
1 2654
1 2655
1 2656
1 2657
1 2658
1 2659
1 2660
1 2661
1 2662
1 2663
1 2664
1 2665
1 2666
1 2667
1 2668
1 2669
1 2670
1 2671
1 2672
1 2673
1 2674
1 2675
1 2676
1 2677
1 2678
1 2679
1 2680
1 2681
1 2682
1 2683
1 2684
1 2685
1 2686
1 2687
1 2688
1 2689
1 2690
1 2691
1 2692
1 2693
1 2694
1 2695
1 2696
1 2697
1 2698
1 2699
1 2700
1 2701
1 2702
1 2703
1 2704
1 2705
1 2706
1 2707
1 2708
1 2709
1 2710
1 2711
1 2712
1 2713
1 2714
1 2715
1 2716
1 2717
1 2718
1 2719
1 2720
1 2721
1 2722
1 2723
1 2724
1 2725
1 2726
1 2727
1 2728
1 2729
1 2730
1 2731
1 2732
1 2733
1 2734
1 2735
1 2736
1 2737
1 2738
1 2739
1 2740
1 2741
1 2742
1 2743
1 2744
1 2745
1 2746
1 2747
1 2748
1 2749
1 2750
1 2751
1 2752
1 2753
1 2754
1 2755
1 2756
1 2757
1 2758
1 2759
1 2760
1 2761
1 2762
1 2763
1 2764
1 2765
1 2766
1 2767
1 2768
1 2769
1 2770
1 2771
1 2772
1 2773
1 2774
1 2775
1 2776
1 2777
1 2778
1 2779
1 2780
1 2781
1 2782
1 2783
1 2784
1 2785
1 2786
1 2787
1 2788
1 2789
1 2790
1 2791
1 2792
1 2793
1 2794
1 2795
1 2796
1 2797
1 2798
1 2799
1 2800
1 2801
1 2802
1 2803
1 2804
1 2805
1 2806
1 2807
1 2808
1 2809
1 2810
1 2811
1 2812
1 2813
1 2814
1 2815
1 2816
1 2817
1 2818
1 2819
1 2820
1 2821
1 2822
1 2823
1 2824
1 2825
1 2826
1 2827
1 2828
1 2829
1 2830
1 2831
1 2832
1 2833
1 2834
1 2835
1 2836
1 2837
1 2838
1 2839
1 2840
1 2841
1 2842
1 2843
1 2844
1 2845
1 2846
1 2847
1 2848
1 2849
1 2850
1 2851
1 2852
1 2853
1 2854
1 2855
1 2856
1 2857
1 2858
1 2859
1 2860
1 2861
1 2862
1 2863
1 2864
1 2865
1 2866
1 2867
1 2868
1 2869
1 2870
1 2871
1 2872
1 2873
1 2874
1 2875
1 2876
1 2877
1 2878
1 2879
1 2880
1 2881
1 2882
1 2883
1 2884
1 2885
1 2886
1 2887
1 2888
1 2889
1 2890
1 2891
1 2892
1 2893
1 2894
1 2895
1 2896
1 2897
1 2898
1 2899
1 2900
1 2901
1 2902
1 2903
1 2904
1 2905
1 2906
1 2907
1 2908
1 2909
1 2910
1 2911
1 2912
1 2913
1 2914
1 2915
1 2916
1 2917
1 2918
1 2919
1 2920
1 2921
1 2922
1 2923
1 2924
1 2925
1 2926
1 2927
1 2928
1 2929
1 2930
1 2931
1 2932
1 2933
1 2934
1 2935
1 2936
1 2937
1 2938
1 2939
1 2940
1 2941
1 2942
1 2943
1 2944
1 2945
1 2946
1 2947
1 2948
1 2949
1 2950
1 2951
1 2952
1 2953
1 2954
1 2955
1 2956
1 2957
1 2958
1 2959
1 2960
1 2961
1 2962
1 2963
1 2964
1 2965
1 2966
1 2967
1 2968
1 2969
1 2970
1 2971
1 2972
1 2973
1 2974
1 2975
1 2976
1 2977
1 2978
1 2979
1 2980
1 2981
1 2982
1 2983
1 2984
1 2985
1 2986
1 2987
1 2988
1 2989
1 2990
1 2991
1 2992
1 2993
1 2994
1 2995
1 2996
1 2997
1 2998
1 2999
1 3000
1 3001
1 3002
1 3003
1 3004
1 3005
1 3006
1 3007
1 3008
1 3009
1 3010
1 3011
1 3012
1 3013
1 3014
1 3015
1 3016
1 3017
1 3018
1 3019
1 3020
1 3021
1 3022
1 3023
1 3024
1 3025
1 3026
1 3027
1 3028
1 3029
1 3030
1 3031
1 3032
1 3033
1 3034
1 3035
1 3036
1 3037
1 3038
1 3039
1 3040
1 3041
1 3042
1 3043
1 3044
1 3045
1 3046
1 3047
1 3048
1 3049
1 3050
1 3051
1 3052
1 3053
1 3054
1 3055
1 3056
1 3057
1 3058
1 3059
1 3060
1 3061
1 3062
1 3063
1 3064
1 3065
1 3066
1 3067
1 3068
1 3069
1 3070
1 3071
1 3072
1 3073
1 3074
1 3075
1 3076
1 3077
1 3078
1 3079
1 3080
1 3081
1 3082
1 3083
1 3084
1 3085
1 3086
1 3087
1 3088
1 3089
1 3090
1 3091
1 3092
1 3093
1 3094
1 3095
1 3096
1 3097
1 3098
1 3099
1 3100
1 3101
1 3102
1 3103
1 3104
1 3105
1 3106
1 3107
1 3108
1 3109
1 3110
1 3111
1 3112
1 3113
1 3114
1 3115
1 3116
1 3117
1 3118
1 3119
1 3120
1 3121
1 3122
1 3123
1 3124
1 3125
1 3126
1 3127
1 3128
1 3129
1 3130
1 3131
1 3132
1 3133
1 3134
1 3135
1 3136
1 3137
1 3138
1 3139
1 3140
1 3141
1 3142
1 3143
1 3144
1 3145
1 3146
1 3147
1 3148
1 3149
1 3150
1 3151
1 3152
1 3153
1 3154
1 3155
1 3156
1 3157
1 3158
1 3159
1 3160
1 3161
1 3162
1 3163
1 3164
1 3165
1 3166
1 3167
1 3168
1 3169
1 3170
1 3171
1 3172
1 3173
1 3174
1 3175
1 3176
1 3177
1 3178
1 3179
1 3180
1 3181
1 3182
1 3183
1 3184
1 3185
1 3186
1 3187
1 3188
1 3189
1 3190
1 3191
1 3192
1 3193
1 3194
1 3195
1 3196
1 3197
1 3198
1 3199
1 3200
1 3201
1 3202
1 3203
1 3204
1 3205
1 3206
1 3207
1 3208
1 3209
1 3210
1 3211
1 3212
1 3213
1 3214
1 3215
1 3216
1 3217
1 3218
1 3219
1 3220
1 3221
1 3222
1 3223
1 3224
1 3225
1 3226
1 3227
1 3228
1 3229
1 3230
1 3231
1 3232
1 3233
1 3234
1 3235
1 3236
1 3237
1 3238
1 3239
1 3240
1 3241
1 3242
1 3243
1 3244
1 3245
1 3246
1 3247
1 3248
1 3249
1 3250
1 3251
1 3252
1 3253
1 3254
1 3255
1 3256
1 3257
1 3258
1 3259
1 3260
1 3261
1 3262
1 3263
1 3264
1 3265
1 3266
1 3267
1 3268
1 3269
1 3270
1 3271
1 3272
1 3273
1 3274
1 3275
1 3276
1 3277
1 3278
1 3279
1 3280
1 3281
1 3282
1 3283
1 3284
1 3285
1 3286
1 3287
1 3288
1 3289
1 3290
1 3291
1 3292
1 3293
1 3294
1 3295
1 3296
1 3297
1 3298
1 3299
1 3300
1 3301
1 3302
1 3303
1 3304
1 3305
1 3306
1 3307
1 3308
1 3309
1 3310
1 3311
1 3312
1 3313
1 3314
1 3315
1 3316
1 3317
1 3318
1 3319
1 3320
1 3321
1 3322
1 3323
1 3324
1 3325
1 3326
1 3327
1 3328
1 3329
1 3330
1 3331
1 3332
1 3333
1 3334
1 3335
1 3336
1 3337
1 3338
1 3339
1 3340
1 3341
1 3342
1 3343
1 3344
1 3345
1 3346
1 3347
1 3348
1 3349
1 3350
1 3351
1 3352
1 3353
1 3354
1 3355
1 3356
1 3357
1 3358
1 3359
1 3360
1 3361
1 3362
1 3363
1 3364
1 3365
1 3366
1 3367
1 3368
1 3369
1 3370
1 3371
1 3372
1 3373
1 3374
1 3375
1 3376
1 3377
1 3378
1 3379
1 3380
1 3381
1 3382
1 3383
1 3384
1 3385
1 3386
1 3387
1 3388
1 3389
1 3390
1 3391
1 3392
1 3393
1 3394
1 3395
1 3396
1 3397
1 3398
1 3399
1 3400
1 3401
1 3402
1 3403
1 3404
1 3405
1 3406
1 3407
1 3408
1 3409
1 3410
1 3411
1 3412
1 3413
1 3414
1 3415
1 3416
1 3417
1 3418
1 3419
1 3420
1 3421
1 3422
1 3423
1 3424
1 3425
1 3426
1 3427
1 3428
1 3429
1 3430
1 3431
1 3432
1 3433
1 3434
1 3435
1 3436
1 3437
1 3438
1 3439
1 3440
1 3441
1 3442
1 3443
1 3444
1 3445
1 3446
1 3447
1 3448
1 3449
1 3450
1 3451
1 3452
1 3453
1 3454
1 3455
1 3456
1 3457
1 3458
1 3459
1 3460
1 3461
1 3462
1 3463
1 3464
1 3465
1 3466
1 3467
1 3468
1 3469
1 3470
1 3471
1 3472
1 3473
1 3474
1 3475
1 3476
1 3477
1 3478
1 3479
1 3480
1 3481
1 3482
1 3483
1 3484
1 3485
1 3486
1 3487
1 3488
1 3489
1 3490
1 3491
1 3492
1 3493
1 3494
1 3495
1 3496
1 3497
1 3498
1 3499
1 3500
1 3501
1 3502
1 3503
1 3504
1 3505
1 3506
1 3507
1 3508
1 3509
1 3510
1 3511
1 3512
1 3513
1 3514
1 3515
1 3516
1 3517
1 3518
1 3519
1 3520
1 3521
1 3522
1 3523
1 3524
1 3525
1 3526
1 3527
1 3528
1 3529
1 3530
1 3531
1 3532
1 3533
1 3534
1 3535
1 3536
1 3537
1 3538
1 3539
1 3540
1 3541
1 3542
1 3543
1 3544
1 3545
1 3546
1 3547
1 3548
1 3549
1 3550
1 3551
1 3552
1 3553
1 3554
1 3555
1 3556
1 3557
1 3558
1 3559
1 3560
1 3561
1 3562
1 3563
1 3564
1 3565
1 3566
1 3567
1 3568
1 3569
1 3570
1 3571
1 3572
1 3573
1 3574
1 3575
1 3576
1 3577
1 3578
1 3579
1 3580
1 3581
1 3582
1 3583
1 3584
1 3585
1 3586
1 3587
1 3588
1 3589
1 3590
1 3591
1 3592
1 3593
1 3594
1 3595
1 3596
1 3597
1 3598
1 3599
1 3600
1 3601
1 3602
1 3603
1 3604
1 3605
1 3606
1 3607
1 3608
1 3609
1 3610
1 3611
1 3612
1 3613
1 3614
1 3615
1 3616
1 3617
1 3618
1 3619
1 3620
1 3621
1 3622
1 3623
1 3624
1 3625
1 3626
1 3627
1 3628
1 3629
1 3630
1 3631
1 3632
1 3633
1 3634
1 3635
1 3636
1 3637
1 3638
1 3639
1 3640
1 3641
1 3642
1 3643
1 3644
1 3645
1 3646
1 3647
1 3648
1 3649
1 3650
1 3651
1 3652
1 3653
1 3654
1 3655
1 3656
1 3657
1 3658
1 3659
1 3660
1 3661
1 3662
1 3663
1 3664
1 3665
1 3666
1 3667
1 3668
1 3669
1 3670
1 3671
1 3672
1 3673
1 3674
1 3675
1 3676
1 3677
1 3678
1 3679
1 3680
1 3681
1 3682
1 3683
1 3684
1 3685
1 3686
1 3687
1 3688
1 3689
1 3690
1 3691
1 3692
1 3693
1 3694
1 3695
1 3696
1 3697
1 3698
1 3699
1 3700
1 3701
1 3702
1 3703
1 3704
1 3705
1 3706
1 3707
1 3708
1 3709
1 3710
1 3711
1 3712
1 3713
1 3714
1 3715
1 3716
1 3717
1 3718
1 3719
1 3720
1 3721
1 3722
1 3723
1 3724
1 3725
1 3726
1 3727
1 3728
1 3729
1 3730
1 3731
1 3732
1 3733
1 3734
1 3735
1 3736
1 3737
1 3738
1 3739
1 3740
1 3741
1 3742
1 3743
1 3744
1 3745
1 3746
1 3747
1 3748
1 3749
1 3750
1 3751
1 3752
1 3753
1 3754
1 3755
1 3756
1 3757
1 3758
1 3759
1 3760
1 3761
1 3762
1 3763
1 3764
1 3765
1 3766
1 3767
1 3768
1 3769
1 3770
1 3771
1 3772
1 3773
1 3774
1 3775
1 3776
1 3777
1 3778
1 3779
1 3780
1 3781
1 3782
1 3783
1 3784
1 3785
1 3786
1 3787
1 3788
1 3789
1 3790
1 3791
1 3792
1 3793
1 3794
1 3795
1 3796
1 3797
1 3798
1 3799
1 3800
1 3801
1 3802
1 3803
1 3804
1 3805
1 3806
1 3807
1 3808
1 3809
1 3810
1 3811
1 3812
1 3813
1 3814
1 3815
1 3816
1 3817
1 3818
1 3819
1 3820
1 3821
1 3822
1 3823
1 3824
1 3825
1 3826
1 3827
1 3828
1 3829
1 3830
1 3831
1 3832
1 3833
1 3834
1 3835
1 3836
1 3837
1 3838
1 3839
1 3840
1 3841
1 3842
1 3843
1 3844
1 3845
1 3846
1 3847
1 3848
1 3849
1 3850
1 3851
1 3852
1 3853
1 3854
1 3855
1 3856
1 3857
1 3858
1 3859
1 3860
1 3861
1 3862
1 3863
1 3864
1 3865
1 3866
1 3867
1 3868
1 3869
1 3870
1 3871
1 3872
1 3873
1 3874
1 3875
1 3876
1 3877
1 3878
1 3879
1 3880
1 3881
1 3882
1 3883
1 3884
1 3885
1 3886
1 3887
1 3888
1 3889
1 3890
1 3891
1 3892
1 3893
1 3894
1 3895
1 3896
1 3897
1 3898
1 3899
1 3900
1 3901
1 3902
1 3903
1 3904
1 3905
1 3906
1 3907
1 3908
1 3909
1 3910
1 3911
1 3912
1 3913
1 3914
1 3915
1 3916
1 3917
1 3918
1 3919
1 3920
1 3921
1 3922
1 3923
1 3924
1 3925
1 3926
1 3927
1 3928
1 3929
1 3930
1 3931
1 3932
1 3933
1 3934
1 3935
1 3936
1 3937
1 3938
1 3939
1 3940
1 3941
1 3942
1 3943
1 3944
1 3945
1 3946
1 3947
1 3948
1 3949
1 3950
1 3951
1 3952
1 3953
1 3954
1 3955
1 3956
1 3957
1 3958
1 3959
1 3960
1 3961
1 3962
1 3963
1 3964
1 3965
1 3966
1 3967
1 3968
1 3969
1 3970
1 3971
1 3972
1 3973
1 3974
1 3975
1 3976
1 3977
1 3978
1 3979
1 3980
1 3981
1 3982
1 3983
1 3984
1 3985
1 3986
1 3987
1 3988
1 3989
1 3990
1 3991
1 3992
1 3993
1 3994
1 3995
1 3996
1 3997
1 3998
1 3999
1 4000
1 4001
1 4002
1 4003
1 4004
1 4005
1 4006
1 4007
1 4008
1 4009
1 4010
1 4011
1 4012
1 4013
1 4014
1 4015
1 4016
1 4017
1 4018
1 4019
1 4020
1 4021
1 4022
1 4023
1 4024
1 4025
1 4026
1 4027
1 4028
1 4029
1 4030
1 4031
1 4032
1 4033
1 4034
1 4035
1 4036
1 4037
1 4038
1 4039
1 4040
1 4041
1 4042
1 4043
1 4044
1 4045
1 4046
1 4047
1 4048
1 4049
1 4050
1 4051
1 4052
1 4053
1 4054
1 4055
1 4056
1 4057
1 4058
1 4059
1 4060
1 4061
1 4062
1 4063
1 4064
1 4065
1 4066
1 4067
1 4068
1 4069
1 4070
1 4071
1 4072
1 4073
1 4074
1 4075
1 4076
1 4077
1 4078
1 4079
1 4080
1 4081
1 4082
1 4083
1 4084
1 4085
1 4086
1 4087
1 4088
1 4089
1 4090
1 4091
1 4092
1 4093
1 4094
1 4095
1 4096
1 4097
1 4098
1 4099
1 4100
1 4101
1 4102
1 4103
1 4104
1 4105
1 4106
1 4107
1 4108
1 4109
1 4110
1 4111
1 4112
1 4113
1 4114
1 4115
1 4116
1 4117
1 4118
1 4119
1 4120
1 4121
1 4122
1 4123
1 4124
1 4125
1 4126
1 4127
1 4128
1 4129
1 4130
1 4131
1 4132
1 4133
1 4134
1 4135
1 4136
1 4137
1 4138
1 4139
1 4140
1 4141
1 4142
1 4143
1 4144
1 4145
1 4146
1 4147
1 4148
1 4149
1 4150
1 4151
1 4152
1 4153
1 4154
1 4155
1 4156
1 4157
1 4158
1 4159
1 4160
1 4161
1 4162
1 4163
1 4164
1 4165
1 4166
1 4167
1 4168
1 4169
1 4170
1 4171
1 4172
1 4173
1 4174
1 4175
1 4176
1 4177
1 4178
1 4179
1 4180
1 4181
1 4182
1 4183
1 4184
1 4185
1 4186
1 4187
1 4188
1 4189
1 4190
1 4191
1 4192
1 4193
1 4194
1 4195
1 4196
1 4197
1 4198
1 4199
1 4200
1 4201
1 4202
1 4203
1 4204
1 4205
1 4206
1 4207
1 4208
1 4209
1 4210
1 4211
1 4212
1 4213
1 4214
1 4215
1 4216
1 4217
1 4218
1 4219
1 4220
1 4221
1 4222
1 4223
1 4224
1 4225
1 4226
1 4227
1 4228
1 4229
1 4230
1 4231
1 4232
1 4233
1 4234
1 4235
1 4236
1 4237
1 4238
1 4239
1 4240
1 4241
1 4242
1 4243
1 4244
1 4245
1 4246
1 4247
1 4248
1 4249
1 4250
1 4251
1 4252
1 4253
1 4254
1 4255
1 4256
1 4257
1 4258
1 4259
1 4260
1 4261
1 4262
1 4263
1 4264
1 4265
1 4266
1 4267
1 4268
1 4269
1 4270
1 4271
1 4272
1 4273
1 4274
1 4275
1 4276
1 4277
1 4278
1 4279
1 4280
1 4281
1 4282
1 4283
1 4284
1 4285
1 4286
1 4287
1 4288
1 4289
1 4290
1 4291
1 4292
1 4293
1 4294
1 4295
1 4296
1 4297
1 4298
1 4299
1 4300
1 4301
1 4302
1 4303
1 4304
1 4305
1 4306
1 4307
1 4308
1 4309
1 4310
1 4311
1 4312
1 4313
1 4314
1 4315
1 4316
1 4317
1 4318
1 4319
1 4320
1 4321
1 4322
1 4323
1 4324
1 4325
1 4326
1 4327
1 4328
1 4329
1 4330
1 4331
1 4332
1 4333
1 4334
1 4335
1 4336
1 4337
1 4338
1 4339
1 4340
1 4341
1 4342
1 4343
1 4344
1 4345
1 4346
1 4347
1 4348
1 4349
1 4350
1 4351
1 4352
1 4353
1 4354
1 4355
1 4356
1 4357
1 4358
1 4359
1 4360
1 4361
1 4362
1 4363
1 4364
1 4365
1 4366
1 4367
1 4368
1 4369
1 4370
1 4371
1 4372
1 4373
1 4374
1 4375
1 4376
1 4377
1 4378
1 4379
1 4380
1 4381
1 4382
1 4383
1 4384
1 4385
1 4386
1 4387
1 4388
1 4389
1 4390
1 4391
1 4392
1 4393
1 4394
1 4395
1 4396
1 4397
1 4398
1 4399
1 4400
1 4401
1 4402
1 4403
1 4404
1 4405
1 4406
1 4407
1 4408
1 4409
1 4410
1 4411
1 4412
1 4413
1 4414
1 4415
1 4416
1 4417
1 4418
1 4419
1 4420
1 4421
1 4422
1 4423
1 4424
1 4425
1 4426
1 4427
1 4428
1 4429
1 4430
1 4431
1 4432
1 4433
1 4434
1 4435
1 4436
1 4437
1 4438
1 4439
1 4440
1 4441
1 4442
1 4443
1 4444
1 4445
1 4446
1 4447
1 4448
1 4449
1 4450
1 4451
1 4452
1 4453
1 4454
1 4455
1 4456
1 4457
1 4458
1 4459
1 4460
1 4461
1 4462
1 4463
1 4464
1 4465
1 4466
1 4467
1 4468
1 4469
1 4470
1 4471
1 4472
1 4473
1 4474
1 4475
1 4476
1 4477
1 4478
1 4479
1 4480
1 4481
1 4482
1 4483
1 4484
1 4485
1 4486
1 4487
1 4488
1 4489
1 4490
1 4491
1 4492
1 4493
1 4494
1 4495
1 4496
1 4497
1 4498
1 4499
1 4500
1 4501
1 4502
1 4503
1 4504
1 4505
1 4506
1 4507
1 4508
1 4509
1 4510
1 4511
1 4512
1 4513
1 4514
1 4515
1 4516
1 4517
1 4518
1 4519
1 4520
1 4521
1 4522
1 4523
1 4524
1 4525
1 4526
1 4527
1 4528
1 4529
1 4530
1 4531
1 4532
1 4533
1 4534
1 4535
1 4536
1 4537
1 4538
1 4539
1 4540
1 4541
1 4542
1 4543
1 4544
1 4545
1 4546
1 4547
1 4548
1 4549
1 4550
1 4551
1 4552
1 4553
1 4554
1 4555
1 4556
1 4557
1 4558
1 4559
1 4560
1 4561
1 4562
1 4563
1 4564
1 4565
1 4566
1 4567
1 4568
1 4569
1 4570
1 4571
1 4572
1 4573
1 4574
1 4575
1 4576
1 4577
1 4578
1 4579
1 4580
1 4581
1 4582
1 4583
1 4584
1 4585
1 4586
1 4587
1 4588
1 4589
1 4590
1 4591
1 4592
1 4593
1 4594
1 4595
1 4596
1 4597
1 4598
1 4599
1 4600
1 4601
1 4602
1 4603
1 4604
1 4605
1 4606
1 4607
1 4608
1 4609
1 4610
1 4611
1 4612
1 4613
1 4614
1 4615
1 4616
1 4617
1 4618
1 4619
1 4620
1 4621
1 4622
1 4623
1 4624
1 4625
1 4626
1 4627
1 4628
1 4629
1 4630
1 4631
1 4632
1 4633
1 4634
1 4635
1 4636
1 4637
1 4638
1 4639
1 4640
1 4641
1 4642
1 4643
1 4644
1 4645
1 4646
1 4647
1 4648
1 4649
1 4650
1 4651
1 4652
1 4653
1 4654
1 4655
1 4656
1 4657
1 4658
1 4659
1 4660
1 4661
1 4662
1 4663
1 4664
1 4665
1 4666
1 4667
1 4668
1 4669
1 4670
1 4671
1 4672
1 4673
1 4674
1 4675
1 4676
1 4677
1 4678
1 4679
1 4680
1 4681
1 4682
1 4683
1 4684
1 4685
1 4686
1 4687
1 4688
1 4689
1 4690
1 4691
1 4692
1 4693
1 4694
1 4695
1 4696
1 4697
1 4698
1 4699
1 4700
1 4701
1 4702
1 4703
1 4704
1 4705
1 4706
1 4707
1 4708
1 4709
1 4710
1 4711
1 4712
1 4713
1 4714
1 4715
1 4716
1 4717
1 4718
1 4719
1 4720
1 4721
1 4722
1 4723
1 4724
1 4725
1 4726
1 4727
1 4728
1 4729
1 4730
1 4731
1 4732
1 4733
1 4734
1 4735
1 4736
1 4737
1 4738
1 4739
1 4740
1 4741
1 4742
1 4743
1 4744
1 4745
1 4746
1 4747
1 4748
1 4749
1 4750
1 4751
1 4752
1 4753
1 4754
1 4755
1 4756
1 4757
1 4758
1 4759
1 4760
1 4761
1 4762
1 4763
1 4764
1 4765
1 4766
1 4767
1 4768
1 4769
1 4770
1 4771
1 4772
1 4773
1 4774
1 4775
1 4776
1 4777
1 4778
1 4779
1 4780
1 4781
1 4782
1 4783
1 4784
1 4785
1 4786
1 4787
1 4788
1 4789
1 4790
1 4791
1 4792
1 4793
1 4794
1 4795
1 4796
1 4797
1 4798
1 4799
1 4800
1 4801
1 4802
1 4803
1 4804
1 4805
1 4806
1 4807
1 4808
1 4809
1 4810
1 4811
1 4812
1 4813
1 4814
1 4815
1 4816
1 4817
1 4818
1 4819
1 4820
1 4821
1 4822
1 4823
1 4824
1 4825
1 4826
1 4827
1 4828
1 4829
1 4830
1 4831
1 4832
1 4833
1 4834
1 4835
1 4836
1 4837
1 4838
1 4839
1 4840
1 4841
1 4842
1 4843
1 4844
1 4845
1 4846
1 4847
1 4848
1 4849
1 4850
1 4851
1 4852
1 4853
1 4854
1 4855
1 4856
1 4857
1 4858
1 4859
1 4860
1 4861
1 4862
1 4863
1 4864
1 4865
1 4866
1 4867
1 4868
1 4869
1 4870
1 4871
1 4872
1 4873
1 4874
1 4875
1 4876
1 4877
1 4878
1 4879
1 4880
1 4881
1 4882
1 4883
1 4884
1 4885
1 4886
1 4887
1 4888
1 4889
1 4890
1 4891
1 4892
1 4893
1 4894
1 4895
1 4896
1 4897
1 4898
1 4899
1 4900
1 4901
1 4902
1 4903
1 4904
1 4905
1 4906
1 4907
1 4908
1 4909
1 4910
1 4911
1 4912
1 4913
1 4914
1 4915
1 4916
1 4917
1 4918
1 4919
1 4920
1 4921
1 4922
1 4923
1 4924
1 4925
1 4926
1 4927
1 4928
1 4929
1 4930
1 4931
1 4932
1 4933
1 4934
1 4935
1 4936
1 4937
1 4938
1 4939
1 4940
1 4941
1 4942
1 4943
1 4944
1 4945
1 4946
1 4947
1 4948
1 4949
1 4950
1 4951
1 4952
1 4953
1 4954
1 4955
1 4956
1 4957
1 4958
1 4959
1 4960
1 4961
1 4962
1 4963
1 4964
1 4965
1 4966
1 4967
1 4968
1 4969
1 4970
1 4971
1 4972
1 4973
1 4974
1 4975
1 4976
1 4977
1 4978
1 4979
1 4980
1 4981
1 4982
1 4983
1 4984
1 4985
1 4986
1 4987
1 4988
1 4989
1 4990
1 4991
1 4992
1 4993
1 4994
1 4995
1 4996
1 4997
1 4998
1 4999
CELL_TYPES 5000
1 
1 
1 
1 
1 
1 
1 
1 
1 
1 
1 
1 
1 
1 
1 
1 
1 
1 
1 
1 
1 
1 
1 
1 
1 
1 
1 
1 
1 
1 
1 
1 
1 
1 
1 
1 
1 
1 
1 
1 
1 
1 
1 
1 
1 
1 
1 
1 
1 
1 
1 
1 
1 
1 
1 
1 
1 
1 
1 
1 
1 
1 
1 
1 
1 
1 
1 
1 
1 
1 
1 
1 
1 
1 
1 
1 
1 
1 
1 
1 
1 
1 
1 
1 
1 
1 
1 
1 
1 
1 
1 
1 
1 
1 
1 
1 
1 
1 
1 
1 
1 
1 
1 
1 
1 
1 
1 
1 
1 
1 
1 
1 
1 
1 
1 
1 
1 
1 
1 
1 
1 
1 
1 
1 
1 
1 
1 
1 
1 
1 
1 
1 
1 
1 
1 
1 
1 
1 
1 
1 
1 
1 
1 
1 
1 
1 
1 
1 
1 
1 
1 
1 
1 
1 
1 
1 
1 
1 
1 
1 
1 
1 
1 
1 
1 
1 
1 
1 
1 
1 
1 
1 
1 
1 
1 
1 
1 
1 
1 
1 
1 
1 
1 
1 
1 
1 
1 
1 
1 
1 
1 
1 
1 
1 
1 
1 
1 
1 
1 
1 
1 
1 
1 
1 
1 
1 
1 
1 
1 
1 
1 
1 
1 
1 
1 
1 
1 
1 
1 
1 
1 
1 
1 
1 
1 
1 
1 
1 
1 
1 
1 
1 
1 
1 
1 
1 
1 
1 
1 
1 
1 
1 
1 
1 
1 
1 
1 
1 
1 
1 
1 
1 
1 
1 
1 
1 
1 
1 
1 
1 
1 
1 
1 
1 
1 
1 
1 
1 
1 
1 
1 
1 
1 
1 
1 
1 
1 
1 
1 
1 
1 
1 
1 
1 
1 
1 
1 
1 
1 
1 
1 
1 
1 
1 
1 
1 
1 
1 
1 
1 
1 
1 
1 
1 
1 
1 
1 
1 
1 
1 
1 
1 
1 
1 
1 
1 
1 
1 
1 
1 
1 
1 
1 
1 
1 
1 
1 
1 
1 
1 
1 
1 
1 
1 
1 
1 
1 
1 
1 
1 
1 
1 
1 
1 
1 
1 
1 
1 
1 
1 
1 
1 
1 
1 
1 
1 
1 
1 
1 
1 
1 
1 
1 
1 
1 
1 
1 
1 
1 
1 
1 
1 
1 
1 
1 
1 
1 
1 
1 
1 
1 
1 
1 
1 
1 
1 
1 
1 
1 
1 
1 
1 
1 
1 
1 
1 
1 
1 
1 
1 
1 
1 
1 
1 
1 
1 
1 
1 
1 
1 
1 
1 
1 
1 
1 
1 
1 
1 
1 
1 
1 
1 
1 
1 
1 
1 
1 
1 
1 
1 
1 
1 
1 
1 
1 
1 
1 
1 
1 
1 
1 
1 
1 
1 
1 
1 
1 
1 
1 
1 
1 
1 
1 
1 
1 
1 
1 
1 
1 
1 
1 
1 
1 
1 
1 
1 
1 
1 
1 
1 
1 
1 
1 
1 
1 
1 
1 
1 
1 
1 
1 
1 
1 
1 
1 
1 
1 
1 
1 
1 
1 
1 
1 
1 
1 
1 
1 
1 
1 
1 
1 
1 
1 
1 
1 
1 
1 
1 
1 
1 
1 
1 
1 
1 
1 
1 
1 
1 
1 
1 
1 
1 
1 
1 
1 
1 
1 
1 
1 
1 
1 
1 
1 
1 
1 
1 
1 
1 
1 
1 
1 
1 
1 
1 
1 
1 
1 
1 
1 
1 
1 
1 
1 
1 
1 
1 
1 
1 
1 
1 
1 
1 
1 
1 
1 
1 
1 
1 
1 
1 
1 
1 
1 
1 
1 
1 
1 
1 
1 
1 
1 
1 
1 
1 
1 
1 
1 
1 
1 
1 
1 
1 
1 
1 
1 
1 
1 
1 
1 
1 
1 
1 
1 
1 
1 
1 
1 
1 
1 
1 
1 
1 
1 
1 
1 
1 
1 
1 
1 
1 
1 
1 
1 
1 
1 
1 
1 
1 
1 
1 
1 
1 
1 
1 
1 
1 
1 
1 
1 
1 
1 
1 
1 
1 
1 
1 
1 
1 
1 
1 
1 
1 
1 
1 
1 
1 
1 
1 
1 
1 
1 
1 
1 
1 
1 
1 
1 
1 
1 
1 
1 
1 
1 
1 
1 
1 
1 
1 
1 
1 
1 
1 
1 
1 
1 
1 
1 
1 
1 
1 
1 
1 
1 
1 
1 
1 
1 
1 
1 
1 
1 
1 
1 
1 
1 
1 
1 
1 
1 
1 
1 
1 
1 
1 
1 
1 
1 
1 
1 
1 
1 
1 
1 
1 
1 
1 
1 
1 
1 
1 
1 
1 
1 
1 
1 
1 
1 
1 
1 
1 
1 
1 
1 
1 
1 
1 
1 
1 
1 
1 
1 
1 
1 
1 
1 
1 
1 
1 
1 
1 
1 
1 
1 
1 
1 
1 
1 
1 
1 
1 
1 
1 
1 
1 
1 
1 
1 
1 
1 
1 
1 
1 
1 
1 
1 
1 
1 
1 
1 
1 
1 
1 
1 
1 
1 
1 
1 
1 
1 
1 
1 
1 
1 
1 
1 
1 
1 
1 
1 
1 
1 
1 
1 
1 
1 
1 
1 
1 
1 
1 
1 
1 
1 
1 
1 
1 
1 
1 
1 
1 
1 
1 
1 
1 
1 
1 
1 
1 
1 
1 
1 
1 
1 
1 
1 
1 
1 
1 
1 
1 
1 
1 
1 
1 
1 
1 
1 
1 
1 
1 
1 
1 
1 
1 
1 
1 
1 
1 
1 
1 
1 
1 
1 
1 
1 
1 
1 
1 
1 
1 
1 
1 
1 
1 
1 
1 
1 
1 
1 
1 
1 
1 
1 
1 
1 
1 
1 
1 
1 
1 
1 
1 
1 
1 
1 
1 
1 
1 
1 
1 
1 
1 
1 
1 
1 
1 
1 
1 
1 
1 
1 
1 
1 
1 
1 
1 
1 
1 
1 
1 
1 
1 
1 
1 
1 
1 
1 
1 
1 
1 
1 
1 
1 
1 
1 
1 
1 
1 
1 
1 
1 
1 
1 
1 
1 
1 
1 
1 
1 
1 
1 
1 
1 
1 
1 
1 
1 
1 
1 
1 
1 
1 
1 
1 
1 
1 
1 
1 
1 
1 
1 
1 
1 
1 
1 
1 
1 
1 
1 
1 
1 
1 
1 
1 
1 
1 
1 
1 
1 
1 
1 
1 
1 
1 
1 
1 
1 
1 
1 
1 
1 
1 
1 
1 
1 
1 
1 
1 
1 
1 
1 
1 
1 
1 
1 
1 
1 
1 
1 
1 
1 
1 
1 
1 
1 
1 
1 
1 
1 
1 
1 
1 
1 
1 
1 
1 
1 
1 
1 
1 
1 
1 
1 
1 
1 
1 
1 
1 
1 
1 
1 
1 
1 
1 
1 
1 
1 
1 
1 
1 
1 
1 
1 
1 
1 
1 
1 
1 
1 
1 
1 
1 
1 
1 
1 
1 
1 
1 
1 
1 
1 
1 
1 
1 
1 
1 
1 
1 
1 
1 
1 
1 
1 
1 
1 
1 
1 
1 
1 
1 
1 
1 
1 
1 
1 
1 
1 
1 
1 
1 
1 
1 
1 
1 
1 
1 
1 
1 
1 
1 
1 
1 
1 
1 
1 
1 
1 
1 
1 
1 
1 
1 
1 
1 
1 
1 
1 
1 
1 
1 
1 
1 
1 
1 
1 
1 
1 
1 
1 
1 
1 
1 
1 
1 
1 
1 
1 
1 
1 
1 
1 
1 
1 
1 
1 
1 
1 
1 
1 
1 
1 
1 
1 
1 
1 
1 
1 
1 
1 
1 
1 
1 
1 
1 
1 
1 
1 
1 
1 
1 
1 
1 
1 
1 
1 
1 
1 
1 
1 
1 
1 
1 
1 
1 
1 
1 
1 
1 
1 
1 
1 
1 
1 
1 
1 
1 
1 
1 
1 
1 
1 
1 
1 
1 
1 
1 
1 
1 
1 
1 
1 
1 
1 
1 
1 
1 
1 
1 
1 
1 
1 
1 
1 
1 
1 
1 
1 
1 
1 
1 
1 
1 
1 
1 
1 
1 
1 
1 
1 
1 
1 
1 
1 
1 
1 
1 
1 
1 
1 
1 
1 
1 
1 
1 
1 
1 
1 
1 
1 
1 
1 
1 
1 
1 
1 
1 
1 
1 
1 
1 
1 
1 
1 
1 
1 
1 
1 
1 
1 
1 
1 
1 
1 
1 
1 
1 
1 
1 
1 
1 
1 
1 
1 
1 
1 
1 
1 
1 
1 
1 
1 
1 
1 
1 
1 
1 
1 
1 
1 
1 
1 
1 
1 
1 
1 
1 
1 
1 
1 
1 
1 
1 
1 
1 
1 
1 
1 
1 
1 
1 
1 
1 
1 
1 
1 
1 
1 
1 
1 
1 
1 
1 
1 
1 
1 
1 
1 
1 
1 
1 
1 
1 
1 
1 
1 
1 
1 
1 
1 
1 
1 
1 
1 
1 
1 
1 
1 
1 
1 
1 
1 
1 
1 
1 
1 
1 
1 
1 
1 
1 
1 
1 
1 
1 
1 
1 
1 
1 
1 
1 
1 
1 
1 
1 
1 
1 
1 
1 
1 
1 
1 
1 
1 
1 
1 
1 
1 
1 
1 
1 
1 
1 
1 
1 
1 
1 
1 
1 
1 
1 
1 
1 
1 
1 
1 
1 
1 
1 
1 
1 
1 
1 
1 
1 
1 
1 
1 
1 
1 
1 
1 
1 
1 
1 
1 
1 
1 
1 
1 
1 
1 
1 
1 
1 
1 
1 
1 
1 
1 
1 
1 
1 
1 
1 
1 
1 
1 
1 
1 
1 
1 
1 
1 
1 
1 
1 
1 
1 
1 
1 
1 
1 
1 
1 
1 
1 
1 
1 
1 
1 
1 
1 
1 
1 
1 
1 
1 
1 
1 
1 
1 
1 
1 
1 
1 
1 
1 
1 
1 
1 
1 
1 
1 
1 
1 
1 
1 
1 
1 
1 
1 
1 
1 
1 
1 
1 
1 
1 
1 
1 
1 
1 
1 
1 
1 
1 
1 
1 
1 
1 
1 
1 
1 
1 
1 
1 
1 
1 
1 
1 
1 
1 
1 
1 
1 
1 
1 
1 
1 
1 
1 
1 
1 
1 
1 
1 
1 
1 
1 
1 
1 
1 
1 
1 
1 
1 
1 
1 
1 
1 
1 
1 
1 
1 
1 
1 
1 
1 
1 
1 
1 
1 
1 
1 
1 
1 
1 
1 
1 
1 
1 
1 
1 
1 
1 
1 
1 
1 
1 
1 
1 
1 
1 
1 
1 
1 
1 
1 
1 
1 
1 
1 
1 
1 
1 
1 
1 
1 
1 
1 
1 
1 
1 
1 
1 
1 
1 
1 
1 
1 
1 
1 
1 
1 
1 
1 
1 
1 
1 
1 
1 
1 
1 
1 
1 
1 
1 
1 
1 
1 
1 
1 
1 
1 
1 
1 
1 
1 
1 
1 
1 
1 
1 
1 
1 
1 
1 
1 
1 
1 
1 
1 
1 
1 
1 
1 
1 
1 
1 
1 
1 
1 
1 
1 
1 
1 
1 
1 
1 
1 
1 
1 
1 
1 
1 
1 
1 
1 
1 
1 
1 
1 
1 
1 
1 
1 
1 
1 
1 
1 
1 
1 
1 
1 
1 
1 
1 
1 
1 
1 
1 
1 
1 
1 
1 
1 
1 
1 
1 
1 
1 
1 
1 
1 
1 
1 
1 
1 
1 
1 
1 
1 
1 
1 
1 
1 
1 
1 
1 
1 
1 
1 
1 
1 
1 
1 
1 
1 
1 
1 
1 
1 
1 
1 
1 
1 
1 
1 
1 
1 
1 
1 
1 
1 
1 
1 
1 
1 
1 
1 
1 
1 
1 
1 
1 
1 
1 
1 
1 
1 
1 
1 
1 
1 
1 
1 
1 
1 
1 
1 
1 
1 
1 
1 
1 
1 
1 
1 
1 
1 
1 
1 
1 
1 
1 
1 
1 
1 
1 
1 
1 
1 
1 
1 
1 
1 
1 
1 
1 
1 
1 
1 
1 
1 
1 
1 
1 
1 
1 
1 
1 
1 
1 
1 
1 
1 
1 
1 
1 
1 
1 
1 
1 
1 
1 
1 
1 
1 
1 
1 
1 
1 
1 
1 
1 
1 
1 
1 
1 
1 
1 
1 
1 
1 
1 
1 
1 
1 
1 
1 
1 
1 
1 
1 
1 
1 
1 
1 
1 
1 
1 
1 
1 
1 
1 
1 
1 
1 
1 
1 
1 
1 
1 
1 
1 
1 
1 
1 
1 
1 
1 
1 
1 
1 
1 
1 
1 
1 
1 
1 
1 
1 
1 
1 
1 
1 
1 
1 
1 
1 
1 
1 
1 
1 
1 
1 
1 
1 
1 
1 
1 
1 
1 
1 
1 
1 
1 
1 
1 
1 
1 
1 
1 
1 
1 
1 
1 
1 
1 
1 
1 
1 
1 
1 
1 
1 
1 
1 
1 
1 
1 
1 
1 
1 
1 
1 
1 
1 
1 
1 
1 
1 
1 
1 
1 
1 
1 
1 
1 
1 
1 
1 
1 
1 
1 
1 
1 
1 
1 
1 
1 
1 
1 
1 
1 
1 
1 
1 
1 
1 
1 
1 
1 
1 
1 
1 
1 
1 
1 
1 
1 
1 
1 
1 
1 
1 
1 
1 
1 
1 
1 
1 
1 
1 
1 
1 
1 
1 
1 
1 
1 
1 
1 
1 
1 
1 
1 
1 
1 
1 
1 
1 
1 
1 
1 
1 
1 
1 
1 
1 
1 
1 
1 
1 
1 
1 
1 
1 
1 
1 
1 
1 
1 
1 
1 
1 
1 
1 
1 
1 
1 
1 
1 
1 
1 
1 
1 
1 
1 
1 
1 
1 
1 
1 
1 
1 
1 
1 
1 
1 
1 
1 
1 
1 
1 
1 
1 
1 
1 
1 
1 
1 
1 
1 
1 
1 
1 
1 
1 
1 
1 
1 
1 
1 
1 
1 
1 
1 
1 
1 
1 
1 
1 
1 
1 
1 
1 
1 
1 
1 
1 
1 
1 
1 
1 
1 
1 
1 
1 
1 
1 
1 
1 
1 
1 
1 
1 
1 
1 
1 
1 
1 
1 
1 
1 
1 
1 
1 
1 
1 
1 
1 
1 
1 
1 
1 
1 
1 
1 
1 
1 
1 
1 
1 
1 
1 
1 
1 
1 
1 
1 
1 
1 
1 
1 
1 
1 
1 
1 
1 
1 
1 
1 
1 
1 
1 
1 
1 
1 
1 
1 
1 
1 
1 
1 
1 
1 
1 
1 
1 
1 
1 
1 
1 
1 
1 
1 
1 
1 
1 
1 
1 
1 
1 
1 
1 
1 
1 
1 
1 
1 
1 
1 
1 
1 
1 
1 
1 
1 
1 
1 
1 
1 
1 
1 
1 
1 
1 
1 
1 
1 
1 
1 
1 
1 
1 
1 
1 
1 
1 
1 
1 
1 
1 
1 
1 
1 
1 
1 
1 
1 
1 
1 
1 
1 
1 
1 
1 
1 
1 
1 
1 
1 
1 
1 
1 
1 
1 
1 
1 
1 
1 
1 
1 
1 
1 
1 
1 
1 
1 
1 
1 
1 
1 
1 
1 
1 
1 
1 
1 
1 
1 
1 
1 
1 
1 
1 
1 
1 
1 
1 
1 
1 
1 
1 
1 
1 
1 
1 
1 
1 
1 
1 
1 
1 
1 
1 
1 
1 
1 
1 
1 
1 
1 
1 
1 
1 
1 
1 
1 
1 
1 
1 
1 
1 
1 
1 
1 
1 
1 
1 
1 
1 
1 
1 
1 
1 
1 
1 
1 
1 
1 
1 
1 
1 
1 
1 
1 
1 
1 
1 
1 
1 
1 
1 
1 
1 
1 
1 
1 
1 
1 
1 
1 
1 
1 
1 
1 
1 
1 
1 
1 
1 
1 
1 
1 
1 
1 
1 
1 
1 
1 
1 
1 
1 
1 
1 
1 
1 
1 
1 
1 
1 
1 
1 
1 
1 
1 
1 
1 
1 
1 
1 
1 
1 
1 
1 
1 
1 
1 
1 
1 
1 
1 
1 
1 
1 
1 
1 
1 
1 
1 
1 
1 
1 
1 
1 
1 
1 
1 
1 
1 
1 
1 
1 
1 
1 
1 
1 
1 
1 
1 
1 
1 
1 
1 
1 
1 
1 
1 
1 
1 
1 
1 
1 
1 
1 
1 
1 
1 
1 
1 
1 
1 
1 
1 
1 
1 
1 
1 
1 
1 
1 
1 
1 
1 
1 
1 
1 
1 
1 
1 
1 
1 
1 
1 
1 
1 
1 
1 
1 
1 
1 
1 
1 
1 
1 
1 
1 
1 
1 
1 
1 
1 
1 
1 
1 
1 
1 
1 
1 
1 
1 
1 
1 
1 
1 
1 
1 
1 
1 
1 
1 
1 
1 
1 
1 
1 
1 
1 
1 
1 
1 
1 
1 
1 
1 
1 
1 
1 
1 
1 
1 
1 
1 
1 
1 
1 
1 
1 
1 
1 
1 
1 
1 
1 
1 
1 
1 
1 
1 
1 
1 
1 
1 
1 
1 
1 
1 
1 
1 
1 
1 
1 
1 
1 
1 
1 
1 
1 
1 
1 
1 
1 
1 
1 
1 
1 
1 
1 
1 
1 
1 
1 
1 
1 
1 
1 
1 
1 
1 
1 
1 
1 
1 
1 
1 
1 
1 
1 
1 
1 
1 
1 
1 
1 
1 
1 
1 
1 
1 
1 
1 
1 
1 
1 
1 
1 
1 
1 
1 
1 
1 
1 
1 
1 
1 
1 
1 
1 
1 
1 
1 
1 
1 
1 
1 
1 
1 
1 
1 
1 
1 
1 
1 
1 
1 
1 
1 
1 
1 
1 
1 
1 
1 
1 
1 
1 
1 
1 
1 
1 
1 
1 
1 
1 
1 
1 
1 
1 
1 
1 
1 
1 
1 
1 
1 
1 
1 
1 
1 
1 
1 
1 
1 
1 
1 
1 
1 
1 
1 
1 
1 
1 
1 
1 
1 
1 
1 
1 
1 
1 
1 
1 
1 
1 
1 
1 
1 
1 
1 
1 
1 
1 
1 
1 
1 
1 
1 
1 
1 
1 
1 
1 
1 
1 
1 
1 
1 
1 
1 
1 
1 
1 
1 
1 
1 
1 
1 
1 
1 
1 
1 
1 
1 
1 
1 
1 
1 
1 
1 
1 
1 
1 
1 
1 
1 
1 
1 
1 
1 
1 
1 
1 
1 
1 
1 
1 
1 
1 
1 
1 
1 
1 
1 
1 
1 
1 
1 
1 
1 
1 
1 
1 
1 
1 
1 
1 
1 
1 
1 
1 
1 
1 
1 
1 
1 
1 
1 
1 
1 
1 
1 
1 
1 
1 
1 
1 
1 
1 
1 
1 
1 
1 
1 
1 
1 
1 
1 
1 
1 
1 
1 
1 
1 
1 
1 
1 
1 
1 
1 
1 
1 
1 
1 
1 
1 
1 
1 
1 
1 
1 
1 
1 
1 
1 
1 
1 
1 
1 
1 
1 
1 
1 
1 
1 
1 
1 
1 
1 
1 
1 
1 
1 
1 
1 
1 
1 
1 
1 
1 
1 
1 
1 
1 
1 
1 
1 
1 
1 
1 
1 
1 
1 
1 
1 
1 
1 
1 
1 
1 
1 
1 
1 
1 
1 
1 
1 
1 
1 
1 
1 
1 
1 
1 
1 
1 
1 
1 
1 
1 
1 
1 
1 
1 
1 
1 
1 
1 
1 
1 
1 
1 
1 
1 
1 
1 
1 
1 
1 
1 
1 
1 
1 
1 
1 
1 
1 
1 
1 
1 
1 
1 
1 
1 
1 
1 
1 
1 
1 
1 
1 
1 
1 
1 
1 
1 
1 
1 
1 
1 
1 
1 
1 
1 
1 
1 
1 
1 
1 
1 
1 
1 
1 
1 
1 
1 
1 
1 
1 
1 
1 
1 
1 
1 
1 
1 
1 
1 
1 
1 
1 
1 
1 
1 
1 
1 
1 
1 
1 
1 
1 
1 
1 
1 
1 
1 
1 
1 
1 
1 
1 
1 
1 
1 
1 
1 
1 
1 
1 
1 
1 
1 
1 
1 
1 
1 
1 
1 
1 
1 
1 
1 
1 
1 
1 
1 
1 
1 
1 
1 
1 
1 
1 
1 
1 
1 
1 
1 
1 
1 
1 
1 
1 
1 
1 
1 
1 
1 
1 
1 
1 
1 
1 
1 
1 
1 
1 
1 
1 
1 
1 
1 
1 
1 
1 
1 
1 
1 
1 
1 
1 
1 
1 
1 
1 
1 
1 
1 
1 
1 
1 
1 
1 
1 
1 
1 
1 
1 
1 
1 
1 
1 
1 
1 
1 
1 
1 
1 
1 
1 
1 
1 
1 
1 
1 
1 
1 
1 
1 
1 
1 
1 
1 
1 
1 
1 
1 
1 
1 
1 
1 
1 
1 
1 
1 
1 
1 
1 
1 
1 
1 
1 
1 
1 
1 
1 
1 
1 
1 
1 
1 
1 
1 
1 
1 
1 
1 
1 
1 
1 
1 
1 
1 
1 
1 
1 
1 
1 
1 
1 
1 
1 
1 
1 
1 
1 
1 
1 
1 
1 
1 
1 
1 
1 
1 
1 
1 
1 
1 
1 
1 
1 
1 
1 
1 
1 
1 
1 
1 
1 
1 
1 
1 
1 
1 
1 
1 
1 
1 
1 
1 
1 
1 
1 
1 
1 
1 
1 
1 
1 
1 
1 
1 
1 
1 
1 
1 
1 
1 
1 
1 
1 
1 
1 
1 
1 
1 
1 
1 
1 
1 
1 
1 
1 
1 
1 
1 
1 
1 
1 
1 
1 
1 
1 
1 
1 
1 
1 
1 
1 
1 
1 
1 
1 
1 
1 
1 
1 
1 
1 
1 
1 
1 
1 
1 
1 
1 
1 
1 
1 
1 
1 
1 
1 
1 
1 
1 
1 
1 
1 
1 
1 
1 
1 
1 
1 
1 
1 
1 
1 
1 
1 
1 
1 
1 
1 
1 
1 
1 
1 
1 
1 
1 
1 
1 
1 
1 
1 
1 
1 
1 
1 
1 
1 
1 
1 
1 
1 
1 
1 
1 
1 
1 
1 
1 
1 
1 
1 
1 
1 
1 
1 
1 
1 
1 
1 
1 
1 
1 
1 
1 
1 
1 
1 
1 
1 
1 
1 
1 
1 
1 
1 
1 
1 
1 
1 
1 
1 
1 
1 
1 
1 
1 
1 
1 
1 
1 
1 
1 
1 
1 
1 
1 
1 
1 
1 
1 
1 
1 
1 
1 
1 
1 
1 
1 
1 
1 
1 
1 
1 
1 
1 
1 
1 
1 
1 
1 
1 
1 
1 
1 
1 
1 
1 
1 
1 
1 
1 
1 
1 
1 
1 
1 
1 
1 
1 
1 
1 
1 
1 
1 
1 
1 
1 
1 
1 
1 
1 
1 
1 
1 
1 
1 
1 
1 
1 
1 
1 
1 
1 
1 
1 
1 
1 
1 
1 
1 
1 
1 
1 
1 
1 
1 
1 
1 
1 
1 
1 
1 
1 
1 
1 
1 
1 
1 
1 
1 
1 
1 
1 
1 
1 
1 
1 
1 
1 
1 
1 
1 
1 
1 
1 
1 
1 
1 
1 
1 
1 
1 
1 
1 
1 
1 
1 
1 
1 
1 
1 
1 
1 
1 
1 
1 
1 
1 
1 
1 
1 
1 
1 
1 
1 
1 
1 
1 
1 
1 
1 
1 
1 
1 
1 
1 
1 
1 
1 
1 
1 
1 
1 
1 
1 
1 
1 
1 
1 
1 
1 
1 
1 
1 
1 
1 
1 
1 
1 
1 
1 
1 
1 
1 
1 
1 
1 
1 
1 
1 
1 
1 
1 
1 
1 
1 
1 
1 
1 
1 
1 
1 
1 
1 
1 
1 
1 
1 
1 
1 
1 
1 
1 
1 
1 
1 
1 
1 
1 
1 
1 
1 
1 
1 
1 
1 
1 
1 
1 
1 
1 
1 
1 
1 
1 
1 
1 
1 
1 
1 
1 
1 
1 
1 
1 
1 
1 
1 
1 
1 
1 
1 
1 
1 
1 
1 
1 
1 
1 
1 
1 
1 
1 
1 
1 
1 
1 
1 
1 
1 
1 
1 
1 
1 
1 
1 
1 
1 
1 
1 
1 
1 
1 
1 
1 
1 
1 
1 
1 
1 
1 
1 
1 
1 
1 
1 
1 
1 
1 
1 
1 
1 
1 
1 
1 
1 
1 
1 
1 
1 
1 
1 
1 
1 
1 
1 
1 
1 
1 
1 
1 
1 
1 
1 
1 
1 
1 
1 
1 
1 
1 
1 
1 
1 
1 
1 
1 
1 
1 
1 
1 
1 
1 
1 
1 
1 
1 
1 
1 
1 
1 
1 
1 
1 
1 
1 
1 
1 
1 
1 
1 
1 
1 
1 
1 
1 
1 
1 
1 
1 
1 
1 
1 
1 
1 
1 
1 
1 
1 
1 
1 
1 
1 
1 
1 
1 
1 
1 
1 
1 
1 
1 
1 
1 
1 
1 
1 
1 
1 
1 
1 
1 
1 
1 
1 
1 
1 
1 
1 
1 
1 
1 
1 
1 
1 
1 
1 
1 
1 
1 
1 
1 
1 
1 
1 
1 
1 
1 
1 
1 
1 
1 
1 
1 
1 
1 
1 
1 
1 
1 
1 
1 
1 
1 
1 
1 
1 
1 
1 
1 
1 
1 
1 
1 
1 
1 
1 
1 
1 
1 
1 
1 
1 
1 
1 
1 
1 
1 
1 
1 
1 
1 
1 
1 
1 
1 
1 
1 
1 
1 
1 
1 
1 
1 
1 
1 
1 
1 
1 
1 
1 
1 
1 
1 
1 
1 
1 
1 
1 
1 
1 
1 
1 
1 
1 
1 
1 
1 
1 
1 
1 
1 
1 
1 
1 
1 
1 
1 
1 
1 
1 
1 
1 
1 
1 
1 
1 
1 
1 
1 
1 
1 
1 
1 
1 
1 
1 
1 
1 
1 
1 
1 
1 
1 
1 
1 
1 
1 
1 
1 
1 
1 
1 
1 
1 
1 
1 
1 
1 
1 
1 
1 
1 
1 
1 
1 
1 
1 
1 
1 
1 
1 
1 
1 
1 
1 
1 
1 
1 
1 
1 
1 
1 
1 
1 
1 
1 
1 
1 
1 
1 
1 
1 
1 
1 
1 
1 
1 
1 
1 
1 
1 
1 
1 
1 
1 
1 
1 
1 
1 
1 
1 
1 
1 
1 
1 
1 
1 
1 
1 
1 
1 
1 
1 
1 
1 
1 
1 
1 
1 
1 
1 
1 
1 
1 
1 
1 
1 
1 
1 
1 
1 
1 
1 
1 
1 
1 
1 
1 
1 
1 
1 
1 
1 
1 
1 
1 
1 
1 
1 
1 
1 
1 
1 
1 
1 
1 
1 
1 
1 
1 
1 
1 
1 
1 
1 
1 
1 
1 
1 
1 
1 
1 
1 
1 
1 
1 
1 
1 
1 
1 
1 
1 
1 
1 
1 
1 
1 
1 
1 
1 
1 
1 
1 
1 
1 
1 
1 
1 
1 
1 
1 
1 
1 
1 
1 
1 
1 
1 
1 
1 
1 
1 
1 
1 
1 
1 
1 
1 
1 
1 
1 
1 
1 
1 
1 
1 
1 
1 
1 
1 
1 
1 
1 
1 
1 
1 
1 
1 
1 
1 
1 
1 
1 
1 
1 
1 
1 
1 
1 
1 
1 
1 
1 
1 
1 
1 
1 
1 
1 
1 
1 
1 
1 
1 
1 
1 
1 
1 
1 
1 
1 
1 
1 
1 
1 
1 
1 
1 
1 
1 
1 
1 
1 
1 
1 
1 
1 
1 
1 
1 
1 
1 
1 
1 
1 
1 
1 
1 
1 
1 
1 
1 
1 
1 
1 
1 
1 
1 
1 
1 
1 
1 
1 
1 
1 
1 
1 
1 
1 
1 
1 
1 
1 
1 
1 
1 
1 
1 
1 
1 
1 
1 
1 
1 
1 
1 
1 
1 
1 
1 
1 
1 
1 
1 
1 
1 
1 
1 
1 
1 
1 
1 
1 
1 
1 
1 
1 
1 
1 
1 
1 
1 
1 
1 
1 
1 
1 
1 
1 
1 
1 
1 
1 
1 
1 
1 
1 
1 
1 
1 
1 
1 
1 
1 
1 
1 
1 
1 
1 
1 
1 
1 
1 
1 
1 
1 
1 
1 
1 
1 
1 
1 
1 
1 
1 
1 
1 
1 
1 
1 
1 
1 
1 
1 
1 
1 
1 
1 
1 
1 
1 
1 
1 
1 
1 
1 
1 
1 
1 
1 
1 
1 
1 
1 
1 
1 
1 
1 
1 
1 
1 
1 
1 
1 
1 
1 
1 
1 
1 
1 
1 
1 
1 
1 
1 
1 
1 
1 
1 
1 
1 
1 
1 
1 
1 
1 
1 
1 
1 
1 
1 
1 
1 
1 
1 
1 
1 
1 
1 
1 
1 
1 
1 
1 
1 
1 
1 
1 
1 
1 
1 
1 
1 
1 
1 
1 
1 
1 
1 
1 
1 
1 
1 
1 
1 
1 
1 
1 
1 
1 
1 
1 
1 
1 
1 
1 
1 
1 
1 
1 
1 
1 
1 
1 
1 
1 
1 
1 
1 
1 
1 
1 
1 
1 
1 
1 
1 
1 
1 
1 
1 
1 
1 
1 
1 
1 
1 
1 
1 
1 
1 
1 
1 
1 
1 
1 
1 
1 
1 
1 
1 
1 
1 
1 
1 
1 
1 
1 
1 
1 
1 
1 
1 
1 
1 
1 
1 
1 
1 
1 
1 
1 
1 
1 
1 
1 
1 
1 
1 
1 
1 
1 
1 
1 
1 
1 
1 
1 
1 
1 
1 
1 
1 
1 
1 
1 
1 
1 
1 
1 
1 
1 
1 
1 
1 
1 
1 
1 
1 
1 
1 
1 
1 
1 
1 
1 
1 
1 
1 
1 
1 
1 
1 
1 
1 
1 
1 
1 
1 
1 
1 
1 
1 
1 
1 
1 
1 
1 
1 
1 
1 
1 
1 
1 
1 
1 
1 
1 
1 
1 
1 
1 
1 
1 
1 
1 
1 
1 
1 
1 
1 
1 
1 
1 
1 
1 
1 
1 
1 
1 
1 
1 
1 
1 
1 
1 
1 
1 
1 
1 
1 
1 
1 
1 
1 
1 
1 
1 
1 
1 
1 
1 
1 
1 
1 
1 
1 
1 
1 
1 
1 
1 
1 
1 
1 
1 
1 
1 
1 
1 
1 
1 
1 
1 
1 
1 
1 
1 
1 
1 
1 
1 
1 
1 
1 
1 
1 
1 
1 
1 
1 
1 
1 
1 
1 
1 
1 
1 
1 
1 
1 
1 
1 
1 
1 
1 
1 
1 
1 
1 
1 
1 
1 
1 
1 
1 
1 
1 
1 
1 
1 
1 
1 
1 
1 
1 
1 
1 
1 
1 
1 
1 
1 
1 
1 
1 
1 
1 
1 
1 
1 
1 
1 
1 
1 
1 
1 
1 
1 
1 
1 
1 
1 
1 
1 
1 
1 
1 
1 
1 
1 
1 
1 
1 
1 
1 
1 
1 
1 
1 
1 
1 
1 
1 
1 
1 
1 
1 
1 
1 
1 
1 
1 
1 
1 
1 
1 
1 
1 
1 
1 
1 
1 
1 
1 
1 
1 
1 
1 
1 
1 
1 
1 
1 
1 
1 
1 
1 
1 
1 
1 
1 
1 
1 
1 
1 
1 
1 
1 
1 
1 
1 
1 
1 
1 
1 
1 
1 
1 
1 
1 
1 
1 
1 
1 
1 
1 
1 
1 
1 
1 
1 
1 
1 
1 
1 
1 
1 
1 
1 
1 
1 
1 
1 
1 
1 
1 
1 
1 
1 
1 
1 
1 
1 
1 
1 
1 
1 
1 
1 
1 
1 
1 
1 
1 
1 
1 
1 
1 
1 
1 
1 
1 
1 
1 
1 
1 
1 
1 
1 
1 
1 
1 
1 
1 
1 
1 
1 
1 
1 
1 
1 
1 
1 
1 
1 
1 
1 
1 
1 
1 
1 
1 
1 
1 
1 
1 
1 
1 
1 
1 
1 
1 
1 
1 
1 
1 
1 
1 
1 
1 
1 
1 
1 
1 
1 
1 
1 
1 
1 
1 
1 
1 
1 
1 
1 
1 
1 
1 
1 
1 
1 
1 
1 
1 
1 
1 
1 
1 
1 
1 
1 
1 
1 
1 
1 
1 
1 
1 
1 
1 
POINT_DATA 5000
VECTORS Stress float
-817.279 -1387.54 0.
-1587.1 -2350.81 0.
0.475825 0.556667 0.
-4499.55 -6946.67 0.
-2.19171 -6.01658 0.
-0.791327 -3.50432 0.
-3973.26 -5983.82 0.
-607.537 -1114.76 0.
-209.147 -440.21 0.
-4275.62 -7346.21 0.
-1590.97 -3083.78 0.
-86.3094 -239.037 0.
-1827.41 -2740.57 0.
-1529.33 -2418.06 0.
-1413.13 -2322.39 0.
-1169.3 -2080.97 0.
-918.556 -1846.44 0.
-919.465 -1938.91 0.
-721.292 -1601.98 0.
-525.358 -1262.81 0.
-582.356 -1196.38 0.
-536.309 -1117.29 0.
-490.27 -1038.19 0.
-510.731 -1054.31 0.
-504.789 -1094.51 0.
-501.825 -1131.74 0.
-575.555 -1204.95 0.
-585.743 -1211.98 0.
-525.149 -1135.83 0.
-490.525 -1080.3 0.
-456.562 -1024.11 0.
-450.801 -1002.19 0.
-434.788 -974.623 0.
-418.924 -946.902 0.
-417.091 -944.55 0.
-420.121 -976.978 0.
-429.274 -1003.28 0.
-485.539 -1048.32 0.
-487.39 -1052.63 0.
-428.046 -1009.5 0.
-408.407 -977.747 0.
-394.545 -940.219 0.
-396.919 -927.889 0.
-388.321 -912.898 0.
-380.638 -896.992 0.
-375.618 -886.102 0.
-373.021 -880.04 0.
-370.423 -873.978 0.
-358.916 -896.316 0.
-378.06 -940.983 0.
-397.202 -985.648 0.
-419.315 -961.358 0.
-401.587 -919.995 0.
-368.569 -879.741 0.
-368.961 -880.657 0.
-369.353 -881.572 0.
-378.838 -894.68 0.
-390.009 -917.478 0.
-402.762 -938.694 0.
-409.391 -952.052 0.
-422.536 -990.484 0.
-441.249 -1023.35 0.
-479.17 -1049.29 0.
-469.989 -1027.87 0.
-407.676 -967.141 0.
-409.401 -957.06 0.
-415.823 -942.281 0.
-435.355 -958.497 0.
-442.87 -973.823 0.
-452.932 -986.6 0.
-454.68 -1004.3 0.
-492.863 -1069.34 0.
-531.781 -1133.64 0.
-575.343 -1197.34 0.
-559.031 -1176.51 0.
-534.156 -1151.33 0.
-506.878 -1071.21 0.
-523.075 -1051.49 0.
-468.486 -1037.79 0.
-525.078 -1141.65 0.
-581.722 -1245.45 0.
-541.751 -1273.4 0.
-847.1 -1809.27 0.
-1157.73 -2339.86 0.
-1140.33 -1996.78 0.
-1360.09 -2006.5 0.
-1563.01 -2033.05 0.
-1775.56 -2817.96 0.
-2540.85 -4162.9 0.
-150.941 -414.855 0.
-957.335 -1817.58 0.
-4561.71 -7205.55 0.
-200.359 -318.482 0.
-485.977 -687.268 0.
-3261.75 -4287.42 0.
-2.38171 -4.98514 0.
-3080.29 -4994.09 0.
-89.1489 -149.989 0.
-2133.18 -3369.72 0.
-2043.78 -3494.05 0.
-135.143 -259.625 0.
2.13702 24.9962 0.
-5.57421 -9.65422 0.
-1.97398 -4.2587 0.
13.2588 23.4996 0.
-0.585721 -3.98587 0.
-75.7673 -131.143 0.
-38.8465 -77.3534 0.
-13.1443 -31.1823 0.
-300.817 -833.064 0.
-83.5462 -231.366 0.
-31.1514 -68.4062 0.
-686.452 -1116.75 0.
-434.311 -747.404 0.
-582.118 -1192.3 0.
-390.689 -897.962 0.
-222.822 -580.064 0.
-605.009 -1463.41 0.
-431.119 -1101.97 0.
-283.408 -714.359 0.
-478.165 -1110.65 0.
-432.009 -1031.65 0.
-387.472 -951.037 0.
-484.886 -970.756 0.
-477.814 -1012.09 0.
-471.628 -1052.54 0.
-662.931 -1259.71 0.
-668.095 -1271.76 0.
-492.4 -1056.64 0.
-455.178 -1003.7 0.
-419.888 -948.835 0.
-443.011 -980.474 0.
-426.597 -953.303 0.
-418.383 -917.932 0.
-405.869 -896.925 0.
-406.925 -931.328 0.
-411.671 -962.041 0.
-574.456 -1086.39 0.
-576.311 -1090.7 0.
-411.673 -950.494 0.
-390.824 -919.951 0.
-372.886 -886.496 0.
-388.801 -919.117 0.
-378.98 -905.35 0.
-369.428 -891.313 0.
-370.075 -875.405 0.
-364.132 -872.689 0.
-359.077 -869.084 0.
-342.197 -825.005 0.
-356.567 -874.449 0.
-374.416 -920.404 0.
-437.074 -968.935 0.
-419.346 -927.573 0.
-355.867 -862.546 0.
-359.762 -859.958 0.
-364.47 -856.557 0.
-368.753 -889.457 0.
-381.983 -910.196 0.
-395.513 -930.636 0.
-393.349 -896.392 0.
-408.747 -932.574 0.
-430.476 -962.424 0.
-548.013 -1078.76 0.
-538.83 -1057.35 0.
-376.503 -916.46 0.
-379.786 -904.821 0.
-387.792 -888.457 0.
-443.498 -930.261 0.
-444.743 -951.857 0.
-451.719 -967.722 0.
-418.837 -921.436 0.
-460.06 -983.439 0.
-502.196 -1044.53 0.
-636.389 -1253.41 0.
-624.87 -1227.79 0.
-486.139 -1044.05 0.
-469.745 -979.242 0.
-486.901 -958.567 0.
-325.709 -864.837 0.
-382.794 -968.224 0.
-443.187 -1068.3 0.
-158.953 -371.706 0.
-392.272 -980.167 0.
-657.486 -1556.73 0.
-144.774 -146.768 0.
-272.163 -244.493 0.
-396.085 -350.389 0.
-20.8071 -56.5216 0.
-549.913 -1477.65 0.
-29.8313 -82.5107 0.
-24.6114 -65.0796 0.
-57.0931 -138.868 0.
-16.9383 -23.5116 0.
0.518214 0.519335 0.
-216.448 -220.38 0.
0.0895615 1.1932 0.
4.53195 8.75624 0.
-1.60188 -13.7899 0.
-46.9193 -85.5497 0.
-295.932 -596.43 0.
-217.215 -440.877 0.
32.2589 78.8732 0.
17.7642 24.6886 0.
16.0943 25.0953 0.
-0.644695 -3.27041 0.
12.6955 28.1364 0.
-0.156502 -0.891541 0.
-0.250086 -2.44675 0.
2.87417 7.30046 0.
-112.346 -290.621 0.
-34.3919 -64.4587 0.
0.133506 0.0794453 0.
-42.8385 -94.4438 0.
-29.7359 -40.4633 0.
-92.4008 -171.953 0.
-60.76 -99.654 0.
-67.722 -127.397 0.
-361.914 -916.549 0.
-228.136 -514.781 0.
-86.4359 -120.935 0.
-424.525 -974.363 0.
-384.745 -888.978 0.
-347.718 -800.84 0.
-465.002 -881.242 0.
-457.946 -922.567 0.
-451.337 -963.434 0.
-762.433 -1302.35 0.
-767.596 -1314.4 0.
-478.504 -958.59 0.
-442.379 -904.553 0.
-407.169 -849.601 0.
-439.604 -954.371 0.
-429.369 -921.02 0.
-420.976 -885.827 0.
-402.188 -841.759 0.
-402.4 -877.008 0.
-403.49 -911.379 0.
-663.372 -1124.47 0.
-665.231 -1128.78 0.
-402.49 -884.299 0.
-382.063 -853.333 0.
-362.726 -821.276 0.
-394.384 -896.644 0.
-384.571 -882.87 0.
-375.024 -868.829 0.
-379.018 -850.222 0.
-372.77 -847.81 0.
-366.967 -844.955 0.
-340.882 -738.291 0.
-354.114 -788.875 0.
-894.682 -1127.77 0.
-454.834 -976.512 0.
-437.105 -935.151 0.
-367.371 -821.145 0.
-371.088 -818.735 0.
-375.658 -815.471 0.
-378.306 -864.597 0.
-390.572 -886.3 0.
-403.851 -906.99 0.
-390.844 -827.195 0.
-408.646 -860.974 0.
-429.014 -892.189 0.
-616.856 -1108.23 0.
-607.671 -1086.82 0.
-359.296 -851.814 0.
-367.349 -835.404 0.
-376.451 -817.944 0.
-454.967 -898.699 0.
-456.983 -919.524 0.
-458.526 -940.823 0.
-405.155 -816.411 0.
-445.13 -879.668 0.
-486.018 -942.012 0.
-718.495 -1288.42 0.
-706.856 -1262.92 0.
-376.222 -840.636 0.
-436.777 -883.115 0.
-452.945 -863.428 0.
-244.741 -630.072 0.
-282.232 -753.081 0.
-332.328 -863.485 0.
-50.2555 -27.7609 0.
-62.9368 -44.9694 0.
-277.746 -653.103 0.
-173.496 -154.05 0.
-58.1987 -89.5603 0.
-49.9634 -83.2106 0.
-15.5581 -42.9656 0.
-114.535 -246.625 0.
-0.115687 -1.91053 0.
0.671541 1.84375 0.
-3.84037 -10.5593 0.
-3.66167 -4.83978 0.
1.02777 1.05366 0.
1.19944 0.758548 0.
-0.447619 -23.5329 0.
-2.0693 -21.0104 0.
0.292278 4.07692 0.
0.125683 4.55465 0.
25.1498 52.7179 0.
41.436 111.755 0.
-3.99199 -73.5329 0.
-1.22316 -62.6607 0.
-179.586 -372.396 0.
-2341.06 -4921.94 0.
-2.10065 -21.5558 0.
-1.25466 -14.21 0.
-4298.84 -8361.54 0.
0.17095 1.238 0.
-3524.99 -6897.42 0.
-82.8385 -210.81 0.
-6.48773 -17.8706 0.
-4228.6 -8329.04 0.
-95.0009 -251.894 0.
-2349.8 -4087.77 0.
-1575.32 -2961.96 0.
-848.087 -1788.89 0.
-2150.04 -4624.56 0.
-1152.5 -2721.09 0.
-275.632 -696.925 0.
-1285.46 -3011.19 0.
-897.507 -2208.27 0.
-549.9 -1364.99 0.
-812.058 -1949.79 0.
-662.942 -1634.31 0.
-524.303 -1308.35 0.
-979.969 -1879.09 0.
-973.66 -1864.39 0.
-675.419 -1498.59 0.
-643.074 -1429.52 0.
-610.797 -1360.39 0.
-663.647 -1409.18 0.
-646.43 -1411.98 0.
-630.387 -1413.6 0.
-648.847 -1354.79 0.
-634.216 -1362.46 0.
-620.437 -1369.28 0.
-861.318 -1613.63 0.
-862.366 -1616.11 0.
-616.876 -1380.09 0.
-593.818 -1335.22 0.
-570.953 -1290.16 0.
-580.705 -1315.78 0.
-574.677 -1322.18 0.
-569.778 -1327.46 0.
-584.04 -1319.29 0.
-579.414 -1326.96 0.
-575.966 -1333.45 0.
-533.347 -1219.43 0.
-525.004 -1205.81 0.
-1237.17 -1583.51 0.
-549.373 -1345.48 0.
-548.786 -1344.11 0.
-579.059 -1283.34 0.
-583.594 -1282.61 0.
-589.761 -1280.25 0.
-562.161 -1299.2 0.
-576.33 -1315.68 0.
-591.5 -1331.17 0.
-560.867 -1288.79 0.
-575.285 -1315.59 0.
-589.87 -1342.23 0.
-828.065 -1602.59 0.
-839.611 -1629.52 0.
-609.475 -1398.4 0.
-612.677 -1357.37 0.
-617.076 -1315.14 0.
-626.737 -1380.36 0.
-647.344 -1391.3 0.
-668.723 -1401.46 0.
-600.817 -1346.53 0.
-646.781 -1441.14 0.
-692.843 -1535.65 0.
-920.614 -1930.66 0.
-943.197 -1983.39 0.
-483.875 -1197.45 0.
-699.138 -1697.2 0.
-909.011 -2136.67 0.
-375.224 -1037.96 0.
-893.894 -2275.6 0.
-1479.62 -3446.17 0.
-174.989 -364.623 0.
-1304.49 -2978.17 0.
-2573.95 -5451.73 0.
-707.281 -1064.76 0.
-1455.24 -2095.39 0.
-2248.99 -3080.22 0.
1.10031 2.09233 0.
-4182.55 -9264.43 0.
-0.161613 -2.03237 0.
-89.2876 -190.384 0.
-3601.32 -6484.34 0.
5.52237 11.0634 0.
-2976.51 -5304.21 0.
-1.81902 -23.1504 0.
-1772.76 -3791.65 0.
11.8834 28.7081 0.
-234.249 -554.052 0.
28.0544 71.9633 0.
-1074.72 -2239.5 0.
-2.17306 -123.378 0.
-704.987 -1832.34 0.
16.8048 45.168 0.
-69.2925 -150.732 0.
11.148 26.7813 0.
11.4588 27.7837 0.
0.386795 8.79664 0.
7.30893 15.4915 0.
-0.732771 -9.9578 0.
-0.0667574 -0.345758 0.
-0.0680298 -0.92084 0.
-0.0694478 -6.49328 0.
-208.821 -533.887 0.
-20.2317 -55.1837 0.
-181.961 -186.719 0.
-125.985 -128.621 0.
-64.7836 -123.418 0.
-357.64 -910.385 0.
-40.6028 -112.373 0.
-42.1275 -116.166 0.
-742.388 -1811.91 0.
-413.21 -949.131 0.
-70.5043 -151.882 0.
-658.703 -1635.4 0.
-530.435 -1298.96 0.
-414.332 -950.357 0.
-943.443 -1863.47 0.
-937.131 -1848.77 0.
-671.944 -1463.45 0.
-637.325 -1396.66 0.
-602.972 -1329.6 0.
-660.317 -1331.33 0.
-643.293 -1333.93 0.
-627.15 -1335.66 0.
-663.643 -1300.04 0.
-648.212 -1308.51 0.
-633.613 -1316.15 0.
-846.828 -1607.39 0.
-847.873 -1609.87 0.
-645.38 -1360.9 0.
-623.363 -1315 0.
-601.553 -1268.88 0.
-585.421 -1251.45 0.
-580.032 -1257.22 0.
-575.759 -1261.87 0.
-588.096 -1259.16 0.
-582.993 -1267.31 0.
-579.14 -1274.21 0.
-545.561 -1191.72 0.
-537.409 -1177.91 0.
-1554.1 -1712.82 0.
-523.215 -1260.16 0.
-528.275 -1253.15 0.
-611.559 -1247.68 0.
-616.346 -1246.7 0.
-621.832 -1245.02 0.
-563.402 -1234.32 0.
-577.499 -1250.88 0.
-592.566 -1266.46 0.
-561.796 -1252.23 0.
-576.107 -1279.14 0.
-590.584 -1305.89 0.
-827.174 -1602.19 0.
-838.718 -1629.12 0.
-631.612 -1339.04 0.
-635.97 -1296.85 0.
-641.345 -1253.64 0.
-606.526 -1295.36 0.
-625.781 -1307.65 0.
-648.209 -1316.76 0.
-571.412 -1301.42 0.
-617.743 -1395.67 0.
-664.372 -1489.61 0.
-863.984 -1859.8 0.
-901.6 -1897.5 0.
-324.775 -675.94 0.
-487.687 -1134.64 0.
-670.535 -1601.39 0.
-3.09794 -8.36463 0.
-98.0088 -242.628 0.
-591.698 -1507.83 0.
-80.5506 -151.484 0.
-66.6527 -121.585 0.
-226.447 -386.731 0.
-30.4737 -84.4012 0.
-38.1389 -105.638 0.
-66.437 -176.888 0.
1.80527 3.71432 0.
-0.539775 -1.6864 0.
0.0361444 2.33024 0.
-0.0519811 -0.801582 0.
-0.136255 -1.22498 0.
0.0332831 0.555844 0.
-5.13292 -10.8963 0.
-1.3302 -25.485 0.
-17.1278 -38.8397 0.
-10.9999 -27.4217 0.
-1613.03 -3916.99 0.
-0.450039 -122.286 0.
67.8453 185.761 0.
-567.372 -1501.12 0.
44.3875 120.516 0.
2.12469 5.75913 0.
-22.9918 -51.6788 0.
12.8719 31.8268 0.
4.95673 12.6035 0.
0.111655 5.35401 0.
-1653.07 -4173 0.
0.644926 1.71854 0.
-3332.68 -7212.51 0.
-0.259953 -0.677515 0.
-0.0129169 -1.55863 0.
-3649.73 -8503.29 0.
-49.011 -120.533 0.
-2602.28 -4552.66 0.
-1006.71 -1941.37 0.
-130.821 -218.26 0.
-2943.67 -6722.22 0.
-1105.13 -2661.95 0.
-45.2832 -122.44 0.
-2023.42 -4442.43 0.
-1017.55 -2436.41 0.
-152.384 -289.669 0.
-1180.92 -2642.13 0.
-769.633 -1765.51 0.
-387.823 -859.416 0.
-997.613 -1914.35 0.
-852.187 -1665.67 0.
-568.948 -1234.68 0.
-504.502 -1113.79 0.
-440.918 -992.037 0.
-508.834 -965.828 0.
-483.041 -925.362 0.
-457.737 -884.409 0.
-475.29 -876.67 0.
-467.43 -868.696 0.
-459.727 -860.565 0.
-658.66 -1171.53 0.
-643.867 -1137 0.
-465.139 -814.821 0.
-472.167 -839.779 0.
-479.331 -864.601 0.
-459.256 -871.959 0.
-451.768 -862.002 0.
-444.893 -851.431 0.
-458.727 -850.278 0.
-454.64 -840.083 0.
-450.818 -829.624 0.
-391.719 -755.639 0.
-376.83 -720.055 0.
-1426.4 -1286.29 0.
-352.161 -766.806 0.
-360.538 -789.92 0.
-462.634 -835.091 0.
-469.553 -850.312 0.
-488.563 -853.442 0.
-430.54 -825.605 0.
-438.04 -837.93 0.
-445.753 -850.043 0.
-414.245 -825.874 0.
-410.793 -811.753 0.
-407.364 -797.61 0.
-631.016 -1133.44 0.
-641.643 -1158.21 0.
-432.186 -807.577 0.
-451.296 -841.914 0.
-470.535 -876.121 0.
-452.973 -908.06 0.
-484.888 -961.645 0.
-516.983 -1015.05 0.
-431.831 -997.323 0.
-523.427 -1175.84 0.
-615.101 -1354.27 0.
-862.666 -1769.82 0.
-1061.21 -2116.23 0.
-287.876 -571.6 0.
-830.309 -1920.36 0.
-1420.45 -3189.59 0.
-53.2928 -111.66 0.
-1024.25 -2518.82 0.
-2430.03 -5567.29 0.
-144.451 -171.602 0.
-775.39 -1226.35 0.
-2634.7 -4720.72 0.
-24.2047 -61.3972 0.
-3764.94 -7789.06 0.
0.675915 1.51756 0.
-22.8339 -49.7457 0.
-2987.27 -6614.36 0.
3.58885 8.89792 0.
-2714.75 -5355.94 0.
12.9361 32.6206 0.
-1420.41 -3516.53 0.
-1.69226 -20.7421 0.
5.51475 14.016 0.
14.9816 39.3549 0.
-8.43269 -21.4998 0.
20.3053 55.7238 0.
-0.451789 -1.24776 0.
-383.283 -1061.36 0.
48.3183 123.169 0.
11.4876 30.7197 0.
-18.3918 -50.2076 0.
30.8873 85.5316 0.
-330.027 -865.852 0.
-1628.29 -4136.79 0.
-0.199614 -23.3761 0.
-0.555336 -22.6355 0.
-0.198862 -19.767 0.
-0.00359066 -3.15979 0.
-0.59818 -1.63063 0.
-5.95119e-06 -2.75913 0.
-249.426 -626.678 0.
-0.160354 -2.26509 0.
-0.0962418 -0.417402 0.
-0.198341 -0.444179 0.
-71.3938 -118.035 0.
-262.159 -726.054 0.
-59.0686 -151.817 0.
-51.0094 -123.066 0.
-507.03 -1105.93 0.
-42.275 -51.1185 0.
-0.194436 -0.525293 0.
-691.588 -1621.88 0.
-337.055 -687.493 0.
-55.1551 -37.6284 0.
-715.922 -1465.86 0.
-587.171 -1200.35 0.
-479.016 -1079.57 0.
-424.313 -948.915 0.
-372.542 -815.328 0.
-478.236 -901.161 0.
-454.752 -858.388 0.
-429.458 -817.424 0.
-452.813 -826.883 0.
-442.771 -821.094 0.
-434.958 -813.075 0.
-670.477 -1176.56 0.
-655.683 -1142.04 0.
-452.846 -786.518 0.
-459.782 -811.572 0.
-466.873 -836.471 0.
-463.101 -816.809 0.
-456.09 -806.38 0.
-449.721 -795.309 0.
-465.922 -829.904 0.
-462.11 -819.439 0.
-458.485 -808.786 0.
-370.987 -740.534 0.
-356.48 -704.568 0.
-1238.12 -1200.5 0.
-343.682 -734.505 0.
-351.748 -757.931 0.
-439.182 -786.355 0.
-445.728 -801.951 0.
-452.684 -817.136 0.
-421.263 -779.593 0.
-428.986 -791.696 0.
-437.88 -802.628 0.
-406.131 -815.344 0.
-403.258 -800.643 0.
-400.51 -785.816 0.
-644.053 -1139 0.
-654.677 -1163.77 0.
-396.477 -755.453 0.
-415.513 -789.864 0.
-439.968 -818.856 0.
-388.345 -810.076 0.
-420.188 -863.737 0.
-451.775 -917.655 0.
-312.386 -706.183 0.
-380.95 -907.787 0.
-456.523 -1102.38 0.
-517.872 -1147.22 0.
-691.492 -1518.83 0.
-80.4783 -38.1945 0.
-217.994 -345.073 0.
-728.432 -1696.11 0.
-38.3871 -96.1937 0.
-62.8413 -99.0733 0.
-328.53 -784.115 0.
-151.879 -138.753 0.
-37.3174 -54.6132 0.
-20.4118 -31.5263 0.
-0.126341 -3.20585 0.
-115.205 -318.596 0.
-0.0591386 -1.401 0.
2.89526 6.9726 0.
-25.886 -60.2541 0.
-0.100514 -4.99598 0.
6.88775 15.7238 0.
11.7675 31.6768 0.
-490.657 -1293.41 0.
-0.165699 -44.9555 0.
-849.897 -2304.17 0.
-10.2993 -28.4769 0.
-19.3814 -50.3108 0.
-0.125491 -107.899 0.
-1194.89 -3308.2 0.
42.5009 103.233 0.
-246.441 -637.894 0.
8.13148 21.3765 0.
-0.384021 -100.491 0.
22.0249 60.8035 0.
-134.041 -360.507 0.
28.1443 77.9227 0.
-0.050679 -6.45889 0.
0.00205225 4.36755 0.
-0.121675 -20.1005 0.
11.9749 33.1575 0.
5.24236 14.5056 0.
0.0109416 2.53093 0.
-69.1264 -170.929 0.
1.77575 3.98705 0.
0.124309 0.527568 0.
-0.352712 -0.652222 0.
-47.211 -71.6141 0.
-144.511 -358.762 0.
-68.4553 -155.515 0.
-59.3865 -122.635 0.
-105.68 -132.98 0.
-59.7783 -62.9571 0.
-2.138 -5.30066 0.
-301.666 -502.218 0.
-55.117 -32.1501 0.
-69.0211 -40.6703 0.
-483.097 -968.498 0.
-371.669 -685.519 0.
-412.996 -900.548 0.
-364.483 -763.681 0.
-317.388 -625.397 0.
-453.271 -830.861 0.
-427.553 -790.322 0.
-402.504 -749.113 0.
-438.384 -769.049 0.
-427.923 -763.681 0.
-417.703 -758.071 0.
-682.293 -1181.6 0.
-667.498 -1147.08 0.
-441.198 -757.571 0.
-448.035 -782.727 0.
-455.03 -807.725 0.
-467.683 -760.922 0.
-461.223 -749.948 0.
-455.078 -738.658 0.
-478.122 -804.525 0.
-474.364 -794.01 0.
-470.694 -783.407 0.
-354.414 -721.27 0.
-342.126 -683.083 0.
-1305.66 -1241.95 0.
-342.211 -695.195 0.
-349.932 -718.968 0.
-415.995 -737.353 0.
-422.346 -753.145 0.
-428.883 -768.753 0.
-418.181 -727.387 0.
-425.848 -739.545 0.
-433.971 -751.248 0.
-410.959 -791.873 0.
-408.209 -777.047 0.
-405.614 -762.066 0.
-657.09 -1144.55 0.
-667.712 -1169.32 0.
-369.42 -694.677 0.
-393.683 -723.861 0.
-418.077 -752.914 0.
-336.709 -699.1 0.
-369.511 -751.807 0.
-401.244 -805.582 0.
-212.983 -395.001 0.
-276.317 -601.894 0.
-342.737 -805.699 0.
-252.905 -444.798 0.
-405.871 -837.338 0.
-108.382 -49.5772 0.
-117.378 -78.6579 0.
-156.174 -136.11 0.
-63.6122 -112.019 0.
-79.2348 -108.038 0.
-136.651 -164.463 0.
-250.889 -175.439 0.
-110.411 -90.619 0.
-40.0448 -47.1414 0.
-0.190979 -4.81088 0.
-51.795 -141.144 0.
-0.0954941 -7.06207 0.
1.04805 2.70303 0.
-1.3523 -3.36129 0.
-0.142735 -14.4425 0.
-0.66 -11.4153 0.
6.25812 17.2869 0.
-0.297729 -41.0713 0.
3.28729 9.05911 0.
-530.557 -1447.11 0.
4.50759 12.4782 0.
-615.449 -1701.91 0.
-436.371 -1208.46 0.
-12.1844 -30.7414 0.
77.1387 182.681 0.
-3.43801 -8.97001 0.
0.51999 1.34101 0.
-130.746 -360.621 0.
-0.261581 -99.3576 0.
-189.466 -516.987 0.
-0.0412689 -84.607 0.
-0.414332 -56.0404 0.
-0.020307 -45.5673 0.
-1315.82 -3409.95 0.
14.8181 40.8089 0.
-2630.83 -6558.88 0.
1.25575 3.19054 0.
-2610.88 -5457.49 0.
1.64707 4.35036 0.
0.895343 2.47024 0.
-4373.27 -10544 0.
-45.02 -97.1226 0.
-2677.29 -4952.3 0.
-364.666 -871.597 0.
-25.7282 -55.5288 0.
-3218.12 -7688.02 0.
-501.608 -1122.88 0.
-39.6167 -63.005 0.
-2006.97 -4750.44 0.
-874.347 -2094.73 0.
-27.1072 -19.9928 0.
-1337.81 -3096.72 0.
-898.157 -2121.25 0.
-944.168 -2199.88 0.
-703.916 -1675.86 0.
-480.942 -1134.57 0.
-706.953 -1523.27 0.
-628.503 -1387.49 0.
-550.86 -1250.91 0.
-655.674 -1313.28 0.
-610.909 -1245.09 0.
-567.017 -1176.04 0.
-878.142 -1677.16 0.
-868.742 -1655.25 0.
-608.954 -1234.64 0.
-592.502 -1204.78 0.
-576.649 -1174.32 0.
-571.604 -1137.12 0.
-565.205 -1126.33 0.
-559.13 -1115.23 0.
-590.146 -1155.25 0.
-581.381 -1149.26 0.
-578.092 -1137.8 0.
-545.437 -1119.78 0.
-541.588 -1114.34 0.
-1374.41 -1656.03 0.
-479.253 -1096.7 0.
-483.573 -1103.5 0.
-545.478 -1142.64 0.
-551.567 -1154.83 0.
-567.864 -1156.81 0.
-551.791 -1122.32 0.
-546.177 -1106.09 0.
-540.7 -1089.72 0.
-512.943 -1125.87 0.
-541.08 -1183.8 0.
-571.071 -1239.87 0.
-850.862 -1654.09 0.
-858.401 -1671.67 0.
-521.987 -1110.56 0.
-587.994 -1225.75 0.
-655.225 -1339.71 0.
-467.07 -1184.8 0.
-581.873 -1435.02 0.
-701.667 -1680.24 0.
-432.713 -1070.44 0.
-726.092 -1848.81 0.
-1047.92 -2598.73 0.
-899.894 -2181.45 0.
-1506.1 -3485.04 0.
-113.148 -163.423 0.
-735.954 -1783.71 0.
-2298.03 -5471.97 0.
-23.0174 -56.4009 0.
-144.725 -234.514 0.
-3429.88 -8289.97 0.
-88.4217 -221.281 0.
-163.542 -353.805 0.
-3123.86 -5450.65 0.
-0.00442788 -2.61962 0.
-3473.03 -8238.93 0.
-0.269009 -9.56043 0.
0.997041 2.34399 0.
-2760.02 -5782.42 0.
12.034 32.1497 0.
-1864.33 -4891.93 0.
10.3354 28.585 0.
3.204 8.84422 0.
2.99119 8.26331 0.
-249.921 -684.642 0.
13.4178 37.1635 0.
-936.491 -2592.34 0.
18.431 50.1285 0.
-8.80854 -21.7063 0.
-9.55072 -22.0496 0.
1.27006 3.3459 0.
30.8239 77.7662 0.
-3.74175 -114.943 0.
36.9419 101.287 0.
-75.3677 -207.438 0.
30.9963 85.3796 0.
-483.323 -1289.64 0.
-6.64694 -18.0058 0.
-228.292 -615.693 0.
8.30643 23.0054 0.
-32.5091 -83.949 0.
-0.437369 -10.2087 0.
-1.99543 -4.97851 0.
-0.0491316 -5.62453 0.
-0.000469108 -0.151804 0.
-94.3009 -231.203 0.
-0.0531715 -3.63679 0.
-57.7598 -141.39 0.
-4.75458 -11.5693 0.
0.994388 2.35314 0.
-121.057 -159.933 0.
-89.6761 -115.19 0.
-56.6423 -73.4084 0.
-566.253 -1300.23 0.
-34.1378 -30.0956 0.
-24.754 -19.5996 0.
-766.402 -1833.59 0.
-376.959 -806.559 0.
-618.139 -1484.49 0.
-409.097 -928.852 0.
-216.645 -356.624 0.
-558.682 -1295.65 0.
-492.483 -1147.59 0.
-436.828 -988.975 0.
-612.663 -1207.65 0.
-568.662 -1138.69 0.
-525.436 -1068.96 0.
-857.52 -1668.29 0.
-848.121 -1646.38 0.
-586.519 -1155.28 0.
-570.245 -1125.25 0.
-554.536 -1094.65 0.
-559.605 -1092.25 0.
-552.758 -1081.92 0.
-546.225 -1071.27 0.
-559.335 -1110.74 0.
-556.057 -1099.27 0.
-552.972 -1087.61 0.
-583.419 -1103.08 0.
-579.705 -1097.5 0.
-1300.71 -1621.91 0.
-456.659 -1026.91 0.
-460.144 -1034.55 0.
-536.539 -1092.98 0.
-542.415 -1105.38 0.
-548.692 -1117.38 0.
-551.813 -1086.13 0.
-544.849 -1071.25 0.
-539.087 -1055.16 0.
-498.908 -1038.14 0.
-527.784 -1095.33 0.
-557.537 -1151.64 0.
-822.799 -1638.57 0.
-834.57 -1651.91 0.
-479.633 -979.085 0.
-544.639 -1095.29 0.
-610.818 -1210.31 0.
-311.03 -777.801 0.
-397.257 -1056.7 0.
-496.554 -1322.53 0.
-40.5549 -43.9242 0.
-343.645 -813.372 0.
-623.424 -1606.13 0.
-126.965 -175.487 0.
-659.117 -1555.89 0.
-27.5268 -76.2007 0.
-6.88409 -19.0209 0.
-222.268 -411.361 0.
-46.7344 -66.721 0.
-177.459 -251.753 0.
-255.539 -496.361 0.
-28.3478 -76.4406 0.
-13.8364 -33.9028 0.
-30.0884 -67.8626 0.
-0.0815632 -7.55152 0.
2.07311 5.74151 0.
-0.038279 -2.39525 0.
1.47032 3.63416 0.
-0.00520517 -24.1093 0.
8.20684 22.4499 0.
3.47592 9.33461 0.
14.1108 38.9381 0.
-1179.04 -3265.69 0.
6.87111 19.0268 0.
-248.261 -682.366 0.
11.9613 33.1268 0.
-3.75102 -10.1049 0.
-64.5785 -174.783 0.
42.8189 102.785 0.
7.96859 17.9046 0.
24.2352 64.5377 0.
-7.4434 -119.422 0.
45.9407 117.42 0.
-24.2475 -66.1657 0.
0.64897 1.76266 0.
6.22673 17.0772 0.
-52.7991 -142.234 0.
4.98069 13.5948 0.
7.07969 19.4363 0.
20.0475 55.2658 0.
5.36816 13.7584 0.
-0.574778 -11.7661 0.
1.31552 3.16067 0.
-2165.62 -5791.49 0.
4.34002 12.0178 0.
-2023.14 -4762.21 0.
0.719931 1.89482 0.
-2974.87 -6505.84 0.
-120.412 -333.289 0.
2.79343 0.0350452 0.
-3288.61 -8651.07 0.
-0.92418 -0.0300581 0.
0.295878 0.122459 0.
-2605.35 -6087.45 0.
-534.14 -1221.52 0.
-85.3714 -123.282 0.
-1750.49 -4213.48 0.
-884.828 -2148.09 0.
-1158.34 -2714.87 0.
-732.882 -1750.02 0.
-339.145 -753.434 0.
-809.205 -1813.74 0.
-600.428 -1383.13 0.
-404.972 -939.195 0.
-620.012 -1208.81 0.
-492.777 -939.938 0.
-360.468 -676.142 0.
-694.728 -1350.73 0.
-673.952 -1315.34 0.
-453.338 -762.964 0.
-451.113 -764.335 0.
-449.099 -765.495 0.
-455.951 -799.743 0.
-440.982 -763.476 0.
-426.45 -726.772 0.
-439.2 -755.088 0.
-425.378 -715.966 0.
-411.812 -676.588 0.
-465.307 -719.535 0.
-459.759 -700.562 0.
-1030.44 -1155.44 0.
-300.094 -606.514 0.
-311.192 -639.219 0.
-408.24 -712.367 0.
-412.877 -731.841 0.
-417.582 -751.248 0.
-422.824 -734.592 0.
-441.102 -779.172 0.
-461.088 -822.043 0.
-414.329 -749.55 0.
-413.93 -744.381 0.
-413.992 -738.75 0.
-642.215 -1325.57 0.
-693.108 -1408.65 0.
-329.401 -678.061 0.
-488.89 -1011.1 0.
-646.145 -1346.38 0.
-304.885 -821.153 0.
-599.784 -1512.02 0.
-912.552 -2185.01 0.
-243.677 -634.181 0.
-720.042 -1803.01 0.
-1241.87 -2926.38 0.
-712.817 -1766.64 0.
-1969.3 -4886.46 0.
-6.42396 -13.1734 0.
-75.6416 -186.469 0.
-2699.75 -6449.56 0.
-86.7066 -220.604 0.
-28.1801 -75.6379 0.
-2354.39 -5597.71 0.
0.699883 1.93493 0.
-2697.29 -5954.85 0.
4.17302 11.3388 0.
-157.975 -434.521 0.
-1658.36 -4319.31 0.
-0.163439 -17.1127 0.
5.89366 15.0512 0.
-0.0257077 -21.5842 0.
2.45779 6.79388 0.
-0.440889 -45.7919 0.
-0.300858 -0.827783 0.
-0.103686 -40.538 0.
-0.0608943 -62.9857 0.
3.75738 10.262 0.
-86.1818 -238.538 0.
-6.09032 -16.2979 0.
-204.286 -549.859 0.
10.457 23.7327 0.
-413.759 -902.361 0.
19.6566 51.939 0.
44.7477 107.365 0.
-27.7151 -70.5168 0.
-95.2243 -258.346 0.
22.8627 58.8574 0.
-2.08588 -5.68789 0.
-351.649 -967.309 0.
6.94521 19.0667 0.
-0.131404 -0.363409 0.
11.6401 31.8107 0.
-407.807 -1129.42 0.
-1055.5 -2752.12 0.
-250.756 -690.795 0.
-210.57 -582.749 0.
-0.00863836 -6.99948 0.
3.4679 9.11164 0.
1.78549 4.92124 0.
-234.866 -630.298 0.
-95.0137 -226.963 0.
0.550848 1.61788 0.
-1.38077 -0.163858 0.
-2.83471 -0.604783 0.
0.991133 0.817944 0.
-0.0324282 -0.0869676 0.
-5.42819 -15.002 0.
-49.9504 -109.29 0.
-692.043 -1718.64 0.
-60.9106 -48.6759 0.
-596.062 -1434.16 0.
-213.507 -425.064 0.
-49.2987 -27.757 0.
-488.723 -1200.14 0.
-308.639 -740.525 0.
-151.276 -258.193 0.
-494.624 -1024.71 0.
-371.584 -751.581 0.
-262.747 -475.499 0.
-624.725 -1258.43 0.
-595.521 -1231.46 0.
-415.681 -707.55 0.
-413.594 -708.785 0.
-411.592 -709.935 0.
-416.497 -738.622 0.
-402.129 -701.754 0.
-388.387 -664.26 0.
-423.816 -740.675 0.
-409.881 -701.667 0.
-396.133 -662.472 0.
-468.801 -729.373 0.
-463.331 -710.323 0.
-743.593 -1028 0.
-286.999 -593.768 0.
-297.427 -627.144 0.
-388.055 -688.812 0.
-392.677 -708.301 0.
-397.46 -727.63 0.
-376.052 -664.065 0.
-393.406 -709.573 0.
-411.835 -754.005 0.
-377.322 -678.781 0.
-376.772 -673.761 0.
-376.665 -668.298 0.
-544.688 -1205 0.
-599.315 -1284.37 0.
-155.203 -363.446 0.
-285.463 -724.684 0.
-430.43 -1072.38 0.
-24.7108 -40.6525 0.
-249.5 -654.029 0.
-516.897 -1373.01 0.
-13.7421 -30.4121 0.
-2.22514 -5.85584 0.
-489.707 -1165.71 0.
-15.2837 -10.6301 0.
-580.487 -1463.99 0.
0.245521 0.47577 0.
-9.69154 -24.3937 0.
-77.4184 -212.968 0.
-42.175 -115.493 0.
-23.3439 -64.6373 0.
-9.77331 -26.825 0.
-0.0091518 -1.12701 0.
-776.798 -2149.39 0.
3.74779 10.0584 0.
2.00832 5.56263 0.
-294.869 -796.867 0.
0.577704 1.52075 0.
-2154.12 -5493.19 0.
3.0961 8.57436 0.
-1309.46 -3613.47 0.
-0.220158 -17.8103 0.
1.0403 2.85176 0.
0.418251 1.14372 0.
22.1157 60.8731 0.
-0.49454 -78.1043 0.
-120.586 -329.319 0.
28.0454 74.4957 0.
-633.713 -1694.78 0.
20.2163 46.1165 0.
8.91557 21.6766 0.
37.0942 98.6961 0.
34.2515 81.7593 0.
-123.781 -313.924 0.
11.1572 28.5253 0.
-3.33205 -97.6686 0.
21.5819 58.4436 0.
-0.886644 -85.2696 0.
-0.107846 -53.9669 0.
-5.53524 -15.3316 0.
-650.211 -1800.36 0.
1.13323 3.1372 0.
-664.092 -1793.76 0.
-2.61779 -7.24295 0.
0.787429 2.17737 0.
-0.0233659 -4.34599 0.
-0.0638335 -9.72233 0.
-0.000531122 -0.912289 0.
-0.246389 -10.0702 0.
-74.9032 -130.485 0.
2.99079 2.17504 0.
-2.49674 -0.625603 0.
1.75933 0.843667 0.
-1.43021 -1.44927 0.
-0.0845175 -0.759945 0.
-1.54324 -3.96172 0.
-32.0101 -78.8248 0.
-116.51 -138.904 0.
-63.1267 -52.0689 0.
-92.6407 -94.5892 0.
-24.4529 -14.0514 0.
-24.0509 -17.9022 0.
-227.157 -527.623 0.
-58.7021 -56.0731 0.
-16.1338 -6.69365 0.
-383.381 -826.465 0.
-274.863 -538.752 0.
-200.989 -331.895 0.
-563.544 -1157.29 0.
-535.446 -1129.21 0.
-375.99 -654.168 0.
-375.837 -653.472 0.
-374.7 -653.76 0.
-379.231 -675.312 0.
-366.16 -637.148 0.
-353.556 -598.516 0.
-410.561 -724.132 0.
-396.768 -684.984 0.
-383.013 -645.798 0.
-472.323 -739.183 0.
-467.463 -719.523 0.
-722.535 -1017.41 0.
-285.548 -569.378 0.
-295.802 -602.93 0.
-368.814 -664.312 0.
-373.499 -683.739 0.
-378.07 -703.28 0.
-337.985 -584.833 0.
-354.046 -631.638 0.
-370.409 -678.141 0.
-340.866 -607.461 0.
-339.958 -602.797 0.
-337.808 -599.375 0.
-458.639 -1072.96 0.
-511.194 -1154.41 0.
-51.7305 -102.056 0.
-145.362 -374.938 0.
-269.161 -743.924 0.
-30.2357 -50.7902 0.
-28.2892 -68.3549 0.
-199.162 -483.096 0.
-6.56894 -14.3501 0.
-0.439138 -1.21599 0.
-1.31689 -3.64146 0.
-48.672 -21.2611 0.
-62.4269 -27.148 0.
0.088084 0.169686 0.
-0.0479569 -0.240056 0.
-71.7184 -177.272 0.
-36.8171 -101.726 0.
-19.6129 -53.7209 0.
-8.13273 -22.2248 0.
-0.0010038 -0.0462157 0.
-0.000509612 -6.43845 0.
0.0628537 3.57641 0.
-0.0209311 -19.8013 0.
2.63679 7.25098 0.
4.29492 11.6026 0.
2.50435 6.51233 0.
-0.0352236 -43.5891 0.
-171.097 -473.849 0.
21.9594 59.8026 0.
-287.94 -791.107 0.
14.733 39.9451 0.
-929.318 -2542.87 0.
-2.49629 -6.80292 0.
-197.356 -538.351 0.
1.77161 4.42914 0.
-472.047 -1253.59 0.
41.0427 94.6682 0.
4.78871 12.0959 0.
-0.922234 -69.6332 0.
-16.5689 -39.4254 0.
-5.74909 -74.6406 0.
-3.3764 -90.627 0.
-377.676 -962.619 0.
-816.067 -2189.47 0.
7.51455 19.9418 0.
-57.9429 -160.437 0.
18.9556 52.498 0.
-562.69 -1555.36 0.
7.78271 21.4976 0.
-365.75 -1006.08 0.
10.6619 29.2043 0.
-448.857 -1231.23 0.
-73.3024 -202.104 0.
-2263.78 -5918.43 0.
-0.0289569 -15.77 0.
0.093393 7.81319 0.
-2774.57 -6838.05 0.
-68.0707 -188.533 0.
-2041.08 -4392.33 0.
-153.336 -394.924 0.
-128.511 -349.9 0.
-2924.49 -7756.2 0.
-69.6016 -184.419 0.
0.219491 0.00116859 0.
-2314.62 -5913.46 0.
-430.1 -1004.14 0.
-1544.06 -3657.06 0.
-726.08 -1777.18 0.
-51.3292 -57.7577 0.
-1147.02 -2937.35 0.
-647.183 -1696.06 0.
-188.727 -413.375 0.
-798.237 -1988.21 0.
-565.089 -1409.6 0.
-354.843 -808.082 0.
-792.61 -1895.42 0.
-713.695 -1727.88 0.
-554.966 -1237.36 0.
-508.551 -1128.51 0.
-462.79 -1019.01 0.
-485.86 -1027.86 0.
-472.417 -997.429 0.
-460.747 -965.221 0.
-498.33 -1067.85 0.
-477.31 -1009.7 0.
-456.609 -951.24 0.
-620.417 -1093.46 0.
-611.577 -1068.39 0.
-728.358 -1303.31 0.
-370.618 -906.608 0.
-383.562 -938.136 0.
-469.159 -968.862 0.
-489.12 -1027.5 0.
-509.924 -1085.3 0.
-441.718 -961.124 0.
-452.799 -992.269 0.
-465.911 -1021.38 0.
-407.866 -986.991 0.
-474.053 -1143.74 0.
-542.503 -1298.23 0.
-663.91 -1732.45 0.
-783.906 -1991.12 0.
-254.56 -661.501 0.
-552.81 -1497.15 0.
-880.454 -2303.4 0.
-47.4348 -116.236 0.
-645.671 -1736.22 0.
-1291.13 -3308.96 0.
-12.47 -25.044 0.
-738.071 -1766.16 0.
-1877.54 -4389.93 0.
-111.157 -205.591 0.
-2530.63 -6551.7 0.
-0.00850358 -1.16356 0.
-0.786088 -2.07103 0.
-2904.03 -7429.64 0.
0.00455685 0.182603 0.
-6.43171 -13.1092 0.
-2980.45 -5331.99 0.
2.16011 5.74681 0.
-2605.46 -7012.47 0.
1.17976 3.26448 0.
-0.0153613 -16.9952 0.
-2021.8 -5518.09 0.
-0.0324684 -7.13885 0.
8.32786 22.1715 0.
5.42176 14.8846 0.
1.13506 3.14004 0.
-0.44651 -51.116 0.
-85.5475 -234.451 0.
21.4439 57.9991 0.
-10.9066 -29.6129 0.
-0.236263 -0.643109 0.
-672.495 -1831.12 0.
35.3762 87.7147 0.
-12.7716 -30.8794 0.
15.8577 37.3398 0.
-383.029 -1011.74 0.
13.5833 36.8335 0.
-6.07976 -53.8786 0.
30.5613 72.5828 0.
30.0689 76.1192 0.
-3.09758 -7.85398 0.
-1.51806 -73.1641 0.
11.8929 31.4485 0.
-118.715 -328.787 0.
-0.0106541 -71.5105 0.
-495.913 -1366.59 0.
-10.873 -29.921 0.
-1067.12 -2952.97 0.
-0.0273186 -25.6907 0.
-1114.93 -3077.42 0.
-0.0822607 -25.6523 0.
-139.821 -384.803 0.
-0.0457726 -20.5085 0.
0.395786 10.7604 0.
0.740003 1.91643 0.
-40.8371 -110.008 0.
-125.521 -331.843 0.
-81.8627 -222.627 0.
-51.3934 -142.347 0.
-192.986 -449.191 0.
-65.8164 -103.666 0.
3.35 0.735485 0.
-415.619 -943.788 0.
-37.0296 -13.5347 0.
-351.235 -791.234 0.
-1.84268 -1.07831 0.
0.652017 0.359801 0.
-605.567 -1564.4 0.
-142.255 -284.844 0.
-7.14496 -4.28795 0.
-551.235 -1420.98 0.
-345.167 -814.942 0.
-140.393 -226.782 0.
-667.131 -1647.47 0.
-592.431 -1475.67 0.
-481.02 -1110.83 0.
-435.111 -1001.46 0.
-389.784 -891.509 0.
-453.058 -969.114 0.
-440.7 -937.59 0.
-429.898 -904.512 0.
-449.221 -993.61 0.
-428.435 -935.225 0.
-407.972 -876.517 0.
-659.735 -1067.02 0.
-649.689 -1043.16 0.
-638.854 -1262.49 0.
-331.314 -896.129 0.
-344.324 -927.595 0.
-453.872 -905.45 0.
-472.939 -964.987 0.
-492.933 -1023.6 0.
-398.178 -870.453 0.
-407.88 -902.98 0.
-418.97 -934.12 0.
-316.898 -803.039 0.
-378.107 -964.799 0.
-442.158 -1123.72 0.
-498.244 -1339.23 0.
-605.687 -1610.56 0.
-48.4283 -76.5483 0.
-275.673 -701.709 0.
-573.961 -1537.95 0.
-8.98709 -19.1023 0.
-20.9947 -53.0218 0.
-535.796 -1429.99 0.
-10.5583 -23.2245 0.
-22.3235 -59.5015 0.
-261.892 -621.936 0.
-7.95995 -15.5695 0.
-68.415 -109.451 0.
-0.000646994 -0.215108 0.
0.000230929 0.0355214 0.
-83.8993 -211.468 0.
0.00140554 2.39515 0.
0.0185729 0.369171 0.
0.884536 1.91099 0.
2.4393 6.73645 0.
-216.553 -585.616 0.
3.69157 10.1367 0.
-2.51405 -6.96252 0.
1.64297 4.55014 0.
-0.0299587 -29.3467 0.
-1441.73 -3956.38 0.
10.8613 29.4055 0.
-277.113 -763.513 0.
-4.41321 -11.9257 0.
-723.561 -1976.48 0.
-0.799259 -63.5635 0.
-2.30567 -6.22815 0.
-12.2247 -32.7445 0.
-352.156 -957.919 0.
-274.762 -675.394 0.
-89.391 -217.967 0.
8.73829 18.7005 0.
2.36813 5.79231 0.
5.34806 14.0568 0.
38.6524 86.3142 0.
-5.01085 -78.844 0.
11.5884 29.1789 0.
-9.95053 -24.2207 0.
22.6686 59.6015 0.
-79.0888 -208.343 0.
-1478.29 -4094.57 0.
23.9994 66.4245 0.
-270.18 -736.816 0.
-7.62469 -20.7735 0.
-603.043 -1669.73 0.
3.09381 8.4659 0.
-675.442 -1858.03 0.
10.4431 28.6469 0.
-0.012567 -19.731 0.
-0.210686 -16.972 0.
-0.324738 -5.54417 0.
-635.923 -1411.29 0.
-376.104 -845.471 0.
-2060.61 -4877.78 0.
-0.00654345 -1.16421 0.
-0.148476 -0.40569 0.
-2567.1 -7110.06 0.
-71.825 -152.751 0.
-21.5956 -41.719 0.
-2450.63 -6016.74 0.
-80.649 -123.87 0.
-1857.12 -4492.16 0.
-593.5 -1467.82 0.
-0.0274243 -0.025863 0.
-1438.29 -3661.58 0.
-644.472 -1650.79 0.
-52.5768 -24.8301 0.
-946.272 -2430.14 0.
-535.134 -1395.92 0.
-151.053 -334.652 0.
-760.259 -1828.68 0.
-580.959 -1424.3 0.
-456.769 -1073.76 0.
-380.828 -900.504 0.
-308.635 -723.503 0.
-395.118 -832.605 0.
-358.522 -740.256 0.
-323.466 -646.368 0.
-348.88 -713.134 0.
-317.811 -630.181 0.
-250.703 -583.268 0.
-533.022 -752.203 0.
-517.522 -696.259 0.
-535.083 -906.783 0.
-201.177 -555.641 0.
-222.464 -613.222 0.
-287.961 -605.643 0.
-362.028 -677.765 0.
-401.426 -784.554 0.
-305.85 -650.962 0.
-354.742 -778.856 0.
-405.222 -905.161 0.
-272.851 -737.569 0.
-380.32 -990.594 0.
-495.888 -1235.52 0.
-550.765 -1459.11 0.
-797.335 -2032.8 0.
-82.5966 -176.147 0.
-571.476 -1516.22 0.
-1087.77 -2828.88 0.
-18.0421 -40.4572 0.
-555.307 -1446.37 0.
-1634.41 -4101.67 0.
-0.076683 -0.155163 0.
-473.083 -1094.58 0.
-2053.15 -4919 0.
-20.5683 -39.9809 0.
-2534.32 -5851.64 0.
0.000811301 1.18588 0.
-39.4001 -105.673 0.
-2296.32 -6254.36 0.
0.0103218 1.17646 0.
0.12646 0.336507 0.
-1978.92 -5269.49 0.
2.87556 7.93381 0.
2.08766 5.77428 0.
6.43094 17.443 0.
-0.0260585 -15.7074 0.
5.35932 14.7783 0.
-0.580624 -1.60823 0.
4.0771 10.8409 0.
2.10609 5.65669 0.
-922.657 -2498.98 0.
8.40456 21.9088 0.
-13.8827 -37.8152 0.
18.988 50.724 0.
-482.734 -1296.59 0.
23.986 64.0342 0.
-8.69258 -22.7766 0.
-461.637 -1124.55 0.
-996.334 -2501.79 0.
-6.46987 -59.1054 0.
0.66031 1.6892 0.
-0.856969 -52.7051 0.
31.1966 71.0211 0.
21.0877 51.6583 0.
10.4719 24.4017 0.
-4.86032 -79.38 0.
-496.316 -1299.97 0.
12.2932 32.2602 0.
-0.345708 -67.4375 0.
-0.220223 -54.2108 0.
-455.807 -1239.3 0.
9.98065 27.0941 0.
8.44697 23.2515 0.
5.23654 14.1273 0.
-207.305 -563.23 0.
-546.925 -1502.37 0.
-0.0246051 -10.7989 0.
-2475.32 -6853.74 0.
3.07195 8.48389 0.
-831.576 -2157.82 0.
-0.00706877 -9.8254 0.
0.255959 0.302902 0.
0.298917 2.69823 0.
0.40349 0.980915 0.
-256.02 -649.577 0.
-43.4787 -91.8166 0.
-3.63079 -6.60973 0.
-6.53077 -14.6976 0.
0.115227 0.37009 0.
-274.764 -693.649 0.
-0.30014 -0.0453994 0.
0.0560323 0.0581993 0.
-563.647 -1485.17 0.
-17.9737 -8.53363 0.
-31.9718 -27.4254 0.
-540.069 -1445.35 0.
-158.571 -380.452 0.
-26.7454 -20.2019 0.
-505.054 -1269.7 0.
-343.628 -847.199 0.
-329.418 -851.68 0.
-259.279 -672.58 0.
-196.819 -485.8 0.
-321.812 -740.475 0.
-285.255 -648.075 0.
-248.733 -555.641 0.
-335.413 -679.146 0.
-304.79 -595.744 0.
-243.743 -542.765 0.
-461.519 -729.646 0.
-442.271 -677.449 0.
-321.462 -763.303 0.
-205.66 -547.82 0.
-226.175 -606.175 0.
-231.231 -539.435 0.
-294.73 -622.135 0.
-337.253 -725.811 0.
-196.241 -534.514 0.
-246.176 -661.386 0.
-295.386 -788.983 0.
-137.362 -376.666 0.
-232.837 -641.776 0.
-338.056 -897.144 0.
-262.031 -718.399 0.
-488.706 -1312.42 0.
-11.9606 -30.7018 0.
-62.5294 -167.541 0.
-550.886 -1509.9 0.
-10.2879 -26.6348 0.
-16.0209 -44.3603 0.
-384.672 -969.307 0.
-0.0850226 -0.149697 0.
-3.76765 -7.53273 0.
-115.928 -284.277 0.
0.3407 0.741872 0.
-0.171797 -0.482963 0.
-0.0232652 -1.09713 0.
-0.022476 -1.98611 0.
-281.113 -772.963 0.
3.91542 10.8428 0.
-0.0315777 -9.08673 0.
-0.250087 -8.96341 0.
4.76849 13.0916 0.
-1543.28 -4274.59 0.
1.83886 5.04431 0.
-1679.19 -4650.6 0.
12.2334 33.7131 0.
-2.50219 -6.91555 0.
11.8164 31.0786 0.
-13.3917 -35.6488 0.
-333.081 -868.32 0.
24.1917 62.7226 0.
-294.208 -758.885 0.
10.3703 25.4884 0.
-189.324 -505.289 0.
-192.525 -511.803 0.
-25.3257 -60.8976 0.
-2.58113 -5.8142 0.
16.4215 38.3391 0.
-1.98479 -4.55804 0.
-15.2897 -40.7996 0.
3.91128 10.597 0.
-4.05707 -21.8724 0.
-8.50047 -77.0219 0.
-7.08455 -84.4332 0.
-95.239 -229.427 0.
-66.9864 -174.769 0.
-7.05443 -17.2678 0.
-4.7757 -13.002 0.
-0.335505 -54.9515 0.
-215.778 -584.303 0.
-0.507302 -50.0231 0.
7.92864 21.6244 0.
-5.39273 -14.3026 0.
-503.288 -1352.62 0.
-303.555 -840.795 0.
-0.0443391 -20.854 0.
-81.5065 -225.759 0.
-0.0102747 -21.1379 0.
-468.323 -1288.59 0.
6.07001 16.3155 0.
2.58101 3.64495 0.
3.23356 5.48206 0.
1.26231 2.58842 0.
-206.818 -477.338 0.
-23.3124 -46.9603 0.
0.766759 1.28355 0.
0.636208 1.7157 0.
-0.00308775 -0.241459 0.
0.386489 0.0452166 0.
0.22175 0.0205587 0.
-0.000386659 -0.0420223 0.
-3.16249 -3.88 0.
-8.65919 -4.73889 0.
-21.5617 -22.8489 0.
-179.9 -414.535 0.
-37.3394 -23.7198 0.
-33.8086 -15.2923 0.
-277.453 -683.121 0.
-153.14 -338.708 0.
-228 -603.671 0.
-163.254 -419.132 0.
-126.139 -296.023 0.
-260.565 -636.285 0.
-226.042 -541.841 0.
-191.979 -446.935 0.
-325.589 -641.515 0.
-271.656 -581.419 0.
-242.063 -496.983 0.
-415.865 -681.242 0.
-396.484 -629.174 0.
-293.01 -706.164 0.
-215.093 -535.049 0.
-237.926 -591.089 0.
-198.875 -494.781 0.
-225.718 -568.219 0.
-280.529 -659.618 0.
-141.762 -388.599 0.
-181.328 -500.198 0.
-229.188 -629.166 0.
-36.7914 -96.1242 0.
-101.356 -279.614 0.
-198.532 -540.461 0.
-32.4886 -50.8708 0.
-218.398 -553.728 0.
-2.84004 -5.51894 0.
-9.30444 -22.7157 0.
-54.8923 -150.043 0.
-8.2456 -22.8379 0.
-6.44328 -17.4893 0.
-23.5459 -62.3799 0.
-0.0752773 -0.119922 0.
-2.95865 -5.36166 0.
-18.2966 -39.4178 0.
0.626944 1.34548 0.
0.0660321 0.23157 0.
0.0711754 1.59136 0.
8.39144e-06 2.3135 0.
-64.0009 -176.906 0.
-0.00892637 -2.55948 0.
-3.61621e-05 -4.50074 0.
-0.461867 -11.5482 0.
-0.197285 -18.9963 0.
-32.5812 -90.148 0.
-0.213217 -27.5613 0.
-121.24 -334.263 0.
9.93242 27.183 0.
-631.261 -1739 0.
-0.409017 -1.06178 0.
-30.3431 -79.9859 0.
-0.575799 -1.49279 0.
-107.877 -278.13 0.
-448.269 -1106.53 0.
-15.0299 -36.7454 0.
-91.786 -228.035 0.
-642.994 -1700.26 0.
-713.834 -1734.35 0.
23.7843 54.2509 0.
2.97276 6.97025 0.
9.92841 21.5892 0.
-77.4532 -207.931 0.
12.1288 28.8744 0.
-9.55097 -54.7667 0.
26.5735 59.8862 0.
-11.8147 -27.1994 0.
-81.2365 -194.746 0.
31.5507 76.0237 0.
19.1624 46.6315 0.
-679.577 -1837.5 0.
-0.500072 -58.0909 0.
-205.473 -554.184 0.
-72.6938 -186.734 0.
-763.995 -1973.77 0.
-18.3978 -48.8374 0.
-60.0078 -161.179 0.
-345.438 -947.37 0.
3.49348 9.31573 0.
4.12627 11.4247 0.
-0.00105425 -10.6637 0.
-1948.83 -5397.91 0.
-4.26682 -11.8068 0.
7.60119 20.9736 0.
-2563.4 -6484.55 0.
0.414348 1.32952 0.
-1259.6 -3321.14 0.
1.61907 3.17944 0.
-0.135119 -1.71879 0.
-2137.43 -5601.92 0.
-12.4664 -33.9499 0.
-1972.25 -4953.31 0.
-389.524 -1006.31 0.
-28.8645 -79.9495 0.
-1897.03 -5030.11 0.
-339.286 -918.404 0.
0.247885 0.0639205 0.
-1212.64 -3213.17 0.
-526.097 -1403.01 0.
-45.3246 -68.2858 0.
-918.982 -2392.12 0.
-556.447 -1462.44 0.
-634.338 -1654.85 0.
-450.829 -1207.67 0.
-279.969 -747.846 0.
-459.673 -1218.03 0.
-377.198 -999.248 0.
-297.277 -777.915 0.
-418.585 -1029.48 0.
-374.734 -913.148 0.
-321.22 -806.475 0.
-538.886 -1010.96 0.
-517.128 -948.023 0.
-401.848 -1005.52 0.
-342.437 -876.58 0.
-374.101 -961.849 0.
-298.419 -794.802 0.
-355.487 -961.378 0.
-416.702 -1123.81 0.
-264.317 -732.111 0.
-384.5 -1059.49 0.
-510.286 -1381.27 0.
-250.013 -686.552 0.
-473.959 -1275.34 0.
-711.692 -1850.34 0.
-528.929 -1372.68 0.
-986.048 -2543.98 0.
-6.65769 -18.4328 0.
-468.681 -1241.54 0.
-1454.83 -3804.42 0.
0.148786 0.596804 0.
-125.7 -331.692 0.
-2170.25 -5641.88 0.
-57.7837 -156.253 0.
-272.013 -691.913 0.
-1993.68 -4817.06 0.
-35.29 -89.1581 0.
-2080.59 -5452.03 0.
-207.931 -554.145 0.
-137.413 -350.415 0.
-1206.48 -2760.99 0.
1.36351 3.76521 0.
-2119.31 -5798.92 0.
4.98427 13.5882 0.
-285.648 -783.552 0.
-1.89627 -5.21336 0.
7.0699 19.0376 0.
-0.98509 -2.69964 0.
9.03627 24.5012 0.
-660.657 -1808.59 0.
15.5374 40.2845 0.
-153.389 -400.417 0.
-2.01128 -5.14867 0.
-391.722 -1003.7 0.
-3.38226 -8.30331 0.
7.89912 19.2084 0.
-154.809 -383.935 0.
-7.62444 -18.6969 0.
12.7902 29.2157 0.
-4.56781 -10.5807 0.
-272.912 -644.621 0.
-6.47233 -55.7867 0.
-5.63483 -34.1068 0.
7.63151 18.5396 0.
29.0809 59.0956 0.
-247.504 -573.797 0.
-9.7529 -63.8548 0.
-1.18542 -2.59915 0.
18.937 45.3609 0.
-251.93 -609.609 0.
-347.382 -932.752 0.
24.1739 62.6093 0.
-729.486 -1878.78 0.
-160.199 -408.626 0.
-284.863 -724.751 0.
-59.2224 -157.38 0.
-113.216 -304.471 0.
-474.762 -1269.46 0.
-361.42 -909.881 0.
-940.418 -2586 0.
0.399444 1.09866 0.
-3.53294 -9.78511 0.
-0.0125042 -21.7736 0.
5.60289 15.4487 0.
-121.697 -324.042 0.
-4.33702e-05 -0.207823 0.
0.789884 7.07287 0.
7.61697 0.741713 0.
0.00100295 1.25312 0.
-13.0906 -35.7356 0.
-5.41516 -14.5221 0.
-71.2927 -192.468 0.
-33.8259 -92.2992 0.
-26.0058 -69.3798 0.
-278.382 -757.385 0.
-0.0369362 -0.355048 0.
0.390257 0.0121302 0.
-497.517 -1343.26 0.
-6.78134 -4.66103 0.
-15 -18.2662 0.
-576.299 -1523.89 0.
-228.706 -578.464 0.
-429.939 -1137.02 0.
-260.07 -675.97 0.
-111.496 -252.37 0.
-372.764 -985.264 0.
-293.758 -762.965 0.
-214.915 -540.503 0.
-355.012 -920.991 0.
-312.694 -803.109 0.
-279.489 -706.394 0.
-523.738 -940.646 0.
-500.023 -879.66 0.
-380.125 -953.075 0.
-325.376 -810.202 0.
-358.913 -893.603 0.
-256.688 -686.816 0.
-303.945 -823.373 0.
-364.864 -986.12 0.
-146.151 -404.705 0.
-259.842 -719.069 0.
-380.29 -1046.29 0.
-34.4148 -92.1976 0.
-208.785 -563.922 0.
-431.822 -1154.03 0.
-92.8976 -188.515 0.
-532.749 -1378.45 0.
-0.0142858 -0.0364408 0.
-0.0567764 -0.634877 0.
-432.279 -1139.69 0.
0.175454 0.247579 0.
-7.39269 -17.828 0.
-89.9671 -249.044 0.
-37.2246 -102.054 0.
-28.8794 -76.868 0.
-84.8896 -208.498 0.
0.612075 1.69363 0.
-64.3272 -173.049 0.
-47.2922 -124.646 0.
-29.3236 -74.7416 0.
-14.0142 -34.3263 0.
1.08456 2.99821 0.
-174.166 -481.43 0.
7.34613 19.6868 0.
-27.0213 -73.2566 0.
-1123.54 -3065.68 0.
11.2187 29.9936 0.
-1334.97 -3619.18 0.
3.27262 8.77503 0.
-466.255 -1265.42 0.
4.27072 11.058 0.
-414.63 -1080.11 0.
0.856304 2.18157 0.
21.815 55.7159 0.
6.30356 15.4433 0.
-47.5356 -114.964 0.
-495.413 -1226.4 0.
8.21384 20.1122 0.
10.2394 23.5911 0.
-5.85449 -53.7958 0.
-472.577 -1127.56 0.
-5.83066 -12.8205 0.
-8.48841 -51.9225 0.
-1.18132 -15.1626 0.
-7.09864 -34.9825 0.
2.56903 5.4506 0.
-6.58812 -13.7031 0.
-311.87 -693.502 0.
-287.316 -684.241 0.
-48.9492 -117.685 0.
-17.3692 -44.4405 0.
-14.3527 -36.7843 0.
-277.104 -711.125 0.
-203.693 -515.7 0.
-11.8551 -29.9566 0.
-96.9141 -257.855 0.
-2.00421 -5.17793 0.
-657.626 -1679.92 0.
-124.807 -313.474 0.
-487.054 -1330.51 0.
10.3207 28.1652 0.
0.0839729 0.232549 0.
8.97973 24.8269 0.
4.05311 11.1673 0.
-12.6505 -34.5824 0.
-0.725493 -8.19022 0.
-1612.36 -3788.43 0.
-349.287 -822.043 0.
-81.975 -195.668 0.
-1991.77 -5499.13 0.
-0.0107449 -0.769488 0.
-1724.28 -4144.39 0.
-198.815 -475.731 0.
-106.638 -258.655 0.
-1984.29 -5423.81 0.
-5.86488 -16.1376 0.
-6.20155 -16.2513 0.
-1451.87 -3772.26 0.
-366.417 -957.632 0.
-23.4092 -48.18 0.
-1026.01 -2665.89 0.
-483.795 -1259.94 0.
-703.325 -1801.57 0.
-432.499 -1128.33 0.
-174.272 -442.485 0.
-511.295 -1311.22 0.
-353.782 -917.049 0.
-202.415 -516.726 0.
-352.105 -913.195 0.
-277.032 -713.691 0.
-203.201 -512.944 0.
-464.501 -786.018 0.
-440.507 -713.437 0.
-242.539 -565.622 0.
-264.236 -639.739 0.
-293.846 -727.009 0.
-161.991 -433.346 0.
-283.663 -779.111 0.
-411.395 -1118.82 0.
-176.504 -482.364 0.
-383.127 -1032.9 0.
-600.091 -1573.1 0.
-130.985 -342.611 0.
-449.527 -1169.84 0.
-784.009 -1981.12 0.
-444.708 -1150.61 0.
-1193.1 -3080.44 0.
-9.91721 -21.8138 0.
-195.398 -493.765 0.
-1634.55 -4214.52 0.
-2.95617 -7.93411 0.
-0.145663 -0.386491 0.
-2017.17 -5482.83 0.
0.53087 1.45289 0.
-71.083 -180.628 0.
-1755.2 -3995.87 0.
1.55995 4.10325 0.
-1626.65 -4499.45 0.
-188.121 -509.437 0.
-89.0266 -224.734 0.
-2.32246 -5.72468 0.
1.10103 3.00376 0.
2.07878 5.75397 0.
-1.3518 -3.54602 0.
-36.6086 -97.656 0.
-1.72788 -4.51603 0.
13.7334 36.4842 0.
-364.101 -980.508 0.
8.56506 22.5846 0.
-95.4816 -253.853 0.
-10.1853 -26.336 0.
-623.009 -1620.13 0.
-125.498 -318.065 0.
14.429 36.6764 0.
9.12391 22.2127 0.
1.41061 3.35255 0.
-246.234 -609.106 0.
-89.9392 -219.847 0.
-207.707 -482.909 0.
-11.5199 -25.7331 0.
-215.244 -497.855 0.
2.86477 6.10094 0.
-4.27552 -22.7446 0.
2.02062 4.74139 0.
-9.09631 -47.3776 0.
-5.51471 -45.8284 0.
20.5658 43.3554 0.
-197.435 -444.925 0.
14.5521 32.286 0.
0.53807 1.2187 0.
12.1348 28.0386 0.
-278.982 -706.445 0.
24.4595 62.095 0.
-15.499 -38.9383 0.
-4.48889 -11.2643 0.
-109.106 -283.243 0.
17.1742 43.9417 0.
-817.377 -2082.59 0.
5.18489 12.9782 0.
-161.428 -437.863 0.
2.64456 7.14159 0.
-1666.69 -4517.25 0.
7.40638 20.2438 0.
-0.087704 -13.7551 0.
-2364.68 -6504.72 0.
-90.1569 -241.477 0.
-341.196 -844.631 0.
-128.771 -327.808 0.
-0.131946 -6.2689 0.
-20.3205 -54.7583 0.
0.00166306 2.33268 0.
-11.2588 -11.7359 0.
-0.00148257 -0.00257268 0.
-0.128203 -0.295572 0.
-298.919 -817.938 0.
-0.321897 -0.887043 0.
-0.137904 -0.366521 0.
-362.669 -913.848 0.
0.118559 0.302904 0.
0.0190237 0.339466 0.
-519.154 -1385.83 0.
-31.3679 -70.0197 0.
-403.328 -1077.12 0.
-146.477 -389.393 0.
-14.148 -21.4368 0.
-361.174 -929.064 0.
-210.11 -528.285 0.
-94.8065 -202.85 0.
-278.19 -713.227 0.
-203.928 -512.873 0.
-139.781 -339.134 0.
-386.617 -623.378 0.
-378.403 -596.262 0.
-214.151 -498.734 0.
-224.587 -539.915 0.
-231.182 -563.206 0.
-97.5503 -270.028 0.
-179.468 -493.023 0.
-303.599 -836.426 0.
-26.3955 -73.1002 0.
-173.492 -472.661 0.
-379.599 -1024.02 0.
-5.49457 -4.87778 0.
-74.3326 -169.903 0.
-396.507 -994.315 0.
-14.2634 -39.4356 0.
-507.942 -1339.69 0.
-6.26143 -14.5469 0.
-6.4657 -15.5288 0.
-186.456 -472.223 0.
-3.79409 -10.4956 0.
-0.0239839 -0.0663521 0.
-183.873 -509.149 0.
0.00760686 1.13029 0.
0.00312438 1.0155 0.
2.69257 6.36481 0.
0.0295304 0.66688 0.
-220.429 -588.421 0.
-0.00265379 -3.37352 0.
-95.382 -250.815 0.
-1468.83 -3717.14 0.
4.50531 12.3286 0.
-1292.77 -3556.86 0.
-60.8044 -161.728 0.
-532.695 -1439.47 0.
12.1595 31.5404 0.
-0.418822 -1.10523 0.
-25.5723 -68.4606 0.
16.3703 42.8815 0.
-756.391 -2001.51 0.
-2.32284 -51.0797 0.
20.6367 51.5134 0.
14.9788 37.778 0.
-544.557 -1376.57 0.
-206.231 -498.674 0.
19.8779 46.9006 0.
9.13963 22.0187 0.
13.2363 31.0127 0.
-463.429 -1088.01 0.
24.7029 55.7893 0.
-135.44 -320.233 0.
-11.7777 -25.6087 0.
12.3442 24.4214 0.
-1.22734 -16.1803 0.
6.84829 13.5136 0.
-404.613 -905.21 0.
-9.15983 -50.3477 0.
-8.39842 -60.5 0.
31.0315 69.0162 0.
-330.239 -749.256 0.
-405.831 -939.175 0.
-173.717 -434.762 0.
-6.22552 -15.4659 0.
0.326497 0.814648 0.
12.2463 30.6827 0.
-740.217 -1913.3 0.
2.26503 5.73956 0.
-84.1719 -213.427 0.
13.3199 33.0049 0.
-627.873 -1661.3 0.
11.1474 29.1503 0.
-2.90799 -7.42869 0.
7.60756 20.4167 0.
2.75538 7.34753 0.
-229.535 -626.956 0.
-9.68025 -25.8542 0.
-210.543 -551.166 0.
-17.8695 -48.0481 0.
0.003181 3.19805 0.
0.0034643 2.45544 0.
0.0258249 2.67693 0.
4.99998 1.49747 0.
0.107315 0.193721 0.
0.320561 0.60952 0.
0.296537 0.820928 0.
-0.00264368 -0.816282 0.
0.223638 0.595018 0.
-0.183583 -0.505082 0.
-0.00520377 -0.340264 0.
-0.0398113 -0.154398 0.
-32.3145 -85.7614 0.
-9.65531 -13.7921 0.
-122.214 -333.775 0.
-16.3668 -39.6455 0.
-9.88202 -16.9262 0.
-225.805 -532.151 0.
-102.917 -183.508 0.
-55.556 -52.1672 0.
-222.174 -540.983 0.
-168.143 -391.366 0.
-116.361 -243.803 0.
-357.338 -586.739 0.
-354.365 -576.631 0.
-229.433 -463.005 0.
-237.151 -552.102 0.
-229.237 -533.022 0.
-52.9561 -145.573 0.
-110.862 -306.57 0.
-216.267 -598.878 0.
-26.0409 -68.459 0.
-19.0082 -47.7887 0.
-170.919 -463.127 0.
-21.2501 -11.3229 0.
-11.2551 -5.85396 0.
-23.7571 -20.517 0.
-13.2617 -36.3891 0.
-9.912 -27.4534 0.
-5.7771 -14.5854 0.
-6.58137 -16.9712 0.
-8.25272 -21.6097 0.
-4.21751 -11.4965 0.
-0.283008 -0.766884 0.
-0.00536233 -0.4509 0.
-0.014951 -1.59732 0.
-0.000291079 -0.990025 0.
0.227763 2.15896 0.
2.91961 6.95414 0.
-241.814 -618.375 0.
-0.00121315 -10.0952 0.
4.16617 11.3006 0.
-12.9852 -33.3855 0.
6.75462 18.0714 0.
-13.1643 -36.0202 0.
-14.9777 -39.6914 0.
-496.486 -1337.32 0.
-0.529067 -24.0977 0.
-173.334 -456.692 0.
-711.017 -1874.37 0.
3.71022 9.6528 0.
-531.592 -1397.12 0.
3.85438 9.55367 0.
-228.335 -565.244 0.
-0.581663 -1.37679 0.
-4.18176 -51.968 0.
-369.709 -887.654 0.
-237.641 -556.111 0.
-61.8589 -148.503 0.
-6.37409 -14.875 0.
-4.94153 -47.3249 0.
30.3825 63.8432 0.
27.0248 59.2421 0.
-171.862 -383.16 0.
7.75577 15.6672 0.
6.49788 15.5548 0.
14.6402 28.67 0.
-5.21081 -10.9456 0.
-6.37002 -36.3818 0.
8.4238 17.9114 0.
-13.0885 -29.1911 0.
-64.6155 -147.082 0.
18.2271 41.2201 0.
11.5021 27.9559 0.
0.305655 0.747242 0.
-511.857 -1274.9 0.
-364.33 -910.891 0.
-109.015 -277.859 0.
8.13181 20.0161 0.
-291.191 -727.407 0.
14.2262 35.0375 0.
-834.548 -2170.35 0.
-2.94951 -7.57005 0.
-1.12453 -24.5337 0.
-0.58145 -23.7349 0.
-0.558881 -18.4937 0.
-56.328 -153.454 0.
-19.1909 -51.5927 0.
-1613.24 -4377.76 0.
-41.0299 -112.879 0.
-0.0127883 -10.9682 0.
-2014.85 -5567.36 0.
-33.4216 -90.9931 0.
1.10391 3.03386 0.
-2325.73 -5662.28 0.
-0.0490319 -0.0976331 0.
-1583.54 -4265.18 0.
-0.0704149 -1.15873 0.
-0.0210728 -0.894756 0.
-1761.41 -4672.3 0.
-0.0192936 -0.400051 0.
-0.00612291 -0.343362 0.
-1296.79 -3428.7 0.
-276.143 -750.376 0.
-858.755 -2232.3 0.
-446.949 -1192.22 0.
-86.1223 -234.41 0.
-698.567 -1831.02 0.
-423.346 -1104.38 0.
-158.391 -371.31 0.
-494.952 -1307.26 0.
-362.24 -939.223 0.
-230.728 -569.988 0.
-492.166 -1030.38 0.
-458.371 -930.857 0.
-229.22 -577.202 0.
-348.233 -898.594 0.
-423.453 -1109.54 0.
-178.114 -470.624 0.
-376.173 -1027.75 0.
-575.108 -1584 0.
-66.5418 -176.092 0.
-424.849 -1159.11 0.
-804.647 -2156.95 0.
-81.0975 -182.5 0.
-476.337 -1153.66 0.
-1005.63 -2443.89 0.
-125.677 -308.929 0.
-1430.89 -3753.34 0.
1.10284 0.0632392 0.
0.0556624 0.371853 0.
-1769.52 -4639.59 0.
0.243635 0.668107 0.
-24.9023 -67.363 0.
-1463.61 -3811.74 0.
-0.25673 -0.699004 0.
-2201.75 -5437.6 0.
1.07016 2.93398 0.
-10.1479 -28.1053 0.
-1426.09 -3927.92 0.
0.68059 1.88094 0.
-1116.98 -3087.52 0.
-161.647 -412.274 0.
-0.439417 -16.2758 0.
-0.288019 -23.0607 0.
-3.45498 -9.12214 0.
-468.622 -1258.29 0.
7.30417 18.9417 0.
-187.093 -486.535 0.
12.2677 30.9833 0.
-1.6877 -38.1967 0.
-5.08038 -12.6506 0.
-325.938 -800.969 0.
-635.246 -1558.83 0.
-139.017 -326.69 0.
17.3445 40.1253 0.
0.463456 1.01637 0.
26.7779 57.4437 0.
-346.489 -828.576 0.
-78.7672 -183.081 0.
-218.284 -491.935 0.
-6.20385 -46.7899 0.
7.37047 14.689 0.
-8.39999 -16.8441 0.
0.557995 1.02911 0.
-8.58214 -20.6925 0.
-5.02 -29.8122 0.
10.3777 22.3304 0.
-6.97377 -14.0054 0.
-262.541 -566.336 0.
14.9567 30.927 0.
12.4641 27.0324 0.
24.7541 56.2197 0.
-263.418 -629.237 0.
-493.26 -1184.98 0.
-512.768 -1274.72 0.
14.5979 34.7135 0.
10.7096 26.2061 0.
-2.84605 -7.00357 0.
-794.277 -1977.73 0.
-6.38887 -15.6403 0.
-422.665 -1085.62 0.
-3.24863 -8.1754 0.
-18.366 -47.4063 0.
-777.794 -2092.29 0.
-19.7073 -51.5503 0.
-1072.16 -2905.51 0.
-5.49969 -14.6504 0.
2.5458 6.62328 0.
-20.2531 -56.0809 0.
-0.180967 -0.501056 0.
-239.602 -662.897 0.
-22.472 -62.2083 0.
-0.0236529 -4.40404 0.
1.14751 2.51168 0.
0.236042 0.560937 0.
-0.119407 -1.65169 0.
0.493175 1.25031 0.
0.67444 1.81037 0.
-56.2235 -151.111 0.
0.366483 0.992292 0.
-2.14076e-06 -0.530558 0.
-441.265 -1207.01 0.
-3.01526e-05 -0.487127 0.
-388.626 -1035.92 0.
-15.098 -40.45 0.
-7.11306 -18.5139 0.
-409.391 -1091.32 0.
-142.453 -355.862 0.
-22.4422 -28.8056 0.
-369.721 -949.423 0.
-244.616 -599.685 0.
-158.76 -351.356 0.
-410.805 -835.447 0.
-376.119 -731.636 0.
-145.404 -347.213 0.
-261.662 -665.99 0.
-333.389 -864.104 0.
-86.452 -186.292 0.
-209.077 -529.418 0.
-406.001 -1087.94 0.
0.0247733 0.019455 0.
-42.9395 -116.928 0.
-410.395 -1120.75 0.
-10.2519 -23.3608 0.
-12.5458 -30.8083 0.
-335.277 -790.786 0.
-8.44941 -10.2779 0.
-329.563 -857.558 0.
0.985259 1.23484 0.
0.208666 0.650603 0.
-1.13059 -2.48116 0.
-0.0451854 -1.7941 0.
-0.243952 -0.674746 0.
-16.5659 -45.2622 0.
0.376289 1.03861 0.
-0.0680924 -6.061 0.
-0.0283014 -5.8439 0.
-0.49619 -1.37354 0.
0.169648 0.468393 0.
-0.0854639 -17.6425 0.
-359.746 -991.552 0.
-30.1707 -77.3878 0.
-12.5642 -32.5149 0.
-942.94 -2459.69 0.
-5.05103 -12.8396 0.
-424.542 -1102.87 0.
4.96616 12.6703 0.
-484.752 -1242.03 0.
-0.944932 -2.35707 0.
15.3003 37.899 0.
-497.873 -1224.12 0.
-3.95604 -46.7363 0.
18.127 41.9839 0.
-223.277 -520.794 0.
-317.869 -729.6 0.
-354.838 -781.786 0.
6.06682 13.0789 0.
0.13294 0.29551 0.
19.352 42.1937 0.
-364.866 -833.534 0.
3.73778 8.03054 0.
-7.95607 -48.2095 0.
2.75416 5.71401 0.
-3.65125 -18.067 0.
-162.735 -396.132 0.
-6.10656 -12.557 0.
-92.3756 -204.068 0.
19.5787 36.6217 0.
-8.25089 -16.477 0.
-2.47498 -5.13232 0.
-36.9042 -80.3694 0.
-494.47 -1130.91 0.
-547.471 -1283.48 0.
-8.04832 -17.8396 0.
-8.18343 -19.1371 0.
-10.2882 -24.2153 0.
-804.938 -1974.57 0.
-0.851274 -2.09418 0.
-19.0089 -46.9361 0.
3.10478 7.55375 0.
-234.801 -583.173 0.
-256.98 -662.007 0.
-16.0184 -40.6656 0.
-578.728 -1540.94 0.
4.81784 12.5365 0.
-12.8065 -34.444 0.
0.702938 1.85471 0.
8.90157 22.8973 0.
-3.36812 -9.31039 0.
4.94847 13.6038 0.
-123.309 -338.051 0.
-455.665 -1213.59 0.
-1.69977 -4.40555 0.
-1536.47 -4230.28 0.
-0.679633 -1.84527 0.
-1660.93 -4170.36 0.
-0.184088 -0.484955 0.
-0.559518 -1.50403 0.
-1609.77 -4338.55 0.
-0.405855 -1.10562 0.
0.150996 0.417368 0.
-1347.69 -3657.46 0.
-0.0172111 -0.0465933 0.
-963.135 -2407.87 0.
-421.785 -1088.68 0.
-45.8184 -125.365 0.
-788.756 -2109.99 0.
-372.542 -1023.33 0.
-46.0965 -125.992 0.
-549.66 -1431.94 0.
-343.328 -890.589 0.
-144.467 -341.761 0.
-452.266 -1036.99 0.
-401.709 -886.963 0.
-158.097 -394.506 0.
-316.806 -834.052 0.
-442.561 -1172.33 0.
-70.0944 -164.039 0.
-361.167 -969.228 0.
-659.742 -1772.17 0.
-16.5215 -45.5799 0.
-379.037 -1033.87 0.
-943.211 -2519.4 0.
-15.0245 -27.5875 0.
-378.838 -865.503 0.
-1041.29 -2429.79 0.
-2.60225 -5.88428 0.
-1362.67 -3683.27 0.
-0.143848 -1.47825 0.
-0.312179 -0.848192 0.
-1565.36 -4205.53 0.
-12.8175 -34.425 0.
-46.4185 -122.386 0.
-1499.24 -3812.77 0.
-0.00486773 -3.48027 0.
-1339.52 -3663.27 0.
-322.406 -891.454 0.
-0.00459239 -8.50094 0.
0.67606 1.8697 0.
1.82194 4.75068 0.
-174.035 -466.186 0.
10.2213 26.346 0.
8.44422 21.9515 0.
-266.588 -698.388 0.
-1.91824 -4.82524 0.
-464.767 -1195.46 0.
5.15734 12.6637 0.
-202.358 -499.445 0.
-70.3273 -173.001 0.
-157.861 -385.625 0.
-590.781 -1432.96 0.
-140.043 -321.949 0.
-14.841 -34.1816 0.
-12.3708 -27.3897 0.
-6.49074 -14.0909 0.
-262.573 -581.713 0.
3.76004 8.14935 0.
-17.0273 -37.6328 0.
-12.6926 -27.5074 0.
1.87733 4.12852 0.
-5.89978 -38.5794 0.
20.215 41.2016 0.
-112.915 -243.333 0.
13.4763 26.6502 0.
-3.64069 -9.10354 0.
-5.21698 -10.4412 0.
1.64953 3.39849 0.
1.37296 2.60586 0.
-301.742 -612.254 0.
-6.17748 -12.8496 0.
-17.571 -38.4367 0.
16.2346 34.8862 0.
-73.6852 -160.074 0.
-116.217 -255.776 0.
-279.47 -645.921 0.
-406.36 -943.809 0.
-247.529 -605.426 0.
-26.5714 -65.3511 0.
15.3931 36.3183 0.
-2.84558 -6.87816 0.
-74.5701 -184.544 0.
-531.273 -1346.87 0.
-39.4463 -98.3947 0.
-450.107 -1188.22 0.
9.12115 23.6167 0.
-46.5932 -124.329 0.
-5.55792 -14.4544 0.
7.61909 19.4629 0.
-1970.91 -5459.06 0.
-0.120006 -15.9304 0.
-826.333 -2267.97 0.
1.60856 4.33562 0.
-0.243537 -7.84126 0.
-15.3015 -42.2056 0.
-3.5464e-05 -3.96788 0.
0.217174 0.569752 0.
0.0219998 0.0588259 0.
0.532957 1.44848 0.
-0.355518 -0.972063 0.
0.0702459 0.194187 0.
0.482347 1.33373 0.
-323.21 -895.094 0.
0.107347 0.297296 0.
-303.527 -786.945 0.
-2.36228 -5.09698 0.
-2.27592 -5.2381 0.
-367.963 -1011.44 0.
-17.8754 -49.4911 0.
0.207874 0.0252645 0.
-319.899 -850.226 0.
-134.617 -337.384 0.
-26.7115 -29.0272 0.
-271.904 -604.297 0.
-229.911 -490.56 0.
-25.1536 -29.2494 0.
-161.324 -400.58 0.
-256.136 -666.698 0.
-9.68623 -25.2318 0.
-84.0678 -232.805 0.
-343.664 -949.612 0.
-18.3241 -50.7495 0.
-14.2891 -39.5777 0.
-380.839 -1031.66 0.
-31.6067 -37.0287 0.
-39.0745 -38.3305 0.
-192.083 -374.838 0.
-2.82798 -7.70899 0.
-136.911 -373.161 0.
-0.0828284 -1.34088 0.
0.736464 2.00068 0.
-0.0120898 -2.85197 0.
0.553929 1.49525 0.
0.813326 2.17793 0.
-22.1695 -58.68 0.
2.01371 5.48878 0.
-9.6201 -26.6443 0.
-32.1636 -89.0123 0.
-38.6236 -106.959 0.
-1204.41 -3333.37 0.
1.54133 3.96956 0.
-1193.26 -3157.32 0.
6.92536 18.3268 0.
-5.42703 -14.1652 0.
-0.573842 -25.9815 0.
12.1008 30.1214 0.
-239.729 -610.454 0.
3.91492 9.56738 0.
-319.38 -784.88 0.
15.2126 36.3042 0.
-13.2066 -31.6809 0.
-56.2726 -128.345 0.
-240.008 -548.405 0.
-241.159 -552.209 0.
-462.758 -1025.29 0.
-6.33627 -13.7507 0.
-8.21911 -17.1939 0.
-8.86801 -17.948 0.
-357.198 -783.391 0.
-96.0183 -206.678 0.
-68.8618 -153.818 0.
-6.12399 -12.7436 0.
24.5437 47.3951 0.
-1.4078 -2.90934 0.
3.66079 7.15912 0.
0.158064 0.407737 0.
7.1388 14.4352 0.
-93.946 -195.493 0.
-7.40616 -14.2918 0.
-132.325 -273.499 0.
-7.6801 -40.6838 0.
8.83197 18.134 0.
15.7663 34.1472 0.
-145.167 -313.086 0.
-583.909 -1274.38 0.
-248.252 -567.463 0.
5.39227 11.7106 0.
1.8632 4.30461 0.
-5.44254 -12.6142 0.
-458.743 -1083.11 0.
-10.8784 -26.2119 0.
-111.492 -275.329 0.
-804.037 -2005.65 0.
11.0244 26.0577 0.
-205.211 -525.234 0.
11.4914 29.0123 0.
-822.221 -2141.71 0.
-9.03218 -23.285 0.
-0.82942 -2.09869 0.
-1.72323 -4.64632 0.
-0.714008 -1.89439 0.
0.764326 2.09905 0.
2.13689 5.72302 0.
-0.195707 -5.90713 0.
0.540297 1.49495 0.
-0.0143963 -2.78477 0.
0.219827 0.584989 0.
-0.021648 -2.11389 0.
-0.0101382 -2.13898 0.
-0.00177133 -2.09736 0.
0.429493 1.1888 0.
0.436127 1.19338 0.
0.120922 0.334906 0.
0.32112 0.875391 0.
-7.36649 -16.4918 0.
-1.16919 -2.62363 0.
-1.18464 -2.81322 0.
-0.767523 -2.11215 0.
0.000101625 0.0475912 0.
0.00921491 0.0511984 0.
-139.405 -360.102 0.
-24.7262 -45.8262 0.
-20.0359 -25.1608 0.
-184.35 -388.638 0.
-154.032 -308.956 0.
-40.5937 -49.3775 0.
-85.217 -153.096 0.
-144.312 -318.852 0.
-2.517 -6.20604 0.
-7.78215 -19.905 0.
-113.307 -313.803 0.
-27.4973 -54.7705 0.
-17.0181 -44.4343 0.
-52.2856 -82.4701 0.
-52.404 -46.1967 0.
-69.9847 -64.0549 0.
-81.6423 -95.7464 0.
-26.208 -60.1806 0.
-29.3048 -66.9805 0.
-0.21732 -4.74085 0.
-0.0262699 -3.22032 0.
-0.00427823 -4.37861 0.
0.75495 2.03651 0.
0.840487 2.24936 0.
-8.3449 -22.1503 0.
-0.193137 -6.6315 0.
-0.0680305 -9.17672 0.
-0.462411 -1.27927 0.
-8.11846 -22.4852 0.
-13.722 -37.9121 0.
-3.38285 -8.38407 0.
-118.221 -305.384 0.
1.85264 4.90139 0.
-2.22364 -5.867 0.
-908.519 -2397.93 0.
-1.84475 -29.4244 0.
-295.01 -717.079 0.
-4.19791 -10.2097 0.
-811.337 -1985.25 0.
-263.905 -624.529 0.
-55.9009 -133.032 0.
-3.13801 -7.12842 0.
6.50071 14.4606 0.
9.47384 20.6464 0.
-572.99 -1269.74 0.
-12.8414 -27.8644 0.
-280.814 -586.256 0.
21.6364 43.6432 0.
-1.75736 -3.51149 0.
17.7368 34.4584 0.
-115.699 -242.464 0.
-215.223 -455.133 0.
-6.74821 -36.5143 0.
1.92834 4.12956 0.
-1.93225 -3.92307 0.
-4.09836 -23.4718 0.
3.58992 7.33907 0.
13.256 26.5467 0.
4.32715 8.04501 0.
14.4937 28.093 0.
-7.08728 -38.3795 0.
-276.57 -574.212 0.
-161.554 -353.862 0.
-493.3 -1055.32 0.
4.52796 9.0706 0.
9.00425 19.1626 0.
12.9378 28.1387 0.
-381.183 -873.024 0.
-480.869 -1105.63 0.
-345.318 -811.282 0.
-186.804 -449.414 0.
5.35632 12.5006 0.
-181.085 -424.83 0.
11.1219 25.9592 0.
-570.981 -1445.71 0.
1.52857 3.82805 0.
-551.023 -1422.5 0.
-46.0199 -117.569 0.
7.83403 19.6362 0.
2.41981 6.36936 0.
-0.569414 -17.352 0.
-1039.27 -2877.27 0.
3.03539 8.38944 0.
-0.787778 -2.15906 0.
-1454.43 -4021.87 0.
1.92974 5.32798 0.
-1421.46 -3424.61 0.
-0.702002 -1.88233 0.
1.32215 3.62103 0.
-1533.64 -4132.64 0.
0.498309 1.36681 0.
1.08754 2.86237 0.
-1540 -4240.53 0.
0.276329 0.761685 0.
-1015.35 -2383.53 0.
-350.839 -846.58 0.
-37.8891 -96.4009 0.
-1000.44 -2677.31 0.
-301.324 -825.838 0.
0.160005 0.413902 0.
-687.734 -1888.16 0.
-346.378 -956.681 0.
-39.1959 -99.2114 0.
-503.496 -1316.25 0.
-444.557 -1157.7 0.
-107.262 -267.258 0.
-365.749 -985.116 0.
-577.94 -1576.9 0.
-6.405 -12.5145 0.
-327.652 -902.396 0.
-810.238 -2197.46 0.
-29.4659 -59.1172 0.
-234.406 -642.233 0.
-1121.18 -2999.93 0.
-50.5511 -50.3497 0.
-316.616 -724.334 0.
-1022.18 -2465.78 0.
-3.61356 -9.34866 0.
-1368.61 -3446.21 0.
1.51579 4.15615 0.
-0.599191 -1.64633 0.
-1479.29 -4094.9 0.
-35.1543 -93.1963 0.
-73.6723 -178.922 0.
-1233.13 -2750.12 0.
2.18817 5.9498 0.
-1337.27 -3671.26 0.
4.24255 11.7367 0.
-164.503 -454.955 0.
3.71824 10.2801 0.
5.15248 12.2912 0.
-186.784 -467.676 0.
-2.45519 -6.49369 0.
-38.1452 -100.614 0.
-135.799 -319.944 0.
4.01499 9.54435 0.
-465.552 -1115.49 0.
7.0923 16.386 0.
8.56557 19.7958 0.
-106.688 -250.408 0.
-626.866 -1478.38 0.
-295.822 -666.052 0.
-316.266 -696.482 0.
21.8176 47.1129 0.
-7.44264 -15.527 0.
17.6028 35.6972 0.
-198.069 -412.508 0.
-13.5715 -27.2946 0.
-282.838 -566.275 0.
-7.02802 -37.3639 0.
23.4053 44.246 0.
-7.71898 -15.0222 0.
-5.13523 -22.7159 0.
-7.4405 -16.5481 0.
7.62937 16.1304 0.
7.66634 14.3874 0.
7.72913 15.0698 0.
-44.7883 -90.6732 0.
2.316 4.31146 0.
-442.58 -861.762 0.
17.3757 34.2281 0.
-183.447 -384.137 0.
-11.084 -22.5455 0.
17.8383 35.0053 0.
-11.9274 -23.7877 0.
9.36171 19.9526 0.
-655.841 -1425.06 0.
-233.195 -528.68 0.
-84.0393 -190.993 0.
10.1631 23.2966 0.
-11.4942 -26.5606 0.
-16.8866 -39.3274 0.
-717.63 -1657.45 0.
-8.30933 -19.1391 0.
-227.578 -575.096 0.
-5.42844 -13.4877 0.
-573.235 -1497.23 0.
-107.495 -280.348 0.
-0.651403 -23.1109 0.
-927.038 -2509.91 0.
5.12063 13.5601 0.
-59.7398 -165.459 0.
0.604142 1.66708 0.
-1.05444 -2.88221 0.
-4.20774 -11.6356 0.
2.90432 7.84275 0.
-0.0606204 -4.29692 0.
1.58359 4.32369 0.
1.46047 4.03671 0.
1.07541 2.97086 0.
1.0152 2.74763 0.
-0.111086 -3.65372 0.
-17.0751 -45.6557 0.
0.196292 0.531006 0.
-64.8906 -145.263 0.
0.152811 0.353554 0.
0.069603 0.174522 0.
-244.48 -670.157 0.
-0.00604739 -0.467917 0.
0.000699019 0.0148986 0.
-284.382 -787.681 0.
-12.5343 -33.2293 0.
-2.20673 -4.74483 0.
-245.23 -632.049 0.
-187.032 -472.65 0.
-43.4436 -81.3021 0.
-80.4022 -182.898 0.
-246.597 -647.919 0.
-2.86695 -5.00978 0.
-8.39353 -13.9093 0.
-243.057 -660.484 0.
-14.1808 -36.1114 0.
-7.83252 -21.2975 0.
-167.639 -464.32 0.
-212.994 -213.733 0.
-154.435 -147.89 0.
-74.0824 -128.571 0.
-0.00169182 -2.45354 0.
-0.627015 -1.63313 0.
-0.0011832 -3.06405 0.
1.0473 2.89883 0.
-18.868 -52.2421 0.
-0.046766 -4.25366 0.
0.269034 0.681504 0.
-0.072253 -4.23912 0.
1.52411 4.05969 0.
-89.6474 -239.202 0.
0.426438 1.16952 0.
-60.181 -166.592 0.
-976.035 -2702.44 0.
4.02727 9.65747 0.
-773.247 -1889.17 0.
7.6702 20.0403 0.
-252.862 -667.359 0.
4.30328 9.97472 0.
-7.6614 -17.9289 0.
-280.731 -662.938 0.
7.71469 17.7056 0.
-363.536 -835.364 0.
-6.89176 -15.2514 0.
13.8588 30.606 0.
-261.479 -583.466 0.
-348.382 -759.916 0.
16.9245 36.1893 0.
-449.321 -934.805 0.
16.635 33.6408 0.
-4.06739 -7.88832 0.
-2.98621 -5.70304 0.
-294.259 -590.736 0.
5.74422 11.187 0.
-8.85778 -16.761 0.
-44.6696 -87.4084 0.
18.1318 33.4989 0.
0.909953 1.92648 0.
2.01906 4.13378 0.
-2.28295 -4.3263 0.
-5.92933 -11.6851 0.
-112.372 -230.187 0.
-7.46532 -34.3206 0.
-36.556 -71.2791 0.
24.0931 44.8509 0.
-8.05185 -15.6575 0.
7.90264 15.1873 0.
-5.2679 -10.2883 0.
-652.984 -1291.62 0.
-309.799 -660.249 0.
20.6234 42.8156 0.
9.52528 20.5076 0.
-4.15239 -9.13081 0.
-15.7636 -36.0584 0.
-143.442 -330.868 0.
-293.206 -681.542 0.
-346.632 -791.801 0.
-9.52484 -21.6478 0.
10.0053 24.5447 0.
-0.478426 -1.17433 0.
-252.138 -620.587 0.
-178.562 -458.22 0.
4.45515 11.3679 0.
-436.075 -1162.57 0.
-2.14565 -5.57563 0.
3.80562 10.5343 0.
-0.0257831 -10.9732 0.
0.604262 1.64731 0.
-0.249585 -0.681262 0.
0.630284 1.65218 0.
-1153.79 -2867.04 0.
-63.5397 -170.216 0.
-6.03713e-05 -4.68402 0.
-1343.56 -3719.66 0.
0.314305 0.858707 0.
-0.00640125 -1.42274 0.
-1271.24 -3381.01 0.
-0.188351 -0.512111 0.
-956.532 -2227.21 0.
-270.917 -669.531 0.
-80.5737 -213.283 0.
-1032.76 -2821.3 0.
-162.37 -449.369 0.
-0.00151027 -0.322594 0.
-814.774 -2182.86 0.
-313.641 -864.48 0.
-5.36379 -14.7879 0.
-565.336 -1528.41 0.
-481.028 -1321.52 0.
-42.7234 -92.2107 0.
-354.182 -953.345 0.
-685.52 -1855.41 0.
-16.0414 -33.9083 0.
-261.696 -713.617 0.
-930.006 -2469.48 0.
-9.84044 -25.48 0.
-25.9451 -70.2984 0.
-1027.22 -2812.17 0.
-228.464 -466.077 0.
-884.202 -1748.97 0.
-360.567 -991.525 0.
-0.782303 -2.14729 0.
-829.508 -2282.19 0.
-107.286 -297.149 0.
-15.2182 -41.8817 0.
-851.234 -2354.61 0.
-0.0565652 -9.68103 0.
-1301.7 -3537.83 0.
-0.273811 -8.73882 0.
-0.230785 -7.95438 0.
-53.2424 -138.588 0.
6.36162 17.2062 0.
-3.01249 -8.29079 0.
-3.57323 -8.37705 0.
-3.81653 -9.0575 0.
-139.016 -333.917 0.
-0.633973 -21.4902 0.
-276.769 -724.1 0.
-1.21135 -2.81751 0.
-0.443507 -1.03637 0.
12.6787 29.768 0.
-1.70916 -3.89597 0.
-524.48 -1197.17 0.
-389.452 -858.927 0.
-104.468 -229.965 0.
-47.8734 -99.5655 0.
-0.971302 -1.97993 0.
-6.80789 -14.4035 0.
-204.045 -423.744 0.
4.65128 9.37913 0.
-341.359 -659.112 0.
20.907 39.7709 0.
1.3655 2.64077 0.
14.6819 27.2556 0.
-6.68902 -32.4316 0.
-200.997 -395.821 0.
13.1372 24.3474 0.
-100.545 -216.436 0.
-2.87616 -19.8385 0.
-1.07187 -1.99411 0.
12.7694 25.0397 0.
-48.3906 -99.7484 0.
19.7998 35.8226 0.
-7.12474 -13.1717 0.
-7.19173 -32.4668 0.
-599.23 -1164.63 0.
-0.390544 -0.746794 0.
-30.5401 -59.3507 0.
-13.3318 -25.0627 0.
-5.93217 -36.5779 0.
-35.6917 -73.2782 0.
-2.95772 -6.34876 0.
-460.474 -1011.57 0.
-497.532 -1137.05 0.
-174.539 -401.5 0.
5.29998 11.4922 0.
12.4153 26.7862 0.
0.0428949 0.0940146 0.
-709.476 -1722.73 0.
0.806542 1.95421 0.
5.35293 12.9776 0.
-261.218 -658.461 0.
-64.7067 -161.928 0.
-3.95386 -10.3793 0.
-3.61614 -9.30413 0.
-1088.19 -3013.87 0.
-99.6144 -275.283 0.
3.7803 10.3969 0.
-1220.84 -3350.68 0.
4.49672 11.9111 0.
3.44098 8.58819 0.
-0.0288838 -5.25891 0.
1.93517 5.35557 0.
-72.08 -192.738 0.
1.28222 3.4333 0.
-0.0392228 -2.93006 0.
0.237793 0.65854 0.
0.0900578 0.241103 0.
-22.2823 -60.7323 0.
0.06023 0.165256 0.
0.324398 0.892421 0.
-199.655 -551.342 0.
0.170838 0.472108 0.
0.037374 0.102839 0.
-132.109 -364.702 0.
-5.09343 -14.0629 0.
-4.44512 -12.3122 0.
-91.7642 -251.141 0.
-22.397 -58.7119 0.
-10.7342 -8.97921 0.
-12.4426 -12.7776 0.
-105.41 -281.597 0.
-14.0027 -27.3907 0.
-11.8655 -23.2985 0.
-61.743 -170.607 0.
-13.3902 -33.9713 0.
-6.79485 -14.9338 0.
-138.636 -383.659 0.
-7.03288 -19.3147 0.
-201.169 -535.041 0.
-0.00985178 -2.49951 0.
-0.0033651 -0.00932033 0.
-39.3164 -108.101 0.
-51.3987 -142.355 0.
-1.58366 -4.36646 0.
-4.02064 -11.0052 0.
-0.731054 -2.02469 0.
-12.1279 -33.5918 0.
-1.61121 -4.03999 0.
-17.5217 -45.3383 0.
-920.677 -2446.61 0.
4.0727 11.001 0.
-771.501 -2124.18 0.
-268.365 -646.289 0.
7.76957 18.2465 0.
-2.09441 -4.9772 0.
-0.854177 -25.1052 0.
-509.944 -1321.78 0.
-4.96697 -11.4906 0.
4.62166 10.7426 0.
-254.35 -593.922 0.
3.36318 7.56991 0.
11.626 25.8529 0.
-329.208 -723.647 0.
-367.592 -806.231 0.
-445.659 -924.555 0.
-211.942 -430.458 0.
13.8946 27.6534 0.
18.1743 35.5928 0.
23.2464 44.1908 0.
-231.815 -445.839 0.
17.6637 33.4601 0.
1.54093 2.97552 0.
-6.41301 -11.8704 0.
0.626045 1.11186 0.
1.48721 2.76445 0.
2.59519 4.68849 0.
-4.09064 -8.95527 0.
-1.01889 -2.17807 0.
6.1731 11.7551 0.
9.7689 19.6243 0.
-1.47731 -3.11854 0.
-5.74537 -10.3946 0.
-306.847 -567.328 0.
13.1367 24.2493 0.
-42.3781 -82.0035 0.
-10.5633 -41.6174 0.
-8.69759 -37.2534 0.
6.29793 11.8059 0.
-2.00319 -4.00558 0.
-704.791 -1430.08 0.
-380.195 -814.602 0.
-124.98 -273.509 0.
-4.34181 -9.2834 0.
14.5805 31.2582 0.
8.75345 18.8158 0.
-533.57 -1153.85 0.
-275.059 -604.71 0.
-270.562 -647.364 0.
-29.296 -70.0252 0.
-1.92578 -4.57665 0.
-364.028 -903.192 0.
-54.6409 -135.397 0.
-286.337 -742.423 0.
-3.40855 -8.64575 0.
5.89939 14.5378 0.
3.24371 8.94571 0.
-1.67522 -4.5977 0.
-0.984263 -2.62777 0.
1.27178 3.25348 0.
-0.307397 -4.44701 0.
-0.00127466 -0.58947 0.
0.00100407 0.852436 0.
-92.6213 -239.344 0.
0.853716 2.2203 0.
-0.0928946 -3.36802 0.
-0.00531324 -2.60216 0.
0.737229 1.95032 0.
-0.142723 -2.40408 0.
-6.63265e-05 -0.96076 0.
-8.09223e-06 -0.158918 0.
0.209057 0.579011 0.
0.240415 0.665417 0.
0.154345 0.42598 0.
-4.99608 -13.8052 0.
-4.33486 -12.0067 0.
-3.59984 -9.92531 0.
-22.5506 -61.2464 0.
-12.0957 -29.5477 0.
-1.20449 -1.36714 0.
-11.025 -16.9615 0.
-18.4324 -38.1383 0.
-12.3886 -24.7477 0.
-12.9763 -29.5037 0.
-21.6635 -58.7461 0.
-17.4577 -43.8624 0.
-14.7855 -30.1844 0.
-21.1756 -43.1525 0.
-0.0264079 -1.77935 0.
-0.217382 -0.60169 0.
-0.0027939 -0.248609 0.
1.9577 5.39982 0.
-35.1924 -97.459 0.
-0.673863 -1.86634 0.
-0.00564911 -5.05304 0.
1.48189 4.0696 0.
2.0447 5.60681 0.
-16.0172 -43.9944 0.
5.7686 14.7633 0.
5.38349 14.1595 0.
1.6367 4.40919 0.
7.19789 18.985 0.
-284.262 -769.653 0.
-21.8231 -52.499 0.
-30.0179 -72.3586 0.
-37.2276 -89.9171 0.
3.82984 9.74055 0.
6.3266 16.0532 0.
-244.08 -562.15 0.
-267.961 -619.828 0.
-235.688 -547.535 0.
-141.031 -314.158 0.
-101.933 -224.323 0.
-8.63079 -18.2123 0.
8.23197 17.1329 0.
-204.501 -422.668 0.
-166.026 -335.99 0.
11.3028 22.4014 0.
-418.005 -817.857 0.
-7.20262 -35.0499 0.
-1.34623 -2.42556 0.
-4.20634 -7.39632 0.
-39.7297 -76.5886 0.
-226.963 -418.459 0.
18.1554 32.0936 0.
-139.874 -260.66 0.
12.5405 22.6837 0.
-0.306089 -0.681729 0.
6.93622 15.0945 0.
-3.68506 -19.9528 0.
-126.546 -261.053 0.
8.93738 15.8181 0.
18.253 33.0296 0.
9.06392 16.0347 0.
10.0172 17.4723 0.
7.40696 13.2958 0.
24.1621 42.7326 0.
-131.405 -238.767 0.
-644.254 -1203.3 0.
-217.186 -429.024 0.
-8.34015 -15.684 0.
15.6765 31.5184 0.
-139.049 -285.39 0.
-4.42137 -9.37208 0.
-91.781 -195.035 0.
-495.479 -1056.82 0.
-186.907 -406.614 0.
-2.7027 -5.83532 0.
-6.53003 -15.1531 0.
10.7028 25.0174 0.
11.3168 26.6633 0.
-497.743 -1227.4 0.
-39.6211 -97.6263 0.
-544.184 -1389.15 0.
0.808902 2.02295 0.
-0.884655 -14.7556 0.
-2.7214 -7.49288 0.
3.20874 8.78638 0.
-513.492 -1379.45 0.
2.18461 5.78478 0.
-2.05825 -5.39047 0.
-1330.21 -3579.95 0.
-0.0307609 -3.86019 0.
-787.33 -2077.28 0.
-100.871 -275.761 0.
-0.000771553 -2.62828 0.
-1133.23 -3078.04 0.
1.32532 3.64222 0.
-0.00867039 -0.303067 0.
-1393.28 -3386.05 0.
0.431896 1.19624 0.
-938.039 -2516.63 0.
-55.8237 -153.932 0.
-0.191403 -0.529866 0.
-891.778 -2385.93 0.
-198.798 -548.501 0.
0.119378 0.289422 0.
-584.976 -1575.54 0.
-465.718 -1289.95 0.
-17.6841 -48.107 0.
-274.151 -758.319 0.
-788.745 -2143.69 0.
-3.65419 -9.39174 0.
-91.1593 -252.474 0.
-982.505 -2621.26 0.
0.202991 0.552554 0.
-76.6419 -177.652 0.
-1084.52 -2626.42 0.
0.13664 0.376769 0.
-1052.93 -2881.62 0.
-0.016968 -0.828675 0.
0.229959 0.626273 0.
-880.718 -2425.39 0.
-58.4872 -161.946 0.
-27.0836 -74.8536 0.
-765.533 -2050.79 0.
3.3802 9.19967 0.
-979.334 -2708.47 0.
3.68248 10.0987 0.
-217.059 -599.424 0.
-0.0633183 -7.78234 0.
-0.434681 -13.1922 0.
6.02706 15.9922 0.
-43.6572 -105.13 0.
-64.1005 -154.669 0.
-388.968 -940.911 0.
6.75741 17.0003 0.
-270.899 -679.737 0.
5.11101 11.2824 0.
12.1223 26.6315 0.
-0.697318 -1.52538 0.
-229.094 -504.874 0.
-432.735 -941.357 0.
-441.246 -920.805 0.
-5.16042 -34.2897 0.
-2.63266 -5.09392 0.
-7.44518 -35.2959 0.
-7.48499 -13.6956 0.
-353.847 -690.853 0.
-36.6972 -69.4156 0.
-491.204 -880.86 0.
13.9297 24.3755 0.
24.8952 42.527 0.
-8.94609 -30.9463 0.
9.15176 15.1319 0.
-78.3481 -146.34 0.
7.17972 13.0084 0.
10.5106 18.4829 0.
-4.6946 -10.4085 0.
-3.24658 -6.20367 0.
2.52204 5.00189 0.
6.0569 10.1966 0.
12.3476 21.3695 0.
-94.0977 -167.461 0.
6.40688 11.0565 0.
-400.844 -711.805 0.
5.92964 10.4457 0.
3.15974 5.72393 0.
-9.11623 -32.4963 0.
16.7188 30.3793 0.
-220.406 -410.204 0.
10.1222 20.3007 0.
-567.552 -1161.19 0.
-200.231 -420.689 0.
-82.06 -172.822 0.
15.9724 32.9354 0.
3.29947 7.00737 0.
-9.18451 -19.6205 0.
-330.697 -762.686 0.
-172.014 -398.989 0.
7.43964 17.3725 0.
-457.152 -1122.16 0.
-6.0737 -14.8814 0.
-231.635 -578.452 0.
0.188016 0.469293 0.
1.93751 4.83039 0.
-1044.23 -2878.94 0.
6.06588 16.6267 0.
-82.1416 -218.612 0.
1.38714 3.65165 0.
5.10574 13.2854 0.
4.12734 11.3832 0.
1.03001 2.85238 0.
0.553681 1.47626 0.
-0.012907 -5.28086 0.
-0.00543168 -3.68427 0.
-0.00391882 -3.82144 0.
1.15474 3.10444 0.
-0.0684745 -1.5293 0.
0.00301136 0.393309 0.
-0.000172263 -0.961433 0.
-9.42299 -25.4332 0.
-0.203748 -0.558267 0.
-0.0986103 -0.272764 0.
-0.0887303 -0.244495 0.
-0.010628 -0.53036 0.
-0.0217922 -0.357819 0.
-19.101 -48.2468 0.
-0.431815 -0.913014 0.
-17.4977 -45.1678 0.
-11.1003 -27.5567 0.
-7.03801 -16.9055 0.
-2.19733 -5.79722 0.
-2.89738 -7.44347 0.
-3.54657 -8.8554 0.
-0.000128907 -0.0424305 0.
0.00396427 0.399969 0.
-1.513 -3.64478 0.
-17.0866 -46.2884 0.
-76.4937 -206.814 0.
1.48229 3.7814 0.
2.12273 5.65033 0.
-4.90522 -13.3707 0.
-20.4709 -56.4623 0.
-0.153152 -0.420534 0.
-0.0316321 -4.9392 0.
-0.225616 -11.6593 0.
0.0170913 0.0469281 0.
0.55946 1.51796 0.
0.81259 2.23025 0.
-567.146 -1566.43 0.
6.84758 17.9759 0.
-579.326 -1518.18 0.
3.79512 8.93354 0.
-8.98306 -21.1494 0.
-262.232 -634.614 0.
-98.615 -245.336 0.
-584.072 -1448.47 0.
13.3238 29.0848 0.
1.11524 2.42321 0.
11.0493 23.911 0.
3.79873 7.92473 0.
7.24945 15.0114 0.
-169.861 -351.237 0.
-327.596 -667.634 0.
-355.101 -686.423 0.
-329.6 -619.917 0.
-9.0014 -16.4638 0.
20.8388 37.4601 0.
-7.94341 -14.0535 0.
-8.70227 -34.8899 0.
13.9968 24.3714 0.
-10.6301 -36.795 0.
-245.366 -412.407 0.
-8.43974 -26.3176 0.
8.49672 14.9426 0.
6.05398 10.3903 0.
1.80327 3.0207 0.
-2.4384 -5.16233 0.
-3.01232 -15.619 0.
-131.315 -263.284 0.
13.0605 22.0983 0.
-1.33872 -2.32995 0.
-327.921 -587.229 0.
-164.614 -280.741 0.
-8.42994 -24.4821 0.
-8.52719 -24.5285 0.
24.0441 39.6465 0.
-198.897 -340.908 0.
-2.69766 -4.84811 0.
-483.121 -888.487 0.
-225.516 -450.903 0.
9.20219 17.6471 0.
7.43573 14.5976 0.
17.6426 35.3667 0.
-80.4889 -164.898 0.
-246.858 -518.6 0.
-463.221 -980.481 0.
-375.675 -858.338 0.
-143.121 -328.712 0.
-10.8524 -24.3275 0.
-21.2356 -50.4278 0.
-1.07527 -2.55386 0.
-463.293 -1144.87 0.
2.45945 6.08743 0.
-1.17112 -22.9581 0.
-292.256 -802.344 0.
-0.113714 -14.789 0.
-0.298477 -15.1096 0.
3.03513 7.94292 0.
-1.48604 -3.84258 0.
1.17097 3.24042 0.
-0.0249974 -6.77859 0.
1.4193 3.85011 0.
-507.988 -1366.94 0.
1.06247 2.93415 0.
-748.713 -2067.7 0.
1.26499 3.47521 0.
-0.0711851 -3.44056 0.
-1018.56 -2781.58 0.
-0.00175372 -1.58666 0.
-986.504 -2171.17 0.
-38.4169 -102.033 0.
-22.4408 -62.127 0.
-860.688 -2265.26 0.
-103.762 -287.227 0.
-0.00852313 -0.0231194 0.
-545.033 -1481.18 0.
-454.434 -1258.7 0.
-4.54495 -11.7551 0.
-212.665 -560.019 0.
-761.724 -2079.15 0.
-0.00413665 -0.0114434 0.
-16.1425 -41.7398 0.
-958.863 -2555.68 0.
0.764673 2.08901 0.
-1.3678 -3.73006 0.
-843.205 -2152.15 0.
-43.4994 -116.071 0.
-793.342 -2197.16 0.
1.89832 5.05483 0.
1.38991 3.66691 0.
-723.391 -1914.63 0.
-161.731 -445.296 0.
-0.324711 -0.883487 0.
-0.0387419 -3.37267 0.
-0.118367 -3.68817 0.
-0.123035 -11.2196 0.
0.202803 0.543236 0.
3.781 10.284 0.
-63.3348 -173.988 0.
6.58512 17.1349 0.
-317.513 -824.363 0.
5.48822 12.9463 0.
-4.49447 -10.6035 0.
-120.885 -285.26 0.
0.947499 2.28083 0.
10.3792 25.0072 0.
-65.9178 -142.174 0.
-286.611 -615.189 0.
-340.821 -728.837 0.
-289.513 -600.517 0.
-5.55104 -11.4516 0.
8.38741 16.4943 0.
-9.72626 -18.7609 0.
2.87024 5.27534 0.
-232.494 -437.109 0.
1.48356 2.71259 0.
-640.663 -1140.27 0.
-8.84731 -33.1445 0.
7.32343 12.2522 0.
11.2973 18.4914 0.
-11.0825 -32.6724 0.
-176.998 -294.446 0.
-29.8751 -48.3448 0.
-31.992 -56.4594 0.
1.39131 2.39515 0.
11.8885 19.9645 0.
0.762895 1.60258 0.
-2.78901 -5.44483 0.
-62.9453 -127.748 0.
14.3525 23.4526 0.
-1.32023 -2.22272 0.
3.15303 5.47247 0.
-4.03813 -6.38216 0.
-211.391 -331.14 0.
-8.16548 -12.9131 0.
-478.537 -786.818 0.
-349.741 -598.438 0.
-80.477 -142.871 0.
3.82253 6.59717 0.
-6.24383 -28.7173 0.
-224.132 -426.165 0.
15.5984 30.377 0.
-34.2463 -68.1469 0.
-433.504 -881.885 0.
-144.887 -301.036 0.
2.66185 5.37946 0.
-18.905 -41.874 0.
-3.13765 -6.97582 0.
-13.4102 -29.9331 0.
-375.102 -883.101 0.
-74.249 -175.025 0.
-258.163 -633.212 0.
-10.5322 -25.8395 0.
-1.71394 -4.19782 0.
1.44763 3.94601 0.
-0.573404 -1.56614 0.
-589.979 -1601.21 0.
-62.2575 -168.471 0.
-7.10352 -19.1585 0.
-882.404 -2443.9 0.
4.40549 12.1578 0.
-476.205 -1270.77 0.
2.38729 6.53504 0.
1.25918 3.48768 0.
-0.436697 -1.20931 0.
0.0711949 0.194306 0.
1.14965 3.01432 0.
-22.0308 -60.6908 0.
-0.0113806 -1.00681 0.
-0.000574282 -0.0088067 0.
0.20017 0.523598 0.
-0.00312567 -0.918972 0.
0.154096 0.42525 0.
0.0422739 0.116044 0.
-0.00472767 -0.675541 0.
-2.2692 -5.75753 0.
-0.0353211 -0.303004 0.
-0.00640301 -0.216394 0.
-2.84052 -7.74455 0.
-7.89089 -21.7542 0.
-0.00379806 -0.222776 0.
0.0255771 0.0705157 0.
-14.1015 -37.137 0.
-0.0034933 -1.89309 0.
-5.9766 -16.4662 0.
-18.987 -52.3662 0.
-0.239358 -0.633537 0.
-14.9139 -41.0632 0.
-0.238912 -6.80694 0.
1.88474 4.78418 0.
-6.01974 -15.1886 0.
0.630108 1.74296 0.
-0.658755 -1.76996 0.
-643.851 -1600.75 0.
5.39477 14.3991 0.
-873.665 -2373.79 0.
3.14708 8.51626 0.
-4.48232 -12.1349 0.
-197.904 -536.254 0.
1.21771 3.13827 0.
-136.169 -350.304 0.
-83.0317 -196.151 0.
-80.1403 -189.39 0.
-429.926 -1013.8 0.
5.40637 12.8824 0.
-184.629 -441.105 0.
-4.47002 -9.34355 0.
3.22131 6.64796 0.
-2.3479 -4.78704 0.
-184.155 -380.59 0.
-331.867 -680.427 0.
-680.683 -1326.12 0.
-9.45059 -18.0224 0.
-56.9753 -104.331 0.
-6.18164 -10.9904 0.
5.18004 8.94828 0.
-66.0996 -115.706 0.
-77.675 -133.821 0.
-337.496 -557.345 0.
-282.928 -456.93 0.
22.2715 35.2168 0.
13.042 20.5525 0.
5.29673 8.20019 0.
10.64 18.1904 0.
10.7082 17.7888 0.
7.39394 12.4482 0.
6.11917 12.7418 0.
1.25659 2.35574 0.
-1.14153 -2.19759 0.
-2.74861 -4.44956 0.
-142.836 -238.376 0.
-18.9297 -29.658 0.
-27.3234 -42.4593 0.
-158.672 -244.334 0.
-1.95691 -3.08073 0.
4.48295 7.14544 0.
-8.18753 -13.5321 0.
-8.911 -15.0773 0.
-384.518 -659.706 0.
17.0895 31.5462 0.
-705.146 -1328.56 0.
-185.994 -359.593 0.
8.47267 15.8683 0.
6.18923 11.7234 0.
9.08813 17.8312 0.
-364.81 -736.931 0.
-64.8788 -143.101 0.
-189.912 -420.734 0.
-319.021 -710.345 0.
-319.734 -747.718 0.
-64.8214 -151.661 0.
-34.5964 -84.9866 0.
-38.512 -94.4093 0.
-60.2653 -147.378 0.
-229.832 -625.043 0.
3.55383 9.61816 0.
-18.6587 -50.7891 0.
0.705004 1.91353 0.
-0.678523 -1.83628 0.
0.221711 0.609901 0.
5.46987 14.8642 0.
3.78696 10.2675 0.
-0.0148561 -9.78554 0.
-0.0026794 -4.73032 0.
2.09854 5.79872 0.
1.3944 3.78152 0.
-0.112773 -4.33309 0.
0.768887 2.03109 0.
0.760929 1.89776 0.
-0.0228713 -0.435447 0.
-0.00273682 -0.125706 0.
-0.00223139 -0.562059 0.
0.0836417 0.231166 0.
0.130837 0.360055 0.
0.0917166 0.250844 0.
0.236916 0.588817 0.
0.288807 0.644033 0.
-0.00530915 -0.342527 0.
-0.119152 -0.327171 0.
-5.23267 -14.4803 0.
0.713052 1.83501 0.
-0.000290417 -0.199198 0.
-0.0697243 -0.191026 0.
0.178475 0.494201 0.
-11.6922 -32.3698 0.
-26.8733 -74.4218 0.
0.766226 1.98914 0.
-0.528512 -1.43864 0.
2.05188 4.95904 0.
-0.22532 -0.543883 0.
-27.6618 -66.6662 0.
-0.00218215 -8.23928 0.
-0.0645107 -7.20934 0.
-0.182336 -3.73634 0.
-0.345936 -0.897216 0.
-0.542588 -1.44797 0.
-1.11289 -3.00625 0.
-1.19602 -3.2323 0.
-360.418 -974.593 0.
-1.22357 -3.14385 0.
-114.27 -296.06 0.
-5.39616 -12.876 0.
8.71557 20.8285 0.
-76.9278 -182.197 0.
-124.979 -294.919 0.
-344.471 -814.924 0.
-292.239 -605.947 0.
-171.618 -351.051 0.
-1.49149 -2.98686 0.
8.37667 16.5522 0.
-4.95496 -9.66113 0.
-0.467579 -0.851007 0.
-148.795 -280.516 0.
-370.345 -676.013 0.
-587.565 -1040.29 0.
-8.55753 -14.7065 0.
-0.0179473 -0.0293806 0.
-9.82847 -29.571 0.
-44.6945 -69.2769 0.
-153.278 -243.942 0.
9.44864 14.7244 0.
-157.414 -247.878 0.
-14.1285 -21.8411 0.
13.0242 22.2481 0.
-3.63606 -6.0319 0.
4.70965 7.5861 0.
-4.03639 -7.93988 0.
5.53362 10.4075 0.
-102.306 -197.593 0.
12.7121 20.3785 0.
-282.37 -466.862 0.
-81.4088 -125.416 0.
11.205 16.4109 0.
7.99093 11.737 0.
11.3084 17.2075 0.
-220.762 -348.169 0.
20.1065 33.3553 0.
-19.4013 -32.5916 0.
-588.638 -1003.52 0.
-119.597 -218.52 0.
6.51046 11.5081 0.
17.7103 32.3958 0.
3.52424 6.51653 0.
-395.762 -740.244 0.
5.99976 11.7421 0.
-483.138 -974.289 0.
-255.014 -560.445 0.
-4.61912 -9.87592 0.
-2.31696 -5.00619 0.
7.16206 16.572 0.
3.47543 8.14059 0.
-236.688 -576.914 0.
-47.0182 -114.597 0.
-182.29 -442.737 0.
-438.449 -1180.64 0.
-0.809343 -2.1664 0.
3.55497 9.70296 0.
0.583798 1.58926 0.
4.6479 12.618 0.
-313.892 -855.131 0.
0.109219 0.294545 0.
-580.805 -1577.84 0.
3.6785 10.0745 0.
-0.0130977 -7.91012 0.
-829.07 -2262.85 0.
-0.0147672 -6.19037 0.
1.14041 3.1538 0.
-754.006 -2030.32 0.
-0.00076098 -1.97462 0.
-829.358 -1836.13 0.
0.150701 0.357989 0.
-0.0815015 -0.207142 0.
-809.743 -2077.84 0.
-93.621 -250.97 0.
-0.00322164 -0.918708 0.
-447.9 -1213.09 0.
-388.146 -1073.84 0.
0.262395 0.674135 0.
-167.091 -438.936 0.
-657.306 -1799.15 0.
0.624265 1.70872 0.
0.695212 1.92466 0.
-745.451 -2016.74 0.
0.0848245 0.234692 0.
-3.1964 -8.84539 0.
-741.505 -1900.43 0.
-0.493357 -1.33461 0.
-515.971 -1428.11 0.
-38.4309 -104.978 0.
-60.0797 -166.081 0.
-536.676 -1481.48 0.
-0.183543 -10.3904 0.
-482.238 -1287.92 0.
-98.0227 -253.088 0.
-101.396 -263.774 0.
-3.24373 -8.45304 0.
-1.37666 -3.71192 0.
-7.71382 -20.8095 0.
-147.728 -384.753 0.
6.36647 16.3782 0.
-462.017 -1197.9 0.
-98.1763 -231.483 0.
-20.0796 -47.4406 0.
-51.5669 -121.99 0.
9.09965 21.2698 0.
1.45854 3.3805 0.
-11.7381 -23.7115 0.
-244.708 -495.787 0.
-316.283 -631.16 0.
-401.511 -789.999 0.
2.60843 5.06583 0.
16.4715 29.813 0.
-9.60067 -16.9155 0.
-9.71545 -16.4909 0.
-127.495 -224.667 0.
-8.28418 -29.1761 0.
-507.004 -822.437 0.
-5.54198 -8.85531 0.
-47.8113 -73.4962 0.
-3.51668 -5.2451 0.
-11.0352 -25.1799 0.
7.08234 10.4184 0.
-12.6767 -19.569 0.
-124.508 -188.856 0.
-123.778 -205.297 0.
5.3594 8.61341 0.
5.49283 10.8231 0.
-4.22715 -7.65085 0.
-2.38403 -4.40564 0.
1.76346 2.67718 0.
8.57759 13.256 0.
22.0002 31.5697 0.
21.8801 31.4791 0.
-304.374 -439.366 0.
-149.229 -224.268 0.
-567.23 -884.412 0.
-26.9644 -44.3979 0.
-0.853987 -1.30971 0.
17.686 27.7918 0.
-10.2273 -17.4145 0.
-356.559 -623.079 0.
-4.96859 -8.96856 0.
15.7395 28.7131 0.
-334.671 -617.404 0.
10.2131 19.9334 0.
-1.71299 -3.31861 0.
-4.10301 -8.60911 0.
6.19296 13.1253 0.
2.47023 5.2911 0.
-180.014 -416.69 0.
-416.018 -974.627 0.
-106.226 -257.857 0.
-124.882 -302.441 0.
-81.3045 -196.508 0.
-57.1248 -151.238 0.
-1.07153 -2.82978 0.
-323.826 -882.896 0.
-181.346 -493.271 0.
-180.441 -489.35 0.
-2.04185 -5.49436 0.
1.68369 4.46775 0.
4.63076 12.0575 0.
-0.036123 -12.3456 0.
1.58251 4.37572 0.
-14.8067 -40.9484 0.
3.36401 9.31759 0.
2.22775 6.16074 0.
1.7787 4.88861 0.
-0.00715086 -5.6144 0.
-0.00118289 -0.00286342 0.
-0.0454957 -1.24892 0.
-0.0140146 -0.991745 0.
-2.68657 -7.03458 0.
0.223743 0.605602 0.
-0.00763825 -0.0210905 0.
-5.64013 -15.5468 0.
0.222936 0.608496 0.
-0.0274128 -1.1121 0.
-0.00191125 -1.11692 0.
-0.0041924 -0.838492 0.
0.547544 1.47527 0.
-0.00265757 -0.938576 0.
0.522229 1.44626 0.
0.061204 0.167289 0.
0.165416 0.457143 0.
-9.62023 -26.6451 0.
2.36732 6.26479 0.
-0.417324 -1.14616 0.
2.50999 6.9233 0.
-3.99654e-05 -7.12728 0.
-0.38721 -1.06504 0.
2.78265 7.67233 0.
2.22493 6.12159 0.
-2.70032 -6.97367 0.
-5.50321 -14.3144 0.
-203.483 -532.653 0.
-48.0662 -129.594 0.
-190.737 -517.294 0.
-15.3448 -40.0074 0.
-3.81423 -9.89459 0.
-2.12564 -5.51879 0.
-183.657 -427.959 0.
-180.55 -421.383 0.
-166.018 -388.44 0.
-237.605 -551.078 0.
-8.94608 -20.5798 0.
-29.1265 -58.8411 0.
-13.0405 -26.0043 0.
9.70355 19.1387 0.
-0.316055 -0.603658 0.
-34.9825 -67.6579 0.
-590.837 -1059.93 0.
-50.774 -88.8615 0.
9.23585 15.5084 0.
-5.28806 -8.61669 0.
-0.247879 -0.392514 0.
-4.21574 -6.29379 0.
-92.4827 -146.152 0.
-50.6306 -78.9973 0.
-662.653 -980.308 0.
4.2101 6.0396 0.
4.81627 6.92614 0.
8.9094 12.8878 0.
9.36328 13.611 0.
8.3394 13.3329 0.
-6.31515 -9.79715 0.
6.73942 12.9905 0.
0.359446 0.652091 0.
-16.3478 -30.2941 0.
-2.99474 -4.49193 0.
-274.593 -419.034 0.
15.0489 21.2108 0.
-185.822 -262.576 0.
-104.365 -147.744 0.
6.75433 9.49062 0.
-6.72535 -9.53271 0.
-8.38764 -12.402 0.
3.90874 5.91534 0.
-583.359 -905.558 0.
-53.8232 -90.6644 0.
-445.35 -769.38 0.
-22.0522 -39.2492 0.
11.2892 18.8135 0.
-4.35289 -7.47759 0.
6.51078 12.3438 0.
-274.709 -539.426 0.
-200.322 -416.637 0.
-271.669 -570.741 0.
-141.331 -299.955 0.
-106.753 -247.516 0.
5.47937 12.6057 0.
6.09049 14.4049 0.
-5.67021 -13.471 0.
-4.44386 -10.6051 0.
-265.92 -697.757 0.
2.20496 5.77657 0.
2.64464 6.90667 0.
-9.01155 -24.4483 0.
-22.8297 -61.7552 0.
-32.3783 -85.8567 0.
-1.29718 -3.38055 0.
2.53758 6.46556 0.
0.37687 1.03971 0.
2.73122 7.5613 0.
-0.00180014 -8.69404 0.
3.39607 9.36973 0.
-142.155 -392.956 0.
-431.13 -1192.69 0.
1.01752 2.80986 0.
-606.438 -1441.42 0.
-0.300392 -0.766714 0.
0.91876 2.44692 0.
-592.992 -1556.04 0.
-9.09695 -23.1158 0.
0.618878 1.58605 0.
-408.78 -1077.75 0.
-302.778 -836.305 0.
-0.109449 -1.65048 0.
-145.029 -391.582 0.
-530.834 -1463.42 0.
0.577499 1.53732 0.
0.852233 2.32045 0.
-613.034 -1689.47 0.
-0.266442 -0.727493 0.
-0.652922 -1.80834 0.
-474.55 -1280.74 0.
0.567508 1.49936 0.
-388.803 -1057.43 0.
-0.000841254 -7.54484 0.
3.13175 8.65265 0.
0.814915 2.22176 0.
2.81684 7.76905 0.
-2.4573 -6.80059 0.
-1.00625 -2.59777 0.
-0.480439 -17.5626 0.
-108.898 -284.93 0.
-37.6274 -101.09 0.
-153.403 -414.703 0.
-42.2137 -109.983 0.
7.59872 19.6985 0.
7.89525 20.3592 0.
-44.3222 -101.086 0.
-0.0446301 -0.101098 0.
4.194 9.47551 0.
-79.5308 -183.03 0.
-162.007 -369.632 0.
-397.651 -804.468 0.
-129.179 -257.641 0.
-8.66616 -17.1122 0.
-7.24108 -13.8345 0.
-4.21001 -7.78185 0.
2.54731 4.29755 0.
-120.406 -209.094 0.
-189.213 -319.652 0.
-662.081 -1068.53 0.
-4.92034 -7.69125 0.
-71.4739 -104.396 0.
-10.4452 -23.9578 0.
-12.0088 -27.1833 0.
-12.1451 -25.2028 0.
-53.4257 -75.8139 0.
-134.27 -188.881 0.
-161.408 -228.561 0.
15.9449 22.6788 0.
-66.9388 -108.094 0.
-3.20698 -5.01692 0.
-1.07914 -7.29895 0.
-39.4576 -71.7641 0.
-60.3 -87.6989 0.
-99.3468 -147.077 0.
-19.4192 -29.2724 0.
21.6002 28.1309 0.
-12.333 -22.7202 0.
-41.5267 -55.8782 0.
15.84 21.9847 0.
-431.489 -604.904 0.
-1.60876 -2.34398 0.
-183.968 -274.555 0.
-172.697 -264.202 0.
0.570457 0.87856 0.
-7.34523 -19.9313 0.
-0.685912 -1.08979 0.
-6.67532 -20.7713 0.
-557.19 -940.799 0.
2.10338 4.04212 0.
-255.72 -508.651 0.
-110.555 -227.633 0.
2.29016 4.66832 0.
-0.412874 -0.855615 0.
-2.24229 -5.13305 0.
-88.6317 -204.613 0.
-138.738 -322.85 0.
-148.226 -352.171 0.
-186.546 -445.136 0.
-217.859 -566.79 0.
0.464743 1.20715 0.
-1.68361 -4.35713 0.
5.15619 13.9481 0.
-12.0507 -32.5115 0.
-402.997 -1061.38 0.
5.53246 14.4741 0.
1.90019 4.94906 0.
-585.912 -1617.82 0.
4.072 11.2505 0.
-367.841 -1011.05 0.
-0.429902 -1.19005 0.
0.0733752 0.202847 0.
-0.877617 -2.41984 0.
-0.108401 -8.67702 0.
1.4331 3.64662 0.
-0.0762943 -3.67877 0.
0.722104 1.96466 0.
-38.3515 -101.674 0.
-0.0251696 -1.57215 0.
-0.0114343 -0.972878 0.
0.447362 1.18498 0.
-0.0048501 -0.693991 0.
0.0148327 0.262586 0.
-0.0039206 -0.23232 0.
-0.000152514 -0.211001 0.
1.18965 3.09984 0.
0.582698 1.56184 0.
0.985372 2.68851 0.
0.524129 1.42083 0.
-0.155251 -0.429533 0.
-0.311269 -4.37179 0.
-0.170118 -0.428889 0.
3.58436 9.38772 0.
-114.035 -315.728 0.
-45.6986 -125.453 0.
-309.224 -820.573 0.
-0.719058 -1.98905 0.
-397.284 -1100.34 0.
2.63298 6.98805 0.
-0.749308 -1.98192 0.
-178.486 -469.931 0.
3.07126 8.22254 0.
-181.566 -489.119 0.
-144.494 -376.196 0.
-56.5833 -146.555 0.
-195.973 -504.691 0.
-171.929 -391.583 0.
-105.903 -239.555 0.
-10.0269 -22.5731 0.
-5.24015 -11.6649 0.
-4.52849 -9.96862 0.
-0.425231 -0.829641 0.
-30.8716 -61.5605 0.
-350.064 -690.973 0.
-60.95 -116.467 0.
2.64517 4.88652 0.
-149.118 -246.124 0.
-0.535703 -0.871866 0.
-2.27718 -3.64894 0.
14.9212 22.7962 0.
9.94515 15.3241 0.
-520.462 -743.624 0.
12.677 18.0028 0.
-11.5645 -24.8489 0.
-134.911 -184.549 0.
17.7418 24.042 0.
6.36731 8.60369 0.
8.66888 11.5372 0.
-33.5524 -46.6906 0.
-46.9236 -76.4726 0.
-5.21227 -8.22541 0.
-4.15189 -6.34645 0.
8.82519 14.7172 0.
15.3046 20.5582 0.
2.65794 3.5924 0.
0.678548 0.922067 0.
4.21261 5.40132 0.
-394.976 -515.173 0.
-231.931 -307.357 0.
-150.342 -206.186 0.
-121.908 -168.544 0.
15.0956 20.3454 0.
9.39624 12.9516 0.
-10.4328 -22.3589 0.
-7.75427 -19.3992 0.
-513.069 -774.7 0.
2.94192 4.57764 0.
-110.68 -177.309 0.
-85.548 -141.403 0.
11.4515 21.4212 0.
-0.959444 -1.86301 0.
-3.1909 -6.42736 0.
6.18898 12.566 0.
-285.642 -590.264 0.
4.06174 9.32939 0.
-52.4988 -121.6 0.
-212.903 -497.188 0.
-131.745 -313.339 0.
2.20642 5.2545 0.
-22.0882 -57.3591 0.
-21.6447 -56.224 0.
-113.181 -293.831 0.
-152.784 -413.135 0.
4.53338 12.2016 0.
-14.9949 -39.3673 0.
2.44699 6.39594 0.
5.54619 14.4311 0.
-1.7615 -4.87896 0.
1.52483 4.22272 0.
-1.1739 -3.22889 0.
-0.189597 -0.524932 0.
-0.0566005 -0.156482 0.
-0.463499 -1.25294 0.
3.37926 8.75273 0.
0.735223 1.92656 0.
0.88845 2.395 0.
1.74519 4.80149 0.
-37.7501 -103.013 0.
0.450574 1.23532 0.
-0.000491905 -0.317057 0.
-0.0028277 -0.204115 0.
-0.00172708 -0.373181 0.
-0.131258 -2.58021 0.
0.00283963 0.158021 0.
-0.00143495 -0.653723 0.
-0.117828 -3.26248 0.
0.310892 0.819015 0.
0.155069 0.4177 0.
-0.0104011 -0.887618 0.
0.326492 0.900358 0.
-0.351254 -3.40767 0.
-0.312422 -4.75034 0.
1.74645 4.40019 0.
3.6415 10.0855 0.
1.95641 5.37214 0.
2.03773 5.43327 0.
-0.506767 -1.39089 0.
-28.4891 -78.5739 0.
-0.175959 -0.464477 0.
-0.418607 -18.9012 0.
-72.107 -188.945 0.
-4.63093 -12.3226 0.
-59.4377 -157.781 0.
-20.8373 -52.8291 0.
-0.810779 -20.7858 0.
3.98909 10.1106 0.
-160.37 -364.926 0.
-94.3877 -213.296 0.
-230.821 -517.402 0.
-14.9164 -33.0782 0.
7.52865 16.5094 0.
-123.946 -242.65 0.
8.2839 16.0022 0.
9.51884 18.1677 0.
-4.26596 -19.1851 0.
10.0299 18.5176 0.
-465.562 -749.45 0.
7.23532 11.5384 0.
13.452 21.1304 0.
-131.207 -196.816 0.
16.2539 23.8366 0.
-2.01018 -2.71133 0.
-2.4557 -3.24502 0.
17.5633 24.2667 0.
-303.635 -407.574 0.
-88.1539 -117.311 0.
-17.3063 -23.1847 0.
-87.3724 -115.304 0.
6.12892 7.96592 0.
-6.26229 -9.23065 0.
-6.9467 -15.9276 0.
4.68264 6.69666 0.
-53.1575 -85.8791 0.
-10.7985 -19.5394 0.
-64.6438 -85.3713 0.
-222.204 -295.335 0.
-146.166 -184.407 0.
-46.0948 -59.0539 0.
20.3975 25.3852 0.
-4.18408 -5.22629 0.
11.3767 14.2683 0.
-0.21053 -0.27873 0.
-10.9936 -14.8856 0.
-541.818 -752.487 0.
-180.04 -263.633 0.
-11.8297 -17.4629 0.
-1.59465 -2.41859 0.
-1.07628 -1.66624 0.
10.4276 16.4888 0.
6.12493 11.4859 0.
-395.74 -772.044 0.
-271.306 -550.149 0.
-178.47 -361.176 0.
-111.528 -229.416 0.
0.438162 0.995902 0.
0.790358 1.81344 0.
-0.140848 -0.326225 0.
1.77001 4.1827 0.
-34.7078 -82.4834 0.
-89.0328 -230.859 0.
-45.5607 -118.209 0.
-13.531 -35.1256 0.
-193.359 -521.42 0.
3.48249 9.35027 0.
3.72146 9.76037 0.
-3.15968 -8.25126 0.
4.13737 10.7556 0.
-6.26419 -17.2866 0.
-4.24599 -11.6985 0.
-201.884 -558.057 0.
-1.14904 -3.1729 0.
-4.9391 -13.6282 0.
-380.912 -1054.02 0.
-0.0222319 -8.95873 0.
0.703817 1.91769 0.
-439.631 -1115.37 0.
-0.0690024 -6.50517 0.
-283.328 -715.358 0.
-43.2146 -112.546 0.
-81.4076 -217.297 0.
-254.654 -686.089 0.
-164.576 -455.225 0.
-96.1477 -264.328 0.
-119.353 -330.58 0.
-243.785 -668.959 0.
-105.082 -291.003 0.
-49.3751 -135.437 0.
-251.667 -665.117 0.
0.549144 1.51229 0.
-483.075 -1287.13 0.
1.38737 3.58172 0.
-0.143222 -9.29433 0.
-335.414 -913.176 0.
-0.120144 -16.1492 0.
5.64322 15.3984 0.
-177.383 -485.168 0.
0.17344 0.469634 0.
-55.7903 -152.433 0.
-8.17914 -21.4641 0.
-22.1149 -57.8245 0.
-90.7541 -236.388 0.
-4.12419 -10.9352 0.
-219.165 -579.291 0.
-33.6125 -85.0082 0.
-102.143 -258.257 0.
7.72381 19.5279 0.
-11.5282 -25.8864 0.
5.70267 12.6339 0.
3.79637 8.27366 0.
3.59861 7.87635 0.
-95.0816 -207.552 0.
-216.936 -425.913 0.
-21.938 -42.5185 0.
-230.674 -439.172 0.
3.36697 6.20963 0.
-4.833 -19.4774 0.
-20.4795 -31.4367 0.
2.16669 3.21492 0.
-6.15875 -9.46569 0.
-458.391 -672.247 0.
-17.5779 -25.2823 0.
-399.636 -526.736 0.
14.2292 18.3794 0.
-7.76921 -9.84996 0.
5.32947 6.52024 0.
-5.10857 -6.16529 0.
-20.4444 -26.4762 0.
-176.826 -231.286 0.
-42.9646 -55.3469 0.
-86.5385 -124.675 0.
12.4579 17.6763 0.
12.4899 17.4624 0.
-6.37257 -9.95549 0.
9.43783 11.3396 0.
-8.27747 -10.0638 0.
17.8459 21.9465 0.
12.5698 14.8355 0.
1.19168 1.40793 0.
-10.2145 -12.3423 0.
-94.1558 -114.002 0.
-447.432 -541.92 0.
-7.38377 -9.59032 0.
-6.16976 -8.19476 0.
8.03785 10.6539 0.
4.83301 6.78516 0.
-2.68753 -3.83588 0.
11.7202 17.6186 0.
-1.22398 -1.87829 0.
-477.725 -748.14 0.
-3.89726 -18.4266 0.
-27.9643 -54.7133 0.
4.9052 9.867 0.
-2.85594 -5.69562 0.
2.69429 5.47369 0.
4.44594 10.0876 0.
-29.8726 -68.4347 0.
-145.769 -337.362 0.
-65.5758 -154.614 0.
-238.209 -564.856 0.
-87.908 -227.762 0.
-40.8388 -105.86 0.
-21.1435 -54.8279 0.
-40.4919 -108.335 0.
-3.62764 -9.71175 0.
-159.396 -421.245 0.
-43.2526 -114.245 0.
-37.6787 -99.4769 0.
-185.893 -512.593 0.
-2.31595 -6.3489 0.
-13.8669 -38.3261 0.
-6.6702 -18.4233 0.
-15.0891 -41.6461 0.
-12.4231 -34.0915 0.
1.15598 3.13718 0.
-0.0784863 -4.7207 0.
0.0771574 0.207743 0.
-0.00133236 -3.56188 0.
-4.53068 -11.7319 0.
-2.21066 -5.81934 0.
0.781294 2.08819 0.
0.243701 0.642004 0.
1.09255 3.00726 0.
-0.1886 -0.519199 0.
-0.136325 -0.377595 0.
-0.00866145 -3.26587 0.
-0.000197239 -4.7354 0.
1.49801 4.1089 0.
-0.0407808 -2.68574 0.
2.48006 6.86908 0.
1.47643 4.04666 0.
-0.420549 -10.5051 0.
-0.252816 -11.0637 0.
-0.755594 -2.03616 0.
-0.0384336 -11.7478 0.
5.12261 14.0969 0.
-41.7951 -115.143 0.
-0.30526 -0.816438 0.
-279.416 -750.59 0.
-5.17141 -13.2857 0.
-11.1789 -28.7916 0.
-82.2047 -212.22 0.
1.05461 2.78605 0.
-39.7081 -104.647 0.
-72.2944 -182.4 0.
-57.5504 -145.16 0.
-74.6302 -188.205 0.
-235.277 -531.472 0.
7.62013 17.0009 0.
-113.532 -246.418 0.
-2.38988 -5.21091 0.
-5.05892 -11.0775 0.
-5.08177 -10.0515 0.
-5.69715 -10.9426 0.
-207.779 -393.945 0.
-53.6571 -98.5 0.
9.15721 16.2907 0.
-343.79 -520.005 0.
1.27151 1.85716 0.
-0.397846 -0.562289 0.
-2.53903 -3.44164 0.
9.49487 12.7261 0.
-51.686 -66.439 0.
-108.702 -137.03 0.
6.60262 8.17235 0.
-263.501 -316.398 0.
11.4364 13.5478 0.
13.5371 15.8344 0.
-5.14187 -6.08546 0.
-9.60537 -11.3985 0.
-5.20794 -6.68303 0.
8.68303 10.9079 0.
13.2985 18.1566 0.
-4.38191 -9.01842 0.
7.45386 8.77194 0.
4.53519 5.39751 0.
14.3943 17.3166 0.
-13.9941 -16.1853 0.
-294.366 -340.304 0.
-151.456 -177.297 0.
-7.69711 -8.53958 0.
11.474 12.677 0.
12.1739 14.875 0.
-3.51725 -4.46658 0.
-67.0035 -88.5672 0.
-7.30806 -10.0412 0.
-429.453 -596.416 0.
11.7391 17.4751 0.
-9.14949 -13.9063 0.
-33.8214 -52.7212 0.
-3.65773 -18.3244 0.
-1.52924 -3.01589 0.
-97.7078 -198.444 0.
-4.20481 -8.43422 0.
-194.49 -396.486 0.
-6.38447 -14.4601 0.
-6.50146 -14.8683 0.
-101.699 -234.989 0.
1.64498 3.7691 0.
-7.07816 -16.4086 0.
5.24456 13.3802 0.
0.52364 1.33728 0.
1.20507 3.08069 0.
-68.0823 -181.35 0.
4.43193 11.8137 0.
-54.4047 -143.845 0.
6.81652 18.0163 0.
-0.776005 -2.05004 0.
-71.7342 -196.919 0.
2.78291 7.58217 0.
-46.5196 -128.605 0.
-37.6749 -104.086 0.
-26.5949 -73.4216 0.
1.91256 5.17607 0.
-0.435587 -1.1586 0.
-0.387983 -13.466 0.
-201.967 -559.401 0.
-0.00152779 -1.65854 0.
-177.475 -438.778 0.
-25.2212 -67.3344 0.
-47.7436 -132.183 0.
-133.332 -366.158 0.
-171.62 -475.342 0.
-25.8767 -71.6713 0.
-57.2488 -158.244 0.
-155.093 -425.875 0.
-44.5877 -123.337 0.
-30.2591 -83.4146 0.
-157.18 -431.094 0.
1.55257 4.2716 0.
2.71824 7.51976 0.
3.8993 9.678 0.
2.25986 5.83601 0.
1.28413 3.41381 0.
-0.0117312 -15.4046 0.
-0.636514 -1.76051 0.
0.228072 0.605522 0.
1.06641 2.84534 0.
-42.2817 -113.326 0.
-0.5711 -1.46568 0.
-5.55028 -14.2804 0.
-89.9377 -231.961 0.
1.50544 3.96385 0.
-76.8632 -202.621 0.
-14.0859 -35.733 0.
-0.284673 -0.717424 0.
3.37699 8.45291 0.
-6.00243 -13.5335 0.
-0.279749 -0.628619 0.
-136.583 -295.291 0.
-6.18817 -13.4414 0.
-26.0759 -56.8765 0.
-159.416 -318.357 0.
-6.04952 -11.7358 0.
-3.91076 -7.23127 0.
-1.12017 -2.00065 0.
2.67917 4.6199 0.
-18.4239 -27.3974 0.
-35.982 -51.6351 0.
-7.82353 -10.8564 0.
-344.259 -457.47 0.
-8.65958 -11.4154 0.
-49.3301 -60.2208 0.
-6.5315 -7.69241 0.
16.4559 18.7248 0.
6.00783 6.57677 0.
-149.139 -173.267 0.
-151.491 -173.85 0.
-45.9743 -53.0368 0.
-3.70942 -4.29337 0.
-4.75974 -5.93441 0.
-6.70556 -8.19323 0.
5.80372 6.94674 0.
-4.8353 -9.7005 0.
-88.6597 -102.039 0.
-59.4389 -69.1377 0.
-28.5732 -32.3517 0.
16.1087 17.0224 0.
15.9025 16.975 0.
-11.4898 -12.4189 0.
19.9527 21.4632 0.
-95.1729 -101.693 0.
-8.85808 -13.449 0.
-5.18948 -6.55498 0.
-224.323 -295.422 0.
2.00736 2.62459 0.
7.72221 10.11 0.
-1.47105 -2.10338 0.
8.7931 13.2102 0.
-244.537 -386.269 0.
1.47235 2.84247 0.
1.75846 3.50273 0.
-273.193 -559.468 0.
8.01721 16.1794 0.
6.4907 12.8435 0.
8.18859 17.9459 0.
-5.60458 -12.3973 0.
1.36286 3.04243 0.
-2.14579 -4.92762 0.
-76.7164 -178.197 0.
-58.2996 -148.713 0.
-11.3823 -29.0711 0.
-2.35108 -6.01122 0.
-104.882 -278.099 0.
-40.913 -108.538 0.
-9.82019 -25.9815 0.
-0.718462 -1.90004 0.
-5.41451 -13.9554 0.
0.639139 1.72524 0.
2.02288 5.44495 0.
3.68971 9.90074 0.
-115.718 -320.519 0.
-61.6963 -170.823 0.
-105.497 -278.781 0.
-0.832859 -2.17971 0.
-44.5276 -115.287 0.
-1.47716 -4.00686 0.
-0.0215133 -1.04875 0.
1.65312 4.1001 0.
0.913814 2.45799 0.
0.150101 0.415746 0.
0.596429 1.62143 0.
-0.00705178 -5.21457 0.
-0.00023154 -5.43265 0.
-0.806543 -2.23056 0.
-0.800824 -2.20125 0.
-0.000235938 -5.46418 0.
-0.651171 -1.80021 0.
-1.23181 -3.39302 0.
-0.159883 -11.1686 0.
-206.084 -566.443 0.
-31.3065 -81.4391 0.
-16.6163 -43.638 0.
-122.018 -323.512 0.
1.43091 3.96177 0.
-110.331 -305.558 0.
6.74033 17.8487 0.
-0.142709 -0.3775 0.
-2.53459 -6.69766 0.
-3.47332 -8.90473 0.
3.29971 8.48115 0.
-19.6462 -51.4817 0.
-28.5801 -74.9923 0.
-152.294 -400.063 0.
-24.853 -63.1489 0.
1.23117 3.1076 0.
-14.5114 -36.3839 0.
-60.3389 -136.313 0.
-1.37549 -3.08018 0.
-5.6132 -11.9982 0.
8.15899 17.2904 0.
8.25501 17.3462 0.
-26.4024 -53.3312 0.
3.70243 7.25801 0.
-224.231 -416.427 0.
7.51641 13.4967 0.
0.861087 1.4912 0.
-10.4625 -15.1216 0.
3.72341 5.21166 0.
-1.18199 -1.60223 0.
13.273 17.1164 0.
-110.511 -143.025 0.
-294.408 -357.523 0.
14.9477 17.4938 0.
13.0732 14.7689 0.
-10.4218 -10.9891 0.
2.09884 2.22677 0.
11.6601 12.439 0.
0.0667311 0.0713333 0.
-10.896 -12.2929 0.
-149.811 -169.625 0.
-5.95939 -7.06256 0.
14.6646 17.0396 0.
-0.61846 -1.22358 0.
-7.33047 -7.63683 0.
-1.6511 -1.69283 0.
0.372484 0.380845 0.
14.0464 14.4962 0.
-182.663 -190.173 0.
-22.9106 -24.0096 0.
-97.4561 -101.431 0.
-123.919 -128.073 0.
4.05318 4.81322 0.
0.338857 0.416854 0.
1.99239 2.54623 0.
11.3437 14.6067 0.
-207.072 -266.957 0.
4.29639 6.20119 0.
2.78721 4.23585 0.
-192.645 -308.269 0.
-0.430943 -0.840405 0.
-2.94234 -14.1567 0.
7.7795 15.2077 0.
2.04167 3.96681 0.
-58.7676 -117.166 0.
9.33527 20.4137 0.
-3.3337 -7.35847 0.
-122.244 -272.475 0.
-3.70978 -8.53914 0.
-67.15 -156.352 0.
-40.3372 -102.924 0.
-1.25533 -3.20689 0.
5.09304 12.5403 0.
-7.86203 -20.1517 0.
-4.95538 -12.6958 0.
-19.5078 -49.9121 0.
-16.4603 -42.2416 0.
-17.3327 -44.6126 0.
-0.730606 -1.96503 0.
-2.06203 -5.52907 0.
0.052101 0.139235 0.
-49.4111 -136.775 0.
-0.0133971 -14.5775 0.
-1.88225 -5.0247 0.
1.29649 3.42837 0.
4.59926 12.0438 0.
4.56544 11.7899 0.
5.17638 12.6487 0.
-0.0429628 -1.13962 0.
1.08403 2.93132 0.
1.61679 4.47794 0.
2.27742 6.10683 0.
0.687674 1.88416 0.
0.348453 0.965025 0.
0.175295 0.484942 0.
-0.0176845 -6.49848 0.
-0.000406319 -6.45632 0.
0.807767 2.23642 0.
2.38109 6.5778 0.
-0.36717 -12.2666 0.
5.05879 13.6112 0.
0.929831 2.43715 0.
-2.91819 -7.71786 0.
-3.43531 -9.16412 0.
2.3033 6.36677 0.
-53.469 -147.916 0.
-0.0324618 -0.0857661 0.
2.78405 7.34817 0.
5.06669 13.3592 0.
6.27296 15.6799 0.
2.37696 5.93822 0.
7.12188 18.1318 0.
7.40628 18.7804 0.
5.18006 13.0835 0.
-8.94105 -22.7539 0.
-15.707 -39.7134 0.
-60.1956 -151.203 0.
-125.016 -282.996 0.
2.37446 5.32728 0.
-113.339 -241.765 0.
-7.01171 -14.8159 0.
-1.25396 -2.62691 0.
4.17656 8.1474 0.
9.70348 18.2104 0.
-4.26974 -16.0874 0.
-5.73278 -10.3519 0.
-4.48652 -16.6353 0.
-122.521 -178.102 0.
11.7299 16.5095 0.
9.61887 13.1007 0.
-23.6102 -29.7363 0.
5.28841 6.61374 0.
-21.9496 -25.9714 0.
-2.94348 -3.34923 0.
9.60099 10.7521 0.
-60.6487 -61.5424 0.
8.13019 8.31442 0.
16.6255 17.1204 0.
11.551 12.0861 0.
14.2813 14.8911 0.
14.3214 14.8709 0.
9.54811 9.99067 0.
11.4114 12.1348 0.
-3.87468 -3.92434 0.
17.4724 17.4419 0.
-91.2036 -89.4546 0.
-7.16375 -7.14835 0.
-144.875 -145.751 0.
-12.4975 -10.368 0.
-0.175381 -0.164755 0.
-2.57453 -2.48651 0.
-28.727 -28.5439 0.
2.27518 2.63752 0.
13.3405 16.0268 0.
-92.5441 -115.73 0.
-23.719 -30.0636 0.
-88.7715 -112.654 0.
-7.23206 -16.0743 0.
1.7487 2.5895 0.
-4.85917 -7.4312 0.
-1.80334 -3.29091 0.
2.75969 5.2179 0.
-42.2186 -82.6316 0.
-5.69608 -11.1587 0.
-83.8867 -168.67 0.
-13.3753 -29.1857 0.
-17.8998 -39.4281 0.
6.03044 12.5097 0.
6.96075 15.1078 0.
0.397634 0.874456 0.
1.2707 3.07822 0.
2.33906 5.70743 0.
-3.92084 -9.63634 0.
-17.6321 -45.0513 0.
-3.71689 -9.49199 0.
-40.4635 -103.303 0.
-56.4636 -144.676 0.
-74.0848 -190.383 0.
-85.173 -228.202 0.
-0.26938 -17.3705 0.
1.45237 3.86484 0.
-1.15788 -3.19878 0.
0.247006 0.680494 0.
-0.314247 -0.830375 0.
4.75159 12.5952 0.
3.93887 10.4723 0.
-22.1216 -55.3793 0.
-0.733459 -10.3096 0.
-15.0712 -40.2254 0.
-9.94924 -27.2137 0.
-39.2091 -108.497 0.
0.628797 1.69164 0.
-23.5754 -64.3528 0.
2.1799 6.0321 0.
2.1638 5.99188 0.
-59.2 -163.309 0.
0.10083 0.279262 0.
-7.28338 -20.1338 0.
-48.3948 -132.827 0.
-0.654655 -16.0126 0.
-0.0272747 -0.070942 0.
-29.1203 -75.4165 0.
-19.6581 -51.0565 0.
-1.38682 -3.72033 0.
5.78667 15.9505 0.
-3.27123 -9.02906 0.
3.14195 8.28232 0.
-2.68302 -7.06516 0.
-78.2487 -205.795 0.
-41.9616 -104.381 0.
-51.32 -127.594 0.
-3.07921 -7.81801 0.
2.14531 5.42493 0.
-7.04106 -17.7333 0.
-2.01085 -4.89232 0.
-2.43111 -5.82903 0.
4.4173 9.4098 0.
8.5897 18.1899 0.
8.12853 17.1105 0.
-29.3849 -62.4722 0.
0.950903 2.00326 0.
4.23706 8.84877 0.
-94.8523 -186.707 0.
3.63432 6.87631 0.
0.406067 0.70703 0.
-4.71145 -16.2236 0.
-5.24044 -16.7896 0.
8.93585 12.6789 0.
1.96217 2.72222 0.
4.33343 5.93053 0.
-151.191 -185.436 0.
-55.4241 -67.6473 0.
-125.108 -147.181 0.
14.3722 16.2255 0.
-8.40144 -10.0236 0.
-11.5475 -10.9693 0.
6.8721 6.42724 0.
8.79616 8.1056 0.
-126.019 -128.799 0.
-42.6375 -43.4874 0.
21.4389 21.7986 0.
7.45285 7.32222 0.
-14.1645 -14.1975 0.
-31.6528 -30.7946 0.
2.06055 1.53692 0.
10.5378 8.28733 0.
7.81917 6.96048 0.
14.8213 13.1621 0.
-4.66289 -4.128 0.
-7.23236 -6.76317 0.
-0.658169 -0.633213 0.
-121.775 -120.553 0.
8.38422 9.45783 0.
0.597602 0.323265 0.
-11.8726 -10.322 0.
-0.864538 -0.937661 0.
4.89568 5.75546 0.
2.32997 3.3711 0.
2.11487 3.16398 0.
-33.2191 -51.3476 0.
2.35296 4.29193 0.
7.0153 13.2771 0.
-74.3504 -145.799 0.
-5.19551 -12.6174 0.
3.41734 5.83355 0.
-4.34443 -8.56495 0.
5.16155 10.3916 0.
-5.89255 -12.1228 0.
0.086241 0.187536 0.
-49.1741 -108.369 0.
-22.9362 -55.4465 0.
-23.1821 -56.4562 0.
-44.8329 -109.995 0.
-29.3341 -74.7113 0.
-12.9564 -32.9793 0.
-1.82702 -6.77969 0.
-2.82877 -15.6985 0.
3.56 7.85923 0.
1.56059 3.85001 0.
-0.645361 -14.4881 0.
-2.94805 -7.49743 0.
-5.78376 -15.7574 0.
-27.6437 -75.0824 0.
1.85666 4.90491 0.
-5.77531 -15.3047 0.
-13.1469 -34.9451 0.
5.30306 12.7555 0.
1.58446 3.58954 0.
3.0297 8.12109 0.
0.0659273 0.180523 0.
-0.00249573 -6.13874 0.
0.223692 0.602349 0.
-0.0438497 -7.14178 0.
1.5867 4.39021 0.
-0.362634 -1.00429 0.
0.194338 0.536578 0.
-0.000844232 -7.12002 0.
-1.57189 -4.34894 0.
2.91681 8.02393 0.
2.64547 6.437 0.
-3.07307 -7.75394 0.
4.15728 10.7939 0.
4.35371 11.3358 0.
5.78476 15.1041 0.
-3.82916 -10.2862 0.
0.396403 1.0623 0.
-5.07879 -12.5652 0.
-1.20591 -2.86586 0.
7.78503 17.6751 0.
4.94737 9.29459 0.
14.9284 23.5952 0.
-25.574 -64.7419 0.
-12.2639 -30.9225 0.
-26.3274 -66.1093 0.
-65.0957 -158.836 0.
5.46568 13.1401 0.
-35.1176 -75.0425 0.
-3.09229 -6.56861 0.
-1.24291 -2.62445 0.
-2.22254 -4.34141 0.
9.64653 17.6896 0.
8.9958 15.4742 0.
-2.85334 -6.6204 0.
-0.102688 -0.196075 0.
-91.5685 -158.648 0.
0.452486 0.76309 0.
1.27559 2.09493 0.
6.08306 8.68333 0.
-7.94108 -11.0797 0.
-4.25814 -5.80669 0.
-3.62186 -3.8729 0.
9.05809 8.2664 0.
-32.8894 -38.3747 0.
13.0567 14.6057 0.
-8.70079 -10.1492 0.
-11.7016 -10.9373 0.
16.4166 15.1094 0.
7.90721 7.17185 0.
12.2406 10.9708 0.
-14.3271 -10.6998 0.
-17.0746 -12.0621 0.
5.08526 3.35904 0.
5.93402 3.96505 0.
