# vtk DataFile Version 2.0
test grain
ASCII
DATASET UNSTRUCTURED_GRID
POINTS 5000 float
0.49775 0.000610592 0.
0.50059 0.000796254 0.
0.503071 0.000863971 0.
0.505532 0.00092972 0.
0.507651 0.00094632 0.
0.509771 0.000963248 0.
0.511861 0.000975808 0.
0.513904 0.000980744 0.
0.515947 0.000985704 0.
0.517969 0.000989525 0.
0.519979 0.000992763 0.
0.52199 0.000996012 0.
0.523993 0.000996837 0.
0.525994 0.000997351 0.
0.527995 0.000997833 0.
0.529996 0.000998062 0.
0.531997 0.000998291 0.
0.533998 0.000998524 0.
0.535999 0.000998768 0.
0.537999 0.000999011 0.
0.539999 0.000999155 0.
0.541999 0.00099922 0.
0.543999 0.000999284 0.
0.545999 0.000999297 0.
0.548 0.000999294 0.
0.55 0.000999291 0.
0.551999 0.000999263 0.
0.553999 0.000999236 0.
0.555999 0.000999225 0.
0.557999 0.000999272 0.
0.559999 0.000999319 0.
0.561999 0.000999353 0.
0.563999 0.000999371 0.
0.565999 0.000999389 0.
0.567999 0.000999399 0.
0.569999 0.000999404 0.
0.571999 0.000999409 0.
0.573999 0.00099936 0.
0.575999 0.000999303 0.
0.577999 0.000999257 0.
0.579999 0.000999292 0.
0.581999 0.000999327 0.
0.583999 0.00099935 0.
0.585999 0.000999347 0.
0.587999 0.000999344 0.
0.589998 0.000999464 0.
0.591998 0.000999682 0.
0.593998 0.000999899 0.
0.595999 0.000999487 0.
0.597999 0.000998894 0.
0.6 0.000998302 0.
0.602001 0.000998882 0.
0.604002 0.000999462 0.
0.606002 0.000999868 0.
0.608002 0.000999664 0.
0.610002 0.000999461 0.
0.612002 0.00099935 0.
0.614001 0.000999357 0.
0.616001 0.000999363 0.
0.618001 0.000999336 0.
0.620001 0.000999292 0.
0.622001 0.000999248 0.
0.624001 0.000999292 0.
0.626001 0.000999348 0.
0.628001 0.000999397 0.
0.630001 0.0009994 0.
0.632001 0.000999403 0.
0.634001 0.000999399 0.
0.636001 0.000999382 0.
0.638001 0.000999364 0.
0.640001 0.000999324 0.
0.642001 0.000999265 0.
0.644001 0.000999206 0.
0.646001 0.000999212 0.
0.648001 0.000999237 0.
0.65 0.000999263 0.
0.652001 0.000999283 0.
0.654001 0.000999302 0.
0.656001 0.000999296 0.
0.658001 0.000999196 0.
0.660001 0.000999097 0.
0.662001 0.000998844 0.
0.664002 0.000998402 0.
0.666003 0.000997959 0.
0.668004 0.000997792 0.
0.670005 0.000997761 0.
0.672007 0.000997731 0.
0.674009 0.000996728 0.
0.676012 0.000995608 0.
0.678016 0.00099406 0.
0.680036 0.000989207 0.
0.682056 0.000984379 0.
0.684089 0.000979256 0.
0.686149 0.000973495 0.
0.688209 0.000967768 0.
0.690373 0.000940608 0.
0.692592 0.00090318 0.
0.694833 0.000864386 0.
0.697634 0.000762846 0.
0.700441 0.000663857 0.
0.495702 0.00157775 0.
0.499072 0.00229425 0.
0.50194 0.002557 0.
0.504763 0.00277284 0.
0.507133 0.00283057 0.
0.509431 0.00288397 0.
0.511664 0.00292686 0.
0.513758 0.00294181 0.
0.515852 0.00295682 0.
0.517907 0.00296842 0.
0.519938 0.00297818 0.
0.52197 0.00298797 0.
0.523978 0.0029905 0.
0.525982 0.00299204 0.
0.527986 0.0029935 0.
0.529989 0.00299418 0.
0.531992 0.00299487 0.
0.533995 0.00299557 0.
0.535996 0.0029963 0.
0.537997 0.00299703 0.
0.539998 0.00299747 0.
0.541998 0.00299766 0.
0.543998 0.00299785 0.
0.545998 0.00299789 0.
0.547999 0.00299788 0.
0.549999 0.00299787 0.
0.551998 0.00299779 0.
0.553998 0.00299771 0.
0.555998 0.00299768 0.
0.557998 0.00299782 0.
0.559998 0.00299796 0.
0.561998 0.00299806 0.
0.563998 0.00299811 0.
0.565998 0.00299817 0.
0.567998 0.0029982 0.
0.569998 0.00299821 0.
0.571998 0.00299823 0.
0.573998 0.00299808 0.
0.575997 0.00299791 0.
0.577997 0.00299777 0.
0.579997 0.00299788 0.
0.581996 0.00299798 0.
0.583996 0.00299805 0.
0.585996 0.00299804 0.
0.587996 0.00299803 0.
0.589995 0.00299839 0.
0.591995 0.00299904 0.
0.593994 0.0029997 0.
0.595996 0.00299846 0.
0.597998 0.00299668 0.
0.6 0.00299491 0.
0.602002 0.00299665 0.
0.604005 0.00299839 0.
0.606006 0.0029996 0.
0.608006 0.00299899 0.
0.610005 0.00299838 0.
0.612005 0.00299805 0.
0.614004 0.00299807 0.
0.616004 0.00299809 0.
0.618004 0.00299801 0.
0.620004 0.00299788 0.
0.622003 0.00299774 0.
0.624003 0.00299788 0.
0.626003 0.00299804 0.
0.628002 0.00299819 0.
0.630002 0.0029982 0.
0.632002 0.00299821 0.
0.634002 0.0029982 0.
0.636002 0.00299815 0.
0.638002 0.00299809 0.
0.640002 0.00299797 0.
0.642002 0.00299779 0.
0.644002 0.00299762 0.
0.646002 0.00299764 0.
0.648002 0.00299771 0.
0.650001 0.00299779 0.
0.652002 0.00299785 0.
0.654002 0.00299791 0.
0.656002 0.00299789 0.
0.658002 0.00299759 0.
0.660003 0.00299729 0.
0.662004 0.00299653 0.
0.664006 0.0029952 0.
0.666008 0.00299387 0.
0.668011 0.00299338 0.
0.670015 0.00299329 0.
0.67202 0.0029932 0.
0.674027 0.00299016 0.
0.676035 0.00298679 0.
0.678048 0.00298204 0.
0.680104 0.00296737 0.
0.682159 0.00295277 0.
0.684241 0.00293734 0.
0.686367 0.00291987 0.
0.688492 0.00290251 0.
0.690899 0.00280429 0.
0.693389 0.00268554 0.
0.696106 0.00252287 0.
0.699275 0.00220727 0.
0.702563 0.00169795 0.
0.49331 0.00220264 0.
0.496967 0.00339454 0.
0.500614 0.00420086 0.
0.503807 0.00457466 0.
0.506565 0.00470265 0.
0.509056 0.00479626 0.
0.511462 0.00487716 0.
0.513608 0.00490229 0.
0.515755 0.00492755 0.
0.517844 0.0049471 0.
0.519897 0.00496345 0.
0.52195 0.00497985 0.
0.523963 0.00498416 0.
0.52597 0.00498673 0.
0.527977 0.00498916 0.
0.529982 0.00499031 0.
0.531987 0.00499145 0.
0.533991 0.00499262 0.
0.535993 0.00499384 0.
0.537995 0.00499505 0.
0.539996 0.00499578 0.
0.541997 0.0049961 0.
0.543997 0.00499642 0.
0.545997 0.00499648 0.
0.547998 0.00499647 0.
0.549998 0.00499645 0.
0.551997 0.00499632 0.
0.553997 0.00499618 0.
0.555997 0.00499613 0.
0.557997 0.00499636 0.
0.559997 0.00499659 0.
0.561997 0.00499676 0.
0.563997 0.00499686 0.
0.565997 0.00499695 0.
0.567997 0.00499699 0.
0.569997 0.00499702 0.
0.571997 0.00499705 0.
0.573996 0.0049968 0.
0.575995 0.00499652 0.
0.577994 0.00499629 0.
0.579994 0.00499646 0.
0.581994 0.00499664 0.
0.583994 0.00499675 0.
0.585993 0.00499673 0.
0.587993 0.00499672 0.
0.589992 0.00499732 0.
0.591991 0.00499841 0.
0.59399 0.00499949 0.
0.595993 0.00499744 0.
0.597997 0.00499447 0.
0.6 0.00499151 0.
0.602004 0.00499441 0.
0.604008 0.00499731 0.
0.60601 0.00499934 0.
0.608009 0.00499832 0.
0.610008 0.0049973 0.
0.612008 0.00499675 0.
0.614007 0.00499678 0.
0.616007 0.00499682 0.
0.618006 0.00499668 0.
0.620006 0.00499646 0.
0.622006 0.00499624 0.
0.624005 0.00499646 0.
0.626004 0.00499674 0.
0.628004 0.00499699 0.
0.630003 0.004997 0.
0.632003 0.00499701 0.
0.634003 0.004997 0.
0.636003 0.00499691 0.
0.638003 0.00499682 0.
0.640003 0.00499662 0.
0.642003 0.00499632 0.
0.644003 0.00499603 0.
0.646003 0.00499606 0.
0.648003 0.00499619 0.
0.650002 0.00499631 0.
0.652003 0.00499641 0.
0.654003 0.00499651 0.
0.656003 0.00499648 0.
0.658004 0.00499598 0.
0.660004 0.00499548 0.
0.662006 0.00499422 0.
0.66401 0.004992 0.
0.666013 0.00498979 0.
0.668019 0.00498896 0.
0.670026 0.00498881 0.
0.672033 0.00498867 0.
0.674045 0.00498356 0.
0.676058 0.00497794 0.
0.678081 0.00496983 0.
0.680173 0.00494519 0.
0.682264 0.00492068 0.
0.684397 0.00489483 0.
0.686592 0.00486541 0.
0.688785 0.00483617 0.
0.691509 0.00464199 0.
0.694297 0.00443271 0.
0.697677 0.00406858 0.
0.701314 0.00347265 0.
0.70508 0.00232671 0.
0.490375 0.00235647 0.
0.494659 0.00404419 0.
0.498814 0.00531479 0.
0.502192 0.00583243 0.
0.505351 0.00615659 0.
0.508008 0.00635233 0.
0.510649 0.00655274 0.
0.512964 0.00664821 0.
0.515274 0.00673932 0.
0.517501 0.00681021 0.
0.519636 0.0068557 0.
0.521773 0.00690197 0.
0.523835 0.00692735 0.
0.525882 0.00694893 0.
0.527926 0.00696916 0.
0.529941 0.00697202 0.
0.531956 0.00697488 0.
0.533968 0.00697818 0.
0.535976 0.00698244 0.
0.537984 0.0069867 0.
0.539989 0.0069895 0.
0.541991 0.00699111 0.
0.543993 0.00699271 0.
0.545994 0.00699339 0.
0.547995 0.00699379 0.
0.549996 0.0069942 0.
0.551995 0.00699408 0.
0.553995 0.00699397 0.
0.555995 0.00699396 0.
0.557995 0.00699433 0.
0.559995 0.00699469 0.
0.561995 0.00699496 0.
0.563995 0.0069951 0.
0.565995 0.00699524 0.
0.567995 0.00699529 0.
0.569995 0.0069953 0.
0.571995 0.00699531 0.
0.573994 0.00699507 0.
0.575993 0.0069948 0.
0.577992 0.00699459 0.
0.579992 0.00699481 0.
0.581992 0.00699503 0.
0.583991 0.00699521 0.
0.585991 0.00699528 0.
0.58799 0.00699535 0.
0.589989 0.00699589 0.
0.591988 0.00699679 0.
0.593987 0.00699769 0.
0.595991 0.00699583 0.
0.597996 0.00699316 0.
0.6 0.0069905 0.
0.602005 0.00699311 0.
0.60401 0.00699572 0.
0.606013 0.00699755 0.
0.608012 0.00699671 0.
0.610011 0.00699587 0.
0.61201 0.00699538 0.
0.61401 0.00699532 0.
0.616009 0.00699527 0.
0.618009 0.00699508 0.
0.620008 0.00699483 0.
0.622008 0.00699458 0.
0.624007 0.00699479 0.
0.626006 0.00699505 0.
0.628005 0.00699529 0.
0.630005 0.00699531 0.
0.632005 0.00699534 0.
0.634005 0.00699531 0.
0.636005 0.00699516 0.
0.638005 0.00699502 0.
0.640005 0.0069947 0.
0.642005 0.00699425 0.
0.644005 0.0069938 0.
0.646005 0.00699375 0.
0.648005 0.00699382 0.
0.650005 0.00699389 0.
0.652006 0.00699325 0.
0.654007 0.00699261 0.
0.656008 0.00699162 0.
0.658012 0.00698939 0.
0.660016 0.00698717 0.
0.662023 0.00698327 0.
0.664033 0.00697731 0.
0.666044 0.00697136 0.
0.668062 0.00696764 0.
0.670083 0.00696493 0.
0.672105 0.00696223 0.
0.674174 0.00693036 0.
0.676246 0.00689673 0.
0.67834 0.00685916 0.
0.680527 0.00680005 0.
0.68271 0.00674213 0.
0.685028 0.00664924 0.
0.687433 0.00653732 0.
0.689924 0.00637998 0.
0.692853 0.00601444 0.
0.695915 0.00564792 0.
0.699559 0.00515017 0.
0.703837 0.00414898 0.
0.707906 0.00258731 0.
0.487356 0.002324 0.
0.492106 0.0043029 0.
0.496336 0.00580218 0.
0.500305 0.00687428 0.
0.503755 0.00746216 0.
0.506798 0.00782888 0.
0.509667 0.00816404 0.
0.512238 0.00836135 0.
0.514732 0.00852701 0.
0.517137 0.00866659 0.
0.51936 0.00874309 0.
0.521587 0.00882093 0.
0.523704 0.00886885 0.
0.525791 0.00890993 0.
0.527874 0.00894906 0.
0.529899 0.00895365 0.
0.531924 0.00895825 0.
0.533945 0.00896368 0.
0.535959 0.00897099 0.
0.537973 0.00897831 0.
0.539982 0.00898321 0.
0.541986 0.0089861 0.
0.54399 0.008989 0.
0.545992 0.00899029 0.
0.547993 0.00899112 0.
0.549994 0.00899194 0.
0.551993 0.00899185 0.
0.553993 0.00899176 0.
0.555993 0.0089918 0.
0.557993 0.00899229 0.
0.559993 0.00899278 0.
0.561993 0.00899315 0.
0.563993 0.00899334 0.
0.565993 0.00899354 0.
0.567993 0.00899359 0.
0.569993 0.00899358 0.
0.571993 0.00899357 0.
0.573992 0.00899334 0.
0.575991 0.00899309 0.
0.57799 0.00899289 0.
0.57999 0.00899316 0.
0.581989 0.00899343 0.
0.583989 0.00899367 0.
0.585988 0.00899383 0.
0.587987 0.00899399 0.
0.589987 0.00899445 0.
0.591986 0.00899516 0.
0.593984 0.00899587 0.
0.595989 0.00899421 0.
0.597995 0.00899186 0.
0.6 0.0089895 0.
0.602006 0.00899181 0.
0.604012 0.00899413 0.
0.606016 0.00899577 0.
0.608015 0.0089951 0.
0.610014 0.00899443 0.
0.612013 0.008994 0.
0.614012 0.00899386 0.
0.616011 0.00899372 0.
0.618011 0.00899349 0.
0.62001 0.0089932 0.
0.62201 0.00899292 0.
0.624009 0.00899311 0.
0.626008 0.00899336 0.
0.628007 0.00899359 0.
0.630007 0.00899363 0.
0.632007 0.00899366 0.
0.634007 0.00899362 0.
0.636007 0.00899342 0.
0.638007 0.00899322 0.
0.640007 0.00899279 0.
0.642007 0.00899218 0.
0.644007 0.00899157 0.
0.646007 0.00899144 0.
0.648007 0.00899146 0.
0.650007 0.00899147 0.
0.652009 0.00899009 0.
0.654011 0.00898871 0.
0.656013 0.00898675 0.
0.65802 0.00898279 0.
0.660027 0.00897883 0.
0.662039 0.00897226 0.
0.664057 0.00896254 0.
0.666076 0.00895284 0.
0.668106 0.0089462 0.
0.670142 0.00894089 0.
0.672177 0.00893559 0.
0.674308 0.0088747 0.
0.676441 0.00881201 0.
0.678615 0.00874323 0.
0.680904 0.00864716 0.
0.683188 0.00855305 0.
0.68577 0.00836423 0.
0.688418 0.0081567 0.
0.691327 0.00777327 0.
0.694453 0.00721711 0.
0.697996 0.00660449 0.
0.701998 0.00578016 0.
0.706387 0.00440551 0.
0.711125 0.0024931 0.
0.484038 0.00218596 0.
0.489151 0.00427181 0.
0.493774 0.0060548 0.
0.498011 0.00756106 0.
0.501991 0.00860065 0.
0.505551 0.00923342 0.
0.508638 0.00968481 0.
0.511489 0.01 0.
0.514143 0.0102376 0.
0.516731 0.0104676 0.
0.519037 0.0105785 0.
0.521351 0.0106931 0.
0.523534 0.0107741 0.
0.525665 0.0108457 0.
0.527795 0.0109164 0.
0.529836 0.0109244 0.
0.531876 0.0109324 0.
0.533911 0.0109415 0.
0.535932 0.0109532 0.
0.537954 0.010965 0.
0.539968 0.0109732 0.
0.541975 0.0109782 0.
0.543983 0.0109833 0.
0.545986 0.0109858 0.
0.547989 0.0109875 0.
0.549991 0.0109892 0.
0.551991 0.0109894 0.
0.553991 0.0109895 0.
0.555991 0.0109897 0.
0.557991 0.0109904 0.
0.559991 0.010991 0.
0.561992 0.0109915 0.
0.563992 0.0109918 0.
0.565992 0.010992 0.
0.567992 0.0109921 0.
0.569992 0.0109921 0.
0.571992 0.0109921 0.
0.573991 0.0109919 0.
0.57599 0.0109917 0.
0.577989 0.0109916 0.
0.579988 0.0109918 0.
0.581988 0.0109921 0.
0.583987 0.0109924 0.
0.585987 0.0109926 0.
0.587986 0.0109928 0.
0.589985 0.0109932 0.
0.591984 0.0109937 0.
0.593983 0.0109942 0.
0.595988 0.0109929 0.
0.597994 0.0109912 0.
0.6 0.0109894 0.
0.602007 0.0109911 0.
0.604013 0.0109928 0.
0.606018 0.0109941 0.
0.608017 0.0109936 0.
0.610016 0.0109932 0.
0.612015 0.0109928 0.
0.614014 0.0109927 0.
0.616013 0.0109925 0.
0.618012 0.0109922 0.
0.620012 0.0109919 0.
0.622011 0.0109916 0.
0.62401 0.0109918 0.
0.626009 0.010992 0.
0.628008 0.0109921 0.
0.630008 0.0109922 0.
0.632008 0.0109922 0.
0.634008 0.0109921 0.
0.636008 0.0109918 0.
0.638009 0.0109915 0.
0.640009 0.0109909 0.
0.642009 0.0109901 0.
0.64401 0.0109893 0.
0.64601 0.0109888 0.
0.648011 0.0109885 0.
0.650011 0.0109882 0.
0.652014 0.0109856 0.
0.654018 0.010983 0.
0.656023 0.0109793 0.
0.658035 0.0109721 0.
0.660047 0.010965 0.
0.662066 0.0109547 0.
0.664094 0.0109407 0.
0.666122 0.0109267 0.
0.668173 0.0109111 0.
0.670233 0.0108952 0.
0.672293 0.0108791 0.
0.674488 0.010779 0.
0.676681 0.0106795 0.
0.678945 0.0105694 0.
0.681337 0.0104312 0.
0.683737 0.0102933 0.
0.686568 0.00999991 0.
0.68948 0.00968813 0.
0.692796 0.00903859 0.
0.696252 0.0082778 0.
0.700145 0.00743896 0.
0.704713 0.0060397 0.
0.709351 0.00442692 0.
0.714434 0.00221418 0.
0.48062 0.00199926 0.
0.48632 0.00422018 0.
0.491226 0.00614151 0.
0.495818 0.00800926 0.
0.500552 0.00954799 0.
0.504336 0.010335 0.
0.507607 0.0108988 0.
0.510714 0.0113996 0.
0.513487 0.0117787 0.
0.516223 0.0121613 0.
0.518638 0.0123336 0.
0.521046 0.0125012 0.
0.523313 0.0126326 0.
0.525499 0.0127502 0.
0.527685 0.0128686 0.
0.529748 0.0128831 0.
0.53181 0.0128965 0.
0.533864 0.0129112 0.
0.535895 0.0129288 0.
0.537926 0.0129466 0.
0.539947 0.0129592 0.
0.54196 0.0129674 0.
0.543973 0.0129756 0.
0.545979 0.0129799 0.
0.547983 0.012983 0.
0.549987 0.012986 0.
0.551987 0.0129866 0.
0.553988 0.0129871 0.
0.555989 0.0129878 0.
0.557989 0.0129886 0.
0.55999 0.0129894 0.
0.56199 0.01299 0.
0.56399 0.0129903 0.
0.565991 0.0129907 0.
0.567991 0.0129908 0.
0.569991 0.0129909 0.
0.571991 0.0129909 0.
0.57399 0.0129908 0.
0.575989 0.0129907 0.
0.577988 0.0129906 0.
0.579987 0.0129909 0.
0.581987 0.0129911 0.
0.583986 0.0129914 0.
0.585986 0.0129916 0.
0.587985 0.0129918 0.
0.589984 0.012992 0.
0.591983 0.0129923 0.
0.593983 0.0129926 0.
0.595988 0.012992 0.
0.597994 0.0129911 0.
0.6 0.0129903 0.
0.602007 0.0129911 0.
0.604013 0.0129919 0.
0.606018 0.0129924 0.
0.608017 0.0129922 0.
0.610016 0.012992 0.
0.612015 0.0129919 0.
0.614015 0.0129917 0.
0.616014 0.0129915 0.
0.618013 0.0129913 0.
0.620013 0.012991 0.
0.622012 0.0129907 0.
0.624011 0.0129907 0.
0.62601 0.0129909 0.
0.62801 0.012991 0.
0.63001 0.0129909 0.
0.63201 0.0129908 0.
0.63401 0.0129906 0.
0.63601 0.0129903 0.
0.63801 0.01299 0.
0.640011 0.0129892 0.
0.642012 0.012988 0.
0.644012 0.0129869 0.
0.646014 0.0129859 0.
0.648015 0.012985 0.
0.650017 0.012984 0.
0.652022 0.0129797 0.
0.654028 0.0129753 0.
0.656037 0.0129692 0.
0.658056 0.0129573 0.
0.660075 0.0129454 0.
0.662105 0.0129303 0.
0.664145 0.0129114 0.
0.666186 0.0128926 0.
0.668267 0.0128602 0.
0.670363 0.0128241 0.
0.672466 0.0127849 0.
0.674728 0.0126323 0.
0.676985 0.012482 0.
0.679374 0.0123036 0.
0.681899 0.0120928 0.
0.684494 0.011833 0.
0.687433 0.0113348 0.
0.690536 0.0108185 0.
0.693997 0.0100851 0.
0.697814 0.00920391 0.
0.702303 0.00796337 0.
0.707117 0.00622651 0.
0.71209 0.00440818 0.
0.717829 0.00198196 0.
0.477343 0.00187056 0.
0.48341 0.00417953 0.
0.488783 0.0061599 0.
0.493672 0.00826321 0.
0.498827 0.0101154 0.
0.502814 0.0111745 0.
0.506455 0.0120149 0.
0.509814 0.0127116 0.
0.512793 0.013278 0.
0.515662 0.0138119 0.
0.518218 0.0140796 0.
0.520723 0.0143016 0.
0.523087 0.014486 0.
0.525327 0.0146506 0.
0.52757 0.0148178 0.
0.529659 0.0148416 0.
0.531743 0.0148604 0.
0.533816 0.0148807 0.
0.535857 0.0149043 0.
0.537898 0.0149281 0.
0.539926 0.0149452 0.
0.541945 0.0149565 0.
0.543963 0.0149679 0.
0.545971 0.014974 0.
0.547977 0.0149784 0.
0.549982 0.0149828 0.
0.551984 0.0149838 0.
0.553985 0.0149848 0.
0.555987 0.0149858 0.
0.557987 0.0149868 0.
0.559988 0.0149878 0.
0.561989 0.0149886 0.
0.563989 0.0149889 0.
0.565989 0.0149893 0.
0.56799 0.0149895 0.
0.56999 0.0149896 0.
0.57199 0.0149898 0.
0.573989 0.0149897 0.
0.575988 0.0149897 0.
0.577987 0.0149897 0.
0.579986 0.0149899 0.
0.581986 0.0149902 0.
0.583985 0.0149904 0.
0.585985 0.0149906 0.
0.587984 0.0149908 0.
0.589984 0.0149909 0.
0.591983 0.014991 0.
0.593982 0.014991 0.
0.595987 0.0149911 0.
0.597994 0.0149911 0.
0.6 0.0149912 0.
0.602007 0.014991 0.
0.604013 0.0149909 0.
0.606018 0.0149908 0.
0.608017 0.0149909 0.
0.610017 0.0149909 0.
0.612016 0.0149909 0.
0.614016 0.0149907 0.
0.616015 0.0149906 0.
0.618014 0.0149903 0.
0.620014 0.01499 0.
0.622013 0.0149897 0.
0.624012 0.0149897 0.
0.626011 0.0149898 0.
0.628011 0.0149898 0.
0.630011 0.0149896 0.
0.632011 0.0149895 0.
0.634011 0.0149892 0.
0.636011 0.0149888 0.
0.638012 0.0149884 0.
0.640013 0.0149874 0.
0.642014 0.0149859 0.
0.644015 0.0149845 0.
0.646017 0.014983 0.
0.64802 0.0149814 0.
0.650022 0.0149799 0.
0.65203 0.0149737 0.
0.654038 0.0149676 0.
0.656051 0.014959 0.
0.658078 0.0149423 0.
0.660104 0.0149257 0.
0.662144 0.0149059 0.
0.664196 0.0148821 0.
0.666249 0.0148584 0.
0.668364 0.0148079 0.
0.670496 0.0147512 0.
0.672645 0.0146867 0.
0.674976 0.0144804 0.
0.677299 0.0142783 0.
0.679837 0.0140217 0.
0.6825 0.0137356 0.
0.685304 0.0132967 0.
0.688335 0.012599 0.
0.69169 0.0118432 0.
0.695339 0.0109527 0.
0.699326 0.00997314 0.
0.704444 0.00826546 0.
0.709595 0.00627885 0.
0.715043 0.00414358 0.
0.72144 0.00188971 0.
0.473942 0.00173461 0.
0.480402 0.00405829 0.
0.486148 0.00609951 0.
0.491239 0.00831871 0.
0.496663 0.0103193 0.
0.501186 0.0118753 0.
0.505224 0.013038 0.
0.508798 0.0139177 0.
0.512035 0.0146724 0.
0.514941 0.0152802 0.
0.517625 0.0156689 0.
0.520196 0.015954 0.
0.522673 0.016213 0.
0.524969 0.0164187 0.
0.527274 0.016629 0.
0.529434 0.0167012 0.
0.531578 0.0167609 0.
0.533705 0.0168159 0.
0.535764 0.016847 0.
0.537823 0.0168782 0.
0.539869 0.0169038 0.
0.541901 0.0169246 0.
0.543933 0.0169454 0.
0.545949 0.0169569 0.
0.54796 0.0169654 0.
0.549971 0.0169739 0.
0.551974 0.0169763 0.
0.553978 0.0169787 0.
0.555981 0.016981 0.
0.557983 0.0169827 0.
0.559985 0.0169845 0.
0.561986 0.0169858 0.
0.563987 0.0169864 0.
0.565988 0.0169871 0.
0.567988 0.0169875 0.
0.569988 0.0169877 0.
0.571988 0.0169879 0.
0.573988 0.016988 0.
0.575987 0.016988 0.
0.577986 0.016988 0.
0.579986 0.0169883 0.
0.581985 0.0169886 0.
0.583985 0.0169888 0.
0.585985 0.0169889 0.
0.587984 0.016989 0.
0.589984 0.0169889 0.
0.591984 0.0169886 0.
0.593983 0.0169883 0.
0.595988 0.0169885 0.
0.597994 0.0169887 0.
0.6 0.0169889 0.
0.602007 0.0169886 0.
0.604013 0.0169883 0.
0.606017 0.0169881 0.
0.608017 0.0169885 0.
0.610017 0.0169889 0.
0.612016 0.0169891 0.
0.614016 0.0169891 0.
0.616015 0.016989 0.
0.618015 0.0169888 0.
0.620015 0.0169884 0.
0.622014 0.0169881 0.
0.624014 0.016988 0.
0.626013 0.016988 0.
0.628012 0.0169879 0.
0.630012 0.0169876 0.
0.632013 0.0169872 0.
0.634013 0.0169867 0.
0.636014 0.0169859 0.
0.638015 0.0169851 0.
0.640017 0.0169834 0.
0.64202 0.016981 0.
0.644023 0.0169785 0.
0.646027 0.0169751 0.
0.648033 0.0169715 0.
0.650038 0.0169678 0.
0.652054 0.0169561 0.
0.654069 0.0169444 0.
0.656092 0.0169288 0.
0.658136 0.0169012 0.
0.66018 0.0168738 0.
0.662242 0.0168436 0.
0.664321 0.0168097 0.
0.6664 0.0167761 0.
0.668587 0.016672 0.
0.670794 0.0165585 0.
0.673028 0.0164345 0.
0.67541 0.0161886 0.
0.677779 0.0159495 0.
0.680459 0.0155954 0.
0.683206 0.0152411 0.
0.686174 0.0146061 0.
0.689287 0.0137647 0.
0.692909 0.0127999 0.
0.696933 0.0116522 0.
0.70122 0.0104099 0.
0.706547 0.00842751 0.
0.712044 0.00626038 0.
0.717911 0.00398438 0.
0.724968 0.00173085 0.
0.470361 0.00158985 0.
0.477075 0.00392131 0.
0.483474 0.00596806 0.
0.488839 0.00824831 0.
0.494495 0.0104343 0.
0.499439 0.0124159 0.
0.503753 0.013856 0.
0.50759 0.0149273 0.
0.510989 0.0158183 0.
0.513978 0.01654 0.
0.516889 0.0171458 0.
0.519561 0.0175321 0.
0.522198 0.0179072 0.
0.524568 0.018162 0.
0.526952 0.0184231 0.
0.529192 0.0185489 0.
0.531401 0.0186536 0.
0.533589 0.0187494 0.
0.535668 0.0187882 0.
0.537746 0.0188272 0.
0.539809 0.0188616 0.
0.541856 0.018892 0.
0.543903 0.0189226 0.
0.545927 0.0189397 0.
0.547943 0.0189523 0.
0.549959 0.0189649 0.
0.551965 0.0189688 0.
0.55397 0.0189726 0.
0.555975 0.0189761 0.
0.557978 0.0189787 0.
0.559981 0.0189812 0.
0.561983 0.018983 0.
0.563985 0.018984 0.
0.565986 0.0189849 0.
0.567986 0.0189854 0.
0.569987 0.0189857 0.
0.571987 0.0189861 0.
0.573986 0.0189862 0.
0.575986 0.0189863 0.
0.577985 0.0189863 0.
0.579985 0.0189867 0.
0.581985 0.018987 0.
0.583985 0.0189872 0.
0.585985 0.0189872 0.
0.587984 0.0189872 0.
0.589984 0.0189868 0.
0.591984 0.0189863 0.
0.593984 0.0189857 0.
0.595989 0.0189859 0.
0.597995 0.0189863 0.
0.6 0.0189867 0.
0.602006 0.0189861 0.
0.604012 0.0189856 0.
0.606016 0.0189854 0.
0.608016 0.0189861 0.
0.610016 0.0189869 0.
0.612016 0.0189873 0.
0.614016 0.0189874 0.
0.616016 0.0189874 0.
0.618015 0.0189872 0.
0.620015 0.0189869 0.
0.622015 0.0189865 0.
0.624015 0.0189863 0.
0.626014 0.0189862 0.
0.628013 0.018986 0.
0.630014 0.0189855 0.
0.632014 0.018985 0.
0.634015 0.0189843 0.
0.636017 0.018983 0.
0.638019 0.0189818 0.
0.640022 0.0189794 0.
0.642026 0.018976 0.
0.64403 0.0189726 0.
0.646037 0.0189673 0.
0.648045 0.0189615 0.
0.650054 0.0189555 0.
0.652077 0.0189382 0.
0.654101 0.0189208 0.
0.656134 0.018898 0.
0.658196 0.0188593 0.
0.660257 0.0188208 0.
0.662344 0.0187796 0.
0.664452 0.0187348 0.
0.666559 0.0186903 0.
0.668832 0.0185218 0.
0.671121 0.0183446 0.
0.673452 0.0181564 0.
0.675905 0.0178591 0.
0.67838 0.0175497 0.
0.681205 0.0170579 0.
0.68409 0.0165447 0.
0.687215 0.0156769 0.
0.690417 0.014766 0.
0.694194 0.0136837 0.
0.698705 0.0121999 0.
0.703395 0.0105764 0.
0.709008 0.00845511 0.
0.714711 0.00599722 0.
0.7214 0.00396652 0.
0.728611 0.00151857 0.
0.466157 0.00134976 0.
0.473189 0.00376732 0.
0.480634 0.00577929 0.
0.486277 0.008133 0.
0.492148 0.0104261 0.
0.497319 0.0126114 0.
0.502102 0.0144475 0.
0.506174 0.0157323 0.
0.509737 0.0168276 0.
0.512954 0.017735 0.
0.516101 0.01856 0.
0.518908 0.0190751 0.
0.521688 0.0195737 0.
0.524168 0.0198794 0.
0.526618 0.0201777 0.
0.528936 0.0203613 0.
0.531203 0.020518 0.
0.533453 0.0206671 0.
0.535554 0.0207146 0.
0.537656 0.0207624 0.
0.539739 0.020807 0.
0.5418 0.0208489 0.
0.543861 0.0208912 0.
0.545895 0.0209157 0.
0.547919 0.0209338 0.
0.549943 0.0209519 0.
0.551952 0.0209582 0.
0.55396 0.0209642 0.
0.555967 0.0209698 0.
0.557972 0.0209733 0.
0.559976 0.0209769 0.
0.56198 0.0209795 0.
0.563982 0.0209809 0.
0.565983 0.0209823 0.
0.567984 0.0209832 0.
0.569985 0.0209837 0.
0.571986 0.0209843 0.
0.573985 0.0209845 0.
0.575985 0.0209846 0.
0.577984 0.0209848 0.
0.579984 0.0209851 0.
0.581984 0.0209854 0.
0.583985 0.0209856 0.
0.585985 0.0209855 0.
0.587985 0.0209854 0.
0.589985 0.020985 0.
0.591985 0.0209842 0.
0.593985 0.0209834 0.
0.595989 0.0209836 0.
0.597995 0.0209841 0.
0.6 0.0209847 0.
0.602006 0.020984 0.
0.604011 0.0209833 0.
0.606015 0.020983 0.
0.608015 0.020984 0.
0.610015 0.020985 0.
0.612016 0.0209856 0.
0.614016 0.0209858 0.
0.616016 0.0209859 0.
0.618016 0.0209857 0.
0.620016 0.0209853 0.
0.622016 0.020985 0.
0.624016 0.0209847 0.
0.626015 0.0209845 0.
0.628015 0.0209841 0.
0.630016 0.0209833 0.
0.632017 0.0209824 0.
0.634018 0.0209812 0.
0.636021 0.0209793 0.
0.638023 0.0209774 0.
0.640028 0.0209739 0.
0.642034 0.0209692 0.
0.644041 0.0209645 0.
0.646051 0.0209565 0.
0.648063 0.0209475 0.
0.650076 0.0209383 0.
0.65211 0.0209131 0.
0.654144 0.0208881 0.
0.65619 0.020856 0.
0.65827 0.0208048 0.
0.660349 0.020754 0.
0.662464 0.0206968 0.
0.664605 0.0206351 0.
0.666746 0.0205739 0.
0.669095 0.0203351 0.
0.671454 0.0200958 0.
0.673874 0.0198489 0.
0.676396 0.0195096 0.
0.679019 0.0191077 0.
0.681968 0.0184797 0.
0.685069 0.0177272 0.
0.68834 0.0166618 0.
0.691814 0.015563 0.
0.695734 0.0143563 0.
0.70056 0.0126271 0.
0.705557 0.0106346 0.
0.711468 0.00838174 0.
0.717323 0.0057275 0.
0.725305 0.00372729 0.
0.733423 0.00126952 0.
0.460725 0.00108401 0.
0.469074 0.00351028 0.
0.47775 0.00558802 0.
0.4837 0.00797426 0.
0.489846 0.0103649 0.
0.495259 0.0127217 0.
0.5005 0.014923 0.
0.504741 0.0164353 0.
0.508502 0.0177359 0.
0.51199 0.0188654 0.
0.515306 0.0198402 0.
0.518259 0.0204706 0.
0.521117 0.0210347 0.
0.523713 0.0214347 0.
0.526242 0.0218194 0.
0.52865 0.0220996 0.
0.530969 0.0223316 0.
0.53328 0.0225601 0.
0.535413 0.0226197 0.
0.537546 0.0226794 0.
0.539655 0.022737 0.
0.54173 0.0227932 0.
0.543806 0.0228499 0.
0.545852 0.0228839 0.
0.547887 0.0229092 0.
0.549921 0.0229347 0.
0.551934 0.0229442 0.
0.553946 0.0229535 0.
0.555957 0.0229618 0.
0.557964 0.0229666 0.
0.55997 0.0229715 0.
0.561975 0.0229752 0.
0.563978 0.0229772 0.
0.565981 0.0229793 0.
0.567982 0.0229806 0.
0.569983 0.0229816 0.
0.571984 0.0229826 0.
0.573984 0.0229829 0.
0.575984 0.0229831 0.
0.577984 0.0229833 0.
0.579984 0.0229836 0.
0.581984 0.0229839 0.
0.583985 0.022984 0.
0.585985 0.0229839 0.
0.587985 0.0229838 0.
0.589986 0.0229833 0.
0.591986 0.0229823 0.
0.593987 0.0229814 0.
0.595991 0.0229817 0.
0.597996 0.0229823 0.
0.6 0.0229829 0.
0.602005 0.0229821 0.
0.60401 0.0229814 0.
0.606013 0.022981 0.
0.608014 0.0229822 0.
0.610014 0.0229833 0.
0.612015 0.022984 0.
0.614015 0.0229842 0.
0.616016 0.0229843 0.
0.618016 0.0229841 0.
0.620016 0.0229838 0.
0.622017 0.0229835 0.
0.624017 0.0229831 0.
0.626016 0.0229827 0.
0.628016 0.0229822 0.
0.630018 0.0229809 0.
0.632019 0.0229795 0.
0.634022 0.0229776 0.
0.636025 0.0229747 0.
0.638029 0.0229719 0.
0.640036 0.022967 0.
0.642045 0.0229606 0.
0.644054 0.0229543 0.
0.64607 0.0229425 0.
0.648087 0.0229293 0.
0.650105 0.0229154 0.
0.652153 0.0228799 0.
0.6542 0.0228445 0.
0.656263 0.0228006 0.
0.658362 0.0227348 0.
0.66046 0.0226694 0.
0.662615 0.0225852 0.
0.664801 0.022492 0.
0.666996 0.0223906 0.
0.669397 0.0220669 0.
0.671799 0.0217481 0.
0.674325 0.0214151 0.
0.676927 0.0210152 0.
0.679687 0.0204905 0.
0.682664 0.0198176 0.
0.685994 0.0188267 0.
0.689413 0.0175961 0.
0.693181 0.0162913 0.
0.697522 0.0147465 0.
0.702543 0.0129118 0.
0.7078 0.0106083 0.
0.714002 0.00816402 0.
0.7202 0.00559405 0.
0.729427 0.00345775 0.
0.739407 0.000929137 0.
0.453466 0.000755897 0.
0.464741 0.00330267 0.
0.474616 0.00541759 0.
0.481237 0.00779735 0.
0.487683 0.010318 0.
0.493239 0.0127602 0.
0.498611 0.0151394 0.
0.503094 0.0168813 0.
0.507264 0.0185569 0.
0.510988 0.0198601 0.
0.514312 0.0208853 0.
0.517487 0.0217464 0.
0.520469 0.0224332 0.
0.52323 0.0229684 0.
0.525844 0.0234431 0.
0.528356 0.0238276 0.
0.530728 0.024136 0.
0.533099 0.0244472 0.
0.535269 0.0245239 0.
0.537434 0.0245957 0.
0.53957 0.0246663 0.
0.54166 0.024737 0.
0.543751 0.0248082 0.
0.545809 0.0248521 0.
0.547854 0.0248846 0.
0.5499 0.0249173 0.
0.551917 0.0249303 0.
0.553933 0.0249426 0.
0.555947 0.0249538 0.
0.557955 0.02496 0.
0.559964 0.0249662 0.
0.56197 0.0249708 0.
0.563974 0.0249736 0.
0.565978 0.0249763 0.
0.56798 0.0249781 0.
0.569982 0.0249795 0.
0.571983 0.0249809 0.
0.573983 0.0249813 0.
0.575983 0.0249816 0.
0.577983 0.0249819 0.
0.579984 0.0249821 0.
0.581984 0.0249823 0.
0.583985 0.0249824 0.
0.585986 0.0249823 0.
0.587986 0.0249822 0.
0.589987 0.0249816 0.
0.591988 0.0249805 0.
0.593988 0.0249794 0.
0.595992 0.0249797 0.
0.597996 0.0249805 0.
0.6 0.0249812 0.
0.602004 0.0249803 0.
0.604008 0.0249794 0.
0.606012 0.024979 0.
0.608012 0.0249803 0.
0.610013 0.0249816 0.
0.612014 0.0249824 0.
0.614015 0.0249826 0.
0.616015 0.0249827 0.
0.618016 0.0249826 0.
0.620017 0.0249823 0.
0.622017 0.024982 0.
0.624018 0.0249815 0.
0.626018 0.024981 0.
0.628018 0.0249803 0.
0.63002 0.0249785 0.
0.632022 0.0249766 0.
0.634025 0.024974 0.
0.63603 0.0249702 0.
0.638035 0.0249663 0.
0.640044 0.02496 0.
0.642056 0.024952 0.
0.644068 0.024944 0.
0.646088 0.0249284 0.
0.64811 0.024911 0.
0.650134 0.0248924 0.
0.652196 0.0248464 0.
0.654257 0.0248007 0.
0.656336 0.0247447 0.
0.658455 0.0246641 0.
0.660573 0.0245842 0.
0.66277 0.0244703 0.
0.665001 0.024345 0.
0.667255 0.024197 0.
0.669706 0.0237876 0.
0.672152 0.0233885 0.
0.674809 0.0229623 0.
0.677518 0.0224848 0.
0.680493 0.0217345 0.
0.683564 0.0209105 0.
0.686979 0.0197774 0.
0.690597 0.018424 0.
0.694535 0.0169564 0.
0.699371 0.0150002 0.
0.704548 0.0130387 0.
0.710134 0.0105186 0.
0.716491 0.00786101 0.
0.723285 0.0054814 0.
0.733849 0.0033224 0.
0.749508 0.000660742 0.
0.441549 0.000629444 0.
0.460498 0.00307235 0.
0.471479 0.00527738 0.
0.478808 0.00763691 0.
0.485388 0.010234 0.
0.491113 0.0127125 0.
0.496613 0.0152035 0.
0.501383 0.0171924 0.
0.506022 0.0192805 0.
0.509737 0.0206568 0.
0.513252 0.0218496 0.
0.51667 0.0229833 0.
0.519766 0.0237816 0.
0.522706 0.0244592 0.
0.525382 0.0250051 0.
0.527972 0.025484 0.
0.530373 0.0258429 0.
0.532792 0.0262083 0.
0.535026 0.0263365 0.
0.537237 0.0264482 0.
0.539418 0.0265534 0.
0.541532 0.0266384 0.
0.543647 0.0267242 0.
0.545727 0.0267835 0.
0.54779 0.0268308 0.
0.549854 0.0268787 0.
0.55188 0.0268993 0.
0.553903 0.0269187 0.
0.555925 0.0269361 0.
0.557938 0.0269452 0.
0.559951 0.0269542 0.
0.561961 0.0269613 0.
0.563966 0.0269657 0.
0.565972 0.0269702 0.
0.567976 0.0269731 0.
0.569978 0.0269753 0.
0.571981 0.0269775 0.
0.573981 0.0269782 0.
0.575982 0.0269788 0.
0.577982 0.0269793 0.
0.579983 0.0269796 0.
0.581984 0.0269799 0.
0.583985 0.02698 0.
0.585986 0.0269798 0.
0.587987 0.0269796 0.
0.589988 0.0269788 0.
0.591989 0.0269776 0.
0.59399 0.0269765 0.
0.595993 0.0269765 0.
0.597997 0.0269769 0.
0.6 0.0269773 0.
0.602004 0.0269768 0.
0.604007 0.0269763 0.
0.60601 0.0269762 0.
0.608011 0.0269775 0.
0.610012 0.0269789 0.
0.612013 0.0269797 0.
0.614014 0.02698 0.
0.616015 0.0269803 0.
0.618016 0.0269801 0.
0.620017 0.0269797 0.
0.622018 0.0269793 0.
0.624019 0.0269785 0.
0.62602 0.0269776 0.
0.628021 0.0269765 0.
0.630024 0.0269735 0.
0.632027 0.0269705 0.
0.634032 0.0269664 0.
0.63604 0.0269602 0.
0.638048 0.026954 0.
0.640062 0.0269446 0.
0.642079 0.0269329 0.
0.644097 0.0269213 0.
0.646127 0.0268977 0.
0.648159 0.0268714 0.
0.650195 0.0268429 0.
0.652279 0.0267779 0.
0.654361 0.0267138 0.
0.656469 0.0266386 0.
0.658622 0.0265397 0.
0.660771 0.0264423 0.
0.66302 0.0262807 0.
0.665298 0.026107 0.
0.66762 0.0258883 0.
0.6701 0.0254229 0.
0.672569 0.0249777 0.
0.675349 0.0244705 0.
0.678173 0.0239021 0.
0.681357 0.0229044 0.
0.684621 0.0218757 0.
0.688125 0.0205608 0.
0.691858 0.0191263 0.
0.69621 0.0173189 0.
0.701237 0.0152114 0.
0.706497 0.0130852 0.
0.712388 0.0104072 0.
0.718974 0.00765517 0.
0.726493 0.00519568 0.
0.737728 0.00305861 0.
0.76667 0.000699627 0.
0.422201 0.000995236 0.
0.456821 0.00266551 0.
0.468127 0.00505094 0.
0.476322 0.00746187 0.
0.483122 0.0101261 0.
0.489015 0.0126267 0.
0.494643 0.0152363 0.
0.499684 0.0174315 0.
0.504595 0.0198045 0.
0.508337 0.021303 0.
0.512156 0.0227309 0.
0.515763 0.0240843 0.
0.518963 0.0250115 0.
0.522013 0.0257987 0.
0.524734 0.0264277 0.
0.527458 0.027067 0.
0.529937 0.027495 0.
0.53243 0.0279225 0.
0.53475 0.0281204 0.
0.537018 0.0282832 0.
0.539254 0.0284342 0.
0.541395 0.0285348 0.
0.543537 0.0286363 0.
0.545641 0.028712 0.
0.547723 0.0287752 0.
0.549807 0.028839 0.
0.551842 0.0288677 0.
0.553874 0.0288943 0.
0.555903 0.0289182 0.
0.55792 0.0289302 0.
0.559937 0.0289422 0.
0.561951 0.0289517 0.
0.563959 0.0289578 0.
0.565967 0.028964 0.
0.567972 0.0289681 0.
0.569975 0.0289711 0.
0.571978 0.0289741 0.
0.573979 0.0289752 0.
0.57598 0.028976 0.
0.577981 0.0289767 0.
0.579983 0.0289771 0.
0.581984 0.0289775 0.
0.583985 0.0289776 0.
0.585986 0.0289773 0.
0.587988 0.0289769 0.
0.589989 0.0289761 0.
0.591991 0.0289748 0.
0.593993 0.0289735 0.
0.595995 0.0289733 0.
0.597998 0.0289734 0.
0.6 0.0289734 0.
0.602003 0.0289733 0.
0.604005 0.0289732 0.
0.606008 0.0289734 0.
0.608009 0.0289748 0.
0.610011 0.0289761 0.
0.612012 0.0289771 0.
0.614014 0.0289775 0.
0.616015 0.0289779 0.
0.618017 0.0289777 0.
0.620018 0.0289771 0.
0.62202 0.0289765 0.
0.624021 0.0289754 0.
0.626023 0.0289742 0.
0.628024 0.0289726 0.
0.630029 0.0289684 0.
0.632033 0.0289643 0.
0.63404 0.0289586 0.
0.636051 0.02895 0.
0.638061 0.0289415 0.
0.640079 0.028929 0.
0.642103 0.0289136 0.
0.644126 0.0288982 0.
0.646166 0.0288663 0.
0.64821 0.0288309 0.
0.650259 0.0287915 0.
0.652366 0.0287065 0.
0.654471 0.0286224 0.
0.656613 0.0285259 0.
0.658805 0.0284057 0.
0.660993 0.0282872 0.
0.663305 0.0280643 0.
0.665641 0.0278311 0.
0.668053 0.0275186 0.
0.670604 0.0269756 0.
0.673195 0.0264394 0.
0.676049 0.0258233 0.
0.678983 0.0251165 0.
0.682271 0.0239767 0.
0.685757 0.0227346 0.
0.689348 0.021267 0.
0.693199 0.0197151 0.
0.697975 0.0175275 0.
0.703234 0.0153552 0.
0.708607 0.0129616 0.
0.714699 0.0101971 0.
0.721494 0.00750692 0.
0.72975 0.0049994 0.
0.741293 0.00270554 0.
0.782483 0.00150917 0.
0.410932 0.00174363 0.
0.45324 0.00234248 0.
0.464618 0.00491638 0.
0.473732 0.00725911 0.
0.480786 0.00998996 0.
0.486902 0.0125504 0.
0.492656 0.0151929 0.
0.497853 0.0175597 0.
0.502737 0.0199395 0.
0.506866 0.0218306 0.
0.511045 0.0235308 0.
0.514706 0.0249692 0.
0.517996 0.0260712 0.
0.52118 0.0270334 0.
0.524063 0.0278081 0.
0.526903 0.0286031 0.
0.529492 0.0291345 0.
0.532062 0.0296201 0.
0.534476 0.0298876 0.
0.536795 0.0300998 0.
0.539086 0.0303025 0.
0.541252 0.0304174 0.
0.54342 0.0305338 0.
0.545547 0.0306268 0.
0.547648 0.0307076 0.
0.54975 0.0307896 0.
0.551796 0.0308285 0.
0.553837 0.0308638 0.
0.555875 0.0308958 0.
0.557898 0.0309112 0.
0.55992 0.0309268 0.
0.561938 0.0309393 0.
0.563948 0.0309477 0.
0.565959 0.0309561 0.
0.567966 0.0309617 0.
0.56997 0.0309659 0.
0.571975 0.0309701 0.
0.573977 0.0309716 0.
0.575978 0.0309727 0.
0.57798 0.0309738 0.
0.579982 0.0309743 0.
0.581984 0.0309748 0.
0.583985 0.030975 0.
0.585987 0.0309746 0.
0.587988 0.0309742 0.
0.58999 0.0309733 0.
0.591992 0.030972 0.
0.593994 0.0309708 0.
0.595996 0.0309704 0.
0.597998 0.0309704 0.
0.6 0.0309704 0.
0.602002 0.0309704 0.
0.604004 0.0309705 0.
0.606006 0.0309708 0.
0.608008 0.0309721 0.
0.61001 0.0309733 0.
0.612012 0.0309742 0.
0.614013 0.0309747 0.
0.616015 0.0309752 0.
0.618017 0.0309748 0.
0.620019 0.0309741 0.
0.622021 0.0309733 0.
0.624024 0.0309717 0.
0.626026 0.0309699 0.
0.628029 0.0309677 0.
0.630035 0.0309621 0.
0.632041 0.0309565 0.
0.63405 0.0309487 0.
0.636064 0.030937 0.
0.638079 0.0309253 0.
0.640102 0.030909 0.
0.642132 0.0308893 0.
0.644161 0.0308697 0.
0.646213 0.0308272 0.
0.64827 0.0307803 0.
0.650333 0.0307277 0.
0.652462 0.0306217 0.
0.654589 0.0305171 0.
0.656764 0.0303965 0.
0.658992 0.0302545 0.
0.661217 0.0301175 0.
0.663592 0.0298329 0.
0.665982 0.0295401 0.
0.668493 0.0291292 0.
0.671118 0.0285102 0.
0.673859 0.0278588 0.
0.676817 0.0270995 0.
0.679962 0.0261128 0.
0.68324 0.0249065 0.
0.686907 0.0235195 0.
0.690759 0.0218038 0.
0.694667 0.0201575 0.
0.699777 0.0176327 0.
0.705217 0.0154252 0.
0.710806 0.0127652 0.
0.716984 0.00993524 0.
0.724104 0.00728875 0.
0.733324 0.00496867 0.
0.744702 0.00232525 0.
0.788064 0.001865 0.
0.40536 0.00170643 0.
0.449264 0.00210122 0.
0.460857 0.00489136 0.
0.471108 0.00705935 0.
0.478397 0.00981099 0.
0.484777 0.0124515 0.
0.490646 0.0150841 0.
0.49598 0.0176241 0.
0.500932 0.0200184 0.
0.505392 0.0222905 0.
0.509732 0.0241826 0.
0.513499 0.0256791 0.
0.517043 0.0270916 0.
0.520343 0.0282052 0.
0.523426 0.0291431 0.
0.526348 0.0300416 0.
0.529026 0.0306549 0.
0.531653 0.0311836 0.
0.53416 0.0315481 0.
0.536537 0.0318436 0.
0.538901 0.032135 0.
0.541093 0.0322688 0.
0.543288 0.0324043 0.
0.54544 0.0325191 0.
0.547559 0.0326225 0.
0.549679 0.0327274 0.
0.551739 0.0327795 0.
0.553793 0.0328259 0.
0.555842 0.032868 0.
0.55787 0.0328877 0.
0.559898 0.0329075 0.
0.561921 0.0329237 0.
0.563935 0.0329351 0.
0.565949 0.0329464 0.
0.567958 0.032954 0.
0.569964 0.0329596 0.
0.57197 0.0329652 0.
0.573973 0.0329673 0.
0.575976 0.032969 0.
0.577979 0.0329706 0.
0.579981 0.0329712 0.
0.581983 0.0329719 0.
0.583985 0.0329722 0.
0.585987 0.0329717 0.
0.587989 0.0329713 0.
0.589991 0.0329705 0.
0.591993 0.0329693 0.
0.593995 0.0329682 0.
0.595997 0.032968 0.
0.597999 0.0329681 0.
0.6 0.0329682 0.
0.602002 0.0329682 0.
0.604004 0.0329682 0.
0.606005 0.0329684 0.
0.608007 0.0329694 0.
0.610009 0.0329705 0.
0.612011 0.0329713 0.
0.614013 0.0329717 0.
0.616015 0.0329721 0.
0.618018 0.0329716 0.
0.620021 0.0329706 0.
0.622023 0.0329696 0.
0.624027 0.0329673 0.
0.62603 0.0329648 0.
0.628034 0.0329617 0.
0.630042 0.0329543 0.
0.63205 0.0329469 0.
0.634062 0.0329365 0.
0.636082 0.0329207 0.
0.638101 0.0329049 0.
0.640131 0.0328839 0.
0.642168 0.0328593 0.
0.644204 0.0328348 0.
0.646271 0.032778 0.
0.648342 0.032716 0.
0.650424 0.0326457 0.
0.652575 0.0325153 0.
0.654725 0.0323867 0.
0.656934 0.0322271 0.
0.659197 0.0320406 0.
0.661464 0.031856 0.
0.663907 0.0315017 0.
0.666348 0.0311489 0.
0.668949 0.0306376 0.
0.6716 0.0299784 0.
0.674495 0.0292194 0.
0.677548 0.0283403 0.
0.680926 0.0270538 0.
0.684373 0.0257031 0.
0.688044 0.0242428 0.
0.692236 0.0222318 0.
0.696462 0.0202499 0.
0.701615 0.0177409 0.
0.707211 0.0153967 0.
0.712953 0.012571 0.
0.719274 0.00976577 0.
0.726809 0.00690164 0.
0.737052 0.00489898 0.
0.748475 0.00211774 0.
0.790626 0.00220661 0.
0.404721 0.00198962 0.
0.445467 0.00202244 0.
0.457301 0.00466992 0.
0.468434 0.00681254 0.
0.476114 0.00962368 0.
0.482717 0.0123349 0.
0.488679 0.0149717 0.
0.494156 0.0176664 0.
0.499186 0.0200889 0.
0.503779 0.0225721 0.
0.508202 0.0246389 0.
0.512268 0.0263253 0.
0.516065 0.0280404 0.
0.519477 0.0292864 0.
0.522686 0.030329 0.
0.52563 0.0313063 0.
0.528477 0.0320879 0.
0.531201 0.0327101 0.
0.53383 0.0331939 0.
0.536268 0.0335757 0.
0.538707 0.0339626 0.
0.540931 0.0341187 0.
0.543153 0.0342734 0.
0.545331 0.0344101 0.
0.547469 0.0345363 0.
0.549608 0.0346643 0.
0.551682 0.0347302 0.
0.553748 0.0347878 0.
0.555809 0.0348402 0.
0.557843 0.0348642 0.
0.559877 0.0348882 0.
0.561904 0.0349082 0.
0.563922 0.0349224 0.
0.56594 0.0349367 0.
0.567951 0.0349463 0.
0.569958 0.0349533 0.
0.571966 0.0349603 0.
0.57397 0.0349631 0.
0.575974 0.0349653 0.
0.577977 0.0349673 0.
0.57998 0.0349681 0.
0.581983 0.034969 0.
0.583985 0.0349694 0.
0.585988 0.0349689 0.
0.58799 0.0349684 0.
0.589992 0.0349676 0.
0.591994 0.0349667 0.
0.593996 0.0349657 0.
0.595998 0.0349656 0.
0.597999 0.0349658 0.
0.6 0.034966 0.
0.602002 0.0349659 0.
0.604003 0.0349659 0.
0.606004 0.034966 0.
0.608006 0.0349668 0.
0.610008 0.0349676 0.
0.61201 0.0349683 0.
0.614013 0.0349687 0.
0.616016 0.034969 0.
0.618019 0.0349684 0.
0.620022 0.0349671 0.
0.622025 0.0349659 0.
0.62403 0.0349629 0.
0.626035 0.0349596 0.
0.62804 0.0349556 0.
0.63005 0.0349464 0.
0.63206 0.0349373 0.
0.634075 0.0349243 0.
0.636099 0.0349043 0.
0.638124 0.0348844 0.
0.64016 0.0348588 0.
0.642204 0.0348293 0.
0.644248 0.0347998 0.
0.646329 0.0347284 0.
0.648416 0.0346511 0.
0.650516 0.0345626 0.
0.65269 0.0344077 0.
0.654862 0.034255 0.
0.657108 0.0340525 0.
0.659405 0.0338209 0.
0.661722 0.0335871 0.
0.664236 0.0331567 0.
0.66674 0.0327329 0.
0.66948 0.0320878 0.
0.672225 0.0313394 0.
0.675245 0.030423 0.
0.67832 0.0294745 0.
0.681899 0.0279319 0.
0.685616 0.026393 0.
0.689189 0.024893 0.
0.693726 0.0225876 0.
0.698252 0.0202672 0.
0.70353 0.0178488 0.
0.709232 0.0152256 0.
0.715099 0.0123464 0.
0.721608 0.0096449 0.
0.729486 0.00665168 0.
0.740608 0.00473842 0.
0.752451 0.00204744 0.
0.791409 0.00262655 0.
0.405606 0.00259135 0.
0.441934 0.0020647 0.
0.454182 0.00442812 0.
0.465834 0.00664873 0.
0.473874 0.00944347 0.
0.480719 0.0122109 0.
0.486766 0.0149362 0.
0.492392 0.0176636 0.
0.497446 0.020161 0.
0.502153 0.022714 0.
0.506634 0.0249822 0.
0.511015 0.0269173 0.
0.514952 0.0287931 0.
0.518489 0.0302177 0.
0.521817 0.0314478 0.
0.524864 0.0325348 0.
0.527898 0.0334923 0.
0.53071 0.0342006 0.
0.533469 0.0348085 0.
0.535943 0.0352515 0.
0.538424 0.0357133 0.
0.540693 0.0359083 0.
0.542951 0.0360911 0.
0.545168 0.036258 0.
0.547328 0.0364056 0.
0.549492 0.0365554 0.
0.551589 0.0366435 0.
0.553673 0.0367218 0.
0.555754 0.0367943 0.
0.557796 0.0368232 0.
0.559838 0.0368522 0.
0.561873 0.0368776 0.
0.563897 0.0368979 0.
0.565922 0.0369182 0.
0.567937 0.0369316 0.
0.569948 0.0369412 0.
0.571958 0.0369509 0.
0.573964 0.036955 0.
0.575969 0.0369584 0.
0.577974 0.0369616 0.
0.579977 0.0369629 0.
0.581981 0.0369642 0.
0.583984 0.036965 0.
0.585987 0.0369648 0.
0.58799 0.0369646 0.
0.589992 0.0369642 0.
0.591994 0.0369636 0.
0.593996 0.0369631 0.
0.595998 0.0369632 0.
0.597999 0.0369635 0.
0.6 0.0369637 0.
0.602002 0.0369636 0.
0.604003 0.0369635 0.
0.606004 0.0369634 0.
0.608006 0.0369638 0.
0.610008 0.0369641 0.
0.612011 0.0369642 0.
0.614014 0.0369642 0.
0.616017 0.0369642 0.
0.618021 0.0369629 0.
0.620025 0.0369611 0.
0.62203 0.0369593 0.
0.624036 0.0369547 0.
0.626042 0.0369497 0.
0.62805 0.0369439 0.
0.630064 0.0369312 0.
0.632078 0.0369185 0.
0.634099 0.0369005 0.
0.636131 0.036873 0.
0.638164 0.0368457 0.
0.640208 0.036814 0.
0.642261 0.0367792 0.
0.644313 0.0367444 0.
0.646422 0.0366449 0.
0.648536 0.0365396 0.
0.650665 0.0364243 0.
0.652861 0.0362505 0.
0.655054 0.036079 0.
0.657345 0.0358258 0.
0.659679 0.0355461 0.
0.662047 0.0352585 0.
0.664596 0.034779 0.
0.667177 0.0342818 0.
0.670048 0.033508 0.
0.672941 0.0326413 0.
0.676128 0.0315016 0.
0.679324 0.0303169 0.
0.682885 0.028746 0.
0.686933 0.0269819 0.
0.690778 0.025165 0.
0.695205 0.0228821 0.
0.699981 0.0202734 0.
0.705435 0.0179134 0.
0.711162 0.0150551 0.
0.717147 0.0121538 0.
0.723847 0.00948847 0.
0.732198 0.00658427 0.
0.743697 0.00447526 0.
0.756243 0.00205651 0.
0.791194 0.0031643 0.
0.406639 0.00330371 0.
0.438596 0.00215777 0.
0.451376 0.00427595 0.
0.463226 0.00658821 0.
0.471778 0.00928534 0.
0.478806 0.0120984 0.
0.484857 0.0148889 0.
0.49064 0.0176249 0.
0.495734 0.0202182 0.
0.500543 0.0227701 0.
0.50507 0.0252459 0.
0.509641 0.0273949 0.
0.513725 0.0293923 0.
0.517396 0.0310405 0.
0.520829 0.0324891 0.
0.524061 0.0337039 0.
0.527266 0.0348171 0.
0.530105 0.0355628 0.
0.532953 0.0362762 0.
0.535496 0.036816 0.
0.538045 0.0373825 0.
0.540395 0.0376548 0.
0.542708 0.0378826 0.
0.544982 0.0380924 0.
0.547172 0.0382641 0.
0.549367 0.0384382 0.
0.551489 0.0385511 0.
0.553596 0.0386524 0.
0.555697 0.0387471 0.
0.557747 0.0387812 0.
0.559798 0.0388154 0.
0.56184 0.0388463 0.
0.563872 0.0388728 0.
0.565903 0.0388994 0.
0.567924 0.0389168 0.
0.569937 0.038929 0.
0.571951 0.0389413 0.
0.573958 0.0389469 0.
0.575964 0.0389515 0.
0.577971 0.0389558 0.
0.579975 0.0389576 0.
0.58198 0.0389594 0.
0.583984 0.0389606 0.
0.585987 0.0389607 0.
0.58799 0.0389608 0.
0.589993 0.0389608 0.
0.591995 0.0389606 0.
0.593997 0.0389605 0.
0.595998 0.0389607 0.
0.597999 0.0389611 0.
0.6 0.0389615 0.
0.602001 0.0389613 0.
0.604003 0.0389611 0.
0.606004 0.0389609 0.
0.608006 0.0389607 0.
0.610008 0.0389605 0.
0.612011 0.0389602 0.
0.614014 0.0389597 0.
0.616018 0.0389593 0.
0.618023 0.0389575 0.
0.620028 0.038955 0.
0.622034 0.0389526 0.
0.624042 0.0389464 0.
0.62605 0.0389398 0.
0.62806 0.038932 0.
0.630078 0.0389157 0.
0.632097 0.0388994 0.
0.634123 0.0388761 0.
0.636164 0.038841 0.
0.638205 0.038806 0.
0.640258 0.038768 0.
0.642319 0.0387276 0.
0.64438 0.0386873 0.
0.646522 0.0385555 0.
0.648667 0.0384183 0.
0.65083 0.0382727 0.
0.653055 0.0380765 0.
0.655276 0.0378828 0.
0.65764 0.03756 0.
0.66004 0.0372149 0.
0.662513 0.0368306 0.
0.665129 0.0362498 0.
0.667788 0.0356572 0.
0.670658 0.0348597 0.
0.673738 0.0338374 0.
0.677045 0.0325085 0.
0.680494 0.0310061 0.
0.683987 0.0294282 0.
0.688269 0.0274935 0.
0.692414 0.0253446 0.
0.696767 0.0230566 0.
0.701715 0.0203224 0.
0.707255 0.0179412 0.
0.713042 0.0149252 0.
0.719131 0.0119987 0.
0.726012 0.0092125 0.
0.73483 0.00658593 0.
0.746442 0.00428605 0.
0.759635 0.00207462 0.
0.79083 0.0037739 0.
0.407104 0.00396856 0.
0.435168 0.00226302 0.
0.448824 0.00417174 0.
0.460667 0.00659776 0.
0.469678 0.00917545 0.
0.476909 0.0119819 0.
0.483026 0.0148493 0.
0.488924 0.0175742 0.
0.494022 0.0202689 0.
0.498955 0.0228159 0.
0.503476 0.0253756 0.
0.508167 0.0277387 0.
0.512378 0.0298481 0.
0.516263 0.031784 0.
0.519795 0.0334089 0.
0.523229 0.0347901 0.
0.526426 0.0359297 0.
0.529422 0.0368289 0.
0.532379 0.0376872 0.
0.535039 0.0383606 0.
0.537654 0.0390312 0.
0.540092 0.0393934 0.
0.542463 0.0396657 0.
0.544797 0.0399213 0.
0.547013 0.0401123 0.
0.549236 0.040308 0.
0.551385 0.0404468 0.
0.553512 0.0405731 0.
0.555635 0.0406937 0.
0.557693 0.0407329 0.
0.559753 0.0407723 0.
0.561804 0.040809 0.
0.563842 0.0408425 0.
0.565881 0.0408762 0.
0.567906 0.0408984 0.
0.569923 0.040914 0.
0.571941 0.0409296 0.
0.57395 0.040937 0.
0.575958 0.0409432 0.
0.577966 0.0409491 0.
0.579972 0.0409515 0.
0.581977 0.040954 0.
0.583982 0.0409558 0.
0.585986 0.0409563 0.
0.587989 0.0409569 0.
0.589992 0.0409573 0.
0.591994 0.0409576 0.
0.593996 0.0409579 0.
0.595998 0.0409584 0.
0.597999 0.0409589 0.
0.6 0.0409595 0.
0.602001 0.0409591 0.
0.604003 0.0409588 0.
0.606004 0.0409584 0.
0.608006 0.0409576 0.
0.610008 0.0409568 0.
0.612012 0.0409559 0.
0.614016 0.0409548 0.
0.61602 0.0409537 0.
0.618026 0.0409512 0.
0.620033 0.0409479 0.
0.62204 0.0409446 0.
0.62405 0.0409364 0.
0.62606 0.0409277 0.
0.628073 0.0409174 0.
0.630096 0.0408965 0.
0.632119 0.0408757 0.
0.634153 0.0408464 0.
0.636202 0.0408032 0.
0.638251 0.0407602 0.
0.640314 0.0407148 0.
0.642386 0.0406675 0.
0.644456 0.0406205 0.
0.646627 0.0404533 0.
0.6488 0.0402835 0.
0.650996 0.0401095 0.
0.653248 0.0398965 0.
0.655496 0.039683 0.
0.657941 0.0392827 0.
0.660407 0.0388718 0.
0.662998 0.0383777 0.
0.665694 0.0376885 0.
0.668538 0.0369292 0.
0.67151 0.0360121 0.
0.6746 0.0348798 0.
0.677976 0.0334472 0.
0.681711 0.0316283 0.
0.685444 0.0298868 0.
0.689657 0.0279085 0.
0.694056 0.0254688 0.
0.698466 0.0230649 0.
0.703577 0.0203707 0.
0.709054 0.0178677 0.
0.714923 0.0147807 0.
0.721088 0.0119027 0.
0.728124 0.00893293 0.
0.737461 0.00656936 0.
0.749069 0.00416912 0.
0.762751 0.00217144 0.
0.790665 0.00440519 0.
0.407108 0.00465773 0.
0.432035 0.00248928 0.
0.446311 0.00413961 0.
0.458108 0.00652738 0.
0.467598 0.00902463 0.
0.474982 0.0118192 0.
0.481225 0.0147767 0.
0.487195 0.0175299 0.
0.492303 0.0202632 0.
0.497358 0.0228963 0.
0.501893 0.0254401 0.
0.506649 0.0279616 0.
0.511012 0.0302312 0.
0.515049 0.0323725 0.
0.518761 0.0342106 0.
0.522262 0.0357194 0.
0.52555 0.0369913 0.
0.52875 0.0380627 0.
0.531805 0.0390508 0.
0.534587 0.0398511 0.
0.537209 0.0405679 0.
0.539729 0.0410296 0.
0.542155 0.0413574 0.
0.544559 0.0416775 0.
0.546816 0.0419049 0.
0.549083 0.0421391 0.
0.551267 0.0423156 0.
0.553417 0.0424754 0.
0.555563 0.0426305 0.
0.557632 0.0426754 0.
0.559701 0.0427204 0.
0.561761 0.0427638 0.
0.563807 0.0428057 0.
0.565853 0.0428478 0.
0.567884 0.0428759 0.
0.569906 0.0428956 0.
0.571929 0.0429154 0.
0.57394 0.0429251 0.
0.575951 0.0429334 0.
0.577961 0.0429412 0.
0.579967 0.0429445 0.
0.581974 0.0429478 0.
0.58398 0.0429504 0.
0.585984 0.0429516 0.
0.587988 0.0429528 0.
0.589991 0.0429538 0.
0.591994 0.0429546 0.
0.593996 0.0429554 0.
0.595998 0.0429562 0.
0.597999 0.0429569 0.
0.6 0.0429577 0.
0.602002 0.0429571 0.
0.604003 0.0429566 0.
0.606004 0.0429558 0.
0.608007 0.0429545 0.
0.61001 0.0429531 0.
0.612013 0.0429514 0.
0.614018 0.0429494 0.
0.616023 0.0429474 0.
0.61803 0.0429439 0.
0.620039 0.0429396 0.
0.622047 0.0429353 0.
0.62406 0.0429245 0.
0.626073 0.0429131 0.
0.628088 0.0428996 0.
0.630118 0.042873 0.
0.632147 0.0428464 0.
0.634188 0.04281 0.
0.636245 0.042758 0.
0.638303 0.0427062 0.
0.64038 0.0426506 0.
0.642467 0.0425927 0.
0.644554 0.0425334 0.
0.646746 0.042322 0.
0.648939 0.0421097 0.
0.651185 0.0418837 0.
0.653508 0.0416184 0.
0.655817 0.041362 0.
0.658314 0.0409077 0.
0.66081 0.0404533 0.
0.663478 0.0398631 0.
0.666247 0.0390919 0.
0.669309 0.0381655 0.
0.672398 0.0371312 0.
0.675693 0.0357135 0.
0.679044 0.0341956 0.
0.682938 0.0322034 0.
0.687 0.0302316 0.
0.691111 0.0281859 0.
0.695693 0.0255584 0.
0.700172 0.0230206 0.
0.70545 0.0204002 0.
0.710868 0.017713 0.
0.716789 0.0146321 0.
0.723071 0.0118029 0.
0.730291 0.00877627 0.
0.740023 0.00654793 0.
0.75155 0.00412513 0.
0.765963 0.00242269 0.
0.790631 0.00509185 0.
0.407246 0.00545407 0.
0.429518 0.00288918 0.
0.444024 0.00419024 0.
0.455786 0.0064671 0.
0.465619 0.00892137 0.
0.473116 0.0117146 0.
0.479472 0.0146856 0.
0.485487 0.0175145 0.
0.490633 0.0202294 0.
0.495734 0.0229609 0.
0.500323 0.0254641 0.
0.505192 0.0281441 0.
0.509593 0.0304998 0.
0.513763 0.0328112 0.
0.517651 0.0348744 0.
0.521196 0.036562 0.
0.524631 0.0380033 0.
0.528057 0.0392341 0.
0.5311 0.0402712 0.
0.533955 0.0412037 0.
0.536662 0.0420206 0.
0.53932 0.0426264 0.
0.54182 0.0430273 0.
0.544312 0.0434281 0.
0.546614 0.0436938 0.
0.548926 0.0439668 0.
0.551148 0.0441824 0.
0.55332 0.044376 0.
0.555491 0.0445667 0.
0.55757 0.0446177 0.
0.559648 0.0446685 0.
0.561718 0.0447184 0.
0.563771 0.0447687 0.
0.565825 0.0448192 0.
0.567862 0.0448534 0.
0.569889 0.0448772 0.
0.571916 0.0449011 0.
0.573931 0.0449133 0.
0.575943 0.0449236 0.
0.577955 0.0449333 0.
0.579963 0.0449375 0.
0.581971 0.0449416 0.
0.583977 0.044945 0.
0.585982 0.0449469 0.
0.587987 0.0449487 0.
0.58999 0.0449503 0.
0.591993 0.0449516 0.
0.593996 0.044953 0.
0.595997 0.044954 0.
0.597999 0.0449549 0.
0.6 0.0449559 0.
0.602002 0.0449551 0.
0.604003 0.0449543 0.
0.606005 0.0449533 0.
0.608008 0.0449513 0.
0.610011 0.0449493 0.
0.612015 0.0449469 0.
0.614021 0.044944 0.
0.616026 0.0449411 0.
0.618035 0.0449366 0.
0.620045 0.0449312 0.
0.622055 0.0449259 0.
0.62407 0.0449126 0.
0.626086 0.0448985 0.
0.628104 0.0448818 0.
0.63014 0.0448494 0.
0.632175 0.0448171 0.
0.634223 0.0447735 0.
0.636289 0.0447126 0.
0.638355 0.0446519 0.
0.640447 0.0445859 0.
0.642549 0.0445174 0.
0.644654 0.0444438 0.
0.646867 0.044188 0.
0.649078 0.043933 0.
0.651384 0.0436515 0.
0.653784 0.0433294 0.
0.656181 0.0430084 0.
0.658751 0.0424866 0.
0.661316 0.0419676 0.
0.664145 0.0412037 0.
0.666917 0.040378 0.
0.670134 0.039345 0.
0.673406 0.0381398 0.
0.67683 0.0364764 0.
0.680306 0.0347403 0.
0.684222 0.0327042 0.
0.688553 0.0305121 0.
0.692686 0.0283002 0.
0.697323 0.0256252 0.
0.701853 0.0230148 0.
0.707254 0.0204152 0.
0.712607 0.0175735 0.
0.718616 0.0145144 0.
0.725013 0.0116146 0.
0.732442 0.00874243 0.
0.742485 0.00647539 0.
0.753744 0.00416912 0.
0.768732 0.00278087 0.
0.790555 0.00581741 0.
0.407494 0.00626943 0.
0.427847 0.00332968 0.
0.442024 0.0043156 0.
0.453731 0.0064562 0.
0.463746 0.00889129 0.
0.471381 0.0116717 0.
0.477816 0.014629 0.
0.483827 0.0175164 0.
0.48902 0.0202156 0.
0.494165 0.0230475 0.
0.498816 0.0255257 0.
0.503766 0.0283 0.
0.508132 0.0307014 0.
0.512464 0.0331608 0.
0.516427 0.0354118 0.
0.520026 0.0372749 0.
0.52368 0.0389426 0.
0.527183 0.04025 0.
0.530235 0.0413697 0.
0.533286 0.0425269 0.
0.536083 0.0434435 0.
0.538895 0.0442053 0.
0.541462 0.0446767 0.
0.544018 0.0451415 0.
0.546361 0.0454386 0.
0.548706 0.0457484 0.
0.550968 0.0460064 0.
0.553158 0.0462266 0.
0.55535 0.0464447 0.
0.557457 0.046517 0.
0.559563 0.0465876 0.
0.561657 0.0466547 0.
0.563719 0.0467133 0.
0.565781 0.0467722 0.
0.567826 0.0468143 0.
0.569861 0.0468454 0.
0.571896 0.0468767 0.
0.573914 0.0468933 0.
0.57593 0.0469075 0.
0.577945 0.0469209 0.
0.579955 0.0469265 0.
0.581964 0.046932 0.
0.583973 0.0469368 0.
0.585979 0.0469398 0.
0.587984 0.0469429 0.
0.589989 0.0469454 0.
0.591992 0.0469475 0.
0.593995 0.0469495 0.
0.595997 0.0469508 0.
0.597998 0.0469519 0.
0.6 0.046953 0.
0.602002 0.0469519 0.
0.604004 0.0469509 0.
0.606006 0.0469495 0.
0.60801 0.0469466 0.
0.610013 0.0469437 0.
0.612018 0.0469401 0.
0.614025 0.0469356 0.
0.616032 0.0469312 0.
0.618043 0.0469249 0.
0.620055 0.0469178 0.
0.622068 0.0469106 0.
0.624087 0.0468928 0.
0.626107 0.0468741 0.
0.628131 0.0468518 0.
0.630177 0.0468097 0.
0.632222 0.046768 0.
0.63428 0.0467149 0.
0.636355 0.0466451 0.
0.638431 0.0465756 0.
0.640554 0.0464864 0.
0.642692 0.0463921 0.
0.644834 0.046289 0.
0.647061 0.0460058 0.
0.649283 0.0457219 0.
0.651636 0.0453813 0.
0.654091 0.0450096 0.
0.656572 0.0446339 0.
0.659208 0.0440524 0.
0.661882 0.0434348 0.
0.664863 0.0424966 0.
0.667852 0.0415114 0.
0.671121 0.0403608 0.
0.674506 0.0390007 0.
0.678 0.0371743 0.
0.681699 0.0351477 0.
0.685589 0.033084 0.
0.690079 0.030728 0.
0.694307 0.028327 0.
0.698938 0.0256598 0.
0.703501 0.0230446 0.
0.708971 0.0203915 0.
0.714268 0.0174864 0.
0.720352 0.0144309 0.
0.726785 0.0114634 0.
0.734447 0.00877666 0.
0.744645 0.0064328 0.
0.755591 0.00428059 0.
0.770805 0.00317942 0.
0.790357 0.00652846 0.
0.407856 0.00703769 0.
0.426666 0.00376504 0.
0.440331 0.00450117 0.
0.451876 0.00650786 0.
0.461995 0.00893743 0.
0.469715 0.0116928 0.
0.476211 0.0146018 0.
0.482255 0.0175442 0.
0.487464 0.0202424 0.
0.492651 0.0231408 0.
0.497292 0.0256352 0.
0.502242 0.0283834 0.
0.50666 0.0308563 0.
0.511164 0.0334584 0.
0.515061 0.0357919 0.
0.518802 0.0378762 0.
0.522633 0.0397783 0.
0.526063 0.0411279 0.
0.529338 0.0424099 0.
0.532562 0.0437659 0.
0.535474 0.0447993 0.
0.538325 0.0456337 0.
0.540946 0.0461673 0.
0.543587 0.0467301 0.
0.54602 0.0471111 0.
0.548423 0.0474874 0.
0.550748 0.047808 0.
0.552967 0.0480577 0.
0.555189 0.0483062 0.
0.557331 0.048406 0.
0.559471 0.0485009 0.
0.561593 0.0485889 0.
0.563664 0.0486561 0.
0.565735 0.0487236 0.
0.567789 0.048774 0.
0.569832 0.0488128 0.
0.571875 0.0488518 0.
0.573897 0.048873 0.
0.575916 0.0488911 0.
0.577935 0.0489083 0.
0.579947 0.0489153 0.
0.581958 0.0489224 0.
0.583968 0.0489285 0.
0.585975 0.0489328 0.
0.587982 0.048937 0.
0.589987 0.0489405 0.
0.59199 0.0489433 0.
0.593994 0.0489461 0.
0.595996 0.0489477 0.
0.597998 0.0489489 0.
0.6 0.0489501 0.
0.602002 0.0489488 0.
0.604004 0.0489475 0.
0.606007 0.0489456 0.
0.608011 0.0489418 0.
0.610015 0.048938 0.
0.612022 0.0489333 0.
0.61403 0.0489272 0.
0.616039 0.0489212 0.
0.618051 0.0489131 0.
0.620066 0.0489041 0.
0.622081 0.0488951 0.
0.624105 0.0488727 0.
0.626129 0.0488492 0.
0.628159 0.048821 0.
0.630215 0.0487689 0.
0.632271 0.048717 0.
0.634339 0.0486539 0.
0.636425 0.0485746 0.
0.638511 0.0484956 0.
0.640675 0.0483776 0.
0.642858 0.0482509 0.
0.645045 0.0481115 0.
0.647302 0.0477987 0.
0.649553 0.0474859 0.
0.651966 0.0470523 0.
0.654455 0.0465864 0.
0.657039 0.0461197 0.
0.659752 0.045508 0.
0.662511 0.0448101 0.
0.665608 0.0437372 0.
0.668857 0.0425594 0.
0.672236 0.0412526 0.
0.675728 0.0396697 0.
0.679247 0.0377401 0.
0.683117 0.0355024 0.
0.687105 0.0333033 0.
0.691601 0.0308634 0.
0.695866 0.0283741 0.
0.700533 0.0256758 0.
0.705132 0.0230996 0.
0.710596 0.020375 0.
0.715849 0.0174357 0.
0.721964 0.0144159 0.
0.728386 0.0113809 0.
0.736272 0.00884556 0.
0.746492 0.00647928 0.
0.757303 0.00441995 0.
0.772145 0.00355835 0.
0.789998 0.00721154 0.
0.408263 0.0077528 0.
0.425714 0.0041986 0.
0.438906 0.00473082 0.
0.450171 0.00659711 0.
0.460414 0.00903587 0.
0.468147 0.0117208 0.
0.474605 0.0145696 0.
0.480727 0.0175684 0.
0.485923 0.0202808 0.
0.491119 0.0232021 0.
0.495753 0.0257462 0.
0.500716 0.0284453 0.
0.505215 0.0309987 0.
0.509822 0.0336958 0.
0.513663 0.0360895 0.
0.517535 0.0383716 0.
0.521358 0.0403891 0.
0.52487 0.0419159 0.
0.528409 0.0433858 0.
0.531706 0.0448399 0.
0.534631 0.0459523 0.
0.537595 0.0469319 0.
0.540383 0.0476167 0.
0.543129 0.0482943 0.
0.545671 0.0487719 0.
0.548134 0.0492149 0.
0.550529 0.0496058 0.
0.552777 0.0498833 0.
0.555029 0.0501552 0.
0.557205 0.0502822 0.
0.559374 0.0504039 0.
0.561521 0.0505171 0.
0.563601 0.0505925 0.
0.565682 0.0506681 0.
0.567746 0.0507271 0.
0.569798 0.0507748 0.
0.571849 0.0508227 0.
0.573877 0.0508494 0.
0.5759 0.0508721 0.
0.577922 0.0508937 0.
0.579936 0.0509024 0.
0.58195 0.0509112 0.
0.583962 0.0509189 0.
0.58597 0.0509247 0.
0.587978 0.0509304 0.
0.589984 0.050935 0.
0.591988 0.0509386 0.
0.593992 0.0509422 0.
0.595995 0.0509441 0.
0.597998 0.0509455 0.
0.6 0.0509469 0.
0.602003 0.0509452 0.
0.604006 0.0509436 0.
0.606009 0.0509412 0.
0.608014 0.0509364 0.
0.610019 0.0509316 0.
0.612026 0.0509254 0.
0.614037 0.0509175 0.
0.616047 0.0509095 0.
0.618062 0.0508994 0.
0.62008 0.0508883 0.
0.622097 0.0508772 0.
0.624126 0.0508495 0.
0.626155 0.0508203 0.
0.628191 0.0507852 0.
0.630259 0.0507214 0.
0.632325 0.0506583 0.
0.634405 0.0505852 0.
0.636501 0.0504976 0.
0.638597 0.0504103 0.
0.640799 0.0502582 0.
0.643024 0.050098 0.
0.645255 0.0499263 0.
0.647543 0.0495873 0.
0.649823 0.0492468 0.
0.652298 0.0487051 0.
0.654822 0.0481454 0.
0.65756 0.0475751 0.
0.660426 0.046879 0.
0.663399 0.0459567 0.
0.66643 0.044857 0.
0.669907 0.0435262 0.
0.673424 0.0420392 0.
0.677051 0.04019 0.
0.680607 0.0381376 0.
0.684532 0.0357956 0.
0.688643 0.033455 0.
0.693159 0.0309459 0.
0.697446 0.0284394 0.
0.702087 0.0257273 0.
0.706729 0.0231596 0.
0.712163 0.0203487 0.
0.717391 0.0174028 0.
0.723518 0.0144251 0.
0.72992 0.0113873 0.
0.737972 0.00893156 0.
0.748165 0.00658625 0.
0.758898 0.00457844 0.
0.773271 0.00394609 0.
0.789577 0.00785704 0.
0.408726 0.00842931 0.
0.424879 0.00466181 0.
0.437587 0.00498073 0.
0.448583 0.00672443 0.
0.458847 0.00912173 0.
0.466607 0.0117514 0.
0.473025 0.0145635 0.
0.479215 0.0175909 0.
0.484411 0.0203333 0.
0.489622 0.023249 0.
0.494251 0.0258628 0.
0.499248 0.0285265 0.
0.503748 0.031132 0.
0.508358 0.0338382 0.
0.512251 0.0363261 0.
0.516221 0.0387711 0.
0.51996 0.0408454 0.
0.523626 0.0426203 0.
0.5274 0.0442513 0.
0.530607 0.0456932 0.
0.533748 0.0470654 0.
0.536831 0.0481841 0.
0.539811 0.049033 0.
0.542646 0.0498008 0.
0.545279 0.0503637 0.
0.547776 0.0508563 0.
0.550235 0.0513201 0.
0.55254 0.0516281 0.
0.55487 0.0519412 0.
0.55708 0.052114 0.
0.559263 0.0522801 0.
0.561428 0.0524334 0.
0.563523 0.0525171 0.
0.565619 0.0526012 0.
0.567695 0.0526703 0.
0.569757 0.052729 0.
0.571819 0.0527881 0.
0.573853 0.0528215 0.
0.57588 0.0528499 0.
0.577907 0.0528768 0.
0.579923 0.0528875 0.
0.581939 0.0528982 0.
0.583954 0.0529079 0.
0.585963 0.0529154 0.
0.587973 0.0529229 0.
0.58998 0.0529288 0.
0.591985 0.0529333 0.
0.59399 0.0529378 0.
0.595994 0.0529401 0.
0.597997 0.0529418 0.
0.6 0.0529435 0.
0.602004 0.0529413 0.
0.604007 0.0529391 0.
0.606011 0.0529361 0.
0.608017 0.0529302 0.
0.610024 0.0529243 0.
0.612033 0.0529164 0.
0.614045 0.0529061 0.
0.616058 0.0528959 0.
0.618076 0.0528834 0.
0.620096 0.0528699 0.
0.622117 0.0528565 0.
0.624152 0.0528221 0.
0.626188 0.0527861 0.
0.628232 0.0527423 0.
0.630311 0.052664 0.
0.63239 0.0525864 0.
0.634483 0.052502 0.
0.636594 0.0524064 0.
0.638704 0.0523113 0.
0.640934 0.0521008 0.
0.643183 0.0518798 0.
0.645459 0.0516526 0.
0.647812 0.0512913 0.
0.650139 0.0509315 0.
0.652668 0.0502961 0.
0.65518 0.0496722 0.
0.658109 0.0490052 0.
0.66113 0.0482319 0.
0.664335 0.0470275 0.
0.667503 0.0457576 0.
0.671033 0.0443636 0.
0.674662 0.0426922 0.
0.678371 0.0406625 0.
0.682025 0.0384152 0.
0.685998 0.0360001 0.
0.690138 0.0335975 0.
0.694688 0.0310154 0.
0.699022 0.0285048 0.
0.703616 0.0257939 0.
0.708308 0.0232003 0.
0.713716 0.0203083 0.
0.718917 0.0173937 0.
0.725061 0.0143941 0.
0.731427 0.0114578 0.
0.739535 0.00904507 0.
0.749733 0.00672139 0.
0.760326 0.00477977 0.
0.774078 0.0043764 0.
0.789158 0.00849609 0.
0.409326 0.00900747 0.
0.424238 0.00511507 0.
0.436459 0.00528123 0.
0.4472 0.00690138 0.
0.457362 0.00920307 0.
0.465152 0.0118141 0.
0.471579 0.0146169 0.
0.477788 0.0176513 0.
0.482968 0.0204215 0.
0.48821 0.0233346 0.
0.492809 0.0259919 0.
0.497792 0.028644 0.
0.502287 0.0312469 0.
0.506865 0.0339393 0.
0.510822 0.0365155 0.
0.514818 0.0390558 0.
0.518528 0.0412281 0.
0.522349 0.0432246 0.
0.526125 0.044909 0.
0.52944 0.0464718 0.
0.532801 0.0481168 0.
0.535992 0.0493433 0.
0.539101 0.0503144 0.
0.541966 0.0511587 0.
0.544779 0.0518733 0.
0.547349 0.052447 0.
0.549905 0.0530158 0.
0.552289 0.0533667 0.
0.554701 0.0537237 0.
0.556954 0.0539425 0.
0.559152 0.0541531 0.
0.561334 0.0543493 0.
0.563443 0.0544416 0.
0.565554 0.0545342 0.
0.567644 0.0546132 0.
0.569716 0.054683 0.
0.571789 0.0547532 0.
0.573828 0.0547935 0.
0.57586 0.0548275 0.
0.577891 0.0548599 0.
0.57991 0.0548726 0.
0.581929 0.0548852 0.
0.583946 0.0548968 0.
0.585957 0.0549061 0.
0.587968 0.0549155 0.
0.589977 0.0549227 0.
0.591982 0.0549281 0.
0.593988 0.0549335 0.
0.595992 0.0549362 0.
0.597996 0.0549381 0.
0.6 0.05494 0.
0.602004 0.0549373 0.
0.604009 0.0549347 0.
0.606014 0.054931 0.
0.608021 0.054924 0.
0.610028 0.0549169 0.
0.612039 0.0549073 0.
0.614054 0.0548947 0.
0.616069 0.0548822 0.
0.618089 0.0548674 0.
0.620113 0.0548515 0.
0.622136 0.0548357 0.
0.624178 0.0547946 0.
0.62622 0.0547518 0.
0.628273 0.054699 0.
0.630364 0.054606 0.
0.632455 0.0545139 0.
0.634562 0.0544185 0.
0.636688 0.0543151 0.
0.638812 0.0542121 0.
0.641072 0.0539385 0.
0.643346 0.0536562 0.
0.645675 0.0533748 0.
0.648106 0.0529773 0.
0.650537 0.0525567 0.
0.653218 0.0517915 0.
0.655835 0.0510755 0.
0.658856 0.0503039 0.
0.661923 0.0494734 0.
0.665318 0.0480168 0.
0.668692 0.0465834 0.
0.672272 0.0450611 0.
0.675938 0.0432214 0.
0.679711 0.0410361 0.
0.683422 0.0386599 0.
0.687484 0.0361589 0.
0.691653 0.0337149 0.
0.696161 0.0311232 0.
0.70051 0.0285987 0.
0.705086 0.025887 0.
0.709836 0.0232444 0.
0.715202 0.0203161 0.
0.72037 0.0174246 0.
0.726512 0.0143928 0.
0.732856 0.0115813 0.
0.740956 0.00918412 0.
0.751068 0.0069179 0.
0.761527 0.00505868 0.
0.77451 0.00483813 0.
0.788578 0.00907529 0.
0.410074 0.00951519 0.
0.423914 0.00555442 0.
0.435629 0.00566626 0.
0.446098 0.00714008 0.
0.456111 0.00935147 0.
0.463824 0.0119339 0.
0.470268 0.0147389 0.
0.476469 0.0177584 0.
0.481585 0.0205388 0.
0.486854 0.0234505 0.
0.491439 0.026131 0.
0.496363 0.0287871 0.
0.50084 0.0313576 0.
0.505391 0.0340391 0.
0.509397 0.0366769 0.
0.513314 0.0392432 0.
0.517078 0.0415514 0.
0.520994 0.0437093 0.
0.524692 0.0454541 0.
0.528234 0.0471746 0.
0.531725 0.0489763 0.
0.534969 0.0503139 0.
0.53822 0.0514905 0.
0.541231 0.0524754 0.
0.544259 0.0533642 0.
0.546899 0.0540182 0.
0.549538 0.0546897 0.
0.551998 0.0550745 0.
0.554456 0.0554695 0.
0.55675 0.0557402 0.
0.558965 0.0559901 0.
0.561176 0.0562279 0.
0.563311 0.0563312 0.
0.565451 0.0564359 0.
0.567565 0.0565289 0.
0.569649 0.0566131 0.
0.571735 0.0566981 0.
0.573785 0.0567494 0.
0.575826 0.056793 0.
0.577866 0.0568348 0.
0.579889 0.0568499 0.
0.581911 0.056865 0.
0.583931 0.0568791 0.
0.585945 0.0568913 0.
0.587959 0.0569035 0.
0.58997 0.0569127 0.
0.591977 0.0569195 0.
0.593985 0.0569263 0.
0.59599 0.0569295 0.
0.597995 0.0569317 0.
0.6 0.056934 0.
0.602006 0.0569305 0.
0.604011 0.056927 0.
0.606018 0.0569223 0.
0.608028 0.0569133 0.
0.610037 0.0569044 0.
0.612051 0.0568923 0.
0.614069 0.0568763 0.
0.616087 0.0568603 0.
0.618112 0.0568427 0.
0.620139 0.0568243 0.
0.622166 0.0568059 0.
0.624221 0.0567512 0.
0.626277 0.0566949 0.
0.628343 0.0566278 0.
0.630449 0.0565201 0.
0.632553 0.0564134 0.
0.634684 0.0563025 0.
0.636836 0.0561851 0.
0.638984 0.0560686 0.
0.641279 0.0557354 0.
0.643568 0.0554015 0.
0.645944 0.0550712 0.
0.648424 0.0546506 0.
0.65098 0.0541504 0.
0.65381 0.0532591 0.
0.656628 0.0524065 0.
0.659778 0.0514268 0.
0.662962 0.0503601 0.
0.666349 0.0488918 0.
0.669923 0.0473284 0.
0.673556 0.0456434 0.
0.677257 0.0436427 0.
0.681078 0.0413225 0.
0.684838 0.0388648 0.
0.688919 0.0363191 0.
0.693139 0.033837 0.
0.697595 0.031269 0.
0.701948 0.0287199 0.
0.706484 0.0260141 0.
0.71125 0.0233372 0.
0.716592 0.0203737 0.
0.721721 0.0175088 0.
0.727827 0.0144609 0.
0.734184 0.0117598 0.
0.7422 0.00935774 0.
0.752095 0.00717769 0.
0.762395 0.00543753 0.
0.774545 0.00529336 0.
0.787682 0.00951977 0.
0.411033 0.00993278 0.
0.423995 0.00597007 0.
0.435077 0.00613052 0.
0.445257 0.00743329 0.
0.455078 0.00957126 0.
0.462656 0.0121212 0.
0.469091 0.014924 0.
0.475224 0.0179038 0.
0.480269 0.0206741 0.
0.485523 0.0235868 0.
0.490111 0.0262841 0.
0.494962 0.0289472 0.
0.499436 0.0314832 0.
0.503939 0.0341598 0.
0.507945 0.0367954 0.
0.511813 0.0393935 0.
0.515641 0.0418283 0.
0.519511 0.0440541 0.
0.523239 0.0459365 0.
0.526966 0.0477784 0.
0.530472 0.0496222 0.
0.533842 0.0511739 0.
0.537223 0.052551 0.
0.540459 0.0537344 0.
0.543645 0.0547664 0.
0.546342 0.0554582 0.
0.549069 0.0561626 0.
0.551607 0.0566587 0.
0.554103 0.0571592 0.
0.556465 0.0575132 0.
0.558724 0.057804 0.
0.560984 0.0580882 0.
0.563157 0.0582084 0.
0.565335 0.0583292 0.
0.567479 0.0584391 0.
0.569578 0.0585392 0.
0.571678 0.0586402 0.
0.57374 0.0587036 0.
0.575791 0.0587574 0.
0.577841 0.0588092 0.
0.579867 0.0588268 0.
0.581893 0.0588444 0.
0.583916 0.0588611 0.
0.585933 0.0588762 0.
0.58795 0.0588913 0.
0.589963 0.0589027 0.
0.591972 0.0589108 0.
0.593981 0.058919 0.
0.595988 0.0589228 0.
0.597994 0.0589253 0.
0.6 0.0589278 0.
0.602007 0.0589235 0.
0.604014 0.0589192 0.
0.606022 0.0589134 0.
0.608034 0.0589026 0.
0.610046 0.0588918 0.
0.612063 0.058877 0.
0.614085 0.0588575 0.
0.616107 0.058838 0.
0.618135 0.0588176 0.
0.620166 0.0587965 0.
0.622197 0.0587755 0.
0.624267 0.058706 0.
0.626336 0.0586349 0.
0.628418 0.0585519 0.
0.630541 0.0584281 0.
0.632661 0.0583056 0.
0.634825 0.0581742 0.
0.637013 0.0580356 0.
0.639208 0.0578879 0.
0.64156 0.0574921 0.
0.6439 0.0571005 0.
0.646398 0.0566708 0.
0.648961 0.0561622 0.
0.651629 0.0555426 0.
0.65447 0.0546418 0.
0.657475 0.0536437 0.
0.660716 0.0524779 0.
0.664083 0.0511299 0.
0.667508 0.0496048 0.
0.671181 0.047988 0.
0.674889 0.0461249 0.
0.678605 0.0439974 0.
0.682461 0.0415503 0.
0.686286 0.0390261 0.
0.690357 0.0364744 0.
0.694573 0.033976 0.
0.698987 0.0314342 0.
0.703337 0.0288586 0.
0.707851 0.0261581 0.
0.712585 0.0234531 0.
0.717901 0.0204804 0.
0.722964 0.0176546 0.
0.729014 0.0145995 0.
0.735412 0.0119732 0.
0.743236 0.00958995 0.
0.752846 0.00749681 0.
0.762925 0.00591368 0.
0.774248 0.00572776 0.
0.786523 0.00978968 0.
0.412228 0.0102229 0.
0.424289 0.00638806 0.
0.434712 0.00663553 0.
0.444617 0.00776276 0.
0.454151 0.00983067 0.
0.461571 0.0123482 0.
0.467965 0.0151326 0.
0.474 0.0180657 0.
0.47901 0.0208312 0.
0.484209 0.0237303 0.
0.488812 0.0264525 0.
0.493602 0.0291254 0.
0.498051 0.0316243 0.
0.502477 0.0342735 0.
0.506495 0.0368944 0.
0.51036 0.0395376 0.
0.514168 0.0420424 0.
0.517973 0.0443157 0.
0.521767 0.046355 0.
0.525557 0.0482382 0.
0.52911 0.0501497 0.
0.532644 0.0519358 0.
0.536138 0.0534858 0.
0.539565 0.0548635 0.
0.5427 0.0559254 0.
0.545653 0.0568001 0.
0.548544 0.0575947 0.
0.551211 0.0582227 0.
0.553746 0.0588286 0.
0.556176 0.0592815 0.
0.55848 0.0596131 0.
0.560787 0.059941 0.
0.563 0.0600772 0.
0.565214 0.0602138 0.
0.567389 0.0603428 0.
0.5695 0.0604575 0.
0.571613 0.0605732 0.
0.573687 0.06065 0.
0.57575 0.0607163 0.
0.577813 0.0607808 0.
0.579842 0.0608008 0.
0.581871 0.0608209 0.
0.583898 0.0608403 0.
0.585918 0.0608586 0.
0.587939 0.0608769 0.
0.589954 0.0608907 0.
0.591966 0.0609005 0.
0.593977 0.0609104 0.
0.595985 0.0609148 0.
0.597993 0.0609176 0.
0.6 0.0609204 0.
0.602009 0.0609151 0.
0.604018 0.0609098 0.
0.606028 0.0609027 0.
0.608043 0.0608896 0.
0.610058 0.0608766 0.
0.612078 0.0608589 0.
0.614104 0.0608358 0.
0.616129 0.0608128 0.
0.618162 0.0607887 0.
0.620198 0.0607639 0.
0.622234 0.0607391 0.
0.624319 0.0606528 0.
0.626403 0.0605657 0.
0.628501 0.0604664 0.
0.630638 0.0603286 0.
0.632772 0.060192 0.
0.634969 0.0600389 0.
0.637191 0.0598815 0.
0.639438 0.0596989 0.
0.641847 0.0592414 0.
0.644239 0.0587919 0.
0.646883 0.0582449 0.
0.649554 0.05763 0.
0.652435 0.0568009 0.
0.655364 0.0557857 0.
0.658434 0.0546792 0.
0.661705 0.0534204 0.
0.665248 0.0518507 0.
0.668789 0.0502444 0.
0.672483 0.0485488 0.
0.676258 0.0465124 0.
0.680025 0.0442509 0.
0.683863 0.0417286 0.
0.687727 0.0391694 0.
0.691789 0.0366268 0.
0.695994 0.0341256 0.
0.700359 0.0316035 0.
0.704675 0.0290225 0.
0.709188 0.0263112 0.
0.713873 0.0235842 0.
0.71915 0.0206275 0.
0.72416 0.0178231 0.
0.730131 0.0147971 0.
0.736569 0.0122084 0.
0.744165 0.00985645 0.
0.753457 0.00784796 0.
0.763269 0.00644452 0.
0.773845 0.00617925 0.
0.785281 0.0099034 0.
0.413408 0.0103862 0.
0.424597 0.0068406 0.
0.43446 0.00716694 0.
0.444043 0.00811788 0.
0.453295 0.0101226 0.
0.460541 0.0126047 0.
0.4669 0.0153636 0.
0.472817 0.0182498 0.
0.477799 0.021012 0.
0.482942 0.0239036 0.
0.48754 0.0266278 0.
0.492237 0.0292992 0.
0.496689 0.0317892 0.
0.501052 0.0343988 0.
0.505085 0.0370065 0.
0.508916 0.0396762 0.
0.512677 0.0422085 0.
0.51646 0.0445531 0.
0.520271 0.0466859 0.
0.524069 0.048643 0.
0.527726 0.0506317 0.
0.531352 0.0525448 0.
0.534923 0.0542474 0.
0.538422 0.0557383 0.
0.541672 0.0569862 0.
0.54492 0.0581207 0.
0.547976 0.0589969 0.
0.5508 0.0597439 0.
0.553311 0.06041 0.
0.555832 0.0609608 0.
0.55819 0.061322 0.
0.56057 0.0616845 0.
0.562826 0.0618719 0.
0.565073 0.0620586 0.
0.56728 0.0622293 0.
0.569404 0.0623584 0.
0.57153 0.0624885 0.
0.57362 0.0625827 0.
0.5757 0.0626665 0.
0.57778 0.0627488 0.
0.579813 0.0627712 0.
0.581846 0.0627937 0.
0.583876 0.0628158 0.
0.5859 0.0628378 0.
0.587924 0.0628598 0.
0.589943 0.0628764 0.
0.591957 0.0628882 0.
0.593971 0.0629001 0.
0.595982 0.0629053 0.
0.597991 0.0629084 0.
0.600001 0.0629115 0.
0.602012 0.0629049 0.
0.604023 0.0628983 0.
0.606036 0.0628896 0.
0.608055 0.0628739 0.
0.610073 0.0628582 0.
0.612097 0.0628373 0.
0.614126 0.0628106 0.
0.616156 0.0627839 0.
0.618195 0.0627545 0.
0.620238 0.062724 0.
0.622282 0.062693 0.
0.624384 0.0625856 0.
0.626485 0.0624776 0.
0.628601 0.0623585 0.
0.630753 0.062206 0.
0.632903 0.0620549 0.
0.635172 0.0618385 0.
0.63747 0.0616109 0.
0.639804 0.0613555 0.
0.642261 0.0608738 0.
0.644678 0.0604018 0.
0.647406 0.0597665 0.
0.650176 0.0590623 0.
0.653289 0.0580119 0.
0.656347 0.0568613 0.
0.659575 0.0555456 0.
0.662829 0.0541698 0.
0.66647 0.0525092 0.
0.670142 0.0508243 0.
0.673867 0.0490009 0.
0.677648 0.0468317 0.
0.681451 0.0444481 0.
0.685264 0.0418816 0.
0.689162 0.0393078 0.
0.693217 0.0367752 0.
0.697413 0.0342883 0.
0.701723 0.0317794 0.
0.705968 0.0292104 0.
0.710492 0.0264767 0.
0.715114 0.0237376 0.
0.720333 0.0208107 0.
0.725313 0.0180119 0.
0.731188 0.0150418 0.
0.737652 0.0124686 0.
0.745043 0.0101528 0.
0.753995 0.00822076 0.
0.763561 0.00700713 0.
0.773502 0.00666137 0.
0.784063 0.00993914 0.
0.414586 0.0104453 0.
0.424939 0.00732804 0.
0.434344 0.0077262 0.
0.443653 0.00851865 0.
0.452601 0.0104764 0.
0.459603 0.0129091 0.
0.465974 0.0156465 0.
0.47172 0.0184886 0.
0.476652 0.0212288 0.
0.481746 0.0241217 0.
0.486314 0.0268312 0.
0.490928 0.0294974 0.
0.495378 0.0319924 0.
0.499687 0.034557 0.
0.503709 0.0371452 0.
0.507496 0.0398057 0.
0.511224 0.0423617 0.
0.51495 0.0447672 0.
0.51875 0.0469621 0.
0.522572 0.0490086 0.
0.526326 0.0510387 0.
0.529985 0.0530162 0.
0.533611 0.0548729 0.
0.537138 0.0564715 0.
0.540565 0.0579337 0.
0.544082 0.0593509 0.
0.547132 0.0602413 0.
0.550063 0.0611301 0.
0.552709 0.0618993 0.
0.555444 0.0626033 0.
0.557879 0.0630116 0.
0.56034 0.0634229 0.
0.562648 0.0636607 0.
0.564929 0.0638985 0.
0.567169 0.0641152 0.
0.569307 0.0642587 0.
0.571446 0.0644033 0.
0.573553 0.0645147 0.
0.57565 0.0646162 0.
0.577746 0.0647165 0.
0.579783 0.0647416 0.
0.58182 0.0647664 0.
0.583855 0.0647913 0.
0.585882 0.0648169 0.
0.58791 0.0648426 0.
0.589931 0.064862 0.
0.591948 0.064876 0.
0.593965 0.0648899 0.
0.595978 0.0648958 0.
0.59799 0.0648992 0.
0.600001 0.0649026 0.
0.602015 0.0648948 0.
0.604029 0.0648869 0.
0.606044 0.0648766 0.
0.608066 0.0648582 0.
0.610088 0.0648398 0.
0.612116 0.0648157 0.
0.614149 0.0647853 0.
0.616183 0.0647549 0.
0.618228 0.0647203 0.
0.620278 0.064684 0.
0.62233 0.0646463 0.
0.624449 0.0645175 0.
0.626568 0.0643886 0.
0.628702 0.0642498 0.
0.63087 0.0640826 0.
0.633035 0.0639169 0.
0.635386 0.0636291 0.
0.637767 0.0633265 0.
0.640215 0.0629856 0.
0.64278 0.0624452 0.
0.645353 0.0618708 0.
0.648214 0.0610689 0.
0.651051 0.0602682 0.
0.654228 0.0591333 0.
0.65744 0.0578151 0.
0.660778 0.0563469 0.
0.66416 0.0547871 0.
0.66777 0.0531062 0.
0.671536 0.0513296 0.
0.675307 0.0493569 0.
0.679058 0.0470937 0.
0.682869 0.0446163 0.
0.68666 0.042026 0.
0.690576 0.0394593 0.
0.694615 0.0369363 0.
0.698805 0.0344772 0.
0.703042 0.0319775 0.
0.707223 0.0294198 0.
0.711708 0.0266888 0.
0.716284 0.023938 0.
0.721425 0.0210437 0.
0.726383 0.0182487 0.
0.732146 0.0153436 0.
0.738584 0.0127842 0.
0.745783 0.0105071 0.
0.754417 0.00862486 0.
0.763731 0.00759481 0.
0.773094 0.00716525 0.
0.782863 0.00994011 0.
0.415803 0.0104308 0.
0.425413 0.00784835 0.
0.434423 0.00832075 0.
0.443513 0.0089701 0.
0.452081 0.010898 0.
0.45884 0.0132811 0.
0.465176 0.015995 0.
0.470718 0.0187962 0.
0.475613 0.0215027 0.
0.480645 0.0243835 0.
0.485153 0.0270779 0.
0.489699 0.0297388 0.
0.494119 0.0322374 0.
0.498356 0.0347474 0.
0.502366 0.0373082 0.
0.506122 0.039953 0.
0.509799 0.0425151 0.
0.513486 0.0449666 0.
0.517275 0.0472191 0.
0.521089 0.0493275 0.
0.524876 0.0513667 0.
0.528577 0.0534322 0.
0.53223 0.0553964 0.
0.535807 0.0570996 0.
0.539372 0.0587114 0.
0.542883 0.0601942 0.
0.54605 0.061298 0.
0.549192 0.0624423 0.
0.552038 0.0633528 0.
0.554993 0.0642165 0.
0.557536 0.0646811 0.
0.560039 0.0651167 0.
0.5624 0.0654063 0.
0.564715 0.0656997 0.
0.567004 0.0659742 0.
0.569159 0.0661257 0.
0.571318 0.0662782 0.
0.573446 0.0664076 0.
0.57556 0.0665314 0.
0.577675 0.0666552 0.
0.579726 0.0666904 0.
0.581776 0.0667246 0.
0.583822 0.0667573 0.
0.585854 0.0667863 0.
0.587885 0.0668153 0.
0.589912 0.0668379 0.
0.591933 0.0668546 0.
0.593955 0.0668714 0.
0.595972 0.0668784 0.
0.597987 0.0668824 0.
0.600003 0.0668863 0.
0.602021 0.0668764 0.
0.604039 0.0668664 0.
0.60606 0.0668536 0.
0.608087 0.0668318 0.
0.610114 0.0668101 0.
0.612147 0.0667824 0.
0.614186 0.0667483 0.
0.616224 0.0667142 0.
0.618284 0.0666682 0.
0.62035 0.0666188 0.
0.62242 0.0665659 0.
0.62456 0.066413 0.
0.626698 0.066261 0.
0.628856 0.0661039 0.
0.631044 0.065928 0.
0.633227 0.0657539 0.
0.635656 0.0653804 0.
0.638101 0.0650085 0.
0.640671 0.0645888 0.
0.64334 0.0639974 0.
0.646101 0.0632798 0.
0.649093 0.0623024 0.
0.652141 0.0612856 0.
0.655348 0.0600676 0.
0.658643 0.0586341 0.
0.662049 0.0570555 0.
0.665569 0.0553395 0.
0.669184 0.0536307 0.
0.672951 0.0517639 0.
0.676765 0.0496425 0.
0.68049 0.0472892 0.
0.684268 0.0447753 0.
0.688044 0.0421745 0.
0.691953 0.0396325 0.
0.695979 0.0371202 0.
0.700138 0.0347026 0.
0.70432 0.0322038 0.
0.708437 0.0296547 0.
0.712858 0.0269366 0.
0.717367 0.0241968 0.
0.722418 0.0213353 0.
0.72733 0.0185595 0.
0.732938 0.0157224 0.
0.739311 0.0131787 0.
0.746295 0.0109368 0.
0.754642 0.00908037 0.
0.763682 0.00819219 0.
0.772533 0.00768507 0.
0.781641 0.0099639 0.
0.41709 0.0104231 0.
0.426068 0.00840436 0.
0.434713 0.00893178 0.
0.443573 0.00947041 0.
0.451713 0.0113847 0.
0.45828 0.0137291 0.
0.464474 0.0164115 0.
0.469822 0.0191735 0.
0.474703 0.0218491 0.
0.479632 0.0246961 0.
0.484056 0.0273723 0.
0.488542 0.0300237 0.
0.492887 0.0325086 0.
0.497066 0.0349701 0.
0.501056 0.0375015 0.
0.504772 0.0401156 0.
0.508405 0.0426822 0.
0.512061 0.0451622 0.
0.515819 0.0474612 0.
0.519609 0.0496153 0.
0.523412 0.0516743 0.
0.527152 0.0538082 0.
0.530806 0.0558245 0.
0.534448 0.0576474 0.
0.538045 0.0593356 0.
0.541545 0.0608637 0.
0.544907 0.0622526 0.
0.548179 0.0635971 0.
0.55125 0.0646977 0.
0.554216 0.0655717 0.
0.556902 0.066153 0.
0.559523 0.0666914 0.
0.56203 0.0670873 0.
0.564421 0.0674579 0.
0.566799 0.0678154 0.
0.568983 0.067977 0.
0.571172 0.0681397 0.
0.573327 0.0682895 0.
0.575461 0.0684389 0.
0.577597 0.0685888 0.
0.579665 0.0686364 0.
0.58173 0.068681 0.
0.583788 0.0687225 0.
0.585824 0.068755 0.
0.587861 0.0687874 0.
0.589892 0.0688132 0.
0.591918 0.0688329 0.
0.593944 0.0688526 0.
0.595965 0.0688607 0.
0.597985 0.0688652 0.
0.600005 0.0688697 0.
0.602028 0.0688576 0.
0.60405 0.0688454 0.
0.606075 0.0688301 0.
0.608108 0.0688048 0.
0.61014 0.0687796 0.
0.612179 0.0687482 0.
0.614223 0.0687102 0.
0.616268 0.0686723 0.
0.618344 0.0686134 0.
0.620428 0.0685492 0.
0.622519 0.0684783 0.
0.624685 0.0682978 0.
0.626847 0.0681189 0.
0.629039 0.06794 0.
0.631263 0.0677519 0.
0.633487 0.067561 0.
0.636008 0.0670598 0.
0.638518 0.0665796 0.
0.641256 0.0660374 0.
0.644024 0.0654044 0.
0.646945 0.0645495 0.
0.650021 0.0634578 0.
0.653277 0.0622317 0.
0.656576 0.0608763 0.
0.659971 0.0593077 0.
0.66343 0.0576173 0.
0.667005 0.0558395 0.
0.670662 0.0540696 0.
0.674405 0.052103 0.
0.678209 0.049894 0.
0.681925 0.0474523 0.
0.685666 0.0449158 0.
0.689415 0.0423346 0.
0.693298 0.0398314 0.
0.697302 0.0373412 0.
0.701421 0.0349594 0.
0.705535 0.0324742 0.
0.709625 0.0299168 0.
0.713944 0.0272262 0.
0.718376 0.0245107 0.
0.723323 0.021688 0.
0.728182 0.0189394 0.
0.733584 0.0161716 0.
0.739862 0.013644 0.
0.746607 0.0114382 0.
0.754624 0.00959125 0.
0.763445 0.00879838 0.
0.771877 0.00823386 0.
0.780374 0.0100567 0.
0.418371 0.0105317 0.
0.426773 0.00900113 0.
0.435093 0.00953192 0.
0.44372 0.0100133 0.
0.45143 0.0119204 0.
0.457835 0.0142306 0.
0.463842 0.0168768 0.
0.469007 0.0196045 0.
0.473876 0.022248 0.
0.478669 0.0250467 0.
0.483022 0.0277109 0.
0.487427 0.0303298 0.
0.491673 0.0327942 0.
0.495799 0.0352233 0.
0.499758 0.0377156 0.
0.503442 0.0402993 0.
0.507049 0.0428643 0.
0.510653 0.0453535 0.
0.514379 0.0476971 0.
0.518149 0.0498858 0.
0.521944 0.0519734 0.
0.525705 0.0541186 0.
0.52938 0.0561912 0.
0.533038 0.0581403 0.
0.536639 0.0598695 0.
0.540181 0.0614728 0.
0.543666 0.0630599 0.
0.547002 0.0645031 0.
0.550198 0.0657626 0.
0.553251 0.0667672 0.
0.556192 0.067579 0.
0.55896 0.0682345 0.
0.561645 0.0687544 0.
0.564116 0.0692034 0.
0.566592 0.0696543 0.
0.568806 0.0698256 0.
0.571023 0.0699957 0.
0.573206 0.0701637 0.
0.575359 0.0703364 0.
0.577514 0.0705099 0.
0.579598 0.070573 0.
0.581678 0.0706309 0.
0.583749 0.0706841 0.
0.585791 0.0707198 0.
0.587832 0.0707555 0.
0.589868 0.0707844 0.
0.5919 0.070807 0.
0.593931 0.0708297 0.
0.595958 0.070839 0.
0.597983 0.0708441 0.
0.600008 0.0708492 0.
0.602036 0.0708348 0.
0.604063 0.0708205 0.
0.606094 0.0708025 0.
0.608132 0.0707736 0.
0.610171 0.0707447 0.
0.612215 0.0707095 0.
0.614266 0.0706679 0.
0.616317 0.0706263 0.
0.618409 0.0705514 0.
0.620511 0.0704694 0.
0.622624 0.0703779 0.
0.624814 0.0701729 0.
0.626997 0.0699711 0.
0.629225 0.069773 0.
0.631485 0.0695737 0.
0.633772 0.0693445 0.
0.636373 0.0687188 0.
0.63895 0.0681291 0.
0.641909 0.0674383 0.
0.644846 0.0666911 0.
0.647984 0.065588 0.
0.6511 0.0644334 0.
0.654474 0.0630799 0.
0.657886 0.0615704 0.
0.661354 0.0598936 0.
0.664883 0.0580917 0.
0.668496 0.0562818 0.
0.672164 0.0544599 0.
0.675876 0.0523777 0.
0.679657 0.050091 0.
0.68334 0.0476097 0.
0.687052 0.0450643 0.
0.690786 0.0425071 0.
0.694621 0.0400467 0.
0.698583 0.0375973 0.
0.702664 0.0352388 0.
0.70671 0.0327754 0.
0.710766 0.030215 0.
0.714999 0.0275449 0.
0.719328 0.0248661 0.
0.724163 0.0220842 0.
0.728959 0.0193731 0.
0.73417 0.0166708 0.
0.740277 0.0141631 0.
0.746837 0.0119842 0.
0.75446 0.0101427 0.
0.763051 0.00940747 0.
0.771193 0.00882949 0.
0.779133 0.0102977 0.
0.41957 0.0107904 0.
0.427497 0.00964377 0.
0.435533 0.0101139 0.
0.443883 0.0105881 0.
0.451188 0.012489 0.
0.457452 0.0147706 0.
0.463271 0.0173899 0.
0.468282 0.0200858 0.
0.473084 0.0226846 0.
0.477739 0.0254307 0.
0.48201 0.0280775 0.
0.486325 0.0306517 0.
0.490478 0.0331003 0.
0.494555 0.0355059 0.
0.498473 0.0379549 0.
0.502129 0.0405023 0.
0.505705 0.0430572 0.
0.509274 0.0455523 0.
0.512964 0.0479303 0.
0.516708 0.0501486 0.
0.520492 0.0522633 0.
0.524273 0.0543963 0.
0.527945 0.0565171 0.
0.531581 0.058555 0.
0.5352 0.060348 0.
0.538781 0.0620214 0.
0.542305 0.0636773 0.
0.545715 0.0652291 0.
0.549049 0.0667169 0.
0.552229 0.0678901 0.
0.555427 0.0689537 0.
0.558314 0.0696971 0.
0.561129 0.0703241 0.
0.563631 0.0708128 0.
0.566178 0.071313 0.
0.568496 0.0715519 0.
0.570812 0.0717873 0.
0.573071 0.0720099 0.
0.575244 0.0722068 0.
0.577419 0.0724049 0.
0.579522 0.0724909 0.
0.581616 0.0725694 0.
0.583702 0.0726402 0.
0.58575 0.0726791 0.
0.587798 0.072718 0.
0.589841 0.0727501 0.
0.591879 0.0727759 0.
0.593916 0.0728017 0.
0.595949 0.0728122 0.
0.59798 0.072818 0.
0.600012 0.0728237 0.
0.602046 0.072807 0.
0.60408 0.0727903 0.
0.606116 0.0727695 0.
0.608162 0.0727364 0.
0.610207 0.0727033 0.
0.612259 0.0726642 0.
0.614318 0.0726187 0.
0.616377 0.0725734 0.
0.618486 0.0724745 0.
0.620605 0.0723659 0.
0.622742 0.0722435 0.
0.624967 0.0720062 0.
0.627185 0.071773 0.
0.629492 0.071526 0.
0.631834 0.0712793 0.
0.634237 0.0709567 0.
0.636863 0.0702692 0.
0.639478 0.0696028 0.
0.642631 0.0687881 0.
0.64578 0.0678651 0.
0.649085 0.0665391 0.
0.652347 0.0652317 0.
0.655736 0.0638229 0.
0.659246 0.0621491 0.
0.662774 0.0603747 0.
0.666367 0.0585157 0.
0.670018 0.056686 0.
0.673685 0.0547811 0.
0.677349 0.0526141 0.
0.681083 0.0502601 0.
0.684751 0.0477604 0.
0.688418 0.045227 0.
0.692137 0.0427073 0.
0.695938 0.0402749 0.
0.699842 0.0378819 0.
0.703871 0.0355483 0.
0.707851 0.0331 0.
0.711854 0.0305493 0.
0.716028 0.0278959 0.
0.720255 0.0252524 0.
0.724951 0.0225211 0.
0.729691 0.0198525 0.
0.734727 0.0172062 0.
0.740588 0.0147291 0.
0.747002 0.0125695 0.
0.754278 0.0107236 0.
0.762592 0.010004 0.
0.770492 0.00948051 0.
0.777972 0.0106904 0.
0.420752 0.0111607 0.
0.428282 0.0103205 0.
0.436079 0.0106939 0.
0.44412 0.0112043 0.
0.451059 0.0131103 0.
0.457193 0.0153766 0.
0.462775 0.0179668 0.
0.467655 0.0206285 0.
0.472348 0.0231741 0.
0.476864 0.0258634 0.
0.481055 0.0284881 0.
0.48526 0.0310137 0.
0.489335 0.0334497 0.
0.493361 0.0358321 0.
0.497215 0.0382304 0.
0.500847 0.0407403 0.
0.504388 0.0432784 0.
0.507934 0.045773 0.
0.511572 0.048167 0.
0.515297 0.0504187 0.
0.519054 0.0525525 0.
0.522825 0.0546591 0.
0.52649 0.056814 0.
0.530109 0.058897 0.
0.533737 0.0607787 0.
0.537346 0.0625231 0.
0.540898 0.0642224 0.
0.544383 0.0658838 0.
0.547795 0.0674901 0.
0.551123 0.0688936 0.
0.55442 0.0700878 0.
0.557381 0.0709229 0.
0.560365 0.0717635 0.
0.563018 0.0723517 0.
0.56569 0.0729258 0.
0.568157 0.0732584 0.
0.570585 0.0735684 0.
0.572934 0.0738547 0.
0.575127 0.0740758 0.
0.577324 0.0742986 0.
0.579445 0.0744079 0.
0.581554 0.0745071 0.
0.583654 0.0745962 0.
0.585709 0.0746383 0.
0.587764 0.0746805 0.
0.589813 0.0747158 0.
0.591857 0.0747447 0.
0.593901 0.0747736 0.
0.59594 0.0747855 0.
0.597978 0.0747919 0.
0.600015 0.0747982 0.
0.602056 0.0747791 0.
0.604096 0.0747601 0.
0.606139 0.0747364 0.
0.608191 0.0746991 0.
0.610243 0.0746619 0.
0.612303 0.0746187 0.
0.61437 0.0745695 0.
0.616437 0.0745204 0.
0.618565 0.0743963 0.
0.620701 0.074261 0.
0.622864 0.0741067 0.
0.625125 0.0738368 0.
0.627377 0.0735716 0.
0.629784 0.0732636 0.
0.632234 0.072952 0.
0.63482 0.0724779 0.
0.637579 0.0716714 0.
0.640407 0.0708495 0.
0.643585 0.0699669 0.
0.646866 0.068861 0.
0.650256 0.0673914 0.
0.653672 0.0659417 0.
0.657087 0.064438 0.
0.660646 0.062655 0.
0.664218 0.0607766 0.
0.667858 0.058906 0.
0.671534 0.0570496 0.
0.675182 0.0550479 0.
0.678834 0.0528162 0.
0.682502 0.050418 0.
0.68614 0.0479227 0.
0.689768 0.0454095 0.
0.693454 0.0429411 0.
0.69722 0.0405423 0.
0.701075 0.0382031 0.
0.705033 0.0358986 0.
0.708945 0.0334648 0.
0.712863 0.0309323 0.
0.716975 0.0283066 0.
0.721125 0.0256915 0.
0.725678 0.0230144 0.
0.730342 0.0203939 0.
0.735211 0.0177934 0.
0.740811 0.0153505 0.
0.74705 0.0132095 0.
0.754008 0.0113511 0.
0.762013 0.0105888 0.
0.769708 0.0101706 0.
0.776831 0.0111607 0.
0.421986 0.0116207 0.
0.429179 0.0110244 0.
0.43681 0.0112653 0.
0.444496 0.0118847 0.
0.451107 0.0138153 0.
0.457081 0.0160629 0.
0.462385 0.0186228 0.
0.467117 0.0212433 0.
0.471688 0.0237272 0.
0.476067 0.0263568 0.
0.480156 0.0289497 0.
0.484244 0.0314274 0.
0.488245 0.0338436 0.
0.492199 0.0361929 0.
0.49599 0.0385502 0.
0.499594 0.041015 0.
0.503096 0.0435262 0.
0.5066 0.0460021 0.
0.510206 0.0484104 0.
0.513892 0.050688 0.
0.517614 0.0528352 0.
0.521359 0.0549246 0.
0.525022 0.0570753 0.
0.528622 0.059192 0.
0.532263 0.0611708 0.
0.535892 0.0629873 0.
0.539466 0.0647089 0.
0.543009 0.0664285 0.
0.546479 0.0681392 0.
0.549904 0.0697469 0.
0.553205 0.0709874 0.
0.556375 0.0720558 0.
0.559492 0.0731037 0.
0.562353 0.0738684 0.
0.565146 0.0745047 0.
0.567768 0.0749224 0.
0.570285 0.0753008 0.
0.572726 0.0756671 0.
0.574935 0.0759025 0.
0.577153 0.0761394 0.
0.579307 0.0762805 0.
0.581449 0.0764126 0.
0.583583 0.0765332 0.
0.585648 0.0765789 0.
0.587713 0.0766248 0.
0.589773 0.0766634 0.
0.591825 0.076695 0.
0.593878 0.0767265 0.
0.595927 0.0767394 0.
0.597974 0.0767462 0.
0.600021 0.0767528 0.
0.602071 0.0767319 0.
0.604121 0.076711 0.
0.606174 0.0766847 0.
0.608235 0.0766433 0.
0.610296 0.076602 0.
0.612369 0.0765537 0.
0.61445 0.0764988 0.
0.616531 0.0764443 0.
0.618691 0.0762842 0.
0.620856 0.0761147 0.
0.62306 0.0759223 0.
0.625356 0.0756268 0.
0.627636 0.0753387 0.
0.630134 0.0749692 0.
0.632674 0.0746001 0.
0.635464 0.0739496 0.
0.638355 0.0730279 0.
0.641452 0.0719939 0.
0.644725 0.0709483 0.
0.648105 0.0696197 0.
0.651526 0.0681148 0.
0.655039 0.0665802 0.
0.658525 0.0649319 0.
0.662086 0.0630967 0.
0.665696 0.0611479 0.
0.669361 0.0592736 0.
0.673039 0.0573798 0.
0.676664 0.0552838 0.
0.680298 0.0529974 0.
0.683925 0.0505729 0.
0.687519 0.0480983 0.
0.691109 0.0456181 0.
0.694756 0.0432001 0.
0.698478 0.0408465 0.
0.702284 0.0385564 0.
0.706159 0.0362861 0.
0.709993 0.0338746 0.
0.713816 0.031366 0.
0.717843 0.0287862 0.
0.721923 0.0261982 0.
0.726318 0.023578 0.
0.730874 0.0210169 0.
0.735607 0.0184553 0.
0.740937 0.0160382 0.
0.74694 0.0139191 0.
0.753594 0.012045 0.
0.761223 0.0111726 0.
0.768787 0.010884 0.
0.77563 0.0116597 0.
0.423303 0.0121386 0.
0.43023 0.0117447 0.
0.437736 0.0118339 0.
0.445001 0.0126423 0.
0.451302 0.0145961 0.
0.457055 0.0168192 0.
0.462091 0.0193579 0.
0.466637 0.0219226 0.
0.471096 0.0243459 0.
0.475325 0.0269101 0.
0.479301 0.0294616 0.
0.483283 0.0318925 0.
0.487197 0.034273 0.
0.49106 0.0365903 0.
0.494787 0.0389062 0.
0.498349 0.0413168 0.
0.501805 0.0437891 0.
0.505283 0.0462458 0.
0.508841 0.0486546 0.
0.512491 0.0509532 0.
0.51618 0.0531175 0.
0.519892 0.0551993 0.
0.523549 0.0573191 0.
0.527151 0.0594694 0.
0.530797 0.0615188 0.
0.53443 0.0634078 0.
0.538028 0.0651641 0.
0.541597 0.0669182 0.
0.545098 0.0686954 0.
0.548571 0.0704095 0.
0.551956 0.0718063 0.
0.555319 0.0730893 0.
0.558529 0.0742805 0.
0.561575 0.0752205 0.
0.564461 0.0758781 0.
0.56725 0.076422 0.
0.569863 0.0769343 0.
0.57244 0.077448 0.
0.574687 0.0777019 0.
0.576944 0.0779576 0.
0.579145 0.0781361 0.
0.58133 0.0783077 0.
0.583506 0.0784664 0.
0.585582 0.0785164 0.
0.587659 0.0785665 0.
0.58973 0.078609 0.
0.591792 0.0786432 0.
0.593854 0.0786776 0.
0.595913 0.0786916 0.
0.59797 0.0786988 0.
0.600027 0.0787057 0.
0.602087 0.0786829 0.
0.604147 0.0786601 0.
0.60621 0.0786309 0.
0.608281 0.078585 0.
0.610351 0.0785393 0.
0.612439 0.0784849 0.
0.614537 0.0784234 0.
0.616634 0.0783622 0.
0.618838 0.0781576 0.
0.621042 0.0779462 0.
0.62331 0.0777048 0.
0.625672 0.0773722 0.
0.628026 0.0770453 0.
0.630708 0.0765312 0.
0.633345 0.0760575 0.
0.63627 0.0752109 0.
0.639196 0.0742731 0.
0.642543 0.073036 0.
0.645945 0.0717866 0.
0.649409 0.0702699 0.
0.652899 0.0687278 0.
0.656443 0.0671461 0.
0.659976 0.0653668 0.
0.663552 0.0634641 0.
0.667181 0.0615011 0.
0.670867 0.0596275 0.
0.674532 0.0576708 0.
0.678141 0.0555034 0.
0.681742 0.0531702 0.
0.685338 0.0507394 0.
0.688899 0.0482842 0.
0.692449 0.0458519 0.
0.696052 0.043483 0.
0.699722 0.0411809 0.
0.70348 0.0389384 0.
0.707273 0.0366963 0.
0.711018 0.0343187 0.
0.714746 0.0318433 0.
0.71865 0.0293268 0.
0.722637 0.0267748 0.
0.726877 0.0242095 0.
0.731321 0.021712 0.
0.735913 0.0191966 0.
0.740962 0.016798 0.
0.746715 0.0146969 0.
0.753063 0.0128052 0.
0.760266 0.0117704 0.
0.7677 0.0116146 0.
0.774374 0.0121878 0.
0.424644 0.0127158 0.
0.431384 0.0124683 0.
0.438746 0.0124305 0.
0.445547 0.0134626 0.
0.451575 0.0154265 0.
0.457044 0.017633 0.
0.461822 0.0201445 0.
0.466205 0.0226471 0.
0.470537 0.0250173 0.
0.474602 0.0275059 0.
0.47846 0.0300057 0.
0.482336 0.0323892 0.
0.486161 0.0347258 0.
0.489922 0.0370094 0.
0.49358 0.0392847 0.
0.497095 0.0416347 0.
0.500516 0.0440687 0.
0.50397 0.0465025 0.
0.507497 0.0489085 0.
0.511112 0.0512233 0.
0.514751 0.0534044 0.
0.518434 0.0554908 0.
0.522095 0.0575729 0.
0.525702 0.059732 0.
0.52934 0.0618343 0.
0.532972 0.063805 0.
0.536582 0.0656145 0.
0.540157 0.0673719 0.
0.543699 0.0691842 0.
0.547207 0.0709617 0.
0.550675 0.0725475 0.
0.55413 0.0739528 0.
0.557417 0.0752188 0.
0.560654 0.0764227 0.
0.563698 0.0771946 0.
0.566705 0.077886 0.
0.569417 0.078534 0.
0.572148 0.0792251 0.
0.574436 0.0794976 0.
0.576732 0.0797702 0.
0.578981 0.0799817 0.
0.581206 0.0801914 0.
0.583425 0.0803935 0.
0.585513 0.0804477 0.
0.587603 0.0805022 0.
0.589685 0.0805484 0.
0.591757 0.0805851 0.
0.593829 0.0806219 0.
0.595898 0.0806368 0.
0.597966 0.0806441 0.
0.600034 0.0806512 0.
0.602104 0.0806267 0.
0.604175 0.0806023 0.
0.606248 0.0805706 0.
0.608329 0.0805208 0.
0.610409 0.0804711 0.
0.612512 0.0804093 0.
0.614628 0.0803396 0.
0.616744 0.0802689 0.
0.61899 0.0800209 0.
0.621231 0.0797705 0.
0.623569 0.0794796 0.
0.625999 0.07911 0.
0.628475 0.0787223 0.
0.631331 0.0780566 0.
0.634159 0.0773822 0.
0.637263 0.0762847 0.
0.640323 0.0752094 0.
0.643715 0.0739215 0.
0.647213 0.0724939 0.
0.650726 0.0708736 0.
0.654302 0.0692868 0.
0.657874 0.067624 0.
0.66142 0.0657674 0.
0.665003 0.0638025 0.
0.668666 0.0618473 0.
0.672362 0.0599621 0.
0.676015 0.0579358 0.
0.679597 0.0557126 0.
0.683173 0.0533464 0.
0.686732 0.0509247 0.
0.69027 0.0484888 0.
0.693793 0.0461059 0.
0.697357 0.0437876 0.
0.700965 0.0415419 0.
0.704667 0.0393419 0.
0.708386 0.037123 0.
0.712045 0.0347799 0.
0.715689 0.0323437 0.
0.719445 0.0298994 0.
0.72332 0.0273936 0.
0.727413 0.0248915 0.
0.731722 0.0224597 0.
0.736156 0.019991 0.
0.740963 0.0176118 0.
0.746426 0.0155308 0.
0.752504 0.0136198 0.
0.759279 0.0124022 0.
0.76652 0.0123345 0.
0.77309 0.0127432 0.
0.425995 0.0133651 0.
0.432606 0.0131636 0.
0.43971 0.0130901 0.
0.446085 0.0143272 0.
0.451846 0.0162992 0.
0.457019 0.0184942 0.
0.461534 0.0209617 0.
0.465791 0.023411 0.
0.469959 0.0257212 0.
0.473855 0.0281229 0.
0.477611 0.0305713 0.
0.48137 0.032908 0.
0.485108 0.0351948 0.
0.48877 0.0374475 0.
0.492353 0.0396787 0.
0.495827 0.0419705 0.
0.499228 0.0443618 0.
0.502659 0.0467742 0.
0.506169 0.0491737 0.
0.509738 0.0514955 0.
0.513334 0.0536962 0.
0.516988 0.0557899 0.
0.520645 0.0578443 0.
0.524265 0.0599916 0.
0.527902 0.0621373 0.
0.531526 0.0641676 0.
0.53513 0.0660367 0.
0.538716 0.0678042 0.
0.542294 0.0696147 0.
0.545831 0.0714483 0.
0.549348 0.0731972 0.
0.552844 0.0746839 0.
0.556244 0.0760591 0.
0.559612 0.0774763 0.
0.562871 0.0784586 0.
0.566098 0.0792842 0.
0.568862 0.0800176 0.
0.571631 0.0808118 0.
0.574052 0.0811635 0.
0.576465 0.0814788 0.
0.578807 0.0817577 0.
0.581068 0.0820328 0.
0.58333 0.0823047 0.
0.585435 0.0823649 0.
0.587541 0.0824254 0.
0.589637 0.0824764 0.
0.591719 0.0825156 0.
0.593802 0.0825548 0.
0.595882 0.0825703 0.
0.597962 0.0825774 0.
0.600041 0.0825842 0.
0.602124 0.0825583 0.
0.604206 0.0825325 0.
0.606291 0.0824984 0.
0.60838 0.082445 0.
0.610469 0.0823918 0.
0.612592 0.0823156 0.
0.61473 0.0822275 0.
0.616879 0.08213 0.
0.619209 0.0818035 0.
0.621518 0.0814855 0.
0.623968 0.0811196 0.
0.626477 0.0807117 0.
0.629094 0.0802451 0.
0.632019 0.0795097 0.
0.635068 0.0785646 0.
0.638314 0.0772735 0.
0.64158 0.0760046 0.
0.644995 0.0746666 0.
0.648548 0.0730916 0.
0.652102 0.0714205 0.
0.655714 0.069808 0.
0.659304 0.0680533 0.
0.662853 0.0661404 0.
0.666453 0.064137 0.
0.670128 0.0622047 0.
0.673825 0.0602824 0.
0.677484 0.0581821 0.
0.68105 0.0559091 0.
0.684594 0.0535351 0.
0.688126 0.051124 0.
0.691634 0.0487213 0.
0.695139 0.0463797 0.
0.698675 0.0441122 0.
0.702227 0.0419223 0.
0.70586 0.0397636 0.
0.709511 0.0375617 0.
0.713086 0.0352501 0.
0.716657 0.0328604 0.
0.720283 0.0304835 0.
0.724028 0.0280329 0.
0.727965 0.0256014 0.
0.732108 0.0232449 0.
0.736379 0.0208272 0.
0.740979 0.0184713 0.
0.746147 0.0164051 0.
0.751932 0.0144855 0.
0.75833 0.0130908 0.
0.765317 0.0130229 0.
0.771782 0.013368 0.
0.427402 0.0140716 0.
0.433919 0.0138124 0.
0.440668 0.0138297 0.
0.446694 0.0152652 0.
0.452143 0.0172352 0.
0.456991 0.0194139 0.
0.461295 0.021838 0.
0.465395 0.0242277 0.
0.469367 0.0264685 0.
0.473119 0.0287838 0.
0.47677 0.0311742 0.
0.480411 0.033461 0.
0.484054 0.0356949 0.
0.487618 0.03791 0.
0.491134 0.0401033 0.
0.494578 0.0423455 0.
0.497966 0.0446872 0.
0.501371 0.0470709 0.
0.504849 0.0494546 0.
0.508371 0.0517753 0.
0.51194 0.0539946 0.
0.515568 0.0561018 0.
0.51922 0.0581461 0.
0.522852 0.0602635 0.
0.526479 0.0624285 0.
0.530099 0.0645036 0.
0.533689 0.0664401 0.
0.537281 0.068236 0.
0.540881 0.0700286 0.
0.544447 0.0718982 0.
0.547989 0.0737358 0.
0.551505 0.0753227 0.
0.555018 0.0768082 0.
0.558452 0.0783625 0.
0.561878 0.0795904 0.
0.565146 0.0804406 0.
0.568062 0.0812865 0.
0.570947 0.0822523 0.
0.573592 0.0827857 0.
0.576165 0.0831703 0.
0.578629 0.0835276 0.
0.580927 0.0838686 0.
0.583232 0.0842121 0.
0.585356 0.0842818 0.
0.587478 0.0843484 0.
0.589589 0.0844044 0.
0.591682 0.084446 0.
0.593774 0.0844877 0.
0.595866 0.0845039 0.
0.597957 0.0845108 0.
0.600049 0.0845173 0.
0.602143 0.0844899 0.
0.604238 0.0844626 0.
0.606333 0.0844261 0.
0.608432 0.0843691 0.
0.610531 0.0843123 0.
0.612674 0.0842208 0.
0.614834 0.084114 0.
0.617024 0.0839838 0.
0.61944 0.0835769 0.
0.621829 0.0831832 0.
0.624447 0.082711 0.
0.627106 0.0822199 0.
0.629971 0.0815569 0.
0.632957 0.0806991 0.
0.636141 0.0795198 0.
0.639463 0.0781434 0.
0.642888 0.07674 0.
0.646358 0.0752738 0.
0.649925 0.0736193 0.
0.653513 0.071931 0.
0.657129 0.0702707 0.
0.660734 0.0684465 0.
0.664276 0.0664831 0.
0.667882 0.0644832 0.
0.671559 0.0625696 0.
0.675254 0.0605942 0.
0.67891 0.0584313 0.
0.682477 0.0561084 0.
0.686 0.053739 0.
0.689495 0.0513507 0.
0.692979 0.0489881 0.
0.696463 0.0466907 0.
0.699979 0.0444683 0.
0.703489 0.0423285 0.
0.707043 0.0402099 0.
0.71062 0.038033 0.
0.714123 0.0357507 0.
0.717626 0.0334106 0.
0.721146 0.0310919 0.
0.724746 0.0287077 0.
0.728514 0.0263501 0.
0.732476 0.0240741 0.
0.736579 0.0217215 0.
0.740957 0.0194012 0.
0.745842 0.0173373 0.
0.751299 0.0154246 0.
0.757356 0.0138663 0.
0.764031 0.0136832 0.
0.770389 0.0140442 0.
0.428966 0.0147952 0.
0.435375 0.0144405 0.
0.441724 0.0146793 0.
0.447397 0.0162944 0.
0.452481 0.0182511 0.
0.457012 0.020422 0.
0.461106 0.0227885 0.
0.465016 0.025097 0.
0.468783 0.0272644 0.
0.472404 0.0295006 0.
0.475938 0.0318198 0.
0.479468 0.034053 0.
0.483011 0.0362344 0.
0.486481 0.0384046 0.
0.489928 0.0405624 0.
0.493346 0.0427541 0.
0.496721 0.0450419 0.
0.500096 0.0473925 0.
0.503534 0.0497477 0.
0.507018 0.0520628 0.
0.510559 0.0542963 0.
0.514173 0.0564264 0.
0.517814 0.0584704 0.
0.521447 0.0605466 0.
0.525067 0.0627091 0.
0.528676 0.0648259 0.
0.532256 0.0668244 0.
0.535849 0.0686632 0.
0.539465 0.0704389 0.
0.54306 0.0723077 0.
0.546611 0.0741913 0.
0.55015 0.0759061 0.
0.553733 0.0774659 0.
0.557228 0.0790734 0.
0.560736 0.0805335 0.
0.564074 0.0814892 0.
0.567211 0.0824878 0.
0.570204 0.0836174 0.
0.573077 0.0843793 0.
0.575792 0.084827 0.
0.578374 0.0852569 0.
0.580698 0.0856474 0.
0.58305 0.0860472 0.
0.585225 0.0861497 0.
0.587386 0.0862369 0.
0.589531 0.0863088 0.
0.591636 0.0863513 0.
0.593742 0.0863939 0.
0.595847 0.0864101 0.
0.597952 0.0864163 0.
0.600058 0.0864221 0.
0.602167 0.0863937 0.
0.604275 0.0863653 0.
0.606385 0.0863274 0.
0.608499 0.0862688 0.
0.610612 0.0862104 0.
0.612797 0.08609 0.
0.615001 0.0859507 0.
0.617262 0.0857636 0.
0.619745 0.0852896 0.
0.622186 0.084849 0.
0.624988 0.0842695 0.
0.627794 0.0836958 0.
0.630908 0.082792 0.
0.634 0.0817498 0.
0.637329 0.0802871 0.
0.640721 0.0788682 0.
0.644212 0.0774077 0.
0.647735 0.0758057 0.
0.651324 0.074106 0.
0.654934 0.0724164 0.
0.658548 0.0706934 0.
0.662155 0.068815 0.
0.665709 0.0668114 0.
0.669309 0.0648396 0.
0.67297 0.0629305 0.
0.676658 0.0608978 0.
0.680309 0.058677 0.
0.683864 0.056331 0.
0.687382 0.0539675 0.
0.690849 0.051604 0.
0.694308 0.0492833 0.
0.697774 0.0470322 0.
0.701265 0.0448589 0.
0.704738 0.0427629 0.
0.708228 0.0406765 0.
0.711725 0.0385278 0.
0.715149 0.0362873 0.
0.718577 0.0340092 0.
0.722 0.0317397 0.
0.725468 0.029422 0.
0.729071 0.0271501 0.
0.732831 0.0249552 0.
0.736739 0.0226819 0.
0.740876 0.0204136 0.
0.745463 0.0183561 0.
0.750595 0.0164483 0.
0.756273 0.0147677 0.
0.76257 0.0143377 0.
0.76882 0.014735 0.
0.430723 0.0155004 0.
0.436946 0.0151028 0.
0.442857 0.0156773 0.
0.448113 0.0174117 0.
0.452834 0.0193531 0.
0.457048 0.0215047 0.
0.460909 0.0237896 0.
0.464618 0.0260086 0.
0.468204 0.0281074 0.
0.471684 0.0302554 0.
0.475102 0.0324972 0.
0.478536 0.0346822 0.
0.481968 0.0368073 0.
0.485346 0.0389271 0.
0.488734 0.0410482 0.
0.492116 0.0431864 0.
0.495471 0.0454198 0.
0.498808 0.0477254 0.
0.502214 0.0500503 0.
0.505671 0.0523562 0.
0.509196 0.0546045 0.
0.512788 0.056754 0.
0.516417 0.058806 0.
0.520053 0.0608537 0.
0.523666 0.0629947 0.
0.527258 0.0651398 0.
0.530837 0.067182 0.
0.534431 0.0690768 0.
0.538056 0.0708533 0.
0.541682 0.0727024 0.
0.545252 0.0746195 0.
0.548819 0.0764502 0.
0.552427 0.078067 0.
0.55598 0.0796916 0.
0.559515 0.0813058 0.
0.56296 0.0824661 0.
0.566304 0.0835727 0.
0.569359 0.0847677 0.
0.57237 0.0857535 0.
0.575177 0.0863145 0.
0.577957 0.086915 0.
0.580365 0.0873691 0.
0.582808 0.0878369 0.
0.585062 0.0879929 0.
0.587278 0.0881113 0.
0.589468 0.0882069 0.
0.591588 0.0882504 0.
0.593708 0.088294 0.
0.595828 0.0883101 0.
0.597948 0.0883156 0.
0.600068 0.0883207 0.
0.602191 0.0882908 0.
0.604315 0.088261 0.
0.606441 0.0882212 0.
0.608573 0.0881608 0.
0.610703 0.0881006 0.
0.612951 0.0879382 0.
0.615221 0.0877515 0.
0.617597 0.0874689 0.
0.620196 0.086883 0.
0.622778 0.0863204 0.
0.625702 0.0856338 0.
0.628633 0.0849883 0.
0.631891 0.0839075 0.
0.635133 0.0825912 0.
0.638544 0.080988 0.
0.642021 0.0795331 0.
0.645541 0.0780141 0.
0.649096 0.0763021 0.
0.652701 0.0745821 0.
0.656333 0.0728893 0.
0.659961 0.0710969 0.
0.663568 0.0691637 0.
0.667134 0.0671454 0.
0.670738 0.0652089 0.
0.674387 0.0632748 0.
0.678049 0.061188 0.
0.681682 0.0589231 0.
0.685238 0.0565702 0.
0.688748 0.054216 0.
0.692199 0.0518832 0.
0.695633 0.0496001 0.
0.69908 0.0473981 0.
0.702545 0.0452768 0.
0.70599 0.0432197 0.
0.709421 0.0411602 0.
0.712836 0.0390399 0.
0.716185 0.0368479 0.
0.719525 0.0346441 0.
0.722844 0.0324286 0.
0.726196 0.0301725 0.
0.729655 0.0279866 0.
0.733218 0.0258763 0.
0.736906 0.0236903 0.
0.740805 0.0214931 0.
0.745059 0.0194601 0.
0.749822 0.017564 0.
0.755117 0.0158112 0.
0.760977 0.0150496 0.
0.767048 0.0154043 0.
0.432579 0.016161 0.
0.438499 0.0158664 0.
0.443937 0.016813 0.
0.448762 0.0185932 0.
0.453112 0.0205184 0.
0.457007 0.0226111 0.
0.460642 0.0248026 0.
0.464146 0.0269322 0.
0.46756 0.0289584 0.
0.470912 0.0310205 0.
0.474226 0.0331827 0.
0.477568 0.0353181 0.
0.480893 0.0373924 0.
0.484192 0.0394609 0.
0.487522 0.04154 0.
0.49087 0.0436333 0.
0.494197 0.0458121 0.
0.497499 0.0480654 0.
0.500883 0.0503616 0.
0.504333 0.0526644 0.
0.507843 0.0549203 0.
0.511422 0.0570879 0.
0.515043 0.0591589 0.
0.518672 0.0611881 0.
0.522283 0.0632964 0.
0.525868 0.0654515 0.
0.529445 0.0675291 0.
0.533038 0.0694898 0.
0.536675 0.0712977 0.
0.540334 0.0731154 0.
0.543923 0.0750431 0.
0.547499 0.076939 0.
0.551114 0.0786385 0.
0.554732 0.0802618 0.
0.558281 0.081957 0.
0.561811 0.0833541 0.
0.565266 0.0845196 0.
0.568393 0.085735 0.
0.571564 0.0869913 0.
0.574516 0.0877459 0.
0.577504 0.0885488 0.
0.580018 0.0890779 0.
0.582555 0.0896137 0.
0.584897 0.089829 0.
0.587169 0.0899781 0.
0.589407 0.0901004 0.
0.591541 0.0901445 0.
0.593675 0.0901885 0.
0.595809 0.0902045 0.
0.597943 0.0902094 0.
0.600077 0.0902137 0.
0.602216 0.0901825 0.
0.604353 0.0901514 0.
0.606496 0.09011 0.
0.608645 0.0900485 0.
0.610794 0.0899873 0.
0.613108 0.0897789 0.
0.615445 0.089544 0.
0.617956 0.0891487 0.
0.620673 0.0884485 0.
0.623444 0.0877255 0.
0.626496 0.086887 0.
0.629627 0.086027 0.
0.632931 0.0848733 0.
0.636308 0.0833106 0.
0.639786 0.081639 0.
0.643326 0.0801547 0.
0.646866 0.0785549 0.
0.650436 0.0767857 0.
0.654066 0.0750625 0.
0.657706 0.0733399 0.
0.661336 0.0714982 0.
0.664955 0.0695082 0.
0.668544 0.0675005 0.
0.672148 0.0655885 0.
0.675785 0.063613 0.
0.679429 0.061473 0.
0.683042 0.059172 0.
0.686593 0.0568249 0.
0.690103 0.0544836 0.
0.693543 0.0521833 0.
0.696958 0.0499433 0.
0.700393 0.0477824 0.
0.703835 0.0457113 0.
0.707253 0.0436891 0.
0.710634 0.0416526 0.
0.713983 0.0395553 0.
0.717263 0.0374139 0.
0.720515 0.0352826 0.
0.723737 0.0331233 0.
0.72697 0.0309375 0.
0.730301 0.028828 0.
0.733702 0.0267983 0.
0.737177 0.0247119 0.
0.740826 0.0225962 0.
0.744755 0.0206101 0.
0.749113 0.0187508 0.
0.753991 0.0169728 0.
0.759397 0.0158784 0.
0.765174 0.0160424 0.
0.434396 0.0168081 0.
0.439894 0.0167964 0.
0.444844 0.0180398 0.
0.449237 0.0198175 0.
0.453193 0.0216912 0.
0.456798 0.0237003 0.
0.460225 0.0257925 0.
0.463529 0.0278298 0.
0.466794 0.02979 0.
0.470036 0.0317705 0.
0.473268 0.0338496 0.
0.476517 0.0359381 0.
0.479743 0.0379713 0.
0.482982 0.0399952 0.
0.486268 0.0420355 0.
0.489585 0.0440903 0.
0.492882 0.0462111 0.
0.49617 0.0484186 0.
0.499546 0.0506901 0.
0.502994 0.0529873 0.
0.506503 0.0552511 0.
0.510076 0.0574345 0.
0.513691 0.0595294 0.
0.517307 0.0615541 0.
0.520919 0.0636269 0.
0.5245 0.0657719 0.
0.52808 0.0678845 0.
0.531687 0.0699023 0.
0.535338 0.0717562 0.
0.539015 0.0735513 0.
0.542628 0.0754685 0.
0.546208 0.077405 0.
0.54983 0.0791857 0.
0.553483 0.0808203 0.
0.557064 0.0825545 0.
0.560639 0.0841787 0.
0.564117 0.0853598 0.
0.5674 0.0866442 0.
0.570686 0.0880777 0.
0.573841 0.0891113 0.
0.576952 0.0900367 0.
0.579591 0.0906316 0.
0.582189 0.0911956 0.
0.58465 0.0915201 0.
0.587017 0.091766 0.
0.589346 0.0919737 0.
0.591495 0.0920186 0.
0.593645 0.0920634 0.
0.595793 0.0920795 0.
0.597941 0.092084 0.
0.600089 0.0920879 0.
0.602241 0.0920549 0.
0.604392 0.0920219 0.
0.60655 0.0919765 0.
0.608717 0.0919091 0.
0.610883 0.0918421 0.
0.613333 0.0915184 0.
0.615783 0.0911836 0.
0.618423 0.0906493 0.
0.621185 0.08991 0.
0.624135 0.0890501 0.
0.627306 0.0880838 0.
0.63064 0.0869911 0.
0.634017 0.0856957 0.
0.637496 0.083942 0.
0.641035 0.0822757 0.
0.644611 0.0807598 0.
0.648162 0.0790607 0.
0.651748 0.0772727 0.
0.655395 0.0755559 0.
0.659045 0.0737925 0.
0.66268 0.0718934 0.
0.666305 0.0698709 0.
0.669923 0.0678894 0.
0.673534 0.0659755 0.
0.67716 0.063952 0.
0.680791 0.0617653 0.
0.684396 0.059438 0.
0.687942 0.0570992 0.
0.691449 0.0547771 0.
0.69489 0.052506 0.
0.698292 0.0503104 0.
0.701721 0.0481901 0.
0.705148 0.0461616 0.
0.70854 0.0441656 0.
0.71188 0.0421465 0.
0.715174 0.0400731 0.
0.718408 0.037978 0.
0.72159 0.0359037 0.
0.72473 0.0337952 0.
0.727857 0.0316836 0.
0.731053 0.0296567 0.
0.734333 0.0276929 0.
0.737628 0.0257018 0.
0.741033 0.0236825 0.
0.744661 0.0217637 0.
0.748622 0.0199622 0.
0.753033 0.0182091 0.
0.75797 0.0168705 0.
0.763353 0.0167201 0.
0.436054 0.0175541 0.
0.441055 0.0178969 0.
0.445503 0.0193228 0.
0.449459 0.0210602 0.
0.45304 0.0228456 0.
0.456403 0.0247624 0.
0.459618 0.0267494 0.
0.462772 0.0287055 0.
0.465924 0.0306077 0.
0.469071 0.0325135 0.
0.472234 0.0345111 0.
0.475401 0.0365607 0.
0.478557 0.0385673 0.
0.481763 0.0405594 0.
0.485013 0.042566 0.
0.488297 0.0445828 0.
0.491581 0.0466542 0.
0.494872 0.0488255 0.
0.498252 0.0510702 0.
0.501705 0.0533579 0.
0.505219 0.0556279 0.
0.508781 0.0578197 0.
0.512383 0.0599318 0.
0.515984 0.0619615 0.
0.51959 0.0640031 0.
0.523181 0.0661303 0.
0.526773 0.068267 0.
0.530396 0.0703252 0.
0.53406 0.0722319 0.
0.537743 0.0740293 0.
0.541375 0.0759194 0.
0.54496 0.0778726 0.
0.548597 0.0797216 0.
0.552272 0.0813952 0.
0.555888 0.0831308 0.
0.559467 0.0848709 0.
0.562969 0.0861744 0.
0.566381 0.0874961 0.
0.569764 0.0890305 0.
0.573062 0.0902693 0.
0.576212 0.0912854 0.
0.579064 0.0920792 0.
0.581773 0.0927307 0.
0.584384 0.0931935 0.
0.586856 0.0935448 0.
0.589285 0.093847 0.
0.591449 0.0938927 0.
0.593614 0.0939383 0.
0.595777 0.0939545 0.
0.597939 0.0939587 0.
0.600101 0.0939621 0.
0.602266 0.0939272 0.
0.60443 0.0938924 0.
0.606604 0.0938427 0.
0.608789 0.0937694 0.
0.610973 0.0936964 0.
0.613586 0.0932354 0.
0.616179 0.0927742 0.
0.618986 0.092042 0.
0.621821 0.0911947 0.
0.624911 0.0901788 0.
0.628151 0.0891627 0.
0.631655 0.0878876 0.
0.635121 0.0863843 0.
0.638654 0.0845413 0.
0.642253 0.0829087 0.
0.645845 0.0813467 0.
0.64941 0.0795673 0.
0.653015 0.0777821 0.
0.656675 0.0760627 0.
0.660325 0.07426 0.
0.663969 0.0723032 0.
0.667611 0.0702684 0.
0.67125 0.0683196 0.
0.674864 0.0663862 0.
0.678481 0.0643132 0.
0.682105 0.0620874 0.
0.685704 0.0597498 0.
0.689255 0.0574201 0.
0.692756 0.0551233 0.
0.696197 0.0528843 0.
0.699594 0.050731 0.
0.703018 0.0486513 0.
0.706436 0.0466564 0.
0.709804 0.0446817 0.
0.713116 0.0426668 0.
0.716377 0.040615 0.
0.719581 0.0385645 0.
0.722716 0.0365294 0.
0.725795 0.0344656 0.
0.728851 0.032421 0.
0.731931 0.0304738 0.
0.735091 0.0285689 0.
0.738255 0.026658 0.
0.741461 0.0247437 0.
0.744814 0.0229052 0.
0.748415 0.0211776 0.
0.75237 0.0194807 0.
0.756799 0.0180193 0.
0.76171 0.0175244 0.
0.437422 0.018462 0.
0.441894 0.0191323 0.
0.445837 0.0206274 0.
0.449367 0.0222927 0.
0.452654 0.0239865 0.
0.45581 0.0258007 0.
0.458856 0.0276901 0.
0.461912 0.0295837 0.
0.464986 0.031437 0.
0.468062 0.0332842 0.
0.471165 0.0352113 0.
0.474282 0.0372264 0.
0.477405 0.0392206 0.
0.480593 0.0411894 0.
0.483805 0.0431629 0.
0.487063 0.0451411 0.
0.490346 0.0471726 0.
0.493654 0.0493135 0.
0.497043 0.0515324 0.
0.500501 0.0538028 0.
0.504023 0.0560765 0.
0.507577 0.0582645 0.
0.511155 0.0603843 0.
0.514739 0.0624269 0.
0.518342 0.0644464 0.
0.521951 0.0665517 0.
0.52555 0.0686946 0.
0.529192 0.070783 0.
0.532862 0.0727475 0.
0.536536 0.0745648 0.
0.540174 0.0764091 0.
0.543779 0.0783631 0.
0.547443 0.0802693 0.
0.551111 0.0819876 0.
0.554767 0.0837055 0.
0.558353 0.0855136 0.
0.561858 0.0869711 0.
0.565348 0.0882941 0.
0.568818 0.0898474 0.
0.572228 0.0913108 0.
0.575445 0.0924677 0.
0.578513 0.093494 0.
0.581337 0.0942304 0.
0.584113 0.0948365 0.
0.586684 0.0952846 0.
0.589219 0.0956983 0.
0.5914 0.0957444 0.
0.593581 0.0957907 0.
0.59576 0.0958073 0.
0.597936 0.0958114 0.
0.600114 0.0958146 0.
0.602293 0.0957787 0.
0.604471 0.0957428 0.
0.606662 0.0956891 0.
0.608865 0.0956098 0.
0.611067 0.0955311 0.
0.61385 0.0949194 0.
0.616594 0.0943346 0.
0.619562 0.093394 0.
0.622479 0.0924295 0.
0.625717 0.0912084 0.
0.629042 0.0900938 0.
0.632646 0.0887113 0.
0.636182 0.0870105 0.
0.639752 0.0851451 0.
0.643407 0.0835557 0.
0.647011 0.0819249 0.
0.650588 0.0801019 0.
0.654212 0.0783286 0.
0.657879 0.0765933 0.
0.661536 0.0747545 0.
0.66518 0.0727487 0.
0.668834 0.0707244 0.
0.672496 0.0687967 0.
0.676115 0.066836 0.
0.679711 0.0647277 0.
0.683326 0.062467 0.
0.686935 0.060125 0.
0.690496 0.0578103 0.
0.693992 0.055542 0.
0.697431 0.0533454 0.
0.700822 0.0512325 0.
0.704239 0.049189 0.
0.707651 0.0472243 0.
0.711002 0.0452645 0.
0.714296 0.0432481 0.
0.71754 0.0412154 0.
0.720732 0.0392036 0.
0.723836 0.0371997 0.
0.726877 0.0351778 0.
0.729894 0.0331914 0.
0.732892 0.0313092 0.
0.735948 0.0294555 0.
0.739019 0.0276067 0.
0.742082 0.0257884 0.
0.74522 0.0240326 0.
0.748519 0.0223797 0.
0.752069 0.0207592 0.
0.755996 0.0192641 0.
0.760403 0.0184896 0.
0.438412 0.0195397 0.
0.442362 0.0204478 0.
0.445824 0.0219489 0.
0.449013 0.0235398 0.
0.452078 0.025139 0.
0.455067 0.0268478 0.
0.458016 0.0286676 0.
0.46101 0.0305102 0.
0.464021 0.0323299 0.
0.467053 0.0341373 0.
0.470131 0.0360179 0.
0.47324 0.0380054 0.
0.476364 0.0399897 0.
0.479524 0.0419303 0.
0.482697 0.0438672 0.
0.485945 0.0458065 0.
0.489238 0.0478125 0.
0.492571 0.0499276 0.
0.49596 0.0521137 0.
0.499417 0.0543563 0.
0.50295 0.0566188 0.
0.506504 0.0587993 0.
0.510055 0.0609258 0.
0.513629 0.0629786 0.
0.517234 0.0649804 0.
0.520856 0.0670597 0.
0.524474 0.0692103 0.
0.528122 0.0713219 0.
0.531782 0.0733253 0.
0.535445 0.0751729 0.
0.539094 0.0769769 0.
0.542718 0.0789117 0.
0.546405 0.080868 0.
0.550076 0.082627 0.
0.553762 0.0843509 0.
0.557369 0.0861872 0.
0.560853 0.0877698 0.
0.564385 0.0891105 0.
0.567941 0.090635 0.
0.571415 0.092264 0.
0.574739 0.0936062 0.
0.578036 0.0948513 0.
0.580959 0.0956233 0.
0.583815 0.0963556 0.
0.586487 0.0969558 0.
0.589145 0.0975314 0.
0.591345 0.0975797 0.
0.593546 0.097628 0.
0.595742 0.0976456 0.
0.597934 0.0976499 0.
0.600127 0.0976531 0.
0.602322 0.0976159 0.
0.604516 0.0975788 0.
0.606727 0.0975194 0.
0.608952 0.0974317 0.
0.611191 0.097329 0.
0.614112 0.096452 0.
0.616962 0.0957027 0.
0.620023 0.094695 0.
0.623098 0.093582 0.
0.62646 0.0922086 0.
0.629869 0.0909676 0.
0.633514 0.0895178 0.
0.637128 0.0876599 0.
0.640733 0.0858072 0.
0.644431 0.0842353 0.
0.648056 0.082545 0.
0.651641 0.0807064 0.
0.655284 0.0789364 0.
0.658955 0.0771777 0.
0.662612 0.0753107 0.
0.666266 0.0732664 0.
0.669929 0.0712628 0.
0.673607 0.0693466 0.
0.67723 0.0673666 0.
0.680799 0.0652275 0.
0.684406 0.0629401 0.
0.688028 0.0606055 0.
0.69161 0.0583147 0.
0.6951 0.0560784 0.
0.698538 0.0539213 0.
0.701932 0.0518375 0.
0.705342 0.0498306 0.
0.708743 0.0478991 0.
0.712081 0.0459615 0.
0.71537 0.043944 0.
0.718603 0.0419193 0.
0.721801 0.0399387 0.
0.72491 0.0379681 0.
0.727925 0.0359832 0.
0.730911 0.0340553 0.
0.733872 0.0322248 0.
0.736851 0.0304134 0.
0.739862 0.0286082 0.
0.742833 0.0268592 0.
0.745819 0.0251822 0.
0.748885 0.0235971 0.
0.752121 0.0220444 0.
0.755587 0.0205632 0.
0.759482 0.0195857 0.
CELLS 5000 10000
1 0
1 1
1 2
1 3
1 4
1 5
1 6
1 7
1 8
1 9
1 10
1 11
1 12
1 13
1 14
1 15
1 16
1 17
1 18
1 19
1 20
1 21
1 22
1 23
1 24
1 25
1 26
1 27
1 28
1 29
1 30
1 31
1 32
1 33
1 34
1 35
1 36
1 37
1 38
1 39
1 40
1 41
1 42
1 43
1 44
1 45
1 46
1 47
1 48
1 49
1 50
1 51
1 52
1 53
1 54
1 55
1 56
1 57
1 58
1 59
1 60
1 61
1 62
1 63
1 64
1 65
1 66
1 67
1 68
1 69
1 70
1 71
1 72
1 73
1 74
1 75
1 76
1 77
1 78
1 79
1 80
1 81
1 82
1 83
1 84
1 85
1 86
1 87
1 88
1 89
1 90
1 91
1 92
1 93
1 94
1 95
1 96
1 97
1 98
1 99
1 100
1 101
1 102
1 103
1 104
1 105
1 106
1 107
1 108
1 109
1 110
1 111
1 112
1 113
1 114
1 115
1 116
1 117
1 118
1 119
1 120
1 121
1 122
1 123
1 124
1 125
1 126
1 127
1 128
1 129
1 130
1 131
1 132
1 133
1 134
1 135
1 136
1 137
1 138
1 139
1 140
1 141
1 142
1 143
1 144
1 145
1 146
1 147
1 148
1 149
1 150
1 151
1 152
1 153
1 154
1 155
1 156
1 157
1 158
1 159
1 160
1 161
1 162
1 163
1 164
1 165
1 166
1 167
1 168
1 169
1 170
1 171
1 172
1 173
1 174
1 175
1 176
1 177
1 178
1 179
1 180
1 181
1 182
1 183
1 184
1 185
1 186
1 187
1 188
1 189
1 190
1 191
1 192
1 193
1 194
1 195
1 196
1 197
1 198
1 199
1 200
1 201
1 202
1 203
1 204
1 205
1 206
1 207
1 208
1 209
1 210
1 211
1 212
1 213
1 214
1 215
1 216
1 217
1 218
1 219
1 220
1 221
1 222
1 223
1 224
1 225
1 226
1 227
1 228
1 229
1 230
1 231
1 232
1 233
1 234
1 235
1 236
1 237
1 238
1 239
1 240
1 241
1 242
1 243
1 244
1 245
1 246
1 247
1 248
1 249
1 250
1 251
1 252
1 253
1 254
1 255
1 256
1 257
1 258
1 259
1 260
1 261
1 262
1 263
1 264
1 265
1 266
1 267
1 268
1 269
1 270
1 271
1 272
1 273
1 274
1 275
1 276
1 277
1 278
1 279
1 280
1 281
1 282
1 283
1 284
1 285
1 286
1 287
1 288
1 289
1 290
1 291
1 292
1 293
1 294
1 295
1 296
1 297
1 298
1 299
1 300
1 301
1 302
1 303
1 304
1 305
1 306
1 307
1 308
1 309
1 310
1 311
1 312
1 313
1 314
1 315
1 316
1 317
1 318
1 319
1 320
1 321
1 322
1 323
1 324
1 325
1 326
1 327
1 328
1 329
1 330
1 331
1 332
1 333
1 334
1 335
1 336
1 337
1 338
1 339
1 340
1 341
1 342
1 343
1 344
1 345
1 346
1 347
1 348
1 349
1 350
1 351
1 352
1 353
1 354
1 355
1 356
1 357
1 358
1 359
1 360
1 361
1 362
1 363
1 364
1 365
1 366
1 367
1 368
1 369
1 370
1 371
1 372
1 373
1 374
1 375
1 376
1 377
1 378
1 379
1 380
1 381
1 382
1 383
1 384
1 385
1 386
1 387
1 388
1 389
1 390
1 391
1 392
1 393
1 394
1 395
1 396
1 397
1 398
1 399
1 400
1 401
1 402
1 403
1 404
1 405
1 406
1 407
1 408
1 409
1 410
1 411
1 412
1 413
1 414
1 415
1 416
1 417
1 418
1 419
1 420
1 421
1 422
1 423
1 424
1 425
1 426
1 427
1 428
1 429
1 430
1 431
1 432
1 433
1 434
1 435
1 436
1 437
1 438
1 439
1 440
1 441
1 442
1 443
1 444
1 445
1 446
1 447
1 448
1 449
1 450
1 451
1 452
1 453
1 454
1 455
1 456
1 457
1 458
1 459
1 460
1 461
1 462
1 463
1 464
1 465
1 466
1 467
1 468
1 469
1 470
1 471
1 472
1 473
1 474
1 475
1 476
1 477
1 478
1 479
1 480
1 481
1 482
1 483
1 484
1 485
1 486
1 487
1 488
1 489
1 490
1 491
1 492
1 493
1 494
1 495
1 496
1 497
1 498
1 499
1 500
1 501
1 502
1 503
1 504
1 505
1 506
1 507
1 508
1 509
1 510
1 511
1 512
1 513
1 514
1 515
1 516
1 517
1 518
1 519
1 520
1 521
1 522
1 523
1 524
1 525
1 526
1 527
1 528
1 529
1 530
1 531
1 532
1 533
1 534
1 535
1 536
1 537
1 538
1 539
1 540
1 541
1 542
1 543
1 544
1 545
1 546
1 547
1 548
1 549
1 550
1 551
1 552
1 553
1 554
1 555
1 556
1 557
1 558
1 559
1 560
1 561
1 562
1 563
1 564
1 565
1 566
1 567
1 568
1 569
1 570
1 571
1 572
1 573
1 574
1 575
1 576
1 577
1 578
1 579
1 580
1 581
1 582
1 583
1 584
1 585
1 586
1 587
1 588
1 589
1 590
1 591
1 592
1 593
1 594
1 595
1 596
1 597
1 598
1 599
1 600
1 601
1 602
1 603
1 604
1 605
1 606
1 607
1 608
1 609
1 610
1 611
1 612
1 613
1 614
1 615
1 616
1 617
1 618
1 619
1 620
1 621
1 622
1 623
1 624
1 625
1 626
1 627
1 628
1 629
1 630
1 631
1 632
1 633
1 634
1 635
1 636
1 637
1 638
1 639
1 640
1 641
1 642
1 643
1 644
1 645
1 646
1 647
1 648
1 649
1 650
1 651
1 652
1 653
1 654
1 655
1 656
1 657
1 658
1 659
1 660
1 661
1 662
1 663
1 664
1 665
1 666
1 667
1 668
1 669
1 670
1 671
1 672
1 673
1 674
1 675
1 676
1 677
1 678
1 679
1 680
1 681
1 682
1 683
1 684
1 685
1 686
1 687
1 688
1 689
1 690
1 691
1 692
1 693
1 694
1 695
1 696
1 697
1 698
1 699
1 700
1 701
1 702
1 703
1 704
1 705
1 706
1 707
1 708
1 709
1 710
1 711
1 712
1 713
1 714
1 715
1 716
1 717
1 718
1 719
1 720
1 721
1 722
1 723
1 724
1 725
1 726
1 727
1 728
1 729
1 730
1 731
1 732
1 733
1 734
1 735
1 736
1 737
1 738
1 739
1 740
1 741
1 742
1 743
1 744
1 745
1 746
1 747
1 748
1 749
1 750
1 751
1 752
1 753
1 754
1 755
1 756
1 757
1 758
1 759
1 760
1 761
1 762
1 763
1 764
1 765
1 766
1 767
1 768
1 769
1 770
1 771
1 772
1 773
1 774
1 775
1 776
1 777
1 778
1 779
1 780
1 781
1 782
1 783
1 784
1 785
1 786
1 787
1 788
1 789
1 790
1 791
1 792
1 793
1 794
1 795
1 796
1 797
1 798
1 799
1 800
1 801
1 802
1 803
1 804
1 805
1 806
1 807
1 808
1 809
1 810
1 811
1 812
1 813
1 814
1 815
1 816
1 817
1 818
1 819
1 820
1 821
1 822
1 823
1 824
1 825
1 826
1 827
1 828
1 829
1 830
1 831
1 832
1 833
1 834
1 835
1 836
1 837
1 838
1 839
1 840
1 841
1 842
1 843
1 844
1 845
1 846
1 847
1 848
1 849
1 850
1 851
1 852
1 853
1 854
1 855
1 856
1 857
1 858
1 859
1 860
1 861
1 862
1 863
1 864
1 865
1 866
1 867
1 868
1 869
1 870
1 871
1 872
1 873
1 874
1 875
1 876
1 877
1 878
1 879
1 880
1 881
1 882
1 883
1 884
1 885
1 886
1 887
1 888
1 889
1 890
1 891
1 892
1 893
1 894
1 895
1 896
1 897
1 898
1 899
1 900
1 901
1 902
1 903
1 904
1 905
1 906
1 907
1 908
1 909
1 910
1 911
1 912
1 913
1 914
1 915
1 916
1 917
1 918
1 919
1 920
1 921
1 922
1 923
1 924
1 925
1 926
1 927
1 928
1 929
1 930
1 931
1 932
1 933
1 934
1 935
1 936
1 937
1 938
1 939
1 940
1 941
1 942
1 943
1 944
1 945
1 946
1 947
1 948
1 949
1 950
1 951
1 952
1 953
1 954
1 955
1 956
1 957
1 958
1 959
1 960
1 961
1 962
1 963
1 964
1 965
1 966
1 967
1 968
1 969
1 970
1 971
1 972
1 973
1 974
1 975
1 976
1 977
1 978
1 979
1 980
1 981
1 982
1 983
1 984
1 985
1 986
1 987
1 988
1 989
1 990
1 991
1 992
1 993
1 994
1 995
1 996
1 997
1 998
1 999
1 1000
1 1001
1 1002
1 1003
1 1004
1 1005
1 1006
1 1007
1 1008
1 1009
1 1010
1 1011
1 1012
1 1013
1 1014
1 1015
1 1016
1 1017
1 1018
1 1019
1 1020
1 1021
1 1022
1 1023
1 1024
1 1025
1 1026
1 1027
1 1028
1 1029
1 1030
1 1031
1 1032
1 1033
1 1034
1 1035
1 1036
1 1037
1 1038
1 1039
1 1040
1 1041
1 1042
1 1043
1 1044
1 1045
1 1046
1 1047
1 1048
1 1049
1 1050
1 1051
1 1052
1 1053
1 1054
1 1055
1 1056
1 1057
1 1058
1 1059
1 1060
1 1061
1 1062
1 1063
1 1064
1 1065
1 1066
1 1067
1 1068
1 1069
1 1070
1 1071
1 1072
1 1073
1 1074
1 1075
1 1076
1 1077
1 1078
1 1079
1 1080
1 1081
1 1082
1 1083
1 1084
1 1085
1 1086
1 1087
1 1088
1 1089
1 1090
1 1091
1 1092
1 1093
1 1094
1 1095
1 1096
1 1097
1 1098
1 1099
1 1100
1 1101
1 1102
1 1103
1 1104
1 1105
1 1106
1 1107
1 1108
1 1109
1 1110
1 1111
1 1112
1 1113
1 1114
1 1115
1 1116
1 1117
1 1118
1 1119
1 1120
1 1121
1 1122
1 1123
1 1124
1 1125
1 1126
1 1127
1 1128
1 1129
1 1130
1 1131
1 1132
1 1133
1 1134
1 1135
1 1136
1 1137
1 1138
1 1139
1 1140
1 1141
1 1142
1 1143
1 1144
1 1145
1 1146
1 1147
1 1148
1 1149
1 1150
1 1151
1 1152
1 1153
1 1154
1 1155
1 1156
1 1157
1 1158
1 1159
1 1160
1 1161
1 1162
1 1163
1 1164
1 1165
1 1166
1 1167
1 1168
1 1169
1 1170
1 1171
1 1172
1 1173
1 1174
1 1175
1 1176
1 1177
1 1178
1 1179
1 1180
1 1181
1 1182
1 1183
1 1184
1 1185
1 1186
1 1187
1 1188
1 1189
1 1190
1 1191
1 1192
1 1193
1 1194
1 1195
1 1196
1 1197
1 1198
1 1199
1 1200
1 1201
1 1202
1 1203
1 1204
1 1205
1 1206
1 1207
1 1208
1 1209
1 1210
1 1211
1 1212
1 1213
1 1214
1 1215
1 1216
1 1217
1 1218
1 1219
1 1220
1 1221
1 1222
1 1223
1 1224
1 1225
1 1226
1 1227
1 1228
1 1229
1 1230
1 1231
1 1232
1 1233
1 1234
1 1235
1 1236
1 1237
1 1238
1 1239
1 1240
1 1241
1 1242
1 1243
1 1244
1 1245
1 1246
1 1247
1 1248
1 1249
1 1250
1 1251
1 1252
1 1253
1 1254
1 1255
1 1256
1 1257
1 1258
1 1259
1 1260
1 1261
1 1262
1 1263
1 1264
1 1265
1 1266
1 1267
1 1268
1 1269
1 1270
1 1271
1 1272
1 1273
1 1274
1 1275
1 1276
1 1277
1 1278
1 1279
1 1280
1 1281
1 1282
1 1283
1 1284
1 1285
1 1286
1 1287
1 1288
1 1289
1 1290
1 1291
1 1292
1 1293
1 1294
1 1295
1 1296
1 1297
1 1298
1 1299
1 1300
1 1301
1 1302
1 1303
1 1304
1 1305
1 1306
1 1307
1 1308
1 1309
1 1310
1 1311
1 1312
1 1313
1 1314
1 1315
1 1316
1 1317
1 1318
1 1319
1 1320
1 1321
1 1322
1 1323
1 1324
1 1325
1 1326
1 1327
1 1328
1 1329
1 1330
1 1331
1 1332
1 1333
1 1334
1 1335
1 1336
1 1337
1 1338
1 1339
1 1340
1 1341
1 1342
1 1343
1 1344
1 1345
1 1346
1 1347
1 1348
1 1349
1 1350
1 1351
1 1352
1 1353
1 1354
1 1355
1 1356
1 1357
1 1358
1 1359
1 1360
1 1361
1 1362
1 1363
1 1364
1 1365
1 1366
1 1367
1 1368
1 1369
1 1370
1 1371
1 1372
1 1373
1 1374
1 1375
1 1376
1 1377
1 1378
1 1379
1 1380
1 1381
1 1382
1 1383
1 1384
1 1385
1 1386
1 1387
1 1388
1 1389
1 1390
1 1391
1 1392
1 1393
1 1394
1 1395
1 1396
1 1397
1 1398
1 1399
1 1400
1 1401
1 1402
1 1403
1 1404
1 1405
1 1406
1 1407
1 1408
1 1409
1 1410
1 1411
1 1412
1 1413
1 1414
1 1415
1 1416
1 1417
1 1418
1 1419
1 1420
1 1421
1 1422
1 1423
1 1424
1 1425
1 1426
1 1427
1 1428
1 1429
1 1430
1 1431
1 1432
1 1433
1 1434
1 1435
1 1436
1 1437
1 1438
1 1439
1 1440
1 1441
1 1442
1 1443
1 1444
1 1445
1 1446
1 1447
1 1448
1 1449
1 1450
1 1451
1 1452
1 1453
1 1454
1 1455
1 1456
1 1457
1 1458
1 1459
1 1460
1 1461
1 1462
1 1463
1 1464
1 1465
1 1466
1 1467
1 1468
1 1469
1 1470
1 1471
1 1472
1 1473
1 1474
1 1475
1 1476
1 1477
1 1478
1 1479
1 1480
1 1481
1 1482
1 1483
1 1484
1 1485
1 1486
1 1487
1 1488
1 1489
1 1490
1 1491
1 1492
1 1493
1 1494
1 1495
1 1496
1 1497
1 1498
1 1499
1 1500
1 1501
1 1502
1 1503
1 1504
1 1505
1 1506
1 1507
1 1508
1 1509
1 1510
1 1511
1 1512
1 1513
1 1514
1 1515
1 1516
1 1517
1 1518
1 1519
1 1520
1 1521
1 1522
1 1523
1 1524
1 1525
1 1526
1 1527
1 1528
1 1529
1 1530
1 1531
1 1532
1 1533
1 1534
1 1535
1 1536
1 1537
1 1538
1 1539
1 1540
1 1541
1 1542
1 1543
1 1544
1 1545
1 1546
1 1547
1 1548
1 1549
1 1550
1 1551
1 1552
1 1553
1 1554
1 1555
1 1556
1 1557
1 1558
1 1559
1 1560
1 1561
1 1562
1 1563
1 1564
1 1565
1 1566
1 1567
1 1568
1 1569
1 1570
1 1571
1 1572
1 1573
1 1574
1 1575
1 1576
1 1577
1 1578
1 1579
1 1580
1 1581
1 1582
1 1583
1 1584
1 1585
1 1586
1 1587
1 1588
1 1589
1 1590
1 1591
1 1592
1 1593
1 1594
1 1595
1 1596
1 1597
1 1598
1 1599
1 1600
1 1601
1 1602
1 1603
1 1604
1 1605
1 1606
1 1607
1 1608
1 1609
1 1610
1 1611
1 1612
1 1613
1 1614
1 1615
1 1616
1 1617
1 1618
1 1619
1 1620
1 1621
1 1622
1 1623
1 1624
1 1625
1 1626
1 1627
1 1628
1 1629
1 1630
1 1631
1 1632
1 1633
1 1634
1 1635
1 1636
1 1637
1 1638
1 1639
1 1640
1 1641
1 1642
1 1643
1 1644
1 1645
1 1646
1 1647
1 1648
1 1649
1 1650
1 1651
1 1652
1 1653
1 1654
1 1655
1 1656
1 1657
1 1658
1 1659
1 1660
1 1661
1 1662
1 1663
1 1664
1 1665
1 1666
1 1667
1 1668
1 1669
1 1670
1 1671
1 1672
1 1673
1 1674
1 1675
1 1676
1 1677
1 1678
1 1679
1 1680
1 1681
1 1682
1 1683
1 1684
1 1685
1 1686
1 1687
1 1688
1 1689
1 1690
1 1691
1 1692
1 1693
1 1694
1 1695
1 1696
1 1697
1 1698
1 1699
1 1700
1 1701
1 1702
1 1703
1 1704
1 1705
1 1706
1 1707
1 1708
1 1709
1 1710
1 1711
1 1712
1 1713
1 1714
1 1715
1 1716
1 1717
1 1718
1 1719
1 1720
1 1721
1 1722
1 1723
1 1724
1 1725
1 1726
1 1727
1 1728
1 1729
1 1730
1 1731
1 1732
1 1733
1 1734
1 1735
1 1736
1 1737
1 1738
1 1739
1 1740
1 1741
1 1742
1 1743
1 1744
1 1745
1 1746
1 1747
1 1748
1 1749
1 1750
1 1751
1 1752
1 1753
1 1754
1 1755
1 1756
1 1757
1 1758
1 1759
1 1760
1 1761
1 1762
1 1763
1 1764
1 1765
1 1766
1 1767
1 1768
1 1769
1 1770
1 1771
1 1772
1 1773
1 1774
1 1775
1 1776
1 1777
1 1778
1 1779
1 1780
1 1781
1 1782
1 1783
1 1784
1 1785
1 1786
1 1787
1 1788
1 1789
1 1790
1 1791
1 1792
1 1793
1 1794
1 1795
1 1796
1 1797
1 1798
1 1799
1 1800
1 1801
1 1802
1 1803
1 1804
1 1805
1 1806
1 1807
1 1808
1 1809
1 1810
1 1811
1 1812
1 1813
1 1814
1 1815
1 1816
1 1817
1 1818
1 1819
1 1820
1 1821
1 1822
1 1823
1 1824
1 1825
1 1826
1 1827
1 1828
1 1829
1 1830
1 1831
1 1832
1 1833
1 1834
1 1835
1 1836
1 1837
1 1838
1 1839
1 1840
1 1841
1 1842
1 1843
1 1844
1 1845
1 1846
1 1847
1 1848
1 1849
1 1850
1 1851
1 1852
1 1853
1 1854
1 1855
1 1856
1 1857
1 1858
1 1859
1 1860
1 1861
1 1862
1 1863
1 1864
1 1865
1 1866
1 1867
1 1868
1 1869
1 1870
1 1871
1 1872
1 1873
1 1874
1 1875
1 1876
1 1877
1 1878
1 1879
1 1880
1 1881
1 1882
1 1883
1 1884
1 1885
1 1886
1 1887
1 1888
1 1889
1 1890
1 1891
1 1892
1 1893
1 1894
1 1895
1 1896
1 1897
1 1898
1 1899
1 1900
1 1901
1 1902
1 1903
1 1904
1 1905
1 1906
1 1907
1 1908
1 1909
1 1910
1 1911
1 1912
1 1913
1 1914
1 1915
1 1916
1 1917
1 1918
1 1919
1 1920
1 1921
1 1922
1 1923
1 1924
1 1925
1 1926
1 1927
1 1928
1 1929
1 1930
1 1931
1 1932
1 1933
1 1934
1 1935
1 1936
1 1937
1 1938
1 1939
1 1940
1 1941
1 1942
1 1943
1 1944
1 1945
1 1946
1 1947
1 1948
1 1949
1 1950
1 1951
1 1952
1 1953
1 1954
1 1955
1 1956
1 1957
1 1958
1 1959
1 1960
1 1961
1 1962
1 1963
1 1964
1 1965
1 1966
1 1967
1 1968
1 1969
1 1970
1 1971
1 1972
1 1973
1 1974
1 1975
1 1976
1 1977
1 1978
1 1979
1 1980
1 1981
1 1982
1 1983
1 1984
1 1985
1 1986
1 1987
1 1988
1 1989
1 1990
1 1991
1 1992
1 1993
1 1994
1 1995
1 1996
1 1997
1 1998
1 1999
1 2000
1 2001
1 2002
1 2003
1 2004
1 2005
1 2006
1 2007
1 2008
1 2009
1 2010
1 2011
1 2012
1 2013
1 2014
1 2015
1 2016
1 2017
1 2018
1 2019
1 2020
1 2021
1 2022
1 2023
1 2024
1 2025
1 2026
1 2027
1 2028
1 2029
1 2030
1 2031
1 2032
1 2033
1 2034
1 2035
1 2036
1 2037
1 2038
1 2039
1 2040
1 2041
1 2042
1 2043
1 2044
1 2045
1 2046
1 2047
1 2048
1 2049
1 2050
1 2051
1 2052
1 2053
1 2054
1 2055
1 2056
1 2057
1 2058
1 2059
1 2060
1 2061
1 2062
1 2063
1 2064
1 2065
1 2066
1 2067
1 2068
1 2069
1 2070
1 2071
1 2072
1 2073
1 2074
1 2075
1 2076
1 2077
1 2078
1 2079
1 2080
1 2081
1 2082
1 2083
1 2084
1 2085
1 2086
1 2087
1 2088
1 2089
1 2090
1 2091
1 2092
1 2093
1 2094
1 2095
1 2096
1 2097
1 2098
1 2099
1 2100
1 2101
1 2102
1 2103
1 2104
1 2105
1 2106
1 2107
1 2108
1 2109
1 2110
1 2111
1 2112
1 2113
1 2114
1 2115
1 2116
1 2117
1 2118
1 2119
1 2120
1 2121
1 2122
1 2123
1 2124
1 2125
1 2126
1 2127
1 2128
1 2129
1 2130
1 2131
1 2132
1 2133
1 2134
1 2135
1 2136
1 2137
1 2138
1 2139
1 2140
1 2141
1 2142
1 2143
1 2144
1 2145
1 2146
1 2147
1 2148
1 2149
1 2150
1 2151
1 2152
1 2153
1 2154
1 2155
1 2156
1 2157
1 2158
1 2159
1 2160
1 2161
1 2162
1 2163
1 2164
1 2165
1 2166
1 2167
1 2168
1 2169
1 2170
1 2171
1 2172
1 2173
1 2174
1 2175
1 2176
1 2177
1 2178
1 2179
1 2180
1 2181
1 2182
1 2183
1 2184
1 2185
1 2186
1 2187
1 2188
1 2189
1 2190
1 2191
1 2192
1 2193
1 2194
1 2195
1 2196
1 2197
1 2198
1 2199
1 2200
1 2201
1 2202
1 2203
1 2204
1 2205
1 2206
1 2207
1 2208
1 2209
1 2210
1 2211
1 2212
1 2213
1 2214
1 2215
1 2216
1 2217
1 2218
1 2219
1 2220
1 2221
1 2222
1 2223
1 2224
1 2225
1 2226
1 2227
1 2228
1 2229
1 2230
1 2231
1 2232
1 2233
1 2234
1 2235
1 2236
1 2237
1 2238
1 2239
1 2240
1 2241
1 2242
1 2243
1 2244
1 2245
1 2246
1 2247
1 2248
1 2249
1 2250
1 2251
1 2252
1 2253
1 2254
1 2255
1 2256
1 2257
1 2258
1 2259
1 2260
1 2261
1 2262
1 2263
1 2264
1 2265
1 2266
1 2267
1 2268
1 2269
1 2270
1 2271
1 2272
1 2273
1 2274
1 2275
1 2276
1 2277
1 2278
1 2279
1 2280
1 2281
1 2282
1 2283
1 2284
1 2285
1 2286
1 2287
1 2288
1 2289
1 2290
1 2291
1 2292
1 2293
1 2294
1 2295
1 2296
1 2297
1 2298
1 2299
1 2300
1 2301
1 2302
1 2303
1 2304
1 2305
1 2306
1 2307
1 2308
1 2309
1 2310
1 2311
1 2312
1 2313
1 2314
1 2315
1 2316
1 2317
1 2318
1 2319
1 2320
1 2321
1 2322
1 2323
1 2324
1 2325
1 2326
1 2327
1 2328
1 2329
1 2330
1 2331
1 2332
1 2333
1 2334
1 2335
1 2336
1 2337
1 2338
1 2339
1 2340
1 2341
1 2342
1 2343
1 2344
1 2345
1 2346
1 2347
1 2348
1 2349
1 2350
1 2351
1 2352
1 2353
1 2354
1 2355
1 2356
1 2357
1 2358
1 2359
1 2360
1 2361
1 2362
1 2363
1 2364
1 2365
1 2366
1 2367
1 2368
1 2369
1 2370
1 2371
1 2372
1 2373
1 2374
1 2375
1 2376
1 2377
1 2378
1 2379
1 2380
1 2381
1 2382
1 2383
1 2384
1 2385
1 2386
1 2387
1 2388
1 2389
1 2390
1 2391
1 2392
1 2393
1 2394
1 2395
1 2396
1 2397
1 2398
1 2399
1 2400
1 2401
1 2402
1 2403
1 2404
1 2405
1 2406
1 2407
1 2408
1 2409
1 2410
1 2411
1 2412
1 2413
1 2414
1 2415
1 2416
1 2417
1 2418
1 2419
1 2420
1 2421
1 2422
1 2423
1 2424
1 2425
1 2426
1 2427
1 2428
1 2429
1 2430
1 2431
1 2432
1 2433
1 2434
1 2435
1 2436
1 2437
1 2438
1 2439
1 2440
1 2441
1 2442
1 2443
1 2444
1 2445
1 2446
1 2447
1 2448
1 2449
1 2450
1 2451
1 2452
1 2453
1 2454
1 2455
1 2456
1 2457
1 2458
1 2459
1 2460
1 2461
1 2462
1 2463
1 2464
1 2465
1 2466
1 2467
1 2468
1 2469
1 2470
1 2471
1 2472
1 2473
1 2474
1 2475
1 2476
1 2477
1 2478
1 2479
1 2480
1 2481
1 2482
1 2483
1 2484
1 2485
1 2486
1 2487
1 2488
1 2489
1 2490
1 2491
1 2492
1 2493
1 2494
1 2495
1 2496
1 2497
1 2498
1 2499
1 2500
1 2501
1 2502
1 2503
1 2504
1 2505
1 2506
1 2507
1 2508
1 2509
1 2510
1 2511
1 2512
1 2513
1 2514
1 2515
1 2516
1 2517
1 2518
1 2519
1 2520
1 2521
1 2522
1 2523
1 2524
1 2525
1 2526
1 2527
1 2528
1 2529
1 2530
1 2531
1 2532
1 2533
1 2534
1 2535
1 2536
1 2537
1 2538
1 2539
1 2540
1 2541
1 2542
1 2543
1 2544
1 2545
1 2546
1 2547
1 2548
1 2549
1 2550
1 2551
1 2552
1 2553
1 2554
1 2555
1 2556
1 2557
1 2558
1 2559
1 2560
1 2561
1 2562
1 2563
1 2564
1 2565
1 2566
1 2567
1 2568
1 2569
1 2570
1 2571
1 2572
1 2573
1 2574
1 2575
1 2576
1 2577
1 2578
1 2579
1 2580
1 2581
1 2582
1 2583
1 2584
1 2585
1 2586
1 2587
1 2588
1 2589
1 2590
1 2591
1 2592
1 2593
1 2594
1 2595
1 2596
1 2597
1 2598
1 2599
1 2600
1 2601
1 2602
1 2603
1 2604
1 2605
1 2606
1 2607
1 2608
1 2609
1 2610
1 2611
1 2612
1 2613
1 2614
1 2615
1 2616
1 2617
1 2618
1 2619
1 2620
1 2621
1 2622
1 2623
1 2624
1 2625
1 2626
1 2627
1 2628
1 2629
1 2630
1 2631
1 2632
1 2633
1 2634
1 2635
1 2636
1 2637
1 2638
1 2639
1 2640
1 2641
1 2642
1 2643
1 2644
1 2645
1 2646
1 2647
1 2648
1 2649
1 2650
1 2651
1 2652
1 2653
1 2654
1 2655
1 2656
1 2657
1 2658
1 2659
1 2660
1 2661
1 2662
1 2663
1 2664
1 2665
1 2666
1 2667
1 2668
1 2669
1 2670
1 2671
1 2672
1 2673
1 2674
1 2675
1 2676
1 2677
1 2678
1 2679
1 2680
1 2681
1 2682
1 2683
1 2684
1 2685
1 2686
1 2687
1 2688
1 2689
1 2690
1 2691
1 2692
1 2693
1 2694
1 2695
1 2696
1 2697
1 2698
1 2699
1 2700
1 2701
1 2702
1 2703
1 2704
1 2705
1 2706
1 2707
1 2708
1 2709
1 2710
1 2711
1 2712
1 2713
1 2714
1 2715
1 2716
1 2717
1 2718
1 2719
1 2720
1 2721
1 2722
1 2723
1 2724
1 2725
1 2726
1 2727
1 2728
1 2729
1 2730
1 2731
1 2732
1 2733
1 2734
1 2735
1 2736
1 2737
1 2738
1 2739
1 2740
1 2741
1 2742
1 2743
1 2744
1 2745
1 2746
1 2747
1 2748
1 2749
1 2750
1 2751
1 2752
1 2753
1 2754
1 2755
1 2756
1 2757
1 2758
1 2759
1 2760
1 2761
1 2762
1 2763
1 2764
1 2765
1 2766
1 2767
1 2768
1 2769
1 2770
1 2771
1 2772
1 2773
1 2774
1 2775
1 2776
1 2777
1 2778
1 2779
1 2780
1 2781
1 2782
1 2783
1 2784
1 2785
1 2786
1 2787
1 2788
1 2789
1 2790
1 2791
1 2792
1 2793
1 2794
1 2795
1 2796
1 2797
1 2798
1 2799
1 2800
1 2801
1 2802
1 2803
1 2804
1 2805
1 2806
1 2807
1 2808
1 2809
1 2810
1 2811
1 2812
1 2813
1 2814
1 2815
1 2816
1 2817
1 2818
1 2819
1 2820
1 2821
1 2822
1 2823
1 2824
1 2825
1 2826
1 2827
1 2828
1 2829
1 2830
1 2831
1 2832
1 2833
1 2834
1 2835
1 2836
1 2837
1 2838
1 2839
1 2840
1 2841
1 2842
1 2843
1 2844
1 2845
1 2846
1 2847
1 2848
1 2849
1 2850
1 2851
1 2852
1 2853
1 2854
1 2855
1 2856
1 2857
1 2858
1 2859
1 2860
1 2861
1 2862
1 2863
1 2864
1 2865
1 2866
1 2867
1 2868
1 2869
1 2870
1 2871
1 2872
1 2873
1 2874
1 2875
1 2876
1 2877
1 2878
1 2879
1 2880
1 2881
1 2882
1 2883
1 2884
1 2885
1 2886
1 2887
1 2888
1 2889
1 2890
1 2891
1 2892
1 2893
1 2894
1 2895
1 2896
1 2897
1 2898
1 2899
1 2900
1 2901
1 2902
1 2903
1 2904
1 2905
1 2906
1 2907
1 2908
1 2909
1 2910
1 2911
1 2912
1 2913
1 2914
1 2915
1 2916
1 2917
1 2918
1 2919
1 2920
1 2921
1 2922
1 2923
1 2924
1 2925
1 2926
1 2927
1 2928
1 2929
1 2930
1 2931
1 2932
1 2933
1 2934
1 2935
1 2936
1 2937
1 2938
1 2939
1 2940
1 2941
1 2942
1 2943
1 2944
1 2945
1 2946
1 2947
1 2948
1 2949
1 2950
1 2951
1 2952
1 2953
1 2954
1 2955
1 2956
1 2957
1 2958
1 2959
1 2960
1 2961
1 2962
1 2963
1 2964
1 2965
1 2966
1 2967
1 2968
1 2969
1 2970
1 2971
1 2972
1 2973
1 2974
1 2975
1 2976
1 2977
1 2978
1 2979
1 2980
1 2981
1 2982
1 2983
1 2984
1 2985
1 2986
1 2987
1 2988
1 2989
1 2990
1 2991
1 2992
1 2993
1 2994
1 2995
1 2996
1 2997
1 2998
1 2999
1 3000
1 3001
1 3002
1 3003
1 3004
1 3005
1 3006
1 3007
1 3008
1 3009
1 3010
1 3011
1 3012
1 3013
1 3014
1 3015
1 3016
1 3017
1 3018
1 3019
1 3020
1 3021
1 3022
1 3023
1 3024
1 3025
1 3026
1 3027
1 3028
1 3029
1 3030
1 3031
1 3032
1 3033
1 3034
1 3035
1 3036
1 3037
1 3038
1 3039
1 3040
1 3041
1 3042
1 3043
1 3044
1 3045
1 3046
1 3047
1 3048
1 3049
1 3050
1 3051
1 3052
1 3053
1 3054
1 3055
1 3056
1 3057
1 3058
1 3059
1 3060
1 3061
1 3062
1 3063
1 3064
1 3065
1 3066
1 3067
1 3068
1 3069
1 3070
1 3071
1 3072
1 3073
1 3074
1 3075
1 3076
1 3077
1 3078
1 3079
1 3080
1 3081
1 3082
1 3083
1 3084
1 3085
1 3086
1 3087
1 3088
1 3089
1 3090
1 3091
1 3092
1 3093
1 3094
1 3095
1 3096
1 3097
1 3098
1 3099
1 3100
1 3101
1 3102
1 3103
1 3104
1 3105
1 3106
1 3107
1 3108
1 3109
1 3110
1 3111
1 3112
1 3113
1 3114
1 3115
1 3116
1 3117
1 3118
1 3119
1 3120
1 3121
1 3122
1 3123
1 3124
1 3125
1 3126
1 3127
1 3128
1 3129
1 3130
1 3131
1 3132
1 3133
1 3134
1 3135
1 3136
1 3137
1 3138
1 3139
1 3140
1 3141
1 3142
1 3143
1 3144
1 3145
1 3146
1 3147
1 3148
1 3149
1 3150
1 3151
1 3152
1 3153
1 3154
1 3155
1 3156
1 3157
1 3158
1 3159
1 3160
1 3161
1 3162
1 3163
1 3164
1 3165
1 3166
1 3167
1 3168
1 3169
1 3170
1 3171
1 3172
1 3173
1 3174
1 3175
1 3176
1 3177
1 3178
1 3179
1 3180
1 3181
1 3182
1 3183
1 3184
1 3185
1 3186
1 3187
1 3188
1 3189
1 3190
1 3191
1 3192
1 3193
1 3194
1 3195
1 3196
1 3197
1 3198
1 3199
1 3200
1 3201
1 3202
1 3203
1 3204
1 3205
1 3206
1 3207
1 3208
1 3209
1 3210
1 3211
1 3212
1 3213
1 3214
1 3215
1 3216
1 3217
1 3218
1 3219
1 3220
1 3221
1 3222
1 3223
1 3224
1 3225
1 3226
1 3227
1 3228
1 3229
1 3230
1 3231
1 3232
1 3233
1 3234
1 3235
1 3236
1 3237
1 3238
1 3239
1 3240
1 3241
1 3242
1 3243
1 3244
1 3245
1 3246
1 3247
1 3248
1 3249
1 3250
1 3251
1 3252
1 3253
1 3254
1 3255
1 3256
1 3257
1 3258
1 3259
1 3260
1 3261
1 3262
1 3263
1 3264
1 3265
1 3266
1 3267
1 3268
1 3269
1 3270
1 3271
1 3272
1 3273
1 3274
1 3275
1 3276
1 3277
1 3278
1 3279
1 3280
1 3281
1 3282
1 3283
1 3284
1 3285
1 3286
1 3287
1 3288
1 3289
1 3290
1 3291
1 3292
1 3293
1 3294
1 3295
1 3296
1 3297
1 3298
1 3299
1 3300
1 3301
1 3302
1 3303
1 3304
1 3305
1 3306
1 3307
1 3308
1 3309
1 3310
1 3311
1 3312
1 3313
1 3314
1 3315
1 3316
1 3317
1 3318
1 3319
1 3320
1 3321
1 3322
1 3323
1 3324
1 3325
1 3326
1 3327
1 3328
1 3329
1 3330
1 3331
1 3332
1 3333
1 3334
1 3335
1 3336
1 3337
1 3338
1 3339
1 3340
1 3341
1 3342
1 3343
1 3344
1 3345
1 3346
1 3347
1 3348
1 3349
1 3350
1 3351
1 3352
1 3353
1 3354
1 3355
1 3356
1 3357
1 3358
1 3359
1 3360
1 3361
1 3362
1 3363
1 3364
1 3365
1 3366
1 3367
1 3368
1 3369
1 3370
1 3371
1 3372
1 3373
1 3374
1 3375
1 3376
1 3377
1 3378
1 3379
1 3380
1 3381
1 3382
1 3383
1 3384
1 3385
1 3386
1 3387
1 3388
1 3389
1 3390
1 3391
1 3392
1 3393
1 3394
1 3395
1 3396
1 3397
1 3398
1 3399
1 3400
1 3401
1 3402
1 3403
1 3404
1 3405
1 3406
1 3407
1 3408
1 3409
1 3410
1 3411
1 3412
1 3413
1 3414
1 3415
1 3416
1 3417
1 3418
1 3419
1 3420
1 3421
1 3422
1 3423
1 3424
1 3425
1 3426
1 3427
1 3428
1 3429
1 3430
1 3431
1 3432
1 3433
1 3434
1 3435
1 3436
1 3437
1 3438
1 3439
1 3440
1 3441
1 3442
1 3443
1 3444
1 3445
1 3446
1 3447
1 3448
1 3449
1 3450
1 3451
1 3452
1 3453
1 3454
1 3455
1 3456
1 3457
1 3458
1 3459
1 3460
1 3461
1 3462
1 3463
1 3464
1 3465
1 3466
1 3467
1 3468
1 3469
1 3470
1 3471
1 3472
1 3473
1 3474
1 3475
1 3476
1 3477
1 3478
1 3479
1 3480
1 3481
1 3482
1 3483
1 3484
1 3485
1 3486
1 3487
1 3488
1 3489
1 3490
1 3491
1 3492
1 3493
1 3494
1 3495
1 3496
1 3497
1 3498
1 3499
1 3500
1 3501
1 3502
1 3503
1 3504
1 3505
1 3506
1 3507
1 3508
1 3509
1 3510
1 3511
1 3512
1 3513
1 3514
1 3515
1 3516
1 3517
1 3518
1 3519
1 3520
1 3521
1 3522
1 3523
1 3524
1 3525
1 3526
1 3527
1 3528
1 3529
1 3530
1 3531
1 3532
1 3533
1 3534
1 3535
1 3536
1 3537
1 3538
1 3539
1 3540
1 3541
1 3542
1 3543
1 3544
1 3545
1 3546
1 3547
1 3548
1 3549
1 3550
1 3551
1 3552
1 3553
1 3554
1 3555
1 3556
1 3557
1 3558
1 3559
1 3560
1 3561
1 3562
1 3563
1 3564
1 3565
1 3566
1 3567
1 3568
1 3569
1 3570
1 3571
1 3572
1 3573
1 3574
1 3575
1 3576
1 3577
1 3578
1 3579
1 3580
1 3581
1 3582
1 3583
1 3584
1 3585
1 3586
1 3587
1 3588
1 3589
1 3590
1 3591
1 3592
1 3593
1 3594
1 3595
1 3596
1 3597
1 3598
1 3599
1 3600
1 3601
1 3602
1 3603
1 3604
1 3605
1 3606
1 3607
1 3608
1 3609
1 3610
1 3611
1 3612
1 3613
1 3614
1 3615
1 3616
1 3617
1 3618
1 3619
1 3620
1 3621
1 3622
1 3623
1 3624
1 3625
1 3626
1 3627
1 3628
1 3629
1 3630
1 3631
1 3632
1 3633
1 3634
1 3635
1 3636
1 3637
1 3638
1 3639
1 3640
1 3641
1 3642
1 3643
1 3644
1 3645
1 3646
1 3647
1 3648
1 3649
1 3650
1 3651
1 3652
1 3653
1 3654
1 3655
1 3656
1 3657
1 3658
1 3659
1 3660
1 3661
1 3662
1 3663
1 3664
1 3665
1 3666
1 3667
1 3668
1 3669
1 3670
1 3671
1 3672
1 3673
1 3674
1 3675
1 3676
1 3677
1 3678
1 3679
1 3680
1 3681
1 3682
1 3683
1 3684
1 3685
1 3686
1 3687
1 3688
1 3689
1 3690
1 3691
1 3692
1 3693
1 3694
1 3695
1 3696
1 3697
1 3698
1 3699
1 3700
1 3701
1 3702
1 3703
1 3704
1 3705
1 3706
1 3707
1 3708
1 3709
1 3710
1 3711
1 3712
1 3713
1 3714
1 3715
1 3716
1 3717
1 3718
1 3719
1 3720
1 3721
1 3722
1 3723
1 3724
1 3725
1 3726
1 3727
1 3728
1 3729
1 3730
1 3731
1 3732
1 3733
1 3734
1 3735
1 3736
1 3737
1 3738
1 3739
1 3740
1 3741
1 3742
1 3743
1 3744
1 3745
1 3746
1 3747
1 3748
1 3749
1 3750
1 3751
1 3752
1 3753
1 3754
1 3755
1 3756
1 3757
1 3758
1 3759
1 3760
1 3761
1 3762
1 3763
1 3764
1 3765
1 3766
1 3767
1 3768
1 3769
1 3770
1 3771
1 3772
1 3773
1 3774
1 3775
1 3776
1 3777
1 3778
1 3779
1 3780
1 3781
1 3782
1 3783
1 3784
1 3785
1 3786
1 3787
1 3788
1 3789
1 3790
1 3791
1 3792
1 3793
1 3794
1 3795
1 3796
1 3797
1 3798
1 3799
1 3800
1 3801
1 3802
1 3803
1 3804
1 3805
1 3806
1 3807
1 3808
1 3809
1 3810
1 3811
1 3812
1 3813
1 3814
1 3815
1 3816
1 3817
1 3818
1 3819
1 3820
1 3821
1 3822
1 3823
1 3824
1 3825
1 3826
1 3827
1 3828
1 3829
1 3830
1 3831
1 3832
1 3833
1 3834
1 3835
1 3836
1 3837
1 3838
1 3839
1 3840
1 3841
1 3842
1 3843
1 3844
1 3845
1 3846
1 3847
1 3848
1 3849
1 3850
1 3851
1 3852
1 3853
1 3854
1 3855
1 3856
1 3857
1 3858
1 3859
1 3860
1 3861
1 3862
1 3863
1 3864
1 3865
1 3866
1 3867
1 3868
1 3869
1 3870
1 3871
1 3872
1 3873
1 3874
1 3875
1 3876
1 3877
1 3878
1 3879
1 3880
1 3881
1 3882
1 3883
1 3884
1 3885
1 3886
1 3887
1 3888
1 3889
1 3890
1 3891
1 3892
1 3893
1 3894
1 3895
1 3896
1 3897
1 3898
1 3899
1 3900
1 3901
1 3902
1 3903
1 3904
1 3905
1 3906
1 3907
1 3908
1 3909
1 3910
1 3911
1 3912
1 3913
1 3914
1 3915
1 3916
1 3917
1 3918
1 3919
1 3920
1 3921
1 3922
1 3923
1 3924
1 3925
1 3926
1 3927
1 3928
1 3929
1 3930
1 3931
1 3932
1 3933
1 3934
1 3935
1 3936
1 3937
1 3938
1 3939
1 3940
1 3941
1 3942
1 3943
1 3944
1 3945
1 3946
1 3947
1 3948
1 3949
1 3950
1 3951
1 3952
1 3953
1 3954
1 3955
1 3956
1 3957
1 3958
1 3959
1 3960
1 3961
1 3962
1 3963
1 3964
1 3965
1 3966
1 3967
1 3968
1 3969
1 3970
1 3971
1 3972
1 3973
1 3974
1 3975
1 3976
1 3977
1 3978
1 3979
1 3980
1 3981
1 3982
1 3983
1 3984
1 3985
1 3986
1 3987
1 3988
1 3989
1 3990
1 3991
1 3992
1 3993
1 3994
1 3995
1 3996
1 3997
1 3998
1 3999
1 4000
1 4001
1 4002
1 4003
1 4004
1 4005
1 4006
1 4007
1 4008
1 4009
1 4010
1 4011
1 4012
1 4013
1 4014
1 4015
1 4016
1 4017
1 4018
1 4019
1 4020
1 4021
1 4022
1 4023
1 4024
1 4025
1 4026
1 4027
1 4028
1 4029
1 4030
1 4031
1 4032
1 4033
1 4034
1 4035
1 4036
1 4037
1 4038
1 4039
1 4040
1 4041
1 4042
1 4043
1 4044
1 4045
1 4046
1 4047
1 4048
1 4049
1 4050
1 4051
1 4052
1 4053
1 4054
1 4055
1 4056
1 4057
1 4058
1 4059
1 4060
1 4061
1 4062
1 4063
1 4064
1 4065
1 4066
1 4067
1 4068
1 4069
1 4070
1 4071
1 4072
1 4073
1 4074
1 4075
1 4076
1 4077
1 4078
1 4079
1 4080
1 4081
1 4082
1 4083
1 4084
1 4085
1 4086
1 4087
1 4088
1 4089
1 4090
1 4091
1 4092
1 4093
1 4094
1 4095
1 4096
1 4097
1 4098
1 4099
1 4100
1 4101
1 4102
1 4103
1 4104
1 4105
1 4106
1 4107
1 4108
1 4109
1 4110
1 4111
1 4112
1 4113
1 4114
1 4115
1 4116
1 4117
1 4118
1 4119
1 4120
1 4121
1 4122
1 4123
1 4124
1 4125
1 4126
1 4127
1 4128
1 4129
1 4130
1 4131
1 4132
1 4133
1 4134
1 4135
1 4136
1 4137
1 4138
1 4139
1 4140
1 4141
1 4142
1 4143
1 4144
1 4145
1 4146
1 4147
1 4148
1 4149
1 4150
1 4151
1 4152
1 4153
1 4154
1 4155
1 4156
1 4157
1 4158
1 4159
1 4160
1 4161
1 4162
1 4163
1 4164
1 4165
1 4166
1 4167
1 4168
1 4169
1 4170
1 4171
1 4172
1 4173
1 4174
1 4175
1 4176
1 4177
1 4178
1 4179
1 4180
1 4181
1 4182
1 4183
1 4184
1 4185
1 4186
1 4187
1 4188
1 4189
1 4190
1 4191
1 4192
1 4193
1 4194
1 4195
1 4196
1 4197
1 4198
1 4199
1 4200
1 4201
1 4202
1 4203
1 4204
1 4205
1 4206
1 4207
1 4208
1 4209
1 4210
1 4211
1 4212
1 4213
1 4214
1 4215
1 4216
1 4217
1 4218
1 4219
1 4220
1 4221
1 4222
1 4223
1 4224
1 4225
1 4226
1 4227
1 4228
1 4229
1 4230
1 4231
1 4232
1 4233
1 4234
1 4235
1 4236
1 4237
1 4238
1 4239
1 4240
1 4241
1 4242
1 4243
1 4244
1 4245
1 4246
1 4247
1 4248
1 4249
1 4250
1 4251
1 4252
1 4253
1 4254
1 4255
1 4256
1 4257
1 4258
1 4259
1 4260
1 4261
1 4262
1 4263
1 4264
1 4265
1 4266
1 4267
1 4268
1 4269
1 4270
1 4271
1 4272
1 4273
1 4274
1 4275
1 4276
1 4277
1 4278
1 4279
1 4280
1 4281
1 4282
1 4283
1 4284
1 4285
1 4286
1 4287
1 4288
1 4289
1 4290
1 4291
1 4292
1 4293
1 4294
1 4295
1 4296
1 4297
1 4298
1 4299
1 4300
1 4301
1 4302
1 4303
1 4304
1 4305
1 4306
1 4307
1 4308
1 4309
1 4310
1 4311
1 4312
1 4313
1 4314
1 4315
1 4316
1 4317
1 4318
1 4319
1 4320
1 4321
1 4322
1 4323
1 4324
1 4325
1 4326
1 4327
1 4328
1 4329
1 4330
1 4331
1 4332
1 4333
1 4334
1 4335
1 4336
1 4337
1 4338
1 4339
1 4340
1 4341
1 4342
1 4343
1 4344
1 4345
1 4346
1 4347
1 4348
1 4349
1 4350
1 4351
1 4352
1 4353
1 4354
1 4355
1 4356
1 4357
1 4358
1 4359
1 4360
1 4361
1 4362
1 4363
1 4364
1 4365
1 4366
1 4367
1 4368
1 4369
1 4370
1 4371
1 4372
1 4373
1 4374
1 4375
1 4376
1 4377
1 4378
1 4379
1 4380
1 4381
1 4382
1 4383
1 4384
1 4385
1 4386
1 4387
1 4388
1 4389
1 4390
1 4391
1 4392
1 4393
1 4394
1 4395
1 4396
1 4397
1 4398
1 4399
1 4400
1 4401
1 4402
1 4403
1 4404
1 4405
1 4406
1 4407
1 4408
1 4409
1 4410
1 4411
1 4412
1 4413
1 4414
1 4415
1 4416
1 4417
1 4418
1 4419
1 4420
1 4421
1 4422
1 4423
1 4424
1 4425
1 4426
1 4427
1 4428
1 4429
1 4430
1 4431
1 4432
1 4433
1 4434
1 4435
1 4436
1 4437
1 4438
1 4439
1 4440
1 4441
1 4442
1 4443
1 4444
1 4445
1 4446
1 4447
1 4448
1 4449
1 4450
1 4451
1 4452
1 4453
1 4454
1 4455
1 4456
1 4457
1 4458
1 4459
1 4460
1 4461
1 4462
1 4463
1 4464
1 4465
1 4466
1 4467
1 4468
1 4469
1 4470
1 4471
1 4472
1 4473
1 4474
1 4475
1 4476
1 4477
1 4478
1 4479
1 4480
1 4481
1 4482
1 4483
1 4484
1 4485
1 4486
1 4487
1 4488
1 4489
1 4490
1 4491
1 4492
1 4493
1 4494
1 4495
1 4496
1 4497
1 4498
1 4499
1 4500
1 4501
1 4502
1 4503
1 4504
1 4505
1 4506
1 4507
1 4508
1 4509
1 4510
1 4511
1 4512
1 4513
1 4514
1 4515
1 4516
1 4517
1 4518
1 4519
1 4520
1 4521
1 4522
1 4523
1 4524
1 4525
1 4526
1 4527
1 4528
1 4529
1 4530
1 4531
1 4532
1 4533
1 4534
1 4535
1 4536
1 4537
1 4538
1 4539
1 4540
1 4541
1 4542
1 4543
1 4544
1 4545
1 4546
1 4547
1 4548
1 4549
1 4550
1 4551
1 4552
1 4553
1 4554
1 4555
1 4556
1 4557
1 4558
1 4559
1 4560
1 4561
1 4562
1 4563
1 4564
1 4565
1 4566
1 4567
1 4568
1 4569
1 4570
1 4571
1 4572
1 4573
1 4574
1 4575
1 4576
1 4577
1 4578
1 4579
1 4580
1 4581
1 4582
1 4583
1 4584
1 4585
1 4586
1 4587
1 4588
1 4589
1 4590
1 4591
1 4592
1 4593
1 4594
1 4595
1 4596
1 4597
1 4598
1 4599
1 4600
1 4601
1 4602
1 4603
1 4604
1 4605
1 4606
1 4607
1 4608
1 4609
1 4610
1 4611
1 4612
1 4613
1 4614
1 4615
1 4616
1 4617
1 4618
1 4619
1 4620
1 4621
1 4622
1 4623
1 4624
1 4625
1 4626
1 4627
1 4628
1 4629
1 4630
1 4631
1 4632
1 4633
1 4634
1 4635
1 4636
1 4637
1 4638
1 4639
1 4640
1 4641
1 4642
1 4643
1 4644
1 4645
1 4646
1 4647
1 4648
1 4649
1 4650
1 4651
1 4652
1 4653
1 4654
1 4655
1 4656
1 4657
1 4658
1 4659
1 4660
1 4661
1 4662
1 4663
1 4664
1 4665
1 4666
1 4667
1 4668
1 4669
1 4670
1 4671
1 4672
1 4673
1 4674
1 4675
1 4676
1 4677
1 4678
1 4679
1 4680
1 4681
1 4682
1 4683
1 4684
1 4685
1 4686
1 4687
1 4688
1 4689
1 4690
1 4691
1 4692
1 4693
1 4694
1 4695
1 4696
1 4697
1 4698
1 4699
1 4700
1 4701
1 4702
1 4703
1 4704
1 4705
1 4706
1 4707
1 4708
1 4709
1 4710
1 4711
1 4712
1 4713
1 4714
1 4715
1 4716
1 4717
1 4718
1 4719
1 4720
1 4721
1 4722
1 4723
1 4724
1 4725
1 4726
1 4727
1 4728
1 4729
1 4730
1 4731
1 4732
1 4733
1 4734
1 4735
1 4736
1 4737
1 4738
1 4739
1 4740
1 4741
1 4742
1 4743
1 4744
1 4745
1 4746
1 4747
1 4748
1 4749
1 4750
1 4751
1 4752
1 4753
1 4754
1 4755
1 4756
1 4757
1 4758
1 4759
1 4760
1 4761
1 4762
1 4763
1 4764
1 4765
1 4766
1 4767
1 4768
1 4769
1 4770
1 4771
1 4772
1 4773
1 4774
1 4775
1 4776
1 4777
1 4778
1 4779
1 4780
1 4781
1 4782
1 4783
1 4784
1 4785
1 4786
1 4787
1 4788
1 4789
1 4790
1 4791
1 4792
1 4793
1 4794
1 4795
1 4796
1 4797
1 4798
1 4799
1 4800
1 4801
1 4802
1 4803
1 4804
1 4805
1 4806
1 4807
1 4808
1 4809
1 4810
1 4811
1 4812
1 4813
1 4814
1 4815
1 4816
1 4817
1 4818
1 4819
1 4820
1 4821
1 4822
1 4823
1 4824
1 4825
1 4826
1 4827
1 4828
1 4829
1 4830
1 4831
1 4832
1 4833
1 4834
1 4835
1 4836
1 4837
1 4838
1 4839
1 4840
1 4841
1 4842
1 4843
1 4844
1 4845
1 4846
1 4847
1 4848
1 4849
1 4850
1 4851
1 4852
1 4853
1 4854
1 4855
1 4856
1 4857
1 4858
1 4859
1 4860
1 4861
1 4862
1 4863
1 4864
1 4865
1 4866
1 4867
1 4868
1 4869
1 4870
1 4871
1 4872
1 4873
1 4874
1 4875
1 4876
1 4877
1 4878
1 4879
1 4880
1 4881
1 4882
1 4883
1 4884
1 4885
1 4886
1 4887
1 4888
1 4889
1 4890
1 4891
1 4892
1 4893
1 4894
1 4895
1 4896
1 4897
1 4898
1 4899
1 4900
1 4901
1 4902
1 4903
1 4904
1 4905
1 4906
1 4907
1 4908
1 4909
1 4910
1 4911
1 4912
1 4913
1 4914
1 4915
1 4916
1 4917
1 4918
1 4919
1 4920
1 4921
1 4922
1 4923
1 4924
1 4925
1 4926
1 4927
1 4928
1 4929
1 4930
1 4931
1 4932
1 4933
1 4934
1 4935
1 4936
1 4937
1 4938
1 4939
1 4940
1 4941
1 4942
1 4943
1 4944
1 4945
1 4946
1 4947
1 4948
1 4949
1 4950
1 4951
1 4952
1 4953
1 4954
1 4955
1 4956
1 4957
1 4958
1 4959
1 4960
1 4961
1 4962
1 4963
1 4964
1 4965
1 4966
1 4967
1 4968
1 4969
1 4970
1 4971
1 4972
1 4973
1 4974
1 4975
1 4976
1 4977
1 4978
1 4979
1 4980
1 4981
1 4982
1 4983
1 4984
1 4985
1 4986
1 4987
1 4988
1 4989
1 4990
1 4991
1 4992
1 4993
1 4994
1 4995
1 4996
1 4997
1 4998
1 4999
CELL_TYPES 5000
1 
1 
1 
1 
1 
1 
1 
1 
1 
1 
1 
1 
1 
1 
1 
1 
1 
1 
1 
1 
1 
1 
1 
1 
1 
1 
1 
1 
1 
1 
1 
1 
1 
1 
1 
1 
1 
1 
1 
1 
1 
1 
1 
1 
1 
1 
1 
1 
1 
1 
1 
1 
1 
1 
1 
1 
1 
1 
1 
1 
1 
1 
1 
1 
1 
1 
1 
1 
1 
1 
1 
1 
1 
1 
1 
1 
1 
1 
1 
1 
1 
1 
1 
1 
1 
1 
1 
1 
1 
1 
1 
1 
1 
1 
1 
1 
1 
1 
1 
1 
1 
1 
1 
1 
1 
1 
1 
1 
1 
1 
1 
1 
1 
1 
1 
1 
1 
1 
1 
1 
1 
1 
1 
1 
1 
1 
1 
1 
1 
1 
1 
1 
1 
1 
1 
1 
1 
1 
1 
1 
1 
1 
1 
1 
1 
1 
1 
1 
1 
1 
1 
1 
1 
1 
1 
1 
1 
1 
1 
1 
1 
1 
1 
1 
1 
1 
1 
1 
1 
1 
1 
1 
1 
1 
1 
1 
1 
1 
1 
1 
1 
1 
1 
1 
1 
1 
1 
1 
1 
1 
1 
1 
1 
1 
1 
1 
1 
1 
1 
1 
1 
1 
1 
1 
1 
1 
1 
1 
1 
1 
1 
1 
1 
1 
1 
1 
1 
1 
1 
1 
1 
1 
1 
1 
1 
1 
1 
1 
1 
1 
1 
1 
1 
1 
1 
1 
1 
1 
1 
1 
1 
1 
1 
1 
1 
1 
1 
1 
1 
1 
1 
1 
1 
1 
1 
1 
1 
1 
1 
1 
1 
1 
1 
1 
1 
1 
1 
1 
1 
1 
1 
1 
1 
1 
1 
1 
1 
1 
1 
1 
1 
1 
1 
1 
1 
1 
1 
1 
1 
1 
1 
1 
1 
1 
1 
1 
1 
1 
1 
1 
1 
1 
1 
1 
1 
1 
1 
1 
1 
1 
1 
1 
1 
1 
1 
1 
1 
1 
1 
1 
1 
1 
1 
1 
1 
1 
1 
1 
1 
1 
1 
1 
1 
1 
1 
1 
1 
1 
1 
1 
1 
1 
1 
1 
1 
1 
1 
1 
1 
1 
1 
1 
1 
1 
1 
1 
1 
1 
1 
1 
1 
1 
1 
1 
1 
1 
1 
1 
1 
1 
1 
1 
1 
1 
1 
1 
1 
1 
1 
1 
1 
1 
1 
1 
1 
1 
1 
1 
1 
1 
1 
1 
1 
1 
1 
1 
1 
1 
1 
1 
1 
1 
1 
1 
1 
1 
1 
1 
1 
1 
1 
1 
1 
1 
1 
1 
1 
1 
1 
1 
1 
1 
1 
1 
1 
1 
1 
1 
1 
1 
1 
1 
1 
1 
1 
1 
1 
1 
1 
1 
1 
1 
1 
1 
1 
1 
1 
1 
1 
1 
1 
1 
1 
1 
1 
1 
1 
1 
1 
1 
1 
1 
1 
1 
1 
1 
1 
1 
1 
1 
1 
1 
1 
1 
1 
1 
1 
1 
1 
1 
1 
1 
1 
1 
1 
1 
1 
1 
1 
1 
1 
1 
1 
1 
1 
1 
1 
1 
1 
1 
1 
1 
1 
1 
1 
1 
1 
1 
1 
1 
1 
1 
1 
1 
1 
1 
1 
1 
1 
1 
1 
1 
1 
1 
1 
1 
1 
1 
1 
1 
1 
1 
1 
1 
1 
1 
1 
1 
1 
1 
1 
1 
1 
1 
1 
1 
1 
1 
1 
1 
1 
1 
1 
1 
1 
1 
1 
1 
1 
1 
1 
1 
1 
1 
1 
1 
1 
1 
1 
1 
1 
1 
1 
1 
1 
1 
1 
1 
1 
1 
1 
1 
1 
1 
1 
1 
1 
1 
1 
1 
1 
1 
1 
1 
1 
1 
1 
1 
1 
1 
1 
1 
1 
1 
1 
1 
1 
1 
1 
1 
1 
1 
1 
1 
1 
1 
1 
1 
1 
1 
1 
1 
1 
1 
1 
1 
1 
1 
1 
1 
1 
1 
1 
1 
1 
1 
1 
1 
1 
1 
1 
1 
1 
1 
1 
1 
1 
1 
1 
1 
1 
1 
1 
1 
1 
1 
1 
1 
1 
1 
1 
1 
1 
1 
1 
1 
1 
1 
1 
1 
1 
1 
1 
1 
1 
1 
1 
1 
1 
1 
1 
1 
1 
1 
1 
1 
1 
1 
1 
1 
1 
1 
1 
1 
1 
1 
1 
1 
1 
1 
1 
1 
1 
1 
1 
1 
1 
1 
1 
1 
1 
1 
1 
1 
1 
1 
1 
1 
1 
1 
1 
1 
1 
1 
1 
1 
1 
1 
1 
1 
1 
1 
1 
1 
1 
1 
1 
1 
1 
1 
1 
1 
1 
1 
1 
1 
1 
1 
1 
1 
1 
1 
1 
1 
1 
1 
1 
1 
1 
1 
1 
1 
1 
1 
1 
1 
1 
1 
1 
1 
1 
1 
1 
1 
1 
1 
1 
1 
1 
1 
1 
1 
1 
1 
1 
1 
1 
1 
1 
1 
1 
1 
1 
1 
1 
1 
1 
1 
1 
1 
1 
1 
1 
1 
1 
1 
1 
1 
1 
1 
1 
1 
1 
1 
1 
1 
1 
1 
1 
1 
1 
1 
1 
1 
1 
1 
1 
1 
1 
1 
1 
1 
1 
1 
1 
1 
1 
1 
1 
1 
1 
1 
1 
1 
1 
1 
1 
1 
1 
1 
1 
1 
1 
1 
1 
1 
1 
1 
1 
1 
1 
1 
1 
1 
1 
1 
1 
1 
1 
1 
1 
1 
1 
1 
1 
1 
1 
1 
1 
1 
1 
1 
1 
1 
1 
1 
1 
1 
1 
1 
1 
1 
1 
1 
1 
1 
1 
1 
1 
1 
1 
1 
1 
1 
1 
1 
1 
1 
1 
1 
1 
1 
1 
1 
1 
1 
1 
1 
1 
1 
1 
1 
1 
1 
1 
1 
1 
1 
1 
1 
1 
1 
1 
1 
1 
1 
1 
1 
1 
1 
1 
1 
1 
1 
1 
1 
1 
1 
1 
1 
1 
1 
1 
1 
1 
1 
1 
1 
1 
1 
1 
1 
1 
1 
1 
1 
1 
1 
1 
1 
1 
1 
1 
1 
1 
1 
1 
1 
1 
1 
1 
1 
1 
1 
1 
1 
1 
1 
1 
1 
1 
1 
1 
1 
1 
1 
1 
1 
1 
1 
1 
1 
1 
1 
1 
1 
1 
1 
1 
1 
1 
1 
1 
1 
1 
1 
1 
1 
1 
1 
1 
1 
1 
1 
1 
1 
1 
1 
1 
1 
1 
1 
1 
1 
1 
1 
1 
1 
1 
1 
1 
1 
1 
1 
1 
1 
1 
1 
1 
1 
1 
1 
1 
1 
1 
1 
1 
1 
1 
1 
1 
1 
1 
1 
1 
1 
1 
1 
1 
1 
1 
1 
1 
1 
1 
1 
1 
1 
1 
1 
1 
1 
1 
1 
1 
1 
1 
1 
1 
1 
1 
1 
1 
1 
1 
1 
1 
1 
1 
1 
1 
1 
1 
1 
1 
1 
1 
1 
1 
1 
1 
1 
1 
1 
1 
1 
1 
1 
1 
1 
1 
1 
1 
1 
1 
1 
1 
1 
1 
1 
1 
1 
1 
1 
1 
1 
1 
1 
1 
1 
1 
1 
1 
1 
1 
1 
1 
1 
1 
1 
1 
1 
1 
1 
1 
1 
1 
1 
1 
1 
1 
1 
1 
1 
1 
1 
1 
1 
1 
1 
1 
1 
1 
1 
1 
1 
1 
1 
1 
1 
1 
1 
1 
1 
1 
1 
1 
1 
1 
1 
1 
1 
1 
1 
1 
1 
1 
1 
1 
1 
1 
1 
1 
1 
1 
1 
1 
1 
1 
1 
1 
1 
1 
1 
1 
1 
1 
1 
1 
1 
1 
1 
1 
1 
1 
1 
1 
1 
1 
1 
1 
1 
1 
1 
1 
1 
1 
1 
1 
1 
1 
1 
1 
1 
1 
1 
1 
1 
1 
1 
1 
1 
1 
1 
1 
1 
1 
1 
1 
1 
1 
1 
1 
1 
1 
1 
1 
1 
1 
1 
1 
1 
1 
1 
1 
1 
1 
1 
1 
1 
1 
1 
1 
1 
1 
1 
1 
1 
1 
1 
1 
1 
1 
1 
1 
1 
1 
1 
1 
1 
1 
1 
1 
1 
1 
1 
1 
1 
1 
1 
1 
1 
1 
1 
1 
1 
1 
1 
1 
1 
1 
1 
1 
1 
1 
1 
1 
1 
1 
1 
1 
1 
1 
1 
1 
1 
1 
1 
1 
1 
1 
1 
1 
1 
1 
1 
1 
1 
1 
1 
1 
1 
1 
1 
1 
1 
1 
1 
1 
1 
1 
1 
1 
1 
1 
1 
1 
1 
1 
1 
1 
1 
1 
1 
1 
1 
1 
1 
1 
1 
1 
1 
1 
1 
1 
1 
1 
1 
1 
1 
1 
1 
1 
1 
1 
1 
1 
1 
1 
1 
1 
1 
1 
1 
1 
1 
1 
1 
1 
1 
1 
1 
1 
1 
1 
1 
1 
1 
1 
1 
1 
1 
1 
1 
1 
1 
1 
1 
1 
1 
1 
1 
1 
1 
1 
1 
1 
1 
1 
1 
1 
1 
1 
1 
1 
1 
1 
1 
1 
1 
1 
1 
1 
1 
1 
1 
1 
1 
1 
1 
1 
1 
1 
1 
1 
1 
1 
1 
1 
1 
1 
1 
1 
1 
1 
1 
1 
1 
1 
1 
1 
1 
1 
1 
1 
1 
1 
1 
1 
1 
1 
1 
1 
1 
1 
1 
1 
1 
1 
1 
1 
1 
1 
1 
1 
1 
1 
1 
1 
1 
1 
1 
1 
1 
1 
1 
1 
1 
1 
1 
1 
1 
1 
1 
1 
1 
1 
1 
1 
1 
1 
1 
1 
1 
1 
1 
1 
1 
1 
1 
1 
1 
1 
1 
1 
1 
1 
1 
1 
1 
1 
1 
1 
1 
1 
1 
1 
1 
1 
1 
1 
1 
1 
1 
1 
1 
1 
1 
1 
1 
1 
1 
1 
1 
1 
1 
1 
1 
1 
1 
1 
1 
1 
1 
1 
1 
1 
1 
1 
1 
1 
1 
1 
1 
1 
1 
1 
1 
1 
1 
1 
1 
1 
1 
1 
1 
1 
1 
1 
1 
1 
1 
1 
1 
1 
1 
1 
1 
1 
1 
1 
1 
1 
1 
1 
1 
1 
1 
1 
1 
1 
1 
1 
1 
1 
1 
1 
1 
1 
1 
1 
1 
1 
1 
1 
1 
1 
1 
1 
1 
1 
1 
1 
1 
1 
1 
1 
1 
1 
1 
1 
1 
1 
1 
1 
1 
1 
1 
1 
1 
1 
1 
1 
1 
1 
1 
1 
1 
1 
1 
1 
1 
1 
1 
1 
1 
1 
1 
1 
1 
1 
1 
1 
1 
1 
1 
1 
1 
1 
1 
1 
1 
1 
1 
1 
1 
1 
1 
1 
1 
1 
1 
1 
1 
1 
1 
1 
1 
1 
1 
1 
1 
1 
1 
1 
1 
1 
1 
1 
1 
1 
1 
1 
1 
1 
1 
1 
1 
1 
1 
1 
1 
1 
1 
1 
1 
1 
1 
1 
1 
1 
1 
1 
1 
1 
1 
1 
1 
1 
1 
1 
1 
1 
1 
1 
1 
1 
1 
1 
1 
1 
1 
1 
1 
1 
1 
1 
1 
1 
1 
1 
1 
1 
1 
1 
1 
1 
1 
1 
1 
1 
1 
1 
1 
1 
1 
1 
1 
1 
1 
1 
1 
1 
1 
1 
1 
1 
1 
1 
1 
1 
1 
1 
1 
1 
1 
1 
1 
1 
1 
1 
1 
1 
1 
1 
1 
1 
1 
1 
1 
1 
1 
1 
1 
1 
1 
1 
1 
1 
1 
1 
1 
1 
1 
1 
1 
1 
1 
1 
1 
1 
1 
1 
1 
1 
1 
1 
1 
1 
1 
1 
1 
1 
1 
1 
1 
1 
1 
1 
1 
1 
1 
1 
1 
1 
1 
1 
1 
1 
1 
1 
1 
1 
1 
1 
1 
1 
1 
1 
1 
1 
1 
1 
1 
1 
1 
1 
1 
1 
1 
1 
1 
1 
1 
1 
1 
1 
1 
1 
1 
1 
1 
1 
1 
1 
1 
1 
1 
1 
1 
1 
1 
1 
1 
1 
1 
1 
1 
1 
1 
1 
1 
1 
1 
1 
1 
1 
1 
1 
1 
1 
1 
1 
1 
1 
1 
1 
1 
1 
1 
1 
1 
1 
1 
1 
1 
1 
1 
1 
1 
1 
1 
1 
1 
1 
1 
1 
1 
1 
1 
1 
1 
1 
1 
1 
1 
1 
1 
1 
1 
1 
1 
1 
1 
1 
1 
1 
1 
1 
1 
1 
1 
1 
1 
1 
1 
1 
1 
1 
1 
1 
1 
1 
1 
1 
1 
1 
1 
1 
1 
1 
1 
1 
1 
1 
1 
1 
1 
1 
1 
1 
1 
1 
1 
1 
1 
1 
1 
1 
1 
1 
1 
1 
1 
1 
1 
1 
1 
1 
1 
1 
1 
1 
1 
1 
1 
1 
1 
1 
1 
1 
1 
1 
1 
1 
1 
1 
1 
1 
1 
1 
1 
1 
1 
1 
1 
1 
1 
1 
1 
1 
1 
1 
1 
1 
1 
1 
1 
1 
1 
1 
1 
1 
1 
1 
1 
1 
1 
1 
1 
1 
1 
1 
1 
1 
1 
1 
1 
1 
1 
1 
1 
1 
1 
1 
1 
1 
1 
1 
1 
1 
1 
1 
1 
1 
1 
1 
1 
1 
1 
1 
1 
1 
1 
1 
1 
1 
1 
1 
1 
1 
1 
1 
1 
1 
1 
1 
1 
1 
1 
1 
1 
1 
1 
1 
1 
1 
1 
1 
1 
1 
1 
1 
1 
1 
1 
1 
1 
1 
1 
1 
1 
1 
1 
1 
1 
1 
1 
1 
1 
1 
1 
1 
1 
1 
1 
1 
1 
1 
1 
1 
1 
1 
1 
1 
1 
1 
1 
1 
1 
1 
1 
1 
1 
1 
1 
1 
1 
1 
1 
1 
1 
1 
1 
1 
1 
1 
1 
1 
1 
1 
1 
1 
1 
1 
1 
1 
1 
1 
1 
1 
1 
1 
1 
1 
1 
1 
1 
1 
1 
1 
1 
1 
1 
1 
1 
1 
1 
1 
1 
1 
1 
1 
1 
1 
1 
1 
1 
1 
1 
1 
1 
1 
1 
1 
1 
1 
1 
1 
1 
1 
1 
1 
1 
1 
1 
1 
1 
1 
1 
1 
1 
1 
1 
1 
1 
1 
1 
1 
1 
1 
1 
1 
1 
1 
1 
1 
1 
1 
1 
1 
1 
1 
1 
1 
1 
1 
1 
1 
1 
1 
1 
1 
1 
1 
1 
1 
1 
1 
1 
1 
1 
1 
1 
1 
1 
1 
1 
1 
1 
1 
1 
1 
1 
1 
1 
1 
1 
1 
1 
1 
1 
1 
1 
1 
1 
1 
1 
1 
1 
1 
1 
1 
1 
1 
1 
1 
1 
1 
1 
1 
1 
1 
1 
1 
1 
1 
1 
1 
1 
1 
1 
1 
1 
1 
1 
1 
1 
1 
1 
1 
1 
1 
1 
1 
1 
1 
1 
1 
1 
1 
1 
1 
1 
1 
1 
1 
1 
1 
1 
1 
1 
1 
1 
1 
1 
1 
1 
1 
1 
1 
1 
1 
1 
1 
1 
1 
1 
1 
1 
1 
1 
1 
1 
1 
1 
1 
1 
1 
1 
1 
1 
1 
1 
1 
1 
1 
1 
1 
1 
1 
1 
1 
1 
1 
1 
1 
1 
1 
1 
1 
1 
1 
1 
1 
1 
1 
1 
1 
1 
1 
1 
1 
1 
1 
1 
1 
1 
1 
1 
1 
1 
1 
1 
1 
1 
1 
1 
1 
1 
1 
1 
1 
1 
1 
1 
1 
1 
1 
1 
1 
1 
1 
1 
1 
1 
1 
1 
1 
1 
1 
1 
1 
1 
1 
1 
1 
1 
1 
1 
1 
1 
1 
1 
1 
1 
1 
1 
1 
1 
1 
1 
1 
1 
1 
1 
1 
1 
1 
1 
1 
1 
1 
1 
1 
1 
1 
1 
1 
1 
1 
1 
1 
1 
1 
1 
1 
1 
1 
1 
1 
1 
1 
1 
1 
1 
1 
1 
1 
1 
1 
1 
1 
1 
1 
1 
1 
1 
1 
1 
1 
1 
1 
1 
1 
1 
1 
1 
1 
1 
1 
1 
1 
1 
1 
1 
1 
1 
1 
1 
1 
1 
1 
1 
1 
1 
1 
1 
1 
1 
1 
1 
1 
1 
1 
1 
1 
1 
1 
1 
1 
1 
1 
1 
1 
1 
1 
1 
1 
1 
1 
1 
1 
1 
1 
1 
1 
1 
1 
1 
1 
1 
1 
1 
1 
1 
1 
1 
1 
1 
1 
1 
1 
1 
1 
1 
1 
1 
1 
1 
1 
1 
1 
1 
1 
1 
1 
1 
1 
1 
1 
1 
1 
1 
1 
1 
1 
1 
1 
1 
1 
1 
1 
1 
1 
1 
1 
1 
1 
1 
1 
1 
1 
1 
1 
1 
1 
1 
1 
1 
1 
1 
1 
1 
1 
1 
1 
1 
1 
1 
1 
1 
1 
1 
1 
1 
1 
1 
1 
1 
1 
1 
1 
1 
1 
1 
1 
1 
1 
1 
1 
1 
1 
1 
1 
1 
1 
1 
1 
1 
1 
1 
1 
1 
1 
1 
1 
1 
1 
1 
1 
1 
1 
1 
1 
1 
1 
1 
1 
1 
1 
1 
1 
1 
1 
1 
1 
1 
1 
1 
1 
1 
1 
1 
1 
1 
1 
1 
1 
1 
1 
1 
1 
1 
1 
1 
1 
1 
1 
1 
1 
1 
1 
1 
1 
1 
1 
1 
1 
1 
1 
1 
1 
1 
1 
1 
1 
1 
1 
1 
1 
1 
1 
1 
1 
1 
1 
1 
1 
1 
1 
1 
1 
1 
1 
1 
1 
1 
1 
1 
1 
1 
1 
1 
1 
1 
1 
1 
1 
1 
1 
1 
1 
1 
1 
1 
1 
1 
1 
1 
1 
1 
1 
1 
1 
1 
1 
1 
1 
1 
1 
1 
1 
1 
1 
1 
1 
1 
1 
1 
1 
1 
1 
1 
1 
1 
1 
1 
1 
1 
1 
1 
1 
1 
1 
1 
1 
1 
1 
1 
1 
1 
1 
1 
1 
1 
1 
1 
1 
1 
1 
1 
1 
1 
1 
1 
1 
1 
1 
1 
1 
1 
1 
1 
1 
1 
1 
1 
1 
1 
1 
1 
1 
1 
1 
1 
1 
1 
1 
1 
1 
1 
1 
1 
1 
1 
1 
1 
1 
1 
1 
1 
1 
1 
1 
1 
1 
1 
1 
1 
1 
1 
1 
1 
1 
1 
1 
1 
1 
1 
1 
1 
1 
1 
1 
1 
1 
1 
1 
1 
1 
1 
1 
1 
1 
1 
1 
1 
1 
1 
1 
1 
1 
1 
1 
1 
1 
1 
1 
1 
1 
1 
1 
1 
1 
1 
1 
1 
1 
1 
1 
1 
1 
1 
1 
1 
1 
1 
1 
1 
1 
1 
1 
1 
1 
1 
1 
1 
1 
1 
1 
1 
1 
1 
1 
1 
1 
1 
1 
1 
1 
1 
1 
1 
1 
1 
1 
1 
1 
1 
1 
1 
1 
1 
1 
1 
1 
1 
1 
1 
1 
1 
1 
1 
1 
1 
1 
1 
1 
1 
1 
1 
1 
1 
1 
1 
1 
1 
1 
1 
1 
1 
1 
1 
1 
1 
1 
1 
1 
1 
1 
1 
1 
1 
1 
1 
1 
1 
1 
1 
1 
1 
1 
1 
1 
1 
1 
1 
1 
1 
1 
1 
1 
1 
1 
1 
1 
1 
1 
1 
1 
1 
1 
1 
1 
1 
1 
1 
1 
1 
1 
1 
1 
1 
1 
1 
1 
1 
1 
1 
1 
1 
1 
1 
1 
1 
1 
1 
1 
1 
1 
1 
1 
1 
1 
1 
1 
1 
1 
1 
1 
1 
1 
1 
1 
1 
1 
1 
1 
1 
1 
1 
1 
1 
1 
1 
1 
1 
1 
1 
1 
1 
1 
1 
1 
1 
1 
1 
1 
1 
1 
1 
1 
1 
1 
1 
1 
1 
1 
1 
1 
1 
1 
1 
1 
1 
1 
1 
1 
1 
1 
1 
1 
1 
1 
1 
1 
1 
1 
1 
1 
1 
1 
1 
1 
1 
1 
1 
1 
1 
1 
1 
1 
1 
1 
1 
1 
1 
1 
1 
1 
1 
1 
1 
1 
1 
1 
1 
1 
1 
1 
1 
1 
1 
1 
1 
1 
1 
1 
1 
1 
1 
1 
1 
1 
1 
1 
1 
1 
1 
1 
1 
1 
1 
1 
1 
1 
1 
1 
1 
1 
1 
1 
1 
1 
1 
1 
1 
1 
1 
1 
1 
1 
1 
1 
1 
1 
1 
1 
1 
1 
1 
1 
1 
1 
1 
1 
1 
1 
1 
1 
1 
1 
1 
1 
1 
1 
1 
1 
1 
1 
1 
1 
1 
1 
1 
1 
1 
1 
1 
1 
1 
1 
1 
1 
1 
1 
1 
1 
1 
1 
1 
1 
1 
1 
1 
1 
1 
1 
1 
1 
1 
1 
1 
1 
1 
1 
1 
1 
1 
1 
1 
1 
1 
1 
1 
1 
1 
1 
1 
1 
1 
1 
1 
1 
1 
1 
1 
1 
1 
1 
1 
1 
1 
1 
1 
1 
1 
1 
1 
1 
1 
1 
1 
1 
1 
1 
1 
1 
1 
1 
1 
1 
1 
1 
1 
1 
1 
1 
1 
1 
1 
1 
1 
1 
1 
1 
1 
1 
1 
1 
1 
1 
1 
1 
1 
1 
1 
1 
1 
1 
1 
1 
1 
1 
1 
1 
1 
1 
1 
1 
1 
1 
1 
1 
1 
1 
1 
1 
1 
1 
1 
1 
1 
1 
1 
1 
1 
1 
1 
1 
1 
1 
1 
1 
1 
1 
1 
1 
1 
1 
1 
1 
1 
1 
1 
1 
1 
1 
1 
1 
1 
1 
1 
1 
1 
1 
1 
1 
1 
1 
1 
1 
1 
1 
1 
1 
1 
1 
1 
1 
1 
1 
1 
1 
1 
1 
1 
1 
1 
1 
1 
1 
1 
1 
1 
1 
1 
1 
1 
1 
1 
1 
1 
1 
1 
1 
1 
1 
1 
1 
1 
1 
1 
1 
1 
1 
1 
1 
1 
1 
1 
1 
1 
1 
1 
1 
1 
1 
1 
1 
1 
1 
1 
1 
1 
1 
1 
1 
1 
1 
1 
1 
1 
1 
1 
1 
1 
1 
1 
1 
1 
1 
1 
1 
1 
1 
1 
1 
1 
1 
1 
1 
1 
1 
1 
1 
1 
1 
1 
1 
1 
1 
1 
1 
1 
1 
1 
1 
1 
1 
1 
1 
1 
1 
1 
1 
1 
1 
1 
1 
1 
1 
1 
1 
1 
1 
1 
1 
1 
1 
1 
1 
1 
1 
1 
1 
1 
1 
1 
1 
1 
1 
1 
1 
1 
1 
1 
1 
1 
1 
1 
1 
1 
1 
1 
1 
1 
1 
1 
1 
1 
1 
1 
1 
1 
1 
1 
1 
1 
1 
1 
1 
1 
1 
1 
1 
1 
1 
1 
1 
1 
1 
1 
1 
1 
1 
1 
1 
1 
1 
1 
1 
1 
1 
1 
1 
1 
1 
1 
1 
1 
1 
1 
1 
1 
1 
1 
1 
1 
1 
1 
1 
1 
1 
1 
1 
1 
1 
1 
1 
1 
1 
1 
1 
1 
1 
1 
1 
1 
1 
1 
1 
1 
1 
1 
1 
1 
1 
1 
1 
1 
1 
1 
1 
1 
1 
1 
1 
1 
1 
1 
1 
1 
1 
1 
1 
1 
1 
1 
1 
1 
1 
1 
1 
1 
1 
1 
1 
1 
1 
1 
1 
1 
1 
1 
1 
1 
1 
1 
1 
1 
1 
1 
1 
1 
1 
1 
1 
1 
1 
1 
1 
1 
1 
1 
1 
1 
1 
1 
1 
1 
1 
1 
1 
1 
1 
1 
1 
1 
1 
1 
1 
1 
1 
1 
1 
1 
1 
1 
1 
1 
1 
1 
1 
1 
1 
1 
1 
1 
1 
1 
1 
1 
1 
1 
1 
1 
1 
1 
1 
1 
1 
1 
1 
1 
1 
1 
1 
1 
1 
1 
1 
1 
1 
1 
1 
1 
1 
1 
1 
1 
1 
1 
1 
1 
1 
1 
1 
1 
1 
1 
1 
1 
1 
1 
1 
1 
1 
1 
1 
1 
1 
1 
1 
1 
1 
1 
1 
1 
1 
1 
1 
1 
1 
1 
1 
1 
1 
1 
1 
1 
1 
1 
1 
1 
1 
1 
1 
1 
1 
1 
1 
1 
1 
1 
1 
1 
1 
1 
1 
1 
1 
1 
1 
1 
1 
1 
1 
1 
1 
1 
1 
1 
1 
1 
1 
1 
1 
1 
1 
1 
1 
1 
1 
1 
1 
1 
1 
1 
1 
1 
1 
1 
1 
1 
1 
1 
1 
1 
1 
1 
1 
1 
1 
1 
1 
1 
1 
1 
1 
1 
1 
1 
1 
1 
1 
1 
1 
1 
1 
1 
1 
1 
1 
1 
1 
1 
1 
1 
1 
1 
1 
1 
1 
1 
1 
1 
1 
1 
1 
1 
1 
1 
1 
1 
1 
1 
1 
1 
1 
1 
1 
1 
1 
1 
1 
1 
1 
1 
1 
1 
1 
1 
1 
1 
1 
1 
1 
1 
1 
1 
1 
1 
1 
1 
1 
1 
1 
1 
1 
1 
1 
1 
1 
1 
1 
1 
1 
1 
1 
1 
1 
1 
1 
1 
1 
1 
1 
1 
1 
1 
1 
1 
1 
1 
1 
1 
1 
1 
1 
1 
1 
1 
1 
1 
1 
1 
1 
1 
1 
1 
1 
1 
1 
1 
1 
1 
1 
1 
1 
1 
1 
1 
1 
1 
1 
1 
1 
1 
1 
1 
1 
1 
1 
1 
1 
1 
1 
1 
1 
1 
1 
1 
1 
1 
1 
1 
1 
1 
1 
1 
1 
1 
1 
1 
1 
1 
1 
1 
1 
1 
1 
1 
1 
1 
1 
1 
1 
1 
1 
1 
1 
1 
1 
1 
1 
1 
1 
1 
1 
1 
1 
1 
1 
1 
1 
1 
1 
1 
1 
1 
1 
1 
1 
1 
1 
1 
1 
1 
1 
1 
1 
1 
1 
1 
1 
1 
1 
1 
1 
1 
1 
1 
1 
1 
1 
1 
1 
1 
1 
1 
1 
1 
1 
1 
1 
1 
1 
1 
1 
1 
1 
1 
1 
1 
1 
1 
1 
1 
1 
1 
1 
1 
1 
1 
1 
1 
1 
1 
1 
1 
1 
1 
1 
1 
1 
1 
1 
1 
1 
1 
1 
1 
1 
1 
1 
1 
1 
1 
1 
1 
1 
1 
1 
1 
1 
1 
1 
1 
1 
1 
1 
1 
1 
1 
1 
1 
1 
1 
1 
1 
1 
1 
1 
1 
1 
1 
1 
1 
1 
1 
1 
1 
1 
1 
1 
1 
1 
1 
1 
1 
1 
1 
1 
1 
1 
1 
1 
1 
1 
1 
1 
1 
1 
1 
1 
1 
1 
1 
1 
1 
1 
1 
1 
1 
1 
1 
1 
1 
1 
1 
1 
1 
1 
1 
1 
1 
1 
1 
1 
1 
1 
1 
1 
1 
1 
1 
1 
1 
1 
1 
1 
1 
1 
1 
1 
1 
1 
1 
1 
1 
1 
1 
1 
1 
1 
1 
1 
1 
1 
1 
1 
1 
1 
1 
1 
1 
1 
1 
1 
1 
1 
1 
1 
1 
1 
1 
1 
1 
1 
1 
1 
1 
1 
1 
1 
1 
1 
1 
1 
1 
1 
1 
1 
1 
1 
1 
1 
1 
1 
1 
1 
1 
1 
1 
1 
1 
1 
1 
1 
1 
1 
1 
1 
1 
1 
1 
1 
1 
1 
1 
1 
1 
1 
1 
1 
1 
1 
1 
1 
1 
1 
1 
1 
1 
1 
1 
1 
1 
1 
1 
1 
1 
1 
1 
1 
1 
1 
1 
1 
1 
1 
1 
1 
1 
1 
1 
1 
1 
1 
1 
1 
1 
1 
1 
1 
1 
1 
1 
1 
1 
1 
1 
1 
1 
1 
1 
1 
1 
1 
1 
1 
1 
1 
1 
1 
1 
1 
1 
1 
1 
1 
1 
1 
1 
1 
1 
1 
1 
1 
1 
1 
1 
1 
1 
1 
1 
1 
1 
1 
1 
1 
1 
1 
1 
1 
1 
1 
1 
1 
1 
1 
1 
1 
1 
1 
1 
1 
1 
1 
1 
1 
1 
1 
1 
1 
1 
1 
1 
1 
1 
1 
1 
1 
1 
1 
1 
1 
1 
1 
1 
1 
1 
1 
1 
1 
1 
1 
1 
1 
1 
1 
1 
1 
1 
1 
1 
1 
1 
1 
1 
1 
1 
1 
1 
1 
1 
1 
1 
1 
1 
1 
1 
1 
1 
1 
1 
1 
1 
1 
1 
1 
1 
1 
1 
1 
1 
1 
1 
1 
1 
1 
1 
1 
1 
1 
1 
1 
1 
1 
1 
1 
1 
1 
1 
1 
1 
1 
1 
1 
1 
1 
1 
1 
1 
1 
1 
1 
1 
1 
1 
1 
1 
1 
1 
1 
1 
1 
1 
1 
1 
1 
1 
1 
1 
1 
1 
1 
1 
1 
1 
1 
1 
1 
1 
1 
1 
1 
1 
1 
1 
1 
1 
1 
1 
1 
1 
1 
1 
1 
1 
1 
1 
1 
1 
1 
1 
1 
1 
1 
1 
1 
1 
1 
1 
1 
1 
1 
1 
1 
1 
1 
1 
1 
1 
1 
1 
1 
1 
1 
1 
1 
1 
1 
1 
1 
1 
1 
1 
1 
1 
1 
1 
1 
1 
1 
1 
1 
1 
1 
1 
1 
1 
1 
1 
1 
1 
1 
1 
1 
1 
1 
1 
1 
1 
1 
1 
1 
1 
1 
1 
1 
1 
1 
1 
1 
1 
1 
1 
1 
1 
1 
1 
1 
1 
1 
1 
1 
1 
1 
1 
1 
1 
1 
1 
1 
1 
1 
1 
1 
1 
1 
1 
1 
1 
1 
1 
1 
1 
1 
1 
1 
1 
1 
1 
1 
1 
1 
1 
1 
1 
1 
1 
1 
1 
1 
1 
1 
1 
1 
1 
1 
1 
1 
1 
1 
1 
1 
1 
1 
1 
1 
1 
1 
1 
1 
1 
1 
1 
1 
1 
1 
1 
1 
1 
1 
1 
1 
1 
1 
1 
1 
1 
1 
1 
1 
1 
1 
1 
1 
1 
1 
1 
1 
1 
1 
1 
1 
1 
1 
1 
1 
1 
1 
1 
1 
1 
1 
1 
1 
1 
1 
1 
1 
1 
1 
1 
1 
1 
1 
1 
1 
1 
1 
1 
1 
1 
1 
1 
1 
1 
1 
1 
1 
1 
1 
1 
1 
1 
1 
1 
1 
1 
1 
1 
1 
1 
1 
1 
1 
1 
1 
1 
1 
1 
1 
1 
1 
1 
1 
1 
1 
1 
1 
1 
1 
1 
1 
1 
1 
1 
1 
1 
1 
1 
1 
1 
1 
1 
1 
1 
1 
1 
1 
1 
1 
1 
1 
1 
1 
1 
1 
1 
1 
1 
1 
1 
1 
1 
1 
1 
1 
1 
1 
1 
1 
1 
1 
1 
1 
1 
1 
1 
1 
1 
1 
1 
1 
1 
1 
1 
1 
1 
1 
1 
1 
1 
1 
1 
1 
1 
1 
1 
1 
1 
1 
1 
1 
1 
1 
1 
1 
1 
1 
1 
1 
1 
1 
1 
1 
1 
1 
1 
1 
1 
1 
1 
1 
1 
1 
1 
1 
1 
1 
1 
1 
1 
1 
1 
1 
1 
1 
1 
1 
1 
1 
1 
1 
1 
1 
1 
1 
1 
1 
1 
1 
1 
1 
1 
1 
1 
1 
1 
1 
1 
1 
1 
1 
1 
POINT_DATA 5000
VECTORS Stress float
-1944.15 -3227.84 0.
-2370.35 -1935.12 0.
-19.8312 -46.0107 0.
-502.28 -717.284 0.
-3330.01 -6549.76 0.
-76.0711 -149.635 0.
-3020.12 -2950.66 0.
-41.1216 -99.1235 0.
-30.2982 -73.4558 0.
-3936.17 -6106.61 0.
-1391.84 -2349.7 0.
-49.2592 -121.885 0.
-1880.51 -2783.49 0.
-1461.76 -2214.55 0.
-1306.91 -1922.69 0.
-1076.54 -1712.22 0.
-838.581 -1509.33 0.
-831.006 -1638.43 0.
-651.87 -1346.99 0.
-474.221 -1054.06 0.
-509.616 -1024.12 0.
-463.786 -945.527 0.
-417.965 -866.925 0.
-448.709 -875.075 0.
-434.346 -895.629 0.
-422.961 -913.202 0.
-497.114 -1007.38 0.
-518.215 -1039.87 0.
-476.523 -986.507 0.
-445.845 -924.997 0.
-415.473 -863.182 0.
-414.578 -841.578 0.
-408.507 -812.838 0.
-403.459 -783.074 0.
-412.423 -767.005 0.
-411.919 -759.932 0.
-416.446 -747.829 0.
-516.535 -864.87 0.
-569.627 -918.275 0.
-573.142 -908.922 0.
-565.869 -849.354 0.
-559.106 -789.276 0.
-572.437 -775.777 0.
-584.933 -769.051 0.
-597.228 -762.525 0.
-564.926 -644.458 0.
-414.326 -375.746 0.
-213.782 -156.979 0.
-124.053 -131.054 0.
-445.209 -949.578 0.
-676.348 -1858.06 0.
-470.456 -979.721 0.
-147.878 -187.247 0.
-240.525 -205.885 0.
-434.816 -402.595 0.
-581.596 -646.815 0.
-603.302 -748.242 0.
-588.931 -750.223 0.
-574.39 -752.373 0.
-562.04 -769.872 0.
-572.91 -843.508 0.
-583.981 -916.942 0.
-584.615 -932.325 0.
-530.935 -879.467 0.
-425.034 -758.859 0.
-417.258 -761.535 0.
-412.45 -761.243 0.
-405.094 -772.723 0.
-409.4 -801.103 0.
-413.674 -829.515 0.
-409.813 -850.857 0.
-445.67 -928.927 0.
-485.232 -1003.29 0.
-527.622 -1063.18 0.
-508.163 -1035.01 0.
-480.141 -1002.47 0.
-447.896 -899.82 0.
-453.383 -855.112 0.
-400.911 -830.53 0.
-467.14 -956.87 0.
-533.422 -1083.16 0.
-485.366 -1103.55 0.
-793.585 -1647.38 0.
-1105.39 -2187.64 0.
-1109.56 -1794.22 0.
-1280.74 -1681.64 0.
-1435.41 -1585.59 0.
-1536.34 -2324.84 0.
-2310.57 -3711.69 0.
-8.0775 -12.9751 0.
-738.292 -1112.91 0.
-4527.17 -6782.86 0.
-151.814 -92.7503 0.
-192.685 -103.158 0.
-2870.79 -3197.94 0.
-17.1552 -19.857 0.
-3456.26 -4980.29 0.
-29.5782 -40.5604 0.
-3068.74 -5211.39 0.
-171.804 -312.509 0.
-1616.82 -3141.75 0.
-63.8863 -83.5688 0.
-7.55306 -20.6464 0.
-42.6615 -92.5997 0.
-58.1295 -118.441 0.
-85.5649 -146.87 0.
-51.5157 -134.956 0.
-28.7702 -73.6113 0.
-313.735 -194.393 0.
-14.7926 -29.5587 0.
-23.8222 -47.7989 0.
-51.8077 -129.846 0.
-757.38 -1057.52 0.
-396.361 -429.381 0.
-529.788 -796.793 0.
-352.258 -533.048 0.
-215.182 -228.848 0.
-533.155 -1187.33 0.
-372.74 -876.99 0.
-240.668 -538.304 0.
-421.318 -929.422 0.
-374.051 -852.261 0.
-329.956 -771.927 0.
-454.042 -804.896 0.
-438.549 -826.579 0.
-423.942 -847.37 0.
-602.473 -1069.86 0.
-618.55 -1107.37 0.
-474.95 -921.878 0.
-437.114 -867.524 0.
-401.211 -811.237 0.
-434.809 -848.968 0.
-423.798 -825.169 0.
-422.6 -791.558 0.
-445.868 -774.284 0.
-441.452 -771.122 0.
-441.355 -763.64 0.
-673.823 -995.341 0.
-718.477 -1057.17 0.
-629.087 -958.092 0.
-621.844 -898.497 0.
-615.112 -838.39 0.
-661.726 -871.898 0.
-674.509 -864.886 0.
-687.086 -858.079 0.
-722.291 -836.158 0.
-596.103 -543.111 0.
-414.651 -305.327 0.
-0.125422 -0.292141 0.
-0.252981 -0.40459 0.
-298.924 -766.359 0.
-15.1684 -33.3367 0.
-0.834383 -0.797416 0.
-456.814 -361.424 0.
-634.354 -574.808 0.
-759.413 -840.672 0.
-700.99 -850.203 0.
-685.755 -853.051 0.
-669.551 -856.867 0.
-618.398 -816.835 0.
-626.364 -893.37 0.
-638.595 -965.64 0.
-743.969 -1077.54 0.
-697.801 -1017.19 0.
-453.765 -774.701 0.
-448.254 -775.112 0.
-447.257 -771.008 0.
-434.549 -780.675 0.
-434.579 -813.333 0.
-444.512 -836.087 0.
-390.496 -786.661 0.
-434.931 -856.156 0.
-480.279 -924.739 0.
-606.875 -1127.06 0.
-592.212 -1094.09 0.
-354.674 -831.646 0.
-452.827 -825.883 0.
-459.273 -780.215 0.
-301.746 -676.275 0.
-368.468 -802.145 0.
-438.498 -924.707 0.
-169.867 -143.482 0.
-371.69 -794.277 0.
-624.593 -1393.99 0.
-140.361 -66.4194 0.
-188.642 -72.1278 0.
-205.628 -113.835 0.
-2.97473 -3.83012 0.
-336.888 -820.272 0.
-3.45429 -6.14673 0.
-3.85333 -9.35226 0.
-17.247 -31.5647 0.
-258.52 -115.115 0.
-18.2967 -21.3971 0.
-52.3662 -66.5253 0.
-22.8397 -18.9664 0.
-57.463 -38.7457 0.
-17.3719 -6.56429 0.
-137.679 -315.255 0.
-110.26 -284.015 0.
-22.4421 -58.4714 0.
-88.5923 -105.45 0.
-6.51534 -17.9795 0.
-28.2395 -63.5278 0.
-57.3833 -114.985 0.
-93.938 -146.617 0.
-66.4635 -172.244 0.
-37.5216 -95.0899 0.
-705.613 -355.546 0.
-13.5813 -14.1925 0.
-22.0689 -29.4447 0.
-190.03 -224.428 0.
-123.235 -157.184 0.
-63.281 -86.519 0.
-62.6349 -67.3754 0.
-66.8805 -76.8023 0.
-96.504 -99.0713 0.
-321.355 -650.186 0.
-194.791 -305.812 0.
-58.2381 -62.621 0.
-380.123 -787.621 0.
-338.141 -705.169 0.
-299.018 -619.858 0.
-465.337 -728.756 0.
-449.859 -750.422 0.
-434.829 -771.631 0.
-719.957 -1120.22 0.
-736.033 -1157.72 0.
-493.083 -837.543 0.
-456.343 -782.091 0.
-420.518 -725.723 0.
-471.388 -840.011 0.
-463.788 -812.802 0.
-458.032 -783.75 0.
-506.938 -753.939 0.
-494.236 -759.06 0.
-482.849 -762.866 0.
-875.277 -1081.65 0.
-907.222 -1156.16 0.
-706.183 -986.11 0.
-694.845 -930.613 0.
-688.305 -870.318 0.
-765.229 -953.805 0.
-776.383 -948.422 0.
-787.561 -943.016 0.
-947.05 -960.466 0.
-805.64 -682.715 0.
-626.653 -442.54 0.
-0.157871 -0.396383 0.
-0.0693533 -0.114052 0.
-6517.42 -4589.56 0.
-0.954325 -1.40175 0.
-0.686412 -0.634608 0.
-687.528 -502.538 0.
-867.579 -713.333 0.
-1011.92 -959.833 0.
-810.261 -940.581 0.
-795.844 -942.614 0.
-781.98 -944.093 0.
-694.727 -843.828 0.
-705.31 -917.741 0.
-719.271 -988.276 0.
-942.996 -1183.08 0.
-911.047 -1108.53 0.
-505.268 -767.77 0.
-514.297 -753.641 0.
-524.375 -738.463 0.
-482.097 -770.534 0.
-487.073 -798.247 0.
-491.575 -826.433 0.
-401.446 -692.199 0.
-444.633 -762.945 0.
-488.733 -832.78 0.
-707.188 -1169.88 0.
-692.408 -1137.03 0.
-412.076 -730.295 0.
-461.922 -747.781 0.
-467.381 -703.1 0.
-284.647 -439.953 0.
-321.057 -596.159 0.
-371.252 -738.579 0.
-65.0271 -53.6734 0.
-29.0968 -19.0927 0.
-307.026 -437.125 0.
-275.986 -115.368 0.
-52.3673 -24.5684 0.
-81.344 -32.5674 0.
-5.13265 -4.76806 0.
-6.10914 -4.52864 0.
-33.4295 -30.099 0.
-16.8279 -23.6305 0.
-33.9035 -43.0126 0.
-616.265 -239.569 0.
-169.71 -108.742 0.
-185.511 -140.752 0.
-30.8229 -20.8702 0.
-54.2411 -20.0836 0.
0.0028071 0.00124083 0.
-4.86994 -1.76893 0.
-2294.69 -4031.99 0.
-2015.66 -4097.16 0.
-211.467 -404.348 0.
-26.824 -11.3333 0.
-2526.89 -3055.45 0.
-157.142 -376.097 0.
-2880.4 -5223.44 0.
-42.6288 -57.5476 0.
-1903.93 -2328.9 0.
-70.2416 -96.1153 0.
-3299.89 -5280.77 0.
-37.8298 -68.4396 0.
-81.9729 -130.046 0.
-3912 -7190.03 0.
-22.4205 -15.4374 0.
-2158.58 -2921.87 0.
-1423.93 -1970.75 0.
-735.63 -973.28 0.
-2164.11 -4220.88 0.
-1130.88 -2302.09 0.
-227.372 -253.565 0.
-1209.18 -2655.89 0.
-803.913 -1820.3 0.
-430.29 -953.055 0.
-739.046 -1607.94 0.
-607.529 -1332.62 0.
-483.712 -1049.61 0.
-915.901 -1620.58 0.
-909.41 -1605.46 0.
-662.052 -1258.51 0.
-623.284 -1174.45 0.
-584.584 -1090.32 0.
-659.703 -1133 0.
-632.032 -1111.4 0.
-605.535 -1088.62 0.
-682.444 -1056.38 0.
-674.259 -1079.09 0.
-666.925 -1100.94 0.
-1065.02 -1406.57 0.
-1061.68 -1398.83 0.
-815.924 -1156.63 0.
-799.334 -1126.85 0.
-782.936 -1096.87 0.
-914.178 -1166.57 0.
-882.551 -1113.24 0.
-866.346 -1044.49 0.
-1114.34 -1192.17 0.
-1163.92 -1326.31 0.
-1214.69 -1459.28 0.
-3.17038 -4.28662 0.
-0.0403962 -0.147302 0.
-7615.4 -3758.08 0.
-1.35943 -1.12102 0.
-1.46155 -1.97531 0.
-1255.18 -1446.65 0.
-1207.93 -1325.09 0.
-1162.32 -1201.91 0.
-894.889 -1060.63 0.
-913.352 -1125.13 0.
-944.208 -1177.23 0.
-795.595 -1090.15 0.
-806.854 -1109.62 0.
-818.28 -1128.92 0.
-1081.58 -1386.39 0.
-1085.45 -1395.39 0.
-666.259 -1071.94 0.
-677.561 -1049.81 0.
-690.061 -1026.48 0.
-610.016 -1068.05 0.
-637.677 -1095.45 0.
-666.109 -1122.08 0.
-557.579 -1059.01 0.
-606.703 -1161.03 0.
-655.927 -1262.94 0.
-863.714 -1640.77 0.
-879.598 -1677.87 0.
-429.338 -882.819 0.
-663.69 -1427.87 0.
-892.871 -1912.41 0.
-388.163 -762.782 0.
-889.069 -1930.36 0.
-1461.73 -3026.18 0.
-71.8398 -43.579 0.
-1320.49 -2422.31 0.
-2548.24 -4834.47 0.
-264.72 -113.872 0.
-1259.28 -1653.54 0.
-2297.09 -3149.9 0.
-19.2274 -32.1842 0.
-4155.82 -7085.81 0.
-6.47196 -15.0216 0.
-8.07028 -19.1021 0.
-3484.68 -4136.49 0.
-5.06644 -13.4522 0.
-1970.65 -2794.08 0.
0.00137643 0.00195714 0.
-2634.52 -4835.77 0.
-630.81 -1016.87 0.
-1049.65 -1554.71 0.
-113.471 -95.8687 0.
-243.243 -624.167 0.
-210.453 -339.231 0.
-9.49202 -24.2664 0.
-2078.34 -3596.33 0.
-196.927 -257.02 0.
-49.516 -125.782 0.
-137.064 -286.805 0.
-51.6361 -65.1998 0.
-100.919 -77.2 0.
-71.5647 -69.2992 0.
-114.27 -188.54 0.
-67.6788 -85.604 0.
-79.5551 -107.897 0.
-60.5245 -42.3402 0.
-20.2169 -8.96889 0.
-32.621 -16.0056 0.
-38.9874 -29.9677 0.
-50.8776 -55.5211 0.
-328.662 -362.875 0.
-88.2426 -107.725 0.
-60.9502 -68.918 0.
-666.683 -1461.73 0.
-327.326 -559.108 0.
-67.1475 -54.4461 0.
-586.935 -1281.66 0.
-476.973 -984.684 0.
-375.202 -679.522 0.
-893.022 -1610.85 0.
-886.533 -1595.72 0.
-686.865 -1235.5 0.
-645.818 -1153.72 0.
-605.036 -1071.67 0.
-697.573 -1072.84 0.
-670.093 -1051.04 0.
-643.494 -1028.36 0.
-720.571 -1011.62 0.
-711.583 -1035.12 0.
-703.426 -1057.79 0.
-1126.67 -1432.99 0.
-1123.33 -1425.24 0.
-889.324 -1156.67 0.
-873.771 -1125.85 0.
-858.426 -1094.82 0.
-1051.93 -1159.29 0.
-1020.95 -1105.33 0.
-991.074 -1050.25 0.
-1196.47 -1165.43 0.
-1245.58 -1300.04 0.
-1295.94 -1433.41 0.
-0.257714 -0.57261 0.
-0.0576861 -0.227619 0.
-9274.61 -4462.65 0.
-1.92384 -1.2342 0.
-2.01752 -2.02504 0.
-1326.17 -1427.4 0.
-1279.17 -1305.6 0.
-1232.88 -1183.1 0.
-1021.56 -1065.81 0.
-1051.34 -1118.99 0.
-1082.1 -1171.2 0.
-883.134 -1090.72 0.
-894.288 -1110.28 0.
-905.605 -1129.69 0.
-1144.41 -1413.31 0.
-1148.27 -1422.31 0.
-706.297 -1020.26 0.
-718.758 -996.973 0.
-732.238 -972.667 0.
-632.773 -1001.5 0.
-659.085 -1030.24 0.
-688.57 -1055.82 0.
-565.488 -1029.9 0.
-614.979 -1131.55 0.
-664.769 -1232.9 0.
-841.225 -1584.53 0.
-872.139 -1606.6 0.
-294.591 -331.363 0.
-452.411 -859.568 0.
-650.471 -1375.53 0.
-63.8419 -51.9679 0.
-55.7319 -41.7859 0.
-575.072 -1011.99 0.
-125.094 -75.299 0.
-5.79642 -2.13743 0.
-97.838 -37.7523 0.
-0.0320184 -0.0267849 0.
-6.43845 -7.03627 0.
-144.336 -100.857 0.
-14.7646 -25.1868 0.
-15.7896 -26.152 0.
-5.64375 -14.622 0.
-7.32365 -18.9255 0.
-9.44314 -24.3905 0.
-3.62153 -7.01662 0.
-35.8023 -66.5724 0.
-0.0166889 -0.053127 0.
-157.674 -252.693 0.
-77.0445 -99.6076 0.
-74.4468 -44.81 0.
0.176909 0.576535 0.
-495.958 -1199.3 0.
-917.877 -1273.66 0.
-31.6284 -87.4205 0.
0.984709 2.02464 0.
0.122141 1.32807 0.
-0.122059 -0.0297459 0.
-84.0669 -205.432 0.
-63.2176 -77.7273 0.
-2670.71 -4333.08 0.
-202.956 -306.106 0.
-2417.49 -4387.51 0.
-28.2472 -25.14 0.
-45.5987 -61.1709 0.
-3173.08 -6327.12 0.
-33.4902 -31.5652 0.
-2765.92 -3782.96 0.
-629.517 -625.204 0.
-27.1153 -11.4565 0.
-2854.33 -5715.04 0.
-1015.03 -1761.52 0.
-16.0298 -12.2416 0.
-2003.76 -4097.47 0.
-999.981 -2079.49 0.
-62.5242 -67.7657 0.
-1156.05 -2419.5 0.
-737.955 -1525.76 0.
-346.993 -604.874 0.
-970.825 -1684.56 0.
-821.521 -1426.83 0.
-595.259 -1015.48 0.
-533.237 -900.229 0.
-472.076 -784.112 0.
-590.076 -783.765 0.
-566.403 -748.256 0.
-543.218 -712.259 0.
-599.114 -706.904 0.
-579.138 -670.653 0.
-559.317 -634.246 0.
-985.473 -1027.76 0.
-963.407 -976.273 0.
-741.088 -622.052 0.
-743.454 -636.11 0.
-745.957 -650.032 0.
-957.962 -754.566 0.
-956.32 -758.254 0.
-955.291 -761.327 0.
-1113.97 -901.179 0.
-1180.06 -1054.78 0.
-1246.42 -1208.11 0.
0.0249613 0.247808 0.
0.0326424 0.315586 0.
-8481.84 -3075.9 0.
-1.59103 -0.574449 0.
-2.05345 -1.14503 0.
-1267.42 -1270.32 0.
-1193.52 -1096.94 0.
-1131.71 -911.463 0.
-973.82 -747.468 0.
-971.651 -737.239 0.
-969.694 -726.797 0.
-759.746 -626.869 0.
-761.579 -625.083 0.
-763.436 -623.274 0.
-987.366 -983.718 0.
-1011.81 -1040.72 0.
-573.335 -616.727 0.
-598.927 -666.188 0.
-624.65 -715.519 0.
-551.28 -729.589 0.
-579.857 -775.384 0.
-608.614 -820.997 0.
-474.051 -786.785 0.
-572.689 -981.744 0.
-671.406 -1176.62 0.
-898.747 -1592.25 0.
-1117.4 -1959.98 0.
-312.273 -424.209 0.
-812.562 -1642.73 0.
-1350.71 -2791.55 0.
-27.1735 -10.9611 0.
-964.181 -1910.04 0.
-2394.87 -5066.57 0.
-19.3325 -7.77418 0.
-645.594 -416.42 0.
-2586.27 -3239 0.
-0.14482 -0.418734 0.
-3687.27 -7647.98 0.
-21.9825 -41.9512 0.
-13.4867 -20.0663 0.
-2843.98 -3884.66 0.
-0.0325239 -0.0318314 0.
-3102.99 -4789.68 0.
-30.6528 -28.2954 0.
-966.37 -2322.26 0.
0.323282 0.848367 0.
0.0303009 0.139813 0.
-216.227 -346.684 0.
-127.108 -88.601 0.
-1834.99 -3544.79 0.
-167.73 -460.27 0.
-2485.96 -4840.18 0.
-1915.8 -2963.73 0.
-108.553 -164.971 0.
-1978.79 -4259.29 0.
-0.505666 -3.04455 0.
-0.637744 -0.134895 0.
-318.985 -529.947 0.
-2044.44 -3899.67 0.
-113.601 -286.785 0.
-129.048 -296.5 0.
0.0899587 0.239199 0.
-59.5109 -39.4299 0.
-195.3 -154.575 0.
-44.3761 -49.0592 0.
-37.2879 -37.0376 0.
-52.8924 -58.6989 0.
-17.8678 -19.7473 0.
-10.9361 -5.00118 0.
-29.2163 -14.034 0.
-9.36618 -4.22611 0.
-18.727 -12.8372 0.
-431.434 -587.916 0.
-33.1654 -28.6036 0.
-70.7889 -79.1303 0.
-650.249 -1385.69 0.
-295.073 -427.967 0.
-44.9351 -46.4385 0.
-709.53 -1244.83 0.
-576.905 -970.274 0.
-495.526 -856.165 0.
-443.245 -731.149 0.
-393.896 -603.2 0.
-545.347 -713.047 0.
-523.983 -675.228 0.
-500.809 -639.218 0.
-592.645 -663.991 0.
-570.485 -629.92 0.
-550.554 -593.621 0.
-1003.44 -1035.44 0.
-981.379 -983.961 0.
-750.153 -602.904 0.
-752.427 -617.056 0.
-754.854 -631.054 0.
-932.899 -687.029 0.
-931.736 -690.243 0.
-931.213 -692.816 0.
-1004.49 -830.783 0.
-1070.88 -984.121 0.
-1137.45 -1137.27 0.
0.0227476 0.285411 0.
0.0299376 0.346748 0.
-6628.8 -2393.52 0.
-1.27286 -0.461164 0.
-1.74706 -0.78879 0.
-1157.19 -1184.37 0.
-1082.9 -1011.35 0.
-1009.03 -837.922 0.
-940.187 -691.026 0.
-938.242 -680.57 0.
-937.467 -668.943 0.
-762.972 -621.209 0.
-765.387 -618.839 0.
-767.927 -616.344 0.
-990.761 -985.165 0.
-1015.2 -1042.17 0.
-548.308 -569.18 0.
-573.826 -618.718 0.
-604.763 -662.838 0.
-498.786 -636.812 0.
-527.288 -682.682 0.
-555.534 -728.808 0.
-371.123 -502.725 0.
-446.731 -720.775 0.
-529.349 -931.816 0.
-565.17 -923.858 0.
-754.968 -1320.75 0.
-70.8302 -46.3578 0.
-130.645 -94.3133 0.
-624.823 -1289.06 0.
-26.2375 -11.2258 0.
-8.52015 -3.23876 0.
-237.771 -144.007 0.
-2.52981 -1.31792 0.
-0.0630587 -0.0312051 0.
-17.0783 -7.09977 0.
-0.00125945 -0.00247073 0.
0.0187031 0.0324 0.
-19.2229 -40.674 0.
-9.38648 -16.8605 0.
-65.6919 -25.8068 0.
0.117406 4.62527e-05 0.
0.535427 0.00319437 0.
-5.45251 -5.88107 0.
-1801.3 -3910.9 0.
-4.42337 -11.791 0.
-2214.35 -4030.01 0.
-19.0509 -31.257 0.
-130.24 -65.3722 0.
-0.0283023 -1.7008 0.
-2.82244 -7.77077 0.
-179.822 -392.584 0.
-0.16495 -0.363288 0.
-0.183926 -0.271085 0.
-490.223 -907.276 0.
-0.0983472 -3.27523 0.
-23.1471 -59.8227 0.
-205.423 -408.178 0.
-83.1974 -197.716 0.
-63.1645 -162.803 0.
-98.7921 -257.043 0.
-0.0109785 -0.0634457 0.
-390.373 -225.234 0.
-503.183 -290.821 0.
-63.9038 -66.7703 0.
-54.2827 -49.4234 0.
-57.8709 -55.3559 0.
-10.2843 -18.2439 0.
-1.47459 -0.914325 0.
-16.651 -6.01708 0.
-11.2511 -4.9721 0.
-20.3952 -13.4594 0.
-41.7334 -29.9525 0.
-44.3983 -39.2391 0.
-84.4118 -86.9595 0.
-250.972 -245.347 0.
-31.7964 -34.1156 0.
-47.1239 -45.6237 0.
-497.1 -756.237 0.
-381.801 -464.205 0.
-419.706 -672.934 0.
-373.613 -541.708 0.
-328.938 -409.065 0.
-506.251 -636.696 0.
-482.654 -601.109 0.
-459.726 -564.852 0.
-594.222 -613.031 0.
-571.642 -579.377 0.
-549.304 -545.482 0.
-1021.41 -1043.13 0.
-999.35 -991.65 0.
-759.863 -583.111 0.
-762.035 -597.366 0.
-764.367 -611.462 0.
-908.574 -618.755 0.
-907.961 -621.423 0.
-907.663 -623.775 0.
-900.025 -755.383 0.
-966.475 -908.678 0.
-1033.01 -1061.89 0.
0.0189956 0.316293 0.
0.0261598 0.373023 0.
-6289.25 -2271.87 0.
-0.981216 -0.363073 0.
-1.44926 -0.708912 0.
-1047.23 -1098.15 0.
-972.732 -925.321 0.
-898.423 -752.304 0.
-912.748 -628.391 0.
-910.749 -617.985 0.
-909.204 -607.124 0.
-779.14 -602.608 0.
-781.681 -600.109 0.
-784.375 -597.456 0.
-994.156 -986.613 0.
-1018.59 -1043.62 0.
-531.934 -512.98 0.
-562.678 -557.296 0.
-593.554 -601.48 0.
-459.285 -531.044 0.
-488.743 -575.958 0.
-517.131 -621.942 0.
-288.238 -198.623 0.
-358.617 -421.963 0.
-432.083 -642.216 0.
-296.654 -190.409 0.
-462.148 -611.912 0.
-71.9089 -43.4865 0.
-57.3826 -26.3697 0.
-56.8299 -23.1391 0.
-49.4899 -23.4992 0.
-19.893 -7.59507 0.
-13.5596 -4.89561 0.
-6.85245 -3.47724 0.
-0.109996 -0.0557887 0.
-2.12265 -0.997623 0.
0.0517454 0.0645792 0.
-2.14131 -3.29463 0.
-275.351 -133.402 0.
-224.198 -94.6324 0.
-471.403 -176.155 0.
-30.3644 -12.8515 0.
-32.1034 -16.0707 0.
0.45106 0.547005 0.
-548.883 -1454.66 0.
-0.116602 -1.74537 0.
0.00835217 0.0143307 0.
-1070.52 -1654.43 0.
-125.213 -45.2664 0.
-2238.17 -4010.91 0.
-181.576 -484.711 0.
-1098.72 -1629.82 0.
-1448.13 -2399.52 0.
-65.2386 -176.104 0.
-74.4529 -109.847 0.
-20.0418 -45.5846 0.
-8.19632 -18.2504 0.
-1979.79 -3498.15 0.
-73.1071 -173.719 0.
-54.4656 -145.836 0.
-95.5818 -260.17 0.
-1957.41 -3701.03 0.
-1427.57 -1579.26 0.
-85.3582 -118.23 0.
-2469.98 -4826.82 0.
-71.8602 -115.68 0.
-50.8769 -88.713 0.
-3634.57 -6219.67 0.
-3.58816 -6.39055 0.
-2908.92 -4562.28 0.
-19.6301 -14.5664 0.
-20.8456 -14.0748 0.
-3030 -6548.49 0.
-45.5563 -58.1192 0.
-48.0813 -71.7669 0.
-1906.42 -4335.76 0.
-703.551 -1569.26 0.
-31.3481 -53.1586 0.
-1276.9 -2650.32 0.
-828.662 -1732.11 0.
-936.429 -1888.24 0.
-700.336 -1393.76 0.
-481.648 -881.865 0.
-730.66 -1276.97 0.
-635.288 -1101.7 0.
-540.723 -925.62 0.
-738.301 -1023.11 0.
-698.452 -966.382 0.
-659.476 -908.785 0.
-1138.08 -1467.14 0.
-1119.45 -1423.7 0.
-844.708 -981.979 0.
-833.08 -963.393 0.
-822.053 -944.207 0.
-928.245 -983.592 0.
-958.104 -1057.41 0.
-988.287 -1130.91 0.
-1004.33 -1294.32 0.
-1089.73 -1508 0.
-1180.6 -1716.2 0.
0.518449 0.954669 0.
-0.161087 -0.582727 0.
-6122.64 -3809.96 0.
-0.526722 -0.222111 0.
-0.544538 -0.213706 0.
-1189.34 -1758.47 0.
-1089.86 -1524.34 0.
-1000.58 -1280 0.
-990.548 -1118.6 0.
-963.092 -1051.41 0.
-935.774 -984.086 0.
-825.62 -947.35 0.
-835.066 -961.659 0.
-846.367 -974.113 0.
-1108.57 -1407.72 0.
-1134.19 -1467.47 0.
-626.497 -862.714 0.
-689.043 -969.822 0.
-752.813 -1075.71 0.
-524.484 -903.193 0.
-645.46 -1167.81 0.
-775.611 -1423.26 0.
-456.058 -762.898 0.
-716.379 -1449.7 0.
-1023.53 -2089.67 0.
-872.451 -1690.26 0.
-1501.67 -3116.97 0.
-21.3269 -24.076 0.
-725.76 -1279.51 0.
-2372.54 -5114.22 0.
-11.9057 -4.38527 0.
-3.39215 -1.22839 0.
-2994.6 -6112.32 0.
0.0780361 0.000303184 0.
-0.181676 -0.00270612 0.
-3097.86 -4384.81 0.
0.0775184 0.0960321 0.
-2922.26 -4976.03 0.
-14.4752 -24.2916 0.
-1136.33 -901.657 0.
-953.824 -2202.37 0.
-40.9865 -22.1483 0.
-1604.98 -3134.45 0.
-0.342862 -0.678584 0.
0.998958 2.68679 0.
1.78526 3.66055 0.
4.67058 5.96971 0.
-259.125 -240.029 0.
-1.18519 -22.6103 0.
-2.18763 -3.93018 0.
-0.277153 -7.03885 0.
-1675.65 -2279.41 0.
-877.699 -1274.03 0.
-0.0275261 -0.461747 0.
-1563.53 -2038.06 0.
-0.520709 -3.63361 0.
-1848.39 -3828.25 0.
0.57554 1.55085 0.
-45.7718 -126.066 0.
-60.1735 -162.763 0.
-190.358 -518.09 0.
-475.523 -1149.35 0.
-129.072 -223.025 0.
-32.629 -60.786 0.
-12.3418 -28.3626 0.
-12.3401 -23.4087 0.
-7.08917 -8.62974 0.
-31.3567 -54.9826 0.
-7.19347 -9.60995 0.
-79.2894 -70.4159 0.
-13.7652 -12.4499 0.
-17.2585 -12.947 0.
-4.39499 -6.70641 0.
-6.02232 -8.78508 0.
-38.2759 -66.3689 0.
-402.827 -708.864 0.
-28.0864 -35.5353 0.
-25.033 -27.6168 0.
-674.541 -1330.37 0.
-285.368 -351.728 0.
-604.495 -1187.1 0.
-405.571 -655.058 0.
-204.335 -125.328 0.
-573.988 -1045.79 0.
-490.862 -858.221 0.
-418.28 -660.107 0.
-675.802 -909.128 0.
-636.717 -851.634 0.
-598.406 -793.366 0.
-1057.67 -1432.65 0.
-1039.04 -1389.21 0.
-761.248 -876.462 0.
-749.796 -857.702 0.
-738.911 -838.376 0.
-818.605 -896.865 0.
-848.019 -971.145 0.
-877.748 -1045.11 0.
-865.344 -1203.47 0.
-956.243 -1411.68 0.
-1047.33 -1619.7 0.
-0.109937 -0.818719 0.
-0.0906921 -0.586466 0.
-5494.53 -3538.23 0.
-0.182664 -0.0804283 0.
-0.241766 -0.0996761 0.
-1061.85 -1658.04 0.
-962.129 -1424.1 0.
-862.809 -1189.76 0.
-871.629 -1031.44 0.
-842.819 -965.597 0.
-815.211 -898.548 0.
-737.46 -827.842 0.
-747.649 -841.409 0.
-758.715 -854.098 0.
-1029.51 -1370.36 0.
-1059.37 -1425.88 0.
-547.521 -715.54 0.
-609.069 -823.665 0.
-671.789 -930.619 0.
-351.098 -484.434 0.
-452.923 -768.321 0.
-566.475 -1040.48 0.
-13.7637 -8.70389 0.
-331.923 -408.107 0.
-590.266 -1097.59 0.
-51.4013 -21.344 0.
-695.563 -1241.87 0.
-46.6416 -34.2407 0.
-52.5192 -25.1474 0.
-74.1804 -29.8312 0.
-33.7032 -12.8099 0.
-36.6041 -13.2635 0.
-47.3321 -17.2486 0.
-0.220623 -0.00105935 0.
0.119133 0.043312 0.
-38.2066 -17.4658 0.
-0.087713 -0.107002 0.
-0.420429 -0.570199 0.
-20.4356 -26.0809 0.
-1193.84 -1280.86 0.
0.054698 0.139322 0.
-4.19153 -7.47291 0.
0.391003 0.79375 0.
-1545.91 -2706.56 0.
-0.154556 -3.74556 0.
0.559548 2.9943 0.
-1474.43 -2805.14 0.
-457.679 -570.687 0.
7.90467 21.7326 0.
-1687.42 -2743.54 0.
-3.65672 -7.80476 0.
-990.292 -1208.85 0.
-1062.18 -1411.77 0.
2.36741 4.37614 0.
-1547.25 -2180.91 0.
4.25897 7.55938 0.
-91.6486 -175.163 0.
1.55848 3.86301 0.
-70.0109 -192.985 0.
-1580.93 -2954.39 0.
-43.9677 -121.426 0.
-191.429 -512.177 0.
-9.29415 -20.3772 0.
-21.3143 -47.9983 0.
-3.17245 -8.78593 0.
-6.06631 -7.40771 0.
-112.096 -246.384 0.
-1514.4 -2964.4 0.
-25.2669 -29.6166 0.
-2495.33 -4345.37 0.
-27.0503 -33.9075 0.
-32.5395 -44.1299 0.
-2732.69 -6129.44 0.
-7.68415 -8.53814 0.
-23.0652 -25.8272 0.
-2426.35 -5137.78 0.
-241.538 -277.93 0.
-13.5237 -18.3608 0.
-1678.18 -3715.71 0.
-768.231 -1568.76 0.
-1124.5 -2235.93 0.
-719.059 -1375.11 0.
-342.709 -485.19 0.
-860.2 -1604.71 0.
-646.642 -1178.47 0.
-444.483 -740.834 0.
-707.521 -1041.69 0.
-585.26 -784.456 0.
-457.925 -532.291 0.
-898.513 -1243.21 0.
-871.601 -1193.52 0.
-631.802 -625.282 0.
-643.228 -658.507 0.
-654.864 -691.522 0.
-693.45 -768.799 0.
-697.5 -776.905 0.
-701.987 -784.574 0.
-633.285 -851.281 0.
-673.799 -938.895 0.
-714.569 -1026.25 0.
-3.50571e-05 -0.577166 0.
-0.000414001 -0.849497 0.
-4774.65 -2908.46 0.
-0.574039 -0.658776 0.
-0.501221 -0.297178 0.
-720.773 -1070.51 0.
-673.91 -969.922 0.
-627.114 -869.262 0.
-692.834 -802.247 0.
-685.082 -786.105 0.
-679.039 -768.255 0.
-646.192 -675.588 0.
-638.162 -652.584 0.
-630.594 -629.118 0.
-861.196 -1213.48 0.
-910.94 -1293.87 0.
-422.25 -507.6 0.
-580.874 -838.635 0.
-737.266 -1171.9 0.
-387.513 -617.972 0.
-669.878 -1288.72 0.
-972.906 -1938.79 0.
-300.946 -266.894 0.
-767.738 -1391.82 0.
-1291.97 -2459.31 0.
-727.959 -1231 0.
-1926.9 -4154.87 0.
-23.6524 -11.0786 0.
-0.430179 -0.0155708 0.
-2912.45 -6292.39 0.
-0.865271 -0.00818726 0.
0.0872791 0.0320269 0.
-2825.1 -3225 0.
-0.0499234 -0.00190737 0.
-3494.93 -6484.08 0.
0.015749 0.0198835 0.
0.469903 0.460737 0.
-2593.85 -4549.57 0.
-125.479 -66.0644 0.
-1237.22 -1683.61 0.
-0.00109473 -0.267128 0.
-0.337118 -0.795652 0.
-0.0486707 -0.987004 0.
-0.00868828 -0.272671 0.
-2002.38 -3927.64 0.
0.67887 7.22732 0.
2.83463 3.57083 0.
-1399.43 -2873.74 0.
5.87066 12.0406 0.
-3.48998 -11.4738 0.
4.07271 7.28329 0.
-661.867 -845.898 0.
-731.573 -959.342 0.
-3.61202 -12.5786 0.
7.36786 12.6461 0.
6.61712 10.4735 0.
-1591.83 -2701.74 0.
-0.796518 -7.72997 0.
-109.997 -304.34 0.
0.00888964 0.793471 0.
-21.518 -58.1352 0.
-452.334 -1214.2 0.
-8.10175 -18.4861 0.
-2149.14 -3483.59 0.
-4.47563 -11.0862 0.
-2114.27 -4373.07 0.
-9.42432 -20.0167 0.
-83.4592 -127.507 0.
-38.7284 -35.5526 0.
-161.347 -170.07 0.
-6.16546 -13.6558 0.
-9.39237 -21.6655 0.
-11.727 -29.2289 0.
-2.43892 -2.70069 0.
-11.8455 -13.6299 0.
-31.1061 -69.2183 0.
-15.6061 -24.5171 0.
-15.1137 -21.2327 0.
-604.53 -1138.42 0.
-19.2904 -14.3547 0.
-545.213 -909.568 0.
-123.001 -64.2633 0.
-42.8107 -20.736 0.
-539.384 -995.627 0.
-354.769 -540.139 0.
-184.059 -70.7442 0.
-522.733 -832.133 0.
-404.657 -570.632 0.
-300.785 -306.178 0.
-762.557 -1122.65 0.
-727.216 -1081.38 0.
-515.896 -536.326 0.
-527.459 -569.422 0.
-539.108 -602.431 0.
-525.827 -652.74 0.
-530.477 -660.25 0.
-535.754 -667.135 0.
-447.206 -763.744 0.
-487.62 -851.476 0.
-528.221 -939.02 0.
-0.000107779 -0.621504 0.
-6.58276e-05 -0.863954 0.
-3174.16 -2218.04 0.
-0.387317 -0.744675 0.
-0.281586 -0.237216 0.
-514.039 -967.052 0.
-467.151 -866.461 0.
-420.424 -765.709 0.
-514.372 -675.294 0.
-505.698 -660.071 0.
-498.099 -643.774 0.
-523.6 -568.141 0.
-515.418 -545.283 0.
-507.678 -521.981 0.
-680.259 -1057.18 0.
-733.745 -1133.85 0.
-248.892 -193.345 0.
-378.289 -552.575 0.
-522.393 -898.258 0.
-35.2182 -15.1045 0.
-324.296 -422.711 0.
-578.871 -1121.84 0.
-21.5472 -8.11261 0.
-16.0197 -6.6715 0.
-504.739 -583.774 0.
-14.0332 -5.4289 0.
-553.961 -622.081 0.
-38.1941 -19.2783 0.
0.184059 0.0792719 0.
0.121697 0.00198324 0.
0.337664 0.128136 0.
-0.414594 -0.00800295 0.
-68.9165 -25.1651 0.
0.116166 0.0252106 0.
-35.6641 -13.9023 0.
-1.2736 -1.36239 0.
0.570184 0.467611 0.
-0.85033 -0.400843 0.
-0.469432 -3.47793e-05 0.
-868.73 -923.412 0.
-2222.95 -5158.01 0.
-0.0510673 -0.129561 0.
-0.00754998 -1.01271 0.
-0.364721 -2.99604 0.
-946.093 -2044.11 0.
-0.00810464 -0.0399175 0.
-10.6328 -17.2189 0.
-1.80563 -25.269 0.
-0.146627 -0.265374 0.
-2270.85 -3702.57 0.
10.7595 16.0017 0.
-694.767 -979.362 0.
-849.558 -1400.05 0.
11.6047 17.6006 0.
-1720.23 -3056.37 0.
-1.61413 -6.45598 0.
-0.604581 -1.07652 0.
-0.537827 -11.3936 0.
-86.3536 -179.669 0.
1.61966 4.39114 0.
-18.3495 -47.5456 0.
-65.296 -170.751 0.
-1119.93 -2485.72 0.
-18.8905 -39.4165 0.
-0.0438365 -0.702533 0.
-6.71792 -12.2102 0.
-7.14953 -15.2213 0.
-144.014 -254.245 0.
-164.247 -228.28 0.
-591.311 -447.866 0.
0.00826629 0.106149 0.
-0.0157302 -0.0663468 0.
-15.9272 -42.3049 0.
-4.56685 -6.3703 0.
-1.06733 -1.05745 0.
-29.4595 -58.8244 0.
-16.7836 -20.6621 0.
-27.4356 -50.6253 0.
-31.7304 -33.3743 0.
-29.0747 -33.4893 0.
-64.4335 -44.0637 0.
-61.5514 -30.5717 0.
-51.9778 -24.4166 0.
-280.335 -324.784 0.
-41.8152 -16.6111 0.
-66.7213 -27.7542 0.
-353.199 -607.318 0.
-248.646 -332.218 0.
-179.607 -137.103 0.
-635.424 -993.269 0.
-601.189 -950.879 0.
-397.957 -449.404 0.
-411.454 -480.573 0.
-423.967 -512.725 0.
-360.392 -534.493 0.
-366.339 -540.711 0.
-372.754 -546.462 0.
-276.489 -660.846 0.
-305.808 -759.689 0.
-344.43 -849.228 0.
-0.000150992 -0.418612 0.
-0.001016 -0.34421 0.
-1900.84 -1670.76 0.
-0.169352 -0.312233 0.
-0.063588 -0.0711761 0.
-322.628 -848.265 0.
-284.151 -739.241 0.
-252.24 -623.65 0.
-344.615 -539.636 0.
-334.648 -525.703 0.
-324.985 -511.466 0.
-401.559 -460.144 0.
-393.016 -437.638 0.
-383.232 -416.374 0.
-510.8 -889.404 0.
-562.222 -968.164 0.
-57.7314 -20.8446 0.
-239.03 -203.189 0.
-361.964 -570.168 0.
-46.7677 -19.5844 0.
-32.9084 -13.2399 0.
-274.166 -215.562 0.
-29.4181 -11.0146 0.
-23.8712 -9.67455 0.
-33.7005 -13.9795 0.
-29.7557 -11.436 0.
-19.4961 -7.258 0.
-60.9968 -31.8256 0.
-3.23895 -1.47502 0.
-0.78617 -0.0324654 0.
-0.28808 -0.0115052 0.
-0.686266 -0.0263782 0.
-95.49 -36.4617 0.
-0.169207 -0.076975 0.
-23.871 -11.762 0.
-4.94033 -4.0417 0.
0.357278 0.233808 0.
-0.910617 -0.282301 0.
0.15427 0.0651582 0.
-29.846 -44.9087 0.
-12.8236 -35.2142 0.
-0.00626899 -0.932941 0.
0.000247774 0.760344 0.
0.0527876 0.746319 0.
8.19656 21.722 0.
-1395.98 -3391.36 0.
-155.564 -272.94 0.
-1335.35 -2745.66 0.
-2.27264 -3.69537 0.
1.05444 1.84265 0.
-7.61031 -25.0329 0.
-279 -411.052 0.
-79.1953 -115.365 0.
22.7552 37.6694 0.
-368.473 -683.876 0.
-96.8 -162.271 0.
-1543.06 -2774.54 0.
6.3917 14.0433 0.
-134.433 -261.573 0.
-1609.64 -3723.48 0.
-13.2532 -31.537 0.
-798.634 -1641.6 0.
-87.1489 -210.331 0.
0.423321 0.868497 0.
-0.0145236 -0.185277 0.
-5.13637 -9.3621 0.
-1607.15 -3462.67 0.
-1438.21 -1744 0.
-78.6914 -86.3076 0.
-67.5319 -83.7654 0.
-3334.21 -6834.64 0.
-0.00626963 -0.0865784 0.
-2334.93 -3302.26 0.
-27.2604 -49.7272 0.
-42.8 -82.202 0.
-2506.38 -5477.51 0.
-26.8174 -58.8592 0.
-7.37356 -7.84542 0.
-2244.02 -5273.4 0.
-260.098 -239.439 0.
-1622.62 -3274 0.
-754.341 -1299 0.
-15.9549 -5.82823 0.
-1131.4 -2540.52 0.
-639.333 -1377.31 0.
-185.403 -175.97 0.
-783.786 -1780.71 0.
-548.135 -1206.71 0.
-331.335 -613.87 0.
-792.038 -1709.63 0.
-714.54 -1552.05 0.
-517.334 -1073.52 0.
-492.552 -1015.17 0.
-468.425 -956.166 0.
-395.139 -982.113 0.
-430.829 -1066.3 0.
-468.292 -1148.71 0.
-403.148 -1110.96 0.
-435.424 -1181.12 0.
-473.272 -1245.7 0.
-0.000988993 -0.535089 0.
-10.9186 -30.2026 0.
-1553.82 -2707.81 0.
-86.356 -210.293 0.
-0.042231 -0.0415907 0.
-412.465 -1114.87 0.
-401.819 -1103.58 0.
-396.198 -1087.27 0.
-431.804 -1143.95 0.
-390.957 -1054.79 0.
-354.405 -961.328 0.
-430.24 -922.751 0.
-471.272 -1020.77 0.
-514.567 -1116.53 0.
-683.658 -1503.5 0.
-790.628 -1729.46 0.
-297.862 -412.334 0.
-584.956 -1243.63 0.
-906.379 -2040.6 0.
-12.8519 -5.56008 0.
-671.969 -1378.32 0.
-1342.75 -2972.07 0.
-11.2696 -4.95942 0.
-749.52 -1050.8 0.
-1847.34 -3589.46 0.
-6.52698 -2.62501 0.
-2388.05 -5048.33 0.
-48.3427 -21.1534 0.
0.907962 0.352264 0.
-2712.37 -5893.32 0.
-0.773835 -0.0614636 0.
-0.944871 -0.0432455 0.
-2680.06 -4087.19 0.
-2.07682 -0.772996 0.
-2002.79 -3167.18 0.
-10.543 -5.3383 0.
-1844.37 -3953.36 0.
0.761826 0.0375703 0.
-0.646133 -0.590098 0.
-0.0202565 -0.143793 0.
-8.12978 -22.4868 0.
0.909461 2.519 0.
-1972.13 -4257.58 0.
-0.0865967 -2.94688 0.
-0.0111477 -7.29721 0.
-181.037 -487.755 0.
5.99695 13.1164 0.
-2.36732 -17.2588 0.
-2.98405 -10.5715 0.
-2229.16 -3764.3 0.
-3.21894 -4.79036 0.
9.88122 20.3322 0.
-340.773 -655.121 0.
-137.665 -210.928 0.
-1293.08 -2102.86 0.
8.5455 17.073 0.
-219.78 -476.046 0.
2.93642 5.80411 0.
-1625.58 -2996.51 0.
-0.0657365 -1.19657 0.
-0.534307 -14.8573 0.
-272.849 -527.29 0.
-222.978 -572.368 0.
-7.98508 -21.6344 0.
-1571.15 -2873.66 0.
-426.258 -972.981 0.
-187.577 -489.722 0.
0.05535 0.12478 0.
-30.4002 -55.36 0.
-18.313 -47.239 0.
-0.00530167 -0.0119633 0.
0.0211494 0.0457766 0.
-27.8805 -44.7521 0.
-16.3061 -12.802 0.
-15.349 -12.8401 0.
-37.1374 -92.7819 0.
-5.43094 -7.18834 0.
-5.23883 -6.89517 0.
-45.5495 -61.6589 0.
-12.8625 -17.3422 0.
-326.9 -325.944 0.
-13.1821 -9.96571 0.
-8.76282 -3.64992 0.
-529.377 -1100.14 0.
-25.2363 -9.63064 0.
-27.5214 -10.4186 0.
-517.75 -1204.79 0.
-306.527 -606.014 0.
-68.8798 -52.8363 0.
-594.36 -1385.82 0.
-524.774 -1220.27 0.
-365.451 -889.658 0.
-339.67 -832.296 0.
-323.3 -765.523 0.
-306.839 -781.672 0.
-338.006 -870.399 0.
-372.348 -955.951 0.
-284.977 -784.77 0.
-311.43 -860.772 0.
-343.866 -930.791 0.
-141.098 -345.771 0.
-217.639 -576.219 0.
-929.765 -2384.74 0.
-283.638 -744.766 0.
-197.093 -459.814 0.
-303.358 -827.741 0.
-295.087 -814.079 0.
-290.973 -796.26 0.
-331.394 -909.469 0.
-294.738 -816.091 0.
-262.251 -718.544 0.
-286.367 -662.262 0.
-315.336 -772.371 0.
-353.167 -873.618 0.
-467.298 -1069.89 0.
-558.089 -1312.14 0.
-10.6066 -5.41345 0.
-281.355 -410.016 0.
-567.423 -1243 0.
-12.6145 -5.1441 0.
-12.9206 -5.49957 0.
-525.108 -976.379 0.
-38.3339 -13.8434 0.
-1.47586 -0.532976 0.
-9.36547 -3.47316 0.
-21.9749 -8.41184 0.
-23.0134 -9.20552 0.
-31.566 -14.7645 0.
-1.01089 -0.0724869 0.
1.14369 0.465402 0.
-0.688149 -0.136401 0.
-0.650468 -0.129581 0.
0.280568 0.058608 0.
-4.04762 -1.52048 0.
-73.4922 -34.1842 0.
-0.615937 -0.266631 0.
-1.79476 -0.801431 0.
-0.0027441 -0.214978 0.
-1641.78 -2644.03 0.
-1148.1 -2401.2 0.
-11.6844 -31.8963 0.
2.01032 5.52784 0.
-0.217057 -5.4789 0.
-9.41442 -25.7413 0.
-2.35033 -6.49429 0.
-73.9239 -184.752 0.
7.63769 17.2483 0.
-1516.33 -3213.33 0.
-91.0371 -152.496 0.
-268.761 -448.342 0.
34.9241 54.5763 0.
10.3615 13.1577 0.
-33.33 -107.692 0.
2.39785 4.29351 0.
-8.03839 -26.498 0.
-87.8635 -174.454 0.
-2.7432 -17.5336 0.
9.49694 17.8114 0.
2.47933 5.70197 0.
2.90166 6.68617 0.
0.000968277 0.527634 0.
-1174.85 -2339.51 0.
-72.9062 -147.328 0.
-15.9613 -43.9088 0.
-1.65955 -3.56851 0.
-59.8043 -134.637 0.
-25.8393 -64.9365 0.
-0.00553342 -0.601274 0.
-2.70791 -7.17947 0.
0.000541637 0.036557 0.
-0.0533009 -0.112963 0.
-87.442 -218.172 0.
-1989.09 -3505.01 0.
-32.7013 -45.4127 0.
-27.8259 -36.1122 0.
-2225.48 -5087.45 0.
-13.5907 -30.9143 0.
-2.37619 -5.23856 0.
-2276.86 -5065.33 0.
-17.1018 -6.17989 0.
-1727.29 -3530.85 0.
-498.394 -633.559 0.
-15.0687 -9.28693 0.
-1397.14 -3234.36 0.
-570.814 -1223.31 0.
-30.7303 -23.5204 0.
-925.326 -2222.32 0.
-526.076 -1246.78 0.
-158.316 -239.737 0.
-722.55 -1699.44 0.
-561.883 -1365.76 0.
-428.03 -1062.07 0.
-372.396 -964.517 0.
-328.424 -855.3 0.
-333.443 -860.555 0.
-336.202 -883.206 0.
-344.759 -900.057 0.
-239.334 -651.501 0.
-203.081 -549.514 0.
-166.115 -448.241 0.
-66.7922 -173.786 0.
-34.4255 -93.6909 0.
-739.953 -1383.42 0.
-95.3342 -257.675 0.
-114.184 -300.401 0.
-144.818 -384.624 0.
-200.622 -537.946 0.
-255.351 -692.342 0.
-307.363 -847.908 0.
-318.512 -879.399 0.
-337.772 -902.778 0.
-329.852 -857.808 0.
-392.046 -1020.71 0.
-469.113 -1168.74 0.
-561.316 -1384.42 0.
-782.98 -1892.65 0.
-103.565 -37.7081 0.
-565.997 -1280.75 0.
-1053.38 -2498.85 0.
0.0819773 0.000112435 0.
-513.029 -1032.52 0.
-1661 -3879.49 0.
-65.1113 -26.7827 0.
-350.497 -159.733 0.
-1914.39 -3423.68 0.
0.20778 0.0773466 0.
-2442.39 -5537.93 0.
-249.841 -206.65 0.
-7.4398 -5.55345 0.
-2014.55 -2197.99 0.
0.027619 0.3045 0.
-2451.83 -6116.74 0.
-11.0643 -4.0183 0.
-115.78 -41.8254 0.
-161.515 -81.2825 0.
-228.351 -182.656 0.
-79.0593 -69.1114 0.
1.04675 2.85148 0.
-0.165183 -1.09411 0.
-34.3743 -78.9461 0.
-312.835 -866.483 0.
1.15783 3.13524 0.
5.89253 13.79 0.
-0.628279 -1.52673 0.
-149.673 -407.72 0.
-1307.02 -3045.5 0.
-1.30745 -17.1782 0.
-3.11134 -13.2237 0.
9.19938 17.8998 0.
-5.89901 -13.9209 0.
-746.547 -1233.13 0.
-3.19509 -27.5242 0.
17.906 49.2814 0.
-39.7162 -64.5741 0.
0.111903 0.654855 0.
-13.923 -25.6031 0.
-2.85757 -13.74 0.
9.3769 17.8712 0.
-1173.56 -2719.1 0.
10.1409 22.0304 0.
-1102.66 -2711.91 0.
0.43318 5.33722 0.
-19.8026 -36.444 0.
-855.057 -2007.44 0.
-1.1229 -2.33286 0.
-20.2646 -42.6656 0.
-20.8685 -55.3873 0.
-6.12477 -15.4766 0.
-1806.87 -3763.84 0.
0.150513 0.416161 0.
-1678.63 -4048.13 0.
-2.34612 -5.89023 0.
-50.7784 -115.953 0.
-23.8048 -42.5122 0.
-25.777 -47.5287 0.
-28.9659 -76.8052 0.
-5.64649 -15.1744 0.
-2.78002 -5.67297 0.
-31.7114 -59.2491 0.
-0.347797 -0.000333164 0.
-0.0049279 -0.00177915 0.
-7.23902 -2.62796 0.
-21.8204 -11.9917 0.
-411.955 -824.25 0.
-24.0537 -16.4747 0.
-19.7218 -8.85037 0.
-486.462 -1195.73 0.
-120.235 -186.105 0.
-23.0071 -15.3926 0.
-436.849 -1086.15 0.
-294.867 -733.554 0.
-280.303 -718.221 0.
-231.778 -613.519 0.
-193.337 -498.733 0.
-230.57 -603.91 0.
-233.712 -626.184 0.
-240.43 -644.882 0.
-230.829 -627.584 0.
-194.827 -525.344 0.
-158.027 -423.902 0.
-160.201 -417.177 0.
-125.513 -339.425 0.
-327.503 -905.468 0.
-178.487 -486.517 0.
-199.851 -526.721 0.
-136.908 -356.543 0.
-192.693 -509.89 0.
-246.958 -664.757 0.
-198.103 -547.213 0.
-210.768 -577.197 0.
-227.802 -602.811 0.
-158.672 -413.733 0.
-216.091 -581.483 0.
-283.988 -738.755 0.
-224.18 -606.378 0.
-428.395 -1132.48 0.
0.00243985 0.000912774 0.
-0.0382537 -0.000139319 0.
-494.624 -1115.93 0.
0.0710134 0.000489675 0.
0.316502 0.00563516 0.
-346.791 -643.159 0.
-6.08888 -2.69638 0.
-0.385917 -0.0321057 0.
0.381532 0.161189 0.
-0.3688 -0.0012761 0.
-2.41831 -0.874041 0.
0.336717 0.261762 0.
0.0287137 0.0241463 0.
0.30757 0.274402 0.
0.0458312 0.220754 0.
0.118004 0.125077 0.
0.269976 0.0615908 0.
-0.0911784 -0.0430819 0.
-1628.87 -2382.82 0.
-818.248 -1281.81 0.
-552.624 -235.652 0.
-0.0109902 -2.19573 0.
1.17972 2.62998 0.
-10.2553 -25.1678 0.
-1098.24 -2569.97 0.
3.00967 8.0105 0.
8.53825 18.8305 0.
-1.48543 -3.51882 0.
-19.3585 -50.2462 0.
-419.378 -815.366 0.
5.08084 12.0915 0.
1.8881 3.35486 0.
-101.447 -186.886 0.
25.9097 44.7512 0.
39.8751 61.5451 0.
2.89645 20.1752 0.
-72.2012 -196.147 0.
-1204.73 -1678.36 0.
9.2953 16.6096 0.
-8.1902 -27.1321 0.
-1.65636 -17.6329 0.
10.0705 24.2091 0.
-1.77472 -9.36361 0.
-0.79986 -14.9021 0.
2.20512 5.26035 0.
-0.553302 -30.0919 0.
-2.88967 -4.65018 0.
-675.362 -1685.17 0.
-0.0697856 -0.173658 0.
-13.0597 -26.3622 0.
-1100.87 -2764.06 0.
-8.25584 -20.2435 0.
-14.6351 -37.3689 0.
-1.75478e-05 -2.52972 0.
-15.3494 -36.9821 0.
-4.00321 -9.32852 0.
-1.39333 -2.92094 0.
-21.8889 -44.8501 0.
-39.6384 -76.5567 0.
-29.4039 -69.3487 0.
-6.60187 -14.5662 0.
-4.2559 -6.44801 0.
-16.9843 -34.5923 0.
-0.241227 -0.000162234 0.
-0.100211 -0.0374852 0.
-14.2681 -5.33321 0.
-32.7519 -30.2225 0.
-20.9661 -16.4423 0.
-11.8336 -7.76333 0.
-13.9537 -5.80897 0.
-93.5591 -123.171 0.
-3.76133 -2.83605 0.
-12.0516 -7.18841 0.
-191.571 -432.445 0.
-83.9784 -160.672 0.
-147.437 -359.51 0.
-101.757 -251.923 0.
-84.4442 -205.032 0.
-130.852 -344.111 0.
-133.971 -366.414 0.
-139.786 -386.021 0.
-222.582 -603.41 0.
-186.686 -501.06 0.
-149.804 -399.697 0.
-253.355 -660.824 0.
-215.135 -586.625 0.
-317.633 -878.278 0.
-260.475 -716.524 0.
-286.36 -752.199 0.
-142.879 -360.509 0.
-185.776 -480.823 0.
-239.467 -636.271 0.
-97.4119 -263.613 0.
-103.939 -274.079 0.
-119.572 -301.105 0.
-25.104 -58.3521 0.
-54.8182 -130.226 0.
-119.774 -287.855 0.
0.00158425 0.368765 0.
-126.353 -319.764 0.
-0.900538 -0.333582 0.
0.102959 0.0379792 0.
-0.0980784 -0.000843542 0.
-1.67891 -0.63869 0.
0.043818 0.379295 0.
0.0102287 0.00121764 0.
-12.8073 -6.03608 0.
-0.45919 -0.0508474 0.
0.552678 0.244231 0.
0.00346498 0.00125134 0.
-0.707222 -0.255915 0.
-0.0323738 -0.0262012 0.
0.366322 0.351705 0.
-0.244395 -0.245954 0.
0.10861 0.126288 0.
0.0239192 0.0229723 0.
0.0944751 0.534069 0.
0.491318 0.166455 0.
0.0890296 0.383074 0.
-329.788 -807.531 0.
-141.984 -367.61 0.
-1675.75 -3128.52 0.
-0.212247 -9.26423 0.
-6.15599 -15.5455 0.
-0.735079 -1.74582 0.
0.0352852 13.4742 0.
-1650.98 -3671.06 0.
6.94184 16.0238 0.
-1.02746 -16.1342 0.
-1087.31 -1960.78 0.
-3.35262 -7.6107 0.
-4.56922 -16.9918 0.
-52.6715 -101.206 0.
23.0868 38.9349 0.
-570.008 -848.22 0.
-8.2205 -73.7745 0.
0.109765 49.7328 0.
86.6831 127.789 0.
-4.18723 -23.9677 0.
-7.8034 -40.7898 0.
4.69142 10.4021 0.
5.65324 12.861 0.
5.23767 10.311 0.
-0.0459272 -0.114215 0.
6.31406 14.2768 0.
-0.0109619 -25.8801 0.
1.81806 2.49759 0.
-0.28934 -7.77814 0.
0.28598 0.666991 0.
-281.575 -528.235 0.
-15.2819 -28.3999 0.
-12.2924 -29.2524 0.
-0.0390413 -1.90098 0.
-0.000242083 -2.48192 0.
-19.0279 -42.5618 0.
-1500.26 -3200.36 0.
-25.3811 -56.152 0.
-2179.78 -3209.59 0.
-7.7957 -15.04 0.
-1746.56 -3673.31 0.
-6.55548 -15.334 0.
0.149123 0.0154466 0.
-2098.75 -5119.42 0.
0.344711 0.131239 0.
-1977.73 -3322 0.
-103.542 -82.4655 0.
-16.4254 -7.41641 0.
-1872.28 -4656.43 0.
-187.273 -286.664 0.
-17.3752 -13.2138 0.
-1183.85 -3022.55 0.
-456.996 -1179.46 0.
-23.1794 -32.2145 0.
-846.483 -2176.25 0.
-509.317 -1334.22 0.
-572.782 -1495.95 0.
-432.882 -1166.65 0.
-304.623 -825.71 0.
-421.278 -1142.45 0.
-343.875 -943.356 0.
-268.75 -741.983 0.
-374.906 -1022.13 0.
-270.736 -723.637 0.
-165.455 -426.251 0.
-282.955 -763.683 0.
-256.713 -705.644 0.
-305.079 -844.165 0.
-306.082 -846.705 0.
-322.331 -880.275 0.
-144.967 -365.108 0.
-276.267 -738.582 0.
-406.773 -1112.85 0.
-237.66 -647.311 0.
-347.269 -944.639 0.
-459.455 -1239.39 0.
-270.379 -746.72 0.
-437.735 -1182.17 0.
-619.606 -1603.11 0.
-461.601 -1261.01 0.
-914.783 -2422.29 0.
0.283423 0.134817 0.
-392.355 -902.877 0.
-1382.16 -3420.17 0.
0.201566 0.170892 0.
0.324274 0.215497 0.
-2054.09 -5095.84 0.
0.391836 0.176543 0.
0.0249701 0.0111353 0.
-2096.48 -3111.3 0.
0.282439 0.108789 0.
-2155.82 -5110.84 0.
-0.22624 -0.151732 0.
0.714693 0.678272 0.
-1796.39 -2748.83 0.
-5.47728 -11.9165 0.
-1655.11 -3750.98 0.
0.634851 1.18649 0.
0.555717 0.376584 0.
0.0300502 0.188007 0.
-146.995 -405.592 0.
-0.045171 -1.71894 0.
2.87892 5.77869 0.
-740.961 -1675.7 0.
-2.67431 -6.84427 0.
1.15408 2.70308 0.
-7.23324 -17.6644 0.
-1.03841 -22.7607 0.
-1128.51 -2535.19 0.
0.250399 0.547689 0.
-732.369 -1602.94 0.
-4.27825 -33.7688 0.
-4.26548 -37.6012 0.
-1019.96 -1954.77 0.
-21.566 -36.7782 0.
-11.2142 -17.7192 0.
-2.16116 -14.3729 0.
-5.14494 -123.804 0.
-35.639 -156.888 0.
-12.4276 -63.8434 0.
-1007.04 -1872.58 0.
-5.6876 -10.7498 0.
-1143.28 -2515.36 0.
1.89572 3.77971 0.
-57.0267 -142.916 0.
-1288.7 -2818.79 0.
6.323 17.3331 0.
-36.2568 -94.8513 0.
-0.00590127 -23.9993 0.
-66.6895 -146.467 0.
-508.109 -963.568 0.
-13.9547 -27.5685 0.
-18.6369 -43.2615 0.
-28.3613 -67.2825 0.
-1598.16 -4138.45 0.
-0.00631679 -4.01888 0.
-44.9999 -103.635 0.
-7.90695 -20.7351 0.
-3.48102 -7.31717 0.
0.253892 0.637723 0.
-13.9335 -36.6865 0.
0.114984 0.0567186 0.
0.00191048 0.000798407 0.
-7.18667 -2.86359 0.
0.25995 0.100257 0.
0.199025 0.106831 0.
0.106576 0.0681485 0.
-19.0805 -12.4021 0.
-3.99492 -4.89835 0.
-5.99967 -3.40023 0.
-14.6229 -9.65475 0.
-378.765 -919.004 0.
-7.07107 -3.79161 0.
-10.6424 -9.35253 0.
-464.175 -1201.48 0.
-138.45 -347.174 0.
-332.155 -873.64 0.
-199.768 -536.62 0.
-88.2303 -237.501 0.
-316.397 -860.291 0.
-240.723 -659.413 0.
-165.95 -457.634 0.
-367.028 -1010.75 0.
-262.61 -712.5 0.
-166.366 -436.355 0.
-313.169 -837.63 0.
-286.166 -780.358 0.
-298.122 -816.695 0.
-335.81 -918.966 0.
-350.093 -954.499 0.
-135.442 -353.065 0.
-257.597 -695.849 0.
-389.781 -1068.46 0.
-115.532 -306.028 0.
-219.445 -589.537 0.
-329.39 -886.632 0.
-28.492 -73.8668 0.
-149.276 -389.176 0.
-322.049 -819.549 0.
-0.168925 -0.272819 0.
-438.759 -1177.58 0.
0.272343 0.0416021 0.
-0.079629 -0.0427278 0.
-234.871 -478.116 0.
0.305522 0.255719 0.
-0.0171882 -0.00755098 0.
0.542582 0.314494 0.
-0.78112 -0.334604 0.
-0.203137 -0.0860415 0.
-45.7031 -18.7714 0.
-0.268414 -0.0263835 0.
-0.594227 -0.0880321 0.
0.0235325 0.013235 0.
0.276539 0.245076 0.
0.25984 0.277541 0.
0.370246 1.00434 0.
-0.0214133 -0.415245 0.
0.0146876 0.12397 0.
-1884.18 -3569.27 0.
0.000210361 0.0260453 0.
-82.2368 -227.24 0.
-0.317207 -11.1077 0.
2.77227 5.70899 0.
4.67269 10.6894 0.
13.6718 37.8582 0.
-1276.35 -2871.03 0.
1.73921 4.25838 0.
6.93471 17.0228 0.
-4.50475 -9.02015 0.
6.85579 15.823 0.
-0.962113 -34.3464 0.
-84.4485 -163.71 0.
-3.21776 -22.2726 0.
-6.44078 -13.1389 0.
-11.2021 -18.6621 0.
-1289.24 -1884.06 0.
22.3032 41.1538 0.
26.6272 59.3291 0.
7.97483 16.8967 0.
20.1811 37.3246 0.
11.1857 21.9602 0.
13.1139 23.1989 0.
0.870654 2.06314 0.
12.4157 32.5186 0.
-321.32 -808.181 0.
8.5889 19.7696 0.
-0.565281 -12.9477 0.
-53.5008 -138.607 0.
4.32798 11.5612 0.
-219.191 -571.059 0.
-0.00456546 -3.38599 0.
-23.7296 -49.1687 0.
-25.1687 -57.3487 0.
-85.2628 -184.595 0.
-99.8718 -270.769 0.
-5.47248e-06 -0.393277 0.
-24.4486 -62.111 0.
0.181208 0.501482 0.
0.315263 0.753695 0.
-0.00408813 -0.590847 0.
-1.12484 -2.7555 0.
-1007.29 -2325.6 0.
-13.9038 -37.6031 0.
-1467.55 -3538.87 0.
-13.4979 -17.9275 0.
-1754.87 -3054.39 0.
-13.5679 -8.41875 0.
-15.3035 -7.57126 0.
-1876.45 -4779.44 0.
-3.49176 -1.92477 0.
-31.4217 -58.1399 0.
-1444.22 -3523.81 0.
-279.57 -656.311 0.
-25.5371 -42.6881 0.
-1007.28 -2594.56 0.
-445.435 -1170.59 0.
-638.776 -1628.37 0.
-398.122 -1042.75 0.
-167.048 -447.55 0.
-471.258 -1225.74 0.
-296.578 -773.759 0.
-122.859 -320.812 0.
-367.84 -965.699 0.
-237.478 -605.2 0.
-105.88 -245.936 0.
-250.148 -674.025 0.
-197.015 -527.436 0.
-253.019 -498.251 0.
-286.874 -632.123 0.
-345.133 -786.238 0.
-87.8384 -204.376 0.
-244.519 -637.869 0.
-401.449 -1071.11 0.
-75.9099 -180.771 0.
-315.635 -809.419 0.
-555.962 -1437.47 0.
-127.909 -328.818 0.
-413.906 -1040.03 0.
-711.165 -1739.97 0.
-374.273 -996.948 0.
-1107.47 -2868.6 0.
0.0106711 0.0245045 0.
-33.5571 -58.6921 0.
-1599.76 -4106.64 0.
-6.15119 -4.53499 0.
-0.0407906 -0.00782329 0.
-1534.01 -3471.14 0.
-10.0553 -3.66309 0.
-1779.93 -3036.06 0.
-187.204 -452.695 0.
0.108153 0.0864101 0.
-1020.84 -2541.52 0.
-151.443 -197.908 0.
0.395022 0.32111 0.
-0.338106 -0.338035 0.
-0.00297388 -0.646796 0.
-0.026953 -0.999602 0.
0.0253921 0.34135 0.
-0.206121 -1.21454 0.
-0.0608493 -7.49273 0.
-1260.53 -2546.58 0.
-0.30531 -9.27452 0.
-0.00030441 -1.52485 0.
-72.0541 -165.592 0.
-0.134378 -25.6312 0.
-1.14598 -2.92613 0.
-587.054 -1446 0.
-0.38034 -0.91344 0.
-149.218 -296.013 0.
-1.09879 -2.38796 0.
5.11032 12.8007 0.
-1910.64 -3405.08 0.
12.195 27.3389 0.
-1255.79 -2453.29 0.
-18.857 -30.0762 0.
92.7084 161.827 0.
-12.9901 -41.6786 0.
21.3597 43.19 0.
-457.758 -949.836 0.
69.3195 114.322 0.
-6.13719 -11.4541 0.
-2.82613 -4.67621 0.
0.984332 2.20123 0.
7.03672 17.7237 0.
0.286077 0.680113 0.
-163.365 -353.07 0.
13.263 32.0167 0.
-83.4712 -214.072 0.
-1190.26 -3024.3 0.
2.0382 5.33114 0.
10.4031 28.2494 0.
-304.207 -639.885 0.
-1439.24 -2561.19 0.
0.495623 1.04677 0.
-62.838 -172.658 0.
-0.00152599 -1.16624 0.
-12.8378 -34.416 0.
-116.602 -267.35 0.
-1353.04 -3063.43 0.
0.0057097 0.0436041 0.
-774.922 -1807.98 0.
-0.0482189 -0.314224 0.
-0.0578108 -0.141127 0.
-8.54046 -22.0724 0.
-0.808204 -1.85799 0.
-7.34338 -7.24856 0.
-1.98172 -1.31146 0.
-1.81399 -0.866499 0.
-16.2259 -20.39 0.
-4.50416 -1.71248 0.
-6.71748 -4.85404 0.
-108.19 -234.471 0.
-12.1823 -5.01436 0.
-14.4244 -7.24578 0.
-443.781 -1155.7 0.
-9.48578 -25.0188 0.
-329.749 -837.401 0.
-95.0586 -245.349 0.
-27.6611 -74.1063 0.
-324.506 -855.665 0.
-152.917 -400.419 0.
-10.6344 -26.9714 0.
-305.571 -823.317 0.
-176.291 -461.682 0.
-54.3178 -129.472 0.
-216.542 -585.969 0.
-179.379 -484.653 0.
-97.0995 -254.271 0.
-265.277 -540.047 0.
-300.523 -630.191 0.
-44.3496 -113.24 0.
-160.411 -424.826 0.
-315.491 -860.014 0.
-0.207848 -0.157938 0.
-117.909 -303.787 0.
-354.162 -936.225 0.
-18.7851 -40.901 0.
-0.331462 -0.769922 0.
-296.069 -702.991 0.
-0.0632682 -0.275587 0.
-393.152 -1023.18 0.
-0.131409 -0.094621 0.
-0.992669 -0.434515 0.
-45.7651 -64.9071 0.
-3.18564 -2.15393 0.
0.186919 0.0978073 0.
0.166168 0.0723492 0.
-5.96396 -2.31978 0.
-288.327 -733.296 0.
-0.0599305 -0.0991731 0.
0.11006 0.0567371 0.
-26.4921 -23.2521 0.
0.000267474 0.110932 0.
-1912.67 -4044.38 0.
-114.729 -286.371 0.
-49.2569 -107.493 0.
-1215.35 -2023.09 0.
0.0949025 1.87713 0.
0.714935 1.52269 0.
3.80337 10.3204 0.
-0.00678379 -0.930944 0.
-822.343 -1891.22 0.
0.0182316 8.36875 0.
-902.003 -2090.23 0.
-4.47727 -11.4548 0.
-5.0289 -12.8637 0.
-4.66728 -11.8487 0.
3.05288 6.80692 0.
-1610.1 -3192 0.
-15.0852 -31.0347 0.
4.22506 9.82706 0.
2.1389 4.35683 0.
-6.12956 -48.5611 0.
-104.868 -204.895 0.
-2.27978 -3.59274 0.
-473.735 -949.631 0.
-29.9253 -23.9169 0.
23.4208 10.4904 0.
71.8484 147.824 0.
-40.2692 -59.7497 0.
-1184.95 -2123.88 0.
-0.0274872 -0.341533 0.
-1218.13 -2588.25 0.
12.9184 31.3083 0.
-105.742 -236.224 0.
-368.214 -750.317 0.
7.66491 17.7811 0.
-651.731 -1658.79 0.
14.2989 38.045 0.
13.3931 35.2201 0.
-0.521504 -18.2323 0.
-694.001 -1403.55 0.
2.79598 7.07625 0.
0.58624 1.21606 0.
-81.0016 -223.733 0.
-855.703 -2059.02 0.
-975.317 -1986.89 0.
-0.232079 -3.12872 0.
-14.4868 -30.8827 0.
-0.0951094 -1.2404 0.
0.00121126 1.10085 0.
0.000916226 0.00553218 0.
0.36392 0.853086 0.
-1.37062 -3.79044 0.
0.178632 0.381213 0.
0.553537 0.711622 0.
0.164349 0.153723 0.
0.291866 0.115185 0.
-14.5187 -15.2552 0.
-9.83567 -3.56421 0.
-12.3402 -6.98651 0.
-13.1093 -6.84147 0.
-10.6124 -3.86138 0.
-12.7397 -4.70013 0.
0.0436332 0.00249796 0.
-1.32735 -3.65775 0.
-20.1416 -47.017 0.
-0.0715594 -0.183147 0.
-17.649 -46.3832 0.
-182.064 -481.275 0.
-32.7313 -84.0702 0.
-2.28613 -5.73581 0.
-258.368 -711.49 0.
-148.016 -401.884 0.
-38.1555 -96.0871 0.
-263.074 -592.382 0.
-229.18 -510.044 0.
-38.3406 -89.8999 0.
-295.893 -559.984 0.
-316.633 -607.763 0.
-22.18 -59.4944 0.
-113.301 -310.009 0.
-250.746 -693.008 0.
-0.189966 -0.145953 0.
-2.65639 -2.02803 0.
-160.667 -426.679 0.
-8.72403 -18.7518 0.
-0.454746 -1.22809 0.
-1.93494 -5.34563 0.
0.0897319 0.163553 0.
0.271851 0.43295 0.
-9.72563 -4.4009 0.
-11.9116 -4.50236 0.
-14.5512 -5.32731 0.
-7.09806 -4.6246 0.
-1.86358 -0.992961 0.
0.0653862 0.0294788 0.
-3.15285 -1.40611 0.
-8.32382 -3.71362 0.
-0.0199097 -0.0279147 0.
0.0451816 0.0336906 0.
-9.96059 -7.4184 0.
-0.0485366 -1.27958 0.
-14.2863 -38.7335 0.
-6.35697 -15.9042 0.
-0.14396 -0.318374 0.
2.23037 5.92908 0.
-1480.69 -3240.89 0.
3.92102 10.1976 0.
-0.063561 -6.35347 0.
-0.0440057 -8.12637 0.
-618.919 -1461.95 0.
6.6393 18.0671 0.
14.2313 37.2448 0.
-727.176 -1869.49 0.
6.82402 17.4417 0.
-339.981 -851.33 0.
-1.33013 -2.91958 0.
-7.91247 -17.5734 0.
0.684568 1.5782 0.
15.1525 32.7081 0.
24.4776 49.3799 0.
-63.8252 -133.327 0.
-893.231 -1700.14 0.
39.978 61.9142 0.
-93.4411 -179.749 0.
9.97696 7.59418 0.
-0.433786 -0.47871 0.
58.9902 119.996 0.
-49.0251 -73.9197 0.
35.9365 72.465 0.
-5.50398 -50.5629 0.
-12.0371 -23.7388 0.
4.07854 9.56591 0.
-1421.79 -3017.51 0.
-994.809 -1918.26 0.
2.44915 6.00265 0.
15.0658 35.8257 0.
-3.36237 -8.88121 0.
0.925876 2.44433 0.
1.54706 3.84126 0.
-1.82288 -54.9023 0.
-1.19745 -3.02164 0.
-1.25245 -7.94167 0.
-981.963 -2124.87 0.
-36.5934 -91.7592 0.
-2.85442e-05 -11.3155 0.
-0.0876542 -1.91298 0.
-0.273441 -2.18927 0.
0.0624794 1.27948 0.
-0.213926 -2.31879 0.
-1278.54 -2740.79 0.
-0.431228 -1.15898 0.
-1388.29 -2944.83 0.
0.120514 0.325373 0.
-0.0593759 -0.343792 0.
-1950.46 -4141.26 0.
-0.0980738 -0.300002 0.
-1314.73 -2921.7 0.
-13.5305 -17.3493 0.
-25.7367 -49.9322 0.
-1538 -3905.42 0.
-25.1808 -42.3086 0.
-22.4294 -32.9277 0.
-1232.59 -3208.02 0.
-165.442 -433.098 0.
-826.566 -2012.29 0.
-413.772 -1011.2 0.
-42.0522 -102.298 0.
-680.873 -1797.01 0.
-360.421 -946.111 0.
-40.8068 -98.2025 0.
-498.827 -1366.41 0.
-309.684 -843.606 0.
-121.984 -319.355 0.
-390.097 -969.57 0.
-355.111 -867.243 0.
-223.24 -530.663 0.
-390.753 -884.831 0.
-460.562 -1083.13 0.
-97.7629 -254.664 0.
-323.576 -889.297 0.
-552.396 -1520.92 0.
-1.75162 -3.55264 0.
-345.385 -910.511 0.
-761.19 -2019.47 0.
-6.2465 -12.5838 0.
-396.116 -924.104 0.
-935.92 -2194.63 0.
-15.5549 -33.47 0.
-1312.88 -3420.84 0.
-8.13774 -15.83 0.
-0.059554 -0.0816195 0.
-1610.81 -4061.83 0.
0.0244572 0.0198792 0.
0.00477482 0.0041219 0.
-1704.38 -2992.56 0.
-0.291869 -0.231211 0.
-1544.18 -3531.09 0.
-68.1638 -75.5517 0.
-1.53969 -1.88513 0.
-1510.75 -2377.57 0.
-0.039578 -2.50265 0.
-1022.96 -2815.88 0.
-0.13028 -2.92544 0.
0.0609637 0.136799 0.
-0.0285904 -11.3189 0.
-1.43508 -3.49107 0.
1.39318 3.64626 0.
-995.928 -2425.16 0.
6.31259 17.2459 0.
3.45958 9.43739 0.
-0.335731 -29.3414 0.
11.1038 29.3357 0.
-197.921 -522.753 0.
6.0327 15.3913 0.
-790.033 -1951.46 0.
7.12822 15.4563 0.
9.42766 20.4419 0.
8.39543 18.6827 0.
-6.14108 -37.2604 0.
-1695.43 -3409.24 0.
-6.83659 -52.7397 0.
-19.7615 -85.9822 0.
-5.33276 -38.1205 0.
-2.3695 -4.54006 0.
-10.5346 -7.86056 0.
-5.83872 -7.78023 0.
21.3424 44.7139 0.
-147.737 -225.84 0.
-15.9031 -88.2218 0.
17.1629 36.7222 0.
16.6101 31.5026 0.
15.877 39.7261 0.
-6.54662 -14.7664 0.
6.85254 15.6815 0.
16.5445 38.969 0.
-326.906 -778.97 0.
15.516 40.6354 0.
-618.433 -1635.88 0.
-1226.33 -2961.66 0.
-0.310408 -0.803791 0.
3.66182 9.12896 0.
-0.331252 -1.92385 0.
4.57931 10.377 0.
-0.320298 -9.54028 0.
-3.73022e-06 -0.0202315 0.
1.78143 4.58472 0.
1.65125 4.18067 0.
-1207.66 -3073.83 0.
-0.0730885 -1.90693 0.
-0.26319 -1.48128 0.
-0.141686 -1.05084 0.
-0.697982 -1.06497 0.
0.188074 0.504922 0.
-0.175035 -0.84725 0.
0.00578187 0.0386289 0.
-0.00180811 -0.0245908 0.
-11.1309 -13.9837 0.
-7.96189 -7.41835 0.
-8.56671 -11.7521 0.
-12.3987 -15.7034 0.
-1.96718 -1.57841 0.
-2.56618 -3.96185 0.
-310.73 -808.52 0.
-4.45602 -11.5392 0.
-306.099 -727.705 0.
-5.19346 -11.1087 0.
-13.4902 -29.9773 0.
-396.702 -1065.66 0.
-80.7845 -209.609 0.
-2.46626 -5.06249 0.
-381.286 -1055.84 0.
-199.414 -551.627 0.
-55.2053 -150.41 0.
-332.836 -784.98 0.
-296.959 -678.364 0.
-48.1025 -101.939 0.
-295.1 -648.342 0.
-361.414 -833.807 0.
-11.0246 -16.2877 0.
-159.409 -438.932 0.
-387.27 -1071.79 0.
-0.470079 -1.13509 0.
-0.554182 -1.19216 0.
-379.058 -1024.93 0.
-5.82509 -12.2245 0.
-3.49643 -8.79401 0.
-228.331 -533.495 0.
0.0488072 0.0936161 0.
-186.89 -440.663 0.
-0.00673792 -0.0150598 0.
0.234635 0.384035 0.
-0.0369223 -0.0580371 0.
-0.165477 -0.139999 0.
-0.351615 -0.28269 0.
-1.10863 -1.05213 0.
-0.114401 -0.151945 0.
-0.239795 -0.256263 0.
-91.8083 -105.947 0.
-4.68368 -6.10546 0.
-22.1138 -33.6112 0.
1.22794 3.08278 0.
-2.61123 -6.80152 0.
1.28708 3.38548 0.
-1169.58 -2266.46 0.
5.19925 14.3974 0.
4.06392 10.3678 0.
5.60414 14.7069 0.
-0.0102931 -38.2854 0.
12.5561 34.1331 0.
-0.144379 -27.2949 0.
-752.245 -2031.95 0.
5.19084 13.8037 0.
-298.104 -784.223 0.
-7.00222 -17.8581 0.
-2.59432 -42.7235 0.
-3.05889 -6.56548 0.
-1707.52 -3620.25 0.
-911.021 -1984.66 0.
-8.02237 -39.3739 0.
32.2484 71.5668 0.
-8.37654 -55.5412 0.
53.0146 95.1148 0.
90.8154 175.952 0.
-19.125 -93.2029 0.
-10.546 -7.99163 0.
34.0875 41.8283 0.
-7.8665 -16.6426 0.
-713.346 -1102.91 0.
-978.578 -1890.57 0.
-8.27801 -53.3604 0.
-190.524 -351.217 0.
-2.18579 -34.7641 0.
-15.6208 -33.9258 0.
6.86458 15.9178 0.
3.22762 7.29987 0.
-753.227 -1798.34 0.
6.11593 15.8771 0.
-169.865 -442.545 0.
7.14118 19.4213 0.
2.90722 7.58098 0.
-868.91 -2134.61 0.
-0.682229 -35.7069 0.
4.75652 11.0239 0.
-0.460285 -1.19663 0.
-0.00148088 -13.5384 0.
-963.707 -1829.41 0.
-0.281163 -5.34752 0.
-15.5445 -39.7729 0.
-0.0204546 -1.61973 0.
1.17288 2.69496 0.
0.0569869 1.44568 0.
0.198901 0.336716 0.
-0.282905 -0.740353 0.
-101.416 -256.395 0.
-1327.84 -3555.76 0.
0.0671732 1.02986 0.
-1507.36 -2286.61 0.
-31.3513 -41.0216 0.
-22.1696 -45.8683 0.
-1521.34 -3917.25 0.
-4.32956 -7.09189 0.
-0.619808 -0.889125 0.
-1297.54 -3375.77 0.
-11.0842 -27.9864 0.
-930.644 -2138.22 0.
-356.145 -804.768 0.
-5.44607 -9.69541 0.
-794.094 -2064.33 0.
-313.807 -802.809 0.
-6.88231 -14.9749 0.
-543.206 -1459.8 0.
-305.995 -834.171 0.
-74.4734 -202.855 0.
-401.491 -1037.1 0.
-338.193 -857.357 0.
-83.0609 -209.475 0.
-340.951 -821.91 0.
-472.104 -1165.27 0.
-21.4311 -47.8277 0.
-310.384 -847.341 0.
-608.769 -1642.68 0.
-1.42749 -2.71775 0.
-268.034 -703.406 0.
-885.12 -2332.18 0.
-1.42549 -2.62415 0.
-285.644 -639.233 0.
-983.901 -2249.02 0.
-0.0201174 -0.0962928 0.
-1387.55 -3183.98 0.
0.037758 0.0804815 0.
0.182136 0.335956 0.
-1547.64 -3991.42 0.
0.310773 0.285215 0.
-1.01242 -1.02467 0.
-1423.41 -2479.25 0.
-1.07469 -2.4239 0.
-1108.47 -2783.25 0.
-216.701 -266.159 0.
-17.8007 -24.5567 0.
-24.6944 -40.4842 0.
-0.139235 -0.325095 0.
-9.12574 -22.6113 0.
4.19042 11.2139 0.
-0.798583 -7.45898 0.
-551.902 -1372.71 0.
2.6474 6.91481 0.
-0.262593 -0.689536 0.
-0.005844 -25.2947 0.
-625.447 -1689.9 0.
10.6463 29.1604 0.
-6.32747 -17.361 0.
-168.328 -449.58 0.
-462.37 -1211.93 0.
-1.60482 -37.8081 0.
9.91874 23.9685 0.
0.193888 0.453165 0.
14.8536 35.3609 0.
21.7911 46.5718 0.
-3.32937 -30.6953 0.
30.4859 65.6546 0.
-11.9725 -70.2989 0.
-23.6366 -41.7527 0.
-36.6744 -161.289 0.
0.999575 1.93174 0.
34.7013 30.8758 0.
-19.2522 -34.4631 0.
-417.847 -891.734 0.
54.2726 104.005 0.
36.2863 73.7499 0.
18.818 37.4546 0.
-638.891 -1381.83 0.
-4.57912 -57.0396 0.
14.4218 30.2529 0.
-811.933 -1898.59 0.
-4.76532 -40.3749 0.
-42.1661 -106.527 0.
-10.3806 -25.3873 0.
-29.874 -76.8977 0.
4.86573 13.2414 0.
-385.976 -1012.99 0.
12.0417 31.9585 0.
-6.92537 -18.508 0.
6.17775 14.3966 0.
-0.0121869 -31.3027 0.
-881.675 -1972.74 0.
-0.649315 -2.79987 0.
-0.459948 -7.27264 0.
1.61591 4.28101 0.
1.20071 3.30586 0.
-1167.02 -2780.8 0.
1.08814 2.73508 0.
-1299.27 -2566.58 0.
-0.268234 -1.48241 0.
0.180347 1.14685 0.
-0.0267366 -0.243211 0.
0.30071 0.584395 0.
0.411798 0.451556 0.
0.227646 0.303184 0.
-0.0693131 -0.300974 0.
-2.43845 -5.05141 0.
0.0490046 0.0995092 0.
-0.0461845 -0.143553 0.
-129.527 -328.334 0.
-6.61088 -13.1706 0.
-186.432 -411.748 0.
0.0527461 0.0883001 0.
-3.46719 -5.92259 0.
-360.843 -957.624 0.
-2.82485 -5.54129 0.
-5.49903 -11.3983 0.
-311.567 -859.941 0.
-95.0187 -263.16 0.
0.0978249 0.0128335 0.
-217.009 -590.847 0.
-161.937 -447.718 0.
-30.7846 -72.6767 0.
-159.555 -379.16 0.
-257.536 -652.606 0.
-7.72301 -15.9749 0.
-45.1359 -117.829 0.
-302.712 -828.846 0.
-2.53806 -4.57602 0.
-1.30696 -2.10677 0.
-301.124 -816.417 0.
-0.74225 -0.781306 0.
-0.0548728 -0.0155993 0.
-108.267 -257.409 0.
-0.0109968 -0.178832 0.
0.113514 0.284718 0.
-0.104333 -0.617517 0.
-0.0660898 -0.251366 0.
-0.180588 -0.439426 0.
-0.223294 -0.197816 0.
0.0152423 0.0161535 0.
-3.05894 -3.58175 0.
-0.00709945 -0.752912 0.
-8.13876 -21.0445 0.
-5.40542 -12.8669 0.
-981.609 -1731.47 0.
1.13573 3.13813 0.
-1033.75 -2363.86 0.
-15.7888 -37.1067 0.
-0.0800602 -7.04409 0.
-0.00484972 -23.1508 0.
-1.42481 -3.6601 0.
-61.9767 -156.814 0.
-0.816694 -2.14001 0.
6.58458 18.2246 0.
3.26081 9.00914 0.
-0.151613 -34.9749 0.
-1.01736 -2.76846 0.
4.01058 10.6175 0.
9.59351 25.2837 0.
12.0591 29.9337 0.
-266.604 -642.273 0.
-2.8546 -31.827 0.
-1.1715 -2.81353 0.
15.6111 33.4318 0.
-6.90141 -60.9677 0.
-4.41059 -9.27892 0.
-4.64542 -38.011 0.
-307.539 -536.601 0.
97.8945 174.431 0.
30.0746 58.2771 0.
13.3535 12.014 0.
-15.0776 -31.6988 0.
-22.5151 -38.1716 0.
14.317 27.0759 0.
42.1184 87.2251 0.
16.5274 32.0902 0.
-18.4411 -39.5783 0.
31.383 73.6334 0.
-584.994 -1189.03 0.
-3.13409 -63.5813 0.
-3.31743 -64.215 0.
-88.4694 -219.22 0.
17.2701 42.3005 0.
-5.71856 -14.5209 0.
8.06893 21.9647 0.
-84.4042 -229.34 0.
-7.68778 -20.5087 0.
-4.1893 -11.2714 0.
-896.317 -2088.3 0.
-0.0349426 -23.8367 0.
-126.371 -290.763 0.
13.2846 36.7824 0.
-1.2717 -17.0715 0.
-705.249 -1531.52 0.
-0.139414 -4.03567 0.
-9.89876 -25.7613 0.
0.35303 0.94677 0.
-0.00228774 -1.51771 0.
0.131843 1.58885 0.
0.0296219 1.64547 0.
0.176658 1.39125 0.
0.109757 0.957539 0.
-0.335376 -0.611201 0.
0.414055 0.659553 0.
-0.0544071 -0.345759 0.
-0.0272851 -0.0699921 0.
-0.0048455 -0.0767247 0.
0.0235553 0.14875 0.
-9.50303 -20.3988 0.
-6.8692 -12.2367 0.
-0.0532189 -0.167563 0.
0.0843066 0.143204 0.
-3.48591 -5.84452 0.
-21.866 -49.9871 0.
-1.64381 -3.35616 0.
-4.30846 -8.75696 0.
-128.273 -352.605 0.
-3.27529 -9.05516 0.
-1.40686 -3.44242 0.
-131.014 -355.952 0.
-88.932 -245.548 0.
-7.86221 -19.3175 0.
-63.7699 -116.16 0.
-124.809 -290.483 0.
-15.0415 -30.5578 0.
-16.2732 -37.7843 0.
-77.8137 -206.326 0.
-3.80613 -6.37676 0.
-2.56312 -3.92676 0.
-16.7996 -45.2282 0.
-9.04828 -18.2979 0.
-8.09508 -15.7415 0.
-36.6374 -90.6873 0.
1.96064e-05 0.0649895 0.
0.0631656 0.173732 0.
0.19255 0.366275 0.
0.423034 0.712587 0.
0.617902 0.902185 0.
0.0193456 0.0189279 0.
-0.137662 -0.153396 0.
-1.05559 -1.31907 0.
0.357497 0.982562 0.
-3.15187 -8.67317 0.
0.193003 0.490599 0.
0.847418 1.82509 0.
-0.0320828 -5.80616 0.
0.539372 1.39445 0.
3.66719 9.60721 0.
-803.176 -2016.1 0.
6.08102 16.8405 0.
4.24648 11.0111 0.
-143.662 -368.387 0.
-410.798 -1112.08 0.
3.16256 8.74886 0.
-12.9094 -35.4646 0.
15.6998 43.4374 0.
-4.26149 -11.4774 0.
7.81974 20.615 0.
6.76903 17.5415 0.
-1.09288 -29.4354 0.
-1312.19 -3154.27 0.
24.9658 56.1199 0.
-3.8748 -63.4217 0.
-188.426 -404.734 0.
-5.36161 -45.8766 0.
-885.709 -1831.65 0.
-0.918875 -1.95214 0.
61.9926 113.932 0.
-880.44 -1558.51 0.
-518.677 -989.189 0.
-6.90968 -31.9941 0.
-12.9594 -32.6715 0.
54.3474 91.4829 0.
-20.797 -87.8418 0.
33.5511 70.571 0.
17.8334 33.9936 0.
37.9486 80.8151 0.
-6.94381 -73.5582 0.
33.9895 75.6032 0.
-2.79821 -52.7311 0.
11.0599 27.508 0.
-129.443 -315.028 0.
4.01759 9.85729 0.
-834.252 -2082.29 0.
-9.45832 -24.3822 0.
8.49684 22.9061 0.
9.00223 24.1082 0.
-697.193 -1884.69 0.
9.94685 27.208 0.
13.0773 34.3418 0.
-445.091 -1042 0.
0.0124076 8.81283 0.
-826.735 -1937.91 0.
8.5229 23.2986 0.
2.57098 6.43816 0.
-0.0150335 -1.65128 0.
1.28104 3.53316 0.
1.43187 3.93847 0.
-748.857 -1888.22 0.
1.35154 3.41338 0.
-975.111 -2076.15 0.
-17.35 -38.0243 0.
-1214.8 -2327.36 0.
-0.0488116 -0.101405 0.
-0.0397103 -0.463292 0.
-1403.52 -3709.56 0.
-3.98306 -6.61198 0.
0.195968 0.272913 0.
-1288.85 -3070.23 0.
-0.923537 -1.47262 0.
-1008.48 -2325.58 0.
-279.153 -604.307 0.
-13.2217 -26.9652 0.
-983.068 -2581.62 0.
-206.662 -532.812 0.
-0.267182 -0.543366 0.
-687.059 -1863.77 0.
-323.031 -889.823 0.
-3.79915 -10.4477 0.
-480.795 -1312.48 0.
-396.834 -1099.16 0.
-29.5164 -80.9262 0.
-355.797 -955.942 0.
-567.691 -1540.01 0.
-5.06465 -11.2446 0.
-271.719 -731.052 0.
-781.799 -2067.83 0.
-4.48028 -4.50083 0.
-153.706 -405.809 0.
-1071.36 -2878.22 0.
-2.99174 -2.776 0.
-215.097 -422.672 0.
-1015.71 -2200.54 0.
0.00149084 0.178513 0.
-1262.8 -3112.46 0.
-0.0926747 -0.278358 0.
-0.100834 -0.514833 0.
-1076.62 -2273.97 0.
0.0919364 0.195102 0.
-1551.28 -3293.57 0.
0.12894 2.00083 0.
0.250981 0.677831 0.
-1084.43 -2418.85 0.
-9.38032 -21.3211 0.
0.963395 2.2191 0.
-0.0509849 -6.13926 0.
1.29152 3.46008 0.
-0.0488413 -4.46195 0.
-38.9321 -101.305 0.
10.0516 27.4011 0.
-394.422 -1030.87 0.
-240.75 -621.645 0.
5.53808 14.8901 0.
-0.789716 -2.1827 0.
-220.474 -600.414 0.
13.269 36.5876 0.
-671.567 -1788.44 0.
-0.81908 -35.5338 0.
-25.2638 -64.5145 0.
6.12826 15.5499 0.
-7.32181 -18.4753 0.
-1.2931 -28.0913 0.
-952.201 -2325.38 0.
-1547.91 -3344.04 0.
25.8923 64.1034 0.
13.398 28.182 0.
31.0704 65.2255 0.
-2.5698 -4.73195 0.
15.0421 25.9624 0.
-31.4076 -49.2197 0.
-29.0131 -99.7268 0.
-309.579 -504.62 0.
-29.8999 -50.0081 0.
-23.1455 -84.9436 0.
-5.79309 -12.3456 0.
-0.897081 -9.79757 0.
11.2993 23.9406 0.
40.5449 89.9674 0.
10.7783 23.8368 0.
-4.07672 -72.4521 0.
0.740834 1.85557 0.
-189.884 -454.472 0.
-296.99 -730.23 0.
9.81058 24.1079 0.
-11.7902 -30.0172 0.
-126.362 -337.428 0.
-358.467 -963.602 0.
8.36642 22.7828 0.
1.06821 2.93114 0.
-54.7741 -145.123 0.
15.5399 42.3536 0.
13.9051 38.0622 0.
-295.852 -716.599 0.
-0.0504667 -17.7895 0.
-0.0599668 -1.08243 0.
3.70125 9.90613 0.
-695.066 -1362.61 0.
1.4881 4.04655 0.
-26.1349 -69.6688 0.
-2.4286 -6.4335 0.
-16.1738 -37.1153 0.
0.477272 1.15857 0.
-0.0317872 -1.15183 0.
-0.0362576 -0.663966 0.
-0.00532644 -0.432766 0.
-19.2083 -43.374 0.
-0.0889836 -0.213029 0.
0.0436018 0.0983134 0.
-2.17274 -3.08504 0.
0.161339 0.262047 0.
-35.6114 -67.7846 0.
-7.22294 -15.1274 0.
-11.2336 -23.6983 0.
-176.05 -471.584 0.
-7.07105 -16.144 0.
-0.872666 -1.52329 0.
-262.275 -716.916 0.
-6.73919 -18.621 0.
-5.14567 -14.2101 0.
-204.755 -560.481 0.
-124.094 -343.698 0.
-15.9466 -42.9041 0.
-54.179 -139.172 0.
-217.219 -599.346 0.
-6.90757 -14.7358 0.
-4.34398 -8.08135 0.
-150.394 -384.324 0.
-6.4034 -6.76213 0.
-5.15203 -5.46333 0.
-144.872 -392.59 0.
-8.22876 -7.51238 0.
-4.92979 -3.89221 0.
-9.98595 -9.44849 0.
-0.00692226 -0.085223 0.
-2.94088 -8.1243 0.
-0.187614 -0.651974 0.
-0.0621591 -0.419463 0.
-6.56022 -16.077 0.
0.0296191 0.271395 0.
-0.125041 -0.378195 0.
-0.193205 -2.46748 0.
0.744705 2.05928 0.
0.528737 1.40688 0.
1.68289 4.25064 0.
-953.535 -2165.97 0.
-0.169581 -12.4504 0.
0.246993 0.671251 0.
-0.0749599 -16.561 0.
-316.898 -841.786 0.
0.0952911 0.259187 0.
-0.0462257 -25.8329 0.
-374.847 -970.915 0.
-2.94002 -7.87127 0.
-0.0272776 -41.4858 0.
-792.575 -2133.83 0.
7.66659 21.0224 0.
-0.180388 -0.47445 0.
-0.237425 -48.5203 0.
-723.061 -1827.73 0.
17.3422 43.8979 0.
0.354953 0.884044 0.
12.828 32.2712 0.
2.47092 5.99759 0.
5.61455 13.2377 0.
-2.40474 -40.2839 0.
-6.55348 -13.8409 0.
-6.993 -14.5895 0.
-348.907 -646.394 0.
-21.4019 -36.1094 0.
-28.4286 -44.6349 0.
-31.1111 -89.3377 0.
24.4542 36.0699 0.
20.0359 33.3259 0.
29.2559 48.3406 0.
64.7255 139.454 0.
36.867 83.3817 0.
-312.834 -660.168 0.
-49.4651 -108.91 0.
-35.2102 -77.5049 0.
-173.072 -420.668 0.
0.675818 1.70338 0.
-501.007 -1298.48 0.
2.67002 6.91628 0.
26.223 63.7042 0.
-10.171 -25.5422 0.
-495.855 -1309.39 0.
19.8093 53.1624 0.
7.61068 20.5845 0.
-35.4053 -97.3525 0.
13.7141 37.9248 0.
17.2455 47.1612 0.
-77.9295 -209.71 0.
10.3646 28.6994 0.
-0.0191091 -7.63728 0.
3.7828 9.05546 0.
-613.126 -1342.21 0.
1.02303 2.17401 0.
-0.0483476 -3.06895 0.
-64.7711 -176.71 0.
-2.67197 -7.30263 0.
-1.63927 -4.03842 0.
0.221228 0.574522 0.
1.11735 3.04572 0.
-1191.11 -3235.09 0.
-6.15384e-07 -0.049556 0.
-839.145 -1650.26 0.
-29.3144 -58.9698 0.
-28.2635 -62.903 0.
-1119.14 -2867.49 0.
-5.60972 -10.9873 0.
-946.885 -1988.07 0.
-196.521 -369.051 0.
-7.86169 -16.6111 0.
-1032.83 -2779.8 0.
-70.6737 -180.724 0.
-3.49292 -6.81522 0.
-823.272 -2177.21 0.
-271.091 -734.519 0.
-4.30973 -11.9357 0.
-538.766 -1455.05 0.
-453.531 -1253.29 0.
-20.9068 -55.9065 0.
-355.744 -977.994 0.
-682.057 -1870.76 0.
-8.01424 -17.4723 0.
-186.806 -507.346 0.
-893.842 -2392.42 0.
-1.74184 -4.24184 0.
-2.97905 -7.46916 0.
-943.482 -2389.62 0.
-6.72 -11.4458 0.
-1243.71 -2652.29 0.
0.130249 0.227563 0.
-0.0584154 -0.174954 0.
-1062.67 -2724.68 0.
-0.0930865 -0.275868 0.
0.0284549 0.0509161 0.
-964.688 -2183.54 0.
-299.473 -632.654 0.
-0.267023 -1.10969 0.
0.116915 1.37318 0.
-0.0393531 -4.19929 0.
-0.00608915 -2.56906 0.
0.746619 1.98315 0.
-29.4305 -71.4374 0.
-0.155047 -11.451 0.
-814.987 -1934.53 0.
8.81652 24.3058 0.
4.19355 11.5766 0.
-71.6834 -194.466 0.
-69.8354 -187.551 0.
10.7128 29.3309 0.
-6.51177 -17.3466 0.
16.6714 46.1752 0.
12.7052 34.4634 0.
15.2433 41.492 0.
-281.997 -732.161 0.
20.782 56.3558 0.
-0.573133 -1.47311 0.
4.66752 11.7939 0.
-7.40165 -18.214 0.
2.86774 7.26124 0.
-43.777 -105.531 0.
5.30493 12.3186 0.
12.1832 29.13 0.
-6.06593 -12.8669 0.
2.32308 4.82996 0.
-70.6235 -131.963 0.
5.26848 8.71303 0.
2.72909 4.29898 0.
72.3738 110.881 0.
-8.52262 -18.3574 0.
53.9266 89.1562 0.
21.3557 33.622 0.
-826.159 -1697.68 0.
-158.197 -350.278 0.
22.9279 48.173 0.
-575.661 -1277.71 0.
-941.25 -2067.76 0.
-987.902 -2389.24 0.
-0.792093 -31.427 0.
30.5834 78.4297 0.
27.7298 70.7725 0.
-165.088 -397.37 0.
-4.84499 -11.9906 0.
26.5051 67.0952 0.
-9.036 -24.0229 0.
-83.643 -224.452 0.
-0.230879 -53.9088 0.
19.4512 53.6385 0.
-1.63242 -4.47296 0.
-75.9735 -210.196 0.
15.5723 43.132 0.
10.607 29.1312 0.
15.9504 41.5613 0.
3.68907 8.77612 0.
4.05076 8.63836 0.
-0.254761 -10.798 0.
-140.339 -387.507 0.
0.755175 1.66061 0.
-874.409 -1984.71 0.
-0.378416 -0.99028 0.
0.861949 2.37405 0.
-0.00982937 -0.0269668 0.
-0.0614584 -2.21749 0.
0.250381 0.300457 0.
0.196815 0.293893 0.
-2.96416 -5.27807 0.
0.247725 0.499602 0.
0.212886 0.453493 0.
-13.9909 -34.3419 0.
-9.16678 -22.1888 0.
-4.90555 -11.6992 0.
-146.135 -387.297 0.
-1.67759 -3.2189 0.
-5.93938 -13.4742 0.
-79.787 -215.04 0.
-3.86629 -10.3227 0.
-3.03727 -8.21923 0.
-72.8095 -195.823 0.
-8.37765 -22.3111 0.
-18.0082 -47.2486 0.
-10.7081 -28.8868 0.
-51.7194 -142.673 0.
-4.59792 -12.2813 0.
-0.985555 -2.58434 0.
-9.03543 -12.8312 0.
-4.99364 -6.37584 0.
-4.54455 -8.32495 0.
-6.03374 -11.755 0.
-0.871424 -2.35883 0.
-167.82 -378.273 0.
-0.00829405 -0.042597 0.
-0.0340204 -0.134126 0.
-0.0216749 -0.0700197 0.
-0.0909189 -0.299854 0.
0.230279 0.430884 0.
-9.47062 -20.8418 0.
1.02805 2.51365 0.
-439.983 -944.922 0.
-0.0136972 -2.26249 0.
-1027.42 -2368.97 0.
-0.134988 -9.44016 0.
-0.0253022 -3.20895 0.
-0.0304703 -14.4079 0.
-0.174925 -12.2572 0.
5.78099 15.4227 0.
-111.227 -277.352 0.
15.2498 42.1956 0.
-414.836 -1122.58 0.
-16.5459 -43.9443 0.
-0.323782 -51.0672 0.
-451.908 -1197.81 0.
0.287037 0.79321 0.
3.57439 9.58938 0.
22.8237 62.8494 0.
-726.29 -1861.81 0.
12.4586 33.4347 0.
18.3079 46.3255 0.
-1.63119 -78.8135 0.
-913.88 -2225.12 0.
-10.8904 -27.7397 0.
-102.793 -246.419 0.
20.3144 46.5509 0.
-26.2694 -60.4899 0.
-80.0922 -170.688 0.
-3.10018 -6.22995 0.
-32.8708 -61.9851 0.
-0.267028 -0.433027 0.
-7.31759 -11.5518 0.
33.3402 50.0885 0.
-5.35233 -11.1564 0.
-18.7417 -30.7808 0.
9.65346 14.5194 0.
-307.309 -628.644 0.
48.8557 108.109 0.
-102.903 -217.262 0.
-288.577 -689.244 0.
-4.5025 -10.038 0.
4.25303 10.8906 0.
26.5096 68.8953 0.
-159.663 -405.232 0.
18.2519 45.9375 0.
-784.911 -1876.47 0.
10.1884 26.8517 0.
-2.68582 -6.79153 0.
-4.89348 -12.8701 0.
-611.87 -1626.97 0.
-0.117614 -0.320714 0.
-45.4746 -124.881 0.
-309.361 -848.212 0.
20.1521 55.7378 0.
-4.37231 -12.1007 0.
-0.0899584 -16.1723 0.
-3.87492 -10.1245 0.
10.6579 26.2849 0.
0.0231084 11.0395 0.
-618.742 -1363.15 0.
-557.064 -1110.72 0.
-0.531917 -7.96237 0.
3.25382 9.01128 0.
-0.122727 -4.57285 0.
-0.0233214 -5.24544 0.
0.694093 1.81072 0.
-0.17765 -2.26336 0.
-0.18094 -0.247461 0.
0.0873123 0.121813 0.
-2.92358 -4.77311 0.
-0.0706063 -0.151983 0.
0.0978807 0.222438 0.
-0.0438829 -0.692576 0.
-6.36829 -16.7081 0.
-3.21816 -8.40621 0.
-12.2043 -33.7786 0.
-6.70769 -14.2109 0.
-9.04945 -19.7077 0.
-8.90112 -23.2196 0.
-4.71144 -11.9841 0.
-5.25672 -14.0268 0.
-10.9618 -27.1032 0.
-9.24972 -25.1046 0.
-14.0512 -38.7299 0.
-3.30681 -8.91367 0.
-1.66711 -4.13646 0.
-12.6408 -17.288 0.
-1.61008 -4.2172 0.
-0.022114 -0.0597495 0.
-15.2772 -10.0139 0.
-12.224 -13.7195 0.
-15.8103 -22.1405 0.
0.034724 0.093748 0.
-18.3491 -16.1797 0.
-0.0169524 -0.116014 0.
0.00256988 0.0130272 0.
0.15938 0.286444 0.
-0.0881728 -0.335848 0.
0.207952 0.411398 0.
-10.4737 -24.8315 0.
-0.0704608 -4.217 0.
0.656703 1.56245 0.
-0.00843356 -1.88854 0.
1.6027 4.10098 0.
3.92147 10.821 0.
-711.846 -1828.53 0.
-0.198387 -24.8289 0.
9.29313 24.7832 0.
3.63085 9.70296 0.
-596.229 -1496.93 0.
15.7657 43.6683 0.
5.26274 14.3896 0.
-585.765 -1532.97 0.
10.5701 28.7139 0.
-4.43838 -12.1388 0.
8.49156 23.346 0.
17.216 45.6355 0.
0.185603 0.507659 0.
-13.4281 -35.8546 0.
-1.17534 -65.7268 0.
-22.6605 -56.5199 0.
-1.19536 -48.1795 0.
2.10269 5.50116 0.
2.47039 6.32884 0.
-578.403 -1380.76 0.
-315.853 -715.906 0.
29.9209 69.0173 0.
-187.965 -402.932 0.
-42.9502 -86.5924 0.
73.7102 140.498 0.
-2.2774 -3.63028 0.
-13.0771 -20.704 0.
-366.38 -467.284 0.
-13.2029 -27.5037 0.
42.3657 69.1327 0.
14.6014 21.1215 0.
29.0997 59.6743 0.
-3.84054 -8.48289 0.
-383.792 -816.086 0.
-228.271 -545.412 0.
-5.47309 -12.3013 0.
-2.04865 -5.2287 0.
-1.59254 -54.194 0.
-374.376 -942.104 0.
-5.45244 -13.5542 0.
-14.2918 -35.3211 0.
27.0984 70.6988 0.
-319.649 -808.1 0.
3.73462 9.70516 0.
-11.46 -30.6411 0.
-9.3173 -25.2523 0.
-571.655 -1561.91 0.
10.2358 28.333 0.
-28.7176 -79.3874 0.
-0.0599397 -52.0638 0.
-0.478755 -1.30619 0.
9.01343 23.547 0.
-288.211 -718.738 0.
2.18306 5.90754 0.
5.03427 11.5491 0.
-0.494484 -17.4389 0.
-0.312509 -6.52888 0.
8.80821e-06 0.570733 0.
2.45751 6.36162 0.
2.5112 5.91251 0.
-723.745 -1914.43 0.
-0.00624858 -1.19809 0.
-792.096 -1479.74 0.
-27.823 -54.8392 0.
-29.6477 -67.7606 0.
-1017.17 -2650.77 0.
0.11048 0.298348 0.
-0.000675359 -1.04325 0.
-1262.72 -2647.89 0.
0.073663 0.203918 0.
-823.484 -2143.11 0.
-10.2593 -26.1962 0.
-6.40131 -16.0222 0.
-875.717 -2332.15 0.
-105.847 -276.456 0.
-6.79506 -18.8135 0.
-593.67 -1584.72 0.
-430.103 -1189.2 0.
-33.0217 -88.8213 0.
-199.283 -549.838 0.
-764.954 -2103.35 0.
-32.6219 -55.9159 0.
-26.6609 -44.6473 0.
-928.183 -2428.08 0.
-7.14984 -14.6665 0.
-7.36228 -15.2117 0.
-1061.42 -2179.45 0.
0.0798298 0.203329 0.
-1057.38 -2549.3 0.
-0.0249969 -0.258963 0.
0.0937594 0.259696 0.
-1006.25 -2350.16 0.
-11.2685 -23.1824 0.
-0.272 -0.444486 0.
-914.106 -1794.88 0.
-0.0206958 -0.718726 0.
-685.573 -1659.09 0.
-0.0119727 -3.25664 0.
1.49237 3.86993 0.
3.76077 10.4165 0.
-73.3189 -193.116 0.
-0.121682 -17.5009 0.
-546.448 -1435.05 0.
1.61632 4.31334 0.
-0.00597675 -39.5887 0.
-388.919 -1060.76 0.
14.8358 40.2297 0.
-0.221613 -35.2883 0.
-0.379205 -1.02507 0.
-0.477574 -1.29985 0.
-0.245538 -74.1236 0.
-768.392 -2017.97 0.
17.5872 47.7511 0.
-1.1712 -67.3802 0.
-0.148699 -0.396083 0.
-65.7585 -161.907 0.
25.6721 66.5556 0.
-0.188368 -0.488356 0.
-2.4448 -70.6174 0.
29.8769 75.7919 0.
-755.732 -1699.44 0.
42.891 99.1267 0.
-308.764 -685.549 0.
48.2309 97.5046 0.
52.9297 102.267 0.
-15.3518 -24.1808 0.
-101.084 -160.811 0.
-69.2565 -89.3519 0.
-1.24624 -16.6548 0.
-48.9883 -79.418 0.
-0.939762 -1.32083 0.
-41.0867 -84.8912 0.
51.4039 113.236 0.
-438.636 -941.518 0.
-74.1431 -177.255 0.
3.56019 8.06555 0.
36.1282 92.046 0.
15.4582 39.9121 0.
-606.455 -1515.92 0.
18.5721 49.2832 0.
-28.8324 -71.4356 0.
-2.21048 -74.3278 0.
-840.844 -2127.49 0.
2.34304 6.28326 0.
4.78444 12.7792 0.
12.8044 34.5453 0.
-13.2171 -35.6813 0.
0.654424 1.80804 0.
-510.251 -1409.55 0.
7.0059 19.3992 0.
19.1696 52.3606 0.
-489.221 -1276.78 0.
-0.245544 -51.9885 0.
-63.4872 -172.691 0.
-259.252 -615.419 0.
-0.585847 -29.4513 0.
0.0710962 1.74306 0.
1.9351 5.0422 0.
-847.979 -1983.33 0.
-0.140619 -4.08491 0.
-0.00270263 -3.77576 0.
1.27831 3.48764 0.
-4.82687 -9.63236 0.
-2.23022 -4.94155 0.
-0.143452 -0.3578 0.
-3.71012 -10.2312 0.
-0.000507088 -0.593911 0.
-0.0227036 -1.12883 0.
-5.05211 -13.8187 0.
0.10285 0.283057 0.
-40.5748 -101.643 0.
-6.88396 -18.2694 0.
-3.44043 -7.95284 0.
-14.0263 -37.0173 0.
-11.3541 -31.1063 0.
-9.43571 -25.9087 0.
-17.0376 -45.8699 0.
-9.46212 -26.0613 0.
-22.9499 -63.1058 0.
-12.8231 -35.5039 0.
-8.62909 -23.8448 0.
-28.0647 -39.0048 0.
-6.58806 -18.0631 0.
-7.15953 -19.4969 0.
-5.31131 -14.4262 0.
-5.57568 -15.1221 0.
-5.84638 -15.8489 0.
-1.6888 -3.47123 0.
0.000556534 0.0130381 0.
0.112491 0.784417 0.
0.157028 0.415282 0.
-1.58444 -4.38831 0.
0.150415 0.318594 0.
0.0398967 0.0691374 0.
-0.00740288 -2.32482 0.
1.95559 5.36041 0.
0.333233 0.883745 0.
3.78024 10.2279 0.
-525.912 -1303.83 0.
-0.00115833 -2.434 0.
-3.45994e-05 -7.13048 0.
-0.65948 -1.79867 0.
12.8058 35.0512 0.
-0.323571 -18.2694 0.
0.295775 0.818999 0.
14.9299 40.773 0.
-0.476192 -35.5812 0.
-7.01756 -19.0884 0.
19.5213 53.9175 0.
-0.503271 -52.1393 0.
-0.445448 -70.9812 0.
9.21166 24.6696 0.
10.0458 27.0779 0.
1.93313 5.12206 0.
-1.10072 -51.5475 0.
-890.254 -2166.63 0.
29.5925 76.1189 0.
-5.5581 -14.2955 0.
23.7647 60.6004 0.
-13.2291 -33.6791 0.
-20.022 -46.7972 0.
41.321 95.9564 0.
-339.97 -753.29 0.
-26.7148 -54.1374 0.
-20.187 -39.6783 0.
6.05301 9.46346 0.
-27.7802 -46.6672 0.
17.8494 38.7567 0.
23.4372 50.4427 0.
-347.554 -559.684 0.
-1314.6 -1807.86 0.
-7.26984 -65.8356 0.
8.99674 19.7515 0.
-220.602 -478.583 0.
-79.5708 -190.412 0.
-16.3732 -37.3852 0.
-11.4283 -29.0993 0.
-42.6814 -106.701 0.
12.8279 31.9377 0.
-7.782 -20.6884 0.
-90.8047 -225.556 0.
31.0493 80.8398 0.
-172.805 -448.486 0.
-23.6199 -63.2622 0.
-37.7128 -100.648 0.
-70.3471 -192.062 0.
22.2677 60.1865 0.
-8.20952 -22.6151 0.
-124.895 -345.634 0.
11.5191 31.9032 0.
-10.0352 -27.436 0.
-10.7398 -29.4283 0.
-0.234127 -37.1697 0.
-469.461 -1280.62 0.
-0.0336883 -37.5557 0.
11.1913 29.702 0.
-654.918 -1572.17 0.
-0.238172 -10.6249 0.
1.94423 4.77981 0.
-0.0972757 -6.0756 0.
1.84501 5.10851 0.
2.31936 6.31766 0.
-0.029968 -0.896507 0.
-0.10839 -1.59933 0.
0.847473 2.21161 0.
-491.934 -1335.65 0.
-4.11586 -11.3967 0.
-0.043425 -0.120222 0.
-794.306 -2121.29 0.
-0.594857 -1.50177 0.
-860.605 -1820.75 0.
-17.2122 -32.1919 0.
-22.0281 -45.6406 0.
-835.935 -2186.4 0.
-13.3068 -29.6892 0.
-10.6639 -23.9342 0.
-534.293 -1451.79 0.
-363.388 -1006.27 0.
-55.7085 -150.5 0.
-104.248 -286.465 0.
-714.324 -1960.02 0.
-25.7762 -42.6642 0.
-13.276 -17.5014 0.
-864.482 -2214.86 0.
-16.5965 -14.31 0.
-12.9064 -6.97855 0.
-850.339 -1697.33 0.
-1.66421 -3.52142 0.
-703.077 -1874.16 0.
-0.00465229 -0.0927495 0.
-196.34 -494.693 0.
0.288061 0.784114 0.
1.1211 2.38598 0.
1.12825 2.03378 0.
-0.0298765 -1.41683 0.
-0.000470648 -2.96719 0.
2.8662 7.90566 0.
-0.0585549 -9.46012 0.
-0.15253 -12.1232 0.
-31.9369 -87.4054 0.
8.82813 24.4515 0.
3.55346 9.69162 0.
-2.08176 -5.6737 0.
-0.127624 -28.0301 0.
6.01315 16.6489 0.
14.7307 40.1389 0.
-3.99834 -10.603 0.
10.5556 28.6126 0.
-10.5631 -29.0139 0.
-666.262 -1799.72 0.
15.3571 41.5813 0.
15.4448 41.3677 0.
4.08013 10.9424 0.
17.9365 47.3727 0.
20.5203 53.6679 0.
31.2728 79.3588 0.
-349.54 -880.538 0.
-206.076 -526.385 0.
-2.73814 -73.1764 0.
-2.95725 -83.863 0.
-21.2388 -49.7452 0.
46.7067 108.643 0.
-252.25 -558.901 0.
-18.942 -118.596 0.
2.28982 5.30024 0.
53.286 83.0036 0.
-19.18 -31.8676 0.
10.3683 18.3236 0.
12.4634 24.6172 0.
-152.277 -243.467 0.
-29.615 -44.9663 0.
33.1206 71.988 0.
-1.65737 -3.62483 0.
54.6726 119.956 0.
-113.323 -271.488 0.
-208.631 -508.413 0.
29.8405 75.9709 0.
-448.675 -1167.02 0.
16.6164 41.492 0.
25.2516 67.2505 0.
-237.831 -592.417 0.
-6.16364 -16.0695 0.
15.2445 39.6078 0.
-28.7359 -76.8674 0.
-287.219 -766.154 0.
-51.6358 -141.009 0.
8.6121 23.3037 0.
-262.219 -725.814 0.
-18.0196 -49.8658 0.
20.4738 56.7087 0.
-454.001 -1241.95 0.
21.5132 59.0025 0.
-0.558995 -1.54025 0.
-3.10068 -8.56028 0.
0.413789 1.14446 0.
-310.308 -813.141 0.
-0.0502821 -37.1344 0.
1.65754 4.37574 0.
-0.00534072 -17.4661 0.
-0.0409224 -5.10533 0.
-528.128 -1282.99 0.
-0.0864398 -3.48179 0.
1.75981 4.84425 0.
-896.39 -2116.52 0.
-0.0247019 -1.35157 0.
-7.61993 -21.1057 0.
-2.98305 -8.24955 0.
0.0325774 0.0895555 0.
-18.0966 -50.0439 0.
0.0444283 0.123044 0.
-15.0416 -26.3189 0.
-1.00063 -2.07422 0.
-5.36527 -11.8916 0.
-9.87544 -27.3374 0.
-2.95034 -7.17712 0.
-3.54166 -8.36516 0.
-9.39885 -26.0322 0.
-8.51613 -22.802 0.
-25.0135 -68.7295 0.
-10.1516 -26.7586 0.
-3.93362 -10.8736 0.
-19.8943 -25.6758 0.
-3.09186 -7.79524 0.
-3.71917 -9.24942 0.
-11.7676 -12.8642 0.
-10.7525 -7.80891 0.
-14.5108 -11.282 0.
-0.0414495 -0.108422 0.
-1.86584 -5.06685 0.
-0.0734583 -2.39085 0.
0.00252866 0.292258 0.
-341.113 -858.952 0.
-56.2138 -103.125 0.
-820.732 -1580.56 0.
3.83382 9.69822 0.
-204.339 -558.074 0.
4.78453 13.1715 0.
4.47205 12.2594 0.
-0.145409 -12.7037 0.
-183.105 -502.537 0.
-64.7622 -174.507 0.
-0.00317352 -46.0748 0.
-2.20707 -5.98167 0.
15.6924 43.4592 0.
3.35024 9.27427 0.
7.51809 20.4349 0.
7.18449 19.8069 0.
-531.315 -1434.67 0.
13.6224 37.4824 0.
2.6302 7.15959 0.
-9.48839 -25.7583 0.
-159.968 -428.566 0.
-12.7829 -34.3407 0.
-499.796 -1316.6 0.
-7.43594 -19.4546 0.
24.4095 62.199 0.
28.2668 75.2929 0.
-446.019 -1132.57 0.
-146.768 -361.588 0.
-15.205 -39.0006 0.
38.8875 91.2925 0.
32.5137 75.75 0.
-8.05313 -17.8719 0.
-10.0655 -20.4886 0.
-11.6868 -131.104 0.
-229.033 -418.75 0.
48.9219 80.3715 0.
18.0261 26.3811 0.
-7.53799 -32.2195 0.
41.1032 88.1452 0.
-15.3257 -24.389 0.
63.5732 135.896 0.
-330.065 -718.395 0.
-24.588 -59.3533 0.
-88.704 -212.791 0.
-151.569 -369.501 0.
-177.737 -452.926 0.
-8.20825 -21.4106 0.
11.2572 28.1906 0.
20.1949 53.871 0.
-431.65 -1078.64 0.
-2.9487 -7.71673 0.
26.6313 69.2843 0.
-143.987 -384.66 0.
-6.6587 -17.8277 0.
-34.6634 -94.6833 0.
-243.192 -658.81 0.
-1.40349 -3.86325 0.
-7.6239 -21.0971 0.
-72.8389 -201.742 0.
-6.52464 -18.0301 0.
14.7658 40.5267 0.
-213.487 -588.259 0.
5.50512 15.199 0.
-0.014534 -47.8043 0.
5.9852 16.4923 0.
-0.48087 -1.32882 0.
-0.231568 -11.2313 0.
0.339782 0.902358 0.
-171.079 -447.609 0.
-0.000814953 -1.06063 0.
-0.168523 -7.82636 0.
1.5024 4.13893 0.
0.71271 1.79146 0.
2.22126 6.06879 0.
-5.82148 -16.0831 0.
-1.38628 -3.80689 0.
0.462107 1.25342 0.
-19.6176 -53.1076 0.
0.0320862 0.0844211 0.
-5.4515 -9.82245 0.
-0.104574 -0.227905 0.
-3.07363 -7.13767 0.
-4.73421 -12.2254 0.
-0.850224 -2.04981 0.
-0.479509 -1.10714 0.
-10.4758 -22.5404 0.
-9.63718 -19.285 0.
-22.0622 -47.2245 0.
-9.26 -22.2408 0.
-4.6958 -12.4165 0.
-10.4082 -15.6264 0.
-3.22084 -6.70523 0.
-4.70202 -10.3963 0.
-12.4148 -13.4779 0.
-11.0526 -7.85366 0.
-14.2526 -11.9336 0.
-0.0110013 -0.0255565 0.
-0.431765 -1.17279 0.
0.0230928 1.08147 0.
-0.0121156 -2.96897 0.
6.77231e-05 0.331259 0.
0.652774 1.27673 0.
-77.314 -155.531 0.
0.0342315 0.811811 0.
-2.08139 -5.75594 0.
-122.317 -326.765 0.
1.11297 3.05184 0.
8.41346 22.835 0.
-2.02884 -5.5931 0.
-65.8396 -176.34 0.
1.60466 4.44344 0.
-366.107 -986.42 0.
1.03678 2.87105 0.
-5.27334 -14.5135 0.
-526.98 -1428.39 0.
2.00589 5.5455 0.
8.11576 22.3992 0.
-9.70913 -26.7548 0.
3.42561 9.34656 0.
-130.461 -357.7 0.
-421.939 -1130.83 0.
10.2185 27.4956 0.
-0.921546 -2.41121 0.
-45.4471 -118.947 0.
-15.958 -40.8285 0.
-21.8229 -58.1676 0.
-69.2925 -173.004 0.
-233.925 -578.073 0.
-22.2765 -57.364 0.
-503.381 -1285.65 0.
3.77769 8.81401 0.
-15.3076 -36.1891 0.
-51.8726 -105.8 0.
-11.1591 -25.3011 0.
-285.694 -533.626 0.
40.4816 68.9991 0.
35.9163 59.3426 0.
19.885 33.5103 0.
51.8317 105.672 0.
48.0844 80.7683 0.
10.9448 24.684 0.
-117.118 -253.501 0.
9.31612 22.4151 0.
-162.204 -389.729 0.
-212.735 -519.051 0.
-51.9694 -127.718 0.
16.3306 42.6788 0.
-58.0263 -145.727 0.
1.39017 3.71371 0.
27.8776 73.521 0.
-86.906 -227.624 0.
-19.3575 -50.4281 0.
-1.49565 -79.0096 0.
26.7654 71.5697 0.
-69.8874 -190.947 0.
-109.064 -298.396 0.
-23.8923 -65.7591 0.
-64.4884 -178.45 0.
-30.9577 -85.6445 0.
-10.6655 -29.4954 0.
4.8042 13.1942 0.
16.1984 44.8611 0.
2.1151 5.83962 0.
-64.3135 -178.098 0.
-10.4311 -28.7359 0.
13.7442 37.9718 0.
-0.439029 -34.5814 0.
-0.641678 -32.1466 0.
-185.706 -497.159 0.
-6.80834e-05 -0.500167 0.
3.99647 10.5731 0.
4.46801 12.3095 0.
2.69714 7.03048 0.
1.893 5.01949 0.
-646.471 -1512.86 0.
0.27225 0.728715 0.
-0.00586066 -1.58535 0.
-596.968 -1579.6 0.
-0.0676439 -0.187245 0.
-713.737 -1478.37 0.
-19.0808 -40.863 0.
-11.885 -25.5335 0.
-735.939 -1869.24 0.
-21.6557 -54.7017 0.
-9.52192 -25.6473 0.
-440.766 -1196.75 0.
-333.068 -918.381 0.
-87.0473 -230.222 0.
-59.8399 -161.118 0.
-589.301 -1556.73 0.
-29.5006 -45.1526 0.
-12.5583 -11.9991 0.
-733.397 -1927.69 0.
-3.37518 -8.9316 0.
-10.3168 -21.5936 0.
-676.893 -1245.17 0.
-0.00806582 -0.157474 0.
-645.415 -1681.14 0.
-0.00875113 -1.80461 0.
-0.0448735 -3.59706 0.
-535.428 -1339.41 0.
-0.0845344 -0.450703 0.
-36.5414 -76.6282 0.
-0.351878 -8.63861 0.
-0.000365867 -13.472 0.
-42.9908 -115.599 0.
-3.84017 -10.6358 0.
14.6019 39.9753 0.
11.8124 32.4561 0.
-409.025 -1087.88 0.
19.6865 54.4053 0.
-7.77174 -21.4981 0.
-354.191 -980.683 0.
-0.207446 -59.9918 0.
15.1435 41.9224 0.
16.1309 44.6044 0.
-0.0708194 -69.3751 0.
-75.4155 -208.255 0.
-0.374391 -69.0744 0.
-73.7358 -201.914 0.
-101.483 -272.192 0.
22.837 61.544 0.
-3.90426 -10.2189 0.
-171.891 -456.704 0.
-22.1452 -56.889 0.
26.6545 71.0805 0.
7.46346 18.6929 0.
-302.362 -749.636 0.
-5.134 -13.2749 0.
-263.322 -671.118 0.
-266.917 -623.655 0.
29.5137 69.515 0.
-387.1 -790.81 0.
-10.006 -97.5853 0.
-45.242 -86.8248 0.
49.4937 81.6051 0.
-3.10538 -4.80656 0.
21.046 35.6182 0.
-19.3267 -98.2795 0.
21.5083 38.4042 0.
-10.6672 -99.0482 0.
-408.3 -877.588 0.
6.63652 15.9103 0.
-14.4441 -34.7734 0.
-191.841 -483.643 0.
37.1782 91.4023 0.
6.44114 16.8624 0.
-195.272 -491.813 0.
-299.255 -788.373 0.
-141.726 -374.42 0.
-146.906 -385.113 0.
-241.042 -628.809 0.
5.78045 15.3916 0.
-6.31353 -16.8607 0.
-6.38974 -17.3798 0.
-65.2299 -178.506 0.
-23.8094 -65.524 0.
-38.3775 -105.633 0.
4.47824 12.3861 0.
9.08026 25.1268 0.
21.0664 58.2047 0.
-0.00122863 -60.4914 0.
9.76413 26.9575 0.
-47.9738 -132.818 0.
-54.5841 -150.358 0.
-11.242 -31.0323 0.
-0.225592 -0.622494 0.
-0.778712 -34.4923 0.
-0.000270524 -6.41562 0.
-0.00956071 -10.8982 0.
-354.263 -842.324 0.
3.8067 9.96365 0.
-413.677 -1092.39 0.
2.33609 6.4444 0.
0.515548 1.30629 0.
-0.015385 -2.66703 0.
0.927485 2.54039 0.
-8.41069 -23.2615 0.
-0.278446 -0.770712 0.
-14.9009 -35.9277 0.
-4.79401 -12.0049 0.
-0.0035144 -0.169398 0.
-10.6721 -26.518 0.
-1.43522 -3.72241 0.
-2.2011 -5.92806 0.
-15.6992 -42.9325 0.
-6.31816 -17.4961 0.
-31.5854 -73.9905 0.
-8.30612 -14.902 0.
-6.78673 -11.2267 0.
-35.6067 -49.5561 0.
-14.8736 -13.1117 0.
-13.1686 -11.317 0.
0.00897602 0.291092 0.
-0.755121 -2.05611 0.
-7.16975 -17.967 0.
0.255077 0.549106 0.
0.061759 0.162613 0.
0.00640714 0.537392 0.
-0.0014843 -0.75235 0.
2.34073 6.48311 0.
-265.698 -644.773 0.
-0.115582 -23.427 0.
-188.558 -515.583 0.
9.17058 25.1177 0.
-94.1584 -253.554 0.
-4.83117 -13.3813 0.
-152.019 -420.063 0.
5.07494 13.8787 0.
-3.64215 -10.0329 0.
-190.092 -519.442 0.
-8.04303 -22.2564 0.
10.944 30.1101 0.
15.5676 42.676 0.
-6.52188 -18.0568 0.
-123.434 -341.507 0.
-33.2582 -91.9739 0.
-9.99021 -27.5925 0.
-400.783 -1097.9 0.
22.6931 62.0591 0.
-7.38048 -19.8279 0.
-0.882125 -80.5876 0.
29.3813 76.9259 0.
-20.4399 -54.4366 0.
-84.5644 -218.105 0.
-1.85247 -4.94226 0.
3.14244 7.89679 0.
-0.771177 -1.98225 0.
-378.255 -982.632 0.
-108.195 -275.209 0.
-1054.68 -2468.75 0.
39.2483 92.0392 0.
-26.6886 -54.6191 0.
-19.1529 -42.1816 0.
30.9344 65.3228 0.
-24.0836 -69.8363 0.
48.4276 70.4878 0.
-8.58979 -13.5358 0.
-26.1796 -107.353 0.
16.9741 32.2289 0.
-19.7605 -42.9759 0.
33.8694 80.7296 0.
10.0305 23.9524 0.
-20.2175 -51.7675 0.
-18.2012 -45.8859 0.
-27.7998 -70.5868 0.
-3.67323 -9.63189 0.
-143.429 -378.041 0.
-146.625 -387.248 0.
-313.945 -830.816 0.
-199.873 -524.434 0.
-180.693 -477.017 0.
21.1969 56.7032 0.
-222.729 -594.068 0.
-3.81895 -10.4012 0.
-108.268 -296.36 0.
-222.78 -613.051 0.
2.68258 7.38284 0.
-0.0187998 -64.0211 0.
-214.73 -593.831 0.
-41.8598 -115.749 0.
-48.8878 -135.41 0.
-15.1801 -42.0433 0.
-37.582 -104.032 0.
-194.588 -536.032 0.
19.6735 53.7079 0.
-7.00376 -19.3277 0.
-411.818 -1075.18 0.
12.5089 34.5854 0.
-3.88988 -10.4206 0.
-0.0207443 -7.78614 0.
-0.331269 -12.9867 0.
0.0619496 0.168697 0.
4.38435 12.1271 0.
-0.0716294 -2.06246 0.
1.32085 3.63893 0.
-0.00976406 -1.87946 0.
-3.00518 -8.31755 0.
-88.9642 -232.744 0.
-436.33 -1082.69 0.
-0.089847 -0.248798 0.
0.000158127 0.340641 0.
-516.267 -1381.61 0.
-9.95573 -25.8229 0.
-6.09637 -16.1889 0.
-277.637 -753.484 0.
-329.657 -907.502 0.
-79.6664 -204.103 0.
-42.2481 -105.998 0.
-443.629 -1184.15 0.
-93.5487 -216.419 0.
-33.7851 -49.2268 0.
-353.263 -705.541 0.
0.0272649 0.0533185 0.
-596.846 -1624.83 0.
2.46432e-05 0.196487 0.
-18.0254 -43.2665 0.
-0.0283223 -0.0710354 0.
0.0468348 2.36496 0.
1.83534 5.08357 0.
-0.13582 -10.6685 0.
-78.0652 -206.877 0.
6.1537 16.8757 0.
-27.0814 -74.0527 0.
14.4859 39.5896 0.
-336.695 -904.718 0.
-2.75153 -7.62122 0.
-0.151302 -48.8998 0.
9.20559 25.0344 0.
-1.28094 -3.52929 0.
-7.1657 -19.8073 0.
13.4013 37.0947 0.
5.27259 14.5265 0.
-28.21 -78.1367 0.
13.546 37.5072 0.
-2.90078 -8.02568 0.
-303.374 -839.554 0.
-19.1307 -52.8483 0.
-12.8746 -35.2158 0.
-16.4223 -44.8444 0.
14.4 38.75 0.
-49.9234 -132.623 0.
-141.252 -370.014 0.
-10.6608 -28.4586 0.
-507.207 -1342.65 0.
11.5701 30.8809 0.
14.0061 35.3154 0.
10.7423 27.6695 0.
-78.6736 -205.22 0.
-17.2544 -43.804 0.
34.6642 81.1474 0.
4.03968 9.42779 0.
43.8618 99.5848 0.
-4.89537 -10.6 0.
-0.363678 -0.754703 0.
18.7231 30.4554 0.
-28.3919 -57.2232 0.
1.50655 2.21795 0.
-3.26056 -10.9909 0.
-11.5646 -93.8864 0.
-41.6755 -88.818 0.
-6.8961 -91.2971 0.
-221.148 -526.029 0.
16.0345 41.0217 0.
4.83321 12.1767 0.
-10.3558 -26.3291 0.
-20.7168 -54.4144 0.
20.8838 56.0602 0.
-69.3977 -183.767 0.
-29.5013 -79.7221 0.
-171.12 -462.34 0.
-74.1235 -195.802 0.
-17.4227 -46.812 0.
-19.931 -53.0977 0.
14.2372 38.826 0.
-189.434 -518.69 0.
19.0231 52.5917 0.
-5.43696 -14.9617 0.
-15.9524 -44.1746 0.
-6.10191 -16.8884 0.
-8.47781 -23.4575 0.
-288.335 -798.636 0.
-2.13654 -5.91775 0.
-18.4868 -51.1659 0.
-42.8137 -118.486 0.
-6.30601 -17.2222 0.
5.54628 15.305 0.
-1.65545 -4.58414 0.
5.82995 16.0526 0.
-266.969 -717.008 0.
8.58735 23.6728 0.
6.91659 17.9861 0.
5.8732 16.1444 0.
-126.038 -345.927 0.
5.06139 13.9711 0.
-432.409 -1078.5 0.
-0.0309972 -2.2806 0.
-287.148 -741.862 0.
0.402951 1.11595 0.
-0.208002 -1.83968 0.
0.286366 0.787407 0.
-0.000885373 -0.668863 0.
-16.6867 -41.696 0.
-2.61097 -6.62937 0.
-4.85234 -12.5253 0.
-15.1135 -41.3305 0.
-2.07387 -5.74331 0.
-23.2599 -56.2852 0.
-4.93773 -7.23309 0.
0.0226555 0.0206654 0.
-3.19059 -5.15904 0.
-4.39573 -8.36144 0.
-6.75798 -13.8401 0.
0.128426 0.238687 0.
-2.53118 -4.96554 0.
0.000815418 0.0219121 0.
0.0145713 0.0398443 0.
-346.332 -893.995 0.
-0.0192562 -4.94816 0.
-360.348 -902.287 0.
4.80988 13.0919 0.
4.27683 11.7098 0.
-0.0574843 -19.6742 0.
-167.438 -457.44 0.
-7.35135 -20.1382 0.
16.5648 45.7793 0.
0.787936 2.18244 0.
18.3635 50.5531 0.
-0.0130148 -43.0347 0.
0.329066 0.906724 0.
-3.42505 -9.46977 0.
-16.8828 -46.7424 0.
-2.58017 -7.11713 0.
-3.73768 -10.3452 0.
-229.141 -634.513 0.
-5.24461 -14.5101 0.
-93.299 -257.369 0.
21.5512 59.5452 0.
-9.23087 -25.2136 0.
-1.81387 -4.92801 0.
-41.8869 -112.906 0.
-49.1286 -130.804 0.
-359.134 -955.453 0.
-67.3954 -180.332 0.
-92.6606 -252.411 0.
-72.7452 -194.25 0.
28.0474 74.628 0.
-25.28 -65.2547 0.
22.6106 57.2785 0.
-26.0549 -66.0149 0.
15.545 38.9397 0.
-135.109 -313.714 0.
24.0799 54.3337 0.
-109.387 -232.616 0.
-19.1789 -39.0919 0.
-0.865318 -1.46907 0.
-8.78804 -13.8231 0.
-380.121 -523.643 0.
-35.7304 -96.0145 0.
8.03549 16.7478 0.
-7.73612 -96.9116 0.
43.5639 101.039 0.
-312.178 -739.281 0.
24.935 63.7184 0.
-298.141 -750.69 0.
13.618 34.6705 0.
-132.824 -349.431 0.
30.1945 81.0187 0.
-104.276 -276.832 0.
-93.3849 -252.695 0.
24.6894 66.7923 0.
6.47257 17.5818 0.
-246.157 -664.078 0.
-119.534 -319.971 0.
20.0978 54.8753 0.
1.09812 2.99388 0.
-2.07757 -5.74481 0.
15.4494 42.5096 0.
-2.40175 -6.62884 0.
-17.7172 -49.0607 0.
-10.8427 -29.9993 0.
9.46843 26.1791 0.
12.2348 33.8884 0.
-19.0592 -52.7404 0.
-38.6077 -106.825 0.
16.8072 46.2826 0.
-200.865 -554.232 0.
6.02194 16.6751 0.
-0.045371 -0.124602 0.
16.4136 45.341 0.
6.17332 17.0615 0.
1.65065 4.25725 0.
-113.35 -300.412 0.
4.38128 12.1114 0.
-0.0290548 -5.52695 0.
-0.62278 -1.6188 0.
-0.00187767 -0.563185 0.
-0.251124 -0.687557 0.
0.000141604 0.0138855 0.
-0.287329 -2.61925 0.
0.00194595 0.146142 0.
-0.00386669 -0.517829 0.
-19.3651 -47.7316 0.
-9.96208 -23.862 0.
-7.92853 -19.491 0.
-7.9725 -21.3697 0.
-1.29522 -3.16784 0.
-5.69375 -9.86551 0.
0.0074628 0.00890542 0.
0.018547 0.0407858 0.
-3.19817 -4.34662 0.
-3.69008 -6.43858 0.
-5.37397 -10.488 0.
0.0675915 0.119528 0.
0.0880647 0.156775 0.
0.0708724 1.11321 0.
0.264738 0.731158 0.
-10.9854 -29.6418 0.
-0.00180425 -5.50829 0.
-1.74543 -4.5145 0.
-0.124994 -18.1246 0.
-241.766 -603.523 0.
5.9069 16.308 0.
-0.000321554 -24.4031 0.
2.75089 7.54626 0.
8.61116 23.8504 0.
8.61176 23.8527 0.
4.458 12.2852 0.
-44.8197 -124.104 0.
8.16577 22.5004 0.
-12.5638 -34.7454 0.
9.63161 26.6132 0.
-132.31 -365.332 0.
14.4044 39.8663 0.
0.496144 1.37357 0.
13.6599 37.7919 0.
-65.1602 -179.784 0.
-13.5284 -37.3029 0.
16.5068 45.0204 0.
-0.451074 -66.8805 0.
-51.6089 -139.332 0.
-65.3737 -174.439 0.
-38.5845 -105.033 0.
-156.893 -420.772 0.
-38.5868 -105.181 0.
-27.6364 -73.5566 0.
-14.5945 -38.9559 0.
-368.955 -954.365 0.
19.0544 48.1288 0.
-19.2172 -48.5924 0.
18.9471 47.3041 0.
-206.623 -477.088 0.
30.3164 67.9405 0.
35.183 83.18 0.
14.6349 29.259 0.
1.94707 3.45029 0.
-26.1772 -66.2867 0.
-17.0668 -69.3803 0.
-27.8013 -91.6317 0.
-801.297 -1602.94 0.
13.2595 30.6604 0.
13.0347 29.7404 0.
22.6293 57.2117 0.
22.6489 55.9944 0.
14.5505 37.9077 0.
3.28679 8.37999 0.
-165.409 -435.802 0.
17.0155 45.6343 0.
-133.93 -356.457 0.
-116.729 -314.171 0.
12.3177 33.3685 0.
4.3859 11.915 0.
15.8716 43.1797 0.
-84.9913 -231.198 0.
-272.969 -746.277 0.
-8.39885 -22.9277 0.
1.00449 2.77806 0.
-169.159 -467.715 0.
11.1744 30.8472 0.
-67.8896 -188.037 0.
12.5763 34.811 0.
6.05979 16.7544 0.
4.65316 12.8882 0.
-49.3596 -136.6 0.
-5.90104 -16.3245 0.
7.53859 20.7386 0.
4.1802 11.4923 0.
1.11948 3.09967 0.
-99.7461 -274.714 0.
-0.0237237 -54.539 0.
-0.00297033 -19.0234 0.
13.6256 37.7224 0.
-4.78317 -12.783 0.
-58.1765 -161.124 0.
-0.111588 -12.2762 0.
0.561562 1.49929 0.
-0.00356494 -9.31277 0.
-231.778 -634.291 0.
-0.00756794 -2.77269 0.
1.52495 3.90593 0.
-451.695 -1105.58 0.
-0.181662 -0.485078 0.
-220.593 -552.774 0.
-38.5504 -94.5673 0.
-90.61 -233.118 0.
-113.195 -312.771 0.
-284.317 -787.5 0.
-43.6807 -105.091 0.
-22.152 -53.4147 0.
-342.058 -937.278 0.
-28.8256 -50.2173 0.
-23.262 -49.7047 0.
-297.073 -722.251 0.
0.0401664 0.0938114 0.
-279.137 -631.181 0.
0.00237844 0.0986466 0.
-248.11 -675.23 0.
0.0301817 0.0833082 0.
5.37073 14.8749 0.
9.36306 25.7816 0.
1.93862 5.27771 0.
-0.129971 -11.0696 0.
-0.480739 -1.33156 0.
-0.000331899 -42.1412 0.
-194.189 -533.105 0.
-9.67906 -26.809 0.
0.739107 2.04461 0.
-229.887 -634.088 0.
1.08243 2.99671 0.
3.43911 9.5012 0.
-89.9999 -248.953 0.
7.10286 19.6408 0.
-111.959 -310.036 0.
-8.99204 -24.8852 0.
-4.53339 -12.5507 0.
-0.01248 -61.5962 0.
-26.3131 -72.6145 0.
-8.20349 -22.6443 0.
-1.7867 -4.86521 0.
-3.02486 -8.269 0.
-278.457 -735.359 0.
-165.016 -441.282 0.
-58.7344 -159.944 0.
2.66861 7.27794 0.
-76.6053 -208.948 0.
-102.175 -272.903 0.
-83.4488 -223.435 0.
-87.9075 -227.89 0.
22.5132 56.6786 0.
25.8474 65.2239 0.
-39.1734 -97.4486 0.
4.99369 12.2799 0.
-222.179 -493.858 0.
-7.31684 -92.7851 0.
-195.769 -382.885 0.
-9.24362 -17.1406 0.
10.2047 14.8309 0.
-0.611685 -12.141 0.
48.6598 101.298 0.
-20.2456 -42.8671 0.
42.4738 97.2268 0.
-444.022 -995.288 0.
-4.48252 -104.88 0.
-233.811 -576.93 0.
3.053 7.92739 0.
-202.319 -516.607 0.
29.3823 76.8064 0.
-12.7061 -34.0587 0.
-183.484 -489.554 0.
-3.63478 -9.77253 0.
-7.51277 -20.3793 0.
-34.3627 -94.4481 0.
19.8337 53.9636 0.
-67.0355 -182.189 0.
2.93906 8.01401 0.
1.77477 4.89636 0.
-8.73322 -24.1571 0.
-78.9895 -218.449 0.
1.0323 2.85022 0.
14.1525 39.0883 0.
-9.48196 -26.2491 0.
-16.6746 -46.1017 0.
-0.242331 -60.1428 0.
2.39584 6.62978 0.
9.86402 27.2813 0.
-1.29712 -3.5788 0.
-6.91859 -19 0.
1.44806 4.00912 0.
17.3984 48.0013 0.
17.3068 47.924 0.
-0.000945428 -42.6423 0.
3.76677 10.4255 0.
9.20148 24.6788 0.
-0.0493004 -39.7199 0.
1.51012 4.07464 0.
-86.0172 -228.917 0.
4.00467 11.071 0.
1.5362 4.25293 0.
1.67663 4.56599 0.
2.01149 5.07632 0.
0.0269348 0.0723462 0.
0.209689 0.578128 0.
-7.89507 -20.6384 0.
-1.52941 -4.07487 0.
-0.940702 -2.53987 0.
-10.2402 -28.1376 0.
-2.24191 -6.2052 0.
-20.3137 -50.3812 0.
-3.28667 -8.23319 0.
-6.44745 -15.7006 0.
-15.3852 -30.5071 0.
-5.88314 -10.7674 0.
-2.02899 -3.90003 0.
0.00146366 0.0235529 0.
-0.00197003 -0.631128 0.
-0.135417 -2.89248 0.
-0.0449692 -0.124485 0.
5.62102 14.9217 0.
-180.194 -498.514 0.
-0.0228057 -17.0955 0.
-0.145705 -17.7939 0.
9.84792 26.4592 0.
-131.429 -363.948 0.
13.2252 36.6303 0.
12.6532 35.0358 0.
-150.403 -416.513 0.
-0.0205759 -53.8942 0.
19.9531 55.2262 0.
-4.97993 -13.7845 0.
2.80585 7.75386 0.
-11.4118 -31.5399 0.
-2.02795 -5.61212 0.
-23.2047 -64.2568 0.
-4.31487 -11.9379 0.
-0.0153528 -0.0425043 0.
24.6965 68.3796 0.
-16.3946 -45.2512 0.
10.6701 29.4801 0.
-237.006 -644.626 0.
-10.7536 -29.4752 0.
24.3534 65.4523 0.
-48.4331 -132.163 0.
-69.938 -190.523 0.
-274.277 -748.564 0.
-71.3356 -194.702 0.
-78.5753 -210.571 0.
-52.5785 -141.482 0.
-3.87389 -10.4853 0.
-49.177 -123.358 0.
14.9045 38.1192 0.
-84.0889 -208.369 0.
-21.5451 -52.8185 0.
-303.783 -669.215 0.
28.1127 64.561 0.
-14.5057 -34.9502 0.
5.48294 12.0791 0.
3.99387 7.6802 0.
-3.87853 -9.30222 0.
-13.9231 -85.0811 0.
8.15792 17.0344 0.
-421.05 -953.86 0.
38.3872 90.8401 0.
23.9292 59.8494 0.
-308.247 -756.643 0.
15.9916 41.3826 0.
-7.20781 -18.4319 0.
-16.6318 -43.5318 0.
-15.4483 -41.3865 0.
16.3786 44.441 0.
3.27454 8.79324 0.
-68.3187 -185.569 0.
28.1018 77.3054 0.
27.3869 74.5212 0.
28.2667 77.1769 0.
20.1993 55.0285 0.
-1.05538 -2.91014 0.
-4.8996 -13.4482 0.
18.8191 52.0559 0.
4.51369 12.4647 0.
-128.182 -354.093 0.
-42.1501 -116.697 0.
-9.12773 -25.2357 0.
5.4876 15.0386 0.
-0.0255011 -59.1674 0.
-48.2637 -133.603 0.
9.9422 27.4656 0.
15.785 43.2989 0.
-13.7391 -36.6036 0.
9.75153 26.9045 0.
11.5687 32.0431 0.
9.5426 26.3321 0.
14.48 40.0689 0.
-176.742 -474.347 0.
13.4098 37.0973 0.
-86.8451 -239.12 0.
-0.179904 -8.44919 0.
2.11193 5.84912 0.
0.0457127 2.88791 0.
2.40331 6.47868 0.
-0.0824587 -1.7902 0.
-0.00376906 -1.21528 0.
-0.00035986 -1.24218 0.
-110.513 -296.61 0.
-18.5154 -50.3426 0.
-25.4453 -67.1232 0.
-44.0563 -121.943 0.
-134.577 -372.098 0.
-40.218 -100.113 0.
-15.3517 -36.6529 0.
-121.971 -337.838 0.
-2.7979 -4.66158 0.
-138.632 -381.078 0.
-0.885593 -1.8746 0.
0.0149524 0.280852 0.
-0.00133445 -0.222941 0.
-0.342743 -5.59249 0.
-0.0242592 -5.06738 0.
-0.582566 -22.3957 0.
-8.39095 -23.2345 0.
3.47323 9.61852 0.
4.79075 12.9618 0.
0.708398 1.90352 0.
9.66892 26.6678 0.
-60.5164 -167.353 0.
16.0259 44.3854 0.
18.1804 50.2774 0.
7.32086 20.2274 0.
-14.0566 -38.897 0.
2.93126 7.98671 0.
-26.6813 -73.7521 0.
1.37485 3.802 0.
1.40369 3.88593 0.
-6.30349 -17.4547 0.
10.4877 29.0046 0.
16.1431 44.6923 0.
8.38186 23.21 0.
-227.047 -626.631 0.
-1.57245 -4.34784 0.
4.47861 12.2223 0.
27.3186 73.8234 0.
-22.4879 -60.3772 0.
-12.3496 -33.7091 0.
-101.286 -276.023 0.
-43.8896 -119.859 0.
-8.18903 -22.3198 0.
27.725 75.702 0.
-147.774 -397.534 0.
34.0448 92.1058 0.
-352.929 -882.075 0.
4.57438 11.4455 0.
-77.3735 -190.954 0.
5.09571 12.4559 0.
38.3002 90.2497 0.
41.8407 95.0629 0.
0.603971 1.43419 0.
-9.72614 -82.0813 0.
-1.88773 -12.4538 0.
2.83187 5.73842 0.
33.7821 72.2133 0.
6.7826 15.7414 0.
-193.051 -432.884 0.
-21.2468 -50.0018 0.
31.5677 78.5422 0.
11.6097 29.3911 0.
4.41482 11.3885 0.
-27.3712 -70.11 0.
30.7777 80.6926 0.
-126.815 -339.589 0.
25.3589 69.0118 0.
-19.4353 -52.1274 0.
23.9838 62.5793 0.
-0.914976 -2.51936 0.
23.6151 64.2637 0.
3.82991 10.4786 0.
15.213 41.4058 0.
-0.146663 -63.1385 0.
14.2387 39.0462 0.
-17.5951 -48.704 0.
16.0956 44.5515 0.
-31.547 -87.1609 0.
-92.9329 -257.317 0.
22.8709 63.2979 0.
17.5441 48.028 0.
3.73372 10.3301 0.
-19.3516 -53.5656 0.
20.6897 57.2129 0.
-2.18892 -5.99702 0.
3.44938 9.17549 0.
15.333 42.3045 0.
-2.48875 -6.87762 0.
-3.75824 -10.3488 0.
-9.12448 -25.2446 0.
9.77972 26.9681 0.
14.7722 40.6052 0.
-1.71539 -4.71822 0.
-0.221912 -14.4774 0.
-0.000572999 -7.36673 0.
-0.0199796 -13.1013 0.
-79.1283 -219.166 0.
1.92634 5.19969 0.
-115.494 -311.958 0.
0.726485 1.99364 0.
-32.2973 -88.9053 0.
-1.29591 -3.54974 0.
-0.568823 -1.51981 0.
-27.6094 -76.0615 0.
-0.161496 -0.447305 0.
-12.7518 -33.1491 0.
-0.00512536 -0.0141583 0.
0.0200845 0.054797 0.
0.025745 0.0484776 0.
-0.0292302 -0.060061 0.
-75.3251 -202.025 0.
0.313366 0.828252 0.
-118.973 -326.871 0.
-0.00106366 -0.100963 0.
2.10036 5.6762 0.
7.45315 19.222 0.
-17.5049 -48.3469 0.
-4.31836 -11.9589 0.
-0.944365 -39.2044 0.
-2.58107 -6.94554 0.
-3.86368 -10.6544 0.
-2.71333 -7.4565 0.
7.37389 20.4244 0.
-1.26219 -3.49173 0.
-42.1882 -116.615 0.
-11.6275 -32.1668 0.
3.20881 8.74031 0.
-33.0139 -91.2771 0.
-22.6457 -62.655 0.
-0.00976109 -62.5882 0.
-1.20778 -3.34431 0.
-8.9264 -24.6749 0.
-246.832 -683.624 0.
20.1942 55.924 0.
-115.125 -318.048 0.
-78.0854 -215.475 0.
-12.1981 -33.6252 0.
6.53602 17.6441 0.
-134.747 -361.411 0.
-6.05835 -16.5419 0.
21.8904 60.3157 0.
27.5039 75.9343 0.
0.215163 0.586387 0.
-1.02088 -2.78715 0.
-93.6527 -251.88 0.
-37.5157 -96.2149 0.
-14.3777 -35.8133 0.
-47.2118 -118.025 0.
0.784258 2.01091 0.
-152.969 -372.994 0.
1.2006 2.81083 0.
-32.8773 -73.9601 0.
26.4412 61.8726 0.
-17.26 -37.0071 0.
43.532 85.6167 0.
21.8029 42.6997 0.
11.409 24.0334 0.
-18.0832 -41.5048 0.
9.9882 23.2583 0.
32.4386 75.9295 0.
25.6269 63.446 0.
23.6983 59.4547 0.
17.0522 43.8576 0.
21.3677 56.3335 0.
-4.98085 -13.0848 0.
-99.3734 -265.981 0.
15.0105 40.9732 0.
30.7938 82.487 0.
-0.10363 -44.262 0.
-9.59743 -26.4483 0.
-218.953 -592.423 0.
5.52521 15.1461 0.
15.4443 41.9974 0.
1.11832 3.08628 0.
23.8754 65.399 0.
10.1073 27.6131 0.
3.11742 8.62778 0.
-4.20826 -11.6289 0.
-111.357 -307.595 0.
0.468795 1.29759 0.
4.2228 11.5487 0.
-149.356 -412.139 0.
-1.05878 -2.92076 0.
-0.0213882 -57.0514 0.
-10.6545 -29.3852 0.
20.3285 53.9919 0.
11.3948 31.4395 0.
-63.3045 -174.953 0.
-3.16131 -8.68339 0.
-107.634 -297.732 0.
-7.06063 -19.4608 0.
11.2804 31.0269 0.
6.37154 17.6323 0.
-0.0461862 -4.38796 0.
-52.0482 -141.944 0.
-0.0260309 -12.8995 0.
-0.00516107 -6.57557 0.
3.20487 8.52639 0.
-0.229668 -0.63546 0.
-0.0654496 -3.60577 0.
-12.8699 -35.644 0.
-5.85495 -15.91 0.
-2.35386 -6.13086 0.
-18.324 -50.2562 0.
0.0566698 0.155643 0.
-5.11356 -14.1389 0.
-0.0789553 -0.218654 0.
-0.000174237 -0.136112 0.
0.0871424 0.17354 0.
-0.0104748 -0.0225808 0.
-0.0197669 -0.0462478 0.
0.00671907 0.23141 0.
0.49993 1.38454 0.
2.24187 6.05255 0.
-45.2625 -122.508 0.
-1.79262 -4.87521 0.
-0.354593 -36.4717 0.
-7.44226 -20.6084 0.
-8.45064 -21.9171 0.
-1.99611 -5.37886 0.
13.6659 37.6771 0.
9.36181 25.7112 0.
-0.00165368 -52.6668 0.
15.8762 43.9329 0.
19.1933 53.1215 0.
-17.156 -47.4477 0.
-7.67338 -20.8948 0.
-74.8336 -206.562 0.
-110.338 -305.4 0.
23.0288 63.74 0.
-192.693 -533.583 0.
-0.0494917 -47.8264 0.
-23.8537 -66.0684 0.
-66.0933 -182.75 0.
20.3788 56.4366 0.
-17.2617 -47.585 0.
21.4585 59.0797 0.
-13.4518 -36.2795 0.
-11.1055 -30.2755 0.
-53.6512 -146.545 0.
3.41244 9.41173 0.
-1.87915 -5.1919 0.
17.6962 48.2225 0.
-115.181 -310.468 0.
-78.472 -211.017 0.
-147.647 -377.951 0.
-2.01243 -89.3052 0.
-224.816 -561.9 0.
-2.72708 -80.1725 0.
21.1863 51.5751 0.
1.59559 3.71387 0.
15.415 36.5796 0.
-171.965 -397.053 0.
-34.9868 -73.9108 0.
-66.7763 -125.863 0.
-15.6456 -75.5845 0.
17.7796 36.9341 0.
-9.51765 -22.7967 0.
21.1229 48.3868 0.
-333.093 -775.371 0.
7.15289 18.8266 0.
20.1164 50.04 0.
20.7091 53.1074 0.
-3.22028 -8.4757 0.
0.63188 1.66347 0.
30.8952 83.8351 0.
25.4349 69.6235 0.
-466.435 -1257.72 0.
7.29289 20.1103 0.
13.6973 37.7676 0.
-1.15286 -3.17197 0.
26.394 72.472 0.
-87.4657 -238.166 0.
17.9412 49.5837 0.
-0.245961 -46.7988 0.
6.42864 17.6702 0.
17.1864 47.5588 0.
8.32959 23.0715 0.
-60.1483 -166.287 0.
12.1066 33.5132 0.
-0.275831 -58.4555 0.
3.46213 9.55115 0.
-0.112955 -54.3553 0.
-7.30081 -20.1584 0.
-13.0026 -35.9035 0.
-11.1951 -29.6928 0.
7.69822 20.526 0.
3.15425 8.58231 0.
16.4736 45.1209 0.
11.1018 30.4888 0.
-2.16244 -5.90804 0.
2.0414 5.61814 0.
-0.0151644 -49.6259 0.
-0.0485385 -7.16513 0.
-7.33234 -20.0647 0.
3.83503 10.566 0.
2.32925 6.41207 0.
3.91556 10.29 0.
1.4365 3.96802 0.
1.72696 4.68482 0.
-23.6988 -61.2724 0.
-1.783 -4.33235 0.
-4.33179 -10.4349 0.
-23.6999 -65.493 0.
-7.17391 -19.7711 0.
-14.8669 -37.7049 0.
-8.30144 -22.3815 0.
-33.5289 -86.1796 0.
0.161537 0.0867666 0.
0.0621451 0.309088 0.
-31.5333 -86.2072 0.
0.774562 1.9803 0.
0.873491 2.41046 0.
-0.0118466 -1.12031 0.
12.6351 29.8456 0.
8.18468 22.0433 0.
1.3704 3.73468 0.
-39.3642 -108.989 0.
2.27445 5.84273 0.
16.1273 42.6465 0.
18.7744 51.7489 0.
-11.1057 -30.4826 0.
13.4175 36.7679 0.
16.0228 44.3505 0.
13.8387 38.2389 0.
-0.76833 -2.09124 0.
-11.7726 -32.0475 0.
2.6751 7.36163 0.
-105.815 -293.087 0.
18.7069 51.7565 0.
-4.87567 -13.5013 0.
-0.0416789 -35.102 0.
-0.0293965 -68.4612 0.
10.5758 29.2451 0.
-0.00324157 -59.1682 0.
-16.2785 -44.8231 0.
-0.736069 -2.00382 0.
16.5595 44.6253 0.
-4.35041 -11.8858 0.
5.82855 16.1407 0.
-3.37065 -9.30445 0.
23.6045 65.0898 0.
26.4493 72.0649 0.
-70.1542 -189.247 0.
6.31873 17.4488 0.
-103.727 -264.946 0.
26.6811 69.9918 0.
-171.354 -428.405 0.
34.8392 87.7205 0.
22.9422 58.337 0.
-140.171 -324.542 0.
-19.0245 -44.8625 0.
-2.74764 -6.56691 0.
-88.2373 -183.639 0.
41.0361 87.0823 0.
-374.686 -683.134 0.
-2.32779 -5.28233 0.
3.82617 9.00238 0.
-48.8284 -110.06 0.
6.5109 16.8484 0.
10.6439 27.0453 0.
-290.903 -716.08 0.
-21.2952 -54.9905 0.
-21.8114 -57.2649 0.
-163.151 -430.362 0.
21.608 58.8483 0.
10.5026 28.815 0.
-14.5402 -39.4456 0.
24.6792 68.1119 0.
-1.42373 -3.90609 0.
-39.8088 -109.82 0.
-63.1391 -173.58 0.
7.82484 21.3423 0.
-0.0291069 -54.594 0.
0.448422 1.23067 0.
-113.314 -312.7 0.
0.791785 2.19074 0.
-0.0228529 -59.0016 0.
-19.1192 -52.8887 0.
8.8753 24.5702 0.
17.2911 47.1133 0.
1.85841 5.12711 0.
-65.6607 -180.791 0.
15.0857 41.6207 0.
-7.11875 -19.7158 0.
-3.39569 -8.99468 0.
1.99987 5.32607 0.
13.0812 35.511 0.
-61.9476 -169.162 0.
-2.90208 -7.94725 0.
-0.250708 -35.6769 0.
-1.21776 -3.32003 0.
16.5783 45.8933 0.
-7.56385 -20.2878 0.
-0.499523 -11.5149 0.
-0.0351405 -14.1818 0.
-0.0486395 -9.97126 0.
-7.47343 -20.069 0.
-7.35743 -20.3576 0.
2.03445 5.33726 0.
-7.40365 -17.411 0.
-3.46166 -7.71538 0.
-6.24112 -13.9512 0.
-5.67628 -15.7079 0.
-6.48422 -17.9048 0.
-0.589609 -1.6326 0.
-0.000823623 -0.0359162 0.
0.0184662 0.0957294 0.
0.0609683 0.30769 0.
0.0987534 0.319507 0.
-0.545346 -5.06149 0.
-12.3247 -33.0214 0.
2.68511 7.4252 0.
0.0354647 3.11235 0.
9.5543 22.2975 0.
-15.9892 -42.6572 0.
15.0746 40.7004 0.
5.26502 13.4163 0.
-14.375 -36.5756 0.
-10.8649 -28.338 0.
-14.2058 -39.1436 0.
-10.2565 -28.1355 0.
5.62269 15.3697 0.
16.2559 45.006 0.
-0.0974203 -50.2216 0.
12.1342 31.4679 0.
-23.729 -64.575 0.
-12.9176 -35.4246 0.
-53.0022 -146.806 0.
1.32771 3.67191 0.
5.98677 16.5818 0.
-0.264686 -45.158 0.
-0.0270243 -64.8881 0.
2.40996 6.66415 0.
-0.0357181 -58.2469 0.
16.4961 45.3661 0.
-0.335189 -66.6906 0.
-6.26085 -16.8635 0.
21.4544 58.6875 0.
-0.0428417 -57.8711 0.
-1.13923 -3.14703 0.
-19.3451 -53.4741 0.
-13.5546 -36.9236 0.
-4.05546 -10.937 0.
24.9121 65.8757 0.
-122.041 -310.719 0.
-30.2726 -79.6413 0.
-4.0268 -10.6271 0.
-3.53751 -80.7879 0.
25.2887 64.0726 0.
17.8998 44.0507 0.
2.46959 5.79065 0.
-1.13165 -2.63623 0.
16.6431 34.9789 0.
-22.9847 -48.0723 0.
