# vtk DataFile Version 2.0
test grain
ASCII
DATASET UNSTRUCTURED_GRID
POINTS 5000 float
0.498867 0.000818997 0.
0.501194 0.0008756 0.
0.503472 0.000923737 0.
0.505722 0.000968135 0.
0.507784 0.000973019 0.
0.509846 0.000977928 0.
0.511895 0.000982446 0.
0.513923 0.000986295 0.
0.515952 0.000990158 0.
0.517967 0.000992967 0.
0.519975 0.000995225 0.
0.521983 0.000997488 0.
0.523986 0.00099822 0.
0.525987 0.000998747 0.
0.527989 0.000999237 0.
0.529991 0.000999414 0.
0.531992 0.000999591 0.
0.533994 0.00099975 0.
0.535995 0.000999875 0.
0.537996 0.001 0.
0.539996 0.00100006 0.
0.541997 0.00100007 0.
0.543997 0.00100007 0.
0.545997 0.00100005 0.
0.547998 0.00100003 0.
0.549998 0.001 0.
0.551998 0.001 0.
0.553998 0.001 0.
0.555998 0.00100001 0.
0.557999 0.00100007 0.
0.559999 0.00100012 0.
0.561999 0.00100016 0.
0.563999 0.00100018 0.
0.565999 0.0010002 0.
0.568 0.0010002 0.
0.57 0.00100018 0.
0.572 0.00100016 0.
0.574 0.00100017 0.
0.576 0.00100018 0.
0.578 0.0010002 0.
0.58 0.00100024 0.
0.582 0.00100029 0.
0.584 0.00100033 0.
0.586 0.00100034 0.
0.588 0.00100036 0.
0.59 0.00100036 0.
0.592 0.00100036 0.
0.594 0.00100036 0.
0.596 0.00100031 0.
0.598 0.00100025 0.
0.6 0.00100019 0.
0.602 0.00100024 0.
0.604 0.00100029 0.
0.606 0.00100033 0.
0.608 0.00100035 0.
0.61 0.00100037 0.
0.612 0.00100037 0.
0.614 0.00100034 0.
0.616 0.00100032 0.
0.618 0.00100028 0.
0.62 0.00100024 0.
0.622 0.00100019 0.
0.624 0.00100018 0.
0.626 0.00100016 0.
0.628 0.00100015 0.
0.63 0.00100017 0.
0.632001 0.00100019 0.
0.634001 0.00100019 0.
0.636001 0.00100015 0.
0.638001 0.00100011 0.
0.640001 0.00100007 0.
0.642002 0.00100004 0.
0.644002 0.00100001 0.
0.646002 0.001 0.
0.648002 0.001 0.
0.650002 0.001 0.
0.652003 0.00100001 0.
0.654003 0.00100002 0.
0.656004 0.00100003 0.
0.658004 0.00100002 0.
0.660005 0.00100001 0.
0.662005 0.000999932 0.
0.664006 0.00099977 0.
0.666007 0.000999609 0.
0.668009 0.000999411 0.
0.670011 0.000999195 0.
0.672013 0.000998978 0.
0.674015 0.000998264 0.
0.676017 0.000997491 0.
0.678021 0.000996404 0.
0.680034 0.000992992 0.
0.682048 0.000989591 0.
0.684072 0.000985615 0.
0.686116 0.000980543 0.
0.688159 0.000975498 0.
0.690237 0.000968386 0.
0.692336 0.000960088 0.
0.694434 0.000951862 0.
0.696754 0.000903953 0.
0.699094 0.000854919 0.
0.498227 0.00241972 0.
0.500643 0.00260822 0.
0.502999 0.00275425 0.
0.505349 0.00290073 0.
0.507496 0.00291789 0.
0.50964 0.0029329 0.
0.511755 0.00294694 0.
0.513815 0.00295857 0.
0.515874 0.00297024 0.
0.517911 0.00297878 0.
0.519933 0.00298558 0.
0.521956 0.00299239 0.
0.523963 0.00299465 0.
0.525968 0.00299623 0.
0.527973 0.00299771 0.
0.529977 0.00299824 0.
0.531981 0.00299877 0.
0.533984 0.00299925 0.
0.535987 0.00299963 0.
0.537989 0.003 0.
0.53999 0.00300018 0.
0.541991 0.0030002 0.
0.543992 0.00300022 0.
0.545993 0.00300016 0.
0.547994 0.00300008 0.
0.549995 0.003 0.
0.551995 0.003 0.
0.553995 0.00300001 0.
0.555995 0.00300004 0.
0.557996 0.0030002 0.
0.559997 0.00300035 0.
0.561997 0.00300047 0.
0.563998 0.00300054 0.
0.565998 0.00300061 0.
0.567999 0.00300059 0.
0.569999 0.00300053 0.
0.571999 0.00300047 0.
0.573999 0.0030005 0.
0.575999 0.00300053 0.
0.577999 0.00300059 0.
0.579999 0.00300073 0.
0.582 0.00300088 0.
0.584 0.00300099 0.
0.586 0.00300103 0.
0.588 0.00300107 0.
0.59 0.00300108 0.
0.592 0.00300108 0.
0.594 0.00300107 0.
0.596 0.00300092 0.
0.598 0.00300074 0.
0.6 0.00300056 0.
0.602 0.00300072 0.
0.604 0.00300087 0.
0.606 0.003001 0.
0.608 0.00300105 0.
0.61 0.00300111 0.
0.612 0.0030011 0.
0.614 0.00300102 0.
0.616 0.00300095 0.
0.618001 0.00300084 0.
0.620001 0.00300071 0.
0.622001 0.00300058 0.
0.624001 0.00300053 0.
0.626001 0.00300048 0.
0.628001 0.00300044 0.
0.630001 0.0030005 0.
0.632002 0.00300056 0.
0.634002 0.00300056 0.
0.636002 0.00300044 0.
0.638003 0.00300032 0.
0.640004 0.00300021 0.
0.642004 0.00300012 0.
0.644005 0.00300002 0.
0.646006 0.003 0.
0.648006 0.003 0.
0.650006 0.003 0.
0.652007 0.00300003 0.
0.654008 0.00300006 0.
0.656009 0.00300008 0.
0.65801 0.00300005 0.
0.660011 0.00300002 0.
0.662013 0.00299979 0.
0.664016 0.00299931 0.
0.666019 0.00299882 0.
0.668023 0.00299823 0.
0.670028 0.00299758 0.
0.672033 0.00299693 0.
0.674039 0.00299477 0.
0.676045 0.00299245 0.
0.678056 0.00298908 0.
0.680093 0.00297878 0.
0.68213 0.00296853 0.
0.684184 0.00295643 0.
0.686266 0.00294109 0.
0.688348 0.00292583 0.
0.690504 0.00290333 0.
0.692694 0.00287795 0.
0.694896 0.00284487 0.
0.697301 0.00269147 0.
0.69971 0.00254293 0.
0.497575 0.00397098 0.
0.500071 0.00431554 0.
0.502506 0.00456161 0.
0.504947 0.00481552 0.
0.507195 0.00486116 0.
0.509424 0.00488664 0.
0.511613 0.00491091 0.
0.513704 0.00493042 0.
0.515796 0.00495001 0.
0.517854 0.00496442 0.
0.519891 0.00497579 0.
0.521928 0.00498719 0.
0.52394 0.00499106 0.
0.525948 0.0049937 0.
0.527956 0.00499617 0.
0.529963 0.00499706 0.
0.531969 0.00499794 0.
0.533975 0.00499875 0.
0.535978 0.00499937 0.
0.537982 0.005 0.
0.539985 0.0050003 0.
0.541986 0.00500033 0.
0.543988 0.00500037 0.
0.545989 0.00500027 0.
0.54799 0.00500014 0.
0.549991 0.005 0.
0.551991 0.005 0.
0.553992 0.00500001 0.
0.555992 0.00500007 0.
0.557993 0.00500033 0.
0.559994 0.00500058 0.
0.561995 0.00500078 0.
0.563996 0.0050009 0.
0.565997 0.00500102 0.
0.567998 0.00500099 0.
0.569998 0.00500089 0.
0.571999 0.00500078 0.
0.573999 0.00500083 0.
0.575999 0.00500089 0.
0.577999 0.00500098 0.
0.579999 0.00500122 0.
0.581999 0.00500147 0.
0.584 0.00500165 0.
0.586 0.00500172 0.
0.588 0.00500179 0.
0.59 0.00500181 0.
0.592 0.00500179 0.
0.594 0.00500178 0.
0.596 0.00500154 0.
0.598 0.00500124 0.
0.6 0.00500094 0.
0.602 0.0050012 0.
0.604 0.00500145 0.
0.606 0.00500167 0.
0.608 0.00500176 0.
0.61 0.00500185 0.
0.612 0.00500184 0.
0.614 0.00500171 0.
0.616001 0.00500158 0.
0.618001 0.00500139 0.
0.620001 0.00500118 0.
0.622002 0.00500097 0.
0.624002 0.00500088 0.
0.626001 0.00500079 0.
0.628001 0.00500073 0.
0.630002 0.00500084 0.
0.632003 0.00500094 0.
0.634003 0.00500094 0.
0.636004 0.00500074 0.
0.638005 0.00500053 0.
0.640006 0.00500035 0.
0.642007 0.00500019 0.
0.644008 0.00500003 0.
0.646009 0.005 0.
0.64801 0.005 0.
0.65001 0.005 0.
0.652012 0.00500005 0.
0.654013 0.0050001 0.
0.656014 0.00500013 0.
0.658016 0.00500008 0.
0.660018 0.00500004 0.
0.662022 0.00499965 0.
0.664026 0.00499884 0.
0.666031 0.00499804 0.
0.668038 0.00499704 0.
0.670045 0.00499596 0.
0.672053 0.00499487 0.
0.674063 0.00499125 0.
0.676074 0.00498738 0.
0.678092 0.00498157 0.
0.680153 0.00496432 0.
0.682213 0.00494713 0.
0.684298 0.00492669 0.
0.686419 0.00490091 0.
0.68854 0.00487526 0.
0.690785 0.00483573 0.
0.69307 0.00479261 0.
0.695383 0.00471323 0.
0.697865 0.00445131 0.
0.700347 0.0041998 0.
0.49704 0.00548273 0.
0.499556 0.00590371 0.
0.502008 0.00620316 0.
0.504453 0.00649859 0.
0.506764 0.00661864 0.
0.509043 0.0067019 0.
0.511294 0.00677919 0.
0.513431 0.00681406 0.
0.51557 0.00684925 0.
0.517674 0.00688112 0.
0.519751 0.00691162 0.
0.521828 0.00694245 0.
0.523864 0.00695734 0.
0.525891 0.00696908 0.
0.527917 0.00698014 0.
0.52993 0.0069827 0.
0.531944 0.00698526 0.
0.533955 0.00698822 0.
0.535963 0.00699205 0.
0.537971 0.00699588 0.
0.539976 0.00699818 0.
0.541979 0.00699918 0.
0.543981 0.00700019 0.
0.545983 0.00700044 0.
0.547985 0.00700045 0.
0.549987 0.00700046 0.
0.551987 0.00700052 0.
0.553988 0.00700058 0.
0.555988 0.00700067 0.
0.55799 0.00700085 0.
0.559991 0.00700103 0.
0.561992 0.00700126 0.
0.563993 0.00700155 0.
0.565994 0.00700185 0.
0.567995 0.00700201 0.
0.569996 0.00700209 0.
0.571997 0.00700218 0.
0.573997 0.00700221 0.
0.575997 0.00700223 0.
0.577997 0.00700228 0.
0.579998 0.00700253 0.
0.581998 0.00700277 0.
0.583999 0.007003 0.
0.585999 0.00700319 0.
0.587999 0.00700339 0.
0.589999 0.00700342 0.
0.592 0.0070033 0.
0.594 0.00700319 0.
0.596 0.00700308 0.
0.598 0.00700298 0.
0.6 0.00700288 0.
0.602 0.00700307 0.
0.604 0.00700326 0.
0.606 0.00700342 0.
0.608001 0.00700345 0.
0.610001 0.00700348 0.
0.612001 0.00700341 0.
0.614001 0.0070032 0.
0.616002 0.007003 0.
0.618002 0.00700277 0.
0.620003 0.00700252 0.
0.622003 0.00700227 0.
0.624003 0.00700214 0.
0.626003 0.00700203 0.
0.628003 0.00700192 0.
0.630004 0.00700186 0.
0.632005 0.00700179 0.
0.634006 0.00700166 0.
0.636007 0.00700139 0.
0.638009 0.00700112 0.
0.64001 0.0070008 0.
0.642011 0.00700045 0.
0.644013 0.00700009 0.
0.646014 0.00700006 0.
0.648015 0.00700012 0.
0.650015 0.00700017 0.
0.652017 0.0070001 0.
0.654019 0.00700002 0.
0.656021 0.00699963 0.
0.658025 0.00699818 0.
0.660029 0.00699674 0.
0.662035 0.0069938 0.
0.664046 0.00698908 0.
0.666056 0.00698438 0.
0.668071 0.00698096 0.
0.670087 0.0069781 0.
0.672104 0.00697524 0.
0.67414 0.0069595 0.
0.676177 0.00694288 0.
0.678226 0.0069224 0.
0.680326 0.00688344 0.
0.682426 0.00684493 0.
0.684559 0.00680418 0.
0.686731 0.00675946 0.
0.6889 0.00671527 0.
0.691206 0.0066172 0.
0.693534 0.00651501 0.
0.695901 0.00636029 0.
0.698392 0.00606119 0.
0.700891 0.00576062 0.
0.496544 0.00699926 0.
0.499048 0.00744815 0.
0.501504 0.00781158 0.
0.503951 0.00815767 0.
0.506316 0.00835401 0.
0.508645 0.00849957 0.
0.510958 0.00864226 0.
0.513146 0.00869413 0.
0.515335 0.00874581 0.
0.51749 0.00879529 0.
0.519607 0.00884562 0.
0.521726 0.00889649 0.
0.523786 0.00892318 0.
0.525833 0.00894414 0.
0.527878 0.00896408 0.
0.529898 0.00896832 0.
0.531918 0.00897256 0.
0.533936 0.00897765 0.
0.535948 0.00898468 0.
0.53796 0.00899174 0.
0.539968 0.00899605 0.
0.541972 0.00899803 0.
0.543975 0.00900001 0.
0.545978 0.0090006 0.
0.54798 0.00900076 0.
0.549982 0.00900092 0.
0.551983 0.00900104 0.
0.553984 0.00900115 0.
0.555985 0.00900127 0.
0.557986 0.00900137 0.
0.559988 0.00900147 0.
0.561989 0.00900174 0.
0.56399 0.00900221 0.
0.565992 0.00900268 0.
0.567993 0.00900302 0.
0.569994 0.0090033 0.
0.571995 0.00900358 0.
0.573996 0.00900359 0.
0.575996 0.00900357 0.
0.577996 0.00900359 0.
0.579996 0.00900383 0.
0.581997 0.00900407 0.
0.583997 0.00900435 0.
0.585998 0.00900467 0.
0.587998 0.009005 0.
0.589999 0.00900502 0.
0.591999 0.00900481 0.
0.594 0.0090046 0.
0.596 0.00900463 0.
0.598 0.00900472 0.
0.6 0.00900481 0.
0.602001 0.00900494 0.
0.604001 0.00900507 0.
0.606001 0.00900517 0.
0.608001 0.00900514 0.
0.610001 0.00900512 0.
0.612002 0.00900498 0.
0.614002 0.0090047 0.
0.616003 0.00900442 0.
0.618004 0.00900414 0.
0.620004 0.00900386 0.
0.622005 0.00900357 0.
0.624005 0.00900341 0.
0.626005 0.00900327 0.
0.628005 0.00900311 0.
0.630007 0.00900288 0.
0.632008 0.00900264 0.
0.634009 0.00900237 0.
0.636011 0.00900204 0.
0.638012 0.00900171 0.
0.640014 0.00900125 0.
0.642015 0.00900071 0.
0.644017 0.00900016 0.
0.646018 0.00900012 0.
0.648019 0.00900023 0.
0.65002 0.00900034 0.
0.652023 0.00900014 0.
0.654026 0.00899994 0.
0.656029 0.00899912 0.
0.658034 0.00899627 0.
0.660039 0.00899342 0.
0.662049 0.0089879 0.
0.664065 0.00897928 0.
0.666081 0.00897067 0.
0.668104 0.00896485 0.
0.67013 0.00896019 0.
0.672156 0.00895555 0.
0.674218 0.00892713 0.
0.676282 0.00889753 0.
0.678363 0.00886148 0.
0.680505 0.00880002 0.
0.682645 0.00873928 0.
0.684833 0.00867732 0.
0.687058 0.00861225 0.
0.689286 0.00854365 0.
0.691645 0.00837689 0.
0.694015 0.00820967 0.
0.696427 0.00797822 0.
0.698921 0.00763581 0.
0.701426 0.00729481 0.
0.496092 0.00853083 0.
0.498584 0.00899776 0.
0.501048 0.00941386 0.
0.503509 0.00980051 0.
0.505917 0.0100627 0.
0.50829 0.0102643 0.
0.510648 0.0104629 0.
0.512881 0.0105399 0.
0.51511 0.0106116 0.
0.517305 0.0106822 0.
0.519453 0.0107535 0.
0.521602 0.0108255 0.
0.523688 0.0108694 0.
0.525758 0.0109056 0.
0.527826 0.0109408 0.
0.529854 0.010947 0.
0.531882 0.0109532 0.
0.533907 0.0109609 0.
0.535924 0.0109719 0.
0.537942 0.0109829 0.
0.539953 0.01099 0.
0.54196 0.0109937 0.
0.543966 0.0109974 0.
0.54597 0.0109987 0.
0.547973 0.0109994 0.
0.549977 0.0110001 0.
0.551978 0.0110004 0.
0.553979 0.0110008 0.
0.555981 0.011001 0.
0.557982 0.0110012 0.
0.559984 0.0110013 0.
0.561986 0.0110016 0.
0.563987 0.011002 0.
0.565989 0.0110025 0.
0.56799 0.0110029 0.
0.569992 0.0110033 0.
0.571993 0.0110037 0.
0.573994 0.0110039 0.
0.575994 0.011004 0.
0.577994 0.0110041 0.
0.579995 0.0110044 0.
0.581996 0.0110047 0.
0.583997 0.011005 0.
0.585997 0.0110054 0.
0.587998 0.0110058 0.
0.589998 0.0110058 0.
0.591999 0.0110056 0.
0.593999 0.0110054 0.
0.596 0.0110055 0.
0.598 0.0110057 0.
0.6 0.0110059 0.
0.602001 0.011006 0.
0.604001 0.0110061 0.
0.606001 0.0110061 0.
0.608002 0.011006 0.
0.610002 0.0110059 0.
0.612003 0.0110057 0.
0.614003 0.0110053 0.
0.616004 0.011005 0.
0.618005 0.0110046 0.
0.620006 0.0110044 0.
0.622007 0.0110041 0.
0.624007 0.0110038 0.
0.626007 0.0110035 0.
0.628008 0.0110032 0.
0.630009 0.0110029 0.
0.632011 0.0110025 0.
0.634013 0.0110022 0.
0.636014 0.0110018 0.
0.638016 0.0110015 0.
0.640018 0.0110009 0.
0.64202 0.0110002 0.
0.644021 0.0109995 0.
0.646023 0.0109993 0.
0.648025 0.0109992 0.
0.650027 0.0109991 0.
0.65203 0.0109982 0.
0.654034 0.0109973 0.
0.656039 0.0109954 0.
0.658048 0.0109903 0.
0.660057 0.0109853 0.
0.662072 0.0109763 0.
0.664095 0.0109628 0.
0.666117 0.0109495 0.
0.66815 0.0109406 0.
0.670186 0.0109336 0.
0.672222 0.0109266 0.
0.674313 0.0108778 0.
0.676405 0.0108282 0.
0.678515 0.0107716 0.
0.680687 0.0106893 0.
0.682858 0.0106077 0.
0.685089 0.0105208 0.
0.687357 0.0104317 0.
0.689636 0.0103306 0.
0.692038 0.0101081 0.
0.694451 0.00988352 0.
0.6969 0.00958676 0.
0.699405 0.00920799 0.
0.701917 0.00884117 0.
0.495826 0.010122 0.
0.498318 0.010582 0.
0.500787 0.0110168 0.
0.503249 0.0114207 0.
0.505662 0.0117278 0.
0.508036 0.0119716 0.
0.510399 0.0122131 0.
0.512655 0.012327 0.
0.514902 0.0124315 0.
0.517119 0.0125344 0.
0.519285 0.0126293 0.
0.521452 0.0127254 0.
0.523567 0.0127929 0.
0.525665 0.0128517 0.
0.527762 0.0129099 0.
0.529798 0.0129185 0.
0.531834 0.0129271 0.
0.533867 0.0129376 0.
0.535891 0.0129535 0.
0.537916 0.0129693 0.
0.539933 0.0129801 0.
0.541944 0.0129861 0.
0.543954 0.0129922 0.
0.545961 0.0129949 0.
0.547965 0.0129964 0.
0.54997 0.012998 0.
0.551972 0.0129987 0.
0.553974 0.0129994 0.
0.555976 0.013 0.
0.557978 0.0130002 0.
0.55998 0.0130005 0.
0.561982 0.0130008 0.
0.563984 0.0130011 0.
0.565986 0.0130014 0.
0.567988 0.0130017 0.
0.569989 0.0130022 0.
0.571991 0.0130026 0.
0.573992 0.0130031 0.
0.575992 0.0130035 0.
0.577993 0.013004 0.
0.579994 0.0130042 0.
0.581995 0.0130045 0.
0.583996 0.0130049 0.
0.585996 0.0130053 0.
0.587997 0.0130057 0.
0.589998 0.0130058 0.
0.591999 0.0130057 0.
0.593999 0.0130055 0.
0.596 0.0130057 0.
0.598 0.0130059 0.
0.6 0.0130061 0.
0.602001 0.0130062 0.
0.604001 0.0130063 0.
0.606001 0.0130063 0.
0.608002 0.0130061 0.
0.610002 0.013006 0.
0.612003 0.0130056 0.
0.614004 0.0130051 0.
0.616005 0.0130046 0.
0.618006 0.0130043 0.
0.620007 0.0130041 0.
0.622008 0.0130039 0.
0.624009 0.0130034 0.
0.62601 0.0130028 0.
0.628011 0.0130023 0.
0.630012 0.0130019 0.
0.632014 0.0130015 0.
0.634016 0.0130011 0.
0.636018 0.0130008 0.
0.63802 0.0130004 0.
0.640022 0.0129999 0.
0.642024 0.0129991 0.
0.644026 0.0129983 0.
0.646029 0.0129976 0.
0.648031 0.012997 0.
0.650034 0.0129963 0.
0.65204 0.0129942 0.
0.654046 0.012992 0.
0.656053 0.0129884 0.
0.658068 0.0129803 0.
0.660082 0.0129722 0.
0.662104 0.0129588 0.
0.664135 0.0129396 0.
0.666166 0.0129204 0.
0.668209 0.0129079 0.
0.670257 0.0128979 0.
0.672305 0.0128871 0.
0.674426 0.0128088 0.
0.676548 0.0127303 0.
0.678686 0.0126471 0.
0.680874 0.0125435 0.
0.68306 0.0124411 0.
0.685314 0.0123154 0.
0.687597 0.0121859 0.
0.689895 0.012041 0.
0.692297 0.0117784 0.
0.694709 0.0115137 0.
0.697165 0.0111835 0.
0.699678 0.0107927 0.
0.702205 0.0104242 0.
0.495613 0.0117369 0.
0.498084 0.0121745 0.
0.50054 0.0126179 0.
0.502992 0.0130381 0.
0.505405 0.0133881 0.
0.507781 0.0136744 0.
0.510149 0.0139592 0.
0.512427 0.0141095 0.
0.514692 0.0142472 0.
0.516932 0.0143847 0.
0.519115 0.0145035 0.
0.5213 0.0146237 0.
0.523443 0.0147148 0.
0.52557 0.0147966 0.
0.527696 0.0148782 0.
0.529742 0.0148899 0.
0.531786 0.0149008 0.
0.533827 0.0149143 0.
0.535859 0.014935 0.
0.53789 0.0149557 0.
0.539913 0.0149701 0.
0.541928 0.0149785 0.
0.543942 0.014987 0.
0.545951 0.014991 0.
0.547957 0.0149934 0.
0.549964 0.0149959 0.
0.551967 0.014997 0.
0.553969 0.014998 0.
0.555972 0.0149989 0.
0.557974 0.0149993 0.
0.559977 0.0149997 0.
0.561979 0.015 0.
0.563981 0.0150001 0.
0.565983 0.0150002 0.
0.567985 0.0150005 0.
0.569987 0.015001 0.
0.571989 0.0150015 0.
0.57399 0.0150022 0.
0.575991 0.015003 0.
0.577992 0.0150038 0.
0.579993 0.0150041 0.
0.581994 0.0150044 0.
0.583995 0.0150048 0.
0.585996 0.0150052 0.
0.587997 0.0150057 0.
0.589998 0.0150058 0.
0.591998 0.0150057 0.
0.593999 0.0150056 0.
0.596 0.0150058 0.
0.598 0.0150061 0.
0.6 0.0150064 0.
0.602001 0.0150064 0.
0.604001 0.0150064 0.
0.606001 0.0150064 0.
0.608002 0.0150062 0.
0.610003 0.015006 0.
0.612004 0.0150056 0.
0.614005 0.0150049 0.
0.616006 0.0150043 0.
0.618007 0.015004 0.
0.620009 0.0150038 0.
0.62201 0.0150037 0.
0.624011 0.0150029 0.
0.626012 0.0150021 0.
0.628013 0.0150013 0.
0.630015 0.0150008 0.
0.632017 0.0150004 0.
0.634019 0.015 0.
0.636021 0.0149997 0.
0.638023 0.0149994 0.
0.640026 0.0149988 0.
0.642029 0.0149979 0.
0.644031 0.014997 0.
0.646034 0.0149959 0.
0.648038 0.0149948 0.
0.650041 0.0149936 0.
0.652049 0.0149902 0.
0.654057 0.0149868 0.
0.656068 0.0149814 0.
0.658087 0.0149702 0.
0.660107 0.0149591 0.
0.662136 0.0149412 0.
0.664176 0.0149162 0.
0.666215 0.0148912 0.
0.668269 0.0148751 0.
0.670328 0.014862 0.
0.67239 0.0148462 0.
0.674542 0.0147379 0.
0.676693 0.0146302 0.
0.678859 0.014521 0.
0.681062 0.0143963 0.
0.683264 0.0142728 0.
0.68554 0.0141044 0.
0.687838 0.0139344 0.
0.690155 0.0137472 0.
0.692557 0.0134443 0.
0.694967 0.0131384 0.
0.697421 0.0127775 0.
0.699924 0.0123776 0.
0.702443 0.0120143 0.
0.495463 0.013387 0.
0.49791 0.0138012 0.
0.500347 0.0142456 0.
0.502781 0.0146786 0.
0.505187 0.0150567 0.
0.507557 0.0153713 0.
0.509918 0.0156814 0.
0.512206 0.0158666 0.
0.514477 0.0160358 0.
0.516728 0.016204 0.
0.518921 0.0163339 0.
0.521116 0.0164646 0.
0.523276 0.0165761 0.
0.525419 0.0166827 0.
0.527562 0.01679 0.
0.529632 0.0168181 0.
0.531699 0.0168431 0.
0.533759 0.0168687 0.
0.5358 0.0168952 0.
0.537842 0.0169218 0.
0.539873 0.0169419 0.
0.541896 0.0169559 0.
0.543919 0.0169699 0.
0.545932 0.0169776 0.
0.547943 0.0169832 0.
0.549953 0.0169888 0.
0.551957 0.016991 0.
0.553962 0.0169932 0.
0.555966 0.0169951 0.
0.557969 0.0169963 0.
0.559972 0.0169976 0.
0.561975 0.0169984 0.
0.563978 0.0169989 0.
0.56598 0.0169994 0.
0.567982 0.0169999 0.
0.569985 0.0170004 0.
0.571987 0.0170009 0.
0.573988 0.0170018 0.
0.575989 0.0170028 0.
0.57799 0.0170038 0.
0.579991 0.0170041 0.
0.581993 0.0170044 0.
0.583994 0.0170049 0.
0.585995 0.0170055 0.
0.587996 0.0170061 0.
0.589997 0.0170062 0.
0.591998 0.0170061 0.
0.593999 0.0170059 0.
0.595999 0.0170063 0.
0.598 0.0170069 0.
0.6 0.0170074 0.
0.602001 0.0170072 0.
0.604001 0.0170071 0.
0.606002 0.0170069 0.
0.608003 0.0170066 0.
0.610004 0.0170063 0.
0.612005 0.0170058 0.
0.614006 0.0170051 0.
0.616008 0.0170044 0.
0.618009 0.017004 0.
0.620011 0.0170037 0.
0.622012 0.0170033 0.
0.624013 0.0170024 0.
0.626014 0.0170015 0.
0.628016 0.0170006 0.
0.630018 0.017 0.
0.63202 0.0169993 0.
0.634022 0.0169987 0.
0.636025 0.016998 0.
0.638028 0.0169973 0.
0.640031 0.016996 0.
0.642035 0.0169943 0.
0.644039 0.0169926 0.
0.646044 0.0169901 0.
0.648049 0.0169873 0.
0.650055 0.0169844 0.
0.652068 0.0169773 0.
0.654081 0.0169701 0.
0.656098 0.0169601 0.
0.658127 0.0169421 0.
0.660156 0.0169241 0.
0.662195 0.0168999 0.
0.664244 0.0168693 0.
0.666293 0.0168388 0.
0.66837 0.0168069 0.
0.670454 0.0167749 0.
0.672544 0.016737 0.
0.674709 0.0166051 0.
0.676874 0.016474 0.
0.679056 0.0163451 0.
0.681268 0.0162075 0.
0.68348 0.0160704 0.
0.685764 0.0158692 0.
0.688066 0.015666 0.
0.690389 0.0154427 0.
0.692778 0.0151149 0.
0.695178 0.0147812 0.
0.697618 0.0144023 0.
0.700103 0.0139965 0.
0.702608 0.0136406 0.
0.495374 0.0150752 0.
0.497792 0.0154624 0.
0.5002 0.015899 0.
0.502606 0.016332 0.
0.50499 0.0167214 0.
0.507344 0.0170594 0.
0.509691 0.0173919 0.
0.511982 0.017612 0.
0.514256 0.0178127 0.
0.516516 0.0180131 0.
0.51872 0.0181553 0.
0.520925 0.0182975 0.
0.523102 0.0184296 0.
0.525262 0.0185629 0.
0.527423 0.0186974 0.
0.529518 0.0187439 0.
0.531608 0.0187838 0.
0.53369 0.0188223 0.
0.535741 0.0188549 0.
0.537792 0.0188875 0.
0.539833 0.0189136 0.
0.541864 0.0189331 0.
0.543895 0.0189527 0.
0.545914 0.0189642 0.
0.547928 0.0189729 0.
0.549942 0.0189817 0.
0.551948 0.0189851 0.
0.553954 0.0189884 0.
0.555959 0.0189914 0.
0.557964 0.0189934 0.
0.559968 0.0189954 0.
0.561972 0.0189969 0.
0.563975 0.0189977 0.
0.565977 0.0189986 0.
0.56798 0.0189992 0.
0.569982 0.0189997 0.
0.571984 0.0190003 0.
0.573986 0.0190014 0.
0.575987 0.0190026 0.
0.577988 0.0190038 0.
0.579989 0.0190041 0.
0.581991 0.0190045 0.
0.583993 0.0190049 0.
0.585994 0.0190057 0.
0.587996 0.0190065 0.
0.589997 0.0190067 0.
0.591998 0.0190064 0.
0.593999 0.0190062 0.
0.595999 0.0190068 0.
0.598 0.0190076 0.
0.6 0.0190085 0.
0.602001 0.0190081 0.
0.604002 0.0190077 0.
0.606002 0.0190073 0.
0.608004 0.019007 0.
0.610005 0.0190066 0.
0.612006 0.0190061 0.
0.614008 0.0190054 0.
0.616009 0.0190046 0.
0.618011 0.019004 0.
0.620013 0.0190035 0.
0.622014 0.0190029 0.
0.624016 0.0190019 0.
0.626017 0.0190009 0.
0.628018 0.0189999 0.
0.63002 0.0189991 0.
0.632023 0.0189983 0.
0.634025 0.0189973 0.
0.636029 0.0189962 0.
0.638032 0.0189951 0.
0.640036 0.0189933 0.
0.642041 0.0189908 0.
0.644046 0.0189883 0.
0.646053 0.0189843 0.
0.648061 0.0189799 0.
0.650068 0.0189752 0.
0.652087 0.0189643 0.
0.654105 0.0189533 0.
0.656128 0.0189386 0.
0.658167 0.0189136 0.
0.660205 0.0188886 0.
0.662255 0.0188581 0.
0.664314 0.0188218 0.
0.666374 0.0187856 0.
0.668475 0.018736 0.
0.670586 0.018684 0.
0.672702 0.0186222 0.
0.674883 0.018465 0.
0.677062 0.0183091 0.
0.67926 0.0181592 0.
0.681483 0.018006 0.
0.683707 0.01785 0.
0.685994 0.0176195 0.
0.688294 0.0173873 0.
0.690616 0.0171327 0.
0.692986 0.0167871 0.
0.695364 0.0164353 0.
0.697773 0.0160519 0.
0.700218 0.015652 0.
0.702688 0.0153084 0.
0.495304 0.0167842 0.
0.497687 0.0171404 0.
0.500063 0.0175631 0.
0.502439 0.0179925 0.
0.504803 0.0183912 0.
0.507143 0.0187499 0.
0.509477 0.0191029 0.
0.511772 0.0193558 0.
0.51405 0.0195872 0.
0.516317 0.0198181 0.
0.518533 0.0199737 0.
0.52075 0.0201254 0.
0.522943 0.0202747 0.
0.525117 0.0204306 0.
0.527291 0.020587 0.
0.529406 0.0206543 0.
0.531515 0.0207123 0.
0.533615 0.0207674 0.
0.535676 0.0208059 0.
0.537737 0.0208446 0.
0.539787 0.020877 0.
0.541827 0.0209032 0.
0.543866 0.0209295 0.
0.54589 0.0209459 0.
0.547909 0.0209586 0.
0.549928 0.0209714 0.
0.551936 0.0209766 0.
0.553944 0.0209816 0.
0.555951 0.0209862 0.
0.557957 0.0209892 0.
0.559963 0.0209921 0.
0.561967 0.0209944 0.
0.563971 0.0209957 0.
0.565974 0.0209969 0.
0.567977 0.0209978 0.
0.569979 0.0209986 0.
0.571982 0.0209993 0.
0.573983 0.0210005 0.
0.575985 0.0210018 0.
0.577986 0.0210031 0.
0.579988 0.0210035 0.
0.58199 0.0210039 0.
0.583991 0.0210044 0.
0.585993 0.0210053 0.
0.587995 0.0210061 0.
0.589996 0.0210065 0.
0.591997 0.0210064 0.
0.593998 0.0210063 0.
0.595999 0.0210069 0.
0.598 0.0210078 0.
0.6 0.0210087 0.
0.602001 0.0210082 0.
0.604002 0.0210078 0.
0.606003 0.0210073 0.
0.608004 0.0210068 0.
0.610006 0.0210063 0.
0.612007 0.0210057 0.
0.614009 0.0210049 0.
0.616011 0.0210041 0.
0.618013 0.0210034 0.
0.620015 0.0210027 0.
0.622017 0.0210021 0.
0.624018 0.021001 0.
0.626019 0.0209998 0.
0.62802 0.0209987 0.
0.630023 0.0209976 0.
0.632026 0.0209965 0.
0.634029 0.0209952 0.
0.636033 0.0209937 0.
0.638037 0.0209921 0.
0.640042 0.0209894 0.
0.642049 0.0209857 0.
0.644055 0.0209821 0.
0.646065 0.020976 0.
0.648075 0.0209693 0.
0.650086 0.0209622 0.
0.65211 0.0209464 0.
0.654134 0.0209306 0.
0.656164 0.0209101 0.
0.658212 0.0208771 0.
0.66026 0.0208443 0.
0.662319 0.0208073 0.
0.664388 0.0207657 0.
0.666458 0.0207242 0.
0.668579 0.0206526 0.
0.670711 0.020577 0.
0.672849 0.0204899 0.
0.675042 0.0203138 0.
0.677234 0.0201379 0.
0.679448 0.0199699 0.
0.681684 0.0198023 0.
0.683921 0.0196275 0.
0.686211 0.019369 0.
0.688509 0.019109 0.
0.69083 0.0188249 0.
0.693183 0.0184629 0.
0.695542 0.0180952 0.
0.697921 0.0177104 0.
0.700326 0.0173201 0.
0.702754 0.0169935 0.
0.495247 0.0185324 0.
0.497606 0.0188571 0.
0.499963 0.019263 0.
0.502323 0.0196867 0.
0.504675 0.0200898 0.
0.507008 0.0204613 0.
0.509333 0.0208258 0.
0.511626 0.0211008 0.
0.513904 0.0213505 0.
0.516173 0.0215974 0.
0.518395 0.0217697 0.
0.520614 0.0219371 0.
0.522814 0.022104 0.
0.524993 0.0222765 0.
0.527172 0.0224497 0.
0.529299 0.022542 0.
0.531419 0.0226242 0.
0.533531 0.0227017 0.
0.535602 0.0227466 0.
0.537674 0.0227916 0.
0.539735 0.0228313 0.
0.541783 0.0228655 0.
0.543831 0.0228999 0.
0.545862 0.0229223 0.
0.547886 0.0229401 0.
0.54991 0.0229579 0.
0.551921 0.0229656 0.
0.553932 0.0229729 0.
0.555942 0.0229795 0.
0.557949 0.0229837 0.
0.559957 0.0229878 0.
0.561962 0.0229909 0.
0.563966 0.0229927 0.
0.56597 0.0229945 0.
0.567974 0.0229958 0.
0.569977 0.0229969 0.
0.57198 0.022998 0.
0.573981 0.0229992 0.
0.575982 0.0230004 0.
0.577984 0.0230016 0.
0.579986 0.0230021 0.
0.581988 0.0230027 0.
0.58399 0.0230034 0.
0.585992 0.0230042 0.
0.587994 0.023005 0.
0.589995 0.0230056 0.
0.591996 0.0230059 0.
0.593998 0.0230061 0.
0.595999 0.0230067 0.
0.598 0.0230074 0.
0.6 0.023008 0.
0.602002 0.0230077 0.
0.604003 0.0230074 0.
0.606004 0.023007 0.
0.608005 0.0230062 0.
0.610007 0.0230054 0.
0.612008 0.0230046 0.
0.61401 0.0230037 0.
0.616012 0.0230028 0.
0.618014 0.0230021 0.
0.620016 0.0230014 0.
0.622018 0.0230008 0.
0.62402 0.0229996 0.
0.626021 0.0229983 0.
0.628023 0.022997 0.
0.630026 0.0229955 0.
0.632029 0.022994 0.
0.634033 0.0229923 0.
0.636038 0.0229902 0.
0.638043 0.0229881 0.
0.640049 0.0229843 0.
0.642058 0.0229792 0.
0.644066 0.0229741 0.
0.646079 0.0229653 0.
0.648093 0.0229555 0.
0.650108 0.0229452 0.
0.652138 0.0229233 0.
0.654169 0.0229015 0.
0.656207 0.0228738 0.
0.658264 0.0228317 0.
0.66032 0.0227898 0.
0.662389 0.0227459 0.
0.664469 0.022699 0.
0.666548 0.0226521 0.
0.668683 0.0225508 0.
0.670826 0.0224442 0.
0.672976 0.0223281 0.
0.675173 0.0221394 0.
0.677369 0.021951 0.
0.679588 0.021766 0.
0.681828 0.0215814 0.
0.68407 0.021388 0.
0.68636 0.0211142 0.
0.688657 0.0208377 0.
0.690974 0.0205354 0.
0.693317 0.0201644 0.
0.695666 0.0197868 0.
0.698027 0.0194028 0.
0.70041 0.0190235 0.
0.70281 0.0187155 0.
0.495243 0.0203125 0.
0.497575 0.0206041 0.
0.499909 0.0209877 0.
0.502246 0.0214009 0.
0.504575 0.0218027 0.
0.50689 0.0221793 0.
0.509199 0.0225505 0.
0.511486 0.0228443 0.
0.513761 0.023111 0.
0.51603 0.0233749 0.
0.518256 0.0235644 0.
0.520479 0.0237474 0.
0.522684 0.0239322 0.
0.524868 0.0241215 0.
0.527052 0.0243116 0.
0.529191 0.0244282 0.
0.531322 0.0245348 0.
0.533447 0.0246358 0.
0.535528 0.0246871 0.
0.537611 0.0247385 0.
0.539681 0.0247854 0.
0.541738 0.0248277 0.
0.543795 0.0248702 0.
0.545833 0.0248987 0.
0.547862 0.0249215 0.
0.549892 0.0249444 0.
0.551907 0.0249545 0.
0.55392 0.0249641 0.
0.555933 0.0249728 0.
0.557942 0.0249782 0.
0.55995 0.0249835 0.
0.561957 0.0249875 0.
0.563962 0.0249897 0.
0.565967 0.024992 0.
0.56797 0.0249937 0.
0.569974 0.0249952 0.
0.571977 0.0249967 0.
0.573979 0.0249979 0.
0.57598 0.024999 0.
0.577982 0.0250001 0.
0.579984 0.0250008 0.
0.581987 0.0250015 0.
0.583989 0.0250023 0.
0.585991 0.0250031 0.
0.587993 0.025004 0.
0.589994 0.0250047 0.
0.591996 0.0250053 0.
0.593997 0.025006 0.
0.595998 0.0250065 0.
0.597999 0.0250069 0.
0.6 0.0250074 0.
0.602002 0.0250072 0.
0.604003 0.025007 0.
0.606005 0.0250066 0.
0.608006 0.0250055 0.
0.610008 0.0250045 0.
0.612009 0.0250035 0.
0.614012 0.0250025 0.
0.616014 0.0250015 0.
0.618016 0.0250007 0.
0.620018 0.0250001 0.
0.62202 0.0249995 0.
0.624022 0.0249981 0.
0.626024 0.0249967 0.
0.628025 0.0249952 0.
0.630029 0.0249933 0.
0.632033 0.0249914 0.
0.634038 0.0249893 0.
0.636043 0.0249867 0.
0.638048 0.0249842 0.
0.640057 0.0249793 0.
0.642067 0.0249727 0.
0.644077 0.0249661 0.
0.646094 0.0249545 0.
0.648111 0.0249416 0.
0.65013 0.0249282 0.
0.652167 0.0249002 0.
0.654204 0.0248723 0.
0.656249 0.0248373 0.
0.658315 0.024786 0.
0.660381 0.024735 0.
0.66246 0.0246844 0.
0.66455 0.0246321 0.
0.666639 0.0245799 0.
0.668788 0.0244471 0.
0.670942 0.0243092 0.
0.673104 0.0241657 0.
0.675304 0.0239643 0.
0.677503 0.0237634 0.
0.679729 0.0235606 0.
0.681971 0.0233586 0.
0.684217 0.0231464 0.
0.686504 0.0228573 0.
0.688795 0.0225663 0.
0.691101 0.0222499 0.
0.693423 0.0218767 0.
0.69575 0.0214983 0.
0.698088 0.021121 0.
0.700446 0.020756 0.
0.702816 0.0204669 0.
0.495287 0.022113 0.
0.497587 0.0223718 0.
0.499893 0.0227333 0.
0.502202 0.0231366 0.
0.504505 0.0235349 0.
0.506801 0.0239149 0.
0.509092 0.0242906 0.
0.511369 0.0245995 0.
0.513638 0.0248789 0.
0.515901 0.025155 0.
0.518126 0.02536 0.
0.520347 0.0255574 0.
0.522553 0.0257562 0.
0.524738 0.0259549 0.
0.526922 0.0261538 0.
0.52907 0.0262919 0.
0.53121 0.0264216 0.
0.533346 0.0265462 0.
0.535437 0.0266032 0.
0.537528 0.0266605 0.
0.539609 0.0267148 0.
0.541674 0.0267669 0.
0.54374 0.0268193 0.
0.545786 0.0268563 0.
0.547824 0.0268865 0.
0.549862 0.0269168 0.
0.551881 0.0269317 0.
0.5539 0.0269458 0.
0.555917 0.0269587 0.
0.557929 0.0269663 0.
0.55994 0.0269739 0.
0.56195 0.0269799 0.
0.563956 0.0269837 0.
0.565962 0.0269875 0.
0.567967 0.0269902 0.
0.569971 0.0269923 0.
0.571975 0.0269944 0.
0.573977 0.0269958 0.
0.575978 0.0269972 0.
0.57798 0.0269985 0.
0.579983 0.0269993 0.
0.581985 0.0270002 0.
0.583987 0.0270011 0.
0.58599 0.0270021 0.
0.587992 0.0270031 0.
0.589994 0.027004 0.
0.591995 0.0270047 0.
0.593997 0.0270054 0.
0.595998 0.027006 0.
0.597999 0.0270066 0.
0.6 0.0270072 0.
0.602002 0.0270068 0.
0.604004 0.0270063 0.
0.606005 0.0270057 0.
0.608007 0.0270047 0.
0.610009 0.0270037 0.
0.612011 0.0270026 0.
0.614013 0.0270014 0.
0.616015 0.0270003 0.
0.618018 0.0269993 0.
0.62002 0.0269984 0.
0.622023 0.0269975 0.
0.624025 0.0269959 0.
0.626026 0.0269942 0.
0.628029 0.0269923 0.
0.630033 0.0269898 0.
0.632038 0.0269872 0.
0.634043 0.0269839 0.
0.636051 0.0269793 0.
0.638058 0.0269748 0.
0.640069 0.0269675 0.
0.642083 0.0269583 0.
0.644097 0.0269491 0.
0.646119 0.0269324 0.
0.648142 0.0269141 0.
0.650166 0.0268948 0.
0.652212 0.0268584 0.
0.654257 0.0268222 0.
0.656311 0.0267782 0.
0.658386 0.0267172 0.
0.660461 0.0266566 0.
0.662552 0.0265961 0.
0.664654 0.0265342 0.
0.666755 0.0264722 0.
0.668911 0.0263165 0.
0.671071 0.0261562 0.
0.673239 0.0259928 0.
0.675437 0.025784 0.
0.677635 0.0255753 0.
0.679861 0.0253577 0.
0.682101 0.0251404 0.
0.684345 0.0249121 0.
0.686624 0.0246121 0.
0.688906 0.0243096 0.
0.691197 0.0239818 0.
0.693497 0.0236076 0.
0.695801 0.0232302 0.
0.698112 0.0228619 0.
0.700439 0.0225121 0.
0.702773 0.0222421 0.
0.495367 0.0239474 0.
0.49763 0.0241801 0.
0.499902 0.0245174 0.
0.50218 0.0249044 0.
0.504457 0.0252925 0.
0.506732 0.0256728 0.
0.509004 0.0260486 0.
0.511267 0.0263645 0.
0.513523 0.0266506 0.
0.515773 0.026935 0.
0.517995 0.0271539 0.
0.520212 0.0273643 0.
0.522418 0.027576 0.
0.524603 0.027783 0.
0.526788 0.0279902 0.
0.528945 0.028149 0.
0.531095 0.0283027 0.
0.533242 0.0284524 0.
0.535343 0.0285163 0.
0.537444 0.02858 0.
0.539534 0.0286421 0.
0.541609 0.0287045 0.
0.543684 0.0287672 0.
0.545739 0.0288131 0.
0.547785 0.0288509 0.
0.549831 0.0288889 0.
0.551855 0.0289087 0.
0.553879 0.0289274 0.
0.555901 0.0289445 0.
0.557916 0.0289544 0.
0.55993 0.0289642 0.
0.561942 0.0289722 0.
0.56395 0.0289776 0.
0.565958 0.0289829 0.
0.567963 0.0289866 0.
0.569968 0.0289893 0.
0.571972 0.0289921 0.
0.573974 0.0289938 0.
0.575976 0.0289953 0.
0.577978 0.0289968 0.
0.579981 0.0289978 0.
0.581983 0.0289988 0.
0.583986 0.0289999 0.
0.585988 0.0290011 0.
0.587991 0.0290022 0.
0.589993 0.0290032 0.
0.591995 0.029004 0.
0.593996 0.0290048 0.
0.595998 0.0290056 0.
0.597999 0.0290063 0.
0.6 0.0290071 0.
0.602002 0.0290064 0.
0.604004 0.0290057 0.
0.606006 0.0290049 0.
0.608008 0.0290039 0.
0.61001 0.0290029 0.
0.612012 0.0290017 0.
0.614014 0.0290004 0.
0.616017 0.028999 0.
0.618019 0.0289978 0.
0.620022 0.0289967 0.
0.622025 0.0289955 0.
0.624027 0.0289936 0.
0.626029 0.0289916 0.
0.628032 0.0289895 0.
0.630037 0.0289862 0.
0.632042 0.0289829 0.
0.634049 0.0289784 0.
0.636058 0.0289719 0.
0.638068 0.0289654 0.
0.640082 0.0289557 0.
0.6421 0.0289438 0.
0.644117 0.028932 0.
0.646144 0.0289102 0.
0.648173 0.0288862 0.
0.650203 0.028861 0.
0.652257 0.028816 0.
0.654311 0.0287712 0.
0.656374 0.0287175 0.
0.658459 0.0286465 0.
0.660544 0.0285758 0.
0.662648 0.028504 0.
0.664762 0.0284306 0.
0.666877 0.0283553 0.
0.66904 0.028178 0.
0.671206 0.0279968 0.
0.673379 0.027816 0.
0.675575 0.0275998 0.
0.677771 0.027384 0.
0.679994 0.0271523 0.
0.682226 0.0269215 0.
0.684463 0.0266802 0.
0.686725 0.0263765 0.
0.688991 0.0260703 0.
0.691264 0.0257383 0.
0.693542 0.025366 0.
0.695823 0.0249916 0.
0.698103 0.0246396 0.
0.700397 0.0243109 0.
0.70269 0.0240625 0.
0.495453 0.0258078 0.
0.497676 0.0260178 0.
0.499915 0.0263279 0.
0.502163 0.026691 0.
0.504414 0.0270622 0.
0.506669 0.0274379 0.
0.508921 0.0278104 0.
0.51117 0.028132 0.
0.513412 0.0284252 0.
0.515651 0.0287176 0.
0.517869 0.0289496 0.
0.520083 0.0291725 0.
0.52229 0.0293972 0.
0.524476 0.0296115 0.
0.526664 0.0298259 0.
0.528829 0.0300029 0.
0.530988 0.0301785 0.
0.533144 0.03035 0.
0.535254 0.0304226 0.
0.537363 0.0304937 0.
0.539462 0.0305643 0.
0.541545 0.0306364 0.
0.543628 0.0307087 0.
0.545691 0.0307635 0.
0.547743 0.0308092 0.
0.549797 0.0308552 0.
0.551827 0.0308807 0.
0.553855 0.0309049 0.
0.555882 0.0309271 0.
0.5579 0.0309396 0.
0.559918 0.0309522 0.
0.561932 0.0309626 0.
0.563942 0.0309697 0.
0.565952 0.0309769 0.
0.567959 0.0309818 0.
0.569964 0.0309855 0.
0.571969 0.0309893 0.
0.573972 0.0309914 0.
0.575974 0.0309932 0.
0.577977 0.030995 0.
0.579979 0.0309961 0.
0.581982 0.0309973 0.
0.583985 0.0309985 0.
0.585987 0.0309998 0.
0.58799 0.0310011 0.
0.589992 0.0310021 0.
0.591994 0.031003 0.
0.593996 0.0310038 0.
0.595998 0.0310046 0.
0.597999 0.0310054 0.
0.6 0.0310062 0.
0.602002 0.0310054 0.
0.604004 0.0310046 0.
0.606006 0.0310037 0.
0.608009 0.0310027 0.
0.610011 0.0310016 0.
0.612013 0.0310004 0.
0.614016 0.0309991 0.
0.616018 0.0309977 0.
0.618021 0.0309962 0.
0.620024 0.0309948 0.
0.622027 0.0309934 0.
0.62403 0.0309911 0.
0.626032 0.0309887 0.
0.628035 0.030986 0.
0.630042 0.0309815 0.
0.632048 0.0309771 0.
0.634056 0.0309711 0.
0.636068 0.0309624 0.
0.63808 0.0309536 0.
0.640097 0.0309412 0.
0.642119 0.0309261 0.
0.644141 0.0309111 0.
0.646173 0.0308836 0.
0.648207 0.0308535 0.
0.650243 0.0308217 0.
0.652304 0.0307675 0.
0.654366 0.0307137 0.
0.656438 0.0306505 0.
0.65853 0.0305699 0.
0.660623 0.0304898 0.
0.662738 0.0304064 0.
0.664864 0.0303212 0.
0.666991 0.0302321 0.
0.669161 0.0300359 0.
0.671333 0.0298357 0.
0.67351 0.0296393 0.
0.675706 0.029417 0.
0.677901 0.0291945 0.
0.680121 0.0289488 0.
0.682347 0.0287046 0.
0.684576 0.0284511 0.
0.686822 0.028144 0.
0.68907 0.027835 0.
0.691325 0.027501 0.
0.693581 0.0271347 0.
0.695838 0.0267692 0.
0.698089 0.0264417 0.
0.700348 0.026143 0.
0.702601 0.0259208 0.
0.495516 0.0276922 0.
0.497707 0.0278785 0.
0.499919 0.0281606 0.
0.502146 0.0285001 0.
0.504378 0.0288541 0.
0.506618 0.0292243 0.
0.508857 0.0295925 0.
0.511096 0.0299175 0.
0.51333 0.0302148 0.
0.515561 0.0305109 0.
0.517776 0.0307519 0.
0.519989 0.0309833 0.
0.522195 0.0312165 0.
0.524383 0.0314363 0.
0.526571 0.0316565 0.
0.528738 0.0318474 0.
0.530898 0.0320391 0.
0.533056 0.0322271 0.
0.535172 0.0323134 0.
0.537288 0.0323967 0.
0.539393 0.0324786 0.
0.541481 0.0325598 0.
0.543569 0.0326414 0.
0.545639 0.0327054 0.
0.547699 0.0327599 0.
0.549759 0.0328147 0.
0.551795 0.0328472 0.
0.553828 0.0328779 0.
0.55586 0.0329061 0.
0.557881 0.0329219 0.
0.559903 0.0329377 0.
0.56192 0.0329508 0.
0.563932 0.03296 0.
0.565944 0.0329692 0.
0.567953 0.0329757 0.
0.56996 0.0329808 0.
0.571966 0.032986 0.
0.57397 0.0329885 0.
0.575972 0.0329907 0.
0.577975 0.0329929 0.
0.579978 0.0329942 0.
0.581981 0.0329956 0.
0.583983 0.0329969 0.
0.585986 0.0329983 0.
0.587989 0.0329996 0.
0.589991 0.0330007 0.
0.591993 0.0330016 0.
0.593995 0.0330025 0.
0.595997 0.0330032 0.
0.597999 0.033004 0.
0.6 0.0330047 0.
0.602003 0.0330039 0.
0.604005 0.0330031 0.
0.606008 0.0330023 0.
0.60801 0.0330011 0.
0.610012 0.033 0.
0.612014 0.0329988 0.
0.614017 0.0329974 0.
0.61602 0.0329961 0.
0.618023 0.0329945 0.
0.620026 0.0329928 0.
0.622029 0.032991 0.
0.624032 0.0329882 0.
0.626036 0.0329853 0.
0.628039 0.032982 0.
0.630047 0.0329758 0.
0.632055 0.0329697 0.
0.634065 0.0329618 0.
0.63608 0.0329506 0.
0.638094 0.0329395 0.
0.640115 0.0329237 0.
0.642141 0.0329048 0.
0.644167 0.0328859 0.
0.646204 0.0328519 0.
0.648243 0.032815 0.
0.650285 0.0327758 0.
0.652354 0.0327115 0.
0.654422 0.0326475 0.
0.656502 0.0325738 0.
0.6586 0.0324837 0.
0.660698 0.0323941 0.
0.662819 0.0322972 0.
0.664949 0.0321978 0.
0.667081 0.0320932 0.
0.669251 0.0318828 0.
0.671424 0.0316687 0.
0.673604 0.0314599 0.
0.6758 0.0312319 0.
0.677996 0.0310038 0.
0.680214 0.0307511 0.
0.682437 0.0304988 0.
0.684661 0.0302372 0.
0.686897 0.0299288 0.
0.689134 0.0296188 0.
0.691376 0.0292845 0.
0.693616 0.0289251 0.
0.695855 0.0285689 0.
0.698082 0.0282644 0.
0.700315 0.0279924 0.
0.702536 0.0277948 0.
0.495587 0.0295981 0.
0.497755 0.0297627 0.
0.499945 0.0300185 0.
0.502152 0.0303336 0.
0.504366 0.0306676 0.
0.50659 0.0310284 0.
0.508814 0.0313888 0.
0.511039 0.0317129 0.
0.513261 0.0320102 0.
0.515482 0.032307 0.
0.517692 0.0325546 0.
0.5199 0.0327932 0.
0.522104 0.0330341 0.
0.524291 0.0332603 0.
0.526478 0.0334868 0.
0.528647 0.0336911 0.
0.530809 0.033899 0.
0.532968 0.0341036 0.
0.535091 0.0342037 0.
0.537212 0.034299 0.
0.539325 0.0343925 0.
0.541418 0.0344829 0.
0.543511 0.0345738 0.
0.545587 0.0346472 0.
0.547654 0.0347105 0.
0.549722 0.034774 0.
0.551763 0.0348135 0.
0.553801 0.0348508 0.
0.555837 0.034885 0.
0.557862 0.0349041 0.
0.559887 0.0349232 0.
0.561908 0.0349391 0.
0.563923 0.0349503 0.
0.565937 0.0349615 0.
0.567947 0.0349697 0.
0.569955 0.0349761 0.
0.571963 0.0349826 0.
0.573967 0.0349857 0.
0.57597 0.0349883 0.
0.577973 0.0349908 0.
0.579976 0.0349923 0.
0.581979 0.0349939 0.
0.583982 0.0349954 0.
0.585985 0.0349968 0.
0.587988 0.0349982 0.
0.58999 0.0349993 0.
0.591992 0.0350002 0.
0.593994 0.0350012 0.
0.595996 0.0350019 0.
0.597998 0.0350025 0.
0.6 0.0350032 0.
0.602003 0.0350024 0.
0.604006 0.0350017 0.
0.606009 0.0350008 0.
0.608011 0.0349996 0.
0.610013 0.0349984 0.
0.612015 0.0349971 0.
0.614018 0.0349958 0.
0.616021 0.0349946 0.
0.618024 0.0349928 0.
0.620028 0.0349907 0.
0.622031 0.0349887 0.
0.624035 0.0349854 0.
0.626039 0.0349819 0.
0.628043 0.0349779 0.
0.630053 0.0349701 0.
0.632062 0.0349624 0.
0.634074 0.0349525 0.
0.636091 0.0349389 0.
0.638109 0.0349252 0.
0.640134 0.0349062 0.
0.642164 0.0348834 0.
0.644193 0.0348607 0.
0.646236 0.0348202 0.
0.64828 0.0347765 0.
0.650328 0.0347297 0.
0.652404 0.0346551 0.
0.65448 0.0345809 0.
0.656566 0.0344969 0.
0.65867 0.0343972 0.
0.660774 0.0342979 0.
0.6629 0.0341872 0.
0.665034 0.0340737 0.
0.667171 0.0339538 0.
0.669342 0.0337292 0.
0.671515 0.0335013 0.
0.673695 0.0332801 0.
0.675891 0.0330457 0.
0.678086 0.0328108 0.
0.680298 0.0325528 0.
0.682514 0.0322959 0.
0.684731 0.0320301 0.
0.686955 0.0317232 0.
0.689181 0.0314153 0.
0.691407 0.0310851 0.
0.69363 0.0307365 0.
0.695851 0.0303932 0.
0.698057 0.0301105 0.
0.700268 0.0298614 0.
0.702463 0.0296838 0.
0.495678 0.0315085 0.
0.497825 0.0316588 0.
0.499995 0.0318938 0.
0.502182 0.0321825 0.
0.504376 0.0324944 0.
0.506583 0.0328451 0.
0.50879 0.0331972 0.
0.511 0.0335191 0.
0.513211 0.0338161 0.
0.515421 0.0341131 0.
0.517625 0.0343666 0.
0.519827 0.0346119 0.
0.522027 0.0348595 0.
0.524211 0.0350908 0.
0.526393 0.0353219 0.
0.52856 0.0355365 0.
0.530721 0.0357559 0.
0.532879 0.0359715 0.
0.535006 0.0360846 0.
0.537131 0.0361914 0.
0.539248 0.0362958 0.
0.541345 0.0363929 0.
0.543443 0.0364902 0.
0.545526 0.0365721 0.
0.547599 0.0366446 0.
0.549673 0.0367176 0.
0.55172 0.0367654 0.
0.553764 0.0368106 0.
0.555806 0.0368523 0.
0.557836 0.0368754 0.
0.559865 0.0368985 0.
0.56189 0.0369183 0.
0.563908 0.036933 0.
0.565926 0.0369478 0.
0.567939 0.0369587 0.
0.569948 0.0369672 0.
0.571958 0.0369758 0.
0.573963 0.0369801 0.
0.575967 0.0369838 0.
0.577971 0.0369873 0.
0.579975 0.0369893 0.
0.581978 0.0369913 0.
0.583981 0.0369932 0.
0.585984 0.0369948 0.
0.587987 0.0369964 0.
0.58999 0.0369978 0.
0.591992 0.0369989 0.
0.593994 0.0370001 0.
0.595996 0.0370008 0.
0.597999 0.0370013 0.
0.600001 0.0370019 0.
0.602003 0.0370011 0.
0.604006 0.0370003 0.
0.606009 0.0369994 0.
0.608011 0.0369981 0.
0.610013 0.0369969 0.
0.612016 0.0369954 0.
0.614019 0.0369938 0.
0.616022 0.0369922 0.
0.618026 0.0369898 0.
0.62003 0.0369872 0.
0.622034 0.0369846 0.
0.624039 0.03698 0.
0.626044 0.0369752 0.
0.62805 0.0369696 0.
0.630061 0.0369593 0.
0.632073 0.0369489 0.
0.634088 0.0369359 0.
0.636109 0.0369181 0.
0.638131 0.0369004 0.
0.64016 0.0368772 0.
0.642195 0.0368504 0.
0.644229 0.0368237 0.
0.646277 0.0367749 0.
0.648328 0.0367225 0.
0.650382 0.0366663 0.
0.652465 0.0365814 0.
0.654548 0.036497 0.
0.656641 0.0364043 0.
0.658748 0.0362986 0.
0.660855 0.0361932 0.
0.662984 0.0360701 0.
0.665121 0.0359435 0.
0.66726 0.0358094 0.
0.669428 0.0355758 0.
0.671598 0.0353385 0.
0.673776 0.0351079 0.
0.675967 0.0348677 0.
0.67816 0.0346269 0.
0.680365 0.0343645 0.
0.682573 0.0341032 0.
0.684782 0.0338339 0.
0.686995 0.033529 0.
0.689208 0.0332233 0.
0.691418 0.0328982 0.
0.693621 0.0325611 0.
0.695823 0.0322319 0.
0.698008 0.0319721 0.
0.700198 0.0317473 0.
0.702374 0.0315863 0.
0.495777 0.0334308 0.
0.497907 0.0335691 0.
0.500058 0.0337855 0.
0.502226 0.0340502 0.
0.504402 0.0343418 0.
0.506594 0.0346814 0.
0.508786 0.0350238 0.
0.510983 0.0353417 0.
0.513182 0.0356372 0.
0.51538 0.035933 0.
0.517574 0.0361894 0.
0.519767 0.0364376 0.
0.521957 0.0366874 0.
0.524134 0.0369232 0.
0.526309 0.0371586 0.
0.528473 0.0373816 0.
0.530631 0.0376099 0.
0.532788 0.0378346 0.
0.534919 0.0379611 0.
0.537047 0.0380801 0.
0.539168 0.0381962 0.
0.54127 0.0382998 0.
0.543373 0.0384037 0.
0.545462 0.0384944 0.
0.547543 0.0385768 0.
0.549624 0.0386597 0.
0.551677 0.0387163 0.
0.553727 0.0387696 0.
0.555775 0.0388191 0.
0.557809 0.0388463 0.
0.559843 0.0388736 0.
0.561872 0.0388973 0.
0.563893 0.0389157 0.
0.565915 0.0389341 0.
0.56793 0.0389476 0.
0.569941 0.0389583 0.
0.571953 0.038969 0.
0.573959 0.0389745 0.
0.575964 0.0389793 0.
0.577969 0.0389838 0.
0.579973 0.0389863 0.
0.581977 0.0389888 0.
0.58398 0.0389911 0.
0.585983 0.0389929 0.
0.587986 0.0389947 0.
0.589989 0.0389963 0.
0.591992 0.0389976 0.
0.593994 0.038999 0.
0.595997 0.0389997 0.
0.597999 0.0390001 0.
0.600001 0.0390006 0.
0.602003 0.0389998 0.
0.604006 0.0389989 0.
0.606009 0.038998 0.
0.608011 0.0389967 0.
0.610014 0.0389954 0.
0.612017 0.0389937 0.
0.61402 0.0389917 0.
0.616023 0.0389897 0.
0.618028 0.0389869 0.
0.620032 0.0389837 0.
0.622036 0.0389805 0.
0.624043 0.0389746 0.
0.626049 0.0389684 0.
0.628056 0.0389613 0.
0.63007 0.0389483 0.
0.632084 0.0389354 0.
0.634102 0.0389191 0.
0.636128 0.0388972 0.
0.638153 0.0388753 0.
0.640187 0.0388479 0.
0.642226 0.038817 0.
0.644265 0.0387862 0.
0.64632 0.0387287 0.
0.648376 0.0386671 0.
0.650438 0.038601 0.
0.652529 0.0385051 0.
0.654619 0.0384098 0.
0.656718 0.0383082 0.
0.658829 0.0381965 0.
0.66094 0.0380853 0.
0.663071 0.0379495 0.
0.66521 0.0378099 0.
0.667351 0.0376621 0.
0.669515 0.0374211 0.
0.671681 0.0371766 0.
0.673854 0.0369392 0.
0.676036 0.0366952 0.
0.678219 0.0364501 0.
0.680415 0.0361864 0.
0.682612 0.0359236 0.
0.684811 0.035653 0.
0.687012 0.0353507 0.
0.689213 0.0350481 0.
0.691408 0.0347303 0.
0.693595 0.0344062 0.
0.695781 0.0340914 0.
0.697947 0.0338514 0.
0.700116 0.0336474 0.
0.702275 0.0335001 0.
0.495873 0.0353669 0.
0.497988 0.0354936 0.
0.500124 0.0356919 0.
0.502275 0.0359329 0.
0.504434 0.0362043 0.
0.506611 0.0365299 0.
0.508788 0.0368593 0.
0.510972 0.0371707 0.
0.513158 0.0374634 0.
0.515344 0.0377568 0.
0.517528 0.0380149 0.
0.51971 0.0382654 0.
0.521891 0.0385176 0.
0.52406 0.0387576 0.
0.526229 0.0389973 0.
0.52839 0.039228 0.
0.530547 0.0394645 0.
0.532703 0.0396973 0.
0.534837 0.0398369 0.
0.536969 0.0399681 0.
0.539094 0.0400958 0.
0.541201 0.0402051 0.
0.543308 0.0403147 0.
0.545403 0.0404134 0.
0.547489 0.0405054 0.
0.549576 0.040598 0.
0.551635 0.0406635 0.
0.55369 0.0407251 0.
0.555742 0.0407826 0.
0.55778 0.040814 0.
0.559818 0.0408454 0.
0.561851 0.0408732 0.
0.563876 0.0408954 0.
0.565901 0.0409177 0.
0.567919 0.0409342 0.
0.569932 0.0409475 0.
0.571946 0.0409607 0.
0.573953 0.0409677 0.
0.57596 0.0409738 0.
0.577966 0.0409796 0.
0.579971 0.0409827 0.
0.581975 0.0409858 0.
0.583979 0.0409886 0.
0.585982 0.0409907 0.
0.587986 0.0409927 0.
0.589989 0.0409945 0.
0.591991 0.040996 0.
0.593994 0.0409976 0.
0.595996 0.0409983 0.
0.597998 0.0409987 0.
0.600001 0.0409992 0.
0.602003 0.0409983 0.
0.604006 0.0409974 0.
0.606009 0.0409963 0.
0.608012 0.0409949 0.
0.610015 0.0409935 0.
0.612018 0.0409916 0.
0.614021 0.0409892 0.
0.616025 0.0409868 0.
0.61803 0.0409833 0.
0.620035 0.0409793 0.
0.62204 0.0409753 0.
0.624048 0.0409679 0.
0.626056 0.04096 0.
0.628065 0.0409511 0.
0.630081 0.0409351 0.
0.632097 0.0409191 0.
0.634119 0.0408993 0.
0.636148 0.0408731 0.
0.638177 0.0408468 0.
0.640215 0.0408152 0.
0.642258 0.0407802 0.
0.644301 0.0407452 0.
0.646362 0.0406787 0.
0.648424 0.0406078 0.
0.650491 0.0405317 0.
0.652588 0.0404253 0.
0.654685 0.0403197 0.
0.656789 0.0402102 0.
0.658904 0.0400935 0.
0.661019 0.0399772 0.
0.663153 0.0398288 0.
0.665294 0.0396763 0.
0.667437 0.039515 0.
0.669598 0.0392673 0.
0.67176 0.0390161 0.
0.673928 0.0387725 0.
0.676102 0.0385245 0.
0.678277 0.0382756 0.
0.680462 0.0380111 0.
0.682648 0.0377478 0.
0.684836 0.0374768 0.
0.687023 0.0371782 0.
0.689211 0.03688 0.
0.691392 0.0365731 0.
0.693565 0.0362665 0.
0.695736 0.0359691 0.
0.697884 0.0357461 0.
0.700035 0.0355592 0.
0.702178 0.0354223 0.
0.495952 0.0373074 0.
0.498056 0.0374236 0.
0.500179 0.0376055 0.
0.502314 0.0378256 0.
0.504459 0.038078 0.
0.506623 0.0383903 0.
0.508788 0.0387078 0.
0.51096 0.0390131 0.
0.513137 0.0393028 0.
0.515313 0.0395936 0.
0.517489 0.0398528 0.
0.519665 0.040105 0.
0.521839 0.0403585 0.
0.524006 0.0406016 0.
0.526173 0.0408439 0.
0.528333 0.0410792 0.
0.530488 0.0413201 0.
0.532643 0.0415573 0.
0.534778 0.0417084 0.
0.53691 0.0418513 0.
0.539037 0.04199 0.
0.541145 0.0421043 0.
0.543253 0.0422188 0.
0.545351 0.0423254 0.
0.54744 0.0424275 0.
0.54953 0.0425301 0.
0.551593 0.0426053 0.
0.553652 0.0426758 0.
0.555708 0.0427419 0.
0.55775 0.0427776 0.
0.559792 0.0428134 0.
0.561828 0.0428455 0.
0.563857 0.0428718 0.
0.565885 0.0428983 0.
0.567905 0.0429183 0.
0.569922 0.0429346 0.
0.571938 0.0429509 0.
0.573947 0.0429597 0.
0.575955 0.0429673 0.
0.577962 0.0429746 0.
0.579968 0.0429785 0.
0.581973 0.0429823 0.
0.583978 0.0429857 0.
0.585981 0.0429881 0.
0.587985 0.0429905 0.
0.589988 0.0429925 0.
0.591991 0.0429941 0.
0.593994 0.0429957 0.
0.595996 0.0429965 0.
0.597998 0.0429971 0.
0.600001 0.0429976 0.
0.602003 0.0429966 0.
0.604006 0.0429956 0.
0.606009 0.0429944 0.
0.608012 0.0429929 0.
0.610015 0.0429913 0.
0.612019 0.0429892 0.
0.614023 0.0429862 0.
0.616027 0.0429832 0.
0.618033 0.042979 0.
0.620039 0.0429741 0.
0.622045 0.0429692 0.
0.624055 0.0429598 0.
0.626064 0.0429499 0.
0.628075 0.0429388 0.
0.630094 0.0429194 0.
0.632113 0.0429 0.
0.634137 0.0428762 0.
0.636171 0.0428452 0.
0.638204 0.0428143 0.
0.640245 0.0427783 0.
0.642292 0.042739 0.
0.644338 0.0426998 0.
0.646403 0.0426233 0.
0.64847 0.0425423 0.
0.650542 0.0424554 0.
0.652641 0.0423385 0.
0.65474 0.0422224 0.
0.656846 0.0421054 0.
0.658961 0.0419845 0.
0.661076 0.0418638 0.
0.663213 0.041704 0.
0.665354 0.0415397 0.
0.667498 0.0413673 0.
0.669658 0.041117 0.
0.671818 0.040863 0.
0.673983 0.0406156 0.
0.676153 0.0403648 0.
0.678324 0.0401128 0.
0.680501 0.039848 0.
0.682678 0.0395844 0.
0.684858 0.0393134 0.
0.687035 0.0390185 0.
0.689212 0.0387246 0.
0.691382 0.0384283 0.
0.693543 0.0381378 0.
0.6957 0.0378569 0.
0.697833 0.0376498 0.
0.699968 0.0374785 0.
0.702097 0.0373513 0.
0.496037 0.0392504 0.
0.498133 0.0393578 0.
0.500246 0.0395275 0.
0.502368 0.0397313 0.
0.504498 0.0399682 0.
0.506648 0.0402668 0.
0.5088 0.0405706 0.
0.510961 0.0408676 0.
0.513128 0.0411531 0.
0.515295 0.0414399 0.
0.517463 0.0416984 0.
0.51963 0.0419501 0.
0.521798 0.042203 0.
0.52396 0.0424475 0.
0.526122 0.0426912 0.
0.528279 0.0429303 0.
0.530432 0.0431753 0.
0.532584 0.043417 0.
0.534718 0.0435795 0.
0.536851 0.043734 0.
0.538979 0.0438842 0.
0.541089 0.0440033 0.
0.543199 0.0441228 0.
0.545299 0.0442371 0.
0.547391 0.0443492 0.
0.549484 0.044462 0.
0.551551 0.0445468 0.
0.553614 0.0446263 0.
0.555674 0.0447012 0.
0.55772 0.0447412 0.
0.559765 0.0447813 0.
0.561805 0.0448177 0.
0.563837 0.0448482 0.
0.565869 0.0448788 0.
0.567892 0.0449024 0.
0.569911 0.0449217 0.
0.571929 0.044941 0.
0.57394 0.0449516 0.
0.575949 0.0449608 0.
0.577958 0.0449695 0.
0.579965 0.0449742 0.
0.581971 0.0449789 0.
0.583976 0.0449829 0.
0.58598 0.0449856 0.
0.587984 0.0449883 0.
0.589987 0.0449905 0.
0.59199 0.0449922 0.
0.593993 0.0449939 0.
0.595996 0.0449948 0.
0.597998 0.0449954 0.
0.600001 0.044996 0.
0.602004 0.0449949 0.
0.604007 0.0449938 0.
0.60601 0.0449925 0.
0.608013 0.0449908 0.
0.610016 0.0449892 0.
0.61202 0.0449867 0.
0.614025 0.0449832 0.
0.616029 0.0449797 0.
0.618035 0.0449746 0.
0.620043 0.0449688 0.
0.62205 0.044963 0.
0.624061 0.0449517 0.
0.626073 0.0449399 0.
0.628085 0.0449265 0.
0.630107 0.0449036 0.
0.632129 0.0448808 0.
0.634156 0.044853 0.
0.636193 0.0448173 0.
0.63823 0.0447817 0.
0.640275 0.0447413 0.
0.642325 0.0446977 0.
0.644375 0.0446543 0.
0.646445 0.0445677 0.
0.648516 0.0444766 0.
0.650593 0.0443788 0.
0.652694 0.0442514 0.
0.654796 0.0441248 0.
0.656903 0.0440006 0.
0.659019 0.0438753 0.
0.661134 0.0437503 0.
0.663272 0.0435785 0.
0.665414 0.0434023 0.
0.667558 0.043219 0.
0.669714 0.0429666 0.
0.671871 0.0427108 0.
0.674033 0.0424609 0.
0.676196 0.0422089 0.
0.678361 0.0419557 0.
0.68053 0.0416925 0.
0.682698 0.0414305 0.
0.684868 0.0411615 0.
0.687033 0.0408719 0.
0.689199 0.0405838 0.
0.691358 0.0402984 0.
0.693505 0.0400231 0.
0.695648 0.0397574 0.
0.697767 0.0395636 0.
0.69989 0.0394051 0.
0.702009 0.0392849 0.
0.496135 0.0411908 0.
0.498224 0.0412933 0.
0.500326 0.0414547 0.
0.502435 0.0416456 0.
0.504551 0.0418695 0.
0.506688 0.0421542 0.
0.508826 0.0424437 0.
0.510975 0.0427308 0.
0.513132 0.0430108 0.
0.515288 0.043293 0.
0.517448 0.0435506 0.
0.519608 0.043802 0.
0.521768 0.0440544 0.
0.523926 0.0443002 0.
0.526082 0.0445456 0.
0.528235 0.0447881 0.
0.530383 0.0450363 0.
0.532531 0.0452809 0.
0.534664 0.045453 0.
0.536796 0.0456177 0.
0.538923 0.0457779 0.
0.541032 0.045901 0.
0.543142 0.0460243 0.
0.545242 0.0461444 0.
0.547337 0.0462639 0.
0.549432 0.0463839 0.
0.551503 0.0464781 0.
0.55357 0.0465672 0.
0.555636 0.0466517 0.
0.557684 0.0466953 0.
0.559732 0.0467389 0.
0.561776 0.0467794 0.
0.563811 0.0468148 0.
0.565847 0.0468503 0.
0.567874 0.0468782 0.
0.569896 0.0469015 0.
0.571917 0.0469247 0.
0.57393 0.0469381 0.
0.575941 0.0469499 0.
0.577952 0.0469612 0.
0.57996 0.0469672 0.
0.581967 0.0469731 0.
0.583973 0.0469783 0.
0.585978 0.0469817 0.
0.587982 0.0469851 0.
0.589986 0.0469878 0.
0.591989 0.0469898 0.
0.593993 0.0469918 0.
0.595995 0.0469928 0.
0.597998 0.0469935 0.
0.600001 0.0469943 0.
0.602004 0.0469929 0.
0.604007 0.0469916 0.
0.60601 0.04699 0.
0.608014 0.0469879 0.
0.610017 0.0469858 0.
0.612022 0.0469826 0.
0.614027 0.0469783 0.
0.616033 0.046974 0.
0.618041 0.0469675 0.
0.62005 0.0469602 0.
0.622058 0.0469528 0.
0.624072 0.0469388 0.
0.626085 0.0469241 0.
0.6281 0.0469077 0.
0.630126 0.0468805 0.
0.632151 0.0468534 0.
0.634182 0.0468208 0.
0.636222 0.0467796 0.
0.638263 0.0467385 0.
0.640311 0.046694 0.
0.642364 0.0466471 0.
0.644417 0.0466003 0.
0.646492 0.0465022 0.
0.648568 0.0463997 0.
0.650649 0.0462916 0.
0.652751 0.0461581 0.
0.654853 0.046025 0.
0.656961 0.0458952 0.
0.659075 0.0457656 0.
0.66119 0.0456363 0.
0.663327 0.0454548 0.
0.665467 0.0452689 0.
0.667609 0.0450769 0.
0.669761 0.0448232 0.
0.671913 0.044566 0.
0.674069 0.0443138 0.
0.676227 0.0440605 0.
0.678386 0.0438063 0.
0.680546 0.0435446 0.
0.682706 0.0432842 0.
0.684865 0.0430179 0.
0.687019 0.0427348 0.
0.689173 0.0424535 0.
0.691318 0.0421794 0.
0.69345 0.0419194 0.
0.695579 0.041668 0.
0.697687 0.0414852 0.
0.6998 0.0413373 0.
0.701908 0.0412227 0.
0.496236 0.0431381 0.
0.498319 0.0432356 0.
0.500411 0.0433886 0.
0.502509 0.0435674 0.
0.504613 0.0437803 0.
0.506738 0.0440531 0.
0.508865 0.0443301 0.
0.511004 0.0446073 0.
0.513151 0.0448811 0.
0.515298 0.0451579 0.
0.517449 0.0454142 0.
0.519601 0.0456648 0.
0.521753 0.0459162 0.
0.523902 0.0461626 0.
0.52605 0.0464082 0.
0.528195 0.0466519 0.
0.530338 0.0469009 0.
0.532479 0.0471464 0.
0.534611 0.0473267 0.
0.53674 0.0475006 0.
0.538867 0.0476705 0.
0.540975 0.0477973 0.
0.543083 0.0479244 0.
0.545184 0.0480497 0.
0.547281 0.0481761 0.
0.549377 0.048303 0.
0.551454 0.0484072 0.
0.553526 0.0485066 0.
0.555597 0.0486014 0.
0.557648 0.0486486 0.
0.559699 0.0486958 0.
0.561746 0.0487404 0.
0.563785 0.0487809 0.
0.565825 0.0488215 0.
0.567855 0.0488538 0.
0.56988 0.048881 0.
0.571905 0.0489083 0.
0.57392 0.0489246 0.
0.575933 0.048939 0.
0.577946 0.0489528 0.
0.579955 0.0489601 0.
0.581963 0.0489674 0.
0.583971 0.0489737 0.
0.585976 0.0489778 0.
0.587981 0.048982 0.
0.589985 0.0489851 0.
0.591989 0.0489873 0.
0.593992 0.0489896 0.
0.595995 0.0489907 0.
0.597998 0.0489916 0.
0.600001 0.0489925 0.
0.602004 0.0489909 0.
0.604007 0.0489894 0.
0.606011 0.0489876 0.
0.608015 0.048985 0.
0.610019 0.0489824 0.
0.612024 0.0489786 0.
0.61403 0.0489734 0.
0.616036 0.0489682 0.
0.618046 0.0489604 0.
0.620056 0.0489515 0.
0.622066 0.0489425 0.
0.624082 0.0489258 0.
0.626098 0.0489083 0.
0.628115 0.0488887 0.
0.630144 0.0488571 0.
0.632173 0.0488256 0.
0.634208 0.048788 0.
0.636252 0.0487412 0.
0.638296 0.0486946 0.
0.640348 0.0486458 0.
0.642403 0.0485955 0.
0.644459 0.0485452 0.
0.64654 0.0484345 0.
0.648622 0.0483198 0.
0.650708 0.0482007 0.
0.652811 0.0480622 0.
0.654913 0.0479241 0.
0.657021 0.047789 0.
0.659135 0.0476545 0.
0.661249 0.0475198 0.
0.663382 0.0473306 0.
0.665518 0.0471372 0.
0.667656 0.046939 0.
0.669801 0.0466853 0.
0.671947 0.0464283 0.
0.674095 0.0461757 0.
0.676244 0.0459227 0.
0.678394 0.0456686 0.
0.680546 0.045409 0.
0.682697 0.0451504 0.
0.684847 0.0448868 0.
0.68699 0.0446102 0.
0.689133 0.0443357 0.
0.691266 0.0440722 0.
0.693387 0.043825 0.
0.695506 0.0435858 0.
0.697603 0.0434125 0.
0.699706 0.0432754 0.
0.701806 0.043167 0.
0.49633 0.0450928 0.
0.498408 0.0451842 0.
0.500493 0.045329 0.
0.502582 0.0454968 0.
0.504677 0.0457001 0.
0.506793 0.0459608 0.
0.50891 0.0462249 0.
0.511039 0.0464915 0.
0.513176 0.0467586 0.
0.515313 0.0470289 0.
0.517456 0.0472829 0.
0.519598 0.0475319 0.
0.521741 0.0477815 0.
0.523881 0.0480275 0.
0.52602 0.0482729 0.
0.528157 0.0485174 0.
0.530294 0.0487671 0.
0.53243 0.0490135 0.
0.53456 0.0492016 0.
0.536688 0.0493847 0.
0.538814 0.049564 0.
0.540921 0.0496943 0.
0.543028 0.0498247 0.
0.54513 0.049955 0.
0.547228 0.0500877 0.
0.549327 0.0502207 0.
0.551408 0.0503344 0.
0.553485 0.050444 0.
0.55556 0.0505493 0.
0.557614 0.0505999 0.
0.559667 0.0506506 0.
0.561717 0.0506991 0.
0.563759 0.0507443 0.
0.565802 0.0507897 0.
0.567836 0.0508266 0.
0.569863 0.050858 0.
0.571891 0.0508896 0.
0.573908 0.050909 0.
0.575924 0.0509265 0.
0.577939 0.0509431 0.
0.579948 0.0509518 0.
0.581958 0.0509605 0.
0.583967 0.050968 0.
0.585973 0.050973 0.
0.587979 0.050978 0.
0.589984 0.0509817 0.
0.591988 0.0509844 0.
0.593992 0.050987 0.
0.595995 0.0509883 0.
0.597998 0.0509893 0.
0.600001 0.0509903 0.
0.602004 0.0509885 0.
0.604008 0.0509868 0.
0.606012 0.0509847 0.
0.608016 0.0509814 0.
0.610021 0.0509782 0.
0.612027 0.0509736 0.
0.614034 0.0509673 0.
0.616042 0.050961 0.
0.618052 0.0509518 0.
0.620064 0.0509413 0.
0.622076 0.0509307 0.
0.624094 0.0509109 0.
0.626112 0.0508902 0.
0.628132 0.0508672 0.
0.630164 0.0508309 0.
0.632196 0.0507948 0.
0.634233 0.0507524 0.
0.63628 0.0507005 0.
0.638328 0.0506489 0.
0.640382 0.0505957 0.
0.642441 0.0505413 0.
0.644499 0.0504869 0.
0.646585 0.0503647 0.
0.648672 0.0502384 0.
0.650762 0.0501093 0.
0.652866 0.0499664 0.
0.654969 0.0498237 0.
0.657077 0.0496835 0.
0.659191 0.0495443 0.
0.661304 0.0494045 0.
0.663434 0.0492078 0.
0.665567 0.049007 0.
0.6677 0.0488026 0.
0.669839 0.048549 0.
0.671979 0.0482922 0.
0.674119 0.0480397 0.
0.676258 0.0477879 0.
0.6784 0.047535 0.
0.680542 0.0472781 0.
0.682683 0.0470224 0.
0.684823 0.0467627 0.
0.686956 0.0464938 0.
0.689089 0.0462273 0.
0.691212 0.0459742 0.
0.693322 0.0457392 0.
0.695432 0.0455112 0.
0.697522 0.0453461 0.
0.699617 0.0452186 0.
0.701711 0.0451161 0.
0.49641 0.0470514 0.
0.498483 0.0471368 0.
0.500563 0.0472739 0.
0.502645 0.0474315 0.
0.504733 0.0476258 0.
0.506841 0.0478741 0.
0.50895 0.0481256 0.
0.51107 0.0483827 0.
0.513199 0.0486443 0.
0.515328 0.0489095 0.
0.517462 0.0491616 0.
0.519596 0.0494091 0.
0.521731 0.0496571 0.
0.523865 0.0499031 0.
0.525997 0.0501485 0.
0.528129 0.0503932 0.
0.530263 0.0506428 0.
0.532396 0.050889 0.
0.534523 0.051082 0.
0.536649 0.0512705 0.
0.538773 0.0514548 0.
0.54088 0.0515892 0.
0.542987 0.0517235 0.
0.54509 0.0518585 0.
0.547188 0.0519956 0.
0.549287 0.052133 0.
0.551369 0.0522563 0.
0.553449 0.052377 0.
0.555527 0.0524935 0.
0.557582 0.0525477 0.
0.559637 0.0526019 0.
0.561688 0.0526543 0.
0.563733 0.0527043 0.
0.565778 0.0527543 0.
0.567814 0.052796 0.
0.569845 0.052832 0.
0.571875 0.0528682 0.
0.573894 0.0528912 0.
0.575912 0.052912 0.
0.577929 0.0529319 0.
0.57994 0.0529421 0.
0.581952 0.0529524 0.
0.583962 0.0529612 0.
0.585969 0.0529672 0.
0.587976 0.0529733 0.
0.589982 0.0529777 0.
0.591986 0.0529809 0.
0.593991 0.0529841 0.
0.595994 0.0529856 0.
0.597998 0.0529865 0.
0.600001 0.0529875 0.
0.602005 0.0529856 0.
0.604009 0.0529837 0.
0.606013 0.0529813 0.
0.608018 0.0529772 0.
0.610023 0.0529732 0.
0.61203 0.0529675 0.
0.614039 0.05296 0.
0.616048 0.0529524 0.
0.61806 0.0529416 0.
0.620074 0.0529294 0.
0.622088 0.0529172 0.
0.624108 0.0528939 0.
0.626128 0.0528695 0.
0.628151 0.0528426 0.
0.630185 0.0528013 0.
0.632219 0.0527602 0.
0.63426 0.0527129 0.
0.636308 0.0526567 0.
0.638357 0.0526007 0.
0.640414 0.0525419 0.
0.642476 0.0524815 0.
0.644537 0.052421 0.
0.646624 0.0522884 0.
0.648712 0.0521519 0.
0.650803 0.0520144 0.
0.652906 0.0518682 0.
0.655009 0.0517223 0.
0.657118 0.0515778 0.
0.659232 0.0514341 0.
0.661346 0.0512895 0.
0.663473 0.0510891 0.
0.665602 0.0508845 0.
0.667733 0.0506765 0.
0.669867 0.0504232 0.
0.672003 0.0501669 0.
0.674138 0.0499147 0.
0.67627 0.0496635 0.
0.678404 0.0494113 0.
0.680538 0.0491569 0.
0.68267 0.0489035 0.
0.684802 0.0486469 0.
0.686927 0.0483845 0.
0.689051 0.0481251 0.
0.691165 0.047882 0.
0.693267 0.0476589 0.
0.695368 0.0474421 0.
0.697452 0.0472847 0.
0.699541 0.0471653 0.
0.701629 0.0470683 0.
0.496495 0.0490093 0.
0.498565 0.04909 0.
0.50064 0.0492216 0.
0.502716 0.0493714 0.
0.504798 0.0495582 0.
0.506898 0.049795 0.
0.508999 0.0500349 0.
0.511112 0.0502842 0.
0.513232 0.0505409 0.
0.515353 0.0508013 0.
0.517478 0.0510506 0.
0.519602 0.0512956 0.
0.521729 0.0515411 0.
0.523856 0.0517854 0.
0.525982 0.0520288 0.
0.528109 0.0522722 0.
0.530237 0.0525207 0.
0.532365 0.052766 0.
0.534488 0.0529627 0.
0.536611 0.0531557 0.
0.538732 0.0533446 0.
0.540839 0.0534835 0.
0.542947 0.0536221 0.
0.54505 0.0537619 0.
0.547148 0.0539034 0.
0.549247 0.0540452 0.
0.551331 0.054178 0.
0.553413 0.0543098 0.
0.555494 0.0544376 0.
0.55755 0.0544955 0.
0.559607 0.0545532 0.
0.56166 0.0546096 0.
0.563707 0.0546642 0.
0.565754 0.0547189 0.
0.567793 0.0547653 0.
0.569826 0.054806 0.
0.571859 0.0548467 0.
0.57388 0.0548734 0.
0.5759 0.0548976 0.
0.577919 0.0549207 0.
0.579932 0.0549324 0.
0.581946 0.0549442 0.
0.583957 0.0549545 0.
0.585965 0.0549615 0.
0.587974 0.0549685 0.
0.58998 0.0549737 0.
0.591985 0.0549774 0.
0.59399 0.0549812 0.
0.595994 0.0549828 0.
0.597997 0.0549838 0.
0.600001 0.0549848 0.
0.602005 0.0549827 0.
0.60401 0.0549806 0.
0.606015 0.0549779 0.
0.60802 0.054973 0.
0.610026 0.0549682 0.
0.612034 0.0549615 0.
0.614044 0.0549526 0.
0.616055 0.0549438 0.
0.618068 0.0549314 0.
0.620084 0.0549176 0.
0.6221 0.0549037 0.
0.624122 0.0548768 0.
0.626145 0.0548488 0.
0.62817 0.054818 0.
0.630206 0.0547717 0.
0.632243 0.0547255 0.
0.634286 0.0546733 0.
0.636336 0.0546128 0.
0.638387 0.0545524 0.
0.640447 0.054488 0.
0.642511 0.0544217 0.
0.644575 0.0543548 0.
0.646663 0.0542119 0.
0.648751 0.0540653 0.
0.650843 0.0539194 0.
0.652947 0.05377 0.
0.65505 0.0536208 0.
0.657159 0.0534717 0.
0.659272 0.0533235 0.
0.661386 0.0531741 0.
0.66351 0.0529707 0.
0.665635 0.0527634 0.
0.667761 0.0525531 0.
0.66989 0.052301 0.
0.672019 0.052046 0.
0.674147 0.0517958 0.
0.676273 0.0515471 0.
0.678399 0.0512971 0.
0.680524 0.051046 0.
0.682647 0.0507956 0.
0.68477 0.0505427 0.
0.686886 0.0502861 0.
0.689002 0.0500328 0.
0.691108 0.0497974 0.
0.693203 0.0495846 0.
0.695296 0.0493778 0.
0.697374 0.0492268 0.
0.699457 0.049114 0.
0.701541 0.0490211 0.
0.49659 0.0509592 0.
0.498657 0.0510386 0.
0.500728 0.0511687 0.
0.502799 0.0513145 0.
0.504876 0.0514957 0.
0.506968 0.0517227 0.
0.509061 0.0519523 0.
0.511165 0.0521936 0.
0.513275 0.052444 0.
0.515386 0.0526987 0.
0.517502 0.0529448 0.
0.519618 0.0531874 0.
0.521736 0.0534303 0.
0.523857 0.0536732 0.
0.525977 0.0539152 0.
0.5281 0.0541573 0.
0.530222 0.0544046 0.
0.532343 0.054649 0.
0.534463 0.0548488 0.
0.536581 0.0550455 0.
0.538697 0.0552382 0.
0.540804 0.0553814 0.
0.54291 0.055524 0.
0.545012 0.0556678 0.
0.547109 0.0558125 0.
0.549206 0.0559574 0.
0.55129 0.0560973 0.
0.553372 0.0562372 0.
0.555453 0.0563728 0.
0.557512 0.0564362 0.
0.559571 0.0564993 0.
0.561627 0.0565606 0.
0.563676 0.0566189 0.
0.565724 0.0566773 0.
0.567765 0.0567278 0.
0.569801 0.0567729 0.
0.571837 0.056818 0.
0.573861 0.0568488 0.
0.575883 0.056877 0.
0.577905 0.056904 0.
0.57992 0.0569177 0.
0.581936 0.0569314 0.
0.583949 0.0569435 0.
0.585959 0.0569521 0.
0.587969 0.0569608 0.
0.589976 0.0569673 0.
0.591982 0.0569719 0.
0.593988 0.0569765 0.
0.595993 0.0569786 0.
0.597997 0.0569798 0.
0.600001 0.0569811 0.
0.602006 0.0569784 0.
0.604011 0.0569757 0.
0.606017 0.0569722 0.
0.608024 0.0569661 0.
0.610031 0.05696 0.
0.612041 0.0569518 0.
0.614053 0.0569411 0.
0.616065 0.0569304 0.
0.618081 0.0569162 0.
0.620098 0.0569003 0.
0.622116 0.0568845 0.
0.624141 0.0568535 0.
0.626166 0.0568213 0.
0.628194 0.0567861 0.
0.630234 0.0567352 0.
0.632273 0.0566845 0.
0.634318 0.0566279 0.
0.636371 0.0565635 0.
0.638423 0.0564992 0.
0.640485 0.0564288 0.
0.642551 0.0563558 0.
0.644618 0.056282 0.
0.646705 0.056132 0.
0.648793 0.055978 0.
0.650884 0.0558258 0.
0.652986 0.0556739 0.
0.655087 0.0555222 0.
0.657194 0.0553693 0.
0.659306 0.0552168 0.
0.661417 0.0550629 0.
0.663537 0.054857 0.
0.665657 0.0546476 0.
0.667779 0.0544355 0.
0.669901 0.0541846 0.
0.672024 0.0539311 0.
0.674146 0.0536831 0.
0.676265 0.0534366 0.
0.678384 0.0531888 0.
0.6805 0.0529413 0.
0.682614 0.0526944 0.
0.684728 0.0524458 0.
0.686834 0.0521956 0.
0.688939 0.0519491 0.
0.691037 0.0517207 0.
0.693125 0.0515163 0.
0.695212 0.051317 0.
0.697285 0.0511705 0.
0.699364 0.0510624 0.
0.701444 0.0509717 0.
0.496691 0.0529105 0.
0.498755 0.0529892 0.
0.500821 0.0531184 0.
0.502889 0.0532608 0.
0.504961 0.0534375 0.
0.507046 0.0536563 0.
0.509131 0.0538773 0.
0.511227 0.0541112 0.
0.513329 0.0543556 0.
0.515431 0.0546049 0.
0.51754 0.0548485 0.
0.519648 0.0550892 0.
0.521759 0.0553301 0.
0.523872 0.0555716 0.
0.525985 0.0558119 0.
0.5281 0.0560521 0.
0.530215 0.0562976 0.
0.53233 0.0565403 0.
0.534443 0.0567414 0.
0.536556 0.0569398 0.
0.538667 0.0571343 0.
0.540771 0.0572808 0.
0.542874 0.0574267 0.
0.544974 0.0575738 0.
0.547069 0.0577214 0.
0.549163 0.0578692 0.
0.551248 0.0580152 0.
0.55333 0.0581622 0.
0.555411 0.0583052 0.
0.557473 0.058375 0.
0.559535 0.0584442 0.
0.561594 0.0585111 0.
0.563644 0.0585729 0.
0.565694 0.0586349 0.
0.567737 0.0586897 0.
0.569776 0.0587393 0.
0.571815 0.058789 0.
0.573842 0.058824 0.
0.575867 0.0588563 0.
0.577891 0.0588872 0.
0.579908 0.0589028 0.
0.581925 0.0589184 0.
0.583941 0.0589324 0.
0.585952 0.0589427 0.
0.587964 0.0589531 0.
0.589973 0.0589608 0.
0.59198 0.0589663 0.
0.593987 0.0589719 0.
0.595992 0.0589743 0.
0.597997 0.0589759 0.
0.600001 0.0589774 0.
0.602007 0.0589741 0.
0.604013 0.0589708 0.
0.606019 0.0589665 0.
0.608028 0.0589591 0.
0.610036 0.0589518 0.
0.612047 0.058942 0.
0.614061 0.0589295 0.
0.616075 0.058917 0.
0.618093 0.0589008 0.
0.620113 0.058883 0.
0.622132 0.0588652 0.
0.62416 0.05883 0.
0.626188 0.0587934 0.
0.628219 0.0587537 0.
0.630261 0.0586982 0.
0.632304 0.0586428 0.
0.634351 0.0585817 0.
0.636406 0.0585132 0.
0.638461 0.0584449 0.
0.640526 0.0583681 0.
0.642594 0.0582881 0.
0.644662 0.0582069 0.
0.646749 0.0580504 0.
0.648836 0.05789 0.
0.650926 0.0577325 0.
0.653025 0.0575784 0.
0.655124 0.0574245 0.
0.657228 0.0572686 0.
0.659335 0.0571131 0.
0.661442 0.0569561 0.
0.663556 0.0567494 0.
0.66567 0.0565393 0.
0.667786 0.0563269 0.
0.669901 0.056078 0.
0.672017 0.0558266 0.
0.674132 0.0555809 0.
0.676243 0.0553367 0.
0.678355 0.0550911 0.
0.680464 0.0548464 0.
0.68257 0.0546021 0.
0.684676 0.0543568 0.
0.686773 0.0541127 0.
0.68887 0.0538729 0.
0.69096 0.053651 0.
0.693041 0.0534532 0.
0.695121 0.05326 0.
0.697191 0.0531167 0.
0.699266 0.0530128 0.
0.701342 0.0529239 0.
0.496789 0.054868 0.
0.49885 0.0549446 0.
0.500913 0.0550721 0.
0.502977 0.0552109 0.
0.505044 0.0553838 0.
0.507122 0.0555954 0.
0.5092 0.0558089 0.
0.511289 0.0560366 0.
0.513383 0.0562748 0.
0.515479 0.0565181 0.
0.51758 0.0567583 0.
0.519682 0.0569963 0.
0.521785 0.0572345 0.
0.52389 0.0574735 0.
0.525995 0.0577115 0.
0.528102 0.0579493 0.
0.53021 0.0581926 0.
0.532317 0.0584334 0.
0.534425 0.0586356 0.
0.536532 0.0588355 0.
0.538639 0.0590318 0.
0.540739 0.0591815 0.
0.54284 0.0593305 0.
0.544937 0.059481 0.
0.547031 0.0596313 0.
0.549124 0.0597818 0.
0.551208 0.0599337 0.
0.55329 0.0600876 0.
0.555371 0.0602372 0.
0.557436 0.0603133 0.
0.559501 0.0603885 0.
0.561562 0.0604608 0.
0.563614 0.060526 0.
0.565665 0.0605913 0.
0.567711 0.06065 0.
0.569751 0.0607038 0.
0.571792 0.0607578 0.
0.573822 0.0607971 0.
0.575849 0.0608336 0.
0.577876 0.0608688 0.
0.579894 0.0608863 0.
0.581913 0.0609038 0.
0.58393 0.0609196 0.
0.585944 0.0609317 0.
0.587957 0.0609438 0.
0.589967 0.0609529 0.
0.591976 0.0609596 0.
0.593984 0.0609663 0.
0.59599 0.0609692 0.
0.597996 0.060971 0.
0.600002 0.0609728 0.
0.602008 0.0609687 0.
0.604015 0.0609647 0.
0.606023 0.0609596 0.
0.608033 0.0609508 0.
0.610043 0.060942 0.
0.612055 0.0609307 0.
0.614071 0.0609161 0.
0.616087 0.0609017 0.
0.618107 0.0608836 0.
0.620128 0.060864 0.
0.62215 0.0608443 0.
0.62418 0.0608047 0.
0.62621 0.0607636 0.
0.628243 0.0607193 0.
0.630288 0.0606592 0.
0.632333 0.0605994 0.
0.634383 0.0605341 0.
0.63644 0.060462 0.
0.638496 0.06039 0.
0.640563 0.060307 0.
0.642633 0.0602203 0.
0.644703 0.0601321 0.
0.64679 0.0599695 0.
0.648876 0.059803 0.
0.650965 0.0596405 0.
0.653062 0.0594842 0.
0.655159 0.059328 0.
0.657259 0.059169 0.
0.659362 0.0590107 0.
0.661466 0.0588508 0.
0.663574 0.0586433 0.
0.665683 0.0584328 0.
0.667792 0.0582205 0.
0.6699 0.0579741 0.
0.672008 0.0577253 0.
0.674115 0.0574823 0.
0.676219 0.0572408 0.
0.678323 0.056998 0.
0.680424 0.0567569 0.
0.682523 0.056516 0.
0.684622 0.0562746 0.
0.686713 0.0560369 0.
0.688803 0.0558037 0.
0.690886 0.0555872 0.
0.69296 0.0553949 0.
0.695034 0.0552068 0.
0.697099 0.0550664 0.
0.69917 0.0549664 0.
0.701242 0.0548794 0.
0.496878 0.0568331 0.
0.498936 0.0569061 0.
0.500995 0.0570302 0.
0.503055 0.0571644 0.
0.505118 0.0573333 0.
0.50719 0.0575381 0.
0.509261 0.0577449 0.
0.511344 0.0579671 0.
0.513433 0.0581994 0.
0.515521 0.0584373 0.
0.517615 0.0586748 0.
0.51971 0.0589107 0.
0.521806 0.0591469 0.
0.523904 0.0593843 0.
0.526001 0.0596205 0.
0.528102 0.0598558 0.
0.530205 0.0600969 0.
0.532307 0.0603355 0.
0.534411 0.0605381 0.
0.536515 0.0607385 0.
0.538618 0.0609355 0.
0.540716 0.0610875 0.
0.542814 0.0612386 0.
0.54491 0.0613915 0.
0.547001 0.0615437 0.
0.549093 0.0616961 0.
0.551177 0.0618525 0.
0.553258 0.0620119 0.
0.555339 0.0621671 0.
0.557405 0.0622495 0.
0.559471 0.0623308 0.
0.561533 0.0624086 0.
0.563585 0.0624769 0.
0.565638 0.0625454 0.
0.567685 0.0626079 0.
0.569727 0.0626658 0.
0.571769 0.0627238 0.
0.573801 0.0627677 0.
0.57583 0.0628087 0.
0.577858 0.0628483 0.
0.579879 0.0628677 0.
0.581899 0.0628872 0.
0.583918 0.0629049 0.
0.585933 0.0629189 0.
0.587948 0.0629329 0.
0.58996 0.0629436 0.
0.59197 0.0629516 0.
0.59398 0.0629596 0.
0.595988 0.062963 0.
0.597995 0.0629651 0.
0.600002 0.0629671 0.
0.60201 0.0629622 0.
0.604019 0.0629574 0.
0.606028 0.0629513 0.
0.608039 0.062941 0.
0.610051 0.0629307 0.
0.612066 0.0629175 0.
0.614083 0.0629008 0.
0.616101 0.0628842 0.
0.618122 0.0628644 0.
0.620146 0.062843 0.
0.622169 0.0628216 0.
0.624201 0.0627772 0.
0.626233 0.0627313 0.
0.628267 0.062682 0.
0.630314 0.0626173 0.
0.632361 0.0625529 0.
0.634412 0.0624835 0.
0.63647 0.0624081 0.
0.638528 0.0623328 0.
0.640595 0.0622441 0.
0.642665 0.0621513 0.
0.644736 0.0620567 0.
0.646821 0.0618894 0.
0.648906 0.0617181 0.
0.650994 0.0615517 0.
0.653089 0.0613937 0.
0.655184 0.0612358 0.
0.657282 0.0610748 0.
0.659383 0.0609146 0.
0.661483 0.0607528 0.
0.663588 0.0605453 0.
0.665693 0.0603351 0.
0.667798 0.0601231 0.
0.6699 0.0598793 0.
0.672002 0.0596332 0.
0.674103 0.0593926 0.
0.676199 0.0591529 0.
0.678296 0.0589121 0.
0.68039 0.0586739 0.
0.682482 0.0584356 0.
0.684574 0.0581975 0.
0.686659 0.0579658 0.
0.688743 0.0577393 0.
0.690821 0.0575276 0.
0.692889 0.0573401 0.
0.694957 0.0571569 0.
0.697017 0.0570198 0.
0.699084 0.0569243 0.
0.701152 0.0568402 0.
0.496971 0.0587995 0.
0.499026 0.0588696 0.
0.501082 0.0589906 0.
0.503138 0.0591204 0.
0.505196 0.059286 0.
0.507263 0.059485 0.
0.50933 0.0596863 0.
0.511406 0.0599045 0.
0.513487 0.0601323 0.
0.515568 0.0603661 0.
0.517655 0.0606006 0.
0.519742 0.0608338 0.
0.52183 0.0610669 0.
0.523922 0.0613019 0.
0.526012 0.0615358 0.
0.528107 0.061768 0.
0.530205 0.0620058 0.
0.532301 0.0622415 0.
0.534401 0.0624434 0.
0.536501 0.0626436 0.
0.5386 0.0628405 0.
0.540695 0.0629943 0.
0.54279 0.063147 0.
0.544882 0.063302 0.
0.546972 0.063456 0.
0.549062 0.0636102 0.
0.551145 0.0637712 0.
0.553226 0.0639361 0.
0.555307 0.0640969 0.
0.557374 0.0641855 0.
0.55944 0.0642729 0.
0.561503 0.0643563 0.
0.563557 0.0644278 0.
0.565611 0.0644994 0.
0.567659 0.0645656 0.
0.569702 0.0646276 0.
0.571746 0.0646897 0.
0.573779 0.0647382 0.
0.57581 0.0647838 0.
0.577841 0.0648278 0.
0.579863 0.0648491 0.
0.581885 0.0648705 0.
0.583906 0.0648902 0.
0.585922 0.0649061 0.
0.587939 0.064922 0.
0.589953 0.0649343 0.
0.591965 0.0649436 0.
0.593976 0.0649529 0.
0.595986 0.0649568 0.
0.597994 0.0649591 0.
0.600003 0.0649614 0.
0.602012 0.0649557 0.
0.604022 0.0649501 0.
0.606033 0.064943 0.
0.608046 0.0649311 0.
0.61006 0.0649193 0.
0.612076 0.0649043 0.
0.614095 0.0648855 0.
0.616115 0.0648668 0.
0.618138 0.0648451 0.
0.620163 0.0648219 0.
0.622188 0.0647988 0.
0.624221 0.0647497 0.
0.626255 0.0646989 0.
0.628292 0.0646446 0.
0.63034 0.0645753 0.
0.632389 0.0645063 0.
0.634442 0.0644328 0.
0.636501 0.0643541 0.
0.638559 0.0642755 0.
0.640627 0.064181 0.
0.642697 0.064082 0.
0.644768 0.0639813 0.
0.646852 0.0638092 0.
0.648936 0.0636331 0.
0.651023 0.0634629 0.
0.653116 0.0633033 0.
0.655209 0.0631439 0.
0.657304 0.0629811 0.
0.659401 0.0628197 0.
0.661498 0.0626567 0.
0.663599 0.0624501 0.
0.665699 0.0622409 0.
0.667799 0.0620304 0.
0.669895 0.0617901 0.
0.671992 0.0615475 0.
0.674087 0.0613103 0.
0.676175 0.061073 0.
0.678265 0.0608346 0.
0.680351 0.0605998 0.
0.682436 0.0603643 0.
0.684521 0.0601292 0.
0.686599 0.059902 0.
0.688676 0.0596807 0.
0.690748 0.0594725 0.
0.692812 0.0592891 0.
0.694874 0.05911 0.
0.696931 0.0589755 0.
0.698993 0.0588839 0.
0.701057 0.0588023 0.
0.49707 0.0607571 0.
0.499123 0.0608283 0.
0.501176 0.0609499 0.
0.503228 0.0610789 0.
0.505283 0.0612425 0.
0.507345 0.0614372 0.
0.509407 0.0616338 0.
0.511476 0.0618478 0.
0.513549 0.0620706 0.
0.515622 0.0623 0.
0.517701 0.0625312 0.
0.519781 0.0627611 0.
0.521862 0.0629908 0.
0.523947 0.0632236 0.
0.526031 0.0634553 0.
0.528121 0.0636847 0.
0.530213 0.0639197 0.
0.532305 0.0641526 0.
0.5344 0.0643539 0.
0.536495 0.0645536 0.
0.538589 0.0647505 0.
0.54068 0.0649061 0.
0.542771 0.0650606 0.
0.544859 0.0652175 0.
0.546947 0.0653731 0.
0.549034 0.0655287 0.
0.551115 0.065693 0.
0.553194 0.0658619 0.
0.555273 0.0660265 0.
0.557339 0.0661207 0.
0.559404 0.0662135 0.
0.561467 0.0663019 0.
0.563522 0.066376 0.
0.565576 0.0664502 0.
0.567626 0.0665196 0.
0.569671 0.0665849 0.
0.571717 0.0666504 0.
0.573752 0.0667034 0.
0.575786 0.0667537 0.
0.577818 0.0668024 0.
0.579842 0.0668255 0.
0.581867 0.0668486 0.
0.583889 0.06687 0.
0.585908 0.0668878 0.
0.587927 0.0669055 0.
0.589943 0.0669195 0.
0.591957 0.0669302 0.
0.59397 0.066941 0.
0.595982 0.0669454 0.
0.597993 0.066948 0.
0.600004 0.0669505 0.
0.602016 0.0669439 0.
0.604028 0.0669372 0.
0.606041 0.066929 0.
0.608056 0.0669156 0.
0.610072 0.0669022 0.
0.612091 0.0668854 0.
0.614112 0.0668648 0.
0.616134 0.0668442 0.
0.618158 0.0668208 0.
0.620185 0.066796 0.
0.622211 0.0667713 0.
0.624248 0.0667167 0.
0.626285 0.0666604 0.
0.628324 0.0666011 0.
0.630374 0.0665285 0.
0.632424 0.0664561 0.
0.634478 0.0663795 0.
0.636537 0.0662983 0.
0.638596 0.0662172 0.
0.640662 0.0661178 0.
0.642731 0.0660136 0.
0.644801 0.0659075 0.
0.646883 0.0657319 0.
0.648965 0.0655521 0.
0.651049 0.0653788 0.
0.653138 0.0652179 0.
0.655228 0.0650572 0.
0.657319 0.0648928 0.
0.659412 0.0647301 0.
0.661505 0.064566 0.
0.663601 0.0643601 0.
0.665696 0.0641518 0.
0.667791 0.0639423 0.
0.669882 0.0637053 0.
0.671974 0.0634663 0.
0.674062 0.0632325 0.
0.676144 0.0629977 0.
0.678226 0.0627618 0.
0.680305 0.0625305 0.
0.682382 0.0622987 0.
0.684459 0.0620671 0.
0.686529 0.0618441 0.
0.688599 0.0616275 0.
0.690665 0.0614228 0.
0.692725 0.0612428 0.
0.694784 0.0610666 0.
0.696838 0.0609332 0.
0.698897 0.0608434 0.
0.700958 0.060762 0.
0.497175 0.0627156 0.
0.499225 0.0627885 0.
0.501274 0.0629113 0.
0.503324 0.06304 0.
0.505375 0.0632023 0.
0.507432 0.0633933 0.
0.509488 0.0635861 0.
0.511552 0.0637964 0.
0.513617 0.0640149 0.
0.515684 0.0642405 0.
0.517758 0.0644688 0.
0.519832 0.0646961 0.
0.521907 0.0649231 0.
0.523986 0.0651539 0.
0.526065 0.0653838 0.
0.528148 0.0656105 0.
0.530234 0.0658427 0.
0.532319 0.0660728 0.
0.534408 0.0662729 0.
0.536496 0.0664716 0.
0.538585 0.0666677 0.
0.540671 0.0668238 0.
0.542756 0.0669786 0.
0.544841 0.0671362 0.
0.546924 0.0672927 0.
0.549007 0.0674494 0.
0.551085 0.0676161 0.
0.553161 0.0677881 0.
0.555237 0.067956 0.
0.557302 0.0680554 0.
0.559367 0.0681533 0.
0.561429 0.0682466 0.
0.563485 0.0683233 0.
0.56554 0.0684001 0.
0.567591 0.0684727 0.
0.569639 0.0685414 0.
0.571686 0.0686103 0.
0.573724 0.068668 0.
0.57576 0.0687232 0.
0.577796 0.0687769 0.
0.579822 0.0688016 0.
0.581848 0.0688264 0.
0.583872 0.0688496 0.
0.585893 0.0688693 0.
0.587914 0.0688889 0.
0.589932 0.0689046 0.
0.591948 0.0689167 0.
0.593964 0.0689289 0.
0.595978 0.0689339 0.
0.597991 0.0689367 0.
0.600004 0.0689395 0.
0.602019 0.0689319 0.
0.604033 0.0689243 0.
0.606049 0.068915 0.
0.608067 0.0689 0.
0.610085 0.0688849 0.
0.612106 0.0688664 0.
0.614129 0.0688439 0.
0.616152 0.0688214 0.
0.618179 0.0687963 0.
0.620207 0.0687699 0.
0.622235 0.0687436 0.
0.624275 0.0686831 0.
0.626315 0.0686211 0.
0.628358 0.0685565 0.
0.630409 0.0684806 0.
0.632461 0.0684049 0.
0.634516 0.0683253 0.
0.636575 0.0682416 0.
0.638634 0.068158 0.
0.640699 0.068054 0.
0.642767 0.0679451 0.
0.644835 0.0678343 0.
0.646913 0.0676559 0.
0.648992 0.0674734 0.
0.651072 0.0672979 0.
0.653157 0.0671361 0.
0.655242 0.0669744 0.
0.657329 0.0668099 0.
0.659416 0.0666475 0.
0.661504 0.0664834 0.
0.663593 0.0662787 0.
0.665682 0.0660715 0.
0.667771 0.0658634 0.
0.669855 0.0656296 0.
0.671941 0.0653939 0.
0.674023 0.0651633 0.
0.676099 0.0649306 0.
0.678176 0.0646969 0.
0.680248 0.0644685 0.
0.68232 0.0642397 0.
0.68439 0.0640111 0.
0.686455 0.0637917 0.
0.688518 0.063579 0.
0.690578 0.0633773 0.
0.692633 0.0632001 0.
0.694689 0.0630263 0.
0.69674 0.0628935 0.
0.698795 0.0628055 0.
0.700852 0.0627242 0.
0.497276 0.0646809 0.
0.499323 0.0647541 0.
0.50137 0.0648767 0.
0.503416 0.0650041 0.
0.505463 0.0651653 0.
0.507515 0.065353 0.
0.509567 0.0655425 0.
0.511626 0.0657497 0.
0.513687 0.0659644 0.
0.515749 0.0661866 0.
0.517817 0.066412 0.
0.519885 0.0666363 0.
0.521955 0.06686 0.
0.524028 0.0670883 0.
0.5261 0.0673158 0.
0.528177 0.0675395 0.
0.530255 0.0677683 0.
0.532334 0.0679952 0.
0.534416 0.0681938 0.
0.536498 0.0683913 0.
0.53858 0.0685864 0.
0.540661 0.0687426 0.
0.542742 0.0688978 0.
0.544822 0.0690561 0.
0.546902 0.0692137 0.
0.548981 0.0693713 0.
0.551056 0.0695404 0.
0.55313 0.0697155 0.
0.555203 0.0698864 0.
0.557268 0.0699908 0.
0.559332 0.0700936 0.
0.561394 0.0701914 0.
0.56345 0.0702705 0.
0.565506 0.0703497 0.
0.567559 0.070425 0.
0.569608 0.0704967 0.
0.571657 0.0705686 0.
0.573697 0.0706309 0.
0.575736 0.0706911 0.
0.577774 0.0707498 0.
0.579801 0.0707762 0.
0.581829 0.0708026 0.
0.583855 0.0708275 0.
0.585878 0.070849 0.
0.587901 0.0708704 0.
0.589921 0.0708876 0.
0.59194 0.0709011 0.
0.593958 0.0709146 0.
0.595974 0.07092 0.
0.59799 0.0709231 0.
0.600006 0.0709262 0.
0.602023 0.0709176 0.
0.604039 0.0709091 0.
0.606057 0.0708987 0.
0.608078 0.0708821 0.
0.610098 0.0708656 0.
0.612121 0.0708455 0.
0.614146 0.0708213 0.
0.616171 0.0707972 0.
0.6182 0.0707702 0.
0.620229 0.0707419 0.
0.622259 0.0707136 0.
0.624301 0.0706476 0.
0.626344 0.0705801 0.
0.62839 0.0705105 0.
0.630442 0.0704319 0.
0.632495 0.0703533 0.
0.634551 0.0702711 0.
0.636611 0.0701852 0.
0.63867 0.0700993 0.
0.640734 0.069991 0.
0.6428 0.0698776 0.
0.644867 0.0697621 0.
0.646942 0.0695811 0.
0.649018 0.0693961 0.
0.651095 0.0692184 0.
0.653176 0.0690556 0.
0.655257 0.0688929 0.
0.657338 0.0687281 0.
0.65942 0.0685659 0.
0.661503 0.0684022 0.
0.663585 0.068199 0.
0.665667 0.0679935 0.
0.667749 0.0677873 0.
0.669827 0.067557 0.
0.671905 0.0673251 0.
0.673981 0.0670981 0.
0.676052 0.0668681 0.
0.678123 0.0666372 0.
0.68019 0.0664121 0.
0.682256 0.0661863 0.
0.684321 0.0659603 0.
0.68638 0.0657439 0.
0.688439 0.0655346 0.
0.690495 0.0653352 0.
0.692546 0.0651604 0.
0.694597 0.064989 0.
0.696644 0.0648568 0.
0.698696 0.0647709 0.
0.700749 0.0646907 0.
0.497368 0.0666533 0.
0.499411 0.0667253 0.
0.501455 0.0668461 0.
0.503498 0.0669712 0.
0.505542 0.0671314 0.
0.50759 0.0673159 0.
0.509638 0.0675025 0.
0.511692 0.067707 0.
0.513748 0.0679182 0.
0.515805 0.0681373 0.
0.517868 0.06836 0.
0.519931 0.0685815 0.
0.521994 0.0688022 0.
0.524061 0.0690288 0.
0.526127 0.0692547 0.
0.528198 0.0694756 0.
0.53027 0.0697013 0.
0.532343 0.0699253 0.
0.534419 0.0701227 0.
0.536496 0.0703189 0.
0.538573 0.0705127 0.
0.540651 0.070669 0.
0.542729 0.0708242 0.
0.544806 0.070983 0.
0.546882 0.0711411 0.
0.548958 0.0712992 0.
0.551031 0.0714698 0.
0.553103 0.0716471 0.
0.555174 0.0718201 0.
0.557238 0.0719279 0.
0.559301 0.0720339 0.
0.561363 0.072135 0.
0.563419 0.0722161 0.
0.565475 0.0722972 0.
0.567528 0.0723749 0.
0.569579 0.0724493 0.
0.571629 0.0725238 0.
0.573671 0.072591 0.
0.575711 0.0726566 0.
0.577752 0.0727206 0.
0.579781 0.0727487 0.
0.581809 0.0727767 0.
0.583837 0.0728033 0.
0.585862 0.0728265 0.
0.587887 0.0728497 0.
0.589909 0.0728683 0.
0.59193 0.072883 0.
0.593951 0.0728977 0.
0.59597 0.0729036 0.
0.597988 0.0729069 0.
0.600007 0.0729101 0.
0.602026 0.0729007 0.
0.604046 0.0728913 0.
0.606067 0.0728798 0.
0.60809 0.0728618 0.
0.610112 0.0728438 0.
0.612137 0.0728223 0.
0.614164 0.0727968 0.
0.61619 0.0727713 0.
0.618221 0.072742 0.
0.620252 0.0727111 0.
0.622284 0.0726801 0.
0.624328 0.0726087 0.
0.626372 0.0725357 0.
0.628419 0.0724614 0.
0.630472 0.0723807 0.
0.632526 0.0723001 0.
0.634582 0.0722159 0.
0.636641 0.0721282 0.
0.6387 0.0720406 0.
0.640764 0.071929 0.
0.642829 0.0718126 0.
0.644895 0.0716938 0.
0.646968 0.0715113 0.
0.649041 0.0713246 0.
0.651115 0.0711458 0.
0.653193 0.0709825 0.
0.65527 0.0708193 0.
0.657348 0.0706542 0.
0.659426 0.0704923 0.
0.661505 0.0703287 0.
0.663581 0.070127 0.
0.665658 0.0699231 0.
0.667734 0.0697185 0.
0.669806 0.0694914 0.
0.671877 0.0692628 0.
0.673948 0.0690388 0.
0.676013 0.0688109 0.
0.678078 0.0685822 0.
0.68014 0.0683602 0.
0.6822 0.0681371 0.
0.68426 0.0679137 0.
0.686314 0.0677001 0.
0.688368 0.067494 0.
0.69042 0.0672965 0.
0.692467 0.0671237 0.
0.694514 0.0669545 0.
0.696558 0.0668228 0.
0.698606 0.0667392 0.
0.700656 0.0666606 0.
0.497464 0.0686279 0.
0.499505 0.0686989 0.
0.501545 0.0688179 0.
0.503585 0.0689408 0.
0.505627 0.0691005 0.
0.50767 0.0692827 0.
0.509714 0.069467 0.
0.511763 0.0696697 0.
0.513814 0.0698782 0.
0.515865 0.0700949 0.
0.517921 0.070315 0.
0.519978 0.0705338 0.
0.522035 0.0707519 0.
0.524096 0.0709769 0.
0.526155 0.0712009 0.
0.52822 0.0714185 0.
0.530287 0.0716406 0.
0.532353 0.071861 0.
0.534425 0.0720561 0.
0.536497 0.0722499 0.
0.53857 0.0724415 0.
0.540644 0.0725974 0.
0.542718 0.0727523 0.
0.544791 0.0729112 0.
0.546864 0.0730694 0.
0.548936 0.0732275 0.
0.551006 0.0733994 0.
0.553075 0.0735787 0.
0.555145 0.0737537 0.
0.557207 0.0738649 0.
0.55927 0.0739741 0.
0.561331 0.0740786 0.
0.563388 0.0741616 0.
0.565445 0.0742448 0.
0.567498 0.0743249 0.
0.569549 0.0744019 0.
0.5716 0.074479 0.
0.573645 0.074551 0.
0.575687 0.0746219 0.
0.577729 0.0746914 0.
0.57976 0.0747212 0.
0.58179 0.0747508 0.
0.583819 0.0747791 0.
0.585846 0.074804 0.
0.587872 0.0748289 0.
0.589897 0.074849 0.
0.59192 0.0748649 0.
0.593944 0.0748808 0.
0.595965 0.0748872 0.
0.597987 0.0748906 0.
0.600008 0.0748941 0.
0.60203 0.0748837 0.
0.604053 0.0748734 0.
0.606076 0.0748609 0.
0.608101 0.0748414 0.
0.610126 0.074822 0.
0.612153 0.074799 0.
0.614181 0.0747722 0.
0.616209 0.0747455 0.
0.618242 0.0747138 0.
0.620275 0.0746803 0.
0.622309 0.0746466 0.
0.624355 0.0745697 0.
0.6264 0.0744913 0.
0.628448 0.0744124 0.
0.630502 0.0743295 0.
0.632556 0.0742468 0.
0.634612 0.0741606 0.
0.636671 0.0740711 0.
0.63873 0.0739817 0.
0.640794 0.073867 0.
0.642858 0.0737474 0.
0.644923 0.0736256 0.
0.646993 0.0734416 0.
0.649064 0.0732536 0.
0.651135 0.0730739 0.
0.653208 0.0729107 0.
0.655281 0.0727475 0.
0.657355 0.0725827 0.
0.659429 0.0724214 0.
0.661503 0.0722584 0.
0.663576 0.0720592 0.
0.665647 0.071858 0.
0.667718 0.0716562 0.
0.669783 0.071433 0.
0.671849 0.0712081 0.
0.673913 0.0709875 0.
0.675971 0.0707614 0.
0.67803 0.0705347 0.
0.680086 0.0703151 0.
0.68214 0.0700944 0.
0.684194 0.0698732 0.
0.686243 0.0696616 0.
0.688292 0.069458 0.
0.69034 0.0692618 0.
0.692383 0.0690904 0.
0.694426 0.0689228 0.
0.696467 0.068791 0.
0.698512 0.0687095 0.
0.700559 0.0686324 0.
0.497569 0.0705961 0.
0.499607 0.0706698 0.
0.501645 0.0707903 0.
0.503682 0.0709139 0.
0.505719 0.0710734 0.
0.507759 0.0712537 0.
0.509798 0.0714362 0.
0.511842 0.071637 0.
0.513887 0.0718428 0.
0.515932 0.0720571 0.
0.517982 0.0722746 0.
0.520031 0.0724908 0.
0.522081 0.0727066 0.
0.524135 0.0729297 0.
0.526189 0.0731518 0.
0.528247 0.0733658 0.
0.530308 0.0735843 0.
0.532369 0.0738014 0.
0.534436 0.0739941 0.
0.536503 0.0741854 0.
0.538571 0.0743748 0.
0.540641 0.0745307 0.
0.54271 0.0746855 0.
0.544778 0.0748446 0.
0.546847 0.0750029 0.
0.548915 0.0751611 0.
0.550981 0.0753337 0.
0.553048 0.0755139 0.
0.555114 0.07569 0.
0.557175 0.075804 0.
0.559236 0.0759158 0.
0.561296 0.0760229 0.
0.563352 0.0761074 0.
0.565409 0.0761919 0.
0.567462 0.0762736 0.
0.569514 0.0763523 0.
0.571565 0.076431 0.
0.573611 0.0765063 0.
0.575655 0.0765811 0.
0.577699 0.0766544 0.
0.579733 0.0766869 0.
0.581766 0.0767193 0.
0.583798 0.0767499 0.
0.585827 0.0767757 0.
0.587856 0.0768015 0.
0.589884 0.0768226 0.
0.59191 0.0768395 0.
0.593936 0.0768563 0.
0.595961 0.0768629 0.
0.597985 0.0768664 0.
0.600009 0.0768697 0.
0.602035 0.0768587 0.
0.604061 0.0768477 0.
0.606087 0.0768345 0.
0.608115 0.0768142 0.
0.610142 0.0767939 0.
0.612172 0.07677 0.
0.614202 0.0767422 0.
0.616233 0.0767144 0.
0.618268 0.0766799 0.
0.620304 0.0766432 0.
0.622341 0.0766061 0.
0.624388 0.0765257 0.
0.626435 0.0764438 0.
0.628483 0.0763618 0.
0.630537 0.0762774 0.
0.632591 0.0761932 0.
0.634647 0.0761056 0.
0.636705 0.0760151 0.
0.638763 0.0759246 0.
0.640825 0.0758073 0.
0.642888 0.0756851 0.
0.644951 0.0755605 0.
0.647018 0.075376 0.
0.649085 0.0751872 0.
0.651153 0.0750072 0.
0.653221 0.074844 0.
0.655289 0.0746808 0.
0.657358 0.0745161 0.
0.659427 0.0743552 0.
0.661497 0.0741927 0.
0.663564 0.0739958 0.
0.665631 0.0737973 0.
0.667697 0.0735983 0.
0.669756 0.0733791 0.
0.671816 0.0731584 0.
0.673872 0.0729415 0.
0.675924 0.0727173 0.
0.677975 0.0724924 0.
0.680024 0.0722751 0.
0.682072 0.0720567 0.
0.68412 0.0718378 0.
0.686163 0.0716281 0.
0.688207 0.0714267 0.
0.69025 0.0712318 0.
0.692289 0.0710614 0.
0.694329 0.0708947 0.
0.696368 0.0707615 0.
0.69841 0.0706799 0.
0.700453 0.070602 0.
0.497681 0.0725665 0.
0.499716 0.0726436 0.
0.50175 0.0727658 0.
0.503784 0.0728903 0.
0.505817 0.0730501 0.
0.507852 0.0732287 0.
0.509887 0.0734097 0.
0.511926 0.0736088 0.
0.513965 0.0738124 0.
0.516005 0.0740247 0.
0.518049 0.07424 0.
0.520092 0.0744543 0.
0.522137 0.0746685 0.
0.524184 0.0748902 0.
0.526232 0.075111 0.
0.528284 0.0753221 0.
0.530338 0.0755375 0.
0.532392 0.0757514 0.
0.534453 0.0759412 0.
0.536514 0.0761293 0.
0.538576 0.0763157 0.
0.54064 0.0764708 0.
0.542703 0.0766248 0.
0.544766 0.0767832 0.
0.54683 0.0769411 0.
0.548894 0.077099 0.
0.550957 0.0772712 0.
0.55302 0.0774514 0.
0.555083 0.0776275 0.
0.557143 0.0777437 0.
0.559202 0.0778576 0.
0.561261 0.077967 0.
0.563316 0.0780527 0.
0.565371 0.0781385 0.
0.567425 0.0782216 0.
0.569477 0.0783018 0.
0.571529 0.078382 0.
0.573576 0.0784606 0.
0.575622 0.0785391 0.
0.577669 0.0786162 0.
0.579705 0.0786519 0.
0.581742 0.0786873 0.
0.583777 0.0787204 0.
0.585808 0.0787471 0.
0.58784 0.0787738 0.
0.58987 0.0787959 0.
0.591899 0.0788137 0.
0.593928 0.0788316 0.
0.595956 0.0788384 0.
0.597983 0.0788418 0.
0.600011 0.0788452 0.
0.60204 0.0788334 0.
0.604068 0.0788217 0.
0.606097 0.0788077 0.
0.608128 0.0787866 0.
0.610159 0.0787656 0.
0.612191 0.0787407 0.
0.614224 0.0787117 0.
0.616257 0.0786828 0.
0.618295 0.0786454 0.
0.620334 0.0786052 0.
0.622373 0.0785646 0.
0.624422 0.0784807 0.
0.62647 0.0783955 0.
0.62852 0.0783106 0.
0.630574 0.0782248 0.
0.632627 0.0781391 0.
0.634683 0.0780502 0.
0.63674 0.0779588 0.
0.638796 0.0778675 0.
0.640857 0.077748 0.
0.642917 0.0776237 0.
0.644979 0.077497 0.
0.647042 0.0773128 0.
0.649106 0.0771244 0.
0.65117 0.0769451 0.
0.653233 0.0767827 0.
0.655297 0.0766203 0.
0.65736 0.0764564 0.
0.659423 0.0762965 0.
0.661487 0.0761351 0.
0.663548 0.0759412 0.
0.665608 0.0757458 0.
0.667668 0.0755499 0.
0.66972 0.0753344 0.
0.671773 0.0751173 0.
0.673823 0.0749034 0.
0.675868 0.0746805 0.
0.677913 0.0744569 0.
0.679956 0.074241 0.
0.681998 0.0740246 0.
0.68404 0.0738076 0.
0.686079 0.0735993 0.
0.688117 0.0733997 0.
0.690155 0.073206 0.
0.692191 0.0730363 0.
0.694226 0.0728704 0.
0.696262 0.0727351 0.
0.6983 0.0726528 0.
0.700339 0.0725735 0.
0.497789 0.0745426 0.
0.49982 0.0746219 0.
0.501851 0.0747447 0.
0.503881 0.0748693 0.
0.50591 0.0750296 0.
0.507941 0.0752071 0.
0.509972 0.0753872 0.
0.512006 0.0755851 0.
0.514041 0.0757868 0.
0.516076 0.0759976 0.
0.518114 0.0762111 0.
0.520153 0.0764233 0.
0.522191 0.0766354 0.
0.524233 0.0768554 0.
0.526275 0.0770746 0.
0.52832 0.0772822 0.
0.530367 0.0774939 0.
0.532414 0.0777042 0.
0.534469 0.0778906 0.
0.536524 0.0780751 0.
0.538579 0.0782584 0.
0.540638 0.0784123 0.
0.542696 0.0785651 0.
0.544754 0.0787227 0.
0.546814 0.0788803 0.
0.548873 0.079038 0.
0.550933 0.0792099 0.
0.552993 0.07939 0.
0.555053 0.079566 0.
0.557111 0.0796843 0.
0.559169 0.0798001 0.
0.561226 0.0799116 0.
0.563281 0.0799984 0.
0.565336 0.0800852 0.
0.56739 0.0801696 0.
0.569442 0.0802511 0.
0.571495 0.0803326 0.
0.573544 0.0804139 0.
0.575591 0.0804957 0.
0.577639 0.0805761 0.
0.579679 0.0806149 0.
0.581718 0.0806533 0.
0.583756 0.0806889 0.
0.58579 0.0807164 0.
0.587824 0.0807439 0.
0.589857 0.0807668 0.
0.591889 0.0807855 0.
0.593921 0.0808043 0.
0.595952 0.0808113 0.
0.597982 0.0808146 0.
0.600013 0.0808179 0.
0.602044 0.0808056 0.
0.604076 0.0807932 0.
0.606108 0.0807785 0.
0.608141 0.0807567 0.
0.610175 0.0807349 0.
0.612209 0.0807091 0.
0.614245 0.0806792 0.
0.616281 0.0806494 0.
0.618321 0.0806091 0.
0.620363 0.0805657 0.
0.622404 0.0805217 0.
0.624454 0.0804348 0.
0.626504 0.0803467 0.
0.628555 0.0802592 0.
0.630608 0.0801723 0.
0.632662 0.0800853 0.
0.634717 0.0799954 0.
0.636773 0.0799032 0.
0.638829 0.079811 0.
0.640887 0.0796895 0.
0.642947 0.0795633 0.
0.645006 0.0794347 0.
0.647067 0.0792509 0.
0.649127 0.079063 0.
0.651187 0.0788845 0.
0.653246 0.0787227 0.
0.655305 0.0785609 0.
0.657362 0.0783981 0.
0.65942 0.0782394 0.
0.661478 0.0780793 0.
0.663532 0.0778889 0.
0.665586 0.0776972 0.
0.667639 0.0775048 0.
0.669685 0.0772932 0.
0.671731 0.0770803 0.
0.673774 0.07687 0.
0.675813 0.0766487 0.
0.677853 0.0764266 0.
0.67989 0.0762127 0.
0.681926 0.075998 0.
0.683963 0.0757826 0.
0.685997 0.0755751 0.
0.688031 0.0753768 0.
0.690065 0.0751835 0.
0.692096 0.0750142 0.
0.694128 0.0748489 0.
0.696159 0.0747117 0.
0.698193 0.0746294 0.
0.700228 0.0745498 0.
0.497887 0.0765257 0.
0.499914 0.0766058 0.
0.501941 0.0767279 0.
0.503967 0.076852 0.
0.505994 0.0770128 0.
0.50802 0.0771896 0.
0.510046 0.077369 0.
0.512076 0.0775657 0.
0.514105 0.0777658 0.
0.516135 0.0779752 0.
0.518168 0.0781866 0.
0.520201 0.0783968 0.
0.522234 0.078607 0.
0.52427 0.0788259 0.
0.526305 0.0790439 0.
0.528345 0.0792482 0.
0.530386 0.0794564 0.
0.532426 0.0796633 0.
0.534475 0.0798468 0.
0.536525 0.080028 0.
0.538575 0.0802082 0.
0.540629 0.080361 0.
0.542683 0.0805127 0.
0.544738 0.0806694 0.
0.546794 0.0808267 0.
0.54885 0.0809839 0.
0.550908 0.0811545 0.
0.552966 0.0813332 0.
0.555024 0.0815079 0.
0.557081 0.0816273 0.
0.559138 0.0817441 0.
0.561195 0.0818567 0.
0.56325 0.0819442 0.
0.565305 0.0820318 0.
0.567359 0.082117 0.
0.569411 0.0821992 0.
0.571464 0.0822815 0.
0.573514 0.0823651 0.
0.575563 0.0824496 0.
0.577612 0.0825327 0.
0.579654 0.0825747 0.
0.581696 0.0826162 0.
0.583736 0.0826545 0.
0.585773 0.0826828 0.
0.587809 0.0827111 0.
0.589845 0.0827349 0.
0.591879 0.0827543 0.
0.593914 0.0827738 0.
0.595948 0.0827809 0.
0.597981 0.0827842 0.
0.600015 0.0827875 0.
0.602049 0.0827745 0.
0.604083 0.0827615 0.
0.606118 0.0827462 0.
0.608154 0.0827237 0.
0.61019 0.0827011 0.
0.612227 0.0826745 0.
0.614265 0.0826438 0.
0.616303 0.0826131 0.
0.618346 0.0825699 0.
0.620389 0.0825232 0.
0.622433 0.0824758 0.
0.624483 0.0823866 0.
0.626534 0.0822962 0.
0.628585 0.082207 0.
0.630639 0.0821194 0.
0.632692 0.0820319 0.
0.634747 0.0819413 0.
0.636803 0.0818484 0.
0.638859 0.0817555 0.
0.640916 0.0816329 0.
0.642974 0.081506 0.
0.645033 0.0813765 0.
0.647091 0.0811946 0.
0.649149 0.0810085 0.
0.651206 0.0808317 0.
0.653262 0.0806705 0.
0.655317 0.0805091 0.
0.657371 0.080347 0.
0.659424 0.0801896 0.
0.661477 0.0800307 0.
0.663526 0.0798435 0.
0.665574 0.0796552 0.
0.667621 0.0794659 0.
0.66966 0.0792578 0.
0.6717 0.0790486 0.
0.673738 0.0788416 0.
0.675771 0.0786214 0.
0.677805 0.0784005 0.
0.679836 0.0781884 0.
0.681867 0.0779756 0.
0.683898 0.077762 0.
0.685927 0.0775553 0.
0.687956 0.077358 0.
0.689985 0.0771651 0.
0.692012 0.0769959 0.
0.69404 0.076831 0.
0.696067 0.0766923 0.
0.698097 0.0766106 0.
0.700128 0.0765316 0.
0.497988 0.0785112 0.
0.500012 0.0785926 0.
0.502035 0.0787141 0.
0.504058 0.078838 0.
0.506081 0.0789999 0.
0.508103 0.0791766 0.
0.510124 0.0793559 0.
0.512148 0.079552 0.
0.514171 0.0797508 0.
0.516195 0.0799592 0.
0.518222 0.0801689 0.
0.520248 0.0803776 0.
0.522275 0.0805865 0.
0.524305 0.0808042 0.
0.526333 0.0810207 0.
0.528367 0.0812213 0.
0.530402 0.0814255 0.
0.532437 0.0816288 0.
0.534481 0.0818084 0.
0.536526 0.0819852 0.
0.538572 0.0821612 0.
0.540622 0.0823125 0.
0.542672 0.0824626 0.
0.544723 0.0826182 0.
0.546776 0.0827746 0.
0.548829 0.0829309 0.
0.550884 0.0830997 0.
0.552939 0.0832768 0.
0.554995 0.08345 0.
0.557051 0.0835703 0.
0.559108 0.083688 0.
0.561164 0.0838017 0.
0.563219 0.08389 0.
0.565274 0.0839783 0.
0.567328 0.0840643 0.
0.569381 0.0841474 0.
0.571434 0.0842305 0.
0.573485 0.0843163 0.
0.575535 0.0844034 0.
0.577585 0.0844893 0.
0.579629 0.0845344 0.
0.581673 0.084579 0.
0.583716 0.0846201 0.
0.585755 0.0846492 0.
0.587794 0.0846784 0.
0.589832 0.0847029 0.
0.59187 0.0847231 0.
0.593907 0.0847432 0.
0.595944 0.0847506 0.
0.59798 0.0847539 0.
0.600017 0.0847571 0.
0.602054 0.0847435 0.
0.604091 0.0847299 0.
0.606128 0.0847139 0.
0.608167 0.0846906 0.
0.610205 0.0846673 0.
0.612245 0.0846399 0.
0.614285 0.0846083 0.
0.616326 0.0845768 0.
0.61837 0.0845307 0.
0.620415 0.0844806 0.
0.622461 0.0844298 0.
0.624512 0.0843384 0.
0.626563 0.0842458 0.
0.628615 0.0841547 0.
0.630669 0.0840665 0.
0.632722 0.0839784 0.
0.634777 0.0838871 0.
0.636833 0.0837935 0.
0.638888 0.0836999 0.
0.640945 0.0835764 0.
0.643002 0.0834489 0.
0.645059 0.0833186 0.
0.647115 0.0831388 0.
0.64917 0.0829549 0.
0.651224 0.0827803 0.
0.653276 0.08262 0.
0.655327 0.0824595 0.
0.657377 0.0822987 0.
0.659426 0.082143 0.
0.661475 0.0819859 0.
0.663519 0.0818033 0.
0.665562 0.0816198 0.
0.667604 0.0814345 0.
0.669637 0.08123 0.
0.67167 0.0810243 0.
0.673702 0.0808208 0.
0.675729 0.080602 0.
0.677758 0.0803821 0.
0.679782 0.080171 0.
0.681807 0.0799595 0.
0.683832 0.0797473 0.
0.685855 0.0795409 0.
0.687878 0.079344 0.
0.689902 0.079151 0.
0.691925 0.0789817 0.
0.693949 0.0788168 0.
0.695972 0.0786763 0.
0.697998 0.078595 0.
0.700025 0.0785167 0.
0.498101 0.0804972 0.
0.500121 0.0805824 0.
0.50214 0.0807053 0.
0.504159 0.0808305 0.
0.506176 0.0809937 0.
0.508193 0.0811703 0.
0.510209 0.0813494 0.
0.512226 0.0815445 0.
0.514243 0.0817417 0.
0.516261 0.0819484 0.
0.518281 0.0821567 0.
0.5203 0.0823641 0.
0.52232 0.082572 0.
0.524342 0.0827876 0.
0.526364 0.083002 0.
0.528391 0.0831984 0.
0.53042 0.0833987 0.
0.53245 0.0835981 0.
0.534489 0.0837737 0.
0.536529 0.0839459 0.
0.538569 0.084118 0.
0.540616 0.0842679 0.
0.542662 0.0844168 0.
0.544709 0.0845712 0.
0.546757 0.0847268 0.
0.548805 0.0848822 0.
0.550857 0.0850488 0.
0.55291 0.0852235 0.
0.554963 0.0853942 0.
0.557018 0.0855151 0.
0.559073 0.0856331 0.
0.561128 0.0857473 0.
0.563183 0.0858361 0.
0.565238 0.0859248 0.
0.567292 0.0860114 0.
0.569345 0.0860948 0.
0.571398 0.0861783 0.
0.57345 0.0862651 0.
0.575502 0.0863535 0.
0.577553 0.0864407 0.
0.5796 0.0864884 0.
0.581646 0.0865356 0.
0.583692 0.0865788 0.
0.585735 0.0866085 0.
0.587777 0.0866382 0.
0.589818 0.0866633 0.
0.591859 0.086684 0.
0.5939 0.0867046 0.
0.59594 0.0867122 0.
0.597979 0.0867155 0.
0.600019 0.0867188 0.
0.602059 0.0867047 0.
0.604099 0.0866907 0.
0.606139 0.0866742 0.
0.608181 0.0866504 0.
0.610223 0.0866265 0.
0.612265 0.0865986 0.
0.614309 0.0865665 0.
0.616352 0.0865344 0.
0.618399 0.0864861 0.
0.620446 0.0864334 0.
0.622494 0.08638 0.
0.624546 0.0862875 0.
0.626598 0.0861939 0.
0.628651 0.086102 0.
0.630704 0.0860138 0.
0.632758 0.0859255 0.
0.634812 0.0858339 0.
0.636867 0.08574 0.
0.638923 0.0856461 0.
0.640978 0.0855223 0.
0.643033 0.0853946 0.
0.645089 0.085264 0.
0.64714 0.0850865 0.
0.649192 0.0849051 0.
0.651243 0.084733 0.
0.653289 0.0845735 0.
0.655336 0.0844138 0.
0.657382 0.0842542 0.
0.659427 0.0841001 0.
0.661472 0.0839447 0.
0.663511 0.0837667 0.
0.665549 0.0835883 0.
0.667586 0.0834075 0.
0.669612 0.0832068 0.
0.671639 0.083005 0.
0.673664 0.0828055 0.
0.675684 0.0825885 0.
0.677704 0.0823704 0.
0.679723 0.08216 0.
0.681741 0.0819493 0.
0.683759 0.081738 0.
0.685777 0.0815325 0.
0.687794 0.0813365 0.
0.689812 0.0811436 0.
0.69183 0.080974 0.
0.693849 0.0808089 0.
0.695867 0.0806659 0.
0.697888 0.0805834 0.
0.69991 0.080504 0.
0.498225 0.082488 0.
0.50024 0.0825778 0.
0.502253 0.0827022 0.
0.504266 0.0828289 0.
0.506277 0.0829935 0.
0.508287 0.0831701 0.
0.510297 0.0833493 0.
0.512308 0.0835433 0.
0.514319 0.0837388 0.
0.516331 0.0839441 0.
0.518344 0.0841513 0.
0.520356 0.0843578 0.
0.522369 0.0845647 0.
0.524384 0.0847785 0.
0.526398 0.0849913 0.
0.528419 0.085184 0.
0.530442 0.0853807 0.
0.532464 0.0855765 0.
0.534497 0.0857475 0.
0.536532 0.0859146 0.
0.538567 0.0860819 0.
0.540608 0.08623 0.
0.542649 0.086377 0.
0.544692 0.0865296 0.
0.546736 0.0866839 0.
0.54878 0.086838 0.
0.550829 0.0870013 0.
0.552879 0.0871726 0.
0.554929 0.0873401 0.
0.556983 0.0874609 0.
0.559037 0.0875785 0.
0.561092 0.0876929 0.
0.563146 0.087782 0.
0.565201 0.0878711 0.
0.567255 0.0879581 0.
0.569308 0.0880418 0.
0.571362 0.0881255 0.
0.573415 0.0882131 0.
0.575468 0.0883027 0.
0.577521 0.0883911 0.
0.57957 0.0884414 0.
0.581619 0.088491 0.
0.583668 0.0885365 0.
0.585714 0.0885668 0.
0.587759 0.0885972 0.
0.589804 0.0886229 0.
0.591848 0.0886441 0.
0.593893 0.0886654 0.
0.595936 0.0886732 0.
0.597978 0.0886766 0.
0.600021 0.08868 0.
0.602064 0.0886654 0.
0.604107 0.0886509 0.
0.606151 0.0886339 0.
0.608196 0.0886094 0.
0.610241 0.0885849 0.
0.612286 0.0885563 0.
0.614333 0.0885236 0.
0.616379 0.088491 0.
0.618428 0.0884404 0.
0.620478 0.0883853 0.
0.622528 0.0883293 0.
0.624581 0.0882359 0.
0.626634 0.0881413 0.
0.628687 0.088049 0.
0.630741 0.0879607 0.
0.632794 0.0878725 0.
0.634849 0.0877807 0.
0.636903 0.0876865 0.
0.638958 0.0875923 0.
0.641012 0.087469 0.
0.643066 0.087342 0.
0.645119 0.0872118 0.
0.647168 0.0870375 0.
0.649216 0.0868595 0.
0.651263 0.0866905 0.
0.653305 0.0865323 0.
0.655348 0.086374 0.
0.657389 0.0862162 0.
0.659428 0.0860643 0.
0.661468 0.0859109 0.
0.663501 0.085738 0.
0.665534 0.0855649 0.
0.667565 0.0853889 0.
0.669585 0.0851919 0.
0.671605 0.0849938 0.
0.673623 0.0847979 0.
0.675635 0.0845823 0.
0.677647 0.0843657 0.
0.679659 0.0841558 0.
0.681671 0.0839456 0.
0.683683 0.083735 0.
0.685694 0.0835302 0.
0.687705 0.0833351 0.
0.689717 0.0831426 0.
0.691728 0.0829725 0.
0.693741 0.0828071 0.
0.695754 0.0826613 0.
0.697768 0.0825774 0.
0.699784 0.0824968 0.
0.498345 0.0844843 0.
0.500354 0.0845786 0.
0.502361 0.0847044 0.
0.504368 0.0848326 0.
0.506372 0.0849989 0.
0.508376 0.0851759 0.
0.510379 0.0853556 0.
0.512383 0.0855484 0.
0.514388 0.0857422 0.
0.516392 0.0859458 0.
0.518399 0.0861516 0.
0.520405 0.0863569 0.
0.522412 0.0865623 0.
0.524421 0.0867744 0.
0.52643 0.0869853 0.
0.528444 0.0871741 0.
0.53046 0.0873663 0.
0.532477 0.0875579 0.
0.534504 0.0877238 0.
0.536533 0.0878853 0.
0.538562 0.0880475 0.
0.540599 0.0881933 0.
0.542635 0.0883381 0.
0.544673 0.0884888 0.
0.546714 0.0886419 0.
0.548754 0.0887948 0.
0.5508 0.0889548 0.
0.552848 0.0891226 0.
0.554896 0.0892868 0.
0.556949 0.0894073 0.
0.559002 0.0895243 0.
0.561056 0.0896385 0.
0.563111 0.089728 0.
0.565165 0.0898174 0.
0.567219 0.0899048 0.
0.569273 0.0899887 0.
0.571328 0.0900727 0.
0.573382 0.0901608 0.
0.575436 0.0902511 0.
0.57749 0.0903403 0.
0.579542 0.0903929 0.
0.581593 0.0904448 0.
0.583645 0.0904922 0.
0.585694 0.090523 0.
0.587743 0.0905537 0.
0.589791 0.09058 0.
0.591838 0.0906019 0.
0.593886 0.0906238 0.
0.595932 0.0906319 0.
0.597978 0.0906354 0.
0.600023 0.0906389 0.
0.602069 0.0906239 0.
0.604115 0.0906089 0.
0.606162 0.0905913 0.
0.60821 0.0905663 0.
0.610257 0.0905413 0.
0.612306 0.0905121 0.
0.614355 0.090479 0.
0.616404 0.090446 0.
0.618456 0.0903933 0.
0.620508 0.090336 0.
0.62256 0.0902777 0.
0.624614 0.0901838 0.
0.626668 0.0900888 0.
0.628722 0.0899961 0.
0.630776 0.0899077 0.
0.63283 0.0898194 0.
0.634884 0.0897272 0.
0.636938 0.0896328 0.
0.638993 0.0895383 0.
0.641046 0.0894157 0.
0.643098 0.0892898 0.
0.64515 0.0891605 0.
0.647196 0.0889896 0.
0.649241 0.0888151 0.
0.651285 0.0886494 0.
0.653323 0.0884926 0.
0.655362 0.0883356 0.
0.657397 0.0881798 0.
0.659432 0.0880303 0.
0.661467 0.0878793 0.
0.663494 0.0877117 0.
0.665521 0.0875444 0.
0.667546 0.0873737 0.
0.66956 0.0871809 0.
0.671574 0.0869872 0.
0.673586 0.0867953 0.
0.675592 0.0865811 0.
0.677599 0.086366 0.
0.679604 0.0861573 0.
0.681609 0.0859483 0.
0.683614 0.0857388 0.
0.685618 0.0855349 0.
0.687623 0.0853407 0.
0.689627 0.0851484 0.
0.691632 0.0849772 0.
0.693637 0.0848109 0.
0.695643 0.084662 0.
0.697652 0.0845768 0.
0.69966 0.0844952 0.
0.498449 0.0864875 0.
0.500451 0.0865858 0.
0.502452 0.0867132 0.
0.504453 0.086843 0.
0.50645 0.0870106 0.
0.508448 0.0871879 0.
0.510444 0.0873679 0.
0.512442 0.0875591 0.
0.51444 0.0877509 0.
0.516437 0.0879525 0.
0.518438 0.088157 0.
0.520438 0.088361 0.
0.522439 0.0885649 0.
0.524441 0.0887756 0.
0.526443 0.0889851 0.
0.528452 0.0891693 0.
0.530463 0.0893564 0.
0.532474 0.0895429 0.
0.534496 0.0897046 0.
0.53652 0.0898613 0.
0.538545 0.0900188 0.
0.540579 0.090162 0.
0.542612 0.0903038 0.
0.544648 0.0904523 0.
0.546686 0.0906044 0.
0.548725 0.0907564 0.
0.55077 0.0909126 0.
0.552817 0.0910762 0.
0.554865 0.0912363 0.
0.556918 0.0913554 0.
0.558971 0.0914708 0.
0.561025 0.0915839 0.
0.56308 0.0916736 0.
0.565134 0.0917631 0.
0.567189 0.0918507 0.
0.569244 0.0919348 0.
0.571298 0.092019 0.
0.573353 0.0921072 0.
0.575408 0.0921976 0.
0.577462 0.092287 0.
0.579516 0.0923414 0.
0.58157 0.092395 0.
0.583623 0.092444 0.
0.585675 0.0924751 0.
0.587727 0.0925063 0.
0.589778 0.0925332 0.
0.591828 0.0925558 0.
0.593879 0.0925785 0.
0.595928 0.092587 0.
0.597977 0.0925908 0.
0.600026 0.0925944 0.
0.602075 0.0925789 0.
0.604124 0.0925633 0.
0.606173 0.0925452 0.
0.608223 0.0925196 0.
0.610273 0.092494 0.
0.612324 0.0924644 0.
0.614375 0.092431 0.
0.616427 0.0923975 0.
0.61848 0.0923432 0.
0.620534 0.0922841 0.
0.622587 0.092224 0.
0.624642 0.0921302 0.
0.626697 0.0920354 0.
0.628751 0.091943 0.
0.630806 0.0918542 0.
0.63286 0.0917655 0.
0.634914 0.091673 0.
0.636969 0.0915786 0.
0.639024 0.0914839 0.
0.641077 0.0913633 0.
0.64313 0.0912401 0.
0.645181 0.0911131 0.
0.647226 0.0909464 0.
0.649271 0.090776 0.
0.651313 0.0906142 0.
0.653349 0.0904583 0.
0.655385 0.0903024 0.
0.657417 0.0901487 0.
0.659448 0.0900019 0.
0.661479 0.0898535 0.
0.663501 0.0896906 0.
0.665523 0.0895284 0.
0.667543 0.0893621 0.
0.669552 0.0891742 0.
0.67156 0.0889854 0.
0.673567 0.0887979 0.
0.675567 0.088585 0.
0.677567 0.0883712 0.
0.679566 0.0881638 0.
0.681564 0.0879561 0.
0.683563 0.087748 0.
0.68556 0.0875454 0.
0.687556 0.0873526 0.
0.689553 0.0871611 0.
0.691551 0.0869887 0.
0.69355 0.0868212 0.
0.695549 0.0866694 0.
0.697551 0.0865831 0.
0.699554 0.0865005 0.
0.498542 0.0884945 0.
0.500539 0.0885969 0.
0.502534 0.0887262 0.
0.504529 0.0888579 0.
0.50652 0.0890268 0.
0.508511 0.0892045 0.
0.510501 0.089385 0.
0.512492 0.0895753 0.
0.514482 0.0897657 0.
0.516472 0.089966 0.
0.518465 0.0901692 0.
0.520458 0.0903719 0.
0.522452 0.0905744 0.
0.524448 0.0907835 0.
0.526443 0.0909914 0.
0.528448 0.0911702 0.
0.530455 0.0913511 0.
0.532463 0.0915317 0.
0.534482 0.0916891 0.
0.536503 0.0918409 0.
0.538526 0.0919936 0.
0.540557 0.0921331 0.
0.542589 0.092271 0.
0.544623 0.0924167 0.
0.546659 0.0925678 0.
0.548696 0.0927188 0.
0.55074 0.0928711 0.
0.552787 0.0930302 0.
0.554834 0.0931861 0.
0.556887 0.0933036 0.
0.55894 0.0934174 0.
0.560994 0.0935293 0.
0.563049 0.0936191 0.
0.565104 0.0937087 0.
0.567159 0.0937965 0.
0.569214 0.0938809 0.
0.571269 0.0939653 0.
0.573324 0.0940536 0.
0.57538 0.0941441 0.
0.577435 0.0942337 0.
0.579491 0.0942898 0.
0.581546 0.0943451 0.
0.583602 0.0943958 0.
0.585657 0.0944273 0.
0.587711 0.0944588 0.
0.589765 0.0944863 0.
0.591819 0.0945098 0.
0.593872 0.0945333 0.
0.595925 0.0945421 0.
0.597977 0.0945461 0.
0.600029 0.09455 0.
0.60208 0.0945339 0.
0.604132 0.0945178 0.
0.606184 0.0944991 0.
0.608236 0.094473 0.
0.610289 0.0944468 0.
0.612342 0.0944167 0.
0.614396 0.0943829 0.
0.616449 0.0943491 0.
0.618504 0.0942931 0.
0.620559 0.0942322 0.
0.622615 0.0941703 0.
0.62467 0.0940766 0.
0.626725 0.0939821 0.
0.628781 0.0938898 0.
0.630835 0.0938007 0.
0.63289 0.0937116 0.
0.634945 0.0936188 0.
0.637 0.0935244 0.
0.639055 0.0934296 0.
0.641108 0.093311 0.
0.64316 0.0931905 0.
0.645212 0.093066 0.
0.647256 0.0929037 0.
0.649299 0.0927378 0.
0.65134 0.0925801 0.
0.653373 0.0924254 0.
0.655407 0.0922706 0.
0.657438 0.0921197 0.
0.659466 0.0919767 0.
0.661495 0.0918318 0.
0.663514 0.0916739 0.
0.665532 0.0915168 0.
0.667548 0.0913549 0.
0.669553 0.0911726 0.
0.671558 0.0909896 0.
0.67356 0.0908073 0.
0.675553 0.0905958 0.
0.677547 0.0903831 0.
0.679539 0.090177 0.
0.68153 0.0899705 0.
0.683522 0.0897636 0.
0.68551 0.0895617 0.
0.687499 0.0893697 0.
0.689489 0.0891785 0.
0.69148 0.0890046 0.
0.693473 0.0888357 0.
0.695466 0.0886812 0.
0.697462 0.0885933 0.
0.699459 0.0885095 0.
0.498616 0.0905053 0.
0.500608 0.0906117 0.
0.502598 0.0907435 0.
0.504587 0.0908775 0.
0.506573 0.0910476 0.
0.508558 0.0912257 0.
0.510542 0.0914065 0.
0.512527 0.0915956 0.
0.514511 0.0917845 0.
0.516496 0.0919834 0.
0.518483 0.092185 0.
0.52047 0.0923862 0.
0.522458 0.0925869 0.
0.524448 0.092794 0.
0.526438 0.0929999 0.
0.528439 0.0931728 0.
0.530444 0.0933473 0.
0.53245 0.0935218 0.
0.534466 0.093675 0.
0.536485 0.0938219 0.
0.538505 0.0939698 0.
0.540535 0.0941056 0.
0.542566 0.0942397 0.
0.544598 0.0943823 0.
0.546634 0.0945321 0.
0.548669 0.0946819 0.
0.550713 0.0948304 0.
0.552759 0.0949851 0.
0.554805 0.0951367 0.
0.556858 0.0952529 0.
0.558911 0.0953651 0.
0.560965 0.0954757 0.
0.56302 0.0955654 0.
0.565075 0.0956548 0.
0.56713 0.0957426 0.
0.569185 0.0958271 0.
0.571241 0.0959115 0.
0.573297 0.0959992 0.
0.575354 0.096089 0.
0.57741 0.096178 0.
0.579468 0.0962348 0.
0.581525 0.0962906 0.
0.583583 0.0963419 0.
0.585639 0.0963736 0.
0.587696 0.0964054 0.
0.589753 0.0964332 0.
0.591809 0.0964569 0.
0.593866 0.0964805 0.
0.595921 0.0964897 0.
0.597976 0.0964941 0.
0.600032 0.0964984 0.
0.602086 0.0964823 0.
0.60414 0.0964662 0.
0.606195 0.0964475 0.
0.60825 0.096421 0.
0.610304 0.0963946 0.
0.612359 0.0963642 0.
0.614415 0.0963303 0.
0.61647 0.0962963 0.
0.618526 0.0962394 0.
0.620583 0.0961777 0.
0.62264 0.0961149 0.
0.624696 0.096022 0.
0.626752 0.0959282 0.
0.628808 0.0958365 0.
0.630863 0.0957474 0.
0.632918 0.0956584 0.
0.634974 0.0955656 0.
0.637029 0.0954714 0.
0.639084 0.0953767 0.
0.641137 0.0952602 0.
0.643189 0.095142 0.
0.64524 0.0950197 0.
0.647283 0.0948616 0.
0.649326 0.0947001 0.
0.651366 0.0945462 0.
0.653398 0.0943929 0.
0.65543 0.0942395 0.
0.657459 0.0940917 0.
0.659486 0.0939525 0.
0.661512 0.0938114 0.
0.663529 0.0936586 0.
0.665545 0.0935066 0.
0.667558 0.0933493 0.
0.66956 0.0931727 0.
0.671561 0.0929958 0.
0.673559 0.0928189 0.
0.675546 0.0926091 0.
0.677534 0.0923982 0.
0.679521 0.0921937 0.
0.681506 0.0919885 0.
0.683492 0.0917831 0.
0.685475 0.0915822 0.
0.687458 0.091391 0.
0.689442 0.0912002 0.
0.691428 0.0910253 0.
0.693414 0.0908552 0.
0.695402 0.0906979 0.
0.697393 0.0906079 0.
0.699385 0.0905221 0.
0.498672 0.092519 0.
0.500659 0.092629 0.
0.502645 0.0927634 0.
0.50463 0.0928999 0.
0.506611 0.0930709 0.
0.508591 0.0932493 0.
0.510571 0.0934304 0.
0.51255 0.0936184 0.
0.51453 0.0938061 0.
0.51651 0.0940037 0.
0.518492 0.0942042 0.
0.520475 0.0944044 0.
0.522459 0.0946035 0.
0.524446 0.0948091 0.
0.526433 0.0950135 0.
0.528432 0.0951805 0.
0.530434 0.0953481 0.
0.532437 0.0955157 0.
0.534452 0.0956642 0.
0.53647 0.0958058 0.
0.53849 0.0959483 0.
0.540519 0.0960803 0.
0.542548 0.0962104 0.
0.544579 0.0963498 0.
0.546614 0.0964984 0.
0.548648 0.0966469 0.
0.550691 0.0967915 0.
0.552736 0.0969416 0.
0.554781 0.0970889 0.
0.556833 0.0972032 0.
0.558886 0.0973134 0.
0.560938 0.0974223 0.
0.562993 0.0975118 0.
0.565048 0.0976009 0.
0.567103 0.0976886 0.
0.569159 0.097773 0.
0.571214 0.0978574 0.
0.573271 0.0979443 0.
0.575329 0.0980335 0.
0.577386 0.0981217 0.
0.579445 0.0981789 0.
0.581505 0.098235 0.
0.583564 0.0982866 0.
0.585623 0.0983187 0.
0.587682 0.0983508 0.
0.589741 0.0983788 0.
0.5918 0.0984027 0.
0.593859 0.0984265 0.
0.595918 0.0984361 0.
0.597976 0.0984409 0.
0.600035 0.0984455 0.
0.602092 0.0984295 0.
0.604149 0.0984135 0.
0.606206 0.0983947 0.
0.608263 0.098368 0.
0.610319 0.0983414 0.
0.612376 0.0983107 0.
0.614433 0.0982765 0.
0.61649 0.0982424 0.
0.618548 0.0981848 0.
0.620605 0.0981224 0.
0.622663 0.098059 0.
0.624721 0.0979668 0.
0.626778 0.0978738 0.
0.628834 0.0977828 0.
0.630889 0.0976938 0.
0.632945 0.0976049 0.
0.635 0.0975125 0.
0.637055 0.0974188 0.
0.639109 0.0973245 0.
0.641161 0.0972103 0.
0.643212 0.0970948 0.
0.645263 0.0969752 0.
0.647305 0.0968215 0.
0.649347 0.0966647 0.
0.651385 0.0965147 0.
0.653416 0.0963626 0.
0.655447 0.0962103 0.
0.657475 0.0960657 0.
0.6595 0.0959306 0.
0.661526 0.0957935 0.
0.663542 0.0956462 0.
0.665556 0.0954997 0.
0.667568 0.0953472 0.
0.669567 0.095177 0.
0.671565 0.0950064 0.
0.67356 0.0948353 0.
0.675544 0.0946269 0.
0.677528 0.0944174 0.
0.679511 0.0942141 0.
0.681492 0.0940098 0.
0.683473 0.0938052 0.
0.685452 0.0936051 0.
0.687431 0.0934145 0.
0.689409 0.0932242 0.
0.69139 0.0930485 0.
0.693372 0.0928773 0.
0.695355 0.0927179 0.
0.697342 0.0926253 0.
0.699329 0.0925371 0.
CELLS 5000 10000
1 0
1 1
1 2
1 3
1 4
1 5
1 6
1 7
1 8
1 9
1 10
1 11
1 12
1 13
1 14
1 15
1 16
1 17
1 18
1 19
1 20
1 21
1 22
1 23
1 24
1 25
1 26
1 27
1 28
1 29
1 30
1 31
1 32
1 33
1 34
1 35
1 36
1 37
1 38
1 39
1 40
1 41
1 42
1 43
1 44
1 45
1 46
1 47
1 48
1 49
1 50
1 51
1 52
1 53
1 54
1 55
1 56
1 57
1 58
1 59
1 60
1 61
1 62
1 63
1 64
1 65
1 66
1 67
1 68
1 69
1 70
1 71
1 72
1 73
1 74
1 75
1 76
1 77
1 78
1 79
1 80
1 81
1 82
1 83
1 84
1 85
1 86
1 87
1 88
1 89
1 90
1 91
1 92
1 93
1 94
1 95
1 96
1 97
1 98
1 99
1 100
1 101
1 102
1 103
1 104
1 105
1 106
1 107
1 108
1 109
1 110
1 111
1 112
1 113
1 114
1 115
1 116
1 117
1 118
1 119
1 120
1 121
1 122
1 123
1 124
1 125
1 126
1 127
1 128
1 129
1 130
1 131
1 132
1 133
1 134
1 135
1 136
1 137
1 138
1 139
1 140
1 141
1 142
1 143
1 144
1 145
1 146
1 147
1 148
1 149
1 150
1 151
1 152
1 153
1 154
1 155
1 156
1 157
1 158
1 159
1 160
1 161
1 162
1 163
1 164
1 165
1 166
1 167
1 168
1 169
1 170
1 171
1 172
1 173
1 174
1 175
1 176
1 177
1 178
1 179
1 180
1 181
1 182
1 183
1 184
1 185
1 186
1 187
1 188
1 189
1 190
1 191
1 192
1 193
1 194
1 195
1 196
1 197
1 198
1 199
1 200
1 201
1 202
1 203
1 204
1 205
1 206
1 207
1 208
1 209
1 210
1 211
1 212
1 213
1 214
1 215
1 216
1 217
1 218
1 219
1 220
1 221
1 222
1 223
1 224
1 225
1 226
1 227
1 228
1 229
1 230
1 231
1 232
1 233
1 234
1 235
1 236
1 237
1 238
1 239
1 240
1 241
1 242
1 243
1 244
1 245
1 246
1 247
1 248
1 249
1 250
1 251
1 252
1 253
1 254
1 255
1 256
1 257
1 258
1 259
1 260
1 261
1 262
1 263
1 264
1 265
1 266
1 267
1 268
1 269
1 270
1 271
1 272
1 273
1 274
1 275
1 276
1 277
1 278
1 279
1 280
1 281
1 282
1 283
1 284
1 285
1 286
1 287
1 288
1 289
1 290
1 291
1 292
1 293
1 294
1 295
1 296
1 297
1 298
1 299
1 300
1 301
1 302
1 303
1 304
1 305
1 306
1 307
1 308
1 309
1 310
1 311
1 312
1 313
1 314
1 315
1 316
1 317
1 318
1 319
1 320
1 321
1 322
1 323
1 324
1 325
1 326
1 327
1 328
1 329
1 330
1 331
1 332
1 333
1 334
1 335
1 336
1 337
1 338
1 339
1 340
1 341
1 342
1 343
1 344
1 345
1 346
1 347
1 348
1 349
1 350
1 351
1 352
1 353
1 354
1 355
1 356
1 357
1 358
1 359
1 360
1 361
1 362
1 363
1 364
1 365
1 366
1 367
1 368
1 369
1 370
1 371
1 372
1 373
1 374
1 375
1 376
1 377
1 378
1 379
1 380
1 381
1 382
1 383
1 384
1 385
1 386
1 387
1 388
1 389
1 390
1 391
1 392
1 393
1 394
1 395
1 396
1 397
1 398
1 399
1 400
1 401
1 402
1 403
1 404
1 405
1 406
1 407
1 408
1 409
1 410
1 411
1 412
1 413
1 414
1 415
1 416
1 417
1 418
1 419
1 420
1 421
1 422
1 423
1 424
1 425
1 426
1 427
1 428
1 429
1 430
1 431
1 432
1 433
1 434
1 435
1 436
1 437
1 438
1 439
1 440
1 441
1 442
1 443
1 444
1 445
1 446
1 447
1 448
1 449
1 450
1 451
1 452
1 453
1 454
1 455
1 456
1 457
1 458
1 459
1 460
1 461
1 462
1 463
1 464
1 465
1 466
1 467
1 468
1 469
1 470
1 471
1 472
1 473
1 474
1 475
1 476
1 477
1 478
1 479
1 480
1 481
1 482
1 483
1 484
1 485
1 486
1 487
1 488
1 489
1 490
1 491
1 492
1 493
1 494
1 495
1 496
1 497
1 498
1 499
1 500
1 501
1 502
1 503
1 504
1 505
1 506
1 507
1 508
1 509
1 510
1 511
1 512
1 513
1 514
1 515
1 516
1 517
1 518
1 519
1 520
1 521
1 522
1 523
1 524
1 525
1 526
1 527
1 528
1 529
1 530
1 531
1 532
1 533
1 534
1 535
1 536
1 537
1 538
1 539
1 540
1 541
1 542
1 543
1 544
1 545
1 546
1 547
1 548
1 549
1 550
1 551
1 552
1 553
1 554
1 555
1 556
1 557
1 558
1 559
1 560
1 561
1 562
1 563
1 564
1 565
1 566
1 567
1 568
1 569
1 570
1 571
1 572
1 573
1 574
1 575
1 576
1 577
1 578
1 579
1 580
1 581
1 582
1 583
1 584
1 585
1 586
1 587
1 588
1 589
1 590
1 591
1 592
1 593
1 594
1 595
1 596
1 597
1 598
1 599
1 600
1 601
1 602
1 603
1 604
1 605
1 606
1 607
1 608
1 609
1 610
1 611
1 612
1 613
1 614
1 615
1 616
1 617
1 618
1 619
1 620
1 621
1 622
1 623
1 624
1 625
1 626
1 627
1 628
1 629
1 630
1 631
1 632
1 633
1 634
1 635
1 636
1 637
1 638
1 639
1 640
1 641
1 642
1 643
1 644
1 645
1 646
1 647
1 648
1 649
1 650
1 651
1 652
1 653
1 654
1 655
1 656
1 657
1 658
1 659
1 660
1 661
1 662
1 663
1 664
1 665
1 666
1 667
1 668
1 669
1 670
1 671
1 672
1 673
1 674
1 675
1 676
1 677
1 678
1 679
1 680
1 681
1 682
1 683
1 684
1 685
1 686
1 687
1 688
1 689
1 690
1 691
1 692
1 693
1 694
1 695
1 696
1 697
1 698
1 699
1 700
1 701
1 702
1 703
1 704
1 705
1 706
1 707
1 708
1 709
1 710
1 711
1 712
1 713
1 714
1 715
1 716
1 717
1 718
1 719
1 720
1 721
1 722
1 723
1 724
1 725
1 726
1 727
1 728
1 729
1 730
1 731
1 732
1 733
1 734
1 735
1 736
1 737
1 738
1 739
1 740
1 741
1 742
1 743
1 744
1 745
1 746
1 747
1 748
1 749
1 750
1 751
1 752
1 753
1 754
1 755
1 756
1 757
1 758
1 759
1 760
1 761
1 762
1 763
1 764
1 765
1 766
1 767
1 768
1 769
1 770
1 771
1 772
1 773
1 774
1 775
1 776
1 777
1 778
1 779
1 780
1 781
1 782
1 783
1 784
1 785
1 786
1 787
1 788
1 789
1 790
1 791
1 792
1 793
1 794
1 795
1 796
1 797
1 798
1 799
1 800
1 801
1 802
1 803
1 804
1 805
1 806
1 807
1 808
1 809
1 810
1 811
1 812
1 813
1 814
1 815
1 816
1 817
1 818
1 819
1 820
1 821
1 822
1 823
1 824
1 825
1 826
1 827
1 828
1 829
1 830
1 831
1 832
1 833
1 834
1 835
1 836
1 837
1 838
1 839
1 840
1 841
1 842
1 843
1 844
1 845
1 846
1 847
1 848
1 849
1 850
1 851
1 852
1 853
1 854
1 855
1 856
1 857
1 858
1 859
1 860
1 861
1 862
1 863
1 864
1 865
1 866
1 867
1 868
1 869
1 870
1 871
1 872
1 873
1 874
1 875
1 876
1 877
1 878
1 879
1 880
1 881
1 882
1 883
1 884
1 885
1 886
1 887
1 888
1 889
1 890
1 891
1 892
1 893
1 894
1 895
1 896
1 897
1 898
1 899
1 900
1 901
1 902
1 903
1 904
1 905
1 906
1 907
1 908
1 909
1 910
1 911
1 912
1 913
1 914
1 915
1 916
1 917
1 918
1 919
1 920
1 921
1 922
1 923
1 924
1 925
1 926
1 927
1 928
1 929
1 930
1 931
1 932
1 933
1 934
1 935
1 936
1 937
1 938
1 939
1 940
1 941
1 942
1 943
1 944
1 945
1 946
1 947
1 948
1 949
1 950
1 951
1 952
1 953
1 954
1 955
1 956
1 957
1 958
1 959
1 960
1 961
1 962
1 963
1 964
1 965
1 966
1 967
1 968
1 969
1 970
1 971
1 972
1 973
1 974
1 975
1 976
1 977
1 978
1 979
1 980
1 981
1 982
1 983
1 984
1 985
1 986
1 987
1 988
1 989
1 990
1 991
1 992
1 993
1 994
1 995
1 996
1 997
1 998
1 999
1 1000
1 1001
1 1002
1 1003
1 1004
1 1005
1 1006
1 1007
1 1008
1 1009
1 1010
1 1011
1 1012
1 1013
1 1014
1 1015
1 1016
1 1017
1 1018
1 1019
1 1020
1 1021
1 1022
1 1023
1 1024
1 1025
1 1026
1 1027
1 1028
1 1029
1 1030
1 1031
1 1032
1 1033
1 1034
1 1035
1 1036
1 1037
1 1038
1 1039
1 1040
1 1041
1 1042
1 1043
1 1044
1 1045
1 1046
1 1047
1 1048
1 1049
1 1050
1 1051
1 1052
1 1053
1 1054
1 1055
1 1056
1 1057
1 1058
1 1059
1 1060
1 1061
1 1062
1 1063
1 1064
1 1065
1 1066
1 1067
1 1068
1 1069
1 1070
1 1071
1 1072
1 1073
1 1074
1 1075
1 1076
1 1077
1 1078
1 1079
1 1080
1 1081
1 1082
1 1083
1 1084
1 1085
1 1086
1 1087
1 1088
1 1089
1 1090
1 1091
1 1092
1 1093
1 1094
1 1095
1 1096
1 1097
1 1098
1 1099
1 1100
1 1101
1 1102
1 1103
1 1104
1 1105
1 1106
1 1107
1 1108
1 1109
1 1110
1 1111
1 1112
1 1113
1 1114
1 1115
1 1116
1 1117
1 1118
1 1119
1 1120
1 1121
1 1122
1 1123
1 1124
1 1125
1 1126
1 1127
1 1128
1 1129
1 1130
1 1131
1 1132
1 1133
1 1134
1 1135
1 1136
1 1137
1 1138
1 1139
1 1140
1 1141
1 1142
1 1143
1 1144
1 1145
1 1146
1 1147
1 1148
1 1149
1 1150
1 1151
1 1152
1 1153
1 1154
1 1155
1 1156
1 1157
1 1158
1 1159
1 1160
1 1161
1 1162
1 1163
1 1164
1 1165
1 1166
1 1167
1 1168
1 1169
1 1170
1 1171
1 1172
1 1173
1 1174
1 1175
1 1176
1 1177
1 1178
1 1179
1 1180
1 1181
1 1182
1 1183
1 1184
1 1185
1 1186
1 1187
1 1188
1 1189
1 1190
1 1191
1 1192
1 1193
1 1194
1 1195
1 1196
1 1197
1 1198
1 1199
1 1200
1 1201
1 1202
1 1203
1 1204
1 1205
1 1206
1 1207
1 1208
1 1209
1 1210
1 1211
1 1212
1 1213
1 1214
1 1215
1 1216
1 1217
1 1218
1 1219
1 1220
1 1221
1 1222
1 1223
1 1224
1 1225
1 1226
1 1227
1 1228
1 1229
1 1230
1 1231
1 1232
1 1233
1 1234
1 1235
1 1236
1 1237
1 1238
1 1239
1 1240
1 1241
1 1242
1 1243
1 1244
1 1245
1 1246
1 1247
1 1248
1 1249
1 1250
1 1251
1 1252
1 1253
1 1254
1 1255
1 1256
1 1257
1 1258
1 1259
1 1260
1 1261
1 1262
1 1263
1 1264
1 1265
1 1266
1 1267
1 1268
1 1269
1 1270
1 1271
1 1272
1 1273
1 1274
1 1275
1 1276
1 1277
1 1278
1 1279
1 1280
1 1281
1 1282
1 1283
1 1284
1 1285
1 1286
1 1287
1 1288
1 1289
1 1290
1 1291
1 1292
1 1293
1 1294
1 1295
1 1296
1 1297
1 1298
1 1299
1 1300
1 1301
1 1302
1 1303
1 1304
1 1305
1 1306
1 1307
1 1308
1 1309
1 1310
1 1311
1 1312
1 1313
1 1314
1 1315
1 1316
1 1317
1 1318
1 1319
1 1320
1 1321
1 1322
1 1323
1 1324
1 1325
1 1326
1 1327
1 1328
1 1329
1 1330
1 1331
1 1332
1 1333
1 1334
1 1335
1 1336
1 1337
1 1338
1 1339
1 1340
1 1341
1 1342
1 1343
1 1344
1 1345
1 1346
1 1347
1 1348
1 1349
1 1350
1 1351
1 1352
1 1353
1 1354
1 1355
1 1356
1 1357
1 1358
1 1359
1 1360
1 1361
1 1362
1 1363
1 1364
1 1365
1 1366
1 1367
1 1368
1 1369
1 1370
1 1371
1 1372
1 1373
1 1374
1 1375
1 1376
1 1377
1 1378
1 1379
1 1380
1 1381
1 1382
1 1383
1 1384
1 1385
1 1386
1 1387
1 1388
1 1389
1 1390
1 1391
1 1392
1 1393
1 1394
1 1395
1 1396
1 1397
1 1398
1 1399
1 1400
1 1401
1 1402
1 1403
1 1404
1 1405
1 1406
1 1407
1 1408
1 1409
1 1410
1 1411
1 1412
1 1413
1 1414
1 1415
1 1416
1 1417
1 1418
1 1419
1 1420
1 1421
1 1422
1 1423
1 1424
1 1425
1 1426
1 1427
1 1428
1 1429
1 1430
1 1431
1 1432
1 1433
1 1434
1 1435
1 1436
1 1437
1 1438
1 1439
1 1440
1 1441
1 1442
1 1443
1 1444
1 1445
1 1446
1 1447
1 1448
1 1449
1 1450
1 1451
1 1452
1 1453
1 1454
1 1455
1 1456
1 1457
1 1458
1 1459
1 1460
1 1461
1 1462
1 1463
1 1464
1 1465
1 1466
1 1467
1 1468
1 1469
1 1470
1 1471
1 1472
1 1473
1 1474
1 1475
1 1476
1 1477
1 1478
1 1479
1 1480
1 1481
1 1482
1 1483
1 1484
1 1485
1 1486
1 1487
1 1488
1 1489
1 1490
1 1491
1 1492
1 1493
1 1494
1 1495
1 1496
1 1497
1 1498
1 1499
1 1500
1 1501
1 1502
1 1503
1 1504
1 1505
1 1506
1 1507
1 1508
1 1509
1 1510
1 1511
1 1512
1 1513
1 1514
1 1515
1 1516
1 1517
1 1518
1 1519
1 1520
1 1521
1 1522
1 1523
1 1524
1 1525
1 1526
1 1527
1 1528
1 1529
1 1530
1 1531
1 1532
1 1533
1 1534
1 1535
1 1536
1 1537
1 1538
1 1539
1 1540
1 1541
1 1542
1 1543
1 1544
1 1545
1 1546
1 1547
1 1548
1 1549
1 1550
1 1551
1 1552
1 1553
1 1554
1 1555
1 1556
1 1557
1 1558
1 1559
1 1560
1 1561
1 1562
1 1563
1 1564
1 1565
1 1566
1 1567
1 1568
1 1569
1 1570
1 1571
1 1572
1 1573
1 1574
1 1575
1 1576
1 1577
1 1578
1 1579
1 1580
1 1581
1 1582
1 1583
1 1584
1 1585
1 1586
1 1587
1 1588
1 1589
1 1590
1 1591
1 1592
1 1593
1 1594
1 1595
1 1596
1 1597
1 1598
1 1599
1 1600
1 1601
1 1602
1 1603
1 1604
1 1605
1 1606
1 1607
1 1608
1 1609
1 1610
1 1611
1 1612
1 1613
1 1614
1 1615
1 1616
1 1617
1 1618
1 1619
1 1620
1 1621
1 1622
1 1623
1 1624
1 1625
1 1626
1 1627
1 1628
1 1629
1 1630
1 1631
1 1632
1 1633
1 1634
1 1635
1 1636
1 1637
1 1638
1 1639
1 1640
1 1641
1 1642
1 1643
1 1644
1 1645
1 1646
1 1647
1 1648
1 1649
1 1650
1 1651
1 1652
1 1653
1 1654
1 1655
1 1656
1 1657
1 1658
1 1659
1 1660
1 1661
1 1662
1 1663
1 1664
1 1665
1 1666
1 1667
1 1668
1 1669
1 1670
1 1671
1 1672
1 1673
1 1674
1 1675
1 1676
1 1677
1 1678
1 1679
1 1680
1 1681
1 1682
1 1683
1 1684
1 1685
1 1686
1 1687
1 1688
1 1689
1 1690
1 1691
1 1692
1 1693
1 1694
1 1695
1 1696
1 1697
1 1698
1 1699
1 1700
1 1701
1 1702
1 1703
1 1704
1 1705
1 1706
1 1707
1 1708
1 1709
1 1710
1 1711
1 1712
1 1713
1 1714
1 1715
1 1716
1 1717
1 1718
1 1719
1 1720
1 1721
1 1722
1 1723
1 1724
1 1725
1 1726
1 1727
1 1728
1 1729
1 1730
1 1731
1 1732
1 1733
1 1734
1 1735
1 1736
1 1737
1 1738
1 1739
1 1740
1 1741
1 1742
1 1743
1 1744
1 1745
1 1746
1 1747
1 1748
1 1749
1 1750
1 1751
1 1752
1 1753
1 1754
1 1755
1 1756
1 1757
1 1758
1 1759
1 1760
1 1761
1 1762
1 1763
1 1764
1 1765
1 1766
1 1767
1 1768
1 1769
1 1770
1 1771
1 1772
1 1773
1 1774
1 1775
1 1776
1 1777
1 1778
1 1779
1 1780
1 1781
1 1782
1 1783
1 1784
1 1785
1 1786
1 1787
1 1788
1 1789
1 1790
1 1791
1 1792
1 1793
1 1794
1 1795
1 1796
1 1797
1 1798
1 1799
1 1800
1 1801
1 1802
1 1803
1 1804
1 1805
1 1806
1 1807
1 1808
1 1809
1 1810
1 1811
1 1812
1 1813
1 1814
1 1815
1 1816
1 1817
1 1818
1 1819
1 1820
1 1821
1 1822
1 1823
1 1824
1 1825
1 1826
1 1827
1 1828
1 1829
1 1830
1 1831
1 1832
1 1833
1 1834
1 1835
1 1836
1 1837
1 1838
1 1839
1 1840
1 1841
1 1842
1 1843
1 1844
1 1845
1 1846
1 1847
1 1848
1 1849
1 1850
1 1851
1 1852
1 1853
1 1854
1 1855
1 1856
1 1857
1 1858
1 1859
1 1860
1 1861
1 1862
1 1863
1 1864
1 1865
1 1866
1 1867
1 1868
1 1869
1 1870
1 1871
1 1872
1 1873
1 1874
1 1875
1 1876
1 1877
1 1878
1 1879
1 1880
1 1881
1 1882
1 1883
1 1884
1 1885
1 1886
1 1887
1 1888
1 1889
1 1890
1 1891
1 1892
1 1893
1 1894
1 1895
1 1896
1 1897
1 1898
1 1899
1 1900
1 1901
1 1902
1 1903
1 1904
1 1905
1 1906
1 1907
1 1908
1 1909
1 1910
1 1911
1 1912
1 1913
1 1914
1 1915
1 1916
1 1917
1 1918
1 1919
1 1920
1 1921
1 1922
1 1923
1 1924
1 1925
1 1926
1 1927
1 1928
1 1929
1 1930
1 1931
1 1932
1 1933
1 1934
1 1935
1 1936
1 1937
1 1938
1 1939
1 1940
1 1941
1 1942
1 1943
1 1944
1 1945
1 1946
1 1947
1 1948
1 1949
1 1950
1 1951
1 1952
1 1953
1 1954
1 1955
1 1956
1 1957
1 1958
1 1959
1 1960
1 1961
1 1962
1 1963
1 1964
1 1965
1 1966
1 1967
1 1968
1 1969
1 1970
1 1971
1 1972
1 1973
1 1974
1 1975
1 1976
1 1977
1 1978
1 1979
1 1980
1 1981
1 1982
1 1983
1 1984
1 1985
1 1986
1 1987
1 1988
1 1989
1 1990
1 1991
1 1992
1 1993
1 1994
1 1995
1 1996
1 1997
1 1998
1 1999
1 2000
1 2001
1 2002
1 2003
1 2004
1 2005
1 2006
1 2007
1 2008
1 2009
1 2010
1 2011
1 2012
1 2013
1 2014
1 2015
1 2016
1 2017
1 2018
1 2019
1 2020
1 2021
1 2022
1 2023
1 2024
1 2025
1 2026
1 2027
1 2028
1 2029
1 2030
1 2031
1 2032
1 2033
1 2034
1 2035
1 2036
1 2037
1 2038
1 2039
1 2040
1 2041
1 2042
1 2043
1 2044
1 2045
1 2046
1 2047
1 2048
1 2049
1 2050
1 2051
1 2052
1 2053
1 2054
1 2055
1 2056
1 2057
1 2058
1 2059
1 2060
1 2061
1 2062
1 2063
1 2064
1 2065
1 2066
1 2067
1 2068
1 2069
1 2070
1 2071
1 2072
1 2073
1 2074
1 2075
1 2076
1 2077
1 2078
1 2079
1 2080
1 2081
1 2082
1 2083
1 2084
1 2085
1 2086
1 2087
1 2088
1 2089
1 2090
1 2091
1 2092
1 2093
1 2094
1 2095
1 2096
1 2097
1 2098
1 2099
1 2100
1 2101
1 2102
1 2103
1 2104
1 2105
1 2106
1 2107
1 2108
1 2109
1 2110
1 2111
1 2112
1 2113
1 2114
1 2115
1 2116
1 2117
1 2118
1 2119
1 2120
1 2121
1 2122
1 2123
1 2124
1 2125
1 2126
1 2127
1 2128
1 2129
1 2130
1 2131
1 2132
1 2133
1 2134
1 2135
1 2136
1 2137
1 2138
1 2139
1 2140
1 2141
1 2142
1 2143
1 2144
1 2145
1 2146
1 2147
1 2148
1 2149
1 2150
1 2151
1 2152
1 2153
1 2154
1 2155
1 2156
1 2157
1 2158
1 2159
1 2160
1 2161
1 2162
1 2163
1 2164
1 2165
1 2166
1 2167
1 2168
1 2169
1 2170
1 2171
1 2172
1 2173
1 2174
1 2175
1 2176
1 2177
1 2178
1 2179
1 2180
1 2181
1 2182
1 2183
1 2184
1 2185
1 2186
1 2187
1 2188
1 2189
1 2190
1 2191
1 2192
1 2193
1 2194
1 2195
1 2196
1 2197
1 2198
1 2199
1 2200
1 2201
1 2202
1 2203
1 2204
1 2205
1 2206
1 2207
1 2208
1 2209
1 2210
1 2211
1 2212
1 2213
1 2214
1 2215
1 2216
1 2217
1 2218
1 2219
1 2220
1 2221
1 2222
1 2223
1 2224
1 2225
1 2226
1 2227
1 2228
1 2229
1 2230
1 2231
1 2232
1 2233
1 2234
1 2235
1 2236
1 2237
1 2238
1 2239
1 2240
1 2241
1 2242
1 2243
1 2244
1 2245
1 2246
1 2247
1 2248
1 2249
1 2250
1 2251
1 2252
1 2253
1 2254
1 2255
1 2256
1 2257
1 2258
1 2259
1 2260
1 2261
1 2262
1 2263
1 2264
1 2265
1 2266
1 2267
1 2268
1 2269
1 2270
1 2271
1 2272
1 2273
1 2274
1 2275
1 2276
1 2277
1 2278
1 2279
1 2280
1 2281
1 2282
1 2283
1 2284
1 2285
1 2286
1 2287
1 2288
1 2289
1 2290
1 2291
1 2292
1 2293
1 2294
1 2295
1 2296
1 2297
1 2298
1 2299
1 2300
1 2301
1 2302
1 2303
1 2304
1 2305
1 2306
1 2307
1 2308
1 2309
1 2310
1 2311
1 2312
1 2313
1 2314
1 2315
1 2316
1 2317
1 2318
1 2319
1 2320
1 2321
1 2322
1 2323
1 2324
1 2325
1 2326
1 2327
1 2328
1 2329
1 2330
1 2331
1 2332
1 2333
1 2334
1 2335
1 2336
1 2337
1 2338
1 2339
1 2340
1 2341
1 2342
1 2343
1 2344
1 2345
1 2346
1 2347
1 2348
1 2349
1 2350
1 2351
1 2352
1 2353
1 2354
1 2355
1 2356
1 2357
1 2358
1 2359
1 2360
1 2361
1 2362
1 2363
1 2364
1 2365
1 2366
1 2367
1 2368
1 2369
1 2370
1 2371
1 2372
1 2373
1 2374
1 2375
1 2376
1 2377
1 2378
1 2379
1 2380
1 2381
1 2382
1 2383
1 2384
1 2385
1 2386
1 2387
1 2388
1 2389
1 2390
1 2391
1 2392
1 2393
1 2394
1 2395
1 2396
1 2397
1 2398
1 2399
1 2400
1 2401
1 2402
1 2403
1 2404
1 2405
1 2406
1 2407
1 2408
1 2409
1 2410
1 2411
1 2412
1 2413
1 2414
1 2415
1 2416
1 2417
1 2418
1 2419
1 2420
1 2421
1 2422
1 2423
1 2424
1 2425
1 2426
1 2427
1 2428
1 2429
1 2430
1 2431
1 2432
1 2433
1 2434
1 2435
1 2436
1 2437
1 2438
1 2439
1 2440
1 2441
1 2442
1 2443
1 2444
1 2445
1 2446
1 2447
1 2448
1 2449
1 2450
1 2451
1 2452
1 2453
1 2454
1 2455
1 2456
1 2457
1 2458
1 2459
1 2460
1 2461
1 2462
1 2463
1 2464
1 2465
1 2466
1 2467
1 2468
1 2469
1 2470
1 2471
1 2472
1 2473
1 2474
1 2475
1 2476
1 2477
1 2478
1 2479
1 2480
1 2481
1 2482
1 2483
1 2484
1 2485
1 2486
1 2487
1 2488
1 2489
1 2490
1 2491
1 2492
1 2493
1 2494
1 2495
1 2496
1 2497
1 2498
1 2499
1 2500
1 2501
1 2502
1 2503
1 2504
1 2505
1 2506
1 2507
1 2508
1 2509
1 2510
1 2511
1 2512
1 2513
1 2514
1 2515
1 2516
1 2517
1 2518
1 2519
1 2520
1 2521
1 2522
1 2523
1 2524
1 2525
1 2526
1 2527
1 2528
1 2529
1 2530
1 2531
1 2532
1 2533
1 2534
1 2535
1 2536
1 2537
1 2538
1 2539
1 2540
1 2541
1 2542
1 2543
1 2544
1 2545
1 2546
1 2547
1 2548
1 2549
1 2550
1 2551
1 2552
1 2553
1 2554
1 2555
1 2556
1 2557
1 2558
1 2559
1 2560
1 2561
1 2562
1 2563
1 2564
1 2565
1 2566
1 2567
1 2568
1 2569
1 2570
1 2571
1 2572
1 2573
1 2574
1 2575
1 2576
1 2577
1 2578
1 2579
1 2580
1 2581
1 2582
1 2583
1 2584
1 2585
1 2586
1 2587
1 2588
1 2589
1 2590
1 2591
1 2592
1 2593
1 2594
1 2595
1 2596
1 2597
1 2598
1 2599
1 2600
1 2601
1 2602
1 2603
1 2604
1 2605
1 2606
1 2607
1 2608
1 2609
1 2610
1 2611
1 2612
1 2613
1 2614
1 2615
1 2616
1 2617
1 2618
1 2619
1 2620
1 2621
1 2622
1 2623
1 2624
1 2625
1 2626
1 2627
1 2628
1 2629
1 2630
1 2631
1 2632
1 2633
1 2634
1 2635
1 2636
1 2637
1 2638
1 2639
1 2640
1 2641
1 2642
1 2643
1 2644
1 2645
1 2646
1 2647
1 2648
1 2649
1 2650
1 2651
1 2652
1 2653
1 2654
1 2655
1 2656
1 2657
1 2658
1 2659
1 2660
1 2661
1 2662
1 2663
1 2664
1 2665
1 2666
1 2667
1 2668
1 2669
1 2670
1 2671
1 2672
1 2673
1 2674
1 2675
1 2676
1 2677
1 2678
1 2679
1 2680
1 2681
1 2682
1 2683
1 2684
1 2685
1 2686
1 2687
1 2688
1 2689
1 2690
1 2691
1 2692
1 2693
1 2694
1 2695
1 2696
1 2697
1 2698
1 2699
1 2700
1 2701
1 2702
1 2703
1 2704
1 2705
1 2706
1 2707
1 2708
1 2709
1 2710
1 2711
1 2712
1 2713
1 2714
1 2715
1 2716
1 2717
1 2718
1 2719
1 2720
1 2721
1 2722
1 2723
1 2724
1 2725
1 2726
1 2727
1 2728
1 2729
1 2730
1 2731
1 2732
1 2733
1 2734
1 2735
1 2736
1 2737
1 2738
1 2739
1 2740
1 2741
1 2742
1 2743
1 2744
1 2745
1 2746
1 2747
1 2748
1 2749
1 2750
1 2751
1 2752
1 2753
1 2754
1 2755
1 2756
1 2757
1 2758
1 2759
1 2760
1 2761
1 2762
1 2763
1 2764
1 2765
1 2766
1 2767
1 2768
1 2769
1 2770
1 2771
1 2772
1 2773
1 2774
1 2775
1 2776
1 2777
1 2778
1 2779
1 2780
1 2781
1 2782
1 2783
1 2784
1 2785
1 2786
1 2787
1 2788
1 2789
1 2790
1 2791
1 2792
1 2793
1 2794
1 2795
1 2796
1 2797
1 2798
1 2799
1 2800
1 2801
1 2802
1 2803
1 2804
1 2805
1 2806
1 2807
1 2808
1 2809
1 2810
1 2811
1 2812
1 2813
1 2814
1 2815
1 2816
1 2817
1 2818
1 2819
1 2820
1 2821
1 2822
1 2823
1 2824
1 2825
1 2826
1 2827
1 2828
1 2829
1 2830
1 2831
1 2832
1 2833
1 2834
1 2835
1 2836
1 2837
1 2838
1 2839
1 2840
1 2841
1 2842
1 2843
1 2844
1 2845
1 2846
1 2847
1 2848
1 2849
1 2850
1 2851
1 2852
1 2853
1 2854
1 2855
1 2856
1 2857
1 2858
1 2859
1 2860
1 2861
1 2862
1 2863
1 2864
1 2865
1 2866
1 2867
1 2868
1 2869
1 2870
1 2871
1 2872
1 2873
1 2874
1 2875
1 2876
1 2877
1 2878
1 2879
1 2880
1 2881
1 2882
1 2883
1 2884
1 2885
1 2886
1 2887
1 2888
1 2889
1 2890
1 2891
1 2892
1 2893
1 2894
1 2895
1 2896
1 2897
1 2898
1 2899
1 2900
1 2901
1 2902
1 2903
1 2904
1 2905
1 2906
1 2907
1 2908
1 2909
1 2910
1 2911
1 2912
1 2913
1 2914
1 2915
1 2916
1 2917
1 2918
1 2919
1 2920
1 2921
1 2922
1 2923
1 2924
1 2925
1 2926
1 2927
1 2928
1 2929
1 2930
1 2931
1 2932
1 2933
1 2934
1 2935
1 2936
1 2937
1 2938
1 2939
1 2940
1 2941
1 2942
1 2943
1 2944
1 2945
1 2946
1 2947
1 2948
1 2949
1 2950
1 2951
1 2952
1 2953
1 2954
1 2955
1 2956
1 2957
1 2958
1 2959
1 2960
1 2961
1 2962
1 2963
1 2964
1 2965
1 2966
1 2967
1 2968
1 2969
1 2970
1 2971
1 2972
1 2973
1 2974
1 2975
1 2976
1 2977
1 2978
1 2979
1 2980
1 2981
1 2982
1 2983
1 2984
1 2985
1 2986
1 2987
1 2988
1 2989
1 2990
1 2991
1 2992
1 2993
1 2994
1 2995
1 2996
1 2997
1 2998
1 2999
1 3000
1 3001
1 3002
1 3003
1 3004
1 3005
1 3006
1 3007
1 3008
1 3009
1 3010
1 3011
1 3012
1 3013
1 3014
1 3015
1 3016
1 3017
1 3018
1 3019
1 3020
1 3021
1 3022
1 3023
1 3024
1 3025
1 3026
1 3027
1 3028
1 3029
1 3030
1 3031
1 3032
1 3033
1 3034
1 3035
1 3036
1 3037
1 3038
1 3039
1 3040
1 3041
1 3042
1 3043
1 3044
1 3045
1 3046
1 3047
1 3048
1 3049
1 3050
1 3051
1 3052
1 3053
1 3054
1 3055
1 3056
1 3057
1 3058
1 3059
1 3060
1 3061
1 3062
1 3063
1 3064
1 3065
1 3066
1 3067
1 3068
1 3069
1 3070
1 3071
1 3072
1 3073
1 3074
1 3075
1 3076
1 3077
1 3078
1 3079
1 3080
1 3081
1 3082
1 3083
1 3084
1 3085
1 3086
1 3087
1 3088
1 3089
1 3090
1 3091
1 3092
1 3093
1 3094
1 3095
1 3096
1 3097
1 3098
1 3099
1 3100
1 3101
1 3102
1 3103
1 3104
1 3105
1 3106
1 3107
1 3108
1 3109
1 3110
1 3111
1 3112
1 3113
1 3114
1 3115
1 3116
1 3117
1 3118
1 3119
1 3120
1 3121
1 3122
1 3123
1 3124
1 3125
1 3126
1 3127
1 3128
1 3129
1 3130
1 3131
1 3132
1 3133
1 3134
1 3135
1 3136
1 3137
1 3138
1 3139
1 3140
1 3141
1 3142
1 3143
1 3144
1 3145
1 3146
1 3147
1 3148
1 3149
1 3150
1 3151
1 3152
1 3153
1 3154
1 3155
1 3156
1 3157
1 3158
1 3159
1 3160
1 3161
1 3162
1 3163
1 3164
1 3165
1 3166
1 3167
1 3168
1 3169
1 3170
1 3171
1 3172
1 3173
1 3174
1 3175
1 3176
1 3177
1 3178
1 3179
1 3180
1 3181
1 3182
1 3183
1 3184
1 3185
1 3186
1 3187
1 3188
1 3189
1 3190
1 3191
1 3192
1 3193
1 3194
1 3195
1 3196
1 3197
1 3198
1 3199
1 3200
1 3201
1 3202
1 3203
1 3204
1 3205
1 3206
1 3207
1 3208
1 3209
1 3210
1 3211
1 3212
1 3213
1 3214
1 3215
1 3216
1 3217
1 3218
1 3219
1 3220
1 3221
1 3222
1 3223
1 3224
1 3225
1 3226
1 3227
1 3228
1 3229
1 3230
1 3231
1 3232
1 3233
1 3234
1 3235
1 3236
1 3237
1 3238
1 3239
1 3240
1 3241
1 3242
1 3243
1 3244
1 3245
1 3246
1 3247
1 3248
1 3249
1 3250
1 3251
1 3252
1 3253
1 3254
1 3255
1 3256
1 3257
1 3258
1 3259
1 3260
1 3261
1 3262
1 3263
1 3264
1 3265
1 3266
1 3267
1 3268
1 3269
1 3270
1 3271
1 3272
1 3273
1 3274
1 3275
1 3276
1 3277
1 3278
1 3279
1 3280
1 3281
1 3282
1 3283
1 3284
1 3285
1 3286
1 3287
1 3288
1 3289
1 3290
1 3291
1 3292
1 3293
1 3294
1 3295
1 3296
1 3297
1 3298
1 3299
1 3300
1 3301
1 3302
1 3303
1 3304
1 3305
1 3306
1 3307
1 3308
1 3309
1 3310
1 3311
1 3312
1 3313
1 3314
1 3315
1 3316
1 3317
1 3318
1 3319
1 3320
1 3321
1 3322
1 3323
1 3324
1 3325
1 3326
1 3327
1 3328
1 3329
1 3330
1 3331
1 3332
1 3333
1 3334
1 3335
1 3336
1 3337
1 3338
1 3339
1 3340
1 3341
1 3342
1 3343
1 3344
1 3345
1 3346
1 3347
1 3348
1 3349
1 3350
1 3351
1 3352
1 3353
1 3354
1 3355
1 3356
1 3357
1 3358
1 3359
1 3360
1 3361
1 3362
1 3363
1 3364
1 3365
1 3366
1 3367
1 3368
1 3369
1 3370
1 3371
1 3372
1 3373
1 3374
1 3375
1 3376
1 3377
1 3378
1 3379
1 3380
1 3381
1 3382
1 3383
1 3384
1 3385
1 3386
1 3387
1 3388
1 3389
1 3390
1 3391
1 3392
1 3393
1 3394
1 3395
1 3396
1 3397
1 3398
1 3399
1 3400
1 3401
1 3402
1 3403
1 3404
1 3405
1 3406
1 3407
1 3408
1 3409
1 3410
1 3411
1 3412
1 3413
1 3414
1 3415
1 3416
1 3417
1 3418
1 3419
1 3420
1 3421
1 3422
1 3423
1 3424
1 3425
1 3426
1 3427
1 3428
1 3429
1 3430
1 3431
1 3432
1 3433
1 3434
1 3435
1 3436
1 3437
1 3438
1 3439
1 3440
1 3441
1 3442
1 3443
1 3444
1 3445
1 3446
1 3447
1 3448
1 3449
1 3450
1 3451
1 3452
1 3453
1 3454
1 3455
1 3456
1 3457
1 3458
1 3459
1 3460
1 3461
1 3462
1 3463
1 3464
1 3465
1 3466
1 3467
1 3468
1 3469
1 3470
1 3471
1 3472
1 3473
1 3474
1 3475
1 3476
1 3477
1 3478
1 3479
1 3480
1 3481
1 3482
1 3483
1 3484
1 3485
1 3486
1 3487
1 3488
1 3489
1 3490
1 3491
1 3492
1 3493
1 3494
1 3495
1 3496
1 3497
1 3498
1 3499
1 3500
1 3501
1 3502
1 3503
1 3504
1 3505
1 3506
1 3507
1 3508
1 3509
1 3510
1 3511
1 3512
1 3513
1 3514
1 3515
1 3516
1 3517
1 3518
1 3519
1 3520
1 3521
1 3522
1 3523
1 3524
1 3525
1 3526
1 3527
1 3528
1 3529
1 3530
1 3531
1 3532
1 3533
1 3534
1 3535
1 3536
1 3537
1 3538
1 3539
1 3540
1 3541
1 3542
1 3543
1 3544
1 3545
1 3546
1 3547
1 3548
1 3549
1 3550
1 3551
1 3552
1 3553
1 3554
1 3555
1 3556
1 3557
1 3558
1 3559
1 3560
1 3561
1 3562
1 3563
1 3564
1 3565
1 3566
1 3567
1 3568
1 3569
1 3570
1 3571
1 3572
1 3573
1 3574
1 3575
1 3576
1 3577
1 3578
1 3579
1 3580
1 3581
1 3582
1 3583
1 3584
1 3585
1 3586
1 3587
1 3588
1 3589
1 3590
1 3591
1 3592
1 3593
1 3594
1 3595
1 3596
1 3597
1 3598
1 3599
1 3600
1 3601
1 3602
1 3603
1 3604
1 3605
1 3606
1 3607
1 3608
1 3609
1 3610
1 3611
1 3612
1 3613
1 3614
1 3615
1 3616
1 3617
1 3618
1 3619
1 3620
1 3621
1 3622
1 3623
1 3624
1 3625
1 3626
1 3627
1 3628
1 3629
1 3630
1 3631
1 3632
1 3633
1 3634
1 3635
1 3636
1 3637
1 3638
1 3639
1 3640
1 3641
1 3642
1 3643
1 3644
1 3645
1 3646
1 3647
1 3648
1 3649
1 3650
1 3651
1 3652
1 3653
1 3654
1 3655
1 3656
1 3657
1 3658
1 3659
1 3660
1 3661
1 3662
1 3663
1 3664
1 3665
1 3666
1 3667
1 3668
1 3669
1 3670
1 3671
1 3672
1 3673
1 3674
1 3675
1 3676
1 3677
1 3678
1 3679
1 3680
1 3681
1 3682
1 3683
1 3684
1 3685
1 3686
1 3687
1 3688
1 3689
1 3690
1 3691
1 3692
1 3693
1 3694
1 3695
1 3696
1 3697
1 3698
1 3699
1 3700
1 3701
1 3702
1 3703
1 3704
1 3705
1 3706
1 3707
1 3708
1 3709
1 3710
1 3711
1 3712
1 3713
1 3714
1 3715
1 3716
1 3717
1 3718
1 3719
1 3720
1 3721
1 3722
1 3723
1 3724
1 3725
1 3726
1 3727
1 3728
1 3729
1 3730
1 3731
1 3732
1 3733
1 3734
1 3735
1 3736
1 3737
1 3738
1 3739
1 3740
1 3741
1 3742
1 3743
1 3744
1 3745
1 3746
1 3747
1 3748
1 3749
1 3750
1 3751
1 3752
1 3753
1 3754
1 3755
1 3756
1 3757
1 3758
1 3759
1 3760
1 3761
1 3762
1 3763
1 3764
1 3765
1 3766
1 3767
1 3768
1 3769
1 3770
1 3771
1 3772
1 3773
1 3774
1 3775
1 3776
1 3777
1 3778
1 3779
1 3780
1 3781
1 3782
1 3783
1 3784
1 3785
1 3786
1 3787
1 3788
1 3789
1 3790
1 3791
1 3792
1 3793
1 3794
1 3795
1 3796
1 3797
1 3798
1 3799
1 3800
1 3801
1 3802
1 3803
1 3804
1 3805
1 3806
1 3807
1 3808
1 3809
1 3810
1 3811
1 3812
1 3813
1 3814
1 3815
1 3816
1 3817
1 3818
1 3819
1 3820
1 3821
1 3822
1 3823
1 3824
1 3825
1 3826
1 3827
1 3828
1 3829
1 3830
1 3831
1 3832
1 3833
1 3834
1 3835
1 3836
1 3837
1 3838
1 3839
1 3840
1 3841
1 3842
1 3843
1 3844
1 3845
1 3846
1 3847
1 3848
1 3849
1 3850
1 3851
1 3852
1 3853
1 3854
1 3855
1 3856
1 3857
1 3858
1 3859
1 3860
1 3861
1 3862
1 3863
1 3864
1 3865
1 3866
1 3867
1 3868
1 3869
1 3870
1 3871
1 3872
1 3873
1 3874
1 3875
1 3876
1 3877
1 3878
1 3879
1 3880
1 3881
1 3882
1 3883
1 3884
1 3885
1 3886
1 3887
1 3888
1 3889
1 3890
1 3891
1 3892
1 3893
1 3894
1 3895
1 3896
1 3897
1 3898
1 3899
1 3900
1 3901
1 3902
1 3903
1 3904
1 3905
1 3906
1 3907
1 3908
1 3909
1 3910
1 3911
1 3912
1 3913
1 3914
1 3915
1 3916
1 3917
1 3918
1 3919
1 3920
1 3921
1 3922
1 3923
1 3924
1 3925
1 3926
1 3927
1 3928
1 3929
1 3930
1 3931
1 3932
1 3933
1 3934
1 3935
1 3936
1 3937
1 3938
1 3939
1 3940
1 3941
1 3942
1 3943
1 3944
1 3945
1 3946
1 3947
1 3948
1 3949
1 3950
1 3951
1 3952
1 3953
1 3954
1 3955
1 3956
1 3957
1 3958
1 3959
1 3960
1 3961
1 3962
1 3963
1 3964
1 3965
1 3966
1 3967
1 3968
1 3969
1 3970
1 3971
1 3972
1 3973
1 3974
1 3975
1 3976
1 3977
1 3978
1 3979
1 3980
1 3981
1 3982
1 3983
1 3984
1 3985
1 3986
1 3987
1 3988
1 3989
1 3990
1 3991
1 3992
1 3993
1 3994
1 3995
1 3996
1 3997
1 3998
1 3999
1 4000
1 4001
1 4002
1 4003
1 4004
1 4005
1 4006
1 4007
1 4008
1 4009
1 4010
1 4011
1 4012
1 4013
1 4014
1 4015
1 4016
1 4017
1 4018
1 4019
1 4020
1 4021
1 4022
1 4023
1 4024
1 4025
1 4026
1 4027
1 4028
1 4029
1 4030
1 4031
1 4032
1 4033
1 4034
1 4035
1 4036
1 4037
1 4038
1 4039
1 4040
1 4041
1 4042
1 4043
1 4044
1 4045
1 4046
1 4047
1 4048
1 4049
1 4050
1 4051
1 4052
1 4053
1 4054
1 4055
1 4056
1 4057
1 4058
1 4059
1 4060
1 4061
1 4062
1 4063
1 4064
1 4065
1 4066
1 4067
1 4068
1 4069
1 4070
1 4071
1 4072
1 4073
1 4074
1 4075
1 4076
1 4077
1 4078
1 4079
1 4080
1 4081
1 4082
1 4083
1 4084
1 4085
1 4086
1 4087
1 4088
1 4089
1 4090
1 4091
1 4092
1 4093
1 4094
1 4095
1 4096
1 4097
1 4098
1 4099
1 4100
1 4101
1 4102
1 4103
1 4104
1 4105
1 4106
1 4107
1 4108
1 4109
1 4110
1 4111
1 4112
1 4113
1 4114
1 4115
1 4116
1 4117
1 4118
1 4119
1 4120
1 4121
1 4122
1 4123
1 4124
1 4125
1 4126
1 4127
1 4128
1 4129
1 4130
1 4131
1 4132
1 4133
1 4134
1 4135
1 4136
1 4137
1 4138
1 4139
1 4140
1 4141
1 4142
1 4143
1 4144
1 4145
1 4146
1 4147
1 4148
1 4149
1 4150
1 4151
1 4152
1 4153
1 4154
1 4155
1 4156
1 4157
1 4158
1 4159
1 4160
1 4161
1 4162
1 4163
1 4164
1 4165
1 4166
1 4167
1 4168
1 4169
1 4170
1 4171
1 4172
1 4173
1 4174
1 4175
1 4176
1 4177
1 4178
1 4179
1 4180
1 4181
1 4182
1 4183
1 4184
1 4185
1 4186
1 4187
1 4188
1 4189
1 4190
1 4191
1 4192
1 4193
1 4194
1 4195
1 4196
1 4197
1 4198
1 4199
1 4200
1 4201
1 4202
1 4203
1 4204
1 4205
1 4206
1 4207
1 4208
1 4209
1 4210
1 4211
1 4212
1 4213
1 4214
1 4215
1 4216
1 4217
1 4218
1 4219
1 4220
1 4221
1 4222
1 4223
1 4224
1 4225
1 4226
1 4227
1 4228
1 4229
1 4230
1 4231
1 4232
1 4233
1 4234
1 4235
1 4236
1 4237
1 4238
1 4239
1 4240
1 4241
1 4242
1 4243
1 4244
1 4245
1 4246
1 4247
1 4248
1 4249
1 4250
1 4251
1 4252
1 4253
1 4254
1 4255
1 4256
1 4257
1 4258
1 4259
1 4260
1 4261
1 4262
1 4263
1 4264
1 4265
1 4266
1 4267
1 4268
1 4269
1 4270
1 4271
1 4272
1 4273
1 4274
1 4275
1 4276
1 4277
1 4278
1 4279
1 4280
1 4281
1 4282
1 4283
1 4284
1 4285
1 4286
1 4287
1 4288
1 4289
1 4290
1 4291
1 4292
1 4293
1 4294
1 4295
1 4296
1 4297
1 4298
1 4299
1 4300
1 4301
1 4302
1 4303
1 4304
1 4305
1 4306
1 4307
1 4308
1 4309
1 4310
1 4311
1 4312
1 4313
1 4314
1 4315
1 4316
1 4317
1 4318
1 4319
1 4320
1 4321
1 4322
1 4323
1 4324
1 4325
1 4326
1 4327
1 4328
1 4329
1 4330
1 4331
1 4332
1 4333
1 4334
1 4335
1 4336
1 4337
1 4338
1 4339
1 4340
1 4341
1 4342
1 4343
1 4344
1 4345
1 4346
1 4347
1 4348
1 4349
1 4350
1 4351
1 4352
1 4353
1 4354
1 4355
1 4356
1 4357
1 4358
1 4359
1 4360
1 4361
1 4362
1 4363
1 4364
1 4365
1 4366
1 4367
1 4368
1 4369
1 4370
1 4371
1 4372
1 4373
1 4374
1 4375
1 4376
1 4377
1 4378
1 4379
1 4380
1 4381
1 4382
1 4383
1 4384
1 4385
1 4386
1 4387
1 4388
1 4389
1 4390
1 4391
1 4392
1 4393
1 4394
1 4395
1 4396
1 4397
1 4398
1 4399
1 4400
1 4401
1 4402
1 4403
1 4404
1 4405
1 4406
1 4407
1 4408
1 4409
1 4410
1 4411
1 4412
1 4413
1 4414
1 4415
1 4416
1 4417
1 4418
1 4419
1 4420
1 4421
1 4422
1 4423
1 4424
1 4425
1 4426
1 4427
1 4428
1 4429
1 4430
1 4431
1 4432
1 4433
1 4434
1 4435
1 4436
1 4437
1 4438
1 4439
1 4440
1 4441
1 4442
1 4443
1 4444
1 4445
1 4446
1 4447
1 4448
1 4449
1 4450
1 4451
1 4452
1 4453
1 4454
1 4455
1 4456
1 4457
1 4458
1 4459
1 4460
1 4461
1 4462
1 4463
1 4464
1 4465
1 4466
1 4467
1 4468
1 4469
1 4470
1 4471
1 4472
1 4473
1 4474
1 4475
1 4476
1 4477
1 4478
1 4479
1 4480
1 4481
1 4482
1 4483
1 4484
1 4485
1 4486
1 4487
1 4488
1 4489
1 4490
1 4491
1 4492
1 4493
1 4494
1 4495
1 4496
1 4497
1 4498
1 4499
1 4500
1 4501
1 4502
1 4503
1 4504
1 4505
1 4506
1 4507
1 4508
1 4509
1 4510
1 4511
1 4512
1 4513
1 4514
1 4515
1 4516
1 4517
1 4518
1 4519
1 4520
1 4521
1 4522
1 4523
1 4524
1 4525
1 4526
1 4527
1 4528
1 4529
1 4530
1 4531
1 4532
1 4533
1 4534
1 4535
1 4536
1 4537
1 4538
1 4539
1 4540
1 4541
1 4542
1 4543
1 4544
1 4545
1 4546
1 4547
1 4548
1 4549
1 4550
1 4551
1 4552
1 4553
1 4554
1 4555
1 4556
1 4557
1 4558
1 4559
1 4560
1 4561
1 4562
1 4563
1 4564
1 4565
1 4566
1 4567
1 4568
1 4569
1 4570
1 4571
1 4572
1 4573
1 4574
1 4575
1 4576
1 4577
1 4578
1 4579
1 4580
1 4581
1 4582
1 4583
1 4584
1 4585
1 4586
1 4587
1 4588
1 4589
1 4590
1 4591
1 4592
1 4593
1 4594
1 4595
1 4596
1 4597
1 4598
1 4599
1 4600
1 4601
1 4602
1 4603
1 4604
1 4605
1 4606
1 4607
1 4608
1 4609
1 4610
1 4611
1 4612
1 4613
1 4614
1 4615
1 4616
1 4617
1 4618
1 4619
1 4620
1 4621
1 4622
1 4623
1 4624
1 4625
1 4626
1 4627
1 4628
1 4629
1 4630
1 4631
1 4632
1 4633
1 4634
1 4635
1 4636
1 4637
1 4638
1 4639
1 4640
1 4641
1 4642
1 4643
1 4644
1 4645
1 4646
1 4647
1 4648
1 4649
1 4650
1 4651
1 4652
1 4653
1 4654
1 4655
1 4656
1 4657
1 4658
1 4659
1 4660
1 4661
1 4662
1 4663
1 4664
1 4665
1 4666
1 4667
1 4668
1 4669
1 4670
1 4671
1 4672
1 4673
1 4674
1 4675
1 4676
1 4677
1 4678
1 4679
1 4680
1 4681
1 4682
1 4683
1 4684
1 4685
1 4686
1 4687
1 4688
1 4689
1 4690
1 4691
1 4692
1 4693
1 4694
1 4695
1 4696
1 4697
1 4698
1 4699
1 4700
1 4701
1 4702
1 4703
1 4704
1 4705
1 4706
1 4707
1 4708
1 4709
1 4710
1 4711
1 4712
1 4713
1 4714
1 4715
1 4716
1 4717
1 4718
1 4719
1 4720
1 4721
1 4722
1 4723
1 4724
1 4725
1 4726
1 4727
1 4728
1 4729
1 4730
1 4731
1 4732
1 4733
1 4734
1 4735
1 4736
1 4737
1 4738
1 4739
1 4740
1 4741
1 4742
1 4743
1 4744
1 4745
1 4746
1 4747
1 4748
1 4749
1 4750
1 4751
1 4752
1 4753
1 4754
1 4755
1 4756
1 4757
1 4758
1 4759
1 4760
1 4761
1 4762
1 4763
1 4764
1 4765
1 4766
1 4767
1 4768
1 4769
1 4770
1 4771
1 4772
1 4773
1 4774
1 4775
1 4776
1 4777
1 4778
1 4779
1 4780
1 4781
1 4782
1 4783
1 4784
1 4785
1 4786
1 4787
1 4788
1 4789
1 4790
1 4791
1 4792
1 4793
1 4794
1 4795
1 4796
1 4797
1 4798
1 4799
1 4800
1 4801
1 4802
1 4803
1 4804
1 4805
1 4806
1 4807
1 4808
1 4809
1 4810
1 4811
1 4812
1 4813
1 4814
1 4815
1 4816
1 4817
1 4818
1 4819
1 4820
1 4821
1 4822
1 4823
1 4824
1 4825
1 4826
1 4827
1 4828
1 4829
1 4830
1 4831
1 4832
1 4833
1 4834
1 4835
1 4836
1 4837
1 4838
1 4839
1 4840
1 4841
1 4842
1 4843
1 4844
1 4845
1 4846
1 4847
1 4848
1 4849
1 4850
1 4851
1 4852
1 4853
1 4854
1 4855
1 4856
1 4857
1 4858
1 4859
1 4860
1 4861
1 4862
1 4863
1 4864
1 4865
1 4866
1 4867
1 4868
1 4869
1 4870
1 4871
1 4872
1 4873
1 4874
1 4875
1 4876
1 4877
1 4878
1 4879
1 4880
1 4881
1 4882
1 4883
1 4884
1 4885
1 4886
1 4887
1 4888
1 4889
1 4890
1 4891
1 4892
1 4893
1 4894
1 4895
1 4896
1 4897
1 4898
1 4899
1 4900
1 4901
1 4902
1 4903
1 4904
1 4905
1 4906
1 4907
1 4908
1 4909
1 4910
1 4911
1 4912
1 4913
1 4914
1 4915
1 4916
1 4917
1 4918
1 4919
1 4920
1 4921
1 4922
1 4923
1 4924
1 4925
1 4926
1 4927
1 4928
1 4929
1 4930
1 4931
1 4932
1 4933
1 4934
1 4935
1 4936
1 4937
1 4938
1 4939
1 4940
1 4941
1 4942
1 4943
1 4944
1 4945
1 4946
1 4947
1 4948
1 4949
1 4950
1 4951
1 4952
1 4953
1 4954
1 4955
1 4956
1 4957
1 4958
1 4959
1 4960
1 4961
1 4962
1 4963
1 4964
1 4965
1 4966
1 4967
1 4968
1 4969
1 4970
1 4971
1 4972
1 4973
1 4974
1 4975
1 4976
1 4977
1 4978
1 4979
1 4980
1 4981
1 4982
1 4983
1 4984
1 4985
1 4986
1 4987
1 4988
1 4989
1 4990
1 4991
1 4992
1 4993
1 4994
1 4995
1 4996
1 4997
1 4998
1 4999
CELL_TYPES 5000
1 
1 
1 
1 
1 
1 
1 
1 
1 
1 
1 
1 
1 
1 
1 
1 
1 
1 
1 
1 
1 
1 
1 
1 
1 
1 
1 
1 
1 
1 
1 
1 
1 
1 
1 
1 
1 
1 
1 
1 
1 
1 
1 
1 
1 
1 
1 
1 
1 
1 
1 
1 
1 
1 
1 
1 
1 
1 
1 
1 
1 
1 
1 
1 
1 
1 
1 
1 
1 
1 
1 
1 
1 
1 
1 
1 
1 
1 
1 
1 
1 
1 
1 
1 
1 
1 
1 
1 
1 
1 
1 
1 
1 
1 
1 
1 
1 
1 
1 
1 
1 
1 
1 
1 
1 
1 
1 
1 
1 
1 
1 
1 
1 
1 
1 
1 
1 
1 
1 
1 
1 
1 
1 
1 
1 
1 
1 
1 
1 
1 
1 
1 
1 
1 
1 
1 
1 
1 
1 
1 
1 
1 
1 
1 
1 
1 
1 
1 
1 
1 
1 
1 
1 
1 
1 
1 
1 
1 
1 
1 
1 
1 
1 
1 
1 
1 
1 
1 
1 
1 
1 
1 
1 
1 
1 
1 
1 
1 
1 
1 
1 
1 
1 
1 
1 
1 
1 
1 
1 
1 
1 
1 
1 
1 
1 
1 
1 
1 
1 
1 
1 
1 
1 
1 
1 
1 
1 
1 
1 
1 
1 
1 
1 
1 
1 
1 
1 
1 
1 
1 
1 
1 
1 
1 
1 
1 
1 
1 
1 
1 
1 
1 
1 
1 
1 
1 
1 
1 
1 
1 
1 
1 
1 
1 
1 
1 
1 
1 
1 
1 
1 
1 
1 
1 
1 
1 
1 
1 
1 
1 
1 
1 
1 
1 
1 
1 
1 
1 
1 
1 
1 
1 
1 
1 
1 
1 
1 
1 
1 
1 
1 
1 
1 
1 
1 
1 
1 
1 
1 
1 
1 
1 
1 
1 
1 
1 
1 
1 
1 
1 
1 
1 
1 
1 
1 
1 
1 
1 
1 
1 
1 
1 
1 
1 
1 
1 
1 
1 
1 
1 
1 
1 
1 
1 
1 
1 
1 
1 
1 
1 
1 
1 
1 
1 
1 
1 
1 
1 
1 
1 
1 
1 
1 
1 
1 
1 
1 
1 
1 
1 
1 
1 
1 
1 
1 
1 
1 
1 
1 
1 
1 
1 
1 
1 
1 
1 
1 
1 
1 
1 
1 
1 
1 
1 
1 
1 
1 
1 
1 
1 
1 
1 
1 
1 
1 
1 
1 
1 
1 
1 
1 
1 
1 
1 
1 
1 
1 
1 
1 
1 
1 
1 
1 
1 
1 
1 
1 
1 
1 
1 
1 
1 
1 
1 
1 
1 
1 
1 
1 
1 
1 
1 
1 
1 
1 
1 
1 
1 
1 
1 
1 
1 
1 
1 
1 
1 
1 
1 
1 
1 
1 
1 
1 
1 
1 
1 
1 
1 
1 
1 
1 
1 
1 
1 
1 
1 
1 
1 
1 
1 
1 
1 
1 
1 
1 
1 
1 
1 
1 
1 
1 
1 
1 
1 
1 
1 
1 
1 
1 
1 
1 
1 
1 
1 
1 
1 
1 
1 
1 
1 
1 
1 
1 
1 
1 
1 
1 
1 
1 
1 
1 
1 
1 
1 
1 
1 
1 
1 
1 
1 
1 
1 
1 
1 
1 
1 
1 
1 
1 
1 
1 
1 
1 
1 
1 
1 
1 
1 
1 
1 
1 
1 
1 
1 
1 
1 
1 
1 
1 
1 
1 
1 
1 
1 
1 
1 
1 
1 
1 
1 
1 
1 
1 
1 
1 
1 
1 
1 
1 
1 
1 
1 
1 
1 
1 
1 
1 
1 
1 
1 
1 
1 
1 
1 
1 
1 
1 
1 
1 
1 
1 
1 
1 
1 
1 
1 
1 
1 
1 
1 
1 
1 
1 
1 
1 
1 
1 
1 
1 
1 
1 
1 
1 
1 
1 
1 
1 
1 
1 
1 
1 
1 
1 
1 
1 
1 
1 
1 
1 
1 
1 
1 
1 
1 
1 
1 
1 
1 
1 
1 
1 
1 
1 
1 
1 
1 
1 
1 
1 
1 
1 
1 
1 
1 
1 
1 
1 
1 
1 
1 
1 
1 
1 
1 
1 
1 
1 
1 
1 
1 
1 
1 
1 
1 
1 
1 
1 
1 
1 
1 
1 
1 
1 
1 
1 
1 
1 
1 
1 
1 
1 
1 
1 
1 
1 
1 
1 
1 
1 
1 
1 
1 
1 
1 
1 
1 
1 
1 
1 
1 
1 
1 
1 
1 
1 
1 
1 
1 
1 
1 
1 
1 
1 
1 
1 
1 
1 
1 
1 
1 
1 
1 
1 
1 
1 
1 
1 
1 
1 
1 
1 
1 
1 
1 
1 
1 
1 
1 
1 
1 
1 
1 
1 
1 
1 
1 
1 
1 
1 
1 
1 
1 
1 
1 
1 
1 
1 
1 
1 
1 
1 
1 
1 
1 
1 
1 
1 
1 
1 
1 
1 
1 
1 
1 
1 
1 
1 
1 
1 
1 
1 
1 
1 
1 
1 
1 
1 
1 
1 
1 
1 
1 
1 
1 
1 
1 
1 
1 
1 
1 
1 
1 
1 
1 
1 
1 
1 
1 
1 
1 
1 
1 
1 
1 
1 
1 
1 
1 
1 
1 
1 
1 
1 
1 
1 
1 
1 
1 
1 
1 
1 
1 
1 
1 
1 
1 
1 
1 
1 
1 
1 
1 
1 
1 
1 
1 
1 
1 
1 
1 
1 
1 
1 
1 
1 
1 
1 
1 
1 
1 
1 
1 
1 
1 
1 
1 
1 
1 
1 
1 
1 
1 
1 
1 
1 
1 
1 
1 
1 
1 
1 
1 
1 
1 
1 
1 
1 
1 
1 
1 
1 
1 
1 
1 
1 
1 
1 
1 
1 
1 
1 
1 
1 
1 
1 
1 
1 
1 
1 
1 
1 
1 
1 
1 
1 
1 
1 
1 
1 
1 
1 
1 
1 
1 
1 
1 
1 
1 
1 
1 
1 
1 
1 
1 
1 
1 
1 
1 
1 
1 
1 
1 
1 
1 
1 
1 
1 
1 
1 
1 
1 
1 
1 
1 
1 
1 
1 
1 
1 
1 
1 
1 
1 
1 
1 
1 
1 
1 
1 
1 
1 
1 
1 
1 
1 
1 
1 
1 
1 
1 
1 
1 
1 
1 
1 
1 
1 
1 
1 
1 
1 
1 
1 
1 
1 
1 
1 
1 
1 
1 
1 
1 
1 
1 
1 
1 
1 
1 
1 
1 
1 
1 
1 
1 
1 
1 
1 
1 
1 
1 
1 
1 
1 
1 
1 
1 
1 
1 
1 
1 
1 
1 
1 
1 
1 
1 
1 
1 
1 
1 
1 
1 
1 
1 
1 
1 
1 
1 
1 
1 
1 
1 
1 
1 
1 
1 
1 
1 
1 
1 
1 
1 
1 
1 
1 
1 
1 
1 
1 
1 
1 
1 
1 
1 
1 
1 
1 
1 
1 
1 
1 
1 
1 
1 
1 
1 
1 
1 
1 
1 
1 
1 
1 
1 
1 
1 
1 
1 
1 
1 
1 
1 
1 
1 
1 
1 
1 
1 
1 
1 
1 
1 
1 
1 
1 
1 
1 
1 
1 
1 
1 
1 
1 
1 
1 
1 
1 
1 
1 
1 
1 
1 
1 
1 
1 
1 
1 
1 
1 
1 
1 
1 
1 
1 
1 
1 
1 
1 
1 
1 
1 
1 
1 
1 
1 
1 
1 
1 
1 
1 
1 
1 
1 
1 
1 
1 
1 
1 
1 
1 
1 
1 
1 
1 
1 
1 
1 
1 
1 
1 
1 
1 
1 
1 
1 
1 
1 
1 
1 
1 
1 
1 
1 
1 
1 
1 
1 
1 
1 
1 
1 
1 
1 
1 
1 
1 
1 
1 
1 
1 
1 
1 
1 
1 
1 
1 
1 
1 
1 
1 
1 
1 
1 
1 
1 
1 
1 
1 
1 
1 
1 
1 
1 
1 
1 
1 
1 
1 
1 
1 
1 
1 
1 
1 
1 
1 
1 
1 
1 
1 
1 
1 
1 
1 
1 
1 
1 
1 
1 
1 
1 
1 
1 
1 
1 
1 
1 
1 
1 
1 
1 
1 
1 
1 
1 
1 
1 
1 
1 
1 
1 
1 
1 
1 
1 
1 
1 
1 
1 
1 
1 
1 
1 
1 
1 
1 
1 
1 
1 
1 
1 
1 
1 
1 
1 
1 
1 
1 
1 
1 
1 
1 
1 
1 
1 
1 
1 
1 
1 
1 
1 
1 
1 
1 
1 
1 
1 
1 
1 
1 
1 
1 
1 
1 
1 
1 
1 
1 
1 
1 
1 
1 
1 
1 
1 
1 
1 
1 
1 
1 
1 
1 
1 
1 
1 
1 
1 
1 
1 
1 
1 
1 
1 
1 
1 
1 
1 
1 
1 
1 
1 
1 
1 
1 
1 
1 
1 
1 
1 
1 
1 
1 
1 
1 
1 
1 
1 
1 
1 
1 
1 
1 
1 
1 
1 
1 
1 
1 
1 
1 
1 
1 
1 
1 
1 
1 
1 
1 
1 
1 
1 
1 
1 
1 
1 
1 
1 
1 
1 
1 
1 
1 
1 
1 
1 
1 
1 
1 
1 
1 
1 
1 
1 
1 
1 
1 
1 
1 
1 
1 
1 
1 
1 
1 
1 
1 
1 
1 
1 
1 
1 
1 
1 
1 
1 
1 
1 
1 
1 
1 
1 
1 
1 
1 
1 
1 
1 
1 
1 
1 
1 
1 
1 
1 
1 
1 
1 
1 
1 
1 
1 
1 
1 
1 
1 
1 
1 
1 
1 
1 
1 
1 
1 
1 
1 
1 
1 
1 
1 
1 
1 
1 
1 
1 
1 
1 
1 
1 
1 
1 
1 
1 
1 
1 
1 
1 
1 
1 
1 
1 
1 
1 
1 
1 
1 
1 
1 
1 
1 
1 
1 
1 
1 
1 
1 
1 
1 
1 
1 
1 
1 
1 
1 
1 
1 
1 
1 
1 
1 
1 
1 
1 
1 
1 
1 
1 
1 
1 
1 
1 
1 
1 
1 
1 
1 
1 
1 
1 
1 
1 
1 
1 
1 
1 
1 
1 
1 
1 
1 
1 
1 
1 
1 
1 
1 
1 
1 
1 
1 
1 
1 
1 
1 
1 
1 
1 
1 
1 
1 
1 
1 
1 
1 
1 
1 
1 
1 
1 
1 
1 
1 
1 
1 
1 
1 
1 
1 
1 
1 
1 
1 
1 
1 
1 
1 
1 
1 
1 
1 
1 
1 
1 
1 
1 
1 
1 
1 
1 
1 
1 
1 
1 
1 
1 
1 
1 
1 
1 
1 
1 
1 
1 
1 
1 
1 
1 
1 
1 
1 
1 
1 
1 
1 
1 
1 
1 
1 
1 
1 
1 
1 
1 
1 
1 
1 
1 
1 
1 
1 
1 
1 
1 
1 
1 
1 
1 
1 
1 
1 
1 
1 
1 
1 
1 
1 
1 
1 
1 
1 
1 
1 
1 
1 
1 
1 
1 
1 
1 
1 
1 
1 
1 
1 
1 
1 
1 
1 
1 
1 
1 
1 
1 
1 
1 
1 
1 
1 
1 
1 
1 
1 
1 
1 
1 
1 
1 
1 
1 
1 
1 
1 
1 
1 
1 
1 
1 
1 
1 
1 
1 
1 
1 
1 
1 
1 
1 
1 
1 
1 
1 
1 
1 
1 
1 
1 
1 
1 
1 
1 
1 
1 
1 
1 
1 
1 
1 
1 
1 
1 
1 
1 
1 
1 
1 
1 
1 
1 
1 
1 
1 
1 
1 
1 
1 
1 
1 
1 
1 
1 
1 
1 
1 
1 
1 
1 
1 
1 
1 
1 
1 
1 
1 
1 
1 
1 
1 
1 
1 
1 
1 
1 
1 
1 
1 
1 
1 
1 
1 
1 
1 
1 
1 
1 
1 
1 
1 
1 
1 
1 
1 
1 
1 
1 
1 
1 
1 
1 
1 
1 
1 
1 
1 
1 
1 
1 
1 
1 
1 
1 
1 
1 
1 
1 
1 
1 
1 
1 
1 
1 
1 
1 
1 
1 
1 
1 
1 
1 
1 
1 
1 
1 
1 
1 
1 
1 
1 
1 
1 
1 
1 
1 
1 
1 
1 
1 
1 
1 
1 
1 
1 
1 
1 
1 
1 
1 
1 
1 
1 
1 
1 
1 
1 
1 
1 
1 
1 
1 
1 
1 
1 
1 
1 
1 
1 
1 
1 
1 
1 
1 
1 
1 
1 
1 
1 
1 
1 
1 
1 
1 
1 
1 
1 
1 
1 
1 
1 
1 
1 
1 
1 
1 
1 
1 
1 
1 
1 
1 
1 
1 
1 
1 
1 
1 
1 
1 
1 
1 
1 
1 
1 
1 
1 
1 
1 
1 
1 
1 
1 
1 
1 
1 
1 
1 
1 
1 
1 
1 
1 
1 
1 
1 
1 
1 
1 
1 
1 
1 
1 
1 
1 
1 
1 
1 
1 
1 
1 
1 
1 
1 
1 
1 
1 
1 
1 
1 
1 
1 
1 
1 
1 
1 
1 
1 
1 
1 
1 
1 
1 
1 
1 
1 
1 
1 
1 
1 
1 
1 
1 
1 
1 
1 
1 
1 
1 
1 
1 
1 
1 
1 
1 
1 
1 
1 
1 
1 
1 
1 
1 
1 
1 
1 
1 
1 
1 
1 
1 
1 
1 
1 
1 
1 
1 
1 
1 
1 
1 
1 
1 
1 
1 
1 
1 
1 
1 
1 
1 
1 
1 
1 
1 
1 
1 
1 
1 
1 
1 
1 
1 
1 
1 
1 
1 
1 
1 
1 
1 
1 
1 
1 
1 
1 
1 
1 
1 
1 
1 
1 
1 
1 
1 
1 
1 
1 
1 
1 
1 
1 
1 
1 
1 
1 
1 
1 
1 
1 
1 
1 
1 
1 
1 
1 
1 
1 
1 
1 
1 
1 
1 
1 
1 
1 
1 
1 
1 
1 
1 
1 
1 
1 
1 
1 
1 
1 
1 
1 
1 
1 
1 
1 
1 
1 
1 
1 
1 
1 
1 
1 
1 
1 
1 
1 
1 
1 
1 
1 
1 
1 
1 
1 
1 
1 
1 
1 
1 
1 
1 
1 
1 
1 
1 
1 
1 
1 
1 
1 
1 
1 
1 
1 
1 
1 
1 
1 
1 
1 
1 
1 
1 
1 
1 
1 
1 
1 
1 
1 
1 
1 
1 
1 
1 
1 
1 
1 
1 
1 
1 
1 
1 
1 
1 
1 
1 
1 
1 
1 
1 
1 
1 
1 
1 
1 
1 
1 
1 
1 
1 
1 
1 
1 
1 
1 
1 
1 
1 
1 
1 
1 
1 
1 
1 
1 
1 
1 
1 
1 
1 
1 
1 
1 
1 
1 
1 
1 
1 
1 
1 
1 
1 
1 
1 
1 
1 
1 
1 
1 
1 
1 
1 
1 
1 
1 
1 
1 
1 
1 
1 
1 
1 
1 
1 
1 
1 
1 
1 
1 
1 
1 
1 
1 
1 
1 
1 
1 
1 
1 
1 
1 
1 
1 
1 
1 
1 
1 
1 
1 
1 
1 
1 
1 
1 
1 
1 
1 
1 
1 
1 
1 
1 
1 
1 
1 
1 
1 
1 
1 
1 
1 
1 
1 
1 
1 
1 
1 
1 
1 
1 
1 
1 
1 
1 
1 
1 
1 
1 
1 
1 
1 
1 
1 
1 
1 
1 
1 
1 
1 
1 
1 
1 
1 
1 
1 
1 
1 
1 
1 
1 
1 
1 
1 
1 
1 
1 
1 
1 
1 
1 
1 
1 
1 
1 
1 
1 
1 
1 
1 
1 
1 
1 
1 
1 
1 
1 
1 
1 
1 
1 
1 
1 
1 
1 
1 
1 
1 
1 
1 
1 
1 
1 
1 
1 
1 
1 
1 
1 
1 
1 
1 
1 
1 
1 
1 
1 
1 
1 
1 
1 
1 
1 
1 
1 
1 
1 
1 
1 
1 
1 
1 
1 
1 
1 
1 
1 
1 
1 
1 
1 
1 
1 
1 
1 
1 
1 
1 
1 
1 
1 
1 
1 
1 
1 
1 
1 
1 
1 
1 
1 
1 
1 
1 
1 
1 
1 
1 
1 
1 
1 
1 
1 
1 
1 
1 
1 
1 
1 
1 
1 
1 
1 
1 
1 
1 
1 
1 
1 
1 
1 
1 
1 
1 
1 
1 
1 
1 
1 
1 
1 
1 
1 
1 
1 
1 
1 
1 
1 
1 
1 
1 
1 
1 
1 
1 
1 
1 
1 
1 
1 
1 
1 
1 
1 
1 
1 
1 
1 
1 
1 
1 
1 
1 
1 
1 
1 
1 
1 
1 
1 
1 
1 
1 
1 
1 
1 
1 
1 
1 
1 
1 
1 
1 
1 
1 
1 
1 
1 
1 
1 
1 
1 
1 
1 
1 
1 
1 
1 
1 
1 
1 
1 
1 
1 
1 
1 
1 
1 
1 
1 
1 
1 
1 
1 
1 
1 
1 
1 
1 
1 
1 
1 
1 
1 
1 
1 
1 
1 
1 
1 
1 
1 
1 
1 
1 
1 
1 
1 
1 
1 
1 
1 
1 
1 
1 
1 
1 
1 
1 
1 
1 
1 
1 
1 
1 
1 
1 
1 
1 
1 
1 
1 
1 
1 
1 
1 
1 
1 
1 
1 
1 
1 
1 
1 
1 
1 
1 
1 
1 
1 
1 
1 
1 
1 
1 
1 
1 
1 
1 
1 
1 
1 
1 
1 
1 
1 
1 
1 
1 
1 
1 
1 
1 
1 
1 
1 
1 
1 
1 
1 
1 
1 
1 
1 
1 
1 
1 
1 
1 
1 
1 
1 
1 
1 
1 
1 
1 
1 
1 
1 
1 
1 
1 
1 
1 
1 
1 
1 
1 
1 
1 
1 
1 
1 
1 
1 
1 
1 
1 
1 
1 
1 
1 
1 
1 
1 
1 
1 
1 
1 
1 
1 
1 
1 
1 
1 
1 
1 
1 
1 
1 
1 
1 
1 
1 
1 
1 
1 
1 
1 
1 
1 
1 
1 
1 
1 
1 
1 
1 
1 
1 
1 
1 
1 
1 
1 
1 
1 
1 
1 
1 
1 
1 
1 
1 
1 
1 
1 
1 
1 
1 
1 
1 
1 
1 
1 
1 
1 
1 
1 
1 
1 
1 
1 
1 
1 
1 
1 
1 
1 
1 
1 
1 
1 
1 
1 
1 
1 
1 
1 
1 
1 
1 
1 
1 
1 
1 
1 
1 
1 
1 
1 
1 
1 
1 
1 
1 
1 
1 
1 
1 
1 
1 
1 
1 
1 
1 
1 
1 
1 
1 
1 
1 
1 
1 
1 
1 
1 
1 
1 
1 
1 
1 
1 
1 
1 
1 
1 
1 
1 
1 
1 
1 
1 
1 
1 
1 
1 
1 
1 
1 
1 
1 
1 
1 
1 
1 
1 
1 
1 
1 
1 
1 
1 
1 
1 
1 
1 
1 
1 
1 
1 
1 
1 
1 
1 
1 
1 
1 
1 
1 
1 
1 
1 
1 
1 
1 
1 
1 
1 
1 
1 
1 
1 
1 
1 
1 
1 
1 
1 
1 
1 
1 
1 
1 
1 
1 
1 
1 
1 
1 
1 
1 
1 
1 
1 
1 
1 
1 
1 
1 
1 
1 
1 
1 
1 
1 
1 
1 
1 
1 
1 
1 
1 
1 
1 
1 
1 
1 
1 
1 
1 
1 
1 
1 
1 
1 
1 
1 
1 
1 
1 
1 
1 
1 
1 
1 
1 
1 
1 
1 
1 
1 
1 
1 
1 
1 
1 
1 
1 
1 
1 
1 
1 
1 
1 
1 
1 
1 
1 
1 
1 
1 
1 
1 
1 
1 
1 
1 
1 
1 
1 
1 
1 
1 
1 
1 
1 
1 
1 
1 
1 
1 
1 
1 
1 
1 
1 
1 
1 
1 
1 
1 
1 
1 
1 
1 
1 
1 
1 
1 
1 
1 
1 
1 
1 
1 
1 
1 
1 
1 
1 
1 
1 
1 
1 
1 
1 
1 
1 
1 
1 
1 
1 
1 
1 
1 
1 
1 
1 
1 
1 
1 
1 
1 
1 
1 
1 
1 
1 
1 
1 
1 
1 
1 
1 
1 
1 
1 
1 
1 
1 
1 
1 
1 
1 
1 
1 
1 
1 
1 
1 
1 
1 
1 
1 
1 
1 
1 
1 
1 
1 
1 
1 
1 
1 
1 
1 
1 
1 
1 
1 
1 
1 
1 
1 
1 
1 
1 
1 
1 
1 
1 
1 
1 
1 
1 
1 
1 
1 
1 
1 
1 
1 
1 
1 
1 
1 
1 
1 
1 
1 
1 
1 
1 
1 
1 
1 
1 
1 
1 
1 
1 
1 
1 
1 
1 
1 
1 
1 
1 
1 
1 
1 
1 
1 
1 
1 
1 
1 
1 
1 
1 
1 
1 
1 
1 
1 
1 
1 
1 
1 
1 
1 
1 
1 
1 
1 
1 
1 
1 
1 
1 
1 
1 
1 
1 
1 
1 
1 
1 
1 
1 
1 
1 
1 
1 
1 
1 
1 
1 
1 
1 
1 
1 
1 
1 
1 
1 
1 
1 
1 
1 
1 
1 
1 
1 
1 
1 
1 
1 
1 
1 
1 
1 
1 
1 
1 
1 
1 
1 
1 
1 
1 
1 
1 
1 
1 
1 
1 
1 
1 
1 
1 
1 
1 
1 
1 
1 
1 
1 
1 
1 
1 
1 
1 
1 
1 
1 
1 
1 
1 
1 
1 
1 
1 
1 
1 
1 
1 
1 
1 
1 
1 
1 
1 
1 
1 
1 
1 
1 
1 
1 
1 
1 
1 
1 
1 
1 
1 
1 
1 
1 
1 
1 
1 
1 
1 
1 
1 
1 
1 
1 
1 
1 
1 
1 
1 
1 
1 
1 
1 
1 
1 
1 
1 
1 
1 
1 
1 
1 
1 
1 
1 
1 
1 
1 
1 
1 
1 
1 
1 
1 
1 
1 
1 
1 
1 
1 
1 
1 
1 
1 
1 
1 
1 
1 
1 
1 
1 
1 
1 
1 
1 
1 
1 
1 
1 
1 
1 
1 
1 
1 
1 
1 
1 
1 
1 
1 
1 
1 
1 
1 
1 
1 
1 
1 
1 
1 
1 
1 
1 
1 
1 
1 
1 
1 
1 
1 
1 
1 
1 
1 
1 
1 
1 
1 
1 
1 
1 
1 
1 
1 
1 
1 
1 
1 
1 
1 
1 
1 
1 
1 
1 
1 
1 
1 
1 
1 
1 
1 
1 
1 
1 
1 
1 
1 
1 
1 
1 
1 
1 
1 
1 
1 
1 
1 
1 
1 
1 
1 
1 
1 
1 
1 
1 
1 
1 
1 
1 
1 
1 
1 
1 
1 
1 
1 
1 
1 
1 
1 
1 
1 
1 
1 
1 
1 
1 
1 
1 
1 
1 
1 
1 
1 
1 
1 
1 
1 
1 
1 
1 
1 
1 
1 
1 
1 
1 
1 
1 
1 
1 
1 
1 
1 
1 
1 
1 
1 
1 
1 
1 
1 
1 
1 
1 
1 
1 
1 
1 
1 
1 
1 
1 
1 
1 
1 
1 
1 
1 
1 
1 
1 
1 
1 
1 
1 
1 
1 
1 
1 
1 
1 
1 
1 
1 
1 
1 
1 
1 
1 
1 
1 
1 
1 
1 
1 
1 
1 
1 
1 
1 
1 
1 
1 
1 
1 
1 
1 
1 
1 
1 
1 
1 
1 
1 
1 
1 
1 
1 
1 
1 
1 
1 
1 
1 
1 
1 
1 
1 
1 
1 
1 
1 
1 
1 
1 
1 
1 
1 
1 
1 
1 
1 
1 
1 
1 
1 
1 
1 
1 
1 
1 
1 
1 
1 
1 
1 
1 
1 
1 
1 
1 
1 
1 
1 
1 
1 
1 
1 
1 
1 
1 
1 
1 
1 
1 
1 
1 
1 
1 
1 
1 
1 
1 
1 
1 
1 
1 
1 
1 
1 
1 
1 
1 
1 
1 
1 
1 
1 
1 
1 
1 
1 
1 
1 
1 
1 
1 
1 
1 
1 
1 
1 
1 
1 
1 
1 
1 
1 
1 
1 
1 
1 
1 
1 
1 
1 
1 
1 
1 
1 
1 
1 
1 
1 
1 
1 
1 
1 
1 
1 
1 
1 
1 
1 
1 
1 
1 
1 
1 
1 
1 
1 
1 
1 
1 
1 
1 
1 
1 
1 
1 
1 
1 
1 
1 
1 
1 
1 
1 
1 
1 
1 
1 
1 
1 
1 
1 
1 
1 
1 
1 
1 
1 
1 
1 
1 
1 
1 
1 
1 
1 
1 
1 
1 
1 
1 
1 
1 
1 
1 
1 
1 
1 
1 
1 
1 
1 
1 
1 
1 
1 
1 
1 
1 
1 
1 
1 
1 
1 
1 
1 
1 
1 
1 
1 
1 
1 
1 
1 
1 
1 
1 
1 
1 
1 
1 
1 
1 
1 
1 
1 
1 
1 
1 
1 
1 
1 
1 
1 
1 
1 
1 
1 
1 
1 
1 
1 
1 
1 
1 
1 
1 
1 
1 
1 
1 
1 
1 
1 
1 
1 
1 
1 
1 
1 
1 
1 
1 
1 
1 
1 
1 
1 
1 
1 
1 
1 
1 
1 
1 
1 
1 
1 
1 
1 
1 
1 
1 
1 
1 
1 
1 
1 
1 
1 
1 
1 
1 
1 
1 
1 
1 
1 
1 
1 
1 
1 
1 
1 
1 
1 
1 
1 
1 
1 
1 
1 
1 
1 
1 
1 
1 
1 
1 
1 
1 
1 
1 
1 
1 
1 
1 
1 
1 
1 
1 
1 
1 
1 
1 
1 
1 
1 
1 
1 
1 
1 
1 
1 
1 
1 
1 
1 
1 
1 
1 
1 
1 
1 
1 
1 
1 
1 
1 
1 
1 
1 
1 
1 
1 
1 
1 
1 
1 
1 
1 
1 
1 
1 
1 
1 
1 
1 
1 
1 
1 
1 
1 
1 
1 
1 
1 
1 
1 
1 
1 
1 
1 
1 
1 
1 
1 
1 
1 
1 
1 
1 
1 
1 
1 
1 
1 
1 
1 
1 
1 
1 
1 
1 
1 
1 
1 
1 
1 
1 
1 
1 
1 
1 
1 
1 
1 
1 
1 
1 
1 
1 
1 
1 
1 
1 
1 
1 
1 
1 
1 
1 
1 
1 
1 
1 
1 
1 
1 
1 
1 
1 
1 
1 
1 
1 
1 
1 
1 
1 
1 
1 
1 
1 
1 
1 
1 
1 
1 
1 
1 
1 
1 
1 
1 
1 
1 
1 
1 
1 
1 
1 
1 
1 
1 
1 
1 
1 
1 
1 
1 
1 
1 
1 
1 
1 
1 
1 
1 
1 
1 
1 
1 
1 
1 
1 
1 
1 
1 
1 
1 
1 
1 
1 
1 
1 
1 
1 
1 
1 
1 
1 
1 
1 
1 
1 
1 
1 
1 
1 
1 
1 
1 
1 
1 
1 
1 
1 
1 
1 
1 
1 
1 
1 
1 
1 
1 
1 
1 
1 
1 
1 
1 
1 
1 
1 
1 
1 
1 
1 
1 
1 
1 
1 
1 
1 
1 
1 
1 
1 
1 
1 
1 
1 
1 
1 
1 
1 
1 
1 
1 
1 
1 
1 
1 
1 
1 
1 
1 
1 
1 
1 
1 
1 
1 
1 
1 
1 
1 
1 
1 
1 
1 
1 
1 
1 
1 
1 
1 
1 
1 
1 
1 
1 
1 
1 
1 
1 
1 
1 
1 
1 
1 
1 
1 
1 
1 
1 
1 
1 
1 
1 
1 
1 
1 
1 
1 
1 
1 
1 
1 
1 
1 
1 
1 
1 
1 
1 
1 
1 
1 
1 
1 
1 
1 
1 
1 
1 
1 
1 
1 
1 
1 
1 
1 
1 
1 
1 
1 
1 
1 
1 
1 
1 
1 
1 
1 
1 
1 
1 
1 
1 
1 
1 
1 
1 
1 
1 
1 
1 
1 
1 
1 
1 
1 
1 
1 
1 
1 
1 
1 
1 
1 
1 
1 
1 
1 
1 
1 
1 
1 
1 
1 
1 
1 
1 
1 
1 
1 
1 
1 
1 
1 
1 
1 
1 
1 
1 
1 
1 
1 
1 
1 
1 
1 
1 
1 
1 
1 
1 
1 
1 
1 
1 
1 
1 
1 
1 
1 
1 
1 
1 
1 
1 
1 
1 
1 
1 
1 
1 
1 
1 
1 
1 
1 
1 
1 
1 
1 
1 
1 
1 
1 
1 
1 
1 
1 
1 
1 
1 
1 
1 
1 
1 
1 
1 
1 
1 
1 
1 
1 
1 
1 
1 
1 
1 
1 
1 
1 
1 
1 
1 
1 
1 
1 
1 
1 
1 
1 
1 
1 
1 
1 
1 
1 
1 
1 
1 
1 
1 
1 
1 
1 
1 
1 
1 
1 
1 
1 
1 
1 
1 
1 
1 
1 
1 
1 
1 
1 
1 
1 
1 
1 
1 
1 
1 
1 
1 
1 
1 
1 
1 
1 
1 
1 
1 
1 
1 
1 
1 
1 
1 
1 
1 
1 
1 
1 
1 
1 
1 
1 
1 
1 
1 
1 
1 
1 
1 
1 
1 
1 
1 
1 
1 
1 
1 
1 
1 
1 
1 
1 
1 
1 
1 
1 
1 
1 
1 
1 
1 
1 
1 
1 
1 
1 
1 
1 
1 
1 
1 
1 
1 
1 
1 
1 
1 
1 
1 
1 
1 
1 
1 
1 
1 
1 
1 
1 
1 
1 
1 
1 
1 
1 
1 
1 
1 
1 
1 
1 
1 
1 
1 
1 
1 
1 
1 
1 
1 
1 
1 
1 
1 
1 
1 
1 
1 
1 
1 
1 
1 
1 
1 
1 
1 
1 
1 
1 
1 
1 
1 
1 
1 
1 
1 
1 
1 
1 
1 
1 
1 
1 
1 
1 
1 
1 
1 
1 
1 
1 
1 
1 
1 
1 
1 
1 
1 
1 
1 
1 
1 
1 
1 
1 
1 
1 
1 
1 
1 
1 
1 
1 
1 
1 
1 
1 
1 
1 
1 
1 
1 
1 
1 
1 
1 
1 
1 
1 
1 
1 
1 
1 
1 
1 
1 
1 
1 
1 
1 
1 
1 
1 
1 
1 
1 
1 
1 
1 
1 
1 
1 
1 
1 
1 
1 
1 
1 
1 
1 
1 
1 
1 
1 
1 
1 
1 
1 
1 
1 
1 
1 
1 
1 
1 
1 
1 
1 
1 
1 
1 
1 
1 
1 
1 
1 
1 
1 
1 
1 
1 
1 
1 
1 
1 
1 
1 
1 
1 
1 
1 
1 
1 
1 
1 
1 
1 
1 
1 
1 
1 
1 
1 
1 
1 
1 
1 
1 
1 
1 
1 
1 
1 
1 
1 
1 
1 
1 
1 
1 
1 
1 
1 
1 
1 
1 
1 
1 
1 
1 
1 
1 
1 
1 
1 
1 
1 
1 
1 
1 
1 
1 
1 
1 
1 
1 
1 
1 
1 
1 
1 
1 
1 
1 
1 
1 
1 
1 
1 
1 
1 
1 
1 
1 
1 
1 
1 
1 
1 
1 
1 
1 
1 
1 
1 
1 
1 
1 
1 
1 
1 
1 
1 
1 
1 
1 
1 
1 
1 
1 
1 
1 
1 
1 
1 
1 
1 
1 
1 
1 
1 
1 
1 
1 
1 
1 
1 
1 
1 
1 
1 
1 
1 
1 
1 
1 
1 
1 
1 
1 
1 
1 
1 
1 
1 
1 
1 
1 
1 
1 
1 
1 
1 
1 
1 
1 
1 
1 
1 
1 
1 
1 
1 
1 
1 
1 
1 
1 
1 
1 
1 
1 
1 
1 
1 
1 
1 
1 
1 
1 
1 
1 
1 
1 
1 
1 
1 
1 
1 
1 
1 
1 
1 
1 
1 
1 
1 
1 
1 
1 
1 
1 
1 
1 
1 
1 
1 
1 
1 
1 
1 
1 
1 
1 
1 
1 
1 
1 
1 
1 
1 
1 
1 
1 
1 
1 
1 
1 
1 
1 
1 
1 
1 
1 
1 
1 
1 
1 
1 
1 
1 
1 
1 
1 
1 
1 
1 
1 
1 
1 
1 
1 
1 
1 
1 
1 
1 
1 
1 
1 
1 
1 
1 
1 
1 
1 
1 
1 
1 
1 
1 
1 
1 
1 
1 
1 
1 
1 
1 
1 
1 
1 
1 
1 
1 
1 
1 
1 
1 
POINT_DATA 5000
VECTORS Stress float
-12.0832 -27.591 0.
-1816.97 -3367.19 0.
9.8734 18.3733 0.
-2803.16 -3877.05 0.
-4.60384 -6.41911 0.
3.3383 5.07739 0.
-3786.73 -5923.96 0.
-879.036 -1366.49 0.
-360.742 -535.61 0.
-3382.38 -5306.25 0.
-1566.26 -2746.92 0.
-2.3981 -7.9893 0.
-1892.15 -2882.2 0.
-1491 -2270.25 0.
-1138.09 -1685.01 0.
-974.469 -1507.08 0.
-805.453 -1334.54 0.
-948.304 -1550.32 0.
-803.334 -1452.63 0.
-648.539 -1364.76 0.
-860.344 -1569.08 0.
-857.198 -1562.98 0.
-853.471 -1557.46 0.
-876.661 -1604.99 0.
-892.039 -1640.25 0.
-904.968 -1677.96 0.
-1090.65 -1831.61 0.
-1079.24 -1840.29 0.
-891.79 -1771.46 0.
-867.488 -1698.41 0.
-835.466 -1633.09 0.
-853.526 -1630.35 0.
-830.676 -1605.44 0.
-805.615 -1582.74 0.
-837.975 -1631.97 0.
-845.253 -1669.93 0.
-852.479 -1707.95 0.
-911.755 -1729.27 0.
-896.812 -1714.7 0.
-815.87 -1663.25 0.
-784.327 -1603.12 0.
-752.789 -1542.98 0.
-787.644 -1517.59 0.
-779.099 -1497.66 0.
-770.554 -1477.74 0.
-751.785 -1465.56 0.
-754.716 -1472.4 0.
-757.647 -1479.24 0.
-786.455 -1542.71 0.
-820.115 -1621.26 0.
-853.773 -1699.8 0.
-880.149 -1654.25 0.
-850.314 -1584.62 0.
-762.58 -1499.39 0.
-754.481 -1480.5 0.
-746.382 -1461.61 0.
-752.677 -1467.93 0.
-767.092 -1501.55 0.
-781.507 -1535.18 0.
-763.741 -1565.94 0.
-789.916 -1616.42 0.
-818.672 -1664.31 0.
-917.897 -1721.24 0.
-933.356 -1741.42 0.
-848.147 -1706.39 0.
-844.022 -1668.67 0.
-839.311 -1631.53 0.
-822.631 -1604.4 0.
-855.064 -1650.53 0.
-886.097 -1698.06 0.
-844.897 -1679.9 0.
-872.893 -1709.39 0.
-898.198 -1741.57 0.
-1047.07 -1788.56 0.
-1052.86 -1783.15 0.
-906.134 -1651.82 0.
-861.499 -1585.1 0.
-857.667 -1571.61 0.
-829.778 -1562.83 0.
-825.204 -1583.07 0.
-830.331 -1593.61 0.
-708.011 -1397.92 0.
-888.72 -1528.9 0.
-1053.22 -1676.09 0.
-898.555 -1430.59 0.
-1106.64 -1641.45 0.
-1308.31 -1858.73 0.
-1644.46 -2520.48 0.
-2229.9 -3417.91 0.
1.0969 2.12344 0.
-1190.22 -2016.04 0.
-3852.97 -5980.49 0.
4.48168 4.06943 0.
-735.872 -1051.24 0.
-3606.47 -5583.24 0.
0.708329 3.30002 0.
-5.21288 -16.6076 0.
-2116.2 -3290.45 0.
10.9075 22.62 0.
-1228.7 -2573.89 0.
23.3914 60.0823 0.
3.71653 7.65868 0.
5.74037 12.3009 0.
17.4124 39.5646 0.
11.4313 20.1736 0.
-1.58144 -10.2208 0.
-99.6108 -151.25 0.
-0.23021 -0.362333 0.
-1.12981 -4.22903 0.
1.33095 2.80352 0.
-0.142451 -3.50779 0.
0.00665518 2.21434 0.
-597.41 -1201.21 0.
-334.835 -703.34 0.
-275.621 -495.991 0.
-145.862 -290.928 0.
-63.5795 -142.14 0.
-328.89 -756.854 0.
-237.954 -626.434 0.
-175.362 -484.959 0.
-591.733 -1300.73 0.
-583.934 -1303.69 0.
-579.239 -1304.52 0.
-698.842 -1341.04 0.
-699.21 -1391.32 0.
-696.26 -1444.91 0.
-1039.14 -1718.11 0.
-1029.28 -1725.23 0.
-697.648 -1503.92 0.
-653.137 -1431.99 0.
-620.524 -1362.18 0.
-669.445 -1438.04 0.
-639.716 -1420 0.
-636.306 -1375.64 0.
-712.477 -1508.74 0.
-720.02 -1546.45 0.
-727.224 -1584.49 0.
-913.646 -1675.87 0.
-900.95 -1659.05 0.
-716.523 -1560.75 0.
-679.585 -1506.01 0.
-646.182 -1447.74 0.
-776.603 -1452.04 0.
-757.312 -1442.87 0.
-738.937 -1432.78 0.
-690.14 -1407.72 0.
-693.069 -1414.55 0.
-695.998 -1421.39 0.
-737.887 -1481.79 0.
-765.472 -1566.41 0.
-799.122 -1644.95 0.
-940.562 -1648.7 0.
-910.742 -1579.07 0.
-687.016 -1435.58 0.
-678.91 -1416.69 0.
-670.804 -1397.81 0.
-696.162 -1412.26 0.
-718.214 -1438.26 0.
-742.913 -1461.6 0.
-663.634 -1467.86 0.
-697.201 -1510.94 0.
-731.539 -1553.25 0.
-940.97 -1679.74 0.
-952.947 -1703.41 0.
-725.795 -1544.56 0.
-701.996 -1526.5 0.
-698.958 -1487.68 0.
-646.595 -1400.28 0.
-685.937 -1439.51 0.
-726.463 -1477.56 0.
-632.168 -1364.21 0.
-633.643 -1420.24 0.
-662.402 -1448.98 0.
-913.086 -1618.81 0.
-919.689 -1612.59 0.
-773.353 -1498.77 0.
-711.81 -1362 0.
-729.294 -1322.27 0.
-464.869 -1171.68 0.
-490.987 -1177.13 0.
-520.244 -1183.69 0.
-125.386 -339.482 0.
-193.985 -461.543 0.
-294.143 -629.515 0.
-120.697 -223.986 0.
-122.075 -183.651 0.
-253.24 -382.536 0.
-131.42 -338.144 0.
-527.049 -1135.59 0.
-0.290313 -3.89095 0.
0.595009 2.36321 0.
4.08529 5.97012 0.
2.04277 1.89317 0.
2.03765 1.9439 0.
-151.764 -184.875 0.
-1.10555 -13.6085 0.
-3.19349 -19.2422 0.
-2.93575 -42.1235 0.
8.75704 20.3514 0.
4.45003 10.1826 0.
-208.173 -566.245 0.
-2.709 -6.0741 0.
-2.034 -27.8091 0.
22.785 57.6586 0.
-2.64894 -17.4261 0.
1.17453 15.6993 0.
-1.55017 -4.97584 0.
-0.249738 -1.02202 0.
1.61818 3.25183 0.
-0.068606 -1.10086 0.
0.0269358 2.26909 0.
-0.0284582 -6.07418 0.
-208.9 -469.253 0.
-111.762 -215.244 0.
-688.872 -1389.31 0.
-229.545 -496.995 0.
-36.0051 -43.9249 0.
-872.539 -2046.19 0.
-788.023 -1920.97 0.
-637.2 -1660.99 0.
-1336.76 -2590.81 0.
-1022.6 -1962.64 0.
-742.278 -1415.81 0.
-766.097 -1237.91 0.
-832.691 -1458.6 0.
-1053.54 -1938.06 0.
-1339.62 -2300.34 0.
-1305.11 -2227.33 0.
-827.047 -1589.49 0.
-676.546 -1289.08 0.
-624.678 -1212.69 0.
-733.509 -1472.13 0.
-648.122 -1278.37 0.
-642.149 -1277.87 0.
-714.759 -1376.22 0.
-635.644 -1196.74 0.
-678.685 -1307.61 0.
-888.447 -1530.1 0.
-949.282 -1683.67 0.
-711.594 -1298.19 0.
-607.113 -1083.14 0.
-585.782 -1049.04 0.
-759.771 -1295.5 0.
-791.474 -1415.34 0.
-740.421 -1360.59 0.
-675.756 -1299.64 0.
-686.961 -1356.36 0.
-705.247 -1425.31 0.
-761.117 -1405.28 0.
-711.838 -1291.75 0.
-1284.86 -1867.5 0.
-843.542 -1276.74 0.
-868.294 -1334.64 0.
-622.542 -1256.81 0.
-612.281 -1207.05 0.
-605.755 -1198.41 0.
-701.717 -1302.8 0.
-668.887 -1219.53 0.
-678.369 -1197.26 0.
-584.468 -1058.23 0.
-654.331 -1224.52 0.
-703.348 -1305.73 0.
-1071.18 -1810.5 0.
-1067.53 -1791.29 0.
-701.468 -1264.87 0.
-736.168 -1437.61 0.
-760.488 -1476.4 0.
-715.107 -1413.76 0.
-676.331 -1320.22 0.
-721.662 -1383.73 0.
-547.35 -1117.24 0.
-751.102 -1599.45 0.
-915.216 -1904.63 0.
-1258.27 -2321.66 0.
-1221.42 -2231.56 0.
-1105.53 -1907.78 0.
-935.308 -1511.19 0.
-867.234 -1253.72 0.
-671.423 -1560.96 0.
-1007.57 -2153.02 0.
-1412.68 -2927.42 0.
-496.5 -1281.96 0.
-830.92 -1969.34 0.
-866.191 -1953.96 0.
-74.8716 -56.8817 0.
-135.284 -195.061 0.
-502.161 -908.36 0.
0.00465728 1.31717 0.
-125.001 -344.75 0.
0.050378 1.07386 0.
-1.18169 -8.02783 0.
-0.599992 -2.20723 0.
1.39843 1.32465 0.
-0.230847 -0.225933 0.
-13.243 -13.6931 0.
0.247002 6.58832 0.
0.0412976 0.426715 0.
0.277439 10.8871 0.
-2.17391 -50.9851 0.
16.039 42.4282 0.
27.3406 75.2345 0.
-0.0484947 -68.0116 0.
-339.955 -864.322 0.
18.2411 46.8671 0.
-1626.98 -3617.17 0.
11.2815 25.5976 0.
-2206.91 -3950.12 0.
5.67122 10.857 0.
-1.72698 -12.903 0.
-3946.76 -8291.11 0.
0.70571 1.4774 0.
-0.242244 -1.88334 0.
-3507.9 -6762.91 0.
-427.733 -904.191 0.
-1944.03 -3542.5 0.
-1395.84 -2756.6 0.
-892.224 -1955 0.
-1666.75 -4053.71 0.
-720.917 -1899.82 0.
-162.019 -446.714 0.
-673.878 -1678.87 0.
-418.32 -1097.78 0.
-205.648 -569.37 0.
-546.242 -835.479 0.
-491.835 -800.66 0.
-444.221 -777.096 0.
-737.955 -1105.51 0.
-705.37 -1060.2 0.
-416.542 -596.44 0.
-451.307 -703.557 0.
-496.626 -835.578 0.
-529.614 -945.952 0.
-490.262 -901.254 0.
-452.814 -847.33 0.
-382.878 -785.14 0.
-336.903 -677.764 0.
-305.463 -559.067 0.
-537.032 -903.037 0.
-548.614 -950.212 0.
-478.266 -748.258 0.
-469.127 -729.771 0.
-460.845 -714.322 0.
-531.805 -918.209 0.
-512.605 -871.871 0.
-486.421 -834.577 0.
-444.411 -817.238 0.
-433.541 -807.452 0.
-432.414 -789.59 0.
-384.176 -745.602 0.
-346.065 -637.634 0.
-669.516 -738.991 0.
-456.364 -640.658 0.
-435.222 -727.02 0.
-331.108 -695.96 0.
-370.484 -737.847 0.
-408.934 -781.201 0.
-422.863 -745.262 0.
-459.526 -773.67 0.
-480.017 -818.214 0.
-425.299 -718.69 0.
-438.282 -744.5 0.
-451.823 -771.586 0.
-588.89 -1012.78 0.
-605.544 -1011.52 0.
-356.769 -693.166 0.
-377.527 -778.065 0.
-429.03 -906.705 0.
-495.634 -910.508 0.
-489.948 -861.072 0.
-495.389 -802.129 0.
-431.297 -767.76 0.
-453.598 -815.008 0.
-495.232 -913.966 0.
-774.61 -1266.91 0.
-762.573 -1174.47 0.
-450.927 -674.199 0.
-515.779 -734.035 0.
-595.891 -822.57 0.
-79.3785 -186.402 0.
-382.419 -1044 0.
-726.751 -1861.59 0.
-134.883 -373.578 0.
-731.132 -1826.42 0.
-1895.54 -4363.52 0.
-875.092 -1707.88 0.
-1483.09 -2622.04 0.
-2143.75 -3524.06 0.
-0.0435617 -0.616419 0.
-3655.16 -7386.17 0.
-1.85915 -12.7518 0.
3.1031 6.37617 0.
-3235.19 -6478.67 0.
-94.0027 -185.105 0.
-224.97 -419.868 0.
-789.599 -1871.08 0.
-2.04225 -31.1281 0.
-934.296 -2170.11 0.
17.3557 46.249 0.
-251.405 -666.47 0.
-152.083 -413.932 0.
-0.277917 -66.5838 0.
10.0902 27.8465 0.
-318.174 -832.101 0.
-0.980934 -50.2624 0.
-6.5983 -15.6818 0.
-1.13391 -19.7179 0.
-0.482843 -11.4562 0.
11.0512 23.9208 0.
4.38992 10.4848 0.
3.14425 7.08609 0.
-0.289683 -3.45796 0.
-0.763234 -11.844 0.
3.58662 7.46046 0.
-0.381873 -6.91598 0.
-98.0841 -227.018 0.
-13.1818 -35.2218 0.
-0.00770689 -0.228635 0.
-523.934 -1412.59 0.
-48.1973 -123.566 0.
0.158489 1.87668 0.
-387.783 -1072.75 0.
-175.329 -476.142 0.
-36.4464 -62.2767 0.
-463.526 -719.911 0.
-411.305 -680.097 0.
-372.269 -643.273 0.
-781.234 -1123.23 0.
-752.281 -1073.46 0.
-435.043 -581.773 0.
-501.046 -690.444 0.
-544.836 -822.006 0.
-566.525 -868.533 0.
-525.997 -821.104 0.
-482.657 -777.485 0.
-304.497 -701.349 0.
-272.921 -579.385 0.
-246.56 -453.505 0.
-570.769 -907.102 0.
-594.946 -956.511 0.
-535.082 -767.827 0.
-527.102 -748.395 0.
-521.545 -731.376 0.
-530.795 -856.771 0.
-513.616 -827.445 0.
-482.173 -826.489 0.
-443.294 -787.134 0.
-442.492 -769.264 0.
-441.047 -751.442 0.
-380.697 -741.426 0.
-339.138 -640.073 0.
-665.361 -731.417 0.
-380.673 -593.244 0.
-403.106 -636.47 0.
-402.734 -669.815 0.
-429.265 -723.934 0.
-466.643 -767.797 0.
-385.801 -725.96 0.
-407.066 -742.554 0.
-435.08 -778.665 0.
-478.642 -738.055 0.
-500.994 -753.807 0.
-504.234 -790.687 0.
-638.471 -1031.53 0.
-640.255 -1032.21 0.
-305.047 -635.72 0.
-325.185 -721.02 0.
-373.544 -855.208 0.
-518.058 -791.265 0.
-535.19 -716.909 0.
-544.343 -649.257 0.
-464.398 -787.971 0.
-488.172 -838.455 0.
-515.317 -887.911 0.
-842.82 -1278.73 0.
-843.552 -1178.49 0.
-279.113 -469.754 0.
-319.554 -554.154 0.
-397.177 -635.826 0.
0.149857 1.0934 0.
-83.5181 -186.364 0.
-355.148 -983.395 0.
0.240529 1.18922 0.
0.946323 0.250418 0.
-327.552 -856.041 0.
-5.81966e-05 -0.989324 0.
0.00376581 0.0793878 0.
0.388982 0.835402 0.
4.63627 12.1563 0.
-0.261954 -2.96778 0.
0.167564 2.17852 0.
6.17756 14.0835 0.
-1.50472 -14.4706 0.
1.02347 2.34953 0.
-35.5849 -75.8668 0.
7.46877 18.9846 0.
12.7274 31.5377 0.
-1.9068 -31.1038 0.
-4.9898 -13.559 0.
-231.651 -625.892 0.
-14.5377 -39.5066 0.
-193.204 -527.564 0.
-16.5023 -45.419 0.
-271.767 -726.228 0.
0.470479 1.27146 0.
-853.791 -2352.67 0.
-0.0707973 -43.4552 0.
4.65692 12.8555 0.
-1795.8 -4662.18 0.
5.14914 13.347 0.
-1986.2 -4453.05 0.
-51.7182 -120.167 0.
-49.2113 -119.994 0.
-3068.5 -7484.05 0.
-0.35472 -6.24648 0.
-1982.06 -3866.62 0.
-1152.93 -2366.37 0.
-372.924 -816.166 0.
-2395.92 -5629.66 0.
-965.989 -2412.62 0.
-0.26243 -0.72634 0.
-1893.67 -4127.8 0.
-1101.44 -2617.32 0.
-382.357 -1034.13 0.
-1160.66 -2215.75 0.
-859.815 -1693.96 0.
-613.974 -1272.44 0.
-1089.2 -1939.89 0.
-957.123 -1762.98 0.
-763.991 -1314.11 0.
-727.262 -1231.92 0.
-691.679 -1150.41 0.
-705.44 -1194.78 0.
-743.875 -1326.68 0.
-788.736 -1452.16 0.
-721.795 -1580.82 0.
-704.441 -1572 0.
-690.093 -1560.18 0.
-1168.36 -2012.72 0.
-1046.04 -1797.95 0.
-784.256 -1304.04 0.
-783.545 -1301.02 0.
-784.11 -1296.31 0.
-794.109 -1439.58 0.
-775.536 -1409.83 0.
-760.867 -1387.49 0.
-721.288 -1375.96 0.
-706.915 -1344.09 0.
-693.697 -1311.06 0.
-709.619 -1443.65 0.
-697.633 -1416.14 0.
-1162.91 -1653.84 0.
-760.45 -1441.09 0.
-769.96 -1458.4 0.
-733.692 -1410.62 0.
-756.914 -1472.46 0.
-780.65 -1533.77 0.
-628.321 -1361.84 0.
-683.116 -1404.68 0.
-713.203 -1491.1 0.
-824.981 -1373.35 0.
-803.296 -1322.25 0.
-783.624 -1269.14 0.
-1026.65 -1724.29 0.
-1121.32 -1904.52 0.
-650.654 -1444.67 0.
-657.356 -1463.91 0.
-672.945 -1482.38 0.
-787.726 -1235.45 0.
-775.466 -1241.16 0.
-764.852 -1245.23 0.
-647.063 -1331.56 0.
-675.792 -1351.19 0.
-708.577 -1368.89 0.
-951.987 -1730.18 0.
-1140.82 -1986.63 0.
-535.91 -1289.78 0.
-872.838 -1924.65 0.
-1293.51 -2679.37 0.
-256.279 -701.653 0.
-1141.89 -2753.69 0.
-2152.09 -4702.17 0.
-32.465 -83.652 0.
-976.745 -2251.21 0.
-2688.35 -6102.39 0.
-234.057 -522.122 0.
-857.653 -1634.31 0.
-1963.71 -3537.86 0.
-0.142114 -6.10409 0.
-2717.38 -7001.12 0.
0.554113 1.47431 0.
1.17025 2.99073 0.
-1421.07 -3379.42 0.
-0.825434 -2.18382 0.
-1708.24 -4477.47 0.
-0.158349 -30.2296 0.
-102.038 -280.045 0.
-0.0613609 -47.6021 0.
22.5662 62.0766 0.
-105.53 -288.931 0.
6.86604 18.6276 0.
1.38045 3.3762 0.
-12.9255 -32.1735 0.
13.0774 35.6733 0.
-0.369655 -48.9195 0.
-260.456 -719.833 0.
8.08516 22.3605 0.
-0.0158502 -36.0477 0.
-244.033 -659.932 0.
-0.163766 -21.2058 0.
5.74482 12.9988 0.
5.11786 12.109 0.
-0.0320057 -0.0790979 0.
4.99401 12.8714 0.
4.1024 11.0587 0.
3.76016e-06 6.36013 0.
0.465836 1.00165 0.
1.50578 3.71275 0.
-389.198 -1023.59 0.
-1.28607 -3.56148 0.
0.178059 0.484199 0.
-601.09 -1560.44 0.
-36.5893 -101.315 0.
0.554073 0.412777 0.
-521.444 -1244.15 0.
-292.831 -716.184 0.
-105.622 -169.885 0.
-745.285 -1583.75 0.
-636.846 -1456.72 0.
-594.93 -1152.19 0.
-549.208 -1098.89 0.
-524.237 -1046.03 0.
-624.026 -1041.54 0.
-667.432 -1172.53 0.
-711.149 -1318.13 0.
-677.276 -1405.1 0.
-664.689 -1403.59 0.
-651.411 -1403.09 0.
-1026.06 -1807.96 0.
-911.906 -1610 0.
-684.265 -1198.4 0.
-681.235 -1197.8 0.
-678.519 -1197.38 0.
-763.297 -1293.82 0.
-756.791 -1269.74 0.
-729.593 -1289.6 0.
-681.922 -1296.62 0.
-663.267 -1265.76 0.
-647.09 -1236.77 0.
-677.847 -1401.36 0.
-665.448 -1373.78 0.
-949.504 -1528.43 0.
-787.13 -1361.54 0.
-828.504 -1346.3 0.
-672.813 -1322.13 0.
-669.714 -1345.64 0.
-685.593 -1398.64 0.
-631.432 -1273.63 0.
-642.742 -1324.51 0.
-719.038 -1342.11 0.
-671.914 -1267.43 0.
-646.735 -1209.29 0.
-628.028 -1164.95 0.
-824.826 -1546.34 0.
-920.469 -1699.98 0.
-645.859 -1350.36 0.
-633.043 -1319.18 0.
-639.538 -1324.55 0.
-677.74 -1136.37 0.
-671.484 -1134.89 0.
-671.594 -1133.78 0.
-522.336 -1128.11 0.
-521.791 -1110.76 0.
-537.254 -1127.17 0.
-649.469 -1333.96 0.
-781.173 -1544.13 0.
-136.911 -302.305 0.
-287.116 -719.561 0.
-600.07 -1495.33 0.
-2.35578 -6.12916 0.
-0.870557 -2.1707 0.
-439.787 -1093.79 0.
0.523869 1.367 0.
-15.5011 -42.7547 0.
-272.308 -694.47 0.
-0.272276 -5.37039 0.
0.424795 0.937188 0.
0.00313256 0.796976 0.
-0.0541942 -10.6575 0.
3.85318 10.5208 0.
-0.306571 -18.4241 0.
0.884931 2.27279 0.
-1.13275 -20.9108 0.
-0.057602 -17.1565 0.
-95.9849 -259.393 0.
-0.0355041 -44.186 0.
-167.651 -463.727 0.
0.427533 1.15782 0.
-15.6173 -42.1599 0.
3.7337 10.0449 0.
7.76052 21.1925 0.
-4.94225 -12.2282 0.
1.16706 2.93575 0.
-302.487 -817.712 0.
-2.30631 -6.20996 0.
11.3036 30.2985 0.
5.82611 16.1333 0.
9.28726 25.7225 0.
-44.7431 -123.561 0.
-0.00483604 -32.0749 0.
-1.38852 -16.3188 0.
-0.779129 -12.192 0.
7.24363 18.1417 0.
-0.0737167 -8.59341 0.
-0.00377903 -17.4866 0.
-0.120544 -13.6773 0.
-0.51845 -4.76815 0.
2.14593 5.29771 0.
-1.49479 -4.14013 0.
0.324555 0.890085 0.
0.216276 0.572806 0.
-1.62403 -3.89302 0.
0.382381 0.595323 0.
0.993813 0.0724869 0.
-288.924 -664.624 0.
-202.229 -401.112 0.
-23.8727 -36.0825 0.
-668.86 -1424.24 0.
-397.171 -859.021 0.
-511.975 -1048.69 0.
-525.241 -971.57 0.
-348.52 -540.041 0.
-758.857 -1201.29 0.
-351.1 -504.108 0.
-141.222 -135.447 0.
-351.086 -588.326 0.
-393.29 -681.503 0.
-440.303 -769.187 0.
-641.418 -962.526 0.
-704.694 -1049.32 0.
-428.928 -546.954 0.
-455.276 -630.264 0.
-333.518 -428.075 0.
-464.601 -584.02 0.
-389.715 -463.443 0.
-599.125 -936.943 0.
-437.045 -741.885 0.
-330.644 -481.04 0.
-354.981 -549.46 0.
-344.062 -651.998 0.
-374.675 -694.222 0.
-877.628 -1083.98 0.
-620.556 -905.69 0.
-630.46 -920.778 0.
-427.635 -724.802 0.
-355.384 -558.725 0.
-429.911 -653.293 0.
-403.805 -308.723 0.
-523.776 -662.541 0.
-537.704 -587.867 0.
-346.152 -601.403 0.
-335.54 -561.358 0.
-414.236 -530.906 0.
-466.199 -843.005 0.
-625.031 -1213.18 0.
-373.717 -476.91 0.
-504.873 -692.683 0.
-331.457 -453.449 0.
-319.523 -624.259 0.
-315.712 -619.849 0.
-316.814 -608.112 0.
-328.133 -642.315 0.
-496.175 -985.542 0.
-352.889 -709.715 0.
-254.213 -467.512 0.
-668.026 -1351.09 0.
-60.1325 -117.445 0.
-74.3068 -161.617 0.
-185.002 -464.795 0.
-0.961099 -2.49691 0.
0.0893968 0.223617 0.
0.105163 0.250431 0.
-0.195202 -2.81087 0.
-2.36902 -6.22868 0.
-41.4354 -113.47 0.
-0.385818 -9.35 0.
1.18273 2.72612 0.
4.43574 12.2559 0.
1.35655 3.75705 0.
4.83581 13.3897 0.
5.54346 14.7763 0.
-0.409833 -13.2136 0.
-0.641643 -12.7899 0.
-0.00176996 -20.2845 0.
-10.1843 -28.086 0.
18.8522 52.1867 0.
-219.191 -606.849 0.
1.42744 3.86457 0.
-22.2664 -60.0883 0.
-136.183 -366.209 0.
22.2557 60.8037 0.
-3.18075 -7.96641 0.
-62.6288 -159.277 0.
-276.247 -738.766 0.
19.2537 51.2029 0.
21.1442 56.4725 0.
-158.847 -439.976 0.
-4.39713 -12.1718 0.
-732.66 -2028.05 0.
-0.0307538 -29.3001 0.
-1324.52 -3162.94 0.
2.17257 5.40461 0.
-3.16652 -8.03561 0.
-2234.15 -6032.12 0.
2.95442 8.04728 0.
1.61389 4.42839 0.
-3278.92 -7307.97 0.
0.951837 2.32713 0.
-2390.28 -5848.7 0.
-635.355 -1654.36 0.
-41.0453 -111.648 0.
-2365.7 -5878.15 0.
-805.421 -2133.24 0.
-0.599855 -1.65791 0.
-1693.65 -4133.91 0.
-796.167 -2081.9 0.
-137.224 -379.644 0.
-1254.12 -2940.74 0.
-963.268 -2349.23 0.
-946.336 -2305.41 0.
-714.915 -1820.75 0.
-489.32 -1337.62 0.
-692.765 -1448.73 0.
-598.291 -1248.72 0.
-500.393 -1055.53 0.
-576.413 -969.749 0.
-550.354 -932.435 0.
-517.206 -903.586 0.
-796.493 -1318.02 0.
-774.877 -1281.1 0.
-459.006 -890.391 0.
-456.098 -877.857 0.
-466.776 -902.141 0.
-560.851 -985.777 0.
-520.836 -898.476 0.
-483.849 -818.783 0.
-489.778 -862.975 0.
-529.205 -946.795 0.
-582.632 -1041.89 0.
-581.079 -1108.42 0.
-559.398 -1058.71 0.
-576.458 -1063.37 0.
-704.784 -1063.59 0.
-755.373 -1054.84 0.
-524.96 -930.042 0.
-508.09 -882.178 0.
-499.141 -824.849 0.
-507.156 -796.821 0.
-514.111 -803.114 0.
-489.564 -838.341 0.
-468.933 -882.509 0.
-496.925 -965.799 0.
-529.25 -1060.18 0.
-786.873 -1399.32 0.
-784.09 -1372.72 0.
-569.844 -990.967 0.
-634.986 -1115.59 0.
-697.714 -1240.91 0.
-545.549 -1194.95 0.
-643.568 -1388.31 0.
-739.863 -1580.75 0.
-496.452 -1280.6 0.
-747.401 -1826.64 0.
-1009.77 -2363.52 0.
-958.23 -2364.11 0.
-1407.73 -3268.85 0.
1.41981 0.426833 0.
-815.173 -2048.57 0.
-1922.11 -4539.5 0.
0.0337982 1.07408 0.
-643.272 -1687.7 0.
-2552.02 -6489.22 0.
-221.148 -575.693 0.
-431.406 -1068.63 0.
-2101.71 -4989.21 0.
-0.719218 -11.7644 0.
-2976.7 -7390.19 0.
-47.6589 -130.838 0.
-70.1269 -190.645 0.
-1393.02 -3760.23 0.
-0.572101 -22.68 0.
-1611.51 -4095.41 0.
-0.0384781 -30.9189 0.
1.51586 4.19822 0.
-208.313 -576.465 0.
15.5229 42.7572 0.
0.807855 2.22225 0.
-45.2212 -122.391 0.
-139.736 -376.925 0.
-306.782 -841.958 0.
20.9216 57.1937 0.
-2.36226 -5.61608 0.
-8.07405 -19.9361 0.
7.07176 18.4818 0.
12.386 32.6852 0.
-25.7651 -68.6169 0.
-252.293 -697.802 0.
-3.86469 -10.6642 0.
-131.68 -361.765 0.
-0.199668 -33.5908 0.
2.47997 6.70185 0.
-4.69132 -11.8341 0.
2.83857 7.29646 0.
4.46767 12.2408 0.
6.57521 18.1167 0.
-0.00568654 -11.402 0.
3.35152 8.49224 0.
5.10647 13.5784 0.
-99.679 -268.444 0.
-17.658 -48.1938 0.
-0.00135113 -2.58141 0.
-181.883 -485.142 0.
-0.0604587 -1.76323 0.
0.818787 2.24998 0.
-606.063 -1605.72 0.
-38.4093 -106.35 0.
-6.35567 -16.2355 0.
-776.622 -2040.29 0.
-525.641 -1412.52 0.
-648.838 -1762.09 0.
-456.679 -1240.57 0.
-282.378 -705.047 0.
-586.111 -1231.77 0.
-490.173 -1035.64 0.
-399.522 -834.788 0.
-617.937 -896.931 0.
-592.893 -860.1 0.
-571.656 -843.708 0.
-824.318 -1325.97 0.
-803.815 -1290.79 0.
-459.47 -767.935 0.
-458.206 -752.885 0.
-462.885 -754.25 0.
-507.507 -936.869 0.
-463.248 -834.177 0.
-419.629 -730.526 0.
-519.867 -849.255 0.
-561.179 -951.725 0.
-608.195 -1052.04 0.
-601.577 -1104.34 0.
-580.35 -1056.05 0.
-611.74 -954.495 0.
-723.141 -1078.36 0.
-774.685 -1068.99 0.
-566.29 -830.677 0.
-543.721 -787.932 0.
-520.494 -746.046 0.
-467.185 -700.598 0.
-464.493 -713.342 0.
-465.614 -727.387 0.
-482.084 -776.202 0.
-516.709 -855.409 0.
-566.855 -971.257 0.
-913.156 -1448.43 0.
-910.183 -1421.1 0.
-566.439 -883.733 0.
-629.386 -1011.29 0.
-692.366 -1145.29 0.
-340.952 -923.521 0.
-425.752 -1127.4 0.
-523.178 -1325.1 0.
-245.422 -590.622 0.
-436.783 -1196.73 0.
-675.813 -1759.32 0.
-364.947 -985.804 0.
-762.341 -1944.67 0.
1.73989 0.00415083 0.
0.979101 0.0362331 0.
-445.717 -1123.98 0.
2.08871 5.77103 0.
-0.0379321 -4.04439 0.
-143.244 -386.398 0.
-43.0069 -105.124 0.
1.9452 4.27569 0.
-0.0239312 -0.129262 0.
-0.171413 -11.1211 0.
0.884415 2.3065 0.
5.35703 14.8053 0.
5.68802 15.6241 0.
-24.5187 -66.7472 0.
-0.363563 -28.3541 0.
-574.26 -1522.19 0.
12.0914 33.3064 0.
3.125 8.64741 0.
-378.015 -1046.96 0.
17.4219 47.7134 0.
15.7061 42.9542 0.
17.92 48.0481 0.
-8.51425 -22.582 0.
19.8217 53.7697 0.
14.6213 39.0794 0.
12.9619 31.0783 0.
-8.9454 -22.2741 0.
-2.17009 -5.65011 0.
-38.879 -102.256 0.
-102.129 -271.218 0.
-1042.94 -2871.32 0.
-9.13746 -25.0753 0.
-63.4792 -172 0.
-3.41635 -9.14998 0.
-0.25767 -11.7686 0.
-73.2111 -186.664 0.
0.514198 1.40297 0.
-1461.24 -4044.22 0.
4.75422 13.0349 0.
5.97113 16.3406 0.
-2198.64 -5917.48 0.
3.11341 8.54605 0.
-2249.04 -5366.81 0.
-368.239 -927.528 0.
-27.2502 -70.6106 0.
-2433.28 -6426.8 0.
-282.798 -766.384 0.
0.083669 1.93188 0.
-2008.9 -5160.55 0.
-654.906 -1749.88 0.
-8.81619 -23.6944 0.
-1545.88 -3784.26 0.
-876.598 -2256.78 0.
-977.633 -2471.67 0.
-673.656 -1777.13 0.
-398.888 -1068.37 0.
-806.982 -1671.37 0.
-648.167 -1362.34 0.
-492.384 -1050.51 0.
-806.132 -1179.74 0.
-751.178 -1066.19 0.
-697.017 -957.329 0.
-929.979 -1576.89 0.
-943.136 -1618.41 0.
-673.626 -1183.27 0.
-640.049 -1112.49 0.
-612.259 -1056.85 0.
-697.193 -1189.34 0.
-661.817 -1229.76 0.
-669.083 -1237.86 0.
-876.321 -1327.06 0.
-776.449 -1080.2 0.
-613.595 -898.13 0.
-661.637 -1187.65 0.
-728.226 -1339.37 0.
-1185.49 -1613.94 0.
-819.378 -1253.24 0.
-804.336 -1140.38 0.
-591.348 -912.546 0.
-666.033 -1072.55 0.
-743.231 -1237.66 0.
-654.892 -1091.82 0.
-674.276 -1139.04 0.
-697.718 -1198.38 0.
-688.314 -1112.56 0.
-681.309 -1092.33 0.
-674.364 -1072.24 0.
-995.935 -1633.92 0.
-1030.76 -1723.01 0.
-665.195 -1026.32 0.
-743.734 -1166.3 0.
-831.416 -1323.93 0.
-409.516 -1048.06 0.
-588.658 -1422.64 0.
-772.404 -1797.39 0.
-337.548 -930.792 0.
-701.935 -1840.09 0.
-1103.2 -2723.02 0.
-785.118 -2023.15 0.
-1656.23 -4100.92 0.
0.225834 0.583413 0.
-541.14 -1435.65 0.
-2135.2 -5486.96 0.
0.0971038 0.267864 0.
-106.613 -293.414 0.
-2495.06 -6763.45 0.
-278.807 -665.991 0.
-295.032 -654.055 0.
-1899.46 -4138.98 0.
1.47518 4.08478 0.
-1920.97 -5320.63 0.
-11.1286 -30.5764 0.
-76.934 -213.04 0.
-1262.51 -3467.46 0.
-0.161546 -32.1756 0.
-3.84033 -10.4307 0.
-0.193332 -0.530933 0.
6.35534 17.5592 0.
-443.549 -1228.39 0.
3.16799 8.60869 0.
-330.894 -898.401 0.
7.54411 20.1888 0.
-5.32861 -14.1006 0.
16.256 44.2048 0.
-0.609926 -43.8655 0.
20.6894 50.0861 0.
-122.301 -307.399 0.
-297.043 -770.411 0.
-204.079 -535.319 0.
-8.52679 -20.8861 0.
-6.78885 -17.9188 0.
11.804 31.4124 0.
-293.738 -781.782 0.
-265.992 -702.969 0.
-321.66 -843.379 0.
-951.282 -2621.05 0.
-1.86836 -5.17179 0.
-217.64 -599.175 0.
-0.0624155 -12.4997 0.
2.20239 6.01677 0.
-0.00113611 -8.71512 0.
4.04701 11.177 0.
-0.544429 -6.69683 0.
-0.185074 -3.41648 0.
1.9784 5.08224 0.
-159.451 -417.865 0.
-0.0940047 -3.14806 0.
-0.00953603 -1.76128 0.
-540.844 -1441.81 0.
0.688384 1.87702 0.
-0.00566929 -1.46218 0.
-685.216 -1816.19 0.
-86.401 -238.007 0.
-561.443 -1502.05 0.
-296.013 -766.493 0.
-100.478 -173.897 0.
-583.778 -1317.22 0.
-433.932 -968.121 0.
-291.83 -616.707 0.
-638.166 -1037.31 0.
-586.693 -923.662 0.
-536.025 -819.016 0.
-829.233 -1494.94 0.
-844.416 -1538.58 0.
-601.589 -1064.82 0.
-577.95 -1012.77 0.
-573.78 -1017.94 0.
-665.997 -1156.64 0.
-674.469 -1169.24 0.
-683.351 -1182.7 0.
-785.145 -1286.23 0.
-692.157 -1045.84 0.
-598.908 -890.11 0.
-608.812 -1035.4 0.
-667.916 -1176.4 0.
-846.673 -1421.52 0.
-759.941 -1133.89 0.
-722.391 -1041.96 0.
-592.88 -949.734 0.
-650.603 -1055.2 0.
-732.759 -1191.2 0.
-627.459 -1094.32 0.
-648.998 -1137.44 0.
-668.037 -1184.03 0.
-596.755 -1058.14 0.
-575.646 -999.253 0.
-567.83 -979.805 0.
-859.275 -1533.87 0.
-893.37 -1618.38 0.
-477.503 -773.11 0.
-548.698 -920.205 0.
-622.349 -1066.25 0.
-201.302 -556.917 0.
-355.883 -959.497 0.
-519.107 -1350.7 0.
-28.3327 -69.5306 0.
-190.834 -528.267 0.
-545.501 -1458.07 0.
1.05641 0.120173 0.
-627.672 -1691.43 0.
-0.028574 -0.691252 0.
0.183944 0.505605 0.
-406.837 -1087.55 0.
0.862236 2.3881 0.
2.29382 6.31051 0.
-205.591 -563.719 0.
-20.91 -48.9742 0.
0.736094 1.63858 0.
3.21425 6.78759 0.
-0.0680263 -5.68997 0.
-0.655783 -1.78693 0.
0.637539 1.75698 0.
0.790893 2.19057 0.
-303.269 -835.817 0.
4.06932 11.2535 0.
-1168.06 -3234.61 0.
-41.3231 -111.698 0.
-11.7559 -31.8005 0.
-136.322 -369.103 0.
15.8105 40.2032 0.
4.05091 10.1575 0.
-227.556 -607.521 0.
-356.37 -939.802 0.
-70.9483 -193.434 0.
-2.99431 -8.0515 0.
6.54088 13.9301 0.
-2.67774 -27.435 0.
4.0114 9.53596 0.
15.1543 36.2785 0.
-11.2907 -27.5959 0.
3.35684 8.68606 0.
-5.07549 -13.2366 0.
-404.484 -1083.94 0.
6.77978 18.0906 0.
-39.7707 -105.309 0.
-585.415 -1621.49 0.
5.29178 14.6041 0.
0.755115 2.06772 0.
-0.442316 -1.2088 0.
-0.137636 -20.9222 0.
1.54738 4.21551 0.
-0.24013 -16.215 0.
0.00633872 0.0819442 0.
2.86523 7.04502 0.
1.55458 3.9856 0.
-0.00420314 -0.161866 0.
-0.0683579 -8.51974 0.
-4.00489e-05 -1.71005 0.
-0.115315 -2.41389 0.
-0.0153779 -1.63805 0.
-0.000182944 -0.643974 0.
-58.9102 -136.538 0.
-0.572644 -0.620972 0.
-187.829 -417.662 0.
-106.891 -135.129 0.
-52.0632 -73.7751 0.
-369.737 -820.758 0.
-229.605 -453.715 0.
-109.106 -100.704 0.
-405.295 -696.09 0.
-342.24 -525.969 0.
-224.514 -234.809 0.
-507.151 -875.213 0.
-639.852 -1238.5 0.
-290.922 -221.951 0.
-295.843 -242.931 0.
-264.781 -144.997 0.
-217.736 -164.008 0.
-251.443 -294.979 0.
-223.951 -282.761 0.
-315.779 -204.575 0.
-324.394 -220.056 0.
-250.787 -164.438 0.
-269.385 -359.923 0.
-414.222 -699.711 0.
-353 -257.302 0.
-404.11 -378.259 0.
-304.47 -131.737 0.
-326.418 -148.278 0.
-340.29 -211.724 0.
-369.637 -209.633 0.
-153.704 -163.898 0.
-254.559 -392.133 0.
-244.134 -332.007 0.
-288.784 -214.838 0.
-364.305 -408.157 0.
-438.73 -567.133 0.
-518.634 -934.712 0.
-387.665 -592.957 0.
-270.429 -394.611 0.
-352.885 -640.407 0.
-473.456 -931.949 0.
-118.358 -183.073 0.
-188.318 -461.095 0.
-370.716 -927.626 0.
-0.0955056 -0.0056642 0.
0.813047 0.0455708 0.
-70.8474 -196.235 0.
-0.240061 -0.103422 0.
0.430115 0.581344 0.
0.0234291 0.494769 0.
1.84506 4.98774 0.
-0.87217 -2.41573 0.
2.76468 7.6463 0.
-0.00201799 -4.55624 0.
2.93451 8.05418 0.
1.13529 2.66286 0.
-0.415019 -4.07915 0.
-1.01193 -7.80782 0.
-0.343632 -8.69196 0.
-5.41479 -14.1617 0.
8.30622 22.9393 0.
-0.282569 -0.782626 0.
-1.39249 -3.83748 0.
11.4264 31.0772 0.
-483.528 -1325.52 0.
-19.4794 -52.7751 0.
-0.528809 -1.43371 0.
-603.675 -1639.5 0.
-2.58424 -6.54908 0.
14.5646 36.3811 0.
15.0852 36.7329 0.
6.97421 16.6856 0.
-1.13875 -35.0044 0.
3.36968 8.3194 0.
23.4028 50.2802 0.
-6.27994 -14.3259 0.
-142.336 -342.405 0.
1.44611 3.45336 0.
-291.658 -712.431 0.
-698.629 -1759.31 0.
9.82205 24.9863 0.
13.1601 35.544 0.
-3.3472 -8.98126 0.
15.7486 41.4698 0.
-543.485 -1498.49 0.
-3.72176 -10.1937 0.
-772.663 -2134.49 0.
-169.108 -467.614 0.
-7.66693 -21.2253 0.
-1881.92 -5199.14 0.
1.04816 2.86998 0.
-2038.46 -4941.79 0.
-74.732 -182.554 0.
-0.312799 -9.71508 0.
-2535.39 -6907.58 0.
0.688354 1.86703 0.
-0.0329398 -7.74912 0.
-2290.3 -6010.81 0.
-272.573 -728.489 0.
0.000425126 0.563039 0.
-1862.49 -4826.8 0.
-603.154 -1634.09 0.
-1410.11 -3631.51 0.
-791.974 -2106.07 0.
-217.787 -540.483 0.
-1094.72 -2798.17 0.
-716.389 -1871.75 0.
-366.986 -912.991 0.
-792.063 -1850.28 0.
-607.646 -1422.82 0.
-444.817 -1018.23 0.
-837.19 -1846.19 0.
-794.108 -1753.32 0.
-570.809 -1154.09 0.
-526.969 -1059.2 0.
-500.104 -997.6 0.
-555.553 -984.629 0.
-538.147 -949.734 0.
-523.823 -915.317 0.
-549.069 -1034.62 0.
-560.974 -1074.21 0.
-580.203 -1112.15 0.
-564.173 -1115.29 0.
-528.556 -1032.12 0.
-555.452 -971.397 0.
-601.063 -946.414 0.
-634.931 -1025.83 0.
-611.417 -1087.46 0.
-598.633 -1060.19 0.
-586.712 -1033.57 0.
-472.495 -936.182 0.
-500.194 -984.862 0.
-526.701 -1028.31 0.
-509.825 -1069.57 0.
-559.779 -1188.21 0.
-613.371 -1318.1 0.
-820.04 -1925.75 0.
-887.659 -2046.06 0.
-426.71 -963.666 0.
-640.682 -1516.41 0.
-861.559 -2063.05 0.
-292.696 -787.27 0.
-719.623 -1957.28 0.
-1186.32 -3097.19 0.
-89.5779 -247.466 0.
-774.053 -2076.35 0.
-1530.1 -3938.47 0.
-487.512 -1348.74 0.
-1967.21 -5271.62 0.
-1.00249e-09 -0.123396 0.
-57.4391 -158.398 0.
-2289.89 -6200.24 0.
-0.000127001 -4.86975 0.
0.477698 1.32313 0.
-2285.8 -6237.62 0.
-20.4008 -53.4721 0.
-1999.08 -4959.03 0.
-173.26 -466.518 0.
-26.7311 -72.8343 0.
-1057.2 -2911.97 0.
-0.0462773 -23.8475 0.
4.6189 12.7336 0.
-572.607 -1579.76 0.
0.959642 2.55526 0.
4.54938 12.1519 0.
1.02767 2.79023 0.
-0.314283 -38.7731 0.
-105.683 -270.857 0.
-2.29185 -5.78787 0.
-492.303 -1224.17 0.
-135.249 -323.892 0.
-6.75732 -15.8985 0.
4.8059 12.4398 0.
-1.81263 -37.3198 0.
-1.31443 -2.85528 0.
-1.97306 -4.55997 0.
-435.919 -1063.83 0.
-31.7573 -75.6551 0.
6.44807 15.0243 0.
7.86961 18.6278 0.
12.549 29.6922 0.
-1.18029 -33.4542 0.
13.4453 34.8681 0.
-2.58837 -6.80448 0.
-473.425 -1295.16 0.
5.88701 15.9315 0.
-593.584 -1638.22 0.
-43.1305 -119.165 0.
-27.3206 -75.5933 0.
-42.1285 -113.963 0.
-0.230638 -13.2329 0.
-0.110902 -3.62921 0.
2.97282 7.39244 0.
1.63912 4.26241 0.
-217.736 -590.719 0.
0.13769 0.379497 0.
-0.00120321 -7.90265 0.
-174.534 -471.51 0.
-2.27791e-05 -0.106148 0.
-0.0400294 -4.16085 0.
-538.393 -1477.68 0.
-0.254626 -0.657815 0.
-588.783 -1600.9 0.
-111.713 -266.483 0.
-36.3057 -83.4946 0.
-635.556 -1709.64 0.
-297.318 -740.599 0.
-178.558 -307.232 0.
-602.474 -1496.82 0.
-440.02 -1052.65 0.
-353.275 -814.516 0.
-793.923 -1729.78 0.
-742.59 -1649.56 0.
-578.693 -1079.25 0.
-525.268 -946.625 0.
-491.098 -864.208 0.
-580.477 -909.956 0.
-565.929 -873.636 0.
-551.995 -837.169 0.
-440.552 -923.054 0.
-459.23 -958.159 0.
-477.846 -992.978 0.
-620.084 -1095.38 0.
-583.056 -1017.69 0.
-708.698 -1050 0.
-628.208 -913.441 0.
-667.811 -1021.29 0.
-528.101 -934.821 0.
-514.483 -912.268 0.
-500.843 -890.066 0.
-530.879 -810.553 0.
-546.539 -878.613 0.
-566.679 -943.509 0.
-413.284 -971.914 0.
-472.457 -1087.34 0.
-537.349 -1213.07 0.
-714.876 -1778.91 0.
-761.928 -1907.2 0.
-292.017 -676.622 0.
-432.635 -1064.38 0.
-638.519 -1627.66 0.
-109.998 -236.055 0.
-202.882 -542.505 0.
-627.29 -1720.12 0.
-26.9062 -74.1953 0.
-39.5734 -109.6 0.
-515.822 -1403.56 0.
-23.6023 -65.3679 0.
-528.726 -1464.38 0.
-0.00550801 -7.20008 0.
2.07236 5.72897 0.
-119.424 -327.689 0.
3.15783 8.70638 0.
0.433926 1.19681 0.
2.8415 7.83947 0.
5.27564 14.4205 0.
-128.201 -342.086 0.
6.13331 16.4501 0.
3.16736 8.61039 0.
-212.142 -582.838 0.
-0.00516113 -20.8661 0.
4.61905 12.7842 0.
-842.868 -2333.3 0.
7.32765 19.3276 0.
-279.026 -738.919 0.
0.839717 2.2362 0.
9.48762 25.0277 0.
-1.10714 -2.69332 0.
-2.33533 -5.63543 0.
16.3562 39.1453 0.
-15.5594 -36.6024 0.
-100.087 -231.145 0.
-94.5592 -246.816 0.
-1.8682 -41.705 0.
13.694 27.0692 0.
-4.03798 -34.5031 0.
-35.0773 -82.9528 0.
-2.62722 -5.9152 0.
15.3162 35.4915 0.
-3.28271 -7.7624 0.
-10.1732 -24.0442 0.
-861.964 -2197.68 0.
-151.388 -391.778 0.
-15.0606 -39.5214 0.
-389.324 -1053.8 0.
8.80297 23.474 0.
-58.3892 -160.776 0.
-58.0044 -160.08 0.
-54.6904 -151.202 0.
-798.51 -2002.28 0.
-9.57089 -24.0394 0.
2.21322 5.53742 0.
-1781.75 -4816.41 0.
4.83671 13.0087 0.
-1629.85 -4488.96 0.
-29.4549 -81.5375 0.
2.34201 6.48485 0.
-2006.98 -5495.21 0.
-0.000729966 -6.7143 0.
1.92931 5.33238 0.
-1896.14 -5153.69 0.
-231.634 -641.587 0.
-1531.02 -4039.4 0.
-656.1 -1791.84 0.
-47.992 -126.12 0.
-1175.58 -3170.24 0.
-626.477 -1734.84 0.
-166.135 -365.818 0.
-916.05 -2285.58 0.
-570.866 -1425.01 0.
-246.954 -544.967 0.
-841.801 -1894.16 0.
-716.033 -1607.7 0.
-562.768 -1006.48 0.
-520.965 -902.112 0.
-495.165 -839.729 0.
-592.414 -907.228 0.
-582.129 -881.047 0.
-571.459 -852.917 0.
-520.818 -961.033 0.
-462.228 -989.507 0.
-462.468 -975.997 0.
-737.603 -1231.26 0.
-780.966 -1256.59 0.
-843.409 -1298.64 0.
-678.589 -1135.39 0.
-667.435 -1114.82 0.
-532.555 -900.557 0.
-553.141 -953.558 0.
-576.809 -1015.56 0.
-599.024 -945.16 0.
-584.456 -903.488 0.
-570.736 -861.79 0.
-363.031 -839.475 0.
-425.271 -985.005 0.
-492.383 -1134.5 0.
-634.719 -1654.78 0.
-782.552 -1983.31 0.
-184.098 -414.106 0.
-569.679 -1475.77 0.
-988.011 -2509.96 0.
-60.2449 -135.431 0.
-633.928 -1742.19 0.
-1335.78 -3555 0.
-20.9075 -56.3681 0.
-593.747 -1624.17 0.
-1580.66 -4213.97 0.
-82.7432 -228.946 0.
-1797.8 -4960.14 0.
-0.00151328 -0.726137 0.
1.38833 3.84532 0.
-1992.4 -5490.58 0.
-0.00783141 -7.15545 0.
-112.041 -310.333 0.
-1828.34 -4900.04 0.
1.76812 4.89712 0.
-1159.69 -3211.99 0.
-23.3496 -58.8215 0.
-43.5285 -110.786 0.
-664.925 -1824.57 0.
9.21625 25.5179 0.
-64.9382 -179.837 0.
5.79742 15.0573 0.
5.67091 14.8051 0.
-548.828 -1439.9 0.
-349.754 -920.899 0.
-349.867 -911.835 0.
-382.104 -929.953 0.
-7.25256 -17.5121 0.
-3.02627 -7.24679 0.
16.2412 36.9915 0.
4.64972 10.1779 0.
12.094 30.868 0.
4.35882 10.4749 0.
4.29202 8.69763 0.
-3.19182 -31.9062 0.
-174.795 -426.234 0.
-43.606 -97.4599 0.
-425.585 -979.092 0.
-183.373 -432.949 0.
3.10474 7.33173 0.
-68.2107 -161.008 0.
-37.9405 -95.1488 0.
-14.1305 -35.6122 0.
-72.1915 -188.403 0.
6.69087 17.5254 0.
-826.039 -2169.96 0.
-337.407 -920.636 0.
-13.9119 -37.6025 0.
-455.336 -1132.07 0.
-26.048 -64.6799 0.
-2.0552 -5.08034 0.
-574.032 -1571.22 0.
-0.0416266 -14.3772 0.
-352.882 -975.482 0.
3.68496 10.2064 0.
0.980083 2.7098 0.
-253.017 -699.731 0.
-0.453395 -1.25479 0.
-0.0203152 -5.95461 0.
-605.296 -1674.39 0.
-0.0164693 -0.393476 0.
-566.717 -1556.21 0.
-21.9366 -60.3407 0.
1.32697 0.174778 0.
-564.675 -1564 0.
-110.135 -251.713 0.
0.693754 0.0882552 0.
-530.914 -1414.11 0.
-208.479 -531.286 0.
-129.936 -259.08 0.
-679.286 -1628.04 0.
-563.196 -1338.2 0.
-513.456 -948.833 0.
-465.744 -847.299 0.
-431.811 -774.635 0.
-465.086 -879.448 0.
-453.816 -855.181 0.
-441.386 -827.243 0.
-476.817 -939.006 0.
-451.554 -977.047 0.
-460.744 -991.029 0.
-636.412 -1197.93 0.
-644.347 -1202.64 0.
-555.978 -1186.63 0.
-597.254 -1010.14 0.
-584.616 -984.843 0.
-534.365 -958.969 0.
-552.005 -1000.81 0.
-573.506 -1049.14 0.
-431.798 -929.801 0.
-416.111 -891.776 0.
-402.506 -850.264 0.
-316.863 -672.908 0.
-378.213 -820.306 0.
-446.127 -970.028 0.
-451.802 -1178.57 0.
-583.154 -1522.2 0.
-54.6492 -53.1077 0.
-165.707 -389.924 0.
-531.584 -1472.37 0.
0.121118 0.821433 0.
-56.6469 -146.904 0.
-590.743 -1631.24 0.
-0.0279864 -1.70373 0.
-0.0976885 -1.43103 0.
-515.308 -1412.82 0.
1.48604 4.11414 0.
-474.572 -1311.43 0.
3.3319 9.06764 0.
1.50784 4.16235 0.
-211.87 -586.623 0.
0.793402 2.19294 0.
-0.712853 -1.97425 0.
-412.437 -1136.35 0.
-0.07077 -17.9385 0.
-370.385 -1019.79 0.
-4.41555 -11.0219 0.
-0.90463 -21.9216 0.
-483.86 -1236.37 0.
2.67226 7.11637 0.
-815.547 -2205.96 0.
-35.8696 -90.2841 0.
-1.50031 -3.75369 0.
10.4189 25.9107 0.
1.70334 4.24285 0.
-118.3 -303.782 0.
-141.296 -344.221 0.
7.24867 17.5149 0.
-70.4054 -168.692 0.
-428.098 -984.007 0.
-3.73989 -34.3017 0.
11.2559 29.1106 0.
-1.35349 -22.8458 0.
-2.26225 -16.0219 0.
-121.787 -284.244 0.
-7.38956 -17.2881 0.
14.1889 28.9063 0.
14.0561 29.5048 0.
-4.15605 -9.15512 0.
8.20356 18.5463 0.
-3.63974 -8.43599 0.
-85.9177 -215.005 0.
-82.8731 -208.431 0.
-581.206 -1500.97 0.
8.44715 21.9217 0.
9.85052 25.6632 0.
-328.685 -887.251 0.
-9.57419 -25.5008 0.
-528.568 -1302.37 0.
-29.749 -73.0108 0.
-9.47244 -23.1271 0.
2.16094 5.97394 0.
1.67509 4.63968 0.
-0.366261 -1.01446 0.
0.0951983 0.263462 0.
3.90686 10.7762 0.
1.25172 3.46629 0.
-0.0101488 -5.13403 0.
-0.0412815 -6.03795 0.
-21.793 -55.0662 0.
-0.386177 -3.27015 0.
-3.15174 -8.12041 0.
0.340477 1.25685 0.
1.67022 0.104514 0.
-80.5698 -199.481 0.
1.13871 0.0656552 0.
-0.382436 -0.0409804 0.
-207.035 -527.974 0.
-122.233 -254.172 0.
-19.3353 -50.1355 0.
-380.608 -784.177 0.
-316.5 -608.254 0.
-360.071 -478.327 0.
-311.504 -355.519 0.
-267.785 -229.405 0.
-190.282 -361.409 0.
-248.965 -525.005 0.
-217.525 -430.741 0.
-234.817 -360.159 0.
-241.422 -371.239 0.
-239.776 -385.173 0.
-334.217 -391.772 0.
-274.428 -257.828 0.
-59.98 -31.6907 0.
-103.305 -60.5908 0.
-128.411 -141.303 0.
-239.3 -290.966 0.
-287.067 -397.512 0.
-304.704 -440.407 0.
-132.72 -316.683 0.
-115.453 -264.203 0.
-160.701 -327.552 0.
-285.78 -313.334 0.
-301.194 -377.574 0.
-281.193 -318.122 0.
-176.595 -322.172 0.
-386.122 -929.09 0.
0.353792 0.117757 0.
-57.4385 -68.7027 0.
-174.592 -425.362 0.
0.0970668 0.435286 0.
0.173222 2.11587 0.
-62.6178 -170.119 0.
0.00976335 1.06561 0.
-0.125759 -3.10802 0.
-0.155069 -1.76186 0.
-0.0700827 -3.94408 0.
-0.00900712 -1.77817 0.
3.27115 8.76001 0.
3.70497 10.136 0.
3.67189 10.1475 0.
-0.221494 -0.612447 0.
-0.000143367 -8.66906 0.
0.354429 0.980968 0.
-0.270022 -16.3068 0.
-132.58 -357.754 0.
-1.03418 -20.3917 0.
0.836803 2.09324 0.
-490.216 -1244.64 0.
6.52361 17.1533 0.
-783.912 -2096.51 0.
8.15155 20.4192 0.
0.865311 2.15424 0.
-424.29 -1048.68 0.
-18.6114 -45.9806 0.
13.6856 33.609 0.
-1.25324 -2.94305 0.
8.7208 19.8687 0.
10.9814 24.242 0.
12.2739 25.7638 0.
-0.887791 -1.78024 0.
-87.903 -230.925 0.
-4.46909 -11.0151 0.
-0.882739 -1.82553 0.
-6.58749 -14.5423 0.
-14.4478 -33.5703 0.
-3.41283 -6.94663 0.
-9.85254 -20.6801 0.
-1.55954 -3.43794 0.
-354.28 -803.346 0.
-367.827 -856.565 0.
-407.331 -1016.31 0.
-379.338 -951.038 0.
1.43964 3.68486 0.
-5.24511 -13.4737 0.
-6.16906 -15.906 0.
-423.348 -1122.25 0.
4.0481 10.5462 0.
-260.159 -632.241 0.
-8.25555 -19.9494 0.
-11.0123 -26.4703 0.
-1127.67 -3121.04 0.
-0.0165217 -15.4195 0.
-1455.34 -3999.36 0.
-123.964 -342.715 0.
-45.1782 -125.012 0.
-1918.75 -5311.32 0.
1.53563 4.25085 0.
-0.015898 -4.40265 0.
-1907.02 -5282.1 0.
-18.6049 -47.6921 0.
-1603.03 -4327.5 0.
-505.333 -1387.16 0.
-17.8519 -48.7238 0.
-1420.1 -3869.63 0.
-530.725 -1469.22 0.
-30.6599 -84.3991 0.
-1057.83 -2914.32 0.
-495.001 -1367.12 0.
-155.991 -392.723 0.
-922.564 -2457.73 0.
-654.138 -1769.07 0.
-668.998 -1531.51 0.
-561.39 -1258.63 0.
-466.203 -991.268 0.
-492.651 -1182.14 0.
-443.49 -1046.41 0.
-396.919 -912.943 0.
-434.1 -1001.69 0.
-391.196 -903.151 0.
-358.694 -797.628 0.
-541.508 -844.48 0.
-569.655 -880.301 0.
-274.586 -672.023 0.
-371.234 -783.01 0.
-379.067 -781.956 0.
-433.853 -940.387 0.
-443.576 -966.919 0.
-457.052 -997.726 0.
-300.392 -806.543 0.
-380.414 -1017.45 0.
-463.692 -1230.14 0.
-438.703 -898.653 0.
-570.77 -1271.68 0.
-708.743 -1641.82 0.
-619.983 -1717.06 0.
-982.939 -2678.35 0.
-97.9587 -219.625 0.
-550.634 -1517.64 0.
-1233.8 -3398.98 0.
0.000585525 1.53074 0.
-524.88 -1453.45 0.
-1538.8 -4208.46 0.
-12.5192 -32.796 0.
-423.737 -1169 0.
-1545.5 -4213.99 0.
-11.2422 -30.6064 0.
-1961.45 -5432.81 0.
3.73568 10.109 0.
0.720226 1.97744 0.
-1986.62 -5501.08 0.
-42.7997 -118.159 0.
-9.43127 -25.9645 0.
-1157.94 -3157.59 0.
0.646341 1.71093 0.
-806.608 -2176.13 0.
-12.6423 -32.8369 0.
-43.3511 -114.011 0.
-159.441 -424.405 0.
5.08546 13.4627 0.
-131.018 -346.857 0.
-123.976 -308.863 0.
-109.617 -271.381 0.
-236.93 -582.635 0.
-436.056 -1067.7 0.
-288.948 -703.401 0.
-225.824 -529.635 0.
-192.284 -437.201 0.
14.6899 32.3462 0.
-7.73557 -16.487 0.
-3.65136 -23.0412 0.
-3.03804 -7.40705 0.
1.33013 3.0774 0.
1.05684 2.17003 0.
-124.858 -274.809 0.
-5.60754 -31.2547 0.
16.8529 34.2869 0.
-209.236 -439.029 0.
-79.0051 -174.396 0.
-8.80491 -19.0945 0.
-3.78528 -34.9462 0.
-3.34156 -7.94377 0.
5.13713 12.2988 0.
12.5606 30.701 0.
-5.19899 -12.8367 0.
-1.16657 -25.105 0.
-466.654 -1219.32 0.
0.781596 2.00514 0.
-727.039 -1782.66 0.
7.58356 18.4873 0.
0.0786891 0.190821 0.
-417.121 -1145.75 0.
5.03354 13.7713 0.
-252.154 -695.353 0.
3.84279 10.6304 0.
1.72417 4.77258 0.
-197.778 -546.569 0.
3.09822 8.47407 0.
-0.0208033 -1.41744 0.
-463.267 -1256.76 0.
-0.202745 -4.47579 0.
-431.58 -1186 0.
-0.00700304 -1.54601 0.
-0.000299848 -0.558977 0.
-512.941 -1418.54 0.
0.028375 0.0778846 0.
-0.015014 -1.42518 0.
-586.104 -1618.3 0.
-151.432 -394.625 0.
-12.3184 -21.7122 0.
-624.963 -1731.04 0.
-369.492 -1001.49 0.
-501.836 -1186.43 0.
-402.298 -908.361 0.
-332.818 -703.312 0.
-497.596 -1057.2 0.
-449.779 -922.045 0.
-401.22 -788.04 0.
-401.302 -874.123 0.
-359.509 -773.312 0.
-322.234 -668.243 0.
-525.769 -833.023 0.
-548.1 -875.144 0.
-225.967 -444.557 0.
-344.569 -746.477 0.
-354.723 -745.864 0.
-390.686 -785.119 0.
-401.27 -813.411 0.
-415.315 -847.616 0.
-263.571 -643.318 0.
-342.568 -856.741 0.
-424.175 -1070.44 0.
-263.829 -540.845 0.
-362.558 -828.159 0.
-495.322 -1205.24 0.
-312.116 -823.395 0.
-668.504 -1849.78 0.
-0.0975334 -0.22423 0.
-113.883 -287.019 0.
-615.57 -1696.87 0.
-0.00103954 -0.254061 0.
-0.000646157 -1.08484 0.
-493.202 -1364.21 0.
0.228837 0.616309 0.
0.677593 1.81717 0.
-349.758 -967.369 0.
1.86332 4.91835 0.
-407.413 -1119.77 0.
-0.139855 -5.93186 0.
-0.331673 -0.892424 0.
-157.965 -432.955 0.
-29.2105 -80.0632 0.
-7.70317 -21.0112 0.
-236.581 -633.434 0.
2.33371 5.93902 0.
-414.885 -1085.69 0.
-6.61723 -17.1553 0.
-24.6856 -64.7677 0.
-785.624 -2070.98 0.
-0.725879 -29.5759 0.
-433.845 -1122.02 0.
-54.2338 -128.609 0.
-6.45928 -15.1963 0.
-2.62107 -6.11922 0.
-2.31914 -5.3484 0.
-2.17703 -4.99084 0.
0.749848 1.67072 0.
-178.612 -405.452 0.
-1.01461 -2.22833 0.
-393.4 -852.793 0.
1.25987 2.60609 0.
5.3774 13.3201 0.
-1.20376 -15.6975 0.
-0.608354 -1.14509 0.
-0.265496 -0.522988 0.
-0.929429 -1.6456 0.
2.8751 5.41377 0.
8.21436 16.4252 0.
-3.78845 -29.2587 0.
11.3749 24.8141 0.
13.3221 29.6772 0.
-11.9889 -28.1727 0.
-403.212 -952.505 0.
-441.307 -1060.54 0.
-0.00319792 -0.00777358 0.
-312.342 -767.136 0.
-660.401 -1699.35 0.
6.17276 15.5861 0.
-181.675 -448.055 0.
1.17977 2.89933 0.
-3.29628 -8.05896 0.
-235.271 -637.336 0.
5.1925 13.9794 0.
-901.207 -2476.23 0.
-32.9758 -90.1612 0.
1.26734 3.49167 0.
-1347.63 -3633.2 0.
3.10331 8.28226 0.
-0.0148738 -0.705908 0.
-1497.6 -4124.47 0.
-0.0461692 -3.58047 0.
-1361.65 -3718.53 0.
-247.451 -672.207 0.
-20.5878 -56.2546 0.
-1458.52 -4025.64 0.
-335.693 -929.613 0.
0.953856 2.62325 0.
-1157.84 -3193.81 0.
-401.951 -1110.44 0.
-4.83305 -10.2088 0.
-905.014 -2471 0.
-503.54 -1394.31 0.
-674.697 -1660.02 0.
-460.705 -1129.05 0.
-261.695 -600.809 0.
-488.388 -1041.32 0.
-402.541 -811.302 0.
-318.973 -584.285 0.
-342.358 -724.659 0.
-323.739 -663.799 0.
-308.414 -611.735 0.
-536.128 -871.614 0.
-514.951 -824.59 0.
-278.721 -502.679 0.
-318.403 -615.8 0.
-335.532 -662.401 0.
-296.235 -612.664 0.
-317.935 -685.1 0.
-346.441 -773.779 0.
-227.593 -556.077 0.
-367.92 -924.926 0.
-514.652 -1295.38 0.
-252.875 -621.314 0.
-491.99 -1257.11 0.
-747.544 -1882.96 0.
-534.506 -1479.07 0.
-1047.59 -2853.67 0.
0.219536 0.536016 0.
-414.666 -1137.77 0.
-1273.7 -3526.36 0.
-0.01108 -2.90576 0.
-277.774 -767.853 0.
-1534.4 -4248.91 0.
-98.6046 -273.115 0.
-219.504 -607.931 0.
-1286.06 -3546.69 0.
-0.103195 -3.85682 0.
-1483.12 -4089.21 0.
-0.142587 -5.18403 0.
1.93494 4.91131 0.
-1234.23 -3268.69 0.
-15.7171 -43.53 0.
-183.551 -507.681 0.
-272.672 -717.359 0.
3.94445 9.61405 0.
-4.6315 -11.7196 0.
2.89065 7.4825 0.
2.54347 6.66246 0.
-393.512 -1034.41 0.
-64.0068 -165.228 0.
-825.194 -2103.38 0.
-464.648 -1110.43 0.
-45.7363 -107.956 0.
-269.015 -631.047 0.
-173.665 -396.259 0.
-21.6184 -48.9977 0.
-108.365 -243.339 0.
6.36281 13.7977 0.
2.3983 5.01232 0.
13.8721 28.7042 0.
-5.10588 -28.1194 0.
-1.06654 -13.0323 0.
7.23746 16.2884 0.
-0.942252 -1.78984 0.
-18.9105 -37.6544 0.
5.42696 9.57596 0.
5.13282 9.67248 0.
-315.948 -634.607 0.
10.9461 23.5039 0.
-437.569 -961.495 0.
-226.735 -508.637 0.
-155.783 -361.533 0.
-185.052 -432.477 0.
-172.696 -408.303 0.
-5.66618 -13.0956 0.
5.83925 13.6608 0.
-53.8691 -133.509 0.
1.54191 3.80499 0.
-224.888 -557.3 0.
-48.2746 -118.255 0.
-4.48644 -10.847 0.
-870.301 -2269.54 0.
3.72364 9.36566 0.
-583.533 -1595.34 0.
-25.5129 -69.6461 0.
-32.1101 -88.4408 0.
-554.005 -1440.64 0.
-0.238766 -7.19954 0.
-0.0315019 -0.722683 0.
-548.493 -1494.63 0.
0.787657 2.11023 0.
-430.5 -1164.4 0.
-1.29583 -3.50204 0.
-0.00679881 -3.19953 0.
-587.301 -1626.1 0.
-0.00232496 -1.3439 0.
-0.000280469 -0.489382 0.
-513.746 -1421.1 0.
-60.0155 -165.329 0.
-0.78022 -1.79556 0.
-502.318 -1390.9 0.
-151.616 -416.993 0.
-438.886 -1128.65 0.
-230.029 -571.832 0.
-116.912 -263.493 0.
-353.166 -825.709 0.
-271.781 -596.35 0.
-214.313 -438.329 0.
-242.198 -611.237 0.
-227.695 -564.508 0.
-223.918 -547.17 0.
-468.392 -851.257 0.
-449.564 -812.591 0.
-348.106 -764.272 0.
-290.702 -640.028 0.
-298.82 -666.682 0.
-183.439 -490.533 0.
-202.325 -558.059 0.
-229.965 -635.085 0.
-153.614 -339.173 0.
-239.175 -574.1 0.
-378.43 -946.812 0.
-92.283 -242.398 0.
-188.028 -518.25 0.
-430.105 -1156.26 0.
-141.774 -383.826 0.
-578.645 -1602.5 0.
-0.041605 -1.27706 0.
-45.1986 -123.935 0.
-585.097 -1603.23 0.
-0.147822 -3.84091 0.
-0.0828092 -4.1109 0.
-581.85 -1605.06 0.
-39.6869 -109.143 0.
-25.9787 -71.0491 0.
-417.603 -1153.28 0.
-0.1847 -5.29506 0.
-340.821 -918.226 0.
4.42291 11.3204 0.
1.52295 3.7938 0.
-645.431 -1640.68 0.
-55.9673 -153.373 0.
-170.404 -470.624 0.
-879.111 -2430.65 0.
0.694288 1.67982 0.
-819.609 -2055.05 0.
-3.09834 -7.85102 0.
-6.07883 -15.3584 0.
-33.9927 -85.5647 0.
0.809828 1.98629 0.
2.62086 6.44317 0.
-1.23618 -2.90503 0.
-67.4307 -159.693 0.
-327.681 -771.654 0.
-256.4 -577.959 0.
-295.71 -662.807 0.
-343.903 -779.393 0.
-238.31 -521.181 0.
-1.03664 -2.1804 0.
-223.327 -466.14 0.
-1.30436 -2.57248 0.
11.0404 20.549 0.
5.1227 11.3788 0.
-5.14938 -9.88279 0.
-155.393 -312.907 0.
-6.87892 -12.0954 0.
-6.96916 -13.1506 0.
-67.0278 -135.39 0.
-6.05861 -33.0789 0.
-4.65453 -29.2529 0.
11.8558 24.9991 0.
12.9987 28.1969 0.
-7.33652 -16.2099 0.
-1.21925 -2.77778 0.
-2.45765 -5.6698 0.
-148.198 -345.936 0.
-550.11 -1344.29 0.
7.10199 17.323 0.
-848.875 -2104.27 0.
-118.433 -290.68 0.
2.28875 5.54671 0.
-713.369 -1824.74 0.
5.20574 12.8242 0.
-265.876 -718.042 0.
-53.8123 -146.64 0.
-75.0648 -206.557 0.
1.42406 3.57398 0.
-0.485512 -8.77609 0.
-0.124414 -1.73505 0.
-0.0509883 -6.08574 0.
2.32083 6.20021 0.
0.764094 2.05231 0.
-0.0699614 -0.191659 0.
0.972147 2.69117 0.
-36.0668 -99.8984 0.
-0.000272822 -0.863053 0.
-0.0303939 -4.21633 0.
-118.24 -327.356 0.
0.471067 1.2506 0.
0.0257814 0.0627901 0.
-170.408 -467.327 0.
-58.8152 -152.925 0.
-172.749 -468.168 0.
-112.034 -301.971 0.
-56.3836 -126.205 0.
-177.388 -426.246 0.
-132.964 -299.941 0.
-68.4633 -118.221 0.
-105.436 -289.47 0.
-140.901 -380.938 0.
-101.174 -247.082 0.
-270.655 -387.575 0.
-254.557 -353.964 0.
-161.354 -237.032 0.
-161.075 -233.884 0.
-195.879 -344.886 0.
-79.7043 -197.722 0.
-91.9756 -248.024 0.
-64.283 -177.599 0.
-94.2963 -131.94 0.
-130.001 -235.778 0.
-213.54 -465.097 0.
-15.0001 -39.3584 0.
-65.7001 -179.328 0.
-171.466 -473.234 0.
-27.1494 -74.5705 0.
-153.038 -413.609 0.
-0.0179776 -0.927204 0.
1.02655 2.82911 0.
-133.901 -365.917 0.
0.0103442 0.108187 0.
0.58177 1.42547 0.
-19.8607 -51.1283 0.
-47.277 -128.17 0.
-8.0733 -21.7727 0.
1.03328 2.75159 0.
-0.0536784 -1.286 0.
-0.112052 -6.00544 0.
-0.285979 -6.57883 0.
1.59104 3.87486 0.
-0.726279 -1.7165 0.
-117.146 -313.013 0.
-266.856 -725.483 0.
-383.325 -907.611 0.
-1.43483 -24.3278 0.
-571.799 -1432.41 0.
-151.713 -377.683 0.
-159.54 -395.773 0.
-667.546 -1641.47 0.
-5.55511 -13.484 0.
-398.522 -964.503 0.
11.3465 26.646 0.
-3.24629 -7.44194 0.
2.2762 5.0897 0.
-6.40438 -13.384 0.
6.85335 14.0516 0.
10.714 22.2877 0.
5.8633 11.8879 0.
15.4615 30.5676 0.
-117.874 -247.958 0.
3.94718 7.82485 0.
-5.1625 -23.728 0.
-78.076 -171.004 0.
-2.35063 -9.14158 0.
-0.454073 -0.842909 0.
9.69053 15.8918 0.
-5.30347 -19.39 0.
-50.7519 -92.4864 0.
10.1648 19.839 0.
-226.401 -459.235 0.
-9.02369 -19.0138 0.
13.5437 28.8875 0.
-689.554 -1501.44 0.
-327.89 -744.771 0.
-190.621 -438.657 0.
-331.674 -772.623 0.
-427.938 -1032.85 0.
2.3238 5.59997 0.
-1.33432 -3.32258 0.
-24.8191 -60.2369 0.
-80.3882 -195.713 0.
-232.819 -596.371 0.
6.2821 15.82 0.
-708.277 -1956.05 0.
-100.542 -278.296 0.
-44.4387 -123.017 0.
-985.033 -2528.45 0.
-4.38127 -11.193 0.
-74.2817 -192.309 0.
-1600.91 -4373.12 0.
1.25267 3.40575 0.
-1134.02 -3122.73 0.
-183.934 -499.339 0.
-1.89606 -5.21406 0.
-1509.66 -4165.06 0.
-241.645 -660.973 0.
1.22321 3.34551 0.
-1334.42 -3696.12 0.
-304.5 -842.179 0.
-0.000241115 -0.029574 0.
-1053.05 -2908.06 0.
-366.777 -1014.24 0.
-773.473 -2100.62 0.
-439.559 -1213.98 0.
-209.213 -571.733 0.
-587.936 -1570.41 0.
-398.071 -1082.73 0.
-229.327 -610.814 0.
-371.809 -1025.8 0.
-300.92 -829.107 0.
-242.68 -666.822 0.
-502.707 -1031.05 0.
-491.818 -1003.59 0.
-327.726 -834.989 0.
-349.93 -898.661 0.
-371.422 -958.067 0.
-216.649 -593.407 0.
-325.946 -900.133 0.
-462.365 -1280.59 0.
-239.553 -582.065 0.
-457.299 -1178.82 0.
-682.749 -1767.45 0.
-186.595 -516.373 0.
-449.934 -1232.63 0.
-845.127 -2269.66 0.
-353.87 -978.586 0.
-1116.41 -3076.71 0.
1.02744 2.84332 0.
-210.221 -580.349 0.
-1339.99 -3710.75 0.
-0.181254 -3.48257 0.
-123.104 -311.426 0.
-1539.34 -4178.19 0.
-128.664 -349.093 0.
-370.388 -973.974 0.
-1301.85 -3486.05 0.
1.22938 3.21927 0.
-1545 -4163.04 0.
-97.8576 -249.675 0.
-97.1756 -251.593 0.
-680.348 -1770.96 0.
-73.9212 -203.238 0.
-617.174 -1708.8 0.
-233.286 -595.257 0.
7.49366 18.6907 0.
-1.07799 -18.6051 0.
-2.0364 -23.3356 0.
-5.6694 -13.8676 0.
-7.07585 -17.279 0.
-5.45807 -13.108 0.
-478.863 -1144.95 0.
-392.317 -917.457 0.
-270.782 -618.886 0.
-253.412 -565.092 0.
-681.913 -1415.32 0.
14.5401 29.5718 0.
6.51289 13.423 0.
-3.8813 -23.2002 0.
7.47501 14.6175 0.
1.82518 3.62832 0.
12.2366 23.2256 0.
6.16371 11.1442 0.
0.400086 0.836702 0.
2.20168 3.96973 0.
-43.4069 -82.2691 0.
6.16309 10.2722 0.
12.1927 21.5006 0.
-500.219 -930.504 0.
-6.12732 -11.9111 0.
-70.2121 -142.078 0.
-196.677 -413.819 0.
-109.196 -228.748 0.
-0.0724688 -0.145142 0.
12.3614 26.025 0.
-3.14228 -6.67947 0.
-6.32189 -13.572 0.
-3.05538 -6.94717 0.
5.41687 12.4765 0.
-141.456 -340.398 0.
-62.4404 -150.396 0.
-115.285 -278.445 0.
-616.826 -1548.05 0.
-0.803742 -14.7524 0.
-540.289 -1322.62 0.
-127.285 -349.782 0.
-65.9107 -180.869 0.
-493.198 -1280.49 0.
-15.1805 -39.3168 0.
-87.1624 -228.542 0.
-309.196 -824.406 0.
-0.154301 -8.10689 0.
-378.553 -1026.56 0.
1.66303 4.48833 0.
1.46798 4.04039 0.
-518.44 -1415.82 0.
-0.0489134 -0.132517 0.
-0.00434589 -0.202607 0.
-523.081 -1445.79 0.
-23.873 -66.0213 0.
0.817789 2.19025 0.
-559.831 -1546.87 0.
-159.354 -425.263 0.
-426.663 -1178.11 0.
-177.729 -488.103 0.
-101.22 -258.312 0.
-388.953 -1069.96 0.
-228.307 -610.635 0.
-180.87 -432.334 0.
-321.852 -871.791 0.
-276.698 -743.421 0.
-232.911 -617.766 0.
-478.818 -971.402 0.
-470.079 -947.972 0.
-241.065 -660.86 0.
-309.735 -852.96 0.
-313.109 -860.197 0.
-170.685 -450.504 0.
-253.075 -690.802 0.
-363.967 -1003.1 0.
-133.757 -311.802 0.
-200.828 -523.075 0.
-407.948 -1088.01 0.
-56.0834 -152.457 0.
-144.233 -399.491 0.
-430.721 -1179.56 0.
-74.5195 -204.796 0.
-530.487 -1469.31 0.
-0.00230565 -2.21274 0.
0.663137 1.83675 0.
-448.636 -1235.12 0.
-0.168405 -3.14278 0.
1.81148 4.48665 0.
-617.475 -1596.26 0.
-23.495 -65.0747 0.
-50.9467 -139.207 0.
-64.1182 -162.135 0.
0.475658 1.2104 0.
-134.169 -346.662 0.
-73.2795 -188.41 0.
-74.2463 -193.579 0.
-561.631 -1466.79 0.
-0.545901 -1.47819 0.
-510.801 -1406.46 0.
-0.970268 -22.2456 0.
5.21882 12.7769 0.
-442.171 -1057.91 0.
-114.141 -261.106 0.
-19.9465 -45.4825 0.
-46.1401 -105.102 0.
9.32729 20.9067 0.
3.10701 6.92277 0.
12.4953 27.1385 0.
7.48413 16.165 0.
-4.46486 -9.59063 0.
8.61116 17.7159 0.
-79.2881 -159.883 0.
-445.984 -910.569 0.
2.98076 5.91783 0.
7.32345 14.1543 0.
-335.55 -672.674 0.
1.20837 2.31454 0.
-0.0570905 -0.103938 0.
-36.051 -75.0775 0.
3.23904 6.08818 0.
-11.0232 -21.1691 0.
-3.54587 -5.90502 0.
8.02649 13.8351 0.
-3.74008 -6.6748 0.
-4.10916 -7.5868 0.
0.771297 1.49368 0.
3.44026 6.98698 0.
5.34514 10.629 0.
-197.878 -396.162 0.
-6.95012 -14.4754 0.
-4.58683 -9.6459 0.
-262.671 -559.786 0.
-815.174 -1852.92 0.
-506.18 -1169.17 0.
-536.789 -1283.78 0.
-250.088 -598.237 0.
-297.428 -713.285 0.
-136.159 -332.576 0.
-0.122103 -0.291841 0.
4.61164 10.7919 0.
-273.186 -741.896 0.
-84.2473 -227.152 0.
-269.451 -708.593 0.
-19.8589 -47.3941 0.
-54.7339 -130.262 0.
-1093.71 -2557.3 0.
0.432741 1.04048 0.
-1144.56 -3155.98 0.
-357.723 -988.744 0.
-74.0997 -205.243 0.
-1200.92 -3249.13 0.
-53.8051 -143.532 0.
-0.0488421 -2.42059 0.
-1206.65 -3334.15 0.
-155.177 -429.529 0.
-0.0124187 -2.54103 0.
-1046.42 -2896.34 0.
-215.073 -594.662 0.
-765.51 -2054.26 0.
-351.377 -962.878 0.
-108.017 -299.151 0.
-627.683 -1700.82 0.
-354.037 -979.101 0.
-141.282 -373.862 0.
-469.14 -1222.14 0.
-330.568 -855.97 0.
-208.848 -509.556 0.
-450.984 -994.936 0.
-418.697 -915.004 0.
-168.605 -466.976 0.
-316.236 -875.824 0.
-387.882 -1061.18 0.
-160.296 -440.597 0.
-328.779 -908.364 0.
-528.795 -1444.43 0.
-119.665 -329.572 0.
-375.863 -1031.46 0.
-726.122 -1949.02 0.
-109.075 -295.513 0.
-368.472 -1003.97 0.
-817.359 -2197.65 0.
-144.449 -397.616 0.
-1061.52 -2939.74 0.
1.21743 3.30595 0.
-112.846 -310.356 0.
-1254.33 -3440.29 0.
-15.8174 -40.449 0.
-18.1577 -46.9007 0.
-1012.79 -2653.58 0.
-182.108 -502.242 0.
-1159.69 -3200.65 0.
-136.321 -333.424 0.
-7.14736 -17.7821 0.
-665.249 -1670.58 0.
-195.685 -507.39 0.
-157.578 -412.796 0.
-175.563 -464.756 0.
-0.210967 -11.4316 0.
-491.602 -1340.16 0.
-14.6001 -35.9306 0.
-107.626 -257.906 0.
-397.959 -930.366 0.
-430.573 -982.892 0.
-333.083 -757.043 0.
-526.629 -1198.57 0.
-482.284 -1080.19 0.
-587.617 -1306.07 0.
-126.218 -272.598 0.
-2.82823 -6.07589 0.
-0.165349 -0.353287 0.
-108.435 -215.891 0.
13.6396 26.4236 0.
3.44323 6.68148 0.
9.21764 17.2633 0.
1.14692 2.07269 0.
0.0942677 0.178329 0.
2.12157 3.84317 0.
1.06433 1.84758 0.
-2.50351 -4.83828 0.
3.65751 6.89883 0.
-33.8884 -65.357 0.
4.96867 8.19778 0.
-5.44552 -19.1976 0.
-199.307 -353.576 0.
2.13013 3.90007 0.
-576.496 -1107.66 0.
-82.1467 -166.376 0.
-173.311 -344.464 0.
-402.217 -804.358 0.
-198.395 -409.389 0.
-309.409 -646.33 0.
-115.871 -243.854 0.
-94.2941 -215.247 0.
-44.8104 -101.536 0.
-22.132 -51.3748 0.
-0.781896 -1.80868 0.
-5.596 -12.8937 0.
-0.243276 -0.573874 0.
4.96631 11.8878 0.
-52.2406 -126.965 0.
-923.111 -2484.46 0.
-166.613 -426.557 0.
-489.701 -1159.94 0.
-23.4239 -55.5828 0.
-56.1783 -132.951 0.
-421.539 -946.904 0.
-14.0408 -32.3471 0.
-2.26344 -5.16118 0.
-178.851 -494.331 0.
-0.0306102 -6.94439 0.
-645.174 -1726.23 0.
1.22251 3.16165 0.
-0.183627 -5.17501 0.
-514.209 -1413.6 0.
-0.000851362 -1.1264 0.
0.0328462 2.57183 0.
-481.248 -1325.31 0.
-54.7854 -148.044 0.
-322.99 -881.425 0.
-82.6262 -226.81 0.
0.0113673 0.180421 0.
-318.598 -879.92 0.
-127.818 -349.318 0.
-45.7272 -114.75 0.
-328.563 -830.642 0.
-195.16 -460.786 0.
-149.258 -311.589 0.
-304.677 -843.459 0.
-275.177 -755.363 0.
-149.206 -408.038 0.
-178.759 -495.13 0.
-248.693 -682.831 0.
-70.2939 -179.78 0.
-145.968 -399.597 0.
-337.957 -934.893 0.
-1.8845 -3.61176 0.
-110.64 -306.383 0.
-359.948 -986.01 0.
0.0104508 0.141542 0.
-85.5704 -228.169 0.
-356.936 -967.635 0.
0.180806 0.472553 0.
-459.234 -1261.03 0.
0.706889 1.8792 0.
0.554315 1.50842 0.
-577.389 -1563.72 0.
-13.4389 -33.875 0.
-12.0696 -30.7716 0.
-538.075 -1401.25 0.
-0.166078 -0.4448 0.
-633.101 -1740.7 0.
4.81049 11.7271 0.
-0.449477 -1.11269 0.
-418.423 -1044.95 0.
-92.0138 -237.445 0.
-183.835 -483.003 0.
-593.167 -1568.48 0.
-3.9984 -10.2975 0.
-751.27 -1931.31 0.
-47.6194 -103.948 0.
-46.2683 -102.436 0.
-71.5611 -160.566 0.
-24.336 -54.805 0.
-13.3683 -29.9994 0.
-11.4708 -25.6492 0.
-24.5229 -54.8353 0.
-113.83 -253.013 0.
-136.484 -293.271 0.
-314.655 -672.347 0.
-192.512 -409.01 0.
-508.387 -1009.62 0.
-7.06541 -13.6719 0.
-107.567 -208.843 0.
-476.3 -890.724 0.
-6.04417 -10.9014 0.
-3.59873 -6.70191 0.
7.55094 13.433 0.
5.44642 9.26537 0.
0.837228 1.65705 0.
-30.0628 -56.9435 0.
-115.184 -223.218 0.
-4.09194 -6.68437 0.
-4.11705 -6.98081 0.
-155.936 -274.84 0.
-24.2747 -44.0355 0.
4.13591 7.16083 0.
1.15426 2.03112 0.
14.5953 26.1278 0.
-5.68764 -24.2944 0.
8.33296 15.9151 0.
1.73527 3.42509 0.
0.611185 1.24592 0.
-46.7331 -103.56 0.
-284.606 -640.035 0.
-46.0503 -106.145 0.
-274.953 -629.768 0.
-257.594 -587.986 0.
-669.355 -1546.88 0.
-1.54738 -20.969 0.
-125.778 -301.095 0.
-716.451 -1906.19 0.
4.22409 10.8075 0.
-478.661 -1129.92 0.
-26.5912 -62.7368 0.
-60.4824 -142.326 0.
-52.7052 -117.511 0.
-27.4719 -60.548 0.
-8.79049 -19.0806 0.
-54.5322 -148.04 0.
1.30277 3.48639 0.
-93.391 -239.613 0.
0.953754 2.38434 0.
-0.0443566 -0.820929 0.
-13.4002 -37.0938 0.
-0.00222815 -0.456568 0.
-0.0721628 -3.23495 0.
-97.3458 -262.425 0.
0.220732 0.606757 0.
-58.1289 -159.246 0.
0.244595 0.67617 0.
0.00101708 0.0861972 0.
-120.137 -331.835 0.
-33.8214 -92.1485 0.
-23.8767 -62.6101 0.
-203.39 -458.394 0.
-143.544 -284.909 0.
-76.1415 -93.5407 0.
-154.829 -427.401 0.
-157.821 -424.023 0.
-78.9574 -215.67 0.
-92.5198 -256.165 0.
-136.549 -374.049 0.
-30.274 -65.0333 0.
-109.319 -277.228 0.
-163.009 -421.128 0.
0.0509095 0.13429 0.
0.0625589 1.60969 0.
-106.516 -292.803 0.
0.0275221 1.08644 0.
0.380269 1.00842 0.
-68.4418 -180.893 0.
0.182855 0.462528 0.
-49.1231 -128.336 0.
-0.074178 -2.68456 0.
0.310946 0.831735 0.
-32.8275 -89.2616 0.
-6.13077 -15.2002 0.
-8.0457 -20.2122 0.
-24.4379 -62.1521 0.
-0.172884 -6.02482 0.
-142.59 -379.673 0.
1.64757 3.99693 0.
-0.895209 -2.20518 0.
-245.37 -610.748 0.
1.42741 3.65675 0.
-81.0336 -211.61 0.
-539.732 -1421.32 0.
-8.02481 -20.2617 0.
-709.659 -1784.5 0.
-413.235 -892.12 0.
-16.404 -36.0131 0.
-575.3 -1273.33 0.
-56.1079 -126.653 0.
-156.401 -351.877 0.
-82.4494 -184.856 0.
-225.108 -491.908 0.
6.94373 14.7182 0.
-0.782138 -1.55683 0.
6.20036 12.1123 0.
-1.78029 -3.41535 0.
8.79691 15.9102 0.
12.5796 22.3219 0.
-38.6176 -68.9212 0.
-44.1241 -82.5483 0.
-2.02269 -3.64071 0.
-196.819 -360.609 0.
9.23867 16.1055 0.
-1.24079 -2.06387 0.
-44.2378 -89.7751 0.
-2.66779 -10.8712 0.
-1.76262 -3.22916 0.
-4.51651 -7.02051 0.
-6.33571 -10.164 0.
-49.9868 -82.7642 0.
13.4657 22.7043 0.
-173.506 -300.165 0.
8.23749 14.2748 0.
11.836 20.8691 0.
-589.764 -1061.4 0.
12.9839 24.7455 0.
-419.236 -829.465 0.
-423.792 -866.267 0.
-333.24 -734.078 0.
-402 -898.927 0.
-203.527 -465.025 0.
-202.448 -460.838 0.
-218.329 -495.012 0.
-187.965 -429.355 0.
4.51101 9.81654 0.
6.3016 13.6649 0.
-302.24 -783.772 0.
-0.343778 -13.41 0.
-222.031 -576.457 0.
-1.9446 -5.02179 0.
4.18495 10.799 0.
-631.396 -1505.42 0.
-1.10814 -2.61308 0.
-75.2072 -172.907 0.
-1158.96 -3203.91 0.
-31.4815 -85.5949 0.
-871.86 -2296.44 0.
-17.9421 -46.2729 0.
-1.03626 -2.63569 0.
-1118.3 -3045.43 0.
-83.7244 -230.417 0.
-0.00783132 -4.29682 0.
-1080.75 -2988.55 0.
-185.199 -510.686 0.
-817.779 -2234.06 0.
-315.621 -869.273 0.
-97.2917 -266.622 0.
-738.207 -2013.67 0.
-307.48 -849.879 0.
-120.346 -331.441 0.
-577.267 -1590.7 0.
-330.494 -911.852 0.
-166.915 -422.263 0.
-468.3 -1296.15 0.
-413.664 -1132.22 0.
-206.745 -565.479 0.
-324.452 -898.295 0.
-462.808 -1278.79 0.
-150.006 -401.342 0.
-345.194 -956.123 0.
-662.17 -1819.58 0.
-84.9811 -229.944 0.
-312.763 -858.873 0.
-786.486 -2147.4 0.
-114.345 -305.594 0.
-326.906 -882.398 0.
-842.428 -2273.07 0.
-103.818 -285.206 0.
-1071.2 -2948.2 0.
1.54658 4.00648 0.
-10.8971 -29.2613 0.
-1081.94 -2915.55 0.
0.249223 0.661452 0.
-176.463 -478.133 0.
-1020.91 -2816.9 0.
-0.126155 -7.07428 0.
-1122.3 -3042.11 0.
0.647647 1.58425 0.
-1.93183 -4.82813 0.
-551.971 -1395.09 0.
3.83926 9.89496 0.
-0.490911 -14.2192 0.
-225.785 -572.792 0.
3.32185 7.93993 0.
-126.501 -304.978 0.
3.58609 7.63567 0.
-5.72389 -12.4615 0.
-219.412 -483.661 0.
-162.867 -368.315 0.
-232.183 -523.267 0.
-293.375 -659.149 0.
-447.415 -975.236 0.
-306.499 -648.421 0.
-450.783 -888.439 0.
-281.148 -543.295 0.
11.7773 22.2887 0.
-502.863 -906.272 0.
-5.09187 -8.99962 0.
-8.6589 -15.4772 0.
5.94889 10.2579 0.
-3.0826 -5.12716 0.
6.4546 10.7316 0.
-5.51849 -8.96265 0.
10.2247 16.2226 0.
1.51468 3.04628 0.
-8.08869 -14.4529 0.
-105.125 -191.667 0.
-3.18892 -4.93501 0.
4.70066 7.51601 0.
-251.892 -416.136 0.
4.04568 6.81399 0.
-446.156 -772.493 0.
-16.4111 -27.9848 0.
-138.989 -241.259 0.
-177.145 -313.221 0.
-130.852 -249.032 0.
-22.9063 -42.7869 0.
-80.2955 -150.772 0.
9.32689 18.7399 0.
9.3636 19.249 0.
10.5254 22.4185 0.
-3.98605 -8.5422 0.
5.23134 11.2867 0.
-85.4504 -185.037 0.
3.25822 7.03669 0.
-262.973 -565.854 0.
-509.799 -1283.74 0.
-0.428274 -11.446 0.
-692.648 -1796.71 0.
3.708 9.5726 0.
-0.357234 -11.5495 0.
-677.937 -1607.09 0.
-0.0113409 -0.0264332 0.
-18.447 -41.9255 0.
-524.727 -1437.93 0.
1.75471 4.73388 0.
-430.885 -1118.43 0.
-1.39259 -3.53546 0.
-0.260103 -5.61008 0.
-405.727 -1101.37 0.
0.332655 0.906637 0.
-0.0225667 -2.18596 0.
-389.786 -1072.08 0.
0.522901 1.3901 0.
-297.853 -821.272 0.
-64.3526 -177.41 0.
-0.00494588 -0.757549 0.
-304.206 -836.223 0.
-98.1976 -270.296 0.
0.00577541 1.23004 0.
-290.359 -804.026 0.
-132.616 -360.561 0.
-50.3646 -124.215 0.
-320.877 -884.303 0.
-284.775 -772.42 0.
-70.8671 -192.365 0.
-167.091 -461.227 0.
-273.764 -758.061 0.
-13.9795 -37.8081 0.
-117.398 -324.26 0.
-300.955 -830.967 0.
0.0708606 0.195624 0.
-70.9874 -192.842 0.
-307.308 -843.652 0.
0.283263 0.761694 0.
-56.1316 -149.167 0.
-281.782 -757.335 0.
0.374736 1.03703 0.
-374.952 -1021.51 0.
-0.157786 -3.06465 0.
-0.0863564 -3.13698 0.
-353.87 -943.523 0.
-0.723528 -1.92723 0.
-0.761711 -2.05856 0.
-438.161 -1200.85 0.
3.50019 9.13839 0.
-615.775 -1637.85 0.
2.10262 4.97087 0.
2.23977 5.43089 0.
-772.611 -1907.57 0.
0.20588 0.526034 0.
-2.22081 -5.63368 0.
-631.805 -1598.33 0.
-2.71331 -6.44472 0.
-454.63 -1087.39 0.
-185.48 -387.712 0.
-4.21379 -8.77992 0.
2.70882 5.62063 0.
9.97259 21.1312 0.
0.934405 1.94438 0.
6.12792 12.5274 0.
-2.14146 -4.28657 0.
3.62092 7.19963 0.
-3.61736 -6.7772 0.
-57.2581 -108.905 0.
-39.9146 -74.5004 0.
-242.072 -434.524 0.
-112.967 -198.785 0.
7.40856 12.7871 0.
-396.739 -686.613 0.
-5.7355 -18.6394 0.
-234.164 -388.101 0.
3.731 6.03719 0.
-1.20402 -1.90193 0.
-1.97493 -3.9177 0.
-16.3659 -29.0998 0.
-12.9017 -23.4372 0.
6.77621 10.2438 0.
-2.29737 -3.53744 0.
4.8352 7.58265 0.
12.4479 19.7609 0.
8.95158 14.4772 0.
2.6074 4.16858 0.
7.43015 12.3486 0.
-12.5589 -21.6911 0.
-2.21732 -4.13968 0.
-135.81 -254.603 0.
-161.857 -305.026 0.
-39.8455 -79.1612 0.
-435.466 -886.828 0.
-166.995 -350.145 0.
-397.441 -837.313 0.
-506.463 -1074.87 0.
-417.362 -893.552 0.
-174.638 -374.115 0.
-236.37 -505.106 0.
-456.926 -1112.33 0.
-0.784762 -15.0718 0.
-183.152 -473.141 0.
-38.3525 -98.9832 0.
-0.355461 -11.4478 0.
-176.079 -414.03 0.
-119.383 -253.066 0.
-37.35 -77.8314 0.
-633.836 -1660.97 0.
-0.132009 -7.1305 0.
-767.021 -2067.02 0.
-277.123 -737.518 0.
1.23818 3.14877 0.
-802.595 -2184.07 0.
-45.858 -124.842 0.
-0.057142 -4.90503 0.
-881.854 -2414.53 0.
-77.7217 -213.792 0.
-733.159 -2021.56 0.
-235.117 -650.333 0.
-82.6515 -228.573 0.
-738.14 -2030.56 0.
-266.336 -736.962 0.
-54.1528 -149.887 0.
-617.365 -1696.26 0.
-290.545 -804.596 0.
-99.6051 -271.062 0.
-500.932 -1385.01 0.
-423.016 -1162.23 0.
-140.508 -384.66 0.
-303.235 -839.907 0.
-530.039 -1456.92 0.
-65.4942 -180.749 0.
-275.826 -763.913 0.
-654.836 -1804.22 0.
-22.2826 -61.7043 0.
-258.756 -715.809 0.
-802.918 -2217.2 0.
-86.2162 -234.826 0.
-199.812 -544.742 0.
-665.022 -1826.33 0.
-0.0976488 -0.27047 0.
-840.239 -2280.69 0.
1.66449 4.42112 0.
-65.3463 -175.525 0.
-884.944 -2422.45 0.
2.29663 6.24298 0.
-222.826 -607.255 0.
-686.042 -1867.95 0.
-0.163848 -5.1815 0.
-641.024 -1643.38 0.
0.857793 1.90789 0.
-3.38474 -7.9558 0.
-191.602 -461.287 0.
-2.13501 -5.40424 0.
-86.7106 -218.004 0.
-248.263 -621.484 0.
-32.4423 -76.5288 0.
-644.487 -1521.06 0.
-296.608 -609.702 0.
-148.08 -303.05 0.
-354.963 -723.528 0.
-530.498 -1109.95 0.
-292.961 -602.341 0.
6.71213 13.5904 0.
-394.565 -784.643 0.
6.91485 13.689 0.
-104.409 -194.708 0.
-3.51569 -6.47211 0.
-2.77468 -5.03495 0.
2.00483 3.49287 0.
13.2594 22.4818 0.
14.855 24.5174 0.
10.2722 16.9503 0.
-1.52958 -2.45063 0.
-7.90688 -12.6939 0.
-0.130953 -0.206848 0.
-4.55863 -7.16758 0.
-3.81228 -7.45292 0.
-1.58045 -2.79495 0.
3.0467 5.50018 0.
5.13604 7.78815 0.
1.60135 2.47406 0.
-34.1926 -53.8231 0.
-5.97788 -9.28391 0.
-472.273 -747.554 0.
-0.495542 -0.79042 0.
7.1405 11.859 0.
-731.029 -1257.88 0.
-30.2535 -56.7791 0.
-219.875 -413.653 0.
-261.713 -494.562 0.
-69.4893 -136.39 0.
-247.658 -498.318 0.
-118.115 -244.491 0.
3.26246 6.53414 0.
-3.69294 -7.53353 0.
9.95314 20.6397 0.
-1.47595 -3.04654 0.
1.31969 2.71109 0.
-18.4074 -42.8804 0.
2.8478 6.53229 0.
-283.597 -697.185 0.
-50.1355 -121.379 0.
-0.560823 -8.56989 0.
-597.863 -1342.26 0.
-25.1084 -54.4201 0.
3.45282 7.37862 0.
-432.367 -1096.87 0.
-0.25955 -7.2691 0.
-437.018 -1175.21 0.
-0.281821 -0.736177 0.
1.42807 3.66587 0.
-402.961 -1090.63 0.
-0.0578848 -3.22159 0.
-0.115247 -4.96266 0.
-404.574 -1102.12 0.
0.000356547 0.299963 0.
-294.671 -814.369 0.
-49.964 -138.334 0.
-17.5757 -48.4376 0.
-271.255 -748.218 0.
-38.0182 -105.194 0.
0.0713946 1.13475 0.
-216.506 -599.266 0.
-67.1202 -185.156 0.
1.94597e-05 0.975146 0.
-169.176 -466.617 0.
-131.59 -351.768 0.
-26.5194 -72.6343 0.
-68.6247 -190.071 0.
-165.028 -454.168 0.
0.00022295 0.0686305 0.
-47.1424 -130.325 0.
-210.422 -581.465 0.
-0.0428217 -1.14082 0.
-37.853 -102.333 0.
-300.357 -831.926 0.
-0.0529931 -2.41552 0.
-29.021 -74.2731 0.
-235.393 -634.858 0.
-0.0329864 -1.96308 0.
-395.337 -1059.01 0.
-0.061277 -4.17068 0.
-0.145956 -0.394669 0.
-396.097 -1077.77 0.
1.30446 3.48491 0.
-0.989802 -2.67917 0.
-416.508 -1127.66 0.
4.22336 10.5863 0.
-489.178 -1228.8 0.
1.87601 4.12848 0.
-0.247961 -0.552184 0.
-502.552 -1139.86 0.
-0.955044 -2.29857 0.
2.89451 6.92502 0.
-138.216 -329.739 0.
2.59516 5.78395 0.
-66.4 -150.302 0.
-3.53712 -19.6553 0.
-3.35741 -6.50249 0.
5.20605 9.91626 0.
-0.0521904 -0.103168 0.
-50.8157 -103.714 0.
-110.385 -221.006 0.
-294.992 -584.24 0.
-163.731 -322.303 0.
-363.619 -672.291 0.
-217.301 -397.117 0.
5.7411 10.381 0.
-686.597 -1181.48 0.
9.56413 16.1042 0.
-5.77312 -9.4531 0.
-239.72 -388.276 0.
4.39583 6.91478 0.
-45.2871 -73.6282 0.
1.01093 1.61727 0.
7.99116 12.5745 0.
3.74016 7.33338 0.
-0.425101 -0.752478 0.
-51.0589 -92.1785 0.
0.444436 0.676096 0.
-19.5313 -30.2809 0.
-268.811 -425.084 0.
-49.4811 -75.0832 0.
-114.194 -176.46 0.
-5.89895 -17.0588 0.
6.53403 10.2519 0.
7.773 12.3213 0.
0.954186 1.63179 0.
3.53749 6.18719 0.
4.20228 7.52654 0.
-2.66442 -4.92711 0.
-89.9485 -170.295 0.
-2.16646 -4.23835 0.
-81.9033 -163.236 0.
-178.036 -361.196 0.
-72.9705 -147.387 0.
-195.266 -391.495 0.
-359.834 -716.137 0.
-753.766 -1698.65 0.
-214.895 -479.403 0.
-675.402 -1668.83 0.
-170.402 -413.765 0.
-63.6612 -153.024 0.
-642.141 -1454.99 0.
-73.4443 -162.738 0.
1.73458 3.79186 0.
-256.49 -624.706 0.
-0.328717 -5.50106 0.
-88.2081 -236.729 0.
0.465689 1.22463 0.
2.66291 6.89131 0.
-0.121736 -5.09781 0.
0.828061 2.14164 0.
0.472246 1.20085 0.
-0.00208209 -1.51117 0.
1.57111 4.21294 0.
-30.6638 -84.8467 0.
-9.2556 -25.6342 0.
-11.916 -32.9329 0.
-31.7941 -88.0639 0.
-0.072182 -2.52298 0.
0.0508494 0.619569 0.
-38.0231 -105.282 0.
0.0972593 1.14046 0.
0.148604 1.37665 0.
-19.8977 -52.8681 0.
0.0504628 0.972518 0.
0.000467797 0.0562266 0.
-1.08154e-05 -0.197691 0.
-10.8666 -29.6835 0.
0.000146196 0.549404 0.
-0.0046877 -1.43259 0.
-30.9679 -83.8136 0.
-0.0202405 -0.270144 0.
-0.0902346 -1.7834 0.
-55.4696 -144.026 0.
1.42287 3.71976 0.
-0.143897 -3.24441 0.
-0.278447 -3.94632 0.
0.399524 0.983468 0.
-0.64174 -1.68324 0.
0.286717 0.771556 0.
-0.0416094 -5.18711 0.
-0.0282581 -6.03171 0.
0.521785 1.366 0.
-0.865217 -2.30421 0.
-129.817 -349.492 0.
-0.595313 -10.0881 0.
-380.091 -932.718 0.
0.716696 1.56084 0.
-86.0279 -189.741 0.
-767.764 -1719.15 0.
-73.9982 -178.847 0.
-230.488 -555.332 0.
-679.97 -1634.68 0.
-276.346 -601.889 0.
-699.723 -1550.13 0.
-223.132 -440.458 0.
-157.259 -304.885 0.
6.80147 12.9468 0.
-173.017 -337.461 0.
5.52039 10.6778 0.
8.73368 16.7764 0.
2.70729 5.0778 0.
2.32807 4.25333 0.
-5.44858 -9.24581 0.
-1.18718 -1.98105 0.
-5.03869 -15.8568 0.
1.45131 2.28532 0.
12.0808 20.1938 0.
10.2327 16.6221 0.
-91.6981 -145.719 0.
-34.0328 -52.4738 0.
-248.767 -409.765 0.
4.47072 7.24671 0.
8.41954 13.4245 0.
-12.3336 -24.1858 0.
5.16851 8.60649 0.
5.0204 8.43637 0.
7.76893 11.3345 0.
3.85135 5.75956 0.
-28.5625 -43.8 0.
-8.31622 -12.2872 0.
-124.692 -188.328 0.
4.36004 6.74739 0.
-5.32736 -8.32974 0.
-365.581 -578.626 0.
-5.38123 -17.7465 0.
-378.043 -646.499 0.
-317.574 -556.737 0.
-320.732 -591.542 0.
-621.468 -1172.74 0.
-224.896 -437.577 0.
-243.794 -482.945 0.
-274.801 -554.153 0.
-197.286 -388.015 0.
-149.297 -291.651 0.
5.91433 11.4917 0.
-133.576 -296.42 0.
-13.6936 -30.2018 0.
-41.0815 -99.9711 0.
-9.45538 -22.8083 0.
4.13195 9.87661 0.
-72.0501 -164.998 0.
2.99104 6.81685 0.
-0.436423 -4.61215 0.
-550.223 -1355.38 0.
-0.210021 -2.94074 0.
-627.042 -1711.9 0.
-172.644 -470.594 0.
1.76258 4.82195 0.
-755.696 -2047.43 0.
-89.3653 -244.178 0.
1.66481 4.52319 0.
-846.728 -2294.61 0.
-0.0752513 -2.26698 0.
-701.556 -1941.7 0.
-261.985 -724.835 0.
-132.179 -365.063 0.
-729.991 -2020.21 0.
-241.45 -667.835 0.
-41.1987 -113.778 0.
-661.489 -1830.62 0.
-288.513 -798.05 0.
-103.851 -285.329 0.
-524.555 -1451.05 0.
-454.642 -1255.31 0.
-163.934 -448.04 0.
-330.511 -913.725 0.
-590.054 -1632.16 0.
-107.883 -297.998 0.
-284.322 -785.532 0.
-696.386 -1919.42 0.
-49.3979 -135.824 0.
-213.187 -587.883 0.
-706.471 -1952.2 0.
-95.7767 -258.517 0.
-255.569 -695.217 0.
-671.819 -1850.95 0.
0.657865 1.74305 0.
-949.252 -2592.44 0.
-0.0464715 -6.84168 0.
-110.286 -301.949 0.
-709.979 -1935.42 0.
2.07164 5.60212 0.
-136.425 -371.463 0.
-555.13 -1516.93 0.
4.05061 9.8384 0.
-376.055 -912.082 0.
2.01478 4.44154 0.
1.16184 2.55674 0.
-82.6967 -181.551 0.
1.14549 2.76487 0.
0.538567 1.31217 0.
-73.0795 -180.023 0.
0.944477 2.02299 0.
-232.687 -507.093 0.
-121.036 -238.514 0.
-207.397 -401.986 0.
-281.809 -537.018 0.
-317.53 -610.884 0.
-229.587 -438.376 0.
-132.871 -251.822 0.
-679.543 -1265.43 0.
-226.814 -409.949 0.
-211.541 -353.061 0.
-302.513 -496.146 0.
-0.514535 -0.830149 0.
-161.404 -252.5 0.
-6.81061 -10.4371 0.
-5.46606 -8.2217 0.
-177.868 -267.046 0.
3.20881 4.77675 0.
4.13554 6.74354 0.
-2.12546 -3.34843 0.
-2.65049 -4.03468 0.
0.910673 1.60778 0.
2.45319 4.02107 0.
-16.5488 -27.3774 0.
3.55255 5.14036 0.
-214.762 -318.783 0.
-130.317 -198.462 0.
-21.1748 -31.3401 0.
-375.11 -567.983 0.
9.50907 14.6616 0.
-51.6194 -80.4558 0.
-300.678 -474.713 0.
-38.4832 -62.6913 0.
-125.633 -209.512 0.
-110.047 -188.036 0.
-1.18514 -2.05383 0.
-0.354691 -0.617006 0.
9.04687 16.0749 0.
-2.01542 -3.65397 0.
-4.86995 -9.01631 0.
-6.14694 -11.1528 0.
3.12683 5.79488 0.
3.69511 7.00046 0.
-225.677 -498.687 0.
-117.953 -258.675 0.
-329.782 -794.195 0.
-38.511 -91.7556 0.
0.387333 0.913857 0.
-675.655 -1522.33 0.
-20.0576 -44.1749 0.
5.67129 12.3902 0.
-655.47 -1559.16 0.
-0.30189 -3.34333 0.
-384.146 -1051.52 0.
1.06792 2.95024 0.
0.665837 1.83859 0.
-231.694 -631.586 0.
-0.829397 -2.25686 0.
-0.218224 -0.591199 0.
-173.481 -471.286 0.
-0.188042 -4.1809 0.
-229.562 -634.851 0.
-81.8485 -226.653 0.
-38.8898 -106.198 0.
-174.151 -477.198 0.
-2.55171 -6.88999 0.
0.486198 1.33292 0.
-135.154 -374.34 0.
-8.90746 -24.6706 0.
0.102704 0.283416 0.
-95.4203 -264.176 0.
-79.1966 -216.381 0.
-0.00299748 -1.5597 0.
-0.000125607 -1.43263 0.
-70.2634 -194.531 0.
-9.50011 -26.2741 0.
-10.6061 -29.1289 0.
-95.5546 -259.509 0.
-10.56 -29.2086 0.
-51.3459 -142.219 0.
-193.146 -533.532 0.
-8.8941 -24.552 0.
-107.366 -294.832 0.
-0.076117 -2.24814 0.
-0.0744361 -3.98985 0.
-71.8386 -195.824 0.
-0.0817249 -5.77554 0.
0.579186 1.56965 0.
-306.105 -830.726 0.
-0.390476 -1.05698 0.
-0.373878 -1.02037 0.
-473.167 -1294.32 0.
-0.780952 -10.011 0.
-744.595 -1742.62 0.
3.48054 7.65696 0.
6.26964 13.7688 0.
-535.085 -1171.69 0.
-2.20271 -5.27082 0.
-12.6804 -30.6396 0.
-335.78 -820.281 0.
-45.1551 -95.6872 0.
7.15401 14.9869 0.
2.11316 3.92307 0.
-3.70575 -6.73119 0.
2.8024 4.9839 0.
0.470948 0.839299 0.
-3.87681 -6.8877 0.
-2.15445 -3.81607 0.
-1.47603 -2.57504 0.
-22.8438 -40.5179 0.
-269.132 -440.952 0.
-192.689 -310.081 0.
-54.3933 -86.1276 0.
-320.96 -498.796 0.
3.78498 5.74802 0.
-4.99573 -7.44517 0.
-424.176 -642.268 0.
-13.3068 -19.9172 0.
-82.0792 -132.818 0.
-25.5251 -39.8191 0.
8.68465 13.0676 0.
-0.28291 -0.494586 0.
-24.0928 -38.8629 0.
-24.3437 -39.6154 0.
0.0595756 0.0854444 0.
-8.15468 -11.6655 0.
-47.1026 -68.4884 0.
6.70925 9.43159 0.
11.1716 15.7446 0.
-5.18314 -7.38744 0.
-6.59829 -15.3623 0.
8.44302 12.6668 0.
-1.72383 -2.71058 0.
-19.7788 -31.761 0.
-99.8227 -163.787 0.
-12.5878 -21.8784 0.
-423.43 -738.104 0.
7.33277 12.8071 0.
-168.741 -300.644 0.
-572.028 -1038.32 0.
-77.6744 -138.596 0.
-349.686 -637.811 0.
-515.857 -961.962 0.
-437.944 -964.636 0.
-369.517 -808.903 0.
-343.374 -815.669 0.
-237.779 -560.139 0.
-107.287 -250.027 0.
-358.737 -785.2 0.
-1.1921 -2.52667 0.
0.180001 0.37794 0.
-316.852 -722.33 0.
-6.11514 -14.3649 0.
-431.209 -1178.06 0.
-165.714 -454.859 0.
-1.01653 -2.79812 0.
-572.064 -1535.09 0.
-159.799 -424.814 0.
-2.65804 -6.91526 0.
-669.77 -1775.68 0.
-0.0949548 -6.71569 0.
-433.206 -1187.95 0.
-298.35 -815.462 0.
-159.808 -441.562 0.
-607.922 -1680.23 0.
-163.395 -452.508 0.
0.0723731 0.199721 0.
-559.617 -1548.36 0.
-234.409 -644.506 0.
-81.0785 -221.51 0.
-487.693 -1350.09 0.
-439.093 -1214.93 0.
-125.512 -339.817 0.
-284.025 -779.12 0.
-517.629 -1431.11 0.
-85.3858 -235.637 0.
-217.067 -600.789 0.
-592.417 -1640.63 0.
-95.008 -262.03 0.
-137.728 -380.831 0.
-492.876 -1359.61 0.
-184.155 -509.945 0.
-631.57 -1737.22 0.
-82.4029 -218.083 0.
-1.87692 -5.06299 0.
-592.885 -1605.74 0.
0.271468 0.726763 0.
-168.401 -447.798 0.
-469.02 -1236.95 0.
2.23146 5.92189 0.
-103.913 -275.372 0.
-333.205 -883.072 0.
1.31606 2.96294 0.
-198.275 -449.992 0.
0.912322 2.00285 0.
-93.9527 -205.905 0.
-419.132 -915.33 0.
-63.2047 -149.802 0.
-172.814 -413.344 0.
-333.018 -803.47 0.
-416.922 -871.168 0.
-436.459 -901.219 0.
-562.438 -1032.39 0.
-418.817 -750.501 0.
-70.2941 -122.924 0.
-517.641 -913.41 0.
-27.7575 -48.7244 0.
2.04334 3.57572 0.
-311.341 -537.976 0.
8.1443 13.8548 0.
-112.503 -178.869 0.
8.53454 13.2755 0.
-6.58304 -10.0012 0.
-1.94194 -2.85457 0.
6.18606 8.93689 0.
-1.46547 -2.08224 0.
2.7348 3.96665 0.
6.51997 9.3997 0.
-117.442 -183.023 0.
-44.9952 -69.4385 0.
1.12252 1.66814 0.
-4.31679 -7.46747 0.
-1.78445 -2.82079 0.
-3.81313 -6.12429 0.
6.02593 8.50477 0.
-84.4027 -121.136 0.
-12.1627 -17.7481 0.
2.11203 2.92639 0.
-329.812 -457.908 0.
8.03278 11.1495 0.
2.17257 3.09172 0.
-592.529 -869.34 0.
10.0409 15.6928 0.
-294.221 -470.378 0.
-305.315 -499.236 0.
-222.214 -387.383 0.
-219.379 -383.973 0.
-221.775 -380.104 0.
-111.352 -194.866 0.
-83.3602 -149.073 0.
-0.60027 -1.0006 0.
-1.25254 -2.11006 0.
-94.6973 -161.221 0.
-1.65203 -3.33222 0.
-1.1861 -2.43665 0.
-25.5729 -58.5801 0.
-14.928 -34.1536 0.
-5.63758 -12.8811 0.
-85.5993 -183.535 0.
-22.3793 -48.5286 0.
-29.5632 -64.9379 0.
-375.776 -860.307 0.
-5.97038 -13.7212 0.
-308.925 -841.994 0.
-13.9817 -38.2704 0.
-0.147739 -0.403192 0.
-296.658 -792.776 0.
-4.88311 -12.8322 0.
0.773362 2.0032 0.
-109.763 -290.782 0.
-0.161057 -8.54254 0.
2.49664 6.64577 0.
-139.133 -378.476 0.
-33.8839 -93.5111 0.
-155.992 -431.332 0.
0.112735 0.311996 0.
-0.287764 -0.796732 0.
-49.1055 -135.982 0.
0.795478 2.20314 0.
-0.00145221 -2.63375 0.
-11.0728 -30.6628 0.
-9.78933 -26.9807 0.
0.456608 1.25347 0.
0.570124 1.57462 0.
0.233477 0.646635 0.
0.242085 0.666715 0.
-0.206606 -0.571923 0.
-39.706 -109.937 0.
0.20903 0.578918 0.
-1.69699 -4.69273 0.
-79.3825 -219.495 0.
1.19982 3.296 0.
-260.36 -719.573 0.
2.19878 5.73496 0.
0.202455 0.53991 0.
-235.52 -635.584 0.
-0.61277 -1.64268 0.
1.52473 4.08599 0.
-271.925 -723.132 0.
-1.54014 -4.07002 0.
3.23955 8.57321 0.
-272.708 -719.112 0.
2.36073 5.0311 0.
-387.304 -833.604 0.
-1.48922 -10.7684 0.
3.83315 8.06712 0.
-3.64085 -7.66989 0.
1.25455 2.84284 0.
-0.853725 -1.93234 0.
-0.49007 -1.10809 0.
-1.5228 -2.97779 0.
-0.661523 -1.28535 0.
0.0499479 0.0867591 0.
3.63749 6.22999 0.
-75.2684 -129.214 0.
-41.6052 -72.3444 0.
-119.744 -207.723 0.
-191.726 -331.632 0.
-227.531 -390.241 0.
-156.108 -263.104 0.
-359.056 -569.715 0.
-279.983 -434.095 0.
-6.46172 -9.80341 0.
-516.409 -744.031 0.
5.35218 7.5693 0.
1.57373 2.18938 0.
-111.815 -160.083 0.
8.11221 11.5557 0.
-34.6637 -52.6528 0.
-30.4462 -44.859 0.
3.42306 4.89213 0.
3.90121 6.40398 0.
4.90664 7.8262 0.
-42.7729 -69.3719 0.
-5.66635 -8.02231 0.
-106.488 -153.427 0.
-44.4782 -60.5993 0.
-81.3607 -111.059 0.
-67.544 -92.3909 0.
10.3667 13.9878 0.
-45.6424 -63.1544 0.
-2.88257 -3.85905 0.
-6.81338 -9.82518 0.
11.2684 16.5349 0.
1.62897 2.43313 0.
-4.70175 -7.55918 0.
9.88507 16.1872 0.
-4.68261 -14.3172 0.
-3.98687 -6.58771 0.
-4.80133 -8.0769 0.
-4.01959 -13.8956 0.
-287.235 -493.258 0.
-192.447 -334.022 0.
-258.527 -516.255 0.
-323.084 -657.222 0.
-340.604 -773.076 0.
-345.523 -783.451 0.
-348.605 -789.725 0.
-689.213 -1467.18 0.
-219.193 -473.364 0.
-32.9954 -72.5854 0.
-471.437 -1057.25 0.
-6.89097 -15.4951 0.
-204.723 -555.756 0.
-10.2641 -27.8143 0.
-2.1277 -5.73875 0.
-15.4776 -41.0182 0.
1.73733 4.54618 0.
0.595296 1.53594 0.
-0.231197 -8.76737 0.
0.99105 2.59374 0.
1.69286 4.44986 0.
-17.5133 -47.6659 0.
-9.72492 -26.9361 0.
1.14372 3.1679 0.
-0.0411657 -0.114013 0.
-0.000393004 -3.21428 0.
0.777103 2.14379 0.
0.995939 2.7576 0.
0.471307 1.30461 0.
0.32638 0.903353 0.
0.259879 0.715277 0.
-0.00470081 -2.85828 0.
0.850243 2.35381 0.
0.29901 0.827864 0.
-0.0103266 -2.42862 0.
1.05009 2.90064 0.
-4.88011e-05 -2.78605 0.
0.721703 1.99572 0.
-0.444206 -1.23029 0.
-0.262285 -0.724473 0.
-0.0351924 -3.25344 0.
-0.489175 -1.33803 0.
-0.15355 -4.8025 0.
0.197102 0.519484 0.
-0.768351 -2.06226 0.
-0.76489 -2.05324 0.
0.762072 2.04491 0.
-68.8589 -184.63 0.
0.170329 0.448244 0.
2.41499 6.3646 0.
-270.336 -709.171 0.
-1.28483 -9.39812 0.
-574.542 -1223.76 0.
-94.1329 -195.125 0.
-210.291 -436.628 0.
-603.693 -1256.12 0.
-314.19 -694.684 0.
-269.036 -594.548 0.
-225.371 -498.113 0.
-269.498 -524.43 0.
-95.3385 -184.288 0.
-59.7246 -103.666 0.
-213.528 -364.784 0.
6.95788 11.7467 0.
-3.28667 -5.46348 0.
2.82065 4.55903 0.
6.27304 9.87371 0.
-5.11491 -14.1382 0.
-2.05876 -3.19144 0.
0.743592 1.10665 0.
3.17314 4.62605 0.
13.2887 18.9947 0.
-45.2653 -63.679 0.
-75.3421 -104.175 0.
-6.41917 -8.73453 0.
-16.1396 -22.8394 0.
-50.8462 -71.5102 0.
-24.1991 -33.8444 0.
-62.7765 -92.8518 0.
5.09565 7.30475 0.
2.93823 4.80847 0.
-0.71159 -1.07595 0.
-3.08617 -7.95253 0.
-5.72647 -7.72777 0.
-5.70043 -11.2062 0.
7.6197 9.77175 0.
-4.88366 -6.32045 0.
-4.95972 -6.48114 0.
0.528218 0.6885 0.
7.66915 10.1167 0.
-115.067 -153.601 0.
1.66999 2.37513 0.
-358.273 -515.98 0.
1.21214 1.78602 0.
-93.4312 -145.196 0.
-636.439 -1001.14 0.
-134.66 -213.789 0.
-281.728 -454.254 0.
-339.092 -556.704 0.
-3.77467 -6.53198 0.
-220.154 -385.453 0.
-229.299 -405.802 0.
-263.611 -517.305 0.
-141.094 -281.747 0.
-71.9098 -162.256 0.
3.05448 7.02914 0.
4.64596 10.7497 0.
-26.243 -57.2385 0.
0.567864 1.22501 0.
-3.57738 -7.61373 0.
-92.0868 -200.961 0.
-0.24255 -0.524323 0.
-225.226 -613.258 0.
-73.7514 -199.925 0.
0.492265 1.3275 0.
-417.678 -1121.22 0.
-111.787 -296.318 0.
1.32736 3.48217 0.
-558.555 -1464.76 0.
-0.124777 -6.34586 0.
-0.789976 -2.10224 0.
-687.859 -1905.24 0.
-73.7064 -203.83 0.
-392.863 -1084.61 0.
-167.778 -461.583 0.
-113.063 -309.288 0.
-463.684 -1282.78 0.
-200.934 -554.641 0.
-102.545 -281.891 0.
-380.68 -1053.69 0.
-386.212 -1069.69 0.
-118.482 -324.829 0.
-238.646 -656.928 0.
-423.093 -1168.02 0.
-134.26 -366.379 0.
-204.065 -562.03 0.
-418.61 -1157.88 0.
-123.959 -342.214 0.
-231.935 -642.041 0.
-536.083 -1471.37 0.
0.691611 1.87097 0.
-684.302 -1872.84 0.
-0.133898 -5.63839 0.
-20.2222 -53.4692 0.
-508.482 -1334.55 0.
-1.37939 -3.69889 0.
-19.9293 -53.6871 0.
-326.906 -882.403 0.
-1.05409 -2.8197 0.
-22.1495 -59.244 0.
-142.682 -380.898 0.
3.14119 6.61199 0.
-0.823925 -1.75354 0.
4.48889 9.23824 0.
-1.64772 -10.9944 0.
-24.8722 -51.4742 0.
5.76515 12.7559 0.
-17.7183 -38.8114 0.
-188.854 -411.022 0.
-228.838 -444.157 0.
-264.456 -508.931 0.
-197.149 -341.485 0.
-200.794 -343.102 0.
-1.63416 -2.75819 0.
-541.745 -875.451 0.
-203.576 -320.794 0.
8.65466 13.28 0.
-611.923 -933.984 0.
-23.1127 -35.1502 0.
-8.96632 -13.1342 0.
-184.016 -263.6 0.
1.26415 1.77779 0.
-87.328 -115.91 0.
-8.10749 -14.5673 0.
12.4819 16.1073 0.
7.2444 9.59028 0.
0.641497 0.844029 0.
3.51367 4.59547 0.
-3.48906 -4.88265 0.
-0.36568 -0.505368 0.
-4.20343 -6.60831 0.
3.9417 5.89978 0.
5.79252 8.72637 0.
-25.7929 -34.147 0.
-159.798 -212.955 0.
-8.60494 -10.8552 0.
-82.1167 -104.408 0.
-265.224 -339.339 0.
-9.35744 -12.16 0.
-46.8373 -61.6039 0.
-217.326 -289.338 0.
-19.3239 -27.0791 0.
-196.661 -279.601 0.
-123.713 -179.33 0.
-17.7968 -26.721 0.
9.75818 14.4018 0.
-3.53095 -5.26528 0.
2.42997 3.63005 0.
3.28068 4.90948 0.
10.8899 17.3178 0.
5.08422 8.28541 0.
-2.2772 -3.81125 0.
-3.30388 -6.30567 0.
-19.2367 -37.8954 0.
0.351878 0.801657 0.
-0.823289 -1.88573 0.
-54.0068 -124.193 0.
-55.8548 -121.055 0.
-29.5952 -63.4366 0.
-18.9428 -40.1021 0.
-470.015 -1014.81 0.
-1.38952 -10.5586 0.
-391.726 -1062.84 0.
-70.06 -189.313 0.
0.327809 0.880592 0.
-292.104 -783.097 0.
-17.6134 -46.7917 0.
0.128643 0.338729 0.
-113.284 -297.268 0.
-0.0809372 -0.213547 0.
-0.82748 -2.19643 0.
-161.131 -446.11 0.
-0.904269 -2.48058 0.
0.378745 1.04777 0.
0.758401 2.09029 0.
0.899989 2.46342 0.
0.647949 1.78916 0.
0.717525 1.97228 0.
1.05739 2.88465 0.
-0.00103515 -4.33656 0.
-0.000468537 -4.48453 0.
0.586002 1.60857 0.
0.607971 1.6779 0.
0.567032 1.5696 0.
0.724847 1.9761 0.
-0.00743813 -2.7815 0.
1.32479 3.66526 0.
-0.00933895 -3.72467 0.
-4.77141e-06 -1.64606 0.
-0.00651979 -3.3353 0.
2.08805 5.54669 0.
-163.921 -443.576 0.
2.32078 5.95917 0.
1.34912 3.50465 0.
-152.106 -398.037 0.
-1.17259 -3.13134 0.
-11.0911 -29.7607 0.
-357.371 -961.215 0.
3.0949 8.31949 0.
-132.813 -356.223 0.
-389.564 -1040.58 0.
-2.39309 -4.96014 0.
-415.466 -869.478 0.
-1.05539 -2.15864 0.
-84.5749 -173.628 0.
-48.9559 -100.73 0.
-108.353 -236.553 0.
-1.85696 -4.04355 0.
4.905 10.6384 0.
-0.449415 -0.841572 0.
2.66158 4.79202 0.
2.56497 4.00874 0.
1.25541 1.94215 0.
-4.41136 -6.75999 0.
-6.65559 -9.79568 0.
-1.62066 -2.36245 0.
10.905 15.7449 0.
-93.4712 -140.476 0.
-201.534 -299.97 0.
-166.467 -239.536 0.
-169.408 -238.665 0.
2.15609 2.98121 0.
-258.258 -341.354 0.
-146.954 -191.557 0.
7.33228 9.42057 0.
-272.89 -354.222 0.
-117.217 -151.189 0.
1.44291 1.85005 0.
-56.5464 -78.5806 0.
-1.21488 -1.66636 0.
1.233 1.93509 0.
-20.2839 -30.0432 0.
-21.1197 -31.4786 0.
-16.865 -21.8953 0.
0.344005 0.450124 0.
-0.543709 -0.651832 0.
-1.97955 -2.38379 0.
-4.0585 -4.90946 0.
-7.75613 -9.45959 0.
-0.508248 -0.615362 0.
6.86847 8.24945 0.
-2.35 -3.01898 0.
-84.8549 -113.512 0.
-11.7081 -16.3741 0.
-5.42243 -12.7373 0.
-102.945 -152.603 0.
2.23964 3.34242 0.
-3.90506 -5.83776 0.
-317.013 -473.648 0.
1.75704 2.69156 0.
-272.137 -426.316 0.
-432.388 -693.935 0.
-315.553 -596.391 0.
-501.224 -980.758 0.
-210.235 -474.993 0.
-223.001 -506.319 0.
-214.404 -489.281 0.
-366.373 -782.659 0.
-153.17 -325.388 0.
-16.7923 -35.3961 0.
-269.38 -571.731 0.
4.89962 10.2497 0.
-33.0776 -89.553 0.
-135.697 -363.237 0.
-2.88812 -7.64035 0.
-290.946 -773.312 0.
-83.8779 -222.542 0.
2.675 7.09403 0.
-407.868 -1061.3 0.
-90.7672 -236.161 0.
-0.0978252 -0.253046 0.
-471.662 -1290.75 0.
1.078 2.93514 0.
-377.363 -1044.31 0.
-159.724 -442.276 0.
-92.2062 -254.307 0.
-308.005 -852.72 0.
-137.632 -379.477 0.
-75.8256 -207.117 0.
-281.508 -779.123 0.
-301.503 -835.107 0.
-100.205 -275.332 0.
-178.527 -492.314 0.
-309.788 -856.107 0.
-87.5589 -240.313 0.
-175.587 -485.887 0.
-362.91 -1004.45 0.
-53.079 -147.006 0.
-181.638 -502.486 0.
-413.242 -1139.02 0.
0.572974 1.51826 0.
-534.075 -1421.27 0.
-1.33212 -3.32714 0.
-85.2757 -215.949 0.
-349.199 -894.485 0.
-0.190514 -8.17559 0.
-43.0837 -112.659 0.
-238.362 -621.718 0.
-12.8763 -34.762 0.
-1.60736 -4.3417 0.
-77.3689 -208.767 0.
3.66382 7.48102 0.
-348.57 -717.645 0.
-71.1678 -144.727 0.
-120.636 -246.175 0.
-286.549 -587.934 0.
-337.122 -731.435 0.
-243.403 -523.402 0.
-109.85 -234.928 0.
-482.021 -899.827 0.
-233.261 -418.771 0.
-396.319 -601.403 0.
-234.326 -352.714 0.
5.35572 7.99155 0.
-238.653 -350.047 0.
-3.91574 -5.68168 0.
-1.60891 -2.31231 0.
-67.9641 -99.0024 0.
4.37088 6.28458 0.
-43.4014 -58.1157 0.
-6.51613 -11.5952 0.
-5.59702 -7.11866 0.
8.18142 10.0884 0.
3.47698 4.26949 0.
-0.0185286 -0.0226588 0.
7.86093 9.61893 0.
5.62584 6.89828 0.
-19.5199 -24.5259 0.
-28.6568 -39.5085 0.
-24.9703 -33.9902 0.
-1.78616 -2.79901 0.
5.89935 8.05961 0.
6.5509 8.90727 0.
5.57804 6.84055 0.
-3.86457 -4.78527 0.
2.30401 2.73802 0.
0.950254 1.13421 0.
-68.5417 -82.1943 0.
-6.47772 -7.61744 0.
1.62796 1.89782 0.
-199.255 -229.882 0.
5.88176 7.38391 0.
-522.664 -683.621 0.
8.51593 12.4052 0.
-101.082 -148.821 0.
-255.779 -380.645 0.
-297.189 -442.59 0.
-180.452 -269.525 0.
-18.0559 -27.0565 0.
-67.6329 -99.4795 0.
4.97054 7.24646 0.
-93.8418 -140.001 0.
-3.24064 -5.81636 0.
3.04234 5.58348 0.
5.02726 10.486 0.
4.07141 8.58549 0.
1.091 2.32657 0.
-1.91562 -3.90406 0.
4.76698 9.74555 0.
-0.185592 -0.380571 0.
-103.272 -215.412 0.
-17.9686 -37.3033 0.
-221.577 -592.716 0.
-63.777 -169.441 0.
3.17906 8.39431 0.
-176.359 -467.273 0.
-14.2696 -37.7561 0.
0.665725 1.75793 0.
-111.377 -290.482 0.
-0.694909 -1.80321 0.
2.35123 6.06476 0.
-55.9687 -151.314 0.
1.38688 3.69791 0.
-0.000521353 -4.67007 0.
-0.252476 -0.698877 0.
-0.00752459 -4.13013 0.
-0.000318477 -3.75466 0.
-0.0060471 -3.84063 0.
-0.517975 -1.41815 0.
0.580591 1.60655 0.
-0.000289161 -4.59177 0.
-0.728514 -2.00594 0.
0.755018 2.08625 0.
-0.447705 -1.23954 0.
-0.0106115 -3.38891 0.
1.56 4.31743 0.
-0.00134028 -3.50131 0.
0.883158 2.44553 0.
0.91682 2.5363 0.
0.532065 1.46316 0.
2.33416 6.05884 0.
-60.9271 -160.073 0.
-0.420563 -1.03992 0.
2.01867 5.04882 0.
-121.776 -308.545 0.
-1.00304 -2.62646 0.
-11.5483 -30.1331 0.
-174.018 -452.571 0.
1.33532 3.49799 0.
-70.0692 -184.231 0.
-213.101 -562.049 0.
-2.62905 -5.26009 0.
-3.34409 -6.80638 0.
0.64395 1.29873 0.
5.31478 10.5965 0.
4.17625 8.2309 0.
2.6354 5.40378 0.
0.30407 0.615063 0.
4.1193 8.21965 0.
-0.519637 -0.921165 0.
-3.08837 -11.1187 0.
-56.1849 -80.5757 0.
-56.9386 -83.2952 0.
-187.773 -272.449 0.
-83.3774 -121.616 0.
-138.195 -199.671 0.
-250.445 -358.591 0.
-278.923 -407.931 0.
-92.6815 -133.649 0.
-78.6576 -101.009 0.
-665.461 -838.473 0.
-15.933 -19.469 0.
-88.5085 -106.687 0.
1.14429 1.37393 0.
0.704523 0.84289 0.
1.97043 2.39172 0.
5.12311 6.23185 0.
8.40599 10.2465 0.
6.83909 9.06744 0.
-2.25532 -2.95612 0.
-1.54909 -4.91408 0.
-11.2777 -14.8752 0.
-67.1544 -80.6426 0.
-56.0311 -67.9082 0.
-54.6875 -66.9198 0.
-174.768 -205.954 0.
-109.082 -129.077 0.
-60.7461 -72.1865 0.
-202.387 -229.542 0.
-77.7555 -87.2523 0.
-33.7368 -37.4382 0.
-8.12129 -11.3805 0.
3.38808 3.99757 0.
9.29147 11.9501 0.
6.8227 8.96719 0.
2.59155 3.48765 0.
11.0472 15.1212 0.
9.98446 13.8239 0.
-5.57143 -11.7483 0.
6.44122 9.18562 0.
-11.6682 -17.0391 0.
-149.565 -223.588 0.
4.24699 7.75255 0.
-366.776 -681.252 0.
-2.32048 -4.77144 0.
-67.1633 -139.486 0.
-358.468 -754.503 0.
-175.325 -354.86 0.
-221.385 -450.421 0.
-225.648 -461.573 0.
-287.473 -600.473 0.
-138.117 -286.915 0.
-198.994 -530.995 0.
-32.5299 -86.2407 0.
-0.184792 -8.66905 0.
-75.9687 -200.693 0.
-0.563676 -1.48569 0.
2.93693 7.7219 0.
0.431772 1.12373 0.
-0.47688 -1.23404 0.
-0.250126 -7.75272 0.
1.00969 2.67653 0.
0.715711 1.86037 0.
0.949382 2.62954 0.
1.61583 4.47062 0.
1.23601 3.40521 0.
1.55475 4.30605 0.
-0.00433209 -3.62993 0.
-0.0465884 -0.127823 0.
-0.0018628 -2.98165 0.
0.817529 2.26349 0.
1.2152 3.3497 0.
-0.47434 -1.31149 0.
-0.269273 -0.745677 0.
1.54332 4.24725 0.
1.48572 4.11241 0.
1.56529 4.33198 0.
0.361739 1.00129 0.
-0.0948524 -0.262587 0.
1.25467 3.45807 0.
1.00244 2.54401 0.
0.0230152 0.0592976 0.
0.425036 1.04057 0.
1.94102 4.8086 0.
-26.2559 -65.7927 0.
-7.56968 -19.779 0.
-8.68845 -22.6215 0.
-132.396 -343.411 0.
-1.7554 -4.59126 0.
-67.4073 -177.012 0.
-250.992 -661.408 0.
-145.804 -289.877 0.
-237.409 -479.366 0.
-250.02 -502.344 0.
-208.077 -413.588 0.
-103.934 -204.373 0.
-365.664 -749.725 0.
-39.3074 -79.1756 0.
-2.03373 -11.6761 0.
-351.698 -627.65 0.
-3.22234 -5.58951 0.
-106.063 -152.425 0.
-4.16748 -5.85503 0.
-3.06645 -4.2118 0.
5.46631 7.25991 0.
5.86233 7.62816 0.
4.37631 5.58885 0.
4.17618 5.39569 0.
-2.16754 -2.78896 0.
-3.54234 -4.54142 0.
-4.84835 -5.42877 0.
-45.0435 -52.7341 0.
-39.7529 -46.7991 0.
-97.2303 -114.116 0.
-175.919 -205.81 0.
-3.3586 -4.04385 0.
-78.4839 -94.6878 0.
-119.84 -144.899 0.
-76.9994 -100.485 0.
-54.059 -69.7445 0.
-1.56677 -6.40641 0.
0.127245 0.144613 0.
2.50252 2.75503 0.
-5.12098 -5.66851 0.
10.3323 11.5024 0.
4.90459 5.32815 0.
0.857405 0.927675 0.
-1.9613 -2.11272 0.
2.96342 3.15161 0.
-7.21651 -7.77798 0.
-21.7578 -23.7668 0.
2.45605 2.82465 0.
-88.1852 -102.307 0.
6.55691 8.12429 0.
-3.47017 -4.38935 0.
-632.668 -818.018 0.
-36.6516 -48.0827 0.
-147.509 -195.406 0.
-398.292 -533.341 0.
1.25509 1.79205 0.
-74.9593 -109.645 0.
-306.06 -458.804 0.
-43.3301 -80.4461 0.
-220.182 -416.557 0.
-17.5764 -35.5983 0.
-88.9011 -181.955 0.
-50.4605 -104.529 0.
0.777501 1.61526 0.
-3.3518 -6.99888 0.
-12.1753 -25.55 0.
-9.3127 -20.0668 0.
-6.96877 -14.9252 0.
-122.798 -328.793 0.
-23.4482 -62.8577 0.
-1.69016 -4.53441 0.
-162.134 -437.978 0.
-86.7744 -233.112 0.
-15.5024 -41.3908 0.
-231.255 -609.928 0.
-54.3366 -142.71 0.
1.7828 4.65761 0.
-375.02 -993.495 0.
-0.0811556 -0.211921 0.
-265.239 -732.817 0.
-95.529 -264.588 0.
-0.40697 -1.12621 0.
-279.226 -773.337 0.
-127.082 -351.857 0.
-21.0043 -58.0218 0.
-215.615 -596.224 0.
-197.808 -547.868 0.
-53.1105 -146.123 0.
-141.317 -390.816 0.
-259.688 -719.28 0.
-16.2668 -45.0139 0.
-142.665 -395.154 0.
-309.426 -856.456 0.
-0.0651251 -0.180355 0.
-149.172 -413.095 0.
-305.587 -845.026 0.
0.961512 2.4704 0.
-357.936 -929.617 0.
-5.48276 -13.8606 0.
-59.1274 -150.575 0.
-264.84 -682.358 0.
2.45255 6.53037 0.
-49.0675 -130.901 0.
-107.987 -288.505 0.
0.348841 0.935184 0.
-20.6799 -55.7285 0.
-112.134 -233.46 0.
1.45097 3.0007 0.
-1.23287 -2.53126 0.
-3.80731 -7.70149 0.
-2.6931 -5.43457 0.
-3.86787 -7.59256 0.
-136.451 -277.702 0.
-81.2083 -162.879 0.
-6.21612 -12.2845 0.
-278.759 -500.486 0.
-68.2939 -119.236 0.
-317.713 -458.663 0.
2.01172 2.82988 0.
-5.81967 -11.7099 0.
-470.014 -599.591 0.
-92.8985 -116.135 0.
0.420824 0.517228 0.
-413.86 -504.349 0.
-1.19262 -1.45775 0.
-6.15568 -7.5173 0.
0.954862 1.07386 0.
6.54818 7.23273 0.
1.11112 1.2149 0.
-7.8629 -8.60806 0.
8.84387 9.69152 0.
3.30491 3.69869 0.
-2.36804 -2.63053 0.
2.48302 2.73872 0.
3.66485 4.15551 0.
-6.57504 -8.53382 0.
7.54765 8.49671 0.
3.15769 3.53308 0.
-0.945789 -1.0124 0.
2.80277 3.01377 0.
10.5275 11.3751 0.
-38.3594 -40.2837 0.
-70.0032 -73.1269 0.
-169.135 -175.701 0.
2.14082 2.27921 0.
-89.9645 -97.0742 0.
-279.099 -305.289 0.
-149.665 -169.298 0.
-160.232 -182.621 0.
2.06241 2.45606 0.
-136.633 -165.783 0.
-51.713 -63.972 0.
5.98965 7.30549 0.
-0.30977 -0.380206 0.
3.88712 4.80108 0.
8.49914 11.3929 0.
-4.84668 -6.64939 0.
6.85174 9.63509 0.
-2.317 -9.5604 0.
1.36669 2.57791 0.
4.24206 8.87989 0.
4.81589 10.2719 0.
-101.062 -219.745 0.
0.235347 0.489264 0.
-6.52308 -13.6296 0.
-136.786 -286.746 0.
-3.19703 -6.89721 0.
-79.9593 -171.241 0.
-134.384 -286.034 0.
-41.0102 -108.995 0.
1.58806 4.2228 0.
-53.3115 -143.754 0.
2.23202 5.98461 0.
-0.592459 -1.57793 0.
-25.0121 -66.1527 0.
-0.189169 -8.53203 0.
-0.17884 -7.14963 0.
0.0287475 0.0750372 0.
1.43876 3.69118 0.
0.610914 1.68682 0.
1.83695 5.08672 0.
-0.438194 -1.21304 0.
1.89948 5.26079 0.
0.108833 0.301294 0.
0.327892 0.905509 0.
0.593274 1.64292 0.
1.2175 3.37118 0.
-0.0250916 -5.20494 0.
-0.00673112 -3.9238 0.
0.931911 2.57975 0.
-0.690732 -1.91054 0.
0.697188 1.93106 0.
-0.209303 -0.579251 0.
0.179813 0.497803 0.
0.430148 1.19116 0.
2.05207 5.66874 0.
2.30725 5.85391 0.
-17.3453 -44.6152 0.
2.9844 7.59163 0.
2.01255 5.15289 0.
-46.6557 -120.255 0.
1.93026 5.1332 0.
-23.204 -61.8288 0.
-76.9722 -205.468 0.
-0.0704112 -0.186416 0.
-75.2468 -200.448 0.
-83.6357 -175.398 0.
-107.168 -223.241 0.
1.705 3.52388 0.
-123.252 -248.763 0.
2.90879 5.86445 0.
-1.11049 -2.23338 0.
-46.8962 -98.5916 0.
-2.27806 -4.65793 0.
4.47656 8.88743 0.
0.330512 0.579121 0.
5.17203 8.55077 0.
9.16574 12.1112 0.
10.3361 13.5137 0.
-1.3064 -1.69111 0.
-2.39809 -2.84994 0.
9.65478 11.4381 0.
2.46983 2.91543 0.
-61.5959 -71.2101 0.
-80.1015 -92.7753 0.
-7.46124 -8.66835 0.
-132.339 -149.168 0.
-166.513 -184.366 0.
-233.182 -249.492 0.
-95.8305 -102.784 0.
-38.1409 -40.975 0.
-173.833 -188.978 0.
-83.6809 -90.3352 0.
-28.271 -30.3228 0.
-0.0928365 -0.101983 0.
6.07059 6.651 0.
0.654669 0.715518 0.
-5.11484 -6.28626 0.
-70.9974 -73.8305 0.
-74.9246 -78.1769 0.
-39.2119 -41.0743 0.
9.39662 8.90489 0.
-7.57709 -7.14911 0.
-6.63747 -6.23303 0.
-2.89102 -2.86782 0.
-1.87023 -1.86976 0.
9.04647 9.11877 0.
3.27856 3.39606 0.
9.46212 9.9914 0.
6.47713 7.43665 0.
7.57082 8.88929 0.
-71.6729 -86.1202 0.
8.63703 10.4941 0.
1.07677 1.31655 0.
-133.621 -164.438 0.
3.26455 4.24684 0.
-69.7718 -92.88 0.
-415.553 -567.023 0.
4.28415 7.63507 0.
-386.877 -725.525 0.
1.88615 4.02251 0.
-96.8446 -210.633 0.
-312.292 -692.216 0.
-21.9299 -45.6132 0.
-64.988 -135.768 0.
-158.089 -331.15 0.
-1.52926 -3.30261 0.
-91.2052 -195.633 0.
-67.8201 -144.667 0.
-120.046 -316.029 0.
-38.2171 -100.653 0.
-53.5866 -144.119 0.
-63.6792 -170.135 0.
-27.611 -73.0229 0.
-146.496 -387.03 0.
-44.8554 -118.433 0.
1.30594 3.44148 0.
-233.164 -609.241 0.
1.05333 2.72193 0.
-181.513 -500.644 0.
-54.9486 -152.026 0.
-3.82745 -10.6014 0.
-217.643 -602.458 0.
-61.5018 -170.323 0.
-4.30464 -11.896 0.
-170.832 -473.156 0.
-115.693 -320.22 0.
-0.098196 -0.269125 0.
-91.4955 -252.582 0.
-211.279 -585.172 0.
0.714579 1.97874 0.
-41.0382 -113.666 0.
-193.916 -536.9 0.
-2.97964 -8.249 0.
-78.5373 -217.534 0.
-183.172 -507.034 0.
3.52794 8.91009 0.
-201.178 -513.65 0.
-13.6895 -34.9633 0.
-31.7783 -80.9917 0.
-119.237 -302.763 0.
-43.5491 -115.568 0.
-26.4493 -70.3983 0.
-49.5906 -132.235 0.
-31.5486 -82.3845 0.
-145.862 -383.404 0.
-51.0928 -107.887 0.
-65.4406 -137.272 0.
-3.5428 -7.37222 0.
-206.907 -416.797 0.
-59.2257 -119.176 0.
0.740761 1.48835 0.
-320.098 -678.931 0.
-55.2315 -113.999 0.
4.33108 8.67568 0.
-449.776 -785.083 0.
1.73321 2.85545 0.
-306.358 -393.404 0.
1.17266 1.48647 0.
1.30512 1.63942 0.
-53.1866 -62.8398 0.
-0.773804 -0.911863 0.
6.02808 7.08161 0.
-0.110498 -0.125059 0.
2.66178 2.93805 0.
7.48984 8.06652 0.
3.11341 3.22287 0.
-2.77749 -2.82422 0.
13.1333 12.7864 0.
7.13979 6.94125 0.
9.37062 9.09642 0.
13.1298 12.6825 0.
7.63741 8.00076 0.
-80.491 -83.8905 0.
-40.8308 -43.4383 0.
-30.1152 -31.9891 0.
-65.8835 -69.8978 0.
5.71417 5.90424 0.
-4.83062 -4.71383 0.
5.88676 5.64724 0.
-8.59792 -7.57169 0.
9.66359 8.95417 0.
3.753 3.46023 0.
8.1141 7.44174 0.
8.62586 8.24965 0.
-38.3184 -36.8867 0.
-146.967 -142.571 0.
0.782028 0.783378 0.
-442.292 -455.525 0.
9.8324 11.2524 0.
-65.0138 -76.1977 0.
-255.097 -306.853 0.
-157.991 -191.319 0.
-86.5483 -105.41 0.
-70.3066 -86.1583 0.
-21.2752 -26.8043 0.
-73.359 -94.5201 0.
-9.31684 -11.7864 0.
1.54372 2.64482 0.
-15.7183 -28.5034 0.
3.74651 7.79488 0.
2.69494 5.65702 0.
1.7075 3.6156 0.
3.26676 6.45165 0.
-1.2712 -2.53991 0.
-59.1234 -119.425 0.
-0.881862 -1.8562 0.
-37.3204 -79.4935 0.
-92.1584 -198.705 0.
-115.983 -303.252 0.
-61.4426 -159.009 0.
-69.243 -183.788 0.
-16.0806 -42.7021 0.
-3.1595 -8.38732 0.
-22.2787 -58.6556 0.
-1.77111 -4.65272 0.
1.50415 3.94181 0.
-1.7148 -4.43822 0.
-0.276848 -7.97633 0.
-0.465344 -1.28433 0.
1.10151 3.04887 0.
2.36985 6.56367 0.
0.203198 0.562792 0.
-0.911462 -2.52316 0.
-0.517878 -1.43 0.
-0.335043 -0.927936 0.
1.37448 3.80137 0.
-0.0228596 -5.81685 0.
-0.00735337 -6.1782 0.
-0.961813 -2.66381 0.
-0.00519395 -6.87906 0.
0.0702555 0.194521 0.
1.81474 5.0265 0.
-0.493172 -1.36455 0.
1.70107 4.71131 0.
-4.22755 -11.7071 0.
3.34578 8.37201 0.
1.40575 3.5554 0.
2.71455 6.93956 0.
0.845342 2.15775 0.
-2.84453 -7.24903 0.
-1.39115 -3.64069 0.
-16.5615 -43.6645 0.
-84.8756 -225.192 0.
-44.6112 -114.503 0.
-110.27 -284.584 0.
-30.3214 -63.4264 0.
-3.96939 -8.19372 0.
-2.41807 -4.92583 0.
-14.2636 -27.8869 0.
0.832775 1.60317 0.
-2.29555 -4.34895 0.
-0.576274 -1.16218 0.
-1.22359 -2.42557 0.
3.27944 6.38383 0.
-28.5443 -49.0004 0.
-1.94679 -6.01945 0.
-73.0594 -90.5548 0.
-68.2658 -83.8208 0.
-2.48813 -3.02959 0.
-67.3157 -79.0873 0.
-49.298 -57.7581 0.
-99.7584 -116.502 0.
-290.218 -325.6 0.
-16.2801 -17.8407 0.
-5.63554 -6.02307 0.
-378.233 -375.811 0.
2.80293 2.73409 0.
-6.53914 -6.16282 0.
-3.53382 -3.32925 0.
-7.73665 -7.28515 0.
-9.23627 -8.02901 0.
-7.84055 -7.4542 0.
-3.0286 -2.92067 0.
4.01167 3.9131 0.
1.47839 1.46012 0.
-3.24886 -3.24608 0.
-10.1084 -9.94637 0.
-97.3929 -92.507 0.
-14.8382 -13.8459 0.
-7.51869 -6.88739 0.
-172.576 -156.414 0.
-32.788 -29.5468 0.
-15.1039 -13.5319 0.
-30.5 -28.0978 0.
-151.025 -139.879 0.
-39.2605 -36.5379 0.
5.39803 4.88482 0.
5.61846 5.18338 0.
-2.37878 -2.52547 0.
2.23626 2.43749 0.
-1.48044 -1.65968 0.
-0.898605 -1.03123 0.
-5.45094 -7.42873 0.
8.32314 9.68334 0.
5.84884 7.12064 0.
-4.76237 -7.63243 0.
-61.2238 -77.7824 0.
-0.694716 -1.24644 0.
-126.591 -240.411 0.
2.56751 5.3585 0.
-0.278238 -0.585901 0.
-191.491 -405.74 0.
2.05977 4.05526 0.
-25.1675 -50.1239 0.
-155.633 -313.299 0.
-10.9005 -22.8259 0.
-26.265 -55.6708 0.
-71.3383 -153.126 0.
-53.8425 -140.15 0.
-28.8849 -74.4145 0.
-16.7016 -44.5198 0.
1.52235 4.05703 0.
-1.54251 -4.10822 0.
-8.18024 -21.4236 0.
-2.10966 -5.51136 0.
-0.256617 -0.668636 0.
-1.30714 -3.35184 0.
0.0144831 0.0366956 0.
1.05122 2.90397 0.
0.341947 0.946778 0.
1.8261 5.05707 0.
2.45644 6.80388 0.
-0.00259821 -6.05005 0.
-0.451492 -1.24562 0.
0.0709031 0.196332 0.
-0.00430935 -4.97199 0.
2.27369 6.24481 0.
-0.0567307 -0.156733 0.
2.37527 6.5786 0.
-0.0141055 -7.41023 0.
0.0501502 0.138635 0.
0.857448 2.3738 0.
2.2328 6.17343 0.
2.28076 6.31503 0.
-0.847172 -2.34649 0.
1.94154 4.81385 0.
1.76607 4.42747 0.
-2.22091 -5.68134 0.
0.274798 0.701885 0.
1.50202 3.83056 0.
-0.686826 -1.80363 0.
3.02092 7.99202 0.
-7.11366 -18.9463 0.
-1.50058 -3.8152 0.
-23.45 -59.9777 0.
-108.571 -227.444 0.
-31.9091 -65.9408 0.
0.711937 1.45124 0.
-197.769 -385.927 0.
-0.623346 -1.20161 0.
-2.08842 -3.96082 0.
-184.44 -376.962 0.
-2.0855 -4.21034 0.
1.56386 3.10149 0.
-92.656 -164.752 0.
-2.0841 -7.12193 0.
-30.3415 -36.7244 0.
7.71713 9.12002 0.
3.15454 3.64236 0.
1.81562 1.97022 0.
8.73626 9.40516 0.
-0.835106 -0.892592 0.
-5.87506 -6.20071 0.
1.29004 1.29814 0.
3.63785 3.59402 0.
5.11329 4.56261 0.
-8.42756 -7.87008 0.
-153.06 -139.506 0.
-152.428 -139.015 0.
-24.6037 -22.4641 0.
-7.77195 -7.06124 0.
8.22301 7.59028 0.
-209.981 -196.671 0.
-0.713299 -0.67304 0.
2.60672 2.49271 0.
-60.3512 -58.4359 0.
-1.46982 -1.1609 0.
9.82714 8.18862 0.
9.98113 8.18938 0.
2.82243 2.27849 0.
8.67656 7.1531 0.
-2.50118 -2.04408 0.
6.56482 5.31617 0.
-9.79114 -6.92101 0.
2.4812 2.13503 0.
-6.19607 -5.39342 0.
6.45051 5.77346 0.
2.35298 2.14744 0.
9.67096 9.96082 0.
8.45641 8.93929 0.
-174.976 -189.992 0.
-6.42028 -8.18257 0.
-5.41125 -6.09714 0.
-212.513 -240.796 0.
-1.89874 -2.32029 0.
1.43591 1.79371 0.
-158.009 -201.57 0.
-1.09495 -5.25518 0.
-84.8466 -169.081 0.
4.04822 8.47547 0.
-0.838635 -1.77166 0.
-3.07237 -6.54777 0.
-5.27556 -10.3523 0.
-15.3322 -30.4526 0.
-25.2015 -48.6424 0.
-2.92088 -5.80235 0.
-5.77328 -11.5111 0.
-10.9868 -21.9866 0.
0.603028 1.49951 0.
-0.472912 -9.71459 0.
-20.8498 -54.3935 0.
0.330371 0.864581 0.
-1.20875 -3.17172 0.
-45.6771 -117.303 0.
-16.9942 -43.5016 0.
-1.41962 -3.62207 0.
-38.978 -97.9946 0.
3.7417 9.33477 0.
-68.5182 -189.78 0.
-1.07224 -2.96931 0.
2.46853 6.82955 0.
-68.803 -190.52 0.
-1.00639 -2.78282 0.
-0.321193 -0.885691 0.
-68.5615 -189.854 0.
-6.21077 -17.1692 0.
-23.569 -65.0906 0.
-29.9532 -82.9082 0.
-53.387 -147.872 0.
-0.0060663 -0.0167235 0.
1.08678 3.0021 0.
-70.9084 -196.145 0.
1.95778 5.40223 0.
-1.12918 -3.12024 0.
-61.2196 -169.336 0.
-0.279509 -0.683853 0.
-41.2011 -101.555 0.
-6.34849 -16.0023 0.
-12.0388 -30.353 0.
-38.5942 -97.3564 0.
0.559654 1.45096 0.
-1.80715 -4.69013 0.
-22.8789 -59.4146 0.
-0.229452 -0.556848 0.
-2.78243 -6.73347 0.
-8.51842 -16.7156 0.
1.34088 2.63131 0.
4.28896 8.41657 0.
-18.2452 -34.7334 0.
-3.80763 -7.34999 0.
-4.13123 -7.84353 0.
-2.58737 -5.40921 0.
4.81231 9.89996 0.
4.90129 9.90904 0.
-67.4906 -124.949 0.
-1.57048 -6.03008 0.
-171.165 -205.741 0.
8.56293 10.0432 0.
-5.49906 -7.35194 0.
-218.422 -229.52 0.
5.90959 6.1515 0.
-5.54347 -5.73476 0.
-205.733 -207.813 0.
4.4082 4.35379 0.
5.6167 5.44672 0.
4.70188 4.13921 0.
4.652 4.07564 0.
-44.9924 -39.1855 0.
-5.8062 -5.013 0.
3.71053 3.17682 0.
7.60406 6.28357 0.
11.4241 9.51571 0.
7.47665 6.27464 0.
-2.63218 -2.08168 0.
4.41097 3.62004 0.
5.62678 4.78081 0.
0.461416 0.351343 0.
-12.1609 -9.87404 0.
0.254101 0.203061 0.
2.18866 1.72007 0.
-67.0333 -54.0763 0.
-20.7056 -16.5496 0.
-25.0185 -19.8052 0.
10.8832 9.19922 0.
-36.3546 -31.0818 0.
-66.8574 -57.8292 0.
5.66938 5.01585 0.
-169.369 -152.41 0.
4.12305 4.11093 0.
-1.83365 -1.87562 0.
-5.19236 -2.03459 0.
15.2562 11.9559 0.
-7.21129 -5.09159 0.
4.47727 4.16725 0.
9.19896 9.93246 0.
-5.07941 -6.88978 0.
-45.5211 -55.9944 0.
-0.543879 -1.00444 0.
1.40559 2.76982 0.
4.8494 9.69835 0.
1.84493 3.73101 0.
-29.5108 -60.381 0.
-1.36864 -2.60982 0.
4.54324 8.74931 0.
-24.8577 -48.3509 0.
-9.43399 -18.7599 0.
-18.1539 -36.2331 0.
-34.4916 -69.0912 0.
-2.56488 -6.39038 0.
-1.15248 -2.86771 0.
-18.8722 -49.0756 0.
-9.53564 -24.8699 0.
-5.3865 -14.0883 0.
-0.321318 -0.824736 0.
0.314772 0.805397 0.
0.896288 2.28596 0.
-1.0947 -2.74228 0.
-0.752418 -1.87227 0.
1.63294 4.52292 0.
2.22456 6.15863 0.
1.07345 2.96815 0.
1.60675 4.44855 0.
0.317557 0.877778 0.
-0.511761 -1.41053 0.
2.99342 8.29112 0.
1.74751 4.83538 0.
1.71079 4.72893 0.
-1.17882 -3.26408 0.
1.57777 4.36971 0.
-0.016317 -7.42988 0.
-0.0103381 -7.89165 0.
1.88179 5.20399 0.
1.11708 3.07782 0.
-1.68942 -4.66268 0.
0.556934 1.53917 0.
-1.68652 -4.11641 0.
3.16802 7.77743 0.
-1.35524 -3.42145 0.
-1.77844 -4.49063 0.
-1.50655 -3.80472 0.
3.36639 8.70436 0.
-3.40517 -8.81348 0.
-17.3528 -44.9505 0.
2.97829 7.23855 0.
1.80312 4.37026 0.
-13.8012 -27.1268 0.
5.26156 10.3434 0.
4.66396 9.16857 0.
-23.424 -44.9605 0.
1.45883 2.75943 0.
3.05027 5.68032 0.
-19.1005 -38.6461 0.
-2.77367 -5.5036 0.
3.75999 7.3173 0.
1.28529 2.34922 0.
2.25718 3.86274 0.
-6.26746 -7.29455 0.
-5.3473 -6.14757 0.
-3.26512 -3.12023 0.
-9.88242 -6.10004 0.
11.5287 8.07938 0.
22.6318 14.1812 0.
9.35708 9.23589 0.
-6.3277 -5.90885 0.
-0.646217 -0.614588 0.
-153.695 -133.525 0.
-13.9611 -12.068 0.
-40.2473 -34.7996 0.
-49.2447 -42.2145 0.
-3.49753 -2.97265 0.
-17.0892 -13.7456 0.
-8.8013 -7.14035 0.
-54.35 -44.4611 0.
-3.4854 -2.66676 0.
0.540273 0.428768 0.
-70.8411 -58.2522 0.
