# vtk DataFile Version 2.0
test grain
ASCII
DATASET UNSTRUCTURED_GRID
POINTS 5000 float
0.498001 0.000664086 0.
0.500684 0.000813711 0.
0.503126 0.000879461 0.
0.505546 0.00094331 0.
0.507654 0.00095508 0.
0.509764 0.000966998 0.
0.511848 0.000976372 0.
0.513891 0.00098127 0.
0.515935 0.000986193 0.
0.517958 0.000990054 0.
0.51997 0.000993363 0.
0.521981 0.000996682 0.
0.523984 0.000997638 0.
0.525986 0.000998275 0.
0.527988 0.000998869 0.
0.52999 0.000999104 0.
0.531992 0.000999339 0.
0.533994 0.000999555 0.
0.535995 0.000999731 0.
0.537996 0.000999908 0.
0.539996 0.00100001 0.
0.541997 0.00100004 0.
0.543997 0.00100007 0.
0.545998 0.00100006 0.
0.547998 0.00100003 0.
0.549998 0.001 0.
0.551998 0.00100003 0.
0.553998 0.00100005 0.
0.555998 0.00100009 0.
0.557999 0.00100014 0.
0.559999 0.00100019 0.
0.561999 0.00100024 0.
0.563999 0.00100029 0.
0.565999 0.00100034 0.
0.568 0.00100033 0.
0.57 0.0010003 0.
0.572 0.00100027 0.
0.574 0.00100031 0.
0.576 0.00100035 0.
0.578 0.00100039 0.
0.58 0.00100042 0.
0.582 0.00100044 0.
0.584 0.00100046 0.
0.586 0.00100045 0.
0.588 0.00100044 0.
0.59 0.00100044 0.
0.592 0.00100045 0.
0.594 0.00100046 0.
0.596 0.00100043 0.
0.598 0.00100038 0.
0.6 0.00100033 0.
0.602 0.00100039 0.
0.604 0.00100044 0.
0.606 0.00100049 0.
0.608 0.00100047 0.
0.61 0.00100046 0.
0.612 0.00100046 0.
0.614 0.00100047 0.
0.616 0.00100047 0.
0.618 0.00100044 0.
0.62 0.00100038 0.
0.622 0.00100032 0.
0.624 0.0010003 0.
0.626 0.00100028 0.
0.628 0.00100027 0.
0.63 0.00100027 0.
0.632 0.00100027 0.
0.634001 0.00100026 0.
0.636001 0.00100024 0.
0.638001 0.00100022 0.
0.640001 0.00100017 0.
0.642001 0.00100009 0.
0.644002 0.00100002 0.
0.646002 0.001 0.
0.648002 0.001 0.
0.650002 0.001 0.
0.652003 0.00100001 0.
0.654003 0.00100003 0.
0.656004 0.00100003 0.
0.658004 0.00100002 0.
0.660005 0.001 0.
0.662006 0.000999862 0.
0.664007 0.000999571 0.
0.666008 0.000999281 0.
0.66801 0.000999136 0.
0.670012 0.000999061 0.
0.672014 0.000998987 0.
0.674017 0.000997588 0.
0.67602 0.000996036 0.
0.678025 0.000994163 0.
0.680046 0.000989893 0.
0.682068 0.000985642 0.
0.684103 0.000980595 0.
0.686163 0.000974103 0.
0.688224 0.000967654 0.
0.690373 0.000944941 0.
0.69257 0.000914503 0.
0.694779 0.000883663 0.
0.697456 0.000800282 0.
0.700142 0.000720824 0.
0.49636 0.00179817 0.
0.49944 0.00238695 0.
0.502138 0.0026043 0.
0.504843 0.00281403 0.
0.507161 0.00286001 0.
0.509433 0.00289728 0.
0.511649 0.00292847 0.
0.513739 0.0029433 0.
0.515829 0.0029582 0.
0.517883 0.00296994 0.
0.519917 0.00297991 0.
0.52195 0.00298992 0.
0.523959 0.0029929 0.
0.525965 0.00299481 0.
0.527971 0.0029966 0.
0.529975 0.00299731 0.
0.53198 0.00299801 0.
0.533984 0.00299866 0.
0.535986 0.00299919 0.
0.537989 0.00299972 0.
0.539991 0.00300002 0.
0.541992 0.00300012 0.
0.543993 0.00300022 0.
0.545993 0.00300017 0.
0.547994 0.00300009 0.
0.549995 0.003 0.
0.551995 0.00300008 0.
0.553995 0.00300016 0.
0.555996 0.00300026 0.
0.557996 0.00300042 0.
0.559997 0.00300058 0.
0.561998 0.00300073 0.
0.563998 0.00300087 0.
0.565998 0.00300101 0.
0.567999 0.003001 0.
0.569999 0.00300091 0.
0.571999 0.00300082 0.
0.573999 0.00300092 0.
0.575999 0.00300105 0.
0.577999 0.00300117 0.
0.579999 0.00300125 0.
0.582 0.00300133 0.
0.584 0.00300137 0.
0.586 0.00300134 0.
0.588 0.00300131 0.
0.59 0.00300132 0.
0.592 0.00300135 0.
0.594 0.00300138 0.
0.596 0.00300128 0.
0.598 0.00300113 0.
0.6 0.00300099 0.
0.602 0.00300116 0.
0.604 0.00300133 0.
0.606 0.00300146 0.
0.608 0.00300142 0.
0.61 0.00300138 0.
0.612 0.00300137 0.
0.614 0.0030014 0.
0.616 0.00300142 0.
0.618001 0.00300132 0.
0.620001 0.00300115 0.
0.622001 0.00300097 0.
0.624001 0.0030009 0.
0.626001 0.00300085 0.
0.628001 0.0030008 0.
0.630001 0.0030008 0.
0.632001 0.00300081 0.
0.634002 0.00300079 0.
0.636002 0.00300072 0.
0.638003 0.00300065 0.
0.640003 0.0030005 0.
0.642004 0.00300028 0.
0.644005 0.00300005 0.
0.646005 0.003 0.
0.648006 0.00300001 0.
0.650006 0.00300001 0.
0.652007 0.00300004 0.
0.654008 0.00300008 0.
0.656009 0.00300009 0.
0.65801 0.00300005 0.
0.660012 0.003 0.
0.662014 0.00299958 0.
0.664018 0.00299871 0.
0.666021 0.00299784 0.
0.668026 0.00299741 0.
0.670031 0.00299718 0.
0.672036 0.00299696 0.
0.674045 0.00299271 0.
0.676054 0.00298805 0.
0.67807 0.00298231 0.
0.680125 0.00296941 0.
0.68218 0.00295657 0.
0.684263 0.00294106 0.
0.686391 0.00292133 0.
0.688519 0.00290173 0.
0.690866 0.00282128 0.
0.69328 0.0027254 0.
0.695821 0.00260392 0.
0.698754 0.0023427 0.
0.701734 0.00195955 0.
0.494551 0.00268987 0.
0.497859 0.00369504 0.
0.50102 0.00428136 0.
0.504009 0.00464464 0.
0.506625 0.00475742 0.
0.509071 0.00482219 0.
0.511445 0.00487968 0.
0.513582 0.00490463 0.
0.51572 0.0049297 0.
0.517808 0.00494951 0.
0.519863 0.00496623 0.
0.521918 0.004983 0.
0.523934 0.00498813 0.
0.525944 0.00499132 0.
0.527953 0.00499433 0.
0.52996 0.0049955 0.
0.531968 0.00499668 0.
0.533974 0.00499777 0.
0.535978 0.00499865 0.
0.537982 0.00499953 0.
0.539985 0.00500002 0.
0.541986 0.00500019 0.
0.543988 0.00500036 0.
0.545989 0.00500029 0.
0.547991 0.00500014 0.
0.549992 0.005 0.
0.551992 0.00500014 0.
0.553992 0.00500027 0.
0.555993 0.00500044 0.
0.557994 0.0050007 0.
0.559995 0.00500097 0.
0.561996 0.00500122 0.
0.563997 0.00500145 0.
0.565997 0.00500168 0.
0.567998 0.00500166 0.
0.569998 0.00500152 0.
0.571999 0.00500137 0.
0.573999 0.00500154 0.
0.575999 0.00500175 0.
0.577999 0.00500195 0.
0.579999 0.00500208 0.
0.581999 0.00500222 0.
0.583999 0.00500229 0.
0.586 0.00500224 0.
0.588 0.00500219 0.
0.59 0.0050022 0.
0.592 0.00500225 0.
0.594 0.0050023 0.
0.596 0.00500213 0.
0.598 0.00500189 0.
0.6 0.00500165 0.
0.602 0.00500194 0.
0.604 0.00500222 0.
0.606 0.00500243 0.
0.608 0.00500237 0.
0.61 0.0050023 0.
0.612 0.00500228 0.
0.614001 0.00500233 0.
0.616001 0.00500237 0.
0.618001 0.0050022 0.
0.620001 0.00500191 0.
0.622002 0.00500162 0.
0.624001 0.00500151 0.
0.626001 0.00500141 0.
0.628001 0.00500133 0.
0.630002 0.00500134 0.
0.632002 0.00500135 0.
0.634003 0.00500132 0.
0.636004 0.0050012 0.
0.638005 0.00500109 0.
0.640006 0.00500083 0.
0.642007 0.00500046 0.
0.644008 0.00500009 0.
0.646009 0.00500001 0.
0.648009 0.00500001 0.
0.65001 0.00500001 0.
0.652011 0.00500007 0.
0.654012 0.00500013 0.
0.656014 0.00500015 0.
0.658016 0.00500007 0.
0.660019 0.005 0.
0.662023 0.0049993 0.
0.664029 0.00499784 0.
0.666034 0.00499639 0.
0.668042 0.00499568 0.
0.67005 0.0049953 0.
0.672058 0.00499493 0.
0.674073 0.00498776 0.
0.676089 0.00497997 0.
0.678115 0.00497021 0.
0.680205 0.00494857 0.
0.682294 0.00492703 0.
0.68443 0.00490053 0.
0.686628 0.0048672 0.
0.688824 0.00483411 0.
0.691419 0.00467786 0.
0.694069 0.00451009 0.
0.697023 0.00424768 0.
0.700206 0.00380316 0.
0.703566 0.00288106 0.
0.492625 0.00327188 0.
0.496244 0.00464811 0.
0.499776 0.00559935 0.
0.502807 0.00603053 0.
0.505655 0.00630388 0.
0.508225 0.00645392 0.
0.510776 0.00660232 0.
0.513042 0.00668045 0.
0.515307 0.00675992 0.
0.517505 0.00682335 0.
0.51963 0.00686661 0.
0.521757 0.0069105 0.
0.523816 0.00693476 0.
0.525861 0.00695493 0.
0.527904 0.00697404 0.
0.52992 0.0069774 0.
0.531937 0.00698075 0.
0.533951 0.00698458 0.
0.53596 0.00698945 0.
0.53797 0.00699432 0.
0.539976 0.0069973 0.
0.541979 0.00699867 0.
0.543982 0.00700005 0.
0.545984 0.00700042 0.
0.547986 0.00700049 0.
0.549988 0.00700055 0.
0.551988 0.00700072 0.
0.553989 0.00700088 0.
0.555989 0.00700108 0.
0.557991 0.00700138 0.
0.559992 0.00700167 0.
0.561993 0.007002 0.
0.563994 0.00700235 0.
0.565995 0.0070027 0.
0.567996 0.00700282 0.
0.569997 0.00700282 0.
0.571998 0.00700282 0.
0.573998 0.00700302 0.
0.575997 0.00700325 0.
0.577997 0.00700347 0.
0.579998 0.00700359 0.
0.581998 0.00700371 0.
0.583999 0.00700381 0.
0.585999 0.00700389 0.
0.587999 0.00700396 0.
0.59 0.00700398 0.
0.592 0.00700394 0.
0.594 0.00700391 0.
0.596 0.00700381 0.
0.598 0.00700369 0.
0.6 0.00700356 0.
0.602001 0.00700378 0.
0.604001 0.00700399 0.
0.606001 0.00700414 0.
0.608001 0.0070041 0.
0.610001 0.00700405 0.
0.612001 0.007004 0.
0.614001 0.00700396 0.
0.616002 0.00700392 0.
0.618002 0.00700371 0.
0.620003 0.00700343 0.
0.622003 0.00700315 0.
0.624003 0.00700298 0.
0.626003 0.00700282 0.
0.628003 0.00700266 0.
0.630004 0.00700253 0.
0.632005 0.0070024 0.
0.634006 0.00700222 0.
0.636007 0.00700195 0.
0.638008 0.00700168 0.
0.640009 0.00700134 0.
0.642011 0.00700094 0.
0.644012 0.00700053 0.
0.646013 0.00700038 0.
0.648014 0.0070003 0.
0.650015 0.00700022 0.
0.652017 0.00700001 0.
0.654019 0.00699979 0.
0.656021 0.00699915 0.
0.658026 0.00699709 0.
0.660031 0.00699504 0.
0.662039 0.00699111 0.
0.664052 0.00698497 0.
0.666065 0.00697885 0.
0.668084 0.00697532 0.
0.670106 0.00697293 0.
0.672128 0.00697055 0.
0.674196 0.00693669 0.
0.676266 0.00690129 0.
0.678356 0.00686405 0.
0.680527 0.0068134 0.
0.682694 0.00676361 0.
0.684968 0.00668 0.
0.687315 0.00657776 0.
0.689699 0.00645408 0.
0.692427 0.00616786 0.
0.695198 0.00588541 0.
0.698355 0.00549232 0.
0.701778 0.00486047 0.
0.705352 0.00354718 0.
0.490841 0.0037185 0.
0.494788 0.00539669 0.
0.498345 0.00661298 0.
0.501514 0.00729036 0.
0.504545 0.00777064 0.
0.507287 0.00803635 0.
0.509999 0.00828905 0.
0.512447 0.00843206 0.
0.514852 0.00857228 0.
0.517186 0.00869191 0.
0.519386 0.00876316 0.
0.521588 0.00883549 0.
0.523696 0.00888007 0.
0.525776 0.0089176 0.
0.527854 0.0089537 0.
0.529879 0.00895924 0.
0.531905 0.00896479 0.
0.533928 0.00897133 0.
0.535943 0.00898019 0.
0.537958 0.00898907 0.
0.539968 0.00899456 0.
0.541972 0.00899715 0.
0.543976 0.00899973 0.
0.545979 0.00900055 0.
0.547981 0.00900082 0.
0.549983 0.0090011 0.
0.551984 0.0090013 0.
0.553985 0.00900149 0.
0.555986 0.00900172 0.
0.557987 0.00900205 0.
0.559989 0.00900238 0.
0.56199 0.00900277 0.
0.563991 0.00900325 0.
0.565993 0.00900373 0.
0.567994 0.00900398 0.
0.569995 0.00900412 0.
0.571996 0.00900427 0.
0.573996 0.00900451 0.
0.575996 0.00900476 0.
0.577996 0.009005 0.
0.579997 0.0090051 0.
0.581997 0.0090052 0.
0.583998 0.00900534 0.
0.585998 0.00900553 0.
0.587999 0.00900573 0.
0.589999 0.00900575 0.
0.591999 0.00900564 0.
0.594 0.00900552 0.
0.596 0.00900549 0.
0.598 0.00900548 0.
0.6 0.00900548 0.
0.602001 0.00900562 0.
0.604001 0.00900575 0.
0.606001 0.00900586 0.
0.608001 0.00900583 0.
0.610002 0.0090058 0.
0.612002 0.00900572 0.
0.614002 0.00900559 0.
0.616003 0.00900546 0.
0.618003 0.00900523 0.
0.620004 0.00900496 0.
0.622005 0.00900468 0.
0.624005 0.00900445 0.
0.626005 0.00900422 0.
0.628005 0.009004 0.
0.630006 0.00900372 0.
0.632007 0.00900345 0.
0.634009 0.00900313 0.
0.63601 0.0090027 0.
0.638012 0.00900228 0.
0.640013 0.00900185 0.
0.642015 0.00900141 0.
0.644016 0.00900098 0.
0.646018 0.00900076 0.
0.648019 0.0090006 0.
0.65002 0.00900044 0.
0.652023 0.00899995 0.
0.654025 0.00899946 0.
0.656029 0.00899814 0.
0.658036 0.0089941 0.
0.660042 0.00899006 0.
0.662055 0.00898287 0.
0.664075 0.00897203 0.
0.666096 0.00896122 0.
0.668127 0.00895492 0.
0.670163 0.0089505 0.
0.672199 0.00894608 0.
0.674323 0.0088834 0.
0.67645 0.00881944 0.
0.678609 0.00875403 0.
0.680867 0.00867246 0.
0.683119 0.00859229 0.
0.685573 0.0084307 0.
0.688088 0.00825026 0.
0.690702 0.00798587 0.
0.693545 0.00755619 0.
0.696521 0.00711005 0.
0.699761 0.00656232 0.
0.70332 0.00556136 0.
0.70715 0.00403084 0.
0.489401 0.00420559 0.
0.493408 0.00606806 0.
0.496946 0.00747418 0.
0.500265 0.00847859 0.
0.503402 0.00913811 0.
0.506362 0.00956716 0.
0.509222 0.00990555 0.
0.51185 0.0101164 0.
0.514377 0.0103203 0.
0.51684 0.0105123 0.
0.519106 0.0106143 0.
0.521378 0.0107191 0.
0.52354 0.0107929 0.
0.525659 0.0108572 0.
0.527778 0.0109211 0.
0.529818 0.0109303 0.
0.531857 0.0109395 0.
0.533891 0.01095 0.
0.535914 0.0109639 0.
0.537937 0.0109779 0.
0.539951 0.010987 0.
0.541959 0.0109917 0.
0.543967 0.0109965 0.
0.545971 0.0109984 0.
0.547975 0.0109994 0.
0.549978 0.0110004 0.
0.551979 0.0110007 0.
0.55398 0.0110011 0.
0.555982 0.0110015 0.
0.557983 0.0110019 0.
0.559985 0.0110022 0.
0.561987 0.0110027 0.
0.563988 0.0110032 0.
0.56599 0.0110038 0.
0.567992 0.0110042 0.
0.569993 0.0110044 0.
0.571994 0.0110047 0.
0.573995 0.0110051 0.
0.575995 0.0110055 0.
0.577995 0.0110058 0.
0.579996 0.0110059 0.
0.581996 0.011006 0.
0.583997 0.0110062 0.
0.585998 0.0110065 0.
0.587998 0.0110068 0.
0.589999 0.0110068 0.
0.591999 0.0110067 0.
0.594 0.0110066 0.
0.596 0.0110066 0.
0.598 0.0110066 0.
0.6 0.0110067 0.
0.602001 0.0110068 0.
0.604001 0.0110069 0.
0.606002 0.011007 0.
0.608002 0.0110069 0.
0.610002 0.0110069 0.
0.612003 0.0110067 0.
0.614003 0.0110065 0.
0.616004 0.0110062 0.
0.618005 0.0110059 0.
0.620006 0.0110056 0.
0.622006 0.0110054 0.
0.624007 0.011005 0.
0.626007 0.0110047 0.
0.628007 0.0110043 0.
0.630009 0.0110039 0.
0.63201 0.0110035 0.
0.634012 0.011003 0.
0.636014 0.0110026 0.
0.638016 0.0110021 0.
0.640017 0.0110016 0.
0.642019 0.011001 0.
0.644021 0.0110005 0.
0.646023 0.0110001 0.
0.648024 0.0109996 0.
0.650026 0.0109992 0.
0.65203 0.0109977 0.
0.654035 0.0109962 0.
0.656041 0.0109933 0.
0.658052 0.010986 0.
0.660064 0.0109787 0.
0.662084 0.0109674 0.
0.664114 0.0109515 0.
0.666143 0.0109356 0.
0.668194 0.0109208 0.
0.670252 0.0109068 0.
0.672311 0.0108921 0.
0.674491 0.0107923 0.
0.676669 0.0106933 0.
0.678901 0.0105933 0.
0.681238 0.0104776 0.
0.683573 0.0103638 0.
0.686193 0.0101133 0.
0.68886 0.00986341 0.
0.691687 0.00943703 0.
0.694643 0.00887677 0.
0.697819 0.00826168 0.
0.70114 0.00754151 0.
0.70473 0.00623257 0.
0.708654 0.00451198 0.
0.488362 0.00488333 0.
0.492346 0.00676299 0.
0.495916 0.00835039 0.
0.499343 0.00959666 0.
0.502583 0.010339 0.
0.505658 0.0109063 0.
0.508567 0.0113344 0.
0.511303 0.011649 0.
0.513889 0.0119496 0.
0.516439 0.0122525 0.
0.518773 0.0124001 0.
0.521111 0.0125487 0.
0.52334 0.0126655 0.
0.525507 0.0127694 0.
0.527673 0.0128742 0.
0.529733 0.0128897 0.
0.531791 0.0129042 0.
0.533841 0.0129203 0.
0.535873 0.0129405 0.
0.537905 0.0129607 0.
0.539927 0.0129745 0.
0.541941 0.0129824 0.
0.543954 0.0129904 0.
0.545961 0.012994 0.
0.547967 0.0129961 0.
0.549972 0.0129983 0.
0.551974 0.0129991 0.
0.553976 0.0129998 0.
0.555978 0.0130005 0.
0.55798 0.0130009 0.
0.559982 0.0130012 0.
0.561984 0.0130017 0.
0.563985 0.0130023 0.
0.565987 0.0130029 0.
0.567989 0.0130033 0.
0.56999 0.0130037 0.
0.571992 0.0130041 0.
0.573993 0.0130047 0.
0.575993 0.0130053 0.
0.577993 0.0130059 0.
0.579994 0.013006 0.
0.581995 0.0130061 0.
0.583996 0.0130063 0.
0.585997 0.0130067 0.
0.587998 0.013007 0.
0.589998 0.0130072 0.
0.591999 0.0130071 0.
0.593999 0.0130071 0.
0.596 0.0130071 0.
0.598 0.0130072 0.
0.6 0.0130072 0.
0.602001 0.0130073 0.
0.604002 0.0130074 0.
0.606002 0.0130075 0.
0.608002 0.0130074 0.
0.610003 0.0130073 0.
0.612004 0.013007 0.
0.614004 0.0130066 0.
0.616005 0.0130061 0.
0.618006 0.0130058 0.
0.620007 0.0130055 0.
0.622009 0.0130052 0.
0.624009 0.0130047 0.
0.62601 0.0130042 0.
0.62801 0.0130037 0.
0.630012 0.0130031 0.
0.632014 0.0130025 0.
0.634015 0.013002 0.
0.636017 0.0130016 0.
0.638019 0.0130012 0.
0.640021 0.0130006 0.
0.642023 0.0129998 0.
0.644026 0.0129991 0.
0.646028 0.0129983 0.
0.648031 0.0129974 0.
0.650034 0.0129965 0.
0.65204 0.0129932 0.
0.654047 0.01299 0.
0.656057 0.0129846 0.
0.658077 0.0129727 0.
0.660096 0.0129609 0.
0.662126 0.0129444 0.
0.664167 0.012923 0.
0.666208 0.0129015 0.
0.668287 0.0128713 0.
0.670378 0.012839 0.
0.672475 0.0128023 0.
0.674707 0.0126549 0.
0.676936 0.0125096 0.
0.679251 0.0123582 0.
0.681671 0.0121895 0.
0.684109 0.0120021 0.
0.686789 0.0116175 0.
0.68951 0.0112426 0.
0.692418 0.0107202 0.
0.695467 0.0100831 0.
0.698767 0.00936086 0.
0.702171 0.00845662 0.
0.705743 0.00700664 0.
0.709667 0.00520016 0.
0.487618 0.00570562 0.
0.491498 0.00752516 0.
0.495074 0.00922404 0.
0.498516 0.0105692 0.
0.501793 0.0114532 0.
0.504935 0.0121921 0.
0.507892 0.0127345 0.
0.510737 0.0131556 0.
0.513386 0.0135544 0.
0.516012 0.0139685 0.
0.518427 0.0141794 0.
0.520834 0.0143727 0.
0.523137 0.014534 0.
0.52535 0.0146784 0.
0.527565 0.0148247 0.
0.529647 0.0148489 0.
0.531723 0.0148688 0.
0.533791 0.0148905 0.
0.535832 0.0149169 0.
0.537873 0.0149434 0.
0.539903 0.0149619 0.
0.541922 0.0149731 0.
0.543942 0.0149843 0.
0.545952 0.0149895 0.
0.547959 0.0149929 0.
0.549966 0.0149962 0.
0.551968 0.0149974 0.
0.553971 0.0149985 0.
0.555974 0.0149994 0.
0.557976 0.0149998 0.
0.559978 0.0150002 0.
0.56198 0.0150007 0.
0.563982 0.0150013 0.
0.565984 0.015002 0.
0.567986 0.0150025 0.
0.569988 0.015003 0.
0.57199 0.0150035 0.
0.57399 0.0150043 0.
0.575991 0.0150052 0.
0.577992 0.015006 0.
0.579993 0.0150061 0.
0.581994 0.0150062 0.
0.583995 0.0150065 0.
0.585996 0.0150069 0.
0.587997 0.0150073 0.
0.589998 0.0150075 0.
0.591999 0.0150076 0.
0.593999 0.0150076 0.
0.596 0.0150076 0.
0.598 0.0150077 0.
0.6 0.0150077 0.
0.602001 0.0150078 0.
0.604002 0.0150079 0.
0.606002 0.015008 0.
0.608003 0.0150078 0.
0.610004 0.0150077 0.
0.612004 0.0150073 0.
0.614006 0.0150067 0.
0.616007 0.015006 0.
0.618008 0.0150056 0.
0.620009 0.0150053 0.
0.622011 0.015005 0.
0.624012 0.0150044 0.
0.626012 0.0150037 0.
0.628013 0.015003 0.
0.630015 0.0150023 0.
0.632017 0.0150015 0.
0.634019 0.0150009 0.
0.636021 0.0150005 0.
0.638023 0.0150002 0.
0.640025 0.0149995 0.
0.642028 0.0149986 0.
0.644031 0.0149977 0.
0.646034 0.0149965 0.
0.648038 0.0149951 0.
0.650041 0.0149937 0.
0.652051 0.0149887 0.
0.65406 0.0149837 0.
0.656073 0.0149759 0.
0.658101 0.0149594 0.
0.660128 0.0149429 0.
0.662168 0.0149214 0.
0.664221 0.0148943 0.
0.666274 0.0148673 0.
0.668383 0.0148205 0.
0.670507 0.0147695 0.
0.672643 0.0147089 0.
0.674928 0.0145129 0.
0.677209 0.0143205 0.
0.679619 0.0141137 0.
0.682125 0.0138908 0.
0.684667 0.0136046 0.
0.687398 0.0130869 0.
0.690184 0.0125744 0.
0.693148 0.0119577 0.
0.696242 0.0112267 0.
0.699562 0.0104134 0.
0.703008 0.00934639 0.
0.706567 0.00780456 0.
0.710411 0.00603264 0.
0.487063 0.00665012 0.
0.490806 0.00837768 0.
0.494353 0.0101278 0.
0.497754 0.0115273 0.
0.501044 0.0125517 0.
0.504218 0.0134272 0.
0.507231 0.0140914 0.
0.51015 0.014609 0.
0.512848 0.0150763 0.
0.5155 0.0155522 0.
0.517975 0.0158348 0.
0.520417 0.0160761 0.
0.522782 0.0162933 0.
0.525043 0.0164732 0.
0.527311 0.0166563 0.
0.529451 0.0167215 0.
0.531576 0.0167772 0.
0.533689 0.0168295 0.
0.535745 0.0168624 0.
0.537802 0.0168954 0.
0.539847 0.0169219 0.
0.541879 0.0169421 0.
0.543912 0.0169625 0.
0.545929 0.0169732 0.
0.547941 0.0169806 0.
0.549953 0.016988 0.
0.551958 0.0169908 0.
0.553963 0.0169935 0.
0.555967 0.0169959 0.
0.55797 0.0169972 0.
0.559974 0.0169985 0.
0.561977 0.0169996 0.
0.563979 0.0170004 0.
0.565981 0.0170012 0.
0.567983 0.0170019 0.
0.569985 0.0170025 0.
0.571987 0.0170032 0.
0.573988 0.0170041 0.
0.575989 0.0170051 0.
0.57799 0.017006 0.
0.579992 0.0170062 0.
0.581993 0.0170064 0.
0.583994 0.0170067 0.
0.585995 0.0170073 0.
0.587997 0.0170078 0.
0.589998 0.0170081 0.
0.591998 0.0170081 0.
0.593999 0.0170082 0.
0.596 0.0170084 0.
0.598 0.0170087 0.
0.6 0.0170089 0.
0.602001 0.0170089 0.
0.604002 0.0170088 0.
0.606003 0.0170087 0.
0.608004 0.0170084 0.
0.610005 0.0170081 0.
0.612006 0.0170076 0.
0.614007 0.0170069 0.
0.616008 0.0170062 0.
0.61801 0.0170057 0.
0.620011 0.0170053 0.
0.622013 0.0170049 0.
0.624014 0.0170041 0.
0.626015 0.0170033 0.
0.628016 0.0170024 0.
0.630018 0.0170016 0.
0.63202 0.0170007 0.
0.634022 0.0169998 0.
0.636025 0.016999 0.
0.638027 0.0169982 0.
0.640031 0.0169967 0.
0.642035 0.0169948 0.
0.644039 0.0169929 0.
0.646045 0.0169897 0.
0.648051 0.0169862 0.
0.650058 0.0169825 0.
0.652074 0.0169721 0.
0.654091 0.0169618 0.
0.656115 0.0169467 0.
0.658159 0.0169185 0.
0.660204 0.0168904 0.
0.662264 0.0168593 0.
0.664339 0.0168245 0.
0.666414 0.0167898 0.
0.668578 0.0166972 0.
0.670758 0.0165969 0.
0.672958 0.0164843 0.
0.675282 0.0162564 0.
0.677598 0.0160324 0.
0.680081 0.0157616 0.
0.682636 0.015484 0.
0.685253 0.0150955 0.
0.688011 0.014493 0.
0.690851 0.0138693 0.
0.693851 0.0131748 0.
0.696972 0.0123602 0.
0.700266 0.0114646 0.
0.703679 0.0102755 0.
0.707204 0.00868685 0.
0.710948 0.00700396 0.
0.486633 0.0077061 0.
0.490241 0.00932826 0.
0.493723 0.0110584 0.
0.497052 0.0124944 0.
0.500335 0.0136363 0.
0.503528 0.0146083 0.
0.506569 0.0153734 0.
0.509495 0.0159655 0.
0.51224 0.0164945 0.
0.514918 0.0170368 0.
0.51746 0.0174199 0.
0.519945 0.0177322 0.
0.522382 0.0180288 0.
0.524704 0.01825 0.
0.527037 0.0184757 0.
0.529243 0.0185852 0.
0.531421 0.0186798 0.
0.533583 0.0187673 0.
0.535656 0.018807 0.
0.53773 0.0188467 0.
0.53979 0.0188812 0.
0.541836 0.0189107 0.
0.543882 0.0189404 0.
0.545907 0.0189567 0.
0.547924 0.0189681 0.
0.549941 0.0189796 0.
0.551948 0.0189842 0.
0.553955 0.0189885 0.
0.555961 0.0189924 0.
0.557965 0.0189946 0.
0.559969 0.0189968 0.
0.561973 0.0189985 0.
0.563975 0.0189995 0.
0.565978 0.0190005 0.
0.56798 0.0190014 0.
0.569983 0.0190021 0.
0.571985 0.0190028 0.
0.573986 0.0190039 0.
0.575987 0.019005 0.
0.577989 0.0190061 0.
0.57999 0.0190063 0.
0.581992 0.0190066 0.
0.583993 0.0190069 0.
0.585995 0.0190076 0.
0.587996 0.0190083 0.
0.589997 0.0190086 0.
0.591998 0.0190087 0.
0.593999 0.0190087 0.
0.596 0.0190091 0.
0.598 0.0190096 0.
0.6 0.0190102 0.
0.602001 0.0190099 0.
0.604002 0.0190096 0.
0.606003 0.0190093 0.
0.608004 0.0190089 0.
0.610006 0.0190085 0.
0.612007 0.0190079 0.
0.614008 0.0190072 0.
0.61601 0.0190064 0.
0.618011 0.0190058 0.
0.620013 0.0190053 0.
0.622015 0.0190048 0.
0.624016 0.0190039 0.
0.626017 0.0190029 0.
0.628018 0.0190019 0.
0.630021 0.0190009 0.
0.632023 0.0189999 0.
0.634026 0.0189988 0.
0.636029 0.0189975 0.
0.638032 0.0189962 0.
0.640036 0.018994 0.
0.642042 0.018991 0.
0.644047 0.018988 0.
0.646056 0.0189829 0.
0.648065 0.0189773 0.
0.650074 0.0189713 0.
0.652099 0.0189555 0.
0.654123 0.0189397 0.
0.656158 0.0189171 0.
0.658219 0.0188769 0.
0.66028 0.0188368 0.
0.662362 0.018796 0.
0.664461 0.0187529 0.
0.66656 0.0187099 0.
0.668786 0.0185633 0.
0.671027 0.0184087 0.
0.673298 0.0182419 0.
0.675671 0.0179752 0.
0.678039 0.0177115 0.
0.680595 0.0173454 0.
0.68319 0.0169846 0.
0.685869 0.016477 0.
0.688643 0.0158172 0.
0.691523 0.0151177 0.
0.694535 0.0143637 0.
0.697661 0.0134807 0.
0.700921 0.0125104 0.
0.704271 0.011245 0.
0.707714 0.00967022 0.
0.711317 0.00808301 0.
0.486276 0.00886982 0.
0.489762 0.0103555 0.
0.493153 0.0120262 0.
0.496437 0.0134904 0.
0.499692 0.0147129 0.
0.502871 0.015736 0.
0.505913 0.0166115 0.
0.508845 0.0172934 0.
0.51164 0.0178993 0.
0.514344 0.0185063 0.
0.516952 0.018986 0.
0.519482 0.019368 0.
0.521986 0.0197508 0.
0.524371 0.0200034 0.
0.526762 0.020261 0.
0.529028 0.0204182 0.
0.531252 0.0205577 0.
0.53346 0.02069 0.
0.535552 0.0207369 0.
0.537646 0.0207841 0.
0.539723 0.0208277 0.
0.541782 0.0208684 0.
0.543842 0.0209094 0.
0.545876 0.0209331 0.
0.5479 0.0209503 0.
0.549924 0.0209675 0.
0.551934 0.0209744 0.
0.553943 0.0209811 0.
0.555952 0.020987 0.
0.557958 0.0209904 0.
0.559964 0.0209937 0.
0.561968 0.0209962 0.
0.563972 0.0209976 0.
0.565975 0.020999 0.
0.567978 0.0210001 0.
0.56998 0.021001 0.
0.571983 0.0210019 0.
0.573984 0.0210031 0.
0.575985 0.0210043 0.
0.577987 0.0210054 0.
0.579989 0.0210058 0.
0.58199 0.0210062 0.
0.583992 0.0210067 0.
0.585994 0.0210074 0.
0.587995 0.0210082 0.
0.589996 0.0210086 0.
0.591997 0.0210087 0.
0.593999 0.0210088 0.
0.595999 0.0210093 0.
0.598 0.02101 0.
0.6 0.0210106 0.
0.602002 0.0210102 0.
0.604003 0.0210099 0.
0.606004 0.0210094 0.
0.608005 0.0210088 0.
0.610007 0.0210082 0.
0.612008 0.0210076 0.
0.61401 0.0210068 0.
0.616011 0.021006 0.
0.618013 0.0210053 0.
0.620015 0.0210047 0.
0.622017 0.0210041 0.
0.624018 0.021003 0.
0.626019 0.0210019 0.
0.628021 0.0210008 0.
0.630024 0.0209995 0.
0.632026 0.0209983 0.
0.63403 0.0209968 0.
0.636033 0.020995 0.
0.638037 0.0209931 0.
0.640043 0.0209897 0.
0.642051 0.0209854 0.
0.644058 0.020981 0.
0.64607 0.0209729 0.
0.648083 0.020964 0.
0.650096 0.0209546 0.
0.652131 0.0209313 0.
0.654165 0.0209082 0.
0.656212 0.0208764 0.
0.658289 0.020823 0.
0.660367 0.0207699 0.
0.662473 0.0207156 0.
0.6646 0.0206593 0.
0.666725 0.0206037 0.
0.669006 0.020399 0.
0.671296 0.0201904 0.
0.673628 0.0199742 0.
0.67605 0.0196787 0.
0.678484 0.0193689 0.
0.6811 0.0189071 0.
0.683741 0.0184578 0.
0.686476 0.0178461 0.
0.689269 0.0171269 0.
0.692171 0.0163468 0.
0.695176 0.0155233 0.
0.698297 0.014587 0.
0.701516 0.0135555 0.
0.704796 0.0122553 0.
0.708157 0.0107333 0.
0.711628 0.00924182 0.
0.48601 0.0101338 0.
0.48938 0.0114795 0.
0.492695 0.0130748 0.
0.495938 0.0145481 0.
0.499166 0.0158167 0.
0.502307 0.0168834 0.
0.505348 0.0178548 0.
0.508285 0.0186117 0.
0.511129 0.0192876 0.
0.513865 0.019942 0.
0.516526 0.0204943 0.
0.519095 0.020919 0.
0.521645 0.0213443 0.
0.524067 0.0216533 0.
0.526486 0.0219692 0.
0.528798 0.0221958 0.
0.531057 0.0223958 0.
0.533308 0.0225908 0.
0.535426 0.0226473 0.
0.537545 0.022704 0.
0.539645 0.022759 0.
0.541717 0.0228135 0.
0.54379 0.0228684 0.
0.545835 0.0229019 0.
0.547869 0.0229266 0.
0.549903 0.0229513 0.
0.551917 0.0229615 0.
0.55393 0.0229711 0.
0.555942 0.0229798 0.
0.557949 0.0229845 0.
0.559957 0.0229893 0.
0.561963 0.0229928 0.
0.563967 0.0229948 0.
0.565971 0.0229967 0.
0.567975 0.0229981 0.
0.569978 0.0229992 0.
0.571981 0.0230004 0.
0.573982 0.0230016 0.
0.575984 0.0230029 0.
0.577985 0.0230041 0.
0.579987 0.0230047 0.
0.581989 0.0230052 0.
0.583991 0.0230059 0.
0.585992 0.0230067 0.
0.587994 0.0230075 0.
0.589996 0.023008 0.
0.591997 0.0230082 0.
0.593998 0.0230085 0.
0.595999 0.023009 0.
0.598 0.0230097 0.
0.6 0.0230103 0.
0.602002 0.0230099 0.
0.604003 0.0230095 0.
0.606005 0.023009 0.
0.608006 0.0230082 0.
0.610008 0.0230074 0.
0.612009 0.0230066 0.
0.614011 0.0230058 0.
0.616013 0.023005 0.
0.618015 0.0230043 0.
0.620017 0.0230035 0.
0.622019 0.0230027 0.
0.62402 0.0230016 0.
0.626022 0.0230004 0.
0.628023 0.0229992 0.
0.630027 0.0229975 0.
0.63203 0.0229959 0.
0.634034 0.0229939 0.
0.636039 0.0229913 0.
0.638044 0.0229888 0.
0.640052 0.0229841 0.
0.642061 0.0229778 0.
0.644071 0.0229716 0.
0.646088 0.0229596 0.
0.648106 0.0229463 0.
0.650125 0.0229321 0.
0.652172 0.0228992 0.
0.654219 0.0228665 0.
0.65628 0.022823 0.
0.658373 0.0227547 0.
0.660466 0.0226869 0.
0.662603 0.0226111 0.
0.664765 0.022531 0.
0.666931 0.0224469 0.
0.669247 0.0221769 0.
0.671566 0.0219065 0.
0.673946 0.0216235 0.
0.676405 0.021279 0.
0.678887 0.020911 0.
0.681529 0.0204003 0.
0.684206 0.0198859 0.
0.686981 0.0192066 0.
0.689807 0.0184285 0.
0.692719 0.0175842 0.
0.695716 0.0167008 0.
0.698817 0.0157273 0.
0.702007 0.0146468 0.
0.705235 0.0133327 0.
0.708517 0.0118756 0.
0.71189 0.0105074 0.
0.485878 0.0115028 0.
0.48912 0.0127053 0.
0.492347 0.0142063 0.
0.495553 0.0156637 0.
0.498724 0.0169501 0.
0.501823 0.018052 0.
0.504838 0.0190824 0.
0.507781 0.0199039 0.
0.510654 0.020637 0.
0.513404 0.0213367 0.
0.516096 0.0219619 0.
0.518704 0.0224434 0.
0.521295 0.0229226 0.
0.523758 0.0232934 0.
0.526205 0.0236682 0.
0.528563 0.0239666 0.
0.530859 0.0242279 0.
0.533152 0.0244882 0.
0.535298 0.0245571 0.
0.537443 0.0246235 0.
0.539566 0.0246896 0.
0.541652 0.0247581 0.
0.543739 0.0248271 0.
0.545795 0.0248706 0.
0.547838 0.0249028 0.
0.549881 0.0249351 0.
0.551899 0.0249486 0.
0.553916 0.0249611 0.
0.555931 0.0249725 0.
0.557941 0.0249787 0.
0.55995 0.0249848 0.
0.561958 0.0249894 0.
0.563963 0.0249919 0.
0.565968 0.0249943 0.
0.567972 0.0249961 0.
0.569975 0.0249975 0.
0.571979 0.0249989 0.
0.57398 0.0250002 0.
0.575982 0.0250015 0.
0.577983 0.0250028 0.
0.579985 0.0250035 0.
0.581987 0.0250043 0.
0.583989 0.0250051 0.
0.585991 0.0250059 0.
0.587993 0.0250068 0.
0.589995 0.0250074 0.
0.591996 0.0250078 0.
0.593998 0.0250082 0.
0.595999 0.0250087 0.
0.598 0.0250093 0.
0.600001 0.02501 0.
0.602002 0.0250095 0.
0.604004 0.0250091 0.
0.606006 0.0250086 0.
0.608007 0.0250076 0.
0.610009 0.0250065 0.
0.612011 0.0250056 0.
0.614013 0.0250048 0.
0.616015 0.025004 0.
0.618017 0.0250032 0.
0.620019 0.0250023 0.
0.622021 0.0250014 0.
0.624023 0.0250002 0.
0.626024 0.0249989 0.
0.628026 0.0249976 0.
0.63003 0.0249955 0.
0.632034 0.0249935 0.
0.634039 0.024991 0.
0.636044 0.0249877 0.
0.63805 0.0249845 0.
0.64006 0.0249784 0.
0.642072 0.0249703 0.
0.644084 0.0249622 0.
0.646105 0.0249463 0.
0.648128 0.0249285 0.
0.650154 0.0249094 0.
0.652213 0.0248669 0.
0.654273 0.0248246 0.
0.656348 0.0247691 0.
0.658457 0.0246858 0.
0.660566 0.0246032 0.
0.662736 0.0245045 0.
0.664934 0.0244001 0.
0.667142 0.0242838 0.
0.669492 0.0239481 0.
0.671841 0.0236154 0.
0.674272 0.0232638 0.
0.676771 0.0228651 0.
0.679302 0.0224205 0.
0.681963 0.0218462 0.
0.684662 0.0212589 0.
0.687447 0.020537 0.
0.690289 0.0197164 0.
0.693208 0.0188201 0.
0.696195 0.0178936 0.
0.699258 0.0168963 0.
0.702394 0.0157883 0.
0.705577 0.0144809 0.
0.708787 0.0130932 0.
0.712052 0.0118463 0.
0.485872 0.012959 0.
0.488987 0.0140292 0.
0.49213 0.0154351 0.
0.495259 0.0168438 0.
0.498353 0.0181269 0.
0.50141 0.0192543 0.
0.504405 0.0203158 0.
0.507325 0.0211876 0.
0.510193 0.0219763 0.
0.512956 0.0227262 0.
0.515669 0.0234161 0.
0.51831 0.0239592 0.
0.520932 0.0244807 0.
0.523429 0.0249028 0.
0.525887 0.0253239 0.
0.528276 0.0256839 0.
0.530591 0.0259833 0.
0.532905 0.026282 0.
0.535096 0.0263901 0.
0.53728 0.0264903 0.
0.539438 0.0265856 0.
0.541542 0.0266661 0.
0.543647 0.0267471 0.
0.545721 0.0268047 0.
0.54778 0.0268515 0.
0.54984 0.0268987 0.
0.551866 0.0269196 0.
0.553889 0.0269388 0.
0.555911 0.0269562 0.
0.557924 0.0269651 0.
0.559938 0.0269739 0.
0.561949 0.0269809 0.
0.563956 0.0269852 0.
0.565963 0.0269895 0.
0.567968 0.0269925 0.
0.569972 0.0269947 0.
0.571976 0.026997 0.
0.573978 0.0269986 0.
0.575979 0.0270001 0.
0.577981 0.0270016 0.
0.579983 0.0270025 0.
0.581986 0.0270033 0.
0.583988 0.0270042 0.
0.58599 0.0270052 0.
0.587992 0.0270061 0.
0.589994 0.0270069 0.
0.591996 0.0270074 0.
0.593997 0.0270079 0.
0.595999 0.0270086 0.
0.598 0.0270093 0.
0.600001 0.02701 0.
0.602002 0.0270093 0.
0.604004 0.0270086 0.
0.606006 0.0270079 0.
0.608008 0.0270069 0.
0.61001 0.0270059 0.
0.612012 0.0270049 0.
0.614014 0.027004 0.
0.616016 0.027003 0.
0.618019 0.0270021 0.
0.620021 0.0270011 0.
0.622023 0.0270001 0.
0.624025 0.0269984 0.
0.626027 0.0269967 0.
0.628029 0.0269948 0.
0.630034 0.0269918 0.
0.632039 0.0269888 0.
0.634045 0.0269848 0.
0.636054 0.0269791 0.
0.638063 0.0269733 0.
0.640077 0.0269641 0.
0.642094 0.0269526 0.
0.644112 0.026941 0.
0.646141 0.026917 0.
0.648173 0.0268903 0.
0.650208 0.0268613 0.
0.652289 0.0268004 0.
0.654368 0.0267403 0.
0.656467 0.0266676 0.
0.6586 0.0265702 0.
0.660732 0.0264737 0.
0.662935 0.0263381 0.
0.665166 0.0261941 0.
0.667415 0.0260288 0.
0.669785 0.0256557 0.
0.672153 0.0252847 0.
0.674624 0.0248775 0.
0.67715 0.0244329 0.
0.679719 0.0239143 0.
0.68239 0.0232838 0.
0.685104 0.0226298 0.
0.687887 0.0218617 0.
0.690719 0.0210017 0.
0.693623 0.0200749 0.
0.696585 0.0191176 0.
0.699617 0.0181065 0.
0.702698 0.0169842 0.
0.705808 0.0157123 0.
0.708938 0.0144113 0.
0.712079 0.0132837 0.
0.485957 0.0144982 0.
0.488938 0.0154598 0.
0.491972 0.0167419 0.
0.495014 0.0180807 0.
0.498053 0.0193471 0.
0.501062 0.0204894 0.
0.504012 0.0215622 0.
0.506905 0.0224809 0.
0.509759 0.023316 0.
0.512528 0.024106 0.
0.515248 0.0248373 0.
0.5179 0.0254271 0.
0.520527 0.0259842 0.
0.52305 0.0264623 0.
0.525526 0.0269371 0.
0.527953 0.0273672 0.
0.530291 0.0277055 0.
0.532631 0.0280449 0.
0.534872 0.0282027 0.
0.537101 0.0283451 0.
0.539303 0.0284776 0.
0.541427 0.0285707 0.
0.543551 0.0286643 0.
0.545644 0.0287367 0.
0.547721 0.0287988 0.
0.549798 0.0288615 0.
0.551832 0.0288902 0.
0.553862 0.0289162 0.
0.55589 0.0289398 0.
0.557908 0.0289514 0.
0.559926 0.028963 0.
0.56194 0.0289723 0.
0.563949 0.0289785 0.
0.565958 0.0289847 0.
0.567964 0.0289888 0.
0.569968 0.0289919 0.
0.571973 0.028995 0.
0.573975 0.028997 0.
0.575977 0.0289988 0.
0.577979 0.0290005 0.
0.579982 0.0290014 0.
0.581984 0.0290023 0.
0.583987 0.0290033 0.
0.585989 0.0290044 0.
0.587991 0.0290055 0.
0.589993 0.0290064 0.
0.591995 0.029007 0.
0.593997 0.0290077 0.
0.595998 0.0290084 0.
0.597999 0.0290092 0.
0.600001 0.02901 0.
0.602003 0.029009 0.
0.604005 0.0290081 0.
0.606007 0.0290071 0.
0.608009 0.0290062 0.
0.610011 0.0290053 0.
0.612013 0.0290042 0.
0.614015 0.0290031 0.
0.616018 0.029002 0.
0.61802 0.029001 0.
0.620023 0.0289999 0.
0.622026 0.0289989 0.
0.624028 0.0289967 0.
0.62603 0.0289945 0.
0.628033 0.0289921 0.
0.630038 0.0289881 0.
0.632044 0.0289842 0.
0.634052 0.0289787 0.
0.636063 0.0289703 0.
0.638075 0.028962 0.
0.640093 0.0289497 0.
0.642116 0.0289346 0.
0.64414 0.0289196 0.
0.646177 0.0288872 0.
0.648218 0.0288514 0.
0.650264 0.0288118 0.
0.652366 0.0287317 0.
0.654467 0.0286525 0.
0.656592 0.0285614 0.
0.658753 0.0284483 0.
0.660912 0.0283362 0.
0.663154 0.0281544 0.
0.665418 0.027963 0.
0.667713 0.0277402 0.
0.670111 0.0273266 0.
0.672506 0.0269156 0.
0.675009 0.0264424 0.
0.677546 0.0259497 0.
0.680139 0.0253682 0.
0.682814 0.0246981 0.
0.685531 0.0239918 0.
0.688301 0.02319 0.
0.691118 0.0222999 0.
0.693994 0.0213554 0.
0.696917 0.0203834 0.
0.6999 0.0193614 0.
0.702922 0.0182363 0.
0.705963 0.0170144 0.
0.708998 0.0158248 0.
0.712014 0.0148251 0.
0.48607 0.0161136 0.
0.488916 0.0169554 0.
0.491848 0.0181083 0.
0.494819 0.0193692 0.
0.497796 0.0206105 0.
0.500747 0.0217499 0.
0.503658 0.0228278 0.
0.506527 0.0237834 0.
0.509357 0.0246518 0.
0.512121 0.025468 0.
0.514836 0.0262276 0.
0.517492 0.0268744 0.
0.520123 0.027477 0.
0.522675 0.0280124 0.
0.525171 0.0285403 0.
0.527636 0.0290443 0.
0.529999 0.0294203 0.
0.532365 0.0297956 0.
0.534653 0.03 0.
0.536923 0.0301846 0.
0.539166 0.0303587 0.
0.541307 0.0304631 0.
0.543449 0.0305682 0.
0.545561 0.0306556 0.
0.547654 0.0307349 0.
0.549747 0.0308153 0.
0.551791 0.0308536 0.
0.553829 0.0308878 0.
0.555865 0.0309188 0.
0.557887 0.0309337 0.
0.55991 0.0309487 0.
0.561928 0.030961 0.
0.563939 0.0309695 0.
0.565951 0.030978 0.
0.567959 0.0309838 0.
0.569964 0.0309881 0.
0.57197 0.0309924 0.
0.573973 0.0309947 0.
0.575975 0.0309968 0.
0.577977 0.0309988 0.
0.57998 0.0309999 0.
0.581983 0.0310009 0.
0.583985 0.031002 0.
0.585988 0.0310033 0.
0.58799 0.0310045 0.
0.589993 0.0310054 0.
0.591995 0.0310062 0.
0.593997 0.031007 0.
0.595998 0.0310077 0.
0.597999 0.0310085 0.
0.600001 0.0310093 0.
0.602003 0.0310082 0.
0.604005 0.0310071 0.
0.606008 0.0310061 0.
0.60801 0.0310051 0.
0.610012 0.0310042 0.
0.612014 0.0310031 0.
0.614017 0.031002 0.
0.616019 0.0310008 0.
0.618022 0.0309995 0.
0.620025 0.0309982 0.
0.622028 0.030997 0.
0.624031 0.0309943 0.
0.626034 0.0309915 0.
0.628037 0.0309884 0.
0.630044 0.030983 0.
0.632051 0.0309776 0.
0.634061 0.03097 0.
0.636076 0.0309587 0.
0.638091 0.0309474 0.
0.640114 0.0309313 0.
0.642144 0.0309118 0.
0.644173 0.0308923 0.
0.646221 0.0308501 0.
0.648272 0.0308038 0.
0.650331 0.0307517 0.
0.652451 0.0306504 0.
0.65457 0.0305507 0.
0.656718 0.0304412 0.
0.658905 0.0303139 0.
0.66109 0.0301881 0.
0.663368 0.0299577 0.
0.665664 0.0297196 0.
0.668004 0.0294424 0.
0.670431 0.0289911 0.
0.672859 0.0285366 0.
0.675388 0.0279972 0.
0.677937 0.0274505 0.
0.680546 0.026806 0.
0.683215 0.0261008 0.
0.685933 0.0253502 0.
0.688696 0.0245212 0.
0.691489 0.0236076 0.
0.694328 0.0226526 0.
0.697212 0.0216729 0.
0.700142 0.0206524 0.
0.703103 0.0195351 0.
0.706072 0.0183706 0.
0.709018 0.017298 0.
0.711908 0.0164319 0.
0.486171 0.0177782 0.
0.488908 0.0185071 0.
0.491756 0.0195405 0.
0.494662 0.0207211 0.
0.497578 0.0219207 0.
0.500484 0.0230512 0.
0.503359 0.0241297 0.
0.506199 0.0251131 0.
0.509007 0.0260054 0.
0.511758 0.026843 0.
0.514466 0.0276288 0.
0.517129 0.0283227 0.
0.519768 0.0289641 0.
0.52235 0.0295515 0.
0.524869 0.0301208 0.
0.527359 0.0306686 0.
0.529748 0.0310744 0.
0.532141 0.0314778 0.
0.534456 0.0317382 0.
0.536746 0.031981 0.
0.539015 0.0322133 0.
0.541175 0.0323308 0.
0.543336 0.0324492 0.
0.545467 0.0325546 0.
0.547576 0.0326557 0.
0.549687 0.032758 0.
0.551742 0.0328085 0.
0.55379 0.0328525 0.
0.555835 0.0328926 0.
0.557862 0.0329117 0.
0.55989 0.0329309 0.
0.561913 0.0329468 0.
0.563927 0.0329581 0.
0.565942 0.0329694 0.
0.567952 0.0329772 0.
0.569959 0.0329831 0.
0.571966 0.0329891 0.
0.573969 0.0329919 0.
0.575972 0.0329943 0.
0.577975 0.0329967 0.
0.579978 0.032998 0.
0.581981 0.0329993 0.
0.583984 0.0330005 0.
0.585987 0.0330018 0.
0.587989 0.033003 0.
0.589992 0.033004 0.
0.591994 0.0330049 0.
0.593996 0.0330059 0.
0.595998 0.0330066 0.
0.597999 0.0330073 0.
0.600001 0.0330079 0.
0.602003 0.0330069 0.
0.604006 0.0330058 0.
0.606008 0.0330048 0.
0.608011 0.0330038 0.
0.610013 0.0330027 0.
0.612015 0.0330016 0.
0.614018 0.0330004 0.
0.616021 0.0329992 0.
0.618024 0.0329977 0.
0.620027 0.0329961 0.
0.62203 0.0329945 0.
0.624034 0.0329912 0.
0.626038 0.0329878 0.
0.628042 0.0329839 0.
0.630051 0.0329764 0.
0.63206 0.032969 0.
0.634073 0.0329589 0.
0.636092 0.032944 0.
0.638111 0.0329292 0.
0.640141 0.0329083 0.
0.642176 0.0328833 0.
0.644212 0.0328584 0.
0.646273 0.0328042 0.
0.648338 0.0327453 0.
0.650412 0.0326774 0.
0.652545 0.0325503 0.
0.654678 0.0324252 0.
0.656847 0.0322931 0.
0.659054 0.0321476 0.
0.66126 0.0320023 0.
0.663573 0.0317107 0.
0.665898 0.0314161 0.
0.668265 0.0310828 0.
0.670707 0.0306064 0.
0.67316 0.030123 0.
0.675708 0.029541 0.
0.678278 0.0289411 0.
0.680904 0.0282475 0.
0.683573 0.0275108 0.
0.686285 0.0267228 0.
0.689031 0.0258724 0.
0.691816 0.0249436 0.
0.694632 0.023982 0.
0.697471 0.0229991 0.
0.700345 0.0219829 0.
0.703245 0.0208923 0.
0.706148 0.0197902 0.
0.709016 0.0188249 0.
0.711805 0.0180785 0.
0.486314 0.0194882 0.
0.48897 0.0201236 0.
0.491737 0.0210444 0.
0.494569 0.0221318 0.
0.497423 0.0232806 0.
0.500275 0.0243964 0.
0.503114 0.0254716 0.
0.50592 0.0264676 0.
0.508697 0.0273757 0.
0.511435 0.028232 0.
0.514138 0.0290372 0.
0.516804 0.0297688 0.
0.519447 0.0304406 0.
0.522041 0.0310624 0.
0.524568 0.0316662 0.
0.527071 0.0322597 0.
0.529491 0.032713 0.
0.531912 0.0331542 0.
0.534258 0.0334701 0.
0.536567 0.0337714 0.
0.538863 0.034067 0.
0.541041 0.0341979 0.
0.543221 0.0343297 0.
0.545371 0.0344525 0.
0.547498 0.0345755 0.
0.549625 0.0347 0.
0.551692 0.0347631 0.
0.55375 0.034817 0.
0.555804 0.0348664 0.
0.557837 0.0348897 0.
0.55987 0.0349131 0.
0.561897 0.0349326 0.
0.563915 0.0349467 0.
0.565933 0.0349608 0.
0.567945 0.0349707 0.
0.569953 0.0349782 0.
0.571962 0.0349857 0.
0.573966 0.0349891 0.
0.57597 0.0349919 0.
0.577974 0.0349945 0.
0.579977 0.034996 0.
0.58198 0.0349976 0.
0.583983 0.034999 0.
0.585986 0.0350003 0.
0.587989 0.0350015 0.
0.589991 0.0350026 0.
0.591993 0.0350037 0.
0.593995 0.0350047 0.
0.595997 0.0350054 0.
0.597999 0.035006 0.
0.600001 0.0350066 0.
0.602004 0.0350055 0.
0.604007 0.0350045 0.
0.606009 0.0350034 0.
0.608011 0.0350024 0.
0.610014 0.0350013 0.
0.612016 0.0350001 0.
0.614019 0.0349989 0.
0.616022 0.0349977 0.
0.618025 0.0349959 0.
0.620029 0.0349939 0.
0.622032 0.0349919 0.
0.624037 0.0349881 0.
0.626042 0.0349841 0.
0.628048 0.0349794 0.
0.630058 0.0349699 0.
0.632069 0.0349604 0.
0.634084 0.0349477 0.
0.636108 0.0349293 0.
0.638132 0.0349109 0.
0.640167 0.0348853 0.
0.642209 0.0348548 0.
0.644251 0.0348245 0.
0.646326 0.034758 0.
0.648404 0.0346864 0.
0.650493 0.034602 0.
0.65264 0.034449 0.
0.654787 0.0342982 0.
0.656977 0.0341437 0.
0.659205 0.0339799 0.
0.661434 0.0338115 0.
0.663783 0.0334574 0.
0.666137 0.0331045 0.
0.668534 0.032711 0.
0.670992 0.0321952 0.
0.673466 0.0316654 0.
0.676017 0.0310467 0.
0.678592 0.0304124 0.
0.681222 0.0296911 0.
0.68389 0.0289276 0.
0.686594 0.0281103 0.
0.689326 0.0272402 0.
0.692086 0.0263034 0.
0.694874 0.025343 0.
0.697683 0.0243639 0.
0.700505 0.0233588 0.
0.703337 0.022303 0.
0.706165 0.0212751 0.
0.708954 0.0204059 0.
0.711655 0.0197589 0.
0.486518 0.0212242 0.
0.489098 0.0217871 0.
0.491778 0.0226039 0.
0.494537 0.0236 0.
0.497329 0.0246955 0.
0.500135 0.0257877 0.
0.502929 0.0268504 0.
0.505697 0.027851 0.
0.508445 0.0287705 0.
0.511167 0.0296429 0.
0.513862 0.0304616 0.
0.516522 0.031221 0.
0.51915 0.0319175 0.
0.521742 0.0325722 0.
0.524274 0.033212 0.
0.526785 0.0338468 0.
0.52923 0.0343436 0.
0.53167 0.0348152 0.
0.534038 0.0351793 0.
0.536358 0.035527 0.
0.53867 0.0358708 0.
0.54087 0.0360218 0.
0.54307 0.0361717 0.
0.545242 0.0363153 0.
0.547385 0.0364584 0.
0.549528 0.0366033 0.
0.551613 0.0366856 0.
0.553687 0.0367569 0.
0.555758 0.036823 0.
0.557797 0.0368515 0.
0.559837 0.03688 0.
0.561871 0.036905 0.
0.563894 0.0369246 0.
0.565918 0.0369443 0.
0.567933 0.036958 0.
0.569944 0.0369681 0.
0.571955 0.0369782 0.
0.573961 0.036983 0.
0.575966 0.0369869 0.
0.577971 0.0369907 0.
0.579975 0.0369929 0.
0.581978 0.0369951 0.
0.583982 0.0369971 0.
0.585985 0.0369986 0.
0.587988 0.0370001 0.
0.589991 0.0370015 0.
0.591993 0.0370026 0.
0.593995 0.0370038 0.
0.595997 0.0370043 0.
0.597999 0.0370048 0.
0.600001 0.0370052 0.
0.602004 0.0370042 0.
0.604007 0.0370032 0.
0.606009 0.0370022 0.
0.608012 0.0370011 0.
0.610014 0.0369999 0.
0.612017 0.0369985 0.
0.61402 0.0369968 0.
0.616023 0.0369951 0.
0.618028 0.0369927 0.
0.620032 0.0369898 0.
0.622036 0.036987 0.
0.624043 0.0369817 0.
0.626049 0.0369762 0.
0.628057 0.0369697 0.
0.630071 0.0369567 0.
0.632085 0.0369438 0.
0.634105 0.0369262 0.
0.636136 0.0369005 0.
0.638167 0.0368749 0.
0.64021 0.0368429 0.
0.642261 0.036807 0.
0.644311 0.0367711 0.
0.646404 0.0366825 0.
0.648501 0.0365885 0.
0.650609 0.0364816 0.
0.652773 0.0363112 0.
0.654934 0.0361422 0.
0.657145 0.0359603 0.
0.65939 0.0357709 0.
0.661642 0.0355722 0.
0.66401 0.0351752 0.
0.666386 0.0347776 0.
0.668808 0.0343286 0.
0.671276 0.0337792 0.
0.673765 0.0332079 0.
0.676315 0.0325533 0.
0.678889 0.0318797 0.
0.681511 0.0311368 0.
0.684161 0.0303575 0.
0.686845 0.0295209 0.
0.689561 0.028636 0.
0.692299 0.0276954 0.
0.695054 0.0267389 0.
0.69782 0.0257721 0.
0.700597 0.024785 0.
0.70337 0.0237692 0.
0.706124 0.0228105 0.
0.708834 0.0220307 0.
0.711459 0.0214676 0.
0.486753 0.0229884 0.
0.489262 0.0234913 0.
0.491866 0.0242186 0.
0.494557 0.0251346 0.
0.497292 0.0261673 0.
0.500044 0.0272211 0.
0.502792 0.0282662 0.
0.505527 0.029268 0.
0.508251 0.0301941 0.
0.510951 0.0310736 0.
0.513622 0.0319006 0.
0.516264 0.032681 0.
0.518875 0.0333986 0.
0.521456 0.0340813 0.
0.523985 0.0347452 0.
0.526497 0.0354009 0.
0.52895 0.0359394 0.
0.531393 0.0364471 0.
0.533781 0.0368608 0.
0.536116 0.0372485 0.
0.538447 0.0376365 0.
0.540677 0.0378223 0.
0.542904 0.0379991 0.
0.545103 0.0381693 0.
0.547263 0.038334 0.
0.549425 0.0385008 0.
0.55153 0.0386043 0.
0.553622 0.0386944 0.
0.555711 0.0387787 0.
0.557757 0.0388125 0.
0.559804 0.0388465 0.
0.561844 0.038877 0.
0.563873 0.0389023 0.
0.565903 0.0389278 0.
0.567922 0.0389452 0.
0.569935 0.0389579 0.
0.571949 0.0389707 0.
0.573956 0.0389768 0.
0.575962 0.038982 0.
0.577968 0.0389869 0.
0.579972 0.0389898 0.
0.581977 0.0389926 0.
0.583981 0.0389952 0.
0.585984 0.038997 0.
0.587987 0.0389988 0.
0.58999 0.0390003 0.
0.591993 0.0390015 0.
0.593995 0.0390028 0.
0.595997 0.0390033 0.
0.597999 0.0390036 0.
0.600001 0.0390038 0.
0.602004 0.0390029 0.
0.604007 0.039002 0.
0.606009 0.039001 0.
0.608012 0.0389998 0.
0.610015 0.0389986 0.
0.612018 0.038997 0.
0.614022 0.0389948 0.
0.616025 0.0389926 0.
0.61803 0.0389894 0.
0.620035 0.0389858 0.
0.622041 0.0389821 0.
0.624048 0.0389753 0.
0.626056 0.0389682 0.
0.628066 0.0389599 0.
0.630083 0.0389435 0.
0.632101 0.0389271 0.
0.634126 0.0389044 0.
0.636165 0.0388712 0.
0.638204 0.0388381 0.
0.640255 0.0387998 0.
0.642313 0.0387581 0.
0.644372 0.0387165 0.
0.646486 0.0386032 0.
0.648603 0.0384845 0.
0.650733 0.038353 0.
0.652916 0.0381645 0.
0.655097 0.0379777 0.
0.657335 0.0377586 0.
0.659603 0.0375297 0.
0.661882 0.0372834 0.
0.664261 0.0368454 0.
0.666645 0.0364103 0.
0.669082 0.0359212 0.
0.671555 0.0353459 0.
0.674053 0.0347378 0.
0.6766 0.0340572 0.
0.679166 0.0333536 0.
0.681773 0.0325934 0.
0.684404 0.0318011 0.
0.68706 0.0309558 0.
0.689745 0.0300635 0.
0.692454 0.0291225 0.
0.695179 0.0281717 0.
0.697907 0.0272195 0.
0.700636 0.0262599 0.
0.703353 0.025293 0.
0.706042 0.0244028 0.
0.708679 0.0236958 0.
0.711236 0.0232009 0.
0.486991 0.0247782 0.
0.489442 0.0252296 0.
0.491979 0.0258798 0.
0.494605 0.0267151 0.
0.497281 0.0276776 0.
0.499983 0.02869 0.
0.502694 0.0297162 0.
0.505397 0.0307117 0.
0.508086 0.0316358 0.
0.510754 0.0325189 0.
0.513399 0.033353 0.
0.516024 0.0341495 0.
0.518619 0.0348841 0.
0.521186 0.035587 0.
0.52371 0.0362686 0.
0.526217 0.0369431 0.
0.528674 0.0375264 0.
0.531121 0.0380734 0.
0.533527 0.0385385 0.
0.535878 0.0389663 0.
0.538227 0.0393971 0.
0.540489 0.0396181 0.
0.542742 0.0398206 0.
0.544968 0.0400173 0.
0.547144 0.0402011 0.
0.549322 0.0403864 0.
0.551444 0.0405115 0.
0.553554 0.040623 0.
0.555659 0.0407292 0.
0.557712 0.0407682 0.
0.559766 0.0408073 0.
0.561812 0.0408435 0.
0.563848 0.0408753 0.
0.565883 0.0409072 0.
0.567907 0.0409291 0.
0.569923 0.0409451 0.
0.57194 0.0409611 0.
0.573949 0.040969 0.
0.575957 0.0409757 0.
0.577964 0.0409821 0.
0.579969 0.0409857 0.
0.581975 0.0409893 0.
0.583979 0.0409925 0.
0.585983 0.0409947 0.
0.587986 0.0409969 0.
0.58999 0.0409986 0.
0.591992 0.041 0.
0.593995 0.0410014 0.
0.595997 0.0410019 0.
0.597999 0.0410021 0.
0.600002 0.0410024 0.
0.602004 0.0410014 0.
0.604007 0.0410004 0.
0.60601 0.0409994 0.
0.608013 0.040998 0.
0.610016 0.0409966 0.
0.612019 0.0409947 0.
0.614023 0.0409919 0.
0.616027 0.0409892 0.
0.618033 0.0409852 0.
0.62004 0.0409806 0.
0.622046 0.0409759 0.
0.624056 0.0409672 0.
0.626066 0.0409581 0.
0.628077 0.0409474 0.
0.630099 0.0409268 0.
0.632121 0.0409062 0.
0.634152 0.0408776 0.
0.636198 0.0408362 0.
0.638244 0.040795 0.
0.640303 0.0407502 0.
0.64237 0.0407029 0.
0.644436 0.0406557 0.
0.646569 0.0405146 0.
0.648705 0.0403696 0.
0.650856 0.0402144 0.
0.653057 0.0400113 0.
0.655256 0.0398096 0.
0.657521 0.0395508 0.
0.659812 0.039283 0.
0.662118 0.0389909 0.
0.664507 0.0385126 0.
0.666901 0.038038 0.
0.66935 0.0375067 0.
0.671824 0.036905 0.
0.674323 0.0362634 0.
0.676862 0.0355634 0.
0.679422 0.0348356 0.
0.682015 0.0340609 0.
0.684628 0.0332581 0.
0.68726 0.0324064 0.
0.689912 0.0315143 0.
0.692582 0.0305788 0.
0.695271 0.0296344 0.
0.697961 0.0286992 0.
0.70065 0.0277693 0.
0.703315 0.0268561 0.
0.705942 0.0260359 0.
0.708515 0.0253948 0.
0.711011 0.0249561 0.
0.487212 0.026582 0.
0.489616 0.0269861 0.
0.492097 0.0275663 0.
0.494664 0.0283283 0.
0.497289 0.0292271 0.
0.499947 0.0302009 0.
0.502617 0.0312014 0.
0.505282 0.0321813 0.
0.507937 0.0331019 0.
0.510577 0.0339881 0.
0.513203 0.0348282 0.
0.51581 0.0356353 0.
0.518388 0.0363842 0.
0.520943 0.0371048 0.
0.523464 0.0378028 0.
0.525969 0.0384935 0.
0.528432 0.0391131 0.
0.530883 0.0396946 0.
0.533305 0.0402013 0.
0.53567 0.0406512 0.
0.538032 0.0411011 0.
0.540316 0.0413638 0.
0.542589 0.0416059 0.
0.544834 0.0418408 0.
0.547023 0.0420415 0.
0.549213 0.0422439 0.
0.551353 0.042396 0.
0.553479 0.0425367 0.
0.555602 0.0426725 0.
0.557662 0.0427167 0.
0.559722 0.0427611 0.
0.561776 0.0428032 0.
0.563818 0.0428426 0.
0.56586 0.042882 0.
0.567888 0.0429095 0.
0.569909 0.0429294 0.
0.571929 0.0429494 0.
0.57394 0.0429595 0.
0.57595 0.042968 0.
0.577959 0.0429761 0.
0.579965 0.0429806 0.
0.581972 0.0429852 0.
0.583977 0.0429891 0.
0.585981 0.0429917 0.
0.587985 0.0429944 0.
0.589989 0.0429964 0.
0.591992 0.042998 0.
0.593995 0.0429995 0.
0.595997 0.0430001 0.
0.597999 0.0430004 0.
0.600002 0.0430008 0.
0.602005 0.0429997 0.
0.604007 0.0429986 0.
0.60601 0.0429974 0.
0.608013 0.0429958 0.
0.610017 0.0429941 0.
0.612021 0.0429917 0.
0.614025 0.0429883 0.
0.61603 0.0429849 0.
0.618037 0.0429799 0.
0.620045 0.0429742 0.
0.622053 0.0429685 0.
0.624065 0.0429574 0.
0.626077 0.0429457 0.
0.628092 0.042932 0.
0.630119 0.0429062 0.
0.632146 0.0428804 0.
0.634183 0.0428448 0.
0.636236 0.0427942 0.
0.638289 0.0427438 0.
0.640357 0.042692 0.
0.642432 0.0426386 0.
0.644508 0.0425848 0.
0.646657 0.0424091 0.
0.648807 0.0422307 0.
0.650977 0.0420455 0.
0.653196 0.0418224 0.
0.655411 0.0416021 0.
0.657697 0.041304 0.
0.660004 0.0409983 0.
0.662328 0.040664 0.
0.664724 0.0401622 0.
0.667125 0.0396599 0.
0.669585 0.0390947 0.
0.672063 0.0384692 0.
0.674565 0.037798 0.
0.677097 0.0370805 0.
0.679646 0.036335 0.
0.682224 0.0355507 0.
0.684824 0.0347382 0.
0.687437 0.0338808 0.
0.690063 0.0329894 0.
0.6927 0.0320617 0.
0.695349 0.0311315 0.
0.697999 0.0302175 0.
0.700646 0.0293192 0.
0.703265 0.0284546 0.
0.705838 0.0276966 0.
0.708354 0.027117 0.
0.710798 0.02673 0.
0.487443 0.0283945 0.
0.489812 0.0287592 0.
0.492246 0.0292827 0.
0.494764 0.0299849 0.
0.497337 0.0308243 0.
0.499944 0.0317524 0.
0.502568 0.0327196 0.
0.505195 0.0336805 0.
0.50782 0.0345962 0.
0.510434 0.0354827 0.
0.513033 0.0363243 0.
0.515618 0.0371362 0.
0.518179 0.0378968 0.
0.520723 0.038632 0.
0.52324 0.0393437 0.
0.525741 0.0400476 0.
0.528208 0.0406959 0.
0.530659 0.0413027 0.
0.533087 0.0418439 0.
0.535463 0.0423198 0.
0.537836 0.042795 0.
0.540141 0.0431022 0.
0.542433 0.0433867 0.
0.5447 0.0436634 0.
0.546901 0.0438812 0.
0.549104 0.0441008 0.
0.551261 0.044279 0.
0.553403 0.0444491 0.
0.555544 0.0446156 0.
0.557611 0.0446652 0.
0.559679 0.0447148 0.
0.56174 0.0447629 0.
0.563788 0.0448097 0.
0.565836 0.0448568 0.
0.567869 0.0448898 0.
0.569894 0.0449137 0.
0.571918 0.0449377 0.
0.573931 0.04495 0.
0.575943 0.0449603 0.
0.577954 0.0449702 0.
0.579961 0.0449756 0.
0.581969 0.044981 0.
0.583975 0.0449857 0.
0.58598 0.0449888 0.
0.587984 0.0449919 0.
0.589988 0.0449942 0.
0.591991 0.0449959 0.
0.593994 0.0449976 0.
0.595997 0.0449983 0.
0.597999 0.0449988 0.
0.600002 0.0449992 0.
0.602005 0.044998 0.
0.604008 0.0449968 0.
0.606011 0.0449955 0.
0.608014 0.0449935 0.
0.610018 0.0449916 0.
0.612022 0.0449887 0.
0.614028 0.0449846 0.
0.616033 0.0449806 0.
0.618041 0.0449746 0.
0.620051 0.0449678 0.
0.62206 0.044961 0.
0.624074 0.0449475 0.
0.626089 0.0449333 0.
0.628106 0.0449166 0.
0.630139 0.0448855 0.
0.632171 0.0448545 0.
0.634214 0.0448119 0.
0.636275 0.044752 0.
0.638335 0.0446924 0.
0.640411 0.0446336 0.
0.642495 0.0445742 0.
0.64458 0.0445125 0.
0.646745 0.044302 0.
0.648911 0.0440899 0.
0.6511 0.0438754 0.
0.653336 0.0436322 0.
0.655568 0.0433921 0.
0.657875 0.0430495 0.
0.6602 0.0427039 0.
0.662542 0.0423261 0.
0.664941 0.041796 0.
0.667347 0.0412641 0.
0.669804 0.0406761 0.
0.672281 0.0400345 0.
0.674785 0.0393388 0.
0.677311 0.0386055 0.
0.679849 0.037846 0.
0.682409 0.0370559 0.
0.684985 0.0362412 0.
0.687577 0.0353829 0.
0.690181 0.0344928 0.
0.692785 0.0335744 0.
0.695399 0.0326595 0.
0.698006 0.0317718 0.
0.700603 0.0309115 0.
0.703174 0.030096 0.
0.705697 0.0293925 0.
0.708168 0.0288629 0.
0.710571 0.0285189 0.
0.48769 0.0302156 0.
0.49003 0.0305486 0.
0.492426 0.031026 0.
0.494898 0.031676 0.
0.497417 0.0324583 0.
0.499974 0.0333417 0.
0.502554 0.0342763 0.
0.505146 0.0352158 0.
0.50774 0.0361211 0.
0.510325 0.0370019 0.
0.512899 0.0378428 0.
0.515461 0.0386577 0.
0.518006 0.0394277 0.
0.520537 0.0401748 0.
0.523044 0.0408962 0.
0.525536 0.0416101 0.
0.527998 0.0422819 0.
0.530443 0.0429123 0.
0.532874 0.0434858 0.
0.535258 0.043987 0.
0.537639 0.0444839 0.
0.539962 0.0448315 0.
0.542266 0.0451553 0.
0.544548 0.0454721 0.
0.546757 0.0457004 0.
0.548967 0.0459307 0.
0.551137 0.0461303 0.
0.553292 0.0463255 0.
0.555447 0.0465181 0.
0.55753 0.0465818 0.
0.559613 0.0466447 0.
0.561687 0.0467049 0.
0.563743 0.0467601 0.
0.565798 0.0468155 0.
0.567839 0.0468558 0.
0.569869 0.0468861 0.
0.5719 0.0469165 0.
0.573917 0.0469328 0.
0.575931 0.0469467 0.
0.577945 0.04696 0.
0.579955 0.0469669 0.
0.581964 0.0469739 0.
0.583972 0.0469799 0.
0.585977 0.046984 0.
0.587982 0.0469881 0.
0.589987 0.0469911 0.
0.59199 0.0469933 0.
0.593994 0.0469954 0.
0.595997 0.0469964 0.
0.597999 0.046997 0.
0.600002 0.0469976 0.
0.602005 0.0469961 0.
0.604008 0.0469946 0.
0.606012 0.0469928 0.
0.608016 0.0469901 0.
0.61002 0.0469875 0.
0.612025 0.0469836 0.
0.614032 0.0469783 0.
0.616039 0.0469729 0.
0.618049 0.0469653 0.
0.620061 0.0469566 0.
0.622072 0.0469479 0.
0.62409 0.0469301 0.
0.626109 0.0469115 0.
0.628131 0.0468897 0.
0.630171 0.0468504 0.
0.632211 0.0468112 0.
0.634262 0.04676 0.
0.63633 0.0466914 0.
0.638397 0.0466231 0.
0.64049 0.0465497 0.
0.642593 0.0464744 0.
0.644697 0.046394 0.
0.646871 0.0461592 0.
0.649046 0.0459223 0.
0.651247 0.0456831 0.
0.653493 0.0454241 0.
0.655737 0.0451685 0.
0.658059 0.0447882 0.
0.660397 0.0444041 0.
0.662752 0.0439849 0.
0.665152 0.0434297 0.
0.66756 0.0428705 0.
0.670012 0.0422591 0.
0.672478 0.0416013 0.
0.674972 0.0408893 0.
0.67749 0.0401468 0.
0.680018 0.0393763 0.
0.68256 0.0385813 0.
0.685113 0.0377662 0.
0.687678 0.0369115 0.
0.690252 0.0360294 0.
0.692829 0.0351233 0.
0.695408 0.0342234 0.
0.697976 0.0333607 0.
0.700527 0.0325372 0.
0.703048 0.0317723 0.
0.705521 0.0311219 0.
0.707951 0.0306314 0.
0.71032 0.030319 0.
0.487943 0.032044 0.
0.490259 0.0323498 0.
0.492621 0.0327889 0.
0.49505 0.0333933 0.
0.497521 0.034127 0.
0.500034 0.0349729 0.
0.502577 0.0358741 0.
0.505134 0.0367847 0.
0.507695 0.0376746 0.
0.510251 0.0385474 0.
0.512801 0.0393874 0.
0.51534 0.0402052 0.
0.517865 0.0409802 0.
0.520375 0.0417317 0.
0.522866 0.042459 0.
0.525345 0.0431809 0.
0.527803 0.0438729 0.
0.530245 0.0445229 0.
0.532675 0.0451176 0.
0.535062 0.0456375 0.
0.537443 0.0461502 0.
0.539772 0.0465352 0.
0.542083 0.0468993 0.
0.544378 0.0472611 0.
0.546595 0.047503 0.
0.548813 0.0477467 0.
0.550999 0.0479688 0.
0.553169 0.0481909 0.
0.55534 0.048411 0.
0.557442 0.0484928 0.
0.559543 0.0485712 0.
0.561633 0.0486454 0.
0.563697 0.0487092 0.
0.56576 0.0487733 0.
0.567808 0.0488212 0.
0.569844 0.0488581 0.
0.571882 0.0488951 0.
0.573902 0.0489155 0.
0.57592 0.048933 0.
0.577937 0.0489497 0.
0.579948 0.0489582 0.
0.581958 0.0489667 0.
0.583968 0.0489741 0.
0.585974 0.0489792 0.
0.58798 0.0489843 0.
0.589985 0.048988 0.
0.591989 0.0489906 0.
0.593993 0.0489932 0.
0.595996 0.0489944 0.
0.597999 0.0489952 0.
0.600002 0.048996 0.
0.602006 0.0489941 0.
0.604009 0.0489923 0.
0.606013 0.0489901 0.
0.608017 0.0489867 0.
0.610022 0.0489834 0.
0.612028 0.0489785 0.
0.614036 0.0489719 0.
0.616045 0.0489652 0.
0.618057 0.0489558 0.
0.620071 0.0489452 0.
0.622085 0.0489346 0.
0.624107 0.0489125 0.
0.62613 0.0488894 0.
0.628156 0.0488625 0.
0.630204 0.0488145 0.
0.632252 0.0487669 0.
0.634311 0.0487066 0.
0.636387 0.048629 0.
0.638462 0.0485518 0.
0.640575 0.0484612 0.
0.642699 0.0483665 0.
0.644826 0.048263 0.
0.647013 0.0480031 0.
0.649199 0.0477417 0.
0.651416 0.0474742 0.
0.653669 0.0471906 0.
0.655923 0.0469068 0.
0.658252 0.0464945 0.
0.660593 0.046082 0.
0.662953 0.0456301 0.
0.665352 0.045058 0.
0.667759 0.0444777 0.
0.670203 0.0438497 0.
0.672658 0.0431768 0.
0.67514 0.0424504 0.
0.677642 0.0417022 0.
0.680152 0.040928 0.
0.682677 0.0401323 0.
0.685209 0.0393175 0.
0.687748 0.0384667 0.
0.690292 0.0375938 0.
0.692836 0.0367045 0.
0.69538 0.0358247 0.
0.697912 0.0349871 0.
0.700424 0.0341963 0.
0.702904 0.0334744 0.
0.705334 0.0328716 0.
0.707726 0.0324173 0.
0.710063 0.0321308 0.
0.488189 0.0338786 0.
0.490485 0.0341608 0.
0.492821 0.0345681 0.
0.495213 0.0351344 0.
0.497642 0.0358267 0.
0.500117 0.0366353 0.
0.502621 0.0374988 0.
0.505142 0.038378 0.
0.507673 0.0392519 0.
0.510203 0.0401177 0.
0.512727 0.0409558 0.
0.515242 0.0417714 0.
0.517743 0.0425474 0.
0.520231 0.0433015 0.
0.522706 0.0440339 0.
0.525175 0.0447632 0.
0.527628 0.0454671 0.
0.530061 0.0461272 0.
0.532483 0.0467393 0.
0.534869 0.0472821 0.
0.537249 0.0478142 0.
0.539586 0.0482354 0.
0.541903 0.0486398 0.
0.544211 0.0490464 0.
0.546437 0.0493045 0.
0.548664 0.0495607 0.
0.550865 0.0498035 0.
0.553051 0.0500501 0.
0.555237 0.0502946 0.
0.557356 0.0503954 0.
0.559472 0.0504907 0.
0.561576 0.0505804 0.
0.563646 0.0506525 0.
0.565717 0.0507248 0.
0.567772 0.0507808 0.
0.569816 0.050825 0.
0.571859 0.0508695 0.
0.573884 0.0508947 0.
0.575905 0.0509165 0.
0.577926 0.0509374 0.
0.579938 0.0509476 0.
0.581951 0.0509578 0.
0.583962 0.0509668 0.
0.58597 0.0509731 0.
0.587978 0.0509794 0.
0.589984 0.050984 0.
0.591988 0.0509873 0.
0.593993 0.0509905 0.
0.595996 0.050992 0.
0.597999 0.0509928 0.
0.600002 0.0509937 0.
0.602006 0.0509916 0.
0.60401 0.0509894 0.
0.606014 0.0509868 0.
0.60802 0.0509825 0.
0.610025 0.0509782 0.
0.612032 0.0509721 0.
0.614042 0.0509638 0.
0.616053 0.0509555 0.
0.618067 0.0509442 0.
0.620084 0.0509315 0.
0.6221 0.0509189 0.
0.624126 0.0508917 0.
0.626153 0.0508634 0.
0.628185 0.0508303 0.
0.630241 0.0507729 0.
0.632297 0.0507159 0.
0.634365 0.0506467 0.
0.636448 0.050561 0.
0.63853 0.0504756 0.
0.640659 0.0503658 0.
0.642803 0.0502505 0.
0.64495 0.0501241 0.
0.64715 0.0498432 0.
0.649349 0.0495589 0.
0.65158 0.0492627 0.
0.653842 0.0489549 0.
0.656107 0.048643 0.
0.658442 0.0481985 0.
0.660786 0.0477554 0.
0.663149 0.0472725 0.
0.665543 0.0466855 0.
0.667946 0.0460873 0.
0.67038 0.0454438 0.
0.672824 0.04476 0.
0.675292 0.044024 0.
0.677775 0.0432705 0.
0.680267 0.0424938 0.
0.682769 0.0417007 0.
0.685279 0.0408913 0.
0.687794 0.0400464 0.
0.690312 0.0391813 0.
0.692826 0.0383085 0.
0.695338 0.0374503 0.
0.697831 0.036642 0.
0.700304 0.0358858 0.
0.702748 0.0352015 0.
0.705143 0.0346389 0.
0.707504 0.0342161 0.
0.709815 0.0339514 0.
0.488425 0.0357188 0.
0.490704 0.0359784 0.
0.493015 0.0363592 0.
0.495373 0.0368943 0.
0.497764 0.0375512 0.
0.500203 0.0383231 0.
0.502675 0.0391489 0.
0.505167 0.0399999 0.
0.50767 0.0408595 0.
0.51017 0.0417143 0.
0.512667 0.0425462 0.
0.515157 0.0433582 0.
0.517638 0.044135 0.
0.52011 0.0448912 0.
0.522572 0.0456267 0.
0.525028 0.0463585 0.
0.52747 0.0470698 0.
0.529895 0.0477414 0.
0.53231 0.0483698 0.
0.534697 0.0489318 0.
0.537077 0.0494801 0.
0.539419 0.0499327 0.
0.541742 0.0503685 0.
0.544055 0.0508036 0.
0.546296 0.0510786 0.
0.548538 0.0513482 0.
0.550752 0.0516127 0.
0.552946 0.0518829 0.
0.555141 0.0521518 0.
0.55727 0.0522774 0.
0.559395 0.0523956 0.
0.561509 0.0525058 0.
0.563588 0.0525865 0.
0.565667 0.0526676 0.
0.56773 0.0527326 0.
0.569781 0.0527856 0.
0.571833 0.0528389 0.
0.573862 0.0528701 0.
0.575887 0.052897 0.
0.577911 0.0529228 0.
0.579927 0.0529349 0.
0.581942 0.052947 0.
0.583955 0.0529577 0.
0.585964 0.0529655 0.
0.587974 0.0529733 0.
0.589981 0.0529791 0.
0.591986 0.0529832 0.
0.593991 0.0529873 0.
0.595995 0.0529889 0.
0.597999 0.0529899 0.
0.600003 0.0529908 0.
0.602007 0.0529883 0.
0.604012 0.0529859 0.
0.606016 0.0529828 0.
0.608023 0.0529773 0.
0.610029 0.0529719 0.
0.612038 0.0529642 0.
0.61405 0.0529539 0.
0.616063 0.0529435 0.
0.61808 0.0529301 0.
0.620099 0.0529153 0.
0.622119 0.0529005 0.
0.62415 0.0528672 0.
0.626181 0.0528326 0.
0.628219 0.0527921 0.
0.630284 0.0527236 0.
0.632349 0.0526556 0.
0.634425 0.0525765 0.
0.636516 0.0524829 0.
0.638607 0.0523896 0.
0.640746 0.0522532 0.
0.642898 0.0521083 0.
0.645056 0.051952 0.
0.64727 0.0516526 0.
0.649481 0.0513516 0.
0.651724 0.0510307 0.
0.653995 0.0507013 0.
0.656271 0.050365 0.
0.65861 0.0498985 0.
0.660956 0.0494307 0.
0.663322 0.0489204 0.
0.665714 0.0483204 0.
0.668115 0.0477069 0.
0.67054 0.0470507 0.
0.672972 0.0463567 0.
0.675425 0.0456151 0.
0.677891 0.0448583 0.
0.680367 0.0440799 0.
0.682849 0.0432894 0.
0.685336 0.0424867 0.
0.687824 0.0416511 0.
0.690316 0.0407973 0.
0.692803 0.03994 0.
0.695287 0.0391014 0.
0.697747 0.0383197 0.
0.700185 0.0375975 0.
0.702594 0.0369498 0.
0.704955 0.036422 0.
0.70729 0.0360247 0.
0.709581 0.0357783 0.
0.488671 0.03756 0.
0.490933 0.037801 0.
0.493222 0.0381632 0.
0.495551 0.0386747 0.
0.497911 0.0393019 0.
0.500321 0.0400402 0.
0.502761 0.0408308 0.
0.505221 0.0416536 0.
0.507693 0.042495 0.
0.510164 0.0433366 0.
0.512634 0.0441618 0.
0.515099 0.0449698 0.
0.51756 0.0457442 0.
0.520014 0.0464984 0.
0.52246 0.0472328 0.
0.524902 0.0479652 0.
0.527333 0.0486828 0.
0.529749 0.0493639 0.
0.532155 0.0500043 0.
0.534538 0.0505842 0.
0.536912 0.0511469 0.
0.539255 0.051622 0.
0.541579 0.0520824 0.
0.543894 0.052544 0.
0.546152 0.0528435 0.
0.54841 0.0531319 0.
0.550639 0.0534205 0.
0.552841 0.0537146 0.
0.555044 0.0540079 0.
0.557185 0.0541582 0.
0.559319 0.0542993 0.
0.561442 0.0544308 0.
0.563529 0.0545203 0.
0.565616 0.0546102 0.
0.567688 0.0546843 0.
0.569747 0.0547461 0.
0.571806 0.0548082 0.
0.57384 0.0548453 0.
0.575869 0.0548774 0.
0.577897 0.0549082 0.
0.579915 0.0549222 0.
0.581933 0.0549362 0.
0.583948 0.0549487 0.
0.585959 0.054958 0.
0.58797 0.0549673 0.
0.589978 0.0549742 0.
0.591984 0.0549792 0.
0.59399 0.0549841 0.
0.595995 0.0549859 0.
0.597999 0.0549869 0.
0.600003 0.0549878 0.
0.602008 0.0549851 0.
0.604013 0.0549824 0.
0.606019 0.0549788 0.
0.608026 0.0549722 0.
0.610034 0.0549656 0.
0.612044 0.0549564 0.
0.614058 0.0549439 0.
0.616073 0.0549315 0.
0.618093 0.054916 0.
0.620115 0.054899 0.
0.622138 0.054882 0.
0.624173 0.0548427 0.
0.626209 0.0548018 0.
0.628252 0.0547537 0.
0.630327 0.0546741 0.
0.632401 0.054595 0.
0.634486 0.0545061 0.
0.636586 0.0544046 0.
0.638684 0.0543035 0.
0.640834 0.054139 0.
0.642994 0.0539645 0.
0.645164 0.0537791 0.
0.647392 0.0534606 0.
0.649616 0.0531407 0.
0.651871 0.0527917 0.
0.654151 0.0524385 0.
0.656436 0.0520758 0.
0.658771 0.05159 0.
0.661115 0.0511043 0.
0.66348 0.0505739 0.
0.665866 0.0499628 0.
0.668262 0.0493348 0.
0.670678 0.0486678 0.
0.6731 0.0479651 0.
0.675539 0.0472199 0.
0.677987 0.0464641 0.
0.680441 0.0456885 0.
0.682903 0.0449017 0.
0.685367 0.0441057 0.
0.68783 0.043281 0.
0.690293 0.0424405 0.
0.692749 0.0416018 0.
0.695203 0.0407846 0.
0.697635 0.0400268 0.
0.700041 0.0393334 0.
0.702418 0.038717 0.
0.704751 0.0382186 0.
0.707063 0.0378414 0.
0.709338 0.0376086 0.
0.488927 0.0393962 0.
0.491175 0.0396257 0.
0.493446 0.0399779 0.
0.495753 0.0404719 0.
0.498088 0.0410743 0.
0.500471 0.0417829 0.
0.502878 0.0425397 0.
0.505306 0.0433347 0.
0.507747 0.0441583 0.
0.510188 0.0449879 0.
0.512632 0.0458046 0.
0.515073 0.0466043 0.
0.517511 0.0473731 0.
0.519947 0.0481245 0.
0.522378 0.048858 0.
0.524805 0.0495907 0.
0.527221 0.0503119 0.
0.529623 0.0509986 0.
0.532017 0.0516469 0.
0.53439 0.0522415 0.
0.536755 0.0528167 0.
0.539097 0.0533136 0.
0.541419 0.0537981 0.
0.543734 0.0542845 0.
0.546006 0.0546072 0.
0.548275 0.054913 0.
0.550513 0.0552226 0.
0.552717 0.0555344 0.
0.554922 0.055845 0.
0.557072 0.0560199 0.
0.559215 0.0561839 0.
0.56135 0.0563373 0.
0.563445 0.0564337 0.
0.565542 0.0565304 0.
0.567624 0.056614 0.
0.569694 0.0566871 0.
0.571764 0.0567607 0.
0.573806 0.0568068 0.
0.57584 0.056847 0.
0.577875 0.0568856 0.
0.579895 0.0569019 0.
0.581916 0.0569181 0.
0.583935 0.056933 0.
0.585949 0.056945 0.
0.587962 0.0569569 0.
0.589973 0.0569658 0.
0.59198 0.0569721 0.
0.593988 0.0569784 0.
0.595993 0.0569808 0.
0.597998 0.0569821 0.
0.600004 0.0569834 0.
0.60201 0.0569798 0.
0.604016 0.0569761 0.
0.606023 0.0569714 0.
0.608032 0.0569629 0.
0.610042 0.0569545 0.
0.612055 0.0569427 0.
0.614073 0.0569271 0.
0.616091 0.0569114 0.
0.618114 0.0568934 0.
0.620139 0.0568741 0.
0.622165 0.0568549 0.
0.624209 0.0568053 0.
0.626255 0.0567542 0.
0.628307 0.0566951 0.
0.630391 0.0566032 0.
0.632475 0.0565121 0.
0.63457 0.0564141 0.
0.636679 0.0563067 0.
0.638787 0.0561996 0.
0.640947 0.0560069 0.
0.643114 0.0558043 0.
0.645293 0.0555917 0.
0.647525 0.0552596 0.
0.649757 0.0549269 0.
0.652019 0.0545516 0.
0.654305 0.0541753 0.
0.656597 0.0537884 0.
0.658927 0.0532846 0.
0.661265 0.0527806 0.
0.663624 0.0522318 0.
0.665999 0.0516116 0.
0.668385 0.0509739 0.
0.67079 0.0503002 0.
0.6732 0.0495909 0.
0.675622 0.048844 0.
0.678053 0.0480902 0.
0.680487 0.0473191 0.
0.682926 0.0465394 0.
0.685365 0.045752 0.
0.687803 0.044938 0.
0.69024 0.0441117 0.
0.692665 0.0432912 0.
0.695087 0.0424951 0.
0.697488 0.041762 0.
0.699865 0.0410961 0.
0.702217 0.0405027 0.
0.704528 0.0400264 0.
0.706821 0.0396651 0.
0.709083 0.0394422 0.
0.489191 0.041241 0.
0.491426 0.041461 0.
0.493682 0.0418043 0.
0.49597 0.0422829 0.
0.498286 0.0428646 0.
0.500642 0.0435467 0.
0.503019 0.0442746 0.
0.505416 0.045047 0.
0.507828 0.0458538 0.
0.510241 0.0466676 0.
0.512659 0.0474717 0.
0.515075 0.0482621 0.
0.517492 0.0490256 0.
0.519908 0.049774 0.
0.52232 0.0505057 0.
0.524728 0.0512352 0.
0.527125 0.0519557 0.
0.529511 0.0526459 0.
0.531891 0.0533004 0.
0.534253 0.0539073 0.
0.536609 0.0544934 0.
0.538947 0.0550069 0.
0.541266 0.0555049 0.
0.543578 0.0560017 0.
0.545852 0.0563504 0.
0.54812 0.0566794 0.
0.550364 0.0570142 0.
0.552572 0.0573433 0.
0.554782 0.0576714 0.
0.556946 0.0578721 0.
0.559101 0.0580604 0.
0.561249 0.0582383 0.
0.563355 0.0583422 0.
0.565463 0.0584465 0.
0.567557 0.0585403 0.
0.569638 0.0586257 0.
0.57172 0.0587117 0.
0.57377 0.0587674 0.
0.575811 0.058816 0.
0.577852 0.0588629 0.
0.579876 0.0588814 0.
0.5819 0.0588999 0.
0.583921 0.0589172 0.
0.585938 0.0589318 0.
0.587955 0.0589465 0.
0.589967 0.0589574 0.
0.591976 0.058965 0.
0.593985 0.0589726 0.
0.595992 0.0589757 0.
0.597998 0.0589773 0.
0.600004 0.058979 0.
0.602011 0.0589744 0.
0.604018 0.0589698 0.
0.606027 0.0589639 0.
0.608038 0.0589536 0.
0.61005 0.0589433 0.
0.612066 0.058929 0.
0.614088 0.05891 0.
0.616109 0.0588911 0.
0.618135 0.0588705 0.
0.620164 0.0588489 0.
0.622193 0.0588274 0.
0.624247 0.0587671 0.
0.626302 0.0587052 0.
0.628365 0.0586342 0.
0.630459 0.0585291 0.
0.632552 0.0584248 0.
0.63466 0.0583171 0.
0.636781 0.0582029 0.
0.638902 0.0580892 0.
0.641074 0.0578651 0.
0.643252 0.0576331 0.
0.645441 0.0573923 0.
0.647674 0.0570431 0.
0.649906 0.0566935 0.
0.652172 0.0562971 0.
0.654457 0.0559034 0.
0.656748 0.0554951 0.
0.659073 0.0549797 0.
0.661404 0.0544629 0.
0.663756 0.0539 0.
0.66612 0.0532713 0.
0.668492 0.052625 0.
0.670881 0.0519473 0.
0.673275 0.0512362 0.
0.67568 0.0504905 0.
0.678093 0.0497394 0.
0.680505 0.0489738 0.
0.682921 0.0482008 0.
0.685336 0.0474222 0.
0.687749 0.0466212 0.
0.69016 0.0458103 0.
0.692558 0.0450085 0.
0.69495 0.0442325 0.
0.697321 0.0435202 0.
0.69967 0.0428775 0.
0.701998 0.0423037 0.
0.704291 0.0418448 0.
0.706568 0.0414971 0.
0.708818 0.0412825 0.
0.489452 0.043094 0.
0.491674 0.0433037 0.
0.493919 0.0436391 0.
0.496192 0.0441041 0.
0.498488 0.0446677 0.
0.50082 0.0453276 0.
0.503168 0.0460321 0.
0.505536 0.0467836 0.
0.507919 0.0475706 0.
0.510306 0.0483674 0.
0.512699 0.0491599 0.
0.515094 0.0499419 0.
0.517489 0.0506994 0.
0.519881 0.0514416 0.
0.522271 0.0521673 0.
0.524658 0.0528915 0.
0.527037 0.0536106 0.
0.529408 0.0543038 0.
0.531776 0.0549644 0.
0.534127 0.0555819 0.
0.536471 0.0561754 0.
0.538802 0.0567011 0.
0.541116 0.0572087 0.
0.543424 0.0577161 0.
0.545699 0.0580913 0.
0.547968 0.0584447 0.
0.550217 0.0588057 0.
0.55243 0.0591517 0.
0.554645 0.0594968 0.
0.556822 0.0597222 0.
0.558989 0.0599341 0.
0.56115 0.0601363 0.
0.563267 0.0602466 0.
0.565384 0.0603573 0.
0.567488 0.0604603 0.
0.569579 0.0605578 0.
0.57167 0.0606561 0.
0.573728 0.0607225 0.
0.575777 0.0607807 0.
0.577826 0.0608373 0.
0.579853 0.060858 0.
0.58188 0.0608787 0.
0.583905 0.0608984 0.
0.585924 0.060916 0.
0.587944 0.0609337 0.
0.589959 0.0609468 0.
0.59197 0.060956 0.
0.593981 0.0609653 0.
0.59599 0.060969 0.
0.597997 0.0609711 0.
0.600005 0.0609731 0.
0.602014 0.0609674 0.
0.604022 0.0609617 0.
0.606033 0.0609545 0.
0.608047 0.060942 0.
0.610061 0.0609295 0.
0.612081 0.0609124 0.
0.614105 0.06089 0.
0.61613 0.0608677 0.
0.61816 0.0608441 0.
0.620193 0.0608197 0.
0.622226 0.0607955 0.
0.62429 0.0607231 0.
0.626354 0.0606493 0.
0.628427 0.0605661 0.
0.630529 0.0604491 0.
0.63263 0.0603328 0.
0.634749 0.060216 0.
0.636881 0.0600957 0.
0.639013 0.0599755 0.
0.641198 0.0597209 0.
0.643386 0.05946 0.
0.645585 0.0591924 0.
0.647819 0.0588265 0.
0.650053 0.0584601 0.
0.652322 0.0580414 0.
0.654606 0.0576306 0.
0.656897 0.0572026 0.
0.659214 0.0566754 0.
0.661537 0.0561469 0.
0.663879 0.0555756 0.
0.66623 0.054941 0.
0.668591 0.0542869 0.
0.670965 0.0536056 0.
0.673342 0.0528934 0.
0.675727 0.0521509 0.
0.678119 0.0514061 0.
0.680509 0.0506486 0.
0.682903 0.0498828 0.
0.685295 0.0491125 0.
0.687684 0.0483235 0.
0.690071 0.0475279 0.
0.692445 0.0467464 0.
0.694808 0.0459914 0.
0.697152 0.0452972 0.
0.699475 0.0446728 0.
0.70178 0.0441148 0.
0.704053 0.0436713 0.
0.706315 0.0433362 0.
0.708553 0.0431286 0.
0.489703 0.0449579 0.
0.491915 0.0451571 0.
0.494149 0.0454846 0.
0.496408 0.0459343 0.
0.498687 0.0464816 0.
0.500996 0.0471224 0.
0.503317 0.0478061 0.
0.505659 0.0485389 0.
0.508016 0.049309 0.
0.510377 0.0500915 0.
0.512746 0.0508718 0.
0.515116 0.0516428 0.
0.517487 0.0523912 0.
0.519856 0.0531255 0.
0.522224 0.0538458 0.
0.524594 0.0545658 0.
0.52696 0.0552851 0.
0.529317 0.0559797 0.
0.531671 0.0566414 0.
0.53401 0.0572654 0.
0.536343 0.0578655 0.
0.538668 0.0584025 0.
0.540978 0.058919 0.
0.543283 0.0594353 0.
0.545558 0.0598338 0.
0.547829 0.0602087 0.
0.550082 0.0605914 0.
0.552299 0.060946 0.
0.554518 0.0612976 0.
0.556704 0.0615457 0.
0.558882 0.061786 0.
0.561056 0.062019 0.
0.56318 0.0621361 0.
0.565304 0.0622535 0.
0.567416 0.0623664 0.
0.569512 0.0624776 0.
0.57161 0.0625899 0.
0.573678 0.0626694 0.
0.575737 0.0627396 0.
0.577796 0.0628082 0.
0.579826 0.0628312 0.
0.581857 0.0628541 0.
0.583885 0.0628763 0.
0.585907 0.0628973 0.
0.58793 0.0629182 0.
0.589948 0.0629339 0.
0.591962 0.0629451 0.
0.593976 0.0629562 0.
0.595987 0.0629607 0.
0.597996 0.0629632 0.
0.600006 0.0629656 0.
0.602017 0.0629587 0.
0.604028 0.0629517 0.
0.606041 0.0629429 0.
0.608058 0.0629279 0.
0.610076 0.0629128 0.
0.612098 0.0628927 0.
0.614126 0.0628666 0.
0.616154 0.0628407 0.
0.618189 0.0628134 0.
0.620227 0.0627854 0.
0.622265 0.0627574 0.
0.62434 0.0626705 0.
0.626414 0.0625824 0.
0.628496 0.0624851 0.
0.630603 0.0623571 0.
0.632709 0.0622299 0.
0.634836 0.0620995 0.
0.636978 0.0619652 0.
0.63912 0.0618289 0.
0.641313 0.061551 0.
0.64351 0.0612671 0.
0.645717 0.0609787 0.
0.647952 0.0606028 0.
0.650187 0.0602245 0.
0.652457 0.0597887 0.
0.654742 0.0593622 0.
0.657033 0.058916 0.
0.659344 0.058378 0.
0.661661 0.0578384 0.
0.663994 0.05726 0.
0.666333 0.0566225 0.
0.66868 0.0559644 0.
0.671039 0.055282 0.
0.673401 0.0545688 0.
0.675769 0.0538289 0.
0.678142 0.0530893 0.
0.680512 0.0523402 0.
0.682882 0.0515855 0.
0.68525 0.0508259 0.
0.687615 0.050049 0.
0.689977 0.0492676 0.
0.692327 0.0485026 0.
0.694667 0.0477661 0.
0.696987 0.0470893 0.
0.699285 0.0464817 0.
0.701568 0.0459368 0.
0.703824 0.0455073 0.
0.706072 0.0451863 0.
0.708298 0.0449861 0.
0.489965 0.0468286 0.
0.492166 0.0470188 0.
0.494389 0.0473393 0.
0.496634 0.0477742 0.
0.498897 0.0483087 0.
0.501185 0.0489334 0.
0.503482 0.0496004 0.
0.505799 0.0503194 0.
0.508129 0.0510735 0.
0.510463 0.0518386 0.
0.512805 0.0526046 0.
0.51515 0.0533633 0.
0.517497 0.0541019 0.
0.519846 0.0548292 0.
0.522197 0.0555449 0.
0.524549 0.0562593 0.
0.526897 0.0569746 0.
0.529239 0.057667 0.
0.531579 0.0583291 0.
0.533908 0.0589595 0.
0.536232 0.0595661 0.
0.538549 0.0601119 0.
0.540851 0.0606347 0.
0.543148 0.0611572 0.
0.545421 0.0615742 0.
0.547689 0.0619672 0.
0.549944 0.0623711 0.
0.552166 0.0627344 0.
0.554388 0.0630946 0.
0.556584 0.0633662 0.
0.558774 0.0636361 0.
0.560961 0.0639001 0.
0.563092 0.0640254 0.
0.565224 0.0641494 0.
0.567343 0.0642718 0.
0.569446 0.064397 0.
0.571549 0.0645232 0.
0.573626 0.064616 0.
0.575696 0.0646983 0.
0.577766 0.0647792 0.
0.579799 0.0648043 0.
0.581833 0.0648295 0.
0.583865 0.0648542 0.
0.58589 0.0648785 0.
0.587916 0.0649028 0.
0.589937 0.0649211 0.
0.591954 0.0649341 0.
0.59397 0.0649472 0.
0.595983 0.0649524 0.
0.597995 0.0649553 0.
0.600007 0.0649581 0.
0.60202 0.0649499 0.
0.604034 0.0649417 0.
0.606049 0.0649313 0.
0.60807 0.0649137 0.
0.61009 0.0648962 0.
0.612116 0.0648729 0.
0.614147 0.0648432 0.
0.616179 0.0648136 0.
0.618219 0.0647827 0.
0.620262 0.0647511 0.
0.622305 0.064719 0.
0.62439 0.0646176 0.
0.626475 0.0645151 0.
0.628566 0.0644038 0.
0.630677 0.0642647 0.
0.632788 0.0641266 0.
0.634924 0.0639823 0.
0.637076 0.0638338 0.
0.639227 0.0636811 0.
0.64143 0.0633781 0.
0.643635 0.0630702 0.
0.645849 0.0627605 0.
0.648087 0.0623728 0.
0.650325 0.0619809 0.
0.652594 0.0615309 0.
0.654874 0.0610928 0.
0.657161 0.0606331 0.
0.659465 0.0600876 0.
0.661773 0.0595393 0.
0.664096 0.0589556 0.
0.666423 0.0583153 0.
0.668757 0.0576539 0.
0.6711 0.0569724 0.
0.673445 0.0562626 0.
0.675796 0.0555272 0.
0.678151 0.0547927 0.
0.6805 0.0540514 0.
0.682849 0.0533072 0.
0.685193 0.0525599 0.
0.687531 0.0517975 0.
0.689866 0.0510321 0.
0.692191 0.0502837 0.
0.694507 0.0495626 0.
0.696804 0.0488982 0.
0.699081 0.0483044 0.
0.701346 0.0477704 0.
0.703588 0.0473514 0.
0.705821 0.0470435 0.
0.708036 0.0468495 0.
0.490238 0.0486934 0.
0.49243 0.0488801 0.
0.494643 0.0491995 0.
0.496874 0.0496258 0.
0.499122 0.0501511 0.
0.501389 0.0507627 0.
0.503664 0.0514167 0.
0.505957 0.0521218 0.
0.508259 0.052858 0.
0.510566 0.0536071 0.
0.512884 0.0543606 0.
0.515207 0.0551078 0.
0.517534 0.0558366 0.
0.519862 0.0565545 0.
0.522191 0.0572623 0.
0.524524 0.0579696 0.
0.526855 0.0586806 0.
0.529182 0.0593716 0.
0.531508 0.0600344 0.
0.533825 0.0606685 0.
0.536136 0.0612773 0.
0.53844 0.0618281 0.
0.540731 0.0623562 0.
0.543018 0.0628842 0.
0.545288 0.0633179 0.
0.547553 0.0637287 0.
0.549806 0.0641526 0.
0.552029 0.0645237 0.
0.554253 0.0648901 0.
0.556454 0.0651806 0.
0.55865 0.0654739 0.
0.560842 0.0657607 0.
0.562982 0.065898 0.
0.56512 0.0660324 0.
0.567247 0.0661656 0.
0.569356 0.0662987 0.
0.571464 0.0664322 0.
0.573551 0.0665373 0.
0.575632 0.0666332 0.
0.577712 0.0667281 0.
0.579754 0.0667603 0.
0.581796 0.0667923 0.
0.583835 0.0668229 0.
0.585864 0.0668503 0.
0.587894 0.0668776 0.
0.589919 0.0668987 0.
0.59194 0.0669143 0.
0.593961 0.0669298 0.
0.595978 0.0669359 0.
0.597993 0.0669392 0.
0.600009 0.0669425 0.
0.602027 0.0669326 0.
0.604045 0.0669227 0.
0.606064 0.0669103 0.
0.608089 0.0668896 0.
0.610115 0.066869 0.
0.612145 0.0668425 0.
0.61418 0.0668094 0.
0.616216 0.0667763 0.
0.618264 0.0667378 0.
0.620318 0.0666974 0.
0.622371 0.0666559 0.
0.624465 0.0665406 0.
0.626558 0.0664247 0.
0.628657 0.0663019 0.
0.630774 0.0661575 0.
0.632889 0.0660133 0.
0.635033 0.0658541 0.
0.637191 0.0656897 0.
0.639351 0.0655189 0.
0.641557 0.0651978 0.
0.643765 0.0648711 0.
0.645984 0.0645425 0.
0.648223 0.0641446 0.
0.650462 0.0637402 0.
0.652727 0.0632769 0.
0.655002 0.0628274 0.
0.657282 0.0623557 0.
0.659575 0.0618058 0.
0.661873 0.0612529 0.
0.664182 0.0606659 0.
0.666497 0.0600247 0.
0.668816 0.0593612 0.
0.671142 0.05868 0.
0.673469 0.0579729 0.
0.675801 0.0572437 0.
0.678135 0.0565178 0.
0.680463 0.0557861 0.
0.682791 0.0550529 0.
0.685113 0.0543169 0.
0.687427 0.053568 0.
0.689737 0.052817 0.
0.692035 0.0520857 0.
0.694325 0.0513814 0.
0.696602 0.0507273 0.
0.698861 0.0501425 0.
0.70111 0.0496166 0.
0.703339 0.0492038 0.
0.705561 0.0489042 0.
0.707766 0.048711 0.
0.490521 0.0505606 0.
0.492705 0.0507475 0.
0.494906 0.051069 0.
0.497123 0.0514883 0.
0.499354 0.0520052 0.
0.501601 0.0526068 0.
0.503856 0.0532501 0.
0.506126 0.053943 0.
0.508405 0.0546653 0.
0.510691 0.0554015 0.
0.512987 0.0561428 0.
0.515288 0.0568765 0.
0.517594 0.0575934 0.
0.519901 0.058301 0.
0.52221 0.0590013 0.
0.524523 0.0597021 0.
0.526835 0.0604093 0.
0.529144 0.061097 0.
0.531452 0.0617565 0.
0.533753 0.0623907 0.
0.536049 0.0630008 0.
0.538339 0.063555 0.
0.54062 0.0640867 0.
0.542897 0.0646189 0.
0.545161 0.0650667 0.
0.547418 0.0654894 0.
0.549665 0.0659235 0.
0.551888 0.0663026 0.
0.55411 0.0666765 0.
0.556314 0.0669829 0.
0.558511 0.0672944 0.
0.560706 0.0676006 0.
0.562856 0.0677574 0.
0.565005 0.067908 0.
0.567143 0.0680554 0.
0.569258 0.0681952 0.
0.571374 0.0683355 0.
0.573472 0.0684537 0.
0.575563 0.0685645 0.
0.577655 0.0686744 0.
0.579707 0.0687147 0.
0.581758 0.0687542 0.
0.583804 0.0687912 0.
0.585838 0.0688217 0.
0.587872 0.0688521 0.
0.589901 0.0688761 0.
0.591926 0.0688942 0.
0.593951 0.0689122 0.
0.595972 0.0689193 0.
0.597991 0.068923 0.
0.600011 0.0689267 0.
0.602033 0.0689151 0.
0.604055 0.0689035 0.
0.606079 0.068889 0.
0.608109 0.0688652 0.
0.610139 0.0688415 0.
0.612174 0.0688115 0.
0.614214 0.0687749 0.
0.616254 0.0687383 0.
0.618312 0.0686915 0.
0.620376 0.0686415 0.
0.622441 0.0685893 0.
0.624544 0.0684593 0.
0.626646 0.0683287 0.
0.628755 0.0681941 0.
0.630879 0.0680446 0.
0.633002 0.0678953 0.
0.635155 0.0677174 0.
0.63732 0.0675322 0.
0.639488 0.0673382 0.
0.641696 0.0670012 0.
0.643905 0.0666597 0.
0.646124 0.0663179 0.
0.64836 0.0659123 0.
0.650597 0.0654976 0.
0.652855 0.0650264 0.
0.655122 0.0645689 0.
0.657394 0.0640871 0.
0.659676 0.0635341 0.
0.661962 0.0629783 0.
0.664255 0.0623907 0.
0.666553 0.0617507 0.
0.668855 0.0610884 0.
0.671163 0.0604093 0.
0.673472 0.059705 0.
0.675785 0.058982 0.
0.678098 0.0582639 0.
0.680405 0.0575424 0.
0.68271 0.0568224 0.
0.68501 0.0560995 0.
0.687303 0.0553643 0.
0.689591 0.0546259 0.
0.691866 0.0539074 0.
0.694134 0.0532167 0.
0.69639 0.0525718 0.
0.698631 0.0519947 0.
0.700865 0.0514744 0.
0.703081 0.0510665 0.
0.705291 0.0507741 0.
0.707486 0.0505803 0.
0.490801 0.0524387 0.
0.492975 0.0526252 0.
0.495165 0.0529459 0.
0.497368 0.0533582 0.
0.499583 0.05387 0.
0.501813 0.0544637 0.
0.50405 0.0550981 0.
0.506302 0.0557811 0.
0.508561 0.0564902 0.
0.510825 0.0572131 0.
0.5131 0.057942 0.
0.515379 0.0586626 0.
0.517663 0.0593684 0.
0.519948 0.0600668 0.
0.522236 0.0607601 0.
0.524529 0.0614521 0.
0.526821 0.0621516 0.
0.529111 0.0628335 0.
0.531401 0.0634893 0.
0.533685 0.0641241 0.
0.535967 0.0647352 0.
0.538245 0.0652923 0.
0.540514 0.0658275 0.
0.542779 0.0663632 0.
0.545034 0.0668192 0.
0.547283 0.0672481 0.
0.549524 0.0676902 0.
0.551746 0.0680805 0.
0.553968 0.0684633 0.
0.556176 0.0687852 0.
0.558374 0.0691146 0.
0.560571 0.0694397 0.
0.562732 0.0696155 0.
0.564891 0.0697819 0.
0.56704 0.0699438 0.
0.569162 0.0700889 0.
0.571284 0.0702344 0.
0.573391 0.0703642 0.
0.575493 0.0704889 0.
0.577595 0.0706129 0.
0.579656 0.0706628 0.
0.581715 0.0707112 0.
0.58377 0.070756 0.
0.585808 0.0707894 0.
0.587846 0.0708227 0.
0.58988 0.0708494 0.
0.591909 0.07087 0.
0.593939 0.0708906 0.
0.595965 0.0708986 0.
0.597989 0.0709027 0.
0.600014 0.0709068 0.
0.602041 0.0708934 0.
0.604068 0.0708799 0.
0.606097 0.0708633 0.
0.608132 0.0708364 0.
0.610167 0.0708096 0.
0.612207 0.0707765 0.
0.614251 0.0707366 0.
0.616296 0.0706968 0.
0.618363 0.0706401 0.
0.620436 0.0705789 0.
0.622511 0.0705148 0.
0.624623 0.070372 0.
0.626734 0.0702284 0.
0.628851 0.0700837 0.
0.630982 0.0699302 0.
0.633112 0.0697768 0.
0.635275 0.0695791 0.
0.637448 0.0693733 0.
0.639624 0.0691573 0.
0.641833 0.0688048 0.
0.644043 0.0684483 0.
0.646263 0.068093 0.
0.648496 0.0676794 0.
0.65073 0.0672544 0.
0.65298 0.0667776 0.
0.655236 0.0663161 0.
0.657498 0.0658285 0.
0.659767 0.0652731 0.
0.662041 0.0647146 0.
0.664321 0.0641263 0.
0.666603 0.0634875 0.
0.668889 0.0628266 0.
0.671178 0.0621518 0.
0.673468 0.061454 0.
0.675759 0.0607392 0.
0.678052 0.0600296 0.
0.680339 0.0593172 0.
0.682621 0.0586094 0.
0.684899 0.0578994 0.
0.68717 0.0571783 0.
0.689437 0.0564525 0.
0.691692 0.055746 0.
0.693939 0.0550659 0.
0.696179 0.0544276 0.
0.698404 0.0538567 0.
0.700623 0.0533411 0.
0.702826 0.0529366 0.
0.705023 0.0526516 0.
0.707207 0.052459 0.
0.491071 0.0543293 0.
0.493235 0.054514 0.
0.495415 0.0548322 0.
0.497605 0.0552388 0.
0.499808 0.0557473 0.
0.502021 0.0563329 0.
0.504241 0.0569584 0.
0.506475 0.0576317 0.
0.508714 0.0583295 0.
0.510958 0.0590413 0.
0.513211 0.0597601 0.
0.515469 0.0604694 0.
0.51773 0.0611637 0.
0.519993 0.0618512 0.
0.522261 0.0625352 0.
0.524532 0.0632174 0.
0.526804 0.0639088 0.
0.529076 0.0645853 0.
0.53135 0.0652376 0.
0.533621 0.0658717 0.
0.535889 0.0664822 0.
0.538154 0.0670398 0.
0.540412 0.0675768 0.
0.542666 0.0681151 0.
0.544912 0.0685792 0.
0.547154 0.0690142 0.
0.549389 0.069463 0.
0.551612 0.0698627 0.
0.553833 0.0702521 0.
0.556043 0.0705844 0.
0.558242 0.0709232 0.
0.56044 0.0712564 0.
0.56261 0.0714523 0.
0.564777 0.0716376 0.
0.566935 0.0718167 0.
0.569064 0.0719677 0.
0.571193 0.0721192 0.
0.573309 0.0722609 0.
0.575418 0.0723998 0.
0.577528 0.0725381 0.
0.579598 0.0726008 0.
0.581667 0.0726611 0.
0.58373 0.0727161 0.
0.585773 0.0727523 0.
0.587817 0.0727885 0.
0.589856 0.0728179 0.
0.591891 0.0728411 0.
0.593926 0.0728643 0.
0.595957 0.0728733 0.
0.597987 0.0728778 0.
0.600017 0.0728823 0.
0.60205 0.0728669 0.
0.604082 0.0728514 0.
0.606117 0.0728324 0.
0.608158 0.0728023 0.
0.610198 0.0727723 0.
0.612244 0.0727359 0.
0.614295 0.072693 0.
0.616345 0.0726502 0.
0.61842 0.0725804 0.
0.620501 0.0725042 0.
0.622584 0.0724246 0.
0.624703 0.0722705 0.
0.626821 0.0721157 0.
0.628947 0.0719607 0.
0.631087 0.0717996 0.
0.633225 0.0716393 0.
0.635396 0.0714229 0.
0.637575 0.0711986 0.
0.639757 0.0709636 0.
0.641966 0.0706032 0.
0.644176 0.070238 0.
0.646395 0.0698728 0.
0.648625 0.0694525 0.
0.650857 0.0690185 0.
0.653099 0.068537 0.
0.655346 0.0680713 0.
0.657598 0.0675786 0.
0.659856 0.0670228 0.
0.662118 0.066464 0.
0.664384 0.0658768 0.
0.666651 0.0652395 0.
0.668921 0.0645801 0.
0.671194 0.0639095 0.
0.673465 0.0632176 0.
0.675737 0.062512 0.
0.678008 0.061813 0.
0.680272 0.0611117 0.
0.682532 0.0604158 0.
0.684789 0.0597177 0.
0.687038 0.0590081 0.
0.689284 0.0582929 0.
0.691519 0.0575973 0.
0.693748 0.0569275 0.
0.695971 0.0562952 0.
0.698182 0.0557292 0.
0.700385 0.0552186 0.
0.702577 0.0548158 0.
0.704762 0.0545361 0.
0.706937 0.0543453 0.
0.491352 0.056226 0.
0.493507 0.0564109 0.
0.495677 0.0567283 0.
0.497854 0.0571311 0.
0.500043 0.0576373 0.
0.502241 0.0582163 0.
0.504445 0.0588357 0.
0.50666 0.0595008 0.
0.508879 0.0601898 0.
0.511102 0.0608918 0.
0.513333 0.0615986 0.
0.515566 0.0622945 0.
0.517805 0.0629776 0.
0.520045 0.0636556 0.
0.522291 0.0643303 0.
0.524543 0.0650028 0.
0.526796 0.0656857 0.
0.529051 0.0663547 0.
0.531308 0.0669999 0.
0.533563 0.0676306 0.
0.535817 0.0682391 0.
0.53807 0.0687967 0.
0.540316 0.0693357 0.
0.542558 0.0698768 0.
0.544795 0.0703467 0.
0.54703 0.0707844 0.
0.549259 0.0712359 0.
0.551478 0.0716434 0.
0.553695 0.0720392 0.
0.555905 0.0723809 0.
0.558107 0.0727278 0.
0.560308 0.0730697 0.
0.562486 0.073286 0.
0.564662 0.0734913 0.
0.56683 0.0736892 0.
0.568966 0.0738462 0.
0.571102 0.0740037 0.
0.573226 0.0741572 0.
0.575343 0.0743102 0.
0.577461 0.0744628 0.
0.579541 0.0745383 0.
0.581618 0.0746106 0.
0.583689 0.0746761 0.
0.585738 0.0747151 0.
0.587787 0.0747542 0.
0.589832 0.0747864 0.
0.591872 0.0748122 0.
0.593913 0.074838 0.
0.59595 0.074848 0.
0.597985 0.0748529 0.
0.600021 0.0748578 0.
0.602059 0.0748403 0.
0.604097 0.0748229 0.
0.606137 0.0748015 0.
0.608183 0.0747682 0.
0.61023 0.0747349 0.
0.612281 0.0746954 0.
0.614338 0.0746494 0.
0.616395 0.0746035 0.
0.618477 0.0745202 0.
0.620565 0.0744289 0.
0.622657 0.0743341 0.
0.624783 0.0741686 0.
0.626909 0.0740026 0.
0.629044 0.0738372 0.
0.631192 0.0736684 0.
0.633339 0.0735006 0.
0.635519 0.0732633 0.
0.637704 0.0730197 0.
0.639893 0.0727662 0.
0.642101 0.0723979 0.
0.644311 0.0720253 0.
0.646529 0.0716521 0.
0.648753 0.0712272 0.
0.650979 0.0707863 0.
0.653212 0.0703032 0.
0.65545 0.0698359 0.
0.657693 0.0693393 0.
0.659938 0.0687825 0.
0.662188 0.0682235 0.
0.664441 0.0676382 0.
0.666693 0.0670049 0.
0.668947 0.0663508 0.
0.671202 0.0656867 0.
0.673455 0.0650016 0.
0.675706 0.0643052 0.
0.677956 0.0636164 0.
0.680198 0.0629264 0.
0.682435 0.0622423 0.
0.684668 0.0615566 0.
0.686895 0.060859 0.
0.689119 0.060154 0.
0.691334 0.0594668 0.
0.693545 0.0588053 0.
0.695751 0.0581788 0.
0.697948 0.0576158 0.
0.700138 0.0571082 0.
0.702317 0.0567052 0.
0.704489 0.0564292 0.
0.706654 0.0562391 0.
0.491646 0.0581194 0.
0.493793 0.0583101 0.
0.495952 0.0586305 0.
0.498117 0.0590343 0.
0.500293 0.0595414 0.
0.502475 0.0601161 0.
0.504662 0.0607306 0.
0.506858 0.0613886 0.
0.509056 0.0620684 0.
0.511259 0.0627598 0.
0.513467 0.0634557 0.
0.515678 0.0641407 0.
0.517894 0.0648136 0.
0.520113 0.0654837 0.
0.522338 0.0661499 0.
0.524567 0.0668104 0.
0.526798 0.0674814 0.
0.529034 0.0681411 0.
0.531273 0.0687781 0.
0.533513 0.0694044 0.
0.535751 0.0700101 0.
0.53799 0.0705673 0.
0.540224 0.0711071 0.
0.542455 0.0716482 0.
0.544682 0.072121 0.
0.546908 0.0725597 0.
0.54913 0.0730127 0.
0.551343 0.073427 0.
0.553556 0.0738282 0.
0.555764 0.0741788 0.
0.557967 0.0745326 0.
0.560169 0.0748811 0.
0.562353 0.0751154 0.
0.564535 0.075339 0.
0.566709 0.0755552 0.
0.568849 0.0757159 0.
0.57099 0.075877 0.
0.57312 0.0760378 0.
0.575243 0.0762001 0.
0.577368 0.0763619 0.
0.57946 0.076453 0.
0.581548 0.0765409 0.
0.583631 0.0766204 0.
0.585688 0.0766619 0.
0.587744 0.0767035 0.
0.589797 0.0767382 0.
0.591845 0.0767663 0.
0.593894 0.0767945 0.
0.595939 0.0768054 0.
0.597982 0.0768106 0.
0.600026 0.0768158 0.
0.602072 0.0767966 0.
0.604118 0.0767775 0.
0.606166 0.0767539 0.
0.60822 0.0767176 0.
0.610274 0.0766814 0.
0.612333 0.0766387 0.
0.614398 0.0765898 0.
0.616462 0.0765409 0.
0.618555 0.0764423 0.
0.620654 0.0763348 0.
0.622755 0.076224 0.
0.624887 0.0760507 0.
0.627018 0.0758768 0.
0.629159 0.0757034 0.
0.631312 0.0755287 0.
0.633465 0.0753544 0.
0.63565 0.0750998 0.
0.63784 0.074839 0.
0.640033 0.074569 0.
0.642239 0.0741942 0.
0.644447 0.073815 0.
0.646662 0.0734342 0.
0.64888 0.0730054 0.
0.651099 0.072559 0.
0.653324 0.0720761 0.
0.655552 0.0716092 0.
0.657782 0.0711118 0.
0.660015 0.0705559 0.
0.662251 0.0699966 0.
0.66449 0.0694137 0.
0.666726 0.0687852 0.
0.668963 0.0681368 0.
0.671199 0.0674813 0.
0.673432 0.0668064 0.
0.675661 0.0661223 0.
0.677888 0.0654451 0.
0.680108 0.0647644 0.
0.682323 0.0640894 0.
0.684534 0.0634146 0.
0.686739 0.0627282 0.
0.688941 0.0620336 0.
0.691138 0.0613553 0.
0.69333 0.0607014 0.
0.695518 0.0600793 0.
0.6977 0.0595176 0.
0.699876 0.0590109 0.
0.702043 0.0586033 0.
0.704203 0.0583273 0.
0.706357 0.0581353 0.
0.491951 0.0600224 0.
0.494089 0.060221 0.
0.496237 0.0605451 0.
0.49839 0.0609519 0.
0.500552 0.0614605 0.
0.502717 0.0620309 0.
0.504887 0.0626411 0.
0.507063 0.0632923 0.
0.509241 0.063964 0.
0.511424 0.0646473 0.
0.513612 0.0653342 0.
0.515804 0.0660086 0.
0.517999 0.0666713 0.
0.520196 0.0673326 0.
0.522398 0.0679905 0.
0.524604 0.0686402 0.
0.526813 0.0692991 0.
0.529028 0.069949 0.
0.531247 0.0705772 0.
0.533469 0.0711966 0.
0.53569 0.0717965 0.
0.537913 0.0723501 0.
0.540133 0.072888 0.
0.542351 0.0734272 0.
0.544569 0.0739024 0.
0.546786 0.0743413 0.
0.549001 0.0747946 0.
0.551211 0.0752142 0.
0.55342 0.0756187 0.
0.555627 0.0759745 0.
0.557828 0.0763313 0.
0.560029 0.0766834 0.
0.562214 0.0769346 0.
0.564397 0.0771767 0.
0.566574 0.0774129 0.
0.568719 0.0775776 0.
0.570865 0.0777425 0.
0.573003 0.0779106 0.
0.575135 0.0780827 0.
0.577268 0.0782544 0.
0.579373 0.0783625 0.
0.581475 0.0784674 0.
0.583571 0.0785625 0.
0.585635 0.0786068 0.
0.5877 0.0786512 0.
0.589761 0.0786887 0.
0.591817 0.0787193 0.
0.593874 0.0787499 0.
0.595927 0.0787618 0.
0.597979 0.0787674 0.
0.600031 0.0787729 0.
0.602085 0.0787519 0.
0.604139 0.078731 0.
0.606195 0.0787051 0.
0.608257 0.0786656 0.
0.61032 0.0786262 0.
0.612388 0.0785801 0.
0.61446 0.0785278 0.
0.616532 0.0784756 0.
0.618638 0.0783601 0.
0.620749 0.0782352 0.
0.622863 0.0781079 0.
0.625002 0.0779258 0.
0.627139 0.0777434 0.
0.629288 0.07756 0.
0.631447 0.0773763 0.
0.633605 0.0771912 0.
0.635791 0.0769226 0.
0.637981 0.0766492 0.
0.640173 0.0763672 0.
0.642377 0.075989 0.
0.644581 0.0756062 0.
0.646793 0.0752209 0.
0.649006 0.0747894 0.
0.651219 0.0743383 0.
0.653435 0.0738561 0.
0.655654 0.0733903 0.
0.657873 0.0728928 0.
0.660091 0.0723404 0.
0.662312 0.0717844 0.
0.664533 0.0712068 0.
0.666752 0.0705845 0.
0.668971 0.0699437 0.
0.671186 0.0692973 0.
0.673397 0.0686321 0.
0.675603 0.0679604 0.
0.677807 0.0672952 0.
0.680004 0.0666246 0.
0.682196 0.0659591 0.
0.684387 0.065294 0.
0.686573 0.0646164 0.
0.688756 0.0639305 0.
0.690934 0.0632598 0.
0.693107 0.0626129 0.
0.695277 0.0619953 0.
0.697443 0.0614345 0.
0.699604 0.0609282 0.
0.701759 0.0605148 0.
0.703907 0.0602358 0.
0.70605 0.0600405 0.
0.492254 0.0619371 0.
0.494382 0.0621431 0.
0.496518 0.0624693 0.
0.498658 0.0628793 0.
0.500805 0.0633895 0.
0.502955 0.0639576 0.
0.505108 0.0645659 0.
0.507265 0.0652117 0.
0.509425 0.0658764 0.
0.511589 0.0665518 0.
0.513757 0.0672276 0.
0.515929 0.0678909 0.
0.518103 0.0685447 0.
0.520278 0.0691991 0.
0.522458 0.0698488 0.
0.524642 0.070487 0.
0.526829 0.0711338 0.
0.529022 0.0717726 0.
0.531221 0.0723893 0.
0.533425 0.073 0.
0.535628 0.0735933 0.
0.537835 0.0741417 0.
0.540042 0.074677 0.
0.542249 0.0752137 0.
0.544457 0.0756897 0.
0.546667 0.0761279 0.
0.548875 0.0765807 0.
0.551081 0.0770031 0.
0.553286 0.077409 0.
0.555491 0.0777695 0.
0.557691 0.07813 0.
0.55989 0.0784862 0.
0.562077 0.0787527 0.
0.564261 0.0790132 0.
0.566441 0.0792692 0.
0.568592 0.079439 0.
0.570743 0.0796074 0.
0.572888 0.0797817 0.
0.575029 0.0799624 0.
0.57717 0.080142 0.
0.579287 0.0802661 0.
0.581401 0.0803881 0.
0.583509 0.0804998 0.
0.585581 0.0805465 0.
0.587654 0.0805933 0.
0.589723 0.0806331 0.
0.591788 0.0806659 0.
0.593853 0.0806987 0.
0.595915 0.0807115 0.
0.597976 0.0807175 0.
0.600037 0.0807233 0.
0.602099 0.0807009 0.
0.604162 0.0806785 0.
0.606226 0.0806506 0.
0.608296 0.080608 0.
0.610366 0.0805655 0.
0.612442 0.0805163 0.
0.614523 0.080461 0.
0.616603 0.0804058 0.
0.618721 0.0802728 0.
0.620843 0.0801309 0.
0.622969 0.0799885 0.
0.625114 0.0797992 0.
0.627259 0.0796089 0.
0.629416 0.0794156 0.
0.63158 0.0792234 0.
0.633744 0.0790275 0.
0.635931 0.0787453 0.
0.63812 0.078459 0.
0.640312 0.0781656 0.
0.642513 0.0777837 0.
0.644715 0.0773973 0.
0.646922 0.0770089 0.
0.649128 0.0765772 0.
0.651336 0.0761239 0.
0.653545 0.0756432 0.
0.655755 0.0751786 0.
0.657964 0.0746822 0.
0.660168 0.0741341 0.
0.662374 0.0735821 0.
0.664579 0.0730109 0.
0.666779 0.0723961 0.
0.668979 0.0717656 0.
0.671173 0.0711312 0.
0.673362 0.0704774 0.
0.675545 0.0698167 0.
0.677726 0.0691621 0.
0.679902 0.0685007 0.
0.682073 0.0678437 0.
0.684242 0.0671886 0.
0.686407 0.0665212 0.
0.688571 0.0658442 0.
0.69073 0.0651792 0.
0.692886 0.0645375 0.
0.69504 0.0639236 0.
0.69719 0.0633624 0.
0.699336 0.0628557 0.
0.701478 0.0624372 0.
0.703614 0.0621544 0.
0.705745 0.0619565 0.
0.49255 0.0638634 0.
0.494666 0.0640768 0.
0.496788 0.0644045 0.
0.498916 0.0648184 0.
0.501048 0.0653317 0.
0.503182 0.0658985 0.
0.505317 0.0665041 0.
0.507457 0.067145 0.
0.509598 0.0678031 0.
0.511742 0.0684703 0.
0.51389 0.0691363 0.
0.516041 0.0697906 0.
0.518193 0.0704366 0.
0.520346 0.071084 0.
0.522503 0.071724 0.
0.524665 0.072349 0.
0.526831 0.0729831 0.
0.529004 0.0736111 0.
0.531184 0.074217 0.
0.533369 0.0748181 0.
0.535555 0.0754036 0.
0.537748 0.075946 0.
0.539946 0.076477 0.
0.542143 0.0770086 0.
0.544345 0.0774841 0.
0.546547 0.0779215 0.
0.54875 0.0783729 0.
0.550952 0.0787973 0.
0.553154 0.0792038 0.
0.555358 0.0795677 0.
0.557557 0.0799304 0.
0.559755 0.080289 0.
0.561944 0.080567 0.
0.56413 0.0808402 0.
0.566313 0.0811082 0.
0.568473 0.0812843 0.
0.570633 0.0814574 0.
0.572787 0.0816376 0.
0.574932 0.0818242 0.
0.577079 0.0820101 0.
0.579205 0.0821525 0.
0.581326 0.0822954 0.
0.583444 0.0824276 0.
0.585524 0.0824767 0.
0.587604 0.0825258 0.
0.589681 0.082568 0.
0.591756 0.0826028 0.
0.59383 0.0826377 0.
0.595902 0.0826516 0.
0.597973 0.0826581 0.
0.600044 0.0826644 0.
0.602115 0.0826407 0.
0.604187 0.0826171 0.
0.60626 0.0825872 0.
0.608337 0.0825412 0.
0.610414 0.0824953 0.
0.612498 0.0824428 0.
0.614586 0.0823844 0.
0.616675 0.0823261 0.
0.618803 0.0821715 0.
0.620934 0.0820086 0.
0.623068 0.081849 0.
0.625221 0.0816542 0.
0.627372 0.0814588 0.
0.629536 0.0812577 0.
0.631705 0.0810585 0.
0.633875 0.0808536 0.
0.636064 0.0805632 0.
0.638254 0.080268 0.
0.640447 0.0799655 0.
0.642646 0.0795814 0.
0.644846 0.0791926 0.
0.647049 0.0788021 0.
0.649251 0.0783709 0.
0.651453 0.0779165 0.
0.653656 0.0774386 0.
0.655858 0.0769755 0.
0.658058 0.0764821 0.
0.660252 0.075941 0.
0.662447 0.0753948 0.
0.664635 0.0748302 0.
0.666817 0.0742231 0.
0.668997 0.0736026 0.
0.671172 0.0729797 0.
0.673341 0.0723383 0.
0.675502 0.0716911 0.
0.677659 0.071049 0.
0.679812 0.0703958 0.
0.68196 0.0697451 0.
0.684108 0.0690985 0.
0.686253 0.06844 0.
0.688397 0.0677718 0.
0.690538 0.067113 0.
0.692676 0.066476 0.
0.694813 0.0658648 0.
0.696946 0.0653032 0.
0.699078 0.0647951 0.
0.701206 0.0643712 0.
0.703329 0.0640838 0.
0.705448 0.0638839 0.
0.492856 0.0658025 0.
0.494959 0.0660247 0.
0.497068 0.0663557 0.
0.499181 0.0667745 0.
0.501298 0.0672897 0.
0.503415 0.0678555 0.
0.505533 0.0684597 0.
0.507653 0.0690961 0.
0.509774 0.0697485 0.
0.511898 0.0704097 0.
0.514023 0.0710661 0.
0.51615 0.0717103 0.
0.518278 0.0723472 0.
0.520409 0.072986 0.
0.522544 0.0736164 0.
0.524684 0.07423 0.
0.526828 0.0748531 0.
0.528981 0.0754694 0.
0.531142 0.0760626 0.
0.53331 0.0766512 0.
0.535482 0.0772264 0.
0.537664 0.0777606 0.
0.539852 0.0782856 0.
0.54204 0.0788112 0.
0.544234 0.0792851 0.
0.54643 0.0797204 0.
0.548627 0.0801687 0.
0.550825 0.0805941 0.
0.553023 0.0809996 0.
0.555224 0.0813643 0.
0.557421 0.0817302 0.
0.559618 0.0820923 0.
0.561808 0.0823795 0.
0.563996 0.0826625 0.
0.566183 0.0829411 0.
0.568352 0.083126 0.
0.570522 0.0833055 0.
0.572685 0.0834928 0.
0.574836 0.0836856 0.
0.576988 0.0838779 0.
0.579122 0.0840379 0.
0.581252 0.0842019 0.
0.583378 0.0843555 0.
0.585466 0.0844069 0.
0.587554 0.0844583 0.
0.58964 0.0845028 0.
0.591723 0.0845397 0.
0.593807 0.0845767 0.
0.595889 0.0845916 0.
0.597969 0.0845987 0.
0.60005 0.0846055 0.
0.602131 0.0845806 0.
0.604212 0.0845557 0.
0.606294 0.0845237 0.
0.608378 0.0844743 0.
0.610462 0.0844251 0.
0.612554 0.0843692 0.
0.614651 0.0843077 0.
0.616747 0.0842457 0.
0.618885 0.0840692 0.
0.621025 0.0838852 0.
0.623169 0.0837091 0.
0.625329 0.0835083 0.
0.627487 0.0833069 0.
0.629657 0.0830967 0.
0.631832 0.0828897 0.
0.634008 0.0826753 0.
0.636197 0.0823779 0.
0.638388 0.0820763 0.
0.640581 0.0817668 0.
0.642778 0.0813802 0.
0.644975 0.0809889 0.
0.647175 0.0805982 0.
0.649371 0.0801691 0.
0.651568 0.0797145 0.
0.653764 0.0792402 0.
0.655958 0.0787796 0.
0.658149 0.0782901 0.
0.660333 0.0777576 0.
0.662516 0.0772199 0.
0.664691 0.0766647 0.
0.666856 0.076068 0.
0.669018 0.0754594 0.
0.671173 0.0748484 0.
0.673321 0.0742186 0.
0.675459 0.0735835 0.
0.677593 0.0729534 0.
0.679724 0.0723099 0.
0.68185 0.0716672 0.
0.683974 0.0710286 0.
0.686097 0.0703786 0.
0.688219 0.0697182 0.
0.690341 0.0690637 0.
0.69246 0.0684304 0.
0.69458 0.0678217 0.
0.696698 0.0672594 0.
0.698814 0.0667501 0.
0.700927 0.0663208 0.
0.703035 0.0660269 0.
0.705142 0.0658236 0.
0.493181 0.0677528 0.
0.49527 0.0679865 0.
0.497364 0.0683243 0.
0.499461 0.0687508 0.
0.50156 0.0692682 0.
0.503658 0.0698342 0.
0.505758 0.0704377 0.
0.507857 0.0710703 0.
0.509957 0.0717166 0.
0.512058 0.0723696 0.
0.51416 0.0730157 0.
0.516263 0.07365 0.
0.518368 0.0742787 0.
0.520474 0.0749095 0.
0.522585 0.0755313 0.
0.524702 0.0761323 0.
0.526825 0.0767412 0.
0.528959 0.0773426 0.
0.531101 0.0779206 0.
0.533253 0.0784961 0.
0.535412 0.079061 0.
0.537581 0.0795866 0.
0.539759 0.080105 0.
0.541938 0.0806234 0.
0.544123 0.081094 0.
0.546311 0.0815259 0.
0.548501 0.0819692 0.
0.550695 0.0823938 0.
0.552888 0.0827966 0.
0.555086 0.0831615 0.
0.557281 0.0835302 0.
0.559475 0.0838951 0.
0.561667 0.0841908 0.
0.563857 0.0844828 0.
0.566046 0.0847705 0.
0.568223 0.084964 0.
0.5704 0.0851494 0.
0.572569 0.0853427 0.
0.574723 0.085539 0.
0.576878 0.0857343 0.
0.579019 0.0859074 0.
0.581156 0.0860881 0.
0.583291 0.0862596 0.
0.585392 0.0863143 0.
0.587493 0.0863691 0.
0.589592 0.0864162 0.
0.591686 0.0864541 0.
0.59378 0.086492 0.
0.595872 0.0865075 0.
0.597964 0.0865149 0.
0.600056 0.0865221 0.
0.602148 0.0864968 0.
0.604239 0.0864716 0.
0.606332 0.0864388 0.
0.608426 0.0863884 0.
0.610519 0.086338 0.
0.612624 0.0862768 0.
0.614734 0.0862087 0.
0.616844 0.0861389 0.
0.618989 0.0859467 0.
0.621134 0.0857472 0.
0.623285 0.0855595 0.
0.625449 0.0853556 0.
0.627612 0.085151 0.
0.629787 0.0849332 0.
0.631965 0.0847189 0.
0.634146 0.0844955 0.
0.636336 0.0841924 0.
0.638527 0.083885 0.
0.64072 0.0835691 0.
0.642914 0.0831806 0.
0.645108 0.0827874 0.
0.647303 0.0823973 0.
0.649494 0.0819714 0.
0.651685 0.0815187 0.
0.653872 0.08105 0.
0.656057 0.0805934 0.
0.658238 0.0801089 0.
0.660412 0.0795857 0.
0.662584 0.0790568 0.
0.664745 0.0785113 0.
0.666894 0.0779258 0.
0.669038 0.0773314 0.
0.671173 0.0767356 0.
0.673299 0.0761196 0.
0.675416 0.0754974 0.
0.677527 0.0748798 0.
0.679633 0.0742452 0.
0.681735 0.07361 0.
0.683836 0.0729782 0.
0.685937 0.0723371 0.
0.688037 0.0716856 0.
0.690138 0.0710369 0.
0.692237 0.070407 0.
0.694336 0.0698003 0.
0.696436 0.0692362 0.
0.698536 0.068724 0.
0.700632 0.0682887 0.
0.702725 0.0679851 0.
0.704816 0.0677744 0.
0.493524 0.0697213 0.
0.495597 0.0699673 0.
0.497674 0.0703141 0.
0.499754 0.0707503 0.
0.501833 0.0712695 0.
0.503911 0.071836 0.
0.505989 0.0724379 0.
0.508066 0.0730668 0.
0.510142 0.0737068 0.
0.51222 0.0743513 0.
0.514297 0.0749884 0.
0.516376 0.0756143 0.
0.518457 0.0762343 0.
0.52054 0.0768549 0.
0.522628 0.0774651 0.
0.524722 0.0780518 0.
0.526824 0.0786462 0.
0.528938 0.0792326 0.
0.531062 0.0797947 0.
0.533198 0.0803561 0.
0.535342 0.0809095 0.
0.537498 0.0814247 0.
0.539664 0.081934 0.
0.541831 0.0824429 0.
0.544007 0.0829091 0.
0.546188 0.0833367 0.
0.548373 0.0837741 0.
0.550562 0.0841971 0.
0.552753 0.0845967 0.
0.554949 0.0849609 0.
0.557143 0.0853314 0.
0.559336 0.0856978 0.
0.561529 0.0859987 0.
0.56372 0.0862945 0.
0.56591 0.0865861 0.
0.568089 0.086791 0.
0.570266 0.0869859 0.
0.572438 0.0871875 0.
0.574596 0.0873861 0.
0.576754 0.0875838 0.
0.578903 0.0877683 0.
0.58105 0.0879654 0.
0.583195 0.0881545 0.
0.585312 0.0882151 0.
0.587429 0.0882746 0.
0.589542 0.0883254 0.
0.591647 0.0883643 0.
0.593751 0.0884033 0.
0.595855 0.0884195 0.
0.597958 0.0884273 0.
0.600061 0.0884347 0.
0.602164 0.088409 0.
0.604267 0.0883833 0.
0.606371 0.0883497 0.
0.608476 0.0882985 0.
0.610581 0.0882472 0.
0.612701 0.0881787 0.
0.614826 0.0881011 0.
0.616953 0.08802 0.
0.619105 0.0878129 0.
0.621257 0.0875994 0.
0.623414 0.087402 0.
0.62558 0.0871948 0.
0.627745 0.086987 0.
0.629922 0.0867618 0.
0.632102 0.0865408 0.
0.634283 0.0863088 0.
0.636474 0.0860026 0.
0.638665 0.0856924 0.
0.640858 0.0853722 0.
0.64305 0.0849831 0.
0.645241 0.0845889 0.
0.647434 0.0842004 0.
0.64962 0.0837783 0.
0.651804 0.0833277 0.
0.653984 0.0828659 0.
0.65616 0.0824149 0.
0.65833 0.0819372 0.
0.660492 0.0814248 0.
0.662651 0.0809067 0.
0.664798 0.0803727 0.
0.666932 0.0797995 0.
0.669058 0.0792193 0.
0.671174 0.0786392 0.
0.673279 0.0780382 0.
0.675374 0.0774305 0.
0.677462 0.0768277 0.
0.679545 0.0762038 0.
0.681623 0.0755771 0.
0.683699 0.0749519 0.
0.685775 0.0743177 0.
0.687852 0.0736739 0.
0.68993 0.0730319 0.
0.692007 0.0724063 0.
0.694085 0.071802 0.
0.696164 0.0712366 0.
0.698244 0.0707207 0.
0.700323 0.0702796 0.
0.702397 0.0699637 0.
0.70447 0.0697433 0.
0.493866 0.0717088 0.
0.495922 0.0719658 0.
0.49798 0.0723213 0.
0.500039 0.0727666 0.
0.502097 0.0732868 0.
0.504153 0.0738545 0.
0.506208 0.0744556 0.
0.508259 0.0750801 0.
0.51031 0.0757133 0.
0.512363 0.0763502 0.
0.514415 0.0769772 0.
0.516471 0.0775923 0.
0.518527 0.0782021 0.
0.520586 0.0788118 0.
0.522652 0.0794108 0.
0.524726 0.0799839 0.
0.526809 0.0805638 0.
0.528905 0.0811344 0.
0.531015 0.0816794 0.
0.533137 0.0822254 0.
0.535266 0.0827665 0.
0.53741 0.0832705 0.
0.539565 0.0837694 0.
0.541722 0.0842675 0.
0.543891 0.0847288 0.
0.546067 0.0851519 0.
0.548248 0.0855829 0.
0.550434 0.0860034 0.
0.552621 0.0863994 0.
0.554815 0.0867622 0.
0.557007 0.0871334 0.
0.559199 0.0875005 0.
0.561392 0.0878062 0.
0.563584 0.0881056 0.
0.565775 0.0884013 0.
0.567956 0.0886172 0.
0.570134 0.0888215 0.
0.57231 0.0890318 0.
0.574471 0.0892324 0.
0.576633 0.0894321 0.
0.57879 0.0896267 0.
0.580945 0.0898394 0.
0.583101 0.0900441 0.
0.585234 0.0901109 0.
0.587367 0.0901749 0.
0.589494 0.0902296 0.
0.591609 0.0902693 0.
0.593724 0.0903091 0.
0.595839 0.0903257 0.
0.597952 0.0903339 0.
0.600066 0.0903416 0.
0.60218 0.0903156 0.
0.604294 0.0902897 0.
0.606409 0.0902556 0.
0.608525 0.0902039 0.
0.61064 0.0901522 0.
0.612775 0.0900762 0.
0.614917 0.0899896 0.
0.617059 0.0898974 0.
0.619219 0.0896766 0.
0.621378 0.0894496 0.
0.623541 0.0892435 0.
0.625708 0.0890335 0.
0.627876 0.0888227 0.
0.630055 0.08859 0.
0.632237 0.0883622 0.
0.634419 0.0881218 0.
0.63661 0.0878124 0.
0.638802 0.0874994 0.
0.640994 0.0871754 0.
0.643183 0.0867866 0.
0.645373 0.0863928 0.
0.647562 0.086007 0.
0.649743 0.0855894 0.
0.651923 0.0851423 0.
0.654097 0.0846876 0.
0.656265 0.0842421 0.
0.658428 0.0837714 0.
0.660579 0.0832707 0.
0.662726 0.0827643 0.
0.664861 0.0822429 0.
0.66698 0.0816832 0.
0.669091 0.0811185 0.
0.67119 0.0805549 0.
0.673275 0.0799689 0.
0.675349 0.0793756 0.
0.677416 0.0787867 0.
0.679476 0.0781736 0.
0.68153 0.0775566 0.
0.683582 0.0769402 0.
0.685634 0.076316 0.
0.687685 0.0756809 0.
0.689737 0.0750445 0.
0.69179 0.0744228 0.
0.693843 0.073821 0.
0.6959 0.0732543 0.
0.697958 0.0727343 0.
0.700016 0.0722888 0.
0.70207 0.0719611 0.
0.704125 0.0717315 0.
0.494187 0.0737151 0.
0.496224 0.0739819 0.
0.498261 0.0743472 0.
0.500297 0.0748013 0.
0.502331 0.0753233 0.
0.504362 0.0758921 0.
0.50639 0.0764907 0.
0.508415 0.0771091 0.
0.51044 0.0777335 0.
0.512466 0.0783614 0.
0.514492 0.0789781 0.
0.516522 0.0795822 0.
0.518555 0.0801812 0.
0.520593 0.0807796 0.
0.52264 0.0813672 0.
0.524698 0.0819253 0.
0.526766 0.0824892 0.
0.528849 0.0830428 0.
0.530946 0.0835716 0.
0.533056 0.0841032 0.
0.535174 0.0846328 0.
0.537308 0.0851258 0.
0.539456 0.0856126 0.
0.541609 0.0860995 0.
0.543773 0.0865563 0.
0.545945 0.0869742 0.
0.548123 0.087397 0.
0.550307 0.0878138 0.
0.552493 0.0882055 0.
0.554686 0.0885662 0.
0.556878 0.0889372 0.
0.55907 0.0893044 0.
0.561264 0.0896139 0.
0.563458 0.0899161 0.
0.565652 0.090215 0.
0.567835 0.0904403 0.
0.570017 0.0906527 0.
0.572197 0.09087 0.
0.574364 0.0910705 0.
0.576532 0.0912701 0.
0.578697 0.0914702 0.
0.580861 0.0916922 0.
0.583025 0.091907 0.
0.585169 0.0919845 0.
0.587313 0.0920579 0.
0.589451 0.0921199 0.
0.591576 0.0921604 0.
0.593701 0.0922009 0.
0.595825 0.092218 0.
0.597948 0.0922262 0.
0.600072 0.092234 0.
0.602197 0.0922077 0.
0.604321 0.0921815 0.
0.606446 0.0921467 0.
0.608572 0.0920941 0.
0.610697 0.0920415 0.
0.612841 0.0919541 0.
0.614991 0.0918538 0.
0.617142 0.0917478 0.
0.61931 0.0915211 0.
0.621477 0.091288 0.
0.623646 0.0910776 0.
0.625819 0.0908666 0.
0.627991 0.0906543 0.
0.630174 0.0904161 0.
0.632359 0.090182 0.
0.634545 0.0899341 0.
0.636738 0.089622 0.
0.638931 0.0893068 0.
0.641123 0.0889795 0.
0.643313 0.0885917 0.
0.645502 0.0881997 0.
0.64769 0.0878178 0.
0.649869 0.0874056 0.
0.652045 0.0869634 0.
0.654215 0.0865177 0.
0.656378 0.0860787 0.
0.658534 0.0856139 0.
0.660678 0.0851245 0.
0.662818 0.0846303 0.
0.664942 0.0841212 0.
0.66705 0.0835748 0.
0.669147 0.0830254 0.
0.671232 0.0824779 0.
0.673303 0.0819088 0.
0.675361 0.0813316 0.
0.677408 0.0807572 0.
0.679447 0.0801543 0.
0.681479 0.0795468 0.
0.683506 0.0789399 0.
0.685532 0.0783263 0.
0.687557 0.0777015 0.
0.689582 0.0770736 0.
0.691608 0.0764579 0.
0.693634 0.0758592 0.
0.695665 0.0752912 0.
0.697699 0.0747664 0.
0.699734 0.0743165 0.
0.701768 0.0739773 0.
0.703802 0.0737373 0.
0.494482 0.0757425 0.
0.496497 0.0760178 0.
0.498513 0.0763922 0.
0.500524 0.0768532 0.
0.502531 0.0773761 0.
0.504534 0.0779446 0.
0.506535 0.0785392 0.
0.508531 0.0791513 0.
0.510528 0.0797675 0.
0.512525 0.0803861 0.
0.514526 0.0809916 0.
0.516536 0.0815836 0.
0.518549 0.0821698 0.
0.520571 0.0827557 0.
0.522603 0.0833318 0.
0.524649 0.0838745 0.
0.526706 0.0844222 0.
0.528779 0.0849593 0.
0.530868 0.0854726 0.
0.532968 0.08599 0.
0.535079 0.0865074 0.
0.537208 0.0869879 0.
0.539352 0.087462 0.
0.5415 0.0879376 0.
0.54366 0.088389 0.
0.545829 0.0888014 0.
0.548005 0.0892162 0.
0.550188 0.0896287 0.
0.552374 0.0900155 0.
0.554566 0.0903733 0.
0.556759 0.0907436 0.
0.558952 0.0911102 0.
0.561147 0.0914224 0.
0.56334 0.0917272 0.
0.565534 0.0920292 0.
0.567719 0.0922626 0.
0.569903 0.092482 0.
0.572086 0.092706 0.
0.574259 0.0929071 0.
0.576433 0.0931069 0.
0.578605 0.0933123 0.
0.580776 0.0935442 0.
0.582948 0.0937694 0.
0.585104 0.0938576 0.
0.587258 0.0939405 0.
0.589407 0.0940102 0.
0.591542 0.0940515 0.
0.593677 0.0940928 0.
0.595811 0.0941103 0.
0.597945 0.0941186 0.
0.600078 0.0941265 0.
0.602213 0.0940999 0.
0.604348 0.0940732 0.
0.606483 0.0940378 0.
0.608619 0.0939842 0.
0.610754 0.0939308 0.
0.612907 0.0938313 0.
0.615065 0.0937172 0.
0.617225 0.0935977 0.
0.6194 0.0933643 0.
0.621574 0.0931248 0.
0.623749 0.0929103 0.
0.625926 0.092698 0.
0.628102 0.0924838 0.
0.630287 0.0922407 0.
0.632473 0.0920014 0.
0.634661 0.0917472 0.
0.636853 0.0914328 0.
0.639047 0.0911158 0.
0.64124 0.0907863 0.
0.64343 0.0904003 0.
0.645621 0.0900101 0.
0.647809 0.0896326 0.
0.649987 0.0892261 0.
0.652162 0.0887894 0.
0.654328 0.088353 0.
0.656487 0.087921 0.
0.658637 0.0874628 0.
0.660776 0.0869845 0.
0.66291 0.0865035 0.
0.665028 0.086008 0.
0.667128 0.0854751 0.
0.669216 0.0849405 0.
0.671291 0.0844087 0.
0.673351 0.0838561 0.
0.675395 0.0832958 0.
0.677428 0.0827375 0.
0.67945 0.0821455 0.
0.681462 0.0815483 0.
0.683469 0.0809517 0.
0.685473 0.0803496 0.
0.687471 0.0797358 0.
0.689467 0.0791164 0.
0.691463 0.0785068 0.
0.693461 0.0779119 0.
0.695465 0.0773446 0.
0.697473 0.0768165 0.
0.699484 0.0763623 0.
0.701495 0.0760125 0.
0.703509 0.075761 0.
0.49473 0.0777824 0.
0.496724 0.0780668 0.
0.498715 0.0784509 0.
0.5007 0.0789171 0.
0.502678 0.0794406 0.
0.504651 0.0800081 0.
0.506624 0.0805982 0.
0.508594 0.0812026 0.
0.510569 0.081809 0.
0.512546 0.0824177 0.
0.514529 0.0830114 0.
0.516523 0.0835903 0.
0.518524 0.0841644 0.
0.520533 0.0847386 0.
0.522554 0.0853033 0.
0.524592 0.0858308 0.
0.526642 0.0863628 0.
0.528708 0.086883 0.
0.530789 0.0873805 0.
0.532885 0.087883 0.
0.534992 0.0883875 0.
0.537118 0.0888557 0.
0.539259 0.0893172 0.
0.541406 0.0897817 0.
0.543564 0.0902279 0.
0.545729 0.0906348 0.
0.547903 0.0910412 0.
0.550083 0.0914479 0.
0.552266 0.0918289 0.
0.554456 0.0921831 0.
0.556647 0.0925519 0.
0.558838 0.0929173 0.
0.561033 0.0932316 0.
0.563226 0.0935387 0.
0.565419 0.0938433 0.
0.567607 0.0940843 0.
0.569793 0.0943104 0.
0.571979 0.0945402 0.
0.574158 0.0947413 0.
0.576338 0.0949405 0.
0.578517 0.0951482 0.
0.580696 0.0953854 0.
0.582875 0.0956159 0.
0.585041 0.0957143 0.
0.587206 0.0958067 0.
0.589366 0.0958841 0.
0.59151 0.0959255 0.
0.593655 0.0959669 0.
0.595798 0.0959846 0.
0.597942 0.0959929 0.
0.600085 0.0960008 0.
0.60223 0.0959741 0.
0.604374 0.0959475 0.
0.606519 0.0959118 0.
0.608664 0.0958582 0.
0.610809 0.0958047 0.
0.612971 0.0956948 0.
0.615137 0.0955689 0.
0.617305 0.095438 0.
0.619486 0.0952006 0.
0.621666 0.0949576 0.
0.623847 0.0947409 0.
0.626029 0.0945281 0.
0.62821 0.0943124 0.
0.630397 0.0940649 0.
0.632585 0.0938207 0.
0.634773 0.0935608 0.
0.636966 0.0932446 0.
0.639158 0.0929261 0.
0.641351 0.0925951 0.
0.64354 0.0922117 0.
0.645728 0.0918243 0.
0.647913 0.0914518 0.
0.65009 0.0910517 0.
0.652262 0.0906214 0.
0.654426 0.0901943 0.
0.656581 0.0897686 0.
0.658728 0.0893169 0.
0.660863 0.08885 0.
0.662993 0.0883824 0.
0.665107 0.0879009 0.
0.667203 0.0873829 0.
0.669285 0.0868637 0.
0.671353 0.0863478 0.
0.673405 0.085812 0.
0.675441 0.0852677 0.
0.677465 0.0847252 0.
0.679473 0.0841447 0.
0.68147 0.0835573 0.
0.683461 0.0829704 0.
0.685448 0.0823803 0.
0.687427 0.0817782 0.
0.689403 0.081168 0.
0.691374 0.0805652 0.
0.693344 0.0799744 0.
0.69532 0.0794089 0.
0.6973 0.0788785 0.
0.699283 0.0784205 0.
0.701271 0.0780624 0.
0.703263 0.0777992 0.
0.494911 0.0798304 0.
0.496883 0.0801261 0.
0.498848 0.0805207 0.
0.500808 0.0809923 0.
0.50276 0.0815171 0.
0.504711 0.0820825 0.
0.506663 0.0826675 0.
0.508615 0.0832646 0.
0.510573 0.0838618 0.
0.512537 0.0844607 0.
0.51451 0.0850408 0.
0.516495 0.0856047 0.
0.518488 0.0861678 0.
0.520492 0.0867313 0.
0.522506 0.0872863 0.
0.524538 0.0877971 0.
0.526583 0.0883117 0.
0.528644 0.0888165 0.
0.530724 0.0892989 0.
0.532818 0.089786 0.
0.534926 0.0902789 0.
0.537051 0.0907335 0.
0.539188 0.0911801 0.
0.541332 0.0916338 0.
0.543485 0.0920745 0.
0.545646 0.0924758 0.
0.547815 0.0928727 0.
0.549994 0.0932732 0.
0.552174 0.0936483 0.
0.554363 0.0939985 0.
0.556555 0.0943669 0.
0.558748 0.0947316 0.
0.560942 0.095047 0.
0.563136 0.095356 0.
0.565327 0.0956611 0.
0.567514 0.0959057 0.
0.5697 0.0961353 0.
0.571887 0.0963674 0.
0.574068 0.0965695 0.
0.576249 0.0967692 0.
0.578433 0.0969775 0.
0.580618 0.0972173 0.
0.582803 0.0974511 0.
0.584979 0.0975602 0.
0.587154 0.0976633 0.
0.589325 0.0977495 0.
0.591479 0.0977914 0.
0.593633 0.0978333 0.
0.595786 0.0978513 0.
0.597939 0.0978597 0.
0.600093 0.0978675 0.
0.602247 0.0978403 0.
0.6044 0.0978131 0.
0.606554 0.0977767 0.
0.608709 0.0977226 0.
0.610863 0.0976685 0.
0.613033 0.0975487 0.
0.615207 0.0974124 0.
0.617382 0.0972716 0.
0.619566 0.0970303 0.
0.621749 0.0967839 0.
0.623933 0.0965664 0.
0.626117 0.0963539 0.
0.6283 0.0961375 0.
0.630487 0.0958887 0.
0.632674 0.095642 0.
0.634862 0.0953799 0.
0.637054 0.0950631 0.
0.639247 0.0947425 0.
0.641441 0.0944113 0.
0.64363 0.0940297 0.
0.645819 0.0936442 0.
0.648002 0.093277 0.
0.650176 0.0928839 0.
0.652346 0.0924611 0.
0.654506 0.092044 0.
0.656656 0.0916254 0.
0.658797 0.0911803 0.
0.660928 0.0907243 0.
0.663054 0.0902727 0.
0.665167 0.0898055 0.
0.667263 0.0893004 0.
0.669343 0.0887967 0.
0.671408 0.0882962 0.
0.673455 0.0877759 0.
0.675486 0.0872487 0.
0.677505 0.0867228 0.
0.679505 0.0861541 0.
0.681494 0.0855768 0.
0.683475 0.0849988 0.
0.685451 0.0844211 0.
0.687419 0.0838319 0.
0.689379 0.0832305 0.
0.691334 0.0826335 0.
0.693284 0.0820462 0.
0.695238 0.0814825 0.
0.697193 0.0809506 0.
0.699151 0.0804881 0.
0.701116 0.080122 0.
0.703086 0.079847 0.
CELLS 5000 10000
1 0
1 1
1 2
1 3
1 4
1 5
1 6
1 7
1 8
1 9
1 10
1 11
1 12
1 13
1 14
1 15
1 16
1 17
1 18
1 19
1 20
1 21
1 22
1 23
1 24
1 25
1 26
1 27
1 28
1 29
1 30
1 31
1 32
1 33
1 34
1 35
1 36
1 37
1 38
1 39
1 40
1 41
1 42
1 43
1 44
1 45
1 46
1 47
1 48
1 49
1 50
1 51
1 52
1 53
1 54
1 55
1 56
1 57
1 58
1 59
1 60
1 61
1 62
1 63
1 64
1 65
1 66
1 67
1 68
1 69
1 70
1 71
1 72
1 73
1 74
1 75
1 76
1 77
1 78
1 79
1 80
1 81
1 82
1 83
1 84
1 85
1 86
1 87
1 88
1 89
1 90
1 91
1 92
1 93
1 94
1 95
1 96
1 97
1 98
1 99
1 100
1 101
1 102
1 103
1 104
1 105
1 106
1 107
1 108
1 109
1 110
1 111
1 112
1 113
1 114
1 115
1 116
1 117
1 118
1 119
1 120
1 121
1 122
1 123
1 124
1 125
1 126
1 127
1 128
1 129
1 130
1 131
1 132
1 133
1 134
1 135
1 136
1 137
1 138
1 139
1 140
1 141
1 142
1 143
1 144
1 145
1 146
1 147
1 148
1 149
1 150
1 151
1 152
1 153
1 154
1 155
1 156
1 157
1 158
1 159
1 160
1 161
1 162
1 163
1 164
1 165
1 166
1 167
1 168
1 169
1 170
1 171
1 172
1 173
1 174
1 175
1 176
1 177
1 178
1 179
1 180
1 181
1 182
1 183
1 184
1 185
1 186
1 187
1 188
1 189
1 190
1 191
1 192
1 193
1 194
1 195
1 196
1 197
1 198
1 199
1 200
1 201
1 202
1 203
1 204
1 205
1 206
1 207
1 208
1 209
1 210
1 211
1 212
1 213
1 214
1 215
1 216
1 217
1 218
1 219
1 220
1 221
1 222
1 223
1 224
1 225
1 226
1 227
1 228
1 229
1 230
1 231
1 232
1 233
1 234
1 235
1 236
1 237
1 238
1 239
1 240
1 241
1 242
1 243
1 244
1 245
1 246
1 247
1 248
1 249
1 250
1 251
1 252
1 253
1 254
1 255
1 256
1 257
1 258
1 259
1 260
1 261
1 262
1 263
1 264
1 265
1 266
1 267
1 268
1 269
1 270
1 271
1 272
1 273
1 274
1 275
1 276
1 277
1 278
1 279
1 280
1 281
1 282
1 283
1 284
1 285
1 286
1 287
1 288
1 289
1 290
1 291
1 292
1 293
1 294
1 295
1 296
1 297
1 298
1 299
1 300
1 301
1 302
1 303
1 304
1 305
1 306
1 307
1 308
1 309
1 310
1 311
1 312
1 313
1 314
1 315
1 316
1 317
1 318
1 319
1 320
1 321
1 322
1 323
1 324
1 325
1 326
1 327
1 328
1 329
1 330
1 331
1 332
1 333
1 334
1 335
1 336
1 337
1 338
1 339
1 340
1 341
1 342
1 343
1 344
1 345
1 346
1 347
1 348
1 349
1 350
1 351
1 352
1 353
1 354
1 355
1 356
1 357
1 358
1 359
1 360
1 361
1 362
1 363
1 364
1 365
1 366
1 367
1 368
1 369
1 370
1 371
1 372
1 373
1 374
1 375
1 376
1 377
1 378
1 379
1 380
1 381
1 382
1 383
1 384
1 385
1 386
1 387
1 388
1 389
1 390
1 391
1 392
1 393
1 394
1 395
1 396
1 397
1 398
1 399
1 400
1 401
1 402
1 403
1 404
1 405
1 406
1 407
1 408
1 409
1 410
1 411
1 412
1 413
1 414
1 415
1 416
1 417
1 418
1 419
1 420
1 421
1 422
1 423
1 424
1 425
1 426
1 427
1 428
1 429
1 430
1 431
1 432
1 433
1 434
1 435
1 436
1 437
1 438
1 439
1 440
1 441
1 442
1 443
1 444
1 445
1 446
1 447
1 448
1 449
1 450
1 451
1 452
1 453
1 454
1 455
1 456
1 457
1 458
1 459
1 460
1 461
1 462
1 463
1 464
1 465
1 466
1 467
1 468
1 469
1 470
1 471
1 472
1 473
1 474
1 475
1 476
1 477
1 478
1 479
1 480
1 481
1 482
1 483
1 484
1 485
1 486
1 487
1 488
1 489
1 490
1 491
1 492
1 493
1 494
1 495
1 496
1 497
1 498
1 499
1 500
1 501
1 502
1 503
1 504
1 505
1 506
1 507
1 508
1 509
1 510
1 511
1 512
1 513
1 514
1 515
1 516
1 517
1 518
1 519
1 520
1 521
1 522
1 523
1 524
1 525
1 526
1 527
1 528
1 529
1 530
1 531
1 532
1 533
1 534
1 535
1 536
1 537
1 538
1 539
1 540
1 541
1 542
1 543
1 544
1 545
1 546
1 547
1 548
1 549
1 550
1 551
1 552
1 553
1 554
1 555
1 556
1 557
1 558
1 559
1 560
1 561
1 562
1 563
1 564
1 565
1 566
1 567
1 568
1 569
1 570
1 571
1 572
1 573
1 574
1 575
1 576
1 577
1 578
1 579
1 580
1 581
1 582
1 583
1 584
1 585
1 586
1 587
1 588
1 589
1 590
1 591
1 592
1 593
1 594
1 595
1 596
1 597
1 598
1 599
1 600
1 601
1 602
1 603
1 604
1 605
1 606
1 607
1 608
1 609
1 610
1 611
1 612
1 613
1 614
1 615
1 616
1 617
1 618
1 619
1 620
1 621
1 622
1 623
1 624
1 625
1 626
1 627
1 628
1 629
1 630
1 631
1 632
1 633
1 634
1 635
1 636
1 637
1 638
1 639
1 640
1 641
1 642
1 643
1 644
1 645
1 646
1 647
1 648
1 649
1 650
1 651
1 652
1 653
1 654
1 655
1 656
1 657
1 658
1 659
1 660
1 661
1 662
1 663
1 664
1 665
1 666
1 667
1 668
1 669
1 670
1 671
1 672
1 673
1 674
1 675
1 676
1 677
1 678
1 679
1 680
1 681
1 682
1 683
1 684
1 685
1 686
1 687
1 688
1 689
1 690
1 691
1 692
1 693
1 694
1 695
1 696
1 697
1 698
1 699
1 700
1 701
1 702
1 703
1 704
1 705
1 706
1 707
1 708
1 709
1 710
1 711
1 712
1 713
1 714
1 715
1 716
1 717
1 718
1 719
1 720
1 721
1 722
1 723
1 724
1 725
1 726
1 727
1 728
1 729
1 730
1 731
1 732
1 733
1 734
1 735
1 736
1 737
1 738
1 739
1 740
1 741
1 742
1 743
1 744
1 745
1 746
1 747
1 748
1 749
1 750
1 751
1 752
1 753
1 754
1 755
1 756
1 757
1 758
1 759
1 760
1 761
1 762
1 763
1 764
1 765
1 766
1 767
1 768
1 769
1 770
1 771
1 772
1 773
1 774
1 775
1 776
1 777
1 778
1 779
1 780
1 781
1 782
1 783
1 784
1 785
1 786
1 787
1 788
1 789
1 790
1 791
1 792
1 793
1 794
1 795
1 796
1 797
1 798
1 799
1 800
1 801
1 802
1 803
1 804
1 805
1 806
1 807
1 808
1 809
1 810
1 811
1 812
1 813
1 814
1 815
1 816
1 817
1 818
1 819
1 820
1 821
1 822
1 823
1 824
1 825
1 826
1 827
1 828
1 829
1 830
1 831
1 832
1 833
1 834
1 835
1 836
1 837
1 838
1 839
1 840
1 841
1 842
1 843
1 844
1 845
1 846
1 847
1 848
1 849
1 850
1 851
1 852
1 853
1 854
1 855
1 856
1 857
1 858
1 859
1 860
1 861
1 862
1 863
1 864
1 865
1 866
1 867
1 868
1 869
1 870
1 871
1 872
1 873
1 874
1 875
1 876
1 877
1 878
1 879
1 880
1 881
1 882
1 883
1 884
1 885
1 886
1 887
1 888
1 889
1 890
1 891
1 892
1 893
1 894
1 895
1 896
1 897
1 898
1 899
1 900
1 901
1 902
1 903
1 904
1 905
1 906
1 907
1 908
1 909
1 910
1 911
1 912
1 913
1 914
1 915
1 916
1 917
1 918
1 919
1 920
1 921
1 922
1 923
1 924
1 925
1 926
1 927
1 928
1 929
1 930
1 931
1 932
1 933
1 934
1 935
1 936
1 937
1 938
1 939
1 940
1 941
1 942
1 943
1 944
1 945
1 946
1 947
1 948
1 949
1 950
1 951
1 952
1 953
1 954
1 955
1 956
1 957
1 958
1 959
1 960
1 961
1 962
1 963
1 964
1 965
1 966
1 967
1 968
1 969
1 970
1 971
1 972
1 973
1 974
1 975
1 976
1 977
1 978
1 979
1 980
1 981
1 982
1 983
1 984
1 985
1 986
1 987
1 988
1 989
1 990
1 991
1 992
1 993
1 994
1 995
1 996
1 997
1 998
1 999
1 1000
1 1001
1 1002
1 1003
1 1004
1 1005
1 1006
1 1007
1 1008
1 1009
1 1010
1 1011
1 1012
1 1013
1 1014
1 1015
1 1016
1 1017
1 1018
1 1019
1 1020
1 1021
1 1022
1 1023
1 1024
1 1025
1 1026
1 1027
1 1028
1 1029
1 1030
1 1031
1 1032
1 1033
1 1034
1 1035
1 1036
1 1037
1 1038
1 1039
1 1040
1 1041
1 1042
1 1043
1 1044
1 1045
1 1046
1 1047
1 1048
1 1049
1 1050
1 1051
1 1052
1 1053
1 1054
1 1055
1 1056
1 1057
1 1058
1 1059
1 1060
1 1061
1 1062
1 1063
1 1064
1 1065
1 1066
1 1067
1 1068
1 1069
1 1070
1 1071
1 1072
1 1073
1 1074
1 1075
1 1076
1 1077
1 1078
1 1079
1 1080
1 1081
1 1082
1 1083
1 1084
1 1085
1 1086
1 1087
1 1088
1 1089
1 1090
1 1091
1 1092
1 1093
1 1094
1 1095
1 1096
1 1097
1 1098
1 1099
1 1100
1 1101
1 1102
1 1103
1 1104
1 1105
1 1106
1 1107
1 1108
1 1109
1 1110
1 1111
1 1112
1 1113
1 1114
1 1115
1 1116
1 1117
1 1118
1 1119
1 1120
1 1121
1 1122
1 1123
1 1124
1 1125
1 1126
1 1127
1 1128
1 1129
1 1130
1 1131
1 1132
1 1133
1 1134
1 1135
1 1136
1 1137
1 1138
1 1139
1 1140
1 1141
1 1142
1 1143
1 1144
1 1145
1 1146
1 1147
1 1148
1 1149
1 1150
1 1151
1 1152
1 1153
1 1154
1 1155
1 1156
1 1157
1 1158
1 1159
1 1160
1 1161
1 1162
1 1163
1 1164
1 1165
1 1166
1 1167
1 1168
1 1169
1 1170
1 1171
1 1172
1 1173
1 1174
1 1175
1 1176
1 1177
1 1178
1 1179
1 1180
1 1181
1 1182
1 1183
1 1184
1 1185
1 1186
1 1187
1 1188
1 1189
1 1190
1 1191
1 1192
1 1193
1 1194
1 1195
1 1196
1 1197
1 1198
1 1199
1 1200
1 1201
1 1202
1 1203
1 1204
1 1205
1 1206
1 1207
1 1208
1 1209
1 1210
1 1211
1 1212
1 1213
1 1214
1 1215
1 1216
1 1217
1 1218
1 1219
1 1220
1 1221
1 1222
1 1223
1 1224
1 1225
1 1226
1 1227
1 1228
1 1229
1 1230
1 1231
1 1232
1 1233
1 1234
1 1235
1 1236
1 1237
1 1238
1 1239
1 1240
1 1241
1 1242
1 1243
1 1244
1 1245
1 1246
1 1247
1 1248
1 1249
1 1250
1 1251
1 1252
1 1253
1 1254
1 1255
1 1256
1 1257
1 1258
1 1259
1 1260
1 1261
1 1262
1 1263
1 1264
1 1265
1 1266
1 1267
1 1268
1 1269
1 1270
1 1271
1 1272
1 1273
1 1274
1 1275
1 1276
1 1277
1 1278
1 1279
1 1280
1 1281
1 1282
1 1283
1 1284
1 1285
1 1286
1 1287
1 1288
1 1289
1 1290
1 1291
1 1292
1 1293
1 1294
1 1295
1 1296
1 1297
1 1298
1 1299
1 1300
1 1301
1 1302
1 1303
1 1304
1 1305
1 1306
1 1307
1 1308
1 1309
1 1310
1 1311
1 1312
1 1313
1 1314
1 1315
1 1316
1 1317
1 1318
1 1319
1 1320
1 1321
1 1322
1 1323
1 1324
1 1325
1 1326
1 1327
1 1328
1 1329
1 1330
1 1331
1 1332
1 1333
1 1334
1 1335
1 1336
1 1337
1 1338
1 1339
1 1340
1 1341
1 1342
1 1343
1 1344
1 1345
1 1346
1 1347
1 1348
1 1349
1 1350
1 1351
1 1352
1 1353
1 1354
1 1355
1 1356
1 1357
1 1358
1 1359
1 1360
1 1361
1 1362
1 1363
1 1364
1 1365
1 1366
1 1367
1 1368
1 1369
1 1370
1 1371
1 1372
1 1373
1 1374
1 1375
1 1376
1 1377
1 1378
1 1379
1 1380
1 1381
1 1382
1 1383
1 1384
1 1385
1 1386
1 1387
1 1388
1 1389
1 1390
1 1391
1 1392
1 1393
1 1394
1 1395
1 1396
1 1397
1 1398
1 1399
1 1400
1 1401
1 1402
1 1403
1 1404
1 1405
1 1406
1 1407
1 1408
1 1409
1 1410
1 1411
1 1412
1 1413
1 1414
1 1415
1 1416
1 1417
1 1418
1 1419
1 1420
1 1421
1 1422
1 1423
1 1424
1 1425
1 1426
1 1427
1 1428
1 1429
1 1430
1 1431
1 1432
1 1433
1 1434
1 1435
1 1436
1 1437
1 1438
1 1439
1 1440
1 1441
1 1442
1 1443
1 1444
1 1445
1 1446
1 1447
1 1448
1 1449
1 1450
1 1451
1 1452
1 1453
1 1454
1 1455
1 1456
1 1457
1 1458
1 1459
1 1460
1 1461
1 1462
1 1463
1 1464
1 1465
1 1466
1 1467
1 1468
1 1469
1 1470
1 1471
1 1472
1 1473
1 1474
1 1475
1 1476
1 1477
1 1478
1 1479
1 1480
1 1481
1 1482
1 1483
1 1484
1 1485
1 1486
1 1487
1 1488
1 1489
1 1490
1 1491
1 1492
1 1493
1 1494
1 1495
1 1496
1 1497
1 1498
1 1499
1 1500
1 1501
1 1502
1 1503
1 1504
1 1505
1 1506
1 1507
1 1508
1 1509
1 1510
1 1511
1 1512
1 1513
1 1514
1 1515
1 1516
1 1517
1 1518
1 1519
1 1520
1 1521
1 1522
1 1523
1 1524
1 1525
1 1526
1 1527
1 1528
1 1529
1 1530
1 1531
1 1532
1 1533
1 1534
1 1535
1 1536
1 1537
1 1538
1 1539
1 1540
1 1541
1 1542
1 1543
1 1544
1 1545
1 1546
1 1547
1 1548
1 1549
1 1550
1 1551
1 1552
1 1553
1 1554
1 1555
1 1556
1 1557
1 1558
1 1559
1 1560
1 1561
1 1562
1 1563
1 1564
1 1565
1 1566
1 1567
1 1568
1 1569
1 1570
1 1571
1 1572
1 1573
1 1574
1 1575
1 1576
1 1577
1 1578
1 1579
1 1580
1 1581
1 1582
1 1583
1 1584
1 1585
1 1586
1 1587
1 1588
1 1589
1 1590
1 1591
1 1592
1 1593
1 1594
1 1595
1 1596
1 1597
1 1598
1 1599
1 1600
1 1601
1 1602
1 1603
1 1604
1 1605
1 1606
1 1607
1 1608
1 1609
1 1610
1 1611
1 1612
1 1613
1 1614
1 1615
1 1616
1 1617
1 1618
1 1619
1 1620
1 1621
1 1622
1 1623
1 1624
1 1625
1 1626
1 1627
1 1628
1 1629
1 1630
1 1631
1 1632
1 1633
1 1634
1 1635
1 1636
1 1637
1 1638
1 1639
1 1640
1 1641
1 1642
1 1643
1 1644
1 1645
1 1646
1 1647
1 1648
1 1649
1 1650
1 1651
1 1652
1 1653
1 1654
1 1655
1 1656
1 1657
1 1658
1 1659
1 1660
1 1661
1 1662
1 1663
1 1664
1 1665
1 1666
1 1667
1 1668
1 1669
1 1670
1 1671
1 1672
1 1673
1 1674
1 1675
1 1676
1 1677
1 1678
1 1679
1 1680
1 1681
1 1682
1 1683
1 1684
1 1685
1 1686
1 1687
1 1688
1 1689
1 1690
1 1691
1 1692
1 1693
1 1694
1 1695
1 1696
1 1697
1 1698
1 1699
1 1700
1 1701
1 1702
1 1703
1 1704
1 1705
1 1706
1 1707
1 1708
1 1709
1 1710
1 1711
1 1712
1 1713
1 1714
1 1715
1 1716
1 1717
1 1718
1 1719
1 1720
1 1721
1 1722
1 1723
1 1724
1 1725
1 1726
1 1727
1 1728
1 1729
1 1730
1 1731
1 1732
1 1733
1 1734
1 1735
1 1736
1 1737
1 1738
1 1739
1 1740
1 1741
1 1742
1 1743
1 1744
1 1745
1 1746
1 1747
1 1748
1 1749
1 1750
1 1751
1 1752
1 1753
1 1754
1 1755
1 1756
1 1757
1 1758
1 1759
1 1760
1 1761
1 1762
1 1763
1 1764
1 1765
1 1766
1 1767
1 1768
1 1769
1 1770
1 1771
1 1772
1 1773
1 1774
1 1775
1 1776
1 1777
1 1778
1 1779
1 1780
1 1781
1 1782
1 1783
1 1784
1 1785
1 1786
1 1787
1 1788
1 1789
1 1790
1 1791
1 1792
1 1793
1 1794
1 1795
1 1796
1 1797
1 1798
1 1799
1 1800
1 1801
1 1802
1 1803
1 1804
1 1805
1 1806
1 1807
1 1808
1 1809
1 1810
1 1811
1 1812
1 1813
1 1814
1 1815
1 1816
1 1817
1 1818
1 1819
1 1820
1 1821
1 1822
1 1823
1 1824
1 1825
1 1826
1 1827
1 1828
1 1829
1 1830
1 1831
1 1832
1 1833
1 1834
1 1835
1 1836
1 1837
1 1838
1 1839
1 1840
1 1841
1 1842
1 1843
1 1844
1 1845
1 1846
1 1847
1 1848
1 1849
1 1850
1 1851
1 1852
1 1853
1 1854
1 1855
1 1856
1 1857
1 1858
1 1859
1 1860
1 1861
1 1862
1 1863
1 1864
1 1865
1 1866
1 1867
1 1868
1 1869
1 1870
1 1871
1 1872
1 1873
1 1874
1 1875
1 1876
1 1877
1 1878
1 1879
1 1880
1 1881
1 1882
1 1883
1 1884
1 1885
1 1886
1 1887
1 1888
1 1889
1 1890
1 1891
1 1892
1 1893
1 1894
1 1895
1 1896
1 1897
1 1898
1 1899
1 1900
1 1901
1 1902
1 1903
1 1904
1 1905
1 1906
1 1907
1 1908
1 1909
1 1910
1 1911
1 1912
1 1913
1 1914
1 1915
1 1916
1 1917
1 1918
1 1919
1 1920
1 1921
1 1922
1 1923
1 1924
1 1925
1 1926
1 1927
1 1928
1 1929
1 1930
1 1931
1 1932
1 1933
1 1934
1 1935
1 1936
1 1937
1 1938
1 1939
1 1940
1 1941
1 1942
1 1943
1 1944
1 1945
1 1946
1 1947
1 1948
1 1949
1 1950
1 1951
1 1952
1 1953
1 1954
1 1955
1 1956
1 1957
1 1958
1 1959
1 1960
1 1961
1 1962
1 1963
1 1964
1 1965
1 1966
1 1967
1 1968
1 1969
1 1970
1 1971
1 1972
1 1973
1 1974
1 1975
1 1976
1 1977
1 1978
1 1979
1 1980
1 1981
1 1982
1 1983
1 1984
1 1985
1 1986
1 1987
1 1988
1 1989
1 1990
1 1991
1 1992
1 1993
1 1994
1 1995
1 1996
1 1997
1 1998
1 1999
1 2000
1 2001
1 2002
1 2003
1 2004
1 2005
1 2006
1 2007
1 2008
1 2009
1 2010
1 2011
1 2012
1 2013
1 2014
1 2015
1 2016
1 2017
1 2018
1 2019
1 2020
1 2021
1 2022
1 2023
1 2024
1 2025
1 2026
1 2027
1 2028
1 2029
1 2030
1 2031
1 2032
1 2033
1 2034
1 2035
1 2036
1 2037
1 2038
1 2039
1 2040
1 2041
1 2042
1 2043
1 2044
1 2045
1 2046
1 2047
1 2048
1 2049
1 2050
1 2051
1 2052
1 2053
1 2054
1 2055
1 2056
1 2057
1 2058
1 2059
1 2060
1 2061
1 2062
1 2063
1 2064
1 2065
1 2066
1 2067
1 2068
1 2069
1 2070
1 2071
1 2072
1 2073
1 2074
1 2075
1 2076
1 2077
1 2078
1 2079
1 2080
1 2081
1 2082
1 2083
1 2084
1 2085
1 2086
1 2087
1 2088
1 2089
1 2090
1 2091
1 2092
1 2093
1 2094
1 2095
1 2096
1 2097
1 2098
1 2099
1 2100
1 2101
1 2102
1 2103
1 2104
1 2105
1 2106
1 2107
1 2108
1 2109
1 2110
1 2111
1 2112
1 2113
1 2114
1 2115
1 2116
1 2117
1 2118
1 2119
1 2120
1 2121
1 2122
1 2123
1 2124
1 2125
1 2126
1 2127
1 2128
1 2129
1 2130
1 2131
1 2132
1 2133
1 2134
1 2135
1 2136
1 2137
1 2138
1 2139
1 2140
1 2141
1 2142
1 2143
1 2144
1 2145
1 2146
1 2147
1 2148
1 2149
1 2150
1 2151
1 2152
1 2153
1 2154
1 2155
1 2156
1 2157
1 2158
1 2159
1 2160
1 2161
1 2162
1 2163
1 2164
1 2165
1 2166
1 2167
1 2168
1 2169
1 2170
1 2171
1 2172
1 2173
1 2174
1 2175
1 2176
1 2177
1 2178
1 2179
1 2180
1 2181
1 2182
1 2183
1 2184
1 2185
1 2186
1 2187
1 2188
1 2189
1 2190
1 2191
1 2192
1 2193
1 2194
1 2195
1 2196
1 2197
1 2198
1 2199
1 2200
1 2201
1 2202
1 2203
1 2204
1 2205
1 2206
1 2207
1 2208
1 2209
1 2210
1 2211
1 2212
1 2213
1 2214
1 2215
1 2216
1 2217
1 2218
1 2219
1 2220
1 2221
1 2222
1 2223
1 2224
1 2225
1 2226
1 2227
1 2228
1 2229
1 2230
1 2231
1 2232
1 2233
1 2234
1 2235
1 2236
1 2237
1 2238
1 2239
1 2240
1 2241
1 2242
1 2243
1 2244
1 2245
1 2246
1 2247
1 2248
1 2249
1 2250
1 2251
1 2252
1 2253
1 2254
1 2255
1 2256
1 2257
1 2258
1 2259
1 2260
1 2261
1 2262
1 2263
1 2264
1 2265
1 2266
1 2267
1 2268
1 2269
1 2270
1 2271
1 2272
1 2273
1 2274
1 2275
1 2276
1 2277
1 2278
1 2279
1 2280
1 2281
1 2282
1 2283
1 2284
1 2285
1 2286
1 2287
1 2288
1 2289
1 2290
1 2291
1 2292
1 2293
1 2294
1 2295
1 2296
1 2297
1 2298
1 2299
1 2300
1 2301
1 2302
1 2303
1 2304
1 2305
1 2306
1 2307
1 2308
1 2309
1 2310
1 2311
1 2312
1 2313
1 2314
1 2315
1 2316
1 2317
1 2318
1 2319
1 2320
1 2321
1 2322
1 2323
1 2324
1 2325
1 2326
1 2327
1 2328
1 2329
1 2330
1 2331
1 2332
1 2333
1 2334
1 2335
1 2336
1 2337
1 2338
1 2339
1 2340
1 2341
1 2342
1 2343
1 2344
1 2345
1 2346
1 2347
1 2348
1 2349
1 2350
1 2351
1 2352
1 2353
1 2354
1 2355
1 2356
1 2357
1 2358
1 2359
1 2360
1 2361
1 2362
1 2363
1 2364
1 2365
1 2366
1 2367
1 2368
1 2369
1 2370
1 2371
1 2372
1 2373
1 2374
1 2375
1 2376
1 2377
1 2378
1 2379
1 2380
1 2381
1 2382
1 2383
1 2384
1 2385
1 2386
1 2387
1 2388
1 2389
1 2390
1 2391
1 2392
1 2393
1 2394
1 2395
1 2396
1 2397
1 2398
1 2399
1 2400
1 2401
1 2402
1 2403
1 2404
1 2405
1 2406
1 2407
1 2408
1 2409
1 2410
1 2411
1 2412
1 2413
1 2414
1 2415
1 2416
1 2417
1 2418
1 2419
1 2420
1 2421
1 2422
1 2423
1 2424
1 2425
1 2426
1 2427
1 2428
1 2429
1 2430
1 2431
1 2432
1 2433
1 2434
1 2435
1 2436
1 2437
1 2438
1 2439
1 2440
1 2441
1 2442
1 2443
1 2444
1 2445
1 2446
1 2447
1 2448
1 2449
1 2450
1 2451
1 2452
1 2453
1 2454
1 2455
1 2456
1 2457
1 2458
1 2459
1 2460
1 2461
1 2462
1 2463
1 2464
1 2465
1 2466
1 2467
1 2468
1 2469
1 2470
1 2471
1 2472
1 2473
1 2474
1 2475
1 2476
1 2477
1 2478
1 2479
1 2480
1 2481
1 2482
1 2483
1 2484
1 2485
1 2486
1 2487
1 2488
1 2489
1 2490
1 2491
1 2492
1 2493
1 2494
1 2495
1 2496
1 2497
1 2498
1 2499
1 2500
1 2501
1 2502
1 2503
1 2504
1 2505
1 2506
1 2507
1 2508
1 2509
1 2510
1 2511
1 2512
1 2513
1 2514
1 2515
1 2516
1 2517
1 2518
1 2519
1 2520
1 2521
1 2522
1 2523
1 2524
1 2525
1 2526
1 2527
1 2528
1 2529
1 2530
1 2531
1 2532
1 2533
1 2534
1 2535
1 2536
1 2537
1 2538
1 2539
1 2540
1 2541
1 2542
1 2543
1 2544
1 2545
1 2546
1 2547
1 2548
1 2549
1 2550
1 2551
1 2552
1 2553
1 2554
1 2555
1 2556
1 2557
1 2558
1 2559
1 2560
1 2561
1 2562
1 2563
1 2564
1 2565
1 2566
1 2567
1 2568
1 2569
1 2570
1 2571
1 2572
1 2573
1 2574
1 2575
1 2576
1 2577
1 2578
1 2579
1 2580
1 2581
1 2582
1 2583
1 2584
1 2585
1 2586
1 2587
1 2588
1 2589
1 2590
1 2591
1 2592
1 2593
1 2594
1 2595
1 2596
1 2597
1 2598
1 2599
1 2600
1 2601
1 2602
1 2603
1 2604
1 2605
1 2606
1 2607
1 2608
1 2609
1 2610
1 2611
1 2612
1 2613
1 2614
1 2615
1 2616
1 2617
1 2618
1 2619
1 2620
1 2621
1 2622
1 2623
1 2624
1 2625
1 2626
1 2627
1 2628
1 2629
1 2630
1 2631
1 2632
1 2633
1 2634
1 2635
1 2636
1 2637
1 2638
1 2639
1 2640
1 2641
1 2642
1 2643
1 2644
1 2645
1 2646
1 2647
1 2648
1 2649
1 2650
1 2651
1 2652
1 2653
1 2654
1 2655
1 2656
1 2657
1 2658
1 2659
1 2660
1 2661
1 2662
1 2663
1 2664
1 2665
1 2666
1 2667
1 2668
1 2669
1 2670
1 2671
1 2672
1 2673
1 2674
1 2675
1 2676
1 2677
1 2678
1 2679
1 2680
1 2681
1 2682
1 2683
1 2684
1 2685
1 2686
1 2687
1 2688
1 2689
1 2690
1 2691
1 2692
1 2693
1 2694
1 2695
1 2696
1 2697
1 2698
1 2699
1 2700
1 2701
1 2702
1 2703
1 2704
1 2705
1 2706
1 2707
1 2708
1 2709
1 2710
1 2711
1 2712
1 2713
1 2714
1 2715
1 2716
1 2717
1 2718
1 2719
1 2720
1 2721
1 2722
1 2723
1 2724
1 2725
1 2726
1 2727
1 2728
1 2729
1 2730
1 2731
1 2732
1 2733
1 2734
1 2735
1 2736
1 2737
1 2738
1 2739
1 2740
1 2741
1 2742
1 2743
1 2744
1 2745
1 2746
1 2747
1 2748
1 2749
1 2750
1 2751
1 2752
1 2753
1 2754
1 2755
1 2756
1 2757
1 2758
1 2759
1 2760
1 2761
1 2762
1 2763
1 2764
1 2765
1 2766
1 2767
1 2768
1 2769
1 2770
1 2771
1 2772
1 2773
1 2774
1 2775
1 2776
1 2777
1 2778
1 2779
1 2780
1 2781
1 2782
1 2783
1 2784
1 2785
1 2786
1 2787
1 2788
1 2789
1 2790
1 2791
1 2792
1 2793
1 2794
1 2795
1 2796
1 2797
1 2798
1 2799
1 2800
1 2801
1 2802
1 2803
1 2804
1 2805
1 2806
1 2807
1 2808
1 2809
1 2810
1 2811
1 2812
1 2813
1 2814
1 2815
1 2816
1 2817
1 2818
1 2819
1 2820
1 2821
1 2822
1 2823
1 2824
1 2825
1 2826
1 2827
1 2828
1 2829
1 2830
1 2831
1 2832
1 2833
1 2834
1 2835
1 2836
1 2837
1 2838
1 2839
1 2840
1 2841
1 2842
1 2843
1 2844
1 2845
1 2846
1 2847
1 2848
1 2849
1 2850
1 2851
1 2852
1 2853
1 2854
1 2855
1 2856
1 2857
1 2858
1 2859
1 2860
1 2861
1 2862
1 2863
1 2864
1 2865
1 2866
1 2867
1 2868
1 2869
1 2870
1 2871
1 2872
1 2873
1 2874
1 2875
1 2876
1 2877
1 2878
1 2879
1 2880
1 2881
1 2882
1 2883
1 2884
1 2885
1 2886
1 2887
1 2888
1 2889
1 2890
1 2891
1 2892
1 2893
1 2894
1 2895
1 2896
1 2897
1 2898
1 2899
1 2900
1 2901
1 2902
1 2903
1 2904
1 2905
1 2906
1 2907
1 2908
1 2909
1 2910
1 2911
1 2912
1 2913
1 2914
1 2915
1 2916
1 2917
1 2918
1 2919
1 2920
1 2921
1 2922
1 2923
1 2924
1 2925
1 2926
1 2927
1 2928
1 2929
1 2930
1 2931
1 2932
1 2933
1 2934
1 2935
1 2936
1 2937
1 2938
1 2939
1 2940
1 2941
1 2942
1 2943
1 2944
1 2945
1 2946
1 2947
1 2948
1 2949
1 2950
1 2951
1 2952
1 2953
1 2954
1 2955
1 2956
1 2957
1 2958
1 2959
1 2960
1 2961
1 2962
1 2963
1 2964
1 2965
1 2966
1 2967
1 2968
1 2969
1 2970
1 2971
1 2972
1 2973
1 2974
1 2975
1 2976
1 2977
1 2978
1 2979
1 2980
1 2981
1 2982
1 2983
1 2984
1 2985
1 2986
1 2987
1 2988
1 2989
1 2990
1 2991
1 2992
1 2993
1 2994
1 2995
1 2996
1 2997
1 2998
1 2999
1 3000
1 3001
1 3002
1 3003
1 3004
1 3005
1 3006
1 3007
1 3008
1 3009
1 3010
1 3011
1 3012
1 3013
1 3014
1 3015
1 3016
1 3017
1 3018
1 3019
1 3020
1 3021
1 3022
1 3023
1 3024
1 3025
1 3026
1 3027
1 3028
1 3029
1 3030
1 3031
1 3032
1 3033
1 3034
1 3035
1 3036
1 3037
1 3038
1 3039
1 3040
1 3041
1 3042
1 3043
1 3044
1 3045
1 3046
1 3047
1 3048
1 3049
1 3050
1 3051
1 3052
1 3053
1 3054
1 3055
1 3056
1 3057
1 3058
1 3059
1 3060
1 3061
1 3062
1 3063
1 3064
1 3065
1 3066
1 3067
1 3068
1 3069
1 3070
1 3071
1 3072
1 3073
1 3074
1 3075
1 3076
1 3077
1 3078
1 3079
1 3080
1 3081
1 3082
1 3083
1 3084
1 3085
1 3086
1 3087
1 3088
1 3089
1 3090
1 3091
1 3092
1 3093
1 3094
1 3095
1 3096
1 3097
1 3098
1 3099
1 3100
1 3101
1 3102
1 3103
1 3104
1 3105
1 3106
1 3107
1 3108
1 3109
1 3110
1 3111
1 3112
1 3113
1 3114
1 3115
1 3116
1 3117
1 3118
1 3119
1 3120
1 3121
1 3122
1 3123
1 3124
1 3125
1 3126
1 3127
1 3128
1 3129
1 3130
1 3131
1 3132
1 3133
1 3134
1 3135
1 3136
1 3137
1 3138
1 3139
1 3140
1 3141
1 3142
1 3143
1 3144
1 3145
1 3146
1 3147
1 3148
1 3149
1 3150
1 3151
1 3152
1 3153
1 3154
1 3155
1 3156
1 3157
1 3158
1 3159
1 3160
1 3161
1 3162
1 3163
1 3164
1 3165
1 3166
1 3167
1 3168
1 3169
1 3170
1 3171
1 3172
1 3173
1 3174
1 3175
1 3176
1 3177
1 3178
1 3179
1 3180
1 3181
1 3182
1 3183
1 3184
1 3185
1 3186
1 3187
1 3188
1 3189
1 3190
1 3191
1 3192
1 3193
1 3194
1 3195
1 3196
1 3197
1 3198
1 3199
1 3200
1 3201
1 3202
1 3203
1 3204
1 3205
1 3206
1 3207
1 3208
1 3209
1 3210
1 3211
1 3212
1 3213
1 3214
1 3215
1 3216
1 3217
1 3218
1 3219
1 3220
1 3221
1 3222
1 3223
1 3224
1 3225
1 3226
1 3227
1 3228
1 3229
1 3230
1 3231
1 3232
1 3233
1 3234
1 3235
1 3236
1 3237
1 3238
1 3239
1 3240
1 3241
1 3242
1 3243
1 3244
1 3245
1 3246
1 3247
1 3248
1 3249
1 3250
1 3251
1 3252
1 3253
1 3254
1 3255
1 3256
1 3257
1 3258
1 3259
1 3260
1 3261
1 3262
1 3263
1 3264
1 3265
1 3266
1 3267
1 3268
1 3269
1 3270
1 3271
1 3272
1 3273
1 3274
1 3275
1 3276
1 3277
1 3278
1 3279
1 3280
1 3281
1 3282
1 3283
1 3284
1 3285
1 3286
1 3287
1 3288
1 3289
1 3290
1 3291
1 3292
1 3293
1 3294
1 3295
1 3296
1 3297
1 3298
1 3299
1 3300
1 3301
1 3302
1 3303
1 3304
1 3305
1 3306
1 3307
1 3308
1 3309
1 3310
1 3311
1 3312
1 3313
1 3314
1 3315
1 3316
1 3317
1 3318
1 3319
1 3320
1 3321
1 3322
1 3323
1 3324
1 3325
1 3326
1 3327
1 3328
1 3329
1 3330
1 3331
1 3332
1 3333
1 3334
1 3335
1 3336
1 3337
1 3338
1 3339
1 3340
1 3341
1 3342
1 3343
1 3344
1 3345
1 3346
1 3347
1 3348
1 3349
1 3350
1 3351
1 3352
1 3353
1 3354
1 3355
1 3356
1 3357
1 3358
1 3359
1 3360
1 3361
1 3362
1 3363
1 3364
1 3365
1 3366
1 3367
1 3368
1 3369
1 3370
1 3371
1 3372
1 3373
1 3374
1 3375
1 3376
1 3377
1 3378
1 3379
1 3380
1 3381
1 3382
1 3383
1 3384
1 3385
1 3386
1 3387
1 3388
1 3389
1 3390
1 3391
1 3392
1 3393
1 3394
1 3395
1 3396
1 3397
1 3398
1 3399
1 3400
1 3401
1 3402
1 3403
1 3404
1 3405
1 3406
1 3407
1 3408
1 3409
1 3410
1 3411
1 3412
1 3413
1 3414
1 3415
1 3416
1 3417
1 3418
1 3419
1 3420
1 3421
1 3422
1 3423
1 3424
1 3425
1 3426
1 3427
1 3428
1 3429
1 3430
1 3431
1 3432
1 3433
1 3434
1 3435
1 3436
1 3437
1 3438
1 3439
1 3440
1 3441
1 3442
1 3443
1 3444
1 3445
1 3446
1 3447
1 3448
1 3449
1 3450
1 3451
1 3452
1 3453
1 3454
1 3455
1 3456
1 3457
1 3458
1 3459
1 3460
1 3461
1 3462
1 3463
1 3464
1 3465
1 3466
1 3467
1 3468
1 3469
1 3470
1 3471
1 3472
1 3473
1 3474
1 3475
1 3476
1 3477
1 3478
1 3479
1 3480
1 3481
1 3482
1 3483
1 3484
1 3485
1 3486
1 3487
1 3488
1 3489
1 3490
1 3491
1 3492
1 3493
1 3494
1 3495
1 3496
1 3497
1 3498
1 3499
1 3500
1 3501
1 3502
1 3503
1 3504
1 3505
1 3506
1 3507
1 3508
1 3509
1 3510
1 3511
1 3512
1 3513
1 3514
1 3515
1 3516
1 3517
1 3518
1 3519
1 3520
1 3521
1 3522
1 3523
1 3524
1 3525
1 3526
1 3527
1 3528
1 3529
1 3530
1 3531
1 3532
1 3533
1 3534
1 3535
1 3536
1 3537
1 3538
1 3539
1 3540
1 3541
1 3542
1 3543
1 3544
1 3545
1 3546
1 3547
1 3548
1 3549
1 3550
1 3551
1 3552
1 3553
1 3554
1 3555
1 3556
1 3557
1 3558
1 3559
1 3560
1 3561
1 3562
1 3563
1 3564
1 3565
1 3566
1 3567
1 3568
1 3569
1 3570
1 3571
1 3572
1 3573
1 3574
1 3575
1 3576
1 3577
1 3578
1 3579
1 3580
1 3581
1 3582
1 3583
1 3584
1 3585
1 3586
1 3587
1 3588
1 3589
1 3590
1 3591
1 3592
1 3593
1 3594
1 3595
1 3596
1 3597
1 3598
1 3599
1 3600
1 3601
1 3602
1 3603
1 3604
1 3605
1 3606
1 3607
1 3608
1 3609
1 3610
1 3611
1 3612
1 3613
1 3614
1 3615
1 3616
1 3617
1 3618
1 3619
1 3620
1 3621
1 3622
1 3623
1 3624
1 3625
1 3626
1 3627
1 3628
1 3629
1 3630
1 3631
1 3632
1 3633
1 3634
1 3635
1 3636
1 3637
1 3638
1 3639
1 3640
1 3641
1 3642
1 3643
1 3644
1 3645
1 3646
1 3647
1 3648
1 3649
1 3650
1 3651
1 3652
1 3653
1 3654
1 3655
1 3656
1 3657
1 3658
1 3659
1 3660
1 3661
1 3662
1 3663
1 3664
1 3665
1 3666
1 3667
1 3668
1 3669
1 3670
1 3671
1 3672
1 3673
1 3674
1 3675
1 3676
1 3677
1 3678
1 3679
1 3680
1 3681
1 3682
1 3683
1 3684
1 3685
1 3686
1 3687
1 3688
1 3689
1 3690
1 3691
1 3692
1 3693
1 3694
1 3695
1 3696
1 3697
1 3698
1 3699
1 3700
1 3701
1 3702
1 3703
1 3704
1 3705
1 3706
1 3707
1 3708
1 3709
1 3710
1 3711
1 3712
1 3713
1 3714
1 3715
1 3716
1 3717
1 3718
1 3719
1 3720
1 3721
1 3722
1 3723
1 3724
1 3725
1 3726
1 3727
1 3728
1 3729
1 3730
1 3731
1 3732
1 3733
1 3734
1 3735
1 3736
1 3737
1 3738
1 3739
1 3740
1 3741
1 3742
1 3743
1 3744
1 3745
1 3746
1 3747
1 3748
1 3749
1 3750
1 3751
1 3752
1 3753
1 3754
1 3755
1 3756
1 3757
1 3758
1 3759
1 3760
1 3761
1 3762
1 3763
1 3764
1 3765
1 3766
1 3767
1 3768
1 3769
1 3770
1 3771
1 3772
1 3773
1 3774
1 3775
1 3776
1 3777
1 3778
1 3779
1 3780
1 3781
1 3782
1 3783
1 3784
1 3785
1 3786
1 3787
1 3788
1 3789
1 3790
1 3791
1 3792
1 3793
1 3794
1 3795
1 3796
1 3797
1 3798
1 3799
1 3800
1 3801
1 3802
1 3803
1 3804
1 3805
1 3806
1 3807
1 3808
1 3809
1 3810
1 3811
1 3812
1 3813
1 3814
1 3815
1 3816
1 3817
1 3818
1 3819
1 3820
1 3821
1 3822
1 3823
1 3824
1 3825
1 3826
1 3827
1 3828
1 3829
1 3830
1 3831
1 3832
1 3833
1 3834
1 3835
1 3836
1 3837
1 3838
1 3839
1 3840
1 3841
1 3842
1 3843
1 3844
1 3845
1 3846
1 3847
1 3848
1 3849
1 3850
1 3851
1 3852
1 3853
1 3854
1 3855
1 3856
1 3857
1 3858
1 3859
1 3860
1 3861
1 3862
1 3863
1 3864
1 3865
1 3866
1 3867
1 3868
1 3869
1 3870
1 3871
1 3872
1 3873
1 3874
1 3875
1 3876
1 3877
1 3878
1 3879
1 3880
1 3881
1 3882
1 3883
1 3884
1 3885
1 3886
1 3887
1 3888
1 3889
1 3890
1 3891
1 3892
1 3893
1 3894
1 3895
1 3896
1 3897
1 3898
1 3899
1 3900
1 3901
1 3902
1 3903
1 3904
1 3905
1 3906
1 3907
1 3908
1 3909
1 3910
1 3911
1 3912
1 3913
1 3914
1 3915
1 3916
1 3917
1 3918
1 3919
1 3920
1 3921
1 3922
1 3923
1 3924
1 3925
1 3926
1 3927
1 3928
1 3929
1 3930
1 3931
1 3932
1 3933
1 3934
1 3935
1 3936
1 3937
1 3938
1 3939
1 3940
1 3941
1 3942
1 3943
1 3944
1 3945
1 3946
1 3947
1 3948
1 3949
1 3950
1 3951
1 3952
1 3953
1 3954
1 3955
1 3956
1 3957
1 3958
1 3959
1 3960
1 3961
1 3962
1 3963
1 3964
1 3965
1 3966
1 3967
1 3968
1 3969
1 3970
1 3971
1 3972
1 3973
1 3974
1 3975
1 3976
1 3977
1 3978
1 3979
1 3980
1 3981
1 3982
1 3983
1 3984
1 3985
1 3986
1 3987
1 3988
1 3989
1 3990
1 3991
1 3992
1 3993
1 3994
1 3995
1 3996
1 3997
1 3998
1 3999
1 4000
1 4001
1 4002
1 4003
1 4004
1 4005
1 4006
1 4007
1 4008
1 4009
1 4010
1 4011
1 4012
1 4013
1 4014
1 4015
1 4016
1 4017
1 4018
1 4019
1 4020
1 4021
1 4022
1 4023
1 4024
1 4025
1 4026
1 4027
1 4028
1 4029
1 4030
1 4031
1 4032
1 4033
1 4034
1 4035
1 4036
1 4037
1 4038
1 4039
1 4040
1 4041
1 4042
1 4043
1 4044
1 4045
1 4046
1 4047
1 4048
1 4049
1 4050
1 4051
1 4052
1 4053
1 4054
1 4055
1 4056
1 4057
1 4058
1 4059
1 4060
1 4061
1 4062
1 4063
1 4064
1 4065
1 4066
1 4067
1 4068
1 4069
1 4070
1 4071
1 4072
1 4073
1 4074
1 4075
1 4076
1 4077
1 4078
1 4079
1 4080
1 4081
1 4082
1 4083
1 4084
1 4085
1 4086
1 4087
1 4088
1 4089
1 4090
1 4091
1 4092
1 4093
1 4094
1 4095
1 4096
1 4097
1 4098
1 4099
1 4100
1 4101
1 4102
1 4103
1 4104
1 4105
1 4106
1 4107
1 4108
1 4109
1 4110
1 4111
1 4112
1 4113
1 4114
1 4115
1 4116
1 4117
1 4118
1 4119
1 4120
1 4121
1 4122
1 4123
1 4124
1 4125
1 4126
1 4127
1 4128
1 4129
1 4130
1 4131
1 4132
1 4133
1 4134
1 4135
1 4136
1 4137
1 4138
1 4139
1 4140
1 4141
1 4142
1 4143
1 4144
1 4145
1 4146
1 4147
1 4148
1 4149
1 4150
1 4151
1 4152
1 4153
1 4154
1 4155
1 4156
1 4157
1 4158
1 4159
1 4160
1 4161
1 4162
1 4163
1 4164
1 4165
1 4166
1 4167
1 4168
1 4169
1 4170
1 4171
1 4172
1 4173
1 4174
1 4175
1 4176
1 4177
1 4178
1 4179
1 4180
1 4181
1 4182
1 4183
1 4184
1 4185
1 4186
1 4187
1 4188
1 4189
1 4190
1 4191
1 4192
1 4193
1 4194
1 4195
1 4196
1 4197
1 4198
1 4199
1 4200
1 4201
1 4202
1 4203
1 4204
1 4205
1 4206
1 4207
1 4208
1 4209
1 4210
1 4211
1 4212
1 4213
1 4214
1 4215
1 4216
1 4217
1 4218
1 4219
1 4220
1 4221
1 4222
1 4223
1 4224
1 4225
1 4226
1 4227
1 4228
1 4229
1 4230
1 4231
1 4232
1 4233
1 4234
1 4235
1 4236
1 4237
1 4238
1 4239
1 4240
1 4241
1 4242
1 4243
1 4244
1 4245
1 4246
1 4247
1 4248
1 4249
1 4250
1 4251
1 4252
1 4253
1 4254
1 4255
1 4256
1 4257
1 4258
1 4259
1 4260
1 4261
1 4262
1 4263
1 4264
1 4265
1 4266
1 4267
1 4268
1 4269
1 4270
1 4271
1 4272
1 4273
1 4274
1 4275
1 4276
1 4277
1 4278
1 4279
1 4280
1 4281
1 4282
1 4283
1 4284
1 4285
1 4286
1 4287
1 4288
1 4289
1 4290
1 4291
1 4292
1 4293
1 4294
1 4295
1 4296
1 4297
1 4298
1 4299
1 4300
1 4301
1 4302
1 4303
1 4304
1 4305
1 4306
1 4307
1 4308
1 4309
1 4310
1 4311
1 4312
1 4313
1 4314
1 4315
1 4316
1 4317
1 4318
1 4319
1 4320
1 4321
1 4322
1 4323
1 4324
1 4325
1 4326
1 4327
1 4328
1 4329
1 4330
1 4331
1 4332
1 4333
1 4334
1 4335
1 4336
1 4337
1 4338
1 4339
1 4340
1 4341
1 4342
1 4343
1 4344
1 4345
1 4346
1 4347
1 4348
1 4349
1 4350
1 4351
1 4352
1 4353
1 4354
1 4355
1 4356
1 4357
1 4358
1 4359
1 4360
1 4361
1 4362
1 4363
1 4364
1 4365
1 4366
1 4367
1 4368
1 4369
1 4370
1 4371
1 4372
1 4373
1 4374
1 4375
1 4376
1 4377
1 4378
1 4379
1 4380
1 4381
1 4382
1 4383
1 4384
1 4385
1 4386
1 4387
1 4388
1 4389
1 4390
1 4391
1 4392
1 4393
1 4394
1 4395
1 4396
1 4397
1 4398
1 4399
1 4400
1 4401
1 4402
1 4403
1 4404
1 4405
1 4406
1 4407
1 4408
1 4409
1 4410
1 4411
1 4412
1 4413
1 4414
1 4415
1 4416
1 4417
1 4418
1 4419
1 4420
1 4421
1 4422
1 4423
1 4424
1 4425
1 4426
1 4427
1 4428
1 4429
1 4430
1 4431
1 4432
1 4433
1 4434
1 4435
1 4436
1 4437
1 4438
1 4439
1 4440
1 4441
1 4442
1 4443
1 4444
1 4445
1 4446
1 4447
1 4448
1 4449
1 4450
1 4451
1 4452
1 4453
1 4454
1 4455
1 4456
1 4457
1 4458
1 4459
1 4460
1 4461
1 4462
1 4463
1 4464
1 4465
1 4466
1 4467
1 4468
1 4469
1 4470
1 4471
1 4472
1 4473
1 4474
1 4475
1 4476
1 4477
1 4478
1 4479
1 4480
1 4481
1 4482
1 4483
1 4484
1 4485
1 4486
1 4487
1 4488
1 4489
1 4490
1 4491
1 4492
1 4493
1 4494
1 4495
1 4496
1 4497
1 4498
1 4499
1 4500
1 4501
1 4502
1 4503
1 4504
1 4505
1 4506
1 4507
1 4508
1 4509
1 4510
1 4511
1 4512
1 4513
1 4514
1 4515
1 4516
1 4517
1 4518
1 4519
1 4520
1 4521
1 4522
1 4523
1 4524
1 4525
1 4526
1 4527
1 4528
1 4529
1 4530
1 4531
1 4532
1 4533
1 4534
1 4535
1 4536
1 4537
1 4538
1 4539
1 4540
1 4541
1 4542
1 4543
1 4544
1 4545
1 4546
1 4547
1 4548
1 4549
1 4550
1 4551
1 4552
1 4553
1 4554
1 4555
1 4556
1 4557
1 4558
1 4559
1 4560
1 4561
1 4562
1 4563
1 4564
1 4565
1 4566
1 4567
1 4568
1 4569
1 4570
1 4571
1 4572
1 4573
1 4574
1 4575
1 4576
1 4577
1 4578
1 4579
1 4580
1 4581
1 4582
1 4583
1 4584
1 4585
1 4586
1 4587
1 4588
1 4589
1 4590
1 4591
1 4592
1 4593
1 4594
1 4595
1 4596
1 4597
1 4598
1 4599
1 4600
1 4601
1 4602
1 4603
1 4604
1 4605
1 4606
1 4607
1 4608
1 4609
1 4610
1 4611
1 4612
1 4613
1 4614
1 4615
1 4616
1 4617
1 4618
1 4619
1 4620
1 4621
1 4622
1 4623
1 4624
1 4625
1 4626
1 4627
1 4628
1 4629
1 4630
1 4631
1 4632
1 4633
1 4634
1 4635
1 4636
1 4637
1 4638
1 4639
1 4640
1 4641
1 4642
1 4643
1 4644
1 4645
1 4646
1 4647
1 4648
1 4649
1 4650
1 4651
1 4652
1 4653
1 4654
1 4655
1 4656
1 4657
1 4658
1 4659
1 4660
1 4661
1 4662
1 4663
1 4664
1 4665
1 4666
1 4667
1 4668
1 4669
1 4670
1 4671
1 4672
1 4673
1 4674
1 4675
1 4676
1 4677
1 4678
1 4679
1 4680
1 4681
1 4682
1 4683
1 4684
1 4685
1 4686
1 4687
1 4688
1 4689
1 4690
1 4691
1 4692
1 4693
1 4694
1 4695
1 4696
1 4697
1 4698
1 4699
1 4700
1 4701
1 4702
1 4703
1 4704
1 4705
1 4706
1 4707
1 4708
1 4709
1 4710
1 4711
1 4712
1 4713
1 4714
1 4715
1 4716
1 4717
1 4718
1 4719
1 4720
1 4721
1 4722
1 4723
1 4724
1 4725
1 4726
1 4727
1 4728
1 4729
1 4730
1 4731
1 4732
1 4733
1 4734
1 4735
1 4736
1 4737
1 4738
1 4739
1 4740
1 4741
1 4742
1 4743
1 4744
1 4745
1 4746
1 4747
1 4748
1 4749
1 4750
1 4751
1 4752
1 4753
1 4754
1 4755
1 4756
1 4757
1 4758
1 4759
1 4760
1 4761
1 4762
1 4763
1 4764
1 4765
1 4766
1 4767
1 4768
1 4769
1 4770
1 4771
1 4772
1 4773
1 4774
1 4775
1 4776
1 4777
1 4778
1 4779
1 4780
1 4781
1 4782
1 4783
1 4784
1 4785
1 4786
1 4787
1 4788
1 4789
1 4790
1 4791
1 4792
1 4793
1 4794
1 4795
1 4796
1 4797
1 4798
1 4799
1 4800
1 4801
1 4802
1 4803
1 4804
1 4805
1 4806
1 4807
1 4808
1 4809
1 4810
1 4811
1 4812
1 4813
1 4814
1 4815
1 4816
1 4817
1 4818
1 4819
1 4820
1 4821
1 4822
1 4823
1 4824
1 4825
1 4826
1 4827
1 4828
1 4829
1 4830
1 4831
1 4832
1 4833
1 4834
1 4835
1 4836
1 4837
1 4838
1 4839
1 4840
1 4841
1 4842
1 4843
1 4844
1 4845
1 4846
1 4847
1 4848
1 4849
1 4850
1 4851
1 4852
1 4853
1 4854
1 4855
1 4856
1 4857
1 4858
1 4859
1 4860
1 4861
1 4862
1 4863
1 4864
1 4865
1 4866
1 4867
1 4868
1 4869
1 4870
1 4871
1 4872
1 4873
1 4874
1 4875
1 4876
1 4877
1 4878
1 4879
1 4880
1 4881
1 4882
1 4883
1 4884
1 4885
1 4886
1 4887
1 4888
1 4889
1 4890
1 4891
1 4892
1 4893
1 4894
1 4895
1 4896
1 4897
1 4898
1 4899
1 4900
1 4901
1 4902
1 4903
1 4904
1 4905
1 4906
1 4907
1 4908
1 4909
1 4910
1 4911
1 4912
1 4913
1 4914
1 4915
1 4916
1 4917
1 4918
1 4919
1 4920
1 4921
1 4922
1 4923
1 4924
1 4925
1 4926
1 4927
1 4928
1 4929
1 4930
1 4931
1 4932
1 4933
1 4934
1 4935
1 4936
1 4937
1 4938
1 4939
1 4940
1 4941
1 4942
1 4943
1 4944
1 4945
1 4946
1 4947
1 4948
1 4949
1 4950
1 4951
1 4952
1 4953
1 4954
1 4955
1 4956
1 4957
1 4958
1 4959
1 4960
1 4961
1 4962
1 4963
1 4964
1 4965
1 4966
1 4967
1 4968
1 4969
1 4970
1 4971
1 4972
1 4973
1 4974
1 4975
1 4976
1 4977
1 4978
1 4979
1 4980
1 4981
1 4982
1 4983
1 4984
1 4985
1 4986
1 4987
1 4988
1 4989
1 4990
1 4991
1 4992
1 4993
1 4994
1 4995
1 4996
1 4997
1 4998
1 4999
CELL_TYPES 5000
1 
1 
1 
1 
1 
1 
1 
1 
1 
1 
1 
1 
1 
1 
1 
1 
1 
1 
1 
1 
1 
1 
1 
1 
1 
1 
1 
1 
1 
1 
1 
1 
1 
1 
1 
1 
1 
1 
1 
1 
1 
1 
1 
1 
1 
1 
1 
1 
1 
1 
1 
1 
1 
1 
1 
1 
1 
1 
1 
1 
1 
1 
1 
1 
1 
1 
1 
1 
1 
1 
1 
1 
1 
1 
1 
1 
1 
1 
1 
1 
1 
1 
1 
1 
1 
1 
1 
1 
1 
1 
1 
1 
1 
1 
1 
1 
1 
1 
1 
1 
1 
1 
1 
1 
1 
1 
1 
1 
1 
1 
1 
1 
1 
1 
1 
1 
1 
1 
1 
1 
1 
1 
1 
1 
1 
1 
1 
1 
1 
1 
1 
1 
1 
1 
1 
1 
1 
1 
1 
1 
1 
1 
1 
1 
1 
1 
1 
1 
1 
1 
1 
1 
1 
1 
1 
1 
1 
1 
1 
1 
1 
1 
1 
1 
1 
1 
1 
1 
1 
1 
1 
1 
1 
1 
1 
1 
1 
1 
1 
1 
1 
1 
1 
1 
1 
1 
1 
1 
1 
1 
1 
1 
1 
1 
1 
1 
1 
1 
1 
1 
1 
1 
1 
1 
1 
1 
1 
1 
1 
1 
1 
1 
1 
1 
1 
1 
1 
1 
1 
1 
1 
1 
1 
1 
1 
1 
1 
1 
1 
1 
1 
1 
1 
1 
1 
1 
1 
1 
1 
1 
1 
1 
1 
1 
1 
1 
1 
1 
1 
1 
1 
1 
1 
1 
1 
1 
1 
1 
1 
1 
1 
1 
1 
1 
1 
1 
1 
1 
1 
1 
1 
1 
1 
1 
1 
1 
1 
1 
1 
1 
1 
1 
1 
1 
1 
1 
1 
1 
1 
1 
1 
1 
1 
1 
1 
1 
1 
1 
1 
1 
1 
1 
1 
1 
1 
1 
1 
1 
1 
1 
1 
1 
1 
1 
1 
1 
1 
1 
1 
1 
1 
1 
1 
1 
1 
1 
1 
1 
1 
1 
1 
1 
1 
1 
1 
1 
1 
1 
1 
1 
1 
1 
1 
1 
1 
1 
1 
1 
1 
1 
1 
1 
1 
1 
1 
1 
1 
1 
1 
1 
1 
1 
1 
1 
1 
1 
1 
1 
1 
1 
1 
1 
1 
1 
1 
1 
1 
1 
1 
1 
1 
1 
1 
1 
1 
1 
1 
1 
1 
1 
1 
1 
1 
1 
1 
1 
1 
1 
1 
1 
1 
1 
1 
1 
1 
1 
1 
1 
1 
1 
1 
1 
1 
1 
1 
1 
1 
1 
1 
1 
1 
1 
1 
1 
1 
1 
1 
1 
1 
1 
1 
1 
1 
1 
1 
1 
1 
1 
1 
1 
1 
1 
1 
1 
1 
1 
1 
1 
1 
1 
1 
1 
1 
1 
1 
1 
1 
1 
1 
1 
1 
1 
1 
1 
1 
1 
1 
1 
1 
1 
1 
1 
1 
1 
1 
1 
1 
1 
1 
1 
1 
1 
1 
1 
1 
1 
1 
1 
1 
1 
1 
1 
1 
1 
1 
1 
1 
1 
1 
1 
1 
1 
1 
1 
1 
1 
1 
1 
1 
1 
1 
1 
1 
1 
1 
1 
1 
1 
1 
1 
1 
1 
1 
1 
1 
1 
1 
1 
1 
1 
1 
1 
1 
1 
1 
1 
1 
1 
1 
1 
1 
1 
1 
1 
1 
1 
1 
1 
1 
1 
1 
1 
1 
1 
1 
1 
1 
1 
1 
1 
1 
1 
1 
1 
1 
1 
1 
1 
1 
1 
1 
1 
1 
1 
1 
1 
1 
1 
1 
1 
1 
1 
1 
1 
1 
1 
1 
1 
1 
1 
1 
1 
1 
1 
1 
1 
1 
1 
1 
1 
1 
1 
1 
1 
1 
1 
1 
1 
1 
1 
1 
1 
1 
1 
1 
1 
1 
1 
1 
1 
1 
1 
1 
1 
1 
1 
1 
1 
1 
1 
1 
1 
1 
1 
1 
1 
1 
1 
1 
1 
1 
1 
1 
1 
1 
1 
1 
1 
1 
1 
1 
1 
1 
1 
1 
1 
1 
1 
1 
1 
1 
1 
1 
1 
1 
1 
1 
1 
1 
1 
1 
1 
1 
1 
1 
1 
1 
1 
1 
1 
1 
1 
1 
1 
1 
1 
1 
1 
1 
1 
1 
1 
1 
1 
1 
1 
1 
1 
1 
1 
1 
1 
1 
1 
1 
1 
1 
1 
1 
1 
1 
1 
1 
1 
1 
1 
1 
1 
1 
1 
1 
1 
1 
1 
1 
1 
1 
1 
1 
1 
1 
1 
1 
1 
1 
1 
1 
1 
1 
1 
1 
1 
1 
1 
1 
1 
1 
1 
1 
1 
1 
1 
1 
1 
1 
1 
1 
1 
1 
1 
1 
1 
1 
1 
1 
1 
1 
1 
1 
1 
1 
1 
1 
1 
1 
1 
1 
1 
1 
1 
1 
1 
1 
1 
1 
1 
1 
1 
1 
1 
1 
1 
1 
1 
1 
1 
1 
1 
1 
1 
1 
1 
1 
1 
1 
1 
1 
1 
1 
1 
1 
1 
1 
1 
1 
1 
1 
1 
1 
1 
1 
1 
1 
1 
1 
1 
1 
1 
1 
1 
1 
1 
1 
1 
1 
1 
1 
1 
1 
1 
1 
1 
1 
1 
1 
1 
1 
1 
1 
1 
1 
1 
1 
1 
1 
1 
1 
1 
1 
1 
1 
1 
1 
1 
1 
1 
1 
1 
1 
1 
1 
1 
1 
1 
1 
1 
1 
1 
1 
1 
1 
1 
1 
1 
1 
1 
1 
1 
1 
1 
1 
1 
1 
1 
1 
1 
1 
1 
1 
1 
1 
1 
1 
1 
1 
1 
1 
1 
1 
1 
1 
1 
1 
1 
1 
1 
1 
1 
1 
1 
1 
1 
1 
1 
1 
1 
1 
1 
1 
1 
1 
1 
1 
1 
1 
1 
1 
1 
1 
1 
1 
1 
1 
1 
1 
1 
1 
1 
1 
1 
1 
1 
1 
1 
1 
1 
1 
1 
1 
1 
1 
1 
1 
1 
1 
1 
1 
1 
1 
1 
1 
1 
1 
1 
1 
1 
1 
1 
1 
1 
1 
1 
1 
1 
1 
1 
1 
1 
1 
1 
1 
1 
1 
1 
1 
1 
1 
1 
1 
1 
1 
1 
1 
1 
1 
1 
1 
1 
1 
1 
1 
1 
1 
1 
1 
1 
1 
1 
1 
1 
1 
1 
1 
1 
1 
1 
1 
1 
1 
1 
1 
1 
1 
1 
1 
1 
1 
1 
1 
1 
1 
1 
1 
1 
1 
1 
1 
1 
1 
1 
1 
1 
1 
1 
1 
1 
1 
1 
1 
1 
1 
1 
1 
1 
1 
1 
1 
1 
1 
1 
1 
1 
1 
1 
1 
1 
1 
1 
1 
1 
1 
1 
1 
1 
1 
1 
1 
1 
1 
1 
1 
1 
1 
1 
1 
1 
1 
1 
1 
1 
1 
1 
1 
1 
1 
1 
1 
1 
1 
1 
1 
1 
1 
1 
1 
1 
1 
1 
1 
1 
1 
1 
1 
1 
1 
1 
1 
1 
1 
1 
1 
1 
1 
1 
1 
1 
1 
1 
1 
1 
1 
1 
1 
1 
1 
1 
1 
1 
1 
1 
1 
1 
1 
1 
1 
1 
1 
1 
1 
1 
1 
1 
1 
1 
1 
1 
1 
1 
1 
1 
1 
1 
1 
1 
1 
1 
1 
1 
1 
1 
1 
1 
1 
1 
1 
1 
1 
1 
1 
1 
1 
1 
1 
1 
1 
1 
1 
1 
1 
1 
1 
1 
1 
1 
1 
1 
1 
1 
1 
1 
1 
1 
1 
1 
1 
1 
1 
1 
1 
1 
1 
1 
1 
1 
1 
1 
1 
1 
1 
1 
1 
1 
1 
1 
1 
1 
1 
1 
1 
1 
1 
1 
1 
1 
1 
1 
1 
1 
1 
1 
1 
1 
1 
1 
1 
1 
1 
1 
1 
1 
1 
1 
1 
1 
1 
1 
1 
1 
1 
1 
1 
1 
1 
1 
1 
1 
1 
1 
1 
1 
1 
1 
1 
1 
1 
1 
1 
1 
1 
1 
1 
1 
1 
1 
1 
1 
1 
1 
1 
1 
1 
1 
1 
1 
1 
1 
1 
1 
1 
1 
1 
1 
1 
1 
1 
1 
1 
1 
1 
1 
1 
1 
1 
1 
1 
1 
1 
1 
1 
1 
1 
1 
1 
1 
1 
1 
1 
1 
1 
1 
1 
1 
1 
1 
1 
1 
1 
1 
1 
1 
1 
1 
1 
1 
1 
1 
1 
1 
1 
1 
1 
1 
1 
1 
1 
1 
1 
1 
1 
1 
1 
1 
1 
1 
1 
1 
1 
1 
1 
1 
1 
1 
1 
1 
1 
1 
1 
1 
1 
1 
1 
1 
1 
1 
1 
1 
1 
1 
1 
1 
1 
1 
1 
1 
1 
1 
1 
1 
1 
1 
1 
1 
1 
1 
1 
1 
1 
1 
1 
1 
1 
1 
1 
1 
1 
1 
1 
1 
1 
1 
1 
1 
1 
1 
1 
1 
1 
1 
1 
1 
1 
1 
1 
1 
1 
1 
1 
1 
1 
1 
1 
1 
1 
1 
1 
1 
1 
1 
1 
1 
1 
1 
1 
1 
1 
1 
1 
1 
1 
1 
1 
1 
1 
1 
1 
1 
1 
1 
1 
1 
1 
1 
1 
1 
1 
1 
1 
1 
1 
1 
1 
1 
1 
1 
1 
1 
1 
1 
1 
1 
1 
1 
1 
1 
1 
1 
1 
1 
1 
1 
1 
1 
1 
1 
1 
1 
1 
1 
1 
1 
1 
1 
1 
1 
1 
1 
1 
1 
1 
1 
1 
1 
1 
1 
1 
1 
1 
1 
1 
1 
1 
1 
1 
1 
1 
1 
1 
1 
1 
1 
1 
1 
1 
1 
1 
1 
1 
1 
1 
1 
1 
1 
1 
1 
1 
1 
1 
1 
1 
1 
1 
1 
1 
1 
1 
1 
1 
1 
1 
1 
1 
1 
1 
1 
1 
1 
1 
1 
1 
1 
1 
1 
1 
1 
1 
1 
1 
1 
1 
1 
1 
1 
1 
1 
1 
1 
1 
1 
1 
1 
1 
1 
1 
1 
1 
1 
1 
1 
1 
1 
1 
1 
1 
1 
1 
1 
1 
1 
1 
1 
1 
1 
1 
1 
1 
1 
1 
1 
1 
1 
1 
1 
1 
1 
1 
1 
1 
1 
1 
1 
1 
1 
1 
1 
1 
1 
1 
1 
1 
1 
1 
1 
1 
1 
1 
1 
1 
1 
1 
1 
1 
1 
1 
1 
1 
1 
1 
1 
1 
1 
1 
1 
1 
1 
1 
1 
1 
1 
1 
1 
1 
1 
1 
1 
1 
1 
1 
1 
1 
1 
1 
1 
1 
1 
1 
1 
1 
1 
1 
1 
1 
1 
1 
1 
1 
1 
1 
1 
1 
1 
1 
1 
1 
1 
1 
1 
1 
1 
1 
1 
1 
1 
1 
1 
1 
1 
1 
1 
1 
1 
1 
1 
1 
1 
1 
1 
1 
1 
1 
1 
1 
1 
1 
1 
1 
1 
1 
1 
1 
1 
1 
1 
1 
1 
1 
1 
1 
1 
1 
1 
1 
1 
1 
1 
1 
1 
1 
1 
1 
1 
1 
1 
1 
1 
1 
1 
1 
1 
1 
1 
1 
1 
1 
1 
1 
1 
1 
1 
1 
1 
1 
1 
1 
1 
1 
1 
1 
1 
1 
1 
1 
1 
1 
1 
1 
1 
1 
1 
1 
1 
1 
1 
1 
1 
1 
1 
1 
1 
1 
1 
1 
1 
1 
1 
1 
1 
1 
1 
1 
1 
1 
1 
1 
1 
1 
1 
1 
1 
1 
1 
1 
1 
1 
1 
1 
1 
1 
1 
1 
1 
1 
1 
1 
1 
1 
1 
1 
1 
1 
1 
1 
1 
1 
1 
1 
1 
1 
1 
1 
1 
1 
1 
1 
1 
1 
1 
1 
1 
1 
1 
1 
1 
1 
1 
1 
1 
1 
1 
1 
1 
1 
1 
1 
1 
1 
1 
1 
1 
1 
1 
1 
1 
1 
1 
1 
1 
1 
1 
1 
1 
1 
1 
1 
1 
1 
1 
1 
1 
1 
1 
1 
1 
1 
1 
1 
1 
1 
1 
1 
1 
1 
1 
1 
1 
1 
1 
1 
1 
1 
1 
1 
1 
1 
1 
1 
1 
1 
1 
1 
1 
1 
1 
1 
1 
1 
1 
1 
1 
1 
1 
1 
1 
1 
1 
1 
1 
1 
1 
1 
1 
1 
1 
1 
1 
1 
1 
1 
1 
1 
1 
1 
1 
1 
1 
1 
1 
1 
1 
1 
1 
1 
1 
1 
1 
1 
1 
1 
1 
1 
1 
1 
1 
1 
1 
1 
1 
1 
1 
1 
1 
1 
1 
1 
1 
1 
1 
1 
1 
1 
1 
1 
1 
1 
1 
1 
1 
1 
1 
1 
1 
1 
1 
1 
1 
1 
1 
1 
1 
1 
1 
1 
1 
1 
1 
1 
1 
1 
1 
1 
1 
1 
1 
1 
1 
1 
1 
1 
1 
1 
1 
1 
1 
1 
1 
1 
1 
1 
1 
1 
1 
1 
1 
1 
1 
1 
1 
1 
1 
1 
1 
1 
1 
1 
1 
1 
1 
1 
1 
1 
1 
1 
1 
1 
1 
1 
1 
1 
1 
1 
1 
1 
1 
1 
1 
1 
1 
1 
1 
1 
1 
1 
1 
1 
1 
1 
1 
1 
1 
1 
1 
1 
1 
1 
1 
1 
1 
1 
1 
1 
1 
1 
1 
1 
1 
1 
1 
1 
1 
1 
1 
1 
1 
1 
1 
1 
1 
1 
1 
1 
1 
1 
1 
1 
1 
1 
1 
1 
1 
1 
1 
1 
1 
1 
1 
1 
1 
1 
1 
1 
1 
1 
1 
1 
1 
1 
1 
1 
1 
1 
1 
1 
1 
1 
1 
1 
1 
1 
1 
1 
1 
1 
1 
1 
1 
1 
1 
1 
1 
1 
1 
1 
1 
1 
1 
1 
1 
1 
1 
1 
1 
1 
1 
1 
1 
1 
1 
1 
1 
1 
1 
1 
1 
1 
1 
1 
1 
1 
1 
1 
1 
1 
1 
1 
1 
1 
1 
1 
1 
1 
1 
1 
1 
1 
1 
1 
1 
1 
1 
1 
1 
1 
1 
1 
1 
1 
1 
1 
1 
1 
1 
1 
1 
1 
1 
1 
1 
1 
1 
1 
1 
1 
1 
1 
1 
1 
1 
1 
1 
1 
1 
1 
1 
1 
1 
1 
1 
1 
1 
1 
1 
1 
1 
1 
1 
1 
1 
1 
1 
1 
1 
1 
1 
1 
1 
1 
1 
1 
1 
1 
1 
1 
1 
1 
1 
1 
1 
1 
1 
1 
1 
1 
1 
1 
1 
1 
1 
1 
1 
1 
1 
1 
1 
1 
1 
1 
1 
1 
1 
1 
1 
1 
1 
1 
1 
1 
1 
1 
1 
1 
1 
1 
1 
1 
1 
1 
1 
1 
1 
1 
1 
1 
1 
1 
1 
1 
1 
1 
1 
1 
1 
1 
1 
1 
1 
1 
1 
1 
1 
1 
1 
1 
1 
1 
1 
1 
1 
1 
1 
1 
1 
1 
1 
1 
1 
1 
1 
1 
1 
1 
1 
1 
1 
1 
1 
1 
1 
1 
1 
1 
1 
1 
1 
1 
1 
1 
1 
1 
1 
1 
1 
1 
1 
1 
1 
1 
1 
1 
1 
1 
1 
1 
1 
1 
1 
1 
1 
1 
1 
1 
1 
1 
1 
1 
1 
1 
1 
1 
1 
1 
1 
1 
1 
1 
1 
1 
1 
1 
1 
1 
1 
1 
1 
1 
1 
1 
1 
1 
1 
1 
1 
1 
1 
1 
1 
1 
1 
1 
1 
1 
1 
1 
1 
1 
1 
1 
1 
1 
1 
1 
1 
1 
1 
1 
1 
1 
1 
1 
1 
1 
1 
1 
1 
1 
1 
1 
1 
1 
1 
1 
1 
1 
1 
1 
1 
1 
1 
1 
1 
1 
1 
1 
1 
1 
1 
1 
1 
1 
1 
1 
1 
1 
1 
1 
1 
1 
1 
1 
1 
1 
1 
1 
1 
1 
1 
1 
1 
1 
1 
1 
1 
1 
1 
1 
1 
1 
1 
1 
1 
1 
1 
1 
1 
1 
1 
1 
1 
1 
1 
1 
1 
1 
1 
1 
1 
1 
1 
1 
1 
1 
1 
1 
1 
1 
1 
1 
1 
1 
1 
1 
1 
1 
1 
1 
1 
1 
1 
1 
1 
1 
1 
1 
1 
1 
1 
1 
1 
1 
1 
1 
1 
1 
1 
1 
1 
1 
1 
1 
1 
1 
1 
1 
1 
1 
1 
1 
1 
1 
1 
1 
1 
1 
1 
1 
1 
1 
1 
1 
1 
1 
1 
1 
1 
1 
1 
1 
1 
1 
1 
1 
1 
1 
1 
1 
1 
1 
1 
1 
1 
1 
1 
1 
1 
1 
1 
1 
1 
1 
1 
1 
1 
1 
1 
1 
1 
1 
1 
1 
1 
1 
1 
1 
1 
1 
1 
1 
1 
1 
1 
1 
1 
1 
1 
1 
1 
1 
1 
1 
1 
1 
1 
1 
1 
1 
1 
1 
1 
1 
1 
1 
1 
1 
1 
1 
1 
1 
1 
1 
1 
1 
1 
1 
1 
1 
1 
1 
1 
1 
1 
1 
1 
1 
1 
1 
1 
1 
1 
1 
1 
1 
1 
1 
1 
1 
1 
1 
1 
1 
1 
1 
1 
1 
1 
1 
1 
1 
1 
1 
1 
1 
1 
1 
1 
1 
1 
1 
1 
1 
1 
1 
1 
1 
1 
1 
1 
1 
1 
1 
1 
1 
1 
1 
1 
1 
1 
1 
1 
1 
1 
1 
1 
1 
1 
1 
1 
1 
1 
1 
1 
1 
1 
1 
1 
1 
1 
1 
1 
1 
1 
1 
1 
1 
1 
1 
1 
1 
1 
1 
1 
1 
1 
1 
1 
1 
1 
1 
1 
1 
1 
1 
1 
1 
1 
1 
1 
1 
1 
1 
1 
1 
1 
1 
1 
1 
1 
1 
1 
1 
1 
1 
1 
1 
1 
1 
1 
1 
1 
1 
1 
1 
1 
1 
1 
1 
1 
1 
1 
1 
1 
1 
1 
1 
1 
1 
1 
1 
1 
1 
1 
1 
1 
1 
1 
1 
1 
1 
1 
1 
1 
1 
1 
1 
1 
1 
1 
1 
1 
1 
1 
1 
1 
1 
1 
1 
1 
1 
1 
1 
1 
1 
1 
1 
1 
1 
1 
1 
1 
1 
1 
1 
1 
1 
1 
1 
1 
1 
1 
1 
1 
1 
1 
1 
1 
1 
1 
1 
1 
1 
1 
1 
1 
1 
1 
1 
1 
1 
1 
1 
1 
1 
1 
1 
1 
1 
1 
1 
1 
1 
1 
1 
1 
1 
1 
1 
1 
1 
1 
1 
1 
1 
1 
1 
1 
1 
1 
1 
1 
1 
1 
1 
1 
1 
1 
1 
1 
1 
1 
1 
1 
1 
1 
1 
1 
1 
1 
1 
1 
1 
1 
1 
1 
1 
1 
1 
1 
1 
1 
1 
1 
1 
1 
1 
1 
1 
1 
1 
1 
1 
1 
1 
1 
1 
1 
1 
1 
1 
1 
1 
1 
1 
1 
1 
1 
1 
1 
1 
1 
1 
1 
1 
1 
1 
1 
1 
1 
1 
1 
1 
1 
1 
1 
1 
1 
1 
1 
1 
1 
1 
1 
1 
1 
1 
1 
1 
1 
1 
1 
1 
1 
1 
1 
1 
1 
1 
1 
1 
1 
1 
1 
1 
1 
1 
1 
1 
1 
1 
1 
1 
1 
1 
1 
1 
1 
1 
1 
1 
1 
1 
1 
1 
1 
1 
1 
1 
1 
1 
1 
1 
1 
1 
1 
1 
1 
1 
1 
1 
1 
1 
1 
1 
1 
1 
1 
1 
1 
1 
1 
1 
1 
1 
1 
1 
1 
1 
1 
1 
1 
1 
1 
1 
1 
1 
1 
1 
1 
1 
1 
1 
1 
1 
1 
1 
1 
1 
1 
1 
1 
1 
1 
1 
1 
1 
1 
1 
1 
1 
1 
1 
1 
1 
1 
1 
1 
1 
1 
1 
1 
1 
1 
1 
1 
1 
1 
1 
1 
1 
1 
1 
1 
1 
1 
1 
1 
1 
1 
1 
1 
1 
1 
1 
1 
1 
1 
1 
1 
1 
1 
1 
1 
1 
1 
1 
1 
1 
1 
1 
1 
1 
1 
1 
1 
1 
1 
1 
1 
1 
1 
1 
1 
1 
1 
1 
1 
1 
1 
1 
1 
1 
1 
1 
1 
1 
1 
1 
1 
1 
1 
1 
1 
1 
1 
1 
1 
1 
1 
1 
1 
1 
1 
1 
1 
1 
1 
1 
1 
1 
1 
1 
1 
1 
1 
1 
1 
1 
1 
1 
1 
1 
1 
1 
1 
1 
1 
1 
1 
1 
1 
1 
1 
1 
1 
1 
1 
1 
1 
1 
1 
1 
1 
1 
1 
1 
1 
1 
1 
1 
1 
1 
1 
1 
1 
1 
1 
1 
1 
1 
1 
1 
1 
1 
1 
1 
1 
1 
1 
1 
1 
1 
1 
1 
1 
1 
1 
1 
1 
1 
1 
1 
1 
1 
1 
1 
1 
1 
1 
1 
1 
1 
1 
1 
1 
1 
1 
1 
1 
1 
1 
1 
1 
1 
1 
1 
1 
1 
1 
1 
1 
1 
1 
1 
1 
1 
1 
1 
1 
1 
1 
1 
1 
1 
1 
1 
1 
1 
1 
1 
1 
1 
1 
1 
1 
1 
1 
1 
1 
1 
1 
1 
1 
1 
1 
1 
1 
1 
1 
1 
1 
1 
1 
1 
1 
1 
1 
1 
1 
1 
1 
1 
1 
1 
1 
1 
1 
1 
1 
1 
1 
1 
1 
1 
1 
1 
1 
1 
1 
1 
1 
1 
1 
1 
1 
1 
1 
1 
1 
1 
1 
1 
1 
1 
1 
1 
1 
1 
1 
1 
1 
1 
1 
1 
1 
1 
1 
1 
1 
1 
1 
1 
1 
1 
1 
1 
1 
1 
1 
1 
1 
1 
1 
1 
1 
1 
1 
1 
1 
1 
1 
1 
1 
1 
1 
1 
1 
1 
1 
1 
1 
1 
1 
1 
1 
1 
1 
1 
1 
1 
1 
1 
1 
1 
1 
1 
1 
1 
1 
1 
1 
1 
1 
1 
1 
1 
1 
1 
1 
1 
1 
1 
1 
1 
1 
1 
1 
1 
1 
1 
1 
1 
1 
1 
1 
1 
1 
1 
1 
1 
1 
1 
1 
1 
1 
1 
1 
1 
1 
1 
1 
1 
1 
1 
1 
1 
1 
1 
1 
1 
1 
1 
1 
1 
1 
1 
1 
1 
1 
1 
1 
1 
1 
1 
1 
1 
1 
1 
1 
1 
1 
1 
1 
1 
1 
1 
1 
1 
1 
1 
1 
1 
1 
1 
1 
1 
1 
1 
1 
1 
1 
1 
1 
1 
1 
1 
1 
1 
1 
1 
1 
1 
1 
1 
1 
1 
1 
1 
1 
1 
1 
1 
1 
1 
1 
1 
1 
1 
1 
1 
1 
1 
1 
1 
1 
1 
1 
1 
1 
1 
1 
1 
1 
1 
1 
1 
1 
1 
1 
1 
1 
1 
1 
1 
1 
1 
1 
1 
1 
1 
1 
1 
1 
1 
1 
1 
1 
1 
1 
1 
1 
1 
1 
1 
1 
1 
1 
1 
1 
1 
1 
1 
1 
1 
1 
1 
1 
1 
1 
1 
1 
1 
1 
1 
1 
1 
1 
1 
1 
1 
1 
1 
1 
1 
1 
1 
1 
1 
1 
1 
1 
1 
1 
1 
1 
1 
1 
1 
1 
1 
1 
1 
1 
1 
1 
1 
1 
1 
1 
1 
1 
1 
1 
1 
1 
1 
1 
1 
1 
1 
1 
1 
1 
1 
1 
1 
1 
1 
1 
1 
1 
1 
1 
1 
1 
1 
1 
1 
1 
1 
1 
1 
1 
1 
1 
1 
1 
1 
1 
1 
1 
1 
1 
1 
1 
1 
1 
1 
1 
1 
1 
1 
1 
1 
1 
1 
1 
1 
1 
1 
1 
1 
1 
1 
1 
1 
1 
1 
1 
1 
1 
1 
1 
1 
1 
1 
1 
1 
1 
1 
1 
1 
1 
1 
1 
1 
1 
1 
1 
1 
1 
1 
1 
1 
1 
1 
1 
1 
1 
1 
1 
1 
1 
1 
1 
1 
1 
1 
1 
1 
1 
1 
1 
1 
1 
1 
1 
1 
1 
1 
1 
1 
1 
1 
1 
1 
1 
1 
1 
1 
1 
1 
1 
1 
1 
1 
1 
1 
1 
1 
1 
1 
1 
1 
1 
1 
1 
1 
1 
1 
1 
1 
1 
1 
1 
1 
1 
1 
1 
1 
1 
1 
1 
1 
1 
1 
1 
1 
1 
1 
1 
1 
1 
1 
1 
1 
1 
1 
1 
1 
1 
1 
1 
1 
1 
1 
1 
1 
1 
1 
1 
1 
1 
1 
1 
1 
1 
1 
1 
1 
1 
1 
1 
1 
1 
1 
1 
1 
1 
1 
1 
1 
1 
1 
1 
1 
1 
1 
1 
1 
1 
1 
1 
1 
1 
1 
1 
1 
1 
1 
1 
1 
1 
1 
1 
1 
1 
1 
1 
1 
1 
1 
1 
1 
1 
1 
1 
1 
1 
1 
1 
1 
1 
1 
1 
1 
1 
1 
1 
1 
1 
1 
1 
1 
1 
1 
1 
1 
1 
1 
1 
1 
1 
1 
1 
1 
1 
1 
1 
1 
1 
1 
1 
1 
1 
1 
1 
1 
1 
1 
1 
1 
1 
1 
1 
1 
1 
1 
1 
1 
1 
1 
1 
1 
1 
1 
1 
1 
1 
1 
1 
1 
1 
1 
1 
1 
1 
1 
1 
1 
1 
1 
1 
1 
1 
1 
1 
1 
1 
1 
1 
1 
1 
1 
1 
1 
1 
1 
1 
1 
1 
1 
1 
1 
1 
1 
1 
1 
1 
1 
1 
1 
1 
1 
1 
1 
1 
1 
1 
1 
1 
1 
1 
1 
1 
1 
1 
1 
1 
1 
1 
1 
1 
1 
1 
1 
1 
1 
1 
1 
1 
1 
1 
1 
1 
1 
1 
1 
1 
1 
1 
1 
1 
1 
1 
1 
1 
1 
1 
1 
1 
1 
1 
1 
1 
1 
1 
1 
1 
1 
1 
1 
1 
1 
1 
1 
1 
1 
1 
1 
1 
1 
1 
1 
1 
1 
1 
1 
1 
1 
1 
1 
1 
1 
1 
1 
1 
1 
1 
1 
1 
1 
1 
1 
1 
1 
1 
1 
1 
1 
1 
1 
1 
1 
1 
1 
1 
1 
1 
1 
1 
1 
1 
1 
1 
1 
1 
1 
1 
1 
1 
1 
1 
1 
1 
1 
1 
1 
1 
1 
1 
1 
1 
1 
1 
1 
1 
1 
1 
1 
1 
1 
1 
1 
1 
1 
1 
1 
1 
1 
1 
1 
1 
1 
1 
1 
1 
1 
1 
1 
1 
1 
1 
1 
1 
1 
1 
1 
1 
1 
1 
1 
1 
1 
1 
1 
1 
1 
1 
1 
1 
1 
1 
1 
1 
1 
1 
1 
1 
1 
1 
1 
1 
1 
1 
1 
1 
1 
1 
1 
1 
1 
1 
1 
1 
1 
1 
1 
1 
1 
1 
1 
1 
1 
1 
1 
1 
1 
1 
1 
1 
1 
1 
1 
1 
1 
1 
1 
1 
1 
1 
1 
1 
1 
1 
1 
1 
1 
1 
1 
1 
1 
1 
1 
1 
1 
1 
1 
1 
1 
1 
1 
1 
1 
1 
1 
1 
1 
1 
1 
1 
1 
1 
1 
1 
1 
1 
1 
1 
1 
1 
1 
1 
1 
1 
1 
1 
1 
1 
1 
1 
1 
1 
1 
1 
1 
1 
1 
1 
1 
1 
1 
1 
1 
1 
1 
1 
1 
1 
1 
1 
1 
1 
1 
1 
1 
1 
1 
1 
1 
1 
1 
1 
1 
1 
1 
1 
1 
1 
1 
1 
1 
1 
1 
1 
1 
1 
1 
1 
1 
1 
1 
1 
1 
1 
1 
1 
1 
1 
1 
1 
1 
1 
1 
1 
1 
1 
1 
1 
1 
1 
1 
1 
1 
1 
1 
1 
1 
1 
1 
1 
1 
1 
1 
1 
1 
1 
1 
1 
1 
1 
1 
1 
1 
1 
1 
1 
1 
1 
1 
1 
1 
1 
1 
1 
1 
1 
1 
1 
1 
1 
1 
1 
1 
1 
1 
1 
1 
1 
1 
1 
1 
1 
1 
1 
1 
1 
1 
1 
1 
1 
1 
1 
1 
1 
1 
1 
1 
1 
1 
1 
1 
1 
1 
1 
1 
1 
1 
1 
1 
1 
1 
1 
1 
1 
1 
1 
1 
1 
1 
1 
1 
1 
1 
1 
1 
1 
1 
1 
1 
1 
1 
1 
1 
1 
1 
1 
1 
1 
1 
1 
1 
1 
1 
1 
1 
1 
1 
1 
1 
1 
1 
1 
1 
1 
1 
1 
1 
1 
1 
1 
1 
1 
1 
1 
1 
1 
1 
1 
1 
1 
1 
1 
1 
1 
1 
1 
1 
1 
1 
1 
1 
1 
1 
1 
1 
1 
1 
1 
1 
1 
1 
1 
1 
1 
1 
1 
1 
1 
1 
1 
1 
1 
1 
1 
1 
1 
1 
1 
1 
1 
1 
1 
1 
1 
1 
1 
1 
1 
1 
1 
1 
1 
1 
1 
1 
1 
1 
1 
1 
1 
1 
1 
1 
1 
1 
1 
1 
1 
1 
1 
1 
1 
1 
1 
1 
1 
1 
1 
1 
1 
1 
1 
1 
1 
1 
1 
1 
1 
1 
1 
1 
1 
1 
1 
1 
1 
1 
1 
1 
1 
1 
1 
1 
1 
1 
1 
1 
1 
1 
1 
1 
1 
1 
1 
1 
1 
1 
1 
1 
1 
1 
1 
1 
1 
1 
1 
1 
1 
1 
1 
1 
1 
1 
1 
1 
1 
1 
1 
1 
1 
1 
1 
1 
1 
1 
1 
1 
1 
1 
1 
1 
1 
1 
1 
1 
1 
1 
1 
1 
1 
1 
1 
1 
1 
1 
1 
1 
1 
1 
1 
1 
1 
1 
1 
1 
1 
1 
1 
1 
1 
1 
1 
1 
1 
1 
1 
1 
1 
1 
1 
1 
1 
1 
1 
1 
1 
1 
1 
1 
1 
1 
1 
1 
1 
1 
1 
1 
1 
1 
1 
1 
1 
1 
1 
1 
1 
1 
1 
1 
1 
1 
1 
1 
1 
1 
1 
1 
1 
1 
1 
1 
1 
1 
1 
1 
1 
1 
1 
1 
1 
1 
1 
1 
1 
1 
1 
1 
1 
1 
1 
1 
1 
1 
1 
1 
1 
1 
1 
1 
1 
1 
1 
1 
1 
1 
1 
1 
1 
1 
1 
1 
1 
1 
1 
1 
1 
1 
1 
1 
1 
1 
1 
1 
1 
1 
1 
1 
1 
1 
1 
1 
1 
1 
1 
1 
1 
1 
1 
1 
1 
1 
1 
1 
1 
1 
1 
1 
1 
1 
1 
1 
1 
1 
1 
1 
1 
1 
1 
1 
1 
1 
1 
1 
1 
1 
1 
1 
1 
1 
1 
1 
1 
1 
1 
1 
1 
1 
1 
1 
1 
1 
1 
1 
1 
1 
1 
1 
1 
1 
1 
1 
1 
1 
1 
1 
1 
1 
1 
1 
1 
1 
1 
1 
1 
1 
1 
1 
1 
1 
1 
1 
1 
1 
1 
1 
1 
1 
1 
1 
1 
1 
1 
1 
1 
1 
1 
1 
1 
1 
1 
1 
1 
1 
1 
1 
1 
1 
1 
1 
1 
1 
1 
1 
1 
1 
1 
1 
1 
1 
1 
1 
1 
1 
1 
POINT_DATA 5000
VECTORS Stress float
-1736.09 -3169.87 0.
-891.577 -1257.93 0.
-454.376 -620.931 0.
-2291.04 -3305.65 0.
-1160.63 -1261.98 0.
-807.278 -743.463 0.
-3038.42 -4314.46 0.
5.52108 4.23036 0.
2.24736 2.07691 0.
-4148.58 -6817.31 0.
-1585.68 -2949.1 0.
-199.35 -435.614 0.
-2173.46 -3417.36 0.
-1672.36 -2689.8 0.
-1314.63 -2061.18 0.
-1110.73 -1811.63 0.
-899.039 -1569.88 0.
-1050.66 -1760.72 0.
-877.945 -1595.56 0.
-688.071 -1447.57 0.
-868.886 -1636.32 0.
-849.584 -1592.53 0.
-829.703 -1549.32 0.
-860.633 -1594.06 0.
-876.529 -1630.53 0.
-889.976 -1669.45 0.
-1070.43 -1793.18 0.
-1044.47 -1767.93 0.
-852.569 -1675.22 0.
-827.294 -1599.9 0.
-794.299 -1532.31 0.
-822.317 -1521.96 0.
-786.635 -1467.1 0.
-748.742 -1414.45 0.
-760.117 -1450.69 0.
-770.664 -1496.27 0.
-781.158 -1541.91 0.
-843.882 -1538.36 0.
-812.973 -1486.54 0.
-717.149 -1404.44 0.
-698.688 -1374.82 0.
-680.231 -1345.2 0.
-696.302 -1337.41 0.
-702.005 -1350.73 0.
-707.707 -1364.04 0.
-715.544 -1366.33 0.
-709.974 -1353.33 0.
-704.404 -1340.33 0.
-714.698 -1381.78 0.
-741.275 -1443.8 0.
-767.85 -1505.81 0.
-774.025 -1446.59 0.
-741.553 -1370.81 0.
-688.594 -1302.9 0.
-695.467 -1318.95 0.
-702.34 -1335 0.
-697.453 -1335.94 0.
-692.465 -1324.29 0.
-687.477 -1312.64 0.
-676.826 -1345.74 0.
-712.15 -1417.56 0.
-750.055 -1486.79 0.
-854.188 -1549.91 0.
-870.908 -1573.02 0.
-778.482 -1539.11 0.
-784.222 -1524.41 0.
-789.377 -1510.29 0.
-774.845 -1491.42 0.
-799.114 -1518.49 0.
-821.982 -1546.96 0.
-797.338 -1555.05 0.
-849.935 -1641.94 0.
-899.84 -1731.52 0.
-1058.14 -1793.42 0.
-1064.28 -1788.83 0.
-890.575 -1646.6 0.
-843.519 -1574.23 0.
-837.267 -1555.1 0.
-767.396 -1526.75 0.
-778.046 -1547.46 0.
-816.001 -1540.86 0.
-696.187 -1353.55 0.
-957.372 -1652.75 0.
-1202.85 -1967.66 0.
-1104.22 -1617.71 0.
-1245.94 -1621.29 0.
-1377.13 -1635.41 0.
-1690.69 -2829.94 0.
-2782.03 -4730.55 0.
-286.942 -673.651 0.
-752.659 -1422.02 0.
-4170.19 -6325.69 0.
-494.642 -917.778 0.
-932.3 -1573.11 0.
-3570.1 -5040.18 0.
-0.537926 -2.92333 0.
-2841.89 -3879.42 0.
-2.58599 -8.71012 0.
-4055.41 -5792.66 0.
-2055.13 -2899.88 0.
-76.2448 -154.706 0.
-2.84898 -55.9879 0.
-195.758 -317.731 0.
4.37991 7.19187 0.
-2.60529 -6.10668 0.
4.42189 7.15435 0.
-2.80296 -1.92532 0.
1.86861 1.7353 0.
5.68947 6.82158 0.
-352.025 -562.624 0.
2.16777 3.81292 0.
-47.2773 -96.6544 0.
-638.756 -1373.26 0.
-303.443 -731.831 0.
-323.749 -719.236 0.
-193.472 -402.594 0.
-157.628 -269.405 0.
-390.485 -870.043 0.
-275.11 -668.767 0.
-194.049 -450.468 0.
-574.139 -1323.28 0.
-541.849 -1296.87 0.
-511.94 -1269.04 0.
-653.353 -1317.5 0.
-654.239 -1368.98 0.
-651.807 -1423.78 0.
-1011.77 -1676.65 0.
-987.371 -1649.83 0.
-667.931 -1411.74 0.
-622.445 -1337.55 0.
-588.856 -1265.47 0.
-669.902 -1343.23 0.
-627.341 -1295.24 0.
-611.099 -1220.92 0.
-642.099 -1330.67 0.
-652.916 -1376 0.
-663.394 -1421.66 0.
-871.604 -1496.04 0.
-842.943 -1441.96 0.
-644.442 -1313.36 0.
-620.594 -1289.13 0.
-600.28 -1261.37 0.
-658.421 -1260.37 0.
-653.382 -1284.43 0.
-649.26 -1307.57 0.
-667.75 -1314.43 0.
-662.181 -1301.42 0.
-656.612 -1288.41 0.
-661.511 -1318.89 0.
-682.012 -1386.97 0.
-708.578 -1448.98 0.
-783.939 -1419.4 0.
-751.476 -1343.61 0.
-648.484 -1254.28 0.
-655.348 -1270.33 0.
-662.211 -1286.38 0.
-639.521 -1279.67 0.
-642.171 -1260.39 0.
-647.468 -1238.46 0.
-604.422 -1259.53 0.
-647.142 -1323.95 0.
-690.634 -1387.6 0.
-889.578 -1513.7 0.
-902.82 -1540.3 0.
-659.403 -1378.69 0.
-645.47 -1383.65 0.
-652.298 -1367.86 0.
-606.488 -1290.58 0.
-637.665 -1310.75 0.
-670.027 -1329.74 0.
-604.068 -1247.75 0.
-630.148 -1361.19 0.
-683.513 -1447.35 0.
-936.68 -1629.03 0.
-943.633 -1623.62 0.
-732.851 -1482.86 0.
-668.887 -1340.44 0.
-683.951 -1295.06 0.
-376.746 -980.636 0.
-407.831 -996.825 0.
-447.625 -1008.54 0.
-31.4133 -24.4763 0.
-143.286 -327.785 0.
-304.971 -683.269 0.
-258.63 -366.969 0.
-133.179 -184.237 0.
-138.837 -209.364 0.
-177.69 -240.171 0.
-523.891 -1147.26 0.
-37.5544 -98.5684 0.
-18.8919 -30.904 0.
-125.801 -255.632 0.
-9.90829 -15.0315 0.
-55.3857 -98.1316 0.
-203.907 -540.375 0.
-0.4822 -9.18527 0.
4.56341 8.52539 0.
-1.97285 -15.8104 0.
20.5471 34.5104 0.
-143.012 -245.745 0.
-355.448 -728.453 0.
-3.29012 -66.5275 0.
-43.7341 -82.0096 0.
0.235673 0.462318 0.
-0.96679 -4.92568 0.
0.720072 3.97776 0.
12.077 11.7517 0.
-3.14722 -4.09159 0.
-1.69791 -3.48202 0.
-0.255777 -0.857377 0.
-1.03202 -5.31309 0.
1.95702 4.38702 0.
-79.3457 -209.144 0.
-4.86288 -13.4506 0.
-652.804 -1415.42 0.
-222.424 -381.854 0.
-133.82 -152.937 0.
-897.019 -2058.53 0.
-776.524 -1865.13 0.
-685.487 -1739.64 0.
-1405.11 -2924.18 0.
-1027.16 -2120.03 0.
-690.267 -1412.95 0.
-705.108 -1234.31 0.
-771.768 -1455.16 0.
-1281.75 -2609.27 0.
-1370.54 -2408.53 0.
-1298.83 -2248.71 0.
-834.983 -1567.1 0.
-653.122 -1193.5 0.
-569.893 -1043.91 0.
-728.28 -1303.81 0.
-657.741 -1144.76 0.
-666.615 -1178.98 0.
-687.154 -1283.69 0.
-623.224 -1139.69 0.
-681.449 -1286.04 0.
-928.244 -1491.99 0.
-967.955 -1596.29 0.
-711.713 -1168.42 0.
-614.359 -970.032 0.
-600.155 -952.583 0.
-638.993 -1148.73 0.
-668.419 -1263.31 0.
-615.088 -1203.29 0.
-655.559 -1185 0.
-666.288 -1240.65 0.
-684.097 -1308.54 0.
-709.54 -1308.93 0.
-682.992 -1248.45 0.
-1855.25 -2124.3 0.
-727.638 -1238.5 0.
-751.93 -1295.28 0.
-707.804 -1297.12 0.
-683.253 -1213.94 0.
-662.437 -1171.87 0.
-666.592 -1223.03 0.
-635.391 -1143.52 0.
-646.503 -1125.01 0.
-610.261 -995.468 0.
-667.264 -1131.8 0.
-703.42 -1183.04 0.
-1052.82 -1698.06 0.
-1061.47 -1707.61 0.
-677.797 -1192.43 0.
-702.847 -1342.67 0.
-717.518 -1358.96 0.
-681.498 -1304.64 0.
-668.622 -1271.53 0.
-739.853 -1395.48 0.
-579.28 -1103.89 0.
-733.486 -1470.48 0.
-848.053 -1660.03 0.
-1382.01 -2541.72 0.
-1437.03 -2665.97 0.
-1376.76 -2666.74 0.
-905.168 -1566.95 0.
-874.286 -1396.26 0.
-669.911 -1615.75 0.
-1158.45 -2604.28 0.
-1791.27 -3958.16 0.
-311.213 -748.689 0.
-654.804 -1584.04 0.
-756.51 -1751.62 0.
-338.457 -413.123 0.
-178.757 -200.389 0.
-321.33 -387.993 0.
-213.386 -136.217 0.
-300.132 -363.858 0.
-36.6296 -85.9881 0.
-6.34796 -11.0243 0.
-4.68671 -8.22935 0.
-11.2791 -14.8963 0.
-11.7013 -15.3463 0.
-130.99 -302.173 0.
8.25282 21.2643 0.
6.95208 14.5874 0.
20.8174 47.3948 0.
-1.68922 -21.8889 0.
-570.517 -1043.89 0.
-22.4036 -49.4022 0.
35.33 86.3325 0.
9.8439 24.379 0.
-1492.89 -2864.43 0.
-1864.5 -3365.84 0.
7.34958 14.211 0.
-2.7646 -5.99613 0.
-3180.37 -6137.2 0.
-28.8576 -54.7502 0.
-3435.39 -6600.64 0.
-41.6619 -80.7685 0.
2.18749 4.48433 0.
-4099.34 -8875.38 0.
1.62997 4.46037 0.
-2369.18 -4327.9 0.
-1633.96 -3223.45 0.
-966.977 -2079.64 0.
-1924.72 -4654.4 0.
-741.606 -1970.05 0.
-126.841 -302.46 0.
-705.774 -1869.05 0.
-409.195 -1112.34 0.
-184.11 -379.697 0.
-515.347 -842.458 0.
-446.026 -772.85 0.
-383.499 -714.497 0.
-731.654 -1074.68 0.
-703.601 -1039.94 0.
-410.659 -568.236 0.
-414.061 -602.147 0.
-428.017 -660.964 0.
-456.684 -748.56 0.
-432.174 -738.572 0.
-409.567 -719.359 0.
-379.493 -702.988 0.
-348.704 -631.09 0.
-332.45 -547.871 0.
-594.856 -872.673 0.
-585.308 -870.566 0.
-457.465 -609.538 0.
-455.458 -607.7 0.
-454.307 -608.9 0.
-423.241 -776.7 0.
-401.772 -725.094 0.
-373.319 -682.53 0.
-456.431 -716.405 0.
-445.086 -705.546 0.
-443.484 -686.612 0.
-369.179 -654.495 0.
-349.961 -603.41 0.
-1297.28 -1020.38 0.
-357.194 -609.589 0.
-372.206 -658.217 0.
-394.961 -727.093 0.
-420.035 -735.546 0.
-444.181 -745.467 0.
-443.476 -689.407 0.
-481.749 -721.566 0.
-503.851 -769.863 0.
-420.374 -642.714 0.
-420.493 -638.555 0.
-421.171 -635.672 0.
-560.235 -895.956 0.
-589.193 -923.461 0.
-374.75 -638.584 0.
-385.861 -700.964 0.
-427.716 -807.084 0.
-410.593 -779.413 0.
-430.823 -790.416 0.
-462.18 -791.912 0.
-462.387 -753.899 0.
-435.146 -685.508 0.
-427.238 -668.826 0.
-703.215 -1058.51 0.
-730.369 -1057.49 0.
-367.665 -609.971 0.
-475.972 -771.205 0.
-599.54 -961.139 0.
-44.5987 -60.9224 0.
-403.077 -1068.82 0.
-882.864 -2308.04 0.
-218.047 -531.673 0.
-883.822 -2115.56 0.
-2296.81 -5162.91 0.
-601.988 -1078.91 0.
-1340.2 -2119.58 0.
-2135.13 -3144.06 0.
-0.496958 -1.29384 0.
-4189.12 -9369.8 0.
-8.30855 -22.0396 0.
-683.64 -1222.68 0.
-3698.82 -6322.48 0.
0.0393371 0.0783435 0.
-3355.78 -5678.88 0.
-2.21798 -16.7399 0.
-3344.33 -6630.61 0.
0.898064 2.05646 0.
-767.842 -1725.15 0.
-6.05315 -75.3766 0.
-1766.22 -3324.2 0.
51.2137 107.961 0.
-1878.88 -4669.21 0.
-3.53603 -87.5046 0.
-453.208 -952.56 0.
8.22159 19.4159 0.
4.78589 9.31292 0.
5.88344 12.7715 0.
-4.85554 -9.84268 0.
6.68936 14.2996 0.
-0.837415 -1.67114 0.
-1.39959 -10.1081 0.
-0.367022 -3.60877 0.
2.11059 5.5118 0.
-0.000101842 -3.28803 0.
-347.672 -373.607 0.
-315.046 -295.897 0.
-290.023 -234.007 0.
-396.658 -1048.76 0.
-95.2965 -207.846 0.
-52.5 -91.3593 0.
-413.51 -1112.69 0.
-155.974 -344.298 0.
-31.3751 -81.0545 0.
-463.981 -740.4 0.
-396.84 -665.791 0.
-342.885 -594.174 0.
-802.313 -1104.1 0.
-777.89 -1064.91 0.
-415.34 -547.752 0.
-449.978 -583.208 0.
-462.404 -641.557 0.
-425.894 -642.074 0.
-400.202 -629.351 0.
-371.697 -620.436 0.
-325.331 -629.568 0.
-308.943 -543.083 0.
-297.77 -452.68 0.
-646.62 -884.476 0.
-649.662 -884.601 0.
-493.361 -620.152 0.
-492.517 -617.364 0.
-494.096 -616.988 0.
-434.447 -720.526 0.
-415.005 -685.927 0.
-381.3 -679.698 0.
-487.532 -700.102 0.
-486.256 -681.155 0.
-484.336 -662.257 0.
-387.669 -670.169 0.
-368.845 -621.862 0.
-1475.73 -1091.06 0.
-333.514 -534.069 0.
-348.803 -582.857 0.
-445.179 -691.768 0.
-457.394 -712.446 0.
-480.456 -722.869 0.
-462.153 -694.013 0.
-485.008 -714.352 0.
-514.614 -754.21 0.
-443 -648.868 0.
-452.485 -634.644 0.
-442.857 -641.549 0.
-599.519 -910.324 0.
-613.611 -939.764 0.
-364.681 -598.991 0.
-375.174 -661.754 0.
-413.887 -773.406 0.
-381.586 -638.203 0.
-424.65 -624.288 0.
-459.734 -617.075 0.
-494.648 -773.594 0.
-468.885 -708.429 0.
-446.494 -642.236 0.
-757.419 -1064.49 0.
-797.353 -1055.68 0.
-196.42 -402.33 0.
-277.785 -590.712 0.
-398.878 -773.819 0.
-37.6345 -26.5951 0.
-93.677 -178.445 0.
-392.753 -1004.09 0.
-199.629 -496.085 0.
-156.323 -378.688 0.
-232.296 -558.95 0.
-136.174 -75.3597 0.
-184.37 -181.254 0.
-236.053 -322.454 0.
-0.0590737 -2.46428 0.
0.605453 1.67694 0.
-0.000932216 -3.17234 0.
-1.39471 -3.63644 0.
-71.7581 -169.343 0.
-1.32831 -14.0407 0.
8.8239 16.9647 0.
-2.86622 -33.9132 0.
-33.5131 -70.3759 0.
-1.93879 -4.59529 0.
-2664.17 -6268.66 0.
-634.794 -1671.78 0.
18.2885 50.5251 0.
-815.711 -1699.05 0.
56.7884 156.994 0.
22.2348 57.0192 0.
-296.28 -658.204 0.
-2.15519 -44.8786 0.
4.79272 9.36538 0.
3.59707 7.8099 0.
-1640.96 -4067.7 0.
-0.290796 -15.8543 0.
-2064.14 -4860.2 0.
-0.693071 -11.8962 0.
2.70023 6.87757 0.
-3101.9 -7967.39 0.
0.00996578 1.5234 0.
-2887.42 -5718.88 0.
-1384.19 -2735.36 0.
-285.707 -315.485 0.
-2826.33 -6687.55 0.
-973.872 -2499.53 0.
-96.9296 -226.712 0.
-2232.35 -4864.83 0.
-1162.9 -2874.99 0.
-269.902 -709.101 0.
-1264.64 -2542.52 0.
-865.193 -1815.27 0.
-527.668 -1181.36 0.
-1106.17 -1901.57 0.
-979.658 -1737.63 0.
-762.475 -1300.69 0.
-760.437 -1299.44 0.
-759.547 -1298.87 0.
-702.786 -1297.05 0.
-677.564 -1280.35 0.
-658.768 -1257.22 0.
-694.523 -1359.44 0.
-653.764 -1296.03 0.
-616.012 -1229.61 0.
-1143.42 -1751.39 0.
-1052.68 -1610.3 0.
-731.735 -1144.51 0.
-729.964 -1139.03 0.
-729.47 -1131.86 0.
-670.524 -1239.5 0.
-644.621 -1192.71 0.
-622.621 -1153.32 0.
-728.514 -1189.31 0.
-705.944 -1138.28 0.
-684.529 -1086.1 0.
-661.09 -1218.53 0.
-662.776 -1222.88 0.
-1889.79 -1813.05 0.
-573.464 -1187.67 0.
-577.68 -1190.84 0.
-682.458 -1200.86 0.
-694.654 -1237.01 0.
-707.364 -1272.65 0.
-606.445 -1125.76 0.
-678.575 -1209.02 0.
-725.997 -1335.85 0.
-761.238 -1229.06 0.
-765.352 -1238.14 0.
-771.478 -1245.2 0.
-1020.05 -1650.64 0.
-1080.94 -1752.07 0.
-651.777 -1261.1 0.
-695.226 -1366.1 0.
-747.562 -1470.33 0.
-730.294 -1203.63 0.
-703.394 -1175.28 0.
-678.138 -1145.28 0.
-650.034 -1288.64 0.
-707.297 -1374.86 0.
-768.618 -1459.15 0.
-943.065 -1769.42 0.
-1119.62 -1985.44 0.
-418.418 -1074.41 0.
-883.778 -2061.89 0.
-1450.8 -3151.3 0.
-48.4456 -57.4508 0.
-1149.2 -2937.06 0.
-2567.95 -5927.15 0.
-174.133 -378.818 0.
-595.071 -1140.12 0.
-2458.84 -4688.51 0.
-155.46 -220.45 0.
-3914.62 -8244.9 0.
2.12243 5.47332 0.
1.3259 3.06701 0.
-3123.27 -7341.19 0.
3.83182 8.45396 0.
-3191.13 -6001.58 0.
8.72855 19.6073 0.
-2022.71 -4662.6 0.
-3.86127 -26.6745 0.
16.8482 40.8987 0.
-1.26188 -31.3327 0.
-3.22426 -54.0355 0.
2.57281 6.96557 0.
-1277.26 -3422.96 0.
-2509.53 -6949.85 0.
-978.442 -2391.82 0.
10.4357 28.904 0.
-1.86362 -66.487 0.
21.3855 56.3237 0.
21.1403 57.5004 0.
-1069.18 -2601.48 0.
5.29215 13.8324 0.
0.818334 2.21523 0.
6.84285 18.851 0.
-0.00728463 -4.7915 0.
-0.743454 -7.94855 0.
4.01913 9.70605 0.
3.01613 8.32656 0.
4.93442 13.6347 0.
0.00180645 3.52814 0.
-147.703 -298 0.
-60.8429 -134.856 0.
-231.493 -637.731 0.
-55.3186 -152.603 0.
-34.4915 -95.4813 0.
-449.241 -1220.67 0.
-68.0375 -118.079 0.
-6.09686 -4.03911 0.
-592.919 -1424.34 0.
-291.663 -664.589 0.
-115.906 -167.692 0.
-761.46 -1521.7 0.
-654.263 -1411.97 0.
-629.894 -1154.25 0.
-618.872 -1181.9 0.
-628.601 -1209.99 0.
-681.776 -1169.9 0.
-661.509 -1152.26 0.
-641.553 -1149.25 0.
-664.981 -1190.21 0.
-628.984 -1134.09 0.
-592.295 -1078.99 0.
-986.963 -1540.48 0.
-904.388 -1416.2 0.
-638.652 -1041.84 0.
-634.579 -1038.78 0.
-630.821 -1035.88 0.
-627.796 -1088.69 0.
-613.978 -1047.55 0.
-579.469 -1050.33 0.
-671.202 -1102.27 0.
-644.361 -1052.23 0.
-619.998 -1004.07 0.
-625.786 -1174.75 0.
-627.068 -1179.02 0.
-1454.36 -1592.48 0.
-548.992 -1079.87 0.
-573.176 -1062.37 0.
-656.232 -1127.24 0.
-642.097 -1125.05 0.
-646.939 -1152.34 0.
-528.366 -1002.82 0.
-557.013 -1094.09 0.
-650.647 -1152.09 0.
-627.869 -1131.62 0.
-628.475 -1133.67 0.
-635.552 -1149.51 0.
-857.665 -1489.49 0.
-919.505 -1564.31 0.
-616.385 -1153.78 0.
-640.343 -1208.36 0.
-683.614 -1299.5 0.
-737.344 -1154.68 0.
-716.46 -1119.13 0.
-701.94 -1083.95 0.
-489.131 -1069.79 0.
-517.141 -1119.05 0.
-561.158 -1202.05 0.
-576.772 -1312.28 0.
-698.209 -1480.04 0.
-61.5971 -98.1896 0.
-206.705 -503.101 0.
-644.243 -1636.2 0.
-24.181 -35.6824 0.
-33.307 -61.9501 0.
-268.185 -708.262 0.
-137.248 -222.5 0.
-104.382 -140.194 0.
-82.9566 -89.09 0.
2.52762 1.39306 0.
-63.7788 -140.089 0.
0.0182672 2.4531 0.
1.69743 4.29296 0.
1.56647 3.66022 0.
-0.122937 -2.12865 0.
3.90694 8.02914 0.
11.9782 30.7065 0.
-762.31 -1899.72 0.
21.1874 56.8339 0.
-1057.07 -2814.25 0.
11.7292 32.1218 0.
18.3472 45.5064 0.
-96.9459 -265.904 0.
50.0468 134.13 0.
55.4976 131.847 0.
60.436 165.47 0.
21.6716 59.8633 0.
-4.94883 -12.9847 0.
-0.0982433 -81.264 0.
-135.315 -370.347 0.
-0.000220519 -59.9695 0.
-2.19665 -5.84822 0.
13.3497 36.9478 0.
5.48098 15.1649 0.
13.4681 36.0121 0.
0.343572 2.62743 0.
-0.609844 -6.69675 0.
-8.93571e-05 -6.15113 0.
2.80746 7.77283 0.
4.64952 12.8581 0.
-26.2826 -64.2196 0.
-0.0192753 -1.87719 0.
-72.6337 -197.273 0.
-5.21408 -14.2669 0.
-12.2153 -33.5335 0.
-87.6663 -146.427 0.
-44.8432 -47.9249 0.
-18.2163 -12.202 0.
-318.824 -707.305 0.
-146.779 -224.347 0.
-104.57 -132.163 0.
-679.83 -1342.87 0.
-419.81 -853.612 0.
-558.44 -930.324 0.
-594.741 -984.578 0.
-348.773 -391.488 0.
-708.066 -961.593 0.
-342.163 -422.975 0.
-142.682 -153.588 0.
-445.025 -593.001 0.
-464.049 -632.08 0.
-487.882 -665.664 0.
-668.459 -876.457 0.
-750.417 -1006.91 0.
-445.689 -522.439 0.
-464.153 -587.456 0.
-334.513 -366.975 0.
-358.891 -470.629 0.
-299.179 -353.095 0.
-504.389 -849.012 0.
-474.497 -694.164 0.
-348.026 -386.585 0.
-352.293 -408.27 0.
-382.741 -453.493 0.
-410.936 -531.381 0.
-1321.11 -1178.4 0.
-400.786 -618.744 0.
-398.649 -619.42 0.
-477.067 -617.786 0.
-442.447 -491.793 0.
-525.685 -655.366 0.
-301.189 -298.664 0.
-456.579 -629.417 0.
-474.2 -563.404 0.
-363.167 -570.681 0.
-318.872 -451.935 0.
-363.885 -342.783 0.
-504.911 -725.05 0.
-686.516 -1148.27 0.
-379.446 -420.408 0.
-484.037 -574.321 0.
-243.826 -224.249 0.
-390.913 -441.546 0.
-375.246 -392.114 0.
-336.839 -395.794 0.
-214.17 -376.006 0.
-457.401 -955.319 0.
-352.419 -757.458 0.
-149.634 -353.027 0.
-530.845 -1216.54 0.
-116.451 -128.778 0.
-130.733 -148.679 0.
-166.87 -232.064 0.
-19.0615 -19.043 0.
-26.5419 -47.4475 0.
-41.4306 -97.3063 0.
-167.224 -242.77 0.
-130.521 -151.766 0.
-102.304 -83.8905 0.
0.00734242 0.394338 0.
0.0182445 1.46146 0.
0.00479595 5.24271 0.
-0.0701094 -3.7427 0.
-0.0693358 -1.45126 0.
-0.614339 -16.9655 0.
9.56806 21.2933 0.
-0.283827 -42.3145 0.
-179.412 -472.925 0.
-6.54529 -17.7453 0.
-671.285 -1801.74 0.
-3.46286 -9.54333 0.
-1347.85 -3718.79 0.
-366.941 -1013.37 0.
37.1268 98.8638 0.
-0.202755 -2.50633 0.
-0.750119 -148.018 0.
-27.765 -76.1811 0.
16.8589 44.3519 0.
-3.28214 -9.08482 0.
-326.085 -896.602 0.
12.5863 34.839 0.
4.51684 12.1653 0.
4.55226e-05 3.91903 0.
-1478.75 -3987.6 0.
1.07974 2.97906 0.
-2276.87 -5204.68 0.
-0.673109 -8.24378 0.
-2311.8 -5928.56 0.
4.79318 13.2735 0.
-0.00136299 -4.43078 0.
-4088.89 -10036.9 0.
-0.186335 -6.13457 0.
-2750.53 -5885.16 0.
-509.652 -1365.16 0.
0.0416263 1.15545 0.
-3059.93 -7666.31 0.
-464.579 -1281.01 0.
-33.5078 -79.0486 0.
-2072.08 -4964.32 0.
-907.293 -2293.42 0.
-94.9213 -129.72 0.
-1375.39 -3134.23 0.
-929.991 -2200.69 0.
-984.484 -2107.94 0.
-726.044 -1553.94 0.
-474.017 -1000.87 0.
-671.277 -1200.33 0.
-628.986 -1122.04 0.
-583.27 -1050.57 0.
-588.276 -939.297 0.
-539.023 -847.876 0.
-482.682 -764.921 0.
-776.814 -1211.91 0.
-773.871 -1218.65 0.
-484.113 -869.484 0.
-473.329 -838.646 0.
-476.13 -844.624 0.
-542.485 -909.795 0.
-507.948 -835.237 0.
-476.44 -768.288 0.
-478.152 -794.223 0.
-497.517 -831.302 0.
-530.883 -879.652 0.
-595.757 -959.777 0.
-585.237 -932.16 0.
-921.951 -1115.79 0.
-467.622 -807.671 0.
-479.832 -810.84 0.
-527.327 -803.315 0.
-533.805 -809.83 0.
-548.203 -806.879 0.
-504.857 -784.493 0.
-515.522 -799.416 0.
-494.685 -843.272 0.
-481.678 -849.926 0.
-475.973 -854.508 0.
-474.601 -870.184 0.
-742.591 -1245.83 0.
-762.576 -1272.29 0.
-559.542 -927.54 0.
-598.132 -990.291 0.
-634.308 -1053.74 0.
-614.205 -1049.92 0.
-740.624 -1309.58 0.
-865.319 -1568.32 0.
-423.282 -1153.02 0.
-727.64 -1858.79 0.
-1049.01 -2549.81 0.
-971.261 -2352.71 0.
-1582.01 -3601.47 0.
-90.7619 -196.904 0.
-792.541 -2005.82 0.
-2372.32 -5608.06 0.
-31.2406 -77.6751 0.
-239.904 -661.854 0.
-3410.08 -8647.3 0.
-32.4886 -65.0639 0.
-417.9 -784.733 0.
-3029.02 -5450.76 0.
0.941618 2.32168 0.
-3383.99 -8252.72 0.
-0.589826 -7.23934 0.
-45.3438 -101.379 0.
-3101.22 -7046.15 0.
4.64079 12.1954 0.
-2339.85 -6074.16 0.
8.83109 24.4571 0.
-111.096 -302.135 0.
-0.3598 -62.6626 0.
-238.8 -645.55 0.
24.5451 67.8867 0.
-13.1159 -35.2514 0.
-17.1456 -46.2093 0.
-5.2343 -13.8946 0.
-10.9484 -123.08 0.
-139.807 -382.789 0.
-618.03 -1676.81 0.
15.4808 40.3948 0.
7.23974 20.0528 0.
-546.87 -1508.7 0.
12.265 33.907 0.
-907.008 -2470.41 0.
0.679326 1.86489 0.
-18.0227 -49.3954 0.
-1.5813 -4.37905 0.
9.18451 21.995 0.
6.38053 16.2726 0.
-0.00424207 -8.67209 0.
3.76642 10.4259 0.
-1.46953e-06 -0.0172939 0.
2.39918 5.81756 0.
0.0159661 0.778879 0.
-214.567 -587.88 0.
-50.2089 -126.953 0.
-0.0579472 -0.272675 0.
-158.322 -381.108 0.
-16.2232 -42.8473 0.
-22.9815 -61.7658 0.
-603.036 -1540.89 0.
-89.8213 -146.869 0.
-28.5884 -69.1667 0.
-800.846 -1974.05 0.
-424.278 -974.616 0.
-694.395 -1532.53 0.
-472.861 -943.967 0.
-264.032 -346.547 0.
-604.982 -1000.49 0.
-561.238 -926.11 0.
-522.78 -847.011 0.
-547.724 -831.351 0.
-499.473 -740.406 0.
-455.029 -669.899 0.
-757.919 -1199.82 0.
-756.08 -1208.3 0.
-492.923 -750.637 0.
-483.79 -717.27 0.
-480.598 -700.317 0.
-576.484 -898.296 0.
-537.695 -808.361 0.
-499.547 -717.466 0.
-459.163 -759.472 0.
-480.422 -815.193 0.
-507.385 -868.76 0.
-642.99 -954.813 0.
-635.025 -926.53 0.
-881.24 -974.346 0.
-485.485 -836.573 0.
-508.695 -829.074 0.
-521.903 -683.926 0.
-522.703 -695.551 0.
-522.846 -708.035 0.
-533.476 -717.728 0.
-534.513 -739.07 0.
-539.361 -761.712 0.
-490.559 -741.759 0.
-491.473 -742.25 0.
-507.909 -779.382 0.
-785.879 -1259.4 0.
-805.67 -1285.14 0.
-540.105 -813.382 0.
-576.513 -879.062 0.
-612.954 -951.175 0.
-389.459 -769.942 0.
-504.705 -1038.12 0.
-638.81 -1293.88 0.
-126.597 -328.361 0.
-390.462 -1075.32 0.
-669.512 -1811.24 0.
-243.442 -504.985 0.
-767.589 -1843.53 0.
-19.9443 -22.9251 0.
-65.7186 -125.821 0.
-194.021 -537.295 0.
-5.4243 -15.02 0.
-66.6697 -182.235 0.
-284.097 -786.755 0.
-0.0978255 -2.62313 0.
-0.287718 -3.07407 0.
1.60198 3.36329 0.
-0.0528332 -2.58728 0.
0.824162 1.99389 0.
-0.90597 -13.0461 0.
5.00054 11.4222 0.
0.00225869 13.7857 0.
-0.0821607 -13.3306 0.
-209.959 -561.648 0.
-0.00847496 -43.8481 0.
-1291.59 -3572.47 0.
18.3756 50.8126 0.
4.71295 13.0502 0.
-77.8974 -215.757 0.
37.8555 101.721 0.
14.365 38.7051 0.
22.0909 58.6645 0.
11.8331 32.0491 0.
-592.239 -1623.68 0.
8.21282 20.4488 0.
20.4404 52.8829 0.
5.1551 14.2686 0.
19.842 54.697 0.
-2.59857 -7.05978 0.
-775.873 -2127.72 0.
-2.31707 -6.39262 0.
5.8585 16.1624 0.
2.10952 5.83898 0.
-0.796747 -20.5815 0.
8.40779 22.505 0.
0.000892902 8.21274 0.
-1891.77 -5239.88 0.
-93.0418 -257.589 0.
-2427.44 -6132.94 0.
1.29554 3.51019 0.
-2955.15 -7010.28 0.
-99.0443 -257.827 0.
-7.59699 -19.3692 0.
-3300.34 -8792.64 0.
-142.198 -393.59 0.
-11.6026 -32.1244 0.
-2649.11 -6447.05 0.
-523.588 -1365.63 0.
-0.681728 -0.751172 0.
-1741.39 -4126.15 0.
-885.176 -2131.53 0.
-1209.96 -2646.17 0.
-820.5 -1796.9 0.
-461.135 -932.522 0.
-887.707 -1664.24 0.
-712.796 -1318.01 0.
-540.994 -968.906 0.
-689.729 -1065.48 0.
-673.715 -1042.73 0.
-658.495 -1024.67 0.
-939.874 -1629.82 0.
-926.865 -1610.16 0.
-726.693 -1154.32 0.
-664.863 -1017.58 0.
-608.821 -895.981 0.
-706.737 -993.564 0.
-664.137 -1017.14 0.
-664.178 -1008.4 0.
-726.918 -1103.04 0.
-696.831 -1019.1 0.
-603.761 -999.957 0.
-801.773 -1290.3 0.
-805.339 -1294.94 0.
-1335.39 -1480.66 0.
-573.923 -1035.98 0.
-603.696 -1027.75 0.
-582.145 -941.352 0.
-640.475 -1063.26 0.
-701.318 -1190.27 0.
-700.688 -1043.26 0.
-694.866 -1031.72 0.
-693.102 -1032.3 0.
-663.912 -978.162 0.
-700.543 -1059.8 0.
-737.236 -1141.56 0.
-937.262 -1615.17 0.
-946.024 -1643.48 0.
-610.268 -917.979 0.
-697.421 -1078.07 0.
-793.717 -1255.8 0.
-453.338 -1014.63 0.
-686.024 -1494.77 0.
-927.039 -1971.36 0.
-294.718 -793.692 0.
-770.981 -1940.83 0.
-1288.52 -3057.21 0.
-777.831 -1964.98 0.
-2017.51 -5026.39 0.
-12.1585 -31.4312 0.
-178.884 -486.153 0.
-2817.97 -7006.03 0.
-93.7246 -259.572 0.
-138.53 -377.255 0.
-2410.8 -6064.58 0.
1.92562 5.09782 0.
-3087.12 -7473.59 0.
3.54563 9.78877 0.
-0.0684072 -14.1868 0.
-1914.58 -5207.4 0.
-0.319393 -5.30917 0.
-1.12763 -14.0908 0.
-0.0665197 -20.3355 0.
-0.00518408 -13.4227 0.
1.38798 3.81166 0.
-0.0194582 -50.9899 0.
22.4401 61.8639 0.
1.44697 4.00784 0.
-212.579 -585.488 0.
-422.478 -1169.17 0.
16.0601 43.1407 0.
-70.0847 -188.782 0.
-7.35022 -138.857 0.
-326.906 -904.406 0.
1.9255 5.02068 0.
-21.0652 -51.9341 0.
-229.308 -588.026 0.
-377.659 -1042.87 0.
-1.56435 -93.0781 0.
1.63598 4.40585 0.
-1.03113 -54.5026 0.
-5.46335 -15.1164 0.
-3.11139 -8.61152 0.
-0.071221 -43.9648 0.
15.5036 42.8197 0.
-1468.7 -3925.19 0.
-0.000182907 -9.27033 0.
-74.2814 -205.743 0.
-57.2564 -158.49 0.
-48.9031 -131.274 0.
2.5262 6.95912 0.
4.66279 12.8903 0.
-3.7229 -9.7785 0.
-0.188421 -3.9982 0.
-258.419 -709.185 0.
-38.6725 -103.399 0.
-1.86195 -3.99435 0.
-99.4039 -230.659 0.
0.476487 0.452907 0.
-0.360825 -0.430691 0.
-670.791 -1638.85 0.
-74.9111 -64.0818 0.
-624.185 -1425.86 0.
-274.872 -533.494 0.
-134.713 -141.436 0.
-586.853 -1209.34 0.
-416.436 -827.448 0.
-269.615 -427.396 0.
-541.848 -931.554 0.
-529.32 -908.721 0.
-517.597 -894.895 0.
-884.49 -1567.33 0.
-873.499 -1549.8 0.
-706.44 -1058.18 0.
-654.56 -940.156 0.
-622.149 -879.356 0.
-608.679 -932.198 0.
-609.917 -927.958 0.
-611.565 -924.584 0.
-608.437 -1050.5 0.
-585.236 -973.058 0.
-561.774 -980.268 0.
-790.042 -1155.61 0.
-786.095 -1149.55 0.
-837.044 -1219.87 0.
-531.661 -923.984 0.
-538.953 -936.689 0.
-531.844 -956.331 0.
-573.234 -1023.68 0.
-639.057 -1121.57 0.
-623.83 -1024.55 0.
-620.174 -1008.88 0.
-614.018 -996.68 0.
-600.798 -936.045 0.
-623.336 -979.007 0.
-659.168 -1061.4 0.
-872.483 -1545.88 0.
-880.497 -1569.6 0.
-408.682 -658.837 0.
-488.492 -826.043 0.
-570.758 -992.203 0.
-159.109 -292.351 0.
-347.421 -820.471 0.
-558.78 -1322.81 0.
-38.4192 -65.9901 0.
-121.11 -307.311 0.
-579.636 -1483.73 0.
-49.4279 -101.724 0.
-615.93 -1671.01 0.
-6.26618 -17.1207 0.
-2.08548 -5.77326 0.
-141.627 -392.261 0.
-0.00507581 -1.57521 0.
-0.114924 -0.312326 0.
-41.3645 -110.148 0.
1.01567 2.79976 0.
-447.998 -1201.82 0.
5.91845 16.3754 0.
4.35364 12.0483 0.
-261.998 -722.008 0.
-0.263776 -20.4568 0.
-2175.74 -5546.95 0.
7.78113 21.5351 0.
-1317.75 -3624.63 0.
1.26897 3.47882 0.
8.20986 22.7036 0.
-0.367435 -73.9292 0.
-232.292 -642.444 0.
-152.713 -420.073 0.
-150.799 -415.587 0.
14.7164 39.5156 0.
-581.994 -1567.34 0.
23.3493 57.3717 0.
-0.605967 -71.5184 0.
1.90429 4.96116 0.
25.2895 61.7644 0.
-819.758 -2081.72 0.
7.30805 19.4633 0.
-2.13437 -5.67543 0.
-13.6814 -36.4724 0.
-8.65287 -22.6129 0.
-5.00059 -13.8505 0.
21.9465 60.7689 0.
-562.892 -1558.89 0.
1.2424 3.41429 0.
-127.798 -351.037 0.
14.8331 40.9741 0.
-75.3519 -208.435 0.
-41.5081 -114.375 0.
4.15647 11.3757 0.
4.14451 11.4773 0.
5.81384 15.9464 0.
-1.39511 -3.59073 0.
-0.202208 -0.492283 0.
-128.156 -322.963 0.
-30.5542 -73.0817 0.
0.420642 2.29404 0.
-7.18437 -5.4999 0.
-0.192192 -0.200353 0.
-0.194324 -0.261257 0.
-109.347 -119.437 0.
-45.5436 -32.9167 0.
-104.497 -85.1435 0.
-105.938 -92.8033 0.
-106.522 -103.014 0.
-325.135 -582.145 0.
-184.203 -162.478 0.
-62.2087 -71.6641 0.
-329.064 -598.823 0.
-285.257 -473.578 0.
-145.24 -170.553 0.
-389.954 -458.793 0.
-471.713 -703.245 0.
-104.318 -75.7418 0.
-309.96 -356.019 0.
-127.006 -59.8382 0.
-174.938 -109.65 0.
-188.563 -137.562 0.
-187.868 -117.364 0.
-124.75 -46.4919 0.
-122.504 -44.4933 0.
-150.485 -72.2638 0.
-409.612 -200.61 0.
-564.865 -631.413 0.
-364.444 -265.345 0.
-206.377 -250.248 0.
-136.304 -111.796 0.
-149.282 -186.7 0.
-120.35 -118.054 0.
-116.099 -120.139 0.
-201.152 -239.754 0.
-198.012 -233.561 0.
-233.736 -316.35 0.
-183.092 -153.102 0.
-253.058 -276.195 0.
-306.484 -301.812 0.
-440.14 -595.861 0.
-412.347 -494.967 0.
-169.886 -191.983 0.
-290.83 -528.275 0.
-414.028 -845.93 0.
-73.5188 -101.329 0.
-75.3643 -108.783 0.
-305.5 -687.804 0.
-55.7348 -74.1346 0.
-63.0608 -98.4259 0.
-74.2483 -119.886 0.
-35.3154 -97.8134 0.
-22.6906 -60.5757 0.
-2.31368 -6.40717 0.
0.269919 0.736688 0.
-16.7556 -46.2503 0.
-0.0303243 -1.04014 0.
0.192423 0.531863 0.
-0.72622 -1.99253 0.
2.75725 7.63049 0.
-0.0123991 -2.59526 0.
5.43712 14.8776 0.
0.111649 0.308752 0.
-0.00185247 -16.0964 0.
-0.0939342 -20.6751 0.
1.99079 5.18503 0.
-3.43364 -9.50905 0.
-579.123 -1601.56 0.
-0.0780716 -50.8294 0.
-566.027 -1566.11 0.
-0.401637 -45.1901 0.
-1478.8 -4062.96 0.
-108.314 -297.495 0.
-127.303 -350.389 0.
8.09965 20.8329 0.
-345.271 -926.73 0.
-3.79058 -70.8172 0.
0.854934 2.32652 0.
30.7204 80.1649 0.
-370.383 -895.508 0.
-12.6732 -29.6013 0.
22.8213 60.7005 0.
-24.2726 -64.4508 0.
-586.788 -1546.44 0.
-2.4612 -6.50289 0.
-242.75 -671.372 0.
-1.45862e-05 -66.6607 0.
-579.039 -1600.61 0.
8.05378 21.9898 0.
-0.678445 -1.87611 0.
11.8327 32.4753 0.
-74.3843 -204.916 0.
-270.325 -733.193 0.
-1790.15 -4926.01 0.
0.02557 5.96623 0.
3.30242 10.6959 0.
-3113.59 -8007.55 0.
0.0223648 3.15821 0.
-2150.65 -4675.22 0.
-0.376223 -0.928897 0.
-0.235125 -0.556039 0.
-3048.27 -8198.18 0.
-28.818 -51.5965 0.
-30.3681 -50.841 0.
-2316.64 -5870.21 0.
-481.148 -1100.81 0.
-1566.26 -3638.81 0.
-786.774 -1839.43 0.
-81.2811 -50.1735 0.
-1192.79 -2923.17 0.
-726.996 -1798.92 0.
-296.079 -636.396 0.
-788.151 -1836.9 0.
-544.856 -1249.55 0.
-325.769 -682.458 0.
-751.479 -1566.76 0.
-690.703 -1432.67 0.
-553.579 -847.034 0.
-545.972 -836.757 0.
-555.34 -859.776 0.
-460.461 -830.006 0.
-444.941 -799.555 0.
-432.504 -769.582 0.
-434.043 -857.706 0.
-424.399 -846.981 0.
-422.079 -834.591 0.
-666.422 -946.471 0.
-664.603 -930.942 0.
-364.871 -804.087 0.
-376.629 -788.365 0.
-410.831 -860.691 0.
-509.742 -972.865 0.
-491.894 -933.84 0.
-474.909 -895.46 0.
-385.022 -799.137 0.
-407.72 -836.195 0.
-429.227 -868.021 0.
-497.948 -869.633 0.
-490.984 -855.496 0.
-487.657 -852.61 0.
-717.42 -1554.9 0.
-844.875 -1831.26 0.
-293.565 -693.404 0.
-567.358 -1422.93 0.
-862.456 -2131.95 0.
-138.278 -328.182 0.
-722.245 -1872.93 0.
-1351.85 -3381.73 0.
-40.5906 -64.7313 0.
-795.871 -2008.69 0.
-1860.43 -4429.31 0.
-173.029 -472.66 0.
-2583.55 -6887.56 0.
-0.000151286 -0.0804105 0.
-40.1526 -110.311 0.
-3015.94 -7926.85 0.
-0.0797626 -3.67558 0.
-0.195827 -2.10388 0.
-2927.41 -6110.68 0.
-0.00622362 -4.28004 0.
-2679.74 -7329.78 0.
-1.1025 -3.05081 0.
-2.99365 -8.23628 0.
-1963.02 -5337.14 0.
2.23986 6.18611 0.
-0.429102 -27.4425 0.
5.39932 14.9175 0.
-80.9423 -224.196 0.
-0.149813 -49.6436 0.
-556.29 -1535.94 0.
-13.4749 -36.1209 0.
7.06091 18.9729 0.
-63.5255 -174.172 0.
-659.152 -1810.78 0.
9.67167 24.7903 0.
-5.62043 -94.039 0.
-3.72258 -73.4973 0.
-514.104 -1406.61 0.
-182.315 -477.783 0.
-10.6823 -95.3489 0.
3.58612 8.4274 0.
-228.849 -607.44 0.
-3.40186 -9.02031 0.
-2.02729 -78.7787 0.
-8.99597 -23.7323 0.
-111.377 -308.324 0.
3.48471 9.64966 0.
-607.61 -1673.56 0.
-2.18977 -5.93631 0.
-662.164 -1833.39 0.
-0.00510852 -21.6331 0.
-1717.6 -4411.98 0.
2.32791 6.43779 0.
4.98715 13.8129 0.
0.00605506 3.28721 0.
1.25354 12.2677 0.
4.70693 4.74386 0.
0.0147125 5.53915 0.
0.796203 2.04964 0.
-0.433305 -1.0792 0.
-0.216894 -3.15145 0.
-138.367 -203.33 0.
-33.8914 -55.1364 0.
-35.9548 -55.3131 0.
-514.683 -1114.8 0.
-152.324 -111.302 0.
-434.747 -946.403 0.
-48.409 -17.4888 0.
-0.131207 -0.00940379 0.
-593.2 -1506.42 0.
-171.096 -335.295 0.
-61.1984 -44.0639 0.
-608.49 -1425.59 0.
-389.729 -818.892 0.
-244.638 -420.261 0.
-675.563 -1435.44 0.
-614.725 -1305.79 0.
-517.995 -753.542 0.
-500.815 -705.528 0.
-502.889 -707.724 0.
-469.221 -748.407 0.
-456.557 -716.537 0.
-444.507 -684.52 0.
-397.06 -776.816 0.
-394.195 -761.595 0.
-391.269 -746.088 0.
-664.602 -936.81 0.
-662.458 -925.675 0.
-656.574 -969.675 0.
-364.06 -738.368 0.
-401.643 -841.483 0.
-491.615 -848.177 0.
-472.936 -813.856 0.
-454.236 -779.887 0.
-425.199 -665.711 0.
-435.856 -722.135 0.
-450.992 -775.396 0.
-396.147 -767.126 0.
-396.641 -751.505 0.
-404.609 -744.422 0.
-608.702 -1366.45 0.
-727.206 -1639.21 0.
-118.812 -208.192 0.
-322.832 -769.326 0.
-592.011 -1506.09 0.
-0.350751 -0.0878044 0.
-15.8609 -31.425 0.
-579.954 -1512.02 0.
-45.0531 -56.2578 0.
-70.6646 -100.831 0.
-295.171 -724.069 0.
-14.8766 -37.892 0.
-281.179 -778.043 0.
0.0048796 0.391342 0.
-0.000380202 -1.44747 0.
-10.1168 -27.4467 0.
-0.0853529 -4.55475 0.
2.73133 6.50742 0.
1.48424 3.09921 0.
-0.015191 -3.11621 0.
-217.717 -602.858 0.
-0.0238201 -20.0577 0.
-0.022079 -19.5612 0.
-4.43271e-06 -13.4969 0.
-0.0195563 -23.4244 0.
-1812.04 -4977.02 0.
8.1549 22.1083 0.
-176.525 -488.497 0.
21.2875 58.2761 0.
-943.582 -2596.71 0.
16.2097 43.153 0.
1.54251 4.11846 0.
28.3386 74.7194 0.
-99.386 -272.656 0.
26.7669 68.4379 0.
-4.47561 -82.1407 0.
12.7382 28.8479 0.
-550.447 -1511.02 0.
-1.7096 -40.2801 0.
30.6417 67.9406 0.
-8.57906 -20.3115 0.
-600.687 -1590.26 0.
-0.700402 -1.7979 0.
4.30328 11.2122 0.
-14.0725 -37.0704 0.
-949.387 -2629.55 0.
14.4171 39.8933 0.
-309.92 -841.22 0.
7.92667 21.3428 0.
-123.306 -340.761 0.
5.86466 16.0651 0.
-595.362 -1596.64 0.
8.55464 23.6943 0.
0.140793 8.8548 0.
-0.358514 -14.1206 0.
1.01141 2.0019 0.
-1768.15 -4718.92 0.
-184.962 -476.724 0.
-2740.27 -6478.35 0.
-109.99 -264.745 0.
0.0201049 1.98528 0.
-2854.62 -7897.07 0.
-55.5329 -109.947 0.
0.0344969 0.0123198 0.
-2475.02 -6124.2 0.
-163.897 -207.855 0.
-1868.09 -4374.53 0.
-671.22 -1540.42 0.
-82.9493 -48.1144 0.
-1400.5 -3556.9 0.
-633.565 -1596.55 0.
0.29722 0.00788422 0.
-993.313 -2377.18 0.
-585.026 -1360.51 0.
-200.885 -321.512 0.
-841.665 -1793.04 0.
-715.123 -1533.21 0.
-602.497 -1052.5 0.
-543.673 -908.498 0.
-500.853 -806.483 0.
-530.211 -833.243 0.
-536.35 -845.291 0.
-542.103 -855.391 0.
-565.62 -980.685 0.
-479.79 -945.639 0.
-452.788 -868.609 0.
-776 -1131.02 0.
-818.009 -1153.24 0.
-812.48 -1163.6 0.
-425.45 -923.896 0.
-424.113 -926.314 0.
-501.32 -813.591 0.
-512.65 -844.949 0.
-527.063 -885.313 0.
-514.257 -809.99 0.
-522.907 -822.526 0.
-532.405 -835.035 0.
-415.957 -867.526 0.
-501.208 -1055.59 0.
-592.972 -1245.98 0.
-736.839 -1647.51 0.
-919.393 -2018.82 0.
-100.926 -146.173 0.
-587.532 -1474.34 0.
-1108.4 -2776.58 0.
-20.858 -49.2656 0.
-587.911 -1541.61 0.
-1609.24 -4085.35 0.
-42.1624 -39.2572 0.
-526.295 -1328.46 0.
-2012.46 -4997.92 0.
-43.7973 -119.238 0.
-2653.47 -6658.8 0.
-0.0247369 -2.53527 0.
-68.6604 -189.547 0.
-2712.64 -7428.62 0.
1.84863 5.06699 0.
3.03298 7.94362 0.
-2197.88 -5920.14 0.
4.54747 11.9041 0.
0.80464 2.18847 0.
-0.0445636 -20.5775 0.
2.13022 5.89611 0.
-0.0107331 -13.5713 0.
-0.000213463 -25.697 0.
-0.662213 -31.8262 0.
16.5545 44.5185 0.
-1536.8 -4184.66 0.
-47.5469 -126.133 0.
-302.181 -828.672 0.
27.4359 72.4822 0.
-682.31 -1805.49 0.
12.8744 33.9503 0.
16.4436 40.2142 0.
-36.0494 -91.9935 0.
-599.24 -1487.45 0.
2.6062 5.99048 0.
14.9154 39.8839 0.
5.31771 13.6013 0.
38.57 86.3491 0.
-221.086 -528.115 0.
28.2746 70.1045 0.
1.67452 4.25109 0.
-116.144 -302.226 0.
-36.6321 -96.3726 0.
6.02905 16.3044 0.
4.35538 11.8469 0.
-687.589 -1857.92 0.
0.409018 1.09664 0.
-49.8111 -136.254 0.
2.18534 5.86304 0.
-0.146922 -25.9439 0.
-763.477 -2107.94 0.
-0.00727005 -26.1614 0.
-2482.75 -6876.39 0.
-385.431 -1051.75 0.
-749.657 -2061.23 0.
-143.739 -396.713 0.
-107.854 -272.308 0.
-3.92258 -10.3913 0.
-0.00252946 -2.4229 0.
-406.513 -1087.61 0.
-0.684868 -0.388189 0.
-0.290704 -0.175088 0.
-21.8293 -14.0002 0.
0.973003 0.610443 0.
-324.729 -725.885 0.
-6.4349 -2.63891 0.
-0.44172 -0.246409 0.
-603.615 -1456.65 0.
-15.9244 -7.12517 0.
-0.542856 -0.0592047 0.
-546.781 -1366.85 0.
-169.869 -319.007 0.
-72.6938 -36.1544 0.
-609.842 -1402.79 0.
-496.762 -1135.78 0.
-482.45 -921.134 0.
-413.475 -784.187 0.
-360.972 -673.419 0.
-447.477 -824.556 0.
-452.63 -838.528 0.
-456.624 -848.828 0.
-492.759 -946.299 0.
-440.246 -920.827 0.
-422.188 -871.296 0.
-640.712 -1083.06 0.
-647.289 -1084.67 0.
-416.24 -958.017 0.
-448.058 -843.21 0.
-445.24 -840.895 0.
-451.805 -849.989 0.
-460.194 -870.176 0.
-472.444 -896.861 0.
-406.323 -820.089 0.
-413.856 -836.268 0.
-423.469 -848.96 0.
-277.418 -623.386 0.
-352.074 -823.048 0.
-443.347 -1014.98 0.
-429.613 -961.092 0.
-596.039 -1347.28 0.
-15.7181 -20.913 0.
-88.6147 -177.225 0.
-577.522 -1507.82 0.
-20.0372 -55.0129 0.
-27.7003 -52.3442 0.
-439.19 -1145.51 0.
-13.7991 -8.19586 0.
-30.1341 -32.0274 0.
-220.418 -564.787 0.
0.412338 1.09147 0.
-34.9279 -94.6924 0.
0.268111 0.720449 0.
-7.09705 -19.3511 0.
-238.206 -659.48 0.
-2.98946e-05 -1.73707 0.
-0.0807669 -10.0067 0.
-0.195972 -4.83033 0.
3.89974 10.5755 0.
-1703.96 -4719.41 0.
-0.755319 -2.09135 0.
-1833.93 -5076.55 0.
4.87929 13.4475 0.
4.67499 12.9342 0.
-0.91582 -35.2802 0.
4.8944 13.0448 0.
8.31005 21.5605 0.
-174.16 -455.989 0.
-354.044 -890.235 0.
-14.07 -36.8577 0.
-27.4006 -73.4978 0.
27.1349 71.585 0.
9.89203 24.189 0.
29.2801 69.3843 0.
-19.5299 -49.2807 0.
8.85302 20.7105 0.
11.8423 31.9202 0.
-22.8664 -59.7055 0.
-7.29284 -32.7418 0.
-8.40938 -62.2197 0.
2.05607 5.03187 0.
-165.96 -416.079 0.
-253.173 -658.065 0.
-16.0865 -38.971 0.
1.32515 3.57077 0.
12.7851 34.6615 0.
-251.026 -676.195 0.
5.45054 14.5488 0.
-225.591 -607.536 0.
-1.89287 -5.05644 0.
-88.3759 -235.575 0.
-235.687 -652.526 0.
-0.0685088 -9.5905 0.
-30.4439 -84.2572 0.
-190.196 -524.023 0.
-591.752 -1635.69 0.
-106.897 -291.17 0.
0.0579063 1.35485 0.
-0.00409471 -0.329178 0.
1.42855 7.09555 0.
-4.94651 -9.88251 0.
-0.123329 -0.141327 0.
-0.898964 -0.94475 0.
-22.1377 -14.5984 0.
0.0151269 0.00579673 0.
0.217368 0.103911 0.
-0.261198 -0.0698196 0.
0.0355345 0.0292188 0.
-91.681 -42.8665 0.
-11.3376 -6.26461 0.
-23.5994 -9.48115 0.
-165.945 -337.42 0.
-58.1273 -41.9035 0.
-52.9079 -29.8621 0.
-254.787 -421.885 0.
-197.248 -265.197 0.
-264.441 -370.802 0.
-158.5 -153.208 0.
-96.1923 -74.9766 0.
-219.627 -212.949 0.
-257.977 -343.835 0.
-154.689 -82.1219 0.
-120.474 -122.439 0.
-128.158 -131.623 0.
-202.083 -302.157 0.
-339.37 -343.07 0.
-325.853 -302.855 0.
-135.443 -79.2771 0.
-72.1628 -33.051 0.
-172.943 -227.637 0.
-83.5536 -75.2623 0.
-227.439 -218.425 0.
-122.359 -47.0985 0.
-42.1033 -18.1146 0.
-239.648 -326.731 0.
-182.856 -191.459 0.
-118.038 -155.06 0.
-199.303 -286.147 0.
-195.182 -276.41 0.
-77.647 -77.0819 0.
-275.866 -542.924 0.
-18.5566 -19.9341 0.
-30.4645 -29.4355 0.
-129.114 -246.589 0.
-21.9896 -56.9989 0.
-23.0147 -48.1873 0.
-29.9382 -64.686 0.
-4.28964 -6.19429 0.
-9.8745 -16.9191 0.
-46.1549 -97.1607 0.
0.574721 1.45567 0.
-5.49565 -14.4831 0.
0.648719 1.73047 0.
1.07891 2.92356 0.
-25.7718 -70.6143 0.
-0.0102227 -5.97808 0.
3.80891 10.5103 0.
-0.0277067 -0.586579 0.
4.74296 12.6916 0.
7.13268 19.6918 0.
3.51757 9.67664 0.
-57.245 -158.322 0.
12.5077 34.3051 0.
-713.498 -1970.92 0.
-4.19373 -11.018 0.
0.0518203 0.136786 0.
-0.941266 -2.40139 0.
-293.495 -757.323 0.
-436.995 -1094.89 0.
-12.7572 -31.5236 0.
15.0366 38.177 0.
-532.707 -1406.41 0.
-513.592 -1256.56 0.
6.41566 15.2081 0.
-6.11072 -14.941 0.
-2.90331 -32.2931 0.
-354.922 -964.065 0.
-1.7358 -18.0416 0.
-11.6558 -56.8178 0.
-6.92983 -58.4776 0.
-40.8863 -98.6345 0.
-593.717 -1467.82 0.
-17.7627 -42.5667 0.
11.6405 28.132 0.
-344.773 -925.696 0.
21.9885 59.4001 0.
-196.699 -527.649 0.
20.2283 52.3971 0.
-337.111 -880.677 0.
-134.655 -357.911 0.
7.18425 19.0217 0.
-106.101 -291.122 0.
3.64519 9.64878 0.
6.29482 17.3938 0.
-0.36157 -0.998762 0.
-2004.09 -5467.68 0.
-1.5526 -4.28283 0.
5.16726 14.2557 0.
-2980.41 -7791.45 0.
-0.34271 -8.79933 0.
-1951.86 -5125.29 0.
-0.295708 -0.766424 0.
0.0310433 0.0849688 0.
-2524.62 -6658.01 0.
-9.21028 -22.2784 0.
-1969.47 -4797.46 0.
-441.833 -1037.03 0.
-58.4574 -33.7618 0.
-1886.13 -4861.36 0.
-417.645 -992.079 0.
-37.7636 -32.3046 0.
-1200.23 -3147.32 0.
-489.103 -1256.34 0.
-14.1338 -5.10616 0.
-935.231 -2274.94 0.
-627.28 -1519.45 0.
-608.389 -1473.27 0.
-442.187 -1083.56 0.
-291.089 -696.666 0.
-445.654 -1003.87 0.
-366.163 -797.38 0.
-289.016 -593.41 0.
-335.169 -710.481 0.
-330.772 -698.601 0.
-329.094 -687.417 0.
-555.513 -831.794 0.
-607.317 -922.821 0.
-300.172 -684.203 0.
-400.826 -805.634 0.
-376.378 -729.268 0.
-354.814 -738.413 0.
-364.788 -773.085 0.
-377.745 -812.798 0.
-276.228 -651.126 0.
-382.673 -940.948 0.
-495.413 -1229.52 0.
-315.453 -760.852 0.
-521.808 -1292.76 0.
-742.381 -1813.47 0.
-602.314 -1478.21 0.
-1022.53 -2551.99 0.
-28.4237 -29.6236 0.
-498.679 -1263.65 0.
-1436.46 -3721.07 0.
-0.0237336 -0.00714611 0.
-179.954 -496.391 0.
-2114.86 -5598.22 0.
-28.0739 -71.5276 0.
-375.637 -961.295 0.
-2091.94 -5066.3 0.
0.0119435 0.543464 0.
-2579.32 -7038.95 0.
-0.00176238 -2.78209 0.
-180.214 -477.952 0.
-1749.37 -4191.79 0.
-0.021069 -11.2964 0.
-2510.17 -6838.58 0.
7.18865 19.3481 0.
-241.507 -659.534 0.
-0.0685685 -17.4828 0.
7.67566 20.8422 0.
-61.41 -168.674 0.
-0.267525 -40.4448 0.
-585.361 -1611.58 0.
5.70493 14.9105 0.
-301.94 -795.502 0.
-16.1282 -40.5162 0.
-758.361 -1924.69 0.
-342.656 -855.169 0.
-34.7926 -85.6012 0.
7.53535 19.0805 0.
0.823673 2.04894 0.
-70.47 -172.585 0.
-4.64992 -65.2907 0.
-9.84419 -24.3614 0.
13.6088 31.5503 0.
-158.396 -429.661 0.
15.5105 35.857 0.
5.1333 10.0616 0.
-192.266 -433.593 0.
-3.47012 -7.43253 0.
32.5368 73.0974 0.
-1.33348 -3.18817 0.
-257.87 -621.667 0.
-235.038 -571.999 0.
23.048 59.6735 0.
-198.502 -515.326 0.
-15.0666 -38.7636 0.
-103.872 -270.144 0.
-390.991 -1032.76 0.
-119.177 -313.621 0.
-138.851 -374.938 0.
-2.30441 -6.0673 0.
-943.213 -2609.31 0.
-0.106973 -0.291729 0.
-39.0552 -102.283 0.
-20.497 -55.8381 0.
-14.1881 -39.2966 0.
-45.6937 -118.592 0.
5.03595 13.6907 0.
1.65548 4.05376 0.
-0.0258237 -2.88586 0.
-0.00272325 -0.437702 0.
-22.2624 -56.187 0.
-0.361161 -0.849951 0.
-124.522 -217.282 0.
0.00576373 0.0937838 0.
0.115385 0.236766 0.
-347.038 -788.204 0.
-8.53231 -6.79662 0.
-27.7723 -25.0232 0.
-561.494 -1410.3 0.
-15.149 -5.7976 0.
0.898671 0.335949 0.
-572.447 -1411.5 0.
-273.559 -618.825 0.
-396.381 -1000.36 0.
-244.268 -599.326 0.
-123.43 -270.102 0.
-384.802 -838.725 0.
-311.077 -628.373 0.
-237.022 -418.76 0.
-293.785 -592.323 0.
-290.824 -577.859 0.
-299.883 -551.635 0.
-532.143 -817.078 0.
-578.138 -914.401 0.
-235.369 -475.208 0.
-389.864 -775.827 0.
-367.739 -699.903 0.
-298.054 -623.252 0.
-311.317 -657.252 0.
-326.57 -698.636 0.
-161.554 -366.401 0.
-266.58 -659.185 0.
-374.824 -951.634 0.
-116.532 -177.51 0.
-282.492 -630.932 0.
-488.175 -1168.43 0.
-173.848 -341.63 0.
-592.85 -1475.53 0.
-39.1904 -34.8179 0.
-38.1704 -14.3613 0.
-508.677 -1244.94 0.
0.560556 0.414637 0.
0.119689 0.137526 0.
-142.314 -392.165 0.
-3.21622 -8.25749 0.
-9.62006 -26.2301 0.
-91.0174 -242.757 0.
-0.0255785 -0.922557 0.
-15.9685 -43.3344 0.
2.27255 6.20386 0.
-0.0182795 -6.75937 0.
-0.132298 -5.77231 0.
1.20991 3.33121 0.
-138.018 -382.103 0.
-0.397485 -1.06872 0.
8.2534 22.4953 0.
-1496.47 -4103.22 0.
-1.17211 -3.1389 0.
-1186.58 -3208.65 0.
5.0834 13.7671 0.
-253.881 -696.049 0.
-6.78338 -17.6332 0.
-813.968 -2132.16 0.
-19.6685 -49.2509 0.
9.90234 24.7569 0.
-3.6158 -8.82443 0.
-165.673 -406.095 0.
-487.354 -1231.56 0.
19.2006 47.6293 0.
3.1567 7.27878 0.
-7.04421 -64.0206 0.
-269.452 -675.828 0.
-6.31094 -14.8538 0.
-168.949 -463.497 0.
5.16111 12.2422 0.
4.43051 8.32812 0.
7.03868 14.713 0.
-11.299 -24.1392 0.
24.268 54.4451 0.
-220.704 -519.771 0.
-238.542 -573.678 0.
3.31752 7.6632 0.
-12.9215 -33.1297 0.
-11.1012 -28.5147 0.
-225.382 -575.407 0.
-165.191 -426.742 0.
-553.039 -1449.08 0.
-33.7298 -86.2317 0.
-580.136 -1551.67 0.
1.69383 4.43926 0.
-346.775 -959.66 0.
3.54182 9.55323 0.
-140.048 -348.105 0.
-108.339 -284.305 0.
-78.9662 -216.838 0.
1.39637 3.77684 0.
5.71094 15.8123 0.
-1776.8 -4606.49 0.
-0.118263 -7.20127 0.
0.519078 1.43365 0.
-2374.62 -6564.89 0.
-38.8783 -91.4829 0.
-1827.5 -4277.34 0.
-306.413 -658.315 0.
-129.7 -262.114 0.
-2031.84 -5389.54 0.
-68.2424 -25.7894 0.
-9.4966 -3.42866 0.
-1435.05 -3669.48 0.
-398.202 -944.236 0.
-44.4633 -48.704 0.
-1025.11 -2587.53 0.
-538.851 -1332.52 0.
-702.784 -1743.44 0.
-445.107 -1120.81 0.
-204.273 -499.059 0.
-548.3 -1220.62 0.
-419.478 -909.638 0.
-299.623 -594.965 0.
-395.108 -828.093 0.
-357.81 -729.954 0.
-324.415 -640.002 0.
-557.992 -901.951 0.
-529.001 -836.699 0.
-295.041 -500.9 0.
-348.252 -625.031 0.
-368.138 -678.033 0.
-285.619 -592.29 0.
-352.594 -775.068 0.
-428.598 -971.864 0.
-215.278 -571.212 0.
-390.827 -1033.33 0.
-582.868 -1486.96 0.
-204.748 -454.324 0.
-498.583 -1201.82 0.
-813.091 -1935.14 0.
-505.776 -1218.26 0.
-1184.86 -2976.24 0.
-26.2235 -21.3142 0.
-286.163 -656.069 0.
-1659.74 -4241.31 0.
-3.81106 -5.12385 0.
-52.297 -140.068 0.
-2138.1 -5822.53 0.
-16.576 -45.9078 0.
-261.484 -586.021 0.
-2007.22 -4557.83 0.
0.0251906 0.069118 0.
-1850.32 -5094.5 0.
3.0571 8.46709 0.
-1069.09 -2899.38 0.
-0.0438474 -5.00078 0.
-0.196314 -12.2036 0.
4.767 13.09 0.
1.61102 4.32687 0.
6.08528 16.5667 0.
10.1195 26.4348 0.
-0.582297 -29.1131 0.
-447.511 -1194.35 0.
-0.506644 -29.5791 0.
-36.2009 -97.8736 0.
16.3339 42.224 0.
-585.773 -1528.46 0.
-124.845 -311.516 0.
-64.177 -159.881 0.
6.57796 16.0413 0.
-7.80294 -18.6013 0.
-373.311 -941.13 0.
-69.9357 -173.015 0.
3.3572 7.86843 0.
-10.28 -23.1062 0.
10.7015 25.5187 0.
16.9769 37.1932 0.
-1.09321 -2.42898 0.
-2.02739 -19.3847 0.
1.83508 3.53686 0.
-2.85765 -6.1461 0.
13.2803 28.2969 0.
-271.236 -607.677 0.
-102.285 -223.054 0.
32.728 74.1396 0.
-29.6724 -68.5247 0.
-298.04 -755.896 0.
-44.629 -113.345 0.
-286.352 -725.879 0.
-13.6356 -33.692 0.
-232.874 -588.822 0.
-30.416 -77.2815 0.
-818.623 -2180.55 0.
11.3207 29.527 0.
1.93627 5.32396 0.
12.4507 33.1955 0.
-800.505 -2202.47 0.
-475.962 -1310.11 0.
-235.85 -610.124 0.
-2300.28 -6359.75 0.
6.4379 17.6694 0.
0.456202 1.16393 0.
-0.0895364 -7.18187 0.
2.41898 6.68538 0.
-50.4282 -134.232 0.
-0.321102 -2.75335 0.
-107.982 -145.67 0.
-41.6806 -45.7 0.
-0.0424467 -0.00862761 0.
-416.77 -988.396 0.
-4.60571 -1.6637 0.
-5.12763 -1.90252 0.
-380.324 -966.634 0.
0.125677 6.53161e-05 0.
-17.1168 -37.632 0.
-495.061 -1246.59 0.
-70.3689 -83.0181 0.
-412.922 -1027.21 0.
-166.033 -372.924 0.
-71.3839 -103.282 0.
-379.709 -867.005 0.
-262.019 -549.955 0.
-172.221 -300.27 0.
-302.576 -690.069 0.
-269.936 -605.512 0.
-251.84 -546.529 0.
-500.665 -866.343 0.
-478.053 -805.412 0.
-319.947 -720.777 0.
-288.158 -635.375 0.
-299.039 -668.43 0.
-202.216 -427.492 0.
-266.74 -605.015 0.
-336.816 -795.24 0.
-76.9589 -176.388 0.
-197.567 -504.863 0.
-373.741 -969.251 0.
-27.8685 -15.7747 0.
-98.2658 -179.297 0.
-389.304 -935.061 0.
-7.50868 -3.17928 0.
-527.858 -1306.56 0.
-0.0796131 -0.0198526 0.
-4.15964 -10.709 0.
-256.357 -617.969 0.
-0.121855 -0.312554 0.
-11.821 -21.3222 0.
-330.14 -909.493 0.
-0.00297089 -0.33003 0.
0.00226766 0.832818 0.
-0.451726 -3.70139 0.
-0.121471 -3.48942 0.
-262.09 -710.224 0.
-0.00372294 -8.51261 0.
-0.0405647 -9.963 0.
-839.787 -2240.28 0.
-0.160384 -18.0025 0.
-1623.17 -4485.08 0.
-0.231789 -26.1328 0.
-776.354 -2127.38 0.
7.0856 18.1884 0.
5.79268 15.089 0.
-294.586 -776.202 0.
-4.48519 -11.8202 0.
-564.41 -1514.31 0.
-2.30512 -50.6101 0.
-14.7435 -36.709 0.
-17.6553 -43.9179 0.
-561.172 -1392.56 0.
-153.911 -375.112 0.
-7.23674 -17.2352 0.
-2.98799 -7.31592 0.
8.48215 20.1921 0.
-421.592 -1005.04 0.
2.29622 5.26233 0.
-29.27 -71.8619 0.
1.27208 2.87951 0.
11.5608 23.6953 0.
3.73328 8.39097 0.
-3.11978 -6.20291 0.
-498.665 -1111.66 0.
17.0196 36.2001 0.
19.6665 40.6248 0.
-151.85 -335.569 0.
-3.90684 -8.8496 0.
-349.07 -805.942 0.
-457.752 -1146.89 0.
-2.84286 -53.6536 0.
11.9251 29.1673 0.
-7.34992 -18.0223 0.
-905.173 -2268.56 0.
-26.0241 -65.6977 0.
-140.305 -369.648 0.
-48.274 -120.746 0.
-95.7167 -257.38 0.
-3.88523 -10.5501 0.
14.0281 38.4454 0.
-320.498 -872.395 0.
-94.684 -239.228 0.
-58.6708 -159.818 0.
7.10834 19.0877 0.
-0.148915 -5.19602 0.
-0.0279996 -2.86137 0.
-0.00810365 -11.1083 0.
0.672998 1.6896 0.
3.02064 6.34239 0.
-0.204721 -0.63042 0.
-60.3314 -55.3386 0.
-13.0368 -7.39834 0.
-7.95311 -2.88951 0.
-1.84559 -0.669526 0.
-0.988718 -0.377055 0.
0.528604 0.0211416 0.
0.339537 0.165418 0.
-10.6646 -27.6179 0.
-49.4735 -48.5137 0.
-5.23857 -8.82926 0.
-111.845 -162.759 0.
-78.8462 -65.0848 0.
-54.9446 -66.7438 0.
-182.872 -317.224 0.
-105.154 -100.165 0.
-47.0971 -72.5045 0.
-159.942 -239.722 0.
-180.903 -282.241 0.
-139.059 -184.115 0.
-266.569 -186.653 0.
-264.741 -206.744 0.
-106.244 -133.7 0.
-69.0075 -35.6503 0.
-205.221 -378.315 0.
-59.5093 -48.097 0.
-154.261 -330.335 0.
-157.966 -337.687 0.
-39.691 -84.9862 0.
-51.6304 -70.0431 0.
-137.862 -316.478 0.
-5.66324 -2.0507 0.
0.541351 0.200302 0.
-31.9251 -57.7136 0.
-31.74 -18.4483 0.
-41.1542 -17.8814 0.
0.115441 0.0484267 0.
-11.239 -7.97363 0.
-21.3187 -35.2723 0.
-0.0446104 -0.212302 0.
0.0164582 0.0692191 0.
-24.0665 -53.5758 0.
-0.0650814 -3.43782 0.
0.000460133 1.81455 0.
0.194331 1.10422 0.
0.267614 0.632838 0.
-104.309 -272.695 0.
-0.00217795 -2.03701 0.
1.44237 3.97754 0.
-0.264029 -8.15681 0.
8.63606 23.0579 0.
-0.0875792 -14.5633 0.
-0.542496 -1.4499 0.
-609.251 -1653.09 0.
-62.826 -162.723 0.
-248.457 -657.869 0.
-308.009 -811.807 0.
8.73192 22.7798 0.
-236.605 -629.762 0.
-35.8052 -88.7111 0.
-245.732 -606.443 0.
-13.6655 -31.912 0.
18.4714 42.3504 0.
-442.593 -1077.25 0.
-156.504 -372.486 0.
-77.657 -189.116 0.
-0.694992 -1.64421 0.
14.0255 32.145 0.
-0.83013 -1.81333 0.
-42.002 -106.467 0.
-1.0157 -2.38796 0.
23.1553 49.3444 0.
-0.676103 -1.49133 0.
8.40447 16.2435 0.
-6.09454 -12.7097 0.
6.19712 12.0822 0.
0.527406 1.10571 0.
-114.691 -257.387 0.
16.5394 37.4733 0.
-17.5036 -39.2523 0.
-6.15848 -14.9498 0.
6.65702 16.2093 0.
-365.855 -887.716 0.
-13.1594 -32.0104 0.
-111.321 -277.997 0.
-67.8454 -163.155 0.
-418.559 -1063.71 0.
-14.1919 -35.5719 0.
-420.639 -1117.62 0.
-3.06017 -8.22207 0.
-5.97549 -16.2363 0.
-169.826 -454.968 0.
-1.08601 -2.67378 0.
4.00571 10.7086 0.
-21.6216 -58.7228 0.
-1992.51 -5334.07 0.
2.87189 7.7087 0.
4.93303 13.4531 0.
-1954.7 -5404.03 0.
-0.0377976 -6.36364 0.
-0.0589527 -2.95889 0.
-2519.41 -6046.62 0.
0.610553 1.5531 0.
-1718.8 -4584.05 0.
-10.4189 -6.00995 0.
-0.528623 -0.270736 0.
-1752.81 -4641.93 0.
-54.9768 -69.8589 0.
-9.60268 -7.44626 0.
-1241.57 -3263.84 0.
-270.823 -710.786 0.
-838.026 -2111.99 0.
-434.889 -1076.93 0.
-138.14 -283.454 0.
-670.918 -1708.6 0.
-416.203 -1028.96 0.
-180.182 -367.524 0.
-455.256 -1128.85 0.
-328.813 -787.812 0.
-216.203 -479.999 0.
-483.692 -946.564 0.
-464.026 -887.6 0.
-254.464 -615.753 0.
-316.578 -787.823 0.
-371.021 -928.608 0.
-210.392 -492.006 0.
-373.861 -965.302 0.
-573.721 -1503.07 0.
-112.332 -263.58 0.
-449.621 -1180.91 0.
-800.019 -2084.69 0.
-114.775 -207.223 0.
-486.466 -1156.23 0.
-999.757 -2416.28 0.
-227.203 -493.969 0.
-1436.35 -3731.59 0.
-14.5951 -32.097 0.
-21.0155 -55.3092 0.
-1893.26 -5041.97 0.
-2.07831 -5.74736 0.
-48.5483 -130.847 0.
-1662 -4364.07 0.
-0.0214706 -4.00074 0.
-2504.42 -6302.35 0.
-0.334699 -0.905213 0.
-76.9101 -213.021 0.
-1520.08 -4184.96 0.
-0.00519446 -4.72239 0.
-1373.33 -3785.46 0.
-69.7927 -185.057 0.
-0.463429 -20.2145 0.
3.4269 9.25206 0.
-1.47631 -3.8795 0.
-437.154 -1171.12 0.
-28.9913 -74.0426 0.
-381.041 -996.763 0.
3.18491 8.31263 0.
-8.86835 -22.7299 0.
-2.12127 -49.8371 0.
-331.307 -811.793 0.
-754.556 -1843.25 0.
-345.879 -808.933 0.
-4.24613 -9.74218 0.
18.8952 42.1776 0.
20.0092 43.591 0.
-629.492 -1523.27 0.
-6.21995 -14.6205 0.
-5.90756 -13.6138 0.
-4.44722 -39.2445 0.
5.26389 10.9836 0.
14.3608 32.1977 0.
8.9904 18.9026 0.
-2.0319 -4.57732 0.
-1.35726 -2.6777 0.
4.26692 9.10258 0.
8.05475 15.953 0.
-465.001 -992.396 0.
16.4443 36.5453 0.
-10.1051 -21.741 0.
10.3538 23.3195 0.
-319.717 -766.982 0.
-204.565 -492.072 0.
-394.553 -949.501 0.
-10.6259 -24.2144 0.
-3.18092 -44.8265 0.
-96.541 -232.2 0.
-979.915 -2485.64 0.
1.49427 3.75407 0.
-123.19 -322.52 0.
-11.3286 -30.0267 0.
-0.717904 -28.4414 0.
-987.43 -2632.36 0.
-50.2515 -127.575 0.
-1141.56 -3083.46 0.
5.16814 13.8217 0.
-0.473042 -19.3746 0.
5.1391 14.1545 0.
-0.000181726 -16.667 0.
-264.961 -725.721 0.
1.23323 3.32717 0.
-0.11203 -4.1023 0.
-0.0513871 -0.913649 0.
-0.0112694 -3.03684 0.
-2.81739 -7.73478 0.
-0.0555562 -0.0868635 0.
0.394995 0.352681 0.
-109.95 -230.69 0.
-0.134402 -0.116569 0.
-14.5732 -10.16 0.
-416.778 -1121.83 0.
-0.942572 -0.801914 0.
-352.571 -882.223 0.
-41.3534 -57.7652 0.
-9.54658 -4.34711 0.
-401.005 -977.166 0.
-169.877 -331.292 0.
-19.3767 -7.6272 0.
-347.169 -874.097 0.
-252.404 -595.381 0.
-162.337 -316.047 0.
-434.015 -875.422 0.
-417.436 -819.538 0.
-172.342 -393.575 0.
-277.588 -682.063 0.
-309.704 -774.902 0.
-107.175 -186.142 0.
-248.256 -588.609 0.
-415.367 -1065.54 0.
-37.6099 -26.4071 0.
-95.596 -182.987 0.
-421.559 -1069.69 0.
-33.2749 -50.9278 0.
-37.2933 -59.7772 0.
-368.779 -822.368 0.
-31.4768 -59.281 0.
-364.93 -874.318 0.
-4.80151 -11.2666 0.
-10.2288 -26.9316 0.
-34.8019 -96.2397 0.
0.274433 0.759908 0.
0.0464181 0.125489 0.
-0.0843363 -0.214493 0.
-0.00019375 -0.66264 0.
0.0702172 0.191972 0.
-0.0813751 -8.95139 0.
1.67435 4.63103 0.
-0.0112037 -5.47859 0.
-0.0731576 -16.294 0.
-549.636 -1519.72 0.
3.10806 8.23691 0.
-8.08265 -21.6089 0.
-1048.02 -2811.68 0.
-0.933271 -2.41684 0.
-477.429 -1245.6 0.
-22.9977 -57.902 0.
-799.925 -2065.24 0.
8.6674 22.3923 0.
6.36316 16.124 0.
-424.538 -1057.71 0.
8.02875 18.4248 0.
-7.43279 -16.9823 0.
-486.585 -1138.91 0.
-457.248 -1050.99 0.
-497.962 -1109.89 0.
9.79474 21.2753 0.
-6.72561 -14.8943 0.
-6.64887 -15.5231 0.
-400.825 -929.91 0.
18.8457 41.578 0.
-7.79463 -55.4637 0.
3.30044 7.52105 0.
-4.24066 -32.6838 0.
-52.5737 -121.093 0.
10.0514 20.2996 0.
-269.658 -590.654 0.
15.0684 28.1488 0.
-6.4589 -12.8353 0.
31.6675 65.1848 0.
20.6526 44.6165 0.
-363.577 -824.201 0.
-426.649 -1010.81 0.
6.52555 14.5454 0.
9.52218 21.3524 0.
-2.40852 -5.43914 0.
-661.414 -1574.63 0.
-157.775 -379.672 0.
-76.8033 -195.182 0.
-11.1687 -28.116 0.
0.530189 1.35656 0.
-24.5372 -64.1751 0.
1.28232 3.27384 0.
-601.325 -1599.03 0.
4.45457 11.4549 0.
-95.2462 -254.678 0.
-0.034266 -0.0899465 0.
-0.497797 -14.0737 0.
-0.00153535 -13.6534 0.
4.85361 13.3182 0.
-12.2065 -33.2924 0.
-497.85 -1347.62 0.
-28.7667 -77.8784 0.
-1713.88 -4687.72 0.
-0.0516678 -2.88111 0.
-1834.81 -4608.25 0.
-48.5669 -92.1545 0.
-0.0744955 -0.648753 0.
-1727.61 -4502.45 0.
-20.904 -32.0166 0.
0.00442937 0.214701 0.
-1368.2 -3657.44 0.
-52.6413 -91.7217 0.
-961.546 -2373.05 0.
-424.45 -1044.5 0.
-68.6664 -133.051 0.
-802.399 -2072.18 0.
-400.252 -1003.16 0.
-57.09 -52.5151 0.
-551.355 -1402.85 0.
-338.105 -830.09 0.
-145.382 -273.405 0.
-471.852 -1026.43 0.
-436.013 -934.365 0.
-129.049 -273.869 0.
-346.025 -875.861 0.
-448.903 -1144.65 0.
-113.914 -230.147 0.
-373.274 -952.128 0.
-667.993 -1738.58 0.
-26.3153 -11.1422 0.
-410.795 -1037.9 0.
-958.034 -2471.53 0.
-23.7253 -30.8407 0.
-426.499 -933.171 0.
-1057.18 -2443.09 0.
-29.5454 -31.5087 0.
-1395.43 -3749.53 0.
0.382016 1.00681 0.
-0.081952 -0.179344 0.
-1744.73 -4685.67 0.
1.00555 2.37162 0.
-54.7142 -128.964 0.
-1663.02 -4193.81 0.
-0.00166619 -6.72913 0.
-1430.06 -3929.79 0.
-386.524 -1070.59 0.
-0.0034324 -4.39799 0.
-0.0122199 -9.49861 0.
-0.409473 -17.0019 0.
-118.035 -319.115 0.
-0.469238 -24.3816 0.
4.75508 12.7009 0.
-384.039 -1032.83 0.
1.89596 4.87617 0.
-511.544 -1324.59 0.
1.98829 4.84782 0.
-83.5328 -205.875 0.
-146.351 -373.859 0.
-226.577 -567.382 0.
-660.737 -1625.64 0.
-166.669 -381.789 0.
12.3684 28.2267 0.
16.0731 35.6428 0.
-9.16984 -20.0737 0.
-443.303 -985.542 0.
0.574653 1.24449 0.
-86.2753 -191.007 0.
8.11561 17.5801 0.
-6.7872 -14.9269 0.
-0.943898 -1.95116 0.
10.0426 21.1319 0.
-205 -475.637 0.
-3.65264 -30.3441 0.
-42.2352 -101.651 0.
-4.43534 -26.3357 0.
12.9429 26.8931 0.
-3.23751 -6.13614 0.
-46.2825 -93.4399 0.
-4.74877 -9.80871 0.
11.995 26.0367 0.
15.5296 32.8515 0.
2.99239 6.55902 0.
18.8169 41.5458 0.
-135.273 -300.668 0.
-403.013 -903.816 0.
-294.609 -700.726 0.
-205.523 -494.898 0.
19.2518 47.576 0.
9.6154 23.9844 0.
-58.4706 -147.181 0.
-377.104 -969.286 0.
-1.87781 -39.3342 0.
-240.527 -640.1 0.
-0.748778 -27.6702 0.
-136.21 -358.555 0.
-7.41774 -19.228 0.
1.98859 5.00306 0.
-2122.01 -5871.15 0.
6.31478 17.2263 0.
-926.717 -2527.65 0.
-16.3262 -44.597 0.
0.544633 1.45142 0.
-52.0521 -143.375 0.
2.17411 6.02024 0.
0.459352 0.872741 0.
-0.00535403 -0.0473524 0.
-0.024402 -1.13556 0.
0.0982751 0.455149 0.
0.311601 0.722255 0.
0.191709 0.589155 0.
-339.225 -913.185 0.
-13.1669 -19.3517 0.
-289.701 -693.112 0.
-23.6562 -25.2177 0.
-17.9752 -16.7693 0.
-333.022 -913.309 0.
-17.2409 -31.2581 0.
-5.32723 -11.032 0.
-340.048 -819.816 0.
-135.056 -240.096 0.
-30.9964 -43.1417 0.
-318.035 -737.237 0.
-282.126 -639.859 0.
-50.0878 -47.5168 0.
-174.267 -386.796 0.
-272.117 -661.294 0.
-32.957 -28.8709 0.
-88.5463 -183.03 0.
-371.97 -972.309 0.
-9.30843 -4.96719 0.
-15.8836 -13.4411 0.
-378.473 -985.054 0.
-31.5782 -35.2311 0.
-30.9442 -36.9313 0.
-248.432 -392.288 0.
-59.291 -55.4667 0.
-283.918 -540.186 0.
0.774765 2.10744 0.
-0.0333462 -0.579224 0.
0.465712 0.995998 0.
-0.10088 -2.91516 0.
0.322181 0.79692 0.
-43.5508 -106.323 0.
-0.0357122 -5.44216 0.
-0.271244 -0.750997 0.
-0.976112 -2.6971 0.
-36.9175 -102.185 0.
-1286.49 -3535.51 0.
6.5532 17.0283 0.
-1432.64 -3814.9 0.
6.91739 18.4259 0.
2.91508 7.77906 0.
6.05452 16.2824 0.
6.19024 15.8093 0.
-269.056 -692.883 0.
8.78091 21.2669 0.
-357.569 -875.983 0.
1.77694 4.3038 0.
-0.371109 -0.895916 0.
-67.2345 -154.555 0.
-158.814 -363.442 0.
-331.578 -755.12 0.
-602.882 -1339.51 0.
-13.0682 -28.6967 0.
13.4081 28.1882 0.
23.4682 50.6634 0.
-732.756 -1624.53 0.
-37.4448 -81.0719 0.
-52.2552 -116.438 0.
-5.2013 -36.6306 0.
-8.51097 -46.1756 0.
14.1857 30.9076 0.
14.4479 30.0496 0.
4.27286 10.6489 0.
-1.94146 -3.90435 0.
-157.084 -327.903 0.
17.9031 34.5022 0.
-300.605 -618.057 0.
23.1793 45.0372 0.
-7.55818 -47.3446 0.
-21.0803 -44.7665 0.
22.2663 48.3324 0.
-476.703 -1041.03 0.
-169.953 -374.254 0.
-35.2988 -78.2103 0.
-3.94155 -43.052 0.
-7.30212 -16.959 0.
-228.26 -552.45 0.
-1.14784 -2.81456 0.
-69.6634 -172.359 0.
-719.294 -1815.09 0.
12.4718 30.0182 0.
-169.799 -448.794 0.
-2.3934 -6.21906 0.
-826.07 -2173.49 0.
0.362151 0.937215 0.
7.83215 19.6966 0.
-61.4185 -165.654 0.
-0.227207 -14.96 0.
-19.6785 -54.0435 0.
-1.31204 -3.54192 0.
-0.32885 -0.861452 0.
0.928204 2.55886 0.
-0.113997 -7.66354 0.
1.2329 2.71219 0.
0.0698327 1.40905 0.
-0.0147465 -3.03284 0.
-0.0385565 -0.445877 0.
0.00749088 0.4373 0.
0.178489 0.614816 0.
-18.7424 -25.0945 0.
-16.6074 -20.8323 0.
-35.5729 -38.688 0.
-28.0715 -26.8326 0.
-21.2138 -17.8147 0.
-2.09506 -5.19116 0.
-2.54381 -6.50703 0.
-3.23824 -8.22805 0.
-144.589 -255.583 0.
-31.3395 -34.1914 0.
-18.4939 -35.7293 0.
-125.14 -218.999 0.
-119.971 -208.086 0.
-77.5567 -54.7866 0.
-87.0321 -82.4196 0.
-140.505 -229.374 0.
-25.6612 -21.802 0.
-19.5254 -11.8773 0.
-90.1162 -203.529 0.
-15.0932 -7.85262 0.
-12.382 -11.4745 0.
-33.9848 -36.7172 0.
-53.7977 -44.8399 0.
-53.1809 -47.3664 0.
-54.2614 -51.9819 0.
-137.006 -89.7587 0.
-65.6256 -56.008 0.
0.0029991 0.775055 0.
-0.0810951 -2.54775 0.
1.10856 2.58691 0.
-0.0250884 -1.92555 0.
1.15544 3.01732 0.
-0.0859969 -2.25052 0.
-0.0320475 -1.32356 0.
3.49958 9.53892 0.
1.51078 4.17048 0.
0.290017 0.803205 0.
-25.207 -69.3952 0.
2.74839 6.93418 0.
-173.477 -451.655 0.
-0.45997 -24.527 0.
-27.4213 -72.9178 0.
-972.575 -2548.32 0.
-1.53558 -3.80265 0.
-334.892 -855.29 0.
-1.49393 -3.59376 0.
-770.674 -1882.73 0.
-50.1066 -119.881 0.
-6.8071 -16.2381 0.
0.0843488 0.191669 0.
3.23868 7.29626 0.
-23.1288 -52.6466 0.
-549.85 -1225.52 0.
-5.25326 -47.3166 0.
-368.289 -770.14 0.
-12.1751 -24.6895 0.
12.2742 25.3542 0.
13.7093 27.6512 0.
-135.799 -307.321 0.
-432.778 -919.189 0.
0.523631 1.0346 0.
11.7181 25.668 0.
-2.98795 -6.23534 0.
6.3877 12.4056 0.
-2.0111 -4.06169 0.
-19.1829 -40.2578 0.
13.2048 24.6586 0.
-13.667 -26.671 0.
8.3864 16.3319 0.
15.4627 31.5205 0.
-235.233 -502.325 0.
-354.546 -761.134 0.
-26.2925 -56.8683 0.
16.8935 34.8854 0.
16.7613 35.3351 0.
-289.432 -660.866 0.
-412.23 -956.512 0.
-298.856 -709.819 0.
-222.005 -532.605 0.
7.84869 17.8625 0.
-179.684 -427.058 0.
7.829 18.7585 0.
-563.464 -1470.41 0.
-0.884588 -2.2635 0.
-543.447 -1427.78 0.
0.312245 0.806742 0.
-0.785367 -18.3084 0.
-0.963786 -2.54649 0.
-0.32909 -12.142 0.
-1154.8 -3196.36 0.
-19.7797 -54.7295 0.
1.45066 3.98207 0.
-1661.88 -4603.04 0.
2.36229 6.51098 0.
-1571.25 -3757.54 0.
-20.5464 -46.9547 0.
0.0910632 0.224835 0.
-1620.51 -4287.71 0.
-0.190511 -0.462436 0.
-0.0544256 -1.82734 0.
-1562.31 -4283.68 0.
-7.01275 -9.28291 0.
-1027.58 -2416.89 0.
-369.589 -860.107 0.
-85.8263 -173.939 0.
-973.506 -2617.46 0.
-267.128 -729.903 0.
0.0964854 0.000177625 0.
-684.992 -1843.35 0.
-327.46 -844.106 0.
-39.7285 -47.5135 0.
-494.247 -1308.74 0.
-411.413 -1083.69 0.
-145.318 -278.631 0.
-361.679 -885.359 0.
-578.98 -1488.1 0.
-7.00496 -5.65252 0.
-342.039 -916.375 0.
-825.786 -2213.46 0.
-31.186 -35.7562 0.
-255.819 -666.037 0.
-1115.81 -2966.76 0.
-69.1165 -72.2804 0.
-360.87 -774.064 0.
-995.315 -2392.67 0.
-35.9068 -89.0509 0.
-1537.3 -3851.56 0.
0.679529 1.81755 0.
-28.8174 -75.2024 0.
-1575.6 -4314.86 0.
-16.7242 -43.7173 0.
-57.1508 -138.478 0.
-1396.13 -3151.74 0.
-0.599825 -1.64933 0.
-1463.1 -4024.45 0.
3.58778 9.92973 0.
-296.046 -819.422 0.
-0.184313 -0.508513 0.
1.00866 2.46909 0.
-186.977 -474.32 0.
0.537396 1.41766 0.
-144.949 -383.701 0.
6.01299 14.3592 0.
9.32908 22.5656 0.
-675.205 -1642.92 0.
-10.0137 -23.0107 0.
6.19217 14.117 0.
-24.8235 -58.6135 0.
-614.272 -1451.77 0.
-337.714 -763.359 0.
-158.446 -355.219 0.
13.2414 29.4553 0.
0.00644493 0.0138035 0.
17.9319 39.6516 0.
-628.48 -1306.93 0.
-3.37658 -6.8043 0.
-124.725 -255.741 0.
-1.99779 -3.99753 0.
-3.54607 -6.93008 0.
-2.57147 -5.1535 0.
19.458 36.9716 0.
5.57438 12.2875 0.
-3.47603 -24.7399 0.
7.8992 14.588 0.
7.63234 14.8306 0.
-42.7712 -87.2128 0.
11.8776 22.3506 0.
-71.1053 -139.985 0.
-1.7574 -3.43233 0.
-5.88315 -12.0448 0.
-6.74385 -36.7136 0.
-7.36936 -41.2877 0.
4.81429 9.6803 0.
-4.93706 -10.198 0.
-750.695 -1584.88 0.
-164.785 -376.773 0.
-26.8126 -62.4218 0.
-8.63673 -19.3158 0.
15.6398 35.3464 0.
-5.43285 -12.4017 0.
-770.803 -1823.96 0.
-8.71121 -20.7745 0.
-276.015 -710.327 0.
-1.73535 -4.36997 0.
-661.077 -1720.23 0.
-56.062 -145.597 0.
1.08866 2.81931 0.
-1072.35 -2922.63 0.
-0.196846 -16.2205 0.
-96.2594 -266.595 0.
3.18135 8.78929 0.
-1.01817 -2.7868 0.
-24.3252 -66.8045 0.
-0.138864 -9.30107 0.
-0.257849 -2.43236 0.
1.28579 3.06546 0.
0.828017 2.10974 0.
0.226869 0.572874 0.
-0.0322583 -1.56578 0.
-0.00517962 -1.43487 0.
-5.3625 -11.6366 0.
0.0146115 0.134796 0.
-108.225 -210.732 0.
-0.220812 -0.0429878 0.
-11.0175 -8.31664 0.
-224.958 -611.742 0.
-0.157855 -0.00220672 0.
-0.0698966 -0.000420495 0.
-282.747 -726.312 0.
-5.44522 -2.29052 0.
-19.5562 -12.0305 0.
-230.274 -610.365 0.
-165.937 -437.296 0.
-6.67291 -2.54344 0.
-76.1682 -136.942 0.
-263.006 -655.109 0.
-5.77738 -4.68219 0.
-5.84904 -4.79632 0.
-254.747 -667.607 0.
-25.4067 -30.3094 0.
-27.4721 -37.3879 0.
-216.352 -521.679 0.
-179.843 -182.384 0.
-111.013 -112.496 0.
-134.215 -121.365 0.
0.317872 0.860439 0.
-32.5269 -86.2754 0.
0.947183 2.62025 0.
-6.36203 -17.3788 0.
-163.806 -439.458 0.
1.73621 4.64494 0.
-0.735923 -1.85521 0.
-0.144172 -9.82941 0.
-0.0980546 -8.57909 0.
-27.4259 -74.351 0.
0.0608909 0.167633 0.
-81.509 -225.635 0.
-1138.8 -3151.92 0.
-6.79592 -16.7301 0.
-754.6 -1866.89 0.
4.50737 11.7708 0.
-351.539 -925.992 0.
11.7313 27.2376 0.
-12.8357 -30.26 0.
-391.222 -933.829 0.
-27.645 -63.2624 0.
-279.518 -635.767 0.
-13.3499 -29.389 0.
10.3185 22.677 0.
-272.983 -614.287 0.
-366.677 -817.202 0.
-11.7273 -25.972 0.
-527.9 -1121.3 0.
13.1592 27.1056 0.
-1.10122 -2.11639 0.
6.39015 12.1221 0.
-453.771 -924.046 0.
8.25467 16.3795 0.
11.1076 21.5175 0.
-5.2696 -33.1368 0.
6.49024 12.4923 0.
-1.18373 -2.52752 0.
1.39258 2.8602 0.
-3.86214 -7.3019 0.
1.98865 3.95823 0.
-140.936 -294.384 0.
13.6027 25.8128 0.
-100.43 -199.632 0.
20.032 35.4405 0.
23.8963 44.6415 0.
-7.1408 -14.0871 0.
-5.24597 -10.2731 0.
-501.815 -999.866 0.
2.88155 5.95464 0.
-33.596 -70.9065 0.
11.4372 24.8128 0.
-2.84064 -6.2449 0.
3.74797 8.40999 0.
-180.494 -409.328 0.
-403.195 -925.356 0.
-393.91 -924.882 0.
-20.7755 -49.2964 0.
10.4073 25.2269 0.
3.25393 7.85914 0.
-167.035 -402.879 0.
-140.828 -359.035 0.
-0.933576 -24.315 0.
-563.538 -1517.72 0.
-0.248908 -13.712 0.
-0.000749975 -11.9391 0.
0.716061 1.97474 0.
0.727249 1.98469 0.
-0.142394 -10.4935 0.
-0.246404 -7.33873 0.
-1180.1 -2987.03 0.
-0.835969 -2.12967 0.
-0.810776 -2.16186 0.
-1326.19 -3667.51 0.
0.405291 1.09987 0.
0.661835 1.79571 0.
-1368.17 -3656.77 0.
-0.072076 -1.16182 0.
-939.381 -2160.19 0.
-289.613 -655.727 0.
-110.547 -227.805 0.
-1018.94 -2772.78 0.
-166.71 -448.446 0.
-6.56205 -18.052 0.
-809.957 -2139.83 0.
-324.972 -852.837 0.
-16.2155 -8.35665 0.
-584.743 -1577.43 0.
-462.971 -1255.47 0.
-70.8273 -159.218 0.
-347.177 -922.065 0.
-688.348 -1845.93 0.
-8.64197 -10.3926 0.
-278.752 -740.941 0.
-927.587 -2476.42 0.
-36.7407 -63.8719 0.
-77.0292 -142.084 0.
-1018.8 -2763.87 0.
-237.792 -475.878 0.
-962.792 -1914.12 0.
-277.485 -766.198 0.
-5.99198 -16.35 0.
-961.242 -2606.27 0.
-113.014 -305.93 0.
-42.0099 -111.88 0.
-932.359 -2569.27 0.
0.830834 2.25039 0.
-1262.45 -3405.96 0.
-0.194161 -6.06582 0.
3.253 8.50841 0.
-79.6214 -210.846 0.
0.355266 0.969324 0.
5.79225 15.9705 0.
-0.593726 -1.40586 0.
-18.4998 -44.6843 0.
-245.106 -600.675 0.
4.89813 12.6893 0.
-400.217 -1043.41 0.
-14.141 -32.8796 0.
-6.19872 -14.4043 0.
-184.924 -431.383 0.
-42.6532 -97.1853 0.
-579.592 -1314.24 0.
-333.32 -735.231 0.
-27.7426 -61.0735 0.
-42.4704 -90.2962 0.
-6.4446 -44.8669 0.
-23.5987 -52.0281 0.
-457.297 -966.205 0.
18.5214 37.8908 0.
-479.713 -918.162 0.
10.0298 18.9482 0.
-10.4943 -20.4477 0.
-10.3641 -19.3086 0.
21.6765 41.5931 0.
-387.13 -799.656 0.
-2.90715 -5.6759 0.
-142.425 -312.646 0.
0.648479 1.36939 0.
3.66401 7.10547 0.
-0.554148 -1.07392 0.
-4.58937 -9.25151 0.
-7.97753 -30.5549 0.
12.7868 22.8075 0.
-4.38573 -7.79399 0.
-361.573 -680.39 0.
21.7616 41.5014 0.
21.1267 41.0588 0.
14.0996 26.5204 0.
-3.15139 -6.15372 0.
-1.21256 -2.40244 0.
-4.04507 -8.68765 0.
-530.723 -1155.71 0.
-296.369 -667.437 0.
-131.428 -299.142 0.
8.64725 18.9473 0.
1.65082 3.68604 0.
13.5724 30.5244 0.
-720.338 -1740.68 0.
7.83992 18.7755 0.
9.40707 22.4421 0.
-271.77 -679.04 0.
4.92302 12.2176 0.
6.38261 17.0011 0.
-1.59856 -4.19552 0.
-1143.19 -3165.15 0.
-83.3664 -229.981 0.
0.17256 0.47407 0.
-1440.2 -3891.13 0.
4.45579 11.5769 0.
2.43846 5.99565 0.
-0.876224 -2.29038 0.
-0.0585987 -6.00104 0.
-157.884 -437.311 0.
-0.0492662 -0.13644 0.
-0.00370273 -3.0189 0.
-0.0789996 -1.39519 0.
0.724685 1.93079 0.
-26.8412 -45.8781 0.
-1.17434 -1.75819 0.
0.360499 0.509626 0.
-209.664 -563.812 0.
-0.0418941 -0.172574 0.
-0.0167388 -0.0428669 0.
-108.853 -272.082 0.
-4.3926 -9.06944 0.
0.0717962 0.0672115 0.
-87.4372 -181.573 0.
-7.52709 -3.52134 0.
0.0371043 0.0484407 0.
-0.0487746 -0.111728 0.
-91.0621 -241.948 0.
-4.95044 -7.84656 0.
-9.26768 -15.9985 0.
-116.116 -299.508 0.
-19.8401 -34.0125 0.
-18.0119 -29.8368 0.
-152.738 -369.487 0.
-0.0281359 -0.0774277 0.
-245.095 -662.968 0.
0.654793 1.75987 0.
-0.269366 -0.746068 0.
-24.6361 -66.7465 0.
-0.0446028 -4.49235 0.
-0.071239 -4.7725 0.
-10.5653 -27.8809 0.
-0.00344468 -8.18864 0.
-155.696 -429.354 0.
2.47133 6.37675 0.
-36.7622 -98.0129 0.
-1084.63 -2947.5 0.
5.83296 15.9777 0.
-816.833 -2245.74 0.
-393.199 -939.842 0.
-23.3331 -55.2818 0.
-105.301 -254.097 0.
-8.13353 -20.8975 0.
-597.109 -1545.32 0.
-13.7573 -32.0059 0.
-11.7067 -27.2179 0.
-361.687 -841.336 0.
8.89267 19.9564 0.
5.31409 11.7276 0.
-196.319 -433.393 0.
-278.201 -613.506 0.
-454.01 -959.175 0.
-161.248 -333.92 0.
18.7728 38.131 0.
20.203 39.5371 0.
-2.54586 -4.86854 0.
-282.411 -538.332 0.
13.5169 25.4269 0.
-143.207 -280.777 0.
-109.379 -204.749 0.
0.879677 1.57175 0.
-0.669576 -1.29803 0.
-2.53496 -4.76105 0.
6.55059 14.262 0.
3.6349 7.90094 0.
1.09952 2.05249 0.
-5.71274 -11.115 0.
-7.74015 -15.6878 0.
10.753 18.7986 0.
-19.5318 -34.6301 0.
-9.0894 -36.4986 0.
-49.2945 -93.404 0.
5.69909 10.0899 0.
4.96497 9.03687 0.
23.1831 43.4139 0.
-8.91313 -17.2512 0.
-648.012 -1275.5 0.
-302.74 -643.312 0.
-42.2045 -90.8921 0.
5.87236 12.2863 0.
17.6336 38.0438 0.
-4.19306 -9.08419 0.
-481.938 -1072.03 0.
-278.184 -624.028 0.
-341.437 -815.226 0.
5.47417 12.9968 0.
10.6574 25.6204 0.
-376.725 -943.977 0.
-6.44252 -16.0781 0.
-404.798 -1067.49 0.
2.03041 5.23882 0.
-0.667767 -14.7167 0.
4.06436 11.194 0.
5.44987 14.9473 0.
-0.0274877 -0.0723883 0.
-0.444691 -11.0195 0.
4.82965 11.501 0.
0.19448 0.517478 0.
-0.0498899 -8.6663 0.
-42.9881 -117.752 0.
0.105507 0.285266 0.
-0.0801296 -3.53567 0.
-0.00736461 -0.301497 0.
0.99199 2.72698 0.
0.010258 2.11755 0.
0.170421 0.305818 0.
-0.0918931 -0.367331 0.
0.0203941 0.0553757 0.
-0.0480461 -0.279577 0.
-0.0048604 -0.101883 0.
-3.59878 -8.20452 0.
-0.000139784 -0.000324987 0.
0.0841086 0.0954516 0.
-24.1912 -11.5798 0.
-15.8937 -6.81891 0.
0.017999 0.0227227 0.
-0.0414588 -0.0777667 0.
-1.47599 -3.35734 0.
-2.92256 -6.15158 0.
-5.60486 -11.8305 0.
-10.5351 -23.1575 0.
-13.5326 -29.68 0.
-11.8302 -25.873 0.
-9.92702 -21.4813 0.
-0.00803144 -0.589152 0.
-1.99815 -5.50331 0.
1.88783 4.96899 0.
-0.0106273 -4.7162 0.
0.246113 0.679493 0.
-0.0479822 -5.27163 0.
2.19005 5.8729 0.
-0.112274 -5.84307 0.
2.23348 6.14847 0.
0.517786 1.4323 0.
2.9121 7.62025 0.
-0.162268 -13.0002 0.
-1.82673 -5.01096 0.
-0.216499 -15.6228 0.
-264.812 -717.959 0.
-63.9843 -153.561 0.
-33.618 -81.2345 0.
-15.7917 -38.4223 0.
3.90151 9.94363 0.
-6.72893 -17.0525 0.
-158.514 -368.232 0.
-365.37 -848.042 0.
-359.639 -836.002 0.
-57.3842 -128.714 0.
-185.946 -410.446 0.
15.8857 33.6726 0.
14.7454 31.1017 0.
-357.406 -751.553 0.
-150.404 -309.704 0.
20.352 41.0789 0.
-495.113 -964.957 0.
-1.99088 -3.79469 0.
-8.82985 -35.2075 0.
9.5938 16.6613 0.
-151.255 -298.514 0.
-332.51 -625.973 0.
14.7942 26.524 0.
-126.034 -242.127 0.
-5.34989 -24.338 0.
-5.42012 -11.9636 0.
2.42788 5.20778 0.
3.03465 5.68164 0.
-30.7707 -60.1361 0.
17.7218 30.3529 0.
14.0044 24.3301 0.
18.7977 32.3181 0.
-6.0928 -10.5295 0.
9.91203 17.6742 0.
-9.88117 -17.3964 0.
-7.13429 -12.9194 0.
-553.797 -1031.9 0.
-56.5636 -108.484 0.
-1.7065 -3.09958 0.
-6.81067 -13.5139 0.
-105.897 -215.63 0.
-7.45054 -15.5692 0.
-111.111 -237.132 0.
-596.439 -1281.41 0.
-220.411 -491.169 0.
16.589 36.514 0.
11.5427 26.9412 0.
8.3538 19.7551 0.
-1.96284 -29.5821 0.
-487.338 -1216.54 0.
0.928121 2.30513 0.
-614.408 -1593.17 0.
4.64475 11.7776 0.
10.029 24.5934 0.
-0.7664 -2.10792 0.
6.19482 16.9616 0.
-549.076 -1440 0.
-22.0204 -57.3617 0.
-4.90212 -12.6911 0.
-1434.6 -3874.41 0.
-0.114097 -7.24177 0.
-736.123 -1980.67 0.
-150.547 -412.05 0.
-22.7883 -63.0834 0.
-1133.95 -3068.13 0.
-0.0197233 -2.52226 0.
-0.00045551 -3.78868 0.
-1392.65 -3390.34 0.
-0.0128858 -0.101952 0.
-899.455 -2406.18 0.
-79.106 -202.272 0.
-1.94736 -4.09307 0.
-881.981 -2347.18 0.
-199.33 -535.954 0.
-4.70025 -12.8368 0.
-607.708 -1621.81 0.
-489.592 -1323.02 0.
-2.5532 -4.83044 0.
-304.705 -836.419 0.
-769.381 -2091.29 0.
-0.0127385 -0.130925 0.
-153.415 -373.362 0.
-979.219 -2567.31 0.
-0.138189 -0.318967 0.
-98.7589 -191.765 0.
-1102.51 -2661.53 0.
0.574764 1.54406 0.
-1107.25 -3019.4 0.
-0.00103325 -0.818219 0.
1.15181 3.18781 0.
-910.819 -2515.21 0.
-113.456 -302.74 0.
-70.7767 -185.771 0.
-772.187 -2040.41 0.
-0.084807 -0.234014 0.
-1038.46 -2872.92 0.
1.07831 2.93561 0.
-226.613 -622.755 0.
-0.507645 -1.39662 0.
-0.419631 -1.09179 0.
0.370228 0.983601 0.
-28.9905 -69.7916 0.
-8.23972 -19.9684 0.
-454.945 -1109.02 0.
1.67259 4.21405 0.
-291.459 -730.723 0.
-2.29228 -5.12257 0.
13.3064 29.5608 0.
9.26354 20.4622 0.
-257.327 -576.801 0.
-596.736 -1316.59 0.
-428.677 -896.44 0.
17.9463 37.2763 0.
4.19065 8.32726 0.
3.35745 6.50587 0.
0.120514 0.227869 0.
-412.823 -802.501 0.
-58.701 -111.496 0.
-392.902 -694.964 0.
3.81757 6.57582 0.
-9.82107 -16.4919 0.
-8.90946 -15.4224 0.
0.963685 1.62083 0.
-116.387 -221.358 0.
-45.4472 -83.5131 0.
-9.13193 -19.7269 0.
-73.4436 -159.799 0.
-4.59152 -18.8725 0.
1.18977 2.21129 0.
-3.35463 -5.4758 0.
-8.41796 -28.0136 0.
3.17515 5.4636 0.
-0.347426 -0.595447 0.
-285.262 -505.029 0.
-12.2463 -21.4328 0.
-76.484 -137.76 0.
-9.66657 -34.0834 0.
-2.7897 -4.93766 0.
-185.483 -336.115 0.
7.09434 14.0475 0.
-646.662 -1314.92 0.
-153.219 -319.901 0.
3.14707 6.63141 0.
8.73187 18.0879 0.
2.97113 6.43242 0.
3.96886 8.56687 0.
-401.826 -934.971 0.
-125.712 -296.137 0.
-0.765492 -1.82754 0.
-386.267 -960.812 0.
9.21313 22.7693 0.
-157.904 -399.747 0.
7.29218 18.3665 0.
6.72087 16.8282 0.
-1108.26 -3061.49 0.
0.0266575 0.0728492 0.
-107.128 -281.156 0.
-0.981943 -2.56248 0.
1.37569 3.56828 0.
-20.7182 -56.7922 0.
0.383903 1.05802 0.
-1.08552 -2.91606 0.
-0.715138 -1.96231 0.
0.776668 2.15076 0.
-3.89274 -10.7506 0.
-0.00270645 -3.36663 0.
0.0414707 2.57679 0.
0.0218879 0.187783 0.
0.0173695 0.302454 0.
-12.3349 -29.7454 0.
0.305034 0.677366 0.
0.0363423 0.37212 0.
-1.67637 -3.72434 0.
0.000245983 0.00700577 0.
0.051079 0.138339 0.
-12.4643 -18.2293 0.
-6.26827 -6.09353 0.
-5.00446 -8.7302 0.
-4.27344 -9.19355 0.
-3.81796 -9.75173 0.
-0.000714652 -0.207706 0.
0.0997932 0.270213 0.
-0.00107052 -0.00277282 0.
0.341806 0.817008 0.
-0.244767 -1.24868 0.
-0.345996 -0.954523 0.
-0.00570359 -1.31214 0.
-32.3203 -89.4672 0.
2.53904 6.87444 0.
1.11163 3.06642 0.
-72.0466 -199.551 0.
-9.35795 -24.8117 0.
-1.63526 -4.27778 0.
1.30566 3.36548 0.
-0.057741 -8.51559 0.
1.73931 4.7976 0.
6.39072 17.2956 0.
2.57693 7.054 0.
-726.358 -2003.08 0.
3.75233 9.72595 0.
-609.036 -1594.56 0.
-2.74971 -6.54877 0.
8.66711 20.5042 0.
-227.127 -555.645 0.
-83.833 -208.575 0.
-686.395 -1696.67 0.
-8.3755 -18.5636 0.
-7.84894 -17.2931 0.
-2.43651 -5.33864 0.
-1.13073 -2.41638 0.
-11.2383 -23.9673 0.
-78.1913 -160.569 0.
-203.638 -416.487 0.
-397.721 -783.696 0.
-323.251 -621.389 0.
-9.48879 -17.8174 0.
4.90917 8.87484 0.
-7.63336 -13.5674 0.
-173.889 -304.972 0.
3.05541 5.21753 0.
-0.396433 -0.659679 0.
-238.171 -411.322 0.
8.52401 14.2904 0.
2.77086 4.93403 0.
3.80621 6.59229 0.
-5.39399 -18.2134 0.
4.6488 9.94438 0.
0.912311 1.6573 0.
-0.975862 -1.8319 0.
17.7029 28.886 0.
18.2553 30.5965 0.
-164.543 -283.634 0.
-113.544 -192.877 0.
3.20585 5.18461 0.
-2.90509 -4.61856 0.
17.4366 28.6229 0.
-119.477 -202.888 0.
3.92148 6.91531 0.
-530.602 -959.6 0.
-106.695 -210.788 0.
-5.13507 -9.91427 0.
3.45158 6.81522 0.
-6.6181 -13.3485 0.
-70.8251 -145.98 0.
-144.231 -306.133 0.
-540.552 -1143.21 0.
-399.705 -924.271 0.
-108.18 -253.714 0.
-2.41579 -26.3322 0.
3.09967 7.38958 0.
-1.60242 -24.1562 0.
-438.291 -1098.63 0.
-1.23599 -3.08071 0.
2.37893 5.89124 0.
-407.594 -1120.31 0.
-1.11782 -3.03504 0.
-2.46364 -6.47664 0.
2.09694 5.4812 0.
-1.77549 -4.61351 0.
-2.81206 -7.78868 0.
1.84905 5.11253 0.
-0.0669039 -6.51876 0.
-495.845 -1333.38 0.
-0.0296196 -6.41671 0.
-744.955 -2061.78 0.
-0.00432202 -4.06241 0.
-0.0271139 -2.47561 0.
-963.599 -2626.83 0.
0.684771 1.76539 0.
-921.675 -2093.55 0.
-62.0537 -146.498 0.
-38.8197 -96.6044 0.
-843.102 -2259.15 0.
-135.337 -368.485 0.
-16.908 -45.364 0.
-556.583 -1535.84 0.
-449.337 -1239.59 0.
-15.4298 -40.1334 0.
-245.453 -640.031 0.
-776.62 -2081.75 0.
0.001977 0.0573748 0.
-63.3629 -144.489 0.
-945.144 -2425.96 0.
0.40303 0.873673 0.
-0.0870471 -0.183318 0.
-869.865 -2175.12 0.
-0.24761 -0.68532 0.
-821.968 -2273.83 0.
-0.0144651 -3.0265 0.
2.67755 7.26418 0.
-725.952 -1961.42 0.
-172.967 -471.476 0.
-0.911504 -2.38849 0.
-0.960315 -2.48116 0.
-0.188057 -13.1294 0.
-0.0568798 -9.4475 0.
1.65876 4.46116 0.
-1.23813 -3.37272 0.
5.46064 15.0073 0.
6.07275 15.5395 0.
-409.857 -1060.94 0.
-3.89425 -9.24571 0.
1.29783 3.06072 0.
-226.806 -531.636 0.
2.60207 6.19983 0.
5.79174 13.8391 0.
-87.4927 -192.138 0.
-353.793 -770.531 0.
-462.893 -1001.96 0.
-242.879 -514.739 0.
-14.7168 -31.1669 0.
-0.247592 -0.489913 0.
-6.17457 -11.8985 0.
9.55636 17.5782 0.
-96.7539 -184.923 0.
-4.12736 -7.69322 0.
-561.361 -998.893 0.
8.60988 15.0785 0.
-12.9963 -21.4609 0.
-0.875672 -1.40825 0.
21.4551 33.6241 0.
-264.324 -455.382 0.
-32.3472 -54.0416 0.
-168.446 -301.055 0.
-4.28439 -7.44387 0.
13.8122 23.3247 0.
-2.0654 -4.41484 0.
6.37931 11.7038 0.
9.72596 18.4524 0.
6.11877 9.97933 0.
0.534291 0.877331 0.
-8.12219 -13.779 0.
13.5725 21.6131 0.
-99.514 -156.834 0.
11.0758 17.437 0.
-459.054 -747.989 0.
-257.81 -434.578 0.
-93.6685 -164.576 0.
-13.611 -23.5213 0.
7.40002 13.9096 0.
-207.676 -397.861 0.
10.7445 21.0814 0.
-12.6481 -25.3586 0.
-586.184 -1199.11 0.
-105.291 -219.079 0.
5.76667 11.6959 0.
-15.8628 -36.2398 0.
10.3471 23.5357 0.
2.2025 4.98691 0.
-419.941 -997.029 0.
-46.535 -111.047 0.
-273.781 -679.987 0.
-4.7104 -11.6147 0.
-0.538344 -1.3181 0.
-1.39432 -3.80615 0.
-2.53494 -6.94348 0.
-677.424 -1838.45 0.
-58.4277 -158.767 0.
-18.1745 -49.2508 0.
-899.079 -2490.28 0.
-0.0153573 -9.85941 0.
-468.041 -1260.86 0.
1.29883 3.56042 0.
1.09744 3.0369 0.
0.336946 0.931217 0.
0.798613 2.20601 0.
-0.0351992 -3.71404 0.
-6.35376 -17.0825 0.
0.436373 1.1904 0.
-0.278948 -0.664589 0.
0.198996 0.48998 0.
-0.0435167 -1.2615 0.
-9.85075 -23.4238 0.
-4.05283 -10.3348 0.
-3.08819 -8.33957 0.
-8.76269 -20.2364 0.
-3.49696 -6.86156 0.
-4.54056 -12.3803 0.
-6.60269 -16.4499 0.
-11.4518 -25.2013 0.
-0.000163485 -0.191487 0.
0.444752 1.17196 0.
0.523944 1.30112 0.
-0.0979962 -1.16049 0.
0.067476 0.151283 0.
-8.87818 -19.4166 0.
0.290696 0.797196 0.
0.91712 2.53899 0.
1.01314 2.70953 0.
-0.395857 -1.04631 0.
-46.0872 -120.642 0.
-0.241312 -0.665212 0.
3.04442 8.13951 0.
-661.091 -1682.02 0.
4.98298 13.5456 0.
-954.104 -2603.32 0.
0.78685 2.14678 0.
6.85479 18.711 0.
-270.978 -739.341 0.
-0.775289 -18.9508 0.
-177.764 -454.142 0.
-52.2075 -123.532 0.
-91.9722 -216.14 0.
-399.064 -931.17 0.
7.8016 18.4706 0.
-219.234 -520.914 0.
6.7345 14.2401 0.
6.96459 14.6002 0.
4.94578 10.2878 0.
-198.801 -418.31 0.
-368.584 -773.501 0.
-612.713 -1211.51 0.
-9.00541 -17.266 0.
3.04199 5.58635 0.
-8.42241 -33.0298 0.
16.4296 28.1317 0.
-195.498 -342.633 0.
-74.1199 -127.768 0.
-390.739 -644.929 0.
-306.857 -492.652 0.
-5.09682 -7.96697 0.
3.72079 6.03966 0.
8.33987 13.3689 0.
-18.1356 -31.5874 0.
8.21393 14.3174 0.
14.9172 25.2562 0.
-116.749 -248.975 0.
-3.59586 -6.34767 0.
-53.1573 -97.2354 0.
-4.31064 -6.8358 0.
-27.1063 -44.4384 0.
-22.2729 -34.9277 0.
-27.593 -42.8215 0.
-134.745 -206.762 0.
17.6696 27.5261 0.
4.72051 7.40356 0.
7.52284 12.1817 0.
17.0596 28.6961 0.
-278.04 -475.862 0.
14.5999 27.2111 0.
-581.652 -1107.05 0.
-187.951 -366.272 0.
1.22534 2.30704 0.
11.8427 22.6304 0.
-3.18881 -6.26941 0.
-284.029 -573.373 0.
-97.2614 -220.375 0.
-276.271 -622.011 0.
-329.555 -738.332 0.
-310.821 -733.926 0.
-45.9352 -109.121 0.
-28.177 -69.7749 0.
-29.1928 -72.2242 0.
-58.5735 -144.805 0.
-244.431 -667.208 0.
7.00851 19.0468 0.
0.144138 0.394143 0.
0.254056 0.692887 0.
-2.6317 -7.15763 0.
3.16604 8.71395 0.
0.140869 0.38166 0.
-1.06956 -2.93288 0.
-0.00565894 -8.74745 0.
-0.000642275 -1.46779 0.
-0.000723703 -1.27664 0.
2.57925 7.12411 0.
-2.78176e-05 -0.00333443 0.
-0.00537089 -3.06781 0.
0.807944 2.23784 0.
-0.0534375 -1.36723 0.
0.482509 1.26014 0.
-0.00309422 -0.2653 0.
0.253933 0.620076 0.
-0.0208388 -0.751669 0.
-0.00459361 -0.582877 0.
-0.0514381 -0.613597 0.
0.111218 0.228284 0.
0.0728042 0.19997 0.
0.123852 0.318778 0.
0.00877079 0.100583 0.
0.82019 2.25471 0.
0.665681 1.83221 0.
-0.024717 -1.47332 0.
-0.0921696 -1.5827 0.
-0.0919405 -1.24807 0.
-0.893636 -2.05189 0.
-0.0114786 -1.23167 0.
0.288437 0.797522 0.
-0.136395 -4.19171 0.
-3.17347 -8.06993 0.
-124.237 -314.434 0.
1.64605 4.55377 0.
-0.103876 -12.1155 0.
3.59493 9.31364 0.
2.90376 7.74772 0.
-17.8519 -48.5237 0.
-1.15061 -3.1255 0.
1.03749 2.82008 0.
-336.76 -915.037 0.
5.95047 15.0138 0.
-124.869 -317.988 0.
-24.861 -58.5982 0.
-5.23799 -12.2545 0.
-125.353 -291.446 0.
-73.0175 -171.825 0.
-358.368 -846.671 0.
-367.877 -765.18 0.
-92.5346 -190.862 0.
-0.191581 -0.391525 0.
0.76971 1.54105 0.
14.1645 27.7795 0.
4.53208 8.2642 0.
-94.4217 -180.177 0.
-277.945 -509.527 0.
-522.748 -923.355 0.
-7.72356 -27.0584 0.
15.6618 24.9683 0.
-0.796261 -1.26347 0.
0.0383711 0.0595324 0.
-27.2312 -43.615 0.
-9.08073 -14.1577 0.
-111.879 -179.206 0.
11.745 18.5781 0.
-49.013 -85.5958 0.
-21.8957 -37.3594 0.
-8.32099 -13.8714 0.
-3.59887 -7.49288 0.
3.31787 5.96528 0.
-99.9631 -186.415 0.
6.48577 10.255 0.
-146.921 -240.624 0.
-151.95 -232.378 0.
6.37676 9.16978 0.
0.633225 0.91954 0.
-12.5263 -18.904 0.
-148.304 -231.104 0.
2.12235 3.47556 0.
-79.7847 -132.88 0.
-366.084 -620.014 0.
-42.8604 -79.1948 0.
3.64228 6.42622 0.
-8.75668 -16.056 0.
-2.02458 -3.76571 0.
-371.361 -701.27 0.
0.925683 1.80855 0.
-519.903 -1043.98 0.
-253.588 -569.307 0.
0.566084 1.24399 0.
-4.90407 -10.8723 0.
-1.62681 -3.83798 0.
-8.27119 -19.6205 0.
-260.156 -644.849 0.
-40.9581 -101.342 0.
-176.575 -436.577 0.
-423.437 -1144.77 0.
4.75885 12.8095 0.
-2.05291 -5.62878 0.
1.70889 4.67453 0.
-2.9483 -8.04443 0.
-374.596 -1020.28 0.
6.0478 16.3012 0.
-631.364 -1707.85 0.
-12.0715 -33.1395 0.
0.46295 1.28046 0.
-791.189 -2172.26 0.
-0.222774 -0.611222 0.
2.67464 7.3552 0.
-716.745 -1930.03 0.
-0.0342269 -5.20045 0.
-797.326 -1908.87 0.
-25.7364 -63.7525 0.
-11.8731 -30.925 0.
-761.753 -2017.61 0.
-75.3963 -200.493 0.
0.205711 0.562919 0.
-487.44 -1347.57 0.
-395.708 -1088.94 0.
-15.1189 -41.8737 0.
-163.571 -442.761 0.
-637.944 -1730.49 0.
-0.0256697 -1.05092 0.
0.393795 1.00834 0.
-760.331 -2013.28 0.
1.10483 2.85784 0.
-22.9711 -58.9129 0.
-705.399 -1809.61 0.
0.357643 0.982071 0.
-497.996 -1373.75 0.
-0.607435 -1.64609 0.
-0.349234 -0.961554 0.
-526.212 -1455.96 0.
-0.104804 -13.1322 0.
-591.808 -1597.83 0.
-111.004 -291.143 0.
-71.6807 -190.372 0.
-2.69276 -7.20675 0.
-3.04761 -8.23781 0.
3.79114 10.2567 0.
-117.898 -308.316 0.
2.89147 7.29942 0.
-481.852 -1229.96 0.
-63.3582 -148.961 0.
-145.222 -338.757 0.
-65.1717 -150.873 0.
5.02863 11.6411 0.
1.12378 2.59574 0.
6.60811 13.5111 0.
-201.137 -408.132 0.
-270.476 -552.437 0.
-487.452 -973.485 0.
4.27916 8.39917 0.
6.8044 12.2387 0.
-5.59326 -9.91281 0.
-2.1868 -3.78071 0.
-7.28456 -28.1118 0.
-7.4304 -25.7582 0.
-505.102 -790.704 0.
2.35574 3.6822 0.
11.2567 17.2674 0.
-1.78255 -2.66207 0.
12.9103 18.7945 0.
-1.98748 -2.92485 0.
-26.1753 -40.8357 0.
-125.591 -193.667 0.
-249.755 -426.965 0.
9.14804 15.2819 0.
-6.86703 -14.4078 0.
-1.26682 -2.21875 0.
-1.14997 -2.05694 0.
-3.45024 -5.13359 0.
18.0369 27.2992 0.
-11.5539 -16.2138 0.
-10.7066 -15.1658 0.
-136.88 -195.827 0.
13.7989 20.6474 0.
-537.361 -832.64 0.
-78.9347 -127.904 0.
-8.2404 -12.5152 0.
6.26073 9.66829 0.
18.0766 30.5747 0.
-184.452 -321.418 0.
-6.03589 -10.9272 0.
-10.5174 -19.3132 0.
-446.972 -834.46 0.
-1.01401 -1.96806 0.
5.03678 9.73017 0.
-1.03408 -2.22633 0.
10.267 22.285 0.
-35.6526 -78.0446 0.
-285.022 -668.198 0.
-423.508 -998.663 0.
-171.651 -425.172 0.
-156.418 -387.005 0.
-60.66 -149.943 0.
-74.2133 -198.338 0.
5.32238 14.1872 0.
-383.997 -1053.35 0.
-234.897 -641.888 0.
-209.982 -570.823 0.
-86.0347 -230.726 0.
1.14208 3.02989 0.
2.3976 6.27797 0.
1.85746 5.11527 0.
-0.00212509 -10.3981 0.
-12.0608 -33.3303 0.
1.22208 3.38153 0.
-0.000283943 -4.589 0.
-0.026073 -3.16434 0.
1.95874 5.4246 0.
-13.5457 -33.2974 0.
0.592147 1.52175 0.
-0.0223379 -1.47117 0.
-0.0576797 -0.151454 0.
0.00781257 0.0211883 0.
0.195262 0.539956 0.
0.240324 0.655627 0.
-1.09365 -2.9012 0.
0.194519 0.53875 0.
0.713841 1.91276 0.
-0.0747289 -1.47352 0.
0.201836 0.530774 0.
0.142176 0.366493 0.
0.226364 0.570725 0.
0.429606 1.17784 0.
-0.00016005 -0.000434445 0.
-50.9296 -136.549 0.
2.16799 5.89948 0.
0.584458 1.61235 0.
1.19859 3.27523 0.
0.624541 1.72561 0.
1.25736 3.48083 0.
1.55344 4.30166 0.
-80.6428 -223.036 0.
7.19014 18.7433 0.
-11.7565 -31.0362 0.
-215.445 -574.531 0.
-64.6592 -174.956 0.
-201.441 -548.478 0.
-5.11949 -13.2096 0.
0.352942 0.899612 0.
2.78925 7.10472 0.
-166.213 -389.897 0.
-246.945 -574.732 0.
-190.32 -438.447 0.
-243.26 -559.08 0.
-2.05557 -22.7969 0.
-6.00313 -11.9844 0.
-6.29139 -12.4304 0.
2.89203 5.83858 0.
4.43658 8.90483 0.
-41.3213 -81.1671 0.
-632.74 -1123.95 0.
-4.65563 -8.13303 0.
-18.2014 -31.0118 0.
-0.723346 -1.19844 0.
-8.52036 -25.5665 0.
6.52933 9.67065 0.
-42.0241 -64.65 0.
5.30093 8.12799 0.
-578.275 -852.24 0.
-8.17516 -11.7474 0.
0.441641 0.63802 0.
12.9945 18.731 0.
7.40613 10.6478 0.
13.2072 21.2697 0.
-6.60632 -18.7539 0.
-1.9895 -3.98918 0.
-1.64619 -2.87083 0.
3.80468 6.77879 0.
-9.64532 -22.8376 0.
-216.789 -325.03 0.
5.17208 7.14536 0.
-114.471 -159.65 0.
-136.544 -192.187 0.
14.0956 19.8525 0.
-12.2593 -17.454 0.
-11.9529 -17.6027 0.
-7.3154 -10.9414 0.
-578.913 -877.482 0.
10.9007 18.1811 0.
-348.418 -598.548 0.
-3.06027 -5.46576 0.
1.35542 2.28981 0.
14.522 25.2562 0.
11.3288 21.3758 0.
-267.749 -525.02 0.
-196.79 -417.672 0.
-374.566 -800.996 0.
-203.267 -438.867 0.
-71.8454 -167.377 0.
10.0308 22.9108 0.
-4.03971 -9.70247 0.
2.47885 5.99641 0.
-2.92005 -7.1135 0.
-229.292 -607.965 0.
5.49064 14.5192 0.
4.58008 12.0674 0.
-38.352 -104.773 0.
-26.056 -70.8025 0.
-21.2607 -56.1217 0.
1.79882 4.6862 0.
-0.421679 -12.4106 0.
-0.892621 -2.46375 0.
-0.00026855 -9.43658 0.
-6.9783 -19.3268 0.
3.14174 8.6935 0.
-99.7873 -274.15 0.
-446.488 -1236.52 0.
-0.0111796 -3.83074 0.
-531.507 -1299.1 0.
-41.6229 -109.158 0.
-10.1593 -27.4713 0.
-564.615 -1534.16 0.
-17.3106 -46.969 0.
-16.1102 -44.1646 0.
-396.648 -1091.78 0.
-259.007 -716.482 0.
-44.6447 -123.64 0.
-128.722 -353.512 0.
-439.758 -1197.12 0.
0.00924277 0.0253441 0.
-0.312789 -0.858805 0.
-576.455 -1596.64 0.
0.126224 0.342669 0.
1.04874 2.88574 0.
-442.634 -1221.48 0.
0.753602 1.99935 0.
-462.786 -1274.75 0.
-0.0178236 -5.40794 0.
-0.00178218 -6.44537 0.
2.18627 6.04501 0.
-0.0540431 -13.0712 0.
4.31907 11.9196 0.
2.88362 7.46609 0.
0.128626 0.337451 0.
-163.243 -432.998 0.
-2.51703 -6.79865 0.
-205.801 -559.47 0.
-62.6521 -162.141 0.
-1.34888 -3.44776 0.
0.221471 0.558532 0.
-64.4873 -147.259 0.
-27.0385 -61.7358 0.
7.91492 17.8619 0.
-14.4632 -32.8544 0.
-117.359 -266.291 0.
-488.285 -969.6 0.
-154.988 -304.54 0.
5.2186 10.5409 0.
-5.46767 -10.6962 0.
-2.96395 -5.61575 0.
-6.38586 -20.6894 0.
-37.86 -65.1386 0.
1.86824 3.1697 0.
-657.256 -1070.87 0.
5.58153 8.85816 0.
-83.4235 -122.288 0.
21.0121 30.262 0.
22.484 31.8377 0.
-12.4341 -24.7645 0.
17.9726 25.466 0.
-186.224 -263.999 0.
-74.9327 -106.029 0.
8.47334 11.9635 0.
-41.835 -67.049 0.
-2.90858 -4.57398 0.
-1.03963 -2.1773 0.
-12.8445 -22.2973 0.
9.91649 14.1701 0.
-96.2355 -140.005 0.
-58.3073 -86.2976 0.
-12.3317 -15.9497 0.
3.33197 4.38573 0.
-43.2017 -57.9041 0.
-11.7171 -16.2801 0.
-296.389 -416.503 0.
-8.8275 -12.7908 0.
5.38159 7.91844 0.
-152.289 -227.632 0.
4.70614 7.26449 0.
-2.31889 -3.61122 0.
9.45951 15.2486 0.
-7.06796 -22.7995 0.
-487.891 -832.903 0.
-4.45014 -22.3253 0.
-277.155 -551.758 0.
-145.083 -303.864 0.
-2.91594 -6.03443 0.
-7.64387 -16.0997 0.
1.12218 2.55865 0.
-146.448 -334.132 0.
-175.936 -402.212 0.
-171.569 -412.875 0.
-175.252 -424.84 0.
-141.379 -372.191 0.
-3.57666 -9.37716 0.
-1.53423 -4.00556 0.
-45.2591 -123.539 0.
2.36842 6.48344 0.
-399.904 -1062.27 0.
4.3504 11.5133 0.
-2.17503 -5.71902 0.
-567.641 -1567.48 0.
-0.413277 -1.14347 0.
-370.782 -1022.99 0.
-1.0282 -2.84752 0.
2.99006 8.21374 0.
-1.20847 -3.31178 0.
-0.108617 -7.81152 0.
1.19611 3.12795 0.
1.19564 3.2082 0.
1.42195 3.89307 0.
-3.55563 -9.67006 0.
-4.82866 -13.2493 0.
-10.0882 -27.8563 0.
0.463184 1.2734 0.
0.808537 2.23914 0.
-0.219834 -0.608666 0.
0.631186 1.72877 0.
-0.0332883 -2.12249 0.
-0.0427836 -0.1175 0.
0.174705 0.480339 0.
-1.09313 -3.00926 0.
-0.043419 -4.00912 0.
1.32733 3.63737 0.
0.083503 0.97185 0.
0.569235 1.4405 0.
-52.3182 -139.765 0.
-37.5664 -103.881 0.
-66.6296 -183.948 0.
-480.962 -1306.71 0.
3.51434 9.7161 0.
-461.269 -1276.76 0.
-0.278228 -15.4639 0.
-0.279843 -0.742243 0.
-265.028 -701.522 0.
6.39678 17.2487 0.
-173.378 -470.617 0.
-149.283 -387.673 0.
-62.2744 -159.66 0.
-200.594 -507.139 0.
-160.579 -365.293 0.
-104.776 -238.418 0.
-27.5979 -62.1349 0.
7.6579 17.1314 0.
-0.794038 -1.76575 0.
-3.04636 -5.92015 0.
-82.1345 -160.595 0.
-276.523 -557.499 0.
-241.107 -470.435 0.
7.86425 14.8812 0.
-237.918 -389.036 0.
-7.17921 -21.1572 0.
10.5712 16.6077 0.
-7.21505 -10.8267 0.
-42.5563 -66.3191 0.
-451.537 -654.577 0.
-25.4636 -36.2668 0.
17.041 23.8637 0.
-16.5449 -22.3354 0.
-3.47596 -4.62792 0.
-8.55172 -11.3772 0.
15.4798 20.4448 0.
-41.4053 -57.3764 0.
-93.8205 -149.623 0.
-1.80274 -2.82088 0.
-3.1181 -4.78471 0.
-3.54092 -5.77067 0.
-0.864663 -1.16108 0.
-9.44065 -12.7624 0.
9.84835 13.3932 0.
19.6231 25.1275 0.
-352.554 -459.603 0.
-45.183 -59.9667 0.
-7.92137 -10.8492 0.
-74.3166 -102.866 0.
-8.95894 -16.4498 0.
2.63039 3.59268 0.
15.8186 22.3727 0.
16.2812 24.5216 0.
-453.571 -686.536 0.
-4.30581 -6.79337 0.
2.91134 4.72225 0.
-15.265 -25.5057 0.
10.2316 18.6076 0.
13.2738 25.4216 0.
-4.51965 -9.104 0.
7.63134 15.844 0.
-356.724 -751.84 0.
4.87063 11.1104 0.
-75.9363 -173.444 0.
-160.988 -368.274 0.
-196.394 -470.66 0.
-14.5767 -35.2196 0.
-12.5904 -32.8679 0.
-3.12879 -8.17232 0.
-113.704 -297.363 0.
-158.28 -432.889 0.
5.14384 14.0387 0.
-18.1763 -48.327 0.
2.10851 5.57327 0.
0.56005 1.47082 0.
2.67668 7.41354 0.
1.30368 3.60888 0.
1.53045 4.22751 0.
-0.707607 -1.95918 0.
4.50975 12.3847 0.
3.70236 9.92739 0.
2.91203 7.5398 0.
-0.0439329 -2.61118 0.
1.30795 3.55387 0.
-0.00841486 -3.99065 0.
-4.35507 -11.9564 0.
-7.73517 -21.3567 0.
-14.5166 -40.1944 0.
0.996763 2.7232 0.
0.389273 1.07745 0.
1.24423 3.44337 0.
0.207935 0.569292 0.
0.262344 0.701947 0.
0.408445 1.12328 0.
0.404321 1.1131 0.
-1.69056 -4.66022 0.
1.26377 3.39285 0.
-0.0273011 -4.32518 0.
-1.32581 -11.6907 0.
-0.510522 -8.19949 0.
3.25895 8.38936 0.
-0.00416627 -9.38163 0.
-1.46115 -4.03385 0.
4.15358 11.2577 0.
-0.860925 -2.36561 0.
-33.8045 -93.2746 0.
6.84695 18.0446 0.
2.01441 5.30366 0.
-34.151 -89.8232 0.
1.91166 5.09857 0.
-49.4574 -131.736 0.
-13.7404 -34.5802 0.
-12.9377 -32.5398 0.
-18.9478 -47.6286 0.
-99.8516 -226.556 0.
-141.901 -321.849 0.
-270.181 -606.941 0.
-53.8926 -120.263 0.
3.07415 6.81706 0.
-220.389 -431.149 0.
-2.74761 -5.26612 0.
12.0329 23.5471 0.
12.0022 22.7501 0.
-4.94802 -9.34759 0.
-313.006 -503.678 0.
0.970572 1.53245 0.
15.097 23.3638 0.
-133.3 -195.576 0.
-9.71542 -13.9478 0.
-4.88447 -6.55396 0.
-8.32198 -10.9114 0.
-9.55555 -13.2242 0.
-347.631 -462.653 0.
-114.926 -150.855 0.
-10.7869 -14.1295 0.
-93.4274 -121.583 0.
13.8669 17.9127 0.
-1.70469 -2.47299 0.
-4.14541 -5.90837 0.
-4.73317 -6.62737 0.
-23.7222 -37.5885 0.
13.1541 17.2879 0.
14.5258 19.2056 0.
-68.437 -90.9797 0.
-38.777 -49.1353 0.
-114.566 -147.779 0.
-9.00349 -10.967 0.
-9.98218 -12.1853 0.
-1.89597 -2.31938 0.
-6.64888 -8.7186 0.
-31.858 -43.2267 0.
-374.117 -525.173 0.
-89.7425 -131.558 0.
-67.0333 -98.9871 0.
3.22576 4.69465 0.
-0.722557 -1.07647 0.
5.54025 8.45767 0.
0.988269 1.80725 0.
-418.427 -810.35 0.
-174.332 -355.062 0.
-146.196 -304.312 0.
-71.0371 -150.582 0.
-0.889459 -2.01152 0.
1.14213 2.61031 0.
-8.50413 -19.6362 0.
-31.7392 -76.3309 0.
-70.9689 -171.168 0.
-86.5311 -224.919 0.
-67.1119 -174.541 0.
-35.6329 -92.7232 0.
-234.109 -638.053 0.
1.98829 5.40868 0.
-0.0623314 -0.165551 0.
6.20168 16.3736 0.
-3.68729 -9.67189 0.
1.66933 4.61546 0.
5.57512 15.3571 0.
-246.26 -680.42 0.
-1.23927 -3.42284 0.
1.16049 3.20319 0.
-357.924 -990.618 0.
-0.0299594 -8.28561 0.
-0.0972396 -7.83719 0.
-580.902 -1474.16 0.
-0.0247826 -4.17527 0.
-268.142 -690.087 0.
-38.6605 -104.789 0.
-70.928 -194.895 0.
-249.239 -680.998 0.
-151.854 -417.74 0.
-91.5057 -253.02 0.
-102.796 -284.713 0.
-237.428 -656.52 0.
-73.4549 -203.077 0.
-8.91653 -24.5067 0.
-143.874 -382.517 0.
-0.000306409 -5.75926 0.
-413.233 -1117.27 0.
-0.284389 -10.2061 0.
3.66673 9.80672 0.
-337.195 -918.489 0.
-0.0414854 -13.575 0.
3.57598 9.81242 0.
-205.728 -563.777 0.
-1.25944 -3.42762 0.
-15.5724 -42.6796 0.
-3.12969 -8.18048 0.
4.54139 11.8615 0.
-62.6453 -163.498 0.
5.5248 14.6475 0.
-219.754 -581.605 0.
-29.0562 -73.0831 0.
-164.605 -413.835 0.
-17.5197 -44.0123 0.
-39.1211 -88.8699 0.
0.125897 0.283494 0.
-24.1085 -53.1948 0.
-4.12189 -9.10892 0.
-95.6458 -211.505 0.
-295.738 -582.493 0.
3.89843 7.52096 0.
-188.132 -366.918 0.
-90.1754 -170.092 0.
-1.19035 -2.17309 0.
-0.576202 -0.877679 0.
-6.79079 -10.0036 0.
-8.2535 -21.3003 0.
-461.531 -660.964 0.
-7.48404 -10.488 0.
-295.925 -388.806 0.
-75.9124 -97.4422 0.
18.471 23.2108 0.
11.1408 13.3905 0.
14.6565 17.3925 0.
2.07618 2.64967 0.
-152.528 -195.416 0.
-62.4074 -79.4034 0.
-170.012 -239.871 0.
-3.21697 -4.46415 0.
11.4757 15.6549 0.
-20.518 -31.5852 0.
-2.43599 -3.13102 0.
-0.206764 -0.247025 0.
-3.10499 -3.74708 0.
9.7853 11.408 0.
2.62798 3.06586 0.
9.31896 10.9786 0.
15.8342 18.6661 0.
-196.928 -232.171 0.
14.8845 19.3675 0.
9.9696 13.4363 0.
-7.95219 -14.522 0.
-8.61446 -16.8186 0.
1.84389 2.52521 0.
5.46588 7.84846 0.
-5.47788 -8.05385 0.
-477.901 -722.05 0.
-2.01241 -3.70261 0.
-3.67821 -19.6231 0.
6.28019 12.4874 0.
6.34752 12.9453 0.
0.361304 0.75627 0.
-2.11847 -22.2296 0.
-109.99 -252.043 0.
-206.096 -477.587 0.
-59.2734 -142.328 0.
-265.429 -638.084 0.
-44.3447 -114.709 0.
-13.7499 -35.5818 0.
-14.6406 -37.9099 0.
-49.8774 -134.459 0.
-0.221019 -18.4123 0.
-147.495 -389.526 0.
-76.406 -201.522 0.
-86.3608 -227.267 0.
-121.473 -334.189 0.
-1.00769 -2.75402 0.
-20.3855 -56.3375 0.
3.94045 10.8834 0.
-0.371006 -1.02405 0.
2.81451 7.73814 0.
3.80306 10.2916 0.
4.61475 12.1293 0.
2.86936 7.79142 0.
1.85044 5.12438 0.
-0.0850644 -3.57324 0.
-0.407366 -1.0952 0.
-0.0192708 -3.48451 0.
1.24113 3.34746 0.
-1.60834 -4.40178 0.
-0.679018 -1.87688 0.
-1.0772 -2.98252 0.
-0.554506 -1.53583 0.
-0.803551 -2.22556 0.
-0.887192 -2.43103 0.
1.20112 3.17309 0.
1.10727 3.05484 0.
0.0126496 0.0349418 0.
-0.463229 -13.3755 0.
3.09977 8.18586 0.
-0.106558 -9.96031 0.
-0.0132056 -11.2632 0.
-1.88709 -5.20443 0.
-29.8311 -82.1374 0.
-1.88679 -5.10175 0.
-241.953 -657.977 0.
3.07611 7.9623 0.
4.60506 11.9357 0.
-92.0345 -238.849 0.
-4.92639 -13.0141 0.
-9.54291 -25.1087 0.
-46.6999 -117.385 0.
-44.1748 -110.973 0.
-74.9991 -188.304 0.
-276.642 -632.892 0.
3.29813 7.48787 0.
-118.165 -260.16 0.
-11.3475 -25.0153 0.
4.93261 10.8915 0.
-3.92291 -7.76078 0.
1.70779 3.28729 0.
-202.417 -392.942 0.
-69.5199 -130.357 0.
-4.44304 -18.6782 0.
-444.548 -665.047 0.
15.6261 22.5891 0.
17.0625 23.8935 0.
4.89001 6.48084 0.
2.95985 3.89575 0.
-56.8178 -72.8968 0.
-181.432 -227.6 0.
-12.1845 -18.9879 0.
-126.322 -149.239 0.
-3.97076 -4.63086 0.
17.4705 20.1312 0.
-9.80191 -11.2607 0.
18.2099 21.1171 0.
11.6481 14.5624 0.
7.10958 9.58844 0.
-53.8113 -71.3969 0.
12.4601 16.9503 0.
13.721 15.8367 0.
-0.778561 -0.907406 0.
-15.5902 -20.764 0.
-2.21428 -2.53273 0.
-67.0489 -76.6827 0.
-51.1826 -58.2119 0.
-12.8572 -14.7686 0.
9.82325 10.373 0.
-1.77849 -2.14811 0.
2.72082 3.417 0.
-23.518 -30.7719 0.
-6.90341 -9.25016 0.
-408.237 -552.009 0.
10.1508 14.3639 0.
-0.889957 -1.28973 0.
8.16229 12.5139 0.
8.71716 16.5677 0.
-3.56418 -19.5097 0.
-66.7953 -134.883 0.
-3.03525 -19.8281 0.
-238.638 -502.52 0.
-5.42616 -12.3288 0.
-4.14336 -9.51439 0.
-144.309 -335.268 0.
7.43605 17.4794 0.
3.23356 7.67265 0.
-13.4991 -34.5203 0.
-11.2928 -28.8998 0.
-7.29212 -18.6747 0.
-94.5875 -253.207 0.
-3.27954 -8.76558 0.
-13.7984 -36.564 0.
-1.86096 -4.92146 0.
-12.4098 -32.747 0.
-73.7654 -201.429 0.
-0.156607 -15.6969 0.
-19.606 -54.1832 0.
-1.59381 -4.40205 0.
-2.38012 -6.56952 0.
0.595674 1.61913 0.
-0.0928531 -5.27955 0.
-46.4332 -121.804 0.
-189.942 -525.034 0.
1.32318 3.66372 0.
-169.265 -418.227 0.
-28.6737 -73.4438 0.
-23.0643 -61.304 0.
-152.633 -404.154 0.
-171.764 -465.665 0.
-18.5162 -51.0776 0.
-27.647 -76.5636 0.
-114.648 -316.45 0.
-43.0337 -118.796 0.
-53.7008 -145.883 0.
-202.039 -530.255 0.
2.19657 6.00288 0.
1.76644 4.89216 0.
-0.373222 -9.09565 0.
1.23877 3.23027 0.
4.25802 11.3807 0.
-0.00223938 -11.7973 0.
-0.00670883 -12.8427 0.
2.0785 5.55748 0.
-2.6628 -7.1639 0.
-74.8559 -202.529 0.
3.62046 9.34687 0.
-1.45331 -3.75714 0.
-72.9466 -188.831 0.
7.58682 19.9531 0.
-63.1303 -166.037 0.
-0.216963 -0.548156 0.
-13.2239 -33.3471 0.
-31.3878 -79.0093 0.
-3.47261 -7.99794 0.
5.25382 12.0268 0.
-189.799 -416.892 0.
-16.1589 -35.5337 0.
-8.8234 -19.4344 0.
-258.346 -514.936 0.
-3.96311 -20.8503 0.
-58.9767 -113.14 0.
-1.15836 -2.13657 0.
7.10929 12.6009 0.
-64.1625 -94.0193 0.
-58.2148 -82.3816 0.
6.83571 9.36791 0.
-217.824 -284.126 0.
12.4065 16.0807 0.
-22.5574 -27.9003 0.
5.65568 6.769 0.
-8.43082 -9.77589 0.
18.1225 20.119 0.
-171.21 -196.166 0.
-88.3753 -100.048 0.
-20.6205 -23.01 0.
1.65212 1.86274 0.
-4.34554 -5.29897 0.
7.06313 8.44267 0.
1.3124 1.53754 0.
-6.16389 -12.6045 0.
-39.3204 -44.2405 0.
-134.686 -152.808 0.
-5.70773 -6.40077 0.
-6.24117 -6.56841 0.
4.19982 4.42786 0.
10.2974 10.7446 0.
-11.898 -12.2822 0.
-11.7007 -11.9386 0.
6.58669 7.86454 0.
-124.571 -154.764 0.
-122.918 -159.333 0.
9.44082 12.617 0.
5.28432 7.12637 0.
0.429469 0.617195 0.
-6.17278 -15.0501 0.
-277.592 -428.35 0.
-2.61712 -5.05403 0.
-4.35563 -8.67618 0.
-249.236 -511.075 0.
9.59582 19.8273 0.
5.32687 10.9427 0.
-5.11805 -11.2813 0.
1.17195 2.60684 0.
0.485011 1.08907 0.
7.3024 17.2635 0.
-91.409 -217.913 0.
-58.9836 -151.118 0.
-24.3704 -62.4885 0.
-8.92737 -22.9077 0.
-85.8857 -228.211 0.
0.241293 0.639844 0.
-0.321113 -17.7674 0.
1.21843 3.22817 0.
-2.13479 -5.52994 0.
-52.1912 -140.425 0.
1.06097 2.8455 0.
-5.04014 -13.4716 0.
-93.3789 -258.615 0.
-61.8861 -171.364 0.
-108.927 -290.889 0.
5.11523 13.5513 0.
-1.26305 -3.32023 0.
-0.0354504 -11.0329 0.
-0.0455839 -3.63748 0.
0.495849 1.20297 0.
0.335979 0.854543 0.
0.576962 1.52289 0.
-0.0895161 -4.70169 0.
1.47822 3.999 0.
-0.00541607 -3.83957 0.
0.648973 1.79727 0.
-0.447017 -1.23669 0.
2.36374 6.54233 0.
0.0911901 0.249991 0.
-0.0438502 -3.59617 0.
-0.224301 -9.44828 0.
-63.8863 -173.362 0.
-147.713 -384.522 0.
-50.7761 -133.705 0.
-80.3405 -213.69 0.
5.4919 15.1841 0.
-154.909 -428.566 0.
0.267362 0.700291 0.
6.75657 17.7462 0.
-8.06828 -21.2472 0.
-0.732144 -1.88518 0.
-3.39473 -8.75336 0.
-21.3861 -55.9417 0.
-13.4519 -35.2053 0.
-132.421 -346.47 0.
-36.4744 -92.0766 0.
-12.9126 -32.5408 0.
-22.421 -56.3993 0.
-74.1179 -171.33 0.
-2.4833 -5.67459 0.
8.63848 18.652 0.
4.45739 9.52541 0.
6.66538 14.0995 0.
-75.1561 -151.014 0.
-6.62958 -12.9524 0.
-250.922 -484.884 0.
6.97941 12.9469 0.
-3.63393 -14.4334 0.
-135.274 -196.063 0.
0.674291 0.939927 0.
-4.75478 -6.36916 0.
6.84099 8.62333 0.
-18.0857 -23.0657 0.
-168.121 -206.167 0.
-211.485 -250.679 0.
-4.779 -5.49079 0.
0.442394 0.471637 0.
12.4124 13.3155 0.
0.744155 0.802647 0.
-3.80855 -4.00806 0.
-63.2024 -69.2564 0.
-152.663 -168.919 0.
-124.726 -145.146 0.
5.454 6.22725 0.
10.5551 10.8229 0.
-12.3914 -12.9391 0.
-1.337 -1.35485 0.
-5.88542 -5.9839 0.
0.188358 0.191704 0.
-22.5537 -22.9586 0.
11.8433 11.9615 0.
-58.2065 -58.1084 0.
-19.7246 -19.4409 0.
8.40232 9.92894 0.
1.17429 1.45234 0.
4.89486 6.35229 0.
-2.10141 -2.76321 0.
-152.874 -202.953 0.
-2.78818 -4.02322 0.
4.87879 7.30044 0.
-161.054 -249.896 0.
9.92157 19.4821 0.
-2.98176 -5.73629 0.
2.22253 4.43828 0.
-1.97101 -3.97326 0.
-80.8748 -167.531 0.
-2.81297 -6.15697 0.
4.07019 8.99168 0.
-156.949 -350.116 0.
8.11526 19.2971 0.
-84.8645 -203.541 0.
-63.7684 -163.673 0.
7.64029 18.7239 0.
5.70122 14.0454 0.
-9.27764 -23.6704 0.
0.3227 0.820339 0.
-22.8677 -58.1818 0.
-1.18521 -3.03401 0.
3.5532 9.15162 0.
-12.8659 -34.5406 0.
0.612713 1.63955 0.
1.09901 2.93047 0.
-39.6171 -109.723 0.
-0.0082223 -14.277 0.
2.8565 7.63614 0.
0.701193 1.86136 0.
4.91201 12.9416 0.
4.67984 12.4655 0.
-0.056692 -1.51981 0.
0.59447 1.44277 0.
-0.175181 -4.50953 0.
0.364702 0.958092 0.
1.35807 3.60034 0.
-0.33665 -0.910291 0.
-0.372618 -1.02969 0.
-0.311555 -0.862935 0.
0.0224478 0.062078 0.
-0.00037548 -6.06027 0.
-0.0133603 -4.86554 0.
-0.0333833 -3.71526 0.
-0.248312 -5.2496 0.
-9.03119 -23.7027 0.
-1.53966 -4.04532 0.
2.02809 5.38239 0.
-0.19211 -13.6203 0.
2.29958 6.34546 0.
-26.7813 -73.9855 0.
3.22531 8.39126 0.
5.88767 15.3651 0.
-22.3067 -58.3824 0.
-5.41137 -13.4669 0.
-17.6184 -43.8545 0.
-19.7814 -50.0695 0.
-3.5009 -8.83088 0.
0.787161 1.97855 0.
2.32359 5.58706 0.
-9.85261 -24.8134 0.
-53.6099 -134.76 0.
-119.341 -276.938 0.
-0.810129 -1.85836 0.
-95.3634 -205.24 0.
-4.14425 -8.82488 0.
-2.85408 -20.8467 0.
6.50441 12.5588 0.
9.60172 17.7695 0.
6.15823 10.9829 0.
1.57554 2.94027 0.
8.72024 15.5919 0.
-193.348 -284.952 0.
-3.62342 -5.12989 0.
-5.42225 -10.63 0.
-11.1557 -13.7522 0.
1.66387 2.04838 0.
-6.06362 -7.23632 0.
-5.17187 -5.89355 0.
14.0472 15.9675 0.
-105.603 -107.99 0.
0.0622923 0.0642102 0.
20.1419 20.91 0.
-9.09125 -9.34708 0.
-12.7979 -13.114 0.
13.5281 13.807 0.
-8.19699 -8.98056 0.
-9.84705 -11.045 0.
-5.5148 -5.45915 0.
8.39335 8.2567 0.
15.7364 15.3471 0.
-27.9429 -27.4736 0.
-156.244 -153.483 0.
6.00822 5.25706 0.
-0.145756 -0.131987 0.
-13.9185 -11.8524 0.
-6.85784 -6.52132 0.
6.33419 7.38646 0.
-38.7185 -47.3439 0.
-113.924 -146.472 0.
-5.84503 -7.557 0.
-28.4875 -37.1579 0.
4.38034 6.08177 0.
6.1281 8.84955 0.
5.14137 7.71092 0.
5.29536 9.8069 0.
-2.6012 -5.00978 0.
-51.016 -102.13 0.
2.76038 5.61368 0.
-98.1051 -205.026 0.
6.70642 14.5723 0.
7.24493 15.8924 0.
1.18965 2.44177 0.
-2.89081 -6.4504 0.
-2.08418 -21.3401 0.
-2.75122 -6.70116 0.
3.52555 8.63374 0.
-4.02205 -9.90169 0.
-2.56207 -6.52442 0.
-3.27119 -8.29967 0.
-51.1564 -129.314 0.
-54.5337 -138.715 0.
-32.8838 -84.1749 0.
-56.8908 -152.374 0.
-3.36542 -8.98451 0.
-1.21464 -3.23092 0.
-3.63399 -10.0572 0.
-0.020056 -15.1963 0.
2.12207 5.61381 0.
-2.67229 -7.09368 0.
-1.6572 -4.41364 0.
-33.1146 -86.5932 0.
5.38396 13.5346 0.
-27.7986 -69.8165 0.
-2.60764 -6.78273 0.
-12.4498 -33.3153 0.
-17.0028 -46.166 0.
-62.3225 -171.404 0.
1.9546 5.41389 0.
-0.481272 -1.32926 0.
-67.7613 -185.655 0.
1.02038 2.80904 0.
1.85801 5.05959 0.
-29.469 -79.0246 0.
-0.652618 -12.8768 0.
-37.1622 -95.8115 0.
3.65504 9.70496 0.
-0.492584 -1.30848 0.
1.45683 3.92514 0.
-0.0997769 -0.27461 0.
4.36879 12.0431 0.
6.2869 16.2429 0.
1.16536 3.02095 0.
-66.7305 -173.515 0.
-49.9072 -123.818 0.
-60.8855 -151.084 0.
-9.42029 -23.8561 0.
-3.66188 -9.24079 0.
4.52537 11.3792 0.
-4.79971 -11.5313 0.
-1.32318 -18.9304 0.
2.46102 5.37752 0.
5.86805 12.7685 0.
7.48879 16.2269 0.
-36.9165 -79.1773 0.
-16.7511 -35.5431 0.
-3.28084 -6.88834 0.
-121.65 -237.777 0.
2.05444 3.84856 0.
-0.664884 -1.17225 0.
5.85131 10.1167 0.
-3.99861 -13.7872 0.
-3.80394 -5.56324 0.
-4.15415 -5.8877 0.
-4.96186 -10.0857 0.
-173.058 -208.427 0.
-35.1154 -42.2699 0.
-78.15 -92.1398 0.
5.41768 6.08645 0.
7.527 8.08461 0.
0.748822 0.697695 0.
14.7015 13.6645 0.
-7.69246 -7.6797 0.
-102.173 -102.453 0.
-88.4952 -88.5442 0.
-89.6348 -89.4131 0.
-2.91544 -2.88074 0.
-24.4092 -24.4647 0.
-4.96421 -4.74305 0.
8.16421 5.84937 0.
1.60369 1.20343 0.
13.7011 11.4865 0.
-5.78238 -4.85899 0.
-1.35362 -1.13923 0.
-12.6751 -10.1427 0.
2.82875 2.61217 0.
-9.87753 -9.35564 0.
-1.25633 -1.44218 0.
-5.03054 -3.77794 0.
-4.98495 -5.62278 0.
2.56205 2.89219 0.
4.34771 5.1352 0.
6.55167 9.29512 0.
8.95547 13.2225 0.
-35.2304 -54.0237 0.
-2.83821 -5.25418 0.
1.06324 2.0508 0.
-36.4113 -73.134 0.
-6.59653 -18.1387 0.
-3.19595 -5.68642 0.
-3.67766 -20.0167 0.
10.0076 19.9656 0.
-22.902 -46.591 0.
-2.06741 -19.8727 0.
2.17109 4.89966 0.
-31.4022 -71.7732 0.
-26.1485 -63.9806 0.
-29.8039 -73.318 0.
-25.547 -64.9315 0.
3.43321 8.69362 0.
-1.91896 -8.75413 0.
-2.72903 -16.9351 0.
6.49626 14.5359 0.
-3.34647 -8.34869 0.
-2.31298 -5.84727 0.
3.91528 10.0291 0.
-25.6321 -70.4358 0.
-2.01896 -5.52973 0.
-0.303664 -15.5565 0.
4.44961 11.8157 0.
0.561112 1.49497 0.
0.554059 1.40096 0.
5.18274 12.4913 0.
0.418518 1.05936 0.
-1.37186 -3.58418 0.
2.00021 5.36243 0.
1.19265 3.25958 0.
2.58921 7.14357 0.
0.472837 1.30924 0.
1.32057 3.654 0.
-0.0169233 -6.47301 0.
-0.0153107 -7.72284 0.
-0.0407621 -6.90309 0.
-0.0923204 -7.87676 0.
-0.891384 -12.8203 0.
-0.795338 -1.98654 0.
6.52676 17.2891 0.
-0.0906365 -0.240202 0.
-14.8156 -39.2827 0.
-8.96043 -24.3036 0.
-9.00843 -24.3955 0.
-18.2636 -44.7921 0.
4.84655 11.4787 0.
-1.56564 -16.9988 0.
-3.45811 -19.3035 0.
-5.59552 -20.1758 0.
-21.8668 -55.4056 0.
-3.35197 -8.46256 0.
-5.72914 -14.4119 0.
-21.5143 -51.6437 0.
-3.90838 -9.28936 0.
-33.4658 -73.0577 0.
0.808248 1.75728 0.
-6.31296 -13.6673 0.
-11.2452 -22.3053 0.
8.2971 15.4348 0.
-5.34612 -19.9559 0.
-5.67202 -13.4354 0.
-2.22554 -4.22662 0.
-125.73 -218.937 0.
-5.98281 -10.2152 0.
5.29239 8.86513 0.
-3.87761 -5.74958 0.
1.63226 2.34418 0.
9.07094 12.61 0.
-5.24 -5.59633 0.
19.3742 18.0456 0.
-0.838938 -0.483978 0.
9.83728 10.8668 0.
8.09004 8.52894 0.
-76.7087 -70.1963 0.
6.26971 5.72482 0.
11.1232 10.1362 0.
-1.79711 -1.57105 0.
11.1258 9.22388 0.
10.4858 8.28186 0.
-6.65948 -2.18716 0.
-111.916 -106.532 0.
