# vtk DataFile Version 2.0
test grain
ASCII
DATASET UNSTRUCTURED_GRID
POINTS 5000 float
0.497752 0.000611087 0.
0.50059 0.000796017 0.
0.503071 0.000863832 0.
0.505533 0.000929697 0.
0.507651 0.000946311 0.
0.509771 0.000963253 0.
0.511861 0.000975796 0.
0.513904 0.00098066 0.
0.515947 0.000985548 0.
0.517969 0.000989409 0.
0.519979 0.000992748 0.
0.52199 0.000996099 0.
0.523993 0.000996903 0.
0.525994 0.00099738 0.
0.527996 0.000997831 0.
0.529997 0.000998078 0.
0.531998 0.000998325 0.
0.533998 0.000998564 0.
0.535999 0.000998787 0.
0.537999 0.00099901 0.
0.539999 0.000999146 0.
0.541999 0.000999212 0.
0.544 0.000999278 0.
0.546 0.000999289 0.
0.548 0.000999284 0.
0.55 0.000999279 0.
0.552 0.000999245 0.
0.554 0.000999211 0.
0.556 0.000999196 0.
0.558 0.000999246 0.
0.56 0.000999295 0.
0.562 0.000999334 0.
0.564 0.00099936 0.
0.566 0.000999385 0.
0.568 0.000999376 0.
0.57 0.00099935 0.
0.572 0.000999324 0.
0.574 0.000999297 0.
0.576 0.00099927 0.
0.577999 0.00099925 0.
0.579999 0.000999284 0.
0.581999 0.000999318 0.
0.583999 0.000999337 0.
0.585999 0.000999325 0.
0.587999 0.000999314 0.
0.589999 0.000999375 0.
0.591999 0.000999494 0.
0.593999 0.000999613 0.
0.596 0.000999449 0.
0.598 0.000999204 0.
0.6 0.000998959 0.
0.602 0.000999214 0.
0.604001 0.00099947 0.
0.606001 0.000999641 0.
0.608001 0.000999515 0.
0.610001 0.000999389 0.
0.612001 0.000999316 0.
0.614001 0.000999311 0.
0.616001 0.000999306 0.
0.618001 0.000999295 0.
0.620001 0.000999282 0.
0.622001 0.00099927 0.
0.624 0.000999286 0.
0.626 0.000999306 0.
0.628 0.000999325 0.
0.63 0.000999346 0.
0.632 0.000999366 0.
0.634 0.000999373 0.
0.636 0.000999354 0.
0.638 0.000999336 0.
0.64 0.000999297 0.
0.642 0.000999243 0.
0.644 0.000999188 0.
0.646 0.000999197 0.
0.648 0.000999225 0.
0.65 0.000999252 0.
0.652 0.000999273 0.
0.654 0.000999294 0.
0.656 0.000999288 0.
0.658001 0.000999191 0.
0.660001 0.000999093 0.
0.662001 0.000998834 0.
0.664002 0.000998373 0.
0.666002 0.000997913 0.
0.668004 0.000997738 0.
0.670005 0.000997706 0.
0.672006 0.000997673 0.
0.674009 0.000996649 0.
0.676011 0.000995507 0.
0.678016 0.000993935 0.
0.680036 0.000989059 0.
0.682056 0.000984206 0.
0.684089 0.000979087 0.
0.686149 0.000973374 0.
0.688209 0.000967695 0.
0.690372 0.000940565 0.
0.692592 0.000903156 0.
0.694832 0.000864403 0.
0.697632 0.000763019 0.
0.700438 0.000664238 0.
0.495709 0.00158067 0.
0.499075 0.00229457 0.
0.501941 0.00255643 0.
0.504764 0.00277266 0.
0.507133 0.00283053 0.
0.509431 0.00288398 0.
0.511664 0.00292685 0.
0.513758 0.00294157 0.
0.515852 0.00295637 0.
0.517907 0.00296806 0.
0.519938 0.00297813 0.
0.52197 0.00298823 0.
0.523978 0.0029907 0.
0.525982 0.00299213 0.
0.527986 0.00299349 0.
0.52999 0.00299423 0.
0.531993 0.00299497 0.
0.533995 0.00299569 0.
0.535996 0.00299636 0.
0.537997 0.00299703 0.
0.539998 0.00299744 0.
0.541998 0.00299764 0.
0.543999 0.00299783 0.
0.545999 0.00299787 0.
0.547999 0.00299785 0.
0.549999 0.00299784 0.
0.551999 0.00299774 0.
0.553999 0.00299763 0.
0.555999 0.00299759 0.
0.557999 0.00299774 0.
0.559999 0.00299789 0.
0.561999 0.002998 0.
0.563999 0.00299808 0.
0.565999 0.00299815 0.
0.567999 0.00299813 0.
0.569999 0.00299805 0.
0.571999 0.00299797 0.
0.573999 0.00299789 0.
0.575999 0.00299781 0.
0.577998 0.00299775 0.
0.579998 0.00299785 0.
0.581998 0.00299795 0.
0.583998 0.00299801 0.
0.585998 0.00299798 0.
0.587998 0.00299794 0.
0.589998 0.00299812 0.
0.591998 0.00299848 0.
0.593998 0.00299884 0.
0.595999 0.00299835 0.
0.597999 0.00299761 0.
0.6 0.00299688 0.
0.602001 0.00299764 0.
0.604002 0.00299841 0.
0.606002 0.00299892 0.
0.608002 0.00299854 0.
0.610002 0.00299817 0.
0.612002 0.00299795 0.
0.614002 0.00299793 0.
0.616002 0.00299792 0.
0.618002 0.00299789 0.
0.620002 0.00299785 0.
0.622002 0.00299781 0.
0.624001 0.00299786 0.
0.626001 0.00299792 0.
0.628001 0.00299798 0.
0.630001 0.00299804 0.
0.632001 0.0029981 0.
0.634001 0.00299812 0.
0.636001 0.00299806 0.
0.638001 0.00299801 0.
0.640001 0.00299789 0.
0.642001 0.00299773 0.
0.644001 0.00299756 0.
0.646001 0.00299759 0.
0.648001 0.00299767 0.
0.650001 0.00299776 0.
0.652001 0.00299782 0.
0.654001 0.00299788 0.
0.656001 0.00299786 0.
0.658002 0.00299757 0.
0.660002 0.00299728 0.
0.662003 0.0029965 0.
0.664005 0.00299512 0.
0.666007 0.00299374 0.
0.668011 0.00299322 0.
0.670015 0.00299312 0.
0.672019 0.00299302 0.
0.674027 0.00298992 0.
0.676034 0.00298649 0.
0.678048 0.00298167 0.
0.680103 0.00296692 0.
0.682159 0.00295225 0.
0.684241 0.00293684 0.
0.686367 0.00291952 0.
0.688492 0.00290231 0.
0.690899 0.00280418 0.
0.693387 0.00268549 0.
0.696104 0.00252315 0.
0.699271 0.00220804 0.
0.702553 0.00170032 0.
0.493328 0.00220996 0.
0.496977 0.00339863 0.
0.500616 0.00419962 0.
0.503808 0.00457411 0.
0.506566 0.00470258 0.
0.509057 0.00479627 0.
0.511462 0.00487717 0.
0.513608 0.00490193 0.
0.515755 0.0049268 0.
0.517844 0.00494649 0.
0.519897 0.00496335 0.
0.52195 0.00498027 0.
0.523963 0.00498449 0.
0.52597 0.00498688 0.
0.527977 0.00498915 0.
0.529982 0.00499039 0.
0.531988 0.00499162 0.
0.533992 0.00499282 0.
0.535994 0.00499393 0.
0.537996 0.00499505 0.
0.539997 0.00499573 0.
0.541997 0.00499606 0.
0.543998 0.00499639 0.
0.545998 0.00499644 0.
0.547998 0.00499642 0.
0.549999 0.0049964 0.
0.551998 0.00499623 0.
0.553998 0.00499606 0.
0.555998 0.00499598 0.
0.557998 0.00499623 0.
0.559998 0.00499648 0.
0.561998 0.00499667 0.
0.563998 0.0049968 0.
0.565998 0.00499692 0.
0.567998 0.00499688 0.
0.569998 0.00499675 0.
0.571998 0.00499662 0.
0.573998 0.00499649 0.
0.575998 0.00499635 0.
0.577997 0.00499625 0.
0.579997 0.00499642 0.
0.581997 0.00499659 0.
0.583997 0.00499668 0.
0.585997 0.00499663 0.
0.587997 0.00499657 0.
0.589997 0.00499687 0.
0.591997 0.00499747 0.
0.593996 0.00499807 0.
0.595998 0.00499724 0.
0.597999 0.00499602 0.
0.6 0.00499479 0.
0.602002 0.00499607 0.
0.604003 0.00499735 0.
0.606004 0.00499821 0.
0.608003 0.00499757 0.
0.610003 0.00499694 0.
0.612003 0.00499658 0.
0.614003 0.00499655 0.
0.616003 0.00499653 0.
0.618003 0.00499648 0.
0.620003 0.00499641 0.
0.622003 0.00499635 0.
0.624002 0.00499643 0.
0.626002 0.00499653 0.
0.628002 0.00499663 0.
0.630002 0.00499673 0.
0.632002 0.00499683 0.
0.634002 0.00499686 0.
0.636002 0.00499677 0.
0.638002 0.00499668 0.
0.640002 0.00499649 0.
0.642002 0.00499621 0.
0.644002 0.00499594 0.
0.646002 0.00499599 0.
0.648002 0.00499612 0.
0.650002 0.00499626 0.
0.652002 0.00499637 0.
0.654002 0.00499647 0.
0.656002 0.00499644 0.
0.658003 0.00499595 0.
0.660004 0.00499546 0.
0.662006 0.00499417 0.
0.664009 0.00499186 0.
0.666012 0.00498956 0.
0.668018 0.0049887 0.
0.670025 0.00498854 0.
0.672032 0.00498838 0.
0.674045 0.00498316 0.
0.676057 0.00497743 0.
0.678081 0.00496921 0.
0.680172 0.00494444 0.
0.682264 0.0049198 0.
0.684397 0.00489402 0.
0.686592 0.00486486 0.
0.688785 0.00483588 0.
0.691507 0.00464183 0.
0.694294 0.00443266 0.
0.697673 0.00406951 0.
0.701302 0.00347581 0.
0.705058 0.00233222 0.
0.490413 0.00236941 0.
0.494681 0.00405379 0.
0.498824 0.00531677 0.
0.502197 0.00583181 0.
0.505355 0.00615732 0.
0.50801 0.00635292 0.
0.510651 0.00655294 0.
0.512965 0.00664778 0.
0.515275 0.0067382 0.
0.517502 0.00680899 0.
0.519637 0.00685532 0.
0.521774 0.00690246 0.
0.523836 0.00692776 0.
0.525882 0.006949 0.
0.527926 0.00696894 0.
0.529941 0.00697202 0.
0.531956 0.00697511 0.
0.533969 0.00697851 0.
0.535977 0.0069826 0.
0.537985 0.00698669 0.
0.53999 0.0069894 0.
0.541992 0.00699099 0.
0.543995 0.00699258 0.
0.545996 0.00699324 0.
0.547996 0.00699362 0.
0.549997 0.00699401 0.
0.551997 0.00699389 0.
0.553996 0.00699378 0.
0.555996 0.00699377 0.
0.557997 0.00699412 0.
0.559997 0.00699448 0.
0.561997 0.00699473 0.
0.563997 0.00699486 0.
0.565997 0.00699499 0.
0.567997 0.00699495 0.
0.569997 0.00699482 0.
0.571997 0.00699469 0.
0.573997 0.00699453 0.
0.575996 0.00699438 0.
0.577996 0.00699426 0.
0.579996 0.00699446 0.
0.581996 0.00699466 0.
0.583996 0.0069948 0.
0.585996 0.0069948 0.
0.587996 0.00699479 0.
0.589995 0.00699505 0.
0.591995 0.00699552 0.
0.593995 0.006996 0.
0.595996 0.00699514 0.
0.597998 0.0069939 0.
0.6 0.00699266 0.
0.602002 0.00699395 0.
0.604004 0.00699524 0.
0.606005 0.00699612 0.
0.608005 0.00699562 0.
0.610005 0.00699511 0.
0.612004 0.0069948 0.
0.614004 0.00699473 0.
0.616004 0.00699467 0.
0.618004 0.00699456 0.
0.620004 0.00699442 0.
0.622004 0.00699429 0.
0.624004 0.00699439 0.
0.626003 0.00699451 0.
0.628003 0.00699463 0.
0.630003 0.00699475 0.
0.632003 0.00699486 0.
0.634003 0.0069949 0.
0.636003 0.0069948 0.
0.638003 0.00699469 0.
0.640003 0.00699443 0.
0.642004 0.00699403 0.
0.644004 0.00699363 0.
0.646004 0.00699359 0.
0.648004 0.00699366 0.
0.650003 0.00699373 0.
0.652005 0.00699313 0.
0.654006 0.00699253 0.
0.656007 0.00699157 0.
0.658011 0.00698934 0.
0.660015 0.00698712 0.
0.662022 0.0069831 0.
0.664033 0.00697688 0.
0.666044 0.00697067 0.
0.668061 0.00696691 0.
0.670083 0.00696426 0.
0.672104 0.00696161 0.
0.674173 0.00692942 0.
0.676245 0.00689547 0.
0.678339 0.00685767 0.
0.680526 0.00679861 0.
0.682709 0.00674072 0.
0.685028 0.00664828 0.
0.687432 0.00653693 0.
0.689921 0.00638006 0.
0.692849 0.00601479 0.
0.695909 0.00564874 0.
0.699552 0.00515207 0.
0.703807 0.00415679 0.
0.707869 0.00259791 0.
0.487424 0.00234376 0.
0.492154 0.00432099 0.
0.496369 0.00581425 0.
0.500318 0.00687338 0.
0.503764 0.00746313 0.
0.506803 0.00783057 0.
0.50967 0.00816478 0.
0.51224 0.00836105 0.
0.514734 0.00852566 0.
0.517139 0.00866463 0.
0.519362 0.00874235 0.
0.521589 0.00882144 0.
0.523706 0.00886937 0.
0.525792 0.00890995 0.
0.527875 0.00894862 0.
0.5299 0.00895357 0.
0.531925 0.00895853 0.
0.533946 0.00896414 0.
0.53596 0.00897121 0.
0.537974 0.00897829 0.
0.539983 0.00898306 0.
0.541987 0.00898591 0.
0.543991 0.00898877 0.
0.545993 0.00899003 0.
0.547994 0.00899082 0.
0.549996 0.00899162 0.
0.551995 0.00899156 0.
0.553995 0.0089915 0.
0.555995 0.00899155 0.
0.557995 0.00899201 0.
0.559996 0.00899248 0.
0.561996 0.00899279 0.
0.563996 0.00899293 0.
0.565996 0.00899306 0.
0.567996 0.00899302 0.
0.569996 0.00899288 0.
0.571996 0.00899275 0.
0.573996 0.00899258 0.
0.575995 0.0089924 0.
0.577995 0.00899226 0.
0.579995 0.0089925 0.
0.581995 0.00899274 0.
0.583995 0.00899291 0.
0.585994 0.00899296 0.
0.587994 0.00899302 0.
0.589994 0.00899323 0.
0.591994 0.00899358 0.
0.593993 0.00899392 0.
0.595995 0.00899303 0.
0.597998 0.00899178 0.
0.6 0.00899053 0.
0.602003 0.00899183 0.
0.604005 0.00899312 0.
0.606007 0.00899404 0.
0.608007 0.00899366 0.
0.610006 0.00899328 0.
0.612006 0.00899302 0.
0.614006 0.00899291 0.
0.616006 0.0089928 0.
0.618005 0.00899263 0.
0.620005 0.00899243 0.
0.622005 0.00899223 0.
0.624005 0.00899234 0.
0.626004 0.00899249 0.
0.628004 0.00899264 0.
0.630004 0.00899277 0.
0.632004 0.0089929 0.
0.634004 0.00899294 0.
0.636004 0.00899283 0.
0.638004 0.00899271 0.
0.640005 0.00899237 0.
0.642005 0.00899184 0.
0.644005 0.00899131 0.
0.646006 0.0089912 0.
0.648005 0.00899119 0.
0.650005 0.00899119 0.
0.652007 0.00898989 0.
0.654009 0.00898859 0.
0.656012 0.00898669 0.
0.658019 0.00898272 0.
0.660025 0.00897875 0.
0.662038 0.00897197 0.
0.664056 0.00896181 0.
0.666075 0.00895168 0.
0.668105 0.008945 0.
0.670141 0.00893982 0.
0.672176 0.00893464 0.
0.674307 0.00887319 0.
0.67644 0.00880994 0.
0.678614 0.0087409 0.
0.680903 0.00864507 0.
0.683187 0.00855117 0.
0.685768 0.00836332 0.
0.688415 0.00815675 0.
0.691322 0.00777405 0.
0.694445 0.00721835 0.
0.697987 0.00660638 0.
0.701967 0.00579038 0.
0.706338 0.00441916 0.
0.711076 0.00250862 0.
0.484145 0.00221366 0.
0.489231 0.00429909 0.
0.493841 0.0060819 0.
0.498054 0.00757245 0.
0.502009 0.00860135 0.
0.505559 0.00923667 0.
0.508644 0.00968653 0.
0.511492 0.01 0.
0.514146 0.0102361 0.
0.516733 0.0104646 0.
0.519039 0.0105771 0.
0.521354 0.0106935 0.
0.523536 0.0107747 0.
0.525667 0.0108456 0.
0.527797 0.0109158 0.
0.529837 0.0109242 0.
0.531877 0.0109326 0.
0.533912 0.010942 0.
0.535934 0.0109534 0.
0.537955 0.0109649 0.
0.539969 0.0109729 0.
0.541977 0.010978 0.
0.543985 0.010983 0.
0.545988 0.0109855 0.
0.547991 0.0109871 0.
0.549993 0.0109888 0.
0.551993 0.010989 0.
0.553993 0.0109891 0.
0.555993 0.0109894 0.
0.557994 0.01099 0.
0.559994 0.0109906 0.
0.561995 0.010991 0.
0.563995 0.0109912 0.
0.565995 0.0109913 0.
0.567995 0.0109913 0.
0.569995 0.0109912 0.
0.571996 0.0109911 0.
0.573995 0.0109909 0.
0.575994 0.0109908 0.
0.577994 0.0109906 0.
0.579994 0.0109909 0.
0.581994 0.0109911 0.
0.583994 0.0109913 0.
0.585994 0.0109914 0.
0.587993 0.0109915 0.
0.589993 0.0109916 0.
0.591993 0.0109918 0.
0.593992 0.010992 0.
0.595995 0.0109913 0.
0.597998 0.0109903 0.
0.6 0.0109892 0.
0.602003 0.0109903 0.
0.604006 0.0109914 0.
0.606008 0.0109922 0.
0.608008 0.0109919 0.
0.610007 0.0109917 0.
0.612007 0.0109915 0.
0.614007 0.0109913 0.
0.616007 0.0109912 0.
0.618007 0.010991 0.
0.620006 0.0109908 0.
0.622006 0.0109906 0.
0.624006 0.0109907 0.
0.626005 0.0109908 0.
0.628005 0.0109909 0.
0.630005 0.010991 0.
0.632005 0.0109911 0.
0.634005 0.0109912 0.
0.636006 0.010991 0.
0.638006 0.0109909 0.
0.640006 0.0109904 0.
0.642007 0.0109896 0.
0.644007 0.0109889 0.
0.646008 0.0109885 0.
0.648008 0.0109882 0.
0.650009 0.0109878 0.
0.652012 0.0109853 0.
0.654016 0.0109828 0.
0.656021 0.0109792 0.
0.658033 0.010972 0.
0.660045 0.0109648 0.
0.662064 0.0109542 0.
0.664093 0.0109396 0.
0.666121 0.010925 0.
0.668172 0.0109093 0.
0.670232 0.0108935 0.
0.672292 0.0108774 0.
0.674487 0.0107767 0.
0.676681 0.0106766 0.
0.678944 0.0105664 0.
0.681336 0.0104286 0.
0.683735 0.0102913 0.
0.686565 0.00999929 0.
0.689475 0.00968884 0.
0.692787 0.00904032 0.
0.696241 0.00828001 0.
0.700131 0.00744283 0.
0.704642 0.00606416 0.
0.709278 0.00444927 0.
0.714326 0.00225638 0.
0.480782 0.0020409 0.
0.486467 0.00426137 0.
0.491355 0.00619393 0.
0.495898 0.00803696 0.
0.500579 0.00954822 0.
0.504354 0.0103392 0.
0.50762 0.0109033 0.
0.510721 0.0113999 0.
0.51349 0.0117767 0.
0.516225 0.0121574 0.
0.518639 0.0123312 0.
0.521048 0.012501 0.
0.523316 0.0126332 0.
0.525501 0.0127501 0.
0.527687 0.0128679 0.
0.52975 0.0128828 0.
0.531812 0.0128966 0.
0.533865 0.0129115 0.
0.535896 0.0129289 0.
0.537928 0.0129463 0.
0.539949 0.0129588 0.
0.541962 0.012967 0.
0.543975 0.0129753 0.
0.545981 0.0129795 0.
0.547985 0.0129825 0.
0.549989 0.0129856 0.
0.55199 0.0129862 0.
0.553991 0.0129867 0.
0.555992 0.0129873 0.
0.557992 0.0129881 0.
0.559993 0.0129889 0.
0.561994 0.0129894 0.
0.563994 0.0129896 0.
0.565994 0.0129899 0.
0.567995 0.0129899 0.
0.569995 0.0129898 0.
0.571995 0.0129897 0.
0.573994 0.0129896 0.
0.575994 0.0129895 0.
0.577993 0.0129894 0.
0.579993 0.0129896 0.
0.581993 0.0129898 0.
0.583993 0.01299 0.
0.585993 0.0129901 0.
0.587993 0.0129901 0.
0.589993 0.0129902 0.
0.591992 0.0129903 0.
0.593992 0.0129903 0.
0.595995 0.0129899 0.
0.597998 0.0129893 0.
0.6 0.0129888 0.
0.602003 0.0129894 0.
0.604006 0.01299 0.
0.606008 0.0129905 0.
0.608008 0.0129904 0.
0.610008 0.0129903 0.
0.612008 0.0129902 0.
0.614008 0.01299 0.
0.616007 0.0129899 0.
0.618007 0.0129897 0.
0.620007 0.0129895 0.
0.622007 0.0129893 0.
0.624007 0.0129894 0.
0.626006 0.0129895 0.
0.628005 0.0129895 0.
0.630006 0.0129896 0.
0.632006 0.0129896 0.
0.634006 0.0129896 0.
0.636007 0.0129893 0.
0.638007 0.0129891 0.
0.640008 0.0129884 0.
0.642009 0.0129874 0.
0.64401 0.0129863 0.
0.646011 0.0129854 0.
0.648013 0.0129845 0.
0.650014 0.0129836 0.
0.65202 0.0129793 0.
0.654026 0.0129751 0.
0.656035 0.012969 0.
0.658054 0.012957 0.
0.660073 0.0129451 0.
0.662103 0.0129296 0.
0.664143 0.0129099 0.
0.666183 0.0128903 0.
0.668265 0.0128576 0.
0.670361 0.0128214 0.
0.672464 0.012782 0.
0.674727 0.012629 0.
0.676985 0.0124784 0.
0.679373 0.0123002 0.
0.681896 0.0120899 0.
0.68449 0.0118314 0.
0.687427 0.0113354 0.
0.690527 0.0108206 0.
0.693985 0.010088 0.
0.697801 0.00920679 0.
0.702237 0.00798861 0.
0.706985 0.00627027 0.
0.711969 0.00445121 0.
0.717661 0.00203684 0.
0.477566 0.00192669 0.
0.483629 0.00423552 0.
0.488972 0.00623629 0.
0.493809 0.00831731 0.
0.498885 0.0101276 0.
0.502845 0.0111808 0.
0.506478 0.0120242 0.
0.509827 0.0127142 0.
0.512799 0.0132757 0.
0.515663 0.0138073 0.
0.518219 0.0140759 0.
0.520724 0.0143006 0.
0.523089 0.0144865 0.
0.525329 0.0146505 0.
0.527573 0.014817 0.
0.529662 0.0148411 0.
0.531746 0.0148604 0.
0.533818 0.0148809 0.
0.535859 0.0149042 0.
0.5379 0.0149276 0.
0.539929 0.0149446 0.
0.541947 0.014956 0.
0.543966 0.0149675 0.
0.545974 0.0149735 0.
0.54798 0.0149779 0.
0.549985 0.0149824 0.
0.551987 0.0149833 0.
0.553988 0.0149843 0.
0.55599 0.0149852 0.
0.557991 0.0149862 0.
0.559992 0.0149871 0.
0.561992 0.0149878 0.
0.563993 0.0149881 0.
0.565993 0.0149884 0.
0.567994 0.0149884 0.
0.569994 0.0149883 0.
0.571994 0.0149883 0.
0.573994 0.0149882 0.
0.575993 0.0149882 0.
0.577993 0.0149882 0.
0.579993 0.0149883 0.
0.581992 0.0149885 0.
0.583992 0.0149887 0.
0.585992 0.0149887 0.
0.587992 0.0149888 0.
0.589992 0.0149888 0.
0.591992 0.0149887 0.
0.593992 0.0149886 0.
0.595994 0.0149885 0.
0.597997 0.0149884 0.
0.6 0.0149883 0.
0.602003 0.0149885 0.
0.604006 0.0149886 0.
0.606009 0.0149888 0.
0.608009 0.0149888 0.
0.610008 0.0149889 0.
0.612008 0.0149889 0.
0.614008 0.0149887 0.
0.616008 0.0149886 0.
0.618008 0.0149885 0.
0.620008 0.0149883 0.
0.622008 0.0149881 0.
0.624007 0.0149881 0.
0.626007 0.0149881 0.
0.628006 0.0149881 0.
0.630006 0.0149881 0.
0.632007 0.0149881 0.
0.634007 0.014988 0.
0.636008 0.0149877 0.
0.638008 0.0149874 0.
0.640009 0.0149865 0.
0.642011 0.0149851 0.
0.644012 0.0149838 0.
0.646015 0.0149823 0.
0.648017 0.0149809 0.
0.65002 0.0149794 0.
0.652028 0.0149734 0.
0.654036 0.0149674 0.
0.656048 0.0149588 0.
0.658075 0.014942 0.
0.660102 0.0149252 0.
0.662141 0.0149048 0.
0.664194 0.0148801 0.
0.666246 0.0148554 0.
0.668361 0.0148044 0.
0.670494 0.0147474 0.
0.672643 0.0146826 0.
0.674975 0.0144762 0.
0.677299 0.0142739 0.
0.679835 0.0140179 0.
0.682496 0.0137325 0.
0.685297 0.013296 0.
0.688326 0.0126012 0.
0.691676 0.0118472 0.
0.695311 0.0109627 0.
0.69931 0.00997649 0.
0.704319 0.00831528 0.
0.709387 0.0063443 0.
0.714825 0.00423146 0.
0.721185 0.00193863 0.
0.47428 0.00179688 0.
0.480725 0.00414379 0.
0.486453 0.00619442 0.
0.491485 0.00842328 0.
0.496781 0.0103571 0.
0.50123 0.0118832 0.
0.505259 0.0130529 0.
0.508821 0.0139244 0.
0.512044 0.01467 0.
0.514946 0.015276 0.
0.517627 0.0156637 0.
0.5202 0.0159522 0.
0.522676 0.0162139 0.
0.524972 0.0164188 0.
0.527278 0.0166284 0.
0.529437 0.0167007 0.
0.531581 0.0167608 0.
0.533707 0.0168161 0.
0.535766 0.0168466 0.
0.537826 0.0168773 0.
0.539872 0.0169028 0.
0.541904 0.0169238 0.
0.543937 0.0169449 0.
0.545953 0.0169564 0.
0.547963 0.0169649 0.
0.549974 0.0169734 0.
0.551978 0.0169758 0.
0.553981 0.0169781 0.
0.555985 0.0169804 0.
0.557987 0.016982 0.
0.559989 0.0169837 0.
0.56199 0.0169849 0.
0.563991 0.0169854 0.
0.565992 0.0169859 0.
0.567992 0.0169861 0.
0.569993 0.0169862 0.
0.571993 0.0169862 0.
0.573993 0.0169862 0.
0.575992 0.0169863 0.
0.577992 0.0169863 0.
0.579992 0.0169865 0.
0.581992 0.0169866 0.
0.583992 0.0169867 0.
0.585992 0.0169867 0.
0.587992 0.0169867 0.
0.589992 0.0169866 0.
0.591993 0.0169863 0.
0.593993 0.0169861 0.
0.595995 0.016986 0.
0.597998 0.0169859 0.
0.6 0.0169858 0.
0.602003 0.0169859 0.
0.604006 0.016986 0.
0.606008 0.0169862 0.
0.608008 0.0169865 0.
0.610008 0.0169867 0.
0.612008 0.0169869 0.
0.614008 0.0169868 0.
0.616008 0.0169868 0.
0.618008 0.0169866 0.
0.620008 0.0169863 0.
0.622009 0.0169861 0.
0.624008 0.0169861 0.
0.626008 0.016986 0.
0.628007 0.016986 0.
0.630008 0.0169858 0.
0.632008 0.0169856 0.
0.634009 0.0169853 0.
0.63601 0.0169846 0.
0.638011 0.0169839 0.
0.640014 0.0169823 0.
0.642016 0.01698 0.
0.644019 0.0169777 0.
0.646024 0.0169743 0.
0.648029 0.0169707 0.
0.650035 0.0169671 0.
0.652051 0.0169555 0.
0.654067 0.0169439 0.
0.656089 0.0169283 0.
0.658133 0.0169006 0.
0.660177 0.016873 0.
0.662239 0.0168422 0.
0.664318 0.0168074 0.
0.666397 0.0167728 0.
0.668584 0.0166679 0.
0.67079 0.0165536 0.
0.673025 0.0164294 0.
0.675408 0.0161841 0.
0.677778 0.0159453 0.
0.680455 0.015592 0.
0.683199 0.0152383 0.
0.686165 0.0146069 0.
0.689275 0.0137687 0.
0.692889 0.012806 0.
0.696858 0.0116847 0.
0.701124 0.0104481 0.
0.706331 0.00850726 0.
0.711737 0.00636085 0.
0.717579 0.00409481 0.
0.724551 0.00183886 0.
0.470845 0.00168478 0.
0.477534 0.00404106 0.
0.483884 0.00607834 0.
0.489186 0.00839999 0.
0.494679 0.0104995 0.
0.499522 0.0124358 0.
0.503802 0.013873 0.
0.507625 0.0149405 0.
0.511011 0.0158236 0.
0.513996 0.0165416 0.
0.5169 0.0171386 0.
0.51957 0.0175291 0.
0.522203 0.0179085 0.
0.524573 0.0181625 0.
0.526956 0.0184227 0.
0.529196 0.0185485 0.
0.531404 0.0186535 0.
0.533592 0.0187496 0.
0.535671 0.0187877 0.
0.53775 0.0188259 0.
0.539813 0.01886 0.
0.54186 0.0188909 0.
0.543907 0.0189219 0.
0.545931 0.0189391 0.
0.547947 0.0189517 0.
0.549963 0.0189643 0.
0.551969 0.0189682 0.
0.553974 0.018972 0.
0.555979 0.0189754 0.
0.557983 0.0189779 0.
0.559986 0.0189803 0.
0.561988 0.018982 0.
0.563989 0.0189827 0.
0.56599 0.0189835 0.
0.567991 0.0189838 0.
0.569992 0.018984 0.
0.571992 0.0189841 0.
0.573992 0.0189842 0.
0.575992 0.0189843 0.
0.577991 0.0189845 0.
0.579992 0.0189846 0.
0.581992 0.0189847 0.
0.583992 0.0189848 0.
0.585992 0.0189847 0.
0.587993 0.0189847 0.
0.589993 0.0189844 0.
0.591993 0.018984 0.
0.593993 0.0189835 0.
0.595995 0.0189834 0.
0.597998 0.0189833 0.
0.6 0.0189832 0.
0.602003 0.0189833 0.
0.604006 0.0189834 0.
0.606008 0.0189836 0.
0.608008 0.0189841 0.
0.610008 0.0189846 0.
0.612008 0.0189849 0.
0.614009 0.0189849 0.
0.616009 0.0189849 0.
0.618009 0.0189847 0.
0.620009 0.0189844 0.
0.622009 0.0189841 0.
0.624009 0.018984 0.
0.626009 0.018984 0.
0.628008 0.0189839 0.
0.630009 0.0189835 0.
0.63201 0.0189831 0.
0.634011 0.0189825 0.
0.636013 0.0189815 0.
0.638014 0.0189805 0.
0.640018 0.0189781 0.
0.642022 0.0189748 0.
0.644026 0.0189715 0.
0.646034 0.0189663 0.
0.648042 0.0189605 0.
0.65005 0.0189546 0.
0.652074 0.0189374 0.
0.654098 0.0189202 0.
0.656131 0.0188973 0.
0.658193 0.0188583 0.
0.660254 0.0188195 0.
0.662341 0.0187777 0.
0.664449 0.0187321 0.
0.666555 0.0186867 0.
0.668828 0.0185169 0.
0.671116 0.0183386 0.
0.673447 0.0181506 0.
0.675901 0.0178548 0.
0.678376 0.0175465 0.
0.681197 0.0170559 0.
0.684077 0.0165446 0.
0.687199 0.0156807 0.
0.690398 0.0147722 0.
0.694167 0.0136922 0.
0.698557 0.0122679 0.
0.703192 0.0106558 0.
0.708634 0.00857566 0.
0.714272 0.00615929 0.
0.720876 0.00406968 0.
0.728004 0.00168537 0.
0.466816 0.00150314 0.
0.473935 0.00390784 0.
0.481187 0.00592234 0.
0.4868 0.00830763 0.
0.492481 0.0105652 0.
0.497524 0.0126766 0.
0.502164 0.0144657 0.
0.506236 0.0157573 0.
0.509785 0.0168464 0.
0.512988 0.0177461 0.
0.516123 0.0185552 0.
0.518924 0.0190706 0.
0.521697 0.0195743 0.
0.524175 0.0198803 0.
0.526624 0.0201777 0.
0.52894 0.0203609 0.
0.531207 0.0205179 0.
0.533456 0.0206672 0.
0.535558 0.0207137 0.
0.53766 0.0207605 0.
0.539743 0.0208048 0.
0.541804 0.0208474 0.
0.543866 0.0208903 0.
0.545899 0.020915 0.
0.547923 0.0209331 0.
0.549947 0.0209513 0.
0.551956 0.0209575 0.
0.553964 0.0209635 0.
0.555972 0.020969 0.
0.557977 0.0209724 0.
0.559981 0.0209758 0.
0.561985 0.0209783 0.
0.563987 0.0209795 0.
0.565988 0.0209807 0.
0.56799 0.0209814 0.
0.569991 0.0209818 0.
0.571991 0.0209822 0.
0.573991 0.0209824 0.
0.575991 0.0209825 0.
0.577991 0.0209827 0.
0.579991 0.0209828 0.
0.581992 0.0209829 0.
0.583992 0.020983 0.
0.585992 0.0209829 0.
0.587993 0.0209828 0.
0.589993 0.0209824 0.
0.591994 0.0209819 0.
0.593994 0.0209813 0.
0.595996 0.0209811 0.
0.597998 0.0209811 0.
0.6 0.0209811 0.
0.602003 0.0209811 0.
0.604005 0.0209812 0.
0.606007 0.0209814 0.
0.608007 0.020982 0.
0.610008 0.0209826 0.
0.612008 0.020983 0.
0.614009 0.0209831 0.
0.616009 0.0209831 0.
0.618009 0.0209829 0.
0.62001 0.0209826 0.
0.62201 0.0209823 0.
0.62401 0.0209821 0.
0.62601 0.020982 0.
0.628009 0.0209818 0.
0.630011 0.0209811 0.
0.632012 0.0209804 0.
0.634013 0.0209793 0.
0.636016 0.0209776 0.
0.638019 0.0209759 0.
0.640024 0.0209725 0.
0.64203 0.0209679 0.
0.644037 0.0209633 0.
0.646047 0.0209553 0.
0.64806 0.0209463 0.
0.650072 0.0209371 0.
0.652106 0.020912 0.
0.654141 0.020887 0.
0.656187 0.020855 0.
0.658267 0.0208035 0.
0.660346 0.0207525 0.
0.662461 0.0206946 0.
0.664602 0.020632 0.
0.666742 0.02057 0.
0.66909 0.0203295 0.
0.671448 0.0200885 0.
0.673867 0.0198427 0.
0.676391 0.0195058 0.
0.679011 0.0191058 0.
0.681956 0.0184793 0.
0.685047 0.0177308 0.
0.688312 0.01667 0.
0.691784 0.0155733 0.
0.695631 0.0144016 0.
0.700307 0.0127404 0.
0.705254 0.0107511 0.
0.710943 0.00854138 0.
0.716772 0.00593145 0.
0.724421 0.00396469 0.
0.732386 0.00141988 0.
0.461812 0.00122291 0.
0.470232 0.00376196 0.
0.478436 0.00576658 0.
0.48439 0.00816951 0.
0.490325 0.0105773 0.
0.495588 0.0128329 0.
0.500574 0.0149421 0.
0.504856 0.0164816 0.
0.508581 0.0177668 0.
0.512042 0.0188892 0.
0.515343 0.0198423 0.
0.518288 0.0204664 0.
0.521138 0.0210375 0.
0.523727 0.0214388 0.
0.526251 0.021821 0.
0.528655 0.0220992 0.
0.530974 0.0223314 0.
0.533285 0.0225601 0.
0.535417 0.0226184 0.
0.53755 0.0226767 0.
0.539659 0.0227338 0.
0.541735 0.022791 0.
0.543811 0.0228487 0.
0.545857 0.0228831 0.
0.547891 0.0229085 0.
0.549926 0.022934 0.
0.551939 0.0229435 0.
0.553951 0.0229526 0.
0.555962 0.0229608 0.
0.557969 0.0229656 0.
0.559975 0.0229704 0.
0.56198 0.0229739 0.
0.563983 0.0229757 0.
0.565986 0.0229776 0.
0.567988 0.0229788 0.
0.569989 0.0229795 0.
0.57199 0.0229803 0.
0.57399 0.0229806 0.
0.57599 0.0229808 0.
0.57799 0.022981 0.
0.579991 0.0229811 0.
0.581991 0.0229812 0.
0.583992 0.0229813 0.
0.585993 0.0229812 0.
0.587993 0.022981 0.
0.589994 0.0229806 0.
0.591994 0.02298 0.
0.593995 0.0229794 0.
0.595997 0.0229793 0.
0.597999 0.0229793 0.
0.6 0.0229794 0.
0.602003 0.0229794 0.
0.604005 0.0229793 0.
0.606006 0.0229795 0.
0.608007 0.0229802 0.
0.610007 0.0229809 0.
0.612008 0.0229813 0.
0.614008 0.0229814 0.
0.616009 0.0229814 0.
0.618009 0.0229812 0.
0.62001 0.0229809 0.
0.622011 0.0229806 0.
0.624011 0.0229804 0.
0.626011 0.0229801 0.
0.628011 0.0229797 0.
0.630013 0.0229785 0.
0.632014 0.0229773 0.
0.634017 0.0229756 0.
0.636021 0.0229728 0.
0.638024 0.0229701 0.
0.640031 0.0229654 0.
0.642041 0.0229591 0.
0.64405 0.0229529 0.
0.646066 0.022941 0.
0.648083 0.0229278 0.
0.650101 0.0229139 0.
0.652149 0.0228784 0.
0.654197 0.022843 0.
0.65626 0.022799 0.
0.658359 0.0227331 0.
0.660457 0.0226677 0.
0.662611 0.0225827 0.
0.664797 0.0224886 0.
0.666991 0.0223861 0.
0.66939 0.0220609 0.
0.671791 0.0217406 0.
0.674316 0.0214093 0.
0.676919 0.0210119 0.
0.679674 0.020491 0.
0.682647 0.0198189 0.
0.685961 0.0188343 0.
0.689371 0.0176091 0.
0.693137 0.0163071 0.
0.697299 0.0148503 0.
0.70213 0.0130725 0.
0.707297 0.0107892 0.
0.713248 0.00842214 0.
0.719435 0.00578864 0.
0.728072 0.00384151 0.
0.738211 0.00108036 0.
0.454966 0.000986826 0.
0.466455 0.00368538 0.
0.475593 0.00564407 0.
0.482136 0.00802806 0.
0.488333 0.0105798 0.
0.493728 0.0129466 0.
0.498833 0.0152132 0.
0.503306 0.0169721 0.
0.507375 0.0185989 0.
0.511059 0.0198986 0.
0.514383 0.0209058 0.
0.517544 0.0217464 0.
0.52051 0.0224397 0.
0.523254 0.0229765 0.
0.525858 0.0234469 0.
0.528362 0.0238274 0.
0.530733 0.0241358 0.
0.533105 0.0244471 0.
0.535274 0.0245222 0.
0.537439 0.0245923 0.
0.539574 0.0246621 0.
0.541665 0.0247341 0.
0.543756 0.0248067 0.
0.545814 0.0248511 0.
0.547859 0.0248838 0.
0.549905 0.0249166 0.
0.551922 0.0249295 0.
0.553938 0.0249417 0.
0.555952 0.0249527 0.
0.557961 0.0249588 0.
0.559969 0.0249649 0.
0.561976 0.0249694 0.
0.56398 0.0249719 0.
0.565984 0.0249745 0.
0.567986 0.0249761 0.
0.569988 0.0249773 0.
0.571989 0.0249784 0.
0.573989 0.0249788 0.
0.57599 0.024979 0.
0.57799 0.0249792 0.
0.579991 0.0249794 0.
0.581991 0.0249795 0.
0.583992 0.0249796 0.
0.585993 0.0249795 0.
0.587994 0.0249793 0.
0.589994 0.0249789 0.
0.591995 0.0249782 0.
0.593996 0.0249775 0.
0.595997 0.0249774 0.
0.597999 0.0249775 0.
0.6 0.0249777 0.
0.602002 0.0249776 0.
0.604004 0.0249775 0.
0.606005 0.0249776 0.
0.608006 0.0249784 0.
0.610007 0.0249791 0.
0.612007 0.0249796 0.
0.614008 0.0249796 0.
0.616009 0.0249797 0.
0.61801 0.0249795 0.
0.62001 0.0249792 0.
0.622011 0.024979 0.
0.624012 0.0249786 0.
0.626012 0.0249781 0.
0.628012 0.0249776 0.
0.630014 0.0249759 0.
0.632017 0.0249742 0.
0.63402 0.0249718 0.
0.636025 0.0249681 0.
0.63803 0.0249643 0.
0.640039 0.0249582 0.
0.642051 0.0249503 0.
0.644063 0.0249424 0.
0.646084 0.0249268 0.
0.648106 0.0249092 0.
0.65013 0.0248905 0.
0.652192 0.0248445 0.
0.654253 0.0247987 0.
0.656333 0.0247427 0.
0.658452 0.0246622 0.
0.66057 0.0245823 0.
0.662766 0.0244676 0.
0.664997 0.0243412 0.
0.667249 0.024192 0.
0.669697 0.0237813 0.
0.672141 0.0233808 0.
0.674797 0.0229568 0.
0.677506 0.0224818 0.
0.680471 0.0217409 0.
0.683534 0.0209205 0.
0.686932 0.0197894 0.
0.69054 0.0184427 0.
0.694471 0.0169813 0.
0.699013 0.0151723 0.
0.703981 0.0132417 0.
0.709425 0.0107636 0.
0.715544 0.00820537 0.
0.722245 0.00571085 0.
0.731769 0.00371811 0.
0.746695 0.000935275 0.
0.446469 0.000995359 0.
0.462908 0.00346293 0.
0.472776 0.00553475 0.
0.479932 0.0079145 0.
0.486261 0.0105244 0.
0.491806 0.0130076 0.
0.497031 0.0153479 0.
0.501714 0.0173403 0.
0.50617 0.0193325 0.
0.509877 0.0207216 0.
0.513368 0.0218949 0.
0.516759 0.0229879 0.
0.519831 0.0237921 0.
0.522741 0.0244721 0.
0.525403 0.0250119 0.
0.527982 0.0254845 0.
0.530384 0.0258435 0.
0.532802 0.0262089 0.
0.535034 0.0263354 0.
0.537245 0.0264448 0.
0.539425 0.0265486 0.
0.541538 0.0266352 0.
0.543653 0.0267226 0.
0.545733 0.0267825 0.
0.547796 0.0268299 0.
0.549859 0.0268778 0.
0.551885 0.0268983 0.
0.553909 0.0269176 0.
0.555931 0.0269349 0.
0.557944 0.0269439 0.
0.559957 0.0269528 0.
0.561966 0.0269597 0.
0.563972 0.026964 0.
0.565978 0.0269682 0.
0.567982 0.026971 0.
0.569984 0.026973 0.
0.571987 0.026975 0.
0.573988 0.0269756 0.
0.575988 0.0269761 0.
0.577989 0.0269765 0.
0.57999 0.0269768 0.
0.581991 0.026977 0.
0.583992 0.0269772 0.
0.585993 0.026977 0.
0.587994 0.0269769 0.
0.589995 0.0269765 0.
0.591996 0.0269759 0.
0.593996 0.0269754 0.
0.595998 0.0269753 0.
0.597999 0.0269753 0.
0.6 0.0269753 0.
0.602002 0.0269753 0.
0.604003 0.0269754 0.
0.606005 0.0269755 0.
0.608005 0.0269762 0.
0.610006 0.0269768 0.
0.612007 0.0269772 0.
0.614008 0.0269772 0.
0.616009 0.0269773 0.
0.61801 0.026977 0.
0.620011 0.0269765 0.
0.622012 0.0269761 0.
0.624013 0.0269753 0.
0.626014 0.0269746 0.
0.628015 0.0269735 0.
0.630019 0.0269707 0.
0.632022 0.0269678 0.
0.634027 0.0269639 0.
0.636035 0.0269578 0.
0.638043 0.0269518 0.
0.640057 0.0269426 0.
0.642074 0.0269309 0.
0.644092 0.0269193 0.
0.646122 0.0268956 0.
0.648155 0.0268692 0.
0.650191 0.0268406 0.
0.652275 0.0267753 0.
0.654358 0.0267109 0.
0.656466 0.0266358 0.
0.658618 0.0265374 0.
0.660767 0.0264404 0.
0.663014 0.026278 0.
0.665292 0.0261032 0.
0.667612 0.0258833 0.
0.670089 0.0254167 0.
0.672555 0.0249702 0.
0.675334 0.0244655 0.
0.678154 0.0239017 0.
0.681323 0.0229197 0.
0.684567 0.021897 0.
0.688054 0.0205818 0.
0.691786 0.0191517 0.
0.695973 0.0174488 0.
0.700701 0.0154533 0.
0.705755 0.0133488 0.
0.711452 0.0107277 0.
0.717774 0.00802924 0.
0.725023 0.00563675 0.
0.735049 0.00348321 0.
0.756608 0.00117676 0.
0.437538 0.00134228 0.
0.459758 0.00319315 0.
0.46994 0.00547841 0.
0.477701 0.00782278 0.
0.484203 0.0104404 0.
0.489904 0.0130269 0.
0.495251 0.0154489 0.
0.500154 0.017645 0.
0.504862 0.0199124 0.
0.508578 0.0214081 0.
0.512322 0.0228055 0.
0.515895 0.0241101 0.
0.519057 0.0250264 0.
0.522072 0.0258254 0.
0.524779 0.0264473 0.
0.527487 0.0270714 0.
0.52996 0.027497 0.
0.532446 0.0279243 0.
0.534761 0.0281203 0.
0.537028 0.0282801 0.
0.539263 0.0284289 0.
0.541403 0.0285313 0.
0.543545 0.0286346 0.
0.545648 0.028711 0.
0.54773 0.0287742 0.
0.549813 0.0288379 0.
0.551848 0.0288666 0.
0.55388 0.0288931 0.
0.555909 0.0289169 0.
0.557926 0.0289287 0.
0.559943 0.0289406 0.
0.561957 0.0289499 0.
0.563965 0.0289559 0.
0.565973 0.0289619 0.
0.567978 0.0289658 0.
0.569981 0.0289687 0.
0.571985 0.0289715 0.
0.573986 0.0289725 0.
0.575987 0.0289732 0.
0.577988 0.0289738 0.
0.579989 0.0289742 0.
0.581991 0.0289746 0.
0.583992 0.0289747 0.
0.585993 0.0289746 0.
0.587994 0.0289744 0.
0.589995 0.0289741 0.
0.591996 0.0289737 0.
0.593997 0.0289733 0.
0.595998 0.0289731 0.
0.597999 0.028973 0.
0.6 0.0289729 0.
0.602002 0.0289731 0.
0.604003 0.0289732 0.
0.606004 0.0289735 0.
0.608005 0.028974 0.
0.610006 0.0289744 0.
0.612007 0.0289747 0.
0.614008 0.0289748 0.
0.616009 0.0289748 0.
0.618011 0.0289744 0.
0.620012 0.0289738 0.
0.622014 0.0289732 0.
0.624015 0.0289721 0.
0.626017 0.028971 0.
0.628019 0.0289695 0.
0.630023 0.0289654 0.
0.632027 0.0289614 0.
0.634034 0.0289559 0.
0.636045 0.0289475 0.
0.638056 0.0289391 0.
0.640074 0.0289267 0.
0.642098 0.0289113 0.
0.644121 0.0288959 0.
0.646162 0.0288639 0.
0.648205 0.0288283 0.
0.650254 0.0287887 0.
0.652361 0.0287031 0.
0.654467 0.0286186 0.
0.656609 0.0285222 0.
0.6588 0.028403 0.
0.660987 0.0282854 0.
0.663297 0.0280617 0.
0.665631 0.0278275 0.
0.668042 0.0275145 0.
0.67059 0.0269708 0.
0.673175 0.0264347 0.
0.676024 0.0258205 0.
0.678952 0.0251242 0.
0.682224 0.0240035 0.
0.685672 0.0227671 0.
0.689227 0.0213097 0.
0.693113 0.0197477 0.
0.697543 0.0177783 0.
0.702476 0.0156575 0.
0.70762 0.0133438 0.
0.713486 0.0106273 0.
0.720004 0.00788965 0.
0.727784 0.00558687 0.
0.738088 0.00321083 0.
0.763357 0.00172807 0.
0.43243 0.00177123 0.
0.456721 0.00300033 0.
0.467067 0.00550413 0.
0.475447 0.00772056 0.
0.48217 0.0103498 0.
0.488051 0.013018 0.
0.493498 0.0155255 0.
0.498563 0.0178579 0.
0.503225 0.0201613 0.
0.507232 0.0219864 0.
0.511265 0.0236387 0.
0.514888 0.0250239 0.
0.518141 0.0261029 0.
0.521281 0.0270776 0.
0.524134 0.0278447 0.
0.526955 0.028616 0.
0.52953 0.0291381 0.
0.532086 0.0296232 0.
0.534491 0.0298886 0.
0.536808 0.0300973 0.
0.539097 0.0302968 0.
0.541262 0.0304137 0.
0.543429 0.030532 0.
0.545555 0.0306259 0.
0.547655 0.0307066 0.
0.549756 0.0307884 0.
0.551802 0.0308272 0.
0.553843 0.0308625 0.
0.555882 0.0308943 0.
0.557904 0.0309097 0.
0.559926 0.0309251 0.
0.561944 0.0309374 0.
0.563955 0.0309457 0.
0.565966 0.0309539 0.
0.567972 0.0309594 0.
0.569977 0.0309634 0.
0.571981 0.0309674 0.
0.573983 0.0309688 0.
0.575985 0.0309699 0.
0.577987 0.0309709 0.
0.579989 0.0309714 0.
0.58199 0.0309719 0.
0.583992 0.0309723 0.
0.585993 0.0309722 0.
0.587994 0.0309721 0.
0.589996 0.0309719 0.
0.591997 0.0309716 0.
0.593998 0.0309714 0.
0.595999 0.0309712 0.
0.598 0.0309711 0.
0.6 0.030971 0.
0.602002 0.0309712 0.
0.604003 0.0309714 0.
0.606004 0.0309716 0.
0.608005 0.0309719 0.
0.610006 0.0309722 0.
0.612007 0.0309723 0.
0.614008 0.0309723 0.
0.61601 0.0309723 0.
0.618011 0.0309717 0.
0.620013 0.0309708 0.
0.622015 0.0309699 0.
0.624018 0.0309683 0.
0.62602 0.0309666 0.
0.628023 0.0309644 0.
0.630029 0.0309589 0.
0.632035 0.0309534 0.
0.634044 0.0309458 0.
0.636059 0.0309342 0.
0.638073 0.0309227 0.
0.640097 0.0309064 0.
0.642127 0.0308867 0.
0.644156 0.0308671 0.
0.646209 0.0308244 0.
0.648265 0.0307774 0.
0.650328 0.0307245 0.
0.652457 0.0306177 0.
0.654585 0.0305123 0.
0.656759 0.0303923 0.
0.658986 0.0302518 0.
0.66121 0.0301159 0.
0.663582 0.0298304 0.
0.66597 0.0295369 0.
0.668478 0.029126 0.
0.671101 0.028507 0.
0.67383 0.0278573 0.
0.676775 0.0271004 0.
0.679894 0.0261432 0.
0.683179 0.0249471 0.
0.686786 0.023563 0.
0.690514 0.0219172 0.
0.694504 0.0202365 0.
0.699142 0.0180113 0.
0.704239 0.0157834 0.
0.70958 0.0132608 0.
0.715526 0.0104616 0.
0.722253 0.00778681 0.
0.730578 0.0055981 0.
0.741011 0.00298378 0.
0.765883 0.00216767 0.
0.430091 0.00217382 0.
0.453735 0.00293183 0.
0.464254 0.00553054 0.
0.473177 0.00759962 0.
0.480095 0.0102225 0.
0.486212 0.012976 0.
0.49173 0.0155529 0.
0.496931 0.0180058 0.
0.501644 0.0203601 0.
0.505906 0.0225088 0.
0.510096 0.0243522 0.
0.513767 0.0257859 0.
0.517246 0.0271405 0.
0.520492 0.0282673 0.
0.523524 0.0291997 0.
0.526424 0.0300669 0.
0.529085 0.0306655 0.
0.531694 0.0311932 0.
0.534183 0.0315532 0.
0.536555 0.0318436 0.
0.538913 0.0321292 0.
0.541104 0.0322651 0.
0.543298 0.0324027 0.
0.545449 0.0325185 0.
0.547567 0.0326217 0.
0.549686 0.0327263 0.
0.551746 0.0327782 0.
0.553799 0.0328245 0.
0.555848 0.0328664 0.
0.557877 0.032886 0.
0.559905 0.0329057 0.
0.561927 0.0329218 0.
0.563942 0.032933 0.
0.565956 0.0329442 0.
0.567965 0.0329516 0.
0.569971 0.0329571 0.
0.571977 0.0329625 0.
0.57398 0.0329645 0.
0.575983 0.0329661 0.
0.577985 0.0329676 0.
0.579987 0.0329684 0.
0.581989 0.0329692 0.
0.583991 0.0329698 0.
0.585993 0.0329698 0.
0.587994 0.0329699 0.
0.589996 0.0329698 0.
0.591997 0.0329697 0.
0.593998 0.0329696 0.
0.595999 0.0329696 0.
0.598 0.0329696 0.
0.6 0.0329696 0.
0.602001 0.0329697 0.
0.604002 0.0329698 0.
0.606003 0.0329699 0.
0.608004 0.0329699 0.
0.610005 0.03297 0.
0.612007 0.03297 0.
0.614009 0.0329698 0.
0.61601 0.0329696 0.
0.618013 0.0329687 0.
0.620015 0.0329674 0.
0.622018 0.0329662 0.
0.624021 0.0329638 0.
0.626024 0.0329613 0.
0.628028 0.0329582 0.
0.630036 0.0329509 0.
0.632044 0.0329436 0.
0.634056 0.0329333 0.
0.636076 0.0329176 0.
0.638096 0.032902 0.
0.640125 0.0328811 0.
0.642162 0.0328564 0.
0.644199 0.0328318 0.
0.646266 0.0327749 0.
0.648337 0.0327128 0.
0.650418 0.0326422 0.
0.65257 0.0325109 0.
0.654719 0.0323814 0.
0.656928 0.0322229 0.
0.659188 0.0320389 0.
0.661454 0.031856 0.
0.663892 0.0315004 0.
0.66633 0.0311465 0.
0.668927 0.0306371 0.
0.671582 0.0299771 0.
0.674453 0.0292212 0.
0.677486 0.0283452 0.
0.680811 0.027116 0.
0.684222 0.0257876 0.
0.687883 0.0242971 0.
0.69182 0.0224449 0.
0.696004 0.0205207 0.
0.700718 0.0182145 0.
0.705974 0.015867 0.
0.711443 0.0131799 0.
0.717492 0.0103308 0.
0.724539 0.00764946 0.
0.733366 0.00558644 0.
0.74394 0.00288773 0.
0.766982 0.00266719 0.
0.429811 0.00265855 0.
0.451147 0.00301611 0.
0.461689 0.0055002 0.
0.471001 0.00752586 0.
0.478135 0.0101551 0.
0.484423 0.012916 0.
0.489998 0.0155719 0.
0.495344 0.0181304 0.
0.500128 0.0205434 0.
0.504548 0.0229501 0.
0.50875 0.0248859 0.
0.512639 0.0264933 0.
0.516349 0.0281252 0.
0.519681 0.0293662 0.
0.522821 0.0304096 0.
0.525751 0.0313568 0.
0.528568 0.0321133 0.
0.531263 0.0327296 0.
0.533862 0.0332039 0.
0.536292 0.0335786 0.
0.538722 0.0339576 0.
0.540944 0.0341151 0.
0.543164 0.0342721 0.
0.545342 0.03441 0.
0.547478 0.0345357 0.
0.549615 0.0346632 0.
0.551689 0.0347289 0.
0.553754 0.0347862 0.
0.555815 0.0348384 0.
0.557849 0.0348623 0.
0.559883 0.0348863 0.
0.561911 0.0349062 0.
0.563929 0.0349203 0.
0.565946 0.0349344 0.
0.567958 0.0349438 0.
0.569965 0.0349507 0.
0.571973 0.0349576 0.
0.573977 0.0349603 0.
0.57598 0.0349624 0.
0.577984 0.0349643 0.
0.579986 0.0349654 0.
0.581989 0.0349665 0.
0.583991 0.0349672 0.
0.585993 0.0349674 0.
0.587995 0.0349676 0.
0.589996 0.0349678 0.
0.591997 0.0349678 0.
0.593998 0.0349678 0.
0.595999 0.0349679 0.
0.598 0.034968 0.
0.6 0.0349682 0.
0.602001 0.0349682 0.
0.604002 0.0349681 0.
0.606003 0.0349681 0.
0.608004 0.034968 0.
0.610005 0.0349679 0.
0.612007 0.0349676 0.
0.614009 0.0349672 0.
0.616011 0.0349669 0.
0.618014 0.0349657 0.
0.620017 0.0349641 0.
0.62202 0.0349625 0.
0.624024 0.0349594 0.
0.626029 0.0349561 0.
0.628034 0.0349521 0.
0.630044 0.0349429 0.
0.632054 0.0349338 0.
0.634069 0.0349208 0.
0.636093 0.034901 0.
0.638118 0.0348813 0.
0.640154 0.0348557 0.
0.642198 0.034826 0.
0.644242 0.0347964 0.
0.646324 0.034725 0.
0.64841 0.0346476 0.
0.65051 0.0345589 0.
0.652684 0.0344029 0.
0.654855 0.0342489 0.
0.6571 0.0340486 0.
0.659395 0.0338204 0.
0.661708 0.0335887 0.
0.664216 0.0331566 0.
0.666715 0.0327316 0.
0.669445 0.0320927 0.
0.672188 0.0313465 0.
0.67517 0.0304348 0.
0.678221 0.0294986 0.
0.681727 0.0280342 0.
0.685314 0.0265534 0.
0.688956 0.0249758 0.
0.693102 0.0229227 0.
0.697514 0.020721 0.
0.702323 0.0184046 0.
0.707715 0.0158542 0.
0.713259 0.0130824 0.
0.71945 0.0102341 0.
0.726755 0.00759745 0.
0.735922 0.00554018 0.
0.746602 0.00295893 0.
0.767203 0.00324095 0.
0.430494 0.00321297 0.
0.449064 0.00321466 0.
0.45952 0.00549968 0.
0.468927 0.00755686 0.
0.476281 0.0101337 0.
0.482765 0.0128992 0.
0.488396 0.0156296 0.
0.493852 0.0182724 0.
0.498665 0.0207179 0.
0.503171 0.0232578 0.
0.50738 0.0253205 0.
0.511506 0.0271558 0.
0.515349 0.028943 0.
0.518763 0.0303198 0.
0.52202 0.031555 0.
0.525038 0.0326117 0.
0.528025 0.0335347 0.
0.530798 0.0342319 0.
0.533511 0.0348239 0.
0.535977 0.035259 0.
0.53845 0.0357111 0.
0.540715 0.035906 0.
0.542968 0.0360912 0.
0.545182 0.0362595 0.
0.54734 0.0364063 0.
0.549502 0.0365552 0.
0.551597 0.0366427 0.
0.553681 0.0367204 0.
0.555761 0.0367924 0.
0.557803 0.0368213 0.
0.559845 0.0368502 0.
0.56188 0.0368755 0.
0.563904 0.0368957 0.
0.565929 0.0369158 0.
0.567944 0.0369291 0.
0.569955 0.0369386 0.
0.571965 0.0369482 0.
0.573971 0.0369523 0.
0.575976 0.0369557 0.
0.57798 0.0369589 0.
0.579984 0.0369605 0.
0.581987 0.0369622 0.
0.58399 0.0369635 0.
0.585992 0.036964 0.
0.587994 0.0369646 0.
0.589996 0.036965 0.
0.591997 0.0369653 0.
0.593998 0.0369657 0.
0.595999 0.0369659 0.
0.598 0.0369662 0.
0.6 0.0369664 0.
0.602001 0.0369663 0.
0.604002 0.0369661 0.
0.606003 0.0369659 0.
0.608004 0.0369654 0.
0.610006 0.0369649 0.
0.612008 0.0369642 0.
0.61401 0.0369634 0.
0.616013 0.0369626 0.
0.618016 0.0369607 0.
0.62002 0.0369584 0.
0.622024 0.0369561 0.
0.62403 0.0369513 0.
0.626037 0.0369463 0.
0.628044 0.0369402 0.
0.630058 0.0369275 0.
0.632072 0.0369148 0.
0.634093 0.0368967 0.
0.636126 0.0368694 0.
0.638158 0.0368422 0.
0.640202 0.0368105 0.
0.642255 0.0367756 0.
0.644307 0.0367407 0.
0.646416 0.0366412 0.
0.64853 0.0365359 0.
0.650658 0.0364203 0.
0.652853 0.0362454 0.
0.655045 0.0360727 0.
0.657334 0.0358229 0.
0.659665 0.0355475 0.
0.662028 0.0352619 0.
0.664569 0.03478 0.
0.66714 0.0342836 0.
0.669996 0.03352 0.
0.672859 0.0326641 0.
0.675982 0.0315378 0.
0.679138 0.0303956 0.
0.682647 0.0288961 0.
0.68643 0.0272449 0.
0.690195 0.0254605 0.
0.694329 0.0233694 0.
0.698973 0.0209038 0.
0.703919 0.0185495 0.
0.709385 0.0158307 0.
0.714994 0.01301 0.
0.72128 0.0101829 0.
0.728817 0.0076229 0.
0.738081 0.00549777 0.
0.74887 0.00316188 0.
0.766812 0.00385003 0.
0.431393 0.00380625 0.
0.44738 0.0034974 0.
0.457689 0.005558 0.
0.467017 0.00767526 0.
0.474549 0.0101149 0.
0.481196 0.0129079 0.
0.486825 0.0156699 0.
0.492381 0.0183951 0.
0.497227 0.0208761 0.
0.501797 0.0234763 0.
0.506039 0.0257128 0.
0.510352 0.0277702 0.
0.514253 0.0296186 0.
0.517764 0.0311827 0.
0.521123 0.0326302 0.
0.524292 0.0338081 0.
0.527437 0.0348821 0.
0.53023 0.0356172 0.
0.533026 0.0363093 0.
0.535553 0.0368354 0.
0.538091 0.0373869 0.
0.540431 0.037655 0.
0.542736 0.0378852 0.
0.545001 0.0380963 0.
0.547188 0.0382665 0.
0.549379 0.0384391 0.
0.5515 0.0385509 0.
0.553605 0.0386513 0.
0.555705 0.0387451 0.
0.557755 0.0387792 0.
0.559805 0.0388133 0.
0.561848 0.0388442 0.
0.563879 0.0388705 0.
0.565911 0.0388969 0.
0.567931 0.0389143 0.
0.569944 0.0389264 0.
0.571958 0.0389386 0.
0.573965 0.0389443 0.
0.575971 0.038949 0.
0.577977 0.0389534 0.
0.579981 0.0389557 0.
0.581985 0.0389579 0.
0.583989 0.0389597 0.
0.585991 0.0389606 0.
0.587993 0.0389615 0.
0.589995 0.0389623 0.
0.591997 0.0389629 0.
0.593998 0.0389635 0.
0.595999 0.0389639 0.
0.598 0.0389643 0.
0.6 0.0389647 0.
0.602001 0.0389644 0.
0.604002 0.0389641 0.
0.606003 0.0389637 0.
0.608005 0.0389628 0.
0.610006 0.0389619 0.
0.612008 0.0389609 0.
0.614011 0.0389596 0.
0.616014 0.0389583 0.
0.618019 0.0389558 0.
0.620024 0.0389527 0.
0.622029 0.0389496 0.
0.624037 0.0389431 0.
0.626045 0.0389363 0.
0.628054 0.0389283 0.
0.630072 0.0389119 0.
0.632091 0.0388955 0.
0.634117 0.0388722 0.
0.636158 0.038837 0.
0.638199 0.038802 0.
0.640252 0.0387641 0.
0.642313 0.0387237 0.
0.644374 0.0386834 0.
0.646515 0.0385516 0.
0.64866 0.0384144 0.
0.650821 0.0382685 0.
0.653045 0.0380713 0.
0.655264 0.0378765 0.
0.657624 0.0375591 0.
0.660019 0.0372198 0.
0.662481 0.0368389 0.
0.665086 0.0362575 0.
0.667724 0.0356701 0.
0.670587 0.0348801 0.
0.673591 0.0338823 0.
0.676811 0.0325744 0.
0.680149 0.031182 0.
0.68361 0.0296595 0.
0.687524 0.0278814 0.
0.691482 0.0258608 0.
0.695575 0.0237397 0.
0.70038 0.0210822 0.
0.705405 0.0187046 0.
0.710959 0.0158397 0.
0.716605 0.0129685 0.
0.722992 0.0101881 0.
0.730741 0.00773405 0.
0.73993 0.00552981 0.
0.750636 0.00343703 0.
0.766234 0.00451187 0.
0.432039 0.00442544 0.
0.445923 0.00383283 0.
0.456074 0.00568183 0.
0.465263 0.00784721 0.
0.472913 0.0101321 0.
0.479646 0.01292 0.
0.485321 0.0157162 0.
0.490938 0.018502 0.
0.495793 0.0210327 0.
0.500454 0.0236672 0.
0.504726 0.0260572 0.
0.509114 0.0282736 0.
0.513054 0.0301618 0.
0.51675 0.0319914 0.
0.520187 0.0335937 0.
0.523523 0.034922 0.
0.526666 0.0360435 0.
0.529596 0.0369228 0.
0.532491 0.0377463 0.
0.535121 0.0383937 0.
0.537722 0.0390439 0.
0.540144 0.0393961 0.
0.542501 0.0396706 0.
0.544821 0.0399277 0.
0.547033 0.0401167 0.
0.549251 0.0403102 0.
0.551398 0.0404474 0.
0.553523 0.0405724 0.
0.555643 0.0406917 0.
0.557702 0.0407309 0.
0.559761 0.0407701 0.
0.561812 0.0408068 0.
0.56385 0.0408402 0.
0.565888 0.0408738 0.
0.567913 0.040896 0.
0.569931 0.0409115 0.
0.571948 0.040927 0.
0.573957 0.0409346 0.
0.575965 0.040941 0.
0.577972 0.040947 0.
0.579977 0.04095 0.
0.581982 0.0409531 0.
0.583987 0.0409555 0.
0.585989 0.0409569 0.
0.587992 0.0409583 0.
0.589994 0.0409594 0.
0.591996 0.0409604 0.
0.593998 0.0409613 0.
0.595999 0.0409619 0.
0.598 0.0409625 0.
0.6 0.040963 0.
0.602001 0.0409626 0.
0.604002 0.0409621 0.
0.606004 0.0409615 0.
0.608005 0.0409601 0.
0.610007 0.0409588 0.
0.61201 0.0409572 0.
0.614013 0.0409552 0.
0.616017 0.0409533 0.
0.618022 0.0409499 0.
0.620029 0.0409459 0.
0.622035 0.0409419 0.
0.624045 0.0409333 0.
0.626055 0.0409243 0.
0.628067 0.0409137 0.
0.63009 0.0408926 0.
0.632113 0.0408717 0.
0.634146 0.0408423 0.
0.636196 0.040799 0.
0.638245 0.0407558 0.
0.640308 0.0407106 0.
0.642379 0.0406634 0.
0.64445 0.0406167 0.
0.64662 0.0404495 0.
0.648791 0.0402796 0.
0.650985 0.0401052 0.
0.653235 0.0398911 0.
0.655481 0.0396768 0.
0.657919 0.0392842 0.
0.660379 0.0388806 0.
0.662951 0.0383921 0.
0.665629 0.0377051 0.
0.668409 0.0369644 0.
0.671347 0.0360619 0.
0.674373 0.0349525 0.
0.677638 0.0335516 0.
0.681169 0.0319265 0.
0.684753 0.0302838 0.
0.688619 0.0284628 0.
0.692784 0.026205 0.
0.696968 0.023939 0.
0.701854 0.0212507 0.
0.706846 0.018827 0.
0.712475 0.0158408 0.
0.718129 0.0129915 0.
0.724667 0.0101839 0.
0.732532 0.00787564 0.
0.741631 0.00559851 0.
0.752093 0.00376528 0.
0.765714 0.00521214 0.
0.432466 0.00514747 0.
0.444659 0.00423146 0.
0.454625 0.00586455 0.
0.463617 0.00803965 0.
0.471356 0.010182 0.
0.478142 0.0129586 0.
0.48388 0.0157806 0.
0.489523 0.0186045 0.
0.494387 0.0211926 0.
0.499153 0.0238689 0.
0.503429 0.0263366 0.
0.50783 0.0286651 0.
0.511859 0.0306655 0.
0.515727 0.0327197 0.
0.519253 0.0344467 0.
0.52265 0.0358996 0.
0.525873 0.0371577 0.
0.528976 0.038202 0.
0.53196 0.0391418 0.
0.534695 0.0398994 0.
0.537307 0.0405958 0.
0.539805 0.0410424 0.
0.542211 0.0413707 0.
0.544593 0.0416892 0.
0.546844 0.0419134 0.
0.549104 0.042144 0.
0.551284 0.0423179 0.
0.55343 0.0424757 0.
0.555573 0.0426287 0.
0.557641 0.0426735 0.
0.55971 0.0427183 0.
0.56177 0.0427616 0.
0.563815 0.0428034 0.
0.565861 0.0428455 0.
0.567892 0.0428736 0.
0.569914 0.0428933 0.
0.571936 0.042913 0.
0.573947 0.042923 0.
0.575957 0.0429315 0.
0.577966 0.0429396 0.
0.579973 0.0429435 0.
0.581979 0.0429475 0.
0.583984 0.0429509 0.
0.585987 0.0429529 0.
0.587991 0.0429549 0.
0.589993 0.0429565 0.
0.591995 0.0429578 0.
0.593997 0.0429591 0.
0.595998 0.0429599 0.
0.597999 0.0429606 0.
0.6 0.0429613 0.
0.602002 0.0429606 0.
0.604003 0.04296 0.
0.606004 0.0429591 0.
0.608007 0.0429573 0.
0.610009 0.0429555 0.
0.612012 0.0429532 0.
0.614016 0.0429504 0.
0.616021 0.0429476 0.
0.618027 0.0429432 0.
0.620035 0.0429381 0.
0.622043 0.0429329 0.
0.624055 0.0429217 0.
0.626068 0.0429098 0.
0.628083 0.0428959 0.
0.630112 0.0428691 0.
0.632141 0.0428424 0.
0.634182 0.0428058 0.
0.636239 0.0427534 0.
0.638297 0.0427014 0.
0.640374 0.0426462 0.
0.64246 0.0425889 0.
0.644547 0.0425302 0.
0.646738 0.042319 0.
0.648929 0.0421069 0.
0.651169 0.0418822 0.
0.653482 0.0416186 0.
0.655783 0.0413636 0.
0.658273 0.0409155 0.
0.660767 0.0404675 0.
0.663415 0.0398846 0.
0.666159 0.0391184 0.
0.669093 0.0382292 0.
0.672108 0.0372201 0.
0.675278 0.0358692 0.
0.678498 0.0344237 0.
0.682166 0.032646 0.
0.685933 0.0308472 0.
0.689724 0.0289911 0.
0.694085 0.0265157 0.
0.698378 0.0240799 0.
0.703338 0.0214019 0.
0.708323 0.0188604 0.
0.713983 0.0158328 0.
0.71967 0.0130193 0.
0.726326 0.0102162 0.
0.734189 0.00804182 0.
0.743181 0.00573309 0.
0.753365 0.0041575 0.
0.765387 0.00595976 0.
0.432853 0.00588835 0.
0.443727 0.00469062 0.
0.453454 0.00614189 0.
0.462198 0.00827405 0.
0.469912 0.0102943 0.
0.476745 0.0130619 0.
0.482531 0.0158786 0.
0.488186 0.018738 0.
0.493052 0.0213566 0.
0.497834 0.0240582 0.
0.502142 0.0265716 0.
0.506603 0.0290193 0.
0.510712 0.0311507 0.
0.514647 0.0333144 0.
0.518248 0.0351699 0.
0.521739 0.0368324 0.
0.525052 0.0382229 0.
0.528337 0.0394243 0.
0.531318 0.0404079 0.
0.534123 0.041281 0.
0.536808 0.0420741 0.
0.539425 0.042655 0.
0.541897 0.0430517 0.
0.544358 0.0434457 0.
0.54665 0.0437066 0.
0.548952 0.0439746 0.
0.551168 0.0441864 0.
0.553335 0.0443773 0.
0.555502 0.0445652 0.
0.55758 0.0446159 0.
0.559658 0.0446664 0.
0.561727 0.0447161 0.
0.56378 0.0447665 0.
0.565833 0.0448171 0.
0.56787 0.0448512 0.
0.569897 0.0448751 0.
0.571924 0.0448989 0.
0.573938 0.0449114 0.
0.575949 0.044922 0.
0.577961 0.0449321 0.
0.579968 0.0449371 0.
0.581975 0.044942 0.
0.583981 0.0449462 0.
0.585985 0.0449488 0.
0.587989 0.0449514 0.
0.589992 0.0449535 0.
0.591994 0.0449552 0.
0.593996 0.0449568 0.
0.595998 0.0449579 0.
0.597999 0.0449587 0.
0.6 0.0449595 0.
0.602002 0.0449587 0.
0.604003 0.0449579 0.
0.606005 0.0449568 0.
0.608008 0.0449545 0.
0.61001 0.0449521 0.
0.612014 0.0449492 0.
0.614019 0.0449455 0.
0.616024 0.0449419 0.
0.618032 0.0449365 0.
0.620041 0.0449302 0.
0.622051 0.0449239 0.
0.624065 0.04491 0.
0.626081 0.0448953 0.
0.628099 0.0448781 0.
0.630134 0.0448455 0.
0.632169 0.044813 0.
0.634217 0.0447691 0.
0.636283 0.0447077 0.
0.638349 0.0446467 0.
0.64044 0.0445814 0.
0.642541 0.0445139 0.
0.644646 0.0444414 0.
0.646857 0.0441859 0.
0.649068 0.0439312 0.
0.651361 0.0436533 0.
0.653743 0.0433363 0.
0.656124 0.0430197 0.
0.65868 0.0425032 0.
0.661232 0.041992 0.
0.664015 0.0412552 0.
0.666769 0.0404322 0.
0.669805 0.0394434 0.
0.672909 0.0383197 0.
0.676193 0.0367423 0.
0.679498 0.0351346 0.
0.683161 0.0333344 0.
0.687118 0.0313562 0.
0.690963 0.0293608 0.
0.695349 0.026805 0.
0.699729 0.0242335 0.
0.704737 0.0215724 0.
0.709713 0.0189201 0.
0.71539 0.0158732 0.
0.721131 0.0130721 0.
0.727865 0.0103202 0.
0.735684 0.00823895 0.
0.744472 0.00596324 0.
0.754226 0.00463154 0.
0.765073 0.00674239 0.
0.433284 0.00665277 0.
0.443268 0.0052066 0.
0.452522 0.00650634 0.
0.461036 0.00856429 0.
0.468636 0.0104947 0.
0.475485 0.0132213 0.
0.481273 0.0160126 0.
0.4869 0.0188906 0.
0.491773 0.0215402 0.
0.496569 0.0242723 0.
0.500936 0.0268272 0.
0.505455 0.0293796 0.
0.509559 0.031595 0.
0.513562 0.0338304 0.
0.517218 0.0358367 0.
0.520775 0.0376789 0.
0.52421 0.039215 0.
0.527565 0.0405099 0.
0.530565 0.0415811 0.
0.533525 0.0426365 0.
0.536284 0.043525 0.
0.539032 0.0442512 0.
0.541563 0.0447136 0.
0.544082 0.0451672 0.
0.54641 0.0454579 0.
0.548743 0.0457611 0.
0.550995 0.0460136 0.
0.55318 0.0462307 0.
0.555368 0.0464457 0.
0.557472 0.0465169 0.
0.559575 0.0465864 0.
0.561667 0.0466528 0.
0.563728 0.0467115 0.
0.565789 0.0467705 0.
0.567834 0.0468126 0.
0.569869 0.0468437 0.
0.571903 0.046875 0.
0.573921 0.0468919 0.
0.575936 0.0469064 0.
0.577951 0.0469202 0.
0.57996 0.0469267 0.
0.581969 0.0469331 0.
0.583976 0.0469386 0.
0.585981 0.0469424 0.
0.587986 0.0469461 0.
0.58999 0.046949 0.
0.591993 0.0469512 0.
0.593995 0.0469535 0.
0.595997 0.0469548 0.
0.597999 0.0469558 0.
0.6 0.0469568 0.
0.602002 0.0469557 0.
0.604004 0.0469546 0.
0.606006 0.046953 0.
0.60801 0.0469499 0.
0.610013 0.0469467 0.
0.612018 0.0469427 0.
0.614024 0.0469376 0.
0.616031 0.0469325 0.
0.618041 0.0469253 0.
0.620052 0.0469172 0.
0.622064 0.0469091 0.
0.624083 0.0468906 0.
0.626103 0.0468712 0.
0.628126 0.0468483 0.
0.630171 0.0468058 0.
0.632216 0.0467636 0.
0.634274 0.0467102 0.
0.636349 0.0466401 0.
0.638424 0.0465703 0.
0.640546 0.0464822 0.
0.642682 0.0463893 0.
0.644822 0.0462874 0.
0.647049 0.0460046 0.
0.64927 0.045721 0.
0.651604 0.045388 0.
0.654033 0.045024 0.
0.656489 0.0446544 0.
0.659103 0.0440776 0.
0.661741 0.04348 0.
0.664649 0.04259 0.
0.667529 0.0416469 0.
0.670621 0.0405296 0.
0.673769 0.039302 0.
0.677116 0.0375741 0.
0.680562 0.0357702 0.
0.68417 0.0339693 0.
0.688283 0.0318286 0.
0.692259 0.0296412 0.
0.6966 0.0270575 0.
0.700991 0.0244259 0.
0.706017 0.0217816 0.
0.71098 0.0190399 0.
0.716644 0.0159832 0.
0.722412 0.0132099 0.
0.729224 0.0105079 0.
0.736935 0.00849177 0.
0.745459 0.00628928 0.
0.754671 0.00516056 0.
0.764662 0.00751902 0.
0.433794 0.00741121 0.
0.443029 0.00576618 0.
0.451823 0.00694138 0.
0.460078 0.00890376 0.
0.467556 0.0107774 0.
0.474358 0.0134354 0.
0.480114 0.0162031 0.
0.485707 0.0190786 0.
0.490586 0.0217666 0.
0.495378 0.0245271 0.
0.499789 0.0271135 0.
0.504282 0.0297043 0.
0.508412 0.0320003 0.
0.512483 0.0343032 0.
0.516193 0.0364716 0.
0.51979 0.0384423 0.
0.523285 0.0401038 0.
0.526653 0.0415067 0.
0.529794 0.0427104 0.
0.532902 0.0439357 0.
0.535737 0.0449102 0.
0.538522 0.0457172 0.
0.541097 0.0462345 0.
0.543691 0.0467768 0.
0.546095 0.0471427 0.
0.548478 0.0475082 0.
0.550785 0.0478195 0.
0.552997 0.0480657 0.
0.555214 0.0483104 0.
0.557351 0.048408 0.
0.559486 0.0485008 0.
0.561604 0.0485873 0.
0.563674 0.0486547 0.
0.565744 0.0487224 0.
0.567798 0.0487728 0.
0.56984 0.0488116 0.
0.571882 0.0488505 0.
0.573904 0.048872 0.
0.575923 0.0488906 0.
0.57794 0.0489082 0.
0.579951 0.0489161 0.
0.581962 0.0489241 0.
0.583971 0.048931 0.
0.585978 0.0489359 0.
0.587984 0.0489407 0.
0.589988 0.0489445 0.
0.591991 0.0489473 0.
0.593995 0.0489501 0.
0.595997 0.0489517 0.
0.597999 0.0489528 0.
0.6 0.048954 0.
0.602003 0.0489526 0.
0.604005 0.0489512 0.
0.606008 0.0489492 0.
0.608011 0.0489453 0.
0.610015 0.0489413 0.
0.612021 0.0489362 0.
0.614029 0.0489296 0.
0.616037 0.048923 0.
0.61805 0.048914 0.
0.620064 0.048904 0.
0.622078 0.048894 0.
0.624101 0.0488709 0.
0.626125 0.0488465 0.
0.628154 0.0488176 0.
0.63021 0.0487649 0.
0.632265 0.0487125 0.
0.634333 0.048649 0.
0.636419 0.0485694 0.
0.638504 0.0484902 0.
0.640665 0.0483737 0.
0.642845 0.0482488 0.
0.645029 0.0481108 0.
0.647286 0.0477982 0.
0.649537 0.0474857 0.
0.651921 0.0470695 0.
0.654378 0.0466205 0.
0.656912 0.0461615 0.
0.659589 0.045549 0.
0.6623 0.0448865 0.
0.665298 0.0438821 0.
0.668325 0.0427973 0.
0.671495 0.0415414 0.
0.674725 0.0401205 0.
0.678042 0.0383681 0.
0.681643 0.0363738 0.
0.685326 0.0344638 0.
0.689424 0.0322664 0.
0.693492 0.0299279 0.
0.697832 0.0272856 0.
0.702226 0.0246521 0.
0.707212 0.0220028 0.
0.712144 0.0192098 0.
0.717762 0.0161744 0.
0.723524 0.0134174 0.
0.730383 0.0107728 0.
0.737932 0.00880911 0.
0.746244 0.00669509 0.
0.754845 0.00572378 0.
0.764127 0.00827576 0.
0.434322 0.00816224 0.
0.442941 0.0063531 0.
0.451302 0.00742506 0.
0.459263 0.00928836 0.
0.466646 0.0111186 0.
0.473349 0.0137007 0.
0.479033 0.0164339 0.
0.484597 0.019308 0.
0.489478 0.022024 0.
0.494238 0.0248069 0.
0.498659 0.0274178 0.
0.503113 0.0300091 0.
0.507307 0.0323981 0.
0.511409 0.0347535 0.
0.515161 0.0370438 0.
0.518786 0.0391222 0.
0.522312 0.0409113 0.
0.525714 0.0424475 0.
0.529003 0.0437889 0.
0.532167 0.0450931 0.
0.535022 0.0461299 0.
0.537894 0.0470757 0.
0.540593 0.0477235 0.
0.543279 0.0483669 0.
0.545775 0.0488171 0.
0.548209 0.0492448 0.
0.550576 0.0496218 0.
0.552817 0.0498951 0.
0.555061 0.050163 0.
0.55723 0.050287 0.
0.559392 0.0504056 0.
0.561534 0.0505161 0.
0.563613 0.0505916 0.
0.565693 0.0506675 0.
0.567756 0.0507266 0.
0.569806 0.0507741 0.
0.571857 0.0508219 0.
0.573884 0.0508489 0.
0.575906 0.0508722 0.
0.577928 0.0508942 0.
0.579941 0.0509039 0.
0.581954 0.0509136 0.
0.583965 0.0509221 0.
0.585973 0.0509283 0.
0.58798 0.0509345 0.
0.589985 0.0509393 0.
0.591989 0.0509428 0.
0.593993 0.0509464 0.
0.595996 0.0509482 0.
0.597998 0.0509496 0.
0.600001 0.0509509 0.
0.602003 0.0509491 0.
0.604006 0.0509474 0.
0.606009 0.0509449 0.
0.608014 0.05094 0.
0.610019 0.050935 0.
0.612026 0.0509285 0.
0.614036 0.0509201 0.
0.616046 0.0509117 0.
0.618061 0.0509008 0.
0.620078 0.0508887 0.
0.622095 0.0508766 0.
0.624123 0.0508479 0.
0.626152 0.0508178 0.
0.628187 0.0507819 0.
0.630254 0.0507174 0.
0.63232 0.0506535 0.
0.634399 0.05058 0.
0.636495 0.0504923 0.
0.63859 0.0504049 0.
0.640787 0.0502549 0.
0.643007 0.0500969 0.
0.645235 0.0499264 0.
0.647523 0.0495876 0.
0.649803 0.0492473 0.
0.652239 0.0487353 0.
0.654725 0.0482018 0.
0.657367 0.0476431 0.
0.66015 0.0469491 0.
0.663018 0.0461256 0.
0.666013 0.0450626 0.
0.669133 0.0438856 0.
0.672379 0.0425175 0.
0.675738 0.0408485 0.
0.679054 0.0390421 0.
0.682707 0.0369494 0.
0.686513 0.0348984 0.
0.69059 0.0326545 0.
0.694664 0.0302288 0.
0.698984 0.027545 0.
0.703418 0.0248969 0.
0.708346 0.0222253 0.
0.713266 0.0193958 0.
0.71881 0.0164145 0.
0.724523 0.0136782 0.
0.731356 0.0110994 0.
0.738756 0.00918148 0.
0.746831 0.0071708 0.
0.754996 0.00632628 0.
0.763549 0.00899628 0.
0.434889 0.00891414 0.
0.442918 0.00696635 0.
0.450859 0.00794992 0.
0.458574 0.00971688 0.
0.465814 0.0114973 0.
0.472402 0.0140037 0.
0.478025 0.0167026 0.
0.483558 0.0195734 0.
0.488436 0.0223147 0.
0.493158 0.0250897 0.
0.497577 0.027736 0.
0.502009 0.0303335 0.
0.506229 0.0327961 0.
0.510353 0.0351936 0.
0.514133 0.0375656 0.
0.517759 0.03973 0.
0.521328 0.0416701 0.
0.524765 0.0433351 0.
0.528161 0.0447788 0.
0.531293 0.0461045 0.
0.534295 0.0473213 0.
0.537254 0.0483956 0.
0.540085 0.0491844 0.
0.542847 0.0499041 0.
0.545419 0.0504272 0.
0.547883 0.0509028 0.
0.550307 0.051347 0.
0.552598 0.0516501 0.
0.554911 0.0519575 0.
0.55711 0.0521246 0.
0.559286 0.0522848 0.
0.561444 0.0524329 0.
0.563537 0.052517 0.
0.565631 0.0526015 0.
0.567706 0.0526706 0.
0.569766 0.0527291 0.
0.571827 0.0527879 0.
0.573859 0.0528217 0.
0.575886 0.0528505 0.
0.577912 0.052878 0.
0.579928 0.0528896 0.
0.581943 0.0529013 0.
0.583957 0.0529117 0.
0.585966 0.0529195 0.
0.587975 0.0529274 0.
0.589982 0.0529334 0.
0.591986 0.0529378 0.
0.593991 0.0529422 0.
0.595995 0.0529444 0.
0.597998 0.0529459 0.
0.600001 0.0529475 0.
0.602004 0.0529452 0.
0.604008 0.052943 0.
0.606012 0.0529399 0.
0.608018 0.0529338 0.
0.610024 0.0529278 0.
0.612033 0.0529197 0.
0.614045 0.052909 0.
0.616057 0.0528983 0.
0.618075 0.0528851 0.
0.620095 0.0528706 0.
0.622115 0.0528562 0.
0.624149 0.0528208 0.
0.626185 0.0527838 0.
0.628228 0.052739 0.
0.630306 0.0526599 0.
0.632384 0.0525815 0.
0.634477 0.0524967 0.
0.636587 0.0524011 0.
0.638696 0.0523059 0.
0.640919 0.0520997 0.
0.643161 0.0518828 0.
0.645426 0.051659 0.
0.647768 0.0512992 0.
0.650089 0.0509419 0.
0.652579 0.0503469 0.
0.655061 0.0497533 0.
0.657831 0.0491006 0.
0.66072 0.0483327 0.
0.663747 0.0473292 0.
0.666807 0.0461455 0.
0.669989 0.0448612 0.
0.673284 0.04341 0.
0.676735 0.0415575 0.
0.680129 0.039608 0.
0.683778 0.0374878 0.
0.687649 0.0353316 0.
0.691723 0.0330261 0.
0.695794 0.0305444 0.
0.700068 0.027839 0.
0.704548 0.0251683 0.
0.709423 0.0224696 0.
0.71433 0.0196182 0.
0.719815 0.0166806 0.
0.725448 0.013979 0.
0.732188 0.0114733 0.
0.739472 0.00959777 0.
0.747254 0.00769609 0.
0.755018 0.00696025 0.
0.762956 0.00970964 0.
0.435556 0.00959539 0.
0.443011 0.00760203 0.
0.450571 0.00853469 0.
0.458072 0.0101965 0.
0.465121 0.0119342 0.
0.471586 0.0143738 0.
0.477158 0.0170419 0.
0.482634 0.0199 0.
0.487479 0.0226554 0.
0.492171 0.0254185 0.
0.496586 0.0280926 0.
0.500994 0.0306981 0.
0.505216 0.0332148 0.
0.509309 0.0356203 0.
0.513107 0.0380515 0.
0.516745 0.040306 0.
0.52033 0.042369 0.
0.523813 0.0441451 0.
0.527221 0.0456538 0.
0.530397 0.0470757 0.
0.533545 0.0484785 0.
0.536562 0.0496297 0.
0.539463 0.0505216 0.
0.542257 0.0513145 0.
0.544971 0.0519688 0.
0.5475 0.0525179 0.
0.550008 0.0530563 0.
0.552368 0.0533998 0.
0.554753 0.0537489 0.
0.55699 0.0539593 0.
0.559179 0.0541613 0.
0.561354 0.0543494 0.
0.56346 0.0544421 0.
0.565568 0.0545353 0.
0.567655 0.0546144 0.
0.569726 0.0546839 0.
0.571797 0.0547538 0.
0.573835 0.0547944 0.
0.575866 0.0548289 0.
0.577896 0.0548617 0.
0.579915 0.0548753 0.
0.581933 0.0548889 0.
0.583949 0.0549013 0.
0.585959 0.0549108 0.
0.58797 0.0549203 0.
0.589978 0.0549275 0.
0.591984 0.0549327 0.
0.593989 0.054938 0.
0.595993 0.0549405 0.
0.597997 0.0549423 0.
0.600001 0.0549441 0.
0.602005 0.0549413 0.
0.604009 0.0549386 0.
0.606014 0.0549349 0.
0.608021 0.0549277 0.
0.610029 0.0549206 0.
0.612039 0.0549108 0.
0.614054 0.0548978 0.
0.616068 0.0548849 0.
0.618089 0.0548694 0.
0.620112 0.0548526 0.
0.622135 0.0548358 0.
0.624176 0.0547936 0.
0.626218 0.0547497 0.
0.628269 0.0546959 0.
0.63036 0.054602 0.
0.63245 0.054509 0.
0.634556 0.0544132 0.
0.63668 0.0543098 0.
0.638802 0.0542068 0.
0.641053 0.0539398 0.
0.643317 0.0536638 0.
0.645625 0.0533883 0.
0.648029 0.0529956 0.
0.650427 0.0525915 0.
0.653041 0.0518879 0.
0.655609 0.0512132 0.
0.658446 0.0504516 0.
0.661331 0.0496638 0.
0.664498 0.0484852 0.
0.667644 0.0471944 0.
0.670906 0.0457456 0.
0.674227 0.0441925 0.
0.677705 0.0422462 0.
0.681185 0.0401482 0.
0.684856 0.0379894 0.
0.688729 0.0357748 0.
0.69277 0.0334272 0.
0.696841 0.0308879 0.
0.701074 0.0281755 0.
0.705576 0.0254929 0.
0.710403 0.0227755 0.
0.715284 0.0199069 0.
0.720714 0.0170054 0.
0.726256 0.0143455 0.
0.732856 0.0119072 0.
0.739992 0.0100754 0.
0.747505 0.00828341 0.
0.754867 0.00761921 0.
0.762245 0.0103523 0.
0.436357 0.0102376 0.
0.443292 0.00825916 0.
0.450526 0.00919165 0.
0.457784 0.0107401 0.
0.464627 0.0124419 0.
0.470931 0.0148261 0.
0.476463 0.0174664 0.
0.481835 0.0202938 0.
0.486629 0.0230536 0.
0.491291 0.0258056 0.
0.495701 0.0285012 0.
0.500067 0.031112 0.
0.504234 0.0336418 0.
0.508296 0.036057 0.
0.512119 0.0385294 0.
0.515756 0.0408715 0.
0.519331 0.0430192 0.
0.522842 0.0448961 0.
0.526241 0.0464987 0.
0.529494 0.0479976 0.
0.532747 0.0495298 0.
0.535749 0.0507141 0.
0.538758 0.0517885 0.
0.541633 0.0526926 0.
0.54451 0.0534949 0.
0.547098 0.0541163 0.
0.549678 0.0547487 0.
0.5521 0.0551201 0.
0.554526 0.0555059 0.
0.5568 0.055765 0.
0.559006 0.0560046 0.
0.561207 0.0562319 0.
0.563336 0.0563349 0.
0.565468 0.0564391 0.
0.567577 0.0565315 0.
0.56966 0.0566152 0.
0.571744 0.0566998 0.
0.573793 0.0567512 0.
0.575833 0.0567951 0.
0.577872 0.0568372 0.
0.579893 0.0568532 0.
0.581915 0.0568693 0.
0.583934 0.0568841 0.
0.585948 0.0568964 0.
0.587962 0.0569087 0.
0.589972 0.0569178 0.
0.591979 0.0569244 0.
0.593986 0.056931 0.
0.595991 0.056934 0.
0.597996 0.0569361 0.
0.600001 0.0569381 0.
0.602006 0.0569345 0.
0.604012 0.056931 0.
0.606018 0.0569261 0.
0.608028 0.0569171 0.
0.610038 0.0569081 0.
0.612051 0.0568957 0.
0.614069 0.0568794 0.
0.616087 0.0568631 0.
0.618112 0.0568448 0.
0.620139 0.0568255 0.
0.622165 0.0568062 0.
0.624219 0.0567505 0.
0.626274 0.0566931 0.
0.628339 0.056625 0.
0.630444 0.0565165 0.
0.632547 0.0564091 0.
0.634676 0.056298 0.
0.636825 0.0561809 0.
0.638971 0.056065 0.
0.641252 0.0557412 0.
0.64353 0.0554152 0.
0.645873 0.0550933 0.
0.64831 0.0546801 0.
0.6508 0.0542173 0.
0.653532 0.0534099 0.
0.656231 0.0526286 0.
0.659173 0.0516951 0.
0.662124 0.0507574 0.
0.665279 0.0495561 0.
0.668514 0.0481731 0.
0.671824 0.0465987 0.
0.67521 0.0448793 0.
0.678673 0.0428898 0.
0.682215 0.0406887 0.
0.685882 0.0384917 0.
0.689743 0.0362351 0.
0.693734 0.0338636 0.
0.697804 0.0312676 0.
0.701997 0.0285602 0.
0.706481 0.0258806 0.
0.71127 0.0231483 0.
0.716105 0.0202762 0.
0.721468 0.0174107 0.
0.726931 0.0147873 0.
0.733345 0.0124136 0.
0.740275 0.010625 0.
0.74753 0.00894575 0.
0.754499 0.00828968 0.
0.761392 0.0108479 0.
0.437275 0.0108128 0.
0.443801 0.00894543 0.
0.450712 0.00991015 0.
0.457683 0.0113437 0.
0.464319 0.0130231 0.
0.470446 0.0153604 0.
0.475912 0.0179718 0.
0.481155 0.0207621 0.
0.485883 0.0235133 0.
0.490505 0.0262508 0.
0.494894 0.0289556 0.
0.499189 0.0315621 0.
0.503303 0.0340886 0.
0.507343 0.0365188 0.
0.511157 0.0390124 0.
0.514772 0.0414112 0.
0.518358 0.0436348 0.
0.521864 0.0456068 0.
0.52526 0.0473066 0.
0.528576 0.0488636 0.
0.531826 0.0504172 0.
0.534904 0.0517464 0.
0.538007 0.0529887 0.
0.540987 0.0540195 0.
0.543984 0.0549485 0.
0.54661 0.0555972 0.
0.549264 0.0562619 0.
0.551746 0.056733 0.
0.554207 0.0572139 0.
0.556542 0.0575484 0.
0.558786 0.0578272 0.
0.56103 0.0580986 0.
0.563192 0.0582164 0.
0.565357 0.058335 0.
0.567493 0.0584432 0.
0.56959 0.0585427 0.
0.571688 0.0586431 0.
0.573748 0.0587065 0.
0.575798 0.0587603 0.
0.577847 0.0588122 0.
0.579872 0.0588307 0.
0.581897 0.0588493 0.
0.583919 0.0588667 0.
0.585936 0.0588818 0.
0.587953 0.0588969 0.
0.589965 0.0589081 0.
0.591974 0.058916 0.
0.593983 0.0589239 0.
0.595989 0.0589275 0.
0.597995 0.0589298 0.
0.600001 0.0589321 0.
0.602008 0.0589277 0.
0.604015 0.0589232 0.
0.606023 0.0589173 0.
0.608035 0.0589064 0.
0.610047 0.0588955 0.
0.612063 0.0588805 0.
0.614085 0.0588607 0.
0.616107 0.0588409 0.
0.618135 0.0588198 0.
0.620166 0.0587979 0.
0.622197 0.058776 0.
0.624265 0.0587055 0.
0.626334 0.0586334 0.
0.628415 0.0585495 0.
0.630535 0.0584252 0.
0.632654 0.0583021 0.
0.634814 0.0581711 0.
0.636998 0.0580333 0.
0.639186 0.0578882 0.
0.641517 0.0575055 0.
0.64384 0.0571254 0.
0.646276 0.0567208 0.
0.648777 0.0562308 0.
0.65134 0.0556733 0.
0.654079 0.0548557 0.
0.65689 0.053976 0.
0.659902 0.0528888 0.
0.66296 0.0517879 0.
0.666144 0.0504991 0.
0.669406 0.049073 0.
0.672748 0.0474172 0.
0.676202 0.0455253 0.
0.679653 0.043481 0.
0.683208 0.0412317 0.
0.686881 0.0389959 0.
0.690707 0.0367162 0.
0.694632 0.0343329 0.
0.698687 0.0316977 0.
0.702848 0.0289998 0.
0.70729 0.0263216 0.
0.712037 0.0235787 0.
0.716795 0.0207281 0.
0.722067 0.0179008 0.
0.727471 0.0153032 0.
0.733659 0.0129892 0.
0.740355 0.0112426 0.
0.74731 0.0096782 0.
0.753945 0.00897432 0.
0.760407 0.0112548 0.
0.438273 0.0113125 0.
0.44445 0.00968621 0.
0.451021 0.0106598 0.
0.457718 0.011992 0.
0.464119 0.0136585 0.
0.470068 0.0159573 0.
0.475429 0.0185301 0.
0.480548 0.021282 0.
0.485221 0.0240225 0.
0.489774 0.0267377 0.
0.49414 0.0294477 0.
0.498365 0.0320455 0.
0.502425 0.0345631 0.
0.506424 0.0370038 0.
0.510214 0.0394992 0.
0.513829 0.0419447 0.
0.517391 0.0442292 0.
0.520875 0.0462769 0.
0.524275 0.0480764 0.
0.527619 0.0496643 0.
0.530867 0.0512615 0.
0.534037 0.0527314 0.
0.537209 0.0541003 0.
0.540241 0.0552282 0.
0.543246 0.0562294 0.
0.54604 0.057002 0.
0.548812 0.0577434 0.
0.551387 0.058329 0.
0.553884 0.0589048 0.
0.556281 0.0593275 0.
0.558564 0.0596453 0.
0.56085 0.0599587 0.
0.563045 0.0600901 0.
0.565242 0.0602229 0.
0.567405 0.0603485 0.
0.569514 0.0604626 0.
0.571624 0.0605776 0.
0.573696 0.0606541 0.
0.575758 0.0607201 0.
0.577819 0.0607845 0.
0.579847 0.0608054 0.
0.581876 0.0608263 0.
0.583902 0.0608463 0.
0.585922 0.0608646 0.
0.587942 0.0608828 0.
0.589957 0.0608964 0.
0.591968 0.0609059 0.
0.593979 0.0609155 0.
0.595987 0.0609197 0.
0.597994 0.0609223 0.
0.600001 0.0609249 0.
0.60201 0.0609194 0.
0.604019 0.0609138 0.
0.606029 0.0609066 0.
0.608044 0.0608934 0.
0.610059 0.0608802 0.
0.612079 0.0608624 0.
0.614104 0.060839 0.
0.61613 0.0608157 0.
0.618163 0.0607909 0.
0.620198 0.0607654 0.
0.622234 0.0607398 0.
0.624318 0.0606527 0.
0.626401 0.0605646 0.
0.628497 0.0604647 0.
0.630631 0.0603264 0.
0.632764 0.0601895 0.
0.634955 0.0600373 0.
0.637172 0.0598812 0.
0.639407 0.0597037 0.
0.641787 0.0592633 0.
0.644156 0.0588289 0.
0.646699 0.0583301 0.
0.649284 0.0577519 0.
0.651981 0.0570344 0.
0.654781 0.0561133 0.
0.657644 0.0551457 0.
0.660657 0.0540124 0.
0.663815 0.0527856 0.
0.667035 0.0514155 0.
0.67034 0.0498795 0.
0.673697 0.0481564 0.
0.677175 0.0461617 0.
0.680645 0.0440309 0.
0.684179 0.0417683 0.
0.687835 0.0395144 0.
0.691626 0.0372209 0.
0.695502 0.0348171 0.
0.699506 0.032171 0.
0.703641 0.0294767 0.
0.708021 0.0268069 0.
0.712715 0.0240633 0.
0.717411 0.0212375 0.
0.722568 0.0184484 0.
0.727915 0.0158776 0.
0.733878 0.0136145 0.
0.740329 0.0119018 0.
0.746959 0.0104493 0.
0.753302 0.00970617 0.
0.759388 0.0116487 0.
0.439273 0.0118026 0.
0.445142 0.0104915 0.
0.451373 0.0114332 0.
0.457805 0.0126758 0.
0.463993 0.0143383 0.
0.469762 0.0166009 0.
0.475011 0.0191329 0.
0.480011 0.0218538 0.
0.484631 0.0245789 0.
0.489111 0.0272743 0.
0.493437 0.029976 0.
0.497584 0.0325623 0.
0.501605 0.0350738 0.
0.505546 0.0375171 0.
0.509308 0.0400012 0.
0.512913 0.0424833 0.
0.516432 0.0448188 0.
0.519901 0.046929 0.
0.523297 0.0488025 0.
0.526642 0.0504519 0.
0.52991 0.0520916 0.
0.533157 0.0536655 0.
0.536322 0.0550744 0.
0.539414 0.0563224 0.
0.542483 0.0574638 0.
0.545447 0.0583916 0.
0.548336 0.0592003 0.
0.551013 0.0598852 0.
0.553502 0.0605173 0.
0.555973 0.061027 0.
0.558303 0.061375 0.
0.560648 0.0617233 0.
0.562881 0.0618995 0.
0.565108 0.0620753 0.
0.5673 0.0622371 0.
0.569421 0.0623654 0.
0.571544 0.0624948 0.
0.573632 0.0625883 0.
0.575709 0.0626715 0.
0.577786 0.0627531 0.
0.579818 0.0627764 0.
0.581851 0.0627996 0.
0.58388 0.0628223 0.
0.585904 0.0628442 0.
0.587927 0.062866 0.
0.589946 0.0628824 0.
0.591959 0.062894 0.
0.593973 0.0629056 0.
0.595984 0.0629104 0.
0.597993 0.0629133 0.
0.600002 0.0629161 0.
0.602013 0.0629093 0.
0.604024 0.0629025 0.
0.606037 0.0628936 0.
0.608056 0.0628777 0.
0.610074 0.0628618 0.
0.612098 0.0628407 0.
0.614127 0.0628137 0.
0.616157 0.0627868 0.
0.618196 0.0627568 0.
0.620239 0.0627256 0.
0.622282 0.062694 0.
0.624383 0.0625859 0.
0.626482 0.0624773 0.
0.628596 0.0623577 0.
0.630745 0.0622051 0.
0.632892 0.0620538 0.
0.635145 0.0618436 0.
0.637427 0.0616223 0.
0.639732 0.0613807 0.
0.642148 0.060921 0.
0.644538 0.0604666 0.
0.647151 0.0598943 0.
0.649805 0.0592473 0.
0.65264 0.058363 0.
0.655503 0.0573422 0.
0.658475 0.0562199 0.
0.661478 0.0550339 0.
0.664702 0.0537367 0.
0.667957 0.0523031 0.
0.671297 0.0506446 0.
0.674659 0.0488338 0.
0.678123 0.0467867 0.
0.681599 0.0445855 0.
0.685136 0.0423089 0.
0.688761 0.0400509 0.
0.692511 0.0377534 0.
0.696342 0.0353219 0.
0.700273 0.0326876 0.
0.704383 0.0299912 0.
0.708693 0.0273316 0.
0.713307 0.0246038 0.
0.717957 0.0218032 0.
0.722989 0.0190498 0.
0.728279 0.0165036 0.
0.734041 0.0142824 0.
0.74024 0.0125963 0.
0.746599 0.0112446 0.
0.752648 0.0104951 0.
0.758396 0.012077 0.
0.440262 0.0123174 0.
0.445848 0.0113293 0.
0.451804 0.0122308 0.
0.458009 0.0134091 0.
0.463996 0.0150764 0.
0.469545 0.0173028 0.
0.474718 0.019807 0.
0.479578 0.0225015 0.
0.484128 0.0252015 0.
0.488545 0.0278793 0.
0.492809 0.0305635 0.
0.496876 0.0331358 0.
0.500852 0.0356377 0.
0.504728 0.0380697 0.
0.50845 0.0405356 0.
0.51202 0.043034 0.
0.515506 0.0454054 0.
0.518937 0.0475645 0.
0.522329 0.0495106 0.
0.52568 0.0512391 0.
0.528966 0.0528946 0.
0.532228 0.0545017 0.
0.535402 0.0559761 0.
0.538565 0.0573702 0.
0.541686 0.058629 0.
0.54478 0.059709 0.
0.547658 0.0605351 0.
0.550414 0.0613344 0.
0.553008 0.062058 0.
0.555632 0.0626972 0.
0.558025 0.0630893 0.
0.560438 0.0634836 0.
0.562715 0.0637042 0.
0.564972 0.0639236 0.
0.567194 0.0641252 0.
0.569328 0.0642678 0.
0.571463 0.0644115 0.
0.573566 0.0645219 0.
0.57566 0.0646223 0.
0.577753 0.0647215 0.
0.579789 0.0647473 0.
0.581826 0.0647729 0.
0.583859 0.0647983 0.
0.585886 0.0648237 0.
0.587913 0.0648492 0.
0.589935 0.0648684 0.
0.591951 0.064882 0.
0.593968 0.0648956 0.
0.59598 0.0649011 0.
0.597991 0.0649043 0.
0.600003 0.0649074 0.
0.602016 0.0648992 0.
0.60403 0.0648911 0.
0.606046 0.0648806 0.
0.608067 0.064862 0.
0.610089 0.0648434 0.
0.612117 0.0648191 0.
0.61415 0.0647884 0.
0.616184 0.0647577 0.
0.618229 0.0647226 0.
0.620279 0.0646858 0.
0.622331 0.0646475 0.
0.624448 0.0645184 0.
0.626565 0.0643891 0.
0.628696 0.0642501 0.
0.63086 0.064083 0.
0.633022 0.0639173 0.
0.635344 0.063642 0.
0.637697 0.0633519 0.
0.640087 0.0630386 0.
0.642577 0.0625344 0.
0.645064 0.0620139 0.
0.647786 0.0613044 0.
0.650473 0.0605861 0.
0.653352 0.0596172 0.
0.656269 0.0585114 0.
0.659328 0.0572646 0.
0.662406 0.0559943 0.
0.665623 0.0546412 0.
0.668905 0.0531303 0.
0.672247 0.0513952 0.
0.675615 0.0494791 0.
0.679058 0.0473917 0.
0.68252 0.0451551 0.
0.686041 0.0428775 0.
0.689645 0.0406166 0.
0.693357 0.0383225 0.
0.697123 0.035872 0.
0.700975 0.0332551 0.
0.70503 0.030572 0.
0.70928 0.0279165 0.
0.713794 0.0252155 0.
0.718397 0.0224426 0.
0.723306 0.0197213 0.
0.72851 0.0172011 0.
0.734093 0.0150047 0.
0.74006 0.0133349 0.
0.746171 0.0120724 0.
0.751974 0.0113175 0.
0.757427 0.0125477 0.
0.441271 0.0128778 0.
0.44662 0.012209 0.
0.452377 0.0130707 0.
0.458369 0.0142022 0.
0.464132 0.015884 0.
0.469474 0.0180877 0.
0.474552 0.0205705 0.
0.479262 0.0232347 0.
0.483737 0.0259073 0.
0.488083 0.0285617 0.
0.492256 0.0312178 0.
0.496248 0.0337733 0.
0.500163 0.0362594 0.
0.503964 0.0386672 0.
0.507642 0.0411125 0.
0.511172 0.0436121 0.
0.514607 0.0459989 0.
0.518013 0.0482023 0.
0.521402 0.0502136 0.
0.524732 0.0520032 0.
0.52802 0.0536699 0.
0.53128 0.0553065 0.
0.534478 0.0568575 0.
0.537681 0.0583304 0.
0.540838 0.0596594 0.
0.54394 0.0608187 0.
0.546864 0.0617681 0.
0.549762 0.062751 0.
0.552468 0.0635711 0.
0.555252 0.0643496 0.
0.557719 0.0647841 0.
0.560163 0.0652016 0.
0.562484 0.0654687 0.
0.564774 0.0657369 0.
0.567038 0.0659882 0.
0.569187 0.0661386 0.
0.571339 0.0662899 0.
0.573462 0.0664177 0.
0.575572 0.0665397 0.
0.577684 0.0666616 0.
0.579734 0.0666971 0.
0.581783 0.0667317 0.
0.583827 0.0667647 0.
0.585858 0.0667935 0.
0.58789 0.0668224 0.
0.589916 0.0668446 0.
0.591937 0.066861 0.
0.593958 0.0668775 0.
0.595974 0.0668841 0.
0.59799 0.0668877 0.
0.600005 0.0668913 0.
0.602023 0.066881 0.
0.604041 0.0668707 0.
0.606061 0.0668577 0.
0.608088 0.0668356 0.
0.610115 0.0668137 0.
0.612148 0.0667857 0.
0.614187 0.0667513 0.
0.616226 0.0667169 0.
0.618285 0.0666706 0.
0.620351 0.0666209 0.
0.62242 0.0665678 0.
0.624558 0.066415 0.
0.626693 0.0662632 0.
0.628846 0.0661062 0.
0.63103 0.0659307 0.
0.633208 0.0657567 0.
0.635593 0.0654045 0.
0.638001 0.0650496 0.
0.640474 0.0646748 0.
0.643033 0.0641344 0.
0.645639 0.0635236 0.
0.648458 0.0626734 0.
0.651257 0.0618095 0.
0.654187 0.0607322 0.
0.657113 0.0595812 0.
0.660206 0.0582724 0.
0.663351 0.0569325 0.
0.666576 0.0554969 0.
0.66986 0.0539039 0.
0.673199 0.0521117 0.
0.67656 0.050116 0.
0.679966 0.0479984 0.
0.683403 0.0457502 0.
0.686896 0.0434822 0.
0.690478 0.0412203 0.
0.694142 0.0389364 0.
0.697855 0.0364683 0.
0.701618 0.0338755 0.
0.705599 0.0312194 0.
0.709774 0.0285734 0.
0.714181 0.0259062 0.
0.718706 0.0231706 0.
0.723477 0.02048 0.
0.728581 0.0179862 0.
0.733979 0.0158017 0.
0.739744 0.0141328 0.
0.74562 0.0129315 0.
0.751228 0.0121802 0.
0.756443 0.0130895 0.
0.442323 0.0135119 0.
0.447491 0.0131274 0.
0.453079 0.0139486 0.
0.458857 0.0150544 0.
0.464381 0.0167619 0.
0.469558 0.0189556 0.
0.474485 0.021416 0.
0.479061 0.0240515 0.
0.483457 0.0266951 0.
0.48771 0.0293199 0.
0.491772 0.0319411 0.
0.495691 0.0344736 0.
0.499524 0.0369335 0.
0.50325 0.0393112 0.
0.506874 0.0417312 0.
0.51035 0.0442117 0.
0.513744 0.0466114 0.
0.517123 0.0488502 0.
0.520484 0.0509033 0.
0.523793 0.0527512 0.
0.527083 0.0544412 0.
0.530335 0.056107 0.
0.533549 0.0577117 0.
0.536775 0.0592196 0.
0.539918 0.0605921 0.
0.543036 0.0618397 0.
0.546041 0.0629397 0.
0.549032 0.0640733 0.
0.551836 0.0649843 0.
0.554626 0.0657875 0.
0.557183 0.0663146 0.
0.559721 0.0668202 0.
0.562153 0.0671759 0.
0.564508 0.0675125 0.
0.566848 0.0678352 0.
0.569022 0.0679949 0.
0.5712 0.0681556 0.
0.573348 0.068303 0.
0.575477 0.0684496 0.
0.577608 0.0685967 0.
0.579674 0.0686442 0.
0.581737 0.0686888 0.
0.583794 0.0687304 0.
0.58583 0.0687626 0.
0.587865 0.0687949 0.
0.589896 0.0688204 0.
0.591922 0.0688396 0.
0.593947 0.0688589 0.
0.595968 0.0688666 0.
0.597988 0.0688708 0.
0.600007 0.0688749 0.
0.60203 0.0688624 0.
0.604052 0.0688499 0.
0.606077 0.0688343 0.
0.60811 0.0688087 0.
0.610142 0.0687832 0.
0.612181 0.0687514 0.
0.614225 0.0687131 0.
0.616269 0.0686748 0.
0.618345 0.0686159 0.
0.620429 0.0685516 0.
0.622519 0.0684809 0.
0.62468 0.0683013 0.
0.626839 0.0681232 0.
0.629024 0.0679451 0.
0.631241 0.0677579 0.
0.633455 0.06757 0.
0.635911 0.0671054 0.
0.638367 0.0666541 0.
0.64095 0.0661871 0.
0.643582 0.0656129 0.
0.646291 0.0649162 0.
0.649161 0.063984 0.
0.652067 0.0629819 0.
0.65505 0.0618077 0.
0.658047 0.0605488 0.
0.66113 0.0592275 0.
0.664308 0.057835 0.
0.667531 0.0563234 0.
0.670817 0.0546433 0.
0.674137 0.0528026 0.
0.677485 0.0507622 0.
0.680856 0.0486157 0.
0.684258 0.0463719 0.
0.68771 0.0441228 0.
0.691257 0.0418672 0.
0.694867 0.0395918 0.
0.698521 0.0371241 0.
0.702225 0.0345449 0.
0.706101 0.0319323 0.
0.710181 0.029304 0.
0.714474 0.0266767 0.
0.718907 0.0239838 0.
0.723531 0.02132 0.
0.728517 0.0188547 0.
0.733722 0.0166762 0.
0.739278 0.014993 0.
0.744959 0.0138244 0.
0.750402 0.0130862 0.
0.755421 0.0137122 0.
0.44339 0.0142599 0.
0.448402 0.0140749 0.
0.453833 0.0148484 0.
0.459389 0.0159555 0.
0.464696 0.0176946 0.
0.46972 0.0198822 0.
0.474476 0.0223174 0.
0.478941 0.0249351 0.
0.483249 0.0275462 0.
0.487392 0.0301354 0.
0.491346 0.0327208 0.
0.495181 0.0352222 0.
0.498911 0.0376442 0.
0.502568 0.0399941 0.
0.506128 0.0423818 0.
0.509555 0.0448391 0.
0.512917 0.0472448 0.
0.516248 0.0495068 0.
0.519579 0.0515912 0.
0.522873 0.0534888 0.
0.526148 0.0552207 0.
0.529395 0.0568955 0.
0.532627 0.0585384 0.
0.535833 0.060072 0.
0.538989 0.0615037 0.
0.542115 0.0628166 0.
0.54517 0.0640296 0.
0.548178 0.0651988 0.
0.551043 0.0661992 0.
0.55389 0.0671155 0.
0.556601 0.0678158 0.
0.559249 0.0684169 0.
0.56181 0.0688719 0.
0.564234 0.0692778 0.
0.566656 0.069681 0.
0.568856 0.0698487 0.
0.571058 0.0700159 0.
0.57323 0.0701807 0.
0.575378 0.0703499 0.
0.577527 0.0705198 0.
0.579609 0.0705822 0.
0.581686 0.0706397 0.
0.583756 0.0706925 0.
0.585797 0.0707279 0.
0.587838 0.0707635 0.
0.589873 0.070792 0.
0.591904 0.0708142 0.
0.593935 0.0708364 0.
0.595961 0.0708453 0.
0.597986 0.0708499 0.
0.600011 0.0708546 0.
0.602038 0.0708398 0.
0.604066 0.0708251 0.
0.606096 0.0708067 0.
0.608134 0.0707774 0.
0.610173 0.0707482 0.
0.612218 0.0707127 0.
0.614268 0.0706707 0.
0.616319 0.0706287 0.
0.61841 0.070554 0.
0.620511 0.0704723 0.
0.622622 0.0703814 0.
0.624806 0.0701782 0.
0.626985 0.0699777 0.
0.629204 0.0697811 0.
0.631455 0.0695832 0.
0.633719 0.0693643 0.
0.636236 0.0687896 0.
0.638742 0.0682413 0.
0.641463 0.0676733 0.
0.644205 0.0670251 0.
0.64706 0.0661607 0.
0.64996 0.0651556 0.
0.65292 0.0640743 0.
0.655931 0.0628506 0.
0.658999 0.0614851 0.
0.662093 0.0601196 0.
0.665283 0.0586861 0.
0.668495 0.057115 0.
0.671765 0.0553707 0.
0.67507 0.0534779 0.
0.678376 0.0514204 0.
0.681724 0.0492514 0.
0.685094 0.0470181 0.
0.688495 0.0447907 0.
0.691991 0.0425538 0.
0.695549 0.0402828 0.
0.699134 0.037831 0.
0.702782 0.035268 0.
0.706571 0.0326913 0.
0.710523 0.0300947 0.
0.71471 0.0275046 0.
0.719028 0.0248628 0.
0.72352 0.0222258 0.
0.728354 0.0197846 0.
0.733403 0.0176071 0.
0.738735 0.015901 0.
0.744223 0.0147482 0.
0.749524 0.014039 0.
0.754391 0.0144353 0.
0.444436 0.0151011 0.
0.449318 0.0150451 0.
0.454587 0.0157675 0.
0.459921 0.0168955 0.
0.46504 0.0186697 0.
0.469917 0.0208559 0.
0.474525 0.0232758 0.
0.478887 0.025875 0.
0.483077 0.0284475 0.
0.487102 0.0309979 0.
0.490947 0.0335467 0.
0.494688 0.0360099 0.
0.498322 0.0383931 0.
0.501911 0.0407156 0.
0.505409 0.0430687 0.
0.508787 0.0454977 0.
0.512106 0.0478977 0.
0.515398 0.0501749 0.
0.518697 0.0522859 0.
0.52197 0.0542274 0.
0.525229 0.0560031 0.
0.528478 0.0576808 0.
0.531694 0.0593325 0.
0.534875 0.0609044 0.
0.538045 0.0623921 0.
0.541166 0.0637496 0.
0.544246 0.0650206 0.
0.547278 0.0662323 0.
0.550234 0.0673757 0.
0.553133 0.0683941 0.
0.555982 0.0692769 0.
0.558711 0.0699435 0.
0.561366 0.0704804 0.
0.563821 0.0709252 0.
0.566298 0.071377 0.
0.56858 0.0715982 0.
0.570865 0.0718204 0.
0.573101 0.0720319 0.
0.575267 0.0722244 0.
0.577435 0.0724179 0.
0.579534 0.0725022 0.
0.581626 0.0725794 0.
0.58371 0.0726491 0.
0.585757 0.0726877 0.
0.587804 0.0727265 0.
0.589847 0.0727583 0.
0.591884 0.0727835 0.
0.593921 0.0728088 0.
0.595953 0.0728189 0.
0.597984 0.0728242 0.
0.600015 0.0728293 0.
0.602049 0.0728122 0.
0.604082 0.072795 0.
0.606119 0.0727738 0.
0.608164 0.0727403 0.
0.610209 0.0727069 0.
0.612261 0.0726673 0.
0.61432 0.0726215 0.
0.616379 0.0725757 0.
0.618487 0.0724775 0.
0.620604 0.0723697 0.
0.622737 0.0722491 0.
0.624952 0.0720168 0.
0.62716 0.0717877 0.
0.629448 0.0715448 0.
0.631773 0.0713014 0.
0.634126 0.0710077 0.
0.636664 0.0703802 0.
0.639174 0.069775 0.
0.64202 0.0691244 0.
0.644868 0.0684032 0.
0.647847 0.0673685 0.
0.650805 0.0662637 0.
0.653821 0.0650785 0.
0.656851 0.063806 0.
0.659953 0.0623969 0.
0.663073 0.0609867 0.
0.666257 0.0595054 0.
0.669472 0.0578732 0.
0.672701 0.0560952 0.
0.675981 0.0541564 0.
0.67926 0.0520836 0.
0.682563 0.0499098 0.
0.685902 0.0476959 0.
0.689262 0.0454855 0.
0.692694 0.0432759 0.
0.696192 0.0410157 0.
0.699705 0.0385843 0.
0.703291 0.0360447 0.
0.707008 0.0334969 0.
0.710836 0.030934 0.
0.714901 0.0283846 0.
0.719108 0.0257916 0.
0.723476 0.0231815 0.
0.728128 0.020765 0.
0.733041 0.018584 0.
0.738185 0.0168464 0.
0.743466 0.0156925 0.
0.748615 0.0150243 0.
0.753363 0.0152612 0.
0.445493 0.0159983 0.
0.450264 0.0160356 0.
0.455372 0.0167188 0.
0.460504 0.0178871 0.
0.46546 0.0197067 0.
0.470186 0.021893 0.
0.474654 0.0243081 0.
0.478894 0.026879 0.
0.482953 0.0294114 0.
0.486859 0.0319226 0.
0.490601 0.034433 0.
0.494233 0.0368538 0.
0.497785 0.0391991 0.
0.501303 0.0414902 0.
0.504727 0.0438034 0.
0.508057 0.046198 0.
0.511324 0.0485834 0.
0.514583 0.050865 0.
0.517836 0.0529907 0.
0.521092 0.0549703 0.
0.524325 0.0567816 0.
0.527556 0.0584578 0.
0.530751 0.0601221 0.
0.533919 0.0617272 0.
0.537078 0.0632395 0.
0.540203 0.0646456 0.
0.543308 0.0659803 0.
0.546363 0.0672383 0.
0.549387 0.0684777 0.
0.552326 0.0695741 0.
0.555238 0.0705754 0.
0.558 0.0713129 0.
0.560783 0.0720065 0.
0.563324 0.0725177 0.
0.565887 0.0730356 0.
0.568282 0.0733326 0.
0.57066 0.0736168 0.
0.57297 0.0738817 0.
0.575154 0.0740976 0.
0.577342 0.0743148 0.
0.579458 0.0744213 0.
0.581566 0.0745184 0.
0.583663 0.0746056 0.
0.585717 0.0746475 0.
0.587771 0.0746895 0.
0.58982 0.0747245 0.
0.591863 0.0747528 0.
0.593906 0.0747812 0.
0.595945 0.0747925 0.
0.597982 0.0747984 0.
0.600019 0.0748041 0.
0.602059 0.0747845 0.
0.604099 0.074765 0.
0.606142 0.0747408 0.
0.608194 0.0747031 0.
0.610246 0.0746655 0.
0.612306 0.0746218 0.
0.614373 0.0745722 0.
0.61644 0.0745227 0.
0.618565 0.0743997 0.
0.620699 0.0742656 0.
0.622856 0.0741147 0.
0.6251 0.073853 0.
0.627338 0.0735951 0.
0.629713 0.0732951 0.
0.63213 0.0729906 0.
0.634614 0.0725837 0.
0.637243 0.0718716 0.
0.639876 0.0711711 0.
0.642757 0.0704425 0.
0.645641 0.0696529 0.
0.648674 0.0685118 0.
0.651693 0.0673155 0.
0.654743 0.0660445 0.
0.657798 0.0647081 0.
0.660907 0.0632751 0.
0.664046 0.0618361 0.
0.667222 0.0603093 0.
0.670426 0.058619 0.
0.673642 0.0568065 0.
0.676878 0.0548429 0.
0.680118 0.0527661 0.
0.683379 0.0505953 0.
0.686672 0.0484082 0.
0.689992 0.0462208 0.
0.693361 0.0440407 0.
0.696789 0.0417996 0.
0.700228 0.0393953 0.
0.703728 0.0368911 0.
0.707368 0.0343706 0.
0.7111 0.03184 0.
0.715033 0.0293352 0.
0.719126 0.0267858 0.
0.723368 0.0242019 0.
0.72785 0.0218085 0.
0.732598 0.0196263 0.
0.737574 0.0178454 0.
0.742676 0.0166598 0.
0.747667 0.016027 0.
0.752309 0.0161554 0.
0.446605 0.0169379 0.
0.451284 0.0170401 0.
0.456241 0.0177151 0.
0.461194 0.0189546 0.
0.465999 0.0208315 0.
0.470553 0.0230117 0.
0.47488 0.0254267 0.
0.478969 0.0279633 0.
0.482894 0.0304493 0.
0.486682 0.0329179 0.
0.49031 0.0353859 0.
0.493825 0.0377613 0.
0.497302 0.0400643 0.
0.500731 0.0423168 0.
0.504081 0.0445886 0.
0.507356 0.0469424 0.
0.510572 0.0493029 0.
0.513776 0.0515717 0.
0.516997 0.053711 0.
0.52022 0.0557126 0.
0.523422 0.0575521 0.
0.526627 0.0592441 0.
0.529803 0.0609112 0.
0.532951 0.0625351 0.
0.536103 0.064065 0.
0.539248 0.0655243 0.
0.542359 0.0669068 0.
0.545438 0.0682069 0.
0.548494 0.0694914 0.
0.55145 0.0706424 0.
0.554402 0.0717448 0.
0.557254 0.0726336 0.
0.560132 0.0734793 0.
0.562793 0.0740918 0.
0.565437 0.0746636 0.
0.567939 0.0750282 0.
0.570391 0.0753713 0.
0.572773 0.0757013 0.
0.574971 0.0759304 0.
0.577177 0.0761603 0.
0.579325 0.0762971 0.
0.581464 0.076426 0.
0.583593 0.0765436 0.
0.585657 0.076589 0.
0.587721 0.0766347 0.
0.58978 0.0766729 0.
0.591832 0.0767038 0.
0.593884 0.0767347 0.
0.595932 0.076747 0.
0.597979 0.0767531 0.
0.600025 0.076759 0.
0.602075 0.0767376 0.
0.604125 0.0767161 0.
0.606177 0.0766892 0.
0.608238 0.0766474 0.
0.610299 0.0766056 0.
0.612371 0.0765568 0.
0.614453 0.0765016 0.
0.616533 0.0764466 0.
0.618689 0.0762888 0.
0.62085 0.0761216 0.
0.623044 0.0759352 0.
0.625318 0.0756515 0.
0.627579 0.0753734 0.
0.63003 0.0750145 0.
0.632523 0.0746562 0.
0.635142 0.074128 0.
0.637859 0.0733359 0.
0.640637 0.0725175 0.
0.643574 0.0716677 0.
0.646523 0.0707242 0.
0.649542 0.0695622 0.
0.652609 0.0683067 0.
0.655683 0.0669826 0.
0.658764 0.0655812 0.
0.661874 0.0641332 0.
0.665018 0.0626659 0.
0.668183 0.0610948 0.
0.671364 0.0593624 0.
0.674564 0.0575168 0.
0.677772 0.055539 0.
0.680967 0.0534641 0.
0.68418 0.0513099 0.
0.687423 0.0491535 0.
0.690692 0.0469957 0.
0.693999 0.0448472 0.
0.697347 0.0426353 0.
0.700703 0.0402663 0.
0.70411 0.0378037 0.
0.707651 0.0353239 0.
0.7113 0.0328264 0.
0.715092 0.0303624 0.
0.719056 0.0278641 0.
0.723168 0.0253136 0.
0.727495 0.0229266 0.
0.73205 0.0207504 0.
0.736858 0.0189189 0.
0.741786 0.0176727 0.
0.746644 0.0170357 0.
0.751179 0.017083 0.
0.447804 0.01791 0.
0.452393 0.0180595 0.
0.457205 0.0187678 0.
0.461996 0.0201124 0.
0.46661 0.022031 0.
0.471 0.0242124 0.
0.475169 0.0266269 0.
0.479099 0.0291236 0.
0.482893 0.0315544 0.
0.486552 0.0339834 0.
0.490053 0.0364029 0.
0.493467 0.0387298 0.
0.496855 0.0409848 0.
0.500187 0.0431927 0.
0.503462 0.0454196 0.
0.50667 0.0477243 0.
0.509827 0.0500514 0.
0.512985 0.0523009 0.
0.516161 0.054445 0.
0.519352 0.0564599 0.
0.522526 0.0583247 0.
0.525699 0.0600393 0.
0.528853 0.0616984 0.
0.531994 0.0633306 0.
0.535146 0.064889 0.
0.538296 0.0663889 0.
0.54141 0.067809 0.
0.544507 0.0691543 0.
0.547554 0.0704491 0.
0.550556 0.0716766 0.
0.553547 0.0728553 0.
0.556484 0.0738889 0.
0.559418 0.0748284 0.
0.562179 0.0755232 0.
0.564894 0.0761249 0.
0.567511 0.0765979 0.
0.57003 0.0770492 0.
0.572505 0.0774932 0.
0.574738 0.0777382 0.
0.576977 0.0779843 0.
0.579169 0.0781563 0.
0.581348 0.0783235 0.
0.583518 0.0784779 0.
0.585593 0.0785275 0.
0.587669 0.0785774 0.
0.589738 0.0786193 0.
0.5918 0.0786529 0.
0.593861 0.0786865 0.
0.595919 0.0786997 0.
0.597975 0.0787061 0.
0.600032 0.0787123 0.
0.602092 0.0786888 0.
0.604151 0.0786654 0.
0.606214 0.0786356 0.
0.608285 0.0785892 0.
0.610355 0.0785429 0.
0.612442 0.0784882 0.
0.61454 0.0784262 0.
0.616636 0.0783646 0.
0.618833 0.0781641 0.
0.621032 0.0779565 0.
0.623281 0.0777257 0.
0.625612 0.0774107 0.
0.62793 0.0771011 0.
0.630505 0.0766196 0.
0.63307 0.0761651 0.
0.635777 0.0755075 0.
0.638517 0.0747085 0.
0.641414 0.0737937 0.
0.644402 0.0728455 0.
0.647421 0.0717511 0.
0.650456 0.0705351 0.
0.653542 0.069249 0.
0.65663 0.0678852 0.
0.659733 0.0664441 0.
0.662843 0.0649821 0.
0.665986 0.0634848 0.
0.669134 0.0618728 0.
0.672296 0.0601101 0.
0.67547 0.0582335 0.
0.678652 0.0562496 0.
0.681811 0.0541799 0.
0.684974 0.052052 0.
0.688158 0.0499312 0.
0.691372 0.0478084 0.
0.694616 0.0456931 0.
0.697884 0.0435152 0.
0.701153 0.0411898 0.
0.704463 0.038777 0.
0.70788 0.0363459 0.
0.711428 0.0338909 0.
0.715091 0.0314672 0.
0.718919 0.0290208 0.
0.722886 0.0265147 0.
0.727056 0.0241266 0.
0.731438 0.0219451 0.
0.736051 0.0200671 0.
0.740806 0.0187448 0.
0.745529 0.0180644 0.
0.74997 0.0180464 0.
0.449069 0.0189155 0.
0.453553 0.019109 0.
0.458219 0.0198903 0.
0.462822 0.0213374 0.
0.467245 0.0232834 0.
0.471483 0.0254855 0.
0.475468 0.027886 0.
0.479257 0.030335 0.
0.482921 0.0327169 0.
0.486439 0.0351044 0.
0.489805 0.0374644 0.
0.493126 0.0397419 0.
0.496416 0.0419434 0.
0.49965 0.0441055 0.
0.502845 0.0462857 0.
0.505984 0.048535 0.
0.509087 0.0508244 0.
0.5122 0.0530491 0.
0.515344 0.0551937 0.
0.5185 0.0572173 0.
0.521637 0.0591039 0.
0.524782 0.0608427 0.
0.527923 0.0624912 0.
0.531055 0.0641297 0.
0.534199 0.0657125 0.
0.537351 0.0672363 0.
0.540468 0.068694 0.
0.543562 0.0700735 0.
0.546613 0.0713878 0.
0.549658 0.0726831 0.
0.552677 0.0739074 0.
0.555656 0.0750261 0.
0.558608 0.0760201 0.
0.561491 0.0768745 0.
0.564309 0.0775542 0.
0.567068 0.0781425 0.
0.569654 0.0787028 0.
0.572235 0.0792829 0.
0.574501 0.0795429 0.
0.576776 0.0798032 0.
0.579011 0.0800058 0.
0.581229 0.0802102 0.
0.583439 0.0804062 0.
0.585526 0.08046 0.
0.587614 0.080514 0.
0.589695 0.0805596 0.
0.591766 0.0805955 0.
0.593837 0.0806316 0.
0.595905 0.0806456 0.
0.597972 0.080652 0.
0.600039 0.0806581 0.
0.602109 0.0806329 0.
0.604179 0.0806078 0.
0.606252 0.0805754 0.
0.608333 0.0805251 0.
0.610412 0.0804749 0.
0.612515 0.0804127 0.
0.61463 0.0803426 0.
0.616745 0.0802719 0.
0.618982 0.0800295 0.
0.621216 0.0797843 0.
0.623525 0.0795098 0.
0.625913 0.0791638 0.
0.628317 0.0788077 0.
0.631006 0.0781974 0.
0.633665 0.0776239 0.
0.636492 0.0767981 0.
0.639299 0.0759184 0.
0.642247 0.0749409 0.
0.645251 0.0739434 0.
0.648311 0.0727506 0.
0.651377 0.0714828 0.
0.654479 0.0701585 0.
0.657578 0.0687564 0.
0.660684 0.0672984 0.
0.663802 0.065824 0.
0.666945 0.0642981 0.
0.67008 0.0626444 0.
0.67321 0.0608627 0.
0.676365 0.0589626 0.
0.679515 0.0569786 0.
0.682642 0.0549173 0.
0.685765 0.0528191 0.
0.688895 0.0507345 0.
0.692041 0.0486536 0.
0.695223 0.0465712 0.
0.698416 0.0444272 0.
0.701603 0.0421489 0.
0.704818 0.0397891 0.
0.708102 0.03741 0.
0.711529 0.0350102 0.
0.71507 0.0326355 0.
0.718744 0.0302389 0.
0.722574 0.0277748 0.
0.726578 0.0253971 0.
0.730798 0.0232039 0.
0.735225 0.0212775 0.
0.739801 0.0198738 0.
0.744375 0.0191274 0.
0.748727 0.0190301 0.
0.450375 0.0199619 0.
0.454729 0.0202052 0.
0.459218 0.0210767 0.
0.463621 0.0226101 0.
0.467887 0.0245952 0.
0.471952 0.0268112 0.
0.475758 0.0291912 0.
0.479419 0.0315901 0.
0.482934 0.0339256 0.
0.4863 0.0362585 0.
0.489554 0.0385615 0.
0.492777 0.0407897 0.
0.495964 0.0429362 0.
0.499109 0.0450532 0.
0.502218 0.047183 0.
0.505292 0.0493713 0.
0.508348 0.0516187 0.
0.511425 0.0538218 0.
0.51454 0.0559595 0.
0.517653 0.057986 0.
0.520757 0.0598907 0.
0.523876 0.0616501 0.
0.527001 0.0632943 0.
0.530128 0.0649388 0.
0.533271 0.06654 0.
0.536415 0.068073 0.
0.53953 0.0695668 0.
0.542617 0.0709801 0.
0.545678 0.0723175 0.
0.548744 0.0736384 0.
0.551777 0.0748972 0.
0.554798 0.0761013 0.
0.557786 0.0771761 0.
0.560766 0.0781875 0.
0.563685 0.0789429 0.
0.566589 0.0796336 0.
0.569193 0.0802586 0.
0.571809 0.0809282 0.
0.57417 0.0812371 0.
0.576541 0.0815316 0.
0.57885 0.0817931 0.
0.581099 0.0820584 0.
0.583347 0.0823191 0.
0.58545 0.0823786 0.
0.587553 0.0824384 0.
0.589648 0.0824886 0.
0.591729 0.082527 0.
0.593811 0.0825654 0.
0.59589 0.0825799 0.
0.597969 0.082586 0.
0.600047 0.0825917 0.
0.602129 0.0825649 0.
0.604211 0.0825382 0.
0.606295 0.0825034 0.
0.608385 0.0824494 0.
0.610474 0.0823956 0.
0.612596 0.0823194 0.
0.614732 0.0822315 0.
0.616879 0.0821351 0.
0.619192 0.0818194 0.
0.621487 0.0815103 0.
0.623881 0.0811743 0.
0.626332 0.0807982 0.
0.628827 0.0803821 0.
0.631549 0.0797121 0.
0.63431 0.079002 0.
0.637233 0.0780479 0.
0.640135 0.0770642 0.
0.643132 0.0760107 0.
0.646153 0.0749517 0.
0.649221 0.073712 0.
0.652301 0.0724101 0.
0.655404 0.0710592 0.
0.658508 0.0696256 0.
0.661623 0.0681506 0.
0.664743 0.066664 0.
0.667878 0.065109 0.
0.671015 0.0634183 0.
0.674127 0.0616159 0.
0.677249 0.0597067 0.
0.680373 0.0577254 0.
0.683463 0.055678 0.
0.686552 0.0536119 0.
0.689637 0.051562 0.
0.692719 0.0495247 0.
0.695832 0.0474777 0.
0.698953 0.0453671 0.
0.702062 0.0431347 0.
0.705188 0.0408316 0.
0.708358 0.038507 0.
0.711646 0.0361648 0.
0.715054 0.033842 0.
0.718575 0.0315039 0.
0.72226 0.0290859 0.
0.726099 0.0267183 0.
0.730156 0.0245204 0.
0.734413 0.0225471 0.
0.738813 0.0210622 0.
0.743228 0.0202348 0.
0.747476 0.0200545 0.
0.451702 0.0210413 0.
0.455913 0.0213576 0.
0.460216 0.0223318 0.
0.464456 0.0239625 0.
0.468563 0.0259866 0.
0.472423 0.0282038 0.
0.476085 0.030565 0.
0.47959 0.0329097 0.
0.482944 0.0351916 0.
0.486164 0.0374628 0.
0.489313 0.0397097 0.
0.492432 0.0418809 0.
0.495516 0.0439738 0.
0.498572 0.0460439 0.
0.501603 0.0481227 0.
0.504622 0.0502536 0.
0.507635 0.0524518 0.
0.510674 0.0546276 0.
0.513746 0.0567463 0.
0.516815 0.0587721 0.
0.519894 0.0606897 0.
0.522989 0.0624654 0.
0.526104 0.0641205 0.
0.529223 0.0657608 0.
0.532356 0.0673664 0.
0.535493 0.0689139 0.
0.538601 0.0704351 0.
0.54168 0.071873 0.
0.544747 0.0732308 0.
0.547823 0.0745647 0.
0.550874 0.0758608 0.
0.553914 0.0771212 0.
0.55694 0.0782775 0.
0.559962 0.0793929 0.
0.562927 0.080216 0.
0.565871 0.0809529 0.
0.568567 0.0816772 0.
0.571268 0.0824719 0.
0.573786 0.0828989 0.
0.576283 0.0832479 0.
0.578686 0.0835751 0.
0.580967 0.0839017 0.
0.583251 0.0842289 0.
0.585372 0.0842969 0.
0.587492 0.0843625 0.
0.589601 0.0844175 0.
0.591692 0.0844583 0.
0.593784 0.0844992 0.
0.595875 0.0845143 0.
0.597965 0.0845199 0.
0.600056 0.0845252 0.
0.60215 0.0844969 0.
0.604243 0.0844686 0.
0.606338 0.0844313 0.
0.608437 0.0843737 0.
0.610535 0.0843162 0.
0.612677 0.084225 0.
0.614836 0.0841189 0.
0.617021 0.0839917 0.
0.619412 0.083601 0.
0.621779 0.0832211 0.
0.624294 0.0828024 0.
0.626854 0.0823625 0.
0.629499 0.0818086 0.
0.632265 0.081032 0.
0.635079 0.0802109 0.
0.638034 0.0792263 0.
0.641009 0.0781652 0.
0.644031 0.0770494 0.
0.647081 0.0759155 0.
0.650148 0.0746442 0.
0.653229 0.0733164 0.
0.656333 0.0719449 0.
0.65943 0.0704927 0.
0.66254 0.0690121 0.
0.665661 0.0675065 0.
0.668786 0.0659213 0.
0.671916 0.0642061 0.
0.675024 0.0623798 0.
0.678119 0.0604713 0.
0.681207 0.0584986 0.
0.684264 0.0564708 0.
0.687315 0.0544403 0.
0.690363 0.0524259 0.
0.693391 0.050431 0.
0.696429 0.0484218 0.
0.699475 0.0463508 0.
0.702512 0.0441653 0.
0.705558 0.041916 0.
0.708625 0.0396473 0.
0.71177 0.0373681 0.
0.715033 0.0351012 0.
0.718402 0.0328241 0.
0.721914 0.0304703 0.
0.725597 0.0281169 0.
0.729481 0.0259129 0.
0.733571 0.0239006 0.
0.7378 0.0223258 0.
0.742064 0.0213944 0.
0.746198 0.0211261 0.
0.453066 0.0221536 0.
0.45714 0.0225765 0.
0.461284 0.0236914 0.
0.465374 0.0254228 0.
0.469269 0.0274662 0.
0.472946 0.0296937 0.
0.476439 0.0320198 0.
0.479766 0.0342966 0.
0.482955 0.0365165 0.
0.486045 0.0387291 0.
0.489084 0.0409135 0.
0.492092 0.0430186 0.
0.495084 0.0450626 0.
0.498049 0.0470813 0.
0.501003 0.0491078 0.
0.50397 0.0511773 0.
0.506941 0.0533189 0.
0.509937 0.055462 0.
0.512958 0.0575519 0.
0.515989 0.0595742 0.
0.51904 0.061496 0.
0.522122 0.0632903 0.
0.525224 0.0649601 0.
0.528328 0.0665883 0.
0.53145 0.068194 0.
0.534576 0.0697588 0.
0.537674 0.0712956 0.
0.540747 0.0727554 0.
0.543819 0.0741358 0.
0.5469 0.0754768 0.
0.549961 0.0768032 0.
0.553016 0.0780955 0.
0.556085 0.0793185 0.
0.559114 0.0804612 0.
0.562106 0.0813946 0.
0.565093 0.0822189 0.
0.567908 0.0830544 0.
0.570688 0.0839682 0.
0.573358 0.0845373 0.
0.575961 0.0849338 0.
0.578448 0.0853189 0.
0.58075 0.0856911 0.
0.583075 0.0860689 0.
0.585244 0.0861672 0.
0.587402 0.0862527 0.
0.589544 0.086323 0.
0.591648 0.0863647 0.
0.593753 0.0864065 0.
0.595857 0.0864214 0.
0.597961 0.0864263 0.
0.600066 0.0864308 0.
0.602174 0.0864013 0.
0.604281 0.0863718 0.
0.606391 0.0863329 0.
0.608504 0.0862737 0.
0.610617 0.0862146 0.
0.6128 0.0860952 0.
0.615001 0.0859573 0.
0.617248 0.0857781 0.
0.619697 0.0853268 0.
0.622115 0.0849014 0.
0.624751 0.0844058 0.
0.627417 0.0839039 0.
0.630201 0.0831873 0.
0.633015 0.0822995 0.
0.635908 0.0813296 0.
0.638885 0.0803058 0.
0.641898 0.0792046 0.
0.644939 0.0780528 0.
0.648015 0.0768579 0.
0.651082 0.0755604 0.
0.654159 0.0742098 0.
0.657258 0.0728137 0.
0.660358 0.0713566 0.
0.663454 0.0698757 0.
0.666562 0.068353 0.
0.669679 0.0667357 0.
0.672797 0.0650041 0.
0.67589 0.0631613 0.
0.678968 0.0612571 0.
0.682026 0.0592971 0.
0.685049 0.0572919 0.
0.688062 0.0552976 0.
0.691073 0.0533239 0.
0.694051 0.0513716 0.
0.697024 0.0494011 0.
0.699994 0.047371 0.
0.702948 0.0452438 0.
0.705911 0.0430542 0.
0.708881 0.0408409 0.
0.711903 0.0386247 0.
0.715011 0.0364252 0.
0.718216 0.0342084 0.
0.721549 0.031929 0.
0.725049 0.0296143 0.
0.728745 0.027401 0.
0.732658 0.0253621 0.
0.736713 0.0236862 0.
0.740819 0.0226284 0.
0.744839 0.0222561 0.
0.454487 0.0233175 0.
0.45843 0.0238892 0.
0.462429 0.0251754 0.
0.466317 0.0269836 0.
0.470003 0.0290466 0.
0.473486 0.0312739 0.
0.47678 0.0335338 0.
0.479927 0.0357417 0.
0.482959 0.0378976 0.
0.485921 0.0400419 0.
0.488847 0.0421549 0.
0.491757 0.0442018 0.
0.494652 0.0461932 0.
0.497528 0.0481578 0.
0.500414 0.0501295 0.
0.503323 0.0521317 0.
0.506248 0.0542133 0.
0.509192 0.0563159 0.
0.512167 0.0583741 0.
0.515167 0.0603847 0.
0.518197 0.0623086 0.
0.521263 0.0641193 0.
0.524352 0.0658071 0.
0.527446 0.0674234 0.
0.530555 0.0690305 0.
0.533663 0.0706081 0.
0.536755 0.0721512 0.
0.539825 0.0736372 0.
0.542898 0.0750395 0.
0.545986 0.0763853 0.
0.549065 0.0777312 0.
0.552139 0.0790551 0.
0.555229 0.0803156 0.
0.558265 0.0814881 0.
0.561286 0.0825392 0.
0.564299 0.0834326 0.
0.567212 0.0843376 0.
0.570024 0.0852825 0.
0.572775 0.0859929 0.
0.575439 0.0864857 0.
0.57806 0.0870004 0.
0.580437 0.0874287 0.
0.582844 0.0878664 0.
0.585085 0.0880134 0.
0.587297 0.0881291 0.
0.589483 0.0882223 0.
0.591602 0.0882649 0.
0.593721 0.0883076 0.
0.595839 0.0883224 0.
0.597958 0.0883265 0.
0.600076 0.08833 0.
0.602199 0.088299 0.
0.604322 0.088268 0.
0.606448 0.0882272 0.
0.608578 0.0881662 0.
0.610708 0.0881052 0.
0.612951 0.0879449 0.
0.615215 0.0877607 0.
0.617561 0.0874973 0.
0.620095 0.0869524 0.
0.622602 0.086439 0.
0.625332 0.0858668 0.
0.628054 0.0853195 0.
0.630926 0.0844703 0.
0.633785 0.0834961 0.
0.636746 0.0824246 0.
0.639747 0.0813628 0.
0.642782 0.0802071 0.
0.64584 0.0790237 0.
0.648926 0.0777924 0.
0.652 0.0764752 0.
0.655082 0.0751025 0.
0.658179 0.0736823 0.
0.661274 0.072221 0.
0.664368 0.0707381 0.
0.667466 0.0691983 0.
0.670565 0.0675523 0.
0.673663 0.065805 0.
0.676744 0.0639552 0.
0.679803 0.0620587 0.
0.682835 0.0601151 0.
0.685828 0.0581364 0.
0.688805 0.0561784 0.
0.691778 0.05425 0.
0.694713 0.0523381 0.
0.697622 0.0504107 0.
0.700518 0.0484238 0.
0.703391 0.0463564 0.
0.706265 0.0442341 0.
0.709136 0.0420842 0.
0.712044 0.0399267 0.
0.715011 0.0377942 0.
0.71805 0.035652 0.
0.7212 0.0334475 0.
0.724496 0.0311971 0.
0.72798 0.0289927 0.
0.731687 0.026929 0.
0.735562 0.0251647 0.
0.739499 0.023963 0.
0.743388 0.0234516 0.
0.455941 0.0245748 0.
0.459752 0.0253257 0.
0.463562 0.0267634 0.
0.467227 0.0286264 0.
0.470695 0.0307045 0.
0.473953 0.0328909 0.
0.477048 0.0350747 0.
0.48002 0.0372071 0.
0.482901 0.0392924 0.
0.485746 0.0413676 0.
0.488568 0.0434113 0.
0.491387 0.0454006 0.
0.494189 0.0473398 0.
0.496986 0.0492534 0.
0.499805 0.0511667 0.
0.502661 0.0531077 0.
0.505538 0.0551283 0.
0.508431 0.057184 0.
0.511371 0.0592122 0.
0.514353 0.061208 0.
0.517362 0.0631321 0.
0.520417 0.0649564 0.
0.523496 0.0666619 0.
0.526578 0.0682781 0.
0.529674 0.069882 0.
0.53277 0.0714627 0.
0.535853 0.0730105 0.
0.538921 0.0745243 0.
0.542001 0.0759455 0.
0.545101 0.0772976 0.
0.54819 0.0786529 0.
0.551274 0.0800008 0.
0.554371 0.081299 0.
0.557421 0.0825009 0.
0.560461 0.0836295 0.
0.563492 0.0845722 0.
0.566466 0.0855159 0.
0.569313 0.0865059 0.
0.572154 0.0873868 0.
0.574893 0.0879991 0.
0.577652 0.0886679 0.
0.580111 0.0891556 0.
0.582602 0.0896526 0.
0.584925 0.0898526 0.
0.587191 0.0899979 0.
0.589424 0.090117 0.
0.591556 0.0901601 0.
0.593689 0.0902032 0.
0.595822 0.0902178 0.
0.597954 0.0902211 0.
0.600087 0.0902238 0.
0.602225 0.0901914 0.
0.604361 0.090159 0.
0.606503 0.0901166 0.
0.608651 0.0900543 0.
0.610799 0.0899924 0.
0.613105 0.0897871 0.
0.615435 0.0895559 0.
0.617887 0.0891964 0.
0.620509 0.0885565 0.
0.623133 0.0879432 0.
0.625948 0.0872747 0.
0.628762 0.086604 0.
0.63168 0.0856422 0.
0.634583 0.0846112 0.
0.637587 0.0834984 0.
0.640613 0.0823935 0.
0.643657 0.0811991 0.
0.646726 0.0799849 0.
0.649823 0.0787246 0.
0.6529 0.077389 0.
0.655978 0.0759997 0.
0.659082 0.0745602 0.
0.662175 0.0730969 0.
0.665266 0.071604 0.
0.668354 0.0700433 0.
0.671445 0.0683747 0.
0.674523 0.0666121 0.
0.677584 0.0647656 0.
0.680631 0.0628773 0.
0.683641 0.0609495 0.
0.686606 0.0590022 0.
0.689554 0.0570781 0.
0.692488 0.055197 0.
0.695383 0.0533251 0.
0.698241 0.0514356 0.
0.701075 0.0494909 0.
0.703874 0.0474798 0.
0.706658 0.0454246 0.
0.709434 0.0433422 0.
0.712227 0.0412509 0.
0.715073 0.0391762 0.
0.717964 0.0371086 0.
0.720931 0.0349931 0.
0.724026 0.0328137 0.
0.727276 0.0306557 0.
0.730742 0.0285816 0.
0.734408 0.0267508 0.
0.738157 0.0254141 0.
0.741903 0.0247196 0.
0.457361 0.025946 0.
0.461005 0.0268803 0.
0.464597 0.0284265 0.
0.468024 0.030327 0.
0.471238 0.032381 0.
0.474273 0.0345001 0.
0.477179 0.0366013 0.
0.479982 0.0386551 0.
0.482737 0.0406706 0.
0.485474 0.0426762 0.
0.488208 0.0446564 0.
0.490942 0.0465931 0.
0.49366 0.0484858 0.
0.496393 0.0503545 0.
0.499157 0.0522139 0.
0.501966 0.0541015 0.
0.504797 0.0560589 0.
0.507653 0.0580675 0.
0.51057 0.0600701 0.
0.513538 0.0620475 0.
0.516534 0.0639727 0.
0.519584 0.0658059 0.
0.522653 0.0675283 0.
0.525726 0.0691564 0.
0.528811 0.0707535 0.
0.531892 0.0723261 0.
0.53497 0.0738821 0.
0.538048 0.0754181 0.
0.541133 0.0768549 0.
0.544242 0.078219 0.
0.547342 0.0795862 0.
0.550432 0.0809452 0.
0.553526 0.082266 0.
0.556589 0.083504 0.
0.559644 0.0846766 0.
0.562689 0.0856789 0.
0.565697 0.0866666 0.
0.568604 0.0877101 0.
0.57152 0.0887118 0.
0.574351 0.0894607 0.
0.577187 0.0902177 0.
0.579726 0.090742 0.
0.582264 0.0912566 0.
0.584688 0.0915515 0.
0.587045 0.0917904 0.
0.589364 0.0919917 0.
0.591512 0.0920356 0.
0.59366 0.0920794 0.
0.595807 0.092094 0.
0.597953 0.0920968 0.
0.6001 0.0920989 0.
0.602251 0.0920645 0.
0.604401 0.0920302 0.
0.606558 0.0919838 0.
0.608723 0.0919158 0.
0.610888 0.0918482 0.
0.613319 0.0915331 0.
0.615753 0.0912056 0.
0.618299 0.0907353 0.
0.620949 0.0900621 0.
0.62367 0.0893926 0.
0.626561 0.0886523 0.
0.629474 0.0878324 0.
0.632436 0.0867778 0.
0.635387 0.0856696 0.
0.638414 0.0845555 0.
0.641464 0.0834089 0.
0.644514 0.0821829 0.
0.64759 0.0809452 0.
0.650688 0.0796634 0.
0.653774 0.0783087 0.
0.656855 0.0768982 0.
0.659955 0.0754524 0.
0.663051 0.0739896 0.
0.666143 0.0724796 0.
0.669229 0.070895 0.
0.672313 0.0692106 0.
0.67538 0.0674308 0.
0.678421 0.0655909 0.
0.681455 0.063715 0.
0.684448 0.0618046 0.
0.68739 0.059889 0.
0.690317 0.0579988 0.
0.693217 0.056162 0.
0.696078 0.0543276 0.
0.698893 0.0524703 0.
0.701673 0.0505663 0.
0.704418 0.048601 0.
0.70713 0.0466048 0.
0.709821 0.0445867 0.
0.712512 0.0425635 0.
0.715232 0.0405526 0.
0.718006 0.0385468 0.
0.720815 0.0365204 0.
0.72371 0.0344289 0.
0.726733 0.0323328 0.
0.729935 0.0302886 0.
0.733347 0.0284207 0.
0.736887 0.0269662 0.
0.740465 0.0260913 0.
0.458691 0.0274382 0.
0.462131 0.028535 0.
0.465477 0.0301589 0.
0.468634 0.0320491 0.
0.471593 0.0340478 0.
0.474425 0.0360885 0.
0.477149 0.0381016 0.
0.479819 0.0400818 0.
0.482467 0.0420311 0.
0.485116 0.043975 0.
0.487776 0.0458998 0.
0.490432 0.0477903 0.
0.493089 0.0496469 0.
0.495778 0.0514775 0.
0.4985 0.0532948 0.
0.501269 0.0551359 0.
0.504065 0.0570343 0.
0.506899 0.058997 0.
0.509804 0.0609717 0.
0.512759 0.0629284 0.
0.515748 0.064849 0.
0.518785 0.0666828 0.
0.521843 0.0684217 0.
0.524905 0.0700648 0.
0.527974 0.0716506 0.
0.531048 0.0732153 0.
0.534131 0.0747788 0.
0.537214 0.0763258 0.
0.540307 0.0777794 0.
0.543422 0.0791607 0.
0.546528 0.0805347 0.
0.549616 0.0818953 0.
0.552712 0.0832306 0.
0.555792 0.0845107 0.
0.558857 0.08571 0.
0.561912 0.0867703 0.
0.564939 0.0878042 0.
0.5679 0.088892 0.
0.570867 0.0899384 0.
0.573741 0.0907624 0.
0.576605 0.0915948 0.
0.579268 0.0922434 0.
0.581888 0.0928236 0.
0.584432 0.0932338 0.
0.586889 0.0935743 0.
0.589305 0.0938664 0.
0.591467 0.093911 0.
0.59363 0.0939556 0.
0.595792 0.0939702 0.
0.597952 0.0939725 0.
0.600113 0.093974 0.
0.602277 0.0939376 0.
0.60444 0.0939013 0.
0.606612 0.0938507 0.
0.608796 0.093777 0.
0.610978 0.0937036 0.
0.613557 0.0932584 0.
0.616122 0.0928104 0.
0.61878 0.0921935 0.
0.621474 0.091445 0.
0.624271 0.0906952 0.
0.62719 0.0899354 0.
0.630177 0.0890081 0.
0.633179 0.0878918 0.
0.63617 0.0867269 0.
0.639208 0.0855954 0.
0.642272 0.0844167 0.
0.645336 0.0831663 0.
0.64842 0.0819129 0.
0.651518 0.0806141 0.
0.654606 0.0792438 0.
0.657693 0.0778116 0.
0.660795 0.0763642 0.
0.663889 0.0749032 0.
0.666978 0.0733775 0.
0.670066 0.0717655 0.
0.673147 0.0700692 0.
0.676208 0.0682804 0.
0.679233 0.0664508 0.
0.682248 0.0645925 0.
0.685225 0.0627021 0.
0.688148 0.0608202 0.
0.691055 0.0589679 0.
0.69393 0.0571679 0.
0.696758 0.0553694 0.
0.699545 0.0535366 0.
0.702288 0.0516655 0.
0.704991 0.0497406 0.
0.707652 0.0477916 0.
0.710279 0.0458292 0.
0.712893 0.0438656 0.
0.715507 0.0419154 0.
0.718161 0.0399725 0.
0.720851 0.0380215 0.
0.723574 0.0360261 0.
0.726387 0.0340023 0.
0.729334 0.0320143 0.
0.732463 0.0301534 0.
0.73576 0.0286134 0.
0.739136 0.0275832 0.
0.459849 0.0290424 0.
0.463052 0.030261 0.
0.46612 0.0319147 0.
0.469004 0.033768 0.
0.471746 0.0356999 0.
0.474392 0.0376515 0.
0.476979 0.0395869 0.
0.479554 0.0415031 0.
0.482123 0.0433973 0.
0.484708 0.045295 0.
0.4873 0.0471712 0.
0.489905 0.0490219 0.
0.492527 0.0508525 0.
0.495183 0.0526528 0.
0.49787 0.0544368 0.
0.500606 0.0562305 0.
0.503382 0.0580776 0.
0.506209 0.0599981 0.
0.509103 0.0619408 0.
0.512046 0.063873 0.
0.515028 0.0657808 0.
0.518051 0.0676089 0.
0.521093 0.069356 0.
0.524141 0.0710108 0.
0.527199 0.0725892 0.
0.530273 0.0741484 0.
0.533355 0.0757133 0.
0.536442 0.0772633 0.
0.539541 0.0787337 0.
0.542654 0.0801306 0.
0.545751 0.0814997 0.
0.548846 0.082857 0.
0.551953 0.0842099 0.
0.555038 0.0855258 0.
0.558104 0.086742 0.
0.561172 0.0878537 0.
0.564215 0.0889264 0.
0.567219 0.0900248 0.
0.570203 0.0910827 0.
0.573117 0.0920088 0.
0.576016 0.0929347 0.
0.578797 0.0937199 0.
0.581501 0.0943621 0.
0.584172 0.0948865 0.
0.586728 0.0953213 0.
0.58924 0.095719 0.
0.591419 0.0957641 0.
0.593599 0.0958092 0.
0.595776 0.0958241 0.
0.597951 0.0958263 0.
0.600127 0.0958275 0.
0.602305 0.0957901 0.
0.604482 0.0957527 0.
0.606671 0.0956981 0.
0.608873 0.0956184 0.
0.611073 0.0955394 0.
0.613803 0.0949518 0.
0.616504 0.0943867 0.
0.619261 0.0936256 0.
0.622001 0.0928038 0.
0.624878 0.0919678 0.
0.627821 0.0911506 0.
0.630853 0.090119 0.
0.633893 0.0889687 0.
0.636916 0.0877872 0.
0.639963 0.0866416 0.
0.643027 0.0854331 0.
0.646104 0.0841661 0.
0.649195 0.0828969 0.
0.652293 0.0815859 0.
0.655384 0.080204 0.
0.658474 0.0787563 0.
0.661575 0.0773075 0.
0.664666 0.0758481 0.
0.667755 0.0743076 0.
0.670835 0.0726749 0.
0.673912 0.070967 0.
0.676976 0.0691793 0.
0.679991 0.0673644 0.
0.682985 0.0655287 0.
0.685946 0.0636641 0.
0.688852 0.0618143 0.
0.691735 0.0600063 0.
0.694593 0.0582388 0.
0.697395 0.0564699 0.
0.700161 0.0546588 0.
0.702882 0.0528147 0.
0.705559 0.0509267 0.
0.708185 0.049016 0.
0.710768 0.0470995 0.
0.713327 0.045188 0.
0.715866 0.0432881 0.
0.718421 0.0414026 0.
0.721009 0.039515 0.
0.723613 0.0376015 0.
0.726245 0.0356645 0.
0.728974 0.0337326 0.
0.731834 0.0319086 0.
0.734863 0.0303322 0.
0.738011 0.0291853 0.
0.460761 0.0307245 0.
0.463703 0.0320253 0.
0.466497 0.033694 0.
0.469158 0.0355032 0.
0.471714 0.0373566 0.
0.474222 0.0392299 0.
0.476725 0.0411064 0.
0.479229 0.0429685 0.
0.481747 0.0448284 0.
0.484284 0.0466889 0.
0.486834 0.0485265 0.
0.489421 0.0503471 0.
0.492025 0.0521536 0.
0.494651 0.0539282 0.
0.497309 0.0556774 0.
0.500021 0.0574181 0.
0.502792 0.0592248 0.
0.505618 0.061104 0.
0.508497 0.0630093 0.
0.51143 0.0649142 0.
0.514403 0.0667966 0.
0.517414 0.0686109 0.
0.520439 0.0703605 0.
0.523475 0.072019 0.
0.526528 0.0735939 0.
0.529605 0.0751438 0.
0.532684 0.076708 0.
0.535772 0.0782633 0.
0.538866 0.0797428 0.
0.541972 0.0811483 0.
0.545064 0.0825121 0.
0.548165 0.0838614 0.
0.551285 0.0852274 0.
0.554367 0.0865758 0.
0.557436 0.0878028 0.
0.560521 0.0889437 0.
0.563583 0.0900478 0.
0.566592 0.0911519 0.
0.56959 0.0922344 0.
0.572547 0.0932379 0.
0.575495 0.0942494 0.
0.578402 0.0951433 0.
0.581183 0.0958113 0.
0.583921 0.0964311 0.
0.586557 0.0970075 0.
0.589167 0.0975536 0.
0.591366 0.0976007 0.
0.593566 0.0976478 0.
0.59576 0.0976637 0.
0.597951 0.0976659 0.
0.600142 0.0976671 0.
0.602335 0.0976284 0.
0.604528 0.0975897 0.
0.606737 0.0975296 0.
0.608959 0.0974417 0.
0.611193 0.0973417 0.
0.614011 0.0965405 0.
0.616795 0.095829 0.
0.619626 0.0950105 0.
0.622452 0.0941454 0.
0.625421 0.0932327 0.
0.628403 0.0923467 0.
0.631455 0.0912298 0.
0.63452 0.0900521 0.
0.637572 0.0888672 0.
0.640631 0.0877067 0.
0.643698 0.086483 0.
0.64677 0.0852121 0.
0.649872 0.0839208 0.
0.652976 0.0825973 0.
0.656064 0.0812137 0.
0.659155 0.0797551 0.
0.66226 0.0783043 0.
0.665349 0.0768481 0.
0.668428 0.0753025 0.
0.6715 0.0736513 0.
0.674569 0.0719344 0.
0.677635 0.0701602 0.
0.680653 0.0683661 0.
0.683628 0.0665547 0.
0.686571 0.0647217 0.
0.689469 0.0628987 0.
0.692328 0.0611396 0.
0.695167 0.05941 0.
0.697953 0.0576717 0.
0.700703 0.0558848 0.
0.70341 0.0540568 0.
0.706078 0.0522 0.
0.708689 0.0503329 0.
0.711246 0.0484525 0.
0.713764 0.0465855 0.
0.716258 0.0447295 0.
0.718745 0.0428869 0.
0.721247 0.0410565 0.
0.723769 0.0392036 0.
0.726278 0.0373429 0.
0.728825 0.0354749 0.
0.731469 0.0336849 0.
0.73424 0.0320908 0.
0.737146 0.0308439 0.
CELLS 5000 10000
1 0
1 1
1 2
1 3
1 4
1 5
1 6
1 7
1 8
1 9
1 10
1 11
1 12
1 13
1 14
1 15
1 16
1 17
1 18
1 19
1 20
1 21
1 22
1 23
1 24
1 25
1 26
1 27
1 28
1 29
1 30
1 31
1 32
1 33
1 34
1 35
1 36
1 37
1 38
1 39
1 40
1 41
1 42
1 43
1 44
1 45
1 46
1 47
1 48
1 49
1 50
1 51
1 52
1 53
1 54
1 55
1 56
1 57
1 58
1 59
1 60
1 61
1 62
1 63
1 64
1 65
1 66
1 67
1 68
1 69
1 70
1 71
1 72
1 73
1 74
1 75
1 76
1 77
1 78
1 79
1 80
1 81
1 82
1 83
1 84
1 85
1 86
1 87
1 88
1 89
1 90
1 91
1 92
1 93
1 94
1 95
1 96
1 97
1 98
1 99
1 100
1 101
1 102
1 103
1 104
1 105
1 106
1 107
1 108
1 109
1 110
1 111
1 112
1 113
1 114
1 115
1 116
1 117
1 118
1 119
1 120
1 121
1 122
1 123
1 124
1 125
1 126
1 127
1 128
1 129
1 130
1 131
1 132
1 133
1 134
1 135
1 136
1 137
1 138
1 139
1 140
1 141
1 142
1 143
1 144
1 145
1 146
1 147
1 148
1 149
1 150
1 151
1 152
1 153
1 154
1 155
1 156
1 157
1 158
1 159
1 160
1 161
1 162
1 163
1 164
1 165
1 166
1 167
1 168
1 169
1 170
1 171
1 172
1 173
1 174
1 175
1 176
1 177
1 178
1 179
1 180
1 181
1 182
1 183
1 184
1 185
1 186
1 187
1 188
1 189
1 190
1 191
1 192
1 193
1 194
1 195
1 196
1 197
1 198
1 199
1 200
1 201
1 202
1 203
1 204
1 205
1 206
1 207
1 208
1 209
1 210
1 211
1 212
1 213
1 214
1 215
1 216
1 217
1 218
1 219
1 220
1 221
1 222
1 223
1 224
1 225
1 226
1 227
1 228
1 229
1 230
1 231
1 232
1 233
1 234
1 235
1 236
1 237
1 238
1 239
1 240
1 241
1 242
1 243
1 244
1 245
1 246
1 247
1 248
1 249
1 250
1 251
1 252
1 253
1 254
1 255
1 256
1 257
1 258
1 259
1 260
1 261
1 262
1 263
1 264
1 265
1 266
1 267
1 268
1 269
1 270
1 271
1 272
1 273
1 274
1 275
1 276
1 277
1 278
1 279
1 280
1 281
1 282
1 283
1 284
1 285
1 286
1 287
1 288
1 289
1 290
1 291
1 292
1 293
1 294
1 295
1 296
1 297
1 298
1 299
1 300
1 301
1 302
1 303
1 304
1 305
1 306
1 307
1 308
1 309
1 310
1 311
1 312
1 313
1 314
1 315
1 316
1 317
1 318
1 319
1 320
1 321
1 322
1 323
1 324
1 325
1 326
1 327
1 328
1 329
1 330
1 331
1 332
1 333
1 334
1 335
1 336
1 337
1 338
1 339
1 340
1 341
1 342
1 343
1 344
1 345
1 346
1 347
1 348
1 349
1 350
1 351
1 352
1 353
1 354
1 355
1 356
1 357
1 358
1 359
1 360
1 361
1 362
1 363
1 364
1 365
1 366
1 367
1 368
1 369
1 370
1 371
1 372
1 373
1 374
1 375
1 376
1 377
1 378
1 379
1 380
1 381
1 382
1 383
1 384
1 385
1 386
1 387
1 388
1 389
1 390
1 391
1 392
1 393
1 394
1 395
1 396
1 397
1 398
1 399
1 400
1 401
1 402
1 403
1 404
1 405
1 406
1 407
1 408
1 409
1 410
1 411
1 412
1 413
1 414
1 415
1 416
1 417
1 418
1 419
1 420
1 421
1 422
1 423
1 424
1 425
1 426
1 427
1 428
1 429
1 430
1 431
1 432
1 433
1 434
1 435
1 436
1 437
1 438
1 439
1 440
1 441
1 442
1 443
1 444
1 445
1 446
1 447
1 448
1 449
1 450
1 451
1 452
1 453
1 454
1 455
1 456
1 457
1 458
1 459
1 460
1 461
1 462
1 463
1 464
1 465
1 466
1 467
1 468
1 469
1 470
1 471
1 472
1 473
1 474
1 475
1 476
1 477
1 478
1 479
1 480
1 481
1 482
1 483
1 484
1 485
1 486
1 487
1 488
1 489
1 490
1 491
1 492
1 493
1 494
1 495
1 496
1 497
1 498
1 499
1 500
1 501
1 502
1 503
1 504
1 505
1 506
1 507
1 508
1 509
1 510
1 511
1 512
1 513
1 514
1 515
1 516
1 517
1 518
1 519
1 520
1 521
1 522
1 523
1 524
1 525
1 526
1 527
1 528
1 529
1 530
1 531
1 532
1 533
1 534
1 535
1 536
1 537
1 538
1 539
1 540
1 541
1 542
1 543
1 544
1 545
1 546
1 547
1 548
1 549
1 550
1 551
1 552
1 553
1 554
1 555
1 556
1 557
1 558
1 559
1 560
1 561
1 562
1 563
1 564
1 565
1 566
1 567
1 568
1 569
1 570
1 571
1 572
1 573
1 574
1 575
1 576
1 577
1 578
1 579
1 580
1 581
1 582
1 583
1 584
1 585
1 586
1 587
1 588
1 589
1 590
1 591
1 592
1 593
1 594
1 595
1 596
1 597
1 598
1 599
1 600
1 601
1 602
1 603
1 604
1 605
1 606
1 607
1 608
1 609
1 610
1 611
1 612
1 613
1 614
1 615
1 616
1 617
1 618
1 619
1 620
1 621
1 622
1 623
1 624
1 625
1 626
1 627
1 628
1 629
1 630
1 631
1 632
1 633
1 634
1 635
1 636
1 637
1 638
1 639
1 640
1 641
1 642
1 643
1 644
1 645
1 646
1 647
1 648
1 649
1 650
1 651
1 652
1 653
1 654
1 655
1 656
1 657
1 658
1 659
1 660
1 661
1 662
1 663
1 664
1 665
1 666
1 667
1 668
1 669
1 670
1 671
1 672
1 673
1 674
1 675
1 676
1 677
1 678
1 679
1 680
1 681
1 682
1 683
1 684
1 685
1 686
1 687
1 688
1 689
1 690
1 691
1 692
1 693
1 694
1 695
1 696
1 697
1 698
1 699
1 700
1 701
1 702
1 703
1 704
1 705
1 706
1 707
1 708
1 709
1 710
1 711
1 712
1 713
1 714
1 715
1 716
1 717
1 718
1 719
1 720
1 721
1 722
1 723
1 724
1 725
1 726
1 727
1 728
1 729
1 730
1 731
1 732
1 733
1 734
1 735
1 736
1 737
1 738
1 739
1 740
1 741
1 742
1 743
1 744
1 745
1 746
1 747
1 748
1 749
1 750
1 751
1 752
1 753
1 754
1 755
1 756
1 757
1 758
1 759
1 760
1 761
1 762
1 763
1 764
1 765
1 766
1 767
1 768
1 769
1 770
1 771
1 772
1 773
1 774
1 775
1 776
1 777
1 778
1 779
1 780
1 781
1 782
1 783
1 784
1 785
1 786
1 787
1 788
1 789
1 790
1 791
1 792
1 793
1 794
1 795
1 796
1 797
1 798
1 799
1 800
1 801
1 802
1 803
1 804
1 805
1 806
1 807
1 808
1 809
1 810
1 811
1 812
1 813
1 814
1 815
1 816
1 817
1 818
1 819
1 820
1 821
1 822
1 823
1 824
1 825
1 826
1 827
1 828
1 829
1 830
1 831
1 832
1 833
1 834
1 835
1 836
1 837
1 838
1 839
1 840
1 841
1 842
1 843
1 844
1 845
1 846
1 847
1 848
1 849
1 850
1 851
1 852
1 853
1 854
1 855
1 856
1 857
1 858
1 859
1 860
1 861
1 862
1 863
1 864
1 865
1 866
1 867
1 868
1 869
1 870
1 871
1 872
1 873
1 874
1 875
1 876
1 877
1 878
1 879
1 880
1 881
1 882
1 883
1 884
1 885
1 886
1 887
1 888
1 889
1 890
1 891
1 892
1 893
1 894
1 895
1 896
1 897
1 898
1 899
1 900
1 901
1 902
1 903
1 904
1 905
1 906
1 907
1 908
1 909
1 910
1 911
1 912
1 913
1 914
1 915
1 916
1 917
1 918
1 919
1 920
1 921
1 922
1 923
1 924
1 925
1 926
1 927
1 928
1 929
1 930
1 931
1 932
1 933
1 934
1 935
1 936
1 937
1 938
1 939
1 940
1 941
1 942
1 943
1 944
1 945
1 946
1 947
1 948
1 949
1 950
1 951
1 952
1 953
1 954
1 955
1 956
1 957
1 958
1 959
1 960
1 961
1 962
1 963
1 964
1 965
1 966
1 967
1 968
1 969
1 970
1 971
1 972
1 973
1 974
1 975
1 976
1 977
1 978
1 979
1 980
1 981
1 982
1 983
1 984
1 985
1 986
1 987
1 988
1 989
1 990
1 991
1 992
1 993
1 994
1 995
1 996
1 997
1 998
1 999
1 1000
1 1001
1 1002
1 1003
1 1004
1 1005
1 1006
1 1007
1 1008
1 1009
1 1010
1 1011
1 1012
1 1013
1 1014
1 1015
1 1016
1 1017
1 1018
1 1019
1 1020
1 1021
1 1022
1 1023
1 1024
1 1025
1 1026
1 1027
1 1028
1 1029
1 1030
1 1031
1 1032
1 1033
1 1034
1 1035
1 1036
1 1037
1 1038
1 1039
1 1040
1 1041
1 1042
1 1043
1 1044
1 1045
1 1046
1 1047
1 1048
1 1049
1 1050
1 1051
1 1052
1 1053
1 1054
1 1055
1 1056
1 1057
1 1058
1 1059
1 1060
1 1061
1 1062
1 1063
1 1064
1 1065
1 1066
1 1067
1 1068
1 1069
1 1070
1 1071
1 1072
1 1073
1 1074
1 1075
1 1076
1 1077
1 1078
1 1079
1 1080
1 1081
1 1082
1 1083
1 1084
1 1085
1 1086
1 1087
1 1088
1 1089
1 1090
1 1091
1 1092
1 1093
1 1094
1 1095
1 1096
1 1097
1 1098
1 1099
1 1100
1 1101
1 1102
1 1103
1 1104
1 1105
1 1106
1 1107
1 1108
1 1109
1 1110
1 1111
1 1112
1 1113
1 1114
1 1115
1 1116
1 1117
1 1118
1 1119
1 1120
1 1121
1 1122
1 1123
1 1124
1 1125
1 1126
1 1127
1 1128
1 1129
1 1130
1 1131
1 1132
1 1133
1 1134
1 1135
1 1136
1 1137
1 1138
1 1139
1 1140
1 1141
1 1142
1 1143
1 1144
1 1145
1 1146
1 1147
1 1148
1 1149
1 1150
1 1151
1 1152
1 1153
1 1154
1 1155
1 1156
1 1157
1 1158
1 1159
1 1160
1 1161
1 1162
1 1163
1 1164
1 1165
1 1166
1 1167
1 1168
1 1169
1 1170
1 1171
1 1172
1 1173
1 1174
1 1175
1 1176
1 1177
1 1178
1 1179
1 1180
1 1181
1 1182
1 1183
1 1184
1 1185
1 1186
1 1187
1 1188
1 1189
1 1190
1 1191
1 1192
1 1193
1 1194
1 1195
1 1196
1 1197
1 1198
1 1199
1 1200
1 1201
1 1202
1 1203
1 1204
1 1205
1 1206
1 1207
1 1208
1 1209
1 1210
1 1211
1 1212
1 1213
1 1214
1 1215
1 1216
1 1217
1 1218
1 1219
1 1220
1 1221
1 1222
1 1223
1 1224
1 1225
1 1226
1 1227
1 1228
1 1229
1 1230
1 1231
1 1232
1 1233
1 1234
1 1235
1 1236
1 1237
1 1238
1 1239
1 1240
1 1241
1 1242
1 1243
1 1244
1 1245
1 1246
1 1247
1 1248
1 1249
1 1250
1 1251
1 1252
1 1253
1 1254
1 1255
1 1256
1 1257
1 1258
1 1259
1 1260
1 1261
1 1262
1 1263
1 1264
1 1265
1 1266
1 1267
1 1268
1 1269
1 1270
1 1271
1 1272
1 1273
1 1274
1 1275
1 1276
1 1277
1 1278
1 1279
1 1280
1 1281
1 1282
1 1283
1 1284
1 1285
1 1286
1 1287
1 1288
1 1289
1 1290
1 1291
1 1292
1 1293
1 1294
1 1295
1 1296
1 1297
1 1298
1 1299
1 1300
1 1301
1 1302
1 1303
1 1304
1 1305
1 1306
1 1307
1 1308
1 1309
1 1310
1 1311
1 1312
1 1313
1 1314
1 1315
1 1316
1 1317
1 1318
1 1319
1 1320
1 1321
1 1322
1 1323
1 1324
1 1325
1 1326
1 1327
1 1328
1 1329
1 1330
1 1331
1 1332
1 1333
1 1334
1 1335
1 1336
1 1337
1 1338
1 1339
1 1340
1 1341
1 1342
1 1343
1 1344
1 1345
1 1346
1 1347
1 1348
1 1349
1 1350
1 1351
1 1352
1 1353
1 1354
1 1355
1 1356
1 1357
1 1358
1 1359
1 1360
1 1361
1 1362
1 1363
1 1364
1 1365
1 1366
1 1367
1 1368
1 1369
1 1370
1 1371
1 1372
1 1373
1 1374
1 1375
1 1376
1 1377
1 1378
1 1379
1 1380
1 1381
1 1382
1 1383
1 1384
1 1385
1 1386
1 1387
1 1388
1 1389
1 1390
1 1391
1 1392
1 1393
1 1394
1 1395
1 1396
1 1397
1 1398
1 1399
1 1400
1 1401
1 1402
1 1403
1 1404
1 1405
1 1406
1 1407
1 1408
1 1409
1 1410
1 1411
1 1412
1 1413
1 1414
1 1415
1 1416
1 1417
1 1418
1 1419
1 1420
1 1421
1 1422
1 1423
1 1424
1 1425
1 1426
1 1427
1 1428
1 1429
1 1430
1 1431
1 1432
1 1433
1 1434
1 1435
1 1436
1 1437
1 1438
1 1439
1 1440
1 1441
1 1442
1 1443
1 1444
1 1445
1 1446
1 1447
1 1448
1 1449
1 1450
1 1451
1 1452
1 1453
1 1454
1 1455
1 1456
1 1457
1 1458
1 1459
1 1460
1 1461
1 1462
1 1463
1 1464
1 1465
1 1466
1 1467
1 1468
1 1469
1 1470
1 1471
1 1472
1 1473
1 1474
1 1475
1 1476
1 1477
1 1478
1 1479
1 1480
1 1481
1 1482
1 1483
1 1484
1 1485
1 1486
1 1487
1 1488
1 1489
1 1490
1 1491
1 1492
1 1493
1 1494
1 1495
1 1496
1 1497
1 1498
1 1499
1 1500
1 1501
1 1502
1 1503
1 1504
1 1505
1 1506
1 1507
1 1508
1 1509
1 1510
1 1511
1 1512
1 1513
1 1514
1 1515
1 1516
1 1517
1 1518
1 1519
1 1520
1 1521
1 1522
1 1523
1 1524
1 1525
1 1526
1 1527
1 1528
1 1529
1 1530
1 1531
1 1532
1 1533
1 1534
1 1535
1 1536
1 1537
1 1538
1 1539
1 1540
1 1541
1 1542
1 1543
1 1544
1 1545
1 1546
1 1547
1 1548
1 1549
1 1550
1 1551
1 1552
1 1553
1 1554
1 1555
1 1556
1 1557
1 1558
1 1559
1 1560
1 1561
1 1562
1 1563
1 1564
1 1565
1 1566
1 1567
1 1568
1 1569
1 1570
1 1571
1 1572
1 1573
1 1574
1 1575
1 1576
1 1577
1 1578
1 1579
1 1580
1 1581
1 1582
1 1583
1 1584
1 1585
1 1586
1 1587
1 1588
1 1589
1 1590
1 1591
1 1592
1 1593
1 1594
1 1595
1 1596
1 1597
1 1598
1 1599
1 1600
1 1601
1 1602
1 1603
1 1604
1 1605
1 1606
1 1607
1 1608
1 1609
1 1610
1 1611
1 1612
1 1613
1 1614
1 1615
1 1616
1 1617
1 1618
1 1619
1 1620
1 1621
1 1622
1 1623
1 1624
1 1625
1 1626
1 1627
1 1628
1 1629
1 1630
1 1631
1 1632
1 1633
1 1634
1 1635
1 1636
1 1637
1 1638
1 1639
1 1640
1 1641
1 1642
1 1643
1 1644
1 1645
1 1646
1 1647
1 1648
1 1649
1 1650
1 1651
1 1652
1 1653
1 1654
1 1655
1 1656
1 1657
1 1658
1 1659
1 1660
1 1661
1 1662
1 1663
1 1664
1 1665
1 1666
1 1667
1 1668
1 1669
1 1670
1 1671
1 1672
1 1673
1 1674
1 1675
1 1676
1 1677
1 1678
1 1679
1 1680
1 1681
1 1682
1 1683
1 1684
1 1685
1 1686
1 1687
1 1688
1 1689
1 1690
1 1691
1 1692
1 1693
1 1694
1 1695
1 1696
1 1697
1 1698
1 1699
1 1700
1 1701
1 1702
1 1703
1 1704
1 1705
1 1706
1 1707
1 1708
1 1709
1 1710
1 1711
1 1712
1 1713
1 1714
1 1715
1 1716
1 1717
1 1718
1 1719
1 1720
1 1721
1 1722
1 1723
1 1724
1 1725
1 1726
1 1727
1 1728
1 1729
1 1730
1 1731
1 1732
1 1733
1 1734
1 1735
1 1736
1 1737
1 1738
1 1739
1 1740
1 1741
1 1742
1 1743
1 1744
1 1745
1 1746
1 1747
1 1748
1 1749
1 1750
1 1751
1 1752
1 1753
1 1754
1 1755
1 1756
1 1757
1 1758
1 1759
1 1760
1 1761
1 1762
1 1763
1 1764
1 1765
1 1766
1 1767
1 1768
1 1769
1 1770
1 1771
1 1772
1 1773
1 1774
1 1775
1 1776
1 1777
1 1778
1 1779
1 1780
1 1781
1 1782
1 1783
1 1784
1 1785
1 1786
1 1787
1 1788
1 1789
1 1790
1 1791
1 1792
1 1793
1 1794
1 1795
1 1796
1 1797
1 1798
1 1799
1 1800
1 1801
1 1802
1 1803
1 1804
1 1805
1 1806
1 1807
1 1808
1 1809
1 1810
1 1811
1 1812
1 1813
1 1814
1 1815
1 1816
1 1817
1 1818
1 1819
1 1820
1 1821
1 1822
1 1823
1 1824
1 1825
1 1826
1 1827
1 1828
1 1829
1 1830
1 1831
1 1832
1 1833
1 1834
1 1835
1 1836
1 1837
1 1838
1 1839
1 1840
1 1841
1 1842
1 1843
1 1844
1 1845
1 1846
1 1847
1 1848
1 1849
1 1850
1 1851
1 1852
1 1853
1 1854
1 1855
1 1856
1 1857
1 1858
1 1859
1 1860
1 1861
1 1862
1 1863
1 1864
1 1865
1 1866
1 1867
1 1868
1 1869
1 1870
1 1871
1 1872
1 1873
1 1874
1 1875
1 1876
1 1877
1 1878
1 1879
1 1880
1 1881
1 1882
1 1883
1 1884
1 1885
1 1886
1 1887
1 1888
1 1889
1 1890
1 1891
1 1892
1 1893
1 1894
1 1895
1 1896
1 1897
1 1898
1 1899
1 1900
1 1901
1 1902
1 1903
1 1904
1 1905
1 1906
1 1907
1 1908
1 1909
1 1910
1 1911
1 1912
1 1913
1 1914
1 1915
1 1916
1 1917
1 1918
1 1919
1 1920
1 1921
1 1922
1 1923
1 1924
1 1925
1 1926
1 1927
1 1928
1 1929
1 1930
1 1931
1 1932
1 1933
1 1934
1 1935
1 1936
1 1937
1 1938
1 1939
1 1940
1 1941
1 1942
1 1943
1 1944
1 1945
1 1946
1 1947
1 1948
1 1949
1 1950
1 1951
1 1952
1 1953
1 1954
1 1955
1 1956
1 1957
1 1958
1 1959
1 1960
1 1961
1 1962
1 1963
1 1964
1 1965
1 1966
1 1967
1 1968
1 1969
1 1970
1 1971
1 1972
1 1973
1 1974
1 1975
1 1976
1 1977
1 1978
1 1979
1 1980
1 1981
1 1982
1 1983
1 1984
1 1985
1 1986
1 1987
1 1988
1 1989
1 1990
1 1991
1 1992
1 1993
1 1994
1 1995
1 1996
1 1997
1 1998
1 1999
1 2000
1 2001
1 2002
1 2003
1 2004
1 2005
1 2006
1 2007
1 2008
1 2009
1 2010
1 2011
1 2012
1 2013
1 2014
1 2015
1 2016
1 2017
1 2018
1 2019
1 2020
1 2021
1 2022
1 2023
1 2024
1 2025
1 2026
1 2027
1 2028
1 2029
1 2030
1 2031
1 2032
1 2033
1 2034
1 2035
1 2036
1 2037
1 2038
1 2039
1 2040
1 2041
1 2042
1 2043
1 2044
1 2045
1 2046
1 2047
1 2048
1 2049
1 2050
1 2051
1 2052
1 2053
1 2054
1 2055
1 2056
1 2057
1 2058
1 2059
1 2060
1 2061
1 2062
1 2063
1 2064
1 2065
1 2066
1 2067
1 2068
1 2069
1 2070
1 2071
1 2072
1 2073
1 2074
1 2075
1 2076
1 2077
1 2078
1 2079
1 2080
1 2081
1 2082
1 2083
1 2084
1 2085
1 2086
1 2087
1 2088
1 2089
1 2090
1 2091
1 2092
1 2093
1 2094
1 2095
1 2096
1 2097
1 2098
1 2099
1 2100
1 2101
1 2102
1 2103
1 2104
1 2105
1 2106
1 2107
1 2108
1 2109
1 2110
1 2111
1 2112
1 2113
1 2114
1 2115
1 2116
1 2117
1 2118
1 2119
1 2120
1 2121
1 2122
1 2123
1 2124
1 2125
1 2126
1 2127
1 2128
1 2129
1 2130
1 2131
1 2132
1 2133
1 2134
1 2135
1 2136
1 2137
1 2138
1 2139
1 2140
1 2141
1 2142
1 2143
1 2144
1 2145
1 2146
1 2147
1 2148
1 2149
1 2150
1 2151
1 2152
1 2153
1 2154
1 2155
1 2156
1 2157
1 2158
1 2159
1 2160
1 2161
1 2162
1 2163
1 2164
1 2165
1 2166
1 2167
1 2168
1 2169
1 2170
1 2171
1 2172
1 2173
1 2174
1 2175
1 2176
1 2177
1 2178
1 2179
1 2180
1 2181
1 2182
1 2183
1 2184
1 2185
1 2186
1 2187
1 2188
1 2189
1 2190
1 2191
1 2192
1 2193
1 2194
1 2195
1 2196
1 2197
1 2198
1 2199
1 2200
1 2201
1 2202
1 2203
1 2204
1 2205
1 2206
1 2207
1 2208
1 2209
1 2210
1 2211
1 2212
1 2213
1 2214
1 2215
1 2216
1 2217
1 2218
1 2219
1 2220
1 2221
1 2222
1 2223
1 2224
1 2225
1 2226
1 2227
1 2228
1 2229
1 2230
1 2231
1 2232
1 2233
1 2234
1 2235
1 2236
1 2237
1 2238
1 2239
1 2240
1 2241
1 2242
1 2243
1 2244
1 2245
1 2246
1 2247
1 2248
1 2249
1 2250
1 2251
1 2252
1 2253
1 2254
1 2255
1 2256
1 2257
1 2258
1 2259
1 2260
1 2261
1 2262
1 2263
1 2264
1 2265
1 2266
1 2267
1 2268
1 2269
1 2270
1 2271
1 2272
1 2273
1 2274
1 2275
1 2276
1 2277
1 2278
1 2279
1 2280
1 2281
1 2282
1 2283
1 2284
1 2285
1 2286
1 2287
1 2288
1 2289
1 2290
1 2291
1 2292
1 2293
1 2294
1 2295
1 2296
1 2297
1 2298
1 2299
1 2300
1 2301
1 2302
1 2303
1 2304
1 2305
1 2306
1 2307
1 2308
1 2309
1 2310
1 2311
1 2312
1 2313
1 2314
1 2315
1 2316
1 2317
1 2318
1 2319
1 2320
1 2321
1 2322
1 2323
1 2324
1 2325
1 2326
1 2327
1 2328
1 2329
1 2330
1 2331
1 2332
1 2333
1 2334
1 2335
1 2336
1 2337
1 2338
1 2339
1 2340
1 2341
1 2342
1 2343
1 2344
1 2345
1 2346
1 2347
1 2348
1 2349
1 2350
1 2351
1 2352
1 2353
1 2354
1 2355
1 2356
1 2357
1 2358
1 2359
1 2360
1 2361
1 2362
1 2363
1 2364
1 2365
1 2366
1 2367
1 2368
1 2369
1 2370
1 2371
1 2372
1 2373
1 2374
1 2375
1 2376
1 2377
1 2378
1 2379
1 2380
1 2381
1 2382
1 2383
1 2384
1 2385
1 2386
1 2387
1 2388
1 2389
1 2390
1 2391
1 2392
1 2393
1 2394
1 2395
1 2396
1 2397
1 2398
1 2399
1 2400
1 2401
1 2402
1 2403
1 2404
1 2405
1 2406
1 2407
1 2408
1 2409
1 2410
1 2411
1 2412
1 2413
1 2414
1 2415
1 2416
1 2417
1 2418
1 2419
1 2420
1 2421
1 2422
1 2423
1 2424
1 2425
1 2426
1 2427
1 2428
1 2429
1 2430
1 2431
1 2432
1 2433
1 2434
1 2435
1 2436
1 2437
1 2438
1 2439
1 2440
1 2441
1 2442
1 2443
1 2444
1 2445
1 2446
1 2447
1 2448
1 2449
1 2450
1 2451
1 2452
1 2453
1 2454
1 2455
1 2456
1 2457
1 2458
1 2459
1 2460
1 2461
1 2462
1 2463
1 2464
1 2465
1 2466
1 2467
1 2468
1 2469
1 2470
1 2471
1 2472
1 2473
1 2474
1 2475
1 2476
1 2477
1 2478
1 2479
1 2480
1 2481
1 2482
1 2483
1 2484
1 2485
1 2486
1 2487
1 2488
1 2489
1 2490
1 2491
1 2492
1 2493
1 2494
1 2495
1 2496
1 2497
1 2498
1 2499
1 2500
1 2501
1 2502
1 2503
1 2504
1 2505
1 2506
1 2507
1 2508
1 2509
1 2510
1 2511
1 2512
1 2513
1 2514
1 2515
1 2516
1 2517
1 2518
1 2519
1 2520
1 2521
1 2522
1 2523
1 2524
1 2525
1 2526
1 2527
1 2528
1 2529
1 2530
1 2531
1 2532
1 2533
1 2534
1 2535
1 2536
1 2537
1 2538
1 2539
1 2540
1 2541
1 2542
1 2543
1 2544
1 2545
1 2546
1 2547
1 2548
1 2549
1 2550
1 2551
1 2552
1 2553
1 2554
1 2555
1 2556
1 2557
1 2558
1 2559
1 2560
1 2561
1 2562
1 2563
1 2564
1 2565
1 2566
1 2567
1 2568
1 2569
1 2570
1 2571
1 2572
1 2573
1 2574
1 2575
1 2576
1 2577
1 2578
1 2579
1 2580
1 2581
1 2582
1 2583
1 2584
1 2585
1 2586
1 2587
1 2588
1 2589
1 2590
1 2591
1 2592
1 2593
1 2594
1 2595
1 2596
1 2597
1 2598
1 2599
1 2600
1 2601
1 2602
1 2603
1 2604
1 2605
1 2606
1 2607
1 2608
1 2609
1 2610
1 2611
1 2612
1 2613
1 2614
1 2615
1 2616
1 2617
1 2618
1 2619
1 2620
1 2621
1 2622
1 2623
1 2624
1 2625
1 2626
1 2627
1 2628
1 2629
1 2630
1 2631
1 2632
1 2633
1 2634
1 2635
1 2636
1 2637
1 2638
1 2639
1 2640
1 2641
1 2642
1 2643
1 2644
1 2645
1 2646
1 2647
1 2648
1 2649
1 2650
1 2651
1 2652
1 2653
1 2654
1 2655
1 2656
1 2657
1 2658
1 2659
1 2660
1 2661
1 2662
1 2663
1 2664
1 2665
1 2666
1 2667
1 2668
1 2669
1 2670
1 2671
1 2672
1 2673
1 2674
1 2675
1 2676
1 2677
1 2678
1 2679
1 2680
1 2681
1 2682
1 2683
1 2684
1 2685
1 2686
1 2687
1 2688
1 2689
1 2690
1 2691
1 2692
1 2693
1 2694
1 2695
1 2696
1 2697
1 2698
1 2699
1 2700
1 2701
1 2702
1 2703
1 2704
1 2705
1 2706
1 2707
1 2708
1 2709
1 2710
1 2711
1 2712
1 2713
1 2714
1 2715
1 2716
1 2717
1 2718
1 2719
1 2720
1 2721
1 2722
1 2723
1 2724
1 2725
1 2726
1 2727
1 2728
1 2729
1 2730
1 2731
1 2732
1 2733
1 2734
1 2735
1 2736
1 2737
1 2738
1 2739
1 2740
1 2741
1 2742
1 2743
1 2744
1 2745
1 2746
1 2747
1 2748
1 2749
1 2750
1 2751
1 2752
1 2753
1 2754
1 2755
1 2756
1 2757
1 2758
1 2759
1 2760
1 2761
1 2762
1 2763
1 2764
1 2765
1 2766
1 2767
1 2768
1 2769
1 2770
1 2771
1 2772
1 2773
1 2774
1 2775
1 2776
1 2777
1 2778
1 2779
1 2780
1 2781
1 2782
1 2783
1 2784
1 2785
1 2786
1 2787
1 2788
1 2789
1 2790
1 2791
1 2792
1 2793
1 2794
1 2795
1 2796
1 2797
1 2798
1 2799
1 2800
1 2801
1 2802
1 2803
1 2804
1 2805
1 2806
1 2807
1 2808
1 2809
1 2810
1 2811
1 2812
1 2813
1 2814
1 2815
1 2816
1 2817
1 2818
1 2819
1 2820
1 2821
1 2822
1 2823
1 2824
1 2825
1 2826
1 2827
1 2828
1 2829
1 2830
1 2831
1 2832
1 2833
1 2834
1 2835
1 2836
1 2837
1 2838
1 2839
1 2840
1 2841
1 2842
1 2843
1 2844
1 2845
1 2846
1 2847
1 2848
1 2849
1 2850
1 2851
1 2852
1 2853
1 2854
1 2855
1 2856
1 2857
1 2858
1 2859
1 2860
1 2861
1 2862
1 2863
1 2864
1 2865
1 2866
1 2867
1 2868
1 2869
1 2870
1 2871
1 2872
1 2873
1 2874
1 2875
1 2876
1 2877
1 2878
1 2879
1 2880
1 2881
1 2882
1 2883
1 2884
1 2885
1 2886
1 2887
1 2888
1 2889
1 2890
1 2891
1 2892
1 2893
1 2894
1 2895
1 2896
1 2897
1 2898
1 2899
1 2900
1 2901
1 2902
1 2903
1 2904
1 2905
1 2906
1 2907
1 2908
1 2909
1 2910
1 2911
1 2912
1 2913
1 2914
1 2915
1 2916
1 2917
1 2918
1 2919
1 2920
1 2921
1 2922
1 2923
1 2924
1 2925
1 2926
1 2927
1 2928
1 2929
1 2930
1 2931
1 2932
1 2933
1 2934
1 2935
1 2936
1 2937
1 2938
1 2939
1 2940
1 2941
1 2942
1 2943
1 2944
1 2945
1 2946
1 2947
1 2948
1 2949
1 2950
1 2951
1 2952
1 2953
1 2954
1 2955
1 2956
1 2957
1 2958
1 2959
1 2960
1 2961
1 2962
1 2963
1 2964
1 2965
1 2966
1 2967
1 2968
1 2969
1 2970
1 2971
1 2972
1 2973
1 2974
1 2975
1 2976
1 2977
1 2978
1 2979
1 2980
1 2981
1 2982
1 2983
1 2984
1 2985
1 2986
1 2987
1 2988
1 2989
1 2990
1 2991
1 2992
1 2993
1 2994
1 2995
1 2996
1 2997
1 2998
1 2999
1 3000
1 3001
1 3002
1 3003
1 3004
1 3005
1 3006
1 3007
1 3008
1 3009
1 3010
1 3011
1 3012
1 3013
1 3014
1 3015
1 3016
1 3017
1 3018
1 3019
1 3020
1 3021
1 3022
1 3023
1 3024
1 3025
1 3026
1 3027
1 3028
1 3029
1 3030
1 3031
1 3032
1 3033
1 3034
1 3035
1 3036
1 3037
1 3038
1 3039
1 3040
1 3041
1 3042
1 3043
1 3044
1 3045
1 3046
1 3047
1 3048
1 3049
1 3050
1 3051
1 3052
1 3053
1 3054
1 3055
1 3056
1 3057
1 3058
1 3059
1 3060
1 3061
1 3062
1 3063
1 3064
1 3065
1 3066
1 3067
1 3068
1 3069
1 3070
1 3071
1 3072
1 3073
1 3074
1 3075
1 3076
1 3077
1 3078
1 3079
1 3080
1 3081
1 3082
1 3083
1 3084
1 3085
1 3086
1 3087
1 3088
1 3089
1 3090
1 3091
1 3092
1 3093
1 3094
1 3095
1 3096
1 3097
1 3098
1 3099
1 3100
1 3101
1 3102
1 3103
1 3104
1 3105
1 3106
1 3107
1 3108
1 3109
1 3110
1 3111
1 3112
1 3113
1 3114
1 3115
1 3116
1 3117
1 3118
1 3119
1 3120
1 3121
1 3122
1 3123
1 3124
1 3125
1 3126
1 3127
1 3128
1 3129
1 3130
1 3131
1 3132
1 3133
1 3134
1 3135
1 3136
1 3137
1 3138
1 3139
1 3140
1 3141
1 3142
1 3143
1 3144
1 3145
1 3146
1 3147
1 3148
1 3149
1 3150
1 3151
1 3152
1 3153
1 3154
1 3155
1 3156
1 3157
1 3158
1 3159
1 3160
1 3161
1 3162
1 3163
1 3164
1 3165
1 3166
1 3167
1 3168
1 3169
1 3170
1 3171
1 3172
1 3173
1 3174
1 3175
1 3176
1 3177
1 3178
1 3179
1 3180
1 3181
1 3182
1 3183
1 3184
1 3185
1 3186
1 3187
1 3188
1 3189
1 3190
1 3191
1 3192
1 3193
1 3194
1 3195
1 3196
1 3197
1 3198
1 3199
1 3200
1 3201
1 3202
1 3203
1 3204
1 3205
1 3206
1 3207
1 3208
1 3209
1 3210
1 3211
1 3212
1 3213
1 3214
1 3215
1 3216
1 3217
1 3218
1 3219
1 3220
1 3221
1 3222
1 3223
1 3224
1 3225
1 3226
1 3227
1 3228
1 3229
1 3230
1 3231
1 3232
1 3233
1 3234
1 3235
1 3236
1 3237
1 3238
1 3239
1 3240
1 3241
1 3242
1 3243
1 3244
1 3245
1 3246
1 3247
1 3248
1 3249
1 3250
1 3251
1 3252
1 3253
1 3254
1 3255
1 3256
1 3257
1 3258
1 3259
1 3260
1 3261
1 3262
1 3263
1 3264
1 3265
1 3266
1 3267
1 3268
1 3269
1 3270
1 3271
1 3272
1 3273
1 3274
1 3275
1 3276
1 3277
1 3278
1 3279
1 3280
1 3281
1 3282
1 3283
1 3284
1 3285
1 3286
1 3287
1 3288
1 3289
1 3290
1 3291
1 3292
1 3293
1 3294
1 3295
1 3296
1 3297
1 3298
1 3299
1 3300
1 3301
1 3302
1 3303
1 3304
1 3305
1 3306
1 3307
1 3308
1 3309
1 3310
1 3311
1 3312
1 3313
1 3314
1 3315
1 3316
1 3317
1 3318
1 3319
1 3320
1 3321
1 3322
1 3323
1 3324
1 3325
1 3326
1 3327
1 3328
1 3329
1 3330
1 3331
1 3332
1 3333
1 3334
1 3335
1 3336
1 3337
1 3338
1 3339
1 3340
1 3341
1 3342
1 3343
1 3344
1 3345
1 3346
1 3347
1 3348
1 3349
1 3350
1 3351
1 3352
1 3353
1 3354
1 3355
1 3356
1 3357
1 3358
1 3359
1 3360
1 3361
1 3362
1 3363
1 3364
1 3365
1 3366
1 3367
1 3368
1 3369
1 3370
1 3371
1 3372
1 3373
1 3374
1 3375
1 3376
1 3377
1 3378
1 3379
1 3380
1 3381
1 3382
1 3383
1 3384
1 3385
1 3386
1 3387
1 3388
1 3389
1 3390
1 3391
1 3392
1 3393
1 3394
1 3395
1 3396
1 3397
1 3398
1 3399
1 3400
1 3401
1 3402
1 3403
1 3404
1 3405
1 3406
1 3407
1 3408
1 3409
1 3410
1 3411
1 3412
1 3413
1 3414
1 3415
1 3416
1 3417
1 3418
1 3419
1 3420
1 3421
1 3422
1 3423
1 3424
1 3425
1 3426
1 3427
1 3428
1 3429
1 3430
1 3431
1 3432
1 3433
1 3434
1 3435
1 3436
1 3437
1 3438
1 3439
1 3440
1 3441
1 3442
1 3443
1 3444
1 3445
1 3446
1 3447
1 3448
1 3449
1 3450
1 3451
1 3452
1 3453
1 3454
1 3455
1 3456
1 3457
1 3458
1 3459
1 3460
1 3461
1 3462
1 3463
1 3464
1 3465
1 3466
1 3467
1 3468
1 3469
1 3470
1 3471
1 3472
1 3473
1 3474
1 3475
1 3476
1 3477
1 3478
1 3479
1 3480
1 3481
1 3482
1 3483
1 3484
1 3485
1 3486
1 3487
1 3488
1 3489
1 3490
1 3491
1 3492
1 3493
1 3494
1 3495
1 3496
1 3497
1 3498
1 3499
1 3500
1 3501
1 3502
1 3503
1 3504
1 3505
1 3506
1 3507
1 3508
1 3509
1 3510
1 3511
1 3512
1 3513
1 3514
1 3515
1 3516
1 3517
1 3518
1 3519
1 3520
1 3521
1 3522
1 3523
1 3524
1 3525
1 3526
1 3527
1 3528
1 3529
1 3530
1 3531
1 3532
1 3533
1 3534
1 3535
1 3536
1 3537
1 3538
1 3539
1 3540
1 3541
1 3542
1 3543
1 3544
1 3545
1 3546
1 3547
1 3548
1 3549
1 3550
1 3551
1 3552
1 3553
1 3554
1 3555
1 3556
1 3557
1 3558
1 3559
1 3560
1 3561
1 3562
1 3563
1 3564
1 3565
1 3566
1 3567
1 3568
1 3569
1 3570
1 3571
1 3572
1 3573
1 3574
1 3575
1 3576
1 3577
1 3578
1 3579
1 3580
1 3581
1 3582
1 3583
1 3584
1 3585
1 3586
1 3587
1 3588
1 3589
1 3590
1 3591
1 3592
1 3593
1 3594
1 3595
1 3596
1 3597
1 3598
1 3599
1 3600
1 3601
1 3602
1 3603
1 3604
1 3605
1 3606
1 3607
1 3608
1 3609
1 3610
1 3611
1 3612
1 3613
1 3614
1 3615
1 3616
1 3617
1 3618
1 3619
1 3620
1 3621
1 3622
1 3623
1 3624
1 3625
1 3626
1 3627
1 3628
1 3629
1 3630
1 3631
1 3632
1 3633
1 3634
1 3635
1 3636
1 3637
1 3638
1 3639
1 3640
1 3641
1 3642
1 3643
1 3644
1 3645
1 3646
1 3647
1 3648
1 3649
1 3650
1 3651
1 3652
1 3653
1 3654
1 3655
1 3656
1 3657
1 3658
1 3659
1 3660
1 3661
1 3662
1 3663
1 3664
1 3665
1 3666
1 3667
1 3668
1 3669
1 3670
1 3671
1 3672
1 3673
1 3674
1 3675
1 3676
1 3677
1 3678
1 3679
1 3680
1 3681
1 3682
1 3683
1 3684
1 3685
1 3686
1 3687
1 3688
1 3689
1 3690
1 3691
1 3692
1 3693
1 3694
1 3695
1 3696
1 3697
1 3698
1 3699
1 3700
1 3701
1 3702
1 3703
1 3704
1 3705
1 3706
1 3707
1 3708
1 3709
1 3710
1 3711
1 3712
1 3713
1 3714
1 3715
1 3716
1 3717
1 3718
1 3719
1 3720
1 3721
1 3722
1 3723
1 3724
1 3725
1 3726
1 3727
1 3728
1 3729
1 3730
1 3731
1 3732
1 3733
1 3734
1 3735
1 3736
1 3737
1 3738
1 3739
1 3740
1 3741
1 3742
1 3743
1 3744
1 3745
1 3746
1 3747
1 3748
1 3749
1 3750
1 3751
1 3752
1 3753
1 3754
1 3755
1 3756
1 3757
1 3758
1 3759
1 3760
1 3761
1 3762
1 3763
1 3764
1 3765
1 3766
1 3767
1 3768
1 3769
1 3770
1 3771
1 3772
1 3773
1 3774
1 3775
1 3776
1 3777
1 3778
1 3779
1 3780
1 3781
1 3782
1 3783
1 3784
1 3785
1 3786
1 3787
1 3788
1 3789
1 3790
1 3791
1 3792
1 3793
1 3794
1 3795
1 3796
1 3797
1 3798
1 3799
1 3800
1 3801
1 3802
1 3803
1 3804
1 3805
1 3806
1 3807
1 3808
1 3809
1 3810
1 3811
1 3812
1 3813
1 3814
1 3815
1 3816
1 3817
1 3818
1 3819
1 3820
1 3821
1 3822
1 3823
1 3824
1 3825
1 3826
1 3827
1 3828
1 3829
1 3830
1 3831
1 3832
1 3833
1 3834
1 3835
1 3836
1 3837
1 3838
1 3839
1 3840
1 3841
1 3842
1 3843
1 3844
1 3845
1 3846
1 3847
1 3848
1 3849
1 3850
1 3851
1 3852
1 3853
1 3854
1 3855
1 3856
1 3857
1 3858
1 3859
1 3860
1 3861
1 3862
1 3863
1 3864
1 3865
1 3866
1 3867
1 3868
1 3869
1 3870
1 3871
1 3872
1 3873
1 3874
1 3875
1 3876
1 3877
1 3878
1 3879
1 3880
1 3881
1 3882
1 3883
1 3884
1 3885
1 3886
1 3887
1 3888
1 3889
1 3890
1 3891
1 3892
1 3893
1 3894
1 3895
1 3896
1 3897
1 3898
1 3899
1 3900
1 3901
1 3902
1 3903
1 3904
1 3905
1 3906
1 3907
1 3908
1 3909
1 3910
1 3911
1 3912
1 3913
1 3914
1 3915
1 3916
1 3917
1 3918
1 3919
1 3920
1 3921
1 3922
1 3923
1 3924
1 3925
1 3926
1 3927
1 3928
1 3929
1 3930
1 3931
1 3932
1 3933
1 3934
1 3935
1 3936
1 3937
1 3938
1 3939
1 3940
1 3941
1 3942
1 3943
1 3944
1 3945
1 3946
1 3947
1 3948
1 3949
1 3950
1 3951
1 3952
1 3953
1 3954
1 3955
1 3956
1 3957
1 3958
1 3959
1 3960
1 3961
1 3962
1 3963
1 3964
1 3965
1 3966
1 3967
1 3968
1 3969
1 3970
1 3971
1 3972
1 3973
1 3974
1 3975
1 3976
1 3977
1 3978
1 3979
1 3980
1 3981
1 3982
1 3983
1 3984
1 3985
1 3986
1 3987
1 3988
1 3989
1 3990
1 3991
1 3992
1 3993
1 3994
1 3995
1 3996
1 3997
1 3998
1 3999
1 4000
1 4001
1 4002
1 4003
1 4004
1 4005
1 4006
1 4007
1 4008
1 4009
1 4010
1 4011
1 4012
1 4013
1 4014
1 4015
1 4016
1 4017
1 4018
1 4019
1 4020
1 4021
1 4022
1 4023
1 4024
1 4025
1 4026
1 4027
1 4028
1 4029
1 4030
1 4031
1 4032
1 4033
1 4034
1 4035
1 4036
1 4037
1 4038
1 4039
1 4040
1 4041
1 4042
1 4043
1 4044
1 4045
1 4046
1 4047
1 4048
1 4049
1 4050
1 4051
1 4052
1 4053
1 4054
1 4055
1 4056
1 4057
1 4058
1 4059
1 4060
1 4061
1 4062
1 4063
1 4064
1 4065
1 4066
1 4067
1 4068
1 4069
1 4070
1 4071
1 4072
1 4073
1 4074
1 4075
1 4076
1 4077
1 4078
1 4079
1 4080
1 4081
1 4082
1 4083
1 4084
1 4085
1 4086
1 4087
1 4088
1 4089
1 4090
1 4091
1 4092
1 4093
1 4094
1 4095
1 4096
1 4097
1 4098
1 4099
1 4100
1 4101
1 4102
1 4103
1 4104
1 4105
1 4106
1 4107
1 4108
1 4109
1 4110
1 4111
1 4112
1 4113
1 4114
1 4115
1 4116
1 4117
1 4118
1 4119
1 4120
1 4121
1 4122
1 4123
1 4124
1 4125
1 4126
1 4127
1 4128
1 4129
1 4130
1 4131
1 4132
1 4133
1 4134
1 4135
1 4136
1 4137
1 4138
1 4139
1 4140
1 4141
1 4142
1 4143
1 4144
1 4145
1 4146
1 4147
1 4148
1 4149
1 4150
1 4151
1 4152
1 4153
1 4154
1 4155
1 4156
1 4157
1 4158
1 4159
1 4160
1 4161
1 4162
1 4163
1 4164
1 4165
1 4166
1 4167
1 4168
1 4169
1 4170
1 4171
1 4172
1 4173
1 4174
1 4175
1 4176
1 4177
1 4178
1 4179
1 4180
1 4181
1 4182
1 4183
1 4184
1 4185
1 4186
1 4187
1 4188
1 4189
1 4190
1 4191
1 4192
1 4193
1 4194
1 4195
1 4196
1 4197
1 4198
1 4199
1 4200
1 4201
1 4202
1 4203
1 4204
1 4205
1 4206
1 4207
1 4208
1 4209
1 4210
1 4211
1 4212
1 4213
1 4214
1 4215
1 4216
1 4217
1 4218
1 4219
1 4220
1 4221
1 4222
1 4223
1 4224
1 4225
1 4226
1 4227
1 4228
1 4229
1 4230
1 4231
1 4232
1 4233
1 4234
1 4235
1 4236
1 4237
1 4238
1 4239
1 4240
1 4241
1 4242
1 4243
1 4244
1 4245
1 4246
1 4247
1 4248
1 4249
1 4250
1 4251
1 4252
1 4253
1 4254
1 4255
1 4256
1 4257
1 4258
1 4259
1 4260
1 4261
1 4262
1 4263
1 4264
1 4265
1 4266
1 4267
1 4268
1 4269
1 4270
1 4271
1 4272
1 4273
1 4274
1 4275
1 4276
1 4277
1 4278
1 4279
1 4280
1 4281
1 4282
1 4283
1 4284
1 4285
1 4286
1 4287
1 4288
1 4289
1 4290
1 4291
1 4292
1 4293
1 4294
1 4295
1 4296
1 4297
1 4298
1 4299
1 4300
1 4301
1 4302
1 4303
1 4304
1 4305
1 4306
1 4307
1 4308
1 4309
1 4310
1 4311
1 4312
1 4313
1 4314
1 4315
1 4316
1 4317
1 4318
1 4319
1 4320
1 4321
1 4322
1 4323
1 4324
1 4325
1 4326
1 4327
1 4328
1 4329
1 4330
1 4331
1 4332
1 4333
1 4334
1 4335
1 4336
1 4337
1 4338
1 4339
1 4340
1 4341
1 4342
1 4343
1 4344
1 4345
1 4346
1 4347
1 4348
1 4349
1 4350
1 4351
1 4352
1 4353
1 4354
1 4355
1 4356
1 4357
1 4358
1 4359
1 4360
1 4361
1 4362
1 4363
1 4364
1 4365
1 4366
1 4367
1 4368
1 4369
1 4370
1 4371
1 4372
1 4373
1 4374
1 4375
1 4376
1 4377
1 4378
1 4379
1 4380
1 4381
1 4382
1 4383
1 4384
1 4385
1 4386
1 4387
1 4388
1 4389
1 4390
1 4391
1 4392
1 4393
1 4394
1 4395
1 4396
1 4397
1 4398
1 4399
1 4400
1 4401
1 4402
1 4403
1 4404
1 4405
1 4406
1 4407
1 4408
1 4409
1 4410
1 4411
1 4412
1 4413
1 4414
1 4415
1 4416
1 4417
1 4418
1 4419
1 4420
1 4421
1 4422
1 4423
1 4424
1 4425
1 4426
1 4427
1 4428
1 4429
1 4430
1 4431
1 4432
1 4433
1 4434
1 4435
1 4436
1 4437
1 4438
1 4439
1 4440
1 4441
1 4442
1 4443
1 4444
1 4445
1 4446
1 4447
1 4448
1 4449
1 4450
1 4451
1 4452
1 4453
1 4454
1 4455
1 4456
1 4457
1 4458
1 4459
1 4460
1 4461
1 4462
1 4463
1 4464
1 4465
1 4466
1 4467
1 4468
1 4469
1 4470
1 4471
1 4472
1 4473
1 4474
1 4475
1 4476
1 4477
1 4478
1 4479
1 4480
1 4481
1 4482
1 4483
1 4484
1 4485
1 4486
1 4487
1 4488
1 4489
1 4490
1 4491
1 4492
1 4493
1 4494
1 4495
1 4496
1 4497
1 4498
1 4499
1 4500
1 4501
1 4502
1 4503
1 4504
1 4505
1 4506
1 4507
1 4508
1 4509
1 4510
1 4511
1 4512
1 4513
1 4514
1 4515
1 4516
1 4517
1 4518
1 4519
1 4520
1 4521
1 4522
1 4523
1 4524
1 4525
1 4526
1 4527
1 4528
1 4529
1 4530
1 4531
1 4532
1 4533
1 4534
1 4535
1 4536
1 4537
1 4538
1 4539
1 4540
1 4541
1 4542
1 4543
1 4544
1 4545
1 4546
1 4547
1 4548
1 4549
1 4550
1 4551
1 4552
1 4553
1 4554
1 4555
1 4556
1 4557
1 4558
1 4559
1 4560
1 4561
1 4562
1 4563
1 4564
1 4565
1 4566
1 4567
1 4568
1 4569
1 4570
1 4571
1 4572
1 4573
1 4574
1 4575
1 4576
1 4577
1 4578
1 4579
1 4580
1 4581
1 4582
1 4583
1 4584
1 4585
1 4586
1 4587
1 4588
1 4589
1 4590
1 4591
1 4592
1 4593
1 4594
1 4595
1 4596
1 4597
1 4598
1 4599
1 4600
1 4601
1 4602
1 4603
1 4604
1 4605
1 4606
1 4607
1 4608
1 4609
1 4610
1 4611
1 4612
1 4613
1 4614
1 4615
1 4616
1 4617
1 4618
1 4619
1 4620
1 4621
1 4622
1 4623
1 4624
1 4625
1 4626
1 4627
1 4628
1 4629
1 4630
1 4631
1 4632
1 4633
1 4634
1 4635
1 4636
1 4637
1 4638
1 4639
1 4640
1 4641
1 4642
1 4643
1 4644
1 4645
1 4646
1 4647
1 4648
1 4649
1 4650
1 4651
1 4652
1 4653
1 4654
1 4655
1 4656
1 4657
1 4658
1 4659
1 4660
1 4661
1 4662
1 4663
1 4664
1 4665
1 4666
1 4667
1 4668
1 4669
1 4670
1 4671
1 4672
1 4673
1 4674
1 4675
1 4676
1 4677
1 4678
1 4679
1 4680
1 4681
1 4682
1 4683
1 4684
1 4685
1 4686
1 4687
1 4688
1 4689
1 4690
1 4691
1 4692
1 4693
1 4694
1 4695
1 4696
1 4697
1 4698
1 4699
1 4700
1 4701
1 4702
1 4703
1 4704
1 4705
1 4706
1 4707
1 4708
1 4709
1 4710
1 4711
1 4712
1 4713
1 4714
1 4715
1 4716
1 4717
1 4718
1 4719
1 4720
1 4721
1 4722
1 4723
1 4724
1 4725
1 4726
1 4727
1 4728
1 4729
1 4730
1 4731
1 4732
1 4733
1 4734
1 4735
1 4736
1 4737
1 4738
1 4739
1 4740
1 4741
1 4742
1 4743
1 4744
1 4745
1 4746
1 4747
1 4748
1 4749
1 4750
1 4751
1 4752
1 4753
1 4754
1 4755
1 4756
1 4757
1 4758
1 4759
1 4760
1 4761
1 4762
1 4763
1 4764
1 4765
1 4766
1 4767
1 4768
1 4769
1 4770
1 4771
1 4772
1 4773
1 4774
1 4775
1 4776
1 4777
1 4778
1 4779
1 4780
1 4781
1 4782
1 4783
1 4784
1 4785
1 4786
1 4787
1 4788
1 4789
1 4790
1 4791
1 4792
1 4793
1 4794
1 4795
1 4796
1 4797
1 4798
1 4799
1 4800
1 4801
1 4802
1 4803
1 4804
1 4805
1 4806
1 4807
1 4808
1 4809
1 4810
1 4811
1 4812
1 4813
1 4814
1 4815
1 4816
1 4817
1 4818
1 4819
1 4820
1 4821
1 4822
1 4823
1 4824
1 4825
1 4826
1 4827
1 4828
1 4829
1 4830
1 4831
1 4832
1 4833
1 4834
1 4835
1 4836
1 4837
1 4838
1 4839
1 4840
1 4841
1 4842
1 4843
1 4844
1 4845
1 4846
1 4847
1 4848
1 4849
1 4850
1 4851
1 4852
1 4853
1 4854
1 4855
1 4856
1 4857
1 4858
1 4859
1 4860
1 4861
1 4862
1 4863
1 4864
1 4865
1 4866
1 4867
1 4868
1 4869
1 4870
1 4871
1 4872
1 4873
1 4874
1 4875
1 4876
1 4877
1 4878
1 4879
1 4880
1 4881
1 4882
1 4883
1 4884
1 4885
1 4886
1 4887
1 4888
1 4889
1 4890
1 4891
1 4892
1 4893
1 4894
1 4895
1 4896
1 4897
1 4898
1 4899
1 4900
1 4901
1 4902
1 4903
1 4904
1 4905
1 4906
1 4907
1 4908
1 4909
1 4910
1 4911
1 4912
1 4913
1 4914
1 4915
1 4916
1 4917
1 4918
1 4919
1 4920
1 4921
1 4922
1 4923
1 4924
1 4925
1 4926
1 4927
1 4928
1 4929
1 4930
1 4931
1 4932
1 4933
1 4934
1 4935
1 4936
1 4937
1 4938
1 4939
1 4940
1 4941
1 4942
1 4943
1 4944
1 4945
1 4946
1 4947
1 4948
1 4949
1 4950
1 4951
1 4952
1 4953
1 4954
1 4955
1 4956
1 4957
1 4958
1 4959
1 4960
1 4961
1 4962
1 4963
1 4964
1 4965
1 4966
1 4967
1 4968
1 4969
1 4970
1 4971
1 4972
1 4973
1 4974
1 4975
1 4976
1 4977
1 4978
1 4979
1 4980
1 4981
1 4982
1 4983
1 4984
1 4985
1 4986
1 4987
1 4988
1 4989
1 4990
1 4991
1 4992
1 4993
1 4994
1 4995
1 4996
1 4997
1 4998
1 4999
CELL_TYPES 5000
1 
1 
1 
1 
1 
1 
1 
1 
1 
1 
1 
1 
1 
1 
1 
1 
1 
1 
1 
1 
1 
1 
1 
1 
1 
1 
1 
1 
1 
1 
1 
1 
1 
1 
1 
1 
1 
1 
1 
1 
1 
1 
1 
1 
1 
1 
1 
1 
1 
1 
1 
1 
1 
1 
1 
1 
1 
1 
1 
1 
1 
1 
1 
1 
1 
1 
1 
1 
1 
1 
1 
1 
1 
1 
1 
1 
1 
1 
1 
1 
1 
1 
1 
1 
1 
1 
1 
1 
1 
1 
1 
1 
1 
1 
1 
1 
1 
1 
1 
1 
1 
1 
1 
1 
1 
1 
1 
1 
1 
1 
1 
1 
1 
1 
1 
1 
1 
1 
1 
1 
1 
1 
1 
1 
1 
1 
1 
1 
1 
1 
1 
1 
1 
1 
1 
1 
1 
1 
1 
1 
1 
1 
1 
1 
1 
1 
1 
1 
1 
1 
1 
1 
1 
1 
1 
1 
1 
1 
1 
1 
1 
1 
1 
1 
1 
1 
1 
1 
1 
1 
1 
1 
1 
1 
1 
1 
1 
1 
1 
1 
1 
1 
1 
1 
1 
1 
1 
1 
1 
1 
1 
1 
1 
1 
1 
1 
1 
1 
1 
1 
1 
1 
1 
1 
1 
1 
1 
1 
1 
1 
1 
1 
1 
1 
1 
1 
1 
1 
1 
1 
1 
1 
1 
1 
1 
1 
1 
1 
1 
1 
1 
1 
1 
1 
1 
1 
1 
1 
1 
1 
1 
1 
1 
1 
1 
1 
1 
1 
1 
1 
1 
1 
1 
1 
1 
1 
1 
1 
1 
1 
1 
1 
1 
1 
1 
1 
1 
1 
1 
1 
1 
1 
1 
1 
1 
1 
1 
1 
1 
1 
1 
1 
1 
1 
1 
1 
1 
1 
1 
1 
1 
1 
1 
1 
1 
1 
1 
1 
1 
1 
1 
1 
1 
1 
1 
1 
1 
1 
1 
1 
1 
1 
1 
1 
1 
1 
1 
1 
1 
1 
1 
1 
1 
1 
1 
1 
1 
1 
1 
1 
1 
1 
1 
1 
1 
1 
1 
1 
1 
1 
1 
1 
1 
1 
1 
1 
1 
1 
1 
1 
1 
1 
1 
1 
1 
1 
1 
1 
1 
1 
1 
1 
1 
1 
1 
1 
1 
1 
1 
1 
1 
1 
1 
1 
1 
1 
1 
1 
1 
1 
1 
1 
1 
1 
1 
1 
1 
1 
1 
1 
1 
1 
1 
1 
1 
1 
1 
1 
1 
1 
1 
1 
1 
1 
1 
1 
1 
1 
1 
1 
1 
1 
1 
1 
1 
1 
1 
1 
1 
1 
1 
1 
1 
1 
1 
1 
1 
1 
1 
1 
1 
1 
1 
1 
1 
1 
1 
1 
1 
1 
1 
1 
1 
1 
1 
1 
1 
1 
1 
1 
1 
1 
1 
1 
1 
1 
1 
1 
1 
1 
1 
1 
1 
1 
1 
1 
1 
1 
1 
1 
1 
1 
1 
1 
1 
1 
1 
1 
1 
1 
1 
1 
1 
1 
1 
1 
1 
1 
1 
1 
1 
1 
1 
1 
1 
1 
1 
1 
1 
1 
1 
1 
1 
1 
1 
1 
1 
1 
1 
1 
1 
1 
1 
1 
1 
1 
1 
1 
1 
1 
1 
1 
1 
1 
1 
1 
1 
1 
1 
1 
1 
1 
1 
1 
1 
1 
1 
1 
1 
1 
1 
1 
1 
1 
1 
1 
1 
1 
1 
1 
1 
1 
1 
1 
1 
1 
1 
1 
1 
1 
1 
1 
1 
1 
1 
1 
1 
1 
1 
1 
1 
1 
1 
1 
1 
1 
1 
1 
1 
1 
1 
1 
1 
1 
1 
1 
1 
1 
1 
1 
1 
1 
1 
1 
1 
1 
1 
1 
1 
1 
1 
1 
1 
1 
1 
1 
1 
1 
1 
1 
1 
1 
1 
1 
1 
1 
1 
1 
1 
1 
1 
1 
1 
1 
1 
1 
1 
1 
1 
1 
1 
1 
1 
1 
1 
1 
1 
1 
1 
1 
1 
1 
1 
1 
1 
1 
1 
1 
1 
1 
1 
1 
1 
1 
1 
1 
1 
1 
1 
1 
1 
1 
1 
1 
1 
1 
1 
1 
1 
1 
1 
1 
1 
1 
1 
1 
1 
1 
1 
1 
1 
1 
1 
1 
1 
1 
1 
1 
1 
1 
1 
1 
1 
1 
1 
1 
1 
1 
1 
1 
1 
1 
1 
1 
1 
1 
1 
1 
1 
1 
1 
1 
1 
1 
1 
1 
1 
1 
1 
1 
1 
1 
1 
1 
1 
1 
1 
1 
1 
1 
1 
1 
1 
1 
1 
1 
1 
1 
1 
1 
1 
1 
1 
1 
1 
1 
1 
1 
1 
1 
1 
1 
1 
1 
1 
1 
1 
1 
1 
1 
1 
1 
1 
1 
1 
1 
1 
1 
1 
1 
1 
1 
1 
1 
1 
1 
1 
1 
1 
1 
1 
1 
1 
1 
1 
1 
1 
1 
1 
1 
1 
1 
1 
1 
1 
1 
1 
1 
1 
1 
1 
1 
1 
1 
1 
1 
1 
1 
1 
1 
1 
1 
1 
1 
1 
1 
1 
1 
1 
1 
1 
1 
1 
1 
1 
1 
1 
1 
1 
1 
1 
1 
1 
1 
1 
1 
1 
1 
1 
1 
1 
1 
1 
1 
1 
1 
1 
1 
1 
1 
1 
1 
1 
1 
1 
1 
1 
1 
1 
1 
1 
1 
1 
1 
1 
1 
1 
1 
1 
1 
1 
1 
1 
1 
1 
1 
1 
1 
1 
1 
1 
1 
1 
1 
1 
1 
1 
1 
1 
1 
1 
1 
1 
1 
1 
1 
1 
1 
1 
1 
1 
1 
1 
1 
1 
1 
1 
1 
1 
1 
1 
1 
1 
1 
1 
1 
1 
1 
1 
1 
1 
1 
1 
1 
1 
1 
1 
1 
1 
1 
1 
1 
1 
1 
1 
1 
1 
1 
1 
1 
1 
1 
1 
1 
1 
1 
1 
1 
1 
1 
1 
1 
1 
1 
1 
1 
1 
1 
1 
1 
1 
1 
1 
1 
1 
1 
1 
1 
1 
1 
1 
1 
1 
1 
1 
1 
1 
1 
1 
1 
1 
1 
1 
1 
1 
1 
1 
1 
1 
1 
1 
1 
1 
1 
1 
1 
1 
1 
1 
1 
1 
1 
1 
1 
1 
1 
1 
1 
1 
1 
1 
1 
1 
1 
1 
1 
1 
1 
1 
1 
1 
1 
1 
1 
1 
1 
1 
1 
1 
1 
1 
1 
1 
1 
1 
1 
1 
1 
1 
1 
1 
1 
1 
1 
1 
1 
1 
1 
1 
1 
1 
1 
1 
1 
1 
1 
1 
1 
1 
1 
1 
1 
1 
1 
1 
1 
1 
1 
1 
1 
1 
1 
1 
1 
1 
1 
1 
1 
1 
1 
1 
1 
1 
1 
1 
1 
1 
1 
1 
1 
1 
1 
1 
1 
1 
1 
1 
1 
1 
1 
1 
1 
1 
1 
1 
1 
1 
1 
1 
1 
1 
1 
1 
1 
1 
1 
1 
1 
1 
1 
1 
1 
1 
1 
1 
1 
1 
1 
1 
1 
1 
1 
1 
1 
1 
1 
1 
1 
1 
1 
1 
1 
1 
1 
1 
1 
1 
1 
1 
1 
1 
1 
1 
1 
1 
1 
1 
1 
1 
1 
1 
1 
1 
1 
1 
1 
1 
1 
1 
1 
1 
1 
1 
1 
1 
1 
1 
1 
1 
1 
1 
1 
1 
1 
1 
1 
1 
1 
1 
1 
1 
1 
1 
1 
1 
1 
1 
1 
1 
1 
1 
1 
1 
1 
1 
1 
1 
1 
1 
1 
1 
1 
1 
1 
1 
1 
1 
1 
1 
1 
1 
1 
1 
1 
1 
1 
1 
1 
1 
1 
1 
1 
1 
1 
1 
1 
1 
1 
1 
1 
1 
1 
1 
1 
1 
1 
1 
1 
1 
1 
1 
1 
1 
1 
1 
1 
1 
1 
1 
1 
1 
1 
1 
1 
1 
1 
1 
1 
1 
1 
1 
1 
1 
1 
1 
1 
1 
1 
1 
1 
1 
1 
1 
1 
1 
1 
1 
1 
1 
1 
1 
1 
1 
1 
1 
1 
1 
1 
1 
1 
1 
1 
1 
1 
1 
1 
1 
1 
1 
1 
1 
1 
1 
1 
1 
1 
1 
1 
1 
1 
1 
1 
1 
1 
1 
1 
1 
1 
1 
1 
1 
1 
1 
1 
1 
1 
1 
1 
1 
1 
1 
1 
1 
1 
1 
1 
1 
1 
1 
1 
1 
1 
1 
1 
1 
1 
1 
1 
1 
1 
1 
1 
1 
1 
1 
1 
1 
1 
1 
1 
1 
1 
1 
1 
1 
1 
1 
1 
1 
1 
1 
1 
1 
1 
1 
1 
1 
1 
1 
1 
1 
1 
1 
1 
1 
1 
1 
1 
1 
1 
1 
1 
1 
1 
1 
1 
1 
1 
1 
1 
1 
1 
1 
1 
1 
1 
1 
1 
1 
1 
1 
1 
1 
1 
1 
1 
1 
1 
1 
1 
1 
1 
1 
1 
1 
1 
1 
1 
1 
1 
1 
1 
1 
1 
1 
1 
1 
1 
1 
1 
1 
1 
1 
1 
1 
1 
1 
1 
1 
1 
1 
1 
1 
1 
1 
1 
1 
1 
1 
1 
1 
1 
1 
1 
1 
1 
1 
1 
1 
1 
1 
1 
1 
1 
1 
1 
1 
1 
1 
1 
1 
1 
1 
1 
1 
1 
1 
1 
1 
1 
1 
1 
1 
1 
1 
1 
1 
1 
1 
1 
1 
1 
1 
1 
1 
1 
1 
1 
1 
1 
1 
1 
1 
1 
1 
1 
1 
1 
1 
1 
1 
1 
1 
1 
1 
1 
1 
1 
1 
1 
1 
1 
1 
1 
1 
1 
1 
1 
1 
1 
1 
1 
1 
1 
1 
1 
1 
1 
1 
1 
1 
1 
1 
1 
1 
1 
1 
1 
1 
1 
1 
1 
1 
1 
1 
1 
1 
1 
1 
1 
1 
1 
1 
1 
1 
1 
1 
1 
1 
1 
1 
1 
1 
1 
1 
1 
1 
1 
1 
1 
1 
1 
1 
1 
1 
1 
1 
1 
1 
1 
1 
1 
1 
1 
1 
1 
1 
1 
1 
1 
1 
1 
1 
1 
1 
1 
1 
1 
1 
1 
1 
1 
1 
1 
1 
1 
1 
1 
1 
1 
1 
1 
1 
1 
1 
1 
1 
1 
1 
1 
1 
1 
1 
1 
1 
1 
1 
1 
1 
1 
1 
1 
1 
1 
1 
1 
1 
1 
1 
1 
1 
1 
1 
1 
1 
1 
1 
1 
1 
1 
1 
1 
1 
1 
1 
1 
1 
1 
1 
1 
1 
1 
1 
1 
1 
1 
1 
1 
1 
1 
1 
1 
1 
1 
1 
1 
1 
1 
1 
1 
1 
1 
1 
1 
1 
1 
1 
1 
1 
1 
1 
1 
1 
1 
1 
1 
1 
1 
1 
1 
1 
1 
1 
1 
1 
1 
1 
1 
1 
1 
1 
1 
1 
1 
1 
1 
1 
1 
1 
1 
1 
1 
1 
1 
1 
1 
1 
1 
1 
1 
1 
1 
1 
1 
1 
1 
1 
1 
1 
1 
1 
1 
1 
1 
1 
1 
1 
1 
1 
1 
1 
1 
1 
1 
1 
1 
1 
1 
1 
1 
1 
1 
1 
1 
1 
1 
1 
1 
1 
1 
1 
1 
1 
1 
1 
1 
1 
1 
1 
1 
1 
1 
1 
1 
1 
1 
1 
1 
1 
1 
1 
1 
1 
1 
1 
1 
1 
1 
1 
1 
1 
1 
1 
1 
1 
1 
1 
1 
1 
1 
1 
1 
1 
1 
1 
1 
1 
1 
1 
1 
1 
1 
1 
1 
1 
1 
1 
1 
1 
1 
1 
1 
1 
1 
1 
1 
1 
1 
1 
1 
1 
1 
1 
1 
1 
1 
1 
1 
1 
1 
1 
1 
1 
1 
1 
1 
1 
1 
1 
1 
1 
1 
1 
1 
1 
1 
1 
1 
1 
1 
1 
1 
1 
1 
1 
1 
1 
1 
1 
1 
1 
1 
1 
1 
1 
1 
1 
1 
1 
1 
1 
1 
1 
1 
1 
1 
1 
1 
1 
1 
1 
1 
1 
1 
1 
1 
1 
1 
1 
1 
1 
1 
1 
1 
1 
1 
1 
1 
1 
1 
1 
1 
1 
1 
1 
1 
1 
1 
1 
1 
1 
1 
1 
1 
1 
1 
1 
1 
1 
1 
1 
1 
1 
1 
1 
1 
1 
1 
1 
1 
1 
1 
1 
1 
1 
1 
1 
1 
1 
1 
1 
1 
1 
1 
1 
1 
1 
1 
1 
1 
1 
1 
1 
1 
1 
1 
1 
1 
1 
1 
1 
1 
1 
1 
1 
1 
1 
1 
1 
1 
1 
1 
1 
1 
1 
1 
1 
1 
1 
1 
1 
1 
1 
1 
1 
1 
1 
1 
1 
1 
1 
1 
1 
1 
1 
1 
1 
1 
1 
1 
1 
1 
1 
1 
1 
1 
1 
1 
1 
1 
1 
1 
1 
1 
1 
1 
1 
1 
1 
1 
1 
1 
1 
1 
1 
1 
1 
1 
1 
1 
1 
1 
1 
1 
1 
1 
1 
1 
1 
1 
1 
1 
1 
1 
1 
1 
1 
1 
1 
1 
1 
1 
1 
1 
1 
1 
1 
1 
1 
1 
1 
1 
1 
1 
1 
1 
1 
1 
1 
1 
1 
1 
1 
1 
1 
1 
1 
1 
1 
1 
1 
1 
1 
1 
1 
1 
1 
1 
1 
1 
1 
1 
1 
1 
1 
1 
1 
1 
1 
1 
1 
1 
1 
1 
1 
1 
1 
1 
1 
1 
1 
1 
1 
1 
1 
1 
1 
1 
1 
1 
1 
1 
1 
1 
1 
1 
1 
1 
1 
1 
1 
1 
1 
1 
1 
1 
1 
1 
1 
1 
1 
1 
1 
1 
1 
1 
1 
1 
1 
1 
1 
1 
1 
1 
1 
1 
1 
1 
1 
1 
1 
1 
1 
1 
1 
1 
1 
1 
1 
1 
1 
1 
1 
1 
1 
1 
1 
1 
1 
1 
1 
1 
1 
1 
1 
1 
1 
1 
1 
1 
1 
1 
1 
1 
1 
1 
1 
1 
1 
1 
1 
1 
1 
1 
1 
1 
1 
1 
1 
1 
1 
1 
1 
1 
1 
1 
1 
1 
1 
1 
1 
1 
1 
1 
1 
1 
1 
1 
1 
1 
1 
1 
1 
1 
1 
1 
1 
1 
1 
1 
1 
1 
1 
1 
1 
1 
1 
1 
1 
1 
1 
1 
1 
1 
1 
1 
1 
1 
1 
1 
1 
1 
1 
1 
1 
1 
1 
1 
1 
1 
1 
1 
1 
1 
1 
1 
1 
1 
1 
1 
1 
1 
1 
1 
1 
1 
1 
1 
1 
1 
1 
1 
1 
1 
1 
1 
1 
1 
1 
1 
1 
1 
1 
1 
1 
1 
1 
1 
1 
1 
1 
1 
1 
1 
1 
1 
1 
1 
1 
1 
1 
1 
1 
1 
1 
1 
1 
1 
1 
1 
1 
1 
1 
1 
1 
1 
1 
1 
1 
1 
1 
1 
1 
1 
1 
1 
1 
1 
1 
1 
1 
1 
1 
1 
1 
1 
1 
1 
1 
1 
1 
1 
1 
1 
1 
1 
1 
1 
1 
1 
1 
1 
1 
1 
1 
1 
1 
1 
1 
1 
1 
1 
1 
1 
1 
1 
1 
1 
1 
1 
1 
1 
1 
1 
1 
1 
1 
1 
1 
1 
1 
1 
1 
1 
1 
1 
1 
1 
1 
1 
1 
1 
1 
1 
1 
1 
1 
1 
1 
1 
1 
1 
1 
1 
1 
1 
1 
1 
1 
1 
1 
1 
1 
1 
1 
1 
1 
1 
1 
1 
1 
1 
1 
1 
1 
1 
1 
1 
1 
1 
1 
1 
1 
1 
1 
1 
1 
1 
1 
1 
1 
1 
1 
1 
1 
1 
1 
1 
1 
1 
1 
1 
1 
1 
1 
1 
1 
1 
1 
1 
1 
1 
1 
1 
1 
1 
1 
1 
1 
1 
1 
1 
1 
1 
1 
1 
1 
1 
1 
1 
1 
1 
1 
1 
1 
1 
1 
1 
1 
1 
1 
1 
1 
1 
1 
1 
1 
1 
1 
1 
1 
1 
1 
1 
1 
1 
1 
1 
1 
1 
1 
1 
1 
1 
1 
1 
1 
1 
1 
1 
1 
1 
1 
1 
1 
1 
1 
1 
1 
1 
1 
1 
1 
1 
1 
1 
1 
1 
1 
1 
1 
1 
1 
1 
1 
1 
1 
1 
1 
1 
1 
1 
1 
1 
1 
1 
1 
1 
1 
1 
1 
1 
1 
1 
1 
1 
1 
1 
1 
1 
1 
1 
1 
1 
1 
1 
1 
1 
1 
1 
1 
1 
1 
1 
1 
1 
1 
1 
1 
1 
1 
1 
1 
1 
1 
1 
1 
1 
1 
1 
1 
1 
1 
1 
1 
1 
1 
1 
1 
1 
1 
1 
1 
1 
1 
1 
1 
1 
1 
1 
1 
1 
1 
1 
1 
1 
1 
1 
1 
1 
1 
1 
1 
1 
1 
1 
1 
1 
1 
1 
1 
1 
1 
1 
1 
1 
1 
1 
1 
1 
1 
1 
1 
1 
1 
1 
1 
1 
1 
1 
1 
1 
1 
1 
1 
1 
1 
1 
1 
1 
1 
1 
1 
1 
1 
1 
1 
1 
1 
1 
1 
1 
1 
1 
1 
1 
1 
1 
1 
1 
1 
1 
1 
1 
1 
1 
1 
1 
1 
1 
1 
1 
1 
1 
1 
1 
1 
1 
1 
1 
1 
1 
1 
1 
1 
1 
1 
1 
1 
1 
1 
1 
1 
1 
1 
1 
1 
1 
1 
1 
1 
1 
1 
1 
1 
1 
1 
1 
1 
1 
1 
1 
1 
1 
1 
1 
1 
1 
1 
1 
1 
1 
1 
1 
1 
1 
1 
1 
1 
1 
1 
1 
1 
1 
1 
1 
1 
1 
1 
1 
1 
1 
1 
1 
1 
1 
1 
1 
1 
1 
1 
1 
1 
1 
1 
1 
1 
1 
1 
1 
1 
1 
1 
1 
1 
1 
1 
1 
1 
1 
1 
1 
1 
1 
1 
1 
1 
1 
1 
1 
1 
1 
1 
1 
1 
1 
1 
1 
1 
1 
1 
1 
1 
1 
1 
1 
1 
1 
1 
1 
1 
1 
1 
1 
1 
1 
1 
1 
1 
1 
1 
1 
1 
1 
1 
1 
1 
1 
1 
1 
1 
1 
1 
1 
1 
1 
1 
1 
1 
1 
1 
1 
1 
1 
1 
1 
1 
1 
1 
1 
1 
1 
1 
1 
1 
1 
1 
1 
1 
1 
1 
1 
1 
1 
1 
1 
1 
1 
1 
1 
1 
1 
1 
1 
1 
1 
1 
1 
1 
1 
1 
1 
1 
1 
1 
1 
1 
1 
1 
1 
1 
1 
1 
1 
1 
1 
1 
1 
1 
1 
1 
1 
1 
1 
1 
1 
1 
1 
1 
1 
1 
1 
1 
1 
1 
1 
1 
1 
1 
1 
1 
1 
1 
1 
1 
1 
1 
1 
1 
1 
1 
1 
1 
1 
1 
1 
1 
1 
1 
1 
1 
1 
1 
1 
1 
1 
1 
1 
1 
1 
1 
1 
1 
1 
1 
1 
1 
1 
1 
1 
1 
1 
1 
1 
1 
1 
1 
1 
1 
1 
1 
1 
1 
1 
1 
1 
1 
1 
1 
1 
1 
1 
1 
1 
1 
1 
1 
1 
1 
1 
1 
1 
1 
1 
1 
1 
1 
1 
1 
1 
1 
1 
1 
1 
1 
1 
1 
1 
1 
1 
1 
1 
1 
1 
1 
1 
1 
1 
1 
1 
1 
1 
1 
1 
1 
1 
1 
1 
1 
1 
1 
1 
1 
1 
1 
1 
1 
1 
1 
1 
1 
1 
1 
1 
1 
1 
1 
1 
1 
1 
1 
1 
1 
1 
1 
1 
1 
1 
1 
1 
1 
1 
1 
1 
1 
1 
1 
1 
1 
1 
1 
1 
1 
1 
1 
1 
1 
1 
1 
1 
1 
1 
1 
1 
1 
1 
1 
1 
1 
1 
1 
1 
1 
1 
1 
1 
1 
1 
1 
1 
1 
1 
1 
1 
1 
1 
1 
1 
1 
1 
1 
1 
1 
1 
1 
1 
1 
1 
1 
1 
1 
1 
1 
1 
1 
1 
1 
1 
1 
1 
1 
1 
1 
1 
1 
1 
1 
1 
1 
1 
1 
1 
1 
1 
1 
1 
1 
1 
1 
1 
1 
1 
1 
1 
1 
1 
1 
1 
1 
1 
1 
1 
1 
1 
1 
1 
1 
1 
1 
1 
1 
1 
1 
1 
1 
1 
1 
1 
1 
1 
1 
1 
1 
1 
1 
1 
1 
1 
1 
1 
1 
1 
1 
1 
1 
1 
1 
1 
1 
1 
1 
1 
1 
1 
1 
1 
1 
1 
1 
1 
1 
1 
1 
1 
1 
1 
1 
1 
1 
1 
1 
1 
1 
1 
1 
1 
1 
1 
1 
1 
1 
1 
1 
1 
1 
1 
1 
1 
1 
1 
1 
1 
1 
1 
1 
1 
1 
1 
1 
1 
1 
1 
1 
1 
1 
1 
1 
1 
1 
1 
1 
1 
1 
1 
1 
1 
1 
1 
1 
1 
1 
1 
1 
1 
1 
1 
1 
1 
1 
1 
1 
1 
1 
1 
1 
1 
1 
1 
1 
1 
1 
1 
1 
1 
1 
1 
1 
1 
1 
1 
1 
1 
1 
1 
1 
1 
1 
1 
1 
1 
1 
1 
1 
1 
1 
1 
1 
1 
1 
1 
1 
1 
1 
1 
1 
1 
1 
1 
1 
1 
1 
1 
1 
1 
1 
1 
1 
1 
1 
1 
1 
1 
1 
1 
1 
1 
1 
1 
1 
1 
1 
1 
1 
1 
1 
1 
1 
1 
1 
1 
1 
1 
1 
1 
1 
1 
1 
1 
1 
1 
1 
1 
1 
1 
1 
1 
1 
1 
1 
1 
1 
1 
1 
1 
1 
1 
1 
1 
1 
1 
1 
1 
1 
1 
1 
1 
1 
1 
1 
1 
1 
1 
1 
1 
1 
1 
1 
1 
1 
1 
1 
1 
1 
1 
1 
1 
1 
1 
1 
1 
1 
1 
1 
1 
1 
1 
1 
1 
1 
1 
1 
1 
1 
1 
1 
1 
1 
1 
1 
1 
1 
1 
1 
1 
1 
1 
1 
1 
1 
1 
1 
1 
1 
1 
1 
1 
1 
1 
1 
1 
1 
1 
1 
1 
1 
1 
1 
1 
1 
1 
1 
1 
1 
1 
1 
1 
1 
1 
1 
1 
1 
1 
1 
1 
1 
1 
1 
1 
1 
1 
1 
1 
1 
1 
1 
1 
1 
1 
1 
1 
1 
1 
1 
1 
1 
1 
1 
1 
1 
1 
1 
1 
1 
1 
1 
1 
1 
1 
1 
1 
1 
1 
1 
1 
1 
1 
1 
1 
1 
1 
1 
1 
1 
1 
1 
1 
1 
1 
1 
1 
1 
1 
1 
1 
1 
1 
1 
1 
1 
1 
1 
1 
1 
1 
1 
1 
1 
1 
1 
1 
1 
1 
1 
1 
1 
1 
1 
1 
1 
1 
1 
1 
1 
1 
1 
1 
1 
1 
1 
1 
1 
1 
1 
1 
1 
1 
1 
1 
1 
1 
1 
1 
1 
1 
1 
1 
1 
1 
1 
1 
1 
1 
1 
1 
1 
1 
1 
1 
1 
1 
1 
1 
1 
1 
1 
1 
1 
1 
1 
1 
1 
1 
1 
1 
1 
1 
1 
1 
1 
1 
1 
1 
1 
1 
1 
1 
1 
1 
1 
1 
1 
1 
1 
1 
1 
1 
1 
1 
1 
1 
1 
1 
1 
1 
1 
1 
1 
1 
1 
1 
1 
1 
1 
1 
1 
1 
1 
1 
1 
1 
1 
1 
1 
1 
1 
1 
1 
1 
1 
1 
1 
1 
1 
1 
1 
1 
1 
1 
1 
1 
1 
1 
1 
1 
1 
1 
1 
1 
1 
1 
1 
1 
1 
1 
1 
1 
1 
1 
1 
1 
1 
1 
1 
1 
1 
1 
1 
1 
1 
1 
1 
1 
1 
1 
1 
1 
1 
1 
1 
1 
1 
1 
1 
1 
1 
1 
1 
1 
1 
1 
1 
1 
1 
1 
1 
1 
1 
1 
1 
1 
1 
1 
1 
1 
1 
1 
1 
1 
1 
1 
1 
1 
1 
1 
1 
1 
1 
1 
1 
1 
1 
1 
1 
1 
1 
1 
1 
1 
1 
1 
1 
1 
1 
1 
1 
1 
1 
1 
1 
1 
1 
1 
1 
1 
1 
1 
1 
1 
1 
1 
1 
1 
1 
1 
1 
1 
1 
1 
1 
1 
1 
1 
1 
1 
1 
1 
1 
1 
1 
1 
1 
1 
1 
1 
1 
1 
1 
1 
1 
1 
1 
1 
1 
1 
1 
1 
1 
1 
1 
1 
1 
1 
1 
1 
1 
1 
1 
1 
1 
1 
1 
1 
1 
1 
1 
1 
1 
1 
1 
1 
1 
1 
1 
1 
1 
1 
1 
1 
1 
1 
1 
1 
1 
1 
1 
1 
1 
1 
1 
1 
1 
1 
1 
1 
1 
1 
1 
1 
1 
1 
1 
1 
1 
1 
1 
1 
1 
1 
1 
1 
1 
1 
1 
1 
1 
1 
1 
1 
1 
1 
1 
1 
1 
1 
1 
1 
1 
1 
1 
1 
1 
1 
1 
1 
1 
1 
1 
1 
1 
1 
1 
1 
1 
1 
1 
1 
1 
1 
1 
1 
1 
1 
1 
1 
1 
1 
1 
1 
1 
1 
1 
1 
1 
1 
1 
1 
1 
1 
1 
1 
1 
1 
1 
1 
1 
1 
1 
1 
1 
1 
1 
1 
1 
1 
1 
1 
1 
1 
1 
1 
1 
1 
1 
1 
1 
1 
1 
1 
1 
1 
1 
1 
1 
1 
1 
1 
1 
1 
1 
1 
1 
1 
1 
1 
1 
1 
1 
1 
1 
1 
1 
1 
1 
1 
1 
1 
1 
1 
1 
1 
1 
1 
1 
1 
1 
1 
1 
1 
1 
1 
1 
1 
1 
1 
1 
1 
1 
1 
1 
1 
1 
1 
1 
1 
1 
1 
1 
1 
1 
1 
1 
1 
1 
1 
1 
1 
1 
1 
1 
1 
1 
1 
1 
1 
1 
1 
1 
1 
1 
1 
1 
1 
1 
1 
1 
1 
1 
1 
1 
1 
1 
1 
1 
1 
1 
1 
1 
1 
1 
1 
1 
1 
1 
1 
1 
1 
1 
1 
1 
1 
1 
1 
1 
1 
1 
1 
1 
1 
1 
1 
1 
1 
1 
1 
1 
1 
1 
1 
1 
1 
1 
1 
1 
1 
1 
1 
1 
1 
1 
1 
1 
1 
1 
1 
1 
1 
1 
1 
1 
1 
1 
1 
1 
1 
1 
1 
1 
1 
1 
1 
1 
1 
1 
1 
1 
1 
1 
1 
1 
1 
1 
1 
1 
1 
1 
1 
1 
1 
1 
1 
1 
1 
1 
1 
1 
1 
1 
1 
1 
1 
1 
1 
1 
1 
1 
1 
1 
1 
1 
1 
1 
1 
1 
1 
1 
1 
1 
1 
1 
1 
1 
1 
1 
1 
1 
1 
1 
1 
1 
1 
1 
1 
1 
1 
1 
1 
1 
1 
1 
1 
1 
1 
1 
1 
1 
1 
1 
1 
1 
1 
1 
1 
1 
1 
1 
1 
1 
1 
1 
1 
1 
1 
1 
1 
1 
1 
1 
1 
1 
1 
1 
1 
1 
1 
1 
1 
1 
1 
1 
1 
1 
1 
1 
1 
1 
1 
1 
1 
1 
1 
1 
1 
1 
1 
1 
1 
1 
1 
1 
1 
1 
1 
1 
1 
1 
1 
1 
1 
1 
1 
1 
1 
1 
1 
1 
1 
1 
1 
1 
1 
1 
1 
1 
1 
1 
1 
1 
1 
1 
1 
1 
1 
1 
1 
1 
1 
1 
1 
1 
1 
1 
1 
1 
1 
1 
1 
1 
1 
1 
1 
1 
1 
1 
1 
1 
1 
1 
1 
1 
1 
1 
1 
1 
1 
1 
1 
1 
1 
1 
1 
1 
1 
1 
1 
1 
1 
1 
1 
1 
1 
1 
1 
1 
1 
1 
1 
1 
1 
1 
1 
1 
1 
1 
1 
1 
1 
1 
1 
1 
1 
1 
1 
1 
1 
1 
1 
1 
1 
1 
1 
1 
1 
1 
1 
1 
1 
1 
1 
1 
1 
1 
1 
1 
1 
1 
1 
1 
1 
1 
1 
1 
1 
1 
1 
1 
1 
1 
1 
1 
1 
1 
1 
1 
1 
1 
1 
1 
1 
1 
1 
1 
1 
1 
1 
1 
1 
1 
1 
1 
1 
1 
1 
1 
1 
1 
1 
1 
1 
1 
1 
1 
1 
1 
1 
1 
1 
1 
1 
1 
1 
1 
1 
1 
1 
1 
1 
1 
1 
1 
1 
1 
1 
1 
1 
1 
1 
1 
1 
1 
1 
1 
1 
1 
1 
1 
1 
1 
1 
1 
1 
1 
1 
1 
1 
1 
1 
1 
1 
1 
1 
1 
1 
1 
1 
1 
1 
1 
1 
1 
1 
1 
1 
1 
1 
1 
1 
1 
1 
1 
1 
1 
1 
1 
1 
1 
1 
1 
1 
1 
1 
1 
1 
1 
1 
1 
1 
1 
1 
1 
1 
1 
1 
1 
1 
1 
1 
1 
1 
1 
1 
1 
1 
1 
1 
1 
1 
1 
1 
1 
1 
1 
1 
1 
1 
1 
1 
1 
1 
1 
1 
1 
1 
1 
1 
1 
1 
1 
1 
1 
1 
1 
1 
1 
1 
1 
1 
1 
1 
1 
1 
1 
1 
1 
1 
1 
1 
1 
1 
1 
1 
1 
1 
1 
1 
1 
1 
1 
1 
1 
1 
1 
1 
1 
1 
1 
1 
1 
1 
1 
1 
1 
1 
1 
1 
1 
1 
1 
1 
1 
1 
1 
1 
1 
1 
1 
1 
1 
1 
1 
1 
1 
1 
1 
1 
1 
1 
1 
1 
1 
1 
1 
1 
1 
1 
1 
1 
1 
1 
1 
1 
1 
1 
1 
1 
1 
1 
1 
1 
1 
1 
1 
1 
1 
1 
1 
1 
1 
1 
1 
1 
1 
1 
1 
1 
1 
1 
1 
1 
1 
1 
1 
1 
1 
1 
1 
1 
1 
1 
1 
1 
1 
1 
1 
1 
1 
1 
1 
1 
1 
1 
1 
1 
1 
1 
1 
1 
1 
1 
1 
1 
1 
1 
1 
1 
1 
1 
1 
1 
1 
1 
1 
1 
1 
1 
1 
1 
1 
1 
1 
1 
1 
1 
1 
1 
1 
1 
1 
1 
1 
1 
1 
1 
1 
1 
1 
1 
1 
1 
1 
1 
1 
1 
1 
1 
1 
1 
1 
1 
1 
1 
1 
1 
1 
1 
1 
1 
1 
1 
1 
1 
1 
1 
1 
1 
1 
1 
1 
1 
1 
1 
1 
1 
1 
1 
1 
1 
1 
1 
1 
1 
1 
1 
1 
1 
1 
1 
1 
1 
1 
1 
1 
1 
1 
1 
1 
1 
1 
1 
1 
1 
1 
1 
1 
1 
1 
1 
1 
1 
1 
1 
1 
1 
1 
1 
1 
1 
1 
1 
1 
1 
1 
1 
1 
1 
1 
1 
1 
1 
1 
1 
1 
1 
1 
1 
1 
1 
1 
1 
1 
1 
1 
1 
1 
1 
1 
1 
1 
1 
1 
1 
1 
1 
1 
1 
1 
1 
1 
1 
1 
1 
1 
1 
1 
1 
1 
1 
1 
1 
1 
1 
1 
1 
1 
1 
1 
1 
1 
1 
1 
1 
1 
1 
1 
1 
1 
1 
1 
1 
1 
1 
POINT_DATA 5000
VECTORS Stress float
-1790.64 -2926.58 0.
-2618.04 -2287.6 0.
-41.0354 -80.3122 0.
-545.609 -766.772 0.
-3385.01 -6586.09 0.
-11.1243 -4.8333 0.
-3006.28 -2959.18 0.
-16.5936 -11.3011 0.
-152.695 -101.317 0.
-4022.05 -6277.5 0.
-1421.43 -2379.23 0.
-18.3878 -14.2333 0.
-1848.49 -2696.69 0.
-1451.16 -2177.73 0.
-1281.42 -1935.81 0.
-1041.22 -1698.8 0.
-793.584 -1469.24 0.
-790.029 -1585.65 0.
-620.051 -1324.19 0.
-452.189 -1060.61 0.
-512.285 -1034.52 0.
-467.134 -957.513 0.
-421.991 -880.496 0.
-445.168 -885.452 0.
-430.646 -905.634 0.
-419.101 -922.835 0.
-494.815 -1024.18 0.
-519.327 -1064.63 0.
-482.767 -1019.85 0.
-447.803 -963.537 0.
-413.501 -906.56 0.
-405.793 -881.119 0.
-387.018 -847.106 0.
-368.394 -812.941 0.
-372.86 -818.003 0.
-381 -862.356 0.
-395.263 -900.585 0.
-462.841 -974.811 0.
-478.42 -1011.15 0.
-445.399 -990.965 0.
-425.19 -944.592 0.
-409.271 -893.927 0.
-414.043 -888.695 0.
-422.857 -902.377 0.
-432.396 -915.335 0.
-409.064 -846.476 0.
-365.064 -661.788 0.
-321.266 -476.897 0.
-279.745 -507.284 0.
-358.183 -899.841 0.
-463.668 -1265.33 0.
-377.227 -911.045 0.
-289.749 -506.806 0.
-315.719 -435.597 0.
-364.636 -629.06 0.
-412.844 -823.231 0.
-434.833 -908.588 0.
-434.071 -920.51 0.
-434.696 -931.043 0.
-430.781 -922.255 0.
-431.434 -944.564 0.
-436.424 -962.536 0.
-466.347 -986.348 0.
-455.118 -960.149 0.
-392.792 -893.967 0.
-385.155 -862.042 0.
-382.215 -825.421 0.
-383.582 -824.571 0.
-395.198 -849.463 0.
-409.362 -871.807 0.
-412.463 -894.014 0.
-451.076 -960.055 0.
-490.423 -1025.36 0.
-528.773 -1079.75 0.
-507.563 -1047.49 0.
-477.79 -1010.87 0.
-445.075 -908.624 0.
-450.88 -864.659 0.
-408.505 -844.19 0.
-473.117 -966.757 0.
-537.782 -1089.27 0.
-476.987 -1125.34 0.
-794.346 -1694.45 0.
-1118.67 -2256.6 0.
-1125.03 -1869.3 0.
-1304.29 -1753.72 0.
-1460.48 -1661.2 0.
-1570.1 -2451.38 0.
-2359.18 -3865.97 0.
-47.6669 -74.1172 0.
-799.4 -1310.31 0.
-4608.33 -7007.93 0.
-247.22 -307.512 0.
-277.893 -236.713 0.
-2901.35 -3294.75 0.
-27.0315 -38.4701 0.
-3558.91 -5191.78 0.
-55.1646 -84.9759 0.
-3372.64 -5432.3 0.
-222.216 -439.292 0.
-1457.49 -2587.43 0.
-131.005 -137.194 0.
-71.0799 -112.325 0.
-249.572 -136.149 0.
-129.074 -63.904 0.
-33.5784 -13.6578 0.
-7.80325 -7.7976 0.
0.205992 0.00301765 0.
-493.404 -227.953 0.
-139.616 -102.281 0.
-8.16981 -4.89996 0.
-60.2044 -43.093 0.
-733.459 -973.885 0.
-393.901 -395.806 0.
-495.679 -800.803 0.
-314.559 -504.247 0.
-170.936 -170.194 0.
-479.862 -1119.37 0.
-331.93 -835.693 0.
-211.597 -524.413 0.
-412.479 -934.892 0.
-365.89 -859.315 0.
-322.473 -780.566 0.
-434.228 -808.298 0.
-418.576 -829.608 0.
-403.811 -850.026 0.
-576.456 -1076.49 0.
-595.945 -1121.96 0.
-466.383 -947.659 0.
-428.819 -893.939 0.
-393.188 -838.288 0.
-414.865 -866.641 0.
-395.691 -833.027 0.
-384.716 -791.213 0.
-387.668 -781.51 0.
-393.833 -827.836 0.
-403.688 -870.472 0.
-572.521 -1021.8 0.
-588.103 -1058.13 0.
-455.054 -953.721 0.
-429.648 -912.543 0.
-407.152 -868.453 0.
-438.483 -910.69 0.
-443.444 -928.226 0.
-452.808 -941.359 0.
-470.424 -883.278 0.
-398.481 -726.542 0.
-341.891 -554.454 0.
-94.125 -132.317 0.
-226.891 -470.682 0.
-330.668 -837.968 0.
-265.609 -569.737 0.
-140.179 -203.335 0.
-348.089 -511.805 0.
-408.131 -694.126 0.
-485.15 -859.47 0.
-455.804 -939.362 0.
-455.709 -950.617 0.
-462.398 -955.089 0.
-437.944 -896.048 0.
-444.758 -912.196 0.
-457.903 -922.013 0.
-570.56 -1030.97 0.
-559.33 -1004.78 0.
-399.532 -859.534 0.
-393.451 -826.052 0.
-392.095 -787.846 0.
-405.775 -802.357 0.
-411.124 -833.519 0.
-422.204 -858.948 0.
-391.284 -817.434 0.
-432.937 -880.439 0.
-475.503 -942.531 0.
-593.933 -1137.59 0.
-577.518 -1100.53 0.
-335.229 -832.719 0.
-433.7 -827.7 0.
-440.464 -782.775 0.
-313.206 -691.589 0.
-378.31 -813.685 0.
-446.722 -932.475 0.
-165.302 -152.839 0.
-377.461 -827.745 0.
-640.7 -1451.57 0.
-182.532 -80.4032 0.
-206.094 -115.901 0.
-206.612 -179.149 0.
-44.3109 -25.4334 0.
-418.103 -966.603 0.
-55.2376 -80.8749 0.
-41.19 -50.2132 0.
-77.3355 -80.0952 0.
-425.575 -216.724 0.
-30.7834 -45.1764 0.
-98.774 -100.529 0.
-42.1109 -40.5552 0.
-79.7784 -101.244 0.
-20.4874 -13.0149 0.
-218.528 -487.514 0.
-213.454 -242.395 0.
0.174996 0.212326 0.
-127.82 -67.6275 0.
-104.069 -149.236 0.
-196.793 -128.693 0.
-44.4124 -32.4382 0.
-63.0673 -26.9618 0.
-40.5483 -56.1862 0.
-73.308 -63.9675 0.
-800.975 -411.54 0.
-88.0196 -57.0438 0.
-41.0038 -18.3488 0.
-252.289 -144.006 0.
-110.911 -73.2158 0.
-68.9632 -56.1818 0.
-50.9624 -31.2234 0.
-36.5649 -22.8523 0.
-43.3123 -31.5565 0.
-249.585 -573.206 0.
-134.76 -256.248 0.
-14.9806 -35.4386 0.
-359.776 -788.16 0.
-318.472 -707.291 0.
-280.026 -623.564 0.
-429.251 -725.182 0.
-413.615 -746.475 0.
-398.426 -767.311 0.
-670.222 -1116.68 0.
-689.711 -1162.14 0.
-468.853 -856.611 0.
-432.384 -801.793 0.
-396.831 -746.059 0.
-428.32 -847.778 0.
-415.325 -807.986 0.
-404.173 -766.351 0.
-410.017 -737.474 0.
-415.337 -784.645 0.
-421.535 -830.938 0.
-682.201 -1068.79 0.
-697.786 -1105.12 0.
-479.327 -901.859 0.
-454.343 -860.256 0.
-430.45 -817.563 0.
-488.394 -907.215 0.
-492.408 -925.699 0.
-496.689 -943.915 0.
-559.421 -892.442 0.
-487.181 -736.015 0.
-415.385 -579.143 0.
-34.016 -35.4019 0.
-57.0655 -80.0569 0.
-4147.6 -2853.55 0.
-132.525 -249.897 0.
-1.36124 -1.13569 0.
-440.327 -528.143 0.
-516.345 -694.473 0.
-593.217 -859.948 0.
-505.809 -941.102 0.
-511.236 -946.837 0.
-517.675 -951.559 0.
-472.3 -842.649 0.
-481.519 -856.392 0.
-493.302 -867.57 0.
-674.772 -1075.6 0.
-663.542 -1049.41 0.
-420.236 -811.137 0.
-418.925 -772.884 0.
-418.663 -733.582 0.
-431.294 -776.818 0.
-437.417 -807.207 0.
-443.066 -838.069 0.
-392.266 -718.694 0.
-432.672 -782.95 0.
-473.989 -846.294 0.
-680.152 -1174.36 0.
-663.621 -1137.43 0.
-376.326 -724.382 0.
-426.489 -742.611 0.
-432.265 -698.673 0.
-299.972 -456.921 0.
-334.764 -609.353 0.
-383.34 -748 0.
-57.3006 -57.5694 0.
-44.7118 -34.1213 0.
-317.1 -492.169 0.
-289.091 -124.018 0.
-62.0686 -41.7021 0.
-90.2012 -55.6253 0.
-73.8124 -38.6988 0.
-94.5718 -78.1071 0.
-65.7559 -84.4466 0.
-55.1274 -55.9741 0.
-53.377 -52.2078 0.
-758.547 -324.231 0.
-258.111 -150.314 0.
-214.022 -145.302 0.
-74.026 -60.6843 0.
-124.744 -138.292 0.
-62.4239 -53.1215 0.
-2.90215 -1.04848 0.
-2868.61 -5355.94 0.
-2613.04 -4893.26 0.
-61.8543 -23.614 0.
-121.826 -66.5378 0.
-2966.83 -3080.42 0.
-185.984 -106.547 0.
-2853.81 -5258.86 0.
-63.508 -73.2634 0.
-1912.85 -2474.93 0.
-123.58 -154.594 0.
-3332.6 -5873.88 0.
-41.6985 -52.0109 0.
-63.4997 -104.552 0.
-3949.44 -7256.5 0.
-44.7786 -47.3709 0.
-2140.85 -3117.5 0.
-1371.34 -2070.24 0.
-654.973 -969.843 0.
-2079.36 -4113.6 0.
-1064.41 -2242.79 0.
-173.209 -248.207 0.
-1170.43 -2666.66 0.
-770.452 -1843.45 0.
-402.116 -988.589 0.
-728.648 -1662.77 0.
-603.545 -1397.3 0.
-484.606 -1125.67 0.
-878.6 -1663.84 0.
-863.468 -1628.55 0.
-624.285 -1274 0.
-589.664 -1199.61 0.
-555.11 -1125.16 0.
-605.985 -1174.55 0.
-593.375 -1188.09 0.
-581.939 -1200.45 0.
-615.676 -1153.91 0.
-603.213 -1166.63 0.
-591.603 -1178.49 0.
-898.755 -1459.53 0.
-904.47 -1472.92 0.
-650.338 -1243.62 0.
-639.097 -1226.32 0.
-628.048 -1208.83 0.
-707.27 -1268.75 0.
-684.709 -1236.58 0.
-663.277 -1203.28 0.
-776.317 -1260.68 0.
-807.04 -1350.81 0.
-838.94 -1439.76 0.
-43.5184 -37.061 0.
-46.7919 -45.1156 0.
-5197.36 -3342.04 0.
-97.8243 -202.381 0.
-99.6476 -192.276 0.
-880.188 -1448.17 0.
-847.942 -1361.62 0.
-817.327 -1273.44 0.
-691.29 -1212.87 0.
-707.169 -1233.36 0.
-724.049 -1252.85 0.
-642.372 -1200.01 0.
-664.893 -1245.75 0.
-687.58 -1291.32 0.
-906.559 -1512.86 0.
-899.08 -1495.4 0.
-615.083 -1210.6 0.
-625.849 -1187.21 0.
-637.812 -1162.63 0.
-608.322 -1216.97 0.
-623.109 -1214.33 0.
-638.668 -1210.92 0.
-548.253 -1134.88 0.
-588.065 -1215.14 0.
-627.975 -1295.31 0.
-830.29 -1674.17 0.
-851.065 -1722.69 0.
-434.893 -951.488 0.
-657.387 -1468.87 0.
-874.71 -1925.75 0.
-393.79 -770.332 0.
-898.209 -1946.09 0.
-1470.59 -3053.89 0.
-58.0476 -57.3134 0.
-1324.79 -2583.69 0.
-2602.37 -5111.77 0.
-340.873 -404.595 0.
-1316.18 -1899.34 0.
-2334.75 -3350.8 0.
-88.178 -96.1528 0.
-4348.21 -7678.06 0.
-90.0624 -100.752 0.
-65.8981 -53.8435 0.
-3615.09 -4595.89 0.
-38.9874 -61.1221 0.
-1986.96 -2863.24 0.
-75.3039 -93.6659 0.
-3095.66 -5234.2 0.
-673.316 -925.531 0.
-1218.21 -1740.57 0.
-166.328 -72.6333 0.
-113.715 -159.158 0.
-116.708 -292.024 0.
-0.527173 -1.7465 0.
-3086.8 -5882.3 0.
0.61623 0.000607212 0.
-0.101143 -0.0149188 0.
-270.174 -436.814 0.
-5.35562 -12.0263 0.
-140.318 -209.267 0.
-59.811 -30.2908 0.
-139.212 -203.803 0.
-42.2448 -61.8385 0.
-39.8614 -50.7214 0.
-61.0295 -82.3684 0.
-60.6274 -54.0353 0.
-11.9303 -23.7693 0.
-7.08125 -10.1167 0.
-12.9373 -20.4856 0.
-243.752 -255.098 0.
-18.8881 -50.8438 0.
-14.363 -28.1011 0.
-599.968 -1460.48 0.
-265.885 -570.242 0.
-30.3451 -58.6008 0.
-581.589 -1336.45 0.
-476.508 -1050.87 0.
-379.617 -757.09 0.
-846.415 -1650.12 0.
-831.285 -1614.84 0.
-634.392 -1244.68 0.
-597.492 -1172.57 0.
-560.858 -1100.19 0.
-613.05 -1101.16 0.
-600.632 -1114.51 0.
-589.094 -1126.98 0.
-630.929 -1099.35 0.
-617.665 -1112.86 0.
-605.232 -1125.54 0.
-958.829 -1485.26 0.
-964.542 -1498.64 0.
-706.552 -1236.28 0.
-696.349 -1217.95 0.
-686.354 -1199.41 0.
-782.156 -1234.51 0.
-760.233 -1201.7 0.
-739.426 -1167.78 0.
-847.807 -1229.42 0.
-878.054 -1320.02 0.
-909.551 -1409.38 0.
-27.0416 -14.3583 0.
-29.6488 -13.9368 0.
-6229.03 -3777.66 0.
-0.00181211 -1.00081 0.
-0.126739 -0.345624 0.
-951.762 -1429.21 0.
-919.767 -1342.42 0.
-888.472 -1254.92 0.
-780.083 -1185.52 0.
-795.889 -1206.08 0.
-812.665 -1225.68 0.
-698.094 -1186.95 0.
-720.508 -1232.79 0.
-743.087 -1278.47 0.
-960.899 -1536.12 0.
-953.416 -1518.67 0.
-646.633 -1155.28 0.
-658.558 -1130.74 0.
-671.501 -1105.18 0.
-616.365 -1144.08 0.
-629.803 -1142.79 0.
-646.413 -1138.33 0.
-530.032 -1094.55 0.
-570.213 -1174.46 0.
-610.691 -1254.06 0.
-784.782 -1608.07 0.
-820.589 -1641.56 0.
-311.633 -404.931 0.
-457.586 -905.458 0.
-643.778 -1393.74 0.
-57.6519 -61.4305 0.
-54.573 -57.9396 0.
-580.805 -1032.97 0.
-60.2602 -51.0601 0.
-47.2409 -38.1715 0.
-263.567 -116.049 0.
-38.2417 -40.8973 0.
-40.1786 -49.4015 0.
-212.11 -266.421 0.
-79.3186 -87.9776 0.
-110.185 -134.573 0.
-81.3351 -31.829 0.
-68.3708 -24.6947 0.
-87.2919 -52.6571 0.
-54.1093 -53.624 0.
-59.4373 -70.9224 0.
-47.8285 -32.0192 0.
-86.9751 -38.4763 0.
-164.921 -204.03 0.
-50.3512 -55.3454 0.
-83.6566 -125.433 0.
-1288.28 -2256.96 0.
-1341.21 -1652.12 0.
-15.3765 -37.4195 0.
-0.301398 -3.20406 0.
1.49659 1.2177 0.
-0.801241 -0.061601 0.
-12.1351 -17.385 0.
-0.0156747 -0.456185 0.
-2453.23 -4093.07 0.
-28.7084 -10.5881 0.
-2703.28 -5258.78 0.
-49.9508 -90.2927 0.
-23.253 -13.2582 0.
-3384.05 -6508.4 0.
-35.7845 -41.8047 0.
-2752.52 -3944.81 0.
-694.04 -713.387 0.
-16.3628 -45.1998 0.
-2848.04 -5782.82 0.
-1016.72 -1847.81 0.
-21.5358 -56.182 0.
-1955.64 -4169.85 0.
-937.547 -2118.5 0.
-15.9801 -43.1943 0.
-1133 -2436.72 0.
-711.375 -1534.76 0.
-316.889 -605.665 0.
-902.91 -1684.5 0.
-761.705 -1445.67 0.
-549.869 -1054.57 0.
-492.666 -950.561 0.
-436.326 -845.693 0.
-504.454 -828.522 0.
-480.12 -791.469 0.
-456.275 -753.928 0.
-477.992 -745.739 0.
-467.683 -732.052 0.
-457.531 -718.208 0.
-816.065 -1094.39 0.
-799.676 -1056.14 0.
-554.168 -702.2 0.
-559.279 -722.661 0.
-564.527 -742.985 0.
-657.772 -800.728 0.
-657.062 -806.591 0.
-656.965 -811.839 0.
-753.294 -900.529 0.
-795.336 -997.993 0.
-837.644 -1095.19 0.
-45.4089 -34.0153 0.
-42.179 -29.5775 0.
-5627.99 -2578.62 0.
-0.00477252 -0.432468 0.
-0.00837117 -0.309086 0.
-853.068 -1125.12 0.
-810.049 -1023.81 0.
-779.12 -910.412 0.
-695.173 -812.51 0.
-695.353 -807.762 0.
-695.745 -802.801 0.
-568.651 -734.531 0.
-566.344 -723.088 0.
-564.062 -711.622 0.
-778.637 -1050.58 0.
-793.288 -1084.73 0.
-485.681 -699.59 0.
-508.05 -741.53 0.
-530.549 -783.34 0.
-493.903 -806.09 0.
-517.811 -840.988 0.
-541.9 -875.705 0.
-430.184 -849.935 0.
-531.245 -1050.56 0.
-632.385 -1251.1 0.
-851.28 -1646.73 0.
-1058.27 -1987.25 0.
-314.77 -455.775 0.
-813.23 -1670.02 0.
-1349.55 -2814.57 0.
-24.9598 -33.8152 0.
-983.165 -1972.93 0.
-2428.33 -5163.21 0.
-37.5103 -36.6193 0.
-791.485 -515.187 0.
-2585.76 -3657.47 0.
-34.7706 -51.135 0.
-3905.05 -8312.27 0.
-54.1019 -60.9427 0.
-69.5893 -48.6081 0.
-2932.38 -4405.23 0.
-92.1906 -38.2815 0.
-3408.27 -5461.01 0.
-62.2644 -23.3141 0.
-1276.35 -2799.73 0.
-114.229 -138.062 0.
-28.8577 -16.6341 0.
-343.848 -386.78 0.
1.9857 2.01511 0.
-2094.61 -4368.93 0.
-1.55669 -4.17836 0.
-2482.57 -6113.67 0.
-1669.58 -3755.48 0.
-55.8692 -137.832 0.
-0.389429 -2.29685 0.
-0.760417 -1.11982 0.
-1.05419 -0.066621 0.
-186.822 -168.163 0.
-2177.26 -3937.35 0.
1.08821 0.278004 0.
-0.504931 -0.187333 0.
-0.867562 -0.316036 0.
-73.8506 -122.716 0.
-27.2279 -16.381 0.
-11.0382 -17.8671 0.
-2.80198 -6.22536 0.
-20.4515 -56.3337 0.
-17.953 -48.44 0.
-24.3802 -64.5661 0.
-28.6923 -68.0024 0.
-15.5904 -35.0961 0.
-15.2348 -35.367 0.
-380.131 -659.219 0.
-9.98105 -17.8834 0.
-20.5573 -53.7163 0.
-619.62 -1399.67 0.
-260.911 -433.736 0.
-20.3634 -30.8663 0.
-640.078 -1244.08 0.
-515.554 -988.43 0.
-450.905 -895.572 0.
-403.445 -781.805 0.
-358.918 -665.105 0.
-470.913 -762.597 0.
-448.888 -723.234 0.
-425.055 -685.68 0.
-468.737 -701.63 0.
-456.246 -690.123 0.
-445.985 -676.386 0.
-816.566 -1094.58 0.
-800.174 -1056.33 0.
-569.882 -685.899 0.
-574.9 -706.455 0.
-580.073 -726.856 0.
-652.181 -741.532 0.
-651.949 -746.921 0.
-652.358 -751.669 0.
-693.366 -851.38 0.
-735.691 -948.576 0.
-778.204 -1045.58 0.
-37.3417 -30.531 0.
-34.4858 -26.3548 0.
-4642.43 -2151.14 0.
0.429596 1.17221 0.
-0.00700021 -0.308308 0.
-799.13 -1063.3 0.
-755.732 -962.367 0.
-712.746 -861.021 0.
-677.623 -762.963 0.
-678.026 -757.988 0.
-679.599 -751.842 0.
-577.179 -731.139 0.
-575.454 -719.112 0.
-573.854 -706.96 0.
-787.601 -1054.41 0.
-802.245 -1088.56 0.
-455.335 -649.76 0.
-477.63 -691.777 0.
-505.343 -728.376 0.
-425.12 -706.326 0.
-448.954 -741.3 0.
-472.532 -776.529 0.
-334.634 -569.04 0.
-412.664 -792.753 0.
-497.704 -1009.46 0.
-530.555 -983.816 0.
-708.677 -1353.48 0.
-70.96 -75.7094 0.
-138.711 -109.625 0.
-620.464 -1310.7 0.
-26.1308 -36.197 0.
-22.7852 -28.4012 0.
-328.014 -178.122 0.
-26.154 -27.9748 0.
-13.4164 -22.7373 0.
-17.1881 -34.4055 0.
-13.2961 -35.6058 0.
-40.904 -63.1172 0.
-104.985 -112.926 0.
-80.6658 -50.1717 0.
-183.597 -162.923 0.
-50.2099 -24.9264 0.
0.108082 0.10813 0.
-28.0999 -10.1932 0.
-1911.61 -3974.22 0.
-107.642 -129.252 0.
-2464.66 -3816.53 0.
-141.704 -52.406 0.
0.056212 1.51049 0.
-0.40943 -1.8744 0.
-0.049263 -15.6176 0.
-760.832 -1215.18 0.
0.989822 2.01617 0.
-36.5963 -73.8869 0.
-2100.82 -3615.35 0.
0.0647696 3.57187 0.
-0.328374 -0.613987 0.
-173.544 -186.552 0.
0.740612 0.500661 0.
0.96919 0.488236 0.
-1.87328 -0.695508 0.
-2.87948 -1.05042 0.
-294.435 -275.138 0.
-69.617 -58.8211 0.
0.0259997 0.111712 0.
0.374155 0.0297061 0.
-1.42867 -3.48687 0.
-31.458 -62.283 0.
-38.4574 -77.8737 0.
-27.8309 -55.9232 0.
-12.5905 -21.9989 0.
-12.1388 -14.6159 0.
-29.7216 -57.7049 0.
-18.2168 -28.5702 0.
-31.1022 -60.0944 0.
-212.769 -256.111 0.
-5.89198 -11.4659 0.
-12.3286 -29.4438 0.
-426.112 -754.8 0.
-318.917 -481.68 0.
-375.853 -712.666 0.
-334.584 -592.69 0.
-294.732 -471.295 0.
-443.004 -691.039 0.
-418.747 -653.908 0.
-395.16 -616.106 0.
-467.529 -649.475 0.
-454.62 -638.383 0.
-441.953 -627.051 0.
-817.066 -1094.77 0.
-800.673 -1056.53 0.
-586.24 -668.954 0.
-591.158 -689.612 0.
-596.235 -710.111 0.
-647.327 -681.598 0.
-647.645 -686.442 0.
-648.28 -690.97 0.
-638.443 -797.226 0.
-680.83 -894.374 0.
-723.305 -991.434 0.
-30.4739 -27.6271 0.
-28.0295 -23.6291 0.
-4619.04 -2153.62 0.
-0.0635997 -0.174552 0.
-0.00391439 -0.0813855 0.
-745.457 -1001.22 0.
-701.86 -900.479 0.
-658.449 -799.552 0.
-666.266 -707.222 0.
-666.615 -702.298 0.
-667.418 -696.919 0.
-598.649 -714.805 0.
-597.049 -702.65 0.
-595.604 -690.34 0.
-796.564 -1058.23 0.
-811.203 -1092.39 0.
-433.641 -591.277 0.
-461.162 -628.072 0.
-488.814 -664.735 0.
-369.33 -593.571 0.
-394.119 -627.589 0.
-417.84 -662.676 0.
-259.127 -268.102 0.
-331.928 -497.106 0.
-407.815 -723.023 0.
-274.89 -255.838 0.
-428.699 -650.094 0.
-72.5239 -67.7716 0.
-38.8694 -41.0653 0.
-41.9394 -41.8435 0.
-46.6658 -47.7059 0.
-31.3579 -32.5076 0.
-35.7635 -30.2758 0.
-20.5583 -22.9794 0.
-16.2668 -25.712 0.
-23.9234 -43.7398 0.
-36.9119 -49.2135 0.
-86.9391 -86.2385 0.
-403.893 -300.523 0.
-242.691 -174.571 0.
-324.26 -224.509 0.
-140.173 -103.221 0.
-45.884 -29.6107 0.
-39.5014 -14.3577 0.
-730.965 -1584.04 0.
-94.5386 -117.129 0.
1.35806 3.13422 0.
-1383.75 -1990.73 0.
0.201666 1.67506 0.
-2218.19 -3552.12 0.
6.28047 16.1577 0.
-947.876 -1196.68 0.
-2812.03 -4485.96 0.
-0.157344 -12.8403 0.
3.59141 5.99327 0.
0.0407508 0.609476 0.
-2.19209 -3.36528 0.
-2439.67 -4134.39 0.
-266.91 -309.253 0.
0.0780921 1.15244 0.
-3.01151 -1.12208 0.
-2346.56 -4310.85 0.
-1881.9 -1910.62 0.
-31.1936 -20.2126 0.
-2398.27 -4673.87 0.
-7.96914 -18.3909 0.
0.0969887 0.375944 0.
-3673.22 -6430.44 0.
-44.9429 -76.3374 0.
-2884.4 -4598.8 0.
-25.6482 -48.3677 0.
-12.3836 -15.2139 0.
-3040.04 -6871.57 0.
-137.499 -120.532 0.
-33.9745 -48.4559 0.
-1884.44 -4369.91 0.
-686.732 -1595.09 0.
-24.8996 -52.9893 0.
-1232.09 -2665.3 0.
-785.5 -1750.88 0.
-874.004 -1903.08 0.
-642.532 -1419.39 0.
-428.464 -918.303 0.
-677.722 -1329.38 0.
-595.414 -1184.58 0.
-513.913 -1038.98 0.
-649.309 -1116.43 0.
-608.055 -1056.43 0.
-567.674 -995.559 0.
-948.394 -1505.43 0.
-926.063 -1453.35 0.
-663.014 -1013.77 0.
-668.279 -1034.6 0.
-674.144 -1054.82 0.
-715.75 -1079.38 0.
-731.642 -1120.6 0.
-747.858 -1161.5 0.
-754.043 -1268.94 0.
-801.457 -1394.01 0.
-854.347 -1513.6 0.
-27.3379 -12.4883 0.
-30.4869 -14.2116 0.
-4517.29 -3292.31 0.
0.00370184 0.0509127 0.
-0.00203842 -0.0478243 0.
-881.632 -1556.05 0.
-821.052 -1412.68 0.
-770.681 -1259.11 0.
-765.62 -1147.67 0.
-746.481 -1099.89 0.
-727.479 -1051.97 0.
-674.949 -1054.68 0.
-691.84 -1086.37 0.
-710.585 -1116.21 0.
-946.215 -1517.52 0.
-958.68 -1546.58 0.
-547.364 -960.741 0.
-608.891 -1065.47 0.
-671.643 -1168.98 0.
-467.414 -1002.23 0.
-583.305 -1254.99 0.
-708.37 -1498.58 0.
-426.414 -847.049 0.
-683.883 -1527.18 0.
-988.184 -2160.47 0.
-854.508 -1777.63 0.
-1490.59 -3220.33 0.
-36.5786 -59.4264 0.
-729.925 -1403.43 0.
-2377.56 -5239.67 0.
-35.7487 -83.4636 0.
-30.8537 -60.1115 0.
-2991.1 -6426.59 0.
-33.9726 -52.1191 0.
-31.6461 -47.0336 0.
-3170.03 -4719.95 0.
-10.0457 -12.1616 0.
-3005.96 -6129.28 0.
-93.4781 -62.017 0.
-675.209 -742.232 0.
-1443.77 -3295.52 0.
-195.787 -160.965 0.
-1748.71 -3534.2 0.
-96.7124 -34.9331 0.
-72.3251 -82.5719 0.
-83.7593 -107.315 0.
1.01404 2.29983 0.
-62.9933 -126.939 0.
-0.693363 -12.2818 0.
-0.12584 -2.84612 0.
-247.573 -356.641 0.
-2139.81 -3643.15 0.
23.9193 36.3154 0.
19.1733 43.0951 0.
-2708.67 -3838.57 0.
-0.724629 -6.18623 0.
-1676.06 -2745.52 0.
-0.0221933 -1.02855 0.
-189.303 -242.06 0.
0.538908 1.17027 0.
-69.8976 -149.593 0.
-707.64 -1654.42 0.
-24.8597 -35.538 0.
0.506723 0.217264 0.
0.691117 0.428239 0.
-35.287 -83.6599 0.
-12.0521 -19.1761 0.
-9.52719 -15.0566 0.
-38.3742 -66.7496 0.
-37.5468 -77.7185 0.
-24.1862 -38.8569 0.
-6.35167 -5.97123 0.
-42.1313 -48.7758 0.
-33.3597 -38.1566 0.
-37.9121 -53.0742 0.
-381.899 -768.511 0.
-30.081 -53.4432 0.
-26.2145 -56.2685 0.
-653.378 -1355.47 0.
-264.739 -381.769 0.
-532.293 -1197.73 0.
-337.988 -676.485 0.
-160.275 -138.654 0.
-534.697 -1104.03 0.
-464.639 -946.935 0.
-405.126 -779.301 0.
-603.243 -1009.5 0.
-562.753 -948.73 0.
-523.037 -887.186 0.
-893.195 -1481.74 0.
-870.861 -1429.66 0.
-598.102 -916.192 0.
-603.545 -936.844 0.
-609.554 -956.931 0.
-648.667 -1010.89 0.
-664.11 -1052.57 0.
-679.868 -1093.94 0.
-664.163 -1199.12 0.
-717.073 -1318.71 0.
-770.175 -1438.11 0.
-45.0095 -21.9768 0.
-60.8402 -40.6316 0.
-4112.5 -3116.29 0.
0.000530765 0.00588907 0.
-4.4702 -9.10143 0.
-802.185 -1476.18 0.
-741.381 -1333.02 0.
-680.978 -1189.46 0.
-699.421 -1083.11 0.
-678.931 -1036.67 0.
-659.643 -989.032 0.
-626.06 -952.009 0.
-643.692 -982.957 0.
-662.203 -1013.03 0.
-890.371 -1490.1 0.
-907.07 -1514.93 0.
-481.607 -819.231 0.
-542.136 -924.98 0.
-603.837 -1029.56 0.
-315.36 -592.602 0.
-412.093 -864.628 0.
-520.554 -1124.93 0.
-34.9022 -28.7203 0.
-290.961 -481.934 0.
-546.454 -1164.74 0.
-50.4058 -40.3515 0.
-677.519 -1342.33 0.
-28.8345 -57.1078 0.
-40.4244 -72.0313 0.
-66.5519 -94.0641 0.
-46.2305 -86.8278 0.
-19.026 -42.8349 0.
-16.807 -38.0677 0.
-32.8309 -46.6678 0.
-31.5215 -41.9982 0.
-29.3406 -41.4089 0.
-12.0408 -9.62207 0.
-7.46082 -6.32111 0.
-124.635 -78.8766 0.
-848.003 -1093.46 0.
-59.5881 -70.8457 0.
-135.426 -133.915 0.
-80.2388 -80.5888 0.
-1570 -2831.96 0.
-55.4022 -41.4435 0.
-81.0824 -116.566 0.
-1939.33 -4367.99 0.
-312.109 -555.902 0.
-1.69517 -11.5261 0.
-2134.94 -4978.38 0.
-1.0853 -1.19354 0.
-423.845 -653.276 0.
-1107.66 -1611.4 0.
-4.68842 -17.1993 0.
6.17953 12.709 0.
-1.24516 -9.66484 0.
-2.02897 -8.27007 0.
-1.2298 -11.4843 0.
-61.644 -108.889 0.
-2369.97 -4388.16 0.
-2.92189 -5.96181 0.
-244.198 -617.609 0.
-0.0908612 -1.92596 0.
0.0582291 0.287987 0.
0.338127 0.907971 0.
-96.362 -128.878 0.
-204.044 -249.117 0.
-1596.33 -3150.33 0.
0.00583787 0.0721673 0.
-2503.97 -4444.82 0.
-0.0515109 -0.0296888 0.
-0.0121061 -0.00680356 0.
-2884.76 -6801.76 0.
-21.9921 -14.1345 0.
-17.7317 -9.30755 0.
-2447.23 -5250.21 0.
-287.741 -309.119 0.
-14.1351 -21.5601 0.
-1667.22 -3749.39 0.
-769.075 -1630.05 0.
-1071.84 -2291.25 0.
-664.092 -1425.01 0.
-285.436 -529.675 0.
-822.304 -1655.58 0.
-609.422 -1230.93 0.
-407.94 -794.872 0.
-629.893 -1078.85 0.
-507.874 -822.164 0.
-380.782 -570.547 0.
-746.609 -1272.16 0.
-733.168 -1253.88 0.
-512.416 -713.318 0.
-506.829 -706.84 0.
-501.452 -700.151 0.
-511.072 -745.028 0.
-517.953 -759.742 0.
-525.271 -774.019 0.
-485.263 -835.442 0.
-506.667 -878.525 0.
-528.327 -921.353 0.
-70.408 -44.914 0.
-63.0284 -35.3294 0.
-3545.55 -2355.12 0.
0.00693788 0.203856 0.
0.00652176 0.30969 0.
-545.814 -930.556 0.
-520.324 -879.745 0.
-494.902 -828.867 0.
-542.275 -784.579 0.
-544.133 -790.854 0.
-547.7 -795.42 0.
-529.167 -718.433 0.
-523.88 -701.839 0.
-519.055 -684.784 0.
-717.575 -1258.91 0.
-769.074 -1343.41 0.
-359.83 -592.909 0.
-512.799 -910.758 0.
-663.535 -1230.84 0.
-342.389 -685.751 0.
-630.437 -1369.75 0.
-939.148 -2033.08 0.
-263.785 -365.141 0.
-731.266 -1491.64 0.
-1256.18 -2560.7 0.
-721.68 -1362.27 0.
-1931.77 -4312.19 0.
-21.2424 -38.767 0.
-18.4504 -33.1673 0.
-2919.58 -6570.22 0.
-3.72675 -5.03009 0.
-13.3221 -29.9913 0.
-2769.08 -3310.3 0.
-33.2391 -53.1674 0.
-3585.4 -7073.24 0.
-47.5523 -92.4496 0.
-32.9422 -45.9073 0.
-2645.89 -5553.61 0.
-479.602 -359.552 0.
-1050.36 -1422.25 0.
-29.8826 -43.3827 0.
-83.5803 -105.106 0.
-32.6758 -45.7364 0.
-144.586 -176.08 0.
-1976.28 -3219.7 0.
0.0769211 12.3338 0.
-1.07376 -11.7049 0.
-1866.8 -3091.61 0.
-4.41347 -18.6493 0.
-664.306 -1230.13 0.
2.01409 21.7226 0.
-3026.65 -4120.94 0.
-476.138 -606.718 0.
-5.33944 -25.3978 0.
-2747.76 -4970.23 0.
-5.49205 -22.5663 0.
-2714.25 -4496.2 0.
5.64683 10.8404 0.
-107.201 -193.146 0.
-0.637623 -10.3266 0.
2.49005 4.90502 0.
-357.934 -940.232 0.
-0.0678187 -3.08984 0.
-2623.78 -4173.63 0.
-7.60378 -15.4939 0.
-2167.06 -4656.71 0.
-0.0340856 -1.34306 0.
-15.1769 -40.8599 0.
-16.5677 -32.9988 0.
-325.679 -263.062 0.
-23.595 -26.8905 0.
-13.5998 -22.4234 0.
-27.9668 -41.9328 0.
-24.242 -33.4351 0.
-19.7446 -25.5914 0.
-9.34407 -10.6577 0.
-8.38563 -12.4019 0.
-24.1171 -33.0635 0.
-584.629 -1168.09 0.
-36.8562 -46.0202 0.
-503.851 -969.747 0.
-107.305 -91.0585 0.
-31.1752 -35.752 0.
-498.642 -1045.28 0.
-314.702 -591.373 0.
-161.745 -106.483 0.
-482.965 -885.519 0.
-365.139 -624.569 0.
-261.517 -360.665 0.
-637.44 -1163.06 0.
-615.572 -1153.22 0.
-434.744 -640.755 0.
-429.293 -634.142 0.
-423.928 -627.443 0.
-415.577 -659.882 0.
-423.059 -674 0.
-431.166 -687.493 0.
-393.078 -788.13 0.
-414.373 -831.325 0.
-435.857 -874.332 0.
-82.9648 -53.6933 0.
-75.9639 -44.2453 0.
-2357.35 -1841.39 0.
0.0054617 0.165896 0.
0.006503 0.128008 0.
-455.733 -877.062 0.
-430.228 -826.262 0.
-404.884 -775.3 0.
-437.253 -689.096 0.
-438.191 -696.293 0.
-440.203 -702.416 0.
-438.802 -624.797 0.
-433.364 -608.35 0.
-428.368 -591.46 0.
-580.807 -1121.55 0.
-636.045 -1202.32 0.
-201.122 -284.922 0.
-324.858 -630.962 0.
-463.301 -963.455 0.
-32.7971 -25.952 0.
-282.51 -502.764 0.
-542.773 -1215.16 0.
-20.3554 -33.8156 0.
-12.779 -23.9472 0.
-461.158 -681.829 0.
-42.7128 -46.0957 0.
-562.91 -781.4 0.
-20.7665 -37.5529 0.
-16.9325 -30.0353 0.
-24.118 -32.8561 0.
-3.82412 -7.33219 0.
-13.1504 -33.3101 0.
-30.6711 -68.3433 0.
-26.3299 -48.0396 0.
-30.3733 -55.5948 0.
-40.6328 -72.7975 0.
-22.8182 -31.2766 0.
-25.3686 -33.1119 0.
-111.071 -100.124 0.
-914.632 -1461.07 0.
-2460.76 -5313.53 0.
-50.807 -73.4227 0.
-14.4155 -20.9864 0.
-175.793 -330.642 0.
-567.634 -958.248 0.
0.0178625 7.10424 0.
-0.805369 -5.74139 0.
1.18448 2.48974 0.
10.957 29.8464 0.
-1038.21 -1701.16 0.
-17.591 -66.8772 0.
-1162.88 -1731.3 0.
66.7524 106.788 0.
-23.593 -85.6584 0.
-12.8447 -59.8162 0.
0.681039 16.3803 0.
6.73945 13.3323 0.
-1.25181 -29.0665 0.
-84.1358 -154.859 0.
0.0308173 0.0691201 0.
-1.01241 -5.01867 0.
-0.257269 -3.02036 0.
-1365.96 -3119.86 0.
-0.632387 -1.29884 0.
0.0454226 0.089017 0.
0.519979 1.27773 0.
-0.0039221 -1.72884 0.
-52.1842 -106.574 0.
-151.31 -116.66 0.
-609.635 -419.569 0.
-64.8642 -71.9376 0.
-47.3148 -75.6105 0.
-34.4731 -65.5799 0.
-32.5324 -52.485 0.
-28.9747 -42.7023 0.
-20.471 -26.9105 0.
-18.3487 -24.891 0.
-51.4058 -46.8614 0.
-26.074 -35.8323 0.
-46.7345 -52.1568 0.
-66.7048 -76.7738 0.
-58.181 -61.2075 0.
-49.9555 -45.9884 0.
-236.745 -373.213 0.
-33.9806 -31.5424 0.
-53.8931 -49.9366 0.
-351.29 -676.93 0.
-246.994 -402.384 0.
-178.213 -207.823 0.
-537.094 -1045.15 0.
-516.334 -1034.19 0.
-355.04 -570.225 0.
-351.521 -561.682 0.
-347.019 -554.122 0.
-322.271 -572.547 0.
-331.049 -585.375 0.
-340.294 -597.734 0.
-303.022 -738.689 0.
-324.464 -781.74 0.
-345.945 -824.752 0.
-126.708 -85.674 0.
-109.141 -56.2055 0.
-1672.95 -1546.5 0.
-25.386 -55.7491 0.
-49.318 -107.365 0.
-366.597 -822.624 0.
-341.154 -771.755 0.
-315.597 -721.002 0.
-340.937 -584.907 0.
-340.583 -593.397 0.
-340.533 -601.585 0.
-348.988 -530.611 0.
-343.191 -514.518 0.
-336.151 -499.667 0.
-455.517 -972.701 0.
-508.689 -1055.56 0.
-65.8336 -77.4682 0.
-200.243 -287.84 0.
-317.511 -641.624 0.
-50.4663 -31.8636 0.
-47.2677 -33.8235 0.
-235.729 -307.908 0.
-36.3999 -39.3295 0.
-21.1379 -33.3667 0.
-24.91 -38.9785 0.
-43.3103 -46.637 0.
-36.2424 -45.6603 0.
-35.9983 -47.2376 0.
-21.3697 -33.0097 0.
-24.2357 -32.4312 0.
-8.79489 -19.4537 0.
-15.007 -35.9244 0.
-32.3824 -70.368 0.
-20.5829 -43.223 0.
-23.9085 -49.7231 0.
-31.8735 -54.674 0.
-26.1139 -37.3312 0.
-30.7355 -50.5133 0.
-80.6732 -69.6784 0.
-151.921 -262.944 0.
-185.147 -411.186 0.
-63.0633 -150.346 0.
-27.2739 -70.8861 0.
-228.241 -292.835 0.
-0.648077 -14.6817 0.
-1534.2 -3790.65 0.
-0.662364 -3.40122 0.
-2027.4 -4237.1 0.
-3.29328 -8.63386 0.
-617.013 -1350.68 0.
15.1435 23.2648 0.
100.181 166.085 0.
-50.1111 -80.1188 0.
11.3518 17.0064 0.
-1126.64 -2054.76 0.
21.4583 49.2223 0.
6.03194 11.4272 0.
-0.863636 -8.88222 0.
-62.0193 -111.505 0.
3.43536 7.31114 0.
-1.19498 -5.34854 0.
-1197.01 -2575.98 0.
1.39765 3.55502 0.
2.06891 2.88858 0.
2.12549 4.02351 0.
-0.0581204 -2.22495 0.
-1699.59 -3722.08 0.
-1233.67 -1137.47 0.
-1.09516 -1.21 0.
-73.3995 -133.95 0.
-3377.33 -6968.93 0.
-65.9557 -166.946 0.
-2296.24 -3940.58 0.
-27.1181 -62.8372 0.
-16.1658 -38.9436 0.
-2541.15 -5673.18 0.
-41.8463 -59.386 0.
-54.2577 -81.5802 0.
-2258.7 -5373.86 0.
-275.701 -302.044 0.
-1600.37 -3322.29 0.
-738.351 -1361.74 0.
-43.1853 -34.8268 0.
-1111.71 -2616.58 0.
-615.209 -1442.96 0.
-156.842 -231.205 0.
-772.521 -1836.35 0.
-533.593 -1254.72 0.
-313.516 -654.236 0.
-718.506 -1733.42 0.
-645.811 -1587.03 0.
-478.739 -1128.12 0.
-446.55 -1052.48 0.
-415.015 -976.185 0.
-418.692 -1006.71 0.
-424.087 -1020.22 0.
-431.254 -1031.96 0.
-408.636 -1104.21 0.
-368.06 -1000.42 0.
-327.804 -896.305 0.
-285.514 -437.74 0.
-316.679 -525.212 0.
-1040.07 -1670.85 0.
-207.91 -567.438 0.
-178.102 -464.748 0.
-344.601 -866.023 0.
-381.902 -981.594 0.
-421.484 -1094.88 0.
-422.649 -1011.42 0.
-419.037 -1008.29 0.
-417.456 -1003.12 0.
-403.317 -956.26 0.
-452.236 -1072.71 0.
-503.418 -1186.89 0.
-652.145 -1576.63 0.
-764.926 -1816.17 0.
-280.288 -513.799 0.
-573.883 -1360.31 0.
-901.808 -2172.5 0.
-23.7259 -37.5137 0.
-663.153 -1505.16 0.
-1329.45 -3088.56 0.
-9.93898 -8.88823 0.
-706.598 -1192.07 0.
-1818.12 -3762.55 0.
-25.1294 -38.995 0.
-2457.44 -5317.37 0.
-67.7377 -80.4151 0.
-38.4493 -57.4202 0.
-2783.53 -6447.56 0.
-25.1308 -49.359 0.
-30.392 -50.4561 0.
-2751.31 -4331.59 0.
-12.9668 -35.8587 0.
-2185.61 -3631.26 0.
-26.1673 -54.0193 0.
-2146.65 -4595.28 0.
-76.8064 -46.9253 0.
-69.9939 -40.7894 0.
-0.0316399 -0.434764 0.
-31.2854 -83.8739 0.
-7.22665 -18.0449 0.
-2562.43 -5322.41 0.
-413.176 -470.517 0.
-0.233129 -24.9838 0.
-1.48761 -18.7262 0.
-0.0794205 -4.14839 0.
14.0371 36.7437 0.
19.2456 39.9535 0.
24.6094 53.4901 0.
45.9414 81.1536 0.
-106.225 -174.256 0.
-74.4743 -148.967 0.
-28.5119 -39.6947 0.
26.561 55.0825 0.
-3.21054 -25.1144 0.
-1824.8 -3365.84 0.
-3.35987 -23.0902 0.
-2007.01 -3533.8 0.
-1548.7 -3088.46 0.
-0.0110975 -13.1932 0.
-12.9824 -25.8861 0.
-18.2524 -47.9323 0.
0.0587559 3.10713 0.
-2063.68 -4122.76 0.
-0.0655984 -1.64201 0.
-436.914 -1176.35 0.
-0.00733709 -0.495183 0.
-0.155333 -0.378799 0.
0.411931 0.921986 0.
-39.9071 -98.4426 0.
0.210152 0.00708127 0.
-34.026 -91.9374 0.
-14.9522 -37.9245 0.
-7.13722 -19.3967 0.
-45.9603 -50.4703 0.
-49.1598 -53.7008 0.
-54.6958 -70.1405 0.
-39.2094 -52.6067 0.
-34.7871 -38.2929 0.
-322.172 -382.959 0.
-45.8058 -36.446 0.
-37.7241 -30.9343 0.
-524.76 -1182.7 0.
-58.1024 -39.8611 0.
-51.869 -33.2916 0.
-501.883 -1258.47 0.
-287.38 -652.054 0.
-69.6298 -68.0581 0.
-566.13 -1429.02 0.
-501.354 -1274.66 0.
-366.931 -961.445 0.
-332.765 -887.766 0.
-304.074 -808.612 0.
-354.022 -900.786 0.
-358.311 -915.401 0.
-363.816 -928.802 0.
-374.615 -1031.1 0.
-336.495 -924.846 0.
-298.584 -818.38 0.
-369.249 -594.302 0.
-402.062 -680.111 0.
-531.35 -1397.21 0.
-268.973 -740.368 0.
-237.534 -639.327 0.
-308.675 -784.528 0.
-346.368 -899.72 0.
-386.07 -1012.9 0.
-330.258 -893.458 0.
-329.012 -887.956 0.
-329.13 -881.091 0.
-294.069 -734.024 0.
-335.425 -858.058 0.
-384.697 -974.177 0.
-470.152 -1157.76 0.
-566.749 -1413.59 0.
-60.5585 -63.9269 0.
-287.466 -534.087 0.
-580.028 -1382.29 0.
-31.0944 -40.6013 0.
-22.4759 -20.4513 0.
-530.26 -1100.72 0.
-57.3402 -27.723 0.
-6.801 -8.40382 0.
-81.6813 -55.452 0.
-24.0419 -37.5477 0.
-35.2191 -48.6074 0.
-53.6032 -75.3302 0.
-32.5295 -54.8561 0.
-47.4718 -70.7226 0.
-30.6314 -50.057 0.
-25.6672 -37.6989 0.
-21.2241 -27.0983 0.
-4.61519 -10.2962 0.
-11.8664 -29.6354 0.
-15.4427 -33.5054 0.
-113.195 -267.348 0.
-54.1661 -81.7758 0.
-1879.81 -3764.84 0.
-1029.21 -2225.95 0.
-45.616 -123.327 0.
-0.668069 -1.57762 0.
0.034046 2.43434 0.
-635.124 -951.4 0.
0.000442033 7.25803 0.
7.33626 16.4575 0.
-1.71182 -42.2906 0.
-1.27574 -31.1678 0.
-111.562 -209.565 0.
-1236.68 -2581.27 0.
4.20977 7.03895 0.
-11.7097 -85.5687 0.
-2.45774 -16.8986 0.
-732.764 -988.672 0.
-1000.38 -1984.37 0.
-5.38777 -35.6937 0.
-4.51486 -65.7444 0.
-3.66304 -38.0818 0.
18.4376 42.5218 0.
1.99725 3.83488 0.
-0.757708 -22.852 0.
3.16347 6.20652 0.
-100.819 -268.297 0.
-598.083 -1473.66 0.
-1.42094 -6.8672 0.
-0.350441 -7.85108 0.
-52.597 -145.133 0.
-0.000375689 -1.76231 0.
-0.103477 -0.431272 0.
0.704305 1.71942 0.
-0.00776553 -0.163871 0.
-154.863 -400.363 0.
-2090.62 -4219.77 0.
-12.7469 -33.2908 0.
-11.1867 -29.7006 0.
-2295.05 -5369.38 0.
-58.653 -82.7823 0.
-78.659 -127.24 0.
-2289.89 -5129.49 0.
-28.7208 -25.0334 0.
-1755.11 -3656.22 0.
-507.613 -724.484 0.
-36.0713 -23.4508 0.
-1383.05 -3265.39 0.
-559.06 -1259.66 0.
-40.4657 -46.0277 0.
-904.107 -2253.1 0.
-498.973 -1263.76 0.
-125.329 -242.925 0.
-708.922 -1706.95 0.
-546.692 -1369.59 0.
-432.421 -1083.59 0.
-350.935 -919.219 0.
-277.395 -746.897 0.
-328.234 -840.785 0.
-283.548 -734.244 0.
-241.507 -625.058 0.
-270.986 -733.208 0.
-237.061 -628.581 0.
-203.049 -524.041 0.
-288.996 -377.216 0.
-261.429 -290.72 0.
-757.275 -968.271 0.
-149.128 -325.56 0.
-171.577 -401.205 0.
-206.332 -483.926 0.
-252.771 -634.175 0.
-301.104 -782.529 0.
-235.066 -644.875 0.
-283.804 -769.085 0.
-337.874 -887.964 0.
-290.852 -737.608 0.
-389.357 -978.21 0.
-500 -1206.67 0.
-569.997 -1409.83 0.
-802.45 -1943.31 0.
-104.822 -84.725 0.
-569.302 -1372.75 0.
-1070.78 -2623.78 0.
-27.2663 -19.4014 0.
-538.885 -1181.18 0.
-1687.87 -4030.59 0.
-106.843 -61.3631 0.
-394.066 -242.014 0.
-1887.13 -3626.32 0.
-6.82904 -12.2886 0.
-2465.87 -5728.04 0.
-202.495 -288.039 0.
-13.8931 -23.6605 0.
-1980.39 -2632.14 0.
-25.7034 -41.0487 0.
-2519.47 -6327.12 0.
-19.1891 -50.8911 0.
-2.74696 -5.65281 0.
-13.6203 -36.2287 0.
-6.58174 -15.7124 0.
-44.1303 -113.553 0.
-3.70055 -4.18766 0.
-31.6542 -26.1569 0.
-132.051 -305.468 0.
-338.081 -888.111 0.
1.77929 3.98235 0.
-0.444401 -8.72627 0.
6.68706 16.0975 0.
-0.0283471 -7.38484 0.
-2169.94 -4835.63 0.
-1.21357 -19.5809 0.
-1478.48 -3583.39 0.
5.76246 13.0087 0.
-38.4236 -76.1053 0.
84.596 133.329 0.
62.1712 155.427 0.
-0.419798 -7.30514 0.
94.6247 155.255 0.
54.6082 108.633 0.
18.4869 36.8945 0.
21.0558 49.3621 0.
12.1405 26.2385 0.
18.7249 42.8481 0.
11.6813 21.9718 0.
11.397 29.2812 0.
-1330.83 -2743.65 0.
7.3939 18.3921 0.
-282.621 -711.238 0.
-1.27178 -6.69674 0.
-0.321863 -6.6006 0.
-74.2357 -199.35 0.
-0.00984599 -2.16393 0.
-1950.5 -3712.31 0.
-0.0838245 -2.15384 0.
-1700.74 -4088.59 0.
-0.451067 -1.00274 0.
-43.5712 -90.2568 0.
-12.1465 -29.0665 0.
-10.4558 -25.9826 0.
-16.0792 -38.5813 0.
-19.4044 -47.3789 0.
-28.8514 -63.8566 0.
-60.5618 -77.1249 0.
-30.5487 -21.4145 0.
-24.1428 -15.5981 0.
-24.666 -11.7744 0.
-34.125 -22.7644 0.
-413.745 -862.047 0.
-45.7072 -42.107 0.
-38.391 -45.1654 0.
-481.547 -1233.54 0.
-109.444 -210.113 0.
-15.41 -16.5282 0.
-450.656 -1105.43 0.
-306.503 -749.769 0.
-308.467 -806.319 0.
-235.044 -633.829 0.
-167.543 -455.418 0.
-262.573 -701.454 0.
-218.095 -594.691 0.
-176.571 -484.974 0.
-250.132 -682.062 0.
-216.54 -577.097 0.
-184.053 -471.026 0.
-295.842 -493.243 0.
-266.799 -408.232 0.
-322.695 -676.985 0.
-180.289 -419.811 0.
-203.425 -494.765 0.
-170.006 -421.445 0.
-221.038 -567.114 0.
-271.394 -713.457 0.
-161.53 -444.462 0.
-208.073 -570.893 0.
-257.479 -694.461 0.
-145.782 -343.298 0.
-236.853 -591.429 0.
-335.859 -831.623 0.
-278.609 -651.553 0.
-491.047 -1205.46 0.
-33.7125 -14.946 0.
-28.733 -12.8499 0.
-521.422 -1245.02 0.
-9.06605 -10.7665 0.
-10.5961 -19.2285 0.
-379.445 -796.76 0.
-56.2246 -42.6084 0.
-25.3803 -25.3549 0.
-13.7166 -19.568 0.
-0.965107 -2.37746 0.
-7.84453 -13.4146 0.
-10.8442 -17.7672 0.
-9.58077 -15.4342 0.
-35.2686 -51.2707 0.
-17.7205 -38.6859 0.
-61.0255 -127.554 0.
-10.5664 -26.4619 0.
-13.505 -37.1179 0.
-1980.23 -4190.85 0.
-64.4798 -178.322 0.
-140.2 -381.378 0.
0.496949 0.61786 0.
-1.19615 -0.888239 0.
-4.13522 -10.3655 0.
-1114.58 -2714.57 0.
0.675619 1.43973 0.
2.37846 5.59225 0.
-1.72812 -4.21245 0.
-0.0684982 -3.78563 0.
-1.089 -46.4875 0.
-0.436976 -21.4258 0.
29.9019 63.512 0.
18.3261 40.9984 0.
-985.589 -2180.75 0.
-1306.49 -1977.42 0.
51.5055 135.377 0.
47.8054 117.183 0.
-45.2335 -79.5039 0.
-678.322 -1364.51 0.
38.7725 84.9833 0.
-1494.76 -3427.72 0.
-0.546553 -1.13706 0.
-1250.27 -2862.31 0.
11.0073 20.3033 0.
-825.619 -2126.14 0.
-0.19648 -11.9776 0.
-0.282463 -4.34302 0.
-407.722 -1016.72 0.
-0.0385122 -18.3029 0.
0.108934 2.01164 0.
-1415.56 -3019.53 0.
0.00105289 0.387641 0.
-0.168081 -1.08591 0.
0.00199345 0.0353505 0.
-79.1052 -217.372 0.
-0.0163094 -0.0370194 0.
-0.162673 -0.716025 0.
-13.0446 -28.6248 0.
-12.646 -27.3767 0.
-10.1088 -27.1213 0.
-11.8028 -32.1081 0.
-14.7299 -40.6607 0.
-67.4287 -74.6021 0.
-35.5057 -25.6061 0.
-29.2027 -19.7355 0.
-28.1156 -17.3775 0.
-33.895 -23.5219 0.
-50.4056 -49.2371 0.
-45.9249 -43.6517 0.
-37.8076 -44.2415 0.
-104.95 -168.007 0.
-16.3888 -15.2848 0.
-17.2171 -18.8988 0.
-217.521 -478.773 0.
-113.025 -198.681 0.
-198.705 -514.852 0.
-130.762 -336.831 0.
-88.8057 -221.885 0.
-208.433 -550.601 0.
-166.012 -441.768 0.
-124.733 -331.791 0.
-239.896 -620.299 0.
-205.278 -516.354 0.
-170.23 -412.839 0.
-304.594 -607.365 0.
-275.757 -522.156 0.
-312.026 -679.395 0.
-230.137 -495.374 0.
-254.463 -569.133 0.
-163.617 -374.954 0.
-204.588 -484.768 0.
-254.191 -631.877 0.
-97.3106 -260.397 0.
-137.057 -367.986 0.
-184.845 -493.196 0.
-37.2233 -38.7841 0.
-95.4531 -196.198 0.
-186.849 -441.441 0.
-40.3633 -16.8464 0.
-215.251 -432.014 0.
-39.4459 -16.8888 0.
-35.2384 -14.8247 0.
-36.0668 -19.1118 0.
-1.86434 -4.21555 0.
-4.70284 -11.8165 0.
-20.1454 -33.2229 0.
-88.5128 -54.8112 0.
-33.0261 -26.5509 0.
-26.234 -23.264 0.
-0.393879 -1.06592 0.
-0.673317 -1.81091 0.
-15.0418 -25.4722 0.
-13.6795 -22.9083 0.
-41.3326 -53.0594 0.
-14.0182 -38.2119 0.
-42.821 -72.5583 0.
-30.7441 -16.2005 0.
-29.7041 -31.9303 0.
-0.0253392 -0.663408 0.
-29.249 -77.6749 0.
-1573.74 -3286.63 0.
-1744.91 -2825.43 0.
-0.0468509 -0.881949 0.
-8.18151 -21.2833 0.
-243.053 -595.326 0.
-0.716299 -30.3121 0.
-3.52429 -8.02427 0.
1.91486 4.71678 0.
10.7078 27.5073 0.
1.24359 3.23508 0.
5.41542 13.9302 0.
-3.56764 -7.64818 0.
-12.5708 -27.9388 0.
6.17487 13.6751 0.
-16.2223 -26.8749 0.
7.29599 19.4275 0.
22.6537 50.6774 0.
106.455 201.362 0.
32.8219 70.6206 0.
6.44616 13.7096 0.
-7.35103 -88.5209 0.
11.6785 29.468 0.
-2.76509 -48.7734 0.
0.031512 0.852119 0.
-425.216 -963.901 0.
12.2648 32.7114 0.
-145.818 -367.866 0.
-854.175 -2102.91 0.
-0.000112515 -2.45696 0.
-1483.88 -3252.75 0.
-0.258274 -15.8004 0.
-0.0155061 -6.1038 0.
0.28783 1.65479 0.
-0.142134 -1.96275 0.
-34.6453 -95.7682 0.
-1257.38 -2676.29 0.
-18.2141 -48.597 0.
-2272.07 -3818.88 0.
-14.9892 -41.0722 0.
-1719.52 -3472.88 0.
-23.0175 -63.0528 0.
0.224235 0.124315 0.
-2123.9 -5285.24 0.
-32.8317 -20.356 0.
-1948.49 -3439.2 0.
-137.995 -140.881 0.
-37.4149 -59.1566 0.
-1912.98 -4724.33 0.
-217.658 -345.794 0.
-43.6774 -57.3418 0.
-1206.53 -3081.21 0.
-480.81 -1224.58 0.
-42.6412 -69.2696 0.
-861.765 -2199.52 0.
-499.688 -1289.45 0.
-585.089 -1529.8 0.
-415.857 -1120.76 0.
-256.283 -702.062 0.
-440.815 -1191.46 0.
-346.761 -946.096 0.
-256.08 -697.357 0.
-382.116 -1024.73 0.
-312.099 -817.132 0.
-248.502 -603.118 0.
-382.194 -820.759 0.
-345.494 -722.618 0.
-308.409 -737.725 0.
-307.161 -705.825 0.
-344.573 -807.699 0.
-233.88 -549.033 0.
-323.238 -833.806 0.
-418.998 -1112.18 0.
-248.161 -652.911 0.
-367.049 -975.489 0.
-490.411 -1293.59 0.
-248.672 -632.312 0.
-451.561 -1165.94 0.
-667.479 -1686.53 0.
-525.737 -1293.44 0.
-1001.36 -2519.77 0.
-24.8602 -30.2953 0.
-448.157 -996.315 0.
-1453.22 -3549.78 0.
-53.3161 -34.5903 0.
-13.1036 -8.19308 0.
-2155.09 -5374.85 0.
-40.3309 -27.0138 0.
-47.6883 -30.3534 0.
-2087.87 -3243.47 0.
-34.9815 -23.206 0.
-2303.48 -5661.53 0.
-11.9276 -11.4785 0.
-12.1037 -13.4676 0.
-1882.39 -3439.56 0.
-24.1893 -19.089 0.
-1647.32 -3510.44 0.
-22.4046 -12.7892 0.
-51.8241 -39.6749 0.
0.226475 0.563232 0.
-12.6758 -33.9635 0.
-0.0774518 -6.40106 0.
-0.996193 -5.17774 0.
-735.96 -1717.13 0.
-19.8899 -52.7012 0.
-148.477 -365.623 0.
-8.75125 -21.9588 0.
-1077.24 -2434.39 0.
-1477.6 -3682.98 0.
-0.331088 -0.823553 0.
-1.43808 -46.6614 0.
-1.11441 -24.1443 0.
-2141.13 -4585.58 0.
43.822 94.523 0.
-1143.9 -2481.68 0.
-1022.99 -1767.04 0.
-21.4049 -56.6646 0.
-9.96898 -19.3918 0.
-34.3402 -144.52 0.
-82.375 -174.474 0.
27.416 56.9132 0.
8.7673 20.5728 0.
16.815 41.9293 0.
-2.97498 -50.9741 0.
11.9154 30.0603 0.
-724.4 -1634.78 0.
-0.451677 -27.4787 0.
-635.214 -1653.02 0.
2.9215 7.57724 0.
-0.021385 -23.2656 0.
-315.307 -748.79 0.
-0.0641581 -8.75202 0.
0.0108179 3.3386 0.
0.0560057 1.29788 0.
-1813.96 -4205.48 0.
6.96544e-05 0.618341 0.
-54.6452 -146.06 0.
-14.2809 -39.481 0.
-23.6658 -65.2913 0.
-7.98638 -21.9572 0.
-39.3563 -72.7087 0.
0.460236 0.0503853 0.
0.031932 0.339743 0.
-55.6779 -65.0216 0.
-38.4081 -20.9495 0.
-27.7174 -26.3484 0.
-30.965 -32.5367 0.
-32.4469 -44.0551 0.
-60.3821 -81.8032 0.
-29.0888 -53.2453 0.
-53.9562 -75.5049 0.
-428.743 -1023.64 0.
-42.5508 -61.742 0.
-44.586 -70.2322 0.
-500.746 -1279.08 0.
-153.873 -352.958 0.
-372.094 -996.749 0.
-214.01 -576.339 0.
-78.5408 -192.063 0.
-353.003 -958.672 0.
-261.322 -710.878 0.
-171.293 -461.432 0.
-349.845 -948.313 0.
-279.633 -740.899 0.
-224.526 -548.659 0.
-386.671 -775.182 0.
-349.945 -677.067 0.
-280.012 -644.575 0.
-311.681 -655.533 0.
-351.92 -754.583 0.
-196.987 -473.909 0.
-275.045 -730.16 0.
-373.087 -1006.28 0.
-140.865 -331.508 0.
-251.767 -642.557 0.
-370.13 -965.763 0.
-27.5005 -37.0575 0.
-187.841 -446.552 0.
-391.368 -979.913 0.
-77.8818 -89.7443 0.
-543.018 -1328.02 0.
-28.8227 -32.0876 0.
-24.9652 -25.098 0.
-322.246 -657.313 0.
-49.4478 -29.2745 0.
-25.2166 -14.1359 0.
-29.8709 -22.8825 0.
-196.859 -116.122 0.
-43.4501 -29.5157 0.
-122.962 -93.2594 0.
-31.9048 -28.6818 0.
-44.5575 -57.2212 0.
-5.89029 -4.74286 0.
-5.40873 -4.77992 0.
-6.22842 -6.5168 0.
-4.28141 -1.5535 0.
-38.3609 -54.1504 0.
0.433719 0.833775 0.
-2010.52 -4664.85 0.
0.645847 1.39283 0.
-12.4177 -32.9369 0.
-0.138275 -11.1783 0.
1.85265 3.81733 0.
-404.606 -997.108 0.
0.0796506 3.46448 0.
-337.996 -834.446 0.
-44.1077 -111.902 0.
5.43763 13.6969 0.
-0.775716 -28.4035 0.
5.46347 13.2376 0.
-1615.31 -4144.49 0.
22.3615 54.2242 0.
-10.852 -27.0019 0.
45.723 96.9126 0.
26.4954 58.8661 0.
71.4467 132.695 0.
-28.8698 -67.4644 0.
-46.7921 -79.9239 0.
40.6279 71.6879 0.
-253.57 -530.86 0.
-3.77419 -7.81018 0.
-1103.03 -2604.9 0.
28.9775 71.4784 0.
0.112944 0.274203 0.
6.84912 17.1306 0.
-1029.1 -2312.01 0.
11.8771 31.6322 0.
-5.5074 -15.2438 0.
-8.50569 -22.8121 0.
-5.25107 -14.3116 0.
-10.9012 -26.7917 0.
0.00513471 1.22339 0.
-0.00698048 -1.85401 0.
-0.00473869 -0.616315 0.
0.637697 1.60556 0.
0.00976831 4.48081 0.
-117.97 -313.235 0.
-11.5325 -31.4575 0.
-21.3467 -56.6692 0.
-5.55551 -9.28793 0.
-22.974 -33.3606 0.
-1087.33 -2411.54 0.
-15.3524 -25.778 0.
-1585.25 -3828 0.
-36.2775 -29.4573 0.
-1735.1 -3127.36 0.
-29.0191 -26.0092 0.
-24.9625 -13.8541 0.
-1911.28 -4925.56 0.
-28.3765 -43.7861 0.
-43.3874 -72.6874 0.
-1459.8 -3542.09 0.
-299.697 -651.166 0.
-28.1774 -36.1532 0.
-1028.12 -2606.39 0.
-452.485 -1121.73 0.
-671.524 -1697.89 0.
-403.331 -1040.32 0.
-147.558 -370.323 0.
-494.699 -1275.92 0.
-327.24 -850.182 0.
-165.094 -419.128 0.
-368.307 -962.549 0.
-272.029 -705.143 0.
-182.308 -441.18 0.
-383.095 -700.407 0.
-344.171 -592.97 0.
-402.308 -526.5 0.
-298.048 -576.812 0.
-343.518 -701.078 0.
-154.35 -349.788 0.
-274.55 -711.716 0.
-406.285 -1062.11 0.
-139.36 -305.402 0.
-364.199 -908.687 0.
-596.524 -1504.49 0.
-132.745 -280.609 0.
-440.048 -1053.61 0.
-758.816 -1815.14 0.
-432.945 -1018.59 0.
-1193.85 -2984.11 0.
-19.7886 -7.59068 0.
-83.778 -149.404 0.
-1672.99 -4203.58 0.
-74.5882 -83.9987 0.
-23.5713 -13.1469 0.
-1653.41 -3787.49 0.
-98.6439 -106.878 0.
-1699.23 -2895.32 0.
-326.856 -845.383 0.
-30.8476 -34.8908 0.
-1067.25 -2600.33 0.
-61.4913 -99.1626 0.
-0.277173 -0.233708 0.
-0.857273 -0.891849 0.
-24.8825 -9.97696 0.
-58.283 -42.2091 0.
0.036518 0.328129 0.
-20.384 -56.0459 0.
-0.281304 -3.04098 0.
-1755.38 -2769.86 0.
0.0905454 5.98288 0.
-0.475069 -3.70511 0.
-414.806 -1039.1 0.
4.34039 11.7414 0.
-976.789 -2406.39 0.
-112.483 -288.153 0.
1.32328 3.36055 0.
21.1219 54.0888 0.
-0.480113 -27.1896 0.
-0.867488 -50.9811 0.
4.97308 11.545 0.
16.0455 39.2794 0.
-8.38825 -17.5463 0.
-21.2403 -46.9747 0.
119.927 219.532 0.
0.0805158 7.51566 0.
12.7427 31.9886 0.
-72.2908 -264.579 0.
-625.816 -1304.93 0.
38.2011 79.8614 0.
5.84137 14.5369 0.
30.235 73.8853 0.
-1213.17 -2934.04 0.
5.57374 13.8359 0.
9.18053 24.8707 0.
15.8946 41.4278 0.
-5.03749 -13.8121 0.
-172.402 -469.503 0.
-659.565 -1803.23 0.
2.21944 6.02667 0.
-0.0829131 -26.6582 0.
-1342.59 -3023.78 0.
3.1914 8.63737 0.
1.65438 4.35968 0.
0.028159 5.28997 0.
-211.14 -579.139 0.
-396.734 -609.137 0.
-1730.4 -3539.18 0.
0.0109264 0.0251362 0.
-900.984 -2155.64 0.
-28.0813 -67.7606 0.
-0.252564 -0.68333 0.
-29.3324 -33.8482 0.
-9.20572 -9.21106 0.
-33.6191 -38.1459 0.
-29.4269 -24.5813 0.
-27.233 -14.0814 0.
-22.0469 -19.3447 0.
-29.1747 -36.3873 0.
-41.9961 -66.6192 0.
-153.612 -273.188 0.
-17.6076 -29.0593 0.
-15.0468 -22.9844 0.
-498.906 -1260.51 0.
-29.5876 -32.5221 0.
-370.063 -948.951 0.
-115.03 -277.714 0.
-15.0855 -39.4906 0.
-339.336 -898.462 0.
-177.898 -466.535 0.
-46.6521 -115.52 0.
-298.276 -763.469 0.
-201.732 -506.28 0.
-118.595 -272.414 0.
-332.595 -549.515 0.
-309.451 -487.538 0.
-134.063 -319.404 0.
-250.886 -473.776 0.
-273.345 -534.069 0.
-92.9485 -210.822 0.
-179.894 -443.478 0.
-309.556 -796.039 0.
-1.81415 -4.70529 0.
-161.37 -381.04 0.
-385.934 -984.915 0.
-26.5515 -29.5933 0.
-30.9369 -49.7589 0.
-356.391 -805.399 0.
-28.0716 -17.0106 0.
-485.384 -1190.72 0.
-22.5132 -8.34868 0.
-27.6999 -10.9463 0.
-103.53 -186.398 0.
-27.5486 -17.245 0.
-13.6034 -10.568 0.
-19.8628 -11.5844 0.
-16.6158 -8.10395 0.
-298.341 -743.9 0.
-22.3726 -32.0838 0.
-13.9599 -23.807 0.
-51.7307 -114.921 0.
-3.28534 -9.08772 0.
-2301.93 -5418.27 0.
-8.72725 -19.1443 0.
-49.3108 -74.0643 0.
-1455.57 -1762.77 0.
-0.164648 -1.87847 0.
-0.252129 -0.697663 0.
0.168248 2.09015 0.
-2.82919 -9.3512 0.
-1185.51 -2529.65 0.
-0.557864 -38.8966 0.
-345.256 -872.883 0.
0.445669 1.20984 0.
-16.9329 -43.6642 0.
-549.764 -1420.82 0.
5.31922 13.6003 0.
-2.6945 -6.80125 0.
1.86881 4.93707 0.
-8.7593 -22.922 0.
-5.72404 -71.2422 0.
-463.05 -1121.35 0.
-10.2793 -23.3778 0.
65.5373 144.405 0.
53.717 97.5429 0.
26.786 71.5285 0.
3.74762 9.18803 0.
-1862.25 -2859.33 0.
-17.2862 -104.624 0.
4.73157 9.98168 0.
31.2775 76.9542 0.
2.25649 5.54743 0.
16.949 45.2179 0.
5.09102 13.1988 0.
-1.0156 -58.8708 0.
16.0022 41.3001 0.
3.99673 10.7774 0.
-345.516 -948.675 0.
-0.00678362 -27.6619 0.
2.12279 5.77178 0.
1.17959 3.08743 0.
-0.0110011 -3.82645 0.
-0.236757 -19.4694 0.
-0.0613713 -5.26876 0.
-1499.49 -3595.87 0.
-877.251 -1294.09 0.
-0.173539 -0.523216 0.
0.0329798 0.122455 0.
0.0239518 0.336048 0.
-0.000581817 -0.351728 0.
0.0751096 0.201368 0.
-0.000152404 -0.187627 0.
-16.0552 -22.3828 0.
-10.6575 -9.04933 0.
-4.29689 -1.74799 0.
-34.328 -18.1022 0.
-38.9491 -14.7268 0.
-19.138 -16.14 0.
-24.7422 -35.342 0.
-41.0563 -59.8466 0.
-19.1186 -44.7074 0.
-10.3959 -18.9774 0.
-9.08554 -14.5512 0.
-25.6118 -19.499 0.
-31.5051 -33.5073 0.
-78.1467 -190.468 0.
-16.922 -44.7676 0.
-18.6737 -47.6935 0.
-192.703 -512.271 0.
-55.4641 -136.446 0.
-15.0588 -38.6961 0.
-247.395 -590.863 0.
-170.588 -384.894 0.
-95.1786 -181.83 0.
-330.7 -524.625 0.
-312.798 -479.65 0.
-38.4758 -106.35 0.
-255.936 -482.753 0.
-263.89 -500.678 0.
-68.199 -93.9123 0.
-131.46 -264.241 0.
-243.209 -564.891 0.
-9.56112 -9.17746 0.
-32.475 -28.2369 0.
-190.268 -450.42 0.
-35.5757 -28.1906 0.
-23.2974 -18.6382 0.
-26.1775 -18.8692 0.
-31.1707 -18.3623 0.
-28.8104 -13.1033 0.
-32.8233 -11.854 0.
-32.2421 -11.8633 0.
-56.4687 -39.4978 0.
-17.4274 -13.7595 0.
-12.5732 -10.2666 0.
-13.3841 -9.80203 0.
-19.3851 -7.98093 0.
-28.891 -16.2135 0.
-24.0708 -42.2162 0.
-2.88873 -7.99648 0.
-37.5567 -50.6 0.
-1.80095 -4.68769 0.
-9.93994 -26.514 0.
0.077282 1.20097 0.
1.64657 2.94847 0.
-0.0130063 -4.76812 0.
-1944.07 -4314.5 0.
-1.21812 -13.5661 0.
-1.21801 -15.8925 0.
-0.0539173 -2.94309 0.
-505.051 -1139.36 0.
0.31299 0.847987 0.
-404.983 -1028.66 0.
1.33927 3.64501 0.
-73.218 -190.497 0.
-136.543 -360.83 0.
-178.159 -459.687 0.
-1325.15 -3298.41 0.
-1.18179 -51.9877 0.
23.1321 59.6363 0.
12.3928 28.9879 0.
-559.552 -1359.68 0.
26.5526 60.0588 0.
8.5978 18.6098 0.
60.1387 109.359 0.
22.7103 59.6396 0.
-29.9654 -72.1006 0.
-62.5627 -122.979 0.
32.7604 64.2798 0.
14.5794 33.5269 0.
44.1813 107.806 0.
5.9509 14.7548 0.
-1.30639 -62.8399 0.
19.0678 49.2898 0.
-0.150093 -0.391847 0.
4.0621 10.4049 0.
-651.535 -1730.62 0.
25.0476 68.5284 0.
-0.117888 -36.0419 0.
2.55774 6.96338 0.
-1109.41 -2898.92 0.
-0.0261043 -16.601 0.
-0.0031371 -0.211144 0.
-0.354101 -25.2653 0.
-45.7432 -121.836 0.
0.862074 1.58256 0.
1.11443 4.69712 0.
0.0394315 0.170209 0.
-4.28722e-05 -0.00055364 0.
0.367105 0.816509 0.
-1432.99 -2646.51 0.
-0.208281 -0.567988 0.
-1589.04 -3468.1 0.
-22.9913 -18.9802 0.
0.405449 0.217486 0.
-2033.07 -4379.24 0.
-10.8779 -15.7257 0.
-1331.02 -3004.38 0.
-22.4158 -35.7501 0.
-24.5361 -25.5921 0.
-1533.74 -3897.43 0.
-15.9611 -28.0344 0.
-18.5465 -39.3982 0.
-1292.31 -3290.31 0.
-218.515 -475.603 0.
-852.356 -2099.81 0.
-430.082 -1056.17 0.
-43.5002 -110.097 0.
-685.444 -1819.45 0.
-385.75 -1033.81 0.
-97.7064 -240.352 0.
-506.604 -1314.62 0.
-353.402 -895.755 0.
-201.17 -475.92 0.
-468.364 -963.113 0.
-429.704 -852.233 0.
-249.231 -487.848 0.
-359.101 -824.757 0.
-432.816 -1032.17 0.
-163.694 -353.979 0.
-368.909 -941.29 0.
-580.49 -1522.23 0.
-22.0604 -22.105 0.
-399.331 -1037.81 0.
-793.66 -2072.76 0.
-15.6627 -8.29931 0.
-453.105 -959.447 0.
-999.1 -2255.15 0.
-75.7349 -112.776 0.
-1397.34 -3571.97 0.
-19.2605 -7.18411 0.
-0.468017 -0.173617 0.
-1765.05 -4424.13 0.
0.0772167 0.00910381 0.
-33.8194 -18.9149 0.
-1820.01 -3150.39 0.
-0.000404096 -0.273517 0.
-1829.98 -4304.03 0.
-39.0473 -33.3172 0.
0.235725 0.210623 0.
-1727.62 -2744.8 0.
0.132127 0.0959866 0.
-1382.95 -3687.04 0.
-0.0199917 -0.4562 0.
1.52706 3.06297 0.
0.0119655 2.25838 0.
1.52187 3.79925 0.
2.21862 5.3464 0.
-1773.77 -3991.59 0.
11.3608 30.6985 0.
-197.787 -464.894 0.
-5.21712 -14.1404 0.
-0.0257262 -32.4244 0.
-715.753 -1951.59 0.
-131.905 -345.781 0.
-166.626 -431.966 0.
22.3318 60.9757 0.
-16.2088 -42.0346 0.
11.3458 29.669 0.
-964.117 -2463.36 0.
7.91282 20.7257 0.
-7.5692 -118.776 0.
-11.5278 -25.9627 0.
-111.488 -241.25 0.
-6.71788 -99.0574 0.
-0.138868 -3.53244 0.
0.617328 18.9011 0.
18.006 33.9009 0.
-5.55187 -10.7104 0.
-5.38198 -12.3237 0.
-13.154 -31.9365 0.
17.4737 43.6731 0.
-14.5646 -38.067 0.
-4.39004 -11.3285 0.
9.82121 25.2201 0.
-132.095 -336.053 0.
18.5521 48.785 0.
-0.0229708 -20.8955 0.
7.6312 20.5389 0.
1.75608 4.78691 0.
-114.449 -307.166 0.
-0.0108925 -11.6128 0.
-963.657 -2497.38 0.
-3.27551 -8.78323 0.
-29.1537 -80.2745 0.
0.0154814 0.24582 0.
1.08071 5.53471 0.
2.80537 6.54595 0.
-1806.24 -4256.96 0.
-0.0409292 -4.74173 0.
0.63457 1.56278 0.
-5.29107e-05 -2.19096 0.
-58.7735 -99.9379 0.
-0.0629388 -0.0203846 0.
-0.0817945 -0.0251347 0.
0.141718 0.124454 0.
-16.3424 -13.3689 0.
-23.1109 -48.6005 0.
-15.6649 -30.6596 0.
-11.874 -16.8277 0.
-20.2348 -54.5767 0.
-19.8916 -52.9344 0.
-21.1769 -50.0678 0.
-381.049 -919.919 0.
-50.7322 -70.3674 0.
-349.675 -839.228 0.
-19.4302 -51.6738 0.
-20.8917 -57.7071 0.
-395.44 -1064.91 0.
-103.789 -270.638 0.
-20.1482 -44.6387 0.
-376.37 -960.267 0.
-231.928 -558.525 0.
-125.392 -259.534 0.
-392.765 -770.665 0.
-353.212 -655.494 0.
-70.934 -55.7407 0.
-265.218 -589.028 0.
-335.439 -783.613 0.
-63.7113 -82.4033 0.
-192.32 -456.901 0.
-400.077 -1041.94 0.
-10.375 -4.3492 0.
-10.7585 -3.88764 0.
-393.457 -1028.95 0.
-15.2135 -9.35547 0.
-21.8402 -16.5343 0.
-297.556 -565.309 0.
-18.6751 -13.0003 0.
-285.858 -606.494 0.
-21.6029 -8.4396 0.
-5.63335 -2.10663 0.
-0.323969 -0.119572 0.
-0.129174 -0.0269306 0.
-47.1738 -27.5875 0.
-103.287 -149.409 0.
0.141746 0.340141 0.
-0.431575 -1.11784 0.
-118.137 -86.7133 0.
-26.8815 -10.606 0.
-43.4382 -25.5478 0.
0.135968 1.79499 0.
-0.0185543 -0.0480475 0.
2.7645 6.3737 0.
-1861.4 -3552.77 0.
-0.0347371 -6.12891 0.
-0.286747 -10.8384 0.
4.2837 10.6979 0.
-75.8622 -177.118 0.
-17.4726 -44.6094 0.
-0.0363097 -22.4261 0.
16.2835 44.1259 0.
14.7163 40.7014 0.
-6.5576 -17.788 0.
-325.642 -858.899 0.
-265.309 -674.523 0.
-0.604909 -66.0439 0.
-4.83562 -12.3554 0.
-0.0532341 -31.6498 0.
-3.56403 -86.9062 0.
-2.32446 -85.6486 0.
0.905614 2.17249 0.
-4.7613 -10.6988 0.
-181.764 -394.34 0.
37.076 87.5582 0.
1.41688 18.2622 0.
28.4461 69.421 0.
35.4869 64.6402 0.
40.3314 77.005 0.
-9.89753 -108.845 0.
-482.529 -1167.98 0.
36.5601 92.0788 0.
-24.2733 -62.9351 0.
-5.21274 -13.4416 0.
-989.832 -2505.23 0.
-0.0199532 -21.4035 0.
-1.22635 -3.17473 0.
24.5561 64.3647 0.
-25.5353 -67.2077 0.
-207.022 -566.034 0.
-13.246 -35.0833 0.
3.20997 8.87613 0.
-14.2175 -36.524 0.
3.78885 10.1577 0.
-54.1717 -150.046 0.
-141.76 -392.645 0.
-1235.09 -2775.17 0.
-0.463149 -1.17153 0.
0.873613 2.19809 0.
-4.95117e-06 -5.87607 0.
-0.0751143 -3.07679 0.
-0.00206165 -3.53843 0.
-48.3348 -75.5321 0.
-0.405765 -0.193331 0.
-103.104 -284.623 0.
-1459.6 -3816.34 0.
-30.0665 -31.9811 0.
-1598.57 -2570.22 0.
-16.8025 -32.5784 0.
-10.374 -28.433 0.
-1520.59 -3928.56 0.
-24.043 -43.2084 0.
-7.31431 -12.5751 0.
-1313.59 -3390.15 0.
-33.5609 -41.4029 0.
-956.644 -2207.51 0.
-384.989 -859.235 0.
-1.13798 -1.7031 0.
-793.596 -2074.73 0.
-349.419 -919.404 0.
-17.9315 -36.7045 0.
-561.426 -1436.86 0.
-335.09 -846.615 0.
-115.413 -249.706 0.
-440.611 -988.129 0.
-387.482 -832.107 0.
-82.5137 -228.226 0.
-326.103 -786.042 0.
-455.942 -1126.35 0.
-62.6735 -91.3476 0.
-340.704 -882.274 0.
-635.249 -1661.95 0.
-7.72626 -6.46151 0.
-337.249 -847.276 0.
-939.905 -2419.36 0.
-23.3234 -16.1718 0.
-356.07 -701.65 0.
-1041.79 -2298.94 0.
-0.867129 -0.405647 0.
-1514.07 -3410.26 0.
-5.80986 -2.45652 0.
-9.54373 -4.01038 0.
-1710.39 -4420.7 0.
-44.0969 -19.2353 0.
-27.3652 -12.0004 0.
-1470.39 -2753.61 0.
-0.00245849 -0.047522 0.
-1222.88 -3140.88 0.
-230.913 -162.531 0.
-66.2511 -29.0301 0.
-77.7097 -44.0406 0.
1.64356 3.99487 0.
-0.00336932 -1.41053 0.
4.53934 11.2205 0.
-1.24628 -7.99372 0.
7.12136 19.3862 0.
-1034.34 -2615.68 0.
3.40647 8.72198 0.
15.0761 41.7027 0.
-15.7237 -40.1276 0.
19.0432 52.6201 0.
-1019.04 -2758.76 0.
-1.60653 -4.44421 0.
-46.4787 -124.874 0.
-8.50067 -22.3437 0.
-901.595 -2252.19 0.
28.2957 76.1475 0.
-56.6132 -142.701 0.
-0.293337 -84.4004 0.
18.5859 46.5463 0.
-2.73735 -93.07 0.
42.9291 102.873 0.
-4.66619 -10.4733 0.
-667.803 -1456.33 0.
-14.0118 -173.751 0.
0.0670567 0.438737 0.
-1.67859 -15.8678 0.
58.1877 103.083 0.
17.5466 33.2668 0.
-9.77316 -107.383 0.
-67.08 -162.986 0.
16.3737 41.5371 0.
-701.658 -1806.31 0.
26.9972 69.6186 0.
-1.51519 -68.3059 0.
5.60638 14.5674 0.
-14.7758 -37.7234 0.
-7.16028 -18.8376 0.
-1190.51 -3055.72 0.
2.22202 5.9676 0.
-1.06831 -43.3174 0.
-0.0138166 -24.1147 0.
-0.00779303 -22.5935 0.
2.19807 5.88949 0.
-105.421 -291.411 0.
-6.65564 -18.4349 0.
-116.202 -278.824 0.
-0.225463 -11.163 0.
-0.0766124 -4.04923 0.
-0.0124732 -5.84515 0.
-1449.29 -3223.45 0.
-0.0991176 -3.80498 0.
-1394.28 -2994.39 0.
0.0822171 0.205675 0.
-0.00363756 -0.0790416 0.
-32.1503 -37.2342 0.
-23.8001 -27.835 0.
0.0855253 0.214032 0.
0.0202834 0.0532577 0.
0.0110868 0.029865 0.
-35.611 -77.7169 0.
-9.65312 -17.7784 0.
-7.69029 -15.637 0.
-181.339 -341.226 0.
-27.2866 -41.3174 0.
-218.835 -478.313 0.
-8.3889 -19.1896 0.
-1.91356 -0.694174 0.
-354.358 -944.053 0.
-5.49886 -15.155 0.
-11.447 -29.9668 0.
-322.948 -839.405 0.
-117.786 -277.506 0.
-13.3459 -7.09932 0.
-260.195 -544.905 0.
-213.034 -427.769 0.
-52.3398 -54.0712 0.
-155.605 -347.96 0.
-252.268 -618.352 0.
-20.1888 -16.0302 0.
-62.1774 -125.145 0.
-313.554 -822.864 0.
-14.943 -10.093 0.
-17.5434 -16.0747 0.
-336.252 -851.429 0.
-8.60543 -9.57199 0.
-1.1259 -0.416094 0.
-140.404 -268.518 0.
-1.52567 -0.665613 0.
-2.78452 -1.23716 0.
-4.19615 -1.9525 0.
-2.60183 -1.17014 0.
-17.7936 -8.12446 0.
-5.84361 -2.44852 0.
0.0259961 0.0160943 0.
-2.81135 -2.67284 0.
0.148826 0.301339 0.
-117.441 -321.859 0.
-0.0152539 -0.0865423 0.
-1133.14 -1737.72 0.
-0.0285153 -0.664452 0.
-1452.25 -3277.89 0.
-0.000281737 -1.31687 0.
-0.0457838 -1.34791 0.
4.82638 10.5443 0.
-0.0751043 -20.8649 0.
-0.222585 -18.3303 0.
-0.467732 -17.3082 0.
-0.0142852 -12.7458 0.
-226.411 -578.565 0.
7.16408 19.8236 0.
11.1678 30.8348 0.
-207.483 -567.316 0.
-213.148 -566.875 0.
-5.64487 -14.8542 0.
27.9974 74.1372 0.
9.73518 25.5204 0.
-408.151 -1015.91 0.
14.0572 38.4382 0.
39.1288 97.4048 0.
-10.8794 -28.0561 0.
-336.044 -806.177 0.
-0.127562 -0.291133 0.
-751.997 -1651.15 0.
20.4851 46.8673 0.
2.37173 7.93993 0.
-1.43247 -6.54454 0.
62.3991 108.446 0.
71.6507 135.625 0.
-783.921 -1887.25 0.
-183.351 -447.751 0.
41.7743 109.183 0.
18.7094 48.8149 0.
15.1693 41.6446 0.
23.8191 62.6469 0.
-0.0887326 -0.231277 0.
-249.629 -630.331 0.
22.6896 59.9133 0.
19.6239 52.8305 0.
6.44143 17.3821 0.
14.434 37.3168 0.
-1164.64 -3088.42 0.
16.0596 44.3751 0.
12.8628 34.427 0.
-50.412 -131.971 0.
-1.06365 -2.94608 0.
-70.8683 -176.623 0.
0.798127 2.15452 0.
-982.201 -2325.87 0.
-0.013516 -2.66273 0.
1.68366 4.21492 0.
0.01537 1.01971 0.
0.239381 0.574306 0.
-0.00518352 -0.966171 0.
0.0208584 0.508513 0.
-22.6492 -28.3901 0.
-17.5642 -22.6655 0.
0.000261488 0.0226965 0.
-0.000507505 -0.158215 0.
-0.110084 -0.304334 0.
-24.443 -38.1096 0.
-15.3223 -16.8971 0.
-16.6392 -20.4044 0.
-25.0106 -35.7283 0.
-25.4756 -40.2191 0.
-23.2847 -54.2053 0.
-14.4518 -29.2352 0.
-7.08919 -4.13813 0.
-5.79539 -16.0385 0.
-5.58071 -15.1895 0.
-10.6131 -28.3637 0.
-138.402 -328.877 0.
-18.785 -24.9771 0.
-12.5085 -13.7717 0.
-168.747 -322.558 0.
-135.62 -237.115 0.
-28.0606 -32.1785 0.
-70.7171 -89.6287 0.
-130.436 -260.895 0.
-14.5579 -12.2549 0.
-14.3962 -10.9391 0.
-78.0405 -170.074 0.
-28.4351 -17.5332 0.
-28.4576 -21.0195 0.
-31.7591 -28.5821 0.
-14.6661 -12.1181 0.
-13.7731 -9.03505 0.
-42.8971 -63.1054 0.
-2.08828 -0.855324 0.
-3.60887 -1.49135 0.
-3.07826 -1.59353 0.
-1.41692 -0.696502 0.
-3.92573 -1.85308 0.
0.102959 0.193276 0.
0.110914 0.0452944 0.
0.00616889 0.0221495 0.
-6.38636 -14.7517 0.
-81.4575 -218.413 0.
1.56826 3.85563 0.
-0.0644244 -0.308399 0.
2.36975 6.38426 0.
-0.215067 -3.89574 0.
-0.1572 -10.2217 0.
-1261.03 -3170.25 0.
-0.0915415 -10.9708 0.
-0.00432763 -2.41148 0.
6.37868 17.2818 0.
-916.652 -2243.43 0.
12.6132 34.767 0.
-693.608 -1778.06 0.
-7.59129 -20.919 0.
2.81528 7.77317 0.
-838.168 -2293.48 0.
-358.692 -945.397 0.
-10.4466 -27.5256 0.
3.25544 8.6464 0.
-689.667 -1850.99 0.
-812.299 -2002.86 0.
-0.312302 -44.7831 0.
-181.377 -449.704 0.
30.0643 77.3872 0.
-319.159 -768.097 0.
-15.9974 -40.0636 0.
-195.837 -433.513 0.
67.4479 150.812 0.
-86.7436 -116.202 0.
28.9763 8.71709 0.
37.2121 64.2376 0.
48.5687 92.5004 0.
-175.509 -420.273 0.
-167.361 -411.339 0.
39.153 102.244 0.
28.3451 74.278 0.
16.7714 44.379 0.
11.5834 30.5116 0.
-8.53831 -22.3236 0.
-467.084 -1171.29 0.
-598.712 -1587.63 0.
-5.26191 -14.2063 0.
0.491782 1.33268 0.
-330.122 -845.375 0.
0.479639 1.32392 0.
-0.911705 -2.51352 0.
-0.533121 -35.045 0.
-29.0592 -76.1587 0.
-78.7781 -218.191 0.
1.8883 5.05461 0.
-531.649 -1336.38 0.
8.21804 22.5094 0.
7.5885 20.909 0.
0.00731144 0.225178 0.
2.02178 5.48284 0.
-1.87721e-05 -0.845396 0.
-1107.14 -2592.99 0.
-0.0267047 -1.538 0.
-1227.91 -2161.75 0.
-6.67214 -9.91184 0.
-1354.63 -2636.53 0.
-0.0203228 -0.0485945 0.
-0.543404 -1.48409 0.
-1454.16 -3784.92 0.
-47.1016 -66.8381 0.
-37.2935 -46.7885 0.
-1319.21 -3093.43 0.
-36.9603 -54.1194 0.
-1023.13 -2396.8 0.
-309.262 -687.859 0.
-26.8076 -50.9625 0.
-990.667 -2595.88 0.
-238.316 -613.108 0.
-11.3988 -31.3505 0.
-692.088 -1840.29 0.
-339.247 -897.374 0.
-27.2914 -42.289 0.
-507.471 -1280.21 0.
-428.809 -1085.67 0.
-48.8356 -81.9737 0.
-357.295 -912.892 0.
-580.329 -1522.96 0.
-30.9363 -34.7509 0.
-298.417 -757.176 0.
-807.375 -2090.01 0.
-12.8641 -6.9013 0.
-213.492 -497.748 0.
-1126.88 -2955.68 0.
0.0371332 0.125277 0.
-277.259 -495.533 0.
-1056.64 -2249.17 0.
-7.84066 -2.89533 0.
-1368.56 -3421.3 0.
-9.23169 -17.4695 0.
-0.004134 -0.00382326 0.
-1097.26 -2395.43 0.
0.0765767 0.1238 0.
-1707.75 -3803.74 0.
0.329661 0.840482 0.
-3.87207 -8.59554 0.
-1220.3 -2850.52 0.
-0.279168 -4.18903 0.
0.0819373 0.690534 0.
-0.0164267 -8.45171 0.
2.92577 7.56889 0.
5.47723 15.0997 0.
-34.1181 -89.5381 0.
9.27562 25.6203 0.
8.99052 24.846 0.
5.46873 14.8645 0.
-399.68 -995.126 0.
8.79775 24.1729 0.
-0.00156788 -40.1014 0.
-69.9918 -193.074 0.
-1.88335 -5.20029 0.
-3.3342 -9.0987 0.
-430.637 -1126.7 0.
-173.77 -458.359 0.
14.0811 37.5077 0.
28.0003 75.6507 0.
7.19206 18.7054 0.
-95.6502 -247.768 0.
-667.079 -1651.83 0.
24.1144 62.0827 0.
45.1125 109.238 0.
-21.1894 -52.9281 0.
-36.6978 -82.1088 0.
33.8444 73.5285 0.
7.08497 15.4312 0.
42.4492 2.7485 0.
-772.517 -1339.83 0.
91.8298 177.131 0.
-21.4916 -51.2871 0.
-189.603 -469.612 0.
4.13191 10.6752 0.
-2.14814 -99.9384 0.
21.6625 57.3077 0.
-5.53862 -14.6315 0.
-52.0766 -136.583 0.
-762.33 -1904.54 0.
-5.2412 -14.0195 0.
-1.31886 -3.57061 0.
19.0497 51.8153 0.
-610.16 -1550.4 0.
-3.37796 -9.33444 0.
5.57921 15.3408 0.
-3.15285 -8.48923 0.
8.55427 22.4268 0.
-377.586 -1045.67 0.
-98.0527 -271.06 0.
-250.488 -647.989 0.
-0.0238223 -18.8989 0.
6.36187 17.573 0.
0.381067 14.8959 0.
-1364.68 -3021.66 0.
-0.117071 -8.24418 0.
-83.0593 -214.833 0.
-0.000342151 -0.768994 0.
-1.94341 -3.19168 0.
-0.212382 -0.771573 0.
0.374129 0.699053 0.
0.215791 0.514474 0.
0.127971 0.342365 0.
-59.2019 -67.2823 0.
-42.3806 -47.6568 0.
-50.0411 -51.9129 0.
-52.7779 -92.0379 0.
-12.2185 -19.1919 0.
-70.5865 -89.6379 0.
-33.7293 -46.5117 0.
-34.6775 -50.5702 0.
-179.024 -460.684 0.
-17.7318 -39.2942 0.
-11.4701 -31.2906 0.
-279.077 -707.517 0.
-27.828 -47.1992 0.
-31.4235 -52.0802 0.
-235.71 -561.553 0.
-161.612 -362.314 0.
-18.8176 -28.9972 0.
-57.4162 -96.8815 0.
-230.471 -584.204 0.
-38.4831 -45.541 0.
-31.848 -25.465 0.
-188.775 -398.171 0.
-16.0665 -7.58096 0.
-13.685 -6.49416 0.
-176.817 -410.16 0.
-0.0746049 -0.0161041 0.
0.0699604 0.0525465 0.
0.107935 0.100159 0.
-0.642531 -0.270439 0.
-7.18051 -4.62456 0.
0.0410405 0.295503 0.
0.176885 0.277367 0.
0.18544 0.272452 0.
-0.271506 -0.413624 0.
-19.7465 -48.5352 0.
-0.0478986 -2.07021 0.
-0.000773657 -0.0403992 0.
-0.214858 -0.467566 0.
-0.084127 -4.55458 0.
-1160.25 -2875.35 0.
1.79592 4.67967 0.
-0.0844294 -5.11221 0.
4.65305 12.8856 0.
-5.01083 -13.5121 0.
-1.8221 -5.02105 0.
-1047 -2706.72 0.
-0.291763 -39.5256 0.
-0.00520103 -57.7456 0.
9.8769 26.9613 0.
13.0934 36.2561 0.
-1023.84 -2825.53 0.
-0.0668933 -52.0819 0.
-0.697464 -1.90558 0.
20.9607 56.5301 0.
-257.647 -680.808 0.
-1.00548 -65.3775 0.
18.1964 49.2769 0.
9.76785 25.4526 0.
-2.39663 -99.2545 0.
-510.735 -1269.7 0.
-834.916 -2113.13 0.
-34.6624 -84.1801 0.
33.7062 83.8872 0.
37.5081 85.0306 0.
30.3355 63.7579 0.
-22.9838 -59.7165 0.
-0.000264851 -29.819 0.
-16.3775 -40.4163 0.
29.7116 71.9254 0.
7.03343 16.7473 0.
-422.424 -1055.16 0.
37.1568 96.0593 0.
-155.116 -410.896 0.
0.0889381 0.235164 0.
-155.76 -413.076 0.
-214.928 -565.524 0.
13.3033 35.2376 0.
20.2383 54.2861 0.
-11.0623 -30.0286 0.
-10.208 -27.859 0.
-0.242966 -56.4184 0.
8.68814 24.0285 0.
4.18344 11.4686 0.
-4.52444 -12.1994 0.
-54.0173 -141.557 0.
3.72495 10.2355 0.
-80.0541 -221.235 0.
-369.623 -972.813 0.
10.2926 28.4907 0.
-773.471 -2052.12 0.
7.67025 21.196 0.
1.64524 3.98461 0.
-0.0287566 -5.89816 0.
-22.3077 -61.0962 0.
0.00365059 0.35046 0.
0.278737 0.506296 0.
0.370864 0.721914 0.
-0.0675354 -0.514428 0.
-1357.67 -3659.5 0.
0.341812 0.864793 0.
-914.407 -1504.08 0.
-58.7255 -31.97 0.
-120.885 -165.142 0.
-1182.5 -3043.31 0.
-23.4416 -39.303 0.
-950.838 -2026.31 0.
-237.617 -422.237 0.
-27.9808 -30.334 0.
-1036.55 -2806.19 0.
-97.1414 -235.883 0.
-11.9234 -31.504 0.
-831.463 -2154.23 0.
-287.091 -734.784 0.
-19.4297 -27.2084 0.
-550.166 -1437.74 0.
-475.168 -1263.22 0.
-2.2035 -6.10319 0.
-348.473 -934.215 0.
-689.782 -1853.18 0.
-35.3828 -31.9883 0.
-226.261 -542.094 0.
-942.172 -2450.61 0.
-12.6846 -6.91285 0.
-6.15393 -4.91208 0.
-986.549 -2451.11 0.
-52.6636 -77.1657 0.
-1254.02 -2675.92 0.
0.000404923 0.114214 0.
0.119094 9.85502e-05 0.
-1126.85 -2954.35 0.
0.154437 0.302832 0.
-4.57359 -11.5969 0.
-1067.06 -2567.93 0.
-133.419 -318.022 0.
-8.72805 -20.2286 0.
1.19007 3.1524 0.
-0.0105572 -2.00413 0.
-0.0654303 -1.10561 0.
3.44326 9.48204 0.
-0.202846 -0.534636 0.
-0.232032 -11.4322 0.
-807.466 -1753.14 0.
-380.936 -941.744 0.
-84.292 -230.566 0.
-0.0799178 -24.4341 0.
-0.21723 -31.879 0.
-0.330054 -43.9261 0.
-2.48117e-05 -52.9774 0.
-556.061 -1522.99 0.
-6.40606 -17.7349 0.
-16.7458 -46.277 0.
18.3612 50.7067 0.
10.0867 27.5913 0.
4.2175 11.39 0.
-588.259 -1557.18 0.
-13.2413 -35.4809 0.
8.37339 22.7262 0.
19.7365 51.5268 0.
-1.99434 -5.2496 0.
9.19296 23.7143 0.
57.0989 148.188 0.
-206.217 -502.081 0.
-20.1691 -49.9831 0.
-0.805432 -2.10699 0.
-16.6019 -33.6314 0.
18.7417 27.8208 0.
61.9523 94.3795 0.
-1.1296 -40.1947 0.
-8.51462 -131.215 0.
-9.4454 -134.165 0.
34.322 86.4746 0.
16.7902 43.4333 0.
-557.049 -1483.82 0.
-18.3181 -48.397 0.
-711.421 -1895.8 0.
-361.917 -955.358 0.
28.0803 74.603 0.
-1.04951 -84.4771 0.
-84.8751 -232.566 0.
-542.442 -1485.83 0.
-87.4609 -242.214 0.
5.85567 16.2049 0.
-0.145104 -34.1448 0.
20.006 54.0045 0.
-183.212 -479.698 0.
9.2489 24.7854 0.
-82.3028 -227.375 0.
-0.0767729 -26.1806 0.
-1.87945 -5.11932 0.
-3.11617 -8.35737 0.
11.4181 31.621 0.
-0.469181 -11.5815 0.
-0.0237651 -13.707 0.
-30.9286 -85.6431 0.
-12.0159 -28.4091 0.
-955.241 -1967.47 0.
-8.84936 -21.0951 0.
-2.87332 -7.79078 0.
-56.08 -152.998 0.
0.422909 1.08554 0.
0.436356 0.0615795 0.
0.0517218 0.168243 0.
-4.03335 -8.26204 0.
-13.3312 -18.3079 0.
-4.70577 -5.31144 0.
-38.9586 -54.102 0.
-34.4321 -43.1991 0.
-28.9376 -33.7317 0.
-158.879 -407.587 0.
-14.3994 -30.4321 0.
-15.015 -31.5428 0.
-91.591 -215.335 0.
-21.0397 -33.0058 0.
-19.9424 -30.0273 0.
-84.6724 -189.013 0.
-23.9239 -33.9164 0.
-13.7042 -25.9239 0.
-10.7778 -19.3885 0.
-69.6861 -156.498 0.
-25.6077 -19.198 0.
-13.1511 -6.94738 0.
-43.2932 -71.2847 0.
-11.8004 -6.70103 0.
-10.8447 -6.88996 0.
-11.4112 -7.7411 0.
-3.01339 -2.4304 0.
-171.158 -397.001 0.
0.000624949 0.151211 0.
0.180498 0.00170342 0.
0.105005 0.123594 0.
0.0404381 0.448938 0.
-0.00253134 -0.151064 0.
-13.7143 -37.3547 0.
-0.0143712 -0.322785 0.
-775.955 -1802.11 0.
-0.0373044 -1.50976 0.
-1183.09 -2628.69 0.
-0.1901 -11.5071 0.
-0.00131709 -11.0724 0.
-0.0637861 -7.92275 0.
-0.139974 -7.9994 0.
9.28074 20.9207 0.
-134.264 -343.927 0.
-2.85578 -7.61852 0.
-0.0806688 -17.4121 0.
-0.161616 -30.2101 0.
-3.55552 -9.44873 0.
-1.68203 -4.6586 0.
-8.8905 -24.5205 0.
-0.0194521 -61.5232 0.
-0.0890138 -0.246003 0.
-532.264 -1470.41 0.
-105.865 -289.931 0.
-209.674 -576.743 0.
-197.66 -537.923 0.
-31.7227 -85.2508 0.
26.4527 71.9521 0.
10.0968 26.4122 0.
-5.73067 -15.1525 0.
-3.29804 -109.347 0.
33.359 86.7912 0.
-565.159 -1379.27 0.
-73.5586 -181.428 0.
-2.95808 -105.66 0.
41.0099 92.6996 0.
54.9204 79.3903 0.
11.9973 17.3737 0.
0.516215 11.8744 0.
55.4574 132.067 0.
7.75875 18.4252 0.
23.7791 62.2628 0.
-6.82914 -17.6755 0.
-11.9651 -32.0743 0.
25.8845 68.3042 0.
-14.713 -40.3824 0.
-233.545 -635.846 0.
-3.58573 -9.8371 0.
-140.889 -380.02 0.
-222.258 -608.831 0.
17.0469 46.6882 0.
-84.9396 -235.229 0.
17.6313 48.8146 0.
4.64604 12.8584 0.
-58.1848 -157.263 0.
-480.134 -1256.1 0.
13.2222 35.6033 0.
-91.1074 -251.611 0.
1.87756 5.17254 0.
-6.72534 -18.3428 0.
-3.233e-06 -25.6931 0.
11.0076 30.4857 0.
-0.235162 -7.88491 0.
-633.037 -1526.64 0.
-707.151 -1418.94 0.
3.61822 9.19006 0.
-0.141677 -0.311317 0.
0.618074 1.54333 0.
-0.0168183 -3.03362 0.
-43.3339 -106.034 0.
0.396678 0.792624 0.
0.335872 0.594237 0.
0.0196588 0.0438152 0.
-0.0100447 -0.126526 0.
-10.8874 -12.0103 0.
-9.20747 -8.81134 0.
-7.26892 -5.58659 0.
-38.3513 -49.3158 0.
-32.9565 -39.6564 0.
-24.6114 -29.6943 0.
-25.3286 -30.2905 0.
-27.3033 -34.4504 0.
-23.8455 -39.8408 0.
-23.7912 -36.4262 0.
-22.34 -34.5613 0.
-21.0144 -31.0441 0.
-23.3918 -34.7665 0.
-19.0531 -23.7616 0.
-13.0527 -14.3546 0.
-16.3434 -15.9482 0.
-23.0075 -14.7813 0.
-11.4952 -6.23903 0.
-11.9153 -6.26792 0.
-15.204 -8.19131 0.
-15.8566 -8.99568 0.
-19.1109 -11.0227 0.
-11.2553 -5.73392 0.
-25.1487 -19.5716 0.
0.000202217 0.193687 0.
0.208116 0.0320162 0.
0.0693375 0.220058 0.
0.294821 0.20085 0.
-0.0450101 -0.6586 0.
-5.18182 -13.8895 0.
0.00241322 0.256087 0.
-0.102595 -1.04636 0.
3.05116 8.39794 0.
0.782986 1.94704 0.
-0.0151482 -5.23722 0.
-950.267 -2362.58 0.
13.0279 34.4218 0.
-0.201421 -11.911 0.
-0.0367479 -14.028 0.
-27.2399 -71.4444 0.
-0.65576 -47.4233 0.
17.0771 46.6007 0.
8.90072 24.3978 0.
-512.872 -1420.08 0.
19.2178 53.2151 0.
7.63136 21.039 0.
12.9969 35.8177 0.
-0.227428 -0.628572 0.
-10.8786 -30.0466 0.
-196.721 -539.403 0.
-190.659 -524.182 0.
-0.532089 -77.797 0.
-184.349 -502.875 0.
7.29068 19.8722 0.
-3.69261 -10.1387 0.
3.22022 8.54527 0.
-7.58618 -19.6397 0.
-12.0384 -31.3577 0.
-31.4772 -83.908 0.
-690.96 -1694.84 0.
-13.4176 -34.5554 0.
-6.43042 -14.0343 0.
20.0314 28.2157 0.
29.5249 40.7994 0.
-3.52101 -57.3948 0.
-5.17677 -12.1869 0.
58.0988 138.021 0.
50.7378 132.784 0.
-12.9436 -33.5161 0.
-23.5957 -64.0224 0.
-420.895 -1108.85 0.
8.40961 23.1046 0.
-139.479 -380.318 0.
-8.66613 -23.7814 0.
-337.84 -913.863 0.
-529.129 -1449.14 0.
-22.9796 -62.9174 0.
-109.303 -302.692 0.
-517.69 -1433.67 0.
12.3846 34.2907 0.
-231.997 -627.968 0.
-40.03 -110.553 0.
4.32644 11.6975 0.
-255.331 -704.819 0.
-0.81025 -2.24395 0.
-44.5845 -121.72 0.
3.74333 10.3684 0.
7.81765 21.6431 0.
1.29093 3.5362 0.
-63.3619 -163.024 0.
0.0029975 4.6818 0.
0.0754326 2.96864 0.
-0.0474816 -12.7339 0.
-0.0612507 -1.81054 0.
-66.1949 -149.775 0.
-835.952 -2141.65 0.
-17.061 -47.2208 0.
-921.091 -1677.33 0.
-1.6984 -2.62521 0.
-0.115561 -0.44108 0.
-1066.49 -2841.71 0.
-4.20063 -3.84952 0.
-7.95495 -10.2787 0.
-1294.85 -2732.67 0.
-24.137 -39.3912 0.
-852.59 -2193.16 0.
-37.1553 -57.4886 0.
-31.6968 -46.299 0.
-879.704 -2333.8 0.
-121.828 -289.226 0.
-25.9347 -45.9023 0.
-591.247 -1561.83 0.
-441.249 -1200.3 0.
-33.9291 -50.7383 0.
-208.272 -543.014 0.
-786.129 -2123.69 0.
-27.7403 -20.3335 0.
-37.0917 -51.6828 0.
-957.94 -2464.44 0.
-11.996 -4.62523 0.
-0.782214 -0.285488 0.
-1078.68 -2271.34 0.
0.233638 0.0358992 0.
-1062.59 -2594.04 0.
0.423795 0.139822 0.
0.647613 0.65137 0.
-1044.1 -2625.56 0.
0.27876 0.594767 0.
-5.34827 -10.0501 0.
-1082.05 -2339.13 0.
-0.00646086 -0.199938 0.
-824.554 -1913.85 0.
-0.000178567 -6.98882 0.
0.516848 1.36151 0.
-0.00339067 -24.1593 0.
0.488772 1.27421 0.
10.3976 27.8609 0.
-712.639 -1869.45 0.
4.55059 12.5777 0.
-85.5781 -227.997 0.
-7.00872 -18.8679 0.
-632.328 -1686.62 0.
19.3499 53.1245 0.
15.9344 44.0591 0.
-11.4553 -31.7143 0.
0.56254 1.55019 0.
-305.585 -846.19 0.
-14.0207 -38.7535 0.
9.59775 26.5378 0.
-188.552 -517.651 0.
-185.486 -509.721 0.
3.62648 9.89846 0.
-280.209 -772.298 0.
-459.036 -1253.24 0.
-7.19656 -19.7435 0.
-17.2971 -46.0176 0.
-12.8539 -35.17 0.
10.4878 27.3059 0.
-22.5441 -60.101 0.
-774.621 -1887.78 0.
-254.423 -649.372 0.
-10.8196 -22.7752 0.
32.5942 44.6972 0.
-22.2526 -29.3557 0.
21.1754 49.305 0.
-28.3362 -65.7735 0.
3.7494 9.62298 0.
6.87778 17.9898 0.
-713.633 -1849.03 0.
-12.1093 -32.846 0.
-514.699 -1352.99 0.
-63.2352 -173.878 0.
-210.986 -576.042 0.
31.3109 85.9495 0.
-560.895 -1521.6 0.
-0.291223 -79.7623 0.
-18.3874 -50.328 0.
-152.243 -421.593 0.
5.72882 15.8507 0.
-1.30968 -3.62721 0.
-395.233 -1071.32 0.
-15.1435 -41.8346 0.
-165.833 -449.922 0.
11.2262 30.7465 0.
19.3762 53.6524 0.
-525.51 -1435.92 0.
3.71451 10.2885 0.
-445.857 -1203.31 0.
10.5843 29.0335 0.
-51.6829 -137.559 0.
11.0028 30.441 0.
7.1062 18.7644 0.
8.77078 23.6863 0.
-961.552 -2176.5 0.
3.14737 8.14723 0.
-30.2433 -82.4054 0.
-0.00301095 -0.266658 0.
-0.0438601 -0.162243 0.
0.631937 1.22392 0.
0.027687 0.645577 0.
-19.7993 -52.4835 0.
-0.883487 -1.13051 0.
-4.43448 -7.63479 0.
-6.7915 -9.01318 0.
-5.2307 -5.74305 0.
-73.3971 -138.816 0.
-30.2068 -54.8774 0.
-24.5569 -41.6874 0.
-19.6086 -38.9711 0.
-16.9464 -33.6834 0.
-13.5916 -29.377 0.
-25.1751 -41.8313 0.
-27.3523 -39.4727 0.
-33.6686 -36.0694 0.
-33.6712 -37.4958 0.
-39.9948 -54.9686 0.
-24.5544 -10.5484 0.
-19.6837 -7.56539 0.
-30.2231 -24.0746 0.
0.254368 0.0926948 0.
-1.19845 -0.450393 0.
-9.40562 -3.39576 0.
-0.308456 -0.067205 0.
-0.620631 -0.153575 0.
0.62967 0.0287943 0.
0.0404406 0.0588816 0.
-0.132674 -0.322898 0.
-0.0647804 -0.83609 0.
-0.0113729 -0.0808456 0.
-0.000699558 -0.227068 0.
-0.050274 -5.59282 0.
0.158667 0.401768 0.
-0.0139923 -13.7104 0.
-932.173 -2382 0.
-0.00249686 -29.9886 0.
5.27117 14.052 0.
-1.74926 -4.73537 0.
-181.199 -481.475 0.
-2.3288 -6.44672 0.
-181.523 -493.892 0.
17.8635 48.2679 0.
4.7928 13.2272 0.
12.4237 34.1495 0.
-0.53025 -1.46467 0.
-460.037 -1273.19 0.
-0.862026 -2.3744 0.
-159.196 -440.871 0.
13.3357 36.8634 0.
-0.0243251 -64.7809 0.
11.4535 31.5495 0.
-141.86 -389.681 0.
-22.5577 -61.6682 0.
-0.148809 -83.3463 0.
-597.276 -1633.9 0.
21.3002 58.3821 0.
-889.049 -2369.96 0.
13.9083 38.0677 0.
45.7542 118.891 0.
3.56513 9.50438 0.
-43.2725 -104.815 0.
-174.266 -440.252 0.
-784.71 -1587 0.
-7.72592 -43.242 0.
-305.036 -383.38 0.
-10.6204 -104.867 0.
-204.095 -466.292 0.
3.64936 9.28104 0.
-389.163 -1017.45 0.
-11.0672 -28.675 0.
-301.972 -818.705 0.
-55.653 -145.894 0.
23.4426 63.4833 0.
-3.65701 -10.1235 0.
7.13189 19.5842 0.
-23.356 -64.3976 0.
11.2303 30.9097 0.
-15.381 -42.0874 0.
-233.251 -645.895 0.
-25.8921 -71.6352 0.
7.41382 20.5349 0.
-11.0164 -30.497 0.
17.4838 48.3132 0.
-497.844 -1354.7 0.
20.7171 57.0203 0.
-64.0078 -177.2 0.
8.92736 24.5683 0.
0.0169377 0.046627 0.
-312.323 -844.406 0.
6.73978 18.5064 0.
-410.636 -1113.13 0.
-5.76289 -15.8428 0.
-442.111 -1119.07 0.
9.80818 26.8151 0.
-0.560325 -10.5818 0.
-0.0102611 -1.17681 0.
-0.00056742 -3.18344 0.
-0.0377706 -2.06837 0.
-0.274556 -2.89158 0.
0.0796672 0.787844 0.
-61.9229 -147.65 0.
-557.378 -1482.32 0.
-23.9956 -57.5991 0.
-0.958203 -1.35786 0.
-832.377 -2225.42 0.
-0.0495279 -0.0450963 0.
-860.272 -1828.2 0.
-22.7134 -31.1546 0.
-26.6054 -42.8806 0.
-821.688 -2155.96 0.
-18.535 -33.2577 0.
-27.2223 -48.9786 0.
-534.91 -1438.67 0.
-380.228 -1030.85 0.
-58.3312 -104.384 0.
-115.993 -273.16 0.
-739.781 -1974.93 0.
-16.4501 -6.63606 0.
-15.1326 -5.80645 0.
-895.682 -2248.99 0.
-12.7384 -6.0903 0.
-4.53805 -2.0956 0.
-865.464 -1732.12 0.
0.0144798 0.0220627 0.
-743.872 -2016.01 0.
0.0031353 0.881508 0.
-259.617 -610.43 0.
-0.0587846 -0.264155 0.
-0.0506191 -1.02192 0.
0.0262896 0.268399 0.
-0.0836408 -8.22085 0.
-0.0059499 -4.27603 0.
-0.0513934 -2.54525 0.
5.80867 16.0794 0.
-11.1379 -29.7071 0.
10.3811 28.6405 0.
-336.178 -911.563 0.
-0.173675 -26.3962 0.
12.5978 34.7046 0.
-26.035 -72.0871 0.
-127.942 -351.426 0.
1.24713 3.38002 0.
18.3564 50.7182 0.
-458.177 -1263.87 0.
13.5774 37.4595 0.
14.2114 39.0587 0.
6.08334 16.7484 0.
-125.271 -346.946 0.
-0.430659 -1.19055 0.
-13.1472 -36.4033 0.
-14.2481 -39.3801 0.
-282.294 -775.076 0.
25.6361 70.8069 0.
-1.23141 -3.39846 0.
-0.0318008 -81.4969 0.
-449.56 -1231.38 0.
-410.093 -1094.56 0.
-7.28583 -19.9465 0.
-21.8995 -56.7243 0.
-25.7557 -68.6621 0.
36.9942 98.997 0.
23.81 58.4811 0.
29.4274 75.0141 0.
35.9701 68.3668 0.
-73.9486 -92.1691 0.
6.88714 15.822 0.
26.0739 66.7529 0.
-1.10032 -2.7704 0.
-180.629 -471.923 0.
35.469 94.7786 0.
-311.957 -845.338 0.
27.8867 76.1137 0.
-54.8153 -148.434 0.
-11.3275 -31.3543 0.
-639.936 -1758.07 0.
-181.99 -502.577 0.
-0.136078 -76.1662 0.
-15.7294 -43.509 0.
-285.521 -789.877 0.
5.80885 16.0818 0.
-70.9149 -196.412 0.
7.29616 20.1065 0.
0.864127 2.38851 0.
-86.4919 -238.931 0.
4.11297 11.3183 0.
-299.922 -830.1 0.
13.4471 36.9847 0.
-20.9964 -57.8907 0.
16.5226 45.6372 0.
-7.59834 -20.8783 0.
4.35222 12.0107 0.
-4.1902 -11.5612 0.
-286.15 -738.704 0.
9.89846 27.2173 0.
-0.294338 -0.757909 0.
-0.0250655 -10.2452 0.
-726.51 -1273.19 0.
-0.335711 -0.737654 0.
-0.00576338 -0.998017 0.
-947.691 -2247.66 0.
-0.0369142 -2.31068 0.
-23.95 -60.4851 0.
-6.54085 -16.9018 0.
0.00313022 0.0628579 0.
-15.032 -41.6118 0.
0.158754 0.200206 0.
-19.9882 -25.0261 0.
-11.4834 -13.1965 0.
-16.041 -24.5669 0.
-12.5185 -25.0607 0.
-9.80138 -20.7873 0.
-11.3226 -22.57 0.
-21.7961 -33.984 0.
-10.7707 -14.8087 0.
-28.3768 -27.3397 0.
-22.648 -18.2925 0.
-22.5595 -25.8633 0.
-11.6397 -4.53366 0.
-2.97489 -1.07524 0.
-32.3867 -29.9075 0.
-2.29869 -1.03606 0.
-0.46791 -0.256553 0.
-13.5204 -9.26851 0.
-0.148638 -0.275477 0.
0.238632 0.21746 0.
0.0124835 0.494409 0.
0.018911 0.830576 0.
-483.385 -1179.06 0.
-0.09771 -1.70571 0.
-950.837 -1925.76 0.
3.56187 9.86517 0.
-704.269 -1730.02 0.
11.0754 27.641 0.
-0.0136419 -6.86464 0.
11.6627 32.2374 0.
9.24709 25.5432 0.
-0.0113144 -21.352 0.
-431.857 -1170.05 0.
-2.01127 -5.53974 0.
-47.961 -132.815 0.
-122.591 -336.585 0.
-97.2751 -264.341 0.
18.9895 52.5138 0.
15.4865 42.4735 0.
-12.1031 -33.347 0.
17.0431 46.8715 0.
-23.7381 -65.3217 0.
-99.6011 -275.862 0.
-16.2818 -45.0965 0.
-16.1495 -44.7297 0.
-15.6586 -43.286 0.
-437.253 -1200.03 0.
-10.6237 -29.357 0.
-19.2528 -53.1653 0.
-20.7036 -57.3044 0.
-208.842 -571.283 0.
-12.5917 -34.5165 0.
-209.491 -573.612 0.
-40.9626 -112.469 0.
-57.3507 -154.815 0.
-17.0502 -45.6199 0.
24.893 65.266 0.
-0.154912 -34.8962 0.
1.81579 3.83726 0.
19.7548 48.5123 0.
-3.58156 -85.4729 0.
-15.976 -40.3749 0.
-102.305 -254.608 0.
15.7911 41.2257 0.
3.99363 10.6616 0.
-181.608 -491.833 0.
4.59148 12.5278 0.
-259.211 -701.87 0.
-44.0282 -121.852 0.
24.2712 66.6989 0.
-113.304 -313.784 0.
-175.224 -484.097 0.
-37.2417 -103.024 0.
-1.56429 -4.32753 0.
7.60801 21.0618 0.
-404.206 -1119.29 0.
-1.53447 -4.22825 0.
-71.4069 -197.426 0.
15.3283 42.3552 0.
-24.5411 -67.5212 0.
9.91614 27.2752 0.
2.81815 7.74525 0.
-349.93 -966.127 0.
-0.235683 -0.651657 0.
10.0221 27.5512 0.
14.777 40.8063 0.
-7.71933 -21.3434 0.
6.11893 16.8788 0.
14.2376 39.2386 0.
-0.287394 -28.5984 0.
-670.46 -1681.72 0.
0.0220856 8.22341 0.
-0.0179388 -0.22746 0.
3.57618 9.7648 0.
0.471967 1.22859 0.
0.000427897 0.623751 0.
-14.4217 -39.273 0.
-0.000612611 -0.147772 0.
0.0345822 0.318933 0.
-7.86395 -20.3468 0.
-0.0803275 -0.303082 0.
-12.1712 -9.37574 0.
-3.78505 -1.99194 0.
-13.2244 -16.4204 0.
-9.68097 -18.3182 0.
-6.56372 -14.1687 0.
-7.23186 -15.6156 0.
-22.3326 -28.4283 0.
-18.2572 -18.1359 0.
-20.0615 -16.666 0.
-14.1792 -5.55017 0.
-13.5227 -5.0074 0.
-9.1169 -3.48049 0.
-4.55255 -1.65303 0.
-16.9005 -7.63894 0.
-3.84703 -1.91698 0.
-6.36004 -3.70078 0.
-20.0847 -13.3731 0.
0.346027 0.478254 0.
0.218337 0.249988 0.
0.0858292 1.06098 0.
0.00112578 0.484682 0.
-0.0654755 -1.49075 0.
-0.0172324 -0.750788 0.
-0.166898 -2.10269 0.
0.0131135 4.39128 0.
1.03246 2.71422 0.
6.51952 18.0568 0.
-358.145 -965.477 0.
-0.00724422 -6.76716 0.
1.66124 4.59208 0.
14.8148 41.0091 0.
-418.766 -1139.23 0.
3.21447 8.85474 0.
-98.7426 -273.464 0.
-147.361 -404.422 0.
15.5167 42.945 0.
-2.44902 -6.77703 0.
-3.49697 -9.58932 0.
-11.7246 -32.2554 0.
0.655689 1.8043 0.
-85.721 -237.14 0.
-20.6949 -57.3193 0.
-20.5342 -56.8732 0.
-182.729 -506.108 0.
19.6482 54.3247 0.
9.33028 25.8401 0.
10.9232 30.1998 0.
-9.00831 -24.8878 0.
-396.312 -1097.08 0.
20.6428 56.391 0.
-0.355795 -88.9021 0.
-467.294 -1279.7 0.
-89.1066 -244.462 0.
-635.834 -1711.46 0.
0.076797 0.205432 0.
-1.25081 -3.23956 0.
37.8052 101.628 0.
18.1393 36.188 0.
-6.58744 -89.5138 0.
0.422753 1.04818 0.
21.0719 54.3872 0.
-5.62749 -14.7038 0.
5.11512 13.9422 0.
-1.76886 -108.184 0.
34.8287 96.4556 0.
-7.70341 -21.009 0.
26.1173 71.9568 0.
-145.66 -403.037 0.
10.2311 28.3252 0.
29.294 81.1306 0.
-42.2642 -117.059 0.
-196.223 -542.884 0.
-3.36566 -9.31179 0.
-37.6803 -104.308 0.
-174.034 -482.027 0.
-8.95027 -24.6603 0.
-115.912 -320.549 0.
18.5741 51.4455 0.
-77.23 -212.448 0.
-8.17098 -22.4711 0.
12.5166 34.3887 0.
-83.9867 -230.651 0.
1.53956 4.26008 0.
-287.354 -794.33 0.
-2.34904 -6.4906 0.
-121.586 -336.565 0.
16.2833 44.8337 0.
-305.24 -826.962 0.
9.79267 26.6819 0.
-0.457312 -23.3742 0.
9.32278 25.7921 0.
-0.109037 -1.74789 0.
-0.108363 -16.3465 0.
-498.113 -1204.32 0.
-0.0107177 -1.01785 0.
-689.527 -1558.24 0.
-39.6577 -99.9667 0.
-24.6581 -67.7194 0.
-663.117 -1701.01 0.
-4.28354 -11.4603 0.
-693.202 -1479.62 0.
-23.9085 -30.4938 0.
-25.2445 -36.8306 0.
-716.192 -1811.29 0.
-23.4116 -39.2887 0.
-32.1609 -54.8335 0.
-429.769 -1159.65 0.
-349.796 -957.333 0.
-67.7938 -155.261 0.
-64.8941 -150.23 0.
-622.948 -1605.63 0.
-33.1275 -36.1811 0.
-8.12012 -3.49997 0.
-745.669 -1931.59 0.
-0.165301 -0.0698636 0.
0.276117 0.159775 0.
-678.119 -1351.6 0.
-0.0177671 -0.0444302 0.
-726.539 -1905.4 0.
0.368473 1.0099 0.
-1.37968 -3.56739 0.
-516.334 -1164.04 0.
-281.09 -537.405 0.
1.093 2.71121 0.
0.0520812 7.5554 0.
1.58004 4.28429 0.
-0.00390607 -13.2993 0.
3.82145 10.3905 0.
-243.513 -663.632 0.
8.22908 22.7543 0.
3.80663 10.5404 0.
3.53894 9.73765 0.
11.9154 32.9634 0.
4.38316 12.104 0.
-155.916 -427.709 0.
9.80788 27.1489 0.
4.08959 11.3222 0.
-1.40101 -3.84123 0.
-242.135 -665.707 0.
-74.08 -203.96 0.
18.8381 52.0959 0.
9.75354 27.015 0.
-59.7533 -165.492 0.
-177.052 -490.226 0.
-116.231 -321.432 0.
-7.72043 -21.3638 0.
-152.765 -422.549 0.
6.50191 18.001 0.
-165.46 -457.762 0.
20.1648 55.8026 0.
-0.923107 -2.53474 0.
5.92431 16.3185 0.
-272.684 -750.004 0.
14.5977 40.1827 0.
-531.135 -1420.65 0.
10.9965 28.088 0.
-2.30105 -94.6885 0.
8.50023 15.8687 0.
41.6389 93.8621 0.
-6.17495 -108.499 0.
-422.448 -1074.58 0.
-19.2421 -53.1338 0.
6.69484 18.1852 0.
-126.222 -335.79 0.
3.01876 8.35946 0.
-387.257 -1055.64 0.
23.5527 64.8606 0.
-335.24 -927.315 0.
-18.1582 -50.2695 0.
-211.191 -584.915 0.
-50.0275 -138.56 0.
-148.844 -411.833 0.
-4.4496 -12.322 0.
-79.9865 -221.414 0.
0.0123232 0.0339955 0.
-11.4517 -31.5499 0.
-177.883 -490.817 0.
5.17446 14.3321 0.
-480.678 -1322.05 0.
6.24772 17.2635 0.
-64.8339 -178.08 0.
8.08287 22.1882 0.
-8.31307 -23.0151 0.
-9.26908 -25.6311 0.
10.1803 28.1434 0.
-262.265 -726.353 0.
-5.12527 -14.1439 0.
-308.9 -841.73 0.
2.0923 5.73263 0.
-1.54921 -4.2044 0.
11.7744 32.343 0.
-607.833 -1465.67 0.
-0.308991 -14.9909 0.
1.38179 3.5915 0.
-0.00372024 -8.85201 0.
-29.749 -73.7033 0.
0.0905142 0.246035 0.
0.505868 1.39074 0.
-21.3641 -58.6586 0.
-0.00239762 -0.377327 0.
-8.42939 -9.84629 0.
-5.70947 -7.06005 0.
-12.2871 -19.0159 0.
-27.2715 -55.8443 0.
-18.7009 -35.4749 0.
-15.3748 -26.9749 0.
-17.7526 -28.2083 0.
-15.9608 -23.4127 0.
-30.1187 -37.5074 0.
-23.4508 -23.3938 0.
-16.7729 -11.8982 0.
-41.8945 -44.6314 0.
-22.3472 -12.5207 0.
-5.30747 -2.12055 0.
0.0325345 0.0165398 0.
0.0212786 0.00618456 0.
-1.41911 -2.28515 0.
0.2548 0.696285 0.
-9.02437 -24.7539 0.
0.585652 1.61198 0.
0.331843 0.874428 0.
-0.00336065 -7.10392 0.
-0.289263 -3.89697 0.
-234.689 -450.436 0.
-466.362 -1240.36 0.
0.898622 2.46657 0.
-0.00816322 -13.7501 0.
3.76195 10.2811 0.
-155.47 -425.763 0.
17.7039 48.7412 0.
-0.00296608 -40.2148 0.
15.5307 42.7098 0.
-28.5183 -78.872 0.
4.17464 11.5243 0.
-267.879 -734.532 0.
-34.9428 -96.7362 0.
-3.00923 -8.25719 0.
11.0557 30.3068 0.
-3.29615 -9.03035 0.
-217.292 -598.551 0.
3.16948 8.76139 0.
4.54549 12.59 0.
-79.3436 -219.741 0.
8.09374 22.3963 0.
-448.417 -1240.36 0.
14.0647 38.9324 0.
26.061 72.1187 0.
24.0141 66.4634 0.
-295.461 -817.604 0.
-36.5151 -101.069 0.
5.05658 13.8966 0.
-18.3851 -50.6026 0.
-433.681 -1192.73 0.
13.0905 35.998 0.
9.1672 25.2612 0.
-346.68 -871.621 0.
-294.299 -746.542 0.
-1.60694 -56.4507 0.
-304.675 -650.172 0.
-6.75176 -105.083 0.
-270.148 -675.996 0.
6.49481 17.9009 0.
-15.61 -42.3111 0.
15.6131 43.0567 0.
-284.025 -786.397 0.
13.3996 37.0523 0.
-0.229807 -86.6445 0.
-66.4677 -183.295 0.
23.4217 64.8387 0.
-159.541 -441.876 0.
-45.4094 -125.767 0.
-30.1103 -83.3743 0.
-3.39485 -9.4029 0.
-300.893 -832.861 0.
-11.8419 -32.6334 0.
-61.9198 -170.575 0.
-10.6098 -29.0385 0.
6.22395 17.2363 0.
1.84306 5.10444 0.
-10.3292 -28.5641 0.
-246.008 -675.582 0.
16.5329 45.3682 0.
-25.8766 -71.5849 0.
-0.550185 -1.5204 0.
7.49753 20.7362 0.
-10.0586 -27.845 0.
-23.105 -63.7582 0.
-0.631606 -1.73518 0.
12.1368 33.3882 0.
-318.039 -880.29 0.
-0.0326244 -34.2308 0.
1.20973 3.01373 0.
9.44211 25.4399 0.
3.1646 8.5247 0.
-0.00448564 -5.75671 0.
0.264183 0.701097 0.
0.27869 0.76949 0.
0.659732 1.79483 0.
-367.912 -985.036 0.
-0.0276434 -0.797633 0.
-467.528 -1029.65 0.
-10.9496 -22.9575 0.
-5.05416 -10.533 0.
-525.114 -1389.12 0.
-19.2138 -41.947 0.
-26.8459 -59.5417 0.
-250.939 -678.394 0.
-342.758 -940.133 0.
-52.7624 -116.776 0.
-44.6763 -94.755 0.
-477.829 -1246.54 0.
-86.6219 -164.634 0.
-36.9886 -30.1438 0.
-375.777 -709.979 0.
0.0220028 0.0296045 0.
-582.314 -1596.1 0.
0.911964 1.76562 0.
-40.5175 -111.028 0.
-2.54581 -6.97434 0.
-0.00220241 -1.32416 0.
-0.0400852 -2.50784 0.
0.00689919 5.29932 0.
6.42332 16.3111 0.
11.9488 32.6457 0.
4.51392 12.368 0.
-3.86904 -10.6861 0.
10.3314 28.5692 0.
12.2326 33.87 0.
-128.032 -351.832 0.
12.9705 35.7515 0.
-10.7816 -29.6948 0.
4.13639 11.3698 0.
-296.661 -820.186 0.
9.55252 26.422 0.
-13.5452 -37.5142 0.
-41.0272 -113.594 0.
13.6265 37.3731 0.
-4.87609 -13.3643 0.
5.36283 14.6834 0.
-58.6522 -161.632 0.
19.8218 54.7678 0.
-83.3109 -230.017 0.
-331.318 -917.536 0.
-11.2345 -31.098 0.
0.342251 0.946866 0.
3.64463 10.0917 0.
-18.8536 -52.1921 0.
21.5212 59.5382 0.
12.461 34.5142 0.
-81.9873 -226.969 0.
31.9323 88.4008 0.
-144.055 -396.137 0.
8.37456 23.1638 0.
-464.543 -1276.52 0.
14.3515 39.3674 0.
-290.493 -718.039 0.
13.8543 35.1191 0.
31.0601 77.2906 0.
-6.54362 -77.4884 0.
9.94344 25.4971 0.
-2.67702 -7.15858 0.
38.5769 106.074 0.
-257.547 -696.774 0.
-0.672523 -1.85047 0.
-314.41 -870.399 0.
-16.8059 -46.4536 0.
-241.619 -664.729 0.
-60.3377 -166.565 0.
-65.4599 -181.207 0.
3.6017 9.97604 0.
-331.983 -919.457 0.
-0.0859865 -74.5104 0.
-15.3495 -42.5146 0.
20.9811 58.1075 0.
5.66917 15.6045 0.
-250.7 -690.518 0.
19.5398 53.4603 0.
-32.5612 -90.1435 0.
-64.0492 -177.336 0.
10.9694 30.3536 0.
-8.10784 -22.4317 0.
-13.0375 -35.765 0.
-8.43281 -22.8769 0.
-4.95119 -13.6723 0.
-56.8294 -157.236 0.
-11.0247 -30.5174 0.
-96.4807 -266.229 0.
3.2565 8.94591 0.
13.3815 36.917 0.
1.48627 4.11549 0.
-0.0785869 -31.5605 0.
-0.109278 -9.04085 0.
9.21004 25.0826 0.
-0.0432809 -21.9566 0.
-369.427 -970.637 0.
-0.0001592 -2.11773 0.
-593.024 -1264.13 0.
1.64836 4.51711 0.
0.530525 1.3917 0.
-0.00739675 -0.573538 0.
-22.2921 -44.2281 0.
-7.31954 -11.4667 0.
-11.5492 -19.8452 0.
-22.6619 -54.5076 0.
-14.2149 -34.0412 0.
-25.1602 -58.9932 0.
-15.4128 -34.6751 0.
-9.36252 -16.4675 0.
-21.1595 -30.7232 0.
-7.63791 -10.2271 0.
-6.8901 -8.52792 0.
-12.5018 -7.69162 0.
-6.85499 -4.66009 0.
-18.277 -11.218 0.
-0.220929 -0.273106 0.
-15.8084 -20.5552 0.
0.202232 1.85294 0.
0.000355928 0.0556047 0.
-406.465 -1034.7 0.
-0.224946 -3.62553 0.
-506.056 -1025.37 0.
-0.0437119 -1.65055 0.
8.13256 21.3186 0.
0.0347601 2.43874 0.
1.78145 4.9286 0.
-8.73717 -24.1296 0.
-234.142 -644.478 0.
-0.00867837 -24.9415 0.
-162.464 -447.489 0.
-11.4289 -31.5346 0.
-176.771 -487.392 0.
12.4413 34.1809 0.
9.42463 26.0876 0.
-8.05624 -22.2947 0.
10.4628 28.906 0.
-106.871 -295.925 0.
8.23147 22.5652 0.
-69.1086 -189.372 0.
-10.7453 -29.4022 0.
-8.22552 -22.5958 0.
-91.0878 -251.537 0.
17.7168 48.891 0.
-146.839 -406.626 0.
-0.0106919 -72.5667 0.
11.9659 33.1173 0.
-165.35 -457.944 0.
0.199228 0.548635 0.
-344.331 -952.214 0.
25.7785 71.402 0.
-147.773 -409.15 0.
20.8529 57.7416 0.
-247.202 -679.188 0.
-0.0772109 -95.0729 0.
-323.071 -886.506 0.
7.40713 20.1908 0.
-0.0323291 -79.8231 0.
-0.781649 -58.4743 0.
21.0525 57.1561 0.
-1.85401 -70.0008 0.
-1.48066 -108.341 0.
-11.8809 -31.3791 0.
-427.899 -1172.91 0.
21.5681 59.7024 0.
-75.0863 -207.964 0.
-7.667 -21.126 0.
-119.42 -329.949 0.
8.39633 23.249 0.
-273.73 -756.35 0.
-53.4725 -148.018 0.
14.2783 39.5484 0.
-217.36 -601.988 0.
-11.7758 -32.534 0.
-222.48 -616.1 0.
20.5742 56.7016 0.
9.44355 25.9588 0.
-9.66591 -26.5209 0.
9.02788 24.6907 0.
-210.831 -583.37 0.
14.6375 40.3719 0.
-3.93695 -10.8991 0.
16.7737 46.4319 0.
17.7674 48.0976 0.
-1.94045 -5.26024 0.
7.26672 20.0501 0.
-1.51699 -4.18908 0.
-17.6397 -48.8254 0.
-201.575 -556.211 0.
8.19259 22.5055 0.
-10.3974 -28.7783 0.
2.06694 5.72206 0.
4.14063 11.3521 0.
6.22598 16.6103 0.
-245.795 -654.878 0.
-0.0938213 -17.207 0.
-2.96985 -8.0639 0.
-0.0510947 -18.9669 0.
-0.217697 -6.1604 0.
2.867 7.92992 0.
-0.00506928 -0.437413 0.
-0.0110884 -1.57319 0.
0.017976 0.278129 0.
-14.8453 -17.928 0.
-19.8652 -27.9627 0.
-24.8279 -63.484 0.
-22.4889 -56.6651 0.
-27.9702 -68.8971 0.
-15.5349 -40.1537 0.
-11.5492 -24.7155 0.
-14.6438 -22.7567 0.
-2.97692 -5.84898 0.
-1.05399 -2.56818 0.
-9.27172 -6.42083 0.
-8.58104 -5.36819 0.
-7.75753 -4.40937 0.
-0.74347 -0.848974 0.
-1.98418 -2.36916 0.
-0.0279801 -0.346793 0.
1.39869 3.79201 0.
0.759794 2.07176 0.
0.0452476 1.79775 0.
3.54858 7.88429 0.
-0.158553 -15.5277 0.
-457.338 -1165.85 0.
-0.130632 -34.4886 0.
-59.3639 -164.396 0.
8.5273 23.5466 0.
-259.122 -713.133 0.
-0.294839 -0.816505 0.
-6.84212 -18.9075 0.
11.748 32.4433 0.
8.35733 23.0246 0.
-14.5025 -39.9202 0.
-0.00643012 -49.0306 0.
-0.0116195 -56.1132 0.
-3.07495 -8.49383 0.
-237.328 -657.212 0.
-7.93466 -21.7408 0.
0.0796535 0.217154 0.
-88.8524 -242.972 0.
17.8652 49.0081 0.
-15.6954 -43.3178 0.
-3.35646 -9.25963 0.
-10.8312 -29.7835 0.
-43.9642 -121.754 0.
19.9088 55.0806 0.
-403.989 -1118.98 0.
9.54014 26.3039 0.
-279.704 -772.971 0.
0.942878 2.61153 0.
5.2872 14.6261 0.
-121.31 -335.962 0.
-14.4868 -40.0272 0.
-157.316 -434.599 0.
-0.441441 -1.22215 0.
-364.254 -984.587 0.
10.6399 29.3537 0.
-8.4808 -22.4622 0.
-1.72494 -69.3063 0.
31.0194 77.8787 0.
9.90289 26.2062 0.
-105.447 -291.574 0.
-8.96472 -24.8188 0.
-9.15726 -25.3139 0.
-296.226 -820.49 0.
29.7241 82.1083 0.
-246.241 -679.996 0.
17.9043 49.5486 0.
-232.942 -644.175 0.
-4.53819 -12.5534 0.
-14.3454 -39.7332 0.
16.9493 46.598 0.
0.398786 1.10205 0.
-64.0823 -177.387 0.
25.3134 69.7313 0.
-136.984 -375.998 0.
-8.77519 -23.7375 0.
-16.3039 -44.5736 0.
-54.5743 -149.559 0.
13.1708 36.3314 0.
-269.622 -745.164 0.
-18.5878 -51.4726 0.
-92.1404 -249.275 0.
5.00058 13.5456 0.
-21.9632 -60.5463 0.
6.25175 17.2655 0.
-6.43359 -17.8066 0.
1.57579 4.36431 0.
-33.0713 -90.4132 0.
-232.855 -634.339 0.
5.2708 14.5881 0.
-1.94334 -5.30529 0.
-20.0011 -54.9132 0.
-17.4082 -46.8384 0.
-0.0592982 -19.4854 0.
6.06389 16.7039 0.
-0.0264012 -3.3732 0.
2.13828 5.7301 0.
0.0214108 5.44124 0.
-294.199 -729.318 0.
0.12532 0.332553 0.
0.627776 1.73375 0.
-451.352 -1124.41 0.
-9.20164 -14.4036 0.
-201.302 -494.273 0.
-28 -70.3957 0.
-92.5788 -239.505 0.
-114.904 -307.282 0.
-317.563 -872.775 0.
-22.361 -35.3176 0.
-21.6524 -34.8423 0.
-358.825 -973.451 0.
-0.511837 -0.321759 0.
-0.252709 -0.146394 0.
-314.708 -693.727 0.
0.0647943 0.527135 0.
-317.679 -740.397 0.
-0.0287589 -4.98076 0.
-285.625 -732.78 0.
-0.00796595 -3.74717 0.
5.38243 14.4805 0.
3.79953 9.05413 0.
-0.00597147 -1.78057 0.
1.27162 3.33884 0.
-0.180972 -34.5998 0.
-226.536 -625.614 0.
-2.27794 -6.28903 0.
6.79941 18.8039 0.
12.7228 35.2251 0.
-8.14547 -22.5604 0.
-150.669 -416.389 0.
4.13641 11.3898 0.
-19.2759 -53.0294 0.
-12.0734 -33.438 0.
-161.661 -447.674 0.
-17.8934 -49.4177 0.
-0.609387 -58.2556 0.
2.70936 7.41998 0.
11.3307 30.8161 0.
-84.6919 -231.433 0.
-68.3189 -187.138 0.
-0.424526 -65.097 0.
-34.222 -94.3813 0.
4.02645 11.0681 0.
-218.975 -606.503 0.
21.7542 60.1595 0.
-5.59233 -15.4534 0.
14.5686 40.1943 0.
-5.93775 -16.3864 0.
-304.471 -843.237 0.
14.4178 39.8718 0.
-255.352 -707.259 0.
-14.9655 -41.3793 0.
-418.638 -1155.58 0.
-3.30768 -9.14059 0.
-1.98882 -5.48886 0.
-469.903 -1289.04 0.
0.673964 1.75658 0.
-318.957 -789.99 0.
14.9383 35.9308 0.
-10.6483 -27.7424 0.
35.488 97.4998 0.
4.07389 11.2817 0.
-443.932 -1224.17 0.
27.6582 75.8972 0.
-288.062 -797.077 0.
-0.00140372 -72.5628 0.
-17.6618 -48.8341 0.
-0.207308 -68.1495 0.
-0.0528499 -68.9894 0.
17.3172 47.9614 0.
-0.188149 -65.7827 0.
-44.3776 -122.674 0.
-15.0381 -41.204 0.
8.02111 22.0857 0.
-30.6777 -84.0645 0.
16.3834 44.2536 0.
-80.3721 -219.649 0.
12.5278 33.9691 0.
5.014 13.833 0.
-55.5139 -153.444 0.
17.1137 47.3271 0.
-70.723 -195.679 0.
-1.74196 -4.71503 0.
-42.7366 -118.015 0.
6.69972 18.5044 0.
-88.0247 -243.612 0.
-10.1544 -28.0956 0.
-66.2129 -180.908 0.
-0.315667 -43.633 0.
16.8829 46.7155 0.
-0.00939526 -47.4589 0.
-16.1623 -44.3671 0.
2.3193 6.28584 0.
12.352 34.0797 0.
-1.46132 -4.04424 0.
-122.299 -338.695 0.
-233.373 -588.791 0.
5.55354 15.3216 0.
1.08408 2.73327 0.
1.10823 3.01607 0.
0.00352675 1.0703 0.
-17.5106 -42.9854 0.
-0.00588907 -0.238465 0.
-23.1978 -64.1321 0.
-14.0694 -36.5332 0.
-20.6055 -47.2573 0.
-22.0822 -31.2545 0.
-22.0746 -29.3528 0.
-22.762 -43.842 0.
-13.169 -18.5332 0.
-13.2757 -19.7214 0.
-6.86772 -4.20361 0.
0.259753 0.153714 0.
-14.3912 -8.60248 0.
0.0334688 1.05948 0.
0.0210311 0.306183 0.
0.133359 7.21828 0.
-0.0570126 -6.48466 0.
5.01428 13.8207 0.
-322.569 -853.364 0.
-0.0015435 -35.5717 0.
11.8371 32.7228 0.
5.79761 15.4832 0.
6.17084 16.8217 0.
-5.84341 -16.1844 0.
-34.3887 -95.2145 0.
-0.0389438 -43.0701 0.
4.22739 11.7004 0.
-3.90514 -10.815 0.
-9.57619 -26.517 0.
-14.0388 -38.6349 0.
-3.13171 -8.67425 0.
11.7849 32.6298 0.
-21.4612 -59.2426 0.
-16.7102 -46.1416 0.
-0.678138 -61.6177 0.
-246.088 -673.581 0.
11.5931 31.4489 0.
9.99019 27.0482 0.
-167.116 -457.018 0.
15.6882 42.705 0.
-101.428 -279.635 0.
-16.8644 -46.6786 0.
1.6815 4.65006 0.
-186.056 -513.693 0.
2.59006 7.15517 0.
-290.275 -799.962 0.
-0.130728 -67.789 0.
-6.48585 -17.9596 0.
-3.94702 -10.9109 0.
10.4447 28.8072 0.
-19.7742 -54.7083 0.
5.81437 16.0474 0.
-464.952 -1279.87 0.
-5.36236 -14.8387 0.
-7.1552 -19.8026 0.
-386.602 -988.225 0.
-4.50743 -11.8221 0.
5.54524 14.3712 0.
-6.18229 -16.7415 0.
-0.076524 -71.402 0.
17.5788 48.674 0.
21.6791 60.0232 0.
-9.26722 -25.5331 0.
-0.237276 -67.192 0.
-0.00131455 -64.724 0.
-88.2959 -243.844 0.
-0.217711 -73.9746 0.
-153.269 -423.779 0.
-3.92016 -10.7999 0.
4.93156 13.6305 0.
-153.868 -425.461 0.
14.3498 39.5048 0.
-5.50542 -15.1512 0.
-5.74594 -15.7185 0.
0.78139 2.10745 0.
-35.696 -97.5166 0.
11.3177 30.6373 0.
-58.3728 -161.068 0.
-47.306 -130.773 0.
-9.53841 -26.371 0.
-134.411 -371.81 0.
19.492 52.7205 0.
8.09631 21.9879 0.
-0.152209 -0.420436 0.
-119.819 -331.582 0.
1.87238 5.17972 0.
-116.295 -317.542 0.
9.11658 24.8022 0.
17.4344 48.2308 0.
-3.06512 -8.47991 0.
-36.8071 -101.025 0.
-6.85825 -18.6613 0.
11.123 30.7468 0.
1.42375 3.93655 0.
-3.8542 -10.6508 0.
10.3314 27.1885 0.
7.39555 20.4839 0.
10.706 27.1387 0.
0.00127776 0.439292 0.
-0.0161622 -3.10013 0.
-8.40352 -23.2103 0.
0.149818 0.393146 0.
-94.9386 -247.845 0.
-21.7285 -49.224 0.
-45.4699 -115.642 0.
-40.4204 -79.2672 0.
-162.727 -419.192 0.
-4.85953 -8.12494 0.
-7.71917 -15.0763 0.
-142.629 -386.097 0.
-24.5412 -13.8054 0.
-135.619 -276.705 0.
-10.3261 -5.96746 0.
0.00159595 0.173664 0.
-0.0329766 -1.30282 0.
0.126148 4.64884 0.
-0.00140836 -1.70228 0.
5.76836 15.9686 0.
1.06481 2.89631 0.
2.65184 7.33692 0.
2.29399 6.33654 0.
11.0596 29.3937 0.
7.55143 20.5152 0.
0.938758 2.59876 0.
-77.8621 -215.661 0.
2.19395 6.05949 0.
-186.006 -514.619 0.
-4.63926 -12.8464 0.
8.81486 23.9811 0.
-38.8819 -106.941 0.
-35.6582 -98.7588 0.
-1.75395 -4.85472 0.
14.0124 38.4222 0.
-104.744 -289.173 0.
-6.08328 -16.3949 0.
-10.2103 -27.9343 0.
-11.3674 -30.7514 0.
-16.1017 -43.9294 0.
-272.701 -744.44 0.
-28.1219 -77.2524 0.
11.6715 31.7557 0.
-212.316 -587.597 0.
5.44445 15.0543 0.
-152.542 -421.028 0.
-35.2485 -97.3465 0.
15.2447 41.809 0.
20.3906 56.1525 0.
13.9457 38.19 0.
-140.694 -388.718 0.
23.827 65.8019 0.
1.17849 3.26253 0.
-0.0390994 -83.317 0.
28.8843 78.9919 0.
-279.354 -773.761 0.
22.3463 61.8916 0.
-0.168974 -83.9548 0.
16.5179 42.4555 0.
12.4269 34.1167 0.
-1.34936 -90.5959 0.
-201.559 -558.228 0.
-0.0976502 -46.9397 0.
-1.02682e-06 -69.4518 0.
2.66091 7.35196 0.
12.49 34.4166 0.
13.604 37.6659 0.
-0.0272791 -70.4856 0.
-12.7515 -35.0725 0.
-159.028 -439.697 0.
-10.5045 -28.9139 0.
-87.4483 -241.552 0.
10.2299 27.9499 0.
14.3271 39.441 0.
-103.026 -283.364 0.
0.667199 1.825 0.
-67.0241 -180.478 0.
15.5732 41.3818 0.
1.69391 4.57753 0.
-49.3388 -133.47 0.
14.9449 41.0169 0.
-32.777 -90.5932 0.
-141.44 -391.159 0.
-0.607164 -44.2277 0.
-11.4778 -31.1028 0.
-10.7385 -29.6649 0.
10.1111 27.6144 0.
-14.3977 -39.8228 0.
-10.2978 -28.4834 0.
7.82101 21.2616 0.
11.5221 31.8455 0.
16.9269 46.7844 0.
-48.4236 -132.89 0.
8.92886 24.2929 0.
-12.7701 -35.2961 0.
-3.42808 -9.48 0.
-8.74639 -24.0053 0.
11.5955 29.8749 0.
6.24947 17.2938 0.
-0.0234261 -13.8493 0.
-172.815 -437.569 0.
-0.00567893 -1.92371 0.
-129.972 -321.959 0.
-3.86172e-05 -0.0214928 0.
-29.3483 -69.6618 0.
-11.9171 -20.8198 0.
-15.3659 -30.9562 0.
-28.1124 -65.5077 0.
-16.4261 -27.4211 0.
-7.42462 -16.7596 0.
-3.71779 -5.9152 0.
-9.58389 -16.7059 0.
-20.051 -9.68348 0.
0.0452175 0.00159557 0.
-87.8831 -173.238 0.
-0.0592401 -3.21418 0.
-236.13 -515.771 0.
-0.00808774 -9.1733 0.
-103.843 -283.799 0.
-0.0517958 -15.6544 0.
-2.03967 -5.62148 0.
-2.04201 -5.64059 0.
-4.51885 -12.5023 0.
-27.802 -74.7315 0.
13.9337 37.7263 0.
13.9252 38.5122 0.
-54.436 -149.565 0.
-1.42791 -3.92192 0.
11.4543 31.7179 0.
-52.572 -145.549 0.
-4.37955 -11.9123 0.
7.56995 20.4804 0.
-163.524 -452.816 0.
8.22803 22.7648 0.
-0.257021 -56.0025 0.
-88.5585 -238.903 0.
12.8433 34.567 0.
16.4916 43.6937 0.
-66.0035 -178.02 0.
-25.9354 -70.7375 0.
-121.386 -330.729 0.
5.52786 15.2101 0.
16.2211 44.2435 0.
-45.3176 -125.408 0.
-4.55879 -12.6036 0.
1.93912 5.32656 0.
-26.1466 -72.1874 0.
0.958189 2.62977 0.
-8.20718 -22.5714 0.
23.9338 65.6279 0.
19.4624 52.9307 0.
-91.5403 -253.043 0.
13.8923 38.1506 0.
-414.184 -1147.12 0.
27.7246 76.2283 0.
-0.330368 -70.6924 0.
-8.78911 -24.3403 0.
30.7309 84.9229 0.
25.4094 68.6986 0.
-13.4923 -36.7224 0.
29.2348 80.5794 0.
22.2075 60.9511 0.
5.06095 13.982 0.
-324.241 -897.778 0.
-0.447442 -73.901 0.
-56.2702 -155.412 0.
-7.27827 -20.0414 0.
19.7047 54.5287 0.
22.8092 62.7248 0.
-14.2689 -38.9588 0.
-1.74337 -4.79336 0.
-138.144 -381.283 0.
11.2781 30.8127 0.
-52.6587 -144.959 0.
-0.616359 -62.3987 0.
7.16574 19.6003 0.
-222.063 -596.909 0.
13.7111 36.4266 0.
13.2826 35.8299 0.
1.98732 5.36642 0.
-0.481749 -1.32178 0.
-21.7796 -59.8802 0.
11.7133 32.1365 0.
2.92136 7.81188 0.
-0.648416 -1.75322 0.
-55.3769 -152.991 0.
5.93668 16.2148 0.
-11.5894 -32.0495 0.
5.33305 14.7483 0.
18.2636 49.0205 0.
18.3898 49.625 0.
14.7219 40.6399 0.
-54.6307 -149.894 0.
9.87698 26.6261 0.
-5.24091 -14.4882 0.
6.85468 18.959 0.
-47.4026 -128.983 0.
5.11559 12.9782 0.
-58.749 -162.414 0.
-0.0829884 -11.7305 0.
1.416 3.81066 0.
-0.010614 -0.903278 0.
-2.69836 -7.34518 0.
8.77077e-05 0.109751 0.
-19.4036 -38.2649 0.
-14.5596 -20.6216 0.
-20.4424 -37.605 0.
-25.6964 -69.0881 0.
-16.558 -37.9026 0.
-15.021 -29.5868 0.
-10.3 -12.5251 0.
-15.331 -25.2661 0.
-20.0588 -7.71861 0.
0.287467 0.137595 0.
0.417984 0.186272 0.
0.00377209 2.21918 0.
-0.127395 -2.14549 0.
6.61701 18.0257 0.
0.714978 1.97746 0.
0.499784 1.37546 0.
1.53597 4.25213 0.
-0.077116 -40.2539 0.
-10.5527 -29.2204 0.
-19.8517 -53.356 0.
-1.39403 -3.82926 0.
-4.7719 -13.1795 0.
-5.99558 -16.4738 0.
6.10024 16.7558 0.
15.937 43.8934 0.
-127.584 -353.147 0.
-26.0655 -70.8872 0.
18.3598 49.6606 0.
-58.0638 -160.742 0.
19.0262 52.1026 0.
13.8678 37.9569 0.
4.70086 12.3004 0.
-59.8961 -160.989 0.
-4.42807 -11.7357 0.
-70.0124 -188.241 0.
-13.4631 -36.7189 0.
-6.89863 -18.3473 0.
-6.19251 -17.0662 0.
15.1204 41.3464 0.
11.2709 30.8887 0.
7.08705 19.5906 0.
-4.00658 -11.0079 0.
-35.6676 -98.4407 0.
-19.3072 -53.0221 0.
-11.711 -31.8179 0.
-222.202 -609.996 0.
-7.59315 -20.6853 0.
-16.9109 -46.7794 0.
0.935712 2.57388 0.
-8.03488 -22.146 0.
16.2015 44.7103 0.
0.826481 2.27891 0.
-0.437354 -41.4562 0.
-83.2417 -230.391 0.
-407.116 -1073.92 0.
-13.3962 -36.0535 0.
-1.24453 -3.34295 0.
-47.0008 -129.553 0.
-2.09557 -5.79761 0.
-5.59526 -15.4351 0.
23.5591 64.5795 0.
-261.985 -724.701 0.
11.1255 30.6312 0.
-0.821679 -2.27371 0.
-1.3295 -70.3266 0.
21.3994 58.7268 0.
-61.3507 -168.467 0.
-5.24188 -14.1522 0.
19.0062 51.9306 0.
-141.15 -388.577 0.
22.3854 60.5794 0.
-43.1077 -117.938 0.
-1.9341 -53.4842 0.
1.55688 4.13912 0.
-8.76476 -23.5987 0.
10.5841 27.5164 0.
4.99492 13.7011 0.
-54.4689 -149.723 0.
19.2189 52.5688 0.
-0.127749 -48.1628 0.
-22.1526 -59.7675 0.
11.6512 31.3775 0.
11.6767 31.9021 0.
-42.7376 -118.165 0.
3.12854 8.51824 0.
-11.9251 -31.9497 0.
-16.3732 -44.1098 0.
-141.553 -390.152 0.
15.8017 42.7538 0.
-0.49415 -44.0149 0.
-91.2422 -252.276 0.
-5.23225 -14.4738 0.
-28.3 -75.1061 0.
11.8803 31.3236 0.
-13.1867 -36.5226 0.
-0.116319 -8.8052 0.
4.18293 11.5098 0.
0.0690398 3.79035 0.
0.00261245 0.384562 0.
-17.7099 -34.6523 0.
-24.7317 -55.2688 0.
-7.46986 -12.0125 0.
-1.26853 -0.641336 0.
-22.2969 -45.9434 0.
-20.6429 -35.6797 0.
-26.0075 -38.6425 0.
-11.3817 -6.40463 0.
-39.3314 -61.4658 0.
0.114598 0.0323634 0.
-25.0772 -14.2186 0.
-59.887 -89.5522 0.
-0.000242238 -8.16158 0.
2.38938 6.16926 0.
-0.0434683 -2.86872 0.
1.24426 3.44424 0.
5.36254 14.6624 0.
-2.55156 -6.74991 0.
13.3076 35.2297 0.
4.28654 11.4649 0.
-27.5454 -74.0237 0.
10.8361 29.6839 0.
-0.768131 -2.07769 0.
5.01422 13.778 0.
6.51406 17.8933 0.
15.4834 42.6386 0.
10.7462 29.3537 0.
-84.4349 -229.619 0.
7.02651 19.3458 0.
-0.215603 -47.0659 0.
-47.3594 -129.562 0.
9.65972 26.414 0.
-11.9363 -31.0102 0.
17.3331 46.5244 0.
9.62088 25.529 0.
-1.61959 -41.2136 0.
-17.5859 -47.9847 0.
-6.43026 -17.1 0.
10.8195 29.5463 0.
12.8926 35.5441 0.
1.70961 4.68439 0.
-128.045 -354.279 0.
8.48717 23.3262 0.
-0.466918 -54.6509 0.
-111.197 -305.554 0.
0.718793 1.95472 0.
5.43503 14.5131 0.
-3.16412 -8.63257 0.
-7.261 -19.8631 0.
24.8957 68.5711 0.
-5.37768 -14.863 0.
-0.33812 -41.6602 0.
-181.034 -500.961 0.
-2.1707 -5.92835 0.
-0.484359 -64.5138 0.
-108.237 -298.516 0.
-0.0537077 -59.3561 0.
-13.1635 -35.5839 0.
-188.371 -520.559 0.
24.2482 65.5598 0.
1.00295 2.77484 0.
5.67747 15.6136 0.
13.4812 36.6014 0.
-14.8305 -40.8208 0.
-121.692 -336.717 0.
-1.04116 -2.78594 0.
-114.209 -314.926 0.
21.9918 57.5923 0.
1.26735 3.42659 0.
19.2224 52.5409 0.
-3.02715 -8.17457 0.
-0.542311 -56.9833 0.
-52.0931 -142.608 0.
-1.91085 -53.8986 0.
-88.419 -235.549 0.
-53.8431 -144.687 0.
2.53057 6.55956 0.
-2.49327 -6.83779 0.
-5.84971 -15.5681 0.
-9.26457 -25.2573 0.
-20.2972 -55.7238 0.
-0.62755 -1.5616 0.
1.82445 4.7108 0.
-38.5777 -105.482 0.
-71.8679 -198.244 0.
2.95994 8.02999 0.
2.28361 6.10782 0.
-50.6888 -136.343 0.
16.1631 42.3352 0.
11.0215 29.6207 0.
12.8465 34.6713 0.
-7.91012 -21.4269 0.
12.0189 32.6569 0.
11.4671 31.7391 0.
-6.30986 -16.5914 0.
11.7862 32.5593 0.
-0.311666 -15.8258 0.
-9.76365 -26.5855 0.
-0.106919 -8.7882 0.
0.474176 0.906382 0.
-0.105972 -2.48859 0.
-12.3106 -33.6716 0.
-6.14683 -15.5108 0.
-6.35384 -10.6298 0.
-15.0518 -11.8969 0.
-28.4224 -28.3733 0.
-36.9678 -41.3574 0.
-21.0186 -9.26248 0.
-4.78537 -1.83391 0.
0.0783971 0.0821691 0.
-0.547893 -0.199624 0.
-0.545608 -3.23862 0.
2.58984 6.88678 0.
1.87306 4.83094 0.
4.79924 10.7196 0.
-0.620267 -28.7726 0.
1.18844 3.22354 0.
-1.11876 -37.1816 0.
-39.4296 -102.478 0.
9.04848 21.2934 0.
-29.629 -79.6018 0.
-53.12 -145.088 0.
6.24935 16.8296 0.
18.4229 48.1072 0.
-57.5684 -158.145 0.
-23.975 -66.0261 0.
-20.3991 -54.0693 0.
-40.1619 -109.229 0.
6.47534 17.806 0.
7.91949 21.6603 0.
-2.62974 -6.88681 0.
-48.2722 -131.864 0.
5.27624 13.6272 0.
5.78201 13.7462 0.
-122.335 -325.438 0.
14.12 37.5855 0.
-28.9155 -78.9969 0.
12.0567 32.723 0.
-8.23528 -22.4526 0.
-7.6256 -21.025 0.
-4.54895 -12.4651 0.
18.6717 50.7708 0.
-107.578 -295.869 0.
18.2224 49.6487 0.
0.656447 1.74019 0.
-259.346 -707.279 0.
-7.77121 -20.6902 0.
15.7575 43.0562 0.
-62.3522 -171.295 0.
-0.614589 -38.7063 0.
-58.7155 -162.546 0.
6.42159 17.5468 0.
9.04302 24.6498 0.
8.51479 23.429 0.
-9.17965 -24.8382 0.
27.1574 71.997 0.
