# vtk DataFile Version 2.0
test grain
ASCII
DATASET UNSTRUCTURED_GRID
POINTS 5000 float
0.497752 0.000611122 0.
0.50059 0.000795719 0.
0.503071 0.000863635 0.
0.505533 0.000929619 0.
0.507651 0.000946232 0.
0.509771 0.000963171 0.
0.511861 0.000975716 0.
0.513904 0.00098059 0.
0.515947 0.000985488 0.
0.517969 0.000989362 0.
0.519979 0.000992715 0.
0.52199 0.000996079 0.
0.523993 0.00099688 0.
0.525994 0.00099735 0.
0.527996 0.000997797 0.
0.529997 0.000998057 0.
0.531998 0.000998318 0.
0.533998 0.000998572 0.
0.535999 0.000998814 0.
0.537999 0.000999056 0.
0.539999 0.00099919 0.
0.541999 0.000999236 0.
0.544 0.000999283 0.
0.546 0.00099929 0.
0.548 0.000999286 0.
0.55 0.000999282 0.
0.552 0.000999258 0.
0.554 0.000999234 0.
0.556 0.000999223 0.
0.558 0.000999256 0.
0.56 0.000999289 0.
0.562 0.000999321 0.
0.564 0.000999352 0.
0.566 0.000999383 0.
0.568 0.000999385 0.
0.57 0.000999372 0.
0.572 0.000999359 0.
0.574 0.000999322 0.
0.576 0.000999282 0.
0.578 0.000999251 0.
0.58 0.00099929 0.
0.582 0.000999328 0.
0.584 0.00099935 0.
0.586 0.000999338 0.
0.588 0.000999327 0.
0.59 0.000999377 0.
0.591999 0.000999477 0.
0.593999 0.000999578 0.
0.596 0.000999461 0.
0.598 0.000999284 0.
0.6 0.000999106 0.
0.602 0.000999271 0.
0.604 0.000999435 0.
0.606001 0.000999546 0.
0.608 0.000999464 0.
0.61 0.000999381 0.
0.612 0.000999332 0.
0.614 0.000999322 0.
0.616 0.000999313 0.
0.618 0.0009993 0.
0.62 0.000999287 0.
0.622 0.000999273 0.
0.624 0.000999282 0.
0.626 0.000999295 0.
0.628 0.000999308 0.
0.63 0.000999332 0.
0.632 0.000999355 0.
0.634 0.000999366 0.
0.636 0.000999349 0.
0.638 0.000999332 0.
0.64 0.000999293 0.
0.642 0.000999239 0.
0.644 0.000999184 0.
0.646 0.000999194 0.
0.648 0.000999223 0.
0.65 0.000999251 0.
0.652 0.000999268 0.
0.654 0.000999286 0.
0.656 0.000999276 0.
0.658001 0.000999172 0.
0.660001 0.000999069 0.
0.662001 0.000998803 0.
0.664002 0.000998337 0.
0.666002 0.000997871 0.
0.668004 0.000997692 0.
0.670005 0.000997657 0.
0.672007 0.000997621 0.
0.674009 0.000996624 0.
0.676011 0.000995514 0.
0.678016 0.000993968 0.
0.680036 0.000989075 0.
0.682056 0.000984207 0.
0.684089 0.000979078 0.
0.686149 0.000973366 0.
0.688209 0.000967687 0.
0.690373 0.000940558 0.
0.692592 0.000903152 0.
0.694832 0.00086443 0.
0.697631 0.00076324 0.
0.700437 0.000664625 0.
0.495711 0.00158143 0.
0.499075 0.00229407 0.
0.501941 0.00255568 0.
0.504764 0.0027723 0.
0.507133 0.0028303 0.
0.509431 0.00288373 0.
0.511664 0.00292661 0.
0.513758 0.00294136 0.
0.515852 0.00295618 0.
0.517907 0.00296792 0.
0.519939 0.00297803 0.
0.52197 0.00298817 0.
0.523978 0.00299063 0.
0.525982 0.00299204 0.
0.527987 0.00299339 0.
0.52999 0.00299417 0.
0.531993 0.00299495 0.
0.533995 0.00299571 0.
0.535996 0.00299644 0.
0.537997 0.00299717 0.
0.539998 0.00299757 0.
0.541998 0.00299771 0.
0.543999 0.00299785 0.
0.545999 0.00299787 0.
0.547999 0.00299786 0.
0.549999 0.00299785 0.
0.551999 0.00299777 0.
0.553999 0.0029977 0.
0.555999 0.00299767 0.
0.557999 0.00299777 0.
0.559999 0.00299787 0.
0.561999 0.00299796 0.
0.563999 0.00299805 0.
0.565999 0.00299815 0.
0.567999 0.00299815 0.
0.569999 0.00299812 0.
0.571999 0.00299808 0.
0.573999 0.00299797 0.
0.575999 0.00299785 0.
0.577999 0.00299775 0.
0.579999 0.00299787 0.
0.581999 0.00299798 0.
0.583999 0.00299805 0.
0.585999 0.00299802 0.
0.587999 0.00299798 0.
0.589999 0.00299813 0.
0.591998 0.00299843 0.
0.593998 0.00299873 0.
0.595999 0.00299838 0.
0.598 0.00299785 0.
0.6 0.00299732 0.
0.602001 0.00299781 0.
0.604001 0.00299831 0.
0.606002 0.00299864 0.
0.608001 0.00299839 0.
0.610001 0.00299814 0.
0.612001 0.002998 0.
0.614001 0.00299797 0.
0.616001 0.00299794 0.
0.618001 0.0029979 0.
0.620001 0.00299786 0.
0.622001 0.00299782 0.
0.624001 0.00299785 0.
0.626001 0.00299788 0.
0.628001 0.00299792 0.
0.630001 0.002998 0.
0.632001 0.00299807 0.
0.634001 0.0029981 0.
0.636001 0.00299805 0.
0.638001 0.00299799 0.
0.640001 0.00299788 0.
0.642001 0.00299772 0.
0.644001 0.00299755 0.
0.646001 0.00299758 0.
0.648001 0.00299767 0.
0.650001 0.00299775 0.
0.652001 0.00299781 0.
0.654001 0.00299786 0.
0.656001 0.00299783 0.
0.658002 0.00299752 0.
0.660002 0.00299721 0.
0.662003 0.00299641 0.
0.664005 0.00299501 0.
0.666007 0.00299361 0.
0.668011 0.00299308 0.
0.670015 0.00299297 0.
0.67202 0.00299286 0.
0.674027 0.00298985 0.
0.676034 0.00298651 0.
0.678048 0.00298176 0.
0.680104 0.00296697 0.
0.682159 0.00295225 0.
0.684241 0.00293681 0.
0.686367 0.0029195 0.
0.688493 0.00290229 0.
0.690899 0.00280416 0.
0.693387 0.00268548 0.
0.696103 0.00252353 0.
0.69927 0.00220901 0.
0.702549 0.00170195 0.
0.493336 0.00221276 0.
0.496981 0.00339937 0.
0.500615 0.00419805 0.
0.503808 0.00457327 0.
0.506566 0.00470219 0.
0.509056 0.00479586 0.
0.511462 0.00487676 0.
0.513608 0.00490157 0.
0.515755 0.0049265 0.
0.517845 0.00494625 0.
0.519897 0.00496318 0.
0.52195 0.00498017 0.
0.523963 0.00498437 0.
0.525971 0.00498673 0.
0.527978 0.00498898 0.
0.529983 0.00499028 0.
0.531988 0.00499158 0.
0.533992 0.00499286 0.
0.535994 0.00499407 0.
0.537996 0.00499528 0.
0.539997 0.00499595 0.
0.541997 0.00499618 0.
0.543998 0.00499641 0.
0.545998 0.00499645 0.
0.547998 0.00499643 0.
0.549999 0.00499641 0.
0.551998 0.00499629 0.
0.553998 0.00499617 0.
0.555998 0.00499611 0.
0.557998 0.00499628 0.
0.559998 0.00499644 0.
0.561998 0.0049966 0.
0.563998 0.00499676 0.
0.565998 0.00499691 0.
0.567998 0.00499692 0.
0.569998 0.00499686 0.
0.571999 0.0049968 0.
0.573998 0.00499661 0.
0.575998 0.00499641 0.
0.577998 0.00499626 0.
0.579998 0.00499645 0.
0.581998 0.00499664 0.
0.583998 0.00499675 0.
0.585998 0.00499669 0.
0.587998 0.00499663 0.
0.589998 0.00499689 0.
0.591997 0.00499739 0.
0.593997 0.00499789 0.
0.595998 0.00499731 0.
0.597999 0.00499642 0.
0.6 0.00499553 0.
0.602001 0.00499635 0.
0.604002 0.00499718 0.
0.606003 0.00499773 0.
0.608002 0.00499732 0.
0.610002 0.00499691 0.
0.612002 0.00499666 0.
0.614002 0.00499661 0.
0.616002 0.00499656 0.
0.618002 0.0049965 0.
0.620002 0.00499643 0.
0.622002 0.00499637 0.
0.624002 0.00499641 0.
0.626002 0.00499647 0.
0.628001 0.00499654 0.
0.630001 0.00499666 0.
0.632001 0.00499678 0.
0.634002 0.00499683 0.
0.636002 0.00499674 0.
0.638002 0.00499666 0.
0.640002 0.00499647 0.
0.642002 0.00499619 0.
0.644002 0.00499592 0.
0.646002 0.00499597 0.
0.648002 0.00499611 0.
0.650002 0.00499626 0.
0.652002 0.00499634 0.
0.654002 0.00499643 0.
0.656002 0.00499638 0.
0.658003 0.00499586 0.
0.660004 0.00499534 0.
0.662006 0.00499401 0.
0.664009 0.00499168 0.
0.666012 0.00498935 0.
0.668018 0.00498847 0.
0.670025 0.00498829 0.
0.672033 0.00498811 0.
0.674045 0.00498304 0.
0.676058 0.00497747 0.
0.678081 0.00496937 0.
0.680173 0.00494452 0.
0.682264 0.0049198 0.
0.684397 0.00489397 0.
0.686592 0.00486482 0.
0.688785 0.00483583 0.
0.691507 0.0046418 0.
0.694294 0.00443265 0.
0.697672 0.0040707 0.
0.701297 0.00347837 0.
0.705048 0.0023355 0.
0.49043 0.00237567 0.
0.494688 0.00405661 0.
0.498827 0.0053162 0.
0.502197 0.00583028 0.
0.505355 0.00615679 0.
0.508011 0.00635252 0.
0.510651 0.00655264 0.
0.512965 0.00664746 0.
0.515275 0.00673781 0.
0.517502 0.00680857 0.
0.519637 0.00685496 0.
0.521775 0.00690215 0.
0.523836 0.00692744 0.
0.525883 0.00694866 0.
0.527927 0.00696858 0.
0.529942 0.00697182 0.
0.531957 0.00697506 0.
0.533969 0.00697859 0.
0.535977 0.00698276 0.
0.537985 0.00698693 0.
0.53999 0.00698963 0.
0.541992 0.00699114 0.
0.543995 0.00699264 0.
0.545996 0.00699331 0.
0.547996 0.00699372 0.
0.549997 0.00699414 0.
0.551997 0.00699402 0.
0.553996 0.0069939 0.
0.555996 0.00699387 0.
0.557997 0.00699417 0.
0.559997 0.00699448 0.
0.561997 0.00699471 0.
0.563997 0.00699484 0.
0.565997 0.00699498 0.
0.567997 0.00699496 0.
0.569997 0.00699486 0.
0.571998 0.00699477 0.
0.573997 0.00699458 0.
0.575997 0.00699438 0.
0.577996 0.00699423 0.
0.579997 0.00699447 0.
0.581997 0.00699471 0.
0.583997 0.00699487 0.
0.585997 0.00699486 0.
0.587996 0.00699486 0.
0.589996 0.00699508 0.
0.591996 0.00699549 0.
0.593996 0.0069959 0.
0.595997 0.00699528 0.
0.597999 0.00699436 0.
0.6 0.00699344 0.
0.602002 0.00699431 0.
0.604003 0.00699518 0.
0.606004 0.00699577 0.
0.608004 0.0069954 0.
0.610003 0.00699503 0.
0.612003 0.0069948 0.
0.614003 0.00699474 0.
0.616003 0.00699467 0.
0.618003 0.00699456 0.
0.620003 0.00699443 0.
0.622003 0.0069943 0.
0.624003 0.00699435 0.
0.626003 0.00699443 0.
0.628002 0.00699452 0.
0.630002 0.00699466 0.
0.632002 0.0069948 0.
0.634003 0.00699486 0.
0.636003 0.00699475 0.
0.638003 0.00699464 0.
0.640003 0.00699437 0.
0.642003 0.00699397 0.
0.644004 0.00699358 0.
0.646004 0.00699354 0.
0.648003 0.0069936 0.
0.650003 0.00699367 0.
0.652004 0.00699305 0.
0.654005 0.00699244 0.
0.656007 0.00699146 0.
0.658011 0.00698921 0.
0.660014 0.00698697 0.
0.662021 0.0069829 0.
0.664033 0.00697661 0.
0.666044 0.00697034 0.
0.668062 0.00696656 0.
0.670083 0.00696391 0.
0.672104 0.00696127 0.
0.674173 0.00692917 0.
0.676245 0.00689531 0.
0.678339 0.0068576 0.
0.680526 0.00679855 0.
0.682709 0.00674067 0.
0.685027 0.00664836 0.
0.687431 0.00653718 0.
0.689921 0.00638041 0.
0.692848 0.00601511 0.
0.695908 0.00564975 0.
0.69955 0.00515454 0.
0.703793 0.00416171 0.
0.707849 0.00260447 0.
0.487453 0.00235223 0.
0.492175 0.00432884 0.
0.496381 0.00581843 0.
0.50032 0.00687103 0.
0.503766 0.00746194 0.
0.506804 0.00783011 0.
0.509671 0.00816454 0.
0.512241 0.00836084 0.
0.514734 0.00852524 0.
0.517139 0.00866404 0.
0.519362 0.0087418 0.
0.521589 0.00882092 0.
0.523706 0.00886885 0.
0.525792 0.00890941 0.
0.527875 0.00894807 0.
0.5299 0.00895326 0.
0.531925 0.00895846 0.
0.533947 0.00896426 0.
0.53596 0.00897139 0.
0.537974 0.00897854 0.
0.539983 0.00898329 0.
0.541987 0.00898608 0.
0.543991 0.00898887 0.
0.545993 0.00899016 0.
0.547994 0.00899101 0.
0.549995 0.00899186 0.
0.551995 0.00899174 0.
0.553995 0.00899162 0.
0.555995 0.00899162 0.
0.557995 0.00899207 0.
0.559996 0.00899251 0.
0.561996 0.00899281 0.
0.563996 0.00899293 0.
0.565996 0.00899304 0.
0.567996 0.00899299 0.
0.569996 0.00899286 0.
0.571997 0.00899273 0.
0.573996 0.00899255 0.
0.575996 0.00899235 0.
0.577995 0.00899221 0.
0.579995 0.0089925 0.
0.581995 0.00899278 0.
0.583995 0.00899299 0.
0.585995 0.00899303 0.
0.587995 0.00899308 0.
0.589995 0.00899327 0.
0.591995 0.0089936 0.
0.593994 0.00899392 0.
0.595996 0.00899325 0.
0.597998 0.0089923 0.
0.6 0.00899135 0.
0.602002 0.00899226 0.
0.604004 0.00899318 0.
0.606005 0.00899382 0.
0.608005 0.00899349 0.
0.610005 0.00899316 0.
0.612005 0.00899294 0.
0.614004 0.00899286 0.
0.616004 0.00899278 0.
0.618004 0.00899262 0.
0.620004 0.00899242 0.
0.622004 0.00899222 0.
0.624004 0.00899229 0.
0.626004 0.00899239 0.
0.628003 0.0089925 0.
0.630003 0.00899266 0.
0.632003 0.00899282 0.
0.634004 0.00899289 0.
0.636004 0.00899275 0.
0.638004 0.00899261 0.
0.640004 0.00899227 0.
0.642005 0.00899175 0.
0.644005 0.00899123 0.
0.646005 0.00899111 0.
0.648005 0.00899109 0.
0.650005 0.00899108 0.
0.652007 0.00898976 0.
0.654009 0.00898845 0.
0.656012 0.00898653 0.
0.658018 0.00898255 0.
0.660025 0.00897857 0.
0.662037 0.00897174 0.
0.664056 0.00896147 0.
0.666075 0.00895121 0.
0.668105 0.00894453 0.
0.670141 0.00893938 0.
0.672177 0.00893423 0.
0.674307 0.0088728 0.
0.67644 0.00880958 0.
0.678614 0.00874061 0.
0.680903 0.0086449 0.
0.683186 0.00855111 0.
0.685767 0.00836366 0.
0.688414 0.00815746 0.
0.691319 0.00777488 0.
0.694442 0.00721917 0.
0.697982 0.00660926 0.
0.701951 0.00579743 0.
0.706312 0.00442728 0.
0.711046 0.00251853 0.
0.484189 0.00222291 0.
0.489267 0.00431282 0.
0.493867 0.00609283 0.
0.498068 0.00757629 0.
0.502013 0.00859932 0.
0.505561 0.00923606 0.
0.508644 0.00968626 0.
0.511493 0.01 0.
0.514146 0.0102357 0.
0.516733 0.0104638 0.
0.51904 0.0105764 0.
0.521354 0.0106927 0.
0.523536 0.010774 0.
0.525667 0.0108449 0.
0.527797 0.0109151 0.
0.529837 0.0109238 0.
0.531878 0.0109325 0.
0.533912 0.0109421 0.
0.535934 0.0109536 0.
0.537955 0.0109652 0.
0.539969 0.0109731 0.
0.541977 0.0109781 0.
0.543985 0.0109832 0.
0.545988 0.0109856 0.
0.54799 0.0109874 0.
0.549993 0.0109891 0.
0.551993 0.0109892 0.
0.553993 0.0109893 0.
0.555993 0.0109895 0.
0.557994 0.0109901 0.
0.559994 0.0109907 0.
0.561995 0.010991 0.
0.563995 0.0109912 0.
0.565995 0.0109913 0.
0.567995 0.0109913 0.
0.569996 0.0109912 0.
0.571996 0.010991 0.
0.573995 0.0109909 0.
0.575995 0.0109907 0.
0.577995 0.0109905 0.
0.579995 0.0109908 0.
0.581995 0.0109911 0.
0.583995 0.0109914 0.
0.585994 0.0109914 0.
0.587994 0.0109915 0.
0.589994 0.0109917 0.
0.591994 0.0109919 0.
0.593994 0.0109921 0.
0.595996 0.0109915 0.
0.597998 0.0109907 0.
0.6 0.0109898 0.
0.602002 0.0109906 0.
0.604004 0.0109914 0.
0.606006 0.010992 0.
0.608006 0.0109917 0.
0.610006 0.0109915 0.
0.612005 0.0109913 0.
0.614005 0.0109912 0.
0.616005 0.0109911 0.
0.618005 0.010991 0.
0.620005 0.0109907 0.
0.622005 0.0109905 0.
0.624005 0.0109906 0.
0.626004 0.0109907 0.
0.628004 0.0109908 0.
0.630004 0.0109909 0.
0.632004 0.0109911 0.
0.634005 0.0109911 0.
0.636005 0.0109909 0.
0.638005 0.0109907 0.
0.640006 0.0109902 0.
0.642006 0.0109895 0.
0.644007 0.0109888 0.
0.646007 0.0109884 0.
0.648008 0.010988 0.
0.650008 0.0109877 0.
0.652012 0.0109852 0.
0.654015 0.0109826 0.
0.656021 0.010979 0.
0.658033 0.0109718 0.
0.660044 0.0109646 0.
0.662064 0.0109539 0.
0.664093 0.0109391 0.
0.666121 0.0109244 0.
0.668172 0.0109087 0.
0.670232 0.0108929 0.
0.672293 0.0108769 0.
0.674487 0.0107762 0.
0.676681 0.0106761 0.
0.678944 0.010566 0.
0.681335 0.0104284 0.
0.683734 0.0102914 0.
0.686563 0.01 0.
0.689472 0.00969008 0.
0.692782 0.00904167 0.
0.696235 0.00828274 0.
0.700122 0.00744838 0.
0.704606 0.00607816 0.
0.709235 0.00446326 0.
0.71426 0.00228292 0.
0.480861 0.00206954 0.
0.486529 0.00427747 0.
0.491409 0.00621443 0.
0.495928 0.00804958 0.
0.500585 0.0095454 0.
0.504358 0.0103385 0.
0.507623 0.0109035 0.
0.510722 0.0113996 0.
0.513491 0.011776 0.
0.516225 0.0121564 0.
0.518639 0.0123302 0.
0.521048 0.0125 0.
0.523316 0.0126322 0.
0.525501 0.0127492 0.
0.527687 0.0128671 0.
0.52975 0.0128823 0.
0.531812 0.0128965 0.
0.533865 0.0129117 0.
0.535896 0.0129291 0.
0.537928 0.0129466 0.
0.539949 0.012959 0.
0.541962 0.0129672 0.
0.543975 0.0129754 0.
0.545981 0.0129797 0.
0.547985 0.0129827 0.
0.549989 0.0129858 0.
0.55199 0.0129863 0.
0.553991 0.0129868 0.
0.555992 0.0129874 0.
0.557992 0.0129882 0.
0.559993 0.0129889 0.
0.561994 0.0129894 0.
0.563994 0.0129896 0.
0.565994 0.0129898 0.
0.567995 0.0129898 0.
0.569995 0.0129897 0.
0.571995 0.0129896 0.
0.573995 0.0129895 0.
0.575994 0.0129894 0.
0.577994 0.0129893 0.
0.579994 0.0129895 0.
0.581994 0.0129898 0.
0.583994 0.01299 0.
0.585994 0.01299 0.
0.587994 0.0129901 0.
0.589994 0.0129902 0.
0.591994 0.0129903 0.
0.593994 0.0129904 0.
0.595995 0.01299 0.
0.597998 0.0129895 0.
0.6 0.0129889 0.
0.602003 0.0129894 0.
0.604005 0.0129899 0.
0.606006 0.0129902 0.
0.608006 0.0129901 0.
0.610006 0.0129901 0.
0.612006 0.01299 0.
0.614006 0.0129899 0.
0.616006 0.0129898 0.
0.618006 0.0129896 0.
0.620006 0.0129894 0.
0.622006 0.0129892 0.
0.624005 0.0129892 0.
0.626005 0.0129893 0.
0.628004 0.0129893 0.
0.630005 0.0129894 0.
0.632005 0.0129895 0.
0.634005 0.0129895 0.
0.636006 0.0129892 0.
0.638006 0.012989 0.
0.640007 0.0129883 0.
0.642008 0.0129873 0.
0.644009 0.0129862 0.
0.646011 0.0129853 0.
0.648012 0.0129844 0.
0.650014 0.0129835 0.
0.652019 0.0129792 0.
0.654025 0.0129749 0.
0.656034 0.0129688 0.
0.658054 0.0129567 0.
0.660073 0.0129447 0.
0.662102 0.0129291 0.
0.664143 0.0129092 0.
0.666183 0.0128893 0.
0.668265 0.0128567 0.
0.670361 0.0128207 0.
0.672465 0.0127815 0.
0.674727 0.0126285 0.
0.676985 0.0124779 0.
0.679372 0.0122999 0.
0.681894 0.0120899 0.
0.684487 0.0118321 0.
0.687423 0.0113372 0.
0.690522 0.0108227 0.
0.693978 0.0100898 0.
0.697791 0.00921155 0.
0.702202 0.00800458 0.
0.70692 0.00629327 0.
0.711895 0.00447789 0.
0.71755 0.00207434 0.
0.477684 0.00197737 0.
0.483719 0.00425358 0.
0.489052 0.00626584 0.
0.493862 0.00834037 0.
0.498905 0.0101309 0.
0.502854 0.0111806 0.
0.506485 0.0120257 0.
0.509831 0.0127141 0.
0.5128 0.0132746 0.
0.515663 0.0138061 0.
0.518218 0.0140747 0.
0.520724 0.0142994 0.
0.52309 0.0144854 0.
0.52533 0.0146494 0.
0.527573 0.014816 0.
0.529662 0.0148406 0.
0.531746 0.0148602 0.
0.533818 0.0148811 0.
0.535859 0.0149045 0.
0.5379 0.0149279 0.
0.539929 0.0149449 0.
0.541947 0.0149563 0.
0.543966 0.0149677 0.
0.545974 0.0149737 0.
0.54798 0.0149781 0.
0.549985 0.0149825 0.
0.551987 0.0149835 0.
0.553988 0.0149844 0.
0.55599 0.0149853 0.
0.557991 0.0149862 0.
0.559992 0.0149872 0.
0.561993 0.0149878 0.
0.563993 0.014988 0.
0.565994 0.0149883 0.
0.567994 0.0149884 0.
0.569994 0.0149883 0.
0.571995 0.0149882 0.
0.573994 0.0149881 0.
0.575994 0.014988 0.
0.577993 0.014988 0.
0.579993 0.0149882 0.
0.581993 0.0149884 0.
0.583993 0.0149886 0.
0.585993 0.0149887 0.
0.587993 0.0149888 0.
0.589993 0.0149888 0.
0.591993 0.0149887 0.
0.593993 0.0149887 0.
0.595995 0.0149885 0.
0.597998 0.0149882 0.
0.6 0.014988 0.
0.602003 0.0149882 0.
0.604005 0.0149883 0.
0.606006 0.0149885 0.
0.608006 0.0149886 0.
0.610006 0.0149886 0.
0.612006 0.0149886 0.
0.614006 0.0149885 0.
0.616006 0.0149884 0.
0.618006 0.0149882 0.
0.620006 0.0149881 0.
0.622006 0.0149879 0.
0.624006 0.0149879 0.
0.626005 0.0149879 0.
0.628005 0.0149879 0.
0.630005 0.0149879 0.
0.632006 0.0149879 0.
0.634006 0.0149878 0.
0.636007 0.0149875 0.
0.638008 0.0149872 0.
0.640009 0.0149864 0.
0.64201 0.014985 0.
0.644012 0.0149837 0.
0.646014 0.0149822 0.
0.648016 0.0149808 0.
0.650019 0.0149793 0.
0.652027 0.0149732 0.
0.654035 0.0149672 0.
0.656048 0.0149585 0.
0.658075 0.0149416 0.
0.660101 0.0149247 0.
0.662141 0.0149042 0.
0.664193 0.0148792 0.
0.666246 0.0148542 0.
0.668361 0.0148034 0.
0.670494 0.0147466 0.
0.672643 0.014682 0.
0.674975 0.0144756 0.
0.677299 0.0142734 0.
0.679834 0.0140177 0.
0.682493 0.0137327 0.
0.685293 0.0132977 0.
0.688321 0.0126044 0.
0.691669 0.0118502 0.
0.695298 0.0109686 0.
0.699297 0.00998341 0.
0.704255 0.00834304 0.
0.709285 0.00637723 0.
0.714692 0.00428615 0.
0.720993 0.0019803 0.
0.474498 0.00185993 0.
0.480885 0.00420224 0.
0.486591 0.0062336 0.
0.491581 0.00846069 0.
0.496827 0.0103744 0.
0.501244 0.0118835 0.
0.505272 0.013056 0.
0.508829 0.0139254 0.
0.512046 0.0146685 0.
0.514947 0.0152748 0.
0.517627 0.0156623 0.
0.5202 0.0159508 0.
0.522677 0.0162125 0.
0.524972 0.0164174 0.
0.527278 0.016627 0.
0.529438 0.0166999 0.
0.531581 0.0167606 0.
0.533708 0.0168165 0.
0.535767 0.0168469 0.
0.537826 0.0168776 0.
0.539872 0.016903 0.
0.541904 0.016924 0.
0.543937 0.0169451 0.
0.545953 0.0169566 0.
0.547963 0.0169651 0.
0.549974 0.0169736 0.
0.551978 0.0169759 0.
0.553982 0.0169782 0.
0.555985 0.0169804 0.
0.557987 0.0169821 0.
0.559989 0.0169837 0.
0.56199 0.0169849 0.
0.563991 0.0169854 0.
0.565992 0.0169859 0.
0.567993 0.0169861 0.
0.569993 0.0169861 0.
0.571994 0.0169862 0.
0.573993 0.0169861 0.
0.575993 0.0169861 0.
0.577993 0.0169861 0.
0.579993 0.0169863 0.
0.581993 0.0169865 0.
0.583993 0.0169866 0.
0.585993 0.0169866 0.
0.587993 0.0169867 0.
0.589994 0.0169866 0.
0.591994 0.0169864 0.
0.593994 0.0169862 0.
0.595996 0.016986 0.
0.597998 0.0169858 0.
0.6 0.0169856 0.
0.602003 0.0169858 0.
0.604005 0.0169859 0.
0.606006 0.0169861 0.
0.608006 0.0169863 0.
0.610006 0.0169865 0.
0.612006 0.0169866 0.
0.614007 0.0169865 0.
0.616007 0.0169865 0.
0.618007 0.0169863 0.
0.620007 0.0169861 0.
0.622007 0.0169859 0.
0.624007 0.0169858 0.
0.626006 0.0169858 0.
0.628006 0.0169857 0.
0.630007 0.0169856 0.
0.632007 0.0169854 0.
0.634008 0.016985 0.
0.636009 0.0169844 0.
0.638011 0.0169837 0.
0.640013 0.0169821 0.
0.642016 0.0169798 0.
0.644018 0.0169775 0.
0.646023 0.0169742 0.
0.648029 0.0169706 0.
0.650034 0.0169669 0.
0.65205 0.0169553 0.
0.654066 0.0169437 0.
0.656089 0.016928 0.
0.658133 0.0169 0.
0.660177 0.0168722 0.
0.662238 0.0168411 0.
0.664318 0.0168062 0.
0.666396 0.0167714 0.
0.668583 0.0166666 0.
0.67079 0.0165525 0.
0.673025 0.0164285 0.
0.675408 0.0161836 0.
0.677778 0.015945 0.
0.680453 0.0155921 0.
0.683195 0.0152388 0.
0.686159 0.0146098 0.
0.689268 0.0137733 0.
0.69288 0.0128098 0.
0.696826 0.0117022 0.
0.701076 0.0104717 0.
0.706228 0.00854769 0.
0.711585 0.00641257 0.
0.717369 0.00416969 0.
0.724252 0.00190702 0.
0.471182 0.00175671 0.
0.477779 0.0041469 0.
0.484073 0.00612519 0.
0.489323 0.00845081 0.
0.494755 0.0105318 0.
0.499552 0.0124414 0.
0.503821 0.0138768 0.
0.507639 0.0149433 0.
0.511018 0.0158246 0.
0.514001 0.0165423 0.
0.516901 0.0171373 0.
0.519571 0.0175276 0.
0.522204 0.0179067 0.
0.524574 0.0181607 0.
0.526957 0.0184209 0.
0.529196 0.0185472 0.
0.531405 0.0186532 0.
0.533593 0.0187501 0.
0.535671 0.0187881 0.
0.53775 0.0188262 0.
0.539813 0.0188603 0.
0.54186 0.0188911 0.
0.543907 0.0189221 0.
0.545931 0.0189393 0.
0.547947 0.0189519 0.
0.549963 0.0189645 0.
0.551969 0.0189684 0.
0.553974 0.018972 0.
0.55598 0.0189755 0.
0.557983 0.0189779 0.
0.559986 0.0189803 0.
0.561988 0.018982 0.
0.563989 0.0189827 0.
0.565991 0.0189835 0.
0.567991 0.0189838 0.
0.569992 0.0189839 0.
0.571993 0.0189841 0.
0.573993 0.0189841 0.
0.575992 0.0189841 0.
0.577992 0.0189842 0.
0.579992 0.0189844 0.
0.581992 0.0189845 0.
0.583993 0.0189846 0.
0.585993 0.0189846 0.
0.587993 0.0189846 0.
0.589994 0.0189844 0.
0.591994 0.0189841 0.
0.593994 0.0189838 0.
0.595996 0.0189835 0.
0.597998 0.0189834 0.
0.6 0.0189832 0.
0.602002 0.0189834 0.
0.604004 0.0189836 0.
0.606006 0.0189838 0.
0.608006 0.0189841 0.
0.610006 0.0189844 0.
0.612007 0.0189845 0.
0.614007 0.0189846 0.
0.616007 0.0189846 0.
0.618007 0.0189844 0.
0.620008 0.0189841 0.
0.622008 0.0189838 0.
0.624008 0.0189837 0.
0.626007 0.0189837 0.
0.628007 0.0189836 0.
0.630008 0.0189832 0.
0.632009 0.0189829 0.
0.63401 0.0189823 0.
0.636012 0.0189812 0.
0.638014 0.0189801 0.
0.640017 0.0189778 0.
0.642021 0.0189745 0.
0.644025 0.0189713 0.
0.646033 0.018966 0.
0.648041 0.0189603 0.
0.650049 0.0189544 0.
0.652073 0.0189371 0.
0.654097 0.0189199 0.
0.656131 0.0188969 0.
0.658192 0.0188575 0.
0.660254 0.0188184 0.
0.66234 0.0187763 0.
0.664448 0.0187306 0.
0.666555 0.0186852 0.
0.668827 0.0185154 0.
0.671115 0.0183371 0.
0.673446 0.0181496 0.
0.6759 0.0178544 0.
0.678374 0.0175467 0.
0.681194 0.0170567 0.
0.684072 0.0165465 0.
0.687192 0.0156851 0.
0.690389 0.0147776 0.
0.694156 0.0136966 0.
0.698497 0.0123031 0.
0.703095 0.0106985 0.
0.708466 0.00863161 0.
0.714035 0.00625616 0.
0.720506 0.00415565 0.
0.727596 0.0017853 0.
0.467305 0.00157481 0.
0.474422 0.00404696 0.
0.481475 0.00601536 0.
0.487032 0.00837864 0.
0.492617 0.0106194 0.
0.497607 0.0127046 0.
0.502188 0.01447 0.
0.506261 0.0157648 0.
0.509802 0.0168523 0.
0.512998 0.01775 0.
0.516128 0.0185549 0.
0.518926 0.0190691 0.
0.521698 0.0195724 0.
0.524176 0.0198781 0.
0.526625 0.0201754 0.
0.528941 0.0203591 0.
0.531208 0.0205173 0.
0.533457 0.0206678 0.
0.535558 0.0207142 0.
0.53766 0.0207609 0.
0.539743 0.020805 0.
0.541804 0.0208476 0.
0.543866 0.0208905 0.
0.545899 0.0209152 0.
0.547923 0.0209333 0.
0.549947 0.0209515 0.
0.551956 0.0209577 0.
0.553964 0.0209636 0.
0.555972 0.020969 0.
0.557977 0.0209724 0.
0.559981 0.0209759 0.
0.561985 0.0209783 0.
0.563987 0.0209795 0.
0.565989 0.0209807 0.
0.56799 0.0209813 0.
0.569991 0.0209817 0.
0.571992 0.0209821 0.
0.573992 0.0209822 0.
0.575991 0.0209823 0.
0.577991 0.0209824 0.
0.579992 0.0209826 0.
0.581992 0.0209827 0.
0.583993 0.0209828 0.
0.585993 0.0209828 0.
0.587993 0.0209827 0.
0.589994 0.0209824 0.
0.591994 0.020982 0.
0.593995 0.0209816 0.
0.595996 0.0209814 0.
0.597998 0.0209813 0.
0.6 0.0209811 0.
0.602002 0.0209813 0.
0.604004 0.0209815 0.
0.606005 0.0209817 0.
0.608006 0.0209821 0.
0.610006 0.0209824 0.
0.612007 0.0209827 0.
0.614007 0.0209827 0.
0.616007 0.0209828 0.
0.618008 0.0209826 0.
0.620008 0.0209823 0.
0.622009 0.0209819 0.
0.624009 0.0209818 0.
0.626008 0.0209816 0.
0.628008 0.0209814 0.
0.63001 0.0209807 0.
0.632011 0.02098 0.
0.634012 0.020979 0.
0.636015 0.0209773 0.
0.638018 0.0209755 0.
0.640023 0.0209722 0.
0.642029 0.0209676 0.
0.644036 0.020963 0.
0.646046 0.020955 0.
0.648059 0.0209461 0.
0.650071 0.0209368 0.
0.652106 0.0209117 0.
0.65414 0.0208867 0.
0.656187 0.0208545 0.
0.658266 0.0208026 0.
0.660345 0.0207511 0.
0.662461 0.020693 0.
0.664601 0.0206303 0.
0.666741 0.0205682 0.
0.669089 0.0203277 0.
0.671446 0.0200866 0.
0.673866 0.0198416 0.
0.676389 0.0195057 0.
0.679009 0.0191066 0.
0.681952 0.0184809 0.
0.68504 0.017734 0.
0.688302 0.0166757 0.
0.691773 0.0155792 0.
0.695592 0.014423 0.
0.700207 0.0127975 0.
0.705111 0.010811 0.
0.710712 0.00861182 0.
0.716462 0.00606549 0.
0.72382 0.004105 0.
0.731789 0.00150956 0.
0.462563 0.00131642 0.
0.471017 0.00392504 0.
0.47883 0.00591677 0.
0.484722 0.00826045 0.
0.490524 0.0106535 0.
0.495726 0.0128837 0.
0.500602 0.0149469 0.
0.504903 0.0164976 0.
0.50861 0.0177776 0.
0.512057 0.0188973 0.
0.515352 0.0198445 0.
0.518295 0.0204656 0.
0.521142 0.0210364 0.
0.523729 0.0214372 0.
0.526252 0.0218189 0.
0.528655 0.0220971 0.
0.530974 0.0223306 0.
0.533285 0.0225607 0.
0.535417 0.0226188 0.
0.53755 0.0226771 0.
0.539659 0.022734 0.
0.541735 0.0227912 0.
0.543811 0.0228489 0.
0.545857 0.0228833 0.
0.547891 0.0229086 0.
0.549926 0.0229341 0.
0.551939 0.0229436 0.
0.553951 0.0229527 0.
0.555962 0.0229609 0.
0.557969 0.0229657 0.
0.559975 0.0229704 0.
0.56198 0.0229739 0.
0.563983 0.0229757 0.
0.565986 0.0229775 0.
0.567988 0.0229787 0.
0.569989 0.0229794 0.
0.571991 0.0229802 0.
0.573991 0.0229804 0.
0.575991 0.0229806 0.
0.577991 0.0229807 0.
0.579991 0.0229809 0.
0.581992 0.022981 0.
0.583992 0.0229811 0.
0.585993 0.022981 0.
0.587994 0.022981 0.
0.589994 0.0229807 0.
0.591995 0.0229802 0.
0.593995 0.0229798 0.
0.595997 0.0229796 0.
0.597999 0.0229795 0.
0.6 0.0229795 0.
0.602002 0.0229795 0.
0.604003 0.0229796 0.
0.606005 0.0229798 0.
0.608005 0.0229803 0.
0.610006 0.0229807 0.
0.612006 0.022981 0.
0.614007 0.022981 0.
0.616007 0.022981 0.
0.618008 0.0229808 0.
0.620009 0.0229805 0.
0.622009 0.0229802 0.
0.62401 0.02298 0.
0.62601 0.0229797 0.
0.62801 0.0229793 0.
0.630012 0.0229781 0.
0.632013 0.0229769 0.
0.634016 0.0229752 0.
0.63602 0.0229725 0.
0.638023 0.0229697 0.
0.64003 0.022965 0.
0.64204 0.0229588 0.
0.644049 0.0229525 0.
0.646065 0.0229407 0.
0.648082 0.0229275 0.
0.6501 0.0229136 0.
0.652148 0.022878 0.
0.654196 0.0228426 0.
0.656259 0.0227984 0.
0.658358 0.0227321 0.
0.660457 0.0226662 0.
0.662611 0.0225809 0.
0.664796 0.0224866 0.
0.66699 0.022384 0.
0.669388 0.022059 0.
0.671788 0.0217388 0.
0.674313 0.0214084 0.
0.676916 0.0210122 0.
0.67967 0.0204926 0.
0.682642 0.0198214 0.
0.685951 0.0188388 0.
0.689359 0.0176158 0.
0.693124 0.0163135 0.
0.697216 0.0148988 0.
0.701962 0.0131506 0.
0.70707 0.0108753 0.
0.712894 0.00855906 0.
0.718958 0.0059378 0.
0.727187 0.00406668 0.
0.737192 0.0012055 0.
0.456196 0.00114851 0.
0.467622 0.00386186 0.
0.476194 0.00584755 0.
0.48259 0.00815996 0.
0.488607 0.0106795 0.
0.493935 0.0130252 0.
0.498925 0.0152433 0.
0.503397 0.0170064 0.
0.507419 0.0186146 0.
0.511081 0.0199118 0.
0.514406 0.0209153 0.
0.517559 0.0217476 0.
0.52052 0.0224401 0.
0.523257 0.0229758 0.
0.52586 0.023445 0.
0.528361 0.0238248 0.
0.530733 0.0241347 0.
0.533105 0.0244474 0.
0.535274 0.0245226 0.
0.537439 0.0245926 0.
0.539574 0.0246624 0.
0.541665 0.0247343 0.
0.543756 0.0248068 0.
0.545814 0.0248512 0.
0.547859 0.0248839 0.
0.549905 0.0249167 0.
0.551922 0.0249295 0.
0.553938 0.0249418 0.
0.555952 0.0249528 0.
0.557961 0.0249589 0.
0.55997 0.0249649 0.
0.561976 0.0249694 0.
0.56398 0.0249719 0.
0.565984 0.0249744 0.
0.567986 0.024976 0.
0.569988 0.0249772 0.
0.57199 0.0249784 0.
0.57399 0.0249787 0.
0.57599 0.0249789 0.
0.57799 0.0249791 0.
0.579991 0.0249792 0.
0.581992 0.0249793 0.
0.583992 0.0249794 0.
0.585993 0.0249793 0.
0.587994 0.0249792 0.
0.589995 0.0249789 0.
0.591995 0.0249784 0.
0.593996 0.0249779 0.
0.595997 0.0249778 0.
0.597999 0.0249778 0.
0.6 0.0249778 0.
0.602002 0.0249778 0.
0.604003 0.0249778 0.
0.606004 0.024978 0.
0.608005 0.0249785 0.
0.610005 0.0249791 0.
0.612006 0.0249793 0.
0.614007 0.0249793 0.
0.616008 0.0249793 0.
0.618008 0.0249791 0.
0.620009 0.0249788 0.
0.62201 0.0249786 0.
0.62401 0.0249781 0.
0.626011 0.0249777 0.
0.628011 0.0249772 0.
0.630013 0.0249755 0.
0.632016 0.0249738 0.
0.634019 0.0249714 0.
0.636024 0.0249677 0.
0.638029 0.024964 0.
0.640038 0.0249579 0.
0.64205 0.0249499 0.
0.644062 0.024942 0.
0.646083 0.0249264 0.
0.648105 0.0249089 0.
0.650129 0.0248902 0.
0.652191 0.024844 0.
0.654253 0.0247981 0.
0.656332 0.0247419 0.
0.658452 0.024661 0.
0.66057 0.0245806 0.
0.662765 0.0244655 0.
0.664996 0.0243388 0.
0.667248 0.0241896 0.
0.669695 0.0237793 0.
0.672138 0.0233791 0.
0.674794 0.0229563 0.
0.677502 0.0224824 0.
0.680465 0.0217441 0.
0.683526 0.0209251 0.
0.68692 0.0197952 0.
0.690526 0.0184501 0.
0.694456 0.0169889 0.
0.698877 0.0152543 0.
0.703744 0.0133385 0.
0.709106 0.0108779 0.
0.715069 0.00840913 0.
0.721585 0.00587773 0.
0.730488 0.00394898 0.
0.744664 0.00114492 0.
0.448982 0.00120726 0.
0.464461 0.00369002 0.
0.473623 0.00578613 0.
0.480545 0.00811288 0.
0.486669 0.0106589 0.
0.492112 0.0131256 0.
0.497208 0.0154125 0.
0.501859 0.0173982 0.
0.506229 0.0193531 0.
0.509931 0.0207484 0.
0.51341 0.0219154 0.
0.516784 0.0229914 0.
0.519848 0.0237944 0.
0.522747 0.0244725 0.
0.525405 0.0250106 0.
0.527982 0.0254813 0.
0.530385 0.0258419 0.
0.532802 0.0262093 0.
0.535034 0.0263362 0.
0.537245 0.0264453 0.
0.539425 0.026549 0.
0.541538 0.0266355 0.
0.543653 0.0267227 0.
0.545732 0.0267825 0.
0.547796 0.02683 0.
0.549859 0.0268779 0.
0.551885 0.0268984 0.
0.553909 0.0269177 0.
0.555931 0.026935 0.
0.557944 0.0269439 0.
0.559957 0.0269528 0.
0.561967 0.0269597 0.
0.563973 0.0269639 0.
0.565979 0.0269681 0.
0.567982 0.0269709 0.
0.569985 0.0269729 0.
0.571987 0.0269749 0.
0.573988 0.0269756 0.
0.575989 0.026976 0.
0.577989 0.0269764 0.
0.57999 0.0269766 0.
0.581991 0.0269769 0.
0.583992 0.026977 0.
0.585993 0.0269769 0.
0.587994 0.0269769 0.
0.589995 0.0269766 0.
0.591996 0.0269762 0.
0.593997 0.0269759 0.
0.595998 0.0269757 0.
0.597999 0.0269756 0.
0.6 0.0269755 0.
0.602002 0.0269757 0.
0.604003 0.0269758 0.
0.606004 0.026976 0.
0.608004 0.0269763 0.
0.610005 0.0269767 0.
0.612006 0.0269769 0.
0.614007 0.0269769 0.
0.616008 0.0269769 0.
0.618009 0.0269766 0.
0.62001 0.0269761 0.
0.622011 0.0269756 0.
0.624012 0.0269749 0.
0.626013 0.0269741 0.
0.628014 0.0269731 0.
0.630018 0.0269702 0.
0.632021 0.0269674 0.
0.634026 0.0269634 0.
0.636034 0.0269574 0.
0.638042 0.0269514 0.
0.640056 0.0269421 0.
0.642073 0.0269305 0.
0.644091 0.0269189 0.
0.646121 0.0268952 0.
0.648154 0.0268688 0.
0.65019 0.0268401 0.
0.652274 0.0267748 0.
0.654357 0.0267102 0.
0.656465 0.0266348 0.
0.658617 0.026536 0.
0.660766 0.0264385 0.
0.663013 0.0262759 0.
0.66529 0.0261008 0.
0.66761 0.025881 0.
0.670086 0.0254149 0.
0.672551 0.0249688 0.
0.675329 0.0244652 0.
0.678148 0.0239031 0.
0.681315 0.022925 0.
0.684554 0.0219051 0.
0.688036 0.0205906 0.
0.691771 0.0191598 0.
0.695892 0.0175012 0.
0.700496 0.0155704 0.
0.705452 0.0134641 0.
0.711041 0.0108741 0.
0.717154 0.00828105 0.
0.724079 0.00589669 0.
0.733439 0.00373832 0.
0.752318 0.00146852 0.
0.443302 0.0015886 0.
0.461612 0.00348809 0.
0.471126 0.00576852 0.
0.478474 0.00808785 0.
0.48474 0.0106064 0.
0.490306 0.0131838 0.
0.495514 0.0155475 0.
0.50036 0.01773 0.
0.504967 0.0199518 0.
0.50868 0.0214551 0.
0.512387 0.0228396 0.
0.515937 0.0241224 0.
0.519083 0.025031 0.
0.522085 0.0258309 0.
0.524789 0.0264501 0.
0.527492 0.0270681 0.
0.529964 0.0274949 0.
0.532448 0.0279248 0.
0.534763 0.0281215 0.
0.537029 0.028281 0.
0.539263 0.0284294 0.
0.541403 0.0285316 0.
0.543545 0.0286346 0.
0.545648 0.0287109 0.
0.54773 0.0287742 0.
0.549813 0.028838 0.
0.551848 0.0288666 0.
0.55388 0.0288931 0.
0.555909 0.0289169 0.
0.557926 0.0289288 0.
0.559944 0.0289406 0.
0.561957 0.02895 0.
0.563965 0.0289559 0.
0.565973 0.0289618 0.
0.567978 0.0289658 0.
0.569982 0.0289686 0.
0.571985 0.0289715 0.
0.573986 0.0289724 0.
0.575987 0.0289731 0.
0.577988 0.0289737 0.
0.57999 0.0289741 0.
0.581991 0.0289744 0.
0.583992 0.0289747 0.
0.585993 0.0289746 0.
0.587994 0.0289745 0.
0.589995 0.0289743 0.
0.591996 0.0289741 0.
0.593997 0.0289738 0.
0.595998 0.0289736 0.
0.597999 0.0289735 0.
0.6 0.0289733 0.
0.602001 0.0289735 0.
0.604002 0.0289737 0.
0.606003 0.0289739 0.
0.608004 0.0289742 0.
0.610005 0.0289744 0.
0.612006 0.0289745 0.
0.614007 0.0289745 0.
0.616008 0.0289745 0.
0.61801 0.028974 0.
0.620011 0.0289733 0.
0.622013 0.0289727 0.
0.624014 0.0289716 0.
0.626016 0.0289705 0.
0.628018 0.028969 0.
0.630022 0.028965 0.
0.632026 0.0289609 0.
0.634033 0.0289554 0.
0.636044 0.028947 0.
0.638055 0.0289386 0.
0.640073 0.0289262 0.
0.642097 0.0289108 0.
0.64412 0.0288954 0.
0.646161 0.0288634 0.
0.648204 0.0288279 0.
0.650253 0.0287883 0.
0.652361 0.0287025 0.
0.654467 0.0286177 0.
0.656608 0.028521 0.
0.658798 0.0284014 0.
0.660985 0.0282833 0.
0.663295 0.0280595 0.
0.665629 0.0278252 0.
0.668038 0.0275126 0.
0.670586 0.0269698 0.
0.67317 0.0264345 0.
0.676016 0.0258212 0.
0.678943 0.0251275 0.
0.682213 0.0240114 0.
0.685652 0.0227792 0.
0.689197 0.0213266 0.
0.693097 0.0197567 0.
0.697387 0.0178833 0.
0.702175 0.015805 0.
0.707189 0.0135155 0.
0.712919 0.0108638 0.
0.719185 0.0081743 0.
0.726539 0.00594817 0.
0.736139 0.0035554 0.
0.756675 0.00193426 0.
0.440035 0.00201757 0.
0.458916 0.00340089 0.
0.468663 0.00583288 0.
0.476461 0.00806891 0.
0.482867 0.0105695 0.
0.488572 0.0132204 0.
0.493865 0.0156694 0.
0.498864 0.0179826 0.
0.50343 0.0202485 0.
0.507391 0.0220581 0.
0.511356 0.0236888 0.
0.514953 0.0250499 0.
0.518188 0.0261149 0.
0.521309 0.0270907 0.
0.524151 0.0278533 0.
0.526965 0.0286148 0.
0.529537 0.0291352 0.
0.532091 0.0296236 0.
0.534493 0.0298904 0.
0.536809 0.0300986 0.
0.539098 0.0302975 0.
0.541262 0.030414 0.
0.543429 0.030532 0.
0.545555 0.0306257 0.
0.547655 0.0307066 0.
0.549756 0.0307885 0.
0.551802 0.0308273 0.
0.553844 0.0308625 0.
0.555882 0.0308943 0.
0.557904 0.0309097 0.
0.559927 0.0309251 0.
0.561944 0.0309374 0.
0.563955 0.0309457 0.
0.565966 0.0309539 0.
0.567973 0.0309594 0.
0.569977 0.0309634 0.
0.571982 0.0309674 0.
0.573984 0.0309688 0.
0.575985 0.0309698 0.
0.577987 0.0309708 0.
0.579989 0.0309713 0.
0.58199 0.0309719 0.
0.583992 0.0309723 0.
0.585993 0.0309723 0.
0.587994 0.0309723 0.
0.589995 0.0309722 0.
0.591996 0.0309721 0.
0.593997 0.030972 0.
0.595998 0.0309718 0.
0.597999 0.0309716 0.
0.6 0.0309715 0.
0.602001 0.0309717 0.
0.604002 0.0309719 0.
0.606003 0.0309721 0.
0.608004 0.0309721 0.
0.610005 0.0309722 0.
0.612006 0.0309722 0.
0.614007 0.0309721 0.
0.616009 0.0309719 0.
0.61801 0.0309713 0.
0.620012 0.0309703 0.
0.622014 0.0309694 0.
0.624017 0.0309678 0.
0.626019 0.0309661 0.
0.628022 0.0309639 0.
0.630028 0.0309584 0.
0.632034 0.0309529 0.
0.634043 0.0309453 0.
0.636058 0.0309337 0.
0.638072 0.0309222 0.
0.640096 0.0309059 0.
0.642126 0.0308862 0.
0.644156 0.0308665 0.
0.646208 0.0308239 0.
0.648264 0.0307769 0.
0.650327 0.030724 0.
0.652456 0.0306169 0.
0.654584 0.0305113 0.
0.656758 0.0303909 0.
0.658984 0.0302499 0.
0.661208 0.0301137 0.
0.663579 0.0298282 0.
0.665966 0.0295348 0.
0.668473 0.0291248 0.
0.671095 0.0285069 0.
0.673822 0.0278582 0.
0.676764 0.0271023 0.
0.679876 0.0261523 0.
0.683164 0.0249581 0.
0.68676 0.0235797 0.
0.690439 0.0219622 0.
0.694463 0.020262 0.
0.698903 0.0181737 0.
0.703843 0.0159607 0.
0.70902 0.0134894 0.
0.714813 0.0107821 0.
0.721233 0.00810484 0.
0.728937 0.00600482 0.
0.738713 0.00342358 0.
0.758222 0.00242538 0.
0.438412 0.00250644 0.
0.456345 0.00341946 0.
0.4663 0.00591654 0.
0.47444 0.00803417 0.
0.480999 0.0105222 0.
0.486898 0.0132413 0.
0.492223 0.0157551 0.
0.497335 0.0181731 0.
0.501947 0.0204971 0.
0.506131 0.0226094 0.
0.510247 0.0244294 0.
0.513879 0.0258394 0.
0.517318 0.0271602 0.
0.52054 0.0282881 0.
0.52355 0.0292156 0.
0.526441 0.0300693 0.
0.529096 0.0306631 0.
0.531702 0.0311947 0.
0.534187 0.0315564 0.
0.536558 0.0318458 0.
0.538915 0.0321302 0.
0.541105 0.0322657 0.
0.543299 0.0324027 0.
0.54545 0.0325184 0.
0.547568 0.0326217 0.
0.549686 0.0327265 0.
0.551746 0.0327783 0.
0.553799 0.0328245 0.
0.555849 0.0328664 0.
0.557877 0.032886 0.
0.559905 0.0329057 0.
0.561928 0.0329218 0.
0.563942 0.032933 0.
0.565956 0.0329441 0.
0.567965 0.0329516 0.
0.569971 0.032957 0.
0.571977 0.0329625 0.
0.57398 0.0329645 0.
0.575983 0.0329661 0.
0.577986 0.0329676 0.
0.579988 0.0329684 0.
0.58199 0.0329693 0.
0.583992 0.0329699 0.
0.585993 0.03297 0.
0.587994 0.0329702 0.
0.589996 0.0329703 0.
0.591997 0.0329703 0.
0.593998 0.0329703 0.
0.595999 0.0329702 0.
0.598 0.0329702 0.
0.6 0.0329701 0.
0.602001 0.0329702 0.
0.604002 0.0329703 0.
0.606003 0.0329704 0.
0.608004 0.0329703 0.
0.610005 0.0329702 0.
0.612006 0.03297 0.
0.614008 0.0329696 0.
0.616009 0.0329693 0.
0.618012 0.0329683 0.
0.620014 0.032967 0.
0.622017 0.0329657 0.
0.62402 0.0329633 0.
0.626023 0.0329608 0.
0.628028 0.0329577 0.
0.630036 0.0329504 0.
0.632043 0.032943 0.
0.634056 0.0329328 0.
0.636075 0.0329171 0.
0.638095 0.0329015 0.
0.640125 0.0328806 0.
0.642162 0.0328558 0.
0.644199 0.0328312 0.
0.646265 0.0327744 0.
0.648336 0.0327123 0.
0.650418 0.0326417 0.
0.652569 0.0325102 0.
0.654718 0.0323804 0.
0.656926 0.0322216 0.
0.659187 0.0320371 0.
0.661451 0.031854 0.
0.663888 0.0314986 0.
0.666325 0.0311448 0.
0.668921 0.0306368 0.
0.671574 0.0299779 0.
0.674442 0.0292233 0.
0.677471 0.0283484 0.
0.680781 0.027133 0.
0.684182 0.0258145 0.
0.687847 0.0243189 0.
0.691679 0.0225309 0.
0.69584 0.0206311 0.
0.700381 0.0184325 0.
0.705477 0.0160794 0.
0.710759 0.0134644 0.
0.716626 0.0107183 0.
0.723251 0.00806628 0.
0.731311 0.00602321 0.
0.741196 0.0034288 0.
0.758901 0.00299592 0.
0.438283 0.00307236 0.
0.454226 0.00355315 0.
0.464166 0.00596468 0.
0.472529 0.00804525 0.
0.479241 0.0105337 0.
0.485266 0.0132408 0.
0.490613 0.0158317 0.
0.495849 0.0183398 0.
0.500525 0.0207305 0.
0.504864 0.0231031 0.
0.50898 0.0249984 0.
0.512807 0.0265812 0.
0.516456 0.028159 0.
0.519753 0.0293947 0.
0.522859 0.0304347 0.
0.525783 0.0313675 0.
0.528586 0.0321131 0.
0.531275 0.0327327 0.
0.533868 0.0332087 0.
0.536296 0.0335818 0.
0.538725 0.033959 0.
0.540946 0.0341159 0.
0.543166 0.0342722 0.
0.545343 0.0344097 0.
0.547479 0.0345357 0.
0.549616 0.0346635 0.
0.55169 0.034729 0.
0.553755 0.0347862 0.
0.555816 0.0348383 0.
0.55785 0.0348623 0.
0.559884 0.0348863 0.
0.561911 0.0349062 0.
0.563929 0.0349203 0.
0.565947 0.0349344 0.
0.567958 0.0349438 0.
0.569966 0.0349507 0.
0.571973 0.0349575 0.
0.573977 0.0349603 0.
0.575981 0.0349624 0.
0.577984 0.0349645 0.
0.579987 0.0349655 0.
0.581989 0.0349666 0.
0.583991 0.0349675 0.
0.585993 0.0349678 0.
0.587994 0.0349681 0.
0.589996 0.0349683 0.
0.591997 0.0349684 0.
0.593998 0.0349686 0.
0.595999 0.0349686 0.
0.598 0.0349687 0.
0.6 0.0349687 0.
0.602001 0.0349687 0.
0.604002 0.0349687 0.
0.606002 0.0349687 0.
0.608004 0.0349684 0.
0.610005 0.0349681 0.
0.612006 0.0349677 0.
0.614008 0.0349672 0.
0.61601 0.0349666 0.
0.618013 0.0349653 0.
0.620016 0.0349636 0.
0.622019 0.034962 0.
0.624023 0.0349588 0.
0.626028 0.0349555 0.
0.628033 0.0349515 0.
0.630043 0.0349423 0.
0.632053 0.0349332 0.
0.634068 0.0349202 0.
0.636093 0.0349005 0.
0.638117 0.0348807 0.
0.640153 0.0348551 0.
0.642197 0.0348254 0.
0.644242 0.0347957 0.
0.646323 0.0347244 0.
0.648409 0.0346471 0.
0.650509 0.0345583 0.
0.652683 0.0344021 0.
0.654854 0.0342479 0.
0.657098 0.0340473 0.
0.659393 0.0338188 0.
0.661705 0.0335869 0.
0.664211 0.0331553 0.
0.666708 0.0327307 0.
0.669435 0.0320938 0.
0.672177 0.0313491 0.
0.67515 0.0304394 0.
0.678198 0.0295063 0.
0.681681 0.0280614 0.
0.685226 0.0266112 0.
0.688909 0.0250048 0.
0.692878 0.0230601 0.
0.697234 0.0209138 0.
0.701859 0.0186726 0.
0.707062 0.0161484 0.
0.712404 0.0134736 0.
0.718358 0.0106712 0.
0.725175 0.00812933 0.
0.733445 0.00605668 0.
0.743338 0.00360167 0.
0.758942 0.00364435 0.
0.438905 0.00369008 0.
0.452627 0.00381051 0.
0.462387 0.00607056 0.
0.470785 0.00814572 0.
0.47762 0.0106045 0.
0.483764 0.0132888 0.
0.489139 0.0159496 0.
0.494465 0.018533 0.
0.499174 0.0209588 0.
0.503582 0.0234749 0.
0.507703 0.0254807 0.
0.511739 0.0272846 0.
0.515515 0.0290122 0.
0.51887 0.0303609 0.
0.522084 0.0315918 0.
0.525087 0.0326318 0.
0.528051 0.0335369 0.
0.530816 0.0342369 0.
0.533518 0.0348304 0.
0.535983 0.0352636 0.
0.538454 0.0357131 0.
0.540718 0.035907 0.
0.542972 0.0360917 0.
0.545184 0.0362597 0.
0.547342 0.0364067 0.
0.549503 0.0365557 0.
0.551598 0.0366431 0.
0.553682 0.0367206 0.
0.555761 0.0367923 0.
0.557803 0.0368213 0.
0.559845 0.0368503 0.
0.56188 0.0368756 0.
0.563905 0.0368957 0.
0.565929 0.0369159 0.
0.567945 0.0369292 0.
0.569955 0.0369387 0.
0.571966 0.0369482 0.
0.573971 0.0369524 0.
0.575976 0.0369558 0.
0.577981 0.0369591 0.
0.579984 0.0369608 0.
0.581987 0.0369625 0.
0.58399 0.0369638 0.
0.585992 0.0369645 0.
0.587994 0.0369651 0.
0.589995 0.0369656 0.
0.591997 0.036966 0.
0.593998 0.0369664 0.
0.595999 0.0369666 0.
0.598 0.0369668 0.
0.6 0.036967 0.
0.602001 0.0369668 0.
0.604002 0.0369667 0.
0.606003 0.0369665 0.
0.608004 0.0369658 0.
0.610005 0.0369652 0.
0.612007 0.0369644 0.
0.61401 0.0369634 0.
0.616012 0.0369624 0.
0.618015 0.0369604 0.
0.620019 0.036958 0.
0.622023 0.0369555 0.
0.62403 0.0369507 0.
0.626036 0.0369457 0.
0.628043 0.0369396 0.
0.630057 0.0369269 0.
0.632071 0.0369142 0.
0.634092 0.0368962 0.
0.636125 0.0368688 0.
0.638157 0.0368416 0.
0.640202 0.0368099 0.
0.642254 0.0367749 0.
0.644306 0.0367401 0.
0.646415 0.0366406 0.
0.648529 0.0365354 0.
0.650657 0.0364198 0.
0.652852 0.0362446 0.
0.655043 0.0360717 0.
0.657332 0.0358216 0.
0.659663 0.0355459 0.
0.662025 0.0352605 0.
0.664564 0.0347793 0.
0.667132 0.0342838 0.
0.669984 0.0335227 0.
0.672837 0.0326701 0.
0.67594 0.0315484 0.
0.679087 0.0304188 0.
0.682582 0.0289355 0.
0.686273 0.0273465 0.
0.690008 0.025579 0.
0.694008 0.0235665 0.
0.69858 0.0211771 0.
0.703326 0.0188684 0.
0.708585 0.0162033 0.
0.71397 0.0135069 0.
0.719972 0.0106691 0.
0.726941 0.00826111 0.
0.735228 0.00612785 0.
0.745005 0.00390345 0.
0.758478 0.00432021 0.
0.439759 0.00434695 0.
0.451523 0.00417534 0.
0.460929 0.00625666 0.
0.469206 0.00834317 0.
0.476141 0.0106997 0.
0.48239 0.0133977 0.
0.487754 0.0160801 0.
0.493124 0.0187356 0.
0.497858 0.0211745 0.
0.502297 0.0237571 0.
0.506452 0.0259236 0.
0.510668 0.0279504 0.
0.514488 0.0297317 0.
0.517926 0.0312491 0.
0.521234 0.032686 0.
0.524362 0.0338389 0.
0.527475 0.0348899 0.
0.530257 0.0356265 0.
0.533039 0.0363192 0.
0.535564 0.0368423 0.
0.538099 0.0373897 0.
0.540437 0.0376561 0.
0.542741 0.0378862 0.
0.545004 0.0380972 0.
0.547191 0.0382675 0.
0.549381 0.03844 0.
0.551501 0.0385515 0.
0.553606 0.0386516 0.
0.555705 0.0387451 0.
0.557755 0.0387792 0.
0.559806 0.0388134 0.
0.561849 0.0388443 0.
0.56388 0.0388707 0.
0.565911 0.0388971 0.
0.567931 0.0389145 0.
0.569945 0.0389266 0.
0.571958 0.0389388 0.
0.573965 0.0389445 0.
0.575971 0.0389492 0.
0.577977 0.0389536 0.
0.579981 0.038956 0.
0.581985 0.0389583 0.
0.583989 0.0389602 0.
0.585991 0.0389612 0.
0.587993 0.0389622 0.
0.589995 0.038963 0.
0.591996 0.0389636 0.
0.593998 0.0389642 0.
0.595999 0.0389646 0.
0.598 0.0389649 0.
0.6 0.0389652 0.
0.602001 0.038965 0.
0.604002 0.0389647 0.
0.606003 0.0389643 0.
0.608004 0.0389633 0.
0.610006 0.0389623 0.
0.612008 0.0389611 0.
0.614011 0.0389596 0.
0.616014 0.0389581 0.
0.618018 0.0389555 0.
0.620023 0.0389523 0.
0.622028 0.0389491 0.
0.624036 0.0389426 0.
0.626044 0.0389357 0.
0.628053 0.0389276 0.
0.630072 0.0389112 0.
0.63209 0.0388949 0.
0.634117 0.0388716 0.
0.636158 0.0388364 0.
0.638198 0.0388014 0.
0.640252 0.0387634 0.
0.642313 0.038723 0.
0.644373 0.0386827 0.
0.646514 0.0385511 0.
0.648659 0.0384139 0.
0.65082 0.038268 0.
0.653043 0.0380706 0.
0.655262 0.0378757 0.
0.657621 0.0375578 0.
0.660016 0.0372181 0.
0.662475 0.0368389 0.
0.665075 0.0362597 0.
0.667706 0.0356741 0.
0.670571 0.0348846 0.
0.673551 0.0338934 0.
0.676742 0.0325922 0.
0.680044 0.0312362 0.
0.683511 0.0297209 0.
0.687285 0.0280375 0.
0.691154 0.0260726 0.
0.695137 0.024019 0.
0.699873 0.0214347 0.
0.704685 0.0190744 0.
0.710014 0.0162895 0.
0.71542 0.0135657 0.
0.721462 0.0107407 0.
0.728521 0.00845097 0.
0.736722 0.00627568 0.
0.746209 0.0042914 0.
0.757803 0.0050544 0.
0.440475 0.00504504 0.
0.450682 0.00461896 0.
0.459676 0.00650683 0.
0.467789 0.00859819 0.
0.474752 0.0108307 0.
0.481037 0.0135117 0.
0.486433 0.0162171 0.
0.491809 0.018923 0.
0.49655 0.0213913 0.
0.50104 0.0240119 0.
0.505238 0.0263364 0.
0.509521 0.0285127 0.
0.513373 0.0303324 0.
0.516977 0.0320892 0.
0.520356 0.033676 0.
0.523617 0.0349642 0.
0.526735 0.0360698 0.
0.529637 0.0369404 0.
0.532514 0.0377611 0.
0.535136 0.0384034 0.
0.537735 0.0390479 0.
0.540154 0.0393972 0.
0.542508 0.0396721 0.
0.544826 0.0399294 0.
0.547037 0.0401182 0.
0.549254 0.0403116 0.
0.5514 0.0404484 0.
0.553524 0.0405729 0.
0.555644 0.0406918 0.
0.557703 0.0407309 0.
0.559762 0.0407702 0.
0.561812 0.0408069 0.
0.563851 0.0408404 0.
0.565889 0.0408741 0.
0.567914 0.0408963 0.
0.569931 0.0409118 0.
0.571949 0.0409273 0.
0.573957 0.0409349 0.
0.575965 0.0409413 0.
0.577973 0.0409474 0.
0.579978 0.0409505 0.
0.581982 0.0409535 0.
0.583987 0.0409561 0.
0.585989 0.0409576 0.
0.587992 0.040959 0.
0.589994 0.0409602 0.
0.591996 0.0409611 0.
0.593997 0.040962 0.
0.595998 0.0409625 0.
0.597999 0.040963 0.
0.6 0.0409635 0.
0.602001 0.0409631 0.
0.604002 0.0409627 0.
0.606003 0.0409621 0.
0.608005 0.0409606 0.
0.610007 0.0409592 0.
0.61201 0.0409574 0.
0.614013 0.0409553 0.
0.616017 0.0409533 0.
0.618022 0.0409498 0.
0.620028 0.0409456 0.
0.622034 0.0409414 0.
0.624044 0.0409328 0.
0.626054 0.0409236 0.
0.628066 0.040913 0.
0.630089 0.040892 0.
0.632113 0.0408711 0.
0.634146 0.0408417 0.
0.636195 0.0407983 0.
0.638244 0.0407551 0.
0.640307 0.0407098 0.
0.642379 0.0406627 0.
0.644449 0.040616 0.
0.646619 0.0404489 0.
0.64879 0.0402792 0.
0.650984 0.0401047 0.
0.653233 0.0398906 0.
0.655479 0.0396761 0.
0.657916 0.0392829 0.
0.660376 0.0388787 0.
0.66294 0.0383942 0.
0.665611 0.0377113 0.
0.668371 0.0369759 0.
0.671298 0.0360758 0.
0.674308 0.0349702 0.
0.677536 0.0335779 0.
0.680998 0.0320228 0.
0.684541 0.030421 0.
0.688282 0.0286829 0.
0.692316 0.0265124 0.
0.696415 0.024306 0.
0.701183 0.0216834 0.
0.705981 0.0192776 0.
0.711359 0.0163944 0.
0.716762 0.0136713 0.
0.722869 0.0108554 0.
0.729972 0.00867424 0.
0.738033 0.00648225 0.
0.747106 0.00474929 0.
0.757255 0.00580577 0.
0.440974 0.00583074 0.
0.450061 0.00513757 0.
0.458579 0.00681529 0.
0.466506 0.00889363 0.
0.473444 0.0109984 0.
0.479729 0.0136536 0.
0.485173 0.016373 0.
0.49052 0.0191067 0.
0.495274 0.0216133 0.
0.499848 0.0242794 0.
0.504056 0.0267055 0.
0.508326 0.0289644 0.
0.51227 0.0309054 0.
0.516041 0.0328797 0.
0.519486 0.0345611 0.
0.522799 0.0359691 0.
0.525985 0.0372073 0.
0.529033 0.0382295 0.
0.531994 0.0391629 0.
0.534714 0.0399123 0.
0.537327 0.040603 0.
0.539821 0.0410454 0.
0.542222 0.0413741 0.
0.5446 0.0416926 0.
0.546849 0.0419162 0.
0.549108 0.0421461 0.
0.551286 0.0423193 0.
0.553431 0.0424765 0.
0.555574 0.0426288 0.
0.557642 0.0426735 0.
0.559711 0.0427184 0.
0.561771 0.0427616 0.
0.563816 0.0428036 0.
0.565862 0.0428459 0.
0.567893 0.042874 0.
0.569915 0.0428937 0.
0.571937 0.0429134 0.
0.573948 0.0429234 0.
0.575958 0.042932 0.
0.577967 0.0429401 0.
0.579973 0.0429441 0.
0.581979 0.0429481 0.
0.583984 0.0429515 0.
0.585987 0.0429536 0.
0.587991 0.0429557 0.
0.589993 0.0429573 0.
0.591995 0.0429585 0.
0.593997 0.0429597 0.
0.595998 0.0429605 0.
0.597999 0.0429612 0.
0.6 0.0429618 0.
0.602002 0.0429612 0.
0.604003 0.0429606 0.
0.606004 0.0429597 0.
0.608006 0.0429578 0.
0.610009 0.0429558 0.
0.612012 0.0429535 0.
0.614016 0.0429505 0.
0.61602 0.0429476 0.
0.618027 0.0429431 0.
0.620034 0.0429378 0.
0.622042 0.0429325 0.
0.624054 0.0429212 0.
0.626067 0.0429092 0.
0.628082 0.0428952 0.
0.630111 0.0428685 0.
0.632141 0.0428418 0.
0.634181 0.0428052 0.
0.636239 0.0427528 0.
0.638296 0.0427006 0.
0.640373 0.0426454 0.
0.642459 0.0425882 0.
0.644546 0.0425295 0.
0.646737 0.0423185 0.
0.648928 0.0421066 0.
0.651166 0.0418825 0.
0.653477 0.0416197 0.
0.655776 0.041365 0.
0.658264 0.0409151 0.
0.660758 0.0404658 0.
0.663399 0.0398895 0.
0.666133 0.0391296 0.
0.669025 0.0382499 0.
0.672017 0.0372457 0.
0.675148 0.0359154 0.
0.678335 0.0344839 0.
0.681915 0.0327942 0.
0.685582 0.0310813 0.
0.689258 0.0293008 0.
0.693476 0.0269209 0.
0.697714 0.0245332 0.
0.702498 0.0219182 0.
0.707298 0.019411 0.
0.712675 0.0165129 0.
0.718087 0.0137844 0.
0.724248 0.0110186 0.
0.731292 0.00893134 0.
0.73919 0.00675172 0.
0.747816 0.00528563 0.
0.75691 0.00658932 0.
0.441378 0.00661929 0.
0.449664 0.00571509 0.
0.457728 0.00720194 0.
0.465434 0.00924056 0.
0.472272 0.0112275 0.
0.478538 0.0138636 0.
0.48401 0.0165751 0.
0.489321 0.0193265 0.
0.494095 0.0218797 0.
0.498684 0.0245454 0.
0.502892 0.0270319 0.
0.507182 0.0293787 0.
0.511218 0.0314651 0.
0.515056 0.0335485 0.
0.518562 0.0353286 0.
0.521966 0.0369424 0.
0.525218 0.0382999 0.
0.528414 0.0394631 0.
0.531373 0.0404415 0.
0.534161 0.0413012 0.
0.536842 0.0420873 0.
0.539449 0.042661 0.
0.541914 0.0430574 0.
0.544367 0.0434508 0.
0.546657 0.0437107 0.
0.548957 0.0439775 0.
0.551171 0.0441883 0.
0.553338 0.0443784 0.
0.555503 0.0445654 0.
0.557581 0.044616 0.
0.559659 0.0446664 0.
0.561728 0.0447161 0.
0.563781 0.0447667 0.
0.565834 0.0448175 0.
0.567871 0.0448517 0.
0.569898 0.0448755 0.
0.571925 0.0448994 0.
0.573938 0.0449119 0.
0.57595 0.0449226 0.
0.577961 0.0449328 0.
0.579968 0.0449378 0.
0.581975 0.0449427 0.
0.583981 0.0449469 0.
0.585985 0.0449496 0.
0.587989 0.0449523 0.
0.589992 0.0449544 0.
0.591994 0.0449559 0.
0.593996 0.0449575 0.
0.595998 0.0449585 0.
0.597999 0.0449593 0.
0.6 0.0449602 0.
0.602002 0.0449593 0.
0.604003 0.0449585 0.
0.606005 0.0449573 0.
0.608008 0.0449549 0.
0.61001 0.0449525 0.
0.612014 0.0449495 0.
0.614019 0.0449457 0.
0.616024 0.044942 0.
0.618032 0.0449364 0.
0.620041 0.04493 0.
0.62205 0.0449235 0.
0.624065 0.0449095 0.
0.62608 0.0448947 0.
0.628098 0.0448774 0.
0.630134 0.0448449 0.
0.632169 0.0448124 0.
0.634216 0.0447685 0.
0.636282 0.044707 0.
0.638348 0.0446459 0.
0.640439 0.0445806 0.
0.642541 0.0445132 0.
0.644645 0.0444408 0.
0.646856 0.0441855 0.
0.649066 0.0439311 0.
0.651356 0.0436545 0.
0.653733 0.0433393 0.
0.65611 0.0430234 0.
0.658659 0.0425044 0.
0.661207 0.0419923 0.
0.663967 0.0412756 0.
0.666719 0.0404569 0.
0.6697 0.0394749 0.
0.672754 0.0383711 0.
0.675991 0.0368263 0.
0.679245 0.0352564 0.
0.682819 0.0335438 0.
0.686626 0.0316938 0.
0.690348 0.0297799 0.
0.694599 0.027313 0.
0.698955 0.0247719 0.
0.703729 0.0221743 0.
0.708532 0.0195685 0.
0.713894 0.0166786 0.
0.719338 0.0139227 0.
0.725508 0.0112594 0.
0.732431 0.00924311 0.
0.740105 0.00711774 0.
0.748234 0.00588662 0.
0.756564 0.00740886 0.
0.441834 0.00743502 0.
0.449527 0.00634649 0.
0.45711 0.00767518 0.
0.464591 0.00964509 0.
0.471275 0.0115429 0.
0.47751 0.0141518 0.
0.482962 0.0168399 0.
0.488231 0.0195975 0.
0.492984 0.022178 0.
0.497577 0.0248382 0.
0.501814 0.0273805 0.
0.506114 0.0298001 0.
0.51018 0.0319985 0.
0.514064 0.034142 0.
0.517633 0.036059 0.
0.521105 0.0378498 0.
0.524441 0.0393228 0.
0.527682 0.040577 0.
0.53066 0.0416416 0.
0.533586 0.0426651 0.
0.536335 0.0435448 0.
0.539063 0.0442604 0.
0.541586 0.0447219 0.
0.544094 0.0451743 0.
0.546419 0.0454635 0.
0.54875 0.0457653 0.
0.550999 0.0460164 0.
0.553184 0.0462325 0.
0.55537 0.0464462 0.
0.557474 0.0465172 0.
0.559577 0.0465866 0.
0.561668 0.0466529 0.
0.563729 0.0467118 0.
0.56579 0.046771 0.
0.567835 0.0468132 0.
0.569869 0.0468443 0.
0.571904 0.0468756 0.
0.573922 0.0468925 0.
0.575937 0.0469071 0.
0.577951 0.046921 0.
0.57996 0.0469275 0.
0.581969 0.0469339 0.
0.583977 0.0469395 0.
0.585982 0.0469433 0.
0.587987 0.046947 0.
0.58999 0.0469499 0.
0.591993 0.0469521 0.
0.593996 0.0469543 0.
0.595997 0.0469555 0.
0.597999 0.0469565 0.
0.600001 0.0469574 0.
0.602002 0.0469563 0.
0.604004 0.0469551 0.
0.606006 0.0469535 0.
0.60801 0.0469503 0.
0.610013 0.0469471 0.
0.612017 0.046943 0.
0.614024 0.0469378 0.
0.61603 0.0469326 0.
0.61804 0.0469253 0.
0.620052 0.046917 0.
0.622064 0.0469088 0.
0.624083 0.0468901 0.
0.626102 0.0468705 0.
0.628125 0.0468475 0.
0.630171 0.0468051 0.
0.632216 0.0467629 0.
0.634273 0.0467095 0.
0.636349 0.0466393 0.
0.638424 0.0465695 0.
0.640545 0.0464815 0.
0.642681 0.0463887 0.
0.64482 0.046287 0.
0.647047 0.0460043 0.
0.649268 0.045721 0.
0.651597 0.0453907 0.
0.654018 0.0450293 0.
0.656466 0.0446602 0.
0.659069 0.0440801 0.
0.661689 0.0434894 0.
0.664561 0.0426324 0.
0.667412 0.0417042 0.
0.670455 0.040586 0.
0.673539 0.0393915 0.
0.676834 0.0377039 0.
0.68019 0.0359827 0.
0.683702 0.0342711 0.
0.687648 0.032275 0.
0.691495 0.0301734 0.
0.695703 0.0276713 0.
0.700078 0.0250569 0.
0.704841 0.0224749 0.
0.709648 0.019785 0.
0.714964 0.0169119 0.
0.720417 0.0141502 0.
0.726583 0.0115802 0.
0.733342 0.00962622 0.
0.740748 0.00758439 0.
0.748383 0.0065198 0.
0.756117 0.00822 0.
0.442373 0.00824385 0.
0.449542 0.00702063 0.
0.456721 0.0082297 0.
0.463938 0.0101085 0.
0.470466 0.0119511 0.
0.476614 0.014501 0.
0.482017 0.0171672 0.
0.487236 0.0199079 0.
0.49197 0.0225217 0.
0.496547 0.0251747 0.
0.500804 0.0277638 0.
0.505086 0.0302269 0.
0.50916 0.0324987 0.
0.513079 0.0346955 0.
0.516716 0.0367708 0.
0.520227 0.0386832 0.
0.523595 0.0402519 0.
0.526858 0.0416316 0.
0.529936 0.0428059 0.
0.532996 0.0439811 0.
0.535808 0.0449375 0.
0.538574 0.0457388 0.
0.541135 0.0462531 0.
0.543714 0.0467886 0.
0.54611 0.0471504 0.
0.548489 0.0475141 0.
0.550791 0.0478237 0.
0.553003 0.0480683 0.
0.555218 0.0483114 0.
0.557354 0.0484085 0.
0.559488 0.0485012 0.
0.561605 0.0485876 0.
0.563675 0.0486552 0.
0.565745 0.0487231 0.
0.567798 0.0487735 0.
0.56984 0.0488123 0.
0.571883 0.0488512 0.
0.573905 0.0488728 0.
0.575923 0.0488914 0.
0.577941 0.0489091 0.
0.579952 0.0489171 0.
0.581963 0.0489251 0.
0.583972 0.048932 0.
0.585978 0.0489369 0.
0.587984 0.0489417 0.
0.589988 0.0489454 0.
0.591992 0.0489482 0.
0.593995 0.048951 0.
0.595997 0.0489525 0.
0.597999 0.0489536 0.
0.600001 0.0489547 0.
0.602003 0.0489532 0.
0.604005 0.0489518 0.
0.606008 0.0489498 0.
0.608011 0.0489457 0.
0.610015 0.0489417 0.
0.612021 0.0489365 0.
0.614029 0.0489298 0.
0.616037 0.0489231 0.
0.618049 0.0489141 0.
0.620064 0.0489039 0.
0.622078 0.0488938 0.
0.624101 0.0488704 0.
0.626124 0.0488459 0.
0.628153 0.0488168 0.
0.630209 0.048764 0.
0.632265 0.0487116 0.
0.634333 0.0486481 0.
0.636419 0.0485686 0.
0.638504 0.0484896 0.
0.640663 0.0483731 0.
0.642842 0.0482484 0.
0.645026 0.0481105 0.
0.647282 0.0477979 0.
0.649533 0.0474856 0.
0.65191 0.0470753 0.
0.654358 0.0466322 0.
0.656874 0.0461743 0.
0.659534 0.0455565 0.
0.662217 0.0449109 0.
0.665163 0.0439519 0.
0.668135 0.0428906 0.
0.671252 0.0416371 0.
0.674408 0.0402627 0.
0.677669 0.0385558 0.
0.681145 0.0366862 0.
0.684707 0.0348849 0.
0.688643 0.0328262 0.
0.692578 0.030577 0.
0.696785 0.0280042 0.
0.701122 0.025394 0.
0.70585 0.0228186 0.
0.710641 0.0200672 0.
0.71589 0.0172215 0.
0.721313 0.0144737 0.
0.72746 0.0119765 0.
0.734024 0.0100761 0.
0.741204 0.0081351 0.
0.748332 0.00717945 0.
0.755541 0.00900694 0.
0.442946 0.00904178 0.
0.449682 0.00772757 0.
0.456502 0.00883934 0.
0.463417 0.0106244 0.
0.469817 0.0124256 0.
0.47583 0.014902 0.
0.481153 0.0175387 0.
0.486324 0.0202631 0.
0.49104 0.0228992 0.
0.495576 0.0255454 0.
0.499847 0.0281763 0.
0.504098 0.0306581 0.
0.50819 0.0329969 0.
0.512101 0.0352315 0.
0.515813 0.0374505 0.
0.519336 0.0394405 0.
0.522726 0.0411247 0.
0.526018 0.0426358 0.
0.529196 0.0439272 0.
0.532307 0.0451709 0.
0.535142 0.0461816 0.
0.537982 0.0471196 0.
0.540652 0.0477564 0.
0.543316 0.048386 0.
0.545796 0.048827 0.
0.548223 0.0492526 0.
0.550585 0.0496273 0.
0.552824 0.0498987 0.
0.555066 0.0501647 0.
0.557234 0.050288 0.
0.559395 0.0504063 0.
0.561535 0.0505165 0.
0.563614 0.0505922 0.
0.565694 0.0506683 0.
0.567756 0.0507274 0.
0.569807 0.0507749 0.
0.571858 0.0508227 0.
0.573885 0.0508498 0.
0.575907 0.0508731 0.
0.577928 0.0508953 0.
0.579941 0.0509049 0.
0.581954 0.0509147 0.
0.583966 0.0509232 0.
0.585973 0.0509294 0.
0.58798 0.0509356 0.
0.589986 0.0509403 0.
0.59199 0.0509438 0.
0.593993 0.0509473 0.
0.595996 0.0509491 0.
0.597998 0.0509504 0.
0.600001 0.0509516 0.
0.602003 0.0509498 0.
0.604006 0.050948 0.
0.606009 0.0509454 0.
0.608014 0.0509404 0.
0.610019 0.0509355 0.
0.612026 0.0509289 0.
0.614036 0.0509204 0.
0.616046 0.0509119 0.
0.618061 0.0509008 0.
0.620078 0.0508886 0.
0.622094 0.0508764 0.
0.624122 0.0508475 0.
0.626151 0.0508172 0.
0.628187 0.0507811 0.
0.630253 0.0507165 0.
0.632319 0.0506526 0.
0.634398 0.0505791 0.
0.636494 0.0504915 0.
0.638589 0.0504043 0.
0.640785 0.0502546 0.
0.643003 0.0500968 0.
0.645229 0.0499263 0.
0.647517 0.0495874 0.
0.649798 0.049247 0.
0.652223 0.0487452 0.
0.654698 0.0482208 0.
0.657309 0.0476653 0.
0.660061 0.0469688 0.
0.662878 0.046184 0.
0.665824 0.0451661 0.
0.668866 0.044018 0.
0.672052 0.0426571 0.
0.675311 0.0410684 0.
0.67855 0.0393345 0.
0.682077 0.0373687 0.
0.685734 0.0354513 0.
0.689649 0.0333427 0.
0.6936 0.0309973 0.
0.697784 0.0283686 0.
0.702119 0.0257563 0.
0.706792 0.0231743 0.
0.711557 0.0203979 0.
0.716729 0.0175848 0.
0.722077 0.0148678 0.
0.72816 0.0124373 0.
0.734555 0.0105852 0.
0.741477 0.0087579 0.
0.748251 0.00788373 0.
0.754907 0.00975822 0.
0.443576 0.00984013 0.
0.449883 0.00847151 0.
0.456368 0.00949817 0.
0.463006 0.0111877 0.
0.46925 0.0129459 0.
0.475109 0.0153466 0.
0.480365 0.0179523 0.
0.485489 0.0206612 0.
0.490186 0.0233157 0.
0.494689 0.0259663 0.
0.498947 0.028613 0.
0.503178 0.0311136 0.
0.507257 0.0335017 0.
0.511185 0.0357842 0.
0.514915 0.0380829 0.
0.518426 0.0401334 0.
0.52187 0.0419777 0.
0.525176 0.0435918 0.
0.528411 0.044967 0.
0.531523 0.0462498 0.
0.534475 0.0474008 0.
0.537387 0.048464 0.
0.540167 0.0492343 0.
0.542899 0.0499328 0.
0.545449 0.0504409 0.
0.547905 0.0509142 0.
0.550319 0.0513547 0.
0.552609 0.0516557 0.
0.554918 0.0519608 0.
0.557116 0.0521268 0.
0.55929 0.0522863 0.
0.561447 0.0524337 0.
0.563539 0.0525179 0.
0.565632 0.0526025 0.
0.567707 0.0526717 0.
0.569767 0.05273 0.
0.571828 0.0527888 0.
0.57386 0.0528226 0.
0.575887 0.0528516 0.
0.577913 0.0528791 0.
0.579928 0.0528908 0.
0.581944 0.0529024 0.
0.583957 0.0529128 0.
0.585966 0.0529207 0.
0.587975 0.0529285 0.
0.589982 0.0529344 0.
0.591987 0.0529388 0.
0.593991 0.0529431 0.
0.595995 0.0529453 0.
0.597998 0.0529468 0.
0.600001 0.0529483 0.
0.602004 0.0529459 0.
0.604008 0.0529436 0.
0.606012 0.0529404 0.
0.608018 0.0529343 0.
0.610024 0.0529282 0.
0.612033 0.05292 0.
0.614045 0.0529093 0.
0.616057 0.0528985 0.
0.618075 0.0528852 0.
0.620095 0.0528705 0.
0.622115 0.052856 0.
0.624149 0.0528204 0.
0.626184 0.0527832 0.
0.628227 0.0527383 0.
0.630306 0.0526591 0.
0.632384 0.0525807 0.
0.634476 0.0524959 0.
0.636586 0.0524003 0.
0.638694 0.0523052 0.
0.640916 0.0521004 0.
0.643155 0.0518849 0.
0.645416 0.0516614 0.
0.647754 0.0513005 0.
0.650073 0.050943 0.
0.652553 0.0503635 0.
0.655028 0.0497802 0.
0.657747 0.0491331 0.
0.660591 0.0483658 0.
0.663544 0.0474285 0.
0.666547 0.0462989 0.
0.669643 0.0450347 0.
0.672843 0.0436289 0.
0.676191 0.0418629 0.
0.679486 0.0400153 0.
0.683008 0.0380242 0.
0.686709 0.0360256 0.
0.690625 0.0338418 0.
0.694563 0.0314376 0.
0.698709 0.0287691 0.
0.703054 0.0261498 0.
0.707675 0.0235541 0.
0.712408 0.0207731 0.
0.717516 0.0179833 0.
0.722762 0.0153113 0.
0.728728 0.0129526 0.
0.734987 0.0111485 0.
0.7416 0.009433 0.
0.748056 0.00863157 0.
0.754254 0.010513 0.
0.444288 0.0105641 0.
0.450186 0.00925614 0.
0.456385 0.0102218 0.
0.46275 0.0118134 0.
0.468818 0.013532 0.
0.474523 0.0158653 0.
0.479717 0.0184402 0.
0.484775 0.0211316 0.
0.489437 0.0237951 0.
0.493905 0.0264477 0.
0.498136 0.0290915 0.
0.502342 0.0316102 0.
0.506399 0.0340341 0.
0.510314 0.0363429 0.
0.514024 0.0386828 0.
0.517541 0.0408132 0.
0.52101 0.0427867 0.
0.524338 0.0444734 0.
0.527593 0.0459374 0.
0.53073 0.047305 0.
0.533793 0.048588 0.
0.536748 0.0497244 0.
0.539584 0.0505952 0.
0.542345 0.0513639 0.
0.545014 0.0519907 0.
0.547531 0.052535 0.
0.550025 0.0530667 0.
0.552382 0.0534076 0.
0.554762 0.0537539 0.
0.556996 0.0539626 0.
0.559184 0.0541635 0.
0.561358 0.0543506 0.
0.563463 0.0544434 0.
0.56557 0.0545366 0.
0.567656 0.0546157 0.
0.569727 0.054685 0.
0.571798 0.0547547 0.
0.573836 0.0547954 0.
0.575867 0.05483 0.
0.577897 0.0548629 0.
0.579915 0.0548766 0.
0.581933 0.0548902 0.
0.583949 0.0549025 0.
0.58596 0.0549119 0.
0.587971 0.0549214 0.
0.589979 0.0549286 0.
0.591984 0.0549338 0.
0.59399 0.054939 0.
0.595994 0.0549415 0.
0.597997 0.0549432 0.
0.600001 0.0549449 0.
0.602005 0.0549421 0.
0.60401 0.0549392 0.
0.606014 0.0549354 0.
0.608022 0.0549282 0.
0.610029 0.054921 0.
0.61204 0.0549111 0.
0.614054 0.0548981 0.
0.616068 0.0548852 0.
0.618089 0.0548695 0.
0.620112 0.0548525 0.
0.622135 0.0548355 0.
0.624176 0.0547932 0.
0.626217 0.0547491 0.
0.628269 0.0546951 0.
0.630359 0.0546012 0.
0.632449 0.0545082 0.
0.634555 0.0544124 0.
0.636678 0.054309 0.
0.6388 0.0542059 0.
0.641048 0.0539417 0.
0.64331 0.0536682 0.
0.64561 0.0533931 0.
0.648003 0.0529988 0.
0.650391 0.0525983 0.
0.652986 0.0519204 0.
0.655544 0.0512624 0.
0.658322 0.050505 0.
0.661154 0.0497158 0.
0.664227 0.0486316 0.
0.667288 0.0474056 0.
0.670457 0.045982 0.
0.673664 0.0445004 0.
0.677037 0.0426438 0.
0.680393 0.0406866 0.
0.683924 0.0386708 0.
0.687631 0.0366104 0.
0.691518 0.0343683 0.
0.69544 0.0319055 0.
0.699539 0.0292236 0.
0.70389 0.0265997 0.
0.708458 0.0239995 0.
0.713149 0.0212175 0.
0.718196 0.018447 0.
0.723335 0.0158291 0.
0.729144 0.0135357 0.
0.735254 0.0117799 0.
0.741563 0.0101738 0.
0.747711 0.00942601 0.
0.753551 0.0112228 0.
0.445059 0.0112766 0.
0.450653 0.0100893 0.
0.456584 0.0110106 0.
0.462679 0.0125093 0.
0.468569 0.0141949 0.
0.474102 0.0164737 0.
0.479242 0.0190175 0.
0.484195 0.0216851 0.
0.488801 0.0243437 0.
0.49322 0.0269868 0.
0.497428 0.0296257 0.
0.50159 0.0321582 0.
0.505594 0.0345927 0.
0.509472 0.0369154 0.
0.513172 0.039277 0.
0.516696 0.0414991 0.
0.520151 0.0435508 0.
0.523492 0.0453038 0.
0.526771 0.0468935 0.
0.529941 0.0483256 0.
0.533082 0.0496966 0.
0.53602 0.0508579 0.
0.538944 0.0518956 0.
0.541768 0.0527674 0.
0.544566 0.053526 0.
0.54714 0.05414 0.
0.549703 0.0547629 0.
0.552118 0.0551304 0.
0.554539 0.055513 0.
0.55681 0.0557698 0.
0.559014 0.0560082 0.
0.561213 0.0562345 0.
0.56334 0.0563371 0.
0.565471 0.0564409 0.
0.567579 0.056533 0.
0.569662 0.0566165 0.
0.571745 0.0567009 0.
0.573794 0.0567524 0.
0.575834 0.0567963 0.
0.577873 0.0568385 0.
0.579894 0.0568545 0.
0.581916 0.0568706 0.
0.583935 0.0568854 0.
0.585949 0.0568976 0.
0.587962 0.0569099 0.
0.589972 0.056919 0.
0.59198 0.0569255 0.
0.593987 0.056932 0.
0.595992 0.056935 0.
0.597997 0.056937 0.
0.600001 0.056939 0.
0.602007 0.0569353 0.
0.604012 0.0569316 0.
0.606019 0.0569267 0.
0.608028 0.0569176 0.
0.610038 0.0569085 0.
0.612052 0.0568961 0.
0.61407 0.0568797 0.
0.616088 0.0568633 0.
0.618112 0.0568449 0.
0.620139 0.0568254 0.
0.622166 0.056806 0.
0.624219 0.0567502 0.
0.626274 0.0566927 0.
0.628339 0.0566245 0.
0.630443 0.0565161 0.
0.632546 0.0564088 0.
0.634674 0.0562978 0.
0.636821 0.0561807 0.
0.638966 0.056065 0.
0.641244 0.0557449 0.
0.643519 0.0554223 0.
0.64585 0.0551007 0.
0.648271 0.054685 0.
0.650741 0.054233 0.
0.653444 0.0534619 0.
0.656113 0.0527078 0.
0.65899 0.0517902 0.
0.66187 0.0508754 0.
0.664935 0.049755 0.
0.668054 0.0484496 0.
0.671263 0.046906 0.
0.674517 0.0452864 0.
0.677862 0.0434092 0.
0.681269 0.0413677 0.
0.684788 0.0393197 0.
0.688486 0.0372087 0.
0.692332 0.0349289 0.
0.696239 0.0324109 0.
0.700274 0.0297378 0.
0.704603 0.0271208 0.
0.709124 0.024516 0.
0.713757 0.0217449 0.
0.718733 0.0189982 0.
0.723777 0.0164318 0.
0.729392 0.0141992 0.
0.73532 0.0124869 0.
0.741353 0.0109826 0.
0.747182 0.0102613 0.
0.752736 0.0118501 0.
0.445913 0.011975 0.
0.451272 0.0109593 0.
0.456935 0.0118569 0.
0.462773 0.0132706 0.
0.46849 0.0149373 0.
0.473846 0.0171727 0.
0.478908 0.0196811 0.
0.483733 0.0223163 0.
0.488267 0.0249583 0.
0.492624 0.0275849 0.
0.496796 0.0302112 0.
0.50089 0.032748 0.
0.504844 0.0351822 0.
0.508685 0.0375159 0.
0.512352 0.0398798 0.
0.515866 0.0421772 0.
0.51932 0.0442824 0.
0.522666 0.0461257 0.
0.525948 0.0478143 0.
0.529147 0.0493043 0.
0.532284 0.0507003 0.
0.535277 0.0519587 0.
0.538284 0.0531463 0.
0.541178 0.0541236 0.
0.544071 0.0549973 0.
0.546674 0.0556333 0.
0.549303 0.0562855 0.
0.551772 0.0567488 0.
0.554228 0.0572245 0.
0.556558 0.0575552 0.
0.5588 0.0578328 0.
0.56104 0.0581031 0.
0.563199 0.0582199 0.
0.565361 0.0583375 0.
0.567495 0.058445 0.
0.569592 0.0585443 0.
0.57169 0.0586445 0.
0.573749 0.0587078 0.
0.575799 0.0587616 0.
0.577848 0.0588135 0.
0.579873 0.0588321 0.
0.581898 0.0588507 0.
0.58392 0.0588681 0.
0.585937 0.0588831 0.
0.587954 0.0588982 0.
0.589966 0.0589093 0.
0.591975 0.0589171 0.
0.593984 0.058925 0.
0.59599 0.0589285 0.
0.597996 0.0589307 0.
0.600001 0.058933 0.
0.602008 0.0589284 0.
0.604015 0.0589239 0.
0.606023 0.0589179 0.
0.608035 0.0589069 0.
0.610047 0.0588959 0.
0.612064 0.0588808 0.
0.614086 0.0588609 0.
0.616107 0.0588411 0.
0.618135 0.0588198 0.
0.620166 0.0587978 0.
0.622197 0.0587758 0.
0.624265 0.0587053 0.
0.626334 0.0586333 0.
0.628414 0.0585494 0.
0.630534 0.0584253 0.
0.632652 0.0583024 0.
0.63481 0.0581716 0.
0.636991 0.0580342 0.
0.639178 0.0578898 0.
0.641504 0.0575116 0.
0.643823 0.0571356 0.
0.646237 0.0567374 0.
0.648714 0.0562496 0.
0.651245 0.0557121 0.
0.653956 0.0549311 0.
0.656716 0.0540921 0.
0.659657 0.0530315 0.
0.662615 0.0519834 0.
0.665706 0.0507696 0.
0.668834 0.0494213 0.
0.672062 0.0478122 0.
0.675365 0.0460548 0.
0.678686 0.0441459 0.
0.682108 0.042055 0.
0.685625 0.0399724 0.
0.689288 0.0378288 0.
0.693079 0.0355232 0.
0.69696 0.0329698 0.
0.700939 0.0303121 0.
0.705217 0.0277078 0.
0.709684 0.0251007 0.
0.714241 0.0223552 0.
0.719118 0.0196403 0.
0.724087 0.0171174 0.
0.729479 0.0149372 0.
0.73521 0.0132646 0.
0.740988 0.0118512 0.
0.746524 0.011121 0.
0.751812 0.0124651 0.
0.446836 0.0126606 0.
0.451951 0.0118579 0.
0.457362 0.0127519 0.
0.462986 0.0140818 0.
0.468504 0.015737 0.
0.47369 0.0179372 0.
0.478643 0.0204034 0.
0.48334 0.023002 0.
0.487807 0.0256239 0.
0.49208 0.0282272 0.
0.496216 0.0308431 0.
0.500246 0.0333785 0.
0.504138 0.0358031 0.
0.507931 0.0381445 0.
0.511563 0.0405022 0.
0.515073 0.0428498 0.
0.518498 0.044997 0.
0.521843 0.046938 0.
0.525122 0.0486985 0.
0.528325 0.0502314 0.
0.531464 0.0516822 0.
0.534521 0.0530239 0.
0.537586 0.0543218 0.
0.540506 0.0553754 0.
0.543414 0.056326 0.
0.546144 0.0570598 0.
0.548874 0.0577804 0.
0.551422 0.0583509 0.
0.553913 0.0589194 0.
0.556303 0.0593362 0.
0.558583 0.0596528 0.
0.560864 0.0599651 0.
0.563055 0.0600951 0.
0.565247 0.0602262 0.
0.567407 0.0603505 0.
0.569516 0.0604644 0.
0.571626 0.0605793 0.
0.573698 0.0606557 0.
0.575759 0.0607216 0.
0.57782 0.0607858 0.
0.579848 0.0608068 0.
0.581877 0.0608278 0.
0.583902 0.0608478 0.
0.585922 0.060866 0.
0.587943 0.0608842 0.
0.589958 0.0608977 0.
0.591969 0.0609071 0.
0.59398 0.0609166 0.
0.595988 0.0609207 0.
0.597995 0.0609232 0.
0.600002 0.0609257 0.
0.602011 0.0609201 0.
0.604019 0.0609145 0.
0.60603 0.0609072 0.
0.608045 0.0608939 0.
0.610059 0.0608807 0.
0.612079 0.0608627 0.
0.614105 0.0608393 0.
0.61613 0.0608159 0.
0.618163 0.060791 0.
0.620199 0.0607653 0.
0.622235 0.0607397 0.
0.624318 0.0606527 0.
0.626401 0.0605647 0.
0.628496 0.060465 0.
0.630629 0.0603271 0.
0.63276 0.0601904 0.
0.634949 0.0600387 0.
0.637163 0.0598831 0.
0.639395 0.0597072 0.
0.641769 0.059272 0.
0.644132 0.0588425 0.
0.64664 0.0583586 0.
0.649191 0.0577907 0.
0.651832 0.0571099 0.
0.654591 0.0562295 0.
0.657403 0.055308 0.
0.660349 0.0542081 0.
0.663367 0.0530614 0.
0.66648 0.05177 0.
0.669646 0.0503082 0.
0.672862 0.0486797 0.
0.676193 0.0468207 0.
0.679521 0.0448462 0.
0.682923 0.0427421 0.
0.686421 0.0406433 0.
0.690045 0.0384736 0.
0.693786 0.0361451 0.
0.697618 0.0335755 0.
0.701554 0.0309289 0.
0.705756 0.0283488 0.
0.71016 0.0257447 0.
0.714649 0.0230238 0.
0.719405 0.0203461 0.
0.724306 0.0178648 0.
0.729483 0.0157285 0.
0.735005 0.0140879 0.
0.740544 0.0127554 0.
0.745833 0.012017 0.
0.750863 0.0131067 0.
0.447762 0.0133877 0.
0.452644 0.0127879 0.
0.457834 0.0136775 0.
0.46325 0.0149356 0.
0.468563 0.0165808 0.
0.473602 0.0187512 0.
0.478427 0.0211724 0.
0.483013 0.0237416 0.
0.487401 0.0263413 0.
0.491601 0.0289214 0.
0.495689 0.031524 0.
0.499645 0.0340463 0.
0.503483 0.0364643 0.
0.507217 0.0388063 0.
0.510821 0.0411571 0.
0.514309 0.04353 0.
0.517689 0.0457168 0.
0.521034 0.0477364 0.
0.5243 0.0495392 0.
0.527502 0.0511445 0.
0.530649 0.0526541 0.
0.533758 0.0540505 0.
0.536811 0.0553803 0.
0.539783 0.0565472 0.
0.542742 0.057621 0.
0.5456 0.0584748 0.
0.548428 0.0592537 0.
0.551057 0.0599137 0.
0.553547 0.0605394 0.
0.556004 0.0610395 0.
0.558328 0.0613873 0.
0.560666 0.0617353 0.
0.562894 0.0619086 0.
0.565116 0.0620806 0.
0.567304 0.0622394 0.
0.569424 0.0623676 0.
0.571546 0.0624969 0.
0.573634 0.0625902 0.
0.57571 0.0626731 0.
0.577787 0.0627545 0.
0.579819 0.0627778 0.
0.581852 0.0628011 0.
0.583881 0.0628239 0.
0.585905 0.0628456 0.
0.587928 0.0628675 0.
0.589947 0.0628837 0.
0.59196 0.0628952 0.
0.593974 0.0629067 0.
0.595984 0.0629115 0.
0.597994 0.0629143 0.
0.600003 0.062917 0.
0.602014 0.0629101 0.
0.604025 0.0629032 0.
0.606038 0.0628942 0.
0.608056 0.0628782 0.
0.610075 0.0628623 0.
0.612098 0.0628411 0.
0.614128 0.0628139 0.
0.616158 0.0627869 0.
0.618197 0.0627569 0.
0.62024 0.0627256 0.
0.622283 0.0626939 0.
0.624382 0.0625861 0.
0.626482 0.0624777 0.
0.628594 0.0623586 0.
0.630742 0.0622067 0.
0.632887 0.0620561 0.
0.635135 0.0618477 0.
0.637411 0.0616282 0.
0.639706 0.0613906 0.
0.642112 0.0609375 0.
0.644496 0.060488 0.
0.647068 0.0599378 0.
0.649679 0.0593093 0.
0.652427 0.0584783 0.
0.655232 0.0575035 0.
0.658129 0.056453 0.
0.661088 0.0552961 0.
0.664141 0.0540956 0.
0.667258 0.0527588 0.
0.670459 0.0511789 0.
0.673674 0.0494926 0.
0.676993 0.0475828 0.
0.680318 0.0455567 0.
0.683717 0.0434424 0.
0.687187 0.0413372 0.
0.690764 0.0391485 0.
0.694456 0.036797 0.
0.698224 0.03423 0.
0.702127 0.03159 0.
0.70624 0.0290322 0.
0.710563 0.0264451 0.
0.714986 0.0237513 0.
0.719618 0.0211115 0.
0.724447 0.0186665 0.
0.729447 0.0165657 0.
0.734742 0.0149528 0.
0.740083 0.013692 0.
0.745157 0.0129606 0.
0.749934 0.0138024 0.
0.448694 0.0141589 0.
0.453371 0.0137595 0.
0.458381 0.0146332 0.
0.463606 0.0158428 0.
0.468717 0.0174835 0.
0.473598 0.0196265 0.
0.478309 0.0220117 0.
0.482783 0.0245581 0.
0.487071 0.0271271 0.
0.491214 0.0296862 0.
0.495235 0.0322687 0.
0.499115 0.0347733 0.
0.502892 0.037181 0.
0.506562 0.0395114 0.
0.510124 0.0418488 0.
0.513569 0.044226 0.
0.516923 0.0464558 0.
0.520233 0.0485182 0.
0.523488 0.0503639 0.
0.526699 0.0520573 0.
0.529847 0.0536011 0.
0.532967 0.0550197 0.
0.536023 0.0563969 0.
0.539049 0.0576856 0.
0.542047 0.058859 0.
0.54499 0.0598212 0.
0.547816 0.0606263 0.
0.550517 0.0613844 0.
0.553092 0.0620955 0.
0.555672 0.0627148 0.
0.558057 0.0631069 0.
0.56046 0.0635012 0.
0.56273 0.0637177 0.
0.564982 0.0639311 0.
0.567199 0.0641277 0.
0.569332 0.0642703 0.
0.571466 0.0644141 0.
0.573569 0.0645242 0.
0.575661 0.0646242 0.
0.577754 0.064723 0.
0.579791 0.0647488 0.
0.581827 0.0647745 0.
0.58386 0.0647999 0.
0.585887 0.0648253 0.
0.587914 0.0648507 0.
0.589936 0.0648698 0.
0.591952 0.0648833 0.
0.593969 0.0648968 0.
0.595981 0.0649023 0.
0.597993 0.0649053 0.
0.600004 0.0649083 0.
0.602017 0.0649001 0.
0.604031 0.0648919 0.
0.606047 0.0648812 0.
0.608068 0.0648625 0.
0.61009 0.0648438 0.
0.612118 0.0648194 0.
0.614151 0.0647886 0.
0.616185 0.0647579 0.
0.61823 0.0647226 0.
0.62028 0.0646858 0.
0.622332 0.0646475 0.
0.624448 0.0645189 0.
0.626563 0.0643899 0.
0.628693 0.0642517 0.
0.630855 0.0640857 0.
0.633015 0.0639211 0.
0.635329 0.0636491 0.
0.637673 0.0633623 0.
0.640043 0.0630569 0.
0.642509 0.0625636 0.
0.644968 0.062061 0.
0.647635 0.0613918 0.
0.650277 0.0606977 0.
0.653065 0.0597755 0.
0.655898 0.0587346 0.
0.658868 0.0575804 0.
0.661862 0.056369 0.
0.664938 0.0550861 0.
0.668057 0.0536968 0.
0.671262 0.0520443 0.
0.674478 0.0502802 0.
0.677772 0.0483486 0.
0.681082 0.0462907 0.
0.68446 0.0441708 0.
0.687909 0.0420581 0.
0.691442 0.0398628 0.
0.695068 0.037496 0.
0.698764 0.0349431 0.
0.702609 0.0323204 0.
0.706645 0.0297772 0.
0.71088 0.0272173 0.
0.71522 0.0245549 0.
0.719742 0.0219482 0.
0.724466 0.0195409 0.
0.729331 0.0174566 0.
0.734404 0.0158646 0.
0.739553 0.0146678 0.
0.74445 0.0139481 0.
0.749015 0.0145466 0.
0.449668 0.0149896 0.
0.454178 0.0147909 0.
0.45905 0.0156354 0.
0.464065 0.0168068 0.
0.468986 0.0184592 0.
0.473726 0.0205846 0.
0.478303 0.0229409 0.
0.482661 0.0254599 0.
0.486848 0.027995 0.
0.490926 0.0305305 0.
0.494855 0.0330827 0.
0.498663 0.0355663 0.
0.502363 0.0379576 0.
0.505962 0.0402653 0.
0.509474 0.0425847 0.
0.512873 0.0449523 0.
0.516186 0.0472111 0.
0.519469 0.0493015 0.
0.522717 0.0511981 0.
0.525907 0.0529485 0.
0.529045 0.0545236 0.
0.532167 0.0559795 0.
0.535236 0.0574 0.
0.538297 0.0587602 0.
0.541306 0.0599725 0.
0.54427 0.0610259 0.
0.547128 0.0619317 0.
0.549943 0.0628318 0.
0.552602 0.0636274 0.
0.55531 0.0643759 0.
0.557758 0.064807 0.
0.560193 0.0652254 0.
0.562506 0.0654876 0.
0.564789 0.0657477 0.
0.567046 0.0659917 0.
0.569194 0.0661421 0.
0.571344 0.0662933 0.
0.573466 0.0664208 0.
0.575575 0.0665422 0.
0.577686 0.0666635 0.
0.579735 0.066699 0.
0.581784 0.0667335 0.
0.583828 0.0667664 0.
0.58586 0.0667951 0.
0.587891 0.0668239 0.
0.589917 0.0668461 0.
0.591938 0.0668624 0.
0.593959 0.0668787 0.
0.595976 0.0668852 0.
0.597991 0.0668888 0.
0.600006 0.0668923 0.
0.602024 0.0668819 0.
0.604042 0.0668715 0.
0.606062 0.0668583 0.
0.608089 0.0668362 0.
0.610117 0.066814 0.
0.612149 0.066786 0.
0.614188 0.0667514 0.
0.616227 0.066717 0.
0.618286 0.0666708 0.
0.620352 0.0666211 0.
0.622421 0.0665682 0.
0.624556 0.0664162 0.
0.62669 0.066265 0.
0.628842 0.0661091 0.
0.631023 0.065935 0.
0.633198 0.0657624 0.
0.635571 0.0654156 0.
0.637967 0.065065 0.
0.640408 0.0647029 0.
0.642929 0.0641779 0.
0.645481 0.063606 0.
0.64823 0.0628157 0.
0.650955 0.061998 0.
0.653796 0.0609627 0.
0.656631 0.0598833 0.
0.659624 0.0586826 0.
0.662652 0.0574248 0.
0.665742 0.0560549 0.
0.668862 0.0545888 0.
0.672057 0.0529024 0.
0.675265 0.0510736 0.
0.678521 0.0491247 0.
0.68181 0.0470523 0.
0.685154 0.0449351 0.
0.688577 0.0428158 0.
0.692059 0.0406242 0.
0.695631 0.038244 0.
0.699243 0.035714 0.
0.703014 0.0331201 0.
0.706963 0.0305952 0.
0.711104 0.0280697 0.
0.715332 0.0254478 0.
0.719744 0.0228734 0.
0.724339 0.0205023 0.
0.729082 0.0184221 0.
0.733974 0.0168339 0.
0.738914 0.0156786 0.
0.743666 0.0149852 0.
0.748071 0.0153608 0.
0.450698 0.0159043 0.
0.455083 0.0158743 0.
0.459799 0.0166703 0.
0.464615 0.0178285 0.
0.469362 0.0195087 0.
0.473965 0.0216215 0.
0.47839 0.0239546 0.
0.48263 0.0264398 0.
0.48673 0.0289437 0.
0.490718 0.0314492 0.
0.494543 0.0339681 0.
0.498272 0.0364244 0.
0.501885 0.0387896 0.
0.505411 0.0410682 0.
0.508865 0.0433645 0.
0.512207 0.0457079 0.
0.515483 0.0479859 0.
0.518738 0.0500953 0.
0.521959 0.0520397 0.
0.525126 0.0538257 0.
0.528257 0.0554411 0.
0.531375 0.05694 0.
0.534449 0.058382 0.
0.537527 0.0597697 0.
0.540526 0.0610224 0.
0.543515 0.0621731 0.
0.546423 0.0631924 0.
0.549314 0.0642146 0.
0.552033 0.0650636 0.
0.554742 0.0658417 0.
0.557259 0.0663533 0.
0.559777 0.0668555 0.
0.562188 0.0672026 0.
0.564533 0.0675284 0.
0.56686 0.0678403 0.
0.569032 0.0679997 0.
0.571207 0.06816 0.
0.573352 0.0683069 0.
0.575481 0.0684528 0.
0.577611 0.0685991 0.
0.579676 0.0686464 0.
0.581739 0.0686908 0.
0.583796 0.0687322 0.
0.585831 0.0687643 0.
0.587867 0.0687965 0.
0.589897 0.0688219 0.
0.591923 0.068841 0.
0.593949 0.0688602 0.
0.59597 0.0688679 0.
0.597989 0.0688719 0.
0.600009 0.068876 0.
0.602031 0.0688633 0.
0.604054 0.0688507 0.
0.606078 0.0688349 0.
0.608111 0.0688092 0.
0.610144 0.0687835 0.
0.612182 0.0687517 0.
0.614226 0.0687132 0.
0.616271 0.0686748 0.
0.618346 0.0686162 0.
0.620429 0.0685522 0.
0.622518 0.0684819 0.
0.624677 0.0683034 0.
0.626834 0.0681263 0.
0.629017 0.0679497 0.
0.63123 0.0677644 0.
0.63344 0.0675786 0.
0.635876 0.0671233 0.
0.638316 0.0666793 0.
0.640847 0.0662368 0.
0.64343 0.0656822 0.
0.646063 0.0650441 0.
0.648847 0.0641899 0.
0.651654 0.0632516 0.
0.654543 0.0621236 0.
0.657433 0.0609629 0.
0.660417 0.0597439 0.
0.663453 0.0584487 0.
0.66654 0.057014 0.
0.669665 0.0554571 0.
0.672832 0.0537581 0.
0.676031 0.0518821 0.
0.679252 0.0499129 0.
0.682508 0.0478403 0.
0.685807 0.0457369 0.
0.689193 0.0436168 0.
0.692622 0.0414304 0.
0.696129 0.0390535 0.
0.699684 0.0365401 0.
0.703352 0.0339899 0.
0.707203 0.0314858 0.
0.711238 0.029003 0.
0.715356 0.026424 0.
0.719639 0.023881 0.
0.724103 0.0215398 0.
0.7287 0.0194677 0.
0.733441 0.0178593 0.
0.738204 0.0167225 0.
0.742816 0.0160541 0.
0.7471 0.0162477 0.
0.451729 0.0168988 0.
0.456003 0.0169796 0.
0.460559 0.0177302 0.
0.465203 0.0189033 0.
0.469802 0.0206143 0.
0.474248 0.0227159 0.
0.478536 0.0250269 0.
0.482664 0.0274827 0.
0.486683 0.0299567 0.
0.490556 0.0324247 0.
0.494287 0.0349116 0.
0.497919 0.0373329 0.
0.501435 0.0396634 0.
0.504891 0.041912 0.
0.508279 0.0441798 0.
0.51157 0.0464978 0.
0.514815 0.0487815 0.
0.518021 0.0509023 0.
0.521213 0.0528832 0.
0.524362 0.0546944 0.
0.527482 0.0563581 0.
0.530587 0.0578886 0.
0.533674 0.0593508 0.
0.536732 0.0607556 0.
0.539744 0.0620582 0.
0.542742 0.0632762 0.
0.545676 0.0643878 0.
0.548573 0.0654302 0.
0.551335 0.0663476 0.
0.554089 0.0672189 0.
0.556724 0.0678746 0.
0.559336 0.0684662 0.
0.561859 0.0689071 0.
0.564268 0.0692994 0.
0.566674 0.0696877 0.
0.568869 0.0698549 0.
0.571067 0.0700215 0.
0.573236 0.0701856 0.
0.575382 0.0703539 0.
0.577531 0.0705229 0.
0.579612 0.0705848 0.
0.581689 0.0706419 0.
0.583758 0.0706944 0.
0.585799 0.0707298 0.
0.587839 0.0707652 0.
0.589875 0.0707936 0.
0.591906 0.0708157 0.
0.593937 0.0708378 0.
0.595963 0.0708465 0.
0.597988 0.0708511 0.
0.600012 0.0708557 0.
0.60204 0.0708408 0.
0.604067 0.0708259 0.
0.606098 0.0708074 0.
0.608136 0.0707779 0.
0.610175 0.0707486 0.
0.612219 0.070713 0.
0.61427 0.0706708 0.
0.61632 0.0706287 0.
0.618411 0.0705545 0.
0.620511 0.0704734 0.
0.62262 0.0703833 0.
0.624801 0.0701815 0.
0.626978 0.0699821 0.
0.629194 0.0697875 0.
0.63144 0.0695918 0.
0.633696 0.069377 0.
0.636187 0.0688151 0.
0.638672 0.0682773 0.
0.641314 0.0677525 0.
0.64399 0.0671375 0.
0.646742 0.066362 0.
0.649552 0.0654355 0.
0.652392 0.0644282 0.
0.655301 0.0632606 0.
0.658244 0.0620259 0.
0.661229 0.0607605 0.
0.664272 0.059424 0.
0.66734 0.0579558 0.
0.670455 0.05633 0.
0.673601 0.0546011 0.
0.676765 0.0527068 0.
0.67996 0.0507215 0.
0.683184 0.0486548 0.
0.686434 0.0465682 0.
0.689764 0.0444591 0.
0.693146 0.0422779 0.
0.696575 0.039917 0.
0.700075 0.0374226 0.
0.703654 0.0349116 0.
0.707389 0.0324365 0.
0.711315 0.0299958 0.
0.715325 0.0274655 0.
0.719468 0.0249583 0.
0.723806 0.0226311 0.
0.72826 0.020574 0.
0.732847 0.0189331 0.
0.737454 0.0177968 0.
0.741943 0.0171411 0.
0.746133 0.0172159 0.
0.452718 0.0179433 0.
0.456891 0.0180878 0.
0.461305 0.0188186 0.
0.465804 0.020025 0.
0.47025 0.021756 0.
0.474557 0.0238569 0.
0.478728 0.026153 0.
0.482754 0.0285796 0.
0.486669 0.0310207 0.
0.490419 0.03345 0.
0.494055 0.0359035 0.
0.497583 0.0382841 0.
0.50101 0.0405793 0.
0.504395 0.0427977 0.
0.50772 0.0450347 0.
0.510962 0.0473251 0.
0.514163 0.0495989 0.
0.517327 0.0517318 0.
0.520489 0.0537334 0.
0.523615 0.055568 0.
0.526723 0.0572795 0.
0.529823 0.0588328 0.
0.532893 0.0603046 0.
0.535929 0.0617334 0.
0.538952 0.0630804 0.
0.541943 0.0643361 0.
0.544884 0.065499 0.
0.547797 0.0665859 0.
0.55063 0.0676056 0.
0.553424 0.0685598 0.
0.556159 0.0693585 0.
0.558836 0.0700093 0.
0.561442 0.0705282 0.
0.563882 0.0709598 0.
0.566336 0.0713971 0.
0.568606 0.0716129 0.
0.570881 0.0718303 0.
0.573108 0.072038 0.
0.575273 0.0722294 0.
0.57744 0.0724217 0.
0.579538 0.0725053 0.
0.581629 0.072582 0.
0.583712 0.0726511 0.
0.585759 0.0726896 0.
0.587806 0.0727283 0.
0.589849 0.0727599 0.
0.591886 0.0727851 0.
0.593923 0.0728103 0.
0.595955 0.0728202 0.
0.597986 0.0728254 0.
0.600017 0.0728305 0.
0.602051 0.0728131 0.
0.604084 0.0727958 0.
0.606121 0.0727744 0.
0.608166 0.0727408 0.
0.610211 0.0727072 0.
0.612263 0.0726675 0.
0.614322 0.0726216 0.
0.616381 0.0725757 0.
0.618488 0.0724784 0.
0.620603 0.0723717 0.
0.622734 0.0722525 0.
0.624943 0.0720227 0.
0.627147 0.0717959 0.
0.629428 0.0715562 0.
0.631744 0.0713162 0.
0.634082 0.0710312 0.
0.636592 0.0704186 0.
0.639075 0.0698275 0.
0.641818 0.069239 0.
0.644575 0.0685728 0.
0.647433 0.0676498 0.
0.650284 0.0666358 0.
0.653173 0.0655238 0.
0.656083 0.0643391 0.
0.659053 0.0630705 0.
0.662047 0.0617662 0.
0.665091 0.0603713 0.
0.668153 0.0588675 0.
0.671234 0.0572077 0.
0.674351 0.0554497 0.
0.677487 0.0535466 0.
0.680641 0.0515554 0.
0.683831 0.0495023 0.
0.687042 0.0474309 0.
0.690305 0.0453398 0.
0.693631 0.0431705 0.
0.696982 0.0408294 0.
0.700422 0.0383609 0.
0.703925 0.0358836 0.
0.707546 0.0334385 0.
0.711353 0.0310398 0.
0.715265 0.0285573 0.
0.719273 0.0260867 0.
0.723473 0.0237742 0.
0.727792 0.0217207 0.
0.732236 0.0200513 0.
0.736701 0.0188967 0.
0.74106 0.018247 0.
0.745165 0.0182583 0.
0.453712 0.0190211 0.
0.457791 0.0192146 0.
0.462088 0.0199542 0.
0.466446 0.0211983 0.
0.47075 0.0229557 0.
0.474938 0.0250651 0.
0.478986 0.0273438 0.
0.482905 0.0297425 0.
0.486693 0.0321468 0.
0.49033 0.034541 0.
0.493868 0.0369554 0.
0.497286 0.0392959 0.
0.500631 0.041554 0.
0.503946 0.0437391 0.
0.507198 0.0459389 0.
0.510392 0.0481968 0.
0.513541 0.0504512 0.
0.516668 0.0525897 0.
0.519785 0.0545942 0.
0.522892 0.0564567 0.
0.525977 0.0581985 0.
0.529055 0.0597693 0.
0.532105 0.0612596 0.
0.535127 0.062705 0.
0.538141 0.0640754 0.
0.541129 0.0653593 0.
0.544084 0.0665877 0.
0.547007 0.0677179 0.
0.549899 0.0688127 0.
0.552717 0.0698149 0.
0.555503 0.0707172 0.
0.558211 0.071434 0.
0.560921 0.0720796 0.
0.563428 0.0725707 0.
0.565953 0.073072 0.
0.568323 0.0733577 0.
0.570683 0.0736319 0.
0.572978 0.073889 0.
0.575161 0.0741036 0.
0.577347 0.0743194 0.
0.579463 0.074425 0.
0.581569 0.0745212 0.
0.583666 0.0746077 0.
0.585719 0.0746495 0.
0.587773 0.0746913 0.
0.589822 0.0747262 0.
0.591865 0.0747544 0.
0.593908 0.0747827 0.
0.595947 0.0747939 0.
0.597984 0.0747997 0.
0.600021 0.0748053 0.
0.602061 0.0747855 0.
0.604101 0.0747658 0.
0.606144 0.0747414 0.
0.608196 0.0747035 0.
0.610248 0.0746657 0.
0.612308 0.074622 0.
0.614375 0.0745723 0.
0.616442 0.0745226 0.
0.618565 0.0744011 0.
0.620697 0.0742686 0.
0.62285 0.0741198 0.
0.625087 0.0738618 0.
0.627318 0.0736072 0.
0.62968 0.0733125 0.
0.632085 0.0730132 0.
0.634537 0.072625 0.
0.637124 0.0719379 0.
0.639701 0.0712754 0.
0.642477 0.0706145 0.
0.645254 0.069899 0.
0.648159 0.0688791 0.
0.651047 0.0677888 0.
0.653965 0.0665989 0.
0.656886 0.0653742 0.
0.659859 0.0640865 0.
0.662858 0.0627557 0.
0.665897 0.0613156 0.
0.668947 0.0597681 0.
0.672014 0.0580908 0.
0.675089 0.0563107 0.
0.678183 0.0544103 0.
0.6813 0.0524182 0.
0.684442 0.0503848 0.
0.687612 0.0483353 0.
0.690813 0.0462663 0.
0.694071 0.0441171 0.
0.697346 0.0418012 0.
0.700698 0.0393706 0.
0.704134 0.0369232 0.
0.707652 0.0345106 0.
0.711338 0.0321493 0.
0.715143 0.0297172 0.
0.719039 0.0272736 0.
0.723084 0.0249867 0.
0.727276 0.022925 0.
0.731574 0.0212234 0.
0.735909 0.020034 0.
0.740147 0.0193773 0.
0.744161 0.0193438 0.
0.45477 0.0201387 0.
0.458762 0.0203767 0.
0.462942 0.0211401 0.
0.467166 0.0224386 0.
0.471345 0.0242415 0.
0.475403 0.0263514 0.
0.479326 0.0286134 0.
0.483121 0.030987 0.
0.486765 0.0333471 0.
0.490303 0.035704 0.
0.493724 0.0380739 0.
0.497036 0.040375 0.
0.5003 0.0425885 0.
0.503535 0.044736 0.
0.506714 0.0468964 0.
0.509852 0.0491152 0.
0.512946 0.0513397 0.
0.516017 0.0534688 0.
0.519103 0.0554717 0.
0.522176 0.0573565 0.
0.525231 0.0591116 0.
0.528283 0.0607084 0.
0.531314 0.0622169 0.
0.534314 0.0636672 0.
0.537323 0.0650517 0.
0.540315 0.0663706 0.
0.543275 0.067646 0.
0.54621 0.0688152 0.
0.549129 0.0699506 0.
0.551963 0.0709895 0.
0.554797 0.0719998 0.
0.557562 0.0728253 0.
0.560349 0.073595 0.
0.562945 0.0741642 0.
0.565537 0.0747172 0.
0.567998 0.0750652 0.
0.570425 0.0753939 0.
0.572784 0.0757102 0.
0.574981 0.0759379 0.
0.577185 0.0761664 0.
0.579331 0.0763019 0.
0.581468 0.0764295 0.
0.583596 0.0765458 0.
0.58566 0.0765911 0.
0.587724 0.0766366 0.
0.589783 0.0766747 0.
0.591835 0.0767055 0.
0.593886 0.0767363 0.
0.595934 0.0767484 0.
0.597981 0.0767544 0.
0.600028 0.0767603 0.
0.602077 0.0767386 0.
0.604127 0.0767169 0.
0.606179 0.0766898 0.
0.60824 0.0766478 0.
0.610301 0.0766058 0.
0.612374 0.076557 0.
0.614455 0.0765017 0.
0.616535 0.0764467 0.
0.618688 0.0762914 0.
0.620846 0.0761267 0.
0.623034 0.0759436 0.
0.625298 0.0756646 0.
0.62755 0.0753906 0.
0.629984 0.0750385 0.
0.632459 0.0746874 0.
0.635026 0.0741916 0.
0.637687 0.073435 0.
0.64037 0.0726903 0.
0.643189 0.0719277 0.
0.646018 0.0710815 0.
0.648921 0.0700201 0.
0.651833 0.068889 0.
0.65477 0.0676546 0.
0.657704 0.0663977 0.
0.660672 0.065087 0.
0.663669 0.063727 0.
0.666694 0.0622594 0.
0.669726 0.0606693 0.
0.672773 0.0589825 0.
0.675826 0.0571848 0.
0.67887 0.0552912 0.
0.681943 0.0533103 0.
0.685033 0.0513015 0.
0.688151 0.0492798 0.
0.691293 0.0472371 0.
0.69447 0.0451192 0.
0.697668 0.0428355 0.
0.700921 0.0404491 0.
0.704274 0.0380417 0.
0.707696 0.0356655 0.
0.711259 0.0333337 0.
0.714938 0.0309609 0.
0.718732 0.0285432 0.
0.722629 0.0262741 0.
0.72668 0.0242064 0.
0.73084 0.0224641 0.
0.735036 0.0212196 0.
0.739161 0.0205379 0.
0.743082 0.0204444 0.
0.455899 0.0212965 0.
0.459797 0.0215718 0.
0.463868 0.0223843 0.
0.467969 0.0237601 0.
0.472013 0.0256082 0.
0.475931 0.0277086 0.
0.479729 0.0299673 0.
0.483378 0.0323054 0.
0.486892 0.0346163 0.
0.490317 0.0369358 0.
0.493614 0.0392605 0.
0.496829 0.0415161 0.
0.500005 0.0436796 0.
0.503151 0.0457857 0.
0.506255 0.0479015 0.
0.509328 0.050075 0.
0.512358 0.0522608 0.
0.515383 0.0543717 0.
0.518423 0.0563671 0.
0.521463 0.058267 0.
0.52449 0.0600293 0.
0.527514 0.0616529 0.
0.530519 0.0631732 0.
0.533512 0.0646304 0.
0.536516 0.066031 0.
0.539504 0.0673749 0.
0.542468 0.0686826 0.
0.545408 0.0698948 0.
0.548327 0.0710462 0.
0.551201 0.0721412 0.
0.554073 0.073225 0.
0.556897 0.0741652 0.
0.559723 0.0750023 0.
0.562393 0.0756265 0.
0.565043 0.0762099 0.
0.567598 0.0766575 0.
0.570081 0.0770851 0.
0.57252 0.077504 0.
0.57475 0.0777476 0.
0.576988 0.0779922 0.
0.579177 0.0781625 0.
0.581354 0.0783277 0.
0.583522 0.0784803 0.
0.585597 0.0785298 0.
0.587672 0.0785794 0.
0.589741 0.0786212 0.
0.591803 0.0786547 0.
0.593864 0.0786882 0.
0.595922 0.0787013 0.
0.597978 0.0787076 0.
0.600035 0.0787136 0.
0.602094 0.0786899 0.
0.604154 0.0786662 0.
0.606216 0.0786362 0.
0.608287 0.0785896 0.
0.610357 0.0785431 0.
0.612444 0.0784883 0.
0.614542 0.0784264 0.
0.616638 0.0783648 0.
0.61883 0.0781683 0.
0.621024 0.0779645 0.
0.623264 0.0777391 0.
0.62558 0.0774306 0.
0.627884 0.0771276 0.
0.63042 0.0766606 0.
0.632958 0.0762165 0.
0.635599 0.0756117 0.
0.638285 0.0748445 0.
0.641048 0.0740468 0.
0.643905 0.0732045 0.
0.646787 0.0722303 0.
0.649705 0.0711145 0.
0.652632 0.0699477 0.
0.655571 0.0686989 0.
0.658524 0.0674147 0.
0.661484 0.0660812 0.
0.664476 0.0646896 0.
0.667482 0.0632022 0.
0.6705 0.0615786 0.
0.673519 0.0598814 0.
0.676549 0.058077 0.
0.679555 0.0561914 0.
0.682577 0.0542309 0.
0.68561 0.0522527 0.
0.688669 0.050263 0.
0.691753 0.04825 0.
0.694851 0.0461679 0.
0.697964 0.0439262 0.
0.701115 0.041588 0.
0.70436 0.039231 0.
0.707686 0.0368971 0.
0.711123 0.0345992 0.
0.714677 0.0322773 0.
0.718345 0.029903 0.
0.722118 0.027637 0.
0.726019 0.0255614 0.
0.730046 0.0237749 0.
0.734103 0.0224636 0.
0.73811 0.0217293 0.
0.741954 0.0215675 0.
0.457062 0.0224871 0.
0.460866 0.0228088 0.
0.464827 0.0236934 0.
0.468796 0.0251506 0.
0.472693 0.0270237 0.
0.476485 0.0291302 0.
0.480142 0.0313817 0.
0.483647 0.0336739 0.
0.487048 0.0359456 0.
0.490342 0.0382231 0.
0.493515 0.0404962 0.
0.496632 0.0427001 0.
0.499718 0.0448125 0.
0.502775 0.0468744 0.
0.5058 0.0489445 0.
0.508805 0.0510676 0.
0.511774 0.0532105 0.
0.514755 0.0552958 0.
0.517757 0.0572852 0.
0.520766 0.0591881 0.
0.523756 0.0609577 0.
0.526754 0.0626061 0.
0.529744 0.0641339 0.
0.532728 0.0655986 0.
0.535715 0.0670126 0.
0.538705 0.0683768 0.
0.541667 0.0697048 0.
0.544605 0.0709535 0.
0.547527 0.0721288 0.
0.550437 0.0732701 0.
0.553332 0.0743934 0.
0.556181 0.0753997 0.
0.559019 0.076285 0.
0.561787 0.0770291 0.
0.564521 0.0776791 0.
0.567187 0.0782277 0.
0.569726 0.078755 0.
0.572253 0.0792957 0.
0.574517 0.0795542 0.
0.57679 0.079813 0.
0.579022 0.0800135 0.
0.581236 0.0802154 0.
0.583444 0.0804088 0.
0.58553 0.0804624 0.
0.587618 0.0805162 0.
0.589699 0.0805616 0.
0.591769 0.0805975 0.
0.59384 0.0806334 0.
0.595908 0.0806472 0.
0.597975 0.0806535 0.
0.600042 0.0806595 0.
0.602112 0.080634 0.
0.604182 0.0806086 0.
0.606255 0.080576 0.
0.608335 0.0805255 0.
0.610415 0.080475 0.
0.612518 0.0804128 0.
0.614632 0.0803429 0.
0.616746 0.0802724 0.
0.618976 0.0800356 0.
0.621204 0.0797956 0.
0.623499 0.0795284 0.
0.625869 0.0791911 0.
0.628245 0.0788464 0.
0.630875 0.0782582 0.
0.633482 0.0777102 0.
0.63622 0.0769745 0.
0.638958 0.0761492 0.
0.641772 0.0752882 0.
0.64463 0.074418 0.
0.647545 0.0733549 0.
0.650479 0.0721993 0.
0.653427 0.070988 0.
0.656371 0.0697232 0.
0.659327 0.0684242 0.
0.66229 0.0670716 0.
0.665277 0.065649 0.
0.668266 0.0641392 0.
0.671256 0.0625007 0.
0.674254 0.0607938 0.
0.677253 0.0589912 0.
0.68023 0.0571139 0.
0.683205 0.0551785 0.
0.686189 0.0532331 0.
0.689178 0.0512786 0.
0.6922 0.0492975 0.
0.695228 0.0472497 0.
0.698258 0.045057 0.
0.701316 0.0427679 0.
0.704438 0.0404672 0.
0.707657 0.0381826 0.
0.710964 0.0359328 0.
0.714389 0.033652 0.
0.717929 0.0313209 0.
0.721578 0.0290642 0.
0.725341 0.026974 0.
0.72923 0.0251479 0.
0.73316 0.0237689 0.
0.737047 0.0229588 0.
0.74081 0.0227199 0.
0.45823 0.0237093 0.
0.461937 0.0240981 0.
0.465774 0.0250651 0.
0.469604 0.0265868 0.
0.473371 0.0284904 0.
0.477033 0.03061 0.
0.480535 0.0328369 0.
0.483918 0.0350918 0.
0.487187 0.0373214 0.
0.490342 0.03955 0.
0.493408 0.0417695 0.
0.496427 0.0439211 0.
0.499422 0.0459836 0.
0.502392 0.0479998 0.
0.505339 0.0500223 0.
0.508274 0.0520884 0.
0.511193 0.054187 0.
0.514136 0.0562465 0.
0.517105 0.0582262 0.
0.520074 0.0601224 0.
0.523029 0.0618997 0.
0.526002 0.0635638 0.
0.528978 0.0651007 0.
0.531951 0.0665769 0.
0.534931 0.0679988 0.
0.537915 0.069372 0.
0.540871 0.0707189 0.
0.543811 0.0720068 0.
0.546736 0.0732043 0.
0.549662 0.0743655 0.
0.552564 0.0755022 0.
0.555443 0.0765877 0.
0.558307 0.0775408 0.
0.561157 0.0784062 0.
0.563967 0.079113 0.
0.566744 0.0797478 0.
0.569298 0.0803361 0.
0.571863 0.08096 0.
0.574208 0.0812576 0.
0.576566 0.0815471 0.
0.578864 0.0818036 0.
0.581108 0.0820652 0.
0.583352 0.0823219 0.
0.585454 0.0823812 0.
0.587557 0.0824407 0.
0.589652 0.0824908 0.
0.591733 0.082529 0.
0.593814 0.0825673 0.
0.595893 0.0825817 0.
0.597972 0.0825875 0.
0.600051 0.0825931 0.
0.602133 0.0825661 0.
0.604214 0.0825391 0.
0.606298 0.082504 0.
0.608388 0.0824498 0.
0.610477 0.0823958 0.
0.612598 0.0823198 0.
0.614734 0.0822321 0.
0.616878 0.082137 0.
0.619178 0.0818315 0.
0.621462 0.0815312 0.
0.623833 0.0812059 0.
0.62626 0.08084 0.
0.628714 0.0804415 0.
0.631364 0.0797952 0.
0.634041 0.0791463 0.
0.636858 0.0783116 0.
0.639659 0.0774216 0.
0.64252 0.0764864 0.
0.645398 0.0755541 0.
0.64832 0.0744457 0.
0.651256 0.0732652 0.
0.654208 0.0720284 0.
0.657155 0.0707482 0.
0.660116 0.0694322 0.
0.663079 0.0680598 0.
0.666058 0.0666145 0.
0.669042 0.0650795 0.
0.672013 0.0634351 0.
0.674982 0.0617217 0.
0.677952 0.0599268 0.
0.680895 0.058061 0.
0.683832 0.0561513 0.
0.68677 0.0542414 0.
0.689698 0.0523215 0.
0.692647 0.050377 0.
0.695611 0.0483604 0.
0.698562 0.0462165 0.
0.701536 0.0439823 0.
0.704544 0.0417383 0.
0.707642 0.0395067 0.
0.710821 0.0373048 0.
0.714104 0.03508 0.
0.717514 0.0327855 0.
0.721031 0.0305439 0.
0.724673 0.0284422 0.
0.728423 0.0265771 0.
0.732232 0.0251322 0.
0.736004 0.0242354 0.
0.73967 0.0239175 0.
0.459413 0.0249762 0.
0.46302 0.0254461 0.
0.466728 0.0265063 0.
0.470432 0.0280934 0.
0.474075 0.0300335 0.
0.477582 0.0321519 0.
0.480948 0.0343583 0.
0.484199 0.0365766 0.
0.48732 0.0387552 0.
0.490347 0.0409317 0.
0.493304 0.043094 0.
0.496228 0.0451904 0.
0.49913 0.0471995 0.
0.502014 0.0491709 0.
0.504889 0.0511438 0.
0.507761 0.0531548 0.
0.510638 0.055205 0.
0.513537 0.0572305 0.
0.516463 0.0591925 0.
0.519389 0.0610748 0.
0.522319 0.0628609 0.
0.525269 0.0645294 0.
0.528233 0.0660809 0.
0.531193 0.0675676 0.
0.534163 0.068991 0.
0.537139 0.070372 0.
0.540088 0.0717335 0.
0.543024 0.0730464 0.
0.545948 0.0742653 0.
0.548883 0.0754369 0.
0.55179 0.0765936 0.
0.554686 0.0777301 0.
0.557574 0.0787491 0.
0.560463 0.0797078 0.
0.563299 0.080447 0.
0.566114 0.0811347 0.
0.568741 0.0818095 0.
0.571382 0.0825388 0.
0.573858 0.0829325 0.
0.576324 0.0832707 0.
0.578703 0.0835885 0.
0.580978 0.0839102 0.
0.583256 0.0842321 0.
0.585377 0.0842997 0.
0.587496 0.084365 0.
0.589605 0.0844199 0.
0.591696 0.0844605 0.
0.593788 0.0845012 0.
0.595878 0.0845161 0.
0.597969 0.0845216 0.
0.600059 0.0845267 0.
0.602153 0.0844981 0.
0.604247 0.0844695 0.
0.606342 0.0844319 0.
0.60844 0.0843741 0.
0.610538 0.0843164 0.
0.612679 0.0842256 0.
0.614837 0.08412 0.
0.617018 0.0839956 0.
0.619388 0.0836202 0.
0.621739 0.0832534 0.
0.624214 0.0828514 0.
0.626737 0.0824269 0.
0.629311 0.0819113 0.
0.631998 0.0811693 0.
0.634711 0.0804388 0.
0.637546 0.0795927 0.
0.640396 0.0786514 0.
0.643283 0.0776555 0.
0.646184 0.0766575 0.
0.649106 0.0755127 0.
0.652039 0.0743114 0.
0.654991 0.0730618 0.
0.657932 0.0717747 0.
0.660883 0.0704435 0.
0.663847 0.0690502 0.
0.666816 0.0675904 0.
0.669789 0.0660321 0.
0.672751 0.0643857 0.
0.675696 0.0626708 0.
0.67863 0.0608888 0.
0.681541 0.0590391 0.
0.684439 0.057159 0.
0.687334 0.0552865 0.
0.690212 0.0534007 0.
0.693087 0.0514941 0.
0.69598 0.0495169 0.
0.698863 0.0474187 0.
0.701755 0.0452433 0.
0.704663 0.0430538 0.
0.70763 0.0408854 0.
0.710681 0.0387299 0.
0.713817 0.0365639 0.
0.717079 0.0343218 0.
0.720462 0.032092 0.
0.723976 0.0299836 0.
0.727599 0.0280805 0.
0.731282 0.026564 0.
0.734943 0.0255805 0.
0.738506 0.0251736 0.
0.46064 0.0262982 0.
0.464145 0.0268624 0.
0.467737 0.0280372 0.
0.471321 0.0296981 0.
0.474813 0.0316658 0.
0.478167 0.0337825 0.
0.481391 0.0359667 0.
0.48448 0.0381276 0.
0.487457 0.040254 0.
0.490362 0.0423755 0.
0.49321 0.0444752 0.
0.496034 0.0465076 0.
0.498848 0.0484663 0.
0.50165 0.0503918 0.
0.504449 0.0523105 0.
0.507265 0.0542627 0.
0.510097 0.0562575 0.
0.51295 0.0582445 0.
0.515827 0.0601798 0.
0.518714 0.0620456 0.
0.521617 0.0638348 0.
0.524553 0.0655049 0.
0.5275 0.0670719 0.
0.530443 0.0685639 0.
0.533404 0.0699885 0.
0.536368 0.0713782 0.
0.53931 0.0727492 0.
0.542239 0.0740761 0.
0.545166 0.0753185 0.
0.548098 0.0765009 0.
0.551009 0.0776688 0.
0.553917 0.0788314 0.
0.556832 0.0799025 0.
0.55973 0.0808951 0.
0.562588 0.0817193 0.
0.565439 0.082484 0.
0.568156 0.0832509 0.
0.570866 0.08408 0.
0.57347 0.0845859 0.
0.576023 0.0849655 0.
0.578471 0.0853361 0.
0.580765 0.0857024 0.
0.583082 0.0860731 0.
0.585249 0.0861703 0.
0.587407 0.0862554 0.
0.589549 0.0863255 0.
0.591653 0.086367 0.
0.593757 0.0864086 0.
0.595861 0.0864233 0.
0.597965 0.086428 0.
0.60007 0.0864323 0.
0.602178 0.0864025 0.
0.604285 0.0863727 0.
0.606395 0.0863336 0.
0.608508 0.0862742 0.
0.61062 0.0862148 0.
0.612801 0.0860966 0.
0.614999 0.08596 0.
0.617237 0.0857876 0.
0.61966 0.0853568 0.
0.622057 0.0849463 0.
0.624635 0.0844741 0.
0.627248 0.0839929 0.
0.629931 0.0833435 0.
0.632654 0.0825063 0.
0.635427 0.08167 0.
0.63828 0.080789 0.
0.641149 0.0798196 0.
0.644052 0.0787922 0.
0.646977 0.0777405 0.
0.649898 0.0765708 0.
0.652824 0.0753465 0.
0.655771 0.0740895 0.
0.658715 0.0727993 0.
0.661651 0.071456 0.
0.664599 0.0700448 0.
0.667561 0.0685707 0.
0.670521 0.0669966 0.
0.673461 0.0653528 0.
0.676392 0.0636428 0.
0.679295 0.0618748 0.
0.68217 0.0600445 0.
0.685034 0.0581949 0.
0.687887 0.0563621 0.
0.690716 0.0545153 0.
0.693531 0.052645 0.
0.696345 0.0507123 0.
0.699154 0.0486685 0.
0.701961 0.0465586 0.
0.704778 0.0444248 0.
0.707627 0.0423172 0.
0.710538 0.0402249 0.
0.713527 0.0381104 0.
0.716622 0.0359382 0.
0.719852 0.0337338 0.
0.723218 0.0316191 0.
0.726716 0.0296799 0.
0.730271 0.0280836 0.
0.733816 0.0270103 0.
0.737281 0.0265002 0.
0.461919 0.0276856 0.
0.465325 0.0283733 0.
0.468802 0.029673 0.
0.472244 0.0314048 0.
0.475572 0.0333897 0.
0.478766 0.0355024 0.
0.481817 0.0376348 0.
0.484746 0.0397384 0.
0.487586 0.0418101 0.
0.490365 0.0438655 0.
0.493109 0.0458979 0.
0.495842 0.0478683 0.
0.498566 0.0497771 0.
0.501285 0.0516511 0.
0.504014 0.0535129 0.
0.506774 0.0554016 0.
0.509554 0.0573376 0.
0.512355 0.0592821 0.
0.515188 0.0611842 0.
0.51804 0.063031 0.
0.520924 0.0648156 0.
0.523839 0.0664874 0.
0.526772 0.0680705 0.
0.529706 0.0695667 0.
0.532654 0.0709944 0.
0.535602 0.0723904 0.
0.538539 0.0737668 0.
0.541463 0.0751062 0.
0.544388 0.0763704 0.
0.547322 0.0775621 0.
0.550247 0.0787419 0.
0.55317 0.0799213 0.
0.556096 0.0810245 0.
0.559 0.0820523 0.
0.561881 0.0829634 0.
0.564753 0.0837873 0.
0.567537 0.0846064 0.
0.570272 0.085455 0.
0.572939 0.0860773 0.
0.57554 0.0865438 0.
0.578096 0.0870249 0.
0.580461 0.0874447 0.
0.582853 0.0878724 0.
0.585091 0.0880169 0.
0.587302 0.088132 0.
0.589488 0.0882249 0.
0.591606 0.0882673 0.
0.593725 0.0883098 0.
0.595843 0.0883244 0.
0.597962 0.0883283 0.
0.600081 0.0883316 0.
0.602203 0.0883003 0.
0.604326 0.088269 0.
0.606452 0.0882279 0.
0.608582 0.0881666 0.
0.610712 0.0881054 0.
0.612949 0.0879476 0.
0.615207 0.0877662 0.
0.617534 0.0875185 0.
0.620031 0.0870073 0.
0.622501 0.0865204 0.
0.625162 0.0859745 0.
0.62782 0.0854491 0.
0.630567 0.0846889 0.
0.633322 0.0837904 0.
0.636148 0.082882 0.
0.639017 0.0819695 0.
0.641902 0.0809518 0.
0.644813 0.0799023 0.
0.647749 0.0788154 0.
0.650675 0.0776292 0.
0.653605 0.076383 0.
0.656547 0.0751185 0.
0.659487 0.0738237 0.
0.66242 0.0724673 0.
0.665356 0.0710418 0.
0.668299 0.0695534 0.
0.671242 0.0679717 0.
0.674165 0.0663315 0.
0.677074 0.0646311 0.
0.679954 0.0628784 0.
0.682796 0.0610712 0.
0.685626 0.0592554 0.
0.688441 0.0574617 0.
0.691222 0.055657 0.
0.693981 0.0538261 0.
0.696722 0.0519402 0.
0.699451 0.049955 0.
0.702175 0.0479151 0.
0.704891 0.0458493 0.
0.707636 0.0437935 0.
0.710417 0.0417675 0.
0.713259 0.0397189 0.
0.716187 0.0376123 0.
0.719238 0.0354633 0.
0.722432 0.0333508 0.
0.725775 0.0313821 0.
0.729206 0.0297082 0.
0.732628 0.0285362 0.
0.735994 0.0279007 0.
0.463216 0.029154 0.
0.466522 0.0299985 0.
0.469862 0.0314043 0.
0.473138 0.033188 0.
0.47629 0.0351853 0.
0.479299 0.0372618 0.
0.482172 0.0393319 0.
0.484951 0.0413749 0.
0.487651 0.04338 0.
0.490318 0.0453714 0.
0.492966 0.0473336 0.
0.495613 0.0492454 0.
0.498253 0.0511059 0.
0.500894 0.0529273 0.
0.503559 0.0547323 0.
0.506265 0.0565597 0.
0.508994 0.0584396 0.
0.511748 0.0603389 0.
0.514541 0.062205 0.
0.517372 0.0640333 0.
0.520236 0.0658083 0.
0.523136 0.0674817 0.
0.526058 0.0690766 0.
0.528982 0.0705802 0.
0.531917 0.0720122 0.
0.534854 0.0734095 0.
0.537783 0.0747888 0.
0.540702 0.076141 0.
0.543629 0.0774247 0.
0.546572 0.0786262 0.
0.549507 0.0798137 0.
0.552433 0.0810038 0.
0.555366 0.0821426 0.
0.558277 0.0831952 0.
0.561174 0.0841691 0.
0.564056 0.0850211 0.
0.56688 0.0858731 0.
0.569643 0.0867634 0.
0.572379 0.0875216 0.
0.57504 0.0880912 0.
0.577706 0.0887027 0.
0.580145 0.0891771 0.
0.582616 0.0896611 0.
0.584932 0.0898565 0.
0.587196 0.0900011 0.
0.589429 0.0901196 0.
0.591561 0.0901626 0.
0.593694 0.0902055 0.
0.595826 0.0902199 0.
0.597959 0.0902229 0.
0.600092 0.0902254 0.
0.602229 0.0901927 0.
0.604366 0.0901601 0.
0.606507 0.0901174 0.
0.608655 0.0900548 0.
0.610803 0.0899926 0.
0.613101 0.0897914 0.
0.61542 0.0895646 0.
0.617842 0.0892328 0.
0.620414 0.0886402 0.
0.622981 0.0880676 0.
0.625712 0.087437 0.
0.628433 0.0868196 0.
0.631224 0.0859491 0.
0.634008 0.0850183 0.
0.636871 0.0840772 0.
0.639755 0.0831296 0.
0.64265 0.0820771 0.
0.645564 0.0810045 0.
0.648508 0.0798888 0.
0.651436 0.0786863 0.
0.654363 0.0774245 0.
0.657307 0.0761556 0.
0.660245 0.074854 0.
0.663176 0.0734821 0.
0.666103 0.0720449 0.
0.669032 0.0705426 0.
0.671957 0.0689597 0.
0.674859 0.0673251 0.
0.67775 0.0656364 0.
0.680611 0.0638977 0.
0.683426 0.0621145 0.
0.686224 0.0603359 0.
0.689004 0.058578 0.
0.691742 0.0568165 0.
0.694452 0.0550249 0.
0.697135 0.0531819 0.
0.699789 0.0512553 0.
0.70243 0.0492817 0.
0.705053 0.0472884 0.
0.707688 0.0452955 0.
0.710359 0.0433231 0.
0.713065 0.0413471 0.
0.715833 0.0393152 0.
0.718702 0.0372315 0.
0.721699 0.035152 0.
0.724855 0.0331659 0.
0.728129 0.0314341 0.
0.731423 0.0301491 0.
0.734683 0.029384 0.
0.464478 0.0307302 0.
0.46766 0.03172 0.
0.470839 0.0332033 0.
0.473928 0.0350256 0.
0.476878 0.0370023 0.
0.479694 0.039019 0.
0.482403 0.0410231 0.
0.485029 0.0429949 0.
0.487608 0.0449357 0.
0.490177 0.0468625 0.
0.49274 0.0487591 0.
0.495311 0.0506204 0.
0.497871 0.0524328 0.
0.50045 0.0542077 0.
0.503064 0.0559633 0.
0.505719 0.0577327 0.
0.508404 0.0595598 0.
0.511119 0.0614117 0.
0.513887 0.0632457 0.
0.516703 0.0650553 0.
0.519551 0.0668173 0.
0.522442 0.0684931 0.
0.525357 0.0700945 0.
0.528271 0.0716078 0.
0.531194 0.0730456 0.
0.53412 0.0744415 0.
0.537044 0.0758224 0.
0.539964 0.0771838 0.
0.542897 0.0784804 0.
0.545849 0.0796985 0.
0.54879 0.0808967 0.
0.551716 0.0820899 0.
0.55465 0.0832486 0.
0.557565 0.0843283 0.
0.560476 0.0853466 0.
0.563367 0.0862354 0.
0.566225 0.0871258 0.
0.569024 0.0880585 0.
0.571821 0.0889229 0.
0.574549 0.0895933 0.
0.577278 0.0902778 0.
0.57978 0.0907772 0.
0.58229 0.0912732 0.
0.584697 0.0915571 0.
0.587052 0.0917945 0.
0.589369 0.0919944 0.
0.591517 0.0920381 0.
0.593665 0.0920818 0.
0.595812 0.0920961 0.
0.597958 0.0920987 0.
0.600105 0.0921006 0.
0.602255 0.0920659 0.
0.604405 0.0920313 0.
0.606562 0.0919846 0.
0.608727 0.0919164 0.
0.610892 0.0918485 0.
0.613303 0.0915443 0.
0.615718 0.091226 0.
0.618222 0.090798 0.
0.620819 0.0901789 0.
0.623462 0.0895641 0.
0.626255 0.0888739 0.
0.629047 0.0881409 0.
0.631875 0.0871905 0.
0.634696 0.0862093 0.
0.63758 0.0852592 0.
0.640479 0.0842766 0.
0.64338 0.0831966 0.
0.6463 0.0821066 0.
0.649241 0.0809678 0.
0.652173 0.0797488 0.
0.655104 0.0784755 0.
0.658045 0.0772035 0.
0.66098 0.0758953 0.
0.663912 0.0745064 0.
0.666839 0.0730596 0.
0.669759 0.0715434 0.
0.672669 0.0699632 0.
0.675555 0.0683334 0.
0.678429 0.0666579 0.
0.68127 0.064936 0.
0.684065 0.0631756 0.
0.686837 0.0614341 0.
0.689587 0.0597124 0.
0.692291 0.0579884 0.
0.694958 0.0562346 0.
0.697591 0.0544304 0.
0.70019 0.0525552 0.
0.702759 0.0506431 0.
0.705304 0.048714 0.
0.70784 0.0467881 0.
0.710398 0.0448738 0.
0.712993 0.0429588 0.
0.715618 0.0410079 0.
0.718313 0.0389995 0.
0.721111 0.0369773 0.
0.724053 0.0350026 0.
0.727131 0.0332333 0.
0.730271 0.0318522 0.
0.733409 0.030965 0.
0.465661 0.0324153 0.
0.468689 0.0335163 0.
0.47168 0.0350676 0.
0.474555 0.0368881 0.
0.477294 0.0388129 0.
0.479932 0.0407641 0.
0.482481 0.0426914 0.
0.484981 0.0445947 0.
0.487464 0.0464768 0.
0.489948 0.0483411 0.
0.492441 0.0501839 0.
0.494941 0.0519976 0.
0.497444 0.0537704 0.
0.499983 0.0555092 0.
0.502553 0.0572223 0.
0.505169 0.0589419 0.
0.507821 0.0607218 0.
0.510508 0.0625256 0.
0.513262 0.064329 0.
0.516066 0.0661154 0.
0.5189 0.0678601 0.
0.521779 0.0695338 0.
0.524683 0.0711372 0.
0.527585 0.0726601 0.
0.530496 0.0741011 0.
0.533416 0.0754943 0.
0.53634 0.076876 0.
0.539262 0.0782435 0.
0.542204 0.0795491 0.
0.545161 0.0807851 0.
0.548099 0.0819934 0.
0.551023 0.0831843 0.
0.55396 0.0843527 0.
0.556889 0.0854643 0.
0.559804 0.0865131 0.
0.562705 0.0874405 0.
0.565581 0.0883696 0.
0.568414 0.089337 0.
0.57125 0.0902349 0.
0.574008 0.0909633 0.
0.57676 0.091711 0.
0.579355 0.0923034 0.
0.581931 0.092853 0.
0.584445 0.0932414 0.
0.586898 0.0935794 0.
0.58931 0.0938692 0.
0.591472 0.0939136 0.
0.593635 0.093958 0.
0.595797 0.0939724 0.
0.597957 0.0939745 0.
0.600118 0.0939757 0.
0.602282 0.0939391 0.
0.604445 0.0939025 0.
0.606617 0.0938516 0.
0.6088 0.0937776 0.
0.610982 0.093704 0.
0.613525 0.0932784 0.
0.616058 0.0928469 0.
0.618658 0.0922944 0.
0.621293 0.0916122 0.
0.623998 0.0909247 0.
0.62681 0.0902197 0.
0.62965 0.0894152 0.
0.63251 0.0884168 0.
0.635365 0.0874013 0.
0.638259 0.0864321 0.
0.641164 0.0854167 0.
0.644077 0.0843195 0.
0.647004 0.0832145 0.
0.649945 0.0820573 0.
0.652873 0.0808247 0.
0.655808 0.0795425 0.
0.658752 0.0782688 0.
0.661683 0.0769539 0.
0.664611 0.0755523 0.
0.667541 0.074092 0.
0.670459 0.0725668 0.
0.673357 0.070995 0.
0.676228 0.0693743 0.
0.679083 0.0677119 0.
0.681904 0.0660114 0.
0.684684 0.0642773 0.
0.687434 0.0625702 0.
0.690157 0.0608857 0.
0.692833 0.0591939 0.
0.695471 0.0574712 0.
0.698067 0.0557038 0.
0.700625 0.053871 0.
0.703143 0.0520103 0.
0.705626 0.050137 0.
0.708087 0.0482692 0.
0.710548 0.0464134 0.
0.713036 0.0445561 0.
0.715549 0.0426773 0.
0.718093 0.040754 0.
0.720706 0.038798 0.
0.72343 0.0368665 0.
0.726286 0.0350894 0.
0.729238 0.0336397 0.
0.732223 0.0326441 0.
0.466691 0.0341965 0.
0.469538 0.0353787 0.
0.472312 0.0369596 0.
0.474968 0.0387506 0.
0.477522 0.0406165 0.
0.479997 0.0424905 0.
0.482419 0.0443444 0.
0.484831 0.04619 0.
0.487239 0.0480191 0.
0.489662 0.0498347 0.
0.492097 0.051631 0.
0.494545 0.0534018 0.
0.497017 0.0551475 0.
0.499524 0.0568541 0.
0.502062 0.0585323 0.
0.504648 0.060208 0.
0.507278 0.0619396 0.
0.50995 0.0637007 0.
0.512697 0.0654752 0.
0.515483 0.0672288 0.
0.518307 0.0689547 0.
0.521176 0.0706192 0.
0.52406 0.0722175 0.
0.526948 0.0737478 0.
0.529854 0.0751907 0.
0.532768 0.0765786 0.
0.535688 0.0779613 0.
0.538618 0.0793319 0.
0.541565 0.0806439 0.
0.54451 0.0818922 0.
0.547441 0.0831039 0.
0.550372 0.0842937 0.
0.553319 0.085471 0.
0.556246 0.0866072 0.
0.559163 0.0876751 0.
0.562077 0.0886404 0.
0.564969 0.0896004 0.
0.567829 0.0905738 0.
0.570677 0.0914936 0.
0.573464 0.0922988 0.
0.576241 0.0931177 0.
0.578922 0.0938088 0.
0.581567 0.0944079 0.
0.584189 0.0948963 0.
0.58674 0.0953283 0.
0.589245 0.0957218 0.
0.591424 0.0957667 0.
0.593604 0.0958117 0.
0.595781 0.0958264 0.
0.597957 0.0958283 0.
0.600132 0.0958293 0.
0.60231 0.0957916 0.
0.604487 0.0957539 0.
0.606676 0.095699 0.
0.608877 0.0956192 0.
0.611077 0.09554 0.
0.613753 0.094982 0.
0.616409 0.0944414 0.
0.619092 0.093769 0.
0.621766 0.0930257 0.
0.624537 0.0922648 0.
0.627369 0.0915113 0.
0.630232 0.0906303 0.
0.633115 0.0896155 0.
0.635998 0.0885938 0.
0.638901 0.0876089 0.
0.641809 0.0865637 0.
0.644723 0.0854566 0.
0.647656 0.0843361 0.
0.6506 0.0831653 0.
0.653531 0.0819208 0.
0.656461 0.0806368 0.
0.659404 0.0793613 0.
0.662336 0.0780396 0.
0.665259 0.0766287 0.
0.66818 0.0751593 0.
0.6711 0.0736283 0.
0.673996 0.0720676 0.
0.676851 0.0704625 0.
0.679691 0.0688152 0.
0.682492 0.0671377 0.
0.685252 0.0654382 0.
0.687985 0.0637646 0.
0.690685 0.0621151 0.
0.693339 0.0604547 0.
0.695958 0.0587545 0.
0.69853 0.0570205 0.
0.701061 0.055231 0.
0.703543 0.0534109 0.
0.705983 0.0515836 0.
0.708393 0.0497647 0.
0.710784 0.0479571 0.
0.713182 0.0461565 0.
0.715602 0.0443369 0.
0.718037 0.0424893 0.
0.720495 0.0406131 0.
0.723027 0.0387293 0.
0.725662 0.0369701 0.
0.728405 0.0354898 0.
0.731214 0.0344044 0.
0.467499 0.0360348 0.
0.470146 0.0372783 0.
0.472708 0.0388796 0.
0.475179 0.0406338 0.
0.477573 0.0424316 0.
0.479923 0.044231 0.
0.482268 0.046029 0.
0.484616 0.0478254 0.
0.486975 0.0496173 0.
0.489354 0.0513937 0.
0.49175 0.0531495 0.
0.494177 0.0548876 0.
0.496635 0.0566113 0.
0.499112 0.0582884 0.
0.501627 0.05993 0.
0.504193 0.0615566 0.
0.506812 0.0632435 0.
0.509482 0.0649692 0.
0.512212 0.0667056 0.
0.514983 0.0684267 0.
0.517801 0.0701285 0.
0.520654 0.0717706 0.
0.523519 0.0733624 0.
0.526401 0.0748953 0.
0.529302 0.0763329 0.
0.53221 0.0777141 0.
0.535133 0.0791016 0.
0.538067 0.0804764 0.
0.540999 0.081782 0.
0.543934 0.0830397 0.
0.546868 0.0842569 0.
0.549804 0.0854387 0.
0.552752 0.0866229 0.
0.555681 0.0877849 0.
0.558603 0.0888608 0.
0.561534 0.0898516 0.
0.564434 0.0908304 0.
0.567291 0.0918133 0.
0.570153 0.0927573 0.
0.572975 0.0936243 0.
0.57579 0.0945051 0.
0.578566 0.0952652 0.
0.581276 0.0958822 0.
0.583959 0.0964509 0.
0.586583 0.0970201 0.
0.589173 0.0975564 0.
0.591371 0.0976033 0.
0.593571 0.0976503 0.
0.595765 0.097666 0.
0.597956 0.097668 0.
0.600147 0.097669 0.
0.60234 0.09763 0.
0.604533 0.097591 0.
0.606742 0.0975306 0.
0.608964 0.0974425 0.
0.611195 0.0973446 0.
0.613945 0.0965995 0.
0.61667 0.0959228 0.
0.619414 0.0951966 0.
0.622162 0.0944244 0.
0.625013 0.0935991 0.
0.627874 0.0928004 0.
0.630761 0.0918527 0.
0.633652 0.0908217 0.
0.636547 0.0898006 0.
0.639462 0.0888009 0.
0.64238 0.087739 0.
0.64529 0.0866304 0.
0.648219 0.085493 0.
0.651168 0.0843081 0.
0.654101 0.0830616 0.
0.657033 0.0817744 0.
0.659968 0.0804985 0.
0.6629 0.0791771 0.
0.665819 0.0777631 0.
0.668728 0.0762847 0.
0.671641 0.0747538 0.
0.674543 0.0732078 0.
0.677394 0.0716235 0.
0.680211 0.0699993 0.
0.683 0.068345 0.
0.685745 0.0666814 0.
0.688459 0.0650457 0.
0.691141 0.0634329 0.
0.693777 0.0618065 0.
0.696383 0.0601316 0.
0.698942 0.0584189 0.
0.70146 0.0566719 0.
0.703925 0.054897 0.
0.706338 0.0531056 0.
0.708711 0.0513301 0.
0.71106 0.0495597 0.
0.713399 0.047801 0.
0.71574 0.0460388 0.
0.718099 0.0442488 0.
0.72045 0.0424444 0.
0.722827 0.0406187 0.
0.725276 0.0388762 0.
0.727814 0.0373686 0.
0.730435 0.0362073 0.
CELLS 5000 10000
1 0
1 1
1 2
1 3
1 4
1 5
1 6
1 7
1 8
1 9
1 10
1 11
1 12
1 13
1 14
1 15
1 16
1 17
1 18
1 19
1 20
1 21
1 22
1 23
1 24
1 25
1 26
1 27
1 28
1 29
1 30
1 31
1 32
1 33
1 34
1 35
1 36
1 37
1 38
1 39
1 40
1 41
1 42
1 43
1 44
1 45
1 46
1 47
1 48
1 49
1 50
1 51
1 52
1 53
1 54
1 55
1 56
1 57
1 58
1 59
1 60
1 61
1 62
1 63
1 64
1 65
1 66
1 67
1 68
1 69
1 70
1 71
1 72
1 73
1 74
1 75
1 76
1 77
1 78
1 79
1 80
1 81
1 82
1 83
1 84
1 85
1 86
1 87
1 88
1 89
1 90
1 91
1 92
1 93
1 94
1 95
1 96
1 97
1 98
1 99
1 100
1 101
1 102
1 103
1 104
1 105
1 106
1 107
1 108
1 109
1 110
1 111
1 112
1 113
1 114
1 115
1 116
1 117
1 118
1 119
1 120
1 121
1 122
1 123
1 124
1 125
1 126
1 127
1 128
1 129
1 130
1 131
1 132
1 133
1 134
1 135
1 136
1 137
1 138
1 139
1 140
1 141
1 142
1 143
1 144
1 145
1 146
1 147
1 148
1 149
1 150
1 151
1 152
1 153
1 154
1 155
1 156
1 157
1 158
1 159
1 160
1 161
1 162
1 163
1 164
1 165
1 166
1 167
1 168
1 169
1 170
1 171
1 172
1 173
1 174
1 175
1 176
1 177
1 178
1 179
1 180
1 181
1 182
1 183
1 184
1 185
1 186
1 187
1 188
1 189
1 190
1 191
1 192
1 193
1 194
1 195
1 196
1 197
1 198
1 199
1 200
1 201
1 202
1 203
1 204
1 205
1 206
1 207
1 208
1 209
1 210
1 211
1 212
1 213
1 214
1 215
1 216
1 217
1 218
1 219
1 220
1 221
1 222
1 223
1 224
1 225
1 226
1 227
1 228
1 229
1 230
1 231
1 232
1 233
1 234
1 235
1 236
1 237
1 238
1 239
1 240
1 241
1 242
1 243
1 244
1 245
1 246
1 247
1 248
1 249
1 250
1 251
1 252
1 253
1 254
1 255
1 256
1 257
1 258
1 259
1 260
1 261
1 262
1 263
1 264
1 265
1 266
1 267
1 268
1 269
1 270
1 271
1 272
1 273
1 274
1 275
1 276
1 277
1 278
1 279
1 280
1 281
1 282
1 283
1 284
1 285
1 286
1 287
1 288
1 289
1 290
1 291
1 292
1 293
1 294
1 295
1 296
1 297
1 298
1 299
1 300
1 301
1 302
1 303
1 304
1 305
1 306
1 307
1 308
1 309
1 310
1 311
1 312
1 313
1 314
1 315
1 316
1 317
1 318
1 319
1 320
1 321
1 322
1 323
1 324
1 325
1 326
1 327
1 328
1 329
1 330
1 331
1 332
1 333
1 334
1 335
1 336
1 337
1 338
1 339
1 340
1 341
1 342
1 343
1 344
1 345
1 346
1 347
1 348
1 349
1 350
1 351
1 352
1 353
1 354
1 355
1 356
1 357
1 358
1 359
1 360
1 361
1 362
1 363
1 364
1 365
1 366
1 367
1 368
1 369
1 370
1 371
1 372
1 373
1 374
1 375
1 376
1 377
1 378
1 379
1 380
1 381
1 382
1 383
1 384
1 385
1 386
1 387
1 388
1 389
1 390
1 391
1 392
1 393
1 394
1 395
1 396
1 397
1 398
1 399
1 400
1 401
1 402
1 403
1 404
1 405
1 406
1 407
1 408
1 409
1 410
1 411
1 412
1 413
1 414
1 415
1 416
1 417
1 418
1 419
1 420
1 421
1 422
1 423
1 424
1 425
1 426
1 427
1 428
1 429
1 430
1 431
1 432
1 433
1 434
1 435
1 436
1 437
1 438
1 439
1 440
1 441
1 442
1 443
1 444
1 445
1 446
1 447
1 448
1 449
1 450
1 451
1 452
1 453
1 454
1 455
1 456
1 457
1 458
1 459
1 460
1 461
1 462
1 463
1 464
1 465
1 466
1 467
1 468
1 469
1 470
1 471
1 472
1 473
1 474
1 475
1 476
1 477
1 478
1 479
1 480
1 481
1 482
1 483
1 484
1 485
1 486
1 487
1 488
1 489
1 490
1 491
1 492
1 493
1 494
1 495
1 496
1 497
1 498
1 499
1 500
1 501
1 502
1 503
1 504
1 505
1 506
1 507
1 508
1 509
1 510
1 511
1 512
1 513
1 514
1 515
1 516
1 517
1 518
1 519
1 520
1 521
1 522
1 523
1 524
1 525
1 526
1 527
1 528
1 529
1 530
1 531
1 532
1 533
1 534
1 535
1 536
1 537
1 538
1 539
1 540
1 541
1 542
1 543
1 544
1 545
1 546
1 547
1 548
1 549
1 550
1 551
1 552
1 553
1 554
1 555
1 556
1 557
1 558
1 559
1 560
1 561
1 562
1 563
1 564
1 565
1 566
1 567
1 568
1 569
1 570
1 571
1 572
1 573
1 574
1 575
1 576
1 577
1 578
1 579
1 580
1 581
1 582
1 583
1 584
1 585
1 586
1 587
1 588
1 589
1 590
1 591
1 592
1 593
1 594
1 595
1 596
1 597
1 598
1 599
1 600
1 601
1 602
1 603
1 604
1 605
1 606
1 607
1 608
1 609
1 610
1 611
1 612
1 613
1 614
1 615
1 616
1 617
1 618
1 619
1 620
1 621
1 622
1 623
1 624
1 625
1 626
1 627
1 628
1 629
1 630
1 631
1 632
1 633
1 634
1 635
1 636
1 637
1 638
1 639
1 640
1 641
1 642
1 643
1 644
1 645
1 646
1 647
1 648
1 649
1 650
1 651
1 652
1 653
1 654
1 655
1 656
1 657
1 658
1 659
1 660
1 661
1 662
1 663
1 664
1 665
1 666
1 667
1 668
1 669
1 670
1 671
1 672
1 673
1 674
1 675
1 676
1 677
1 678
1 679
1 680
1 681
1 682
1 683
1 684
1 685
1 686
1 687
1 688
1 689
1 690
1 691
1 692
1 693
1 694
1 695
1 696
1 697
1 698
1 699
1 700
1 701
1 702
1 703
1 704
1 705
1 706
1 707
1 708
1 709
1 710
1 711
1 712
1 713
1 714
1 715
1 716
1 717
1 718
1 719
1 720
1 721
1 722
1 723
1 724
1 725
1 726
1 727
1 728
1 729
1 730
1 731
1 732
1 733
1 734
1 735
1 736
1 737
1 738
1 739
1 740
1 741
1 742
1 743
1 744
1 745
1 746
1 747
1 748
1 749
1 750
1 751
1 752
1 753
1 754
1 755
1 756
1 757
1 758
1 759
1 760
1 761
1 762
1 763
1 764
1 765
1 766
1 767
1 768
1 769
1 770
1 771
1 772
1 773
1 774
1 775
1 776
1 777
1 778
1 779
1 780
1 781
1 782
1 783
1 784
1 785
1 786
1 787
1 788
1 789
1 790
1 791
1 792
1 793
1 794
1 795
1 796
1 797
1 798
1 799
1 800
1 801
1 802
1 803
1 804
1 805
1 806
1 807
1 808
1 809
1 810
1 811
1 812
1 813
1 814
1 815
1 816
1 817
1 818
1 819
1 820
1 821
1 822
1 823
1 824
1 825
1 826
1 827
1 828
1 829
1 830
1 831
1 832
1 833
1 834
1 835
1 836
1 837
1 838
1 839
1 840
1 841
1 842
1 843
1 844
1 845
1 846
1 847
1 848
1 849
1 850
1 851
1 852
1 853
1 854
1 855
1 856
1 857
1 858
1 859
1 860
1 861
1 862
1 863
1 864
1 865
1 866
1 867
1 868
1 869
1 870
1 871
1 872
1 873
1 874
1 875
1 876
1 877
1 878
1 879
1 880
1 881
1 882
1 883
1 884
1 885
1 886
1 887
1 888
1 889
1 890
1 891
1 892
1 893
1 894
1 895
1 896
1 897
1 898
1 899
1 900
1 901
1 902
1 903
1 904
1 905
1 906
1 907
1 908
1 909
1 910
1 911
1 912
1 913
1 914
1 915
1 916
1 917
1 918
1 919
1 920
1 921
1 922
1 923
1 924
1 925
1 926
1 927
1 928
1 929
1 930
1 931
1 932
1 933
1 934
1 935
1 936
1 937
1 938
1 939
1 940
1 941
1 942
1 943
1 944
1 945
1 946
1 947
1 948
1 949
1 950
1 951
1 952
1 953
1 954
1 955
1 956
1 957
1 958
1 959
1 960
1 961
1 962
1 963
1 964
1 965
1 966
1 967
1 968
1 969
1 970
1 971
1 972
1 973
1 974
1 975
1 976
1 977
1 978
1 979
1 980
1 981
1 982
1 983
1 984
1 985
1 986
1 987
1 988
1 989
1 990
1 991
1 992
1 993
1 994
1 995
1 996
1 997
1 998
1 999
1 1000
1 1001
1 1002
1 1003
1 1004
1 1005
1 1006
1 1007
1 1008
1 1009
1 1010
1 1011
1 1012
1 1013
1 1014
1 1015
1 1016
1 1017
1 1018
1 1019
1 1020
1 1021
1 1022
1 1023
1 1024
1 1025
1 1026
1 1027
1 1028
1 1029
1 1030
1 1031
1 1032
1 1033
1 1034
1 1035
1 1036
1 1037
1 1038
1 1039
1 1040
1 1041
1 1042
1 1043
1 1044
1 1045
1 1046
1 1047
1 1048
1 1049
1 1050
1 1051
1 1052
1 1053
1 1054
1 1055
1 1056
1 1057
1 1058
1 1059
1 1060
1 1061
1 1062
1 1063
1 1064
1 1065
1 1066
1 1067
1 1068
1 1069
1 1070
1 1071
1 1072
1 1073
1 1074
1 1075
1 1076
1 1077
1 1078
1 1079
1 1080
1 1081
1 1082
1 1083
1 1084
1 1085
1 1086
1 1087
1 1088
1 1089
1 1090
1 1091
1 1092
1 1093
1 1094
1 1095
1 1096
1 1097
1 1098
1 1099
1 1100
1 1101
1 1102
1 1103
1 1104
1 1105
1 1106
1 1107
1 1108
1 1109
1 1110
1 1111
1 1112
1 1113
1 1114
1 1115
1 1116
1 1117
1 1118
1 1119
1 1120
1 1121
1 1122
1 1123
1 1124
1 1125
1 1126
1 1127
1 1128
1 1129
1 1130
1 1131
1 1132
1 1133
1 1134
1 1135
1 1136
1 1137
1 1138
1 1139
1 1140
1 1141
1 1142
1 1143
1 1144
1 1145
1 1146
1 1147
1 1148
1 1149
1 1150
1 1151
1 1152
1 1153
1 1154
1 1155
1 1156
1 1157
1 1158
1 1159
1 1160
1 1161
1 1162
1 1163
1 1164
1 1165
1 1166
1 1167
1 1168
1 1169
1 1170
1 1171
1 1172
1 1173
1 1174
1 1175
1 1176
1 1177
1 1178
1 1179
1 1180
1 1181
1 1182
1 1183
1 1184
1 1185
1 1186
1 1187
1 1188
1 1189
1 1190
1 1191
1 1192
1 1193
1 1194
1 1195
1 1196
1 1197
1 1198
1 1199
1 1200
1 1201
1 1202
1 1203
1 1204
1 1205
1 1206
1 1207
1 1208
1 1209
1 1210
1 1211
1 1212
1 1213
1 1214
1 1215
1 1216
1 1217
1 1218
1 1219
1 1220
1 1221
1 1222
1 1223
1 1224
1 1225
1 1226
1 1227
1 1228
1 1229
1 1230
1 1231
1 1232
1 1233
1 1234
1 1235
1 1236
1 1237
1 1238
1 1239
1 1240
1 1241
1 1242
1 1243
1 1244
1 1245
1 1246
1 1247
1 1248
1 1249
1 1250
1 1251
1 1252
1 1253
1 1254
1 1255
1 1256
1 1257
1 1258
1 1259
1 1260
1 1261
1 1262
1 1263
1 1264
1 1265
1 1266
1 1267
1 1268
1 1269
1 1270
1 1271
1 1272
1 1273
1 1274
1 1275
1 1276
1 1277
1 1278
1 1279
1 1280
1 1281
1 1282
1 1283
1 1284
1 1285
1 1286
1 1287
1 1288
1 1289
1 1290
1 1291
1 1292
1 1293
1 1294
1 1295
1 1296
1 1297
1 1298
1 1299
1 1300
1 1301
1 1302
1 1303
1 1304
1 1305
1 1306
1 1307
1 1308
1 1309
1 1310
1 1311
1 1312
1 1313
1 1314
1 1315
1 1316
1 1317
1 1318
1 1319
1 1320
1 1321
1 1322
1 1323
1 1324
1 1325
1 1326
1 1327
1 1328
1 1329
1 1330
1 1331
1 1332
1 1333
1 1334
1 1335
1 1336
1 1337
1 1338
1 1339
1 1340
1 1341
1 1342
1 1343
1 1344
1 1345
1 1346
1 1347
1 1348
1 1349
1 1350
1 1351
1 1352
1 1353
1 1354
1 1355
1 1356
1 1357
1 1358
1 1359
1 1360
1 1361
1 1362
1 1363
1 1364
1 1365
1 1366
1 1367
1 1368
1 1369
1 1370
1 1371
1 1372
1 1373
1 1374
1 1375
1 1376
1 1377
1 1378
1 1379
1 1380
1 1381
1 1382
1 1383
1 1384
1 1385
1 1386
1 1387
1 1388
1 1389
1 1390
1 1391
1 1392
1 1393
1 1394
1 1395
1 1396
1 1397
1 1398
1 1399
1 1400
1 1401
1 1402
1 1403
1 1404
1 1405
1 1406
1 1407
1 1408
1 1409
1 1410
1 1411
1 1412
1 1413
1 1414
1 1415
1 1416
1 1417
1 1418
1 1419
1 1420
1 1421
1 1422
1 1423
1 1424
1 1425
1 1426
1 1427
1 1428
1 1429
1 1430
1 1431
1 1432
1 1433
1 1434
1 1435
1 1436
1 1437
1 1438
1 1439
1 1440
1 1441
1 1442
1 1443
1 1444
1 1445
1 1446
1 1447
1 1448
1 1449
1 1450
1 1451
1 1452
1 1453
1 1454
1 1455
1 1456
1 1457
1 1458
1 1459
1 1460
1 1461
1 1462
1 1463
1 1464
1 1465
1 1466
1 1467
1 1468
1 1469
1 1470
1 1471
1 1472
1 1473
1 1474
1 1475
1 1476
1 1477
1 1478
1 1479
1 1480
1 1481
1 1482
1 1483
1 1484
1 1485
1 1486
1 1487
1 1488
1 1489
1 1490
1 1491
1 1492
1 1493
1 1494
1 1495
1 1496
1 1497
1 1498
1 1499
1 1500
1 1501
1 1502
1 1503
1 1504
1 1505
1 1506
1 1507
1 1508
1 1509
1 1510
1 1511
1 1512
1 1513
1 1514
1 1515
1 1516
1 1517
1 1518
1 1519
1 1520
1 1521
1 1522
1 1523
1 1524
1 1525
1 1526
1 1527
1 1528
1 1529
1 1530
1 1531
1 1532
1 1533
1 1534
1 1535
1 1536
1 1537
1 1538
1 1539
1 1540
1 1541
1 1542
1 1543
1 1544
1 1545
1 1546
1 1547
1 1548
1 1549
1 1550
1 1551
1 1552
1 1553
1 1554
1 1555
1 1556
1 1557
1 1558
1 1559
1 1560
1 1561
1 1562
1 1563
1 1564
1 1565
1 1566
1 1567
1 1568
1 1569
1 1570
1 1571
1 1572
1 1573
1 1574
1 1575
1 1576
1 1577
1 1578
1 1579
1 1580
1 1581
1 1582
1 1583
1 1584
1 1585
1 1586
1 1587
1 1588
1 1589
1 1590
1 1591
1 1592
1 1593
1 1594
1 1595
1 1596
1 1597
1 1598
1 1599
1 1600
1 1601
1 1602
1 1603
1 1604
1 1605
1 1606
1 1607
1 1608
1 1609
1 1610
1 1611
1 1612
1 1613
1 1614
1 1615
1 1616
1 1617
1 1618
1 1619
1 1620
1 1621
1 1622
1 1623
1 1624
1 1625
1 1626
1 1627
1 1628
1 1629
1 1630
1 1631
1 1632
1 1633
1 1634
1 1635
1 1636
1 1637
1 1638
1 1639
1 1640
1 1641
1 1642
1 1643
1 1644
1 1645
1 1646
1 1647
1 1648
1 1649
1 1650
1 1651
1 1652
1 1653
1 1654
1 1655
1 1656
1 1657
1 1658
1 1659
1 1660
1 1661
1 1662
1 1663
1 1664
1 1665
1 1666
1 1667
1 1668
1 1669
1 1670
1 1671
1 1672
1 1673
1 1674
1 1675
1 1676
1 1677
1 1678
1 1679
1 1680
1 1681
1 1682
1 1683
1 1684
1 1685
1 1686
1 1687
1 1688
1 1689
1 1690
1 1691
1 1692
1 1693
1 1694
1 1695
1 1696
1 1697
1 1698
1 1699
1 1700
1 1701
1 1702
1 1703
1 1704
1 1705
1 1706
1 1707
1 1708
1 1709
1 1710
1 1711
1 1712
1 1713
1 1714
1 1715
1 1716
1 1717
1 1718
1 1719
1 1720
1 1721
1 1722
1 1723
1 1724
1 1725
1 1726
1 1727
1 1728
1 1729
1 1730
1 1731
1 1732
1 1733
1 1734
1 1735
1 1736
1 1737
1 1738
1 1739
1 1740
1 1741
1 1742
1 1743
1 1744
1 1745
1 1746
1 1747
1 1748
1 1749
1 1750
1 1751
1 1752
1 1753
1 1754
1 1755
1 1756
1 1757
1 1758
1 1759
1 1760
1 1761
1 1762
1 1763
1 1764
1 1765
1 1766
1 1767
1 1768
1 1769
1 1770
1 1771
1 1772
1 1773
1 1774
1 1775
1 1776
1 1777
1 1778
1 1779
1 1780
1 1781
1 1782
1 1783
1 1784
1 1785
1 1786
1 1787
1 1788
1 1789
1 1790
1 1791
1 1792
1 1793
1 1794
1 1795
1 1796
1 1797
1 1798
1 1799
1 1800
1 1801
1 1802
1 1803
1 1804
1 1805
1 1806
1 1807
1 1808
1 1809
1 1810
1 1811
1 1812
1 1813
1 1814
1 1815
1 1816
1 1817
1 1818
1 1819
1 1820
1 1821
1 1822
1 1823
1 1824
1 1825
1 1826
1 1827
1 1828
1 1829
1 1830
1 1831
1 1832
1 1833
1 1834
1 1835
1 1836
1 1837
1 1838
1 1839
1 1840
1 1841
1 1842
1 1843
1 1844
1 1845
1 1846
1 1847
1 1848
1 1849
1 1850
1 1851
1 1852
1 1853
1 1854
1 1855
1 1856
1 1857
1 1858
1 1859
1 1860
1 1861
1 1862
1 1863
1 1864
1 1865
1 1866
1 1867
1 1868
1 1869
1 1870
1 1871
1 1872
1 1873
1 1874
1 1875
1 1876
1 1877
1 1878
1 1879
1 1880
1 1881
1 1882
1 1883
1 1884
1 1885
1 1886
1 1887
1 1888
1 1889
1 1890
1 1891
1 1892
1 1893
1 1894
1 1895
1 1896
1 1897
1 1898
1 1899
1 1900
1 1901
1 1902
1 1903
1 1904
1 1905
1 1906
1 1907
1 1908
1 1909
1 1910
1 1911
1 1912
1 1913
1 1914
1 1915
1 1916
1 1917
1 1918
1 1919
1 1920
1 1921
1 1922
1 1923
1 1924
1 1925
1 1926
1 1927
1 1928
1 1929
1 1930
1 1931
1 1932
1 1933
1 1934
1 1935
1 1936
1 1937
1 1938
1 1939
1 1940
1 1941
1 1942
1 1943
1 1944
1 1945
1 1946
1 1947
1 1948
1 1949
1 1950
1 1951
1 1952
1 1953
1 1954
1 1955
1 1956
1 1957
1 1958
1 1959
1 1960
1 1961
1 1962
1 1963
1 1964
1 1965
1 1966
1 1967
1 1968
1 1969
1 1970
1 1971
1 1972
1 1973
1 1974
1 1975
1 1976
1 1977
1 1978
1 1979
1 1980
1 1981
1 1982
1 1983
1 1984
1 1985
1 1986
1 1987
1 1988
1 1989
1 1990
1 1991
1 1992
1 1993
1 1994
1 1995
1 1996
1 1997
1 1998
1 1999
1 2000
1 2001
1 2002
1 2003
1 2004
1 2005
1 2006
1 2007
1 2008
1 2009
1 2010
1 2011
1 2012
1 2013
1 2014
1 2015
1 2016
1 2017
1 2018
1 2019
1 2020
1 2021
1 2022
1 2023
1 2024
1 2025
1 2026
1 2027
1 2028
1 2029
1 2030
1 2031
1 2032
1 2033
1 2034
1 2035
1 2036
1 2037
1 2038
1 2039
1 2040
1 2041
1 2042
1 2043
1 2044
1 2045
1 2046
1 2047
1 2048
1 2049
1 2050
1 2051
1 2052
1 2053
1 2054
1 2055
1 2056
1 2057
1 2058
1 2059
1 2060
1 2061
1 2062
1 2063
1 2064
1 2065
1 2066
1 2067
1 2068
1 2069
1 2070
1 2071
1 2072
1 2073
1 2074
1 2075
1 2076
1 2077
1 2078
1 2079
1 2080
1 2081
1 2082
1 2083
1 2084
1 2085
1 2086
1 2087
1 2088
1 2089
1 2090
1 2091
1 2092
1 2093
1 2094
1 2095
1 2096
1 2097
1 2098
1 2099
1 2100
1 2101
1 2102
1 2103
1 2104
1 2105
1 2106
1 2107
1 2108
1 2109
1 2110
1 2111
1 2112
1 2113
1 2114
1 2115
1 2116
1 2117
1 2118
1 2119
1 2120
1 2121
1 2122
1 2123
1 2124
1 2125
1 2126
1 2127
1 2128
1 2129
1 2130
1 2131
1 2132
1 2133
1 2134
1 2135
1 2136
1 2137
1 2138
1 2139
1 2140
1 2141
1 2142
1 2143
1 2144
1 2145
1 2146
1 2147
1 2148
1 2149
1 2150
1 2151
1 2152
1 2153
1 2154
1 2155
1 2156
1 2157
1 2158
1 2159
1 2160
1 2161
1 2162
1 2163
1 2164
1 2165
1 2166
1 2167
1 2168
1 2169
1 2170
1 2171
1 2172
1 2173
1 2174
1 2175
1 2176
1 2177
1 2178
1 2179
1 2180
1 2181
1 2182
1 2183
1 2184
1 2185
1 2186
1 2187
1 2188
1 2189
1 2190
1 2191
1 2192
1 2193
1 2194
1 2195
1 2196
1 2197
1 2198
1 2199
1 2200
1 2201
1 2202
1 2203
1 2204
1 2205
1 2206
1 2207
1 2208
1 2209
1 2210
1 2211
1 2212
1 2213
1 2214
1 2215
1 2216
1 2217
1 2218
1 2219
1 2220
1 2221
1 2222
1 2223
1 2224
1 2225
1 2226
1 2227
1 2228
1 2229
1 2230
1 2231
1 2232
1 2233
1 2234
1 2235
1 2236
1 2237
1 2238
1 2239
1 2240
1 2241
1 2242
1 2243
1 2244
1 2245
1 2246
1 2247
1 2248
1 2249
1 2250
1 2251
1 2252
1 2253
1 2254
1 2255
1 2256
1 2257
1 2258
1 2259
1 2260
1 2261
1 2262
1 2263
1 2264
1 2265
1 2266
1 2267
1 2268
1 2269
1 2270
1 2271
1 2272
1 2273
1 2274
1 2275
1 2276
1 2277
1 2278
1 2279
1 2280
1 2281
1 2282
1 2283
1 2284
1 2285
1 2286
1 2287
1 2288
1 2289
1 2290
1 2291
1 2292
1 2293
1 2294
1 2295
1 2296
1 2297
1 2298
1 2299
1 2300
1 2301
1 2302
1 2303
1 2304
1 2305
1 2306
1 2307
1 2308
1 2309
1 2310
1 2311
1 2312
1 2313
1 2314
1 2315
1 2316
1 2317
1 2318
1 2319
1 2320
1 2321
1 2322
1 2323
1 2324
1 2325
1 2326
1 2327
1 2328
1 2329
1 2330
1 2331
1 2332
1 2333
1 2334
1 2335
1 2336
1 2337
1 2338
1 2339
1 2340
1 2341
1 2342
1 2343
1 2344
1 2345
1 2346
1 2347
1 2348
1 2349
1 2350
1 2351
1 2352
1 2353
1 2354
1 2355
1 2356
1 2357
1 2358
1 2359
1 2360
1 2361
1 2362
1 2363
1 2364
1 2365
1 2366
1 2367
1 2368
1 2369
1 2370
1 2371
1 2372
1 2373
1 2374
1 2375
1 2376
1 2377
1 2378
1 2379
1 2380
1 2381
1 2382
1 2383
1 2384
1 2385
1 2386
1 2387
1 2388
1 2389
1 2390
1 2391
1 2392
1 2393
1 2394
1 2395
1 2396
1 2397
1 2398
1 2399
1 2400
1 2401
1 2402
1 2403
1 2404
1 2405
1 2406
1 2407
1 2408
1 2409
1 2410
1 2411
1 2412
1 2413
1 2414
1 2415
1 2416
1 2417
1 2418
1 2419
1 2420
1 2421
1 2422
1 2423
1 2424
1 2425
1 2426
1 2427
1 2428
1 2429
1 2430
1 2431
1 2432
1 2433
1 2434
1 2435
1 2436
1 2437
1 2438
1 2439
1 2440
1 2441
1 2442
1 2443
1 2444
1 2445
1 2446
1 2447
1 2448
1 2449
1 2450
1 2451
1 2452
1 2453
1 2454
1 2455
1 2456
1 2457
1 2458
1 2459
1 2460
1 2461
1 2462
1 2463
1 2464
1 2465
1 2466
1 2467
1 2468
1 2469
1 2470
1 2471
1 2472
1 2473
1 2474
1 2475
1 2476
1 2477
1 2478
1 2479
1 2480
1 2481
1 2482
1 2483
1 2484
1 2485
1 2486
1 2487
1 2488
1 2489
1 2490
1 2491
1 2492
1 2493
1 2494
1 2495
1 2496
1 2497
1 2498
1 2499
1 2500
1 2501
1 2502
1 2503
1 2504
1 2505
1 2506
1 2507
1 2508
1 2509
1 2510
1 2511
1 2512
1 2513
1 2514
1 2515
1 2516
1 2517
1 2518
1 2519
1 2520
1 2521
1 2522
1 2523
1 2524
1 2525
1 2526
1 2527
1 2528
1 2529
1 2530
1 2531
1 2532
1 2533
1 2534
1 2535
1 2536
1 2537
1 2538
1 2539
1 2540
1 2541
1 2542
1 2543
1 2544
1 2545
1 2546
1 2547
1 2548
1 2549
1 2550
1 2551
1 2552
1 2553
1 2554
1 2555
1 2556
1 2557
1 2558
1 2559
1 2560
1 2561
1 2562
1 2563
1 2564
1 2565
1 2566
1 2567
1 2568
1 2569
1 2570
1 2571
1 2572
1 2573
1 2574
1 2575
1 2576
1 2577
1 2578
1 2579
1 2580
1 2581
1 2582
1 2583
1 2584
1 2585
1 2586
1 2587
1 2588
1 2589
1 2590
1 2591
1 2592
1 2593
1 2594
1 2595
1 2596
1 2597
1 2598
1 2599
1 2600
1 2601
1 2602
1 2603
1 2604
1 2605
1 2606
1 2607
1 2608
1 2609
1 2610
1 2611
1 2612
1 2613
1 2614
1 2615
1 2616
1 2617
1 2618
1 2619
1 2620
1 2621
1 2622
1 2623
1 2624
1 2625
1 2626
1 2627
1 2628
1 2629
1 2630
1 2631
1 2632
1 2633
1 2634
1 2635
1 2636
1 2637
1 2638
1 2639
1 2640
1 2641
1 2642
1 2643
1 2644
1 2645
1 2646
1 2647
1 2648
1 2649
1 2650
1 2651
1 2652
1 2653
1 2654
1 2655
1 2656
1 2657
1 2658
1 2659
1 2660
1 2661
1 2662
1 2663
1 2664
1 2665
1 2666
1 2667
1 2668
1 2669
1 2670
1 2671
1 2672
1 2673
1 2674
1 2675
1 2676
1 2677
1 2678
1 2679
1 2680
1 2681
1 2682
1 2683
1 2684
1 2685
1 2686
1 2687
1 2688
1 2689
1 2690
1 2691
1 2692
1 2693
1 2694
1 2695
1 2696
1 2697
1 2698
1 2699
1 2700
1 2701
1 2702
1 2703
1 2704
1 2705
1 2706
1 2707
1 2708
1 2709
1 2710
1 2711
1 2712
1 2713
1 2714
1 2715
1 2716
1 2717
1 2718
1 2719
1 2720
1 2721
1 2722
1 2723
1 2724
1 2725
1 2726
1 2727
1 2728
1 2729
1 2730
1 2731
1 2732
1 2733
1 2734
1 2735
1 2736
1 2737
1 2738
1 2739
1 2740
1 2741
1 2742
1 2743
1 2744
1 2745
1 2746
1 2747
1 2748
1 2749
1 2750
1 2751
1 2752
1 2753
1 2754
1 2755
1 2756
1 2757
1 2758
1 2759
1 2760
1 2761
1 2762
1 2763
1 2764
1 2765
1 2766
1 2767
1 2768
1 2769
1 2770
1 2771
1 2772
1 2773
1 2774
1 2775
1 2776
1 2777
1 2778
1 2779
1 2780
1 2781
1 2782
1 2783
1 2784
1 2785
1 2786
1 2787
1 2788
1 2789
1 2790
1 2791
1 2792
1 2793
1 2794
1 2795
1 2796
1 2797
1 2798
1 2799
1 2800
1 2801
1 2802
1 2803
1 2804
1 2805
1 2806
1 2807
1 2808
1 2809
1 2810
1 2811
1 2812
1 2813
1 2814
1 2815
1 2816
1 2817
1 2818
1 2819
1 2820
1 2821
1 2822
1 2823
1 2824
1 2825
1 2826
1 2827
1 2828
1 2829
1 2830
1 2831
1 2832
1 2833
1 2834
1 2835
1 2836
1 2837
1 2838
1 2839
1 2840
1 2841
1 2842
1 2843
1 2844
1 2845
1 2846
1 2847
1 2848
1 2849
1 2850
1 2851
1 2852
1 2853
1 2854
1 2855
1 2856
1 2857
1 2858
1 2859
1 2860
1 2861
1 2862
1 2863
1 2864
1 2865
1 2866
1 2867
1 2868
1 2869
1 2870
1 2871
1 2872
1 2873
1 2874
1 2875
1 2876
1 2877
1 2878
1 2879
1 2880
1 2881
1 2882
1 2883
1 2884
1 2885
1 2886
1 2887
1 2888
1 2889
1 2890
1 2891
1 2892
1 2893
1 2894
1 2895
1 2896
1 2897
1 2898
1 2899
1 2900
1 2901
1 2902
1 2903
1 2904
1 2905
1 2906
1 2907
1 2908
1 2909
1 2910
1 2911
1 2912
1 2913
1 2914
1 2915
1 2916
1 2917
1 2918
1 2919
1 2920
1 2921
1 2922
1 2923
1 2924
1 2925
1 2926
1 2927
1 2928
1 2929
1 2930
1 2931
1 2932
1 2933
1 2934
1 2935
1 2936
1 2937
1 2938
1 2939
1 2940
1 2941
1 2942
1 2943
1 2944
1 2945
1 2946
1 2947
1 2948
1 2949
1 2950
1 2951
1 2952
1 2953
1 2954
1 2955
1 2956
1 2957
1 2958
1 2959
1 2960
1 2961
1 2962
1 2963
1 2964
1 2965
1 2966
1 2967
1 2968
1 2969
1 2970
1 2971
1 2972
1 2973
1 2974
1 2975
1 2976
1 2977
1 2978
1 2979
1 2980
1 2981
1 2982
1 2983
1 2984
1 2985
1 2986
1 2987
1 2988
1 2989
1 2990
1 2991
1 2992
1 2993
1 2994
1 2995
1 2996
1 2997
1 2998
1 2999
1 3000
1 3001
1 3002
1 3003
1 3004
1 3005
1 3006
1 3007
1 3008
1 3009
1 3010
1 3011
1 3012
1 3013
1 3014
1 3015
1 3016
1 3017
1 3018
1 3019
1 3020
1 3021
1 3022
1 3023
1 3024
1 3025
1 3026
1 3027
1 3028
1 3029
1 3030
1 3031
1 3032
1 3033
1 3034
1 3035
1 3036
1 3037
1 3038
1 3039
1 3040
1 3041
1 3042
1 3043
1 3044
1 3045
1 3046
1 3047
1 3048
1 3049
1 3050
1 3051
1 3052
1 3053
1 3054
1 3055
1 3056
1 3057
1 3058
1 3059
1 3060
1 3061
1 3062
1 3063
1 3064
1 3065
1 3066
1 3067
1 3068
1 3069
1 3070
1 3071
1 3072
1 3073
1 3074
1 3075
1 3076
1 3077
1 3078
1 3079
1 3080
1 3081
1 3082
1 3083
1 3084
1 3085
1 3086
1 3087
1 3088
1 3089
1 3090
1 3091
1 3092
1 3093
1 3094
1 3095
1 3096
1 3097
1 3098
1 3099
1 3100
1 3101
1 3102
1 3103
1 3104
1 3105
1 3106
1 3107
1 3108
1 3109
1 3110
1 3111
1 3112
1 3113
1 3114
1 3115
1 3116
1 3117
1 3118
1 3119
1 3120
1 3121
1 3122
1 3123
1 3124
1 3125
1 3126
1 3127
1 3128
1 3129
1 3130
1 3131
1 3132
1 3133
1 3134
1 3135
1 3136
1 3137
1 3138
1 3139
1 3140
1 3141
1 3142
1 3143
1 3144
1 3145
1 3146
1 3147
1 3148
1 3149
1 3150
1 3151
1 3152
1 3153
1 3154
1 3155
1 3156
1 3157
1 3158
1 3159
1 3160
1 3161
1 3162
1 3163
1 3164
1 3165
1 3166
1 3167
1 3168
1 3169
1 3170
1 3171
1 3172
1 3173
1 3174
1 3175
1 3176
1 3177
1 3178
1 3179
1 3180
1 3181
1 3182
1 3183
1 3184
1 3185
1 3186
1 3187
1 3188
1 3189
1 3190
1 3191
1 3192
1 3193
1 3194
1 3195
1 3196
1 3197
1 3198
1 3199
1 3200
1 3201
1 3202
1 3203
1 3204
1 3205
1 3206
1 3207
1 3208
1 3209
1 3210
1 3211
1 3212
1 3213
1 3214
1 3215
1 3216
1 3217
1 3218
1 3219
1 3220
1 3221
1 3222
1 3223
1 3224
1 3225
1 3226
1 3227
1 3228
1 3229
1 3230
1 3231
1 3232
1 3233
1 3234
1 3235
1 3236
1 3237
1 3238
1 3239
1 3240
1 3241
1 3242
1 3243
1 3244
1 3245
1 3246
1 3247
1 3248
1 3249
1 3250
1 3251
1 3252
1 3253
1 3254
1 3255
1 3256
1 3257
1 3258
1 3259
1 3260
1 3261
1 3262
1 3263
1 3264
1 3265
1 3266
1 3267
1 3268
1 3269
1 3270
1 3271
1 3272
1 3273
1 3274
1 3275
1 3276
1 3277
1 3278
1 3279
1 3280
1 3281
1 3282
1 3283
1 3284
1 3285
1 3286
1 3287
1 3288
1 3289
1 3290
1 3291
1 3292
1 3293
1 3294
1 3295
1 3296
1 3297
1 3298
1 3299
1 3300
1 3301
1 3302
1 3303
1 3304
1 3305
1 3306
1 3307
1 3308
1 3309
1 3310
1 3311
1 3312
1 3313
1 3314
1 3315
1 3316
1 3317
1 3318
1 3319
1 3320
1 3321
1 3322
1 3323
1 3324
1 3325
1 3326
1 3327
1 3328
1 3329
1 3330
1 3331
1 3332
1 3333
1 3334
1 3335
1 3336
1 3337
1 3338
1 3339
1 3340
1 3341
1 3342
1 3343
1 3344
1 3345
1 3346
1 3347
1 3348
1 3349
1 3350
1 3351
1 3352
1 3353
1 3354
1 3355
1 3356
1 3357
1 3358
1 3359
1 3360
1 3361
1 3362
1 3363
1 3364
1 3365
1 3366
1 3367
1 3368
1 3369
1 3370
1 3371
1 3372
1 3373
1 3374
1 3375
1 3376
1 3377
1 3378
1 3379
1 3380
1 3381
1 3382
1 3383
1 3384
1 3385
1 3386
1 3387
1 3388
1 3389
1 3390
1 3391
1 3392
1 3393
1 3394
1 3395
1 3396
1 3397
1 3398
1 3399
1 3400
1 3401
1 3402
1 3403
1 3404
1 3405
1 3406
1 3407
1 3408
1 3409
1 3410
1 3411
1 3412
1 3413
1 3414
1 3415
1 3416
1 3417
1 3418
1 3419
1 3420
1 3421
1 3422
1 3423
1 3424
1 3425
1 3426
1 3427
1 3428
1 3429
1 3430
1 3431
1 3432
1 3433
1 3434
1 3435
1 3436
1 3437
1 3438
1 3439
1 3440
1 3441
1 3442
1 3443
1 3444
1 3445
1 3446
1 3447
1 3448
1 3449
1 3450
1 3451
1 3452
1 3453
1 3454
1 3455
1 3456
1 3457
1 3458
1 3459
1 3460
1 3461
1 3462
1 3463
1 3464
1 3465
1 3466
1 3467
1 3468
1 3469
1 3470
1 3471
1 3472
1 3473
1 3474
1 3475
1 3476
1 3477
1 3478
1 3479
1 3480
1 3481
1 3482
1 3483
1 3484
1 3485
1 3486
1 3487
1 3488
1 3489
1 3490
1 3491
1 3492
1 3493
1 3494
1 3495
1 3496
1 3497
1 3498
1 3499
1 3500
1 3501
1 3502
1 3503
1 3504
1 3505
1 3506
1 3507
1 3508
1 3509
1 3510
1 3511
1 3512
1 3513
1 3514
1 3515
1 3516
1 3517
1 3518
1 3519
1 3520
1 3521
1 3522
1 3523
1 3524
1 3525
1 3526
1 3527
1 3528
1 3529
1 3530
1 3531
1 3532
1 3533
1 3534
1 3535
1 3536
1 3537
1 3538
1 3539
1 3540
1 3541
1 3542
1 3543
1 3544
1 3545
1 3546
1 3547
1 3548
1 3549
1 3550
1 3551
1 3552
1 3553
1 3554
1 3555
1 3556
1 3557
1 3558
1 3559
1 3560
1 3561
1 3562
1 3563
1 3564
1 3565
1 3566
1 3567
1 3568
1 3569
1 3570
1 3571
1 3572
1 3573
1 3574
1 3575
1 3576
1 3577
1 3578
1 3579
1 3580
1 3581
1 3582
1 3583
1 3584
1 3585
1 3586
1 3587
1 3588
1 3589
1 3590
1 3591
1 3592
1 3593
1 3594
1 3595
1 3596
1 3597
1 3598
1 3599
1 3600
1 3601
1 3602
1 3603
1 3604
1 3605
1 3606
1 3607
1 3608
1 3609
1 3610
1 3611
1 3612
1 3613
1 3614
1 3615
1 3616
1 3617
1 3618
1 3619
1 3620
1 3621
1 3622
1 3623
1 3624
1 3625
1 3626
1 3627
1 3628
1 3629
1 3630
1 3631
1 3632
1 3633
1 3634
1 3635
1 3636
1 3637
1 3638
1 3639
1 3640
1 3641
1 3642
1 3643
1 3644
1 3645
1 3646
1 3647
1 3648
1 3649
1 3650
1 3651
1 3652
1 3653
1 3654
1 3655
1 3656
1 3657
1 3658
1 3659
1 3660
1 3661
1 3662
1 3663
1 3664
1 3665
1 3666
1 3667
1 3668
1 3669
1 3670
1 3671
1 3672
1 3673
1 3674
1 3675
1 3676
1 3677
1 3678
1 3679
1 3680
1 3681
1 3682
1 3683
1 3684
1 3685
1 3686
1 3687
1 3688
1 3689
1 3690
1 3691
1 3692
1 3693
1 3694
1 3695
1 3696
1 3697
1 3698
1 3699
1 3700
1 3701
1 3702
1 3703
1 3704
1 3705
1 3706
1 3707
1 3708
1 3709
1 3710
1 3711
1 3712
1 3713
1 3714
1 3715
1 3716
1 3717
1 3718
1 3719
1 3720
1 3721
1 3722
1 3723
1 3724
1 3725
1 3726
1 3727
1 3728
1 3729
1 3730
1 3731
1 3732
1 3733
1 3734
1 3735
1 3736
1 3737
1 3738
1 3739
1 3740
1 3741
1 3742
1 3743
1 3744
1 3745
1 3746
1 3747
1 3748
1 3749
1 3750
1 3751
1 3752
1 3753
1 3754
1 3755
1 3756
1 3757
1 3758
1 3759
1 3760
1 3761
1 3762
1 3763
1 3764
1 3765
1 3766
1 3767
1 3768
1 3769
1 3770
1 3771
1 3772
1 3773
1 3774
1 3775
1 3776
1 3777
1 3778
1 3779
1 3780
1 3781
1 3782
1 3783
1 3784
1 3785
1 3786
1 3787
1 3788
1 3789
1 3790
1 3791
1 3792
1 3793
1 3794
1 3795
1 3796
1 3797
1 3798
1 3799
1 3800
1 3801
1 3802
1 3803
1 3804
1 3805
1 3806
1 3807
1 3808
1 3809
1 3810
1 3811
1 3812
1 3813
1 3814
1 3815
1 3816
1 3817
1 3818
1 3819
1 3820
1 3821
1 3822
1 3823
1 3824
1 3825
1 3826
1 3827
1 3828
1 3829
1 3830
1 3831
1 3832
1 3833
1 3834
1 3835
1 3836
1 3837
1 3838
1 3839
1 3840
1 3841
1 3842
1 3843
1 3844
1 3845
1 3846
1 3847
1 3848
1 3849
1 3850
1 3851
1 3852
1 3853
1 3854
1 3855
1 3856
1 3857
1 3858
1 3859
1 3860
1 3861
1 3862
1 3863
1 3864
1 3865
1 3866
1 3867
1 3868
1 3869
1 3870
1 3871
1 3872
1 3873
1 3874
1 3875
1 3876
1 3877
1 3878
1 3879
1 3880
1 3881
1 3882
1 3883
1 3884
1 3885
1 3886
1 3887
1 3888
1 3889
1 3890
1 3891
1 3892
1 3893
1 3894
1 3895
1 3896
1 3897
1 3898
1 3899
1 3900
1 3901
1 3902
1 3903
1 3904
1 3905
1 3906
1 3907
1 3908
1 3909
1 3910
1 3911
1 3912
1 3913
1 3914
1 3915
1 3916
1 3917
1 3918
1 3919
1 3920
1 3921
1 3922
1 3923
1 3924
1 3925
1 3926
1 3927
1 3928
1 3929
1 3930
1 3931
1 3932
1 3933
1 3934
1 3935
1 3936
1 3937
1 3938
1 3939
1 3940
1 3941
1 3942
1 3943
1 3944
1 3945
1 3946
1 3947
1 3948
1 3949
1 3950
1 3951
1 3952
1 3953
1 3954
1 3955
1 3956
1 3957
1 3958
1 3959
1 3960
1 3961
1 3962
1 3963
1 3964
1 3965
1 3966
1 3967
1 3968
1 3969
1 3970
1 3971
1 3972
1 3973
1 3974
1 3975
1 3976
1 3977
1 3978
1 3979
1 3980
1 3981
1 3982
1 3983
1 3984
1 3985
1 3986
1 3987
1 3988
1 3989
1 3990
1 3991
1 3992
1 3993
1 3994
1 3995
1 3996
1 3997
1 3998
1 3999
1 4000
1 4001
1 4002
1 4003
1 4004
1 4005
1 4006
1 4007
1 4008
1 4009
1 4010
1 4011
1 4012
1 4013
1 4014
1 4015
1 4016
1 4017
1 4018
1 4019
1 4020
1 4021
1 4022
1 4023
1 4024
1 4025
1 4026
1 4027
1 4028
1 4029
1 4030
1 4031
1 4032
1 4033
1 4034
1 4035
1 4036
1 4037
1 4038
1 4039
1 4040
1 4041
1 4042
1 4043
1 4044
1 4045
1 4046
1 4047
1 4048
1 4049
1 4050
1 4051
1 4052
1 4053
1 4054
1 4055
1 4056
1 4057
1 4058
1 4059
1 4060
1 4061
1 4062
1 4063
1 4064
1 4065
1 4066
1 4067
1 4068
1 4069
1 4070
1 4071
1 4072
1 4073
1 4074
1 4075
1 4076
1 4077
1 4078
1 4079
1 4080
1 4081
1 4082
1 4083
1 4084
1 4085
1 4086
1 4087
1 4088
1 4089
1 4090
1 4091
1 4092
1 4093
1 4094
1 4095
1 4096
1 4097
1 4098
1 4099
1 4100
1 4101
1 4102
1 4103
1 4104
1 4105
1 4106
1 4107
1 4108
1 4109
1 4110
1 4111
1 4112
1 4113
1 4114
1 4115
1 4116
1 4117
1 4118
1 4119
1 4120
1 4121
1 4122
1 4123
1 4124
1 4125
1 4126
1 4127
1 4128
1 4129
1 4130
1 4131
1 4132
1 4133
1 4134
1 4135
1 4136
1 4137
1 4138
1 4139
1 4140
1 4141
1 4142
1 4143
1 4144
1 4145
1 4146
1 4147
1 4148
1 4149
1 4150
1 4151
1 4152
1 4153
1 4154
1 4155
1 4156
1 4157
1 4158
1 4159
1 4160
1 4161
1 4162
1 4163
1 4164
1 4165
1 4166
1 4167
1 4168
1 4169
1 4170
1 4171
1 4172
1 4173
1 4174
1 4175
1 4176
1 4177
1 4178
1 4179
1 4180
1 4181
1 4182
1 4183
1 4184
1 4185
1 4186
1 4187
1 4188
1 4189
1 4190
1 4191
1 4192
1 4193
1 4194
1 4195
1 4196
1 4197
1 4198
1 4199
1 4200
1 4201
1 4202
1 4203
1 4204
1 4205
1 4206
1 4207
1 4208
1 4209
1 4210
1 4211
1 4212
1 4213
1 4214
1 4215
1 4216
1 4217
1 4218
1 4219
1 4220
1 4221
1 4222
1 4223
1 4224
1 4225
1 4226
1 4227
1 4228
1 4229
1 4230
1 4231
1 4232
1 4233
1 4234
1 4235
1 4236
1 4237
1 4238
1 4239
1 4240
1 4241
1 4242
1 4243
1 4244
1 4245
1 4246
1 4247
1 4248
1 4249
1 4250
1 4251
1 4252
1 4253
1 4254
1 4255
1 4256
1 4257
1 4258
1 4259
1 4260
1 4261
1 4262
1 4263
1 4264
1 4265
1 4266
1 4267
1 4268
1 4269
1 4270
1 4271
1 4272
1 4273
1 4274
1 4275
1 4276
1 4277
1 4278
1 4279
1 4280
1 4281
1 4282
1 4283
1 4284
1 4285
1 4286
1 4287
1 4288
1 4289
1 4290
1 4291
1 4292
1 4293
1 4294
1 4295
1 4296
1 4297
1 4298
1 4299
1 4300
1 4301
1 4302
1 4303
1 4304
1 4305
1 4306
1 4307
1 4308
1 4309
1 4310
1 4311
1 4312
1 4313
1 4314
1 4315
1 4316
1 4317
1 4318
1 4319
1 4320
1 4321
1 4322
1 4323
1 4324
1 4325
1 4326
1 4327
1 4328
1 4329
1 4330
1 4331
1 4332
1 4333
1 4334
1 4335
1 4336
1 4337
1 4338
1 4339
1 4340
1 4341
1 4342
1 4343
1 4344
1 4345
1 4346
1 4347
1 4348
1 4349
1 4350
1 4351
1 4352
1 4353
1 4354
1 4355
1 4356
1 4357
1 4358
1 4359
1 4360
1 4361
1 4362
1 4363
1 4364
1 4365
1 4366
1 4367
1 4368
1 4369
1 4370
1 4371
1 4372
1 4373
1 4374
1 4375
1 4376
1 4377
1 4378
1 4379
1 4380
1 4381
1 4382
1 4383
1 4384
1 4385
1 4386
1 4387
1 4388
1 4389
1 4390
1 4391
1 4392
1 4393
1 4394
1 4395
1 4396
1 4397
1 4398
1 4399
1 4400
1 4401
1 4402
1 4403
1 4404
1 4405
1 4406
1 4407
1 4408
1 4409
1 4410
1 4411
1 4412
1 4413
1 4414
1 4415
1 4416
1 4417
1 4418
1 4419
1 4420
1 4421
1 4422
1 4423
1 4424
1 4425
1 4426
1 4427
1 4428
1 4429
1 4430
1 4431
1 4432
1 4433
1 4434
1 4435
1 4436
1 4437
1 4438
1 4439
1 4440
1 4441
1 4442
1 4443
1 4444
1 4445
1 4446
1 4447
1 4448
1 4449
1 4450
1 4451
1 4452
1 4453
1 4454
1 4455
1 4456
1 4457
1 4458
1 4459
1 4460
1 4461
1 4462
1 4463
1 4464
1 4465
1 4466
1 4467
1 4468
1 4469
1 4470
1 4471
1 4472
1 4473
1 4474
1 4475
1 4476
1 4477
1 4478
1 4479
1 4480
1 4481
1 4482
1 4483
1 4484
1 4485
1 4486
1 4487
1 4488
1 4489
1 4490
1 4491
1 4492
1 4493
1 4494
1 4495
1 4496
1 4497
1 4498
1 4499
1 4500
1 4501
1 4502
1 4503
1 4504
1 4505
1 4506
1 4507
1 4508
1 4509
1 4510
1 4511
1 4512
1 4513
1 4514
1 4515
1 4516
1 4517
1 4518
1 4519
1 4520
1 4521
1 4522
1 4523
1 4524
1 4525
1 4526
1 4527
1 4528
1 4529
1 4530
1 4531
1 4532
1 4533
1 4534
1 4535
1 4536
1 4537
1 4538
1 4539
1 4540
1 4541
1 4542
1 4543
1 4544
1 4545
1 4546
1 4547
1 4548
1 4549
1 4550
1 4551
1 4552
1 4553
1 4554
1 4555
1 4556
1 4557
1 4558
1 4559
1 4560
1 4561
1 4562
1 4563
1 4564
1 4565
1 4566
1 4567
1 4568
1 4569
1 4570
1 4571
1 4572
1 4573
1 4574
1 4575
1 4576
1 4577
1 4578
1 4579
1 4580
1 4581
1 4582
1 4583
1 4584
1 4585
1 4586
1 4587
1 4588
1 4589
1 4590
1 4591
1 4592
1 4593
1 4594
1 4595
1 4596
1 4597
1 4598
1 4599
1 4600
1 4601
1 4602
1 4603
1 4604
1 4605
1 4606
1 4607
1 4608
1 4609
1 4610
1 4611
1 4612
1 4613
1 4614
1 4615
1 4616
1 4617
1 4618
1 4619
1 4620
1 4621
1 4622
1 4623
1 4624
1 4625
1 4626
1 4627
1 4628
1 4629
1 4630
1 4631
1 4632
1 4633
1 4634
1 4635
1 4636
1 4637
1 4638
1 4639
1 4640
1 4641
1 4642
1 4643
1 4644
1 4645
1 4646
1 4647
1 4648
1 4649
1 4650
1 4651
1 4652
1 4653
1 4654
1 4655
1 4656
1 4657
1 4658
1 4659
1 4660
1 4661
1 4662
1 4663
1 4664
1 4665
1 4666
1 4667
1 4668
1 4669
1 4670
1 4671
1 4672
1 4673
1 4674
1 4675
1 4676
1 4677
1 4678
1 4679
1 4680
1 4681
1 4682
1 4683
1 4684
1 4685
1 4686
1 4687
1 4688
1 4689
1 4690
1 4691
1 4692
1 4693
1 4694
1 4695
1 4696
1 4697
1 4698
1 4699
1 4700
1 4701
1 4702
1 4703
1 4704
1 4705
1 4706
1 4707
1 4708
1 4709
1 4710
1 4711
1 4712
1 4713
1 4714
1 4715
1 4716
1 4717
1 4718
1 4719
1 4720
1 4721
1 4722
1 4723
1 4724
1 4725
1 4726
1 4727
1 4728
1 4729
1 4730
1 4731
1 4732
1 4733
1 4734
1 4735
1 4736
1 4737
1 4738
1 4739
1 4740
1 4741
1 4742
1 4743
1 4744
1 4745
1 4746
1 4747
1 4748
1 4749
1 4750
1 4751
1 4752
1 4753
1 4754
1 4755
1 4756
1 4757
1 4758
1 4759
1 4760
1 4761
1 4762
1 4763
1 4764
1 4765
1 4766
1 4767
1 4768
1 4769
1 4770
1 4771
1 4772
1 4773
1 4774
1 4775
1 4776
1 4777
1 4778
1 4779
1 4780
1 4781
1 4782
1 4783
1 4784
1 4785
1 4786
1 4787
1 4788
1 4789
1 4790
1 4791
1 4792
1 4793
1 4794
1 4795
1 4796
1 4797
1 4798
1 4799
1 4800
1 4801
1 4802
1 4803
1 4804
1 4805
1 4806
1 4807
1 4808
1 4809
1 4810
1 4811
1 4812
1 4813
1 4814
1 4815
1 4816
1 4817
1 4818
1 4819
1 4820
1 4821
1 4822
1 4823
1 4824
1 4825
1 4826
1 4827
1 4828
1 4829
1 4830
1 4831
1 4832
1 4833
1 4834
1 4835
1 4836
1 4837
1 4838
1 4839
1 4840
1 4841
1 4842
1 4843
1 4844
1 4845
1 4846
1 4847
1 4848
1 4849
1 4850
1 4851
1 4852
1 4853
1 4854
1 4855
1 4856
1 4857
1 4858
1 4859
1 4860
1 4861
1 4862
1 4863
1 4864
1 4865
1 4866
1 4867
1 4868
1 4869
1 4870
1 4871
1 4872
1 4873
1 4874
1 4875
1 4876
1 4877
1 4878
1 4879
1 4880
1 4881
1 4882
1 4883
1 4884
1 4885
1 4886
1 4887
1 4888
1 4889
1 4890
1 4891
1 4892
1 4893
1 4894
1 4895
1 4896
1 4897
1 4898
1 4899
1 4900
1 4901
1 4902
1 4903
1 4904
1 4905
1 4906
1 4907
1 4908
1 4909
1 4910
1 4911
1 4912
1 4913
1 4914
1 4915
1 4916
1 4917
1 4918
1 4919
1 4920
1 4921
1 4922
1 4923
1 4924
1 4925
1 4926
1 4927
1 4928
1 4929
1 4930
1 4931
1 4932
1 4933
1 4934
1 4935
1 4936
1 4937
1 4938
1 4939
1 4940
1 4941
1 4942
1 4943
1 4944
1 4945
1 4946
1 4947
1 4948
1 4949
1 4950
1 4951
1 4952
1 4953
1 4954
1 4955
1 4956
1 4957
1 4958
1 4959
1 4960
1 4961
1 4962
1 4963
1 4964
1 4965
1 4966
1 4967
1 4968
1 4969
1 4970
1 4971
1 4972
1 4973
1 4974
1 4975
1 4976
1 4977
1 4978
1 4979
1 4980
1 4981
1 4982
1 4983
1 4984
1 4985
1 4986
1 4987
1 4988
1 4989
1 4990
1 4991
1 4992
1 4993
1 4994
1 4995
1 4996
1 4997
1 4998
1 4999
CELL_TYPES 5000
1 
1 
1 
1 
1 
1 
1 
1 
1 
1 
1 
1 
1 
1 
1 
1 
1 
1 
1 
1 
1 
1 
1 
1 
1 
1 
1 
1 
1 
1 
1 
1 
1 
1 
1 
1 
1 
1 
1 
1 
1 
1 
1 
1 
1 
1 
1 
1 
1 
1 
1 
1 
1 
1 
1 
1 
1 
1 
1 
1 
1 
1 
1 
1 
1 
1 
1 
1 
1 
1 
1 
1 
1 
1 
1 
1 
1 
1 
1 
1 
1 
1 
1 
1 
1 
1 
1 
1 
1 
1 
1 
1 
1 
1 
1 
1 
1 
1 
1 
1 
1 
1 
1 
1 
1 
1 
1 
1 
1 
1 
1 
1 
1 
1 
1 
1 
1 
1 
1 
1 
1 
1 
1 
1 
1 
1 
1 
1 
1 
1 
1 
1 
1 
1 
1 
1 
1 
1 
1 
1 
1 
1 
1 
1 
1 
1 
1 
1 
1 
1 
1 
1 
1 
1 
1 
1 
1 
1 
1 
1 
1 
1 
1 
1 
1 
1 
1 
1 
1 
1 
1 
1 
1 
1 
1 
1 
1 
1 
1 
1 
1 
1 
1 
1 
1 
1 
1 
1 
1 
1 
1 
1 
1 
1 
1 
1 
1 
1 
1 
1 
1 
1 
1 
1 
1 
1 
1 
1 
1 
1 
1 
1 
1 
1 
1 
1 
1 
1 
1 
1 
1 
1 
1 
1 
1 
1 
1 
1 
1 
1 
1 
1 
1 
1 
1 
1 
1 
1 
1 
1 
1 
1 
1 
1 
1 
1 
1 
1 
1 
1 
1 
1 
1 
1 
1 
1 
1 
1 
1 
1 
1 
1 
1 
1 
1 
1 
1 
1 
1 
1 
1 
1 
1 
1 
1 
1 
1 
1 
1 
1 
1 
1 
1 
1 
1 
1 
1 
1 
1 
1 
1 
1 
1 
1 
1 
1 
1 
1 
1 
1 
1 
1 
1 
1 
1 
1 
1 
1 
1 
1 
1 
1 
1 
1 
1 
1 
1 
1 
1 
1 
1 
1 
1 
1 
1 
1 
1 
1 
1 
1 
1 
1 
1 
1 
1 
1 
1 
1 
1 
1 
1 
1 
1 
1 
1 
1 
1 
1 
1 
1 
1 
1 
1 
1 
1 
1 
1 
1 
1 
1 
1 
1 
1 
1 
1 
1 
1 
1 
1 
1 
1 
1 
1 
1 
1 
1 
1 
1 
1 
1 
1 
1 
1 
1 
1 
1 
1 
1 
1 
1 
1 
1 
1 
1 
1 
1 
1 
1 
1 
1 
1 
1 
1 
1 
1 
1 
1 
1 
1 
1 
1 
1 
1 
1 
1 
1 
1 
1 
1 
1 
1 
1 
1 
1 
1 
1 
1 
1 
1 
1 
1 
1 
1 
1 
1 
1 
1 
1 
1 
1 
1 
1 
1 
1 
1 
1 
1 
1 
1 
1 
1 
1 
1 
1 
1 
1 
1 
1 
1 
1 
1 
1 
1 
1 
1 
1 
1 
1 
1 
1 
1 
1 
1 
1 
1 
1 
1 
1 
1 
1 
1 
1 
1 
1 
1 
1 
1 
1 
1 
1 
1 
1 
1 
1 
1 
1 
1 
1 
1 
1 
1 
1 
1 
1 
1 
1 
1 
1 
1 
1 
1 
1 
1 
1 
1 
1 
1 
1 
1 
1 
1 
1 
1 
1 
1 
1 
1 
1 
1 
1 
1 
1 
1 
1 
1 
1 
1 
1 
1 
1 
1 
1 
1 
1 
1 
1 
1 
1 
1 
1 
1 
1 
1 
1 
1 
1 
1 
1 
1 
1 
1 
1 
1 
1 
1 
1 
1 
1 
1 
1 
1 
1 
1 
1 
1 
1 
1 
1 
1 
1 
1 
1 
1 
1 
1 
1 
1 
1 
1 
1 
1 
1 
1 
1 
1 
1 
1 
1 
1 
1 
1 
1 
1 
1 
1 
1 
1 
1 
1 
1 
1 
1 
1 
1 
1 
1 
1 
1 
1 
1 
1 
1 
1 
1 
1 
1 
1 
1 
1 
1 
1 
1 
1 
1 
1 
1 
1 
1 
1 
1 
1 
1 
1 
1 
1 
1 
1 
1 
1 
1 
1 
1 
1 
1 
1 
1 
1 
1 
1 
1 
1 
1 
1 
1 
1 
1 
1 
1 
1 
1 
1 
1 
1 
1 
1 
1 
1 
1 
1 
1 
1 
1 
1 
1 
1 
1 
1 
1 
1 
1 
1 
1 
1 
1 
1 
1 
1 
1 
1 
1 
1 
1 
1 
1 
1 
1 
1 
1 
1 
1 
1 
1 
1 
1 
1 
1 
1 
1 
1 
1 
1 
1 
1 
1 
1 
1 
1 
1 
1 
1 
1 
1 
1 
1 
1 
1 
1 
1 
1 
1 
1 
1 
1 
1 
1 
1 
1 
1 
1 
1 
1 
1 
1 
1 
1 
1 
1 
1 
1 
1 
1 
1 
1 
1 
1 
1 
1 
1 
1 
1 
1 
1 
1 
1 
1 
1 
1 
1 
1 
1 
1 
1 
1 
1 
1 
1 
1 
1 
1 
1 
1 
1 
1 
1 
1 
1 
1 
1 
1 
1 
1 
1 
1 
1 
1 
1 
1 
1 
1 
1 
1 
1 
1 
1 
1 
1 
1 
1 
1 
1 
1 
1 
1 
1 
1 
1 
1 
1 
1 
1 
1 
1 
1 
1 
1 
1 
1 
1 
1 
1 
1 
1 
1 
1 
1 
1 
1 
1 
1 
1 
1 
1 
1 
1 
1 
1 
1 
1 
1 
1 
1 
1 
1 
1 
1 
1 
1 
1 
1 
1 
1 
1 
1 
1 
1 
1 
1 
1 
1 
1 
1 
1 
1 
1 
1 
1 
1 
1 
1 
1 
1 
1 
1 
1 
1 
1 
1 
1 
1 
1 
1 
1 
1 
1 
1 
1 
1 
1 
1 
1 
1 
1 
1 
1 
1 
1 
1 
1 
1 
1 
1 
1 
1 
1 
1 
1 
1 
1 
1 
1 
1 
1 
1 
1 
1 
1 
1 
1 
1 
1 
1 
1 
1 
1 
1 
1 
1 
1 
1 
1 
1 
1 
1 
1 
1 
1 
1 
1 
1 
1 
1 
1 
1 
1 
1 
1 
1 
1 
1 
1 
1 
1 
1 
1 
1 
1 
1 
1 
1 
1 
1 
1 
1 
1 
1 
1 
1 
1 
1 
1 
1 
1 
1 
1 
1 
1 
1 
1 
1 
1 
1 
1 
1 
1 
1 
1 
1 
1 
1 
1 
1 
1 
1 
1 
1 
1 
1 
1 
1 
1 
1 
1 
1 
1 
1 
1 
1 
1 
1 
1 
1 
1 
1 
1 
1 
1 
1 
1 
1 
1 
1 
1 
1 
1 
1 
1 
1 
1 
1 
1 
1 
1 
1 
1 
1 
1 
1 
1 
1 
1 
1 
1 
1 
1 
1 
1 
1 
1 
1 
1 
1 
1 
1 
1 
1 
1 
1 
1 
1 
1 
1 
1 
1 
1 
1 
1 
1 
1 
1 
1 
1 
1 
1 
1 
1 
1 
1 
1 
1 
1 
1 
1 
1 
1 
1 
1 
1 
1 
1 
1 
1 
1 
1 
1 
1 
1 
1 
1 
1 
1 
1 
1 
1 
1 
1 
1 
1 
1 
1 
1 
1 
1 
1 
1 
1 
1 
1 
1 
1 
1 
1 
1 
1 
1 
1 
1 
1 
1 
1 
1 
1 
1 
1 
1 
1 
1 
1 
1 
1 
1 
1 
1 
1 
1 
1 
1 
1 
1 
1 
1 
1 
1 
1 
1 
1 
1 
1 
1 
1 
1 
1 
1 
1 
1 
1 
1 
1 
1 
1 
1 
1 
1 
1 
1 
1 
1 
1 
1 
1 
1 
1 
1 
1 
1 
1 
1 
1 
1 
1 
1 
1 
1 
1 
1 
1 
1 
1 
1 
1 
1 
1 
1 
1 
1 
1 
1 
1 
1 
1 
1 
1 
1 
1 
1 
1 
1 
1 
1 
1 
1 
1 
1 
1 
1 
1 
1 
1 
1 
1 
1 
1 
1 
1 
1 
1 
1 
1 
1 
1 
1 
1 
1 
1 
1 
1 
1 
1 
1 
1 
1 
1 
1 
1 
1 
1 
1 
1 
1 
1 
1 
1 
1 
1 
1 
1 
1 
1 
1 
1 
1 
1 
1 
1 
1 
1 
1 
1 
1 
1 
1 
1 
1 
1 
1 
1 
1 
1 
1 
1 
1 
1 
1 
1 
1 
1 
1 
1 
1 
1 
1 
1 
1 
1 
1 
1 
1 
1 
1 
1 
1 
1 
1 
1 
1 
1 
1 
1 
1 
1 
1 
1 
1 
1 
1 
1 
1 
1 
1 
1 
1 
1 
1 
1 
1 
1 
1 
1 
1 
1 
1 
1 
1 
1 
1 
1 
1 
1 
1 
1 
1 
1 
1 
1 
1 
1 
1 
1 
1 
1 
1 
1 
1 
1 
1 
1 
1 
1 
1 
1 
1 
1 
1 
1 
1 
1 
1 
1 
1 
1 
1 
1 
1 
1 
1 
1 
1 
1 
1 
1 
1 
1 
1 
1 
1 
1 
1 
1 
1 
1 
1 
1 
1 
1 
1 
1 
1 
1 
1 
1 
1 
1 
1 
1 
1 
1 
1 
1 
1 
1 
1 
1 
1 
1 
1 
1 
1 
1 
1 
1 
1 
1 
1 
1 
1 
1 
1 
1 
1 
1 
1 
1 
1 
1 
1 
1 
1 
1 
1 
1 
1 
1 
1 
1 
1 
1 
1 
1 
1 
1 
1 
1 
1 
1 
1 
1 
1 
1 
1 
1 
1 
1 
1 
1 
1 
1 
1 
1 
1 
1 
1 
1 
1 
1 
1 
1 
1 
1 
1 
1 
1 
1 
1 
1 
1 
1 
1 
1 
1 
1 
1 
1 
1 
1 
1 
1 
1 
1 
1 
1 
1 
1 
1 
1 
1 
1 
1 
1 
1 
1 
1 
1 
1 
1 
1 
1 
1 
1 
1 
1 
1 
1 
1 
1 
1 
1 
1 
1 
1 
1 
1 
1 
1 
1 
1 
1 
1 
1 
1 
1 
1 
1 
1 
1 
1 
1 
1 
1 
1 
1 
1 
1 
1 
1 
1 
1 
1 
1 
1 
1 
1 
1 
1 
1 
1 
1 
1 
1 
1 
1 
1 
1 
1 
1 
1 
1 
1 
1 
1 
1 
1 
1 
1 
1 
1 
1 
1 
1 
1 
1 
1 
1 
1 
1 
1 
1 
1 
1 
1 
1 
1 
1 
1 
1 
1 
1 
1 
1 
1 
1 
1 
1 
1 
1 
1 
1 
1 
1 
1 
1 
1 
1 
1 
1 
1 
1 
1 
1 
1 
1 
1 
1 
1 
1 
1 
1 
1 
1 
1 
1 
1 
1 
1 
1 
1 
1 
1 
1 
1 
1 
1 
1 
1 
1 
1 
1 
1 
1 
1 
1 
1 
1 
1 
1 
1 
1 
1 
1 
1 
1 
1 
1 
1 
1 
1 
1 
1 
1 
1 
1 
1 
1 
1 
1 
1 
1 
1 
1 
1 
1 
1 
1 
1 
1 
1 
1 
1 
1 
1 
1 
1 
1 
1 
1 
1 
1 
1 
1 
1 
1 
1 
1 
1 
1 
1 
1 
1 
1 
1 
1 
1 
1 
1 
1 
1 
1 
1 
1 
1 
1 
1 
1 
1 
1 
1 
1 
1 
1 
1 
1 
1 
1 
1 
1 
1 
1 
1 
1 
1 
1 
1 
1 
1 
1 
1 
1 
1 
1 
1 
1 
1 
1 
1 
1 
1 
1 
1 
1 
1 
1 
1 
1 
1 
1 
1 
1 
1 
1 
1 
1 
1 
1 
1 
1 
1 
1 
1 
1 
1 
1 
1 
1 
1 
1 
1 
1 
1 
1 
1 
1 
1 
1 
1 
1 
1 
1 
1 
1 
1 
1 
1 
1 
1 
1 
1 
1 
1 
1 
1 
1 
1 
1 
1 
1 
1 
1 
1 
1 
1 
1 
1 
1 
1 
1 
1 
1 
1 
1 
1 
1 
1 
1 
1 
1 
1 
1 
1 
1 
1 
1 
1 
1 
1 
1 
1 
1 
1 
1 
1 
1 
1 
1 
1 
1 
1 
1 
1 
1 
1 
1 
1 
1 
1 
1 
1 
1 
1 
1 
1 
1 
1 
1 
1 
1 
1 
1 
1 
1 
1 
1 
1 
1 
1 
1 
1 
1 
1 
1 
1 
1 
1 
1 
1 
1 
1 
1 
1 
1 
1 
1 
1 
1 
1 
1 
1 
1 
1 
1 
1 
1 
1 
1 
1 
1 
1 
1 
1 
1 
1 
1 
1 
1 
1 
1 
1 
1 
1 
1 
1 
1 
1 
1 
1 
1 
1 
1 
1 
1 
1 
1 
1 
1 
1 
1 
1 
1 
1 
1 
1 
1 
1 
1 
1 
1 
1 
1 
1 
1 
1 
1 
1 
1 
1 
1 
1 
1 
1 
1 
1 
1 
1 
1 
1 
1 
1 
1 
1 
1 
1 
1 
1 
1 
1 
1 
1 
1 
1 
1 
1 
1 
1 
1 
1 
1 
1 
1 
1 
1 
1 
1 
1 
1 
1 
1 
1 
1 
1 
1 
1 
1 
1 
1 
1 
1 
1 
1 
1 
1 
1 
1 
1 
1 
1 
1 
1 
1 
1 
1 
1 
1 
1 
1 
1 
1 
1 
1 
1 
1 
1 
1 
1 
1 
1 
1 
1 
1 
1 
1 
1 
1 
1 
1 
1 
1 
1 
1 
1 
1 
1 
1 
1 
1 
1 
1 
1 
1 
1 
1 
1 
1 
1 
1 
1 
1 
1 
1 
1 
1 
1 
1 
1 
1 
1 
1 
1 
1 
1 
1 
1 
1 
1 
1 
1 
1 
1 
1 
1 
1 
1 
1 
1 
1 
1 
1 
1 
1 
1 
1 
1 
1 
1 
1 
1 
1 
1 
1 
1 
1 
1 
1 
1 
1 
1 
1 
1 
1 
1 
1 
1 
1 
1 
1 
1 
1 
1 
1 
1 
1 
1 
1 
1 
1 
1 
1 
1 
1 
1 
1 
1 
1 
1 
1 
1 
1 
1 
1 
1 
1 
1 
1 
1 
1 
1 
1 
1 
1 
1 
1 
1 
1 
1 
1 
1 
1 
1 
1 
1 
1 
1 
1 
1 
1 
1 
1 
1 
1 
1 
1 
1 
1 
1 
1 
1 
1 
1 
1 
1 
1 
1 
1 
1 
1 
1 
1 
1 
1 
1 
1 
1 
1 
1 
1 
1 
1 
1 
1 
1 
1 
1 
1 
1 
1 
1 
1 
1 
1 
1 
1 
1 
1 
1 
1 
1 
1 
1 
1 
1 
1 
1 
1 
1 
1 
1 
1 
1 
1 
1 
1 
1 
1 
1 
1 
1 
1 
1 
1 
1 
1 
1 
1 
1 
1 
1 
1 
1 
1 
1 
1 
1 
1 
1 
1 
1 
1 
1 
1 
1 
1 
1 
1 
1 
1 
1 
1 
1 
1 
1 
1 
1 
1 
1 
1 
1 
1 
1 
1 
1 
1 
1 
1 
1 
1 
1 
1 
1 
1 
1 
1 
1 
1 
1 
1 
1 
1 
1 
1 
1 
1 
1 
1 
1 
1 
1 
1 
1 
1 
1 
1 
1 
1 
1 
1 
1 
1 
1 
1 
1 
1 
1 
1 
1 
1 
1 
1 
1 
1 
1 
1 
1 
1 
1 
1 
1 
1 
1 
1 
1 
1 
1 
1 
1 
1 
1 
1 
1 
1 
1 
1 
1 
1 
1 
1 
1 
1 
1 
1 
1 
1 
1 
1 
1 
1 
1 
1 
1 
1 
1 
1 
1 
1 
1 
1 
1 
1 
1 
1 
1 
1 
1 
1 
1 
1 
1 
1 
1 
1 
1 
1 
1 
1 
1 
1 
1 
1 
1 
1 
1 
1 
1 
1 
1 
1 
1 
1 
1 
1 
1 
1 
1 
1 
1 
1 
1 
1 
1 
1 
1 
1 
1 
1 
1 
1 
1 
1 
1 
1 
1 
1 
1 
1 
1 
1 
1 
1 
1 
1 
1 
1 
1 
1 
1 
1 
1 
1 
1 
1 
1 
1 
1 
1 
1 
1 
1 
1 
1 
1 
1 
1 
1 
1 
1 
1 
1 
1 
1 
1 
1 
1 
1 
1 
1 
1 
1 
1 
1 
1 
1 
1 
1 
1 
1 
1 
1 
1 
1 
1 
1 
1 
1 
1 
1 
1 
1 
1 
1 
1 
1 
1 
1 
1 
1 
1 
1 
1 
1 
1 
1 
1 
1 
1 
1 
1 
1 
1 
1 
1 
1 
1 
1 
1 
1 
1 
1 
1 
1 
1 
1 
1 
1 
1 
1 
1 
1 
1 
1 
1 
1 
1 
1 
1 
1 
1 
1 
1 
1 
1 
1 
1 
1 
1 
1 
1 
1 
1 
1 
1 
1 
1 
1 
1 
1 
1 
1 
1 
1 
1 
1 
1 
1 
1 
1 
1 
1 
1 
1 
1 
1 
1 
1 
1 
1 
1 
1 
1 
1 
1 
1 
1 
1 
1 
1 
1 
1 
1 
1 
1 
1 
1 
1 
1 
1 
1 
1 
1 
1 
1 
1 
1 
1 
1 
1 
1 
1 
1 
1 
1 
1 
1 
1 
1 
1 
1 
1 
1 
1 
1 
1 
1 
1 
1 
1 
1 
1 
1 
1 
1 
1 
1 
1 
1 
1 
1 
1 
1 
1 
1 
1 
1 
1 
1 
1 
1 
1 
1 
1 
1 
1 
1 
1 
1 
1 
1 
1 
1 
1 
1 
1 
1 
1 
1 
1 
1 
1 
1 
1 
1 
1 
1 
1 
1 
1 
1 
1 
1 
1 
1 
1 
1 
1 
1 
1 
1 
1 
1 
1 
1 
1 
1 
1 
1 
1 
1 
1 
1 
1 
1 
1 
1 
1 
1 
1 
1 
1 
1 
1 
1 
1 
1 
1 
1 
1 
1 
1 
1 
1 
1 
1 
1 
1 
1 
1 
1 
1 
1 
1 
1 
1 
1 
1 
1 
1 
1 
1 
1 
1 
1 
1 
1 
1 
1 
1 
1 
1 
1 
1 
1 
1 
1 
1 
1 
1 
1 
1 
1 
1 
1 
1 
1 
1 
1 
1 
1 
1 
1 
1 
1 
1 
1 
1 
1 
1 
1 
1 
1 
1 
1 
1 
1 
1 
1 
1 
1 
1 
1 
1 
1 
1 
1 
1 
1 
1 
1 
1 
1 
1 
1 
1 
1 
1 
1 
1 
1 
1 
1 
1 
1 
1 
1 
1 
1 
1 
1 
1 
1 
1 
1 
1 
1 
1 
1 
1 
1 
1 
1 
1 
1 
1 
1 
1 
1 
1 
1 
1 
1 
1 
1 
1 
1 
1 
1 
1 
1 
1 
1 
1 
1 
1 
1 
1 
1 
1 
1 
1 
1 
1 
1 
1 
1 
1 
1 
1 
1 
1 
1 
1 
1 
1 
1 
1 
1 
1 
1 
1 
1 
1 
1 
1 
1 
1 
1 
1 
1 
1 
1 
1 
1 
1 
1 
1 
1 
1 
1 
1 
1 
1 
1 
1 
1 
1 
1 
1 
1 
1 
1 
1 
1 
1 
1 
1 
1 
1 
1 
1 
1 
1 
1 
1 
1 
1 
1 
1 
1 
1 
1 
1 
1 
1 
1 
1 
1 
1 
1 
1 
1 
1 
1 
1 
1 
1 
1 
1 
1 
1 
1 
1 
1 
1 
1 
1 
1 
1 
1 
1 
1 
1 
1 
1 
1 
1 
1 
1 
1 
1 
1 
1 
1 
1 
1 
1 
1 
1 
1 
1 
1 
1 
1 
1 
1 
1 
1 
1 
1 
1 
1 
1 
1 
1 
1 
1 
1 
1 
1 
1 
1 
1 
1 
1 
1 
1 
1 
1 
1 
1 
1 
1 
1 
1 
1 
1 
1 
1 
1 
1 
1 
1 
1 
1 
1 
1 
1 
1 
1 
1 
1 
1 
1 
1 
1 
1 
1 
1 
1 
1 
1 
1 
1 
1 
1 
1 
1 
1 
1 
1 
1 
1 
1 
1 
1 
1 
1 
1 
1 
1 
1 
1 
1 
1 
1 
1 
1 
1 
1 
1 
1 
1 
1 
1 
1 
1 
1 
1 
1 
1 
1 
1 
1 
1 
1 
1 
1 
1 
1 
1 
1 
1 
1 
1 
1 
1 
1 
1 
1 
1 
1 
1 
1 
1 
1 
1 
1 
1 
1 
1 
1 
1 
1 
1 
1 
1 
1 
1 
1 
1 
1 
1 
1 
1 
1 
1 
1 
1 
1 
1 
1 
1 
1 
1 
1 
1 
1 
1 
1 
1 
1 
1 
1 
1 
1 
1 
1 
1 
1 
1 
1 
1 
1 
1 
1 
1 
1 
1 
1 
1 
1 
1 
1 
1 
1 
1 
1 
1 
1 
1 
1 
1 
1 
1 
1 
1 
1 
1 
1 
1 
1 
1 
1 
1 
1 
1 
1 
1 
1 
1 
1 
1 
1 
1 
1 
1 
1 
1 
1 
1 
1 
1 
1 
1 
1 
1 
1 
1 
1 
1 
1 
1 
1 
1 
1 
1 
1 
1 
1 
1 
1 
1 
1 
1 
1 
1 
1 
1 
1 
1 
1 
1 
1 
1 
1 
1 
1 
1 
1 
1 
1 
1 
1 
1 
1 
1 
1 
1 
1 
1 
1 
1 
1 
1 
1 
1 
1 
1 
1 
1 
1 
1 
1 
1 
1 
1 
1 
1 
1 
1 
1 
1 
1 
1 
1 
1 
1 
1 
1 
1 
1 
1 
1 
1 
1 
1 
1 
1 
1 
1 
1 
1 
1 
1 
1 
1 
1 
1 
1 
1 
1 
1 
1 
1 
1 
1 
1 
1 
1 
1 
1 
1 
1 
1 
1 
1 
1 
1 
1 
1 
1 
1 
1 
1 
1 
1 
1 
1 
1 
1 
1 
1 
1 
1 
1 
1 
1 
1 
1 
1 
1 
1 
1 
1 
1 
1 
1 
1 
1 
1 
1 
1 
1 
1 
1 
1 
1 
1 
1 
1 
1 
1 
1 
1 
1 
1 
1 
1 
1 
1 
1 
1 
1 
1 
1 
1 
1 
1 
1 
1 
1 
1 
1 
1 
1 
1 
1 
1 
1 
1 
1 
1 
1 
1 
1 
1 
1 
1 
1 
1 
1 
1 
1 
1 
1 
1 
1 
1 
1 
1 
1 
1 
1 
1 
1 
1 
1 
1 
1 
1 
1 
1 
1 
1 
1 
1 
1 
1 
1 
1 
1 
1 
1 
1 
1 
1 
1 
1 
1 
1 
1 
1 
1 
1 
1 
1 
1 
1 
1 
1 
1 
1 
1 
1 
1 
1 
1 
1 
1 
1 
1 
1 
1 
1 
1 
1 
1 
1 
1 
1 
1 
1 
1 
1 
1 
1 
1 
1 
1 
1 
1 
1 
1 
1 
1 
1 
1 
1 
1 
1 
1 
1 
1 
1 
1 
1 
1 
1 
1 
1 
1 
1 
1 
1 
1 
1 
1 
1 
1 
1 
1 
1 
1 
1 
1 
1 
1 
1 
1 
1 
1 
1 
1 
1 
1 
1 
1 
1 
1 
1 
1 
1 
1 
1 
1 
1 
1 
1 
1 
1 
1 
1 
1 
1 
1 
1 
1 
1 
1 
1 
1 
1 
1 
1 
1 
1 
1 
1 
1 
1 
1 
1 
1 
1 
1 
1 
1 
1 
1 
1 
1 
1 
1 
1 
1 
1 
1 
1 
1 
1 
1 
1 
1 
1 
1 
1 
1 
1 
1 
1 
1 
1 
1 
1 
1 
1 
1 
1 
1 
1 
1 
1 
1 
1 
1 
1 
1 
1 
1 
1 
1 
1 
1 
1 
1 
1 
1 
1 
1 
1 
1 
1 
1 
1 
1 
1 
1 
1 
1 
1 
1 
1 
1 
1 
1 
1 
1 
1 
1 
1 
1 
1 
1 
1 
1 
1 
1 
1 
1 
1 
1 
1 
1 
1 
1 
1 
1 
1 
1 
1 
1 
1 
1 
1 
1 
1 
1 
1 
1 
1 
1 
1 
1 
1 
1 
1 
1 
1 
1 
1 
1 
1 
1 
1 
1 
1 
1 
1 
1 
1 
1 
1 
1 
1 
1 
1 
1 
1 
1 
1 
1 
1 
1 
1 
1 
1 
1 
1 
1 
1 
1 
1 
1 
1 
1 
1 
1 
1 
1 
1 
1 
1 
1 
1 
1 
1 
1 
1 
1 
1 
1 
1 
1 
1 
1 
1 
1 
1 
1 
1 
1 
1 
1 
1 
1 
1 
1 
1 
1 
1 
1 
1 
1 
1 
1 
1 
1 
1 
1 
1 
1 
1 
1 
1 
1 
1 
1 
1 
1 
1 
1 
1 
1 
1 
1 
1 
1 
1 
1 
1 
1 
1 
1 
1 
1 
1 
1 
1 
1 
1 
1 
1 
1 
1 
1 
1 
1 
1 
1 
1 
1 
1 
1 
1 
1 
1 
1 
1 
1 
1 
1 
1 
1 
1 
1 
1 
1 
1 
1 
1 
1 
1 
1 
1 
1 
1 
1 
1 
1 
1 
1 
1 
1 
1 
1 
1 
1 
1 
1 
1 
1 
1 
1 
1 
1 
1 
1 
1 
1 
1 
1 
1 
1 
1 
1 
1 
1 
1 
1 
1 
1 
1 
1 
1 
1 
1 
1 
1 
1 
1 
1 
1 
1 
1 
1 
1 
1 
1 
1 
1 
1 
1 
1 
1 
1 
1 
1 
1 
1 
1 
1 
1 
1 
1 
1 
1 
1 
1 
1 
1 
1 
1 
1 
1 
1 
1 
1 
1 
1 
1 
1 
1 
1 
1 
1 
1 
1 
1 
1 
1 
1 
1 
1 
1 
1 
1 
1 
1 
1 
1 
1 
1 
1 
1 
1 
1 
1 
1 
1 
1 
1 
1 
1 
1 
1 
1 
1 
1 
1 
1 
1 
1 
1 
1 
1 
1 
1 
1 
1 
1 
1 
1 
1 
1 
1 
1 
1 
1 
1 
1 
1 
1 
1 
1 
1 
1 
1 
1 
1 
1 
1 
1 
1 
1 
1 
1 
1 
1 
1 
1 
1 
1 
1 
1 
1 
1 
1 
1 
1 
1 
1 
1 
1 
1 
1 
1 
1 
1 
1 
1 
1 
1 
1 
1 
1 
1 
1 
1 
1 
1 
1 
1 
1 
1 
1 
1 
1 
1 
1 
1 
1 
1 
1 
1 
1 
1 
1 
1 
1 
1 
1 
1 
1 
1 
1 
1 
1 
1 
1 
1 
1 
1 
1 
1 
1 
1 
1 
1 
1 
1 
1 
1 
1 
1 
1 
1 
1 
1 
1 
1 
1 
1 
1 
1 
1 
1 
1 
1 
1 
1 
1 
1 
1 
1 
1 
1 
1 
1 
1 
1 
1 
1 
1 
1 
1 
1 
1 
1 
1 
1 
1 
1 
1 
1 
1 
1 
1 
1 
1 
1 
1 
1 
1 
1 
1 
1 
1 
1 
1 
1 
1 
1 
1 
1 
1 
1 
1 
1 
1 
1 
1 
1 
1 
1 
1 
1 
1 
1 
1 
1 
1 
1 
1 
1 
1 
1 
1 
1 
1 
1 
1 
1 
1 
1 
1 
1 
1 
1 
1 
1 
1 
1 
1 
1 
1 
1 
1 
1 
1 
1 
1 
1 
1 
1 
1 
1 
1 
1 
1 
1 
1 
1 
1 
1 
1 
1 
1 
1 
1 
1 
1 
1 
1 
1 
1 
1 
1 
1 
1 
1 
1 
1 
1 
1 
1 
1 
1 
1 
1 
1 
1 
1 
1 
1 
1 
1 
1 
1 
1 
1 
1 
1 
1 
1 
1 
1 
1 
1 
1 
1 
1 
1 
1 
1 
1 
1 
1 
1 
1 
1 
1 
1 
1 
1 
1 
1 
1 
1 
1 
1 
1 
1 
1 
1 
1 
1 
1 
1 
1 
1 
1 
1 
1 
1 
1 
1 
1 
1 
1 
1 
1 
1 
1 
1 
1 
1 
1 
1 
1 
1 
1 
1 
1 
1 
1 
1 
1 
1 
1 
1 
1 
1 
1 
1 
1 
1 
1 
1 
1 
1 
1 
1 
1 
1 
1 
1 
1 
1 
1 
1 
1 
1 
1 
1 
1 
1 
1 
1 
1 
1 
1 
1 
1 
1 
1 
1 
1 
1 
1 
1 
1 
1 
1 
1 
1 
1 
1 
1 
1 
1 
1 
1 
1 
1 
1 
1 
1 
1 
1 
1 
1 
1 
1 
1 
1 
1 
1 
1 
1 
1 
1 
1 
1 
1 
1 
1 
1 
1 
1 
1 
1 
1 
1 
1 
1 
1 
1 
1 
1 
1 
1 
1 
1 
1 
1 
1 
1 
1 
1 
1 
1 
1 
1 
1 
1 
1 
1 
1 
1 
1 
1 
1 
1 
1 
1 
1 
1 
1 
1 
1 
1 
1 
1 
1 
1 
1 
1 
1 
1 
1 
1 
1 
1 
1 
1 
1 
1 
1 
1 
1 
1 
1 
1 
1 
1 
1 
1 
1 
1 
1 
1 
1 
1 
1 
1 
1 
1 
1 
1 
1 
1 
1 
1 
1 
1 
1 
1 
1 
1 
1 
1 
1 
1 
1 
1 
1 
1 
1 
1 
1 
1 
1 
1 
1 
1 
1 
1 
1 
1 
1 
1 
1 
1 
1 
1 
1 
1 
1 
1 
1 
1 
1 
1 
1 
1 
1 
1 
1 
1 
1 
1 
1 
1 
1 
1 
1 
1 
1 
1 
1 
1 
1 
1 
1 
1 
1 
1 
1 
1 
1 
1 
1 
1 
1 
1 
1 
1 
1 
1 
1 
1 
1 
1 
1 
1 
1 
1 
1 
1 
1 
1 
1 
1 
1 
1 
1 
1 
1 
1 
1 
1 
1 
1 
1 
1 
1 
1 
1 
1 
1 
1 
1 
1 
1 
1 
1 
1 
1 
1 
1 
1 
1 
1 
1 
1 
1 
1 
1 
1 
1 
1 
1 
1 
1 
1 
1 
1 
1 
1 
1 
1 
1 
1 
1 
1 
1 
1 
1 
1 
1 
1 
1 
1 
1 
1 
1 
1 
1 
1 
1 
1 
1 
1 
1 
1 
1 
1 
1 
1 
1 
1 
1 
1 
1 
1 
1 
1 
1 
1 
1 
1 
1 
1 
1 
1 
1 
1 
1 
1 
1 
1 
1 
1 
1 
1 
1 
1 
1 
1 
1 
1 
1 
1 
1 
1 
1 
1 
1 
1 
1 
1 
1 
1 
1 
1 
1 
1 
1 
1 
1 
1 
1 
1 
1 
1 
1 
1 
1 
1 
1 
1 
1 
1 
1 
1 
1 
1 
1 
1 
1 
1 
1 
1 
1 
1 
1 
1 
1 
1 
1 
1 
1 
1 
1 
1 
1 
1 
1 
1 
1 
1 
1 
1 
1 
1 
1 
1 
1 
1 
1 
1 
1 
1 
1 
1 
1 
1 
1 
1 
1 
1 
1 
1 
1 
1 
1 
1 
1 
1 
1 
1 
1 
1 
1 
1 
1 
1 
1 
1 
1 
1 
1 
1 
1 
1 
1 
1 
1 
1 
1 
1 
1 
1 
1 
1 
1 
1 
1 
1 
1 
1 
1 
1 
1 
1 
1 
1 
1 
1 
1 
1 
1 
1 
1 
1 
1 
1 
1 
1 
1 
1 
1 
1 
1 
1 
1 
1 
1 
1 
1 
1 
1 
1 
1 
1 
1 
1 
1 
1 
1 
1 
1 
1 
1 
1 
1 
1 
1 
1 
1 
1 
1 
1 
1 
1 
1 
1 
1 
1 
1 
1 
1 
1 
1 
1 
1 
1 
1 
1 
1 
1 
1 
1 
1 
1 
1 
1 
1 
1 
1 
1 
1 
1 
1 
1 
1 
1 
1 
1 
1 
1 
1 
1 
1 
1 
1 
1 
1 
1 
1 
1 
1 
1 
1 
1 
1 
1 
1 
1 
1 
1 
1 
1 
1 
1 
1 
1 
1 
1 
1 
1 
1 
1 
1 
1 
1 
1 
1 
1 
1 
1 
1 
1 
1 
1 
1 
1 
1 
1 
1 
1 
1 
1 
1 
1 
1 
1 
1 
1 
1 
1 
1 
1 
1 
1 
1 
1 
1 
1 
1 
1 
1 
1 
1 
1 
1 
1 
1 
POINT_DATA 5000
VECTORS Stress float
-1868.11 -3189.1 0.
-2812.68 -2770.25 0.
-31.6558 -80.7467 0.
-549.576 -862.169 0.
-3436.85 -6700.58 0.
-26.6326 -25.8031 0.
-3035.6 -3060.48 0.
-5.85096 -11.0257 0.
-198.146 -150.618 0.
-4039.44 -6339.69 0.
-1430.65 -2422.42 0.
-15.1064 -14.2505 0.
-1859.69 -2727.95 0.
-1465.03 -2215.22 0.
-1292.04 -1990.56 0.
-1046.18 -1735.57 0.
-793.317 -1487.58 0.
-793.24 -1586.15 0.
-612.913 -1302.41 0.
-435.555 -1015.7 0.
-486.91 -979.699 0.
-450.538 -923.175 0.
-414.175 -866.642 0.
-440.653 -879.319 0.
-427.879 -903.578 0.
-418.082 -924.858 0.
-496.032 -1014.01 0.
-513.642 -1038.36 0.
-465.739 -982.201 0.
-439.557 -946.376 0.
-414.036 -909.891 0.
-407.307 -892.565 0.
-386.643 -854.143 0.
-366.129 -815.571 0.
-368.091 -806.657 0.
-367.012 -829.499 0.
-372.056 -846.218 0.
-437.627 -932.351 0.
-461.9 -988.978 0.
-433.012 -995.183 0.
-407.428 -942.827 0.
-387.039 -885.276 0.
-386.723 -871.998 0.
-393.306 -888.091 0.
-400.651 -903.424 0.
-385.081 -848.264 0.
-345.138 -695.398 0.
-308.928 -538.799 0.
-264.255 -538.538 0.
-317.512 -828.269 0.
-396.208 -1092.54 0.
-363.211 -897.548 0.
-308.025 -636.985 0.
-317.635 -595.226 0.
-347.125 -722.031 0.
-381.764 -843.687 0.
-395.543 -904.366 0.
-402.655 -917.823 0.
-411.388 -929.659 0.
-403.135 -923.413 0.
-408.363 -941.741 0.
-418.807 -954.855 0.
-461.011 -986.347 0.
-454.547 -971.266 0.
-398.571 -915.378 0.
-388.589 -877.981 0.
-383.305 -835.887 0.
-381.214 -830.187 0.
-392.212 -853.636 0.
-405.757 -874.537 0.
-409.027 -896.334 0.
-447.68 -962.469 0.
-487.067 -1027.87 0.
-526.451 -1081.84 0.
-504.648 -1048.19 0.
-474.282 -1010.19 0.
-448.448 -914.006 0.
-455.887 -873.853 0.
-411.38 -856.535 0.
-479.878 -988.169 0.
-548.429 -1119.75 0.
-489.703 -1163.43 0.
-810.156 -1739.76 0.
-1137.58 -2309.13 0.
-1145.83 -1928.07 0.
-1327.82 -1818.85 0.
-1486.73 -1732.71 0.
-1579.91 -2486.18 0.
-2351.22 -3859.3 0.
-27.6516 -36.0846 0.
-788.955 -1290.4 0.
-4606.19 -7007.41 0.
-246.236 -316.696 0.
-275.814 -243.225 0.
-2898.17 -3298.59 0.
-7.57585 -20.6398 0.
-3558.43 -5244.87 0.
-17.7215 -24.0857 0.
-3273.49 -5109.51 0.
-248.715 -231.579 0.
-1521.46 -2769.2 0.
-78.7836 -197.476 0.
-39.6592 -109.571 0.
-262.188 -182.517 0.
-183.858 -180.754 0.
-46.1713 -44.7574 0.
-37.3918 -39.5039 0.
-24.7768 -32.5264 0.
-480.884 -291.416 0.
-156.38 -135.002 0.
-11.7602 -12.1588 0.
-55.1529 -42.5134 0.
-738.906 -1002.65 0.
-402.016 -430.802 0.
-525.866 -848.404 0.
-337.647 -535.277 0.
-186.924 -184.654 0.
-504.104 -1122.15 0.
-346.384 -815.621 0.
-216.264 -481.493 0.
-392.092 -882.197 0.
-354.284 -827.106 0.
-319.648 -768.842 0.
-424.376 -799.877 0.
-410.472 -825.266 0.
-397.454 -849.762 0.
-590.108 -1071.66 0.
-602.695 -1101.02 0.
-445.599 -908.39 0.
-416.817 -875.162 0.
-389.968 -840.002 0.
-408.912 -874.888 0.
-387.848 -836.866 0.
-374.983 -790.644 0.
-377.843 -768.003 0.
-374.789 -792.818 0.
-375.425 -813.944 0.
-534.059 -973.656 0.
-558.335 -1030.27 0.
-440.378 -946.351 0.
-411.565 -897.222 0.
-385.663 -845.182 0.
-404.134 -877.611 0.
-408.194 -896.229 0.
-412.523 -914.577 0.
-445.474 -865.855 0.
-384.293 -734.233 0.
-324.001 -601.724 0.
-132.053 -206.962 0.
-208.426 -473.658 0.
-280.183 -744.922 0.
-302.124 -671.322 0.
-237.563 -420.087 0.
-345.992 -637.995 0.
-396.377 -743.898 0.
-447.575 -848.986 0.
-414.661 -911.717 0.
-423.872 -923.076 0.
-433.384 -934.135 0.
-404.372 -875.16 0.
-411.364 -891.725 0.
-424.688 -901.957 0.
-552.033 -1025.32 0.
-545.568 -1010.24 0.
-400.36 -878.825 0.
-391.936 -839.869 0.
-388.237 -796.189 0.
-391.036 -802.673 0.
-395.767 -832.39 0.
-406.228 -856.377 0.
-373.984 -813.813 0.
-415.678 -876.912 0.
-458.285 -939.098 0.
-586.305 -1137.4 0.
-569.298 -1098.96 0.
-340.756 -835.914 0.
-440.86 -834.707 0.
-449.258 -793.595 0.
-308.344 -700.619 0.
-377.335 -831.784 0.
-449.634 -959.643 0.
-166.814 -186.138 0.
-382.075 -868.267 0.
-648.416 -1499.32 0.
-208.019 -130.362 0.
-226.736 -179.819 0.
-229.988 -249.446 0.
-25.8508 -11.7356 0.
-385.084 -948.803 0.
-36.1132 -51.6911 0.
-18.6141 -14.3693 0.
-82.0594 -83.3248 0.
-403.976 -216.912 0.
-22.7028 -28.1279 0.
-87.1921 -83.263 0.
-2.43037 -5.28809 0.
-81.4582 -151.624 0.
-20.0542 -26.1959 0.
-57.3221 -121.105 0.
0.0957484 0.436738 0.
-5.41132 -14.4858 0.
-88.6833 -240.731 0.
-54.4597 -146.489 0.
-203.716 -164.772 0.
-97.3344 -88.1667 0.
-67.5684 -62.724 0.
-83.1627 -59.3131 0.
-104.325 -59.4106 0.
-757.474 -462.209 0.
-110.141 -54.3249 0.
-10.7376 -13.867 0.
-209.906 -149.888 0.
-142.904 -67.1807 0.
-102.067 -57.9431 0.
-39.6935 -16.1669 0.
-54.8713 -21.9855 0.
-71.1604 -46.5261 0.
-290.115 -582.995 0.
-165.504 -243.181 0.
-24.358 -11.0957 0.
-344.378 -737.592 0.
-311.856 -677.211 0.
-282.192 -613.97 0.
-414.061 -714.474 0.
-400.173 -739.845 0.
-386.733 -764.76 0.
-696.31 -1117.18 0.
-708.896 -1146.54 0.
-444.312 -815.726 0.
-416.626 -781.4 0.
-389.855 -746.158 0.
-414.901 -852.828 0.
-400.015 -808.627 0.
-386.972 -762.584 0.
-395.136 -721.806 0.
-391.237 -747.467 0.
-388.215 -772.249 0.
-630.491 -1014.96 0.
-654.769 -1071.57 0.
-454.934 -890.329 0.
-426.543 -840.776 0.
-399.243 -790.131 0.
-437.656 -867.112 0.
-441.725 -885.722 0.
-446.061 -904.066 0.
-520.353 -868.959 0.
-458.874 -737.643 0.
-397.839 -605.883 0.
-14.5476 -29.7439 0.
-78.5449 -139.843 0.
-3425.84 -2379.92 0.
-233.1 -453.034 0.
-150.217 -220.073 0.
-428.2 -626.913 0.
-478.402 -732.991 0.
-529.457 -838.215 0.
-453.455 -899.392 0.
-461.705 -911.714 0.
-470.967 -923.024 0.
-419.146 -813.37 0.
-428.544 -827.529 0.
-440.506 -839.124 0.
-643.055 -1064.3 0.
-636.589 -1049.22 0.
-416.115 -828.307 0.
-412.461 -784.579 0.
-409.857 -739.802 0.
-404.185 -771.832 0.
-409.689 -800.777 0.
-414.719 -830.196 0.
-361.103 -709.13 0.
-401.549 -773.482 0.
-442.908 -836.921 0.
-667.22 -1171.9 0.
-650.095 -1133.58 0.
-385.64 -729.201 0.
-437.437 -751.244 0.
-444.847 -711.12 0.
-287.374 -462.637 0.
-326.053 -624.14 0.
-378.516 -771.858 0.
-63.0208 -70.6643 0.
-32.2315 -47.7776 0.
-313.627 -535.134 0.
-304.105 -180.334 0.
-69.611 -79.6427 0.
-117.431 -117.98 0.
-51.6325 -22.2334 0.
-49.6545 -19.4345 0.
-46.1236 -65.5196 0.
-30.1234 -25.6053 0.
-35.4579 -44.2217 0.
-717.539 -314.216 0.
-227.199 -126.535 0.
-181.559 -119.405 0.
-0.492272 -0.775308 0.
-15.2169 -21.4232 0.
-45.5747 -77.0649 0.
-47.9996 -73.4274 0.
-3068.6 -5967.54 0.
-2817.67 -5409.46 0.
-115.173 -316.454 0.
-106.016 -288.913 0.
-3025.44 -3390.57 0.
-213.993 -426.877 0.
-2844.02 -5347.28 0.
-18.7008 -33.7437 0.
-1848.25 -2409.85 0.
-149.188 -142.888 0.
-3344.73 -5974.37 0.
0.0493985 0.000549128 0.
0.103442 0.00770533 0.
-4013.94 -7399.1 0.
-17.9856 -9.25673 0.
-2193.83 -3269.48 0.
-1406.87 -2156.03 0.
-672.617 -989.852 0.
-2107.72 -4106.24 0.
-1095.03 -2240.71 0.
-206.085 -251.418 0.
-1188.25 -2664.53 0.
-787.478 -1839.45 0.
-418.354 -982.737 0.
-710.434 -1625.61 0.
-574.365 -1334.55 0.
-444.461 -1037.33 0.
-861.566 -1618.57 0.
-863.888 -1624.01 0.
-605.746 -1283.87 0.
-563.079 -1190.72 0.
-520.479 -1097.5 0.
-581.727 -1146.86 0.
-573.912 -1171.58 0.
-567.271 -1195.13 0.
-615.469 -1171.47 0.
-613.767 -1209.3 0.
-612.917 -1246.27 0.
-864.034 -1491.2 0.
-861.234 -1484.71 0.
-630.127 -1250.23 0.
-616.067 -1226.35 0.
-602.2 -1202.29 0.
-650.501 -1246.07 0.
-629.056 -1216.5 0.
-608.74 -1185.81 0.
-737.363 -1240.7 0.
-758.467 -1308.4 0.
-780.751 -1374.92 0.
-113.501 -218.092 0.
-111.963 -246.273 0.
-4351.43 -2959.83 0.
-260.35 -538.618 0.
-260.882 -492.368 0.
-754.212 -1325.64 0.
-746.857 -1297.16 0.
-741.134 -1267.05 0.
-647.218 -1240.23 0.
-655.744 -1243.56 0.
-665.27 -1245.89 0.
-595.349 -1193.03 0.
-617.553 -1238.03 0.
-639.923 -1282.87 0.
-860.364 -1505.94 0.
-853.45 -1489.81 0.
-606.167 -1221.3 0.
-615.083 -1193.61 0.
-625.195 -1164.73 0.
-571.246 -1208.47 0.
-589.531 -1214 0.
-608.587 -1218.75 0.
-540.053 -1153.86 0.
-578.749 -1231.53 0.
-617.543 -1309.09 0.
-831.937 -1695.9 0.
-854.887 -1749.49 0.
-449.767 -987.156 0.
-671.873 -1503.63 0.
-888.808 -1959.59 0.
-385.372 -792.85 0.
-887.228 -1962.62 0.
-1457.05 -3064.42 0.
-65.2114 -24.0919 0.
-1310.88 -2626.66 0.
-2601.25 -5184.51 0.
-354.921 -480.01 0.
-1321.61 -1954.61 0.
-2331.55 -3385.92 0.
-75.1164 -77.349 0.
-4391.16 -7821.19 0.
-31.7063 -70.1153 0.
-27.1252 -41.137 0.
-3635.88 -4667.61 0.
-38.5117 -44.5365 0.
-1937.07 -2775.91 0.
-0.407992 -0.339376 0.
-2881.66 -5253.51 0.
-708.212 -711.533 0.
-927.69 -917.445 0.
-0.014944 -0.0381727 0.
-6.97719 -17.4498 0.
-49.7218 -93.8991 0.
2.71787 7.41175 0.
-3009.83 -6171.36 0.
-83.0461 -189.321 0.
-15.8784 -36.5695 0.
-295.858 -648.706 0.
0.17679 0.337664 0.
-100.005 -129.375 0.
-15.4728 -11.452 0.
-214.323 -263.797 0.
0.215623 0.00420498 0.
0.0785635 0.0807383 0.
-6.29344 -2.32197 0.
-15.8524 -8.82726 0.
-24.1391 -22.6536 0.
0.411557 0.161935 0.
-8.9511 -3.4588 0.
-266.111 -245.116 0.
-34.1276 -27.579 0.
-30.9337 -28.7324 0.
-633.07 -1464.9 0.
-298.209 -572.806 0.
-50.9727 -70.2257 0.
-573.6 -1303.7 0.
-457.552 -992.523 0.
-349.694 -673.152 0.
-800.498 -1592.45 0.
-802.823 -1597.89 0.
-596.529 -1246.28 0.
-551.581 -1155.41 0.
-506.899 -1064.26 0.
-592.727 -1075.15 0.
-585.103 -1099.68 0.
-578.36 -1123.33 0.
-631.258 -1117.13 0.
-628.754 -1155.75 0.
-627.081 -1193.54 0.
-900.019 -1506.61 0.
-897.216 -1500.12 0.
-681.953 -1241.02 0.
-668.932 -1216.11 0.
-656.118 -1190.99 0.
-708.848 -1204.74 0.
-688.042 -1174.53 0.
-668.351 -1143.21 0.
-807.17 -1208.73 0.
-827.8 -1276.91 0.
-849.68 -1343.83 0.
0.651139 1.03052 0.
0.811049 0.29401 0.
-5241.96 -3334.96 0.
-131.821 -212.008 0.
-120.827 -177.275 0.
-802.526 -1296.75 0.
-795.421 -1268.02 0.
-789.015 -1238.6 0.
-709.877 -1201.67 0.
-718.329 -1205.08 0.
-727.753 -1207.51 0.
-646.902 -1178.18 0.
-668.999 -1223.29 0.
-691.261 -1268.22 0.
-894.648 -1520.61 0.
-887.731 -1504.48 0.
-635.228 -1164.92 0.
-645.303 -1136.07 0.
-656.396 -1106.2 0.
-568.922 -1131.15 0.
-585.857 -1138.02 0.
-605.966 -1141.72 0.
-535.025 -1119.19 0.
-574.088 -1196.49 0.
-613.449 -1273.5 0.
-791.612 -1632.02 0.
-829.595 -1670.58 0.
-317.098 -436.566 0.
-462.666 -936.182 0.
-648.473 -1423.55 0.
-51.8938 -76.0004 0.
-15.1329 -21.4227 0.
-563.567 -1041.89 0.
-31.8211 -12.3806 0.
-12.2998 -4.80954 0.
-293.876 -139.79 0.
-16.2868 -28.3397 0.
-26.2065 -47.7166 0.
-208.3 -285.09 0.
-66.7203 -89.9784 0.
-83.2132 -108.774 0.
-27.4361 -26.6856 0.
-2.99635 -1.89077 0.
-40.9193 -36.5586 0.
-26.3986 -41.8786 0.
-43.5715 -87.5419 0.
-16.6408 -13.4605 0.
-22.7887 -34.7656 0.
0.895734 0.332254 0.
-0.00557948 -0.0572536 0.
-1.05943 -2.65731 0.
-882.211 -1491.72 0.
-1880.42 -3088.5 0.
-0.564648 -1.39516 0.
-0.0522413 -5.55893 0.
-0.00686283 -3.21714 0.
-41.7189 -83.4006 0.
-124.778 -298.086 0.
-0.0119159 -0.940304 0.
-2438.61 -4268.94 0.
-228.274 -348.634 0.
-2759.58 -5445.03 0.
-44.785 -17.0739 0.
-15.4311 -5.57677 0.
-3473.88 -6671.72 0.
-20.3609 -8.92512 0.
-2763.64 -4043.42 0.
-721.649 -746.116 0.
-16.987 -6.71996 0.
-2868.97 -5776.24 0.
-1042.31 -1852.08 0.
-51.0203 -59.9199 0.
-1992.31 -4183.14 0.
-965.72 -2112.02 0.
-25.6459 -26.9548 0.
-1134.21 -2421.24 0.
-727.806 -1554.78 0.
-348.535 -661.189 0.
-877.45 -1698.64 0.
-727.287 -1438.9 0.
-496.49 -1026.75 0.
-440.268 -925.023 0.
-384.908 -822.433 0.
-497.199 -826.846 0.
-474.789 -794.274 0.
-452.868 -761.215 0.
-473.434 -749.313 0.
-459.609 -727.417 0.
-445.939 -705.365 0.
-721.48 -1056.44 0.
-711.736 -1033.7 0.
-524.465 -716.62 0.
-532.516 -743.951 0.
-540.703 -771.145 0.
-600.446 -815.221 0.
-594.885 -809.767 0.
-589.938 -803.7 0.
-718.825 -897.193 0.
-756.093 -983.514 0.
-793.627 -1069.57 0.
-0.126727 -0.309869 0.
-0.0954412 -0.491976 0.
-4834.96 -2496.65 0.
-29.4243 -15.2133 0.
-26.3544 -16.7082 0.
-756.347 -1116.93 0.
-710.165 -1008.24 0.
-676.073 -887.465 0.
-605.846 -797.818 0.
-612.697 -808.636 0.
-619.759 -819.241 0.
-531.304 -765.029 0.
-523.745 -741.326 0.
-516.21 -717.6 0.
-709.462 -1044.4 0.
-722.965 -1075.87 0.
-468.57 -711.44 0.
-490.259 -751.796 0.
-512.079 -792.021 0.
-451.621 -803.097 0.
-474.558 -835.736 0.
-497.677 -868.194 0.
-434.057 -860.493 0.
-533.499 -1057.34 0.
-633.02 -1254.1 0.
-846.07 -1642.66 0.
-1050.44 -1977.06 0.
-297.63 -436.674 0.
-802.719 -1666.4 0.
-1345.66 -2826.44 0.
-17.4873 -10.5815 0.
-970.826 -2015.95 0.
-2426.75 -5231.19 0.
-75.8487 -92.5324 0.
-824.836 -619.15 0.
-2613.86 -3808.73 0.
-2.26468 -5.78789 0.
-3893.66 -8382.31 0.
-94.0834 -109.283 0.
-76.1403 -86.0357 0.
-2977.53 -4432.62 0.
-24.0395 -25.5046 0.
-3476.94 -5552.76 0.
-84.2995 -231.722 0.
-1388.88 -3251.4 0.
-62.4432 -51.7563 0.
-36.492 -32.8142 0.
-784.513 -440.316 0.
-0.167857 -0.861404 0.
-2192.39 -4001.92 0.
-17.7416 -43.2241 0.
-2921.32 -6470.87 0.
-1469.4 -2463.98 0.
0.761575 1.52903 0.
-31.0938 -74.8401 0.
1.41779 3.74736 0.
-65.5703 -127.856 0.
-25.9954 -44.6101 0.
-2019.02 -4204.43 0.
0.403986 1.10151 0.
0.0455251 0.00986946 0.
0.639497 0.000412646 0.
-212.031 -94.1747 0.
-30.6077 -11.0524 0.
0.446152 0.214239 0.
0.548261 0.216234 0.
-32.498 -24.8659 0.
-23.207 -9.33689 0.
-30.1965 -14.4359 0.
-8.63416 -11.3771 0.
-14.5168 -15.847 0.
-34.9665 -42.6854 0.
-400.41 -665.639 0.
-10.2191 -8.51809 0.
-20.9165 -23.2902 0.
-614.804 -1381.51 0.
-271.318 -451.1 0.
-40.8827 -88.871 0.
-618.535 -1259.93 0.
-485.051 -983.363 0.
-410.045 -873.115 0.
-363.565 -761.628 0.
-320.019 -647.208 0.
-466.169 -761.995 0.
-446.069 -727.113 0.
-424.16 -694.04 0.
-466.606 -706.247 0.
-450.598 -686.531 0.
-436.819 -664.586 0.
-720.869 -1056.15 0.
-711.123 -1033.41 0.
-521.753 -692.421 0.
-529.712 -719.846 0.
-537.826 -747.116 0.
-604.273 -760.067 0.
-599.19 -754.139 0.
-594.749 -747.571 0.
-657.489 -847.442 0.
-695.039 -933.496 0.
-732.777 -1019.36 0.
-0.194215 -0.527419 0.
0.0580278 0.102446 0.
-4028.5 -2145.93 0.
-23.9541 -12.951 0.
-26.4794 -15.0921 0.
-724.19 -1064.45 0.
-677.631 -956.133 0.
-631.483 -847.408 0.
-600.267 -753.405 0.
-607.341 -763.997 0.
-615.586 -773.418 0.
-536.694 -760.289 0.
-529.717 -736.002 0.
-522.865 -711.59 0.
-721.735 -1049.64 0.
-735.232 -1081.11 0.
-424.29 -655.64 0.
-445.907 -696.073 0.
-472.941 -731.086 0.
-395.6 -708.801 0.
-418.463 -741.515 0.
-441.07 -774.485 0.
-337.228 -579.048 0.
-413.639 -798.984 0.
-497.06 -1011.91 0.
-519.969 -977.433 0.
-695.469 -1340.97 0.
-54.0553 -67.1019 0.
-147.386 -97.5655 0.
-624.071 -1325.83 0.
-7.67912 -20.586 0.
-7.5189 -20.1288 0.
-317.293 -226.617 0.
-47.8743 -81.0466 0.
-18.4957 -40.9357 0.
-11.6116 -24.337 0.
-8.12555 -13.6875 0.
-8.06839 -12.803 0.
-120.372 -126.115 0.
-76.4756 -65.172 0.
-178.283 -161.233 0.
-0.148779 -0.177337 0.
-24.5226 -58.6497 0.
-50.7515 -107.843 0.
-1917.49 -3623.34 0.
-26.2964 -11.8952 0.
-2857.24 -3601.92 0.
-411.165 -153.17 0.
-0.0171818 -5.6166 0.
-54.6092 -130.984 0.
6.61899 18.0133 0.
-121.413 -242.302 0.
4.90498 10.5786 0.
-2.40029 -9.34975 0.
-2017.89 -4163.58 0.
-0.00133319 -7.95147 0.
2.30528 5.67522 0.
-33.8081 -73.087 0.
-12.6063 -19.8663 0.
1.76638 3.00265 0.
0.0311681 0.0929519 0.
0.0514384 0.80626 0.
-375.663 -191.148 0.
-71.4456 -25.9933 0.
-29.1592 -10.53 0.
0.136622 0.0541517 0.
-14.266 -5.15915 0.
-81.8341 -38.7678 0.
-62.327 -35.6518 0.
-0.16307 -0.293627 0.
-5.57376 -6.2587 0.
-20.8934 -24.7087 0.
-32.5376 -51.2805 0.
-11.5148 -10.2096 0.
-17.7423 -19.8949 0.
-201.923 -235.259 0.
-10.9217 -23.0236 0.
-29.8171 -81.8334 0.
-408.486 -772.355 0.
-292.328 -478.311 0.
-347.51 -695.568 0.
-307.222 -577.873 0.
-268.352 -458.761 0.
-440.771 -691.511 0.
-418.439 -658.861 0.
-396.778 -625.541 0.
-467.824 -655.135 0.
-451.397 -635.834 0.
-435.212 -616.293 0.
-720.258 -1055.86 0.
-710.511 -1033.12 0.
-519.684 -667.578 0.
-527.545 -695.104 0.
-535.564 -722.472 0.
-608.836 -704.175 0.
-604.305 -697.701 0.
-600.089 -690.912 0.
-601.158 -792.685 0.
-638.769 -878.692 0.
-676.469 -964.611 0.
-0.780348 -1.27716 0.
-0.384876 -0.752478 0.
-4062.39 -2172.96 0.
-23.4673 -12.5878 0.
-27.8254 -14.0529 0.
-692.298 -1011.7 0.
-645.542 -903.58 0.
-598.971 -795.274 0.
-600.882 -702.798 0.
-607.902 -713.442 0.
-615.377 -723.63 0.
-555.026 -742.607 0.
-548.175 -718.191 0.
-541.478 -693.622 0.
-734.007 -1054.88 0.
-747.498 -1086.36 0.
-388.664 -591.187 0.
-415.506 -626.397 0.
-442.481 -661.475 0.
-352.572 -601.513 0.
-376.39 -633.271 0.
-399.14 -666.098 0.
-260.442 -277.561 0.
-331.623 -502.786 0.
-405.891 -724.925 0.
-258.929 -247.142 0.
-410.115 -635.273 0.
-60.7777 -64.7344 0.
-26.0454 -12.6482 0.
-29.6606 -16.6361 0.
-8.92611 -22.3613 0.
-12.7347 -24.1693 0.
-17.1 -43.4825 0.
-69.0634 -90.5978 0.
-14.1612 -33.2605 0.
-6.06934 -14.9284 0.
-20.7552 -21.5663 0.
-79.6416 -74.8229 0.
-343.276 -307.339 0.
-208.765 -138.452 0.
-274.705 -187.682 0.
0.826475 1.3451 0.
-20.5722 -51.801 0.
-68.3674 -95.7357 0.
-692.931 -1097.69 0.
-5.27005 -1.92904 0.
-2.20149 -4.26975 0.
-2021.23 -1659.82 0.
0.57089 1.54577 0.
-3434.35 -6384.41 0.
5.99799 16.2485 0.
-3455.71 -5370.86 0.
-1798.6 -2937.11 0.
7.53415 15.1624 0.
-0.304482 -0.602503 0.
5.70144 15.1274 0.
2.26587 4.4133 0.
-2117.38 -4147.21 0.
-329.036 -704.051 0.
-0.126452 -0.47189 0.
0.167223 0.595872 0.
-2300.4 -4069.29 0.
-1809.6 -1865.26 0.
0.564865 0.904071 0.
-2453.61 -4879.57 0.
-3.59669 -1.43886 0.
0.513333 0.210321 0.
-3705.52 -6798.88 0.
-0.37743 -0.301376 0.
-2879.72 -4512.74 0.
-0.259768 -0.440212 0.
-1.24975 -2.25077 0.
-3059.37 -6883.82 0.
-180.489 -119.629 0.
-33.128 -52.6357 0.
-1878.79 -4372.32 0.
-672.397 -1577.29 0.
-7.74415e-06 -1.18535e-05 0.
-1190.68 -2634.05 0.
-751.981 -1738.06 0.
-880.978 -1919.1 0.
-648.706 -1433.51 0.
-433.839 -930.511 0.
-652.937 -1324.13 0.
-566.254 -1169.15 0.
-480.377 -1013.37 0.
-626.104 -1097.51 0.
-588.869 -1046.88 0.
-552.507 -995.387 0.
-881.478 -1489.72 0.
-862.572 -1445.63 0.
-622.401 -1020.99 0.
-624.271 -1033.89 0.
-626.742 -1046.19 0.
-678.909 -1071.13 0.
-695.104 -1113.06 0.
-711.624 -1154.67 0.
-716.073 -1250.39 0.
-752.796 -1350.51 0.
-794.994 -1445.17 0.
-23.4628 -61.3354 0.
-14.479 -38.1019 0.
-3844.15 -2912.03 0.
-148.804 -207.197 0.
-144.591 -198.176 0.
-764.272 -1380.51 0.
-735.863 -1312.21 0.
-717.663 -1233.7 0.
-715.743 -1154.08 0.
-692.695 -1097.18 0.
-669.785 -1040.14 0.
-621.502 -1049.72 0.
-644.275 -1095.14 0.
-668.903 -1138.7 0.
-897.25 -1534 0.
-907.303 -1557.44 0.
-509.5 -973.672 0.
-572.63 -1082.14 0.
-636.984 -1189.39 0.
-476.563 -1043.52 0.
-592.598 -1296.62 0.
-717.806 -1540.55 0.
-452.148 -898.118 0.
-711.461 -1582.56 0.
-1017.61 -2220.18 0.
-858.04 -1820.48 0.
-1489.79 -3253.08 0.
-38.1016 -52.5623 0.
-722.61 -1414.59 0.
-2364.84 -5238.02 0.
-16.2702 -43.5255 0.
-4.23901 -10.55 0.
-3022.59 -6622.3 0.
-13.2222 -20.0153 0.
-16.4953 -24.5553 0.
-3247.06 -4856.24 0.
-23.1236 -12.9115 0.
-3086.27 -6470.58 0.
-84.998 -95.6432 0.
-579.707 -691.089 0.
-1674.73 -3670.37 0.
-25.456 -66.0654 0.
-2119.77 -3773.75 0.
-85.6338 -87.8927 0.
-97.7401 -54.8478 0.
-0.812358 -0.00459629 0.
-82.3148 -189.59 0.
-9.622 -22.7778 0.
-0.130148 -18.0002 0.
-0.785738 -7.16234 0.
-3.16463 -29.3909 0.
-2.79308 -4.72433 0.
20.9369 31.7621 0.
-32.1563 -60.6331 0.
-2094.55 -3638.33 0.
4.14432 10.2176 0.
-1578.13 -2749.32 0.
0.0125027 8.55852 0.
-280.58 -596.815 0.
-0.464982 -1.86927 0.
-57.2418 -149.209 0.
-697.805 -1521.71 0.
-2.34754 -4.39931 0.
0.525969 1.10432 0.
0.0307634 1.71895 0.
-26.3998 -9.67579 0.
-3.62231 -1.36808 0.
0.789286 0.590437 0.
0.0593067 0.0539126 0.
-21.0315 -28.3997 0.
-0.20567 -0.323263 0.
-1.86716 -3.13386 0.
-15.5551 -19.1481 0.
-25.6801 -30.6949 0.
-39.6282 -62.9612 0.
-370.503 -768.643 0.
0.0963779 0.0260572 0.
0.0152528 0.02234 0.
-608.345 -1322.6 0.
-227.604 -367.344 0.
-565.243 -1224.88 0.
-370.149 -701.739 0.
-191.645 -162.004 0.
-485.112 -1088.16 0.
-410.678 -920.884 0.
-346.787 -743.061 0.
-564.044 -983.714 0.
-527.573 -932.32 0.
-491.877 -880.152 0.
-850.869 -1476.58 0.
-831.961 -1432.48 0.
-585.033 -935.22 0.
-587.08 -947.947 0.
-589.694 -960.11 0.
-630.08 -1010.46 0.
-645.828 -1052.85 0.
-661.889 -1094.93 0.
-632.759 -1183.38 0.
-674.975 -1278.03 0.
-717.383 -1372.49 0.
-64.2498 -153.184 0.
-52.5704 -132.648 0.
-3492.72 -2758.88 0.
-198.252 -268.778 0.
-194.207 -259.589 0.
-703.814 -1308.77 0.
-675.185 -1240.68 0.
-646.958 -1172.19 0.
-662.861 -1095.22 0.
-638.462 -1039.67 0.
-615.266 -982.906 0.
-577.828 -949.284 0.
-601.344 -993.961 0.
-625.737 -1037.76 0.
-847.652 -1509.26 0.
-861.94 -1528.47 0.
-445.72 -833.011 0.
-507.851 -942.496 0.
-571.154 -1050.81 0.
-338.758 -639.999 0.
-435.632 -912.365 0.
-544.233 -1173 0.
-71.0233 -81.0304 0.
-326.672 -540.818 0.
-584.006 -1227.94 0.
-46.6351 -51.4886 0.
-673.531 -1373.66 0.
-34.7233 -45.7416 0.
-37.933 -50.8363 0.
-42.643 -76.0775 0.
-28.0444 -72.1743 0.
-2.75687 -7.53931 0.
-0.500528 -1.22161 0.
-22.0088 -30.6958 0.
-23.826 -32.2958 0.
-28.6463 -46.0562 0.
-15.9379 -6.09361 0.
-18.674 -7.58867 0.
-185.147 -210.182 0.
-742.652 -988.836 0.
0.279381 0.575188 0.
0.238177 0.402911 0.
-71.1146 -70.0753 0.
-2054.94 -3070.9 0.
-106.063 -43.9001 0.
2.13848 0.815824 0.
-1743.03 -3847.64 0.
3.05428 6.65901 0.
-0.565763 -8.7225 0.
3.338 6.72664 0.
-0.587284 -1.05679 0.
-2260.91 -3421.35 0.
-1732.51 -2302.47 0.
35.8455 72.8086 0.
-55.838 -96.5796 0.
-1.09375 -19.6606 0.
2.68073 5.81974 0.
-0.244326 -5.92729 0.
-163.738 -370.142 0.
-2465.33 -4967.22 0.
0.321405 0.80604 0.
-230.993 -521.722 0.
-0.713775 -1.41182 0.
-0.0630055 -1.00514 0.
-0.000581966 -0.576913 0.
-55.7201 -20.1813 0.
-285.434 -152.686 0.
-1732.4 -3367.61 0.
-9.77998 -26.0174 0.
-2616.35 -4540.21 0.
-1.10211 -2.80188 0.
0.0527448 0.136297 0.
-2923.19 -6814.41 0.
-1.22367 -2.74032 0.
-4.32907 -8.57966 0.
-2437.45 -5269.23 0.
-284.336 -343.19 0.
-19.2276 -51.4306 0.
-1643.87 -3761 0.
-731.44 -1608.27 0.
-1083.8 -2270.65 0.
-679.908 -1413.51 0.
-305.109 -527.27 0.
-766.548 -1630.07 0.
-559.725 -1219.53 0.
-364.301 -797.589 0.
-593.421 -1084.17 0.
-467.92 -819.358 0.
-337.345 -559.617 0.
-716.808 -1252.65 0.
-695.267 -1215.48 0.
-488.121 -669.286 0.
-494.041 -689.654 0.
-500.171 -709.811 0.
-504.094 -763.334 0.
-505.224 -764.631 0.
-506.792 -765.491 0.
-464.269 -812.887 0.
-478.022 -838.125 0.
-492.032 -863.108 0.
-0.694974 -1.56786 0.
-0.0903281 -0.109417 0.
-3011.66 -2120.07 0.
-127.429 -69.7215 0.
-112.292 -72.9408 0.
-517.717 -892.322 0.
-491.125 -838.93 0.
-464.599 -785.471 0.
-496.168 -742.111 0.
-508.426 -772.65 0.
-522.393 -801.479 0.
-488.837 -723.666 0.
-482.829 -705.386 0.
-477.282 -686.645 0.
-673.297 -1255.92 0.
-722.668 -1335.45 0.
-324.373 -586.879 0.
-481.03 -913.348 0.
-635.455 -1242.05 0.
-363.914 -719.868 0.
-647.338 -1393.07 0.
-951.425 -2045.6 0.
-280.485 -376.66 0.
-748.847 -1505.19 0.
-1274.65 -2576.29 0.
-711.798 -1375.75 0.
-1928.26 -4340.59 0.
-22.9992 -28.4737 0.
-28.5679 -33.9361 0.
-2906.4 -6628.75 0.
-14.8706 -38.3484 0.
-18.3231 -50.25 0.
-2747.95 -3388.38 0.
-45.0685 -64.1907 0.
-3663.43 -7356.36 0.
-46.1151 -34.5027 0.
-27.6876 -13.7842 0.
-2735.26 -5798.64 0.
-508.953 -470.723 0.
-936.66 -1262.9 0.
-1.8431 -2.02244 0.
-1.64495 -2.12019 0.
-9.36683 -8.13234 0.
-3.80603 -1.97298 0.
-2425.18 -3325.93 0.
-0.263559 -7.35832 0.
-1.35509 -3.3935 0.
-2565.22 -5362.43 0.
6.60881 13.6909 0.
-3085.16 -5808.13 0.
2.06118 17.3051 0.
-404.055 -595.949 0.
-764.944 -1105.33 0.
-13.1217 -52.1674 0.
-2137.09 -3420.19 0.
9.73192 21.0231 0.
-1836.46 -3638.4 0.
8.88786 19.8626 0.
-166.369 -395.853 0.
-0.0387977 -11.7132 0.
-0.0696985 -3.39013 0.
-343.889 -887.938 0.
-1.76293 -3.32521 0.
-2532.44 -4235.36 0.
1.57765 1.31747 0.
-2232.51 -4621.37 0.
-9.82567 -6.38575 0.
-4.45643 -8.79789 0.
-3.42275 -8.57147 0.
-268.555 -239.305 0.
-11.1045 -18.0462 0.
-2.83226 -3.19549 0.
0.00795505 0.0394787 0.
-3.74764 -4.96448 0.
-7.43822 -10.4768 0.
-1.38825 -3.69676 0.
-2.60281 -6.69718 0.
-26.7672 -62.804 0.
-571.921 -1184.49 0.
-5.09409 -13.1267 0.
-487.041 -936.785 0.
-98.1687 -63.3621 0.
-24.9649 -18.0688 0.
-463.578 -1028.61 0.
-285.707 -588.831 0.
-138.82 -118.064 0.
-436.614 -886.608 0.
-315.303 -617.532 0.
-208.195 -345.503 0.
-628.73 -1152.6 0.
-598.762 -1123.85 0.
-421.345 -601.387 0.
-427.401 -621.623 0.
-433.543 -641.772 0.
-398.654 -673.926 0.
-400.385 -674.626 0.
-402.742 -674.701 0.
-398.515 -776.898 0.
-412.158 -802.247 0.
-425.989 -827.409 0.
-3.34211 -8.36175 0.
-0.0941678 -0.197298 0.
-1941.9 -1657.11 0.
-155.43 -86.9074 0.
-171.746 -133.858 0.
-445.151 -846.334 0.
-418.542 -792.954 0.
-392.096 -739.411 0.
-411.886 -655.514 0.
-423.225 -686.977 0.
-435.638 -717.365 0.
-404.272 -632.516 0.
-398.111 -614.383 0.
-392.393 -595.808 0.
-549.84 -1124.26 0.
-602.949 -1200.07 0.
-185.865 -287.555 0.
-313.285 -642.215 0.
-455.412 -983.326 0.
-68.5428 -38.3008 0.
-294.137 -523.804 0.
-549.776 -1225.4 0.
-48.0645 -26.7281 0.
-35.0011 -23.1504 0.
-474.309 -695.149 0.
-38.1974 -36.7142 0.
-567.355 -813.353 0.
-12.6765 -23.8943 0.
-21.4874 -27.929 0.
-28.7309 -54.0452 0.
-5.67763 -15.3232 0.
-15.6537 -35.3287 0.
-38.3391 -98.1508 0.
-7.13536 -16.8376 0.
-0.223899 -0.594784 0.
-8.715 -14.2322 0.
0.29591 0.254737 0.
-21.6672 -16.6185 0.
-99.3745 -253.949 0.
-908.962 -1547.43 0.
-2640.95 -5472.36 0.
-12.0082 -12.2748 0.
-1.40138 -1.41705 0.
-216.22 -105.853 0.
-739.828 -850.796 0.
-0.0204605 -15.1028 0.
6.88764 16.345 0.
11.6602 27.4855 0.
-3.39623 -41.8403 0.
-9.99609 -49.8505 0.
19.39 36.0587 0.
-375.982 -617.436 0.
-860.893 -1561.6 0.
15.7642 24.5396 0.
-5.38132 -41.2234 0.
5.40464 11.4012 0.
-2.12598 -29.097 0.
17.1871 45.9478 0.
9.41657 20.4413 0.
-0.423575 -9.22558 0.
-2.54338 -6.87631 0.
-0.00686632 -1.39079 0.
-1283.14 -2889.28 0.
1.45356 2.68052 0.
-0.0239922 -0.135743 0.
-0.0441062 -0.0110292 0.
0.00649532 0.131986 0.
-58.4772 -61.4359 0.
-41.9158 -56.96 0.
-418.277 -311.232 0.
-36.1009 -38.5635 0.
-37.5871 -26.3959 0.
-37.9787 -15.0672 0.
-13.3128 -10.163 0.
-20.2771 -16.5046 0.
-8.67311 -17.4886 0.
-11.356 -24.0759 0.
-42.0165 -78.1274 0.
-32.8913 -48.1369 0.
-35.8971 -34.304 0.
-24.8357 -27.736 0.
-21.2013 -20.2057 0.
-17.6038 -13.284 0.
-222.375 -365.392 0.
-27.0453 -36.4987 0.
-44.3646 -77.6981 0.
-295.061 -673.789 0.
-187.276 -391.116 0.
-115.006 -188.428 0.
-549.475 -1043.73 0.
-520.614 -1013.87 0.
-352.535 -535.521 0.
-360.524 -553.828 0.
-367.53 -573.118 0.
-295.403 -582.329 0.
-298.43 -581.737 0.
-301.925 -580.677 0.
-334.89 -738.78 0.
-348.678 -763.985 0.
-362.505 -789.152 0.
-88.0375 -174.665 0.
-69.3762 -138.361 0.
-1405.36 -1425.59 0.
-218.381 -249.096 0.
-236.526 -294.21 0.
-373.528 -799.402 0.
-346.984 -745.953 0.
-320.324 -692.62 0.
-336.309 -560.212 0.
-346.358 -592.97 0.
-356.709 -625.425 0.
-320.257 -540.815 0.
-313.736 -523.037 0.
-305.974 -506.501 0.
-437.862 -981.111 0.
-488.903 -1059.01 0.
-94.228 -65.3122 0.
-208.865 -307.755 0.
-329.814 -670.158 0.
-69.6315 -53.2461 0.
-63.6819 -42.5233 0.
-237.458 -315.859 0.
-55.914 -32.839 0.
-46.1851 -24.2785 0.
-46.445 -36.3378 0.
-61.9361 -52.5057 0.
-66.8839 -62.9348 0.
-27.1605 -45.9561 0.
-23.6163 -40.4611 0.
-29.7252 -56.4524 0.
-14.6828 -37.169 0.
-17.1702 -37.063 0.
-41.8852 -78.8737 0.
0.000472111 0.295529 0.
0.133884 0.370834 0.
-0.0161364 -0.0943344 0.
0.198966 0.281652 0.
-2.97292 -2.62274 0.
-46.8736 -65.7288 0.
-135.467 -321.746 0.
-261.634 -557.621 0.
-58.8255 -48.7817 0.
0.112953 0.129399 0.
-134.119 -77.8623 0.
-1.53858 -9.66078 0.
-1478.49 -4030.16 0.
10.3859 23.2363 0.
13.0543 29.4783 0.
-2.81886 -23.6514 0.
-2276.1 -4301.24 0.
30.6974 53.5933 0.
-28.4603 -158.357 0.
-113.716 -192.648 0.
25.682 42.0416 0.
-997.336 -2186.42 0.
-6.09193 -31.5778 0.
13.749 32.3895 0.
16.9611 42.7356 0.
5.40754 11.6634 0.
-1.31033 -2.97755 0.
-29.5187 -81.0268 0.
-1008.52 -2343.13 0.
-281.559 -674.993 0.
0.972443 4.60739 0.
1.35216 4.70219 0.
0.762891 0.202054 0.
-1560.43 -3384.01 0.
-1608.15 -1463.31 0.
-2.17653 -2.7755 0.
-0.0502179 -0.0628067 0.
-3273.58 -6774.18 0.
-77.8583 -78.01 0.
-2327.62 -3889.98 0.
-47.8254 -76.9601 0.
-33.5106 -40.8965 0.
-2526.11 -5713.96 0.
-2.14529 -1.54782 0.
0.177798 0.146938 0.
-2246.46 -5367.01 0.
-271.644 -314.266 0.
-1578.19 -3337.49 0.
-710.748 -1364.3 0.
-13.5035 -7.28192 0.
-1093.67 -2605.11 0.
-594.803 -1425.97 0.
-134.065 -208.695 0.
-728.403 -1802.04 0.
-488.628 -1218.38 0.
-267.705 -615.867 0.
-726.895 -1724 0.
-657.715 -1585.81 0.
-499.493 -1135.07 0.
-459.277 -1040.7 0.
-419.716 -945.67 0.
-394.353 -951.449 0.
-396.469 -957.313 0.
-400.359 -961.404 0.
-422.224 -1058.34 0.
-389.636 -973.184 0.
-357.367 -887.709 0.
-202.978 -492.26 0.
-224.853 -544.007 0.
-932.275 -1535.38 0.
-371.1 -633.083 0.
-346.011 -569.745 0.
-355.73 -863.789 0.
-398.628 -975.949 0.
-442.369 -1087.27 0.
-439.189 -1003.07 0.
-436.088 -1001.12 0.
-435.019 -997.15 0.
-371.463 -939.449 0.
-428.22 -1074.19 0.
-487.239 -1206.66 0.
-645.961 -1596.95 0.
-755.63 -1829.24 0.
-289.101 -529.183 0.
-581.691 -1373.36 0.
-908.61 -2183.21 0.
-35.832 -15.8103 0.
-667.358 -1526.15 0.
-1338.59 -3121.05 0.
-31.7445 -19.8153 0.
-714.931 -1228.85 0.
-1826.76 -3799.9 0.
-39.2402 -26.4022 0.
-2466.86 -5338.36 0.
-49.3133 -71.2049 0.
-44.6398 -69.0818 0.
-2798.66 -6552.25 0.
-22.0462 -50.4397 0.
-22.839 -58.5961 0.
-2719.76 -4596.83 0.
0.0119754 0.071039 0.
-2210.81 -3802.26 0.
-51.3468 -118.206 0.
-2179.1 -4599.1 0.
-12.6394 -6.29939 0.
-83.9981 -92.6828 0.
-30.367 -79.7565 0.
-0.52806 -0.40518 0.
-46.4981 -41.6115 0.
-1899.22 -3482.47 0.
-61.6737 -43.6047 0.
0.451599 5.90267 0.
-4.75555 -12.4907 0.
3.73523 7.89768 0.
-1863.47 -4105.35 0.
-4.90215 -63.3803 0.
32.7447 73.9397 0.
56.6535 98.5719 0.
-2.99818 -5.59233 0.
154.205 324.416 0.
-4.02586 -6.44151 0.
-16.7255 -36.979 0.
-5.82849 -10.5005 0.
-1973.39 -4568.73 0.
13.5912 32.3445 0.
-2063.99 -4495.02 0.
-1577.53 -3278.9 0.
-0.0855661 -21.2277 0.
-69.3364 -158.094 0.
-55.6296 -138.886 0.
2.01423 4.99748 0.
-2013.17 -3839.85 0.
-0.119095 -4.02159 0.
-393.899 -1019.43 0.
0.560927 1.55357 0.
-0.05962 -0.0800786 0.
0.225911 0.299059 0.
-14.7197 -14.8501 0.
-75.41 -75.7056 0.
-40.1783 -103.383 0.
-24.1521 -64.577 0.
-9.66533 -26.6949 0.
-37.3956 -22.0675 0.
-9.12717 -5.6824 0.
-2.64773 -1.92471 0.
-46.4241 -23.6735 0.
-8.94793 -16.098 0.
-296.769 -398.016 0.
-13.8148 -10.1095 0.
-11.2328 -6.52605 0.
-503.796 -1169.99 0.
-0.91592 -2.05756 0.
-1.49131 -3.21898 0.
-489.461 -1237.75 0.
-274.124 -629.31 0.
-55.5393 -43.2869 0.
-570.828 -1421.96 0.
-512.333 -1273.03 0.
-393.061 -972.426 0.
-349.45 -881.432 0.
-310.132 -786.145 0.
-343.955 -885.155 0.
-347.157 -889.935 0.
-351.915 -893.16 0.
-385.949 -989.599 0.
-353.593 -904.204 0.
-321.561 -818.485 0.
-262.557 -599.737 0.
-284.554 -651.355 0.
-539.701 -1332.5 0.
-426.189 -743.664 0.
-400.683 -680.752 0.
-322.138 -792.533 0.
-364.146 -905.594 0.
-407.08 -1017.73 0.
-359.657 -896.97 0.
-355.179 -896.406 0.
-352.088 -894.454 0.
-272.627 -721.68 0.
-321.821 -864.009 0.
-378.93 -998.424 0.
-471.699 -1181.39 0.
-565.182 -1429.96 0.
-84.9808 -67.1079 0.
-297.657 -548.152 0.
-589.213 -1394.02 0.
-36.9802 -17.1207 0.
-38.5106 -18.035 0.
-535.667 -1131.67 0.
-59.7923 -50.8053 0.
-26.7621 -14.8944 0.
-92.099 -72.4029 0.
-37.5286 -23.3458 0.
-63.9206 -53.1377 0.
-65.1407 -75.6592 0.
-58.3635 -76.4603 0.
-127.715 -148.235 0.
-13.594 -20.2656 0.
-16.9964 -28.6105 0.
-25.7672 -58.3436 0.
0.0297193 0.195784 0.
-4.44838 -11.4361 0.
-20.9279 -55.0725 0.
-153.236 -334.581 0.
-32.0853 -58.6103 0.
-1998.32 -3903.92 0.
-679.66 -1283.68 0.
-0.938632 -0.844537 0.
-58.3237 -54.6543 0.
0.0272349 8.03847 0.
-268.952 -109.269 0.
-0.645932 -18.4306 0.
-11.8011 -29.5678 0.
13.6621 35.2531 0.
13.1337 31.491 0.
-7.78945 -73.8647 0.
-2130.85 -4693.34 0.
-11.8006 -21.0021 0.
66.9646 128.739 0.
57.6134 145.623 0.
23.2219 41.2088 0.
-1275.34 -2820.82 0.
26.1473 61.2305 0.
23.6737 57.2772 0.
-0.926423 -27.6367 0.
-1.09788 -31.3551 0.
13.5102 33.2078 0.
-3.88914 -9.75225 0.
-117.517 -265.877 0.
-62.9233 -161.734 0.
-557.561 -1307.79 0.
0.222423 0.47203 0.
-0.0390628 -1.76535 0.
-39.4768 -109.091 0.
-0.0231509 -2.04132 0.
0.23346 0.32983 0.
-0.182721 -0.387833 0.
-14.5704 -15.589 0.
-266.782 -371.302 0.
-2063.04 -4144.69 0.
0.0911304 0.179069 0.
0.179644 0.314927 0.
-2279.75 -5431.63 0.
-29.6059 -18.7787 0.
-33.6669 -26.5923 0.
-2278.56 -5105.69 0.
0.487372 0.0530247 0.
-1734.83 -3669.99 0.
-484.239 -734.357 0.
-11.8187 -9.8793 0.
-1371.15 -3269.51 0.
-543.844 -1255.98 0.
-2.34539 -6.43649 0.
-914.612 -2259.14 0.
-515.067 -1276.45 0.
-145.099 -264.181 0.
-698.597 -1724.22 0.
-530.326 -1349.2 0.
-422.741 -1042.92 0.
-341.771 -872.675 0.
-267.011 -696.221 0.
-319.464 -824.195 0.
-274.651 -725.603 0.
-235.395 -621.455 0.
-280.334 -698.151 0.
-242.986 -600.562 0.
-194.877 -513.735 0.
-169.944 -355.315 0.
-148.836 -285.511 0.
-741.613 -952.246 0.
-296.828 -378.135 0.
-318.537 -452.055 0.
-207.92 -507.449 0.
-252.134 -625.103 0.
-296.231 -742.873 0.
-236.549 -617.068 0.
-296.106 -765.893 0.
-360.096 -910.285 0.
-276.143 -726.942 0.
-377.285 -973.891 0.
-489.461 -1209.8 0.
-566.05 -1416.96 0.
-802.5 -1959.76 0.
-122.652 -115.684 0.
-588.068 -1405.89 0.
-1090.48 -2659.1 0.
-29.9313 -39.2764 0.
-536.536 -1194.23 0.
-1680.08 -4030.99 0.
-86.4095 -50.3669 0.
-373.877 -251.105 0.
-1872.82 -3649.86 0.
-44.3401 -27.7087 0.
-2487.22 -5755.56 0.
-216.407 -331.544 0.
-35.1225 -37.6328 0.
-1974.03 -2667.23 0.
-0.445143 -0.0072335 0.
-2598.4 -6598.28 0.
-38.8313 -77.7896 0.
-0.00978044 -0.1442 0.
-2.1883 -5.91141 0.
-17.6993 -48.4045 0.
-14.5609 -40.33 0.
-11.3528 -21.8287 0.
-76.5432 -120.714 0.
-294.769 -589.582 0.
-251.28 -516.065 0.
-164.144 -245.789 0.
6.053 16.5457 0.
-13.9402 -38.3255 0.
6.36682 17.0412 0.
-18.2813 -43.5446 0.
19.4577 48.4539 0.
-295.141 -687.957 0.
-8.94535 -70.4665 0.
64.4918 145.022 0.
-83.8563 -151.924 0.
67.8482 136.755 0.
-10.0999 -27.0738 0.
-349.379 -648.997 0.
-352.191 -839.228 0.
13.9449 32.893 0.
-152.104 -365.735 0.
6.91997 17.6057 0.
22.6925 58.187 0.
6.80894 16.4997 0.
8.37298 21.2788 0.
-1167.78 -2588.95 0.
11.1954 30.9984 0.
-333.128 -807.091 0.
-0.553972 -1.22369 0.
-0.074265 -3.98926 0.
-132.039 -364.88 0.
0.00620224 0.0538893 0.
-1928.68 -3703.68 0.
-60.5285 -94.4523 0.
-1696.91 -3757.43 0.
-42.6798 -56.9158 0.
0.645139 0.0483699 0.
0.316687 0.00845872 0.
0.0685242 0.154926 0.
-27.522 -14.4876 0.
-30.7442 -18.9193 0.
-34.0817 -26.3521 0.
0.11651 0.269213 0.
0.19579 0.281179 0.
-0.184822 -0.0171029 0.
-0.344394 -0.00972843 0.
-7.7588 -16.5756 0.
-403.662 -875.975 0.
-5.72259 -15.4574 0.
-3.78183 -9.88089 0.
-495.945 -1238.48 0.
-127.521 -223.631 0.
-24.6697 -47.3603 0.
-440.894 -1125.91 0.
-284.829 -738.442 0.
-299.195 -770.019 0.
-225.202 -592.746 0.
-158.747 -407.934 0.
-261.026 -685.784 0.
-219.464 -583.928 0.
-180.324 -479.651 0.
-251.887 -657.747 0.
-216.972 -557.721 0.
-183.691 -456.06 0.
-185.782 -450.747 0.
-163.451 -382.174 0.
-284.772 -674.665 0.
-301.291 -460.945 0.
-323.688 -534.175 0.
-172.1 -433.669 0.
-210.285 -557.363 0.
-248.78 -680.747 0.
-157.112 -432.851 0.
-213.168 -585.207 0.
-272.485 -734.3 0.
-141.273 -344.348 0.
-232.759 -601.046 0.
-332.531 -849.456 0.
-270.445 -656.889 0.
-486.883 -1220.12 0.
-41.3494 -29.9713 0.
-34.2183 -32.6812 0.
-539.586 -1279.68 0.
-14.5099 -32.8903 0.
-19.8804 -26.2689 0.
-375.63 -798.746 0.
-39.9433 -26.0102 0.
-10.2115 -3.87995 0.
-17.283 -6.84271 0.
-15.2767 -10.3632 0.
-42.9478 -45.1249 0.
-41.7056 -52.3053 0.
-21.1164 -7.79149 0.
-22.3651 -13.6832 0.
0.0629555 0.0261625 0.
-133.413 -329.058 0.
-22.5071 -44.2065 0.
-17.5812 -32.0788 0.
-2104.34 -4342.26 0.
-153.015 -336.982 0.
-221.214 -541.812 0.
-1.89017 -3.51553 0.
-0.649043 -1.09188 0.
-59.9901 -134.504 0.
-1016.99 -2180.54 0.
-267.059 -432.203 0.
1.06861 2.85315 0.
-9.53017 -25.9375 0.
16.8268 45.5766 0.
-1012.64 -2325.33 0.
10.9459 26.4093 0.
-2231.75 -5090.58 0.
26.7326 62.622 0.
46.4756 104.934 0.
-12.2485 -22.0221 0.
23.2361 46.803 0.
-2.8643 -7.69773 0.
62.4279 115.403 0.
-61.3144 -143.887 0.
-80.5326 -191.277 0.
-687.444 -1648.17 0.
13.5483 34.2235 0.
7.30507 18.7784 0.
18.7966 44.9906 0.
-671.826 -1720.19 0.
-0.0608548 -0.157189 0.
-0.132913 -28.9248 0.
-348.439 -850.5 0.
7.52329 20.7229 0.
-0.211618 -12.1303 0.
-1527.67 -2764.03 0.
-0.216857 -2.05521 0.
-63.29 -102.692 0.
-66.8072 -108.569 0.
-62.6236 -115.203 0.
0.167028 1.5144 0.
0.728227 1.54614 0.
0.18614 0.0543001 0.
-0.000842474 -0.0211036 0.
-29.256 -14.9002 0.
-31.9714 -19.1847 0.
-34.9438 -26.1252 0.
0.135328 0.206752 0.
0.232957 0.200674 0.
-0.202719 -0.014371 0.
-3.8902 -3.68456 0.
-13.4019 -29.1012 0.
-14.3448 -37.2746 0.
-10.1818 -26.6629 0.
-8.55029 -19.0623 0.
-121.327 -173.771 0.
-14.9689 -32.9406 0.
-23.462 -55.2672 0.
-207.968 -502.823 0.
-92.0468 -190.417 0.
-194.441 -478.326 0.
-126.012 -295.437 0.
-83.0106 -176.182 0.
-205.266 -544.694 0.
-166.065 -440.465 0.
-128.046 -335.054 0.
-244.143 -596.641 0.
-210.957 -494.879 0.
-176.832 -394.057 0.
-208.308 -539.492 0.
-185.933 -470.969 0.
-279.747 -656.247 0.
-324.441 -525.066 0.
-348.029 -597.104 0.
-152.23 -389.866 0.
-181.898 -476.162 0.
-220.245 -599.705 0.
-99.6254 -252.348 0.
-148.351 -386.399 0.
-205.4 -537.79 0.
-45.6562 -48.8078 0.
-107.858 -211.23 0.
-200.019 -464.689 0.
-26.7527 -21.6159 0.
-203.205 -448.552 0.
-55.3555 -34.7207 0.
-30.8556 -31.2377 0.
-35.1421 -40.4307 0.
-12.4842 -30.9929 0.
-14.1403 -24.3247 0.
-32.0731 -25.0328 0.
-70.9643 -38.0315 0.
-8.68197 -3.92512 0.
-18.1836 -6.60207 0.
-8.14512 -5.40647 0.
-23.1569 -19.386 0.
-33.3597 -39.3426 0.
-18.9353 -10.3581 0.
0.332768 0.203494 0.
-0.0575174 -0.0106587 0.
-68.2474 -143.832 0.
-8.4383 -16.6722 0.
-5.47623 -9.92621 0.
-0.0299783 -0.392612 0.
-36.1206 -99.9654 0.
-1631.88 -3283.31 0.
-1540.95 -2921.47 0.
-0.0361323 -2.28309 0.
0.667865 1.56545 0.
-551.481 -1238.49 0.
16.326 43.1019 0.
-231.449 -608.148 0.
-5.91258 -15.8664 0.
1.11329 2.93932 0.
3.35081 8.87698 0.
11.8509 30.8715 0.
6.42228 16.0749 0.
-6.93735 -80.3373 0.
14.5863 36.0494 0.
-265.825 -478.372 0.
-13.4537 -67.4255 0.
72.5583 188.419 0.
-91.9922 -165.659 0.
-8.21467 -19.0534 0.
19.1246 44.015 0.
-358.442 -963.578 0.
8.62521 21.6854 0.
-1017.13 -2625.88 0.
-1.80993 -4.29436 0.
19.8155 53.8147 0.
13.3071 34.7798 0.
0.577547 1.50994 0.
-519.851 -1268.68 0.
11.1019 30.726 0.
-829.45 -1989.59 0.
-0.0571286 -6.36091 0.
-0.704777 -6.74574 0.
-68.6418 -115.179 0.
-72.2929 -121.038 0.
-15.4058 -33.4856 0.
-1430.17 -2545.03 0.
-25.9287 -71.7188 0.
-2292.41 -4285.64 0.
0.523008 0.232656 0.
-1684.15 -3366.1 0.
0.17558 7.04056e-06 0.
0.323088 7.65893e-05 0.
-2084.97 -5247.61 0.
-0.00911867 -0.00620856 0.
-1923.25 -3423.83 0.
-129.97 -111.734 0.
-0.00646263 -0.21355 0.
-1904.42 -4693.27 0.
-200.093 -293.618 0.
0.105409 0.0179156 0.
-1184.48 -3005.11 0.
-459.299 -1144.42 0.
-4.91837 -1.80373 0.
-839.102 -2161.25 0.
-485.268 -1267.74 0.
-595.688 -1534.57 0.
-423.088 -1114.34 0.
-261.342 -683.257 0.
-442.154 -1187.1 0.
-346.442 -943.655 0.
-254.643 -696.298 0.
-390.433 -1006.95 0.
-335.035 -838.352 0.
-284.999 -664.396 0.
-323.091 -820.117 0.
-284.247 -716.973 0.
-295.169 -748.572 0.
-396.933 -749.513 0.
-428.409 -837.538 0.
-217.723 -557.399 0.
-306.766 -832.218 0.
-400.623 -1102.22 0.
-249.977 -674.781 0.
-367.846 -992.618 0.
-490.548 -1305.62 0.
-254.196 -629.299 0.
-460.833 -1177.45 0.
-679.828 -1713.25 0.
-506.847 -1290.92 0.
-991.224 -2534.73 0.
-44.5052 -61.5908 0.
-457.945 -1018.27 0.
-1457.26 -3558.29 0.
-62.3524 -35.8041 0.
-21.7331 -8.80923 0.
-2175.58 -5423.48 0.
-66.9413 -43.7668 0.
-52.4087 -41.9522 0.
-2076.24 -3244.38 0.
-39.6393 -38.3772 0.
-2337.34 -5693.44 0.
-11.697 -30.9218 0.
-14.3141 -30.254 0.
-1903.97 -3527.18 0.
-12.2646 -27.0032 0.
-1688.53 -3862.51 0.
-11.4298 -25.2735 0.
0.440921 0.804037 0.
0.0046002 0.0458975 0.
-14.1147 -37.8289 0.
0.0516341 3.81363 0.
-0.0439094 -0.0811315 0.
-588.098 -1359.76 0.
-34.277 -82.0699 0.
-321.223 -751.816 0.
13.0622 34.5702 0.
-962.201 -2493.95 0.
5.44565 14.3659 0.
16.8704 43.2257 0.
-129.893 -338.082 0.
-1.01298 -28.3731 0.
-6.68137 -16.5149 0.
40.9888 93.2263 0.
11.7352 28.7364 0.
71.7578 144.602 0.
-417.41 -724.639 0.
-370.172 -860.023 0.
65.114 116.544 0.
-22.2928 -52.3652 0.
31.6358 72.8644 0.
-14.3876 -38.3766 0.
-8.83348 -22.8395 0.
-0.376192 -45.9846 0.
-1.06902 -44.9604 0.
11.5647 31.0982 0.
-39.9858 -105.395 0.
-525.343 -1376.54 0.
-0.328765 -0.861892 0.
0.000260614 2.09127 0.
-338.976 -842.797 0.
-0.042121 -17.5312 0.
0.0521302 0.486937 0.
-0.0288365 -3.2217 0.
-1820.5 -4420.73 0.
0.116839 1.18597 0.
-24.6591 -50.2243 0.
-45.2571 -125.288 0.
0.00144138 0.0436072 0.
0.665933 0.494779 0.
-0.703955 -0.00284668 0.
-0.504476 -0.00093439 0.
-0.401249 -0.000139182 0.
-0.654159 -0.117433 0.
-0.13697 -0.0948741 0.
0.0247312 0.0668999 0.
0.126442 0.327819 0.
0.00927002 0.146568 0.
-61.6393 -50.416 0.
-10.4613 -4.6634 0.
-23.1624 -15.7954 0.
-397.622 -955.61 0.
-0.262448 -0.106507 0.
-6.32405 -2.29336 0.
-482.138 -1254.5 0.
-145.721 -342.75 0.
-401.507 -1003.01 0.
-239.017 -572.455 0.
-96.7656 -180.406 0.
-351.994 -953.49 0.
-260.22 -706.052 0.
-169.909 -457.152 0.
-357.489 -922.785 0.
-300.254 -756.016 0.
-259.17 -603.375 0.
-326.7 -774.169 0.
-287.829 -671.05 0.
-254.353 -650.101 0.
-388.801 -693.798 0.
-423.105 -778.999 0.
-185.887 -463.241 0.
-265.985 -707.186 0.
-360.955 -976.11 0.
-130.27 -347.894 0.
-240.009 -654.348 0.
-357.757 -972.412 0.
-36.0823 -57.9742 0.
-202.425 -479.743 0.
-409.261 -1028.07 0.
-60.1548 -85.3326 0.
-528.268 -1346.88 0.
-23.2842 -33.8576 0.
-26.5647 -28.0276 0.
-323.04 -665.953 0.
-56.5437 -34.3211 0.
-25.1841 -9.16482 0.
-21.2576 -16.3765 0.
-221.542 -162.551 0.
-68.4954 -48.3496 0.
-130.836 -102.035 0.
-13.425 -10.2486 0.
-76.1486 -110.892 0.
0.0818402 0.788155 0.
0.293704 0.425728 0.
0.0247255 0.177607 0.
-14.0103 -27.2907 0.
-108.13 -287.584 0.
0.683934 1.85064 0.
-1950.98 -4517.52 0.
-0.180286 -2.61689 0.
0.482963 1.24264 0.
-0.224375 -16.0544 0.
4.60499 9.18622 0.
-437.692 -1076.5 0.
-0.326492 -20.0743 0.
-165.503 -397.231 0.
-7.14427 -18.9244 0.
-0.250203 -39.1431 0.
-853.591 -2220.61 0.
5.32127 13.237 0.
-1883.75 -4840.79 0.
-2.21059 -50.8463 0.
-1990.71 -4869.28 0.
-11.4665 -150.211 0.
-34.6238 -84.1942 0.
-31.6786 -65.4109 0.
15.8612 37.0178 0.
2.95469 46.8952 0.
63.5813 114.135 0.
0.188268 0.436479 0.
-184.126 -424.75 0.
15.8306 41.9253 0.
-3.56026 -9.16536 0.
21.7933 58.7164 0.
-2.11857 -5.56412 0.
-6.16929 -16.4314 0.
-506.415 -1340.97 0.
9.24386 25.5336 0.
2.83836 7.48956 0.
10.8402 29.5633 0.
-363.455 -926.498 0.
-0.0103298 -17.2054 0.
0.117436 1.05996 0.
4.7815 12.3461 0.
-19.0287 -51.1265 0.
3.03923 7.42988 0.
-145.856 -210.692 0.
-85.7031 -184.311 0.
-0.0488993 -0.704213 0.
1.07439 0.682679 0.
-0.544136 -0.00549341 0.
-1115.95 -2271.26 0.
-7.65489 -11.4275 0.
-1568.33 -3837.01 0.
-0.026821 -0.0293163 0.
-1736.76 -3111.31 0.
0.0650646 0.136523 0.
0.0490906 0.112911 0.
-1939.05 -4957.64 0.
-23.8374 -29.6212 0.
-24.4992 -31.0506 0.
-1443.68 -3510.21 0.
-285.342 -616.609 0.
-5.61313 -5.3536 0.
-1011.13 -2591.47 0.
-428.429 -1088.89 0.
-676.065 -1651.24 0.
-414.578 -1002.93 0.
-164.727 -342.983 0.
-498.082 -1257.53 0.
-333.119 -840.995 0.
-173.288 -419.326 0.
-371.09 -937.028 0.
-281.388 -700.519 0.
-198.323 -457.374 0.
-323.798 -666.882 0.
-279.026 -545.784 0.
-360.239 -478.053 0.
-350.795 -591.17 0.
-407.909 -742.594 0.
-168.836 -389.122 0.
-283.907 -728.825 0.
-408.192 -1059.31 0.
-135.641 -332.945 0.
-352.757 -920.737 0.
-580.033 -1498.37 0.
-146.604 -289.278 0.
-457.651 -1079.87 0.
-784.131 -1855.03 0.
-410.099 -1012.11 0.
-1172.46 -2984.15 0.
-8.95608 -4.15109 0.
-76.9993 -143.488 0.
-1666.01 -4197.09 0.
-80.0892 -87.9535 0.
-19.2831 -22.4327 0.
-1672.81 -3824.54 0.
-136.558 -144.655 0.
-1727.8 -2912.35 0.
-345.909 -930.146 0.
-16.1701 -22.601 0.
-1043.59 -2565.92 0.
-21.1469 -56.2054 0.
0.00870145 0.667387 0.
-0.0322983 -0.525236 0.
-16.0748 -28.0841 0.
-84.6533 -217.557 0.
-6.8381e-07 -1.82672 0.
-97.9041 -236.099 0.
0.0382444 0.678052 0.
-1474.79 -2394.12 0.
0.022113 1.35715 0.
0.930288 1.94313 0.
-413.361 -1047.96 0.
5.18162 13.9559 0.
-125.953 -306.047 0.
-296.299 -784.038 0.
9.0369 24.4015 0.
27.8914 68.0922 0.
-0.000113183 -0.646021 0.
-1.27309 -82.0318 0.
-0.130587 -7.65305 0.
42.3804 107.05 0.
-5.79787 -78.1594 0.
45.5657 110.225 0.
-48.5121 -102.084 0.
4.92561 11.2435 0.
1.12075 11.9539 0.
77.5838 185.125 0.
-137.398 -315.193 0.
56.8639 137.588 0.
-30.4952 -80.234 0.
-6.55289 -16.8153 0.
-160.03 -427.93 0.
-1.06063 -48.2909 0.
-1022.26 -2699.63 0.
27.94 77.2778 0.
1.05914 2.89103 0.
-4.22534 -11.2115 0.
0.85545 2.32744 0.
-0.244248 -38.2295 0.
-0.00104742 -8.44874 0.
-1224.01 -2622.75 0.
-0.297209 -11.985 0.
1.81765 4.97766 0.
-0.234252 -5.75857 0.
-375.65 -272.992 0.
-308.232 -472.158 0.
-1883.82 -3979.97 0.
0.292648 0.78565 0.
-883.51 -1796.91 0.
-0.187434 -0.259894 0.
-2.03337 -3.44203 0.
0.1653 0.293208 0.
0.0367307 0.164313 0.
-14.7865 -13.3909 0.
-0.114763 -0.108738 0.
-0.676512 -1.75856 0.
-59.3757 -45.6603 0.
-18.5175 -27.0251 0.
-23.8869 -31.8463 0.
-161.643 -240.847 0.
-8.81238 -11.5057 0.
-6.29297 -5.69744 0.
-481.655 -1243.44 0.
0.140236 0.0176289 0.
-374.881 -902.345 0.
-125.969 -240.967 0.
-26.5663 -18.1817 0.
-340.452 -874.114 0.
-182.516 -450.385 0.
-56.4808 -105.86 0.
-290.66 -725.836 0.
-202.352 -487.884 0.
-124.457 -276.25 0.
-311.39 -532.317 0.
-282.402 -456.678 0.
-201.927 -318.071 0.
-281.327 -478.579 0.
-315.434 -566.033 0.
-120.219 -250.142 0.
-198.951 -463.649 0.
-320.4 -797.061 0.
-9.72441 -10.6721 0.
-157.094 -390.142 0.
-373.611 -978.837 0.
-26.9461 -35.1737 0.
-43.4522 -64.5796 0.
-373.601 -836.886 0.
-13.6968 -15.9006 0.
-470.099 -1219.98 0.
-7.6275 -2.80332 0.
-1.62149 -4.14461 0.
-91.0922 -177.564 0.
-22.3002 -36.3631 0.
-15.2877 -21.1246 0.
-39.5045 -39.4017 0.
-18.2771 -7.06088 0.
-333.104 -785.24 0.
-7.60737 -4.40537 0.
-13.6236 -20.8221 0.
-51.6722 -95.9913 0.
-0.0235418 -1.03383 0.
-2329.88 -5711.86 0.
-0.473524 -1.0255 0.
0.248845 0.309888 0.
-1355.2 -2175.32 0.
0.0050149 1.67168 0.
-79.0876 -203.164 0.
-0.655382 -12.7114 0.
-1.20435 -4.93958 0.
-1238.92 -2773.88 0.
-0.0497229 -9.10356 0.
-333.298 -860.588 0.
-3.26094 -8.78367 0.
-0.134415 -38.7216 0.
-955.976 -2521.16 0.
3.8607 10.2915 0.
-220.388 -533.961 0.
-0.0434339 -25.4609 0.
-1.93457 -84.0531 0.
19.4726 51.3865 0.
1.79392 4.5271 0.
50.6919 120.1 0.
-35.2635 -81.1581 0.
-1.05751 -14.8865 0.
-0.635468 -1.43518 0.
29.2656 61.9956 0.
-11.8739 -115.994 0.
-263.249 -600.015 0.
60.5154 145.655 0.
-266.473 -697.357 0.
-169.616 -434.709 0.
-988.225 -2625.8 0.
21.3711 56.3541 0.
22.7701 61.4935 0.
-0.000155951 -51.2165 0.
-141.426 -379.93 0.
5.71357 15.2342 0.
-1066.36 -2886.4 0.
-0.178888 -42.6311 0.
-118.544 -295.368 0.
-0.0133667 -4.92855 0.
8.86535 23.319 0.
1.66159 4.57769 0.
-1138.15 -2515.47 0.
-584.197 -862.826 0.
-0.544752 -1.3002 0.
0.27501 0.751216 0.
-0.00883432 -0.267527 0.
-0.101145 -0.890868 0.
0.344016 0.516047 0.
0.0258873 0.046756 0.
-0.0112365 -0.121799 0.
-0.0303078 -0.903878 0.
0.111488 0.592113 0.
-9.73777 -10.2114 0.
-8.48315 -14.8019 0.
-13.324 -23.5113 0.
-16.8651 -26.9945 0.
-30.9734 -33.388 0.
-13.0558 -19.4054 0.
-9.93683 -12.1369 0.
-10.4593 -10.9207 0.
-3.40218 -4.97588 0.
-0.372324 -0.331625 0.
-96.8833 -130.268 0.
-25.3181 -10.8968 0.
-34.4971 -22.3844 0.
-195.486 -478.032 0.
-60.0287 -112.125 0.
-26.661 -19.0386 0.
-224.027 -546.47 0.
-155.455 -359.74 0.
-88.28 -175.915 0.
-347.587 -523.754 0.
-323.844 -465.117 0.
-86.6208 -174.098 0.
-264.072 -477.999 0.
-283.678 -523.09 0.
-104.414 -137.059 0.
-159.458 -288.234 0.
-262.99 -569.731 0.
-29.9115 -21.1074 0.
-31.9263 -37.8287 0.
-183.598 -442.896 0.
-21.6931 -31.4945 0.
-18.65 -25.6677 0.
-18.2796 -29.3082 0.
-21.8664 -18.1535 0.
-17.7011 -8.48268 0.
-5.80008 -2.3147 0.
-7.03793 -8.7115 0.
-24.941 -41.9441 0.
-23.4494 -36.6064 0.
-22.3151 -23.9678 0.
-31.1355 -36.1 0.
-0.0855001 -0.0517723 0.
-16.3644 -40.8149 0.
-5.50786 -3.74008 0.
-12.4263 -21.5924 0.
-39.2291 -68.9016 0.
0.313116 0.830985 0.
-8.642 -22.3144 0.
-0.188701 -1.96171 0.
-0.185913 -0.477844 0.
-0.000502892 -0.647086 0.
-1834.88 -4166.89 0.
2.93772 7.04054 0.
-0.581045 -11.5733 0.
-0.0967884 -16.1776 0.
-571.087 -1374.85 0.
4.93857 13.3985 0.
-272.206 -711.443 0.
-10.2198 -27.5121 0.
14.0646 38.6092 0.
23.8528 64.357 0.
-0.636728 -27.8399 0.
-892.303 -2149.96 0.
-0.345278 -86.7111 0.
18.3922 47.5589 0.
-2.57907 -108.025 0.
28.9203 73.0471 0.
29.2638 69.662 0.
32.6426 75.6006 0.
-16.5302 -183.102 0.
-346.297 -767.32 0.
18.483 35.3925 0.
-16.2114 -134.49 0.
-103.409 -235.162 0.
58.6454 140.668 0.
3.4093 8.58844 0.
46.036 125.331 0.
31.098 83.9486 0.
13.3184 36.8874 0.
27.1596 72.5509 0.
-0.00997158 -38.2044 0.
-452.792 -1199.2 0.
-331.953 -888.958 0.
15.8012 42.7143 0.
-0.0180694 -7.11525 0.
-203.454 -513.548 0.
9.02991 24.8897 0.
-0.0604561 -2.89296 0.
0.00946321 0.74791 0.
-24.9458 -62.448 0.
-3.81647 -7.72264 0.
2.17649 5.6531 0.
-0.0173138 -1.09315 0.
0.43892 1.0801 0.
-6.24789 -16.9821 0.
-1591.81 -2887.12 0.
-0.0247165 -0.136332 0.
-1627.23 -3319.43 0.
0.250461 0.185047 0.
-0.301814 -0.143014 0.
-2023.75 -4488.32 0.
-0.514392 -0.129634 0.
-1327.76 -2994.1 0.
0.0510031 0.564572 0.
-15.897 -17.6478 0.
-1550.3 -3841.94 0.
-0.0906394 -0.0263135 0.
0.103172 0.092235 0.
-1271.17 -3249.42 0.
-198.45 -432.169 0.
-862.966 -2068.15 0.
-439.125 -1019.89 0.
-56.3751 -63.8023 0.
-686.139 -1774.46 0.
-395.471 -1017.43 0.
-117.895 -251.14 0.
-489.785 -1283.38 0.
-328.612 -845.91 0.
-168.409 -407.474 0.
-473.727 -917.395 0.
-441.692 -821.968 0.
-215.093 -450.426 0.
-359.303 -807.328 0.
-435.788 -1021.21 0.
-173.894 -350.511 0.
-379.838 -939.5 0.
-592.148 -1522.12 0.
-36.0091 -53.2727 0.
-415.892 -1064.75 0.
-811.272 -2097.04 0.
-27.0059 -26.331 0.
-455.838 -957.143 0.
-991.066 -2234.67 0.
-76.2805 -113.174 0.
-1403.96 -3609.2 0.
-15.3852 -19.7117 0.
-14.0298 -10.6156 0.
-1800.91 -4523.44 0.
-11.1135 -15.6265 0.
-10.1641 -12.6108 0.
-1794.29 -3102.71 0.
1.7414e-05 0.0161356 0.
-1893.42 -4611.26 0.
-13.464 -26.0975 0.
-35.7126 -64.2948 0.
-1748.55 -3099.35 0.
0.0107367 0.188667 0.
-1260.84 -3374.29 0.
1.62004 3.7347 0.
-0.782477 -2.74756 0.
0.0316702 4.44413 0.
-0.278602 -6.90737 0.
-1.12588 -22.1338 0.
-1628 -3638.83 0.
0.0241433 12.8644 0.
-143.784 -362.009 0.
-10.5795 -28.7657 0.
-0.00536158 -25.3232 0.
-374.235 -1006.16 0.
-115.983 -316.179 0.
4.84184 13.0212 0.
5.06215 13.2802 0.
-1619.56 -3894.71 0.
-0.26984 -43.2729 0.
15.1705 38.7758 0.
44.1725 115.229 0.
-71.8036 -181.81 0.
47.2321 120.259 0.
22.5699 52.6238 0.
67.4254 148.39 0.
-544.866 -1161.92 0.
-5.05499 -16.8362 0.
0.905794 1.89355 0.
-8.41472 -19.158 0.
-80.0981 -201.959 0.
1.32151 3.34281 0.
-0.834063 -100.692 0.
-1.16352 -99.6051 0.
-0.00338719 -57.9458 0.
-31.6267 -83.7051 0.
21.6857 57.7427 0.
-925.174 -2423.1 0.
18.833 51.5479 0.
5.04962 13.543 0.
-0.0460429 -33.4192 0.
-883.879 -2247.76 0.
-0.0657592 -36.3743 0.
-816.438 -2013.41 0.
-0.0347971 -4.51907 0.
-0.336173 -10.5235 0.
-0.0445667 -9.43581 0.
3.43466 9.17526 0.
4.17313 11.0282 0.
-1491.72 -3287.89 0.
0.767188 2.12357 0.
0.137438 0.31107 0.
-0.00937742 -0.497611 0.
0.604297 7.58192e-05 0.
-0.14594 -0.0412881 0.
0.511742 0.386916 0.
0.17507 0.0859116 0.
0.303523 0.408245 0.
0.265303 0.0073168 0.
0.257582 0.044697 0.
-20.2219 -20.135 0.
-6.84531 -17.0442 0.
-7.89817 -13.0548 0.
-8.27894 -10.1402 0.
-360.184 -860.707 0.
-16.3779 -23.1402 0.
-351.839 -800.644 0.
-11.263 -17.2169 0.
-14.626 -15.1441 0.
-406.608 -1012.47 0.
-125.658 -245.154 0.
-49.7365 -49.0882 0.
-361.074 -929.69 0.
-208.66 -509.343 0.
-94.152 -191.747 0.
-406.943 -728.721 0.
-374.018 -629.004 0.
-62.4573 -24.3251 0.
-262.753 -570.458 0.
-335.745 -771.508 0.
-65.2007 -76.5672 0.
-195.497 -451.79 0.
-403.987 -1038.51 0.
-18.7212 -30.0638 0.
-21.8955 -25.208 0.
-411.439 -1041.83 0.
-29.7674 -17.0482 0.
-19.8309 -7.16553 0.
-292.713 -542.596 0.
-13.6769 -10.1628 0.
-289.645 -637.88 0.
-20.9661 -22.3217 0.
-17.9139 -13.2004 0.
-18.1553 -15.7697 0.
-2.12131 -0.945526 0.
-0.418079 -0.159795 0.
-70.8438 -81.2747 0.
-0.00206994 -0.24175 0.
-0.00612529 -0.364625 0.
-4.28232 -6.13719 0.
0.234855 0.203442 0.
0.435924 0.121453 0.
-1.45302e-05 -0.0464249 0.
-48.7459 -132.41 0.
2.77515 6.87577 0.
-1796.81 -3711.1 0.
-0.0792956 -7.52606 0.
1.7132 4.54497 0.
-0.840515 -20.4967 0.
-49.7546 -114.227 0.
-92.9206 -244.882 0.
-78.3179 -202.097 0.
-30.8719 -84.0501 0.
-0.00165519 -56.9425 0.
-808.842 -2172.13 0.
-167.777 -456.895 0.
-14.5741 -39.0683 0.
2.07822 5.47551 0.
-0.675568 -62.4688 0.
-993.472 -2612.64 0.
-506.177 -1284.84 0.
-2.08676 -78.1626 0.
-552.334 -1403.64 0.
38.3836 102.673 0.
6.2767 14.7404 0.
-2.55175 -19.0891 0.
-10.0592 -33.9266 0.
-10.9975 -24.5501 0.
-525.756 -1058.19 0.
50.1075 114.482 0.
-64.3903 -162.117 0.
-20.6605 -52.5127 0.
17.3444 47.017 0.
1.84339 4.96212 0.
9.10434 24.4975 0.
-64.02 -168.186 0.
-17.8157 -47.5125 0.
-7.40889 -20.0104 0.
11.5335 31.6244 0.
-13.0006 -34.6376 0.
-10.8714 -29.758 0.
14.2931 39.5585 0.
-0.0317883 -17.0381 0.
-544.598 -1374.14 0.
-0.0398536 -7.82873 0.
4.23073 11.0767 0.
-268.751 -700.245 0.
-1176.94 -2794.82 0.
6.49595 17.2548 0.
-0.557473 -1.46339 0.
-0.0218292 -6.83886 0.
-0.00456943 -0.137367 0.
3.80423e-05 0.710092 0.
0.490755 0.000675839 0.
0.221659 0.0272564 0.
-139.76 -285.212 0.
-1470.12 -3890.48 0.
0.247876 0.539329 0.
-1629.43 -2526.76 0.
-35.0855 -45.9592 0.
-14.7034 -18.2926 0.
-1501.89 -3815.22 0.
-1.1815 -3.25555 0.
-3.77011 -10.3154 0.
-1303.69 -3358.96 0.
-7.21666 -4.5706 0.
-954.633 -2175.63 0.
-388.26 -841.445 0.
-0.953363 -0.395669 0.
-826.084 -2065.17 0.
-382.052 -911.676 0.
-30.7887 -25.3425 0.
-553.758 -1410.22 0.
-330.017 -825.979 0.
-112.934 -235.076 0.
-466.739 -983.648 0.
-411.418 -822.539 0.
-102.316 -214.214 0.
-325.464 -768.831 0.
-458.99 -1117.75 0.
-63.3779 -87.6316 0.
-342.42 -880.921 0.
-637.976 -1662.95 0.
-26.015 -19.615 0.
-351.087 -850.424 0.
-950.946 -2410.85 0.
-25.7253 -19.949 0.
-380.854 -740.027 0.
-1074.5 -2354.35 0.
-19.4935 -21.2784 0.
-1512.22 -3475.52 0.
-0.139733 -5.79548e-05 0.
0.311869 0.1132 0.
-1688.32 -4401.34 0.
0.165125 0.000929016 0.
-14.5512 -38.5998 0.
-1417.8 -2932.27 0.
-8.84219e-06 -0.000446875 0.
-1043.01 -2731.58 0.
-0.261241 -0.34973 0.
-0.145833 -0.124864 0.
-0.330287 -0.136524 0.
0.0259931 0.682564 0.
-0.891408 -2.45552 0.
-0.261349 -10.9203 0.
4.70619 10.0841 0.
-0.112197 -13.4449 0.
-885.261 -2253.91 0.
-0.587947 -17.1268 0.
3.03672 7.11689 0.
-303.183 -806.298 0.
-0.104726 -23.196 0.
-94.2942 -256.988 0.
13.8681 38.1691 0.
18.2069 50.1315 0.
-212.926 -579.329 0.
-174.688 -467.444 0.
21.0648 55.7226 0.
-0.8603 -82.0867 0.
19.9008 53.9655 0.
-769.117 -2009.71 0.
23.8035 61.9782 0.
7.82482 19.8898 0.
-15.9866 -42.577 0.
-882.291 -2087.53 0.
48.5425 98.756 0.
16.64 26.0852 0.
21.9078 26.6878 0.
-530.052 -1024.63 0.
76.0534 174.59 0.
17.9633 45.1639 0.
47.2666 120.765 0.
41.1744 111.16 0.
2.97547 8.00923 0.
-23.3249 -62.8349 0.
-77.4023 -202.219 0.
-423.83 -1132.51 0.
11.0549 29.8999 0.
-0.258073 -72.3651 0.
-100.198 -265.579 0.
-963.339 -2640.28 0.
18.9992 52.5993 0.
-2.16984 -5.89098 0.
7.72161 21.2896 0.
10.564 29.0095 0.
4.7829 12.6605 0.
-249.712 -679.406 0.
3.46888 8.23207 0.
-0.0288914 -1.74406 0.
2.11499 5.71613 0.
2.91205 7.95691 0.
-1276 -2732.62 0.
0.535932 1.41921 0.
-1480.89 -2771.45 0.
-6.03589 -13.5349 0.
-6.9363 -18.5917 0.
-2.22289 -5.85058 0.
-0.00501875 -0.258102 0.
-12.5617 -17.6733 0.
-1.0285 -1.66605 0.
-0.693523 -1.40581 0.
-11.0488 -14.451 0.
0.110682 0.30484 0.
-8.24839 -21.4672 0.
-178.717 -314.087 0.
-14.0629 -5.71469 0.
-219.72 -441.028 0.
-3.34689 -1.20883 0.
-3.59801 -1.40223 0.
-377.456 -929.484 0.
-14.5605 -7.99835 0.
-14.1798 -18.2852 0.
-329.023 -818.643 0.
-126.462 -262.755 0.
-13.2258 -9.75555 0.
-266.004 -531.719 0.
-216.649 -409.493 0.
-40.3952 -24.9829 0.
-161.104 -333.383 0.
-261.455 -612.392 0.
-14.6903 -19.5441 0.
-61.999 -126.714 0.
-311.962 -829.222 0.
-33.6642 -22.6418 0.
-16.7838 -9.33769 0.
-348.898 -841.109 0.
-20.6708 -17.7379 0.
-31.361 -20.3836 0.
-175.777 -313.408 0.
-0.0434854 -0.00184294 0.
0.182626 0.0317197 0.
-0.0010641 -2.17336e-06 0.
0.0447566 0.000235849 0.
0.360222 0.132997 0.
0.149629 0.0162521 0.
-6.08724 -6.95377 0.
-24.2816 -63.3438 0.
-0.0301009 -0.621946 0.
0.0576502 0.149347 0.
-0.0262295 -0.647788 0.
-1503.82 -3284.93 0.
1.16032 3.19801 0.
-1026.03 -2044.91 0.
-1.30633 -3.4534 0.
6.11394 16.4009 0.
-0.495252 -5.66033 0.
4.31963 11.8451 0.
5.69264 14.8234 0.
-229.639 -578.314 0.
10.9598 30.3523 0.
-472.968 -1266.24 0.
19.9307 55.1756 0.
-776.298 -2119 0.
19.3953 53.4123 0.
-13.0486 -35.9111 0.
-467.287 -1287.14 0.
-368.728 -985.977 0.
-42.0496 -111.657 0.
-4.93046 -13.3339 0.
43.0707 117.302 0.
-24.4042 -64.2572 0.
37.2724 100.865 0.
10.8643 27.7198 0.
34.6743 91.903 0.
49.9745 119.189 0.
-24.9434 -135.738 0.
-16.4012 -44.9679 0.
-853.006 -2353.44 0.
-520.424 -1229.22 0.
10.248 27.18 0.
-28.479 -71.5208 0.
-964.422 -2476.16 0.
-22.9543 -62.0003 0.
-243.915 -657.508 0.
33.1262 89.3272 0.
-875.77 -2283.12 0.
-8.54251 -23.3076 0.
-0.645755 -68.7664 0.
-0.18838 -63.5069 0.
-132.065 -348.903 0.
-10.7623 -29.7213 0.
14.2276 39.3966 0.
-22.0802 -59.8132 0.
9.66313 26.6112 0.
5.80664 15.976 0.
-115.873 -316.358 0.
-245.696 -678.47 0.
-0.426143 -6.53543 0.
0.117413 7.04182 0.
-766.134 -1734.22 0.
-0.0420109 -10.0704 0.
0.710484 1.89424 0.
0.681674 1.84776 0.
0.0952967 0.190553 0.
0.260531 0.621301 0.
0.153887 0.415745 0.
-3.43658 -9.50609 0.
-11.2206 -30.4345 0.
0.208434 0.269916 0.
-0.0985174 -0.283367 0.
-0.0737652 -0.140863 0.
-6.25768 -12.6625 0.
-4.404 -11.568 0.
-14.3934 -31.7512 0.
-18.3562 -23.9615 0.
-19.8944 -8.3036 0.
-6.3772 -2.36473 0.
-7.00814 -2.53651 0.
-7.66557 -2.94051 0.
-10.2321 -5.73283 0.
-5.14305 -3.94632 0.
-5.19265 -11.1942 0.
-158.219 -313.994 0.
-39.1608 -18.1593 0.
-31.7195 -16.7422 0.
-154.238 -300.667 0.
-118.914 -210.131 0.
-22.4457 -18.2791 0.
-82.3554 -77.6853 0.
-145.76 -257.571 0.
-7.88988 -17.9651 0.
-10.3511 -17.4035 0.
-80.0986 -173.812 0.
-46.0984 -30.9676 0.
-30.0037 -14.2923 0.
-34.9721 -23.8839 0.
-28.7913 -20.3061 0.
-39.1277 -31.0434 0.
-80.8726 -97.5421 0.
-0.192714 -0.0105707 0.
-0.0606004 -0.00022281 0.
-12.8937 -4.94117 0.
-11.7067 -4.28253 0.
-20.7413 -8.1208 0.
-0.267114 -0.0720968 0.
-2.93062 -2.43023 0.
-24.8271 -45.4999 0.
0.227733 0.528589 0.
-0.0434454 -0.828696 0.
0.660688 1.77727 0.
-0.235636 -2.32239 0.
3.28722 9.10414 0.
-0.531897 -6.52419 0.
-212.032 -396.316 0.
-1302.58 -3177.76 0.
-0.137781 -26.7485 0.
-0.0287224 -14.088 0.
5.93882 16.136 0.
-315.595 -809.911 0.
12.9809 35.9421 0.
-420.87 -1133.13 0.
7.84427 21.7178 0.
8.11675 22.476 0.
-225.095 -620.197 0.
-2.71437 -7.46766 0.
12.366 34.0853 0.
-552.926 -1479.04 0.
-128.809 -343.266 0.
-13.3073 -36.038 0.
-18.133 -49.5675 0.
-4.31659 -11.4346 0.
35.8342 97.0374 0.
-24.0627 -61.5872 0.
-7.18638 -18.9512 0.
-3.02038 -126.612 0.
-21.5351 -103.718 0.
-21.7748 -58.4338 0.
-10.2838 -88.8959 0.
37.9803 104.185 0.
-2.92904 -141.85 0.
5.19458 13.0328 0.
-429.102 -1109.39 0.
18.7174 50.5681 0.
-883.903 -2389.99 0.
-86.2258 -232.749 0.
-436.915 -1175.61 0.
24.6963 67.5888 0.
-5.63715 -15.2947 0.
-12.2786 -33.8133 0.
-965.744 -2555.59 0.
6.04795 16.7264 0.
7.82431 21.6688 0.
-554.237 -1499.98 0.
-1.00011 -2.75059 0.
-120.147 -325.201 0.
16.9392 46.1356 0.
-268.742 -744.369 0.
18.7984 46.6041 0.
-484.882 -1236.71 0.
4.57846 10.9547 0.
6.70728e-05 0.0239005 0.
0.907877 2.46288 0.
-0.00778859 -2.485 0.
1.08783 3.0122 0.
-932.513 -2199.83 0.
-0.105294 -1.85759 0.
-1240.51 -2413.83 0.
0.276159 0.631379 0.
-1276.49 -2369.49 0.
-3.05828 -5.46965 0.
-7.07653 -14.8242 0.
-1427.3 -3764.64 0.
-21.9362 -50.0849 0.
-5.29053 -12.8074 0.
-1296.84 -3031.29 0.
-43.1118 -41.0303 0.
-1035.12 -2403.35 0.
-311.842 -676.893 0.
-14.9631 -5.95669 0.
-983.243 -2551.98 0.
-231.091 -573.529 0.
0.0425899 0.0219409 0.
-691.339 -1796.94 0.
-343.181 -865.013 0.
-30.1984 -12.5438 0.
-505.632 -1263.01 0.
-431.474 -1078.95 0.
-92.8294 -101.518 0.
-374.421 -916.838 0.
-595.315 -1521.91 0.
-14.5711 -36.752 0.
-292.308 -749.295 0.
-801.474 -2082.29 0.
-29.336 -12.3562 0.
-233.427 -523.19 0.
-1156.69 -2994.7 0.
-22.7784 -13.5675 0.
-294.138 -516.294 0.
-1063.69 -2253.35 0.
0.032795 0.0173402 0.
-1363.79 -3395.56 0.
-12.5341 -13.3725 0.
-7.24028 -10.3753 0.
-1084.22 -2356.86 0.
-3.923 -8.62985 0.
-1654.65 -3909.16 0.
0.103574 1.03001 0.
-11.6742 -31.9081 0.
-1263.29 -2859.38 0.
-0.148192 -1.53387 0.
-0.151121 -2.61305 0.
-0.000148058 -2.38965 0.
2.25868 5.63454 0.
6.918 19.0713 0.
-92.1385 -240.391 0.
-93.0234 -253.877 0.
-0.0162587 -16.4342 0.
-0.184346 -35.8918 0.
-371.804 -968.191 0.
-0.0480724 -43.5717 0.
-0.0702737 -33.5291 0.
16.022 44.3629 0.
17.2734 47.8372 0.
-675.735 -1862.82 0.
0.948004 2.60767 0.
14.5747 40.2071 0.
-17.4882 -46.809 0.
-248.318 -664.026 0.
18.6209 50.5215 0.
0.455001 1.24749 0.
-318.086 -847.174 0.
-1.15593 -121.89 0.
-655.339 -1680.28 0.
13.4738 35.3457 0.
53.906 140.341 0.
54.964 118.952 0.
-13.7064 -36.6781 0.
-9.83926 -69.097 0.
-0.0384113 -3.4679 0.
21.3035 55.8707 0.
-178.269 -446.942 0.
-10.4719 -27.2725 0.
-32.5496 -87.9398 0.
-9.4802 -25.7231 0.
-161.213 -435.541 0.
1.39356 3.75403 0.
-7.70165 -21.1337 0.
-0.0841036 -80.355 0.
-103.366 -284.998 0.
-186.315 -515.48 0.
-49.3098 -136.509 0.
-6.95267 -19.2568 0.
14.7879 40.8804 0.
-0.149458 -42.6346 0.
-395.469 -1068.46 0.
7.89982 21.4712 0.
-315.743 -873.353 0.
11.6913 32.3197 0.
-209.374 -553.363 0.
3.35466e-07 4.08814 0.
-0.0394963 -17.1707 0.
-0.667295 -31.7309 0.
-1149.43 -2462.98 0.
1.02039 2.81215 0.
-37.7525 -96.8175 0.
0.488796 1.30484 0.
0.260138 0.610104 0.
-0.0853442 -1.01848 0.
0.368463 0.842136 0.
0.155708 0.306733 0.
0.287464 0.642071 0.
-29.0386 -80.151 0.
-4.41177 -12.0884 0.
-0.00711877 -0.211282 0.
-33.4741 -67.6217 0.
-12.1494 -20.2371 0.
-73.7882 -81.8641 0.
-27.3394 -21.3293 0.
-10.576 -5.53339 0.
-175.019 -412.974 0.
-4.55564 -1.68016 0.
-0.0779229 -0.0339073 0.
-267.169 -659.349 0.
0.0891359 0.200609 0.
-12.9675 -6.21678 0.
-247.941 -550.376 0.
-178.351 -361.624 0.
-10.2439 -24.0571 0.
-72.6962 -100.032 0.
-243.61 -582.353 0.
-24.6231 -42.9977 0.
-23.5393 -17.747 0.
-184.929 -386.367 0.
-25.4247 -11.7299 0.
-27.1721 -12.409 0.
-203.387 -444.701 0.
-16.1004 -10.3707 0.
-6.44359 -3.3188 0.
0.0806407 0.0437937 0.
0.023204 0.00036711 0.
-3.23418 -8.02008 0.
-0.249345 -0.544446 0.
-3.03151 -5.89264 0.
-8.32472 -15.2879 0.
-4.34132 -6.72402 0.
-52.2956 -138.745 0.
0.0650581 0.708655 0.
-3.65424e-05 -0.0170594 0.
-7.55903 -20.2148 0.
-0.219646 -7.06099 0.
-1155.44 -2587.89 0.
5.9308 15.6174 0.
-0.463589 -14.6626 0.
8.43017 23.3226 0.
-37.3558 -100.829 0.
-4.13703 -11.266 0.
-999.799 -2636.74 0.
-0.0914946 -26.8009 0.
-376.43 -991.454 0.
6.69224 18.493 0.
21.0705 58.0594 0.
-3.05067 -8.44773 0.
19.4676 53.9183 0.
-1.85445 -5.12615 0.
-110.202 -303.098 0.
5.7672 15.9231 0.
-18.0301 -49.4181 0.
-383.408 -1028.69 0.
-301.062 -832.406 0.
15.7287 43.2308 0.
-706.091 -1890.18 0.
50.7552 137.381 0.
-112.787 -289.984 0.
-7.55631 -19.7171 0.
35.9452 92.7678 0.
-8.579 -17.9827 0.
24.5233 37.9953 0.
1.99221 3.95455 0.
11.8754 31.2299 0.
-10.0048 -26.0346 0.
-120.527 -301.973 0.
-1.41039 -140.405 0.
-95.3544 -257.586 0.
7.84135 21.6565 0.
-542.149 -1465.92 0.
-19.8764 -55.054 0.
-9.66173 -26.5725 0.
3.71982 10.2848 0.
-635.899 -1755.29 0.
-116.979 -323.721 0.
-116.306 -322.133 0.
-1279.72 -3542.79 0.
-0.0673179 -61.2325 0.
-23.5582 -64.6182 0.
8.7558 24.2175 0.
7.06138 19.1505 0.
-269.705 -746.459 0.
-8.0193 -22.1969 0.
-130.961 -353.673 0.
7.17791 19.8157 0.
-879.601 -2297.44 0.
-0.0155096 -4.84307 0.
-0.130126 -0.315197 0.
-0.00142891 -12.0507 0.
-63.3414 -169.958 0.
-0.00323266 -2.89125 0.
-0.127495 -0.303067 0.
0.152449 0.357984 0.
0.403462 0.934492 0.
-1366.49 -3564.85 0.
-0.124087 -1.5902 0.
-866.37 -1564.98 0.
-13.3544 -36.9887 0.
-52.4365 -140.134 0.
-1129.49 -2975.7 0.
-15.7231 -34.2488 0.
-913.843 -1986.47 0.
-206.264 -388.708 0.
-2.65842 -2.73108 0.
-1049.11 -2785.32 0.
-105.353 -217.439 0.
-18.027 -7.86766 0.
-818.537 -2120.39 0.
-275.177 -703.362 0.
0.0127857 0.0803032 0.
-563.671 -1418.13 0.
-487.623 -1241.16 0.
-12.5808 -6.05708 0.
-350.079 -908.088 0.
-692.743 -1830.21 0.
-25.6141 -13.0621 0.
-227.319 -539.422 0.
-951.337 -2466.91 0.
-30.4144 -31.1892 0.
-21.7512 -14.8867 0.
-997.549 -2461.51 0.
-63.2698 -79.0665 0.
-1252.1 -2660.48 0.
0.0565992 0.0549198 0.
-13.5779 -33.3761 0.
-1137.47 -2985.59 0.
-29.7286 -60.8765 0.
0.0396883 0.0756269 0.
-1049.42 -2394.91 0.
-127.682 -292.018 0.
-0.226309 -0.211601 0.
0.145617 1.67614 0.
-0.0283676 -2.653 0.
-0.000869865 -0.301092 0.
3.05447 8.25183 0.
-0.51767 -8.09434 0.
4.9403 13.4558 0.
-1298.11 -3170.18 0.
1.78097 4.84981 0.
-46.3538 -127.206 0.
8.17653 22.2186 0.
-24.2517 -63.6307 0.
-0.675879 -43.6443 0.
9.03117 24.8665 0.
-46.0835 -127.381 0.
-0.12263 -56.4842 0.
-577.295 -1598.8 0.
20.5185 56.8321 0.
12.0484 33.2961 0.
-133.243 -366.337 0.
-42.4782 -117.374 0.
6.35787 17.4413 0.
-506.943 -1402.65 0.
-182.581 -504.971 0.
-0.245522 -104.437 0.
-356.494 -985.736 0.
-0.45415 -1.22805 0.
47.1653 126.948 0.
-63.8561 -165.722 0.
8.54078 21.8136 0.
-14.5808 -90.9812 0.
-28.2899 -76.637 0.
10.8808 20.4492 0.
-4.45202 -119.295 0.
-43.7811 -112.905 0.
-55.8566 -139.86 0.
-20.0015 -54.0759 0.
-365.495 -987 0.
-0.101821 -112.962 0.
15.5831 42.8192 0.
3.28688 9.10391 0.
-434.695 -1198.12 0.
-145.89 -403.62 0.
-0.0189903 -77.2841 0.
8.49172 23.5039 0.
-249.371 -690.648 0.
24.2192 66.8831 0.
11.2539 31.0636 0.
-142.656 -392.362 0.
4.14274 11.4682 0.
16.8955 45.7187 0.
16.0704 43.2651 0.
8.94691 24.7795 0.
-324.236 -886.868 0.
-24.1163 -66.6074 0.
-60.5405 -161.739 0.
10.0073 27.701 0.
6.05366 15.4002 0.
5.02699 13.9228 0.
-188.781 -513.367 0.
-137.671 -269.621 0.
-876.486 -2089.95 0.
-13.8024 -31.615 0.
-18.7967 -48.815 0.
0.497061 1.29734 0.
-0.000580458 -0.115298 0.
0.0176149 0.332458 0.
0.0382624 0.205716 0.
-8.46529 -23.1958 0.
-33.0802 -91.4683 0.
0.0320148 0.205242 0.
-0.150547 -0.0438593 0.
0.172324 0.108996 0.
0.160459 0.11306 0.
-160.528 -387.11 0.
-14.8626 -9.20227 0.
-9.62339 -6.27971 0.
-72.7681 -178.957 0.
0.00763937 0.0581796 0.
-0.0308266 -0.0731174 0.
-94.7474 -167.93 0.
-31.8396 -11.4958 0.
-6.08753 -3.31872 0.
-2.6081 -1.12503 0.
-71.8172 -133.178 0.
-13.6613 -8.94333 0.
-8.15465 -11.6099 0.
-55.6628 -90.9495 0.
-21.7514 -27.3225 0.
-17.0008 -12.4833 0.
-16.5094 -6.52645 0.
-1.90142 -0.869204 0.
-174.609 -381.125 0.
-0.0905722 -0.12282 0.
-8.90784 -19.707 0.
-29.8477 -65.4691 0.
0.000820535 0.0117145 0.
0.0333649 0.111158 0.
0.3706 0.533577 0.
-0.217984 -0.972205 0.
-913.717 -2265.3 0.
1.3701 3.66499 0.
-1140.21 -2323.78 0.
-0.508096 -14.6634 0.
4.07138 11.1811 0.
-0.16542 -4.25577 0.
10.0375 27.6778 0.
-0.841645 -2.16295 0.
4.90564 13.3847 0.
-592.286 -1601.66 0.
0.563125 1.52658 0.
5.60072 15.4398 0.
17.2647 46.4061 0.
6.50356 17.9106 0.
-199.443 -551.436 0.
11.2626 31.1249 0.
-8.76652 -24.2461 0.
20.0118 55.4203 0.
6.34511 17.5307 0.
-617.55 -1706.02 0.
-90.1185 -249.19 0.
7.64242 20.9838 0.
6.00727 16.6248 0.
-204.197 -564.911 0.
-565.477 -1561.02 0.
-311.488 -861.05 0.
-722.492 -1950.65 0.
50.4368 135.838 0.
58.3332 150.523 0.
-12.1841 -30.7563 0.
63.8817 125.35 0.
-20.589 -100.676 0.
-370.946 -657.04 0.
42.36 103.54 0.
-632.939 -1616.58 0.
-18.6837 -50.1284 0.
-1.76691 -4.77365 0.
-29.7425 -80.3011 0.
-25.2279 -69.7662 0.
32.7387 90.0807 0.
-15.3184 -42.4272 0.
-560.969 -1548.66 0.
-431.362 -1194.03 0.
-11.8754 -32.885 0.
-16.236 -44.9457 0.
-390.472 -1080.75 0.
5.76209 15.8928 0.
-0.108632 -59.4975 0.
-460.815 -1270.08 0.
-2.17616 -6.02686 0.
-266.678 -719.206 0.
-0.429835 -48.2572 0.
0.645222 1.78705 0.
-22.0157 -60.9777 0.
-22.8318 -63.1232 0.
-52.8632 -143.397 0.
-0.00338208 -22.8836 0.
3.88585 10.1262 0.
-497.765 -1226.2 0.
-619.808 -1115.74 0.
-0.320292 -4.06378 0.
-0.314237 -0.674049 0.
0.182725 0.440382 0.
-0.332867 -0.885394 0.
-0.00495758 -2.24859 0.
-0.00606017 -1.42334 0.
0.012953 0.285709 0.
0.010473 0.124148 0.
-13.1407 -32.9429 0.
-10.7537 -29.0278 0.
0.308673 0.0118185 0.
0.159952 0.0415945 0.
-0.0394566 -0.0209717 0.
-1.94416 -1.89073 0.
-9.32941 -15.6374 0.
-6.16922 -5.53786 0.
-8.96078 -5.95078 0.
-0.0430515 -0.00715344 0.
-0.0031297 -0.000996071 0.
-0.0652407 -0.0454942 0.
-25.8724 -9.41139 0.
-26.5778 -9.59928 0.
-3.42595 -2.2418 0.
-0.379485 -0.138326 0.
-7.23994 -2.68541 0.
-12.9276 -9.15418 0.
-14.7795 -14.4032 0.
-28.2509 -28.536 0.
-14.3734 -24.0737 0.
-14.2412 -11.232 0.
-16.8818 -7.38332 0.
-18.7526 -8.69983 0.
-26.1433 -11.0782 0.
-0.123256 -0.215979 0.
-14.8091 -18.7434 0.
-27.7266 -51.4544 0.
-0.081958 -1.05772 0.
0.153822 0.767663 0.
0.182405 0.430499 0.
0.0153673 0.38007 0.
-0.1783 -1.64091 0.
3.63197 9.97152 0.
-0.322431 -4.74958 0.
0.0138003 3.48208 0.
-905.216 -2253.18 0.
10.1159 27.5685 0.
-0.00649818 -19.3921 0.
11.4816 31.6146 0.
2.84004 7.76184 0.
12.5598 34.4276 0.
-29.5606 -78.4779 0.
-0.0403116 -33.0384 0.
-221.159 -597.666 0.
8.78998 24.3381 0.
-642.252 -1776.16 0.
12.8785 35.5708 0.
-11.0478 -30.5297 0.
-427.333 -1183.1 0.
5.27767 14.5788 0.
-37.0348 -102.547 0.
-162.966 -450.908 0.
16.0672 44.1574 0.
-4.91169 -13.5959 0.
-231.692 -641.141 0.
-465.845 -1287.62 0.
-458.161 -1266.19 0.
-1006.45 -2711.32 0.
-2.85322 -7.68893 0.
-18.2265 -48.8175 0.
-477.788 -1188.38 0.
-3.07799 -124.803 0.
17.4757 32.1447 0.
-462.847 -802.758 0.
-532.617 -1243.58 0.
0.922424 2.50877 0.
23.4583 62.6813 0.
-194.357 -524.483 0.
-11.8055 -32.6834 0.
8.10662 22.4282 0.
10.0783 27.7058 0.
-96.8382 -268.2 0.
20.361 56.3903 0.
-167.278 -463.198 0.
11.0131 30.4563 0.
-3.33945 -9.2456 0.
-264.359 -731.887 0.
12.8223 35.3121 0.
3.67493 10.1228 0.
-53.2514 -146.496 0.
5.97968 16.5626 0.
-639.058 -1732.67 0.
-0.298967 -46.7282 0.
7.55758 20.9218 0.
-9.25347 -25.63 0.
-105.121 -290.845 0.
13.3234 36.8469 0.
-0.0329405 -37.538 0.
-138.46 -380.323 0.
-164.707 -433.871 0.
0.0012877 10.5333 0.
-0.401809 -8.66775 0.
-0.00576819 -19.3659 0.
-0.0800589 -0.198928 0.
-91.3653 -201.719 0.
-767.142 -1896.76 0.
-0.0155453 -3.50512 0.
-860.983 -1815.87 0.
-3.3526 -3.87859 0.
0.564703 0.0492628 0.
-1040.48 -2814.07 0.
-0.00420882 -0.0143096 0.
-0.498667 -1.16242 0.
-1220.08 -2631.52 0.
0.0667164 0.11527 0.
-816.848 -2134.84 0.
-7.48582 -2.796 0.
-1.19581 -0.569219 0.
-863.521 -2298.41 0.
-104.364 -258.421 0.
-10.6801 -16.195 0.
-585.946 -1529.23 0.
-433.539 -1167.38 0.
-20.1585 -15.6126 0.
-205.285 -522.06 0.
-790.648 -2120.18 0.
-25.9143 -40.891 0.
-46.266 -59.671 0.
-963.576 -2474.4 0.
-10.9292 -17.3853 0.
-3.48748 -7.30624 0.
-1075.88 -2309.16 0.
-26.8881 -22.9019 0.
-1054.94 -2549.34 0.
-3.10676 -7.96182 0.
-1.43719 -3.90789 0.
-1085.55 -2707.46 0.
-25.6372 -57.932 0.
-61.5449 -147.343 0.
-1154.21 -2215.21 0.
-0.330396 -0.874196 0.
-905.971 -2130.83 0.
5.3801 14.867 0.
-0.30178 -7.74091 0.
0.000368571 4.0121 0.
0.330994 0.878649 0.
4.03369 11.0219 0.
-130.762 -354.682 0.
6.05674 16.6925 0.
10.3161 28.2344 0.
-0.350137 -0.963606 0.
-147.911 -396.034 0.
-0.030277 -40.261 0.
-566.785 -1538.5 0.
-0.924645 -2.55887 0.
0.818377 2.24695 0.
23.2574 64.1964 0.
5.84626 16.1386 0.
-213.319 -590.282 0.
-17.3086 -47.9408 0.
-35.3311 -97.8418 0.
-61.623 -170.673 0.
-116.549 -320.631 0.
-5.08625 -14.0698 0.
-176.011 -487.178 0.
31.8604 88.1907 0.
-429.056 -1185.35 0.
10.7255 29.5369 0.
-477.543 -1287.32 0.
25.9398 68.9249 0.
37.0984 100.61 0.
-2.73834 -7.05993 0.
-13.6131 -28.6782 0.
37.2984 97.6407 0.
20.9821 51.5303 0.
-1.36801 -106.344 0.
29.6353 78.7938 0.
-309.932 -835.047 0.
29.2035 80.8037 0.
-241.218 -667.616 0.
7.65558 21.0663 0.
-560.059 -1551.03 0.
-17.2483 -47.7671 0.
-228.978 -634.193 0.
-14.0405 -38.8366 0.
-297.137 -822.758 0.
-0.738381 -2.04425 0.
-0.293031 -0.805492 0.
-197.462 -543.527 0.
-60.6575 -166.937 0.
11.321 31.3347 0.
20.7684 57.3824 0.
15.8311 43.3912 0.
-598.939 -1658.88 0.
-8.15069 -22.5757 0.
-243.292 -673.477 0.
12.7685 35.2923 0.
-199.577 -546.345 0.
-84.4318 -231.904 0.
-0.224998 -29.7962 0.
-0.0645643 -21.2694 0.
-750.713 -1895.28 0.
-0.175506 -9.45573 0.
-897.845 -1701.38 0.
-0.503591 -7.06125 0.
-0.581889 -1.59832 0.
-0.00620853 -2.14587 0.
-29.3603 -56.764 0.
0.0392259 0.665756 0.
0.599963 0.231932 0.
-0.185014 -0.206052 0.
-0.174441 -0.450886 0.
-0.0342025 -0.0689494 0.
-0.0373047 -0.0929918 0.
0.000397685 0.0138698 0.
-41.9907 -77.3256 0.
-0.130843 -0.0643616 0.
-0.154188 -0.074988 0.
-4.25323 -1.7483 0.
-7.69287 -3.99854 0.
-9.39006 -8.57357 0.
-7.97589 -8.31236 0.
-6.23992 -7.12679 0.
-4.40752 -5.26988 0.
-19.7604 -17.5594 0.
-37.5704 -48.5661 0.
-14.0551 -32.2519 0.
-12.4984 -24.3951 0.
-31.4056 -30.9764 0.
-2.23181 -4.40973 0.
-3.6161 -7.59197 0.
-5.78709 -13.4224 0.
-26.5023 -24.2381 0.
-3.3143 -7.09462 0.
0.157811 0.43134 0.
0.119295 0.302227 0.
-6.35962 -16.4937 0.
-0.0160156 -0.674707 0.
-11.7905 -32.6413 0.
0.132949 2.94082 0.
-0.014064 -5.4998 0.
1.77737 4.3029 0.
-0.034639 -2.68669 0.
-769.325 -1914.34 0.
2.54402 7.04407 0.
5.96759 16.2445 0.
6.101 16.7072 0.
-14.6248 -39.7668 0.
-411.826 -1125.63 0.
8.28125 22.6908 0.
-0.0461208 -28.5517 0.
-458.31 -1235.5 0.
0.0600639 0.16591 0.
20.3814 56.162 0.
-10.7206 -29.6462 0.
-8.47443 -23.2427 0.
-36.8209 -101.56 0.
21.0029 57.9098 0.
-7.02013 -19.4416 0.
-64.4339 -178.471 0.
-51.4658 -142.537 0.
-65.6489 -181.832 0.
-1228.28 -3382.89 0.
-0.0560359 -86.1459 0.
-321.698 -890.91 0.
21.4887 59.4898 0.
-474.893 -1311.52 0.
-20.6708 -56.949 0.
31.8678 85.9806 0.
-17.2311 -45.3318 0.
45.382 123.397 0.
35.6924 96.7573 0.
21.6123 43.45 0.
-1.95255 -51.7456 0.
-0.89511 -103.185 0.
-520.959 -1379.63 0.
-624.226 -1649.93 0.
28.2702 78.279 0.
-0.0859544 -104.662 0.
7.67521 20.844 0.
-59.4581 -163.8 0.
19.87 55.0255 0.
-224.983 -623.021 0.
-11.0816 -30.6937 0.
-0.801213 -2.21669 0.
1.40487 3.8902 0.
23.5043 65.0442 0.
-53.5414 -146.854 0.
-274.879 -756.865 0.
-61.9477 -170.555 0.
-4.51966 -12.5062 0.
-2.47179 -6.82603 0.
-7.41676 -20.4051 0.
10.6819 29.5582 0.
1.38834 3.84544 0.
-385.791 -1068.3 0.
7.80761 21.6241 0.
-190.186 -520.58 0.
-30.7519 -84.4573 0.
-23.7503 -65.4812 0.
6.66005 18.3897 0.
-127.701 -338.005 0.
6.41062 17.6592 0.
-0.546878 -3.25187 0.
-0.558388 -9.63215 0.
0.372288 1.03058 0.
-0.0419433 -2.42291 0.
-4.20784 -8.65465 0.
0.114063 0.801035 0.
-102.498 -248.932 0.
-519.936 -1385.74 0.
-0.201172 -0.427433 0.
-0.108224 -0.225904 0.
-845.731 -2277.55 0.
0.212909 0.456343 0.
-834.257 -1805.76 0.
-8.58339 -7.63159 0.
-17.7455 -24.8897 0.
-817.102 -2148.71 0.
-17.39 -17.9435 0.
-26.0846 -37.9706 0.
-519.73 -1411.17 0.
-367.869 -1011.78 0.
-48.1683 -84.9021 0.
-109.917 -262.674 0.
-736.266 -1974.97 0.
-0.897184 -1.82107 0.
-13.3303 -26.8495 0.
-898.616 -2276.6 0.
-16.234 -35.2546 0.
-12.6408 -31.5957 0.
-871.761 -1756.73 0.
-10.0626 -13.8987 0.
-752.917 -2012.7 0.
0.569891 0.188523 0.
-253.06 -574.537 0.
0.0583601 0.356748 0.
-0.000987992 -0.121472 0.
-8.13654 -21.2923 0.
0.0131505 0.355447 0.
3.33371 9.23275 0.
1.70326 4.39568 0.
-0.00816867 -1.54076 0.
-0.577448 -18.2421 0.
3.04982 8.44662 0.
-536.131 -1466.08 0.
-2.25476 -6.18525 0.
-71.2255 -194.112 0.
-283.822 -778.407 0.
-0.857759 -2.35366 0.
10.4474 28.8701 0.
2.05226 5.68439 0.
1.17512 3.24951 0.
-0.140925 -49.3353 0.
-47.3607 -130.843 0.
1.24328 3.39658 0.
-353.934 -975.47 0.
-13.446 -37.0648 0.
20.7834 57.5511 0.
-242.976 -672.995 0.
7.55295 20.9196 0.
-44.9397 -124.42 0.
-64.1552 -176.837 0.
2.35237 6.50357 0.
-3.00437 -8.31928 0.
-110.602 -306.23 0.
-27.2051 -75.0915 0.
-8.00959 -22.0751 0.
39.9711 110.057 0.
21.5178 58.156 0.
10.9773 29.5878 0.
-1.6114 -91.8822 0.
-11.561 -21.9743 0.
6.5404 16.0536 0.
-7.20624 -19.2335 0.
-1.64733 -129.441 0.
7.69044 21.1449 0.
1.33207 3.68729 0.
-801.704 -2212.47 0.
-0.661588 -91.1201 0.
-373.661 -1030.74 0.
-2.90789 -8.00998 0.
-109.678 -303.703 0.
27.8312 76.8058 0.
-226.405 -626.515 0.
-0.192423 -75.1995 0.
2.8773 7.95781 0.
-171.661 -465.977 0.
-321.054 -870.238 0.
-45.6785 -125.812 0.
-4.60958 -12.7508 0.
-0.0801927 -54.5149 0.
-30.335 -83.8209 0.
3.69359 10.2262 0.
-0.000106207 -51.6048 0.
-57.2393 -158.541 0.
-11.1925 -31.0012 0.
-234.694 -642.358 0.
-2.81833 -7.73939 0.
-455.452 -1261.52 0.
10.5194 29.0579 0.
-150.236 -408.971 0.
11.8555 32.82 0.
5.01043 10.4895 0.
-530.477 -1180.16 0.
-370.366 -815.842 0.
2.35578 5.70765 0.
-0.0224492 -2.84999 0.
-896.786 -2115.97 0.
-0.00241673 -2.36433 0.
0.0237751 0.0514959 0.
-0.0022546 -0.00479381 0.
0.0310877 0.064867 0.
-4.80708 -11.7219 0.
-0.0557138 -0.373339 0.
-17.668 -17.9143 0.
-4.70244 -2.28912 0.
-5.58469 -2.06554 0.
0.0561053 0.0426676 0.
0.0287218 0.0206021 0.
-7.28715 -14.0954 0.
-14.2334 -23.7892 0.
-5.32871 -13.2089 0.
-13.7887 -18.1302 0.
-13.7486 -16.5108 0.
-20.0528 -30.8052 0.
0.111279 0.0736633 0.
-3.89909 -9.52507 0.
-36.5423 -51.4803 0.
-14.3596 -34.2706 0.
-11.1384 -29.9169 0.
-13.4257 -36.7529 0.
0.841581 0.000512524 0.
0.438136 0.636089 0.
0.683167 0.647241 0.
-0.0962951 -0.631242 0.
-643.302 -1587.48 0.
1.50409 3.34541 0.
-870.691 -1552.18 0.
-0.657527 -10.8871 0.
-769.84 -1777.63 0.
0.00321045 0.555071 0.
-0.00433497 -2.19163 0.
-0.266676 -24.397 0.
3.06568 8.48232 0.
-0.00886139 -29.5001 0.
-137.401 -374.82 0.
-0.0169216 -24.6181 0.
-204.036 -560.921 0.
-11.125 -30.561 0.
-16.6048 -45.6824 0.
-0.00233785 -57.5268 0.
-30.9768 -85.7278 0.
-5.91357 -16.2119 0.
-556.923 -1536.87 0.
-12.3426 -33.6977 0.
12.4332 34.2466 0.
-79.4661 -218.998 0.
-8.02977 -22.209 0.
-282.155 -781.471 0.
-7.43144 -20.5264 0.
5.63351 15.6023 0.
4.60032 12.7418 0.
-68.5912 -189.571 0.
-17.0268 -46.9656 0.
-595.696 -1649.49 0.
22.4629 62.1554 0.
11.5468 31.8354 0.
-0.379271 -117.213 0.
-0.00744251 -128.005 0.
-209.178 -557.794 0.
-7.85978 -20.4115 0.
21.2514 37.7562 0.
23.1212 54.4871 0.
-4.19188 -10.9644 0.
-13.7042 -36.6109 0.
34.224 93.7729 0.
1.01277 2.80205 0.
2.78972 7.68839 0.
-0.587572 -95.4143 0.
-449.712 -1242.13 0.
-13.1745 -36.301 0.
-37.2434 -103.122 0.
-2.50492 -6.91024 0.
-512.053 -1417.26 0.
21.4801 59.0589 0.
-73.3613 -202.754 0.
-39.4586 -107.032 0.
-14.4758 -39.2002 0.
-47.774 -131.041 0.
-372.091 -1028.75 0.
19.1633 52.8597 0.
-108.774 -300.828 0.
-1.15943 -3.21106 0.
18.7106 51.8251 0.
-44.1025 -122.155 0.
11.2967 31.2844 0.
-7.8818 -21.7968 0.
-81.7409 -225.964 0.
11.2413 31.1363 0.
-0.036191 -37.5103 0.
0.358312 0.982832 0.
-0.0437596 -13.3691 0.
-2.30036 -6.37106 0.
-123.123 -308.292 0.
-0.00279328 -0.251497 0.
-0.17636 -3.70402 0.
3.00493 8.1889 0.
-0.0961137 -3.51048 0.
-0.00420237 -4.4016 0.
-0.352222 -0.761904 0.
-0.19359 -0.411572 0.
-0.435114 -0.907536 0.
-4.04739 -9.49026 0.
0.065152 0.404118 0.
-31.0807 -20.0536 0.
-20.9815 -8.80442 0.
-22.4016 -8.14402 0.
-0.0570408 -0.0256686 0.
0.0751444 0.0494856 0.
-0.604736 -0.771706 0.
-5.79415 -11.9811 0.
-4.44774 -12.3077 0.
-5.47998 -13.2973 0.
-2.17624 -4.00666 0.
-9.87452 -17.0055 0.
0.201347 0.0187593 0.
-4.34315 -11.3714 0.
-13.0412 -32.4086 0.
-16.8912 -32.4823 0.
-15.9266 -30.9868 0.
-18.8971 -38.4259 0.
0.11911 0.620503 0.
0.191243 0.318696 0.
2.62135 0.0144326 0.
-0.0528248 -1.52874 0.
-0.00459979 -0.0532913 0.
-0.237151 -8.88796 0.
-0.601034 -5.24287 0.
-0.35778 -9.34127 0.
2.23513 5.45791 0.
7.69328 21.2483 0.
-558.176 -1496.17 0.
11.2515 30.2552 0.
2.85955 7.90135 0.
8.29753 22.9821 0.
-96.8453 -265.461 0.
7.44086 20.6072 0.
-146.415 -403.18 0.
10.6663 29.3309 0.
-54.237 -149.354 0.
-10.7637 -29.8004 0.
-530.909 -1470.11 0.
-10.2281 -28.0204 0.
-15.905 -43.386 0.
-21.038 -57.3994 0.
16.2174 44.3216 0.
-174.718 -481.362 0.
19.3117 53.4098 0.
-244.331 -676.641 0.
-55.3256 -152.892 0.
9.59678 26.5814 0.
-98.5476 -272.95 0.
-81.5086 -225.201 0.
-125.06 -345.259 0.
-313.375 -867.891 0.
9.95009 27.5364 0.
-9.05854 -24.9832 0.
18.735 51.8323 0.
-0.0366727 -97.3927 0.
13.0067 35.8121 0.
19.2921 48.8579 0.
38.9871 97.327 0.
-17.2511 -44.6534 0.
-0.410713 -99.9862 0.
-6.35068 -17.5483 0.
23.2706 64.4384 0.
-230.66 -637.679 0.
-2.28073 -6.28745 0.
-4.70716 -12.8843 0.
-7.74117 -21.0287 0.
-262.556 -723.777 0.
24.9219 68.3397 0.
-237.944 -656.163 0.
21.9487 60.1804 0.
-76.5389 -210.17 0.
-186.871 -516.026 0.
-17.3874 -47.123 0.
-10.5607 -28.573 0.
-57.8764 -158.6 0.
9.23719 25.1835 0.
-11.8973 -32.7095 0.
-186.767 -512.614 0.
-12.3944 -34.3302 0.
-215.642 -597.145 0.
-42.2993 -117.16 0.
-77.9842 -215.883 0.
-1.34053 -3.6881 0.
-151.013 -417.947 0.
10.6933 29.6077 0.
13.3498 36.9049 0.
11.8693 32.5864 0.
-187.162 -516.492 0.
-4.41921e-09 -33.8999 0.
9.30924 24.7765 0.
-3.19841e-05 -8.0316 0.
-0.399092 -10.0471 0.
-0.057293 -8.9186 0.
-461.552 -1258.42 0.
2.50339 6.89796 0.
-716.391 -1378.48 0.
-25.1741 -56.7651 0.
-37.6877 -92.5221 0.
-698.56 -1791.95 0.
0.0755378 0.394585 0.
-689.261 -1479.14 0.
-34.819 -31.1225 0.
-29.1739 -24.1203 0.
-690.958 -1796.94 0.
-9.59237 -14.7864 0.
-18.9135 -39.2821 0.
-428.459 -1151.66 0.
-355.221 -961.036 0.
-61.0628 -130.139 0.
-60.6106 -135.323 0.
-617.948 -1604.1 0.
-22.2824 -37.6077 0.
-7.38561 -19.7557 0.
-754.814 -1962.91 0.
-16.6289 -33.1854 0.
-17.1824 -37.4317 0.
-696.55 -1394.45 0.
-2.94066 -7.94929 0.
-838.161 -1901.66 0.
-1.92772 -5.31481 0.
-33.8618 -86.0125 0.
-579.965 -1394.55 0.
-0.240058 -10.4867 0.
1.64255 3.97728 0.
-0.148799 -6.33154 0.
4.12854 10.435 0.
6.16941 17.0828 0.
-22.3953 -61.1458 0.
-3.44446 -9.53427 0.
-333.671 -923.995 0.
16.4014 45.4234 0.
-118.443 -325.801 0.
-6.67218 -18.4796 0.
-300.512 -832.168 0.
-38.3115 -105.457 0.
-354.177 -978.907 0.
-7.52254 -20.7995 0.
1.3546 3.70743 0.
11.617 31.8017 0.
24.4227 66.0566 0.
-156.117 -425.664 0.
-8.19894 -22.4055 0.
-251.456 -692.572 0.
16.9038 46.7486 0.
20.0177 55.1061 0.
-208.587 -576.737 0.
2.51012 6.91673 0.
-275.866 -763.877 0.
19.0875 52.0896 0.
-226.885 -626.935 0.
32.6815 89.777 0.
-307.807 -852.046 0.
-10.3692 -28.6195 0.
-234.185 -647.901 0.
25.4441 70.2931 0.
8.89825 24.3044 0.
-1.11186 -60.6154 0.
-0.0543588 -25.7984 0.
2.40402 6.62631 0.
-17.3759 -47.2062 0.
27.1275 74.7437 0.
-297.109 -822.922 0.
4.07805 11.2368 0.
32.1395 88.6341 0.
-1.0911 -2.99521 0.
-17.542 -48.0019 0.
-402.68 -1110.68 0.
-12.91 -35.389 0.
-140.992 -388.689 0.
-19.2631 -52.8848 0.
-459.233 -1259.17 0.
7.00678 19.2831 0.
-38.8279 -105.135 0.
-12.2957 -32.8607 0.
-59.1191 -161.84 0.
6.65865 18.1327 0.
6.53871 17.9549 0.
-0.153115 -0.419702 0.
6.74916 18.6921 0.
-6.6821 -18.5076 0.
-18.5821 -51.4687 0.
-237.431 -656.926 0.
-9.54189 -26.2436 0.
-234.247 -648.708 0.
12.7616 35.3054 0.
-0.0210447 -31.47 0.
1.71226 4.74264 0.
-99.9327 -276.011 0.
-1.07406 -2.97479 0.
7.28281 19.9279 0.
-0.0282224 -32.3768 0.
-670.759 -1698.13 0.
3.49682 9.5733 0.
1.76505 4.88838 0.
4.26789 11.4248 0.
-4.97815 -11.5405 0.
-0.145968 -0.359151 0.
0.191572 0.502138 0.
-3.56934 -7.19887 0.
-0.119653 -0.498699 0.
-22.4887 -18.5597 0.
-14.1708 -9.46421 0.
-10.886 -7.57354 0.
-5.06481 -3.61799 0.
-4.3809 -4.19458 0.
-14.2046 -25.4455 0.
-17.8732 -29.3051 0.
-8.31333 -22.5074 0.
-12.7014 -29.7194 0.
-10.5043 -26.2753 0.
-8.45869 -22.863 0.
-44.5686 -47.7195 0.
-26.631 -39.0248 0.
-24.2998 -38.9396 0.
-27.808 -47.0026 0.
-22.4378 -52.3038 0.
-32.1048 -68.0856 0.
-0.00849665 -1.31086 0.
-21.8519 -60.313 0.
-9.49107e-06 -3.07204 0.
-0.420061 -1.11691 0.
4.13251 11.4425 0.
2.01782 5.40386 0.
-307.061 -776.382 0.
-426.412 -1124.46 0.
0.677773 1.75638 0.
-0.0583017 -29.4473 0.
-15.2834 -42.1323 0.
0.857323 2.37168 0.
-75.3741 -208.767 0.
-0.0101386 -40.5708 0.
-255.158 -706.742 0.
-2.44335 -6.76751 0.
-10.3487 -28.6621 0.
-85.8972 -236.658 0.
-2.49898 -6.89769 0.
-9.28372 -25.65 0.
0.474636 1.29802 0.
-144.944 -396.496 0.
22.9564 62.0202 0.
-104.378 -284.383 0.
14.5125 39.6574 0.
-12.6647 -34.3874 0.
-179.04 -495.13 0.
-9.83486 -27.0601 0.
-264.843 -732.657 0.
-15.3958 -42.3841 0.
-268.579 -743.304 0.
3.3556 9.17377 0.
-392.217 -1082.09 0.
11.2769 31.0333 0.
-3.01049 -8.3348 0.
-10.5248 -29.0143 0.
-0.506816 -91.2215 0.
-370.127 -1019.34 0.
-123.194 -332.489 0.
37.772 103.894 0.
-0.289345 -26.7782 0.
22.4833 61.446 0.
-135.349 -362.965 0.
-576.231 -1580.65 0.
20.2769 55.3311 0.
-18.2327 -50.0083 0.
-4.19644 -11.5773 0.
-10.5788 -28.4612 0.
17.3839 47.6168 0.
-1.85575 -5.03077 0.
-10.1707 -27.8708 0.
-0.592088 -73.2115 0.
-15.5502 -42.7453 0.
-149.977 -413.361 0.
14.0813 38.7512 0.
-68.102 -184.229 0.
4.20363 11.2464 0.
-375.181 -1025.8 0.
-12.7244 -34.1899 0.
5.46503 14.9864 0.
13.9292 38.1234 0.
16.6509 46.1105 0.
-3.6017 -9.97488 0.
-128.41 -355.668 0.
13.8819 38.3388 0.
-11.6269 -31.9676 0.
-74.5196 -204.799 0.
2.97939 8.23293 0.
-277.901 -769.59 0.
-6.80701 -18.8541 0.
-165.554 -457.575 0.
2.34022 6.48092 0.
-283.804 -778.543 0.
-0.162185 -0.448905 0.
7.50623 19.4867 0.
1.89443 5.22089 0.
-0.0251602 -11.9349 0.
3.85795 10.0133 0.
-0.186228 -0.459354 0.
-0.023038 -0.814864 0.
-0.000536736 -0.064571 0.
-427.651 -1180.58 0.
-0.0972416 -0.545466 0.
-487.099 -1038.38 0.
-37.7227 -44.6022 0.
-4.28625 -3.06747 0.
-517.046 -1371.75 0.
-18.1947 -32.3155 0.
-29.4062 -61.1252 0.
-258.193 -679.797 0.
-354.063 -953.673 0.
-47.848 -97.946 0.
-43.857 -89.2869 0.
-478.803 -1256.73 0.
-99.0604 -165.996 0.
-21.9218 -48.613 0.
-370.814 -707.949 0.
-27.0395 -57.3758 0.
-636.7 -1672.12 0.
-0.286566 -2.64252 0.
-180.954 -446.505 0.
-0.58157 -1.58847 0.
-0.000352531 -0.569409 0.
-0.0271387 -3.41855 0.
-0.000214309 -13.9722 0.
4.51156 12.2221 0.
6.21929 16.9343 0.
-73.3504 -199.974 0.
9.09989 25.2018 0.
-189.807 -523.77 0.
-1.74286 -4.79165 0.
9.51103 26.2926 0.
17.4168 48.1433 0.
-61.1841 -169.36 0.
6.75859 18.7191 0.
16.8746 46.7397 0.
12.9796 35.9504 0.
-55.0525 -152.483 0.
17.0568 47.03 0.
5.13029 14.1621 0.
12.1777 32.9546 0.
-324.022 -885.696 0.
9.9195 26.7681 0.
-0.817532 -60.8717 0.
-229.026 -625.792 0.
-14.5519 -40.0719 0.
-251.362 -695.139 0.
5.73944 15.7828 0.
25.5141 69.8992 0.
-0.647564 -1.7809 0.
-1.79959 -4.93939 0.
-231.208 -633.272 0.
-14.2256 -38.472 0.
-341.965 -942.697 0.
28.9659 79.3338 0.
-21.1745 -58.4159 0.
27.4528 75.2645 0.
-3.86145 -10.6644 0.
-41.7728 -115.649 0.
-0.690948 -92.9197 0.
20.3629 53.042 0.
-1.83175 -4.94264 0.
20.355 56.2235 0.
31.3115 86.727 0.
19.0001 51.9909 0.
-113.083 -310.358 0.
15.9882 43.4289 0.
-91.8338 -247.645 0.
-8.52268 -22.875 0.
12.5498 34.0606 0.
-6.1781 -16.9229 0.
21.4739 58.355 0.
-200.986 -553.193 0.
26.3367 72.5405 0.
13.4103 36.9035 0.
-0.386525 -61.773 0.
-5.44863 -14.595 0.
-82.5682 -225.517 0.
5.60422 15.0371 0.
-200.904 -550.044 0.
-3.08612 -8.38426 0.
11.7923 32.6508 0.
10.3079 28.5442 0.
-39.2752 -108.437 0.
4.27182 11.7928 0.
-39.1258 -107.54 0.
6.68655 18.3703 0.
-26.6879 -73.81 0.
-0.738851 -2.04364 0.
14.5313 40.2474 0.
1.39222 3.85399 0.
0.472601 1.30817 0.
7.34775 20.2349 0.
6.59365 18.2614 0.
-3.07976 -8.13417 0.
-0.012209 -13.4657 0.
5.05563 13.7726 0.
-348.39 -929.235 0.
6.57569 18.1978 0.
-472.656 -893.369 0.
0.00626492 0.138511 0.
-0.0347083 -1.18799 0.
0.112308 0.781036 0.
0.370011 0.0165931 0.
0.102178 0.00621865 0.
0.0026911 0.253418 0.
-16.2426 -29.4708 0.
-12.0729 -19.5862 0.
-26.9763 -55.4407 0.
-11.1704 -19.2276 0.
-10.8115 -18.7941 0.
-15.3531 -27.6824 0.
-7.23318 -19.33 0.
-11.3069 -30.353 0.
-12.2776 -31.5081 0.
-9.76083 -25.4161 0.
-14.0533 -36.0976 0.
-14.6389 -27.0256 0.
-27.3944 -32.2559 0.
-0.741837 -6.86984 0.
-0.000206501 -0.357405 0.
-279.458 -709.341 0.
2.4656 6.34172 0.
-522.149 -1241.61 0.
6.72298 17.9779 0.
-0.108111 -16.5349 0.
-0.041924 -2.83628 0.
-0.0283712 -24.9205 0.
-2.62812 -7.27933 0.
-56.4433 -155.886 0.
8.52421 23.6105 0.
-0.0420261 -37.3491 0.
16.4161 45.3536 0.
-142.801 -395.153 0.
-70.3681 -194.454 0.
-4.29403 -11.8936 0.
-11.7977 -32.6676 0.
-112.093 -310.462 0.
4.37878 11.9714 0.
-196.187 -541.06 0.
19.0207 51.3787 0.
-59.9597 -162.481 0.
-164.392 -443.133 0.
22.7283 61.7337 0.
-90.2598 -246.637 0.
8.49909 23.3839 0.
-1.52767 -4.18919 0.
-41.3104 -113.529 0.
14.9394 40.9019 0.
-80.9519 -222.342 0.
-10.367 -28.4197 0.
-428.84 -1176.76 0.
29.356 79.6197 0.
4.96855 13.434 0.
-8.16856 -22.4212 0.
6.31131 17.0303 0.
-406.203 -1116.92 0.
-0.0217746 -84.6925 0.
-0.446713 -80.4919 0.
8.08008 21.6505 0.
-165.12 -409.541 0.
-42.4058 -112.499 0.
18.9795 52.4912 0.
27.3126 73.8394 0.
-240.371 -659.53 0.
24.7419 66.1433 0.
-0.899288 -2.44899 0.
-149.123 -403.089 0.
-11.7071 -31.4763 0.
-415.805 -1129.71 0.
-0.317704 -0.860341 0.
-245.305 -666.764 0.
-3.85917 -10.5559 0.
24.9838 68.7385 0.
-108.568 -298.758 0.
-0.397689 -59.0885 0.
-115.488 -309.886 0.
-3.60413 -9.55117 0.
22.1375 59.3142 0.
-109.855 -296.501 0.
5.73585 15.5434 0.
-326.556 -903.949 0.
-10.1084 -27.9867 0.
-101.117 -279.06 0.
-79.8871 -220.445 0.
-124.827 -342.982 0.
4.32289 11.8597 0.
-125.454 -346.813 0.
14.019 38.7595 0.
13.8974 38.4884 0.
-68.1417 -188.301 0.
4.221 11.6704 0.
15.2519 41.8784 0.
-1.09801 -3.04126 0.
7.28377 20.0451 0.
-218.27 -588.447 0.
8.4867 23.1805 0.
0.977039 2.68516 0.
7.80233 21.3925 0.
-0.42804 -4.51825 0.
3.98092 10.8131 0.
0.791517 2.00911 0.
0.112832 0.881682 0.
-0.545396 -2.01878 0.
-1.53527 -0.633309 0.
0.092538 0.101938 0.
-18.4174 -32.4243 0.
-20.0877 -36.5219 0.
-29.6444 -59.6058 0.
-7.16223 -13.5977 0.
-5.89494 -13.0755 0.
-15.1077 -28.3433 0.
-8.47103 -22.0232 0.
-11.9669 -32.9727 0.
-8.26105 -22.8046 0.
-6.2761 -17.2952 0.
-11.7206 -31.8497 0.
-10.4328 -15.6521 0.
-11.7132 -13.5339 0.
4.50855 10.0006 0.
0.00863946 0.78149 0.
1.60814 4.4158 0.
1.46604 3.8926 0.
-0.52797 -11.1612 0.
-0.0376829 -8.4566 0.
-375.826 -994.437 0.
9.0443 25.0237 0.
6.53498 18.1007 0.
-8.44382e-05 -40.3952 0.
-8.33891 -23.0454 0.
15.3172 42.4228 0.
-27.2617 -75.5095 0.
-0.0604227 -46.7474 0.
-209.697 -580.046 0.
-35.8018 -98.932 0.
-131.389 -363.217 0.
-36.3773 -100.668 0.
16.7132 45.5812 0.
-9.897 -27.0468 0.
-1.06568 -2.87718 0.
19.7317 53.1977 0.
12.7591 34.0528 0.
-173.687 -467.629 0.
-34.6432 -94.0855 0.
4.10203 11.0206 0.
-91.1613 -250.566 0.
6.49587 17.7941 0.
-143.786 -394.873 0.
-84.7323 -231.826 0.
0.612499 1.64381 0.
2.69802 7.38623 0.
12.0635 32.6527 0.
22.1518 60.2504 0.
-13.9822 -37.8792 0.
-89.9347 -247.383 0.
0.748638 2.02734 0.
-30.34 -83.6128 0.
28.7139 78.0684 0.
-0.222635 -76.4951 0.
2.20301 6.06217 0.
22.0296 61.0057 0.
-68.2958 -185.773 0.
1.28675 3.56397 0.
2.49305 6.76852 0.
-432.657 -1190.5 0.
11.857 31.822 0.
-0.789703 -2.11087 0.
26.5854 69.8008 0.
-7.38378 -19.8876 0.
24.3606 65.4179 0.
-5.63577 -15.2665 0.
-176.105 -478.749 0.
4.47151 12.2121 0.
-116.84 -321.089 0.
-0.470645 -55.2726 0.
4.19092 11.4098 0.
-153.83 -413.493 0.
-18.7244 -49.7884 0.
9.97077 26.6759 0.
7.3459 19.5756 0.
15.1984 41.0742 0.
17.4914 47.2746 0.
-0.302519 -0.831901 0.
-13.7216 -37.7562 0.
-183.362 -505.763 0.
-57.3325 -157.474 0.
-1.13377 -3.10751 0.
-223.963 -618.84 0.
-6.51162 -17.9944 0.
-42.369 -117.181 0.
-41.3415 -114.233 0.
6.12296 16.9029 0.
7.3595 20.1452 0.
-0.00320812 -38.4884 0.
-5.05042 -13.9865 0.
-54.4164 -147.842 0.
8.60822 23.6501 0.
-3.17909 -8.80537 0.
-0.350017 -24.2232 0.
-0.54111 -10.7826 0.
0.00301829 1.76569 0.
-365.005 -866.305 0.
0.758625 2.10124 0.
-0.194163 -2.25267 0.
-486.732 -1175.31 0.
-0.0468938 -0.0723983 0.
-213.493 -484.165 0.
-38.0643 -65.669 0.
-100.231 -240.446 0.
-110.652 -291.491 0.
-312.969 -862.298 0.
-18.985 -40.7813 0.
-18.4412 -40.7806 0.
-359.905 -975.737 0.
-1.57925 -3.96022 0.
-11.5609 -30.6918 0.
-340.603 -772.64 0.
0.185601 0.404077 0.
-345.434 -577.733 0.
-0.267484 -9.25402 0.
-246.187 -679.886 0.
3.40609 9.43423 0.
-0.128022 -12.5022 0.
3.27217 8.39639 0.
-0.0130952 -21.2813 0.
-51.0345 -137.773 0.
12.8902 35.6679 0.
-276.264 -764.542 0.
14.8159 41.0353 0.
-35.9008 -99.2641 0.
4.5209 12.5189 0.
-262.409 -726.752 0.
10.7946 29.8661 0.
-45.9902 -127.026 0.
4.81131 13.2949 0.
-15.2977 -42.1048 0.
-64.298 -177.369 0.
3.66644 9.99461 0.
-32.8799 -89.8164 0.
3.01391 8.03276 0.
-113.55 -305.491 0.
-25.9136 -69.155 0.
14.9087 39.4238 0.
-77.082 -209.336 0.
4.73624 12.7242 0.
-220.459 -605.289 0.
12.3599 33.8182 0.
-0.542751 -63.1005 0.
-301.322 -823.702 0.
3.06608 8.21748 0.
-301.718 -824.325 0.
-18.2205 -49.4076 0.
23.3129 62.2665 0.
-285.804 -775.834 0.
-5.62709 -15.0463 0.
-605.852 -1646.88 0.
9.38658 25.2395 0.
-35.3663 -96.5972 0.
-259.893 -718.301 0.
-0.668007 -1.81515 0.
3.72159 10.2835 0.
-5.91551 -16.365 0.
-6.62483 -18.3323 0.
-239.22 -652.306 0.
-14.5764 -38.4561 0.
-457.731 -1232.67 0.
21.5278 55.2597 0.
14.9532 39.5588 0.
-14.8742 -40.1338 0.
-0.511732 -1.38151 0.
-16.9688 -45.9808 0.
-1.04138 -64.1111 0.
7.89438 21.5232 0.
-29.54 -81.058 0.
-12.7433 -34.5443 0.
-157.882 -429.256 0.
-7.47657 -19.6893 0.
-10.2658 -27.3894 0.
-143.301 -382.785 0.
-2.75463 -7.33921 0.
5.45237 14.6924 0.
5.27631 14.2174 0.
13.3077 36.5815 0.
-0.157697 -54.2188 0.
-223.695 -616.71 0.
-20.234 -55.8543 0.
11.4293 31.2956 0.
18.5325 50.5625 0.
15.9909 44.0361 0.
-10.3506 -28.5204 0.
-15.3558 -42.4268 0.
-158.943 -437.895 0.
-1.62287 -4.42765 0.
-304.343 -842.97 0.
12.0798 33.4525 0.
-9.92048 -27.11 0.
-3.81267 -10.515 0.
0.446572 1.23311 0.
9.42516 25.7199 0.
-225.848 -598.744 0.
6.86999 18.9852 0.
-0.094373 -3.51486 0.
0.000279984 0.420507 0.
-0.0264248 -0.466621 0.
0.128731 0.281928 0.
0.0209137 0.0475125 0.
-22.9583 -42.2037 0.
-11.9914 -11.7748 0.
-23.4812 -40.1409 0.
-13.9299 -17.8017 0.
-14.7683 -21.7657 0.
-22.1353 -46.476 0.
-11.4378 -22.9158 0.
-12.2493 -24.0432 0.
-3.85934 -9.57728 0.
-12.9211 -35.2754 0.
-43.3762 -89.0987 0.
0.938663 2.51835 0.
0.854624 2.01748 0.
4.21045 10.2542 0.
1.79121 4.82516 0.
-1.98466 -5.48875 0.
-315.507 -848.204 0.
-0.0232916 -19.2674 0.
5.58554 15.4697 0.
-16.8083 -45.9594 0.
6.71632 18.5863 0.
-2.03318 -5.6027 0.
-6.28641 -17.369 0.
-0.608292 -1.68347 0.
-5.4404 -15.0609 0.
16.1199 44.6065 0.
-13.3447 -36.9131 0.
-8.21853 -22.7054 0.
-5.11863 -14.1436 0.
-7.67849 -21.1309 0.
-57.2245 -157.836 0.
18.8679 51.41 0.
-64.429 -175.916 0.
-24.2931 -64.7016 0.
-52.168 -140.068 0.
-105.678 -282.003 0.
19.1981 50.7631 0.
-133.072 -361.395 0.
5.41232 14.5407 0.
0.769585 2.0824 0.
-233.984 -639.264 0.
-6.14706 -16.6862 0.
-10.4275 -28.4863 0.
-162.653 -435.219 0.
7.92663 21.1004 0.
-350.559 -952.305 0.
-0.932424 -65.1659 0.
-101.535 -276.16 0.
-4.96151 -13.3054 0.
23.4746 61.4364 0.
-245.037 -664.45 0.
22.9282 60.0358 0.
-272.047 -753.494 0.
13.202 36.2354 0.
23.1409 63.2489 0.
8.38525 23.2253 0.
-12.4542 -34.4494 0.
-5.75966 -15.1909 0.
20.1401 53.4183 0.
-1.46346 -49.3592 0.
9.97759 25.8548 0.
-251.858 -670.952 0.
-9.38926 -24.8764 0.
-286.231 -776.538 0.
-1.41968 -61.619 0.
-2.99249 -8.01932 0.
-148.823 -404.941 0.
1.88375 5.10524 0.
-0.559943 -58.0277 0.
-10.4172 -28.2866 0.
-6.72044 -17.7724 0.
-91.2306 -244.239 0.
11.2662 29.7356 0.
3.69007 9.8296 0.
-134.89 -362.342 0.
-12.3222 -32.4818 0.
-13.7977 -37.9134 0.
-3.82704 -10.5226 0.
-0.158438 -50.4809 0.
-8.30735 -22.9426 0.
0.52818 1.44478 0.
-12.4805 -34.0121 0.
16.3501 45.0034 0.
-2.65296 -7.30674 0.
-18.478 -51.048 0.
8.54198 23.5698 0.
16.5666 44.9379 0.
-5.82895 -15.7234 0.
-4.21881 -11.6828 0.
-64.281 -176.427 0.
-1.61911 -4.46691 0.
-147.382 -408.22 0.
6.31804 17.2566 0.
0.900025 2.45235 0.
-0.00677758 -10.4443 0.
11.5007 29.4862 0.
-0.0106238 -6.95223 0.
-0.10163 -2.36375 0.
-0.0272794 -0.191077 0.
-33.1324 -90.9873 0.
-103.979 -251.187 0.
-24.012 -43.5999 0.
-44.4785 -97.5655 0.
-32.2393 -73.0146 0.
-158.88 -424.731 0.
-13.1587 -20.3217 0.
-15.1512 -29.0603 0.
-148.17 -402.892 0.
-4.99885 -13.787 0.
-120.425 -294.178 0.
-26.0943 -71.1796 0.
3.01878e-05 1.41665 0.
0.287757 0.75166 0.
6.86109 15.9068 0.
-1.27855 -3.33508 0.
-0.681688 -1.88628 0.
-3.66779 -9.8996 0.
12.6748 34.7436 0.
-96.8265 -268.156 0.
11.0199 30.4612 0.
9.66905 26.7601 0.
4.02182 11.0434 0.
-1.8775 -5.17509 0.
7.47169 20.5262 0.
-24.3696 -67.4371 0.
-16.2662 -45.0015 0.
-45.4305 -125.634 0.
-8.12076 -22.4279 0.
6.25528 17.2838 0.
-7.38705 -20.3257 0.
-82.8594 -228.511 0.
14.8718 40.0755 0.
-235.722 -643.247 0.
-28.1744 -74.9895 0.
16.0103 42.1534 0.
-159.652 -426 0.
16.383 44.2861 0.
-11.4002 -30.5356 0.
7.82326 21.2519 0.
10.0933 27.3121 0.
8.85115 23.8324 0.
-54.8962 -149.049 0.
12.3764 33.4417 0.
-179.38 -479.23 0.
20.3856 54.1801 0.
-6.22896 -16.5241 0.
7.3675 19.7773 0.
-11.5896 -30.9782 0.
-168.782 -453.775 0.
-1.48937 -70.5645 0.
-8.40515 -21.4671 0.
-182.698 -484.01 0.
22.2284 60.5586 0.
-0.658813 -54.3074 0.
-101.794 -272.537 0.
26.6255 73.3691 0.
-7.30461 -18.8899 0.
-12.44 -32.9779 0.
2.33059 5.86714 0.
21.1117 55.1586 0.
10.2442 26.7682 0.
7.3858 19.1058 0.
-0.960987 -58.7583 0.
-89.2263 -243.05 0.
7.52407 19.8747 0.
-126.586 -340.78 0.
8.50886 22.8881 0.
-5.85842 -15.8711 0.
-114.191 -308.596 0.
2.94713 7.83237 0.
-1.05993 -58.8146 0.
-4.58946 -12.3278 0.
-5.99859 -15.8294 0.
-16.9603 -45.1701 0.
9.79525 25.6307 0.
4.54261 11.9757 0.
1.197 3.28782 0.
-8.29591 -22.5516 0.
9.94005 27.3454 0.
-58.9971 -163.011 0.
-3.6242 -9.90308 0.
-9.09243 -24.4769 0.
3.12394 8.59432 0.
16.1126 44.3562 0.
-7.49619 -20.7069 0.
-3.93671 -10.788 0.
0.301735 0.815606 0.
-2.13417 -5.73335 0.
11.933 33.0438 0.
1.49233 4.12501 0.
4.81303 13.3193 0.
11.4575 31.7353 0.
0.643387 1.75856 0.
6.50433 17.1238 0.
9.46116 25.9452 0.
5.79759 15.9863 0.
-149.523 -393.407 0.
0.000199535 0.068844 0.
-135.525 -341.352 0.
0.701368 1.85872 0.
-29.6243 -71.8522 0.
-5.76925 -8.51554 0.
-5.78816 -11.3226 0.
-20.9871 -53.4541 0.
-13.5503 -27.3508 0.
-13.0189 -19.8971 0.
-4.76677 -12.6234 0.
-9.96848 -26.9267 0.
-6.19781 -14.8293 0.
-0.310792 -0.448064 0.
-75.1402 -179.499 0.
0.00163871 0.490128 0.
-198.352 -480.577 0.
-0.299142 -11.4814 0.
-103.012 -280.818 0.
-0.00726951 -25.2827 0.
2.88573 7.81891 0.
-0.249535 -30.4467 0.
-38.8984 -107.67 0.
-6.55573 -18.1192 0.
-2.74864 -7.59816 0.
8.0464 22.0014 0.
9.61084 26.4111 0.
9.58857 26.3413 0.
-10.1145 -27.7829 0.
-32.489 -89.8614 0.
-156.868 -433.678 0.
12.5956 34.7741 0.
-4.82495 -13.2898 0.
-10.4104 -28.6397 0.
17.5938 47.5438 0.
7.63235 20.4999 0.
-60.7975 -163.312 0.
-43.6181 -116.018 0.
19.5901 51.7564 0.
19.6913 52.5412 0.
-13.3847 -36.1378 0.
20.4942 54.8183 0.
-145.389 -394.933 0.
-37.5956 -101.732 0.
-8.68052 -23.3812 0.
-7.16526 -19.4596 0.
-10.5584 -28.2083 0.
-7.66011 -19.9607 0.
14.9776 39.7306 0.
-10.5019 -27.9335 0.
8.61078 23.1609 0.
-110.898 -298.355 0.
8.25707 21.6453 0.
-426.119 -1130.76 0.
-3.79875 -9.78451 0.
-2.52669 -66.5996 0.
18.4063 47.3541 0.
6.68259 18.0443 0.
-10.7927 -29.2311 0.
15.2555 42.248 0.
-39.2292 -102.003 0.
9.54767 23.8889 0.
4.18413 10.6498 0.
-272.125 -717.026 0.
16.7414 42.1955 0.
16.487 42.9672 0.
-7.5865 -20.325 0.
15.3088 40.3746 0.
22.5971 60.0276 0.
3.83452 10.1907 0.
-2.56043 -6.88399 0.
-91.0252 -246.442 0.
-1.07001 -53.2356 0.
15.9732 42.5177 0.
-331.297 -897.74 0.
11.2339 29.3999 0.
-44.6532 -120.22 0.
-13.4847 -35.9111 0.
2.99796 7.87015 0.
17.7128 46.7051 0.
-60.2501 -159.976 0.
2.13406 5.78666 0.
10.9228 29.8396 0.
-59.5731 -164.681 0.
4.60528 12.2326 0.
-0.583595 -46.1523 0.
-55.1091 -151.533 0.
-5.6243 -15.4754 0.
15.0359 41.0166 0.
-6.90928 -18.9346 0.
-10.3918 -27.9858 0.
-4.04984 -10.8335 0.
13.4198 37.0614 0.
7.44511 20.5753 0.
2.76403 7.65588 0.
1.40817 3.89607 0.
9.22709 25.2356 0.
11.0364 30.0177 0.
-0.974697 -2.69896 0.
3.19969 8.69062 0.
3.27296 8.95465 0.
0.0320934 2.73155 0.
0.66316 1.81557 0.
-0.0365529 -1.4817 0.
-15.5747 -34.6462 0.
-4.67527 -7.10774 0.
-6.0684 -12.6264 0.
-21.6507 -49.209 0.
-15.7024 -31.1742 0.
-16.7025 -24.8732 0.
-5.52507 -15.1184 0.
-9.93095 -27.5068 0.
-8.97012 -16.2428 0.
-0.520189 -0.65747 0.
-0.229224 -0.283278 0.
-0.00385915 -9.1763 0.
-0.231964 -9.73815 0.
7.06227 17.9977 0.
-26.3298 -70.8372 0.
5.90121 16.2569 0.
-68.5481 -186.803 0.
11.5345 31.0409 0.
10.2786 28.3727 0.
13.4237 37.0967 0.
-21.8167 -60.3018 0.
8.55863 23.0146 0.
-117.116 -320.681 0.
-13.4441 -36.9316 0.
5.20001 14.2836 0.
14.0368 38.3854 0.
-141.078 -390.11 0.
-0.843144 -2.32697 0.
16.3025 44.5404 0.
1.19624 3.24763 0.
6.05662 16.3147 0.
4.15855 11.1311 0.
-9.45089 -24.6571 0.
-95.4139 -253.645 0.
1.86706 4.93256 0.
-3.10565 -8.04877 0.
-62.4624 -168.445 0.
-5.3388 -14.2603 0.
7.20662 19.234 0.
-104.677 -283.255 0.
0.351113 0.946105 0.
-1.38625 -56.908 0.
-150.082 -402.291 0.
11.984 31.3495 0.
-1.27305 -50.5457 0.
-60.3885 -160.991 0.
-1.42197 -61.137 0.
-97.1483 -262.851 0.
22.6135 59.7511 0.
-5.13494 -13.1666 0.
-3.7391 -9.69696 0.
17.203 44.6256 0.
-4.28067 -10.5676 0.
-14.2055 -38.4588 0.
0.239046 0.638844 0.
-123.454 -314.078 0.
-2.69617 -6.5143 0.
12.8227 31.6886 0.
1.74076 4.46997 0.
14.8146 37.6536 0.
6.89313 17.5099 0.
-164.269 -430.807 0.
13.3418 34.4856 0.
4.16286 11.0115 0.
2.17364 5.80503 0.
3.00303 8.03392 0.
-29.0737 -78.1221 0.
-1.00455 -23.5225 0.
-7.05343 -18.6341 0.
-0.769139 -47.7367 0.
-1.25489 -37.079 0.
-1.9009 -4.97709 0.
-109.477 -295.038 0.
6.58499 16.2126 0.
18.0995 47.5073 0.
6.05063 15.96 0.
4.06643 10.2522 0.
-2.02989 -5.4901 0.
-126.438 -344.776 0.
2.90461 7.84155 0.
4.87953 13.3698 0.
-0.888967 -2.38698 0.
-30.3631 -82.3952 0.
-4.29228 -11.4758 0.
-6.88892 -18.7938 0.
-1.1661 -3.19593 0.
-52.2595 -140.188 0.
11.0523 28.5234 0.
-1.98689 -5.48594 0.
-7.21814 -19.9442 0.
-41.978 -116.158 0.
11.1857 30.8478 0.
9.87932 26.8569 0.
-7.16819 -19.4859 0.
-41.9917 -115.704 0.
7.45392 19.8617 0.
-0.00621882 -16.211 0.
-0.367789 -18.9167 0.
0.823653 2.27942 0.
-0.0412063 -4.17222 0.
-32.3801 -67.7469 0.
-7.81184 -15.952 0.
-9.11284 -19.2529 0.
-40.4503 -76.1232 0.
-26.9697 -43.9028 0.
-11.7364 -27.2061 0.
-5.11974 -5.33593 0.
-37.2067 -77.543 0.
0.0207616 0.00592165 0.
-7.84969 -14.6394 0.
-58.869 -98.3512 0.
0.00443707 1.08428 0.
-0.00800155 -0.881793 0.
1.3486 3.36576 0.
-2.01642 -5.34754 0.
8.878 24.5481 0.
7.58666 20.814 0.
14.5678 37.9708 0.
9.15837 25.1762 0.
-10.963 -30.2925 0.
-40.2161 -108.745 0.
13.0032 34.9186 0.
2.21289 5.94686 0.
-75.3777 -207.055 0.
-7.30632 -20.043 0.
13.3428 36.4342 0.
-8.23428 -22.3665 0.
-27.3768 -75.5331 0.
9.15308 25.0135 0.
3.58955 9.74709 0.
17.5407 44.5495 0.
17.3238 46.206 0.
19.5841 51.1751 0.
-1.45852 -32.5826 0.
-98.611 -260.614 0.
16.3295 42.3261 0.
14.9164 38.1558 0.
5.08493 13.5651 0.
-5.30075 -14.1929 0.
0.0655781 0.167207 0.
-135.499 -365.429 0.
10.7682 28.1854 0.
13.8056 34.2404 0.
-0.347326 -0.912311 0.
-1.1236 -47.8436 0.
-98.745 -263.798 0.
24.1996 63.6601 0.
1.48468 3.91984 0.
-9.61377 -25.5784 0.
-1.45905 -52.2623 0.
-1.77895 -34.7402 0.
-62.2164 -164.258 0.
4.97517 12.5771 0.
8.00844 21.1325 0.
7.37709 19.7658 0.
-7.34055 -17.0546 0.
-3.77076 -56.8764 0.
-8.32488 -20.7458 0.
1.50862 3.64042 0.
-6.1327 -15.8396 0.
-9.9735 -25.5055 0.
6.98541 17.4273 0.
5.01989 13.0167 0.
8.04522 21.3449 0.
-1.17718 -40.2778 0.
-60.9937 -164.371 0.
-200.154 -551.779 0.
21.4402 53.8012 0.
9.86289 26.0793 0.
-0.657444 -43.8905 0.
-3.00238 -7.77637 0.
9.95202 26.1011 0.
-40.3755 -109.031 0.
3.74871 9.21374 0.
1.53703 4.04121 0.
19.7491 44.5465 0.
-1.51369 -36.3633 0.
-16.2867 -43.9381 0.
-65.627 -178.562 0.
10.9466 29.5105 0.
8.36318 22.9005 0.
9.02139 24.2023 0.
-1.65591 -40.8014 0.
-2.16187 -5.77767 0.
-8.11666 -21.9997 0.
-36.6509 -100.474 0.
4.29479 11.3923 0.
-9.80848 -25.1659 0.
-24.701 -68.1865 0.
-9.02341 -24.9277 0.
-82.2145 -226.891 0.
-0.601908 -33.4369 0.
-1.53761 -4.17772 0.
-6.05781 -16.4585 0.
-6.88021 -18.7818 0.
6.989 18.2367 0.
-10.561 -28.3844 0.
-0.259167 -15.0403 0.
-21.3366 -53.476 0.
2.68496 7.43327 0.
-5.33319 -10.9786 0.
-5.82467 -12.6269 0.
-6.51319 -14.6207 0.
-28.352 -37.487 0.
-22.3515 -29.8488 0.
-21.1002 -29.2345 0.
-8.63302 -5.63181 0.
0.0272407 0.0099539 0.
-3.0526 -1.19088 0.
-7.65725 -20.5839 0.
-0.531908 -4.7025 0.
-0.387147 -17.0171 0.
1.85351 4.26855 0.
-4.38543 -10.2196 0.
-4.00686 -10.4623 0.
10.5801 29.3013 0.
10.9517 27.9587 0.
-3.40808 -8.78072 0.
8.70004 23.1024 0.
-12.2293 -33.787 0.
-34.8059 -94.0207 0.
14.097 37.8096 0.
-22.1688 -59.1895 0.
12.0474 31.4392 0.
-17.1483 -46.9878 0.
5.01809 13.6832 0.
6.8464 18.5798 0.
15.0521 39.7634 0.
5.35272 14.6343 0.
5.78542 15.7167 0.
-1.37747 -33.1654 0.
-62.5248 -166.166 0.
-17.9235 -46.9831 0.
16.5263 41.4806 0.
-1.38851 -21.6766 0.
-4.67858 -12.1374 0.
-1.58326 -42.3834 0.
1.15856 2.78055 0.
-106.296 -285.935 0.
16.6408 42.6167 0.
-1.64595 -33.0339 0.
14.804 38.7827 0.
0.438231 1.09293 0.
-10.7252 -28.3069 0.
7.17286 18.8999 0.
17.4659 43.8487 0.
-3.88993 -10.259 0.
-67.0804 -178.863 0.
15.0536 38.124 0.
-94.4212 -248.128 0.
-3.56562 -8.93573 0.
5.99474 15.1058 0.
13.5405 34.9378 0.
-0.909335 -32.311 0.
18.612 47.7267 0.
