# vtk DataFile Version 2.0
test grain
ASCII
DATASET UNSTRUCTURED_GRID
POINTS 5000 float
0.497722 0.000613608 0.
0.500566 0.000797659 0.
0.503048 0.000864404 0.
0.505513 0.000929605 0.
0.507631 0.000946733 0.
0.509749 0.000964246 0.
0.51184 0.000977112 0.
0.513885 0.000981454 0.
0.515931 0.000985815 0.
0.517955 0.000989697 0.
0.519968 0.000993356 0.
0.521981 0.000997028 0.
0.523984 0.000997971 0.
0.525986 0.000998546 0.
0.527988 0.000999085 0.
0.52999 0.000999318 0.
0.531992 0.000999551 0.
0.533993 0.000999749 0.
0.535994 0.000999875 0.
0.537995 0.001 0.
0.539996 0.00100013 0.
0.541997 0.00100025 0.
0.543997 0.00100038 0.
0.545997 0.00100031 0.
0.547998 0.00100018 0.
0.549998 0.00100006 0.
0.551998 0.00100015 0.
0.553998 0.00100025 0.
0.555998 0.00100033 0.
0.557998 0.00100037 0.
0.559999 0.00100041 0.
0.561999 0.00100043 0.
0.563999 0.00100045 0.
0.565999 0.00100046 0.
0.567999 0.00100046 0.
0.569999 0.00100045 0.
0.571999 0.00100045 0.
0.573999 0.00100043 0.
0.575999 0.00100042 0.
0.577999 0.00100041 0.
0.579999 0.00100043 0.
0.581999 0.00100046 0.
0.583999 0.00100046 0.
0.585999 0.00100042 0.
0.587999 0.00100039 0.
0.589999 0.00100047 0.
0.591999 0.00100065 0.
0.593999 0.00100082 0.
0.595999 0.00100062 0.
0.598 0.00100031 0.
0.6 0.001 0.
0.602 0.00100033 0.
0.604001 0.00100065 0.
0.606001 0.00100086 0.
0.608001 0.00100069 0.
0.610001 0.00100051 0.
0.612001 0.00100043 0.
0.614001 0.00100046 0.
0.616001 0.00100049 0.
0.618001 0.00100047 0.
0.620001 0.00100042 0.
0.622001 0.00100038 0.
0.624001 0.00100039 0.
0.626001 0.00100041 0.
0.628001 0.00100044 0.
0.630001 0.00100045 0.
0.632001 0.00100046 0.
0.634001 0.00100046 0.
0.636001 0.00100046 0.
0.638001 0.00100045 0.
0.640001 0.0010004 0.
0.642002 0.00100032 0.
0.644002 0.00100024 0.
0.646002 0.00100017 0.
0.648002 0.0010001 0.
0.650002 0.00100004 0.
0.652003 0.00100013 0.
0.654003 0.00100021 0.
0.656004 0.00100025 0.
0.658004 0.00100013 0.
0.660005 0.001 0.
0.662006 0.000999841 0.
0.664007 0.00099963 0.
0.666008 0.000999419 0.
0.66801 0.000999283 0.
0.670012 0.000999184 0.
0.672014 0.000999085 0.
0.674017 0.000997688 0.
0.67602 0.00099614 0.
0.678026 0.000994224 0.
0.680048 0.000989578 0.
0.68207 0.000984953 0.
0.684106 0.000979926 0.
0.686169 0.000974098 0.
0.688231 0.000968304 0.
0.690399 0.000940441 0.
0.692622 0.000902578 0.
0.694868 0.000863452 0.
0.697661 0.000765538 0.
0.700459 0.000669731 0.
0.495596 0.00157874 0.
0.498978 0.00228859 0.
0.501873 0.00255686 0.
0.50471 0.00277096 0.
0.50709 0.00283084 0.
0.50939 0.00288618 0.
0.511628 0.00293086 0.
0.513723 0.00294398 0.
0.515819 0.00295716 0.
0.517878 0.00296882 0.
0.519914 0.00297986 0.
0.52195 0.00299095 0.
0.523959 0.0029939 0.
0.525965 0.00299563 0.
0.52797 0.00299725 0.
0.529975 0.00299795 0.
0.531979 0.00299865 0.
0.533983 0.00299924 0.
0.535986 0.00299962 0.
0.537988 0.003 0.
0.53999 0.00300038 0.
0.541991 0.00300076 0.
0.543992 0.00300114 0.
0.545993 0.00300093 0.
0.547994 0.00300055 0.
0.549994 0.00300018 0.
0.551995 0.00300046 0.
0.553995 0.00300074 0.
0.555995 0.00300099 0.
0.557995 0.0030011 0.
0.559996 0.00300122 0.
0.561997 0.0030013 0.
0.563997 0.00300135 0.
0.565997 0.00300139 0.
0.567998 0.00300139 0.
0.569998 0.00300136 0.
0.571998 0.00300134 0.
0.573998 0.0030013 0.
0.575998 0.00300126 0.
0.577997 0.00300123 0.
0.579998 0.0030013 0.
0.581998 0.00300137 0.
0.583998 0.00300138 0.
0.585998 0.00300127 0.
0.587998 0.00300116 0.
0.589998 0.00300141 0.
0.591998 0.00300194 0.
0.593998 0.00300247 0.
0.595998 0.00300187 0.
0.597999 0.00300094 0.
0.6 0.003 0.
0.602001 0.00300098 0.
0.604002 0.00300195 0.
0.606003 0.00300259 0.
0.608003 0.00300206 0.
0.610002 0.00300153 0.
0.612002 0.00300128 0.
0.614002 0.00300137 0.
0.616002 0.00300147 0.
0.618002 0.00300141 0.
0.620003 0.00300127 0.
0.622003 0.00300113 0.
0.624002 0.00300117 0.
0.626002 0.00300124 0.
0.628002 0.00300131 0.
0.630002 0.00300134 0.
0.632003 0.00300137 0.
0.634003 0.00300139 0.
0.636003 0.00300137 0.
0.638004 0.00300135 0.
0.640004 0.0030012 0.
0.642005 0.00300096 0.
0.644006 0.00300071 0.
0.646006 0.00300051 0.
0.648006 0.00300031 0.
0.650006 0.00300012 0.
0.652007 0.00300038 0.
0.654008 0.00300064 0.
0.656009 0.00300075 0.
0.65801 0.00300038 0.
0.660012 0.00300001 0.
0.662014 0.00299952 0.
0.664018 0.00299889 0.
0.666021 0.00299825 0.
0.668025 0.00299785 0.
0.670031 0.00299755 0.
0.672036 0.00299726 0.
0.674045 0.00299301 0.
0.676055 0.00298836 0.
0.678071 0.00298247 0.
0.68013 0.00296842 0.
0.682187 0.00295445 0.
0.684274 0.00293921 0.
0.686405 0.00292153 0.
0.688535 0.00290396 0.
0.690952 0.00280234 0.
0.693443 0.00268218 0.
0.696172 0.00252107 0.
0.699361 0.00221475 0.
0.702672 0.00170579 0.
0.493095 0.00218298 0.
0.496793 0.0033676 0.
0.50049 0.00419805 0.
0.503712 0.00456923 0.
0.506497 0.00470132 0.
0.508992 0.00479851 0.
0.51141 0.00488397 0.
0.513557 0.004906 0.
0.515704 0.00492812 0.
0.517799 0.00494759 0.
0.519858 0.0049661 0.
0.521918 0.00498467 0.
0.523934 0.00498981 0.
0.525943 0.00499269 0.
0.527952 0.00499541 0.
0.52996 0.00499657 0.
0.531967 0.00499774 0.
0.533973 0.00499874 0.
0.535977 0.00499937 0.
0.537981 0.005 0.
0.539984 0.00500063 0.
0.541985 0.00500126 0.
0.543987 0.00500189 0.
0.545988 0.00500155 0.
0.547989 0.00500092 0.
0.549991 0.0050003 0.
0.551991 0.00500076 0.
0.553991 0.00500123 0.
0.555991 0.00500164 0.
0.557992 0.00500184 0.
0.559993 0.00500203 0.
0.561994 0.00500217 0.
0.563995 0.00500224 0.
0.565996 0.00500231 0.
0.567996 0.00500231 0.
0.569996 0.00500227 0.
0.571997 0.00500224 0.
0.573996 0.00500217 0.
0.575996 0.00500209 0.
0.577996 0.00500204 0.
0.579996 0.00500216 0.
0.581996 0.00500228 0.
0.583996 0.00500229 0.
0.585996 0.00500211 0.
0.587996 0.00500194 0.
0.589996 0.00500235 0.
0.591996 0.00500323 0.
0.593996 0.00500412 0.
0.595997 0.00500311 0.
0.597999 0.00500156 0.
0.6 0.00500001 0.
0.602002 0.00500163 0.
0.604003 0.00500325 0.
0.606004 0.00500431 0.
0.608004 0.00500343 0.
0.610004 0.00500255 0.
0.612004 0.00500213 0.
0.614004 0.00500229 0.
0.616004 0.00500245 0.
0.618004 0.00500234 0.
0.620004 0.00500211 0.
0.622004 0.00500188 0.
0.624004 0.00500195 0.
0.626004 0.00500207 0.
0.628003 0.00500218 0.
0.630004 0.00500223 0.
0.632004 0.00500229 0.
0.634005 0.00500231 0.
0.636006 0.00500228 0.
0.638006 0.00500225 0.
0.640007 0.00500201 0.
0.642008 0.00500159 0.
0.644009 0.00500118 0.
0.64601 0.00500084 0.
0.64801 0.00500052 0.
0.650011 0.0050002 0.
0.652012 0.00500063 0.
0.654013 0.00500106 0.
0.656014 0.00500125 0.
0.658017 0.00500063 0.
0.660019 0.00500001 0.
0.662023 0.00499919 0.
0.664028 0.00499814 0.
0.666034 0.00499708 0.
0.668041 0.00499641 0.
0.67005 0.00499592 0.
0.672058 0.00499542 0.
0.674074 0.00498826 0.
0.67609 0.00498049 0.
0.678118 0.00497043 0.
0.680213 0.00494684 0.
0.682307 0.00492337 0.
0.684448 0.00489771 0.
0.68665 0.00486792 0.
0.688851 0.00483832 0.
0.691591 0.00463611 0.
0.694379 0.00442432 0.
0.697789 0.00406728 0.
0.701504 0.00347307 0.
0.705301 0.00232394 0.
0.490116 0.0023261 0.
0.49449 0.00401942 0.
0.498654 0.00529113 0.
0.502073 0.00582004 0.
0.505255 0.00614667 0.
0.507922 0.00634706 0.
0.510574 0.0065543 0.
0.512897 0.00665032 0.
0.515211 0.00673792 0.
0.517448 0.00680818 0.
0.519588 0.00685476 0.
0.521731 0.00690207 0.
0.5238 0.00693036 0.
0.525853 0.00695484 0.
0.527903 0.00697802 0.
0.529919 0.0069805 0.
0.531936 0.00698297 0.
0.53395 0.00698619 0.
0.535959 0.00699108 0.
0.537969 0.00699597 0.
0.539975 0.00699897 0.
0.541978 0.00700037 0.
0.543981 0.00700177 0.
0.545983 0.00700201 0.
0.547984 0.00700191 0.
0.549986 0.00700181 0.
0.551986 0.00700209 0.
0.553987 0.00700237 0.
0.555988 0.00700263 0.
0.557989 0.0070028 0.
0.55999 0.00700297 0.
0.561991 0.00700316 0.
0.563992 0.00700338 0.
0.565993 0.00700359 0.
0.567994 0.00700373 0.
0.569994 0.00700382 0.
0.571995 0.00700391 0.
0.573995 0.00700386 0.
0.575994 0.00700379 0.
0.577994 0.00700374 0.
0.579994 0.00700383 0.
0.581995 0.00700392 0.
0.583995 0.00700398 0.
0.585995 0.00700398 0.
0.587995 0.00700399 0.
0.589994 0.00700433 0.
0.591994 0.00700493 0.
0.593994 0.00700553 0.
0.595996 0.00700487 0.
0.597998 0.00700386 0.
0.6 0.00700284 0.
0.602003 0.007004 0.
0.604005 0.00700516 0.
0.606006 0.00700591 0.
0.608006 0.00700521 0.
0.610006 0.00700451 0.
0.612006 0.00700413 0.
0.614006 0.00700414 0.
0.616006 0.00700415 0.
0.618006 0.00700403 0.
0.620006 0.00700383 0.
0.622006 0.00700364 0.
0.624006 0.00700367 0.
0.626006 0.00700372 0.
0.628006 0.00700377 0.
0.630006 0.00700371 0.
0.632007 0.00700364 0.
0.634008 0.00700355 0.
0.636009 0.00700338 0.
0.63801 0.00700321 0.
0.640011 0.0070029 0.
0.642013 0.00700247 0.
0.644014 0.00700205 0.
0.646015 0.00700183 0.
0.648015 0.00700168 0.
0.650016 0.00700152 0.
0.652018 0.0070014 0.
0.654019 0.00700127 0.
0.656022 0.00700073 0.
0.658026 0.00699882 0.
0.660031 0.00699691 0.
0.662039 0.00699287 0.
0.664052 0.00698633 0.
0.666065 0.0069798 0.
0.668085 0.00697579 0.
0.670108 0.00697288 0.
0.672132 0.00696996 0.
0.674205 0.00693461 0.
0.676281 0.00689773 0.
0.678381 0.00685743 0.
0.680574 0.00679958 0.
0.682762 0.00674292 0.
0.685092 0.00664846 0.
0.687501 0.00653568 0.
0.690011 0.00637061 0.
0.69295 0.00600149 0.
0.696028 0.00563431 0.
0.699703 0.00514814 0.
0.70408 0.00413948 0.
0.708198 0.00253342 0.
0.487076 0.00231798 0.
0.491898 0.00427178 0.
0.496173 0.00577163 0.
0.500164 0.00685434 0.
0.503622 0.00744044 0.
0.506688 0.00781414 0.
0.509566 0.00815726 0.
0.512151 0.00836198 0.
0.514654 0.00852366 0.
0.517077 0.00866255 0.
0.519304 0.00873892 0.
0.521534 0.00881653 0.
0.523662 0.00886897 0.
0.525759 0.00891563 0.
0.527854 0.00896063 0.
0.529879 0.00896441 0.
0.531904 0.0089682 0.
0.533926 0.00897358 0.
0.535941 0.00898273 0.
0.537957 0.0089919 0.
0.539966 0.0089973 0.
0.54197 0.00899947 0.
0.543975 0.00900164 0.
0.545977 0.00900247 0.
0.547979 0.00900289 0.
0.549981 0.00900332 0.
0.551982 0.00900342 0.
0.553983 0.00900352 0.
0.555984 0.00900363 0.
0.557985 0.00900377 0.
0.559986 0.00900391 0.
0.561988 0.00900415 0.
0.563989 0.00900451 0.
0.56599 0.00900488 0.
0.567991 0.00900515 0.
0.569992 0.00900537 0.
0.571993 0.00900559 0.
0.573993 0.00900556 0.
0.575993 0.00900549 0.
0.577992 0.00900544 0.
0.579993 0.0090055 0.
0.581993 0.00900556 0.
0.583993 0.00900566 0.
0.585993 0.00900585 0.
0.587993 0.00900605 0.
0.589993 0.00900631 0.
0.591993 0.00900662 0.
0.593992 0.00900694 0.
0.595995 0.00900663 0.
0.597998 0.00900615 0.
0.6 0.00900567 0.
0.602003 0.00900637 0.
0.604006 0.00900707 0.
0.606008 0.0090075 0.
0.608008 0.00900699 0.
0.610008 0.00900648 0.
0.612007 0.00900614 0.
0.614007 0.00900599 0.
0.616007 0.00900585 0.
0.618008 0.00900571 0.
0.620008 0.00900556 0.
0.622008 0.00900541 0.
0.624008 0.00900539 0.
0.626008 0.00900538 0.
0.628008 0.00900536 0.
0.630009 0.00900518 0.
0.63201 0.009005 0.
0.634011 0.00900478 0.
0.636013 0.00900447 0.
0.638014 0.00900417 0.
0.640015 0.00900379 0.
0.642017 0.00900335 0.
0.644018 0.00900291 0.
0.646019 0.00900282 0.
0.64802 0.00900284 0.
0.650021 0.00900284 0.
0.652024 0.00900216 0.
0.654026 0.00900147 0.
0.656029 0.0090002 0.
0.658036 0.008997 0.
0.660043 0.0089938 0.
0.662056 0.00898649 0.
0.664076 0.00897444 0.
0.666096 0.00896242 0.
0.668129 0.00895511 0.
0.670168 0.00894974 0.
0.672206 0.00894439 0.
0.674342 0.00887853 0.
0.676479 0.00881146 0.
0.678661 0.00873908 0.
0.68096 0.00864443 0.
0.683251 0.00855173 0.
0.685847 0.00835923 0.
0.688496 0.00815058 0.
0.69143 0.00775531 0.
0.694572 0.00719676 0.
0.69814 0.00658893 0.
0.702205 0.00576517 0.
0.706694 0.00436618 0.
0.711446 0.00239211 0.
0.483741 0.00219589 0.
0.488911 0.00424836 0.
0.493602 0.00602501 0.
0.497828 0.00752248 0.
0.501834 0.00856848 0.
0.505418 0.00920734 0.
0.508516 0.00966915 0.
0.511382 0.01 0.
0.51405 0.0102312 0.
0.516663 0.0104595 0.
0.51897 0.0105693 0.
0.521285 0.010683 0.
0.52348 0.0107687 0.
0.525625 0.0108463 0.
0.52777 0.0109237 0.
0.529811 0.0109333 0.
0.531853 0.0109429 0.
0.533888 0.0109539 0.
0.535911 0.0109677 0.
0.537934 0.0109815 0.
0.539949 0.0109902 0.
0.541957 0.0109946 0.
0.543965 0.0109989 0.
0.545969 0.0110008 0.
0.547972 0.011002 0.
0.549975 0.0110031 0.
0.551977 0.0110033 0.
0.553978 0.0110034 0.
0.555979 0.0110036 0.
0.557981 0.0110038 0.
0.559982 0.0110041 0.
0.561984 0.0110044 0.
0.563985 0.0110048 0.
0.565987 0.0110053 0.
0.567988 0.0110057 0.
0.569989 0.011006 0.
0.571991 0.0110063 0.
0.573991 0.0110063 0.
0.575991 0.0110064 0.
0.577991 0.0110064 0.
0.579991 0.0110065 0.
0.581991 0.0110066 0.
0.583992 0.0110067 0.
0.585992 0.011007 0.
0.587992 0.0110073 0.
0.589992 0.0110074 0.
0.591992 0.0110075 0.
0.593992 0.0110075 0.
0.595994 0.0110075 0.
0.597997 0.0110074 0.
0.6 0.0110074 0.
0.602004 0.0110077 0.
0.604007 0.011008 0.
0.606009 0.0110082 0.
0.608009 0.0110079 0.
0.610009 0.0110077 0.
0.612009 0.0110074 0.
0.614009 0.0110071 0.
0.616009 0.0110069 0.
0.618009 0.0110067 0.
0.62001 0.0110065 0.
0.622011 0.0110064 0.
0.624011 0.0110063 0.
0.626011 0.0110062 0.
0.628011 0.011006 0.
0.630012 0.0110057 0.
0.632013 0.0110054 0.
0.634015 0.011005 0.
0.636016 0.0110047 0.
0.638018 0.0110043 0.
0.64002 0.0110039 0.
0.642021 0.0110033 0.
0.644023 0.0110028 0.
0.646025 0.0110026 0.
0.648026 0.0110025 0.
0.650028 0.0110023 0.
0.652032 0.0110006 0.
0.654036 0.0109989 0.
0.656042 0.010996 0.
0.658053 0.0109897 0.
0.660065 0.0109834 0.
0.662086 0.0109719 0.
0.664115 0.0109546 0.
0.666145 0.0109373 0.
0.668199 0.0109203 0.
0.670262 0.0109039 0.
0.672327 0.0108865 0.
0.674526 0.0107812 0.
0.676723 0.010677 0.
0.679 0.010562 0.
0.681402 0.0104239 0.
0.683819 0.0102848 0.
0.686657 0.00998955 0.
0.689582 0.00967125 0.
0.69292 0.00901322 0.
0.696397 0.00825466 0.
0.700335 0.00741183 0.
0.704941 0.00602981 0.
0.709704 0.00430868 0.
0.714823 0.00218201 0.
0.480295 0.00198897 0.
0.486076 0.00424436 0.
0.491051 0.00611195 0.
0.495649 0.00797576 0.
0.500397 0.00951451 0.
0.504186 0.0103036 0.
0.50748 0.010878 0.
0.510598 0.0113867 0.
0.513383 0.0117626 0.
0.516129 0.0121411 0.
0.518552 0.0123159 0.
0.52096 0.0124837 0.
0.523243 0.0126194 0.
0.525443 0.0127406 0.
0.527645 0.012863 0.
0.529713 0.0128854 0.
0.531779 0.0129062 0.
0.533836 0.0129268 0.
0.535868 0.0129457 0.
0.537901 0.0129647 0.
0.539924 0.0129778 0.
0.541938 0.0129856 0.
0.543952 0.0129935 0.
0.545959 0.012997 0.
0.547964 0.0129991 0.
0.549969 0.0130012 0.
0.551971 0.0130017 0.
0.553973 0.0130021 0.
0.555975 0.0130026 0.
0.557976 0.013003 0.
0.559978 0.0130034 0.
0.56198 0.0130039 0.
0.563982 0.0130044 0.
0.565983 0.0130049 0.
0.567985 0.0130053 0.
0.569986 0.0130056 0.
0.571988 0.0130059 0.
0.573988 0.0130062 0.
0.575988 0.0130065 0.
0.577989 0.0130068 0.
0.579989 0.0130069 0.
0.58199 0.013007 0.
0.583991 0.0130072 0.
0.585991 0.0130074 0.
0.587991 0.0130077 0.
0.589991 0.0130077 0.
0.591992 0.0130075 0.
0.593992 0.0130072 0.
0.595994 0.0130074 0.
0.597997 0.0130077 0.
0.6 0.013008 0.
0.602004 0.013008 0.
0.604007 0.013008 0.
0.606009 0.013008 0.
0.608009 0.0130081 0.
0.61001 0.0130081 0.
0.61201 0.013008 0.
0.61401 0.0130076 0.
0.616011 0.0130072 0.
0.618011 0.013007 0.
0.620012 0.0130068 0.
0.622013 0.0130066 0.
0.624013 0.0130063 0.
0.626014 0.013006 0.
0.628014 0.0130057 0.
0.630015 0.0130053 0.
0.632017 0.0130048 0.
0.634019 0.0130044 0.
0.63602 0.013004 0.
0.638022 0.0130037 0.
0.640024 0.0130031 0.
0.642026 0.0130024 0.
0.644028 0.0130016 0.
0.646031 0.0130011 0.
0.648033 0.0130006 0.
0.650036 0.013 0.
0.652042 0.0129967 0.
0.654048 0.0129935 0.
0.656058 0.0129882 0.
0.658078 0.0129769 0.
0.660099 0.0129656 0.
0.662129 0.012949 0.
0.664171 0.0129266 0.
0.666213 0.0129042 0.
0.668298 0.0128695 0.
0.670398 0.0128317 0.
0.672506 0.0127892 0.
0.674772 0.0126322 0.
0.677033 0.012478 0.
0.679439 0.0122913 0.
0.681975 0.0120765 0.
0.684591 0.0118097 0.
0.687539 0.0113168 0.
0.690669 0.0107917 0.
0.694152 0.010054 0.
0.697978 0.00918169 0.
0.70252 0.00793157 0.
0.707359 0.00617018 0.
0.712499 0.00427166 0.
0.718296 0.00199009 0.
0.477011 0.0018315 0.
0.483221 0.00424844 0.
0.48862 0.00613487 0.
0.49352 0.00823409 0.
0.498661 0.0100791 0.
0.502657 0.0111412 0.
0.506319 0.0119913 0.
0.509689 0.0126881 0.
0.512682 0.0132524 0.
0.515547 0.0137801 0.
0.518113 0.0140524 0.
0.520617 0.0142758 0.
0.522999 0.0144654 0.
0.525255 0.0146311 0.
0.527515 0.0147995 0.
0.529614 0.0148368 0.
0.531704 0.0148689 0.
0.533783 0.0148997 0.
0.535825 0.0149237 0.
0.537868 0.0149477 0.
0.539899 0.0149652 0.
0.541919 0.0149766 0.
0.543939 0.014988 0.
0.545949 0.0149932 0.
0.547956 0.0149962 0.
0.549962 0.0149993 0.
0.551965 0.0150001 0.
0.553967 0.0150008 0.
0.55597 0.0150016 0.
0.557972 0.0150022 0.
0.559974 0.0150028 0.
0.561976 0.0150034 0.
0.563978 0.0150039 0.
0.56598 0.0150044 0.
0.567982 0.0150049 0.
0.569983 0.0150052 0.
0.571985 0.0150056 0.
0.573986 0.0150061 0.
0.575986 0.0150066 0.
0.577987 0.0150071 0.
0.579988 0.0150072 0.
0.581989 0.0150074 0.
0.583989 0.0150076 0.
0.58599 0.0150079 0.
0.58799 0.0150082 0.
0.589991 0.015008 0.
0.591991 0.0150075 0.
0.593992 0.015007 0.
0.595994 0.0150073 0.
0.597997 0.015008 0.
0.6 0.0150086 0.
0.602004 0.0150083 0.
0.604007 0.015008 0.
0.606009 0.0150078 0.
0.60801 0.0150082 0.
0.61001 0.0150085 0.
0.612011 0.0150085 0.
0.614012 0.015008 0.
0.616012 0.0150075 0.
0.618013 0.0150072 0.
0.620014 0.015007 0.
0.622015 0.0150068 0.
0.624016 0.0150064 0.
0.626016 0.0150059 0.
0.628017 0.0150055 0.
0.630019 0.0150048 0.
0.632021 0.0150042 0.
0.634022 0.0150037 0.
0.636024 0.0150034 0.
0.638026 0.015003 0.
0.640028 0.0150024 0.
0.642031 0.0150014 0.
0.644033 0.0150005 0.
0.646036 0.0149996 0.
0.64804 0.0149987 0.
0.650043 0.0149977 0.
0.652052 0.0149929 0.
0.654061 0.0149881 0.
0.656075 0.0149804 0.
0.658103 0.014964 0.
0.660132 0.0149477 0.
0.662173 0.014926 0.
0.664227 0.0148984 0.
0.666281 0.0148709 0.
0.6684 0.0148171 0.
0.670536 0.0147577 0.
0.672692 0.0146877 0.
0.675027 0.0144779 0.
0.677354 0.0142725 0.
0.679915 0.0140025 0.
0.682589 0.0137083 0.
0.685417 0.0132604 0.
0.688461 0.0125745 0.
0.691856 0.0118066 0.
0.695526 0.0109129 0.
0.699497 0.00995086 0.
0.704649 0.00824893 0.
0.709782 0.00617125 0.
0.715529 0.00411919 0.
0.721868 0.00190025 0.
0.473612 0.00173097 0.
0.480173 0.00406196 0.
0.486032 0.0061264 0.
0.491179 0.00829849 0.
0.49655 0.0103184 0.
0.501038 0.0118468 0.
0.505077 0.0130129 0.
0.508673 0.0138914 0.
0.511929 0.0146439 0.
0.514825 0.0152447 0.
0.517517 0.0156385 0.
0.520088 0.0159227 0.
0.522579 0.0161859 0.
0.524888 0.0163925 0.
0.527207 0.0166046 0.
0.529377 0.016691 0.
0.531528 0.0167658 0.
0.533663 0.0168343 0.
0.535725 0.0168656 0.
0.537788 0.0168971 0.
0.539837 0.0169233 0.
0.541872 0.0169446 0.
0.543907 0.0169661 0.
0.545925 0.0169772 0.
0.547938 0.0169848 0.
0.54995 0.0169923 0.
0.551955 0.0169947 0.
0.553959 0.016997 0.
0.555963 0.0169991 0.
0.557966 0.0170003 0.
0.559969 0.0170015 0.
0.561972 0.0170025 0.
0.563974 0.0170033 0.
0.565977 0.017004 0.
0.567979 0.0170045 0.
0.569981 0.0170049 0.
0.571983 0.0170054 0.
0.573984 0.017006 0.
0.575984 0.0170067 0.
0.577985 0.0170073 0.
0.579986 0.0170075 0.
0.581987 0.0170078 0.
0.583988 0.017008 0.
0.585989 0.0170083 0.
0.58799 0.0170087 0.
0.589991 0.0170085 0.
0.591992 0.0170078 0.
0.593992 0.0170072 0.
0.595995 0.0170078 0.
0.597998 0.0170088 0.
0.6 0.0170098 0.
0.602003 0.0170092 0.
0.604006 0.0170085 0.
0.606009 0.0170081 0.
0.60801 0.0170084 0.
0.61001 0.0170088 0.
0.612011 0.0170088 0.
0.614012 0.0170083 0.
0.616014 0.0170079 0.
0.618015 0.0170075 0.
0.620016 0.0170072 0.
0.622017 0.0170069 0.
0.624018 0.0170064 0.
0.626019 0.0170058 0.
0.62802 0.0170051 0.
0.630022 0.0170044 0.
0.632024 0.0170036 0.
0.634026 0.0170029 0.
0.636028 0.0170022 0.
0.638031 0.0170015 0.
0.640034 0.0170002 0.
0.642038 0.0169985 0.
0.644042 0.0169968 0.
0.646047 0.0169938 0.
0.648053 0.0169904 0.
0.65006 0.0169869 0.
0.652077 0.0169764 0.
0.654094 0.0169659 0.
0.656119 0.0169509 0.
0.658165 0.0169234 0.
0.66021 0.016896 0.
0.662275 0.0168635 0.
0.664356 0.0168256 0.
0.666437 0.016788 0.
0.668631 0.0166808 0.
0.670841 0.0165652 0.
0.673083 0.0164319 0.
0.675469 0.0161772 0.
0.677842 0.0159323 0.
0.680542 0.0155683 0.
0.683298 0.015207 0.
0.686296 0.014566 0.
0.689435 0.0137351 0.
0.69309 0.0127555 0.
0.697095 0.0116273 0.
0.701381 0.0103941 0.
0.706702 0.0084179 0.
0.71216 0.00615136 0.
0.71843 0.0040441 0.
0.725302 0.00177266 0.
0.47003 0.00159492 0.
0.476937 0.00387292 0.
0.483445 0.0060667 0.
0.488886 0.0082477 0.
0.494451 0.0104743 0.
0.499294 0.0123947 0.
0.503602 0.013828 0.
0.507466 0.0149057 0.
0.510892 0.0157854 0.
0.513873 0.0165034 0.
0.516788 0.0171181 0.
0.519456 0.0174976 0.
0.522098 0.0178719 0.
0.52448 0.0181297 0.
0.526872 0.0183937 0.
0.529124 0.018534 0.
0.53134 0.0186551 0.
0.533538 0.018767 0.
0.535621 0.0188062 0.
0.537706 0.0188456 0.
0.539774 0.0188807 0.
0.541824 0.0189122 0.
0.543875 0.0189439 0.
0.545901 0.0189612 0.
0.54792 0.0189732 0.
0.549938 0.0189853 0.
0.551944 0.0189893 0.
0.553951 0.0189932 0.
0.555957 0.0189966 0.
0.557961 0.0189984 0.
0.559965 0.0190003 0.
0.561968 0.0190017 0.
0.563971 0.0190026 0.
0.565974 0.0190035 0.
0.567976 0.0190042 0.
0.569978 0.0190047 0.
0.57198 0.0190052 0.
0.573982 0.019006 0.
0.575982 0.0190068 0.
0.577983 0.0190076 0.
0.579985 0.0190079 0.
0.581986 0.0190081 0.
0.583988 0.0190084 0.
0.585989 0.0190088 0.
0.58799 0.0190092 0.
0.589991 0.0190089 0.
0.591992 0.0190082 0.
0.593993 0.0190074 0.
0.595995 0.0190083 0.
0.597998 0.0190096 0.
0.6 0.0190109 0.
0.602003 0.01901 0.
0.604006 0.0190091 0.
0.606008 0.0190084 0.
0.608009 0.0190087 0.
0.610011 0.019009 0.
0.612012 0.019009 0.
0.614013 0.0190086 0.
0.616015 0.0190082 0.
0.618016 0.0190078 0.
0.620018 0.0190074 0.
0.622019 0.0190071 0.
0.62402 0.0190063 0.
0.626021 0.0190056 0.
0.628022 0.0190048 0.
0.630024 0.0190039 0.
0.632027 0.0190031 0.
0.634029 0.0190021 0.
0.636032 0.019001 0.
0.638035 0.0189999 0.
0.64004 0.0189981 0.
0.642045 0.0189956 0.
0.64405 0.0189932 0.
0.646058 0.018988 0.
0.648067 0.0189822 0.
0.650077 0.018976 0.
0.652102 0.0189597 0.
0.654128 0.0189435 0.
0.656164 0.0189211 0.
0.658227 0.0188821 0.
0.660289 0.0188433 0.
0.662379 0.0187995 0.
0.664491 0.0187505 0.
0.666601 0.0187018 0.
0.668882 0.0185311 0.
0.671175 0.018353 0.
0.673517 0.0181472 0.
0.675976 0.0178321 0.
0.678464 0.017511 0.
0.681299 0.0170185 0.
0.684203 0.0164953 0.
0.687344 0.015637 0.
0.690587 0.0147271 0.
0.69438 0.0136303 0.
0.698805 0.0122043 0.
0.703493 0.0105921 0.
0.709022 0.00842418 0.
0.71477 0.00602631 0.
0.721687 0.00402558 0.
0.728811 0.00163201 0.
0.46586 0.00135706 0.
0.47328 0.0038171 0.
0.480684 0.00585386 0.
0.486468 0.00820775 0.
0.492247 0.0104747 0.
0.497277 0.012644 0.
0.501969 0.0144275 0.
0.506064 0.0157175 0.
0.509643 0.016794 0.
0.512865 0.0176948 0.
0.516 0.0185294 0.
0.518808 0.0190416 0.
0.521582 0.0195308 0.
0.524075 0.019841 0.
0.526532 0.0201432 0.
0.52886 0.0203408 0.
0.531133 0.0205146 0.
0.533392 0.0206822 0.
0.5355 0.0207303 0.
0.53761 0.0207789 0.
0.5397 0.0208246 0.
0.541765 0.0208683 0.
0.543831 0.0209123 0.
0.545868 0.0209376 0.
0.547894 0.0209557 0.
0.54992 0.0209738 0.
0.55193 0.0209803 0.
0.553939 0.0209866 0.
0.555948 0.0209921 0.
0.557954 0.0209949 0.
0.559959 0.0209977 0.
0.561964 0.0209998 0.
0.563967 0.021001 0.
0.56597 0.0210022 0.
0.567973 0.0210031 0.
0.569976 0.0210037 0.
0.571978 0.0210044 0.
0.573979 0.0210053 0.
0.575981 0.0210063 0.
0.577982 0.0210072 0.
0.579983 0.0210075 0.
0.581985 0.0210078 0.
0.583987 0.0210082 0.
0.585988 0.0210086 0.
0.58799 0.0210089 0.
0.589991 0.0210087 0.
0.591993 0.021008 0.
0.593994 0.0210073 0.
0.595996 0.0210082 0.
0.597998 0.0210096 0.
0.6 0.021011 0.
0.602003 0.02101 0.
0.604006 0.021009 0.
0.606008 0.0210083 0.
0.608009 0.0210085 0.
0.610011 0.0210087 0.
0.612012 0.0210086 0.
0.614014 0.0210082 0.
0.616016 0.0210078 0.
0.618018 0.0210074 0.
0.620019 0.021007 0.
0.622021 0.0210066 0.
0.624022 0.0210057 0.
0.626023 0.0210048 0.
0.628025 0.0210039 0.
0.630027 0.0210028 0.
0.63203 0.0210017 0.
0.634033 0.0210005 0.
0.636037 0.0209988 0.
0.638041 0.0209972 0.
0.640047 0.0209944 0.
0.642054 0.0209907 0.
0.644061 0.020987 0.
0.646073 0.0209789 0.
0.648086 0.0209697 0.
0.650099 0.0209599 0.
0.652136 0.0209355 0.
0.654172 0.0209111 0.
0.656221 0.0208791 0.
0.658303 0.0208278 0.
0.660383 0.0207767 0.
0.662503 0.0207157 0.
0.664648 0.0206485 0.
0.666794 0.0205815 0.
0.669152 0.0203436 0.
0.671515 0.0201063 0.
0.673948 0.0198305 0.
0.676481 0.0194641 0.
0.679118 0.0190526 0.
0.682072 0.0184331 0.
0.685191 0.01767 0.
0.688471 0.0166203 0.
0.691976 0.0155233 0.
0.695923 0.0142978 0.
0.700588 0.0126648 0.
0.705578 0.010689 0.
0.711326 0.00834687 0.
0.717348 0.00587998 0.
0.725245 0.00386914 0.
0.733297 0.00139474 0.
0.460212 0.00103163 0.
0.469545 0.00368925 0.
0.477919 0.00561772 0.
0.484041 0.00814412 0.
0.490094 0.010441 0.
0.495329 0.0128138 0.
0.50039 0.0149138 0.
0.504655 0.0164267 0.
0.508418 0.0177066 0.
0.511915 0.0188196 0.
0.515214 0.0198076 0.
0.518173 0.0204437 0.
0.521033 0.0209977 0.
0.523639 0.0214022 0.
0.526159 0.0217842 0.
0.528567 0.0220739 0.
0.530891 0.0223223 0.
0.533211 0.0225691 0.
0.535354 0.0226316 0.
0.537495 0.0226928 0.
0.539613 0.0227522 0.
0.541693 0.022811 0.
0.543774 0.0228704 0.
0.545823 0.022906 0.
0.54786 0.0229317 0.
0.549898 0.0229575 0.
0.551912 0.0229676 0.
0.553925 0.0229771 0.
0.555937 0.0229855 0.
0.557945 0.0229896 0.
0.559953 0.0229937 0.
0.561959 0.0229967 0.
0.563963 0.0229984 0.
0.565967 0.023 0.
0.56797 0.0230012 0.
0.569973 0.0230022 0.
0.571976 0.0230031 0.
0.573977 0.0230041 0.
0.575979 0.0230051 0.
0.57798 0.023006 0.
0.579982 0.0230065 0.
0.581984 0.0230069 0.
0.583986 0.0230073 0.
0.585988 0.0230077 0.
0.58799 0.023008 0.
0.589991 0.0230079 0.
0.591993 0.0230074 0.
0.593994 0.0230069 0.
0.595996 0.0230077 0.
0.597998 0.0230088 0.
0.6 0.02301 0.
0.602003 0.0230092 0.
0.604006 0.0230084 0.
0.606008 0.0230077 0.
0.60801 0.0230077 0.
0.610011 0.0230077 0.
0.612013 0.0230076 0.
0.614015 0.0230072 0.
0.616017 0.0230068 0.
0.618019 0.0230064 0.
0.620021 0.0230059 0.
0.622023 0.0230054 0.
0.624024 0.0230045 0.
0.626025 0.0230035 0.
0.628027 0.0230024 0.
0.63003 0.023001 0.
0.632034 0.0229996 0.
0.634037 0.0229979 0.
0.636042 0.0229955 0.
0.638047 0.0229932 0.
0.640055 0.0229891 0.
0.642065 0.0229837 0.
0.644075 0.0229782 0.
0.646091 0.0229663 0.
0.64811 0.0229529 0.
0.650129 0.0229384 0.
0.652179 0.0229029 0.
0.654229 0.0228677 0.
0.656294 0.0228235 0.
0.658396 0.022758 0.
0.660496 0.022693 0.
0.662655 0.0226028 0.
0.664845 0.0225017 0.
0.667048 0.0223928 0.
0.669456 0.0220724 0.
0.671864 0.0217577 0.
0.674407 0.0213864 0.
0.677022 0.0209541 0.
0.679795 0.0204262 0.
0.682781 0.0197665 0.
0.686126 0.0187639 0.
0.689561 0.0175488 0.
0.693326 0.0162558 0.
0.697614 0.0147493 0.
0.702479 0.0129675 0.
0.70768 0.0106738 0.
0.713725 0.00821901 0.
0.720096 0.00576879 0.
0.728862 0.00369974 0.
0.739044 0.00106377 0.
0.452014 0.000872823 0.
0.465912 0.00353585 0.
0.475067 0.00551548 0.
0.481759 0.00803327 0.
0.488092 0.010428 0.
0.493439 0.0129034 0.
0.498609 0.0151839 0.
0.503102 0.0169192 0.
0.507194 0.0185336 0.
0.510927 0.0198061 0.
0.514247 0.0208546 0.
0.517424 0.0217269 0.
0.520414 0.0224046 0.
0.523182 0.0229438 0.
0.525771 0.023409 0.
0.528266 0.0237972 0.
0.530642 0.0241211 0.
0.533022 0.0244489 0.
0.535204 0.0245319 0.
0.537378 0.0246058 0.
0.539524 0.0246791 0.
0.54162 0.0247532 0.
0.543716 0.0248279 0.
0.545779 0.0248742 0.
0.547827 0.0249076 0.
0.549875 0.0249411 0.
0.551893 0.0249548 0.
0.553911 0.0249676 0.
0.555927 0.0249789 0.
0.557936 0.0249843 0.
0.559946 0.0249897 0.
0.561953 0.0249937 0.
0.563958 0.0249958 0.
0.565963 0.0249979 0.
0.567967 0.0249994 0.
0.56997 0.0250006 0.
0.571974 0.0250018 0.
0.573975 0.0250028 0.
0.575977 0.0250039 0.
0.577978 0.0250049 0.
0.579981 0.0250054 0.
0.581983 0.025006 0.
0.583985 0.0250065 0.
0.585987 0.0250068 0.
0.587989 0.0250071 0.
0.589991 0.025007 0.
0.591993 0.0250067 0.
0.593994 0.0250064 0.
0.595996 0.0250071 0.
0.597998 0.0250081 0.
0.6 0.025009 0.
0.602003 0.0250084 0.
0.604006 0.0250077 0.
0.606008 0.0250072 0.
0.60801 0.025007 0.
0.610012 0.0250068 0.
0.612014 0.0250065 0.
0.614016 0.0250062 0.
0.616018 0.0250058 0.
0.61802 0.0250053 0.
0.620023 0.0250048 0.
0.622025 0.0250043 0.
0.624026 0.0250032 0.
0.626028 0.0250021 0.
0.628029 0.0250009 0.
0.630033 0.0249992 0.
0.632037 0.0249975 0.
0.634042 0.0249953 0.
0.636048 0.0249923 0.
0.638053 0.0249892 0.
0.640063 0.0249838 0.
0.642076 0.0249766 0.
0.644089 0.0249694 0.
0.64611 0.0249537 0.
0.648133 0.024936 0.
0.650159 0.0249166 0.
0.652223 0.0248701 0.
0.654286 0.0248239 0.
0.656368 0.0247674 0.
0.65849 0.0246877 0.
0.66061 0.0246086 0.
0.662812 0.0244864 0.
0.665048 0.0243506 0.
0.667311 0.0241939 0.
0.669769 0.0237904 0.
0.67222 0.0233975 0.
0.674899 0.0229213 0.
0.677621 0.0224079 0.
0.680598 0.0216645 0.
0.683674 0.0208562 0.
0.687109 0.0197127 0.
0.690735 0.0183785 0.
0.694674 0.0169194 0.
0.69935 0.0150742 0.
0.704378 0.0131213 0.
0.709803 0.0106079 0.
0.716078 0.00804195 0.
0.722888 0.00570054 0.
0.732596 0.00364248 0.
0.747434 0.000877147 0.
0.443597 0.00101013 0.
0.46246 0.0032636 0.
0.472241 0.00548572 0.
0.479568 0.00786111 0.
0.485976 0.0104372 0.
0.491532 0.0129071 0.
0.496793 0.0153318 0.
0.501514 0.0172946 0.
0.505973 0.019268 0.
0.509726 0.0206264 0.
0.513225 0.0218267 0.
0.516634 0.0229716 0.
0.519742 0.0237622 0.
0.522694 0.0244473 0.
0.525328 0.0249794 0.
0.527886 0.0254517 0.
0.530291 0.0258228 0.
0.532713 0.0262003 0.
0.534959 0.0263382 0.
0.53718 0.0264534 0.
0.539372 0.0265628 0.
0.54149 0.026652 0.
0.54361 0.0267419 0.
0.545695 0.0268046 0.
0.547762 0.0268537 0.
0.549829 0.0269034 0.
0.551857 0.026925 0.
0.553882 0.0269448 0.
0.555905 0.0269625 0.
0.557919 0.0269707 0.
0.559933 0.026979 0.
0.561944 0.0269855 0.
0.563951 0.0269894 0.
0.565958 0.0269934 0.
0.567963 0.026996 0.
0.569967 0.026998 0.
0.571971 0.027 0.
0.573973 0.0270013 0.
0.575975 0.0270025 0.
0.577977 0.0270037 0.
0.579979 0.0270042 0.
0.581982 0.0270048 0.
0.583984 0.0270053 0.
0.585986 0.0270058 0.
0.587989 0.0270062 0.
0.589991 0.0270063 0.
0.591993 0.0270062 0.
0.593995 0.0270061 0.
0.595997 0.0270067 0.
0.597999 0.0270075 0.
0.6 0.0270084 0.
0.602003 0.0270077 0.
0.604006 0.0270071 0.
0.606008 0.0270065 0.
0.60801 0.0270063 0.
0.610012 0.027006 0.
0.612014 0.0270057 0.
0.614017 0.0270052 0.
0.616019 0.0270047 0.
0.618022 0.0270042 0.
0.620024 0.0270036 0.
0.622027 0.0270031 0.
0.624028 0.0270017 0.
0.62603 0.0270002 0.
0.628032 0.0269985 0.
0.630037 0.0269958 0.
0.632042 0.026993 0.
0.634048 0.0269893 0.
0.636057 0.0269837 0.
0.638066 0.0269781 0.
0.640081 0.0269696 0.
0.642099 0.0269588 0.
0.644117 0.0269481 0.
0.646149 0.0269242 0.
0.648183 0.0268975 0.
0.650221 0.026868 0.
0.652306 0.0268018 0.
0.654391 0.0267365 0.
0.656502 0.0266605 0.
0.658657 0.0265627 0.
0.660809 0.0264663 0.
0.663062 0.0262941 0.
0.665344 0.0261082 0.
0.667676 0.0258805 0.
0.670165 0.0254229 0.
0.672643 0.0249808 0.
0.675442 0.0244199 0.
0.678288 0.0238052 0.
0.681447 0.0228332 0.
0.68471 0.0218132 0.
0.688218 0.0205097 0.
0.691954 0.0190958 0.
0.696219 0.0173588 0.
0.701078 0.0153439 0.
0.706196 0.0132179 0.
0.711819 0.0105417 0.
0.718356 0.00790053 0.
0.725712 0.00555722 0.
0.735949 0.00345554 0.
0.757508 0.00113629 0.
0.436752 0.00144527 0.
0.459234 0.00304921 0.
0.4694 0.00544559 0.
0.477358 0.00770714 0.
0.483883 0.0104208 0.
0.489659 0.0128822 0.
0.495 0.0154416 0.
0.499959 0.0176083 0.
0.504632 0.0198361 0.
0.508413 0.0213216 0.
0.512168 0.0227188 0.
0.515745 0.0240769 0.
0.518963 0.0250028 0.
0.522014 0.0258056 0.
0.524695 0.0264161 0.
0.527392 0.0270342 0.
0.529871 0.0274713 0.
0.532356 0.0279074 0.
0.534684 0.0281167 0.
0.536961 0.028284 0.
0.539207 0.0284406 0.
0.541352 0.028546 0.
0.543499 0.0286523 0.
0.545608 0.0287325 0.
0.547695 0.0287983 0.
0.549782 0.0288648 0.
0.55182 0.0288947 0.
0.553852 0.0289217 0.
0.555883 0.0289459 0.
0.557901 0.0289571 0.
0.55992 0.0289683 0.
0.561935 0.0289772 0.
0.563944 0.028983 0.
0.565953 0.0289888 0.
0.567959 0.0289927 0.
0.569964 0.0289955 0.
0.571969 0.0289983 0.
0.573971 0.0289998 0.
0.575973 0.0290012 0.
0.577975 0.0290025 0.
0.579978 0.0290031 0.
0.581981 0.0290036 0.
0.583983 0.0290041 0.
0.585986 0.0290047 0.
0.587989 0.0290054 0.
0.589991 0.0290057 0.
0.591993 0.0290057 0.
0.593995 0.0290058 0.
0.595997 0.0290063 0.
0.597999 0.029007 0.
0.6 0.0290077 0.
0.602003 0.0290071 0.
0.604005 0.0290064 0.
0.606008 0.0290059 0.
0.60801 0.0290055 0.
0.610012 0.0290052 0.
0.612015 0.0290048 0.
0.614018 0.0290042 0.
0.61602 0.0290037 0.
0.618023 0.0290031 0.
0.620026 0.0290025 0.
0.622028 0.0290018 0.
0.624031 0.0290001 0.
0.626033 0.0289982 0.
0.628036 0.0289962 0.
0.630041 0.0289924 0.
0.632047 0.0289886 0.
0.634055 0.0289832 0.
0.636067 0.0289751 0.
0.638079 0.028967 0.
0.640098 0.0289552 0.
0.642122 0.0289409 0.
0.644146 0.0289266 0.
0.646188 0.0288943 0.
0.648233 0.0288584 0.
0.650284 0.0288178 0.
0.652392 0.028731 0.
0.6545 0.0286453 0.
0.656644 0.0285478 0.
0.658839 0.0284289 0.
0.661029 0.0283118 0.
0.663345 0.0280761 0.
0.665682 0.0278298 0.
0.668109 0.0275081 0.
0.670673 0.0269706 0.
0.67328 0.0264225 0.
0.676141 0.0257602 0.
0.679081 0.0250221 0.
0.682338 0.0239108 0.
0.685807 0.0226794 0.
0.689389 0.0212349 0.
0.693231 0.0197151 0.
0.697808 0.0176793 0.
0.702872 0.0155359 0.
0.708076 0.0131865 0.
0.713874 0.010439 0.
0.720576 0.00782235 0.
0.728424 0.00544707 0.
0.738921 0.00321949 0.
0.763768 0.00165815 0.
0.432552 0.00186212 0.
0.45618 0.0029011 0.
0.466593 0.00539232 0.
0.475091 0.00760759 0.
0.481808 0.0103539 0.
0.487823 0.0128633 0.
0.493236 0.0154921 0.
0.498346 0.0178248 0.
0.50301 0.0200994 0.
0.507053 0.0219117 0.
0.511098 0.0235299 0.
0.514723 0.0249669 0.
0.518007 0.0260627 0.
0.521174 0.0270433 0.
0.524031 0.0278147 0.
0.526859 0.0285776 0.
0.529447 0.0291077 0.
0.531998 0.0295982 0.
0.534413 0.0298778 0.
0.536739 0.0300958 0.
0.539038 0.0303053 0.
0.541208 0.0304256 0.
0.543381 0.0305473 0.
0.545513 0.0306456 0.
0.547619 0.0307302 0.
0.549725 0.0308161 0.
0.551774 0.0308564 0.
0.553816 0.0308922 0.
0.555856 0.0309246 0.
0.557879 0.0309393 0.
0.559903 0.0309541 0.
0.561922 0.0309661 0.
0.563934 0.0309742 0.
0.565946 0.0309823 0.
0.567954 0.0309878 0.
0.56996 0.0309918 0.
0.571966 0.0309958 0.
0.573968 0.0309977 0.
0.575971 0.0309993 0.
0.577974 0.0310008 0.
0.579977 0.0310015 0.
0.581979 0.0310021 0.
0.583982 0.0310027 0.
0.585985 0.0310035 0.
0.587988 0.0310042 0.
0.58999 0.0310046 0.
0.591993 0.0310048 0.
0.593995 0.0310051 0.
0.595997 0.0310056 0.
0.597999 0.0310062 0.
0.600001 0.0310068 0.
0.602003 0.0310062 0.
0.604006 0.0310055 0.
0.606008 0.0310049 0.
0.608011 0.0310044 0.
0.610013 0.031004 0.
0.612016 0.0310035 0.
0.614018 0.031003 0.
0.616021 0.0310024 0.
0.618024 0.0310016 0.
0.620027 0.0310008 0.
0.62203 0.0309999 0.
0.624033 0.0309978 0.
0.626036 0.0309954 0.
0.62804 0.0309927 0.
0.630047 0.0309875 0.
0.632054 0.0309822 0.
0.634064 0.0309748 0.
0.63608 0.0309634 0.
0.638096 0.0309521 0.
0.64012 0.0309365 0.
0.642151 0.030918 0.
0.644181 0.0308995 0.
0.646235 0.0308561 0.
0.648293 0.0308085 0.
0.650358 0.0307542 0.
0.652488 0.0306463 0.
0.654616 0.0305398 0.
0.656794 0.0304178 0.
0.659025 0.0302766 0.
0.661253 0.0301399 0.
0.663628 0.0298425 0.
0.666018 0.0295364 0.
0.668549 0.0291146 0.
0.671191 0.0284991 0.
0.673952 0.0278222 0.
0.676908 0.0270237 0.
0.680028 0.0260335 0.
0.683268 0.0248599 0.
0.686915 0.023481 0.
0.690691 0.0218313 0.
0.694596 0.0202137 0.
0.699422 0.0179026 0.
0.704636 0.0156635 0.
0.70997 0.0131002 0.
0.715918 0.0103168 0.
0.722807 0.00776615 0.
0.731178 0.00546829 0.
0.741761 0.00298644 0.
0.766193 0.00209844 0.
0.430565 0.00228402 0.
0.453275 0.002834 0.
0.463776 0.00527254 0.
0.47276 0.00755655 0.
0.479745 0.0101797 0.
0.485968 0.012877 0.
0.491474 0.0154679 0.
0.496694 0.0179815 0.
0.501437 0.0203129 0.
0.505721 0.0224478 0.
0.509901 0.0242241 0.
0.513589 0.0257047 0.
0.517078 0.0270792 0.
0.520345 0.0282191 0.
0.523397 0.0291707 0.
0.526325 0.0300295 0.
0.529007 0.0306354 0.
0.53161 0.0311665 0.
0.534107 0.0315394 0.
0.536484 0.0318387 0.
0.53885 0.0321349 0.
0.541048 0.0322741 0.
0.543248 0.0324148 0.
0.545407 0.0325358 0.
0.54753 0.0326445 0.
0.549655 0.0327547 0.
0.551717 0.0328086 0.
0.553772 0.0328554 0.
0.555823 0.0328979 0.
0.557852 0.032917 0.
0.559882 0.0329361 0.
0.561906 0.0329518 0.
0.563921 0.0329628 0.
0.565937 0.0329738 0.
0.567947 0.0329813 0.
0.569955 0.0329869 0.
0.571962 0.0329925 0.
0.573966 0.0329948 0.
0.575969 0.0329968 0.
0.577972 0.0329986 0.
0.579975 0.0329994 0.
0.581979 0.0330003 0.
0.583982 0.0330011 0.
0.585985 0.0330019 0.
0.587987 0.0330026 0.
0.58999 0.0330032 0.
0.591992 0.0330036 0.
0.593994 0.033004 0.
0.595996 0.0330045 0.
0.597999 0.0330051 0.
0.600001 0.0330057 0.
0.602003 0.0330049 0.
0.604006 0.0330042 0.
0.606009 0.0330035 0.
0.608011 0.033003 0.
0.610013 0.0330025 0.
0.612016 0.033002 0.
0.614019 0.0330013 0.
0.616022 0.0330007 0.
0.618025 0.0329997 0.
0.620029 0.0329986 0.
0.622032 0.0329974 0.
0.624036 0.0329947 0.
0.62604 0.0329917 0.
0.628045 0.0329883 0.
0.630054 0.0329811 0.
0.632063 0.0329739 0.
0.634076 0.0329637 0.
0.636096 0.0329484 0.
0.638117 0.0329331 0.
0.640147 0.032913 0.
0.642185 0.0328896 0.
0.644222 0.0328662 0.
0.646291 0.0328081 0.
0.648364 0.0327446 0.
0.650448 0.0326724 0.
0.652599 0.0325406 0.
0.654748 0.0324105 0.
0.656961 0.0322486 0.
0.659228 0.0320616 0.
0.661501 0.0318753 0.
0.663948 0.0315088 0.
0.66639 0.0311439 0.
0.669009 0.0306153 0.
0.671676 0.0299625 0.
0.67459 0.0291671 0.
0.677636 0.0282544 0.
0.680951 0.0269969 0.
0.684333 0.0256825 0.
0.688002 0.0242283 0.
0.692019 0.0223521 0.
0.696167 0.0204541 0.
0.701025 0.0180927 0.
0.706401 0.0157374 0.
0.711789 0.0130234 0.
0.717912 0.010211 0.
0.725044 0.00762378 0.
0.733914 0.00552751 0.
0.744461 0.00285536 0.
0.767357 0.00260463 0.
0.430334 0.00278685 0.
0.450681 0.00290528 0.
0.461208 0.00519072 0.
0.470542 0.00751496 0.
0.477803 0.0100549 0.
0.484155 0.0128711 0.
0.489767 0.0154511 0.
0.495116 0.0181186 0.
0.499939 0.0205127 0.
0.504362 0.0228914 0.
0.508563 0.0247796 0.
0.512453 0.0263965 0.
0.516142 0.0280286 0.
0.519499 0.0292976 0.
0.52268 0.0303794 0.
0.525643 0.0313202 0.
0.528488 0.0320879 0.
0.531181 0.0327031 0.
0.533789 0.0331876 0.
0.536221 0.0335706 0.
0.538653 0.0339586 0.
0.540885 0.0341212 0.
0.543114 0.034281 0.
0.545299 0.0344247 0.
0.547441 0.0345576 0.
0.549583 0.0346923 0.
0.55166 0.0347605 0.
0.553727 0.0348183 0.
0.55579 0.0348712 0.
0.557825 0.0348946 0.
0.559861 0.034918 0.
0.56189 0.0349375 0.
0.563909 0.0349514 0.
0.565928 0.0349652 0.
0.56794 0.0349748 0.
0.569949 0.034982 0.
0.571958 0.0349891 0.
0.573963 0.034992 0.
0.575967 0.0349942 0.
0.577971 0.0349963 0.
0.579974 0.0349974 0.
0.581978 0.0349985 0.
0.583981 0.0349995 0.
0.585984 0.0350003 0.
0.587987 0.0350011 0.
0.589989 0.0350018 0.
0.591992 0.0350023 0.
0.593994 0.0350029 0.
0.595996 0.0350034 0.
0.597998 0.035004 0.
0.600001 0.0350045 0.
0.602004 0.0350037 0.
0.604006 0.0350029 0.
0.606009 0.0350021 0.
0.608012 0.0350016 0.
0.610014 0.035001 0.
0.612017 0.0350004 0.
0.61402 0.0349997 0.
0.616023 0.0349991 0.
0.618026 0.0349979 0.
0.62003 0.0349964 0.
0.622034 0.0349949 0.
0.624039 0.0349916 0.
0.626044 0.034988 0.
0.62805 0.0349838 0.
0.630061 0.0349746 0.
0.632072 0.0349655 0.
0.634088 0.0349526 0.
0.636113 0.0349334 0.
0.638138 0.0349142 0.
0.640175 0.0348895 0.
0.642219 0.0348611 0.
0.644263 0.0348328 0.
0.646348 0.0347594 0.
0.648437 0.0346802 0.
0.650539 0.0345896 0.
0.652712 0.0344338 0.
0.654882 0.0342799 0.
0.657132 0.0340744 0.
0.659436 0.0338407 0.
0.661762 0.0336035 0.
0.664285 0.0331628 0.
0.666795 0.0327272 0.
0.669548 0.0320476 0.
0.672301 0.0312938 0.
0.675313 0.0303696 0.
0.678398 0.0293805 0.
0.681871 0.0279052 0.
0.685462 0.0264281 0.
0.689077 0.0249208 0.
0.69334 0.0228119 0.
0.697733 0.0206263 0.
0.702672 0.018258 0.
0.708148 0.015718 0.
0.713585 0.0129159 0.
0.719901 0.0101579 0.
0.727172 0.00752336 0.
0.736441 0.00556595 0.
0.74681 0.00289236 0.
0.767431 0.00317477 0.
0.430797 0.00335665 0.
0.448508 0.0030895 0.
0.458979 0.0051993 0.
0.468455 0.0074974 0.
0.475946 0.0100124 0.
0.482486 0.0128927 0.
0.488186 0.0154889 0.
0.493636 0.0182579 0.
0.498487 0.0206987 0.
0.502999 0.0232125 0.
0.507211 0.0252437 0.
0.511329 0.0270554 0.
0.515124 0.028828 0.
0.518581 0.0302388 0.
0.521877 0.0315101 0.
0.524928 0.0325737 0.
0.527945 0.033518 0.
0.530718 0.0342105 0.
0.533442 0.034807 0.
0.535905 0.0352478 0.
0.538374 0.0357049 0.
0.54065 0.0359074 0.
0.542912 0.0360961 0.
0.545134 0.0362706 0.
0.547299 0.0364254 0.
0.549467 0.0365822 0.
0.551567 0.0366733 0.
0.553655 0.0367526 0.
0.555738 0.0368263 0.
0.557781 0.0368546 0.
0.559824 0.036883 0.
0.56186 0.036908 0.
0.563885 0.036928 0.
0.565911 0.036948 0.
0.567928 0.0369616 0.
0.56994 0.0369714 0.
0.571951 0.0369812 0.
0.573958 0.0369855 0.
0.575963 0.036989 0.
0.577968 0.0369923 0.
0.579972 0.036994 0.
0.581976 0.0369958 0.
0.58398 0.0369973 0.
0.585983 0.0369984 0.
0.587986 0.0369995 0.
0.589989 0.0370004 0.
0.591992 0.0370012 0.
0.593994 0.0370019 0.
0.595996 0.0370024 0.
0.597999 0.0370027 0.
0.600001 0.0370031 0.
0.602004 0.0370024 0.
0.604006 0.0370017 0.
0.606009 0.0370009 0.
0.608012 0.0370002 0.
0.610014 0.0369995 0.
0.612017 0.0369986 0.
0.614021 0.0369974 0.
0.616024 0.0369963 0.
0.618028 0.0369944 0.
0.620033 0.0369922 0.
0.622038 0.0369899 0.
0.624045 0.036985 0.
0.626051 0.0369799 0.
0.628059 0.0369738 0.
0.630074 0.0369611 0.
0.632089 0.0369484 0.
0.634111 0.0369304 0.
0.636144 0.0369033 0.
0.638177 0.0368764 0.
0.640222 0.0368457 0.
0.642275 0.0368124 0.
0.644327 0.0367791 0.
0.646439 0.0366765 0.
0.648554 0.0365683 0.
0.650684 0.0364507 0.
0.652881 0.0362767 0.
0.655072 0.0361049 0.
0.657369 0.0358472 0.
0.659709 0.0355636 0.
0.662089 0.0352707 0.
0.66465 0.0347847 0.
0.667246 0.0342677 0.
0.670118 0.0334462 0.
0.673003 0.0325681 0.
0.676138 0.031463 0.
0.679307 0.0302832 0.
0.682786 0.028762 0.
0.686617 0.0271001 0.
0.690408 0.0253486 0.
0.694616 0.0232343 0.
0.699227 0.0207904 0.
0.704289 0.0183978 0.
0.709795 0.0156959 0.
0.715321 0.0128497 0.
0.721752 0.0101557 0.
0.729169 0.00751262 0.
0.738601 0.0055977 0.
0.748889 0.00304359 0.
0.767088 0.00376928 0.
0.431425 0.0039834 0.
0.446768 0.00336011 0.
0.45703 0.00530317 0.
0.46656 0.00755366 0.
0.474213 0.0100213 0.
0.480917 0.0129143 0.
0.486624 0.0155561 0.
0.492195 0.0183599 0.
0.497068 0.0208682 0.
0.501658 0.0234551 0.
0.505891 0.0256648 0.
0.510179 0.0276707 0.
0.514039 0.0295081 0.
0.517593 0.0310886 0.
0.520983 0.0325557 0.
0.524182 0.0337639 0.
0.527348 0.0348696 0.
0.53015 0.0355988 0.
0.532955 0.0362937 0.
0.535481 0.0368242 0.
0.538011 0.0373754 0.
0.540361 0.0376528 0.
0.542674 0.0378864 0.
0.544948 0.038104 0.
0.547143 0.0382829 0.
0.549342 0.0384643 0.
0.551469 0.0385809 0.
0.553579 0.0386838 0.
0.555684 0.0387804 0.
0.557735 0.0388139 0.
0.559786 0.0388474 0.
0.561829 0.038878 0.
0.563862 0.0389042 0.
0.565895 0.0389306 0.
0.567916 0.0389483 0.
0.56993 0.0389608 0.
0.571944 0.0389733 0.
0.573952 0.038979 0.
0.575959 0.0389838 0.
0.577965 0.0389883 0.
0.57997 0.0389907 0.
0.581975 0.0389931 0.
0.583979 0.0389951 0.
0.585983 0.0389966 0.
0.587986 0.038998 0.
0.589989 0.0389991 0.
0.591992 0.0390001 0.
0.593994 0.039001 0.
0.595996 0.0390013 0.
0.597999 0.0390015 0.
0.600001 0.0390017 0.
0.602004 0.039001 0.
0.604006 0.0390004 0.
0.606009 0.0389997 0.
0.608012 0.0389988 0.
0.610014 0.038998 0.
0.612018 0.0389968 0.
0.614022 0.0389952 0.
0.616025 0.0389936 0.
0.61803 0.038991 0.
0.620036 0.0389879 0.
0.622042 0.0389849 0.
0.62405 0.0389785 0.
0.626059 0.0389717 0.
0.628068 0.0389637 0.
0.630088 0.0389474 0.
0.632107 0.0389311 0.
0.634134 0.0389078 0.
0.636175 0.0388728 0.
0.638216 0.0388379 0.
0.64027 0.0388011 0.
0.642332 0.0387625 0.
0.644393 0.038724 0.
0.646535 0.0385885 0.
0.648679 0.0384477 0.
0.650843 0.0383 0.
0.653071 0.0381043 0.
0.655293 0.037911 0.
0.657662 0.037582 0.
0.660065 0.0372312 0.
0.662546 0.0368389 0.
0.665171 0.0362522 0.
0.667838 0.0356317 0.
0.670722 0.0347743 0.
0.673755 0.0337614 0.
0.676984 0.0325036 0.
0.680322 0.0310658 0.
0.68376 0.0295202 0.
0.687754 0.0277143 0.
0.691746 0.0257138 0.
0.695919 0.0235643 0.
0.700661 0.0209544 0.
0.705776 0.0185566 0.
0.711327 0.0157171 0.
0.716934 0.0128349 0.
0.723486 0.0101813 0.
0.731061 0.00761961 0.
0.740497 0.0056629 0.
0.750617 0.00327763 0.
0.766593 0.00441683 0.
0.431942 0.00466782 0.
0.445309 0.00368889 0.
0.455354 0.0054618 0.
0.464814 0.00762922 0.
0.472586 0.0100864 0.
0.479394 0.012927 0.
0.485125 0.015646 0.
0.490783 0.0184521 0.
0.495648 0.0210319 0.
0.500351 0.0236716 0.
0.504592 0.0260273 0.
0.508955 0.0281807 0.
0.512872 0.0300742 0.
0.516586 0.0318886 0.
0.520052 0.0335016 0.
0.523414 0.0348681 0.
0.526563 0.036012 0.
0.529513 0.0368995 0.
0.532419 0.0377311 0.
0.535051 0.0383838 0.
0.53764 0.0390281 0.
0.540072 0.0393901 0.
0.542435 0.0396679 0.
0.544763 0.039931 0.
0.546985 0.0401291 0.
0.549213 0.040332 0.
0.551367 0.0404753 0.
0.553498 0.0406044 0.
0.555625 0.0407284 0.
0.557684 0.0407669 0.
0.559743 0.0408056 0.
0.561795 0.040842 0.
0.563834 0.0408753 0.
0.565873 0.0409087 0.
0.567899 0.0409313 0.
0.569917 0.0409472 0.
0.571935 0.0409632 0.
0.573945 0.0409708 0.
0.575953 0.0409771 0.
0.577961 0.0409832 0.
0.579967 0.0409863 0.
0.581973 0.0409895 0.
0.583978 0.0409923 0.
0.585981 0.0409941 0.
0.587985 0.0409959 0.
0.589988 0.0409974 0.
0.591991 0.0409985 0.
0.593994 0.0409996 0.
0.595996 0.041 0.
0.597999 0.0410001 0.
0.600001 0.0410002 0.
0.602004 0.0409996 0.
0.604006 0.0409989 0.
0.606009 0.0409981 0.
0.608012 0.040997 0.
0.610015 0.0409959 0.
0.612019 0.0409943 0.
0.614023 0.0409921 0.
0.616027 0.0409899 0.
0.618033 0.0409865 0.
0.62004 0.0409825 0.
0.622047 0.0409785 0.
0.624057 0.0409701 0.
0.626068 0.0409612 0.
0.628081 0.0409507 0.
0.630104 0.0409298 0.
0.632128 0.040909 0.
0.634162 0.0408797 0.
0.636211 0.0408368 0.
0.63826 0.040794 0.
0.640324 0.0407492 0.
0.642397 0.040703 0.
0.644469 0.0406571 0.
0.646638 0.0404866 0.
0.648808 0.0403131 0.
0.651004 0.0401364 0.
0.653259 0.0399249 0.
0.655511 0.0397131 0.
0.657959 0.0393051 0.
0.660426 0.038887 0.
0.663019 0.0383825 0.
0.665717 0.0376878 0.
0.66853 0.0368982 0.
0.671483 0.0359361 0.
0.674547 0.0348357 0.
0.677826 0.0334964 0.
0.681352 0.0318003 0.
0.684933 0.0301157 0.
0.688907 0.0282682 0.
0.69308 0.026036 0.
0.697311 0.0237609 0.
0.702148 0.0211085 0.
0.70723 0.0186725 0.
0.712828 0.015723 0.
0.718471 0.012866 0.
0.725143 0.0101792 0.
0.732818 0.007793 0.
0.742191 0.00575315 0.
0.752125 0.00356848 0.
0.766102 0.00509583 0.
0.432367 0.00545925 0.
0.444149 0.00408993 0.
0.4539 0.00567726 0.
0.463214 0.0077296 0.
0.471047 0.0101812 0.
0.477928 0.0129518 0.
0.483675 0.0157469 0.
0.48939 0.018544 0.
0.494244 0.0211965 0.
0.499061 0.0238882 0.
0.5033 0.0263178 0.
0.50769 0.0285954 0.
0.511701 0.0305976 0.
0.515564 0.0326132 0.
0.519127 0.0343494 0.
0.522535 0.0358394 0.
0.52576 0.0371108 0.
0.52889 0.0381716 0.
0.531891 0.0391259 0.
0.534635 0.0398935 0.
0.537236 0.0405811 0.
0.539741 0.0410355 0.
0.542151 0.0413664 0.
0.544541 0.04169 0.
0.546799 0.0419223 0.
0.549067 0.0421608 0.
0.551254 0.0423423 0.
0.553406 0.0425069 0.
0.555555 0.0426673 0.
0.557624 0.0427115 0.
0.559693 0.0427558 0.
0.561754 0.0427986 0.
0.5638 0.0428401 0.
0.565846 0.0428818 0.
0.567878 0.0429102 0.
0.569901 0.0429304 0.
0.571924 0.0429506 0.
0.573936 0.0429606 0.
0.575946 0.042969 0.
0.577956 0.042977 0.
0.579963 0.0429811 0.
0.58197 0.0429851 0.
0.583976 0.0429887 0.
0.58598 0.042991 0.
0.587984 0.0429934 0.
0.589988 0.0429952 0.
0.591991 0.0429965 0.
0.593994 0.0429978 0.
0.595996 0.0429983 0.
0.597999 0.0429985 0.
0.600001 0.0429987 0.
0.602004 0.0429979 0.
0.604007 0.0429972 0.
0.60601 0.0429962 0.
0.608013 0.0429948 0.
0.610016 0.0429934 0.
0.61202 0.0429913 0.
0.614025 0.0429883 0.
0.61603 0.0429854 0.
0.618037 0.042981 0.
0.620046 0.0429759 0.
0.622054 0.0429708 0.
0.624067 0.0429598 0.
0.62608 0.0429482 0.
0.628096 0.0429345 0.
0.630125 0.0429079 0.
0.632155 0.0428814 0.
0.634195 0.0428453 0.
0.636252 0.0427941 0.
0.638309 0.0427432 0.
0.640387 0.042687 0.
0.642476 0.042628 0.
0.644565 0.0425677 0.
0.646755 0.0423563 0.
0.648945 0.0421435 0.
0.651189 0.0419156 0.
0.65351 0.0416483 0.
0.65582 0.0413901 0.
0.658317 0.0409293 0.
0.660814 0.0404683 0.
0.663482 0.0398676 0.
0.666248 0.0390898 0.
0.66922 0.0381377 0.
0.672252 0.0370735 0.
0.675456 0.0357681 0.
0.678722 0.0343564 0.
0.682361 0.0325036 0.
0.686154 0.0306412 0.
0.6901 0.0287439 0.
0.694405 0.02633 0.
0.698717 0.0239081 0.
0.703632 0.0212556 0.
0.708697 0.0187255 0.
0.714313 0.0157189 0.
0.720035 0.0129342 0.
0.726735 0.010184 0.
0.734464 0.00799852 0.
0.743701 0.00589475 0.
0.753408 0.00392527 0.
0.76572 0.00583081 0.
0.432739 0.00625101 0.
0.443354 0.00454941 0.
0.452742 0.00596904 0.
0.461844 0.00791694 0.
0.469633 0.0103013 0.
0.476561 0.0130485 0.
0.482304 0.0158625 0.
0.488059 0.018667 0.
0.492904 0.0213484 0.
0.497726 0.024076 0.
0.502012 0.0265619 0.
0.506482 0.0289788 0.
0.510574 0.0311012 0.
0.514498 0.0332242 0.
0.518135 0.0350828 0.
0.521616 0.0367625 0.
0.524934 0.0381657 0.
0.528251 0.0393831 0.
0.531251 0.0403882 0.
0.534065 0.0412793 0.
0.536746 0.0420624 0.
0.539373 0.0426485 0.
0.541846 0.043047 0.
0.54431 0.0434444 0.
0.546609 0.0437122 0.
0.548917 0.0439867 0.
0.55114 0.0442072 0.
0.553313 0.0444075 0.
0.555485 0.0446054 0.
0.557564 0.0446559 0.
0.559643 0.0447059 0.
0.561713 0.0447551 0.
0.563766 0.0448048 0.
0.56582 0.0448546 0.
0.567857 0.0448891 0.
0.569885 0.0449135 0.
0.571912 0.044938 0.
0.573927 0.0449504 0.
0.575939 0.0449608 0.
0.577951 0.0449707 0.
0.579959 0.0449758 0.
0.581967 0.0449808 0.
0.583974 0.0449851 0.
0.585979 0.0449879 0.
0.587983 0.0449908 0.
0.589987 0.044993 0.
0.59199 0.0449945 0.
0.593993 0.0449961 0.
0.595996 0.0449967 0.
0.597999 0.044997 0.
0.600001 0.0449973 0.
0.602004 0.0449963 0.
0.604007 0.0449954 0.
0.60601 0.0449943 0.
0.608013 0.0449926 0.
0.610017 0.0449908 0.
0.612021 0.0449882 0.
0.614027 0.0449845 0.
0.616033 0.0449808 0.
0.618041 0.0449754 0.
0.620051 0.0449692 0.
0.622061 0.0449631 0.
0.624076 0.0449495 0.
0.626092 0.0449352 0.
0.628111 0.0449182 0.
0.630146 0.0448859 0.
0.632181 0.0448537 0.
0.634228 0.0448107 0.
0.636294 0.0447513 0.
0.638359 0.0446922 0.
0.640452 0.0446242 0.
0.642555 0.0445524 0.
0.644662 0.0444765 0.
0.646873 0.0442239 0.
0.649084 0.0439714 0.
0.651384 0.0436882 0.
0.653774 0.0433622 0.
0.656166 0.0430383 0.
0.658729 0.0425106 0.
0.661288 0.0419868 0.
0.664086 0.0412277 0.
0.666856 0.0403927 0.
0.669938 0.0393321 0.
0.673072 0.0381622 0.
0.676381 0.0366525 0.
0.67973 0.0350555 0.
0.683367 0.033171 0.
0.68737 0.0311246 0.
0.691362 0.0290922 0.
0.695701 0.0266026 0.
0.700056 0.0240708 0.
0.705036 0.0214238 0.
0.710076 0.018803 0.
0.715708 0.0157639 0.
0.721506 0.0130297 0.
0.728183 0.0102634 0.
0.735927 0.00823907 0.
0.744915 0.00613396 0.
0.754265 0.00438323 0.
0.765347 0.00659297 0.
0.433138 0.00703579 0.
0.442889 0.00507452 0.
0.451826 0.00633535 0.
0.460696 0.00817108 0.
0.468378 0.010476 0.
0.475293 0.0132082 0.
0.481014 0.0159973 0.
0.486756 0.0188156 0.
0.49162 0.0215098 0.
0.496438 0.0242786 0.
0.500809 0.0268304 0.
0.505353 0.0293646 0.
0.509444 0.0315609 0.
0.513439 0.0337718 0.
0.517114 0.0357588 0.
0.520651 0.0375988 0.
0.524088 0.039153 0.
0.527481 0.0404568 0.
0.530495 0.0415515 0.
0.533466 0.04264 0.
0.536229 0.0435175 0.
0.53899 0.0442466 0.
0.54152 0.044709 0.
0.544037 0.0451632 0.
0.54637 0.0454598 0.
0.548707 0.0457681 0.
0.550965 0.0460298 0.
0.553156 0.0462578 0.
0.555349 0.0464841 0.
0.557456 0.0465565 0.
0.559561 0.0466266 0.
0.561654 0.0466933 0.
0.563715 0.0467513 0.
0.565777 0.0468095 0.
0.567822 0.0468518 0.
0.569857 0.0468835 0.
0.571892 0.0469153 0.
0.573911 0.0469321 0.
0.575927 0.0469463 0.
0.577942 0.0469599 0.
0.579952 0.0469665 0.
0.581961 0.0469732 0.
0.58397 0.0469789 0.
0.585975 0.0469828 0.
0.587981 0.0469868 0.
0.589986 0.0469897 0.
0.591989 0.0469918 0.
0.593993 0.0469938 0.
0.595996 0.0469947 0.
0.597999 0.0469953 0.
0.600001 0.0469958 0.
0.602004 0.0469945 0.
0.604007 0.0469932 0.
0.606011 0.0469916 0.
0.608015 0.0469892 0.
0.610019 0.0469867 0.
0.612024 0.0469831 0.
0.614032 0.0469779 0.
0.616039 0.0469728 0.
0.618049 0.0469657 0.
0.620062 0.0469576 0.
0.622074 0.0469495 0.
0.624093 0.0469315 0.
0.626113 0.0469127 0.
0.628137 0.0468902 0.
0.630182 0.0468483 0.
0.632227 0.0468066 0.
0.634284 0.0467541 0.
0.63636 0.0466859 0.
0.638434 0.046618 0.
0.640557 0.0465255 0.
0.642695 0.0464264 0.
0.644836 0.0463204 0.
0.647065 0.0460419 0.
0.649288 0.0457627 0.
0.65163 0.0454212 0.
0.654068 0.0450439 0.
0.656535 0.0446653 0.
0.659159 0.0440802 0.
0.661809 0.0434656 0.
0.664726 0.0425485 0.
0.667626 0.0415748 0.
0.670744 0.0404057 0.
0.673941 0.0391487 0.
0.67731 0.0374955 0.
0.680796 0.0356652 0.
0.684407 0.0337665 0.
0.688548 0.0315765 0.
0.692629 0.029384 0.
0.696967 0.0268516 0.
0.701322 0.0242667 0.
0.706321 0.0216308 0.
0.711332 0.0189385 0.
0.716969 0.0158764 0.
0.722812 0.0131897 0.
0.729485 0.0104416 0.
0.73716 0.00852586 0.
0.745843 0.00646396 0.
0.754733 0.00491522 0.
0.764907 0.0073409 0.
0.433588 0.00781254 0.
0.442594 0.00564859 0.
0.451125 0.00676472 0.
0.459716 0.008484 0.
0.467288 0.0107203 0.
0.474125 0.0134192 0.
0.479826 0.0161774 0.
0.485551 0.0190086 0.
0.490442 0.0217239 0.
0.495237 0.0245261 0.
0.499675 0.027133 0.
0.504196 0.0297114 0.
0.508326 0.0319873 0.
0.512392 0.034279 0.
0.516096 0.0364034 0.
0.519668 0.0383586 0.
0.523171 0.0400457 0.
0.52657 0.0414351 0.
0.529726 0.0426662 0.
0.532837 0.043938 0.
0.535683 0.0449086 0.
0.538477 0.0457111 0.
0.541051 0.0462292 0.
0.543646 0.0467721 0.
0.546055 0.0471423 0.
0.548441 0.0475113 0.
0.550754 0.0478319 0.
0.552973 0.0480904 0.
0.555196 0.0483482 0.
0.557336 0.048448 0.
0.559472 0.0485424 0.
0.561592 0.0486299 0.
0.563662 0.0486964 0.
0.565733 0.0487633 0.
0.567787 0.0488137 0.
0.569829 0.0488529 0.
0.571872 0.0488922 0.
0.573895 0.0489135 0.
0.575914 0.0489317 0.
0.577933 0.048949 0.
0.579944 0.0489572 0.
0.581956 0.0489655 0.
0.583966 0.0489727 0.
0.585972 0.0489777 0.
0.587979 0.0489827 0.
0.589984 0.0489864 0.
0.591988 0.048989 0.
0.593992 0.0489916 0.
0.595996 0.0489928 0.
0.597998 0.0489935 0.
0.600001 0.0489943 0.
0.602005 0.0489926 0.
0.604008 0.048991 0.
0.606012 0.048989 0.
0.608016 0.0489858 0.
0.610021 0.0489826 0.
0.612027 0.0489779 0.
0.614036 0.0489714 0.
0.616045 0.0489649 0.
0.618058 0.0489559 0.
0.620072 0.0489459 0.
0.622087 0.0489359 0.
0.62411 0.0489134 0.
0.626134 0.0488899 0.
0.628163 0.0488618 0.
0.630219 0.0488098 0.
0.632274 0.0487581 0.
0.634342 0.0486957 0.
0.636428 0.048618 0.
0.638513 0.0485406 0.
0.640674 0.0484186 0.
0.642853 0.0482865 0.
0.645038 0.0481446 0.
0.647298 0.0478371 0.
0.649551 0.0475295 0.
0.651946 0.0470999 0.
0.654413 0.0466351 0.
0.656962 0.0461674 0.
0.659651 0.0455476 0.
0.662377 0.0448629 0.
0.665384 0.0438248 0.
0.668428 0.0426977 0.
0.671615 0.0413975 0.
0.674879 0.0399887 0.
0.678246 0.0382912 0.
0.681874 0.0362486 0.
0.685555 0.0342399 0.
0.689684 0.0319994 0.
0.693821 0.0296909 0.
0.698186 0.0270995 0.
0.702536 0.0245024 0.
0.707509 0.021859 0.
0.7125 0.0191165 0.
0.718102 0.0160555 0.
0.723958 0.0134034 0.
0.730627 0.0107004 0.
0.738177 0.00885931 0.
0.746587 0.00686285 0.
0.75494 0.00549179 0.
0.764346 0.00805697 0.
0.434066 0.00857073 0.
0.442474 0.00625615 0.
0.450625 0.00724422 0.
0.458884 0.00885602 0.
0.466353 0.0110246 0.
0.473075 0.0136854 0.
0.478729 0.0163984 0.
0.484439 0.0192461 0.
0.489351 0.0219779 0.
0.494104 0.024806 0.
0.498561 0.0274484 0.
0.503042 0.0300335 0.
0.507242 0.0324037 0.
0.511337 0.0347578 0.
0.515067 0.0369914 0.
0.518671 0.0390507 0.
0.522205 0.0408515 0.
0.525637 0.0423633 0.
0.528941 0.0437292 0.
0.532097 0.0450837 0.
0.534961 0.046125 0.
0.537837 0.0470654 0.
0.540542 0.047717 0.
0.543233 0.0483613 0.
0.545736 0.0488145 0.
0.548171 0.0492441 0.
0.550545 0.0496297 0.
0.552792 0.0499165 0.
0.555043 0.0501982 0.
0.557214 0.0503262 0.
0.559379 0.0504476 0.
0.561523 0.0505601 0.
0.563602 0.0506347 0.
0.565682 0.0507097 0.
0.567746 0.0507687 0.
0.569796 0.0508165 0.
0.571847 0.0508647 0.
0.573875 0.0508914 0.
0.575898 0.0509142 0.
0.57792 0.0509359 0.
0.579934 0.050946 0.
0.581948 0.050956 0.
0.58396 0.0509649 0.
0.585968 0.0509712 0.
0.587976 0.0509775 0.
0.589982 0.0509822 0.
0.591987 0.0509855 0.
0.593991 0.0509889 0.
0.595995 0.0509903 0.
0.597998 0.0509912 0.
0.600002 0.0509921 0.
0.602005 0.0509901 0.
0.604009 0.0509881 0.
0.606013 0.0509857 0.
0.608019 0.0509815 0.
0.610024 0.0509774 0.
0.612032 0.0509713 0.
0.614042 0.0509631 0.
0.616053 0.0509548 0.
0.618068 0.0509439 0.
0.620085 0.0509318 0.
0.622103 0.0509197 0.
0.624131 0.0508919 0.
0.62616 0.0508628 0.
0.628195 0.0508279 0.
0.630261 0.0507642 0.
0.632327 0.0507011 0.
0.634407 0.0506287 0.
0.636503 0.0505427 0.
0.638599 0.0504571 0.
0.640794 0.0503004 0.
0.643011 0.0501336 0.
0.645238 0.0499596 0.
0.64753 0.049628 0.
0.649814 0.0492935 0.
0.652262 0.0487628 0.
0.654759 0.0482108 0.
0.65742 0.0476446 0.
0.660218 0.0469445 0.
0.663104 0.0460885 0.
0.666099 0.0449954 0.
0.669243 0.0437623 0.
0.672498 0.042354 0.
0.675883 0.0407276 0.
0.679263 0.038954 0.
0.682936 0.0368059 0.
0.68672 0.0346614 0.
0.69083 0.0323819 0.
0.694956 0.0300124 0.
0.699314 0.0273859 0.
0.7037 0.0247653 0.
0.708622 0.022104 0.
0.713602 0.0193114 0.
0.719152 0.0162916 0.
0.724971 0.0136708 0.
0.73161 0.0110261 0.
0.739029 0.00924041 0.
0.747149 0.00732648 0.
0.755122 0.00611616 0.
0.763755 0.00874051 0.
0.434636 0.00929609 0.
0.442484 0.00688961 0.
0.450251 0.00777116 0.
0.458192 0.00928204 0.
0.465508 0.0113685 0.
0.472108 0.0139974 0.
0.477729 0.016667 0.
0.483416 0.0195247 0.
0.488329 0.022271 0.
0.493045 0.0250949 0.
0.49748 0.0277709 0.
0.501936 0.0303642 0.
0.506169 0.032811 0.
0.510281 0.0352116 0.
0.514036 0.037534 0.
0.517649 0.0396699 0.
0.521221 0.0416045 0.
0.524695 0.0432439 0.
0.528107 0.0447042 0.
0.531227 0.0460747 0.
0.534231 0.0473122 0.
0.537191 0.0483813 0.
0.540032 0.049178 0.
0.542804 0.0499005 0.
0.545386 0.0504252 0.
0.547849 0.0509002 0.
0.550275 0.0513504 0.
0.552571 0.0516683 0.
0.554889 0.0519913 0.
0.557092 0.0521639 0.
0.559272 0.0523279 0.
0.561433 0.0524787 0.
0.563527 0.0525618 0.
0.565621 0.0526453 0.
0.567697 0.0527143 0.
0.569757 0.0527728 0.
0.571818 0.0528317 0.
0.573851 0.0528651 0.
0.575878 0.0528934 0.
0.577905 0.0529205 0.
0.579921 0.0529325 0.
0.581938 0.0529445 0.
0.583952 0.0529553 0.
0.585962 0.0529632 0.
0.587972 0.0529712 0.
0.589979 0.0529771 0.
0.591985 0.0529813 0.
0.59399 0.0529855 0.
0.595994 0.0529873 0.
0.597998 0.0529883 0.
0.600002 0.0529892 0.
0.602006 0.0529869 0.
0.60401 0.0529846 0.
0.606015 0.0529817 0.
0.608022 0.0529763 0.
0.610028 0.052971 0.
0.612038 0.0529633 0.
0.614051 0.0529529 0.
0.616063 0.0529425 0.
0.618081 0.0529294 0.
0.620102 0.052915 0.
0.622122 0.0529007 0.
0.624156 0.0528664 0.
0.626191 0.0528307 0.
0.628234 0.0527871 0.
0.630313 0.0527089 0.
0.63239 0.0526313 0.
0.634483 0.0525476 0.
0.636594 0.0524535 0.
0.638704 0.0523599 0.
0.640927 0.0521478 0.
0.643168 0.0519232 0.
0.645434 0.0516954 0.
0.647781 0.0513379 0.
0.650107 0.0509842 0.
0.652606 0.050369 0.
0.655094 0.0497563 0.
0.657887 0.0490976 0.
0.660794 0.0483253 0.
0.66384 0.0472755 0.
0.666901 0.0460558 0.
0.670096 0.0447272 0.
0.67341 0.0432404 0.
0.676878 0.0414447 0.
0.680332 0.0395075 0.
0.684005 0.0373271 0.
0.687847 0.035079 0.
0.691947 0.0327624 0.
0.696066 0.0303405 0.
0.700381 0.027704 0.
0.704805 0.0250544 0.
0.709678 0.0223717 0.
0.714625 0.0195472 0.
0.72014 0.016574 0.
0.725886 0.013978 0.
0.732455 0.0114056 0.
0.739759 0.00966631 0.
0.74755 0.00784212 0.
0.755153 0.00677512 0.
0.763155 0.00943285 0.
0.435366 0.00992771 0.
0.442703 0.00753323 0.
0.450082 0.00835996 0.
0.457726 0.0097755 0.
0.464835 0.011784 0.
0.471293 0.0143806 0.
0.476889 0.0170146 0.
0.482506 0.0198622 0.
0.487384 0.0226145 0.
0.49207 0.0254224 0.
0.496488 0.0281258 0.
0.500907 0.0307284 0.
0.505145 0.0332314 0.
0.509229 0.0356431 0.
0.513006 0.0380403 0.
0.516644 0.0402577 0.
0.520232 0.0423021 0.
0.52375 0.0440582 0.
0.527174 0.0455679 0.
0.530336 0.0470275 0.
0.53348 0.0484633 0.
0.536501 0.0496155 0.
0.539417 0.0505179 0.
0.542222 0.0513146 0.
0.544944 0.0519696 0.
0.547469 0.052515 0.
0.549977 0.0530558 0.
0.552339 0.0534153 0.
0.554726 0.0537812 0.
0.556969 0.0539987 0.
0.559164 0.0542054 0.
0.561343 0.0543971 0.
0.563451 0.0544887 0.
0.565559 0.0545807 0.
0.567647 0.0546596 0.
0.569717 0.0547289 0.
0.571788 0.0547987 0.
0.573827 0.0548388 0.
0.575858 0.0548726 0.
0.577889 0.054905 0.
0.579908 0.054919 0.
0.581927 0.054933 0.
0.583944 0.0549456 0.
0.585956 0.0549553 0.
0.587967 0.0549649 0.
0.589976 0.054972 0.
0.591982 0.0549771 0.
0.593989 0.0549822 0.
0.595993 0.0549842 0.
0.597998 0.0549853 0.
0.600002 0.0549864 0.
0.602007 0.0549838 0.
0.604012 0.0549811 0.
0.606018 0.0549776 0.
0.608025 0.0549711 0.
0.610033 0.0549646 0.
0.612044 0.0549553 0.
0.614059 0.0549427 0.
0.616074 0.0549301 0.
0.618095 0.0549148 0.
0.620118 0.0548983 0.
0.622141 0.0548817 0.
0.624182 0.0548409 0.
0.626223 0.0547985 0.
0.628274 0.0547461 0.
0.630364 0.0546532 0.
0.632453 0.0545611 0.
0.634561 0.0544663 0.
0.636686 0.0543641 0.
0.638811 0.0542624 0.
0.641062 0.0539908 0.
0.643326 0.053708 0.
0.645639 0.0534276 0.
0.64805 0.0530334 0.
0.650458 0.0526258 0.
0.653078 0.0519013 0.
0.655651 0.0512074 0.
0.658504 0.0504432 0.
0.661411 0.0496501 0.
0.664594 0.0484126 0.
0.667745 0.0470784 0.
0.671008 0.0456004 0.
0.674356 0.0440338 0.
0.677851 0.0421388 0.
0.681381 0.0400322 0.
0.68508 0.0378082 0.
0.688923 0.0355099 0.
0.692994 0.0331702 0.
0.697104 0.0306979 0.
0.701379 0.0280578 0.
0.705816 0.025391 0.
0.710637 0.0226962 0.
0.715535 0.0198519 0.
0.721005 0.0169258 0.
0.726655 0.0143568 0.
0.733122 0.011853 0.
0.740266 0.0101556 0.
0.747781 0.00842892 0.
0.755013 0.0074624 0.
0.762449 0.010087 0.
0.43622 0.0105006 0.
0.443103 0.00819668 0.
0.450144 0.00900895 0.
0.457491 0.0103304 0.
0.464355 0.0122787 0.
0.470636 0.0148353 0.
0.476224 0.0174452 0.
0.481709 0.0202606 0.
0.48654 0.023014 0.
0.491194 0.0258037 0.
0.495601 0.0285273 0.
0.499968 0.0311398 0.
0.504156 0.0336598 0.
0.508219 0.0360857 0.
0.512021 0.0385409 0.
0.515663 0.0408362 0.
0.519246 0.0429585 0.
0.522792 0.0448191 0.
0.526194 0.046405 0.
0.529439 0.0479323 0.
0.532687 0.0495078 0.
0.535702 0.0507014 0.
0.538721 0.051786 0.
0.541606 0.0526969 0.
0.544487 0.0535002 0.
0.54707 0.0541148 0.
0.549646 0.0547443 0.
0.552067 0.0551311 0.
0.554492 0.0555326 0.
0.556773 0.0558007 0.
0.558986 0.0560463 0.
0.561193 0.0562788 0.
0.563324 0.0563815 0.
0.565459 0.0564854 0.
0.567569 0.0565779 0.
0.569652 0.0566614 0.
0.571736 0.0567457 0.
0.573785 0.0567965 0.
0.575825 0.0568395 0.
0.577865 0.0568809 0.
0.579887 0.0568973 0.
0.58191 0.0569138 0.
0.58393 0.0569289 0.
0.585944 0.0569414 0.
0.587959 0.0569539 0.
0.58997 0.0569632 0.
0.591978 0.0569697 0.
0.593986 0.0569762 0.
0.595992 0.0569789 0.
0.597997 0.0569804 0.
0.600002 0.0569819 0.
0.602008 0.0569783 0.
0.604014 0.0569748 0.
0.606022 0.0569701 0.
0.608032 0.0569616 0.
0.610042 0.0569532 0.
0.612056 0.0569413 0.
0.614074 0.0569253 0.
0.616092 0.0569094 0.
0.618117 0.0568914 0.
0.620144 0.0568725 0.
0.62217 0.0568536 0.
0.624224 0.0567991 0.
0.626279 0.0567432 0.
0.628344 0.0566765 0.
0.630449 0.0565688 0.
0.632552 0.0564622 0.
0.634686 0.0563505 0.
0.636842 0.056232 0.
0.638995 0.0561145 0.
0.641272 0.05579 0.
0.643548 0.0554606 0.
0.645897 0.0551322 0.
0.648343 0.0547147 0.
0.650847 0.0542425 0.
0.653582 0.0534143 0.
0.656286 0.0526127 0.
0.659236 0.0516762 0.
0.662205 0.0507231 0.
0.665371 0.0494668 0.
0.668615 0.0480387 0.
0.671918 0.0464454 0.
0.67533 0.0447393 0.
0.678821 0.0427847 0.
0.682397 0.0405599 0.
0.686083 0.0382973 0.
0.689936 0.0359646 0.
0.693955 0.0336208 0.
0.69806 0.0310989 0.
0.702288 0.0284586 0.
0.706711 0.0257863 0.
0.711496 0.0230785 0.
0.716322 0.0202348 0.
0.721715 0.0173571 0.
0.727275 0.0148122 0.
0.733605 0.0123738 0.
0.740543 0.010708 0.
0.747803 0.0090937 0.
0.754687 0.00815858 0.
0.761633 0.0106339 0.
0.437157 0.0109909 0.
0.443649 0.00890091 0.
0.450376 0.00971126 0.
0.457412 0.0109406 0.
0.464042 0.0128513 0.
0.470135 0.015362 0.
0.47568 0.0179502 0.
0.481022 0.0207257 0.
0.485799 0.0234755 0.
0.490417 0.0262471 0.
0.494803 0.0289809 0.
0.499101 0.0315955 0.
0.503237 0.0341168 0.
0.507281 0.0365616 0.
0.511074 0.0390516 0.
0.514694 0.0413966 0.
0.518292 0.0435882 0.
0.521819 0.0455349 0.
0.525214 0.04721 0.
0.52853 0.0487866 0.
0.531774 0.0503847 0.
0.534864 0.0517332 0.
0.537974 0.0529846 0.
0.54096 0.0540248 0.
0.543955 0.0549557 0.
0.546578 0.0555984 0.
0.549225 0.0562565 0.
0.551707 0.05674 0.
0.554167 0.0572335 0.
0.556509 0.0575795 0.
0.558763 0.0578666 0.
0.561016 0.0581453 0.
0.56318 0.0582637 0.
0.565348 0.058383 0.
0.567485 0.0584916 0.
0.569582 0.0585907 0.
0.571681 0.0586907 0.
0.573741 0.058753 0.
0.575791 0.0588057 0.
0.57784 0.0588565 0.
0.579866 0.0588754 0.
0.581891 0.0588943 0.
0.583915 0.0589121 0.
0.585933 0.0589275 0.
0.587951 0.0589429 0.
0.589964 0.0589543 0.
0.591973 0.0589622 0.
0.593983 0.0589702 0.
0.59599 0.0589735 0.
0.597996 0.0589755 0.
0.600002 0.0589774 0.
0.60201 0.0589729 0.
0.604017 0.0589684 0.
0.606026 0.0589625 0.
0.608038 0.0589521 0.
0.61005 0.0589417 0.
0.612067 0.0589272 0.
0.614089 0.0589078 0.
0.616111 0.0588884 0.
0.618139 0.0588678 0.
0.62017 0.0588464 0.
0.6222 0.0588251 0.
0.624269 0.058756 0.
0.626338 0.0586854 0.
0.628419 0.0586031 0.
0.63054 0.0584796 0.
0.63266 0.0583572 0.
0.63483 0.0582234 0.
0.637029 0.058081 0.
0.639231 0.0579309 0.
0.641551 0.057552 0.
0.643865 0.0571728 0.
0.646308 0.0567582 0.
0.64882 0.0562578 0.
0.651398 0.0556847 0.
0.654141 0.0548503 0.
0.656962 0.0539498 0.
0.659977 0.0528581 0.
0.663046 0.0517318 0.
0.66623 0.0503962 0.
0.669499 0.0489339 0.
0.672836 0.0472612 0.
0.67631 0.0454 0.
0.679788 0.0433837 0.
0.683364 0.0411018 0.
0.687047 0.0387995 0.
0.69088 0.0364529 0.
0.694842 0.0341113 0.
0.698917 0.0315591 0.
0.70311 0.0289165 0.
0.707505 0.0262399 0.
0.71225 0.0235185 0.
0.717005 0.0206884 0.
0.722291 0.0178586 0.
0.727776 0.0153363 0.
0.733929 0.0129569 0.
0.740635 0.0113165 0.
0.747606 0.00983028 0.
0.754195 0.00886802 0.
0.760725 0.0111123 0.
0.438163 0.011421 0.
0.444287 0.00966074 0.
0.450712 0.0104592 0.
0.457458 0.0115977 0.
0.463825 0.0134812 0.
0.469758 0.0159522 0.
0.475212 0.0185108 0.
0.480424 0.0212487 0.
0.485149 0.0239898 0.
0.4897 0.0267369 0.
0.49407 0.0294801 0.
0.4983 0.0320892 0.
0.502384 0.0346058 0.
0.506379 0.0370596 0.
0.510144 0.0395572 0.
0.513763 0.0419531 0.
0.517343 0.0441985 0.
0.520832 0.0462128 0.
0.524235 0.0479799 0.
0.527587 0.04958 0.
0.530824 0.051216 0.
0.534002 0.0527153 0.
0.537176 0.0540937 0.
0.54021 0.0552321 0.
0.543209 0.0562372 0.
0.546001 0.0570063 0.
0.548767 0.0577388 0.
0.551343 0.0583323 0.
0.553839 0.0589175 0.
0.556243 0.0593535 0.
0.558538 0.0596816 0.
0.560835 0.0600025 0.
0.563033 0.0601363 0.
0.565232 0.0602711 0.
0.567396 0.060398 0.
0.569506 0.0605115 0.
0.571617 0.060626 0.
0.573689 0.0607013 0.
0.575751 0.060766 0.
0.577812 0.0608293 0.
0.579841 0.0608505 0.
0.58187 0.0608717 0.
0.583897 0.0608921 0.
0.585918 0.0609107 0.
0.587939 0.0609293 0.
0.589955 0.0609431 0.
0.591967 0.0609529 0.
0.593979 0.0609626 0.
0.595987 0.0609666 0.
0.597995 0.060969 0.
0.600003 0.0609713 0.
0.602012 0.0609657 0.
0.604021 0.0609601 0.
0.606032 0.0609528 0.
0.608047 0.0609401 0.
0.610062 0.0609274 0.
0.612082 0.06091 0.
0.614108 0.0608872 0.
0.616133 0.0608644 0.
0.618166 0.0608402 0.
0.620201 0.0608153 0.
0.622236 0.0607904 0.
0.624321 0.0607042 0.
0.626405 0.0606172 0.
0.628502 0.0605186 0.
0.630638 0.0603812 0.
0.632772 0.0602451 0.
0.634978 0.0600871 0.
0.637216 0.0599232 0.
0.639471 0.0597393 0.
0.641833 0.059308 0.
0.644186 0.0588791 0.
0.646739 0.0583646 0.
0.649334 0.0577711 0.
0.652045 0.0570345 0.
0.65485 0.0561008 0.
0.65772 0.055118 0.
0.660741 0.0539721 0.
0.663903 0.0527116 0.
0.667118 0.0513017 0.
0.670417 0.0497456 0.
0.673776 0.0480085 0.
0.677274 0.0460469 0.
0.680765 0.0439378 0.
0.684309 0.0416394 0.
0.687969 0.0393202 0.
0.691771 0.0369739 0.
0.695688 0.0346213 0.
0.699707 0.0320629 0.
0.70387 0.0294124 0.
0.708209 0.0267457 0.
0.712909 0.0240169 0.
0.717616 0.0211955 0.
0.722779 0.0184116 0.
0.728184 0.0159183 0.
0.734148 0.0135884 0.
0.74061 0.0119636 0.
0.74728 0.0106079 0.
0.753604 0.00962196 0.
0.759766 0.0115558 0.
0.43918 0.011858 0.
0.444976 0.0104731 0.
0.451119 0.0112306 0.
0.457574 0.0122958 0.
0.463712 0.0141711 0.
0.469481 0.0165984 0.
0.47483 0.0191239 0.
0.479909 0.0218292 0.
0.484575 0.0245543 0.
0.489052 0.0272794 0.
0.493384 0.0300162 0.
0.497537 0.0326144 0.
0.501573 0.0351238 0.
0.505504 0.0375764 0.
0.509238 0.0400662 0.
0.512849 0.0425081 0.
0.516391 0.0448009 0.
0.519861 0.0468735 0.
0.52326 0.0487074 0.
0.526619 0.0503543 0.
0.529877 0.0520318 0.
0.533124 0.0536483 0.
0.536291 0.0550667 0.
0.539381 0.0563252 0.
0.542441 0.0574713 0.
0.545402 0.0583988 0.
0.548285 0.0591965 0.
0.550965 0.0598851 0.
0.553452 0.0605228 0.
0.55593 0.061044 0.
0.558272 0.0614058 0.
0.56063 0.0617678 0.
0.562868 0.0619471 0.
0.565097 0.0621246 0.
0.567291 0.0622874 0.
0.569413 0.0624154 0.
0.571537 0.0625445 0.
0.573625 0.0626366 0.
0.575702 0.0627182 0.
0.577779 0.0627984 0.
0.579812 0.0628219 0.
0.581845 0.0628455 0.
0.583875 0.0628684 0.
0.585899 0.0628907 0.
0.587924 0.0629129 0.
0.589943 0.0629296 0.
0.591958 0.0629414 0.
0.593973 0.0629533 0.
0.595984 0.0629581 0.
0.597994 0.0629608 0.
0.600004 0.0629635 0.
0.602015 0.0629566 0.
0.604027 0.0629498 0.
0.60604 0.0629409 0.
0.608059 0.0629255 0.
0.610077 0.06291 0.
0.612101 0.0628895 0.
0.61413 0.0628631 0.
0.616159 0.0628368 0.
0.618198 0.0628077 0.
0.62024 0.0627774 0.
0.622282 0.0627466 0.
0.624386 0.0626387 0.
0.626488 0.0625303 0.
0.628604 0.0624117 0.
0.630755 0.0622599 0.
0.632904 0.0621094 0.
0.635163 0.0618929 0.
0.637456 0.0616623 0.
0.639772 0.0614155 0.
0.642186 0.0609657 0.
0.644569 0.0605188 0.
0.647194 0.0599253 0.
0.649859 0.0592574 0.
0.652704 0.0583536 0.
0.655573 0.0573242 0.
0.658552 0.0561918 0.
0.661562 0.0549906 0.
0.664785 0.053653 0.
0.66803 0.0521853 0.
0.671361 0.0505153 0.
0.674731 0.0486991 0.
0.678221 0.046679 0.
0.681715 0.0444863 0.
0.685255 0.0421745 0.
0.688874 0.0398558 0.
0.692638 0.0375189 0.
0.696507 0.0351486 0.
0.700454 0.032603 0.
0.704576 0.0299465 0.
0.708859 0.0272911 0.
0.713467 0.0245752 0.
0.71814 0.0217657 0.
0.72319 0.0190194 0.
0.728502 0.0165569 0.
0.734285 0.0142666 0.
0.7405 0.0126484 0.
0.746917 0.0114143 0.
0.752956 0.0104412 0.
0.75878 0.0119957 0.
0.440196 0.0123393 0.
0.445711 0.0113203 0.
0.451628 0.0120238 0.
0.457829 0.0130527 0.
0.463755 0.0149361 0.
0.469316 0.0173124 0.
0.474585 0.0198125 0.
0.479498 0.0224851 0.
0.484079 0.025181 0.
0.488495 0.0278873 0.
0.492762 0.0306065 0.
0.496834 0.0331896 0.
0.500812 0.0356841 0.
0.50468 0.0381254 0.
0.508377 0.0406029 0.
0.511955 0.0430708 0.
0.515468 0.0453966 0.
0.518904 0.0475181 0.
0.522295 0.0494199 0.
0.525665 0.0511365 0.
0.528944 0.0528255 0.
0.532201 0.054482 0.
0.535373 0.055968 0.
0.538529 0.0573703 0.
0.541641 0.0586349 0.
0.54473 0.0597195 0.
0.547605 0.0605358 0.
0.550362 0.0613351 0.
0.552954 0.0620582 0.
0.555585 0.0627051 0.
0.55799 0.0631155 0.
0.560416 0.0635287 0.
0.562699 0.0637534 0.
0.56496 0.0639741 0.
0.567185 0.0641763 0.
0.56932 0.0643188 0.
0.571456 0.0644625 0.
0.57356 0.0645714 0.
0.575653 0.0646699 0.
0.577746 0.0647674 0.
0.579783 0.0647934 0.
0.581819 0.0648192 0.
0.583853 0.0648448 0.
0.585881 0.0648706 0.
0.587909 0.0648965 0.
0.589931 0.0649161 0.
0.591949 0.06493 0.
0.593967 0.064944 0.
0.59598 0.0649496 0.
0.597992 0.0649526 0.
0.600004 0.0649557 0.
0.602018 0.0649476 0.
0.604032 0.0649395 0.
0.606048 0.064929 0.
0.60807 0.0649108 0.
0.610092 0.0648926 0.
0.612119 0.0648689 0.
0.614153 0.064839 0.
0.616186 0.0648091 0.
0.61823 0.064775 0.
0.620279 0.0647394 0.
0.622329 0.0647022 0.
0.624451 0.0645725 0.
0.626572 0.0644426 0.
0.628707 0.0643041 0.
0.630873 0.0641378 0.
0.633038 0.063973 0.
0.635355 0.0636912 0.
0.637704 0.0633919 0.
0.640098 0.0630766 0.
0.642599 0.0625835 0.
0.645093 0.0620684 0.
0.647824 0.0613296 0.
0.650525 0.0605853 0.
0.653416 0.0596021 0.
0.65634 0.0584851 0.
0.659402 0.0572344 0.
0.662485 0.0559437 0.
0.665695 0.0545561 0.
0.668967 0.0530188 0.
0.672294 0.0512729 0.
0.675676 0.0493589 0.
0.679152 0.0472886 0.
0.682631 0.0450484 0.
0.686149 0.0427364 0.
0.689746 0.0404151 0.
0.693471 0.0380961 0.
0.697275 0.0357163 0.
0.701146 0.0331865 0.
0.7052 0.0305427 0.
0.709432 0.0278926 0.
0.713922 0.0252028 0.
0.718542 0.0224163 0.
0.72348 0.0197053 0.
0.728674 0.0172742 0.
0.734271 0.0150067 0.
0.740261 0.013385 0.
0.746444 0.0122522 0.
0.752256 0.0113004 0.
0.757769 0.0124473 0.
0.441199 0.0128898 0.
0.446493 0.0121959 0.
0.452255 0.012848 0.
0.458216 0.0138733 0.
0.46391 0.0157687 0.
0.469282 0.0181009 0.
0.474443 0.0205789 0.
0.479187 0.0232176 0.
0.483687 0.0258847 0.
0.488035 0.0285678 0.
0.492212 0.0312594 0.
0.496205 0.0338259 0.
0.500115 0.0363023 0.
0.503911 0.0387204 0.
0.507572 0.0411842 0.
0.51111 0.0436599 0.
0.514577 0.0460036 0.
0.51799 0.0481698 0.
0.52138 0.0501352 0.
0.524729 0.0519088 0.
0.528012 0.0535949 0.
0.531261 0.0552798 0.
0.534452 0.0568502 0.
0.537644 0.0583299 0.
0.540792 0.059667 0.
0.543887 0.0608296 0.
0.546809 0.0617739 0.
0.549705 0.0627524 0.
0.552411 0.0635682 0.
0.555195 0.0643447 0.
0.557676 0.0648029 0.
0.560129 0.0652417 0.
0.562458 0.0655151 0.
0.564754 0.0657849 0.
0.567025 0.0660377 0.
0.569176 0.0661888 0.
0.571331 0.0663409 0.
0.573455 0.0664675 0.
0.575565 0.0665875 0.
0.577676 0.0667076 0.
0.579726 0.0667435 0.
0.581776 0.0667783 0.
0.583821 0.0668116 0.
0.585853 0.0668407 0.
0.587884 0.0668698 0.
0.589911 0.0668924 0.
0.591933 0.0669091 0.
0.593956 0.0669259 0.
0.595973 0.0669326 0.
0.59799 0.0669362 0.
0.600006 0.0669399 0.
0.602024 0.0669298 0.
0.604043 0.0669197 0.
0.606064 0.0669069 0.
0.608091 0.0668854 0.
0.610118 0.0668639 0.
0.61215 0.0668366 0.
0.614189 0.066803 0.
0.616227 0.0667695 0.
0.618287 0.066724 0.
0.620353 0.0666751 0.
0.622422 0.0666225 0.
0.624564 0.0664672 0.
0.626703 0.0663132 0.
0.628861 0.0661565 0.
0.631049 0.0659824 0.
0.633232 0.0658097 0.
0.635605 0.0654523 0.
0.637997 0.0650889 0.
0.640467 0.0647136 0.
0.643041 0.0641873 0.
0.645665 0.0635803 0.
0.64849 0.0626933 0.
0.651299 0.0617999 0.
0.65424 0.0607145 0.
0.657183 0.059552 0.
0.66028 0.0582353 0.
0.663425 0.0568722 0.
0.666635 0.0554116 0.
0.66991 0.0538026 0.
0.673233 0.0519993 0.
0.676604 0.0500104 0.
0.68004 0.0479051 0.
0.683502 0.0456424 0.
0.686992 0.0433372 0.
0.690564 0.0410185 0.
0.694236 0.0387205 0.
0.697982 0.0363373 0.
0.701777 0.0338234 0.
0.705745 0.0312049 0.
0.70991 0.0285645 0.
0.714284 0.0259069 0.
0.718822 0.0231517 0.
0.723627 0.020475 0.
0.728718 0.0180725 0.
0.734118 0.0158155 0.
0.7399 0.0141759 0.
0.745864 0.013108 0.
0.751513 0.0122058 0.
0.756773 0.012983 0.
0.442227 0.0135548 0.
0.447368 0.0130975 0.
0.452969 0.0137015 0.
0.458686 0.0147492 0.
0.46415 0.01666 0.
0.469375 0.0189596 0.
0.474366 0.0214108 0.
0.478973 0.0240216 0.
0.483397 0.0266647 0.
0.487661 0.0293214 0.
0.491732 0.0319819 0.
0.49565 0.0345278 0.
0.49948 0.0369796 0.
0.503211 0.0393719 0.
0.506823 0.041816 0.
0.510309 0.0442796 0.
0.513734 0.0466385 0.
0.517119 0.0488388 0.
0.520484 0.050849 0.
0.523806 0.0526689 0.
0.527087 0.0543605 0.
0.530325 0.0560726 0.
0.533527 0.0577073 0.
0.53674 0.0592218 0.
0.539875 0.060603 0.
0.542986 0.0618535 0.
0.545985 0.0629484 0.
0.548969 0.0640744 0.
0.551778 0.0649808 0.
0.554569 0.0657763 0.
0.557135 0.0663257 0.
0.559675 0.0668536 0.
0.562116 0.0672184 0.
0.564481 0.0675576 0.
0.566831 0.0678834 0.
0.569009 0.068045 0.
0.571192 0.0682078 0.
0.573341 0.0683542 0.
0.575471 0.0684987 0.
0.577601 0.0686436 0.
0.579667 0.0686914 0.
0.581731 0.0687362 0.
0.583787 0.0687779 0.
0.585824 0.0688103 0.
0.58786 0.0688427 0.
0.589891 0.0688684 0.
0.591918 0.068888 0.
0.593944 0.0689076 0.
0.595966 0.0689154 0.
0.597987 0.0689197 0.
0.600008 0.0689239 0.
0.602031 0.0689118 0.
0.604054 0.0688997 0.
0.606079 0.0688845 0.
0.608112 0.0688596 0.
0.610144 0.0688347 0.
0.612182 0.0688038 0.
0.614226 0.0687663 0.
0.61627 0.0687289 0.
0.618347 0.0686708 0.
0.620431 0.0686072 0.
0.622522 0.0685365 0.
0.624688 0.0683524 0.
0.626851 0.0681701 0.
0.629041 0.0679922 0.
0.631264 0.0678069 0.
0.633485 0.0676197 0.
0.63593 0.067157 0.
0.638374 0.0667037 0.
0.64096 0.066232 0.
0.643605 0.0656588 0.
0.646326 0.0649558 0.
0.649192 0.0639911 0.
0.6521 0.062966 0.
0.655093 0.061788 0.
0.658106 0.0605196 0.
0.661198 0.0591847 0.
0.664378 0.0577679 0.
0.667586 0.0562373 0.
0.670856 0.0545512 0.
0.674159 0.0527032 0.
0.677512 0.0506712 0.
0.680899 0.0485381 0.
0.684325 0.0462746 0.
0.687779 0.0439843 0.
0.691312 0.0416771 0.
0.694933 0.0393947 0.
0.698616 0.0370218 0.
0.702357 0.0345183 0.
0.706221 0.0319326 0.
0.710301 0.0293082 0.
0.71457 0.0266822 0.
0.719007 0.0239649 0.
0.723675 0.021312 0.
0.72866 0.0189394 0.
0.733859 0.0166935 0.
0.739425 0.0150222 0.
0.745194 0.0139857 0.
0.750722 0.013153 0.
0.755782 0.0136238 0.
0.443274 0.0143357 0.
0.448296 0.0140176 0.
0.453714 0.0145818 0.
0.459194 0.0156774 0.
0.464455 0.0176029 0.
0.469536 0.0198774 0.
0.47435 0.0222995 0.
0.478848 0.0248976 0.
0.48319 0.0275131 0.
0.487351 0.0301361 0.
0.491311 0.0327641 0.
0.495147 0.0352821 0.
0.498882 0.0376988 0.
0.502546 0.0400633 0.
0.5061 0.0424799 0.
0.509536 0.0449273 0.
0.512927 0.0472943 0.
0.516264 0.0495176 0.
0.519598 0.0515621 0.
0.522898 0.053418 0.
0.526162 0.0551359 0.
0.529389 0.0568531 0.
0.532607 0.0585362 0.
0.5358 0.0600766 0.
0.538951 0.0615177 0.
0.542069 0.0628328 0.
0.54512 0.0640412 0.
0.548123 0.0652045 0.
0.550994 0.0661995 0.
0.553841 0.0671037 0.
0.556551 0.0678207 0.
0.559192 0.0684433 0.
0.561762 0.0689099 0.
0.564199 0.0693194 0.
0.566636 0.0697271 0.
0.568841 0.0698977 0.
0.571048 0.0700672 0.
0.573224 0.0702322 0.
0.575371 0.0703991 0.
0.57752 0.0705668 0.
0.579602 0.0706295 0.
0.581679 0.0706874 0.
0.583749 0.0707405 0.
0.58579 0.0707759 0.
0.587831 0.0708114 0.
0.589868 0.0708401 0.
0.591899 0.0708625 0.
0.593931 0.0708849 0.
0.595959 0.0708939 0.
0.597984 0.0708988 0.
0.60001 0.0709037 0.
0.602038 0.0708894 0.
0.604067 0.0708752 0.
0.606097 0.0708575 0.
0.608136 0.0708291 0.
0.610174 0.0708007 0.
0.612218 0.0707661 0.
0.614269 0.0707249 0.
0.61632 0.0706839 0.
0.618413 0.0706094 0.
0.620516 0.0705278 0.
0.622628 0.0704359 0.
0.624816 0.0702271 0.
0.627 0.0700203 0.
0.629222 0.0698244 0.
0.63148 0.0696291 0.
0.633754 0.0694103 0.
0.636262 0.0688459 0.
0.63876 0.0683019 0.
0.641488 0.0677219 0.
0.644238 0.067064 0.
0.647099 0.0661844 0.
0.649994 0.0651487 0.
0.652951 0.0640501 0.
0.655972 0.0628261 0.
0.659049 0.0614547 0.
0.66215 0.0600746 0.
0.665338 0.0586185 0.
0.66854 0.0570317 0.
0.671797 0.0552841 0.
0.675086 0.0533881 0.
0.678392 0.0513409 0.
0.681745 0.0491841 0.
0.685127 0.0469312 0.
0.688534 0.0446603 0.
0.692015 0.0423776 0.
0.695585 0.0401118 0.
0.699202 0.0377546 0.
0.702876 0.0352706 0.
0.706663 0.0327107 0.
0.710619 0.0301167 0.
0.714795 0.0275156 0.
0.71911 0.0248481 0.
0.723646 0.0222162 0.
0.728502 0.0198633 0.
0.733554 0.0176282 0.
0.738895 0.0159136 0.
0.744451 0.0148842 0.
0.749859 0.0141355 0.
0.754779 0.014385 0.
0.444349 0.0151665 0.
0.44925 0.0149546 0.
0.454474 0.0154957 0.
0.459726 0.0166524 0.
0.464819 0.018598 0.
0.469751 0.0208501 0.
0.474403 0.0232529 0.
0.478803 0.0258389 0.
0.483028 0.0284181 0.
0.487075 0.0310035 0.
0.490924 0.0335952 0.
0.494663 0.0360753 0.
0.498307 0.0384544 0.
0.501903 0.040791 0.
0.505396 0.0431746 0.
0.508782 0.0455991 0.
0.512123 0.0479598 0.
0.515424 0.0502006 0.
0.518723 0.0522731 0.
0.521995 0.0541637 0.
0.525243 0.0559177 0.
0.528475 0.057629 0.
0.531677 0.0593264 0.
0.534849 0.0609119 0.
0.538014 0.0624107 0.
0.541131 0.0637717 0.
0.544207 0.065039 0.
0.547236 0.0662458 0.
0.550194 0.0673813 0.
0.553093 0.0683838 0.
0.555935 0.0692747 0.
0.55865 0.0699588 0.
0.561309 0.0705078 0.
0.563777 0.0709566 0.
0.566265 0.0714105 0.
0.568556 0.0716399 0.
0.57085 0.07187 0.
0.57309 0.0720842 0.
0.575256 0.0722744 0.
0.577425 0.0724657 0.
0.579525 0.0725504 0.
0.581618 0.0726279 0.
0.583703 0.0726978 0.
0.58575 0.0727363 0.
0.587798 0.0727749 0.
0.589841 0.0728066 0.
0.591878 0.0728319 0.
0.593916 0.0728572 0.
0.595949 0.0728675 0.
0.597981 0.072873 0.
0.600013 0.0728785 0.
0.602047 0.072862 0.
0.604082 0.0728455 0.
0.606119 0.0728251 0.
0.608164 0.0727927 0.
0.610209 0.0727605 0.
0.612261 0.0727219 0.
0.61432 0.0726768 0.
0.616379 0.0726319 0.
0.618491 0.072533 0.
0.620612 0.0724241 0.
0.622747 0.0723021 0.
0.624962 0.0720678 0.
0.627171 0.0718358 0.
0.629464 0.0715903 0.
0.631796 0.0713427 0.
0.63416 0.071045 0.
0.636698 0.0704332 0.
0.639205 0.0698394 0.
0.642057 0.0691708 0.
0.644909 0.0684298 0.
0.647889 0.067378 0.
0.650846 0.066248 0.
0.653855 0.0650539 0.
0.656887 0.063781 0.
0.659997 0.0623636 0.
0.663122 0.0609392 0.
0.666302 0.0594382 0.
0.669508 0.0577956 0.
0.67273 0.056012 0.
0.676 0.0540703 0.
0.679276 0.0520072 0.
0.682579 0.0498448 0.
0.685919 0.0476112 0.
0.68928 0.0453592 0.
0.692702 0.0431072 0.
0.696207 0.0408653 0.
0.699758 0.0385279 0.
0.70336 0.0360686 0.
0.707069 0.0335371 0.
0.710901 0.030979 0.
0.714962 0.0284083 0.
0.71917 0.0257851 0.
0.723562 0.0231796 0.
0.72826 0.020844 0.
0.73318 0.0186193 0.
0.738332 0.0168521 0.
0.743668 0.0158015 0.
0.748916 0.0151439 0.
0.753744 0.0152477 0.
0.445483 0.0160279 0.
0.450253 0.0159133 0.
0.455292 0.0164591 0.
0.460338 0.0176888 0.
0.465287 0.0196648 0.
0.470057 0.0218954 0.
0.474557 0.0242934 0.
0.478835 0.0268524 0.
0.482926 0.0293923 0.
0.486851 0.0319364 0.
0.490588 0.034487 0.
0.494216 0.0369234 0.
0.497773 0.0392611 0.
0.501297 0.0415663 0.
0.504718 0.0439105 0.
0.508056 0.0463043 0.
0.511346 0.0486547 0.
0.514613 0.0509031 0.
0.517864 0.0529918 0.
0.521113 0.054918 0.
0.524342 0.056703 0.
0.527561 0.0583979 0.
0.530742 0.0601096 0.
0.533903 0.06174 0.
0.537059 0.0632653 0.
0.54018 0.0646751 0.
0.543281 0.0660054 0.
0.546331 0.0672583 0.
0.549352 0.0684887 0.
0.552288 0.0695719 0.
0.555192 0.0705715 0.
0.557944 0.071322 0.
0.560723 0.0720241 0.
0.563276 0.0725416 0.
0.565847 0.0730607 0.
0.56825 0.0733683 0.
0.570638 0.0736639 0.
0.572955 0.0739348 0.
0.575141 0.0741484 0.
0.577329 0.0743635 0.
0.579448 0.0744703 0.
0.581557 0.0745676 0.
0.583656 0.074655 0.
0.58571 0.0746966 0.
0.587765 0.0747383 0.
0.589814 0.074773 0.
0.591857 0.0748012 0.
0.593901 0.0748295 0.
0.59594 0.074841 0.
0.597978 0.0748472 0.
0.600016 0.0748533 0.
0.602057 0.0748345 0.
0.604097 0.0748158 0.
0.606141 0.0747926 0.
0.608192 0.0747563 0.
0.610244 0.0747202 0.
0.612304 0.0746776 0.
0.614372 0.0746287 0.
0.616439 0.0745798 0.
0.618569 0.0744552 0.
0.620709 0.0743189 0.
0.622868 0.0741666 0.
0.62511 0.0739065 0.
0.627346 0.0736493 0.
0.629722 0.0733443 0.
0.632144 0.0730304 0.
0.634639 0.0726185 0.
0.637275 0.0719258 0.
0.639919 0.0712301 0.
0.642802 0.0704784 0.
0.645686 0.0696664 0.
0.64872 0.068511 0.
0.651737 0.0672952 0.
0.654779 0.0660206 0.
0.657834 0.0646823 0.
0.660945 0.0632415 0.
0.664084 0.061786 0.
0.667255 0.0602444 0.
0.670455 0.0585483 0.
0.673665 0.0567284 0.
0.676895 0.0547616 0.
0.680139 0.0526897 0.
0.683399 0.0505279 0.
0.686689 0.0483204 0.
0.690002 0.0460921 0.
0.693363 0.0438759 0.
0.696794 0.0416636 0.
0.70027 0.0393538 0.
0.703784 0.0369285 0.
0.707411 0.0344284 0.
0.711137 0.0319063 0.
0.715057 0.0293805 0.
0.719155 0.026794 0.
0.723405 0.0242155 0.
0.727931 0.0218984 0.
0.732693 0.0196903 0.
0.737679 0.0178545 0.
0.742824 0.0167478 0.
0.747901 0.0161558 0.
0.752637 0.016175 0.
0.446655 0.0169201 0.
0.451301 0.0168891 0.
0.456173 0.017476 0.
0.461056 0.0187997 0.
0.465859 0.0208104 0.
0.470446 0.0230177 0.
0.4748 0.0254153 0.
0.478933 0.0279421 0.
0.48289 0.03044 0.
0.486688 0.03294 0.
0.490305 0.0354462 0.
0.493814 0.0378337 0.
0.497296 0.0401284 0.
0.500731 0.0423958 0.
0.504083 0.044698 0.
0.507367 0.0470551 0.
0.510602 0.0493864 0.
0.513812 0.0516252 0.
0.517029 0.0537285 0.
0.520247 0.0556787 0.
0.523448 0.057486 0.
0.526646 0.0591791 0.
0.52981 0.0608951 0.
0.532948 0.0625544 0.
0.536094 0.0640958 0.
0.539232 0.0655593 0.
0.542337 0.0669393 0.
0.54541 0.068232 0.
0.548457 0.0695084 0.
0.55141 0.0706497 0.
0.554357 0.0717435 0.
0.557202 0.0726391 0.
0.560072 0.0734866 0.
0.56274 0.0741071 0.
0.565386 0.0746791 0.
0.567895 0.0750535 0.
0.570357 0.0754113 0.
0.572748 0.0757516 0.
0.574951 0.0759784 0.
0.577162 0.0762063 0.
0.579313 0.076344 0.
0.581453 0.076474 0.
0.583585 0.0765927 0.
0.585649 0.0766379 0.
0.587714 0.0766832 0.
0.589773 0.0767212 0.
0.591826 0.076752 0.
0.593878 0.0767829 0.
0.595927 0.0767954 0.
0.597974 0.0768019 0.
0.600021 0.0768083 0.
0.602071 0.0767876 0.
0.604121 0.0767669 0.
0.606174 0.0767409 0.
0.608235 0.0767005 0.
0.610297 0.0766601 0.
0.61237 0.0766123 0.
0.614453 0.0765576 0.
0.616534 0.0765032 0.
0.618697 0.0763408 0.
0.620866 0.0761685 0.
0.623062 0.0759807 0.
0.625332 0.0757032 0.
0.627588 0.0754298 0.
0.630038 0.0750623 0.
0.632528 0.0746918 0.
0.635161 0.0741602 0.
0.637893 0.0733918 0.
0.640687 0.072572 0.
0.643628 0.0716939 0.
0.646576 0.0707291 0.
0.649591 0.069556 0.
0.652657 0.0682855 0.
0.655721 0.0669585 0.
0.658799 0.0655548 0.
0.661907 0.0641003 0.
0.665046 0.0626167 0.
0.668204 0.0610357 0.
0.671382 0.0593004 0.
0.674576 0.057446 0.
0.677782 0.0554653 0.
0.68098 0.0533955 0.
0.684197 0.051245 0.
0.687436 0.0490659 0.
0.690693 0.0468672 0.
0.693993 0.0446884 0.
0.697343 0.0425131 0.
0.700734 0.0402377 0.
0.70416 0.0378502 0.
0.707681 0.0353949 0.
0.711318 0.032905 0.
0.715091 0.0304246 0.
0.719061 0.0278825 0.
0.723181 0.0253315 0.
0.727541 0.0230166 0.
0.732117 0.0208388 0.
0.736932 0.0189325 0.
0.741896 0.0177372 0.
0.746829 0.0171578 0.
0.751453 0.0171268 0.
0.447862 0.0178578 0.
0.452388 0.0178923 0.
0.457117 0.0185503 0.
0.461858 0.0199927 0.
0.46648 0.0220172 0.
0.470897 0.0242145 0.
0.475098 0.0266105 0.
0.479078 0.0291042 0.
0.482905 0.0315513 0.
0.486567 0.0340127 0.
0.490053 0.0364678 0.
0.493466 0.0388051 0.
0.496864 0.0410556 0.
0.500205 0.04328 0.
0.503488 0.0455385 0.
0.506706 0.047853 0.
0.509877 0.050155 0.
0.513036 0.0523748 0.
0.516208 0.0544852 0.
0.519393 0.0564505 0.
0.522568 0.0582754 0.
0.525735 0.0599774 0.
0.52887 0.0616782 0.
0.531994 0.063351 0.
0.535139 0.0649203 0.
0.538278 0.066427 0.
0.541386 0.0678463 0.
0.544477 0.0691809 0.
0.547517 0.070471 0.
0.550517 0.0716915 0.
0.553504 0.0728582 0.
0.556435 0.0738914 0.
0.559357 0.0748289 0.
0.56212 0.0755345 0.
0.564834 0.0761351 0.
0.567456 0.0766137 0.
0.569983 0.0770811 0.
0.572472 0.0775401 0.
0.574714 0.0777837 0.
0.576964 0.0780287 0.
0.579159 0.0782023 0.
0.581338 0.0783711 0.
0.583509 0.0785273 0.
0.585585 0.0785767 0.
0.587661 0.0786261 0.
0.589731 0.0786678 0.
0.591793 0.0787014 0.
0.593855 0.0787351 0.
0.595913 0.0787487 0.
0.59797 0.0787556 0.
0.600026 0.0787623 0.
0.602086 0.0787394 0.
0.604146 0.0787166 0.
0.606209 0.0786878 0.
0.608281 0.0786427 0.
0.610352 0.0785978 0.
0.61244 0.0785438 0.
0.614539 0.0784823 0.
0.616638 0.0784212 0.
0.618843 0.0782129 0.
0.621051 0.0779971 0.
0.623303 0.0777659 0.
0.625628 0.0774622 0.
0.627943 0.0771618 0.
0.630517 0.0766693 0.
0.633076 0.0762 0.
0.635795 0.075539 0.
0.638555 0.0747654 0.
0.641474 0.0738387 0.
0.644466 0.0728582 0.
0.64748 0.0717505 0.
0.650509 0.0705247 0.
0.653592 0.0692284 0.
0.656671 0.0678598 0.
0.659771 0.0664158 0.
0.662876 0.0649479 0.
0.666008 0.0634364 0.
0.669149 0.0618185 0.
0.672304 0.0600564 0.
0.675468 0.058172 0.
0.678646 0.0561896 0.
0.681809 0.054125 0.
0.684977 0.0519965 0.
0.688156 0.0498506 0.
0.691354 0.0476885 0.
0.694587 0.0455502 0.
0.69786 0.0434126 0.
0.70116 0.041178 0.
0.704499 0.038834 0.
0.707902 0.0364264 0.
0.711438 0.0339759 0.
0.715085 0.031536 0.
0.71891 0.029045 0.
0.722895 0.0265252 0.
0.727093 0.024204 0.
0.731494 0.0220454 0.
0.736116 0.0200886 0.
0.740903 0.018784 0.
0.745692 0.0181683 0.
0.75022 0.0181031 0.
0.449095 0.0188516 0.
0.453507 0.0189319 0.
0.458105 0.0196943 0.
0.462685 0.0212464 0.
0.467124 0.0232733 0.
0.47139 0.0254842 0.
0.475419 0.0278685 0.
0.479262 0.0303216 0.
0.482947 0.0327219 0.
0.486457 0.0351417 0.
0.489813 0.0375356 0.
0.493143 0.0398254 0.
0.496447 0.0420277 0.
0.499694 0.0442041 0.
0.5029 0.0464153 0.
0.506044 0.0486778 0.
0.509153 0.0509452 0.
0.512265 0.0531416 0.
0.515402 0.055254 0.
0.51855 0.0572296 0.
0.521687 0.0590699 0.
0.524825 0.0607861 0.
0.527947 0.0624653 0.
0.531057 0.0641449 0.
0.534189 0.0657429 0.
0.537329 0.0672754 0.
0.54044 0.0687344 0.
0.543533 0.0701023 0.
0.54658 0.071413 0.
0.549623 0.0727035 0.
0.552639 0.0739158 0.
0.555613 0.0750306 0.
0.558552 0.0760252 0.
0.561431 0.0768881 0.
0.564244 0.077562 0.
0.567004 0.0781476 0.
0.569598 0.0787253 0.
0.572192 0.0793256 0.
0.574474 0.0795853 0.
0.576764 0.0798447 0.
0.579002 0.0800491 0.
0.581218 0.0802564 0.
0.583428 0.0804551 0.
0.585516 0.0805086 0.
0.587605 0.0805623 0.
0.589687 0.0806078 0.
0.591758 0.0806439 0.
0.59383 0.0806801 0.
0.595898 0.0806945 0.
0.597965 0.0807015 0.
0.600033 0.0807082 0.
0.602103 0.0806836 0.
0.604173 0.0806591 0.
0.606246 0.0806275 0.
0.608328 0.0805783 0.
0.610409 0.0805292 0.
0.612513 0.0804675 0.
0.61463 0.0803975 0.
0.616747 0.0803268 0.
0.618994 0.0800727 0.
0.621237 0.0798172 0.
0.623549 0.0795451 0.
0.625931 0.079216 0.
0.628335 0.0788699 0.
0.63102 0.0782486 0.
0.633673 0.0776579 0.
0.636512 0.076827 0.
0.639341 0.0759634 0.
0.64231 0.0749753 0.
0.645324 0.073941 0.
0.648374 0.0727436 0.
0.651435 0.0714688 0.
0.654529 0.0701377 0.
0.65762 0.0687314 0.
0.660725 0.0672686 0.
0.663838 0.0657872 0.
0.666968 0.06425 0.
0.670092 0.0625944 0.
0.673213 0.0608131 0.
0.676355 0.0589068 0.
0.6795 0.0569277 0.
0.682628 0.054875 0.
0.685752 0.0527714 0.
0.688878 0.0506619 0.
0.692005 0.0485431 0.
0.69517 0.0464464 0.
0.698366 0.0443481 0.
0.701582 0.0421555 0.
0.704824 0.0398629 0.
0.708114 0.0375043 0.
0.711527 0.0351054 0.
0.715059 0.0327095 0.
0.718724 0.0302694 0.
0.722574 0.0277795 0.
0.726607 0.0254601 0.
0.730848 0.0233072 0.
0.735287 0.0213113 0.
0.73989 0.0198912 0.
0.744526 0.0192042 0.
0.748967 0.0190939 0.
0.450365 0.0198832 0.
0.454661 0.0200218 0.
0.459109 0.0209073 0.
0.463507 0.0225498 0.
0.467794 0.0245935 0.
0.471891 0.0268127 0.
0.475748 0.0291799 0.
0.479448 0.0315851 0.
0.482971 0.0339394 0.
0.486322 0.0363044 0.
0.489575 0.0386398 0.
0.492813 0.0408825 0.
0.49601 0.0430289 0.
0.499168 0.0451567 0.
0.502287 0.0473144 0.
0.505358 0.0495174 0.
0.508415 0.0517451 0.
0.511489 0.0539226 0.
0.514596 0.0560312 0.
0.517701 0.0580115 0.
0.520803 0.0598677 0.
0.523916 0.0615993 0.
0.527026 0.0632604 0.
0.530129 0.0649461 0.
0.533258 0.0665695 0.
0.53639 0.0681124 0.
0.5395 0.0696098 0.
0.542592 0.0710132 0.
0.545653 0.0723461 0.
0.548718 0.0736641 0.
0.551749 0.0749135 0.
0.554763 0.0761115 0.
0.557738 0.0771867 0.
0.560707 0.078203 0.
0.563618 0.07895 0.
0.566518 0.0796252 0.
0.569128 0.0802666 0.
0.57175 0.0809471 0.
0.57413 0.0812668 0.
0.576518 0.0815698 0.
0.578835 0.081838 0.
0.581084 0.0821049 0.
0.583333 0.0823675 0.
0.585437 0.0824269 0.
0.587542 0.0824864 0.
0.589639 0.0825367 0.
0.59172 0.0825754 0.
0.593802 0.0826142 0.
0.595882 0.0826293 0.
0.597961 0.082636 0.
0.60004 0.0826425 0.
0.602122 0.0826162 0.
0.604205 0.08259 0.
0.606289 0.0825558 0.
0.60838 0.0825025 0.
0.61047 0.0824493 0.
0.612595 0.0823734 0.
0.614735 0.0822853 0.
0.616884 0.0821889 0.
0.6192 0.0818608 0.
0.621501 0.0815391 0.
0.623897 0.0812078 0.
0.626348 0.0808497 0.
0.628848 0.0804402 0.
0.631565 0.0797616 0.
0.634321 0.0790301 0.
0.637251 0.0780717 0.
0.640172 0.0770981 0.
0.643185 0.0760372 0.
0.646217 0.0749486 0.
0.649282 0.0737033 0.
0.652357 0.0723941 0.
0.655453 0.0710382 0.
0.658551 0.0696007 0.
0.661665 0.0681198 0.
0.664782 0.0666248 0.
0.667906 0.0650614 0.
0.671031 0.0633705 0.
0.674131 0.0615665 0.
0.677242 0.0596519 0.
0.680359 0.0576776 0.
0.683445 0.0556416 0.
0.686533 0.0535664 0.
0.689612 0.05149 0.
0.692676 0.0494181 0.
0.695766 0.0473682 0.
0.698884 0.0453104 0.
0.702013 0.0431594 0.
0.705164 0.0409228 0.
0.70835 0.0386193 0.
0.711626 0.0362742 0.
0.715029 0.0339273 0.
0.718541 0.0315452 0.
0.722234 0.0290929 0.
0.72611 0.0267729 0.
0.730189 0.0246278 0.
0.734457 0.0226022 0.
0.738882 0.0210684 0.
0.743357 0.0202801 0.
0.747695 0.0201138 0.
0.451685 0.0209394 0.
0.455861 0.0211802 0.
0.460142 0.0222023 0.
0.464387 0.0239379 0.
0.468515 0.0259985 0.
0.47241 0.0282153 0.
0.476115 0.0305638 0.
0.479639 0.0329141 0.
0.482984 0.0352134 0.
0.486193 0.0375174 0.
0.48935 0.0397956 0.
0.492477 0.0419783 0.
0.495564 0.0440676 0.
0.498631 0.0461443 0.
0.501665 0.0482446 0.
0.504679 0.0503914 0.
0.507689 0.0525755 0.
0.510726 0.0547287 0.
0.513793 0.0568232 0.
0.516857 0.0588073 0.
0.519936 0.0606766 0.
0.523027 0.0624219 0.
0.526128 0.0640812 0.
0.529227 0.0657611 0.
0.532344 0.0673959 0.
0.53547 0.0689533 0.
0.538575 0.0704807 0.
0.54166 0.0719115 0.
0.544731 0.0732628 0.
0.547806 0.0745959 0.
0.550851 0.0758859 0.
0.553883 0.0771386 0.
0.556898 0.078294 0.
0.559907 0.0794127 0.
0.562862 0.0802288 0.
0.565797 0.0809479 0.
0.568501 0.0816782 0.
0.571203 0.0824714 0.
0.573736 0.0829159 0.
0.576249 0.0832823 0.
0.578665 0.0836214 0.
0.580947 0.0839487 0.
0.583234 0.084276 0.
0.585358 0.0843448 0.
0.587479 0.0844103 0.
0.58959 0.0844656 0.
0.591682 0.0845069 0.
0.593774 0.0845482 0.
0.595865 0.0845641 0.
0.597956 0.0845706 0.
0.600047 0.0845767 0.
0.602142 0.0845488 0.
0.604237 0.0845209 0.
0.606333 0.084484 0.
0.608432 0.0844266 0.
0.610532 0.0843693 0.
0.612677 0.0842781 0.
0.614841 0.0841717 0.
0.617028 0.0840443 0.
0.619415 0.0836411 0.
0.62178 0.0832482 0.
0.624295 0.0828393 0.
0.626859 0.0824202 0.
0.629511 0.0818693 0.
0.632277 0.0810799 0.
0.635091 0.0802358 0.
0.638051 0.0792423 0.
0.64104 0.0781873 0.
0.644073 0.0770681 0.
0.647128 0.0759166 0.
0.650197 0.0746388 0.
0.653278 0.0733024 0.
0.656376 0.0719243 0.
0.659469 0.0704683 0.
0.66258 0.0689819 0.
0.665699 0.0674662 0.
0.668815 0.0658754 0.
0.671934 0.0641608 0.
0.67503 0.0623304 0.
0.678118 0.0604162 0.
0.681203 0.0584511 0.
0.68425 0.0564353 0.
0.687296 0.0543933 0.
0.690337 0.0523493 0.
0.693348 0.0503259 0.
0.696365 0.0483239 0.
0.699399 0.0463101 0.
0.702445 0.0442036 0.
0.705508 0.0420192 0.
0.708588 0.0397769 0.
0.71173 0.0374941 0.
0.714988 0.0352023 0.
0.718351 0.0328786 0.
0.721863 0.0304857 0.
0.725577 0.0281656 0.
0.729485 0.0260259 0.
0.733589 0.0239831 0.
0.737838 0.022339 0.
0.742154 0.0214109 0.
0.746374 0.0211692 0.
0.453046 0.0220203 0.
0.457108 0.0224151 0.
0.461241 0.0236048 0.
0.465332 0.0254202 0.
0.46925 0.0274838 0.
0.472963 0.0297053 0.
0.476485 0.0320196 0.
0.479815 0.0343036 0.
0.482992 0.0365419 0.
0.48608 0.0387882 0.
0.489129 0.0410014 0.
0.492137 0.0431154 0.
0.49513 0.0451544 0.
0.498101 0.047174 0.
0.501054 0.0492178 0.
0.504017 0.0513063 0.
0.506986 0.0534409 0.
0.509984 0.0555665 0.
0.513004 0.0576364 0.
0.516033 0.0596217 0.
0.519085 0.0614966 0.
0.522163 0.0632569 0.
0.525253 0.0649222 0.
0.528337 0.0665847 0.
0.531443 0.0682234 0.
0.534558 0.0697994 0.
0.537653 0.0713424 0.
0.540732 0.0727984 0.
0.543808 0.0741708 0.
0.546885 0.0755122 0.
0.549941 0.076836 0.
0.552987 0.0781211 0.
0.556044 0.0793409 0.
0.559059 0.0804844 0.
0.56204 0.0814167 0.
0.565018 0.0822205 0.
0.567839 0.0830506 0.
0.570614 0.0839505 0.
0.573291 0.0845371 0.
0.57591 0.084958 0.
0.578413 0.0853619 0.
0.580718 0.0857331 0.
0.583047 0.0861093 0.
0.585222 0.0862106 0.
0.587385 0.086298 0.
0.589531 0.0863701 0.
0.591636 0.0864121 0.
0.593741 0.0864542 0.
0.595847 0.0864699 0.
0.597952 0.0864755 0.
0.600057 0.0864808 0.
0.602166 0.0864517 0.
0.604275 0.0864226 0.
0.606385 0.0863842 0.
0.608499 0.0863252 0.
0.610613 0.0862663 0.
0.612802 0.0861445 0.
0.615013 0.086003 0.
0.617265 0.085822 0.
0.619704 0.0853621 0.
0.622111 0.0849241 0.
0.624745 0.084444 0.
0.627414 0.0839667 0.
0.630208 0.083248 0.
0.633026 0.0823458 0.
0.635922 0.0813516 0.
0.638905 0.0803174 0.
0.641923 0.0792197 0.
0.644971 0.078064 0.
0.648049 0.0768618 0.
0.651119 0.0755581 0.
0.654199 0.0741986 0.
0.657296 0.0727954 0.
0.660393 0.0713335 0.
0.663489 0.0698472 0.
0.666595 0.0683147 0.
0.669706 0.0666941 0.
0.672813 0.0649629 0.
0.675895 0.0631142 0.
0.678969 0.0612057 0.
0.682026 0.0592523 0.
0.685039 0.0572584 0.
0.688039 0.0552523 0.
0.691042 0.0532454 0.
0.694007 0.0512692 0.
0.696962 0.0493169 0.
0.699916 0.0473451 0.
0.702867 0.0452942 0.
0.70584 0.0431648 0.
0.708824 0.0409813 0.
0.711846 0.038763 0.
0.714949 0.0365372 0.
0.718157 0.0342716 0.
0.72149 0.0319454 0.
0.725011 0.0296488 0.
0.728734 0.0275061 0.
0.732657 0.025464 0.
0.736732 0.0237152 0.
0.74088 0.0226243 0.
0.744972 0.0222692 0.
0.454471 0.0231593 0.
0.45841 0.0237511 0.
0.462396 0.0251253 0.
0.466292 0.026989 0.
0.470003 0.0290626 0.
0.473517 0.0312796 0.
0.476825 0.0335323 0.
0.479967 0.035749 0.
0.482996 0.0379263 0.
0.485963 0.0401047 0.
0.488894 0.0422422 0.
0.491801 0.0442967 0.
0.494698 0.046282 0.
0.497579 0.0482454 0.
0.500468 0.0502352 0.
0.503376 0.0522598 0.
0.506301 0.0543426 0.
0.509251 0.0564334 0.
0.512226 0.0584739 0.
0.515225 0.0604515 0.
0.518253 0.0623296 0.
0.521313 0.0641018 0.
0.524387 0.0657765 0.
0.527461 0.0674175 0.
0.53055 0.0690581 0.
0.533648 0.0706499 0.
0.536738 0.0721986 0.
0.539811 0.0736835 0.
0.542887 0.0750774 0.
0.54597 0.0764235 0.
0.549041 0.0777696 0.
0.552106 0.0790857 0.
0.555184 0.0803402 0.
0.558206 0.0815139 0.
0.561217 0.0825652 0.
0.564223 0.0834386 0.
0.56714 0.0843332 0.
0.569949 0.0852605 0.
0.572701 0.0859793 0.
0.575377 0.0864987 0.
0.57801 0.0870393 0.
0.580392 0.0874658 0.
0.582804 0.0879006 0.
0.585056 0.0880526 0.
0.587275 0.0881724 0.
0.589468 0.0882691 0.
0.591587 0.088312 0.
0.593707 0.0883549 0.
0.595827 0.0883703 0.
0.597947 0.0883751 0.
0.600067 0.0883794 0.
0.602192 0.0883487 0.
0.604315 0.0883181 0.
0.606442 0.0882778 0.
0.608572 0.0882171 0.
0.610702 0.0881566 0.
0.612954 0.0879906 0.
0.615232 0.0877988 0.
0.617584 0.0875351 0.
0.620111 0.0869927 0.
0.622612 0.0864745 0.
0.625336 0.0859104 0.
0.62806 0.0853817 0.
0.630939 0.0845241 0.
0.633803 0.0835337 0.
0.636764 0.0824404 0.
0.639771 0.0813708 0.
0.642809 0.0802203 0.
0.645867 0.0790322 0.
0.648953 0.0777981 0.
0.652029 0.0764738 0.
0.655114 0.0750928 0.
0.658213 0.0736655 0.
0.661306 0.0721982 0.
0.664398 0.0707109 0.
0.667491 0.0691643 0.
0.670585 0.067518 0.
0.673672 0.0657705 0.
0.676741 0.0639154 0.
0.679795 0.0620179 0.
0.682826 0.0600837 0.
0.685811 0.0581116 0.
0.688771 0.0561405 0.
0.691729 0.054178 0.
0.694655 0.0522452 0.
0.697554 0.0503454 0.
0.700437 0.0484152 0.
0.703302 0.046416 0.
0.706181 0.044348 0.
0.70907 0.0422271 0.
0.711979 0.0400706 0.
0.714938 0.0379123 0.
0.717979 0.0357221 0.
0.721139 0.0334628 0.
0.724452 0.0312142 0.
0.727964 0.029077 0.
0.731683 0.0270384 0.
0.73557 0.0252107 0.
0.739537 0.0239528 0.
0.743482 0.023434 0.
0.45593 0.0244146 0.
0.45973 0.0252196 0.
0.463538 0.026739 0.
0.46722 0.0286348 0.
0.470713 0.0307162 0.
0.473994 0.032895 0.
0.477095 0.0350768 0.
0.480064 0.0372212 0.
0.482944 0.0393268 0.
0.485792 0.0414326 0.
0.488614 0.0434976 0.
0.49143 0.0454944 0.
0.494236 0.0474268 0.
0.497041 0.0493388 0.
0.499868 0.0512716 0.
0.502725 0.0532372 0.
0.505605 0.0552657 0.
0.508505 0.057313 0.
0.511442 0.059325 0.
0.514421 0.0612915 0.
0.517425 0.063171 0.
0.520471 0.0649541 0.
0.523532 0.0666392 0.
0.526593 0.0682671 0.
0.529668 0.0699043 0.
0.532756 0.0715048 0.
0.535837 0.0730578 0.
0.538907 0.0745733 0.
0.541987 0.0759865 0.
0.545082 0.077338 0.
0.548162 0.0786948 0.
0.551237 0.0800351 0.
0.554323 0.0813257 0.
0.557363 0.0825302 0.
0.560396 0.0836594 0.
0.563423 0.0845878 0.
0.566398 0.0855181 0.
0.569243 0.0864854 0.
0.572077 0.0873595 0.
0.574822 0.0880003 0.
0.577584 0.0887 0.
0.580053 0.0891872 0.
0.58255 0.0896799 0.
0.584888 0.0898859 0.
0.587163 0.0900371 0.
0.589406 0.0901626 0.
0.59154 0.0902059 0.
0.593674 0.0902491 0.
0.595808 0.0902642 0.
0.597943 0.090268 0.
0.600078 0.0902713 0.
0.602217 0.0902394 0.
0.604356 0.0902075 0.
0.606497 0.0901657 0.
0.608644 0.0901039 0.
0.61079 0.0900423 0.
0.61311 0.0898278 0.
0.615456 0.089585 0.
0.617917 0.0892302 0.
0.620535 0.0886042 0.
0.623156 0.0879903 0.
0.625962 0.0873219 0.
0.628775 0.0866569 0.
0.631695 0.0856884 0.
0.634604 0.0846401 0.
0.637606 0.0835074 0.
0.640638 0.0823985 0.
0.643686 0.0812101 0.
0.646755 0.0799938 0.
0.649847 0.0787316 0.
0.652922 0.0773884 0.
0.656004 0.0759905 0.
0.659111 0.0745432 0.
0.662204 0.0730741 0.
0.665292 0.0715777 0.
0.668376 0.070013 0.
0.671462 0.068346 0.
0.674529 0.0665828 0.
0.677576 0.0647324 0.
0.680615 0.062846 0.
0.683622 0.0609315 0.
0.68658 0.0589873 0.
0.689508 0.0570484 0.
0.69242 0.0551347 0.
0.695309 0.0532459 0.
0.698161 0.0513899 0.
0.700987 0.049501 0.
0.703779 0.0475485 0.
0.706569 0.0455398 0.
0.709362 0.0434832 0.
0.712164 0.0413943 0.
0.715 0.0392985 0.
0.717882 0.0371873 0.
0.720857 0.0350165 0.
0.72397 0.0328205 0.
0.727248 0.030717 0.
0.730737 0.0286898 0.
0.734411 0.0268163 0.
0.738183 0.0254101 0.
0.741967 0.0246871 0.
0.457369 0.0258041 0.
0.461005 0.0268128 0.
0.464604 0.0284262 0.
0.468051 0.0303447 0.
0.471286 0.0323987 0.
0.474334 0.0345138 0.
0.47724 0.0366175 0.
0.480038 0.03868 0.
0.482788 0.0407125 0.
0.485523 0.0427453 0.
0.488252 0.0447453 0.
0.490983 0.046687 0.
0.493706 0.0485709 0.
0.49645 0.0504375 0.
0.499223 0.0523157 0.
0.502034 0.0542278 0.
0.504867 0.0561976 0.
0.507726 0.0581994 0.
0.510642 0.0601866 0.
0.513603 0.0621386 0.
0.516593 0.0640235 0.
0.51963 0.0658142 0.
0.522681 0.0675091 0.
0.525733 0.0691385 0.
0.5288 0.0707673 0.
0.531875 0.0723668 0.
0.534955 0.0739297 0.
0.538034 0.0754687 0.
0.54112 0.0768994 0.
0.544223 0.0782616 0.
0.547315 0.0796309 0.
0.550397 0.0809849 0.
0.553483 0.0822983 0.
0.556539 0.0835391 0.
0.559591 0.0847121 0.
0.562631 0.0857033 0.
0.565639 0.0866774 0.
0.568545 0.0876931 0.
0.571448 0.0886704 0.
0.574278 0.0894494 0.
0.577108 0.0902334 0.
0.579667 0.0907646 0.
0.582225 0.0912838 0.
0.58466 0.0915859 0.
0.587019 0.0918296 0.
0.589342 0.0920363 0.
0.591492 0.0920801 0.
0.593642 0.0921239 0.
0.595792 0.0921389 0.
0.597942 0.0921419 0.
0.600091 0.0921444 0.
0.602244 0.0921107 0.
0.604397 0.092077 0.
0.606553 0.0920327 0.
0.608714 0.0919682 0.
0.610874 0.0919038 0.
0.613321 0.0915684 0.
0.615774 0.0912186 0.
0.618328 0.0907611 0.
0.620975 0.0901151 0.
0.623697 0.0894462 0.
0.626575 0.0886986 0.
0.629484 0.0878779 0.
0.632444 0.0868196 0.
0.635398 0.0856947 0.
0.638426 0.0845604 0.
0.641484 0.0834135 0.
0.644542 0.0821925 0.
0.647618 0.080956 0.
0.650711 0.0796712 0.
0.653791 0.078308 0.
0.656875 0.0768892 0.
0.659981 0.0754339 0.
0.663081 0.0739652 0.
0.666173 0.0724524 0.
0.669254 0.0708658 0.
0.672334 0.0691835 0.
0.675392 0.0674012 0.
0.678419 0.0655602 0.
0.681443 0.0636888 0.
0.68443 0.0617934 0.
0.687363 0.0598788 0.
0.690266 0.0579702 0.
0.69314 0.0561055 0.
0.69599 0.0542636 0.
0.698805 0.0524438 0.
0.701582 0.0505933 0.
0.704319 0.0486789 0.
0.707035 0.0467203 0.
0.709744 0.0447256 0.
0.712448 0.0427045 0.
0.715162 0.0406749 0.
0.717918 0.0386331 0.
0.720721 0.0365594 0.
0.723627 0.0344439 0.
0.726678 0.0323837 0.
0.729912 0.0303933 0.
0.733342 0.0285059 0.
0.736897 0.0269751 0.
0.740501 0.026049 0.
0.458731 0.0273292 0.
0.462172 0.0285111 0.
0.46553 0.0301818 0.
0.468703 0.0320827 0.
0.471676 0.0340824 0.
0.474512 0.0361236 0.
0.477228 0.0381357 0.
0.479886 0.0401186 0.
0.482525 0.042082 0.
0.485167 0.0440512 0.
0.487816 0.0459938 0.
0.490468 0.0478853 0.
0.493132 0.0497277 0.
0.49583 0.0515545 0.
0.498556 0.053389 0.
0.501324 0.0552539 0.
0.504121 0.0571658 0.
0.506956 0.059122 0.
0.509862 0.0610821 0.
0.512812 0.0630187 0.
0.515792 0.0649067 0.
0.518818 0.0666986 0.
0.52186 0.0684043 0.
0.524907 0.070043 0.
0.527963 0.071657 0.
0.531032 0.0732529 0.
0.534118 0.0748271 0.
0.537202 0.0763772 0.
0.540295 0.0778274 0.
0.543406 0.0792067 0.
0.546506 0.0805834 0.
0.549589 0.0819417 0.
0.55268 0.0832713 0.
0.555756 0.0845524 0.
0.558819 0.0857519 0.
0.561871 0.0868039 0.
0.564895 0.0878241 0.
0.567854 0.0888826 0.
0.570808 0.0899015 0.
0.573677 0.090745 0.
0.57653 0.0915976 0.
0.579215 0.092258 0.
0.581865 0.0928534 0.
0.584418 0.093272 0.
0.586866 0.0936139 0.
0.589277 0.0939099 0.
0.591443 0.0939543 0.
0.59361 0.0939988 0.
0.595775 0.0940136 0.
0.59794 0.0940159 0.
0.600104 0.0940175 0.
0.602271 0.093982 0.
0.604438 0.0939465 0.
0.606609 0.0938997 0.
0.608784 0.0938323 0.
0.610959 0.0937651 0.
0.613555 0.0932893 0.
0.616139 0.0928092 0.
0.6188 0.0922191 0.
0.621494 0.0915082 0.
0.624293 0.0907557 0.
0.627197 0.0899822 0.
0.630176 0.0890532 0.
0.633174 0.0879341 0.
0.636165 0.0867516 0.
0.639205 0.0855995 0.
0.642281 0.084425 0.
0.645355 0.0831779 0.
0.648444 0.0819271 0.
0.651536 0.080623 0.
0.654619 0.0792436 0.
0.657706 0.0778025 0.
0.660816 0.0763438 0.
0.663917 0.0748767 0.
0.667011 0.0733497 0.
0.670096 0.0717384 0.
0.67317 0.0700436 0.
0.676222 0.06825 0.
0.679237 0.0664213 0.
0.682245 0.0645688 0.
0.68522 0.0626922 0.
0.688132 0.0608066 0.
0.691014 0.0589318 0.
0.69386 0.0571094 0.
0.696673 0.0553161 0.
0.699457 0.0535242 0.
0.702199 0.0517055 0.
0.704894 0.0498251 0.
0.707558 0.0479064 0.
0.710196 0.0459663 0.
0.712824 0.0440061 0.
0.715438 0.0420373 0.
0.718076 0.0400639 0.
0.720746 0.0380743 0.
0.723462 0.0360588 0.
0.72629 0.0340592 0.
0.729272 0.0321176 0.
0.732431 0.0302597 0.
0.735744 0.0286475 0.
0.739143 0.027544 0.
0.459917 0.0289762 0.
0.463128 0.0302677 0.
0.466205 0.0319524 0.
0.469103 0.033817 0.
0.471851 0.0357529 0.
0.474488 0.0377015 0.
0.477057 0.0396271 0.
0.479618 0.0415416 0.
0.482178 0.0434508 0.
0.484752 0.0453748 0.
0.487331 0.0472671 0.
0.489934 0.0491129 0.
0.492566 0.0509272 0.
0.495228 0.0527249 0.
0.497914 0.0545269 0.
0.500647 0.0563436 0.
0.503421 0.0582027 0.
0.506251 0.0601158 0.
0.509146 0.0620434 0.
0.512087 0.0639613 0.
0.515057 0.0658434 0.
0.51807 0.0676301 0.
0.521101 0.0693403 0.
0.524141 0.0709855 0.
0.527192 0.0725893 0.
0.530262 0.0741828 0.
0.533348 0.0757625 0.
0.536437 0.0773161 0.
0.539534 0.0787857 0.
0.542646 0.0801816 0.
0.54574 0.0815544 0.
0.548831 0.0829111 0.
0.551936 0.08426 0.
0.555017 0.0855743 0.
0.55808 0.0867911 0.
0.561144 0.0878964 0.
0.564184 0.0889555 0.
0.567185 0.0900279 0.
0.570158 0.0910594 0.
0.573062 0.0919909 0.
0.575947 0.0929292 0.
0.57875 0.0937239 0.
0.581492 0.0943899 0.
0.584169 0.0949247 0.
0.586704 0.0953578 0.
0.589207 0.0957592 0.
0.591391 0.0958037 0.
0.593577 0.0958483 0.
0.595759 0.0958633 0.
0.597939 0.0958654 0.
0.60012 0.0958669 0.
0.602301 0.0958305 0.
0.604482 0.0957943 0.
0.606668 0.0957456 0.
0.608859 0.095676 0.
0.611049 0.0956067 0.
0.613797 0.094975 0.
0.616518 0.0943689 0.
0.619274 0.0936533 0.
0.622015 0.09288 0.
0.624896 0.0920336 0.
0.627824 0.0912007 0.
0.630844 0.0901691 0.
0.633879 0.089014 0.
0.636899 0.0878116 0.
0.639948 0.0866459 0.
0.643025 0.0854448 0.
0.646112 0.0841831 0.
0.649208 0.0829165 0.
0.652304 0.0815972 0.
0.655391 0.080206 0.
0.65848 0.0787476 0.
0.661588 0.0772851 0.
0.66469 0.0758187 0.
0.667788 0.0742794 0.
0.670865 0.0726514 0.
0.673932 0.0709455 0.
0.676986 0.0691497 0.
0.679996 0.0673372 0.
0.682988 0.0655111 0.
0.685948 0.0636584 0.
0.688845 0.0617986 0.
0.691707 0.0599632 0.
0.694536 0.0581761 0.
0.69732 0.0564256 0.
0.700076 0.05466 0.
0.702792 0.0528657 0.
0.70546 0.0510138 0.
0.70809 0.0491279 0.
0.710685 0.0472311 0.
0.713256 0.0453252 0.
0.715802 0.0434063 0.
0.718348 0.0414892 0.
0.720917 0.0395714 0.
0.7235 0.0376429 0.
0.726126 0.035727 0.
0.728872 0.0338351 0.
0.731767 0.0320269 0.
0.734819 0.0304 0.
0.737987 0.0291602 0.
0.460839 0.0306901 0.
0.463789 0.0320443 0.
0.466597 0.0337376 0.
0.469268 0.0355626 0.
0.471813 0.0374197 0.
0.4743 0.0392793 0.
0.476785 0.0411392 0.
0.479282 0.0430032 0.
0.481793 0.0448815 0.
0.484318 0.0467708 0.
0.486855 0.0486189 0.
0.489446 0.0504307 0.
0.492062 0.0522224 0.
0.494694 0.0540018 0.
0.497351 0.0557727 0.
0.500058 0.0575354 0.
0.502826 0.0593495 0.
0.505653 0.0612175 0.
0.508536 0.0631086 0.
0.511466 0.0650047 0.
0.514424 0.0668679 0.
0.517423 0.068641 0.
0.520443 0.0703477 0.
0.523476 0.0719924 0.
0.526525 0.0735894 0.
0.529599 0.0751753 0.
0.532682 0.0767571 0.
0.535773 0.0783167 0.
0.538869 0.0797969 0.
0.541976 0.0812044 0.
0.545069 0.0825737 0.
0.548168 0.0839247 0.
0.551283 0.0852893 0.
0.55436 0.0866322 0.
0.557425 0.0878582 0.
0.560505 0.0889945 0.
0.563562 0.0900861 0.
0.566566 0.0911696 0.
0.569549 0.0922243 0.
0.572492 0.0932206 0.
0.575423 0.0942318 0.
0.578344 0.0951293 0.
0.581156 0.0958274 0.
0.583899 0.0964648 0.
0.586521 0.0970389 0.
0.589129 0.0975897 0.
0.591334 0.0976359 0.
0.593541 0.0976822 0.
0.595742 0.0976984 0.
0.59794 0.0977011 0.
0.600138 0.0977029 0.
0.602334 0.0976656 0.
0.604529 0.0976284 0.
0.606733 0.0975771 0.
0.608942 0.0975038 0.
0.611158 0.0974223 0.
0.613999 0.0965595 0.
0.616806 0.095797 0.
0.619643 0.0950388 0.
0.622472 0.0942317 0.
0.625444 0.0933 0.
0.628412 0.0923976 0.
0.63145 0.0912847 0.
0.634504 0.0901004 0.
0.63755 0.0888926 0.
0.640609 0.0877129 0.
0.643685 0.0864971 0.
0.646765 0.0852353 0.
0.64987 0.0839472 0.
0.652974 0.0826138 0.
0.65606 0.081221 0.
0.659153 0.0797488 0.
0.662264 0.0782802 0.
0.665367 0.0768153 0.
0.668459 0.0752721 0.
0.671531 0.0736322 0.
0.674585 0.071921 0.
0.677635 0.0701351 0.
0.680649 0.0683446 0.
0.683626 0.0665495 0.
0.68657 0.0647317 0.
0.689459 0.0628911 0.
0.692302 0.0610965 0.
0.69512 0.0593459 0.
0.697884 0.0576337 0.
0.700617 0.0558995 0.
0.703311 0.054123 0.
0.705964 0.0522933 0.
0.708582 0.0504389 0.
0.711157 0.0485755 0.
0.713695 0.046718 0.
0.716202 0.0448477 0.
0.718691 0.0429698 0.
0.72118 0.0411112 0.
0.723679 0.0392455 0.
0.726165 0.0374036 0.
0.728709 0.0355732 0.
0.731374 0.0338053 0.
0.734176 0.0321835 0.
0.737097 0.0308454 0.
CELLS 5000 10000
1 0
1 1
1 2
1 3
1 4
1 5
1 6
1 7
1 8
1 9
1 10
1 11
1 12
1 13
1 14
1 15
1 16
1 17
1 18
1 19
1 20
1 21
1 22
1 23
1 24
1 25
1 26
1 27
1 28
1 29
1 30
1 31
1 32
1 33
1 34
1 35
1 36
1 37
1 38
1 39
1 40
1 41
1 42
1 43
1 44
1 45
1 46
1 47
1 48
1 49
1 50
1 51
1 52
1 53
1 54
1 55
1 56
1 57
1 58
1 59
1 60
1 61
1 62
1 63
1 64
1 65
1 66
1 67
1 68
1 69
1 70
1 71
1 72
1 73
1 74
1 75
1 76
1 77
1 78
1 79
1 80
1 81
1 82
1 83
1 84
1 85
1 86
1 87
1 88
1 89
1 90
1 91
1 92
1 93
1 94
1 95
1 96
1 97
1 98
1 99
1 100
1 101
1 102
1 103
1 104
1 105
1 106
1 107
1 108
1 109
1 110
1 111
1 112
1 113
1 114
1 115
1 116
1 117
1 118
1 119
1 120
1 121
1 122
1 123
1 124
1 125
1 126
1 127
1 128
1 129
1 130
1 131
1 132
1 133
1 134
1 135
1 136
1 137
1 138
1 139
1 140
1 141
1 142
1 143
1 144
1 145
1 146
1 147
1 148
1 149
1 150
1 151
1 152
1 153
1 154
1 155
1 156
1 157
1 158
1 159
1 160
1 161
1 162
1 163
1 164
1 165
1 166
1 167
1 168
1 169
1 170
1 171
1 172
1 173
1 174
1 175
1 176
1 177
1 178
1 179
1 180
1 181
1 182
1 183
1 184
1 185
1 186
1 187
1 188
1 189
1 190
1 191
1 192
1 193
1 194
1 195
1 196
1 197
1 198
1 199
1 200
1 201
1 202
1 203
1 204
1 205
1 206
1 207
1 208
1 209
1 210
1 211
1 212
1 213
1 214
1 215
1 216
1 217
1 218
1 219
1 220
1 221
1 222
1 223
1 224
1 225
1 226
1 227
1 228
1 229
1 230
1 231
1 232
1 233
1 234
1 235
1 236
1 237
1 238
1 239
1 240
1 241
1 242
1 243
1 244
1 245
1 246
1 247
1 248
1 249
1 250
1 251
1 252
1 253
1 254
1 255
1 256
1 257
1 258
1 259
1 260
1 261
1 262
1 263
1 264
1 265
1 266
1 267
1 268
1 269
1 270
1 271
1 272
1 273
1 274
1 275
1 276
1 277
1 278
1 279
1 280
1 281
1 282
1 283
1 284
1 285
1 286
1 287
1 288
1 289
1 290
1 291
1 292
1 293
1 294
1 295
1 296
1 297
1 298
1 299
1 300
1 301
1 302
1 303
1 304
1 305
1 306
1 307
1 308
1 309
1 310
1 311
1 312
1 313
1 314
1 315
1 316
1 317
1 318
1 319
1 320
1 321
1 322
1 323
1 324
1 325
1 326
1 327
1 328
1 329
1 330
1 331
1 332
1 333
1 334
1 335
1 336
1 337
1 338
1 339
1 340
1 341
1 342
1 343
1 344
1 345
1 346
1 347
1 348
1 349
1 350
1 351
1 352
1 353
1 354
1 355
1 356
1 357
1 358
1 359
1 360
1 361
1 362
1 363
1 364
1 365
1 366
1 367
1 368
1 369
1 370
1 371
1 372
1 373
1 374
1 375
1 376
1 377
1 378
1 379
1 380
1 381
1 382
1 383
1 384
1 385
1 386
1 387
1 388
1 389
1 390
1 391
1 392
1 393
1 394
1 395
1 396
1 397
1 398
1 399
1 400
1 401
1 402
1 403
1 404
1 405
1 406
1 407
1 408
1 409
1 410
1 411
1 412
1 413
1 414
1 415
1 416
1 417
1 418
1 419
1 420
1 421
1 422
1 423
1 424
1 425
1 426
1 427
1 428
1 429
1 430
1 431
1 432
1 433
1 434
1 435
1 436
1 437
1 438
1 439
1 440
1 441
1 442
1 443
1 444
1 445
1 446
1 447
1 448
1 449
1 450
1 451
1 452
1 453
1 454
1 455
1 456
1 457
1 458
1 459
1 460
1 461
1 462
1 463
1 464
1 465
1 466
1 467
1 468
1 469
1 470
1 471
1 472
1 473
1 474
1 475
1 476
1 477
1 478
1 479
1 480
1 481
1 482
1 483
1 484
1 485
1 486
1 487
1 488
1 489
1 490
1 491
1 492
1 493
1 494
1 495
1 496
1 497
1 498
1 499
1 500
1 501
1 502
1 503
1 504
1 505
1 506
1 507
1 508
1 509
1 510
1 511
1 512
1 513
1 514
1 515
1 516
1 517
1 518
1 519
1 520
1 521
1 522
1 523
1 524
1 525
1 526
1 527
1 528
1 529
1 530
1 531
1 532
1 533
1 534
1 535
1 536
1 537
1 538
1 539
1 540
1 541
1 542
1 543
1 544
1 545
1 546
1 547
1 548
1 549
1 550
1 551
1 552
1 553
1 554
1 555
1 556
1 557
1 558
1 559
1 560
1 561
1 562
1 563
1 564
1 565
1 566
1 567
1 568
1 569
1 570
1 571
1 572
1 573
1 574
1 575
1 576
1 577
1 578
1 579
1 580
1 581
1 582
1 583
1 584
1 585
1 586
1 587
1 588
1 589
1 590
1 591
1 592
1 593
1 594
1 595
1 596
1 597
1 598
1 599
1 600
1 601
1 602
1 603
1 604
1 605
1 606
1 607
1 608
1 609
1 610
1 611
1 612
1 613
1 614
1 615
1 616
1 617
1 618
1 619
1 620
1 621
1 622
1 623
1 624
1 625
1 626
1 627
1 628
1 629
1 630
1 631
1 632
1 633
1 634
1 635
1 636
1 637
1 638
1 639
1 640
1 641
1 642
1 643
1 644
1 645
1 646
1 647
1 648
1 649
1 650
1 651
1 652
1 653
1 654
1 655
1 656
1 657
1 658
1 659
1 660
1 661
1 662
1 663
1 664
1 665
1 666
1 667
1 668
1 669
1 670
1 671
1 672
1 673
1 674
1 675
1 676
1 677
1 678
1 679
1 680
1 681
1 682
1 683
1 684
1 685
1 686
1 687
1 688
1 689
1 690
1 691
1 692
1 693
1 694
1 695
1 696
1 697
1 698
1 699
1 700
1 701
1 702
1 703
1 704
1 705
1 706
1 707
1 708
1 709
1 710
1 711
1 712
1 713
1 714
1 715
1 716
1 717
1 718
1 719
1 720
1 721
1 722
1 723
1 724
1 725
1 726
1 727
1 728
1 729
1 730
1 731
1 732
1 733
1 734
1 735
1 736
1 737
1 738
1 739
1 740
1 741
1 742
1 743
1 744
1 745
1 746
1 747
1 748
1 749
1 750
1 751
1 752
1 753
1 754
1 755
1 756
1 757
1 758
1 759
1 760
1 761
1 762
1 763
1 764
1 765
1 766
1 767
1 768
1 769
1 770
1 771
1 772
1 773
1 774
1 775
1 776
1 777
1 778
1 779
1 780
1 781
1 782
1 783
1 784
1 785
1 786
1 787
1 788
1 789
1 790
1 791
1 792
1 793
1 794
1 795
1 796
1 797
1 798
1 799
1 800
1 801
1 802
1 803
1 804
1 805
1 806
1 807
1 808
1 809
1 810
1 811
1 812
1 813
1 814
1 815
1 816
1 817
1 818
1 819
1 820
1 821
1 822
1 823
1 824
1 825
1 826
1 827
1 828
1 829
1 830
1 831
1 832
1 833
1 834
1 835
1 836
1 837
1 838
1 839
1 840
1 841
1 842
1 843
1 844
1 845
1 846
1 847
1 848
1 849
1 850
1 851
1 852
1 853
1 854
1 855
1 856
1 857
1 858
1 859
1 860
1 861
1 862
1 863
1 864
1 865
1 866
1 867
1 868
1 869
1 870
1 871
1 872
1 873
1 874
1 875
1 876
1 877
1 878
1 879
1 880
1 881
1 882
1 883
1 884
1 885
1 886
1 887
1 888
1 889
1 890
1 891
1 892
1 893
1 894
1 895
1 896
1 897
1 898
1 899
1 900
1 901
1 902
1 903
1 904
1 905
1 906
1 907
1 908
1 909
1 910
1 911
1 912
1 913
1 914
1 915
1 916
1 917
1 918
1 919
1 920
1 921
1 922
1 923
1 924
1 925
1 926
1 927
1 928
1 929
1 930
1 931
1 932
1 933
1 934
1 935
1 936
1 937
1 938
1 939
1 940
1 941
1 942
1 943
1 944
1 945
1 946
1 947
1 948
1 949
1 950
1 951
1 952
1 953
1 954
1 955
1 956
1 957
1 958
1 959
1 960
1 961
1 962
1 963
1 964
1 965
1 966
1 967
1 968
1 969
1 970
1 971
1 972
1 973
1 974
1 975
1 976
1 977
1 978
1 979
1 980
1 981
1 982
1 983
1 984
1 985
1 986
1 987
1 988
1 989
1 990
1 991
1 992
1 993
1 994
1 995
1 996
1 997
1 998
1 999
1 1000
1 1001
1 1002
1 1003
1 1004
1 1005
1 1006
1 1007
1 1008
1 1009
1 1010
1 1011
1 1012
1 1013
1 1014
1 1015
1 1016
1 1017
1 1018
1 1019
1 1020
1 1021
1 1022
1 1023
1 1024
1 1025
1 1026
1 1027
1 1028
1 1029
1 1030
1 1031
1 1032
1 1033
1 1034
1 1035
1 1036
1 1037
1 1038
1 1039
1 1040
1 1041
1 1042
1 1043
1 1044
1 1045
1 1046
1 1047
1 1048
1 1049
1 1050
1 1051
1 1052
1 1053
1 1054
1 1055
1 1056
1 1057
1 1058
1 1059
1 1060
1 1061
1 1062
1 1063
1 1064
1 1065
1 1066
1 1067
1 1068
1 1069
1 1070
1 1071
1 1072
1 1073
1 1074
1 1075
1 1076
1 1077
1 1078
1 1079
1 1080
1 1081
1 1082
1 1083
1 1084
1 1085
1 1086
1 1087
1 1088
1 1089
1 1090
1 1091
1 1092
1 1093
1 1094
1 1095
1 1096
1 1097
1 1098
1 1099
1 1100
1 1101
1 1102
1 1103
1 1104
1 1105
1 1106
1 1107
1 1108
1 1109
1 1110
1 1111
1 1112
1 1113
1 1114
1 1115
1 1116
1 1117
1 1118
1 1119
1 1120
1 1121
1 1122
1 1123
1 1124
1 1125
1 1126
1 1127
1 1128
1 1129
1 1130
1 1131
1 1132
1 1133
1 1134
1 1135
1 1136
1 1137
1 1138
1 1139
1 1140
1 1141
1 1142
1 1143
1 1144
1 1145
1 1146
1 1147
1 1148
1 1149
1 1150
1 1151
1 1152
1 1153
1 1154
1 1155
1 1156
1 1157
1 1158
1 1159
1 1160
1 1161
1 1162
1 1163
1 1164
1 1165
1 1166
1 1167
1 1168
1 1169
1 1170
1 1171
1 1172
1 1173
1 1174
1 1175
1 1176
1 1177
1 1178
1 1179
1 1180
1 1181
1 1182
1 1183
1 1184
1 1185
1 1186
1 1187
1 1188
1 1189
1 1190
1 1191
1 1192
1 1193
1 1194
1 1195
1 1196
1 1197
1 1198
1 1199
1 1200
1 1201
1 1202
1 1203
1 1204
1 1205
1 1206
1 1207
1 1208
1 1209
1 1210
1 1211
1 1212
1 1213
1 1214
1 1215
1 1216
1 1217
1 1218
1 1219
1 1220
1 1221
1 1222
1 1223
1 1224
1 1225
1 1226
1 1227
1 1228
1 1229
1 1230
1 1231
1 1232
1 1233
1 1234
1 1235
1 1236
1 1237
1 1238
1 1239
1 1240
1 1241
1 1242
1 1243
1 1244
1 1245
1 1246
1 1247
1 1248
1 1249
1 1250
1 1251
1 1252
1 1253
1 1254
1 1255
1 1256
1 1257
1 1258
1 1259
1 1260
1 1261
1 1262
1 1263
1 1264
1 1265
1 1266
1 1267
1 1268
1 1269
1 1270
1 1271
1 1272
1 1273
1 1274
1 1275
1 1276
1 1277
1 1278
1 1279
1 1280
1 1281
1 1282
1 1283
1 1284
1 1285
1 1286
1 1287
1 1288
1 1289
1 1290
1 1291
1 1292
1 1293
1 1294
1 1295
1 1296
1 1297
1 1298
1 1299
1 1300
1 1301
1 1302
1 1303
1 1304
1 1305
1 1306
1 1307
1 1308
1 1309
1 1310
1 1311
1 1312
1 1313
1 1314
1 1315
1 1316
1 1317
1 1318
1 1319
1 1320
1 1321
1 1322
1 1323
1 1324
1 1325
1 1326
1 1327
1 1328
1 1329
1 1330
1 1331
1 1332
1 1333
1 1334
1 1335
1 1336
1 1337
1 1338
1 1339
1 1340
1 1341
1 1342
1 1343
1 1344
1 1345
1 1346
1 1347
1 1348
1 1349
1 1350
1 1351
1 1352
1 1353
1 1354
1 1355
1 1356
1 1357
1 1358
1 1359
1 1360
1 1361
1 1362
1 1363
1 1364
1 1365
1 1366
1 1367
1 1368
1 1369
1 1370
1 1371
1 1372
1 1373
1 1374
1 1375
1 1376
1 1377
1 1378
1 1379
1 1380
1 1381
1 1382
1 1383
1 1384
1 1385
1 1386
1 1387
1 1388
1 1389
1 1390
1 1391
1 1392
1 1393
1 1394
1 1395
1 1396
1 1397
1 1398
1 1399
1 1400
1 1401
1 1402
1 1403
1 1404
1 1405
1 1406
1 1407
1 1408
1 1409
1 1410
1 1411
1 1412
1 1413
1 1414
1 1415
1 1416
1 1417
1 1418
1 1419
1 1420
1 1421
1 1422
1 1423
1 1424
1 1425
1 1426
1 1427
1 1428
1 1429
1 1430
1 1431
1 1432
1 1433
1 1434
1 1435
1 1436
1 1437
1 1438
1 1439
1 1440
1 1441
1 1442
1 1443
1 1444
1 1445
1 1446
1 1447
1 1448
1 1449
1 1450
1 1451
1 1452
1 1453
1 1454
1 1455
1 1456
1 1457
1 1458
1 1459
1 1460
1 1461
1 1462
1 1463
1 1464
1 1465
1 1466
1 1467
1 1468
1 1469
1 1470
1 1471
1 1472
1 1473
1 1474
1 1475
1 1476
1 1477
1 1478
1 1479
1 1480
1 1481
1 1482
1 1483
1 1484
1 1485
1 1486
1 1487
1 1488
1 1489
1 1490
1 1491
1 1492
1 1493
1 1494
1 1495
1 1496
1 1497
1 1498
1 1499
1 1500
1 1501
1 1502
1 1503
1 1504
1 1505
1 1506
1 1507
1 1508
1 1509
1 1510
1 1511
1 1512
1 1513
1 1514
1 1515
1 1516
1 1517
1 1518
1 1519
1 1520
1 1521
1 1522
1 1523
1 1524
1 1525
1 1526
1 1527
1 1528
1 1529
1 1530
1 1531
1 1532
1 1533
1 1534
1 1535
1 1536
1 1537
1 1538
1 1539
1 1540
1 1541
1 1542
1 1543
1 1544
1 1545
1 1546
1 1547
1 1548
1 1549
1 1550
1 1551
1 1552
1 1553
1 1554
1 1555
1 1556
1 1557
1 1558
1 1559
1 1560
1 1561
1 1562
1 1563
1 1564
1 1565
1 1566
1 1567
1 1568
1 1569
1 1570
1 1571
1 1572
1 1573
1 1574
1 1575
1 1576
1 1577
1 1578
1 1579
1 1580
1 1581
1 1582
1 1583
1 1584
1 1585
1 1586
1 1587
1 1588
1 1589
1 1590
1 1591
1 1592
1 1593
1 1594
1 1595
1 1596
1 1597
1 1598
1 1599
1 1600
1 1601
1 1602
1 1603
1 1604
1 1605
1 1606
1 1607
1 1608
1 1609
1 1610
1 1611
1 1612
1 1613
1 1614
1 1615
1 1616
1 1617
1 1618
1 1619
1 1620
1 1621
1 1622
1 1623
1 1624
1 1625
1 1626
1 1627
1 1628
1 1629
1 1630
1 1631
1 1632
1 1633
1 1634
1 1635
1 1636
1 1637
1 1638
1 1639
1 1640
1 1641
1 1642
1 1643
1 1644
1 1645
1 1646
1 1647
1 1648
1 1649
1 1650
1 1651
1 1652
1 1653
1 1654
1 1655
1 1656
1 1657
1 1658
1 1659
1 1660
1 1661
1 1662
1 1663
1 1664
1 1665
1 1666
1 1667
1 1668
1 1669
1 1670
1 1671
1 1672
1 1673
1 1674
1 1675
1 1676
1 1677
1 1678
1 1679
1 1680
1 1681
1 1682
1 1683
1 1684
1 1685
1 1686
1 1687
1 1688
1 1689
1 1690
1 1691
1 1692
1 1693
1 1694
1 1695
1 1696
1 1697
1 1698
1 1699
1 1700
1 1701
1 1702
1 1703
1 1704
1 1705
1 1706
1 1707
1 1708
1 1709
1 1710
1 1711
1 1712
1 1713
1 1714
1 1715
1 1716
1 1717
1 1718
1 1719
1 1720
1 1721
1 1722
1 1723
1 1724
1 1725
1 1726
1 1727
1 1728
1 1729
1 1730
1 1731
1 1732
1 1733
1 1734
1 1735
1 1736
1 1737
1 1738
1 1739
1 1740
1 1741
1 1742
1 1743
1 1744
1 1745
1 1746
1 1747
1 1748
1 1749
1 1750
1 1751
1 1752
1 1753
1 1754
1 1755
1 1756
1 1757
1 1758
1 1759
1 1760
1 1761
1 1762
1 1763
1 1764
1 1765
1 1766
1 1767
1 1768
1 1769
1 1770
1 1771
1 1772
1 1773
1 1774
1 1775
1 1776
1 1777
1 1778
1 1779
1 1780
1 1781
1 1782
1 1783
1 1784
1 1785
1 1786
1 1787
1 1788
1 1789
1 1790
1 1791
1 1792
1 1793
1 1794
1 1795
1 1796
1 1797
1 1798
1 1799
1 1800
1 1801
1 1802
1 1803
1 1804
1 1805
1 1806
1 1807
1 1808
1 1809
1 1810
1 1811
1 1812
1 1813
1 1814
1 1815
1 1816
1 1817
1 1818
1 1819
1 1820
1 1821
1 1822
1 1823
1 1824
1 1825
1 1826
1 1827
1 1828
1 1829
1 1830
1 1831
1 1832
1 1833
1 1834
1 1835
1 1836
1 1837
1 1838
1 1839
1 1840
1 1841
1 1842
1 1843
1 1844
1 1845
1 1846
1 1847
1 1848
1 1849
1 1850
1 1851
1 1852
1 1853
1 1854
1 1855
1 1856
1 1857
1 1858
1 1859
1 1860
1 1861
1 1862
1 1863
1 1864
1 1865
1 1866
1 1867
1 1868
1 1869
1 1870
1 1871
1 1872
1 1873
1 1874
1 1875
1 1876
1 1877
1 1878
1 1879
1 1880
1 1881
1 1882
1 1883
1 1884
1 1885
1 1886
1 1887
1 1888
1 1889
1 1890
1 1891
1 1892
1 1893
1 1894
1 1895
1 1896
1 1897
1 1898
1 1899
1 1900
1 1901
1 1902
1 1903
1 1904
1 1905
1 1906
1 1907
1 1908
1 1909
1 1910
1 1911
1 1912
1 1913
1 1914
1 1915
1 1916
1 1917
1 1918
1 1919
1 1920
1 1921
1 1922
1 1923
1 1924
1 1925
1 1926
1 1927
1 1928
1 1929
1 1930
1 1931
1 1932
1 1933
1 1934
1 1935
1 1936
1 1937
1 1938
1 1939
1 1940
1 1941
1 1942
1 1943
1 1944
1 1945
1 1946
1 1947
1 1948
1 1949
1 1950
1 1951
1 1952
1 1953
1 1954
1 1955
1 1956
1 1957
1 1958
1 1959
1 1960
1 1961
1 1962
1 1963
1 1964
1 1965
1 1966
1 1967
1 1968
1 1969
1 1970
1 1971
1 1972
1 1973
1 1974
1 1975
1 1976
1 1977
1 1978
1 1979
1 1980
1 1981
1 1982
1 1983
1 1984
1 1985
1 1986
1 1987
1 1988
1 1989
1 1990
1 1991
1 1992
1 1993
1 1994
1 1995
1 1996
1 1997
1 1998
1 1999
1 2000
1 2001
1 2002
1 2003
1 2004
1 2005
1 2006
1 2007
1 2008
1 2009
1 2010
1 2011
1 2012
1 2013
1 2014
1 2015
1 2016
1 2017
1 2018
1 2019
1 2020
1 2021
1 2022
1 2023
1 2024
1 2025
1 2026
1 2027
1 2028
1 2029
1 2030
1 2031
1 2032
1 2033
1 2034
1 2035
1 2036
1 2037
1 2038
1 2039
1 2040
1 2041
1 2042
1 2043
1 2044
1 2045
1 2046
1 2047
1 2048
1 2049
1 2050
1 2051
1 2052
1 2053
1 2054
1 2055
1 2056
1 2057
1 2058
1 2059
1 2060
1 2061
1 2062
1 2063
1 2064
1 2065
1 2066
1 2067
1 2068
1 2069
1 2070
1 2071
1 2072
1 2073
1 2074
1 2075
1 2076
1 2077
1 2078
1 2079
1 2080
1 2081
1 2082
1 2083
1 2084
1 2085
1 2086
1 2087
1 2088
1 2089
1 2090
1 2091
1 2092
1 2093
1 2094
1 2095
1 2096
1 2097
1 2098
1 2099
1 2100
1 2101
1 2102
1 2103
1 2104
1 2105
1 2106
1 2107
1 2108
1 2109
1 2110
1 2111
1 2112
1 2113
1 2114
1 2115
1 2116
1 2117
1 2118
1 2119
1 2120
1 2121
1 2122
1 2123
1 2124
1 2125
1 2126
1 2127
1 2128
1 2129
1 2130
1 2131
1 2132
1 2133
1 2134
1 2135
1 2136
1 2137
1 2138
1 2139
1 2140
1 2141
1 2142
1 2143
1 2144
1 2145
1 2146
1 2147
1 2148
1 2149
1 2150
1 2151
1 2152
1 2153
1 2154
1 2155
1 2156
1 2157
1 2158
1 2159
1 2160
1 2161
1 2162
1 2163
1 2164
1 2165
1 2166
1 2167
1 2168
1 2169
1 2170
1 2171
1 2172
1 2173
1 2174
1 2175
1 2176
1 2177
1 2178
1 2179
1 2180
1 2181
1 2182
1 2183
1 2184
1 2185
1 2186
1 2187
1 2188
1 2189
1 2190
1 2191
1 2192
1 2193
1 2194
1 2195
1 2196
1 2197
1 2198
1 2199
1 2200
1 2201
1 2202
1 2203
1 2204
1 2205
1 2206
1 2207
1 2208
1 2209
1 2210
1 2211
1 2212
1 2213
1 2214
1 2215
1 2216
1 2217
1 2218
1 2219
1 2220
1 2221
1 2222
1 2223
1 2224
1 2225
1 2226
1 2227
1 2228
1 2229
1 2230
1 2231
1 2232
1 2233
1 2234
1 2235
1 2236
1 2237
1 2238
1 2239
1 2240
1 2241
1 2242
1 2243
1 2244
1 2245
1 2246
1 2247
1 2248
1 2249
1 2250
1 2251
1 2252
1 2253
1 2254
1 2255
1 2256
1 2257
1 2258
1 2259
1 2260
1 2261
1 2262
1 2263
1 2264
1 2265
1 2266
1 2267
1 2268
1 2269
1 2270
1 2271
1 2272
1 2273
1 2274
1 2275
1 2276
1 2277
1 2278
1 2279
1 2280
1 2281
1 2282
1 2283
1 2284
1 2285
1 2286
1 2287
1 2288
1 2289
1 2290
1 2291
1 2292
1 2293
1 2294
1 2295
1 2296
1 2297
1 2298
1 2299
1 2300
1 2301
1 2302
1 2303
1 2304
1 2305
1 2306
1 2307
1 2308
1 2309
1 2310
1 2311
1 2312
1 2313
1 2314
1 2315
1 2316
1 2317
1 2318
1 2319
1 2320
1 2321
1 2322
1 2323
1 2324
1 2325
1 2326
1 2327
1 2328
1 2329
1 2330
1 2331
1 2332
1 2333
1 2334
1 2335
1 2336
1 2337
1 2338
1 2339
1 2340
1 2341
1 2342
1 2343
1 2344
1 2345
1 2346
1 2347
1 2348
1 2349
1 2350
1 2351
1 2352
1 2353
1 2354
1 2355
1 2356
1 2357
1 2358
1 2359
1 2360
1 2361
1 2362
1 2363
1 2364
1 2365
1 2366
1 2367
1 2368
1 2369
1 2370
1 2371
1 2372
1 2373
1 2374
1 2375
1 2376
1 2377
1 2378
1 2379
1 2380
1 2381
1 2382
1 2383
1 2384
1 2385
1 2386
1 2387
1 2388
1 2389
1 2390
1 2391
1 2392
1 2393
1 2394
1 2395
1 2396
1 2397
1 2398
1 2399
1 2400
1 2401
1 2402
1 2403
1 2404
1 2405
1 2406
1 2407
1 2408
1 2409
1 2410
1 2411
1 2412
1 2413
1 2414
1 2415
1 2416
1 2417
1 2418
1 2419
1 2420
1 2421
1 2422
1 2423
1 2424
1 2425
1 2426
1 2427
1 2428
1 2429
1 2430
1 2431
1 2432
1 2433
1 2434
1 2435
1 2436
1 2437
1 2438
1 2439
1 2440
1 2441
1 2442
1 2443
1 2444
1 2445
1 2446
1 2447
1 2448
1 2449
1 2450
1 2451
1 2452
1 2453
1 2454
1 2455
1 2456
1 2457
1 2458
1 2459
1 2460
1 2461
1 2462
1 2463
1 2464
1 2465
1 2466
1 2467
1 2468
1 2469
1 2470
1 2471
1 2472
1 2473
1 2474
1 2475
1 2476
1 2477
1 2478
1 2479
1 2480
1 2481
1 2482
1 2483
1 2484
1 2485
1 2486
1 2487
1 2488
1 2489
1 2490
1 2491
1 2492
1 2493
1 2494
1 2495
1 2496
1 2497
1 2498
1 2499
1 2500
1 2501
1 2502
1 2503
1 2504
1 2505
1 2506
1 2507
1 2508
1 2509
1 2510
1 2511
1 2512
1 2513
1 2514
1 2515
1 2516
1 2517
1 2518
1 2519
1 2520
1 2521
1 2522
1 2523
1 2524
1 2525
1 2526
1 2527
1 2528
1 2529
1 2530
1 2531
1 2532
1 2533
1 2534
1 2535
1 2536
1 2537
1 2538
1 2539
1 2540
1 2541
1 2542
1 2543
1 2544
1 2545
1 2546
1 2547
1 2548
1 2549
1 2550
1 2551
1 2552
1 2553
1 2554
1 2555
1 2556
1 2557
1 2558
1 2559
1 2560
1 2561
1 2562
1 2563
1 2564
1 2565
1 2566
1 2567
1 2568
1 2569
1 2570
1 2571
1 2572
1 2573
1 2574
1 2575
1 2576
1 2577
1 2578
1 2579
1 2580
1 2581
1 2582
1 2583
1 2584
1 2585
1 2586
1 2587
1 2588
1 2589
1 2590
1 2591
1 2592
1 2593
1 2594
1 2595
1 2596
1 2597
1 2598
1 2599
1 2600
1 2601
1 2602
1 2603
1 2604
1 2605
1 2606
1 2607
1 2608
1 2609
1 2610
1 2611
1 2612
1 2613
1 2614
1 2615
1 2616
1 2617
1 2618
1 2619
1 2620
1 2621
1 2622
1 2623
1 2624
1 2625
1 2626
1 2627
1 2628
1 2629
1 2630
1 2631
1 2632
1 2633
1 2634
1 2635
1 2636
1 2637
1 2638
1 2639
1 2640
1 2641
1 2642
1 2643
1 2644
1 2645
1 2646
1 2647
1 2648
1 2649
1 2650
1 2651
1 2652
1 2653
1 2654
1 2655
1 2656
1 2657
1 2658
1 2659
1 2660
1 2661
1 2662
1 2663
1 2664
1 2665
1 2666
1 2667
1 2668
1 2669
1 2670
1 2671
1 2672
1 2673
1 2674
1 2675
1 2676
1 2677
1 2678
1 2679
1 2680
1 2681
1 2682
1 2683
1 2684
1 2685
1 2686
1 2687
1 2688
1 2689
1 2690
1 2691
1 2692
1 2693
1 2694
1 2695
1 2696
1 2697
1 2698
1 2699
1 2700
1 2701
1 2702
1 2703
1 2704
1 2705
1 2706
1 2707
1 2708
1 2709
1 2710
1 2711
1 2712
1 2713
1 2714
1 2715
1 2716
1 2717
1 2718
1 2719
1 2720
1 2721
1 2722
1 2723
1 2724
1 2725
1 2726
1 2727
1 2728
1 2729
1 2730
1 2731
1 2732
1 2733
1 2734
1 2735
1 2736
1 2737
1 2738
1 2739
1 2740
1 2741
1 2742
1 2743
1 2744
1 2745
1 2746
1 2747
1 2748
1 2749
1 2750
1 2751
1 2752
1 2753
1 2754
1 2755
1 2756
1 2757
1 2758
1 2759
1 2760
1 2761
1 2762
1 2763
1 2764
1 2765
1 2766
1 2767
1 2768
1 2769
1 2770
1 2771
1 2772
1 2773
1 2774
1 2775
1 2776
1 2777
1 2778
1 2779
1 2780
1 2781
1 2782
1 2783
1 2784
1 2785
1 2786
1 2787
1 2788
1 2789
1 2790
1 2791
1 2792
1 2793
1 2794
1 2795
1 2796
1 2797
1 2798
1 2799
1 2800
1 2801
1 2802
1 2803
1 2804
1 2805
1 2806
1 2807
1 2808
1 2809
1 2810
1 2811
1 2812
1 2813
1 2814
1 2815
1 2816
1 2817
1 2818
1 2819
1 2820
1 2821
1 2822
1 2823
1 2824
1 2825
1 2826
1 2827
1 2828
1 2829
1 2830
1 2831
1 2832
1 2833
1 2834
1 2835
1 2836
1 2837
1 2838
1 2839
1 2840
1 2841
1 2842
1 2843
1 2844
1 2845
1 2846
1 2847
1 2848
1 2849
1 2850
1 2851
1 2852
1 2853
1 2854
1 2855
1 2856
1 2857
1 2858
1 2859
1 2860
1 2861
1 2862
1 2863
1 2864
1 2865
1 2866
1 2867
1 2868
1 2869
1 2870
1 2871
1 2872
1 2873
1 2874
1 2875
1 2876
1 2877
1 2878
1 2879
1 2880
1 2881
1 2882
1 2883
1 2884
1 2885
1 2886
1 2887
1 2888
1 2889
1 2890
1 2891
1 2892
1 2893
1 2894
1 2895
1 2896
1 2897
1 2898
1 2899
1 2900
1 2901
1 2902
1 2903
1 2904
1 2905
1 2906
1 2907
1 2908
1 2909
1 2910
1 2911
1 2912
1 2913
1 2914
1 2915
1 2916
1 2917
1 2918
1 2919
1 2920
1 2921
1 2922
1 2923
1 2924
1 2925
1 2926
1 2927
1 2928
1 2929
1 2930
1 2931
1 2932
1 2933
1 2934
1 2935
1 2936
1 2937
1 2938
1 2939
1 2940
1 2941
1 2942
1 2943
1 2944
1 2945
1 2946
1 2947
1 2948
1 2949
1 2950
1 2951
1 2952
1 2953
1 2954
1 2955
1 2956
1 2957
1 2958
1 2959
1 2960
1 2961
1 2962
1 2963
1 2964
1 2965
1 2966
1 2967
1 2968
1 2969
1 2970
1 2971
1 2972
1 2973
1 2974
1 2975
1 2976
1 2977
1 2978
1 2979
1 2980
1 2981
1 2982
1 2983
1 2984
1 2985
1 2986
1 2987
1 2988
1 2989
1 2990
1 2991
1 2992
1 2993
1 2994
1 2995
1 2996
1 2997
1 2998
1 2999
1 3000
1 3001
1 3002
1 3003
1 3004
1 3005
1 3006
1 3007
1 3008
1 3009
1 3010
1 3011
1 3012
1 3013
1 3014
1 3015
1 3016
1 3017
1 3018
1 3019
1 3020
1 3021
1 3022
1 3023
1 3024
1 3025
1 3026
1 3027
1 3028
1 3029
1 3030
1 3031
1 3032
1 3033
1 3034
1 3035
1 3036
1 3037
1 3038
1 3039
1 3040
1 3041
1 3042
1 3043
1 3044
1 3045
1 3046
1 3047
1 3048
1 3049
1 3050
1 3051
1 3052
1 3053
1 3054
1 3055
1 3056
1 3057
1 3058
1 3059
1 3060
1 3061
1 3062
1 3063
1 3064
1 3065
1 3066
1 3067
1 3068
1 3069
1 3070
1 3071
1 3072
1 3073
1 3074
1 3075
1 3076
1 3077
1 3078
1 3079
1 3080
1 3081
1 3082
1 3083
1 3084
1 3085
1 3086
1 3087
1 3088
1 3089
1 3090
1 3091
1 3092
1 3093
1 3094
1 3095
1 3096
1 3097
1 3098
1 3099
1 3100
1 3101
1 3102
1 3103
1 3104
1 3105
1 3106
1 3107
1 3108
1 3109
1 3110
1 3111
1 3112
1 3113
1 3114
1 3115
1 3116
1 3117
1 3118
1 3119
1 3120
1 3121
1 3122
1 3123
1 3124
1 3125
1 3126
1 3127
1 3128
1 3129
1 3130
1 3131
1 3132
1 3133
1 3134
1 3135
1 3136
1 3137
1 3138
1 3139
1 3140
1 3141
1 3142
1 3143
1 3144
1 3145
1 3146
1 3147
1 3148
1 3149
1 3150
1 3151
1 3152
1 3153
1 3154
1 3155
1 3156
1 3157
1 3158
1 3159
1 3160
1 3161
1 3162
1 3163
1 3164
1 3165
1 3166
1 3167
1 3168
1 3169
1 3170
1 3171
1 3172
1 3173
1 3174
1 3175
1 3176
1 3177
1 3178
1 3179
1 3180
1 3181
1 3182
1 3183
1 3184
1 3185
1 3186
1 3187
1 3188
1 3189
1 3190
1 3191
1 3192
1 3193
1 3194
1 3195
1 3196
1 3197
1 3198
1 3199
1 3200
1 3201
1 3202
1 3203
1 3204
1 3205
1 3206
1 3207
1 3208
1 3209
1 3210
1 3211
1 3212
1 3213
1 3214
1 3215
1 3216
1 3217
1 3218
1 3219
1 3220
1 3221
1 3222
1 3223
1 3224
1 3225
1 3226
1 3227
1 3228
1 3229
1 3230
1 3231
1 3232
1 3233
1 3234
1 3235
1 3236
1 3237
1 3238
1 3239
1 3240
1 3241
1 3242
1 3243
1 3244
1 3245
1 3246
1 3247
1 3248
1 3249
1 3250
1 3251
1 3252
1 3253
1 3254
1 3255
1 3256
1 3257
1 3258
1 3259
1 3260
1 3261
1 3262
1 3263
1 3264
1 3265
1 3266
1 3267
1 3268
1 3269
1 3270
1 3271
1 3272
1 3273
1 3274
1 3275
1 3276
1 3277
1 3278
1 3279
1 3280
1 3281
1 3282
1 3283
1 3284
1 3285
1 3286
1 3287
1 3288
1 3289
1 3290
1 3291
1 3292
1 3293
1 3294
1 3295
1 3296
1 3297
1 3298
1 3299
1 3300
1 3301
1 3302
1 3303
1 3304
1 3305
1 3306
1 3307
1 3308
1 3309
1 3310
1 3311
1 3312
1 3313
1 3314
1 3315
1 3316
1 3317
1 3318
1 3319
1 3320
1 3321
1 3322
1 3323
1 3324
1 3325
1 3326
1 3327
1 3328
1 3329
1 3330
1 3331
1 3332
1 3333
1 3334
1 3335
1 3336
1 3337
1 3338
1 3339
1 3340
1 3341
1 3342
1 3343
1 3344
1 3345
1 3346
1 3347
1 3348
1 3349
1 3350
1 3351
1 3352
1 3353
1 3354
1 3355
1 3356
1 3357
1 3358
1 3359
1 3360
1 3361
1 3362
1 3363
1 3364
1 3365
1 3366
1 3367
1 3368
1 3369
1 3370
1 3371
1 3372
1 3373
1 3374
1 3375
1 3376
1 3377
1 3378
1 3379
1 3380
1 3381
1 3382
1 3383
1 3384
1 3385
1 3386
1 3387
1 3388
1 3389
1 3390
1 3391
1 3392
1 3393
1 3394
1 3395
1 3396
1 3397
1 3398
1 3399
1 3400
1 3401
1 3402
1 3403
1 3404
1 3405
1 3406
1 3407
1 3408
1 3409
1 3410
1 3411
1 3412
1 3413
1 3414
1 3415
1 3416
1 3417
1 3418
1 3419
1 3420
1 3421
1 3422
1 3423
1 3424
1 3425
1 3426
1 3427
1 3428
1 3429
1 3430
1 3431
1 3432
1 3433
1 3434
1 3435
1 3436
1 3437
1 3438
1 3439
1 3440
1 3441
1 3442
1 3443
1 3444
1 3445
1 3446
1 3447
1 3448
1 3449
1 3450
1 3451
1 3452
1 3453
1 3454
1 3455
1 3456
1 3457
1 3458
1 3459
1 3460
1 3461
1 3462
1 3463
1 3464
1 3465
1 3466
1 3467
1 3468
1 3469
1 3470
1 3471
1 3472
1 3473
1 3474
1 3475
1 3476
1 3477
1 3478
1 3479
1 3480
1 3481
1 3482
1 3483
1 3484
1 3485
1 3486
1 3487
1 3488
1 3489
1 3490
1 3491
1 3492
1 3493
1 3494
1 3495
1 3496
1 3497
1 3498
1 3499
1 3500
1 3501
1 3502
1 3503
1 3504
1 3505
1 3506
1 3507
1 3508
1 3509
1 3510
1 3511
1 3512
1 3513
1 3514
1 3515
1 3516
1 3517
1 3518
1 3519
1 3520
1 3521
1 3522
1 3523
1 3524
1 3525
1 3526
1 3527
1 3528
1 3529
1 3530
1 3531
1 3532
1 3533
1 3534
1 3535
1 3536
1 3537
1 3538
1 3539
1 3540
1 3541
1 3542
1 3543
1 3544
1 3545
1 3546
1 3547
1 3548
1 3549
1 3550
1 3551
1 3552
1 3553
1 3554
1 3555
1 3556
1 3557
1 3558
1 3559
1 3560
1 3561
1 3562
1 3563
1 3564
1 3565
1 3566
1 3567
1 3568
1 3569
1 3570
1 3571
1 3572
1 3573
1 3574
1 3575
1 3576
1 3577
1 3578
1 3579
1 3580
1 3581
1 3582
1 3583
1 3584
1 3585
1 3586
1 3587
1 3588
1 3589
1 3590
1 3591
1 3592
1 3593
1 3594
1 3595
1 3596
1 3597
1 3598
1 3599
1 3600
1 3601
1 3602
1 3603
1 3604
1 3605
1 3606
1 3607
1 3608
1 3609
1 3610
1 3611
1 3612
1 3613
1 3614
1 3615
1 3616
1 3617
1 3618
1 3619
1 3620
1 3621
1 3622
1 3623
1 3624
1 3625
1 3626
1 3627
1 3628
1 3629
1 3630
1 3631
1 3632
1 3633
1 3634
1 3635
1 3636
1 3637
1 3638
1 3639
1 3640
1 3641
1 3642
1 3643
1 3644
1 3645
1 3646
1 3647
1 3648
1 3649
1 3650
1 3651
1 3652
1 3653
1 3654
1 3655
1 3656
1 3657
1 3658
1 3659
1 3660
1 3661
1 3662
1 3663
1 3664
1 3665
1 3666
1 3667
1 3668
1 3669
1 3670
1 3671
1 3672
1 3673
1 3674
1 3675
1 3676
1 3677
1 3678
1 3679
1 3680
1 3681
1 3682
1 3683
1 3684
1 3685
1 3686
1 3687
1 3688
1 3689
1 3690
1 3691
1 3692
1 3693
1 3694
1 3695
1 3696
1 3697
1 3698
1 3699
1 3700
1 3701
1 3702
1 3703
1 3704
1 3705
1 3706
1 3707
1 3708
1 3709
1 3710
1 3711
1 3712
1 3713
1 3714
1 3715
1 3716
1 3717
1 3718
1 3719
1 3720
1 3721
1 3722
1 3723
1 3724
1 3725
1 3726
1 3727
1 3728
1 3729
1 3730
1 3731
1 3732
1 3733
1 3734
1 3735
1 3736
1 3737
1 3738
1 3739
1 3740
1 3741
1 3742
1 3743
1 3744
1 3745
1 3746
1 3747
1 3748
1 3749
1 3750
1 3751
1 3752
1 3753
1 3754
1 3755
1 3756
1 3757
1 3758
1 3759
1 3760
1 3761
1 3762
1 3763
1 3764
1 3765
1 3766
1 3767
1 3768
1 3769
1 3770
1 3771
1 3772
1 3773
1 3774
1 3775
1 3776
1 3777
1 3778
1 3779
1 3780
1 3781
1 3782
1 3783
1 3784
1 3785
1 3786
1 3787
1 3788
1 3789
1 3790
1 3791
1 3792
1 3793
1 3794
1 3795
1 3796
1 3797
1 3798
1 3799
1 3800
1 3801
1 3802
1 3803
1 3804
1 3805
1 3806
1 3807
1 3808
1 3809
1 3810
1 3811
1 3812
1 3813
1 3814
1 3815
1 3816
1 3817
1 3818
1 3819
1 3820
1 3821
1 3822
1 3823
1 3824
1 3825
1 3826
1 3827
1 3828
1 3829
1 3830
1 3831
1 3832
1 3833
1 3834
1 3835
1 3836
1 3837
1 3838
1 3839
1 3840
1 3841
1 3842
1 3843
1 3844
1 3845
1 3846
1 3847
1 3848
1 3849
1 3850
1 3851
1 3852
1 3853
1 3854
1 3855
1 3856
1 3857
1 3858
1 3859
1 3860
1 3861
1 3862
1 3863
1 3864
1 3865
1 3866
1 3867
1 3868
1 3869
1 3870
1 3871
1 3872
1 3873
1 3874
1 3875
1 3876
1 3877
1 3878
1 3879
1 3880
1 3881
1 3882
1 3883
1 3884
1 3885
1 3886
1 3887
1 3888
1 3889
1 3890
1 3891
1 3892
1 3893
1 3894
1 3895
1 3896
1 3897
1 3898
1 3899
1 3900
1 3901
1 3902
1 3903
1 3904
1 3905
1 3906
1 3907
1 3908
1 3909
1 3910
1 3911
1 3912
1 3913
1 3914
1 3915
1 3916
1 3917
1 3918
1 3919
1 3920
1 3921
1 3922
1 3923
1 3924
1 3925
1 3926
1 3927
1 3928
1 3929
1 3930
1 3931
1 3932
1 3933
1 3934
1 3935
1 3936
1 3937
1 3938
1 3939
1 3940
1 3941
1 3942
1 3943
1 3944
1 3945
1 3946
1 3947
1 3948
1 3949
1 3950
1 3951
1 3952
1 3953
1 3954
1 3955
1 3956
1 3957
1 3958
1 3959
1 3960
1 3961
1 3962
1 3963
1 3964
1 3965
1 3966
1 3967
1 3968
1 3969
1 3970
1 3971
1 3972
1 3973
1 3974
1 3975
1 3976
1 3977
1 3978
1 3979
1 3980
1 3981
1 3982
1 3983
1 3984
1 3985
1 3986
1 3987
1 3988
1 3989
1 3990
1 3991
1 3992
1 3993
1 3994
1 3995
1 3996
1 3997
1 3998
1 3999
1 4000
1 4001
1 4002
1 4003
1 4004
1 4005
1 4006
1 4007
1 4008
1 4009
1 4010
1 4011
1 4012
1 4013
1 4014
1 4015
1 4016
1 4017
1 4018
1 4019
1 4020
1 4021
1 4022
1 4023
1 4024
1 4025
1 4026
1 4027
1 4028
1 4029
1 4030
1 4031
1 4032
1 4033
1 4034
1 4035
1 4036
1 4037
1 4038
1 4039
1 4040
1 4041
1 4042
1 4043
1 4044
1 4045
1 4046
1 4047
1 4048
1 4049
1 4050
1 4051
1 4052
1 4053
1 4054
1 4055
1 4056
1 4057
1 4058
1 4059
1 4060
1 4061
1 4062
1 4063
1 4064
1 4065
1 4066
1 4067
1 4068
1 4069
1 4070
1 4071
1 4072
1 4073
1 4074
1 4075
1 4076
1 4077
1 4078
1 4079
1 4080
1 4081
1 4082
1 4083
1 4084
1 4085
1 4086
1 4087
1 4088
1 4089
1 4090
1 4091
1 4092
1 4093
1 4094
1 4095
1 4096
1 4097
1 4098
1 4099
1 4100
1 4101
1 4102
1 4103
1 4104
1 4105
1 4106
1 4107
1 4108
1 4109
1 4110
1 4111
1 4112
1 4113
1 4114
1 4115
1 4116
1 4117
1 4118
1 4119
1 4120
1 4121
1 4122
1 4123
1 4124
1 4125
1 4126
1 4127
1 4128
1 4129
1 4130
1 4131
1 4132
1 4133
1 4134
1 4135
1 4136
1 4137
1 4138
1 4139
1 4140
1 4141
1 4142
1 4143
1 4144
1 4145
1 4146
1 4147
1 4148
1 4149
1 4150
1 4151
1 4152
1 4153
1 4154
1 4155
1 4156
1 4157
1 4158
1 4159
1 4160
1 4161
1 4162
1 4163
1 4164
1 4165
1 4166
1 4167
1 4168
1 4169
1 4170
1 4171
1 4172
1 4173
1 4174
1 4175
1 4176
1 4177
1 4178
1 4179
1 4180
1 4181
1 4182
1 4183
1 4184
1 4185
1 4186
1 4187
1 4188
1 4189
1 4190
1 4191
1 4192
1 4193
1 4194
1 4195
1 4196
1 4197
1 4198
1 4199
1 4200
1 4201
1 4202
1 4203
1 4204
1 4205
1 4206
1 4207
1 4208
1 4209
1 4210
1 4211
1 4212
1 4213
1 4214
1 4215
1 4216
1 4217
1 4218
1 4219
1 4220
1 4221
1 4222
1 4223
1 4224
1 4225
1 4226
1 4227
1 4228
1 4229
1 4230
1 4231
1 4232
1 4233
1 4234
1 4235
1 4236
1 4237
1 4238
1 4239
1 4240
1 4241
1 4242
1 4243
1 4244
1 4245
1 4246
1 4247
1 4248
1 4249
1 4250
1 4251
1 4252
1 4253
1 4254
1 4255
1 4256
1 4257
1 4258
1 4259
1 4260
1 4261
1 4262
1 4263
1 4264
1 4265
1 4266
1 4267
1 4268
1 4269
1 4270
1 4271
1 4272
1 4273
1 4274
1 4275
1 4276
1 4277
1 4278
1 4279
1 4280
1 4281
1 4282
1 4283
1 4284
1 4285
1 4286
1 4287
1 4288
1 4289
1 4290
1 4291
1 4292
1 4293
1 4294
1 4295
1 4296
1 4297
1 4298
1 4299
1 4300
1 4301
1 4302
1 4303
1 4304
1 4305
1 4306
1 4307
1 4308
1 4309
1 4310
1 4311
1 4312
1 4313
1 4314
1 4315
1 4316
1 4317
1 4318
1 4319
1 4320
1 4321
1 4322
1 4323
1 4324
1 4325
1 4326
1 4327
1 4328
1 4329
1 4330
1 4331
1 4332
1 4333
1 4334
1 4335
1 4336
1 4337
1 4338
1 4339
1 4340
1 4341
1 4342
1 4343
1 4344
1 4345
1 4346
1 4347
1 4348
1 4349
1 4350
1 4351
1 4352
1 4353
1 4354
1 4355
1 4356
1 4357
1 4358
1 4359
1 4360
1 4361
1 4362
1 4363
1 4364
1 4365
1 4366
1 4367
1 4368
1 4369
1 4370
1 4371
1 4372
1 4373
1 4374
1 4375
1 4376
1 4377
1 4378
1 4379
1 4380
1 4381
1 4382
1 4383
1 4384
1 4385
1 4386
1 4387
1 4388
1 4389
1 4390
1 4391
1 4392
1 4393
1 4394
1 4395
1 4396
1 4397
1 4398
1 4399
1 4400
1 4401
1 4402
1 4403
1 4404
1 4405
1 4406
1 4407
1 4408
1 4409
1 4410
1 4411
1 4412
1 4413
1 4414
1 4415
1 4416
1 4417
1 4418
1 4419
1 4420
1 4421
1 4422
1 4423
1 4424
1 4425
1 4426
1 4427
1 4428
1 4429
1 4430
1 4431
1 4432
1 4433
1 4434
1 4435
1 4436
1 4437
1 4438
1 4439
1 4440
1 4441
1 4442
1 4443
1 4444
1 4445
1 4446
1 4447
1 4448
1 4449
1 4450
1 4451
1 4452
1 4453
1 4454
1 4455
1 4456
1 4457
1 4458
1 4459
1 4460
1 4461
1 4462
1 4463
1 4464
1 4465
1 4466
1 4467
1 4468
1 4469
1 4470
1 4471
1 4472
1 4473
1 4474
1 4475
1 4476
1 4477
1 4478
1 4479
1 4480
1 4481
1 4482
1 4483
1 4484
1 4485
1 4486
1 4487
1 4488
1 4489
1 4490
1 4491
1 4492
1 4493
1 4494
1 4495
1 4496
1 4497
1 4498
1 4499
1 4500
1 4501
1 4502
1 4503
1 4504
1 4505
1 4506
1 4507
1 4508
1 4509
1 4510
1 4511
1 4512
1 4513
1 4514
1 4515
1 4516
1 4517
1 4518
1 4519
1 4520
1 4521
1 4522
1 4523
1 4524
1 4525
1 4526
1 4527
1 4528
1 4529
1 4530
1 4531
1 4532
1 4533
1 4534
1 4535
1 4536
1 4537
1 4538
1 4539
1 4540
1 4541
1 4542
1 4543
1 4544
1 4545
1 4546
1 4547
1 4548
1 4549
1 4550
1 4551
1 4552
1 4553
1 4554
1 4555
1 4556
1 4557
1 4558
1 4559
1 4560
1 4561
1 4562
1 4563
1 4564
1 4565
1 4566
1 4567
1 4568
1 4569
1 4570
1 4571
1 4572
1 4573
1 4574
1 4575
1 4576
1 4577
1 4578
1 4579
1 4580
1 4581
1 4582
1 4583
1 4584
1 4585
1 4586
1 4587
1 4588
1 4589
1 4590
1 4591
1 4592
1 4593
1 4594
1 4595
1 4596
1 4597
1 4598
1 4599
1 4600
1 4601
1 4602
1 4603
1 4604
1 4605
1 4606
1 4607
1 4608
1 4609
1 4610
1 4611
1 4612
1 4613
1 4614
1 4615
1 4616
1 4617
1 4618
1 4619
1 4620
1 4621
1 4622
1 4623
1 4624
1 4625
1 4626
1 4627
1 4628
1 4629
1 4630
1 4631
1 4632
1 4633
1 4634
1 4635
1 4636
1 4637
1 4638
1 4639
1 4640
1 4641
1 4642
1 4643
1 4644
1 4645
1 4646
1 4647
1 4648
1 4649
1 4650
1 4651
1 4652
1 4653
1 4654
1 4655
1 4656
1 4657
1 4658
1 4659
1 4660
1 4661
1 4662
1 4663
1 4664
1 4665
1 4666
1 4667
1 4668
1 4669
1 4670
1 4671
1 4672
1 4673
1 4674
1 4675
1 4676
1 4677
1 4678
1 4679
1 4680
1 4681
1 4682
1 4683
1 4684
1 4685
1 4686
1 4687
1 4688
1 4689
1 4690
1 4691
1 4692
1 4693
1 4694
1 4695
1 4696
1 4697
1 4698
1 4699
1 4700
1 4701
1 4702
1 4703
1 4704
1 4705
1 4706
1 4707
1 4708
1 4709
1 4710
1 4711
1 4712
1 4713
1 4714
1 4715
1 4716
1 4717
1 4718
1 4719
1 4720
1 4721
1 4722
1 4723
1 4724
1 4725
1 4726
1 4727
1 4728
1 4729
1 4730
1 4731
1 4732
1 4733
1 4734
1 4735
1 4736
1 4737
1 4738
1 4739
1 4740
1 4741
1 4742
1 4743
1 4744
1 4745
1 4746
1 4747
1 4748
1 4749
1 4750
1 4751
1 4752
1 4753
1 4754
1 4755
1 4756
1 4757
1 4758
1 4759
1 4760
1 4761
1 4762
1 4763
1 4764
1 4765
1 4766
1 4767
1 4768
1 4769
1 4770
1 4771
1 4772
1 4773
1 4774
1 4775
1 4776
1 4777
1 4778
1 4779
1 4780
1 4781
1 4782
1 4783
1 4784
1 4785
1 4786
1 4787
1 4788
1 4789
1 4790
1 4791
1 4792
1 4793
1 4794
1 4795
1 4796
1 4797
1 4798
1 4799
1 4800
1 4801
1 4802
1 4803
1 4804
1 4805
1 4806
1 4807
1 4808
1 4809
1 4810
1 4811
1 4812
1 4813
1 4814
1 4815
1 4816
1 4817
1 4818
1 4819
1 4820
1 4821
1 4822
1 4823
1 4824
1 4825
1 4826
1 4827
1 4828
1 4829
1 4830
1 4831
1 4832
1 4833
1 4834
1 4835
1 4836
1 4837
1 4838
1 4839
1 4840
1 4841
1 4842
1 4843
1 4844
1 4845
1 4846
1 4847
1 4848
1 4849
1 4850
1 4851
1 4852
1 4853
1 4854
1 4855
1 4856
1 4857
1 4858
1 4859
1 4860
1 4861
1 4862
1 4863
1 4864
1 4865
1 4866
1 4867
1 4868
1 4869
1 4870
1 4871
1 4872
1 4873
1 4874
1 4875
1 4876
1 4877
1 4878
1 4879
1 4880
1 4881
1 4882
1 4883
1 4884
1 4885
1 4886
1 4887
1 4888
1 4889
1 4890
1 4891
1 4892
1 4893
1 4894
1 4895
1 4896
1 4897
1 4898
1 4899
1 4900
1 4901
1 4902
1 4903
1 4904
1 4905
1 4906
1 4907
1 4908
1 4909
1 4910
1 4911
1 4912
1 4913
1 4914
1 4915
1 4916
1 4917
1 4918
1 4919
1 4920
1 4921
1 4922
1 4923
1 4924
1 4925
1 4926
1 4927
1 4928
1 4929
1 4930
1 4931
1 4932
1 4933
1 4934
1 4935
1 4936
1 4937
1 4938
1 4939
1 4940
1 4941
1 4942
1 4943
1 4944
1 4945
1 4946
1 4947
1 4948
1 4949
1 4950
1 4951
1 4952
1 4953
1 4954
1 4955
1 4956
1 4957
1 4958
1 4959
1 4960
1 4961
1 4962
1 4963
1 4964
1 4965
1 4966
1 4967
1 4968
1 4969
1 4970
1 4971
1 4972
1 4973
1 4974
1 4975
1 4976
1 4977
1 4978
1 4979
1 4980
1 4981
1 4982
1 4983
1 4984
1 4985
1 4986
1 4987
1 4988
1 4989
1 4990
1 4991
1 4992
1 4993
1 4994
1 4995
1 4996
1 4997
1 4998
1 4999
CELL_TYPES 5000
1 
1 
1 
1 
1 
1 
1 
1 
1 
1 
1 
1 
1 
1 
1 
1 
1 
1 
1 
1 
1 
1 
1 
1 
1 
1 
1 
1 
1 
1 
1 
1 
1 
1 
1 
1 
1 
1 
1 
1 
1 
1 
1 
1 
1 
1 
1 
1 
1 
1 
1 
1 
1 
1 
1 
1 
1 
1 
1 
1 
1 
1 
1 
1 
1 
1 
1 
1 
1 
1 
1 
1 
1 
1 
1 
1 
1 
1 
1 
1 
1 
1 
1 
1 
1 
1 
1 
1 
1 
1 
1 
1 
1 
1 
1 
1 
1 
1 
1 
1 
1 
1 
1 
1 
1 
1 
1 
1 
1 
1 
1 
1 
1 
1 
1 
1 
1 
1 
1 
1 
1 
1 
1 
1 
1 
1 
1 
1 
1 
1 
1 
1 
1 
1 
1 
1 
1 
1 
1 
1 
1 
1 
1 
1 
1 
1 
1 
1 
1 
1 
1 
1 
1 
1 
1 
1 
1 
1 
1 
1 
1 
1 
1 
1 
1 
1 
1 
1 
1 
1 
1 
1 
1 
1 
1 
1 
1 
1 
1 
1 
1 
1 
1 
1 
1 
1 
1 
1 
1 
1 
1 
1 
1 
1 
1 
1 
1 
1 
1 
1 
1 
1 
1 
1 
1 
1 
1 
1 
1 
1 
1 
1 
1 
1 
1 
1 
1 
1 
1 
1 
1 
1 
1 
1 
1 
1 
1 
1 
1 
1 
1 
1 
1 
1 
1 
1 
1 
1 
1 
1 
1 
1 
1 
1 
1 
1 
1 
1 
1 
1 
1 
1 
1 
1 
1 
1 
1 
1 
1 
1 
1 
1 
1 
1 
1 
1 
1 
1 
1 
1 
1 
1 
1 
1 
1 
1 
1 
1 
1 
1 
1 
1 
1 
1 
1 
1 
1 
1 
1 
1 
1 
1 
1 
1 
1 
1 
1 
1 
1 
1 
1 
1 
1 
1 
1 
1 
1 
1 
1 
1 
1 
1 
1 
1 
1 
1 
1 
1 
1 
1 
1 
1 
1 
1 
1 
1 
1 
1 
1 
1 
1 
1 
1 
1 
1 
1 
1 
1 
1 
1 
1 
1 
1 
1 
1 
1 
1 
1 
1 
1 
1 
1 
1 
1 
1 
1 
1 
1 
1 
1 
1 
1 
1 
1 
1 
1 
1 
1 
1 
1 
1 
1 
1 
1 
1 
1 
1 
1 
1 
1 
1 
1 
1 
1 
1 
1 
1 
1 
1 
1 
1 
1 
1 
1 
1 
1 
1 
1 
1 
1 
1 
1 
1 
1 
1 
1 
1 
1 
1 
1 
1 
1 
1 
1 
1 
1 
1 
1 
1 
1 
1 
1 
1 
1 
1 
1 
1 
1 
1 
1 
1 
1 
1 
1 
1 
1 
1 
1 
1 
1 
1 
1 
1 
1 
1 
1 
1 
1 
1 
1 
1 
1 
1 
1 
1 
1 
1 
1 
1 
1 
1 
1 
1 
1 
1 
1 
1 
1 
1 
1 
1 
1 
1 
1 
1 
1 
1 
1 
1 
1 
1 
1 
1 
1 
1 
1 
1 
1 
1 
1 
1 
1 
1 
1 
1 
1 
1 
1 
1 
1 
1 
1 
1 
1 
1 
1 
1 
1 
1 
1 
1 
1 
1 
1 
1 
1 
1 
1 
1 
1 
1 
1 
1 
1 
1 
1 
1 
1 
1 
1 
1 
1 
1 
1 
1 
1 
1 
1 
1 
1 
1 
1 
1 
1 
1 
1 
1 
1 
1 
1 
1 
1 
1 
1 
1 
1 
1 
1 
1 
1 
1 
1 
1 
1 
1 
1 
1 
1 
1 
1 
1 
1 
1 
1 
1 
1 
1 
1 
1 
1 
1 
1 
1 
1 
1 
1 
1 
1 
1 
1 
1 
1 
1 
1 
1 
1 
1 
1 
1 
1 
1 
1 
1 
1 
1 
1 
1 
1 
1 
1 
1 
1 
1 
1 
1 
1 
1 
1 
1 
1 
1 
1 
1 
1 
1 
1 
1 
1 
1 
1 
1 
1 
1 
1 
1 
1 
1 
1 
1 
1 
1 
1 
1 
1 
1 
1 
1 
1 
1 
1 
1 
1 
1 
1 
1 
1 
1 
1 
1 
1 
1 
1 
1 
1 
1 
1 
1 
1 
1 
1 
1 
1 
1 
1 
1 
1 
1 
1 
1 
1 
1 
1 
1 
1 
1 
1 
1 
1 
1 
1 
1 
1 
1 
1 
1 
1 
1 
1 
1 
1 
1 
1 
1 
1 
1 
1 
1 
1 
1 
1 
1 
1 
1 
1 
1 
1 
1 
1 
1 
1 
1 
1 
1 
1 
1 
1 
1 
1 
1 
1 
1 
1 
1 
1 
1 
1 
1 
1 
1 
1 
1 
1 
1 
1 
1 
1 
1 
1 
1 
1 
1 
1 
1 
1 
1 
1 
1 
1 
1 
1 
1 
1 
1 
1 
1 
1 
1 
1 
1 
1 
1 
1 
1 
1 
1 
1 
1 
1 
1 
1 
1 
1 
1 
1 
1 
1 
1 
1 
1 
1 
1 
1 
1 
1 
1 
1 
1 
1 
1 
1 
1 
1 
1 
1 
1 
1 
1 
1 
1 
1 
1 
1 
1 
1 
1 
1 
1 
1 
1 
1 
1 
1 
1 
1 
1 
1 
1 
1 
1 
1 
1 
1 
1 
1 
1 
1 
1 
1 
1 
1 
1 
1 
1 
1 
1 
1 
1 
1 
1 
1 
1 
1 
1 
1 
1 
1 
1 
1 
1 
1 
1 
1 
1 
1 
1 
1 
1 
1 
1 
1 
1 
1 
1 
1 
1 
1 
1 
1 
1 
1 
1 
1 
1 
1 
1 
1 
1 
1 
1 
1 
1 
1 
1 
1 
1 
1 
1 
1 
1 
1 
1 
1 
1 
1 
1 
1 
1 
1 
1 
1 
1 
1 
1 
1 
1 
1 
1 
1 
1 
1 
1 
1 
1 
1 
1 
1 
1 
1 
1 
1 
1 
1 
1 
1 
1 
1 
1 
1 
1 
1 
1 
1 
1 
1 
1 
1 
1 
1 
1 
1 
1 
1 
1 
1 
1 
1 
1 
1 
1 
1 
1 
1 
1 
1 
1 
1 
1 
1 
1 
1 
1 
1 
1 
1 
1 
1 
1 
1 
1 
1 
1 
1 
1 
1 
1 
1 
1 
1 
1 
1 
1 
1 
1 
1 
1 
1 
1 
1 
1 
1 
1 
1 
1 
1 
1 
1 
1 
1 
1 
1 
1 
1 
1 
1 
1 
1 
1 
1 
1 
1 
1 
1 
1 
1 
1 
1 
1 
1 
1 
1 
1 
1 
1 
1 
1 
1 
1 
1 
1 
1 
1 
1 
1 
1 
1 
1 
1 
1 
1 
1 
1 
1 
1 
1 
1 
1 
1 
1 
1 
1 
1 
1 
1 
1 
1 
1 
1 
1 
1 
1 
1 
1 
1 
1 
1 
1 
1 
1 
1 
1 
1 
1 
1 
1 
1 
1 
1 
1 
1 
1 
1 
1 
1 
1 
1 
1 
1 
1 
1 
1 
1 
1 
1 
1 
1 
1 
1 
1 
1 
1 
1 
1 
1 
1 
1 
1 
1 
1 
1 
1 
1 
1 
1 
1 
1 
1 
1 
1 
1 
1 
1 
1 
1 
1 
1 
1 
1 
1 
1 
1 
1 
1 
1 
1 
1 
1 
1 
1 
1 
1 
1 
1 
1 
1 
1 
1 
1 
1 
1 
1 
1 
1 
1 
1 
1 
1 
1 
1 
1 
1 
1 
1 
1 
1 
1 
1 
1 
1 
1 
1 
1 
1 
1 
1 
1 
1 
1 
1 
1 
1 
1 
1 
1 
1 
1 
1 
1 
1 
1 
1 
1 
1 
1 
1 
1 
1 
1 
1 
1 
1 
1 
1 
1 
1 
1 
1 
1 
1 
1 
1 
1 
1 
1 
1 
1 
1 
1 
1 
1 
1 
1 
1 
1 
1 
1 
1 
1 
1 
1 
1 
1 
1 
1 
1 
1 
1 
1 
1 
1 
1 
1 
1 
1 
1 
1 
1 
1 
1 
1 
1 
1 
1 
1 
1 
1 
1 
1 
1 
1 
1 
1 
1 
1 
1 
1 
1 
1 
1 
1 
1 
1 
1 
1 
1 
1 
1 
1 
1 
1 
1 
1 
1 
1 
1 
1 
1 
1 
1 
1 
1 
1 
1 
1 
1 
1 
1 
1 
1 
1 
1 
1 
1 
1 
1 
1 
1 
1 
1 
1 
1 
1 
1 
1 
1 
1 
1 
1 
1 
1 
1 
1 
1 
1 
1 
1 
1 
1 
1 
1 
1 
1 
1 
1 
1 
1 
1 
1 
1 
1 
1 
1 
1 
1 
1 
1 
1 
1 
1 
1 
1 
1 
1 
1 
1 
1 
1 
1 
1 
1 
1 
1 
1 
1 
1 
1 
1 
1 
1 
1 
1 
1 
1 
1 
1 
1 
1 
1 
1 
1 
1 
1 
1 
1 
1 
1 
1 
1 
1 
1 
1 
1 
1 
1 
1 
1 
1 
1 
1 
1 
1 
1 
1 
1 
1 
1 
1 
1 
1 
1 
1 
1 
1 
1 
1 
1 
1 
1 
1 
1 
1 
1 
1 
1 
1 
1 
1 
1 
1 
1 
1 
1 
1 
1 
1 
1 
1 
1 
1 
1 
1 
1 
1 
1 
1 
1 
1 
1 
1 
1 
1 
1 
1 
1 
1 
1 
1 
1 
1 
1 
1 
1 
1 
1 
1 
1 
1 
1 
1 
1 
1 
1 
1 
1 
1 
1 
1 
1 
1 
1 
1 
1 
1 
1 
1 
1 
1 
1 
1 
1 
1 
1 
1 
1 
1 
1 
1 
1 
1 
1 
1 
1 
1 
1 
1 
1 
1 
1 
1 
1 
1 
1 
1 
1 
1 
1 
1 
1 
1 
1 
1 
1 
1 
1 
1 
1 
1 
1 
1 
1 
1 
1 
1 
1 
1 
1 
1 
1 
1 
1 
1 
1 
1 
1 
1 
1 
1 
1 
1 
1 
1 
1 
1 
1 
1 
1 
1 
1 
1 
1 
1 
1 
1 
1 
1 
1 
1 
1 
1 
1 
1 
1 
1 
1 
1 
1 
1 
1 
1 
1 
1 
1 
1 
1 
1 
1 
1 
1 
1 
1 
1 
1 
1 
1 
1 
1 
1 
1 
1 
1 
1 
1 
1 
1 
1 
1 
1 
1 
1 
1 
1 
1 
1 
1 
1 
1 
1 
1 
1 
1 
1 
1 
1 
1 
1 
1 
1 
1 
1 
1 
1 
1 
1 
1 
1 
1 
1 
1 
1 
1 
1 
1 
1 
1 
1 
1 
1 
1 
1 
1 
1 
1 
1 
1 
1 
1 
1 
1 
1 
1 
1 
1 
1 
1 
1 
1 
1 
1 
1 
1 
1 
1 
1 
1 
1 
1 
1 
1 
1 
1 
1 
1 
1 
1 
1 
1 
1 
1 
1 
1 
1 
1 
1 
1 
1 
1 
1 
1 
1 
1 
1 
1 
1 
1 
1 
1 
1 
1 
1 
1 
1 
1 
1 
1 
1 
1 
1 
1 
1 
1 
1 
1 
1 
1 
1 
1 
1 
1 
1 
1 
1 
1 
1 
1 
1 
1 
1 
1 
1 
1 
1 
1 
1 
1 
1 
1 
1 
1 
1 
1 
1 
1 
1 
1 
1 
1 
1 
1 
1 
1 
1 
1 
1 
1 
1 
1 
1 
1 
1 
1 
1 
1 
1 
1 
1 
1 
1 
1 
1 
1 
1 
1 
1 
1 
1 
1 
1 
1 
1 
1 
1 
1 
1 
1 
1 
1 
1 
1 
1 
1 
1 
1 
1 
1 
1 
1 
1 
1 
1 
1 
1 
1 
1 
1 
1 
1 
1 
1 
1 
1 
1 
1 
1 
1 
1 
1 
1 
1 
1 
1 
1 
1 
1 
1 
1 
1 
1 
1 
1 
1 
1 
1 
1 
1 
1 
1 
1 
1 
1 
1 
1 
1 
1 
1 
1 
1 
1 
1 
1 
1 
1 
1 
1 
1 
1 
1 
1 
1 
1 
1 
1 
1 
1 
1 
1 
1 
1 
1 
1 
1 
1 
1 
1 
1 
1 
1 
1 
1 
1 
1 
1 
1 
1 
1 
1 
1 
1 
1 
1 
1 
1 
1 
1 
1 
1 
1 
1 
1 
1 
1 
1 
1 
1 
1 
1 
1 
1 
1 
1 
1 
1 
1 
1 
1 
1 
1 
1 
1 
1 
1 
1 
1 
1 
1 
1 
1 
1 
1 
1 
1 
1 
1 
1 
1 
1 
1 
1 
1 
1 
1 
1 
1 
1 
1 
1 
1 
1 
1 
1 
1 
1 
1 
1 
1 
1 
1 
1 
1 
1 
1 
1 
1 
1 
1 
1 
1 
1 
1 
1 
1 
1 
1 
1 
1 
1 
1 
1 
1 
1 
1 
1 
1 
1 
1 
1 
1 
1 
1 
1 
1 
1 
1 
1 
1 
1 
1 
1 
1 
1 
1 
1 
1 
1 
1 
1 
1 
1 
1 
1 
1 
1 
1 
1 
1 
1 
1 
1 
1 
1 
1 
1 
1 
1 
1 
1 
1 
1 
1 
1 
1 
1 
1 
1 
1 
1 
1 
1 
1 
1 
1 
1 
1 
1 
1 
1 
1 
1 
1 
1 
1 
1 
1 
1 
1 
1 
1 
1 
1 
1 
1 
1 
1 
1 
1 
1 
1 
1 
1 
1 
1 
1 
1 
1 
1 
1 
1 
1 
1 
1 
1 
1 
1 
1 
1 
1 
1 
1 
1 
1 
1 
1 
1 
1 
1 
1 
1 
1 
1 
1 
1 
1 
1 
1 
1 
1 
1 
1 
1 
1 
1 
1 
1 
1 
1 
1 
1 
1 
1 
1 
1 
1 
1 
1 
1 
1 
1 
1 
1 
1 
1 
1 
1 
1 
1 
1 
1 
1 
1 
1 
1 
1 
1 
1 
1 
1 
1 
1 
1 
1 
1 
1 
1 
1 
1 
1 
1 
1 
1 
1 
1 
1 
1 
1 
1 
1 
1 
1 
1 
1 
1 
1 
1 
1 
1 
1 
1 
1 
1 
1 
1 
1 
1 
1 
1 
1 
1 
1 
1 
1 
1 
1 
1 
1 
1 
1 
1 
1 
1 
1 
1 
1 
1 
1 
1 
1 
1 
1 
1 
1 
1 
1 
1 
1 
1 
1 
1 
1 
1 
1 
1 
1 
1 
1 
1 
1 
1 
1 
1 
1 
1 
1 
1 
1 
1 
1 
1 
1 
1 
1 
1 
1 
1 
1 
1 
1 
1 
1 
1 
1 
1 
1 
1 
1 
1 
1 
1 
1 
1 
1 
1 
1 
1 
1 
1 
1 
1 
1 
1 
1 
1 
1 
1 
1 
1 
1 
1 
1 
1 
1 
1 
1 
1 
1 
1 
1 
1 
1 
1 
1 
1 
1 
1 
1 
1 
1 
1 
1 
1 
1 
1 
1 
1 
1 
1 
1 
1 
1 
1 
1 
1 
1 
1 
1 
1 
1 
1 
1 
1 
1 
1 
1 
1 
1 
1 
1 
1 
1 
1 
1 
1 
1 
1 
1 
1 
1 
1 
1 
1 
1 
1 
1 
1 
1 
1 
1 
1 
1 
1 
1 
1 
1 
1 
1 
1 
1 
1 
1 
1 
1 
1 
1 
1 
1 
1 
1 
1 
1 
1 
1 
1 
1 
1 
1 
1 
1 
1 
1 
1 
1 
1 
1 
1 
1 
1 
1 
1 
1 
1 
1 
1 
1 
1 
1 
1 
1 
1 
1 
1 
1 
1 
1 
1 
1 
1 
1 
1 
1 
1 
1 
1 
1 
1 
1 
1 
1 
1 
1 
1 
1 
1 
1 
1 
1 
1 
1 
1 
1 
1 
1 
1 
1 
1 
1 
1 
1 
1 
1 
1 
1 
1 
1 
1 
1 
1 
1 
1 
1 
1 
1 
1 
1 
1 
1 
1 
1 
1 
1 
1 
1 
1 
1 
1 
1 
1 
1 
1 
1 
1 
1 
1 
1 
1 
1 
1 
1 
1 
1 
1 
1 
1 
1 
1 
1 
1 
1 
1 
1 
1 
1 
1 
1 
1 
1 
1 
1 
1 
1 
1 
1 
1 
1 
1 
1 
1 
1 
1 
1 
1 
1 
1 
1 
1 
1 
1 
1 
1 
1 
1 
1 
1 
1 
1 
1 
1 
1 
1 
1 
1 
1 
1 
1 
1 
1 
1 
1 
1 
1 
1 
1 
1 
1 
1 
1 
1 
1 
1 
1 
1 
1 
1 
1 
1 
1 
1 
1 
1 
1 
1 
1 
1 
1 
1 
1 
1 
1 
1 
1 
1 
1 
1 
1 
1 
1 
1 
1 
1 
1 
1 
1 
1 
1 
1 
1 
1 
1 
1 
1 
1 
1 
1 
1 
1 
1 
1 
1 
1 
1 
1 
1 
1 
1 
1 
1 
1 
1 
1 
1 
1 
1 
1 
1 
1 
1 
1 
1 
1 
1 
1 
1 
1 
1 
1 
1 
1 
1 
1 
1 
1 
1 
1 
1 
1 
1 
1 
1 
1 
1 
1 
1 
1 
1 
1 
1 
1 
1 
1 
1 
1 
1 
1 
1 
1 
1 
1 
1 
1 
1 
1 
1 
1 
1 
1 
1 
1 
1 
1 
1 
1 
1 
1 
1 
1 
1 
1 
1 
1 
1 
1 
1 
1 
1 
1 
1 
1 
1 
1 
1 
1 
1 
1 
1 
1 
1 
1 
1 
1 
1 
1 
1 
1 
1 
1 
1 
1 
1 
1 
1 
1 
1 
1 
1 
1 
1 
1 
1 
1 
1 
1 
1 
1 
1 
1 
1 
1 
1 
1 
1 
1 
1 
1 
1 
1 
1 
1 
1 
1 
1 
1 
1 
1 
1 
1 
1 
1 
1 
1 
1 
1 
1 
1 
1 
1 
1 
1 
1 
1 
1 
1 
1 
1 
1 
1 
1 
1 
1 
1 
1 
1 
1 
1 
1 
1 
1 
1 
1 
1 
1 
1 
1 
1 
1 
1 
1 
1 
1 
1 
1 
1 
1 
1 
1 
1 
1 
1 
1 
1 
1 
1 
1 
1 
1 
1 
1 
1 
1 
1 
1 
1 
1 
1 
1 
1 
1 
1 
1 
1 
1 
1 
1 
1 
1 
1 
1 
1 
1 
1 
1 
1 
1 
1 
1 
1 
1 
1 
1 
1 
1 
1 
1 
1 
1 
1 
1 
1 
1 
1 
1 
1 
1 
1 
1 
1 
1 
1 
1 
1 
1 
1 
1 
1 
1 
1 
1 
1 
1 
1 
1 
1 
1 
1 
1 
1 
1 
1 
1 
1 
1 
1 
1 
1 
1 
1 
1 
1 
1 
1 
1 
1 
1 
1 
1 
1 
1 
1 
1 
1 
1 
1 
1 
1 
1 
1 
1 
1 
1 
1 
1 
1 
1 
1 
1 
1 
1 
1 
1 
1 
1 
1 
1 
1 
1 
1 
1 
1 
1 
1 
1 
1 
1 
1 
1 
1 
1 
1 
1 
1 
1 
1 
1 
1 
1 
1 
1 
1 
1 
1 
1 
1 
1 
1 
1 
1 
1 
1 
1 
1 
1 
1 
1 
1 
1 
1 
1 
1 
1 
1 
1 
1 
1 
1 
1 
1 
1 
1 
1 
1 
1 
1 
1 
1 
1 
1 
1 
1 
1 
1 
1 
1 
1 
1 
1 
1 
1 
1 
1 
1 
1 
1 
1 
1 
1 
1 
1 
1 
1 
1 
1 
1 
1 
1 
1 
1 
1 
1 
1 
1 
1 
1 
1 
1 
1 
1 
1 
1 
1 
1 
1 
1 
1 
1 
1 
1 
1 
1 
1 
1 
1 
1 
1 
1 
1 
1 
1 
1 
1 
1 
1 
1 
1 
1 
1 
1 
1 
1 
1 
1 
1 
1 
1 
1 
1 
1 
1 
1 
1 
1 
1 
1 
1 
1 
1 
1 
1 
1 
1 
1 
1 
1 
1 
1 
1 
1 
1 
1 
1 
1 
1 
1 
1 
1 
1 
1 
1 
1 
1 
1 
1 
1 
1 
1 
1 
1 
1 
1 
1 
1 
1 
1 
1 
1 
1 
1 
1 
1 
1 
1 
1 
1 
1 
1 
1 
1 
1 
1 
1 
1 
1 
1 
1 
1 
1 
1 
1 
1 
1 
1 
1 
1 
1 
1 
1 
1 
1 
1 
1 
1 
1 
1 
1 
1 
1 
1 
1 
1 
1 
1 
1 
1 
1 
1 
1 
1 
1 
1 
1 
1 
1 
1 
1 
1 
1 
1 
1 
1 
1 
1 
1 
1 
1 
1 
1 
1 
1 
1 
1 
1 
1 
1 
1 
1 
1 
1 
1 
1 
1 
1 
1 
1 
1 
1 
1 
1 
1 
1 
1 
1 
1 
1 
1 
1 
1 
1 
1 
1 
1 
1 
1 
1 
1 
1 
1 
1 
1 
1 
1 
1 
1 
1 
1 
1 
1 
1 
1 
1 
1 
1 
1 
1 
1 
1 
1 
1 
1 
1 
1 
1 
1 
1 
1 
1 
1 
1 
1 
1 
1 
1 
1 
1 
1 
1 
1 
1 
1 
1 
1 
1 
1 
1 
1 
1 
1 
1 
1 
1 
1 
1 
1 
1 
1 
1 
1 
1 
1 
1 
1 
1 
1 
1 
1 
1 
1 
1 
1 
1 
1 
1 
1 
1 
1 
1 
1 
1 
1 
1 
1 
1 
1 
1 
1 
1 
1 
1 
1 
1 
1 
1 
1 
1 
1 
1 
1 
1 
1 
1 
1 
1 
1 
1 
1 
1 
1 
1 
1 
1 
1 
1 
1 
1 
1 
1 
1 
1 
1 
1 
1 
1 
1 
1 
1 
1 
1 
1 
1 
1 
1 
1 
1 
1 
1 
1 
1 
1 
1 
1 
1 
1 
1 
1 
1 
1 
1 
1 
1 
1 
1 
1 
1 
1 
1 
1 
1 
1 
1 
1 
1 
1 
1 
1 
1 
1 
1 
1 
1 
1 
1 
1 
1 
1 
1 
1 
1 
1 
1 
1 
1 
1 
1 
1 
1 
1 
1 
1 
1 
1 
1 
1 
1 
1 
1 
1 
1 
1 
1 
1 
1 
1 
1 
1 
1 
1 
1 
1 
1 
1 
1 
1 
1 
1 
1 
1 
1 
1 
1 
1 
1 
1 
1 
1 
1 
1 
1 
1 
1 
1 
1 
1 
1 
1 
1 
1 
1 
1 
1 
1 
1 
1 
1 
1 
1 
1 
1 
1 
1 
1 
1 
1 
1 
1 
1 
1 
1 
1 
1 
1 
1 
1 
1 
1 
1 
1 
1 
1 
1 
1 
1 
1 
1 
1 
1 
1 
1 
1 
1 
1 
1 
1 
1 
1 
1 
1 
1 
1 
1 
1 
1 
1 
1 
1 
1 
1 
1 
1 
1 
1 
1 
1 
1 
1 
1 
1 
1 
1 
1 
1 
1 
1 
1 
1 
1 
1 
1 
1 
1 
1 
1 
1 
1 
1 
1 
1 
1 
1 
1 
1 
1 
1 
1 
1 
1 
1 
1 
1 
1 
1 
1 
1 
1 
1 
1 
1 
1 
1 
1 
1 
1 
1 
1 
1 
1 
1 
1 
1 
1 
1 
1 
1 
1 
1 
1 
1 
1 
1 
1 
1 
1 
1 
1 
1 
1 
1 
1 
1 
1 
1 
1 
1 
1 
1 
1 
1 
1 
1 
1 
1 
1 
1 
1 
1 
1 
1 
1 
1 
1 
1 
1 
1 
1 
1 
1 
1 
1 
1 
1 
1 
1 
1 
1 
1 
1 
1 
1 
1 
1 
1 
1 
1 
1 
1 
1 
1 
1 
1 
1 
1 
1 
1 
1 
1 
1 
1 
1 
1 
1 
1 
1 
1 
1 
1 
1 
1 
1 
1 
1 
1 
1 
1 
1 
1 
1 
1 
1 
1 
1 
1 
1 
1 
1 
1 
1 
1 
1 
1 
1 
1 
1 
1 
1 
1 
1 
1 
1 
1 
1 
1 
1 
1 
1 
1 
1 
1 
1 
1 
1 
1 
1 
1 
1 
1 
1 
1 
1 
1 
1 
1 
1 
1 
1 
1 
1 
1 
1 
1 
1 
1 
1 
1 
1 
1 
1 
1 
1 
1 
1 
1 
1 
1 
1 
1 
1 
1 
1 
1 
1 
1 
1 
1 
1 
1 
1 
1 
1 
1 
1 
1 
1 
1 
1 
1 
1 
1 
1 
1 
1 
1 
1 
1 
1 
1 
1 
1 
1 
1 
1 
1 
1 
1 
1 
1 
1 
1 
1 
1 
1 
1 
1 
1 
1 
1 
1 
1 
1 
1 
1 
1 
1 
1 
1 
1 
1 
1 
1 
1 
1 
1 
1 
1 
1 
1 
1 
1 
1 
1 
1 
1 
1 
1 
1 
1 
1 
1 
1 
1 
1 
1 
1 
1 
1 
1 
1 
1 
1 
1 
1 
1 
1 
1 
1 
1 
1 
1 
1 
1 
1 
1 
1 
1 
1 
1 
1 
1 
1 
1 
1 
1 
1 
1 
1 
1 
1 
1 
1 
1 
1 
1 
1 
1 
1 
1 
1 
1 
1 
1 
1 
1 
1 
1 
1 
1 
1 
1 
1 
1 
1 
1 
1 
1 
1 
1 
1 
1 
1 
1 
1 
1 
1 
1 
1 
1 
1 
1 
1 
1 
1 
1 
1 
1 
1 
1 
1 
1 
1 
1 
1 
1 
1 
1 
1 
1 
1 
1 
1 
1 
1 
1 
1 
1 
1 
1 
1 
1 
1 
1 
1 
1 
1 
1 
1 
1 
1 
1 
1 
1 
1 
1 
1 
1 
1 
1 
1 
1 
1 
1 
1 
1 
1 
1 
1 
1 
1 
1 
1 
1 
1 
1 
1 
1 
1 
1 
1 
1 
1 
1 
1 
1 
1 
1 
1 
1 
1 
1 
1 
1 
1 
1 
1 
1 
1 
1 
1 
1 
1 
1 
1 
1 
1 
1 
1 
1 
1 
1 
1 
1 
1 
1 
1 
1 
1 
1 
1 
1 
1 
1 
1 
1 
1 
1 
1 
1 
1 
1 
1 
1 
1 
1 
1 
1 
1 
1 
1 
1 
1 
1 
1 
1 
1 
1 
1 
1 
1 
1 
1 
1 
1 
1 
1 
1 
1 
1 
1 
1 
1 
1 
1 
1 
1 
1 
1 
1 
1 
1 
1 
1 
1 
1 
1 
1 
1 
1 
1 
1 
1 
1 
1 
1 
1 
1 
1 
1 
1 
1 
1 
1 
1 
1 
1 
1 
1 
1 
1 
1 
1 
1 
1 
1 
1 
1 
1 
1 
1 
1 
1 
1 
1 
1 
1 
1 
1 
1 
1 
1 
1 
1 
1 
1 
1 
1 
1 
1 
1 
1 
1 
1 
1 
1 
1 
1 
1 
1 
1 
1 
1 
1 
1 
1 
1 
1 
1 
1 
1 
1 
1 
1 
1 
1 
1 
1 
1 
1 
1 
1 
1 
1 
1 
1 
1 
1 
1 
1 
1 
1 
1 
1 
1 
1 
1 
1 
1 
1 
1 
1 
1 
1 
1 
1 
1 
1 
1 
1 
1 
1 
1 
1 
1 
1 
1 
1 
1 
1 
1 
1 
1 
1 
1 
1 
1 
1 
1 
1 
1 
1 
1 
1 
1 
1 
1 
1 
1 
1 
1 
1 
1 
1 
1 
1 
1 
1 
1 
1 
1 
1 
1 
1 
1 
1 
1 
1 
1 
1 
1 
1 
1 
1 
1 
1 
1 
1 
1 
1 
1 
1 
1 
1 
1 
1 
1 
1 
1 
1 
1 
1 
1 
1 
1 
1 
1 
1 
1 
1 
1 
1 
1 
1 
1 
1 
1 
1 
1 
1 
1 
1 
1 
1 
1 
1 
1 
1 
1 
1 
1 
1 
1 
1 
1 
1 
1 
1 
1 
1 
1 
1 
1 
1 
1 
1 
1 
1 
1 
1 
1 
1 
1 
1 
1 
1 
1 
1 
1 
1 
1 
1 
1 
1 
1 
1 
1 
1 
1 
1 
1 
1 
1 
1 
1 
1 
1 
1 
1 
1 
1 
1 
1 
1 
1 
1 
1 
1 
1 
1 
1 
1 
1 
1 
1 
1 
1 
1 
1 
1 
1 
1 
1 
1 
1 
1 
1 
1 
1 
1 
1 
1 
1 
1 
1 
1 
1 
1 
1 
1 
1 
1 
1 
1 
1 
1 
1 
1 
1 
1 
1 
1 
1 
1 
1 
1 
1 
1 
1 
1 
1 
1 
1 
1 
1 
1 
1 
1 
1 
1 
1 
1 
1 
1 
1 
1 
1 
1 
1 
1 
1 
1 
1 
1 
1 
1 
1 
1 
1 
1 
1 
1 
1 
1 
1 
1 
1 
1 
1 
1 
1 
1 
1 
1 
1 
1 
1 
1 
1 
1 
1 
1 
1 
1 
1 
1 
1 
1 
1 
1 
1 
1 
1 
1 
1 
1 
1 
1 
1 
1 
1 
1 
1 
1 
1 
1 
1 
1 
1 
1 
1 
1 
1 
1 
1 
1 
1 
1 
1 
1 
1 
1 
1 
1 
1 
1 
1 
1 
1 
1 
1 
1 
1 
1 
1 
1 
1 
1 
1 
1 
1 
1 
1 
1 
1 
1 
1 
1 
1 
1 
1 
1 
1 
1 
1 
1 
1 
1 
1 
1 
1 
1 
1 
1 
1 
1 
1 
1 
1 
1 
1 
1 
1 
1 
1 
1 
1 
1 
1 
1 
1 
1 
1 
1 
1 
1 
1 
1 
1 
1 
1 
1 
1 
1 
1 
1 
1 
1 
1 
1 
1 
1 
1 
1 
1 
1 
1 
1 
1 
1 
1 
1 
1 
1 
1 
1 
1 
1 
1 
1 
1 
1 
1 
1 
1 
1 
1 
1 
1 
1 
1 
1 
1 
1 
1 
1 
1 
1 
1 
1 
1 
1 
1 
1 
1 
1 
1 
1 
1 
1 
1 
1 
1 
1 
1 
1 
1 
1 
1 
1 
1 
1 
1 
1 
1 
1 
1 
1 
1 
1 
1 
1 
1 
1 
1 
1 
1 
1 
1 
1 
1 
1 
1 
1 
1 
1 
1 
1 
1 
1 
1 
1 
1 
1 
1 
1 
1 
1 
1 
1 
1 
1 
1 
1 
1 
1 
1 
1 
1 
1 
1 
1 
1 
1 
1 
1 
1 
1 
1 
1 
1 
1 
1 
1 
1 
1 
1 
1 
1 
1 
1 
1 
1 
1 
1 
1 
1 
1 
1 
1 
1 
1 
1 
1 
1 
1 
1 
1 
1 
1 
1 
1 
1 
1 
1 
1 
1 
1 
1 
1 
1 
1 
1 
1 
1 
1 
1 
1 
1 
1 
1 
1 
1 
1 
1 
1 
1 
1 
1 
1 
1 
1 
1 
1 
1 
1 
1 
1 
1 
1 
1 
1 
1 
1 
1 
1 
1 
1 
1 
1 
1 
1 
1 
1 
1 
1 
1 
1 
1 
1 
1 
1 
1 
1 
1 
1 
1 
1 
1 
1 
1 
1 
1 
1 
1 
1 
1 
1 
1 
1 
1 
1 
1 
1 
1 
1 
1 
1 
1 
1 
1 
1 
1 
1 
1 
1 
1 
1 
1 
1 
1 
1 
1 
1 
1 
1 
1 
1 
1 
1 
1 
1 
1 
1 
1 
1 
1 
1 
1 
1 
1 
1 
1 
1 
1 
1 
1 
1 
1 
1 
1 
1 
1 
1 
1 
1 
1 
1 
1 
1 
1 
1 
1 
1 
1 
1 
1 
1 
1 
1 
1 
1 
1 
1 
1 
1 
1 
1 
1 
1 
1 
1 
1 
1 
1 
1 
1 
1 
1 
1 
1 
1 
1 
1 
1 
1 
1 
1 
1 
1 
1 
1 
1 
1 
1 
1 
1 
1 
1 
1 
1 
1 
1 
1 
1 
1 
1 
1 
1 
1 
1 
1 
1 
1 
1 
1 
1 
1 
1 
1 
1 
1 
1 
1 
1 
1 
1 
1 
1 
1 
1 
1 
1 
1 
1 
1 
1 
1 
1 
1 
1 
1 
1 
1 
1 
1 
1 
1 
1 
1 
1 
1 
1 
1 
1 
1 
1 
1 
1 
1 
1 
1 
1 
1 
1 
1 
1 
1 
1 
1 
1 
1 
1 
POINT_DATA 5000
VECTORS Stress float
-1279.55 -1964.79 0.
-2601.01 -2982.84 0.
-17.8141 -43.5489 0.
-239.89 -320.881 0.
-3739.56 -7336.13 0.
-85.9684 -133.768 0.
-2275.4 -1723.45 0.
-67.2648 -114.734 0.
-127.988 -96.5218 0.
-3921.84 -6524.86 0.
-1157.55 -2171.79 0.
-152.507 -230.966 0.
-2130.85 -2887.89 0.
-1647.42 -2262.29 0.
-1240.08 -1711.61 0.
-1026.34 -1478.58 0.
-811.501 -1246.65 0.
-948.326 -1478.54 0.
-799.708 -1382.2 0.
-635.076 -1301.87 0.
-821.618 -1479.58 0.
-749.796 -1313.23 0.
-677.395 -1147.47 0.
-718.462 -1256.08 0.
-789.709 -1421.7 0.
-858.506 -1589.77 0.
-1008.46 -1627.44 0.
-944.101 -1512.58 0.
-727.039 -1355.6 0.
-710.035 -1299.59 0.
-685.311 -1251.29 0.
-715.409 -1266.18 0.
-698.156 -1254.32 0.
-678.692 -1244.68 0.
-705.913 -1283.93 0.
-704.256 -1301.05 0.
-702.545 -1318.22 0.
-800.893 -1382.52 0.
-802.573 -1406.74 0.
-721.749 -1386.62 0.
-704.99 -1360.97 0.
-688.236 -1335.32 0.
-722.526 -1346.71 0.
-742.712 -1393.81 0.
-762.899 -1440.92 0.
-717.745 -1331.11 0.
-616.06 -1093.84 0.
-517.546 -853.397 0.
-467.044 -963.941 0.
-579.931 -1447.09 0.
-758.75 -1864.28 0.
-604.152 -1441.62 0.
-487.33 -934.721 0.
-513.507 -791.589 0.
-600.984 -1044.26 0.
-703.023 -1282.38 0.
-737.659 -1389.56 0.
-719.278 -1346.67 0.
-700.898 -1303.77 0.
-681.781 -1317.66 0.
-711.533 -1376.48 0.
-743.866 -1432.71 0.
-823.36 -1442.09 0.
-815.284 -1407.35 0.
-697.758 -1319.86 0.
-699.488 -1295.79 0.
-700.631 -1272.31 0.
-680.108 -1238.07 0.
-692.246 -1236.84 0.
-702.984 -1237.01 0.
-675.224 -1239.74 0.
-733.713 -1340.38 0.
-789.51 -1443.71 0.
-984.964 -1578.71 0.
-1027.96 -1660.12 0.
-886.886 -1601.94 0.
-797.347 -1430.44 0.
-748.613 -1312.18 0.
-655.407 -1237.76 0.
-731.093 -1402.6 0.
-830.467 -1543.76 0.
-743.044 -1389.99 0.
-958.182 -1579.15 0.
-1158.31 -1783.32 0.
-1039.21 -1411.56 0.
-1190.68 -1450.79 0.
-1332.31 -1499.85 0.
-1582.27 -2556.53 0.
-2717.17 -4409.97 0.
-59.6365 -53.6939 0.
-685.948 -1152.34 0.
-4339.33 -6553.01 0.
-543.222 -624.699 0.
-503.478 -460.669 0.
-2663.68 -3108.71 0.
-37.6592 -48.4245 0.
-3512.03 -5411.27 0.
-107.81 -203.044 0.
-3168.98 -5368.25 0.
-741.8 -1444.18 0.
-1562.74 -2524.8 0.
-36.4074 -37.2611 0.
-13.9944 -36.3341 0.
-7.94488 -21.9996 0.
-15.0514 -32.8949 0.
-17.1406 -37.1215 0.
-104.88 -182.674 0.
-57.2348 -63.4344 0.
-824.238 -434.752 0.
-56.1657 -48.3979 0.
-12.0425 -12.6455 0.
-52.8798 -58.831 0.
-790.367 -806.976 0.
-461.359 -279.198 0.
-340.68 -242.2 0.
-77.3799 -65.2699 0.
-57.0955 -73.9579 0.
-289.146 -566.507 0.
-197.863 -434.115 0.
-159.837 -265.756 0.
-577.304 -1188.46 0.
-492.487 -1039.46 0.
-410.052 -889.038 0.
-519.462 -982.844 0.
-575.71 -1163.51 0.
-628.639 -1347.48 0.
-969.738 -1519.59 0.
-906.941 -1403.16 0.
-566.463 -1102.42 0.
-529.252 -1047.53 0.
-503.939 -994.753 0.
-576.099 -1093.04 0.
-551.969 -1088.06 0.
-554.158 -1056.76 0.
-627.063 -1180.71 0.
-625.669 -1197.57 0.
-623.937 -1214.76 0.
-886.822 -1365.1 0.
-890.748 -1387.07 0.
-680.703 -1309.1 0.
-658.562 -1288.84 0.
-639.955 -1265.04 0.
-735.674 -1291.54 0.
-745.121 -1349.39 0.
-755.483 -1406.32 0.
-716.76 -1299.34 0.
-615.078 -1062.07 0.
-513.397 -824.797 0.
-269.475 -468.628 0.
-397.522 -936.805 0.
-524.855 -1405.61 0.
-448.55 -1002.73 0.
-306.332 -521.061 0.
-510.949 -779.952 0.
-612.97 -1018.07 0.
-714.99 -1256.18 0.
-722.825 -1351.75 0.
-712.083 -1301.22 0.
-703.988 -1248.04 0.
-649.464 -1248.63 0.
-686.612 -1300.05 0.
-724.532 -1350.69 0.
-897.098 -1422.29 0.
-885.543 -1391.04 0.
-614.512 -1174.78 0.
-596.569 -1170.39 0.
-599.387 -1145.23 0.
-541.311 -1049.89 0.
-560.356 -1041.75 0.
-580.586 -1032.43 0.
-514.552 -946.431 0.
-546.525 -1073.62 0.
-605.78 -1173.53 0.
-911.226 -1434.9 0.
-955.041 -1515.51 0.
-767.953 -1454.66 0.
-661.502 -1213.1 0.
-634.079 -1068.57 0.
-308.574 -687.856 0.
-396.687 -856.289 0.
-496.799 -1016.96 0.
-121.672 -102.729 0.
-222.767 -260.533 0.
-334.36 -509.825 0.
-214.703 -172.98 0.
-74.0522 -50.9009 0.
-123.643 -77.5504 0.
-7.65378 -11.371 0.
-366.195 -566.437 0.
-84.8934 -71.1989 0.
-10.3264 -17.5127 0.
-26.0747 -60.7364 0.
-144.661 -163.04 0.
-107.172 -157.841 0.
-120.668 -201.551 0.
-21.1637 -19.481 0.
-54.9522 -91.6198 0.
-134.978 -182.645 0.
-225.694 -456.329 0.
-45.0461 -124.378 0.
0.117241 0.992563 0.
-12.6835 -7.27996 0.
-11.539 -30.4839 0.
-4.72957 -13.095 0.
-15.2969 -32.2642 0.
-13.9994 -29.5953 0.
-98.7605 -112.029 0.
-66.7514 -36.5417 0.
-1480.01 -813.509 0.
-32.6549 -31.5362 0.
-30.4773 -31.0094 0.
-40.3781 -42.8362 0.
-253.982 -176.898 0.
-62.2005 -49.6589 0.
-711.7 -860.435 0.
-86.7624 -70.1347 0.
-114.04 -105.533 0.
-796.716 -1733.59 0.
-700.823 -1608.63 0.
-959.792 -2367.33 0.
-1230.03 -2277.64 0.
-974.891 -1760.07 0.
-762.555 -1343.68 0.
-638.043 -1015.28 0.
-622.688 -1014.9 0.
-1561.2 -3223.06 0.
-1206.97 -1930.09 0.
-1197.9 -1916.48 0.
-798.094 -1362.58 0.
-632.973 -1028.07 0.
-566.485 -917.569 0.
-698.072 -1177.05 0.
-619.576 -999.408 0.
-620.493 -1015.03 0.
-711.97 -1152.18 0.
-653.658 -1021.24 0.
-717.5 -1180.65 0.
-1014.69 -1416.49 0.
-1058.59 -1530.54 0.
-739.489 -1083.99 0.
-647.492 -898.138 0.
-638.645 -893.234 0.
-725.965 -1105.24 0.
-736.871 -1176.61 0.
-665.022 -1073.4 0.
-714.33 -1103.5 0.
-782.171 -1292.33 0.
-857.091 -1493.4 0.
-185.903 -316.313 0.
-25.6046 -42.5485 0.
-5220.69 -3110.69 0.
-27.397 -42.4803 0.
-169.856 -293.876 0.
-876.473 -1437.92 0.
-802.931 -1240.46 0.
-733.124 -1084.12 0.
-692.391 -1078.75 0.
-678.196 -1038.9 0.
-706.316 -1060.06 0.
-662.159 -924.22 0.
-708.421 -1035.48 0.
-733.836 -1061.66 0.
-1075.47 -1568.91 0.
-1082.81 -1575.41 0.
-689.245 -1051.77 0.
-704.941 -1180.17 0.
-710.258 -1174.62 0.
-656.123 -1100.51 0.
-643.009 -1066.86 0.
-714.002 -1190.26 0.
-553.62 -889.59 0.
-699.416 -1236.57 0.
-805.573 -1406.5 0.
-1352.97 -2248.45 0.
-1395.91 -2344.53 0.
-1668.36 -3162.99 0.
-765.314 -1056.47 0.
-814.871 -1073.47 0.
-606.352 -1316.12 0.
-898.587 -1840.86 0.
-2574.34 -5652.35 0.
-505.58 -808.046 0.
-780.411 -1555.68 0.
-842.944 -1605.94 0.
-312.844 -234.058 0.
-140.548 -79.4422 0.
-321.297 -274.391 0.
-26.0368 -27.312 0.
-91.7161 -53.2814 0.
-112.693 -86.2489 0.
-10.8213 -17.6055 0.
-25.1432 -53.9753 0.
-231.734 -184.596 0.
-189.968 -189.291 0.
-252.361 -269.62 0.
-17.7752 -13.3937 0.
-53.4494 -61.1823 0.
-204.006 -225.216 0.
0.519467 1.15541 0.
-1457.04 -2570.63 0.
-1934.68 -3722.15 0.
-0.384311 -0.162476 0.
1.24404 0.942753 0.
-2899.62 -4074.41 0.
-165.27 -244.832 0.
-2891.78 -5156.89 0.
-0.398127 -0.801202 0.
-727.556 -1096.11 0.
0.0129084 0.374709 0.
-3581.59 -6086.06 0.
-34.2096 -46.8343 0.
-24.2318 -25.7335 0.
-3643.07 -7573.76 0.
-25.5453 -36.4443 0.
-1832.07 -2387.55 0.
-1339.71 -1888.9 0.
-910.347 -1356.12 0.
-1817.67 -4097.36 0.
-545.312 -1249.04 0.
-12.2441 -22.0973 0.
-513.274 -1155.36 0.
-319.345 -711.504 0.
-210.998 -277.631 0.
-476.824 -646.513 0.
-316.517 -364.603 0.
-130.865 -126.087 0.
-553.857 -589.888 0.
-588.457 -701.379 0.
-363.789 -359.377 0.
-383.942 -432.381 0.
-414.649 -530.29 0.
-471.667 -641.2 0.
-439.197 -612.618 0.
-408.631 -574.811 0.
-430.869 -582.852 0.
-405.696 -524.02 0.
-395.057 -453.867 0.
-672.754 -793.465 0.
-667.393 -801.121 0.
-518.563 -539.398 0.
-521.917 -550.104 0.
-526.128 -563.848 0.
-622.469 -781.334 0.
-582.487 -686.528 0.
-535.521 -600.764 0.
-627.542 -682.994 0.
-673.294 -805.318 0.
-728.789 -919.568 0.
-5.82206 -8.25576 0.
-4.53716 -6.1023 0.
-5571.32 -2345.31 0.
-12.0653 -19.7722 0.
-6.58894 -11.0587 0.
-693.877 -923.677 0.
-669.969 -817.855 0.
-645.135 -713.5 0.
-568.373 -587.597 0.
-623.644 -659.426 0.
-662.745 -747.392 0.
-500.384 -583.499 0.
-489.761 -554.276 0.
-479.696 -526.33 0.
-617.161 -781.497 0.
-644.809 -805.94 0.
-404.278 -505.65 0.
-406.038 -546.186 0.
-438.543 -630.463 0.
-404.776 -583.672 0.
-424.767 -594.121 0.
-455.885 -595.063 0.
-415.327 -530.4 0.
-379.679 -442.394 0.
-363.364 -406.097 0.
-632.438 -683.726 0.
-586.365 -522.267 0.
-70.4419 -45.7298 0.
-380.587 -277.732 0.
-585.934 -658.492 0.
-63.2698 -68.0729 0.
-212.901 -222.354 0.
-502.036 -983.818 0.
-56.5403 -52.2789 0.
-746.738 -1342.58 0.
-2395.45 -4934.25 0.
-382.38 -412.478 0.
-1185.32 -1784.01 0.
-2102.17 -3082.11 0.
-12.8308 -30.6788 0.
-4250.78 -7963.74 0.
-6.04802 -9.03921 0.
-4.71635 -6.00134 0.
-3543.51 -5253 0.
-93.1152 -172.217 0.
-2804.57 -4568.33 0.
-58.6038 -90.7811 0.
-3073.54 -5832.28 0.
-353.927 -554.271 0.
-1613.8 -2845.09 0.
-32.7905 -89.3348 0.
-1823.1 -3722.53 0.
-17.1205 -34.6045 0.
0.0749823 1.79648 0.
-2087.7 -1952.23 0.
2.22185 1.84602 0.
1.19762 1.60112 0.
-12.265 -28.4178 0.
0.215093 0.561011 0.
0.187149 0.363878 0.
0.00748519 0.684059 0.
-702.286 -509.788 0.
-125.959 -106.811 0.
-30.5171 -32.2295 0.
-15.9597 -18.855 0.
-27.3342 -38.4376 0.
-27.441 -72.3207 0.
-16.8933 -42.6756 0.
-50.6166 -99.5419 0.
-337.517 -448.467 0.
-2.1576 -0.780323 0.
-0.833235 -0.344216 0.
-199.086 -342.217 0.
-33.3797 -48.6963 0.
-63.9313 -85.3117 0.
-461.285 -560.261 0.
-303.145 -273.312 0.
-65.0756 -82.4675 0.
-611.486 -611.764 0.
-648.527 -720.023 0.
-358.489 -334.555 0.
-409.888 -409.105 0.
-439.074 -506.546 0.
-486.067 -554.112 0.
-452.413 -522.793 0.
-415.946 -495.283 0.
-403.267 -520.809 0.
-392.492 -447.396 0.
-386.932 -370.066 0.
-715.971 -801.566 0.
-723.199 -811.455 0.
-587.78 -564.311 0.
-592.302 -574.066 0.
-599.248 -586.233 0.
-745.93 -773.286 0.
-707.983 -695.488 0.
-655.772 -646.06 0.
-770.983 -714.779 0.
-826.789 -829.019 0.
-881.953 -943.308 0.
-3.41122 -4.27474 0.
-2.22893 -1.96537 0.
-6723.65 -2833.38 0.
-7.28477 -14.6941 0.
-2.32641 -5.54221 0.
-874.343 -944.135 0.
-837.585 -850.541 0.
-811.675 -746.691 0.
-686.148 -634.682 0.
-725.993 -694.696 0.
-772.589 -774.227 0.
-551.122 -601.684 0.
-549.863 -562.399 0.
-529.491 -544.242 0.
-690.722 -810.551 0.
-703.502 -836.93 0.
-412.288 -473.789 0.
-413.434 -514.702 0.
-442.799 -604.504 0.
-395.326 -450.843 0.
-438.15 -436.37 0.
-472.995 -428.601 0.
-426.187 -540.898 0.
-392.02 -456.115 0.
-361.225 -370.303 0.
-681.826 -680.508 0.
-635.712 -524.053 0.
-43.3505 -32.1122 0.
-221.776 -123.742 0.
-431.082 -491.316 0.
-94.672 -78.4362 0.
-75.5522 -64.9862 0.
-75.9767 -73.9904 0.
-73.435 -47.9583 0.
-53.875 -32.9432 0.
-361.605 -212.005 0.
-90.4891 -35.9398 0.
-57.1107 -40.6729 0.
-75.865 -70.9671 0.
-32.059 -43.4855 0.
-40.9207 -48.4879 0.
-2.94661 -6.97788 0.
-1.76644 -4.11277 0.
-60.8553 -71.9122 0.
-41.696 -77.9042 0.
-241.849 -539.744 0.
0.957765 0.95916 0.
-138.89 -252.555 0.
-210.423 -401.903 0.
-0.512309 -3.84661 0.
-0.108983 -7.50251 0.
1.68845 2.85095 0.
-793.175 -1173.19 0.
-62.6701 -155.082 0.
0.239624 0.421656 0.
1.14441 1.1337 0.
2.86708 3.05364 0.
-114.812 -161.361 0.
-0.0345893 -0.0948414 0.
-2035.08 -4119 0.
-411.43 -836.442 0.
-398.607 -1085.95 0.
-1590.17 -2248.29 0.
-125.633 -169.315 0.
-2884.44 -4965.55 0.
-3.76047 -5.52447 0.
-0.0303541 -0.0788068 0.
-3205.86 -6122.69 0.
-43.4583 -92.5083 0.
-2380.37 -4267.47 0.
-759.201 -953.046 0.
-12.0952 -23.5673 0.
-2320.99 -4635.66 0.
-1147.8 -2407.32 0.
-80.2028 -73.8164 0.
-1203.06 -2178.53 0.
-871.595 -1609.87 0.
-602.053 -1134.56 0.
-1126.22 -1864.27 0.
-1016.33 -1739.12 0.
-796.407 -1305.58 0.
-743.852 -1186.47 0.
-692.444 -1068.05 0.
-697.909 -1038.95 0.
-672.968 -1022.87 0.
-654.453 -1000.37 0.
-723.805 -1145.87 0.
-705.892 -1135.76 0.
-690.984 -1122.64 0.
-1187.51 -1641.82 0.
-1100.06 -1508.43 0.
-843.181 -1073.01 0.
-828.519 -1037.43 0.
-815.134 -1000.16 0.
-960.156 -1192.48 0.
-955.857 -1196.11 0.
-955.462 -1207.15 0.
-1102.95 -1387.69 0.
-1183.29 -1576.76 0.
-1264.78 -1764.67 0.
-1.49227 -1.14006 0.
-1.30755 -0.66627 0.
-7318.73 -4083.82 0.
0.116538 0.0262445 0.
0.157586 0.0744862 0.
-1281.77 -1838.67 0.
-1190.81 -1634.09 0.
-1100.36 -1428.99 0.
-868.534 -1099.18 0.
-919.18 -1132.29 0.
-945.119 -1208.96 0.
-827.441 -1029.12 0.
-836.272 -1049.22 0.
-847.114 -1067.29 0.
-1088.07 -1469.98 0.
-1148.72 -1570.86 0.
-663.076 -1055.12 0.
-705.521 -1157.81 0.
-756.853 -1259.72 0.
-721.939 -990.387 0.
-704.673 -984.508 0.
-689.052 -976.985 0.
-631.185 -1124.03 0.
-696.201 -1228.38 0.
-765.274 -1330.79 0.
-981.42 -1635.72 0.
-1147.26 -1804.31 0.
-503.781 -884.168 0.
-911.319 -1720.89 0.
-1422.7 -2657.36 0.
-51.866 -20.2321 0.
-1178.4 -2352.99 0.
-2745.42 -5620.9 0.
-197.376 -97.7687 0.
-573.638 -446.646 0.
-2305.77 -3669.6 0.
-12.6271 -4.65008 0.
-3832.65 -7648.39 0.
0.035631 0.0076318 0.
-9.20966 -10.911 0.
-2893.18 -5005.77 0.
-31.9151 -49.8459 0.
-2955.71 -5484.19 0.
-38.4221 -74.4706 0.
-37.1028 -68.5352 0.
0.364552 0.471323 0.
1.37847 1.45302 0.
-127.386 -268.138 0.
0.0784681 6.6334 0.
-1784.75 -3169.07 0.
-0.452708 -5.08381 0.
-2597.84 -3943.9 0.
-2106.73 -4504.25 0.
-0.482351 -7.46082 0.
-1976.51 -4376.34 0.
1.51143 1.75077 0.
-0.445936 -0.382595 0.
-44.8556 -64.399 0.
-1957.79 -4089.09 0.
-0.973599 -2.19259 0.
-0.931069 -2.47574 0.
0.245968 0.569872 0.
-828.777 -1797.94 0.
-75.6 -142.976 0.
-10.686 -19.8215 0.
0.246085 0.334085 0.
0.0892475 0.117736 0.
-251.435 -376.443 0.
-5.62052 -15.3609 0.
-11.8868 -31.5558 0.
-6.54328 -17.0114 0.
-16.3422 -43.4801 0.
-483.64 -793.19 0.
-27.1864 -21.5135 0.
-21.0168 -22.0548 0.
-559.092 -1050.21 0.
-323.952 -451.141 0.
-143.354 -185.882 0.
-838.311 -1508.65 0.
-747.762 -1437.73 0.
-667.289 -1160.84 0.
-605.746 -1070.62 0.
-564.955 -980.836 0.
-651.234 -900.79 0.
-631.244 -883.785 0.
-611.565 -881.394 0.
-658.836 -961.391 0.
-645.681 -958.586 0.
-631.835 -956.787 0.
-1005.85 -1420.09 0.
-926.555 -1303.52 0.
-775.04 -981.064 0.
-758.078 -947.894 0.
-741.431 -914.896 0.
-857.513 -1015.96 0.
-865.298 -1025.25 0.
-852.391 -1078.47 0.
-964.65 -1265.89 0.
-1040.73 -1455.98 0.
-1119.29 -1647.94 0.
-0.800361 -0.889457 0.
-0.436235 -0.205488 0.
-5913.58 -3447.67 0.
0.222417 0.0900143 0.
0.19423 0.192906 0.
-1139.23 -1715.19 0.
-1021.9 -1472.23 0.
-923.559 -1258.77 0.
-751.297 -959.432 0.
-758.455 -1000.55 0.
-830.6 -1008.4 0.
-723.694 -944.374 0.
-729.015 -957.442 0.
-740.808 -984.299 0.
-919.762 -1306.3 0.
-981.364 -1380.57 0.
-605.528 -938.309 0.
-628.484 -990.565 0.
-670.752 -1079.38 0.
-682.734 -921.644 0.
-671.484 -908.573 0.
-666.598 -895.86 0.
-541.422 -935.71 0.
-577.18 -1003.09 0.
-628.947 -1104.22 0.
-659.686 -1197.59 0.
-767.346 -1320.92 0.
-101.963 -79.1856 0.
-235.235 -110.726 0.
-594.577 -1113.21 0.
-52.6709 -21.0904 0.
-68.1929 -24.6253 0.
-253.026 -162.65 0.
-68.1837 -35.2025 0.
-35.6544 -13.4144 0.
-22.9105 -8.49643 0.
-71.9164 -26.265 0.
-36.3856 -15.1519 0.
0.697048 0.148993 0.
-7.53496 -7.57904 0.
-86.7128 -108.466 0.
-36.8398 -58.7217 0.
-56.6252 -109.283 0.
-19.78 -43.6309 0.
-2556.01 -5415.59 0.
-6.59222 -11.5479 0.
-2030 -4005.94 0.
-164.877 -375.355 0.
-0.0652702 -1.98607 0.
6.58101 12.0277 0.
7.074 11.7284 0.
13.2299 15.1675 0.
-242.03 -458.44 0.
0.135938 20.1197 0.
-97.8894 -220.446 0.
2.13347 5.50308 0.
-153.319 -319.418 0.
-70.5003 -124.528 0.
2.0809 2.52627 0.
-0.415556 -0.670972 0.
0.582186 1.54296 0.
0.570733 0.590287 0.
-467.992 -1166.34 0.
-44.3491 -102.053 0.
-12.4019 -30.6052 0.
-0.125042 -0.167558 0.
0.0715266 0.0822159 0.
-0.0549084 -0.11635 0.
-7.07328 -15.5793 0.
-25.7443 -57.2745 0.
-18.5156 -45.111 0.
-32.4411 -81.8561 0.
-138.695 -130.156 0.
-33.3671 -28.7939 0.
-21.7843 -22.2987 0.
-342.321 -293.469 0.
-108.064 -99.7401 0.
-180.605 -207.405 0.
-744.943 -1194.15 0.
-402.636 -510.788 0.
-433.342 -551.337 0.
-429.598 -512.123 0.
-230.237 -95.3543 0.
-697.136 -787.042 0.
-336.856 -261.611 0.
-96.3655 -52.0437 0.
-453.432 -465.528 0.
-483.249 -529.832 0.
-517.876 -588.642 0.
-677.383 -780.596 0.
-752.083 -894.092 0.
-603.645 -464.927 0.
-625.191 -537.201 0.
-498.631 -323.977 0.
-568.791 -466.012 0.
-532.668 -403.559 0.
-761.468 -954.558 0.
-694.649 -841.305 0.
-603.634 -616.442 0.
-643.356 -720.843 0.
-0.0993356 -0.00811834 0.
-0.0741804 -0.0234281 0.
-5198.29 -2882.45 0.
-30.4955 -22.4868 0.
-36.9432 -16.3695 0.
-752.073 -941.921 0.
-685.342 -740.997 0.
-736.468 -829.639 0.
-571.462 -440.773 0.
-698.793 -705.984 0.
-688.356 -574.428 0.
-553.589 -548.368 0.
-504.939 -419.423 0.
-545.596 -300.072 0.
-605.289 -642.433 0.
-784.437 -1059.92 0.
-386.777 -289.637 0.
-493.696 -448.971 0.
-240.198 -119.935 0.
-326.979 -274.813 0.
-285.035 -164.096 0.
-209.931 -116.912 0.
-231.647 -107.393 0.
-422.114 -481.448 0.
-445.271 -582.647 0.
-279.872 -254.558 0.
-648.422 -1072.5 0.
-120.07 -85.8169 0.
-98.6992 -48.5874 0.
-61.5593 -29.886 0.
-73.2396 -29.0968 0.
-76.1409 -27.5009 0.
-87.6322 -41.4894 0.
-90.5337 -40.1319 0.
-54.422 -19.9888 0.
-40.4999 -14.7572 0.
-249.603 -91.8268 0.
-35.3183 -12.7653 0.
0.233063 0.000199162 0.
-11.0988 -10.2484 0.
-89.3743 -117.448 0.
-63.3352 -95.7899 0.
-81.8285 -147.857 0.
-6.89917 -16.4418 0.
-197.501 -546.767 0.
-28.2035 -54.4758 0.
-1.99576 -4.53059 0.
-655.906 -1217.1 0.
0.771666 6.79021 0.
-2062.22 -3461.9 0.
16.5279 21.0546 0.
-895.557 -1115.39 0.
-1534.36 -2483.29 0.
-0.579928 -17.3091 0.
-72.9848 -129.458 0.
-0.475212 -1.172 0.
-155.122 -264.993 0.
-1994.5 -3225.48 0.
-456.184 -680.163 0.
-12.1094 -16.8706 0.
-8.86204 -23.8161 0.
-2308.68 -4890.28 0.
-1166.98 -1490.49 0.
0.555724 0.696905 0.
-2717.98 -5166.59 0.
-25.0028 -51.868 0.
-34.9081 -90.19 0.
-3108.84 -6227.71 0.
-15.0557 -40.0504 0.
-3246.58 -4747.24 0.
-22.1255 -51.0358 0.
-11.5051 -28.6012 0.
-3108.96 -7043.6 0.
-130.212 -177.22 0.
-21.9713 -9.95678 0.
-1959.4 -4365.74 0.
-662.127 -1404.63 0.
-18.4867 -31.2385 0.
-1173.19 -2341.03 0.
-747.829 -1466.26 0.
-764.068 -1443.44 0.
-586.477 -1078.07 0.
-415.3 -713.631 0.
-615.817 -1006.69 0.
-579.15 -941.585 0.
-539.059 -883.3 0.
-580.317 -804.794 0.
-541.861 -738.599 0.
-496.316 -680.87 0.
-813.618 -1127.99 0.
-803.421 -1117.78 0.
-587.859 -788.737 0.
-580.158 -765.154 0.
-586.042 -778.387 0.
-654.094 -863.035 0.
-643.148 -843.558 0.
-635.23 -831.69 0.
-580.906 -891.048 0.
-635.737 -1010.85 0.
-704.568 -1141.93 0.
-0.0936339 -0.00291903 0.
-0.0388149 -0.0165856 0.
-3749.92 -2370.18 0.
-36.5507 -25.0199 0.
-42.2938 -18.3505 0.
-711.057 -1088.34 0.
-685.421 -1019.91 0.
-667.706 -942.021 0.
-676.27 -884.215 0.
-658.87 -833.592 0.
-609.968 -811.902 0.
-606.664 -799.556 0.
-596.602 -793.944 0.
-590.873 -799.425 0.
-836.139 -1160.28 0.
-853.67 -1181.01 0.
-540.705 -785.556 0.
-581.627 -853.727 0.
-620.135 -922.598 0.
-574.305 -893.41 0.
-674.438 -1091.77 0.
-772.846 -1289.2 0.
-455.046 -787.29 0.
-688.675 -1288.28 0.
-936.912 -1776.93 0.
-851.726 -1692.43 0.
-1552.81 -3156.37 0.
-35.011 -17.3606 0.
-774.597 -1483.18 0.
-2465.22 -5288.4 0.
-22.0524 -8.15511 0.
-13.4321 -5.07193 0.
-3114.74 -6812 0.
-40.1134 -14.9303 0.
-32.7995 -12.5026 0.
-3046.02 -5413.57 0.
-109.077 -46.4515 0.
-2697.98 -2914.87 0.
-60.5999 -60.8204 0.
-2944.36 -5987.65 0.
-0.122098 -0.24204 0.
-0.931888 -0.848608 0.
-2121.02 -3744.62 0.
-0.865316 -2.15459 0.
-48.5217 -115.403 0.
-81.2915 -207.64 0.
1.18886 2.41286 0.
-759.119 -1382.3 0.
0.223223 1.95678 0.
-3.84451 -16.6917 0.
-6.65817 -16.1829 0.
-2063.17 -3377.86 0.
-1338.74 -1597 0.
0.0749084 0.155656 0.
-2246.07 -3333.16 0.
7.43126 18.2781 0.
-1883.89 -2598.92 0.
0.0174876 1.90602 0.
-109.156 -224.629 0.
-50.9006 -79.5625 0.
-134.312 -303.494 0.
-308.892 -794.168 0.
1.29104 1.68388 0.
0.576115 0.89675 0.
-0.181124 -1.47467 0.
-6.3971 -14.1757 0.
-14.7457 -38.3942 0.
-19.4886 -47.3478 0.
-0.196573 -0.252478 0.
-38.9401 -86.7852 0.
-28.5791 -54.8148 0.
-14.2953 -27.5142 0.
-35.3081 -41.0801 0.
-22.7864 -24.1884 0.
-12.8461 -7.10527 0.
-332.299 -607.959 0.
-6.80766 -11.6423 0.
-12.0693 -24.9008 0.
-602.193 -1150.15 0.
-244.931 -210.265 0.
-506.813 -881.588 0.
-366.184 -481.754 0.
-212.439 -98.8819 0.
-504.992 -787.762 0.
-466.873 -726.56 0.
-434.041 -660.638 0.
-523.399 -689.818 0.
-485.947 -624.1 0.
-452.302 -578.82 0.
-822.604 -1127.84 0.
-813.513 -1119.38 0.
-542.458 -646.656 0.
-536.41 -620.541 0.
-536.304 -610.841 0.
-589.802 -809.393 0.
-574.605 -774.539 0.
-560.049 -738.724 0.
-444.519 -805.982 0.
-501.254 -944.439 0.
-563.692 -1080.74 0.
-0.0675593 -0.00143002 0.
-0.0092991 -0.0042547 0.
-2690.39 -1792.1 0.
-42.4682 -27.7976 0.
-46.9407 -21.4214 0.
-614.356 -929.846 0.
-583.041 -866.515 0.
-551.069 -804.045 0.
-606.029 -775.061 0.
-578.993 -730.854 0.
-555.771 -687.947 0.
-550.109 -663.333 0.
-546.664 -653.633 0.
-558.74 -680.576 0.
-872.598 -1170.92 0.
-889.937 -1190.93 0.
-495.102 -660.185 0.
-533.845 -731.284 0.
-572.622 -808.815 0.
-373.594 -623.663 0.
-462.544 -830.503 0.
-570.352 -1024.93 0.
-64.0651 -42.5313 0.
-350.62 -491.113 0.
-562.467 -1018.54 0.
-62.8153 -26.6751 0.
-720.119 -1320.6 0.
-46.2729 -21.2434 0.
-51.4994 -18.6633 0.
-70.9582 -26.0624 0.
-16.8783 -6.22035 0.
-3.15764 -1.16539 0.
-11.0932 -4.56781 0.
-31.3454 -11.5404 0.
-24.5827 -9.19595 0.
-20.1762 -7.77169 0.
-52.198 -26.4295 0.
-71.6221 -57.4453 0.
-89.8448 -64.9368 0.
-496.383 -845.345 0.
0.00606369 0.00909915 0.
-0.44967 -0.276813 0.
-0.817987 -0.890399 0.
-1516.49 -3143.17 0.
-96.3955 -266.896 0.
-140.863 -390.145 0.
-1307.55 -2577.37 0.
-2237.3 -4028.85 0.
0.0277822 0.161606 0.
-1203.65 -2311.43 0.
10.8473 15.8027 0.
-10.8644 -20.0747 0.
-1184.52 -1577.93 0.
-8.70133 -32.5295 0.
-4.16531 -32.886 0.
9.96432 20.7461 0.
1.98104 4.37702 0.
-0.306792 -4.49992 0.
-18.6461 -47.9134 0.
-2065.19 -2997.73 0.
1.42951 2.94536 0.
-126.566 -337.009 0.
-0.0391187 -0.670174 0.
0.113474 0.449452 0.
0.111366 1.45368 0.
-0.00698783 -0.239398 0.
-15.1337 -26.1947 0.
-1627.76 -3412.42 0.
-0.0847458 -0.104385 0.
-2372.44 -4420.03 0.
-29.8515 -59.4655 0.
-19.6274 -40.7167 0.
-2855.42 -6931.64 0.
-12.2575 -21.6956 0.
-12.8743 -23.307 0.
-2461.31 -5312.91 0.
-223.786 -179.995 0.
-10.6882 -29.1711 0.
-1783.76 -3903.48 0.
-827.413 -1718.69 0.
-1127.63 -2209.15 0.
-765.842 -1464.72 0.
-446.201 -693.139 0.
-777.052 -1445.3 0.
-624.265 -1150.66 0.
-474.587 -853.143 0.
-688.537 -989.148 0.
-670.099 -960.704 0.
-652.455 -936.953 0.
-988.177 -1557.8 0.
-970.891 -1528.24 0.
-724.292 -1051.16 0.
-692.285 -984.027 0.
-666.066 -932.032 0.
-720.948 -1060.01 0.
-695.465 -1123.55 0.
-712.623 -1154.77 0.
-692.255 -1210.54 0.
-645.111 -1086.81 0.
-534.983 -1027.87 0.
-240.932 -433.002 0.
-290.846 -590.585 0.
-3005.47 -2562.46 0.
-218.853 -429.082 0.
-176.48 -307.166 0.
-552.79 -996.957 0.
-603.536 -1101.19 0.
-656.795 -1210.54 0.
-705.413 -1075.69 0.
-698.533 -1061.68 0.
-695.711 -1059.79 0.
-712.498 -984.497 0.
-717.74 -992.862 0.
-723.044 -1001.36 0.
-1002.09 -1533.38 0.
-1028.8 -1603.47 0.
-603.121 -863.076 0.
-662.992 -959.525 0.
-732.006 -1073.62 0.
-421.539 -810.689 0.
-658.982 -1291.63 0.
-908.299 -1765.47 0.
-351.258 -468.24 0.
-825.117 -1530.14 0.
-1352.68 -2548.85 0.
-746.573 -1299.69 0.
-1954.51 -4226.23 0.
-19.8632 -7.22722 0.
-15.5408 -5.84444 0.
-2856.27 -6678.36 0.
-22.7562 -18.6285 0.
-7.32197 -2.68808 0.
-2664.27 -3483.28 0.
-4.21943 -2.00988 0.
-3337.08 -7117.61 0.
-0.0760453 -0.000321276 0.
0.0014431 0.996966 0.
-2436.33 -4883.57 0.
-404.212 -282.895 0.
-806.099 -1497.61 0.
0.122877 0.11099 0.
-32.9659 -21.6031 0.
-1.17297 -1.65785 0.
-161.817 -406.705 0.
-1157.59 -2126.25 0.
-0.0201613 -11.8049 0.
7.46496 14.7368 0.
-0.152423 -2.97519 0.
-1.35742 -16.9104 0.
-183.172 -387.666 0.
11.0927 23.5607 0.
-1052.25 -1709.96 0.
-730.891 -1101.95 0.
17.8031 23.3583 0.
-1621.77 -3307.35 0.
-4.42257 -17.5113 0.
-1364.65 -2836.36 0.
4.95678 10.3994 0.
-49.246 -125.316 0.
-0.84461 -5.91077 0.
-0.861119 -3.91461 0.
-253.338 -685.08 0.
0.797446 2.10324 0.
-2175.44 -3662.58 0.
-0.360116 -1.8293 0.
-2295.12 -4922.6 0.
-0.210854 -1.46594 0.
-27.9558 -77.4321 0.
-0.427922 -0.582706 0.
-98.139 -194.067 0.
-0.0721248 -0.183088 0.
0.0218105 0.166772 0.
-10.5954 -28.3101 0.
-5.00783 -12.1625 0.
-5.1425 -14.2158 0.
-6.48597 -17.348 0.
-6.8093 -14.9339 0.
-7.87016 -13.0596 0.
-585.268 -1217.85 0.
-24.9947 -34.0289 0.
-528.425 -940.997 0.
-196.327 -164.016 0.
-22.6964 -27.7417 0.
-501.184 -1001.01 0.
-352.905 -670.727 0.
-228.22 -322.287 0.
-545.226 -857.187 0.
-530.273 -828.663 0.
-516.125 -809.146 0.
-865.203 -1466.34 0.
-849.935 -1438.91 0.
-630.24 -923.345 0.
-608.183 -874.927 0.
-605.594 -883.737 0.
-559.981 -971.66 0.
-578.334 -1007.4 0.
-597.097 -1044 0.
-576.951 -1159.35 0.
-536.682 -1042.12 0.
-496.154 -1009.55 0.
-295.473 -504.177 0.
-343.932 -644.977 0.
-1304.22 -1786.15 0.
-246.522 -512.506 0.
-207.02 -386.16 0.
-494.311 -1008.43 0.
-528.121 -1058.1 0.
-586.364 -1138.32 0.
-586.871 -1039.13 0.
-582.16 -1020.99 0.
-574.949 -1006.33 0.
-598.865 -920.686 0.
-590.011 -890.373 0.
-594.45 -899.495 0.
-883.714 -1441.16 0.
-909.674 -1506.67 0.
-417.114 -610.554 0.
-469.633 -714.098 0.
-524.609 -816.596 0.
-140.162 -65.6007 0.
-341.325 -586.432 0.
-547.541 -1099.48 0.
-44.0106 -20.5899 0.
-32.4845 -14.3404 0.
-530.871 -764.21 0.
-48.3036 -19.706 0.
-556.248 -766.173 0.
-20.2086 -7.72758 0.
-17.2952 -6.42557 0.
-20.9355 -8.37649 0.
-6.77627 -9.05758 0.
0.00205433 0.0014362 0.
-33.79 -16.1313 0.
-9.70455 -5.02845 0.
0.29328 0.142161 0.
0.993203 0.000118009 0.
0.638621 0.0166653 0.
-32.7254 -25.086 0.
-6.6972 -4.08331 0.
-866.287 -1167.83 0.
-2877.31 -6163.16 0.
-73.5374 -48.9865 0.
1.31605 1.68048 0.
-346.453 -766.193 0.
-778.631 -1297.54 0.
9.93957 25.7348 0.
1.82302 3.72795 0.
11.0567 26.029 0.
2.19989 4.94369 0.
-1595.58 -2982.87 0.
-8.23677 -45.8186 0.
-224.598 -307.425 0.
-610.246 -937.885 0.
47.8658 88.0065 0.
-10.1062 -48.1159 0.
-1.81246 -30.0619 0.
2.39288 5.02828 0.
-0.0927137 -16.8814 0.
-152.641 -319.699 0.
-447.579 -937.851 0.
-0.837352 -3.0275 0.
0.0677938 1.55455 0.
-1223.73 -3028.52 0.
-0.580181 -2.00105 0.
-0.109735 -0.664753 0.
0.47675 0.980717 0.
-0.176879 -2.04443 0.
-54.5581 -135.049 0.
-23.2992 -60.4891 0.
-130.017 -243.662 0.
-0.00336386 -0.0291404 0.
0.0630153 0.324052 0.
-5.56215 -12.5604 0.
-0.557247 -0.43309 0.
-0.790444 -2.14356 0.
-3.78161 -9.059 0.
-9.08773 -3.99437 0.
-19.0664 -14.966 0.
-18.771 -20.9477 0.
-21.4652 -32.9044 0.
-11.1418 -26.7702 0.
-13.4343 -25.2691 0.
-15.2297 -25.6399 0.
-268.844 -380.024 0.
-97.5415 -64.5154 0.
-50.7176 -41.2073 0.
-337.011 -526.424 0.
-256.689 -315.947 0.
-24.3863 -13.3516 0.
-295.232 -310.491 0.
-417.849 -650.292 0.
-47.163 -34.9774 0.
-240.808 -378.012 0.
-92.4294 -113.737 0.
-88.4866 -195.852 0.
-109.057 -224.681 0.
-110.717 -209.991 0.
-93.6125 -137.291 0.
-69.5349 -100.106 0.
-68.6724 -99.7015 0.
-153.942 -89.1461 0.
-231.195 -260.363 0.
-432.374 -641.102 0.
-52.2922 -28.3678 0.
-47.4609 -24.32 0.
-55.7004 -89.999 0.
-64.6726 -97.5525 0.
-101.767 -172.397 0.
-161.138 -326.623 0.
-134.462 -265.485 0.
-146.716 -293.264 0.
-139.692 -132.648 0.
-208.579 -257.616 0.
-262.243 -283.789 0.
-417.506 -514.251 0.
-317.437 -244.606 0.
-83.1412 -37.1467 0.
-287.543 -422.928 0.
-383.441 -676.897 0.
-51.3394 -28.1704 0.
-41.9787 -21.0461 0.
-301.822 -446.964 0.
-52.5293 -23.5665 0.
-48.1409 -20.5872 0.
-53.2181 -28.4692 0.
-52.0309 -22.1553 0.
-28.3741 -11.5076 0.
-38.1273 -15.3661 0.
-22.7774 -11.1011 0.
-22.1655 -13.7587 0.
-2.06731 -5.49402 0.
0.03448 0.209203 0.
-2.08185 -1.68481 0.
-26.1083 -13.2789 0.
-0.419273 -0.21934 0.
0.112542 0.000916231 0.
0.699812 0.05757 0.
-35.8088 -33.8198 0.
0.209575 0.382286 0.
-0.0190379 -0.475212 0.
-195.346 -516.487 0.
-17.3468 -47.6437 0.
-19.4438 -26.1982 0.
-268.314 -513.392 0.
1.51516 16.5918 0.
-2069.34 -5088.26 0.
-41.2416 -87.3036 0.
-1612.88 -3631.67 0.
-29.7874 -65.3127 0.
14.5769 32.5546 0.
37.6072 67.6912 0.
-191.139 -304.745 0.
96.9367 186.246 0.
51.0765 83.4591 0.
-1447.47 -2592.71 0.
14.5542 33.7411 0.
12.5728 25.6744 0.
-0.372953 -11.0294 0.
-200.668 -396.686 0.
-1360.11 -2865.09 0.
1.24655 3.76102 0.
-923.096 -1993.35 0.
-48.2944 -124.43 0.
-0.0429687 -2.94567 0.
1.8047 3.75313 0.
0.505673 1.11494 0.
-0.109953 -1.9693 0.
-1583.8 -1932.33 0.
-44.0477 -121.911 0.
-0.0599821 -0.568192 0.
-3012.76 -6952.35 0.
-0.00328849 -0.0571177 0.
-2198.34 -4019.81 0.
-5.02598 -11.3971 0.
-4.67574 -10.3989 0.
-2494.05 -5591.86 0.
-8.4573 -13.8876 0.
-12.5583 -20.4008 0.
-2207.27 -5351.03 0.
-231.352 -349.804 0.
-1630.68 -3332.83 0.
-760.139 -1418.94 0.
-6.70844 -9.41453 0.
-1122.35 -2613.39 0.
-646.917 -1523.03 0.
-211.731 -389.011 0.
-708.573 -1651.59 0.
-474.783 -1086.53 0.
-265.2 -541.716 0.
-653.374 -1450.72 0.
-615.734 -1370.64 0.
-426.482 -806.156 0.
-438.815 -842.431 0.
-468.122 -912.001 0.
-362.333 -904.642 0.
-349.168 -879.702 0.
-339.086 -855.239 0.
-378.689 -943.74 0.
-351.941 -893.094 0.
-332.517 -840.784 0.
-350.134 -565.895 0.
-397.844 -695.956 0.
-273.331 -655.282 0.
-264.849 -607.457 0.
-232.843 -491.601 0.
-364.508 -868.607 0.
-380.916 -909.448 0.
-398.189 -950.933 0.
-324.037 -866.825 0.
-318.992 -853.142 0.
-316.334 -830.65 0.
-441.161 -845.325 0.
-434.438 -831.74 0.
-431.352 -829.405 0.
-643.247 -1451.12 0.
-728.245 -1628.34 0.
-248.79 -436.087 0.
-541.122 -1232.41 0.
-856.952 -2006.03 0.
-79.7113 -29.1958 0.
-702.25 -1568.44 0.
-1353.2 -3088.96 0.
-38.9154 -14.0561 0.
-785.052 -1325.75 0.
-1866.98 -3788.87 0.
-26.2368 -10.9619 0.
-2382.71 -5196.44 0.
-62.677 -25.262 0.
-2.81978 -1.49358 0.
-2720.9 -6399.21 0.
-3.43289 -1.36491 0.
-27.169 -14.3306 0.
-2536.74 -4151.91 0.
-53.7862 -21.7947 0.
-1910.56 -3412.99 0.
-0.402832 -0.197974 0.
-2227.36 -4607.16 0.
0.802287 0.138691 0.
0.182671 0.529569 0.
0.0108177 1.15934 0.
-80.2886 -216.111 0.
-20.6088 -25.9628 0.
-2535.38 -4841.1 0.
-322.254 -512.29 0.
-0.28416 -29.8905 0.
-66.1645 -156.498 0.
12.3993 33.378 0.
8.4028 21.2239 0.
1.67163 3.64501 0.
-623.777 -1314.23 0.
-32.6115 -87.9133 0.
-812.922 -1172.16 0.
-1.73969 -3.56171 0.
-36.0494 -109.399 0.
-747.915 -1279.67 0.
12.6825 28.0995 0.
-1459.83 -2883.23 0.
-1.3341 -19.862 0.
-1441.37 -2746.65 0.
-1.7231 -26.1158 0.
0.00179679 1.482 0.
4.94535 10.4013 0.
-63.8487 -169.773 0.
-0.0815831 -4.53006 0.
-1783.2 -3832.56 0.
-0.0432451 -0.941709 0.
-2160.98 -4465.85 0.
4.39419e-05 0.279079 0.
0.337554 0.933196 0.
-0.00972689 -0.184483 0.
-29.9791 -63.7753 0.
-6.61541 -17.5946 0.
-6.87508 -14.0273 0.
-6.1399 -11.8412 0.
-5.81469 -10.91 0.
-8.8196 -13.0324 0.
-11.682 -16.9601 0.
-16.3169 -23.8006 0.
-68.2228 -85.7048 0.
-5.33607 -2.70748 0.
-305.72 -383.565 0.
-4.14982 -2.57885 0.
-3.48012 -6.53018 0.
-507.541 -1131.68 0.
-34.8152 -35.3718 0.
-30.3626 -39.4712 0.
-495.221 -1205.28 0.
-282.761 -624.049 0.
-155.002 -239.854 0.
-556.352 -1310.31 0.
-518.653 -1234.69 0.
-352.886 -696.341 0.
-355.653 -694.882 0.
-377.674 -743.633 0.
-354.824 -816.07 0.
-344.515 -789.712 0.
-334.821 -763.207 0.
-323.285 -852.29 0.
-304.281 -796.175 0.
-285.606 -739.385 0.
-416.141 -691.382 0.
-465.766 -823.598 0.
-427.55 -1179.8 0.
-308.691 -742.191 0.
-287.219 -649.95 0.
-304.914 -726.177 0.
-320.5 -771.732 0.
-336.064 -817.639 0.
-329.004 -728.457 0.
-316.123 -729.932 0.
-307.723 -728.242 0.
-327.292 -737.647 0.
-328.029 -722.571 0.
-336.242 -716.034 0.
-501.234 -1222.25 0.
-574.622 -1398.51 0.
-26.2028 -10.7327 0.
-302.58 -578.37 0.
-589.142 -1383.12 0.
-36.8447 -14.0917 0.
-48.183 -18.1258 0.
-523.758 -988.431 0.
-68.8764 -26.463 0.
-31.3409 -12.2532 0.
-154.654 -60.8463 0.
-21.8138 -9.59161 0.
-24.0977 -10.3493 0.
-35.9736 -13.9097 0.
-2.57202 -1.94819 0.
0.12397 0.0652368 0.
-47.2723 -17.4098 0.
-61.6578 -29.987 0.
-131.159 -85.8144 0.
-215.81 -117.41 0.
-19.7454 -8.1061 0.
-0.184558 -0.189074 0.
-2.01884 -2.64028 0.
0.167278 0.462275 0.
-2135.91 -3445.14 0.
-1349.34 -2682.14 0.
-47.2784 -121.243 0.
-11.7255 -4.25858 0.
1.40457 8.03231 0.
-374.465 -506.607 0.
-0.00128202 -0.863973 0.
-282.063 -608.337 0.
-0.62033 -23.0979 0.
14.3318 34.1949 0.
-1.65339 -3.29429 0.
18.0316 35.8647 0.
74.8679 112.546 0.
-19.5592 -176.198 0.
80.5133 169.138 0.
-612.121 -991.974 0.
-52.0679 -120.784 0.
21.1575 44.2355 0.
-2.8218 -44.6839 0.
17.28 40.3605 0.
5.01441 12.3291 0.
-2.74847 -30.1954 0.
-240.874 -588.947 0.
5.75182 11.7448 0.
-0.372003 -12.8891 0.
2.5336 6.78089 0.
-18.6762 -40.5901 0.
-0.0397518 -1.48065 0.
1.19738 3.12942 0.
-8.75934e-05 -1.4024 0.
0.510024 1.41173 0.
-0.0549815 -1.70672 0.
-51.1587 -73.0372 0.
-135.236 -303.822 0.
-1978.94 -4190.42 0.
-9.21592 -18.7892 0.
-30.2604 -56.9608 0.
-2188.56 -5261.01 0.
-6.09912 -8.54399 0.
-4.33517 -3.44498 0.
-2208.03 -5046.89 0.
-0.876322 -1.43635 0.
-1746.32 -3699.36 0.
-503.683 -767.163 0.
-21.9611 -22.899 0.
-1381.96 -3263.34 0.
-565.894 -1281.66 0.
-10.2796 -4.41316 0.
-932.093 -2250.25 0.
-525.893 -1256.18 0.
-146.801 -236.806 0.
-735.21 -1753.17 0.
-615.701 -1524.9 0.
-446.66 -1041.05 0.
-393.683 -910.679 0.
-356.709 -822.293 0.
-389.273 -849.953 0.
-382.601 -832.111 0.
-375.544 -812.32 0.
-437.48 -933.998 0.
-342.893 -878.504 0.
-307.135 -781.027 0.
-456.552 -828.434 0.
-462.057 -843.899 0.
-920.404 -1112.21 0.
-284.204 -715.736 0.
-305.744 -766.503 0.
-337.131 -761.088 0.
-354.441 -806.425 0.
-374.835 -860.767 0.
-377.274 -799.874 0.
-387.804 -816.808 0.
-399.183 -833.714 0.
-345.779 -879.609 0.
-419.593 -1040.96 0.
-501.303 -1203.26 0.
-628.362 -1553.45 0.
-818.39 -1904.48 0.
-113.335 -120.87 0.
-583.974 -1383.18 0.
-1084.22 -2624.22 0.
-33.869 -16.7732 0.
-533.268 -1075.13 0.
-1647.68 -3929.34 0.
-61.1496 -22.8687 0.
-461.041 -288.56 0.
-1866.72 -3531.79 0.
-34.7844 -16.796 0.
-2401.96 -5866.27 0.
-82.6326 -75.5458 0.
-40.2774 -29.6632 0.
-1972.64 -2876.43 0.
-91.5189 -71.0904 0.
-2434.34 -5850.11 0.
-925.095 -779.889 0.
-435.187 -239.188 0.
-72.7784 -29.4873 0.
0.391456 0.806056 0.
-2.20066 -4.32707 0.
-0.000154272 -0.309032 0.
-72.9928 -158.255 0.
-58.5083 -119.019 0.
-334.796 -927.283 0.
-1.64013 -0.00447836 0.
-0.480097 -15.515 0.
8.65035 21.0972 0.
11.2576 31.1681 0.
-1308.57 -2680.41 0.
12.898 32.4328 0.
-1262.74 -2880.76 0.
11.4375 27.3317 0.
-1850.53 -3666.98 0.
85.3276 126.87 0.
113.44 293.368 0.
-0.62128 -10.172 0.
-49.8613 -159.09 0.
56.2683 130.381 0.
-8.60351 -50.4544 0.
4.9001 11.5018 0.
25.0182 56.6534 0.
15.6896 38.0065 0.
-2.62091 -22.3281 0.
-723.706 -1749.59 0.
-881.327 -1774.55 0.
7.54576 18.9855 0.
-891.096 -2173.22 0.
-1.68178 -3.81672 0.
-0.0393139 -2.11874 0.
-0.0823633 -4.78566 0.
0.0870461 0.61803 0.
-2204.87 -4080.64 0.
0.293842 1.37925 0.
-1791.55 -4359.06 0.
-0.0715424 -0.657041 0.
-0.547465 -1.49388 0.
-2.99546 -6.62838 0.
-7.23175 -19.8657 0.
-11.9669 -31.3405 0.
-1.59834 -3.40518 0.
-0.0494581 -0.0930473 0.
-18.522 -24.9882 0.
-0.942902 -1.66747 0.
-2.0897 -3.69281 0.
-8.66695 -8.12812 0.
-15.7163 -23.1749 0.
-397.793 -868.417 0.
-5.82005 -4.0374 0.
-1.62938 -0.901662 0.
-480.511 -1205.62 0.
-108.117 -177.921 0.
-19.9943 -20.1784 0.
-508.624 -1281.76 0.
-402.533 -1046.34 0.
-342.328 -912.001 0.
-285.572 -782.318 0.
-245.22 -678.882 0.
-311.245 -843.299 0.
-303.588 -827.381 0.
-294.772 -807.792 0.
-386.312 -908.914 0.
-328.23 -859.809 0.
-300.917 -790.332 0.
-415.825 -828.877 0.
-406.608 -803.008 0.
-230.621 -582.445 0.
-291.184 -719.065 0.
-309.73 -766.622 0.
-310.736 -807.392 0.
-325.105 -841.559 0.
-343.335 -882.225 0.
-293.447 -792.274 0.
-302.837 -812.872 0.
-314.038 -830.253 0.
-218.915 -573.992 0.
-283.202 -745.874 0.
-358.118 -916.014 0.
-333.63 -810.01 0.
-495.513 -1187.95 0.
-57.9397 -49.0471 0.
-47.0111 -29.151 0.
-531.571 -1282.28 0.
-26.2619 -14.3612 0.
-23.0011 -8.47301 0.
-379.81 -787.189 0.
-101.348 -40.9918 0.
-16.7607 -7.46527 0.
-20.4399 -10.7642 0.
-17.0219 -8.67209 0.
-47.0155 -27.0761 0.
0.0586941 0.00586159 0.
-16.5099 -7.83185 0.
-36.4828 -34.7111 0.
0.192627 0.518239 0.
-0.0037918 -0.0241445 0.
-5.46261 -5.55917 0.
-28.677 -32.2906 0.
-742.305 -811.364 0.
-1733.95 -3982.07 0.
-4.23347 -9.62833 0.
-0.00225161 -2.39702 0.
-39.2235 -96.4754 0.
2.80084 5.71776 0.
-1701.66 -3787.93 0.
0.778249 0.281567 0.
-0.894642 -16.3982 0.
-0.544133 -1.33722 0.
-0.0311512 -21.1747 0.
14.5408 36.1577 0.
16.1068 42.7521 0.
2.69157 6.14671 0.
-3.41414 -37.2802 0.
29.0353 62.8243 0.
-1124.89 -1741.02 0.
6.89394 18.2803 0.
-5.87239 -100.058 0.
-45.4598 -131.702 0.
-446.167 -1032.07 0.
-4.25068 -8.22448 0.
-1102.1 -2522.75 0.
19.445 42.8821 0.
-1449.19 -3492.42 0.
-5.10193 -35.9422 0.
3.78465 9.19709 0.
5.55971 14.6498 0.
8.97266 21.7913 0.
-555.059 -1339.16 0.
1.4458 3.96302 0.
3.36658 9.00493 0.
-1130.56 -2436.49 0.
0.158785 1.6767 0.
0.672311 1.30098 0.
0.358606 1.76324 0.
-0.0167361 -0.123872 0.
-0.0550693 -0.955993 0.
-0.00312626 -0.700247 0.
-0.633793 -1.28455 0.
-4.35364 -10.9566 0.
-14.8183 -32.6921 0.
-0.0123168 -0.025242 0.
-0.0455804 -0.111952 0.
-22.1422 -21.3333 0.
-1.12668 -2.18114 0.
-3.84595 -5.4821 0.
-5.66827 -5.75494 0.
-13.9269 -19.1553 0.
-25.6914 -28.7955 0.
-17.4011 -11.1241 0.
-6.02704 -3.06149 0.
-85.3236 -151.186 0.
-3.82152 -2.27753 0.
-23.2482 -20.2722 0.
-122.895 -255.596 0.
-79.7734 -123.075 0.
-139.587 -364.43 0.
-61.8127 -138.16 0.
-25.29 -53.6339 0.
-88.1004 -233.724 0.
-120.485 -319.861 0.
-50.7875 -138.534 0.
-93.4163 -171.781 0.
-85.0751 -115.258 0.
-131.898 -231.164 0.
-169.032 -250.134 0.
-162.147 -230.472 0.
-16.4755 -25.3496 0.
-5.00656 -5.40937 0.
-88.8077 -182.098 0.
-16.836 -30.6975 0.
-119.55 -209.196 0.
-47.8128 -89.7512 0.
-19.5076 -22.2819 0.
-113.127 -277.165 0.
-76.6754 -175.907 0.
-43.3961 -72.0051 0.
-89.3182 -200.284 0.
-75.2868 -162.305 0.
-40.6086 -28.6159 0.
-169.671 -344.735 0.
-53.1692 -48.7839 0.
-21.6646 -16.58 0.
-20.5997 -14.3865 0.
-29.2616 -15.6119 0.
-25.0802 -9.16796 0.
-25.6498 -9.3708 0.
-160.809 -92.4936 0.
-17.0519 -7.74939 0.
-20.485 -10.7522 0.
-17.1317 -8.9948 0.
-32.5166 -19.2509 0.
-0.3334 -0.0765147 0.
-0.0165303 -0.0149833 0.
-29.1068 -22.382 0.
0.00526794 0.47741 0.
-0.0535579 -0.523127 0.
0.0172439 0.0231894 0.
-6.97813 -9.40475 0.
-4.72566 -10.9611 0.
-538.198 -1407.53 0.
1.28335 3.49798 0.
-1769.23 -2806.58 0.
3.01861 8.01109 0.
-0.884062 -5.526 0.
-278.481 -570.909 0.
-0.53379 -8.00234 0.
-1514.45 -3577.14 0.
-69.1214 -170.694 0.
13.355 35.3636 0.
-2.20582 -5.41666 0.
21.1446 54.103 0.
-67.184 -152.871 0.
-9.62377 -21.1394 0.
20.7018 44.4738 0.
-10.8783 -17.2953 0.
-1.80318 -112.743 0.
-9.94569 -107.687 0.
2.03417 3.03798 0.
-253.555 -561.886 0.
-208.864 -399.007 0.
-3.26971 -7.7139 0.
-1.4287 -34.5003 0.
28.1212 68.533 0.
13.4392 34.946 0.
-2.44117 -43.1292 0.
-0.425382 -17.7003 0.
5.09273 12.7772 0.
-154.615 -366.279 0.
3.79615 10.2789 0.
-1395.37 -3425.96 0.
-0.00104106 -5.42984 0.
0.16676 2.26883 0.
-0.299213 -0.667059 0.
-0.686318 -3.39423 0.
-0.00459005 -0.0492396 0.
-1367.13 -2985.11 0.
-21.4981 -57.1005 0.
-2164.39 -3716.08 0.
0.0442271 0.108113 0.
-1643.83 -3471.46 0.
0.120275 0.328697 0.
-1.1826 -3.08827 0.
-2052.29 -5186.78 0.
-10.9361 -13.0349 0.
-1900.7 -3511.34 0.
-158.961 -168.914 0.
0.207149 0.0013777 0.
-1879.36 -4647.99 0.
-206.87 -393.71 0.
-20.3666 -41.7705 0.
-1213.53 -3080.67 0.
-461.674 -1157.69 0.
-33.078 -63.1904 0.
-884.029 -2224.72 0.
-556.732 -1437.33 0.
-575.37 -1480.31 0.
-408.254 -1090.05 0.
-255.599 -703.265 0.
-388.205 -1051.68 0.
-307.32 -838.537 0.
-228.639 -628.051 0.
-320.512 -789.674 0.
-291.603 -720.571 0.
-265.414 -652.163 0.
-404.376 -760.622 0.
-464.336 -870.678 0.
-217.898 -578.311 0.
-349.249 -791.119 0.
-315.826 -693.831 0.
-262.293 -687.07 0.
-297.832 -781.409 0.
-336.357 -880.789 0.
-252.048 -663.382 0.
-365.464 -957.791 0.
-484.401 -1251.73 0.
-278.545 -706.137 0.
-472.668 -1198.85 0.
-681.366 -1680 0.
-527.491 -1332.53 0.
-972.458 -2458.31 0.
-29.3899 -16.0794 0.
-442.839 -981.045 0.
-1448.67 -3495.41 0.
-77.4406 -52.4538 0.
-118.599 -122.304 0.
-2155.65 -5440.89 0.
-31.0709 -24.3089 0.
-28.5838 -21.387 0.
-2024.61 -3228.26 0.
-7.85968 -5.71176 0.
-2243.01 -5780.1 0.
-8.89902 -10.8523 0.
-1.67651 -1.3231 0.
-1966.66 -3438.83 0.
0.297041 0.7467 0.
-1761.99 -3572.19 0.
-1.17517 -2.42785 0.
0.783673 1.25646 0.
-10.1545 -25.1522 0.
-18.1621 -47.9136 0.
2.99281 7.71123 0.
0.948127 3.17075 0.
-820.709 -1615.03 0.
4.15746 8.38592 0.
-151.282 -326.84 0.
-1.05098 -32.9793 0.
9.35258 24.4788 0.
-1568.67 -3883.7 0.
-1.17725 -27.096 0.
-1343.27 -3236.15 0.
-2.70872 -51.8061 0.
-1067.46 -2431.98 0.
-11.4688 -89.1458 0.
-944.556 -2019.39 0.
-559.692 -907.212 0.
29.3177 77.6308 0.
-12.0304 -77.2849 0.
-170.049 -254.465 0.
-610.075 -1356 0.
-5.84967 -79.2391 0.
-10.4199 -24.8057 0.
26.4651 65.6494 0.
4.09195 10.0858 0.
12.5083 32.2016 0.
-141.693 -347.01 0.
8.84909 23.0443 0.
-841.217 -2168.14 0.
5.55456 13.9894 0.
5.7721 15.3789 0.
-68.296 -178.714 0.
-0.0157245 -10.4036 0.
-0.372916 -6.96715 0.
0.699006 6.76989 0.
-1722.74 -4342.08 0.
2.28846 6.33065 0.
-86.438 -228.042 0.
-20.221 -52.1096 0.
-12.3788 -33.3816 0.
-0.000233413 -0.471256 0.
-27.4938 -73.1991 0.
0.000310112 0.296648 0.
0.000195321 0.0866475 0.
-16.6504 -20.4277 0.
-11.5145 -8.58191 0.
-10.9903 -21.9846 0.
0.480449 0.174374 0.
-0.369025 -0.000306429 0.
-65.8871 -48.0118 0.
-8.62334 -11.1944 0.
-23.1225 -45.96 0.
-445.082 -1103.7 0.
-27.1393 -51.0478 0.
-32.5167 -66.2092 0.
-500.852 -1281.61 0.
-184.579 -454.989 0.
-367.38 -984.577 0.
-214.874 -582.48 0.
-93.9549 -251.877 0.
-333.844 -901.793 0.
-254.996 -688.519 0.
-179.071 -472.73 0.
-308.695 -684.201 0.
-281.224 -612.509 0.
-265.773 -529.058 0.
-409.683 -758.196 0.
-463.831 -874.549 0.
-50.0087 -86.5651 0.
-361.866 -771.414 0.
-330.771 -674.566 0.
-246.456 -589.46 0.
-285.295 -683.129 0.
-326.123 -784.18 0.
-146.159 -375.342 0.
-254.771 -676.102 0.
-367.583 -975.543 0.
-56.0327 -92.3378 0.
-216.86 -499.461 0.
-410.06 -998.013 0.
-77.4067 -115.241 0.
-516.256 -1306.19 0.
-25.5483 -15.8724 0.
-19.5387 -11.3487 0.
-301.552 -608.67 0.
-44.5126 -31.4023 0.
-25.1555 -20.414 0.
-37.7641 -29.064 0.
-16.2028 -12.9041 0.
-10.2625 -7.69804 0.
-25.3713 -18.6136 0.
-0.348031 -0.0942123 0.
0.208689 0.123992 0.
0.171631 0.0400507 0.
0.0118577 0.194663 0.
-37.2685 -62.05 0.
-0.00347311 -1.25335 0.
-1.60888 -4.3394 0.
-1.55792 -2.46722 0.
-2017.69 -4254.63 0.
-0.02075 -1.11982 0.
-25.264 -68.5965 0.
-0.014625 -0.246467 0.
-1.05536 -3.37381 0.
-463.352 -1040.4 0.
-0.218248 -14.034 0.
-390.504 -873.622 0.
17.088 44.2565 0.
9.95284 26.1279 0.
2.51713 6.59269 0.
-1.19091 -44.2726 0.
-1.24332 -57.787 0.
15.3436 38.0074 0.
-19.9358 -51.6803 0.
-13.3714 -103.779 0.
-201.217 -434.548 0.
-51.9864 -86.6877 0.
53.4141 131.562 0.
-1411.94 -2581.36 0.
-210.523 -315.928 0.
71.3489 160.318 0.
-7.6055 -102.985 0.
-999.226 -2392.15 0.
17.4211 42.5331 0.
0.858279 2.13618 0.
0.354831 0.904982 0.
-1304.18 -3188.95 0.
4.67216 12.0975 0.
0.547474 1.5164 0.
-0.473472 -17.5164 0.
1.70973 4.53169 0.
5.15125 13.7973 0.
-0.0406394 -17.2057 0.
-0.521741 -11.5696 0.
2.17788 5.72498 0.
0.685874 1.78195 0.
-0.0104421 -5.55621 0.
-53.8494 -145.52 0.
-19.2249 -47.3271 0.
-7.23313 -20.027 0.
-0.0190081 -0.720265 0.
-12.9234 -22.6334 0.
-961.218 -2156.42 0.
-3.49131 -8.44712 0.
-1551.94 -3943.62 0.
-19.0102 -33.8474 0.
-1756.67 -3152.6 0.
-16.9985 -22.3257 0.
-13.4826 -15.9274 0.
-1867.83 -4889.99 0.
-2.54795 -1.61805 0.
-11.4703 -17.191 0.
-1447.78 -3535.13 0.
-282.889 -654.133 0.
-4.54283 -4.55426 0.
-1015.23 -2587.35 0.
-471.596 -1197 0.
-690.502 -1700.1 0.
-425.503 -1068.11 0.
-177 -437.346 0.
-500.193 -1255.33 0.
-351.144 -904.483 0.
-210.278 -550.735 0.
-373.736 -823.918 0.
-320.929 -689.618 0.
-272.024 -563.506 0.
-441.455 -790.309 0.
-411.763 -723.421 0.
-450.17 -503.029 0.
-321.905 -566.194 0.
-350.594 -639.776 0.
-249.965 -562.361 0.
-324.21 -762.135 0.
-407.484 -975.928 0.
-184.804 -461.673 0.
-384.292 -979.048 0.
-596.428 -1491.78 0.
-178.018 -355.126 0.
-474.18 -1105.77 0.
-789.346 -1843.9 0.
-438.603 -1068.71 0.
-1163.76 -2934.22 0.
-17.7945 -20.6856 0.
-92.6235 -182.984 0.
-1603.36 -4130.52 0.
-47.8714 -55.1865 0.
-66.7883 -68.4491 0.
-1408.87 -3320.33 0.
-24.211 -34.1141 0.
-1786.05 -3916.3 0.
-42.1075 -66.2634 0.
-31.3441 -41.8365 0.
-1189.79 -2800.19 0.
-18.4476 -20.2516 0.
0.0421965 0.153972 0.
-0.0166605 -0.105062 0.
-0.0072818 -1.56631 0.
-17.9755 -49.7877 0.
0.157449 0.200209 0.
2.06558 1.69981 0.
-0.00810664 -2.36248 0.
-1495.26 -2646.62 0.
-0.349639 -4.0606 0.
0.0809911 23.6884 0.
-624.961 -1495.78 0.
7.66676 20.3447 0.
-532.277 -1394.09 0.
-1.71599 -4.46673 0.
-0.77766 -33.9601 0.
-1.91321 -56.5633 0.
0.752965 1.94331 0.
-1.33732 -47.8438 0.
31.2083 76.8087 0.
-384.505 -980.832 0.
-59.7989 -127.949 0.
33.5925 71.0741 0.
19.1148 31.4925 0.
32.9404 88.325 0.
-2.41023 -21.8577 0.
-3.56193 -5.83782 0.
70.0239 158.922 0.
34.0725 80.4548 0.
32.8585 80.5992 0.
-3.7254 -57.9187 0.
-1201.87 -3020.12 0.
-1.11978 -27.7815 0.
14.656 40.0752 0.
-0.765677 -41.0626 0.
-0.143477 -39.5093 0.
-30.8305 -82.0065 0.
-592.04 -1567.32 0.
-3.09009 -8.24168 0.
4.73376 13.0292 0.
-992.681 -2302.51 0.
-0.295547 -0.783803 0.
2.73928 7.36333 0.
-0.0658041 -10.4201 0.
-183.232 -487.211 0.
-540.894 -937.998 0.
-1738.92 -3680.76 0.
-0.0340869 -1.17699 0.
-912.74 -2090.81 0.
0.00366701 0.38151 0.
-0.000808667 -0.0288326 0.
-3.60265 -7.19884 0.
-3.06698 -5.51222 0.
-4.93998 -8.57612 0.
-23.7915 -29.0198 0.
-13.2876 -16.052 0.
-72.1169 -97.8352 0.
-2.8175 -1.68401 0.
-14.1789 -14.402 0.
-149.759 -302.569 0.
-7.15091 -8.85224 0.
-6.50308 -7.50783 0.
-448.214 -1170.45 0.
-10.8409 -21.5663 0.
-383.895 -942.756 0.
-127.381 -281.381 0.
-23.4926 -29.7144 0.
-336.034 -884.465 0.
-199.015 -526.641 0.
-90.7343 -235.334 0.
-269.446 -672.379 0.
-220.018 -552.934 0.
-184.674 -459.523 0.
-425.344 -772.373 0.
-402.035 -709.806 0.
-193.264 -474.233 0.
-299.48 -592.682 0.
-319.165 -646.317 0.
-167.098 -388.419 0.
-232.869 -588.965 0.
-309.677 -796.729 0.
-35.2602 -65.1025 0.
-180.23 -448.445 0.
-376.246 -972.22 0.
-14.6195 -17.6651 0.
-46.6228 -72.7768 0.
-360.265 -811.429 0.
-8.73817 -5.72583 0.
-444.149 -1131.9 0.
-15.9599 -13.1863 0.
-15.9908 -12.3407 0.
-100.1 -216.75 0.
-17.0714 -32.0514 0.
-6.5076 -15.7261 0.
-37.4057 -64.4158 0.
-15.5044 -26.6296 0.
-358.617 -929.979 0.
-27.3354 -31.5445 0.
-6.92848 -5.23019 0.
-30.416 -43.5642 0.
0.267499 1.41868 0.
-2248.94 -5093.97 0.
1.01449 0.566694 0.
-107.684 -183.332 0.
-1589.04 -2378.21 0.
-0.964701 -1.05643 0.
2.20316 1.64877 0.
0.00745936 3.41362 0.
-0.51681 -9.78233 0.
-1314.15 -2699.7 0.
0.307196 19.4921 0.
-688.013 -1704.28 0.
-54.4119 -145.131 0.
11.8162 31.2978 0.
-599.97 -1563.94 0.
-1.83864 -4.82498 0.
2.80628 7.03419 0.
12.9711 33.1819 0.
9.94966 25.4933 0.
-14.2425 -34.8949 0.
-1100.18 -2763.84 0.
41.1021 93.0494 0.
27.0738 56.2897 0.
-34.2879 -56.035 0.
-0.895864 -41.0921 0.
16.3969 32.0493 0.
-2221.96 -3676.01 0.
-0.829797 -1.89829 0.
-8.24687 -112.512 0.
-142.929 -346.775 0.
2.71717 6.71141 0.
28.2371 75.5703 0.
4.36876 11.2897 0.
14.0754 37.9104 0.
-0.948774 -2.51041 0.
-5.09503 -13.7154 0.
-482.976 -1302.58 0.
-0.0642662 -25.7631 0.
-0.342731 -18.9435 0.
-1.20551 -3.268 0.
-0.0167059 -16.7725 0.
0.884881 2.35685 0.
2.2667 6.19151 0.
-1304.6 -3192.03 0.
-646.689 -994.315 0.
1.46947 3.0936 0.
-0.000572156 -0.365269 0.
-0.0280828 -0.789076 0.
-0.141724 -1.07534 0.
0.11885 0.457708 0.
-0.0455516 -0.926474 0.
0.026316 0.0559088 0.
-0.0470227 -0.274237 0.
-0.00936445 -0.0178963 0.
-34.3878 -36.5423 0.
-14.6255 -17.6482 0.
-21.4543 -11.1328 0.
-8.34273 -3.6648 0.
-15.6989 -15.1341 0.
-15.1359 -14.9776 0.
-14.3489 -13.4327 0.
-13.6658 -11.9078 0.
-6.23645 -5.31825 0.
-10.452 -20.8498 0.
-42.5598 -60.7009 0.
-34.1044 -36.914 0.
-36.4979 -42.6537 0.
-129.771 -331.296 0.
-34.7768 -71.3926 0.
-20.6605 -28.8517 0.
-103.178 -220.393 0.
-108.623 -226.746 0.
-52.4348 -91.2839 0.
-232.466 -110.354 0.
-229.943 -128.81 0.
-18.1251 -27.3363 0.
-76.0941 -51.0071 0.
-263.017 -372.345 0.
-28.9765 -31.6687 0.
-139.86 -286.212 0.
-146.809 -314.594 0.
-20.7799 -28.7117 0.
-32.3523 -32.0031 0.
-138.574 -308.331 0.
-10.8949 -14.0948 0.
-6.73011 -12.1401 0.
-8.62903 -15.6416 0.
-6.95509 -4.12244 0.
-7.56488 -3.98475 0.
-20.05 -15.4122 0.
-21.3688 -20.3263 0.
-26.6495 -35.0307 0.
0.145586 0.113763 0.
0.110429 0.190637 0.
-5.06878 -12.8811 0.
-9.22203 -18.8259 0.
-11.4638 -21.6302 0.
-44.0024 -41.5564 0.
-19.4667 -13.635 0.
-7.12728 -3.63075 0.
0.146775 1.67782 0.
0.648289 1.35763 0.
2.50406 0.0411771 0.
-85.1299 -173.875 0.
1.73331 2.56486 0.
-1578.58 -2763.91 0.
-0.0178284 -6.8896 0.
0.013751 8.30321 0.
-0.714956 -20.7045 0.
-356.405 -768.705 0.
-2.50288 -6.75132 0.
-2.02586 -5.579 0.
-142.954 -382.744 0.
15.6781 41.6918 0.
3.84603 10.1516 0.
-0.638928 -67.4964 0.
-1183.86 -2876.25 0.
17.6776 44.8765 0.
-1171.44 -2964.67 0.
-8.48152 -20.7117 0.
19.5817 48.2228 0.
30.3801 68.651 0.
52.6567 107.097 0.
-32.7433 -53.3966 0.
0.761856 22.0377 0.
-96.4855 -171.475 0.
-7.99703 -16.0283 0.
34.6085 79.7065 0.
47.1288 108.034 0.
-439.522 -1058.19 0.
-4.04004 -84.0826 0.
5.96743 15.7232 0.
-1.16266 -42.5258 0.
-30.0555 -79.571 0.
14.2759 37.7289 0.
-397.08 -1048.17 0.
-0.200772 -14.8403 0.
-0.251815 -25.9004 0.
-4.25292 -11.2408 0.
-944.738 -2529.55 0.
9.94218 27.4728 0.
3.32257 8.86245 0.
3.06601 8.29662 0.
-38.1039 -102.101 0.
-1.87682 -7.62359 0.
2.79123 6.47891 0.
0.00116506 0.244786 0.
0.0251445 0.635862 0.
-0.0140723 -1.59665 0.
-1485.09 -2606.46 0.
-2.29246 -5.60563 0.
-1523.04 -3537.86 0.
-27.0367 -56.5177 0.
0.557358 0.0150856 0.
-2023.86 -4339.28 0.
-3.84611 -9.68216 0.
-1336.16 -3095.77 0.
-26.1397 -46.6143 0.
-29.1063 -47.0821 0.
-1566.54 -3999.01 0.
-13.2374 -29.0069 0.
-12.9799 -25.4754 0.
-1268.12 -3260.09 0.
-210.01 -514.371 0.
-884.509 -2127.85 0.
-442.147 -1038.78 0.
-100.342 -197.129 0.
-670.203 -1773 0.
-391.202 -1047.44 0.
-133.11 -337.849 0.
-461.373 -1205.14 0.
-316.003 -816.125 0.
-186.685 -458.116 0.
-467.768 -928.358 0.
-434.858 -838.497 0.
-231.244 -524.7 0.
-361.548 -761.033 0.
-424.236 -921.065 0.
-176.762 -423.528 0.
-348.735 -910.983 0.
-555.531 -1464.47 0.
-60.9339 -97.1685 0.
-425.524 -1093.17 0.
-805.88 -2072.98 0.
-31.1808 -57.3908 0.
-446.994 -978.726 0.
-973.594 -2241.9 0.
-91.4166 -136.27 0.
-1350.35 -3505.7 0.
-15.3155 -20.8372 0.
-8.49484 -11.8945 0.
-1688.35 -4314.28 0.
-0.641447 -1.24804 0.
-8.94808 -24.325 0.
-1741.96 -3171.84 0.
0.0164201 0.491585 0.
-1757.38 -4188.36 0.
-90.9879 -94.8981 0.
-32.4741 -29.6503 0.
-1660.29 -2561.21 0.
1.11138 2.97338 0.
-1198.85 -3203.92 0.
-8.14034 -8.69197 0.
-80.6713 -199.499 0.
2.34126 4.27405 0.
-0.790363 -1.23675 0.
0.0146458 12.8318 0.
-1341.29 -3325.55 0.
-0.100523 -3.89833 0.
-465.587 -1040.81 0.
-1.61546 -4.35103 0.
-1.26267 -3.48196 0.
-638.362 -1715.3 0.
3.14572 8.39157 0.
20.5738 53.0918 0.
-0.861941 -59.2861 0.
-2.28695 -56.9873 0.
33.883 93.267 0.
34.6463 89.4813 0.
31.8292 84.8491 0.
14.9008 36.4602 0.
-13.4107 -30.305 0.
16.3498 33.3178 0.
139.012 227.263 0.
15.585 37.8916 0.
-4.50364 -27.4721 0.
-23.9395 -122.785 0.
21.1716 49.0242 0.
21.8282 50.2495 0.
-934.018 -2238.9 0.
31.3665 78.5078 0.
13.2486 34.4203 0.
19.465 50.9152 0.
-133.469 -347.693 0.
-4.18911 -11.0688 0.
-3.61964 -9.59221 0.
26.6274 72.9399 0.
12.7192 33.8004 0.
4.85136 12.7608 0.
-149.042 -391.561 0.
-0.0208028 -19.5041 0.
-819.434 -2141.74 0.
6.77188 18.3298 0.
1.37198 3.76591 0.
-0.260135 -21.259 0.
4.6044 11.1844 0.
-0.354531 -5.80841 0.
-1658.02 -3822.23 0.
0.021491 2.66258 0.
-0.0670761 -0.748133 0.
-0.0185047 -0.962636 0.
-59.3042 -117.017 0.
0.391401 0.506231 0.
-0.453702 -0.30378 0.
0.488755 0.296153 0.
-0.88427 -1.14284 0.
-34.5109 -58.6162 0.
-23.1614 -45.8719 0.
-20.8964 -40.9436 0.
-27.0069 -54.4396 0.
-12.2315 -31.0402 0.
-12.6561 -30.4242 0.
-356.58 -895.996 0.
-34.1475 -59.2675 0.
-344.51 -790.789 0.
-22.7883 -52.8769 0.
-13.7172 -33.9188 0.
-371.56 -985.404 0.
-120.682 -288.981 0.
-18.9834 -40.6379 0.
-378.929 -928.95 0.
-262.631 -604.85 0.
-148.759 -282.407 0.
-425.467 -838.008 0.
-393.709 -753.155 0.
-19.9986 -19.2347 0.
-317.691 -653.191 0.
-358.054 -765.281 0.
-73.088 -99.9792 0.
-215.823 -523.469 0.
-392.03 -1013.98 0.
-7.58606 -7.8694 0.
-42.7948 -65.3702 0.
-402.291 -1024.63 0.
-0.957207 -2.64907 0.
-2.39857 -6.58704 0.
-290.466 -592.257 0.
-25.0335 -31.1132 0.
-294.186 -630.246 0.
-9.19973 -24.095 0.
-3.98359 -7.02682 0.
-2.73093 -4.89286 0.
-5.45722 -4.60744 0.
-27.2623 -44.0811 0.
-51.9326 -93.9631 0.
0.127507 0.368354 0.
0.0022088 0.198334 0.
-211.043 -195.292 0.
-23.4885 -26.2891 0.
-14.0694 -18.3318 0.
-0.000672818 -4.11904 0.
-94.9365 -262.327 0.
-25.0741 -62.0573 0.
-1245.6 -2003.29 0.
-0.790484 -5.45314 0.
-0.628547 -2.34127 0.
0.00441815 13.0083 0.
4.41442 11.1421 0.
6.94819 18.2441 0.
-0.00682487 -5.1508 0.
-7.74762 -20.8303 0.
0.167714 0.462672 0.
8.34588 22.8259 0.
-7.1341 -19.0866 0.
-171.132 -431.36 0.
2.03925 5.39095 0.
-15.6728 -38.9926 0.
-0.107407 -24.1775 0.
-9.79664 -25.0676 0.
8.70864 23.0422 0.
41.9688 102.334 0.
-20.463 -46.3148 0.
7.01394 14.3362 0.
-16.5143 -120.375 0.
24.4827 54.0257 0.
-16.2421 -68.2208 0.
10.2571 19.1702 0.
33.5592 78.045 0.
29.5309 68.3008 0.
-4.00177 -10.4352 0.
-8.5308 -21.4861 0.
-25.7257 -66.0502 0.
12.9005 33.931 0.
-723.726 -1857.62 0.
8.0841 22.361 0.
-1.33465 -61.5844 0.
-0.939105 -72.2199 0.
-57.023 -149.132 0.
-184.875 -485.438 0.
-4.86174 -12.6674 0.
0.519693 1.43532 0.
11.2199 31.0721 0.
-2.2176 -6.00114 0.
-0.905214 -2.50464 0.
-209.792 -581.074 0.
-1345.49 -3213.02 0.
-0.307872 -14.4961 0.
2.30802 5.26605 0.
-0.0379178 -5.14779 0.
-0.140912 -2.7741 0.
-0.0143151 -2.13428 0.
-27.739 -47.8993 0.
0.510696 0.638141 0.
-53.8703 -143.73 0.
-1421.46 -3745.08 0.
-0.372545 -0.557215 0.
-1585.35 -2617.15 0.
-16.8159 -44.3873 0.
-18.7761 -49.3461 0.
-1535.21 -3980.87 0.
-12.5195 -27.6106 0.
-7.8044 -13.4779 0.
-1322.49 -3414.37 0.
-30.0542 -34.8907 0.
-963.747 -2243.8 0.
-394.681 -878.768 0.
-8.48769 -20.3118 0.
-828.596 -2152.71 0.
-380.315 -982.054 0.
-8.43659 -15.6454 0.
-577.991 -1461.95 0.
-349.195 -854.396 0.
-137.512 -266.332 0.
-482.075 -1016.84 0.
-427.747 -889.539 0.
-145.392 -243.672 0.
-375.152 -864.59 0.
-485.142 -1149.87 0.
-83.7503 -150.22 0.
-350.845 -897.129 0.
-658.415 -1703.39 0.
-17.4978 -27.1306 0.
-353.926 -891.621 0.
-932.025 -2401.2 0.
-0.00354087 -0.039841 0.
-355.065 -759.289 0.
-1007.62 -2310.4 0.
-26.6645 -22.2497 0.
-1421.59 -3278.06 0.
-14.3364 -12.8994 0.
-21.5275 -15.8604 0.
-1639.87 -4322.22 0.
-22.1287 -32.0239 0.
-19.5102 -35.0154 0.
-1472.12 -2777.46 0.
-0.592583 -1.26068 0.
-1244.34 -3212.81 0.
-411.804 -324.214 0.
-148.241 -113.451 0.
-25.2655 -32.8654 0.
1.14567 3.0623 0.
-39.0839 -107.747 0.
-0.0833687 -0.198284 0.
1.98006 3.07046 0.
-540.621 -1094.68 0.
-1.01247 -4.81722 0.
0.000307009 8.76122 0.
-0.135651 -41.3988 0.
-749.722 -1849.58 0.
-0.0048117 -8.38293 0.
-1101.67 -2957.34 0.
-2.00426 -5.52976 0.
-89.7919 -243.176 0.
24.0936 62.1698 0.
-1303.33 -3223.48 0.
-1.28575 -51.3431 0.
-15.5763 -38.2332 0.
6.96054 18.9904 0.
25.0766 63.7008 0.
10.3113 27.1143 0.
50.3583 122.662 0.
-203.696 -438.376 0.
-227.948 -467.812 0.
20.2859 42.5842 0.
-5.29973 -26.3645 0.
-17.8265 -49.841 0.
68.0223 124.613 0.
-46.9935 -109.678 0.
-18.3584 -42.6692 0.
34.0244 89.0016 0.
17.923 47.4707 0.
-220.485 -571.573 0.
-85.9582 -227.287 0.
-1.47405 -71.2961 0.
-16.4461 -43.4837 0.
15.2269 39.8805 0.
-8.19593 -22.0629 0.
-1033.57 -2659.45 0.
20.4653 55.1053 0.
13.3932 34.6001 0.
-0.840047 -2.31886 0.
3.26317 9.03475 0.
-0.263155 -26.6214 0.
-170.679 -472.734 0.
1.67321 4.63323 0.
-41.0615 -105.888 0.
-0.0753812 -14.3 0.
0.320833 4.29597 0.
-0.0891725 -11.9986 0.
-1522.81 -3328.75 0.
1.19522 3.23506 0.
-1508.64 -3268.78 0.
-0.451349 -0.415704 0.
0.402975 0.509951 0.
-22.8104 -29.2991 0.
-0.126693 -0.348808 0.
-15.3755 -42.0163 0.
-8.34051 -22.5549 0.
-1.44946 -2.66443 0.
-12.5531 -27.9149 0.
-3.75673 -4.8048 0.
-1.61473 -2.58111 0.
-181.207 -361.469 0.
-30.4784 -34.9273 0.
-201.572 -419.775 0.
-12.2589 -28.0775 0.
-11.3332 -21.5898 0.
-358.314 -909.666 0.
-19.277 -28.3278 0.
-13.9089 -17.7957 0.
-330.661 -843.207 0.
-109.213 -229.554 0.
-41.573 -35.9922 0.
-342.82 -693.793 0.
-290.101 -559.49 0.
-46.8749 -26.6045 0.
-169.321 -351.39 0.
-277.35 -639.332 0.
-13.8872 -11.1708 0.
-63.5176 -100.402 0.
-357.64 -911.679 0.
-9.06756 -22.6406 0.
-6.90488 -8.18823 0.
-318.82 -819.736 0.
0.000830581 0.0166251 0.
-2.82163 -1.98134 0.
-155.226 -297.281 0.
-14.1624 -12.175 0.
-16.1816 -10.7316 0.
0.00833728 0.0187603 0.
0.0899262 0.00485636 0.
-1.27886 -2.69595 0.
0.0899237 0.0775776 0.
-4.83037 -9.11137 0.
-15.6758 -32.0033 0.
-4.14684 -9.99942 0.
-117.263 -320.916 0.
0.194842 0.532573 0.
-1200.85 -2041.56 0.
-0.13006 -0.359926 0.
-1144.41 -2842.07 0.
-13.1948 -35.4862 0.
5.68702 13.1907 0.
0.0149359 0.0474987 0.
-258.406 -619.144 0.
8.26885 21.4377 0.
0.000409737 7.29342 0.
-0.0589107 -24.8143 0.
-1024.4 -2564.47 0.
-0.00372 -38.1102 0.
-6.35967 -17.3864 0.
-413.938 -1083.08 0.
-310.526 -832.039 0.
20.871 54.1304 0.
-0.0671711 -0.17476 0.
-1428.24 -3623.12 0.
-333.752 -810.596 0.
13.7146 37.2821 0.
-2.36148 -5.96675 0.
40.2751 105.367 0.
-214.43 -522.731 0.
-141.453 -301.553 0.
-491.246 -1013.3 0.
21.4137 44.731 0.
12.0143 18.9801 0.
47.9992 63.6928 0.
-5.43361 -9.88719 0.
-61.0169 -142.779 0.
4.09782 9.57684 0.
28.2636 74.1671 0.
8.04675 21.273 0.
-18.5968 -48.3638 0.
13.0941 36.0947 0.
11.9874 31.5973 0.
3.90464 10.341 0.
-6.26131 -16.3383 0.
2.82348 7.61722 0.
-5.49096 -15.0221 0.
13.428 36.3286 0.
9.84994 25.2389 0.
-363.196 -995.255 0.
15.8171 43.7019 0.
2.96804 8.02397 0.
-256.493 -675.897 0.
-6.12921 -16.9711 0.
-14.7934 -39.3729 0.
0.000802039 1.64325 0.
-809.775 -1844.69 0.
-0.247112 -9.12637 0.
-0.849534 -2.2291 0.
-0.000106562 -2.17304 0.
-0.198805 -2.93906 0.
0.638869 0.00798289 0.
0.37354 0.455616 0.
-0.0652335 -0.131833 0.
-0.191706 -0.568654 0.
-7.36253 -19.9746 0.
0.0530021 0.1175 0.
0.0637647 0.215235 0.
-3.25741 -2.8428 0.
-0.0566359 -0.0300227 0.
-2.3913 -3.9021 0.
-34.736 -42.2515 0.
-33.0304 -34.9946 0.
-25.5465 -39.5968 0.
-24.7766 -32.999 0.
-23.5519 -26.9349 0.
-40.5153 -54.5451 0.
-35.5078 -36.8741 0.
-32.6072 -25.0704 0.
-117.925 -224.521 0.
-30.8192 -23.6135 0.
-33.3669 -28.4946 0.
-135.278 -170.911 0.
-115.334 -121.025 0.
-18.2456 -10.3345 0.
-42.7012 -28.1893 0.
-109.743 -185.215 0.
-19.1221 -15.041 0.
-20.3844 -20.5385 0.
-78.7339 -109.757 0.
-7.76235 -13.0272 0.
-2.48054 -2.23974 0.
-0.0593608 -0.0259383 0.
-11.1279 -4.15157 0.
-17.4963 -7.0503 0.
-49.7795 -42.5654 0.
-4.2136 -5.06201 0.
-9.50963 -6.58358 0.
0.00380387 0.00525384 0.
-0.029361 -0.0132258 0.
-0.772862 -1.20208 0.
0.0327693 0.248206 0.
0.00141159 0.0387869 0.
-4.95001 -11.7762 0.
-13.1609 -36.436 0.
-16.4125 -43.0491 0.
0.891981 2.4615 0.
-3.31666 -8.7421 0.
0.559751 1.55034 0.
1.73181 4.66648 0.
-0.110719 -3.63989 0.
-1348.43 -3167.89 0.
-0.316802 -19.0872 0.
-117.11 -303.146 0.
1.37715 3.57845 0.
-1041.28 -2698.52 0.
12.305 33.9038 0.
-0.0124675 -45.0252 0.
19.9575 55.1676 0.
13.9802 38.0995 0.
-277.601 -753.505 0.
-379.759 -1007.97 0.
23.1771 60.3976 0.
16.5161 43.2751 0.
27.9094 75.0893 0.
-718.268 -1733.41 0.
-0.531995 -60.403 0.
-38.3622 -96.6695 0.
35.9097 93.6237 0.
-77.0834 -188.452 0.
8.19004 19.5277 0.
-609.814 -1265.66 0.
14.7618 30.6379 0.
-137.255 -170.954 0.
17.5264 32.9709 0.
-25.8235 -111.333 0.
-45.0665 -105.609 0.
-140.748 -352.632 0.
-3.14711 -8.28485 0.
-1.37914 -69.742 0.
-1.86363 -4.86826 0.
-18.2966 -48.3354 0.
1.69335 4.4655 0.
-8.97069 -23.7999 0.
-178.41 -464.894 0.
-498.264 -1352.93 0.
-0.30923 -68.4034 0.
17.9392 48.7348 0.
-270.261 -687.253 0.
9.47784 26.0958 0.
4.92002 13.5487 0.
0.278457 0.752057 0.
-99.5776 -263.017 0.
-4.75436 -13.1645 0.
-0.33152 -13.9581 0.
-588.041 -1498.38 0.
7.3723 20.3108 0.
-0.173933 -10.0492 0.
-0.0426194 -6.23502 0.
-0.0330566 -7.48649 0.
-0.0631775 -0.858406 0.
-1102.16 -2639.84 0.
-0.190601 -0.539118 0.
-1249.77 -2155.99 0.
-6.35447 -8.85073 0.
-1344.89 -2611.49 0.
-0.0241701 -0.548434 0.
-0.0609106 -0.655265 0.
-1443.1 -3765.93 0.
-26.1342 -65.7718 0.
-14.9784 -34.8486 0.
-1307.21 -3101.69 0.
-33.8425 -36.9808 0.
-1024.51 -2416.92 0.
-321.634 -718.97 0.
-10.0046 -17.6745 0.
-1016.4 -2626.86 0.
-247.655 -589.43 0.
-28.6164 -39.7745 0.
-712.386 -1892.64 0.
-326.558 -844.494 0.
-30.4469 -35.8494 0.
-534.7 -1326.29 0.
-431.167 -1058.17 0.
-91.482 -185.91 0.
-346.587 -903.255 0.
-571.954 -1517.2 0.
-9.34923 -25.623 0.
-306.857 -768.413 0.
-812.858 -2100.59 0.
-2.56791 -2.75321 0.
-201.534 -484.195 0.
-1091.51 -2891.19 0.
-19.5373 -21.3743 0.
-299.019 -540.293 0.
-1021.91 -2196.23 0.
-1.97411 -2.63033 0.
-1308.48 -3317.59 0.
-0.00393732 -0.00855019 0.
-0.216632 -0.396041 0.
-1081.19 -2372.77 0.
-0.00156166 -0.262126 0.
-1742.78 -3910.28 0.
0.328573 0.768468 0.
-21.3203 -48.5019 0.
-1250.7 -2804.52 0.
2.21412 6.01501 0.
-0.022515 -5.32167 0.
0.64765 1.79376 0.
-0.0505518 -5.97093 0.
7.8142 21.2138 0.
-92.0809 -229.553 0.
7.71372 21.358 0.
-76.6867 -205.289 0.
-1.02829 -38.2113 0.
-40.2206 -103.662 0.
6.60713 18.1959 0.
-0.00279668 -48.7215 0.
7.21395 19.9595 0.
-7.39031 -20.085 0.
-0.492188 -80.1104 0.
-244.133 -643.242 0.
-14.7772 -38.684 0.
-7.08979 -18.698 0.
31.0397 83.7295 0.
3.14955 8.1423 0.
-839.099 -2186.83 0.
-157.113 -396.053 0.
9.22261 24.0048 0.
55.2747 134.399 0.
28.3327 67.305 0.
31.0447 64.829 0.
56.0077 115.334 0.
5.52396 11.7467 0.
-4.80233 -32.6048 0.
-377.684 -695.671 0.
-153.199 -359.17 0.
-65.2698 -162.937 0.
26.5396 70.0868 0.
-1.53409 -4.02348 0.
-50.9728 -133.866 0.
-4.1829 -11.0565 0.
7.37713 19.4944 0.
-123.965 -329.506 0.
-740.356 -1931.99 0.
-19.2739 -52.3628 0.
24.5242 67.295 0.
14.0162 38.2163 0.
-160.813 -440.271 0.
-3.93716 -10.863 0.
5.07261 13.9139 0.
12.7935 34.3705 0.
-10.4254 -27.5482 0.
-131.474 -364.108 0.
-286.463 -789.48 0.
-54.0787 -141.15 0.
-0.00739649 -10.7314 0.
-0.308454 -24.8208 0.
-0.0530314 -19.6729 0.
-1229.92 -2817.76 0.
0.000142894 2.40042 0.
-125.965 -323.235 0.
-0.0111195 -1.01969 0.
-0.249079 -0.357886 0.
1.29723 1.94359 0.
0.807236 1.54428 0.
0.392365 0.975152 0.
0.4078 0.930501 0.
-43.9599 -81.7288 0.
-29.1948 -33.0379 0.
-15.0108 -9.03581 0.
-35.3815 -38.9013 0.
-18.5378 -27.4498 0.
-57.626 -123.123 0.
-20.8283 -35.4046 0.
-14.4776 -18.5299 0.
-182.392 -419.106 0.
-27.5776 -26.116 0.
-23.5657 -37.5099 0.
-285.377 -704.503 0.
-30.5212 -38.2367 0.
-38.7853 -41.5367 0.
-244.025 -587.024 0.
-165.838 -363.983 0.
-35.7086 -37.729 0.
-76.3525 -102.206 0.
-263.571 -639.291 0.
-11.4938 -25.9183 0.
-2.63327 -3.35518 0.
-177.275 -411.505 0.
-2.60583 -2.93647 0.
-5.9265 -9.8269 0.
-195.384 -431.184 0.
-31.2018 -24.8021 0.
-12.7839 -9.84431 0.
-10.8451 -4.59393 0.
-2.40126 -3.34666 0.
-34.2489 -69.7075 0.
-0.0155872 -0.325551 0.
0.0248968 0.0538419 0.
0.0881764 0.168498 0.
-2.4302 -6.72817 0.
-29.7798 -81.8259 0.
-0.0226295 -0.395169 0.
0.226705 0.617728 0.
-14.1727 -32.8053 0.
1.89993 5.22986 0.
-1024.85 -2567.49 0.
1.06019 2.7255 0.
0.854147 2.3277 0.
-0.0384135 -24.4755 0.
-31.2745 -81.1341 0.
6.19283 17.1518 0.
-703.311 -1926.88 0.
1.27291 3.31887 0.
-0.0297326 -39.6775 0.
2.35326 6.42992 0.
-6.18923 -17.1431 0.
-660.057 -1827.78 0.
-13.788 -37.3811 0.
-1.84884 -5.06801 0.
8.15666 21.4921 0.
-112.079 -294.722 0.
-1.44795 -3.84284 0.
-13.0074 -35.1794 0.
-2.19612 -77.0483 0.
-6.03961 -16.0262 0.
-165.058 -428.972 0.
-868.041 -2235.03 0.
16.7166 40.6981 0.
-3.76698 -8.91999 0.
1.2142 2.55624 0.
37.3434 76.1862 0.
-26.6494 -113.904 0.
-898.439 -2045.28 0.
-1038.16 -1931.26 0.
-6.07436 -129.936 0.
-4.21971 -10.5046 0.
-368.976 -977.918 0.
22.4587 58.8709 0.
-357.304 -943.768 0.
-2.20321 -110.861 0.
-116.154 -307.923 0.
-299.559 -797.775 0.
26.0848 70.106 0.
19.1813 52.1741 0.
-12.6282 -34.7008 0.
-121.248 -331.674 0.
-3.30918 -9.08532 0.
13.056 36.0779 0.
-0.196175 -33.0411 0.
-5.06697 -13.6126 0.
-62.7754 -165.754 0.
4.39063 12.1441 0.
-180.629 -497.686 0.
-5.11642 -13.5224 0.
-0.00372443 -16.602 0.
-792.447 -2062.49 0.
-0.0201882 -6.80394 0.
5.26592 13.6538 0.
-7.83808e-05 -5.82571 0.
-11.2007 -31.0041 0.
-0.0772122 -1.0523 0.
0.450466 0.752935 0.
0.126777 0.34489 0.
-150.838 -352.538 0.
-1337.23 -3488.15 0.
0.558733 0.433513 0.
-871.183 -1551.97 0.
-24.4501 -9.14781 0.
-62.295 -68.8486 0.
-1200.6 -3112.36 0.
-16.4251 -25.6251 0.
-913.18 -1989.87 0.
-238.4 -438.219 0.
-20.1004 -37.4255 0.
-1038.06 -2773.33 0.
-107.129 -234.598 0.
-14.6819 -22.6819 0.
-846.557 -2164.87 0.
-298.659 -729.763 0.
-20.9845 -33.4511 0.
-586.36 -1538.81 0.
-478.289 -1245.04 0.
-49.5431 -49.9794 0.
-376.239 -953.873 0.
-709.743 -1876 0.
-13.4895 -9.46184 0.
-218.374 -534.795 0.
-922.929 -2424.81 0.
-20.9236 -17.7273 0.
-23.1914 -10.845 0.
-967.063 -2439.46 0.
-29.6781 -13.0147 0.
-1229.65 -2681.04 0.
-4.86898 -4.77608 0.
-0.276897 -0.230092 0.
-1124.9 -2950.01 0.
0.00264309 0.0613507 0.
-0.0514348 -0.137132 0.
-1077 -2577.88 0.
-138.96 -315.932 0.
-7.24657 -18.6482 0.
-0.141084 -2.78037 0.
1.00556 2.78524 0.
0.556192 1.44034 0.
-0.00311434 -6.08169 0.
-0.115451 -7.89 0.
-0.136688 -5.90304 0.
-1035.92 -2185.74 0.
-325.541 -809.364 0.
-54.2224 -144.058 0.
5.55301 15.3808 0.
4.73087 12.9086 0.
8.27059 21.5874 0.
15.9175 44.034 0.
-756.1 -2066.52 0.
-11.6824 -32.3531 0.
13.1193 36.324 0.
-5.502 -14.8861 0.
4.51278 12.4134 0.
17.1033 45.2662 0.
-560.987 -1482.74 0.
-21.564 -57.567 0.
28.851 78.2219 0.
-5.66273 -14.7298 0.
-5.87506 -15.6807 0.
-98.194 -255.295 0.
-12.9732 -34.1038 0.
-168.83 -411.048 0.
-17.3224 -40.8996 0.
10.2034 25.1721 0.
-661.431 -1333.37 0.
47.3054 81.8917 0.
49.3643 102.631 0.
-8.93549 -84.7551 0.
21.7125 53.4491 0.
6.85579 17.027 0.
-11.4513 -30.4391 0.
4.64612 12.1688 0.
-700.677 -1861.94 0.
24.9347 65.9435 0.
-614.502 -1635.31 0.
-437.669 -1167.92 0.
26.172 71.785 0.
-0.449073 -1.22306 0.
3.16611 8.73768 0.
-561.413 -1547.29 0.
-97.817 -270.884 0.
1.81337 5.01618 0.
21.1427 58.1136 0.
-43.5341 -116.956 0.
-192.86 -508.661 0.
0.418792 1.12718 0.
-86.0263 -236.928 0.
-0.034399 -17.7989 0.
-106.07 -289.63 0.
10.4948 27.9319 0.
-0.00352414 -10.8952 0.
-0.0507782 -2.1957 0.
-1.19912e-07 -2.99716 0.
-2.32876 -6.3369 0.
-42.1447 -97.4965 0.
-862.739 -1792.26 0.
-8.58534 -19.8582 0.
1.00631 2.51995 0.
-48.1372 -128.172 0.
-0.00505929 -0.0173154 0.
-0.195342 -0.0248066 0.
-0.275116 -0.0702272 0.
-29.386 -14.1318 0.
-14.26 -29.0175 0.
-7.38756 -14.1106 0.
0.181628 0.0942776 0.
-32.5556 -59.5343 0.
-22.519 -37.9924 0.
-176.601 -429.637 0.
-14.7 -19.81 0.
-11.6695 -20.7208 0.
-89.176 -149.131 0.
-28.6872 -23.2453 0.
-18.1639 -29.2522 0.
-82.4903 -137.775 0.
-46.282 -35.365 0.
-5.67093 -11.3767 0.
-9.19721 -5.72256 0.
-64.5372 -154.181 0.
-9.85241 -7.36026 0.
-13.6948 -11.6567 0.
-57.8533 -96.7811 0.
-13.524 -14.6013 0.
-13.9538 -7.4221 0.
-24.749 -8.99791 0.
-8.56674 -4.47989 0.
-206.688 -417.127 0.
2.25058e-05 0.0313342 0.
-0.0174856 -0.0425115 0.
-6.70956 -14.9933 0.
0.159465 0.441285 0.
0.127274 0.352141 0.
-8.38747 -23.1554 0.
-0.0563089 -1.36175 0.
-753.088 -1647.62 0.
-0.0506892 -2.03073 0.
-1127.05 -2502.74 0.
-0.0577905 -2.35896 0.
3.95554 10.9559 0.
2.57003 6.96351 0.
9.85353 26.097 0.
-0.00477789 -0.566093 0.
-195.14 -505.143 0.
-0.14363 -40.9563 0.
6.07341 16.82 0.
14.4278 39.475 0.
-204.904 -538.623 0.
8.95985 24.7951 0.
-6.32452 -17.4986 0.
-10.7763 -29.8317 0.
13.292 36.7891 0.
0.655884 1.77135 0.
-0.135413 -78.0916 0.
-137.522 -378.575 0.
-340.639 -925.916 0.
-205.156 -550.723 0.
-8.51654 -23.147 0.
-26.7551 -69.7823 0.
18.533 49.7169 0.
-1.50259 -3.90854 0.
49.815 131.162 0.
-657.056 -1597.22 0.
-199.67 -470.218 0.
-22.4024 -55.0451 0.
-4.98989 -57.7038 0.
-19.2619 -62.1507 0.
-13.0229 -70.9472 0.
15.1579 33.2984 0.
-7.69666 -127.355 0.
-76.4599 -189.635 0.
49.5832 132.232 0.
-7.52746 -19.6932 0.
-125.872 -336.655 0.
-1.34481 -3.55641 0.
-42.828 -117.749 0.
-31.8026 -87.1116 0.
-20.5511 -56.3474 0.
17.6137 48.0333 0.
-55.1274 -152.087 0.
-16.5586 -45.6285 0.
-83.1044 -230.146 0.
12.0714 33.4159 0.
19.4324 53.7978 0.
-145.434 -390.742 0.
-342.694 -903.148 0.
-9.84266 -26.6584 0.
-66.2979 -182.497 0.
-0.0605205 -45.1566 0.
-59.6024 -162.823 0.
14.9544 41.3996 0.
-0.000905568 -23.0265 0.
-0.28153 -13.3677 0.
-645.604 -1579.21 0.
-687.267 -1297.51 0.
2.06553 4.99733 0.
-29.7429 -72.3396 0.
0.756904 1.96304 0.
1.6605 4.56617 0.
-9.50054 -20.9196 0.
-0.597424 -1.84969 0.
-0.83406 -0.214335 0.
-0.332236 -0.163754 0.
-25.9142 -20.0852 0.
-9.80093 -22.0081 0.
-7.09289 -16.5157 0.
-4.54488 -11.0794 0.
-34.2438 -62.7518 0.
-25.7959 -38.8888 0.
-23.48 -41.5212 0.
-15.1258 -21.0145 0.
-12.8438 -20.1882 0.
-34.1425 -30.5819 0.
-30.0296 -25.5127 0.
-22.5187 -31.6865 0.
-40.5583 -38.8652 0.
-44.5693 -32.4125 0.
-3.30776 -4.95445 0.
0.0431091 0.00108385 0.
-4.79644 -4.72103 0.
-12.1875 -6.94204 0.
-14.7072 -10.0686 0.
-17.0488 -15.4988 0.
-16.3406 -15.4779 0.
-19.7942 -9.42548 0.
-25.4857 -9.20128 0.
-12.9396 -5.75062 0.
-17.0487 -7.38428 0.
0.0350047 0.0994479 0.
0.00836257 0.0637404 0.
0.00887839 0.0338572 0.
0.13028 0.313601 0.
0.0337782 0.0871541 0.
-6.35235 -16.8006 0.
0.830863 2.19699 0.
-0.0238715 -0.201412 0.
-0.042748 -7.29301 0.
1.21478 2.94194 0.
-0.00838478 -2.55257 0.
-960.545 -2405.71 0.
11.5439 30.664 0.
13.0089 34.5485 0.
-0.0663251 -35.9891 0.
-198.914 -529.037 0.
-3.09461 -8.46828 0.
-1.65942 -4.59406 0.
13.7637 37.7233 0.
-105.19 -291.352 0.
-0.849319 -2.35094 0.
-11.1656 -30.8889 0.
-146.62 -406.112 0.
20.1098 55.6372 0.
-10.3398 -28.6147 0.
-0.06331 -71.6111 0.
-141.424 -389.228 0.
-172.289 -468.368 0.
-615.371 -1671 0.
13.9945 38.1254 0.
-73.8105 -202.613 0.
1.88222 5.07117 0.
2.07271 5.39486 0.
-13.4089 -35.3118 0.
30.1134 79.7204 0.
-475.023 -1116.21 0.
-6.48184 -15.8538 0.
29.0724 65.269 0.
-20.5061 -59.5444 0.
-17.632 -78.0277 0.
42.5509 92.2107 0.
12.2828 29.2424 0.
-147.581 -365.824 0.
13.8996 37.7284 0.
-121.501 -317.373 0.
11.9617 32.4459 0.
-414.357 -1095.9 0.
-36.5667 -100.623 0.
-38.7161 -106.174 0.
-14.1584 -38.8077 0.
-187.052 -510.787 0.
-277.869 -766.271 0.
-17.5872 -48.4437 0.
-77.2471 -213.929 0.
-526.332 -1457.69 0.
-4.27475 -11.8381 0.
-286.407 -769.785 0.
-12.8223 -35.3001 0.
-12.7501 -34.7136 0.
-313.173 -861.572 0.
-11.6023 -32.1362 0.
-153.134 -418.455 0.
-0.00326023 -26.4858 0.
-0.00692368 -17.4741 0.
0.815632 2.23719 0.
-32.1535 -84.0365 0.
-0.000460846 -25.5697 0.
4.48519 11.0469 0.
-0.00271886 -10.026 0.
-0.0291526 -4.71907 0.
-0.791844 -2.06975 0.
-822.69 -2162.18 0.
-0.076584 -0.203283 0.
-997.922 -1735.28 0.
-36.9674 -57.3233 0.
-37.1809 -64.7239 0.
-1097 -2932.59 0.
-17.843 -36.4396 0.
-12.8876 -23.8806 0.
-1283.94 -2710.65 0.
-17.2717 -18.3574 0.
-842.57 -2196.33 0.
-28.6951 -38.2512 0.
-28.1333 -48.0643 0.
-890.906 -2319.59 0.
-129.999 -290.565 0.
-27.0394 -31.4721 0.
-619.216 -1582.83 0.
-442.889 -1160.38 0.
-11.8744 -10.2536 0.
-230.317 -601.388 0.
-767.519 -2085.06 0.
-19.6214 -9.35883 0.
-47.5694 -62.8778 0.
-940.406 -2462.21 0.
-11.8994 -5.29854 0.
-23.5419 -11.4568 0.
-1057.95 -2264.43 0.
-9.83723 -9.08511 0.
-1065 -2541.49 0.
0.0921788 0.35393 0.
-0.0140532 -0.0444877 0.
-1077.78 -2640.29 0.
0.041162 0.0837583 0.
-27.3224 -56.6105 0.
-1054.16 -2230.27 0.
1.7111 4.24002 0.
-812.276 -1849.92 0.
-0.0125622 -11.5443 0.
-0.314478 -9.36308 0.
-0.000154267 -18.8992 0.
-0.453937 -17.37 0.
13.0439 35.1011 0.
-699.695 -1842.75 0.
-0.00196391 -23.6014 0.
-407.646 -1102.72 0.
1.58011 4.32221 0.
-450.287 -1222.41 0.
-7.53661 -20.6797 0.
4.31284 11.9454 0.
8.22164 22.7687 0.
-14.7579 -40.8207 0.
-182.211 -504.53 0.
9.05989 25.0557 0.
-0.0162623 -65.2957 0.
-425.576 -1177.78 0.
-125.821 -346.229 0.
-186.436 -507.051 0.
-344.835 -948.282 0.
-420.414 -1148.1 0.
-45.9595 -126.111 0.
13.9756 37.7903 0.
-0.974045 -2.66977 0.
-10.3489 -27.2233 0.
-17.4213 -46.1234 0.
-303.446 -711.419 0.
-291.424 -709.865 0.
-4.74273 -10.3616 0.
-32.5282 -85.2894 0.
18.3019 31.6204 0.
-23.8685 -51.0689 0.
-261.526 -609.822 0.
42.9949 106.552 0.
-1.69314 -4.59125 0.
-856.569 -2232.29 0.
-22.9009 -62.0951 0.
-277.273 -732.889 0.
-62.8205 -172.999 0.
-60.0839 -164.949 0.
18.3409 50.2581 0.
-139.944 -382.67 0.
-3.98691 -11.0016 0.
-4.56683 -12.5736 0.
-58.449 -161.872 0.
-78.963 -218.617 0.
1.64668 4.56088 0.
-463.614 -1246.94 0.
3.18801 8.77888 0.
-172.58 -471.942 0.
15.3377 42.2047 0.
10.8172 29.9572 0.
-542.933 -1484.26 0.
2.90224 8.03781 0.
-431.287 -1165.46 0.
-0.832637 -2.28695 0.
-42.3141 -113.987 0.
-0.0742092 -38.4488 0.
-1.06616 -20.9132 0.
2.77111 7.31505 0.
-1014.67 -2339.38 0.
-0.0798995 -8.28837 0.
-11.5791 -31.8509 0.
0.168065 0.425943 0.
-2.08825 -3.79336 0.
0.225454 0.449805 0.
-0.0218236 -0.254109 0.
-18.505 -45.8277 0.
-6.2877 -12.8452 0.
-5.02935 -10.068 0.
-18.9994 -22.9265 0.
-8.50523 -5.91225 0.
-43.9675 -62.0782 0.
-34.443 -43.6183 0.
-26.8945 -44.2578 0.
-24.3725 -43.5073 0.
-17.9216 -29.2115 0.
-23.858 -30.6402 0.
-15.9363 -17.5766 0.
-19.2998 -17.1303 0.
-11.7047 -7.94472 0.
-17.5843 -12.0514 0.
-32.2704 -30.0135 0.
-33.0052 -12.7868 0.
-34.2928 -12.3825 0.
-35.3863 -12.8688 0.
-6.74749 -2.53457 0.
-26.335 -10.8398 0.
-42.4177 -29.8867 0.
-1.68501 -1.99415 0.
0.0687909 0.0704548 0.
0.00688268 0.0973531 0.
0.30731 0.642903 0.
0.245425 0.474316 0.
-0.0321626 -0.206981 0.
-0.00741713 -0.0330509 0.
-0.000578072 -0.362352 0.
-0.0833302 -5.03862 0.
-0.285271 -4.82453 0.
-0.0467899 -13.4095 0.
-910.636 -2325.92 0.
-0.00228395 -4.36 0.
-1.07114 -2.86572 0.
2.92942 7.95639 0.
-181.727 -483.662 0.
-119.942 -332.17 0.
-0.140389 -49.6246 0.
-5.08877 -13.9136 0.
-0.090047 -44.8292 0.
-1.49236 -4.09772 0.
3.84494 10.6472 0.
-448.495 -1242.22 0.
-33.0649 -91.4423 0.
-5.70913 -15.8099 0.
-50.8885 -140.679 0.
22.1012 61.1943 0.
26.8365 74.085 0.
-86.8861 -239.066 0.
-207.526 -564.682 0.
-20.8924 -57.4932 0.
-494.24 -1352.7 0.
-103.067 -282.69 0.
-659.396 -1788.23 0.
23.7997 65.2838 0.
30.6906 80.5551 0.
32.481 85.9998 0.
12.5453 31.2957 0.
-171.5 -415.42 0.
-804.806 -1705.57 0.
-335.014 -492.57 0.
-1431.8 -2290.81 0.
52.4176 110.68 0.
-674.704 -1538.25 0.
43.4071 112.736 0.
30.3593 82.2304 0.
-88.7353 -230.881 0.
-71.0442 -192.537 0.
-27.8937 -73.6535 0.
-4.9058 -13.3495 0.
13.6704 37.8412 0.
-12.5079 -34.2644 0.
13.913 38.4764 0.
21.4047 59.1465 0.
0.957914 2.65298 0.
-85.6574 -237.226 0.
-64.5241 -178.646 0.
-3.43239 -9.50705 0.
9.73038 26.9369 0.
16.0147 44.1108 0.
-399.755 -1097.12 0.
-123.357 -341.112 0.
-71.8955 -199.051 0.
-6.54599 -18.0277 0.
-11.4787 -31.6516 0.
-222.623 -602.646 0.
10.2848 28.2763 0.
-284.989 -778.921 0.
-0.097712 -35.8681 0.
-569.231 -1409.53 0.
6.75704 18.3179 0.
-0.795304 -2.01868 0.
-0.0103563 -2.62391 0.
-0.769687 -2.0788 0.
1.61264 3.94856 0.
-0.744593 -4.66653 0.
-0.000419715 -0.00477428 0.
-83.2885 -186.152 0.
-582.182 -1552.98 0.
-3.50191 -8.95639 0.
0.00709344 0.197043 0.
-855.339 -2249.06 0.
-20.0423 -24.5627 0.
-878.969 -1820.97 0.
-13.035 -22.8366 0.
-36.5306 -50.0712 0.
-829.794 -2156.11 0.
-33.7493 -47.3687 0.
-41.0306 -56.8096 0.
-542.573 -1450.03 0.
-367.736 -992.291 0.
-43.0326 -60.6315 0.
-147.689 -354.406 0.
-739.247 -1987.04 0.
-28.3659 -10.3141 0.
-10.9166 -4.46268 0.
-896.066 -2276.95 0.
0.0257445 0.0154109 0.
0.0473645 0.00751296 0.
-875.214 -1734.32 0.
0.14347 0.251456 0.
-822.884 -2203.02 0.
0.172874 0.518292 0.
-0.00238487 -0.833454 0.
-591.268 -1543.06 0.
0.171501 0.35262 0.
-0.0272099 -0.127722 0.
-0.0204512 -2.97322 0.
-0.0216497 -4.9151 0.
2.78975 7.17641 0.
5.55135 15.3749 0.
-13.9608 -36.9905 0.
-0.777221 -2.14749 0.
-284.856 -771.579 0.
-0.192003 -34.1026 0.
1.61605 4.45121 0.
-128.283 -355.296 0.
-80.1057 -220.381 0.
2.6108 7.13474 0.
17.7589 49.0149 0.
-334.745 -920.911 0.
-12.9709 -35.9041 0.
-53.8509 -148.365 0.
-72.944 -201.691 0.
19.6588 54.4436 0.
-270.082 -746.253 0.
-6.70531 -18.5695 0.
4.83286 13.2942 0.
-457.794 -1259.86 0.
-84.1482 -232.46 0.
-13.1352 -36.171 0.
6.86884 18.9936 0.
-546.142 -1497.51 0.
-210.636 -572.913 0.
-18.7154 -51.3755 0.
-46.3372 -121.19 0.
22.7669 60.2791 0.
-125.352 -320.742 0.
6.65319 15.2307 0.
-7.23887 -17.697 0.
50.7591 103.649 0.
-476.648 -863.566 0.
-81.9656 -171.021 0.
41.6677 103.732 0.
6.6551 17.1203 0.
-367.784 -995.102 0.
22.6834 60.9989 0.
-255.606 -692.274 0.
-0.352346 -91.4775 0.
-112.886 -306.897 0.
-5.16509 -14.299 0.
-521.976 -1429.54 0.
-57.2145 -158.35 0.
22.497 62.2319 0.
-14.7484 -40.8481 0.
-80.609 -223.246 0.
15.1361 41.9177 0.
4.55791 12.6232 0.
-12.3226 -33.991 0.
-16.9905 -46.8105 0.
-139.474 -384.363 0.
-107.961 -298.432 0.
-182.634 -505.431 0.
-8.4764 -23.3179 0.
15.1123 41.7153 0.
-0.0318747 -43.4258 0.
0.522598 1.43778 0.
-0.135879 -50.3354 0.
-0.0683723 -38.8423 0.
-256.749 -654.335 0.
-0.0540971 -12.8399 0.
2.33304 6.07187 0.
-0.024312 -13.0798 0.
-759.069 -1375.82 0.
2.82338 6.53032 0.
0.594954 1.636 0.
-959.714 -2246.5 0.
-0.00370287 -0.267302 0.
-40.4381 -110.897 0.
-0.94082 -2.57423 0.
0.0227305 0.21081 0.
-29.1845 -46.3422 0.
-10.195 -17.3462 0.
-2.70028 -6.37307 0.
-0.555242 -1.26645 0.
-15.1207 -27.0376 0.
-14.8359 -34.3445 0.
-10.262 -22.0658 0.
-12.2266 -21.2814 0.
-18.2255 -25.2626 0.
-17.899 -21.8144 0.
-18.1417 -22.1434 0.
-11.9298 -10.8792 0.
-15.7471 -13.2564 0.
-14.0137 -7.48784 0.
-0.334143 -0.180663 0.
-0.000211834 -8.12292e-05 0.
-3.7799 -1.71884 0.
-6.54478 -2.92355 0.
-19.9101 -10.1458 0.
0.450446 0.000302609 0.
0.495366 0.00870598 0.
0.025865 0.603942 0.
0.0108425 0.238581 0.
-0.00566887 -0.169282 0.
0.590425 1.61361 0.
-862.412 -1721.31 0.
-0.000499558 -10.2485 0.
-694.046 -1726.85 0.
0.471873 12.9204 0.
6.90423 19.0898 0.
-0.0220295 -8.04821 0.
4.93954 13.6636 0.
0.873976 2.41693 0.
-309.988 -845.037 0.
8.76046 24.1272 0.
-141.83 -392.832 0.
-75.5377 -207.903 0.
-0.275207 -46.8801 0.
4.60843 12.7322 0.
10.0042 27.5807 0.
-5.98814 -16.5662 0.
-33.0772 -91.2264 0.
-95.1506 -263.034 0.
-42.3804 -117.376 0.
-49.9628 -138.169 0.
-0.2935 -0.812907 0.
20.4467 56.2795 0.
-5.22068 -14.3646 0.
16.0356 44.3118 0.
-14.7924 -40.7595 0.
-4.76881 -13.1899 0.
-145.119 -397.562 0.
11.4772 31.7463 0.
-77.9014 -213.998 0.
-30.5583 -84.0917 0.
-214.568 -583.306 0.
-153.518 -408.278 0.
-4.55108 -106.325 0.
28.0716 74.7158 0.
38.5134 92.6419 0.
-0.285985 -0.684472 0.
-5.92216 -101.612 0.
-75.9327 -186.474 0.
-4.25931 -10.8335 0.
33.4015 90.2235 0.
36.726 98.6577 0.
-484.304 -1310.54 0.
11.7193 32.1305 0.
-298.072 -809.393 0.
-65.3551 -180.942 0.
-1.81829 -4.97843 0.
6.66457 18.4485 0.
-194.362 -538.058 0.
-8.29458 -22.9739 0.
24.9773 69.1777 0.
2.58457 7.15686 0.
-294.306 -814.86 0.
-8.4176 -23.2128 0.
-47.5179 -130.947 0.
9.91947 27.3412 0.
-42.9135 -118.579 0.
-72.6989 -201.036 0.
-5.09621 -14.0067 0.
-273.956 -756.955 0.
-5.10692 -14.1298 0.
-2.02956 -5.58643 0.
-4.95576 -13.656 0.
-36.3635 -100.452 0.
0.987927 2.7307 0.
10.8666 29.933 0.
5.63875 15.189 0.
-699.157 -1737.39 0.
-0.0185427 -5.8159 0.
4.33986 10.3844 0.
-0.016724 -3.29676 0.
-0.0796432 -2.87801 0.
-0.00122336 -5.30965 0.
-33.7709 -92.0074 0.
-0.0332473 -0.0806343 0.
-0.08924 -0.40521 0.
-0.622505 -0.791549 0.
-5.1626 -9.73876 0.
-1.87942 -4.90676 0.
-0.276074 -0.721364 0.
-1.71151 -4.23656 0.
-12.1403 -22.9524 0.
-11.1334 -19.7927 0.
-10.1765 -17.1037 0.
-15.045 -14.4956 0.
-14.6844 -14.0961 0.
-5.93423 -10.5371 0.
-1.60031 -3.61555 0.
-4.35948 -4.44465 0.
-10.9883 -5.78458 0.
-6.85212 -2.97554 0.
-4.16942 -1.53973 0.
-23.4054 -9.42911 0.
-35.5651 -15.8438 0.
-52.3034 -28.3311 0.
0.409848 0.162933 0.
0.000990526 0.575654 0.
0.176807 0.601142 0.
0.025839 0.181519 0.
-0.0362366 -0.40118 0.
0.826099 2.28551 0.
0.581252 1.46515 0.
0.0201779 5.677 0.
-0.145193 -8.58894 0.
-0.00075915 -18.1708 0.
-242.233 -650.1 0.
11.5632 31.7917 0.
-1.08108 -2.99216 0.
10.7966 29.8784 0.
-318.548 -870.734 0.
8.76614 24.1461 0.
-238.946 -661.83 0.
-81.0984 -223.292 0.
6.26342 17.3341 0.
-0.0373701 -52.1049 0.
-0.132715 -60.0779 0.
-9.38754 -25.9521 0.
-39.1662 -108.119 0.
-155.619 -430.831 0.
-79.5587 -220.355 0.
-26.9946 -74.6526 0.
-356.835 -988.368 0.
-14.2096 -39.1363 0.
27.4759 76.0999 0.
27.2381 75.2964 0.
-90.22 -248.724 0.
-30.4462 -84.1008 0.
-103.032 -282.04 0.
-17.945 -49.6468 0.
9.08121 24.9617 0.
-1.26109 -3.46477 0.
-286.393 -775.729 0.
-171.966 -457.208 0.
12.3415 30.8305 0.
29.9563 78.0355 0.
26.6053 60.6051 0.
12.3345 28.4743 0.
2.01782 4.83797 0.
-10.9145 -28.6312 0.
45.9584 115.31 0.
23.0306 63.7142 0.
-10.3673 -27.8074 0.
-5.35125 -14.8214 0.
16.1992 44.3576 0.
22.4488 61.7469 0.
-172.263 -476.952 0.
31.5577 87.4093 0.
-6.89423 -19.0883 0.
-44.2295 -122.375 0.
-60.9549 -168.833 0.
-11.7465 -32.5345 0.
11.2748 31.2162 0.
-50.0307 -138.474 0.
-11.3997 -31.4273 0.
-118.242 -325.919 0.
15.0204 41.5309 0.
-37.501 -103.582 0.
-9.4476 -26.1168 0.
-3.45632 -9.49528 0.
-121.136 -331.632 0.
11.0921 30.7043 0.
-283.515 -782.45 0.
4.23041 11.6706 0.
-161.929 -447.791 0.
7.88483 21.7793 0.
-227.375 -615.105 0.
-3.90494 -10.6074 0.
6.11677 16.0338 0.
-0.00136989 -10.1847 0.
-0.0569293 -0.977266 0.
-0.0539631 -7.67867 0.
-522.278 -1280.03 0.
-0.00998561 -1.35225 0.
-747.076 -1708.62 0.
-17.5214 -37.982 0.
-27.6713 -67.9455 0.
-690.381 -1750.26 0.
-1.72946 -4.28104 0.
-718.968 -1452.85 0.
-29.0499 -55.3234 0.
-14.6561 -29.8126 0.
-710.828 -1794.37 0.
-20.9082 -41.8172 0.
-21.4832 -42.2454 0.
-445.942 -1178.8 0.
-347.175 -925.163 0.
-62.6222 -158.009 0.
-47.8434 -120.778 0.
-608.936 -1617.74 0.
-37.9781 -47.0412 0.
-12.3063 -4.48022 0.
-755.081 -1965.67 0.
0.0733391 0.00447096 0.
-0.353942 -0.00798061 0.
-691.149 -1293.28 0.
0.3746 0.599077 0.
-693.338 -1858.24 0.
-0.00206538 -1.02003 0.
-0.0113424 -0.0277841 0.
-606.441 -1253.82 0.
-171.651 -318.828 0.
0.00649122 0.281962 0.
-0.13888 -18.8191 0.
0.806771 2.20004 0.
7.90284 21.8707 0.
10.1254 27.4414 0.
-159.42 -436.405 0.
-1.51193 -4.18562 0.
-0.00589805 -28.142 0.
-0.155149 -41.9924 0.
15.5844 43.0501 0.
13.3319 36.884 0.
-114.696 -315.896 0.
16.9416 46.8768 0.
-0.0243339 -53.7427 0.
2.89867 7.98097 0.
-254.973 -702.871 0.
-6.9112 -19.0938 0.
8.49416 23.5086 0.
-98.6009 -273.105 0.
-46.6555 -129.026 0.
-123.737 -342.708 0.
21.1138 58.1846 0.
5.35942 14.8436 0.
-248.305 -686.673 0.
23.7979 65.9096 0.
-260.735 -720.405 0.
-54.2384 -149.98 0.
21.5372 59.5964 0.
1.52934 4.22762 0.
-110.352 -304.39 0.
-2.0215 -5.5693 0.
-324.934 -863.58 0.
-27.1448 -67.3254 0.
-3.87336 -105.03 0.
19.179 40.8303 0.
-39.5862 -87.5136 0.
-6.75383 -91.5402 0.
-453.835 -1175.1 0.
-25.5567 -68.897 0.
38.3712 106.002 0.
-177.082 -474.08 0.
-0.460036 -1.27416 0.
-318.502 -870.874 0.
31.1281 85.6168 0.
-355.821 -985.212 0.
-0.51396 -1.42355 0.
-184.378 -510.579 0.
-37.3911 -103.473 0.
13.7177 37.9955 0.
-7.46385 -20.6732 0.
-57.7695 -159.915 0.
-13.7788 -37.919 0.
-20.0565 -55.2761 0.
-301.092 -829.831 0.
-7.48435 -20.7106 0.
-275.637 -760.972 0.
12.4183 34.3168 0.
-69.697 -191.388 0.
1.79123 4.9013 0.
16.3925 45.3916 0.
5.3048 14.6867 0.
-22.7249 -62.7538 0.
-362.541 -1003.27 0.
-0.0530906 -44.6804 0.
-372.583 -1014.36 0.
-5.83636 -15.9559 0.
6.5313 17.5949 0.
11.8534 32.6759 0.
-690.607 -1639.09 0.
6.91565 18.164 0.
-0.12689 -7.32413 0.
-0.000388653 -8.69419 0.
-0.198034 -0.794235 0.
-3.01687 -6.27116 0.
-13.7645 -32.2621 0.
-3.12003 -8.01225 0.
-0.000673193 -0.594458 0.
-2.85897 -5.95094 0.
-0.00344156 -0.00756152 0.
-0.361063 -0.805041 0.
-13.9426 -33.7258 0.
-8.70506 -21.3617 0.
-6.14356 -15.1004 0.
-19.755 -20.5244 0.
-18.9612 -16.8599 0.
-17.5133 -34.2872 0.
-5.28736 -7.70992 0.
-3.28108 -2.69898 0.
-41.1057 -28.7843 0.
-13.9575 -5.29049 0.
-6.88772 -2.60385 0.
-0.531479 -0.0865053 0.
-0.0605012 -0.00481332 0.
-1.0242 -0.0446927 0.
0.684983 0.300344 0.
0.00313345 0.230524 0.
-0.00940249 -1.93299 0.
-0.0190582 -1.03974 0.
-0.000642918 -12.3501 0.
3.33383 7.60694 0.
-256.927 -475.381 0.
-451.377 -1198.12 0.
-0.0547938 -21.1643 0.
-0.011654 -17.3052 0.
12.9904 35.9803 0.
-109.382 -300.338 0.
10.6873 29.3878 0.
10.5175 29.123 0.
-0.16802 -43.6085 0.
-49.0823 -135.55 0.
-6.05929 -16.7651 0.
-169.362 -466.575 0.
-7.81702 -21.6245 0.
10.2835 28.297 0.
-0.28121 -0.773716 0.
1.3665 3.76026 0.
-83.3514 -230.437 0.
-11.9255 -32.9902 0.
-229.897 -636.775 0.
-36.7284 -101.577 0.
5.46559 15.125 0.
-478.851 -1320.67 0.
7.17861 19.8829 0.
-8.09351 -22.391 0.
25.6958 71.1599 0.
-433.997 -1199.4 0.
-116.231 -321.46 0.
16.5462 45.7937 0.
18.7239 51.7056 0.
-177.927 -490.949 0.
19.5291 53.7038 0.
-0.478642 -103.245 0.
-542.019 -1333.8 0.
13.0758 32.5441 0.
-3.037 -5.97303 0.
-634.884 -1335.37 0.
-7.54615 -92.6135 0.
-205.316 -523.437 0.
-17.7785 -49.2258 0.
-155.086 -422.159 0.
11.5074 31.8146 0.
-36.9087 -102.225 0.
9.72774 26.8872 0.
-24.4843 -67.3392 0.
-65.5484 -179.99 0.
-20.2878 -56.1893 0.
-73.038 -202.279 0.
-60.982 -168.786 0.
-32.9761 -91.2405 0.
20.1278 55.7415 0.
-180.419 -499.317 0.
-11.4216 -31.4031 0.
-81.5098 -224.572 0.
-8.25186 -22.5325 0.
-12.578 -34.8249 0.
-0.0198004 -60.6448 0.
-4.74569 -13.143 0.
-323.795 -888.698 0.
17.3361 47.4122 0.
-75.9572 -210.286 0.
0.676858 1.8733 0.
-62.9111 -173.87 0.
10.9428 30.3089 0.
-4.90098 -13.5293 0.
-7.07168 -19.4655 0.
-6.40835 -17.6031 0.
-337.574 -934.416 0.
13.3761 37.0176 0.
5.41891 13.2388 0.
-0.193047 -13.0009 0.
1.99664 5.46398 0.
4.86442 13.3474 0.
-0.881009 -14.8793 0.
0.184041 0.370994 0.
-3.17386 -7.15256 0.
-367.767 -970.614 0.
0.367721 1.01704 0.
-466.589 -1080.81 0.
-9.96016 -22.287 0.
-5.18093 -11.3647 0.
-527.441 -1399.92 0.
-6.81243 -17.5673 0.
-5.46141 -13.2406 0.
-275.494 -719.974 0.
-342.266 -909.98 0.
-52.335 -118.418 0.
-35.3208 -67.0124 0.
-467.49 -1255.33 0.
-82.9511 -140.585 0.
-35.8782 -15.2773 0.
-388.056 -708.547 0.
-8.51193 -6.87229 0.
-600.707 -1596.8 0.
0.556674 1.33106 0.
-0.00829173 -0.975146 0.
-0.036238 -0.614007 0.
0.0107356 1.35884 0.
-0.0152937 -2.29054 0.
0.00484663 11.3639 0.
5.3092 13.1917 0.
-0.274486 -33.553 0.
-0.107606 -25.8786 0.
12.6744 35.0199 0.
9.68825 26.7871 0.
13.8508 38.3557 0.
-66.7826 -183.766 0.
-5.10983 -14.0692 0.
-38.246 -105.299 0.
6.73829 18.4866 0.
-347.006 -958.07 0.
-12.1641 -33.6885 0.
-10.6313 -29.4183 0.
13.1694 36.4226 0.
-0.159068 -0.437297 0.
-9.25158 -25.4356 0.
8.41995 23.1591 0.
-27.6291 -76.4287 0.
9.0808 25.1071 0.
11.1463 30.8285 0.
-272.284 -753.08 0.
-0.0183713 -67.6038 0.
-64.7168 -178.546 0.
3.34446 9.26355 0.
-8.23679 -22.7953 0.
15.8788 43.968 0.
-10.7795 -29.8572 0.
-161.446 -446.588 0.
19.8886 54.8661 0.
-346.695 -956.068 0.
-0.0042838 -73.5286 0.
-216.848 -595.09 0.
31.1533 84.7892 0.
-197.113 -480.99 0.
-109.853 -267.24 0.
-3.51526 -54.6342 0.
36.9328 82.2652 0.
10.0323 25.0658 0.
2.02911 5.48325 0.
34.2951 94.9914 0.
-384.553 -1044.85 0.
-11.694 -32.3006 0.
-207.513 -574.739 0.
21.9557 60.677 0.
-244.421 -672.246 0.
-89.1962 -245.279 0.
-75.527 -209.161 0.
-4.84741 -13.4264 0.
-262.338 -726.207 0.
-15.5523 -42.9597 0.
14.8726 41.1756 0.
-10.1127 -27.9956 0.
21.1812 58.1774 0.
-185.513 -510.95 0.
-5.20533 -14.2176 0.
-18.5688 -51.4283 0.
13.4846 37.3401 0.
14.6897 40.6867 0.
9.14885 25.3329 0.
11.1483 30.4729 0.
-100.872 -272.932 0.
-19.2064 -53.1341 0.
-158.321 -437.85 0.
-7.995 -22.1428 0.
11.9042 32.8454 0.
-4.73391 -13.0214 0.
-5.74002 -15.8208 0.
-2.72257 -7.5344 0.
-0.05875 -36.5769 0.
-0.023156 -3.13542 0.
-0.181974 -17.3047 0.
-0.00633029 -8.0638 0.
-434.79 -1153.83 0.
-0.000728422 -16.2567 0.
-521.539 -1162.12 0.
-0.0930231 -4.46319 0.
0.231625 0.640991 0.
0.450251 1.24578 0.
0.493703 1.35532 0.
-8.26067 -20.0895 0.
-3.35863 -8.14099 0.
-10.6121 -29.2324 0.
-4.37667 -12.007 0.
-13.7967 -35.2388 0.
-15.8371 -13.76 0.
-17.6809 -18.8978 0.
-20.7935 -38.3047 0.
-2.76763 -1.00821 0.
-1.16436 -0.429819 0.
-11.2068 -5.20947 0.
0.0167083 0.00205822 0.
-27.7387 -20.742 0.
0.0200664 0.0309591 0.
-16.962 -17.7989 0.
-0.0152375 -0.229098 0.
-0.0213078 -1.501 0.
-343.492 -920.591 0.
-0.0386063 -1.15751 0.
-632.995 -1211.24 0.
-0.645981 -22.4057 0.
8.07962 20.8329 0.
11.2829 29.9145 0.
-7.89156 -21.8459 0.
6.87821 19.0104 0.
-210.31 -579.942 0.
0.326962 0.905203 0.
-156.808 -432.153 0.
11.2229 30.9363 0.
-220.252 -607.086 0.
-0.204616 -49.7105 0.
13.0876 36.25 0.
12.7442 35.298 0.
15.5584 43.0839 0.
-63.1442 -174.589 0.
1.30026 3.57107 0.
-85.5196 -234.926 0.
-10.5026 -28.8741 0.
-76.2195 -209.507 0.
-19.5379 -53.9834 0.
-9.83116 -27.132 0.
-193.011 -533.864 0.
12.2198 33.8323 0.
14.7828 40.9457 0.
-226.863 -628.368 0.
28.4623 78.6589 0.
-361.183 -999.964 0.
5.86525 16.2455 0.
-230.975 -639.022 0.
0.880963 2.43335 0.
-213.368 -589.068 0.
-0.0239747 -92.3593 0.
-165.455 -452.881 0.
6.49771 17.5368 0.
-3.07016 -8.46428 0.
42.4431 111.923 0.
9.93037 26.5725 0.
20.1467 50.4533 0.
39.124 106.461 0.
37.2013 99.1861 0.
-847.78 -2346.71 0.
29.1025 80.6002 0.
-16.3363 -45.2272 0.
15.2899 42.1426 0.
-85.7715 -237.013 0.
-13.3428 -36.9562 0.
-51.5677 -142.002 0.
-74.0729 -205.108 0.
7.92357 21.9465 0.
-165.49 -458.173 0.
-16.9238 -46.7544 0.
-119.42 -330.465 0.
17.2025 47.1645 0.
14.2994 39.2326 0.
-16.6638 -45.8369 0.
4.97432 13.5907 0.
-179.566 -497.363 0.
18.0195 49.8365 0.
15.8058 43.7793 0.
-5.54634 -15.3605 0.
-37.0598 -99.9939 0.
4.22545 11.4271 0.
-54.5489 -150.834 0.
8.58759 23.7215 0.
1.99274 5.51848 0.
-136.619 -376.763 0.
7.90443 21.7274 0.
-32.3686 -89.6037 0.
-4.47154 -12.3707 0.
-0.103677 -30.8103 0.
-0.273566 -24.2346 0.
-254.352 -675.978 0.
9.96927 27.1775 0.
0.832507 2.27156 0.
6.70891 18.4863 0.
0.0736933 0.178998 0.
0.0022232 1.81562 0.
-0.000784053 -1.6856 0.
0.715973 1.98166 0.
0.684263 1.88122 0.
-15.6738 -41.1203 0.
-2.26234 -5.89926 0.
-15.7099 -43.4843 0.
-12.0859 -33.4515 0.
-22.5401 -59.6308 0.
-16.0075 -17.3511 0.
-17.8679 -21.7123 0.
-19.6129 -32.1679 0.
-5.18086 -1.87131 0.
-0.968082 -0.38163 0.
-4.64168 -2.02988 0.
0.0511796 0.0506212 0.
-7.00423 -3.14646 0.
0.116925 0.322879 0.
-1.05044 -2.67693 0.
1.05948 2.54265 0.
0.84088 2.22941 0.
0.619495 1.71256 0.
2.85857 7.67388 0.
-0.703722 -6.96411 0.
8.69553 23.4986 0.
-373.585 -945.269 0.
-0.159919 -30.8367 0.
-69.215 -191.569 0.
-0.277691 -0.767675 0.
-282.099 -778.168 0.
15.4405 42.7538 0.
-0.0390947 -0.107887 0.
0.680959 1.87898 0.
12.5757 34.601 0.
-4.1561 -11.4278 0.
16.906 46.8236 0.
-8.63521 -23.918 0.
0.585663 1.62166 0.
-208.174 -575.412 0.
-5.34378 -14.661 0.
22.8038 62.4358 0.
-8.82565 -24.2516 0.
-13.8674 -38.0896 0.
10.3417 28.5521 0.
-9.19446 -25.3669 0.
14.5274 39.9182 0.
24.981 69.1758 0.
5.78533 16.0238 0.
-262.935 -728.248 0.
-0.0565673 -75.0881 0.
-48.7806 -135.022 0.
24.7108 68.4436 0.
-10.5038 -29.0413 0.
-123.051 -340.266 0.
-11.6214 -31.8553 0.
-28.6454 -79.2199 0.
-0.0453535 -77.9693 0.
-163.139 -435.523 0.
8.59986 23.5783 0.
-2.63621 -6.86028 0.
4.00623 10.3665 0.
-3.44407 -56.0654 0.
-3.37228 -9.0539 0.
27.7069 76.6382 0.
-5.69306 -15.6249 0.
-6.42354 -17.7828 0.
-68.3501 -189.241 0.
-18.0413 -49.8526 0.
-286.369 -791.254 0.
11.043 30.577 0.
-54.0589 -149.056 0.
-11.1759 -30.9145 0.
14.9925 41.525 0.
2.36412 6.48945 0.
1.48234 4.09587 0.
-114.082 -315.487 0.
-14.1298 -38.7164 0.
-99.4289 -272.494 0.
-0.115728 -0.313366 0.
13.2782 36.2909 0.
-60.4477 -166.013 0.
12.4268 34.3727 0.
-175.401 -485.659 0.
-14.1448 -39.1777 0.
-128.158 -345.57 0.
17.0147 45.9864 0.
-99.2414 -274.259 0.
-9.19858 -25.3957 0.
-5.41732 -14.9999 0.
16.8118 46.5659 0.
-9.92332 -27.1385 0.
-100.638 -274.183 0.
1.4974 4.14157 0.
13.5301 37.0015 0.
-43.7306 -120.467 0.
-44.8175 -120.449 0.
9.33111 25.624 0.
6.64458 18.3328 0.
-0.0227304 -3.48056 0.
3.70851 9.6167 0.
0.00055903 5.41873 0.
-304.862 -731.22 0.
-0.026909 -2.17507 0.
-0.0260749 -1.15793 0.
-468.931 -1160.64 0.
-0.00327622 -0.0684588 0.
-189.292 -463.425 0.
-25.0846 -62.4203 0.
-112.293 -286.805 0.
-83.4976 -218.422 0.
-324.809 -890.379 0.
-25.7277 -32.6563 0.
-23.9709 -24.9765 0.
-375.869 -987.741 0.
-13.2892 -16.0367 0.
-0.697418 -0.599018 0.
-284.512 -647.765 0.
-3.46524e-08 -0.00154148 0.
-328.342 -734.683 0.
-0.00400132 -4.86535 0.
-224.601 -534.144 0.
0.32362 0.891242 0.
-0.0710514 -10.0582 0.
-0.0195342 -0.29465 0.
6.04624 16.6227 0.
-3.15661 -8.26076 0.
6.75277 18.3982 0.
-29.026 -80.3966 0.
8.04738 22.251 0.
17.3686 48.0417 0.
-4.92811 -13.643 0.
17.2541 47.7908 0.
-188.413 -520.377 0.
-10.6375 -29.2444 0.
-32.2481 -88.597 0.
9.80129 27.1434 0.
-109.692 -303.825 0.
5.65284 15.6505 0.
2.97325 8.14919 0.
16.567 45.4036 0.
-0.334046 -59.122 0.
-46.6537 -128.13 0.
11.6541 31.9861 0.
2.0079 5.49311 0.
-52.9133 -145.941 0.
13.1116 36.0141 0.
-82.8098 -229.342 0.
-0.00292526 -68.9598 0.
27.077 74.8162 0.
16.7581 46.279 0.
-4.44213 -12.2453 0.
-219.019 -606.631 0.
-3.48352 -9.63155 0.
-247.526 -685.09 0.
14.6812 40.3508 0.
-445.853 -1231.2 0.
17.9357 49.4644 0.
22.4041 61.9408 0.
-433.321 -1177.9 0.
3.89406 9.97834 0.
-171.9 -426.143 0.
-12.0808 -28.1942 0.
-4.08834 -10.7882 0.
-1.24946 -98.7396 0.
-31.7737 -87.8109 0.
-495.763 -1371.47 0.
-6.39628 -17.5565 0.
-254.293 -703.827 0.
11.7705 32.5947 0.
-84.5691 -233.998 0.
10.1685 27.8039 0.
-8.63177 -23.8751 0.
7.86598 21.7861 0.
0.141742 0.389265 0.
-39.8651 -110.174 0.
24.4785 66.6151 0.
-0.186247 -0.510027 0.
-35.0839 -96.032 0.
1.73179 4.67977 0.
-67.1002 -183.468 0.
18.3481 49.8843 0.
0.917536 2.53823 0.
-128.407 -355.562 0.
13.6401 37.6887 0.
-46.0196 -127.283 0.
2.62192 7.08196 0.
-97.4854 -269.235 0.
8.01666 22.1197 0.
-34.1142 -94.4411 0.
16.0142 44.3107 0.
-52.8529 -144.348 0.
6.78493 18.454 0.
2.03431 5.62515 0.
-0.00981156 -48.2298 0.
-48.4437 -133.427 0.
11.2344 30.4437 0.
-0.0642234 -35.4136 0.
6.26223 17.3379 0.
-0.672054 -1.86131 0.
-165.536 -416.763 0.
3.74619 10.2792 0.
0.171257 0.444811 0.
-0.000242044 -0.444267 0.
-0.164732 -5.01818 0.
-14.8167 -40.0872 0.
-0.0100327 -0.34199 0.
-20.733 -52.5169 0.
-14.6696 -34.4578 0.
-29.2852 -67.592 0.
-26.0668 -54.6154 0.
-14.7433 -26.0981 0.
-21.0495 -19.7248 0.
-13.8291 -11.5398 0.
-22.4277 -20.5976 0.
-6.84549 -10.183 0.
-0.606869 -0.464991 0.
-34.0153 -33.5715 0.
0.00109016 0.0947327 0.
0.436343 1.16942 0.
0.0136422 2.56603 0.
1.14104 2.93937 0.
5.49751 15.167 0.
-343.742 -907.623 0.
-0.00166298 -21.8076 0.
9.01005 24.9169 0.
11.3748 30.1399 0.
13.1833 35.7749 0.
14.6638 40.6095 0.
-42.2727 -117.071 0.
6.49646 17.9624 0.
0.221188 0.612196 0.
-14.6694 -40.6314 0.
-27.0022 -74.7903 0.
-34.406 -94.5086 0.
-11.8346 -32.7637 0.
16.6851 46.1616 0.
-11.4199 -31.6099 0.
-9.61841 -26.6264 0.
-11.6632 -31.4616 0.
-168.371 -460.872 0.
17.3071 47.198 0.
-6.78872 -18.4876 0.
-64.3002 -176.338 0.
22.0668 60.3169 0.
-142.441 -392.749 0.
-11.3634 -31.4582 0.
-0.0391019 -68.506 0.
-42.987 -118.85 0.
3.9756 10.9786 0.
-346.831 -957.512 0.
23.9423 65.9702 0.
-16.8349 -46.2032 0.
8.88194 24.5573 0.
18.5825 50.9341 0.
-15.4043 -42.4397 0.
-0.13684 -85.1305 0.
-344.004 -943.928 0.
26.6455 73.7934 0.
18.3504 50.8219 0.
-322.144 -810.094 0.
35.9023 92.8394 0.
34.0079 89.7671 0.
25.4041 69.1646 0.
17.4807 47.7334 0.
5.24416 14.5254 0.
6.1658 17.0452 0.
15.5443 42.846 0.
2.49188 6.8587 0.
3.36255 9.31367 0.
-233.816 -646.245 0.
19.8451 54.3362 0.
-135.181 -373.183 0.
-6.62441 -18.1558 0.
22.0427 60.7096 0.
-113.861 -314.738 0.
9.41757 25.8749 0.
-9.54204 -26.1142 0.
4.86891 13.0868 0.
1.85689 5.00697 0.
-33.4734 -91.561 0.
16.8943 45.8806 0.
-73.7766 -204.116 0.
-31.9932 -88.5953 0.
1.04959 2.89916 0.
-39.9112 -110.359 0.
-41.4374 -111.854 0.
-5.32831 -14.406 0.
-12.9255 -35.6422 0.
-107.424 -297.328 0.
-11.161 -30.8771 0.
-105.023 -286.429 0.
-0.337308 -0.91593 0.
-2.39524 -6.62278 0.
15.7287 43.5199 0.
-40.7736 -112.282 0.
4.03356 11.0106 0.
-0.7956 -2.19926 0.
-6.09599 -16.8361 0.
-1.30788 -3.6151 0.
10.9275 28.7128 0.
4.51602 12.4896 0.
-0.178927 -7.44546 0.
1.6647 4.6024 0.
-0.0950062 -2.45797 0.
-7.0667 -19.4923 0.
0.132113 0.286001 0.
-101.911 -262.053 0.
-24.3997 -58.1801 0.
-23.1569 -54.3352 0.
-53.1538 -142.89 0.
-140.344 -388.175 0.
-20.6108 -17.2438 0.
-20.433 -15.1388 0.
-194.016 -487.283 0.
-30.9887 -15.0189 0.
-26.0557 -16.2364 0.
-137.861 -299.567 0.
0.00130469 0.0579414 0.
0.633893 1.75146 0.
0.00927064 1.12255 0.
-0.0674299 -5.42665 0.
5.49952 15.2051 0.
1.03254 2.81244 0.
0.83318 2.304 0.
-15.4613 -42.7306 0.
-0.455414 -21.3869 0.
-3.01922 -8.16113 0.
3.41091 9.44094 0.
-104.179 -288.557 0.
-0.0437015 -48.2735 0.
-166.074 -459.525 0.
-10.3173 -28.5762 0.
-8.21858 -22.3465 0.
-87.6666 -240.598 0.
-8.04589 -22.2711 0.
-2.35359 -6.50997 0.
-0.0925193 -55.7191 0.
-87.1427 -241.2 0.
-10.5334 -28.3917 0.
20.5288 56.1289 0.
-33.0099 -89.8184 0.
-45.6143 -124.645 0.
-154.628 -423.687 0.
-81.5239 -224.356 0.
15.0771 41.1718 0.
-183.278 -507.386 0.
-13.1499 -36.3722 0.
-91.2273 -252.076 0.
10.7159 29.572 0.
-11.1757 -30.5919 0.
-17.8899 -49.2679 0.
25.6772 70.4873 0.
-14.563 -40.2615 0.
-5.76414 -15.8459 0.
8.02052 21.7865 0.
-1.84614 -5.10581 0.
-5.36782 -14.6849 0.
-115.567 -319.941 0.
-17.7953 -49.263 0.
29.144 80.6602 0.
33.9116 86.0583 0.
0.583977 1.60491 0.
8.90228 24.0326 0.
-283.8 -783.069 0.
-0.320243 -85.2069 0.
-12.6332 -34.9746 0.
-20.1977 -55.8303 0.
15.8975 43.8806 0.
-56.6399 -156.845 0.
23.8566 66.0187 0.
-12.9227 -35.4197 0.
-241.887 -668.134 0.
-0.328847 -66.4444 0.
-106.549 -293.158 0.
-6.9026 -18.8236 0.
-3.81631 -10.4848 0.
-22.2112 -60.7431 0.
-4.00369 -10.8787 0.
-6.73371 -18.1148 0.
-2.89722 -7.71049 0.
-8.1291 -22.0509 0.
-88.7516 -240.889 0.
8.38666 23.1385 0.
12.5715 34.7121 0.
-80.6166 -222.853 0.
18.4639 49.2912 0.
3.6091 9.742 0.
-43.549 -120.006 0.
0.644916 1.75404 0.
12.9457 35.8089 0.
-11.3612 -31.42 0.
-2.06742 -5.60431 0.
17.6322 48.7081 0.
4.21308 11.6483 0.
-20.1361 -55.4402 0.
8.31232 22.6863 0.
-28.8149 -79.5249 0.
3.8081 10.5175 0.
-60.2003 -165.435 0.
10.6511 27.512 0.
-9.92962e-06 -26.283 0.
-3.89125e-05 -3.04215 0.
-178.902 -457.102 0.
-0.0402224 -8.09373 0.
-111.166 -284.868 0.
-0.00421875 -0.231183 0.
-29.3452 -78.2726 0.
-9.56346 -24.3662 0.
-7.52962 -19.6083 0.
-13.1105 -32.3807 0.
-9.55648 -21.483 0.
-14.9208 -14.8284 0.
-12.6914 -8.94868 0.
-19.0023 -28.052 0.
-19.6112 -7.13267 0.
-6.547 -9.41 0.
-30.2052 -36.7954 0.
1.96711 5.31486 0.
-139.435 -302.209 0.
2.77434 7.66221 0.
-148.289 -393.918 0.
-0.110736 -20.3869 0.
-0.263208 -0.726495 0.
-0.961259 -2.65212 0.
-28.6948 -79.4289 0.
-21.7411 -58.0124 0.
-8.42266 -22.6787 0.
14.1485 39.1275 0.
-32.9099 -90.6682 0.
-13.1852 -36.3016 0.
-23.9997 -66.4715 0.
-35.6326 -98.6892 0.
11.956 32.5058 0.
-0.545214 -51.1856 0.
-111.538 -308.688 0.
-6.45437 -17.848 0.
10.186 28.0708 0.
-109.648 -295.138 0.
1.36127 3.66627 0.
-1.6439 -4.40538 0.
-103.595 -281.179 0.
-12.233 -33.4266 0.
-14.9242 -40.859 0.
-27.0212 -74.4171 0.
-0.341331 -62.1043 0.
-177.783 -492.161 0.
-7.85768 -21.7335 0.
-0.241897 -65.9417 0.
-0.4165 -1.14845 0.
-11.8071 -32.3243 0.
20.2922 55.8472 0.
-31.8983 -87.5775 0.
0.897064 2.44974 0.
16.2759 44.8463 0.
28.7018 78.298 0.
-232.522 -643.896 0.
-0.185258 -58.7793 0.
19.292 53.0231 0.
-13.2775 -36.75 0.
0.994248 2.75331 0.
14.6015 39.0788 0.
-9.31995 -25.4557 0.
-0.466045 -68.6543 0.
9.88439 26.8266 0.
7.43751 20.4918 0.
-455.339 -1261.2 0.
-0.34476 -73.5667 0.
-39.8338 -110.156 0.
6.12087 16.8571 0.
18.2344 50.4565 0.
22.3204 61.2277 0.
-4.23942 -11.533 0.
18.6907 51.0812 0.
-98.3404 -270.234 0.
13.4841 36.7688 0.
-5.09396 -13.994 0.
-0.841128 -59.7193 0.
14.8453 40.3416 0.
-109.276 -293.275 0.
-11.6876 -31.0273 0.
-11.7349 -31.7938 0.
18.016 48.8366 0.
-1.06834 -2.94694 0.
-54.3025 -149.946 0.
9.5664 26.2062 0.
16.5186 44.0099 0.
0.483786 1.30381 0.
-82.8307 -228.081 0.
2.74065 7.46071 0.
-4.45952 -12.3332 0.
-4.14257 -11.4543 0.
10.1227 27.0942 0.
14.2847 38.4579 0.
0.202823 0.560226 0.
4.92859 13.5662 0.
3.93753 10.6481 0.
3.53806 9.76466 0.
8.22065 22.705 0.
-159.103 -433.974 0.
-1.08511 -30.091 0.
-53.2594 -146.799 0.
-0.0140654 -4.97599 0.
-0.0921549 -8.26262 0.
0.0455695 3.80283 0.
0.0598113 0.153443 0.
-0.00017607 -0.285826 0.
-18.6169 -51.0372 0.
-10.5679 -28.2374 0.
-7.64939 -20.5028 0.
-19.4458 -49.1982 0.
-24.989 -62.4342 0.
-14.7119 -15.0957 0.
-14.4722 -16.5077 0.
-19.9015 -34.5401 0.
-13.0498 -4.75879 0.
-5.39869 -9.24313 0.
-10.0306 -19.82 0.
0.0116456 4.5067 0.
1.59408 3.80303 0.
4.66714 12.9013 0.
-0.0902099 -0.24634 0.
10.2903 28.1828 0.
3.16254 8.75921 0.
-0.116299 -42.2646 0.
-68.8268 -190.632 0.
-11.6704 -31.1761 0.
-0.702535 -1.92744 0.
-8.50827 -23.5018 0.
-3.02783 -8.34106 0.
-0.163915 -0.451245 0.
2.23866 6.17846 0.
-147.54 -408.606 0.
-6.87481 -18.6913 0.
-6.27991 -16.9594 0.
16.3338 45.1948 0.
2.20302 6.0651 0.
-8.5322 -23.4848 0.
13.6976 35.7516 0.
-23.5769 -63.4461 0.
0.226057 0.60524 0.
-169.844 -459.754 0.
3.7711 10.3058 0.
5.03774 13.4785 0.
4.08166 11.2495 0.
-0.671192 -1.83692 0.
-0.160193 -45.7672 0.
22.482 62.1807 0.
8.64842 23.7623 0.
-12.5715 -34.6319 0.
-58.6411 -160.543 0.
-12.4492 -33.8024 0.
-96.9402 -266.147 0.
0.961934 2.62716 0.
2.99674 8.1277 0.
15.8535 43.3986 0.
-0.108674 -50.2518 0.
-0.113528 -66.6491 0.
5.62091 15.5193 0.
-0.646568 -75.2947 0.
-100.252 -277.679 0.
-302.442 -784.217 0.
-7.59509 -20.5875 0.
15.7027 41.4906 0.
-122.204 -334.05 0.
-6.53269 -18.042 0.
12.2344 33.7299 0.
-0.234678 -73.9256 0.
-258.764 -716.364 0.
4.2809 11.7852 0.
-6.45445 -17.857 0.
11.1754 29.4418 0.
1.75762 4.81307 0.
-12.1904 -33.257 0.
-5.47959 -14.6551 0.
6.05595 16.514 0.
-46.7422 -128.411 0.
-7.30074 -19.5711 0.
6.96389 18.9323 0.
22.9581 58.4803 0.
21.1779 56.1147 0.
-10.9137 -29.5325 0.
-1.1721 -49.5039 0.
-13.7242 -37.8509 0.
-58.5972 -161.781 0.
17.3907 47.484 0.
-0.183562 -51.4219 0.
-53.8162 -144.835 0.
3.90978 10.4702 0.
12.8249 34.955 0.
5.92815 16.3918 0.
13.6452 37.1449 0.
-7.85335 -21.0022 0.
10.8281 29.1304 0.
-144.112 -397.607 0.
-7.92055 -21.4858 0.
5.29241 14.2868 0.
-61.2711 -169.106 0.
4.44108 12.2664 0.
-33.8865 -90.0314 0.
9.70529 25.6464 0.
-0.206699 -0.57241 0.
8.05473 21.8821 0.
1.59104 4.37451 0.
0.0826696 4.97324 0.
0.456624 1.22832 0.
-0.468225 -1.01077 0.
-20.506 -54.0459 0.
-2.84163 -7.86355 0.
-5.88326 -13.6239 0.
-21.2139 -51.3885 0.
-19.2629 -45.462 0.
-12.3628 -11.2281 0.
-11.5144 -10.0657 0.
-35.4868 -74.7394 0.
-10.9494 -18.2239 0.
-14.6523 -14.1729 0.
-55.5763 -84.1929 0.
-0.00262195 -4.27771 0.
2.84878 7.16203 0.
-0.0220252 -3.90561 0.
2.2413 6.19363 0.
0.227493 0.617472 0.
-1.23456 -3.25426 0.
-8.26314 -21.8682 0.
-3.49445 -9.33002 0.
-29.6773 -79.3694 0.
0.557469 1.52432 0.
2.57121 6.95908 0.
-33.7066 -92.8462 0.
-7.28173 -20.0442 0.
5.82724 16.08 0.
-0.181733 -40.4212 0.
-110.569 -300.675 0.
-2.93942 -8.07162 0.
-0.303669 -49.451 0.
-14.239 -39.1473 0.
3.89971 10.7199 0.
-10.456 -27.1194 0.
-14.2073 -38.1998 0.
6.48271 17.3524 0.
-3.47479 -8.94019 0.
-5.60547 -15.3277 0.
9.16789 24.5355 0.
-3.15363 -8.69933 0.
-0.052687 -50.8484 0.
15.5097 42.5629 0.
-48.1986 -133.42 0.
-0.18503 -61.8986 0.
-0.399185 -45.0163 0.
-121.195 -331.798 0.
-7.5312 -20.4498 0.
-4.03893 -10.7356 0.
-15.0308 -41.049 0.
-3.65037 -9.9563 0.
-0.258333 -69.1788 0.
15.7768 43.5954 0.
5.70296 15.4976 0.
-0.420862 -1.16482 0.
-4.18585 -11.4495 0.
-6.58564 -17.9043 0.
-221.257 -611.885 0.
21.5508 59.6735 0.
-12.3256 -32.8463 0.
-94.1818 -258.585 0.
5.38252 14.4738 0.
-0.0330771 -55.5158 0.
-0.433545 -1.19497 0.
12.2931 33.4679 0.
-0.167206 -59.858 0.
-21.8692 -60.4893 0.
17.8804 47.6865 0.
-15.4907 -42.676 0.
-5.75173 -14.864 0.
-13.0714 -34.9491 0.
6.33851 17.2903 0.
7.99362 21.4499 0.
21.8056 58.5164 0.
6.9187 18.8281 0.
-4.64876 -11.8156 0.
0.552183 1.46222 0.
7.22808 17.1378 0.
-1.23594 -48.2749 0.
15.0385 41.4703 0.
-0.603047 -55.4729 0.
-41.9775 -114.214 0.
-39.1435 -107.19 0.
14.504 36.2757 0.
2.21989 5.69499 0.
13.4015 36.5896 0.
-26.9094 -74.2054 0.
2.7903 7.55984 0.
-11.576 -30.9364 0.
-19.745 -53.0874 0.
5.20265 13.7229 0.
-16.1558 -43.6257 0.
-6.24554 -16.8306 0.
0.589205 1.59351 0.
-0.0947757 -0.25889 0.
-8.4761 -23.4642 0.
1.88002 4.95522 0.
7.61033 21.0549 0.
6.12044 16.3838 0.
-2.62386 -7.11564 0.
2.50485 6.72367 0.
-24.1722 -49.7316 0.
-0.0346082 -1.57854 0.
-6.55494 -15.3666 0.
-6.3426 -12.8584 0.
-17.4842 -25.3051 0.
-16.2613 -27.0567 0.
-18.0142 -29.0688 0.
-15.0237 -10.4941 0.
-7.49297 -7.12784 0.
-13.0381 -17.9454 0.
-14.8062 -20.002 0.
-11.1778 -11.9982 0.
0.905284 5.89826 0.
4.03099 10.8109 0.
-3.6235 -9.53281 0.
0.125563 0.309482 0.
-0.311618 -9.21589 0.
-0.393324 -30.4031 0.
-0.955631 -30.2006 0.
-50.0406 -130.064 0.
1.66183 3.95569 0.
-35.2639 -94.4091 0.
-28.7557 -78.3361 0.
-6.47006 -17.4277 0.
18.2584 48.0684 0.
-98.4994 -271.105 0.
-29.5184 -81.453 0.
-26.47 -70.3251 0.
-20.1099 -54.7002 0.
6.56531 17.991 0.
-3.52528 -9.5975 0.
-0.692423 -32.9344 0.
-42.9548 -117.904 0.
-5.80238 -14.9825 0.
3.70446 8.66278 0.
-97.1056 -260.137 0.
10.9711 29.3657 0.
17.8334 48.8275 0.
-1.24797 -3.3828 0.
3.24627 8.8184 0.
-0.758304 -2.09454 0.
12.187 33.4219 0.
-2.48221 -6.75767 0.
-35.3551 -97.3508 0.
-8.47251 -22.8926 0.
11.1889 29.4109 0.
-81.4589 -222.701 0.
18.7877 49.8396 0.
-55.1523 -150.605 0.
-113.547 -311.317 0.
-1.17278 -64.0901 0.
12.2317 33.8563 0.
-1.22108 -3.33674 0.
-0.216262 -34.7347 0.
15.1643 41.7053 0.
19.9636 54.076 0.
-1.58688 -4.20406 0.
