# vtk DataFile Version 2.0
test grain
ASCII
DATASET UNSTRUCTURED_GRID
POINTS 5000 float
0.497878 0.000640794 0.
0.500632 0.000806579 0.
0.50309 0.000873171 0.
0.505528 0.000938075 0.
0.50764 0.000951093 0.
0.509753 0.000964293 0.
0.51184 0.000974664 0.
0.513885 0.000980004 0.
0.515931 0.000985373 0.
0.517955 0.000989671 0.
0.519968 0.000993411 0.
0.521981 0.000997165 0.
0.523984 0.000997949 0.
0.525986 0.000998331 0.
0.527988 0.000998705 0.
0.52999 0.000999008 0.
0.531992 0.000999312 0.
0.533993 0.000999582 0.
0.535995 0.000999783 0.
0.537996 0.000999985 0.
0.539996 0.00100009 0.
0.541997 0.00100013 0.
0.543997 0.00100016 0.
0.545998 0.00100012 0.
0.547998 0.00100006 0.
0.549998 0.001 0.
0.551998 0.00100005 0.
0.553998 0.00100009 0.
0.555998 0.00100014 0.
0.557999 0.0010002 0.
0.559999 0.00100026 0.
0.561999 0.00100031 0.
0.563999 0.00100033 0.
0.565999 0.00100036 0.
0.567999 0.00100035 0.
0.57 0.00100034 0.
0.572 0.00100033 0.
0.574 0.00100032 0.
0.576 0.00100031 0.
0.578 0.00100031 0.
0.58 0.00100038 0.
0.582 0.00100044 0.
0.584 0.00100048 0.
0.586 0.00100045 0.
0.588 0.00100042 0.
0.59 0.00100044 0.
0.592 0.00100048 0.
0.594 0.00100053 0.
0.596 0.00100048 0.
0.598 0.0010004 0.
0.6 0.00100031 0.
0.602 0.00100038 0.
0.604 0.00100045 0.
0.606 0.0010005 0.
0.608 0.00100049 0.
0.61 0.00100048 0.
0.612 0.00100048 0.
0.614 0.00100049 0.
0.616 0.00100049 0.
0.618 0.00100047 0.
0.62 0.00100043 0.
0.622 0.0010004 0.
0.624 0.00100037 0.
0.626 0.00100035 0.
0.628 0.00100033 0.
0.63 0.00100036 0.
0.632001 0.0010004 0.
0.634001 0.00100042 0.
0.636001 0.00100042 0.
0.638001 0.00100042 0.
0.640001 0.00100036 0.
0.642001 0.00100025 0.
0.644002 0.00100013 0.
0.646002 0.00100008 0.
0.648002 0.00100004 0.
0.650002 0.001 0.
0.652002 0.00100005 0.
0.654003 0.00100009 0.
0.656003 0.00100012 0.
0.658004 0.00100006 0.
0.660005 0.001 0.
0.662006 0.000999847 0.
0.664007 0.000999571 0.
0.666008 0.000999294 0.
0.66801 0.000999142 0.
0.670012 0.000999051 0.
0.672014 0.00099896 0.
0.674017 0.000997538 0.
0.67602 0.000995963 0.
0.678026 0.000994017 0.
0.680048 0.000989314 0.
0.68207 0.000984634 0.
0.684106 0.000979615 0.
0.686169 0.000973901 0.
0.688231 0.000968221 0.
0.690388 0.00094262 0.
0.692597 0.000907821 0.
0.694821 0.000872813 0.
0.697544 0.000785192 0.
0.700276 0.000700413 0.
0.496037 0.00169676 0.
0.499245 0.00234511 0.
0.502017 0.00258393 0.
0.504778 0.00279707 0.
0.507121 0.00284712 0.
0.509403 0.00288853 0.
0.511628 0.0029232 0.
0.513724 0.00293939 0.
0.51582 0.00295567 0.
0.517878 0.00296874 0.
0.519914 0.00298002 0.
0.521949 0.00299135 0.
0.523959 0.00299384 0.
0.525964 0.00299499 0.
0.52797 0.00299611 0.
0.529975 0.00299702 0.
0.531979 0.00299793 0.
0.533983 0.00299874 0.
0.535986 0.00299935 0.
0.537989 0.00299995 0.
0.53999 0.00300028 0.
0.541991 0.00300039 0.
0.543992 0.00300049 0.
0.545993 0.00300037 0.
0.547994 0.00300019 0.
0.549995 0.003 0.
0.551995 0.00300014 0.
0.553995 0.00300027 0.
0.555995 0.00300042 0.
0.557996 0.0030006 0.
0.559997 0.00300078 0.
0.561997 0.00300092 0.
0.563998 0.00300099 0.
0.565998 0.00300107 0.
0.567998 0.00300106 0.
0.569999 0.00300102 0.
0.571999 0.00300098 0.
0.573999 0.00300096 0.
0.575999 0.00300093 0.
0.577999 0.00300094 0.
0.579999 0.00300113 0.
0.581999 0.00300133 0.
0.583999 0.00300143 0.
0.585999 0.00300135 0.
0.588 0.00300126 0.
0.59 0.00300131 0.
0.592 0.00300145 0.
0.594 0.00300159 0.
0.596 0.00300143 0.
0.598 0.00300119 0.
0.6 0.00300094 0.
0.602 0.00300114 0.
0.604 0.00300135 0.
0.606 0.0030015 0.
0.608 0.00300147 0.
0.61 0.00300144 0.
0.612 0.00300144 0.
0.614001 0.00300146 0.
0.616001 0.00300148 0.
0.618001 0.00300141 0.
0.620001 0.0030013 0.
0.622001 0.00300119 0.
0.624001 0.00300111 0.
0.626001 0.00300104 0.
0.628001 0.00300099 0.
0.630001 0.00300109 0.
0.632002 0.0030012 0.
0.634002 0.00300127 0.
0.636003 0.00300127 0.
0.638003 0.00300127 0.
0.640004 0.00300108 0.
0.642004 0.00300074 0.
0.644005 0.0030004 0.
0.646005 0.00300023 0.
0.648005 0.00300012 0.
0.650006 0.003 0.
0.652006 0.00300014 0.
0.654007 0.00300028 0.
0.656008 0.00300035 0.
0.65801 0.00300018 0.
0.660011 0.00300001 0.
0.662014 0.00299954 0.
0.664017 0.00299871 0.
0.666021 0.00299788 0.
0.668025 0.00299743 0.
0.67003 0.00299715 0.
0.672036 0.00299688 0.
0.674045 0.00299256 0.
0.676055 0.00298783 0.
0.678071 0.00298184 0.
0.680129 0.00296762 0.
0.682187 0.00295348 0.
0.684273 0.0029383 0.
0.686404 0.00292098 0.
0.688535 0.00290376 0.
0.690909 0.0028112 0.
0.693353 0.00270111 0.
0.695966 0.00256493 0.
0.699 0.00229063 0.
0.702111 0.0018508 0.
0.493983 0.00247293 0.
0.497428 0.00355199 0.
0.500782 0.00424462 0.
0.50387 0.00461401 0.
0.506556 0.00473428 0.
0.50902 0.00480646 0.
0.511411 0.00487067 0.
0.513558 0.00489793 0.
0.515706 0.00492535 0.
0.5178 0.00494743 0.
0.519858 0.00496635 0.
0.521917 0.00498535 0.
0.523933 0.00498972 0.
0.525943 0.00499164 0.
0.527952 0.0049935 0.
0.529959 0.00499502 0.
0.531967 0.00499654 0.
0.533973 0.0049979 0.
0.535978 0.00499891 0.
0.537982 0.00499992 0.
0.539985 0.00500047 0.
0.541986 0.00500064 0.
0.543988 0.00500081 0.
0.545989 0.00500062 0.
0.54799 0.00500031 0.
0.549991 0.005 0.
0.551992 0.00500022 0.
0.553992 0.00500045 0.
0.555992 0.00500069 0.
0.557993 0.005001 0.
0.559994 0.00500131 0.
0.561995 0.00500153 0.
0.563996 0.00500165 0.
0.565997 0.00500178 0.
0.567997 0.00500177 0.
0.569998 0.0050017 0.
0.571998 0.00500164 0.
0.573998 0.00500159 0.
0.575998 0.00500156 0.
0.577998 0.00500156 0.
0.579998 0.00500189 0.
0.581999 0.00500222 0.
0.583999 0.00500239 0.
0.585999 0.00500225 0.
0.587999 0.00500211 0.
0.589999 0.00500218 0.
0.591999 0.00500241 0.
0.593999 0.00500265 0.
0.596 0.00500238 0.
0.598 0.00500198 0.
0.6 0.00500157 0.
0.602 0.00500191 0.
0.604 0.00500225 0.
0.606 0.0050025 0.
0.608001 0.00500245 0.
0.610001 0.00500241 0.
0.612001 0.0050024 0.
0.614001 0.00500243 0.
0.616001 0.00500246 0.
0.618001 0.00500235 0.
0.620002 0.00500217 0.
0.622002 0.00500198 0.
0.624002 0.00500185 0.
0.626002 0.00500174 0.
0.628002 0.00500165 0.
0.630002 0.00500182 0.
0.632003 0.00500199 0.
0.634004 0.00500211 0.
0.636004 0.00500211 0.
0.638005 0.00500212 0.
0.640006 0.0050018 0.
0.642007 0.00500123 0.
0.644008 0.00500066 0.
0.646009 0.00500038 0.
0.648009 0.00500019 0.
0.650009 0.00500001 0.
0.652011 0.00500024 0.
0.654012 0.00500047 0.
0.656013 0.00500058 0.
0.658016 0.00500029 0.
0.660018 0.00500001 0.
0.662022 0.00499922 0.
0.664028 0.00499784 0.
0.666034 0.00499645 0.
0.668041 0.00499571 0.
0.670049 0.00499525 0.
0.672058 0.0049948 0.
0.674073 0.00498751 0.
0.67609 0.0049796 0.
0.678118 0.00496938 0.
0.680212 0.0049455 0.
0.682306 0.00492174 0.
0.684446 0.00489625 0.
0.686649 0.00486707 0.
0.68885 0.00483807 0.
0.691498 0.00465527 0.
0.6942 0.00446179 0.
0.697327 0.00417069 0.
0.700694 0.00368135 0.
0.704257 0.00263295 0.
0.491683 0.00288836 0.
0.49555 0.00436908 0.
0.499328 0.00547475 0.
0.502489 0.00593696 0.
0.505479 0.0062479 0.
0.508083 0.00640575 0.
0.510671 0.00656232 0.
0.512962 0.006651 0.
0.51525 0.00674233 0.
0.517467 0.00681435 0.
0.519602 0.00685964 0.
0.521738 0.00690557 0.
0.523804 0.0069317 0.
0.525855 0.00695377 0.
0.527904 0.00697471 0.
0.52992 0.00697776 0.
0.531936 0.00698082 0.
0.53395 0.00698453 0.
0.53596 0.00698971 0.
0.53797 0.0069949 0.
0.539976 0.006998 0.
0.541979 0.00699934 0.
0.543982 0.00700068 0.
0.545984 0.00700097 0.
0.547985 0.00700096 0.
0.549987 0.00700094 0.
0.551987 0.00700108 0.
0.553988 0.00700121 0.
0.555988 0.0070014 0.
0.55799 0.00700174 0.
0.559991 0.00700208 0.
0.561992 0.00700237 0.
0.563993 0.00700259 0.
0.565994 0.00700282 0.
0.567995 0.00700293 0.
0.569996 0.00700298 0.
0.571997 0.00700304 0.
0.573997 0.00700305 0.
0.575997 0.00700306 0.
0.577997 0.00700311 0.
0.579997 0.00700343 0.
0.581998 0.00700374 0.
0.583998 0.00700395 0.
0.585998 0.00700394 0.
0.587999 0.00700393 0.
0.589999 0.00700399 0.
0.591999 0.00700411 0.
0.593999 0.00700423 0.
0.596 0.00700405 0.
0.598 0.00700378 0.
0.6 0.00700352 0.
0.602001 0.00700379 0.
0.604001 0.00700407 0.
0.606001 0.00700428 0.
0.608001 0.00700424 0.
0.610001 0.00700421 0.
0.612002 0.00700418 0.
0.614002 0.00700414 0.
0.616002 0.00700411 0.
0.618003 0.00700394 0.
0.620003 0.0070037 0.
0.622004 0.00700347 0.
0.624004 0.00700338 0.
0.626004 0.00700331 0.
0.628004 0.00700324 0.
0.630005 0.00700324 0.
0.632006 0.00700323 0.
0.634006 0.00700318 0.
0.636008 0.00700302 0.
0.638009 0.00700287 0.
0.64001 0.00700249 0.
0.642011 0.00700194 0.
0.644012 0.00700139 0.
0.646013 0.00700115 0.
0.648014 0.00700099 0.
0.650014 0.00700083 0.
0.652016 0.00700064 0.
0.654018 0.00700046 0.
0.65602 0.0069998 0.
0.658025 0.00699758 0.
0.66003 0.00699536 0.
0.662038 0.00699118 0.
0.664052 0.0069847 0.
0.666065 0.00697823 0.
0.668085 0.00697442 0.
0.670108 0.00697178 0.
0.672131 0.00696914 0.
0.674204 0.00693441 0.
0.676278 0.00689816 0.
0.678374 0.00685897 0.
0.680555 0.00680351 0.
0.682733 0.00674906 0.
0.685031 0.00666211 0.
0.687406 0.00655782 0.
0.689837 0.00641777 0.
0.692644 0.00609033 0.
0.695524 0.00577119 0.
0.698885 0.00534871 0.
0.702634 0.00457005 0.
0.706408 0.00313216 0.
0.489486 0.00315919 0.
0.493795 0.0049557 0.
0.497557 0.00628054 0.
0.50095 0.00708566 0.
0.504166 0.00763993 0.
0.507029 0.00795108 0.
0.509801 0.00821366 0.
0.5123 0.00837339 0.
0.514746 0.00853664 0.
0.517117 0.00867583 0.
0.519332 0.008749 0.
0.521551 0.00882323 0.
0.523672 0.00887194 0.
0.525765 0.00891469 0.
0.527855 0.00895589 0.
0.52988 0.00896048 0.
0.531905 0.00896507 0.
0.533927 0.00897109 0.
0.535942 0.00898046 0.
0.537958 0.00898984 0.
0.539967 0.00899552 0.
0.541971 0.00899802 0.
0.543976 0.00900053 0.
0.545978 0.00900133 0.
0.54798 0.0090016 0.
0.549982 0.00900187 0.
0.551983 0.00900193 0.
0.553984 0.00900198 0.
0.555984 0.00900211 0.
0.557986 0.00900248 0.
0.559987 0.00900285 0.
0.561989 0.0090032 0.
0.56399 0.00900353 0.
0.565991 0.00900386 0.
0.567993 0.00900409 0.
0.569994 0.00900427 0.
0.571995 0.00900444 0.
0.573995 0.00900451 0.
0.575995 0.00900457 0.
0.577995 0.00900466 0.
0.579996 0.00900496 0.
0.581996 0.00900527 0.
0.583997 0.00900552 0.
0.585997 0.00900564 0.
0.587998 0.00900576 0.
0.589998 0.00900581 0.
0.591999 0.00900581 0.
0.593999 0.0090058 0.
0.595999 0.00900571 0.
0.598 0.00900559 0.
0.6 0.00900547 0.
0.602001 0.00900568 0.
0.604001 0.00900589 0.
0.606002 0.00900605 0.
0.608002 0.00900604 0.
0.610002 0.00900602 0.
0.612002 0.00900596 0.
0.614003 0.00900586 0.
0.616003 0.00900575 0.
0.618004 0.00900552 0.
0.620005 0.00900524 0.
0.622005 0.00900495 0.
0.624006 0.0090049 0.
0.626006 0.00900487 0.
0.628006 0.00900483 0.
0.630007 0.00900465 0.
0.632008 0.00900447 0.
0.634009 0.00900424 0.
0.636011 0.00900393 0.
0.638012 0.00900362 0.
0.640014 0.00900318 0.
0.642015 0.00900265 0.
0.644017 0.00900212 0.
0.646018 0.00900191 0.
0.648019 0.00900178 0.
0.65002 0.00900165 0.
0.652022 0.00900105 0.
0.654024 0.00900045 0.
0.656028 0.00899901 0.
0.658035 0.00899485 0.
0.660042 0.00899069 0.
0.662055 0.00898308 0.
0.664075 0.00897148 0.
0.666096 0.0089599 0.
0.668129 0.00895308 0.
0.670168 0.00894823 0.
0.672206 0.00894338 0.
0.674339 0.008879 0.
0.676474 0.00881337 0.
0.678645 0.00874399 0.
0.680918 0.00865475 0.
0.683187 0.00856716 0.
0.685698 0.00839443 0.
0.68827 0.00820413 0.
0.690997 0.00788789 0.
0.693953 0.00739921 0.
0.697138 0.0068901 0.
0.700613 0.0062844 0.
0.704553 0.00506427 0.
0.70882 0.0033179 0.
0.487421 0.00336651 0.
0.491921 0.00537697 0.
0.495822 0.00693028 0.
0.49941 0.00811968 0.
0.502774 0.0088937 0.
0.505972 0.00944364 0.
0.508919 0.00979405 0.
0.511631 0.0100233 0.
0.514213 0.0102598 0.
0.516734 0.0104848 0.
0.519023 0.0105886 0.
0.521319 0.0106955 0.
0.523501 0.0107752 0.
0.525638 0.010848 0.
0.527773 0.0109206 0.
0.529813 0.0109298 0.
0.531853 0.0109391 0.
0.533889 0.0109499 0.
0.535912 0.0109643 0.
0.537935 0.0109787 0.
0.53995 0.010988 0.
0.541958 0.0109927 0.
0.543966 0.0109975 0.
0.545971 0.0109994 0.
0.547974 0.0110004 0.
0.549977 0.0110015 0.
0.551978 0.0110016 0.
0.553979 0.0110018 0.
0.55598 0.011002 0.
0.557982 0.0110023 0.
0.559984 0.0110027 0.
0.561985 0.0110031 0.
0.563987 0.0110036 0.
0.565989 0.011004 0.
0.56799 0.0110043 0.
0.569991 0.0110046 0.
0.571993 0.0110049 0.
0.573993 0.0110051 0.
0.575993 0.0110052 0.
0.577994 0.0110054 0.
0.579994 0.0110057 0.
0.581995 0.011006 0.
0.583996 0.0110063 0.
0.585996 0.0110066 0.
0.587997 0.0110068 0.
0.589998 0.0110069 0.
0.591998 0.0110068 0.
0.593999 0.0110068 0.
0.595999 0.0110067 0.
0.598 0.0110067 0.
0.6 0.0110067 0.
0.602001 0.0110068 0.
0.604001 0.011007 0.
0.606002 0.0110071 0.
0.608002 0.0110071 0.
0.610003 0.0110071 0.
0.612003 0.011007 0.
0.614004 0.0110068 0.
0.616005 0.0110066 0.
0.618005 0.0110063 0.
0.620006 0.011006 0.
0.622007 0.0110057 0.
0.624008 0.0110056 0.
0.626008 0.0110055 0.
0.628008 0.0110054 0.
0.63001 0.011005 0.
0.632011 0.0110047 0.
0.634013 0.0110043 0.
0.636014 0.0110039 0.
0.638016 0.0110036 0.
0.640018 0.0110031 0.
0.64202 0.0110025 0.
0.644021 0.0110019 0.
0.646023 0.0110015 0.
0.648024 0.0110012 0.
0.650026 0.0110009 0.
0.65203 0.0109992 0.
0.654034 0.0109975 0.
0.65604 0.0109944 0.
0.658052 0.0109868 0.
0.660064 0.0109792 0.
0.662085 0.0109673 0.
0.664115 0.0109504 0.
0.666145 0.0109336 0.
0.668199 0.0109177 0.
0.670262 0.0109023 0.
0.672326 0.0108862 0.
0.674519 0.0107835 0.
0.67671 0.0106818 0.
0.678961 0.0105744 0.
0.681324 0.0104472 0.
0.683689 0.0103215 0.
0.686397 0.0100525 0.
0.689156 0.00978293 0.
0.692168 0.00926261 0.
0.695295 0.00861996 0.
0.698749 0.00791557 0.
0.702403 0.00700485 0.
0.706346 0.00550507 0.
0.710905 0.00349594 0.
0.485532 0.0035966 0.
0.490442 0.00582314 0.
0.494482 0.00760603 0.
0.498165 0.00903627 0.
0.501721 0.00996718 0.
0.505096 0.0106848 0.
0.508128 0.0111434 0.
0.510998 0.0115069 0.
0.513654 0.0118491 0.
0.51628 0.0121967 0.
0.518654 0.0123537 0.
0.521027 0.0125069 0.
0.523283 0.012632 0.
0.525467 0.012748 0.
0.527652 0.0128653 0.
0.529717 0.0128844 0.
0.531781 0.012902 0.
0.533836 0.0129206 0.
0.535869 0.012941 0.
0.537902 0.0129614 0.
0.539925 0.0129754 0.
0.541939 0.0129834 0.
0.543953 0.0129914 0.
0.54596 0.0129951 0.
0.547965 0.0129974 0.
0.54997 0.0129997 0.
0.551972 0.0130001 0.
0.553974 0.0130006 0.
0.555976 0.013001 0.
0.557978 0.0130014 0.
0.55998 0.0130017 0.
0.561982 0.0130022 0.
0.563983 0.0130027 0.
0.565985 0.0130032 0.
0.567987 0.0130036 0.
0.569989 0.013004 0.
0.57199 0.0130043 0.
0.573991 0.0130047 0.
0.575991 0.0130051 0.
0.577992 0.0130055 0.
0.579993 0.0130057 0.
0.581994 0.013006 0.
0.583995 0.0130063 0.
0.585996 0.0130067 0.
0.587996 0.0130071 0.
0.589997 0.0130072 0.
0.591998 0.0130072 0.
0.593998 0.0130072 0.
0.595999 0.0130071 0.
0.598 0.0130071 0.
0.6 0.0130071 0.
0.602001 0.0130073 0.
0.604002 0.0130074 0.
0.606002 0.0130076 0.
0.608003 0.0130075 0.
0.610003 0.0130075 0.
0.612004 0.0130073 0.
0.614005 0.013007 0.
0.616006 0.0130066 0.
0.618007 0.0130063 0.
0.620008 0.013006 0.
0.622009 0.0130058 0.
0.62401 0.0130055 0.
0.62601 0.0130052 0.
0.628011 0.0130049 0.
0.630013 0.0130044 0.
0.632014 0.0130038 0.
0.634016 0.0130034 0.
0.636018 0.0130031 0.
0.63802 0.0130027 0.
0.640022 0.0130022 0.
0.642024 0.0130015 0.
0.644026 0.0130008 0.
0.646028 0.0130001 0.
0.648031 0.0129993 0.
0.650033 0.0129985 0.
0.65204 0.0129951 0.
0.654046 0.0129916 0.
0.656056 0.012986 0.
0.658077 0.0129733 0.
0.660098 0.0129608 0.
0.662128 0.0129436 0.
0.66417 0.0129213 0.
0.666212 0.012899 0.
0.668297 0.0128662 0.
0.670396 0.0128308 0.
0.672501 0.0127908 0.
0.674754 0.0126384 0.
0.677002 0.0124883 0.
0.679354 0.0123219 0.
0.681819 0.0121333 0.
0.684321 0.0119157 0.
0.687102 0.0114872 0.
0.689956 0.0110577 0.
0.693076 0.0104434 0.
0.696383 0.0097176 0.
0.699993 0.00888454 0.
0.703786 0.00767675 0.
0.707811 0.00598885 0.
0.712638 0.00380571 0.
0.484151 0.00396057 0.
0.489224 0.00632699 0.
0.493307 0.00826288 0.
0.497043 0.0098074 0.
0.500691 0.0108971 0.
0.504131 0.0117963 0.
0.507292 0.0124386 0.
0.510315 0.0129484 0.
0.513072 0.0134099 0.
0.515791 0.0138789 0.
0.518267 0.0141115 0.
0.52072 0.014312 0.
0.52306 0.0144841 0.
0.525293 0.0146443 0.
0.527528 0.0148071 0.
0.52962 0.0148385 0.
0.531706 0.0148646 0.
0.533782 0.0148912 0.
0.535825 0.0149175 0.
0.537868 0.014944 0.
0.539899 0.0149627 0.
0.541919 0.014974 0.
0.54394 0.0149854 0.
0.54595 0.0149908 0.
0.547957 0.0149944 0.
0.549964 0.0149979 0.
0.551966 0.0149987 0.
0.553969 0.0149994 0.
0.555972 0.015 0.
0.557974 0.0150004 0.
0.559976 0.0150007 0.
0.561978 0.0150012 0.
0.56398 0.0150018 0.
0.565982 0.0150024 0.
0.567984 0.0150029 0.
0.569986 0.0150034 0.
0.571988 0.0150038 0.
0.573989 0.0150043 0.
0.575989 0.0150049 0.
0.57799 0.0150055 0.
0.579991 0.0150057 0.
0.581993 0.015006 0.
0.583994 0.0150064 0.
0.585995 0.0150068 0.
0.587996 0.0150073 0.
0.589997 0.0150075 0.
0.591997 0.0150076 0.
0.593998 0.0150076 0.
0.595999 0.0150076 0.
0.598 0.0150075 0.
0.6 0.0150075 0.
0.602001 0.0150077 0.
0.604002 0.0150078 0.
0.606002 0.015008 0.
0.608003 0.0150079 0.
0.610004 0.0150079 0.
0.612005 0.0150076 0.
0.614006 0.0150071 0.
0.616007 0.0150067 0.
0.618008 0.0150063 0.
0.62001 0.0150061 0.
0.622011 0.0150058 0.
0.624012 0.0150053 0.
0.626013 0.0150049 0.
0.628014 0.0150044 0.
0.630016 0.0150037 0.
0.632018 0.015003 0.
0.63402 0.0150025 0.
0.636022 0.0150022 0.
0.638024 0.0150019 0.
0.640026 0.0150013 0.
0.642029 0.0150005 0.
0.644031 0.0149997 0.
0.646034 0.0149986 0.
0.648038 0.0149974 0.
0.650041 0.0149961 0.
0.65205 0.0149909 0.
0.654059 0.0149858 0.
0.656073 0.0149774 0.
0.658102 0.0149598 0.
0.660131 0.0149422 0.
0.662172 0.0149198 0.
0.664227 0.014892 0.
0.66628 0.0148643 0.
0.668398 0.0148133 0.
0.670532 0.0147575 0.
0.672682 0.0146915 0.
0.674996 0.0144882 0.
0.677303 0.0142889 0.
0.679772 0.0140571 0.
0.682343 0.0138053 0.
0.684982 0.0134606 0.
0.687825 0.0128747 0.
0.690792 0.0122664 0.
0.693985 0.0115404 0.
0.697394 0.0106941 0.
0.701088 0.00975784 0.
0.704942 0.00832891 0.
0.709047 0.00648271 0.
0.713999 0.00426915 0.
0.483165 0.00447416 0.
0.488172 0.00688777 0.
0.492228 0.00890849 0.
0.496017 0.0105367 0.
0.499701 0.0118002 0.
0.503172 0.0128466 0.
0.50645 0.0136722 0.
0.509591 0.0143174 0.
0.51245 0.0148842 0.
0.515199 0.0154132 0.
0.517757 0.0157336 0.
0.520257 0.0159889 0.
0.522675 0.0162241 0.
0.524957 0.016422 0.
0.527248 0.0166237 0.
0.529403 0.0167005 0.
0.531544 0.0167659 0.
0.533669 0.0168265 0.
0.535729 0.0168599 0.
0.53779 0.0168935 0.
0.539838 0.0169207 0.
0.541873 0.0169418 0.
0.543908 0.016963 0.
0.545926 0.0169742 0.
0.547938 0.016982 0.
0.549951 0.0169898 0.
0.551956 0.0169923 0.
0.55396 0.0169947 0.
0.555965 0.0169969 0.
0.557968 0.0169981 0.
0.559971 0.0169993 0.
0.561974 0.0170003 0.
0.563976 0.017001 0.
0.565979 0.0170017 0.
0.567981 0.0170023 0.
0.569983 0.0170029 0.
0.571985 0.0170034 0.
0.573986 0.0170041 0.
0.575987 0.0170048 0.
0.577988 0.0170055 0.
0.57999 0.0170058 0.
0.581991 0.0170062 0.
0.583992 0.0170066 0.
0.585994 0.0170071 0.
0.587995 0.0170076 0.
0.589996 0.0170079 0.
0.591997 0.0170079 0.
0.593998 0.0170079 0.
0.595999 0.0170081 0.
0.598 0.0170084 0.
0.6 0.0170087 0.
0.602001 0.0170087 0.
0.604002 0.0170087 0.
0.606002 0.0170086 0.
0.608003 0.0170084 0.
0.610005 0.0170082 0.
0.612006 0.0170079 0.
0.614007 0.0170074 0.
0.616009 0.0170068 0.
0.61801 0.0170064 0.
0.620012 0.0170061 0.
0.622013 0.0170057 0.
0.624014 0.0170051 0.
0.626015 0.0170044 0.
0.628016 0.0170038 0.
0.630019 0.0170031 0.
0.632021 0.0170023 0.
0.634023 0.0170016 0.
0.636026 0.0170009 0.
0.638028 0.0170002 0.
0.640032 0.016999 0.
0.642035 0.0169973 0.
0.644039 0.0169957 0.
0.646045 0.0169924 0.
0.648051 0.0169888 0.
0.650058 0.0169849 0.
0.652075 0.016974 0.
0.654093 0.0169631 0.
0.656117 0.0169472 0.
0.658164 0.0169177 0.
0.660209 0.0168884 0.
0.662273 0.0168558 0.
0.664352 0.0168192 0.
0.666431 0.0167828 0.
0.668611 0.0166814 0.
0.670808 0.0165719 0.
0.67303 0.01645 0.
0.675385 0.016213 0.
0.677732 0.0159809 0.
0.6803 0.0156711 0.
0.682937 0.0153581 0.
0.685676 0.0148819 0.
0.688558 0.0141884 0.
0.69163 0.0134281 0.
0.69488 0.012605 0.
0.698358 0.0116403 0.
0.702054 0.010545 0.
0.705917 0.00901913 0.
0.710033 0.00707058 0.
0.714887 0.00492753 0.
0.482445 0.00517448 0.
0.487242 0.00748306 0.
0.491267 0.00955637 0.
0.495059 0.0112676 0.
0.498737 0.0126622 0.
0.502242 0.0138365 0.
0.505595 0.0148136 0.
0.508765 0.0155434 0.
0.511707 0.016204 0.
0.514502 0.0168162 0.
0.517163 0.0172689 0.
0.519723 0.0176089 0.
0.522238 0.0179386 0.
0.524585 0.0181802 0.
0.526945 0.0184269 0.
0.529173 0.0185524 0.
0.531371 0.0186604 0.
0.533551 0.0187603 0.
0.535631 0.0188012 0.
0.537711 0.0188422 0.
0.539776 0.018878 0.
0.541826 0.0189091 0.
0.543875 0.0189404 0.
0.545902 0.0189575 0.
0.54792 0.0189695 0.
0.549938 0.0189816 0.
0.551945 0.0189859 0.
0.553952 0.0189901 0.
0.555958 0.0189938 0.
0.557962 0.0189958 0.
0.559966 0.0189978 0.
0.56197 0.0189993 0.
0.563973 0.0190002 0.
0.565975 0.019001 0.
0.567978 0.0190017 0.
0.56998 0.0190024 0.
0.571983 0.019003 0.
0.573984 0.0190038 0.
0.575985 0.0190047 0.
0.577986 0.0190055 0.
0.579988 0.0190059 0.
0.581989 0.0190063 0.
0.583991 0.0190068 0.
0.585992 0.0190074 0.
0.587994 0.0190079 0.
0.589995 0.0190082 0.
0.591996 0.0190082 0.
0.593997 0.0190083 0.
0.595998 0.0190087 0.
0.597999 0.0190093 0.
0.6 0.0190099 0.
0.602001 0.0190097 0.
0.604002 0.0190095 0.
0.606003 0.0190092 0.
0.608004 0.0190089 0.
0.610005 0.0190086 0.
0.612007 0.0190082 0.
0.614008 0.0190076 0.
0.61601 0.019007 0.
0.618012 0.0190065 0.
0.620013 0.0190061 0.
0.622015 0.0190056 0.
0.624016 0.0190048 0.
0.626017 0.019004 0.
0.628019 0.0190032 0.
0.630021 0.0190024 0.
0.632024 0.0190016 0.
0.634027 0.0190007 0.
0.63603 0.0189997 0.
0.638033 0.0189986 0.
0.640037 0.0189967 0.
0.642042 0.0189941 0.
0.644048 0.0189916 0.
0.646056 0.0189862 0.
0.648065 0.0189801 0.
0.650074 0.0189737 0.
0.6521 0.0189569 0.
0.654126 0.0189402 0.
0.656162 0.0189166 0.
0.658226 0.0188749 0.
0.660289 0.0188335 0.
0.662376 0.0187904 0.
0.664483 0.0187443 0.
0.666589 0.0186984 0.
0.66884 0.0185372 0.
0.671105 0.0183684 0.
0.673407 0.0181877 0.
0.675818 0.0179081 0.
0.678233 0.0176258 0.
0.6809 0.0172029 0.
0.683599 0.0167893 0.
0.686429 0.016148 0.
0.689335 0.0153873 0.
0.692481 0.0145335 0.
0.695785 0.0136196 0.
0.699282 0.0125617 0.
0.702962 0.0113197 0.
0.706788 0.00972811 0.
0.710854 0.00775503 0.
0.715462 0.00572337 0.
0.481893 0.0060282 0.
0.486425 0.0081449 0.
0.490421 0.0102388 0.
0.494195 0.0120225 0.
0.497837 0.0135008 0.
0.50136 0.0147657 0.
0.504744 0.0158625 0.
0.50793 0.0167065 0.
0.510959 0.0174982 0.
0.513802 0.0181943 0.
0.51657 0.0187791 0.
0.519191 0.0192029 0.
0.521793 0.0196347 0.
0.524218 0.0199144 0.
0.526639 0.0201938 0.
0.528934 0.020371 0.
0.531182 0.0205279 0.
0.533416 0.0206778 0.
0.535517 0.0207268 0.
0.537619 0.0207761 0.
0.539704 0.020822 0.
0.541768 0.0208649 0.
0.543832 0.0209083 0.
0.545868 0.0209333 0.
0.547894 0.0209512 0.
0.549921 0.0209692 0.
0.551931 0.0209762 0.
0.55394 0.0209828 0.
0.555949 0.0209887 0.
0.557955 0.0209918 0.
0.559961 0.0209949 0.
0.561965 0.0209972 0.
0.563969 0.0209984 0.
0.565972 0.0209995 0.
0.567975 0.0210005 0.
0.569978 0.0210013 0.
0.57198 0.0210021 0.
0.573982 0.021003 0.
0.575983 0.021004 0.
0.577984 0.0210049 0.
0.579986 0.0210054 0.
0.581988 0.0210059 0.
0.58399 0.0210064 0.
0.585991 0.021007 0.
0.587993 0.0210077 0.
0.589994 0.021008 0.
0.591996 0.0210081 0.
0.593997 0.0210082 0.
0.595998 0.0210088 0.
0.597999 0.0210096 0.
0.6 0.0210103 0.
0.602001 0.02101 0.
0.604002 0.0210097 0.
0.606003 0.0210093 0.
0.608005 0.0210088 0.
0.610006 0.0210083 0.
0.612008 0.0210078 0.
0.61401 0.0210072 0.
0.616011 0.0210066 0.
0.618013 0.021006 0.
0.620015 0.0210055 0.
0.622017 0.021005 0.
0.624018 0.021004 0.
0.62602 0.0210031 0.
0.628021 0.0210021 0.
0.630024 0.0210011 0.
0.632027 0.0210001 0.
0.63403 0.0209989 0.
0.636034 0.0209973 0.
0.638038 0.0209957 0.
0.640044 0.0209928 0.
0.642051 0.0209889 0.
0.644059 0.0209851 0.
0.646071 0.0209767 0.
0.648084 0.0209673 0.
0.650098 0.0209572 0.
0.652134 0.0209321 0.
0.654171 0.0209072 0.
0.65622 0.0208738 0.
0.658301 0.0208193 0.
0.660381 0.0207652 0.
0.662495 0.0207067 0.
0.664633 0.0206448 0.
0.66677 0.0205833 0.
0.669082 0.0203593 0.
0.671404 0.0201326 0.
0.673776 0.0198991 0.
0.676242 0.0195867 0.
0.67875 0.0192411 0.
0.6815 0.0187062 0.
0.684279 0.0181614 0.
0.687184 0.0173854 0.
0.690157 0.0165247 0.
0.693325 0.015584 0.
0.696652 0.014587 0.
0.700151 0.0134593 0.
0.7038 0.0120973 0.
0.707562 0.0104589 0.
0.711579 0.00850465 0.
0.715952 0.00659929 0.
0.481485 0.00700884 0.
0.485773 0.00894426 0.
0.489723 0.011006 0.
0.493447 0.0128263 0.
0.497076 0.0143662 0.
0.500605 0.0157018 0.
0.503983 0.0169005 0.
0.507192 0.0178529 0.
0.510283 0.0187469 0.
0.513194 0.019535 0.
0.516037 0.0202061 0.
0.518718 0.0206875 0.
0.521377 0.0211722 0.
0.523859 0.0215212 0.
0.526323 0.0218697 0.
0.528676 0.0221267 0.
0.530967 0.0223505 0.
0.53325 0.0225707 0.
0.53538 0.0226312 0.
0.53751 0.0226915 0.
0.539619 0.0227498 0.
0.541697 0.0228074 0.
0.543776 0.0228655 0.
0.545825 0.0229008 0.
0.547861 0.0229266 0.
0.549898 0.0229524 0.
0.551912 0.022963 0.
0.553926 0.0229729 0.
0.555938 0.0229817 0.
0.557946 0.0229861 0.
0.559954 0.0229906 0.
0.56196 0.0229938 0.
0.563964 0.0229955 0.
0.565968 0.0229972 0.
0.567972 0.0229985 0.
0.569975 0.0229996 0.
0.571978 0.0230007 0.
0.573979 0.0230017 0.
0.575981 0.0230027 0.
0.577982 0.0230036 0.
0.579984 0.0230042 0.
0.581986 0.0230048 0.
0.583988 0.0230054 0.
0.58599 0.0230062 0.
0.587992 0.0230069 0.
0.589993 0.0230074 0.
0.591995 0.0230076 0.
0.593996 0.0230078 0.
0.595998 0.0230084 0.
0.597999 0.0230091 0.
0.6 0.0230099 0.
0.602002 0.0230096 0.
0.604003 0.0230093 0.
0.606004 0.0230089 0.
0.608006 0.0230082 0.
0.610007 0.0230075 0.
0.612009 0.0230068 0.
0.614011 0.0230062 0.
0.616013 0.0230056 0.
0.618015 0.023005 0.
0.620017 0.0230044 0.
0.622019 0.0230037 0.
0.62402 0.0230027 0.
0.626022 0.0230016 0.
0.628023 0.0230004 0.
0.630027 0.0229991 0.
0.632031 0.0229978 0.
0.634035 0.0229962 0.
0.63604 0.0229939 0.
0.638044 0.0229915 0.
0.640052 0.0229873 0.
0.642063 0.0229816 0.
0.644073 0.022976 0.
0.646089 0.0229637 0.
0.648108 0.02295 0.
0.650127 0.0229351 0.
0.652177 0.022899 0.
0.654227 0.0228631 0.
0.656292 0.0228174 0.
0.658391 0.0227488 0.
0.660489 0.0226806 0.
0.662638 0.0225965 0.
0.664814 0.0225051 0.
0.666997 0.0224082 0.
0.669349 0.0221136 0.
0.671704 0.0218203 0.
0.674145 0.0215112 0.
0.676666 0.0211437 0.
0.679247 0.0207197 0.
0.682029 0.020131 0.
0.684874 0.0194807 0.
0.68784 0.0186063 0.
0.690888 0.0176516 0.
0.694071 0.0166336 0.
0.697408 0.0155505 0.
0.700901 0.0143691 0.
0.704521 0.0129251 0.
0.708229 0.0112535 0.
0.71217 0.00933259 0.
0.71637 0.00757442 0.
0.481283 0.00814871 0.
0.485323 0.00989574 0.
0.489159 0.0118608 0.
0.492831 0.013684 0.
0.496444 0.0152646 0.
0.499937 0.0166581 0.
0.503283 0.0179199 0.
0.506516 0.0189674 0.
0.509638 0.0199388 0.
0.512591 0.0207966 0.
0.515471 0.0215472 0.
0.518222 0.0221202 0.
0.520939 0.022681 0.
0.52349 0.0231145 0.
0.525998 0.0235333 0.
0.528413 0.0238742 0.
0.530745 0.0241658 0.
0.533077 0.0244585 0.
0.53524 0.0245349 0.
0.5374 0.0246062 0.
0.539534 0.024677 0.
0.541627 0.0247494 0.
0.54372 0.0248224 0.
0.545781 0.0248682 0.
0.547828 0.0249018 0.
0.549875 0.0249356 0.
0.551894 0.0249497 0.
0.553911 0.0249629 0.
0.555927 0.0249746 0.
0.557937 0.0249804 0.
0.559947 0.0249862 0.
0.561955 0.0249904 0.
0.56396 0.0249927 0.
0.565965 0.0249949 0.
0.567969 0.0249965 0.
0.569972 0.0249979 0.
0.571976 0.0249993 0.
0.573977 0.0250003 0.
0.575979 0.0250014 0.
0.57798 0.0250024 0.
0.579982 0.025003 0.
0.581984 0.0250037 0.
0.583987 0.0250045 0.
0.585989 0.0250053 0.
0.587991 0.0250061 0.
0.589993 0.0250067 0.
0.591994 0.025007 0.
0.593996 0.0250074 0.
0.595997 0.025008 0.
0.597999 0.0250087 0.
0.6 0.0250094 0.
0.602002 0.0250092 0.
0.604003 0.0250089 0.
0.606005 0.0250085 0.
0.608006 0.0250075 0.
0.610008 0.0250066 0.
0.61201 0.0250058 0.
0.614012 0.0250052 0.
0.616014 0.0250046 0.
0.618016 0.025004 0.
0.620019 0.0250032 0.
0.622021 0.0250025 0.
0.624023 0.0250013 0.
0.626024 0.025 0.
0.628026 0.0249987 0.
0.63003 0.0249971 0.
0.632034 0.0249955 0.
0.634039 0.0249934 0.
0.636045 0.0249904 0.
0.638051 0.0249874 0.
0.640061 0.0249818 0.
0.642074 0.0249743 0.
0.644087 0.0249669 0.
0.646108 0.0249507 0.
0.648132 0.0249326 0.
0.650157 0.0249128 0.
0.652221 0.0248656 0.
0.654284 0.0248186 0.
0.656365 0.0247605 0.
0.658482 0.0246777 0.
0.660599 0.0245954 0.
0.662784 0.0244835 0.
0.665 0.0243619 0.
0.66723 0.0242256 0.
0.669621 0.02386 0.
0.67201 0.0234996 0.
0.674529 0.0231104 0.
0.677114 0.0226779 0.
0.679776 0.0221419 0.
0.682586 0.0214653 0.
0.685472 0.0207079 0.
0.688459 0.0197866 0.
0.691558 0.0187627 0.
0.694756 0.0176771 0.
0.698093 0.0165242 0.
0.701546 0.0152947 0.
0.70512 0.0138114 0.
0.708772 0.0121245 0.
0.712593 0.0102756 0.
0.716631 0.00863559 0.
0.481255 0.00944082 0.
0.485066 0.0109833 0.
0.488751 0.012821 0.
0.492363 0.0146168 0.
0.495901 0.0162093 0.
0.499345 0.0176422 0.
0.502669 0.0189473 0.
0.505888 0.0200619 0.
0.509013 0.0210914 0.
0.511997 0.0220378 0.
0.514907 0.0228684 0.
0.517717 0.0235366 0.
0.520482 0.0241622 0.
0.523097 0.024674 0.
0.525628 0.0251478 0.
0.528088 0.0255606 0.
0.530444 0.025895 0.
0.532804 0.0262319 0.
0.535018 0.0263545 0.
0.537219 0.0264627 0.
0.539394 0.0265656 0.
0.541506 0.0266515 0.
0.543619 0.026738 0.
0.5457 0.0267992 0.
0.547765 0.0268482 0.
0.54983 0.0268977 0.
0.551858 0.0269196 0.
0.553882 0.0269397 0.
0.555905 0.0269577 0.
0.55792 0.0269664 0.
0.559934 0.0269751 0.
0.561945 0.0269818 0.
0.563952 0.026986 0.
0.565959 0.0269901 0.
0.567964 0.0269929 0.
0.569968 0.0269951 0.
0.571973 0.0269973 0.
0.573975 0.0269986 0.
0.575976 0.0269999 0.
0.577978 0.0270011 0.
0.57998 0.0270018 0.
0.581983 0.0270026 0.
0.583985 0.0270034 0.
0.585988 0.0270043 0.
0.58799 0.0270053 0.
0.589992 0.027006 0.
0.591994 0.0270065 0.
0.593995 0.027007 0.
0.595997 0.0270078 0.
0.597998 0.0270085 0.
0.6 0.0270093 0.
0.602002 0.0270088 0.
0.604003 0.0270084 0.
0.606005 0.0270078 0.
0.608007 0.0270069 0.
0.610009 0.027006 0.
0.612011 0.0270052 0.
0.614013 0.0270044 0.
0.616016 0.0270037 0.
0.618018 0.0270029 0.
0.62002 0.027002 0.
0.622023 0.0270012 0.
0.624025 0.0269997 0.
0.626027 0.026998 0.
0.628029 0.0269963 0.
0.630034 0.0269935 0.
0.632039 0.0269908 0.
0.634045 0.026987 0.
0.636054 0.0269814 0.
0.638064 0.0269759 0.
0.640078 0.0269671 0.
0.642097 0.0269559 0.
0.644116 0.0269449 0.
0.646147 0.0269208 0.
0.648181 0.0268941 0.
0.650218 0.0268643 0.
0.652303 0.0267974 0.
0.654386 0.0267313 0.
0.656491 0.0266549 0.
0.658634 0.0265567 0.
0.660776 0.0264597 0.
0.663002 0.0263048 0.
0.665257 0.0261383 0.
0.667539 0.0259441 0.
0.669954 0.0255342 0.
0.67236 0.0251338 0.
0.674948 0.0246794 0.
0.677584 0.0241903 0.
0.680311 0.0235384 0.
0.68314 0.0227817 0.
0.686056 0.0219176 0.
0.689046 0.0209404 0.
0.692166 0.0198661 0.
0.695371 0.018729 0.
0.698678 0.0175285 0.
0.70209 0.0162599 0.
0.705609 0.0147663 0.
0.709171 0.0130927 0.
0.712853 0.0113478 0.
0.716677 0.00984777 0.
0.481362 0.0108361 0.
0.484916 0.0121879 0.
0.488443 0.0138766 0.
0.491975 0.0156153 0.
0.495439 0.0171999 0.
0.498821 0.018654 0.
0.502105 0.0199871 0.
0.505306 0.0211629 0.
0.508416 0.022243 0.
0.511422 0.0232641 0.
0.514345 0.0241518 0.
0.517192 0.0248972 0.
0.519973 0.0255712 0.
0.522634 0.0261628 0.
0.525193 0.0266998 0.
0.527712 0.0272004 0.
0.530101 0.0275821 0.
0.532496 0.0279684 0.
0.53477 0.0281505 0.
0.537022 0.0283051 0.
0.539244 0.0284494 0.
0.541378 0.0285496 0.
0.543514 0.0286505 0.
0.545616 0.0287279 0.
0.5477 0.0287931 0.
0.549784 0.028859 0.
0.551821 0.028889 0.
0.553853 0.0289162 0.
0.555883 0.0289407 0.
0.557902 0.0289523 0.
0.559921 0.0289639 0.
0.561935 0.0289732 0.
0.563945 0.0289792 0.
0.565954 0.0289852 0.
0.56796 0.0289893 0.
0.569965 0.0289923 0.
0.57197 0.0289953 0.
0.573972 0.028997 0.
0.575974 0.0289984 0.
0.577976 0.0289998 0.
0.579979 0.0290006 0.
0.581981 0.0290014 0.
0.583984 0.0290023 0.
0.585986 0.0290034 0.
0.587989 0.0290044 0.
0.589991 0.0290053 0.
0.591993 0.029006 0.
0.593995 0.0290067 0.
0.595997 0.0290075 0.
0.597998 0.0290083 0.
0.6 0.0290092 0.
0.602002 0.0290085 0.
0.604004 0.0290078 0.
0.606005 0.0290071 0.
0.608008 0.0290062 0.
0.61001 0.0290054 0.
0.612012 0.0290045 0.
0.614015 0.0290036 0.
0.616017 0.0290027 0.
0.61802 0.0290018 0.
0.620022 0.0290009 0.
0.622025 0.029 0.
0.624027 0.028998 0.
0.62603 0.028996 0.
0.628032 0.0289938 0.
0.630038 0.0289899 0.
0.632044 0.028986 0.
0.634052 0.0289806 0.
0.636064 0.0289725 0.
0.638076 0.0289643 0.
0.640096 0.0289522 0.
0.64212 0.0289374 0.
0.644145 0.0289226 0.
0.646186 0.0288905 0.
0.648231 0.0288549 0.
0.650281 0.0288144 0.
0.652387 0.0287268 0.
0.654492 0.0286402 0.
0.656624 0.0285441 0.
0.658798 0.0284285 0.
0.660968 0.0283142 0.
0.663244 0.0281056 0.
0.665543 0.0278862 0.
0.667886 0.0276211 0.
0.670343 0.0271548 0.
0.672803 0.0266948 0.
0.67543 0.0261598 0.
0.678086 0.0256167 0.
0.680851 0.024884 0.
0.683695 0.0240622 0.
0.686627 0.0231143 0.
0.689613 0.0220926 0.
0.692719 0.0209701 0.
0.695914 0.0197986 0.
0.699196 0.0185707 0.
0.702545 0.0172733 0.
0.705978 0.0157904 0.
0.709463 0.014156 0.
0.712996 0.0125289 0.
0.716594 0.0112209 0.
0.4815 0.0123149 0.
0.484821 0.0134853 0.
0.488215 0.0150151 0.
0.491649 0.0166687 0.
0.495028 0.0182349 0.
0.498354 0.0196939 0.
0.501599 0.0210494 0.
0.504766 0.0222754 0.
0.507855 0.0233907 0.
0.51087 0.0244659 0.
0.513802 0.0253919 0.
0.516669 0.0262148 0.
0.519458 0.0269526 0.
0.522167 0.0276347 0.
0.524759 0.0282375 0.
0.527332 0.0288269 0.
0.529762 0.0292596 0.
0.532194 0.029691 0.
0.534527 0.0299304 0.
0.536823 0.0301306 0.
0.539091 0.0303216 0.
0.541247 0.0304347 0.
0.543404 0.0305488 0.
0.545527 0.0306428 0.
0.547627 0.0307263 0.
0.549729 0.0308111 0.
0.551776 0.030851 0.
0.553817 0.0308865 0.
0.555856 0.0309187 0.
0.55788 0.030934 0.
0.559904 0.0309493 0.
0.561923 0.0309617 0.
0.563935 0.0309701 0.
0.565947 0.0309785 0.
0.567955 0.0309842 0.
0.56996 0.0309884 0.
0.571966 0.0309926 0.
0.573969 0.0309947 0.
0.575972 0.0309964 0.
0.577974 0.030998 0.
0.579977 0.030999 0.
0.58198 0.031 0.
0.583983 0.031001 0.
0.585985 0.0310021 0.
0.587988 0.0310033 0.
0.58999 0.0310043 0.
0.591992 0.0310051 0.
0.593994 0.0310059 0.
0.595996 0.0310068 0.
0.597998 0.0310076 0.
0.6 0.0310085 0.
0.602002 0.0310077 0.
0.604004 0.0310069 0.
0.606006 0.0310061 0.
0.608008 0.0310052 0.
0.610011 0.0310043 0.
0.612013 0.0310034 0.
0.614016 0.0310024 0.
0.616018 0.0310014 0.
0.618021 0.0310003 0.
0.620024 0.0309992 0.
0.622027 0.0309981 0.
0.62403 0.0309957 0.
0.626033 0.0309931 0.
0.628037 0.0309902 0.
0.630044 0.0309848 0.
0.632051 0.0309793 0.
0.634061 0.0309718 0.
0.636077 0.0309603 0.
0.638093 0.0309489 0.
0.640118 0.0309329 0.
0.642149 0.0309137 0.
0.64418 0.0308946 0.
0.646233 0.0308523 0.
0.648289 0.030806 0.
0.650353 0.0307526 0.
0.652478 0.0306433 0.
0.654602 0.0305356 0.
0.656761 0.0304188 0.
0.658962 0.0302859 0.
0.66116 0.0301559 0.
0.663483 0.0298925 0.
0.665823 0.0296208 0.
0.668229 0.0292846 0.
0.670731 0.0287645 0.
0.67325 0.0282384 0.
0.675912 0.0276165 0.
0.6786 0.0269825 0.
0.681385 0.0261739 0.
0.68423 0.0253037 0.
0.687171 0.0243042 0.
0.690165 0.0232413 0.
0.693238 0.0220795 0.
0.696391 0.0208807 0.
0.699643 0.0196418 0.
0.702948 0.0183269 0.
0.706296 0.0168628 0.
0.709676 0.015302 0.
0.713081 0.0137992 0.
0.716461 0.0126658 0.
0.481628 0.0138578 0.
0.484766 0.0148604 0.
0.488039 0.0162308 0.
0.491374 0.0177888 0.
0.49468 0.0193277 0.
0.49796 0.0207804 0.
0.501154 0.0221481 0.
0.504279 0.023414 0.
0.507361 0.0245569 0.
0.510381 0.0256591 0.
0.513309 0.0266332 0.
0.516189 0.027526 0.
0.518995 0.0283245 0.
0.521746 0.0290867 0.
0.524379 0.0297506 0.
0.526984 0.0303895 0.
0.529453 0.030862 0.
0.531918 0.0313262 0.
0.53429 0.0316339 0.
0.536617 0.0319032 0.
0.538925 0.0321647 0.
0.541103 0.0322931 0.
0.543283 0.0324227 0.
0.545427 0.0325367 0.
0.547544 0.0326435 0.
0.549661 0.0327517 0.
0.551721 0.0328043 0.
0.553774 0.0328498 0.
0.555824 0.0328913 0.
0.557853 0.0329111 0.
0.559883 0.0329309 0.
0.561906 0.0329472 0.
0.563922 0.0329584 0.
0.565937 0.0329697 0.
0.567948 0.0329775 0.
0.569955 0.0329833 0.
0.571962 0.0329892 0.
0.573966 0.0329917 0.
0.575969 0.0329938 0.
0.577972 0.0329958 0.
0.579975 0.0329971 0.
0.581978 0.0329983 0.
0.583981 0.0329995 0.
0.585984 0.0330007 0.
0.587987 0.0330019 0.
0.589989 0.0330029 0.
0.591991 0.0330038 0.
0.593993 0.0330047 0.
0.595996 0.0330055 0.
0.597998 0.0330063 0.
0.6 0.0330072 0.
0.602002 0.0330064 0.
0.604004 0.0330055 0.
0.606007 0.0330047 0.
0.608009 0.0330038 0.
0.610011 0.0330028 0.
0.612014 0.0330019 0.
0.614016 0.0330009 0.
0.616019 0.0329999 0.
0.618022 0.0329986 0.
0.620026 0.0329971 0.
0.622029 0.0329956 0.
0.624033 0.0329926 0.
0.626037 0.0329894 0.
0.628042 0.0329856 0.
0.630051 0.0329781 0.
0.63206 0.0329706 0.
0.634073 0.0329603 0.
0.636093 0.0329449 0.
0.638114 0.0329295 0.
0.640145 0.0329088 0.
0.642183 0.0328843 0.
0.644221 0.0328599 0.
0.646288 0.0328049 0.
0.648358 0.0327449 0.
0.650438 0.0326749 0.
0.652579 0.0325409 0.
0.65472 0.0324088 0.
0.656904 0.0322634 0.
0.659131 0.0321018 0.
0.661359 0.0319398 0.
0.663726 0.031609 0.
0.666101 0.0312778 0.
0.66855 0.0308721 0.
0.671078 0.0303178 0.
0.673644 0.0297434 0.
0.676336 0.0290577 0.
0.679062 0.0283357 0.
0.68187 0.0274654 0.
0.684724 0.0265384 0.
0.687653 0.0255012 0.
0.690644 0.024405 0.
0.693709 0.0232137 0.
0.69683 0.0219946 0.
0.700023 0.0207579 0.
0.703279 0.0194357 0.
0.706564 0.017997 0.
0.70984 0.0165203 0.
0.713125 0.0151591 0.
0.716331 0.014182 0.
0.481796 0.0154553 0.
0.484799 0.0163153 0.
0.487955 0.0175303 0.
0.491191 0.0189911 0.
0.494422 0.0204822 0.
0.49763 0.0219139 0.
0.500774 0.0232876 0.
0.503874 0.0245766 0.
0.506935 0.0257393 0.
0.509936 0.0268617 0.
0.512861 0.0278797 0.
0.515746 0.0288268 0.
0.518567 0.02968 0.
0.521333 0.0304782 0.
0.523987 0.0311915 0.
0.526613 0.0318957 0.
0.52913 0.0324367 0.
0.531631 0.0329498 0.
0.534048 0.0333288 0.
0.536407 0.0336677 0.
0.538756 0.0340052 0.
0.540958 0.0341505 0.
0.543161 0.0342957 0.
0.545327 0.0344294 0.
0.547459 0.0345595 0.
0.549592 0.0346914 0.
0.551666 0.0347573 0.
0.55373 0.0348129 0.
0.555791 0.0348639 0.
0.557826 0.0348881 0.
0.559861 0.0349124 0.
0.56189 0.0349327 0.
0.563909 0.0349468 0.
0.565928 0.0349609 0.
0.56794 0.0349708 0.
0.569949 0.0349782 0.
0.571958 0.0349857 0.
0.573963 0.0349888 0.
0.575967 0.0349913 0.
0.57797 0.0349936 0.
0.579974 0.0349951 0.
0.581977 0.0349966 0.
0.58398 0.034998 0.
0.585983 0.0349992 0.
0.587986 0.0350004 0.
0.589988 0.0350015 0.
0.591991 0.0350025 0.
0.593993 0.0350035 0.
0.595995 0.0350043 0.
0.597997 0.0350051 0.
0.599999 0.0350059 0.
0.602002 0.035005 0.
0.604005 0.0350042 0.
0.606007 0.0350034 0.
0.60801 0.0350024 0.
0.610012 0.0350014 0.
0.612014 0.0350004 0.
0.614017 0.0349993 0.
0.61602 0.0349983 0.
0.618024 0.0349968 0.
0.620028 0.034995 0.
0.622031 0.0349932 0.
0.624036 0.0349895 0.
0.626041 0.0349856 0.
0.628047 0.034981 0.
0.630058 0.0349714 0.
0.632069 0.0349619 0.
0.634085 0.0349488 0.
0.63611 0.0349294 0.
0.638135 0.0349101 0.
0.640173 0.0348845 0.
0.642218 0.0348548 0.
0.644263 0.0348252 0.
0.646343 0.034757 0.
0.648427 0.0346833 0.
0.650523 0.0345961 0.
0.652682 0.0344373 0.
0.654839 0.0342806 0.
0.65705 0.0341054 0.
0.659303 0.0339147 0.
0.661564 0.0337174 0.
0.663977 0.033317 0.
0.66639 0.0329209 0.
0.668886 0.032436 0.
0.671443 0.0318288 0.
0.674047 0.0311849 0.
0.676749 0.0304496 0.
0.679496 0.0296675 0.
0.682314 0.0287575 0.
0.685175 0.0277825 0.
0.688093 0.0267147 0.
0.691068 0.0255875 0.
0.694108 0.0243764 0.
0.697199 0.0231448 0.
0.700348 0.0219136 0.
0.703533 0.0206067 0.
0.70675 0.0192042 0.
0.709932 0.0178159 0.
0.713091 0.0165891 0.
0.716146 0.0157476 0.
0.48203 0.0170842 0.
0.48492 0.0178316 0.
0.487961 0.0189147 0.
0.491095 0.0202735 0.
0.494239 0.0216968 0.
0.497382 0.0231016 0.
0.500483 0.0244748 0.
0.50355 0.0257727 0.
0.506573 0.0269503 0.
0.50955 0.0280893 0.
0.512471 0.0291413 0.
0.515347 0.0301257 0.
0.518159 0.0310119 0.
0.520925 0.0318474 0.
0.523598 0.0326249 0.
0.526241 0.0333917 0.
0.528799 0.0340007 0.
0.531329 0.0345554 0.
0.533783 0.0349985 0.
0.536162 0.0353911 0.
0.538535 0.0357836 0.
0.540765 0.0359572 0.
0.542991 0.0361272 0.
0.545183 0.0362871 0.
0.547334 0.0364369 0.
0.549487 0.0365881 0.
0.55158 0.0366745 0.
0.553663 0.0367493 0.
0.555742 0.0368189 0.
0.557784 0.0368484 0.
0.559826 0.0368779 0.
0.561861 0.0369037 0.
0.563886 0.0369237 0.
0.565911 0.0369437 0.
0.567928 0.0369575 0.
0.56994 0.0369676 0.
0.571951 0.0369777 0.
0.573957 0.0369823 0.
0.575962 0.036986 0.
0.577967 0.0369896 0.
0.579971 0.0369918 0.
0.581975 0.0369939 0.
0.583979 0.0369958 0.
0.585982 0.0369973 0.
0.587985 0.0369989 0.
0.589988 0.0370002 0.
0.59199 0.0370013 0.
0.593993 0.0370025 0.
0.595995 0.0370032 0.
0.597997 0.0370038 0.
0.599999 0.0370044 0.
0.602002 0.0370036 0.
0.604005 0.0370029 0.
0.606007 0.0370021 0.
0.60801 0.037001 0.
0.610012 0.0369999 0.
0.612015 0.0369986 0.
0.614018 0.0369972 0.
0.616022 0.0369957 0.
0.618026 0.0369934 0.
0.620031 0.0369908 0.
0.622035 0.0369882 0.
0.624042 0.0369831 0.
0.626048 0.0369776 0.
0.628056 0.0369712 0.
0.63007 0.0369581 0.
0.632085 0.0369451 0.
0.634106 0.0369268 0.
0.636139 0.0368997 0.
0.638172 0.0368727 0.
0.640216 0.0368411 0.
0.642269 0.0368062 0.
0.644321 0.0367714 0.
0.646424 0.0366783 0.
0.648532 0.0365797 0.
0.650651 0.0364679 0.
0.652828 0.0362913 0.
0.655002 0.0361165 0.
0.657242 0.0359064 0.
0.659519 0.0356815 0.
0.661812 0.0354423 0.
0.664247 0.0349935 0.
0.666691 0.0345473 0.
0.66923 0.0339858 0.
0.671809 0.0333315 0.
0.674444 0.0326202 0.
0.677149 0.0318307 0.
0.679903 0.0309869 0.
0.682723 0.0300496 0.
0.685576 0.0290427 0.
0.688471 0.027955 0.
0.691424 0.0268034 0.
0.694432 0.025583 0.
0.697488 0.024345 0.
0.700584 0.023119 0.
0.703705 0.0218356 0.
0.706841 0.0204879 0.
0.709937 0.0191876 0.
0.712984 0.0180782 0.
0.715909 0.0173437 0.
0.482308 0.0187548 0.
0.485097 0.0194131 0.
0.488029 0.0203829 0.
0.491061 0.0216294 0.
0.494127 0.022976 0.
0.497208 0.0243488 0.
0.500262 0.0257101 0.
0.503287 0.027006 0.
0.506275 0.028194 0.
0.509226 0.0293428 0.
0.512121 0.0304182 0.
0.514973 0.0314271 0.
0.517772 0.0323462 0.
0.520531 0.0332147 0.
0.523214 0.0340407 0.
0.525866 0.0348475 0.
0.52845 0.0355184 0.
0.530991 0.0361173 0.
0.533478 0.0366263 0.
0.535877 0.0370665 0.
0.538274 0.0375109 0.
0.540542 0.0377332 0.
0.542799 0.037941 0.
0.545023 0.0381362 0.
0.547198 0.0383064 0.
0.549375 0.0384784 0.
0.551491 0.0385873 0.
0.553593 0.0386831 0.
0.555691 0.038773 0.
0.55774 0.0388079 0.
0.559789 0.0388428 0.
0.561832 0.0388742 0.
0.563863 0.0389003 0.
0.565895 0.0389264 0.
0.567915 0.0389441 0.
0.56993 0.0389568 0.
0.571944 0.0389696 0.
0.573951 0.0389757 0.
0.575958 0.0389807 0.
0.577964 0.0389856 0.
0.579969 0.0389884 0.
0.581974 0.0389912 0.
0.583978 0.0389937 0.
0.585981 0.0389955 0.
0.587984 0.0389973 0.
0.589987 0.0389988 0.
0.59199 0.0390002 0.
0.593992 0.0390015 0.
0.595995 0.0390021 0.
0.597997 0.0390025 0.
0.599999 0.0390029 0.
0.602002 0.0390022 0.
0.604004 0.0390016 0.
0.606007 0.0390008 0.
0.60801 0.0389996 0.
0.610012 0.0389984 0.
0.612016 0.0389969 0.
0.614019 0.038995 0.
0.616023 0.038993 0.
0.618028 0.0389901 0.
0.620033 0.0389867 0.
0.622039 0.0389832 0.
0.624047 0.0389766 0.
0.626055 0.0389697 0.
0.628065 0.0389614 0.
0.630083 0.0389447 0.
0.632101 0.0389281 0.
0.634128 0.0389046 0.
0.636169 0.0388696 0.
0.638209 0.0388347 0.
0.640261 0.0387968 0.
0.642321 0.0387565 0.
0.64438 0.0387164 0.
0.64651 0.0385954 0.
0.648643 0.038469 0.
0.65079 0.03833 0.
0.65299 0.0381337 0.
0.655187 0.0379395 0.
0.657466 0.0376826 0.
0.659778 0.0374104 0.
0.662111 0.0371073 0.
0.664563 0.036596 0.
0.66702 0.036096 0.
0.66958 0.0354926 0.
0.672172 0.034813 0.
0.674831 0.0340384 0.
0.677537 0.0332046 0.
0.680287 0.0323116 0.
0.68309 0.0313519 0.
0.685933 0.0303217 0.
0.688809 0.0292224 0.
0.691723 0.0280533 0.
0.694687 0.0268289 0.
0.697701 0.0255973 0.
0.700751 0.0243783 0.
0.703809 0.0231218 0.
0.706871 0.0218343 0.
0.709876 0.0206364 0.
0.712822 0.0196295 0.
0.715638 0.0189807 0.
0.482608 0.0204539 0.
0.485303 0.0210363 0.
0.488129 0.0219035 0.
0.491069 0.0230415 0.
0.494063 0.0243119 0.
0.497082 0.0256445 0.
0.500087 0.0269827 0.
0.503069 0.0282702 0.
0.506014 0.0294646 0.
0.508926 0.0306203 0.
0.51179 0.0317091 0.
0.514619 0.0327368 0.
0.517404 0.0336842 0.
0.520152 0.0345794 0.
0.522847 0.0354404 0.
0.525504 0.0362767 0.
0.528103 0.037016 0.
0.530656 0.0376677 0.
0.533176 0.038248 0.
0.535595 0.0387365 0.
0.538015 0.0392317 0.
0.540323 0.0395025 0.
0.542611 0.0397471 0.
0.544867 0.0399796 0.
0.547063 0.0401664 0.
0.549261 0.0403559 0.
0.551398 0.0404879 0.
0.553519 0.0406075 0.
0.555636 0.0407219 0.
0.557692 0.0407619 0.
0.559748 0.0408019 0.
0.561798 0.040839 0.
0.563836 0.0408718 0.
0.565874 0.0409047 0.
0.567899 0.0409271 0.
0.569917 0.0409433 0.
0.571935 0.0409595 0.
0.573944 0.0409674 0.
0.575952 0.0409741 0.
0.57796 0.0409805 0.
0.579966 0.0409841 0.
0.581971 0.0409877 0.
0.583976 0.0409909 0.
0.58598 0.0409931 0.
0.587983 0.0409952 0.
0.589986 0.040997 0.
0.591989 0.0409985 0.
0.593992 0.041 0.
0.595995 0.0410006 0.
0.597997 0.041001 0.
0.599999 0.0410014 0.
0.602002 0.0410007 0.
0.604005 0.041 0.
0.606007 0.0409991 0.
0.60801 0.0409978 0.
0.610013 0.0409964 0.
0.612017 0.0409946 0.
0.614021 0.0409921 0.
0.616025 0.0409895 0.
0.618031 0.0409857 0.
0.620038 0.0409813 0.
0.622044 0.040977 0.
0.624054 0.0409684 0.
0.626065 0.0409594 0.
0.628077 0.0409488 0.
0.6301 0.0409277 0.
0.632122 0.0409067 0.
0.634154 0.0408772 0.
0.636202 0.0408339 0.
0.63825 0.0407908 0.
0.640311 0.0407461 0.
0.642379 0.0406998 0.
0.644447 0.0406538 0.
0.646599 0.0405013 0.
0.648754 0.0403457 0.
0.650926 0.0401808 0.
0.653149 0.0399694 0.
0.655368 0.0397587 0.
0.657688 0.0394513 0.
0.660034 0.0391322 0.
0.662408 0.0387636 0.
0.664876 0.0381904 0.
0.667354 0.037625 0.
0.669928 0.036971 0.
0.672525 0.0362551 0.
0.67519 0.0354408 0.
0.677899 0.0345763 0.
0.680648 0.0336439 0.
0.683434 0.0326643 0.
0.686257 0.0316152 0.
0.689108 0.0305096 0.
0.691997 0.029331 0.
0.694912 0.0281038 0.
0.697874 0.0268822 0.
0.700866 0.0256829 0.
0.703869 0.0244599 0.
0.706864 0.0232317 0.
0.709789 0.02213 0.
0.712641 0.0212285 0.
0.715364 0.0206532 0.
0.482894 0.0221675 0.
0.485508 0.0226833 0.
0.488248 0.0234605 0.
0.491109 0.0245042 0.
0.494035 0.0256994 0.
0.496987 0.0269836 0.
0.499939 0.0282944 0.
0.502873 0.0295717 0.
0.505778 0.0307682 0.
0.50865 0.0319235 0.
0.511487 0.0330223 0.
0.514295 0.0340647 0.
0.517073 0.0350388 0.
0.519819 0.0359568 0.
0.522516 0.036847 0.
0.525174 0.0377124 0.
0.527789 0.0385114 0.
0.530356 0.0392115 0.
0.5329 0.0398486 0.
0.535336 0.040367 0.
0.53777 0.0408908 0.
0.54011 0.0412148 0.
0.542424 0.0415031 0.
0.544713 0.0417794 0.
0.546925 0.0419886 0.
0.549142 0.0422009 0.
0.551299 0.0423638 0.
0.553438 0.0425159 0.
0.555573 0.0426635 0.
0.557637 0.0427085 0.
0.559702 0.0427535 0.
0.561759 0.0427965 0.
0.563803 0.0428372 0.
0.565848 0.0428781 0.
0.567879 0.0429063 0.
0.569901 0.0429267 0.
0.571923 0.0429472 0.
0.573935 0.0429574 0.
0.575945 0.042966 0.
0.577955 0.0429743 0.
0.579961 0.0429788 0.
0.581968 0.0429834 0.
0.583974 0.0429873 0.
0.585978 0.04299 0.
0.587982 0.0429927 0.
0.589985 0.0429948 0.
0.591988 0.0429965 0.
0.593991 0.0429981 0.
0.595994 0.0429989 0.
0.597997 0.0429993 0.
0.599999 0.0429998 0.
0.602002 0.042999 0.
0.604005 0.0429982 0.
0.606008 0.0429972 0.
0.608011 0.0429956 0.
0.610014 0.042994 0.
0.612018 0.0429916 0.
0.614023 0.0429884 0.
0.616028 0.0429851 0.
0.618035 0.0429803 0.
0.620043 0.0429748 0.
0.622051 0.0429693 0.
0.624064 0.0429583 0.
0.626076 0.0429468 0.
0.628091 0.0429332 0.
0.63012 0.0429068 0.
0.632148 0.0428804 0.
0.634186 0.0428438 0.
0.636241 0.0427914 0.
0.638296 0.0427392 0.
0.640368 0.0426865 0.
0.642448 0.0426327 0.
0.644529 0.042578 0.
0.646696 0.0423858 0.
0.648864 0.0421918 0.
0.651059 0.0419922 0.
0.653312 0.041756 0.
0.655558 0.0415238 0.
0.657907 0.0411657 0.
0.660277 0.0408026 0.
0.662679 0.0403766 0.
0.665158 0.0397641 0.
0.667655 0.039148 0.
0.670242 0.0384514 0.
0.672848 0.0376969 0.
0.675514 0.0368435 0.
0.678215 0.035953 0.
0.680961 0.0349942 0.
0.683741 0.0339981 0.
0.68655 0.0329327 0.
0.689376 0.0318202 0.
0.692232 0.0306384 0.
0.695114 0.0294131 0.
0.69803 0.0282036 0.
0.700961 0.0270256 0.
0.7039 0.0258507 0.
0.706827 0.0246852 0.
0.709683 0.0236641 0.
0.712458 0.0228518 0.
0.715104 0.0223458 0.
0.483198 0.023895 0.
0.48575 0.0243579 0.
0.48842 0.0250666 0.
0.491207 0.0260244 0.
0.494054 0.0271394 0.
0.496938 0.0283737 0.
0.499835 0.0296529 0.
0.502719 0.0309124 0.
0.50558 0.0321023 0.
0.508413 0.0332549 0.
0.511221 0.0343608 0.
0.514018 0.0354134 0.
0.516783 0.0364053 0.
0.519513 0.0373432 0.
0.522207 0.0382585 0.
0.524865 0.0391501 0.
0.527491 0.0399948 0.
0.530059 0.0407239 0.
0.532605 0.0413958 0.
0.535063 0.041964 0.
0.537515 0.0425325 0.
0.539888 0.0429168 0.
0.542234 0.043252 0.
0.544556 0.0435777 0.
0.546786 0.0438095 0.
0.54902 0.0440446 0.
0.551199 0.0442379 0.
0.553355 0.0444229 0.
0.55551 0.0446048 0.
0.557582 0.044655 0.
0.559655 0.044705 0.
0.56172 0.0447539 0.
0.563771 0.0448025 0.
0.565822 0.0448514 0.
0.567859 0.0448855 0.
0.569885 0.0449101 0.
0.571911 0.0449348 0.
0.573926 0.0449473 0.
0.575938 0.0449579 0.
0.57795 0.044968 0.
0.579957 0.0449736 0.
0.581965 0.0449791 0.
0.583972 0.0449838 0.
0.585976 0.044987 0.
0.587981 0.0449902 0.
0.589984 0.0449926 0.
0.591988 0.0449944 0.
0.593991 0.0449962 0.
0.595994 0.0449971 0.
0.597996 0.0449977 0.
0.599999 0.0449982 0.
0.602002 0.0449973 0.
0.604005 0.0449963 0.
0.606008 0.0449952 0.
0.608011 0.0449934 0.
0.610015 0.0449915 0.
0.612019 0.0449887 0.
0.614025 0.0449847 0.
0.61603 0.0449807 0.
0.618039 0.044975 0.
0.620048 0.0449683 0.
0.622058 0.0449617 0.
0.624073 0.0449483 0.
0.626088 0.0449342 0.
0.628106 0.0449175 0.
0.63014 0.0448857 0.
0.632173 0.044854 0.
0.634218 0.0448103 0.
0.63628 0.0447487 0.
0.638342 0.0446875 0.
0.640425 0.0446267 0.
0.642518 0.0445653 0.
0.644612 0.0445003 0.
0.646793 0.0442681 0.
0.648974 0.0440357 0.
0.651196 0.0438019 0.
0.653479 0.0435406 0.
0.655756 0.0432808 0.
0.658134 0.0428647 0.
0.660528 0.0424504 0.
0.662957 0.0419624 0.
0.665446 0.041311 0.
0.667955 0.040652 0.
0.670541 0.0399239 0.
0.673149 0.0391383 0.
0.675815 0.0382519 0.
0.678507 0.0373362 0.
0.68124 0.0363576 0.
0.684001 0.0353499 0.
0.686795 0.0342772 0.
0.689602 0.0331602 0.
0.692426 0.031977 0.
0.695265 0.0307624 0.
0.698137 0.0295703 0.
0.701016 0.0284159 0.
0.703886 0.027289 0.
0.706738 0.0261951 0.
0.70952 0.0252499 0.
0.712231 0.0245066 0.
0.714822 0.0240521 0.
0.483522 0.0256425 0.
0.486025 0.0260618 0.
0.488634 0.0267098 0.
0.491347 0.0275867 0.
0.49412 0.0286311 0.
0.49694 0.0298186 0.
0.499777 0.0310596 0.
0.502608 0.0322921 0.
0.505427 0.0334726 0.
0.50823 0.0346219 0.
0.51102 0.0357308 0.
0.51379 0.0367853 0.
0.516531 0.0377907 0.
0.519244 0.038746 0.
0.521933 0.0396791 0.
0.524586 0.040588 0.
0.527201 0.0414612 0.
0.529766 0.0422273 0.
0.532314 0.0429401 0.
0.534791 0.043556 0.
0.537258 0.0441656 0.
0.53966 0.0446088 0.
0.542029 0.0449871 0.
0.544377 0.0453571 0.
0.546619 0.0456051 0.
0.548864 0.0458579 0.
0.55106 0.0460783 0.
0.55323 0.0462905 0.
0.555401 0.0465004 0.
0.557492 0.0465669 0.
0.559583 0.0466318 0.
0.561664 0.046694 0.
0.563723 0.0467509 0.
0.565782 0.046808 0.
0.567826 0.0468496 0.
0.569859 0.0468809 0.
0.571892 0.0469123 0.
0.57391 0.0469292 0.
0.575925 0.0469436 0.
0.57794 0.0469573 0.
0.57995 0.0469644 0.
0.581959 0.0469715 0.
0.583967 0.0469777 0.
0.585973 0.0469819 0.
0.587978 0.0469861 0.
0.589983 0.0469893 0.
0.591986 0.0469916 0.
0.59399 0.0469939 0.
0.595993 0.0469951 0.
0.597996 0.0469959 0.
0.599999 0.0469966 0.
0.602002 0.0469953 0.
0.604005 0.0469941 0.
0.606008 0.0469925 0.
0.608012 0.04699 0.
0.610017 0.0469874 0.
0.612022 0.0469837 0.
0.614029 0.0469784 0.
0.616036 0.0469731 0.
0.618046 0.0469656 0.
0.620058 0.046957 0.
0.62207 0.0469485 0.
0.624089 0.0469306 0.
0.626108 0.046912 0.
0.628131 0.04689 0.
0.630173 0.0468499 0.
0.632215 0.0468099 0.
0.634269 0.0467574 0.
0.636339 0.0466868 0.
0.638409 0.0466166 0.
0.640512 0.0465383 0.
0.642628 0.0464574 0.
0.644745 0.0463695 0.
0.646937 0.046112 0.
0.649127 0.0458525 0.
0.651366 0.0455864 0.
0.653666 0.0453022 0.
0.655967 0.0450189 0.
0.658368 0.0445545 0.
0.66078 0.0440904 0.
0.663233 0.0435428 0.
0.66573 0.0428551 0.
0.668249 0.0421551 0.
0.670829 0.0413946 0.
0.673429 0.0405783 0.
0.67608 0.0396698 0.
0.678763 0.0387358 0.
0.681482 0.0377417 0.
0.68422 0.0367252 0.
0.686985 0.0356505 0.
0.68977 0.0345343 0.
0.692566 0.0333552 0.
0.69537 0.0321518 0.
0.69819 0.030984 0.
0.701016 0.0298584 0.
0.703825 0.028777 0.
0.706608 0.0277473 0.
0.709314 0.0268754 0.
0.711961 0.0261934 0.
0.714506 0.0257764 0.
0.483852 0.0274005 0.
0.486315 0.0277827 0.
0.488871 0.0283811 0.
0.491516 0.0291891 0.
0.494224 0.0301771 0.
0.496982 0.0313153 0.
0.499762 0.0325109 0.
0.502548 0.0337157 0.
0.505332 0.0348836 0.
0.508105 0.0360242 0.
0.510863 0.0371288 0.
0.513601 0.0381852 0.
0.516318 0.0391999 0.
0.519016 0.0401654 0.
0.521686 0.0411081 0.
0.524322 0.0420305 0.
0.526928 0.04293 0.
0.529491 0.0437308 0.
0.532039 0.0444739 0.
0.534528 0.045127 0.
0.537001 0.0457626 0.
0.539418 0.0462555 0.
0.541796 0.0466772 0.
0.544161 0.0470999 0.
0.546422 0.0473751 0.
0.548684 0.0476533 0.
0.550903 0.0479047 0.
0.553091 0.0481456 0.
0.55528 0.0483851 0.
0.557395 0.0484724 0.
0.559507 0.0485548 0.
0.561607 0.0486325 0.
0.563674 0.0486979 0.
0.565741 0.0487635 0.
0.567792 0.0488129 0.
0.569832 0.0488512 0.
0.571872 0.0488896 0.
0.573894 0.0489108 0.
0.575913 0.0489291 0.
0.577931 0.0489466 0.
0.579942 0.0489553 0.
0.581953 0.048964 0.
0.583963 0.0489716 0.
0.58597 0.0489768 0.
0.587976 0.0489821 0.
0.589981 0.048986 0.
0.591985 0.0489888 0.
0.593989 0.0489917 0.
0.595993 0.0489931 0.
0.597996 0.0489941 0.
0.599999 0.0489951 0.
0.602002 0.0489934 0.
0.604005 0.0489918 0.
0.606009 0.0489898 0.
0.608014 0.0489866 0.
0.610018 0.0489833 0.
0.612025 0.0489786 0.
0.614033 0.048972 0.
0.616042 0.0489654 0.
0.618054 0.0489561 0.
0.620068 0.0489456 0.
0.622082 0.0489351 0.
0.624105 0.0489128 0.
0.626128 0.0488895 0.
0.628156 0.0488621 0.
0.630207 0.0488132 0.
0.632258 0.0487646 0.
0.634321 0.0487029 0.
0.6364 0.048623 0.
0.638478 0.0485435 0.
0.640606 0.0484442 0.
0.642748 0.0483396 0.
0.644894 0.0482239 0.
0.647103 0.047941 0.
0.64931 0.0476568 0.
0.651572 0.0473478 0.
0.653883 0.0470187 0.
0.656199 0.0466859 0.
0.65861 0.0461934 0.
0.661031 0.045701 0.
0.663499 0.0451061 0.
0.666003 0.0443921 0.
0.668527 0.0436578 0.
0.671099 0.0428715 0.
0.67369 0.0420272 0.
0.676325 0.0411009 0.
0.678988 0.0401523 0.
0.681684 0.0391499 0.
0.684402 0.0381273 0.
0.687139 0.0370529 0.
0.689891 0.0359415 0.
0.692655 0.0347734 0.
0.695424 0.0335848 0.
0.698199 0.0324391 0.
0.700971 0.0313472 0.
0.703722 0.0303129 0.
0.706447 0.0293382 0.
0.709089 0.0285262 0.
0.711674 0.0279003 0.
0.714174 0.0275142 0.
0.484174 0.0291668 0.
0.486604 0.0295191 0.
0.489117 0.0300775 0.
0.491704 0.0308284 0.
0.49435 0.0317622 0.
0.49705 0.0328483 0.
0.499779 0.0340011 0.
0.502525 0.0351749 0.
0.505272 0.0363241 0.
0.508009 0.0374529 0.
0.510736 0.0385536 0.
0.513448 0.0396114 0.
0.516143 0.0406305 0.
0.518812 0.0416002 0.
0.52146 0.0425491 0.
0.524081 0.0434845 0.
0.526677 0.0444017 0.
0.529233 0.0452275 0.
0.531777 0.0459962 0.
0.534271 0.0466839 0.
0.536747 0.0473485 0.
0.539178 0.047894 0.
0.541566 0.0483628 0.
0.543946 0.0488374 0.
0.546227 0.0491422 0.
0.548507 0.0494449 0.
0.550749 0.0497269 0.
0.552955 0.0499943 0.
0.555162 0.0502589 0.
0.557297 0.0503681 0.
0.559429 0.0504699 0.
0.561546 0.0505655 0.
0.56362 0.0506389 0.
0.565695 0.0507127 0.
0.567754 0.0507702 0.
0.569801 0.0508163 0.
0.571848 0.0508627 0.
0.573875 0.0508891 0.
0.575897 0.0509119 0.
0.577919 0.0509337 0.
0.579932 0.0509442 0.
0.581945 0.0509546 0.
0.583957 0.0509638 0.
0.585965 0.0509704 0.
0.587973 0.0509769 0.
0.589979 0.0509818 0.
0.591984 0.0509853 0.
0.593988 0.0509888 0.
0.595992 0.0509905 0.
0.597995 0.0509916 0.
0.599999 0.0509928 0.
0.602003 0.0509908 0.
0.604006 0.0509889 0.
0.60601 0.0509864 0.
0.608016 0.0509823 0.
0.610021 0.0509782 0.
0.612029 0.0509721 0.
0.614039 0.0509639 0.
0.616049 0.0509556 0.
0.618064 0.0509444 0.
0.62008 0.0509319 0.
0.622097 0.0509194 0.
0.624124 0.0508917 0.
0.626152 0.0508628 0.
0.628185 0.0508289 0.
0.630246 0.0507701 0.
0.632306 0.0507118 0.
0.634378 0.0506408 0.
0.636465 0.0505529 0.
0.638552 0.0504653 0.
0.6407 0.050342 0.
0.642866 0.050212 0.
0.645037 0.0500697 0.
0.647265 0.0497664 0.
0.64949 0.0494589 0.
0.651773 0.0491032 0.
0.654096 0.0487296 0.
0.656429 0.0483507 0.
0.658851 0.047825 0.
0.661279 0.0473005 0.
0.663756 0.0466576 0.
0.666261 0.0459191 0.
0.66879 0.0451595 0.
0.671354 0.044351 0.
0.673935 0.0434839 0.
0.676552 0.0425446 0.
0.679193 0.0415857 0.
0.681862 0.0405788 0.
0.684552 0.0395523 0.
0.687263 0.0384807 0.
0.689986 0.0373744 0.
0.692714 0.0362218 0.
0.695447 0.0350543 0.
0.698179 0.0339314 0.
0.700901 0.0328702 0.
0.703596 0.0318832 0.
0.706263 0.0309641 0.
0.708854 0.0302044 0.
0.71139 0.0296251 0.
0.713849 0.0292632 0.
0.484485 0.0309437 0.
0.486888 0.0312685 0.
0.48936 0.0317903 0.
0.491893 0.0324922 0.
0.494484 0.0333796 0.
0.497133 0.0344174 0.
0.499821 0.0355271 0.
0.502526 0.0366665 0.
0.505233 0.0377966 0.
0.507938 0.0389138 0.
0.510636 0.0400077 0.
0.51332 0.0410634 0.
0.515987 0.0420827 0.
0.518632 0.0430556 0.
0.521261 0.0440094 0.
0.523863 0.0449543 0.
0.526445 0.0458826 0.
0.528997 0.0467327 0.
0.531535 0.0475258 0.
0.534034 0.048245 0.
0.536515 0.0489357 0.
0.538959 0.049529 0.
0.541356 0.0500343 0.
0.543745 0.0505417 0.
0.546047 0.0508741 0.
0.548344 0.0511992 0.
0.550604 0.0515109 0.
0.552826 0.051804 0.
0.55505 0.0520972 0.
0.557201 0.0522373 0.
0.559344 0.0523676 0.
0.561474 0.0524885 0.
0.563557 0.0525704 0.
0.565642 0.0526527 0.
0.567709 0.0527196 0.
0.569765 0.0527751 0.
0.57182 0.0528309 0.
0.573851 0.0528635 0.
0.575878 0.0528916 0.
0.577904 0.0529185 0.
0.57992 0.0529309 0.
0.581935 0.0529433 0.
0.583949 0.0529544 0.
0.585959 0.0529625 0.
0.587969 0.0529706 0.
0.589976 0.0529767 0.
0.591981 0.0529811 0.
0.593987 0.0529855 0.
0.595991 0.0529874 0.
0.597995 0.0529886 0.
0.599999 0.0529898 0.
0.602003 0.0529876 0.
0.604007 0.0529854 0.
0.606012 0.0529825 0.
0.608019 0.0529772 0.
0.610025 0.0529719 0.
0.612034 0.0529643 0.
0.614047 0.0529539 0.
0.616059 0.0529435 0.
0.618076 0.0529302 0.
0.620096 0.0529155 0.
0.622116 0.0529008 0.
0.624148 0.0528667 0.
0.626181 0.0528311 0.
0.62822 0.0527892 0.
0.630291 0.0527181 0.
0.632361 0.0526476 0.
0.634444 0.0525666 0.
0.636541 0.0524715 0.
0.638638 0.0523768 0.
0.6408 0.052218 0.
0.642976 0.0520492 0.
0.645162 0.05187 0.
0.647413 0.051548 0.
0.649657 0.0512251 0.
0.651958 0.0508307 0.
0.654292 0.0504199 0.
0.65664 0.0500024 0.
0.659069 0.0494535 0.
0.661506 0.0488985 0.
0.663991 0.0482138 0.
0.666497 0.047451 0.
0.669027 0.0466679 0.
0.671584 0.0458432 0.
0.674157 0.0449575 0.
0.676759 0.0440066 0.
0.679378 0.0430387 0.
0.682022 0.0420298 0.
0.684684 0.0410046 0.
0.687365 0.0399388 0.
0.690057 0.0388384 0.
0.692753 0.0377002 0.
0.695449 0.0365562 0.
0.698139 0.0354607 0.
0.700817 0.0344283 0.
0.703463 0.0334828 0.
0.706077 0.0326153 0.
0.70862 0.0319036 0.
0.711111 0.0313666 0.
0.713538 0.0310249 0.
0.484806 0.0327226 0.
0.487185 0.033026 0.
0.489621 0.0335208 0.
0.492108 0.0341851 0.
0.494654 0.0350364 0.
0.49726 0.0360278 0.
0.499901 0.037091 0.
0.502564 0.0381968 0.
0.505235 0.0393074 0.
0.507907 0.0404098 0.
0.51057 0.041492 0.
0.513221 0.0425418 0.
0.515861 0.0435587 0.
0.518482 0.0445339 0.
0.521086 0.0454925 0.
0.523671 0.0464406 0.
0.526239 0.0473756 0.
0.528781 0.048246 0.
0.531312 0.0490594 0.
0.533811 0.049807 0.
0.536291 0.0505175 0.
0.538742 0.0511433 0.
0.541143 0.0516797 0.
0.543538 0.0522221 0.
0.545861 0.0525909 0.
0.548175 0.0529445 0.
0.550455 0.0532909 0.
0.552694 0.0536122 0.
0.554937 0.0539342 0.
0.557104 0.0541048 0.
0.559259 0.0542638 0.
0.561402 0.0544113 0.
0.563495 0.0545017 0.
0.565588 0.0545925 0.
0.567665 0.0546687 0.
0.569728 0.0547336 0.
0.571792 0.054799 0.
0.573828 0.0548378 0.
0.575859 0.0548712 0.
0.577888 0.0549033 0.
0.579907 0.0549176 0.
0.581926 0.054932 0.
0.583942 0.0549449 0.
0.585953 0.0549546 0.
0.587964 0.0549643 0.
0.589973 0.0549716 0.
0.591979 0.0549769 0.
0.593985 0.0549821 0.
0.59599 0.0549843 0.
0.597994 0.0549855 0.
0.599999 0.0549868 0.
0.602004 0.0549843 0.
0.604009 0.0549819 0.
0.606014 0.0549785 0.
0.608022 0.054972 0.
0.610029 0.0549656 0.
0.61204 0.0549564 0.
0.614054 0.0549439 0.
0.616069 0.0549315 0.
0.618089 0.054916 0.
0.620112 0.0548991 0.
0.622134 0.0548823 0.
0.624171 0.0548416 0.
0.626209 0.0547992 0.
0.628256 0.0547492 0.
0.630337 0.0546659 0.
0.632417 0.0545832 0.
0.63451 0.0544923 0.
0.636618 0.05439 0.
0.638725 0.054288 0.
0.640899 0.0540917 0.
0.643086 0.053884 0.
0.645289 0.0536692 0.
0.647562 0.0533264 0.
0.649828 0.052983 0.
0.652151 0.0525444 0.
0.654499 0.0520972 0.
0.656864 0.0516403 0.
0.659291 0.0510632 0.
0.661727 0.0504808 0.
0.66421 0.0497731 0.
0.666714 0.0489895 0.
0.669241 0.0481852 0.
0.671789 0.0473459 0.
0.674349 0.0464471 0.
0.676934 0.0454908 0.
0.679536 0.0445156 0.
0.682154 0.0435053 0.
0.684787 0.0424822 0.
0.687435 0.0414274 0.
0.690092 0.0403398 0.
0.692752 0.0392181 0.
0.695411 0.0380957 0.
0.69806 0.0370274 0.
0.700693 0.036027 0.
0.703293 0.0351187 0.
0.705863 0.0342941 0.
0.708365 0.0336218 0.
0.710819 0.0331217 0.
0.71322 0.0327967 0.
0.485137 0.0345019 0.
0.487495 0.0347911 0.
0.489902 0.0352681 0.
0.492354 0.0359052 0.
0.494863 0.0367247 0.
0.497424 0.0376714 0.
0.500023 0.0386925 0.
0.502646 0.039767 0.
0.505278 0.0408553 0.
0.507912 0.0419388 0.
0.510539 0.0430067 0.
0.513159 0.04405 0.
0.515768 0.0450651 0.
0.518363 0.0460415 0.
0.520944 0.0469988 0.
0.52351 0.0479473 0.
0.526059 0.0488865 0.
0.52859 0.0497729 0.
0.531112 0.0505992 0.
0.533605 0.051367 0.
0.536077 0.0520963 0.
0.538528 0.052754 0.
0.540933 0.0533254 0.
0.543332 0.0539012 0.
0.545673 0.054305 0.
0.548 0.0546857 0.
0.550292 0.0550636 0.
0.55254 0.0554047 0.
0.554789 0.0557465 0.
0.556971 0.0559477 0.
0.559139 0.0561358 0.
0.561297 0.0563124 0.
0.563401 0.05641 0.
0.565506 0.0565081 0.
0.567596 0.0565945 0.
0.56967 0.0566718 0.
0.571746 0.0567498 0.
0.573791 0.056798 0.
0.575828 0.0568396 0.
0.577865 0.0568797 0.
0.579886 0.0568964 0.
0.581908 0.0569132 0.
0.583928 0.0569286 0.
0.585942 0.0569411 0.
0.587956 0.0569536 0.
0.589967 0.0569629 0.
0.591975 0.0569696 0.
0.593982 0.0569762 0.
0.595988 0.056979 0.
0.597994 0.0569807 0.
0.599999 0.0569824 0.
0.602005 0.056979 0.
0.604011 0.0569756 0.
0.606018 0.0569711 0.
0.608028 0.0569628 0.
0.610037 0.0569545 0.
0.612051 0.0569428 0.
0.614069 0.056927 0.
0.616086 0.0569112 0.
0.61811 0.0568931 0.
0.620136 0.0568738 0.
0.622162 0.0568546 0.
0.62421 0.0568028 0.
0.626258 0.0567493 0.
0.628315 0.0566872 0.
0.630407 0.0565901 0.
0.632497 0.056494 0.
0.634605 0.056393 0.
0.636729 0.0562839 0.
0.638851 0.0561754 0.
0.641036 0.0559428 0.
0.643229 0.0557001 0.
0.645445 0.0554519 0.
0.647727 0.055094 0.
0.650008 0.0547377 0.
0.652346 0.0542548 0.
0.654707 0.0537722 0.
0.657084 0.0532781 0.
0.659508 0.0526715 0.
0.661942 0.0520536 0.
0.664416 0.0513257 0.
0.666907 0.0505321 0.
0.669426 0.0497155 0.
0.671966 0.0488648 0.
0.67451 0.0479557 0.
0.677072 0.0469981 0.
0.679651 0.0460232 0.
0.682246 0.045014 0.
0.684854 0.0439922 0.
0.687468 0.0429467 0.
0.69009 0.0418737 0.
0.692712 0.0407752 0.
0.69533 0.0396766 0.
0.697937 0.0386322 0.
0.700527 0.0376606 0.
0.703084 0.0367875 0.
0.705614 0.0360007 0.
0.708086 0.0353573 0.
0.710511 0.0348858 0.
0.712891 0.0345761 0.
0.485477 0.0362912 0.
0.487816 0.0365692 0.
0.490198 0.0370301 0.
0.492621 0.0376464 0.
0.495098 0.038439 0.
0.497621 0.0393452 0.
0.50018 0.0403328 0.
0.502762 0.0413758 0.
0.505353 0.0424386 0.
0.507949 0.0435029 0.
0.510542 0.0445569 0.
0.51313 0.045594 0.
0.515708 0.0466022 0.
0.518274 0.0475745 0.
0.520828 0.0485292 0.
0.523374 0.0494773 0.
0.525909 0.0504198 0.
0.528424 0.051314 0.
0.530928 0.0521487 0.
0.533409 0.0529347 0.
0.535873 0.0536814 0.
0.538322 0.0543636 0.
0.540728 0.0549596 0.
0.543125 0.0555535 0.
0.545471 0.0559927 0.
0.5478 0.0564018 0.
0.550105 0.0568135 0.
0.552359 0.0571769 0.
0.554615 0.0575414 0.
0.556816 0.0577759 0.
0.559002 0.0579963 0.
0.56118 0.0582064 0.
0.563299 0.0583124 0.
0.565418 0.058419 0.
0.567522 0.0585164 0.
0.56961 0.0586073 0.
0.571698 0.0586989 0.
0.573752 0.0587572 0.
0.575797 0.0588074 0.
0.577841 0.0588559 0.
0.579866 0.058875 0.
0.581891 0.0588942 0.
0.583913 0.0589121 0.
0.585931 0.0589274 0.
0.587948 0.0589428 0.
0.589961 0.0589542 0.
0.59197 0.0589622 0.
0.593979 0.0589702 0.
0.595986 0.0589737 0.
0.597993 0.0589758 0.
0.599999 0.0589779 0.
0.602006 0.0589736 0.
0.604013 0.0589693 0.
0.606021 0.0589637 0.
0.608033 0.0589535 0.
0.610045 0.0589434 0.
0.612062 0.058929 0.
0.614083 0.0589098 0.
0.616104 0.0588907 0.
0.618131 0.0588699 0.
0.620161 0.0588482 0.
0.62219 0.0588266 0.
0.624249 0.058763 0.
0.626309 0.0586977 0.
0.628378 0.0586225 0.
0.630481 0.0585105 0.
0.632583 0.0583996 0.
0.634709 0.0582872 0.
0.636854 0.0581695 0.
0.638996 0.0580512 0.
0.641197 0.0577801 0.
0.643403 0.0575026 0.
0.645635 0.0572165 0.
0.647923 0.0568269 0.
0.65021 0.0564407 0.
0.652553 0.0559351 0.
0.654915 0.0554321 0.
0.657296 0.0549081 0.
0.659716 0.0542789 0.
0.662147 0.0536324 0.
0.664612 0.0528883 0.
0.667088 0.052084 0.
0.669588 0.0512595 0.
0.672109 0.0504039 0.
0.674638 0.0494883 0.
0.677182 0.0485294 0.
0.679737 0.0475559 0.
0.682302 0.0465532 0.
0.68488 0.045538 0.
0.687465 0.0445018 0.
0.690055 0.0434409 0.
0.692641 0.0423636 0.
0.69522 0.0412933 0.
0.697785 0.0402761 0.
0.700333 0.0393277 0.
0.70285 0.0384811 0.
0.705341 0.0377277 0.
0.707786 0.0371077 0.
0.710189 0.0366602 0.
0.712551 0.0363652 0.
0.485814 0.0380882 0.
0.488135 0.0383566 0.
0.490496 0.0388047 0.
0.492895 0.0394041 0.
0.495343 0.040171 0.
0.497831 0.0410435 0.
0.500351 0.0420001 0.
0.502892 0.0430135 0.
0.505444 0.0440524 0.
0.508005 0.0450982 0.
0.510564 0.0461378 0.
0.513119 0.0471629 0.
0.515665 0.048162 0.
0.518203 0.0491293 0.
0.520735 0.0500803 0.
0.523261 0.0510251 0.
0.525772 0.0519654 0.
0.528268 0.0528654 0.
0.530755 0.0537086 0.
0.533226 0.0545103 0.
0.535679 0.0552673 0.
0.538118 0.055961 0.
0.54052 0.0565815 0.
0.542914 0.0571975 0.
0.545266 0.0576746 0.
0.547602 0.0581143 0.
0.54992 0.0585623 0.
0.552181 0.0589479 0.
0.554444 0.0593345 0.
0.556663 0.0596011 0.
0.558867 0.0598531 0.
0.561064 0.0600963 0.
0.563196 0.0602095 0.
0.56533 0.0603237 0.
0.567447 0.0604317 0.
0.569545 0.0605356 0.
0.571644 0.0606405 0.
0.573707 0.0607102 0.
0.57576 0.0607705 0.
0.577813 0.0608291 0.
0.579842 0.0608506 0.
0.58187 0.0608721 0.
0.583896 0.0608926 0.
0.585916 0.0609111 0.
0.587937 0.0609296 0.
0.589952 0.0609433 0.
0.591964 0.060953 0.
0.593975 0.0609628 0.
0.595984 0.0609669 0.
0.597991 0.0609694 0.
0.599999 0.060972 0.
0.602008 0.0609666 0.
0.604017 0.0609613 0.
0.606027 0.0609543 0.
0.608042 0.0609419 0.
0.610056 0.0609295 0.
0.612076 0.0609124 0.
0.614101 0.0608897 0.
0.616126 0.0608671 0.
0.618157 0.060843 0.
0.620191 0.0608181 0.
0.622224 0.0607932 0.
0.624295 0.060716 0.
0.626366 0.0606377 0.
0.628446 0.0605489 0.
0.630558 0.0604241 0.
0.632669 0.0603001 0.
0.634813 0.0601763 0.
0.636977 0.0600507 0.
0.63914 0.0599219 0.
0.641355 0.0596145 0.
0.643573 0.0593024 0.
0.645822 0.0589784 0.
0.648117 0.0585574 0.
0.650411 0.0581363 0.
0.652759 0.0576053 0.
0.655123 0.0570828 0.
0.657505 0.0565327 0.
0.659918 0.0558859 0.
0.662342 0.0552155 0.
0.664796 0.0544588 0.
0.667259 0.0536463 0.
0.669741 0.0528145 0.
0.672241 0.0519561 0.
0.674747 0.0510392 0.
0.677269 0.0500825 0.
0.679802 0.0491106 0.
0.682341 0.0481136 0.
0.684888 0.0471068 0.
0.687439 0.0460851 0.
0.689998 0.0450394 0.
0.692553 0.0439802 0.
0.695099 0.042934 0.
0.697626 0.0419447 0.
0.700132 0.041023 0.
0.702612 0.0401964 0.
0.705067 0.0394685 0.
0.707483 0.0388702 0.
0.709864 0.0384428 0.
0.712209 0.0381613 0.
0.486142 0.0398989 0.
0.488447 0.0401587 0.
0.490789 0.0405929 0.
0.493166 0.0411738 0.
0.495588 0.0419168 0.
0.498044 0.0427612 0.
0.500527 0.0436915 0.
0.503031 0.0446788 0.
0.505549 0.0456967 0.
0.508072 0.0467221 0.
0.510594 0.0477434 0.
0.513117 0.0487567 0.
0.515633 0.0497469 0.
0.518147 0.0507078 0.
0.520654 0.0516516 0.
0.523156 0.0525911 0.
0.525647 0.0535308 0.
0.528126 0.0544365 0.
0.530599 0.0552841 0.
0.533055 0.0560926 0.
0.535494 0.0568579 0.
0.537924 0.0575648 0.
0.540324 0.0582087 0.
0.542716 0.058845 0.
0.545073 0.0593574 0.
0.547416 0.0598249 0.
0.549742 0.0602989 0.
0.552009 0.0606977 0.
0.554278 0.0610954 0.
0.556512 0.0613907 0.
0.55873 0.0616756 0.
0.560945 0.061955 0.
0.563091 0.0620828 0.
0.565237 0.0622097 0.
0.567367 0.0623318 0.
0.569472 0.0624503 0.
0.571578 0.0625698 0.
0.573652 0.0626536 0.
0.575717 0.0627271 0.
0.577782 0.0627989 0.
0.579814 0.0628227 0.
0.581846 0.0628465 0.
0.583875 0.0628697 0.
0.585898 0.0628917 0.
0.587922 0.0629137 0.
0.58994 0.0629302 0.
0.591955 0.0629419 0.
0.593969 0.0629537 0.
0.59598 0.0629586 0.
0.59799 0.0629615 0.
0.599999 0.0629644 0.
0.602011 0.0629578 0.
0.604022 0.0629512 0.
0.606035 0.0629427 0.
0.608053 0.0629277 0.
0.610071 0.0629127 0.
0.612094 0.0628924 0.
0.614122 0.0628662 0.
0.616151 0.06284 0.
0.618187 0.0628115 0.
0.620227 0.0627819 0.
0.622267 0.0627521 0.
0.62435 0.0626582 0.
0.626434 0.0625634 0.
0.628526 0.0624589 0.
0.630644 0.0623229 0.
0.632762 0.0621877 0.
0.634918 0.0620422 0.
0.637095 0.0618914 0.
0.639273 0.0617354 0.
0.641507 0.0614085 0.
0.643741 0.0610754 0.
0.646001 0.0607212 0.
0.6483 0.0602772 0.
0.650601 0.059829 0.
0.652952 0.0592788 0.
0.655318 0.058738 0.
0.657701 0.0581626 0.
0.660107 0.0574986 0.
0.662524 0.0568084 0.
0.664965 0.0560436 0.
0.667415 0.0552244 0.
0.669881 0.0543862 0.
0.672361 0.0535262 0.
0.674847 0.0526087 0.
0.677346 0.0516564 0.
0.679855 0.0506896 0.
0.682369 0.0496989 0.
0.68489 0.0487 0.
0.68741 0.0476919 0.
0.689932 0.0466644 0.
0.692451 0.0456282 0.
0.694965 0.0446027 0.
0.69746 0.0436348 0.
0.699932 0.0427378 0.
0.702377 0.0419308 0.
0.704798 0.041224 0.
0.707187 0.0406441 0.
0.709547 0.0402365 0.
0.711874 0.0399701 0.
0.486482 0.0417201 0.
0.488771 0.0419733 0.
0.491094 0.0423923 0.
0.493453 0.0429573 0.
0.495851 0.0436817 0.
0.498276 0.044503 0.
0.500726 0.045412 0.
0.503192 0.0463763 0.
0.505671 0.0473709 0.
0.508157 0.048375 0.
0.510645 0.0493803 0.
0.513136 0.0503811 0.
0.515623 0.0513573 0.
0.518109 0.052308 0.
0.520592 0.053245 0.
0.523072 0.0541802 0.
0.525542 0.0551188 0.
0.528002 0.0560242 0.
0.530457 0.0568713 0.
0.532899 0.0576855 0.
0.535326 0.0584595 0.
0.537745 0.0591769 0.
0.540138 0.0598406 0.
0.542521 0.0604909 0.
0.544877 0.0610285 0.
0.547219 0.0615151 0.
0.549548 0.0620138 0.
0.551827 0.0624327 0.
0.554108 0.0628477 0.
0.556357 0.0631745 0.
0.558592 0.063495 0.
0.560824 0.0638115 0.
0.562985 0.0639554 0.
0.565144 0.0640951 0.
0.567286 0.0642314 0.
0.569398 0.0643644 0.
0.571511 0.0644986 0.
0.573597 0.0645968 0.
0.575674 0.0646834 0.
0.577751 0.0647686 0.
0.579786 0.0647948 0.
0.581821 0.0648209 0.
0.583854 0.0648467 0.
0.585881 0.0648722 0.
0.587907 0.0648978 0.
0.589929 0.0649171 0.
0.591946 0.0649308 0.
0.593963 0.0649446 0.
0.595976 0.0649503 0.
0.597988 0.0649535 0.
0.6 0.0649568 0.
0.602013 0.064949 0.
0.604027 0.0649412 0.
0.606042 0.0649311 0.
0.608064 0.0649134 0.
0.610085 0.0648958 0.
0.612111 0.0648724 0.
0.614144 0.0648426 0.
0.616176 0.0648129 0.
0.618218 0.0647799 0.
0.620263 0.0647456 0.
0.62231 0.0647106 0.
0.624406 0.0645999 0.
0.626502 0.0644885 0.
0.628605 0.0643686 0.
0.630731 0.0642213 0.
0.632855 0.0640749 0.
0.635025 0.0639063 0.
0.637215 0.0637302 0.
0.639408 0.0635471 0.
0.641663 0.0631965 0.
0.643915 0.0628406 0.
0.646189 0.0624533 0.
0.648492 0.0619832 0.
0.650798 0.0615066 0.
0.653146 0.0609427 0.
0.655507 0.0603905 0.
0.657889 0.0597957 0.
0.660287 0.0591177 0.
0.662694 0.0584112 0.
0.66512 0.0576406 0.
0.667554 0.0568184 0.
0.670002 0.0559775 0.
0.672463 0.0551163 0.
0.67493 0.0541994 0.
0.677406 0.0532516 0.
0.67989 0.0522906 0.
0.682376 0.05131 0.
0.684868 0.0503229 0.
0.687358 0.0493294 0.
0.689848 0.0483184 0.
0.69233 0.0473044 0.
0.694806 0.0463044 0.
0.697268 0.0453567 0.
0.699709 0.0444767 0.
0.702124 0.0436852 0.
0.704516 0.0429962 0.
0.706882 0.04243 0.
0.709222 0.0420373 0.
0.711532 0.0417846 0.
0.486832 0.0435386 0.
0.489108 0.0437905 0.
0.491416 0.0442004 0.
0.493758 0.0447579 0.
0.496131 0.045467 0.
0.498526 0.0462693 0.
0.500944 0.0471595 0.
0.503375 0.0481023 0.
0.505819 0.0490742 0.
0.508269 0.0500609 0.
0.510723 0.0510507 0.
0.513183 0.0520336 0.
0.515641 0.0529944 0.
0.518102 0.0539357 0.
0.520559 0.054866 0.
0.523013 0.0557952 0.
0.525461 0.0567279 0.
0.5279 0.0576304 0.
0.530337 0.0584771 0.
0.532763 0.0592953 0.
0.535176 0.060076 0.
0.537577 0.0608022 0.
0.539958 0.0614778 0.
0.54233 0.0621377 0.
0.544685 0.0626994 0.
0.547025 0.0632075 0.
0.549355 0.0637298 0.
0.551642 0.0641672 0.
0.553929 0.0645971 0.
0.556191 0.064951 0.
0.558434 0.0652981 0.
0.560674 0.0656405 0.
0.562848 0.0658049 0.
0.56502 0.0659621 0.
0.567175 0.0661153 0.
0.569295 0.0662565 0.
0.571416 0.0663983 0.
0.573514 0.0665105 0.
0.575603 0.066613 0.
0.577693 0.0667149 0.
0.579738 0.0667489 0.
0.581782 0.0667825 0.
0.583823 0.0668146 0.
0.585853 0.0668433 0.
0.587884 0.066872 0.
0.58991 0.0668942 0.
0.591931 0.0669107 0.
0.593952 0.0669272 0.
0.595969 0.0669339 0.
0.597985 0.0669376 0.
0.600001 0.0669413 0.
0.602019 0.0669316 0.
0.604037 0.0669219 0.
0.606057 0.0669096 0.
0.608083 0.0668886 0.
0.61011 0.0668677 0.
0.612141 0.0668408 0.
0.614178 0.0668074 0.
0.616216 0.066774 0.
0.618269 0.0667322 0.
0.620326 0.0666879 0.
0.622385 0.0666417 0.
0.624493 0.0665137 0.
0.626599 0.0663855 0.
0.628713 0.0662527 0.
0.630846 0.0661005 0.
0.632978 0.0659486 0.
0.63516 0.0657549 0.
0.637359 0.0655521 0.
0.639565 0.0653422 0.
0.64183 0.0649765 0.
0.644097 0.0646036 0.
0.64638 0.0641834 0.
0.648685 0.0636888 0.
0.650993 0.063187 0.
0.653337 0.0626089 0.
0.655692 0.0620442 0.
0.658066 0.0614334 0.
0.660452 0.060748 0.
0.662848 0.0600302 0.
0.665258 0.0592537 0.
0.667675 0.0584296 0.
0.670104 0.0575882 0.
0.672543 0.0567289 0.
0.674986 0.0558158 0.
0.67744 0.0548732 0.
0.679899 0.0539189 0.
0.682357 0.0529478 0.
0.684819 0.0519739 0.
0.687278 0.0509992 0.
0.689735 0.0500069 0.
0.692184 0.0490107 0.
0.694623 0.0480325 0.
0.697049 0.0471067 0.
0.699459 0.0462443 0.
0.70185 0.0454617 0.
0.704217 0.0447854 0.
0.706562 0.0442301 0.
0.708886 0.043845 0.
0.711181 0.0436007 0.
0.487193 0.0453616 0.
0.489458 0.0456156 0.
0.491751 0.0460209 0.
0.494073 0.0465722 0.
0.49642 0.047267 0.
0.498788 0.0480572 0.
0.501176 0.0489316 0.
0.503576 0.0498542 0.
0.505989 0.05081 0.
0.508405 0.0517792 0.
0.510829 0.0527509 0.
0.51326 0.0537172 0.
0.515691 0.0546655 0.
0.518124 0.0555963 0.
0.520553 0.0565155 0.
0.52298 0.0574349 0.
0.525403 0.058361 0.
0.527821 0.0592599 0.
0.530237 0.0601054 0.
0.532642 0.0609262 0.
0.535035 0.0617094 0.
0.537418 0.0624389 0.
0.539786 0.0631233 0.
0.542148 0.0637918 0.
0.544497 0.064375 0.
0.546833 0.0648978 0.
0.549159 0.0654326 0.
0.551449 0.0658859 0.
0.553736 0.0663278 0.
0.556003 0.0667026 0.
0.55825 0.0670724 0.
0.560496 0.067439 0.
0.562688 0.0676338 0.
0.564876 0.0678166 0.
0.567049 0.0679926 0.
0.569181 0.0681413 0.
0.571313 0.0682905 0.
0.573425 0.0684179 0.
0.575528 0.0685382 0.
0.577631 0.0686582 0.
0.579687 0.0687013 0.
0.581742 0.068743 0.
0.583791 0.0687821 0.
0.585826 0.068814 0.
0.58786 0.0688459 0.
0.58989 0.0688711 0.
0.591916 0.0688903 0.
0.593941 0.0689096 0.
0.595962 0.0689173 0.
0.597982 0.0689215 0.
0.600002 0.0689257 0.
0.602025 0.0689141 0.
0.604047 0.0689025 0.
0.606072 0.0688878 0.
0.608103 0.0688635 0.
0.610135 0.0688392 0.
0.612172 0.0688086 0.
0.614214 0.0687714 0.
0.616257 0.0687342 0.
0.618322 0.0686829 0.
0.620393 0.0686275 0.
0.622466 0.0685687 0.
0.624586 0.0684218 0.
0.626705 0.0682749 0.
0.628831 0.0681286 0.
0.630975 0.0679714 0.
0.633118 0.0678146 0.
0.635317 0.0675893 0.
0.63753 0.0673537 0.
0.63975 0.0671106 0.
0.64202 0.066725 0.
0.644289 0.0663367 0.
0.646576 0.0658971 0.
0.648879 0.0653881 0.
0.651187 0.064866 0.
0.653524 0.0642785 0.
0.65587 0.0637041 0.
0.658233 0.0630797 0.
0.660606 0.0623886 0.
0.662986 0.0616655 0.
0.665377 0.0608891 0.
0.667774 0.0600637 0.
0.670182 0.0592213 0.
0.6726 0.0583644 0.
0.675019 0.0574565 0.
0.677446 0.056523 0.
0.679878 0.0555784 0.
0.68231 0.0546173 0.
0.684744 0.0536567 0.
0.687172 0.0526983 0.
0.6896 0.0517266 0.
0.692016 0.0507511 0.
0.694423 0.0497891 0.
0.696818 0.0488781 0.
0.699197 0.0480328 0.
0.701562 0.047259 0.
0.703909 0.0465899 0.
0.706233 0.0460437 0.
0.708538 0.0456643 0.
0.710819 0.045427 0.
0.48755 0.0471986 0.
0.489804 0.0474514 0.
0.492081 0.0478499 0.
0.494383 0.048397 0.
0.496708 0.0490829 0.
0.499051 0.0498643 0.
0.501413 0.0507228 0.
0.503786 0.0516291 0.
0.50617 0.0525687 0.
0.508557 0.0535207 0.
0.510951 0.0544771 0.
0.513354 0.0554295 0.
0.515754 0.0563624 0.
0.518155 0.0572782 0.
0.520554 0.0581858 0.
0.522956 0.0590957 0.
0.525356 0.0600146 0.
0.527751 0.0609078 0.
0.530143 0.0617492 0.
0.532526 0.0625693 0.
0.534898 0.0633535 0.
0.537265 0.064086 0.
0.539622 0.0647794 0.
0.541975 0.0654542 0.
0.544317 0.0660495 0.
0.546645 0.0665815 0.
0.548963 0.0671282 0.
0.551255 0.0676004 0.
0.553543 0.0680567 0.
0.555816 0.0684534 0.
0.558068 0.0688458 0.
0.56032 0.0692359 0.
0.562529 0.0694601 0.
0.564734 0.0696682 0.
0.566925 0.0698686 0.
0.569067 0.0700229 0.
0.57121 0.0701777 0.
0.573335 0.0703185 0.
0.57545 0.0704556 0.
0.577565 0.0705925 0.
0.579632 0.0706466 0.
0.581696 0.0706982 0.
0.583755 0.070746 0.
0.585794 0.0707809 0.
0.587834 0.0708158 0.
0.589868 0.070844 0.
0.591899 0.070866 0.
0.593929 0.0708879 0.
0.595955 0.0708967 0.
0.59798 0.0709013 0.
0.600004 0.0709059 0.
0.602032 0.0708922 0.
0.604059 0.0708785 0.
0.606089 0.0708614 0.
0.608126 0.0708336 0.
0.610163 0.070806 0.
0.612206 0.0707718 0.
0.614255 0.0707309 0.
0.616303 0.0706902 0.
0.618379 0.0706273 0.
0.620462 0.070559 0.
0.622549 0.070486 0.
0.624679 0.0703229 0.
0.626809 0.0701595 0.
0.628948 0.0700017 0.
0.631103 0.0698409 0.
0.633257 0.0696799 0.
0.635473 0.0694206 0.
0.6377 0.0691523 0.
0.639935 0.0688782 0.
0.642208 0.0684731 0.
0.644481 0.068066 0.
0.646771 0.0676052 0.
0.649073 0.0670851 0.
0.651379 0.0665479 0.
0.653705 0.0659511 0.
0.656041 0.0653688 0.
0.658391 0.0647363 0.
0.660749 0.0640398 0.
0.663114 0.063312 0.
0.665486 0.0625368 0.
0.667863 0.0617139 0.
0.67025 0.0608736 0.
0.672645 0.0600192 0.
0.675041 0.059117 0.
0.677442 0.0581926 0.
0.679847 0.0572595 0.
0.682249 0.0563124 0.
0.684653 0.0553668 0.
0.687052 0.0544247 0.
0.68945 0.0534699 0.
0.691836 0.052513 0.
0.694213 0.0515707 0.
0.69658 0.0506709 0.
0.698934 0.0498368 0.
0.701275 0.0490724 0.
0.703601 0.0484074 0.
0.705907 0.0478672 0.
0.708194 0.0474926 0.
0.710458 0.0472625 0.
0.4879 0.049051 0.
0.49014 0.049299 0.
0.492402 0.0496906 0.
0.494688 0.0502369 0.
0.496992 0.0509149 0.
0.499312 0.0516861 0.
0.501649 0.0525303 0.
0.503998 0.0534228 0.
0.506354 0.0543485 0.
0.508712 0.055287 0.
0.511077 0.0562296 0.
0.513447 0.0571644 0.
0.515815 0.0580806 0.
0.518187 0.0589834 0.
0.520559 0.0598809 0.
0.522935 0.0607803 0.
0.525309 0.0616872 0.
0.527679 0.0625711 0.
0.53005 0.0634079 0.
0.532412 0.0642272 0.
0.534768 0.065013 0.
0.537123 0.0657472 0.
0.539469 0.0664444 0.
0.541809 0.0671227 0.
0.544142 0.0677289 0.
0.546462 0.0682719 0.
0.548774 0.0688294 0.
0.551067 0.0693186 0.
0.553356 0.0697868 0.
0.555631 0.0701995 0.
0.557887 0.0706032 0.
0.560142 0.0710015 0.
0.562365 0.0712532 0.
0.564582 0.0714893 0.
0.566789 0.0717178 0.
0.568944 0.0718811 0.
0.571101 0.0720457 0.
0.573239 0.0722018 0.
0.575364 0.0723565 0.
0.57749 0.0725112 0.
0.579569 0.0725802 0.
0.581644 0.0726455 0.
0.583713 0.0727049 0.
0.585758 0.0727429 0.
0.587803 0.072781 0.
0.589843 0.0728121 0.
0.591879 0.0728369 0.
0.593915 0.0728617 0.
0.595946 0.0728714 0.
0.597977 0.0728765 0.
0.600007 0.0728815 0.
0.602041 0.0728654 0.
0.604074 0.0728493 0.
0.60611 0.0728294 0.
0.608154 0.0727981 0.
0.610197 0.0727668 0.
0.612247 0.0727288 0.
0.614303 0.0726842 0.
0.616359 0.0726396 0.
0.618445 0.0725609 0.
0.620538 0.0724747 0.
0.622636 0.0723829 0.
0.624776 0.0722059 0.
0.626915 0.0720288 0.
0.62907 0.071855 0.
0.631243 0.071679 0.
0.633414 0.0715049 0.
0.635641 0.0712198 0.
0.637876 0.0709276 0.
0.640119 0.0706294 0.
0.642393 0.0702138 0.
0.644668 0.0697939 0.
0.64696 0.0693177 0.
0.649261 0.0687878 0.
0.651566 0.0682366 0.
0.653883 0.0676313 0.
0.656208 0.0670402 0.
0.658546 0.066403 0.
0.660889 0.0657051 0.
0.663237 0.0649744 0.
0.665593 0.0642002 0.
0.66795 0.063379 0.
0.670315 0.0625416 0.
0.672687 0.0616929 0.
0.67506 0.0607995 0.
0.677436 0.0598848 0.
0.679814 0.0589628 0.
0.682187 0.0580283 0.
0.684561 0.0570984 0.
0.686928 0.056176 0.
0.689295 0.0552391 0.
0.691653 0.054296 0.
0.694 0.0533694 0.
0.696342 0.0524812 0.
0.698672 0.0516558 0.
0.700991 0.0508991 0.
0.703296 0.0502387 0.
0.705583 0.0497031 0.
0.707855 0.0493292 0.
0.710105 0.0491049 0.
0.488263 0.0509106 0.
0.490491 0.0511557 0.
0.492739 0.0515458 0.
0.495007 0.0520933 0.
0.49729 0.0527636 0.
0.49959 0.0535279 0.
0.501904 0.0543617 0.
0.504225 0.0552424 0.
0.506553 0.0561559 0.
0.508881 0.0570797 0.
0.511215 0.0580059 0.
0.513551 0.0589245 0.
0.515888 0.0598273 0.
0.518232 0.0607184 0.
0.520575 0.0616021 0.
0.522923 0.0624866 0.
0.525271 0.0633807 0.
0.527618 0.0642554 0.
0.529966 0.065087 0.
0.53231 0.0659034 0.
0.53465 0.0666863 0.
0.53699 0.0674186 0.
0.539322 0.0681187 0.
0.541649 0.0688007 0.
0.543972 0.0694148 0.
0.546282 0.0699654 0.
0.548586 0.0705282 0.
0.550876 0.0710311 0.
0.55316 0.0715103 0.
0.555438 0.0719385 0.
0.557699 0.0723509 0.
0.55996 0.0727584 0.
0.562196 0.073038 0.
0.564428 0.0733049 0.
0.566651 0.0735656 0.
0.56882 0.0737387 0.
0.570991 0.073913 0.
0.573142 0.0740843 0.
0.575278 0.0742567 0.
0.577414 0.0744292 0.
0.579505 0.0745133 0.
0.581591 0.0745923 0.
0.583671 0.0746638 0.
0.585721 0.0747049 0.
0.587772 0.074746 0.
0.589818 0.0747802 0.
0.591859 0.0748078 0.
0.593901 0.0748353 0.
0.595938 0.0748462 0.
0.597974 0.0748516 0.
0.60001 0.074857 0.
0.602049 0.0748385 0.
0.604089 0.0748201 0.
0.606131 0.0747974 0.
0.608181 0.0747625 0.
0.610231 0.0747276 0.
0.612288 0.0746858 0.
0.614352 0.0746373 0.
0.616416 0.0745889 0.
0.618512 0.0744938 0.
0.620615 0.0743896 0.
0.622723 0.0742792 0.
0.624873 0.0740884 0.
0.627022 0.0738975 0.
0.629194 0.073707 0.
0.631386 0.0735144 0.
0.633576 0.0733215 0.
0.635816 0.0730097 0.
0.63806 0.0726931 0.
0.640312 0.0723718 0.
0.642586 0.0719432 0.
0.644862 0.0715083 0.
0.647152 0.0710244 0.
0.649447 0.0704903 0.
0.651747 0.0699287 0.
0.654055 0.0693179 0.
0.656369 0.0687207 0.
0.658694 0.0680803 0.
0.661022 0.0673822 0.
0.663354 0.0666519 0.
0.665691 0.0658816 0.
0.668029 0.0650638 0.
0.670372 0.0642297 0.
0.672721 0.0633867 0.
0.675069 0.0625035 0.
0.677419 0.0616028 0.
0.679769 0.0606954 0.
0.682113 0.059775 0.
0.684457 0.0588583 0.
0.686792 0.0579516 0.
0.689126 0.0570332 0.
0.691452 0.0561075 0.
0.693771 0.0551937 0.
0.696088 0.0543137 0.
0.698395 0.0534962 0.
0.700693 0.0527443 0.
0.702979 0.0520853 0.
0.705247 0.0515546 0.
0.707502 0.0511787 0.
0.709738 0.0509573 0.
0.488642 0.0527687 0.
0.490858 0.0530166 0.
0.493092 0.0534124 0.
0.495343 0.0539646 0.
0.497608 0.054632 0.
0.499888 0.0553936 0.
0.502175 0.0562169 0.
0.504467 0.0570859 0.
0.506766 0.0579873 0.
0.509064 0.0588974 0.
0.511369 0.0598109 0.
0.513675 0.0607162 0.
0.515982 0.0616032 0.
0.518294 0.0624799 0.
0.520607 0.0633503 0.
0.522927 0.064221 0.
0.525247 0.0651023 0.
0.527568 0.0659654 0.
0.529894 0.0667864 0.
0.532217 0.0675954 0.
0.534539 0.0683737 0.
0.536861 0.0691038 0.
0.539178 0.0698062 0.
0.54149 0.0704893 0.
0.543799 0.071107 0.
0.5461 0.0716625 0.
0.548396 0.0722289 0.
0.550682 0.0727446 0.
0.552963 0.0732346 0.
0.555242 0.0736778 0.
0.557506 0.0740986 0.
0.559771 0.0745131 0.
0.562018 0.0748168 0.
0.564259 0.0751109 0.
0.566492 0.0753982 0.
0.568671 0.0755807 0.
0.570851 0.075764 0.
0.573014 0.0759475 0.
0.575158 0.0761307 0.
0.577304 0.0763136 0.
0.579411 0.0764175 0.
0.581513 0.0765162 0.
0.583608 0.0766058 0.
0.585667 0.07665 0.
0.587727 0.0766942 0.
0.589781 0.0767313 0.
0.591831 0.0767612 0.
0.593881 0.0767912 0.
0.595927 0.0768029 0.
0.597971 0.0768085 0.
0.600016 0.0768139 0.
0.602064 0.0767932 0.
0.604112 0.0767724 0.
0.606163 0.076747 0.
0.608223 0.076708 0.
0.610282 0.0766692 0.
0.612348 0.0766234 0.
0.614421 0.0765712 0.
0.616494 0.0765191 0.
0.618607 0.0764035 0.
0.620725 0.0762784 0.
0.622848 0.0761482 0.
0.625004 0.0759493 0.
0.627159 0.0757499 0.
0.629343 0.0755444 0.
0.631547 0.0753369 0.
0.633752 0.0751266 0.
0.635999 0.0747946 0.
0.63825 0.074456 0.
0.640509 0.0741133 0.
0.642783 0.0736732 0.
0.645058 0.0732238 0.
0.647345 0.0727319 0.
0.649634 0.0721938 0.
0.651926 0.0716248 0.
0.654224 0.0710131 0.
0.656528 0.0704128 0.
0.658838 0.0697705 0.
0.66115 0.069073 0.
0.663464 0.0683433 0.
0.665781 0.0675787 0.
0.668099 0.0667682 0.
0.670419 0.0659415 0.
0.672742 0.0651067 0.
0.675064 0.0642339 0.
0.677386 0.0633468 0.
0.679707 0.0624558 0.
0.682019 0.0615524 0.
0.684332 0.0606506 0.
0.686637 0.0597572 0.
0.688941 0.0588527 0.
0.691238 0.0579423 0.
0.693528 0.0570428 0.
0.695819 0.0561712 0.
0.698101 0.0553593 0.
0.700377 0.0546116 0.
0.702645 0.0539496 0.
0.704896 0.0534187 0.
0.707135 0.0530378 0.
0.709357 0.0528138 0.
0.489035 0.0546388 0.
0.491238 0.0548903 0.
0.493458 0.0552953 0.
0.495693 0.0558542 0.
0.497937 0.0565216 0.
0.500194 0.0572796 0.
0.502454 0.0580939 0.
0.50472 0.0589548 0.
0.506991 0.0598445 0.
0.509261 0.0607437 0.
0.511538 0.0616447 0.
0.513815 0.0625337 0.
0.516092 0.0634057 0.
0.518375 0.0642706 0.
0.520657 0.0651303 0.
0.522946 0.0659876 0.
0.525237 0.0668511 0.
0.527531 0.0676981 0.
0.529832 0.0685074 0.
0.532131 0.0693077 0.
0.534432 0.0700807 0.
0.536733 0.0708054 0.
0.539032 0.0715045 0.
0.541329 0.0721856 0.
0.543626 0.0728058 0.
0.545918 0.0733654 0.
0.548207 0.0739342 0.
0.55049 0.0744609 0.
0.552769 0.0749587 0.
0.555047 0.0754098 0.
0.557312 0.075835 0.
0.559577 0.0762537 0.
0.561827 0.0765759 0.
0.564069 0.076891 0.
0.566307 0.0772011 0.
0.568499 0.0774018 0.
0.57069 0.0776005 0.
0.572867 0.0777997 0.
0.575023 0.077994 0.
0.577182 0.0781883 0.
0.579308 0.078314 0.
0.581428 0.078435 0.
0.583542 0.0785454 0.
0.585611 0.078593 0.
0.587679 0.0786407 0.
0.589743 0.0786809 0.
0.591801 0.0787134 0.
0.59386 0.0787461 0.
0.595915 0.0787586 0.
0.597968 0.0787643 0.
0.600022 0.0787698 0.
0.602079 0.0787467 0.
0.604136 0.0787236 0.
0.606197 0.0786951 0.
0.608266 0.0786518 0.
0.610335 0.0786086 0.
0.612412 0.0785584 0.
0.614495 0.0785019 0.
0.616577 0.0784455 0.
0.61871 0.0783066 0.
0.620848 0.0781581 0.
0.622989 0.0780067 0.
0.625155 0.0777986 0.
0.62732 0.0775901 0.
0.629516 0.0773641 0.
0.631727 0.0771351 0.
0.633941 0.0769005 0.
0.636191 0.0765544 0.
0.638443 0.0762037 0.
0.640704 0.0758473 0.
0.642977 0.0754002 0.
0.645251 0.0749403 0.
0.647536 0.0744439 0.
0.64982 0.073903 0.
0.652105 0.0733272 0.
0.654393 0.0727155 0.
0.656685 0.072115 0.
0.65898 0.0714735 0.
0.661275 0.0707791 0.
0.66357 0.0700527 0.
0.665866 0.069295 0.
0.668161 0.068492 0.
0.670456 0.067675 0.
0.672752 0.0668524 0.
0.675045 0.0659943 0.
0.677337 0.0651222 0.
0.679627 0.0642456 0.
0.681909 0.0633562 0.
0.684192 0.0624692 0.
0.686466 0.0615917 0.
0.688741 0.060701 0.
0.691013 0.0598016 0.
0.693277 0.0589143 0.
0.695541 0.0580514 0.
0.697798 0.0572434 0.
0.700051 0.056499 0.
0.702299 0.0558336 0.
0.704534 0.0552998 0.
0.706757 0.054911 0.
0.708964 0.054679 0.
0.489427 0.0565238 0.
0.491616 0.0567778 0.
0.49382 0.0571927 0.
0.496037 0.0577563 0.
0.498262 0.0584239 0.
0.500495 0.0591812 0.
0.502731 0.0599908 0.
0.504972 0.0608437 0.
0.507217 0.0617225 0.
0.509459 0.062611 0.
0.511708 0.0634987 0.
0.513957 0.0643738 0.
0.516204 0.0652341 0.
0.518457 0.0660875 0.
0.520708 0.0669322 0.
0.522967 0.0677723 0.
0.525228 0.0686188 0.
0.527493 0.0694507 0.
0.529768 0.0702483 0.
0.532044 0.0710388 0.
0.534322 0.0718022 0.
0.536604 0.0725168 0.
0.538886 0.0732107 0.
0.541169 0.0738892 0.
0.543455 0.0745107 0.
0.545741 0.0750737 0.
0.548024 0.0756442 0.
0.550303 0.0761773 0.
0.552578 0.0766774 0.
0.554854 0.0771344 0.
0.557119 0.0775676 0.
0.559384 0.0779932 0.
0.561637 0.0783333 0.
0.563882 0.0786696 0.
0.566124 0.0790024 0.
0.568327 0.079221 0.
0.57053 0.0794347 0.
0.572721 0.0796501 0.
0.574891 0.0798544 0.
0.577062 0.0800573 0.
0.579205 0.0802029 0.
0.581343 0.0803464 0.
0.583474 0.0804794 0.
0.585552 0.0805301 0.
0.58763 0.0805809 0.
0.589703 0.0806241 0.
0.59177 0.080659 0.
0.593838 0.0806939 0.
0.595902 0.0807071 0.
0.597966 0.0807128 0.
0.600029 0.0807183 0.
0.602096 0.0806931 0.
0.604163 0.0806679 0.
0.606233 0.0806366 0.
0.608311 0.0805891 0.
0.610389 0.0805417 0.
0.612476 0.0804875 0.
0.614569 0.080427 0.
0.616661 0.0803668 0.
0.618813 0.0802033 0.
0.620969 0.0800322 0.
0.623127 0.0798621 0.
0.625304 0.079646 0.
0.627479 0.0794292 0.
0.629687 0.0791813 0.
0.631906 0.078931 0.
0.634128 0.0786738 0.
0.636381 0.0783135 0.
0.638635 0.0779496 0.
0.640897 0.0775794 0.
0.643168 0.0771255 0.
0.64544 0.0766565 0.
0.64772 0.0761568 0.
0.65 0.0756157 0.
0.65228 0.0750359 0.
0.65456 0.0744248 0.
0.656842 0.0738243 0.
0.659123 0.0731848 0.
0.661401 0.0724956 0.
0.663678 0.0717759 0.
0.665955 0.0710287 0.
0.668226 0.070235 0.
0.670495 0.0694274 0.
0.672764 0.068617 0.
0.675026 0.0677747 0.
0.677287 0.0669194 0.
0.679547 0.0660599 0.
0.681799 0.0651855 0.
0.684052 0.0643111 0.
0.686296 0.0634462 0.
0.688541 0.0625697 0.
0.690785 0.0616832 0.
0.693024 0.0608052 0.
0.695263 0.0599502 0.
0.697498 0.059145 0.
0.699729 0.0584014 0.
0.701956 0.0577311 0.
0.704172 0.0571937 0.
0.706378 0.0567979 0.
0.708572 0.0565554 0.
0.489813 0.0584213 0.
0.491986 0.0586792 0.
0.494174 0.0591055 0.
0.496372 0.0596729 0.
0.498576 0.060344 0.
0.500787 0.0611015 0.
0.502999 0.0619042 0.
0.505215 0.0627496 0.
0.507432 0.0636197 0.
0.509647 0.0644981 0.
0.511866 0.0653742 0.
0.514085 0.0662369 0.
0.516301 0.0670828 0.
0.518523 0.0679232 0.
0.520742 0.0687546 0.
0.52297 0.0695784 0.
0.525203 0.0704082 0.
0.527441 0.0712242 0.
0.529691 0.0720071 0.
0.531944 0.072784 0.
0.534201 0.0735363 0.
0.536466 0.0742407 0.
0.538736 0.0749284 0.
0.541009 0.0756035 0.
0.543287 0.0762247 0.
0.545565 0.0767894 0.
0.547842 0.0773599 0.
0.550118 0.0778985 0.
0.552389 0.0784004 0.
0.554664 0.0788618 0.
0.55693 0.0793017 0.
0.559195 0.0797323 0.
0.561451 0.0800867 0.
0.563698 0.0804375 0.
0.565943 0.0807834 0.
0.568159 0.0810176 0.
0.570373 0.0812439 0.
0.572577 0.0814727 0.
0.57476 0.0816841 0.
0.576945 0.0818955 0.
0.579103 0.0820661 0.
0.581254 0.0822393 0.
0.5834 0.0824021 0.
0.585487 0.0824563 0.
0.587575 0.0825105 0.
0.589659 0.0825568 0.
0.591736 0.0825941 0.
0.593814 0.0826314 0.
0.595889 0.0826452 0.
0.597963 0.0826507 0.
0.600038 0.0826558 0.
0.602116 0.0826288 0.
0.604194 0.0826019 0.
0.606274 0.0825676 0.
0.60836 0.0825155 0.
0.610446 0.0824636 0.
0.612544 0.0824047 0.
0.614648 0.0823398 0.
0.616753 0.0822742 0.
0.618916 0.0820788 0.
0.621082 0.081877 0.
0.623254 0.0816852 0.
0.625447 0.0814654 0.
0.627636 0.081245 0.
0.629854 0.0809793 0.
0.632081 0.0807123 0.
0.634311 0.080437 0.
0.636565 0.0800678 0.
0.638821 0.0796946 0.
0.641086 0.0793126 0.
0.643355 0.0788532 0.
0.645626 0.0783768 0.
0.647902 0.0778747 0.
0.650176 0.0773337 0.
0.65245 0.0767519 0.
0.654724 0.0761437 0.
0.656998 0.0755442 0.
0.659269 0.0749074 0.
0.661534 0.0742247 0.
0.663797 0.073513 0.
0.666054 0.0727769 0.
0.668303 0.0719951 0.
0.670547 0.0712009 0.
0.67279 0.0704032 0.
0.675024 0.0695757 0.
0.677254 0.0687366 0.
0.679481 0.0678941 0.
0.681701 0.0670358 0.
0.683923 0.066176 0.
0.686137 0.0653237 0.
0.688352 0.0644581 0.
0.690568 0.063583 0.
0.69278 0.0627138 0.
0.694994 0.0618655 0.
0.697207 0.0610629 0.
0.699415 0.0603205 0.
0.701622 0.0596444 0.
0.703819 0.0591011 0.
0.706008 0.0586992 0.
0.708187 0.0584445 0.
0.490211 0.0603333 0.
0.492367 0.0605999 0.
0.494538 0.0610415 0.
0.496715 0.0616123 0.
0.498898 0.0622866 0.
0.501086 0.0630437 0.
0.503273 0.0638422 0.
0.505462 0.0646821 0.
0.50765 0.0655436 0.
0.509835 0.0664118 0.
0.512023 0.0672743 0.
0.514208 0.0681227 0.
0.516391 0.0689556 0.
0.51858 0.0697843 0.
0.520769 0.0706025 0.
0.522969 0.0714093 0.
0.525172 0.0722201 0.
0.527384 0.0730171 0.
0.52961 0.0737844 0.
0.531841 0.074547 0.
0.534081 0.0752876 0.
0.536333 0.0759796 0.
0.538591 0.0766581 0.
0.540854 0.0773266 0.
0.543122 0.0779452 0.
0.545392 0.0785101 0.
0.547662 0.079079 0.
0.549933 0.0796223 0.
0.552201 0.0801239 0.
0.554473 0.0805865 0.
0.556738 0.0810335 0.
0.559002 0.0814707 0.
0.561261 0.0818368 0.
0.56351 0.0821982 0.
0.565759 0.0825558 0.
0.567986 0.0828063 0.
0.570212 0.0830469 0.
0.572429 0.0832917 0.
0.574626 0.0835124 0.
0.576826 0.0837332 0.
0.579 0.0839275 0.
0.581164 0.0841306 0.
0.583325 0.0843247 0.
0.585423 0.0843823 0.
0.587521 0.08444 0.
0.589615 0.0844894 0.
0.591702 0.0845291 0.
0.593789 0.0845689 0.
0.595875 0.0845834 0.
0.597961 0.0845885 0.
0.600047 0.0845934 0.
0.602136 0.0845646 0.
0.604225 0.0845357 0.
0.606316 0.0844985 0.
0.60841 0.0844418 0.
0.610503 0.0843852 0.
0.612612 0.0843217 0.
0.614728 0.0842523 0.
0.616845 0.0841799 0.
0.61902 0.0839524 0.
0.621195 0.0837198 0.
0.623383 0.0835075 0.
0.625592 0.0832819 0.
0.627798 0.0830558 0.
0.630026 0.0827702 0.
0.632261 0.082487 0.
0.634499 0.082195 0.
0.636753 0.0818167 0.
0.639009 0.081435 0.
0.641274 0.081045 0.
0.643541 0.0805813 0.
0.64581 0.0800982 0.
0.648082 0.0795956 0.
0.65035 0.079056 0.
0.652618 0.0784731 0.
0.654884 0.077869 0.
0.657149 0.0772723 0.
0.65941 0.0766408 0.
0.661663 0.0759669 0.
0.663913 0.0752664 0.
0.666154 0.074543 0.
0.668382 0.073774 0.
0.670601 0.0729942 0.
0.672818 0.072212 0.
0.675025 0.0714026 0.
0.677224 0.0705809 0.
0.67942 0.0697546 0.
0.681609 0.0689104 0.
0.683799 0.0680642 0.
0.68598 0.0672251 0.
0.688163 0.0663731 0.
0.690349 0.0655086 0.
0.692533 0.064646 0.
0.69472 0.0638038 0.
0.696908 0.0630026 0.
0.699095 0.0622612 0.
0.70128 0.0615805 0.
0.703458 0.0610293 0.
0.705627 0.0606216 0.
0.70779 0.0603503 0.
0.490629 0.0622599 0.
0.492768 0.0625416 0.
0.494919 0.0630013 0.
0.497074 0.0635778 0.
0.499233 0.0642573 0.
0.501396 0.065015 0.
0.503557 0.065811 0.
0.505716 0.0666447 0.
0.507873 0.0674958 0.
0.510027 0.0683537 0.
0.512181 0.0692031 0.
0.514331 0.070038 0.
0.516481 0.0708583 0.
0.518639 0.0716727 0.
0.520796 0.072475 0.
0.522965 0.0732624 0.
0.525142 0.0740536 0.
0.527328 0.0748311 0.
0.529532 0.0755811 0.
0.531743 0.0763269 0.
0.533965 0.0770527 0.
0.536202 0.0777308 0.
0.538448 0.0783984 0.
0.540699 0.0790591 0.
0.542956 0.0796742 0.
0.545218 0.0802382 0.
0.547481 0.0808036 0.
0.549746 0.0813479 0.
0.55201 0.0818475 0.
0.554278 0.0823108 0.
0.556542 0.0827646 0.
0.558804 0.0832077 0.
0.561065 0.0835854 0.
0.563317 0.0839568 0.
0.565568 0.0843243 0.
0.567805 0.0845901 0.
0.570039 0.0848442 0.
0.572266 0.0851035 0.
0.574473 0.0853292 0.
0.576681 0.085555 0.
0.578866 0.0857665 0.
0.581039 0.0859924 0.
0.583212 0.0862106 0.
0.58533 0.0862773 0.
0.587449 0.0863431 0.
0.589562 0.0863987 0.
0.591661 0.0864393 0.
0.593761 0.0864799 0.
0.59586 0.0864942 0.
0.597958 0.0864987 0.
0.600057 0.0865028 0.
0.60216 0.0864728 0.
0.604262 0.0864428 0.
0.606365 0.0864042 0.
0.60847 0.086346 0.
0.610575 0.0862879 0.
0.612701 0.0862155 0.
0.614835 0.0861353 0.
0.61697 0.0860487 0.
0.619153 0.0858003 0.
0.621335 0.0855457 0.
0.623533 0.0853189 0.
0.625752 0.0850902 0.
0.627971 0.0848606 0.
0.630208 0.0845572 0.
0.632448 0.0842583 0.
0.634692 0.0839511 0.
0.636947 0.0835646 0.
0.639204 0.0831748 0.
0.641469 0.0827771 0.
0.643732 0.0823103 0.
0.645996 0.0818222 0.
0.648263 0.0813203 0.
0.650525 0.0807833 0.
0.652786 0.0802012 0.
0.655044 0.0796028 0.
0.657299 0.0790101 0.
0.659549 0.0783847 0.
0.66179 0.077721 0.
0.664026 0.077034 0.
0.66625 0.076326 0.
0.668459 0.0755719 0.
0.670656 0.0748081 0.
0.672847 0.0740427 0.
0.675025 0.0732517 0.
0.677196 0.0724487 0.
0.679361 0.0716426 0.
0.681515 0.0708154 0.
0.683671 0.0699826 0.
0.685821 0.069154 0.
0.687971 0.0683142 0.
0.690125 0.0674616 0.
0.69228 0.0666076 0.
0.694438 0.0657718 0.
0.696599 0.0649715 0.
0.69876 0.0642294 0.
0.700923 0.063543 0.
0.703079 0.0629816 0.
0.705227 0.0625671 0.
0.707369 0.0622751 0.
0.491069 0.0642082 0.
0.493187 0.0645093 0.
0.495316 0.0649882 0.
0.497448 0.0655727 0.
0.499581 0.066258 0.
0.501715 0.0670156 0.
0.503845 0.067808 0.
0.505972 0.0686362 0.
0.508095 0.0694791 0.
0.510214 0.0703261 0.
0.512335 0.0711609 0.
0.514452 0.0719816 0.
0.516569 0.0727869 0.
0.518695 0.073585 0.
0.520823 0.0743708 0.
0.522963 0.0751388 0.
0.525112 0.07591 0.
0.527275 0.0766672 0.
0.529455 0.0773956 0.
0.531646 0.078122 0.
0.53385 0.0788323 0.
0.536072 0.0794953 0.
0.538304 0.08015 0.
0.540542 0.0808014 0.
0.542789 0.0814116 0.
0.545042 0.0819726 0.
0.547298 0.0825322 0.
0.549558 0.0830764 0.
0.551818 0.0835741 0.
0.554084 0.0840371 0.
0.556347 0.0844963 0.
0.558609 0.084944 0.
0.560872 0.0853293 0.
0.563125 0.0857053 0.
0.565378 0.0860778 0.
0.567619 0.0863582 0.
0.569856 0.0866243 0.
0.572088 0.0868964 0.
0.574299 0.0871294 0.
0.576511 0.0873621 0.
0.578707 0.0875894 0.
0.580893 0.087838 0.
0.58308 0.0880802 0.
0.585225 0.0881615 0.
0.58737 0.0882386 0.
0.589506 0.0883029 0.
0.591618 0.0883445 0.
0.593731 0.0883861 0.
0.595843 0.0884003 0.
0.597956 0.088404 0.
0.600069 0.0884072 0.
0.602184 0.0883758 0.
0.6043 0.0883444 0.
0.606416 0.0883043 0.
0.608535 0.088245 0.
0.610653 0.0881857 0.
0.6128 0.0881008 0.
0.614955 0.0880047 0.
0.617114 0.0878982 0.
0.61931 0.0876311 0.
0.621504 0.0873588 0.
0.623712 0.087118 0.
0.625934 0.0868783 0.
0.628156 0.0866352 0.
0.630396 0.0863248 0.
0.632639 0.0860185 0.
0.634885 0.0857002 0.
0.63714 0.0853082 0.
0.639397 0.0849132 0.
0.641661 0.08451 0.
0.643923 0.084041 0.
0.646184 0.0835489 0.
0.648447 0.0830489 0.
0.650703 0.082515 0.
0.652957 0.081935 0.
0.655206 0.0813438 0.
0.657451 0.0807573 0.
0.659689 0.0801396 0.
0.661917 0.0794868 0.
0.664138 0.078815 0.
0.666346 0.078124 0.
0.668535 0.0773865 0.
0.670712 0.0766409 0.
0.672879 0.0758949 0.
0.67503 0.0751245 0.
0.677172 0.074341 0.
0.679306 0.073555 0.
0.681427 0.0727454 0.
0.68355 0.0719296 0.
0.685666 0.0711135 0.
0.687782 0.0702847 0.
0.689903 0.0694433 0.
0.692025 0.0685981 0.
0.694151 0.0677691 0.
0.696282 0.0669706 0.
0.698414 0.0662281 0.
0.70055 0.0655361 0.
0.702682 0.064962 0.
0.704805 0.0645376 0.
0.706925 0.0642253 0.
0.491508 0.0661808 0.
0.493606 0.0665033 0.
0.495709 0.0669985 0.
0.497814 0.0675904 0.
0.499918 0.0682814 0.
0.502021 0.0690382 0.
0.504116 0.069828 0.
0.506207 0.0706506 0.
0.508294 0.0714828 0.
0.510378 0.0723169 0.
0.512462 0.0731361 0.
0.514546 0.0739402 0.
0.516633 0.07473 0.
0.518727 0.0755119 0.
0.520827 0.0762801 0.
0.522943 0.0770277 0.
0.525069 0.0777787 0.
0.527208 0.0785146 0.
0.529369 0.0792217 0.
0.531541 0.0799292 0.
0.533727 0.0806229 0.
0.535936 0.0812695 0.
0.538156 0.0819091 0.
0.540383 0.082549 0.
0.542621 0.0831535 0.
0.544867 0.0837114 0.
0.547119 0.084265 0.
0.549375 0.084808 0.
0.551632 0.0853037 0.
0.553896 0.0857662 0.
0.556158 0.0862288 0.
0.558418 0.0866791 0.
0.560681 0.0870707 0.
0.562936 0.0874521 0.
0.56519 0.0878303 0.
0.567434 0.0881248 0.
0.569675 0.0884029 0.
0.571912 0.0886873 0.
0.574128 0.0889284 0.
0.576343 0.0891674 0.
0.57855 0.0894091 0.
0.580749 0.0896796 0.
0.58295 0.0899438 0.
0.585122 0.0900395 0.
0.587293 0.0901279 0.
0.589451 0.0902017 0.
0.591576 0.0902439 0.
0.593702 0.090286 0.
0.595828 0.0903 0.
0.597954 0.0903029 0.
0.60008 0.0903052 0.
0.602208 0.0902727 0.
0.604337 0.0902403 0.
0.606466 0.090199 0.
0.608598 0.0901391 0.
0.610729 0.0900792 0.
0.612896 0.089981 0.
0.615074 0.0898696 0.
0.617255 0.0897436 0.
0.619464 0.0894591 0.
0.621672 0.0891695 0.
0.623888 0.088915 0.
0.626114 0.0886648 0.
0.628339 0.0884084 0.
0.630582 0.0880902 0.
0.632827 0.0877767 0.
0.635075 0.0874484 0.
0.637331 0.0870511 0.
0.639588 0.0866514 0.
0.641851 0.0862438 0.
0.644109 0.085774 0.
0.646368 0.0852792 0.
0.648628 0.0847816 0.
0.650878 0.0842509 0.
0.653126 0.0836743 0.
0.655368 0.0830905 0.
0.657605 0.0825106 0.
0.659834 0.0819018 0.
0.66205 0.081262 0.
0.664258 0.0806059 0.
0.666452 0.0799327 0.
0.668623 0.0792125 0.
0.670781 0.0784847 0.
0.672928 0.0777586 0.
0.675055 0.0770101 0.
0.677171 0.0762481 0.
0.679277 0.0754829 0.
0.681368 0.0746901 0.
0.683456 0.0738903 0.
0.685537 0.0730883 0.
0.687619 0.072274 0.
0.689704 0.0714462 0.
0.691791 0.0706115 0.
0.693881 0.0697895 0.
0.695977 0.0689928 0.
0.698078 0.0682495 0.
0.700184 0.0675535 0.
0.702288 0.0669666 0.
0.704385 0.0665326 0.
0.70648 0.0662038 0.
0.491928 0.0681774 0.
0.494 0.068523 0.
0.496075 0.069032 0.
0.498148 0.0696319 0.
0.500218 0.0703288 0.
0.502283 0.0710842 0.
0.504341 0.071869 0.
0.506394 0.0726825 0.
0.508441 0.0735022 0.
0.510487 0.0743219 0.
0.512537 0.0751241 0.
0.514588 0.0759105 0.
0.516646 0.0766837 0.
0.518715 0.0774473 0.
0.520791 0.0781977 0.
0.522885 0.0789251 0.
0.524991 0.079656 0.
0.527111 0.080372 0.
0.529257 0.0810584 0.
0.531414 0.0817453 0.
0.533587 0.0824222 0.
0.535786 0.0830526 0.
0.537999 0.0836757 0.
0.540219 0.0843044 0.
0.542452 0.0849049 0.
0.544694 0.0854587 0.
0.546942 0.0860046 0.
0.549195 0.0865443 0.
0.551451 0.0870375 0.
0.553714 0.0874983 0.
0.555975 0.0879631 0.
0.558235 0.0884152 0.
0.560498 0.0888123 0.
0.562756 0.0891986 0.
0.565014 0.0895816 0.
0.567264 0.0898884 0.
0.56951 0.0901768 0.
0.571754 0.0904704 0.
0.573977 0.0907168 0.
0.576201 0.0909588 0.
0.578419 0.0912075 0.
0.580633 0.091487 0.
0.582847 0.0917595 0.
0.585035 0.0918784 0.
0.587221 0.0919903 0.
0.589395 0.0920827 0.
0.591534 0.0921254 0.
0.593674 0.0921681 0.
0.595813 0.0921821 0.
0.597952 0.0921842 0.
0.600091 0.0921859 0.
0.602232 0.0921523 0.
0.604373 0.0921188 0.
0.606514 0.0920762 0.
0.608658 0.0920151 0.
0.6108 0.0919541 0.
0.612984 0.0918327 0.
0.615178 0.0916949 0.
0.617375 0.0915452 0.
0.619595 0.0912564 0.
0.621815 0.0909614 0.
0.624041 0.0907006 0.
0.626272 0.0904442 0.
0.628505 0.0901782 0.
0.630753 0.0898539 0.
0.633003 0.089534 0.
0.635255 0.0891961 0.
0.637512 0.0887939 0.
0.639771 0.0883903 0.
0.642033 0.0879789 0.
0.644291 0.0875096 0.
0.646548 0.087014 0.
0.648806 0.0865202 0.
0.651053 0.0859935 0.
0.653297 0.0854214 0.
0.655535 0.084846 0.
0.657766 0.0842733 0.
0.659987 0.0836718 0.
0.662196 0.0830444 0.
0.664395 0.0824046 0.
0.666578 0.0817485 0.
0.668736 0.081047 0.
0.670877 0.0803386 0.
0.673007 0.0796313 0.
0.675115 0.078904 0.
0.677208 0.0781641 0.
0.67929 0.0774203 0.
0.681355 0.0766455 0.
0.683415 0.0758626 0.
0.685464 0.0750753 0.
0.687508 0.0742764 0.
0.689556 0.0734638 0.
0.691605 0.0726423 0.
0.693657 0.0718309 0.
0.695715 0.0710392 0.
0.697778 0.0702954 0.
0.699849 0.0695956 0.
0.701923 0.0689956 0.
0.703991 0.0685516 0.
0.706059 0.068209 0.
0.492316 0.0702012 0.
0.494359 0.070571 0.
0.496401 0.0710902 0.
0.498438 0.0716976 0.
0.50047 0.0723964 0.
0.502495 0.0731478 0.
0.504512 0.0739254 0.
0.506523 0.0747294 0.
0.50853 0.0755362 0.
0.51054 0.0763393 0.
0.51256 0.0771228 0.
0.514586 0.0778903 0.
0.516619 0.0786458 0.
0.518667 0.0793916 0.
0.520723 0.0801262 0.
0.5228 0.0808336 0.
0.524891 0.0815441 0.
0.526998 0.082239 0.
0.529134 0.0829039 0.
0.531283 0.0835711 0.
0.533448 0.0842319 0.
0.535642 0.084847 0.
0.53785 0.0854556 0.
0.540065 0.0860723 0.
0.542291 0.0866648 0.
0.544527 0.087212 0.
0.546773 0.0877497 0.
0.549025 0.0882852 0.
0.551279 0.0887754 0.
0.553542 0.089234 0.
0.555805 0.0897005 0.
0.558067 0.0901538 0.
0.560332 0.0905549 0.
0.562593 0.0909452 0.
0.564852 0.0913321 0.
0.567104 0.0916488 0.
0.569353 0.0919462 0.
0.571601 0.0922486 0.
0.573832 0.0925007 0.
0.576063 0.0927464 0.
0.578291 0.0930021 0.
0.580516 0.0932915 0.
0.582744 0.0935745 0.
0.584948 0.0937158 0.
0.587149 0.0938515 0.
0.589339 0.0939637 0.
0.591492 0.094007 0.
0.593646 0.0940502 0.
0.595799 0.0940641 0.
0.597951 0.0940656 0.
0.600103 0.0940665 0.
0.602256 0.0940319 0.
0.604409 0.0939972 0.
0.606563 0.0939534 0.
0.608718 0.0938911 0.
0.610872 0.0938289 0.
0.613073 0.0936827 0.
0.615282 0.0935177 0.
0.617495 0.0933443 0.
0.619726 0.0930486 0.
0.621955 0.0927471 0.
0.624188 0.0924806 0.
0.626424 0.0922202 0.
0.628661 0.0919473 0.
0.630911 0.0916169 0.
0.633162 0.0912904 0.
0.635417 0.0909448 0.
0.637676 0.0905387 0.
0.639937 0.090132 0.
0.642201 0.0897176 0.
0.644459 0.089249 0.
0.646718 0.0887527 0.
0.648974 0.0882631 0.
0.65122 0.087741 0.
0.653462 0.0871747 0.
0.655696 0.0866092 0.
0.657919 0.0860457 0.
0.660134 0.0854532 0.
0.662336 0.0848369 0.
0.664529 0.0842126 0.
0.666707 0.0835736 0.
0.668856 0.0828902 0.
0.670987 0.0822016 0.
0.673104 0.0815154 0.
0.675197 0.0808088 0.
0.677275 0.0800906 0.
0.679338 0.079368 0.
0.681381 0.0786103 0.
0.683416 0.0778446 0.
0.685439 0.0770732 0.
0.687454 0.0762911 0.
0.689467 0.0754954 0.
0.691476 0.0746885 0.
0.693487 0.0738879 0.
0.695503 0.0731025 0.
0.697527 0.0723614 0.
0.69956 0.0716609 0.
0.701598 0.0710506 0.
0.703634 0.0705953 0.
0.705673 0.0702408 0.
0.492645 0.0722456 0.
0.494655 0.0726376 0.
0.496661 0.073165 0.
0.49866 0.0737781 0.
0.50065 0.0744767 0.
0.502632 0.0752231 0.
0.504609 0.0759925 0.
0.506585 0.0767837 0.
0.508563 0.0775751 0.
0.510547 0.0783614 0.
0.512544 0.0791267 0.
0.51455 0.0798746 0.
0.516567 0.0806128 0.
0.518599 0.081343 0.
0.520642 0.0820626 0.
0.522709 0.0827496 0.
0.52479 0.08344 0.
0.52689 0.0841145 0.
0.52902 0.0847594 0.
0.531165 0.0854077 0.
0.533326 0.0860519 0.
0.535514 0.0866521 0.
0.537715 0.0872452 0.
0.539926 0.0878481 0.
0.542148 0.0884323 0.
0.544379 0.0889729 0.
0.546623 0.0895024 0.
0.548875 0.090033 0.
0.551129 0.0905198 0.
0.55339 0.0909754 0.
0.555651 0.0914418 0.
0.557912 0.0918945 0.
0.560175 0.0922985 0.
0.562435 0.0926921 0.
0.564694 0.0930824 0.
0.566949 0.0934084 0.
0.5692 0.0937145 0.
0.571451 0.0940249 0.
0.57369 0.0942821 0.
0.575929 0.0945306 0.
0.578167 0.0947906 0.
0.580405 0.0950847 0.
0.582643 0.095372 0.
0.584862 0.0955334 0.
0.587078 0.0956916 0.
0.589283 0.0958233 0.
0.59145 0.0958665 0.
0.593618 0.0959097 0.
0.595784 0.0959237 0.
0.59795 0.0959252 0.
0.600115 0.0959261 0.
0.60228 0.095891 0.
0.604445 0.095856 0.
0.60661 0.0958116 0.
0.608777 0.0957491 0.
0.610944 0.0956865 0.
0.61316 0.0955166 0.
0.615384 0.0953267 0.
0.61761 0.0951333 0.
0.619851 0.0948341 0.
0.622091 0.0945289 0.
0.624331 0.0942585 0.
0.626571 0.0939946 0.
0.628813 0.0937155 0.
0.631065 0.0933794 0.
0.633317 0.0930469 0.
0.635572 0.0926941 0.
0.637831 0.0922853 0.
0.640091 0.0918769 0.
0.642352 0.0914609 0.
0.644609 0.0909941 0.
0.646867 0.0904982 0.
0.649122 0.0900127 0.
0.651368 0.0894952 0.
0.653608 0.0889353 0.
0.655839 0.0883793 0.
0.658058 0.0878253 0.
0.660266 0.0872429 0.
0.662462 0.0866404 0.
0.664648 0.0860327 0.
0.666819 0.0854103 0.
0.668965 0.0847449 0.
0.671091 0.0840748 0.
0.673201 0.0834082 0.
0.675285 0.0827228 0.
0.677353 0.0820256 0.
0.679404 0.0813242 0.
0.681431 0.0805835 0.
0.683448 0.0798334 0.
0.685451 0.0790776 0.
0.687445 0.0783128 0.
0.689433 0.0775335 0.
0.691413 0.0767424 0.
0.69339 0.0759542 0.
0.695368 0.0751773 0.
0.69735 0.0744395 0.
0.699341 0.0737396 0.
0.701339 0.0731233 0.
0.703342 0.0726578 0.
0.705349 0.0722928 0.
0.492886 0.0743021 0.
0.494863 0.0747142 0.
0.496831 0.075253 0.
0.498791 0.0758729 0.
0.500744 0.0765707 0.
0.502694 0.0773111 0.
0.504642 0.0780713 0.
0.506593 0.0788519 0.
0.50855 0.0796298 0.
0.510516 0.0803985 0.
0.512501 0.0811428 0.
0.514498 0.081868 0.
0.516506 0.0825909 0.
0.518531 0.0833091 0.
0.520566 0.0840153 0.
0.522628 0.0846829 0.
0.524707 0.0853535 0.
0.526803 0.0860055 0.
0.528928 0.086629 0.
0.53107 0.0872569 0.
0.533228 0.0878856 0.
0.535412 0.0884706 0.
0.537608 0.0890476 0.
0.539817 0.0896399 0.
0.542036 0.0902166 0.
0.544262 0.0907458 0.
0.546503 0.0912663 0.
0.54875 0.0917904 0.
0.551 0.0922722 0.
0.553258 0.0927237 0.
0.555519 0.0931902 0.
0.557779 0.0936432 0.
0.560043 0.094049 0.
0.562304 0.0944468 0.
0.564565 0.0948404 0.
0.566821 0.0951722 0.
0.569074 0.0954838 0.
0.571324 0.0957968 0.
0.573566 0.0960568 0.
0.575808 0.0963059 0.
0.578052 0.0965655 0.
0.580296 0.0968622 0.
0.582542 0.097153 0.
0.584775 0.0973338 0.
0.587004 0.0975153 0.
0.589225 0.0976683 0.
0.591407 0.0977124 0.
0.593589 0.0977565 0.
0.595769 0.0977715 0.
0.597948 0.0977738 0.
0.600126 0.0977753 0.
0.602303 0.0977395 0.
0.60448 0.0977039 0.
0.606658 0.0976585 0.
0.608837 0.0975949 0.
0.611016 0.0975313 0.
0.613246 0.0973367 0.
0.615482 0.0971227 0.
0.617718 0.0969113 0.
0.619963 0.0966085 0.
0.622207 0.0963007 0.
0.624451 0.0960307 0.
0.626694 0.0957668 0.
0.628939 0.0954855 0.
0.63119 0.095148 0.
0.633444 0.0948094 0.
0.635701 0.0944513 0.
0.637961 0.0940394 0.
0.640221 0.0936286 0.
0.642482 0.0932121 0.
0.644738 0.0927466 0.
0.646994 0.0922513 0.
0.649245 0.0917711 0.
0.651486 0.0912616 0.
0.653723 0.0907108 0.
0.655952 0.0901639 0.
0.658166 0.0896206 0.
0.660371 0.0890479 0.
0.662563 0.0884565 0.
0.664742 0.0878668 0.
0.666909 0.0872622 0.
0.669051 0.0866146 0.
0.671174 0.0859633 0.
0.673281 0.0853164 0.
0.675361 0.0846519 0.
0.677424 0.0839743 0.
0.67947 0.0832925 0.
0.68149 0.0825691 0.
0.683497 0.0818334 0.
0.685488 0.0810941 0.
0.68747 0.0803495 0.
0.689443 0.0795875 0.
0.691403 0.0788121 0.
0.693355 0.0780342 0.
0.695305 0.0772638 0.
0.697255 0.0765298 0.
0.69921 0.0758303 0.
0.701171 0.075208 0.
0.703138 0.0747308 0.
0.705112 0.0743536 0.
CELLS 5000 10000
1 0
1 1
1 2
1 3
1 4
1 5
1 6
1 7
1 8
1 9
1 10
1 11
1 12
1 13
1 14
1 15
1 16
1 17
1 18
1 19
1 20
1 21
1 22
1 23
1 24
1 25
1 26
1 27
1 28
1 29
1 30
1 31
1 32
1 33
1 34
1 35
1 36
1 37
1 38
1 39
1 40
1 41
1 42
1 43
1 44
1 45
1 46
1 47
1 48
1 49
1 50
1 51
1 52
1 53
1 54
1 55
1 56
1 57
1 58
1 59
1 60
1 61
1 62
1 63
1 64
1 65
1 66
1 67
1 68
1 69
1 70
1 71
1 72
1 73
1 74
1 75
1 76
1 77
1 78
1 79
1 80
1 81
1 82
1 83
1 84
1 85
1 86
1 87
1 88
1 89
1 90
1 91
1 92
1 93
1 94
1 95
1 96
1 97
1 98
1 99
1 100
1 101
1 102
1 103
1 104
1 105
1 106
1 107
1 108
1 109
1 110
1 111
1 112
1 113
1 114
1 115
1 116
1 117
1 118
1 119
1 120
1 121
1 122
1 123
1 124
1 125
1 126
1 127
1 128
1 129
1 130
1 131
1 132
1 133
1 134
1 135
1 136
1 137
1 138
1 139
1 140
1 141
1 142
1 143
1 144
1 145
1 146
1 147
1 148
1 149
1 150
1 151
1 152
1 153
1 154
1 155
1 156
1 157
1 158
1 159
1 160
1 161
1 162
1 163
1 164
1 165
1 166
1 167
1 168
1 169
1 170
1 171
1 172
1 173
1 174
1 175
1 176
1 177
1 178
1 179
1 180
1 181
1 182
1 183
1 184
1 185
1 186
1 187
1 188
1 189
1 190
1 191
1 192
1 193
1 194
1 195
1 196
1 197
1 198
1 199
1 200
1 201
1 202
1 203
1 204
1 205
1 206
1 207
1 208
1 209
1 210
1 211
1 212
1 213
1 214
1 215
1 216
1 217
1 218
1 219
1 220
1 221
1 222
1 223
1 224
1 225
1 226
1 227
1 228
1 229
1 230
1 231
1 232
1 233
1 234
1 235
1 236
1 237
1 238
1 239
1 240
1 241
1 242
1 243
1 244
1 245
1 246
1 247
1 248
1 249
1 250
1 251
1 252
1 253
1 254
1 255
1 256
1 257
1 258
1 259
1 260
1 261
1 262
1 263
1 264
1 265
1 266
1 267
1 268
1 269
1 270
1 271
1 272
1 273
1 274
1 275
1 276
1 277
1 278
1 279
1 280
1 281
1 282
1 283
1 284
1 285
1 286
1 287
1 288
1 289
1 290
1 291
1 292
1 293
1 294
1 295
1 296
1 297
1 298
1 299
1 300
1 301
1 302
1 303
1 304
1 305
1 306
1 307
1 308
1 309
1 310
1 311
1 312
1 313
1 314
1 315
1 316
1 317
1 318
1 319
1 320
1 321
1 322
1 323
1 324
1 325
1 326
1 327
1 328
1 329
1 330
1 331
1 332
1 333
1 334
1 335
1 336
1 337
1 338
1 339
1 340
1 341
1 342
1 343
1 344
1 345
1 346
1 347
1 348
1 349
1 350
1 351
1 352
1 353
1 354
1 355
1 356
1 357
1 358
1 359
1 360
1 361
1 362
1 363
1 364
1 365
1 366
1 367
1 368
1 369
1 370
1 371
1 372
1 373
1 374
1 375
1 376
1 377
1 378
1 379
1 380
1 381
1 382
1 383
1 384
1 385
1 386
1 387
1 388
1 389
1 390
1 391
1 392
1 393
1 394
1 395
1 396
1 397
1 398
1 399
1 400
1 401
1 402
1 403
1 404
1 405
1 406
1 407
1 408
1 409
1 410
1 411
1 412
1 413
1 414
1 415
1 416
1 417
1 418
1 419
1 420
1 421
1 422
1 423
1 424
1 425
1 426
1 427
1 428
1 429
1 430
1 431
1 432
1 433
1 434
1 435
1 436
1 437
1 438
1 439
1 440
1 441
1 442
1 443
1 444
1 445
1 446
1 447
1 448
1 449
1 450
1 451
1 452
1 453
1 454
1 455
1 456
1 457
1 458
1 459
1 460
1 461
1 462
1 463
1 464
1 465
1 466
1 467
1 468
1 469
1 470
1 471
1 472
1 473
1 474
1 475
1 476
1 477
1 478
1 479
1 480
1 481
1 482
1 483
1 484
1 485
1 486
1 487
1 488
1 489
1 490
1 491
1 492
1 493
1 494
1 495
1 496
1 497
1 498
1 499
1 500
1 501
1 502
1 503
1 504
1 505
1 506
1 507
1 508
1 509
1 510
1 511
1 512
1 513
1 514
1 515
1 516
1 517
1 518
1 519
1 520
1 521
1 522
1 523
1 524
1 525
1 526
1 527
1 528
1 529
1 530
1 531
1 532
1 533
1 534
1 535
1 536
1 537
1 538
1 539
1 540
1 541
1 542
1 543
1 544
1 545
1 546
1 547
1 548
1 549
1 550
1 551
1 552
1 553
1 554
1 555
1 556
1 557
1 558
1 559
1 560
1 561
1 562
1 563
1 564
1 565
1 566
1 567
1 568
1 569
1 570
1 571
1 572
1 573
1 574
1 575
1 576
1 577
1 578
1 579
1 580
1 581
1 582
1 583
1 584
1 585
1 586
1 587
1 588
1 589
1 590
1 591
1 592
1 593
1 594
1 595
1 596
1 597
1 598
1 599
1 600
1 601
1 602
1 603
1 604
1 605
1 606
1 607
1 608
1 609
1 610
1 611
1 612
1 613
1 614
1 615
1 616
1 617
1 618
1 619
1 620
1 621
1 622
1 623
1 624
1 625
1 626
1 627
1 628
1 629
1 630
1 631
1 632
1 633
1 634
1 635
1 636
1 637
1 638
1 639
1 640
1 641
1 642
1 643
1 644
1 645
1 646
1 647
1 648
1 649
1 650
1 651
1 652
1 653
1 654
1 655
1 656
1 657
1 658
1 659
1 660
1 661
1 662
1 663
1 664
1 665
1 666
1 667
1 668
1 669
1 670
1 671
1 672
1 673
1 674
1 675
1 676
1 677
1 678
1 679
1 680
1 681
1 682
1 683
1 684
1 685
1 686
1 687
1 688
1 689
1 690
1 691
1 692
1 693
1 694
1 695
1 696
1 697
1 698
1 699
1 700
1 701
1 702
1 703
1 704
1 705
1 706
1 707
1 708
1 709
1 710
1 711
1 712
1 713
1 714
1 715
1 716
1 717
1 718
1 719
1 720
1 721
1 722
1 723
1 724
1 725
1 726
1 727
1 728
1 729
1 730
1 731
1 732
1 733
1 734
1 735
1 736
1 737
1 738
1 739
1 740
1 741
1 742
1 743
1 744
1 745
1 746
1 747
1 748
1 749
1 750
1 751
1 752
1 753
1 754
1 755
1 756
1 757
1 758
1 759
1 760
1 761
1 762
1 763
1 764
1 765
1 766
1 767
1 768
1 769
1 770
1 771
1 772
1 773
1 774
1 775
1 776
1 777
1 778
1 779
1 780
1 781
1 782
1 783
1 784
1 785
1 786
1 787
1 788
1 789
1 790
1 791
1 792
1 793
1 794
1 795
1 796
1 797
1 798
1 799
1 800
1 801
1 802
1 803
1 804
1 805
1 806
1 807
1 808
1 809
1 810
1 811
1 812
1 813
1 814
1 815
1 816
1 817
1 818
1 819
1 820
1 821
1 822
1 823
1 824
1 825
1 826
1 827
1 828
1 829
1 830
1 831
1 832
1 833
1 834
1 835
1 836
1 837
1 838
1 839
1 840
1 841
1 842
1 843
1 844
1 845
1 846
1 847
1 848
1 849
1 850
1 851
1 852
1 853
1 854
1 855
1 856
1 857
1 858
1 859
1 860
1 861
1 862
1 863
1 864
1 865
1 866
1 867
1 868
1 869
1 870
1 871
1 872
1 873
1 874
1 875
1 876
1 877
1 878
1 879
1 880
1 881
1 882
1 883
1 884
1 885
1 886
1 887
1 888
1 889
1 890
1 891
1 892
1 893
1 894
1 895
1 896
1 897
1 898
1 899
1 900
1 901
1 902
1 903
1 904
1 905
1 906
1 907
1 908
1 909
1 910
1 911
1 912
1 913
1 914
1 915
1 916
1 917
1 918
1 919
1 920
1 921
1 922
1 923
1 924
1 925
1 926
1 927
1 928
1 929
1 930
1 931
1 932
1 933
1 934
1 935
1 936
1 937
1 938
1 939
1 940
1 941
1 942
1 943
1 944
1 945
1 946
1 947
1 948
1 949
1 950
1 951
1 952
1 953
1 954
1 955
1 956
1 957
1 958
1 959
1 960
1 961
1 962
1 963
1 964
1 965
1 966
1 967
1 968
1 969
1 970
1 971
1 972
1 973
1 974
1 975
1 976
1 977
1 978
1 979
1 980
1 981
1 982
1 983
1 984
1 985
1 986
1 987
1 988
1 989
1 990
1 991
1 992
1 993
1 994
1 995
1 996
1 997
1 998
1 999
1 1000
1 1001
1 1002
1 1003
1 1004
1 1005
1 1006
1 1007
1 1008
1 1009
1 1010
1 1011
1 1012
1 1013
1 1014
1 1015
1 1016
1 1017
1 1018
1 1019
1 1020
1 1021
1 1022
1 1023
1 1024
1 1025
1 1026
1 1027
1 1028
1 1029
1 1030
1 1031
1 1032
1 1033
1 1034
1 1035
1 1036
1 1037
1 1038
1 1039
1 1040
1 1041
1 1042
1 1043
1 1044
1 1045
1 1046
1 1047
1 1048
1 1049
1 1050
1 1051
1 1052
1 1053
1 1054
1 1055
1 1056
1 1057
1 1058
1 1059
1 1060
1 1061
1 1062
1 1063
1 1064
1 1065
1 1066
1 1067
1 1068
1 1069
1 1070
1 1071
1 1072
1 1073
1 1074
1 1075
1 1076
1 1077
1 1078
1 1079
1 1080
1 1081
1 1082
1 1083
1 1084
1 1085
1 1086
1 1087
1 1088
1 1089
1 1090
1 1091
1 1092
1 1093
1 1094
1 1095
1 1096
1 1097
1 1098
1 1099
1 1100
1 1101
1 1102
1 1103
1 1104
1 1105
1 1106
1 1107
1 1108
1 1109
1 1110
1 1111
1 1112
1 1113
1 1114
1 1115
1 1116
1 1117
1 1118
1 1119
1 1120
1 1121
1 1122
1 1123
1 1124
1 1125
1 1126
1 1127
1 1128
1 1129
1 1130
1 1131
1 1132
1 1133
1 1134
1 1135
1 1136
1 1137
1 1138
1 1139
1 1140
1 1141
1 1142
1 1143
1 1144
1 1145
1 1146
1 1147
1 1148
1 1149
1 1150
1 1151
1 1152
1 1153
1 1154
1 1155
1 1156
1 1157
1 1158
1 1159
1 1160
1 1161
1 1162
1 1163
1 1164
1 1165
1 1166
1 1167
1 1168
1 1169
1 1170
1 1171
1 1172
1 1173
1 1174
1 1175
1 1176
1 1177
1 1178
1 1179
1 1180
1 1181
1 1182
1 1183
1 1184
1 1185
1 1186
1 1187
1 1188
1 1189
1 1190
1 1191
1 1192
1 1193
1 1194
1 1195
1 1196
1 1197
1 1198
1 1199
1 1200
1 1201
1 1202
1 1203
1 1204
1 1205
1 1206
1 1207
1 1208
1 1209
1 1210
1 1211
1 1212
1 1213
1 1214
1 1215
1 1216
1 1217
1 1218
1 1219
1 1220
1 1221
1 1222
1 1223
1 1224
1 1225
1 1226
1 1227
1 1228
1 1229
1 1230
1 1231
1 1232
1 1233
1 1234
1 1235
1 1236
1 1237
1 1238
1 1239
1 1240
1 1241
1 1242
1 1243
1 1244
1 1245
1 1246
1 1247
1 1248
1 1249
1 1250
1 1251
1 1252
1 1253
1 1254
1 1255
1 1256
1 1257
1 1258
1 1259
1 1260
1 1261
1 1262
1 1263
1 1264
1 1265
1 1266
1 1267
1 1268
1 1269
1 1270
1 1271
1 1272
1 1273
1 1274
1 1275
1 1276
1 1277
1 1278
1 1279
1 1280
1 1281
1 1282
1 1283
1 1284
1 1285
1 1286
1 1287
1 1288
1 1289
1 1290
1 1291
1 1292
1 1293
1 1294
1 1295
1 1296
1 1297
1 1298
1 1299
1 1300
1 1301
1 1302
1 1303
1 1304
1 1305
1 1306
1 1307
1 1308
1 1309
1 1310
1 1311
1 1312
1 1313
1 1314
1 1315
1 1316
1 1317
1 1318
1 1319
1 1320
1 1321
1 1322
1 1323
1 1324
1 1325
1 1326
1 1327
1 1328
1 1329
1 1330
1 1331
1 1332
1 1333
1 1334
1 1335
1 1336
1 1337
1 1338
1 1339
1 1340
1 1341
1 1342
1 1343
1 1344
1 1345
1 1346
1 1347
1 1348
1 1349
1 1350
1 1351
1 1352
1 1353
1 1354
1 1355
1 1356
1 1357
1 1358
1 1359
1 1360
1 1361
1 1362
1 1363
1 1364
1 1365
1 1366
1 1367
1 1368
1 1369
1 1370
1 1371
1 1372
1 1373
1 1374
1 1375
1 1376
1 1377
1 1378
1 1379
1 1380
1 1381
1 1382
1 1383
1 1384
1 1385
1 1386
1 1387
1 1388
1 1389
1 1390
1 1391
1 1392
1 1393
1 1394
1 1395
1 1396
1 1397
1 1398
1 1399
1 1400
1 1401
1 1402
1 1403
1 1404
1 1405
1 1406
1 1407
1 1408
1 1409
1 1410
1 1411
1 1412
1 1413
1 1414
1 1415
1 1416
1 1417
1 1418
1 1419
1 1420
1 1421
1 1422
1 1423
1 1424
1 1425
1 1426
1 1427
1 1428
1 1429
1 1430
1 1431
1 1432
1 1433
1 1434
1 1435
1 1436
1 1437
1 1438
1 1439
1 1440
1 1441
1 1442
1 1443
1 1444
1 1445
1 1446
1 1447
1 1448
1 1449
1 1450
1 1451
1 1452
1 1453
1 1454
1 1455
1 1456
1 1457
1 1458
1 1459
1 1460
1 1461
1 1462
1 1463
1 1464
1 1465
1 1466
1 1467
1 1468
1 1469
1 1470
1 1471
1 1472
1 1473
1 1474
1 1475
1 1476
1 1477
1 1478
1 1479
1 1480
1 1481
1 1482
1 1483
1 1484
1 1485
1 1486
1 1487
1 1488
1 1489
1 1490
1 1491
1 1492
1 1493
1 1494
1 1495
1 1496
1 1497
1 1498
1 1499
1 1500
1 1501
1 1502
1 1503
1 1504
1 1505
1 1506
1 1507
1 1508
1 1509
1 1510
1 1511
1 1512
1 1513
1 1514
1 1515
1 1516
1 1517
1 1518
1 1519
1 1520
1 1521
1 1522
1 1523
1 1524
1 1525
1 1526
1 1527
1 1528
1 1529
1 1530
1 1531
1 1532
1 1533
1 1534
1 1535
1 1536
1 1537
1 1538
1 1539
1 1540
1 1541
1 1542
1 1543
1 1544
1 1545
1 1546
1 1547
1 1548
1 1549
1 1550
1 1551
1 1552
1 1553
1 1554
1 1555
1 1556
1 1557
1 1558
1 1559
1 1560
1 1561
1 1562
1 1563
1 1564
1 1565
1 1566
1 1567
1 1568
1 1569
1 1570
1 1571
1 1572
1 1573
1 1574
1 1575
1 1576
1 1577
1 1578
1 1579
1 1580
1 1581
1 1582
1 1583
1 1584
1 1585
1 1586
1 1587
1 1588
1 1589
1 1590
1 1591
1 1592
1 1593
1 1594
1 1595
1 1596
1 1597
1 1598
1 1599
1 1600
1 1601
1 1602
1 1603
1 1604
1 1605
1 1606
1 1607
1 1608
1 1609
1 1610
1 1611
1 1612
1 1613
1 1614
1 1615
1 1616
1 1617
1 1618
1 1619
1 1620
1 1621
1 1622
1 1623
1 1624
1 1625
1 1626
1 1627
1 1628
1 1629
1 1630
1 1631
1 1632
1 1633
1 1634
1 1635
1 1636
1 1637
1 1638
1 1639
1 1640
1 1641
1 1642
1 1643
1 1644
1 1645
1 1646
1 1647
1 1648
1 1649
1 1650
1 1651
1 1652
1 1653
1 1654
1 1655
1 1656
1 1657
1 1658
1 1659
1 1660
1 1661
1 1662
1 1663
1 1664
1 1665
1 1666
1 1667
1 1668
1 1669
1 1670
1 1671
1 1672
1 1673
1 1674
1 1675
1 1676
1 1677
1 1678
1 1679
1 1680
1 1681
1 1682
1 1683
1 1684
1 1685
1 1686
1 1687
1 1688
1 1689
1 1690
1 1691
1 1692
1 1693
1 1694
1 1695
1 1696
1 1697
1 1698
1 1699
1 1700
1 1701
1 1702
1 1703
1 1704
1 1705
1 1706
1 1707
1 1708
1 1709
1 1710
1 1711
1 1712
1 1713
1 1714
1 1715
1 1716
1 1717
1 1718
1 1719
1 1720
1 1721
1 1722
1 1723
1 1724
1 1725
1 1726
1 1727
1 1728
1 1729
1 1730
1 1731
1 1732
1 1733
1 1734
1 1735
1 1736
1 1737
1 1738
1 1739
1 1740
1 1741
1 1742
1 1743
1 1744
1 1745
1 1746
1 1747
1 1748
1 1749
1 1750
1 1751
1 1752
1 1753
1 1754
1 1755
1 1756
1 1757
1 1758
1 1759
1 1760
1 1761
1 1762
1 1763
1 1764
1 1765
1 1766
1 1767
1 1768
1 1769
1 1770
1 1771
1 1772
1 1773
1 1774
1 1775
1 1776
1 1777
1 1778
1 1779
1 1780
1 1781
1 1782
1 1783
1 1784
1 1785
1 1786
1 1787
1 1788
1 1789
1 1790
1 1791
1 1792
1 1793
1 1794
1 1795
1 1796
1 1797
1 1798
1 1799
1 1800
1 1801
1 1802
1 1803
1 1804
1 1805
1 1806
1 1807
1 1808
1 1809
1 1810
1 1811
1 1812
1 1813
1 1814
1 1815
1 1816
1 1817
1 1818
1 1819
1 1820
1 1821
1 1822
1 1823
1 1824
1 1825
1 1826
1 1827
1 1828
1 1829
1 1830
1 1831
1 1832
1 1833
1 1834
1 1835
1 1836
1 1837
1 1838
1 1839
1 1840
1 1841
1 1842
1 1843
1 1844
1 1845
1 1846
1 1847
1 1848
1 1849
1 1850
1 1851
1 1852
1 1853
1 1854
1 1855
1 1856
1 1857
1 1858
1 1859
1 1860
1 1861
1 1862
1 1863
1 1864
1 1865
1 1866
1 1867
1 1868
1 1869
1 1870
1 1871
1 1872
1 1873
1 1874
1 1875
1 1876
1 1877
1 1878
1 1879
1 1880
1 1881
1 1882
1 1883
1 1884
1 1885
1 1886
1 1887
1 1888
1 1889
1 1890
1 1891
1 1892
1 1893
1 1894
1 1895
1 1896
1 1897
1 1898
1 1899
1 1900
1 1901
1 1902
1 1903
1 1904
1 1905
1 1906
1 1907
1 1908
1 1909
1 1910
1 1911
1 1912
1 1913
1 1914
1 1915
1 1916
1 1917
1 1918
1 1919
1 1920
1 1921
1 1922
1 1923
1 1924
1 1925
1 1926
1 1927
1 1928
1 1929
1 1930
1 1931
1 1932
1 1933
1 1934
1 1935
1 1936
1 1937
1 1938
1 1939
1 1940
1 1941
1 1942
1 1943
1 1944
1 1945
1 1946
1 1947
1 1948
1 1949
1 1950
1 1951
1 1952
1 1953
1 1954
1 1955
1 1956
1 1957
1 1958
1 1959
1 1960
1 1961
1 1962
1 1963
1 1964
1 1965
1 1966
1 1967
1 1968
1 1969
1 1970
1 1971
1 1972
1 1973
1 1974
1 1975
1 1976
1 1977
1 1978
1 1979
1 1980
1 1981
1 1982
1 1983
1 1984
1 1985
1 1986
1 1987
1 1988
1 1989
1 1990
1 1991
1 1992
1 1993
1 1994
1 1995
1 1996
1 1997
1 1998
1 1999
1 2000
1 2001
1 2002
1 2003
1 2004
1 2005
1 2006
1 2007
1 2008
1 2009
1 2010
1 2011
1 2012
1 2013
1 2014
1 2015
1 2016
1 2017
1 2018
1 2019
1 2020
1 2021
1 2022
1 2023
1 2024
1 2025
1 2026
1 2027
1 2028
1 2029
1 2030
1 2031
1 2032
1 2033
1 2034
1 2035
1 2036
1 2037
1 2038
1 2039
1 2040
1 2041
1 2042
1 2043
1 2044
1 2045
1 2046
1 2047
1 2048
1 2049
1 2050
1 2051
1 2052
1 2053
1 2054
1 2055
1 2056
1 2057
1 2058
1 2059
1 2060
1 2061
1 2062
1 2063
1 2064
1 2065
1 2066
1 2067
1 2068
1 2069
1 2070
1 2071
1 2072
1 2073
1 2074
1 2075
1 2076
1 2077
1 2078
1 2079
1 2080
1 2081
1 2082
1 2083
1 2084
1 2085
1 2086
1 2087
1 2088
1 2089
1 2090
1 2091
1 2092
1 2093
1 2094
1 2095
1 2096
1 2097
1 2098
1 2099
1 2100
1 2101
1 2102
1 2103
1 2104
1 2105
1 2106
1 2107
1 2108
1 2109
1 2110
1 2111
1 2112
1 2113
1 2114
1 2115
1 2116
1 2117
1 2118
1 2119
1 2120
1 2121
1 2122
1 2123
1 2124
1 2125
1 2126
1 2127
1 2128
1 2129
1 2130
1 2131
1 2132
1 2133
1 2134
1 2135
1 2136
1 2137
1 2138
1 2139
1 2140
1 2141
1 2142
1 2143
1 2144
1 2145
1 2146
1 2147
1 2148
1 2149
1 2150
1 2151
1 2152
1 2153
1 2154
1 2155
1 2156
1 2157
1 2158
1 2159
1 2160
1 2161
1 2162
1 2163
1 2164
1 2165
1 2166
1 2167
1 2168
1 2169
1 2170
1 2171
1 2172
1 2173
1 2174
1 2175
1 2176
1 2177
1 2178
1 2179
1 2180
1 2181
1 2182
1 2183
1 2184
1 2185
1 2186
1 2187
1 2188
1 2189
1 2190
1 2191
1 2192
1 2193
1 2194
1 2195
1 2196
1 2197
1 2198
1 2199
1 2200
1 2201
1 2202
1 2203
1 2204
1 2205
1 2206
1 2207
1 2208
1 2209
1 2210
1 2211
1 2212
1 2213
1 2214
1 2215
1 2216
1 2217
1 2218
1 2219
1 2220
1 2221
1 2222
1 2223
1 2224
1 2225
1 2226
1 2227
1 2228
1 2229
1 2230
1 2231
1 2232
1 2233
1 2234
1 2235
1 2236
1 2237
1 2238
1 2239
1 2240
1 2241
1 2242
1 2243
1 2244
1 2245
1 2246
1 2247
1 2248
1 2249
1 2250
1 2251
1 2252
1 2253
1 2254
1 2255
1 2256
1 2257
1 2258
1 2259
1 2260
1 2261
1 2262
1 2263
1 2264
1 2265
1 2266
1 2267
1 2268
1 2269
1 2270
1 2271
1 2272
1 2273
1 2274
1 2275
1 2276
1 2277
1 2278
1 2279
1 2280
1 2281
1 2282
1 2283
1 2284
1 2285
1 2286
1 2287
1 2288
1 2289
1 2290
1 2291
1 2292
1 2293
1 2294
1 2295
1 2296
1 2297
1 2298
1 2299
1 2300
1 2301
1 2302
1 2303
1 2304
1 2305
1 2306
1 2307
1 2308
1 2309
1 2310
1 2311
1 2312
1 2313
1 2314
1 2315
1 2316
1 2317
1 2318
1 2319
1 2320
1 2321
1 2322
1 2323
1 2324
1 2325
1 2326
1 2327
1 2328
1 2329
1 2330
1 2331
1 2332
1 2333
1 2334
1 2335
1 2336
1 2337
1 2338
1 2339
1 2340
1 2341
1 2342
1 2343
1 2344
1 2345
1 2346
1 2347
1 2348
1 2349
1 2350
1 2351
1 2352
1 2353
1 2354
1 2355
1 2356
1 2357
1 2358
1 2359
1 2360
1 2361
1 2362
1 2363
1 2364
1 2365
1 2366
1 2367
1 2368
1 2369
1 2370
1 2371
1 2372
1 2373
1 2374
1 2375
1 2376
1 2377
1 2378
1 2379
1 2380
1 2381
1 2382
1 2383
1 2384
1 2385
1 2386
1 2387
1 2388
1 2389
1 2390
1 2391
1 2392
1 2393
1 2394
1 2395
1 2396
1 2397
1 2398
1 2399
1 2400
1 2401
1 2402
1 2403
1 2404
1 2405
1 2406
1 2407
1 2408
1 2409
1 2410
1 2411
1 2412
1 2413
1 2414
1 2415
1 2416
1 2417
1 2418
1 2419
1 2420
1 2421
1 2422
1 2423
1 2424
1 2425
1 2426
1 2427
1 2428
1 2429
1 2430
1 2431
1 2432
1 2433
1 2434
1 2435
1 2436
1 2437
1 2438
1 2439
1 2440
1 2441
1 2442
1 2443
1 2444
1 2445
1 2446
1 2447
1 2448
1 2449
1 2450
1 2451
1 2452
1 2453
1 2454
1 2455
1 2456
1 2457
1 2458
1 2459
1 2460
1 2461
1 2462
1 2463
1 2464
1 2465
1 2466
1 2467
1 2468
1 2469
1 2470
1 2471
1 2472
1 2473
1 2474
1 2475
1 2476
1 2477
1 2478
1 2479
1 2480
1 2481
1 2482
1 2483
1 2484
1 2485
1 2486
1 2487
1 2488
1 2489
1 2490
1 2491
1 2492
1 2493
1 2494
1 2495
1 2496
1 2497
1 2498
1 2499
1 2500
1 2501
1 2502
1 2503
1 2504
1 2505
1 2506
1 2507
1 2508
1 2509
1 2510
1 2511
1 2512
1 2513
1 2514
1 2515
1 2516
1 2517
1 2518
1 2519
1 2520
1 2521
1 2522
1 2523
1 2524
1 2525
1 2526
1 2527
1 2528
1 2529
1 2530
1 2531
1 2532
1 2533
1 2534
1 2535
1 2536
1 2537
1 2538
1 2539
1 2540
1 2541
1 2542
1 2543
1 2544
1 2545
1 2546
1 2547
1 2548
1 2549
1 2550
1 2551
1 2552
1 2553
1 2554
1 2555
1 2556
1 2557
1 2558
1 2559
1 2560
1 2561
1 2562
1 2563
1 2564
1 2565
1 2566
1 2567
1 2568
1 2569
1 2570
1 2571
1 2572
1 2573
1 2574
1 2575
1 2576
1 2577
1 2578
1 2579
1 2580
1 2581
1 2582
1 2583
1 2584
1 2585
1 2586
1 2587
1 2588
1 2589
1 2590
1 2591
1 2592
1 2593
1 2594
1 2595
1 2596
1 2597
1 2598
1 2599
1 2600
1 2601
1 2602
1 2603
1 2604
1 2605
1 2606
1 2607
1 2608
1 2609
1 2610
1 2611
1 2612
1 2613
1 2614
1 2615
1 2616
1 2617
1 2618
1 2619
1 2620
1 2621
1 2622
1 2623
1 2624
1 2625
1 2626
1 2627
1 2628
1 2629
1 2630
1 2631
1 2632
1 2633
1 2634
1 2635
1 2636
1 2637
1 2638
1 2639
1 2640
1 2641
1 2642
1 2643
1 2644
1 2645
1 2646
1 2647
1 2648
1 2649
1 2650
1 2651
1 2652
1 2653
1 2654
1 2655
1 2656
1 2657
1 2658
1 2659
1 2660
1 2661
1 2662
1 2663
1 2664
1 2665
1 2666
1 2667
1 2668
1 2669
1 2670
1 2671
1 2672
1 2673
1 2674
1 2675
1 2676
1 2677
1 2678
1 2679
1 2680
1 2681
1 2682
1 2683
1 2684
1 2685
1 2686
1 2687
1 2688
1 2689
1 2690
1 2691
1 2692
1 2693
1 2694
1 2695
1 2696
1 2697
1 2698
1 2699
1 2700
1 2701
1 2702
1 2703
1 2704
1 2705
1 2706
1 2707
1 2708
1 2709
1 2710
1 2711
1 2712
1 2713
1 2714
1 2715
1 2716
1 2717
1 2718
1 2719
1 2720
1 2721
1 2722
1 2723
1 2724
1 2725
1 2726
1 2727
1 2728
1 2729
1 2730
1 2731
1 2732
1 2733
1 2734
1 2735
1 2736
1 2737
1 2738
1 2739
1 2740
1 2741
1 2742
1 2743
1 2744
1 2745
1 2746
1 2747
1 2748
1 2749
1 2750
1 2751
1 2752
1 2753
1 2754
1 2755
1 2756
1 2757
1 2758
1 2759
1 2760
1 2761
1 2762
1 2763
1 2764
1 2765
1 2766
1 2767
1 2768
1 2769
1 2770
1 2771
1 2772
1 2773
1 2774
1 2775
1 2776
1 2777
1 2778
1 2779
1 2780
1 2781
1 2782
1 2783
1 2784
1 2785
1 2786
1 2787
1 2788
1 2789
1 2790
1 2791
1 2792
1 2793
1 2794
1 2795
1 2796
1 2797
1 2798
1 2799
1 2800
1 2801
1 2802
1 2803
1 2804
1 2805
1 2806
1 2807
1 2808
1 2809
1 2810
1 2811
1 2812
1 2813
1 2814
1 2815
1 2816
1 2817
1 2818
1 2819
1 2820
1 2821
1 2822
1 2823
1 2824
1 2825
1 2826
1 2827
1 2828
1 2829
1 2830
1 2831
1 2832
1 2833
1 2834
1 2835
1 2836
1 2837
1 2838
1 2839
1 2840
1 2841
1 2842
1 2843
1 2844
1 2845
1 2846
1 2847
1 2848
1 2849
1 2850
1 2851
1 2852
1 2853
1 2854
1 2855
1 2856
1 2857
1 2858
1 2859
1 2860
1 2861
1 2862
1 2863
1 2864
1 2865
1 2866
1 2867
1 2868
1 2869
1 2870
1 2871
1 2872
1 2873
1 2874
1 2875
1 2876
1 2877
1 2878
1 2879
1 2880
1 2881
1 2882
1 2883
1 2884
1 2885
1 2886
1 2887
1 2888
1 2889
1 2890
1 2891
1 2892
1 2893
1 2894
1 2895
1 2896
1 2897
1 2898
1 2899
1 2900
1 2901
1 2902
1 2903
1 2904
1 2905
1 2906
1 2907
1 2908
1 2909
1 2910
1 2911
1 2912
1 2913
1 2914
1 2915
1 2916
1 2917
1 2918
1 2919
1 2920
1 2921
1 2922
1 2923
1 2924
1 2925
1 2926
1 2927
1 2928
1 2929
1 2930
1 2931
1 2932
1 2933
1 2934
1 2935
1 2936
1 2937
1 2938
1 2939
1 2940
1 2941
1 2942
1 2943
1 2944
1 2945
1 2946
1 2947
1 2948
1 2949
1 2950
1 2951
1 2952
1 2953
1 2954
1 2955
1 2956
1 2957
1 2958
1 2959
1 2960
1 2961
1 2962
1 2963
1 2964
1 2965
1 2966
1 2967
1 2968
1 2969
1 2970
1 2971
1 2972
1 2973
1 2974
1 2975
1 2976
1 2977
1 2978
1 2979
1 2980
1 2981
1 2982
1 2983
1 2984
1 2985
1 2986
1 2987
1 2988
1 2989
1 2990
1 2991
1 2992
1 2993
1 2994
1 2995
1 2996
1 2997
1 2998
1 2999
1 3000
1 3001
1 3002
1 3003
1 3004
1 3005
1 3006
1 3007
1 3008
1 3009
1 3010
1 3011
1 3012
1 3013
1 3014
1 3015
1 3016
1 3017
1 3018
1 3019
1 3020
1 3021
1 3022
1 3023
1 3024
1 3025
1 3026
1 3027
1 3028
1 3029
1 3030
1 3031
1 3032
1 3033
1 3034
1 3035
1 3036
1 3037
1 3038
1 3039
1 3040
1 3041
1 3042
1 3043
1 3044
1 3045
1 3046
1 3047
1 3048
1 3049
1 3050
1 3051
1 3052
1 3053
1 3054
1 3055
1 3056
1 3057
1 3058
1 3059
1 3060
1 3061
1 3062
1 3063
1 3064
1 3065
1 3066
1 3067
1 3068
1 3069
1 3070
1 3071
1 3072
1 3073
1 3074
1 3075
1 3076
1 3077
1 3078
1 3079
1 3080
1 3081
1 3082
1 3083
1 3084
1 3085
1 3086
1 3087
1 3088
1 3089
1 3090
1 3091
1 3092
1 3093
1 3094
1 3095
1 3096
1 3097
1 3098
1 3099
1 3100
1 3101
1 3102
1 3103
1 3104
1 3105
1 3106
1 3107
1 3108
1 3109
1 3110
1 3111
1 3112
1 3113
1 3114
1 3115
1 3116
1 3117
1 3118
1 3119
1 3120
1 3121
1 3122
1 3123
1 3124
1 3125
1 3126
1 3127
1 3128
1 3129
1 3130
1 3131
1 3132
1 3133
1 3134
1 3135
1 3136
1 3137
1 3138
1 3139
1 3140
1 3141
1 3142
1 3143
1 3144
1 3145
1 3146
1 3147
1 3148
1 3149
1 3150
1 3151
1 3152
1 3153
1 3154
1 3155
1 3156
1 3157
1 3158
1 3159
1 3160
1 3161
1 3162
1 3163
1 3164
1 3165
1 3166
1 3167
1 3168
1 3169
1 3170
1 3171
1 3172
1 3173
1 3174
1 3175
1 3176
1 3177
1 3178
1 3179
1 3180
1 3181
1 3182
1 3183
1 3184
1 3185
1 3186
1 3187
1 3188
1 3189
1 3190
1 3191
1 3192
1 3193
1 3194
1 3195
1 3196
1 3197
1 3198
1 3199
1 3200
1 3201
1 3202
1 3203
1 3204
1 3205
1 3206
1 3207
1 3208
1 3209
1 3210
1 3211
1 3212
1 3213
1 3214
1 3215
1 3216
1 3217
1 3218
1 3219
1 3220
1 3221
1 3222
1 3223
1 3224
1 3225
1 3226
1 3227
1 3228
1 3229
1 3230
1 3231
1 3232
1 3233
1 3234
1 3235
1 3236
1 3237
1 3238
1 3239
1 3240
1 3241
1 3242
1 3243
1 3244
1 3245
1 3246
1 3247
1 3248
1 3249
1 3250
1 3251
1 3252
1 3253
1 3254
1 3255
1 3256
1 3257
1 3258
1 3259
1 3260
1 3261
1 3262
1 3263
1 3264
1 3265
1 3266
1 3267
1 3268
1 3269
1 3270
1 3271
1 3272
1 3273
1 3274
1 3275
1 3276
1 3277
1 3278
1 3279
1 3280
1 3281
1 3282
1 3283
1 3284
1 3285
1 3286
1 3287
1 3288
1 3289
1 3290
1 3291
1 3292
1 3293
1 3294
1 3295
1 3296
1 3297
1 3298
1 3299
1 3300
1 3301
1 3302
1 3303
1 3304
1 3305
1 3306
1 3307
1 3308
1 3309
1 3310
1 3311
1 3312
1 3313
1 3314
1 3315
1 3316
1 3317
1 3318
1 3319
1 3320
1 3321
1 3322
1 3323
1 3324
1 3325
1 3326
1 3327
1 3328
1 3329
1 3330
1 3331
1 3332
1 3333
1 3334
1 3335
1 3336
1 3337
1 3338
1 3339
1 3340
1 3341
1 3342
1 3343
1 3344
1 3345
1 3346
1 3347
1 3348
1 3349
1 3350
1 3351
1 3352
1 3353
1 3354
1 3355
1 3356
1 3357
1 3358
1 3359
1 3360
1 3361
1 3362
1 3363
1 3364
1 3365
1 3366
1 3367
1 3368
1 3369
1 3370
1 3371
1 3372
1 3373
1 3374
1 3375
1 3376
1 3377
1 3378
1 3379
1 3380
1 3381
1 3382
1 3383
1 3384
1 3385
1 3386
1 3387
1 3388
1 3389
1 3390
1 3391
1 3392
1 3393
1 3394
1 3395
1 3396
1 3397
1 3398
1 3399
1 3400
1 3401
1 3402
1 3403
1 3404
1 3405
1 3406
1 3407
1 3408
1 3409
1 3410
1 3411
1 3412
1 3413
1 3414
1 3415
1 3416
1 3417
1 3418
1 3419
1 3420
1 3421
1 3422
1 3423
1 3424
1 3425
1 3426
1 3427
1 3428
1 3429
1 3430
1 3431
1 3432
1 3433
1 3434
1 3435
1 3436
1 3437
1 3438
1 3439
1 3440
1 3441
1 3442
1 3443
1 3444
1 3445
1 3446
1 3447
1 3448
1 3449
1 3450
1 3451
1 3452
1 3453
1 3454
1 3455
1 3456
1 3457
1 3458
1 3459
1 3460
1 3461
1 3462
1 3463
1 3464
1 3465
1 3466
1 3467
1 3468
1 3469
1 3470
1 3471
1 3472
1 3473
1 3474
1 3475
1 3476
1 3477
1 3478
1 3479
1 3480
1 3481
1 3482
1 3483
1 3484
1 3485
1 3486
1 3487
1 3488
1 3489
1 3490
1 3491
1 3492
1 3493
1 3494
1 3495
1 3496
1 3497
1 3498
1 3499
1 3500
1 3501
1 3502
1 3503
1 3504
1 3505
1 3506
1 3507
1 3508
1 3509
1 3510
1 3511
1 3512
1 3513
1 3514
1 3515
1 3516
1 3517
1 3518
1 3519
1 3520
1 3521
1 3522
1 3523
1 3524
1 3525
1 3526
1 3527
1 3528
1 3529
1 3530
1 3531
1 3532
1 3533
1 3534
1 3535
1 3536
1 3537
1 3538
1 3539
1 3540
1 3541
1 3542
1 3543
1 3544
1 3545
1 3546
1 3547
1 3548
1 3549
1 3550
1 3551
1 3552
1 3553
1 3554
1 3555
1 3556
1 3557
1 3558
1 3559
1 3560
1 3561
1 3562
1 3563
1 3564
1 3565
1 3566
1 3567
1 3568
1 3569
1 3570
1 3571
1 3572
1 3573
1 3574
1 3575
1 3576
1 3577
1 3578
1 3579
1 3580
1 3581
1 3582
1 3583
1 3584
1 3585
1 3586
1 3587
1 3588
1 3589
1 3590
1 3591
1 3592
1 3593
1 3594
1 3595
1 3596
1 3597
1 3598
1 3599
1 3600
1 3601
1 3602
1 3603
1 3604
1 3605
1 3606
1 3607
1 3608
1 3609
1 3610
1 3611
1 3612
1 3613
1 3614
1 3615
1 3616
1 3617
1 3618
1 3619
1 3620
1 3621
1 3622
1 3623
1 3624
1 3625
1 3626
1 3627
1 3628
1 3629
1 3630
1 3631
1 3632
1 3633
1 3634
1 3635
1 3636
1 3637
1 3638
1 3639
1 3640
1 3641
1 3642
1 3643
1 3644
1 3645
1 3646
1 3647
1 3648
1 3649
1 3650
1 3651
1 3652
1 3653
1 3654
1 3655
1 3656
1 3657
1 3658
1 3659
1 3660
1 3661
1 3662
1 3663
1 3664
1 3665
1 3666
1 3667
1 3668
1 3669
1 3670
1 3671
1 3672
1 3673
1 3674
1 3675
1 3676
1 3677
1 3678
1 3679
1 3680
1 3681
1 3682
1 3683
1 3684
1 3685
1 3686
1 3687
1 3688
1 3689
1 3690
1 3691
1 3692
1 3693
1 3694
1 3695
1 3696
1 3697
1 3698
1 3699
1 3700
1 3701
1 3702
1 3703
1 3704
1 3705
1 3706
1 3707
1 3708
1 3709
1 3710
1 3711
1 3712
1 3713
1 3714
1 3715
1 3716
1 3717
1 3718
1 3719
1 3720
1 3721
1 3722
1 3723
1 3724
1 3725
1 3726
1 3727
1 3728
1 3729
1 3730
1 3731
1 3732
1 3733
1 3734
1 3735
1 3736
1 3737
1 3738
1 3739
1 3740
1 3741
1 3742
1 3743
1 3744
1 3745
1 3746
1 3747
1 3748
1 3749
1 3750
1 3751
1 3752
1 3753
1 3754
1 3755
1 3756
1 3757
1 3758
1 3759
1 3760
1 3761
1 3762
1 3763
1 3764
1 3765
1 3766
1 3767
1 3768
1 3769
1 3770
1 3771
1 3772
1 3773
1 3774
1 3775
1 3776
1 3777
1 3778
1 3779
1 3780
1 3781
1 3782
1 3783
1 3784
1 3785
1 3786
1 3787
1 3788
1 3789
1 3790
1 3791
1 3792
1 3793
1 3794
1 3795
1 3796
1 3797
1 3798
1 3799
1 3800
1 3801
1 3802
1 3803
1 3804
1 3805
1 3806
1 3807
1 3808
1 3809
1 3810
1 3811
1 3812
1 3813
1 3814
1 3815
1 3816
1 3817
1 3818
1 3819
1 3820
1 3821
1 3822
1 3823
1 3824
1 3825
1 3826
1 3827
1 3828
1 3829
1 3830
1 3831
1 3832
1 3833
1 3834
1 3835
1 3836
1 3837
1 3838
1 3839
1 3840
1 3841
1 3842
1 3843
1 3844
1 3845
1 3846
1 3847
1 3848
1 3849
1 3850
1 3851
1 3852
1 3853
1 3854
1 3855
1 3856
1 3857
1 3858
1 3859
1 3860
1 3861
1 3862
1 3863
1 3864
1 3865
1 3866
1 3867
1 3868
1 3869
1 3870
1 3871
1 3872
1 3873
1 3874
1 3875
1 3876
1 3877
1 3878
1 3879
1 3880
1 3881
1 3882
1 3883
1 3884
1 3885
1 3886
1 3887
1 3888
1 3889
1 3890
1 3891
1 3892
1 3893
1 3894
1 3895
1 3896
1 3897
1 3898
1 3899
1 3900
1 3901
1 3902
1 3903
1 3904
1 3905
1 3906
1 3907
1 3908
1 3909
1 3910
1 3911
1 3912
1 3913
1 3914
1 3915
1 3916
1 3917
1 3918
1 3919
1 3920
1 3921
1 3922
1 3923
1 3924
1 3925
1 3926
1 3927
1 3928
1 3929
1 3930
1 3931
1 3932
1 3933
1 3934
1 3935
1 3936
1 3937
1 3938
1 3939
1 3940
1 3941
1 3942
1 3943
1 3944
1 3945
1 3946
1 3947
1 3948
1 3949
1 3950
1 3951
1 3952
1 3953
1 3954
1 3955
1 3956
1 3957
1 3958
1 3959
1 3960
1 3961
1 3962
1 3963
1 3964
1 3965
1 3966
1 3967
1 3968
1 3969
1 3970
1 3971
1 3972
1 3973
1 3974
1 3975
1 3976
1 3977
1 3978
1 3979
1 3980
1 3981
1 3982
1 3983
1 3984
1 3985
1 3986
1 3987
1 3988
1 3989
1 3990
1 3991
1 3992
1 3993
1 3994
1 3995
1 3996
1 3997
1 3998
1 3999
1 4000
1 4001
1 4002
1 4003
1 4004
1 4005
1 4006
1 4007
1 4008
1 4009
1 4010
1 4011
1 4012
1 4013
1 4014
1 4015
1 4016
1 4017
1 4018
1 4019
1 4020
1 4021
1 4022
1 4023
1 4024
1 4025
1 4026
1 4027
1 4028
1 4029
1 4030
1 4031
1 4032
1 4033
1 4034
1 4035
1 4036
1 4037
1 4038
1 4039
1 4040
1 4041
1 4042
1 4043
1 4044
1 4045
1 4046
1 4047
1 4048
1 4049
1 4050
1 4051
1 4052
1 4053
1 4054
1 4055
1 4056
1 4057
1 4058
1 4059
1 4060
1 4061
1 4062
1 4063
1 4064
1 4065
1 4066
1 4067
1 4068
1 4069
1 4070
1 4071
1 4072
1 4073
1 4074
1 4075
1 4076
1 4077
1 4078
1 4079
1 4080
1 4081
1 4082
1 4083
1 4084
1 4085
1 4086
1 4087
1 4088
1 4089
1 4090
1 4091
1 4092
1 4093
1 4094
1 4095
1 4096
1 4097
1 4098
1 4099
1 4100
1 4101
1 4102
1 4103
1 4104
1 4105
1 4106
1 4107
1 4108
1 4109
1 4110
1 4111
1 4112
1 4113
1 4114
1 4115
1 4116
1 4117
1 4118
1 4119
1 4120
1 4121
1 4122
1 4123
1 4124
1 4125
1 4126
1 4127
1 4128
1 4129
1 4130
1 4131
1 4132
1 4133
1 4134
1 4135
1 4136
1 4137
1 4138
1 4139
1 4140
1 4141
1 4142
1 4143
1 4144
1 4145
1 4146
1 4147
1 4148
1 4149
1 4150
1 4151
1 4152
1 4153
1 4154
1 4155
1 4156
1 4157
1 4158
1 4159
1 4160
1 4161
1 4162
1 4163
1 4164
1 4165
1 4166
1 4167
1 4168
1 4169
1 4170
1 4171
1 4172
1 4173
1 4174
1 4175
1 4176
1 4177
1 4178
1 4179
1 4180
1 4181
1 4182
1 4183
1 4184
1 4185
1 4186
1 4187
1 4188
1 4189
1 4190
1 4191
1 4192
1 4193
1 4194
1 4195
1 4196
1 4197
1 4198
1 4199
1 4200
1 4201
1 4202
1 4203
1 4204
1 4205
1 4206
1 4207
1 4208
1 4209
1 4210
1 4211
1 4212
1 4213
1 4214
1 4215
1 4216
1 4217
1 4218
1 4219
1 4220
1 4221
1 4222
1 4223
1 4224
1 4225
1 4226
1 4227
1 4228
1 4229
1 4230
1 4231
1 4232
1 4233
1 4234
1 4235
1 4236
1 4237
1 4238
1 4239
1 4240
1 4241
1 4242
1 4243
1 4244
1 4245
1 4246
1 4247
1 4248
1 4249
1 4250
1 4251
1 4252
1 4253
1 4254
1 4255
1 4256
1 4257
1 4258
1 4259
1 4260
1 4261
1 4262
1 4263
1 4264
1 4265
1 4266
1 4267
1 4268
1 4269
1 4270
1 4271
1 4272
1 4273
1 4274
1 4275
1 4276
1 4277
1 4278
1 4279
1 4280
1 4281
1 4282
1 4283
1 4284
1 4285
1 4286
1 4287
1 4288
1 4289
1 4290
1 4291
1 4292
1 4293
1 4294
1 4295
1 4296
1 4297
1 4298
1 4299
1 4300
1 4301
1 4302
1 4303
1 4304
1 4305
1 4306
1 4307
1 4308
1 4309
1 4310
1 4311
1 4312
1 4313
1 4314
1 4315
1 4316
1 4317
1 4318
1 4319
1 4320
1 4321
1 4322
1 4323
1 4324
1 4325
1 4326
1 4327
1 4328
1 4329
1 4330
1 4331
1 4332
1 4333
1 4334
1 4335
1 4336
1 4337
1 4338
1 4339
1 4340
1 4341
1 4342
1 4343
1 4344
1 4345
1 4346
1 4347
1 4348
1 4349
1 4350
1 4351
1 4352
1 4353
1 4354
1 4355
1 4356
1 4357
1 4358
1 4359
1 4360
1 4361
1 4362
1 4363
1 4364
1 4365
1 4366
1 4367
1 4368
1 4369
1 4370
1 4371
1 4372
1 4373
1 4374
1 4375
1 4376
1 4377
1 4378
1 4379
1 4380
1 4381
1 4382
1 4383
1 4384
1 4385
1 4386
1 4387
1 4388
1 4389
1 4390
1 4391
1 4392
1 4393
1 4394
1 4395
1 4396
1 4397
1 4398
1 4399
1 4400
1 4401
1 4402
1 4403
1 4404
1 4405
1 4406
1 4407
1 4408
1 4409
1 4410
1 4411
1 4412
1 4413
1 4414
1 4415
1 4416
1 4417
1 4418
1 4419
1 4420
1 4421
1 4422
1 4423
1 4424
1 4425
1 4426
1 4427
1 4428
1 4429
1 4430
1 4431
1 4432
1 4433
1 4434
1 4435
1 4436
1 4437
1 4438
1 4439
1 4440
1 4441
1 4442
1 4443
1 4444
1 4445
1 4446
1 4447
1 4448
1 4449
1 4450
1 4451
1 4452
1 4453
1 4454
1 4455
1 4456
1 4457
1 4458
1 4459
1 4460
1 4461
1 4462
1 4463
1 4464
1 4465
1 4466
1 4467
1 4468
1 4469
1 4470
1 4471
1 4472
1 4473
1 4474
1 4475
1 4476
1 4477
1 4478
1 4479
1 4480
1 4481
1 4482
1 4483
1 4484
1 4485
1 4486
1 4487
1 4488
1 4489
1 4490
1 4491
1 4492
1 4493
1 4494
1 4495
1 4496
1 4497
1 4498
1 4499
1 4500
1 4501
1 4502
1 4503
1 4504
1 4505
1 4506
1 4507
1 4508
1 4509
1 4510
1 4511
1 4512
1 4513
1 4514
1 4515
1 4516
1 4517
1 4518
1 4519
1 4520
1 4521
1 4522
1 4523
1 4524
1 4525
1 4526
1 4527
1 4528
1 4529
1 4530
1 4531
1 4532
1 4533
1 4534
1 4535
1 4536
1 4537
1 4538
1 4539
1 4540
1 4541
1 4542
1 4543
1 4544
1 4545
1 4546
1 4547
1 4548
1 4549
1 4550
1 4551
1 4552
1 4553
1 4554
1 4555
1 4556
1 4557
1 4558
1 4559
1 4560
1 4561
1 4562
1 4563
1 4564
1 4565
1 4566
1 4567
1 4568
1 4569
1 4570
1 4571
1 4572
1 4573
1 4574
1 4575
1 4576
1 4577
1 4578
1 4579
1 4580
1 4581
1 4582
1 4583
1 4584
1 4585
1 4586
1 4587
1 4588
1 4589
1 4590
1 4591
1 4592
1 4593
1 4594
1 4595
1 4596
1 4597
1 4598
1 4599
1 4600
1 4601
1 4602
1 4603
1 4604
1 4605
1 4606
1 4607
1 4608
1 4609
1 4610
1 4611
1 4612
1 4613
1 4614
1 4615
1 4616
1 4617
1 4618
1 4619
1 4620
1 4621
1 4622
1 4623
1 4624
1 4625
1 4626
1 4627
1 4628
1 4629
1 4630
1 4631
1 4632
1 4633
1 4634
1 4635
1 4636
1 4637
1 4638
1 4639
1 4640
1 4641
1 4642
1 4643
1 4644
1 4645
1 4646
1 4647
1 4648
1 4649
1 4650
1 4651
1 4652
1 4653
1 4654
1 4655
1 4656
1 4657
1 4658
1 4659
1 4660
1 4661
1 4662
1 4663
1 4664
1 4665
1 4666
1 4667
1 4668
1 4669
1 4670
1 4671
1 4672
1 4673
1 4674
1 4675
1 4676
1 4677
1 4678
1 4679
1 4680
1 4681
1 4682
1 4683
1 4684
1 4685
1 4686
1 4687
1 4688
1 4689
1 4690
1 4691
1 4692
1 4693
1 4694
1 4695
1 4696
1 4697
1 4698
1 4699
1 4700
1 4701
1 4702
1 4703
1 4704
1 4705
1 4706
1 4707
1 4708
1 4709
1 4710
1 4711
1 4712
1 4713
1 4714
1 4715
1 4716
1 4717
1 4718
1 4719
1 4720
1 4721
1 4722
1 4723
1 4724
1 4725
1 4726
1 4727
1 4728
1 4729
1 4730
1 4731
1 4732
1 4733
1 4734
1 4735
1 4736
1 4737
1 4738
1 4739
1 4740
1 4741
1 4742
1 4743
1 4744
1 4745
1 4746
1 4747
1 4748
1 4749
1 4750
1 4751
1 4752
1 4753
1 4754
1 4755
1 4756
1 4757
1 4758
1 4759
1 4760
1 4761
1 4762
1 4763
1 4764
1 4765
1 4766
1 4767
1 4768
1 4769
1 4770
1 4771
1 4772
1 4773
1 4774
1 4775
1 4776
1 4777
1 4778
1 4779
1 4780
1 4781
1 4782
1 4783
1 4784
1 4785
1 4786
1 4787
1 4788
1 4789
1 4790
1 4791
1 4792
1 4793
1 4794
1 4795
1 4796
1 4797
1 4798
1 4799
1 4800
1 4801
1 4802
1 4803
1 4804
1 4805
1 4806
1 4807
1 4808
1 4809
1 4810
1 4811
1 4812
1 4813
1 4814
1 4815
1 4816
1 4817
1 4818
1 4819
1 4820
1 4821
1 4822
1 4823
1 4824
1 4825
1 4826
1 4827
1 4828
1 4829
1 4830
1 4831
1 4832
1 4833
1 4834
1 4835
1 4836
1 4837
1 4838
1 4839
1 4840
1 4841
1 4842
1 4843
1 4844
1 4845
1 4846
1 4847
1 4848
1 4849
1 4850
1 4851
1 4852
1 4853
1 4854
1 4855
1 4856
1 4857
1 4858
1 4859
1 4860
1 4861
1 4862
1 4863
1 4864
1 4865
1 4866
1 4867
1 4868
1 4869
1 4870
1 4871
1 4872
1 4873
1 4874
1 4875
1 4876
1 4877
1 4878
1 4879
1 4880
1 4881
1 4882
1 4883
1 4884
1 4885
1 4886
1 4887
1 4888
1 4889
1 4890
1 4891
1 4892
1 4893
1 4894
1 4895
1 4896
1 4897
1 4898
1 4899
1 4900
1 4901
1 4902
1 4903
1 4904
1 4905
1 4906
1 4907
1 4908
1 4909
1 4910
1 4911
1 4912
1 4913
1 4914
1 4915
1 4916
1 4917
1 4918
1 4919
1 4920
1 4921
1 4922
1 4923
1 4924
1 4925
1 4926
1 4927
1 4928
1 4929
1 4930
1 4931
1 4932
1 4933
1 4934
1 4935
1 4936
1 4937
1 4938
1 4939
1 4940
1 4941
1 4942
1 4943
1 4944
1 4945
1 4946
1 4947
1 4948
1 4949
1 4950
1 4951
1 4952
1 4953
1 4954
1 4955
1 4956
1 4957
1 4958
1 4959
1 4960
1 4961
1 4962
1 4963
1 4964
1 4965
1 4966
1 4967
1 4968
1 4969
1 4970
1 4971
1 4972
1 4973
1 4974
1 4975
1 4976
1 4977
1 4978
1 4979
1 4980
1 4981
1 4982
1 4983
1 4984
1 4985
1 4986
1 4987
1 4988
1 4989
1 4990
1 4991
1 4992
1 4993
1 4994
1 4995
1 4996
1 4997
1 4998
1 4999
CELL_TYPES 5000
1 
1 
1 
1 
1 
1 
1 
1 
1 
1 
1 
1 
1 
1 
1 
1 
1 
1 
1 
1 
1 
1 
1 
1 
1 
1 
1 
1 
1 
1 
1 
1 
1 
1 
1 
1 
1 
1 
1 
1 
1 
1 
1 
1 
1 
1 
1 
1 
1 
1 
1 
1 
1 
1 
1 
1 
1 
1 
1 
1 
1 
1 
1 
1 
1 
1 
1 
1 
1 
1 
1 
1 
1 
1 
1 
1 
1 
1 
1 
1 
1 
1 
1 
1 
1 
1 
1 
1 
1 
1 
1 
1 
1 
1 
1 
1 
1 
1 
1 
1 
1 
1 
1 
1 
1 
1 
1 
1 
1 
1 
1 
1 
1 
1 
1 
1 
1 
1 
1 
1 
1 
1 
1 
1 
1 
1 
1 
1 
1 
1 
1 
1 
1 
1 
1 
1 
1 
1 
1 
1 
1 
1 
1 
1 
1 
1 
1 
1 
1 
1 
1 
1 
1 
1 
1 
1 
1 
1 
1 
1 
1 
1 
1 
1 
1 
1 
1 
1 
1 
1 
1 
1 
1 
1 
1 
1 
1 
1 
1 
1 
1 
1 
1 
1 
1 
1 
1 
1 
1 
1 
1 
1 
1 
1 
1 
1 
1 
1 
1 
1 
1 
1 
1 
1 
1 
1 
1 
1 
1 
1 
1 
1 
1 
1 
1 
1 
1 
1 
1 
1 
1 
1 
1 
1 
1 
1 
1 
1 
1 
1 
1 
1 
1 
1 
1 
1 
1 
1 
1 
1 
1 
1 
1 
1 
1 
1 
1 
1 
1 
1 
1 
1 
1 
1 
1 
1 
1 
1 
1 
1 
1 
1 
1 
1 
1 
1 
1 
1 
1 
1 
1 
1 
1 
1 
1 
1 
1 
1 
1 
1 
1 
1 
1 
1 
1 
1 
1 
1 
1 
1 
1 
1 
1 
1 
1 
1 
1 
1 
1 
1 
1 
1 
1 
1 
1 
1 
1 
1 
1 
1 
1 
1 
1 
1 
1 
1 
1 
1 
1 
1 
1 
1 
1 
1 
1 
1 
1 
1 
1 
1 
1 
1 
1 
1 
1 
1 
1 
1 
1 
1 
1 
1 
1 
1 
1 
1 
1 
1 
1 
1 
1 
1 
1 
1 
1 
1 
1 
1 
1 
1 
1 
1 
1 
1 
1 
1 
1 
1 
1 
1 
1 
1 
1 
1 
1 
1 
1 
1 
1 
1 
1 
1 
1 
1 
1 
1 
1 
1 
1 
1 
1 
1 
1 
1 
1 
1 
1 
1 
1 
1 
1 
1 
1 
1 
1 
1 
1 
1 
1 
1 
1 
1 
1 
1 
1 
1 
1 
1 
1 
1 
1 
1 
1 
1 
1 
1 
1 
1 
1 
1 
1 
1 
1 
1 
1 
1 
1 
1 
1 
1 
1 
1 
1 
1 
1 
1 
1 
1 
1 
1 
1 
1 
1 
1 
1 
1 
1 
1 
1 
1 
1 
1 
1 
1 
1 
1 
1 
1 
1 
1 
1 
1 
1 
1 
1 
1 
1 
1 
1 
1 
1 
1 
1 
1 
1 
1 
1 
1 
1 
1 
1 
1 
1 
1 
1 
1 
1 
1 
1 
1 
1 
1 
1 
1 
1 
1 
1 
1 
1 
1 
1 
1 
1 
1 
1 
1 
1 
1 
1 
1 
1 
1 
1 
1 
1 
1 
1 
1 
1 
1 
1 
1 
1 
1 
1 
1 
1 
1 
1 
1 
1 
1 
1 
1 
1 
1 
1 
1 
1 
1 
1 
1 
1 
1 
1 
1 
1 
1 
1 
1 
1 
1 
1 
1 
1 
1 
1 
1 
1 
1 
1 
1 
1 
1 
1 
1 
1 
1 
1 
1 
1 
1 
1 
1 
1 
1 
1 
1 
1 
1 
1 
1 
1 
1 
1 
1 
1 
1 
1 
1 
1 
1 
1 
1 
1 
1 
1 
1 
1 
1 
1 
1 
1 
1 
1 
1 
1 
1 
1 
1 
1 
1 
1 
1 
1 
1 
1 
1 
1 
1 
1 
1 
1 
1 
1 
1 
1 
1 
1 
1 
1 
1 
1 
1 
1 
1 
1 
1 
1 
1 
1 
1 
1 
1 
1 
1 
1 
1 
1 
1 
1 
1 
1 
1 
1 
1 
1 
1 
1 
1 
1 
1 
1 
1 
1 
1 
1 
1 
1 
1 
1 
1 
1 
1 
1 
1 
1 
1 
1 
1 
1 
1 
1 
1 
1 
1 
1 
1 
1 
1 
1 
1 
1 
1 
1 
1 
1 
1 
1 
1 
1 
1 
1 
1 
1 
1 
1 
1 
1 
1 
1 
1 
1 
1 
1 
1 
1 
1 
1 
1 
1 
1 
1 
1 
1 
1 
1 
1 
1 
1 
1 
1 
1 
1 
1 
1 
1 
1 
1 
1 
1 
1 
1 
1 
1 
1 
1 
1 
1 
1 
1 
1 
1 
1 
1 
1 
1 
1 
1 
1 
1 
1 
1 
1 
1 
1 
1 
1 
1 
1 
1 
1 
1 
1 
1 
1 
1 
1 
1 
1 
1 
1 
1 
1 
1 
1 
1 
1 
1 
1 
1 
1 
1 
1 
1 
1 
1 
1 
1 
1 
1 
1 
1 
1 
1 
1 
1 
1 
1 
1 
1 
1 
1 
1 
1 
1 
1 
1 
1 
1 
1 
1 
1 
1 
1 
1 
1 
1 
1 
1 
1 
1 
1 
1 
1 
1 
1 
1 
1 
1 
1 
1 
1 
1 
1 
1 
1 
1 
1 
1 
1 
1 
1 
1 
1 
1 
1 
1 
1 
1 
1 
1 
1 
1 
1 
1 
1 
1 
1 
1 
1 
1 
1 
1 
1 
1 
1 
1 
1 
1 
1 
1 
1 
1 
1 
1 
1 
1 
1 
1 
1 
1 
1 
1 
1 
1 
1 
1 
1 
1 
1 
1 
1 
1 
1 
1 
1 
1 
1 
1 
1 
1 
1 
1 
1 
1 
1 
1 
1 
1 
1 
1 
1 
1 
1 
1 
1 
1 
1 
1 
1 
1 
1 
1 
1 
1 
1 
1 
1 
1 
1 
1 
1 
1 
1 
1 
1 
1 
1 
1 
1 
1 
1 
1 
1 
1 
1 
1 
1 
1 
1 
1 
1 
1 
1 
1 
1 
1 
1 
1 
1 
1 
1 
1 
1 
1 
1 
1 
1 
1 
1 
1 
1 
1 
1 
1 
1 
1 
1 
1 
1 
1 
1 
1 
1 
1 
1 
1 
1 
1 
1 
1 
1 
1 
1 
1 
1 
1 
1 
1 
1 
1 
1 
1 
1 
1 
1 
1 
1 
1 
1 
1 
1 
1 
1 
1 
1 
1 
1 
1 
1 
1 
1 
1 
1 
1 
1 
1 
1 
1 
1 
1 
1 
1 
1 
1 
1 
1 
1 
1 
1 
1 
1 
1 
1 
1 
1 
1 
1 
1 
1 
1 
1 
1 
1 
1 
1 
1 
1 
1 
1 
1 
1 
1 
1 
1 
1 
1 
1 
1 
1 
1 
1 
1 
1 
1 
1 
1 
1 
1 
1 
1 
1 
1 
1 
1 
1 
1 
1 
1 
1 
1 
1 
1 
1 
1 
1 
1 
1 
1 
1 
1 
1 
1 
1 
1 
1 
1 
1 
1 
1 
1 
1 
1 
1 
1 
1 
1 
1 
1 
1 
1 
1 
1 
1 
1 
1 
1 
1 
1 
1 
1 
1 
1 
1 
1 
1 
1 
1 
1 
1 
1 
1 
1 
1 
1 
1 
1 
1 
1 
1 
1 
1 
1 
1 
1 
1 
1 
1 
1 
1 
1 
1 
1 
1 
1 
1 
1 
1 
1 
1 
1 
1 
1 
1 
1 
1 
1 
1 
1 
1 
1 
1 
1 
1 
1 
1 
1 
1 
1 
1 
1 
1 
1 
1 
1 
1 
1 
1 
1 
1 
1 
1 
1 
1 
1 
1 
1 
1 
1 
1 
1 
1 
1 
1 
1 
1 
1 
1 
1 
1 
1 
1 
1 
1 
1 
1 
1 
1 
1 
1 
1 
1 
1 
1 
1 
1 
1 
1 
1 
1 
1 
1 
1 
1 
1 
1 
1 
1 
1 
1 
1 
1 
1 
1 
1 
1 
1 
1 
1 
1 
1 
1 
1 
1 
1 
1 
1 
1 
1 
1 
1 
1 
1 
1 
1 
1 
1 
1 
1 
1 
1 
1 
1 
1 
1 
1 
1 
1 
1 
1 
1 
1 
1 
1 
1 
1 
1 
1 
1 
1 
1 
1 
1 
1 
1 
1 
1 
1 
1 
1 
1 
1 
1 
1 
1 
1 
1 
1 
1 
1 
1 
1 
1 
1 
1 
1 
1 
1 
1 
1 
1 
1 
1 
1 
1 
1 
1 
1 
1 
1 
1 
1 
1 
1 
1 
1 
1 
1 
1 
1 
1 
1 
1 
1 
1 
1 
1 
1 
1 
1 
1 
1 
1 
1 
1 
1 
1 
1 
1 
1 
1 
1 
1 
1 
1 
1 
1 
1 
1 
1 
1 
1 
1 
1 
1 
1 
1 
1 
1 
1 
1 
1 
1 
1 
1 
1 
1 
1 
1 
1 
1 
1 
1 
1 
1 
1 
1 
1 
1 
1 
1 
1 
1 
1 
1 
1 
1 
1 
1 
1 
1 
1 
1 
1 
1 
1 
1 
1 
1 
1 
1 
1 
1 
1 
1 
1 
1 
1 
1 
1 
1 
1 
1 
1 
1 
1 
1 
1 
1 
1 
1 
1 
1 
1 
1 
1 
1 
1 
1 
1 
1 
1 
1 
1 
1 
1 
1 
1 
1 
1 
1 
1 
1 
1 
1 
1 
1 
1 
1 
1 
1 
1 
1 
1 
1 
1 
1 
1 
1 
1 
1 
1 
1 
1 
1 
1 
1 
1 
1 
1 
1 
1 
1 
1 
1 
1 
1 
1 
1 
1 
1 
1 
1 
1 
1 
1 
1 
1 
1 
1 
1 
1 
1 
1 
1 
1 
1 
1 
1 
1 
1 
1 
1 
1 
1 
1 
1 
1 
1 
1 
1 
1 
1 
1 
1 
1 
1 
1 
1 
1 
1 
1 
1 
1 
1 
1 
1 
1 
1 
1 
1 
1 
1 
1 
1 
1 
1 
1 
1 
1 
1 
1 
1 
1 
1 
1 
1 
1 
1 
1 
1 
1 
1 
1 
1 
1 
1 
1 
1 
1 
1 
1 
1 
1 
1 
1 
1 
1 
1 
1 
1 
1 
1 
1 
1 
1 
1 
1 
1 
1 
1 
1 
1 
1 
1 
1 
1 
1 
1 
1 
1 
1 
1 
1 
1 
1 
1 
1 
1 
1 
1 
1 
1 
1 
1 
1 
1 
1 
1 
1 
1 
1 
1 
1 
1 
1 
1 
1 
1 
1 
1 
1 
1 
1 
1 
1 
1 
1 
1 
1 
1 
1 
1 
1 
1 
1 
1 
1 
1 
1 
1 
1 
1 
1 
1 
1 
1 
1 
1 
1 
1 
1 
1 
1 
1 
1 
1 
1 
1 
1 
1 
1 
1 
1 
1 
1 
1 
1 
1 
1 
1 
1 
1 
1 
1 
1 
1 
1 
1 
1 
1 
1 
1 
1 
1 
1 
1 
1 
1 
1 
1 
1 
1 
1 
1 
1 
1 
1 
1 
1 
1 
1 
1 
1 
1 
1 
1 
1 
1 
1 
1 
1 
1 
1 
1 
1 
1 
1 
1 
1 
1 
1 
1 
1 
1 
1 
1 
1 
1 
1 
1 
1 
1 
1 
1 
1 
1 
1 
1 
1 
1 
1 
1 
1 
1 
1 
1 
1 
1 
1 
1 
1 
1 
1 
1 
1 
1 
1 
1 
1 
1 
1 
1 
1 
1 
1 
1 
1 
1 
1 
1 
1 
1 
1 
1 
1 
1 
1 
1 
1 
1 
1 
1 
1 
1 
1 
1 
1 
1 
1 
1 
1 
1 
1 
1 
1 
1 
1 
1 
1 
1 
1 
1 
1 
1 
1 
1 
1 
1 
1 
1 
1 
1 
1 
1 
1 
1 
1 
1 
1 
1 
1 
1 
1 
1 
1 
1 
1 
1 
1 
1 
1 
1 
1 
1 
1 
1 
1 
1 
1 
1 
1 
1 
1 
1 
1 
1 
1 
1 
1 
1 
1 
1 
1 
1 
1 
1 
1 
1 
1 
1 
1 
1 
1 
1 
1 
1 
1 
1 
1 
1 
1 
1 
1 
1 
1 
1 
1 
1 
1 
1 
1 
1 
1 
1 
1 
1 
1 
1 
1 
1 
1 
1 
1 
1 
1 
1 
1 
1 
1 
1 
1 
1 
1 
1 
1 
1 
1 
1 
1 
1 
1 
1 
1 
1 
1 
1 
1 
1 
1 
1 
1 
1 
1 
1 
1 
1 
1 
1 
1 
1 
1 
1 
1 
1 
1 
1 
1 
1 
1 
1 
1 
1 
1 
1 
1 
1 
1 
1 
1 
1 
1 
1 
1 
1 
1 
1 
1 
1 
1 
1 
1 
1 
1 
1 
1 
1 
1 
1 
1 
1 
1 
1 
1 
1 
1 
1 
1 
1 
1 
1 
1 
1 
1 
1 
1 
1 
1 
1 
1 
1 
1 
1 
1 
1 
1 
1 
1 
1 
1 
1 
1 
1 
1 
1 
1 
1 
1 
1 
1 
1 
1 
1 
1 
1 
1 
1 
1 
1 
1 
1 
1 
1 
1 
1 
1 
1 
1 
1 
1 
1 
1 
1 
1 
1 
1 
1 
1 
1 
1 
1 
1 
1 
1 
1 
1 
1 
1 
1 
1 
1 
1 
1 
1 
1 
1 
1 
1 
1 
1 
1 
1 
1 
1 
1 
1 
1 
1 
1 
1 
1 
1 
1 
1 
1 
1 
1 
1 
1 
1 
1 
1 
1 
1 
1 
1 
1 
1 
1 
1 
1 
1 
1 
1 
1 
1 
1 
1 
1 
1 
1 
1 
1 
1 
1 
1 
1 
1 
1 
1 
1 
1 
1 
1 
1 
1 
1 
1 
1 
1 
1 
1 
1 
1 
1 
1 
1 
1 
1 
1 
1 
1 
1 
1 
1 
1 
1 
1 
1 
1 
1 
1 
1 
1 
1 
1 
1 
1 
1 
1 
1 
1 
1 
1 
1 
1 
1 
1 
1 
1 
1 
1 
1 
1 
1 
1 
1 
1 
1 
1 
1 
1 
1 
1 
1 
1 
1 
1 
1 
1 
1 
1 
1 
1 
1 
1 
1 
1 
1 
1 
1 
1 
1 
1 
1 
1 
1 
1 
1 
1 
1 
1 
1 
1 
1 
1 
1 
1 
1 
1 
1 
1 
1 
1 
1 
1 
1 
1 
1 
1 
1 
1 
1 
1 
1 
1 
1 
1 
1 
1 
1 
1 
1 
1 
1 
1 
1 
1 
1 
1 
1 
1 
1 
1 
1 
1 
1 
1 
1 
1 
1 
1 
1 
1 
1 
1 
1 
1 
1 
1 
1 
1 
1 
1 
1 
1 
1 
1 
1 
1 
1 
1 
1 
1 
1 
1 
1 
1 
1 
1 
1 
1 
1 
1 
1 
1 
1 
1 
1 
1 
1 
1 
1 
1 
1 
1 
1 
1 
1 
1 
1 
1 
1 
1 
1 
1 
1 
1 
1 
1 
1 
1 
1 
1 
1 
1 
1 
1 
1 
1 
1 
1 
1 
1 
1 
1 
1 
1 
1 
1 
1 
1 
1 
1 
1 
1 
1 
1 
1 
1 
1 
1 
1 
1 
1 
1 
1 
1 
1 
1 
1 
1 
1 
1 
1 
1 
1 
1 
1 
1 
1 
1 
1 
1 
1 
1 
1 
1 
1 
1 
1 
1 
1 
1 
1 
1 
1 
1 
1 
1 
1 
1 
1 
1 
1 
1 
1 
1 
1 
1 
1 
1 
1 
1 
1 
1 
1 
1 
1 
1 
1 
1 
1 
1 
1 
1 
1 
1 
1 
1 
1 
1 
1 
1 
1 
1 
1 
1 
1 
1 
1 
1 
1 
1 
1 
1 
1 
1 
1 
1 
1 
1 
1 
1 
1 
1 
1 
1 
1 
1 
1 
1 
1 
1 
1 
1 
1 
1 
1 
1 
1 
1 
1 
1 
1 
1 
1 
1 
1 
1 
1 
1 
1 
1 
1 
1 
1 
1 
1 
1 
1 
1 
1 
1 
1 
1 
1 
1 
1 
1 
1 
1 
1 
1 
1 
1 
1 
1 
1 
1 
1 
1 
1 
1 
1 
1 
1 
1 
1 
1 
1 
1 
1 
1 
1 
1 
1 
1 
1 
1 
1 
1 
1 
1 
1 
1 
1 
1 
1 
1 
1 
1 
1 
1 
1 
1 
1 
1 
1 
1 
1 
1 
1 
1 
1 
1 
1 
1 
1 
1 
1 
1 
1 
1 
1 
1 
1 
1 
1 
1 
1 
1 
1 
1 
1 
1 
1 
1 
1 
1 
1 
1 
1 
1 
1 
1 
1 
1 
1 
1 
1 
1 
1 
1 
1 
1 
1 
1 
1 
1 
1 
1 
1 
1 
1 
1 
1 
1 
1 
1 
1 
1 
1 
1 
1 
1 
1 
1 
1 
1 
1 
1 
1 
1 
1 
1 
1 
1 
1 
1 
1 
1 
1 
1 
1 
1 
1 
1 
1 
1 
1 
1 
1 
1 
1 
1 
1 
1 
1 
1 
1 
1 
1 
1 
1 
1 
1 
1 
1 
1 
1 
1 
1 
1 
1 
1 
1 
1 
1 
1 
1 
1 
1 
1 
1 
1 
1 
1 
1 
1 
1 
1 
1 
1 
1 
1 
1 
1 
1 
1 
1 
1 
1 
1 
1 
1 
1 
1 
1 
1 
1 
1 
1 
1 
1 
1 
1 
1 
1 
1 
1 
1 
1 
1 
1 
1 
1 
1 
1 
1 
1 
1 
1 
1 
1 
1 
1 
1 
1 
1 
1 
1 
1 
1 
1 
1 
1 
1 
1 
1 
1 
1 
1 
1 
1 
1 
1 
1 
1 
1 
1 
1 
1 
1 
1 
1 
1 
1 
1 
1 
1 
1 
1 
1 
1 
1 
1 
1 
1 
1 
1 
1 
1 
1 
1 
1 
1 
1 
1 
1 
1 
1 
1 
1 
1 
1 
1 
1 
1 
1 
1 
1 
1 
1 
1 
1 
1 
1 
1 
1 
1 
1 
1 
1 
1 
1 
1 
1 
1 
1 
1 
1 
1 
1 
1 
1 
1 
1 
1 
1 
1 
1 
1 
1 
1 
1 
1 
1 
1 
1 
1 
1 
1 
1 
1 
1 
1 
1 
1 
1 
1 
1 
1 
1 
1 
1 
1 
1 
1 
1 
1 
1 
1 
1 
1 
1 
1 
1 
1 
1 
1 
1 
1 
1 
1 
1 
1 
1 
1 
1 
1 
1 
1 
1 
1 
1 
1 
1 
1 
1 
1 
1 
1 
1 
1 
1 
1 
1 
1 
1 
1 
1 
1 
1 
1 
1 
1 
1 
1 
1 
1 
1 
1 
1 
1 
1 
1 
1 
1 
1 
1 
1 
1 
1 
1 
1 
1 
1 
1 
1 
1 
1 
1 
1 
1 
1 
1 
1 
1 
1 
1 
1 
1 
1 
1 
1 
1 
1 
1 
1 
1 
1 
1 
1 
1 
1 
1 
1 
1 
1 
1 
1 
1 
1 
1 
1 
1 
1 
1 
1 
1 
1 
1 
1 
1 
1 
1 
1 
1 
1 
1 
1 
1 
1 
1 
1 
1 
1 
1 
1 
1 
1 
1 
1 
1 
1 
1 
1 
1 
1 
1 
1 
1 
1 
1 
1 
1 
1 
1 
1 
1 
1 
1 
1 
1 
1 
1 
1 
1 
1 
1 
1 
1 
1 
1 
1 
1 
1 
1 
1 
1 
1 
1 
1 
1 
1 
1 
1 
1 
1 
1 
1 
1 
1 
1 
1 
1 
1 
1 
1 
1 
1 
1 
1 
1 
1 
1 
1 
1 
1 
1 
1 
1 
1 
1 
1 
1 
1 
1 
1 
1 
1 
1 
1 
1 
1 
1 
1 
1 
1 
1 
1 
1 
1 
1 
1 
1 
1 
1 
1 
1 
1 
1 
1 
1 
1 
1 
1 
1 
1 
1 
1 
1 
1 
1 
1 
1 
1 
1 
1 
1 
1 
1 
1 
1 
1 
1 
1 
1 
1 
1 
1 
1 
1 
1 
1 
1 
1 
1 
1 
1 
1 
1 
1 
1 
1 
1 
1 
1 
1 
1 
1 
1 
1 
1 
1 
1 
1 
1 
1 
1 
1 
1 
1 
1 
1 
1 
1 
1 
1 
1 
1 
1 
1 
1 
1 
1 
1 
1 
1 
1 
1 
1 
1 
1 
1 
1 
1 
1 
1 
1 
1 
1 
1 
1 
1 
1 
1 
1 
1 
1 
1 
1 
1 
1 
1 
1 
1 
1 
1 
1 
1 
1 
1 
1 
1 
1 
1 
1 
1 
1 
1 
1 
1 
1 
1 
1 
1 
1 
1 
1 
1 
1 
1 
1 
1 
1 
1 
1 
1 
1 
1 
1 
1 
1 
1 
1 
1 
1 
1 
1 
1 
1 
1 
1 
1 
1 
1 
1 
1 
1 
1 
1 
1 
1 
1 
1 
1 
1 
1 
1 
1 
1 
1 
1 
1 
1 
1 
1 
1 
1 
1 
1 
1 
1 
1 
1 
1 
1 
1 
1 
1 
1 
1 
1 
1 
1 
1 
1 
1 
1 
1 
1 
1 
1 
1 
1 
1 
1 
1 
1 
1 
1 
1 
1 
1 
1 
1 
1 
1 
1 
1 
1 
1 
1 
1 
1 
1 
1 
1 
1 
1 
1 
1 
1 
1 
1 
1 
1 
1 
1 
1 
1 
1 
1 
1 
1 
1 
1 
1 
1 
1 
1 
1 
1 
1 
1 
1 
1 
1 
1 
1 
1 
1 
1 
1 
1 
1 
1 
1 
1 
1 
1 
1 
1 
1 
1 
1 
1 
1 
1 
1 
1 
1 
1 
1 
1 
1 
1 
1 
1 
1 
1 
1 
1 
1 
1 
1 
1 
1 
1 
1 
1 
1 
1 
1 
1 
1 
1 
1 
1 
1 
1 
1 
1 
1 
1 
1 
1 
1 
1 
1 
1 
1 
1 
1 
1 
1 
1 
1 
1 
1 
1 
1 
1 
1 
1 
1 
1 
1 
1 
1 
1 
1 
1 
1 
1 
1 
1 
1 
1 
1 
1 
1 
1 
1 
1 
1 
1 
1 
1 
1 
1 
1 
1 
1 
1 
1 
1 
1 
1 
1 
1 
1 
1 
1 
1 
1 
1 
1 
1 
1 
1 
1 
1 
1 
1 
1 
1 
1 
1 
1 
1 
1 
1 
1 
1 
1 
1 
1 
1 
1 
1 
1 
1 
1 
1 
1 
1 
1 
1 
1 
1 
1 
1 
1 
1 
1 
1 
1 
1 
1 
1 
1 
1 
1 
1 
1 
1 
1 
1 
1 
1 
1 
1 
1 
1 
1 
1 
1 
1 
1 
1 
1 
1 
1 
1 
1 
1 
1 
1 
1 
1 
1 
1 
1 
1 
1 
1 
1 
1 
1 
1 
1 
1 
1 
1 
1 
1 
1 
1 
1 
1 
1 
1 
1 
1 
1 
1 
1 
1 
1 
1 
1 
1 
1 
1 
1 
1 
1 
1 
1 
1 
1 
1 
1 
1 
1 
1 
1 
1 
1 
1 
1 
1 
1 
1 
1 
1 
1 
1 
1 
1 
1 
1 
1 
1 
1 
1 
1 
1 
1 
1 
1 
1 
1 
1 
1 
1 
1 
1 
1 
1 
1 
1 
1 
1 
1 
1 
1 
1 
1 
1 
1 
1 
1 
1 
1 
1 
1 
1 
1 
1 
1 
1 
1 
1 
1 
1 
1 
1 
1 
1 
1 
1 
1 
1 
1 
1 
1 
1 
1 
1 
1 
1 
1 
1 
1 
1 
1 
1 
1 
1 
1 
1 
1 
1 
1 
1 
1 
1 
1 
1 
1 
1 
1 
1 
1 
1 
1 
1 
1 
1 
1 
1 
1 
1 
1 
1 
1 
1 
1 
1 
1 
1 
1 
1 
1 
1 
1 
1 
1 
1 
1 
1 
1 
1 
1 
1 
1 
1 
1 
1 
1 
1 
1 
1 
1 
1 
1 
1 
1 
1 
1 
1 
1 
1 
1 
1 
1 
1 
1 
1 
1 
1 
1 
1 
1 
1 
1 
1 
1 
1 
1 
1 
1 
1 
1 
1 
1 
1 
1 
1 
1 
1 
1 
1 
1 
1 
1 
1 
1 
1 
1 
1 
1 
1 
1 
1 
1 
1 
1 
1 
1 
1 
1 
1 
1 
1 
1 
1 
1 
1 
1 
1 
1 
1 
1 
1 
1 
1 
1 
1 
1 
1 
1 
1 
1 
1 
1 
1 
1 
1 
1 
1 
1 
1 
1 
1 
1 
1 
1 
1 
1 
1 
1 
1 
1 
1 
1 
1 
1 
1 
1 
1 
1 
1 
1 
1 
1 
1 
1 
1 
1 
1 
1 
1 
1 
1 
1 
1 
1 
1 
1 
1 
1 
1 
1 
1 
1 
1 
1 
1 
1 
1 
1 
1 
1 
1 
1 
1 
1 
1 
1 
1 
1 
1 
1 
1 
1 
1 
1 
1 
1 
1 
1 
1 
1 
1 
1 
1 
1 
1 
1 
1 
1 
1 
1 
1 
1 
1 
1 
1 
1 
1 
1 
1 
1 
1 
1 
1 
1 
1 
1 
1 
1 
1 
1 
1 
1 
1 
1 
1 
1 
1 
1 
1 
1 
1 
1 
1 
1 
1 
1 
1 
1 
1 
1 
1 
1 
1 
1 
1 
1 
1 
1 
1 
1 
1 
1 
1 
1 
1 
1 
1 
1 
1 
1 
1 
1 
1 
1 
1 
1 
1 
1 
1 
1 
1 
1 
1 
1 
1 
1 
1 
1 
1 
1 
1 
1 
1 
1 
1 
1 
1 
1 
1 
1 
1 
1 
1 
1 
1 
1 
1 
1 
1 
1 
1 
1 
1 
1 
1 
1 
1 
1 
1 
1 
1 
1 
1 
1 
1 
1 
1 
1 
1 
1 
1 
1 
1 
1 
1 
1 
1 
1 
1 
1 
1 
1 
1 
1 
1 
1 
1 
1 
1 
1 
1 
1 
1 
1 
1 
1 
1 
1 
1 
1 
1 
1 
1 
1 
1 
1 
1 
1 
1 
1 
1 
1 
1 
1 
1 
1 
1 
1 
1 
1 
1 
1 
1 
1 
1 
1 
1 
1 
1 
1 
1 
1 
1 
1 
1 
1 
1 
1 
1 
1 
1 
1 
1 
1 
1 
1 
1 
1 
1 
1 
1 
1 
1 
1 
1 
1 
1 
1 
1 
1 
1 
1 
1 
1 
1 
1 
1 
1 
1 
1 
1 
1 
1 
1 
1 
1 
1 
1 
1 
1 
1 
1 
1 
1 
1 
1 
1 
1 
1 
1 
1 
1 
1 
1 
1 
1 
1 
1 
1 
1 
1 
1 
1 
1 
1 
1 
1 
1 
1 
1 
1 
1 
1 
1 
1 
1 
1 
1 
1 
1 
1 
1 
1 
1 
1 
1 
1 
1 
1 
1 
1 
1 
1 
1 
1 
1 
1 
1 
1 
1 
1 
1 
1 
1 
1 
1 
1 
1 
1 
1 
1 
1 
1 
1 
1 
1 
1 
1 
1 
1 
1 
1 
1 
1 
1 
1 
1 
1 
1 
1 
1 
1 
1 
1 
1 
1 
1 
1 
1 
1 
1 
1 
1 
1 
1 
1 
1 
1 
1 
1 
1 
1 
1 
1 
1 
1 
1 
1 
1 
1 
1 
1 
1 
1 
1 
1 
1 
1 
1 
1 
1 
1 
1 
1 
1 
1 
1 
1 
1 
1 
1 
1 
1 
1 
1 
1 
1 
1 
1 
1 
1 
1 
1 
1 
1 
1 
1 
1 
1 
1 
1 
1 
1 
1 
1 
1 
1 
1 
1 
1 
1 
1 
1 
1 
1 
1 
1 
1 
1 
1 
1 
1 
1 
1 
1 
1 
1 
1 
1 
1 
1 
1 
1 
1 
1 
1 
1 
1 
1 
1 
1 
1 
1 
1 
1 
1 
1 
1 
1 
1 
1 
1 
1 
1 
1 
1 
1 
1 
1 
1 
1 
1 
1 
1 
1 
1 
1 
1 
1 
1 
1 
1 
1 
1 
1 
1 
1 
1 
1 
1 
1 
1 
1 
1 
1 
1 
1 
1 
1 
1 
1 
1 
1 
1 
1 
1 
1 
1 
1 
1 
1 
1 
1 
1 
1 
1 
1 
1 
1 
1 
1 
1 
1 
1 
1 
1 
1 
1 
1 
1 
1 
1 
1 
1 
1 
1 
1 
1 
1 
1 
1 
1 
1 
1 
1 
1 
1 
1 
1 
1 
1 
1 
1 
1 
1 
1 
1 
1 
1 
1 
1 
1 
1 
1 
1 
1 
1 
1 
1 
1 
1 
1 
1 
1 
1 
1 
1 
1 
1 
1 
1 
1 
1 
1 
1 
1 
1 
1 
1 
1 
1 
1 
1 
1 
1 
1 
1 
1 
1 
1 
1 
1 
1 
1 
1 
1 
1 
1 
1 
1 
1 
1 
1 
1 
1 
1 
1 
1 
1 
1 
1 
1 
1 
1 
1 
1 
1 
1 
1 
1 
1 
1 
1 
1 
1 
1 
1 
1 
1 
1 
1 
1 
1 
1 
1 
1 
1 
1 
1 
1 
1 
1 
1 
1 
1 
1 
1 
1 
1 
1 
1 
1 
1 
1 
1 
1 
1 
1 
1 
1 
1 
1 
1 
1 
1 
1 
1 
1 
1 
1 
1 
1 
1 
1 
1 
1 
1 
1 
1 
1 
1 
1 
1 
1 
1 
1 
1 
1 
1 
1 
1 
1 
1 
1 
1 
1 
1 
1 
1 
1 
1 
1 
1 
1 
1 
1 
1 
1 
1 
1 
1 
1 
1 
1 
1 
1 
1 
1 
1 
1 
1 
1 
1 
1 
1 
1 
1 
1 
1 
1 
1 
1 
1 
1 
1 
1 
1 
1 
1 
1 
1 
1 
1 
1 
1 
1 
1 
1 
1 
1 
1 
1 
1 
1 
1 
1 
1 
1 
1 
1 
1 
1 
1 
1 
1 
1 
1 
1 
1 
1 
1 
1 
1 
1 
1 
1 
1 
1 
1 
1 
1 
1 
1 
1 
1 
1 
1 
1 
1 
1 
1 
1 
1 
1 
1 
1 
1 
1 
1 
1 
1 
1 
1 
1 
1 
1 
1 
1 
1 
1 
1 
1 
1 
1 
1 
1 
1 
1 
1 
1 
1 
1 
1 
1 
1 
1 
1 
1 
1 
1 
1 
1 
1 
1 
1 
1 
1 
1 
1 
1 
1 
1 
1 
1 
1 
1 
1 
1 
1 
1 
1 
1 
1 
1 
1 
1 
1 
1 
1 
1 
1 
1 
1 
1 
1 
1 
1 
1 
1 
1 
1 
1 
1 
1 
1 
1 
1 
1 
1 
1 
1 
1 
1 
1 
1 
1 
1 
1 
1 
1 
1 
1 
1 
1 
1 
1 
1 
1 
1 
1 
1 
1 
1 
1 
1 
1 
1 
1 
1 
1 
1 
1 
1 
1 
1 
1 
1 
1 
1 
1 
1 
1 
1 
1 
1 
1 
1 
1 
1 
1 
1 
1 
1 
1 
1 
1 
1 
1 
1 
1 
1 
1 
1 
1 
1 
1 
1 
1 
1 
1 
1 
1 
1 
1 
1 
1 
1 
1 
1 
1 
1 
1 
1 
1 
1 
1 
1 
1 
1 
1 
1 
1 
1 
1 
1 
1 
1 
1 
1 
1 
1 
1 
1 
1 
1 
1 
1 
1 
1 
1 
1 
1 
1 
1 
1 
1 
1 
1 
1 
1 
1 
1 
1 
1 
1 
1 
1 
1 
1 
1 
1 
1 
1 
1 
1 
1 
1 
1 
1 
1 
1 
1 
1 
1 
1 
1 
1 
1 
1 
1 
1 
1 
1 
1 
1 
1 
1 
1 
1 
1 
1 
1 
1 
1 
1 
1 
1 
1 
1 
1 
1 
1 
1 
1 
1 
1 
1 
1 
1 
1 
1 
1 
1 
1 
1 
1 
1 
1 
1 
1 
1 
1 
1 
1 
1 
1 
1 
1 
1 
1 
1 
1 
1 
1 
1 
1 
1 
1 
1 
1 
1 
POINT_DATA 5000
VECTORS Stress float
-1019.27 -1983.69 0.
-2299.01 -2632.34 0.
-97.8019 -122.77 0.
-80.5071 -123.003 0.
-2584.24 -4566.97 0.
-1197.87 -2333 0.
-3423.98 -5321.99 0.
-266.419 -577.771 0.
-183.585 -465.117 0.
-4005.52 -6655.07 0.
-1208.99 -2176.71 0.
-95.8905 -186.421 0.
-2115.13 -2905.7 0.
-1742.84 -2539.45 0.
-1414.47 -2204.11 0.
-1158.28 -1880.4 0.
-902.208 -1556.55 0.
-1030.78 -1725.79 0.
-846.376 -1515.49 0.
-645.533 -1321.62 0.
-820.501 -1513 0.
-802.596 -1472.47 0.
-784.112 -1432.52 0.
-838.933 -1515 0.
-873.018 -1593.92 0.
-904.654 -1675.28 0.
-1066.33 -1771.37 0.
-1030.06 -1722.07 0.
-823.429 -1605.6 0.
-793.03 -1518.33 0.
-754.91 -1438.77 0.
-781.615 -1433.25 0.
-758.716 -1408.22 0.
-733.607 -1385.41 0.
-745.106 -1419.53 0.
-747.553 -1446.22 0.
-749.948 -1472.97 0.
-836.913 -1525.74 0.
-834.146 -1539.59 0.
-753.69 -1506.93 0.
-712.457 -1424.18 0.
-671.229 -1341.42 0.
-684.244 -1309.94 0.
-700.226 -1347.24 0.
-716.208 -1384.54 0.
-726.004 -1374.18 0.
-699.454 -1312.23 0.
-672.904 -1250.28 0.
-657.738 -1301.03 0.
-703.952 -1408.87 0.
-750.165 -1516.7 0.
-762.715 -1449.21 0.
-724.464 -1359.95 0.
-684.509 -1288.27 0.
-689.543 -1300.03 0.
-694.577 -1311.79 0.
-674.739 -1304.54 0.
-669.939 -1293.33 0.
-665.138 -1282.12 0.
-657.299 -1304.86 0.
-683.427 -1355.22 0.
-712.136 -1402.99 0.
-804.001 -1458.05 0.
-820.214 -1479.99 0.
-743.699 -1448.76 0.
-733.934 -1397.87 0.
-723.584 -1347.57 0.
-701.042 -1294.97 0.
-708.589 -1283.02 0.
-714.736 -1272.48 0.
-702.235 -1297.51 0.
-779.271 -1441.43 0.
-853.615 -1588.04 0.
-1035.62 -1702.33 0.
-1063.28 -1747.95 0.
-907.732 -1654.42 0.
-841.83 -1538.08 0.
-816.732 -1474.97 0.
-723.544 -1418.7 0.
-759.635 -1491.7 0.
-819.741 -1540.69 0.
-704.445 -1366.38 0.
-958.264 -1645.78 0.
-1197.07 -1940.18 0.
-1118.79 -1603.92 0.
-1265.38 -1631.76 0.
-1402.13 -1669.43 0.
-1674.82 -2762.28 0.
-2825.78 -4653.16 0.
-157.406 -263.141 0.
-887.79 -1527.33 0.
-4559.97 -7010.16 0.
-678.55 -1068.64 0.
-523.323 -811.986 0.
-2635.97 -3299.5 0.
-179.608 -418.427 0.
-3820.09 -6832.28 0.
0.237506 1.20328 0.
-4316.27 -6887.06 0.
-147.931 -281.595 0.
-2064.26 -4523.11 0.
12.8624 32.7999 0.
-2.89582 -6.56093 0.
0.489916 0.867705 0.
-479.513 -1010.57 0.
-32.5711 -71.7271 0.
-109.88 -281.941 0.
-87.2026 -228.5 0.
-74.923 -200.422 0.
-189.125 -455.779 0.
-110.762 -259.806 0.
-129.922 -205.877 0.
-720.767 -799.053 0.
-503.078 -531.081 0.
-431.443 -699.553 0.
-240.082 -317.315 0.
-119.581 -144.295 0.
-365.689 -823.5 0.
-242.761 -572.887 0.
-149.062 -310.337 0.
-535.004 -1203.93 0.
-504.113 -1180.77 0.
-475.603 -1156.2 0.
-663.12 -1251.85 0.
-682.198 -1345.79 0.
-697.957 -1443.04 0.
-1020.91 -1660.55 0.
-986.204 -1609.68 0.
-640.527 -1342.88 0.
-589.915 -1256.73 0.
-551.2 -1172.69 0.
-625.609 -1252.97 0.
-595.834 -1234.81 0.
-592.377 -1190.33 0.
-623.478 -1297.98 0.
-626.194 -1324.4 0.
-628.572 -1351.16 0.
-857.653 -1480.41 0.
-857.134 -1492 0.
-665.023 -1409.02 0.
-618.401 -1331.65 0.
-575.315 -1250.75 0.
-641.517 -1230.82 0.
-646.759 -1278.87 0.
-652.916 -1326 0.
-703.519 -1333.13 0.
-676.97 -1271.17 0.
-650.421 -1209.21 0.
-538.868 -1209.99 0.
-579.011 -1323.9 0.
-625.218 -1431.73 0.
-749.518 -1412.11 0.
-711.275 -1322.84 0.
-644.578 -1239.73 0.
-649.601 -1251.49 0.
-654.624 -1263.25 0.
-597.052 -1239.8 0.
-599.888 -1220.96 0.
-605.373 -1199.46 0.
-576.61 -1215.09 0.
-610.134 -1258.05 0.
-644.431 -1300.24 0.
-815.236 -1411.5 0.
-827.97 -1436.91 0.
-632.248 -1291.58 0.
-602.808 -1260.37 0.
-594.131 -1208.39 0.
-553.251 -1102.92 0.
-567.704 -1084.07 0.
-583.343 -1064.04 0.
-551.885 -1008.66 0.
-602.406 -1179.14 0.
-680.211 -1322.34 0.
-952.727 -1554.54 0.
-981.204 -1599.36 0.
-781.227 -1504 0.
-698.416 -1317.59 0.
-694.634 -1228.23 0.
-355.667 -864.732 0.
-407.931 -937.515 0.
-468.596 -1006.13 0.
-27.7974 -32.004 0.
-142.043 -305.751 0.
-301.349 -636.424 0.
-289.795 -363.331 0.
-171.569 -202.536 0.
-186.274 -247.781 0.
-131.284 -175.31 0.
-478.957 -811.956 0.
-93.75 -165.816 0.
-156.007 -301.268 0.
-203.354 -449.542 0.
-311.495 -537.451 0.
-233.3 -358.011 0.
-181.484 -252.171 0.
-0.653061 -4.1555 0.
-197.677 -390.827 0.
-2.58612 -26.0881 0.
12.0595 21.5851 0.
5.38138 11.6965 0.
-2.30643 -34.1197 0.
13.0592 34.178 0.
8.65069 13.1775 0.
-0.825773 -3.79024 0.
-153.717 -305.773 0.
-0.734564 -1.69412 0.
-83.9811 -229.809 0.
-61.7415 -170.847 0.
-44.0887 -121.293 0.
-191.85 -436.472 0.
-120.687 -222.489 0.
-199.448 -234.993 0.
-108.145 -165.589 0.
-115.757 -210.723 0.
-718.831 -1282.64 0.
-202.028 -228.149 0.
-167.805 -158.401 0.
-865.741 -2001.94 0.
-732.984 -1763.85 0.
-655.805 -1646.43 0.
-1364.77 -2784.4 0.
-991.832 -1991.95 0.
-661.707 -1300.68 0.
-715.18 -1109.36 0.
-759.953 -1279.15 0.
-1391.69 -2717.37 0.
-1325.38 -2240.53 0.
-1287.49 -2159.64 0.
-821.432 -1527.27 0.
-639.133 -1152.64 0.
-555.467 -1002.03 0.
-701.661 -1261.6 0.
-637.543 -1117.52 0.
-652.837 -1166.71 0.
-679.388 -1283.16 0.
-619.447 -1148.48 0.
-681.661 -1304.14 0.
-916.166 -1494.05 0.
-949.021 -1582.34 0.
-661.721 -1129.81 0.
-565.442 -933.921 0.
-552.314 -918.976 0.
-621.461 -1126.9 0.
-646.861 -1232.07 0.
-589.504 -1162.65 0.
-702.132 -1180.9 0.
-721.372 -1256.41 0.
-747.692 -1344.15 0.
-552.195 -1244.11 0.
-519.338 -1168.89 0.
-2039.82 -2181.95 0.
-652.599 -1180.41 0.
-674.554 -1231.71 0.
-693.065 -1257.07 0.
-668.877 -1174.71 0.
-648.425 -1133.48 0.
-596.869 -1157.07 0.
-560.872 -1066.37 0.
-567.187 -1036.67 0.
-569.957 -937.706 0.
-640.253 -1105.04 0.
-689.702 -1187.29 0.
-972.816 -1628.59 0.
-953.1 -1571.96 0.
-626.505 -1034.47 0.
-657.135 -1197.73 0.
-677.386 -1227.05 0.
-680.689 -1200.13 0.
-673.314 -1179.86 0.
-750.046 -1316.64 0.
-632.54 -1029.26 0.
-769 -1354.43 0.
-865.822 -1502.55 0.
-1398.17 -2394.1 0.
-1477.16 -2574.31 0.
-1472.45 -2738.74 0.
-849.303 -1285.33 0.
-857.896 -1206.75 0.
-626.104 -1468.6 0.
-1104.68 -2430.32 0.
-1918.76 -4210.66 0.
-302.979 -743.665 0.
-636.822 -1561.55 0.
-738.159 -1702.28 0.
-383.451 -422.399 0.
-229.856 -232.771 0.
-382.126 -439.885 0.
-163.898 -197.84 0.
-231.384 -274.515 0.
-61.7635 -101.05 0.
-123.239 -237.891 0.
-176.059 -380.659 0.
-372.723 -546.198 0.
-248.756 -316.235 0.
-126.525 -193.52 0.
4.4505 10.0892 0.
-0.179913 -0.851438 0.
-2.31101 -28.6777 0.
22.2461 57.7108 0.
-1474.34 -3405.07 0.
5.55879 11.3576 0.
13.2381 34.51 0.
-197.452 -468.163 0.
-1964.98 -3938.56 0.
-0.00630439 -0.0149119 0.
-2329.05 -4679.1 0.
-426.502 -954.72 0.
-4258.36 -8681.8 0.
-0.045064 -4.8256 0.
-3090.05 -5109.08 0.
-154.146 -410.551 0.
-102.482 -229.473 0.
-3781.12 -8218.48 0.
-71.1813 -185.584 0.
-2097.04 -3382.16 0.
-1549.24 -2713.63 0.
-1095.48 -1979.94 0.
-1987.37 -4618.57 0.
-741.179 -1831.64 0.
-76.5461 -146.155 0.
-682.645 -1677.92 0.
-370.85 -958.996 0.
-136.978 -257.72 0.
-543.984 -725.571 0.
-452.776 -604.896 0.
-368.362 -495.475 0.
-701.921 -913.153 0.
-707.698 -957.353 0.
-382.684 -522.225 0.
-385.649 -555.111 0.
-399.169 -612.902 0.
-455.116 -717.071 0.
-437.029 -722.053 0.
-420.845 -717.808 0.
-390.818 -710.636 0.
-364.019 -648.055 0.
-351.756 -574.151 0.
-556.563 -863.499 0.
-540.157 -845.397 0.
-402.563 -568.813 0.
-401.629 -569.481 0.
-401.551 -573.188 0.
-427.325 -764.132 0.
-401.83 -703.121 0.
-369.35 -651.154 0.
-452.797 -690.774 0.
-449.963 -699.781 0.
-456.873 -700.713 0.
-253.033 -510.86 0.
-228.057 -444.485 0.
-1495.39 -1083.83 0.
-274.534 -548.233 0.
-287.208 -591.386 0.
-353.373 -675.533 0.
-378.809 -684.815 0.
-403.317 -695.565 0.
-411.238 -639.508 0.
-444.714 -660.476 0.
-462.019 -697.581 0.
-349.378 -571.81 0.
-362.792 -598.662 0.
-376.765 -626.791 0.
-496.051 -833.225 0.
-496.643 -794.542 0.
-334.049 -485.174 0.
-350.741 -560.577 0.
-398.178 -679.721 0.
-424.801 -681.355 0.
-450.532 -705.195 0.
-487.389 -719.527 0.
-475.132 -661.838 0.
-430.145 -552.021 0.
-404.491 -493.913 0.
-710.385 -842.276 0.
-706.183 -768.091 0.
-297.46 -242.17 0.
-446.575 -498.631 0.
-610.95 -783.791 0.
-70.6767 -63.9662 0.
-356.432 -825.754 0.
-844.539 -2012.28 0.
-119.13 -259.373 0.
-897.576 -2141.47 0.
-2435.64 -5474.62 0.
-532.295 -916.776 0.
-1305.59 -2084.25 0.
-2161.86 -3209.25 0.
-160.054 -326.295 0.
-4260.82 -7804.41 0.
-73.937 -185.612 0.
-268.389 -738.599 0.
-3469.38 -6937.27 0.
-213.569 -496.398 0.
-3511.96 -6467.95 0.
-1.7258 -16.4008 0.
-4335.44 -7813.34 0.
-3.33091 -40.7292 0.
-2275.73 -4806.91 0.
-1.80752 -64.7201 0.
-328.066 -680.592 0.
-3275.48 -6335.37 0.
42.3397 113.722 0.
-512.771 -1184.57 0.
-581.548 -1209.18 0.
-1.73702 -30.7017 0.
-130.312 -308.802 0.
2.06913 5.25435 0.
-41.6585 -97.9009 0.
-0.102928 -9.16162 0.
-41.6075 -114.663 0.
-40.4826 -106.238 0.
-41.1962 -97.7272 0.
-154.14 -403.027 0.
-34.1236 -80.1941 0.
-126.483 -184.938 0.
-340.127 -282.343 0.
-661.53 -500.73 0.
-434.403 -937.927 0.
-122.598 -219.162 0.
-99.0779 -165.777 0.
-384.825 -898.84 0.
-130.447 -149.862 0.
-11.5948 -23.959 0.
-511.183 -631.579 0.
-422.155 -505.892 0.
-346.312 -383.196 0.
-788.007 -949.049 0.
-797.417 -988.812 0.
-372.941 -495.561 0.
-407.144 -529.991 0.
-419.134 -587.312 0.
-449.377 -621.3 0.
-430.111 -623.548 0.
-408.032 -629.604 0.
-355.747 -645.396 0.
-343.351 -568.229 0.
-336.17 -487.143 0.
-582.111 -864.077 0.
-578.293 -848.207 0.
-433.549 -577.315 0.
-433.775 -577.037 0.
-436.425 -579.172 0.
-460.146 -717.219 0.
-436.678 -673.218 0.
-398.946 -657.588 0.
-433.691 -652.946 0.
-440.926 -653.871 0.
-447.519 -654.845 0.
-263.318 -497.129 0.
-241.737 -430.525 0.
-1715.17 -1172.23 0.
-243.233 -469.448 0.
-256.183 -512.761 0.
-376.743 -628.697 0.
-389.317 -650.205 0.
-412.74 -661.457 0.
-467.397 -660.176 0.
-485.457 -669.324 0.
-510.266 -697.989 0.
-341.311 -564.82 0.
-364.093 -581.613 0.
-367.762 -619.534 0.
-551.158 -854.329 0.
-536.88 -817.58 0.
-334.569 -450.132 0.
-350.646 -525.919 0.
-394.942 -650.595 0.
-410.811 -546.596 0.
-459.374 -545.52 0.
-499.958 -551.147 0.
-466.878 -664.101 0.
-423.367 -557.506 0.
-383.229 -449.882 0.
-789.527 -858.814 0.
-798.102 -776.831 0.
-112.314 -88.3124 0.
-276.177 -330.271 0.
-438.089 -608.633 0.
-81.7484 -67.5449 0.
-129.644 -123.406 0.
-351.011 -657.367 0.
-112.443 -161.248 0.
-148.269 -251.903 0.
-323.666 -745.549 0.
-72.4471 -184.174 0.
-60.1104 -158.156 0.
-50.3254 -129.828 0.
-124.348 -285.739 0.
-243.025 -567.359 0.
-0.173042 -3.29152 0.
-128.631 -323.419 0.
-464.312 -1284.95 0.
4.41654 11.1286 0.
-14.706 -32.7865 0.
11.789 26.8631 0.
-92.7998 -176.781 0.
17.0198 40.2302 0.
-0.258383 -24.3547 0.
-270.632 -715.309 0.
7.64901 13.8705 0.
-0.527549 -11.0321 0.
-6.18573 -110.796 0.
-1078.82 -2432.44 0.
-2.31648 -85.2801 0.
-1.29907 -24.6223 0.
-59.5651 -150.519 0.
2.69485 7.23146 0.
-2255.38 -4519.92 0.
-0.692187 -10.8684 0.
-3338.87 -6631.38 0.
-315.615 -775.648 0.
-0.293373 -0.808258 0.
-3026.62 -7568.35 0.
-317.498 -868.317 0.
-429.448 -1177.91 0.
-2938.76 -5007.84 0.
-525.392 -962.456 0.
-2798.9 -5725.22 0.
-929.435 -1783.39 0.
-89.9184 -59.5479 0.
-2317.54 -4708.19 0.
-1213.52 -2641.46 0.
-247.628 -437.021 0.
-1325.79 -2480.72 0.
-911.768 -1719.51 0.
-559.671 -1051.63 0.
-1132.82 -1807.4 0.
-1026.61 -1690.8 0.
-724.428 -1251.41 0.
-731.111 -1270.5 0.
-738.942 -1290.27 0.
-742.317 -1309.42 0.
-700.098 -1253.04 0.
-664.306 -1190.22 0.
-675.631 -1286.54 0.
-647.253 -1252.01 0.
-621.882 -1214.48 0.
-1068.14 -1723.74 0.
-988.98 -1609.64 0.
-706.67 -1180.51 0.
-707.226 -1180.44 0.
-709.059 -1178.69 0.
-726.034 -1315.22 0.
-689.632 -1243.94 0.
-657.134 -1180.06 0.
-678.371 -1186.82 0.
-670.955 -1171.12 0.
-664.694 -1154.28 0.
-511.431 -1145.57 0.
-503.523 -1134.03 0.
-2124.76 -1956.38 0.
-544.306 -1222.13 0.
-550.789 -1230.6 0.
-635.504 -1230.59 0.
-636.474 -1240.55 0.
-637.956 -1249.99 0.
-620.553 -1117.77 0.
-681.723 -1175.47 0.
-718.187 -1276.73 0.
-648.351 -1105.91 0.
-642.972 -1092.86 0.
-639.605 -1077.8 0.
-941.488 -1513.4 0.
-1007.83 -1627.54 0.
-635.595 -1170.06 0.
-678.62 -1274.07 0.
-730.531 -1377.31 0.
-739.734 -1124.78 0.
-718.06 -1108.58 0.
-698.032 -1090.74 0.
-651.127 -1213.56 0.
-692.716 -1263.25 0.
-738.363 -1311 0.
-1028.45 -1651.06 0.
-1196.04 -1846.17 0.
-453.995 -891.619 0.
-921.971 -1869.33 0.
-1493.79 -2946.79 0.
-35.3108 -13.9008 0.
-1174.99 -2718.2 0.
-2737.48 -5986.7 0.
-283.481 -405.882 0.
-645.837 -1093.44 0.
-2474.17 -4544.95 0.
-203.271 -274.146 0.
-3748.17 -7653.69 0.
-37.5417 -94.2797 0.
-221.18 -604.157 0.
-2770.78 -5278.11 0.
-140.319 -388.007 0.
-3707.35 -7614.45 0.
-0.0584316 -5.43504 0.
-2782.19 -6453.56 0.
-0.418835 -23.8749 0.
-3.34043 -38.1277 0.
-0.375145 -12.7433 0.
-2.06037 -30.1177 0.
27.1376 73.764 0.
9.52968 24.3592 0.
-897.708 -1497.41 0.
-4.09152 -99.4239 0.
-10.0478 -25.0107 0.
-1543.73 -3454.14 0.
14.4324 37.1069 0.
23.3517 58.0061 0.
19.4365 51.1582 0.
-2679.06 -6436.33 0.
9.60487 26.412 0.
3.34832 8.327 0.
-0.147546 -18.249 0.
-0.0879369 -0.240124 0.
2.0979 5.73906 0.
-357.35 -976.81 0.
-0.0551287 -2.09186 0.
-0.150607 -2.25617 0.
-174.073 -436.696 0.
-69.0738 -173.04 0.
-77.2491 -175.682 0.
-44.3579 -64.336 0.
-54.1151 -55.2674 0.
-425.584 -840.661 0.
-71.1372 -67.813 0.
-89.8026 -100.199 0.
-635.434 -1333.33 0.
-317.63 -541.507 0.
-92.1919 -45.6757 0.
-808.966 -1436.35 0.
-722.073 -1373.98 0.
-613.791 -1114.34 0.
-611.491 -1162.33 0.
-629.943 -1210.76 0.
-700.938 -1173.59 0.
-663.669 -1116.28 0.
-626.712 -1073.57 0.
-599.69 -1097.39 0.
-576.072 -1070.16 0.
-551.763 -1043.94 0.
-918.945 -1515.92 0.
-847.942 -1418.65 0.
-620.823 -1080.93 0.
-619.081 -1083.28 0.
-617.652 -1085.79 0.
-652.091 -1151.05 0.
-627.773 -1085.41 0.
-582.764 -1063.71 0.
-633.017 -1104.89 0.
-621.33 -1090.19 0.
-612.121 -1077.36 0.
-482.371 -1040.82 0.
-474.051 -1029.21 0.
-1560.34 -1680.53 0.
-572.845 -1137.05 0.
-599.297 -1124.85 0.
-591.192 -1149.21 0.
-565.828 -1120.83 0.
-559.442 -1121.93 0.
-500.077 -976.65 0.
-517.766 -1042.36 0.
-600.442 -1074.79 0.
-558.84 -1027.25 0.
-549.951 -1007.18 0.
-547.533 -1000.89 0.
-774.7 -1350.38 0.
-841.99 -1437.91 0.
-563.254 -1046.91 0.
-586.789 -1100.49 0.
-629.635 -1190.64 0.
-670.316 -1043.07 0.
-654.657 -1019.68 0.
-645.362 -996.651 0.
-564.878 -1026.65 0.
-577.205 -1039.35 0.
-605.539 -1085.81 0.
-676.027 -1199.82 0.
-788.489 -1346.65 0.
-68.2572 -62.8553 0.
-240.286 -257.329 0.
-660.142 -1400.99 0.
-12.2252 -5.47211 0.
-67.5783 -39.2614 0.
-257.95 -427.888 0.
-124.121 -158.616 0.
-96.2462 -105.572 0.
-160.064 -166.257 0.
-189.26 -231.721 0.
-157.598 -296.502 0.
-0.0991349 -1.15415 0.
-0.093918 -0.25776 0.
-171.683 -475.176 0.
-1.42208 -3.93194 0.
-180.378 -464.804 0.
8.14206 22.4733 0.
-709.156 -1806.4 0.
-0.575585 -25.1074 0.
-1658.54 -4122.61 0.
25.9173 67.5192 0.
13.4394 32.3927 0.
12.37 33.7806 0.
20.3894 52.5488 0.
-3.12365 -268.746 0.
87.2101 222.878 0.
-381.49 -963.928 0.
56.1224 145.586 0.
8.65762 22.0371 0.
-2155.47 -5543.38 0.
-0.869466 -57.6762 0.
-2.16643 -5.61496 0.
9.60287 26.5715 0.
-0.0215791 -0.561508 0.
-0.0571401 -9.12166 0.
-0.0108584 -6.35658 0.
2.50646 6.82274 0.
-0.020404 -2.32682 0.
0.287593 0.744511 0.
-0.106753 -1.60281 0.
-51.4247 -83.3294 0.
-58.9452 -97.2044 0.
-83.4722 -154.592 0.
-59.5807 -80.5946 0.
-39.0603 -49.5835 0.
-103.064 -75.5293 0.
-86.4033 -68.5879 0.
-96.0437 -94.0424 0.
-372.281 -557.5 0.
-146.057 -80.0299 0.
-51.4407 -32.1288 0.
-748.187 -1266.35 0.
-509.104 -823.846 0.
-578.573 -933.132 0.
-523.942 -775.205 0.
-295.496 -223.018 0.
-653.793 -832.731 0.
-310.336 -346.519 0.
-133.085 -129.753 0.
-368.402 -561.93 0.
-393.126 -614.306 0.
-422.661 -661.188 0.
-613.485 -868.471 0.
-690.039 -986.262 0.
-408.904 -503.401 0.
-430.783 -576.402 0.
-304.558 -363.905 0.
-338.426 -488.045 0.
-297.855 -415.187 0.
-522.207 -955.78 0.
-498.609 -819.661 0.
-371.918 -511.568 0.
-375.964 -532.741 0.
-228.788 -302.014 0.
-240.6 -334.869 0.
-1448.27 -1249.68 0.
-464.339 -667.674 0.
-464.787 -674.371 0.
-383.79 -608.099 0.
-348.826 -481.301 0.
-431.719 -644.069 0.
-250.707 -301.274 0.
-400.934 -619.959 0.
-413.392 -541.877 0.
-376.089 -574.261 0.
-329.268 -449.607 0.
-371.754 -334.546 0.
-467.076 -699.547 0.
-650.329 -1126.62 0.
-330.19 -393.009 0.
-421.901 -516.841 0.
-168.81 -136.686 0.
-245.154 -291.716 0.
-205.251 -185.757 0.
-142.609 -132.911 0.
-289.819 -190.445 0.
-524.206 -749.124 0.
-471.437 -673.132 0.
-262.756 -246.452 0.
-634.986 -1089.02 0.
-69.1923 -62.8329 0.
-52.597 -35.6078 0.
-95.7963 -35.4187 0.
0.0881086 0.0552046 0.
-52.4989 -39.5728 0.
-114.681 -121.948 0.
-134.815 -162.654 0.
-102.249 -96.1784 0.
-136.842 -120.088 0.
-178.348 -182.462 0.
-214.381 -271.729 0.
-0.713696 -4.42937 0.
1.44296 3.68022 0.
-52.6895 -143.77 0.
-0.00586009 -8.75547 0.
-0.733182 -1.92946 0.
9.21945 25.5362 0.
-97.6826 -260.842 0.
17.47 46.682 0.
-569.215 -1442.99 0.
-812.841 -2181.04 0.
28.6504 79.345 0.
-4.58885 -12.5774 0.
-24.6017 -63.8752 0.
-0.248643 -116.569 0.
-3010.79 -7868.21 0.
6.28232 17.302 0.
-1.94055 -86.2633 0.
-777.879 -2135.62 0.
30.6411 84.527 0.
11.1896 30.2139 0.
1.26194 3.33381 0.
10.4471 28.9361 0.
-0.0846401 -2.55087 0.
-1.10018 -2.7471 0.
-2776.57 -6778.16 0.
0.700869 1.88891 0.
-1875.01 -4428.15 0.
-362.25 -898.115 0.
-81.8501 -224.887 0.
-3288.19 -8169.25 0.
-17.7675 -37.2751 0.
-3053.83 -5568.15 0.
-400.971 -743.999 0.
-13.6072 -7.11881 0.
-3196.64 -7303.7 0.
-287.627 -552.664 0.
-9.15032 -3.56549 0.
-2073.6 -4785.15 0.
-844.012 -1981.79 0.
-34.075 -45.9062 0.
-1347.34 -2956.02 0.
-873.081 -1966.35 0.
-874.025 -1838.87 0.
-635.518 -1331.41 0.
-403.425 -824.89 0.
-600.741 -1064.42 0.
-580.899 -1038.55 0.
-557.632 -1019.49 0.
-525.225 -914.03 0.
-481.676 -835.908 0.
-431.037 -766.251 0.
-745.721 -1214.17 0.
-737.374 -1208.25 0.
-466.746 -858.757 0.
-459.377 -835.906 0.
-465.593 -849.871 0.
-486.075 -911.781 0.
-470.681 -881.901 0.
-458.315 -859.631 0.
-477.308 -909.028 0.
-496.451 -945.594 0.
-529.596 -993.43 0.
-392.296 -815.322 0.
-365.722 -742.336 0.
-864.013 -1107.74 0.
-569.093 -872.851 0.
-583.885 -882.039 0.
-446.24 -798.854 0.
-452.372 -804.565 0.
-466.424 -800.811 0.
-437.01 -779.65 0.
-442.511 -782.503 0.
-416.511 -814.29 0.
-489.095 -851.143 0.
-480.864 -849.817 0.
-476.965 -859.584 0.
-715.887 -1225.1 0.
-737.521 -1255.41 0.
-467.967 -881.982 0.
-493.677 -914.646 0.
-516.973 -948.01 0.
-511.983 -918.665 0.
-614.152 -1121.78 0.
-714.597 -1323.98 0.
-466.05 -885.474 0.
-729.143 -1455.17 0.
-1006.84 -2012.54 0.
-930.97 -1939.43 0.
-1629.61 -3397.56 0.
-45.9093 -25.2091 0.
-767.081 -1721.09 0.
-2477.1 -5570.98 0.
-79.988 -127.213 0.
-146.71 -227.168 0.
-3367.2 -8259.03 0.
-48.2953 -87.0926 0.
-140.112 -349.624 0.
-3098.39 -5701.97 0.
-162.202 -421.672 0.
-3239.12 -7192.53 0.
-189.707 -481.132 0.
-495.263 -1149.84 0.
-2851.59 -6483.93 0.
1.5091 3.57091 0.
-2429.14 -5217.8 0.
-0.000944819 -1.86208 0.
6.38393 17.3199 0.
-0.395519 -1.06862 0.
5.58766 15.4063 0.
-576.881 -1557.81 0.
-330.667 -915.294 0.
-0.0728561 -16.9729 0.
-278.615 -729.798 0.
27.2432 75.4584 0.
56.4176 153.131 0.
-0.0689288 -175.753 0.
46.1276 122.566 0.
-1241 -3419.74 0.
30.2378 83.6543 0.
-0.336153 -41.8047 0.
-1.20006 -3.20407 0.
-249.506 -670.319 0.
-2706.27 -6454.57 0.
-0.946305 -26.8395 0.
-251.109 -650.985 0.
2.3811 6.54908 0.
-514.217 -1245.79 0.
-0.0102161 -4.9756 0.
-0.00567051 -1.06531 0.
-74.8227 -202.598 0.
-0.163321 -1.49753 0.
-82.4695 -99.5153 0.
-36.5677 -34.9592 0.
-31.675 -25.2273 0.
-124.18 -117.975 0.
-19.4704 -7.98439 0.
-9.66581 -3.60946 0.
-467.673 -1034.9 0.
-3.82505 -3.00067 0.
-43.7673 -49.5455 0.
-701.754 -1733.22 0.
-295.189 -678.605 0.
-566.613 -1255.9 0.
-365.017 -713.906 0.
-176.126 -163.051 0.
-518.183 -857.535 0.
-496.891 -835.574 0.
-480.886 -808.895 0.
-498.246 -811.889 0.
-455.7 -734.243 0.
-416.96 -677.036 0.
-750.706 -1212.32 0.
-743.463 -1208.14 0.
-494.973 -748.221 0.
-489.255 -722.843 0.
-489.479 -713.88 0.
-484.131 -884.852 0.
-464.485 -839.599 0.
-445.48 -793.385 0.
-433.363 -863.585 0.
-454.399 -918.793 0.
-481.139 -971.847 0.
-395.948 -811.456 0.
-367.854 -741.871 0.
-779.252 -947.42 0.
-624.874 -918.004 0.
-650.662 -916.522 0.
-453.005 -684.692 0.
-453.458 -695.513 0.
-453.253 -707.195 0.
-448.264 -705.429 0.
-444.136 -714.702 0.
-443.82 -725.275 0.
-492.471 -740.612 0.
-490.858 -735.195 0.
-504.767 -766.42 0.
-770.306 -1243.44 0.
-791.747 -1273.03 0.
-406.212 -749.664 0.
-429.74 -785.253 0.
-453.301 -827.275 0.
-330.775 -657.271 0.
-421.755 -868.876 0.
-531.595 -1068.07 0.
-124.273 -59.4746 0.
-368.591 -648.553 0.
-609.935 -1244.75 0.
-120.637 -47.9362 0.
-776.211 -1552.89 0.
-13.8959 -6.57896 0.
-58.7206 -40.3425 0.
-94.4256 -98.957 0.
-81.3972 -127.85 0.
-54.6797 -84.1697 0.
-149.049 -262.729 0.
-4.67871 -9.87803 0.
-83.518 -200.677 0.
-181.781 -502.805 0.
-0.000633447 -1.97189 0.
-90.4684 -231.354 0.
2.35304 6.06999 0.
-213.533 -520.723 0.
-0.00012914 -6.30591 0.
0.571237 1.46185 0.
4.28702 11.6592 0.
-1560.49 -4082.77 0.
3.46006 9.35032 0.
22.1579 60.2823 0.
23.94 66.1336 0.
-396.641 -1076.42 0.
-303.072 -838.466 0.
-0.205106 -70.4059 0.
-1055.38 -2792.6 0.
46.1303 120.798 0.
-26.4096 -71.8243 0.
32.7185 90.6093 0.
-7.88709 -21.649 0.
-0.14466 -127.882 0.
25.4386 70.4559 0.
-0.510467 -83.826 0.
21.9605 60.2572 0.
-233.297 -636.253 0.
20.3098 56.0394 0.
-0.894776 -31.9416 0.
-0.0259105 -5.12242 0.
-0.00181835 -5.26287 0.
0.148401 10.3053 0.
-0.00014143 -3.61947 0.
-449.343 -1150.75 0.
-1815.94 -4899.8 0.
-15.0315 -41.6346 0.
-2651.87 -6103.64 0.
-104.358 -236.637 0.
-9.62629 -20.3062 0.
-3077.52 -7892.5 0.
-43.1378 -41.6341 0.
-62.1504 -70.2418 0.
-2604.71 -6063.81 0.
-395.891 -760.076 0.
-61.0726 -104.502 0.
-1716.08 -4157.96 0.
-763.429 -1961.81 0.
-1120.2 -2467.32 0.
-744.901 -1686.16 0.
-410.192 -879.393 0.
-843.353 -1642.33 0.
-670.124 -1300.04 0.
-500.005 -954.869 0.
-651.209 -1042.17 0.
-626.082 -998.119 0.
-601.748 -958.764 0.
-908.117 -1575.42 0.
-896.801 -1559.73 0.
-699.795 -1113.88 0.
-666.975 -1044.83 0.
-639.943 -990.928 0.
-652.526 -1078.62 0.
-593.305 -1063.41 0.
-576.725 -1015.88 0.
-658.16 -1109.1 0.
-632.582 -1035.67 0.
-544.019 -1027.04 0.
-499.325 -1121.99 0.
-502.296 -1133.6 0.
-1270.4 -1517.57 0.
-733.858 -1140.26 0.
-748.403 -1096.51 0.
-509.666 -895.904 0.
-571.287 -1025.51 0.
-635.421 -1160.22 0.
-608.849 -1004.8 0.
-602.134 -991.196 0.
-599.475 -989.725 0.
-640.916 -947.326 0.
-663.507 -996.194 0.
-686.159 -1045.2 0.
-898.597 -1566.3 0.
-933.656 -1655.92 0.
-507.646 -929.309 0.
-567.068 -1024.73 0.
-635.632 -1137.79 0.
-407.133 -907.335 0.
-641.372 -1380.79 0.
-887.485 -1847.15 0.
-324.728 -568.27 0.
-818.724 -1681.37 0.
-1357.14 -2760.57 0.
-789.928 -1542.7 0.
-2013.36 -4505.21 0.
-85.8994 -56.4901 0.
-78.7897 -43.3072 0.
-2867.56 -7116.37 0.
-143.957 -331.962 0.
-101.514 -224.941 0.
-2421.59 -4652.46 0.
-110.62 -304.062 0.
-3236.14 -7975.3 0.
-9.37927 -25.7964 0.
-48.1553 -127.262 0.
-2050.48 -5390.91 0.
-0.49707 -1.28446 0.
-0.283995 -0.703058 0.
-0.0396124 -35.9985 0.
-0.296573 -16.7364 0.
-0.130233 -33.498 0.
-1025.28 -2730.13 0.
-0.30081 -53.0853 0.
-902.356 -2411.72 0.
-0.0342083 -56.7427 0.
35.4423 97.693 0.
-238.258 -658.838 0.
29.8579 82.602 0.
43.1281 118.279 0.
-6.02612 -189.974 0.
18.4071 50.2903 0.
-36.0466 -99.5449 0.
13.2978 36.3972 0.
10.4592 28.8388 0.
-180.047 -498.542 0.
-137.641 -380.216 0.
-2.30796 -6.36589 0.
-410.046 -1128.03 0.
-0.162325 -39.8113 0.
13.5693 35.6822 0.
10.1076 26.777 0.
-2499.59 -6534.23 0.
-0.165497 -24.9156 0.
-2010.61 -4969.2 0.
-0.106959 -9.74172 0.
-9.78839 -26.4981 0.
-1.60759 -4.44453 0.
1.18354 3.06118 0.
-7.81788 -19.7383 0.
0.182764 0.367453 0.
-83.8444 -80.1925 0.
-47.9796 -44.0925 0.
-65.0355 -70.1092 0.
-14.8449 -32.0237 0.
-5.2514 -11.8211 0.
-5.43155 -15.0013 0.
-554.433 -1490.56 0.
-0.402704 -0.549133 0.
-528.033 -1211.48 0.
-191.954 -388.193 0.
-45.5662 -84.6856 0.
-535.655 -1184.49 0.
-366.92 -806.536 0.
-221.78 -410.42 0.
-520.661 -915.694 0.
-499.018 -871.564 0.
-478.179 -836.441 0.
-839.08 -1507.08 0.
-829.782 -1493.51 0.
-629.535 -996.251 0.
-606.665 -945.923 0.
-603.263 -952.821 0.
-579.969 -1028.21 0.
-564.585 -985.175 0.
-549.611 -943.007 0.
-561.898 -1066.07 0.
-543.203 -999.144 0.
-524.249 -1016.87 0.
-434.395 -1025.26 0.
-430.604 -1025.41 0.
-704.226 -1227.71 0.
-680.495 -1023.51 0.
-672.558 -1000.67 0.
-486.751 -922.618 0.
-531.432 -997.663 0.
-600.546 -1103.25 0.
-560.201 -998.185 0.
-555.656 -980.456 0.
-548.611 -966.202 0.
-553.546 -894.791 0.
-562.047 -904.985 0.
-583.841 -954.613 0.
-800.86 -1482.94 0.
-835.177 -1567.98 0.
-345.944 -687.198 0.
-398.007 -789.714 0.
-452.528 -891.184 0.
-125.543 -139.423 0.
-307.608 -668.666 0.
-510.626 -1174.22 0.
0.762383 0.328271 0.
-0.177125 -0.0117902 0.
-498.416 -976.047 0.
-98.752 -35.7453 0.
-593.632 -1036.3 0.
-104.238 -63.9635 0.
-97.6215 -50.7418 0.
-125.04 -68.4626 0.
1.1901 1.48009 0.
-11.3782 -21.4944 0.
-93.4218 -257.564 0.
-0.0267328 -4.01432 0.
-321.313 -839.418 0.
0.763038 2.11286 0.
-13.2315 -35.9238 0.
-223.516 -575.685 0.
-21.4448 -54.0904 0.
-2425.48 -5635.09 0.
-0.265975 -31.11 0.
-1636.96 -4389.17 0.
-0.0526223 -31.116 0.
-131.852 -354.642 0.
-0.153476 -58.2716 0.
-749.355 -2024.27 0.
-2.49911 -6.90379 0.
-3.44989 -9.51757 0.
-118.799 -328.437 0.
21.2609 58.888 0.
-22.1771 -60.2317 0.
86.257 217.897 0.
-133.37 -366.706 0.
-78.6638 -215.988 0.
25.2386 68.8757 0.
15.0199 41.3275 0.
-14.5983 -39.9568 0.
-483.12 -1326.3 0.
-20.2784 -56.1027 0.
-940.032 -2597.38 0.
-0.0907494 -13.6847 0.
-1038.93 -2764.77 0.
-0.649922 -1.75062 0.
-353.199 -953.17 0.
5.76781 15.9508 0.
-0.417313 -10.058 0.
0.00294592 0.633251 0.
0.485566 1.33168 0.
2.33536 6.43515 0.
1.21592 3.15431 0.
-2.46129 -5.8282 0.
-0.447453 -2.4012 0.
-38.5181 -30.229 0.
-52.8391 -46.0817 0.
-69.5429 -70.2744 0.
-2.37567 -4.62907 0.
0.127009 0.142328 0.
-0.144624 -0.118992 0.
-25.5527 -29.664 0.
-2.10947 -1.9707 0.
-16.4359 -9.37147 0.
-13.6792 -15.4302 0.
-28.1775 -47.5093 0.
-271.484 -549.966 0.
-127.842 -138.627 0.
-30.0343 -29.2435 0.
-325.209 -590.42 0.
-272.285 -443.875 0.
-126.31 -116.393 0.
-372.507 -489.782 0.
-464.136 -757.28 0.
-62.1534 -118.455 0.
-237.662 -399.899 0.
-55.3184 -89.861 0.
-147.015 -174.462 0.
-178.165 -227.958 0.
-190.403 -237.934 0.
-135.29 -174.226 0.
-106.423 -146.809 0.
-110.982 -145.962 0.
-52.2009 -44.2716 0.
-207.98 -479.554 0.
-376.618 -326.511 0.
-339.241 -333.116 0.
-253.397 -157.894 0.
-125.164 -150.393 0.
-99.5071 -89.3374 0.
-98.5309 -99.013 0.
-159.772 -211.719 0.
-156.517 -205.265 0.
-192.192 -287.726 0.
-121.912 -120.96 0.
-195.815 -257.653 0.
-254.496 -295.551 0.
-329.725 -505.209 0.
-300.239 -400.33 0.
-147.03 -237.375 0.
-240.215 -508.955 0.
-335.653 -761.897 0.
-45.3928 -35.8765 0.
-15.7876 -7.26726 0.
-248.807 -514.777 0.
-1.04999 -0.110704 0.
-0.482703 -0.0411413 0.
0.945415 0.39673 0.
-100.348 -37.8815 0.
-129.519 -50.1308 0.
-123.579 -71.8642 0.
-116.934 -58.4219 0.
-108.476 -45.6459 0.
1.07187 1.25719 0.
0.10355 0.1556 0.
-48.7862 -106.983 0.
-0.0669369 -3.55637 0.
-139.941 -385.054 0.
-0.00292213 -7.14438 0.
0.840291 2.31063 0.
-116.915 -310.621 0.
-0.0174129 -0.0461992 0.
-72.0384 -175.364 0.
14.0483 38.3704 0.
-435.886 -1176.46 0.
-389.803 -1079.59 0.
-178.103 -483.248 0.
4.83422 13.361 0.
-0.000779636 -61.6784 0.
-2.60712 -7.2112 0.
26.8076 73.2559 0.
-243.775 -674.018 0.
-0.0379564 -145.196 0.
15.871 39.9083 0.
65.6964 162.612 0.
-505.02 -1396.54 0.
11.6538 28.9544 0.
-8.79681 -23.5276 0.
-6.11629 -16.7921 0.
26.7343 73.109 0.
21.7402 59.6719 0.
-477.644 -1322.96 0.
-783.736 -2117.75 0.
-0.83255 -67.3367 0.
-544.103 -1462.87 0.
10.8924 29.6837 0.
-91.202 -250.188 0.
8.8367 24.4581 0.
7.417 19.2888 0.
-3.10417 -8.39701 0.
-2479.72 -6602.37 0.
-164.841 -437.15 0.
-0.390277 -1.07456 0.
-3062.44 -7892.6 0.
-20.8521 -56.5787 0.
-2101.76 -4403.4 0.
-60.7187 -114.614 0.
-48.0579 -104.066 0.
-2648.26 -6620.37 0.
-0.778727 -2.15682 0.
-0.000142181 -0.000371763 0.
-2238.53 -5689.51 0.
-313.928 -756.014 0.
-1627.14 -3627.02 0.
-755.145 -1703.69 0.
-24.11 -41.4031 0.
-1159.54 -2863.86 0.
-672.021 -1725.53 0.
-218.827 -549.464 0.
-751.931 -1808.57 0.
-512.574 -1230.47 0.
-297.425 -672.636 0.
-719.454 -1581.49 0.
-673.795 -1482.68 0.
-476.466 -896.421 0.
-464.884 -876.871 0.
-470.276 -890.616 0.
-423.408 -884.327 0.
-420.82 -884.055 0.
-421.315 -884.261 0.
-461.79 -983.735 0.
-436.535 -936.58 0.
-418.603 -887.761 0.
-308.345 -806.688 0.
-306.786 -795.906 0.
-360.612 -858.207 0.
-555.908 -891.12 0.
-574.334 -926.67 0.
-434.925 -914.846 0.
-420.353 -883.411 0.
-406.644 -852.622 0.
-346.03 -772.119 0.
-368.615 -808.915 0.
-390.008 -840.478 0.
-454.713 -847.077 0.
-453.006 -845.219 0.
-454.936 -854.612 0.
-602.131 -1462.08 0.
-694.382 -1656.3 0.
-183.539 -468.805 0.
-501.386 -1324.66 0.
-842.731 -2157.83 0.
-72.7218 -200.142 0.
-678.73 -1795.16 0.
-1340.75 -3343.85 0.
-48.6957 -69.808 0.
-735.106 -1637.09 0.
-1839.37 -4164.16 0.
-22.3417 -12.819 0.
-2392.75 -5447.89 0.
1.07865 0.398847 0.
-28.7304 -14.4328 0.
-2789.01 -7284.61 0.
-0.716219 -1.86437 0.
-35.8369 -81.147 0.
-2391.82 -5360.9 0.
-65.6535 -170.62 0.
-1871.18 -5012.95 0.
-9.48825 -25.5805 0.
-2103.46 -5438.85 0.
-0.1787 -16.3348 0.
3.34696 9.0934 0.
-3.91039 -9.9666 0.
3.43025 9.41345 0.
-114.612 -310.716 0.
-434.054 -1195.61 0.
-197.34 -544.923 0.
-3.69656 -10.2361 0.
-3.26876 -9.05301 0.
7.88777 21.8363 0.
17.5585 47.9093 0.
40.3855 111.847 0.
-30.7791 -85.0051 0.
2.03992 5.17767 0.
-48.5474 -133.865 0.
44.4666 117.778 0.
19.5938 49.0734 0.
-1075.6 -2891.4 0.
20.0201 53.296 0.
-0.585641 -102.447 0.
7.76199 21.2874 0.
-448.487 -1240.6 0.
-29.0125 -77.8968 0.
-11.1462 -29.667 0.
-686.727 -1865.3 0.
10.3943 28.5483 0.
-4.33124 -11.9689 0.
0.0284785 0.0787737 0.
-2075.32 -5672.16 0.
2.31056 6.36607 0.
3.67131 10.1671 0.
-48.7136 -132.935 0.
0.971273 2.68846 0.
-227.182 -605.159 0.
1.29824 3.59538 0.
-19.0179 -41.8671 0.
0.930814 2.36498 0.
-0.00064764 -2.38542 0.
-19.8554 -54.6082 0.
-0.0659786 -0.18116 0.
0.0280002 0.0709317 0.
-250.031 -589.064 0.
-9.91797 -8.96302 0.
-293.208 -693.193 0.
-31.6073 -77.8269 0.
-15.3058 -33.0459 0.
-538.182 -1404.14 0.
-93.509 -219.664 0.
-22.3834 -51.7282 0.
-542.989 -1384.7 0.
-328.157 -787.249 0.
-186.996 -397.87 0.
-634.205 -1446.14 0.
-588.487 -1351.79 0.
-432.094 -799.164 0.
-410.937 -741.875 0.
-409.034 -734.797 0.
-418.446 -796.829 0.
-418.713 -795.141 0.
-419.594 -793.307 0.
-435.651 -907.505 0.
-417.174 -855.851 0.
-398.637 -803.911 0.
-315.786 -803.656 0.
-313.544 -797.627 0.
-634.821 -1016.3 0.
-589.753 -861.01 0.
-611.555 -927.342 0.
-366.099 -768.444 0.
-350.697 -741.714 0.
-335.273 -715.337 0.
-388.596 -639.71 0.
-399.141 -695.871 0.
-414.166 -748.867 0.
-372.176 -752.838 0.
-377.929 -749.493 0.
-391.156 -754.687 0.
-506.783 -1253.23 0.
-587.414 -1446.49 0.
-3.22102 -3.41343 0.
-268.915 -673.325 0.
-581 -1537.63 0.
-0.0128196 -0.182734 0.
0.147303 0.402266 0.
-477.66 -1239.92 0.
-32.8545 -51.1679 0.
-26.8863 -37.8908 0.
-177.33 -268.232 0.
-0.923683 -0.851276 0.
-0.891096 -0.365797 0.
-1.08595 -0.078275 0.
-3.18805 -1.84206 0.
-213.771 -465.026 0.
-0.026935 -2.59923 0.
-0.00674816 -0.0165083 0.
-51.4263 -113.71 0.
-0.0430509 -6.47719 0.
-158.888 -429.908 0.
5.17018 14.152 0.
-145.163 -380.152 0.
1.45686 4.01594 0.
-1817.42 -4893.31 0.
-4.3046 -11.8653 0.
-0.0671847 -26.6089 0.
5.61079 14.4414 0.
-512.977 -1397.21 0.
-7.33069 -20.2441 0.
-390.6 -1080.03 0.
-0.0264861 -97.845 0.
-1030.78 -2854.86 0.
24.4492 66.6194 0.
-5.17748 -13.8195 0.
-588.244 -1617.93 0.
38.8964 100.232 0.
-19.3819 -170.551 0.
17.113 45.9656 0.
40.3497 102.149 0.
-2.26365 -73.423 0.
-1.77988 -98.8995 0.
-642.705 -1753.59 0.
15.4712 42.3968 0.
-325.168 -883.524 0.
13.1277 35.3016 0.
18.0817 47.5635 0.
-2.16121 -5.63265 0.
-115.391 -319.047 0.
-1752.84 -4841.68 0.
-3.315 -9.16597 0.
-0.266829 -39.1536 0.
8.77696 24.3106 0.
-0.0839923 -22.0147 0.
5.07174 14.0032 0.
5.59009 15.3407 0.
-38.6205 -106.345 0.
-24.365 -66.2514 0.
-2023.39 -4995.25 0.
-0.0069214 -1.5818 0.
0.96575 2.66999 0.
-2217.08 -6060.98 0.
-12.3822 -33.7311 0.
-11.8303 -31.5758 0.
-2155.96 -5011.3 0.
-26.2864 -44.2415 0.
-1790.96 -4273.03 0.
-506.383 -1205.81 0.
-35.9948 -70.9893 0.
-1400.41 -3475.45 0.
-582.192 -1476.28 0.
-9.65133 -25.8937 0.
-953.936 -2410.3 0.
-532.261 -1411.8 0.
-149.509 -376.185 0.
-792.597 -1832.8 0.
-656.233 -1550.12 0.
-501.935 -1034.44 0.
-441.433 -886.479 0.
-396.935 -780.503 0.
-433.05 -800.898 0.
-427.825 -786.456 0.
-422.216 -770.065 0.
-540.021 -943.461 0.
-470.73 -947.003 0.
-460.268 -908.562 0.
-435.686 -1011.78 0.
-466.112 -1006.92 0.
-766.964 -1126.5 0.
-628.675 -1009.62 0.
-635.877 -1031.91 0.
-393.856 -793.61 0.
-402.185 -817.996 0.
-413.597 -851.386 0.
-479.487 -803.078 0.
-483.933 -805.788 0.
-489.227 -808.471 0.
-385.281 -838.001 0.
-466.113 -1015.74 0.
-553.458 -1195.79 0.
-639.399 -1579.13 0.
-837.987 -1985.34 0.
-90.5786 -171.813 0.
-579.518 -1517.62 0.
-1106.24 -2833.99 0.
-4.83697 -12.9974 0.
-496.554 -1339.83 0.
-1617.58 -4202.29 0.
-46.2897 -78.5481 0.
-390.655 -753.357 0.
-1838 -4272.84 0.
-0.66269 -0.718476 0.
-2024.31 -5001.39 0.
-0.505905 -1.16482 0.
-67.7158 -145.263 0.
-1703.53 -4517.26 0.
-0.0178835 -0.710701 0.
-1464.6 -3724.04 0.
-105.328 -286.622 0.
-0.000189823 -5.72496 0.
-84.8431 -234.229 0.
-0.0163871 -8.9277 0.
1.39832 3.73476 0.
11.2214 31.0805 0.
-511.631 -1398.99 0.
-3.19207 -8.83708 0.
-1414.86 -3889.12 0.
-125.049 -335.709 0.
-533.936 -1433.69 0.
-18.6554 -51.522 0.
-235.757 -651.893 0.
-3.38518 -9.19001 0.
-174.879 -484.359 0.
-154.699 -420.987 0.
18.4472 49.0511 0.
-4.10002 -123.032 0.
46.9809 123.401 0.
61.1493 138.016 0.
10.7389 29.2408 0.
-3.05328 -91.024 0.
11.9539 31.1162 0.
-1.84707 -97.2361 0.
-224.072 -611.079 0.
-0.348504 -0.922092 0.
-265.84 -722.814 0.
19.3829 52.195 0.
-274.887 -713.756 0.
-213.219 -554.488 0.
-152.138 -421.386 0.
8.73886 24.1434 0.
7.34481 20.2981 0.
-0.196031 -27.4684 0.
-0.0457443 -29.9429 0.
-0.00729094 -22.2258 0.
-2022.68 -5555.03 0.
0.00225223 3.21435 0.
-1676.65 -4448.57 0.
-0.0594474 -10.3051 0.
-0.114082 -4.38507 0.
1.51494 4.14197 0.
6.34304e-07 0.21981 0.
-42.5968 -117.958 0.
-19.8746 -54.6511 0.
-19.7214 -53.2443 0.
-98.4058 -248.439 0.
-21.9563 -40.8027 0.
-190.743 -439.034 0.
-21.681 -22.9477 0.
-33.5394 -43.3897 0.
-465.247 -1166.99 0.
-0.399846 -0.769482 0.
-4.9561 -12.5656 0.
-505.027 -1350.57 0.
-119.249 -316.33 0.
-39.5518 -101.274 0.
-558.147 -1387.8 0.
-429.349 -1103.81 0.
-421.656 -920.122 0.
-351.008 -779.216 0.
-296.833 -664.488 0.
-335.176 -785.736 0.
-328.966 -773.217 0.
-321.596 -757.025 0.
-475.336 -912.564 0.
-439.366 -925.682 0.
-437.849 -914.742 0.
-389.787 -985.316 0.
-380.927 -963.685 0.
-344.415 -855.757 0.
-589.556 -902.486 0.
-595.28 -920.046 0.
-375.95 -843.548 0.
-381.336 -856.764 0.
-390.583 -876.477 0.
-353.693 -805.517 0.
-357.021 -811.866 0.
-362.43 -814.729 0.
-251.7 -560.77 0.
-316.12 -755.919 0.
-395.616 -944.88 0.
-323.085 -882.613 0.
-496.927 -1312.35 0.
-20.4586 -52.1178 0.
-65.2039 -175.933 0.
-557.24 -1523.45 0.
-0.00024503 -0.756368 0.
-5.21933 -14.3725 0.
-398.025 -1092.59 0.
-31.862 -51.3514 0.
-7.4028 -10.0705 0.
-0.335292 -0.37469 0.
-36.9499 -32.0942 0.
-62.3125 -51.983 0.
-0.358708 -1.9265 0.
-0.103034 -2.87522 0.
-0.000421813 -0.0393134 0.
0.0249147 2.99574 0.
-678.686 -1846.12 0.
3.73617 10.3286 0.
0.015969 3.02808 0.
-1610.59 -4389.65 0.
7.35881 20.2993 0.
-1680.38 -4570.22 0.
-0.0644476 -36.5961 0.
-45.1781 -124.775 0.
10.4888 29.0408 0.
-938.397 -2590.53 0.
-47.9405 -129.067 0.
-478.509 -1287.28 0.
-5.82165 -16.0788 0.
-1062.57 -2939.15 0.
21.9998 59.456 0.
-3.26769 -8.40516 0.
-169.409 -460.472 0.
20.131 53.3244 0.
-3.34411 -93.8215 0.
15.0778 37.601 0.
-1.93559 -24.5404 0.
-0.150081 -34.7561 0.
-1.60054 -34.8112 0.
33.2963 87.591 0.
-578.71 -1529.52 0.
-5.25075 -13.3296 0.
-0.29026 -0.764037 0.
-1253 -3413.14 0.
12.0167 32.3945 0.
-29.5131 -76.714 0.
-85.9611 -223.978 0.
-332.736 -920.737 0.
11.1116 30.5252 0.
0.00752536 0.020785 0.
-0.344009 -0.947995 0.
-1376.48 -3812.57 0.
-0.133597 -30.5451 0.
-0.178093 -0.492148 0.
-0.0519512 -10.3783 0.
-0.750874 -11.6093 0.
0.0125613 2.05165 0.
-0.199254 -18.0149 0.
-2.41298e-06 -0.000329283 0.
-8.76113e-05 -0.596328 0.
-182.79 -503.917 0.
-31.0505 -85.8262 0.
-32.3284 -87.9339 0.
-102.66 -263.925 0.
-19.1335 -37.7059 0.
-17.4437 -24.5854 0.
-27.9662 -25.4795 0.
-49.7279 -53.3643 0.
-0.080753 -0.135814 0.
-0.180004 -0.31809 0.
-2.40354 -5.4131 0.
-112.873 -280.677 0.
-16.423 -29.1701 0.
-31.1269 -72.203 0.
-177.445 -375.157 0.
-99.736 -205.927 0.
-243.415 -386.836 0.
-135.807 -165.283 0.
-83.8778 -71.0477 0.
-92.1853 -167.654 0.
-169.079 -388.491 0.
-92.0864 -171.588 0.
-178.807 -249.931 0.
-165.058 -208.828 0.
-217.376 -329.25 0.
-154.554 -285.617 0.
-149.062 -266.411 0.
-99.6337 -111.423 0.
-179.722 -119.625 0.
-270.823 -302.381 0.
-56.7873 -68.4146 0.
-195.408 -254.096 0.
-97.5297 -112.823 0.
-46.1718 -38.7856 0.
-164.952 -294.666 0.
-103.956 -149.562 0.
-81.6912 -74.9411 0.
-139.14 -215.095 0.
-131.614 -194.013 0.
-17.1061 -42.8802 0.
-177.942 -487.646 0.
-16.1676 -40.1041 0.
-21.4275 -56.2919 0.
-82.6379 -228.525 0.
0.354868 0.967339 0.
-1.24055 -3.42607 0.
-6.61297 -18.3153 0.
-23.0121 -35.5845 0.
-2.52643 -3.37977 0.
-0.130895 -0.147536 0.
-90.5344 -70.1146 0.
-117.328 -91.2333 0.
-0.605492 -5.84501 0.
-0.0594125 -3.00319 0.
0.0085025 2.83969 0.
3.62385 9.97549 0.
-57.8721 -156.592 0.
3.40803e-06 6.21039 0.
-0.0352174 -4.73674 0.
-0.412982 -12.3456 0.
5.94058 16.3707 0.
4.02395 11.0774 0.
-4.59611 -12.6803 0.
-995.624 -2757.47 0.
-0.0736735 -54.756 0.
-407.216 -1127.06 0.
10.1135 27.2995 0.
-191.567 -516.661 0.
-1.17487 -3.2141 0.
20.9494 57.9255 0.
32.0706 86.2529 0.
-3.04474 -92.3391 0.
-17.6487 -44.6393 0.
-614.093 -1621.45 0.
12.7027 32.2782 0.
31.9524 81.1055 0.
-1.63416 -18.0793 0.
-0.0867286 -42.7499 0.
8.21315 20.8873 0.
-150.047 -399.48 0.
27.3446 68.542 0.
-0.203002 -0.515653 0.
-101.253 -265.211 0.
-85.7822 -233.416 0.
6.30895 16.7207 0.
-47.6301 -123.994 0.
-100.522 -262.322 0.
-597.154 -1647.21 0.
2.13037 5.7533 0.
-1144.63 -3158.38 0.
13.7703 37.8506 0.
-265.279 -731.947 0.
-0.848935 -2.28884 0.
2.39645 6.61989 0.
0.142143 6.59071 0.
-1534.24 -4243.25 0.
-11.409 -31.3114 0.
2.88406 7.95684 0.
-2731.95 -7127.98 0.
1.14039 3.0416 0.
-971.658 -2039.9 0.
-371.942 -878.426 0.
-225.243 -587.606 0.
-1837.22 -4951.79 0.
-7.23809 -18.9017 0.
-1831.76 -4428.55 0.
-294.663 -644.246 0.
-65.9485 -82.6165 0.
-1829.26 -4675.58 0.
-253.052 -611.238 0.
-36.2988 -74.2873 0.
-1238.71 -3222.14 0.
-494.021 -1302.25 0.
-50.4116 -124.786 0.
-937.816 -2377.89 0.
-597.031 -1563.19 0.
-634.368 -1583.27 0.
-464.103 -1188.18 0.
-308.12 -796.736 0.
-409.969 -1097 0.
-333.803 -893.718 0.
-259.646 -693.287 0.
-380.21 -832.291 0.
-354.291 -770.206 0.
-331.091 -708.815 0.
-372.65 -777.627 0.
-433.163 -888.982 0.
-316.088 -748.404 0.
-503.983 -894.932 0.
-473.086 -803.509 0.
-327.723 -754.908 0.
-348.871 -815.663 0.
-373.003 -881.46 0.
-278.05 -704.001 0.
-378.982 -986.357 0.
-489.236 -1264.44 0.
-283.812 -734.135 0.
-479.824 -1257.54 0.
-694.114 -1765.69 0.
-514.892 -1388.63 0.
-937.094 -2455.33 0.
0.0285196 0.123795 0.
-405.391 -1102.47 0.
-1376.01 -3631.21 0.
0.0456755 0.88806 0.
0.497002 0.0858024 0.
-1979.19 -5413.11 0.
-19.8216 -30.6641 0.
-83.8488 -232.246 0.
-1580.78 -4197.11 0.
-121.462 -335.068 0.
-1700.03 -4502.95 0.
-219.584 -597.83 0.
-64.8001 -169.592 0.
-1591.17 -3979.66 0.
-4.05579 -11.1258 0.
-1919.3 -5164.08 0.
-49.188 -135.713 0.
-721.253 -1989.97 0.
1.4529 22.9712 0.
-0.347934 -28.307 0.
6.6725 18.4776 0.
-0.129058 -32.7136 0.
-669.483 -1852.74 0.
18.0259 48.7072 0.
-88.8765 -240.668 0.
-3.09142 -8.36537 0.
-693.692 -1877.84 0.
21.3036 57.8586 0.
-14.389 -38.6108 0.
-442.906 -1185.42 0.
-235.75 -604.461 0.
-12.2364 -30.9123 0.
-5.06438 -83.5823 0.
-18.4286 -46.6265 0.
-2.02813 -70.8245 0.
25.7064 60.4495 0.
5.53487 15.316 0.
33.1706 86.0146 0.
-6.52656 -17.0719 0.
25.8831 64.9566 0.
-374.843 -953.196 0.
-481.147 -1254.91 0.
-7.86141 -20.2217 0.
-1.55196 -70.6732 0.
-455.356 -1185.82 0.
-133.145 -348.003 0.
-4.45066 -12.0251 0.
-0.719895 -57.1385 0.
-750.476 -2066.12 0.
1.41774 3.88541 0.
-20.5636 -56.1511 0.
-0.775199 -38.4933 0.
-1690.62 -4672.66 0.
-17.59 -47.6325 0.
-246.271 -681.85 0.
-5.79829 -16.0596 0.
5.56386 15.3758 0.
-6.63848 -18.0817 0.
-0.16816 -0.465752 0.
-134.843 -326.387 0.
-16.4772 -42.8007 0.
-0.00485279 -2.19687 0.
-10.4124 -28.713 0.
0.00219789 0.0054672 0.
-81.9684 -120.7 0.
-44.8111 -55.8999 0.
-61.4301 -78.2509 0.
-123.406 -275.284 0.
-0.0995677 -0.370084 0.
-27.1535 -55.1154 0.
-502.324 -1315.53 0.
-46.9666 -98.8178 0.
-50.1675 -116.981 0.
-562.844 -1461.01 0.
-235.818 -604.337 0.
-405.728 -1085.53 0.
-249.512 -679.142 0.
-125.074 -344.061 0.
-376.746 -947.856 0.
-302.648 -744.416 0.
-230.571 -539.362 0.
-325.532 -708.452 0.
-301.049 -643.776 0.
-288.585 -567.339 0.
-352.95 -764.482 0.
-407.654 -882.134 0.
-296.634 -558.839 0.
-491.847 -864.621 0.
-463.274 -773.639 0.
-287.075 -646.65 0.
-311.514 -706.737 0.
-337.943 -774.208 0.
-185.218 -420.567 0.
-279.976 -710.633 0.
-380.367 -997.95 0.
-45.7519 -123.937 0.
-206.625 -563.619 0.
-407.016 -1087.59 0.
-82.3644 -218.626 0.
-501.386 -1347.45 0.
0.0701523 0.191837 0.
0.20543 0.399238 0.
-374.082 -1004.09 0.
-0.175648 -0.0494132 0.
-4.93853 -2.11757 0.
-64.8966 -67.0092 0.
-540.465 -536.863 0.
-193.801 -322.822 0.
-171.513 -367.56 0.
1.86169 5.15559 0.
-55.0485 -144.047 0.
-192.932 -517.439 0.
-29.1909 -75.3918 0.
2.21778 5.60026 0.
3.69699 10.2217 0.
-213.599 -589.433 0.
-42.4119 -116.982 0.
-631.536 -1749.23 0.
-66.0464 -177.46 0.
-1359.86 -3719.74 0.
-0.0890353 -25.9383 0.
14.5358 39.6034 0.
-553.261 -1526.33 0.
-0.660971 -1.76341 0.
-763.176 -2044.35 0.
-2.56505 -65.4823 0.
8.46328 22.9369 0.
19.2143 51.71 0.
-2.63429 -81.9606 0.
18.9081 48.6719 0.
-541.987 -1387.3 0.
-17.3328 -43.746 0.
17.9777 44.0237 0.
-10.2094 -23.6752 0.
-303.82 -806.784 0.
7.46737 18.1458 0.
8.58982 23.0145 0.
-2.01606 -39.4946 0.
4.26076 11.2474 0.
-7.07286 -17.776 0.
-412.295 -1050.08 0.
26.2762 64.5304 0.
-2.63464 -72.5067 0.
-2.10419 -5.49428 0.
-58.8088 -153.6 0.
12.8948 32.0808 0.
19.4545 52.3422 0.
-0.79471 -2.12693 0.
-234.818 -644.8 0.
6.49838 17.7498 0.
-640.32 -1717.74 0.
3.1648 8.29119 0.
-3.96635 -10.9344 0.
6.49723 17.675 0.
-0.501781 -31.5704 0.
-6.93262 -19.0861 0.
-1.88106 -5.09855 0.
3.4798 9.63767 0.
1.95037 5.31495 0.
-154.941 -394.612 0.
-572.723 -1396.26 0.
-0.00181728 -2.75691 0.
-1712.57 -4735.86 0.
-0.0494654 -0.49097 0.
-1675.71 -3354.9 0.
-42.9046 -61.3988 0.
-84.7066 -165.403 0.
-1913.77 -5140.3 0.
-32.9618 -81.8627 0.
-2.67182 -5.96484 0.
-1442.83 -3667.07 0.
-309.362 -783.969 0.
-0.509581 -0.586364 0.
-1021.92 -2631.68 0.
-497.381 -1296.16 0.
-716.334 -1811.1 0.
-444.894 -1153.2 0.
-190.111 -496.363 0.
-518.444 -1270.88 0.
-381.112 -940.072 0.
-252.748 -605.574 0.
-379.192 -844.618 0.
-341.866 -746.418 0.
-308.444 -656.407 0.
-380.702 -839.691 0.
-345.242 -759.343 0.
-235.123 -464.297 0.
-425.425 -658.52 0.
-451.27 -725.43 0.
-271.989 -601.259 0.
-325.628 -752.916 0.
-388.296 -918.593 0.
-189.862 -479.011 0.
-381.048 -994.878 0.
-587.785 -1503.2 0.
-146.876 -393.29 0.
-442.087 -1158.59 0.
-755.916 -1911.75 0.
-422.802 -1126.94 0.
-1110.43 -2892.62 0.
0.100719 0.449589 0.
-126.699 -350.002 0.
-1530.72 -4052.83 0.
-11.6647 -16.8788 0.
-23.3356 -42.6843 0.
-1753.82 -4828.17 0.
-401.587 -460.966 0.
-1024.25 -1345.03 0.
-560.107 -1464.65 0.
-0.0189647 -4.50627 0.
-947.795 -2554.95 0.
-360.114 -970.078 0.
0.126044 0.321576 0.
0.180002 0.452906 0.
1.6444 4.44873 0.
-84.1017 -232.354 0.
-37.7772 -101.668 0.
-341.294 -939.908 0.
-25.8797 -69.6592 0.
-786.394 -2141.84 0.
2.29899 6.09782 0.
-142.727 -384.151 0.
17.1755 44.7828 0.
-34.6765 -91.1271 0.
-558.941 -1432.07 0.
9.03906 22.957 0.
-2.57129 -59.6441 0.
-445.652 -1187.22 0.
-521.089 -1338.2 0.
-5.73508 -14.7449 0.
31.9799 79.6811 0.
-12.4652 -31.4379 0.
-187.381 -464.162 0.
-5.56267 -13.0771 0.
-1.32256 -39.4854 0.
16.1456 38.304 0.
-2.62493 -7.09752 0.
14.2953 35.7529 0.
-176.204 -470.153 0.
-3.31858 -78.4868 0.
3.82276 9.44788 0.
-9.98685 -24.5042 0.
-547.463 -1351.4 0.
-52.5605 -136.008 0.
-4.14986 -10.1508 0.
3.33668 8.26327 0.
-796.619 -2139.09 0.
9.73322 25.9184 0.
-186.182 -493.166 0.
4.15297 10.9904 0.
-567.153 -1508.51 0.
-1.00128 -36.5873 0.
-3.9954 -11.0311 0.
9.24023 25.2319 0.
10.3999 27.9186 0.
-1225.18 -3393.34 0.
-0.123321 -22.3397 0.
-1213.59 -3337.19 0.
0.487466 1.34672 0.
-1040 -2621.93 0.
-2.8294 -7.74733 0.
-0.139766 -7.79488 0.
-139.272 -284.338 0.
-0.234743 -1.25053 0.
-0.211544 -0.285692 0.
-5.64088 -8.87394 0.
-42.4128 -84.9685 0.
-216.516 -567.1 0.
-12.3083 -32.4959 0.
-0.0477047 -0.717073 0.
-252.791 -661.537 0.
-6.05611 -10.4374 0.
-0.362892 -0.557241 0.
-467.197 -1225.23 0.
-23.6434 -61.9032 0.
-413.866 -1073.37 0.
-151.616 -385.374 0.
-37.2397 -86.3861 0.
-341.193 -905.63 0.
-211.822 -571.917 0.
-112.216 -303.694 0.
-287.764 -707.069 0.
-255.096 -622.452 0.
-237.03 -563.35 0.
-334.504 -808.856 0.
-305.423 -732.828 0.
-236.912 -599.194 0.
-363.778 -668.195 0.
-380.618 -715.161 0.
-187.674 -426.677 0.
-232.834 -579.106 0.
-289.031 -738.752 0.
-36.057 -73.9113 0.
-172.365 -456.108 0.
-363.266 -975.19 0.
0.149988 0.147947 0.
-60.7792 -149.606 0.
-353.655 -922.701 0.
-0.204012 -0.57963 0.
-421.426 -1127.63 0.
0.027462 0.630334 0.
0.716275 0.195938 0.
-106.571 -290.899 0.
-26.3679 -34.4224 0.
-15.9455 -36.4006 0.
-26.519 -63.5202 0.
-0.156524 -0.418239 0.
-194.53 -431.492 0.
1.35018 3.59361 0.
-0.680429 -1.88345 0.
-19.0639 -52.1582 0.
2.35614 6.4876 0.
1.79596 4.96272 0.
-1295.22 -3443.04 0.
-0.153817 -12.4793 0.
-1591.25 -4388.7 0.
2.33155 6.25053 0.
-270.94 -733.757 0.
-6.98005 -18.8144 0.
-164.699 -448.532 0.
5.87753 15.4662 0.
-270.834 -724.075 0.
-104.281 -267.65 0.
-82.4093 -212.838 0.
-469.63 -1205.82 0.
-90.9937 -231.702 0.
-90.6395 -227.569 0.
-222.061 -565.893 0.
-455.842 -1168.63 0.
-380.395 -976.34 0.
31.3551 78.2627 0.
11.612 27.8112 0.
-277.041 -695.036 0.
19.6574 46.9117 0.
-4.48636 -11.7422 0.
-1.52814 -25.7786 0.
-43.0838 -117.501 0.
7.02229 17.8196 0.
-9.07707 -22.6035 0.
23.4263 55.2438 0.
15.5969 38.7884 0.
-592.27 -1448.97 0.
-266.42 -657.098 0.
16.0093 39.2986 0.
-4.02796 -68.9256 0.
-361.063 -890.31 0.
-528.886 -1412.33 0.
14.2796 36.0054 0.
-868.786 -2269.35 0.
-13.5123 -35.2412 0.
-496.479 -1292.48 0.
-4.8554 -12.5305 0.
16.6003 41.8835 0.
-812.992 -2228.83 0.
-2.41781 -6.59222 0.
-199.501 -550.982 0.
7.06544 19.1168 0.
-2.54539 -7.02688 0.
0.0377472 0.104547 0.
-312.944 -847.787 0.
-0.0017781 -6.69887 0.
0.133462 4.14218 0.
-231.546 -421.59 0.
0.497879 0.878249 0.
0.0753233 0.162132 0.
0.0644234 0.0972854 0.
-24.6916 -45.9315 0.
-26.6077 -73.6845 0.
-12.393 -34.1822 0.
-0.665989 -1.76193 0.
-26.6991 -73.8927 0.
-8.8487 -24.068 0.
0.37523 0.244979 0.
-24.207 -47.4383 0.
-16.865 -32.9814 0.
-91.0898 -196.52 0.
-46.3137 -73.2396 0.
-40.8185 -62.5884 0.
-129.724 -350.188 0.
-46.879 -109.9 0.
-13.0226 -29.6839 0.
-146.232 -257.198 0.
-167.166 -299.656 0.
-125.294 -201.47 0.
-111.538 -133.938 0.
-103.24 -138.932 0.
-11.1192 -19.6771 0.
-138.345 -72.532 0.
-285.249 -424.379 0.
-55.9477 -61.445 0.
-138.371 -275.712 0.
-124.704 -255.975 0.
0.0710064 0.238481 0.
-7.20768 -14.7806 0.
-112.922 -311.188 0.
-2.80174 -1.86908 0.
-3.84457 -3.49373 0.
-25.6036 -48.5767 0.
0.0256553 0.057169 0.
-0.513838 -0.630586 0.
-0.0464975 -0.050015 0.
0.144339 0.732908 0.
0.0357233 0.142202 0.
-117.811 -65.5219 0.
-12.7279 -27.2482 0.
-22.4653 -54.2254 0.
1.11844 3.08469 0.
-0.196206 -5.83078 0.
-360.619 -930.162 0.
-352.757 -965.45 0.
-392.616 -962.476 0.
1.03433 2.85501 0.
-0.0091663 -7.28494 0.
-0.82379 -18.9164 0.
6.71572 17.9213 0.
-78.7441 -216.756 0.
-0.342633 -19.5476 0.
-1485.81 -4089.82 0.
-0.139889 -20.4523 0.
12.2789 33.4761 0.
2.23879 5.84283 0.
-616.148 -1634.53 0.
-82.2255 -211.202 0.
-51.7633 -133.936 0.
-7.12164 -18.3712 0.
-329.002 -840.352 0.
-156.494 -392.333 0.
-376.34 -957.296 0.
14.1961 35.7849 0.
-159.431 -408.687 0.
-767.991 -1922.38 0.
32.8106 78.7652 0.
10.0961 23.6875 0.
-5.32356 -47.462 0.
-175.145 -468.236 0.
17.9163 44.7727 0.
2.38897 5.33668 0.
-3.48884 -8.3093 0.
9.05128 22.8257 0.
30.4436 72.355 0.
-346.065 -868.435 0.
-163.468 -400.139 0.
-10.6369 -25.2975 0.
6.17653 15.1509 0.
-460.974 -1148.24 0.
-282.034 -691.923 0.
-173.24 -403.009 0.
-1.6148 -4.05539 0.
-224.888 -564.067 0.
-167.535 -429.464 0.
16.4381 41.9457 0.
-43.0122 -109.942 0.
5.07549 12.8042 0.
-436.632 -1186.51 0.
-0.317309 -26.1084 0.
-0.904788 -2.48228 0.
-0.405858 -27.7432 0.
0.300665 0.832436 0.
4.51977 12.5068 0.
-82.3419 -226.345 0.
-1189.01 -3276.54 0.
-0.00924158 -13.7703 0.
-1144.68 -2705.84 0.
-141.177 -323.282 0.
-167.41 -459.366 0.
-1881.35 -4457.25 0.
-0.270759 -1.83839 0.
-1363.92 -3607.96 0.
-0.186901 -0.51107 0.
-6.05628 -16.773 0.
-1625.15 -4283.61 0.
-24.0321 -62.9245 0.
-37.7128 -98.2331 0.
-1290.03 -3370.17 0.
-239.556 -628.471 0.
-877.348 -2207.48 0.
-450 -1144.05 0.
-129.986 -321.252 0.
-683.342 -1828.08 0.
-408.491 -1113.66 0.
-152.186 -417.58 0.
-483.54 -1219.62 0.
-344.579 -845.964 0.
-219.899 -505.082 0.
-331.581 -904.976 0.
-304.634 -829.025 0.
-218.025 -596.052 0.
-409.009 -830.291 0.
-467.079 -979.565 0.
-192.308 -458.505 0.
-350.716 -920.592 0.
-541.345 -1451.32 0.
-70.021 -182.835 0.
-402.16 -1112.39 0.
-747.83 -2027.99 0.
-46.8063 -126.232 0.
-422.526 -1094.14 0.
-938.402 -2374.52 0.
-103.683 -287.169 0.
-1359.85 -3669.74 0.
0.00181999 0.00496372 0.
-0.00818471 -0.75528 0.
-1563.2 -4117.75 0.
0.00729248 0.629537 0.
-15.1401 -27.2588 0.
-1589.02 -3907.28 0.
2.12519 5.84179 0.
-1638.64 -4365.79 0.
-88.0123 -229.234 0.
-93.3518 -257.325 0.
-978.205 -2615.92 0.
1.26033 3.45571 0.
-1373.99 -3712.54 0.
-276.691 -732.635 0.
-0.26164 -13.9308 0.
-0.0696977 -15.9489 0.
0.889053 2.34454 0.
-153.172 -418.118 0.
3.0657 8.24607 0.
-403.928 -1104.99 0.
-7.81074 -20.5038 0.
-585.681 -1542.8 0.
-275.027 -707.264 0.
-285.315 -738.641 0.
16.5107 42.1894 0.
12.5543 31.7699 0.
2.02863 5.07895 0.
-810.157 -2054.23 0.
-5.24431 -13.1316 0.
18.033 43.7914 0.
-221.094 -555.332 0.
9.6754 23.3019 0.
4.23162 10.0432 0.
12.9392 28.7785 0.
15.8327 39.9832 0.
12.2546 29.4604 0.
-4.9529 -51.579 0.
19.0944 46.1543 0.
-31.0237 -79.3452 0.
-76.4891 -183.595 0.
9.85593 23.4456 0.
9.30216 21.5857 0.
-287.018 -678.624 0.
-547.794 -1339.73 0.
-226.382 -564.001 0.
16.6506 37.9559 0.
-650.678 -1514.19 0.
-231.226 -578.604 0.
-106.562 -265.996 0.
-128.542 -326.98 0.
-52.0278 -130.884 0.
-191.936 -487.432 0.
15.2434 38.2045 0.
-189.798 -509.929 0.
13.7174 36.3344 0.
-1228.2 -3339.5 0.
11.3534 30.4032 0.
-972.298 -2690.37 0.
-51.0656 -141.264 0.
-0.0737122 -11.5316 0.
-455.557 -1241.25 0.
-0.031035 -1.8411 0.
1.50573 3.13486 0.
-0.223267 -4.27851 0.
1.36723 3.75514 0.
-0.149064 -1.71618 0.
1.20302 3.05889 0.
-37.0102 -98.4764 0.
-0.0710189 -0.178626 0.
-2.47755 -6.67086 0.
-28.2685 -68.4776 0.
-23.1475 -55.1717 0.
-41.5998 -113.905 0.
-410.847 -1064.37 0.
-31.3615 -44.4338 0.
-361.02 -903.172 0.
-28.3088 -64.3546 0.
-27.6266 -62.1509 0.
-389.211 -1063.43 0.
-139.324 -381.336 0.
-19.0672 -47.4542 0.
-379.783 -956.058 0.
-269.526 -647.685 0.
-162.208 -340.454 0.
-295.292 -817.196 0.
-269.498 -746.256 0.
-88.9159 -243.348 0.
-387.123 -731.863 0.
-422.864 -833.192 0.
-74.6774 -144.611 0.
-212.483 -534.085 0.
-372.475 -1001.87 0.
-11.8792 -24.7046 0.
-49.9231 -118.558 0.
-370.145 -1018.08 0.
-6.23778 -9.59253 0.
-20.0931 -28.2798 0.
-305.749 -788.395 0.
-0.00319564 -0.265358 0.
-301.493 -834.884 0.
0.338345 0.936471 0.
0.0131046 0.474554 0.
0.129416 1.03892 0.
0.000424082 0.797181 0.
0.0609668 1.38394 0.
0.548085 1.20934 0.
1.5057 4.15639 0.
0.642617 1.77082 0.
-0.254522 -0.678733 0.
-4.68031 -12.8524 0.
-15.8865 -43.9573 0.
2.45861 6.79497 0.
-349.371 -966.932 0.
-2.8592 -7.63174 0.
-84.1295 -228.354 0.
-1513.5 -4138.52 0.
-1.91993 -5.02651 0.
-0.197342 -22.6573 0.
5.48385 14.528 0.
-819.712 -2216.12 0.
-1.20714 -44.5738 0.
-10.9167 -28.4037 0.
20.6184 51.4751 0.
-794.689 -2058.97 0.
-82.516 -208.701 0.
-15.0348 -37.662 0.
-12.4532 -30.2893 0.
-173.545 -439.54 0.
-670.333 -1666.06 0.
8.17101 19.6838 0.
3.29648 7.70177 0.
15.6507 34.8943 0.
-209.916 -505.053 0.
7.486 16.8694 0.
-1.76549 -4.52903 0.
14.1116 34.5163 0.
14.832 34.093 0.
-374.432 -921.496 0.
31.6555 65.9708 0.
-5.03142 -50.0431 0.
-17.3162 -41.6919 0.
-5.56754 -65.1361 0.
-640.408 -1507.75 0.
-15.699 -36.1972 0.
5.90989 13.6522 0.
-176.993 -403.486 0.
-536.014 -1247.72 0.
-366.585 -913.411 0.
19.7981 49.8855 0.
-112.013 -283.711 0.
-40.4246 -101.228 0.
-1114.91 -2803.14 0.
-6.3204 -15.7352 0.
-203.439 -534.623 0.
6.64646 17.2305 0.
-143.393 -386.508 0.
11.936 31.5738 0.
-67.1086 -185.856 0.
-0.620512 -1.71161 0.
1.37301 3.72382 0.
-23.6925 -61.7824 0.
-0.587166 -11.9969 0.
-0.424443 -4.26808 0.
2.94984 7.517 0.
-153.859 -425.308 0.
-1290.59 -3522.56 0.
-32.4449 -89.2776 0.
-1366.25 -3407.32 0.
-16.0613 -37.0682 0.
-19.7929 -45.2544 0.
-1459.06 -3938.32 0.
0.401494 0.417531 0.
0.580299 0.63536 0.
-1289.03 -3394.29 0.
-22.993 -20.8195 0.
-971.847 -2396.67 0.
-411.873 -1028.44 0.
-32.7764 -77.7404 0.
-816.12 -2177.72 0.
-388.265 -1057.14 0.
-19.8575 -54.4795 0.
-583.993 -1511.21 0.
-359.184 -917.268 0.
-151.998 -342.312 0.
-370.547 -1008.37 0.
-322.683 -893.69 0.
-184.778 -320.444 0.
-443.029 -927.994 0.
-539.597 -1181.95 0.
-75.2135 -166.945 0.
-332.525 -897.019 0.
-623.784 -1692.98 0.
-12.0564 -26.6971 0.
-373.802 -1029.9 0.
-925.883 -2501.21 0.
-2.83199 -5.57326 0.
-370.255 -925.131 0.
-999.302 -2428.87 0.
-1.63326 -3.84642 0.
-1430.69 -3881.74 0.
-0.014769 -0.585579 0.
-0.154775 -0.390863 0.
-1627.5 -4362.49 0.
-6.21172 -17.1737 0.
0.829676 2.29251 0.
-1438.63 -3012.6 0.
-0.232963 -3.12434 0.
-1290.11 -3438.21 0.
-431.948 -1107.23 0.
-0.0132296 -6.53383 0.
2.13467 5.90701 0.
-0.0672717 -5.51671 0.
-0.103584 -0.285362 0.
-0.377651 -24.0396 0.
7.28637 19.7874 0.
0.686854 1.69763 0.
8.62135 22.1005 0.
-1060.71 -2799 0.
7.76551 19.6773 0.
-336.755 -901.081 0.
-2.2517 -5.80136 0.
-708.785 -1823.47 0.
-3.29425 -8.1547 0.
0.436574 1.07108 0.
-470.543 -1176.71 0.
-581.815 -1441.38 0.
-81.6152 -197.392 0.
19.1385 45.4502 0.
-9.12053 -20.6747 0.
-147.265 -351.649 0.
-330.928 -781.839 0.
-5.96927 -60.5459 0.
4.75658 10.6082 0.
-4.08001 -28.6636 0.
-270.335 -705.262 0.
6.1953 15.4363 0.
-2.90911 -23.9738 0.
-3.17848 -7.27751 0.
-4.94826 -35.8927 0.
-4.40248 -46.9406 0.
13.1278 29.5448 0.
-58.0191 -133.203 0.
14.8744 33.2221 0.
-12.0658 -27.7172 0.
-195.528 -449.94 0.
-146.543 -334.103 0.
1.54293 3.46498 0.
-2.81489 -51.787 0.
5.42225 13.5804 0.
-663.643 -1669.44 0.
-304.986 -759.293 0.
-188.61 -472.523 0.
13.8606 33.8701 0.
-305.129 -792.89 0.
-1.10178 -31.7732 0.
-5.41721 -14.4348 0.
-0.50129 -19.6082 0.
-56.471 -156.375 0.
-401.39 -1110.47 0.
-0.0478693 -22.083 0.
-909.151 -2441.75 0.
-7.01212 -18.8206 0.
-1206.19 -3054.68 0.
-108.508 -295.154 0.
0.320059 0.885974 0.
-80.6103 -223.199 0.
-14.5241 -39.8934 0.
-56.4282 -151.455 0.
-8.12308 -21.7422 0.
-4.55773 -12.4244 0.
-8.97087 -19.6561 0.
-0.405065 -0.825149 0.
-0.11915 -0.235044 0.
-238.675 -509.276 0.
-72.1098 -38.6163 0.
-250.254 -622.339 0.
-21.9189 -53.9538 0.
-20.411 -47.2104 0.
-355.225 -966.534 0.
-13.9312 -37.1547 0.
-12.6319 -33.4874 0.
-347.953 -914.079 0.
-131.598 -312.959 0.
-46.8039 -77.3331 0.
-256.428 -702.701 0.
-210.191 -581.011 0.
-12.89 -33.4169 0.
-220.532 -417.18 0.
-312.075 -676.845 0.
-24.2487 -54.3039 0.
-74.3837 -149.789 0.
-352.573 -950.323 0.
-8.43162 -22.8032 0.
-3.7303 -10.331 0.
-357.926 -990.831 0.
0.0861767 0.000140604 0.
-1.90014 -3.32842 0.
-161.999 -386.08 0.
-0.00154558 -1.05414 0.
-131.468 -363.343 0.
-0.00728202 -1.62178 0.
0.553287 1.48091 0.
-10.7677 -28.072 0.
1.12275 3.03657 0.
-0.0358241 -2.48252 0.
-0.0326215 -1.46353 0.
1.2869 2.65245 0.
1.35479 3.0402 0.
-0.109117 -5.43216 0.
-0.0176796 -7.5287 0.
-1064.92 -2870.58 0.
-0.163241 -12.9117 0.
-1140.46 -3151.07 0.
3.11055 8.52823 0.
-0.146573 -16.9416 0.
-1.31259 -3.15704 0.
7.78061 19.5043 0.
-408.085 -1057.32 0.
-5.18172 -13.0037 0.
-349.598 -888.175 0.
13.5822 34.6286 0.
-367.482 -937.42 0.
-7.18693 -17.6291 0.
-145.179 -353.087 0.
-12.0289 -27.9789 0.
-72.8507 -178.323 0.
-425.933 -1023.24 0.
-30.8091 -72.7197 0.
-14.8925 -33.667 0.
-15.6186 -34.5706 0.
-331.132 -791.203 0.
24.6154 56.1037 0.
-143.202 -323.665 0.
12.9804 27.4178 0.
30.6228 60.3253 0.
7.93501 18.7074 0.
15.9073 35.0181 0.
-7.31981 -17.0641 0.
20.4488 43.5408 0.
-540.121 -1248.38 0.
22.4316 45.3654 0.
-3.6327 -7.73556 0.
-21.4462 -48.0814 0.
-478.294 -1093.08 0.
-453.561 -1040.74 0.
-17.1892 -37.8227 0.
-18.6588 -41.6907 0.
-448.323 -1092.92 0.
-213.303 -530.847 0.
-349.983 -877.683 0.
-5.03996 -12.1331 0.
-173.417 -424.976 0.
7.98166 19.3864 0.
-434.431 -1115.66 0.
1.55485 3.92441 0.
11.1725 29.4327 0.
11.2409 29.188 0.
-64.9538 -168.379 0.
-372.884 -1022.01 0.
6.40685 17.3551 0.
-11.7916 -31.9716 0.
-2.21791 -5.91811 0.
-94.3396 -251.347 0.
-1.68876 -4.65165 0.
2.05726 5.67778 0.
-58.6883 -159.459 0.
-1.08509 -2.83925 0.
-46.8552 -129.781 0.
-1.65922 -4.58808 0.
-9.63422 -25.8833 0.
0.836258 0.534774 0.
0.0858432 0.352492 0.
-0.408844 -1.29114 0.
-99.8103 -44.4733 0.
-116.131 -72.0914 0.
-24.4867 -59.758 0.
-23.533 -56.6985 0.
-25.2355 -56.8324 0.
-19.3505 -49.8396 0.
-8.27898 -17.696 0.
-10.4554 -24.3377 0.
-130.664 -332.852 0.
-33.6405 -62.442 0.
-37.0887 -73.2071 0.
-73.5129 -197.711 0.
-59.7739 -160.721 0.
-14.6693 -34.5592 0.
-81.2074 -92.4038 0.
-129.728 -223.174 0.
-31.7025 -58.5696 0.
-28.4579 -50.6211 0.
-104.904 -195.786 0.
-6.6361 -17.9563 0.
-2.64312 -5.77222 0.
-11.7466 -31.8912 0.
-0.378104 -0.6491 0.
0.270707 0.0256518 0.
-11.3076 -31.2225 0.
-0.00359697 -0.154731 0.
-5.11751e-05 -0.0308015 0.
7.59934e-05 1.26334 0.
0.576374 1.58573 0.
-0.0298211 -3.14714 0.
1.24041 3.21106 0.
1.02055 2.57298 0.
-0.0278354 -0.45254 0.
-0.971133 -4.1389 0.
-1.2417 -2.52249 0.
-0.1453 -9.4804 0.
0.887986 2.44948 0.
-0.0130739 -6.55838 0.
-0.418713 -16.4753 0.
-42.8757 -117.064 0.
8.56843 23.3114 0.
-771.129 -2115.85 0.
3.77672 9.38372 0.
5.1102 12.5187 0.
-115.01 -281.815 0.
-2.06208 -42.4765 0.
-778.805 -1960.58 0.
6.84524 16.5016 0.
17.3401 41.6155 0.
-505.968 -1229.52 0.
-824.803 -1987.45 0.
-182.443 -422.792 0.
-31.439 -72.2231 0.
23.2933 52.7984 0.
-486.402 -1139.59 0.
-643.123 -1449.29 0.
4.5297 9.99923 0.
8.54706 19.453 0.
17.7302 38.7073 0.
-240.078 -551.073 0.
22.6315 48.4298 0.
26.7223 53.1852 0.
0.44888 1.05803 0.
-2.69808 -26.7966 0.
-4.74476 -11.283 0.
-5.47804 -32.5996 0.
1.50965 3.19937 0.
-9.78619 -60.7328 0.
-246.026 -525.818 0.
-94.9632 -216 0.
-66.477 -151.511 0.
17.6614 39.0367 0.
12.372 27.0825 0.
-385.904 -858.427 0.
-583.131 -1411 0.
11.8996 27.3432 0.
14.8201 34.9204 0.
2.34918 5.62308 0.
-888.504 -2156.15 0.
-3.13516 -7.56761 0.
-243.496 -617.726 0.
0.414835 1.02116 0.
-638.988 -1655.57 0.
-29.5961 -76.6968 0.
-8.90116 -23.0308 0.
-346.484 -933.506 0.
-0.386647 -18.6736 0.
-2.94485 -7.94634 0.
-0.272703 -14.761 0.
-816.219 -2255.1 0.
-0.00793098 -11.4798 0.
-0.000459007 -3.19065 0.
-1423.53 -3913.21 0.
-0.0302726 -6.1354 0.
-1341.26 -2647.57 0.
-41.4871 -98.8603 0.
-0.184699 -3.7589 0.
-1361.13 -3701.14 0.
0.306245 0.740192 0.
0.424418 1.13359 0.
-1317.83 -3507.69 0.
-46.9271 -71.4667 0.
-1023.29 -2487.4 0.
-338.746 -829.169 0.
-34.4797 -53.919 0.
-1005.38 -2683.66 0.
-259.463 -691.892 0.
-9.75899 -20.8272 0.
-699.053 -1915.58 0.
-326.156 -901.542 0.
-31.0572 -82.1598 0.
-475.984 -1293.11 0.
-374.762 -1029.52 0.
-99.7861 -242.997 0.
-355.588 -887.267 0.
-564.108 -1469.53 0.
-4.34089 -3.32164 0.
-301.827 -829.819 0.
-783.198 -2114.01 0.
-0.0360577 -0.0305427 0.
-228.018 -622.128 0.
-1103.19 -3015.77 0.
-5.16053 -13.9038 0.
-319.618 -810.3 0.
-1013.26 -2487.02 0.
-0.000230401 -1.02099 0.
-1301.79 -3437.29 0.
0.000432105 0.49145 0.
1.18394 3.22298 0.
-1502.34 -4132.78 0.
-0.00836048 -2.64084 0.
1.55406 3.91632 0.
-1180.17 -2381.58 0.
0.234798 0.591727 0.
-1013.12 -2803.02 0.
-0.0498919 -11.8585 0.
-1057.45 -2872.17 0.
-1.43451 -17.0527 0.
6.08398 15.4364 0.
-2.7803 -7.45378 0.
-0.295954 -25.8992 0.
-445.619 -1215.94 0.
-3.70773 -9.13733 0.
-277.007 -700.016 0.
-1.81313 -40.0054 0.
-4.61894 -11.3579 0.
-34.1269 -85.1036 0.
-76.3977 -183.602 0.
-363.184 -867.794 0.
-4.26964 -47.3852 0.
9.35761 21.2022 0.
-534.979 -1235.07 0.
-273.839 -626.938 0.
-15.4961 -34.9264 0.
18.8466 41.6134 0.
-250.291 -562.891 0.
-42.7132 -94.0349 0.
-69.4856 -158.667 0.
21.1879 46.3632 0.
-38.9205 -85.4025 0.
23.0032 46.9796 0.
-7.75525 -47.0477 0.
-7.02896 -16.5663 0.
15.2453 33.8137 0.
9.45292 21.7134 0.
-7.43179 -14.9807 0.
1.56283 3.33667 0.
0.0180253 0.0366354 0.
-175.207 -376.181 0.
7.56741 15.4794 0.
-12.7645 -27.1764 0.
-107.383 -237.892 0.
-228.445 -497.541 0.
-418.467 -926.315 0.
22.6296 51.2517 0.
1.62224 3.69122 0.
-317.334 -742.676 0.
-184.112 -437.973 0.
-266.275 -644.611 0.
-8.30102 -19.2622 0.
-331.663 -823.468 0.
-3.42639 -8.3886 0.
-456.399 -1179.53 0.
-99.6249 -257.554 0.
5.48643 14.1688 0.
-365.125 -961.511 0.
3.42361 8.96992 0.
-1087.56 -2962.95 0.
-60.2055 -159.485 0.
-10.5925 -29.3318 0.
-0.0101118 -12.7928 0.
4.93381 13.5805 0.
2.4185 6.64613 0.
-0.178395 -7.58472 0.
-0.359367 -3.39722 0.
0.129392 1.74569 0.
1.86132 4.76055 0.
-92.1127 -241.871 0.
-0.0762141 -1.16576 0.
-0.0350335 -1.50813 0.
-4.02704 -10.8279 0.
-0.0199962 -0.880593 0.
-103.152 -197.573 0.
-35.8548 -44.9677 0.
-32.3477 -41.6745 0.
-215.744 -570.283 0.
-20.5116 -44.5766 0.
-18.4043 -40.0414 0.
-284.95 -780.368 0.
-20.5931 -51.177 0.
-19.5153 -50.9107 0.
-217.264 -586.385 0.
-138.4 -370.89 0.
-14.0274 -24.4412 0.
-76.0254 -135.67 0.
-251.27 -636.156 0.
-2.48623 -3.4512 0.
-2.62402 -3.03531 0.
-187.88 -514.431 0.
0.0266341 0.412204 0.
0.0218074 0.0471578 0.
-214.757 -547.345 0.
-7.27168 -17.9607 0.
-1.33917 -3.70784 0.
-42.1074 -112.002 0.
-0.00121645 -1.52805 0.
0.000284631 0.0964954 0.
0.00436125 0.265637 0.
0.938005 2.42911 0.
0.351467 0.889561 0.
0.000558327 0.852467 0.
2.69885 7.10653 0.
1.82265 4.53322 0.
-0.103668 -4.00901 0.
-0.00901053 -1.08196 0.
-0.0168098 -2.92703 0.
-203.09 -562.316 0.
-142.022 -372.142 0.
-87.1737 -230.834 0.
-959.485 -2553.83 0.
-0.431946 -27.3456 0.
-186.554 -505.519 0.
5.62528 13.7531 0.
-481.483 -1205.63 0.
-14.569 -36.2175 0.
9.14324 22.3779 0.
14.6799 35.3761 0.
-388.525 -930.149 0.
-265.887 -633.609 0.
-10.0608 -22.9689 0.
22.1813 50.1365 0.
8.17455 17.7305 0.
-158.999 -362.403 0.
-748.544 -1675.72 0.
-16.7436 -36.7465 0.
-7.22389 -55.0058 0.
0.986253 2.04295 0.
-270.532 -620.132 0.
-90.2932 -198.161 0.
11.5038 24.1528 0.
9.97323 20.9688 0.
-3.25888 -6.33373 0.
-2.02094 -4.49726 0.
-5.41844 -12.2611 0.
-250.815 -587.815 0.
0.441936 0.896004 0.
-404.475 -869.414 0.
20.7496 37.9642 0.
7.37159 14.1965 0.
11.6967 23.9551 0.
-636.697 -1358.42 0.
-137.198 -304.805 0.
1.86155 3.82031 0.
-0.725307 -1.52514 0.
-12.3482 -27.6868 0.
-415.287 -934.178 0.
-545.15 -1267.65 0.
-1.15046 -2.54643 0.
9.20609 20.937 0.
17.0289 39.2188 0.
-638.803 -1575.75 0.
-2.96021 -7.2079 0.
-6.36695 -15.2592 0.
-115.169 -297.449 0.
11.6532 29.7113 0.
-390.875 -1026.7 0.
8.137 21.0916 0.
1.30883 3.56412 0.
-2.95059 -7.84245 0.
8.09381 20.8316 0.
1.39196 3.79715 0.
4.17893 11.244 0.
1.29874 3.48061 0.
-0.0488143 -1.06629 0.
-98.6884 -269.996 0.
-807.969 -2120.47 0.
-13.1284 -34.9501 0.
-985.555 -2687.25 0.
-70.9923 -180.287 0.
-69.8941 -183.049 0.
-1125.84 -3046.06 0.
0.0135075 0.633809 0.
-899.283 -2215.91 0.
-248.607 -601.339 0.
-56.2064 -75.7295 0.
-1028.18 -2805.66 0.
-132.067 -328.924 0.
-35.6842 -58.4158 0.
-812.529 -2160.88 0.
-293.303 -789.353 0.
0.138424 0.366308 0.
-546.3 -1479.67 0.
-428.381 -1173.67 0.
-50.249 -94.8833 0.
-348.518 -934.292 0.
-682.563 -1842.04 0.
-9.50088 -26.2575 0.
-231.088 -638.084 0.
-904.668 -2449.49 0.
-8.87682 -23.3963 0.
-17.3545 -48.0248 0.
-955.379 -2588.16 0.
-128.792 -356.619 0.
-1114.59 -2573.69 0.
-0.0425487 -0.559264 0.
0.700971 1.82021 0.
-1209.17 -3326.44 0.
-11.9982 -30.8372 0.
0.802708 2.085 0.
-903.863 -2355.54 0.
0.00130243 1.63717 0.
-1170.3 -3197.09 0.
-0.27021 -8.24091 0.
2.63196 7.02478 0.
-0.0300962 -8.01017 0.
-0.617339 -17.0651 0.
-61.7137 -166.688 0.
1.87793 4.91567 0.
-2.45474 -6.49403 0.
-50.1113 -133.834 0.
6.45881 17.142 0.
-485.827 -1310.09 0.
8.25846 19.9813 0.
-301.305 -748.727 0.
-412.638 -1019.06 0.
-146.527 -356.211 0.
-159.726 -370.824 0.
9.63216 22.2214 0.
-4.87168 -11.172 0.
-363.798 -827.743 0.
-563.903 -1270.45 0.
-174.77 -377.926 0.
-10.4866 -22.193 0.
-11.8201 -24.5046 0.
-393.133 -857.228 0.
-565.112 -1210.94 0.
11.806 24.5655 0.
-14.7628 -32.0238 0.
-5.51765 -35.2725 0.
-5.3655 -11.2865 0.
-244.462 -530.275 0.
12.3281 24.713 0.
-2.95273 -6.76869 0.
5.25339 12.1344 0.
-2.05145 -4.77206 0.
-6.72891 -32.8361 0.
15.9848 31.2145 0.
17.9124 32.913 0.
-464.369 -900.824 0.
-5.81463 -11.9254 0.
-171.201 -366.123 0.
-11.7247 -24.5452 0.
-10.6809 -21.9237 0.
-204.223 -429.466 0.
-445.82 -988.043 0.
-57.232 -127.48 0.
5.53338 12.0603 0.
-25.0523 -55.0876 0.
-385.223 -868.686 0.
-318.649 -727.053 0.
-12.3726 -30.4116 0.
-7.52911 -18.0576 0.
-67.7865 -163.048 0.
-337.5 -858.003 0.
0.646189 1.61797 0.
-397.718 -1033.26 0.
6.5019 16.6656 0.
-0.163156 -24.069 0.
9.39301 25.042 0.
-4.20314 -11.3864 0.
-1000.97 -2766.12 0.
-0.0530183 -15.4551 0.
-661.197 -1821.43 0.
-14.0429 -38.7483 0.
3.26616 8.86908 0.
-9.04679 -24.0698 0.
1.06364 2.91975 0.
-72.9187 -194.042 0.
-39.2879 -106.326 0.
-8.83948 -24.3497 0.
-1.873 -5.17812 0.
1.13056 2.8832 0.
-33.6106 -46.4472 0.
-21.9226 -27.0089 0.
-22.1215 -28.2191 0.
-215.625 -570.573 0.
-30.8666 -44.3145 0.
-28.8915 -45.0753 0.
-98.6825 -248.398 0.
-6.1122 -13.3621 0.
-4.49365 -9.18718 0.
-59.2548 -135.165 0.
-11.4744 -22.2461 0.
-14.1911 -26.7738 0.
-7.17088 -18.5865 0.
-84.2481 -201.696 0.
-6.32204 -15.4231 0.
-2.48848 -5.61267 0.
-48.9779 -130.097 0.
0.144334 0.399777 0.
-0.000352654 -0.0259961 0.
-0.0253005 -0.49228 0.
0.0642624 0.154204 0.
-300.138 -829.341 0.
0.001411 0.0125013 0.
0.737276 1.80782 0.
0.770826 2.01804 0.
-0.124183 -0.335824 0.
-0.00489617 -0.935181 0.
-0.00126145 -1.37064 0.
3.08319 8.36003 0.
3.56483 9.83884 0.
0.293729 0.777046 0.
-36.1302 -99.8085 0.
-988.85 -2699.22 0.
5.33094 14.1819 0.
-793.895 -2162.53 0.
-4.73799 -12.3908 0.
-4.93654 -13.0462 0.
3.55484 9.48451 0.
-4.64099 -12.1939 0.
-718.314 -1920.7 0.
12.718 30.6388 0.
-0.351089 -0.843005 0.
-0.596759 -1.39638 0.
-644.997 -1555.36 0.
-375.644 -867.326 0.
-199.391 -457.09 0.
-4.284 -9.76635 0.
11.1199 24.1528 0.
-242.117 -544.256 0.
-537.969 -1159.88 0.
3.78897 7.99163 0.
14.0357 28.7811 0.
2.7152 5.55143 0.
-339.153 -729.749 0.
-319.064 -668.171 0.
26.5471 54.0175 0.
4.60929 9.45546 0.
27.0141 52.018 0.
3.30655 6.80075 0.
-4.89068 -9.78513 0.
-33.2775 -78.7474 0.
-0.831331 -1.87646 0.
-1.538 -20.3757 0.
-6.76913 -34.194 0.
-332.955 -656.185 0.
17.0086 31.411 0.
-303.746 -592.687 0.
-8.05554 -15.5692 0.
10.2381 20.5734 0.
3.60649 7.22505 0.
-181.436 -372.445 0.
-625.446 -1313.12 0.
-6.88571 -14.1971 0.
-6.25626 -44.6793 0.
-101.791 -220.434 0.
-529.914 -1159.42 0.
-316.31 -707.255 0.
-0.612074 -1.34148 0.
7.91497 18.858 0.
1.12799 2.69509 0.
2.75225 6.59543 0.
-801.403 -2003.73 0.
-1.41671 -26.2038 0.
-138.86 -356.791 0.
-129.692 -324.572 0.
-504.351 -1344.3 0.
1.98976 5.34927 0.
-3.56792 -9.64011 0.
-161.081 -440.586 0.
4.8651 13.1321 0.
-61.5659 -170.52 0.
2.00165 5.5108 0.
-0.114756 -11.9955 0.
2.70706 7.39731 0.
2.10762 5.83722 0.
-46.6625 -128.488 0.
-15.1104 -41.8527 0.
-0.0239553 -3.93457 0.
-0.0109943 -1.16522 0.
1.40723 3.48874 0.
-0.101984 -0.739251 0.
-17.4208 -21.604 0.
-17.9653 -23.2942 0.
-25.1364 -34.6221 0.
-23.9809 -33.0918 0.
-23.2104 -33.9528 0.
-13.947 -31.8477 0.
-13.8321 -26.8957 0.
-14.4345 -22.6199 0.
-17.6892 -38.4892 0.
-14.7272 -32.6434 0.
-19.7145 -39.2939 0.
-7.29203 -19.0598 0.
-3.85117 -10.6646 0.
-4.27595 -9.59391 0.
-1.34829 -2.81738 0.
-0.0628408 -0.328432 0.
-1.74831e-05 -0.501712 0.
0.000981781 0.0980907 0.
0.00202423 0.0549844 0.
-19.1535 -26.3649 0.
-0.0787568 -0.152498 0.
-0.494134 -3.45348 0.
1.42872 3.32798 0.
1.02557 2.57546 0.
0.00492081 0.0136028 0.
0.556151 1.54006 0.
-0.0123058 -2.90694 0.
-0.162221 -4.31676 0.
0.0493194 0.131862 0.
-0.104773 -7.44691 0.
-0.0075159 -11.0913 0.
-0.210425 -0.575842 0.
7.37798 19.0639 0.
-168.272 -450.405 0.
0.65022 1.75782 0.
-126.356 -342.818 0.
-531.788 -1446.24 0.
-2.67948 -6.96716 0.
-219.083 -580.53 0.
-71.463 -171.359 0.
-551.734 -1315.34 0.
11.0217 25.6019 0.
13.5926 31.4953 0.
15.0963 33.8894 0.
-414.127 -944.216 0.
-157.56 -356.857 0.
-252.223 -543.732 0.
15.224 32.4643 0.
15.0055 30.7649 0.
-231.361 -486.325 0.
-778.752 -1572.44 0.
4.62297 9.34547 0.
23.422 48.2274 0.
-6.77961 -13.2191 0.
-8.90343 -18.2142 0.
-763.232 -1581.05 0.
20.5175 39.6002 0.
-196.388 -407.255 0.
17.0487 34.3619 0.
2.29843 5.63541 0.
-42.4704 -96.9577 0.
0.820017 1.54294 0.
-5.00257 -26.2438 0.
-23.1821 -46.2309 0.
-10.5812 -19.1787 0.
-12.15 -22.6015 0.
-1.13483 -2.18556 0.
-769.533 -1542.94 0.
-8.80161 -17.64 0.
25.0519 47.1851 0.
23.2866 45.5632 0.
-12.7918 -26.3159 0.
-615.918 -1291.41 0.
-438.531 -943.859 0.
-234.553 -508.849 0.
1.78653 3.83306 0.
8.36578 18.2596 0.
-226.907 -537.772 0.
-375.288 -891.86 0.
-159.06 -379.524 0.
-108.078 -268.258 0.
-0.797742 -1.96311 0.
-377.5 -973.548 0.
-7.77806 -19.4697 0.
-175.733 -467.586 0.
-29.5549 -79.1874 0.
-30.6154 -82.4667 0.
-127.322 -342.396 0.
2.535 6.68029 0.
3.1539 8.73123 0.
-114.948 -318.33 0.
-2.88753 -7.91109 0.
-998.279 -2739.35 0.
2.11918 5.8696 0.
-871.566 -2189.56 0.
-42.0809 -115.178 0.
0.814846 2.25685 0.
-1062.9 -2944.03 0.
0.349452 0.967835 0.
0.82761 2.28696 0.
-1225.52 -3119.12 0.
-10.4905 -18.6635 0.
-840.36 -2275.71 0.
-28.641 -48.489 0.
-30.8789 -55.2255 0.
-892.832 -2382.22 0.
-162.08 -393.544 0.
-19.2149 -37.1665 0.
-585.275 -1528.58 0.
-443.793 -1208.77 0.
0.044462 0.164294 0.
-253.739 -672.332 0.
-756.238 -2089.56 0.
0.411999 0.0838417 0.
-77.7997 -182.472 0.
-951.285 -2583.72 0.
-0.0344725 -0.335853 0.
-6.8155 -15.3892 0.
-1125.53 -2645.47 0.
0.503018 1.15439 0.
-1113.52 -2774.25 0.
-0.702741 -4.52361 0.
-0.188671 -3.67824 0.
-1129.09 -3125.02 0.
-29.3664 -77.8099 0.
-31.6497 -76.08 0.
-915.165 -1908.32 0.
1.04108 2.87432 0.
-963.399 -2668.36 0.
-0.0124934 -17.4319 0.
-0.00482551 -11.554 0.
-0.0717531 -17.2129 0.
-0.532756 -1.33535 0.
-50.7776 -132.922 0.
6.49873 17.5058 0.
-144.608 -391.087 0.
6.73578 17.3113 0.
-4.06475 -10.4524 0.
-45.6234 -117.461 0.
3.6132 8.36819 0.
-181.506 -431.616 0.
-400.012 -921.981 0.
-68.8898 -158.441 0.
12.6442 28.2005 0.
10.4237 22.8387 0.
-34.0269 -76.6097 0.
-290.663 -622.057 0.
-238.636 -505.208 0.
-192.773 -391.679 0.
1.6919 3.39927 0.
-12.0911 -23.2609 0.
-119.664 -238.858 0.
-186.762 -387.556 0.
15.4066 30.2187 0.
17.2161 31.926 0.
-11.1833 -21.0797 0.
-37.5989 -72.8149 0.
-22.9405 -47.9335 0.
13.591 27.6061 0.
-1.1356 -23.9427 0.
-1.8009 -3.96448 0.
-0.605338 -1.10665 0.
-1.00065 -1.91483 0.
-208.378 -417.459 0.
-10.5222 -19.0582 0.
-574.413 -1070.88 0.
-94.5265 -181.437 0.
-206.971 -414.039 0.
17.0742 31.0308 0.
-7.38101 -13.9415 0.
-300.324 -590.067 0.
-218.987 -449.799 0.
-173.574 -362.685 0.
-10.9597 -22.5281 0.
15.7929 32.9028 0.
3.03779 6.48891 0.
-603.014 -1308.24 0.
-318.679 -751.86 0.
6.77782 15.7907 0.
-7.84175 -18.6077 0.
-112.983 -278.144 0.
7.98221 19.469 0.
-356.442 -918.445 0.
-2.11662 -5.29585 0.
-119.329 -316.446 0.
-107.233 -286.102 0.
6.5531 17.826 0.
-613.095 -1657.13 0.
-1.85869 -5.03099 0.
-468.958 -1297.43 0.
3.97939 11.0113 0.
-0.570183 -1.55688 0.
-0.00152915 -11.0854 0.
0.539123 1.4784 0.
-32.2047 -87.8561 0.
0.683338 1.88892 0.
0.789502 2.18433 0.
-0.00187284 -3.33768 0.
-0.00682868 -1.99523 0.
1.10124 2.97146 0.
-1.12452 -2.25331 0.
0.101624 0.226089 0.
-4.01954 -8.05729 0.
-2.01748 -4.21288 0.
-2.35972 -5.16017 0.
-49.1928 -89.6131 0.
-30.979 -56.2862 0.
-17.8578 -34.6352 0.
-23.9257 -42.2889 0.
-20.4745 -33.0021 0.
0.000621227 0.201784 0.
-1.95176 -4.22402 0.
-12.2004 -25.1919 0.
0.418097 0.00544474 0.
0.00456203 0.00451162 0.
-14.3018 -29.3649 0.
0.28216 0.607406 0.
-0.0887049 -0.590723 0.
-0.0456295 -0.258059 0.
-0.000635082 -0.0532801 0.
0.0158944 1.47243 0.
0.0227514 0.100261 0.
1.99266 4.44528 0.
-20.2672 -50.6113 0.
2.15628 5.8212 0.
-0.323158 -0.814101 0.
-0.324133 -0.748142 0.
0.960504 2.5879 0.
-2.08917 -5.75619 0.
4.87326 13.4954 0.
2.7462 7.59035 0.
-725.732 -2000.3 0.
-0.73534 -1.87158 0.
-627.6 -1622.55 0.
8.24651 22.1305 0.
-218.462 -588.796 0.
-5.20595 -13.1159 0.
8.34452 21.0701 0.
-637.124 -1612.64 0.
-51.8652 -120.33 0.
2.74078 6.29526 0.
12.0859 26.5482 0.
-523.589 -1194.87 0.
-424.972 -941.79 0.
-164.925 -359.001 0.
-6.22532 -13.3115 0.
-13.0553 -26.2833 0.
-87.6107 -184.062 0.
-765.992 -1541.74 0.
-27.3494 -54.4218 0.
-4.77926 -9.15706 0.
-13.8391 -25.7506 0.
-93.8805 -184.745 0.
-670.649 -1324.98 0.
-7.93406 -36.3923 0.
-203.305 -379.035 0.
-12.3218 -22.6313 0.
-4.75498 -9.88302 0.
-5.563 -31.6503 0.
-4.82709 -23.0227 0.
-4.03682 -8.97767 0.
11.3491 20.9898 0.
-183.969 -356.916 0.
-49.8391 -101.211 0.
-58.62 -106.115 0.
-117.075 -217.792 0.
17.2013 30.6052 0.
23.8637 42.5324 0.
-4.56714 -8.32072 0.
-564.767 -1071.17 0.
-335.247 -662.098 0.
10.3713 20.2225 0.
16.5558 32.7845 0.
10.5259 21.5996 0.
-764.505 -1582.85 0.
-26.6753 -56.7102 0.
6.44623 13.4868 0.
1.35878 2.87709 0.
9.80491 22.652 0.
-54.2705 -127.761 0.
-637.518 -1563.16 0.
9.78388 23.6484 0.
7.57147 19.469 0.
3.10446 7.91724 0.
-201.201 -512.738 0.
-216.748 -590.506 0.
1.90178 5.13735 0.
-4.8254 -13.0606 0.
4.00336 10.8147 0.
-235.651 -652.463 0.
1.92926 5.33 0.
-0.0638258 -8.69896 0.
1.02248 2.80441 0.
1.53505 4.1079 0.
2.12464 5.85307 0.
-606.379 -1622.17 0.
0.592648 1.64073 0.
-741.149 -2017.31 0.
1.28096 3.48296 0.
0.954 2.56804 0.
-844.551 -2233.42 0.
0.0960744 0.254152 0.
-814.691 -2102.66 0.
-3.09137 -7.47464 0.
-0.992358 -2.41861 0.
-768.533 -2102.46 0.
-31.6899 -57.1295 0.
-15.2915 -21.0802 0.
-508.312 -1354.43 0.
-399.222 -1072.08 0.
0.00950493 0.276762 0.
-161.266 -422.095 0.
-773.728 -2131.83 0.
-6.86288 -13.6138 0.
-2.7985 -5.63988 0.
-913.855 -2398.2 0.
-0.0234391 -0.394446 0.
0.0713938 0.188609 0.
-946.868 -2223.42 0.
-0.00252474 -2.00117 0.
-817.798 -2181.9 0.
-5.68783 -14.1262 0.
-58.9698 -154.184 0.
-484.579 -1342.17 0.
-199.953 -500.591 0.
-0.132722 -4.56102 0.
2.31317 5.58739 0.
1.86541 4.84909 0.
0.688968 1.86253 0.
3.68948 10.2178 0.
2.01081 5.5672 0.
-0.927708 -21.2718 0.
-4.77988 -12.202 0.
-3.30026 -8.55901 0.
5.43471 14.4305 0.
-196.45 -526.32 0.
-19.6557 -49.1451 0.
-78.813 -194.937 0.
-302.222 -750.668 0.
-429.31 -998.599 0.
-193.559 -445.009 0.
5.29581 11.5509 0.
12.2349 26.4802 0.
-9.79548 -20.4505 0.
-292.818 -632.842 0.
-23.1933 -49.2237 0.
-312.46 -625.284 0.
10.458 20.5033 0.
18.1367 33.7471 0.
-182.643 -359.791 0.
-731.903 -1394.11 0.
9.37856 17.3686 0.
5.25279 9.45314 0.
-8.76069 -38.143 0.
15.934 29.8362 0.
-145.523 -268.273 0.
-34.6767 -62.9754 0.
-177.131 -375.934 0.
-2.51375 -5.07548 0.
-5.55014 -28.1402 0.
-2.12228 -4.77142 0.
-6.98926 -13.0899 0.
-12.5728 -24.7143 0.
12.4429 20.9228 0.
23.4287 40.3367 0.
-9.9697 -17.5849 0.
-10.0366 -17.376 0.
-318.407 -550.754 0.
-7.56204 -32.5624 0.
-10.2639 -41.7438 0.
-4.56632 -8.52276 0.
1.67145 3.2146 0.
-637.767 -1244.16 0.
-142.661 -291.956 0.
-2.0988 -4.35635 0.
17.0088 35.0692 0.
-11.7728 -24.5637 0.
-65.9602 -139.306 0.
-356.528 -815.901 0.
-349.425 -816.016 0.
-6.39009 -14.6195 0.
2.99034 6.97254 0.
-50.0965 -125.747 0.
-7.56558 -18.9431 0.
4.12342 10.3033 0.
-284.157 -769.043 0.
2.75168 7.37723 0.
-2.08781 -5.6399 0.
-2.87363 -7.74636 0.
-522.464 -1442.29 0.
-0.0255826 -14.6253 0.
1.09774 3.02426 0.
-865.46 -2396.02 0.
4.64052 12.7246 0.
-210.988 -560.186 0.
-0.0177769 -5.93511 0.
-0.00900013 -5.96285 0.
-3.17355 -8.55839 0.
0.734704 1.95969 0.
1.21136 3.18104 0.
0.896966 2.40562 0.
-0.000827112 -0.833268 0.
-21.9708 -53.3133 0.
-1.94251 -4.87199 0.
-0.626873 -1.58546 0.
-8.3411 -17.771 0.
-9.21903 -17.0691 0.
-10.8149 -16.779 0.
-26.521 -28.7027 0.
-25.6993 -29.8384 0.
-1.18046 -2.12828 0.
-4.99063 -10.3506 0.
-9.75514 -21.0918 0.
-3.01636 -6.56218 0.
-0.782291 -1.74103 0.
-0.226764 -0.52222 0.
-0.0208536 -0.710851 0.
0.293147 -0.151745 0.
0.242182 0.669024 0.
-0.0182436 -1.38795 0.
-0.378248 -1.04767 0.
0.101889 0.262642 0.
0.273818 0.733752 0.
0.723407 1.99157 0.
2.87977 7.92371 0.
-847.581 -2257.85 0.
-9.63999 -26.1988 0.
3.11578 8.56227 0.
-603.059 -1666.61 0.
-0.946983 -2.61416 0.
-372.324 -1027.75 0.
-2.11545 -5.32841 0.
2.80178 7.17196 0.
3.92777 10.2076 0.
-3.80665 -9.96212 0.
-294.318 -778.401 0.
-29.313 -73.0907 0.
-19.5118 -48.4334 0.
-17.2728 -42.6832 0.
-5.89231 -13.7246 0.
-60.2597 -138.926 0.
-277.727 -600.547 0.
0.828707 1.78052 0.
-13.3517 -27.8028 0.
-3.96988 -8.07154 0.
-109.499 -230.589 0.
-530.786 -1054.71 0.
-9.43856 -18.3719 0.
-202.131 -375.338 0.
23.5884 42.9569 0.
-7.03632 -12.3246 0.
-221.122 -407.051 0.
-10.5792 -18.9281 0.
-56.173 -102.721 0.
10.0049 17.5845 0.
16.8633 29.1152 0.
-8.52228 -14.5869 0.
-60.2134 -130.306 0.
-4.98889 -10.28 0.
-3.64053 -19.7684 0.
-38.267 -86.4302 0.
14.8483 27.1604 0.
0.841025 1.59034 0.
11.9452 19.9824 0.
-234.542 -401.975 0.
-317.131 -556.945 0.
-259.565 -436.26 0.
12.6213 19.9109 0.
3.89188 6.6653 0.
-3.50512 -6.23781 0.
-7.14677 -13.3563 0.
-239.279 -453.182 0.
-112.142 -215.69 0.
14.8299 28.4503 0.
15.1587 30.0329 0.
-7.1611 -14.7226 0.
-336.673 -700.649 0.
-488.742 -1030.39 0.
-59.8009 -129.007 0.
-96.1866 -208.666 0.
-7.1279 -16.3422 0.
-203.589 -475.036 0.
-130.955 -322.531 0.
-6.27598 -15.3987 0.
-3.21518 -7.85967 0.
-156.034 -419.894 0.
-59.5512 -158.719 0.
-287.986 -776.869 0.
-95.8318 -255.26 0.
-31.4632 -82.462 0.
-0.0543235 -16.7291 0.
-0.0548287 -13.7651 0.
2.67807 7.36253 0.
-0.182111 -16.6377 0.
-0.138029 -5.21358 0.
-0.00403817 -6.02561 0.
3.97141 10.916 0.
-1.80415 -4.77527 0.
-0.111652 -4.23016 0.
0.39837 1.01631 0.
0.179864 0.496105 0.
0.518053 1.42859 0.
-33.7205 -84.983 0.
-4.68114 -12.0593 0.
-0.258029 -0.672633 0.
-13.8683 -31.8798 0.
-5.29387 -12.0484 0.
-6.51015 -12.2947 0.
-28.8382 -31.3974 0.
-27.4586 -31.1864 0.
-7.0342 -9.47449 0.
-11.3893 -18.4924 0.
-16.1654 -28.9799 0.
-0.69379 -1.60963 0.
-0.133952 -0.319604 0.
-0.116565 -0.288051 0.
-0.0142217 -1.0041 0.
0.000413662 0.34667 0.
-0.00249524 -0.738521 0.
-0.00291809 -0.0682759 0.
0.218131 0.591417 0.
0.79062 2.09032 0.
2.21203 6.01948 0.
2.57882 7.13329 0.
-0.0248611 -6.81712 0.
0.995529 2.75469 0.
2.71039 7.37645 0.
3.93708 10.8251 0.
2.41303 6.67405 0.
1.24793 3.4555 0.
-98.9319 -273.84 0.
-197.813 -515.841 0.
-59.4807 -155.664 0.
-127.019 -333.707 0.
5.58766 14.3938 0.
-262.422 -684.459 0.
-188.075 -467.163 0.
-28.3805 -70.2506 0.
-112.884 -278.125 0.
-3.51408 -8.1316 0.
-2.26185 -5.14709 0.
3.39242 7.09824 0.
-366.171 -779.819 0.
-520.828 -1081.06 0.
-31.7768 -64.4096 0.
1.52375 3.01538 0.
-5.36101 -9.9663 0.
-119.206 -230.273 0.
-601.614 -1114.55 0.
-2.20488 -4.00652 0.
-212.604 -370.01 0.
22.8178 38.1935 0.
5.85697 9.44487 0.
-473.212 -863.327 0.
-179.141 -313.759 0.
-335.124 -574.073 0.
-14.7205 -24.9941 0.
-9.1221 -15.3507 0.
9.04133 18.1815 0.
-2.55097 -4.88424 0.
-2.36932 -5.47371 0.
-24.2579 -44.6954 0.
-293.27 -559.383 0.
-3.69743 -6.15235 0.
-168.286 -286.951 0.
5.48135 8.90801 0.
3.54138 5.4882 0.
-192.948 -302.264 0.
19.8215 33.6117 0.
-710.604 -1254.54 0.
-65.9067 -121.262 0.
5.74478 9.83325 0.
20.8065 36.525 0.
-9.13251 -17.3656 0.
-648.91 -1267.34 0.
-3.88511 -7.96441 0.
-5.539 -31.2189 0.
-5.8127 -11.8035 0.
-113.207 -243.32 0.
-364.97 -789.047 0.
-132.025 -303.055 0.
-237.975 -555.465 0.
-87.7605 -211.779 0.
-40.5649 -97.8115 0.
-51.9828 -126.458 0.
-173.412 -460.846 0.
1.18496 3.12325 0.
-238.758 -642.064 0.
-41.3079 -109.634 0.
-4.15057 -10.8393 0.
0.155316 0.424906 0.
-1.19052 -3.24904 0.
-0.710115 -1.92993 0.
-155.919 -426.172 0.
0.361869 0.986156 0.
-686.506 -1870.23 0.
4.35205 12.0025 0.
-579.372 -1528.59 0.
-21.311 -58.6723 0.
1.45704 4.02051 0.
-609.558 -1679.92 0.
-0.000365682 -0.137776 0.
-692.206 -1775.57 0.
-8.98535 -18.9818 0.
0.179018 0.65367 0.
-654.873 -1798.17 0.
0.267604 0.302802 0.
-10.2727 -13.7613 0.
-397.364 -1086.25 0.
-353.215 -964.144 0.
-1.16783 -2.09338 0.
-86.8912 -229.893 0.
-724.336 -1954.42 0.
0.364504 0.987794 0.
-2.29236 -6.19595 0.
-852.644 -2170.38 0.
-15.8884 -38.4865 0.
-18.8037 -43.5479 0.
-717.392 -1701.94 0.
-0.00233137 -4.99813 0.
-674.33 -1791.03 0.
1.41345 3.79523 0.
0.990183 2.57774 0.
-776.652 -1948.35 0.
-0.00315655 -5.82867 0.
-477.619 -1322.88 0.
-113.426 -310.633 0.
7.55037 20.7705 0.
7.3073 20.2123 0.
0.0976101 0.270224 0.
-2.69401 -7.46105 0.
-0.741151 -1.93345 0.
-3.3352 -8.73192 0.
-299.277 -787.021 0.
-3.19606 -8.20103 0.
-3.64864 -9.37613 0.
-7.19836 -17.564 0.
-123.68 -305.16 0.
-383.123 -901.094 0.
-605.434 -1399.67 0.
1.61684 3.66597 0.
9.57758 20.049 0.
14.87 30.3818 0.
12.4718 24.5105 0.
-102.415 -206.959 0.
-7.5339 -14.8571 0.
-331.54 -613.523 0.
-6.72612 -12.1817 0.
-3.8741 -6.67475 0.
-21.1739 -38.3922 0.
-101.979 -176.38 0.
-731.188 -1212.49 0.
18.6049 29.7457 0.
-4.463 -7.28955 0.
-11.0166 -18.0038 0.
-95.7097 -162.552 0.
-59.011 -99.3679 0.
18.3946 30.7006 0.
-138.785 -284.019 0.
0.189366 0.368252 0.
-28.3953 -50.9088 0.
-16.6278 -30.8672 0.
-6.36315 -24.153 0.
-8.09655 -12.4255 0.
13.1249 20.6341 0.
-13.0907 -33.7648 0.
-25.9665 -39.9516 0.
-396.585 -616.812 0.
-18.4647 -30.9772 0.
-11.273 -32.7559 0.
11.3426 18.7214 0.
11.2539 19.0213 0.
-545.599 -943.395 0.
-327.482 -615.006 0.
17.2807 31.5608 0.
18.4194 35.5342 0.
-1.05826 -2.09923 0.
-86.9497 -177.434 0.
-281.972 -604.063 0.
-294.499 -634.353 0.
-2.36944 -28.5851 0.
12.1442 28.4207 0.
-40.9759 -98.7093 0.
-37.9368 -92.2467 0.
-53.7073 -131.711 0.
-277.365 -729.822 0.
8.01153 20.8576 0.
-59.5791 -159.749 0.
-35.4293 -93.7187 0.
-32.6031 -86.4011 0.
-521.16 -1425.94 0.
4.8911 13.3582 0.
-265.816 -725.02 0.
6.74307 18.3456 0.
-1.64954 -4.46794 0.
1.28382 3.55529 0.
-0.00985295 -4.4782 0.
-0.0455805 -2.41127 0.
0.477436 1.31243 0.
2.15713 5.96798 0.
-0.004331 -3.04219 0.
-0.0717963 -4.01694 0.
-40.4898 -106.966 0.
-0.071755 -0.932019 0.
0.0132544 0.0987942 0.
0.251635 0.231691 0.
-4.01776 -4.34744 0.
-28.9434 -36.0053 0.
-5.29751 -9.24057 0.
-4.95032 -9.21502 0.
-0.0735205 -0.149896 0.
-0.0779231 -0.794825 0.
-0.00880209 -0.208178 0.
0.703222 1.84594 0.
0.289179 0.800975 0.
0.608993 1.63863 0.
-1.64579 -4.23511 0.
-4.13574 -10.2032 0.
-8.93298 -21.1822 0.
0.000127258 0.16099 0.
-0.0334014 -6.77069 0.
-0.0358813 -3.84535 0.
3.2808 8.66503 0.
2.28671 5.85396 0.
3.40099 9.24157 0.
-14.3836 -39.5301 0.
1.57081 4.29512 0.
-2.7183 -7.43974 0.
-406.054 -1112.65 0.
5.92559 16.2208 0.
-264.441 -727.962 0.
-6.65561 -17.3721 0.
5.54492 14.5243 0.
-40.8465 -107.373 0.
4.16484 10.6406 0.
-210.484 -538.148 0.
-4.51282 -11.0101 0.
9.138 22.1438 0.
8.26044 18.9196 0.
5.32191 11.9614 0.
-107.363 -242.605 0.
-296.873 -622.362 0.
-2.41639 -4.93832 0.
-8.94309 -17.6084 0.
-2.20708 -4.23193 0.
11.1075 20.739 0.
-500.902 -922.774 0.
1.02251 1.84563 0.
-183.216 -311.404 0.
10.1426 16.7954 0.
-2.58843 -4.1784 0.
-148.112 -243.926 0.
-9.98096 -15.8066 0.
-160.512 -255.868 0.
17.3473 27.6737 0.
-0.918079 -1.5071 0.
-3.93131 -6.24896 0.
21.6894 33.393 0.
-41.6479 -86.8238 0.
9.75525 19.3036 0.
-3.91954 -6.39137 0.
15.6989 26.4721 0.
-44.7585 -78.0128 0.
-8.43285 -12.8148 0.
-445.778 -693.475 0.
-85.0719 -128.536 0.
-9.34717 -14.2125 0.
25.4485 36.4893 0.
-12.2351 -32.3885 0.
-101.349 -160.088 0.
-2.28102 -3.71279 0.
-35.9879 -59.9837 0.
20.1287 32.6162 0.
9.3307 16.4655 0.
-103.177 -186.784 0.
6.26059 12.1219 0.
-164.198 -327.651 0.
-348.287 -716.404 0.
12.1973 25.957 0.
-8.74749 -18.7891 0.
1.94069 4.49239 0.
-201.004 -468.511 0.
-305.492 -737.437 0.
-106.708 -261.666 0.
-58.3235 -144.179 0.
7.74203 19.7129 0.
6.12809 15.6043 0.
-246.463 -658.57 0.
-9.97352 -26.5658 0.
-5.88018 -15.6153 0.
-77.9431 -212.577 0.
-2.72525 -7.40365 0.
-29.8452 -81.0678 0.
1.2459 3.36956 0.
-0.199396 -16.1954 0.
2.41825 6.64693 0.
-0.249258 -17.6156 0.
-0.0269839 -1.5231 0.
2.86173 7.85594 0.
-81.4361 -225.14 0.
-479.998 -1324.31 0.
-0.0257739 -1.06508 0.
-453.947 -1189.77 0.
-0.00144237 -0.0800824 0.
4.69533e-05 0.182993 0.
-591.06 -1566.89 0.
-0.254974 -0.271361 0.
-0.213333 -0.225718 0.
-265.451 -735.224 0.
-345.7 -924.884 0.
-12.5475 -34.5814 0.
-65.577 -177.415 0.
-573.806 -1428.46 0.
-0.0104791 -1.83612 0.
-0.0197013 -2.13303 0.
-629.856 -1674.47 0.
0.933433 2.34152 0.
-23.4468 -51.5896 0.
-606.375 -1252.42 0.
-0.0110279 -8.89035 0.
-515.484 -1426.62 0.
2.4436 6.66317 0.
0.834931 2.22974 0.
1.27069 3.30388 0.
1.49565 3.93408 0.
-2.10391 -5.66446 0.
6.69658 18.2785 0.
2.5389 6.9372 0.
0.807927 2.20971 0.
-3.51842 -9.59253 0.
-106.597 -292.463 0.
4.35238 11.1917 0.
-3.96353 -10.2008 0.
-33.8141 -87.1027 0.
-9.31993 -23.1483 0.
-265.57 -675.726 0.
-276.523 -673.785 0.
-92.9899 -225.095 0.
-126.637 -290.209 0.
-2.80405 -28.2987 0.
-2.69838 -24.5252 0.
1.67814 3.41929 0.
-189.723 -387.951 0.
-485.408 -958.652 0.
-1.75112 -3.36311 0.
-5.49715 -25.5107 0.
-7.98791 -13.7505 0.
12.7892 21.5249 0.
-465.119 -778.079 0.
-38.6574 -63.1063 0.
-11.7052 -33.8766 0.
-13.3925 -20.1194 0.
7.52799 11.0852 0.
-24.8859 -38.6174 0.
-46.982 -73.1137 0.
-229.787 -358.593 0.
-342.235 -548.627 0.
-10.1698 -27.4488 0.
8.46672 16.1666 0.
-3.03888 -5.64557 0.
10.3746 16.7789 0.
1.72443 2.88612 0.
-169.246 -292.962 0.
-84.1593 -126.489 0.
0.00519943 0.00747948 0.
-2.51536 -3.5057 0.
25.3151 35.5268 0.
-213.849 -302.159 0.
-227.427 -346.005 0.
-426.511 -665.721 0.
-3.7486 -5.582 0.
17.0267 26.3038 0.
16.8556 27.0796 0.
-7.66367 -13.3916 0.
-597.359 -1070.37 0.
-5.55645 -29.4383 0.
-4.62611 -8.9575 0.
-5.85052 -11.923 0.
-1.36224 -2.87427 0.
-162.251 -345.066 0.
10.45 24.1455 0.
-153.751 -358.268 0.
-66.8238 -157.229 0.
9.22707 22.1705 0.
3.23445 7.77199 0.
3.5006 8.88275 0.
-4.70582 -11.9417 0.
-169.834 -454.557 0.
-6.71103 -17.9084 0.
4.43936 11.8117 0.
-21.9299 -59.5104 0.
7.89692 21.3273 0.
-180.762 -493.967 0.
-64.5092 -175.656 0.
-16.1843 -43.8867 0.
-502.558 -1382.64 0.
-0.638549 -1.75109 0.
-382.793 -993.846 0.
2.92574 7.93965 0.
2.75192 7.62231 0.
2.40421 6.3569 0.
1.64784 4.03189 0.
0.200575 0.537699 0.
3.68286e-05 0.0207295 0.
0.0028799 0.734911 0.
0.028979 0.0309358 0.
0.215039 0.228194 0.
-0.144071 -0.152008 0.
-0.129552 -0.76002 0.
-23.2855 -57.8623 0.
0.0200378 0.0550913 0.
0.148868 0.410372 0.
0.610208 1.61755 0.
-0.0677493 -0.18539 0.
-0.0118452 -1.43356 0.
0.675829 1.81866 0.
1.0134e-05 0.000547783 0.
-0.224364 -3.8376 0.
3.61006 9.30419 0.
1.12369 2.99734 0.
-18.096 -49.1156 0.
3.10603 8.59817 0.
-9.15847 -25.0398 0.
-533.77 -1420.91 0.
-0.395171 -17.7458 0.
-294.746 -791.409 0.
0.359779 0.989776 0.
-46.0522 -127.056 0.
-1.95237 -5.33098 0.
1.7439 4.73328 0.
-3.63131 -9.92421 0.
-56.6852 -145.391 0.
-69.8729 -179.376 0.
-124.641 -309.545 0.
-29.9809 -74.4086 0.
-11.66 -28.9068 0.
-21.8256 -51.6849 0.
2.44421 5.92028 0.
-304.509 -697.408 0.
-13.3777 -30.1581 0.
13.0167 28.7688 0.
-164.617 -335.193 0.
-0.975991 -1.93563 0.
-2.43188 -4.65121 0.
11.3906 21.9092 0.
4.95563 9.27599 0.
-418.775 -706.708 0.
12.5924 20.8315 0.
17.6843 27.1645 0.
2.04076 3.05717 0.
21.4686 33.6464 0.
-619.276 -914.814 0.
17.3067 25.1645 0.
-12.135 -27.0646 0.
20.5997 29.5144 0.
-1.34669 -1.92496 0.
-156.319 -252.325 0.
-32.9233 -51.3829 0.
-51.5925 -98.0756 0.
2.95109 5.4531 0.
8.11375 12.5874 0.
-0.68728 -1.09642 0.
7.93946 11.1261 0.
-0.00188276 -0.0026461 0.
-1.63319 -2.29969 0.
25.0104 34.3552 0.
-83.7257 -115.739 0.
-129.137 -179.695 0.
-9.23687 -13.1888 0.
-12.1508 -26.2558 0.
-4.54477 -6.6895 0.
-305.77 -466.945 0.
-440.79 -699.857 0.
-104.317 -180.298 0.
-1.90539 -3.15984 0.
-4.4807 -19.8417 0.
-4.59037 -8.93136 0.
-382.156 -785.729 0.
-106.74 -223.081 0.
-87.6147 -184.778 0.
-7.7203 -17.5886 0.
7.14713 16.3504 0.
-2.67521 -6.1447 0.
-3.07628 -7.38042 0.
-148.495 -356.047 0.
-231.77 -586.921 0.
0.233967 0.591582 0.
-1.23963 -3.13448 0.
-41.0652 -109.718 0.
1.62427 4.33757 0.
-136.162 -370.273 0.
7.64262 20.7461 0.
-34.595 -94.5439 0.
-1.23866 -3.37241 0.
-1.898 -5.14552 0.
-0.246578 -0.671849 0.
3.39684 9.1965 0.
1.25514 3.33436 0.
-0.255399 -0.701457 0.
2.92248 8.08342 0.
1.67374 4.22706 0.
-0.334232 -3.85548 0.
5.63012 11.2478 0.
-0.000797559 -1.27396 0.
-0.0278119 -1.82344 0.
0.393792 0.418999 0.
0.295275 0.312344 0.
0.0572496 0.0602172 0.
-0.0178283 -0.0868542 0.
0.0367266 0.0828975 0.
-0.00606879 -1.72798 0.
0.568223 1.57121 0.
0.37851 1.02038 0.
0.205204 0.562312 0.
0.699137 1.90254 0.
-0.0278078 -2.51495 0.
0.0142212 1.76815 0.
2.3422 6.00867 0.
-0.0659652 -0.864533 0.
-0.230435 -5.25926 0.
-25.1874 -65.6568 0.
0.552388 1.5286 0.
2.69791 7.3777 0.
-0.517722 -12.684 0.
-0.42695 -15.6436 0.
3.92953 10.4537 0.
-0.094379 -17.205 0.
-50.3633 -138.29 0.
-137.89 -377.055 0.
5.95003 16.2519 0.
-16.5024 -45.0374 0.
-19.0435 -48.7228 0.
-149.571 -382.829 0.
-54.7426 -135.923 0.
-89.0781 -220.871 0.
-55.0859 -136.448 0.
-263.289 -626.012 0.
-2.09442 -4.92493 0.
10.8423 23.9743 0.
1.83052 4.02734 0.
-23.7151 -52.4888 0.
-489.384 -995.46 0.
14.5724 28.8296 0.
3.51625 6.68372 0.
3.72137 6.91117 0.
16.1143 29.258 0.
-257.582 -426.733 0.
-88.8961 -144.232 0.
-552.777 -832.534 0.
17.3838 25.5458 0.
-11.1003 -24.7925 0.
3.90721 5.31411 0.
-85.4515 -122.469 0.
-150.427 -211.625 0.
-177.244 -249.069 0.
-12.8669 -18.0466 0.
2.45558 3.67416 0.
-9.59335 -14.1658 0.
-3.93769 -6.92719 0.
7.58921 13.2798 0.
-1.72073 -2.63828 0.
-1.43399 -2.26194 0.
0.390993 0.536636 0.
-191.386 -262.977 0.
-152.647 -209.962 0.
10.1543 12.971 0.
-7.89086 -10.3027 0.
3.23126 4.49293 0.
-10.9614 -15.1119 0.
-339.651 -464.145 0.
-11.5322 -26.4964 0.
-7.69251 -11.1763 0.
-68.6395 -102.832 0.
9.9321 16.0013 0.
-299.119 -487.924 0.
3.2133 5.9421 0.
-4.95777 -9.69932 0.
-199.629 -413.016 0.
-6.26007 -12.5465 0.
4.64535 9.65981 0.
-8.88648 -20.2038 0.
-3.40681 -7.77716 0.
-248.376 -569.271 0.
-42.2656 -101.232 0.
-117.302 -280.946 0.
-10.1148 -25.5143 0.
-10.5119 -26.5134 0.
-14.9646 -37.7406 0.
-90.0899 -239.414 0.
6.40249 17.0033 0.
-113.254 -306.744 0.
0.154642 0.417987 0.
0.21698 0.585232 0.
0.3781 1.02912 0.
0.296173 0.802718 0.
1.12437 3.02244 0.
-0.311031 -18.4452 0.
-278.619 -763.131 0.
4.18859 11.467 0.
-0.040096 -7.77047 0.
-429.088 -1188.41 0.
2.00202 5.51559 0.
4.03005 10.8787 0.
-478.276 -1204.21 0.
-0.00231628 -1.36387 0.
-221.957 -598.589 0.
-18.2401 -49.8443 0.
-73.9794 -178.792 0.
-102.395 -283.49 0.
-318.489 -859.097 0.
-0.0644671 -2.24531 0.
-0.632634 -1.60633 0.
-411.784 -1012.7 0.
-32.2061 -82.1791 0.
-44.4232 -110.119 0.
-270.528 -660.187 0.
0.990016 2.65623 0.
-491.732 -1268.82 0.
3.38909 9.08669 0.
2.14553 5.88252 0.
-247.423 -684.852 0.
3.48082 9.21814 0.
-206.088 -546.124 0.
-0.894198 -19.3354 0.
-0.376979 -11.7016 0.
-0.457542 -1.20581 0.
-3.31343 -8.98703 0.
-61.8698 -168.813 0.
6.34522 17.2993 0.
2.55644 6.96252 0.
-157.11 -427.552 0.
-19.9593 -50.9947 0.
-0.258238 -0.659495 0.
-2.8501 -7.05135 0.
2.3519 5.79403 0.
-50.9463 -126.117 0.
-144.613 -345.079 0.
-4.53155 -10.6952 0.
-190.108 -417.43 0.
-5.93448 -12.9742 0.
2.43292 5.29379 0.
-6.2069 -12.548 0.
-58.2893 -115.036 0.
-438.725 -832.421 0.
-4.82932 -21.4313 0.
4.16387 7.50654 0.
5.7767 9.19471 0.
16.7933 26.1227 0.
-13.7652 -20.2987 0.
-185.541 -266.859 0.
5.20969 7.32876 0.
-0.939308 -1.24358 0.
-13.1082 -17.2126 0.
-2.01474 -2.62527 0.
-6.80454 -9.36631 0.
-53.4713 -73.5274 0.
-277.049 -405.911 0.
10.1363 14.6809 0.
-7.23665 -10.341 0.
4.59376 7.82117 0.
-6.26063 -9.47888 0.
-138.627 -215.905 0.
-18.5281 -24.8521 0.
-8.44496 -10.5333 0.
12.7545 15.8095 0.
-8.40025 -10.5489 0.
-295.272 -379.453 0.
-52.6823 -70.7524 0.
-130.597 -173.641 0.
9.38337 11.9594 0.
-3.22131 -4.49002 0.
-39.4692 -56.6413 0.
-180.772 -267.65 0.
-8.11683 -12.8751 0.
-253.992 -407.808 0.
0.701772 1.3205 0.
-4.52072 -22.9259 0.
4.64912 9.10017 0.
3.70144 7.49896 0.
-335.398 -703.001 0.
6.16465 13.9864 0.
0.580135 1.32159 0.
10.5334 23.7997 0.
-4.86073 -11.5769 0.
-1.73595 -26.1947 0.
-9.95089 -25.1347 0.
-17.2624 -43.5993 0.
-11.8288 -29.8714 0.
-127.982 -338.186 0.
-1.49122 -3.93688 0.
-31.7178 -85.5377 0.
1.43964 3.87327 0.
-1.7085 -4.57419 0.
-148.371 -401.433 0.
0.15793 0.424538 0.
-186.887 -496.681 0.
3.6748 9.69113 0.
-1.41438 -3.69676 0.
-0.0271487 -13.6072 0.
-0.020226 -10.0498 0.
2.05963 5.68874 0.
-0.0710328 -10.5457 0.
2.79775 7.41333 0.
-0.0237772 -5.75707 0.
-0.008984 -0.549814 0.
0.21244 0.510253 0.
0.0924184 0.254301 0.
-0.236302 -0.638904 0.
0.0736955 0.202927 0.
-0.669143 -1.85289 0.
0.0882348 0.233648 0.
0.144572 0.376005 0.
-0.121895 -0.311302 0.
0.834344 2.161 0.
-0.642877 -1.61982 0.
1.39487 3.41413 0.
2.36768 6.5466 0.
1.70911 4.63917 0.
0.707988 1.89813 0.
0.738961 2.02352 0.
2.26001 6.25284 0.
3.61026 9.79716 0.
-76.2068 -206.465 0.
-44.9737 -119.11 0.
-10.9535 -29.0491 0.
-116.594 -309.946 0.
0.309567 0.836505 0.
-101.52 -274.813 0.
6.18448 16.8078 0.
-16.9286 -45.9558 0.
-63.9995 -173.574 0.
-142.758 -364.098 0.
-67.2636 -171.485 0.
-3.95442 -9.77564 0.
-31.9541 -78.6392 0.
9.7571 23.9142 0.
1.41777 3.36453 0.
11.3895 26.6908 0.
-143.8 -313.868 0.
1.83055 3.97615 0.
12.5365 27.1022 0.
-182.407 -371.768 0.
11.7227 23.2832 0.
-7.96385 -15.0373 0.
4.11957 7.49534 0.
2.93224 5.24497 0.
-517.946 -812.13 0.
15.3605 23.5767 0.
-81.4592 -115.126 0.
12.0925 16.5004 0.
-12.6307 -23.1638 0.
-375.038 -481.872 0.
-262.789 -335.441 0.
4.28634 5.43887 0.
11.5477 14.5806 0.
15.2527 19.2367 0.
3.54016 4.69893 0.
-12.0399 -17.0807 0.
16.5694 23.2076 0.
-100.559 -166.282 0.
14.4101 19.9029 0.
9.47087 13.0862 0.
-4.88623 -5.95297 0.
-53.1185 -64.3608 0.
-26.4159 -31.7681 0.
-156.966 -193.571 0.
-169.286 -213.248 0.
9.60549 11.5942 0.
13.9422 17.2359 0.
-2.73664 -3.46846 0.
-10.0701 -13.8376 0.
-441.609 -624.365 0.
-101.079 -147.674 0.
-1.9779 -3.11421 0.
-68.9464 -112.266 0.
8.98705 16.8684 0.
4.90844 9.39758 0.
-261.948 -510.484 0.
-0.34339 -0.703612 0.
-47.9468 -101.964 0.
11.0262 24.3932 0.
7.11785 15.9401 0.
-55.9642 -126.849 0.
7.66285 18.2941 0.
-143.336 -344.106 0.
-97.6454 -247.033 0.
-42.9671 -108.674 0.
-48.6505 -123.037 0.
6.43004 16.831 0.
6.20103 16.1662 0.
4.08249 10.9261 0.
7.48816 20.0623 0.
2.71909 7.29205 0.
-73.5727 -197.766 0.
2.47006 6.59116 0.
-4.28504 -11.358 0.
-1.26265 -3.3194 0.
-3.1168 -8.11974 0.
-0.00538134 -14.1653 0.
0.754315 2.08768 0.
3.84752 10.5513 0.
-0.157342 -12.6322 0.
5.3828 13.9978 0.
-188.143 -517.991 0.
3.48751 9.31251 0.
-166.186 -337.161 0.
-49.6113 -123.039 0.
-82.1734 -227.434 0.
0.0461452 0.127594 0.
-212.601 -583.465 0.
-0.127343 -2.63701 0.
0.337178 0.830058 0.
-215.84 -528.561 0.
1.22534 3.05106 0.
-0.467846 -1.15053 0.
-185.287 -451.319 0.
-0.00886243 -5.36113 0.
-0.00431839 -5.55494 0.
2.25538 6.0464 0.
-0.0557213 -10.5996 0.
-0.00741882 -9.4825 0.
-1.56405 -4.30825 0.
-1.1019 -3.02908 0.
-50.4706 -133.428 0.
5.43535 14.3885 0.
-3.38727 -8.98198 0.
1.24786 3.37682 0.
-90.3549 -244.897 0.
3.58493 9.69139 0.
-4.63735 -12.5294 0.
-0.337559 -0.911593 0.
3.68046 9.26774 0.
-16.5235 -42.0748 0.
-86.9857 -214.756 0.
-65.4419 -160.887 0.
-58.5208 -143.249 0.
-135.843 -325.156 0.
-0.0374078 -0.0884477 0.
10.4455 22.3607 0.
12.3557 26.1948 0.
-5.54209 -11.9 0.
-113.179 -233.143 0.
-7.79903 -15.6452 0.
-233.683 -446.614 0.
5.90819 10.8625 0.
11.9267 21.0985 0.
4.73988 7.1726 0.
-49.5933 -74.9953 0.
-250.836 -348.797 0.
-335.151 -449.524 0.
3.95891 5.14052 0.
-0.151862 -0.182628 0.
-4.26781 -5.083 0.
-55.1801 -68.0399 0.
-269.653 -333.462 0.
10.0208 12.3699 0.
-2.75126 -3.55119 0.
11.9151 15.3677 0.
1.31495 1.69114 0.
-6.13705 -15.8182 0.
-38.0417 -50.9403 0.
-34.2908 -45.8605 0.
-96.8918 -114.695 0.
-143.003 -168.185 0.
6.97761 7.83478 0.
12.4923 14.0423 0.
-3.29702 -3.70807 0.
4.05053 4.85442 0.
13.3353 16.37 0.
-160.126 -201.802 0.
4.09724 5.56332 0.
14.278 19.9725 0.
0.114003 0.164234 0.
-7.08245 -20.0804 0.
-247.725 -404.068 0.
-1.27489 -2.38554 0.
-21.9018 -41.8077 0.
5.02694 9.55272 0.
-3.61113 -22.438 0.
-57.3066 -120.122 0.
11.4686 25.449 0.
6.40704 14.3922 0.
-159.498 -362.735 0.
7.22197 17.2823 0.
-0.518187 -1.24745 0.
7.87398 19.5647 0.
3.7727 9.41625 0.
2.73886 6.86672 0.
-18.646 -48.6793 0.
-5.05251 -13.1373 0.
-105.798 -283.616 0.
-5.40261 -14.4986 0.
2.25328 6.05272 0.
-7.718 -20.599 0.
5.12938 13.5802 0.
4.45347 11.7693 0.
-30.0281 -78.5134 0.
3.49677 9.10062 0.
-187.747 -519.721 0.
-0.00796404 -14.7714 0.
-86.7412 -235.927 0.
-0.28287 -0.754224 0.
-26.6701 -69.3116 0.
3.36853 8.93275 0.
5.33579 13.1921 0.
0.400258 0.873149 0.
0.162375 0.414619 0.
0.19302 0.533457 0.
0.311654 0.861602 0.
0.842884 2.31681 0.
0.931672 2.42156 0.
1.13131 2.90555 0.
0.512447 1.30253 0.
-0.150341 -0.37858 0.
1.21721 3.02888 0.
-0.101435 -0.24943 0.
-0.0875071 -10.4325 0.
-179.401 -496.541 0.
0.280839 0.769577 0.
-17.2288 -47.4664 0.
-129.097 -356.924 0.
5.61151 15.5399 0.
-79.4672 -220.014 0.
1.08596 2.82564 0.
4.21937 11.1503 0.
-4.57247 -12.1043 0.
-1.33844 -3.62697 0.
-98.5313 -267.39 0.
-4.48384 -12.1043 0.
1.13829 3.0712 0.
-1.33343 -3.59589 0.
0.87065 2.18754 0.
-3.19662 -7.98368 0.
2.61842 6.29142 0.
2.99721 7.12604 0.
-28.5914 -69.9375 0.
-18.0582 -43.5924 0.
-2.23108 -5.32243 0.
-179.769 -383.465 0.
3.1105 6.56823 0.
9.77806 20.4496 0.
10.2623 20.8604 0.
1.88589 3.72132 0.
-94.7369 -182.981 0.
6.45544 11.9958 0.
4.81872 8.60937 0.
-94.1264 -141.453 0.
-0.581076 -0.852688 0.
-34.4692 -46.1627 0.
3.07472 3.97735 0.
5.12429 6.52413 0.
-283.012 -335.765 0.
6.92039 8.13168 0.
-6.8752 -8.00563 0.
3.22672 3.69392 0.
2.7937 3.16544 0.
-14.3004 -17.2593 0.
-194.952 -244.474 0.
-7.86057 -9.84045 0.
2.02934 3.15644 0.
9.80046 11.5382 0.
7.96534 9.11858 0.
11.874 12.6726 0.
14.901 15.8992 0.
-16.4311 -19.7017 0.
1.76185 1.91734 0.
-159.556 -173.342 0.
0.231868 0.27555 0.
-10.6602 -15.9896 0.
-9.85288 -15.7341 0.
0.781462 1.06511 0.
-132.636 -185.806 0.
-25.2512 -36.5355 0.
-8.13655 -12.8789 0.
4.30149 6.69819 0.
-4.27602 -7.64164 0.
8.23892 15.1604 0.
-18.591 -35.2448 0.
2.53462 5.20679 0.
-128.792 -273.409 0.
7.28776 16.2225 0.
10.4577 23.5656 0.
12.5978 26.6588 0.
-2.77465 -6.3164 0.
2.19772 5.12583 0.
-2.52046 -6.23888 0.
-1.70727 -4.2451 0.
8.2357 20.5718 0.
-114.708 -298.584 0.
4.96777 12.8834 0.
-4.32923 -11.6255 0.
8.0433 21.0643 0.
-1.28732 -3.37824 0.
-0.150673 -0.392074 0.
7.78108 20.2506 0.
-23.5059 -61.6773 0.
0.534743 1.39684 0.
-0.126159 -0.328038 0.
-2.09619 -5.78758 0.
5.19588 14.3239 0.
4.5018 12.2711 0.
2.02761 5.42894 0.
-0.3422 -13.9336 0.
-1.19477 -3.00325 0.
0.061485 0.685645 0.
1.3379 3.08086 0.
1.58472 4.10129 0.
-0.00791452 -3.66569 0.
-0.00145943 -1.76351 0.
-0.00444114 -2.16617 0.
-0.0139417 -1.03568 0.
-0.0650399 -3.5163 0.
0.454837 1.19349 0.
0.870084 2.21362 0.
1.06582 2.68077 0.
0.019982 0.049688 0.
6.51793 17.0324 0.
4.51545 12.3133 0.
-2.65609 -7.27868 0.
-1.51242 -4.16647 0.
5.22048 14.4321 0.
-2.3123 -6.40463 0.
-4.14601 -11.4834 0.
-0.411474 -1.06735 0.
4.50802 11.631 0.
0.808788 2.07544 0.
-0.811919 -2.13873 0.
3.60411 9.4644 0.
-3.24055 -8.3942 0.
-30.0278 -80.8998 0.
-81.9741 -206.857 0.
-58.8546 -147.518 0.
-17.5269 -43.6693 0.
-22.1435 -53.1408 0.
4.11538 9.77213 0.
8.26356 19.3404 0.
-4.86307 -11.254 0.
11.1923 25.6127 0.
-74.7565 -158.788 0.
-41.4324 -87.1347 0.
-49.0259 -103.697 0.
-121.838 -250.372 0.
-1.59893 -3.19117 0.
8.53291 15.9635 0.
3.28535 5.94829 0.
-3.81221 -14.4699 0.
-121.743 -181.663 0.
3.10117 4.5168 0.
-46.0449 -61.884 0.
-19.1275 -24.809 0.
0.367807 0.460619 0.
-4.29469 -4.91869 0.
14.8657 17.2137 0.
14.6458 16.8143 0.
-69.7287 -77.8512 0.
9.66162 10.6872 0.
2.90032 3.17854 0.
4.56396 5.01564 0.
19.7511 21.6179 0.
13.9904 19.9963 0.
-8.87761 -11.303 0.
-14.9887 -15.4909 0.
22.4595 23.2072 0.
-109.917 -113.269 0.
-11.614 -12.2373 0.
16.5238 16.3657 0.
-0.316027 -0.32146 0.
1.14096 1.32009 0.
-2.43806 -2.89732 0.
-107.131 -131.006 0.
10.8917 14.9006 0.
-5.14435 -7.25451 0.
-3.97548 -5.45692 0.
8.31613 12.4643 0.
-1.28925 -2.00558 0.
0.275889 0.490854 0.
-2.02375 -3.71105 0.
-229.66 -434.255 0.
-2.75947 -19.218 0.
-4.35885 -8.45733 0.
-6.48548 -13.0347 0.
-4.57013 -9.48167 0.
4.63755 9.7801 0.
-1.86319 -4.25849 0.
-71.4552 -167.373 0.
-119.712 -286.96 0.
-0.543516 -1.34621 0.
-2.25347 -5.21241 0.
-0.188731 -0.46627 0.
-2.70103 -6.7026 0.
-4.29217 -11.1785 0.
7.85642 20.5007 0.
6.11066 15.9783 0.
-25.5664 -66.3292 0.
-1.68613 -4.37494 0.
-21.4084 -56.1243 0.
-4.2213 -11.017 0.
-2.7333 -7.10073 0.
-2.74147 -7.53626 0.
3.94996 10.8306 0.
6.88662 18.8034 0.
-10.551 -28.4405 0.
-4.00297 -10.7844 0.
-4.84899 -12.3507 0.
0.0969835 0.230393 0.
-52.0587 -123.402 0.
1.06497 2.69661 0.
-0.0757815 -5.27063 0.
-63.46 -171.845 0.
-12.4406 -34.3573 0.
-0.00169492 -4.06184 0.
-10.0566 -27.6131 0.
-57.3151 -155.161 0.
1.41301 3.66862 0.
-10.5439 -26.5727 0.
-37.4873 -91.754 0.
-0.604445 -14.7896 0.
2.99537 7.85644 0.
-30.1051 -81.1198 0.
3.00308 8.27223 0.
5.33087 14.7355 0.
2.14166 5.93005 0.
-55.2128 -152.915 0.
7.56805 19.5683 0.
1.38821 3.56972 0.
-81.7662 -209.116 0.
6.02285 15.7818 0.
1.3388 3.49704 0.
-4.17828 -10.8243 0.
2.2707 5.87546 0.
-4.3625 -10.3559 0.
-5.40933 -12.8018 0.
-4.20816 -9.92929 0.
-82.5195 -197.793 0.
0.0468085 0.11101 0.
-76.8115 -179.301 0.
4.89468 11.2953 0.
-2.03317 -22.1453 0.
5.85315 11.6847 0.
-4.03133 -20.6396 0.
5.68231 10.7867 0.
2.36064 4.91419 0.
1.8845 3.80715 0.
-111.306 -207.407 0.
10.3593 18.6619 0.
8.27878 14.4284 0.
11.8336 17.1967 0.
13.0316 18.1187 0.
-93.6989 -126.251 0.
-70.1243 -91.1017 0.
9.80322 12.2974 0.
-78.1308 -88.4084 0.
18.5111 20.21 0.
-4.87587 -5.14967 0.
0.282273 0.274755 0.
-185.294 -199.627 0.
3.67668 3.92976 0.
-12.6898 -14.0728 0.
11.7386 12.3058 0.
1.3092 1.36785 0.
-9.66644 -10.312 0.
-77.4814 -77.5134 0.
-19.7202 -11.1308 0.
8.78871 7.35418 0.
19.1528 18.1579 0.
-14.3171 -13.4804 0.
-6.26554 -6.25553 0.
1.31748 1.49664 0.
2.12197 2.47646 0.
-13.5326 -11.6384 0.
5.17923 6.13362 0.
6.27318 8.0453 0.
-104.256 -145.176 0.
9.94527 14.8695 0.
-105.087 -163.437 0.
6.34504 11.2372 0.
-1.76904 -3.30419 0.
-4.38424 -13.1878 0.
8.58246 16.0149 0.
-1.41688 -2.7417 0.
-90.7585 -182.041 0.
7.67027 15.8514 0.
-2.70354 -5.68203 0.
1.97623 4.53782 0.
-4.70917 -20.9498 0.
7.5828 16.1333 0.
-2.41703 -23.9092 0.
4.6131 10.6648 0.
1.29124 3.18212 0.
-2.40582 -5.95543 0.
-15.179 -37.7419 0.
-15.9849 -41.5576 0.
-4.59324 -11.9661 0.
-56.5271 -146.19 0.
-3.16429 -8.18444 0.
-0.443182 -2.67479 0.
5.38852 11.95 0.
4.68076 11.2862 0.
-1.79543 -4.8186 0.
-47.3038 -127.375 0.
-1.54311 -4.16264 0.
0.82991 2.23759 0.
0.635824 1.71341 0.
-2.8234 -6.8628 0.
-1.81392 -17.9352 0.
-0.250762 -4.64989 0.
1.33702 3.46976 0.
-0.0795156 -0.215397 0.
0.573356 1.56127 0.
-0.38166 -1.05538 0.
-0.0319698 -0.0884916 0.
1.42221 3.91114 0.
-0.215003 -0.583721 0.
0.953559 2.52959 0.
1.63732 4.23261 0.
1.15599 2.90878 0.
3.15012 7.5596 0.
0.693791 1.75089 0.
3.28991 8.87572 0.
-9.28107 -25.0762 0.
-19.2289 -52.0298 0.
4.21819 11.3866 0.
0.510425 1.36233 0.
-2.43621 -20.4276 0.
-0.177876 -0.745532 0.
4.94166 12.9208 0.
-5.43051 -14.1504 0.
-17.5452 -45.5729 0.
-60.6728 -157.222 0.
-5.95214 -15.403 0.
0.986908 2.32458 0.
7.95439 18.6804 0.
-21.4236 -50.1609 0.
-3.59644 -7.94663 0.
1.63451 3.26503 0.
12.9581 22.5794 0.
-2.43667 -5.60729 0.
-3.83784 -8.72916 0.
-16.9792 -34.0708 0.
3.31456 6.40371 0.
-0.496758 -0.950749 0.
-5.14757 -21.2271 0.
-5.02743 -17.2947 0.
-5.77104 -11.4114 0.
-4.51774 -18.3107 0.
6.08878 10.5415 0.
-14.0334 -20.589 0.
-3.6376 -5.09791 0.
-75.0306 -95.2717 0.
-11.339 -14.0529 0.
20.5001 20.041 0.
-48.201 -53.7497 0.
-1.83883 -1.97696 0.
-11.1678 -12.12 0.
-4.31496 -4.07124 0.
-0.250096 -0.228612 0.
21.9374 19.4716 0.
20.277 15.2918 0.
-12.5186 -12.5395 0.
-10.702 -10.7109 0.
