# vtk DataFile Version 2.0
test grain
ASCII
DATASET UNSTRUCTURED_GRID
POINTS 5000 float
0.499695 0.000953249 0.
0.501768 0.000964565 0.
0.503839 0.000975926 0.
0.5059 0.000985573 0.
0.507925 0.000987594 0.
0.509949 0.00098962 0.
0.511967 0.000991556 0.
0.513976 0.000993387 0.
0.515986 0.000995221 0.
0.51799 0.000996352 0.
0.519992 0.000997128 0.
0.521995 0.000997903 0.
0.523995 0.000998029 0.
0.525996 0.000998072 0.
0.527997 0.000998139 0.
0.529998 0.000998389 0.
0.531998 0.000998639 0.
0.533999 0.000998843 0.
0.535999 0.000998953 0.
0.537999 0.000999063 0.
0.539999 0.000999124 0.
0.541999 0.000999145 0.
0.543999 0.000999167 0.
0.545999 0.000999162 0.
0.547999 0.000999148 0.
0.55 0.000999135 0.
0.551999 0.000999086 0.
0.553999 0.000999037 0.
0.555999 0.000999006 0.
0.557999 0.000999037 0.
0.559999 0.000999069 0.
0.562 0.000999088 0.
0.564 0.000999091 0.
0.566 0.000999094 0.
0.568 0.000999077 0.
0.57 0.000999051 0.
0.572 0.000999025 0.
0.574 0.000998985 0.
0.576 0.000998944 0.
0.578 0.000998909 0.
0.58 0.000998935 0.
0.582 0.00099896 0.
0.584 0.000998978 0.
0.586 0.000998982 0.
0.588 0.000998986 0.
0.59 0.00099898 0.
0.592 0.000998967 0.
0.594 0.000998953 0.
0.596 0.000998931 0.
0.598 0.000998907 0.
0.6 0.000998882 0.
0.602 0.0009989 0.
0.604 0.000998919 0.
0.606 0.000998937 0.
0.608 0.000998955 0.
0.61 0.000998974 0.
0.612 0.000998982 0.
0.614 0.000998978 0.
0.616 0.000998974 0.
0.618 0.000998956 0.
0.62 0.000998931 0.
0.622 0.000998906 0.
0.624 0.000998948 0.
0.626 0.000998998 0.
0.628 0.000999046 0.
0.63 0.000999074 0.
0.632 0.000999102 0.
0.634 0.000999117 0.
0.636 0.000999109 0.
0.638001 0.000999101 0.
0.640001 0.000999078 0.
0.642001 0.000999043 0.
0.644001 0.000999008 0.
0.646001 0.000999036 0.
0.648001 0.000999083 0.
0.650001 0.000999129 0.
0.652001 0.000999141 0.
0.654001 0.000999152 0.
0.656001 0.000999152 0.
0.658001 0.00099911 0.
0.660001 0.000999068 0.
0.662001 0.000998979 0.
0.664001 0.00099883 0.
0.666002 0.000998682 0.
0.668002 0.000998444 0.
0.670003 0.000998162 0.
0.672004 0.000997879 0.
0.674005 0.000997819 0.
0.676006 0.000997787 0.
0.678007 0.000997617 0.
0.68001 0.000996369 0.
0.682014 0.000995122 0.
0.684021 0.000993465 0.
0.686037 0.000991007 0.
0.688053 0.000988556 0.
0.69008 0.000985961 0.
0.692116 0.000983233 0.
0.694152 0.000980512 0.
0.696226 0.000971047 0.
0.698308 0.000960288 0.
0.49955 0.00285834 0.
0.501636 0.00289251 0.
0.503718 0.00292669 0.
0.505794 0.0029566 0.
0.507838 0.00296268 0.
0.509882 0.00296878 0.
0.511916 0.00297459 0.
0.513938 0.0029801 0.
0.515959 0.00298562 0.
0.517971 0.00298904 0.
0.519977 0.00299137 0.
0.521984 0.0029937 0.
0.523986 0.00299409 0.
0.525989 0.00299422 0.
0.527991 0.00299441 0.
0.529993 0.00299517 0.
0.531995 0.00299592 0.
0.533996 0.00299653 0.
0.535997 0.00299686 0.
0.537997 0.00299719 0.
0.539998 0.00299737 0.
0.541998 0.00299744 0.
0.543998 0.0029975 0.
0.545998 0.00299748 0.
0.547998 0.00299745 0.
0.549999 0.00299741 0.
0.551998 0.00299726 0.
0.553998 0.00299711 0.
0.555998 0.00299702 0.
0.557998 0.00299711 0.
0.559998 0.00299721 0.
0.561999 0.00299726 0.
0.563999 0.00299727 0.
0.565999 0.00299728 0.
0.567999 0.00299723 0.
0.569999 0.00299715 0.
0.571999 0.00299708 0.
0.573999 0.00299696 0.
0.575999 0.00299683 0.
0.577999 0.00299673 0.
0.579999 0.0029968 0.
0.581999 0.00299688 0.
0.583999 0.00299693 0.
0.585999 0.00299695 0.
0.588 0.00299696 0.
0.59 0.00299694 0.
0.592 0.0029969 0.
0.594 0.00299686 0.
0.596 0.00299679 0.
0.598 0.00299672 0.
0.6 0.00299665 0.
0.602 0.0029967 0.
0.604 0.00299676 0.
0.606 0.00299681 0.
0.608 0.00299687 0.
0.61 0.00299692 0.
0.612 0.00299695 0.
0.614001 0.00299693 0.
0.616001 0.00299692 0.
0.618001 0.00299687 0.
0.620001 0.00299679 0.
0.622001 0.00299672 0.
0.624001 0.00299684 0.
0.626001 0.00299699 0.
0.628001 0.00299714 0.
0.630001 0.00299722 0.
0.632001 0.0029973 0.
0.634001 0.00299735 0.
0.636001 0.00299733 0.
0.638002 0.0029973 0.
0.640002 0.00299723 0.
0.642002 0.00299713 0.
0.644002 0.00299702 0.
0.646002 0.00299711 0.
0.648002 0.00299725 0.
0.650002 0.00299739 0.
0.652002 0.00299742 0.
0.654002 0.00299746 0.
0.656002 0.00299746 0.
0.658002 0.00299733 0.
0.660003 0.0029972 0.
0.662003 0.00299694 0.
0.664004 0.00299649 0.
0.666005 0.00299604 0.
0.668007 0.00299533 0.
0.670009 0.00299448 0.
0.672012 0.00299364 0.
0.674015 0.00299346 0.
0.676018 0.00299336 0.
0.678022 0.00299284 0.
0.680031 0.00298908 0.
0.682041 0.00298534 0.
0.684058 0.00298032 0.
0.686089 0.00297292 0.
0.68812 0.00296553 0.
0.690165 0.00295777 0.
0.692219 0.00294956 0.
0.694273 0.00294137 0.
0.696359 0.00291193 0.
0.698451 0.0028796 0.
0.499405 0.00476157 0.
0.501503 0.00481888 0.
0.503597 0.004876 0.
0.505687 0.00492746 0.
0.507751 0.00493764 0.
0.509814 0.00494784 0.
0.511866 0.00495753 0.
0.513899 0.00496675 0.
0.515933 0.00497598 0.
0.517951 0.00498172 0.
0.519962 0.00498561 0.
0.521973 0.00498949 0.
0.523977 0.00499014 0.
0.525981 0.00499036 0.
0.527985 0.00499069 0.
0.529988 0.00499194 0.
0.531991 0.00499319 0.
0.533993 0.00499421 0.
0.535994 0.00499476 0.
0.537995 0.00499531 0.
0.539996 0.00499562 0.
0.541996 0.00499573 0.
0.543997 0.00499583 0.
0.545997 0.00499581 0.
0.547997 0.00499574 0.
0.549998 0.00499568 0.
0.551997 0.00499543 0.
0.553997 0.00499518 0.
0.555997 0.00499503 0.
0.557997 0.00499519 0.
0.559997 0.00499534 0.
0.561998 0.00499544 0.
0.563998 0.00499545 0.
0.565998 0.00499547 0.
0.567998 0.00499539 0.
0.569998 0.00499526 0.
0.571999 0.00499513 0.
0.573998 0.00499493 0.
0.575998 0.00499472 0.
0.577998 0.00499455 0.
0.579998 0.00499467 0.
0.581999 0.0049948 0.
0.583999 0.00499489 0.
0.585999 0.00499491 0.
0.587999 0.00499493 0.
0.589999 0.0049949 0.
0.592 0.00499483 0.
0.594 0.00499477 0.
0.596 0.00499466 0.
0.598 0.00499453 0.
0.6 0.00499441 0.
0.602 0.0049945 0.
0.604 0.00499459 0.
0.606 0.00499469 0.
0.608 0.00499478 0.
0.610001 0.00499487 0.
0.612001 0.00499491 0.
0.614001 0.00499489 0.
0.616001 0.00499487 0.
0.618001 0.00499478 0.
0.620002 0.00499465 0.
0.622002 0.00499453 0.
0.624002 0.00499474 0.
0.626002 0.00499499 0.
0.628002 0.00499523 0.
0.630002 0.00499537 0.
0.632002 0.00499551 0.
0.634002 0.00499559 0.
0.636002 0.00499555 0.
0.638003 0.0049955 0.
0.640003 0.00499539 0.
0.642003 0.00499522 0.
0.644004 0.00499504 0.
0.646003 0.00499518 0.
0.648003 0.00499541 0.
0.650003 0.00499564 0.
0.652003 0.0049957 0.
0.654003 0.00499576 0.
0.656003 0.00499576 0.
0.658004 0.00499555 0.
0.660004 0.00499534 0.
0.662005 0.00499489 0.
0.664007 0.00499415 0.
0.666008 0.00499341 0.
0.668011 0.00499222 0.
0.670015 0.0049908 0.
0.672019 0.00498939 0.
0.674024 0.0049891 0.
0.67603 0.00498893 0.
0.678036 0.00498804 0.
0.680052 0.00498177 0.
0.682068 0.00497552 0.
0.684095 0.00496709 0.
0.686142 0.00495469 0.
0.688188 0.00494233 0.
0.69025 0.00492941 0.
0.692322 0.00491569 0.
0.694394 0.00490201 0.
0.696493 0.0048512 0.
0.698594 0.00479723 0.
0.499275 0.00665236 0.
0.501377 0.00672039 0.
0.503476 0.00679006 0.
0.505572 0.00685513 0.
0.507644 0.00687238 0.
0.509716 0.00688971 0.
0.511777 0.00690693 0.
0.513821 0.00692446 0.
0.515865 0.00694207 0.
0.517895 0.00695403 0.
0.519916 0.00696273 0.
0.521937 0.00697145 0.
0.523948 0.00697486 0.
0.525957 0.00697749 0.
0.527966 0.00698011 0.
0.529972 0.00698256 0.
0.531978 0.00698501 0.
0.533983 0.00698717 0.
0.535986 0.00698874 0.
0.537989 0.00699031 0.
0.539991 0.00699134 0.
0.541993 0.00699195 0.
0.543994 0.00699255 0.
0.545995 0.00699278 0.
0.547995 0.0069929 0.
0.549996 0.00699301 0.
0.551995 0.00699269 0.
0.553995 0.00699237 0.
0.555995 0.00699216 0.
0.557995 0.00699237 0.
0.559996 0.00699258 0.
0.561996 0.00699269 0.
0.563996 0.00699269 0.
0.565997 0.00699268 0.
0.567997 0.00699254 0.
0.569997 0.00699232 0.
0.571997 0.00699211 0.
0.573997 0.00699185 0.
0.575997 0.00699158 0.
0.577997 0.00699136 0.
0.579997 0.00699151 0.
0.581998 0.00699166 0.
0.583998 0.00699176 0.
0.585999 0.00699177 0.
0.587999 0.00699179 0.
0.589999 0.00699174 0.
0.591999 0.00699163 0.
0.594 0.00699153 0.
0.596 0.00699138 0.
0.598 0.00699123 0.
0.6 0.00699107 0.
0.602 0.0069912 0.
0.604 0.00699134 0.
0.606 0.00699147 0.
0.608001 0.00699159 0.
0.610001 0.00699171 0.
0.612001 0.00699177 0.
0.614002 0.00699176 0.
0.616002 0.00699174 0.
0.618002 0.00699165 0.
0.620003 0.00699151 0.
0.622003 0.00699138 0.
0.624003 0.00699164 0.
0.626003 0.00699195 0.
0.628003 0.00699225 0.
0.630003 0.00699248 0.
0.632003 0.00699272 0.
0.634004 0.00699287 0.
0.636004 0.00699285 0.
0.638004 0.00699283 0.
0.640005 0.00699267 0.
0.642005 0.00699242 0.
0.644005 0.00699216 0.
0.646005 0.00699232 0.
0.648005 0.00699261 0.
0.650005 0.0069929 0.
0.652005 0.00699269 0.
0.654006 0.00699247 0.
0.656007 0.00699211 0.
0.658009 0.00699125 0.
0.66001 0.0069904 0.
0.662013 0.00698901 0.
0.664017 0.00698698 0.
0.666021 0.00698495 0.
0.668027 0.00698245 0.
0.670035 0.00697972 0.
0.672043 0.00697699 0.
0.674055 0.00697365 0.
0.676067 0.00697024 0.
0.678081 0.00696567 0.
0.680109 0.00695347 0.
0.682136 0.0069413 0.
0.684174 0.00692575 0.
0.68623 0.00690458 0.
0.688285 0.00688351 0.
0.690356 0.00686179 0.
0.692437 0.00683933 0.
0.694517 0.00681682 0.
0.69662 0.00675732 0.
0.698725 0.00669572 0.
0.499144 0.00854199 0.
0.501251 0.00861961 0.
0.503354 0.00870196 0.
0.505457 0.00878107 0.
0.507537 0.00880601 0.
0.509617 0.00883069 0.
0.511688 0.00885557 0.
0.513743 0.00888158 0.
0.515798 0.0089077 0.
0.517838 0.00892612 0.
0.519869 0.00893969 0.
0.521901 0.00895329 0.
0.523918 0.0089595 0.
0.525933 0.00896456 0.
0.527947 0.0089695 0.
0.529956 0.00897315 0.
0.531966 0.00897681 0.
0.533973 0.00898012 0.
0.535978 0.00898271 0.
0.537983 0.0089853 0.
0.539987 0.00898707 0.
0.541989 0.00898817 0.
0.543991 0.00898927 0.
0.545992 0.00898975 0.
0.547993 0.00899005 0.
0.549994 0.00899035 0.
0.551994 0.00898995 0.
0.553993 0.00898955 0.
0.555993 0.00898929 0.
0.557994 0.00898955 0.
0.559994 0.00898981 0.
0.561994 0.00898994 0.
0.563995 0.00898992 0.
0.565995 0.00898989 0.
0.567996 0.00898969 0.
0.569996 0.00898939 0.
0.571996 0.00898909 0.
0.573996 0.00898877 0.
0.575996 0.00898845 0.
0.577996 0.00898818 0.
0.579997 0.00898834 0.
0.581997 0.00898851 0.
0.583998 0.00898863 0.
0.585998 0.00898864 0.
0.587998 0.00898865 0.
0.589999 0.00898857 0.
0.591999 0.00898843 0.
0.594 0.00898829 0.
0.596 0.00898811 0.
0.598 0.00898792 0.
0.6 0.00898772 0.
0.602001 0.0089879 0.
0.604001 0.00898808 0.
0.606001 0.00898825 0.
0.608001 0.0089884 0.
0.610001 0.00898855 0.
0.612002 0.00898863 0.
0.614002 0.00898862 0.
0.616003 0.00898861 0.
0.618003 0.00898851 0.
0.620004 0.00898837 0.
0.622004 0.00898823 0.
0.624004 0.00898854 0.
0.626004 0.0089889 0.
0.628004 0.00898926 0.
0.630004 0.0089896 0.
0.632005 0.00898994 0.
0.634005 0.00899016 0.
0.636005 0.00899016 0.
0.638006 0.00899015 0.
0.640006 0.00898996 0.
0.642007 0.00898961 0.
0.644007 0.00898927 0.
0.646007 0.00898946 0.
0.648007 0.00898981 0.
0.650007 0.00899016 0.
0.652008 0.00898967 0.
0.654009 0.00898917 0.
0.656011 0.00898845 0.
0.658013 0.00898695 0.
0.660016 0.00898545 0.
0.66202 0.00898312 0.
0.664027 0.0089798 0.
0.666033 0.00897647 0.
0.668043 0.00897266 0.
0.670055 0.00896861 0.
0.672067 0.00896455 0.
0.674085 0.00895811 0.
0.676104 0.00895143 0.
0.678126 0.00894311 0.
0.680166 0.0089249 0.
0.682205 0.00890674 0.
0.684254 0.00888381 0.
0.686319 0.00885371 0.
0.688383 0.00882375 0.
0.690463 0.00879283 0.
0.692552 0.00876123 0.
0.69464 0.00872898 0.
0.696748 0.00866128 0.
0.698856 0.00859236 0.
0.499037 0.0104335 0.
0.501148 0.0105176 0.
0.503255 0.0106096 0.
0.505362 0.0106987 0.
0.507448 0.0107325 0.
0.509533 0.0107653 0.
0.511611 0.0107981 0.
0.513673 0.0108315 0.
0.515735 0.010865 0.
0.517784 0.0108902 0.
0.519823 0.0109097 0.
0.521863 0.0109292 0.
0.523885 0.0109392 0.
0.525905 0.0109476 0.
0.527925 0.0109557 0.
0.529937 0.0109608 0.
0.53195 0.010966 0.
0.533961 0.0109707 0.
0.535968 0.0109747 0.
0.537975 0.0109786 0.
0.53998 0.0109814 0.
0.541983 0.0109833 0.
0.543987 0.0109851 0.
0.545989 0.0109861 0.
0.54799 0.0109868 0.
0.549991 0.0109875 0.
0.551991 0.0109872 0.
0.553991 0.0109869 0.
0.555992 0.0109867 0.
0.557992 0.010987 0.
0.559993 0.0109873 0.
0.561993 0.0109875 0.
0.563994 0.0109874 0.
0.565994 0.0109874 0.
0.567995 0.0109872 0.
0.569995 0.0109868 0.
0.571996 0.0109865 0.
0.573996 0.0109861 0.
0.575995 0.0109858 0.
0.577995 0.0109854 0.
0.579996 0.0109856 0.
0.581996 0.0109858 0.
0.583997 0.0109859 0.
0.585998 0.0109859 0.
0.587998 0.0109859 0.
0.589999 0.0109858 0.
0.591999 0.0109857 0.
0.594 0.0109855 0.
0.596 0.0109853 0.
0.598 0.0109851 0.
0.6 0.010985 0.
0.602001 0.0109851 0.
0.604001 0.0109853 0.
0.606001 0.0109855 0.
0.608001 0.0109856 0.
0.610002 0.0109858 0.
0.612002 0.0109859 0.
0.614003 0.0109859 0.
0.616003 0.0109859 0.
0.618004 0.0109858 0.
0.620004 0.0109857 0.
0.622005 0.0109855 0.
0.624005 0.0109859 0.
0.626005 0.0109863 0.
0.628005 0.0109867 0.
0.630005 0.010987 0.
0.632006 0.0109874 0.
0.634006 0.0109877 0.
0.636007 0.0109877 0.
0.638007 0.0109877 0.
0.640008 0.0109875 0.
0.642008 0.010987 0.
0.644009 0.0109866 0.
0.646009 0.0109867 0.
0.648009 0.0109869 0.
0.65001 0.0109871 0.
0.652012 0.0109861 0.
0.654013 0.0109851 0.
0.656016 0.0109837 0.
0.65802 0.0109813 0.
0.660024 0.0109788 0.
0.662031 0.0109752 0.
0.66404 0.0109702 0.
0.666049 0.0109651 0.
0.668063 0.0109596 0.
0.670078 0.0109539 0.
0.672094 0.0109482 0.
0.674118 0.0109379 0.
0.676143 0.0109272 0.
0.678171 0.0109141 0.
0.680219 0.0108888 0.
0.682267 0.0108637 0.
0.684324 0.0108334 0.
0.686395 0.0107959 0.
0.688465 0.0107585 0.
0.690552 0.0107187 0.
0.692646 0.010678 0.
0.69474 0.0106361 0.
0.696851 0.0105627 0.
0.698962 0.0104884 0.
0.498972 0.012327 0.
0.501082 0.0124132 0.
0.503189 0.0125103 0.
0.505296 0.012605 0.
0.507384 0.012649 0.
0.50947 0.0126916 0.
0.511551 0.0127334 0.
0.513615 0.0127731 0.
0.51568 0.0128129 0.
0.517733 0.0128452 0.
0.519778 0.012872 0.
0.521823 0.0128989 0.
0.523851 0.0129138 0.
0.525875 0.0129265 0.
0.527899 0.0129386 0.
0.529915 0.0129455 0.
0.531931 0.0129524 0.
0.533944 0.0129589 0.
0.535954 0.0129645 0.
0.537964 0.0129702 0.
0.539971 0.0129744 0.
0.541976 0.0129773 0.
0.543981 0.0129801 0.
0.545984 0.0129818 0.
0.547986 0.0129831 0.
0.549988 0.0129845 0.
0.551989 0.0129844 0.
0.553989 0.0129844 0.
0.55599 0.0129845 0.
0.557991 0.0129848 0.
0.559991 0.0129851 0.
0.561992 0.0129853 0.
0.563993 0.0129852 0.
0.565993 0.0129852 0.
0.567994 0.0129849 0.
0.569994 0.0129846 0.
0.571995 0.0129843 0.
0.573995 0.0129839 0.
0.575995 0.0129835 0.
0.577995 0.0129832 0.
0.579995 0.0129833 0.
0.581996 0.0129834 0.
0.583997 0.0129835 0.
0.585997 0.0129835 0.
0.587998 0.0129835 0.
0.589998 0.0129834 0.
0.591999 0.0129833 0.
0.594 0.0129832 0.
0.596 0.012983 0.
0.598 0.0129829 0.
0.6 0.0129828 0.
0.602001 0.0129829 0.
0.604001 0.0129831 0.
0.606001 0.0129832 0.
0.608001 0.0129833 0.
0.610002 0.0129835 0.
0.612003 0.0129835 0.
0.614003 0.0129835 0.
0.616004 0.0129835 0.
0.618004 0.0129835 0.
0.620005 0.0129834 0.
0.622005 0.0129833 0.
0.624005 0.0129836 0.
0.626005 0.0129841 0.
0.628005 0.0129845 0.
0.630006 0.0129848 0.
0.632006 0.0129852 0.
0.634007 0.0129854 0.
0.636008 0.0129855 0.
0.638008 0.0129855 0.
0.640009 0.0129852 0.
0.64201 0.0129847 0.
0.644011 0.0129841 0.
0.646012 0.0129839 0.
0.648013 0.0129838 0.
0.650013 0.0129837 0.
0.652016 0.0129819 0.
0.654019 0.0129801 0.
0.656023 0.0129779 0.
0.658029 0.0129742 0.
0.660035 0.0129705 0.
0.662044 0.0129652 0.
0.664056 0.012958 0.
0.666068 0.0129507 0.
0.668085 0.0129432 0.
0.670105 0.0129355 0.
0.672124 0.0129278 0.
0.674153 0.0129127 0.
0.676182 0.012897 0.
0.678216 0.0128782 0.
0.680269 0.0128444 0.
0.682322 0.0128108 0.
0.684384 0.012773 0.
0.686456 0.0127297 0.
0.688528 0.0126865 0.
0.690616 0.0126378 0.
0.692711 0.0125873 0.
0.694807 0.0125358 0.
0.696917 0.0124598 0.
0.699027 0.0123832 0.
0.498907 0.0142206 0.
0.501016 0.0143085 0.
0.503123 0.0144108 0.
0.50523 0.0145111 0.
0.507319 0.0145651 0.
0.509407 0.0146176 0.
0.51149 0.0146686 0.
0.513557 0.0147145 0.
0.515624 0.0147607 0.
0.517682 0.0148 0.
0.519733 0.0148341 0.
0.521784 0.0148684 0.
0.523816 0.0148883 0.
0.525845 0.0149053 0.
0.527873 0.0149216 0.
0.529892 0.0149302 0.
0.531911 0.0149388 0.
0.533928 0.014947 0.
0.535941 0.0149544 0.
0.537953 0.0149618 0.
0.539962 0.0149673 0.
0.541969 0.0149712 0.
0.543975 0.0149751 0.
0.545979 0.0149775 0.
0.547982 0.0149795 0.
0.549986 0.0149814 0.
0.551987 0.0149817 0.
0.553987 0.0149819 0.
0.555988 0.0149822 0.
0.557989 0.0149826 0.
0.55999 0.0149829 0.
0.561991 0.0149831 0.
0.563992 0.0149831 0.
0.565993 0.014983 0.
0.567993 0.0149827 0.
0.569994 0.0149824 0.
0.571995 0.0149821 0.
0.573994 0.0149817 0.
0.575994 0.0149813 0.
0.577994 0.0149809 0.
0.579995 0.014981 0.
0.581996 0.014981 0.
0.583996 0.0149811 0.
0.585997 0.0149811 0.
0.587998 0.0149811 0.
0.589998 0.014981 0.
0.591999 0.0149809 0.
0.593999 0.0149809 0.
0.596 0.0149808 0.
0.598 0.0149807 0.
0.6 0.0149806 0.
0.602001 0.0149807 0.
0.604001 0.0149808 0.
0.606001 0.0149809 0.
0.608002 0.014981 0.
0.610002 0.0149811 0.
0.612003 0.0149812 0.
0.614004 0.0149812 0.
0.616004 0.0149812 0.
0.618005 0.0149811 0.
0.620005 0.0149811 0.
0.622006 0.0149811 0.
0.624006 0.0149814 0.
0.626006 0.0149818 0.
0.628006 0.0149823 0.
0.630007 0.0149826 0.
0.632007 0.014983 0.
0.634008 0.0149832 0.
0.636009 0.0149832 0.
0.63801 0.0149833 0.
0.640011 0.0149829 0.
0.642012 0.0149823 0.
0.644013 0.0149817 0.
0.646014 0.0149812 0.
0.648016 0.0149808 0.
0.650017 0.0149803 0.
0.652021 0.0149777 0.
0.654025 0.0149751 0.
0.65603 0.014972 0.
0.658038 0.014967 0.
0.660046 0.0149621 0.
0.662057 0.0149551 0.
0.664072 0.0149457 0.
0.666087 0.0149364 0.
0.668108 0.0149268 0.
0.670131 0.0149171 0.
0.672155 0.0149074 0.
0.674188 0.0148875 0.
0.676222 0.0148668 0.
0.67826 0.014842 0.
0.680319 0.0147997 0.
0.682378 0.0147576 0.
0.684443 0.0147125 0.
0.686517 0.0146633 0.
0.688591 0.0146142 0.
0.690681 0.0145564 0.
0.692777 0.0144963 0.
0.694873 0.0144354 0.
0.696983 0.0143569 0.
0.699092 0.0142779 0.
0.498889 0.0161347 0.
0.500989 0.0162212 0.
0.503087 0.0163241 0.
0.505185 0.0164251 0.
0.50727 0.0164854 0.
0.509354 0.0165441 0.
0.511433 0.0166009 0.
0.513501 0.0166501 0.
0.515568 0.0166994 0.
0.517628 0.0167435 0.
0.519681 0.0167834 0.
0.521735 0.0168234 0.
0.523773 0.0168496 0.
0.525806 0.0168727 0.
0.527839 0.0168951 0.
0.529862 0.0169056 0.
0.531884 0.0169162 0.
0.533904 0.0169265 0.
0.53592 0.0169364 0.
0.537935 0.0169464 0.
0.539947 0.016954 0.
0.541956 0.0169598 0.
0.543965 0.0169655 0.
0.54597 0.0169692 0.
0.547975 0.0169724 0.
0.54998 0.0169755 0.
0.551981 0.0169763 0.
0.553983 0.0169771 0.
0.555985 0.0169779 0.
0.557986 0.0169786 0.
0.559988 0.0169793 0.
0.561989 0.0169797 0.
0.56399 0.0169797 0.
0.565991 0.0169797 0.
0.567992 0.0169795 0.
0.569993 0.0169792 0.
0.571994 0.0169789 0.
0.573994 0.0169784 0.
0.575994 0.016978 0.
0.577994 0.0169776 0.
0.579994 0.0169776 0.
0.581995 0.0169777 0.
0.583996 0.0169778 0.
0.585997 0.0169777 0.
0.587997 0.0169777 0.
0.589998 0.0169777 0.
0.591999 0.0169776 0.
0.593999 0.0169776 0.
0.596 0.0169775 0.
0.598 0.0169774 0.
0.6 0.0169773 0.
0.602001 0.0169774 0.
0.604001 0.0169776 0.
0.606001 0.0169777 0.
0.608002 0.0169777 0.
0.610003 0.0169778 0.
0.612003 0.0169779 0.
0.614004 0.0169779 0.
0.616005 0.0169779 0.
0.618005 0.0169779 0.
0.620006 0.0169778 0.
0.622007 0.0169778 0.
0.624007 0.0169782 0.
0.626007 0.0169786 0.
0.628007 0.016979 0.
0.630008 0.0169793 0.
0.632009 0.0169796 0.
0.63401 0.0169798 0.
0.636011 0.0169797 0.
0.638012 0.0169796 0.
0.640014 0.016979 0.
0.642015 0.016978 0.
0.644017 0.016977 0.
0.64602 0.0169759 0.
0.648022 0.0169747 0.
0.650024 0.0169736 0.
0.65203 0.0169695 0.
0.654036 0.0169655 0.
0.656042 0.0169607 0.
0.658053 0.0169536 0.
0.660064 0.0169465 0.
0.662078 0.016937 0.
0.664097 0.0169249 0.
0.666115 0.0169128 0.
0.668138 0.0169011 0.
0.670164 0.0168895 0.
0.67219 0.016878 0.
0.67423 0.0168503 0.
0.67627 0.0168218 0.
0.678314 0.0167896 0.
0.680374 0.0167427 0.
0.682434 0.016696 0.
0.6845 0.0166467 0.
0.686573 0.0165943 0.
0.688645 0.0165419 0.
0.690731 0.0164788 0.
0.69282 0.0164133 0.
0.694911 0.0163472 0.
0.697011 0.0162684 0.
0.699112 0.0161892 0.
0.498881 0.0180534 0.
0.500969 0.0181372 0.
0.503056 0.0182394 0.
0.505143 0.0183401 0.
0.507222 0.0184059 0.
0.509301 0.0184702 0.
0.511377 0.0185325 0.
0.513444 0.0185848 0.
0.515511 0.0186372 0.
0.517573 0.018686 0.
0.519629 0.0187317 0.
0.521686 0.0187775 0.
0.523728 0.0188103 0.
0.525767 0.0188397 0.
0.527805 0.0188684 0.
0.529831 0.0188809 0.
0.531857 0.0188935 0.
0.53388 0.0189059 0.
0.535899 0.0189184 0.
0.537918 0.0189308 0.
0.539932 0.0189406 0.
0.541943 0.0189482 0.
0.543954 0.0189558 0.
0.545962 0.0189609 0.
0.547968 0.0189653 0.
0.549974 0.0189696 0.
0.551976 0.018971 0.
0.553979 0.0189724 0.
0.555981 0.0189736 0.
0.557983 0.0189746 0.
0.559985 0.0189756 0.
0.561987 0.0189762 0.
0.563988 0.0189763 0.
0.56599 0.0189764 0.
0.567991 0.0189762 0.
0.569992 0.0189759 0.
0.571993 0.0189756 0.
0.573993 0.0189752 0.
0.575993 0.0189747 0.
0.577993 0.0189743 0.
0.579994 0.0189743 0.
0.581995 0.0189744 0.
0.583995 0.0189744 0.
0.585996 0.0189744 0.
0.587997 0.0189744 0.
0.589998 0.0189744 0.
0.591999 0.0189743 0.
0.593999 0.0189743 0.
0.596 0.0189742 0.
0.598 0.0189741 0.
0.6 0.018974 0.
0.602001 0.0189741 0.
0.604001 0.0189743 0.
0.606001 0.0189744 0.
0.608002 0.0189745 0.
0.610003 0.0189745 0.
0.612004 0.0189746 0.
0.614004 0.0189746 0.
0.616005 0.0189747 0.
0.618006 0.0189746 0.
0.620007 0.0189746 0.
0.622007 0.0189745 0.
0.624008 0.0189749 0.
0.626008 0.0189753 0.
0.628008 0.0189757 0.
0.630009 0.018976 0.
0.63201 0.0189763 0.
0.634011 0.0189764 0.
0.636013 0.0189762 0.
0.638014 0.0189759 0.
0.640017 0.018975 0.
0.642019 0.0189737 0.
0.644022 0.0189723 0.
0.646025 0.0189705 0.
0.648028 0.0189687 0.
0.650032 0.0189668 0.
0.652039 0.0189613 0.
0.654046 0.0189558 0.
0.656055 0.0189494 0.
0.658069 0.0189401 0.
0.660082 0.0189307 0.
0.662099 0.0189188 0.
0.664121 0.0189039 0.
0.666143 0.018889 0.
0.668169 0.0188753 0.
0.670197 0.0188618 0.
0.672226 0.0188484 0.
0.674272 0.0188125 0.
0.676318 0.0187758 0.
0.678368 0.0187361 0.
0.680429 0.0186847 0.
0.682491 0.0186334 0.
0.684557 0.0185802 0.
0.686628 0.0185247 0.
0.6887 0.0184693 0.
0.690779 0.0184013 0.
0.692861 0.0183311 0.
0.694944 0.0182609 0.
0.697034 0.0181824 0.
0.699123 0.0181038 0.
0.498872 0.0199785 0.
0.500949 0.0200594 0.
0.503027 0.0201602 0.
0.505105 0.0202595 0.
0.507181 0.0203298 0.
0.509255 0.0203988 0.
0.511328 0.0204654 0.
0.513395 0.0205204 0.
0.515463 0.0205754 0.
0.517526 0.0206279 0.
0.519584 0.0206783 0.
0.521643 0.0207288 0.
0.523689 0.0207678 0.
0.525732 0.0208039 0.
0.527774 0.0208392 0.
0.529802 0.0208539 0.
0.531831 0.0208685 0.
0.533856 0.0208831 0.
0.535878 0.0208981 0.
0.537899 0.0209131 0.
0.539916 0.0209252 0.
0.541929 0.0209348 0.
0.543942 0.0209444 0.
0.545951 0.0209511 0.
0.547959 0.0209569 0.
0.549966 0.0209627 0.
0.55197 0.0209648 0.
0.553973 0.0209669 0.
0.555977 0.0209689 0.
0.55798 0.0209702 0.
0.559982 0.0209716 0.
0.561985 0.0209725 0.
0.563986 0.0209728 0.
0.565988 0.0209731 0.
0.567989 0.0209731 0.
0.569991 0.0209729 0.
0.571992 0.0209727 0.
0.573992 0.0209722 0.
0.575992 0.0209717 0.
0.577992 0.0209713 0.
0.579993 0.0209714 0.
0.581994 0.0209714 0.
0.583995 0.0209715 0.
0.585996 0.0209714 0.
0.587997 0.0209714 0.
0.589998 0.0209714 0.
0.591998 0.0209714 0.
0.593999 0.0209715 0.
0.596 0.0209714 0.
0.598 0.0209713 0.
0.6 0.0209712 0.
0.602001 0.0209714 0.
0.604001 0.0209715 0.
0.606001 0.0209716 0.
0.608002 0.0209716 0.
0.610003 0.0209716 0.
0.612004 0.0209716 0.
0.614005 0.0209717 0.
0.616005 0.0209717 0.
0.618006 0.0209717 0.
0.620007 0.0209716 0.
0.622008 0.0209716 0.
0.624008 0.0209719 0.
0.626009 0.0209723 0.
0.628009 0.0209727 0.
0.63001 0.0209728 0.
0.632012 0.0209729 0.
0.634013 0.0209728 0.
0.636015 0.0209724 0.
0.638017 0.0209719 0.
0.64002 0.0209706 0.
0.642024 0.0209687 0.
0.644027 0.0209669 0.
0.646031 0.0209643 0.
0.648036 0.0209616 0.
0.65004 0.0209588 0.
0.652049 0.0209516 0.
0.654059 0.0209444 0.
0.656069 0.0209361 0.
0.658085 0.0209245 0.
0.660101 0.0209129 0.
0.662121 0.0208985 0.
0.664145 0.0208809 0.
0.666169 0.0208634 0.
0.668198 0.020847 0.
0.670229 0.0208309 0.
0.67226 0.0208148 0.
0.67431 0.0207713 0.
0.676361 0.0207271 0.
0.678414 0.0206808 0.
0.680476 0.0206259 0.
0.682539 0.0205711 0.
0.684605 0.0205148 0.
0.686676 0.0204568 0.
0.688747 0.0203988 0.
0.690822 0.0203269 0.
0.692898 0.0202529 0.
0.694975 0.0201792 0.
0.697055 0.020102 0.
0.699135 0.0200246 0.
0.49886 0.0219241 0.
0.500931 0.0219997 0.
0.503005 0.0220947 0.
0.505079 0.0221886 0.
0.507152 0.0222603 0.
0.509224 0.0223309 0.
0.511294 0.0223996 0.
0.513361 0.0224564 0.
0.515427 0.0225133 0.
0.517489 0.0225685 0.
0.519548 0.022622 0.
0.521607 0.0226757 0.
0.523655 0.0227211 0.
0.525701 0.0227644 0.
0.527747 0.022807 0.
0.529776 0.0228239 0.
0.531805 0.0228408 0.
0.533833 0.0228578 0.
0.535856 0.0228754 0.
0.537879 0.022893 0.
0.539898 0.0229075 0.
0.541913 0.0229194 0.
0.543929 0.0229312 0.
0.545939 0.0229398 0.
0.547948 0.0229473 0.
0.549958 0.0229548 0.
0.551962 0.0229578 0.
0.553967 0.0229608 0.
0.555972 0.0229635 0.
0.557975 0.0229654 0.
0.559979 0.0229672 0.
0.561982 0.0229685 0.
0.563984 0.0229691 0.
0.565986 0.0229697 0.
0.567988 0.0229699 0.
0.56999 0.02297 0.
0.571991 0.02297 0.
0.573991 0.0229696 0.
0.575992 0.0229691 0.
0.577992 0.0229688 0.
0.579993 0.0229688 0.
0.581994 0.0229688 0.
0.583995 0.0229688 0.
0.585996 0.0229688 0.
0.587997 0.0229689 0.
0.589998 0.0229689 0.
0.591998 0.022969 0.
0.593999 0.0229691 0.
0.596 0.0229691 0.
0.598 0.0229691 0.
0.6 0.022969 0.
0.602001 0.0229691 0.
0.604001 0.0229692 0.
0.606001 0.0229693 0.
0.608002 0.0229692 0.
0.610003 0.0229692 0.
0.612004 0.0229691 0.
0.614005 0.0229691 0.
0.616006 0.0229691 0.
0.618007 0.0229691 0.
0.620008 0.0229691 0.
0.622009 0.022969 0.
0.624009 0.0229693 0.
0.626009 0.0229696 0.
0.62801 0.0229698 0.
0.630012 0.0229697 0.
0.632013 0.0229695 0.
0.634015 0.0229691 0.
0.636018 0.0229683 0.
0.638021 0.0229674 0.
0.640024 0.0229657 0.
0.642029 0.0229632 0.
0.644033 0.0229608 0.
0.646039 0.0229572 0.
0.648045 0.0229534 0.
0.650051 0.0229494 0.
0.652062 0.0229402 0.
0.654073 0.022931 0.
0.656085 0.0229206 0.
0.658103 0.0229066 0.
0.660121 0.0228926 0.
0.662143 0.0228758 0.
0.664169 0.0228558 0.
0.666195 0.0228358 0.
0.668226 0.0228159 0.
0.670259 0.022796 0.
0.672293 0.022776 0.
0.674344 0.0227255 0.
0.676395 0.0226744 0.
0.678449 0.0226223 0.
0.680512 0.0225654 0.
0.682574 0.0225085 0.
0.68464 0.0224502 0.
0.686709 0.0223905 0.
0.688778 0.0223308 0.
0.690851 0.0222577 0.
0.692924 0.0221828 0.
0.694998 0.0221087 0.
0.697073 0.022036 0.
0.699148 0.0219634 0.
0.498848 0.0238697 0.
0.500914 0.0239399 0.
0.502983 0.0240292 0.
0.505053 0.0241177 0.
0.507123 0.0241907 0.
0.509192 0.0242631 0.
0.51126 0.0243337 0.
0.513326 0.0243925 0.
0.515391 0.0244512 0.
0.517453 0.024509 0.
0.519512 0.0245657 0.
0.521571 0.0246226 0.
0.523621 0.0246743 0.
0.52567 0.0247248 0.
0.527719 0.0247747 0.
0.529749 0.024794 0.
0.53178 0.0248132 0.
0.533809 0.0248325 0.
0.535834 0.0248527 0.
0.537859 0.0248729 0.
0.53988 0.0248898 0.
0.541898 0.0249039 0.
0.543915 0.024918 0.
0.545927 0.0249284 0.
0.547938 0.0249377 0.
0.549949 0.0249469 0.
0.551955 0.0249508 0.
0.553961 0.0249547 0.
0.555967 0.0249582 0.
0.557971 0.0249605 0.
0.559975 0.0249628 0.
0.561979 0.0249645 0.
0.563982 0.0249655 0.
0.565985 0.0249664 0.
0.567987 0.0249668 0.
0.569989 0.0249671 0.
0.57199 0.0249673 0.
0.573991 0.024967 0.
0.575991 0.0249666 0.
0.577992 0.0249662 0.
0.579993 0.0249662 0.
0.581994 0.0249662 0.
0.583995 0.0249662 0.
0.585996 0.0249663 0.
0.587997 0.0249663 0.
0.589998 0.0249664 0.
0.591998 0.0249666 0.
0.593999 0.0249667 0.
0.596 0.0249668 0.
0.598 0.0249668 0.
0.6 0.0249668 0.
0.602001 0.0249669 0.
0.604001 0.0249669 0.
0.606001 0.0249669 0.
0.608002 0.0249668 0.
0.610003 0.0249667 0.
0.612004 0.0249666 0.
0.614005 0.0249666 0.
0.616006 0.0249665 0.
0.618007 0.0249665 0.
0.620008 0.0249665 0.
0.622009 0.0249664 0.
0.62401 0.0249666 0.
0.62601 0.0249669 0.
0.628011 0.024967 0.
0.630013 0.0249665 0.
0.632015 0.0249661 0.
0.634017 0.0249653 0.
0.636021 0.0249641 0.
0.638024 0.024963 0.
0.640029 0.0249607 0.
0.642034 0.0249577 0.
0.644039 0.0249547 0.
0.646046 0.0249501 0.
0.648053 0.0249452 0.
0.650061 0.0249401 0.
0.652074 0.0249288 0.
0.654087 0.0249176 0.
0.656101 0.0249051 0.
0.658121 0.0248887 0.
0.660141 0.0248724 0.
0.662165 0.0248531 0.
0.664192 0.0248306 0.
0.66622 0.0248081 0.
0.668254 0.0247847 0.
0.670289 0.024761 0.
0.672325 0.0247371 0.
0.674377 0.0246796 0.
0.67643 0.0246216 0.
0.678485 0.0245639 0.
0.680547 0.0245049 0.
0.682609 0.024446 0.
0.684674 0.0243856 0.
0.686742 0.0243242 0.
0.68881 0.0242628 0.
0.69088 0.0241884 0.
0.69295 0.0241127 0.
0.695021 0.0240382 0.
0.697091 0.02397 0.
0.69916 0.0239022 0.
0.498864 0.0258271 0.
0.500922 0.0258925 0.
0.502985 0.0259759 0.
0.505048 0.0260586 0.
0.507112 0.0261311 0.
0.509176 0.0262033 0.
0.51124 0.0262739 0.
0.513302 0.0263336 0.
0.515364 0.0263933 0.
0.517424 0.0264525 0.
0.519481 0.026511 0.
0.521537 0.0265695 0.
0.523588 0.0266247 0.
0.525636 0.0266793 0.
0.527684 0.0267333 0.
0.529718 0.0267567 0.
0.531751 0.0267799 0.
0.533783 0.0268028 0.
0.535809 0.0268251 0.
0.537836 0.0268474 0.
0.539859 0.0268665 0.
0.541878 0.0268828 0.
0.543897 0.0268991 0.
0.545912 0.0269116 0.
0.547925 0.0269228 0.
0.549937 0.026934 0.
0.551945 0.0269395 0.
0.553952 0.0269449 0.
0.55596 0.0269498 0.
0.557965 0.0269529 0.
0.55997 0.026956 0.
0.561975 0.0269584 0.
0.563978 0.0269598 0.
0.565982 0.0269612 0.
0.567984 0.026962 0.
0.569986 0.0269626 0.
0.571989 0.0269631 0.
0.573989 0.0269629 0.
0.57599 0.0269626 0.
0.577991 0.0269624 0.
0.579992 0.0269625 0.
0.581993 0.0269626 0.
0.583994 0.0269627 0.
0.585995 0.0269628 0.
0.587996 0.0269629 0.
0.589997 0.0269631 0.
0.591998 0.0269633 0.
0.593999 0.0269635 0.
0.596 0.0269636 0.
0.598 0.0269636 0.
0.6 0.0269637 0.
0.602001 0.0269637 0.
0.604001 0.0269637 0.
0.606002 0.0269637 0.
0.608002 0.0269635 0.
0.610003 0.0269633 0.
0.612004 0.0269632 0.
0.614005 0.0269631 0.
0.616007 0.026963 0.
0.618008 0.0269629 0.
0.620009 0.0269627 0.
0.62201 0.0269626 0.
0.624011 0.0269626 0.
0.626012 0.0269627 0.
0.628013 0.0269626 0.
0.630015 0.0269617 0.
0.632018 0.0269608 0.
0.634021 0.0269596 0.
0.636025 0.0269578 0.
0.638029 0.026956 0.
0.640035 0.026953 0.
0.642041 0.0269491 0.
0.644047 0.0269452 0.
0.646056 0.026939 0.
0.648065 0.0269322 0.
0.650074 0.0269253 0.
0.652089 0.0269119 0.
0.654104 0.0268986 0.
0.656121 0.026884 0.
0.658143 0.0268653 0.
0.660165 0.0268466 0.
0.66219 0.0268249 0.
0.664219 0.0268002 0.
0.666249 0.0267754 0.
0.668285 0.026748 0.
0.670323 0.0267198 0.
0.672361 0.0266911 0.
0.674412 0.0266305 0.
0.676463 0.0265694 0.
0.678516 0.0265089 0.
0.680576 0.0264483 0.
0.682635 0.0263877 0.
0.684697 0.0263262 0.
0.686761 0.0262642 0.
0.688825 0.0262022 0.
0.69089 0.0261287 0.
0.692954 0.026054 0.
0.695019 0.0259808 0.
0.697081 0.0259186 0.
0.699143 0.0258569 0.
0.498892 0.0277903 0.
0.500942 0.0278506 0.
0.502996 0.0279272 0.
0.505049 0.0280034 0.
0.507107 0.0280743 0.
0.509165 0.0281453 0.
0.511223 0.0282151 0.
0.513281 0.0282755 0.
0.515339 0.0283358 0.
0.517396 0.0283962 0.
0.51945 0.0284562 0.
0.521505 0.0285163 0.
0.523554 0.0285747 0.
0.525602 0.028633 0.
0.527649 0.0286908 0.
0.529686 0.0287187 0.
0.531722 0.0287462 0.
0.533757 0.028773 0.
0.535785 0.0287973 0.
0.537813 0.0288217 0.
0.539837 0.0288431 0.
0.541859 0.0288616 0.
0.54388 0.0288801 0.
0.545896 0.0288946 0.
0.547911 0.0289078 0.
0.549926 0.0289211 0.
0.551935 0.0289281 0.
0.553944 0.028935 0.
0.555952 0.0289413 0.
0.557959 0.0289453 0.
0.559965 0.0289492 0.
0.56197 0.0289523 0.
0.563974 0.0289541 0.
0.565979 0.028956 0.
0.567982 0.0289572 0.
0.569984 0.028958 0.
0.571987 0.0289589 0.
0.573988 0.0289588 0.
0.575989 0.0289587 0.
0.57799 0.0289586 0.
0.579991 0.0289588 0.
0.581992 0.028959 0.
0.583994 0.0289592 0.
0.585995 0.0289593 0.
0.587996 0.0289595 0.
0.589997 0.0289597 0.
0.591998 0.02896 0.
0.593999 0.0289602 0.
0.596 0.0289604 0.
0.598 0.0289604 0.
0.6 0.0289605 0.
0.602001 0.0289605 0.
0.604001 0.0289605 0.
0.606002 0.0289605 0.
0.608003 0.0289602 0.
0.610004 0.02896 0.
0.612005 0.0289598 0.
0.614006 0.0289596 0.
0.616007 0.0289595 0.
0.618009 0.0289593 0.
0.62001 0.028959 0.
0.622012 0.0289587 0.
0.624013 0.0289586 0.
0.626014 0.0289584 0.
0.628015 0.0289582 0.
0.630018 0.0289569 0.
0.632021 0.0289556 0.
0.634025 0.0289539 0.
0.63603 0.0289515 0.
0.638034 0.0289491 0.
0.640041 0.0289453 0.
0.642048 0.0289404 0.
0.644056 0.0289356 0.
0.646066 0.0289277 0.
0.648077 0.0289191 0.
0.650087 0.0289103 0.
0.652104 0.0288949 0.
0.654121 0.0288795 0.
0.65614 0.0288626 0.
0.658164 0.0288416 0.
0.660188 0.0288206 0.
0.662216 0.0287965 0.
0.664247 0.0287695 0.
0.666278 0.0287424 0.
0.668316 0.0287108 0.
0.670356 0.0286778 0.
0.672397 0.0286443 0.
0.674447 0.028581 0.
0.676496 0.0285173 0.
0.678548 0.0284543 0.
0.680604 0.0283921 0.
0.68266 0.0283299 0.
0.684718 0.0282675 0.
0.686777 0.0282053 0.
0.688836 0.028143 0.
0.690894 0.0280714 0.
0.692952 0.027999 0.
0.695009 0.0279283 0.
0.697061 0.0278734 0.
0.699112 0.0278193 0.
0.498918 0.0297555 0.
0.500959 0.0298108 0.
0.503004 0.029881 0.
0.505049 0.029951 0.
0.507101 0.0300204 0.
0.509154 0.0300901 0.
0.511207 0.030159 0.
0.513262 0.0302199 0.
0.515318 0.0302808 0.
0.517371 0.030342 0.
0.519424 0.0304034 0.
0.521476 0.0304649 0.
0.523525 0.0305259 0.
0.525572 0.0305871 0.
0.527619 0.0306478 0.
0.529657 0.03068 0.
0.531696 0.0307117 0.
0.533732 0.0307422 0.
0.535761 0.0307685 0.
0.537791 0.0307949 0.
0.539817 0.0308184 0.
0.54184 0.030839 0.
0.543863 0.0308597 0.
0.545881 0.0308763 0.
0.547898 0.0308916 0.
0.549914 0.0309068 0.
0.551924 0.0309156 0.
0.553935 0.0309242 0.
0.555944 0.030932 0.
0.557952 0.0309369 0.
0.559959 0.0309417 0.
0.561966 0.0309455 0.
0.56397 0.030948 0.
0.565975 0.0309505 0.
0.567979 0.0309521 0.
0.569982 0.0309534 0.
0.571985 0.0309546 0.
0.573986 0.0309549 0.
0.575987 0.030955 0.
0.577989 0.0309551 0.
0.57999 0.0309554 0.
0.581992 0.0309557 0.
0.583993 0.030956 0.
0.585994 0.0309562 0.
0.587996 0.0309564 0.
0.589997 0.0309567 0.
0.591998 0.030957 0.
0.593999 0.0309574 0.
0.596 0.0309576 0.
0.598 0.0309577 0.
0.6 0.0309579 0.
0.602001 0.0309578 0.
0.604001 0.0309578 0.
0.606002 0.0309576 0.
0.608003 0.0309573 0.
0.610004 0.0309569 0.
0.612005 0.0309566 0.
0.614006 0.0309564 0.
0.616008 0.0309562 0.
0.618009 0.0309559 0.
0.620011 0.0309555 0.
0.622013 0.0309551 0.
0.624014 0.0309546 0.
0.626016 0.0309542 0.
0.628017 0.0309536 0.
0.630021 0.0309518 0.
0.632024 0.03095 0.
0.634029 0.0309478 0.
0.636034 0.0309446 0.
0.63804 0.0309414 0.
0.640048 0.0309367 0.
0.642056 0.0309309 0.
0.644065 0.030925 0.
0.646076 0.0309154 0.
0.648088 0.0309048 0.
0.650101 0.0308941 0.
0.652119 0.0308765 0.
0.654138 0.030859 0.
0.656159 0.0308399 0.
0.658184 0.0308166 0.
0.66021 0.0307933 0.
0.662239 0.030767 0.
0.664272 0.0307378 0.
0.666304 0.0307086 0.
0.668344 0.0306731 0.
0.670386 0.0306358 0.
0.672428 0.0305979 0.
0.674476 0.0305326 0.
0.676525 0.0304668 0.
0.678575 0.0304019 0.
0.680628 0.0303383 0.
0.682681 0.0302748 0.
0.684736 0.0302116 0.
0.686791 0.0301491 0.
0.688847 0.0300867 0.
0.690899 0.030017 0.
0.69295 0.0299469 0.
0.695 0.0298787 0.
0.697043 0.0298306 0.
0.699085 0.0297835 0.
0.498924 0.0317303 0.
0.500963 0.0317808 0.
0.503005 0.0318447 0.
0.505047 0.0319087 0.
0.507096 0.0319753 0.
0.509146 0.0320423 0.
0.511197 0.0321088 0.
0.513249 0.0321695 0.
0.515302 0.0322302 0.
0.517354 0.0322919 0.
0.519405 0.0323541 0.
0.521456 0.0324164 0.
0.523503 0.0324787 0.
0.525549 0.0325415 0.
0.527596 0.0326037 0.
0.529635 0.03264 0.
0.531673 0.0326757 0.
0.53371 0.0327099 0.
0.535741 0.0327382 0.
0.537771 0.0327666 0.
0.539799 0.0327922 0.
0.541823 0.0328149 0.
0.543847 0.0328377 0.
0.545866 0.0328564 0.
0.547884 0.0328738 0.
0.549902 0.0328911 0.
0.551914 0.0329018 0.
0.553925 0.0329123 0.
0.555936 0.0329219 0.
0.557945 0.0329277 0.
0.559953 0.0329334 0.
0.56196 0.0329381 0.
0.563966 0.0329413 0.
0.565971 0.0329445 0.
0.567976 0.0329468 0.
0.569979 0.0329486 0.
0.571983 0.0329504 0.
0.573985 0.032951 0.
0.575986 0.0329514 0.
0.577988 0.0329519 0.
0.579989 0.0329522 0.
0.581991 0.0329526 0.
0.583993 0.032953 0.
0.585994 0.0329533 0.
0.587995 0.0329536 0.
0.589997 0.032954 0.
0.591998 0.0329544 0.
0.593999 0.0329549 0.
0.595999 0.0329552 0.
0.598 0.0329555 0.
0.6 0.0329557 0.
0.602001 0.0329556 0.
0.604001 0.0329554 0.
0.606002 0.0329552 0.
0.608003 0.0329547 0.
0.610004 0.0329542 0.
0.612005 0.0329538 0.
0.614007 0.0329534 0.
0.616008 0.0329531 0.
0.61801 0.0329526 0.
0.620012 0.0329521 0.
0.622014 0.0329516 0.
0.624016 0.0329508 0.
0.626018 0.03295 0.
0.62802 0.032949 0.
0.630024 0.0329465 0.
0.632028 0.0329441 0.
0.634033 0.0329411 0.
0.63604 0.032937 0.
0.638046 0.0329329 0.
0.640055 0.0329272 0.
0.642065 0.0329203 0.
0.644074 0.0329134 0.
0.646087 0.032902 0.
0.6481 0.0328893 0.
0.650114 0.0328765 0.
0.652134 0.0328566 0.
0.654154 0.0328368 0.
0.656176 0.0328155 0.
0.658203 0.0327899 0.
0.66023 0.0327643 0.
0.66226 0.0327358 0.
0.664294 0.0327046 0.
0.666328 0.0326735 0.
0.668367 0.0326344 0.
0.670408 0.0325934 0.
0.67245 0.0325517 0.
0.674498 0.0324855 0.
0.676545 0.0324188 0.
0.678594 0.0323531 0.
0.680645 0.0322891 0.
0.682696 0.032225 0.
0.684749 0.0321618 0.
0.686801 0.0320997 0.
0.688854 0.0320376 0.
0.690903 0.0319711 0.
0.692951 0.0319045 0.
0.694998 0.0318398 0.
0.697038 0.0317974 0.
0.699078 0.0317561 0.
0.49893 0.0337052 0.
0.500966 0.0337508 0.
0.503005 0.0338084 0.
0.505045 0.0338664 0.
0.507091 0.0339303 0.
0.509138 0.0339946 0.
0.511186 0.0340586 0.
0.513236 0.0341192 0.
0.515287 0.0341797 0.
0.517337 0.0342417 0.
0.519386 0.0343047 0.
0.521435 0.0343679 0.
0.523482 0.0344315 0.
0.525527 0.0344958 0.
0.527573 0.0345596 0.
0.529612 0.0345999 0.
0.531651 0.0346397 0.
0.533688 0.0346775 0.
0.53572 0.0347079 0.
0.537751 0.0347382 0.
0.53978 0.0347659 0.
0.541805 0.0347908 0.
0.543831 0.0348157 0.
0.545852 0.0348366 0.
0.547871 0.034856 0.
0.54989 0.0348754 0.
0.551903 0.034888 0.
0.553916 0.0349004 0.
0.555928 0.0349117 0.
0.557937 0.0349184 0.
0.559947 0.0349251 0.
0.561955 0.0349307 0.
0.563961 0.0349346 0.
0.565968 0.0349386 0.
0.567973 0.0349415 0.
0.569977 0.0349438 0.
0.571981 0.0349462 0.
0.573983 0.0349471 0.
0.575985 0.0349479 0.
0.577987 0.0349486 0.
0.579989 0.0349491 0.
0.58199 0.0349495 0.
0.583992 0.03495 0.
0.585994 0.0349504 0.
0.587995 0.0349508 0.
0.589996 0.0349513 0.
0.591998 0.0349519 0.
0.593999 0.0349524 0.
0.595999 0.0349529 0.
0.598 0.0349532 0.
0.6 0.0349536 0.
0.602001 0.0349534 0.
0.604001 0.0349531 0.
0.606002 0.0349528 0.
0.608003 0.0349521 0.
0.610004 0.0349515 0.
0.612006 0.0349509 0.
0.614007 0.0349504 0.
0.616009 0.0349499 0.
0.618011 0.0349493 0.
0.620013 0.0349487 0.
0.622015 0.0349481 0.
0.624018 0.034947 0.
0.62602 0.0349458 0.
0.628023 0.0349443 0.
0.630027 0.0349413 0.
0.632032 0.0349382 0.
0.634038 0.0349344 0.
0.636045 0.0349294 0.
0.638053 0.0349244 0.
0.640062 0.0349177 0.
0.642073 0.0349098 0.
0.644084 0.0349018 0.
0.646098 0.0348885 0.
0.648112 0.0348737 0.
0.650127 0.0348588 0.
0.652149 0.0348367 0.
0.65417 0.0348147 0.
0.656193 0.0347911 0.
0.658221 0.0347631 0.
0.66025 0.0347352 0.
0.662281 0.0347046 0.
0.664316 0.0346714 0.
0.666351 0.0346383 0.
0.66839 0.0345957 0.
0.670431 0.0345509 0.
0.672472 0.0345056 0.
0.674519 0.0344384 0.
0.676566 0.0343708 0.
0.678613 0.0343043 0.
0.680663 0.0342398 0.
0.682712 0.0341753 0.
0.684761 0.034112 0.
0.686811 0.0340503 0.
0.688861 0.0339886 0.
0.690907 0.0339251 0.
0.692952 0.033862 0.
0.694997 0.0338009 0.
0.697034 0.0337642 0.
0.699071 0.0337288 0.
0.498953 0.0356833 0.
0.500985 0.035725 0.
0.503021 0.0357775 0.
0.505057 0.0358305 0.
0.5071 0.0358916 0.
0.509144 0.0359532 0.
0.511188 0.0360149 0.
0.513235 0.036075 0.
0.515281 0.0361351 0.
0.517328 0.0361969 0.
0.519374 0.0362602 0.
0.521421 0.0363235 0.
0.523465 0.0363878 0.
0.525509 0.0364529 0.
0.527553 0.0365175 0.
0.529591 0.0365603 0.
0.531629 0.0366027 0.
0.533666 0.036643 0.
0.535699 0.0366749 0.
0.537731 0.0367069 0.
0.539761 0.0367364 0.
0.541787 0.0367632 0.
0.543814 0.0367901 0.
0.545836 0.036813 0.
0.547857 0.0368344 0.
0.549877 0.0368558 0.
0.551891 0.0368706 0.
0.553905 0.0368852 0.
0.555919 0.0368984 0.
0.557929 0.0369062 0.
0.559939 0.036914 0.
0.561948 0.0369206 0.
0.563956 0.0369255 0.
0.565963 0.0369304 0.
0.567969 0.0369341 0.
0.569973 0.0369371 0.
0.571978 0.0369402 0.
0.573981 0.0369416 0.
0.575983 0.0369429 0.
0.577985 0.036944 0.
0.579987 0.0369447 0.
0.581989 0.0369454 0.
0.583991 0.036946 0.
0.585993 0.0369465 0.
0.587994 0.0369471 0.
0.589996 0.0369477 0.
0.591997 0.0369484 0.
0.593998 0.0369492 0.
0.595999 0.0369497 0.
0.598 0.0369501 0.
0.6 0.0369506 0.
0.602001 0.0369502 0.
0.604002 0.0369499 0.
0.606002 0.0369495 0.
0.608004 0.0369486 0.
0.610005 0.0369478 0.
0.612006 0.0369471 0.
0.614008 0.0369464 0.
0.61601 0.0369457 0.
0.618012 0.0369449 0.
0.620015 0.0369441 0.
0.622017 0.0369432 0.
0.62402 0.0369415 0.
0.626023 0.0369398 0.
0.628026 0.0369378 0.
0.630031 0.0369339 0.
0.632037 0.0369299 0.
0.634043 0.0369253 0.
0.636052 0.0369191 0.
0.63806 0.036913 0.
0.64007 0.0369052 0.
0.642082 0.0368961 0.
0.644094 0.036887 0.
0.646109 0.0368715 0.
0.648125 0.0368545 0.
0.650141 0.0368373 0.
0.652164 0.036813 0.
0.654187 0.0367887 0.
0.656211 0.0367629 0.
0.658241 0.0367331 0.
0.66027 0.0367033 0.
0.662302 0.0366709 0.
0.664337 0.0366363 0.
0.666372 0.0366017 0.
0.668411 0.036557 0.
0.670451 0.03651 0.
0.672491 0.0364625 0.
0.674535 0.036395 0.
0.67658 0.036327 0.
0.678625 0.0362603 0.
0.680671 0.0361958 0.
0.682717 0.0361313 0.
0.684763 0.0360684 0.
0.686809 0.0360074 0.
0.688855 0.0359464 0.
0.690897 0.0358859 0.
0.692939 0.0358261 0.
0.69498 0.0357682 0.
0.697014 0.0357357 0.
0.699047 0.0357046 0.
0.498986 0.0376629 0.
0.501015 0.037701 0.
0.503046 0.0377488 0.
0.505078 0.0377972 0.
0.507116 0.0378556 0.
0.509155 0.0379144 0.
0.511194 0.0379736 0.
0.513236 0.0380329 0.
0.515279 0.0380922 0.
0.517321 0.0381536 0.
0.519364 0.0382168 0.
0.521407 0.03828 0.
0.523449 0.0383447 0.
0.525491 0.0384103 0.
0.527533 0.0384755 0.
0.529571 0.0385208 0.
0.531608 0.0385655 0.
0.533645 0.0386081 0.
0.535678 0.0386416 0.
0.537711 0.0386751 0.
0.539741 0.0387064 0.
0.541769 0.0387353 0.
0.543797 0.0387642 0.
0.545821 0.0387891 0.
0.547843 0.0388126 0.
0.549864 0.0388361 0.
0.55188 0.0388531 0.
0.553895 0.0388698 0.
0.555909 0.0388851 0.
0.557921 0.0388939 0.
0.559932 0.0389028 0.
0.561942 0.0389104 0.
0.56395 0.0389163 0.
0.565958 0.0389222 0.
0.567965 0.0389267 0.
0.56997 0.0389304 0.
0.571975 0.0389341 0.
0.573978 0.0389361 0.
0.575981 0.0389378 0.
0.577983 0.0389394 0.
0.579986 0.0389403 0.
0.581988 0.0389412 0.
0.58399 0.038942 0.
0.585992 0.0389427 0.
0.587994 0.0389434 0.
0.589995 0.0389441 0.
0.591997 0.038945 0.
0.593998 0.0389459 0.
0.595999 0.0389464 0.
0.598 0.038947 0.
0.6 0.0389475 0.
0.602001 0.0389471 0.
0.604002 0.0389467 0.
0.606003 0.0389461 0.
0.608004 0.0389451 0.
0.610005 0.0389441 0.
0.612007 0.0389432 0.
0.614009 0.0389424 0.
0.616011 0.0389415 0.
0.618014 0.0389405 0.
0.620016 0.0389394 0.
0.622019 0.0389382 0.
0.624022 0.0389361 0.
0.626026 0.0389338 0.
0.628029 0.0389312 0.
0.630035 0.0389264 0.
0.632041 0.0389217 0.
0.634049 0.038916 0.
0.636058 0.0389088 0.
0.638067 0.0389016 0.
0.640079 0.0388926 0.
0.642092 0.0388823 0.
0.644105 0.038872 0.
0.646121 0.0388544 0.
0.648138 0.0388351 0.
0.650155 0.0388155 0.
0.652179 0.038789 0.
0.654204 0.0387625 0.
0.656229 0.0387345 0.
0.65826 0.0387027 0.
0.66029 0.0386709 0.
0.662323 0.0386368 0.
0.664358 0.0386008 0.
0.666393 0.0385647 0.
0.668431 0.0385182 0.
0.67047 0.0384694 0.
0.672509 0.03842 0.
0.674551 0.0383522 0.
0.676593 0.0382841 0.
0.678636 0.0382173 0.
0.680678 0.0381531 0.
0.68272 0.038089 0.
0.684762 0.0380269 0.
0.686803 0.0379671 0.
0.688844 0.0379072 0.
0.690882 0.0378496 0.
0.692919 0.037793 0.
0.694955 0.0377381 0.
0.696984 0.0377091 0.
0.699013 0.0376815 0.
0.499016 0.0396431 0.
0.501041 0.0396778 0.
0.503069 0.0397212 0.
0.505097 0.0397653 0.
0.507131 0.039821 0.
0.509165 0.0398771 0.
0.5112 0.039934 0.
0.513238 0.0399926 0.
0.515277 0.0400513 0.
0.517316 0.0401123 0.
0.519356 0.0401754 0.
0.521396 0.0402385 0.
0.523436 0.0403034 0.
0.525476 0.0403695 0.
0.527516 0.0404351 0.
0.529553 0.0404823 0.
0.53159 0.040529 0.
0.533626 0.0405736 0.
0.535659 0.0406084 0.
0.537693 0.0406433 0.
0.539724 0.0406762 0.
0.541753 0.0407069 0.
0.543782 0.0407376 0.
0.545807 0.0407647 0.
0.54783 0.0407902 0.
0.549852 0.0408158 0.
0.551869 0.040835 0.
0.553885 0.0408539 0.
0.5559 0.0408711 0.
0.557913 0.040881 0.
0.559925 0.040891 0.
0.561936 0.0408997 0.
0.563945 0.0409066 0.
0.565954 0.0409135 0.
0.567961 0.0409188 0.
0.569967 0.0409234 0.
0.571972 0.0409279 0.
0.573976 0.0409305 0.
0.575979 0.0409328 0.
0.577982 0.040935 0.
0.579984 0.0409361 0.
0.581987 0.0409371 0.
0.583989 0.0409381 0.
0.585991 0.040939 0.
0.587993 0.0409399 0.
0.589995 0.0409409 0.
0.591996 0.0409418 0.
0.593998 0.0409428 0.
0.595999 0.0409435 0.
0.598 0.0409442 0.
0.6 0.0409448 0.
0.602001 0.0409443 0.
0.604002 0.0409437 0.
0.606003 0.0409431 0.
0.608005 0.0409419 0.
0.610006 0.0409407 0.
0.612008 0.0409396 0.
0.61401 0.0409385 0.
0.616012 0.0409375 0.
0.618015 0.0409362 0.
0.620018 0.0409348 0.
0.622021 0.0409334 0.
0.624025 0.0409306 0.
0.626029 0.0409276 0.
0.628033 0.0409243 0.
0.630039 0.0409186 0.
0.632046 0.0409129 0.
0.634054 0.0409063 0.
0.636064 0.0408979 0.
0.638075 0.0408895 0.
0.640087 0.0408794 0.
0.642101 0.0408679 0.
0.644115 0.0408564 0.
0.646132 0.0408367 0.
0.64815 0.0408151 0.
0.650168 0.0407932 0.
0.652193 0.0407645 0.
0.654219 0.0407358 0.
0.656245 0.0407057 0.
0.658277 0.0406721 0.
0.660308 0.0406386 0.
0.662341 0.040603 0.
0.664376 0.0405657 0.
0.666412 0.0405284 0.
0.668449 0.0404803 0.
0.670487 0.0404299 0.
0.672525 0.0403791 0.
0.674565 0.0403112 0.
0.676604 0.040243 0.
0.678644 0.0401763 0.
0.680684 0.0401124 0.
0.682723 0.0400485 0.
0.684761 0.0399871 0.
0.686797 0.0399284 0.
0.688834 0.0398696 0.
0.690867 0.0398148 0.
0.6929 0.0397614 0.
0.694931 0.0397095 0.
0.696957 0.0396835 0.
0.698982 0.0396591 0.
0.499031 0.041626 0.
0.501055 0.041658 0.
0.503081 0.0416981 0.
0.505107 0.041739 0.
0.507138 0.0417925 0.
0.509171 0.0418464 0.
0.511204 0.0419013 0.
0.51324 0.0419586 0.
0.515276 0.042016 0.
0.517313 0.042076 0.
0.519351 0.0421386 0.
0.52139 0.0422012 0.
0.523428 0.0422659 0.
0.525467 0.0423318 0.
0.527505 0.0423973 0.
0.529541 0.0424456 0.
0.531577 0.0424935 0.
0.533613 0.0425392 0.
0.535646 0.0425751 0.
0.537679 0.042611 0.
0.539711 0.0426453 0.
0.54174 0.0426776 0.
0.543769 0.0427101 0.
0.545795 0.0427392 0.
0.547818 0.042767 0.
0.549842 0.0427948 0.
0.551859 0.0428161 0.
0.553876 0.0428372 0.
0.555892 0.0428563 0.
0.557905 0.0428674 0.
0.559918 0.0428785 0.
0.56193 0.0428883 0.
0.563939 0.0428963 0.
0.565949 0.0429042 0.
0.567956 0.0429106 0.
0.569963 0.0429161 0.
0.571969 0.0429216 0.
0.573973 0.0429248 0.
0.575977 0.0429278 0.
0.57798 0.0429306 0.
0.579983 0.042932 0.
0.581986 0.0429333 0.
0.583988 0.0429345 0.
0.58599 0.0429356 0.
0.587992 0.0429367 0.
0.589994 0.0429379 0.
0.591996 0.042939 0.
0.593997 0.0429401 0.
0.595998 0.042941 0.
0.597999 0.0429417 0.
0.6 0.0429424 0.
0.602002 0.0429418 0.
0.604003 0.0429411 0.
0.606004 0.0429403 0.
0.608005 0.0429389 0.
0.610007 0.0429375 0.
0.612009 0.0429362 0.
0.614011 0.0429349 0.
0.616014 0.0429336 0.
0.618017 0.042932 0.
0.62002 0.0429303 0.
0.622023 0.0429286 0.
0.624028 0.0429251 0.
0.626032 0.0429213 0.
0.628036 0.0429171 0.
0.630044 0.0429104 0.
0.632051 0.0429036 0.
0.63406 0.0428959 0.
0.636071 0.0428864 0.
0.638082 0.0428769 0.
0.640095 0.0428655 0.
0.642109 0.0428528 0.
0.644124 0.0428401 0.
0.646142 0.0428182 0.
0.648161 0.0427943 0.
0.65018 0.04277 0.
0.652205 0.042739 0.
0.654231 0.0427081 0.
0.656259 0.042676 0.
0.65829 0.0426409 0.
0.660321 0.0426059 0.
0.662354 0.0425691 0.
0.664389 0.0425308 0.
0.666424 0.0424926 0.
0.668461 0.0424437 0.
0.670497 0.0423926 0.
0.672535 0.0423411 0.
0.674573 0.0422737 0.
0.676611 0.0422061 0.
0.678649 0.04214 0.
0.680686 0.0420769 0.
0.682724 0.0420138 0.
0.68476 0.0419535 0.
0.686794 0.0418962 0.
0.688829 0.0418389 0.
0.69086 0.0417865 0.
0.69289 0.0417356 0.
0.694919 0.0416862 0.
0.696943 0.0416622 0.
0.698967 0.0416399 0.
0.499045 0.0436088 0.
0.501068 0.0436383 0.
0.503092 0.043675 0.
0.505116 0.0437127 0.
0.507146 0.0437639 0.
0.509176 0.0438157 0.
0.511207 0.0438686 0.
0.513241 0.0439247 0.
0.515275 0.0439807 0.
0.51731 0.0440398 0.
0.519347 0.0441018 0.
0.521383 0.0441639 0.
0.52342 0.0442283 0.
0.525457 0.044294 0.
0.527494 0.0443594 0.
0.529529 0.0444089 0.
0.531564 0.0444579 0.
0.533599 0.0445048 0.
0.535632 0.0445417 0.
0.537666 0.0445787 0.
0.539697 0.0446143 0.
0.541727 0.0446484 0.
0.543756 0.0446825 0.
0.545782 0.0447137 0.
0.547807 0.0447437 0.
0.549831 0.0447737 0.
0.551849 0.0447972 0.
0.553867 0.0448204 0.
0.555884 0.0448415 0.
0.557897 0.0448538 0.
0.559911 0.0448661 0.
0.561923 0.044877 0.
0.563933 0.044886 0.
0.565944 0.044895 0.
0.567952 0.0449023 0.
0.569959 0.0449087 0.
0.571966 0.0449152 0.
0.57397 0.0449192 0.
0.575974 0.0449228 0.
0.577978 0.0449263 0.
0.579981 0.0449279 0.
0.581984 0.0449294 0.
0.583987 0.0449309 0.
0.585989 0.0449322 0.
0.587991 0.0449336 0.
0.589993 0.0449349 0.
0.591995 0.0449361 0.
0.593997 0.0449374 0.
0.595998 0.0449384 0.
0.597999 0.0449392 0.
0.6 0.0449401 0.
0.602002 0.0449393 0.
0.604003 0.0449384 0.
0.606004 0.0449374 0.
0.608006 0.0449359 0.
0.610008 0.0449343 0.
0.61201 0.0449328 0.
0.614013 0.0449312 0.
0.616015 0.0449297 0.
0.618018 0.0449279 0.
0.620022 0.0449259 0.
0.622025 0.0449239 0.
0.62403 0.0449195 0.
0.626035 0.0449149 0.
0.62804 0.0449099 0.
0.630048 0.0449021 0.
0.632057 0.0448943 0.
0.634066 0.0448855 0.
0.636077 0.0448748 0.
0.638089 0.0448642 0.
0.640102 0.0448516 0.
0.642118 0.0448377 0.
0.644133 0.0448237 0.
0.646152 0.0447997 0.
0.648171 0.0447734 0.
0.650191 0.0447468 0.
0.652217 0.0447136 0.
0.654244 0.0446804 0.
0.656272 0.0446462 0.
0.658303 0.0446097 0.
0.660335 0.0445732 0.
0.662368 0.0445352 0.
0.664402 0.044496 0.
0.666437 0.0444569 0.
0.668472 0.0444071 0.
0.670508 0.0443553 0.
0.672544 0.0443031 0.
0.674581 0.0442363 0.
0.676618 0.0441691 0.
0.678654 0.0441038 0.
0.680689 0.0440414 0.
0.682725 0.0439791 0.
0.684758 0.0439199 0.
0.686791 0.0438641 0.
0.688824 0.0438082 0.
0.690852 0.0437581 0.
0.69288 0.0437099 0.
0.694908 0.0436631 0.
0.69693 0.0436411 0.
0.698952 0.0436207 0.
0.499069 0.0455929 0.
0.50109 0.0456203 0.
0.503113 0.0456544 0.
0.505135 0.0456894 0.
0.507163 0.0457387 0.
0.509191 0.0457885 0.
0.511219 0.0458397 0.
0.513251 0.0458946 0.
0.515283 0.0459494 0.
0.517316 0.0460076 0.
0.51935 0.0460692 0.
0.521384 0.0461307 0.
0.523418 0.0461946 0.
0.525453 0.0462599 0.
0.527488 0.0463248 0.
0.529522 0.0463747 0.
0.531556 0.0464242 0.
0.53359 0.0464716 0.
0.535622 0.0465093 0.
0.537654 0.0465469 0.
0.539685 0.0465835 0.
0.541715 0.0466186 0.
0.543744 0.0466538 0.
0.545771 0.0466866 0.
0.547795 0.0467184 0.
0.54982 0.0467502 0.
0.551839 0.0467759 0.
0.553857 0.0468014 0.
0.555875 0.0468246 0.
0.55789 0.0468381 0.
0.559904 0.0468515 0.
0.561917 0.0468635 0.
0.563928 0.0468737 0.
0.565939 0.0468838 0.
0.567947 0.0468922 0.
0.569955 0.0468996 0.
0.571963 0.046907 0.
0.573967 0.0469119 0.
0.575972 0.0469164 0.
0.577976 0.0469207 0.
0.579979 0.0469226 0.
0.581983 0.0469246 0.
0.583986 0.0469264 0.
0.585988 0.0469279 0.
0.58799 0.0469295 0.
0.589993 0.0469309 0.
0.591994 0.0469323 0.
0.593996 0.0469337 0.
0.595998 0.0469347 0.
0.597999 0.0469356 0.
0.6 0.0469364 0.
0.602002 0.0469355 0.
0.604003 0.0469347 0.
0.606005 0.0469336 0.
0.608007 0.0469319 0.
0.610009 0.0469302 0.
0.612011 0.0469285 0.
0.614014 0.0469267 0.
0.616017 0.0469249 0.
0.61802 0.0469227 0.
0.620024 0.0469202 0.
0.622028 0.0469177 0.
0.624033 0.0469124 0.
0.626038 0.0469067 0.
0.628044 0.0469007 0.
0.630053 0.0468918 0.
0.632062 0.046883 0.
0.634072 0.0468731 0.
0.636084 0.0468612 0.
0.638096 0.0468494 0.
0.64011 0.0468356 0.
0.642126 0.0468204 0.
0.644142 0.0468053 0.
0.646161 0.0467791 0.
0.648182 0.0467504 0.
0.650202 0.0467214 0.
0.652229 0.0466865 0.
0.654256 0.0466518 0.
0.656284 0.0466161 0.
0.658315 0.0465786 0.
0.660346 0.0465411 0.
0.662378 0.0465024 0.
0.664411 0.0464626 0.
0.666445 0.0464229 0.
0.668479 0.0463728 0.
0.670514 0.0463208 0.
0.672548 0.0462685 0.
0.674583 0.0462025 0.
0.676617 0.0461362 0.
0.678651 0.0460717 0.
0.680684 0.04601 0.
0.682717 0.0459484 0.
0.684748 0.0458902 0.
0.686779 0.0458356 0.
0.688809 0.045781 0.
0.690836 0.0457329 0.
0.692861 0.0456869 0.
0.694887 0.0456421 0.
0.696908 0.045622 0.
0.698928 0.0456035 0.
0.4991 0.0475778 0.
0.501119 0.0476034 0.
0.503139 0.0476351 0.
0.50516 0.0476678 0.
0.507185 0.0477152 0.
0.50921 0.0477631 0.
0.511236 0.0478125 0.
0.513265 0.0478662 0.
0.515294 0.0479198 0.
0.517324 0.0479771 0.
0.519355 0.048038 0.
0.521386 0.0480988 0.
0.523418 0.048162 0.
0.525451 0.0482266 0.
0.527484 0.0482909 0.
0.529516 0.048341 0.
0.531548 0.0483907 0.
0.53358 0.0484386 0.
0.535612 0.0484769 0.
0.537643 0.0485152 0.
0.539674 0.0485525 0.
0.541703 0.0485887 0.
0.543732 0.0486249 0.
0.545759 0.0486593 0.
0.547784 0.0486928 0.
0.549809 0.0487263 0.
0.551829 0.0487545 0.
0.553848 0.0487823 0.
0.555867 0.0488077 0.
0.557882 0.0488222 0.
0.559897 0.0488368 0.
0.56191 0.04885 0.
0.563922 0.0488613 0.
0.565934 0.0488726 0.
0.567943 0.048882 0.
0.569951 0.0488904 0.
0.571959 0.0488987 0.
0.573965 0.0489045 0.
0.575969 0.0489099 0.
0.577974 0.0489151 0.
0.579978 0.0489174 0.
0.581981 0.0489197 0.
0.583984 0.0489219 0.
0.585987 0.0489236 0.
0.58799 0.0489253 0.
0.589992 0.048927 0.
0.591994 0.0489285 0.
0.593996 0.0489301 0.
0.595997 0.0489311 0.
0.597999 0.0489319 0.
0.6 0.0489327 0.
0.602002 0.0489318 0.
0.604004 0.0489309 0.
0.606006 0.0489297 0.
0.608008 0.0489279 0.
0.61001 0.0489261 0.
0.612013 0.0489242 0.
0.614015 0.0489221 0.
0.616018 0.0489201 0.
0.618022 0.0489174 0.
0.620026 0.0489145 0.
0.62203 0.0489116 0.
0.624036 0.0489052 0.
0.626042 0.0488985 0.
0.628048 0.0488914 0.
0.630057 0.0488815 0.
0.632067 0.0488716 0.
0.634077 0.0488606 0.
0.63609 0.0488475 0.
0.638103 0.0488345 0.
0.640118 0.0488195 0.
0.642135 0.0488031 0.
0.644151 0.0487867 0.
0.646171 0.0487582 0.
0.648192 0.0487271 0.
0.650214 0.0486957 0.
0.652241 0.0486593 0.
0.654268 0.0486229 0.
0.656296 0.0485859 0.
0.658326 0.0485475 0.
0.660356 0.0485091 0.
0.662388 0.0484696 0.
0.66442 0.0484293 0.
0.666452 0.0483891 0.
0.668485 0.0483389 0.
0.670518 0.048287 0.
0.67255 0.0482347 0.
0.674582 0.0481698 0.
0.676614 0.0481045 0.
0.678646 0.048041 0.
0.680676 0.0479802 0.
0.682706 0.0479193 0.
0.684734 0.0478622 0.
0.686762 0.047809 0.
0.688789 0.0477558 0.
0.690814 0.0477094 0.
0.692837 0.0476653 0.
0.69486 0.0476224 0.
0.696879 0.0476041 0.
0.698898 0.0475875 0.
0.499128 0.049563 0.
0.501146 0.0495868 0.
0.503165 0.0496163 0.
0.505184 0.0496468 0.
0.507206 0.0496924 0.
0.509229 0.0497385 0.
0.511253 0.0497862 0.
0.513279 0.0498388 0.
0.515305 0.0498912 0.
0.517333 0.0499478 0.
0.519361 0.050008 0.
0.521389 0.0500683 0.
0.523419 0.0501308 0.
0.52545 0.0501948 0.
0.52748 0.0502585 0.
0.529511 0.0503087 0.
0.531542 0.0503585 0.
0.533573 0.0504066 0.
0.535604 0.0504454 0.
0.537635 0.0504843 0.
0.539664 0.0505224 0.
0.541693 0.0505594 0.
0.543722 0.0505965 0.
0.545749 0.0506323 0.
0.547774 0.0506674 0.
0.5498 0.0507026 0.
0.55182 0.0507329 0.
0.55384 0.050763 0.
0.555859 0.0507905 0.
0.557875 0.0508062 0.
0.55989 0.0508219 0.
0.561905 0.0508362 0.
0.563917 0.0508486 0.
0.565929 0.0508611 0.
0.567939 0.0508715 0.
0.569947 0.0508809 0.
0.571956 0.0508903 0.
0.573962 0.0508971 0.
0.575967 0.0509035 0.
0.577972 0.0509095 0.
0.579976 0.0509122 0.
0.58198 0.050915 0.
0.583983 0.0509175 0.
0.585986 0.0509194 0.
0.587989 0.0509214 0.
0.589991 0.0509232 0.
0.591993 0.0509249 0.
0.593995 0.0509266 0.
0.595997 0.0509276 0.
0.597999 0.0509284 0.
0.6 0.0509292 0.
0.602002 0.0509282 0.
0.604004 0.0509273 0.
0.606006 0.0509261 0.
0.608009 0.0509241 0.
0.610011 0.0509222 0.
0.612014 0.0509201 0.
0.614017 0.0509177 0.
0.61602 0.0509153 0.
0.618024 0.0509123 0.
0.620028 0.0509088 0.
0.622033 0.0509054 0.
0.624039 0.050898 0.
0.626045 0.0508902 0.
0.628051 0.050882 0.
0.630061 0.0508709 0.
0.632071 0.0508599 0.
0.634083 0.0508478 0.
0.636096 0.0508336 0.
0.638109 0.0508193 0.
0.640125 0.0508031 0.
0.642142 0.0507856 0.
0.644159 0.050768 0.
0.64618 0.0507374 0.
0.648202 0.0507039 0.
0.650223 0.0506702 0.
0.65225 0.0506323 0.
0.654277 0.0505945 0.
0.656305 0.0505562 0.
0.658335 0.0505171 0.
0.660365 0.050478 0.
0.662396 0.0504379 0.
0.664427 0.0503972 0.
0.666458 0.0503564 0.
0.66849 0.0503064 0.
0.670521 0.0502546 0.
0.672552 0.0502025 0.
0.674582 0.0501385 0.
0.676611 0.0500742 0.
0.67864 0.0500116 0.
0.680667 0.0499514 0.
0.682695 0.0498913 0.
0.684721 0.0498351 0.
0.686746 0.0497832 0.
0.688771 0.0497313 0.
0.690793 0.0496866 0.
0.692814 0.0496444 0.
0.694835 0.0496032 0.
0.696853 0.0495866 0.
0.69887 0.0495717 0.
0.499146 0.0515489 0.
0.501163 0.0515716 0.
0.503181 0.0515995 0.
0.505199 0.0516285 0.
0.50722 0.0516727 0.
0.509242 0.0517174 0.
0.511264 0.051764 0.
0.513289 0.0518154 0.
0.515314 0.0518668 0.
0.51734 0.0519225 0.
0.519367 0.0519822 0.
0.521394 0.0520418 0.
0.523422 0.0521035 0.
0.525451 0.0521667 0.
0.52748 0.0522294 0.
0.52951 0.0522792 0.
0.53154 0.0523286 0.
0.533569 0.0523763 0.
0.5356 0.0524155 0.
0.53763 0.0524546 0.
0.539659 0.0524931 0.
0.541687 0.0525308 0.
0.543716 0.0525684 0.
0.545742 0.0526054 0.
0.547768 0.052642 0.
0.549793 0.0526787 0.
0.551813 0.0527112 0.
0.553833 0.0527435 0.
0.555853 0.0527729 0.
0.557869 0.0527897 0.
0.559884 0.0528065 0.
0.561899 0.052822 0.
0.563912 0.0528356 0.
0.565924 0.0528492 0.
0.567934 0.0528608 0.
0.569944 0.0528712 0.
0.571953 0.0528817 0.
0.573959 0.0528895 0.
0.575964 0.052897 0.
0.57797 0.0529041 0.
0.579974 0.0529072 0.
0.581978 0.0529103 0.
0.583982 0.0529131 0.
0.585985 0.0529154 0.
0.587988 0.0529176 0.
0.58999 0.0529196 0.
0.591993 0.0529214 0.
0.593995 0.0529233 0.
0.595997 0.0529243 0.
0.597999 0.0529252 0.
0.600001 0.052926 0.
0.602003 0.0529249 0.
0.604005 0.0529238 0.
0.606007 0.0529225 0.
0.60801 0.0529205 0.
0.610012 0.0529184 0.
0.612015 0.0529161 0.
0.614018 0.0529134 0.
0.616021 0.0529107 0.
0.618026 0.0529071 0.
0.62003 0.0529032 0.
0.622035 0.0528993 0.
0.624042 0.0528908 0.
0.626048 0.0528817 0.
0.628055 0.0528723 0.
0.630066 0.0528601 0.
0.632076 0.0528479 0.
0.634088 0.0528346 0.
0.636101 0.0528192 0.
0.638115 0.0528038 0.
0.640131 0.0527864 0.
0.642149 0.0527677 0.
0.644166 0.052749 0.
0.646187 0.0527163 0.
0.648208 0.0526806 0.
0.65023 0.0526447 0.
0.652257 0.0526056 0.
0.654284 0.0525666 0.
0.656311 0.0525274 0.
0.65834 0.0524877 0.
0.66037 0.0524481 0.
0.6624 0.0524077 0.
0.66443 0.0523668 0.
0.666461 0.0523259 0.
0.668491 0.0522764 0.
0.670521 0.0522254 0.
0.672551 0.052174 0.
0.674579 0.0521111 0.
0.676607 0.0520479 0.
0.678635 0.0519862 0.
0.68066 0.0519268 0.
0.682686 0.0518673 0.
0.684711 0.051812 0.
0.686734 0.0517613 0.
0.688758 0.0517106 0.
0.690779 0.0516671 0.
0.692799 0.0516262 0.
0.694819 0.0515863 0.
0.696836 0.051571 0.
0.698852 0.0515573 0.
0.499163 0.0535348 0.
0.501179 0.0535563 0.
0.503196 0.0535828 0.
0.505214 0.0536103 0.
0.507234 0.0536532 0.
0.509254 0.0536965 0.
0.511275 0.0537417 0.
0.513299 0.0537921 0.
0.515322 0.0538425 0.
0.517347 0.0538973 0.
0.519372 0.0539563 0.
0.521398 0.0540153 0.
0.523425 0.0540762 0.
0.525452 0.0541385 0.
0.527479 0.0542004 0.
0.529508 0.0542497 0.
0.531537 0.0542986 0.
0.533566 0.054346 0.
0.535595 0.0543855 0.
0.537625 0.054425 0.
0.539653 0.0544639 0.
0.541681 0.0545021 0.
0.543709 0.0545404 0.
0.545736 0.0545786 0.
0.547761 0.0546166 0.
0.549786 0.0546548 0.
0.551807 0.0546894 0.
0.553827 0.0547239 0.
0.555846 0.0547554 0.
0.557862 0.0547733 0.
0.559879 0.0547912 0.
0.561894 0.0548078 0.
0.563907 0.0548225 0.
0.56592 0.0548373 0.
0.56793 0.05485 0.
0.56994 0.0548615 0.
0.571949 0.0548731 0.
0.573956 0.054882 0.
0.575962 0.0548906 0.
0.577968 0.0548986 0.
0.579972 0.0549021 0.
0.581976 0.0549056 0.
0.58398 0.0549087 0.
0.585984 0.0549113 0.
0.587987 0.0549138 0.
0.589989 0.054916 0.
0.591992 0.054918 0.
0.593994 0.05492 0.
0.595996 0.0549211 0.
0.597999 0.0549219 0.
0.600001 0.0549228 0.
0.602003 0.0549216 0.
0.604005 0.0549204 0.
0.606008 0.054919 0.
0.60801 0.0549169 0.
0.610013 0.0549147 0.
0.612016 0.0549121 0.
0.61402 0.054909 0.
0.616023 0.054906 0.
0.618028 0.054902 0.
0.620033 0.0548976 0.
0.622038 0.0548931 0.
0.624045 0.0548835 0.
0.626052 0.0548732 0.
0.628059 0.0548626 0.
0.63007 0.0548492 0.
0.632081 0.0548359 0.
0.634093 0.0548214 0.
0.636107 0.0548048 0.
0.638121 0.0547882 0.
0.640138 0.0547697 0.
0.642155 0.0547498 0.
0.644173 0.05473 0.
0.646194 0.0546952 0.
0.648215 0.0546573 0.
0.650237 0.0546192 0.
0.652263 0.054579 0.
0.65429 0.0545387 0.
0.656317 0.0544985 0.
0.658346 0.0544584 0.
0.660374 0.0544183 0.
0.662404 0.0543775 0.
0.664433 0.0543364 0.
0.666463 0.0542953 0.
0.668492 0.0542464 0.
0.670521 0.0541962 0.
0.672549 0.0541456 0.
0.674576 0.0540837 0.
0.676603 0.0540215 0.
0.678629 0.0539609 0.
0.680653 0.0539021 0.
0.682678 0.0538433 0.
0.684701 0.053789 0.
0.686723 0.0537394 0.
0.688746 0.0536899 0.
0.690765 0.0536477 0.
0.692784 0.0536082 0.
0.694803 0.0535696 0.
0.696819 0.0535554 0.
0.698835 0.0535428 0.
0.499187 0.0555213 0.
0.501203 0.055542 0.
0.503219 0.0555673 0.
0.505235 0.0555936 0.
0.507254 0.0556353 0.
0.509273 0.0556775 0.
0.511293 0.0557217 0.
0.513315 0.0557711 0.
0.515337 0.0558205 0.
0.51736 0.0558747 0.
0.519384 0.0559332 0.
0.521408 0.0559917 0.
0.523433 0.0560518 0.
0.525459 0.0561133 0.
0.527484 0.0561744 0.
0.529512 0.0562229 0.
0.531539 0.0562711 0.
0.533566 0.0563179 0.
0.535594 0.0563575 0.
0.537622 0.0563971 0.
0.53965 0.0564364 0.
0.541677 0.056475 0.
0.543704 0.0565137 0.
0.54573 0.0565526 0.
0.547755 0.0565917 0.
0.549779 0.0566307 0.
0.5518 0.0566673 0.
0.55382 0.0567036 0.
0.555839 0.0567369 0.
0.557856 0.0567558 0.
0.559872 0.0567747 0.
0.561888 0.0567923 0.
0.563901 0.0568081 0.
0.565914 0.0568239 0.
0.567926 0.0568377 0.
0.569936 0.0568504 0.
0.571946 0.0568631 0.
0.573953 0.0568731 0.
0.575959 0.0568828 0.
0.577965 0.0568919 0.
0.57997 0.0568959 0.
0.581975 0.0568999 0.
0.583979 0.0569035 0.
0.585982 0.0569064 0.
0.587986 0.0569092 0.
0.589989 0.0569116 0.
0.591991 0.0569137 0.
0.593994 0.0569158 0.
0.595996 0.0569169 0.
0.597998 0.0569177 0.
0.600001 0.0569185 0.
0.602003 0.0569173 0.
0.604006 0.0569161 0.
0.606008 0.0569147 0.
0.608011 0.0569123 0.
0.610014 0.05691 0.
0.612017 0.0569072 0.
0.614021 0.0569037 0.
0.616025 0.0569003 0.
0.61803 0.0568957 0.
0.620035 0.0568907 0.
0.62204 0.0568856 0.
0.624048 0.0568749 0.
0.626055 0.0568634 0.
0.628063 0.0568516 0.
0.630074 0.056837 0.
0.632085 0.0568224 0.
0.634098 0.0568068 0.
0.636113 0.0567891 0.
0.638127 0.0567714 0.
0.640144 0.0567519 0.
0.642162 0.0567311 0.
0.64418 0.0567103 0.
0.646201 0.0566738 0.
0.648222 0.056634 0.
0.650243 0.0565942 0.
0.652269 0.0565532 0.
0.654295 0.0565121 0.
0.656321 0.0564712 0.
0.658349 0.0564308 0.
0.660376 0.0563903 0.
0.662404 0.0563494 0.
0.664433 0.0563083 0.
0.666461 0.0562671 0.
0.668488 0.0562191 0.
0.670516 0.0561698 0.
0.672543 0.0561202 0.
0.674568 0.0560593 0.
0.676593 0.055998 0.
0.678617 0.0559382 0.
0.68064 0.05588 0.
0.682663 0.0558218 0.
0.684685 0.0557682 0.
0.686706 0.0557197 0.
0.688726 0.0556711 0.
0.690745 0.05563 0.
0.692763 0.0555916 0.
0.694781 0.055554 0.
0.696796 0.0555407 0.
0.698811 0.0555291 0.
0.499217 0.0575082 0.
0.501231 0.0575282 0.
0.503247 0.0575525 0.
0.505262 0.0575779 0.
0.507279 0.0576186 0.
0.509297 0.0576597 0.
0.511315 0.0577028 0.
0.513336 0.0577514 0.
0.515356 0.0577999 0.
0.517377 0.0578534 0.
0.519399 0.0579112 0.
0.521421 0.0579691 0.
0.523444 0.0580284 0.
0.525468 0.058089 0.
0.527491 0.0581493 0.
0.529517 0.0581969 0.
0.531542 0.0582442 0.
0.533568 0.0582903 0.
0.535594 0.05833 0.
0.537621 0.0583697 0.
0.539647 0.0584091 0.
0.541673 0.0584481 0.
0.543699 0.0584871 0.
0.545724 0.0585268 0.
0.547748 0.0585667 0.
0.549772 0.0586066 0.
0.551793 0.058645 0.
0.553813 0.0586833 0.
0.555832 0.0587183 0.
0.557849 0.0587382 0.
0.559866 0.0587581 0.
0.561882 0.0587768 0.
0.563896 0.0587936 0.
0.565909 0.0588105 0.
0.567921 0.0588254 0.
0.569932 0.0588393 0.
0.571942 0.0588531 0.
0.573949 0.0588642 0.
0.575956 0.058875 0.
0.577963 0.0588851 0.
0.579968 0.0588896 0.
0.581973 0.0588941 0.
0.583978 0.0588982 0.
0.585981 0.0589014 0.
0.587985 0.0589046 0.
0.589988 0.0589072 0.
0.591991 0.0589094 0.
0.593994 0.0589116 0.
0.595996 0.0589127 0.
0.597998 0.0589135 0.
0.6 0.0589143 0.
0.602003 0.058913 0.
0.604006 0.0589118 0.
0.606008 0.0589103 0.
0.608012 0.0589078 0.
0.610015 0.0589053 0.
0.612018 0.0589022 0.
0.614022 0.0588984 0.
0.616026 0.0588945 0.
0.618032 0.0588895 0.
0.620037 0.0588838 0.
0.622043 0.0588781 0.
0.624051 0.0588662 0.
0.626059 0.0588536 0.
0.628067 0.0588406 0.
0.630079 0.0588247 0.
0.63209 0.0588089 0.
0.634103 0.0587921 0.
0.636119 0.0587733 0.
0.638134 0.0587545 0.
0.640151 0.058734 0.
0.642169 0.0587122 0.
0.644187 0.0586904 0.
0.646208 0.0586522 0.
0.648229 0.0586107 0.
0.65025 0.0585692 0.
0.652275 0.0585274 0.
0.6543 0.0584857 0.
0.656325 0.0584442 0.
0.658351 0.0584035 0.
0.660378 0.0583627 0.
0.662404 0.0583217 0.
0.664431 0.0582806 0.
0.666458 0.0582395 0.
0.668483 0.0581924 0.
0.670509 0.0581443 0.
0.672534 0.0580958 0.
0.674557 0.0580359 0.
0.67658 0.0579756 0.
0.678602 0.0579167 0.
0.680623 0.0578591 0.
0.682644 0.0578015 0.
0.684664 0.0577486 0.
0.686683 0.0577011 0.
0.688703 0.0576535 0.
0.69072 0.0576133 0.
0.692737 0.0575759 0.
0.694753 0.0575392 0.
0.696768 0.0575266 0.
0.698782 0.0575158 0.
0.499245 0.0594953 0.
0.501259 0.0595147 0.
0.503273 0.0595381 0.
0.505287 0.0595626 0.
0.507303 0.0596023 0.
0.50932 0.0596423 0.
0.511337 0.0596845 0.
0.513355 0.0597322 0.
0.515374 0.0597799 0.
0.517393 0.0598327 0.
0.519413 0.05989 0.
0.521433 0.0599473 0.
0.523454 0.060006 0.
0.525476 0.0600659 0.
0.527498 0.0601254 0.
0.529522 0.0601721 0.
0.531546 0.0602186 0.
0.53357 0.0602639 0.
0.535595 0.0603036 0.
0.53762 0.0603433 0.
0.539646 0.0603829 0.
0.54167 0.0604223 0.
0.543695 0.0604616 0.
0.545719 0.0605019 0.
0.547743 0.0605426 0.
0.549766 0.0605833 0.
0.551787 0.0606233 0.
0.553807 0.0606633 0.
0.555826 0.0607 0.
0.557843 0.0607208 0.
0.55986 0.0607416 0.
0.561876 0.0607612 0.
0.563891 0.0607791 0.
0.565905 0.060797 0.
0.567917 0.060813 0.
0.569928 0.060828 0.
0.571939 0.060843 0.
0.573946 0.0608552 0.
0.575954 0.0608671 0.
0.577961 0.0608782 0.
0.579966 0.0608833 0.
0.581971 0.0608884 0.
0.583976 0.0608929 0.
0.58598 0.0608965 0.
0.587984 0.0609 0.
0.589987 0.0609029 0.
0.59199 0.0609053 0.
0.593993 0.0609076 0.
0.595996 0.0609087 0.
0.597998 0.0609095 0.
0.6 0.0609102 0.
0.602003 0.0609089 0.
0.604006 0.0609076 0.
0.606009 0.060906 0.
0.608012 0.0609033 0.
0.610016 0.0609006 0.
0.612019 0.0608972 0.
0.614024 0.060893 0.
0.616028 0.0608887 0.
0.618034 0.0608831 0.
0.62004 0.0608768 0.
0.622046 0.0608705 0.
0.624054 0.0608575 0.
0.626062 0.0608437 0.
0.628071 0.0608295 0.
0.630083 0.0608124 0.
0.632095 0.0607954 0.
0.634108 0.0607773 0.
0.636124 0.0607575 0.
0.638139 0.0607378 0.
0.640156 0.0607162 0.
0.642175 0.0606936 0.
0.644193 0.0606709 0.
0.646213 0.0606312 0.
0.648234 0.0605881 0.
0.650256 0.0605451 0.
0.65228 0.0605027 0.
0.654304 0.0604603 0.
0.656328 0.0604182 0.
0.658353 0.0603773 0.
0.660378 0.0603363 0.
0.662404 0.0602952 0.
0.664429 0.0602542 0.
0.666454 0.0602131 0.
0.668478 0.060167 0.
0.670501 0.06012 0.
0.672525 0.0600725 0.
0.674546 0.0600135 0.
0.676567 0.059954 0.
0.678588 0.0598959 0.
0.680607 0.0598389 0.
0.682626 0.0597819 0.
0.684645 0.0597296 0.
0.686662 0.059683 0.
0.68868 0.0596363 0.
0.690696 0.0595969 0.
0.692711 0.0595605 0.
0.694727 0.0595247 0.
0.696741 0.0595128 0.
0.698754 0.0595026 0.
0.499264 0.0614832 0.
0.501277 0.0615022 0.
0.503291 0.061525 0.
0.505305 0.0615489 0.
0.50732 0.0615879 0.
0.509335 0.0616271 0.
0.511352 0.0616686 0.
0.513369 0.0617156 0.
0.515387 0.0617626 0.
0.517405 0.0618149 0.
0.519424 0.0618717 0.
0.521443 0.0619285 0.
0.523464 0.0619866 0.
0.525484 0.0620458 0.
0.527505 0.0621046 0.
0.529528 0.0621504 0.
0.53155 0.0621958 0.
0.533573 0.0622403 0.
0.535597 0.0622797 0.
0.537622 0.0623192 0.
0.539646 0.0623588 0.
0.54167 0.0623982 0.
0.543694 0.0624376 0.
0.545717 0.0624785 0.
0.54774 0.0625197 0.
0.549763 0.0625609 0.
0.551783 0.0626023 0.
0.553803 0.0626438 0.
0.555822 0.0626818 0.
0.557839 0.0627034 0.
0.559856 0.0627251 0.
0.561872 0.0627456 0.
0.563886 0.0627644 0.
0.5659 0.0627833 0.
0.567913 0.0628004 0.
0.569924 0.0628166 0.
0.571935 0.0628327 0.
0.573943 0.0628461 0.
0.575951 0.0628591 0.
0.577958 0.0628713 0.
0.579964 0.0628769 0.
0.581969 0.0628826 0.
0.583975 0.0628876 0.
0.585979 0.0628916 0.
0.587983 0.0628955 0.
0.589986 0.0628987 0.
0.591989 0.0629012 0.
0.593993 0.0629037 0.
0.595995 0.0629049 0.
0.597998 0.0629057 0.
0.6 0.0629065 0.
0.602003 0.062905 0.
0.604006 0.0629036 0.
0.60601 0.0629018 0.
0.608013 0.0628989 0.
0.610017 0.0628959 0.
0.612021 0.0628922 0.
0.614026 0.0628874 0.
0.61603 0.0628827 0.
0.618036 0.0628766 0.
0.620043 0.0628697 0.
0.622049 0.0628629 0.
0.624057 0.0628487 0.
0.626066 0.0628337 0.
0.628075 0.0628183 0.
0.630087 0.0628 0.
0.632099 0.0627817 0.
0.634113 0.0627625 0.
0.636128 0.0627417 0.
0.638144 0.062721 0.
0.640161 0.0626986 0.
0.642179 0.0626751 0.
0.644197 0.0626516 0.
0.646217 0.0626108 0.
0.648238 0.0625664 0.
0.650259 0.0625222 0.
0.652282 0.0624794 0.
0.654305 0.0624366 0.
0.656329 0.0623942 0.
0.658353 0.0623532 0.
0.660377 0.0623122 0.
0.662401 0.0622712 0.
0.664425 0.0622305 0.
0.66645 0.0621898 0.
0.668472 0.0621446 0.
0.670494 0.0620987 0.
0.672517 0.0620523 0.
0.674537 0.061994 0.
0.676557 0.0619354 0.
0.678576 0.061878 0.
0.680595 0.0618214 0.
0.682613 0.0617649 0.
0.684631 0.0617132 0.
0.686647 0.0616672 0.
0.688664 0.0616212 0.
0.690679 0.0615825 0.
0.692694 0.0615468 0.
0.694709 0.0615116 0.
0.696722 0.0615001 0.
0.698735 0.0614904 0.
0.499283 0.0634712 0.
0.501295 0.0634898 0.
0.503308 0.063512 0.
0.505322 0.0635354 0.
0.507336 0.0635735 0.
0.509351 0.063612 0.
0.511366 0.0636528 0.
0.513383 0.063699 0.
0.5154 0.0637453 0.
0.517417 0.0637971 0.
0.519435 0.0638534 0.
0.521454 0.0639097 0.
0.523473 0.0639671 0.
0.525492 0.0640257 0.
0.527512 0.0640838 0.
0.529533 0.0641286 0.
0.531555 0.064173 0.
0.533577 0.0642166 0.
0.5356 0.0642559 0.
0.537623 0.0642951 0.
0.539646 0.0643346 0.
0.541669 0.0643741 0.
0.543693 0.0644137 0.
0.545715 0.064455 0.
0.547737 0.0644968 0.
0.54976 0.0645386 0.
0.551779 0.0645813 0.
0.553798 0.0646242 0.
0.555817 0.0646636 0.
0.557834 0.0646861 0.
0.559851 0.0647086 0.
0.561867 0.06473 0.
0.563882 0.0647497 0.
0.565896 0.0647695 0.
0.567909 0.0647878 0.
0.56992 0.0648051 0.
0.571932 0.0648225 0.
0.57394 0.064837 0.
0.575948 0.0648511 0.
0.577956 0.0648644 0.
0.579961 0.0648706 0.
0.581967 0.0648768 0.
0.583973 0.0648823 0.
0.585977 0.0648867 0.
0.587982 0.064891 0.
0.589985 0.0648944 0.
0.591989 0.0648972 0.
0.593992 0.0648999 0.
0.595995 0.0649011 0.
0.597998 0.0649019 0.
0.6 0.0649027 0.
0.602004 0.0649011 0.
0.604007 0.0648995 0.
0.60601 0.0648976 0.
0.608014 0.0648944 0.
0.610018 0.0648912 0.
0.612022 0.0648871 0.
0.614027 0.0648819 0.
0.616032 0.0648767 0.
0.618039 0.06487 0.
0.620045 0.0648626 0.
0.622052 0.0648553 0.
0.624061 0.0648399 0.
0.626069 0.0648238 0.
0.628079 0.0648071 0.
0.630091 0.0647875 0.
0.632104 0.064768 0.
0.634117 0.0647476 0.
0.636133 0.0647259 0.
0.638148 0.0647042 0.
0.640165 0.0646809 0.
0.642183 0.0646566 0.
0.644201 0.0646323 0.
0.646221 0.0645903 0.
0.648241 0.0645447 0.
0.650262 0.0644994 0.
0.652284 0.0644561 0.
0.654306 0.0644129 0.
0.656329 0.0643702 0.
0.658352 0.0643291 0.
0.660376 0.064288 0.
0.662399 0.0642472 0.
0.664422 0.0642068 0.
0.666445 0.0641664 0.
0.668466 0.0641223 0.
0.670488 0.0640774 0.
0.672508 0.0640321 0.
0.674528 0.0639746 0.
0.676547 0.0639168 0.
0.678565 0.0638601 0.
0.680582 0.063804 0.
0.6826 0.063748 0.
0.684617 0.0636968 0.
0.686633 0.0636515 0.
0.688648 0.0636062 0.
0.690663 0.0635682 0.
0.692677 0.0635331 0.
0.694691 0.0634986 0.
0.696704 0.0634875 0.
0.698716 0.0634782 0.
0.499307 0.0654598 0.
0.50132 0.0654782 0.
0.503332 0.0654999 0.
0.505344 0.0655228 0.
0.507358 0.0655604 0.
0.509372 0.0655982 0.
0.511387 0.0656384 0.
0.513402 0.0656841 0.
0.515418 0.0657298 0.
0.517434 0.0657812 0.
0.519452 0.0658371 0.
0.521468 0.0658931 0.
0.523486 0.0659499 0.
0.525505 0.0660078 0.
0.527523 0.0660653 0.
0.529543 0.0661092 0.
0.531563 0.0661527 0.
0.533583 0.0661955 0.
0.535605 0.0662344 0.
0.537626 0.0662733 0.
0.539648 0.0663126 0.
0.54167 0.0663521 0.
0.543692 0.0663917 0.
0.545714 0.0664333 0.
0.547735 0.0664755 0.
0.549756 0.0665178 0.
0.551775 0.0665614 0.
0.553793 0.0666053 0.
0.555812 0.0666456 0.
0.557829 0.0666687 0.
0.559845 0.0666919 0.
0.561861 0.066714 0.
0.563876 0.0667345 0.
0.56589 0.0667551 0.
0.567903 0.0667743 0.
0.569915 0.0667927 0.
0.571927 0.0668111 0.
0.573935 0.0668268 0.
0.575944 0.0668419 0.
0.577952 0.0668563 0.
0.579958 0.0668631 0.
0.581965 0.0668698 0.
0.58397 0.066876 0.
0.585975 0.0668808 0.
0.58798 0.0668855 0.
0.589984 0.0668893 0.
0.591988 0.0668922 0.
0.593991 0.0668952 0.
0.595995 0.0668964 0.
0.597997 0.0668972 0.
0.6 0.066898 0.
0.602004 0.0668963 0.
0.604007 0.0668946 0.
0.606011 0.0668925 0.
0.608015 0.0668889 0.
0.61002 0.0668854 0.
0.612024 0.0668809 0.
0.61403 0.0668752 0.
0.616035 0.0668696 0.
0.618042 0.0668624 0.
0.620049 0.0668544 0.
0.622056 0.0668464 0.
0.624065 0.06683 0.
0.626074 0.0668127 0.
0.628084 0.066795 0.
0.630097 0.0667743 0.
0.632109 0.0667536 0.
0.634123 0.0667323 0.
0.636139 0.0667098 0.
0.638154 0.0666873 0.
0.640171 0.0666634 0.
0.642189 0.0666385 0.
0.644206 0.0666136 0.
0.646225 0.0665708 0.
0.648245 0.0665244 0.
0.650264 0.0664783 0.
0.652286 0.0664347 0.
0.654307 0.0663911 0.
0.656328 0.0663482 0.
0.65835 0.0663072 0.
0.660372 0.0662661 0.
0.662394 0.0662256 0.
0.664416 0.0661856 0.
0.666437 0.0661456 0.
0.668457 0.0661023 0.
0.670477 0.0660584 0.
0.672496 0.0660141 0.
0.674514 0.0659574 0.
0.676532 0.0659003 0.
0.678549 0.0658441 0.
0.680565 0.0657885 0.
0.682582 0.0657328 0.
0.684597 0.065682 0.
0.686612 0.0656373 0.
0.688627 0.0655925 0.
0.690641 0.065555 0.
0.692654 0.0655205 0.
0.694668 0.0654864 0.
0.69668 0.0654756 0.
0.698692 0.0654668 0.
0.499337 0.0674489 0.
0.501349 0.0674671 0.
0.50336 0.0674884 0.
0.505372 0.0675109 0.
0.507385 0.067548 0.
0.509398 0.0675853 0.
0.511411 0.067625 0.
0.513426 0.0676701 0.
0.51544 0.0677152 0.
0.517455 0.0677662 0.
0.51947 0.0678218 0.
0.521486 0.0678773 0.
0.523502 0.0679336 0.
0.525519 0.0679908 0.
0.527535 0.0680476 0.
0.529553 0.0680906 0.
0.531572 0.0681331 0.
0.53359 0.0681751 0.
0.53561 0.0682135 0.
0.53763 0.068252 0.
0.539651 0.068291 0.
0.541672 0.0683305 0.
0.543692 0.0683701 0.
0.545712 0.068412 0.
0.547732 0.0684546 0.
0.549752 0.0684973 0.
0.55177 0.0685417 0.
0.553788 0.0685864 0.
0.555806 0.0686275 0.
0.557823 0.0686513 0.
0.55984 0.0686752 0.
0.561855 0.068698 0.
0.56387 0.0687193 0.
0.565885 0.0687406 0.
0.567897 0.0687608 0.
0.56991 0.0687802 0.
0.571922 0.0687997 0.
0.573931 0.0688164 0.
0.57594 0.0688327 0.
0.577948 0.0688482 0.
0.579955 0.0688555 0.
0.581962 0.0688629 0.
0.583968 0.0688696 0.
0.585973 0.0688748 0.
0.587978 0.06888 0.
0.589983 0.0688841 0.
0.591987 0.0688873 0.
0.593991 0.0688905 0.
0.595994 0.0688918 0.
0.597997 0.0688925 0.
0.6 0.0688933 0.
0.602004 0.0688914 0.
0.604008 0.0688896 0.
0.606012 0.0688873 0.
0.608017 0.0688834 0.
0.610021 0.0688795 0.
0.612027 0.0688745 0.
0.614032 0.0688685 0.
0.616038 0.0688624 0.
0.618046 0.0688546 0.
0.620053 0.0688461 0.
0.622061 0.0688375 0.
0.62407 0.0688201 0.
0.62608 0.0688017 0.
0.62809 0.0687828 0.
0.630102 0.068761 0.
0.632115 0.0687392 0.
0.634129 0.0687169 0.
0.636145 0.0686937 0.
0.63816 0.0686704 0.
0.640177 0.0686458 0.
0.642194 0.0686203 0.
0.644211 0.0685948 0.
0.64623 0.0685513 0.
0.648248 0.0685042 0.
0.650267 0.0684574 0.
0.652287 0.0684136 0.
0.654307 0.0683698 0.
0.656327 0.0683267 0.
0.658348 0.0682857 0.
0.660368 0.0682448 0.
0.662388 0.0682045 0.
0.664408 0.0681651 0.
0.666428 0.0681256 0.
0.668446 0.0680832 0.
0.670464 0.0680403 0.
0.672482 0.0679969 0.
0.674498 0.067941 0.
0.676514 0.0678847 0.
0.67853 0.0678292 0.
0.680545 0.0677739 0.
0.68256 0.0677186 0.
0.684574 0.0676681 0.
0.686588 0.0676239 0.
0.688602 0.0675797 0.
0.690614 0.0675426 0.
0.692627 0.0675085 0.
0.694639 0.0674748 0.
0.696651 0.0674643 0.
0.698662 0.0674558 0.
0.499365 0.0694381 0.
0.501376 0.0694561 0.
0.503387 0.0694771 0.
0.505399 0.0694993 0.
0.507411 0.0695359 0.
0.509422 0.0695727 0.
0.511435 0.069612 0.
0.513448 0.0696566 0.
0.515461 0.0697011 0.
0.517474 0.0697518 0.
0.519488 0.0698071 0.
0.521502 0.0698623 0.
0.523517 0.069918 0.
0.525532 0.0699747 0.
0.527547 0.0700308 0.
0.529564 0.0700729 0.
0.53158 0.0701146 0.
0.533597 0.0701558 0.
0.535616 0.0701938 0.
0.537635 0.0702318 0.
0.539654 0.0702706 0.
0.541673 0.0703101 0.
0.543692 0.0703496 0.
0.545711 0.0703918 0.
0.54773 0.0704348 0.
0.549749 0.0704778 0.
0.551767 0.070523 0.
0.553784 0.0705684 0.
0.555801 0.0706102 0.
0.557818 0.0706345 0.
0.559834 0.0706589 0.
0.56185 0.0706823 0.
0.563864 0.0707043 0.
0.565879 0.0707263 0.
0.567892 0.0707474 0.
0.569904 0.0707678 0.
0.571917 0.0707883 0.
0.573926 0.070806 0.
0.575935 0.0708234 0.
0.577944 0.0708398 0.
0.579951 0.0708478 0.
0.581959 0.0708557 0.
0.583965 0.0708629 0.
0.585971 0.0708686 0.
0.587976 0.0708743 0.
0.589981 0.0708788 0.
0.591986 0.0708822 0.
0.59399 0.0708857 0.
0.595994 0.070887 0.
0.597997 0.0708878 0.
0.600001 0.0708885 0.
0.602005 0.0708865 0.
0.604009 0.0708845 0.
0.606013 0.0708819 0.
0.608018 0.0708776 0.
0.610023 0.0708733 0.
0.612029 0.070868 0.
0.614035 0.0708615 0.
0.616042 0.070855 0.
0.618049 0.0708467 0.
0.620057 0.0708376 0.
0.622065 0.0708285 0.
0.624075 0.07081 0.
0.626085 0.0707905 0.
0.628095 0.0707706 0.
0.630108 0.0707478 0.
0.632121 0.070725 0.
0.634135 0.0707018 0.
0.63615 0.0706779 0.
0.638166 0.070654 0.
0.640182 0.0706288 0.
0.642199 0.0706028 0.
0.644216 0.0705769 0.
0.646233 0.0705328 0.
0.648251 0.0704851 0.
0.650269 0.0704377 0.
0.652288 0.0703937 0.
0.654307 0.0703496 0.
0.656326 0.0703063 0.
0.658345 0.0702654 0.
0.660364 0.0702245 0.
0.662383 0.0701846 0.
0.664401 0.0701457 0.
0.66642 0.0701067 0.
0.668436 0.0700651 0.
0.670452 0.0700231 0.
0.672468 0.0699806 0.
0.674483 0.0699254 0.
0.676498 0.0698697 0.
0.678512 0.0698148 0.
0.680525 0.0697598 0.
0.682539 0.0697048 0.
0.684552 0.0696547 0.
0.686564 0.069611 0.
0.688577 0.0695672 0.
0.690589 0.0695305 0.
0.6926 0.0694968 0.
0.694612 0.0694634 0.
0.696623 0.0694533 0.
0.698634 0.0694451 0.
0.499386 0.0714281 0.
0.501396 0.0714461 0.
0.503407 0.071467 0.
0.505417 0.071489 0.
0.507429 0.0715254 0.
0.50944 0.0715619 0.
0.511451 0.0716008 0.
0.513464 0.071645 0.
0.515476 0.0716892 0.
0.517489 0.0717397 0.
0.519502 0.0717947 0.
0.521515 0.0718497 0.
0.523529 0.071905 0.
0.525543 0.0719612 0.
0.527557 0.0720168 0.
0.529573 0.0720581 0.
0.531588 0.0720991 0.
0.533604 0.0721395 0.
0.535622 0.072177 0.
0.537639 0.0722144 0.
0.539657 0.0722528 0.
0.541675 0.0722921 0.
0.543693 0.0723314 0.
0.545712 0.0723737 0.
0.547729 0.072417 0.
0.549747 0.0724603 0.
0.551764 0.0725057 0.
0.553781 0.0725515 0.
0.555798 0.0725936 0.
0.557814 0.0726183 0.
0.55983 0.0726431 0.
0.561845 0.0726671 0.
0.563859 0.0726896 0.
0.565874 0.0727122 0.
0.567887 0.072734 0.
0.569899 0.0727554 0.
0.571911 0.0727768 0.
0.573921 0.0727955 0.
0.575931 0.0728139 0.
0.57794 0.0728312 0.
0.579948 0.0728398 0.
0.581955 0.0728483 0.
0.583962 0.072856 0.
0.585968 0.0728622 0.
0.587974 0.0728684 0.
0.589979 0.0728732 0.
0.591984 0.072877 0.
0.593989 0.0728808 0.
0.595993 0.0728822 0.
0.597997 0.072883 0.
0.600001 0.0728837 0.
0.602005 0.0728814 0.
0.60401 0.0728791 0.
0.606015 0.0728762 0.
0.60802 0.0728716 0.
0.610026 0.072867 0.
0.612032 0.0728613 0.
0.614038 0.0728543 0.
0.616045 0.0728472 0.
0.618053 0.0728385 0.
0.620061 0.0728289 0.
0.62207 0.0728193 0.
0.62408 0.0727998 0.
0.62609 0.0727793 0.
0.6281 0.0727584 0.
0.630113 0.0727347 0.
0.632126 0.072711 0.
0.63414 0.072687 0.
0.636155 0.0726626 0.
0.63817 0.0726382 0.
0.640186 0.0726126 0.
0.642203 0.0725862 0.
0.644219 0.0725599 0.
0.646236 0.0725157 0.
0.648253 0.0724678 0.
0.65027 0.0724202 0.
0.652288 0.0723759 0.
0.654306 0.0723317 0.
0.656324 0.0722884 0.
0.658342 0.0722477 0.
0.66036 0.0722071 0.
0.662378 0.0721676 0.
0.664395 0.0721293 0.
0.666412 0.072091 0.
0.668427 0.07205 0.
0.670442 0.0720087 0.
0.672457 0.071967 0.
0.674471 0.0719123 0.
0.676485 0.0718572 0.
0.678498 0.0718027 0.
0.680511 0.0717479 0.
0.682524 0.0716931 0.
0.684536 0.0716432 0.
0.686548 0.0715999 0.
0.68856 0.0715565 0.
0.690571 0.07152 0.
0.692582 0.0714866 0.
0.694593 0.0714534 0.
0.696603 0.0714433 0.
0.698613 0.0714353 0.
0.499405 0.0734182 0.
0.501415 0.0734362 0.
0.503426 0.0734569 0.
0.505436 0.0734789 0.
0.507446 0.073515 0.
0.509457 0.0735512 0.
0.511468 0.0735898 0.
0.513479 0.0736336 0.
0.515491 0.0736773 0.
0.517503 0.0737275 0.
0.519515 0.0737823 0.
0.521528 0.073837 0.
0.52354 0.073892 0.
0.525554 0.0739476 0.
0.527567 0.0740027 0.
0.529581 0.0740433 0.
0.531596 0.0740835 0.
0.533611 0.0741233 0.
0.535627 0.0741602 0.
0.537643 0.0741971 0.
0.53966 0.074235 0.
0.541677 0.0742741 0.
0.543694 0.0743132 0.
0.545712 0.0743557 0.
0.547729 0.0743992 0.
0.549746 0.0744427 0.
0.551762 0.0744885 0.
0.553778 0.0745346 0.
0.555794 0.074577 0.
0.55781 0.0746022 0.
0.559825 0.0746274 0.
0.56184 0.0746518 0.
0.563854 0.0746749 0.
0.565869 0.0746981 0.
0.567882 0.0747207 0.
0.569894 0.074743 0.
0.571906 0.0747654 0.
0.573916 0.074785 0.
0.575926 0.0748043 0.
0.577936 0.0748227 0.
0.579944 0.0748318 0.
0.581952 0.0748408 0.
0.583959 0.0748491 0.
0.585966 0.0748558 0.
0.587972 0.0748624 0.
0.589978 0.0748677 0.
0.591983 0.0748717 0.
0.593988 0.0748758 0.
0.595992 0.0748774 0.
0.597997 0.0748782 0.
0.600001 0.074879 0.
0.602006 0.0748763 0.
0.604011 0.0748737 0.
0.606016 0.0748706 0.
0.608022 0.0748656 0.
0.610028 0.0748606 0.
0.612034 0.0748545 0.
0.614042 0.074847 0.
0.616049 0.0748395 0.
0.618057 0.0748303 0.
0.620066 0.0748202 0.
0.622074 0.07481 0.
0.624084 0.0747896 0.
0.626095 0.0747681 0.
0.628105 0.0747462 0.
0.630118 0.0747215 0.
0.632132 0.0746969 0.
0.634145 0.0746722 0.
0.63616 0.0746472 0.
0.638175 0.0746223 0.
0.64019 0.0745963 0.
0.642206 0.0745696 0.
0.644222 0.074543 0.
0.646238 0.0744985 0.
0.648255 0.0744504 0.
0.650271 0.0744026 0.
0.652288 0.0743582 0.
0.654305 0.0743138 0.
0.656322 0.0742704 0.
0.658339 0.07423 0.
0.660356 0.0741896 0.
0.662372 0.0741506 0.
0.664388 0.0741129 0.
0.666404 0.0740752 0.
0.668419 0.074035 0.
0.670433 0.0739943 0.
0.672447 0.0739533 0.
0.674459 0.0738992 0.
0.676472 0.0738446 0.
0.678485 0.0737905 0.
0.680497 0.073736 0.
0.682509 0.0736814 0.
0.68452 0.0736318 0.
0.686532 0.0735888 0.
0.688543 0.0735458 0.
0.690553 0.0735095 0.
0.692564 0.0734764 0.
0.694574 0.0734434 0.
0.696584 0.0734335 0.
0.698594 0.0734256 0.
0.499431 0.0754088 0.
0.501441 0.0754271 0.
0.50345 0.0754479 0.
0.50546 0.0754699 0.
0.50747 0.0755059 0.
0.509479 0.0755419 0.
0.511489 0.0755803 0.
0.5135 0.0756237 0.
0.515511 0.0756672 0.
0.517521 0.0757172 0.
0.519533 0.0757719 0.
0.521544 0.0758266 0.
0.523556 0.0758812 0.
0.525567 0.0759363 0.
0.527579 0.0759909 0.
0.529592 0.0760308 0.
0.531605 0.0760704 0.
0.533619 0.0761095 0.
0.535633 0.0761458 0.
0.537648 0.0761821 0.
0.539664 0.0762196 0.
0.54168 0.0762584 0.
0.543695 0.0762972 0.
0.545711 0.0763397 0.
0.547727 0.0763834 0.
0.549743 0.0764271 0.
0.551758 0.076473 0.
0.553774 0.0765191 0.
0.555789 0.0765616 0.
0.557804 0.076587 0.
0.559819 0.0766124 0.
0.561833 0.0766371 0.
0.563847 0.0766606 0.
0.565861 0.0766842 0.
0.567874 0.0767074 0.
0.569887 0.0767303 0.
0.571899 0.0767533 0.
0.57391 0.0767738 0.
0.57592 0.0767938 0.
0.57793 0.0768129 0.
0.579938 0.0768225 0.
0.581947 0.0768321 0.
0.583955 0.0768409 0.
0.585962 0.076848 0.
0.587969 0.0768551 0.
0.589975 0.0768607 0.
0.591981 0.0768652 0.
0.593986 0.0768696 0.
0.595991 0.0768712 0.
0.597996 0.076872 0.
0.600001 0.0768727 0.
0.602007 0.0768698 0.
0.604012 0.076867 0.
0.606018 0.0768635 0.
0.608025 0.0768582 0.
0.610031 0.0768529 0.
0.612038 0.0768464 0.
0.614046 0.0768385 0.
0.616054 0.0768306 0.
0.618063 0.0768209 0.
0.620072 0.0768103 0.
0.622081 0.0767998 0.
0.624091 0.0767786 0.
0.626102 0.0767563 0.
0.628113 0.0767336 0.
0.630126 0.0767083 0.
0.632139 0.0766831 0.
0.634153 0.0766578 0.
0.636167 0.0766325 0.
0.638181 0.0766072 0.
0.640196 0.076581 0.
0.642211 0.0765543 0.
0.644227 0.0765275 0.
0.646242 0.0764831 0.
0.648257 0.076435 0.
0.650273 0.0763871 0.
0.652288 0.0763426 0.
0.654304 0.0762981 0.
0.65632 0.0762547 0.
0.658335 0.0762146 0.
0.660351 0.0761746 0.
0.662366 0.076136 0.
0.66438 0.0760989 0.
0.666395 0.0760618 0.
0.668408 0.0760223 0.
0.67042 0.0759823 0.
0.672433 0.075942 0.
0.674444 0.0758884 0.
0.676456 0.0758342 0.
0.678467 0.0757804 0.
0.680478 0.075726 0.
0.682489 0.0756715 0.
0.6845 0.0756219 0.
0.68651 0.0755792 0.
0.68852 0.0755365 0.
0.69053 0.0755003 0.
0.69254 0.0754674 0.
0.694549 0.0754345 0.
0.696558 0.0754245 0.
0.698568 0.0754166 0.
0.499462 0.0773998 0.
0.501471 0.0774184 0.
0.50348 0.0774394 0.
0.505489 0.0774617 0.
0.507498 0.0774976 0.
0.509506 0.0775335 0.
0.511515 0.0775718 0.
0.513524 0.0776149 0.
0.515534 0.077658 0.
0.517543 0.0777079 0.
0.519553 0.0777626 0.
0.521562 0.0778173 0.
0.523572 0.0778714 0.
0.525583 0.077926 0.
0.527593 0.0779799 0.
0.529604 0.0780191 0.
0.531616 0.0780581 0.
0.533627 0.0780965 0.
0.535641 0.0781322 0.
0.537654 0.0781679 0.
0.539667 0.0782048 0.
0.541682 0.0782432 0.
0.543697 0.0782816 0.
0.545711 0.0783241 0.
0.547726 0.078368 0.
0.549741 0.0784119 0.
0.551755 0.0784578 0.
0.553769 0.0785039 0.
0.555783 0.0785464 0.
0.557798 0.0785719 0.
0.559812 0.0785975 0.
0.561826 0.0786224 0.
0.56384 0.0786463 0.
0.565854 0.0786702 0.
0.567867 0.078694 0.
0.569879 0.0787176 0.
0.571891 0.0787413 0.
0.573902 0.0787624 0.
0.575913 0.0787832 0.
0.577924 0.0788031 0.
0.579933 0.0788132 0.
0.581942 0.0788233 0.
0.58395 0.0788327 0.
0.585958 0.0788402 0.
0.587965 0.0788478 0.
0.589972 0.0788538 0.
0.591978 0.0788585 0.
0.593985 0.0788633 0.
0.59599 0.0788649 0.
0.597996 0.0788657 0.
0.600001 0.0788664 0.
0.602008 0.0788633 0.
0.604014 0.0788601 0.
0.60602 0.0788564 0.
0.608028 0.0788508 0.
0.610035 0.0788451 0.
0.612042 0.0788382 0.
0.614051 0.0788299 0.
0.616059 0.0788216 0.
0.618068 0.0788115 0.
0.620078 0.0788005 0.
0.622087 0.0787895 0.
0.624098 0.0787675 0.
0.62611 0.0787444 0.
0.628121 0.078721 0.
0.630134 0.0786951 0.
0.632147 0.0786692 0.
0.63416 0.0786434 0.
0.636174 0.0786178 0.
0.638188 0.0785922 0.
0.640202 0.0785658 0.
0.642217 0.0785391 0.
0.644231 0.0785123 0.
0.646246 0.0784679 0.
0.64826 0.0784199 0.
0.650274 0.078372 0.
0.652288 0.0783274 0.
0.654303 0.0782828 0.
0.656317 0.0782395 0.
0.658331 0.0781999 0.
0.660346 0.0781602 0.
0.662359 0.0781222 0.
0.664372 0.0780858 0.
0.666384 0.0780493 0.
0.668396 0.0780104 0.
0.670407 0.0779711 0.
0.672418 0.0779315 0.
0.674428 0.0778784 0.
0.676437 0.0778248 0.
0.678447 0.0777714 0.
0.680457 0.077717 0.
0.682466 0.0776625 0.
0.684475 0.077613 0.
0.686484 0.0775705 0.
0.688494 0.077528 0.
0.690502 0.077492 0.
0.692511 0.0774591 0.
0.69452 0.0774262 0.
0.696528 0.077416 0.
0.698537 0.0774081 0.
0.499492 0.079391 0.
0.5015 0.07941 0.
0.503508 0.0794313 0.
0.505517 0.0794539 0.
0.507524 0.0794897 0.
0.509532 0.0795255 0.
0.51154 0.0795637 0.
0.513548 0.0796065 0.
0.515556 0.0796494 0.
0.517564 0.0796992 0.
0.519572 0.0797539 0.
0.52158 0.0798086 0.
0.523588 0.0798624 0.
0.525597 0.0799164 0.
0.527606 0.0799698 0.
0.529615 0.0800084 0.
0.531625 0.0800467 0.
0.533635 0.0800845 0.
0.535647 0.0801196 0.
0.537659 0.0801547 0.
0.539671 0.0801911 0.
0.541684 0.0802291 0.
0.543698 0.0802671 0.
0.545711 0.0803096 0.
0.547725 0.0803537 0.
0.549738 0.0803978 0.
0.551751 0.0804437 0.
0.553765 0.0804897 0.
0.555778 0.0805321 0.
0.557792 0.0805577 0.
0.559806 0.0805833 0.
0.561819 0.0806083 0.
0.563833 0.0806325 0.
0.565846 0.0806567 0.
0.567859 0.0806809 0.
0.569872 0.0807051 0.
0.571884 0.0807292 0.
0.573895 0.0807511 0.
0.575906 0.0807725 0.
0.577917 0.0807931 0.
0.579927 0.0808036 0.
0.581936 0.0808142 0.
0.583945 0.080824 0.
0.585954 0.080832 0.
0.587962 0.08084 0.
0.589969 0.0808464 0.
0.591976 0.0808515 0.
0.593983 0.0808566 0.
0.595989 0.0808583 0.
0.597996 0.080859 0.
0.600002 0.0808597 0.
0.602009 0.0808563 0.
0.604016 0.0808529 0.
0.606023 0.0808489 0.
0.60803 0.0808429 0.
0.610038 0.0808369 0.
0.612047 0.0808297 0.
0.614055 0.080821 0.
0.616064 0.0808124 0.
0.618074 0.0808018 0.
0.620084 0.0807904 0.
0.622094 0.080779 0.
0.624105 0.0807564 0.
0.626117 0.0807326 0.
0.628128 0.0807085 0.
0.630141 0.0806821 0.
0.632154 0.0806558 0.
0.634167 0.0806296 0.
0.636181 0.0806037 0.
0.638194 0.0805779 0.
0.640208 0.0805515 0.
0.642222 0.0805248 0.
0.644236 0.080498 0.
0.646249 0.0804538 0.
0.648262 0.0804058 0.
0.650276 0.0803581 0.
0.652289 0.0803134 0.
0.654302 0.0802687 0.
0.656315 0.0802254 0.
0.658328 0.0801862 0.
0.660341 0.0801469 0.
0.662353 0.0801094 0.
0.664364 0.0800736 0.
0.666375 0.0800378 0.
0.668385 0.0799994 0.
0.670394 0.0799607 0.
0.672404 0.0799218 0.
0.674412 0.0798693 0.
0.67642 0.0798161 0.
0.678428 0.0797631 0.
0.680436 0.0797086 0.
0.682444 0.0796541 0.
0.684452 0.0796046 0.
0.68646 0.0795623 0.
0.688468 0.0795201 0.
0.690476 0.079484 0.
0.692484 0.0794511 0.
0.694492 0.0794183 0.
0.6965 0.0794079 0.
0.698508 0.0793999 0.
0.499513 0.0813833 0.
0.501521 0.081403 0.
0.503528 0.0814249 0.
0.505536 0.081448 0.
0.507542 0.0814838 0.
0.509549 0.0815196 0.
0.511556 0.0815577 0.
0.513563 0.0816004 0.
0.51557 0.0816431 0.
0.517577 0.081693 0.
0.519584 0.0817479 0.
0.521591 0.0818027 0.
0.523599 0.0818561 0.
0.525606 0.0819096 0.
0.527614 0.0819625 0.
0.529623 0.0820005 0.
0.531632 0.0820383 0.
0.533641 0.0820756 0.
0.535651 0.08211 0.
0.537662 0.0821443 0.
0.539673 0.0821802 0.
0.541686 0.0822176 0.
0.543698 0.0822551 0.
0.54571 0.0822975 0.
0.547723 0.0823417 0.
0.549735 0.0823859 0.
0.551748 0.0824315 0.
0.553761 0.0824772 0.
0.555773 0.0825193 0.
0.557787 0.0825447 0.
0.5598 0.0825701 0.
0.561813 0.0825951 0.
0.563827 0.0826194 0.
0.56584 0.0826436 0.
0.567853 0.0826681 0.
0.569865 0.0826926 0.
0.571877 0.0827172 0.
0.573889 0.0827396 0.
0.5759 0.0827616 0.
0.577911 0.0827827 0.
0.579921 0.0827937 0.
0.581931 0.0828047 0.
0.58394 0.0828149 0.
0.585949 0.0828233 0.
0.587958 0.0828317 0.
0.589966 0.0828385 0.
0.591974 0.0828439 0.
0.593981 0.0828493 0.
0.595988 0.0828511 0.
0.597995 0.0828518 0.
0.600002 0.0828525 0.
0.60201 0.0828488 0.
0.604017 0.0828452 0.
0.606025 0.0828409 0.
0.608033 0.0828345 0.
0.610042 0.0828282 0.
0.612051 0.0828207 0.
0.61406 0.0828117 0.
0.61607 0.0828027 0.
0.61808 0.0827918 0.
0.62009 0.0827801 0.
0.6221 0.0827684 0.
0.624112 0.0827451 0.
0.626123 0.0827208 0.
0.628135 0.0826961 0.
0.630148 0.0826694 0.
0.63216 0.0826427 0.
0.634173 0.0826163 0.
0.636187 0.0825905 0.
0.6382 0.0825647 0.
0.640213 0.0825384 0.
0.642227 0.0825119 0.
0.64424 0.0824854 0.
0.646252 0.0824415 0.
0.648265 0.0823939 0.
0.650277 0.0823464 0.
0.65229 0.0823017 0.
0.654302 0.082257 0.
0.656314 0.0822139 0.
0.658326 0.0821752 0.
0.660337 0.0821364 0.
0.662348 0.0820996 0.
0.664358 0.0820644 0.
0.666368 0.0820293 0.
0.668377 0.0819915 0.
0.670386 0.0819532 0.
0.672394 0.0819148 0.
0.674401 0.0818627 0.
0.676409 0.08181 0.
0.678416 0.0817573 0.
0.680423 0.0817027 0.
0.68243 0.081648 0.
0.684437 0.0815984 0.
0.686444 0.0815562 0.
0.688451 0.081514 0.
0.690458 0.0814779 0.
0.692465 0.081445 0.
0.694472 0.0814122 0.
0.696479 0.0814014 0.
0.698487 0.0813932 0.
0.499533 0.0833757 0.
0.50154 0.0833961 0.
0.503547 0.0834186 0.
0.505554 0.0834423 0.
0.50756 0.083478 0.
0.509566 0.0835137 0.
0.511572 0.0835518 0.
0.513578 0.0835944 0.
0.515584 0.0836369 0.
0.51759 0.0836869 0.
0.519597 0.0837418 0.
0.521603 0.0837967 0.
0.523609 0.0838498 0.
0.525616 0.0839028 0.
0.527623 0.0839551 0.
0.52963 0.0839926 0.
0.531638 0.0840299 0.
0.533646 0.0840666 0.
0.535656 0.0841003 0.
0.537665 0.084134 0.
0.539676 0.0841692 0.
0.541687 0.0842061 0.
0.543698 0.0842431 0.
0.54571 0.0842854 0.
0.547721 0.0843297 0.
0.549733 0.084374 0.
0.551745 0.0844193 0.
0.553757 0.0844647 0.
0.555769 0.0845065 0.
0.557782 0.0845317 0.
0.559794 0.0845569 0.
0.561807 0.0845818 0.
0.56382 0.0846062 0.
0.565834 0.0846306 0.
0.567846 0.0846553 0.
0.569858 0.0846802 0.
0.571871 0.0847051 0.
0.573882 0.0847281 0.
0.575894 0.0847507 0.
0.577905 0.0847724 0.
0.579915 0.0847838 0.
0.581925 0.0847951 0.
0.583935 0.0848057 0.
0.585945 0.0848146 0.
0.587954 0.0848235 0.
0.589963 0.0848306 0.
0.591971 0.0848363 0.
0.593979 0.0848421 0.
0.595987 0.0848439 0.
0.597995 0.0848446 0.
0.600003 0.0848453 0.
0.602011 0.0848414 0.
0.604019 0.0848374 0.
0.606027 0.0848328 0.
0.608036 0.0848262 0.
0.610045 0.0848195 0.
0.612055 0.0848116 0.
0.614065 0.0848023 0.
0.616075 0.084793 0.
0.618085 0.0847818 0.
0.620096 0.0847698 0.
0.622107 0.0847577 0.
0.624118 0.0847339 0.
0.62613 0.084709 0.
0.628142 0.0846838 0.
0.630154 0.0846567 0.
0.632167 0.0846297 0.
0.63418 0.0846031 0.
0.636193 0.0845773 0.
0.638206 0.0845515 0.
0.640219 0.0845253 0.
0.642231 0.0844991 0.
0.644244 0.0844728 0.
0.646256 0.0844292 0.
0.648267 0.0843819 0.
0.650279 0.0843347 0.
0.65229 0.08429 0.
0.654302 0.0842453 0.
0.656313 0.0842024 0.
0.658324 0.0841642 0.
0.660334 0.0841259 0.
0.662344 0.0840897 0.
0.664353 0.0840552 0.
0.666362 0.0840208 0.
0.66837 0.0839835 0.
0.670377 0.0839457 0.
0.672385 0.0839078 0.
0.674391 0.0838562 0.
0.676398 0.083804 0.
0.678404 0.0837516 0.
0.68041 0.0836968 0.
0.682416 0.083642 0.
0.684422 0.0835923 0.
0.686428 0.0835502 0.
0.688434 0.083508 0.
0.690441 0.083472 0.
0.692447 0.0834391 0.
0.694453 0.0834062 0.
0.69646 0.0833951 0.
0.698466 0.0833866 0.
0.499561 0.0853694 0.
0.501567 0.0853908 0.
0.503573 0.0854142 0.
0.505579 0.0854388 0.
0.507583 0.0854745 0.
0.509588 0.0855102 0.
0.511593 0.0855483 0.
0.513597 0.0855908 0.
0.515602 0.0856332 0.
0.517607 0.0856834 0.
0.519611 0.0857386 0.
0.521616 0.0857938 0.
0.523621 0.0858464 0.
0.525626 0.0858987 0.
0.527631 0.0859503 0.
0.529638 0.0859871 0.
0.531644 0.0860238 0.
0.533651 0.0860598 0.
0.535659 0.0860929 0.
0.537667 0.086126 0.
0.539676 0.0861606 0.
0.541686 0.0861969 0.
0.543696 0.0862333 0.
0.545707 0.0862754 0.
0.547717 0.0863196 0.
0.549728 0.0863637 0.
0.551739 0.0864085 0.
0.553751 0.0864533 0.
0.555762 0.0864946 0.
0.557775 0.0865195 0.
0.559787 0.0865445 0.
0.5618 0.0865693 0.
0.563812 0.0865937 0.
0.565825 0.086618 0.
0.567838 0.0866429 0.
0.56985 0.0866681 0.
0.571862 0.0866932 0.
0.573874 0.0867164 0.
0.575885 0.0867393 0.
0.577897 0.0867612 0.
0.579908 0.0867727 0.
0.581919 0.0867842 0.
0.583929 0.086795 0.
0.58594 0.0868041 0.
0.58795 0.0868133 0.
0.589959 0.0868208 0.
0.591969 0.086827 0.
0.593978 0.0868331 0.
0.595986 0.0868351 0.
0.597995 0.0868358 0.
0.600003 0.0868365 0.
0.602012 0.0868323 0.
0.604021 0.0868281 0.
0.60603 0.0868233 0.
0.60804 0.0868163 0.
0.610049 0.0868093 0.
0.61206 0.0868011 0.
0.61407 0.0867916 0.
0.616081 0.086782 0.
0.618092 0.0867706 0.
0.620103 0.0867584 0.
0.622115 0.0867461 0.
0.624127 0.0867221 0.
0.626139 0.086697 0.
0.628151 0.0866717 0.
0.630163 0.0866444 0.
0.632175 0.0866172 0.
0.634188 0.0865905 0.
0.6362 0.0865647 0.
0.638213 0.086539 0.
0.640226 0.0865131 0.
0.642238 0.0864872 0.
0.64425 0.0864613 0.
0.646261 0.0864182 0.
0.648272 0.0863715 0.
0.650283 0.0863248 0.
0.652293 0.0862803 0.
0.654303 0.0862358 0.
0.656313 0.0861932 0.
0.658323 0.0861555 0.
0.660332 0.0861179 0.
0.662341 0.0860822 0.
0.664348 0.0860484 0.
0.666356 0.0860146 0.
0.668363 0.0859779 0.
0.670368 0.0859408 0.
0.672374 0.0859035 0.
0.674379 0.0858525 0.
0.676384 0.0858008 0.
0.678389 0.0857488 0.
0.680394 0.0856937 0.
0.682398 0.0856386 0.
0.684403 0.0855887 0.
0.686408 0.0855465 0.
0.688412 0.0855043 0.
0.690417 0.0854681 0.
0.692422 0.0854351 0.
0.694427 0.0854022 0.
0.696433 0.0853904 0.
0.698439 0.0853813 0.
0.499594 0.087364 0.
0.501599 0.0873866 0.
0.503604 0.0874111 0.
0.505609 0.0874368 0.
0.507611 0.0874724 0.
0.509614 0.087508 0.
0.511617 0.0875461 0.
0.51362 0.0875885 0.
0.515623 0.087631 0.
0.517626 0.0876813 0.
0.519628 0.0877368 0.
0.521631 0.0877923 0.
0.523634 0.0878443 0.
0.525637 0.0878959 0.
0.52764 0.0879466 0.
0.529645 0.0879826 0.
0.53165 0.0880184 0.
0.533656 0.0880538 0.
0.535662 0.0880862 0.
0.537669 0.0881186 0.
0.539677 0.0881526 0.
0.541686 0.0881884 0.
0.543694 0.0882241 0.
0.545704 0.0882658 0.
0.547714 0.0883098 0.
0.549723 0.0883538 0.
0.551734 0.088398 0.
0.553745 0.0884421 0.
0.555755 0.0884828 0.
0.557767 0.0885075 0.
0.559779 0.0885322 0.
0.561792 0.0885568 0.
0.563804 0.0885812 0.
0.565817 0.0886055 0.
0.567829 0.0886306 0.
0.569841 0.088656 0.
0.571853 0.0886813 0.
0.573865 0.0887047 0.
0.575877 0.0887278 0.
0.577889 0.08875 0.
0.5799 0.0887616 0.
0.581912 0.0887732 0.
0.583923 0.0887842 0.
0.585934 0.0887935 0.
0.587945 0.0888029 0.
0.589956 0.0888108 0.
0.591966 0.0888175 0.
0.593976 0.0888241 0.
0.595985 0.0888262 0.
0.597995 0.0888269 0.
0.600004 0.0888276 0.
0.602013 0.0888232 0.
0.604023 0.0888187 0.
0.606033 0.0888136 0.
0.608043 0.0888063 0.
0.610054 0.0887989 0.
0.612065 0.0887905 0.
0.614076 0.0887807 0.
0.616087 0.0887709 0.
0.618099 0.0887593 0.
0.620111 0.0887469 0.
0.622123 0.0887344 0.
0.624135 0.0887103 0.
0.626147 0.0886851 0.
0.628159 0.0886596 0.
0.630172 0.0886322 0.
0.632184 0.0886048 0.
0.634196 0.088578 0.
0.636208 0.0885523 0.
0.638221 0.0885266 0.
0.640233 0.088501 0.
0.642244 0.0884755 0.
0.644256 0.08845 0.
0.646266 0.0884075 0.
0.648277 0.0883614 0.
0.650287 0.0883153 0.
0.652296 0.0882711 0.
0.654305 0.0882268 0.
0.656314 0.0881846 0.
0.658322 0.0881476 0.
0.660331 0.0881106 0.
0.662338 0.0880756 0.
0.664344 0.0880423 0.
0.66635 0.0880091 0.
0.668355 0.0879732 0.
0.670359 0.0879369 0.
0.672364 0.0879004 0.
0.674367 0.0878501 0.
0.67637 0.087799 0.
0.678372 0.0877474 0.
0.680375 0.087692 0.
0.682378 0.0876366 0.
0.68438 0.0875864 0.
0.686383 0.0875441 0.
0.688386 0.0875018 0.
0.69039 0.0874655 0.
0.692393 0.0874324 0.
0.694397 0.0873994 0.
0.696401 0.0873867 0.
0.698406 0.0873768 0.
0.499625 0.0893591 0.
0.501629 0.0893829 0.
0.503633 0.0894085 0.
0.505636 0.0894352 0.
0.507637 0.0894708 0.
0.509639 0.0895064 0.
0.51164 0.0895445 0.
0.513641 0.089587 0.
0.515642 0.0896294 0.
0.517643 0.08968 0.
0.519643 0.0897357 0.
0.521644 0.0897915 0.
0.523645 0.0898429 0.
0.525647 0.0898937 0.
0.527648 0.0899436 0.
0.529652 0.0899788 0.
0.531655 0.0900138 0.
0.533659 0.0900484 0.
0.535665 0.0900802 0.
0.53767 0.0901121 0.
0.539677 0.0901454 0.
0.541685 0.0901805 0.
0.543692 0.0902156 0.
0.545701 0.090257 0.
0.54771 0.0903008 0.
0.549718 0.0903446 0.
0.551729 0.0903881 0.
0.553739 0.0904315 0.
0.555749 0.0904716 0.
0.557761 0.090496 0.
0.559772 0.0905204 0.
0.561784 0.0905447 0.
0.563797 0.090569 0.
0.565809 0.0905933 0.
0.567821 0.0906184 0.
0.569833 0.0906439 0.
0.571845 0.0906694 0.
0.573857 0.090693 0.
0.57587 0.0907162 0.
0.577882 0.0907385 0.
0.579894 0.0907502 0.
0.581906 0.0907619 0.
0.583917 0.0907729 0.
0.585929 0.0907825 0.
0.587941 0.0907921 0.
0.589952 0.0908003 0.
0.591963 0.0908075 0.
0.593974 0.0908146 0.
0.595984 0.0908168 0.
0.597994 0.0908176 0.
0.600004 0.0908184 0.
0.602015 0.0908136 0.
0.604025 0.0908088 0.
0.606035 0.0908034 0.
0.608046 0.0907958 0.
0.610058 0.0907883 0.
0.612069 0.0907796 0.
0.614081 0.0907695 0.
0.616093 0.0907595 0.
0.618105 0.0907477 0.
0.620118 0.0907351 0.
0.62213 0.0907225 0.
0.624142 0.0906983 0.
0.626155 0.0906731 0.
0.628167 0.0906476 0.
0.63018 0.0906201 0.
0.632192 0.0905927 0.
0.634204 0.0905659 0.
0.636216 0.0905403 0.
0.638228 0.0905148 0.
0.640239 0.0904895 0.
0.642251 0.0904644 0.
0.644262 0.0904393 0.
0.646272 0.0903974 0.
0.648281 0.090352 0.
0.650291 0.0903066 0.
0.652299 0.0902626 0.
0.654308 0.0902186 0.
0.656316 0.0901768 0.
0.658323 0.0901404 0.
0.660329 0.090104 0.
0.662335 0.0900696 0.
0.66434 0.090037 0.
0.666345 0.0900044 0.
0.668349 0.0899692 0.
0.670351 0.0899337 0.
0.672354 0.089898 0.
0.674355 0.0898483 0.
0.676356 0.0897979 0.
0.678357 0.0897468 0.
0.680358 0.0896911 0.
0.682359 0.0896353 0.
0.68436 0.0895848 0.
0.686361 0.0895425 0.
0.688362 0.0895001 0.
0.690364 0.0894635 0.
0.692366 0.0894303 0.
0.694368 0.0893971 0.
0.696372 0.0893835 0.
0.698376 0.0893728 0.
0.499644 0.0913564 0.
0.501647 0.0913816 0.
0.503649 0.0914085 0.
0.505651 0.0914365 0.
0.507651 0.0914722 0.
0.509652 0.0915079 0.
0.511651 0.0915461 0.
0.513651 0.0915886 0.
0.515651 0.091631 0.
0.51765 0.0916817 0.
0.51965 0.0917376 0.
0.521649 0.0917935 0.
0.52365 0.0918443 0.
0.52565 0.0918943 0.
0.527651 0.0919435 0.
0.529653 0.0919776 0.
0.531656 0.0920116 0.
0.533659 0.0920452 0.
0.535664 0.0920764 0.
0.537669 0.0921076 0.
0.539675 0.0921403 0.
0.541682 0.0921747 0.
0.543689 0.092209 0.
0.545697 0.09225 0.
0.547705 0.0922934 0.
0.549714 0.0923368 0.
0.551723 0.0923795 0.
0.553733 0.0924221 0.
0.555743 0.0924614 0.
0.557755 0.0924854 0.
0.559766 0.0925093 0.
0.561778 0.0925333 0.
0.56379 0.0925574 0.
0.565802 0.0925814 0.
0.567814 0.0926065 0.
0.569826 0.092632 0.
0.571838 0.0926574 0.
0.573851 0.092681 0.
0.575863 0.0927042 0.
0.577875 0.0927265 0.
0.579888 0.0927382 0.
0.5819 0.0927499 0.
0.583912 0.092761 0.
0.585925 0.0927707 0.
0.587937 0.0927805 0.
0.589949 0.0927891 0.
0.59196 0.0927967 0.
0.593972 0.0928044 0.
0.595983 0.0928068 0.
0.597994 0.0928077 0.
0.600005 0.0928086 0.
0.602016 0.0928035 0.
0.604027 0.0927983 0.
0.606038 0.0927926 0.
0.60805 0.0927848 0.
0.610061 0.0927771 0.
0.612073 0.0927682 0.
0.614086 0.0927579 0.
0.616098 0.0927476 0.
0.618111 0.0927356 0.
0.620123 0.0927228 0.
0.622136 0.0927101 0.
0.624149 0.092686 0.
0.626161 0.092661 0.
0.628174 0.0926357 0.
0.630186 0.0926083 0.
0.632198 0.0925809 0.
0.63421 0.0925543 0.
0.636222 0.092529 0.
0.638234 0.0925038 0.
0.640245 0.0924789 0.
0.642256 0.0924543 0.
0.644267 0.0924296 0.
0.646277 0.0923885 0.
0.648286 0.092344 0.
0.650295 0.0922995 0.
0.652303 0.0922559 0.
0.654311 0.0922124 0.
0.656318 0.0921711 0.
0.658324 0.0921354 0.
0.660331 0.0920997 0.
0.662336 0.0920659 0.
0.66434 0.0920339 0.
0.666344 0.0920019 0.
0.668347 0.0919677 0.
0.670349 0.0919331 0.
0.672351 0.0918985 0.
0.674351 0.0918495 0.
0.676351 0.0917998 0.
0.678351 0.0917492 0.
0.68035 0.0916931 0.
0.68235 0.0916371 0.
0.68435 0.0915863 0.
0.686349 0.0915439 0.
0.688349 0.0915014 0.
0.69035 0.0914646 0.
0.692351 0.0914311 0.
0.694352 0.0913977 0.
0.696354 0.0913831 0.
0.698357 0.0913714 0.
0.499662 0.093354 0.
0.501663 0.0933805 0.
0.503665 0.0934088 0.
0.505666 0.0934379 0.
0.507665 0.0934737 0.
0.509664 0.0935096 0.
0.511662 0.0935478 0.
0.513661 0.0935902 0.
0.515659 0.0936326 0.
0.517658 0.0936834 0.
0.519656 0.0937395 0.
0.521655 0.0937955 0.
0.523654 0.0938458 0.
0.525653 0.093895 0.
0.527653 0.0939434 0.
0.529655 0.0939765 0.
0.531657 0.0940094 0.
0.533659 0.094042 0.
0.535664 0.0940726 0.
0.537668 0.0941032 0.
0.539673 0.0941352 0.
0.54168 0.0941688 0.
0.543686 0.0942024 0.
0.545693 0.0942429 0.
0.547701 0.094286 0.
0.549709 0.0943291 0.
0.551718 0.0943709 0.
0.553728 0.0944126 0.
0.555737 0.0944512 0.
0.557749 0.0944748 0.
0.55976 0.0944983 0.
0.561771 0.0945219 0.
0.563783 0.0945458 0.
0.565795 0.0945696 0.
0.567807 0.0945945 0.
0.569819 0.09462 0.
0.571831 0.0946455 0.
0.573844 0.094669 0.
0.575856 0.0946923 0.
0.577869 0.0947146 0.
0.579882 0.0947263 0.
0.581894 0.094738 0.
0.583907 0.0947491 0.
0.58592 0.094759 0.
0.587933 0.0947689 0.
0.589946 0.0947779 0.
0.591958 0.094786 0.
0.59397 0.0947942 0.
0.595982 0.0947968 0.
0.597994 0.0947978 0.
0.600006 0.0947988 0.
0.602017 0.0947933 0.
0.604029 0.0947878 0.
0.60604 0.0947817 0.
0.608053 0.0947739 0.
0.610065 0.094766 0.
0.612077 0.0947569 0.
0.61409 0.0947462 0.
0.616103 0.0947356 0.
0.618116 0.0947234 0.
0.620129 0.0947106 0.
0.622142 0.0946977 0.
0.624155 0.0946738 0.
0.626168 0.0946489 0.
0.628181 0.0946237 0.
0.630193 0.0945965 0.
0.632205 0.0945692 0.
0.634217 0.0945427 0.
0.636229 0.0945178 0.
0.63824 0.0944928 0.
0.640251 0.0944683 0.
0.642262 0.0944441 0.
0.644273 0.0944199 0.
0.646282 0.0943797 0.
0.648291 0.0943361 0.
0.6503 0.0942924 0.
0.652307 0.0942493 0.
0.654314 0.0942062 0.
0.656321 0.0941654 0.
0.658326 0.0941304 0.
0.660332 0.0940953 0.
0.662336 0.0940622 0.
0.66434 0.0940308 0.
0.666343 0.0939994 0.
0.668345 0.0939661 0.
0.670347 0.0939326 0.
0.672348 0.093899 0.
0.674347 0.0938507 0.
0.676346 0.0938017 0.
0.678345 0.0937516 0.
0.680343 0.0936953 0.
0.682342 0.0936389 0.
0.68434 0.093588 0.
0.686339 0.0935454 0.
0.688338 0.0935029 0.
0.690337 0.0934659 0.
0.692336 0.0934322 0.
0.694336 0.0933984 0.
0.696337 0.0933828 0.
0.698339 0.0933701 0.
0.499676 0.095353 0.
0.501676 0.0953808 0.
0.503676 0.0954102 0.
0.505676 0.0954404 0.
0.507674 0.0954763 0.
0.509672 0.0955123 0.
0.511669 0.0955506 0.
0.513667 0.095593 0.
0.515664 0.0956354 0.
0.517662 0.0956863 0.
0.519659 0.0957425 0.
0.521657 0.0957986 0.
0.523655 0.0958483 0.
0.525654 0.0958968 0.
0.527653 0.0959445 0.
0.529654 0.0959764 0.
0.531655 0.0960082 0.
0.533657 0.0960397 0.
0.535661 0.0960697 0.
0.537665 0.0960997 0.
0.53967 0.096131 0.
0.541676 0.0961639 0.
0.543681 0.0961968 0.
0.545688 0.0962367 0.
0.547696 0.0962793 0.
0.549703 0.096322 0.
0.551712 0.0963628 0.
0.553722 0.0964035 0.
0.555732 0.0964411 0.
0.557743 0.0964642 0.
0.559754 0.0964874 0.
0.561765 0.0965107 0.
0.563777 0.0965343 0.
0.565789 0.0965579 0.
0.567801 0.0965826 0.
0.569813 0.096608 0.
0.571825 0.0966334 0.
0.573838 0.0966568 0.
0.575851 0.0966799 0.
0.577863 0.0967021 0.
0.579876 0.0967137 0.
0.581889 0.0967252 0.
0.583903 0.0967363 0.
0.585916 0.0967461 0.
0.587929 0.096756 0.
0.589942 0.0967651 0.
0.591955 0.0967734 0.
0.593968 0.0967818 0.
0.595981 0.0967847 0.
0.597993 0.096786 0.
0.600006 0.0967873 0.
0.602018 0.0967817 0.
0.60403 0.096776 0.
0.606043 0.0967698 0.
0.608056 0.0967617 0.
0.610068 0.0967536 0.
0.612081 0.0967443 0.
0.614094 0.0967335 0.
0.616107 0.0967228 0.
0.618121 0.0967105 0.
0.620134 0.0966975 0.
0.622148 0.0966846 0.
0.624161 0.096661 0.
0.626174 0.0966366 0.
0.628186 0.0966117 0.
0.630199 0.0965846 0.
0.632211 0.0965575 0.
0.634223 0.0965313 0.
0.636235 0.0965067 0.
0.638246 0.0964821 0.
0.640257 0.096458 0.
0.642268 0.0964342 0.
0.644278 0.0964104 0.
0.646287 0.0963711 0.
0.648296 0.0963286 0.
0.650305 0.096286 0.
0.652312 0.0962434 0.
0.654319 0.0962008 0.
0.656325 0.0961605 0.
0.65833 0.0961262 0.
0.660335 0.0960919 0.
0.662339 0.0960594 0.
0.664342 0.0960287 0.
0.666345 0.095998 0.
0.668346 0.0959657 0.
0.670347 0.0959332 0.
0.672348 0.0959005 0.
0.674346 0.0958529 0.
0.676344 0.0958046 0.
0.678342 0.095755 0.
0.68034 0.0956984 0.
0.682337 0.0956419 0.
0.684334 0.0955907 0.
0.686332 0.0955481 0.
0.68833 0.0955055 0.
0.690328 0.0954684 0.
0.692326 0.0954344 0.
0.694324 0.0954004 0.
0.696324 0.0953838 0.
0.698325 0.0953701 0.
0.499687 0.0973531 0.
0.501686 0.097382 0.
0.503685 0.0974126 0.
0.505683 0.0974438 0.
0.50768 0.0974798 0.
0.509677 0.0975158 0.
0.511674 0.0975541 0.
0.513671 0.0975965 0.
0.515667 0.0976388 0.
0.517664 0.0976897 0.
0.519661 0.097746 0.
0.521658 0.0978022 0.
0.523655 0.0978513 0.
0.525653 0.0978991 0.
0.527651 0.0979461 0.
0.529652 0.0979768 0.
0.531653 0.0980073 0.
0.533655 0.0980377 0.
0.535658 0.0980671 0.
0.537661 0.0980964 0.
0.539666 0.0981271 0.
0.541671 0.0981593 0.
0.543677 0.0981915 0.
0.545683 0.0982308 0.
0.54769 0.0982729 0.
0.549697 0.098315 0.
0.551707 0.0983548 0.
0.553716 0.0983944 0.
0.555726 0.098431 0.
0.557737 0.0984538 0.
0.559748 0.0984766 0.
0.561759 0.0984995 0.
0.563771 0.0985229 0.
0.565783 0.0985462 0.
0.567795 0.0985708 0.
0.569807 0.0985961 0.
0.57182 0.0986213 0.
0.573832 0.0986446 0.
0.575845 0.0986675 0.
0.577858 0.0986895 0.
0.579871 0.098701 0.
0.581885 0.0987124 0.
0.583898 0.0987233 0.
0.585912 0.0987332 0.
0.587925 0.098743 0.
0.589939 0.0987521 0.
0.591953 0.0987607 0.
0.593966 0.0987692 0.
0.59598 0.0987724 0.
0.597993 0.098774 0.
0.600006 0.0987756 0.
0.602019 0.0987699 0.
0.604032 0.0987641 0.
0.606045 0.0987577 0.
0.608058 0.0987495 0.
0.610072 0.0987412 0.
0.612085 0.0987317 0.
0.614098 0.0987208 0.
0.616112 0.0987098 0.
0.618126 0.0986975 0.
0.620139 0.0986845 0.
0.622153 0.0986715 0.
0.624166 0.0986483 0.
0.626179 0.0986242 0.
0.628192 0.0985997 0.
0.630204 0.0985728 0.
0.632217 0.0985459 0.
0.634229 0.09852 0.
0.63624 0.0984958 0.
0.638252 0.0984715 0.
0.640263 0.0984478 0.
0.642273 0.0984244 0.
0.644284 0.0984009 0.
0.646293 0.0983627 0.
0.648302 0.0983214 0.
0.650311 0.0982798 0.
0.652317 0.0982378 0.
0.654323 0.0981956 0.
0.656329 0.098156 0.
0.658334 0.0981224 0.
0.660338 0.0980887 0.
0.662342 0.098057 0.
0.664344 0.098027 0.
0.666347 0.097997 0.
0.668348 0.0979657 0.
0.670348 0.0979342 0.
0.672348 0.0979026 0.
0.674346 0.0978557 0.
0.676343 0.097808 0.
0.678341 0.0977589 0.
0.680337 0.0977021 0.
0.682334 0.0976454 0.
0.68433 0.0975942 0.
0.686327 0.0975516 0.
0.688324 0.097509 0.
0.690321 0.0974717 0.
0.692318 0.0974375 0.
0.694316 0.0974034 0.
0.696315 0.0973858 0.
0.698314 0.097371 0.
CELLS 5000 10000
1 0
1 1
1 2
1 3
1 4
1 5
1 6
1 7
1 8
1 9
1 10
1 11
1 12
1 13
1 14
1 15
1 16
1 17
1 18
1 19
1 20
1 21
1 22
1 23
1 24
1 25
1 26
1 27
1 28
1 29
1 30
1 31
1 32
1 33
1 34
1 35
1 36
1 37
1 38
1 39
1 40
1 41
1 42
1 43
1 44
1 45
1 46
1 47
1 48
1 49
1 50
1 51
1 52
1 53
1 54
1 55
1 56
1 57
1 58
1 59
1 60
1 61
1 62
1 63
1 64
1 65
1 66
1 67
1 68
1 69
1 70
1 71
1 72
1 73
1 74
1 75
1 76
1 77
1 78
1 79
1 80
1 81
1 82
1 83
1 84
1 85
1 86
1 87
1 88
1 89
1 90
1 91
1 92
1 93
1 94
1 95
1 96
1 97
1 98
1 99
1 100
1 101
1 102
1 103
1 104
1 105
1 106
1 107
1 108
1 109
1 110
1 111
1 112
1 113
1 114
1 115
1 116
1 117
1 118
1 119
1 120
1 121
1 122
1 123
1 124
1 125
1 126
1 127
1 128
1 129
1 130
1 131
1 132
1 133
1 134
1 135
1 136
1 137
1 138
1 139
1 140
1 141
1 142
1 143
1 144
1 145
1 146
1 147
1 148
1 149
1 150
1 151
1 152
1 153
1 154
1 155
1 156
1 157
1 158
1 159
1 160
1 161
1 162
1 163
1 164
1 165
1 166
1 167
1 168
1 169
1 170
1 171
1 172
1 173
1 174
1 175
1 176
1 177
1 178
1 179
1 180
1 181
1 182
1 183
1 184
1 185
1 186
1 187
1 188
1 189
1 190
1 191
1 192
1 193
1 194
1 195
1 196
1 197
1 198
1 199
1 200
1 201
1 202
1 203
1 204
1 205
1 206
1 207
1 208
1 209
1 210
1 211
1 212
1 213
1 214
1 215
1 216
1 217
1 218
1 219
1 220
1 221
1 222
1 223
1 224
1 225
1 226
1 227
1 228
1 229
1 230
1 231
1 232
1 233
1 234
1 235
1 236
1 237
1 238
1 239
1 240
1 241
1 242
1 243
1 244
1 245
1 246
1 247
1 248
1 249
1 250
1 251
1 252
1 253
1 254
1 255
1 256
1 257
1 258
1 259
1 260
1 261
1 262
1 263
1 264
1 265
1 266
1 267
1 268
1 269
1 270
1 271
1 272
1 273
1 274
1 275
1 276
1 277
1 278
1 279
1 280
1 281
1 282
1 283
1 284
1 285
1 286
1 287
1 288
1 289
1 290
1 291
1 292
1 293
1 294
1 295
1 296
1 297
1 298
1 299
1 300
1 301
1 302
1 303
1 304
1 305
1 306
1 307
1 308
1 309
1 310
1 311
1 312
1 313
1 314
1 315
1 316
1 317
1 318
1 319
1 320
1 321
1 322
1 323
1 324
1 325
1 326
1 327
1 328
1 329
1 330
1 331
1 332
1 333
1 334
1 335
1 336
1 337
1 338
1 339
1 340
1 341
1 342
1 343
1 344
1 345
1 346
1 347
1 348
1 349
1 350
1 351
1 352
1 353
1 354
1 355
1 356
1 357
1 358
1 359
1 360
1 361
1 362
1 363
1 364
1 365
1 366
1 367
1 368
1 369
1 370
1 371
1 372
1 373
1 374
1 375
1 376
1 377
1 378
1 379
1 380
1 381
1 382
1 383
1 384
1 385
1 386
1 387
1 388
1 389
1 390
1 391
1 392
1 393
1 394
1 395
1 396
1 397
1 398
1 399
1 400
1 401
1 402
1 403
1 404
1 405
1 406
1 407
1 408
1 409
1 410
1 411
1 412
1 413
1 414
1 415
1 416
1 417
1 418
1 419
1 420
1 421
1 422
1 423
1 424
1 425
1 426
1 427
1 428
1 429
1 430
1 431
1 432
1 433
1 434
1 435
1 436
1 437
1 438
1 439
1 440
1 441
1 442
1 443
1 444
1 445
1 446
1 447
1 448
1 449
1 450
1 451
1 452
1 453
1 454
1 455
1 456
1 457
1 458
1 459
1 460
1 461
1 462
1 463
1 464
1 465
1 466
1 467
1 468
1 469
1 470
1 471
1 472
1 473
1 474
1 475
1 476
1 477
1 478
1 479
1 480
1 481
1 482
1 483
1 484
1 485
1 486
1 487
1 488
1 489
1 490
1 491
1 492
1 493
1 494
1 495
1 496
1 497
1 498
1 499
1 500
1 501
1 502
1 503
1 504
1 505
1 506
1 507
1 508
1 509
1 510
1 511
1 512
1 513
1 514
1 515
1 516
1 517
1 518
1 519
1 520
1 521
1 522
1 523
1 524
1 525
1 526
1 527
1 528
1 529
1 530
1 531
1 532
1 533
1 534
1 535
1 536
1 537
1 538
1 539
1 540
1 541
1 542
1 543
1 544
1 545
1 546
1 547
1 548
1 549
1 550
1 551
1 552
1 553
1 554
1 555
1 556
1 557
1 558
1 559
1 560
1 561
1 562
1 563
1 564
1 565
1 566
1 567
1 568
1 569
1 570
1 571
1 572
1 573
1 574
1 575
1 576
1 577
1 578
1 579
1 580
1 581
1 582
1 583
1 584
1 585
1 586
1 587
1 588
1 589
1 590
1 591
1 592
1 593
1 594
1 595
1 596
1 597
1 598
1 599
1 600
1 601
1 602
1 603
1 604
1 605
1 606
1 607
1 608
1 609
1 610
1 611
1 612
1 613
1 614
1 615
1 616
1 617
1 618
1 619
1 620
1 621
1 622
1 623
1 624
1 625
1 626
1 627
1 628
1 629
1 630
1 631
1 632
1 633
1 634
1 635
1 636
1 637
1 638
1 639
1 640
1 641
1 642
1 643
1 644
1 645
1 646
1 647
1 648
1 649
1 650
1 651
1 652
1 653
1 654
1 655
1 656
1 657
1 658
1 659
1 660
1 661
1 662
1 663
1 664
1 665
1 666
1 667
1 668
1 669
1 670
1 671
1 672
1 673
1 674
1 675
1 676
1 677
1 678
1 679
1 680
1 681
1 682
1 683
1 684
1 685
1 686
1 687
1 688
1 689
1 690
1 691
1 692
1 693
1 694
1 695
1 696
1 697
1 698
1 699
1 700
1 701
1 702
1 703
1 704
1 705
1 706
1 707
1 708
1 709
1 710
1 711
1 712
1 713
1 714
1 715
1 716
1 717
1 718
1 719
1 720
1 721
1 722
1 723
1 724
1 725
1 726
1 727
1 728
1 729
1 730
1 731
1 732
1 733
1 734
1 735
1 736
1 737
1 738
1 739
1 740
1 741
1 742
1 743
1 744
1 745
1 746
1 747
1 748
1 749
1 750
1 751
1 752
1 753
1 754
1 755
1 756
1 757
1 758
1 759
1 760
1 761
1 762
1 763
1 764
1 765
1 766
1 767
1 768
1 769
1 770
1 771
1 772
1 773
1 774
1 775
1 776
1 777
1 778
1 779
1 780
1 781
1 782
1 783
1 784
1 785
1 786
1 787
1 788
1 789
1 790
1 791
1 792
1 793
1 794
1 795
1 796
1 797
1 798
1 799
1 800
1 801
1 802
1 803
1 804
1 805
1 806
1 807
1 808
1 809
1 810
1 811
1 812
1 813
1 814
1 815
1 816
1 817
1 818
1 819
1 820
1 821
1 822
1 823
1 824
1 825
1 826
1 827
1 828
1 829
1 830
1 831
1 832
1 833
1 834
1 835
1 836
1 837
1 838
1 839
1 840
1 841
1 842
1 843
1 844
1 845
1 846
1 847
1 848
1 849
1 850
1 851
1 852
1 853
1 854
1 855
1 856
1 857
1 858
1 859
1 860
1 861
1 862
1 863
1 864
1 865
1 866
1 867
1 868
1 869
1 870
1 871
1 872
1 873
1 874
1 875
1 876
1 877
1 878
1 879
1 880
1 881
1 882
1 883
1 884
1 885
1 886
1 887
1 888
1 889
1 890
1 891
1 892
1 893
1 894
1 895
1 896
1 897
1 898
1 899
1 900
1 901
1 902
1 903
1 904
1 905
1 906
1 907
1 908
1 909
1 910
1 911
1 912
1 913
1 914
1 915
1 916
1 917
1 918
1 919
1 920
1 921
1 922
1 923
1 924
1 925
1 926
1 927
1 928
1 929
1 930
1 931
1 932
1 933
1 934
1 935
1 936
1 937
1 938
1 939
1 940
1 941
1 942
1 943
1 944
1 945
1 946
1 947
1 948
1 949
1 950
1 951
1 952
1 953
1 954
1 955
1 956
1 957
1 958
1 959
1 960
1 961
1 962
1 963
1 964
1 965
1 966
1 967
1 968
1 969
1 970
1 971
1 972
1 973
1 974
1 975
1 976
1 977
1 978
1 979
1 980
1 981
1 982
1 983
1 984
1 985
1 986
1 987
1 988
1 989
1 990
1 991
1 992
1 993
1 994
1 995
1 996
1 997
1 998
1 999
1 1000
1 1001
1 1002
1 1003
1 1004
1 1005
1 1006
1 1007
1 1008
1 1009
1 1010
1 1011
1 1012
1 1013
1 1014
1 1015
1 1016
1 1017
1 1018
1 1019
1 1020
1 1021
1 1022
1 1023
1 1024
1 1025
1 1026
1 1027
1 1028
1 1029
1 1030
1 1031
1 1032
1 1033
1 1034
1 1035
1 1036
1 1037
1 1038
1 1039
1 1040
1 1041
1 1042
1 1043
1 1044
1 1045
1 1046
1 1047
1 1048
1 1049
1 1050
1 1051
1 1052
1 1053
1 1054
1 1055
1 1056
1 1057
1 1058
1 1059
1 1060
1 1061
1 1062
1 1063
1 1064
1 1065
1 1066
1 1067
1 1068
1 1069
1 1070
1 1071
1 1072
1 1073
1 1074
1 1075
1 1076
1 1077
1 1078
1 1079
1 1080
1 1081
1 1082
1 1083
1 1084
1 1085
1 1086
1 1087
1 1088
1 1089
1 1090
1 1091
1 1092
1 1093
1 1094
1 1095
1 1096
1 1097
1 1098
1 1099
1 1100
1 1101
1 1102
1 1103
1 1104
1 1105
1 1106
1 1107
1 1108
1 1109
1 1110
1 1111
1 1112
1 1113
1 1114
1 1115
1 1116
1 1117
1 1118
1 1119
1 1120
1 1121
1 1122
1 1123
1 1124
1 1125
1 1126
1 1127
1 1128
1 1129
1 1130
1 1131
1 1132
1 1133
1 1134
1 1135
1 1136
1 1137
1 1138
1 1139
1 1140
1 1141
1 1142
1 1143
1 1144
1 1145
1 1146
1 1147
1 1148
1 1149
1 1150
1 1151
1 1152
1 1153
1 1154
1 1155
1 1156
1 1157
1 1158
1 1159
1 1160
1 1161
1 1162
1 1163
1 1164
1 1165
1 1166
1 1167
1 1168
1 1169
1 1170
1 1171
1 1172
1 1173
1 1174
1 1175
1 1176
1 1177
1 1178
1 1179
1 1180
1 1181
1 1182
1 1183
1 1184
1 1185
1 1186
1 1187
1 1188
1 1189
1 1190
1 1191
1 1192
1 1193
1 1194
1 1195
1 1196
1 1197
1 1198
1 1199
1 1200
1 1201
1 1202
1 1203
1 1204
1 1205
1 1206
1 1207
1 1208
1 1209
1 1210
1 1211
1 1212
1 1213
1 1214
1 1215
1 1216
1 1217
1 1218
1 1219
1 1220
1 1221
1 1222
1 1223
1 1224
1 1225
1 1226
1 1227
1 1228
1 1229
1 1230
1 1231
1 1232
1 1233
1 1234
1 1235
1 1236
1 1237
1 1238
1 1239
1 1240
1 1241
1 1242
1 1243
1 1244
1 1245
1 1246
1 1247
1 1248
1 1249
1 1250
1 1251
1 1252
1 1253
1 1254
1 1255
1 1256
1 1257
1 1258
1 1259
1 1260
1 1261
1 1262
1 1263
1 1264
1 1265
1 1266
1 1267
1 1268
1 1269
1 1270
1 1271
1 1272
1 1273
1 1274
1 1275
1 1276
1 1277
1 1278
1 1279
1 1280
1 1281
1 1282
1 1283
1 1284
1 1285
1 1286
1 1287
1 1288
1 1289
1 1290
1 1291
1 1292
1 1293
1 1294
1 1295
1 1296
1 1297
1 1298
1 1299
1 1300
1 1301
1 1302
1 1303
1 1304
1 1305
1 1306
1 1307
1 1308
1 1309
1 1310
1 1311
1 1312
1 1313
1 1314
1 1315
1 1316
1 1317
1 1318
1 1319
1 1320
1 1321
1 1322
1 1323
1 1324
1 1325
1 1326
1 1327
1 1328
1 1329
1 1330
1 1331
1 1332
1 1333
1 1334
1 1335
1 1336
1 1337
1 1338
1 1339
1 1340
1 1341
1 1342
1 1343
1 1344
1 1345
1 1346
1 1347
1 1348
1 1349
1 1350
1 1351
1 1352
1 1353
1 1354
1 1355
1 1356
1 1357
1 1358
1 1359
1 1360
1 1361
1 1362
1 1363
1 1364
1 1365
1 1366
1 1367
1 1368
1 1369
1 1370
1 1371
1 1372
1 1373
1 1374
1 1375
1 1376
1 1377
1 1378
1 1379
1 1380
1 1381
1 1382
1 1383
1 1384
1 1385
1 1386
1 1387
1 1388
1 1389
1 1390
1 1391
1 1392
1 1393
1 1394
1 1395
1 1396
1 1397
1 1398
1 1399
1 1400
1 1401
1 1402
1 1403
1 1404
1 1405
1 1406
1 1407
1 1408
1 1409
1 1410
1 1411
1 1412
1 1413
1 1414
1 1415
1 1416
1 1417
1 1418
1 1419
1 1420
1 1421
1 1422
1 1423
1 1424
1 1425
1 1426
1 1427
1 1428
1 1429
1 1430
1 1431
1 1432
1 1433
1 1434
1 1435
1 1436
1 1437
1 1438
1 1439
1 1440
1 1441
1 1442
1 1443
1 1444
1 1445
1 1446
1 1447
1 1448
1 1449
1 1450
1 1451
1 1452
1 1453
1 1454
1 1455
1 1456
1 1457
1 1458
1 1459
1 1460
1 1461
1 1462
1 1463
1 1464
1 1465
1 1466
1 1467
1 1468
1 1469
1 1470
1 1471
1 1472
1 1473
1 1474
1 1475
1 1476
1 1477
1 1478
1 1479
1 1480
1 1481
1 1482
1 1483
1 1484
1 1485
1 1486
1 1487
1 1488
1 1489
1 1490
1 1491
1 1492
1 1493
1 1494
1 1495
1 1496
1 1497
1 1498
1 1499
1 1500
1 1501
1 1502
1 1503
1 1504
1 1505
1 1506
1 1507
1 1508
1 1509
1 1510
1 1511
1 1512
1 1513
1 1514
1 1515
1 1516
1 1517
1 1518
1 1519
1 1520
1 1521
1 1522
1 1523
1 1524
1 1525
1 1526
1 1527
1 1528
1 1529
1 1530
1 1531
1 1532
1 1533
1 1534
1 1535
1 1536
1 1537
1 1538
1 1539
1 1540
1 1541
1 1542
1 1543
1 1544
1 1545
1 1546
1 1547
1 1548
1 1549
1 1550
1 1551
1 1552
1 1553
1 1554
1 1555
1 1556
1 1557
1 1558
1 1559
1 1560
1 1561
1 1562
1 1563
1 1564
1 1565
1 1566
1 1567
1 1568
1 1569
1 1570
1 1571
1 1572
1 1573
1 1574
1 1575
1 1576
1 1577
1 1578
1 1579
1 1580
1 1581
1 1582
1 1583
1 1584
1 1585
1 1586
1 1587
1 1588
1 1589
1 1590
1 1591
1 1592
1 1593
1 1594
1 1595
1 1596
1 1597
1 1598
1 1599
1 1600
1 1601
1 1602
1 1603
1 1604
1 1605
1 1606
1 1607
1 1608
1 1609
1 1610
1 1611
1 1612
1 1613
1 1614
1 1615
1 1616
1 1617
1 1618
1 1619
1 1620
1 1621
1 1622
1 1623
1 1624
1 1625
1 1626
1 1627
1 1628
1 1629
1 1630
1 1631
1 1632
1 1633
1 1634
1 1635
1 1636
1 1637
1 1638
1 1639
1 1640
1 1641
1 1642
1 1643
1 1644
1 1645
1 1646
1 1647
1 1648
1 1649
1 1650
1 1651
1 1652
1 1653
1 1654
1 1655
1 1656
1 1657
1 1658
1 1659
1 1660
1 1661
1 1662
1 1663
1 1664
1 1665
1 1666
1 1667
1 1668
1 1669
1 1670
1 1671
1 1672
1 1673
1 1674
1 1675
1 1676
1 1677
1 1678
1 1679
1 1680
1 1681
1 1682
1 1683
1 1684
1 1685
1 1686
1 1687
1 1688
1 1689
1 1690
1 1691
1 1692
1 1693
1 1694
1 1695
1 1696
1 1697
1 1698
1 1699
1 1700
1 1701
1 1702
1 1703
1 1704
1 1705
1 1706
1 1707
1 1708
1 1709
1 1710
1 1711
1 1712
1 1713
1 1714
1 1715
1 1716
1 1717
1 1718
1 1719
1 1720
1 1721
1 1722
1 1723
1 1724
1 1725
1 1726
1 1727
1 1728
1 1729
1 1730
1 1731
1 1732
1 1733
1 1734
1 1735
1 1736
1 1737
1 1738
1 1739
1 1740
1 1741
1 1742
1 1743
1 1744
1 1745
1 1746
1 1747
1 1748
1 1749
1 1750
1 1751
1 1752
1 1753
1 1754
1 1755
1 1756
1 1757
1 1758
1 1759
1 1760
1 1761
1 1762
1 1763
1 1764
1 1765
1 1766
1 1767
1 1768
1 1769
1 1770
1 1771
1 1772
1 1773
1 1774
1 1775
1 1776
1 1777
1 1778
1 1779
1 1780
1 1781
1 1782
1 1783
1 1784
1 1785
1 1786
1 1787
1 1788
1 1789
1 1790
1 1791
1 1792
1 1793
1 1794
1 1795
1 1796
1 1797
1 1798
1 1799
1 1800
1 1801
1 1802
1 1803
1 1804
1 1805
1 1806
1 1807
1 1808
1 1809
1 1810
1 1811
1 1812
1 1813
1 1814
1 1815
1 1816
1 1817
1 1818
1 1819
1 1820
1 1821
1 1822
1 1823
1 1824
1 1825
1 1826
1 1827
1 1828
1 1829
1 1830
1 1831
1 1832
1 1833
1 1834
1 1835
1 1836
1 1837
1 1838
1 1839
1 1840
1 1841
1 1842
1 1843
1 1844
1 1845
1 1846
1 1847
1 1848
1 1849
1 1850
1 1851
1 1852
1 1853
1 1854
1 1855
1 1856
1 1857
1 1858
1 1859
1 1860
1 1861
1 1862
1 1863
1 1864
1 1865
1 1866
1 1867
1 1868
1 1869
1 1870
1 1871
1 1872
1 1873
1 1874
1 1875
1 1876
1 1877
1 1878
1 1879
1 1880
1 1881
1 1882
1 1883
1 1884
1 1885
1 1886
1 1887
1 1888
1 1889
1 1890
1 1891
1 1892
1 1893
1 1894
1 1895
1 1896
1 1897
1 1898
1 1899
1 1900
1 1901
1 1902
1 1903
1 1904
1 1905
1 1906
1 1907
1 1908
1 1909
1 1910
1 1911
1 1912
1 1913
1 1914
1 1915
1 1916
1 1917
1 1918
1 1919
1 1920
1 1921
1 1922
1 1923
1 1924
1 1925
1 1926
1 1927
1 1928
1 1929
1 1930
1 1931
1 1932
1 1933
1 1934
1 1935
1 1936
1 1937
1 1938
1 1939
1 1940
1 1941
1 1942
1 1943
1 1944
1 1945
1 1946
1 1947
1 1948
1 1949
1 1950
1 1951
1 1952
1 1953
1 1954
1 1955
1 1956
1 1957
1 1958
1 1959
1 1960
1 1961
1 1962
1 1963
1 1964
1 1965
1 1966
1 1967
1 1968
1 1969
1 1970
1 1971
1 1972
1 1973
1 1974
1 1975
1 1976
1 1977
1 1978
1 1979
1 1980
1 1981
1 1982
1 1983
1 1984
1 1985
1 1986
1 1987
1 1988
1 1989
1 1990
1 1991
1 1992
1 1993
1 1994
1 1995
1 1996
1 1997
1 1998
1 1999
1 2000
1 2001
1 2002
1 2003
1 2004
1 2005
1 2006
1 2007
1 2008
1 2009
1 2010
1 2011
1 2012
1 2013
1 2014
1 2015
1 2016
1 2017
1 2018
1 2019
1 2020
1 2021
1 2022
1 2023
1 2024
1 2025
1 2026
1 2027
1 2028
1 2029
1 2030
1 2031
1 2032
1 2033
1 2034
1 2035
1 2036
1 2037
1 2038
1 2039
1 2040
1 2041
1 2042
1 2043
1 2044
1 2045
1 2046
1 2047
1 2048
1 2049
1 2050
1 2051
1 2052
1 2053
1 2054
1 2055
1 2056
1 2057
1 2058
1 2059
1 2060
1 2061
1 2062
1 2063
1 2064
1 2065
1 2066
1 2067
1 2068
1 2069
1 2070
1 2071
1 2072
1 2073
1 2074
1 2075
1 2076
1 2077
1 2078
1 2079
1 2080
1 2081
1 2082
1 2083
1 2084
1 2085
1 2086
1 2087
1 2088
1 2089
1 2090
1 2091
1 2092
1 2093
1 2094
1 2095
1 2096
1 2097
1 2098
1 2099
1 2100
1 2101
1 2102
1 2103
1 2104
1 2105
1 2106
1 2107
1 2108
1 2109
1 2110
1 2111
1 2112
1 2113
1 2114
1 2115
1 2116
1 2117
1 2118
1 2119
1 2120
1 2121
1 2122
1 2123
1 2124
1 2125
1 2126
1 2127
1 2128
1 2129
1 2130
1 2131
1 2132
1 2133
1 2134
1 2135
1 2136
1 2137
1 2138
1 2139
1 2140
1 2141
1 2142
1 2143
1 2144
1 2145
1 2146
1 2147
1 2148
1 2149
1 2150
1 2151
1 2152
1 2153
1 2154
1 2155
1 2156
1 2157
1 2158
1 2159
1 2160
1 2161
1 2162
1 2163
1 2164
1 2165
1 2166
1 2167
1 2168
1 2169
1 2170
1 2171
1 2172
1 2173
1 2174
1 2175
1 2176
1 2177
1 2178
1 2179
1 2180
1 2181
1 2182
1 2183
1 2184
1 2185
1 2186
1 2187
1 2188
1 2189
1 2190
1 2191
1 2192
1 2193
1 2194
1 2195
1 2196
1 2197
1 2198
1 2199
1 2200
1 2201
1 2202
1 2203
1 2204
1 2205
1 2206
1 2207
1 2208
1 2209
1 2210
1 2211
1 2212
1 2213
1 2214
1 2215
1 2216
1 2217
1 2218
1 2219
1 2220
1 2221
1 2222
1 2223
1 2224
1 2225
1 2226
1 2227
1 2228
1 2229
1 2230
1 2231
1 2232
1 2233
1 2234
1 2235
1 2236
1 2237
1 2238
1 2239
1 2240
1 2241
1 2242
1 2243
1 2244
1 2245
1 2246
1 2247
1 2248
1 2249
1 2250
1 2251
1 2252
1 2253
1 2254
1 2255
1 2256
1 2257
1 2258
1 2259
1 2260
1 2261
1 2262
1 2263
1 2264
1 2265
1 2266
1 2267
1 2268
1 2269
1 2270
1 2271
1 2272
1 2273
1 2274
1 2275
1 2276
1 2277
1 2278
1 2279
1 2280
1 2281
1 2282
1 2283
1 2284
1 2285
1 2286
1 2287
1 2288
1 2289
1 2290
1 2291
1 2292
1 2293
1 2294
1 2295
1 2296
1 2297
1 2298
1 2299
1 2300
1 2301
1 2302
1 2303
1 2304
1 2305
1 2306
1 2307
1 2308
1 2309
1 2310
1 2311
1 2312
1 2313
1 2314
1 2315
1 2316
1 2317
1 2318
1 2319
1 2320
1 2321
1 2322
1 2323
1 2324
1 2325
1 2326
1 2327
1 2328
1 2329
1 2330
1 2331
1 2332
1 2333
1 2334
1 2335
1 2336
1 2337
1 2338
1 2339
1 2340
1 2341
1 2342
1 2343
1 2344
1 2345
1 2346
1 2347
1 2348
1 2349
1 2350
1 2351
1 2352
1 2353
1 2354
1 2355
1 2356
1 2357
1 2358
1 2359
1 2360
1 2361
1 2362
1 2363
1 2364
1 2365
1 2366
1 2367
1 2368
1 2369
1 2370
1 2371
1 2372
1 2373
1 2374
1 2375
1 2376
1 2377
1 2378
1 2379
1 2380
1 2381
1 2382
1 2383
1 2384
1 2385
1 2386
1 2387
1 2388
1 2389
1 2390
1 2391
1 2392
1 2393
1 2394
1 2395
1 2396
1 2397
1 2398
1 2399
1 2400
1 2401
1 2402
1 2403
1 2404
1 2405
1 2406
1 2407
1 2408
1 2409
1 2410
1 2411
1 2412
1 2413
1 2414
1 2415
1 2416
1 2417
1 2418
1 2419
1 2420
1 2421
1 2422
1 2423
1 2424
1 2425
1 2426
1 2427
1 2428
1 2429
1 2430
1 2431
1 2432
1 2433
1 2434
1 2435
1 2436
1 2437
1 2438
1 2439
1 2440
1 2441
1 2442
1 2443
1 2444
1 2445
1 2446
1 2447
1 2448
1 2449
1 2450
1 2451
1 2452
1 2453
1 2454
1 2455
1 2456
1 2457
1 2458
1 2459
1 2460
1 2461
1 2462
1 2463
1 2464
1 2465
1 2466
1 2467
1 2468
1 2469
1 2470
1 2471
1 2472
1 2473
1 2474
1 2475
1 2476
1 2477
1 2478
1 2479
1 2480
1 2481
1 2482
1 2483
1 2484
1 2485
1 2486
1 2487
1 2488
1 2489
1 2490
1 2491
1 2492
1 2493
1 2494
1 2495
1 2496
1 2497
1 2498
1 2499
1 2500
1 2501
1 2502
1 2503
1 2504
1 2505
1 2506
1 2507
1 2508
1 2509
1 2510
1 2511
1 2512
1 2513
1 2514
1 2515
1 2516
1 2517
1 2518
1 2519
1 2520
1 2521
1 2522
1 2523
1 2524
1 2525
1 2526
1 2527
1 2528
1 2529
1 2530
1 2531
1 2532
1 2533
1 2534
1 2535
1 2536
1 2537
1 2538
1 2539
1 2540
1 2541
1 2542
1 2543
1 2544
1 2545
1 2546
1 2547
1 2548
1 2549
1 2550
1 2551
1 2552
1 2553
1 2554
1 2555
1 2556
1 2557
1 2558
1 2559
1 2560
1 2561
1 2562
1 2563
1 2564
1 2565
1 2566
1 2567
1 2568
1 2569
1 2570
1 2571
1 2572
1 2573
1 2574
1 2575
1 2576
1 2577
1 2578
1 2579
1 2580
1 2581
1 2582
1 2583
1 2584
1 2585
1 2586
1 2587
1 2588
1 2589
1 2590
1 2591
1 2592
1 2593
1 2594
1 2595
1 2596
1 2597
1 2598
1 2599
1 2600
1 2601
1 2602
1 2603
1 2604
1 2605
1 2606
1 2607
1 2608
1 2609
1 2610
1 2611
1 2612
1 2613
1 2614
1 2615
1 2616
1 2617
1 2618
1 2619
1 2620
1 2621
1 2622
1 2623
1 2624
1 2625
1 2626
1 2627
1 2628
1 2629
1 2630
1 2631
1 2632
1 2633
1 2634
1 2635
1 2636
1 2637
1 2638
1 2639
1 2640
1 2641
1 2642
1 2643
1 2644
1 2645
1 2646
1 2647
1 2648
1 2649
1 2650
1 2651
1 2652
1 2653
1 2654
1 2655
1 2656
1 2657
1 2658
1 2659
1 2660
1 2661
1 2662
1 2663
1 2664
1 2665
1 2666
1 2667
1 2668
1 2669
1 2670
1 2671
1 2672
1 2673
1 2674
1 2675
1 2676
1 2677
1 2678
1 2679
1 2680
1 2681
1 2682
1 2683
1 2684
1 2685
1 2686
1 2687
1 2688
1 2689
1 2690
1 2691
1 2692
1 2693
1 2694
1 2695
1 2696
1 2697
1 2698
1 2699
1 2700
1 2701
1 2702
1 2703
1 2704
1 2705
1 2706
1 2707
1 2708
1 2709
1 2710
1 2711
1 2712
1 2713
1 2714
1 2715
1 2716
1 2717
1 2718
1 2719
1 2720
1 2721
1 2722
1 2723
1 2724
1 2725
1 2726
1 2727
1 2728
1 2729
1 2730
1 2731
1 2732
1 2733
1 2734
1 2735
1 2736
1 2737
1 2738
1 2739
1 2740
1 2741
1 2742
1 2743
1 2744
1 2745
1 2746
1 2747
1 2748
1 2749
1 2750
1 2751
1 2752
1 2753
1 2754
1 2755
1 2756
1 2757
1 2758
1 2759
1 2760
1 2761
1 2762
1 2763
1 2764
1 2765
1 2766
1 2767
1 2768
1 2769
1 2770
1 2771
1 2772
1 2773
1 2774
1 2775
1 2776
1 2777
1 2778
1 2779
1 2780
1 2781
1 2782
1 2783
1 2784
1 2785
1 2786
1 2787
1 2788
1 2789
1 2790
1 2791
1 2792
1 2793
1 2794
1 2795
1 2796
1 2797
1 2798
1 2799
1 2800
1 2801
1 2802
1 2803
1 2804
1 2805
1 2806
1 2807
1 2808
1 2809
1 2810
1 2811
1 2812
1 2813
1 2814
1 2815
1 2816
1 2817
1 2818
1 2819
1 2820
1 2821
1 2822
1 2823
1 2824
1 2825
1 2826
1 2827
1 2828
1 2829
1 2830
1 2831
1 2832
1 2833
1 2834
1 2835
1 2836
1 2837
1 2838
1 2839
1 2840
1 2841
1 2842
1 2843
1 2844
1 2845
1 2846
1 2847
1 2848
1 2849
1 2850
1 2851
1 2852
1 2853
1 2854
1 2855
1 2856
1 2857
1 2858
1 2859
1 2860
1 2861
1 2862
1 2863
1 2864
1 2865
1 2866
1 2867
1 2868
1 2869
1 2870
1 2871
1 2872
1 2873
1 2874
1 2875
1 2876
1 2877
1 2878
1 2879
1 2880
1 2881
1 2882
1 2883
1 2884
1 2885
1 2886
1 2887
1 2888
1 2889
1 2890
1 2891
1 2892
1 2893
1 2894
1 2895
1 2896
1 2897
1 2898
1 2899
1 2900
1 2901
1 2902
1 2903
1 2904
1 2905
1 2906
1 2907
1 2908
1 2909
1 2910
1 2911
1 2912
1 2913
1 2914
1 2915
1 2916
1 2917
1 2918
1 2919
1 2920
1 2921
1 2922
1 2923
1 2924
1 2925
1 2926
1 2927
1 2928
1 2929
1 2930
1 2931
1 2932
1 2933
1 2934
1 2935
1 2936
1 2937
1 2938
1 2939
1 2940
1 2941
1 2942
1 2943
1 2944
1 2945
1 2946
1 2947
1 2948
1 2949
1 2950
1 2951
1 2952
1 2953
1 2954
1 2955
1 2956
1 2957
1 2958
1 2959
1 2960
1 2961
1 2962
1 2963
1 2964
1 2965
1 2966
1 2967
1 2968
1 2969
1 2970
1 2971
1 2972
1 2973
1 2974
1 2975
1 2976
1 2977
1 2978
1 2979
1 2980
1 2981
1 2982
1 2983
1 2984
1 2985
1 2986
1 2987
1 2988
1 2989
1 2990
1 2991
1 2992
1 2993
1 2994
1 2995
1 2996
1 2997
1 2998
1 2999
1 3000
1 3001
1 3002
1 3003
1 3004
1 3005
1 3006
1 3007
1 3008
1 3009
1 3010
1 3011
1 3012
1 3013
1 3014
1 3015
1 3016
1 3017
1 3018
1 3019
1 3020
1 3021
1 3022
1 3023
1 3024
1 3025
1 3026
1 3027
1 3028
1 3029
1 3030
1 3031
1 3032
1 3033
1 3034
1 3035
1 3036
1 3037
1 3038
1 3039
1 3040
1 3041
1 3042
1 3043
1 3044
1 3045
1 3046
1 3047
1 3048
1 3049
1 3050
1 3051
1 3052
1 3053
1 3054
1 3055
1 3056
1 3057
1 3058
1 3059
1 3060
1 3061
1 3062
1 3063
1 3064
1 3065
1 3066
1 3067
1 3068
1 3069
1 3070
1 3071
1 3072
1 3073
1 3074
1 3075
1 3076
1 3077
1 3078
1 3079
1 3080
1 3081
1 3082
1 3083
1 3084
1 3085
1 3086
1 3087
1 3088
1 3089
1 3090
1 3091
1 3092
1 3093
1 3094
1 3095
1 3096
1 3097
1 3098
1 3099
1 3100
1 3101
1 3102
1 3103
1 3104
1 3105
1 3106
1 3107
1 3108
1 3109
1 3110
1 3111
1 3112
1 3113
1 3114
1 3115
1 3116
1 3117
1 3118
1 3119
1 3120
1 3121
1 3122
1 3123
1 3124
1 3125
1 3126
1 3127
1 3128
1 3129
1 3130
1 3131
1 3132
1 3133
1 3134
1 3135
1 3136
1 3137
1 3138
1 3139
1 3140
1 3141
1 3142
1 3143
1 3144
1 3145
1 3146
1 3147
1 3148
1 3149
1 3150
1 3151
1 3152
1 3153
1 3154
1 3155
1 3156
1 3157
1 3158
1 3159
1 3160
1 3161
1 3162
1 3163
1 3164
1 3165
1 3166
1 3167
1 3168
1 3169
1 3170
1 3171
1 3172
1 3173
1 3174
1 3175
1 3176
1 3177
1 3178
1 3179
1 3180
1 3181
1 3182
1 3183
1 3184
1 3185
1 3186
1 3187
1 3188
1 3189
1 3190
1 3191
1 3192
1 3193
1 3194
1 3195
1 3196
1 3197
1 3198
1 3199
1 3200
1 3201
1 3202
1 3203
1 3204
1 3205
1 3206
1 3207
1 3208
1 3209
1 3210
1 3211
1 3212
1 3213
1 3214
1 3215
1 3216
1 3217
1 3218
1 3219
1 3220
1 3221
1 3222
1 3223
1 3224
1 3225
1 3226
1 3227
1 3228
1 3229
1 3230
1 3231
1 3232
1 3233
1 3234
1 3235
1 3236
1 3237
1 3238
1 3239
1 3240
1 3241
1 3242
1 3243
1 3244
1 3245
1 3246
1 3247
1 3248
1 3249
1 3250
1 3251
1 3252
1 3253
1 3254
1 3255
1 3256
1 3257
1 3258
1 3259
1 3260
1 3261
1 3262
1 3263
1 3264
1 3265
1 3266
1 3267
1 3268
1 3269
1 3270
1 3271
1 3272
1 3273
1 3274
1 3275
1 3276
1 3277
1 3278
1 3279
1 3280
1 3281
1 3282
1 3283
1 3284
1 3285
1 3286
1 3287
1 3288
1 3289
1 3290
1 3291
1 3292
1 3293
1 3294
1 3295
1 3296
1 3297
1 3298
1 3299
1 3300
1 3301
1 3302
1 3303
1 3304
1 3305
1 3306
1 3307
1 3308
1 3309
1 3310
1 3311
1 3312
1 3313
1 3314
1 3315
1 3316
1 3317
1 3318
1 3319
1 3320
1 3321
1 3322
1 3323
1 3324
1 3325
1 3326
1 3327
1 3328
1 3329
1 3330
1 3331
1 3332
1 3333
1 3334
1 3335
1 3336
1 3337
1 3338
1 3339
1 3340
1 3341
1 3342
1 3343
1 3344
1 3345
1 3346
1 3347
1 3348
1 3349
1 3350
1 3351
1 3352
1 3353
1 3354
1 3355
1 3356
1 3357
1 3358
1 3359
1 3360
1 3361
1 3362
1 3363
1 3364
1 3365
1 3366
1 3367
1 3368
1 3369
1 3370
1 3371
1 3372
1 3373
1 3374
1 3375
1 3376
1 3377
1 3378
1 3379
1 3380
1 3381
1 3382
1 3383
1 3384
1 3385
1 3386
1 3387
1 3388
1 3389
1 3390
1 3391
1 3392
1 3393
1 3394
1 3395
1 3396
1 3397
1 3398
1 3399
1 3400
1 3401
1 3402
1 3403
1 3404
1 3405
1 3406
1 3407
1 3408
1 3409
1 3410
1 3411
1 3412
1 3413
1 3414
1 3415
1 3416
1 3417
1 3418
1 3419
1 3420
1 3421
1 3422
1 3423
1 3424
1 3425
1 3426
1 3427
1 3428
1 3429
1 3430
1 3431
1 3432
1 3433
1 3434
1 3435
1 3436
1 3437
1 3438
1 3439
1 3440
1 3441
1 3442
1 3443
1 3444
1 3445
1 3446
1 3447
1 3448
1 3449
1 3450
1 3451
1 3452
1 3453
1 3454
1 3455
1 3456
1 3457
1 3458
1 3459
1 3460
1 3461
1 3462
1 3463
1 3464
1 3465
1 3466
1 3467
1 3468
1 3469
1 3470
1 3471
1 3472
1 3473
1 3474
1 3475
1 3476
1 3477
1 3478
1 3479
1 3480
1 3481
1 3482
1 3483
1 3484
1 3485
1 3486
1 3487
1 3488
1 3489
1 3490
1 3491
1 3492
1 3493
1 3494
1 3495
1 3496
1 3497
1 3498
1 3499
1 3500
1 3501
1 3502
1 3503
1 3504
1 3505
1 3506
1 3507
1 3508
1 3509
1 3510
1 3511
1 3512
1 3513
1 3514
1 3515
1 3516
1 3517
1 3518
1 3519
1 3520
1 3521
1 3522
1 3523
1 3524
1 3525
1 3526
1 3527
1 3528
1 3529
1 3530
1 3531
1 3532
1 3533
1 3534
1 3535
1 3536
1 3537
1 3538
1 3539
1 3540
1 3541
1 3542
1 3543
1 3544
1 3545
1 3546
1 3547
1 3548
1 3549
1 3550
1 3551
1 3552
1 3553
1 3554
1 3555
1 3556
1 3557
1 3558
1 3559
1 3560
1 3561
1 3562
1 3563
1 3564
1 3565
1 3566
1 3567
1 3568
1 3569
1 3570
1 3571
1 3572
1 3573
1 3574
1 3575
1 3576
1 3577
1 3578
1 3579
1 3580
1 3581
1 3582
1 3583
1 3584
1 3585
1 3586
1 3587
1 3588
1 3589
1 3590
1 3591
1 3592
1 3593
1 3594
1 3595
1 3596
1 3597
1 3598
1 3599
1 3600
1 3601
1 3602
1 3603
1 3604
1 3605
1 3606
1 3607
1 3608
1 3609
1 3610
1 3611
1 3612
1 3613
1 3614
1 3615
1 3616
1 3617
1 3618
1 3619
1 3620
1 3621
1 3622
1 3623
1 3624
1 3625
1 3626
1 3627
1 3628
1 3629
1 3630
1 3631
1 3632
1 3633
1 3634
1 3635
1 3636
1 3637
1 3638
1 3639
1 3640
1 3641
1 3642
1 3643
1 3644
1 3645
1 3646
1 3647
1 3648
1 3649
1 3650
1 3651
1 3652
1 3653
1 3654
1 3655
1 3656
1 3657
1 3658
1 3659
1 3660
1 3661
1 3662
1 3663
1 3664
1 3665
1 3666
1 3667
1 3668
1 3669
1 3670
1 3671
1 3672
1 3673
1 3674
1 3675
1 3676
1 3677
1 3678
1 3679
1 3680
1 3681
1 3682
1 3683
1 3684
1 3685
1 3686
1 3687
1 3688
1 3689
1 3690
1 3691
1 3692
1 3693
1 3694
1 3695
1 3696
1 3697
1 3698
1 3699
1 3700
1 3701
1 3702
1 3703
1 3704
1 3705
1 3706
1 3707
1 3708
1 3709
1 3710
1 3711
1 3712
1 3713
1 3714
1 3715
1 3716
1 3717
1 3718
1 3719
1 3720
1 3721
1 3722
1 3723
1 3724
1 3725
1 3726
1 3727
1 3728
1 3729
1 3730
1 3731
1 3732
1 3733
1 3734
1 3735
1 3736
1 3737
1 3738
1 3739
1 3740
1 3741
1 3742
1 3743
1 3744
1 3745
1 3746
1 3747
1 3748
1 3749
1 3750
1 3751
1 3752
1 3753
1 3754
1 3755
1 3756
1 3757
1 3758
1 3759
1 3760
1 3761
1 3762
1 3763
1 3764
1 3765
1 3766
1 3767
1 3768
1 3769
1 3770
1 3771
1 3772
1 3773
1 3774
1 3775
1 3776
1 3777
1 3778
1 3779
1 3780
1 3781
1 3782
1 3783
1 3784
1 3785
1 3786
1 3787
1 3788
1 3789
1 3790
1 3791
1 3792
1 3793
1 3794
1 3795
1 3796
1 3797
1 3798
1 3799
1 3800
1 3801
1 3802
1 3803
1 3804
1 3805
1 3806
1 3807
1 3808
1 3809
1 3810
1 3811
1 3812
1 3813
1 3814
1 3815
1 3816
1 3817
1 3818
1 3819
1 3820
1 3821
1 3822
1 3823
1 3824
1 3825
1 3826
1 3827
1 3828
1 3829
1 3830
1 3831
1 3832
1 3833
1 3834
1 3835
1 3836
1 3837
1 3838
1 3839
1 3840
1 3841
1 3842
1 3843
1 3844
1 3845
1 3846
1 3847
1 3848
1 3849
1 3850
1 3851
1 3852
1 3853
1 3854
1 3855
1 3856
1 3857
1 3858
1 3859
1 3860
1 3861
1 3862
1 3863
1 3864
1 3865
1 3866
1 3867
1 3868
1 3869
1 3870
1 3871
1 3872
1 3873
1 3874
1 3875
1 3876
1 3877
1 3878
1 3879
1 3880
1 3881
1 3882
1 3883
1 3884
1 3885
1 3886
1 3887
1 3888
1 3889
1 3890
1 3891
1 3892
1 3893
1 3894
1 3895
1 3896
1 3897
1 3898
1 3899
1 3900
1 3901
1 3902
1 3903
1 3904
1 3905
1 3906
1 3907
1 3908
1 3909
1 3910
1 3911
1 3912
1 3913
1 3914
1 3915
1 3916
1 3917
1 3918
1 3919
1 3920
1 3921
1 3922
1 3923
1 3924
1 3925
1 3926
1 3927
1 3928
1 3929
1 3930
1 3931
1 3932
1 3933
1 3934
1 3935
1 3936
1 3937
1 3938
1 3939
1 3940
1 3941
1 3942
1 3943
1 3944
1 3945
1 3946
1 3947
1 3948
1 3949
1 3950
1 3951
1 3952
1 3953
1 3954
1 3955
1 3956
1 3957
1 3958
1 3959
1 3960
1 3961
1 3962
1 3963
1 3964
1 3965
1 3966
1 3967
1 3968
1 3969
1 3970
1 3971
1 3972
1 3973
1 3974
1 3975
1 3976
1 3977
1 3978
1 3979
1 3980
1 3981
1 3982
1 3983
1 3984
1 3985
1 3986
1 3987
1 3988
1 3989
1 3990
1 3991
1 3992
1 3993
1 3994
1 3995
1 3996
1 3997
1 3998
1 3999
1 4000
1 4001
1 4002
1 4003
1 4004
1 4005
1 4006
1 4007
1 4008
1 4009
1 4010
1 4011
1 4012
1 4013
1 4014
1 4015
1 4016
1 4017
1 4018
1 4019
1 4020
1 4021
1 4022
1 4023
1 4024
1 4025
1 4026
1 4027
1 4028
1 4029
1 4030
1 4031
1 4032
1 4033
1 4034
1 4035
1 4036
1 4037
1 4038
1 4039
1 4040
1 4041
1 4042
1 4043
1 4044
1 4045
1 4046
1 4047
1 4048
1 4049
1 4050
1 4051
1 4052
1 4053
1 4054
1 4055
1 4056
1 4057
1 4058
1 4059
1 4060
1 4061
1 4062
1 4063
1 4064
1 4065
1 4066
1 4067
1 4068
1 4069
1 4070
1 4071
1 4072
1 4073
1 4074
1 4075
1 4076
1 4077
1 4078
1 4079
1 4080
1 4081
1 4082
1 4083
1 4084
1 4085
1 4086
1 4087
1 4088
1 4089
1 4090
1 4091
1 4092
1 4093
1 4094
1 4095
1 4096
1 4097
1 4098
1 4099
1 4100
1 4101
1 4102
1 4103
1 4104
1 4105
1 4106
1 4107
1 4108
1 4109
1 4110
1 4111
1 4112
1 4113
1 4114
1 4115
1 4116
1 4117
1 4118
1 4119
1 4120
1 4121
1 4122
1 4123
1 4124
1 4125
1 4126
1 4127
1 4128
1 4129
1 4130
1 4131
1 4132
1 4133
1 4134
1 4135
1 4136
1 4137
1 4138
1 4139
1 4140
1 4141
1 4142
1 4143
1 4144
1 4145
1 4146
1 4147
1 4148
1 4149
1 4150
1 4151
1 4152
1 4153
1 4154
1 4155
1 4156
1 4157
1 4158
1 4159
1 4160
1 4161
1 4162
1 4163
1 4164
1 4165
1 4166
1 4167
1 4168
1 4169
1 4170
1 4171
1 4172
1 4173
1 4174
1 4175
1 4176
1 4177
1 4178
1 4179
1 4180
1 4181
1 4182
1 4183
1 4184
1 4185
1 4186
1 4187
1 4188
1 4189
1 4190
1 4191
1 4192
1 4193
1 4194
1 4195
1 4196
1 4197
1 4198
1 4199
1 4200
1 4201
1 4202
1 4203
1 4204
1 4205
1 4206
1 4207
1 4208
1 4209
1 4210
1 4211
1 4212
1 4213
1 4214
1 4215
1 4216
1 4217
1 4218
1 4219
1 4220
1 4221
1 4222
1 4223
1 4224
1 4225
1 4226
1 4227
1 4228
1 4229
1 4230
1 4231
1 4232
1 4233
1 4234
1 4235
1 4236
1 4237
1 4238
1 4239
1 4240
1 4241
1 4242
1 4243
1 4244
1 4245
1 4246
1 4247
1 4248
1 4249
1 4250
1 4251
1 4252
1 4253
1 4254
1 4255
1 4256
1 4257
1 4258
1 4259
1 4260
1 4261
1 4262
1 4263
1 4264
1 4265
1 4266
1 4267
1 4268
1 4269
1 4270
1 4271
1 4272
1 4273
1 4274
1 4275
1 4276
1 4277
1 4278
1 4279
1 4280
1 4281
1 4282
1 4283
1 4284
1 4285
1 4286
1 4287
1 4288
1 4289
1 4290
1 4291
1 4292
1 4293
1 4294
1 4295
1 4296
1 4297
1 4298
1 4299
1 4300
1 4301
1 4302
1 4303
1 4304
1 4305
1 4306
1 4307
1 4308
1 4309
1 4310
1 4311
1 4312
1 4313
1 4314
1 4315
1 4316
1 4317
1 4318
1 4319
1 4320
1 4321
1 4322
1 4323
1 4324
1 4325
1 4326
1 4327
1 4328
1 4329
1 4330
1 4331
1 4332
1 4333
1 4334
1 4335
1 4336
1 4337
1 4338
1 4339
1 4340
1 4341
1 4342
1 4343
1 4344
1 4345
1 4346
1 4347
1 4348
1 4349
1 4350
1 4351
1 4352
1 4353
1 4354
1 4355
1 4356
1 4357
1 4358
1 4359
1 4360
1 4361
1 4362
1 4363
1 4364
1 4365
1 4366
1 4367
1 4368
1 4369
1 4370
1 4371
1 4372
1 4373
1 4374
1 4375
1 4376
1 4377
1 4378
1 4379
1 4380
1 4381
1 4382
1 4383
1 4384
1 4385
1 4386
1 4387
1 4388
1 4389
1 4390
1 4391
1 4392
1 4393
1 4394
1 4395
1 4396
1 4397
1 4398
1 4399
1 4400
1 4401
1 4402
1 4403
1 4404
1 4405
1 4406
1 4407
1 4408
1 4409
1 4410
1 4411
1 4412
1 4413
1 4414
1 4415
1 4416
1 4417
1 4418
1 4419
1 4420
1 4421
1 4422
1 4423
1 4424
1 4425
1 4426
1 4427
1 4428
1 4429
1 4430
1 4431
1 4432
1 4433
1 4434
1 4435
1 4436
1 4437
1 4438
1 4439
1 4440
1 4441
1 4442
1 4443
1 4444
1 4445
1 4446
1 4447
1 4448
1 4449
1 4450
1 4451
1 4452
1 4453
1 4454
1 4455
1 4456
1 4457
1 4458
1 4459
1 4460
1 4461
1 4462
1 4463
1 4464
1 4465
1 4466
1 4467
1 4468
1 4469
1 4470
1 4471
1 4472
1 4473
1 4474
1 4475
1 4476
1 4477
1 4478
1 4479
1 4480
1 4481
1 4482
1 4483
1 4484
1 4485
1 4486
1 4487
1 4488
1 4489
1 4490
1 4491
1 4492
1 4493
1 4494
1 4495
1 4496
1 4497
1 4498
1 4499
1 4500
1 4501
1 4502
1 4503
1 4504
1 4505
1 4506
1 4507
1 4508
1 4509
1 4510
1 4511
1 4512
1 4513
1 4514
1 4515
1 4516
1 4517
1 4518
1 4519
1 4520
1 4521
1 4522
1 4523
1 4524
1 4525
1 4526
1 4527
1 4528
1 4529
1 4530
1 4531
1 4532
1 4533
1 4534
1 4535
1 4536
1 4537
1 4538
1 4539
1 4540
1 4541
1 4542
1 4543
1 4544
1 4545
1 4546
1 4547
1 4548
1 4549
1 4550
1 4551
1 4552
1 4553
1 4554
1 4555
1 4556
1 4557
1 4558
1 4559
1 4560
1 4561
1 4562
1 4563
1 4564
1 4565
1 4566
1 4567
1 4568
1 4569
1 4570
1 4571
1 4572
1 4573
1 4574
1 4575
1 4576
1 4577
1 4578
1 4579
1 4580
1 4581
1 4582
1 4583
1 4584
1 4585
1 4586
1 4587
1 4588
1 4589
1 4590
1 4591
1 4592
1 4593
1 4594
1 4595
1 4596
1 4597
1 4598
1 4599
1 4600
1 4601
1 4602
1 4603
1 4604
1 4605
1 4606
1 4607
1 4608
1 4609
1 4610
1 4611
1 4612
1 4613
1 4614
1 4615
1 4616
1 4617
1 4618
1 4619
1 4620
1 4621
1 4622
1 4623
1 4624
1 4625
1 4626
1 4627
1 4628
1 4629
1 4630
1 4631
1 4632
1 4633
1 4634
1 4635
1 4636
1 4637
1 4638
1 4639
1 4640
1 4641
1 4642
1 4643
1 4644
1 4645
1 4646
1 4647
1 4648
1 4649
1 4650
1 4651
1 4652
1 4653
1 4654
1 4655
1 4656
1 4657
1 4658
1 4659
1 4660
1 4661
1 4662
1 4663
1 4664
1 4665
1 4666
1 4667
1 4668
1 4669
1 4670
1 4671
1 4672
1 4673
1 4674
1 4675
1 4676
1 4677
1 4678
1 4679
1 4680
1 4681
1 4682
1 4683
1 4684
1 4685
1 4686
1 4687
1 4688
1 4689
1 4690
1 4691
1 4692
1 4693
1 4694
1 4695
1 4696
1 4697
1 4698
1 4699
1 4700
1 4701
1 4702
1 4703
1 4704
1 4705
1 4706
1 4707
1 4708
1 4709
1 4710
1 4711
1 4712
1 4713
1 4714
1 4715
1 4716
1 4717
1 4718
1 4719
1 4720
1 4721
1 4722
1 4723
1 4724
1 4725
1 4726
1 4727
1 4728
1 4729
1 4730
1 4731
1 4732
1 4733
1 4734
1 4735
1 4736
1 4737
1 4738
1 4739
1 4740
1 4741
1 4742
1 4743
1 4744
1 4745
1 4746
1 4747
1 4748
1 4749
1 4750
1 4751
1 4752
1 4753
1 4754
1 4755
1 4756
1 4757
1 4758
1 4759
1 4760
1 4761
1 4762
1 4763
1 4764
1 4765
1 4766
1 4767
1 4768
1 4769
1 4770
1 4771
1 4772
1 4773
1 4774
1 4775
1 4776
1 4777
1 4778
1 4779
1 4780
1 4781
1 4782
1 4783
1 4784
1 4785
1 4786
1 4787
1 4788
1 4789
1 4790
1 4791
1 4792
1 4793
1 4794
1 4795
1 4796
1 4797
1 4798
1 4799
1 4800
1 4801
1 4802
1 4803
1 4804
1 4805
1 4806
1 4807
1 4808
1 4809
1 4810
1 4811
1 4812
1 4813
1 4814
1 4815
1 4816
1 4817
1 4818
1 4819
1 4820
1 4821
1 4822
1 4823
1 4824
1 4825
1 4826
1 4827
1 4828
1 4829
1 4830
1 4831
1 4832
1 4833
1 4834
1 4835
1 4836
1 4837
1 4838
1 4839
1 4840
1 4841
1 4842
1 4843
1 4844
1 4845
1 4846
1 4847
1 4848
1 4849
1 4850
1 4851
1 4852
1 4853
1 4854
1 4855
1 4856
1 4857
1 4858
1 4859
1 4860
1 4861
1 4862
1 4863
1 4864
1 4865
1 4866
1 4867
1 4868
1 4869
1 4870
1 4871
1 4872
1 4873
1 4874
1 4875
1 4876
1 4877
1 4878
1 4879
1 4880
1 4881
1 4882
1 4883
1 4884
1 4885
1 4886
1 4887
1 4888
1 4889
1 4890
1 4891
1 4892
1 4893
1 4894
1 4895
1 4896
1 4897
1 4898
1 4899
1 4900
1 4901
1 4902
1 4903
1 4904
1 4905
1 4906
1 4907
1 4908
1 4909
1 4910
1 4911
1 4912
1 4913
1 4914
1 4915
1 4916
1 4917
1 4918
1 4919
1 4920
1 4921
1 4922
1 4923
1 4924
1 4925
1 4926
1 4927
1 4928
1 4929
1 4930
1 4931
1 4932
1 4933
1 4934
1 4935
1 4936
1 4937
1 4938
1 4939
1 4940
1 4941
1 4942
1 4943
1 4944
1 4945
1 4946
1 4947
1 4948
1 4949
1 4950
1 4951
1 4952
1 4953
1 4954
1 4955
1 4956
1 4957
1 4958
1 4959
1 4960
1 4961
1 4962
1 4963
1 4964
1 4965
1 4966
1 4967
1 4968
1 4969
1 4970
1 4971
1 4972
1 4973
1 4974
1 4975
1 4976
1 4977
1 4978
1 4979
1 4980
1 4981
1 4982
1 4983
1 4984
1 4985
1 4986
1 4987
1 4988
1 4989
1 4990
1 4991
1 4992
1 4993
1 4994
1 4995
1 4996
1 4997
1 4998
1 4999
CELL_TYPES 5000
1 
1 
1 
1 
1 
1 
1 
1 
1 
1 
1 
1 
1 
1 
1 
1 
1 
1 
1 
1 
1 
1 
1 
1 
1 
1 
1 
1 
1 
1 
1 
1 
1 
1 
1 
1 
1 
1 
1 
1 
1 
1 
1 
1 
1 
1 
1 
1 
1 
1 
1 
1 
1 
1 
1 
1 
1 
1 
1 
1 
1 
1 
1 
1 
1 
1 
1 
1 
1 
1 
1 
1 
1 
1 
1 
1 
1 
1 
1 
1 
1 
1 
1 
1 
1 
1 
1 
1 
1 
1 
1 
1 
1 
1 
1 
1 
1 
1 
1 
1 
1 
1 
1 
1 
1 
1 
1 
1 
1 
1 
1 
1 
1 
1 
1 
1 
1 
1 
1 
1 
1 
1 
1 
1 
1 
1 
1 
1 
1 
1 
1 
1 
1 
1 
1 
1 
1 
1 
1 
1 
1 
1 
1 
1 
1 
1 
1 
1 
1 
1 
1 
1 
1 
1 
1 
1 
1 
1 
1 
1 
1 
1 
1 
1 
1 
1 
1 
1 
1 
1 
1 
1 
1 
1 
1 
1 
1 
1 
1 
1 
1 
1 
1 
1 
1 
1 
1 
1 
1 
1 
1 
1 
1 
1 
1 
1 
1 
1 
1 
1 
1 
1 
1 
1 
1 
1 
1 
1 
1 
1 
1 
1 
1 
1 
1 
1 
1 
1 
1 
1 
1 
1 
1 
1 
1 
1 
1 
1 
1 
1 
1 
1 
1 
1 
1 
1 
1 
1 
1 
1 
1 
1 
1 
1 
1 
1 
1 
1 
1 
1 
1 
1 
1 
1 
1 
1 
1 
1 
1 
1 
1 
1 
1 
1 
1 
1 
1 
1 
1 
1 
1 
1 
1 
1 
1 
1 
1 
1 
1 
1 
1 
1 
1 
1 
1 
1 
1 
1 
1 
1 
1 
1 
1 
1 
1 
1 
1 
1 
1 
1 
1 
1 
1 
1 
1 
1 
1 
1 
1 
1 
1 
1 
1 
1 
1 
1 
1 
1 
1 
1 
1 
1 
1 
1 
1 
1 
1 
1 
1 
1 
1 
1 
1 
1 
1 
1 
1 
1 
1 
1 
1 
1 
1 
1 
1 
1 
1 
1 
1 
1 
1 
1 
1 
1 
1 
1 
1 
1 
1 
1 
1 
1 
1 
1 
1 
1 
1 
1 
1 
1 
1 
1 
1 
1 
1 
1 
1 
1 
1 
1 
1 
1 
1 
1 
1 
1 
1 
1 
1 
1 
1 
1 
1 
1 
1 
1 
1 
1 
1 
1 
1 
1 
1 
1 
1 
1 
1 
1 
1 
1 
1 
1 
1 
1 
1 
1 
1 
1 
1 
1 
1 
1 
1 
1 
1 
1 
1 
1 
1 
1 
1 
1 
1 
1 
1 
1 
1 
1 
1 
1 
1 
1 
1 
1 
1 
1 
1 
1 
1 
1 
1 
1 
1 
1 
1 
1 
1 
1 
1 
1 
1 
1 
1 
1 
1 
1 
1 
1 
1 
1 
1 
1 
1 
1 
1 
1 
1 
1 
1 
1 
1 
1 
1 
1 
1 
1 
1 
1 
1 
1 
1 
1 
1 
1 
1 
1 
1 
1 
1 
1 
1 
1 
1 
1 
1 
1 
1 
1 
1 
1 
1 
1 
1 
1 
1 
1 
1 
1 
1 
1 
1 
1 
1 
1 
1 
1 
1 
1 
1 
1 
1 
1 
1 
1 
1 
1 
1 
1 
1 
1 
1 
1 
1 
1 
1 
1 
1 
1 
1 
1 
1 
1 
1 
1 
1 
1 
1 
1 
1 
1 
1 
1 
1 
1 
1 
1 
1 
1 
1 
1 
1 
1 
1 
1 
1 
1 
1 
1 
1 
1 
1 
1 
1 
1 
1 
1 
1 
1 
1 
1 
1 
1 
1 
1 
1 
1 
1 
1 
1 
1 
1 
1 
1 
1 
1 
1 
1 
1 
1 
1 
1 
1 
1 
1 
1 
1 
1 
1 
1 
1 
1 
1 
1 
1 
1 
1 
1 
1 
1 
1 
1 
1 
1 
1 
1 
1 
1 
1 
1 
1 
1 
1 
1 
1 
1 
1 
1 
1 
1 
1 
1 
1 
1 
1 
1 
1 
1 
1 
1 
1 
1 
1 
1 
1 
1 
1 
1 
1 
1 
1 
1 
1 
1 
1 
1 
1 
1 
1 
1 
1 
1 
1 
1 
1 
1 
1 
1 
1 
1 
1 
1 
1 
1 
1 
1 
1 
1 
1 
1 
1 
1 
1 
1 
1 
1 
1 
1 
1 
1 
1 
1 
1 
1 
1 
1 
1 
1 
1 
1 
1 
1 
1 
1 
1 
1 
1 
1 
1 
1 
1 
1 
1 
1 
1 
1 
1 
1 
1 
1 
1 
1 
1 
1 
1 
1 
1 
1 
1 
1 
1 
1 
1 
1 
1 
1 
1 
1 
1 
1 
1 
1 
1 
1 
1 
1 
1 
1 
1 
1 
1 
1 
1 
1 
1 
1 
1 
1 
1 
1 
1 
1 
1 
1 
1 
1 
1 
1 
1 
1 
1 
1 
1 
1 
1 
1 
1 
1 
1 
1 
1 
1 
1 
1 
1 
1 
1 
1 
1 
1 
1 
1 
1 
1 
1 
1 
1 
1 
1 
1 
1 
1 
1 
1 
1 
1 
1 
1 
1 
1 
1 
1 
1 
1 
1 
1 
1 
1 
1 
1 
1 
1 
1 
1 
1 
1 
1 
1 
1 
1 
1 
1 
1 
1 
1 
1 
1 
1 
1 
1 
1 
1 
1 
1 
1 
1 
1 
1 
1 
1 
1 
1 
1 
1 
1 
1 
1 
1 
1 
1 
1 
1 
1 
1 
1 
1 
1 
1 
1 
1 
1 
1 
1 
1 
1 
1 
1 
1 
1 
1 
1 
1 
1 
1 
1 
1 
1 
1 
1 
1 
1 
1 
1 
1 
1 
1 
1 
1 
1 
1 
1 
1 
1 
1 
1 
1 
1 
1 
1 
1 
1 
1 
1 
1 
1 
1 
1 
1 
1 
1 
1 
1 
1 
1 
1 
1 
1 
1 
1 
1 
1 
1 
1 
1 
1 
1 
1 
1 
1 
1 
1 
1 
1 
1 
1 
1 
1 
1 
1 
1 
1 
1 
1 
1 
1 
1 
1 
1 
1 
1 
1 
1 
1 
1 
1 
1 
1 
1 
1 
1 
1 
1 
1 
1 
1 
1 
1 
1 
1 
1 
1 
1 
1 
1 
1 
1 
1 
1 
1 
1 
1 
1 
1 
1 
1 
1 
1 
1 
1 
1 
1 
1 
1 
1 
1 
1 
1 
1 
1 
1 
1 
1 
1 
1 
1 
1 
1 
1 
1 
1 
1 
1 
1 
1 
1 
1 
1 
1 
1 
1 
1 
1 
1 
1 
1 
1 
1 
1 
1 
1 
1 
1 
1 
1 
1 
1 
1 
1 
1 
1 
1 
1 
1 
1 
1 
1 
1 
1 
1 
1 
1 
1 
1 
1 
1 
1 
1 
1 
1 
1 
1 
1 
1 
1 
1 
1 
1 
1 
1 
1 
1 
1 
1 
1 
1 
1 
1 
1 
1 
1 
1 
1 
1 
1 
1 
1 
1 
1 
1 
1 
1 
1 
1 
1 
1 
1 
1 
1 
1 
1 
1 
1 
1 
1 
1 
1 
1 
1 
1 
1 
1 
1 
1 
1 
1 
1 
1 
1 
1 
1 
1 
1 
1 
1 
1 
1 
1 
1 
1 
1 
1 
1 
1 
1 
1 
1 
1 
1 
1 
1 
1 
1 
1 
1 
1 
1 
1 
1 
1 
1 
1 
1 
1 
1 
1 
1 
1 
1 
1 
1 
1 
1 
1 
1 
1 
1 
1 
1 
1 
1 
1 
1 
1 
1 
1 
1 
1 
1 
1 
1 
1 
1 
1 
1 
1 
1 
1 
1 
1 
1 
1 
1 
1 
1 
1 
1 
1 
1 
1 
1 
1 
1 
1 
1 
1 
1 
1 
1 
1 
1 
1 
1 
1 
1 
1 
1 
1 
1 
1 
1 
1 
1 
1 
1 
1 
1 
1 
1 
1 
1 
1 
1 
1 
1 
1 
1 
1 
1 
1 
1 
1 
1 
1 
1 
1 
1 
1 
1 
1 
1 
1 
1 
1 
1 
1 
1 
1 
1 
1 
1 
1 
1 
1 
1 
1 
1 
1 
1 
1 
1 
1 
1 
1 
1 
1 
1 
1 
1 
1 
1 
1 
1 
1 
1 
1 
1 
1 
1 
1 
1 
1 
1 
1 
1 
1 
1 
1 
1 
1 
1 
1 
1 
1 
1 
1 
1 
1 
1 
1 
1 
1 
1 
1 
1 
1 
1 
1 
1 
1 
1 
1 
1 
1 
1 
1 
1 
1 
1 
1 
1 
1 
1 
1 
1 
1 
1 
1 
1 
1 
1 
1 
1 
1 
1 
1 
1 
1 
1 
1 
1 
1 
1 
1 
1 
1 
1 
1 
1 
1 
1 
1 
1 
1 
1 
1 
1 
1 
1 
1 
1 
1 
1 
1 
1 
1 
1 
1 
1 
1 
1 
1 
1 
1 
1 
1 
1 
1 
1 
1 
1 
1 
1 
1 
1 
1 
1 
1 
1 
1 
1 
1 
1 
1 
1 
1 
1 
1 
1 
1 
1 
1 
1 
1 
1 
1 
1 
1 
1 
1 
1 
1 
1 
1 
1 
1 
1 
1 
1 
1 
1 
1 
1 
1 
1 
1 
1 
1 
1 
1 
1 
1 
1 
1 
1 
1 
1 
1 
1 
1 
1 
1 
1 
1 
1 
1 
1 
1 
1 
1 
1 
1 
1 
1 
1 
1 
1 
1 
1 
1 
1 
1 
1 
1 
1 
1 
1 
1 
1 
1 
1 
1 
1 
1 
1 
1 
1 
1 
1 
1 
1 
1 
1 
1 
1 
1 
1 
1 
1 
1 
1 
1 
1 
1 
1 
1 
1 
1 
1 
1 
1 
1 
1 
1 
1 
1 
1 
1 
1 
1 
1 
1 
1 
1 
1 
1 
1 
1 
1 
1 
1 
1 
1 
1 
1 
1 
1 
1 
1 
1 
1 
1 
1 
1 
1 
1 
1 
1 
1 
1 
1 
1 
1 
1 
1 
1 
1 
1 
1 
1 
1 
1 
1 
1 
1 
1 
1 
1 
1 
1 
1 
1 
1 
1 
1 
1 
1 
1 
1 
1 
1 
1 
1 
1 
1 
1 
1 
1 
1 
1 
1 
1 
1 
1 
1 
1 
1 
1 
1 
1 
1 
1 
1 
1 
1 
1 
1 
1 
1 
1 
1 
1 
1 
1 
1 
1 
1 
1 
1 
1 
1 
1 
1 
1 
1 
1 
1 
1 
1 
1 
1 
1 
1 
1 
1 
1 
1 
1 
1 
1 
1 
1 
1 
1 
1 
1 
1 
1 
1 
1 
1 
1 
1 
1 
1 
1 
1 
1 
1 
1 
1 
1 
1 
1 
1 
1 
1 
1 
1 
1 
1 
1 
1 
1 
1 
1 
1 
1 
1 
1 
1 
1 
1 
1 
1 
1 
1 
1 
1 
1 
1 
1 
1 
1 
1 
1 
1 
1 
1 
1 
1 
1 
1 
1 
1 
1 
1 
1 
1 
1 
1 
1 
1 
1 
1 
1 
1 
1 
1 
1 
1 
1 
1 
1 
1 
1 
1 
1 
1 
1 
1 
1 
1 
1 
1 
1 
1 
1 
1 
1 
1 
1 
1 
1 
1 
1 
1 
1 
1 
1 
1 
1 
1 
1 
1 
1 
1 
1 
1 
1 
1 
1 
1 
1 
1 
1 
1 
1 
1 
1 
1 
1 
1 
1 
1 
1 
1 
1 
1 
1 
1 
1 
1 
1 
1 
1 
1 
1 
1 
1 
1 
1 
1 
1 
1 
1 
1 
1 
1 
1 
1 
1 
1 
1 
1 
1 
1 
1 
1 
1 
1 
1 
1 
1 
1 
1 
1 
1 
1 
1 
1 
1 
1 
1 
1 
1 
1 
1 
1 
1 
1 
1 
1 
1 
1 
1 
1 
1 
1 
1 
1 
1 
1 
1 
1 
1 
1 
1 
1 
1 
1 
1 
1 
1 
1 
1 
1 
1 
1 
1 
1 
1 
1 
1 
1 
1 
1 
1 
1 
1 
1 
1 
1 
1 
1 
1 
1 
1 
1 
1 
1 
1 
1 
1 
1 
1 
1 
1 
1 
1 
1 
1 
1 
1 
1 
1 
1 
1 
1 
1 
1 
1 
1 
1 
1 
1 
1 
1 
1 
1 
1 
1 
1 
1 
1 
1 
1 
1 
1 
1 
1 
1 
1 
1 
1 
1 
1 
1 
1 
1 
1 
1 
1 
1 
1 
1 
1 
1 
1 
1 
1 
1 
1 
1 
1 
1 
1 
1 
1 
1 
1 
1 
1 
1 
1 
1 
1 
1 
1 
1 
1 
1 
1 
1 
1 
1 
1 
1 
1 
1 
1 
1 
1 
1 
1 
1 
1 
1 
1 
1 
1 
1 
1 
1 
1 
1 
1 
1 
1 
1 
1 
1 
1 
1 
1 
1 
1 
1 
1 
1 
1 
1 
1 
1 
1 
1 
1 
1 
1 
1 
1 
1 
1 
1 
1 
1 
1 
1 
1 
1 
1 
1 
1 
1 
1 
1 
1 
1 
1 
1 
1 
1 
1 
1 
1 
1 
1 
1 
1 
1 
1 
1 
1 
1 
1 
1 
1 
1 
1 
1 
1 
1 
1 
1 
1 
1 
1 
1 
1 
1 
1 
1 
1 
1 
1 
1 
1 
1 
1 
1 
1 
1 
1 
1 
1 
1 
1 
1 
1 
1 
1 
1 
1 
1 
1 
1 
1 
1 
1 
1 
1 
1 
1 
1 
1 
1 
1 
1 
1 
1 
1 
1 
1 
1 
1 
1 
1 
1 
1 
1 
1 
1 
1 
1 
1 
1 
1 
1 
1 
1 
1 
1 
1 
1 
1 
1 
1 
1 
1 
1 
1 
1 
1 
1 
1 
1 
1 
1 
1 
1 
1 
1 
1 
1 
1 
1 
1 
1 
1 
1 
1 
1 
1 
1 
1 
1 
1 
1 
1 
1 
1 
1 
1 
1 
1 
1 
1 
1 
1 
1 
1 
1 
1 
1 
1 
1 
1 
1 
1 
1 
1 
1 
1 
1 
1 
1 
1 
1 
1 
1 
1 
1 
1 
1 
1 
1 
1 
1 
1 
1 
1 
1 
1 
1 
1 
1 
1 
1 
1 
1 
1 
1 
1 
1 
1 
1 
1 
1 
1 
1 
1 
1 
1 
1 
1 
1 
1 
1 
1 
1 
1 
1 
1 
1 
1 
1 
1 
1 
1 
1 
1 
1 
1 
1 
1 
1 
1 
1 
1 
1 
1 
1 
1 
1 
1 
1 
1 
1 
1 
1 
1 
1 
1 
1 
1 
1 
1 
1 
1 
1 
1 
1 
1 
1 
1 
1 
1 
1 
1 
1 
1 
1 
1 
1 
1 
1 
1 
1 
1 
1 
1 
1 
1 
1 
1 
1 
1 
1 
1 
1 
1 
1 
1 
1 
1 
1 
1 
1 
1 
1 
1 
1 
1 
1 
1 
1 
1 
1 
1 
1 
1 
1 
1 
1 
1 
1 
1 
1 
1 
1 
1 
1 
1 
1 
1 
1 
1 
1 
1 
1 
1 
1 
1 
1 
1 
1 
1 
1 
1 
1 
1 
1 
1 
1 
1 
1 
1 
1 
1 
1 
1 
1 
1 
1 
1 
1 
1 
1 
1 
1 
1 
1 
1 
1 
1 
1 
1 
1 
1 
1 
1 
1 
1 
1 
1 
1 
1 
1 
1 
1 
1 
1 
1 
1 
1 
1 
1 
1 
1 
1 
1 
1 
1 
1 
1 
1 
1 
1 
1 
1 
1 
1 
1 
1 
1 
1 
1 
1 
1 
1 
1 
1 
1 
1 
1 
1 
1 
1 
1 
1 
1 
1 
1 
1 
1 
1 
1 
1 
1 
1 
1 
1 
1 
1 
1 
1 
1 
1 
1 
1 
1 
1 
1 
1 
1 
1 
1 
1 
1 
1 
1 
1 
1 
1 
1 
1 
1 
1 
1 
1 
1 
1 
1 
1 
1 
1 
1 
1 
1 
1 
1 
1 
1 
1 
1 
1 
1 
1 
1 
1 
1 
1 
1 
1 
1 
1 
1 
1 
1 
1 
1 
1 
1 
1 
1 
1 
1 
1 
1 
1 
1 
1 
1 
1 
1 
1 
1 
1 
1 
1 
1 
1 
1 
1 
1 
1 
1 
1 
1 
1 
1 
1 
1 
1 
1 
1 
1 
1 
1 
1 
1 
1 
1 
1 
1 
1 
1 
1 
1 
1 
1 
1 
1 
1 
1 
1 
1 
1 
1 
1 
1 
1 
1 
1 
1 
1 
1 
1 
1 
1 
1 
1 
1 
1 
1 
1 
1 
1 
1 
1 
1 
1 
1 
1 
1 
1 
1 
1 
1 
1 
1 
1 
1 
1 
1 
1 
1 
1 
1 
1 
1 
1 
1 
1 
1 
1 
1 
1 
1 
1 
1 
1 
1 
1 
1 
1 
1 
1 
1 
1 
1 
1 
1 
1 
1 
1 
1 
1 
1 
1 
1 
1 
1 
1 
1 
1 
1 
1 
1 
1 
1 
1 
1 
1 
1 
1 
1 
1 
1 
1 
1 
1 
1 
1 
1 
1 
1 
1 
1 
1 
1 
1 
1 
1 
1 
1 
1 
1 
1 
1 
1 
1 
1 
1 
1 
1 
1 
1 
1 
1 
1 
1 
1 
1 
1 
1 
1 
1 
1 
1 
1 
1 
1 
1 
1 
1 
1 
1 
1 
1 
1 
1 
1 
1 
1 
1 
1 
1 
1 
1 
1 
1 
1 
1 
1 
1 
1 
1 
1 
1 
1 
1 
1 
1 
1 
1 
1 
1 
1 
1 
1 
1 
1 
1 
1 
1 
1 
1 
1 
1 
1 
1 
1 
1 
1 
1 
1 
1 
1 
1 
1 
1 
1 
1 
1 
1 
1 
1 
1 
1 
1 
1 
1 
1 
1 
1 
1 
1 
1 
1 
1 
1 
1 
1 
1 
1 
1 
1 
1 
1 
1 
1 
1 
1 
1 
1 
1 
1 
1 
1 
1 
1 
1 
1 
1 
1 
1 
1 
1 
1 
1 
1 
1 
1 
1 
1 
1 
1 
1 
1 
1 
1 
1 
1 
1 
1 
1 
1 
1 
1 
1 
1 
1 
1 
1 
1 
1 
1 
1 
1 
1 
1 
1 
1 
1 
1 
1 
1 
1 
1 
1 
1 
1 
1 
1 
1 
1 
1 
1 
1 
1 
1 
1 
1 
1 
1 
1 
1 
1 
1 
1 
1 
1 
1 
1 
1 
1 
1 
1 
1 
1 
1 
1 
1 
1 
1 
1 
1 
1 
1 
1 
1 
1 
1 
1 
1 
1 
1 
1 
1 
1 
1 
1 
1 
1 
1 
1 
1 
1 
1 
1 
1 
1 
1 
1 
1 
1 
1 
1 
1 
1 
1 
1 
1 
1 
1 
1 
1 
1 
1 
1 
1 
1 
1 
1 
1 
1 
1 
1 
1 
1 
1 
1 
1 
1 
1 
1 
1 
1 
1 
1 
1 
1 
1 
1 
1 
1 
1 
1 
1 
1 
1 
1 
1 
1 
1 
1 
1 
1 
1 
1 
1 
1 
1 
1 
1 
1 
1 
1 
1 
1 
1 
1 
1 
1 
1 
1 
1 
1 
1 
1 
1 
1 
1 
1 
1 
1 
1 
1 
1 
1 
1 
1 
1 
1 
1 
1 
1 
1 
1 
1 
1 
1 
1 
1 
1 
1 
1 
1 
1 
1 
1 
1 
1 
1 
1 
1 
1 
1 
1 
1 
1 
1 
1 
1 
1 
1 
1 
1 
1 
1 
1 
1 
1 
1 
1 
1 
1 
1 
1 
1 
1 
1 
1 
1 
1 
1 
1 
1 
1 
1 
1 
1 
1 
1 
1 
1 
1 
1 
1 
1 
1 
1 
1 
1 
1 
1 
1 
1 
1 
1 
1 
1 
1 
1 
1 
1 
1 
1 
1 
1 
1 
1 
1 
1 
1 
1 
1 
1 
1 
1 
1 
1 
1 
1 
1 
1 
1 
1 
1 
1 
1 
1 
1 
1 
1 
1 
1 
1 
1 
1 
1 
1 
1 
1 
1 
1 
1 
1 
1 
1 
1 
1 
1 
1 
1 
1 
1 
1 
1 
1 
1 
1 
1 
1 
1 
1 
1 
1 
1 
1 
1 
1 
1 
1 
1 
1 
1 
1 
1 
1 
1 
1 
1 
1 
1 
1 
1 
1 
1 
1 
1 
1 
1 
1 
1 
1 
1 
1 
1 
1 
1 
1 
1 
1 
1 
1 
1 
1 
1 
1 
1 
1 
1 
1 
1 
1 
1 
1 
1 
1 
1 
1 
1 
1 
1 
1 
1 
1 
1 
1 
1 
1 
1 
1 
1 
1 
1 
1 
1 
1 
1 
1 
1 
1 
1 
1 
1 
1 
1 
1 
1 
1 
1 
1 
1 
1 
1 
1 
1 
1 
1 
1 
1 
1 
1 
1 
1 
1 
1 
1 
1 
1 
1 
1 
1 
1 
1 
1 
1 
1 
1 
1 
1 
1 
1 
1 
1 
1 
1 
1 
1 
1 
1 
1 
1 
1 
1 
1 
1 
1 
1 
1 
1 
1 
1 
1 
1 
1 
1 
1 
1 
1 
1 
1 
1 
1 
1 
1 
1 
1 
1 
1 
1 
1 
1 
1 
1 
1 
1 
1 
1 
1 
1 
1 
1 
1 
1 
1 
1 
1 
1 
1 
1 
1 
1 
1 
1 
1 
1 
1 
1 
1 
1 
1 
1 
1 
1 
1 
1 
1 
1 
1 
1 
1 
1 
1 
1 
1 
1 
1 
1 
1 
1 
1 
1 
1 
1 
1 
1 
1 
1 
1 
1 
1 
1 
1 
1 
1 
1 
1 
1 
1 
1 
1 
1 
1 
1 
1 
1 
1 
1 
1 
1 
1 
1 
1 
1 
1 
1 
1 
1 
1 
1 
1 
1 
1 
1 
1 
1 
1 
1 
1 
1 
1 
1 
1 
1 
1 
1 
1 
1 
1 
1 
1 
1 
1 
1 
1 
1 
1 
1 
1 
1 
1 
1 
1 
1 
1 
1 
1 
1 
1 
1 
1 
1 
1 
1 
1 
1 
1 
1 
1 
1 
1 
1 
1 
1 
1 
1 
1 
1 
1 
1 
1 
1 
1 
1 
1 
1 
1 
1 
1 
1 
1 
1 
1 
1 
1 
1 
1 
1 
1 
1 
1 
1 
1 
1 
1 
1 
1 
1 
1 
1 
1 
1 
1 
1 
1 
1 
1 
1 
1 
1 
1 
1 
1 
1 
1 
1 
1 
1 
1 
1 
1 
1 
1 
1 
1 
1 
1 
1 
1 
1 
1 
1 
1 
1 
1 
1 
1 
1 
1 
1 
1 
1 
1 
1 
1 
1 
1 
1 
1 
1 
1 
1 
1 
1 
1 
1 
1 
1 
1 
1 
1 
1 
1 
1 
1 
1 
1 
1 
1 
1 
1 
1 
1 
1 
1 
1 
1 
1 
1 
1 
1 
1 
1 
1 
1 
1 
1 
1 
1 
1 
1 
1 
1 
1 
1 
1 
1 
1 
1 
1 
1 
1 
1 
1 
1 
1 
1 
1 
1 
1 
1 
1 
1 
1 
1 
1 
1 
1 
1 
1 
1 
1 
1 
1 
1 
1 
1 
1 
1 
1 
1 
1 
1 
1 
1 
1 
1 
1 
1 
1 
1 
1 
1 
1 
1 
1 
1 
1 
1 
1 
1 
1 
1 
1 
1 
1 
1 
1 
1 
1 
1 
1 
1 
1 
1 
1 
1 
1 
1 
1 
1 
1 
1 
1 
1 
1 
1 
1 
1 
1 
1 
1 
1 
1 
1 
1 
1 
1 
1 
1 
1 
1 
1 
1 
1 
1 
1 
1 
1 
1 
1 
1 
1 
1 
1 
1 
1 
1 
1 
1 
1 
1 
1 
1 
1 
1 
1 
1 
1 
1 
1 
1 
1 
1 
1 
1 
1 
1 
1 
1 
1 
1 
1 
1 
1 
1 
1 
1 
1 
1 
1 
1 
1 
1 
1 
1 
1 
1 
1 
1 
1 
1 
1 
1 
1 
1 
1 
1 
1 
1 
1 
1 
1 
1 
1 
1 
1 
1 
1 
1 
1 
1 
1 
1 
1 
1 
1 
1 
1 
1 
1 
1 
1 
1 
1 
1 
1 
1 
1 
1 
1 
1 
1 
1 
1 
1 
1 
1 
1 
1 
1 
1 
1 
1 
1 
1 
1 
1 
1 
1 
1 
1 
1 
1 
1 
1 
1 
1 
1 
1 
1 
1 
1 
1 
1 
1 
1 
1 
1 
1 
1 
1 
1 
1 
1 
1 
1 
1 
1 
1 
1 
1 
1 
1 
1 
1 
1 
1 
1 
1 
1 
1 
1 
1 
1 
1 
1 
1 
1 
1 
1 
1 
1 
1 
1 
1 
1 
1 
1 
1 
1 
1 
1 
1 
1 
1 
1 
1 
1 
1 
1 
1 
1 
1 
1 
1 
1 
1 
1 
1 
1 
1 
1 
1 
1 
1 
1 
1 
1 
1 
1 
1 
1 
1 
1 
1 
1 
1 
1 
1 
1 
1 
1 
1 
1 
1 
1 
1 
1 
1 
1 
1 
1 
1 
1 
1 
1 
1 
1 
1 
1 
1 
1 
1 
1 
1 
1 
1 
1 
1 
1 
1 
1 
1 
1 
1 
1 
1 
1 
1 
1 
1 
1 
1 
1 
1 
1 
1 
1 
1 
1 
1 
1 
1 
1 
1 
1 
1 
1 
1 
1 
1 
1 
1 
1 
1 
1 
1 
1 
1 
1 
1 
1 
1 
1 
1 
1 
1 
1 
1 
1 
1 
1 
1 
1 
1 
1 
1 
1 
1 
1 
1 
1 
1 
1 
1 
1 
1 
1 
1 
1 
1 
1 
1 
1 
1 
1 
1 
1 
1 
1 
1 
1 
1 
1 
1 
1 
1 
1 
1 
1 
1 
1 
1 
1 
1 
1 
1 
1 
1 
1 
1 
1 
1 
1 
1 
1 
1 
1 
1 
1 
1 
1 
1 
1 
1 
1 
1 
1 
1 
1 
1 
1 
1 
1 
1 
1 
1 
1 
1 
1 
1 
1 
1 
1 
1 
1 
1 
1 
1 
1 
1 
1 
1 
1 
1 
1 
1 
1 
1 
1 
1 
1 
1 
1 
1 
1 
1 
1 
1 
1 
1 
1 
1 
1 
1 
1 
1 
1 
1 
1 
1 
1 
1 
1 
1 
1 
1 
1 
1 
1 
1 
1 
1 
1 
1 
1 
1 
1 
1 
1 
1 
1 
1 
1 
1 
1 
1 
1 
1 
1 
1 
1 
1 
1 
1 
1 
1 
1 
1 
1 
1 
1 
1 
1 
1 
1 
1 
1 
1 
1 
1 
1 
1 
1 
1 
1 
1 
1 
1 
1 
1 
1 
1 
1 
1 
1 
1 
1 
1 
1 
1 
1 
1 
1 
1 
1 
1 
1 
1 
1 
1 
1 
1 
1 
1 
1 
1 
1 
1 
1 
1 
1 
1 
1 
1 
1 
1 
1 
1 
1 
1 
1 
1 
1 
1 
1 
1 
1 
1 
1 
1 
1 
1 
1 
1 
1 
1 
1 
1 
1 
1 
1 
1 
1 
1 
1 
1 
1 
1 
1 
1 
1 
1 
1 
1 
1 
1 
1 
1 
1 
1 
1 
1 
1 
1 
1 
1 
1 
1 
1 
1 
1 
1 
1 
1 
1 
1 
1 
1 
1 
1 
1 
1 
1 
1 
1 
1 
1 
1 
1 
1 
1 
1 
1 
1 
1 
1 
1 
1 
1 
1 
1 
1 
1 
1 
1 
1 
1 
1 
1 
1 
1 
1 
1 
1 
1 
1 
1 
1 
1 
1 
1 
1 
1 
1 
1 
1 
1 
1 
1 
1 
1 
1 
1 
1 
1 
1 
1 
1 
1 
1 
1 
1 
1 
1 
1 
1 
1 
1 
1 
1 
1 
1 
1 
1 
1 
1 
1 
1 
1 
1 
1 
1 
1 
1 
1 
1 
1 
1 
1 
1 
1 
1 
1 
1 
1 
1 
1 
1 
1 
1 
1 
1 
1 
1 
1 
1 
1 
1 
1 
1 
1 
1 
1 
1 
1 
1 
1 
1 
1 
1 
1 
1 
1 
1 
1 
1 
1 
1 
1 
1 
1 
1 
1 
1 
1 
1 
1 
1 
1 
1 
1 
1 
1 
1 
1 
1 
1 
1 
1 
1 
1 
1 
1 
1 
1 
1 
1 
1 
1 
1 
1 
1 
1 
1 
1 
1 
1 
1 
1 
1 
1 
1 
1 
1 
1 
1 
1 
1 
1 
1 
1 
1 
1 
1 
1 
1 
1 
1 
1 
1 
1 
1 
1 
1 
1 
1 
1 
1 
1 
1 
1 
1 
1 
1 
1 
1 
1 
1 
1 
1 
1 
1 
1 
1 
1 
1 
1 
1 
1 
1 
1 
1 
1 
1 
1 
1 
1 
1 
1 
1 
1 
1 
1 
1 
1 
1 
1 
1 
1 
1 
1 
1 
1 
1 
1 
1 
1 
1 
1 
1 
1 
1 
1 
1 
1 
1 
1 
1 
1 
1 
1 
1 
1 
1 
1 
1 
1 
1 
1 
1 
1 
1 
1 
1 
1 
1 
1 
1 
1 
1 
1 
1 
1 
1 
1 
1 
1 
1 
1 
1 
1 
1 
1 
1 
1 
1 
1 
1 
1 
1 
1 
1 
1 
1 
1 
1 
1 
1 
1 
1 
1 
1 
1 
1 
1 
1 
1 
1 
1 
1 
1 
1 
1 
1 
1 
1 
1 
1 
1 
1 
1 
1 
1 
1 
1 
1 
1 
1 
1 
1 
1 
1 
1 
1 
1 
1 
1 
1 
1 
1 
1 
1 
1 
1 
1 
1 
1 
1 
1 
1 
1 
1 
1 
1 
1 
1 
1 
1 
1 
1 
1 
1 
1 
1 
1 
1 
1 
1 
1 
1 
1 
1 
1 
1 
1 
1 
1 
1 
1 
1 
1 
1 
1 
1 
1 
1 
1 
1 
1 
1 
1 
1 
1 
1 
1 
1 
1 
1 
1 
1 
1 
1 
1 
1 
1 
1 
1 
1 
1 
1 
1 
1 
1 
1 
1 
1 
1 
1 
1 
1 
1 
1 
1 
1 
1 
1 
1 
1 
1 
1 
1 
1 
1 
1 
1 
1 
1 
1 
1 
1 
1 
1 
1 
1 
1 
1 
1 
1 
1 
1 
1 
1 
1 
1 
1 
1 
1 
1 
1 
1 
1 
1 
1 
1 
1 
1 
1 
1 
1 
1 
1 
1 
1 
1 
1 
1 
1 
1 
1 
1 
1 
1 
1 
1 
1 
1 
1 
1 
1 
1 
1 
1 
1 
1 
1 
1 
1 
1 
1 
1 
1 
1 
1 
1 
1 
1 
1 
1 
1 
1 
1 
1 
1 
1 
1 
1 
1 
1 
1 
1 
1 
1 
1 
1 
1 
1 
1 
1 
1 
1 
1 
1 
1 
1 
1 
1 
1 
1 
1 
1 
1 
1 
1 
1 
1 
1 
1 
1 
1 
1 
1 
1 
1 
1 
1 
1 
1 
1 
1 
1 
1 
1 
1 
1 
1 
1 
1 
1 
1 
1 
1 
1 
1 
1 
1 
1 
1 
1 
1 
1 
1 
1 
1 
1 
1 
1 
1 
1 
1 
1 
1 
1 
1 
1 
1 
1 
1 
1 
1 
1 
1 
1 
1 
1 
1 
1 
1 
1 
1 
1 
1 
1 
1 
1 
1 
1 
1 
1 
1 
1 
1 
1 
1 
1 
1 
1 
1 
1 
1 
1 
1 
1 
1 
1 
1 
1 
1 
1 
1 
1 
1 
1 
1 
1 
1 
1 
1 
1 
1 
1 
1 
1 
1 
1 
1 
1 
1 
1 
1 
1 
1 
1 
1 
1 
1 
1 
1 
1 
1 
1 
1 
1 
1 
1 
1 
1 
1 
1 
1 
1 
1 
1 
1 
1 
1 
1 
1 
1 
1 
1 
1 
1 
1 
1 
1 
1 
1 
1 
1 
1 
1 
1 
1 
1 
1 
1 
1 
1 
1 
1 
1 
1 
1 
1 
1 
1 
POINT_DATA 5000
VECTORS Stress float
-74.2072 -172.961 0.
-787.064 -1694.87 0.
4.17452 8.65121 0.
-1920.84 -2670.18 0.
-254.737 -374.904 0.
-7.73857 -12.446 0.
-2723.94 -4504.01 0.
-1354.76 -2327.86 0.
-47.772 -89.5109 0.
-2023.51 -2943.11 0.
-1406.99 -2067.61 0.
-795.4 -1187.2 0.
-1258.71 -1812.01 0.
-1162.43 -1820.63 0.
-1106.9 -1899.21 0.
-901.586 -1624.79 0.
-694.657 -1351.98 0.
-682.487 -1338.8 0.
-594.056 -1214.55 0.
-505.234 -1090.7 0.
-547.11 -1076.05 0.
-525.946 -1055.01 0.
-504.789 -1033.97 0.
-516.02 -1053.01 0.
-507.609 -1087.46 0.
-502.176 -1118.92 0.
-593.36 -1243.52 0.
-626.606 -1304.35 0.
-575.148 -1270.08 0.
-549.471 -1235.43 0.
-524.455 -1200.12 0.
-529.818 -1202.01 0.
-525.123 -1200.85 0.
-520.578 -1199.54 0.
-522.341 -1211.74 0.
-529.949 -1254.85 0.
-543.681 -1291.84 0.
-618.162 -1383.03 0.
-642.093 -1438.86 0.
-596.488 -1439.21 0.
-577.736 -1409.53 0.
-564.762 -1374.07 0.
-570.1 -1367.27 0.
-566.421 -1363.75 0.
-563.656 -1359.32 0.
-570.181 -1368.51 0.
-577.95 -1386.64 0.
-585.719 -1404.77 0.
-584.351 -1428.81 0.
-598.754 -1462.42 0.
-613.155 -1496.02 0.
-655.677 -1493.4 0.
-644.735 -1467.87 0.
-584.664 -1421.53 0.
-574.307 -1397.37 0.
-563.951 -1373.2 0.
-566.54 -1365.01 0.
-569.481 -1368.61 0.
-574.003 -1370.62 0.
-567.285 -1371.54 0.
-579.263 -1407.25 0.
-596.808 -1437.39 0.
-640.915 -1432.85 0.
-612.317 -1366.12 0.
-529.2 -1260.7 0.
-517.215 -1218.63 0.
-509.927 -1171.86 0.
-517.64 -1164.31 0.
-523.113 -1174.87 0.
-531.133 -1182.88 0.
-520.466 -1181.66 0.
-547.43 -1220.52 0.
-575.129 -1258.65 0.
-631.037 -1300.1 0.
-599.347 -1243.38 0.
-559.096 -1182.32 0.
-520.534 -1087.05 0.
-531.318 -1054.71 0.
-504.299 -1034.51 0.
-536.579 -1081.64 0.
-568.91 -1128.72 0.
-538.757 -1143.17 0.
-657.969 -1311.71 0.
-776.679 -1480.74 0.
-782.798 -1462.41 0.
-1027.91 -1759.78 0.
-1271.03 -2059.15 0.
-1300.31 -1911.44 0.
-1395.94 -1882.6 0.
-641.382 -858.777 0.
-1609.53 -2300.89 0.
-2581.72 -3738.96 0.
-0.126542 -0.811972 0.
-768.279 -1470.94 0.
-2518.89 -4462.99 0.
5.08281 9.89699 0.
-2.46403 -11.8025 0.
-1349.8 -2156 0.
0.00979249 0.0225706 0.
-63.438 -146.133 0.
0.0250308 0.0626842 0.
-1.2807 -3.05742 0.
3.51642 8.26291 0.
-4.67218 -12.5667 0.
-3.14074 -10.094 0.
5.61819 10.0879 0.
0.434639 0.852297 0.
1.26493 2.6391 0.
2.42348 5.50345 0.
-314.863 -558.395 0.
-0.0336024 -0.219516 0.
0.244334 2.19081 0.
-614.228 -989.697 0.
-543.362 -972.833 0.
-618.091 -1239.29 0.
-434.39 -942.965 0.
-260.979 -636.352 0.
-499.362 -1099.76 0.
-417.534 -968.864 0.
-337.926 -835.748 0.
-484.454 -1008.08 0.
-463.183 -987.146 0.
-441.949 -966.177 0.
-501.398 -974.275 0.
-491.856 -1009.85 0.
-483.201 -1044.54 0.
-686.208 -1300.61 0.
-714.427 -1366.46 0.
-521.949 -1182.12 0.
-493.674 -1150.06 0.
-467.331 -1116.07 0.
-503.065 -1172.16 0.
-497.97 -1171.4 0.
-501.074 -1162.44 0.
-489.886 -1155.01 0.
-495.522 -1200.1 0.
-504.847 -1241.5 0.
-681.503 -1410.14 0.
-705.436 -1465.97 0.
-539.467 -1362.78 0.
-519.504 -1334.31 0.
-502.452 -1302.93 0.
-526.276 -1343.19 0.
-521.373 -1340.9 0.
-516.739 -1338.34 0.
-535.756 -1345.44 0.
-540.179 -1366.91 0.
-545.49 -1387.5 0.
-552.742 -1361.91 0.
-563.256 -1399.41 0.
-575.668 -1435 0.
-693.29 -1509.49 0.
-682.347 -1483.96 0.
-532.983 -1387.63 0.
-526.129 -1359.96 0.
-520.089 -1331.48 0.
-519.416 -1343.92 0.
-524.416 -1345.45 0.
-529.715 -1346.69 0.
-501.412 -1294.53 0.
-515.642 -1327.99 0.
-536.205 -1355.11 0.
-705.893 -1460.65 0.
-677.293 -1393.93 0.
-487.924 -1205.69 0.
-477.496 -1162.06 0.
-471.792 -1113.71 0.
-507.114 -1128.08 0.
-506.317 -1144.91 0.
-511.251 -1156 0.
-461.313 -1088.8 0.
-491.318 -1124.62 0.
-522.236 -1159.54 0.
-717.059 -1366.85 0.
-690.162 -1305.35 0.
-527.577 -1082.12 0.
-502.777 -1003.4 0.
-514.52 -970.091 0.
-401.564 -945.743 0.
-435.828 -990.895 0.
-470.308 -1035.83 0.
-315.675 -791.944 0.
-420.373 -975.077 0.
-529.115 -1154.16 0.
-224.302 -511.642 0.
-424.642 -854.215 0.
-638.771 -1183 0.
-467.998 -768.151 0.
-526.189 -776.818 0.
0.335596 1.45852 0.
-0.0182347 -0.0554492 0.
-60.339 -97.2587 0.
0.114416 2.10985 0.
4.84204 11.1896 0.
5.34611 11.8215 0.
2.21329 4.28315 0.
7.6223 14.3085 0.
-1.88454 -8.01016 0.
-0.548579 -19.2582 0.
-2.68972 -6.83348 0.
-2.07085 -5.47471 0.
0.732357 1.89087 0.
9.30062 24.1049 0.
-3.82583 -12.8804 0.
-2.20032 -9.06939 0.
-1.01545 -5.4603 0.
3.88674 8.52598 0.
3.04255 7.12314 0.
0.101861 2.51552 0.
1.4914 3.34245 0.
0.047564 0.977367 0.
-0.0312492 -6.41241 0.
-50.7914 -86.3451 0.
-17.1008 -32.2394 0.
-209.845 -498.799 0.
-62.0631 -166.271 0.
0.0240488 0.734352 0.
-338.624 -838.335 0.
-266.771 -697.417 0.
-200.787 -550.631 0.
-425.564 -936.342 0.
-403.809 -915.891 0.
-382.497 -894.996 0.
-492.738 -889.576 0.
-483.212 -925.138 0.
-474.133 -960.244 0.
-791.18 -1345.57 0.
-819.396 -1411.42 0.
-487.603 -1075.3 0.
-460.425 -1042.14 0.
-434.164 -1008.07 0.
-480.696 -1137.92 0.
-481.779 -1130.99 0.
-484.704 -1122.21 0.
-464.974 -1090.75 0.
-469.765 -1136.68 0.
-475.434 -1181.74 0.
-744.845 -1437.25 0.
-768.78 -1493.07 0.
-489.636 -1279.16 0.
-470.093 -1250.27 0.
-451.641 -1220.29 0.
-496.152 -1305.42 0.
-491.257 -1303.12 0.
-486.628 -1300.55 0.
-515.817 -1307.87 0.
-519.935 -1329.65 0.
-524.497 -1350.99 0.
-528.321 -1287.82 0.
-539.227 -1324.92 0.
-630.075 -1432.19 0.
-730.902 -1525.58 0.
-719.959 -1500.05 0.
-505.508 -1329.53 0.
-498.476 -1302.04 0.
-492.298 -1273.69 0.
-491.929 -1303.19 0.
-495.965 -1305.68 0.
-501.015 -1307.17 0.
-449.061 -1203.99 0.
-465.712 -1235.04 0.
-484.913 -1263.53 0.
-770.871 -1488.45 0.
-742.27 -1421.74 0.
-460.612 -1136.71 0.
-454.954 -1088.31 0.
-450.345 -1038.86 0.
-499.915 -1088.51 0.
-499.889 -1104.57 0.
-499.39 -1121.1 0.
-424.322 -973.778 0.
-453.079 -1010.86 0.
-482.749 -1047.02 0.
-824.14 -1412.54 0.
-797.125 -1351.17 0.
-434.044 -885.723 0.
-489.185 -915.572 0.
-499.939 -883.254 0.
-333.367 -822.434 0.
-364.999 -870.226 0.
-397.091 -917.558 0.
-141.492 -391.817 0.
-224.836 -596.388 0.
-318.045 -791.095 0.
0.566658 0.220145 0.
0.221613 0.404902 0.
-105.605 -207.755 0.
0.177208 0.920295 0.
-1.03008 -3.06503 0.
0.827706 3.3117 0.
0.484757 3.70946 0.
0.0432425 0.242581 0.
-0.238604 -17.4149 0.
-0.404206 -11.3167 0.
-0.680999 -11.8134 0.
-2.25441 -11.5675 0.
4.39398 8.20556 0.
-1.70834 -7.17144 0.
-0.0666196 -16.2746 0.
-0.28326 -24.4715 0.
-5.27233 -14.0874 0.
-505.621 -1353.2 0.
-3.05451 -8.22193 0.
-1075.51 -2321.32 0.
5.63964 12.395 0.
-1.74815 -18.5738 0.
-2174.53 -4986.15 0.
-0.508507 -6.1106 0.
4.27581 9.88543 0.
-2288.98 -4438.7 0.
-661.157 -1332.15 0.
1.35234 2.89258 0.
-2076.76 -3735.47 0.
-1222.58 -2248.98 0.
-1507.87 -2799.97 0.
-1063.55 -2076.44 0.
-639.675 -1332.45 0.
-1259.05 -2640.17 0.
-906.189 -2010.4 0.
-568.826 -1365.13 0.
-920.282 -2013.46 0.
-742.882 -1714.94 0.
-570.446 -1411.45 0.
-765.532 -1633.62 0.
-691.22 -1531.46 0.
-617.043 -1429.17 0.
-1018.21 -1950.68 0.
-1041.37 -2004.74 0.
-717.279 -1678.16 0.
-700.577 -1645.6 0.
-683.942 -1612.97 0.
-727.742 -1683.24 0.
-720.895 -1710.23 0.
-715.223 -1736.05 0.
-724.047 -1712.73 0.
-735.459 -1781.16 0.
-747.722 -1848.73 0.
-1024.8 -2141.21 0.
-1041.87 -2181.04 0.
-733.725 -1948.22 0.
-724.613 -1935.9 0.
-715.695 -1923.38 0.
-762.62 -1983.48 0.
-757.934 -1993.01 0.
-754.377 -2001.42 0.
-782.167 -2010.96 0.
-787.739 -2042.41 0.
-794.489 -2072.68 0.
-845.161 -2066.39 0.
-852.955 -2090.66 0.
-938.043 -2190.96 0.
-993.654 -2249.49 0.
-981.499 -2221.13 0.
-778.728 -2039.31 0.
-773.705 -2016.29 0.
-770.314 -1991.64 0.
-757.783 -1997.71 0.
-761.065 -1988.8 0.
-765.348 -1978.88 0.
-705.651 -1906.42 0.
-710.653 -1911.44 0.
-715.831 -1916.28 0.
-1043.13 -2164.04 0.
-1026.65 -2125.58 0.
-739.674 -1818.82 0.
-724.764 -1735.54 0.
-711.05 -1651.06 0.
-710.973 -1680.1 0.
-717.378 -1657.9 0.
-724.555 -1634.93 0.
-656.512 -1549.24 0.
-684.838 -1602.69 0.
-713.262 -1656.04 0.
-1024.05 -2019.79 0.
-1006.59 -1979.09 0.
-572.86 -1341.84 0.
-691.594 -1551.18 0.
-789.252 -1715.92 0.
-562.251 -1397.98 0.
-779.009 -1807.85 0.
-1003.83 -2209.66 0.
-551.244 -1326.6 0.
-971.919 -2146.56 0.
-1414.72 -2944.38 0.
-636.407 -1246.99 0.
-1109.85 -2063.29 0.
-1606.36 -2856.53 0.
-1187.68 -2141.29 0.
-2330.24 -4147.85 0.
1.86042 4.19747 0.
-290.767 -602.884 0.
-2256.94 -4473.82 0.
-0.227166 -3.84504 0.
-0.230652 -3.73403 0.
-1366.86 -3256.84 0.
6.62802 15.4127 0.
-834.517 -1882.68 0.
-50.7709 -136.248 0.
-0.577632 -1.55371 0.
0.160379 0.432321 0.
-0.407844 -27.7793 0.
-7.79616 -21.232 0.
7.7485 21.2089 0.
0.787781 2.16673 0.
5.63563 13.2046 0.
2.03071 4.92366 0.
1.78479 4.3381 0.
5.60112 13.6439 0.
-0.225034 -3.9629 0.
-0.863301 -5.73899 0.
2.02388 4.37011 0.
2.92497 6.64953 0.
-169.904 -344.873 0.
-0.20982 -1.8597 0.
-425.715 -840.209 0.
-31.3853 -64.8359 0.
-0.322334 -3.53804 0.
-620.512 -1445.11 0.
-310.772 -771.275 0.
-26.4236 -72.0514 0.
-604.658 -1467.36 0.
-448.937 -1146.94 0.
-303.22 -816.521 0.
-640.111 -1464.52 0.
-574.976 -1353.16 0.
-511.166 -1240.47 0.
-978.392 -1933.61 0.
-1001.55 -1987.68 0.
-720.98 -1646.09 0.
-702.005 -1615.8 0.
-683.295 -1585.24 0.
-705.083 -1597.1 0.
-698.427 -1623.9 0.
-692.652 -1649.82 0.
-696.814 -1639.95 0.
-707.425 -1709.18 0.
-718.868 -1777.58 0.
-998.033 -2129.7 0.
-1015.1 -2169.52 0.
-706.071 -1907.22 0.
-697.968 -1893.89 0.
-690.208 -1880.21 0.
-729.594 -1902.98 0.
-725.547 -1911.87 0.
-722.614 -1919.65 0.
-738.458 -1930.36 0.
-743.552 -1962.29 0.
-749.896 -1992.97 0.
-850.806 -2050.56 0.
-858.512 -2074.93 0.
-946.892 -2188.23 0.
-935.336 -2224.46 0.
-923.181 -2196.1 0.
-756.581 -1980.23 0.
-751.81 -1956.96 0.
-747.739 -1932.98 0.
-723.019 -1917.4 0.
-726.23 -1908.56 0.
-730.411 -1898.74 0.
-688.385 -1861.04 0.
-693.305 -1866.14 0.
-698.394 -1871.08 0.
-1021.84 -2154.88 0.
-1005.36 -2116.41 0.
-725.992 -1744.11 0.
-712.238 -1659.66 0.
-699.502 -1574.2 0.
-681.195 -1590.99 0.
-686.248 -1570.14 0.
-694.473 -1546.12 0.
-648.146 -1513.13 0.
-676.838 -1566.21 0.
-705.829 -1619 0.
-950.363 -1988.23 0.
-935.616 -1944.83 0.
-463.044 -1126.54 0.
-535.379 -1288.66 0.
-625.722 -1460.77 0.
-235.542 -644.25 0.
-419.615 -1087.16 0.
-617.022 -1516.74 0.
0.00077647 2.48005 0.
-217.406 -539.6 0.
-605.68 -1393.48 0.
1.86565 3.43565 0.
-0.729539 -2.35447 0.
-258.416 -443.54 0.
1.95437 4.31972 0.
-0.776028 -6.63241 0.
-0.283722 -4.74491 0.
2.19028 5.01771 0.
-0.796053 -6.7601 0.
-0.602438 -10.7363 0.
-0.181624 -3.09501 0.
-0.221895 -3.61751 0.
-0.532845 -20.5409 0.
-142.822 -360.541 0.
-6.41432 -17.2748 0.
6.33513 17.0982 0.
6.79057 18.364 0.
8.38523 23.1966 0.
-120.276 -326.518 0.
-19.5009 -52.6425 0.
6.67853 17.9153 0.
-606.651 -1658.08 0.
-0.807561 -2.19567 0.
-930.343 -2480.2 0.
4.19184 11.2576 0.
3.35911 9.09017 0.
-1590.62 -4065.77 0.
4.0152 10.414 0.
-0.0761864 -3.79133 0.
-1649.05 -3801.06 0.
-388.013 -897.146 0.
-1376.73 -2986.99 0.
-837.836 -1839.77 0.
-309.262 -682.228 0.
-1380.47 -3155.85 0.
-854.707 -2014.4 0.
-348.789 -853.106 0.
-1099.36 -2446.41 0.
-773.638 -1787.78 0.
-460.641 -1116.42 0.
-882.11 -1860.27 0.
-672.36 -1471.36 0.
-467.487 -1077.57 0.
-890.928 -1774.82 0.
-786.269 -1612.19 0.
-521.723 -1143.92 0.
-503.326 -1130.46 0.
-485.791 -1116.13 0.
-499.205 -1135.19 0.
-496.783 -1149.26 0.
-494.85 -1162.84 0.
-469.47 -1156.78 0.
-465.708 -1158.36 0.
-462.101 -1159.79 0.
-730.116 -1537.4 0.
-736.685 -1552.75 0.
-447.648 -1221.23 0.
-459.556 -1257.76 0.
-471.579 -1294.18 0.
-487.454 -1330.47 0.
-484.338 -1330.36 0.
-481.845 -1329.63 0.
-494.256 -1322.27 0.
-486.284 -1303 0.
-478.577 -1283.47 0.
-561.013 -1361.38 0.
-531.863 -1346.91 0.
-626.894 -1394.83 0.
-580.297 -1473.11 0.
-589.175 -1493.82 0.
-468.113 -1286.3 0.
-476.675 -1305.36 0.
-497.328 -1312.32 0.
-479.95 -1298.54 0.
-481.422 -1296.81 0.
-483.106 -1294.87 0.
-462.109 -1261.91 0.
-451.192 -1230.38 0.
-440.3 -1198.82 0.
-740.085 -1539.95 0.
-735.52 -1529.28 0.
-477.71 -1130.16 0.
-487.021 -1141.64 0.
-496.462 -1152.98 0.
-513.436 -1168.49 0.
-515.837 -1153.21 0.
-518.42 -1137.75 0.
-476.302 -1098.18 0.
-513.124 -1150.2 0.
-545.713 -1206.45 0.
-804.778 -1645.8 0.
-925.95 -1839.01 0.
-429.109 -1003.76 0.
-693.245 -1534.41 0.
-951.348 -2039.26 0.
-445.13 -1093.9 0.
-820.938 -1912.02 0.
-1213.81 -2713.08 0.
-251.343 -622.608 0.
-874.228 -2100.12 0.
-1514.81 -3559.92 0.
-248.276 -529.258 0.
-859.36 -1853.31 0.
-1479.72 -3168.09 0.
-107.769 -263.097 0.
-1578 -3644.15 0.
-0.0475318 -10.7402 0.
3.9674 10.6589 0.
-1458.6 -3822.29 0.
-1.30236 -3.49363 0.
-25.6316 -68.5194 0.
-755.296 -2025.71 0.
6.35118 17.5854 0.
-443.185 -1227.19 0.
-0.225448 -32.0573 0.
9.36297 25.4453 0.
1.53638 4.16589 0.
0.0856035 0.237019 0.
-77.2399 -209.375 0.
-6.67686 -17.9962 0.
-0.425307 -29.8076 0.
-305.224 -844.48 0.
3.50455 9.68877 0.
-264.623 -711.925 0.
0.291413 0.788984 0.
1.84127 5.01795 0.
-93.1862 -248.611 0.
1.58099 4.27533 0.
4.16854 11.431 0.
-370.543 -887.999 0.
2.66285 6.68093 0.
-376.629 -820.632 0.
-0.34433 -2.92085 0.
-0.510996 -5.15572 0.
-614.743 -1475.22 0.
-120.945 -299.684 0.
-0.00137103 -0.0528306 0.
-594.338 -1437.29 0.
-297.551 -748.95 0.
-16.2806 -45.0916 0.
-562.702 -1340.43 0.
-370.17 -934.034 0.
-189.735 -515.547 0.
-689.303 -1510.65 0.
-592.878 -1339.72 0.
-443.752 -1040.42 0.
-424.445 -1027.86 0.
-406.264 -1014.18 0.
-455.733 -1065.33 0.
-455.858 -1076.86 0.
-453.934 -1090.43 0.
-455.895 -1112.17 0.
-450.9 -1114.99 0.
-447.18 -1116.53 0.
-723.023 -1534.32 0.
-729.592 -1549.67 0.
-440.373 -1197.36 0.
-452.204 -1233.96 0.
-464.145 -1270.46 0.
-461.893 -1261.27 0.
-459.235 -1260.7 0.
-457.213 -1259.5 0.
-477.399 -1291.59 0.
-469.698 -1272.06 0.
-462.185 -1252.33 0.
-550.209 -1359.86 0.
-523.734 -1342.72 0.
-591.952 -1374.76 0.
-558.909 -1463.91 0.
-567.787 -1484.63 0.
-453.437 -1241.32 0.
-461.626 -1260.76 0.
-470.227 -1279.78 0.
-455.521 -1248.88 0.
-456.454 -1247.69 0.
-458.367 -1245.52 0.
-461.384 -1254.55 0.
-451.049 -1222.44 0.
-440.839 -1190.2 0.
-717.093 -1530.06 0.
-712.527 -1519.39 0.
-445.09 -1079.36 0.
-454.329 -1090.91 0.
-468.987 -1097.04 0.
-460.804 -1075.63 0.
-462.156 -1061.39 0.
-465.207 -1045.46 0.
-377.9 -958.992 0.
-412.169 -1013.57 0.
-448.251 -1066.34 0.
-569.143 -1285.88 0.
-681.039 -1488.46 0.
-134.624 -369.899 0.
-348.314 -887.341 0.
-584.728 -1414.27 0.
-0.00133956 -0.41805 0.
-248.072 -635.45 0.
-606.837 -1471.76 0.
-0.00157331 -0.0910743 0.
-44.6538 -113.141 0.
-651.524 -1609.74 0.
2.6314 5.66688 0.
0.10485 0.221512 0.
-325.757 -685.214 0.
2.44155 6.11991 0.
-284.283 -668.118 0.
-0.00811949 -8.56414 0.
-0.0108666 -13.4953 0.
-63.6785 -174.348 0.
2.59436 7.03764 0.
-6.57901 -17.7871 0.
-344.647 -930.687 0.
9.09274 25.0994 0.
-163.591 -451.478 0.
7.0805 19.2 0.
-0.298111 -0.806438 0.
10.2922 27.7722 0.
10.6429 29.4787 0.
-104.344 -282.443 0.
9.47288 25.4931 0.
-6.40534 -17.1285 0.
-35.9319 -99.2744 0.
-0.0222849 -19.7693 0.
0.378319 1.02463 0.
-0.1046 -15.3171 0.
3.27719 8.98033 0.
-0.0513472 -9.44941 0.
1.98515 5.47652 0.
-2.70583e-07 -12.346 0.
-0.169777 -5.56272 0.
-0.15217 -4.74884 0.
2.46534 5.41933 0.
0.711714 1.61245 0.
-0.183083 -2.32026 0.
1.80768 4.53512 0.
1.47211 3.85547 0.
0.00134948 0.183127 0.
-143.396 -374.095 0.
0.00312838 1.27953 0.
-0.0878835 -2.29774 0.
-292.096 -771.782 0.
-123.273 -341.42 0.
-1.3064 -0.216982 0.
-514.992 -1219.17 0.
-429.884 -1036.86 0.
-378.176 -924.516 0.
-363.366 -907.459 0.
-349.353 -889.606 0.
-415.203 -992.533 0.
-414.8 -1004.58 0.
-414.343 -1016.69 0.
-450.804 -1059.08 0.
-444.087 -1063.61 0.
-438.405 -1067.11 0.
-715.93 -1531.25 0.
-722.499 -1546.59 0.
-433.1 -1173.48 0.
-444.868 -1210.15 0.
-456.742 -1246.72 0.
-436.788 -1191.62 0.
-434.636 -1190.54 0.
-432.798 -1189.15 0.
-460.58 -1260.88 0.
-453.155 -1241.06 0.
-445.861 -1221.12 0.
-535 -1362.75 0.
-515.358 -1338.77 0.
-574.773 -1379.9 0.
-537.521 -1454.71 0.
-546.399 -1475.43 0.
-439.027 -1196.08 0.
-447.023 -1215.71 0.
-455.203 -1235.15 0.
-437.282 -1193.03 0.
-438.033 -1192.02 0.
-439.136 -1190.66 0.
-473.602 -1234.24 0.
-463.391 -1202.01 0.
-453.335 -1169.62 0.
-694.1 -1520.17 0.
-689.535 -1509.5 0.
-421.124 -1019.91 0.
-435.591 -1026.23 0.
-450.189 -1032.42 0.
-421.164 -969.773 0.
-424.452 -953.603 0.
-426.671 -938.502 0.
-302.708 -796.59 0.
-332.94 -855.221 0.
-364.341 -912.683 0.
-370.774 -888.69 0.
-471.78 -1102.26 0.
0.455396 0.0687612 0.
-67.223 -176.431 0.
-273.188 -734.204 0.
-0.0363232 -1.15188 0.
-0.000398787 -0.140528 0.
-62.0691 -168.25 0.
-0.000957961 -0.14366 0.
-0.0285053 -1.47526 0.
-0.171181 -4.87423 0.
0.00661434 0.014882 0.
-0.615813 -1.35751 0.
2.10301 4.55033 0.
1.86466 4.64895 0.
0.553105 1.3832 0.
0.057286 5.27573 0.
6.01938 16.6021 0.
-0.909036 -2.51763 0.
-1.80205 -4.9306 0.
4.35803 11.8884 0.
-54.7498 -148.946 0.
4.8124 13.2013 0.
-0.101655 -23.6265 0.
0.737216 1.98899 0.
4.0675 10.9454 0.
-3.18795 -8.55678 0.
0.461702 1.25211 0.
6.78742 17.4831 0.
9.90467 25.9173 0.
-0.147913 -0.39281 0.
-77.3904 -213.086 0.
0.196311 0.541326 0.
-503.28 -1354.98 0.
-4.09072 -11.1086 0.
2.18467 5.97457 0.
-1087.13 -2969.24 0.
4.64993 12.7144 0.
3.56611 9.77381 0.
-1544.6 -4014.79 0.
0.0942682 0.257444 0.
-1225.79 -2956.25 0.
-658.743 -1586.98 0.
-91.074 -218.321 0.
-1403.81 -3620.95 0.
-719.637 -1869.29 0.
-42.9431 -110.135 0.
-1262.07 -3133.31 0.
-741.563 -1872.22 0.
-234.576 -597.601 0.
-1051.19 -2565.38 0.
-694.783 -1762.73 0.
-353.844 -944.62 0.
-1048.34 -2426.94 0.
-866.301 -2071.98 0.
-801.374 -1869.74 0.
-691.296 -1676.25 0.
-584.216 -1479.76 0.
-696.151 -1652.57 0.
-660.501 -1615.39 0.
-625.629 -1577.43 0.
-689.35 -1689.12 0.
-675.332 -1688.75 0.
-662.033 -1687.67 0.
-969.151 -2210.54 0.
-978.76 -2232.96 0.
-673.702 -1834.99 0.
-669.725 -1834.4 0.
-666.296 -1833.25 0.
-657.458 -1809.75 0.
-661.819 -1824.07 0.
-666.503 -1838.07 0.
-698.374 -1884.16 0.
-679.691 -1877.35 0.
-672.338 -1859.21 0.
-808.796 -2042.85 0.
-801.227 -2054.57 0.
-866.572 -2128.63 0.
-814.424 -2161.49 0.
-811.325 -2154.25 0.
-672.978 -1854.78 0.
-678.344 -1867.58 0.
-696.216 -1867.88 0.
-674.729 -1840.45 0.
-669.551 -1818.21 0.
-664.616 -1795.73 0.
-660.466 -1807.82 0.
-665.997 -1813.8 0.
-673.295 -1818 0.
-960.344 -2217.15 0.
-960.366 -2217.2 0.
-649.398 -1649.44 0.
-668.134 -1658.27 0.
-689.133 -1664.84 0.
-617.556 -1519.12 0.
-670.76 -1598.79 0.
-725.975 -1676.46 0.
-568.351 -1448.93 0.
-695.369 -1690.36 0.
-826.604 -1927.58 0.
-854.407 -2043.88 0.
-1078.33 -2502.19 0.
-313.227 -841.357 0.
-707.702 -1798.8 0.
-1133.55 -2767.3 0.
-132.483 -343.992 0.
-737.861 -1874.49 0.
-1356.43 -3391.79 0.
-0.141643 -4.34434 0.
-728.018 -1911.41 0.
-1466.79 -3838.89 0.
-23.3145 -55.9189 0.
-563.414 -1363.71 0.
-1086.93 -2688.08 0.
-9.73032 -26.6947 0.
-1602.23 -4232.79 0.
-10.6157 -29.2773 0.
3.5654 9.82769 0.
-754.363 -2080.52 0.
3.17225 8.66134 0.
1.56249 4.25129 0.
-295.596 -801.315 0.
-0.195322 -23.2083 0.
8.47361 22.8385 0.
8.13898 21.5235 0.
11.1583 29.0799 0.
-5.93245 -15.2192 0.
-12.1301 -32.9995 0.
-141.038 -358.824 0.
-36.2617 -93.8414 0.
-59.3473 -156.11 0.
-621.62 -1693.69 0.
-2.13833 -5.84054 0.
-511.966 -1388.51 0.
-1.10364 -3.01739 0.
-0.0487678 -15.7976 0.
-366.296 -1008.5 0.
-0.0321583 -13.6344 0.
-0.0176547 -10.8661 0.
-209.841 -572.43 0.
-0.000748922 -11.3789 0.
-321.888 -757.036 0.
0.511238 1.18481 0.
-2.40742 -5.5119 0.
-555.994 -1470.04 0.
0.68644 1.80028 0.
2.23263 5.88652 0.
-613.14 -1575.26 0.
-111.612 -293.135 0.
1.58128 4.36267 0.
-637.866 -1646.2 0.
-305.458 -818.756 0.
-12.2942 -33.2426 0.
-779.626 -1941.31 0.
-611.686 -1572.04 0.
-598.637 -1483.85 0.
-498.198 -1280.63 0.
-404.56 -1070.6 0.
-601.137 -1465.93 0.
-568.865 -1425.36 0.
-537.548 -1383.83 0.
-645.751 -1584.76 0.
-632.557 -1583.57 0.
-619.999 -1581.74 0.
-922.278 -2190.41 0.
-931.887 -2212.83 0.
-643.884 -1753.91 0.
-640.05 -1753.17 0.
-636.727 -1751.92 0.
-653.167 -1775.38 0.
-658.053 -1789.18 0.
-663.109 -1802.8 0.
-667.974 -1842.63 0.
-660.63 -1824.48 0.
-653.425 -1806.19 0.
-801.26 -2030.52 0.
-785.655 -2050.28 0.
-853.294 -2120.41 0.
-793.359 -2136.7 0.
-791.016 -2128.71 0.
-655.395 -1808.68 0.
-660.566 -1821.68 0.
-666.025 -1834.39 0.
-669.816 -1810.71 0.
-663.888 -1789.22 0.
-663.995 -1761.7 0.
-623.579 -1711.35 0.
-629.766 -1716.66 0.
-636.757 -1721.17 0.
-922.791 -2197.56 0.
-927.047 -2193.37 0.
-593.505 -1512.39 0.
-611.858 -1521.6 0.
-631.847 -1529.18 0.
-494.037 -1269.45 0.
-542.624 -1353.76 0.
-593.935 -1435.36 0.
-355.216 -947.24 0.
-466.284 -1204.76 0.
-584.093 -1455.54 0.
-557.153 -1441.34 0.
-765.594 -1915.45 0.
0.000357257 0.304046 0.
-235.236 -628.635 0.
-634.238 -1625.17 0.
-0.022174 -3.28277 0.
-5.47439 -14.5634 0.
-598.314 -1560.48 0.
1.28967 3.42343 0.
-10.3134 -27.7615 0.
-597.196 -1597.27 0.
-70.7819 -167.525 0.
-5.73352 -13.4951 0.
-251.257 -690.302 0.
-0.0277936 -0.0767555 0.
-50.3296 -138.895 0.
-3.56865 -9.82097 0.
-3.02929 -8.33162 0.
-450.847 -1240.84 0.
6.52516 17.8974 0.
-2.92637 -8.00241 0.
-585.764 -1597.57 0.
6.67298 17.834 0.
-504.814 -1343.19 0.
-48.1477 -126.804 0.
-0.944653 -2.44844 0.
-14.9071 -37.992 0.
-85.745 -234.037 0.
-1.51671 -22.0528 0.
3.42925 8.33893 0.
3.90043 9.65826 0.
-79.7961 -204.208 0.
-18.5681 -47.2413 0.
-223.562 -617.187 0.
6.64334 18.3462 0.
-1.81808 -5.0236 0.
-415.104 -1146.74 0.
-2.05505 -5.64728 0.
4.71657 12.8616 0.
-1059.56 -2920.76 0.
0.535096 1.46497 0.
-1040.88 -2785.16 0.
-552.231 -1397.03 0.
-14.3367 -35.449 0.
-1094.86 -3002.77 0.
-421.446 -1154.77 0.
-0.0229048 -4.55914 0.
-1151.95 -3081.49 0.
-560.99 -1511.09 0.
-0.954518 -2.61567 0.
-1033.06 -2692.49 0.
-564.223 -1501.39 0.
-109.047 -296.626 0.
-965.45 -2360.94 0.
-698.433 -1776.16 0.
-715.083 -1712.75 0.
-570.187 -1411.71 0.
-430.008 -1105.95 0.
-660.539 -1534.62 0.
-551.418 -1334.25 0.
-445.487 -1130.68 0.
-558.138 -1316.03 0.
-488.567 -1184.78 0.
-414.542 -1057.98 0.
-694.789 -1724.85 0.
-675.271 -1709.05 0.
-434.663 -1149.25 0.
-442.17 -1173.33 0.
-449.888 -1197.19 0.
-466.7 -1250.17 0.
-455.01 -1221.54 0.
-443.757 -1192.47 0.
-439.309 -1215.75 0.
-422.082 -1166.45 0.
-405.088 -1116.91 0.
-495.943 -1372.07 0.
-482.615 -1334.84 0.
-535.021 -1341.27 0.
-507.861 -1389.47 0.
-518.727 -1420.02 0.
-402.177 -1111.58 0.
-417.328 -1154.34 0.
-432.508 -1197.07 0.
-449.073 -1189.33 0.
-461.088 -1222.41 0.
-473.917 -1254.68 0.
-434.941 -1175.08 0.
-432.067 -1164.13 0.
-429.654 -1152.73 0.
-687.674 -1721.82 0.
-720.911 -1763.71 0.
-403.899 -1010.02 0.
-502.172 -1200.28 0.
-598.212 -1392.78 0.
-446.066 -1149.23 0.
-562.993 -1372.43 0.
-685.05 -1590.49 0.
-409.091 -1061.13 0.
-578.335 -1448.23 0.
-753.403 -1829.5 0.
-703.539 -1809.54 0.
-1028.62 -2556.43 0.
-60.8414 -166.943 0.
-576.586 -1540.68 0.
-1119.4 -2938.93 0.
0.651244 1.77725 0.
-505.963 -1382.27 0.
-1126.96 -3064.76 0.
1.49032 4.10691 0.
-298.683 -823.308 0.
-944.708 -2602.87 0.
-254.499 -617.678 0.
-1230.44 -2885.59 0.
-210.743 -578.399 0.
2.26225 6.17635 0.
-658.202 -1785.3 0.
-0.422551 -1.15929 0.
-7.16795 -19.6984 0.
-294.844 -811.24 0.
6.25808 17.1894 0.
3.27552 9.00423 0.
-173.363 -476.883 0.
9.5561 23.561 0.
-15.1457 -37.4662 0.
6.79346 17.2436 0.
-3.87434 -9.76536 0.
5.13579 12.8461 0.
-0.128192 -21.221 0.
-1.24609 -18.9882 0.
2.96964 7.26783 0.
7.05632 17.5861 0.
-47.8722 -121.425 0.
1.28801 3.24561 0.
-205.014 -563.769 0.
-2.50976 -6.90546 0.
4.80689 13.2343 0.
-388.041 -1069.71 0.
3.4039 9.32444 0.
1.01427 2.75501 0.
-357.241 -963.641 0.
-0.410913 -1.10087 0.
-0.127854 -7.50275 0.
-195.266 -507.156 0.
-0.31695 -0.803441 0.
-603.557 -1657.97 0.
1.46711 4.05382 0.
-0.0101815 -4.11785 0.
-620.622 -1686.72 0.
-38.2592 -105.558 0.
-0.000200004 -0.567201 0.
-580.847 -1562.58 0.
-129.009 -353.11 0.
0.77689 2.15168 0.
-587.586 -1523.2 0.
-341.589 -916.861 0.
-486.326 -1226.79 0.
-351.604 -915.409 0.
-222.408 -598.501 0.
-483.154 -1189.11 0.
-382.531 -980.152 0.
-287.966 -765.134 0.
-464.235 -1141.19 0.
-398.383 -1006.19 0.
-346.173 -868.803 0.
-662.94 -1644.53 0.
-639.924 -1632.23 0.
-419.424 -1103.45 0.
-427.069 -1127.39 0.
-434.799 -1151.24 0.
-438.278 -1193.78 0.
-427.187 -1164.54 0.
-416.722 -1134.69 0.
-438.985 -1214.54 0.
-421.91 -1165.09 0.
-405.088 -1115.38 0.
-494.23 -1368.58 0.
-480.908 -1331.35 0.
-522.679 -1331.48 0.
-517.071 -1380.82 0.
-518.002 -1421.29 0.
-397.608 -1096.63 0.
-412.579 -1139.57 0.
-427.554 -1182.5 0.
-411.312 -1124.04 0.
-422.652 -1157.8 0.
-434.584 -1190.97 0.
-423.67 -1115.34 0.
-420.645 -1104.54 0.
-418.063 -1093.31 0.
-638.173 -1621.82 0.
-675.14 -1659.98 0.
-314.601 -779.357 0.
-393.937 -987.448 0.
-485.254 -1184.72 0.
-263.431 -705.911 0.
-367.227 -942.347 0.
-478.954 -1170.85 0.
-172.554 -467.639 0.
-329.97 -866.804 0.
-493.571 -1259.78 0.
-300.686 -814.824 0.
-602.962 -1585.3 0.
-3.52221e-07 -2.89147 0.
-82.3035 -225.285 0.
-609.589 -1640.89 0.
1.78533 4.89673 0.
-0.386196 -1.05857 0.
-609.844 -1670.84 0.
-0.182058 -0.499267 0.
-0.444281 -1.22707 0.
-498.048 -1369.9 0.
-0.0836892 -8.17991 0.
-511.333 -1334.32 0.
4.71928 12.8419 0.
-0.133968 -12.8231 0.
-458.882 -1227.73 0.
5.68865 15.5626 0.
6.62976 18.1726 0.
-321.905 -884.598 0.
6.10287 16.6773 0.
4.8372 13.2344 0.
-107.694 -294.935 0.
-1.20926 -22.5305 0.
-5.8731 -14.4827 0.
7.78791 19.8896 0.
-0.842974 -21.7584 0.
9.66444 24.3339 0.
-41.6189 -114.404 0.
7.97747 19.2663 0.
8.16764 20.1243 0.
-96.9297 -243.189 0.
-413.285 -1040.61 0.
7.48369 18.6708 0.
-473.373 -1294.45 0.
-3.53539 -9.6767 0.
3.36034 9.20348 0.
-360.997 -992.681 0.
1.49362 4.07794 0.
6.57851 17.7966 0.
3.26716 8.57968 0.
-0.470651 -1.22293 0.
2.57967 6.61057 0.
-112.495 -295.942 0.
-1.30344 -3.38557 0.
-112.972 -312.473 0.
-3.05713 -8.4655 0.
0.303483 0.839065 0.
-101.181 -280.082 0.
0.485234 1.34395 0.
-0.0030634 -5.15858 0.
-149.837 -411.47 0.
0.734619 2.02817 0.
-0.00160734 -1.29758 0.
-242.703 -652.478 0.
-48.5998 -133.753 0.
-275.295 -723.108 0.
-150.051 -406.547 0.
-79.861 -221.2 0.
-320.415 -828.953 0.
-231.546 -608.156 0.
-169.276 -458.999 0.
-378.101 -958.582 0.
-324.879 -810.928 0.
-299.538 -750.892 0.
-636.865 -1558.44 0.
-615.024 -1544.97 0.
-402.153 -1059.67 0.
-411.73 -1081.68 0.
-420.325 -1104.67 0.
-412.045 -1135.19 0.
-402.248 -1104.67 0.
-392.809 -1073.78 0.
-438.693 -1213.3 0.
-421.778 -1163.69 0.
-405.112 -1113.82 0.
-492.762 -1364.85 0.
-479.375 -1327.68 0.
-527.854 -1332.12 0.
-523.05 -1375.39 0.
-515.003 -1424.84 0.
-393.291 -1081.42 0.
-408.046 -1124.58 0.
-422.734 -1167.8 0.
-384.188 -1048.12 0.
-394.915 -1082.49 0.
-405.943 -1116.57 0.
-412.95 -1055.05 0.
-409.567 -1044.61 0.
-404.941 -1035.42 0.
-600.15 -1510.34 0.
-635.043 -1550.58 0.
-254.092 -642.85 0.
-301.538 -758.776 0.
-380.549 -968.401 0.
-121.388 -333.724 0.
-188.594 -495.135 0.
-289.438 -734.634 0.
-22.4976 -62.0624 0.
-111.296 -304.552 0.
-252.542 -671.266 0.
-0.001581 -2.33782 0.
-211.747 -579.729 0.
1.8064 4.99124 0.
1.09579 3.03029 0.
-118.551 -324.09 0.
-0.0083858 -3.453 0.
1.95401 5.37713 0.
-98.3475 -271.315 0.
-7.93279 -21.5869 0.
-2.44087 -6.71273 0.
-50.0753 -138.254 0.
-0.000513989 -6.06418 0.
-2.03845 -5.58338 0.
0.385176 1.03488 0.
-65.0261 -173.093 0.
-255.815 -673.969 0.
1.69416 4.62046 0.
-0.136175 -0.372218 0.
-349.005 -957.923 0.
6.56851 17.838 0.
7.28577 19.8188 0.
-401.827 -1094.23 0.
-9.72988 -23.8425 0.
-266.133 -654.079 0.
-171.238 -440.56 0.
6.68847 17.0736 0.
4.71305 11.9464 0.
-0.959468 -14.5099 0.
11.5685 23.267 0.
-2.75903 -21.4243 0.
9.55425 21.6071 0.
8.2715 19.0748 0.
2.84854 6.71172 0.
-21.2688 -57.1286 0.
-4.28447 -11.5255 0.
-3.40403 -9.17058 0.
-59.1656 -160.988 0.
4.89401 13.368 0.
4.97256 13.6328 0.
-509.635 -1377.36 0.
-2.69276 -7.24747 0.
-68.5338 -183.155 0.
-1250.48 -3333.29 0.
-116.721 -318.236 0.
-898.954 -2479.9 0.
-354.399 -979.023 0.
0.0549277 0.151986 0.
-1068.9 -2955.16 0.
-495.723 -1372.38 0.
0.417151 1.15522 0.
-1084.13 -2980.05 0.
-563.911 -1557.52 0.
-47.6195 -131.051 0.
-1018.49 -2733.03 0.
-609.42 -1663.63 0.
-840.191 -2186.08 0.
-608.565 -1621.86 0.
-384.892 -1049.69 0.
-732.278 -1867.74 0.
-591.416 -1550.54 0.
-455.637 -1228.25 0.
-728.125 -1846.36 0.
-634.587 -1650.64 0.
-547.653 -1448.32 0.
-979.579 -2397.51 0.
-926.902 -2314.69 0.
-675.422 -1810.33 0.
-643.841 -1736.09 0.
-612.914 -1661.2 0.
-612.451 -1681.38 0.
-602.766 -1659.71 0.
-594.876 -1636.25 0.
-640.125 -1771.98 0.
-624.236 -1727.06 0.
-608.669 -1681.81 0.
-770.493 -1937.75 0.
-740.146 -1945.08 0.
-785.203 -1990.71 0.
-774.184 -2002.06 0.
-778.536 -2011.68 0.
-601.705 -1654.73 0.
-618.955 -1709.41 0.
-637.25 -1763.05 0.
-594.437 -1630.28 0.
-605.12 -1660.5 0.
-617.835 -1688.69 0.
-602.077 -1632.18 0.
-636.733 -1715.89 0.
-673.634 -1797.37 0.
-903.439 -2299.59 0.
-969.48 -2415.85 0.
-502.336 -1350.02 0.
-614.802 -1621.04 0.
-732.829 -1886.51 0.
-409.542 -1106.69 0.
-580.485 -1529.35 0.
-757.732 -1945.7 0.
-363.174 -994.299 0.
-611.297 -1635.91 0.
-868.652 -2268.28 0.
-578.789 -1584.93 0.
-1062.77 -2871.5 0.
0.719669 1.97125 0.
-533.379 -1473.65 0.
-1075.8 -2968.88 0.
1.17024 3.241 0.
-445.052 -1231.25 0.
-1050.69 -2901.39 0.
1.56138 4.31235 0.
-392.382 -1048.64 0.
-1015.74 -2692.63 0.
4.21619 11.671 0.
-1088.96 -3009.72 0.
-1.03304 -2.70973 0.
0.37853 1.00189 0.
-343.988 -914.517 0.
0.821362 2.25246 0.
-2.94247 -8.02066 0.
-0.160996 -16.5518 0.
5.33935 14.2017 0.
0.145637 0.386679 0.
-6.70677 -17.7764 0.
-1.95391 -21.5394 0.
10.5114 23.3008 0.
5.0443 11.5187 0.
4.69552 10.004 0.
-2.34446 -13.1068 0.
0.315076 0.747036 0.
-2.59378 -15.0105 0.
8.20584 17.4439 0.
-223.441 -506.564 0.
-42.469 -97.4934 0.
-387.01 -909.469 0.
-412.419 -1100.46 0.
-223.496 -597.744 0.
-35.2228 -94.4126 0.
-679.381 -1836.31 0.
-264.296 -718.123 0.
-2.60395 -7.10162 0.
-689.713 -1841.97 0.
-1.27529 -3.39641 0.
2.73653 7.24051 0.
-476.714 -1313.51 0.
1.4938 4.13707 0.
-517.436 -1431.45 0.
0.052397 0.145024 0.
-0.00333403 -5.0884 0.
-555.957 -1539.47 0.
0.124538 0.344643 0.
-0.000259141 -4.6586 0.
-577.954 -1596.84 0.
-61.2954 -168.832 0.
-0.00937875 -4.10301 0.
-637.583 -1753.07 0.
-241.719 -669.413 0.
-549.5 -1474.78 0.
-328.766 -899.252 0.
-164.843 -456.436 0.
-546.52 -1435.18 0.
-413.3 -1110.19 0.
-302.022 -822.892 0.
-594.754 -1552.67 0.
-511.912 -1346.2 0.
-439.207 -1148.76 0.
-910.82 -2258.92 0.
-860.156 -2174.07 0.
-629.103 -1695.63 0.
-598.031 -1620.87 0.
-567.54 -1545.54 0.
-592.729 -1628.64 0.
-584.143 -1605.87 0.
-577.145 -1581.52 0.
-617.742 -1709.63 0.
-602.219 -1664.34 0.
-587.015 -1618.73 0.
-751.121 -1928.34 0.
-718.771 -1937.67 0.
-760.847 -1977.82 0.
-769.923 -1976.34 0.
-775.937 -1984.3 0.
-582.982 -1594.9 0.
-599.292 -1650.53 0.
-616.656 -1705.09 0.
-573.507 -1549.29 0.
-582.808 -1580.9 0.
-593.443 -1611.17 0.
-541.775 -1483.36 0.
-575.709 -1567.81 0.
-610.806 -1651.1 0.
-809.568 -2136.65 0.
-873.239 -2255.3 0.
-378.636 -1025.4 0.
-474.574 -1279.79 0.
-583.239 -1554.71 0.
-243.214 -667.862 0.
-373.853 -1009.98 0.
-542.328 -1435.33 0.
-122.659 -339.663 0.
-292.58 -798.527 0.
-539.305 -1442.07 0.
-166.093 -459.895 0.
-638.934 -1759.02 0.
0.105243 0.289313 0.
-17.372 -47.8545 0.
-558.853 -1546.09 0.
1.24573 3.44877 0.
0.586044 1.62271 0.
-528.109 -1459.19 0.
-0.00015953 -3.41124 0.
2.53461 6.95882 0.
-557.366 -1502.74 0.
4.384 12.0823 0.
-515.129 -1423.28 0.
0.3137 0.818353 0.
-1.38864 -3.65622 0.
-698.781 -1844.6 0.
-0.0604375 -0.164683 0.
-235.906 -639.213 0.
-667.826 -1797.24 0.
-147.946 -390.318 0.
-222.07 -584.841 0.
-296.401 -779.184 0.
-379.502 -867.295 0.
5.39766 11.9247 0.
7.71017 17.8173 0.
-2.53465 -19.9698 0.
3.36469 6.62043 0.
4.17013 9.75066 0.
-2.13205 -4.18889 0.
-99.8233 -210.972 0.
-174.086 -394.41 0.
1.70917 3.77917 0.
4.68249 10.6294 0.
-41.1856 -107.158 0.
4.87422 12.6297 0.
2.2421 5.78208 0.
3.23414 8.35011 0.
4.103 10.6202 0.
6.24794 16.214 0.
-186.933 -467.775 0.
-85.8856 -214.765 0.
-2.05786 -5.14543 0.
-516.267 -1415.05 0.
-0.026759 -4.3622 0.
-809.712 -2234.51 0.
-287.767 -796.894 0.
1.50388 4.14648 0.
-842.259 -2331.1 0.
-293.88 -811.882 0.
-0.0146137 -4.31186 0.
-889.68 -2458.35 0.
-357.568 -986.956 0.
1.63072 4.51352 0.
-898.368 -2487.13 0.
-406.65 -1124.67 0.
-716.947 -1952.49 0.
-471.315 -1297.43 0.
-230.293 -637.758 0.
-690.443 -1820.62 0.
-487.06 -1310.98 0.
-290.07 -794.951 0.
-599.281 -1560.25 0.
-447.292 -1181.89 0.
-301.235 -797.594 0.
-743.131 -1944.02 0.
-646.227 -1722.91 0.
-443.88 -1182.65 0.
-422.803 -1132.07 0.
-402.348 -1080.87 0.
-444.983 -1222.81 0.
-416.853 -1149.69 0.
-390.244 -1075.05 0.
-421.352 -1166.85 0.
-393.508 -1089.38 0.
-366.509 -1011.05 0.
-488.794 -1322.91 0.
-450.857 -1246.63 0.
-454.472 -1241.75 0.
-493.701 -1286.88 0.
-523.907 -1357.7 0.
-357.919 -984.192 0.
-393.421 -1088.39 0.
-430.177 -1191.34 0.
-399.417 -1056.45 0.
-433.525 -1149.88 0.
-469.221 -1241.71 0.
-391.56 -1075.1 0.
-424.614 -1152.92 0.
-459.195 -1229.2 0.
-649.246 -1738.19 0.
-762.558 -1993.48 0.
-276.886 -749.771 0.
-448.861 -1204.92 0.
-625.647 -1655.26 0.
-244.569 -672.212 0.
-481.088 -1306.07 0.
-723.026 -1934.5 0.
-206.893 -572.874 0.
-479.503 -1322.4 0.
-755.934 -2068.1 0.
-363.163 -1002.29 0.
-895.31 -2479.6 0.
1.61581 4.47543 0.
-317.444 -877.58 0.
-895.166 -2472.51 0.
-0.293277 -0.81201 0.
-279.002 -772.582 0.
-874.697 -2419.89 0.
0.848737 2.34167 0.
-217.229 -601.462 0.
-732.327 -2027.78 0.
2.56808 6.72539 0.
-325.418 -863.153 0.
5.61295 14.0783 0.
-45.9452 -114.738 0.
-135.859 -337.593 0.
-1.0644 -2.74576 0.
-2.94964 -7.62736 0.
-21.3211 -55.2638 0.
1.86728 4.78128 0.
-2.35479 -6.0191 0.
-0.478351 -1.22067 0.
1.86178 4.12444 0.
-8.57842 -18.8825 0.
-133.587 -313.015 0.
-1.77997 -14.512 0.
5.90527 11.5859 0.
-1.80699 -4.77139 0.
-1.92332 -13.1283 0.
5.32706 11.4679 0.
1.2222 2.72186 0.
0.592069 1.34123 0.
3.9945 9.27883 0.
-53.0725 -136.501 0.
5.82918 14.9236 0.
-2.80615 -7.14459 0.
-37.8023 -96.7858 0.
5.98393 15.3518 0.
4.41219 11.3487 0.
-332.843 -830.028 0.
2.99488 7.48626 0.
-2.10611 -5.25524 0.
-476.146 -1274.87 0.
-0.113863 -5.33213 0.
-501.653 -1389.38 0.
1.36694 3.77641 0.
2.3728 6.51055 0.
-541.894 -1498.23 0.
1.20625 3.32638 0.
0.943382 2.60003 0.
-547.733 -1511.31 0.
-14.4149 -39.7708 0.
0.0713666 0.196559 0.
-573.164 -1585.01 0.
-87.0534 -239.877 0.
-468.469 -1290.23 0.
-227.57 -630.005 0.
-73.5736 -203.533 0.
-466.204 -1260.7 0.
-270.542 -743.049 0.
-154.259 -427.161 0.
-449.96 -1210.55 0.
-304.514 -825.511 0.
-205.371 -562.876 0.
-627.504 -1689.74 0.
-540.846 -1458.32 0.
-396.265 -1074.38 0.
-374.449 -1024.53 0.
-355.92 -971.4 0.
-419.061 -1155.7 0.
-391.905 -1081.6 0.
-366.284 -1005.97 0.
-405.436 -1122.82 0.
-377.82 -1045.11 0.
-351.115 -966.493 0.
-472.998 -1306.9 0.
-441.852 -1223.84 0.
-432.586 -1198.08 0.
-464.967 -1281.63 0.
-504.909 -1342.71 0.
-340.362 -932.391 0.
-375.445 -1037.02 0.
-411.745 -1140.42 0.
-357.996 -965.387 0.
-390.457 -1060.47 0.
-424.873 -1153.59 0.
-340.355 -925.662 0.
-368.968 -1007.93 0.
-402.094 -1085.68 0.
-517.373 -1405.69 0.
-620.36 -1671.4 0.
-185.389 -513.441 0.
-291.367 -801.82 0.
-461.779 -1258.72 0.
-103.5 -286.141 0.
-247.543 -684.251 0.
-482.418 -1320.14 0.
-36.1615 -100.16 0.
-212.421 -587.868 0.
-485.189 -1337.76 0.
-47.3214 -130.68 0.
-567.261 -1567.65 0.
1.15982 3.21013 0.
-0.00167541 -4.75138 0.
-560.983 -1548.14 0.
1.80199 4.98287 0.
2.07085 5.73482 0.
-551.103 -1526.45 0.
0.628082 1.72046 0.
-0.0107559 -4.78886 0.
-468.748 -1297.53 0.
2.18303 5.5139 0.
-420.19 -1082.72 0.
5.80073 14.4313 0.
-2.1803 -5.40534 0.
-175.355 -432.267 0.
-2.71513 -6.9648 0.
-3.38369 -8.70202 0.
-35.0792 -90.4315 0.
-1.54248 -3.91009 0.
-0.739924 -18.6117 0.
-0.130073 -0.328699 0.
5.73895 13.0476 0.
1.32408 2.92182 0.
-0.770825 -11.9156 0.
-0.828587 -9.40176 0.
-1.54495 -13.1111 0.
-40.6445 -106.439 0.
-0.939034 -1.97198 0.
5.61074 12.2369 0.
-242.37 -547.104 0.
2.42374 5.62949 0.
-456.131 -1084.48 0.
-171.701 -435.907 0.
-219.845 -554.796 0.
-268.466 -673.21 0.
-469.964 -1195.9 0.
-236.969 -603.548 0.
-4.28122 -10.908 0.
-530.629 -1317.92 0.
-98.6216 -245.553 0.
-0.892503 -2.22248 0.
-451.703 -1168.56 0.
-0.303671 -6.94421 0.
-195.844 -542.019 0.
2.08678 5.74442 0.
-0.0400878 -6.30466 0.
-240.843 -666.057 0.
0.252557 0.698029 0.
1.80952 4.99894 0.
-205.196 -564.864 0.
-0.0133682 -2.92092 0.
0.0351315 0.0958927 0.
-248.074 -682.787 0.
0.578723 1.59167 0.
-225.103 -622.851 0.
-55.0561 -152.494 0.
-0.00210919 -1.10289 0.
-251.033 -691.712 0.
-123.599 -342.259 0.
-45.0678 -122.968 0.
-309.833 -851.664 0.
-224.998 -622.667 0.
-147.888 -407.958 0.
-527.616 -1419.72 0.
-471.521 -1273.12 0.
-353.626 -961.13 0.
-336.009 -907.08 0.
-339.484 -920.999 0.
-393.951 -1087.78 0.
-368.313 -1012.16 0.
-342.855 -936.352 0.
-389.511 -1078.8 0.
-362.427 -1000.55 0.
-335.777 -921.876 0.
-464.472 -1283.63 0.
-433.467 -1200.42 0.
-435.572 -1205.37 0.
-454.339 -1258.28 0.
-486.607 -1327.03 0.
-335.31 -914.011 0.
-358.803 -984.305 0.
-394.413 -1088.41 0.
-326.25 -890.31 0.
-352.505 -965.939 0.
-385.243 -1060.75 0.
-318.045 -862.609 0.
-319.476 -859.444 0.
-347.265 -939.891 0.
-425.691 -1165.38 0.
-492.889 -1334.59 0.
-124.721 -335.842 0.
-214.451 -592.487 0.
-307.83 -852.252 0.
-0.0208405 -0.563034 0.
-96.1257 -263.348 0.
-251.364 -696.219 0.
0.619903 1.71634 0.
-19.0829 -52.8318 0.
-218.26 -603.618 0.
-0.0019244 -1.49229 0.
-237.988 -656.931 0.
0.53141 1.4682 0.
0.856769 2.36679 0.
-226.262 -624.317 0.
-0.00897387 -5.8497 0.
0.251677 0.6963 0.
-228.296 -632.241 0.
1.63212 4.42717 0.
2.84219 7.77423 0.
-205.625 -566.835 0.
-0.439316 -7.3089 0.
-554.233 -1382.12 0.
-101.544 -250.194 0.
-171.101 -419.965 0.
-433.425 -1058.99 0.
-93.2423 -237.544 0.
-229.932 -586.569 0.
-366.247 -935.982 0.
-292.279 -733.129 0.
-186.73 -467.698 0.
-80.9573 -202.491 0.
-433.75 -1018.58 0.
1.83937 4.17602 0.
-139.035 -341.954 0.
4.61842 10.8376 0.
-0.583893 -5.46801 0.
2.76269 4.93764 0.
5.27443 8.78751 0.
1.57989 2.77721 0.
6.52557 12.091 0.
-1.41683 -2.84171 0.
9.00312 18.8103 0.
-2.39493 -5.39037 0.
7.84913 18.1685 0.
1.78608 4.24829 0.
-0.817164 -2.00775 0.
4.74942 11.7182 0.
-0.67614 -13.5834 0.
1.42705 3.47123 0.
0.916278 2.2349 0.
3.49791 8.55662 0.
-466.722 -1190.03 0.
-0.78825 -1.98156 0.
-697.719 -1931.69 0.
-284.99 -787.636 0.
1.01195 2.77615 0.
-864.435 -2394.05 0.
-343.726 -946.506 0.
1.37199 3.75432 0.
-900.1 -2454.37 0.
-366.214 -991.915 0.
1.69935 4.58057 0.
-915.992 -2502.3 0.
-352.902 -956.77 0.
-775.971 -2148.32 0.
-497.891 -1377.66 0.
-220.397 -606.413 0.
-737.395 -2038.77 0.
-487.712 -1350.63 0.
-240.489 -660.031 0.
-696.586 -1920.2 0.
-516.298 -1429.06 0.
-338.111 -935.814 0.
-863.98 -2352.02 0.
-738.101 -2020.34 0.
-646.878 -1746.91 0.
-588.555 -1605.03 0.
-533.951 -1459.44 0.
-612.185 -1688.46 0.
-575.096 -1588.43 0.
-540.106 -1486.31 0.
-594.718 -1647.01 0.
-558.694 -1547.06 0.
-523.744 -1446.04 0.
-677.387 -1809.61 0.
-668.411 -1754.82 0.
-690.967 -1724.41 0.
-706.791 -1810.98 0.
-714.361 -1871.28 0.
-518.221 -1422.48 0.
-560.702 -1550.65 0.
-605.353 -1676.66 0.
-520.337 -1427.44 0.
-563.494 -1553.34 0.
-609.523 -1676.38 0.
-512.349 -1401.53 0.
-580.913 -1582.12 0.
-653.273 -1758.91 0.
-697.317 -1915.56 0.
-841.326 -2294.61 0.
-299.643 -822.146 0.
-511.916 -1417.77 0.
-727.208 -2010.37 0.
-203.731 -556.166 0.
-491.828 -1359.55 0.
-780.681 -2162.17 0.
-194.557 -536.88 0.
-495.825 -1371.57 0.
-796.684 -2206.67 0.
-325.305 -884.619 0.
-924.596 -2523.46 0.
1.72446 4.69932 0.
-348.126 -951.172 0.
-929.89 -2559.91 0.
1.03585 2.84815 0.
-308.648 -852.128 0.
-817.208 -2260.93 0.
-0.0327967 -6.16 0.
-211.306 -581.68 0.
-591.899 -1634.77 0.
-0.730213 -11.7296 0.
-337.471 -817.049 0.
2.2164 5.26462 0.
5.8195 13.7861 0.
-0.106995 -0.252797 0.
5.25645 12.9618 0.
-0.772311 -14.0615 0.
6.45373 15.7355 0.
-1.22178 -15.3505 0.
0.525291 1.18851 0.
-1.38357 -3.03166 0.
-2.60368 -16.1531 0.
9.78941 18.8916 0.
7.02085 13.7349 0.
6.67356 12.4805 0.
-2.6231 -10.518 0.
-1.70008 -6.87937 0.
-0.608655 -1.0075 0.
5.94044 10.4126 0.
-111.352 -206.17 0.
4.2436 8.46087 0.
-445.188 -927.372 0.
6.46074 14.342 0.
-214.381 -488.687 0.
-439.916 -1030.85 0.
-254.174 -619.2 0.
-283.833 -694.544 0.
-313.278 -770.102 0.
-494.249 -1181.61 0.
-319.457 -766.517 0.
-222.853 -536.376 0.
-663.518 -1656.41 0.
-1.10426 -2.69912 0.
-556.073 -1535.81 0.
-142.43 -392.222 0.
3.01761 8.22823 0.
-530.848 -1464.95 0.
-7.01794 -19.2328 0.
0.886581 2.40943 0.
-570.154 -1546.18 0.
-32.1091 -86.5973 0.
1.47087 3.95473 0.
-626.598 -1693.16 0.
-60.4963 -164.579 0.
-501.63 -1389.11 0.
-223.818 -617.618 0.
-12.5458 -34.3206 0.
-524.508 -1450.55 0.
-277.938 -758.901 0.
-118.157 -313.138 0.
-544.184 -1507.18 0.
-368.825 -1016.25 0.
-278.259 -754.369 0.
-769.825 -2115.1 0.
-648.884 -1778.4 0.
-578.138 -1570.27 0.
-523.33 -1424.85 0.
-486.43 -1320.28 0.
-572.375 -1578.39 0.
-537.09 -1476.55 0.
-502.965 -1373.55 0.
-570.74 -1580.81 0.
-535.323 -1480.25 0.
-508.537 -1401.33 0.
-647.518 -1742.76 0.
-623.696 -1702.82 0.
-621.069 -1696.79 0.
-690.569 -1727.75 0.
-705.462 -1780.73 0.
-500.731 -1367.13 0.
-532.407 -1466.26 0.
-575.709 -1593.63 0.
-477.194 -1299.02 0.
-515.032 -1410.65 0.
-558.468 -1536.29 0.
-452.941 -1237.06 0.
-502.435 -1370.57 0.
-571.571 -1550.62 0.
-586.677 -1616.06 0.
-726.504 -1999.4 0.
-239.081 -630.226 0.
-348.67 -950.552 0.
-551.929 -1525.92 0.
-61.2808 -160.281 0.
-264.643 -714.259 0.
-551.949 -1518.92 0.
-0.0212743 -4.09116 0.
-212.138 -585.342 0.
-513.389 -1420.68 0.
-24.7029 -67.2662 0.
-625.963 -1697.78 0.
1.90888 5.2009 0.
0.941481 2.58302 0.
-581.284 -1593.31 0.
-0.0248479 -3.43786 0.
-52.8116 -145.096 0.
-563.696 -1552.54 0.
1.62687 4.41785 0.
-160.877 -440.555 0.
-542.525 -1492.74 0.
-101.183 -239.787 0.
-637.656 -1525.13 0.
-236.597 -553.871 0.
-316.072 -738.321 0.
-380.045 -885.935 0.
-361.876 -876.136 0.
-262.139 -631.379 0.
-161.588 -387.427 0.
-429.832 -992.185 0.
-82.3781 -184.099 0.
-2.40328 -5.19391 0.
-258.139 -521.251 0.
8.48939 16.2668 0.
-28.5508 -55.8409 0.
-1.97598 -9.09809 0.
-1.59174 -2.82691 0.
-41.7485 -74.8464 0.
3.29846 5.41931 0.
2.46226 4.30131 0.
-66.6032 -123.434 0.
2.50678 4.96425 0.
-97.0336 -201.309 0.
-69.0149 -150.635 0.
-7.64613 -17.2357 0.
5.73466 12.965 0.
3.61077 8.38959 0.
-3.02539 -7.0889 0.
-0.981848 -13.3778 0.
5.96847 13.5949 0.
1.56879 3.5418 0.
3.55386 7.94915 0.
-118.986 -269.851 0.
0.271948 0.614078 0.
-338.565 -906.064 0.
-69.5538 -186.247 0.
-0.111717 -7.26452 0.
-571.045 -1542.61 0.
-126.807 -340.787 0.
0.73802 1.95231 0.
-735.529 -1990.21 0.
-156.836 -419.141 0.
-0.611436 -1.62366 0.
-736.548 -1940.39 0.
-196.55 -514.426 0.
-633.878 -1731.37 0.
-336.889 -913.636 0.
-69.8209 -188.938 0.
-635.424 -1749.47 0.
-367.526 -1000.68 0.
-109.516 -291.309 0.
-605.999 -1678.5 0.
-367.86 -1014.27 0.
-169.617 -452.42 0.
-692.506 -1894.78 0.
-512.563 -1413.88 0.
-448.451 -1219.53 0.
-384.196 -1048.75 0.
-321.388 -876.509 0.
-434.34 -1194.76 0.
-377.817 -1036.32 0.
-323.454 -875.724 0.
-393.579 -1090 0.
-358.046 -991.429 0.
-323.304 -892.071 0.
-435.177 -1203.84 0.
-402.858 -1112.26 0.
-388.619 -1076.29 0.
-443.753 -1172.47 0.
-476.662 -1295 0.
-322.289 -888.823 0.
-370.42 -1024.95 0.
-419.056 -1160.56 0.
-314.829 -851.658 0.
-374.88 -1025.17 0.
-436.624 -1196.99 0.
-295.808 -812.217 0.
-371.004 -1014.09 0.
-447.257 -1214.92 0.
-469.236 -1297.89 0.
-684.672 -1883.51 0.
-162.976 -418.965 0.
-383.001 -1041.76 0.
-647.756 -1791.18 0.
-94.2427 -244.211 0.
-374.137 -1003.77 0.
-664.831 -1813.7 0.
-33.6029 -90.5569 0.
-322.123 -873.133 0.
-641.737 -1748.16 0.
-171.684 -454.832 0.
-758.067 -2021.81 0.
1.09553 2.94896 0.
-130.514 -351.617 0.
-699.373 -1883.66 0.
-0.712035 -1.87722 0.
-104.832 -280.343 0.
-496.909 -1337.74 0.
3.66961 9.65452 0.
-8.43031 -22.1355 0.
-229.273 -601.734 0.
0.985102 2.15964 0.
-25.2651 -55.79 0.
5.38482 11.9505 0.
-1.3139 -2.92627 0.
4.63061 10.3496 0.
-0.462695 -1.07964 0.
-2.57627 -5.95821 0.
5.46339 12.5259 0.
-18.4328 -42.1475 0.
-51.7262 -114.081 0.
-48.341 -102.81 0.
-92.1613 -185.224 0.
-4.04215 -7.68217 0.
-154.746 -301.99 0.
3.65992 6.80458 0.
6.0023 10.5935 0.
-1.18587 -2.57761 0.
-2.50262 -9.72578 0.
3.45642 6.39887 0.
4.83923 9.36998 0.
-1.56322 -9.78961 0.
-2.53119 -5.33521 0.
-1.47829 -13.3736 0.
-1.10743 -2.4822 0.
-0.877753 -1.99845 0.
-3.76813 -8.71584 0.
-0.196658 -0.458813 0.
1.89057 4.44873 0.
6.00545 13.5478 0.
2.30268 5.14789 0.
0.188316 0.417022 0.
-321.071 -720.426 0.
3.15091 7.02972 0.
-370.015 -979.256 0.
-93.9714 -247.97 0.
1.01398 2.6646 0.
-497.048 -1319.95 0.
-46.9962 -123.677 0.
0.258276 0.664566 0.
-540.11 -1446.66 0.
-0.0542107 -3.77946 0.
-0.29932 -0.79953 0.
-540.279 -1422.47 0.
-13.8017 -36.4151 0.
-463.505 -1251.68 0.
-162.921 -437.164 0.
-0.180182 -0.486161 0.
-477.463 -1292.44 0.
-206.893 -545.994 0.
-5.77757 -14.7202 0.
-463.421 -1273.91 0.
-238.734 -637.714 0.
-98.0674 -245.511 0.
-548.645 -1514.3 0.
-388.735 -1076.73 0.
-396.29 -1085.77 0.
-333.157 -913.831 0.
-294.381 -808.409 0.
-399.434 -1103.28 0.
-344.089 -943.648 0.
-304.708 -826.786 0.
-366.319 -1014.59 0.
-331.342 -915.463 0.
-306.447 -842.982 0.
-387.656 -1072.67 0.
-371.033 -1026.64 0.
-371.515 -1028.03 0.
-399.926 -1092.77 0.
-419.134 -1142.01 0.
-298.063 -811.708 0.
-334.599 -914.365 0.
-382.964 -1050.27 0.
-290.978 -789.329 0.
-338.427 -925.106 0.
-399.23 -1097.88 0.
-262.87 -727.036 0.
-308.315 -849.278 0.
-383.46 -1051.24 0.
-343.842 -951.221 0.
-529.907 -1466.87 0.
-61.163 -152.571 0.
-229.373 -603.04 0.
-484.527 -1322.66 0.
0.507034 1.27568 0.
-211.12 -548.251 0.
-506.499 -1353.85 0.
0.631476 1.68212 0.
-154.941 -413.225 0.
-477.78 -1285.42 0.
-0.0936595 -4.60626 0.
-564.798 -1500.72 0.
-0.310777 -0.831186 0.
2.01512 5.42779 0.
-540.577 -1440.78 0.
-0.139787 -4.39425 0.
-65.1954 -171.126 0.
-464.939 -1234.49 0.
1.95308 5.09268 0.
-80.8587 -210.618 0.
-330.348 -859.066 0.
-18.4496 -40.323 0.
-247.764 -546.019 0.
-1.4459 -13.0846 0.
-2.34526 -5.19069 0.
1.9243 4.27436 0.
0.796501 1.84507 0.
1.69987 3.90231 0.
4.98002 11.3308 0.
2.28977 5.11534 0.
-1.52872 -13.3279 0.
-1.32588 -2.84257 0.
1.35926 2.83169 0.
4.36008 8.69751 0.
-1.0269 -8.30611 0.
0.591325 1.22966 0.
-0.933753 -5.53862 0.
-14.4864 -31.4177 0.
0.114598 0.202018 0.
-1.79389 -3.32148 0.
-247.48 -483.579 0.
4.96267 10.1052 0.
-425.191 -900.25 0.
6.14111 13.6404 0.
-128.002 -288.581 0.
-517.797 -1181.01 0.
-123.806 -284.786 0.
-273.492 -634.051 0.
-421.545 -984.94 0.
-292.752 -654.853 0.
-338.803 -751.096 0.
-283.447 -622.33 0.
-564.012 -1250.12 0.
-209.377 -461.65 0.
-402.123 -1051.79 0.
-124.18 -322.457 0.
0.768797 1.98282 0.
-421.973 -1098.36 0.
-0.240701 -7.37383 0.
1.37245 3.43 0.
-340.006 -907.808 0.
-0.382551 -1.02973 0.
1.51703 4.07442 0.
-342.807 -905.76 0.
0.78787 2.07189 0.
-290.676 -774.443 0.
0.260005 0.696319 0.
0.795225 2.13498 0.
-318.669 -836.243 0.
-78.6765 -198.444 0.
-0.118877 -2.19642 0.
-324.084 -866.081 0.
-168.995 -432.041 0.
-35.7629 -84.7122 0.
-408.187 -1130.41 0.
-296.794 -818.406 0.
-345.301 -950.825 0.
-298.64 -823.024 0.
-276.555 -764.143 0.
-366.289 -1010.04 0.
-331.807 -909.994 0.
-313.581 -856.976 0.
-351.304 -972.568 0.
-334.859 -925.906 0.
-318.707 -879.24 0.
-387.174 -1069.07 0.
-376.187 -1039.65 0.
-381.227 -1055.27 0.
-429.06 -1104.33 0.
-432.433 -1112.53 0.
-307.36 -819.593 0.
-336.622 -901.166 0.
-366.833 -985.316 0.
-287.475 -786.586 0.
-314.54 -861.448 0.
-362.666 -997.947 0.
-234.215 -648.426 0.
-262.93 -727.874 0.
-321.056 -886.17 0.
-246.795 -676.145 0.
-378.333 -1047.04 0.
0.244187 0.611015 0.
-131.299 -336.615 0.
-320.615 -854.814 0.
-0.128422 -2.40792 0.
-71.9731 -180.499 0.
-345.722 -896.451 0.
0.705974 1.85608 0.
-0.9568 -2.50494 0.
-312.025 -824.476 0.
2.02315 5.31266 0.
-370.012 -981.155 0.
2.21408 5.88365 0.
-0.0614793 -4.27584 0.
-378 -1001.69 0.
-0.249893 -5.75421 0.
-28.2944 -72.7012 0.
-432.745 -1131.46 0.
-0.504221 -1.30202 0.
-181.561 -468.489 0.
-433.066 -1114.76 0.
-302.257 -658.224 0.
-530.467 -1164.68 0.
-317.953 -696.093 0.
-341.003 -749.536 0.
-175.314 -386.814 0.
-477.744 -1099.66 0.
-252.106 -574.062 0.
-23.0036 -51.9125 0.
-499.315 -1112.66 0.
-60.9633 -133.162 0.
2.13902 4.57265 0.
-347.826 -731.834 0.
2.20227 4.43207 0.
-139.519 -301.11 0.
-1.08457 -7.52514 0.
4.39465 8.79811 0.
2.21976 3.90626 0.
-2.82139 -7.65602 0.
2.09134 3.33458 0.
1.78214 2.91518 0.
-2.68991 -10.0453 0.
-0.685501 -1.23942 0.
1.958 3.74455 0.
0.420882 0.828167 0.
2.67606 5.4213 0.
-2.61504 -5.35252 0.
-0.977474 -2.04579 0.
1.62592 3.48139 0.
-1.06912 -2.22412 0.
2.4181 5.1177 0.
2.00582 4.31959 0.
-81.1688 -176.222 0.
-2.57813 -5.56524 0.
-267.564 -687.994 0.
-85.1044 -219.25 0.
3.70758 9.57255 0.
-463.758 -1212.87 0.
-189.598 -491.573 0.
2.4445 6.27131 0.
-692.028 -1835.79 0.
-224.902 -588.615 0.
0.140437 0.360365 0.
-832.353 -2185.06 0.
-204.882 -530.366 0.
-695.395 -1850.54 0.
-393.957 -1035.9 0.
-91.8513 -240.23 0.
-715.099 -1907.47 0.
-420.683 -1087.86 0.
-147.046 -363.303 0.
-670.675 -1814.3 0.
-430.642 -1118.84 0.
-236.786 -571.553 0.
-743.359 -2056.96 0.
-516.95 -1428.68 0.
-604.198 -1663.49 0.
-503.347 -1390.56 0.
-403.377 -1116.75 0.
-553.647 -1532.66 0.
-502.468 -1390.25 0.
-451.609 -1247.52 0.
-543.057 -1502.25 0.
-508.032 -1406.93 0.
-473.514 -1311.1 0.
-592.797 -1609.73 0.
-600.837 -1618.64 0.
-584.619 -1488.98 0.
-608.366 -1578.19 0.
-618.663 -1611.39 0.
-474.161 -1306.11 0.
-504.684 -1389.82 0.
-535.637 -1473.1 0.
-415.745 -1150.51 0.
-483.542 -1338.47 0.
-551.435 -1526.34 0.
-371.091 -1026.52 0.
-483.45 -1339 0.
-605.893 -1675.39 0.
-475.089 -1301.52 0.
-742.612 -2047.26 0.
-212.259 -519.417 0.
-428.748 -1101 0.
-693.466 -1853.22 0.
-142.999 -352.776 0.
-426.217 -1090.13 0.
-735.11 -1945.06 0.
-74.8426 -192.423 0.
-396.772 -1039.62 0.
-718.342 -1908.45 0.
-172.574 -447.605 0.
-828.741 -2178.55 0.
1.32126 3.3732 0.
-198.087 -516.982 0.
-622.973 -1643.42 0.
3.26657 8.3622 0.
-137.894 -353.88 0.
-380.061 -976.843 0.
-0.854065 -2.17396 0.
-39.6211 -101.155 0.
-186.974 -478.45 0.
1.69344 3.60287 0.
-3.18233 -6.75668 0.
6.00344 12.5597 0.
-0.393224 -0.808437 0.
-0.0846058 -0.171008 0.
2.40208 4.96685 0.
-3.20117 -6.44692 0.
7.44722 14.6144 0.
-2.44665 -12.4635 0.
-2.34006 -10.8809 0.
-2.13291 -9.09922 0.
-2.54213 -4.56862 0.
0.0324958 0.0565745 0.
-3.14046 -5.68179 0.
4.339 7.61172 0.
-1.69307 -5.86228 0.
0.289559 0.511882 0.
2.04461 3.20608 0.
4.65598 7.50074 0.
-93.5164 -154.476 0.
-3.11341 -11.4158 0.
-379.751 -681.686 0.
1.91274 3.58968 0.
-77.3672 -149.428 0.
-470.339 -933.666 0.
-49.0582 -98.5675 0.
-272.478 -559.149 0.
-489.077 -1026.53 0.
-168.164 -346.453 0.
-373.351 -783.391 0.
-352.088 -751.876 0.
-548.344 -1177 0.
-471.005 -1005.29 0.
-506.453 -1291.53 0.
-322.918 -824.15 0.
-139.468 -356.685 0.
-543.618 -1408.64 0.
-268.2 -688.734 0.
-1.34012 -3.41936 0.
-569.593 -1490.06 0.
-96.5137 -248.421 0.
0.40144 1.00695 0.
-624.401 -1616.38 0.
0.339709 0.873956 0.
-519.383 -1358.84 0.
-212.231 -549.519 0.
0.933016 2.39799 0.
-552.941 -1429.2 0.
-249.913 -617.822 0.
-9.51357 -22.9443 0.
-526.97 -1393.58 0.
-281.133 -703.643 0.
-108.116 -254.456 0.
-652.238 -1795.67 0.
-446.985 -1224.31 0.
-530.168 -1466.24 0.
-430.43 -1192.14 0.
-348.642 -964.584 0.
-509.151 -1409.02 0.
-458.164 -1266.4 0.
-421.81 -1164.85 0.
-498.775 -1381.52 0.
-471.259 -1304.71 0.
-463.781 -1283.21 0.
-589.97 -1490.12 0.
-593.948 -1497.94 0.
-542.119 -1441.77 0.
-534.116 -1439.81 0.
-540.853 -1460.2 0.
-444.727 -1230.46 0.
-464.957 -1287.61 0.
-495.232 -1371.58 0.
-382.639 -1059.84 0.
-439.971 -1218.6 0.
-507.827 -1406.52 0.
-321.396 -881.529 0.
-404.631 -1118.53 0.
-525.775 -1456.29 0.
-390.994 -1050.76 0.
-635.179 -1733.09 0.
-67.6878 -166.635 0.
-262.185 -658.906 0.
-535.811 -1402.54 0.
-0.661759 -1.68069 0.
-234.003 -586.155 0.
-553.308 -1431.1 0.
0.665655 1.67082 0.
-219.816 -562.016 0.
-547.32 -1425.32 0.
-0.154899 -4.13286 0.
-640.495 -1653.91 0.
-0.143763 -0.357594 0.
-138.493 -354.444 0.
-568.235 -1476.21 0.
-51.4555 -130.966 0.
-295.435 -751.863 0.
-538.737 -1373.44 0.
-200.366 -507.384 0.
-348.566 -883.527 0.
-496.596 -1259.84 0.
-505.071 -1063.38 0.
-497.019 -1045.18 0.
-438.472 -907.802 0.
-410.786 -833.705 0.
-71.3186 -141.781 0.
-487.079 -991.722 0.
-231.759 -459.504 0.
-2.16523 -11.1994 0.
-441.678 -842.724 0.
3.58584 6.63665 0.
-3.26197 -5.87393 0.
-306.912 -544.878 0.
-3.15193 -5.42215 0.
-46.2609 -84.2175 0.
-2.03603 -7.87633 0.
-1.65229 -2.82128 0.
-1.39312 -2.4744 0.
4.00787 6.34977 0.
3.36293 5.47654 0.
-113.116 -188.947 0.
5.34391 9.19916 0.
-60.3778 -108.102 0.
-1.03629 -1.90505 0.
-31.2938 -59.2979 0.
-88.2748 -172.561 0.
-16.1891 -31.9014 0.
3.56971 7.09224 0.
1.68231 3.38039 0.
-2.14841 -11.7191 0.
0.256697 0.508171 0.
1.70884 3.41879 0.
-1.02261 -2.06447 0.
-0.893127 -1.80589 0.
-30.2141 -73.4493 0.
1.33642 3.22185 0.
1.13958 2.72177 0.
-184.43 -452.124 0.
-50.3439 -123.664 0.
0.786414 1.93083 0.
-388.528 -970.921 0.
-56.891 -140.047 0.
-0.37596 -5.8687 0.
-569.378 -1430.9 0.
-34.2569 -85.1478 0.
-533.343 -1375.72 0.
-237.556 -602.419 0.
-0.194616 -3.70496 0.
-589.382 -1503.25 0.
-286.763 -692.634 0.
-57.7142 -134.813 0.
-561.922 -1458.48 0.
-286.64 -709.953 0.
-82.5454 -198.719 0.
-598.578 -1642.82 0.
-352.254 -954.452 0.
-414.627 -1147.97 0.
-318.797 -882.961 0.
-233.875 -646.231 0.
-415.976 -1145.09 0.
-341.739 -942.326 0.
-267.608 -739.451 0.
-360.531 -998.591 0.
-325.678 -901.494 0.
-291.087 -804.133 0.
-443.01 -1085.07 0.
-442.494 -1076.61 0.
-353.48 -961.129 0.
-357.568 -975.188 0.
-379.409 -1037.83 0.
-306.921 -849.657 0.
-338.33 -936.384 0.
-369.758 -1023.09 0.
-248.198 -687.456 0.
-334.519 -925.836 0.
-423.769 -1171.7 0.
-208.451 -570.133 0.
-309.267 -854.004 0.
-436.813 -1209.68 0.
-315.992 -838.711 0.
-592.806 -1607.95 0.
-62.2763 -154.124 0.
-279.689 -694.535 0.
-575.645 -1476.22 0.
-43.3527 -105.477 0.
-270.273 -660.476 0.
-584.31 -1482.37 0.
-0.236996 -3.64842 0.
-231.153 -569.959 0.
-537.317 -1367.67 0.
1.55869 3.77886 0.
-547.632 -1362.86 0.
-0.286566 -4.70843 0.
-33.8846 -83.0213 0.
-305.778 -752.629 0.
3.77074 9.10397 0.
-10.4341 -25.2994 0.
-124.907 -303.347 0.
0.159826 0.387116 0.
2.41657 5.88348 0.
-0.228535 -0.559089 0.
5.29408 10.6161 0.
-2.24556 -4.46643 0.
1.95068 3.77219 0.
3.75898 7.19706 0.
0.431378 0.817644 0.
-0.343476 -0.675708 0.
-25.7643 -50.1967 0.
-32.8903 -62.3269 0.
-116.303 -219.257 0.
-19.0671 -34.8893 0.
-1.80388 -3.20784 0.
-77.2106 -135.623 0.
-2.88749 -4.90278 0.
-108.676 -198.974 0.
3.6931 6.55922 0.
-2.18094 -7.77484 0.
-8.11902 -16.5752 0.
2.9645 5.03441 0.
0.997544 1.75284 0.
-19.8443 -36.0755 0.
-1.46594 -2.64549 0.
-0.212207 -0.393322 0.
5.30462 9.9102 0.
1.12715 2.15953 0.
-26.6851 -52.4214 0.
4.48297 8.77436 0.
-0.516018 -1.02162 0.
-8.04342 -16.1069 0.
1.23438 2.41567 0.
5.42919 10.7401 0.
-1.7266 -3.45242 0.
-12.906 -25.8971 0.
-157.386 -316.175 0.
-174.014 -420.649 0.
-87.0013 -208.699 0.
0.965019 2.29576 0.
-294.945 -718.506 0.
-127.298 -310.329 0.
0.365858 0.892632 0.
-439.047 -1066.86 0.
-41.1262 -98.0549 0.
-0.00714769 -0.0165827 0.
-548.314 -1346.1 0.
0.0121346 0.0295929 0.
-454.392 -1151.06 0.
-154.238 -381.959 0.
0.878756 2.1224 0.
-474.416 -1190.48 0.
-161.936 -389.473 0.
-0.737098 -1.7604 0.
-466.952 -1178.47 0.
-193.678 -467.612 0.
-0.175918 -2.52578 0.
-496.973 -1341.4 0.
-266.605 -701.011 0.
-350.878 -971.07 0.
-255.891 -705.18 0.
-192.611 -525.238 0.
-357.572 -988.155 0.
-283.617 -785.073 0.
-223.41 -618.635 0.
-325.744 -902.133 0.
-290.948 -804.97 0.
-274.278 -757.876 0.
-425.806 -947.574 0.
-423.278 -940.382 0.
-303.996 -841.348 0.
-308.432 -854.28 0.
-320.82 -888.365 0.
-265.939 -736.387 0.
-296.511 -820.785 0.
-327.94 -907.501 0.
-206.672 -568.44 0.
-276.822 -765.721 0.
-365.464 -1012.23 0.
-155.911 -416.438 0.
-234.425 -638.417 0.
-361.114 -995.021 0.
-222.877 -571.767 0.
-491.43 -1304.19 0.
-0.148843 -2.74266 0.
-177.05 -433.336 0.
-475.379 -1192.63 0.
0.210919 0.519639 0.
-149.117 -367.576 0.
-472.088 -1188.6 0.
0.684054 1.63737 0.
-153.336 -372.299 0.
-464.764 -1164.91 0.
1.85402 4.36806 0.
-572.916 -1373.65 0.
1.95394 4.58219 0.
-50.6866 -120.613 0.
-392.371 -942.422 0.
-1.52753 -3.68003 0.
-118.926 -286.847 0.
-260.456 -629.267 0.
-15.9522 -38.3009 0.
-72.2686 -174.257 0.
-128.276 -310.524 0.
-147.824 -295.586 0.
4.4336 8.80299 0.
-0.534584 -1.03651 0.
5.07853 9.74854 0.
5.73678 10.9005 0.
-9.64604 -18.9229 0.
3.00833 5.80176 0.
0.79394 1.505 0.
-13.7802 -26.0587 0.
4.98465 9.17253 0.
-2.72081 -4.87433 0.
-1.29557 -2.34895 0.
4.15544 7.31862 0.
-5.27849 -10.6084 0.
2.80923 5.44769 0.
0.0901807 0.168538 0.
-17.2169 -35.3326 0.
0.988413 1.67654 0.
-15.7228 -27.6494 0.
-154.184 -281.871 0.
1.77335 3.17105 0.
-402.219 -742.217 0.
3.86253 7.1727 0.
-110.504 -210.7 0.
-464.837 -907.479 0.
-41.1266 -80.139 0.
-248.774 -488.299 0.
-454.369 -898.501 0.
-111.121 -217.088 0.
-396.992 -781.985 0.
-416.554 -830.075 0.
-343.402 -686.651 0.
-487.444 -977.146 0.
-381.342 -918.388 0.
-295.186 -705.693 0.
-208.267 -493.762 0.
-406.044 -984.305 0.
-238.084 -576.554 0.
-69.8231 -169.104 0.
-491.282 -1161.07 0.
-67.1484 -154.95 0.
2.32974 5.21406 0.
-526.403 -1262.15 0.
-0.309412 -4.72079 0.
-373.841 -928.008 0.
-68.3435 -164.076 0.
0.42252 0.999084 0.
-355.076 -882.077 0.
-35.8395 -87.5817 0.
1.18042 2.85681 0.
-367.846 -902.591 0.
-96.0508 -227.842 0.
1.11266 2.61928 0.
-395.267 -1040.09 0.
-180.479 -455.511 0.
-288.554 -792.751 0.
-207.539 -562.709 0.
-153.193 -406.555 0.
-299.85 -830.533 0.
-246.786 -682.252 0.
-201.46 -552.698 0.
-311.701 -863.172 0.
-294.173 -814.779 0.
-276.624 -765.68 0.
-467.756 -954.435 0.
-465.905 -949.451 0.
-283.153 -783.905 0.
-288.713 -799.614 0.
-295.725 -819.085 0.
-256.1 -708.996 0.
-277.361 -768.17 0.
-298.91 -827.927 0.
-185.884 -499.469 0.
-244.295 -667.523 0.
-308.889 -851.03 0.
-101.039 -261.444 0.
-179.357 -477.319 0.
-286.725 -779.054 0.
-133.724 -330.539 0.
-388.505 -1001.98 0.
-0.514464 -1.24873 0.
-72.682 -175.943 0.
-371.364 -912.782 0.
1.61099 3.98601 0.
-31.5594 -78.9019 0.
-357.017 -897.686 0.
-0.942222 -2.24672 0.
-73.6511 -176.508 0.
-390.335 -964.02 0.
1.18402 2.71045 0.
-599.963 -1382.67 0.
3.13343 7.10784 0.
-131.585 -303.902 0.
-481.43 -1129.75 0.
-128.02 -306.51 0.
-270.294 -648.056 0.
-411.892 -990.278 0.
-247.405 -587.075 0.
-303.388 -723.285 0.
-359.058 -859.809 0.
-528.345 -1056.16 0.
-277.974 -550.512 0.
-419.552 -812.992 0.
-383.84 -736.923 0.
-36.4761 -69.4756 0.
-449.504 -876.253 0.
-223.557 -429.107 0.
-3.38305 -6.38907 0.
-441.823 -829.734 0.
-39.5874 -72.1011 0.
5.79139 10.2541 0.
-334.471 -605.869 0.
0.679798 1.19714 0.
-126.037 -253.92 0.
-1.02484 -5.40233 0.
0.754735 1.40865 0.
-3.00629 -5.21845 0.
2.82654 4.31924 0.
0.0124453 0.0193542 0.
4.73468 7.49289 0.
5.18036 8.09844 0.
-0.301152 -0.478791 0.
-2.96771 -4.77319 0.
3.91846 6.40353 0.
4.7419 7.87755 0.
-2.61736 -8.78286 0.
-2.58759 -9.26412 0.
-3.15353 -5.54702 0.
4.12176 7.20498 0.
-2.6235 -10.3364 0.
3.01623 5.44243 0.
-2.30783 -10.3532 0.
-31.396 -59.4478 0.
-40.4231 -93.7691 0.
-1.93691 -4.50126 0.
-1.85333 -4.31447 0.
-138.899 -332.354 0.
-40.1823 -96.3997 0.
2.71529 6.52121 0.
-349.154 -826.577 0.
-113.614 -266.314 0.
1.71829 3.97979 0.
-651.877 -1566.94 0.
-142.844 -328.506 0.
-578.556 -1461.4 0.
-309.974 -756.931 0.
-71.298 -170.921 0.
-606.32 -1513.32 0.
-316.856 -765.681 0.
-100.556 -238.646 0.
-635.531 -1591.82 0.
-362.387 -868.982 0.
-133.956 -313.886 0.
-653.709 -1727.49 0.
-394.046 -1000.84 0.
-541.548 -1489.63 0.
-408.347 -1112.49 0.
-292.458 -782.389 0.
-482.788 -1336.06 0.
-400.997 -1108.87 0.
-339.387 -936.637 0.
-464.872 -1287.18 0.
-434.403 -1203.16 0.
-404.023 -1119.05 0.
-623.36 -1338.23 0.
-633.521 -1364.14 0.
-424.935 -1176.68 0.
-456.938 -1265.61 0.
-464.723 -1287 0.
-386.417 -1062.88 0.
-424.914 -1173.9 0.
-463.936 -1284.4 0.
-317.666 -860.95 0.
-399.956 -1098 0.
-498.098 -1375.59 0.
-266.439 -701.936 0.
-392.298 -1055.45 0.
-549.739 -1500.8 0.
-371.299 -924.122 0.
-651.206 -1690.43 0.
-103.717 -243.648 0.
-348.989 -835.722 0.
-648.343 -1609.25 0.
-94.7927 -231.935 0.
-313.726 -770.587 0.
-610.038 -1529.23 0.
-58.9306 -142.781 0.
-296.759 -727.178 0.
-557.667 -1411.56 0.
-129.87 -281.791 0.
-625.034 -1435.71 0.
-1.21554 -2.78187 0.
-86.2639 -198.996 0.
-288.095 -669.672 0.
-1.71608 -4.06321 0.
-16.3114 -38.6177 0.
-85.3976 -201.883 0.
4.47927 10.3092 0.
-0.105021 -0.240209 0.
3.15414 7.17157 0.
-16.7417 -31.5108 0.
6.94745 12.7613 0.
-0.10473 -0.183639 0.
3.32119 5.71118 0.
3.25059 5.48607 0.
-2.55809 -4.35441 0.
2.26388 3.7853 0.
0.943059 1.54943 0.
4.77588 7.70662 0.
-1.28083 -2.02755 0.
7.2913 11.3252 0.
4.80325 7.64868 0.
3.63614 5.71312 0.
-2.19949 -3.81162 0.
1.79852 3.06691 0.
-1.78306 -5.95039 0.
-4.28777 -7.47191 0.
1.80743 2.75695 0.
-23.9434 -37.1782 0.
-33.3182 -52.669 0.
3.98998 6.20842 0.
-325.074 -515.209 0.
-3.80446 -6.01672 0.
-95.9156 -154 0.
-428.305 -699.301 0.
-20.3609 -33.756 0.
-245.984 -415.721 0.
-465.487 -803.792 0.
-93.0297 -159.481 0.
-394.806 -686.973 0.
-404.512 -714.987 0.
-343.842 -637.425 0.
-637.911 -1217.58 0.
-398.024 -916.457 0.
-375.522 -864.4 0.
-352.985 -812.381 0.
-470.122 -1102.93 0.
-362.727 -852.783 0.
-255.685 -602.289 0.
-528.108 -1241.91 0.
-281.778 -655.654 0.
-68.3833 -156.896 0.
-650.873 -1498.56 0.
-92.6444 -200.87 0.
-502.058 -1255.73 0.
-228.31 -556.283 0.
-0.179049 -3.28267 0.
-493.143 -1210.31 0.
-196.136 -469.98 0.
0.77661 1.83549 0.
-504.49 -1226.15 0.
-236.267 -555.12 0.
-0.503346 -1.16 0.
-559.994 -1436.14 0.
-310.538 -751.503 0.
-454.693 -1232.95 0.
-322.254 -854.951 0.
-227.659 -587.672 0.
-432.927 -1194 0.
-351.621 -966.296 0.
-306.359 -837.786 0.
-422.171 -1169.17 0.
-391.753 -1085.09 0.
-375.144 -1038.77 0.
-594.095 -1260.58 0.
-604.081 -1286.67 0.
-441.111 -1166.15 0.
-443.371 -1168.96 0.
-451.086 -1186.85 0.
-337.03 -922.812 0.
-365.358 -1007.19 0.
-404.146 -1117.94 0.
-262.423 -691.729 0.
-324.345 -874.679 0.
-421.282 -1153.53 0.
-189.358 -477.439 0.
-303.115 -786.916 0.
-461.243 -1231.69 0.
-281.316 -672.511 0.
-563.019 -1416.47 0.
-0.213281 -2.6391 0.
-226.813 -532.989 0.
-521.295 -1259.59 0.
0.470755 1.13402 0.
-199.585 -487.259 0.
-501.107 -1240.91 0.
1.52035 3.80148 0.
-231.732 -575.425 0.
-496.826 -1255.73 0.
-134.424 -276.287 0.
-670.985 -1474.5 0.
-135.92 -308.627 0.
-337.338 -773.464 0.
-546.854 -1260.55 0.
-292.974 -683.03 0.
-373.948 -870.572 0.
-455.227 -1057.81 0.
-385.967 -873.238 0.
-375.04 -844.639 0.
-364.043 -816.111 0.
-652.602 -1235.03 0.
-279.798 -514.312 0.
-396.316 -678.317 0.
-369.993 -621.516 0.
-10.4117 -17.2028 0.
-437.264 -731.659 0.
-209.753 -345.691 0.
-3.06901 -4.97792 0.
-396.461 -633.547 0.
-40.9592 -64.2281 0.
-3.35025 -8.866 0.
-276.932 -436.594 0.
1.54157 2.40387 0.
-29.8136 -52.0146 0.
2.13856 3.67306 0.
-0.588593 -0.994006 0.
-1.86344 -3.26056 0.
1.04913 1.59723 0.
-1.24087 -1.92391 0.
-127.382 -200.992 0.
-1.53096 -2.37068 0.
-81.9025 -129.138 0.
-2.39979 -3.72905 0.
-19.713 -31.1178 0.
-49.0217 -78.6415 0.
3.6817 6.02364 0.
-50.0624 -83.7904 0.
-35.4856 -60.8823 0.
4.93794 8.14768 0.
6.1036 10.2153 0.
2.41605 4.10201 0.
1.03518 1.86238 0.
5.3672 9.84802 0.
-1.85466 -4.10885 0.
-0.891594 -1.98705 0.
0.52218 1.1708 0.
0.332707 0.75934 0.
-1.2338 -2.80994 0.
0.617218 1.40264 0.
-74.6708 -168.28 0.
-1.75116 -3.90936 0.
-1.75586 -3.89276 0.
-324.54 -698.282 0.
2.82305 5.73278 0.
-362.009 -874.099 0.
-161.206 -381.269 0.
-0.576654 -1.36466 0.
-437.621 -1044.62 0.
-203.419 -480.373 0.
-0.319487 -4.24224 0.
-489.72 -1179.46 0.
-234.051 -543.795 0.
0.113884 0.252093 0.
-514.047 -1309.94 0.
-257.97 -623.643 0.
-398.222 -1087.14 0.
-260.186 -695.437 0.
-166.1 -430.218 0.
-378.613 -1048.28 0.
-279.286 -768.551 0.
-201.607 -544.512 0.
-329.45 -911.686 0.
-282.848 -783.351 0.
-242.349 -671.091 0.
-434.867 -926.843 0.
-429.589 -916.372 0.
-266.587 -726.128 0.
-308.573 -798.076 0.
-345.188 -891.88 0.
-222.565 -612.246 0.
-284.277 -786.249 0.
-346.499 -959.74 0.
-197.074 -513.328 0.
-286.221 -773.995 0.
-403.349 -1110.66 0.
-160.794 -407.69 0.
-262.278 -685.249 0.
-400.882 -1075.5 0.
-235.377 -556.408 0.
-508.502 -1264.33 0.
0.793469 1.7658 0.
-219.219 -503.317 0.
-474.704 -1123.45 0.
0.251505 0.591041 0.
-179.176 -423.777 0.
-413.174 -987.276 0.
-0.533839 -1.29662 0.
-134.954 -327.856 0.
-323.863 -791.797 0.
-1.25347 -2.45237 0.
-275.411 -562.437 0.
3.41456 7.43888 0.
1.68857 3.70139 0.
-33.9204 -74.8799 0.
2.54297 5.75079 0.
0.171956 0.387438 0.
0.287894 0.64633 0.
-1.40774 -3.07599 0.
1.32172 2.86794 0.
-1.13628 -9.18391 0.
-0.311415 -0.571542 0.
3.85746 6.91919 0.
-2.2224 -3.6418 0.
-0.595031 -0.963425 0.
3.34285 5.40137 0.
-39.8386 -66.0979 0.
-36.1582 -58.9001 0.
-1.64561 -2.6335 0.
-78.1469 -123.735 0.
-24.3946 -37.8682 0.
4.1461 6.3108 0.
-79.5541 -124.754 0.
-3.94098 -6.0974 0.
-94.0963 -165.146 0.
0.317746 0.549772 0.
-1.34103 -2.28101 0.
-0.160921 -0.306281 0.
4.07617 6.39156 0.
-2.31019 -3.73033 0.
-1.92861 -3.20617 0.
-3.0778 -4.91293 0.
-18.176 -29.5145 0.
-2.48489 -3.9415 0.
4.42691 7.15103 0.
-63.1931 -103.875 0.
-2.27876 -3.77261 0.
3.89702 6.50271 0.
-65.2143 -109.508 0.
-2.78136 -8.73003 0.
6.13743 10.2158 0.
-40.9851 -69.2177 0.
-3.38829 -6.1422 0.
-192.69 -356.943 0.
0.578444 1.27197 0.
-17.1279 -37.8825 0.
-56.1009 -124.79 0.
-125.39 -283.865 0.
-86.7731 -196.026 0.
-51.7082 -116.549 0.
-242.842 -543.203 0.
-105.25 -233.349 0.
-11.1184 -24.3832 0.
-441.489 -916.416 0.
-38.5559 -75.5941 0.
-372.962 -896.241 0.
-133.839 -316.313 0.
0.953091 2.24988 0.
-395.809 -939.359 0.
-137.263 -323.598 0.
0.441875 1.03709 0.
-423.507 -994.843 0.
-154.224 -349.886 0.
1.98089 4.32203 0.
-440.512 -1080.1 0.
-173.727 -404.217 0.
-328.883 -878.543 0.
-204.177 -528.501 0.
-106.94 -265.45 0.
-310.663 -850.962 0.
-213.066 -569.448 0.
-148.327 -381.391 0.
-281.688 -780.028 0.
-239.139 -661.045 0.
-214.456 -590.487 0.
-370.544 -816.724 0.
-365.183 -806.335 0.
-229.716 -634.085 0.
-247.983 -686.637 0.
-279.801 -774.813 0.
-179.145 -479.929 0.
-224.441 -611.178 0.
-285.569 -785.793 0.
-125.236 -310.601 0.
-203.249 -529.412 0.
-319.255 -862.909 0.
-94.3972 -233.675 0.
-200.57 -512.067 0.
-327.712 -860.304 0.
-152.135 -342.942 0.
-444.571 -1060.8 0.
1.86489 4.10462 0.
-149.286 -337.516 0.
-421.95 -980.66 0.
0.155669 0.365085 0.
-130.624 -307.813 0.
-395.33 -938.259 0.
-0.229337 -3.49891 0.
-128.864 -310.752 0.
-356.978 -866.47 0.
-58.1263 -110.71 0.
-407.633 -812.344 0.
-32.3466 -70.2732 0.
-105.459 -230.952 0.
-215.487 -475.459 0.
-41.7591 -93.2564 0.
-62.8475 -139.877 0.
-88.4839 -196.289 0.
-54.326 -117.669 0.
-3.0588 -6.58285 0.
-2.61603 -5.59096 0.
-175.441 -324.258 0.
-0.0894709 -0.161434 0.
-57.5421 -94.247 0.
0.440472 0.712603 0.
-0.0616311 -0.0984988 0.
-47.7708 -78.5535 0.
5.05883 8.21656 0.
5.85144 9.3868 0.
-56.0038 -90.0455 0.
3.86277 6.10224 0.
5.05819 7.84879 0.
-12.1112 -19.4451 0.
3.72311 5.90247 0.
-14.7711 -28.3188 0.
-0.750547 -1.38761 0.
-0.542166 -0.965785 0.
0.250607 0.477636 0.
1.07692 1.68295 0.
-115.07 -185.44 0.
-91.0841 -151.202 0.
-4.03921 -6.38594 0.
-289.124 -465.524 0.
-2.19742 -3.46249 0.
-116.222 -186.322 0.
-376.626 -614.144 0.
-26.3649 -43.1368 0.
-208.237 -342.315 0.
-388.331 -643.265 0.
-107.761 -175.616 0.
-353.978 -584.975 0.
-327.748 -549.958 0.
-242.342 -443.953 0.
-571.885 -1072.94 0.
-245.622 -534.318 0.
-315.381 -689.394 0.
-384.69 -844.918 0.
-348.608 -782.565 0.
-313.927 -703.148 0.
-279.153 -623.825 0.
-444.326 -986.618 0.
-271.723 -598.599 0.
-136.899 -298.492 0.
-572.63 -1149.64 0.
-116.079 -220.199 0.
-384.036 -918.262 0.
-143.629 -339.632 0.
1.43315 3.37429 0.
-353.127 -834.972 0.
-81.0125 -190.133 0.
-0.115218 -0.269539 0.
-354.223 -813.298 0.
-70.2365 -155.626 0.
1.34155 2.88796 0.
-362.393 -854.852 0.
-83.4072 -188.425 0.
-258.789 -670.705 0.
-146.176 -365.196 0.
-44.5453 -107.087 0.
-245.091 -651.264 0.
-160.79 -408.12 0.
-93.0354 -222.222 0.
-247.003 -678.469 0.
-216.51 -590.988 0.
-189.045 -511.122 0.
-336.053 -777.01 0.
-327.252 -757.255 0.
-202.205 -552.493 0.
-220.208 -606.684 0.
-243.691 -674.154 0.
-143.685 -363.241 0.
-189.541 -495.073 0.
-236.644 -631.828 0.
-47.3771 -113.106 0.
-132.989 -333.199 0.
-234.785 -615.537 0.
-26.4489 -64.3388 0.
-134.681 -337.108 0.
-252.303 -647.347 0.
-65.5941 -140.55 0.
-376.841 -861.08 0.
-0.493675 -4.19624 0.
-81.3481 -181.41 0.
-367.142 -839.921 0.
-0.235576 -0.551359 0.
-97.732 -229.58 0.
-377.035 -889.692 0.
2.05439 4.87027 0.
-161.402 -386.045 0.
-390.524 -940.712 0.
-166.985 -310.228 0.
-563.229 -1098.81 0.
-175.341 -380.966 0.
-304.936 -667.792 0.
-437.539 -963.933 0.
-307.357 -679.179 0.
-325.181 -716.039 0.
-343.065 -752.84 0.
-412.188 -883.04 0.
-313.072 -666.233 0.
-213 -450.381 0.
-556.84 -1038.25 0.
-195.181 -354.638 0.
-329.738 -538.966 0.
-325.898 -526.163 0.
-33.4608 -53.4213 0.
-361.578 -588.035 0.
-180.809 -290.516 0.
2.69409 4.27475 0.
-352.372 -563.035 0.
-91.1828 -143.339 0.
1.21013 1.86894 0.
-262.988 -415.219 0.
-11.1453 -17.3669 0.
-64.4241 -123.917 0.
-66.2908 -122.874 0.
0.265528 0.472662 0.
2.38845 3.90175 0.
-3.14666 -4.50269 0.
1.51523 2.20091 0.
-0.190562 -0.280957 0.
-3.88663 -5.52474 0.
4.99083 7.14772 0.
0.0781999 0.110404 0.
5.59533 7.93797 0.
5.06412 7.21997 0.
7.48452 10.7554 0.
-3.68114 -8.62928 0.
5.32462 7.95878 0.
5.90044 8.81608 0.
-1.22879 -1.86298 0.
4.65633 7.16412 0.
-0.919997 -1.56009 0.
-23.46 -41.1631 0.
-2.58062 -5.24935 0.
3.28891 6.7423 0.
-12.3906 -25.6114 0.
-13.4964 -28.4902 0.
-3.4488 -7.33312 0.
-1.94445 -4.16645 0.
-120.242 -257.099 0.
-51.5196 -110.316 0.
3.13535 6.72032 0.
-349.478 -691.907 0.
-138.362 -262.64 0.
-364.676 -923.682 0.
-206.582 -508.515 0.
-54.8797 -132.181 0.
-442.937 -1059.55 0.
-245.21 -576.49 0.
-58.7594 -137.671 0.
-526.87 -1219.43 0.
-289.5 -649.527 0.
-56.5488 -124.338 0.
-569.291 -1394.82 0.
-294.964 -678.114 0.
-463.418 -1245.42 0.
-314.696 -820.592 0.
-210.714 -533.843 0.
-430.553 -1174.81 0.
-318.282 -848.178 0.
-231.962 -592.791 0.
-397.087 -1098.85 0.
-340.409 -935.658 0.
-285.361 -770.84 0.
-462.385 -1172.06 0.
-466.546 -1186.79 0.
-309.629 -846.855 0.
-361.674 -997.475 0.
-392.162 -1085.64 0.
-251.83 -651.898 0.
-330.503 -894.045 0.
-423.544 -1167.17 0.
-222.668 -576.715 0.
-321.907 -853.111 0.
-431.394 -1165.03 0.
-198.689 -500.199 0.
-314.326 -812.219 0.
-461.076 -1226.3 0.
-285.539 -633.986 0.
-567.508 -1347.27 0.
-36.5043 -80.6767 0.
-271.394 -609.26 0.
-500.364 -1154.68 0.
-49.4071 -114.585 0.
-228.322 -537.173 0.
-414.877 -995.326 0.
-41.8014 -101.504 0.
-179.606 -446.334 0.
-317.614 -806.492 0.
-134.265 -252.32 0.
-301.308 -579.066 0.
-2.07572 -4.38667 0.
-36.2659 -76.187 0.
-87.7538 -183.283 0.
3.30263 6.84554 0.
1.76683 3.62697 0.
-0.224374 -0.45629 0.
-10.0349 -19.9861 0.
0.949324 1.87092 0.
4.44658 8.67531 0.
-4.49143 -7.74595 0.
4.30882 7.16958 0.
-3.11404 -4.6469 0.
-3.61066 -8.54463 0.
2.21999 3.21967 0.
3.40516 4.92241 0.
4.22902 6.03662 0.
1.38623 1.95464 0.
0.45624 0.647885 0.
1.35917 1.9193 0.
3.55063 4.98665 0.
-3.72882 -5.2652 0.
-1.72311 -2.41477 0.
1.45264 2.37343 0.
0.832541 1.34545 0.
0.0574953 0.0919069 0.
0.82892 1.35394 0.
3.76735 5.38031 0.
-67.9138 -98.4271 0.
-11.7767 -17.3353 0.
-17.268 -24.3565 0.
-236.092 -335.703 0.
-4.24298 -5.92673 0.
-110.712 -155.525 0.
-338.667 -479.591 0.
-62.3932 -88.4633 0.
-213.29 -309.008 0.
-360.135 -533.596 0.
-100.474 -148.601 0.
-363.194 -545.424 0.
-372.181 -566.876 0.
-285.368 -482.615 0.
-604.146 -1056.66 0.
-199.232 -398.654 0.
-341.931 -689.607 0.
-482.642 -982.545 0.
-356.404 -743.434 0.
-362.426 -761.588 0.
-368.304 -779.886 0.
-485.238 -1034.67 0.
-364.341 -780.075 0.
-259.368 -556.677 0.
-552.614 -1074.03 0.
-283.148 -527.219 0.
-412.497 -1043.19 0.
-235.598 -580.988 0.
-51.906 -125.576 0.
-432.631 -1023.95 0.
-214.106 -498.528 0.
-14.5534 -33.7859 0.
-449.801 -1011.5 0.
-206.778 -454.266 0.
-0.410168 -3.44192 0.
-459.221 -1070.51 0.
-189.859 -417.546 0.
-355.512 -928.636 0.
-218.827 -554.161 0.
-109.543 -272.029 0.
-339.654 -897.65 0.
-240.19 -608.402 0.
-157.095 -373.236 0.
-321.375 -878.281 0.
-278.332 -746.207 0.
-239.589 -621.363 0.
-386.993 -1042.93 0.
-389.583 -1053.88 0.
-275.151 -757.414 0.
-301.723 -824.63 0.
-328.199 -904.671 0.
-174.449 -418.605 0.
-244.569 -632.019 0.
-319.887 -860.96 0.
-140.6 -349.619 0.
-223.369 -568.562 0.
-330.159 -862.796 0.
-92.293 -230.649 0.
-210.053 -531.471 0.
-354.635 -920.095 0.
-189.858 -405.104 0.
-463.144 -1049.56 0.
-0.382361 -3.19715 0.
-203.673 -447.159 0.
-437.458 -984.104 0.
-34.0426 -77.9039 0.
-230.494 -535.155 0.
-442.09 -1048.82 0.
-81.9323 -198.224 0.
-249.436 -616.113 0.
-411.872 -1039.07 0.
-336.628 -622.843 0.
-564.101 -1069.94 0.
-278.441 -586.618 0.
-387.542 -811.359 0.
-470.049 -976.261 0.
-392.013 -807.614 0.
-370.394 -755.945 0.
-348.447 -704.605 0.
-502.505 -990.164 0.
-332.704 -646.565 0.
-167.978 -322.432 0.
-606.342 -1041.06 0.
-276.37 -456.944 0.
-381.04 -565.36 0.
-333.469 -487.028 0.
-28.0466 -40.2772 0.
-318.561 -454.389 0.
-169.005 -237.635 0.
-16.8785 -23.4441 0.
-289.4 -403.91 0.
-82.1124 -114.343 0.
-1.66208 -2.30508 0.
-198.709 -279.167 0.
-13.8179 -19.332 0.
-5.82648 -9.48561 0.
-25.7378 -41.3995 0.
3.34845 5.33507 0.
-18.8493 -30.7851 0.
-1.25264 -1.78524 0.
-21.258 -30.7649 0.
-55.0262 -80.8469 0.
-42.3518 -59.258 0.
-76.9535 -108.493 0.
3.18843 4.40541 0.
-28.4418 -39.4954 0.
-58.4081 -81.5462 0.
-4.69865 -6.56459 0.
-60.9981 -86.9989 0.
-87.6559 -127.72 0.
-10.4315 -15.2229 0.
-20.064 -29.7181 0.
4.81431 7.22735 0.
2.71361 4.47042 0.
4.29101 7.18266 0.
2.5971 4.88592 0.
-1.90555 -3.65996 0.
4.19846 8.23343 0.
2.97083 5.99195 0.
-2.24662 -4.54777 0.
0.984974 2.00117 0.
0.919271 1.87342 0.
1.42527 2.9297 0.
-1.59322 -3.30328 0.
-45.814 -85.9079 0.
-12.9881 -23.8531 0.
-156.742 -384.972 0.
-42.1131 -101.735 0.
-0.705633 -1.67503 0.
-261.149 -602.989 0.
-116.247 -263.64 0.
1.32439 2.95884 0.
-368.458 -813.973 0.
-163.092 -351.426 0.
1.43756 3.07468 0.
-421.317 -968.81 0.
-190.243 -421.198 0.
-357.531 -946.962 0.
-223.376 -576.326 0.
-109.637 -277.553 0.
-357.605 -966.163 0.
-241.399 -633.099 0.
-143.021 -363.987 0.
-327.757 -906.296 0.
-247.033 -671.011 0.
-168.734 -433.301 0.
-342.22 -946.451 0.
-337.986 -933.15 0.
-209.179 -550.253 0.
-257.856 -709.315 0.
-329.171 -910.781 0.
-161.122 -418.203 0.
-244.242 -653.892 0.
-328.802 -898.096 0.
-143.215 -364.3 0.
-238.222 -619.132 0.
-358.417 -957.501 0.
-108.195 -275.624 0.
-214.504 -550.636 0.
-342.252 -895.047 0.
-173.963 -371.138 0.
-410.1 -910.724 0.
-0.523836 -1.098 0.
-135.598 -288.445 0.
-336.648 -736.987 0.
2.05947 4.57156 0.
-90.2013 -203.951 0.
-230.264 -533.13 0.
1.57382 3.74869 0.
-16.9284 -41.0237 0.
-116.705 -287.172 0.
-13.1072 -23.9481 0.
-6.15477 -11.3748 0.
3.58544 7.30746 0.
-2.21716 -4.46274 0.
3.15181 6.26388 0.
-1.11507 -2.20032 0.
2.3806 4.68021 0.
-0.334543 -0.655444 0.
2.22574 4.20736 0.
-0.748218 -1.37971 0.
0.00087475 0.00157318 0.
-1.89396 -3.11076 0.
-0.258313 -0.418276 0.
1.32386 1.93659 0.
-0.63851 -0.920455 0.
1.76079 2.502 0.
-77.5534 -108.741 0.
-35.6798 -49.3939 0.
-4.58347 -6.26904 0.
-59.9138 -82.831 0.
-27.2333 -37.4723 0.
-0.290972 -0.398441 0.
-67.9355 -95.5367 0.
-21.8833 -30.5661 0.
-51.0162 -82.5978 0.
-16.137 -25.8819 0.
0.565341 0.897423 0.
1.80805 3.25154 0.
3.13565 4.63541 0.
-1.24842 -1.86823 0.
0.565106 0.856277 0.
1.65754 2.3425 0.
1.48045 2.11203 0.
3.37103 4.67375 0.
5.12362 7.18615 0.
-38.8796 -55.2021 0.
-0.765002 -1.09845 0.
-2.32731 -3.39047 0.
-49.9049 -73.7307 0.
4.63017 6.78128 0.
-0.843922 -1.2481 0.
-40.0327 -59.7686 0.
2.96259 4.8259 0.
-140.265 -232.173 0.
-1.47378 -2.75155 0.
2.03652 3.88432 0.
-90.0704 -175.481 0.
1.20948 2.40531 0.
-21.6063 -43.1209 0.
-51.8044 -103.808 0.
-113.185 -230.367 0.
-75.8386 -155.615 0.
-43.4769 -89.9616 0.
-192.912 -361.791 0.
-162.009 -297.914 0.
-229.975 -552.558 0.
-112.16 -264.105 0.
2.22721 5.13154 0.
-285.818 -653.696 0.
-138.991 -312.991 0.
1.48058 3.28078 0.
-331.974 -721.948 0.
-120.363 -257.525 0.
0.388164 0.825982 0.
-349.37 -779.118 0.
-106.993 -232.107 0.
-267.241 -685.192 0.
-143.908 -360.966 0.
-27.6216 -68.2728 0.
-260.773 -680.289 0.
-152.546 -386.034 0.
-60.6265 -151.009 0.
-243.267 -659.131 0.
-169.169 -439.527 0.
-92.149 -221.77 0.
-259.614 -718.93 0.
-254.328 -700.717 0.
-114.702 -285.934 0.
-172.904 -463.534 0.
-230.565 -636.401 0.
-87.1214 -220.055 0.
-158.914 -412.519 0.
-230.898 -613.829 0.
-57.595 -144.419 0.
-150.394 -380.67 0.
-260.904 -675.646 0.
-30.417 -76.1098 0.
-139.035 -349.957 0.
-257.182 -655.474 0.
-106.006 -223.87 0.
-349.724 -758.379 0.
-0.37395 -0.770621 0.
-119.567 -250.123 0.
-322.921 -693.809 0.
-0.072767 -0.160209 0.
-131.759 -295.539 0.
-272.768 -624.695 0.
-12.5626 -29.1421 0.
-111.834 -264.575 0.
-211.979 -509.401 0.
-175.947 -323.151 0.
-167.654 -310.972 0.
-41.9947 -85.2988 0.
-70.4605 -141.338 0.
-99.781 -197.709 0.
-60.269 -117.315 0.
-13.6021 -26.3518 0.
2.77865 5.36409 0.
-99.3625 -187.452 0.
3.94929 7.25439 0.
-0.480714 -0.860514 0.
-144.31 -233.723 0.
1.72538 2.75619 0.
-50.0184 -73.2864 0.
0.416097 0.603559 0.
-3.03391 -4.35986 0.
-46.6226 -66.7205 0.
2.17909 3.07039 0.
0.305943 0.424751 0.
-30.2527 -42.0915 0.
-0.790067 -1.08846 0.
5.44852 7.43667 0.
-1.27125 -1.80482 0.
-1.21614 -1.71291 0.
0.70662 1.21316 0.
-0.88936 -1.49907 0.
-0.732552 -1.21266 0.
-2.61206 -4.61288 0.
-13.7896 -20.2417 0.
-67.7897 -100.744 0.
-46.3426 -69.752 0.
-106.188 -148.101 0.
-224.607 -315.515 0.
-6.81961 -9.30247 0.
-130.648 -180.332 0.
-299.557 -418.268 0.
-88.3846 -126.656 0.
-179.329 -260.64 0.
-268.806 -396.088 0.
-92.3129 -134.324 0.
-286.229 -419.491 0.
-277.749 -411.292 0.
-237.482 -382.415 0.
-500.215 -821.762 0.
-90.0803 -166.794 0.
-258.336 -489.235 0.
-440.422 -853.335 0.
-234.935 -459.992 0.
-297.471 -584.957 0.
-363.124 -717.854 0.
-368.403 -749.666 0.
-285.602 -585.343 0.
-237.09 -489.745 0.
-375.662 -709.425 0.
-309.551 -573.398 0.
-316.38 -744.711 0.
-198.536 -456.779 0.
-76.9882 -172.552 0.
-328.493 -744.792 0.
-161.703 -361.158 0.
-10.9307 -24.0521 0.
-299.257 -642.574 0.
-79.337 -168.918 0.
0.378969 0.802219 0.
-272.045 -592.29 0.
-24.017 -50.7125 0.
-178.948 -445.351 0.
-62.7355 -153.548 0.
0.122793 0.297531 0.
-161.443 -406.529 0.
-69.5421 -172.25 0.
0.666568 1.61594 0.
-171.679 -451.562 0.
-93.7066 -235.151 0.
-9.43061 -22.7527 0.
-194.908 -539.73 0.
-188.565 -517.698 0.
-29.0327 -70.697 0.
-90.19 -234.007 0.
-148.759 -403.952 0.
-10.4342 -25.8775 0.
-84.8876 -216.392 0.
-159.325 -414.237 0.
-0.519888 -1.29299 0.
-65.9669 -164.909 0.
-165.629 -417.692 0.
-0.140278 -2.44239 0.
-63.9057 -157.721 0.
-173.762 -432.913 0.
-43.5683 -91.1916 0.
-288.799 -615.901 0.
-0.0295685 -0.0598911 0.
-101.927 -209.632 0.
-315.133 -665.368 0.
-29.2774 -63.9746 0.
-181.28 -402.707 0.
-334.506 -757.971 0.
-125.022 -282.689 0.
-221.208 -510.42 0.
-315.261 -740.284 0.
-335.827 -623.944 0.
-365.624 -685.725 0.
-260.578 -525.823 0.
-312.764 -623.43 0.
-367.201 -723.421 0.
-376.516 -725.746 0.
-297.094 -569.327 0.
-224.986 -428.942 0.
-452.035 -852.463 0.
-251.843 -461.626 0.
-64.3443 -114.632 0.
-486.881 -781.368 0.
-224.816 -354.324 0.
-287.181 -418.639 0.
-260.104 -375.632 0.
-59.6391 -85.2498 0.
-257.87 -369.126 0.
-169.184 -238.463 0.
-78.8791 -109.422 0.
-277.049 -379.978 0.
-122.795 -166.574 0.
-7.96312 -10.6951 0.
-198.885 -277.49 0.
-91.6416 -127.044 0.
-35.8339 -60.8444 0.
-48.2958 -80.4846 0.
0.619484 1.01348 0.
-0.3196 -0.471098 0.
-3.29613 -4.40456 0.
-1.9535 -2.62818 0.
-0.384098 -0.520281 0.
3.62349 4.60775 0.
3.93321 4.97169 0.
6.88459 8.44083 0.
-0.670605 -0.82908 0.
-3.23288 -4.0309 0.
-2.20286 -2.83779 0.
4.02204 5.25024 0.
-0.700881 -0.927691 0.
4.0614 5.37461 0.
-0.991009 -1.32648 0.
-4.07587 -7.92349 0.
0.853354 1.24783 0.
-0.72359 -1.08691 0.
4.00449 6.78836 0.
-2.62367 -4.55041 0.
-6.97147 -12.3827 0.
2.65517 4.81705 0.
2.84861 5.21678 0.
-38.4562 -71.1415 0.
-42.1328 -79.8998 0.
-10.4096 -19.9563 0.
2.07455 4.02417 0.
-81.4618 -150.005 0.
-131.762 -247.955 0.
-145.43 -357.937 0.
-96.8614 -234.192 0.
-50.0332 -118.29 0.
-252.749 -617.4 0.
-154.587 -367.844 0.
-53.9245 -124.913 0.
-323.642 -732.51 0.
-186.473 -414.153 0.
-44.8379 -99.3713 0.
-396.689 -904.316 0.
-207.797 -451.801 0.
-360.851 -941.689 0.
-237.97 -602.933 0.
-134.338 -333.347 0.
-362.434 -967.101 0.
-247.8 -640.679 0.
-151.059 -379.345 0.
-333.059 -904.183 0.
-251.082 -664.131 0.
-166.483 -426.683 0.
-350.582 -970.097 0.
-357.97 -987.229 0.
-186.509 -490.075 0.
-249.46 -673.473 0.
-313.364 -861.025 0.
-173.28 -444.699 0.
-246.729 -648.694 0.
-332.984 -897.679 0.
-144.017 -362.746 0.
-237.215 -613.445 0.
-331.738 -878.794 0.
-130.609 -329.977 0.
-231.716 -590.764 0.
-331.18 -860.021 0.
-208.88 -450.058 0.
-376.281 -845.199 0.
-33.9602 -73.1671 0.
-171.047 -375.053 0.
-303.119 -682.631 0.
-46.616 -106.777 0.
-133.331 -312.446 0.
-223.617 -536.111 0.
-50.1229 -116.868 0.
-79.4717 -188.802 0.
-110.653 -266.99 0.
-122.75 -228.046 0.
-54.634 -98.3897 0.
-0.733673 -1.36894 0.
-8.18577 -15.1257 0.
-26.3616 -48.2623 0.
-35.5942 -63.7066 0.
3.89952 6.90014 0.
1.17459 2.05695 0.
-2.83561 -4.87884 0.
0.202983 0.340052 0.
0.557913 0.910932 0.
1.33498 1.94708 0.
-0.392778 -0.55897 0.
-3.88509 -5.16291 0.
-4.25204 -7.71164 0.
-3.43048 -4.46209 0.
4.49262 5.79284 0.
4.82622 6.14901 0.
0.914907 1.15232 0.
0.547054 0.674334 0.
0.201094 0.246789 0.
-1.41328 -1.72692 0.
-0.752269 -0.947123 0.
1.8722 2.36188 0.
3.50442 5.04917 0.
1.54563 2.2195 0.
0.621168 0.88899 0.
0.333934 0.490494 0.
-31.5068 -42.0061 0.
-1.31207 -1.76125 0.
-11.5655 -15.6321 0.
-71.6798 -89.5885 0.
-124.083 -154.01 0.
-3.61459 -4.39262 0.
-95.0107 -116.494 0.
-211.208 -261.459 0.
-105.658 -133.69 0.
-150.903 -193.578 0.
-195.841 -254.836 0.
-36.888 -47.8868 0.
-282.47 -370.657 0.
-309.068 -410.285 0.
-257.812 -372.727 0.
-470.247 -698.854 0.
-104.862 -173.684 0.
-273.527 -463.904 0.
-467.506 -815.549 0.
-195.143 -350.964 0.
-289.6 -526.42 0.
-396.402 -729.18 0.
-333.305 -618.881 0.
-303.91 -568.522 0.
-268.449 -506.301 0.
-335.712 -620.034 0.
-378.866 -717.707 0.
-277.442 -670.65 0.
-232.456 -552.606 0.
-185.241 -431.665 0.
-295.167 -714.771 0.
-194.815 -460.119 0.
-92.3905 -212.786 0.
-291.625 -654.492 0.
-154.755 -341.229 0.
-11.3512 -24.8943 0.
-294.267 -647.742 0.
-97.464 -206.001 0.
-226.304 -569.973 0.
-121.035 -299.946 0.
-12.2269 -30.2327 0.
-218.614 -563.559 0.
-122.984 -309.538 0.
-24.4393 -60.4966 0.
-224.332 -595.503 0.
-138.787 -360.412 0.
-50.3393 -129.386 0.
-231.034 -639.5 0.
-230.61 -635.799 0.
-77.6938 -203.955 0.
-143.607 -383.965 0.
-209.696 -570.575 0.
-53.4849 -136.828 0.
-125.313 -325.177 0.
-202.168 -534.607 0.
-19.19 -47.83 0.
-116.119 -294.678 0.
-212.125 -549.151 0.
-18.5194 -46.5791 0.
-121.209 -303.118 0.
-224.438 -566.764 0.
-111.615 -235.62 0.
-291.421 -636.404 0.
-29.8254 -64.2699 0.
-166.363 -363.917 0.
-300.262 -673.295 0.
-114.652 -259.826 0.
-207.054 -480.738 0.
-296.712 -704.538 0.
-219.255 -499.639 0.
-245.992 -570.206 0.
-274.995 -646.998 0.
-406.028 -759.142 0.
-342.105 -617.838 0.
-290.943 -526.24 0.
-313.145 -563.218 0.
-333.029 -595.895 0.
-411.05 -733.893 0.
-291.484 -513.93 0.
-180.634 -314.626 0.
-483.605 -818.127 0.
-284.756 -467.931 0.
-109.656 -175.493 0.
-460.5 -663.95 0.
-247.46 -346.848 0.
-304.249 -398.046 0.
-252.967 -327.185 0.
-16.6144 -21.2066 0.
-169.965 -215.934 0.
-134.918 -169.307 0.
-100.704 -124.887 0.
-171.237 -209.568 0.
-72.8905 -88.7131 0.
0.647372 0.784245 0.
-88.119 -109.4 0.
-59.893 -74.5382 0.
-15.138 -21.848 0.
-1.7308 -2.48968 0.
2.64179 3.78762 0.
-4.60555 -6.74025 0.
-11.1147 -14.782 0.
-32.4822 -43.5013 0.
-63.5368 -85.7242 0.
-79.0681 -97.1725 0.
-40.6733 -49.6716 0.
-42.861 -51.6239 0.
-56.2733 -68.3517 0.
-80.3599 -98.4612 0.
-12.3387 -15.2883 0.
-49.3987 -62.0322 0.
-81.6467 -103.967 0.
-20.8648 -26.5533 0.
-39.599 -50.9472 0.
-18.9026 -24.5979 0.
-2.87332 -3.99532 0.
1.85702 2.58837 0.
-0.595381 -0.906812 0.
-0.642697 -1.01431 0.
0.134262 0.21959 0.
-1.4818 -5.43832 0.
1.04292 1.83693 0.
0.848119 1.51844 0.
2.58391 4.61348 0.
-1.23442 -5.0239 0.
-1.38151 -5.71338 0.
2.21121 3.9694 0.
-0.865101 -1.60173 0.
-14.9748 -35.4141 0.
-2.10954 -4.89483 0.
-0.522569 -5.55054 0.
-91.8135 -217.189 0.
-43.9822 -101.935 0.
0.641779 1.4565 0.
-178.888 -393.133 0.
-91.9021 -198.109 0.
-3.05996 -6.50914 0.
-266.863 -571.178 0.
-117.457 -242.775 0.
-250.49 -633.154 0.
-171.46 -425.337 0.
-87.1849 -213.99 0.
-286.42 -744.17 0.
-192.058 -484.692 0.
-92.9198 -228.089 0.
-284.963 -755.321 0.
-201.093 -513.492 0.
-117.298 -288.567 0.
-285.082 -789.59 0.
-285.762 -788.973 0.
-142.135 -370.864 0.
-204.518 -543.692 0.
-265.973 -721.137 0.
-115.417 -291.706 0.
-191.51 -495.895 0.
-263.978 -698.171 0.
-92.7093 -230.503 0.
-180.101 -454.576 0.
-266.877 -687.688 0.
-78.1446 -190.854 0.
-156.413 -386.338 0.
-233.138 -586.208 0.
-113.602 -235.784 0.
-239.496 -511.214 0.
-0.619873 -1.3078 0.
-73.4917 -158.263 0.
-156.18 -343.718 0.
0.0692985 0.155393 0.
-27.4282 -62.6777 0.
-62.4305 -145.216 0.
0.580955 1.28671 0.
-1.35335 -3.04686 0.
-8.22954 -18.8075 0.
1.16234 2.10752 0.
-1.55566 -5.87063 0.
-1.24676 -4.59016 0.
2.63514 4.56817 0.
-1.48688 -5.43693 0.
1.90088 3.31242 0.
1.99483 3.41076 0.
1.96416 3.29701 0.
0.466724 0.747553 0.
-1.44932 -2.25422 0.
0.53679 0.811284 0.
-2.84738 -3.89518 0.
-36.3148 -49.5262 0.
-51.0428 -65.2462 0.
-41.3911 -52.3475 0.
-3.02652 -3.78745 0.
-95.0178 -118.577 0.
-69.4617 -85.6536 0.
-28.7242 -35.0133 0.
-51.9663 -62.9692 0.
-53.9066 -65.0315 0.
-48.5098 -58.265 0.
-43.4881 -53.3081 0.
-70.3562 -86.4356 0.
-41.7178 -60.3179 0.
-21.3055 -30.6956 0.
-1.07099 -1.53811 0.
1.77436 2.57482 0.
-0.403891 -0.51633 0.
1.85173 2.37744 0.
-1.46199 -1.88566 0.
2.18786 2.57663 0.
5.6535 6.6862 0.
2.90582 3.42239 0.
3.34259 3.97933 0.
4.96158 5.97352 0.
0.873282 1.06803 0.
1.63781 2.02061 0.
-3.53177 -4.39685 0.
-0.0904506 -0.113846 0.
-0.935747 -1.19352 0.
-18.4843 -23.8918 0.
-1.51108 -2.06953 0.
-61.631 -84.5051 0.
3.50503 5.29305 0.
-1.93922 -5.38552 0.
-120.685 -196.375 0.
-0.247793 -0.421412 0.
1.46048 2.52321 0.
-89.4412 -157.051 0.
-7.59068 -13.3119 0.
-7.07866 -12.4712 0.
-20.5981 -36.4618 0.
-57.2369 -104.87 0.
-165.48 -314.303 0.
-52.4986 -122.368 0.
-70.166 -160.499 0.
-90.2316 -202.415 0.
-134.361 -315.088 0.
-87.9817 -202.111 0.
-39.8977 -89.6747 0.
-182.561 -400.587 0.
-91.3833 -196.841 0.
0.779956 1.65982 0.
-217.725 -451.729 0.
-61.5015 -123.225 0.
-162.653 -402.639 0.
-80.1585 -195.979 0.
0.509187 1.23896 0.
-169.237 -432.396 0.
-70.9587 -177.76 0.
0.523362 1.30088 0.
-156.577 -412.241 0.
-67.785 -174.474 0.
0.149994 0.380572 0.
-138.592 -383.727 0.
-142.223 -393.33 0.
-15.3885 -40.8175 0.
-80.0422 -214.201 0.
-142.265 -384.838 0.
0.431252 1.08313 0.
-74.179 -190.104 0.
-151.592 -396.578 0.
-0.476176 -1.19674 0.
-71.9963 -181.943 0.
-162.436 -414.782 0.
-0.48999 -1.18461 0.
-79.6426 -193.049 0.
-158.226 -388.867 0.
-75.343 -152.811 0.
-205.143 -427.188 0.
-7.80559 -16.426 0.
-91.7876 -197.272 0.
-176.346 -387.182 0.
-51.5309 -114.907 0.
-84.7874 -192.615 0.
-120.583 -278.763 0.
-107.784 -236.06 0.
-64.9418 -144.3 0.
-22.7429 -51.3385 0.
-165.112 -305.288 0.
-61.5961 -109.412 0.
-13.7282 -23.2829 0.
1.25161 2.12168 0.
1.11105 1.8824 0.
-94.6417 -162.298 0.
3.70712 6.23386 0.
-1.54664 -2.55303 0.
-128.924 -204.036 0.
2.97557 4.57064 0.
-1.5189 -2.26471 0.
-62.9719 -85.5343 0.
2.93289 3.97547 0.
-44.0165 -56.5272 0.
-3.88421 -6.45557 0.
2.07663 2.58712 0.
1.67694 2.06601 0.
-1.78788 -2.17219 0.
-3.42919 -5.06262 0.
3.94588 4.65379 0.
2.84067 3.32643 0.
5.8995 6.86111 0.
3.6846 4.354 0.
-3.38371 -4.83072 0.
-0.870434 -1.24014 0.
1.76812 2.47936 0.
3.20818 4.43315 0.
-1.44334 -3.15613 0.
-103.103 -128.435 0.
-1.2449 -1.54928 0.
-85.9818 -102.25 0.
-130.149 -150.246 0.
-166.113 -192.504 0.
-78.307 -90.4189 0.
-135.952 -158.741 0.
-187.689 -221.601 0.
-161.135 -194.865 0.
-158.087 -192.668 0.
-149.253 -183.349 0.
-47.0282 -58.9937 0.
-256.358 -325.496 0.
-233.123 -300.216 0.
-215.788 -290.165 0.
-365.223 -490.435 0.
-2.40275 -3.59336 0.
-202.748 -315.636 0.
-386.658 -631.153 0.
-83.3096 -138.872 0.
-213.645 -362.069 0.
-340.343 -587.603 0.
-235.09 -405.276 0.
-229.604 -397.562 0.
-232.812 -405.012 0.
-221.112 -415.975 0.
-324.764 -632.501 0.
-153.062 -351.869 0.
-172.56 -390.05 0.
-192.583 -428.026 0.
-179.647 -417.798 0.
-131.634 -299.908 0.
-85.1926 -189.876 0.
-186.579 -408.796 0.
-94.9667 -204.486 0.
-0.364527 -0.776276 0.
-164.662 -331.965 0.
-2.07857 -4.03451 0.
-72.2553 -175.792 0.
0.51497 1.24312 0.
1.08314 2.60695 0.
-51.6636 -132.105 0.
-0.0823336 -2.2406 0.
0.632718 1.59334 0.
-28.8352 -76.9885 0.
-0.0693995 -3.16849 0.
0.50095 1.29398 0.
-0.000240497 -2.95561 0.
0.94792 2.62524 0.
-0.0471385 -3.28483 0.
-0.031852 -3.05559 0.
-21.3334 -58.1501 0.
0.0869618 0.220577 0.
0.0151552 0.0388981 0.
-39.4607 -102.638 0.
-0.114093 -3.02319 0.
-0.0905828 -2.66225 0.
-53.9283 -138.563 0.
-0.309492 -0.740268 0.
-3.54807 -8.50981 0.
-85.9137 -206.793 0.
-35.0046 -69.3744 0.
-168.561 -342.988 0.
-26.7303 -56.1696 0.
-111.04 -238.172 0.
-193.425 -423.508 0.
-111.25 -246.709 0.
-144.631 -326.598 0.
-177.554 -407.835 0.
-235.256 -511.431 0.
-189.692 -416.79 0.
-145.137 -322.949 0.
-341.102 -644.449 0.
-238.888 -433.219 0.
-241.628 -401.468 0.
-230.622 -383.166 0.
-219.037 -363.926 0.
-357.483 -602.615 0.
-215.751 -356.748 0.
-71.4981 -116.035 0.
-398.415 -626.605 0.
-210.946 -319.499 0.
-15.8806 -23.3322 0.
-353.447 -473.616 0.
-215.454 -289.32 0.
-230.132 -293.919 0.
-236.039 -296.849 0.
-38.4654 -47.597 0.
-144.075 -175.142 0.
-154.735 -185.625 0.
-159.842 -189.301 0.
-161.456 -186.176 0.
-135.169 -154.847 0.
-103.326 -117.602 0.
-120.485 -139.183 0.
-92.6821 -106.824 0.
-46.6323 -63.0571 0.
-1.55525 -2.09344 0.
-30.3616 -40.3046 0.
-0.792676 -1.00031 0.
-3.56096 -4.75749 0.
-1.92671 -2.19409 0.
4.1738 4.51924 0.
-1.24405 -1.34236 0.
2.69482 2.89746 0.
2.66236 2.84016 0.
-3.61056 -3.85693 0.
-0.874556 -0.935574 0.
2.38179 2.59704 0.
-3.22285 -3.52738 0.
4.6261 5.08341 0.
1.98686 2.25879 0.
-4.24665 -5.70143 0.
-3.7291 -5.11557 0.
4.41124 5.29819 0.
3.85301 4.70866 0.
1.08529 1.49001 0.
1.31858 1.88268 0.
-12.5608 -18.6824 0.
-0.665692 -1.02888 0.
3.86805 6.12359 0.
-44.7415 -72.6571 0.
-0.375579 -0.609564 0.
1.107 1.79466 0.
-2.61425 -4.2338 0.
-1.24729 -5.30585 0.
-122.166 -235.346 0.
-0.662505 -1.514 0.
-28.5762 -65.2968 0.
-88.9864 -203.557 0.
-72.8171 -177.494 0.
-60.3089 -145.495 0.
-47.3395 -112.891 0.
-126.26 -303.437 0.
-76.7114 -182.195 0.
-25.1743 -59.1203 0.
-185.685 -410.277 0.
-125.462 -267.367 0.
-199.244 -525.302 0.
-143.218 -366.814 0.
-88.5096 -220.532 0.
-223.753 -580.232 0.
-156.63 -398.329 0.
-89.0933 -224.028 0.
-247.202 -655.368 0.
-165.583 -435.057 0.
-82.4318 -216.278 0.
-221.502 -613.389 0.
-210.897 -583.063 0.
-111.931 -301.844 0.
-163.017 -441.09 0.
-216.649 -589.03 0.
-86.1807 -221.703 0.
-161.911 -419.339 0.
-237.105 -621.306 0.
-85.4473 -216.587 0.
-145.155 -372.406 0.
-203.358 -530.74 0.
-89.9591 -224.174 0.
-135.076 -347.369 0.
-182.626 -483.383 0.
-123.327 -267.262 0.
-166.844 -371.952 0.
-28.0313 -65.2037 0.
-72.8117 -170.55 0.
-119.426 -281.883 0.
-54.9008 -128.231 0.
-54.0073 -127.348 0.
-50.9304 -121.149 0.
-106.38 -235.534 0.
-21.1455 -46.5606 0.
1.87337 4.10345 0.
-117.19 -216.155 0.
2.69849 4.71033 0.
0.736449 1.13985 0.
-0.997181 -1.5485 0.
0.902462 1.40571 0.
-27.3176 -43.2436 0.
2.21822 3.419 0.
2.31341 3.47492 0.
3.05867 4.35925 0.
4.09091 5.58839 0.
0.18027 0.236404 0.
5.71193 6.87028 0.
-3.51864 -5.05713 0.
5.8673 6.63078 0.
3.03339 3.40944 0.
-4.84726 -6.15501 0.
2.50292 2.74717 0.
1.404 1.53579 0.
0.519467 0.5664 0.
-3.93413 -4.1893 0.
1.79583 1.90377 0.
-3.55707 -3.7544 0.
4.66759 4.97429 0.
-0.792054 -0.850501 0.
0.333603 0.360834 0.
1.01665 1.21495 0.
1.53028 1.84001 0.
3.47839 4.32242 0.
-26.5476 -29.9241 0.
5.17056 5.8001 0.
3.81546 4.08354 0.
7.06535 7.53464 0.
6.3306 6.72611 0.
-5.76804 -6.06147 0.
-18.0568 -18.9952 0.
-31.2435 -32.8995 0.
-60.3277 -64.0874 0.
-32.689 -34.8318 0.
-5.0406 -5.38855 0.
4.93793 5.43923 0.
-209.07 -232.416 0.
-176.907 -198.577 0.
-129.211 -149.538 0.
-396.14 -468.4 0.
-31.359 -42.2505 0.
-201.748 -285.199 0.
-363.498 -538.065 0.
-5.55611 -8.46832 0.
-178.923 -280.834 0.
-346.641 -562.317 0.
-130.917 -210.325 0.
-178.459 -286.558 0.
-231.001 -370.732 0.
-149.274 -276.502 0.
-279.107 -547.262 0.
-74.0304 -166.796 0.
-134.421 -303.341 0.
-193.92 -439.506 0.
-133.63 -319.397 0.
-121.867 -288.059 0.
-109.769 -256.283 0.
-149.51 -359.835 0.
-99.2658 -236.303 0.
-47.9705 -112.993 0.
-118.991 -260.622 0.
-54.8881 -116.505 0.
-80.3192 -210.417 0.
-20.537 -52.867 0.
-0.912237 -2.31198 0.
-76.3222 -198.169 0.
-8.84634 -22.7868 0.
0.724959 1.84883 0.
-76.8943 -204.836 0.
0.27486 0.730565 0.
0.135566 0.35837 0.
-67.7775 -187.678 0.
-57.2437 -158.28 0.
0.439716 1.19002 0.
-11.5423 -31.3902 0.
-63.7222 -174 0.
-0.094164 -3.27811 0.
-15.339 -39.9192 0.
-92.2625 -240.939 0.
-0.552713 -1.40526 0.
-23.3944 -60.1257 0.
-81.7481 -212.571 0.
-0.259653 -0.657396 0.
-36.3182 -93.8139 0.
-88.3495 -233.158 0.
-68.0674 -146.349 0.
-117.139 -258.705 0.
-59.8171 -139.099 0.
-106.51 -249.345 0.
-152.34 -359.113 0.
-128.76 -294.272 0.
-126.658 -292.337 0.
-124.045 -288.978 0.
-223.894 -492.396 0.
-139.015 -302.569 0.
-55.3638 -119.728 0.
-287.503 -537.318 0.
-166.247 -293.876 0.
-252.879 -389.135 0.
-184.151 -283.415 0.
-111.953 -172.402 0.
-362.05 -567.782 0.
-187.099 -283.737 0.
-1.66324 -2.45306 0.
-365.724 -512.333 0.
-201.794 -270.789 0.
-28.8091 -36.941 0.
-386.225 -447.466 0.
-116.766 -133.304 0.
-137.008 -149.852 0.
-174.894 -190.432 0.
0.786407 0.851664 0.
5.92991 6.35838 0.
-17.7628 -18.9917 0.
-68.0222 -72.5222 0.
6.21712 6.54895 0.
-9.30727 -9.76067 0.
-18.1604 -18.9641 0.
-3.91265 -4.13235 0.
4.6018 4.89586 0.
-4.48067 -4.80283 0.
-2.2577 -2.66886 0.
-1.19201 -1.41792 0.
-5.96706 -7.30056 0.
-87.6558 -97.2888 0.
0.247254 0.273151 0.
-63.2081 -66.8504 0.
-68.1575 -71.8444 0.
-58.7101 -61.6754 0.
-160.17 -165.66 0.
-100.693 -104.229 0.
-44.9517 -46.5898 0.
-106.039 -109.672 0.
-92.8519 -96.2551 0.
-121.177 -125.901 0.
-47.5319 -50.7037 0.
-53.6557 -57.6639 0.
-31.8744 -34.521 0.
-19.9129 -22.1565 0.
-2.80873 -3.03932 0.
-1.73786 -3.06192 0.
0.402271 0.535349 0.
2.83449 3.86952 0.
-0.225785 -0.325346 0.
-1.51156 -3.72086 0.
-1.38903 -2.15128 0.
2.05188 3.19211 0.
-1.67546 -4.59202 0.
-1.44419 -2.2567 0.
1.4628 2.67175 0.
-17.8463 -33.9151 0.
-1.28775 -2.7603 0.
-1.31698 -2.86251 0.
-31.6004 -69.6898 0.
-19.8556 -46.5878 0.
-7.22626 -16.7262 0.
-20.6499 -47.1117 0.
-50.4634 -120.038 0.
-35.8269 -84.4366 0.
-20.9819 -49.0074 0.
-86.4706 -188.63 0.
-80.5598 -172.525 0.
-111.264 -291.455 0.
-81.589 -209.704 0.
-59.3706 -149.464 0.
-150.495 -392.067 0.
-96.5254 -246.629 0.
-42.7583 -107.196 0.
-166.728 -439.107 0.
-94.5409 -247.505 0.
-33.9955 -88.6478 0.
-175.395 -484.318 0.
-152.772 -421.639 0.
-58.9076 -159.338 0.
-107.335 -289.606 0.
-160.39 -432.032 0.
-50.2493 -127.449 0.
-101.488 -259.919 0.
-154.726 -401.504 0.
-35.8955 -90.1683 0.
-88.4481 -226.526 0.
-141.51 -369.194 0.
-50.8693 -127.778 0.
-76.3606 -195.872 0.
-102.302 -267.15 0.
-78.6576 -168.921 0.
-75.2419 -164.028 0.
-18.8932 -43.3531 0.
-29.8062 -68.8896 0.
-40.6701 -94.7153 0.
-23.5052 -52.4247 0.
2.23015 5.02969 0.
-9.32531 -21.2546 0.
-37.7471 -80.7382 0.
-0.575064 -1.20486 0.
2.69716 5.53463 0.
-19.0539 -34.3907 0.
1.15182 2.00758 0.
-0.436671 -0.653905 0.
-1.06337 -1.58294 0.
1.22466 1.81245 0.
1.79847 2.66504 0.
1.76843 2.52414 0.
3.31105 4.54787 0.
-1.78082 -3.06324 0.
-1.13936 -1.42669 0.
-0.558331 -0.682238 0.
-29.3033 -32.7087 0.
-49.6756 -54.6934 0.
-66.8811 -70.5803 0.
-84.6522 -89.0561 0.
-54.816 -57.4842 0.
-98.3822 -103.002 0.
-88.3891 -92.328 0.
-137.043 -142.795 0.
-40.3997 -42.0757 0.
-90.9546 -94.299 0.
-154.195 -159.194 0.
-34.4627 -36.0843 0.
-54.0495 -57.0317 0.
-79.0337 -84.0337 0.
-2.04355 -2.38967 0.
-58.7269 -69.1909 0.
1.39464 1.6696 0.
-1.46069 -1.53434 0.
-0.432526 -0.443583 0.
0.445739 0.432479 0.
4.26242 4.1094 0.
-2.89982 -2.77724 0.
-4.06116 -3.63073 0.
-4.5842 -4.02215 0.
-1.07464 -1.00142 0.
4.64687 4.33008 0.
-1.82815 -1.71697 0.
-0.935422 -0.885718 0.
3.39327 3.34593 0.
-2.19959 -2.16859 0.
3.37129 3.32247 0.
-1.41104 -1.47146 0.
-80.7962 -87.3603 0.
0.265536 0.340368 0.
-0.861929 -1.13362 0.
-58.193 -78.7151 0.
2.97876 4.32066 0.
-1.26307 -1.9031 0.
-80.9578 -126.72 0.
0.630018 0.96807 0.
-0.176913 -0.272388 0.
-38.0577 -58.7221 0.
-0.311962 -0.580511 0.
-95.3228 -185.089 0.
0.916146 1.96 0.
-0.609483 -1.32259 0.
-92.0089 -203.597 0.
-15.5142 -36.1346 0.
-29.8098 -68.4873 0.
-52.3901 -118.713 0.
-50.5089 -120.866 0.
-36.7206 -87.1191 0.
-21.4926 -50.568 0.
-48.9917 -106.268 0.
-43.4954 -92.6172 0.
-46.2452 -120.612 0.
-11.7412 -30.0449 0.
0.51951 1.30396 0.
-46.4966 -120.98 0.
-0.392201 -1.0057 0.
0.361291 0.914386 0.
-20.4502 -54.1273 0.
-0.333919 -0.880361 0.
-0.0863048 -3.80454 0.
-8.29881 -22.8854 0.
0.877683 2.42054 0.
1.29493 3.50071 0.
1.37235 3.70313 0.
-24.7464 -66.6509 0.
-0.41741 -1.07412 0.
-0.516162 -1.33959 0.
-39.2841 -102.837 0.
1.06308 2.67176 0.
-8.0261 -20.422 0.
-61.8225 -159.94 0.
-0.426887 -1.063 0.
-23.8596 -60.6967 0.
-49.3064 -127.828 0.
-46.7321 -100.266 0.
-45.7528 -99.6637 0.
-23.2185 -53.7441 0.
-34.7963 -81.0981 0.
-46.7821 -109.82 0.
-63.6953 -140.284 0.
-23.0054 -51.2005 0.
-10.9985 -24.7475 0.
-98.5049 -211.902 0.
1.80477 3.78789 0.
-1.17995 -2.42408 0.
-96.1828 -176.34 0.
-1.14934 -4.46763 0.
-37.9514 -56.2677 0.
-2.33205 -3.43719 0.
-2.35253 -3.44743 0.
-71.0036 -106.087 0.
0.570673 0.820332 0.
2.96456 4.09454 0.
-49.8926 -63.301 0.
-1.06645 -1.31807 0.
2.52228 3.04009 0.
-75.5585 -79.9884 0.
0.82185 0.848812 0.
3.59221 3.49862 0.
-3.52081 -3.42132 0.
4.49544 4.35848 0.
-2.17927 -2.0685 0.
-2.8345 -2.67112 0.
0.669023 0.626157 0.
0.409182 0.382441 0.
-4.69063 -4.16592 0.
6.18361 5.91512 0.
-3.92194 -3.62775 0.
0.836026 0.808564 0.
-1.94937 -1.89094 0.
-0.517176 -0.542531 0.
-0.972484 -1.04899 0.
1.3477 1.54679 0.
-100.515 -103.029 0.
4.6796 4.67735 0.
-76.2013 -71.4223 0.
-72.4272 -67.3441 0.
-67.6907 -62.3969 0.
-64.7722 -59.862 0.
-78.5862 -71.9886 0.
-98.079 -89.0358 0.
-127.063 -115.879 0.
-93.5083 -85.7726 0.
-68.1013 -62.8795 0.
0.728561 0.702002 0.
-200.611 -193.66 0.
-131.668 -126.87 0.
0.336331 0.349798 0.
-312.248 -338.145 0.
-1.60258 -2.66484 0.
-64.544 -84.0968 0.
-221.224 -298.702 0.
0.664301 0.970601 0.
-52.8572 -80.3633 0.
-235.756 -373.741 0.
0.733511 1.1131 0.
-73.9204 -112.405 0.
-180.604 -275.518 0.
-11.385 -21.6304 0.
-167.044 -331.317 0.
0.105646 0.225557 0.
-56.1417 -122.06 0.
-151.667 -337.743 0.
-37.1233 -85.8299 0.
-59.6608 -136.12 0.
-81.8462 -184.274 0.
-52.429 -126.169 0.
-37.9604 -90.6242 0.
-22.6844 -53.7402 0.
-12.3821 -26.7051 0.
-3.92552 -8.3097 0.
0.145817 0.37868 0.
-0.260406 -0.665441 0.
1.18725 2.97988 0.
-0.0991408 -4.10161 0.
0.461995 1.19567 0.
0.248045 0.634153 0.
-0.537746 -1.43227 0.
0.640937 1.70141 0.
0.118771 0.314257 0.
-2.34347 -6.45318 0.
1.04693 2.88296 0.
0.281612 0.761196 0.
-0.0865259 -0.233441 0.
0.0414892 0.111718 0.
1.21523 3.16253 0.
0.375317 0.984575 0.
-0.0420564 -0.111204 0.
0.807928 2.03959 0.
0.704847 1.79927 0.
-0.088978 -2.87822 0.
-0.550716 -1.36387 0.
-0.0540897 -0.136628 0.
-0.526833 -1.35444 0.
-13.2142 -28.3208 0.
-19.9755 -43.4901 0.
-31.0166 -72.3659 0.
-41.9572 -98.5352 0.
-52.3876 -123.873 0.
-106.653 -232.212 0.
-63.8141 -140.24 0.
-21.9984 -48.8648 0.
-159.898 -347.042 0.
-55.3168 -116.64 0.
0.860746 1.7705 0.
-176.339 -328.91 0.
-4.73432 -8.49722 0.
-191.167 -280.538 0.
-64.9477 -94.7305 0.
0.402972 0.584621 0.
-233.66 -352.334 0.
-54.6514 -79.0936 0.
-0.918335 -1.27598 0.
-225.615 -285.125 0.
-54.073 -66.0037 0.
0.0204685 0.0243224 0.
-315.059 -329.936 0.
4.54755 4.64396 0.
-134.933 -128.976 0.
-202.03 -192.878 0.
1.78252 1.69634 0.
-27.91 -25.7212 0.
-94.8147 -86.9521 0.
-154.331 -140.95 0.
-56.9198 -51.5822 0.
-71.7839 -65.8802 0.
-86.2439 -80.0859 0.
-31.501 -29.3397 0.
-57.5288 -53.8442 0.
-88.4426 -83.1861 0.
2.49238 2.5012 0.
-42.2887 -43.7863 0.
-1.13141 -1.28652 0.
2.42656 2.30519 0.
0.402353 0.366708 0.
4.66918 3.9615 0.
4.56686 3.8681 0.
-0.238228 -0.201399 0.
5.10408 4.42389 0.
3.97655 3.42502 0.
2.44354 2.09102 0.
0.48559 0.418472 0.
4.07025 3.53954 0.
-2.24992 -1.9752 0.
6.39447 5.90159 0.
-3.46336 -3.18453 0.
4.28812 3.92697 0.
0.668882 0.677169 0.
-19.8924 -21.1128 0.
-0.149328 -0.185108 0.
-0.527065 -0.668227 0.
1.14096 1.47893 0.
-0.369362 -0.524331 0.
-1.70702 -4.01197 0.
2.43378 3.6887 0.
-1.76699 -2.56413 0.
-1.31643 -1.92734 0.
-1.91271 -4.57485 0.
2.12931 3.98416 0.
-44.4521 -85.8235 0.
2.5676 5.22009 0.
0.984329 2.04604 0.
-42.6705 -90.8042 0.
1.77491 3.9679 0.
2.15631 4.83113 0.
-24.4956 -54.9597 0.
-12.2763 -29.8956 0.
-4.37313 -10.6034 0.
-12.6293 -30.4541 0.
-23.8537 -53.4394 0.
-35.9503 -80.7002 0.
-35.3648 -94.7669 0.
-24.2042 -64.491 0.
-18.579 -49.202 0.
-49.545 -134.988 0.
-32.176 -87.2764 0.
-18.262 -49.2874 0.
-46.1561 -127.219 0.
-22.7918 -62.5868 0.
-1.6057 -4.38904 0.
-53.4503 -148.023 0.
-37.0865 -102.448 0.
-27.5552 -74.6764 0.
-32.1317 -87.8492 0.
-39.4332 -108.526 0.
-9.18699 -24.9797 0.
-29.8905 -81.6929 0.
-48.4791 -133.073 0.
-11.9879 -32.1068 0.
-29.1003 -78.2565 0.
-50.8187 -137.187 0.
-13.0116 -33.8884 0.
-26.3787 -69.1765 0.
-37.7695 -99.6651 0.
-36.7329 -81.9345 0.
-19.7489 -43.823 0.
-11.1103 -25.9884 0.
1.7849 4.20109 0.
-10.039 -23.7312 0.
-28.5943 -61.2913 0.
1.68932 3.60863 0.
0.21315 0.453161 0.
-37.8927 -78.4056 0.
-1.08957 -2.20281 0.
1.99208 3.93493 0.
-45.8683 -83.5535 0.
-0.853203 -1.50248 0.
3.57884 5.03918 0.
-2.19126 -4.54041 0.
0.112222 0.154446 0.
0.404444 0.58006 0.
1.43477 1.99812 0.
2.77532 3.75344 0.
-1.19377 -1.45586 0.
2.88495 3.4361 0.
0.913124 1.06234 0.
-4.38539 -4.46571 0.
2.12327 2.06989 0.
-3.63256 -3.26888 0.
-3.57386 -3.22457 0.
3.94974 3.57284 0.
-3.60169 -3.12139 0.
-1.10699 -0.959497 0.
-1.26837 -1.09957 0.
2.13977 1.83473 0.
1.325 1.1421 0.
-2.6784 -2.32028 0.
1.76274 1.50493 0.
3.68333 3.1369 0.
5.09134 4.32565 0.
-2.26593 -1.67819 0.
1.43989 1.34992 0.
1.26999 1.28772 0.
-45.3228 -41.7326 0.
4.37934 3.87625 0.
-10.3482 -8.63613 0.
-8.92157 -7.43017 0.
-10.9791 -9.12368 0.
2.79968 2.39112 0.
-9.89978 -8.3996 0.
-33.1895 -27.9687 0.
-12.8306 -10.8763 0.
-5.46427 -4.67296 0.
-5.23599 -4.51916 0.
-1.612 -1.45767 0.
-38.8888 -35.0298 0.
-70.0156 -62.8439 0.
1.36667 1.38623 0.
-106.898 -114.042 0.
1.35789 1.68918 0.
0.216248 0.275293 0.
-107.994 -141.366 0.
3.23573 4.56959 0.
1.68601 2.46355 0.
-96.2072 -145.32 0.
-0.818265 -1.17871 0.
-1.32114 -1.92018 0.
-81.7459 -120.006 0.
-0.569201 -1.09222 0.
-34.8236 -68.8814 0.
-0.467636 -0.956046 0.
0.859018 1.79618 0.
-57.5254 -123.321 0.
1.83516 4.08536 0.
-11.4143 -25.4577 0.
-56.243 -125.638 0.
-9.73009 -23.7505 0.
-15.3194 -37.2015 0.
-24.1064 -58.2284 0.
-17.7408 -39.9504 0.
-18.8494 -42.5021 0.
-4.85003 -12.9704 0.
-0.932795 -2.48054 0.
-1.37121 -3.62455 0.
0.664316 1.80645 0.
1.2485 3.37984 0.
0.545193 1.46849 0.
-0.111399 -0.306836 0.
-0.241531 -0.663036 0.
1.55747 4.25776 0.
0.358809 0.993007 0.
0.693663 1.91349 0.
0.663714 1.79685 0.
-0.0431336 -0.117776 0.
-0.598239 -1.64417 0.
1.62434 4.41106 0.
0.154647 0.422023 0.
-0.666907 -1.82756 0.
-0.0951392 -0.25474 0.
-1.75461 -4.71622 0.
-9.78001 -26.3823 0.
-0.943673 -2.45091 0.
-6.97185 -18.2293 0.
-19.7594 -51.987 0.
-16.6563 -37.2288 0.
-17.2581 -38.4297 0.
-23.5911 -55.2208 0.
-11.0211 -25.9492 0.
-7.03402 -16.651 0.
-60.972 -130.189 0.
1.8376 3.91323 0.
0.0315707 0.0669096 0.
-52.3394 -109.175 0.
2.27319 4.62963 0.
-0.763642 -1.5191 0.
-39.1213 -73.1002 0.
-0.204242 -0.369212 0.
-90.4593 -126.448 0.
3.39603 4.68307 0.
3.40411 4.64091 0.
-95.4471 -136.356 0.
1.60596 2.22521 0.
-0.866171 -1.16443 0.
-107.83 -132.431 0.
0.386108 0.460523 0.
1.70082 1.98006 0.
-109.159 -111.01 0.
3.83251 3.72431 0.
-55.1119 -48.7559 0.
-48.2646 -42.8136 0.
-2.0458 -1.8197 0.
-0.451976 -0.384898 0.
-2.56823 -2.18823 0.
-33.3336 -28.4222 0.
-23.8237 -20.0266 0.
-8.22092 -6.94938 0.
-9.74373 -8.28092 0.
4.09654 3.44621 0.
-3.12976 -2.62661 0.
-21.2106 -17.758 0.
2.14928 1.77983 0.
-15.3636 -13.669 0.
