# vtk DataFile Version 2.0
test grain
ASCII
DATASET UNSTRUCTURED_GRID
POINTS 5000 float
0.497751 0.000610745 0.
0.50059 0.000795942 0.
0.503071 0.000863771 0.
0.505533 0.000929654 0.
0.507651 0.00094627 0.
0.509771 0.000963215 0.
0.511861 0.00097577 0.
0.513904 0.000980662 0.
0.515947 0.000985578 0.
0.517969 0.000989428 0.
0.519979 0.000992734 0.
0.52199 0.000996052 0.
0.523993 0.000996869 0.
0.525994 0.000997365 0.
0.527996 0.000997831 0.
0.529997 0.000998056 0.
0.531998 0.00099828 0.
0.533998 0.000998507 0.
0.535999 0.000998738 0.
0.537999 0.00099897 0.
0.539999 0.000999118 0.
0.541999 0.000999198 0.
0.544 0.000999279 0.
0.546 0.000999287 0.
0.548 0.000999273 0.
0.55 0.00099926 0.
0.552 0.000999242 0.
0.554 0.000999225 0.
0.555999 0.000999221 0.
0.557999 0.000999265 0.
0.56 0.000999308 0.
0.562 0.000999336 0.
0.564 0.000999346 0.
0.566 0.000999356 0.
0.568 0.000999354 0.
0.57 0.000999348 0.
0.572 0.000999342 0.
0.574 0.000999311 0.
0.575999 0.000999278 0.
0.577999 0.000999252 0.
0.579999 0.000999281 0.
0.581999 0.00099931 0.
0.583999 0.000999327 0.
0.585999 0.00099932 0.
0.587999 0.000999313 0.
0.589999 0.00099939 0.
0.591999 0.000999533 0.
0.593999 0.000999676 0.
0.595999 0.000999442 0.
0.598 0.0009991 0.
0.6 0.000998759 0.
0.602 0.000999104 0.
0.604001 0.00099945 0.
0.606001 0.000999687 0.
0.608001 0.000999539 0.
0.610001 0.000999391 0.
0.612001 0.000999309 0.
0.614001 0.000999308 0.
0.616001 0.000999308 0.
0.618001 0.000999289 0.
0.620001 0.00099926 0.
0.622001 0.000999231 0.
0.624001 0.000999259 0.
0.626 0.000999295 0.
0.628 0.000999329 0.
0.63 0.000999346 0.
0.632 0.000999362 0.
0.634 0.000999367 0.
0.636 0.000999348 0.
0.638 0.000999328 0.
0.64 0.000999291 0.
0.642001 0.000999241 0.
0.644001 0.00099919 0.
0.646001 0.000999199 0.
0.648 0.000999224 0.
0.65 0.00099925 0.
0.652 0.000999282 0.
0.654 0.000999315 0.
0.656001 0.000999315 0.
0.658001 0.000999203 0.
0.660001 0.000999091 0.
0.662001 0.000998824 0.
0.664002 0.000998362 0.
0.666002 0.0009979 0.
0.668004 0.000997728 0.
0.670005 0.000997699 0.
0.672006 0.000997669 0.
0.674009 0.000996668 0.
0.676011 0.00099555 0.
0.678016 0.000994 0.
0.680036 0.000989119 0.
0.682056 0.000984262 0.
0.684089 0.000979141 0.
0.686149 0.000973434 0.
0.688209 0.00096776 0.
0.690372 0.000940651 0.
0.692592 0.00090327 0.
0.694833 0.000864524 0.
0.697632 0.000763048 0.
0.700439 0.000664141 0.
0.495705 0.00157913 0.
0.499073 0.00229391 0.
0.501941 0.00255622 0.
0.504764 0.00277251 0.
0.507133 0.00283041 0.
0.509431 0.00288386 0.
0.511664 0.00292676 0.
0.513758 0.00294157 0.
0.515853 0.00295645 0.
0.517907 0.00296812 0.
0.519939 0.00297809 0.
0.52197 0.00298809 0.
0.523978 0.0029906 0.
0.525982 0.00299209 0.
0.527987 0.00299349 0.
0.52999 0.00299417 0.
0.531993 0.00299484 0.
0.533995 0.00299552 0.
0.535996 0.00299621 0.
0.537997 0.00299691 0.
0.539998 0.00299735 0.
0.541998 0.00299759 0.
0.543999 0.00299784 0.
0.545999 0.00299786 0.
0.547999 0.00299782 0.
0.549999 0.00299778 0.
0.551999 0.00299773 0.
0.553999 0.00299767 0.
0.555998 0.00299766 0.
0.557998 0.00299779 0.
0.559999 0.00299792 0.
0.561999 0.00299801 0.
0.563999 0.00299804 0.
0.565999 0.00299807 0.
0.567999 0.00299806 0.
0.569999 0.00299804 0.
0.571999 0.00299803 0.
0.573999 0.00299793 0.
0.575998 0.00299783 0.
0.577998 0.00299776 0.
0.579998 0.00299784 0.
0.581998 0.00299793 0.
0.583998 0.00299798 0.
0.585998 0.00299796 0.
0.587998 0.00299794 0.
0.589997 0.00299817 0.
0.591997 0.0029986 0.
0.593997 0.00299903 0.
0.595998 0.00299833 0.
0.597999 0.0029973 0.
0.6 0.00299628 0.
0.602001 0.00299731 0.
0.604002 0.00299835 0.
0.606003 0.00299906 0.
0.608003 0.00299862 0.
0.610003 0.00299817 0.
0.612002 0.00299793 0.
0.614002 0.00299792 0.
0.616002 0.00299792 0.
0.618002 0.00299787 0.
0.620002 0.00299778 0.
0.622002 0.00299769 0.
0.624002 0.00299778 0.
0.626001 0.00299789 0.
0.628001 0.00299799 0.
0.630001 0.00299804 0.
0.632001 0.00299809 0.
0.634001 0.0029981 0.
0.636001 0.00299804 0.
0.638001 0.00299798 0.
0.640001 0.00299787 0.
0.642002 0.00299772 0.
0.644002 0.00299757 0.
0.646002 0.0029976 0.
0.648001 0.00299767 0.
0.650001 0.00299775 0.
0.652001 0.00299785 0.
0.654001 0.00299794 0.
0.656002 0.00299794 0.
0.658002 0.00299761 0.
0.660002 0.00299727 0.
0.662004 0.00299647 0.
0.664005 0.00299508 0.
0.666007 0.0029937 0.
0.668011 0.00299318 0.
0.670015 0.0029931 0.
0.672019 0.00299301 0.
0.674027 0.00298998 0.
0.676034 0.00298662 0.
0.678048 0.00298186 0.
0.680104 0.0029671 0.
0.682159 0.00295242 0.
0.684241 0.002937 0.
0.686367 0.0029197 0.
0.688492 0.00290251 0.
0.690899 0.00280445 0.
0.693388 0.00268586 0.
0.696104 0.00252339 0.
0.699271 0.00220799 0.
0.702556 0.00169927 0.
0.493319 0.00220602 0.
0.496972 0.0033962 0.
0.500615 0.00419922 0.
0.503808 0.00457383 0.
0.506566 0.00470237 0.
0.509057 0.00479607 0.
0.511462 0.00487702 0.
0.513609 0.00490191 0.
0.515755 0.00492694 0.
0.517845 0.00494659 0.
0.519897 0.00496329 0.
0.52195 0.00498004 0.
0.523963 0.00498432 0.
0.52597 0.0049868 0.
0.527978 0.00498915 0.
0.529983 0.00499027 0.
0.531988 0.0049914 0.
0.533992 0.00499253 0.
0.535994 0.00499369 0.
0.537996 0.00499485 0.
0.539997 0.00499559 0.
0.541997 0.00499599 0.
0.543998 0.00499639 0.
0.545998 0.00499643 0.
0.547998 0.00499636 0.
0.549998 0.0049963 0.
0.551998 0.00499621 0.
0.553998 0.00499612 0.
0.555997 0.00499611 0.
0.557997 0.00499632 0.
0.559998 0.00499654 0.
0.561998 0.00499668 0.
0.563998 0.00499673 0.
0.565998 0.00499678 0.
0.567998 0.00499677 0.
0.569998 0.00499674 0.
0.571998 0.00499671 0.
0.573998 0.00499656 0.
0.575997 0.00499639 0.
0.577997 0.00499626 0.
0.579997 0.0049964 0.
0.581997 0.00499655 0.
0.583996 0.00499663 0.
0.585996 0.0049966 0.
0.587996 0.00499657 0.
0.589996 0.00499695 0.
0.591995 0.00499766 0.
0.593995 0.00499838 0.
0.595996 0.00499721 0.
0.597998 0.0049955 0.
0.6 0.00499379 0.
0.602002 0.00499552 0.
0.604004 0.00499725 0.
0.606005 0.00499843 0.
0.608005 0.00499769 0.
0.610004 0.00499695 0.
0.612004 0.00499654 0.
0.614004 0.00499654 0.
0.616003 0.00499654 0.
0.618003 0.00499644 0.
0.620003 0.0049963 0.
0.622003 0.00499615 0.
0.624003 0.0049963 0.
0.626002 0.00499648 0.
0.628002 0.00499664 0.
0.630002 0.00499673 0.
0.632002 0.00499681 0.
0.634002 0.00499684 0.
0.636002 0.00499674 0.
0.638002 0.00499664 0.
0.640002 0.00499646 0.
0.642003 0.0049962 0.
0.644003 0.00499595 0.
0.646003 0.00499599 0.
0.648002 0.00499612 0.
0.650002 0.00499625 0.
0.652002 0.00499641 0.
0.654002 0.00499657 0.
0.656003 0.00499657 0.
0.658003 0.00499601 0.
0.660004 0.00499546 0.
0.662006 0.00499411 0.
0.664009 0.0049918 0.
0.666012 0.00498949 0.
0.668018 0.00498864 0.
0.670025 0.0049885 0.
0.672033 0.00498836 0.
0.674045 0.00498326 0.
0.676058 0.00497765 0.
0.678081 0.00496953 0.
0.680173 0.00494474 0.
0.682264 0.00492008 0.
0.684397 0.0048943 0.
0.686592 0.00486516 0.
0.688785 0.0048362 0.
0.691507 0.00464233 0.
0.694295 0.00443334 0.
0.697674 0.00406966 0.
0.701305 0.00347463 0.
0.705065 0.00232948 0.
0.490394 0.0023618 0.
0.49467 0.00404898 0.
0.49882 0.00531462 0.
0.502195 0.00583109 0.
0.505354 0.00615655 0.
0.50801 0.00635237 0.
0.510651 0.00655272 0.
0.512965 0.00664784 0.
0.515275 0.00673851 0.
0.517502 0.00680935 0.
0.519637 0.00685538 0.
0.521774 0.0069022 0.
0.523836 0.00692755 0.
0.525882 0.00694893 0.
0.527926 0.00696898 0.
0.529941 0.00697186 0.
0.531956 0.00697474 0.
0.533969 0.00697804 0.
0.535977 0.00698224 0.
0.537985 0.00698645 0.
0.53999 0.00698925 0.
0.541992 0.00699091 0.
0.543994 0.00699257 0.
0.545995 0.00699324 0.
0.547996 0.00699363 0.
0.549997 0.00699401 0.
0.551996 0.00699393 0.
0.553996 0.00699384 0.
0.555996 0.00699385 0.
0.557996 0.00699419 0.
0.559996 0.00699452 0.
0.561996 0.00699475 0.
0.563996 0.00699484 0.
0.565996 0.00699493 0.
0.567997 0.00699491 0.
0.569997 0.00699483 0.
0.571997 0.00699474 0.
0.573996 0.00699459 0.
0.575996 0.00699442 0.
0.577995 0.0069943 0.
0.579995 0.00699448 0.
0.581995 0.00699466 0.
0.583995 0.00699479 0.
0.585995 0.00699482 0.
0.587994 0.00699484 0.
0.589994 0.00699519 0.
0.591993 0.0069958 0.
0.593993 0.00699641 0.
0.595995 0.00699523 0.
0.597998 0.00699353 0.
0.6 0.00699183 0.
0.602003 0.00699351 0.
0.604005 0.00699519 0.
0.606007 0.00699637 0.
0.608007 0.00699578 0.
0.610006 0.00699519 0.
0.612006 0.00699484 0.
0.614006 0.00699477 0.
0.616005 0.00699471 0.
0.618005 0.00699456 0.
0.620005 0.00699438 0.
0.622005 0.00699419 0.
0.624004 0.00699435 0.
0.626004 0.00699455 0.
0.628003 0.00699474 0.
0.630003 0.00699483 0.
0.632003 0.00699493 0.
0.634004 0.00699495 0.
0.636004 0.00699483 0.
0.638004 0.00699471 0.
0.640004 0.00699444 0.
0.642004 0.00699404 0.
0.644005 0.00699365 0.
0.646004 0.00699361 0.
0.648004 0.00699369 0.
0.650004 0.00699376 0.
0.652005 0.00699319 0.
0.654006 0.00699263 0.
0.656008 0.00699169 0.
0.658011 0.00698943 0.
0.660015 0.00698717 0.
0.662022 0.00698314 0.
0.664033 0.00697694 0.
0.666044 0.00697076 0.
0.668062 0.00696701 0.
0.670083 0.00696438 0.
0.672104 0.00696176 0.
0.674173 0.00692963 0.
0.676245 0.00689574 0.
0.678339 0.00685799 0.
0.680526 0.00679892 0.
0.682709 0.00674103 0.
0.685028 0.00664864 0.
0.687432 0.00653737 0.
0.689922 0.00638057 0.
0.69285 0.00601541 0.
0.695911 0.00564919 0.
0.699554 0.00515189 0.
0.703817 0.00415306 0.
0.707881 0.00259494 0.
0.487394 0.00233369 0.
0.492129 0.00431078 0.
0.496355 0.00580706 0.
0.500312 0.00687224 0.
0.503761 0.00746177 0.
0.506802 0.00782934 0.
0.50967 0.00816426 0.
0.51224 0.0083611 0.
0.514733 0.0085261 0.
0.517138 0.00866529 0.
0.519361 0.00874256 0.
0.521589 0.00882117 0.
0.523705 0.0088691 0.
0.525791 0.00890987 0.
0.527875 0.00894871 0.
0.5299 0.00895336 0.
0.531925 0.00895801 0.
0.533946 0.00896347 0.
0.53596 0.00897074 0.
0.537974 0.00897802 0.
0.539983 0.0089829 0.
0.541987 0.00898582 0.
0.543991 0.00898874 0.
0.545993 0.00899005 0.
0.547994 0.00899089 0.
0.549995 0.00899173 0.
0.551995 0.00899165 0.
0.553994 0.00899156 0.
0.555994 0.0089916 0.
0.557994 0.00899205 0.
0.559995 0.0089925 0.
0.561995 0.00899281 0.
0.563995 0.00899295 0.
0.565995 0.00899309 0.
0.567995 0.00899305 0.
0.569995 0.00899291 0.
0.571995 0.00899278 0.
0.573995 0.00899262 0.
0.575994 0.00899245 0.
0.577994 0.00899233 0.
0.579993 0.00899256 0.
0.581993 0.00899278 0.
0.583993 0.00899296 0.
0.585993 0.00899303 0.
0.587992 0.00899311 0.
0.589992 0.00899342 0.
0.591991 0.00899393 0.
0.593991 0.00899443 0.
0.595993 0.00899324 0.
0.597997 0.00899155 0.
0.6 0.00898986 0.
0.602004 0.0089915 0.
0.604007 0.00899313 0.
0.606009 0.0089943 0.
0.608009 0.00899386 0.
0.610008 0.00899343 0.
0.612008 0.00899313 0.
0.614007 0.008993 0.
0.616007 0.00899288 0.
0.618007 0.00899268 0.
0.620007 0.00899245 0.
0.622006 0.00899222 0.
0.624006 0.0089924 0.
0.626005 0.00899262 0.
0.628005 0.00899283 0.
0.630005 0.00899294 0.
0.632005 0.00899305 0.
0.634005 0.00899307 0.
0.636005 0.00899293 0.
0.638005 0.00899278 0.
0.640005 0.00899242 0.
0.642006 0.00899188 0.
0.644006 0.00899134 0.
0.646006 0.00899123 0.
0.648006 0.00899125 0.
0.650006 0.00899126 0.
0.652008 0.00898997 0.
0.65401 0.00898868 0.
0.656013 0.00898679 0.
0.658019 0.00898282 0.
0.660026 0.00897886 0.
0.662038 0.00897211 0.
0.664057 0.008962 0.
0.666075 0.00895191 0.
0.668105 0.00894527 0.
0.670141 0.00894011 0.
0.672176 0.00893496 0.
0.674307 0.0088735 0.
0.67644 0.00881026 0.
0.678614 0.00874123 0.
0.680904 0.0086454 0.
0.683187 0.00855151 0.
0.685769 0.0083638 0.
0.688416 0.00815737 0.
0.691323 0.00777464 0.
0.694447 0.00721896 0.
0.697989 0.00660636 0.
0.701976 0.00578646 0.
0.706354 0.0044137 0.
0.711092 0.00250624 0.
0.484102 0.00220245 0.
0.48919 0.00428277 0.
0.493813 0.00606783 0.
0.498037 0.00756448 0.
0.502002 0.00859955 0.
0.505557 0.00923447 0.
0.508642 0.00968541 0.
0.511492 0.01 0.
0.514145 0.0102367 0.
0.516733 0.0104657 0.
0.519039 0.0105776 0.
0.521353 0.0106933 0.
0.523535 0.0107744 0.
0.525666 0.0108456 0.
0.527796 0.0109159 0.
0.529837 0.0109239 0.
0.531877 0.010932 0.
0.533912 0.0109412 0.
0.535933 0.0109529 0.
0.537955 0.0109646 0.
0.539969 0.0109727 0.
0.541977 0.0109778 0.
0.543984 0.010983 0.
0.545988 0.0109855 0.
0.54799 0.0109872 0.
0.549992 0.010989 0.
0.551992 0.0109891 0.
0.553992 0.0109892 0.
0.555993 0.0109894 0.
0.557993 0.01099 0.
0.559993 0.0109906 0.
0.561994 0.0109911 0.
0.563994 0.0109912 0.
0.565994 0.0109914 0.
0.567994 0.0109914 0.
0.569994 0.0109913 0.
0.571994 0.0109911 0.
0.573994 0.010991 0.
0.575993 0.0109908 0.
0.577992 0.0109907 0.
0.579992 0.010991 0.
0.581992 0.0109912 0.
0.583992 0.0109914 0.
0.585991 0.0109915 0.
0.587991 0.0109916 0.
0.589991 0.0109919 0.
0.59199 0.0109922 0.
0.59399 0.0109926 0.
0.595993 0.0109916 0.
0.597997 0.0109902 0.
0.6 0.0109888 0.
0.602004 0.0109901 0.
0.604008 0.0109915 0.
0.606011 0.0109924 0.
0.60801 0.0109921 0.
0.61001 0.0109919 0.
0.612009 0.0109917 0.
0.614009 0.0109915 0.
0.616008 0.0109914 0.
0.618008 0.0109911 0.
0.620008 0.0109909 0.
0.622008 0.0109907 0.
0.624007 0.0109908 0.
0.626006 0.010991 0.
0.628006 0.0109912 0.
0.630006 0.0109913 0.
0.632006 0.0109913 0.
0.634006 0.0109913 0.
0.636006 0.0109912 0.
0.638007 0.010991 0.
0.640007 0.0109905 0.
0.642008 0.0109897 0.
0.644008 0.0109889 0.
0.646009 0.0109885 0.
0.648009 0.0109882 0.
0.65001 0.0109879 0.
0.652013 0.0109854 0.
0.654016 0.0109829 0.
0.656022 0.0109793 0.
0.658034 0.0109722 0.
0.660045 0.010965 0.
0.662065 0.0109545 0.
0.664093 0.01094 0.
0.666121 0.0109255 0.
0.668172 0.0109098 0.
0.670232 0.010894 0.
0.672292 0.010878 0.
0.674487 0.0107772 0.
0.67668 0.010677 0.
0.678944 0.0105668 0.
0.681336 0.010429 0.
0.683736 0.0102917 0.
0.686566 0.00999992 0.
0.689477 0.00968959 0.
0.692789 0.00904087 0.
0.696244 0.00828018 0.
0.700134 0.0074419 0.
0.704664 0.0060542 0.
0.709301 0.00444456 0.
0.714362 0.00223995 0.
0.480707 0.00201641 0.
0.486404 0.00424208 0.
0.491301 0.00617056 0.
0.495869 0.00801982 0.
0.500568 0.00954612 0.
0.504348 0.0103361 0.
0.507615 0.0109006 0.
0.510719 0.0113995 0.
0.51349 0.0117774 0.
0.516225 0.012159 0.
0.518639 0.0123322 0.
0.521047 0.0125011 0.
0.523315 0.012633 0.
0.5255 0.0127501 0.
0.527686 0.0128681 0.
0.529749 0.0128825 0.
0.531811 0.012896 0.
0.533865 0.0129107 0.
0.535896 0.0129283 0.
0.537927 0.0129459 0.
0.539949 0.0129585 0.
0.541962 0.0129669 0.
0.543975 0.0129752 0.
0.545981 0.0129795 0.
0.547984 0.0129826 0.
0.549988 0.0129857 0.
0.551989 0.0129863 0.
0.55399 0.0129868 0.
0.555991 0.0129874 0.
0.557991 0.0129882 0.
0.559992 0.012989 0.
0.561992 0.0129895 0.
0.563993 0.0129897 0.
0.565993 0.0129899 0.
0.567993 0.0129899 0.
0.569993 0.0129899 0.
0.571994 0.0129898 0.
0.573993 0.0129897 0.
0.575992 0.0129896 0.
0.577992 0.0129895 0.
0.579991 0.0129897 0.
0.581991 0.0129899 0.
0.583991 0.0129901 0.
0.585991 0.0129903 0.
0.58799 0.0129904 0.
0.58999 0.0129905 0.
0.59199 0.0129907 0.
0.593989 0.0129909 0.
0.595992 0.0129903 0.
0.597996 0.0129895 0.
0.6 0.0129887 0.
0.602004 0.0129894 0.
0.604008 0.0129902 0.
0.606011 0.0129907 0.
0.608011 0.0129906 0.
0.61001 0.0129905 0.
0.61201 0.0129904 0.
0.614009 0.0129903 0.
0.616009 0.0129901 0.
0.618009 0.01299 0.
0.620009 0.0129897 0.
0.622008 0.0129895 0.
0.624008 0.0129896 0.
0.626007 0.0129897 0.
0.628006 0.0129898 0.
0.630007 0.0129898 0.
0.632007 0.0129898 0.
0.634007 0.0129898 0.
0.636008 0.0129895 0.
0.638008 0.0129893 0.
0.640009 0.0129886 0.
0.64201 0.0129875 0.
0.644011 0.0129865 0.
0.646012 0.0129855 0.
0.648014 0.0129846 0.
0.650015 0.0129837 0.
0.652021 0.0129795 0.
0.654027 0.0129752 0.
0.656035 0.0129692 0.
0.658055 0.0129572 0.
0.660074 0.0129453 0.
0.662103 0.01293 0.
0.664144 0.0129104 0.
0.666184 0.0128909 0.
0.668266 0.0128583 0.
0.670361 0.0128222 0.
0.672464 0.0127829 0.
0.674727 0.0126297 0.
0.676984 0.0124789 0.
0.679373 0.0123006 0.
0.681897 0.0120905 0.
0.684491 0.011832 0.
0.687429 0.011336 0.
0.690529 0.0108212 0.
0.693988 0.0100884 0.
0.697804 0.00920657 0.
0.702257 0.00797953 0.
0.707028 0.00625542 0.
0.712008 0.00443933 0.
0.71772 0.00201397 0.
0.477455 0.00188903 0.
0.483542 0.00421354 0.
0.488893 0.00620424 0.
0.493759 0.00828977 0.
0.498863 0.0101186 0.
0.502833 0.0111764 0.
0.506469 0.0120188 0.
0.509823 0.0127124 0.
0.512798 0.0132765 0.
0.515664 0.0138093 0.
0.518219 0.0140776 0.
0.520724 0.0143012 0.
0.523089 0.0144864 0.
0.525329 0.0146505 0.
0.527572 0.0148171 0.
0.529661 0.0148409 0.
0.531745 0.0148597 0.
0.533818 0.01488 0.
0.535858 0.0149035 0.
0.537899 0.0149271 0.
0.539928 0.0149443 0.
0.541947 0.0149559 0.
0.543965 0.0149674 0.
0.545973 0.0149735 0.
0.547979 0.014978 0.
0.549984 0.0149825 0.
0.551986 0.0149834 0.
0.553987 0.0149844 0.
0.555989 0.0149853 0.
0.55799 0.0149863 0.
0.559991 0.0149873 0.
0.561991 0.0149879 0.
0.563992 0.0149882 0.
0.565992 0.0149884 0.
0.567992 0.0149885 0.
0.569993 0.0149885 0.
0.571993 0.0149885 0.
0.573992 0.0149884 0.
0.575991 0.0149884 0.
0.577991 0.0149883 0.
0.579991 0.0149885 0.
0.58199 0.0149887 0.
0.58399 0.0149888 0.
0.58599 0.014989 0.
0.58799 0.0149891 0.
0.58999 0.0149892 0.
0.591989 0.0149892 0.
0.593989 0.0149892 0.
0.595992 0.014989 0.
0.597996 0.0149888 0.
0.6 0.0149886 0.
0.602004 0.0149887 0.
0.604008 0.0149889 0.
0.606011 0.014989 0.
0.608011 0.0149891 0.
0.610011 0.0149892 0.
0.61201 0.0149892 0.
0.61401 0.014989 0.
0.61601 0.0149889 0.
0.61801 0.0149888 0.
0.620009 0.0149885 0.
0.622009 0.0149883 0.
0.624009 0.0149883 0.
0.626008 0.0149884 0.
0.628007 0.0149884 0.
0.630008 0.0149884 0.
0.632008 0.0149883 0.
0.634008 0.0149882 0.
0.636009 0.0149879 0.
0.638009 0.0149876 0.
0.64001 0.0149867 0.
0.642012 0.0149853 0.
0.644013 0.014984 0.
0.646015 0.0149825 0.
0.648018 0.014981 0.
0.650021 0.0149795 0.
0.652029 0.0149735 0.
0.654037 0.0149675 0.
0.656049 0.014959 0.
0.658076 0.0149423 0.
0.660103 0.0149256 0.
0.662142 0.0149054 0.
0.664194 0.0148808 0.
0.666247 0.0148564 0.
0.668361 0.0148055 0.
0.670494 0.0147486 0.
0.672643 0.0146838 0.
0.674974 0.0144771 0.
0.677298 0.0142745 0.
0.679835 0.0140185 0.
0.682497 0.0137332 0.
0.685299 0.0132966 0.
0.688328 0.0126017 0.
0.691679 0.0118475 0.
0.695319 0.0109609 0.
0.699314 0.00997588 0.
0.704358 0.00829697 0.
0.709454 0.0063254 0.
0.714899 0.00419639 0.
0.72128 0.00192062 0.
0.474109 0.0017661 0.
0.480571 0.00409314 0.
0.486329 0.00615577 0.
0.491394 0.00838258 0.
0.496739 0.0103346 0.
0.501212 0.011878 0.
0.505244 0.0130445 0.
0.508812 0.0139203 0.
0.512043 0.0146706 0.
0.514945 0.0152778 0.
0.517627 0.0156662 0.
0.520199 0.0159532 0.
0.522676 0.0162137 0.
0.524971 0.0164188 0.
0.527277 0.0166285 0.
0.529436 0.0167005 0.
0.53158 0.0167601 0.
0.533707 0.0168151 0.
0.535766 0.0168459 0.
0.537825 0.0168767 0.
0.539871 0.0169024 0.
0.541903 0.0169236 0.
0.543936 0.0169448 0.
0.545952 0.0169564 0.
0.547962 0.0169649 0.
0.549973 0.0169735 0.
0.551977 0.0169759 0.
0.55398 0.0169782 0.
0.555983 0.0169804 0.
0.557985 0.0169821 0.
0.559987 0.0169838 0.
0.561989 0.016985 0.
0.56399 0.0169855 0.
0.56599 0.016986 0.
0.567991 0.0169863 0.
0.569991 0.0169864 0.
0.571992 0.0169865 0.
0.573991 0.0169865 0.
0.575991 0.0169864 0.
0.57799 0.0169864 0.
0.57999 0.0169866 0.
0.58199 0.0169868 0.
0.58399 0.016987 0.
0.58599 0.0169871 0.
0.58799 0.0169871 0.
0.58999 0.016987 0.
0.59199 0.0169868 0.
0.59399 0.0169865 0.
0.595993 0.0169863 0.
0.597997 0.0169862 0.
0.6 0.016986 0.
0.602004 0.0169861 0.
0.604008 0.0169862 0.
0.606011 0.0169863 0.
0.60801 0.0169866 0.
0.61001 0.016987 0.
0.61201 0.0169872 0.
0.61401 0.0169871 0.
0.61601 0.0169871 0.
0.61801 0.0169869 0.
0.62001 0.0169867 0.
0.62201 0.0169864 0.
0.62401 0.0169864 0.
0.626009 0.0169864 0.
0.628008 0.0169863 0.
0.630009 0.0169861 0.
0.632009 0.0169859 0.
0.63401 0.0169855 0.
0.636011 0.0169848 0.
0.638012 0.0169842 0.
0.640015 0.0169825 0.
0.642017 0.0169802 0.
0.64402 0.0169779 0.
0.646025 0.0169746 0.
0.64803 0.016971 0.
0.650036 0.0169673 0.
0.652052 0.0169557 0.
0.654068 0.0169442 0.
0.65609 0.0169287 0.
0.658134 0.0169012 0.
0.660178 0.0168738 0.
0.66224 0.0168431 0.
0.664319 0.0168085 0.
0.666397 0.0167741 0.
0.668584 0.0166693 0.
0.670791 0.0165551 0.
0.673025 0.0164308 0.
0.675408 0.016185 0.
0.677778 0.0159457 0.
0.680456 0.0155926 0.
0.683201 0.0152391 0.
0.686167 0.0146074 0.
0.689278 0.0137691 0.
0.692894 0.0128061 0.
0.69688 0.0116751 0.
0.701153 0.0104351 0.
0.706398 0.00847955 0.
0.711839 0.00632975 0.
0.717696 0.00404874 0.
0.724704 0.00179726 0.
0.470601 0.00164052 0.
0.477299 0.0039624 0.
0.483719 0.00603456 0.
0.489057 0.00834716 0.
0.494615 0.0104628 0.
0.49949 0.0124254 0.
0.503781 0.0138635 0.
0.507611 0.0149329 0.
0.511004 0.0158206 0.
0.51399 0.0165407 0.
0.516897 0.0171422 0.
0.519567 0.0175308 0.
0.522202 0.0179082 0.
0.524572 0.0181623 0.
0.526955 0.0184227 0.
0.529194 0.0185482 0.
0.531403 0.0186527 0.
0.533591 0.0187484 0.
0.53567 0.0187868 0.
0.537749 0.0188253 0.
0.539812 0.0188597 0.
0.541859 0.0188906 0.
0.543906 0.0189218 0.
0.54593 0.0189391 0.
0.547946 0.0189517 0.
0.549962 0.0189644 0.
0.551968 0.0189683 0.
0.553973 0.018972 0.
0.555978 0.0189755 0.
0.557981 0.0189779 0.
0.559984 0.0189804 0.
0.561986 0.0189821 0.
0.563988 0.0189829 0.
0.565989 0.0189837 0.
0.56799 0.0189841 0.
0.56999 0.0189843 0.
0.571991 0.0189845 0.
0.57399 0.0189845 0.
0.57599 0.0189845 0.
0.577989 0.0189845 0.
0.579989 0.0189847 0.
0.58199 0.018985 0.
0.58399 0.0189851 0.
0.58599 0.0189851 0.
0.58799 0.0189851 0.
0.58999 0.0189848 0.
0.59199 0.0189844 0.
0.59399 0.0189839 0.
0.595993 0.0189837 0.
0.597997 0.0189836 0.
0.6 0.0189835 0.
0.602004 0.0189835 0.
0.604007 0.0189835 0.
0.60601 0.0189836 0.
0.60801 0.0189842 0.
0.61001 0.0189848 0.
0.61201 0.0189852 0.
0.61401 0.0189852 0.
0.61601 0.0189853 0.
0.618011 0.0189851 0.
0.620011 0.0189848 0.
0.622011 0.0189845 0.
0.62401 0.0189844 0.
0.62601 0.0189844 0.
0.62801 0.0189842 0.
0.63001 0.0189839 0.
0.632011 0.0189835 0.
0.634012 0.0189828 0.
0.636014 0.0189818 0.
0.638016 0.0189807 0.
0.640019 0.0189784 0.
0.642023 0.0189751 0.
0.644028 0.0189718 0.
0.646035 0.0189665 0.
0.648043 0.0189608 0.
0.650051 0.0189549 0.
0.652075 0.0189377 0.
0.654099 0.0189206 0.
0.656132 0.0188978 0.
0.658194 0.0188592 0.
0.660255 0.0188207 0.
0.662341 0.0187791 0.
0.664449 0.0187336 0.
0.666556 0.0186884 0.
0.668828 0.0185186 0.
0.671117 0.0183404 0.
0.673448 0.0181521 0.
0.675901 0.0178556 0.
0.678376 0.0175469 0.
0.681199 0.0170564 0.
0.68408 0.0165451 0.
0.687203 0.0156809 0.
0.690403 0.0147724 0.
0.694174 0.0136921 0.
0.698603 0.0122459 0.
0.703256 0.0106281 0.
0.708754 0.0085373 0.
0.714428 0.00609673 0.
0.721069 0.00403137 0.
0.728222 0.00161744 0.
0.466483 0.00142342 0.
0.473555 0.00384225 0.
0.480937 0.00584426 0.
0.486597 0.00824229 0.
0.492361 0.0105092 0.
0.497451 0.0126465 0.
0.502138 0.0144559 0.
0.506209 0.015743 0.
0.509765 0.0168364 0.
0.512975 0.0177409 0.
0.516115 0.0185578 0.
0.518919 0.0190732 0.
0.521695 0.0195745 0.
0.524173 0.0198801 0.
0.526622 0.0201776 0.
0.528939 0.0203606 0.
0.531206 0.0205171 0.
0.533455 0.020666 0.
0.535556 0.0207128 0.
0.537658 0.02076 0.
0.539742 0.0208044 0.
0.541803 0.0208471 0.
0.543864 0.0208902 0.
0.545898 0.0209149 0.
0.547922 0.0209332 0.
0.549946 0.0209514 0.
0.551954 0.0209576 0.
0.553963 0.0209636 0.
0.55597 0.0209691 0.
0.557975 0.0209725 0.
0.55998 0.020976 0.
0.561983 0.0209785 0.
0.563985 0.0209797 0.
0.565987 0.0209809 0.
0.567988 0.0209817 0.
0.569989 0.0209821 0.
0.57199 0.0209825 0.
0.573989 0.0209826 0.
0.575989 0.0209827 0.
0.577989 0.0209827 0.
0.579989 0.020983 0.
0.581989 0.0209832 0.
0.58399 0.0209833 0.
0.58599 0.0209833 0.
0.58799 0.0209832 0.
0.58999 0.0209829 0.
0.591991 0.0209822 0.
0.593991 0.0209815 0.
0.595994 0.0209814 0.
0.597997 0.0209813 0.
0.6 0.0209813 0.
0.602004 0.0209812 0.
0.604007 0.0209811 0.
0.606009 0.0209812 0.
0.608009 0.020982 0.
0.61001 0.0209828 0.
0.61201 0.0209833 0.
0.61401 0.0209834 0.
0.616011 0.0209835 0.
0.618011 0.0209833 0.
0.620011 0.020983 0.
0.622012 0.0209827 0.
0.624011 0.0209826 0.
0.626011 0.0209824 0.
0.628011 0.0209822 0.
0.630012 0.0209815 0.
0.632013 0.0209807 0.
0.634015 0.0209797 0.
0.636017 0.0209779 0.
0.63802 0.0209761 0.
0.640025 0.0209728 0.
0.642031 0.0209682 0.
0.644038 0.0209636 0.
0.646049 0.0209556 0.
0.648061 0.0209467 0.
0.650073 0.0209375 0.
0.652108 0.0209125 0.
0.654142 0.0208876 0.
0.656188 0.0208556 0.
0.658268 0.0208046 0.
0.660347 0.020754 0.
0.662462 0.0206963 0.
0.664603 0.0206339 0.
0.666743 0.0205719 0.
0.669091 0.0203315 0.
0.671449 0.0200906 0.
0.673868 0.0198443 0.
0.676391 0.0195065 0.
0.679012 0.019106 0.
0.681958 0.0184797 0.
0.685052 0.0177306 0.
0.688319 0.0166693 0.
0.691791 0.015573 0.
0.695661 0.0143892 0.
0.700385 0.0127026 0.
0.705352 0.0107101 0.
0.711113 0.00849321 0.
0.716972 0.00584504 0.
0.724748 0.00387583 0.
0.732757 0.00136488 0.
0.461233 0.00115439 0.
0.469673 0.00364207 0.
0.478098 0.00564957 0.
0.484115 0.00809288 0.
0.49015 0.0105022 0.
0.495473 0.0127829 0.
0.500543 0.0149323 0.
0.504808 0.0164592 0.
0.508547 0.0177498 0.
0.512021 0.0188782 0.
0.515329 0.0198418 0.
0.518278 0.0204692 0.
0.521131 0.021037 0.
0.523722 0.0214373 0.
0.526249 0.0218203 0.
0.528654 0.022099 0.
0.530973 0.0223307 0.
0.533284 0.022559 0.
0.535416 0.0226175 0.
0.537549 0.0226762 0.
0.539658 0.0227335 0.
0.541733 0.0227909 0.
0.54381 0.0228487 0.
0.545855 0.0228831 0.
0.54789 0.0229086 0.
0.549924 0.0229341 0.
0.551937 0.0229436 0.
0.553949 0.0229527 0.
0.55596 0.022961 0.
0.557967 0.0229657 0.
0.559974 0.0229705 0.
0.561978 0.022974 0.
0.563981 0.0229759 0.
0.565984 0.0229778 0.
0.567986 0.022979 0.
0.569987 0.0229799 0.
0.571988 0.0229807 0.
0.573988 0.0229809 0.
0.575988 0.022981 0.
0.577988 0.0229811 0.
0.579989 0.0229813 0.
0.581989 0.0229815 0.
0.58399 0.0229816 0.
0.58599 0.0229816 0.
0.587991 0.0229815 0.
0.589991 0.022981 0.
0.591992 0.0229803 0.
0.593992 0.0229795 0.
0.595995 0.0229794 0.
0.597998 0.0229794 0.
0.6 0.0229795 0.
0.602003 0.0229793 0.
0.604006 0.0229791 0.
0.606008 0.0229792 0.
0.608008 0.0229801 0.
0.610009 0.0229811 0.
0.612009 0.0229816 0.
0.61401 0.0229817 0.
0.61601 0.0229818 0.
0.618011 0.0229817 0.
0.620012 0.0229814 0.
0.622012 0.0229811 0.
0.624012 0.0229808 0.
0.626012 0.0229805 0.
0.628012 0.0229801 0.
0.630014 0.0229789 0.
0.632015 0.0229777 0.
0.634018 0.0229759 0.
0.636022 0.0229732 0.
0.638026 0.0229704 0.
0.640033 0.0229657 0.
0.642042 0.0229594 0.
0.644051 0.0229531 0.
0.646067 0.0229414 0.
0.648084 0.0229283 0.
0.650102 0.0229145 0.
0.65215 0.022879 0.
0.654198 0.0228437 0.
0.656261 0.0227998 0.
0.65836 0.0227344 0.
0.660458 0.0226693 0.
0.662612 0.0225847 0.
0.664798 0.0224908 0.
0.666993 0.0223886 0.
0.669392 0.0220633 0.
0.671792 0.021743 0.
0.674317 0.0214109 0.
0.67692 0.0210126 0.
0.679677 0.0204908 0.
0.68265 0.0198191 0.
0.685968 0.0188334 0.
0.689381 0.0176077 0.
0.693147 0.0163062 0.
0.697366 0.0148176 0.
0.702263 0.0130186 0.
0.707464 0.0107278 0.
0.713512 0.00832821 0.
0.719728 0.00570692 0.
0.728579 0.00368682 0.
0.738849 0.00101819 0.
0.454319 0.000884673 0.
0.465652 0.00348882 0.
0.475111 0.00552629 0.
0.481762 0.00791822 0.
0.488091 0.0104865 0.
0.493555 0.0128712 0.
0.498752 0.0151827 0.
0.503225 0.0169368 0.
0.507325 0.0185749 0.
0.511029 0.0198806 0.
0.514354 0.0208964 0.
0.517522 0.021748 0.
0.520495 0.0224379 0.
0.523245 0.0229735 0.
0.525854 0.0234453 0.
0.528361 0.0238271 0.
0.530732 0.0241351 0.
0.533104 0.024446 0.
0.535273 0.0245214 0.
0.537437 0.0245918 0.
0.539573 0.024662 0.
0.541663 0.0247341 0.
0.543754 0.0248068 0.
0.545812 0.0248512 0.
0.547858 0.0248839 0.
0.549903 0.0249167 0.
0.55192 0.0249296 0.
0.553936 0.0249418 0.
0.55595 0.0249529 0.
0.557959 0.0249589 0.
0.559968 0.024965 0.
0.561974 0.0249696 0.
0.563978 0.0249721 0.
0.565982 0.0249747 0.
0.567984 0.0249764 0.
0.569986 0.0249776 0.
0.571987 0.0249788 0.
0.573987 0.0249792 0.
0.575987 0.0249794 0.
0.577988 0.0249796 0.
0.579988 0.0249797 0.
0.581989 0.0249799 0.
0.58399 0.0249799 0.
0.585991 0.0249798 0.
0.587991 0.0249797 0.
0.589992 0.0249792 0.
0.591993 0.0249783 0.
0.593994 0.0249775 0.
0.595996 0.0249774 0.
0.597998 0.0249775 0.
0.6 0.0249777 0.
0.602003 0.0249774 0.
0.604005 0.0249771 0.
0.606006 0.0249771 0.
0.608007 0.0249782 0.
0.610008 0.0249793 0.
0.612009 0.0249799 0.
0.61401 0.02498 0.
0.61601 0.0249801 0.
0.618011 0.02498 0.
0.620012 0.0249797 0.
0.622013 0.0249795 0.
0.624013 0.0249791 0.
0.626013 0.0249786 0.
0.628014 0.0249781 0.
0.630016 0.0249764 0.
0.632018 0.0249746 0.
0.634021 0.0249722 0.
0.636026 0.0249684 0.
0.638032 0.0249646 0.
0.640041 0.0249585 0.
0.642053 0.0249506 0.
0.644065 0.0249427 0.
0.646085 0.0249272 0.
0.648107 0.0249098 0.
0.650132 0.0248913 0.
0.652193 0.0248453 0.
0.654255 0.0247995 0.
0.656334 0.0247436 0.
0.658453 0.0246636 0.
0.660571 0.0245841 0.
0.662767 0.0244698 0.
0.664998 0.0243438 0.
0.667251 0.0241949 0.
0.669699 0.023784 0.
0.672143 0.0233834 0.
0.6748 0.0229585 0.
0.677508 0.0224825 0.
0.680476 0.0217391 0.
0.683541 0.0209182 0.
0.686943 0.0197878 0.
0.690553 0.0184408 0.
0.694484 0.0169793 0.
0.699124 0.0151152 0.
0.704166 0.0131734 0.
0.709665 0.0106815 0.
0.715891 0.00806923 0.
0.722643 0.00562527 0.
0.732585 0.00357337 0.
0.747811 0.000807015 0.
0.444384 0.000839026 0.
0.46178 0.00327106 0.
0.472144 0.00542619 0.
0.47944 0.00775657 0.
0.48592 0.0104125 0.
0.49155 0.0128974 0.
0.496882 0.0152892 0.
0.501592 0.017289 0.
0.506103 0.0193017 0.
0.509816 0.0206896 0.
0.513318 0.0218728 0.
0.516723 0.0229882 0.
0.519806 0.0237891 0.
0.522728 0.0244672 0.
0.525396 0.0250092 0.
0.52798 0.025484 0.
0.530382 0.0258425 0.
0.532799 0.0262074 0.
0.535032 0.0263343 0.
0.537243 0.0264443 0.
0.539423 0.0265486 0.
0.541536 0.0266353 0.
0.543651 0.0267227 0.
0.545731 0.0267826 0.
0.547794 0.02683 0.
0.549857 0.0268779 0.
0.551883 0.0268984 0.
0.553907 0.0269178 0.
0.555929 0.0269351 0.
0.557942 0.026944 0.
0.559955 0.026953 0.
0.561964 0.0269599 0.
0.56397 0.0269642 0.
0.565976 0.0269685 0.
0.56798 0.0269713 0.
0.569982 0.0269733 0.
0.571985 0.0269754 0.
0.573986 0.026976 0.
0.575986 0.0269764 0.
0.577987 0.0269769 0.
0.579988 0.0269771 0.
0.581989 0.0269773 0.
0.58399 0.0269775 0.
0.585991 0.0269773 0.
0.587992 0.0269772 0.
0.589993 0.0269767 0.
0.591994 0.0269759 0.
0.593995 0.0269751 0.
0.595996 0.026975 0.
0.597998 0.026975 0.
0.6 0.026975 0.
0.602002 0.0269749 0.
0.604004 0.0269748 0.
0.606005 0.0269749 0.
0.608006 0.0269758 0.
0.610007 0.0269767 0.
0.612008 0.0269773 0.
0.614009 0.0269775 0.
0.61601 0.0269776 0.
0.618012 0.0269774 0.
0.620013 0.026977 0.
0.622014 0.0269766 0.
0.624015 0.0269758 0.
0.626016 0.0269751 0.
0.628017 0.0269741 0.
0.63002 0.0269712 0.
0.632023 0.0269683 0.
0.634028 0.0269643 0.
0.636036 0.0269582 0.
0.638045 0.0269521 0.
0.640058 0.0269429 0.
0.642076 0.0269313 0.
0.644093 0.0269197 0.
0.646124 0.0268962 0.
0.648156 0.02687 0.
0.650193 0.0268415 0.
0.652276 0.0267763 0.
0.654359 0.0267119 0.
0.656467 0.026637 0.
0.65862 0.0265389 0.
0.660769 0.0264422 0.
0.663016 0.0262803 0.
0.665294 0.026106 0.
0.667614 0.0258864 0.
0.670092 0.0254196 0.
0.672558 0.024973 0.
0.675337 0.0244672 0.
0.678159 0.0239018 0.
0.681332 0.0229153 0.
0.684581 0.021892 0.
0.688072 0.0205782 0.
0.691801 0.0191494 0.
0.696045 0.0174114 0.
0.700873 0.0153712 0.
0.706001 0.0132621 0.
0.711774 0.0106179 0.
0.718235 0.00787014 0.
0.725591 0.00546445 0.
0.736175 0.00332144 0.
0.759832 0.00102481 0.
0.432569 0.00123113 0.
0.458403 0.00297202 0.
0.469086 0.00526911 0.
0.477087 0.00762253 0.
0.483769 0.0103124 0.
0.489567 0.0128827 0.
0.495036 0.0153625 0.
0.499987 0.0175756 0.
0.504755 0.0198654 0.
0.508475 0.021358 0.
0.512249 0.0227678 0.
0.51584 0.0241001 0.
0.519019 0.0250222 0.
0.522049 0.0258144 0.
0.524763 0.0264389 0.
0.527478 0.0270693 0.
0.529954 0.0274954 0.
0.532442 0.0279222 0.
0.534759 0.0281186 0.
0.537026 0.0282795 0.
0.539261 0.0284291 0.
0.541401 0.0285315 0.
0.543543 0.0286348 0.
0.545645 0.0287112 0.
0.547728 0.0287743 0.
0.549811 0.028838 0.
0.551846 0.0288667 0.
0.553878 0.0288932 0.
0.555907 0.0289171 0.
0.557924 0.0289289 0.
0.559941 0.0289408 0.
0.561955 0.0289502 0.
0.563963 0.0289562 0.
0.565971 0.0289622 0.
0.567976 0.0289661 0.
0.569979 0.028969 0.
0.571982 0.0289719 0.
0.573984 0.0289729 0.
0.575985 0.0289735 0.
0.577986 0.0289741 0.
0.579987 0.0289745 0.
0.581989 0.0289748 0.
0.58399 0.028975 0.
0.585991 0.0289748 0.
0.587992 0.0289746 0.
0.589993 0.0289741 0.
0.591994 0.0289735 0.
0.593996 0.0289728 0.
0.595997 0.0289725 0.
0.597999 0.0289724 0.
0.6 0.0289722 0.
0.602002 0.0289723 0.
0.604003 0.0289725 0.
0.606004 0.0289727 0.
0.608006 0.0289735 0.
0.610007 0.0289742 0.
0.612008 0.0289747 0.
0.614009 0.0289749 0.
0.61601 0.0289751 0.
0.618012 0.0289748 0.
0.620013 0.0289742 0.
0.622015 0.0289736 0.
0.624017 0.0289726 0.
0.626018 0.0289715 0.
0.62802 0.02897 0.
0.630024 0.0289659 0.
0.632029 0.0289619 0.
0.634036 0.0289563 0.
0.636047 0.0289479 0.
0.638058 0.0289395 0.
0.640076 0.0289271 0.
0.642099 0.0289117 0.
0.644123 0.0288964 0.
0.646163 0.0288645 0.
0.648207 0.0288291 0.
0.650256 0.0287898 0.
0.652363 0.0287043 0.
0.654469 0.0286199 0.
0.65661 0.0285237 0.
0.658802 0.0284046 0.
0.660989 0.0282871 0.
0.6633 0.0280641 0.
0.665634 0.0278305 0.
0.668045 0.0275174 0.
0.670595 0.0269732 0.
0.67318 0.0264368 0.
0.67603 0.0258218 0.
0.678959 0.025122 0.
0.682237 0.0239956 0.
0.685696 0.0227597 0.
0.689261 0.0213005 0.
0.69313 0.019745 0.
0.697684 0.0176993 0.
0.702728 0.0155538 0.
0.707965 0.0132136 0.
0.713925 0.0104641 0.
0.720603 0.00771911 0.
0.72854 0.00534102 0.
0.739485 0.00302046 0.
0.770213 0.0016162 0.
0.425044 0.0016819 0.
0.455182 0.00273019 0.
0.465951 0.00519571 0.
0.474667 0.00750576 0.
0.481604 0.0101773 0.
0.487611 0.0128398 0.
0.493193 0.0153977 0.
0.49831 0.0177535 0.
0.503044 0.0200822 0.
0.507079 0.0219154 0.
0.511167 0.023583 0.
0.514809 0.0249986 0.
0.518079 0.0260907 0.
0.52124 0.0270587 0.
0.524107 0.0278288 0.
0.526937 0.0286103 0.
0.529518 0.0291359 0.
0.532079 0.0296205 0.
0.534487 0.0298864 0.
0.536805 0.0300964 0.
0.539095 0.0302972 0.
0.541259 0.030414 0.
0.543426 0.0305323 0.
0.545552 0.0306261 0.
0.547653 0.0307067 0.
0.549754 0.0307886 0.
0.5518 0.0308273 0.
0.553841 0.0308626 0.
0.55588 0.0308945 0.
0.557902 0.0309099 0.
0.559924 0.0309253 0.
0.561942 0.0309377 0.
0.563953 0.0309459 0.
0.565963 0.0309542 0.
0.56797 0.0309597 0.
0.569975 0.0309637 0.
0.571979 0.0309678 0.
0.573981 0.0309692 0.
0.575983 0.0309702 0.
0.577985 0.0309712 0.
0.579986 0.0309717 0.
0.581988 0.0309722 0.
0.58399 0.0309725 0.
0.585991 0.0309723 0.
0.587992 0.0309721 0.
0.589994 0.0309717 0.
0.591995 0.0309712 0.
0.593996 0.0309706 0.
0.595998 0.0309704 0.
0.597999 0.0309702 0.
0.6 0.03097 0.
0.602002 0.0309702 0.
0.604003 0.0309704 0.
0.606004 0.0309707 0.
0.608005 0.0309712 0.
0.610006 0.0309718 0.
0.612008 0.0309722 0.
0.614009 0.0309723 0.
0.616011 0.0309724 0.
0.618013 0.0309719 0.
0.620015 0.0309711 0.
0.622017 0.0309703 0.
0.624019 0.0309687 0.
0.626021 0.0309671 0.
0.628024 0.0309649 0.
0.63003 0.0309594 0.
0.632036 0.0309539 0.
0.634045 0.0309463 0.
0.63606 0.0309347 0.
0.638075 0.0309231 0.
0.640099 0.0309069 0.
0.642128 0.0308872 0.
0.644158 0.0308676 0.
0.64621 0.0308251 0.
0.648266 0.0307783 0.
0.65033 0.0307256 0.
0.652459 0.030619 0.
0.654587 0.0305139 0.
0.656761 0.0303939 0.
0.658989 0.0302533 0.
0.661213 0.0301175 0.
0.663586 0.0298328 0.
0.665974 0.0295401 0.
0.668483 0.0291288 0.
0.671107 0.028509 0.
0.673838 0.0278586 0.
0.676785 0.0271011 0.
0.679913 0.0261343 0.
0.683195 0.024935 0.
0.686822 0.0235537 0.
0.690589 0.0218837 0.
0.694545 0.0202195 0.
0.699357 0.0178877 0.
0.704571 0.015659 0.
0.710023 0.0130883 0.
0.716069 0.0102509 0.
0.722998 0.00758809 0.
0.731678 0.00534242 0.
0.742606 0.00272102 0.
0.773619 0.00203156 0.
0.421646 0.00196649 0.
0.451812 0.00256761 0.
0.462733 0.0051997 0.
0.472238 0.0073735 0.
0.479382 0.00999435 0.
0.485649 0.012764 0.
0.491322 0.0153755 0.
0.496591 0.0178657 0.
0.501388 0.0202467 0.
0.505696 0.0224146 0.
0.509943 0.0242727 0.
0.51365 0.0257343 0.
0.517156 0.0271199 0.
0.520429 0.0282399 0.
0.523487 0.0291749 0.
0.526397 0.0300557 0.
0.529065 0.0306602 0.
0.531681 0.0311879 0.
0.534177 0.0315496 0.
0.53655 0.0318419 0.
0.53891 0.0321296 0.
0.541101 0.0322654 0.
0.543295 0.0324029 0.
0.545446 0.0325187 0.
0.547565 0.0326218 0.
0.549684 0.0327265 0.
0.551744 0.0327784 0.
0.553797 0.0328246 0.
0.555846 0.0328665 0.
0.557875 0.0328862 0.
0.559903 0.032906 0.
0.561925 0.0329221 0.
0.56394 0.0329333 0.
0.565954 0.0329445 0.
0.567963 0.0329519 0.
0.569969 0.0329574 0.
0.571975 0.0329628 0.
0.573978 0.0329649 0.
0.575981 0.0329664 0.
0.577983 0.0329679 0.
0.579985 0.0329686 0.
0.581987 0.0329694 0.
0.583989 0.0329698 0.
0.585991 0.0329697 0.
0.587993 0.0329696 0.
0.589994 0.0329694 0.
0.591996 0.032969 0.
0.593997 0.0329686 0.
0.595998 0.0329685 0.
0.597999 0.0329685 0.
0.6 0.0329685 0.
0.602001 0.0329686 0.
0.604002 0.0329687 0.
0.606003 0.0329688 0.
0.608005 0.0329691 0.
0.610006 0.0329694 0.
0.612007 0.0329696 0.
0.614009 0.0329696 0.
0.616011 0.0329696 0.
0.618014 0.0329688 0.
0.620016 0.0329677 0.
0.622019 0.0329666 0.
0.624022 0.0329642 0.
0.626026 0.0329618 0.
0.62803 0.0329587 0.
0.630038 0.0329514 0.
0.632046 0.0329441 0.
0.634058 0.0329339 0.
0.636078 0.0329182 0.
0.638097 0.0329025 0.
0.640127 0.0328816 0.
0.642164 0.0328569 0.
0.644201 0.0328324 0.
0.646267 0.0327757 0.
0.648339 0.0327138 0.
0.65042 0.0326434 0.
0.652572 0.0325123 0.
0.654721 0.032383 0.
0.65693 0.0322244 0.
0.659191 0.0320402 0.
0.661457 0.0318572 0.
0.663897 0.0315026 0.
0.666336 0.0311496 0.
0.668934 0.0306393 0.
0.671588 0.0299783 0.
0.674464 0.0292219 0.
0.677501 0.0283454 0.
0.680844 0.0270972 0.
0.684268 0.0257611 0.
0.687931 0.0242863 0.
0.691953 0.0223754 0.
0.696155 0.0204356 0.
0.701025 0.0180527 0.
0.706403 0.015706 0.
0.711995 0.0129601 0.
0.71818 0.0100878 0.
0.725461 0.00735758 0.
0.734839 0.00531362 0.
0.745796 0.00255425 0.
0.775041 0.00246324 0.
0.421223 0.0023813 0.
0.448766 0.0025567 0.
0.459788 0.00514634 0.
0.469848 0.00720681 0.
0.477279 0.00987398 0.
0.483745 0.0126727 0.
0.489488 0.0153461 0.
0.494917 0.0179555 0.
0.499798 0.0203947 0.
0.504256 0.0228109 0.
0.508527 0.0247782 0.
0.512478 0.0264119 0.
0.516223 0.0280882 0.
0.519591 0.0293302 0.
0.522767 0.030374 0.
0.525705 0.0313342 0.
0.528536 0.0321014 0.
0.531243 0.0327202 0.
0.533854 0.0331987 0.
0.536286 0.033576 0.
0.538718 0.0339578 0.
0.54094 0.0341154 0.
0.543161 0.0342722 0.
0.545339 0.03441 0.
0.547475 0.0345359 0.
0.549613 0.0346634 0.
0.551687 0.0347291 0.
0.553752 0.0347863 0.
0.555813 0.0348385 0.
0.557847 0.0348625 0.
0.559881 0.0348866 0.
0.561909 0.0349065 0.
0.563926 0.0349206 0.
0.565944 0.0349347 0.
0.567955 0.0349441 0.
0.569963 0.034951 0.
0.57197 0.0349579 0.
0.573975 0.0349606 0.
0.575978 0.0349627 0.
0.577982 0.0349646 0.
0.579984 0.0349656 0.
0.581987 0.0349666 0.
0.583989 0.0349672 0.
0.585991 0.0349672 0.
0.587993 0.0349672 0.
0.589995 0.034967 0.
0.591996 0.0349668 0.
0.593997 0.0349666 0.
0.595998 0.0349666 0.
0.597999 0.0349668 0.
0.6 0.0349669 0.
0.602001 0.0349669 0.
0.604002 0.0349669 0.
0.606003 0.034967 0.
0.608004 0.034967 0.
0.610006 0.0349671 0.
0.612007 0.034967 0.
0.614009 0.0349669 0.
0.616012 0.0349667 0.
0.618015 0.0349657 0.
0.620018 0.0349643 0.
0.622021 0.0349628 0.
0.624025 0.0349598 0.
0.62603 0.0349565 0.
0.628035 0.0349525 0.
0.630045 0.0349434 0.
0.632055 0.0349343 0.
0.634071 0.0349214 0.
0.636095 0.0349016 0.
0.638119 0.0348818 0.
0.640156 0.0348562 0.
0.6422 0.0348266 0.
0.644244 0.034797 0.
0.646325 0.0347259 0.
0.648412 0.0346487 0.
0.650512 0.0345601 0.
0.652686 0.0344043 0.
0.654858 0.0342506 0.
0.657102 0.03405 0.
0.659398 0.0338214 0.
0.661712 0.0335895 0.
0.664223 0.0331585 0.
0.666723 0.0327344 0.
0.669455 0.0320942 0.
0.672198 0.0313468 0.
0.67519 0.0304333 0.
0.678246 0.0294935 0.
0.681779 0.0280028 0.
0.685414 0.0264993 0.
0.689024 0.0249594 0.
0.693307 0.0228081 0.
0.69777 0.0205708 0.
0.702745 0.0182093 0.
0.708263 0.0156304 0.
0.713955 0.012798 0.
0.720321 0.00996766 0.
0.727858 0.00721348 0.
0.737814 0.00522027 0.
0.748998 0.00254024 0.
0.775411 0.00297904 0.
0.42198 0.0029306 0.
0.44614 0.00270759 0.
0.457209 0.00507016 0.
0.46754 0.00712928 0.
0.475243 0.00981777 0.
0.481951 0.0125987 0.
0.487767 0.0153554 0.
0.493325 0.0180471 0.
0.498234 0.0205233 0.
0.502796 0.0230693 0.
0.507083 0.0251787 0.
0.511296 0.0270414 0.
0.515176 0.0288754 0.
0.518638 0.0302719 0.
0.521934 0.0315066 0.
0.524967 0.0325771 0.
0.527979 0.0335151 0.
0.530769 0.0342175 0.
0.5335 0.0348169 0.
0.535968 0.0352549 0.
0.538442 0.0357101 0.
0.540709 0.0359056 0.
0.542964 0.0360907 0.
0.545178 0.036259 0.
0.547337 0.0364061 0.
0.549499 0.0365551 0.
0.551595 0.0366427 0.
0.553679 0.0367205 0.
0.555759 0.0367925 0.
0.5578 0.0368215 0.
0.559843 0.0368506 0.
0.561877 0.0368759 0.
0.563902 0.036896 0.
0.565927 0.0369162 0.
0.567942 0.0369295 0.
0.569953 0.0369389 0.
0.571963 0.0369484 0.
0.573969 0.0369525 0.
0.575973 0.0369559 0.
0.577978 0.0369591 0.
0.579982 0.0369606 0.
0.581985 0.0369621 0.
0.583988 0.0369632 0.
0.58599 0.0369636 0.
0.587993 0.0369639 0.
0.589994 0.0369641 0.
0.591996 0.0369642 0.
0.593997 0.0369643 0.
0.595998 0.0369645 0.
0.597999 0.0369648 0.
0.6 0.036965 0.
0.602001 0.0369649 0.
0.604002 0.0369648 0.
0.606003 0.0369647 0.
0.608004 0.0369643 0.
0.610006 0.0369639 0.
0.612008 0.0369635 0.
0.614011 0.0369628 0.
0.616013 0.0369622 0.
0.618017 0.0369606 0.
0.620021 0.0369584 0.
0.622025 0.0369563 0.
0.624031 0.0369516 0.
0.626038 0.0369466 0.
0.628045 0.0369407 0.
0.630059 0.036928 0.
0.632074 0.0369153 0.
0.634094 0.0368973 0.
0.636127 0.03687 0.
0.638159 0.0368427 0.
0.640204 0.0368111 0.
0.642256 0.0367762 0.
0.644309 0.0367414 0.
0.646418 0.0366421 0.
0.648532 0.036537 0.
0.65066 0.0364216 0.
0.652856 0.0362468 0.
0.655048 0.0360743 0.
0.657338 0.0358239 0.
0.659669 0.035548 0.
0.662034 0.0352623 0.
0.664577 0.0347817 0.
0.667151 0.0342858 0.
0.67001 0.0335206 0.
0.672882 0.0326616 0.
0.676025 0.0315302 0.
0.679193 0.0303725 0.
0.68272 0.0288495 0.
0.686601 0.0271517 0.
0.690386 0.0253634 0.
0.694617 0.0232018 0.
0.69933 0.0206903 0.
0.704456 0.018321 0.
0.710047 0.0155483 0.
0.715826 0.0126644 0.
0.722327 0.00989179 0.
0.730199 0.00718013 0.
0.740342 0.00511901 0.
0.751829 0.00266474 0.
0.775078 0.0035596 0.
0.422939 0.0035317 0.
0.443915 0.0029447 0.
0.455011 0.00505039 0.
0.465356 0.00715321 0.
0.473338 0.0097676 0.
0.480231 0.0125313 0.
0.486057 0.0153461 0.
0.491742 0.0181049 0.
0.496696 0.0206357 0.
0.501343 0.023239 0.
0.50567 0.0255325 0.
0.510073 0.0276144 0.
0.514026 0.0295158 0.
0.517588 0.0311122 0.
0.52099 0.0325635 0.
0.524195 0.0337613 0.
0.527373 0.0348524 0.
0.530186 0.0355923 0.
0.533004 0.0362964 0.
0.535537 0.0368275 0.
0.538077 0.0373832 0.
0.540421 0.0376531 0.
0.542728 0.0378837 0.
0.544996 0.0380952 0.
0.547184 0.0382657 0.
0.549376 0.0384386 0.
0.551497 0.0385506 0.
0.553602 0.0386512 0.
0.555703 0.0387453 0.
0.557753 0.0387794 0.
0.559803 0.0388137 0.
0.561846 0.0388447 0.
0.563877 0.0388709 0.
0.565908 0.0388973 0.
0.567928 0.0389146 0.
0.569942 0.0389267 0.
0.571955 0.0389389 0.
0.573963 0.0389444 0.
0.575969 0.0389491 0.
0.577975 0.0389534 0.
0.579979 0.0389555 0.
0.581983 0.0389577 0.
0.583987 0.0389593 0.
0.585989 0.0389599 0.
0.587992 0.0389606 0.
0.589994 0.0389611 0.
0.591996 0.0389615 0.
0.593997 0.038962 0.
0.595998 0.0389624 0.
0.597999 0.0389627 0.
0.6 0.0389631 0.
0.602001 0.0389629 0.
0.604002 0.0389627 0.
0.606003 0.0389624 0.
0.608005 0.0389616 0.
0.610006 0.0389608 0.
0.612009 0.0389599 0.
0.614012 0.0389588 0.
0.616015 0.0389577 0.
0.618019 0.0389554 0.
0.620025 0.0389526 0.
0.62203 0.0389497 0.
0.624038 0.0389433 0.
0.626046 0.0389366 0.
0.628055 0.0389287 0.
0.630074 0.0389123 0.
0.632092 0.038896 0.
0.634119 0.0388728 0.
0.63616 0.0388376 0.
0.638201 0.0388026 0.
0.640254 0.0387646 0.
0.642315 0.0387242 0.
0.644376 0.0386839 0.
0.646517 0.0385525 0.
0.648662 0.0384156 0.
0.650824 0.0382699 0.
0.653048 0.0380727 0.
0.655268 0.037878 0.
0.657629 0.0375595 0.
0.660025 0.0372193 0.
0.662491 0.0368381 0.
0.665099 0.0362575 0.
0.667743 0.0356698 0.
0.670605 0.0348799 0.
0.673634 0.0338746 0.
0.676882 0.0325587 0.
0.68026 0.0311243 0.
0.683726 0.0295861 0.
0.687782 0.0277392 0.
0.691793 0.0256823 0.
0.695975 0.023502 0.
0.700851 0.0208127 0.
0.706059 0.0184355 0.
0.711738 0.0154987 0.
0.717576 0.012564 0.
0.724232 0.00980858 0.
0.73243 0.00723324 0.
0.742573 0.00504538 0.
0.7541 0.00291834 0.
0.774572 0.00420272 0.
0.423518 0.00414367 0.
0.441863 0.00325438 0.
0.453055 0.005066 0.
0.463264 0.00725059 0.
0.471526 0.00974051 0.
0.478534 0.0124686 0.
0.484419 0.0153441 0.
0.490188 0.0181475 0.
0.495161 0.0207455 0.
0.499924 0.0233814 0.
0.504265 0.025813 0.
0.508763 0.0280706 0.
0.512769 0.0300184 0.
0.516519 0.0318923 0.
0.520001 0.0335028 0.
0.523397 0.0348626 0.
0.526568 0.03599 0.
0.529529 0.0368793 0.
0.532454 0.0377229 0.
0.535097 0.0383817 0.
0.537703 0.0390372 0.
0.54013 0.0393926 0.
0.542491 0.039668 0.
0.544815 0.039926 0.
0.547028 0.0401153 0.
0.549247 0.0403092 0.
0.551395 0.0404468 0.
0.55352 0.0405722 0.
0.555641 0.0406919 0.
0.5577 0.0407312 0.
0.559758 0.0407706 0.
0.561809 0.0408074 0.
0.563848 0.0408407 0.
0.565886 0.0408742 0.
0.567911 0.0408963 0.
0.569928 0.0409117 0.
0.571946 0.0409272 0.
0.573955 0.0409347 0.
0.575963 0.040941 0.
0.57797 0.0409469 0.
0.579975 0.0409498 0.
0.581981 0.0409526 0.
0.583985 0.0409549 0.
0.585988 0.040956 0.
0.587991 0.0409571 0.
0.589993 0.0409581 0.
0.591995 0.0409589 0.
0.593997 0.0409597 0.
0.595998 0.0409603 0.
0.597999 0.0409608 0.
0.6 0.0409613 0.
0.602001 0.0409609 0.
0.604002 0.0409606 0.
0.606003 0.04096 0.
0.608005 0.0409588 0.
0.610007 0.0409576 0.
0.61201 0.0409561 0.
0.614014 0.0409544 0.
0.616017 0.0409526 0.
0.618023 0.0409495 0.
0.620029 0.0409457 0.
0.622036 0.0409419 0.
0.624046 0.0409335 0.
0.626056 0.0409245 0.
0.628068 0.040914 0.
0.630091 0.0408931 0.
0.632115 0.0408722 0.
0.634148 0.0408429 0.
0.636197 0.0407996 0.
0.638246 0.0407564 0.
0.64031 0.0407111 0.
0.642381 0.0406639 0.
0.644452 0.040617 0.
0.646622 0.0404503 0.
0.648794 0.0402809 0.
0.650989 0.0401066 0.
0.653239 0.0398925 0.
0.655486 0.039678 0.
0.657926 0.0392839 0.
0.660388 0.038879 0.
0.662965 0.0383898 0.
0.66565 0.0377029 0.
0.66845 0.0369583 0.
0.671397 0.0360538 0.
0.674441 0.0349375 0.
0.677742 0.0335261 0.
0.681351 0.0318234 0.
0.684983 0.0301437 0.
0.688978 0.0282629 0.
0.693213 0.0259459 0.
0.697479 0.0236325 0.
0.702468 0.0209285 0.
0.707639 0.0184742 0.
0.713415 0.0154246 0.
0.719284 0.0125217 0.
0.726101 0.00970688 0.
0.734537 0.00730897 0.
0.74464 0.00501071 0.
0.75603 0.00322576 0.
0.774166 0.00488264 0.
0.423768 0.00484051 0.
0.439991 0.00363964 0.
0.451262 0.00513009 0.
0.461285 0.0073644 0.
0.469736 0.00968388 0.
0.476872 0.0124368 0.
0.482844 0.0153559 0.
0.488664 0.0181857 0.
0.493645 0.0208481 0.
0.498525 0.0235288 0.
0.502866 0.0260223 0.
0.507411 0.0284132 0.
0.511513 0.0304745 0.
0.515432 0.032571 0.
0.519012 0.0343267 0.
0.522477 0.035816 0.
0.525735 0.0370785 0.
0.528885 0.0381365 0.
0.531905 0.0391045 0.
0.534662 0.039883 0.
0.537277 0.0405837 0.
0.539784 0.0410353 0.
0.542195 0.0413654 0.
0.544585 0.0416862 0.
0.546837 0.041911 0.
0.549099 0.0421422 0.
0.55128 0.0423167 0.
0.553426 0.0424753 0.
0.555571 0.042629 0.
0.557639 0.0426739 0.
0.559707 0.0427189 0.
0.561767 0.0427622 0.
0.563813 0.0428039 0.
0.565858 0.0428459 0.
0.567889 0.0428739 0.
0.569911 0.0428935 0.
0.571934 0.0429131 0.
0.573945 0.042923 0.
0.575955 0.0429314 0.
0.577965 0.0429394 0.
0.579971 0.0429431 0.
0.581977 0.0429469 0.
0.583982 0.04295 0.
0.585986 0.0429518 0.
0.58799 0.0429535 0.
0.589992 0.042955 0.
0.591994 0.0429562 0.
0.593996 0.0429574 0.
0.595998 0.0429582 0.
0.597999 0.0429589 0.
0.6 0.0429596 0.
0.602001 0.042959 0.
0.604003 0.0429584 0.
0.606004 0.0429576 0.
0.608006 0.0429558 0.
0.610008 0.0429541 0.
0.612012 0.042952 0.
0.614016 0.0429494 0.
0.616021 0.0429468 0.
0.618027 0.0429426 0.
0.620035 0.0429377 0.
0.622043 0.0429328 0.
0.624056 0.0429217 0.
0.626069 0.04291 0.
0.628084 0.0428962 0.
0.630113 0.0428695 0.
0.632142 0.0428429 0.
0.634183 0.0428064 0.
0.636241 0.0427541 0.
0.638298 0.0427021 0.
0.640375 0.0426467 0.
0.642462 0.0425892 0.
0.644549 0.0425302 0.
0.64674 0.0423193 0.
0.648932 0.0421076 0.
0.651174 0.0418827 0.
0.65349 0.0416186 0.
0.655794 0.0413631 0.
0.658286 0.0409135 0.
0.66078 0.0404643 0.
0.663435 0.0398805 0.
0.666188 0.0391138 0.
0.669164 0.0382156 0.
0.672201 0.0372016 0.
0.675412 0.0358253 0.
0.678671 0.034356 0.
0.68243 0.0324877 0.
0.686298 0.0306212 0.
0.690203 0.0287063 0.
0.694627 0.0261766 0.
0.698996 0.0237063 0.
0.704098 0.0210257 0.
0.709249 0.0184255 0.
0.715081 0.015343 0.
0.72101 0.0124836 0.
0.727958 0.00964051 0.
0.736551 0.00739956 0.
0.746562 0.00504391 0.
0.757855 0.00359537 0.
0.773905 0.00562598 0.
0.424121 0.00558702 0.
0.43856 0.00406794 0.
0.44976 0.00529244 0.
0.459545 0.00752147 0.
0.46806 0.00968705 0.
0.475279 0.0124712 0.
0.481328 0.0153593 0.
0.487193 0.0182506 0.
0.492174 0.0209258 0.
0.497103 0.023661 0.
0.501473 0.0261866 0.
0.50612 0.0287182 0.
0.510295 0.0309032 0.
0.514293 0.0331161 0.
0.517948 0.0350154 0.
0.521503 0.0367125 0.
0.524866 0.0381173 0.
0.52822 0.0393334 0.
0.531234 0.0403485 0.
0.534062 0.0412519 0.
0.536757 0.042052 0.
0.539395 0.0426426 0.
0.541876 0.0430428 0.
0.544346 0.0434411 0.
0.546641 0.043703 0.
0.548946 0.0439719 0.
0.551163 0.0441846 0.
0.553332 0.0443766 0.
0.555499 0.0445655 0.
0.557577 0.0446164 0.
0.559655 0.0446671 0.
0.561725 0.0447168 0.
0.563777 0.044767 0.
0.565831 0.0448174 0.
0.567868 0.0448514 0.
0.569895 0.0448752 0.
0.571922 0.0448989 0.
0.573936 0.0449113 0.
0.575947 0.0449218 0.
0.577959 0.0449318 0.
0.579966 0.0449365 0.
0.581974 0.0449412 0.
0.58398 0.0449451 0.
0.585984 0.0449475 0.
0.587988 0.04495 0.
0.589991 0.0449519 0.
0.591993 0.0449535 0.
0.593996 0.044955 0.
0.595997 0.0449561 0.
0.597999 0.044957 0.
0.6 0.0449579 0.
0.602002 0.0449571 0.
0.604003 0.0449563 0.
0.606005 0.0449551 0.
0.608007 0.0449529 0.
0.61001 0.0449507 0.
0.612014 0.0449479 0.
0.614019 0.0449444 0.
0.616024 0.0449409 0.
0.618032 0.0449357 0.
0.620042 0.0449297 0.
0.622051 0.0449236 0.
0.624066 0.0449099 0.
0.626082 0.0448954 0.
0.6281 0.0448783 0.
0.630135 0.0448458 0.
0.63217 0.0448135 0.
0.634218 0.0447697 0.
0.636284 0.0447085 0.
0.63835 0.0446475 0.
0.640441 0.0445819 0.
0.642543 0.044514 0.
0.644648 0.044441 0.
0.64686 0.0441858 0.
0.649071 0.0439314 0.
0.651368 0.0436528 0.
0.653755 0.0433346 0.
0.656142 0.0430168 0.
0.658704 0.0424987 0.
0.661261 0.0419855 0.
0.664063 0.04124 0.
0.66682 0.0404185 0.
0.669914 0.0394204 0.
0.673071 0.0382721 0.
0.676404 0.0366596 0.
0.679764 0.0350035 0.
0.68352 0.0331107 0.
0.687614 0.0310415 0.
0.691558 0.0289895 0.
0.696025 0.0263816 0.
0.700453 0.0237948 0.
0.705638 0.0211407 0.
0.710767 0.0184062 0.
0.716643 0.0153105 0.
0.722652 0.0124686 0.
0.729756 0.00965276 0.
0.73839 0.00751629 0.
0.748221 0.00517736 0.
0.759288 0.00401468 0.
0.773659 0.00639497 0.
0.424541 0.00634845 0.
0.437733 0.00453316 0.
0.4485 0.005558 0.
0.458061 0.00771742 0.
0.466553 0.00977754 0.
0.47383 0.0125599 0.
0.479903 0.0153948 0.
0.485768 0.0183332 0.
0.490758 0.0210224 0.
0.495735 0.0238173 0.
0.500159 0.0263705 0.
0.504888 0.0290166 0.
0.509047 0.031275 0.
0.51315 0.0335831 0.
0.51685 0.0356371 0.
0.520468 0.0375128 0.
0.523971 0.0390829 0.
0.527403 0.0403845 0.
0.530431 0.041485 0.
0.53343 0.0425924 0.
0.536209 0.0434912 0.
0.538992 0.044233 0.
0.541534 0.0447005 0.
0.544065 0.0451601 0.
0.546397 0.0454526 0.
0.548734 0.045757 0.
0.550988 0.0460109 0.
0.553174 0.0462293 0.
0.555363 0.0464455 0.
0.557468 0.0465171 0.
0.559572 0.046587 0.
0.561664 0.0466535 0.
0.563725 0.046712 0.
0.565787 0.0467708 0.
0.567832 0.0468127 0.
0.569866 0.0468437 0.
0.571901 0.0468749 0.
0.573919 0.0468917 0.
0.575934 0.0469061 0.
0.577949 0.0469198 0.
0.579958 0.046926 0.
0.581967 0.0469321 0.
0.583975 0.0469374 0.
0.58598 0.046941 0.
0.587986 0.0469445 0.
0.589989 0.0469473 0.
0.591992 0.0469495 0.
0.593995 0.0469517 0.
0.595997 0.046953 0.
0.597998 0.046954 0.
0.6 0.0469551 0.
0.602002 0.046954 0.
0.604004 0.0469529 0.
0.606006 0.0469514 0.
0.608009 0.0469483 0.
0.610012 0.0469452 0.
0.612017 0.0469413 0.
0.614024 0.0469363 0.
0.61603 0.0469314 0.
0.618041 0.0469244 0.
0.620053 0.0469166 0.
0.622064 0.0469087 0.
0.624083 0.0468904 0.
0.626103 0.0468711 0.
0.628127 0.0468484 0.
0.630172 0.0468061 0.
0.632217 0.0467641 0.
0.634275 0.0467108 0.
0.63635 0.0466407 0.
0.638426 0.046571 0.
0.640548 0.0464825 0.
0.642685 0.0463891 0.
0.644826 0.0462868 0.
0.647052 0.0460042 0.
0.649274 0.0457208 0.
0.651614 0.0453862 0.
0.65405 0.0450205 0.
0.656515 0.0446492 0.
0.659139 0.0440705 0.
0.661792 0.0434662 0.
0.664733 0.0425591 0.
0.667645 0.0416055 0.
0.67079 0.0404837 0.
0.674012 0.0392134 0.
0.677411 0.0374441 0.
0.68095 0.0355486 0.
0.684656 0.0336531 0.
0.688907 0.0314233 0.
0.692966 0.0291844 0.
0.697413 0.0265495 0.
0.701857 0.0239178 0.
0.707081 0.0212526 0.
0.71217 0.0184469 0.
0.718067 0.0153319 0.
0.724137 0.0125064 0.
0.731397 0.00974674 0.
0.739967 0.00767864 0.
0.749541 0.00540168 0.
0.76025 0.00447767 0.
0.773312 0.00715278 0.
0.425049 0.00709319 0.
0.43723 0.00502554 0.
0.44749 0.00589804 0.
0.456799 0.00795332 0.
0.46521 0.00994328 0.
0.472517 0.0126999 0.
0.478576 0.0154856 0.
0.48444 0.0184513 0.
0.489431 0.0211605 0.
0.494444 0.0240129 0.
0.498883 0.0265791 0.
0.503569 0.0292518 0.
0.507793 0.0316017 0.
0.512015 0.034007 0.
0.515744 0.0362082 0.
0.519411 0.0382264 0.
0.522987 0.0399445 0.
0.526415 0.0413357 0.
0.529607 0.0425713 0.
0.532762 0.0438638 0.
0.535633 0.0448634 0.
0.538456 0.0456838 0.
0.541047 0.0462095 0.
0.54366 0.0467624 0.
0.546075 0.0471339 0.
0.548464 0.0475019 0.
0.550776 0.0478157 0.
0.55299 0.0480632 0.
0.555208 0.0483095 0.
0.557346 0.0484078 0.
0.559482 0.0485013 0.
0.561601 0.0485881 0.
0.563671 0.0486552 0.
0.565741 0.0487225 0.
0.567795 0.0487727 0.
0.569837 0.0488114 0.
0.57188 0.0488503 0.
0.573902 0.0488717 0.
0.575921 0.0488902 0.
0.577939 0.0489076 0.
0.57995 0.0489153 0.
0.581961 0.048923 0.
0.58397 0.0489297 0.
0.585977 0.0489343 0.
0.587983 0.048939 0.
0.589987 0.0489426 0.
0.591991 0.0489455 0.
0.593994 0.0489484 0.
0.595996 0.0489499 0.
0.597998 0.0489511 0.
0.6 0.0489522 0.
0.602002 0.0489509 0.
0.604004 0.0489495 0.
0.606007 0.0489476 0.
0.608011 0.0489437 0.
0.610015 0.0489397 0.
0.612021 0.0489347 0.
0.614029 0.0489282 0.
0.616037 0.0489217 0.
0.618049 0.048913 0.
0.620064 0.0489033 0.
0.622078 0.0488935 0.
0.624101 0.0488706 0.
0.626125 0.0488464 0.
0.628154 0.0488177 0.
0.63021 0.0487651 0.
0.632266 0.0487129 0.
0.634334 0.0486495 0.
0.63642 0.04857 0.
0.638506 0.048491 0.
0.640667 0.0483739 0.
0.642848 0.0482484 0.
0.645034 0.0481099 0.
0.647291 0.0477976 0.
0.649541 0.0474854 0.
0.651934 0.0470651 0.
0.654401 0.0466122 0.
0.656952 0.0461499 0.
0.659644 0.0455361 0.
0.662381 0.0448615 0.
0.665423 0.0438319 0.
0.668514 0.0427222 0.
0.671746 0.0414563 0.
0.675059 0.0399789 0.
0.678445 0.0381647 0.
0.682157 0.0360553 0.
0.685942 0.034047 0.
0.690183 0.0317579 0.
0.694307 0.0293873 0.
0.698782 0.0266935 0.
0.703239 0.0240703 0.
0.708443 0.0213663 0.
0.713499 0.0185215 0.
0.719375 0.0154232 0.
0.725454 0.0126047 0.
0.732825 0.00991284 0.
0.741277 0.0078809 0.
0.750639 0.00570779 0.
0.760785 0.00496568 0.
0.772834 0.00788718 0.
0.425576 0.00782052 0.
0.436886 0.00553607 0.
0.446673 0.00628957 0.
0.455691 0.00823166 0.
0.464027 0.0101652 0.
0.471316 0.0128704 0.
0.47732 0.0156158 0.
0.483196 0.0186089 0.
0.488175 0.0213248 0.
0.493156 0.024204 0.
0.497604 0.0267955 0.
0.502247 0.0294643 0.
0.506571 0.0319158 0.
0.510882 0.0344064 0.
0.514612 0.0367013 0.
0.518336 0.0388538 0.
0.52193 0.040699 0.
0.525394 0.0422262 0.
0.52876 0.0436009 0.
0.531975 0.044981 0.
0.534868 0.046052 0.
0.537784 0.0470161 0.
0.540517 0.0476825 0.
0.543231 0.0483429 0.
0.545746 0.0488045 0.
0.548189 0.049236 0.
0.550564 0.0496166 0.
0.552807 0.0498917 0.
0.555053 0.0501613 0.
0.557223 0.0502862 0.
0.559387 0.0504057 0.
0.56153 0.0505169 0.
0.56361 0.050592 0.
0.56569 0.0506674 0.
0.567753 0.0507263 0.
0.569804 0.0507738 0.
0.571855 0.0508216 0.
0.573882 0.0508485 0.
0.575904 0.0508716 0.
0.577926 0.0508935 0.
0.579939 0.0509029 0.
0.581953 0.0509123 0.
0.583964 0.0509206 0.
0.585972 0.0509266 0.
0.587979 0.0509327 0.
0.589985 0.0509374 0.
0.591989 0.050941 0.
0.593992 0.0509446 0.
0.595995 0.0509464 0.
0.597998 0.0509478 0.
0.6 0.0509491 0.
0.602003 0.0509474 0.
0.604005 0.0509457 0.
0.606009 0.0509432 0.
0.608013 0.0509383 0.
0.610018 0.0509334 0.
0.612026 0.050927 0.
0.614036 0.0509187 0.
0.616046 0.0509104 0.
0.61806 0.0508997 0.
0.620078 0.0508878 0.
0.622095 0.050876 0.
0.624123 0.0508475 0.
0.626152 0.0508176 0.
0.628187 0.0507819 0.
0.630254 0.0507176 0.
0.63232 0.0506539 0.
0.6344 0.0505806 0.
0.636496 0.0504929 0.
0.638591 0.0504055 0.
0.64079 0.0502548 0.
0.643011 0.0500961 0.
0.64524 0.0499253 0.
0.647528 0.0495868 0.
0.649809 0.0492468 0.
0.652256 0.0487277 0.
0.654754 0.0481879 0.
0.657428 0.0476227 0.
0.66024 0.0469246 0.
0.663155 0.0460693 0.
0.666185 0.0449895 0.
0.669404 0.0437713 0.
0.672729 0.0423756 0.
0.676186 0.0406275 0.
0.67959 0.0387341 0.
0.683349 0.0365298 0.
0.687256 0.0343777 0.
0.691492 0.0320385 0.
0.69562 0.029595 0.
0.700072 0.0268679 0.
0.704578 0.0242392 0.
0.709742 0.0214829 0.
0.714784 0.0186117 0.
0.720615 0.0155595 0.
0.726655 0.0127557 0.
0.73406 0.010132 0.
0.742406 0.0081306 0.
0.751506 0.00608849 0.
0.761235 0.00548473 0.
0.772312 0.00858683 0.
0.426136 0.0085409 0.
0.43661 0.00606982 0.
0.44593 0.00672243 0.
0.454719 0.00854879 0.
0.462923 0.0104211 0.
0.470144 0.0130469 0.
0.476104 0.0157802 0.
0.481989 0.0187783 0.
0.486958 0.0215105 0.
0.491898 0.0243779 0.
0.496366 0.0270222 0.
0.500984 0.0296917 0.
0.505364 0.0322236 0.
0.50968 0.0347466 0.
0.513471 0.0371359 0.
0.517239 0.0394063 0.
0.52084 0.0413733 0.
0.52436 0.0430594 0.
0.527858 0.0445362 0.
0.531028 0.0459249 0.
0.534086 0.0472069 0.
0.537096 0.0483058 0.
0.539979 0.0491251 0.
0.542778 0.0498683 0.
0.545379 0.0504091 0.
0.547854 0.0508892 0.
0.550289 0.0513389 0.
0.552584 0.051644 0.
0.5549 0.0519536 0.
0.557102 0.0521225 0.
0.55928 0.0522843 0.
0.56144 0.0524337 0.
0.563533 0.0525173 0.
0.565627 0.0526012 0.
0.567703 0.0526701 0.
0.569764 0.0527286 0.
0.571825 0.0527875 0.
0.573857 0.0528211 0.
0.575884 0.0528498 0.
0.577911 0.0528771 0.
0.579926 0.0528885 0.
0.581942 0.0528998 0.
0.583956 0.05291 0.
0.585965 0.0529178 0.
0.587974 0.0529255 0.
0.589981 0.0529315 0.
0.591986 0.0529359 0.
0.59399 0.0529403 0.
0.595994 0.0529425 0.
0.597997 0.0529441 0.
0.6 0.0529457 0.
0.602004 0.0529435 0.
0.604007 0.0529413 0.
0.606011 0.0529382 0.
0.608017 0.0529322 0.
0.610023 0.0529262 0.
0.612032 0.0529181 0.
0.614044 0.0529075 0.
0.616057 0.052897 0.
0.618074 0.052884 0.
0.620094 0.0528697 0.
0.622114 0.0528555 0.
0.624149 0.0528203 0.
0.626184 0.0527835 0.
0.628228 0.0527389 0.
0.630307 0.05266 0.
0.632385 0.0525819 0.
0.634478 0.0524973 0.
0.636588 0.0524017 0.
0.638697 0.0523066 0.
0.640923 0.0520988 0.
0.643167 0.0518805 0.
0.645436 0.0516556 0.
0.647781 0.0512955 0.
0.650104 0.0509381 0.
0.652606 0.0503338 0.
0.655097 0.0497332 0.
0.657917 0.0490703 0.
0.660851 0.0482952 0.
0.66395 0.0472306 0.
0.667061 0.0460155 0.
0.670348 0.0447031 0.
0.673756 0.0431819 0.
0.677302 0.04125 0.
0.6808 0.0391893 0.
0.684558 0.0369533 0.
0.688518 0.0347051 0.
0.692772 0.0323025 0.
0.696925 0.0298033 0.
0.701313 0.027069 0.
0.705857 0.0244301 0.
0.710986 0.0216206 0.
0.716011 0.0187367 0.
0.721816 0.0157181 0.
0.727784 0.0129443 0.
0.735159 0.0103946 0.
0.743424 0.00842286 0.
0.752193 0.00651975 0.
0.761518 0.00603076 0.
0.771788 0.00928263 0.
0.426792 0.00918812 0.
0.436465 0.00661588 0.
0.445346 0.00720986 0.
0.453949 0.00891331 0.
0.461966 0.0107303 0.
0.469089 0.0132857 0.
0.475023 0.0160046 0.
0.480865 0.0189873 0.
0.485816 0.0217395 0.
0.490727 0.024593 0.
0.495214 0.0272837 0.
0.499804 0.0299515 0.
0.504182 0.0325249 0.
0.508457 0.0350497 0.
0.512318 0.037527 0.
0.516129 0.0399079 0.
0.519721 0.0419796 0.
0.52332 0.0438128 0.
0.526822 0.0453425 0.
0.53005 0.0468208 0.
0.533277 0.0483234 0.
0.536351 0.0495057 0.
0.539316 0.050437 0.
0.54215 0.0512555 0.
0.544915 0.0519408 0.
0.547457 0.0524971 0.
0.549983 0.0530447 0.
0.552349 0.0533909 0.
0.55474 0.0537428 0.
0.55698 0.0539557 0.
0.559172 0.0541601 0.
0.561349 0.0543503 0.
0.563456 0.0544424 0.
0.565564 0.0545348 0.
0.567652 0.0546136 0.
0.569723 0.0546832 0.
0.571795 0.0547532 0.
0.573833 0.0547937 0.
0.575864 0.054828 0.
0.577895 0.0548607 0.
0.579913 0.054874 0.
0.581932 0.0548873 0.
0.583948 0.0548994 0.
0.585958 0.0549089 0.
0.587969 0.0549184 0.
0.589977 0.0549255 0.
0.591983 0.0549308 0.
0.593988 0.054936 0.
0.595993 0.0549386 0.
0.597996 0.0549405 0.
0.6 0.0549423 0.
0.602004 0.0549396 0.
0.604009 0.0549368 0.
0.606013 0.0549331 0.
0.608021 0.054926 0.
0.610028 0.0549189 0.
0.612039 0.0549092 0.
0.614053 0.0548964 0.
0.616068 0.0548836 0.
0.618088 0.0548682 0.
0.620111 0.0548516 0.
0.622134 0.054835 0.
0.624175 0.0547931 0.
0.626217 0.0547493 0.
0.628269 0.0546957 0.
0.63036 0.0546021 0.
0.63245 0.0545093 0.
0.634557 0.0544137 0.
0.636681 0.0543104 0.
0.638804 0.0542075 0.
0.641058 0.053938 0.
0.643325 0.0536598 0.
0.64564 0.0533822 0.
0.648052 0.052988 0.
0.65046 0.05258 0.
0.653096 0.0518618 0.
0.655679 0.0511768 0.
0.658574 0.0504012 0.
0.661516 0.0496018 0.
0.664774 0.048335 0.
0.668006 0.0469951 0.
0.671372 0.045523 0.
0.674825 0.0438711 0.
0.678401 0.041838 0.
0.681992 0.0396148 0.
0.68578 0.0373343 0.
0.689745 0.0350305 0.
0.693969 0.0325951 0.
0.698146 0.0300375 0.
0.702494 0.0273006 0.
0.707073 0.0246368 0.
0.712143 0.0218162 0.
0.717131 0.0189239 0.
0.722917 0.0159288 0.
0.728808 0.0131954 0.
0.736083 0.0107156 0.
0.744226 0.00877691 0.
0.752706 0.00700873 0.
0.761584 0.00659124 0.
0.77113 0.00991595 0.
0.427569 0.0097923 0.
0.436543 0.00716076 0.
0.445023 0.00776356 0.
0.453415 0.00934081 0.
0.461229 0.0111081 0.
0.468201 0.0136053 0.
0.474121 0.016309 0.
0.479866 0.0192611 0.
0.484775 0.0220205 0.
0.489656 0.0248615 0.
0.494161 0.0275919 0.
0.498696 0.0302455 0.
0.503023 0.0328248 0.
0.507263 0.0353564 0.
0.511192 0.0379038 0.
0.514956 0.0403368 0.
0.51859 0.0425306 0.
0.522258 0.0445042 0.
0.525716 0.0461022 0.
0.529058 0.0476609 0.
0.5324 0.0493051 0.
0.535465 0.0505403 0.
0.538547 0.0516641 0.
0.54148 0.0526049 0.
0.544434 0.0534559 0.
0.547041 0.0540873 0.
0.549643 0.0547321 0.
0.552075 0.0551079 0.
0.554508 0.055497 0.
0.556787 0.0557595 0.
0.558995 0.0560018 0.
0.561198 0.0562318 0.
0.563329 0.0563343 0.
0.565464 0.0564381 0.
0.567574 0.0565304 0.
0.569657 0.0566142 0.
0.571742 0.0566989 0.
0.57379 0.0567503 0.
0.575831 0.056794 0.
0.57787 0.056836 0.
0.579892 0.0568517 0.
0.581914 0.0568675 0.
0.583933 0.0568822 0.
0.585947 0.0568944 0.
0.587961 0.0569067 0.
0.589971 0.0569158 0.
0.591978 0.0569224 0.
0.593985 0.056929 0.
0.595991 0.0569321 0.
0.597995 0.0569342 0.
0.6 0.0569363 0.
0.602006 0.0569327 0.
0.604011 0.0569292 0.
0.606018 0.0569244 0.
0.608027 0.0569154 0.
0.610037 0.0569064 0.
0.612051 0.0568941 0.
0.614069 0.0568779 0.
0.616087 0.0568618 0.
0.618111 0.0568436 0.
0.620138 0.0568245 0.
0.622165 0.0568054 0.
0.624219 0.0567499 0.
0.626274 0.0566927 0.
0.628339 0.0566247 0.
0.630444 0.0565164 0.
0.632548 0.0564092 0.
0.634678 0.0562982 0.
0.636827 0.0561811 0.
0.638973 0.0560651 0.
0.641259 0.0557379 0.
0.643541 0.0554089 0.
0.645894 0.055084 0.
0.648344 0.0546682 0.
0.650855 0.0541963 0.
0.653618 0.0533686 0.
0.656354 0.0525641 0.
0.659365 0.0516012 0.
0.66239 0.0506287 0.
0.665631 0.0493462 0.
0.668992 0.0478997 0.
0.672409 0.0463004 0.
0.67594 0.0444579 0.
0.679512 0.0423507 0.
0.683161 0.0400312 0.
0.686949 0.0377164 0.
0.690934 0.0353631 0.
0.69509 0.0329215 0.
0.69928 0.0303066 0.
0.703591 0.0275765 0.
0.70818 0.0248913 0.
0.713204 0.0220636 0.
0.718143 0.0191733 0.
0.723884 0.0162084 0.
0.729709 0.0135196 0.
0.736813 0.0111024 0.
0.744752 0.00920357 0.
0.752987 0.00756655 0.
0.761375 0.00714676 0.
0.770248 0.0104031 0.
0.428519 0.010329 0.
0.436893 0.00770111 0.
0.444952 0.00837585 0.
0.453096 0.00982521 0.
0.460695 0.0115573 0.
0.46749 0.0140042 0.
0.473364 0.016687 0.
0.478975 0.0196003 0.
0.48383 0.0223565 0.
0.488675 0.0251801 0.
0.493165 0.0279265 0.
0.497626 0.0305668 0.
0.501915 0.0331417 0.
0.506131 0.0356859 0.
0.510066 0.0382645 0.
0.513792 0.0407371 0.
0.517476 0.0430419 0.
0.521126 0.0451048 0.
0.524595 0.0468157 0.
0.528045 0.0484393 0.
0.53138 0.0501029 0.
0.534528 0.0515087 0.
0.537714 0.0528096 0.
0.54078 0.0538985 0.
0.543874 0.0548878 0.
0.546531 0.0555542 0.
0.549212 0.0562335 0.
0.551711 0.0567136 0.
0.55418 0.0572004 0.
0.556521 0.0575404 0.
0.558769 0.0578221 0.
0.561017 0.0580968 0.
0.563182 0.0582146 0.
0.565351 0.0583334 0.
0.56749 0.0584417 0.
0.569587 0.0585413 0.
0.571686 0.0586419 0.
0.573746 0.0587053 0.
0.575796 0.058759 0.
0.577845 0.0588108 0.
0.57987 0.0588291 0.
0.581896 0.0588474 0.
0.583918 0.0588646 0.
0.585935 0.0588797 0.
0.587952 0.0588948 0.
0.589964 0.058906 0.
0.591973 0.0589139 0.
0.593982 0.0589219 0.
0.595989 0.0589255 0.
0.597994 0.0589279 0.
0.6 0.0589302 0.
0.602007 0.0589258 0.
0.604014 0.0589214 0.
0.606022 0.0589156 0.
0.608034 0.0589047 0.
0.610046 0.0588938 0.
0.612063 0.0588788 0.
0.614084 0.0588591 0.
0.616106 0.0588395 0.
0.618134 0.0588186 0.
0.620165 0.0587969 0.
0.622196 0.0587752 0.
0.624265 0.0587049 0.
0.626334 0.058633 0.
0.628415 0.0585492 0.
0.630536 0.058425 0.
0.632655 0.0583019 0.
0.634816 0.0581708 0.
0.637001 0.0580329 0.
0.639191 0.057887 0.
0.641529 0.0574996 0.
0.643858 0.0571154 0.
0.646313 0.0567029 0.
0.648833 0.0562067 0.
0.651429 0.0556333 0.
0.654201 0.0547973 0.
0.657074 0.0538737 0.
0.660163 0.0527429 0.
0.66332 0.0515803 0.
0.666587 0.0502174 0.
0.670007 0.048722 0.
0.673475 0.0470027 0.
0.677068 0.0449923 0.
0.680633 0.0428097 0.
0.684298 0.0404427 0.
0.688093 0.038099 0.
0.69207 0.035714 0.
0.696163 0.0332718 0.
0.700334 0.0306232 0.
0.704624 0.0279013 0.
0.709191 0.0251966 0.
0.714167 0.0223621 0.
0.719042 0.0194954 0.
0.724694 0.0165646 0.
0.730478 0.0139142 0.
0.737351 0.0115525 0.
0.745033 0.00969847 0.
0.753001 0.00819087 0.
0.760935 0.00770038 0.
0.769214 0.0107507 0.
0.429571 0.0107496 0.
0.437401 0.00826574 0.
0.445044 0.00901392 0.
0.452936 0.0103474 0.
0.460273 0.0120581 0.
0.46688 0.0144523 0.
0.47267 0.0171086 0.
0.478146 0.019981 0.
0.48296 0.0227346 0.
0.487737 0.0255282 0.
0.49221 0.0282837 0.
0.496615 0.0309194 0.
0.500862 0.0334829 0.
0.505033 0.0360319 0.
0.508942 0.0386067 0.
0.512673 0.0411304 0.
0.516355 0.0435244 0.
0.519952 0.0456361 0.
0.52346 0.0474826 0.
0.526966 0.0491425 0.
0.530294 0.0508351 0.
0.533563 0.0524222 0.
0.536825 0.0538579 0.
0.539968 0.0550649 0.
0.543062 0.0561202 0.
0.545923 0.0569355 0.
0.548738 0.0576994 0.
0.551342 0.0583017 0.
0.553847 0.058886 0.
0.556252 0.0593169 0.
0.558541 0.059638 0.
0.560832 0.0599548 0.
0.563033 0.060087 0.
0.565234 0.0602203 0.
0.567401 0.0603466 0.
0.569511 0.0604608 0.
0.571621 0.060576 0.
0.573694 0.0606526 0.
0.575756 0.0607186 0.
0.577817 0.0607829 0.
0.579846 0.0608036 0.
0.581874 0.0608244 0.
0.5839 0.0608442 0.
0.585921 0.0608624 0.
0.587941 0.0608807 0.
0.589956 0.0608942 0.
0.591967 0.0609038 0.
0.593978 0.0609134 0.
0.595986 0.0609177 0.
0.597993 0.0609203 0.
0.6 0.0609229 0.
0.602009 0.0609175 0.
0.604018 0.060912 0.
0.606028 0.0609048 0.
0.608043 0.0608917 0.
0.610058 0.0608785 0.
0.612078 0.0608607 0.
0.614103 0.0608375 0.
0.616129 0.0608143 0.
0.618162 0.0607897 0.
0.620198 0.0607644 0.
0.622233 0.060739 0.
0.624317 0.0606521 0.
0.626401 0.0605642 0.
0.628497 0.0604643 0.
0.630632 0.060326 0.
0.632765 0.0601889 0.
0.634958 0.0600365 0.
0.637176 0.0598801 0.
0.639415 0.0597009 0.
0.641805 0.0592546 0.
0.644181 0.0588149 0.
0.646755 0.0583014 0.
0.649366 0.0577117 0.
0.652123 0.056963 0.
0.654969 0.0560179 0.
0.657896 0.0549948 0.
0.660992 0.0538069 0.
0.664276 0.0524977 0.
0.667605 0.0510474 0.
0.671068 0.0494481 0.
0.674566 0.0476148 0.
0.678179 0.0455044 0.
0.681762 0.0432259 0.
0.685421 0.0408426 0.
0.689195 0.0384941 0.
0.693159 0.0360855 0.
0.697211 0.0336317 0.
0.701332 0.0309755 0.
0.705601 0.0282582 0.
0.710119 0.0255461 0.
0.715043 0.0227112 0.
0.719876 0.0198656 0.
0.725403 0.0169725 0.
0.731154 0.0143573 0.
0.737789 0.0120465 0.
0.745188 0.0102333 0.
0.75286 0.00885567 0.
0.760414 0.00828626 0.
0.768121 0.0110156 0.
0.43063 0.0111118 0.
0.437949 0.00888687 0.
0.445234 0.009671 0.
0.452832 0.0109005 0.
0.459928 0.0125996 0.
0.466342 0.0149392 0.
0.472037 0.0175663 0.
0.477381 0.0204055 0.
0.482148 0.0231475 0.
0.486859 0.0259174 0.
0.491305 0.0286725 0.
0.495646 0.0313022 0.
0.499866 0.0338562 0.
0.503973 0.0363934 0.
0.507859 0.0389616 0.
0.511586 0.0415262 0.
0.515221 0.0439687 0.
0.518796 0.0461484 0.
0.522321 0.0480993 0.
0.525826 0.0498171 0.
0.529199 0.0515452 0.
0.532562 0.0532608 0.
0.535838 0.0547599 0.
0.539043 0.0560874 0.
0.542213 0.0572944 0.
0.545286 0.0582982 0.
0.548234 0.0591376 0.
0.550957 0.0598492 0.
0.553449 0.06049 0.
0.555934 0.0610108 0.
0.558272 0.0613619 0.
0.560626 0.0617136 0.
0.562866 0.0618924 0.
0.565099 0.0620707 0.
0.567295 0.0622345 0.
0.569417 0.0623631 0.
0.57154 0.0624928 0.
0.573629 0.0625865 0.
0.575707 0.0626697 0.
0.577784 0.0627514 0.
0.579817 0.0627745 0.
0.581849 0.0627976 0.
0.583879 0.0628202 0.
0.585903 0.062842 0.
0.587926 0.0628638 0.
0.589945 0.0628802 0.
0.591959 0.0628918 0.
0.593972 0.0629035 0.
0.595983 0.0629084 0.
0.597992 0.0629113 0.
0.600001 0.0629142 0.
0.602012 0.0629074 0.
0.604023 0.0629006 0.
0.606036 0.0628918 0.
0.608055 0.0628759 0.
0.610073 0.0628601 0.
0.612097 0.0628391 0.
0.614126 0.0628123 0.
0.616156 0.0627855 0.
0.618195 0.0627557 0.
0.620238 0.0627246 0.
0.622281 0.0626931 0.
0.624382 0.0625852 0.
0.626482 0.0624767 0.
0.628596 0.0623571 0.
0.630746 0.0622042 0.
0.632894 0.0620526 0.
0.635152 0.0618407 0.
0.637439 0.0616176 0.
0.639753 0.0613715 0.
0.642182 0.0609038 0.
0.644581 0.0604436 0.
0.647228 0.0598528 0.
0.649916 0.0591888 0.
0.652846 0.0582546 0.
0.655772 0.0571995 0.
0.658833 0.0559898 0.
0.661905 0.0547536 0.
0.665272 0.0533673 0.
0.66867 0.0518354 0.
0.672163 0.050118 0.
0.675668 0.0481621 0.
0.679269 0.0459836 0.
0.682852 0.0436464 0.
0.686534 0.0412428 0.
0.690284 0.0388924 0.
0.694212 0.0364802 0.
0.698228 0.0340093 0.
0.702282 0.0313592 0.
0.706536 0.0286394 0.
0.710985 0.0259336 0.
0.715836 0.023112 0.
0.720644 0.0202838 0.
0.726032 0.0174298 0.
0.731741 0.0148429 0.
0.738172 0.0125766 0.
0.745275 0.0107993 0.
0.752665 0.00955023 0.
0.759909 0.00892141 0.
0.767039 0.0112599 0.
0.431696 0.0114394 0.
0.438555 0.00956794 0.
0.445542 0.0103504 0.
0.452858 0.0114986 0.
0.459722 0.0131966 0.
0.465907 0.0154865 0.
0.471532 0.0180873 0.
0.476718 0.0208994 0.
0.481416 0.0236182 0.
0.486082 0.0263697 0.
0.49048 0.0291165 0.
0.494753 0.031738 0.
0.498934 0.0342785 0.
0.502974 0.0367921 0.
0.506828 0.039345 0.
0.510522 0.0419282 0.
0.514114 0.0443967 0.
0.517651 0.0466425 0.
0.521176 0.0486773 0.
0.524681 0.0504712 0.
0.52811 0.0522225 0.
0.531493 0.0539749 0.
0.53479 0.0555618 0.
0.538075 0.0570439 0.
0.54132 0.0583893 0.
0.544569 0.059585 0.
0.547499 0.0604371 0.
0.550309 0.0612786 0.
0.552919 0.0620151 0.
0.55558 0.0626733 0.
0.557985 0.0630693 0.
0.560411 0.0634679 0.
0.562697 0.0636927 0.
0.564961 0.0639166 0.
0.567188 0.0641219 0.
0.569323 0.0642649 0.
0.571459 0.064409 0.
0.573563 0.0645197 0.
0.575657 0.0646203 0.
0.577752 0.0647197 0.
0.579788 0.0647453 0.
0.581824 0.0647708 0.
0.583858 0.0647961 0.
0.585885 0.0648215 0.
0.587912 0.064847 0.
0.589934 0.0648662 0.
0.59195 0.0648798 0.
0.593967 0.0648935 0.
0.595979 0.0648991 0.
0.59799 0.0649022 0.
0.600002 0.0649054 0.
0.602015 0.0648973 0.
0.604029 0.0648893 0.
0.606045 0.0648787 0.
0.608067 0.0648602 0.
0.610088 0.0648417 0.
0.612116 0.0648175 0.
0.614149 0.064787 0.
0.616183 0.0647565 0.
0.618228 0.0647215 0.
0.620278 0.0646848 0.
0.62233 0.0646466 0.
0.624448 0.0645176 0.
0.626565 0.0643884 0.
0.628697 0.0642493 0.
0.630862 0.0640817 0.
0.633025 0.0639156 0.
0.635356 0.0636367 0.
0.637718 0.0633431 0.
0.640126 0.0630206 0.
0.642639 0.0625034 0.
0.645152 0.0619664 0.
0.647918 0.0612286 0.
0.65065 0.060486 0.
0.653632 0.0594662 0.
0.656644 0.0582916 0.
0.659802 0.056944 0.
0.662974 0.0556076 0.
0.66631 0.054189 0.
0.669763 0.0525539 0.
0.673258 0.0507395 0.
0.676761 0.0486744 0.
0.680351 0.0464363 0.
0.68391 0.0440786 0.
0.687596 0.0416687 0.
0.691342 0.0393078 0.
0.69523 0.0369082 0.
0.699181 0.0344279 0.
0.703164 0.0317899 0.
0.707377 0.0290771 0.
0.711768 0.0263787 0.
0.716527 0.0235797 0.
0.721298 0.0207738 0.
0.726554 0.0179532 0.
0.732178 0.0153935 0.
0.738434 0.013157 0.
0.745262 0.0114044 0.
0.75237 0.0102665 0.
0.75933 0.00960415 0.
0.765974 0.0115089 0.
0.432795 0.0117614 0.
0.439283 0.0103118 0.
0.44601 0.0110694 0.
0.453059 0.0121511 0.
0.459668 0.013859 0.
0.465629 0.0161159 0.
0.471155 0.0186916 0.
0.476172 0.0214744 0.
0.480808 0.0241704 0.
0.485414 0.0268974 0.
0.48974 0.0296217 0.
0.493943 0.0322324 0.
0.498061 0.0347547 0.
0.502028 0.0372346 0.
0.505849 0.039767 0.
0.509501 0.0423486 0.
0.513038 0.0448276 0.
0.51655 0.0471383 0.
0.520064 0.0492315 0.
0.523553 0.0510981 0.
0.527004 0.0528619 0.
0.530393 0.0546477 0.
0.53373 0.0563345 0.
0.537059 0.0578995 0.
0.540367 0.0593412 0.
0.543612 0.0606062 0.
0.546606 0.0616046 0.
0.549585 0.062662 0.
0.552334 0.0635099 0.
0.55518 0.0643147 0.
0.557669 0.0647571 0.
0.560129 0.0651792 0.
0.562461 0.065452 0.
0.564758 0.0657266 0.
0.56703 0.0659839 0.
0.56918 0.0661347 0.
0.571334 0.0662865 0.
0.573458 0.0664148 0.
0.57557 0.0665371 0.
0.577682 0.0666594 0.
0.579732 0.0666949 0.
0.581781 0.0667295 0.
0.583826 0.0667625 0.
0.585857 0.0667913 0.
0.587889 0.0668201 0.
0.589914 0.0668424 0.
0.591936 0.0668588 0.
0.593957 0.0668753 0.
0.595973 0.066882 0.
0.597989 0.0668857 0.
0.600004 0.0668893 0.
0.602022 0.0668791 0.
0.60404 0.0668689 0.
0.60606 0.0668558 0.
0.608087 0.0668339 0.
0.610114 0.0668119 0.
0.612147 0.0667841 0.
0.614186 0.0667499 0.
0.616225 0.0667157 0.
0.618284 0.0666695 0.
0.62035 0.0666197 0.
0.62242 0.0665667 0.
0.624558 0.0664138 0.
0.626694 0.066262 0.
0.628848 0.0661048 0.
0.631033 0.0659287 0.
0.633212 0.0657543 0.
0.635612 0.0653957 0.
0.638032 0.065036 0.
0.640534 0.0646462 0.
0.643127 0.0640877 0.
0.64578 0.0634451 0.
0.648655 0.0625557 0.
0.651536 0.0616415 0.
0.654567 0.0605152 0.
0.657603 0.0592712 0.
0.660803 0.0578505 0.
0.664072 0.0564307 0.
0.6674 0.0549429 0.
0.670864 0.0532115 0.
0.674363 0.051299 0.
0.677843 0.0491743 0.
0.681408 0.046889 0.
0.684953 0.044521 0.
0.68861 0.042127 0.
0.692347 0.0397559 0.
0.696187 0.0373787 0.
0.700082 0.0348888 0.
0.703987 0.0322705 0.
0.708134 0.0295814 0.
0.712458 0.0268897 0.
0.717114 0.0241201 0.
0.721815 0.0213511 0.
0.726919 0.0185629 0.
0.73244 0.0160286 0.
0.738502 0.0138113 0.
0.745097 0.012062 0.
0.75193 0.0110054 0.
0.75861 0.0103316 0.
0.764904 0.0118126 0.
0.433934 0.0121251 0.
0.440119 0.0110902 0.
0.44662 0.0118212 0.
0.453404 0.0128568 0.
0.459753 0.01459 0.
0.465517 0.0168268 0.
0.470881 0.0193763 0.
0.475745 0.0221299 0.
0.480336 0.0248045 0.
0.484841 0.0274978 0.
0.489075 0.0301903 0.
0.493202 0.0327808 0.
0.497236 0.0352787 0.
0.501131 0.0377219 0.
0.504909 0.040227 0.
0.508504 0.0427861 0.
0.512002 0.0452778 0.
0.515482 0.0476337 0.
0.518968 0.0497687 0.
0.522439 0.051705 0.
0.52589 0.053492 0.
0.529286 0.0552973 0.
0.532651 0.057065 0.
0.536014 0.0586785 0.
0.53932 0.060175 0.
0.542565 0.0615128 0.
0.545675 0.0626957 0.
0.548761 0.0639256 0.
0.551648 0.0649019 0.
0.554503 0.0657258 0.
0.557102 0.0662699 0.
0.559665 0.0667848 0.
0.562119 0.0671516 0.
0.564485 0.0674974 0.
0.566836 0.0678294 0.
0.569013 0.0679898 0.
0.571194 0.0681511 0.
0.573343 0.0682992 0.
0.575474 0.0684464 0.
0.577606 0.0685941 0.
0.579672 0.0686417 0.
0.581736 0.0686865 0.
0.583793 0.0687281 0.
0.585828 0.0687604 0.
0.587864 0.0687926 0.
0.589895 0.0688181 0.
0.591921 0.0688374 0.
0.593946 0.0688567 0.
0.595967 0.0688645 0.
0.597987 0.0688687 0.
0.600006 0.0688729 0.
0.602029 0.0688605 0.
0.604051 0.068848 0.
0.606076 0.0688324 0.
0.608109 0.0688069 0.
0.610141 0.0687814 0.
0.61218 0.0687498 0.
0.614224 0.0687117 0.
0.616268 0.0686736 0.
0.618344 0.0686147 0.
0.620428 0.0685504 0.
0.622518 0.0684796 0.
0.624681 0.0682997 0.
0.626841 0.0681212 0.
0.629028 0.0679428 0.
0.631247 0.067755 0.
0.633464 0.0675659 0.
0.63594 0.0670895 0.
0.638414 0.0666291 0.
0.641046 0.0661374 0.
0.64372 0.0655423 0.
0.646491 0.0648005 0.
0.649429 0.0638185 0.
0.652456 0.062737 0.
0.655547 0.0615049 0.
0.658666 0.0601272 0.
0.661866 0.058691 0.
0.665186 0.0572133 0.
0.668529 0.055622 0.
0.671967 0.0538276 0.
0.675456 0.0518319 0.
0.678923 0.0496623 0.
0.682452 0.0473491 0.
0.685979 0.044982 0.
0.689587 0.042615 0.
0.693298 0.0402446 0.
0.697087 0.03789 0.
0.700916 0.035404 0.
0.704774 0.0327952 0.
0.708815 0.0301466 0.
0.713057 0.0274686 0.
0.717597 0.024738 0.
0.722221 0.0220105 0.
0.727149 0.0192533 0.
0.732558 0.0167428 0.
0.738396 0.0145416 0.
0.744764 0.012776 0.
0.751373 0.0117691 0.
0.757808 0.0110889 0.
0.763812 0.0121872 0.
0.435051 0.0125995 0.
0.440981 0.0118874 0.
0.447279 0.0125858 0.
0.453812 0.0136067 0.
0.459921 0.0153767 0.
0.465484 0.0175924 0.
0.470679 0.0201199 0.
0.4754 0.0228494 0.
0.479951 0.0254992 0.
0.484324 0.0281515 0.
0.488469 0.0308133 0.
0.492507 0.0333716 0.
0.496437 0.0358361 0.
0.500264 0.0382453 0.
0.503987 0.0407159 0.
0.507534 0.0432503 0.
0.511004 0.04575 0.
0.514428 0.0481235 0.
0.517891 0.0503024 0.
0.521343 0.0522955 0.
0.524776 0.0541236 0.
0.528183 0.0559288 0.
0.531566 0.0577367 0.
0.534924 0.0594126 0.
0.538243 0.0609646 0.
0.541497 0.0623724 0.
0.544686 0.0636906 0.
0.5478 0.0649709 0.
0.550763 0.0660601 0.
0.553689 0.0670088 0.
0.55648 0.0677488 0.
0.559165 0.0683658 0.
0.561765 0.0688393 0.
0.564202 0.0692571 0.
0.56664 0.0696736 0.
0.568844 0.0698423 0.
0.57105 0.0700103 0.
0.573225 0.070176 0.
0.575374 0.070346 0.
0.577524 0.0705168 0.
0.579607 0.0705794 0.
0.581685 0.0706372 0.
0.583755 0.0706902 0.
0.585795 0.0707256 0.
0.587836 0.0707611 0.
0.589872 0.0707897 0.
0.591903 0.0708119 0.
0.593934 0.0708342 0.
0.59596 0.0708431 0.
0.597985 0.0708479 0.
0.60001 0.0708526 0.
0.602037 0.0708379 0.
0.604065 0.0708232 0.
0.606095 0.0708049 0.
0.608134 0.0707757 0.
0.610172 0.0707465 0.
0.612216 0.0707112 0.
0.614267 0.0706693 0.
0.616318 0.0706276 0.
0.618409 0.0705528 0.
0.620511 0.070471 0.
0.622622 0.0703799 0.
0.624808 0.070176 0.
0.626988 0.069975 0.
0.62921 0.0697778 0.
0.631464 0.0695793 0.
0.633734 0.069357 0.
0.636278 0.0687654 0.
0.638806 0.0682036 0.
0.641606 0.0675962 0.
0.64441 0.0669174 0.
0.647352 0.0659765 0.
0.65031 0.064932 0.
0.653425 0.0637438 0.
0.656565 0.0624302 0.
0.65976 0.0609319 0.
0.662989 0.0594616 0.
0.666322 0.0579412 0.
0.669667 0.0562648 0.
0.673071 0.054414 0.
0.676546 0.0523466 0.
0.679986 0.0501466 0.
0.683477 0.0478239 0.
0.686987 0.0454632 0.
0.690542 0.0431237 0.
0.694201 0.0407716 0.
0.697942 0.0384356 0.
0.7017 0.0359653 0.
0.705511 0.0333695 0.
0.709461 0.0307537 0.
0.713591 0.028103 0.
0.718008 0.0254135 0.
0.722544 0.0227328 0.
0.727311 0.0200075 0.
0.73257 0.0175156 0.
0.738208 0.0153241 0.
0.744333 0.0135369 0.
0.750739 0.01255 0.
0.756969 0.0118823 0.
0.762739 0.0126774 0.
0.436103 0.0131797 0.
0.441831 0.0127001 0.
0.447944 0.0133617 0.
0.454244 0.0143961 0.
0.460116 0.0162008 0.
0.46549 0.0184042 0.
0.470541 0.0209202 0.
0.475136 0.0236261 0.
0.4796 0.0262402 0.
0.483843 0.0288497 0.
0.487885 0.0314776 0.
0.491829 0.0339971 0.
0.495661 0.0364278 0.
0.499424 0.0388053 0.
0.503089 0.0412394 0.
0.506589 0.0437443 0.
0.510019 0.046238 0.
0.513401 0.0486236 0.
0.516839 0.0508435 0.
0.520264 0.0528765 0.
0.523683 0.0547514 0.
0.527104 0.0565524 0.
0.53047 0.0583705 0.
0.533809 0.0601105 0.
0.537135 0.0617128 0.
0.540399 0.0631851 0.
0.543627 0.0645703 0.
0.546768 0.0658867 0.
0.549849 0.0671677 0.
0.552843 0.0682321 0.
0.555814 0.0691845 0.
0.558594 0.0698736 0.
0.561297 0.0704362 0.
0.563764 0.0708931 0.
0.566263 0.0713581 0.
0.568556 0.0715844 0.
0.570851 0.0718109 0.
0.573094 0.0720259 0.
0.575262 0.0722196 0.
0.577432 0.0724144 0.
0.579531 0.0724992 0.
0.581624 0.0725768 0.
0.583708 0.0726467 0.
0.585755 0.0726854 0.
0.587803 0.0727241 0.
0.589845 0.0727559 0.
0.591882 0.0727812 0.
0.593919 0.0728066 0.
0.595952 0.0728167 0.
0.597983 0.0728221 0.
0.600014 0.0728274 0.
0.602048 0.0728102 0.
0.604081 0.0727931 0.
0.606118 0.0727719 0.
0.608163 0.0727385 0.
0.610208 0.0727052 0.
0.61226 0.0726658 0.
0.614319 0.0726201 0.
0.616378 0.0725746 0.
0.618487 0.0724761 0.
0.620604 0.072368 0.
0.622739 0.0722468 0.
0.624956 0.072013 0.
0.627167 0.0717826 0.
0.629461 0.0715381 0.
0.631792 0.0712934 0.
0.634161 0.0709903 0.
0.636726 0.0703424 0.
0.639267 0.0697186 0.
0.64222 0.0690153 0.
0.645162 0.0682349 0.
0.648244 0.0671001 0.
0.651296 0.065925 0.
0.654451 0.0646544 0.
0.657628 0.0632531 0.
0.660861 0.0617068 0.
0.664134 0.0601942 0.
0.667464 0.0586294 0.
0.670816 0.0568731 0.
0.674181 0.0549663 0.
0.677618 0.052862 0.
0.68104 0.0506332 0.
0.684483 0.0483152 0.
0.687968 0.0459733 0.
0.691484 0.0436534 0.
0.695076 0.0413332 0.
0.698758 0.0390206 0.
0.702442 0.0365671 0.
0.706196 0.0339922 0.
0.710076 0.0314038 0.
0.71409 0.0287823 0.
0.718374 0.0261393 0.
0.722825 0.0235018 0.
0.727442 0.0208097 0.
0.732511 0.018337 0.
0.737973 0.0161482 0.
0.743878 0.0143364 0.
0.750077 0.0133372 0.
0.756114 0.0127089 0.
0.761697 0.0132947 0.
0.437162 0.0138361 0.
0.442718 0.0135406 0.
0.448675 0.0141635 0.
0.454751 0.0152367 0.
0.460385 0.0170814 0.
0.465598 0.0192867 0.
0.470481 0.0217918 0.
0.474962 0.0244695 0.
0.479297 0.0270393 0.
0.483417 0.0296086 0.
0.487355 0.0321978 0.
0.491191 0.0346755 0.
0.494937 0.0370729 0.
0.498636 0.0394188 0.
0.502228 0.0418086 0.
0.505682 0.044279 0.
0.509063 0.0467563 0.
0.512417 0.0491475 0.
0.51581 0.0513928 0.
0.519213 0.0534607 0.
0.522611 0.0553728 0.
0.526014 0.0571675 0.
0.529362 0.0589937 0.
0.532692 0.0607838 0.
0.536007 0.0624159 0.
0.539286 0.063958 0.
0.542533 0.065396 0.
0.545715 0.066765 0.
0.54887 0.0681552 0.
0.551935 0.0693474 0.
0.554983 0.0704255 0.
0.557805 0.0711944 0.
0.560652 0.0719374 0.
0.563226 0.0724696 0.
0.565825 0.0730027 0.
0.568243 0.07331 0.
0.570639 0.0736025 0.
0.572962 0.0738743 0.
0.575148 0.0740918 0.
0.577338 0.0743108 0.
0.579455 0.0744181 0.
0.581563 0.0745156 0.
0.583661 0.0746032 0.
0.585715 0.074645 0.
0.58777 0.074687 0.
0.589818 0.074722 0.
0.591862 0.0747504 0.
0.593905 0.0747789 0.
0.595943 0.0747903 0.
0.597981 0.0747963 0.
0.600018 0.0748021 0.
0.602058 0.0747826 0.
0.604098 0.0747631 0.
0.606141 0.0747389 0.
0.608193 0.0747013 0.
0.610244 0.0746638 0.
0.612305 0.0746204 0.
0.614372 0.0745709 0.
0.616439 0.0745215 0.
0.618565 0.0743982 0.
0.620699 0.0742636 0.
0.622858 0.0741116 0.
0.625107 0.0738475 0.
0.627349 0.0735874 0.
0.629735 0.0732844 0.
0.632164 0.0729771 0.
0.63468 0.0725487 0.
0.63735 0.0718048 0.
0.640046 0.0710652 0.
0.643035 0.0702847 0.
0.646037 0.0694045 0.
0.649186 0.0681466 0.
0.652329 0.0668578 0.
0.655513 0.0655043 0.
0.658723 0.0640171 0.
0.66197 0.0624428 0.
0.665275 0.0609034 0.
0.668606 0.0592799 0.
0.671941 0.0574689 0.
0.6753 0.0554987 0.
0.678681 0.053377 0.
0.682069 0.0511379 0.
0.685471 0.0488287 0.
0.68891 0.0465161 0.
0.692389 0.0442206 0.
0.695918 0.0419385 0.
0.699527 0.039653 0.
0.703137 0.0372205 0.
0.706802 0.0346808 0.
0.710612 0.03212 0.
0.714529 0.0295266 0.
0.718683 0.026932 0.
0.723032 0.024337 0.
0.727509 0.0216737 0.
0.732383 0.0192224 0.
0.737654 0.0170326 0.
0.743335 0.0151895 0.
0.749341 0.0141383 0.
0.755204 0.013568 0.
0.760619 0.0139926 0.
0.438306 0.0145681 0.
0.44372 0.0144132 0.
0.449538 0.0149963 0.
0.45537 0.0161492 0.
0.460784 0.018047 0.
0.465838 0.0202549 0.
0.470521 0.0227482 0.
0.474877 0.0253935 0.
0.479059 0.0279089 0.
0.483067 0.0304381 0.
0.486878 0.03298 0.
0.490603 0.0354143 0.
0.494268 0.0377734 0.
0.497886 0.040082 0.
0.501404 0.0424255 0.
0.504806 0.044856 0.
0.508135 0.047306 0.
0.511444 0.0496874 0.
0.514802 0.0519492 0.
0.518171 0.0540448 0.
0.521539 0.0559859 0.
0.524912 0.0577926 0.
0.528252 0.0596091 0.
0.53156 0.0614157 0.
0.534872 0.0630928 0.
0.538177 0.0647038 0.
0.541425 0.0661841 0.
0.544648 0.0675973 0.
0.547839 0.0690411 0.
0.550937 0.0703278 0.
0.554018 0.0714972 0.
0.556969 0.0724518 0.
0.559925 0.0733689 0.
0.562647 0.0740268 0.
0.565342 0.074616 0.
0.567885 0.0749955 0.
0.570361 0.0753504 0.
0.572763 0.0756924 0.
0.574964 0.0759234 0.
0.577172 0.0761553 0.
0.579321 0.0762932 0.
0.581461 0.0764228 0.
0.583591 0.076541 0.
0.585655 0.0765865 0.
0.58772 0.0766321 0.
0.589779 0.0766704 0.
0.591831 0.0767014 0.
0.593883 0.0767324 0.
0.595931 0.0767447 0.
0.597977 0.0767509 0.
0.600024 0.076757 0.
0.602074 0.0767356 0.
0.604123 0.0767142 0.
0.606176 0.0766874 0.
0.608237 0.0766456 0.
0.610298 0.0766039 0.
0.61237 0.0765553 0.
0.614452 0.0765003 0.
0.616532 0.0764456 0.
0.61869 0.0762868 0.
0.620852 0.0761187 0.
0.623049 0.0759304 0.
0.62533 0.0756433 0.
0.627596 0.0753623 0.
0.630063 0.0749993 0.
0.632572 0.0746369 0.
0.635246 0.0740698 0.
0.63802 0.0732344 0.
0.640901 0.0723448 0.
0.643959 0.0714272 0.
0.64704 0.0703661 0.
0.650174 0.0690897 0.
0.65339 0.067728 0.
0.656606 0.066302 0.
0.659842 0.0647438 0.
0.663106 0.0631582 0.
0.666414 0.0615903 0.
0.669741 0.0599065 0.
0.673051 0.0580534 0.
0.676396 0.05603 0.
0.679748 0.0538901 0.
0.683088 0.0516558 0.
0.686446 0.0493674 0.
0.689834 0.0470887 0.
0.693263 0.0448251 0.
0.696732 0.0425845 0.
0.700256 0.0403329 0.
0.703784 0.0379295 0.
0.707351 0.0354314 0.
0.711072 0.0329125 0.
0.714897 0.0303494 0.
0.718917 0.027798 0.
0.723124 0.0252577 0.
0.727485 0.0226252 0.
0.732161 0.0201856 0.
0.737225 0.0179946 0.
0.742677 0.0161138 0.
0.748453 0.0149751 0.
0.754176 0.0144532 0.
0.759444 0.0147272 0.
0.439568 0.0153591 0.
0.444867 0.0153106 0.
0.450524 0.0158722 0.
0.456096 0.0171475 0.
0.46129 0.019094 0.
0.466158 0.0212996 0.
0.470649 0.0237905 0.
0.474846 0.0263884 0.
0.478885 0.0288489 0.
0.482763 0.0313336 0.
0.486445 0.033824 0.
0.490067 0.0362117 0.
0.493638 0.0385246 0.
0.497165 0.0407913 0.
0.500605 0.0430847 0.
0.503946 0.0454673 0.
0.507213 0.047881 0.
0.510488 0.0502465 0.
0.513797 0.0525096 0.
0.517135 0.0546338 0.
0.520473 0.0565993 0.
0.523812 0.0584244 0.
0.527138 0.0602175 0.
0.530439 0.0620308 0.
0.533755 0.0637645 0.
0.537061 0.0654098 0.
0.540318 0.0669467 0.
0.543565 0.068403 0.
0.546755 0.0698572 0.
0.549907 0.0712519 0.
0.55303 0.0725036 0.
0.556102 0.0736318 0.
0.559127 0.0746627 0.
0.561975 0.0754316 0.
0.564753 0.0760484 0.
0.567433 0.0765436 0.
0.569984 0.0770156 0.
0.572492 0.0774826 0.
0.574727 0.0777297 0.
0.57697 0.077978 0.
0.579164 0.0781515 0.
0.581345 0.0783198 0.
0.583516 0.0784753 0.
0.585592 0.078525 0.
0.587667 0.0785748 0.
0.589737 0.0786167 0.
0.591798 0.0786504 0.
0.59386 0.0786841 0.
0.595918 0.0786974 0.
0.597974 0.0787039 0.
0.600031 0.0787102 0.
0.60209 0.0786868 0.
0.60415 0.0786634 0.
0.606213 0.0786337 0.
0.608283 0.0785874 0.
0.610354 0.0785413 0.
0.612441 0.0784867 0.
0.614539 0.078425 0.
0.616636 0.0783636 0.
0.618835 0.0781614 0.
0.621036 0.0779522 0.
0.623291 0.0777181 0.
0.625631 0.0773979 0.
0.62796 0.0770832 0.
0.630574 0.0765894 0.
0.633165 0.0761273 0.
0.635939 0.0754092 0.
0.638736 0.0745674 0.
0.641781 0.0735427 0.
0.644904 0.0725037 0.
0.648071 0.0712636 0.
0.651232 0.0699399 0.
0.654469 0.0685471 0.
0.657709 0.0670478 0.
0.660967 0.0654493 0.
0.664245 0.0638608 0.
0.667553 0.0622611 0.
0.670861 0.0605237 0.
0.674159 0.0586214 0.
0.677474 0.0565666 0.
0.680802 0.0544133 0.
0.684105 0.0521874 0.
0.687414 0.0499305 0.
0.690745 0.0476913 0.
0.694116 0.0454647 0.
0.697529 0.043268 0.
0.700969 0.0410506 0.
0.704407 0.0386861 0.
0.707874 0.0362378 0.
0.711473 0.0337717 0.
0.715191 0.0312481 0.
0.719079 0.0287384 0.
0.723145 0.0262533 0.
0.727374 0.0236675 0.
0.73185 0.0212286 0.
0.736714 0.0190302 0.
0.741932 0.0171081 0.
0.747451 0.0158583 0.
0.753009 0.0153608 0.
0.758181 0.0155082 0.
0.440886 0.0161937 0.
0.446076 0.0162149 0.
0.451552 0.0168091 0.
0.456858 0.0182161 0.
0.461845 0.0201945 0.
0.466504 0.0224094 0.
0.470805 0.0248956 0.
0.474841 0.0274298 0.
0.47875 0.0298474 0.
0.482471 0.0322788 0.
0.486028 0.0347111 0.
0.489546 0.0370485 0.
0.493021 0.0393105 0.
0.496448 0.0415326 0.
0.499808 0.0437758 0.
0.503084 0.0461036 0.
0.506298 0.0484781 0.
0.509537 0.0508188 0.
0.512811 0.0530838 0.
0.516118 0.0552317 0.
0.519414 0.0572148 0.
0.522725 0.0590635 0.
0.526043 0.0608368 0.
0.529337 0.0626493 0.
0.53265 0.0644278 0.
0.535954 0.0660975 0.
0.539218 0.0676913 0.
0.54246 0.0691805 0.
0.545664 0.0706376 0.
0.54886 0.0721115 0.
0.552022 0.0734458 0.
0.555165 0.0746801 0.
0.558213 0.0757643 0.
0.561209 0.0767357 0.
0.564111 0.07744 0.
0.566964 0.0780633 0.
0.569591 0.0786535 0.
0.572218 0.0792706 0.
0.574488 0.0795329 0.
0.576766 0.0797956 0.
0.579004 0.08 0.
0.581224 0.0802059 0.
0.583437 0.0804035 0.
0.585525 0.0804573 0.
0.587612 0.0805114 0.
0.589693 0.080557 0.
0.591764 0.080593 0.
0.593836 0.0806291 0.
0.595904 0.0806432 0.
0.597971 0.0806497 0.
0.600038 0.080656 0.
0.602108 0.0806309 0.
0.604178 0.0806059 0.
0.606251 0.0805736 0.
0.608331 0.0805233 0.
0.610411 0.0804732 0.
0.612514 0.0804112 0.
0.614629 0.0803414 0.
0.616745 0.0802708 0.
0.618985 0.080026 0.
0.621221 0.0797785 0.
0.62354 0.079499 0.
0.625941 0.0791461 0.
0.628369 0.0787799 0.
0.631119 0.078149 0.
0.633832 0.077546 0.
0.636747 0.0766273 0.
0.63963 0.0756835 0.
0.642725 0.0746011 0.
0.645887 0.0734718 0.
0.649097 0.0721286 0.
0.652306 0.070751 0.
0.655553 0.0693311 0.
0.658811 0.0677607 0.
0.662074 0.0661448 0.
0.665373 0.0645521 0.
0.668685 0.0629122 0.
0.671975 0.0611341 0.
0.675249 0.059187 0.
0.67854 0.057112 0.
0.681836 0.0549548 0.
0.685111 0.0527392 0.
0.688378 0.0505157 0.
0.691661 0.0483165 0.
0.694962 0.0461348 0.
0.698314 0.0439818 0.
0.701677 0.0417947 0.
0.705028 0.0394744 0.
0.708403 0.0370779 0.
0.711864 0.0346695 0.
0.71546 0.0321972 0.
0.719213 0.0297418 0.
0.723132 0.0273054 0.
0.727214 0.0247703 0.
0.73151 0.022336 0.
0.736155 0.0201342 0.
0.741163 0.018165 0.
0.746437 0.0167905 0.
0.751802 0.0162717 0.
0.756886 0.0163296 0.
0.442231 0.0170721 0.
0.447294 0.0171294 0.
0.452556 0.0178136 0.
0.457615 0.0193379 0.
0.462402 0.0213465 0.
0.466848 0.0235747 0.
0.47095 0.026042 0.
0.474844 0.0285161 0.
0.478601 0.0308866 0.
0.482157 0.0332531 0.
0.485609 0.0356312 0.
0.489015 0.0379169 0.
0.492393 0.0401262 0.
0.495724 0.0423034 0.
0.499 0.0444961 0.
0.502213 0.0467625 0.
0.505388 0.0490941 0.
0.508594 0.0514131 0.
0.511841 0.0536747 0.
0.515105 0.0558336 0.
0.518363 0.0578366 0.
0.521652 0.0597065 0.
0.524954 0.0614742 0.
0.528248 0.0632764 0.
0.531558 0.0650788 0.
0.534857 0.0667747 0.
0.538119 0.0684177 0.
0.541355 0.0699418 0.
0.544579 0.071406 0.
0.547797 0.0729083 0.
0.550983 0.0743199 0.
0.554165 0.0756285 0.
0.557276 0.0768121 0.
0.560385 0.0779696 0.
0.563418 0.078786 0.
0.566452 0.0795255 0.
0.569103 0.0801865 0.
0.571763 0.0808988 0.
0.57414 0.0812197 0.
0.576523 0.0815192 0.
0.578841 0.0817851 0.
0.581093 0.0820528 0.
0.583345 0.0823161 0.
0.585448 0.0823758 0.
0.587551 0.0824356 0.
0.589647 0.0824859 0.
0.591728 0.0825244 0.
0.593809 0.0825629 0.
0.595888 0.0825775 0.
0.597967 0.0825836 0.
0.600046 0.0825895 0.
0.602128 0.0825628 0.
0.60421 0.0825362 0.
0.606294 0.0825016 0.
0.608383 0.0824477 0.
0.610472 0.082394 0.
0.612595 0.0823179 0.
0.614732 0.0822299 0.
0.616879 0.0821332 0.
0.619199 0.0818129 0.
0.6215 0.0815001 0.
0.623912 0.0811549 0.
0.626382 0.0807695 0.
0.628919 0.0803361 0.
0.631715 0.0796423 0.
0.634564 0.0788617 0.
0.63759 0.0777899 0.
0.640604 0.0767096 0.
0.643744 0.0755535 0.
0.646928 0.0743437 0.
0.65015 0.0729497 0.
0.653384 0.0715407 0.
0.656634 0.0700826 0.
0.659896 0.0684695 0.
0.663175 0.0668425 0.
0.666476 0.0652385 0.
0.66979 0.0635583 0.
0.673079 0.0617399 0.
0.676337 0.0597514 0.
0.679597 0.0576671 0.
0.682865 0.0555122 0.
0.686106 0.0533153 0.
0.689341 0.0511244 0.
0.692581 0.0489645 0.
0.69582 0.0468299 0.
0.6991 0.0447214 0.
0.702394 0.0425603 0.
0.70566 0.0402866 0.
0.70895 0.0379448 0.
0.712288 0.0355927 0.
0.715752 0.0331783 0.
0.719352 0.0307823 0.
0.723114 0.0284016 0.
0.727037 0.0259213 0.
0.731169 0.0234973 0.
0.735601 0.0212911 0.
0.740392 0.0192852 0.
0.74545 0.0177864 0.
0.750615 0.0171883 0.
0.755577 0.0172022 0.
0.443619 0.0179789 0.
0.448533 0.0180746 0.
0.453574 0.0188974 0.
0.458424 0.0205382 0.
0.462987 0.0225719 0.
0.467205 0.0248107 0.
0.471128 0.0272511 0.
0.474866 0.0296671 0.
0.47844 0.0319746 0.
0.481857 0.0342774 0.
0.485198 0.0365975 0.
0.488491 0.0388272 0.
0.491769 0.0409832 0.
0.495005 0.0431136 0.
0.498203 0.0452574 0.
0.501363 0.0474645 0.
0.504506 0.0497493 0.
0.507675 0.052039 0.
0.510883 0.0542852 0.
0.514102 0.0564445 0.
0.517334 0.0584705 0.
0.5206 0.0603588 0.
0.523891 0.0621342 0.
0.527183 0.0639166 0.
0.530481 0.0657233 0.
0.533775 0.0674556 0.
0.537028 0.0691263 0.
0.540262 0.0706866 0.
0.543495 0.072162 0.
0.546727 0.0736738 0.
0.549937 0.0751566 0.
0.553135 0.0765163 0.
0.556309 0.0777935 0.
0.559467 0.0790693 0.
0.562577 0.0800075 0.
0.565649 0.0807875 0.
0.568416 0.081558 0.
0.571175 0.0824114 0.
0.573732 0.0828707 0.
0.576253 0.0832294 0.
0.578675 0.0835647 0.
0.58096 0.0838946 0.
0.583249 0.0842256 0.
0.58537 0.0842939 0.
0.58749 0.0843596 0.
0.589599 0.0844148 0.
0.591691 0.0844557 0.
0.593782 0.0844966 0.
0.595873 0.0845118 0.
0.597964 0.0845176 0.
0.600054 0.084523 0.
0.602148 0.0844948 0.
0.604242 0.0844666 0.
0.606337 0.0844295 0.
0.608436 0.084372 0.
0.610534 0.0843147 0.
0.612676 0.0842234 0.
0.614836 0.084117 0.
0.617022 0.0839886 0.
0.619423 0.0835913 0.
0.621799 0.0832058 0.
0.624349 0.0827706 0.
0.626944 0.0823152 0.
0.629664 0.0817213 0.
0.632511 0.0809122 0.
0.63543 0.0799877 0.
0.638501 0.0788662 0.
0.64162 0.0776863 0.
0.644788 0.0764634 0.
0.648003 0.0751586 0.
0.651229 0.0737427 0.
0.654467 0.0723085 0.
0.657722 0.0707997 0.
0.660971 0.0691732 0.
0.664252 0.0675492 0.
0.667553 0.0659257 0.
0.670863 0.0642066 0.
0.674148 0.0623462 0.
0.677402 0.0603272 0.
0.680639 0.0582392 0.
0.683869 0.0560958 0.
0.68708 0.0539241 0.
0.69028 0.05177 0.
0.693483 0.0496486 0.
0.696673 0.0475597 0.
0.699873 0.0454955 0.
0.703092 0.0433677 0.
0.706285 0.0411395 0.
0.709494 0.0388524 0.
0.712727 0.0365522 0.
0.716049 0.0342052 0.
0.71949 0.0318691 0.
0.723083 0.0295521 0.
0.726837 0.0271381 0.
0.730788 0.0247381 0.
0.735019 0.0225181 0.
0.739577 0.0204886 0.
0.744423 0.0188796 0.
0.749395 0.0181337 0.
0.754224 0.0181072 0.
0.44509 0.0189017 0.
0.449847 0.0190848 0.
0.454682 0.0200898 0.
0.459309 0.0218376 0.
0.463618 0.0238901 0.
0.467613 0.0261445 0.
0.471341 0.0285413 0.
0.474898 0.0308806 0.
0.478287 0.033118 0.
0.481579 0.0353654 0.
0.484797 0.0376162 0.
0.487981 0.0397834 0.
0.491159 0.0418875 0.
0.494301 0.0439692 0.
0.497421 0.0460617 0.
0.500533 0.0482066 0.
0.503644 0.0504384 0.
0.50677 0.0526918 0.
0.509931 0.0549112 0.
0.513111 0.0570659 0.
0.516316 0.0591117 0.
0.51957 0.0610189 0.
0.522847 0.0628074 0.
0.526127 0.0645684 0.
0.529415 0.066369 0.
0.532698 0.0681367 0.
0.535941 0.0698235 0.
0.539174 0.0714205 0.
0.542411 0.0729175 0.
0.545654 0.0744218 0.
0.54888 0.075944 0.
0.552094 0.0773573 0.
0.555326 0.0787049 0.
0.558498 0.0800154 0.
0.561643 0.0810991 0.
0.564766 0.0819783 0.
0.56769 0.0828798 0.
0.57054 0.0838679 0.
0.573276 0.0844968 0.
0.575916 0.0849079 0.
0.578434 0.0853055 0.
0.58074 0.0856819 0.
0.583072 0.0860648 0.
0.585241 0.086164 0.
0.5874 0.0862497 0.
0.589542 0.0863202 0.
0.591647 0.086362 0.
0.593751 0.0864038 0.
0.595856 0.0864188 0.
0.59796 0.0864239 0.
0.600064 0.0864285 0.
0.602172 0.0863991 0.
0.60428 0.0863698 0.
0.60639 0.0863311 0.
0.608503 0.0862721 0.
0.610615 0.0862132 0.
0.612799 0.0860934 0.
0.615001 0.0859548 0.
0.617254 0.0857724 0.
0.619717 0.0853118 0.
0.622144 0.0848803 0.
0.624837 0.0843591 0.
0.627552 0.083835 0.
0.630448 0.0830477 0.
0.633354 0.0821126 0.
0.636378 0.0809861 0.
0.639476 0.0798284 0.
0.642651 0.0786 0.
0.645846 0.0773145 0.
0.649085 0.0759458 0.
0.652317 0.0745182 0.
0.655553 0.073062 0.
0.658806 0.0715006 0.
0.662056 0.0698711 0.
0.665326 0.0682557 0.
0.668613 0.0666098 0.
0.671914 0.0648576 0.
0.675197 0.0629547 0.
0.678432 0.0609218 0.
0.681659 0.0588337 0.
0.684858 0.0567049 0.
0.688033 0.0545614 0.
0.691203 0.0524448 0.
0.694368 0.050366 0.
0.697512 0.0483259 0.
0.700645 0.0463006 0.
0.703785 0.0442101 0.
0.706898 0.042037 0.
0.710019 0.0398126 0.
0.713156 0.0375602 0.
0.716346 0.0352816 0.
0.719633 0.0330166 0.
0.723035 0.0307669 0.
0.726603 0.0284302 0.
0.730351 0.0260738 0.
0.734364 0.0238479 0.
0.7387 0.0217887 0.
0.743296 0.0200885 0.
0.748064 0.019149 0.
0.752753 0.0190355 0.
0.446655 0.0198564 0.
0.451254 0.0202027 0.
0.455862 0.0214127 0.
0.460222 0.0232391 0.
0.464282 0.0253121 0.
0.468032 0.0275633 0.
0.471551 0.0298899 0.
0.474907 0.0321442 0.
0.478138 0.0343165 0.
0.481293 0.0364956 0.
0.48439 0.0386729 0.
0.487479 0.0407837 0.
0.490553 0.0428321 0.
0.493602 0.0448626 0.
0.49665 0.0469007 0.
0.499711 0.048979 0.
0.502782 0.0511524 0.
0.505857 0.0533622 0.
0.508978 0.0555511 0.
0.512125 0.0576949 0.
0.515312 0.0597567 0.
0.518549 0.0616822 0.
0.521812 0.0634881 0.
0.525085 0.0652385 0.
0.52836 0.0670232 0.
0.531622 0.0688097 0.
0.534867 0.0705161 0.
0.538094 0.0721498 0.
0.541333 0.0736711 0.
0.544595 0.075163 0.
0.54784 0.0767051 0.
0.551076 0.0781828 0.
0.554331 0.0795687 0.
0.557519 0.0808986 0.
0.560702 0.0821408 0.
0.563862 0.0831082 0.
0.566921 0.0841003 0.
0.569812 0.0851286 0.
0.572647 0.0859248 0.
0.575361 0.0864392 0.
0.578037 0.0869818 0.
0.580422 0.0874162 0.
0.582838 0.087861 0.
0.585082 0.0880099 0.
0.587295 0.0881259 0.
0.589481 0.0882194 0.
0.5916 0.0882621 0.
0.593719 0.0883048 0.
0.595837 0.0883197 0.
0.597956 0.088324 0.
0.600075 0.0883277 0.
0.602198 0.0882968 0.
0.60432 0.088266 0.
0.606446 0.0882254 0.
0.608577 0.0881645 0.
0.610707 0.0881038 0.
0.612951 0.0879426 0.
0.615217 0.0877573 0.
0.617576 0.087486 0.
0.620139 0.086924 0.
0.622673 0.0863934 0.
0.625468 0.0857857 0.
0.628258 0.0852078 0.
0.631261 0.084269 0.
0.634239 0.0831993 0.
0.637338 0.0819516 0.
0.64048 0.0807488 0.
0.643678 0.0794746 0.
0.646896 0.0781303 0.
0.650143 0.0767246 0.
0.653387 0.0752901 0.
0.656634 0.0738021 0.
0.659884 0.0722011 0.
0.663133 0.0705755 0.
0.666399 0.0689593 0.
0.669677 0.0672874 0.
0.672956 0.0655067 0.
0.676227 0.063567 0.
0.679453 0.0615274 0.
0.682662 0.0594461 0.
0.685836 0.0573351 0.
0.688981 0.0552213 0.
0.692119 0.0531442 0.
0.695248 0.0511111 0.
0.698349 0.0491193 0.
0.701423 0.0471317 0.
0.704481 0.0450837 0.
0.707518 0.0429664 0.
0.710543 0.0408123 0.
0.713576 0.0386175 0.
0.716652 0.0363986 0.
0.719794 0.0342086 0.
0.723016 0.0320323 0.
0.726379 0.0297808 0.
0.729916 0.0274864 0.
0.733672 0.0252821 0.
0.737754 0.0231965 0.
0.74211 0.0214097 0.
0.746635 0.0202728 0.
0.751158 0.0199993 0.
0.448258 0.0208796 0.
0.45268 0.021443 0.
0.457018 0.0228458 0.
0.461103 0.0247277 0.
0.464886 0.0268047 0.
0.468378 0.0290172 0.
0.471685 0.0312582 0.
0.474851 0.0334254 0.
0.477929 0.0355286 0.
0.480953 0.0376364 0.
0.483946 0.0397439 0.
0.48694 0.0417953 0.
0.489917 0.0437938 0.
0.492883 0.0457737 0.
0.495862 0.0477547 0.
0.498877 0.0497731 0.
0.501901 0.0518851 0.
0.504931 0.0540465 0.
0.50802 0.0562056 0.
0.51115 0.0583384 0.
0.514319 0.0604089 0.
0.517542 0.0623541 0.
0.520796 0.0641797 0.
0.524058 0.0659298 0.
0.527322 0.0676924 0.
0.530571 0.0694826 0.
0.53381 0.0712134 0.
0.537034 0.0728762 0.
0.540284 0.0744277 0.
0.543567 0.075914 0.
0.546823 0.0774615 0.
0.550072 0.0789928 0.
0.553334 0.0804128 0.
0.556546 0.0817641 0.
0.559747 0.083087 0.
0.562941 0.0841569 0.
0.566078 0.0851936 0.
0.56901 0.0862624 0.
0.571962 0.0872721 0.
0.574772 0.0879255 0.
0.577616 0.0886412 0.
0.580091 0.0891393 0.
0.582594 0.0896456 0.
0.584922 0.0898488 0.
0.587188 0.0899946 0.
0.589422 0.090114 0.
0.591554 0.0901572 0.
0.593687 0.0902003 0.
0.59582 0.090215 0.
0.597953 0.0902185 0.
0.600086 0.0902214 0.
0.602223 0.0901891 0.
0.60436 0.090157 0.
0.606502 0.0901147 0.
0.60865 0.0900527 0.
0.610797 0.089991 0.
0.613106 0.0897843 0.
0.615438 0.0895515 0.
0.617916 0.0891772 0.
0.620582 0.0885122 0.
0.623257 0.0878627 0.
0.62615 0.0871397 0.
0.629064 0.0864035 0.
0.632115 0.0853587 0.
0.635158 0.0841883 0.
0.638306 0.0828869 0.
0.641488 0.0816421 0.
0.644692 0.0803304 0.
0.647929 0.0789353 0.
0.651188 0.0775083 0.
0.654435 0.0760611 0.
0.657684 0.0745336 0.
0.660942 0.072911 0.
0.664195 0.0712932 0.
0.667454 0.0696666 0.
0.670724 0.0679655 0.
0.673993 0.06615 0.
0.677245 0.0641872 0.
0.680458 0.062149 0.
0.683654 0.0600765 0.
0.68681 0.0579849 0.
0.689927 0.0559034 0.
0.693038 0.053864 0.
0.696133 0.0518786 0.
0.699192 0.0499332 0.
0.702219 0.0479771 0.
0.705211 0.0459687 0.
0.708174 0.043907 0.
0.711111 0.0418181 0.
0.71404 0.0396886 0.
0.717 0.0375335 0.
0.720012 0.0354106 0.
0.723084 0.0333083 0.
0.726242 0.0311527 0.
0.72956 0.0289327 0.
0.733061 0.0267747 0.
0.736837 0.0246977 0.
0.740927 0.0228372 0.
0.745198 0.0215198 0.
0.749521 0.0210307 0.
0.449815 0.0220123 0.
0.454015 0.0228098 0.
0.458067 0.0243602 0.
0.461851 0.0262715 0.
0.465326 0.028315 0.
0.468576 0.0304601 0.
0.471673 0.0326043 0.
0.474664 0.0346864 0.
0.477604 0.0367185 0.
0.480516 0.0387601 0.
0.483421 0.0408005 0.
0.486325 0.0427986 0.
0.489214 0.0447545 0.
0.492111 0.0466869 0.
0.495038 0.0486192 0.
0.498009 0.0505843 0.
0.500989 0.0526316 0.
0.503988 0.0547465 0.
0.507056 0.0568786 0.
0.510176 0.0589991 0.
0.513335 0.0610734 0.
0.516551 0.0630388 0.
0.519799 0.0648853 0.
0.523048 0.066644 0.
0.526302 0.068388 0.
0.529541 0.0701674 0.
0.532775 0.0719227 0.
0.536008 0.0736081 0.
0.539274 0.0751906 0.
0.542565 0.0766864 0.
0.545834 0.0782303 0.
0.549091 0.0797904 0.
0.552353 0.0812409 0.
0.555584 0.0826169 0.
0.5588 0.0839873 0.
0.562016 0.0851588 0.
0.565181 0.0862269 0.
0.568203 0.0873635 0.
0.571243 0.0885175 0.
0.574179 0.0893546 0.
0.577119 0.0901712 0.
0.579691 0.0907165 0.
0.582248 0.0912442 0.
0.584683 0.0915468 0.
0.587041 0.0917865 0.
0.589362 0.0919886 0.
0.59151 0.0920325 0.
0.593658 0.0920764 0.
0.595805 0.0920912 0.
0.597952 0.0920941 0.
0.600099 0.0920965 0.
0.602249 0.0920623 0.
0.604399 0.0920281 0.
0.606556 0.0919819 0.
0.608722 0.0919141 0.
0.610887 0.0918467 0.
0.613327 0.0915275 0.
0.615768 0.0911965 0.
0.618353 0.0906999 0.
0.621054 0.0899994 0.
0.623851 0.0892693 0.
0.626834 0.0884553 0.
0.629879 0.0875372 0.
0.632979 0.0863911 0.
0.636084 0.0851085 0.
0.639265 0.0837993 0.
0.642477 0.0825207 0.
0.645687 0.0811626 0.
0.648933 0.0797387 0.
0.652201 0.0783044 0.
0.655456 0.0768385 0.
0.658706 0.0752667 0.
0.66197 0.073638 0.
0.665229 0.0720275 0.
0.668488 0.0703826 0.
0.671754 0.0686514 0.
0.675016 0.0667992 0.
0.678257 0.0648193 0.
0.681458 0.0627855 0.
0.684641 0.0607278 0.
0.687783 0.0586577 0.
0.690878 0.0566077 0.
0.693969 0.0546057 0.
0.697036 0.0526673 0.
0.70006 0.0507612 0.
0.703044 0.0488314 0.
0.705984 0.0468588 0.
0.708889 0.0448453 0.
0.711758 0.0428105 0.
0.714596 0.0407433 0.
0.717447 0.0386556 0.
0.720332 0.0366003 0.
0.723281 0.0345635 0.
0.726272 0.0324966 0.
0.729364 0.0303737 0.
0.73262 0.0282764 0.
0.736085 0.0262447 0.
0.739849 0.0243558 0.
0.743849 0.0228975 0.
0.747952 0.0221674 0.
0.451277 0.023289 0.
0.455199 0.0243007 0.
0.458939 0.0259433 0.
0.462385 0.0278315 0.
0.465567 0.0298155 0.
0.468591 0.031873 0.
0.471493 0.0339205 0.
0.474347 0.0359244 0.
0.477174 0.0378916 0.
0.479996 0.0398739 0.
0.482821 0.0418518 0.
0.485647 0.0438075 0.
0.488472 0.04573 0.
0.491322 0.0476245 0.
0.494209 0.0495194 0.
0.49714 0.0514359 0.
0.500089 0.0534238 0.
0.503074 0.0554963 0.
0.50613 0.0575985 0.
0.509246 0.0597045 0.
0.512396 0.0617746 0.
0.515601 0.0637527 0.
0.518839 0.0656192 0.
0.522072 0.0673884 0.
0.525313 0.0691198 0.
0.52855 0.0708824 0.
0.531786 0.0726528 0.
0.535031 0.0743586 0.
0.53831 0.07597 0.
0.541606 0.077483 0.
0.544882 0.079016 0.
0.548143 0.0805823 0.
0.551405 0.0820679 0.
0.554656 0.0834788 0.
0.557887 0.0848724 0.
0.561115 0.0861349 0.
0.564296 0.0872479 0.
0.567392 0.0884295 0.
0.570499 0.089652 0.
0.573504 0.0906005 0.
0.576476 0.091502 0.
0.579205 0.092201 0.
0.581859 0.0928026 0.
0.584426 0.0932281 0.
0.586885 0.0935699 0.
0.589302 0.0938632 0.
0.591465 0.0939078 0.
0.593628 0.0939525 0.
0.59579 0.0939673 0.
0.59795 0.0939698 0.
0.600111 0.0939715 0.
0.602275 0.0939354 0.
0.604438 0.0938992 0.
0.606611 0.0938488 0.
0.608794 0.0937752 0.
0.610977 0.093702 0.
0.613574 0.093249 0.
0.616154 0.0927944 0.
0.61887 0.0921305 0.
0.621624 0.0913406 0.
0.624514 0.0905105 0.
0.627536 0.08967 0.
0.630686 0.0886136 0.
0.633837 0.0873869 0.
0.636987 0.0860167 0.
0.640192 0.0847028 0.
0.64342 0.0833935 0.
0.646643 0.0819916 0.
0.649897 0.0805525 0.
0.653173 0.0791139 0.
0.656431 0.0776272 0.
0.659685 0.0760179 0.
0.662958 0.0743919 0.
0.666222 0.0727833 0.
0.669475 0.071121 0.
0.672741 0.0693595 0.
0.676002 0.0674706 0.
0.679232 0.0654849 0.
0.682426 0.063461 0.
0.685593 0.0614238 0.
0.688721 0.0593762 0.
0.691801 0.0573607 0.
0.69487 0.0553991 0.
0.697916 0.0535018 0.
0.70091 0.0516275 0.
0.703863 0.0497193 0.
0.706772 0.0477743 0.
0.709633 0.0458007 0.
0.712453 0.0438095 0.
0.715227 0.0417925 0.
0.717994 0.0397679 0.
0.720772 0.0377757 0.
0.723593 0.0358031 0.
0.726461 0.0338123 0.
0.729366 0.0317877 0.
0.732383 0.0297696 0.
0.735568 0.0278003 0.
0.738979 0.0259376 0.
0.74266 0.0243845 0.
0.746505 0.0234351 0.
0.452543 0.0247004 0.
0.456153 0.0258796 0.
0.459536 0.0275432 0.
0.462658 0.0293896 0.
0.465593 0.0312971 0.
0.468413 0.0332574 0.
0.471173 0.0352206 0.
0.473925 0.0371563 0.
0.476675 0.0390751 0.
0.479427 0.0410093 0.
0.482181 0.0429362 0.
0.484957 0.0448573 0.
0.487743 0.0467515 0.
0.490565 0.0486212 0.
0.493417 0.0504848 0.
0.496311 0.0523531 0.
0.499247 0.0542894 0.
0.502229 0.0563222 0.
0.505278 0.0583941 0.
0.508392 0.0604817 0.
0.511532 0.062536 0.
0.514727 0.0645184 0.
0.517944 0.0663972 0.
0.52116 0.0681757 0.
0.524396 0.0699045 0.
0.527632 0.0716476 0.
0.530867 0.0734213 0.
0.534129 0.0751456 0.
0.537412 0.0767778 0.
0.540702 0.0783096 0.
0.543976 0.0798264 0.
0.547246 0.0813907 0.
0.550516 0.0829114 0.
0.553771 0.0843574 0.
0.557017 0.0857578 0.
0.560252 0.0870855 0.
0.563449 0.0882554 0.
0.5666 0.0894376 0.
0.569739 0.0906776 0.
0.572801 0.0917666 0.
0.575819 0.0927834 0.
0.578703 0.0936577 0.
0.581454 0.0943299 0.
0.584165 0.0948797 0.
0.586721 0.0953157 0.
0.589237 0.0957157 0.
0.591417 0.0957608 0.
0.593597 0.0958061 0.
0.595774 0.0958212 0.
0.597949 0.0958236 0.
0.600125 0.0958251 0.
0.602303 0.0957878 0.
0.60448 0.0957506 0.
0.606669 0.0956961 0.
0.608871 0.0956167 0.
0.611071 0.0955379 0.
0.613831 0.094938 0.
0.616556 0.0943631 0.
0.61939 0.0935291 0.
0.622197 0.0926519 0.
0.625186 0.0917023 0.
0.628244 0.090788 0.
0.631466 0.0896227 0.
0.634668 0.0883213 0.
0.637851 0.0869282 0.
0.641065 0.0856174 0.
0.644304 0.0842773 0.
0.647542 0.0828409 0.
0.6508 0.0813908 0.
0.654079 0.0799484 0.
0.657348 0.0784327 0.
0.660602 0.0768039 0.
0.663874 0.0751858 0.
0.667147 0.073574 0.
0.670398 0.0718954 0.
0.673651 0.0701073 0.
0.676911 0.0681884 0.
0.680142 0.0662063 0.
0.683332 0.0641965 0.
0.686484 0.0621858 0.
0.689593 0.0601678 0.
0.692657 0.0581881 0.
0.69571 0.0562669 0.
0.698735 0.054409 0.
0.701709 0.0525573 0.
0.704638 0.0506669 0.
0.707529 0.0487439 0.
0.710369 0.0468029 0.
0.713151 0.0448497 0.
0.715885 0.0428741 0.
0.718594 0.0409017 0.
0.721291 0.0389635 0.
0.724012 0.0370461 0.
0.726772 0.0351217 0.
0.729551 0.0331795 0.
0.732367 0.0312506 0.
0.735305 0.0293463 0.
0.738408 0.0275318 0.
0.74174 0.025946 0.
0.745285 0.0248324 0.
0.453524 0.0262075 0.
0.456798 0.027494 0.
0.459843 0.0291691 0.
0.4627 0.0309607 0.
0.465424 0.0327784 0.
0.468096 0.0346525 0.
0.470768 0.0365531 0.
0.473452 0.0384379 0.
0.476149 0.040328 0.
0.478847 0.0422231 0.
0.481563 0.0441166 0.
0.484322 0.0460082 0.
0.487088 0.047875 0.
0.489886 0.0497219 0.
0.492702 0.0515522 0.
0.495574 0.053373 0.
0.498513 0.0552707 0.
0.501495 0.0572631 0.
0.504535 0.0593007 0.
0.507643 0.0613627 0.
0.510774 0.0633875 0.
0.513962 0.0653637 0.
0.517155 0.0672497 0.
0.520364 0.0690354 0.
0.523596 0.0707615 0.
0.526828 0.0724836 0.
0.530073 0.0742613 0.
0.533338 0.0760011 0.
0.536612 0.0776412 0.
0.539896 0.0791889 0.
0.543177 0.0807013 0.
0.546448 0.0822501 0.
0.549723 0.0837955 0.
0.552995 0.085276 0.
0.556242 0.0866786 0.
0.559489 0.0880345 0.
0.562702 0.0892664 0.
0.565876 0.0904534 0.
0.569033 0.0917075 0.
0.572149 0.0929063 0.
0.57523 0.0940317 0.
0.578276 0.0950588 0.
0.581114 0.095761 0.
0.583895 0.0964179 0.
0.586541 0.0969984 0.
0.589165 0.0975503 0.
0.591363 0.0975974 0.
0.593563 0.0976446 0.
0.595757 0.0976607 0.
0.597948 0.0976632 0.
0.60014 0.0976647 0.
0.602333 0.0976261 0.
0.604525 0.0975876 0.
0.606735 0.0975277 0.
0.608957 0.0974399 0.
0.611192 0.0973388 0.
0.614055 0.0965021 0.
0.616873 0.0957735 0.
0.619792 0.0948793 0.
0.622702 0.0939313 0.
0.625793 0.0928815 0.
0.628906 0.0918724 0.
0.632143 0.0906209 0.
0.635405 0.089267 0.
0.638619 0.0878638 0.
0.641841 0.0865573 0.
0.645082 0.0852009 0.
0.64833 0.0837427 0.
0.651599 0.0822796 0.
0.65488 0.080827 0.
0.658151 0.0792927 0.
0.661415 0.0776497 0.
0.664683 0.0760398 0.
0.667959 0.0744286 0.
0.671208 0.0727405 0.
0.674444 0.0709261 0.
0.677696 0.0689864 0.
0.680934 0.0670199 0.
0.684127 0.0650337 0.
0.687265 0.0630518 0.
0.690357 0.0610647 0.
0.693413 0.059115 0.
0.69645 0.0572368 0.
0.699451 0.0554222 0.
0.702411 0.0535977 0.
0.705331 0.0517213 0.
0.708206 0.0498127 0.
0.711043 0.0478961 0.
0.713813 0.0459856 0.
0.716522 0.0440437 0.
0.71919 0.042114 0.
0.721837 0.0402248 0.
0.724487 0.038353 0.
0.727162 0.0364802 0.
0.729853 0.0346007 0.
0.732535 0.0327479 0.
0.735265 0.0309128 0.
0.738125 0.0291442 0.
0.74114 0.0275441 0.
0.744362 0.0263136 0.
CELLS 5000 10000
1 0
1 1
1 2
1 3
1 4
1 5
1 6
1 7
1 8
1 9
1 10
1 11
1 12
1 13
1 14
1 15
1 16
1 17
1 18
1 19
1 20
1 21
1 22
1 23
1 24
1 25
1 26
1 27
1 28
1 29
1 30
1 31
1 32
1 33
1 34
1 35
1 36
1 37
1 38
1 39
1 40
1 41
1 42
1 43
1 44
1 45
1 46
1 47
1 48
1 49
1 50
1 51
1 52
1 53
1 54
1 55
1 56
1 57
1 58
1 59
1 60
1 61
1 62
1 63
1 64
1 65
1 66
1 67
1 68
1 69
1 70
1 71
1 72
1 73
1 74
1 75
1 76
1 77
1 78
1 79
1 80
1 81
1 82
1 83
1 84
1 85
1 86
1 87
1 88
1 89
1 90
1 91
1 92
1 93
1 94
1 95
1 96
1 97
1 98
1 99
1 100
1 101
1 102
1 103
1 104
1 105
1 106
1 107
1 108
1 109
1 110
1 111
1 112
1 113
1 114
1 115
1 116
1 117
1 118
1 119
1 120
1 121
1 122
1 123
1 124
1 125
1 126
1 127
1 128
1 129
1 130
1 131
1 132
1 133
1 134
1 135
1 136
1 137
1 138
1 139
1 140
1 141
1 142
1 143
1 144
1 145
1 146
1 147
1 148
1 149
1 150
1 151
1 152
1 153
1 154
1 155
1 156
1 157
1 158
1 159
1 160
1 161
1 162
1 163
1 164
1 165
1 166
1 167
1 168
1 169
1 170
1 171
1 172
1 173
1 174
1 175
1 176
1 177
1 178
1 179
1 180
1 181
1 182
1 183
1 184
1 185
1 186
1 187
1 188
1 189
1 190
1 191
1 192
1 193
1 194
1 195
1 196
1 197
1 198
1 199
1 200
1 201
1 202
1 203
1 204
1 205
1 206
1 207
1 208
1 209
1 210
1 211
1 212
1 213
1 214
1 215
1 216
1 217
1 218
1 219
1 220
1 221
1 222
1 223
1 224
1 225
1 226
1 227
1 228
1 229
1 230
1 231
1 232
1 233
1 234
1 235
1 236
1 237
1 238
1 239
1 240
1 241
1 242
1 243
1 244
1 245
1 246
1 247
1 248
1 249
1 250
1 251
1 252
1 253
1 254
1 255
1 256
1 257
1 258
1 259
1 260
1 261
1 262
1 263
1 264
1 265
1 266
1 267
1 268
1 269
1 270
1 271
1 272
1 273
1 274
1 275
1 276
1 277
1 278
1 279
1 280
1 281
1 282
1 283
1 284
1 285
1 286
1 287
1 288
1 289
1 290
1 291
1 292
1 293
1 294
1 295
1 296
1 297
1 298
1 299
1 300
1 301
1 302
1 303
1 304
1 305
1 306
1 307
1 308
1 309
1 310
1 311
1 312
1 313
1 314
1 315
1 316
1 317
1 318
1 319
1 320
1 321
1 322
1 323
1 324
1 325
1 326
1 327
1 328
1 329
1 330
1 331
1 332
1 333
1 334
1 335
1 336
1 337
1 338
1 339
1 340
1 341
1 342
1 343
1 344
1 345
1 346
1 347
1 348
1 349
1 350
1 351
1 352
1 353
1 354
1 355
1 356
1 357
1 358
1 359
1 360
1 361
1 362
1 363
1 364
1 365
1 366
1 367
1 368
1 369
1 370
1 371
1 372
1 373
1 374
1 375
1 376
1 377
1 378
1 379
1 380
1 381
1 382
1 383
1 384
1 385
1 386
1 387
1 388
1 389
1 390
1 391
1 392
1 393
1 394
1 395
1 396
1 397
1 398
1 399
1 400
1 401
1 402
1 403
1 404
1 405
1 406
1 407
1 408
1 409
1 410
1 411
1 412
1 413
1 414
1 415
1 416
1 417
1 418
1 419
1 420
1 421
1 422
1 423
1 424
1 425
1 426
1 427
1 428
1 429
1 430
1 431
1 432
1 433
1 434
1 435
1 436
1 437
1 438
1 439
1 440
1 441
1 442
1 443
1 444
1 445
1 446
1 447
1 448
1 449
1 450
1 451
1 452
1 453
1 454
1 455
1 456
1 457
1 458
1 459
1 460
1 461
1 462
1 463
1 464
1 465
1 466
1 467
1 468
1 469
1 470
1 471
1 472
1 473
1 474
1 475
1 476
1 477
1 478
1 479
1 480
1 481
1 482
1 483
1 484
1 485
1 486
1 487
1 488
1 489
1 490
1 491
1 492
1 493
1 494
1 495
1 496
1 497
1 498
1 499
1 500
1 501
1 502
1 503
1 504
1 505
1 506
1 507
1 508
1 509
1 510
1 511
1 512
1 513
1 514
1 515
1 516
1 517
1 518
1 519
1 520
1 521
1 522
1 523
1 524
1 525
1 526
1 527
1 528
1 529
1 530
1 531
1 532
1 533
1 534
1 535
1 536
1 537
1 538
1 539
1 540
1 541
1 542
1 543
1 544
1 545
1 546
1 547
1 548
1 549
1 550
1 551
1 552
1 553
1 554
1 555
1 556
1 557
1 558
1 559
1 560
1 561
1 562
1 563
1 564
1 565
1 566
1 567
1 568
1 569
1 570
1 571
1 572
1 573
1 574
1 575
1 576
1 577
1 578
1 579
1 580
1 581
1 582
1 583
1 584
1 585
1 586
1 587
1 588
1 589
1 590
1 591
1 592
1 593
1 594
1 595
1 596
1 597
1 598
1 599
1 600
1 601
1 602
1 603
1 604
1 605
1 606
1 607
1 608
1 609
1 610
1 611
1 612
1 613
1 614
1 615
1 616
1 617
1 618
1 619
1 620
1 621
1 622
1 623
1 624
1 625
1 626
1 627
1 628
1 629
1 630
1 631
1 632
1 633
1 634
1 635
1 636
1 637
1 638
1 639
1 640
1 641
1 642
1 643
1 644
1 645
1 646
1 647
1 648
1 649
1 650
1 651
1 652
1 653
1 654
1 655
1 656
1 657
1 658
1 659
1 660
1 661
1 662
1 663
1 664
1 665
1 666
1 667
1 668
1 669
1 670
1 671
1 672
1 673
1 674
1 675
1 676
1 677
1 678
1 679
1 680
1 681
1 682
1 683
1 684
1 685
1 686
1 687
1 688
1 689
1 690
1 691
1 692
1 693
1 694
1 695
1 696
1 697
1 698
1 699
1 700
1 701
1 702
1 703
1 704
1 705
1 706
1 707
1 708
1 709
1 710
1 711
1 712
1 713
1 714
1 715
1 716
1 717
1 718
1 719
1 720
1 721
1 722
1 723
1 724
1 725
1 726
1 727
1 728
1 729
1 730
1 731
1 732
1 733
1 734
1 735
1 736
1 737
1 738
1 739
1 740
1 741
1 742
1 743
1 744
1 745
1 746
1 747
1 748
1 749
1 750
1 751
1 752
1 753
1 754
1 755
1 756
1 757
1 758
1 759
1 760
1 761
1 762
1 763
1 764
1 765
1 766
1 767
1 768
1 769
1 770
1 771
1 772
1 773
1 774
1 775
1 776
1 777
1 778
1 779
1 780
1 781
1 782
1 783
1 784
1 785
1 786
1 787
1 788
1 789
1 790
1 791
1 792
1 793
1 794
1 795
1 796
1 797
1 798
1 799
1 800
1 801
1 802
1 803
1 804
1 805
1 806
1 807
1 808
1 809
1 810
1 811
1 812
1 813
1 814
1 815
1 816
1 817
1 818
1 819
1 820
1 821
1 822
1 823
1 824
1 825
1 826
1 827
1 828
1 829
1 830
1 831
1 832
1 833
1 834
1 835
1 836
1 837
1 838
1 839
1 840
1 841
1 842
1 843
1 844
1 845
1 846
1 847
1 848
1 849
1 850
1 851
1 852
1 853
1 854
1 855
1 856
1 857
1 858
1 859
1 860
1 861
1 862
1 863
1 864
1 865
1 866
1 867
1 868
1 869
1 870
1 871
1 872
1 873
1 874
1 875
1 876
1 877
1 878
1 879
1 880
1 881
1 882
1 883
1 884
1 885
1 886
1 887
1 888
1 889
1 890
1 891
1 892
1 893
1 894
1 895
1 896
1 897
1 898
1 899
1 900
1 901
1 902
1 903
1 904
1 905
1 906
1 907
1 908
1 909
1 910
1 911
1 912
1 913
1 914
1 915
1 916
1 917
1 918
1 919
1 920
1 921
1 922
1 923
1 924
1 925
1 926
1 927
1 928
1 929
1 930
1 931
1 932
1 933
1 934
1 935
1 936
1 937
1 938
1 939
1 940
1 941
1 942
1 943
1 944
1 945
1 946
1 947
1 948
1 949
1 950
1 951
1 952
1 953
1 954
1 955
1 956
1 957
1 958
1 959
1 960
1 961
1 962
1 963
1 964
1 965
1 966
1 967
1 968
1 969
1 970
1 971
1 972
1 973
1 974
1 975
1 976
1 977
1 978
1 979
1 980
1 981
1 982
1 983
1 984
1 985
1 986
1 987
1 988
1 989
1 990
1 991
1 992
1 993
1 994
1 995
1 996
1 997
1 998
1 999
1 1000
1 1001
1 1002
1 1003
1 1004
1 1005
1 1006
1 1007
1 1008
1 1009
1 1010
1 1011
1 1012
1 1013
1 1014
1 1015
1 1016
1 1017
1 1018
1 1019
1 1020
1 1021
1 1022
1 1023
1 1024
1 1025
1 1026
1 1027
1 1028
1 1029
1 1030
1 1031
1 1032
1 1033
1 1034
1 1035
1 1036
1 1037
1 1038
1 1039
1 1040
1 1041
1 1042
1 1043
1 1044
1 1045
1 1046
1 1047
1 1048
1 1049
1 1050
1 1051
1 1052
1 1053
1 1054
1 1055
1 1056
1 1057
1 1058
1 1059
1 1060
1 1061
1 1062
1 1063
1 1064
1 1065
1 1066
1 1067
1 1068
1 1069
1 1070
1 1071
1 1072
1 1073
1 1074
1 1075
1 1076
1 1077
1 1078
1 1079
1 1080
1 1081
1 1082
1 1083
1 1084
1 1085
1 1086
1 1087
1 1088
1 1089
1 1090
1 1091
1 1092
1 1093
1 1094
1 1095
1 1096
1 1097
1 1098
1 1099
1 1100
1 1101
1 1102
1 1103
1 1104
1 1105
1 1106
1 1107
1 1108
1 1109
1 1110
1 1111
1 1112
1 1113
1 1114
1 1115
1 1116
1 1117
1 1118
1 1119
1 1120
1 1121
1 1122
1 1123
1 1124
1 1125
1 1126
1 1127
1 1128
1 1129
1 1130
1 1131
1 1132
1 1133
1 1134
1 1135
1 1136
1 1137
1 1138
1 1139
1 1140
1 1141
1 1142
1 1143
1 1144
1 1145
1 1146
1 1147
1 1148
1 1149
1 1150
1 1151
1 1152
1 1153
1 1154
1 1155
1 1156
1 1157
1 1158
1 1159
1 1160
1 1161
1 1162
1 1163
1 1164
1 1165
1 1166
1 1167
1 1168
1 1169
1 1170
1 1171
1 1172
1 1173
1 1174
1 1175
1 1176
1 1177
1 1178
1 1179
1 1180
1 1181
1 1182
1 1183
1 1184
1 1185
1 1186
1 1187
1 1188
1 1189
1 1190
1 1191
1 1192
1 1193
1 1194
1 1195
1 1196
1 1197
1 1198
1 1199
1 1200
1 1201
1 1202
1 1203
1 1204
1 1205
1 1206
1 1207
1 1208
1 1209
1 1210
1 1211
1 1212
1 1213
1 1214
1 1215
1 1216
1 1217
1 1218
1 1219
1 1220
1 1221
1 1222
1 1223
1 1224
1 1225
1 1226
1 1227
1 1228
1 1229
1 1230
1 1231
1 1232
1 1233
1 1234
1 1235
1 1236
1 1237
1 1238
1 1239
1 1240
1 1241
1 1242
1 1243
1 1244
1 1245
1 1246
1 1247
1 1248
1 1249
1 1250
1 1251
1 1252
1 1253
1 1254
1 1255
1 1256
1 1257
1 1258
1 1259
1 1260
1 1261
1 1262
1 1263
1 1264
1 1265
1 1266
1 1267
1 1268
1 1269
1 1270
1 1271
1 1272
1 1273
1 1274
1 1275
1 1276
1 1277
1 1278
1 1279
1 1280
1 1281
1 1282
1 1283
1 1284
1 1285
1 1286
1 1287
1 1288
1 1289
1 1290
1 1291
1 1292
1 1293
1 1294
1 1295
1 1296
1 1297
1 1298
1 1299
1 1300
1 1301
1 1302
1 1303
1 1304
1 1305
1 1306
1 1307
1 1308
1 1309
1 1310
1 1311
1 1312
1 1313
1 1314
1 1315
1 1316
1 1317
1 1318
1 1319
1 1320
1 1321
1 1322
1 1323
1 1324
1 1325
1 1326
1 1327
1 1328
1 1329
1 1330
1 1331
1 1332
1 1333
1 1334
1 1335
1 1336
1 1337
1 1338
1 1339
1 1340
1 1341
1 1342
1 1343
1 1344
1 1345
1 1346
1 1347
1 1348
1 1349
1 1350
1 1351
1 1352
1 1353
1 1354
1 1355
1 1356
1 1357
1 1358
1 1359
1 1360
1 1361
1 1362
1 1363
1 1364
1 1365
1 1366
1 1367
1 1368
1 1369
1 1370
1 1371
1 1372
1 1373
1 1374
1 1375
1 1376
1 1377
1 1378
1 1379
1 1380
1 1381
1 1382
1 1383
1 1384
1 1385
1 1386
1 1387
1 1388
1 1389
1 1390
1 1391
1 1392
1 1393
1 1394
1 1395
1 1396
1 1397
1 1398
1 1399
1 1400
1 1401
1 1402
1 1403
1 1404
1 1405
1 1406
1 1407
1 1408
1 1409
1 1410
1 1411
1 1412
1 1413
1 1414
1 1415
1 1416
1 1417
1 1418
1 1419
1 1420
1 1421
1 1422
1 1423
1 1424
1 1425
1 1426
1 1427
1 1428
1 1429
1 1430
1 1431
1 1432
1 1433
1 1434
1 1435
1 1436
1 1437
1 1438
1 1439
1 1440
1 1441
1 1442
1 1443
1 1444
1 1445
1 1446
1 1447
1 1448
1 1449
1 1450
1 1451
1 1452
1 1453
1 1454
1 1455
1 1456
1 1457
1 1458
1 1459
1 1460
1 1461
1 1462
1 1463
1 1464
1 1465
1 1466
1 1467
1 1468
1 1469
1 1470
1 1471
1 1472
1 1473
1 1474
1 1475
1 1476
1 1477
1 1478
1 1479
1 1480
1 1481
1 1482
1 1483
1 1484
1 1485
1 1486
1 1487
1 1488
1 1489
1 1490
1 1491
1 1492
1 1493
1 1494
1 1495
1 1496
1 1497
1 1498
1 1499
1 1500
1 1501
1 1502
1 1503
1 1504
1 1505
1 1506
1 1507
1 1508
1 1509
1 1510
1 1511
1 1512
1 1513
1 1514
1 1515
1 1516
1 1517
1 1518
1 1519
1 1520
1 1521
1 1522
1 1523
1 1524
1 1525
1 1526
1 1527
1 1528
1 1529
1 1530
1 1531
1 1532
1 1533
1 1534
1 1535
1 1536
1 1537
1 1538
1 1539
1 1540
1 1541
1 1542
1 1543
1 1544
1 1545
1 1546
1 1547
1 1548
1 1549
1 1550
1 1551
1 1552
1 1553
1 1554
1 1555
1 1556
1 1557
1 1558
1 1559
1 1560
1 1561
1 1562
1 1563
1 1564
1 1565
1 1566
1 1567
1 1568
1 1569
1 1570
1 1571
1 1572
1 1573
1 1574
1 1575
1 1576
1 1577
1 1578
1 1579
1 1580
1 1581
1 1582
1 1583
1 1584
1 1585
1 1586
1 1587
1 1588
1 1589
1 1590
1 1591
1 1592
1 1593
1 1594
1 1595
1 1596
1 1597
1 1598
1 1599
1 1600
1 1601
1 1602
1 1603
1 1604
1 1605
1 1606
1 1607
1 1608
1 1609
1 1610
1 1611
1 1612
1 1613
1 1614
1 1615
1 1616
1 1617
1 1618
1 1619
1 1620
1 1621
1 1622
1 1623
1 1624
1 1625
1 1626
1 1627
1 1628
1 1629
1 1630
1 1631
1 1632
1 1633
1 1634
1 1635
1 1636
1 1637
1 1638
1 1639
1 1640
1 1641
1 1642
1 1643
1 1644
1 1645
1 1646
1 1647
1 1648
1 1649
1 1650
1 1651
1 1652
1 1653
1 1654
1 1655
1 1656
1 1657
1 1658
1 1659
1 1660
1 1661
1 1662
1 1663
1 1664
1 1665
1 1666
1 1667
1 1668
1 1669
1 1670
1 1671
1 1672
1 1673
1 1674
1 1675
1 1676
1 1677
1 1678
1 1679
1 1680
1 1681
1 1682
1 1683
1 1684
1 1685
1 1686
1 1687
1 1688
1 1689
1 1690
1 1691
1 1692
1 1693
1 1694
1 1695
1 1696
1 1697
1 1698
1 1699
1 1700
1 1701
1 1702
1 1703
1 1704
1 1705
1 1706
1 1707
1 1708
1 1709
1 1710
1 1711
1 1712
1 1713
1 1714
1 1715
1 1716
1 1717
1 1718
1 1719
1 1720
1 1721
1 1722
1 1723
1 1724
1 1725
1 1726
1 1727
1 1728
1 1729
1 1730
1 1731
1 1732
1 1733
1 1734
1 1735
1 1736
1 1737
1 1738
1 1739
1 1740
1 1741
1 1742
1 1743
1 1744
1 1745
1 1746
1 1747
1 1748
1 1749
1 1750
1 1751
1 1752
1 1753
1 1754
1 1755
1 1756
1 1757
1 1758
1 1759
1 1760
1 1761
1 1762
1 1763
1 1764
1 1765
1 1766
1 1767
1 1768
1 1769
1 1770
1 1771
1 1772
1 1773
1 1774
1 1775
1 1776
1 1777
1 1778
1 1779
1 1780
1 1781
1 1782
1 1783
1 1784
1 1785
1 1786
1 1787
1 1788
1 1789
1 1790
1 1791
1 1792
1 1793
1 1794
1 1795
1 1796
1 1797
1 1798
1 1799
1 1800
1 1801
1 1802
1 1803
1 1804
1 1805
1 1806
1 1807
1 1808
1 1809
1 1810
1 1811
1 1812
1 1813
1 1814
1 1815
1 1816
1 1817
1 1818
1 1819
1 1820
1 1821
1 1822
1 1823
1 1824
1 1825
1 1826
1 1827
1 1828
1 1829
1 1830
1 1831
1 1832
1 1833
1 1834
1 1835
1 1836
1 1837
1 1838
1 1839
1 1840
1 1841
1 1842
1 1843
1 1844
1 1845
1 1846
1 1847
1 1848
1 1849
1 1850
1 1851
1 1852
1 1853
1 1854
1 1855
1 1856
1 1857
1 1858
1 1859
1 1860
1 1861
1 1862
1 1863
1 1864
1 1865
1 1866
1 1867
1 1868
1 1869
1 1870
1 1871
1 1872
1 1873
1 1874
1 1875
1 1876
1 1877
1 1878
1 1879
1 1880
1 1881
1 1882
1 1883
1 1884
1 1885
1 1886
1 1887
1 1888
1 1889
1 1890
1 1891
1 1892
1 1893
1 1894
1 1895
1 1896
1 1897
1 1898
1 1899
1 1900
1 1901
1 1902
1 1903
1 1904
1 1905
1 1906
1 1907
1 1908
1 1909
1 1910
1 1911
1 1912
1 1913
1 1914
1 1915
1 1916
1 1917
1 1918
1 1919
1 1920
1 1921
1 1922
1 1923
1 1924
1 1925
1 1926
1 1927
1 1928
1 1929
1 1930
1 1931
1 1932
1 1933
1 1934
1 1935
1 1936
1 1937
1 1938
1 1939
1 1940
1 1941
1 1942
1 1943
1 1944
1 1945
1 1946
1 1947
1 1948
1 1949
1 1950
1 1951
1 1952
1 1953
1 1954
1 1955
1 1956
1 1957
1 1958
1 1959
1 1960
1 1961
1 1962
1 1963
1 1964
1 1965
1 1966
1 1967
1 1968
1 1969
1 1970
1 1971
1 1972
1 1973
1 1974
1 1975
1 1976
1 1977
1 1978
1 1979
1 1980
1 1981
1 1982
1 1983
1 1984
1 1985
1 1986
1 1987
1 1988
1 1989
1 1990
1 1991
1 1992
1 1993
1 1994
1 1995
1 1996
1 1997
1 1998
1 1999
1 2000
1 2001
1 2002
1 2003
1 2004
1 2005
1 2006
1 2007
1 2008
1 2009
1 2010
1 2011
1 2012
1 2013
1 2014
1 2015
1 2016
1 2017
1 2018
1 2019
1 2020
1 2021
1 2022
1 2023
1 2024
1 2025
1 2026
1 2027
1 2028
1 2029
1 2030
1 2031
1 2032
1 2033
1 2034
1 2035
1 2036
1 2037
1 2038
1 2039
1 2040
1 2041
1 2042
1 2043
1 2044
1 2045
1 2046
1 2047
1 2048
1 2049
1 2050
1 2051
1 2052
1 2053
1 2054
1 2055
1 2056
1 2057
1 2058
1 2059
1 2060
1 2061
1 2062
1 2063
1 2064
1 2065
1 2066
1 2067
1 2068
1 2069
1 2070
1 2071
1 2072
1 2073
1 2074
1 2075
1 2076
1 2077
1 2078
1 2079
1 2080
1 2081
1 2082
1 2083
1 2084
1 2085
1 2086
1 2087
1 2088
1 2089
1 2090
1 2091
1 2092
1 2093
1 2094
1 2095
1 2096
1 2097
1 2098
1 2099
1 2100
1 2101
1 2102
1 2103
1 2104
1 2105
1 2106
1 2107
1 2108
1 2109
1 2110
1 2111
1 2112
1 2113
1 2114
1 2115
1 2116
1 2117
1 2118
1 2119
1 2120
1 2121
1 2122
1 2123
1 2124
1 2125
1 2126
1 2127
1 2128
1 2129
1 2130
1 2131
1 2132
1 2133
1 2134
1 2135
1 2136
1 2137
1 2138
1 2139
1 2140
1 2141
1 2142
1 2143
1 2144
1 2145
1 2146
1 2147
1 2148
1 2149
1 2150
1 2151
1 2152
1 2153
1 2154
1 2155
1 2156
1 2157
1 2158
1 2159
1 2160
1 2161
1 2162
1 2163
1 2164
1 2165
1 2166
1 2167
1 2168
1 2169
1 2170
1 2171
1 2172
1 2173
1 2174
1 2175
1 2176
1 2177
1 2178
1 2179
1 2180
1 2181
1 2182
1 2183
1 2184
1 2185
1 2186
1 2187
1 2188
1 2189
1 2190
1 2191
1 2192
1 2193
1 2194
1 2195
1 2196
1 2197
1 2198
1 2199
1 2200
1 2201
1 2202
1 2203
1 2204
1 2205
1 2206
1 2207
1 2208
1 2209
1 2210
1 2211
1 2212
1 2213
1 2214
1 2215
1 2216
1 2217
1 2218
1 2219
1 2220
1 2221
1 2222
1 2223
1 2224
1 2225
1 2226
1 2227
1 2228
1 2229
1 2230
1 2231
1 2232
1 2233
1 2234
1 2235
1 2236
1 2237
1 2238
1 2239
1 2240
1 2241
1 2242
1 2243
1 2244
1 2245
1 2246
1 2247
1 2248
1 2249
1 2250
1 2251
1 2252
1 2253
1 2254
1 2255
1 2256
1 2257
1 2258
1 2259
1 2260
1 2261
1 2262
1 2263
1 2264
1 2265
1 2266
1 2267
1 2268
1 2269
1 2270
1 2271
1 2272
1 2273
1 2274
1 2275
1 2276
1 2277
1 2278
1 2279
1 2280
1 2281
1 2282
1 2283
1 2284
1 2285
1 2286
1 2287
1 2288
1 2289
1 2290
1 2291
1 2292
1 2293
1 2294
1 2295
1 2296
1 2297
1 2298
1 2299
1 2300
1 2301
1 2302
1 2303
1 2304
1 2305
1 2306
1 2307
1 2308
1 2309
1 2310
1 2311
1 2312
1 2313
1 2314
1 2315
1 2316
1 2317
1 2318
1 2319
1 2320
1 2321
1 2322
1 2323
1 2324
1 2325
1 2326
1 2327
1 2328
1 2329
1 2330
1 2331
1 2332
1 2333
1 2334
1 2335
1 2336
1 2337
1 2338
1 2339
1 2340
1 2341
1 2342
1 2343
1 2344
1 2345
1 2346
1 2347
1 2348
1 2349
1 2350
1 2351
1 2352
1 2353
1 2354
1 2355
1 2356
1 2357
1 2358
1 2359
1 2360
1 2361
1 2362
1 2363
1 2364
1 2365
1 2366
1 2367
1 2368
1 2369
1 2370
1 2371
1 2372
1 2373
1 2374
1 2375
1 2376
1 2377
1 2378
1 2379
1 2380
1 2381
1 2382
1 2383
1 2384
1 2385
1 2386
1 2387
1 2388
1 2389
1 2390
1 2391
1 2392
1 2393
1 2394
1 2395
1 2396
1 2397
1 2398
1 2399
1 2400
1 2401
1 2402
1 2403
1 2404
1 2405
1 2406
1 2407
1 2408
1 2409
1 2410
1 2411
1 2412
1 2413
1 2414
1 2415
1 2416
1 2417
1 2418
1 2419
1 2420
1 2421
1 2422
1 2423
1 2424
1 2425
1 2426
1 2427
1 2428
1 2429
1 2430
1 2431
1 2432
1 2433
1 2434
1 2435
1 2436
1 2437
1 2438
1 2439
1 2440
1 2441
1 2442
1 2443
1 2444
1 2445
1 2446
1 2447
1 2448
1 2449
1 2450
1 2451
1 2452
1 2453
1 2454
1 2455
1 2456
1 2457
1 2458
1 2459
1 2460
1 2461
1 2462
1 2463
1 2464
1 2465
1 2466
1 2467
1 2468
1 2469
1 2470
1 2471
1 2472
1 2473
1 2474
1 2475
1 2476
1 2477
1 2478
1 2479
1 2480
1 2481
1 2482
1 2483
1 2484
1 2485
1 2486
1 2487
1 2488
1 2489
1 2490
1 2491
1 2492
1 2493
1 2494
1 2495
1 2496
1 2497
1 2498
1 2499
1 2500
1 2501
1 2502
1 2503
1 2504
1 2505
1 2506
1 2507
1 2508
1 2509
1 2510
1 2511
1 2512
1 2513
1 2514
1 2515
1 2516
1 2517
1 2518
1 2519
1 2520
1 2521
1 2522
1 2523
1 2524
1 2525
1 2526
1 2527
1 2528
1 2529
1 2530
1 2531
1 2532
1 2533
1 2534
1 2535
1 2536
1 2537
1 2538
1 2539
1 2540
1 2541
1 2542
1 2543
1 2544
1 2545
1 2546
1 2547
1 2548
1 2549
1 2550
1 2551
1 2552
1 2553
1 2554
1 2555
1 2556
1 2557
1 2558
1 2559
1 2560
1 2561
1 2562
1 2563
1 2564
1 2565
1 2566
1 2567
1 2568
1 2569
1 2570
1 2571
1 2572
1 2573
1 2574
1 2575
1 2576
1 2577
1 2578
1 2579
1 2580
1 2581
1 2582
1 2583
1 2584
1 2585
1 2586
1 2587
1 2588
1 2589
1 2590
1 2591
1 2592
1 2593
1 2594
1 2595
1 2596
1 2597
1 2598
1 2599
1 2600
1 2601
1 2602
1 2603
1 2604
1 2605
1 2606
1 2607
1 2608
1 2609
1 2610
1 2611
1 2612
1 2613
1 2614
1 2615
1 2616
1 2617
1 2618
1 2619
1 2620
1 2621
1 2622
1 2623
1 2624
1 2625
1 2626
1 2627
1 2628
1 2629
1 2630
1 2631
1 2632
1 2633
1 2634
1 2635
1 2636
1 2637
1 2638
1 2639
1 2640
1 2641
1 2642
1 2643
1 2644
1 2645
1 2646
1 2647
1 2648
1 2649
1 2650
1 2651
1 2652
1 2653
1 2654
1 2655
1 2656
1 2657
1 2658
1 2659
1 2660
1 2661
1 2662
1 2663
1 2664
1 2665
1 2666
1 2667
1 2668
1 2669
1 2670
1 2671
1 2672
1 2673
1 2674
1 2675
1 2676
1 2677
1 2678
1 2679
1 2680
1 2681
1 2682
1 2683
1 2684
1 2685
1 2686
1 2687
1 2688
1 2689
1 2690
1 2691
1 2692
1 2693
1 2694
1 2695
1 2696
1 2697
1 2698
1 2699
1 2700
1 2701
1 2702
1 2703
1 2704
1 2705
1 2706
1 2707
1 2708
1 2709
1 2710
1 2711
1 2712
1 2713
1 2714
1 2715
1 2716
1 2717
1 2718
1 2719
1 2720
1 2721
1 2722
1 2723
1 2724
1 2725
1 2726
1 2727
1 2728
1 2729
1 2730
1 2731
1 2732
1 2733
1 2734
1 2735
1 2736
1 2737
1 2738
1 2739
1 2740
1 2741
1 2742
1 2743
1 2744
1 2745
1 2746
1 2747
1 2748
1 2749
1 2750
1 2751
1 2752
1 2753
1 2754
1 2755
1 2756
1 2757
1 2758
1 2759
1 2760
1 2761
1 2762
1 2763
1 2764
1 2765
1 2766
1 2767
1 2768
1 2769
1 2770
1 2771
1 2772
1 2773
1 2774
1 2775
1 2776
1 2777
1 2778
1 2779
1 2780
1 2781
1 2782
1 2783
1 2784
1 2785
1 2786
1 2787
1 2788
1 2789
1 2790
1 2791
1 2792
1 2793
1 2794
1 2795
1 2796
1 2797
1 2798
1 2799
1 2800
1 2801
1 2802
1 2803
1 2804
1 2805
1 2806
1 2807
1 2808
1 2809
1 2810
1 2811
1 2812
1 2813
1 2814
1 2815
1 2816
1 2817
1 2818
1 2819
1 2820
1 2821
1 2822
1 2823
1 2824
1 2825
1 2826
1 2827
1 2828
1 2829
1 2830
1 2831
1 2832
1 2833
1 2834
1 2835
1 2836
1 2837
1 2838
1 2839
1 2840
1 2841
1 2842
1 2843
1 2844
1 2845
1 2846
1 2847
1 2848
1 2849
1 2850
1 2851
1 2852
1 2853
1 2854
1 2855
1 2856
1 2857
1 2858
1 2859
1 2860
1 2861
1 2862
1 2863
1 2864
1 2865
1 2866
1 2867
1 2868
1 2869
1 2870
1 2871
1 2872
1 2873
1 2874
1 2875
1 2876
1 2877
1 2878
1 2879
1 2880
1 2881
1 2882
1 2883
1 2884
1 2885
1 2886
1 2887
1 2888
1 2889
1 2890
1 2891
1 2892
1 2893
1 2894
1 2895
1 2896
1 2897
1 2898
1 2899
1 2900
1 2901
1 2902
1 2903
1 2904
1 2905
1 2906
1 2907
1 2908
1 2909
1 2910
1 2911
1 2912
1 2913
1 2914
1 2915
1 2916
1 2917
1 2918
1 2919
1 2920
1 2921
1 2922
1 2923
1 2924
1 2925
1 2926
1 2927
1 2928
1 2929
1 2930
1 2931
1 2932
1 2933
1 2934
1 2935
1 2936
1 2937
1 2938
1 2939
1 2940
1 2941
1 2942
1 2943
1 2944
1 2945
1 2946
1 2947
1 2948
1 2949
1 2950
1 2951
1 2952
1 2953
1 2954
1 2955
1 2956
1 2957
1 2958
1 2959
1 2960
1 2961
1 2962
1 2963
1 2964
1 2965
1 2966
1 2967
1 2968
1 2969
1 2970
1 2971
1 2972
1 2973
1 2974
1 2975
1 2976
1 2977
1 2978
1 2979
1 2980
1 2981
1 2982
1 2983
1 2984
1 2985
1 2986
1 2987
1 2988
1 2989
1 2990
1 2991
1 2992
1 2993
1 2994
1 2995
1 2996
1 2997
1 2998
1 2999
1 3000
1 3001
1 3002
1 3003
1 3004
1 3005
1 3006
1 3007
1 3008
1 3009
1 3010
1 3011
1 3012
1 3013
1 3014
1 3015
1 3016
1 3017
1 3018
1 3019
1 3020
1 3021
1 3022
1 3023
1 3024
1 3025
1 3026
1 3027
1 3028
1 3029
1 3030
1 3031
1 3032
1 3033
1 3034
1 3035
1 3036
1 3037
1 3038
1 3039
1 3040
1 3041
1 3042
1 3043
1 3044
1 3045
1 3046
1 3047
1 3048
1 3049
1 3050
1 3051
1 3052
1 3053
1 3054
1 3055
1 3056
1 3057
1 3058
1 3059
1 3060
1 3061
1 3062
1 3063
1 3064
1 3065
1 3066
1 3067
1 3068
1 3069
1 3070
1 3071
1 3072
1 3073
1 3074
1 3075
1 3076
1 3077
1 3078
1 3079
1 3080
1 3081
1 3082
1 3083
1 3084
1 3085
1 3086
1 3087
1 3088
1 3089
1 3090
1 3091
1 3092
1 3093
1 3094
1 3095
1 3096
1 3097
1 3098
1 3099
1 3100
1 3101
1 3102
1 3103
1 3104
1 3105
1 3106
1 3107
1 3108
1 3109
1 3110
1 3111
1 3112
1 3113
1 3114
1 3115
1 3116
1 3117
1 3118
1 3119
1 3120
1 3121
1 3122
1 3123
1 3124
1 3125
1 3126
1 3127
1 3128
1 3129
1 3130
1 3131
1 3132
1 3133
1 3134
1 3135
1 3136
1 3137
1 3138
1 3139
1 3140
1 3141
1 3142
1 3143
1 3144
1 3145
1 3146
1 3147
1 3148
1 3149
1 3150
1 3151
1 3152
1 3153
1 3154
1 3155
1 3156
1 3157
1 3158
1 3159
1 3160
1 3161
1 3162
1 3163
1 3164
1 3165
1 3166
1 3167
1 3168
1 3169
1 3170
1 3171
1 3172
1 3173
1 3174
1 3175
1 3176
1 3177
1 3178
1 3179
1 3180
1 3181
1 3182
1 3183
1 3184
1 3185
1 3186
1 3187
1 3188
1 3189
1 3190
1 3191
1 3192
1 3193
1 3194
1 3195
1 3196
1 3197
1 3198
1 3199
1 3200
1 3201
1 3202
1 3203
1 3204
1 3205
1 3206
1 3207
1 3208
1 3209
1 3210
1 3211
1 3212
1 3213
1 3214
1 3215
1 3216
1 3217
1 3218
1 3219
1 3220
1 3221
1 3222
1 3223
1 3224
1 3225
1 3226
1 3227
1 3228
1 3229
1 3230
1 3231
1 3232
1 3233
1 3234
1 3235
1 3236
1 3237
1 3238
1 3239
1 3240
1 3241
1 3242
1 3243
1 3244
1 3245
1 3246
1 3247
1 3248
1 3249
1 3250
1 3251
1 3252
1 3253
1 3254
1 3255
1 3256
1 3257
1 3258
1 3259
1 3260
1 3261
1 3262
1 3263
1 3264
1 3265
1 3266
1 3267
1 3268
1 3269
1 3270
1 3271
1 3272
1 3273
1 3274
1 3275
1 3276
1 3277
1 3278
1 3279
1 3280
1 3281
1 3282
1 3283
1 3284
1 3285
1 3286
1 3287
1 3288
1 3289
1 3290
1 3291
1 3292
1 3293
1 3294
1 3295
1 3296
1 3297
1 3298
1 3299
1 3300
1 3301
1 3302
1 3303
1 3304
1 3305
1 3306
1 3307
1 3308
1 3309
1 3310
1 3311
1 3312
1 3313
1 3314
1 3315
1 3316
1 3317
1 3318
1 3319
1 3320
1 3321
1 3322
1 3323
1 3324
1 3325
1 3326
1 3327
1 3328
1 3329
1 3330
1 3331
1 3332
1 3333
1 3334
1 3335
1 3336
1 3337
1 3338
1 3339
1 3340
1 3341
1 3342
1 3343
1 3344
1 3345
1 3346
1 3347
1 3348
1 3349
1 3350
1 3351
1 3352
1 3353
1 3354
1 3355
1 3356
1 3357
1 3358
1 3359
1 3360
1 3361
1 3362
1 3363
1 3364
1 3365
1 3366
1 3367
1 3368
1 3369
1 3370
1 3371
1 3372
1 3373
1 3374
1 3375
1 3376
1 3377
1 3378
1 3379
1 3380
1 3381
1 3382
1 3383
1 3384
1 3385
1 3386
1 3387
1 3388
1 3389
1 3390
1 3391
1 3392
1 3393
1 3394
1 3395
1 3396
1 3397
1 3398
1 3399
1 3400
1 3401
1 3402
1 3403
1 3404
1 3405
1 3406
1 3407
1 3408
1 3409
1 3410
1 3411
1 3412
1 3413
1 3414
1 3415
1 3416
1 3417
1 3418
1 3419
1 3420
1 3421
1 3422
1 3423
1 3424
1 3425
1 3426
1 3427
1 3428
1 3429
1 3430
1 3431
1 3432
1 3433
1 3434
1 3435
1 3436
1 3437
1 3438
1 3439
1 3440
1 3441
1 3442
1 3443
1 3444
1 3445
1 3446
1 3447
1 3448
1 3449
1 3450
1 3451
1 3452
1 3453
1 3454
1 3455
1 3456
1 3457
1 3458
1 3459
1 3460
1 3461
1 3462
1 3463
1 3464
1 3465
1 3466
1 3467
1 3468
1 3469
1 3470
1 3471
1 3472
1 3473
1 3474
1 3475
1 3476
1 3477
1 3478
1 3479
1 3480
1 3481
1 3482
1 3483
1 3484
1 3485
1 3486
1 3487
1 3488
1 3489
1 3490
1 3491
1 3492
1 3493
1 3494
1 3495
1 3496
1 3497
1 3498
1 3499
1 3500
1 3501
1 3502
1 3503
1 3504
1 3505
1 3506
1 3507
1 3508
1 3509
1 3510
1 3511
1 3512
1 3513
1 3514
1 3515
1 3516
1 3517
1 3518
1 3519
1 3520
1 3521
1 3522
1 3523
1 3524
1 3525
1 3526
1 3527
1 3528
1 3529
1 3530
1 3531
1 3532
1 3533
1 3534
1 3535
1 3536
1 3537
1 3538
1 3539
1 3540
1 3541
1 3542
1 3543
1 3544
1 3545
1 3546
1 3547
1 3548
1 3549
1 3550
1 3551
1 3552
1 3553
1 3554
1 3555
1 3556
1 3557
1 3558
1 3559
1 3560
1 3561
1 3562
1 3563
1 3564
1 3565
1 3566
1 3567
1 3568
1 3569
1 3570
1 3571
1 3572
1 3573
1 3574
1 3575
1 3576
1 3577
1 3578
1 3579
1 3580
1 3581
1 3582
1 3583
1 3584
1 3585
1 3586
1 3587
1 3588
1 3589
1 3590
1 3591
1 3592
1 3593
1 3594
1 3595
1 3596
1 3597
1 3598
1 3599
1 3600
1 3601
1 3602
1 3603
1 3604
1 3605
1 3606
1 3607
1 3608
1 3609
1 3610
1 3611
1 3612
1 3613
1 3614
1 3615
1 3616
1 3617
1 3618
1 3619
1 3620
1 3621
1 3622
1 3623
1 3624
1 3625
1 3626
1 3627
1 3628
1 3629
1 3630
1 3631
1 3632
1 3633
1 3634
1 3635
1 3636
1 3637
1 3638
1 3639
1 3640
1 3641
1 3642
1 3643
1 3644
1 3645
1 3646
1 3647
1 3648
1 3649
1 3650
1 3651
1 3652
1 3653
1 3654
1 3655
1 3656
1 3657
1 3658
1 3659
1 3660
1 3661
1 3662
1 3663
1 3664
1 3665
1 3666
1 3667
1 3668
1 3669
1 3670
1 3671
1 3672
1 3673
1 3674
1 3675
1 3676
1 3677
1 3678
1 3679
1 3680
1 3681
1 3682
1 3683
1 3684
1 3685
1 3686
1 3687
1 3688
1 3689
1 3690
1 3691
1 3692
1 3693
1 3694
1 3695
1 3696
1 3697
1 3698
1 3699
1 3700
1 3701
1 3702
1 3703
1 3704
1 3705
1 3706
1 3707
1 3708
1 3709
1 3710
1 3711
1 3712
1 3713
1 3714
1 3715
1 3716
1 3717
1 3718
1 3719
1 3720
1 3721
1 3722
1 3723
1 3724
1 3725
1 3726
1 3727
1 3728
1 3729
1 3730
1 3731
1 3732
1 3733
1 3734
1 3735
1 3736
1 3737
1 3738
1 3739
1 3740
1 3741
1 3742
1 3743
1 3744
1 3745
1 3746
1 3747
1 3748
1 3749
1 3750
1 3751
1 3752
1 3753
1 3754
1 3755
1 3756
1 3757
1 3758
1 3759
1 3760
1 3761
1 3762
1 3763
1 3764
1 3765
1 3766
1 3767
1 3768
1 3769
1 3770
1 3771
1 3772
1 3773
1 3774
1 3775
1 3776
1 3777
1 3778
1 3779
1 3780
1 3781
1 3782
1 3783
1 3784
1 3785
1 3786
1 3787
1 3788
1 3789
1 3790
1 3791
1 3792
1 3793
1 3794
1 3795
1 3796
1 3797
1 3798
1 3799
1 3800
1 3801
1 3802
1 3803
1 3804
1 3805
1 3806
1 3807
1 3808
1 3809
1 3810
1 3811
1 3812
1 3813
1 3814
1 3815
1 3816
1 3817
1 3818
1 3819
1 3820
1 3821
1 3822
1 3823
1 3824
1 3825
1 3826
1 3827
1 3828
1 3829
1 3830
1 3831
1 3832
1 3833
1 3834
1 3835
1 3836
1 3837
1 3838
1 3839
1 3840
1 3841
1 3842
1 3843
1 3844
1 3845
1 3846
1 3847
1 3848
1 3849
1 3850
1 3851
1 3852
1 3853
1 3854
1 3855
1 3856
1 3857
1 3858
1 3859
1 3860
1 3861
1 3862
1 3863
1 3864
1 3865
1 3866
1 3867
1 3868
1 3869
1 3870
1 3871
1 3872
1 3873
1 3874
1 3875
1 3876
1 3877
1 3878
1 3879
1 3880
1 3881
1 3882
1 3883
1 3884
1 3885
1 3886
1 3887
1 3888
1 3889
1 3890
1 3891
1 3892
1 3893
1 3894
1 3895
1 3896
1 3897
1 3898
1 3899
1 3900
1 3901
1 3902
1 3903
1 3904
1 3905
1 3906
1 3907
1 3908
1 3909
1 3910
1 3911
1 3912
1 3913
1 3914
1 3915
1 3916
1 3917
1 3918
1 3919
1 3920
1 3921
1 3922
1 3923
1 3924
1 3925
1 3926
1 3927
1 3928
1 3929
1 3930
1 3931
1 3932
1 3933
1 3934
1 3935
1 3936
1 3937
1 3938
1 3939
1 3940
1 3941
1 3942
1 3943
1 3944
1 3945
1 3946
1 3947
1 3948
1 3949
1 3950
1 3951
1 3952
1 3953
1 3954
1 3955
1 3956
1 3957
1 3958
1 3959
1 3960
1 3961
1 3962
1 3963
1 3964
1 3965
1 3966
1 3967
1 3968
1 3969
1 3970
1 3971
1 3972
1 3973
1 3974
1 3975
1 3976
1 3977
1 3978
1 3979
1 3980
1 3981
1 3982
1 3983
1 3984
1 3985
1 3986
1 3987
1 3988
1 3989
1 3990
1 3991
1 3992
1 3993
1 3994
1 3995
1 3996
1 3997
1 3998
1 3999
1 4000
1 4001
1 4002
1 4003
1 4004
1 4005
1 4006
1 4007
1 4008
1 4009
1 4010
1 4011
1 4012
1 4013
1 4014
1 4015
1 4016
1 4017
1 4018
1 4019
1 4020
1 4021
1 4022
1 4023
1 4024
1 4025
1 4026
1 4027
1 4028
1 4029
1 4030
1 4031
1 4032
1 4033
1 4034
1 4035
1 4036
1 4037
1 4038
1 4039
1 4040
1 4041
1 4042
1 4043
1 4044
1 4045
1 4046
1 4047
1 4048
1 4049
1 4050
1 4051
1 4052
1 4053
1 4054
1 4055
1 4056
1 4057
1 4058
1 4059
1 4060
1 4061
1 4062
1 4063
1 4064
1 4065
1 4066
1 4067
1 4068
1 4069
1 4070
1 4071
1 4072
1 4073
1 4074
1 4075
1 4076
1 4077
1 4078
1 4079
1 4080
1 4081
1 4082
1 4083
1 4084
1 4085
1 4086
1 4087
1 4088
1 4089
1 4090
1 4091
1 4092
1 4093
1 4094
1 4095
1 4096
1 4097
1 4098
1 4099
1 4100
1 4101
1 4102
1 4103
1 4104
1 4105
1 4106
1 4107
1 4108
1 4109
1 4110
1 4111
1 4112
1 4113
1 4114
1 4115
1 4116
1 4117
1 4118
1 4119
1 4120
1 4121
1 4122
1 4123
1 4124
1 4125
1 4126
1 4127
1 4128
1 4129
1 4130
1 4131
1 4132
1 4133
1 4134
1 4135
1 4136
1 4137
1 4138
1 4139
1 4140
1 4141
1 4142
1 4143
1 4144
1 4145
1 4146
1 4147
1 4148
1 4149
1 4150
1 4151
1 4152
1 4153
1 4154
1 4155
1 4156
1 4157
1 4158
1 4159
1 4160
1 4161
1 4162
1 4163
1 4164
1 4165
1 4166
1 4167
1 4168
1 4169
1 4170
1 4171
1 4172
1 4173
1 4174
1 4175
1 4176
1 4177
1 4178
1 4179
1 4180
1 4181
1 4182
1 4183
1 4184
1 4185
1 4186
1 4187
1 4188
1 4189
1 4190
1 4191
1 4192
1 4193
1 4194
1 4195
1 4196
1 4197
1 4198
1 4199
1 4200
1 4201
1 4202
1 4203
1 4204
1 4205
1 4206
1 4207
1 4208
1 4209
1 4210
1 4211
1 4212
1 4213
1 4214
1 4215
1 4216
1 4217
1 4218
1 4219
1 4220
1 4221
1 4222
1 4223
1 4224
1 4225
1 4226
1 4227
1 4228
1 4229
1 4230
1 4231
1 4232
1 4233
1 4234
1 4235
1 4236
1 4237
1 4238
1 4239
1 4240
1 4241
1 4242
1 4243
1 4244
1 4245
1 4246
1 4247
1 4248
1 4249
1 4250
1 4251
1 4252
1 4253
1 4254
1 4255
1 4256
1 4257
1 4258
1 4259
1 4260
1 4261
1 4262
1 4263
1 4264
1 4265
1 4266
1 4267
1 4268
1 4269
1 4270
1 4271
1 4272
1 4273
1 4274
1 4275
1 4276
1 4277
1 4278
1 4279
1 4280
1 4281
1 4282
1 4283
1 4284
1 4285
1 4286
1 4287
1 4288
1 4289
1 4290
1 4291
1 4292
1 4293
1 4294
1 4295
1 4296
1 4297
1 4298
1 4299
1 4300
1 4301
1 4302
1 4303
1 4304
1 4305
1 4306
1 4307
1 4308
1 4309
1 4310
1 4311
1 4312
1 4313
1 4314
1 4315
1 4316
1 4317
1 4318
1 4319
1 4320
1 4321
1 4322
1 4323
1 4324
1 4325
1 4326
1 4327
1 4328
1 4329
1 4330
1 4331
1 4332
1 4333
1 4334
1 4335
1 4336
1 4337
1 4338
1 4339
1 4340
1 4341
1 4342
1 4343
1 4344
1 4345
1 4346
1 4347
1 4348
1 4349
1 4350
1 4351
1 4352
1 4353
1 4354
1 4355
1 4356
1 4357
1 4358
1 4359
1 4360
1 4361
1 4362
1 4363
1 4364
1 4365
1 4366
1 4367
1 4368
1 4369
1 4370
1 4371
1 4372
1 4373
1 4374
1 4375
1 4376
1 4377
1 4378
1 4379
1 4380
1 4381
1 4382
1 4383
1 4384
1 4385
1 4386
1 4387
1 4388
1 4389
1 4390
1 4391
1 4392
1 4393
1 4394
1 4395
1 4396
1 4397
1 4398
1 4399
1 4400
1 4401
1 4402
1 4403
1 4404
1 4405
1 4406
1 4407
1 4408
1 4409
1 4410
1 4411
1 4412
1 4413
1 4414
1 4415
1 4416
1 4417
1 4418
1 4419
1 4420
1 4421
1 4422
1 4423
1 4424
1 4425
1 4426
1 4427
1 4428
1 4429
1 4430
1 4431
1 4432
1 4433
1 4434
1 4435
1 4436
1 4437
1 4438
1 4439
1 4440
1 4441
1 4442
1 4443
1 4444
1 4445
1 4446
1 4447
1 4448
1 4449
1 4450
1 4451
1 4452
1 4453
1 4454
1 4455
1 4456
1 4457
1 4458
1 4459
1 4460
1 4461
1 4462
1 4463
1 4464
1 4465
1 4466
1 4467
1 4468
1 4469
1 4470
1 4471
1 4472
1 4473
1 4474
1 4475
1 4476
1 4477
1 4478
1 4479
1 4480
1 4481
1 4482
1 4483
1 4484
1 4485
1 4486
1 4487
1 4488
1 4489
1 4490
1 4491
1 4492
1 4493
1 4494
1 4495
1 4496
1 4497
1 4498
1 4499
1 4500
1 4501
1 4502
1 4503
1 4504
1 4505
1 4506
1 4507
1 4508
1 4509
1 4510
1 4511
1 4512
1 4513
1 4514
1 4515
1 4516
1 4517
1 4518
1 4519
1 4520
1 4521
1 4522
1 4523
1 4524
1 4525
1 4526
1 4527
1 4528
1 4529
1 4530
1 4531
1 4532
1 4533
1 4534
1 4535
1 4536
1 4537
1 4538
1 4539
1 4540
1 4541
1 4542
1 4543
1 4544
1 4545
1 4546
1 4547
1 4548
1 4549
1 4550
1 4551
1 4552
1 4553
1 4554
1 4555
1 4556
1 4557
1 4558
1 4559
1 4560
1 4561
1 4562
1 4563
1 4564
1 4565
1 4566
1 4567
1 4568
1 4569
1 4570
1 4571
1 4572
1 4573
1 4574
1 4575
1 4576
1 4577
1 4578
1 4579
1 4580
1 4581
1 4582
1 4583
1 4584
1 4585
1 4586
1 4587
1 4588
1 4589
1 4590
1 4591
1 4592
1 4593
1 4594
1 4595
1 4596
1 4597
1 4598
1 4599
1 4600
1 4601
1 4602
1 4603
1 4604
1 4605
1 4606
1 4607
1 4608
1 4609
1 4610
1 4611
1 4612
1 4613
1 4614
1 4615
1 4616
1 4617
1 4618
1 4619
1 4620
1 4621
1 4622
1 4623
1 4624
1 4625
1 4626
1 4627
1 4628
1 4629
1 4630
1 4631
1 4632
1 4633
1 4634
1 4635
1 4636
1 4637
1 4638
1 4639
1 4640
1 4641
1 4642
1 4643
1 4644
1 4645
1 4646
1 4647
1 4648
1 4649
1 4650
1 4651
1 4652
1 4653
1 4654
1 4655
1 4656
1 4657
1 4658
1 4659
1 4660
1 4661
1 4662
1 4663
1 4664
1 4665
1 4666
1 4667
1 4668
1 4669
1 4670
1 4671
1 4672
1 4673
1 4674
1 4675
1 4676
1 4677
1 4678
1 4679
1 4680
1 4681
1 4682
1 4683
1 4684
1 4685
1 4686
1 4687
1 4688
1 4689
1 4690
1 4691
1 4692
1 4693
1 4694
1 4695
1 4696
1 4697
1 4698
1 4699
1 4700
1 4701
1 4702
1 4703
1 4704
1 4705
1 4706
1 4707
1 4708
1 4709
1 4710
1 4711
1 4712
1 4713
1 4714
1 4715
1 4716
1 4717
1 4718
1 4719
1 4720
1 4721
1 4722
1 4723
1 4724
1 4725
1 4726
1 4727
1 4728
1 4729
1 4730
1 4731
1 4732
1 4733
1 4734
1 4735
1 4736
1 4737
1 4738
1 4739
1 4740
1 4741
1 4742
1 4743
1 4744
1 4745
1 4746
1 4747
1 4748
1 4749
1 4750
1 4751
1 4752
1 4753
1 4754
1 4755
1 4756
1 4757
1 4758
1 4759
1 4760
1 4761
1 4762
1 4763
1 4764
1 4765
1 4766
1 4767
1 4768
1 4769
1 4770
1 4771
1 4772
1 4773
1 4774
1 4775
1 4776
1 4777
1 4778
1 4779
1 4780
1 4781
1 4782
1 4783
1 4784
1 4785
1 4786
1 4787
1 4788
1 4789
1 4790
1 4791
1 4792
1 4793
1 4794
1 4795
1 4796
1 4797
1 4798
1 4799
1 4800
1 4801
1 4802
1 4803
1 4804
1 4805
1 4806
1 4807
1 4808
1 4809
1 4810
1 4811
1 4812
1 4813
1 4814
1 4815
1 4816
1 4817
1 4818
1 4819
1 4820
1 4821
1 4822
1 4823
1 4824
1 4825
1 4826
1 4827
1 4828
1 4829
1 4830
1 4831
1 4832
1 4833
1 4834
1 4835
1 4836
1 4837
1 4838
1 4839
1 4840
1 4841
1 4842
1 4843
1 4844
1 4845
1 4846
1 4847
1 4848
1 4849
1 4850
1 4851
1 4852
1 4853
1 4854
1 4855
1 4856
1 4857
1 4858
1 4859
1 4860
1 4861
1 4862
1 4863
1 4864
1 4865
1 4866
1 4867
1 4868
1 4869
1 4870
1 4871
1 4872
1 4873
1 4874
1 4875
1 4876
1 4877
1 4878
1 4879
1 4880
1 4881
1 4882
1 4883
1 4884
1 4885
1 4886
1 4887
1 4888
1 4889
1 4890
1 4891
1 4892
1 4893
1 4894
1 4895
1 4896
1 4897
1 4898
1 4899
1 4900
1 4901
1 4902
1 4903
1 4904
1 4905
1 4906
1 4907
1 4908
1 4909
1 4910
1 4911
1 4912
1 4913
1 4914
1 4915
1 4916
1 4917
1 4918
1 4919
1 4920
1 4921
1 4922
1 4923
1 4924
1 4925
1 4926
1 4927
1 4928
1 4929
1 4930
1 4931
1 4932
1 4933
1 4934
1 4935
1 4936
1 4937
1 4938
1 4939
1 4940
1 4941
1 4942
1 4943
1 4944
1 4945
1 4946
1 4947
1 4948
1 4949
1 4950
1 4951
1 4952
1 4953
1 4954
1 4955
1 4956
1 4957
1 4958
1 4959
1 4960
1 4961
1 4962
1 4963
1 4964
1 4965
1 4966
1 4967
1 4968
1 4969
1 4970
1 4971
1 4972
1 4973
1 4974
1 4975
1 4976
1 4977
1 4978
1 4979
1 4980
1 4981
1 4982
1 4983
1 4984
1 4985
1 4986
1 4987
1 4988
1 4989
1 4990
1 4991
1 4992
1 4993
1 4994
1 4995
1 4996
1 4997
1 4998
1 4999
CELL_TYPES 5000
1 
1 
1 
1 
1 
1 
1 
1 
1 
1 
1 
1 
1 
1 
1 
1 
1 
1 
1 
1 
1 
1 
1 
1 
1 
1 
1 
1 
1 
1 
1 
1 
1 
1 
1 
1 
1 
1 
1 
1 
1 
1 
1 
1 
1 
1 
1 
1 
1 
1 
1 
1 
1 
1 
1 
1 
1 
1 
1 
1 
1 
1 
1 
1 
1 
1 
1 
1 
1 
1 
1 
1 
1 
1 
1 
1 
1 
1 
1 
1 
1 
1 
1 
1 
1 
1 
1 
1 
1 
1 
1 
1 
1 
1 
1 
1 
1 
1 
1 
1 
1 
1 
1 
1 
1 
1 
1 
1 
1 
1 
1 
1 
1 
1 
1 
1 
1 
1 
1 
1 
1 
1 
1 
1 
1 
1 
1 
1 
1 
1 
1 
1 
1 
1 
1 
1 
1 
1 
1 
1 
1 
1 
1 
1 
1 
1 
1 
1 
1 
1 
1 
1 
1 
1 
1 
1 
1 
1 
1 
1 
1 
1 
1 
1 
1 
1 
1 
1 
1 
1 
1 
1 
1 
1 
1 
1 
1 
1 
1 
1 
1 
1 
1 
1 
1 
1 
1 
1 
1 
1 
1 
1 
1 
1 
1 
1 
1 
1 
1 
1 
1 
1 
1 
1 
1 
1 
1 
1 
1 
1 
1 
1 
1 
1 
1 
1 
1 
1 
1 
1 
1 
1 
1 
1 
1 
1 
1 
1 
1 
1 
1 
1 
1 
1 
1 
1 
1 
1 
1 
1 
1 
1 
1 
1 
1 
1 
1 
1 
1 
1 
1 
1 
1 
1 
1 
1 
1 
1 
1 
1 
1 
1 
1 
1 
1 
1 
1 
1 
1 
1 
1 
1 
1 
1 
1 
1 
1 
1 
1 
1 
1 
1 
1 
1 
1 
1 
1 
1 
1 
1 
1 
1 
1 
1 
1 
1 
1 
1 
1 
1 
1 
1 
1 
1 
1 
1 
1 
1 
1 
1 
1 
1 
1 
1 
1 
1 
1 
1 
1 
1 
1 
1 
1 
1 
1 
1 
1 
1 
1 
1 
1 
1 
1 
1 
1 
1 
1 
1 
1 
1 
1 
1 
1 
1 
1 
1 
1 
1 
1 
1 
1 
1 
1 
1 
1 
1 
1 
1 
1 
1 
1 
1 
1 
1 
1 
1 
1 
1 
1 
1 
1 
1 
1 
1 
1 
1 
1 
1 
1 
1 
1 
1 
1 
1 
1 
1 
1 
1 
1 
1 
1 
1 
1 
1 
1 
1 
1 
1 
1 
1 
1 
1 
1 
1 
1 
1 
1 
1 
1 
1 
1 
1 
1 
1 
1 
1 
1 
1 
1 
1 
1 
1 
1 
1 
1 
1 
1 
1 
1 
1 
1 
1 
1 
1 
1 
1 
1 
1 
1 
1 
1 
1 
1 
1 
1 
1 
1 
1 
1 
1 
1 
1 
1 
1 
1 
1 
1 
1 
1 
1 
1 
1 
1 
1 
1 
1 
1 
1 
1 
1 
1 
1 
1 
1 
1 
1 
1 
1 
1 
1 
1 
1 
1 
1 
1 
1 
1 
1 
1 
1 
1 
1 
1 
1 
1 
1 
1 
1 
1 
1 
1 
1 
1 
1 
1 
1 
1 
1 
1 
1 
1 
1 
1 
1 
1 
1 
1 
1 
1 
1 
1 
1 
1 
1 
1 
1 
1 
1 
1 
1 
1 
1 
1 
1 
1 
1 
1 
1 
1 
1 
1 
1 
1 
1 
1 
1 
1 
1 
1 
1 
1 
1 
1 
1 
1 
1 
1 
1 
1 
1 
1 
1 
1 
1 
1 
1 
1 
1 
1 
1 
1 
1 
1 
1 
1 
1 
1 
1 
1 
1 
1 
1 
1 
1 
1 
1 
1 
1 
1 
1 
1 
1 
1 
1 
1 
1 
1 
1 
1 
1 
1 
1 
1 
1 
1 
1 
1 
1 
1 
1 
1 
1 
1 
1 
1 
1 
1 
1 
1 
1 
1 
1 
1 
1 
1 
1 
1 
1 
1 
1 
1 
1 
1 
1 
1 
1 
1 
1 
1 
1 
1 
1 
1 
1 
1 
1 
1 
1 
1 
1 
1 
1 
1 
1 
1 
1 
1 
1 
1 
1 
1 
1 
1 
1 
1 
1 
1 
1 
1 
1 
1 
1 
1 
1 
1 
1 
1 
1 
1 
1 
1 
1 
1 
1 
1 
1 
1 
1 
1 
1 
1 
1 
1 
1 
1 
1 
1 
1 
1 
1 
1 
1 
1 
1 
1 
1 
1 
1 
1 
1 
1 
1 
1 
1 
1 
1 
1 
1 
1 
1 
1 
1 
1 
1 
1 
1 
1 
1 
1 
1 
1 
1 
1 
1 
1 
1 
1 
1 
1 
1 
1 
1 
1 
1 
1 
1 
1 
1 
1 
1 
1 
1 
1 
1 
1 
1 
1 
1 
1 
1 
1 
1 
1 
1 
1 
1 
1 
1 
1 
1 
1 
1 
1 
1 
1 
1 
1 
1 
1 
1 
1 
1 
1 
1 
1 
1 
1 
1 
1 
1 
1 
1 
1 
1 
1 
1 
1 
1 
1 
1 
1 
1 
1 
1 
1 
1 
1 
1 
1 
1 
1 
1 
1 
1 
1 
1 
1 
1 
1 
1 
1 
1 
1 
1 
1 
1 
1 
1 
1 
1 
1 
1 
1 
1 
1 
1 
1 
1 
1 
1 
1 
1 
1 
1 
1 
1 
1 
1 
1 
1 
1 
1 
1 
1 
1 
1 
1 
1 
1 
1 
1 
1 
1 
1 
1 
1 
1 
1 
1 
1 
1 
1 
1 
1 
1 
1 
1 
1 
1 
1 
1 
1 
1 
1 
1 
1 
1 
1 
1 
1 
1 
1 
1 
1 
1 
1 
1 
1 
1 
1 
1 
1 
1 
1 
1 
1 
1 
1 
1 
1 
1 
1 
1 
1 
1 
1 
1 
1 
1 
1 
1 
1 
1 
1 
1 
1 
1 
1 
1 
1 
1 
1 
1 
1 
1 
1 
1 
1 
1 
1 
1 
1 
1 
1 
1 
1 
1 
1 
1 
1 
1 
1 
1 
1 
1 
1 
1 
1 
1 
1 
1 
1 
1 
1 
1 
1 
1 
1 
1 
1 
1 
1 
1 
1 
1 
1 
1 
1 
1 
1 
1 
1 
1 
1 
1 
1 
1 
1 
1 
1 
1 
1 
1 
1 
1 
1 
1 
1 
1 
1 
1 
1 
1 
1 
1 
1 
1 
1 
1 
1 
1 
1 
1 
1 
1 
1 
1 
1 
1 
1 
1 
1 
1 
1 
1 
1 
1 
1 
1 
1 
1 
1 
1 
1 
1 
1 
1 
1 
1 
1 
1 
1 
1 
1 
1 
1 
1 
1 
1 
1 
1 
1 
1 
1 
1 
1 
1 
1 
1 
1 
1 
1 
1 
1 
1 
1 
1 
1 
1 
1 
1 
1 
1 
1 
1 
1 
1 
1 
1 
1 
1 
1 
1 
1 
1 
1 
1 
1 
1 
1 
1 
1 
1 
1 
1 
1 
1 
1 
1 
1 
1 
1 
1 
1 
1 
1 
1 
1 
1 
1 
1 
1 
1 
1 
1 
1 
1 
1 
1 
1 
1 
1 
1 
1 
1 
1 
1 
1 
1 
1 
1 
1 
1 
1 
1 
1 
1 
1 
1 
1 
1 
1 
1 
1 
1 
1 
1 
1 
1 
1 
1 
1 
1 
1 
1 
1 
1 
1 
1 
1 
1 
1 
1 
1 
1 
1 
1 
1 
1 
1 
1 
1 
1 
1 
1 
1 
1 
1 
1 
1 
1 
1 
1 
1 
1 
1 
1 
1 
1 
1 
1 
1 
1 
1 
1 
1 
1 
1 
1 
1 
1 
1 
1 
1 
1 
1 
1 
1 
1 
1 
1 
1 
1 
1 
1 
1 
1 
1 
1 
1 
1 
1 
1 
1 
1 
1 
1 
1 
1 
1 
1 
1 
1 
1 
1 
1 
1 
1 
1 
1 
1 
1 
1 
1 
1 
1 
1 
1 
1 
1 
1 
1 
1 
1 
1 
1 
1 
1 
1 
1 
1 
1 
1 
1 
1 
1 
1 
1 
1 
1 
1 
1 
1 
1 
1 
1 
1 
1 
1 
1 
1 
1 
1 
1 
1 
1 
1 
1 
1 
1 
1 
1 
1 
1 
1 
1 
1 
1 
1 
1 
1 
1 
1 
1 
1 
1 
1 
1 
1 
1 
1 
1 
1 
1 
1 
1 
1 
1 
1 
1 
1 
1 
1 
1 
1 
1 
1 
1 
1 
1 
1 
1 
1 
1 
1 
1 
1 
1 
1 
1 
1 
1 
1 
1 
1 
1 
1 
1 
1 
1 
1 
1 
1 
1 
1 
1 
1 
1 
1 
1 
1 
1 
1 
1 
1 
1 
1 
1 
1 
1 
1 
1 
1 
1 
1 
1 
1 
1 
1 
1 
1 
1 
1 
1 
1 
1 
1 
1 
1 
1 
1 
1 
1 
1 
1 
1 
1 
1 
1 
1 
1 
1 
1 
1 
1 
1 
1 
1 
1 
1 
1 
1 
1 
1 
1 
1 
1 
1 
1 
1 
1 
1 
1 
1 
1 
1 
1 
1 
1 
1 
1 
1 
1 
1 
1 
1 
1 
1 
1 
1 
1 
1 
1 
1 
1 
1 
1 
1 
1 
1 
1 
1 
1 
1 
1 
1 
1 
1 
1 
1 
1 
1 
1 
1 
1 
1 
1 
1 
1 
1 
1 
1 
1 
1 
1 
1 
1 
1 
1 
1 
1 
1 
1 
1 
1 
1 
1 
1 
1 
1 
1 
1 
1 
1 
1 
1 
1 
1 
1 
1 
1 
1 
1 
1 
1 
1 
1 
1 
1 
1 
1 
1 
1 
1 
1 
1 
1 
1 
1 
1 
1 
1 
1 
1 
1 
1 
1 
1 
1 
1 
1 
1 
1 
1 
1 
1 
1 
1 
1 
1 
1 
1 
1 
1 
1 
1 
1 
1 
1 
1 
1 
1 
1 
1 
1 
1 
1 
1 
1 
1 
1 
1 
1 
1 
1 
1 
1 
1 
1 
1 
1 
1 
1 
1 
1 
1 
1 
1 
1 
1 
1 
1 
1 
1 
1 
1 
1 
1 
1 
1 
1 
1 
1 
1 
1 
1 
1 
1 
1 
1 
1 
1 
1 
1 
1 
1 
1 
1 
1 
1 
1 
1 
1 
1 
1 
1 
1 
1 
1 
1 
1 
1 
1 
1 
1 
1 
1 
1 
1 
1 
1 
1 
1 
1 
1 
1 
1 
1 
1 
1 
1 
1 
1 
1 
1 
1 
1 
1 
1 
1 
1 
1 
1 
1 
1 
1 
1 
1 
1 
1 
1 
1 
1 
1 
1 
1 
1 
1 
1 
1 
1 
1 
1 
1 
1 
1 
1 
1 
1 
1 
1 
1 
1 
1 
1 
1 
1 
1 
1 
1 
1 
1 
1 
1 
1 
1 
1 
1 
1 
1 
1 
1 
1 
1 
1 
1 
1 
1 
1 
1 
1 
1 
1 
1 
1 
1 
1 
1 
1 
1 
1 
1 
1 
1 
1 
1 
1 
1 
1 
1 
1 
1 
1 
1 
1 
1 
1 
1 
1 
1 
1 
1 
1 
1 
1 
1 
1 
1 
1 
1 
1 
1 
1 
1 
1 
1 
1 
1 
1 
1 
1 
1 
1 
1 
1 
1 
1 
1 
1 
1 
1 
1 
1 
1 
1 
1 
1 
1 
1 
1 
1 
1 
1 
1 
1 
1 
1 
1 
1 
1 
1 
1 
1 
1 
1 
1 
1 
1 
1 
1 
1 
1 
1 
1 
1 
1 
1 
1 
1 
1 
1 
1 
1 
1 
1 
1 
1 
1 
1 
1 
1 
1 
1 
1 
1 
1 
1 
1 
1 
1 
1 
1 
1 
1 
1 
1 
1 
1 
1 
1 
1 
1 
1 
1 
1 
1 
1 
1 
1 
1 
1 
1 
1 
1 
1 
1 
1 
1 
1 
1 
1 
1 
1 
1 
1 
1 
1 
1 
1 
1 
1 
1 
1 
1 
1 
1 
1 
1 
1 
1 
1 
1 
1 
1 
1 
1 
1 
1 
1 
1 
1 
1 
1 
1 
1 
1 
1 
1 
1 
1 
1 
1 
1 
1 
1 
1 
1 
1 
1 
1 
1 
1 
1 
1 
1 
1 
1 
1 
1 
1 
1 
1 
1 
1 
1 
1 
1 
1 
1 
1 
1 
1 
1 
1 
1 
1 
1 
1 
1 
1 
1 
1 
1 
1 
1 
1 
1 
1 
1 
1 
1 
1 
1 
1 
1 
1 
1 
1 
1 
1 
1 
1 
1 
1 
1 
1 
1 
1 
1 
1 
1 
1 
1 
1 
1 
1 
1 
1 
1 
1 
1 
1 
1 
1 
1 
1 
1 
1 
1 
1 
1 
1 
1 
1 
1 
1 
1 
1 
1 
1 
1 
1 
1 
1 
1 
1 
1 
1 
1 
1 
1 
1 
1 
1 
1 
1 
1 
1 
1 
1 
1 
1 
1 
1 
1 
1 
1 
1 
1 
1 
1 
1 
1 
1 
1 
1 
1 
1 
1 
1 
1 
1 
1 
1 
1 
1 
1 
1 
1 
1 
1 
1 
1 
1 
1 
1 
1 
1 
1 
1 
1 
1 
1 
1 
1 
1 
1 
1 
1 
1 
1 
1 
1 
1 
1 
1 
1 
1 
1 
1 
1 
1 
1 
1 
1 
1 
1 
1 
1 
1 
1 
1 
1 
1 
1 
1 
1 
1 
1 
1 
1 
1 
1 
1 
1 
1 
1 
1 
1 
1 
1 
1 
1 
1 
1 
1 
1 
1 
1 
1 
1 
1 
1 
1 
1 
1 
1 
1 
1 
1 
1 
1 
1 
1 
1 
1 
1 
1 
1 
1 
1 
1 
1 
1 
1 
1 
1 
1 
1 
1 
1 
1 
1 
1 
1 
1 
1 
1 
1 
1 
1 
1 
1 
1 
1 
1 
1 
1 
1 
1 
1 
1 
1 
1 
1 
1 
1 
1 
1 
1 
1 
1 
1 
1 
1 
1 
1 
1 
1 
1 
1 
1 
1 
1 
1 
1 
1 
1 
1 
1 
1 
1 
1 
1 
1 
1 
1 
1 
1 
1 
1 
1 
1 
1 
1 
1 
1 
1 
1 
1 
1 
1 
1 
1 
1 
1 
1 
1 
1 
1 
1 
1 
1 
1 
1 
1 
1 
1 
1 
1 
1 
1 
1 
1 
1 
1 
1 
1 
1 
1 
1 
1 
1 
1 
1 
1 
1 
1 
1 
1 
1 
1 
1 
1 
1 
1 
1 
1 
1 
1 
1 
1 
1 
1 
1 
1 
1 
1 
1 
1 
1 
1 
1 
1 
1 
1 
1 
1 
1 
1 
1 
1 
1 
1 
1 
1 
1 
1 
1 
1 
1 
1 
1 
1 
1 
1 
1 
1 
1 
1 
1 
1 
1 
1 
1 
1 
1 
1 
1 
1 
1 
1 
1 
1 
1 
1 
1 
1 
1 
1 
1 
1 
1 
1 
1 
1 
1 
1 
1 
1 
1 
1 
1 
1 
1 
1 
1 
1 
1 
1 
1 
1 
1 
1 
1 
1 
1 
1 
1 
1 
1 
1 
1 
1 
1 
1 
1 
1 
1 
1 
1 
1 
1 
1 
1 
1 
1 
1 
1 
1 
1 
1 
1 
1 
1 
1 
1 
1 
1 
1 
1 
1 
1 
1 
1 
1 
1 
1 
1 
1 
1 
1 
1 
1 
1 
1 
1 
1 
1 
1 
1 
1 
1 
1 
1 
1 
1 
1 
1 
1 
1 
1 
1 
1 
1 
1 
1 
1 
1 
1 
1 
1 
1 
1 
1 
1 
1 
1 
1 
1 
1 
1 
1 
1 
1 
1 
1 
1 
1 
1 
1 
1 
1 
1 
1 
1 
1 
1 
1 
1 
1 
1 
1 
1 
1 
1 
1 
1 
1 
1 
1 
1 
1 
1 
1 
1 
1 
1 
1 
1 
1 
1 
1 
1 
1 
1 
1 
1 
1 
1 
1 
1 
1 
1 
1 
1 
1 
1 
1 
1 
1 
1 
1 
1 
1 
1 
1 
1 
1 
1 
1 
1 
1 
1 
1 
1 
1 
1 
1 
1 
1 
1 
1 
1 
1 
1 
1 
1 
1 
1 
1 
1 
1 
1 
1 
1 
1 
1 
1 
1 
1 
1 
1 
1 
1 
1 
1 
1 
1 
1 
1 
1 
1 
1 
1 
1 
1 
1 
1 
1 
1 
1 
1 
1 
1 
1 
1 
1 
1 
1 
1 
1 
1 
1 
1 
1 
1 
1 
1 
1 
1 
1 
1 
1 
1 
1 
1 
1 
1 
1 
1 
1 
1 
1 
1 
1 
1 
1 
1 
1 
1 
1 
1 
1 
1 
1 
1 
1 
1 
1 
1 
1 
1 
1 
1 
1 
1 
1 
1 
1 
1 
1 
1 
1 
1 
1 
1 
1 
1 
1 
1 
1 
1 
1 
1 
1 
1 
1 
1 
1 
1 
1 
1 
1 
1 
1 
1 
1 
1 
1 
1 
1 
1 
1 
1 
1 
1 
1 
1 
1 
1 
1 
1 
1 
1 
1 
1 
1 
1 
1 
1 
1 
1 
1 
1 
1 
1 
1 
1 
1 
1 
1 
1 
1 
1 
1 
1 
1 
1 
1 
1 
1 
1 
1 
1 
1 
1 
1 
1 
1 
1 
1 
1 
1 
1 
1 
1 
1 
1 
1 
1 
1 
1 
1 
1 
1 
1 
1 
1 
1 
1 
1 
1 
1 
1 
1 
1 
1 
1 
1 
1 
1 
1 
1 
1 
1 
1 
1 
1 
1 
1 
1 
1 
1 
1 
1 
1 
1 
1 
1 
1 
1 
1 
1 
1 
1 
1 
1 
1 
1 
1 
1 
1 
1 
1 
1 
1 
1 
1 
1 
1 
1 
1 
1 
1 
1 
1 
1 
1 
1 
1 
1 
1 
1 
1 
1 
1 
1 
1 
1 
1 
1 
1 
1 
1 
1 
1 
1 
1 
1 
1 
1 
1 
1 
1 
1 
1 
1 
1 
1 
1 
1 
1 
1 
1 
1 
1 
1 
1 
1 
1 
1 
1 
1 
1 
1 
1 
1 
1 
1 
1 
1 
1 
1 
1 
1 
1 
1 
1 
1 
1 
1 
1 
1 
1 
1 
1 
1 
1 
1 
1 
1 
1 
1 
1 
1 
1 
1 
1 
1 
1 
1 
1 
1 
1 
1 
1 
1 
1 
1 
1 
1 
1 
1 
1 
1 
1 
1 
1 
1 
1 
1 
1 
1 
1 
1 
1 
1 
1 
1 
1 
1 
1 
1 
1 
1 
1 
1 
1 
1 
1 
1 
1 
1 
1 
1 
1 
1 
1 
1 
1 
1 
1 
1 
1 
1 
1 
1 
1 
1 
1 
1 
1 
1 
1 
1 
1 
1 
1 
1 
1 
1 
1 
1 
1 
1 
1 
1 
1 
1 
1 
1 
1 
1 
1 
1 
1 
1 
1 
1 
1 
1 
1 
1 
1 
1 
1 
1 
1 
1 
1 
1 
1 
1 
1 
1 
1 
1 
1 
1 
1 
1 
1 
1 
1 
1 
1 
1 
1 
1 
1 
1 
1 
1 
1 
1 
1 
1 
1 
1 
1 
1 
1 
1 
1 
1 
1 
1 
1 
1 
1 
1 
1 
1 
1 
1 
1 
1 
1 
1 
1 
1 
1 
1 
1 
1 
1 
1 
1 
1 
1 
1 
1 
1 
1 
1 
1 
1 
1 
1 
1 
1 
1 
1 
1 
1 
1 
1 
1 
1 
1 
1 
1 
1 
1 
1 
1 
1 
1 
1 
1 
1 
1 
1 
1 
1 
1 
1 
1 
1 
1 
1 
1 
1 
1 
1 
1 
1 
1 
1 
1 
1 
1 
1 
1 
1 
1 
1 
1 
1 
1 
1 
1 
1 
1 
1 
1 
1 
1 
1 
1 
1 
1 
1 
1 
1 
1 
1 
1 
1 
1 
1 
1 
1 
1 
1 
1 
1 
1 
1 
1 
1 
1 
1 
1 
1 
1 
1 
1 
1 
1 
1 
1 
1 
1 
1 
1 
1 
1 
1 
1 
1 
1 
1 
1 
1 
1 
1 
1 
1 
1 
1 
1 
1 
1 
1 
1 
1 
1 
1 
1 
1 
1 
1 
1 
1 
1 
1 
1 
1 
1 
1 
1 
1 
1 
1 
1 
1 
1 
1 
1 
1 
1 
1 
1 
1 
1 
1 
1 
1 
1 
1 
1 
1 
1 
1 
1 
1 
1 
1 
1 
1 
1 
1 
1 
1 
1 
1 
1 
1 
1 
1 
1 
1 
1 
1 
1 
1 
1 
1 
1 
1 
1 
1 
1 
1 
1 
1 
1 
1 
1 
1 
1 
1 
1 
1 
1 
1 
1 
1 
1 
1 
1 
1 
1 
1 
1 
1 
1 
1 
1 
1 
1 
1 
1 
1 
1 
1 
1 
1 
1 
1 
1 
1 
1 
1 
1 
1 
1 
1 
1 
1 
1 
1 
1 
1 
1 
1 
1 
1 
1 
1 
1 
1 
1 
1 
1 
1 
1 
1 
1 
1 
1 
1 
1 
1 
1 
1 
1 
1 
1 
1 
1 
1 
1 
1 
1 
1 
1 
1 
1 
1 
1 
1 
1 
1 
1 
1 
1 
1 
1 
1 
1 
1 
1 
1 
1 
1 
1 
1 
1 
1 
1 
1 
1 
1 
1 
1 
1 
1 
1 
1 
1 
1 
1 
1 
1 
1 
1 
1 
1 
1 
1 
1 
1 
1 
1 
1 
1 
1 
1 
1 
1 
1 
1 
1 
1 
1 
1 
1 
1 
1 
1 
1 
1 
1 
1 
1 
1 
1 
1 
1 
1 
1 
1 
1 
1 
1 
1 
1 
1 
1 
1 
1 
1 
1 
1 
1 
1 
1 
1 
1 
1 
1 
1 
1 
1 
1 
1 
1 
1 
1 
1 
1 
1 
1 
1 
1 
1 
1 
1 
1 
1 
1 
1 
1 
1 
1 
1 
1 
1 
1 
1 
1 
1 
1 
1 
1 
1 
1 
1 
1 
1 
1 
1 
1 
1 
1 
1 
1 
1 
1 
1 
1 
1 
1 
1 
1 
1 
1 
1 
1 
1 
1 
1 
1 
1 
1 
1 
1 
1 
1 
1 
1 
1 
1 
1 
1 
1 
1 
1 
1 
1 
1 
1 
1 
1 
1 
1 
1 
1 
1 
1 
1 
1 
1 
1 
1 
1 
1 
1 
1 
1 
1 
1 
1 
1 
1 
1 
1 
1 
1 
1 
1 
1 
1 
1 
1 
1 
1 
1 
1 
1 
1 
1 
1 
1 
1 
1 
1 
1 
1 
1 
1 
1 
1 
1 
1 
1 
1 
1 
1 
1 
1 
1 
1 
1 
1 
1 
1 
1 
1 
1 
1 
1 
1 
1 
1 
1 
1 
1 
1 
1 
1 
1 
1 
1 
1 
1 
1 
1 
1 
1 
1 
1 
1 
1 
1 
1 
1 
1 
1 
1 
1 
1 
1 
1 
1 
1 
1 
1 
1 
1 
1 
1 
1 
1 
1 
1 
1 
1 
1 
1 
1 
1 
1 
1 
1 
1 
1 
1 
1 
1 
1 
1 
1 
1 
1 
1 
1 
1 
1 
1 
1 
1 
1 
1 
1 
1 
1 
1 
1 
1 
1 
1 
1 
1 
1 
1 
1 
1 
1 
1 
1 
1 
1 
1 
1 
1 
1 
1 
1 
1 
1 
1 
1 
1 
1 
1 
1 
1 
1 
1 
1 
1 
1 
1 
1 
1 
1 
1 
1 
1 
1 
1 
1 
1 
1 
1 
1 
1 
1 
1 
1 
1 
1 
1 
1 
1 
1 
1 
1 
1 
1 
1 
1 
1 
1 
1 
1 
1 
1 
1 
1 
1 
1 
1 
1 
1 
1 
1 
1 
1 
1 
1 
1 
1 
1 
1 
1 
1 
1 
1 
1 
1 
1 
1 
1 
1 
1 
1 
1 
1 
1 
1 
1 
1 
1 
1 
1 
1 
1 
1 
1 
1 
1 
1 
1 
1 
1 
1 
1 
1 
1 
1 
1 
1 
1 
1 
1 
1 
1 
1 
1 
1 
1 
1 
1 
1 
1 
1 
1 
1 
1 
1 
1 
1 
1 
1 
1 
1 
1 
1 
1 
1 
1 
1 
1 
1 
1 
1 
1 
1 
1 
1 
1 
1 
1 
1 
1 
1 
1 
1 
1 
1 
1 
1 
1 
1 
1 
1 
1 
1 
1 
1 
1 
1 
1 
1 
1 
1 
1 
1 
1 
1 
1 
1 
1 
1 
1 
1 
1 
1 
1 
1 
1 
1 
1 
1 
1 
1 
1 
1 
1 
1 
1 
1 
1 
1 
1 
1 
1 
1 
1 
1 
1 
1 
1 
1 
1 
1 
1 
1 
1 
1 
1 
1 
1 
1 
1 
1 
1 
1 
1 
1 
1 
1 
1 
1 
1 
1 
1 
1 
1 
1 
1 
1 
1 
1 
1 
1 
1 
1 
1 
1 
1 
1 
1 
1 
1 
1 
1 
1 
1 
1 
1 
1 
1 
1 
1 
1 
1 
1 
1 
1 
1 
1 
1 
1 
1 
1 
1 
1 
1 
1 
1 
1 
1 
1 
1 
1 
1 
1 
1 
1 
1 
1 
1 
1 
1 
1 
1 
1 
1 
1 
1 
1 
1 
1 
1 
1 
1 
1 
1 
1 
1 
1 
1 
1 
1 
1 
1 
1 
1 
1 
1 
1 
1 
1 
1 
1 
1 
1 
1 
1 
1 
1 
1 
1 
1 
1 
1 
1 
1 
1 
1 
1 
1 
1 
1 
1 
1 
1 
1 
1 
1 
1 
1 
1 
1 
1 
1 
1 
1 
1 
1 
1 
1 
1 
1 
1 
1 
1 
1 
1 
1 
1 
1 
1 
1 
1 
1 
1 
1 
1 
1 
1 
1 
1 
1 
1 
1 
1 
1 
1 
1 
1 
1 
1 
1 
1 
1 
1 
1 
1 
1 
1 
1 
1 
1 
1 
1 
1 
1 
1 
1 
1 
1 
1 
1 
1 
1 
1 
1 
1 
1 
1 
1 
1 
1 
1 
1 
1 
1 
1 
1 
1 
1 
1 
1 
1 
1 
1 
1 
1 
1 
1 
1 
1 
1 
1 
1 
1 
1 
1 
1 
1 
1 
1 
1 
1 
1 
1 
1 
1 
1 
1 
1 
1 
1 
1 
1 
1 
1 
1 
1 
1 
1 
1 
1 
1 
1 
1 
1 
1 
1 
1 
1 
1 
1 
1 
1 
1 
1 
1 
1 
1 
1 
1 
1 
1 
1 
1 
1 
1 
1 
1 
1 
1 
1 
1 
1 
1 
1 
1 
1 
1 
1 
1 
1 
1 
1 
1 
1 
1 
1 
1 
1 
1 
1 
1 
1 
1 
1 
1 
1 
1 
1 
1 
1 
1 
1 
1 
1 
1 
1 
1 
1 
1 
1 
1 
1 
1 
1 
1 
1 
1 
1 
1 
1 
1 
1 
1 
1 
1 
1 
1 
1 
1 
1 
1 
1 
1 
1 
1 
1 
1 
1 
1 
1 
1 
1 
1 
1 
1 
1 
1 
1 
1 
1 
1 
1 
1 
1 
1 
1 
1 
1 
1 
1 
1 
1 
1 
1 
1 
1 
1 
1 
1 
1 
1 
1 
1 
1 
1 
1 
1 
1 
1 
1 
1 
1 
1 
1 
1 
1 
1 
1 
1 
1 
1 
1 
1 
1 
1 
1 
1 
1 
1 
1 
1 
1 
1 
1 
1 
1 
1 
1 
1 
1 
1 
1 
1 
1 
1 
1 
1 
1 
1 
1 
1 
1 
1 
1 
1 
1 
1 
1 
1 
1 
1 
1 
1 
1 
1 
1 
1 
1 
1 
1 
1 
1 
1 
1 
1 
1 
1 
1 
1 
1 
1 
1 
1 
1 
1 
1 
1 
1 
1 
1 
1 
1 
1 
1 
1 
1 
1 
1 
1 
1 
1 
1 
1 
1 
1 
1 
1 
1 
1 
1 
1 
1 
1 
1 
1 
1 
1 
1 
1 
1 
1 
1 
1 
1 
1 
1 
1 
1 
1 
1 
1 
1 
1 
1 
1 
1 
1 
1 
1 
1 
1 
1 
1 
1 
1 
1 
1 
1 
1 
1 
1 
1 
1 
1 
1 
1 
1 
1 
1 
1 
1 
1 
1 
1 
1 
1 
1 
1 
1 
1 
1 
1 
1 
1 
1 
1 
1 
1 
1 
1 
1 
1 
1 
1 
1 
1 
1 
1 
1 
1 
1 
1 
1 
1 
1 
1 
1 
1 
1 
1 
1 
1 
1 
1 
1 
1 
1 
1 
1 
1 
1 
1 
1 
1 
1 
1 
1 
1 
1 
1 
1 
1 
1 
1 
1 
1 
1 
1 
1 
1 
1 
1 
1 
1 
1 
1 
1 
1 
1 
1 
1 
1 
1 
1 
1 
1 
1 
1 
1 
1 
1 
1 
1 
1 
1 
1 
1 
1 
1 
1 
1 
1 
1 
1 
1 
1 
1 
1 
1 
1 
1 
1 
1 
1 
1 
1 
1 
1 
1 
1 
1 
1 
1 
1 
1 
1 
1 
1 
1 
1 
1 
1 
1 
1 
1 
1 
1 
1 
1 
1 
1 
1 
1 
1 
1 
1 
1 
1 
1 
1 
1 
1 
1 
1 
1 
1 
1 
1 
1 
1 
1 
1 
1 
1 
1 
1 
1 
1 
1 
1 
1 
1 
1 
1 
1 
1 
1 
1 
1 
1 
1 
1 
1 
1 
1 
1 
1 
1 
1 
1 
1 
1 
1 
1 
1 
1 
1 
1 
1 
1 
1 
1 
1 
1 
1 
1 
1 
1 
1 
1 
1 
1 
1 
1 
1 
1 
1 
1 
1 
1 
1 
1 
1 
1 
1 
1 
1 
1 
1 
1 
1 
1 
1 
1 
1 
1 
1 
1 
1 
1 
1 
1 
1 
1 
1 
1 
1 
1 
1 
1 
1 
1 
1 
1 
1 
1 
1 
1 
1 
1 
1 
1 
1 
1 
1 
1 
1 
1 
1 
1 
1 
1 
1 
1 
1 
1 
1 
1 
1 
1 
1 
1 
1 
1 
1 
1 
1 
1 
1 
1 
1 
1 
1 
1 
1 
1 
1 
1 
1 
1 
1 
1 
1 
1 
1 
1 
1 
1 
1 
1 
1 
1 
1 
1 
1 
1 
1 
1 
1 
1 
1 
1 
1 
1 
1 
1 
1 
1 
1 
1 
1 
1 
1 
1 
1 
1 
1 
1 
1 
1 
1 
1 
1 
1 
1 
1 
1 
1 
1 
1 
1 
1 
1 
1 
1 
1 
1 
1 
1 
1 
1 
1 
1 
1 
1 
1 
1 
1 
1 
1 
1 
1 
1 
1 
1 
1 
1 
1 
1 
1 
1 
1 
1 
1 
1 
1 
1 
1 
1 
1 
1 
1 
1 
1 
1 
1 
1 
1 
1 
1 
1 
1 
1 
1 
1 
1 
1 
1 
1 
1 
1 
1 
1 
1 
1 
1 
1 
1 
1 
1 
1 
1 
1 
1 
1 
1 
1 
1 
1 
1 
1 
1 
1 
1 
1 
1 
1 
1 
1 
1 
1 
1 
1 
1 
1 
1 
1 
1 
1 
1 
1 
1 
1 
1 
1 
1 
1 
1 
1 
1 
1 
1 
1 
1 
1 
1 
1 
1 
1 
1 
1 
1 
1 
1 
1 
1 
1 
1 
1 
1 
1 
1 
1 
1 
1 
1 
1 
1 
1 
1 
1 
1 
1 
1 
1 
1 
1 
1 
1 
1 
1 
1 
1 
1 
1 
1 
1 
1 
1 
1 
1 
1 
1 
1 
1 
1 
1 
1 
1 
1 
1 
1 
1 
1 
1 
1 
1 
1 
1 
1 
1 
1 
1 
1 
1 
1 
1 
1 
1 
1 
1 
1 
1 
1 
1 
1 
1 
1 
1 
1 
1 
1 
1 
1 
1 
1 
1 
1 
1 
1 
1 
1 
1 
1 
1 
1 
1 
1 
1 
1 
1 
1 
1 
1 
1 
1 
1 
1 
1 
1 
1 
1 
1 
1 
1 
1 
1 
1 
1 
1 
1 
1 
1 
1 
1 
1 
1 
1 
1 
1 
POINT_DATA 5000
VECTORS Stress float
-1893 -3298.99 0.
-2658.43 -2421.57 0.
-90.7662 -144.628 0.
-546.681 -819.999 0.
-3392.45 -6634.94 0.
-60.5847 -101.794 0.
-3033.44 -2994.87 0.
-48.7318 -83.4608 0.
-105.942 -112.098 0.
-4013.31 -6254.69 0.
-1431.71 -2400.78 0.
-41.4386 -86.3882 0.
-1864.1 -2741.06 0.
-1454.99 -2194.62 0.
-1291.38 -1928.37 0.
-1064.07 -1723.33 0.
-829.265 -1525.79 0.
-829.052 -1664.42 0.
-656.18 -1391.9 0.
-485.169 -1117.52 0.
-534.001 -1077.32 0.
-478.668 -976.554 0.
-423.342 -875.777 0.
-449.038 -886.867 0.
-440.836 -921.797 0.
-435.612 -953.746 0.
-505.866 -1034.31 0.
-520.692 -1052.16 0.
-469.807 -987.896 0.
-437.235 -937.161 0.
-405.324 -885.766 0.
-405.207 -874.503 0.
-396.35 -863.631 0.
-387.644 -852.609 0.
-388.8 -848.05 0.
-385.509 -865.73 0.
-388.341 -877.287 0.
-457.834 -955.13 0.
-478.336 -996.82 0.
-479.774 -968.538 0.
-465.407 -927.846 0.
-454.017 -884.178 0.
-460.418 -875.735 0.
-470.468 -877.262 0.
-481.571 -877.736 0.
-465.281 -791.909 0.
-410.597 -573.676 0.
-336.415 -374.942 0.
-265.55 -416.783 0.
-389.701 -949.641 0.
-531.358 -1464.96 0.
-423.173 -981.577 0.
-292.093 -446.764 0.
-326.568 -356.774 0.
-402.74 -564.559 0.
-458.591 -792.665 0.
-484.341 -891.131 0.
-476.885 -898.979 0.
-471.376 -904.88 0.
-460.101 -906.231 0.
-468.59 -953.684 0.
-480.373 -997.843 0.
-498.241 -1023.29 0.
-473.956 -979.959 0.
-395.96 -892.058 0.
-389.891 -863.794 0.
-388.52 -830.832 0.
-385.918 -830.62 0.
-398.08 -856.786 0.
-412.791 -880.405 0.
-413.523 -899.951 0.
-450.144 -961.346 0.
-487.501 -1022.01 0.
-528.813 -1078.19 0.
-508.522 -1048.07 0.
-479.669 -1013.6 0.
-444.548 -897.623 0.
-443.688 -838.107 0.
-393.156 -807.886 0.
-466.308 -950.38 0.
-539.513 -1092.82 0.
-488.607 -1142.7 0.
-806.615 -1713.34 0.
-1131.59 -2277 0.
-1131.73 -1883.97 0.
-1308.25 -1761.98 0.
-1461.69 -1663.07 0.
-1550.39 -2416.25 0.
-2323.47 -3804.15 0.
-19.5047 -47.6487 0.
-775.028 -1237.07 0.
-4585.86 -6939.22 0.
-228.002 -239.796 0.
-254.684 -159.804 0.
-2874.15 -3208.65 0.
-39.5737 -32.7399 0.
-3486.95 -4971.52 0.
-92.0963 -183.999 0.
-3273.75 -5251.84 0.
-105.019 -290.86 0.
-1472.24 -2939.49 0.
1.78167 0.0649104 0.
-113.964 -104.479 0.
-178.021 -165.525 0.
-96.6578 -121.06 0.
-63.5273 -101.552 0.
-56.1445 -98.7146 0.
-48.6967 -82.9478 0.
-470.417 -255.751 0.
-106.061 -109.982 0.
-52.4551 -53.8729 0.
-81.3961 -124.165 0.
-743.136 -1015.88 0.
-391.777 -410.275 0.
-501.93 -801.401 0.
-334.28 -536.276 0.
-204.128 -233.653 0.
-526.247 -1203.02 0.
-374.13 -909.571 0.
-249.614 -588.523 0.
-446.682 -983.058 0.
-389.91 -883.718 0.
-336.311 -781.206 0.
-447.225 -813.621 0.
-437.893 -849.68 0.
-429.447 -884.847 0.
-602.306 -1092.97 0.
-612.109 -1115.84 0.
-454.684 -916.24 0.
-419.512 -868.101 0.
-386.272 -818.031 0.
-419.27 -862.156 0.
-410.015 -851.683 0.
-408.96 -833.011 0.
-410.471 -814.509 0.
-405.205 -834.161 0.
-403.629 -850.124 0.
-576.62 -1006.02 0.
-595.282 -1049.54 0.
-501.42 -963.348 0.
-485.785 -923.924 0.
-472.638 -882.012 0.
-495.155 -922.68 0.
-505.369 -924.044 0.
-515.863 -925.129 0.
-532.738 -890.481 0.
-467.293 -683.031 0.
-405.88 -471.551 0.
-1.74282 -0.79886 0.
-176.615 -372.884 0.
-335.959 -870.725 0.
-247.25 -510.949 0.
-37.4786 -54.6031 0.
-394.116 -448.125 0.
-458.743 -667.43 0.
-533.856 -876.25 0.
-523.149 -940.304 0.
-516.967 -946.879 0.
-512.828 -951.412 0.
-462.969 -898.308 0.
-472.393 -944.825 0.
-493.596 -979.565 0.
-624.897 -1083.24 0.
-604.611 -1035.92 0.
-411.738 -861.499 0.
-407.226 -831.677 0.
-407.439 -797.131 0.
-406.454 -807.697 0.
-412.349 -840.132 0.
-423.975 -866.836 0.
-389.165 -822.01 0.
-428.828 -880.368 0.
-469.403 -937.813 0.
-596.324 -1137.03 0.
-580.829 -1102.12 0.
-349.828 -840.891 0.
-441.635 -820.32 0.
-441.734 -759.844 0.
-299.246 -655.889 0.
-372.891 -797.915 0.
-449.844 -936.634 0.
-183.624 -173.08 0.
-396.43 -849.503 0.
-660.315 -1474.85 0.
-188.148 -106.706 0.
-217.453 -127.309 0.
-215.224 -184.149 0.
-15.0118 -23.1298 0.
-352.755 -892.907 0.
-19.4029 -49.1554 0.
-22.8863 -55.1098 0.
-26.5198 -71.1475 0.
-380.744 -204.396 0.
-44.659 -57.5097 0.
-55.5178 -59.057 0.
-80.2858 -47.2156 0.
-121.097 -143.261 0.
-75.3572 -87.0998 0.
-201.921 -354.743 0.
-86.266 -234.999 0.
1.23783 2.75062 0.
1.37534 0.221233 0.
-146.196 -70.6122 0.
-126.074 -67.555 0.
-55.6046 -91.8047 0.
-72.4331 -107.439 0.
-91.0501 -154.398 0.
-104.436 -130.031 0.
-833.43 -424.736 0.
-68.9615 -55.9117 0.
-59.6921 -44.2189 0.
-291.967 -213.641 0.
-113.381 -114.11 0.
-56.1043 -73.0143 0.
-34.1616 -59.2004 0.
-43.6142 -71.9259 0.
-74.6393 -101.299 0.
-304.524 -660.533 0.
-185.516 -333.803 0.
-63.4188 -101.356 0.
-406.466 -841.689 0.
-354.979 -737.056 0.
-306.351 -629.564 0.
-451.374 -734.413 0.
-442.058 -770.456 0.
-433.189 -806.042 0.
-710.872 -1139.51 0.
-720.675 -1162.38 0.
-458.414 -825.73 0.
-424.337 -776.493 0.
-391.176 -726.341 0.
-437.717 -845.425 0.
-434.642 -828.773 0.
-433.41 -810.279 0.
-439.684 -773.426 0.
-433.572 -793.922 0.
-428.338 -813.541 0.
-695.405 -1056.91 0.
-714.07 -1100.43 0.
-553.361 -927.862 0.
-531.836 -894.328 0.
-511.402 -859.703 0.
-554.293 -945.225 0.
-555.031 -956.066 0.
-561.839 -960.838 0.
-669.229 -920.018 0.
-583.737 -732.639 0.
-500.239 -543.264 0.
-4.21151 -1.58302 0.
-5.34331 -1.96989 0.
-4941.56 -3413.29 0.
-39.308 -72.3392 0.
-8.98151 -6.9296 0.
-499.523 -501.619 0.
-587.791 -697.258 0.
-677.123 -891.831 0.
-577.664 -973.77 0.
-576.737 -975.091 0.
-579.947 -972.276 0.
-497.989 -858.232 0.
-517.101 -895.061 0.
-538.778 -929.326 0.
-755.552 -1139.19 0.
-735.267 -1091.87 0.
-441.482 -816.975 0.
-441.74 -782.383 0.
-443.047 -746.741 0.
-430.316 -781.447 0.
-436.985 -813.11 0.
-443.18 -845.246 0.
-386.97 -721.906 0.
-425.384 -781.516 0.
-464.711 -840.213 0.
-684.895 -1174.82 0.
-669.283 -1140.03 0.
-399.387 -736.175 0.
-442.886 -738.852 0.
-441.998 -679.363 0.
-287.401 -421.826 0.
-330.734 -594.189 0.
-387.852 -752.768 0.
-80.3199 -82.6912 0.
-58.3395 -70.7951 0.
-343.413 -518.317 0.
-306.418 -149.166 0.
-78.9865 -58.092 0.
-106.207 -63.7603 0.
-28.4579 -29.4703 0.
-25.3773 -36.7149 0.
-49.9343 -59.2474 0.
-24.7887 -56.9121 0.
-27.1244 -71.751 0.
-728.544 -326.808 0.
-224.411 -142.181 0.
-185.515 -117.579 0.
-124.198 -65.5637 0.
-165.371 -176.043 0.
-70.5908 -39.4591 0.
-0.0552662 -0.891221 0.
-2669.79 -5467.21 0.
-2620.43 -5310.99 0.
-50.1268 -138.81 0.
-0.230493 -0.207842 0.
-2750.18 -3192.73 0.
-88.1406 -173.671 0.
-2899.16 -5451.62 0.
0.58441 0.0013956 0.
-1902.37 -2404.32 0.
-43.6606 -74.5336 0.
-3349.62 -5686.35 0.
-83.5193 -144.306 0.
-103.054 -184.812 0.
-3922.57 -7263.05 0.
-89.762 -119.989 0.
-2169.73 -3036.76 0.
-1421.71 -2057.76 0.
-721.293 -1031.15 0.
-2143.7 -4246.1 0.
-1105.91 -2322.05 0.
-193.341 -272.758 0.
-1208.88 -2685.26 0.
-812.411 -1870.23 0.
-447.586 -1023.55 0.
-751.755 -1668.63 0.
-612.429 -1369.98 0.
-479.269 -1065.16 0.
-899.41 -1642.15 0.
-898.817 -1640.79 0.
-639.477 -1298.88 0.
-604.088 -1222.7 0.
-568.766 -1146.46 0.
-633.257 -1189.37 0.
-607.007 -1171.09 0.
-581.932 -1151.63 0.
-625.938 -1119.08 0.
-627.913 -1165.49 0.
-630.741 -1211.05 0.
-936.086 -1484.89 0.
-936.166 -1485.13 0.
-715.104 -1259.86 0.
-701.075 -1236.06 0.
-687.238 -1212.06 0.
-777.343 -1273.83 0.
-755.932 -1244.34 0.
-735.65 -1213.72 0.
-892.806 -1283.67 0.
-916.566 -1357.55 0.
-941.503 -1430.25 0.
-0.378245 -0.458756 0.
-5.0387 -7.11887 0.
-6019.86 -3600.96 0.
-8.38411 -10.5963 0.
-7.08424 -6.39386 0.
-978.616 -1484.69 0.
-938.06 -1378.76 0.
-899.135 -1271.2 0.
-749.417 -1198.11 0.
-772.772 -1236.04 0.
-797.128 -1272.98 0.
-679.835 -1198.79 0.
-693.872 -1224.74 0.
-708.074 -1250.51 0.
-949.993 -1481.3 0.
-943.215 -1465.47 0.
-611.648 -1161.65 0.
-623.211 -1140.13 0.
-635.972 -1117.41 0.
-584.754 -1165.29 0.
-602.442 -1169.42 0.
-620.902 -1172.77 0.
-536.549 -1106.95 0.
-581.236 -1198.6 0.
-626.023 -1290.16 0.
-834.723 -1667.91 0.
-851.533 -1707.17 0.
-438.125 -929.643 0.
-667.524 -1463.14 0.
-891.753 -1936.13 0.
-411.542 -786.359 0.
-904.673 -1935.8 0.
-1465.76 -3017.27 0.
-60.2966 -35.8441 0.
-1340.71 -2523.75 0.
-2610.8 -5034.53 0.
-338.906 -317.164 0.
-1313.14 -1809.47 0.
-2330.63 -3258.48 0.
-49.0339 -102.635 0.
-4304.9 -7631.55 0.
-51.5042 -125.415 0.
-40.3432 -101.613 0.
-3554.95 -4521.51 0.
-92.5991 -150.869 0.
-1990.89 -2718.56 0.
-96.2421 -78.6279 0.
-2993.34 -4991.42 0.
-683.279 -887.951 0.
-1241.25 -1744.42 0.
-9.9775 -22.0844 0.
-185.085 -386.899 0.
1.41554 2.25933 0.
-0.0150843 -0.349295 0.
-3103.32 -6858.25 0.
-0.303756 -0.189148 0.
0.309456 0.410738 0.
-293.54 -683.782 0.
-8.72942 -21.3255 0.
-93.8351 -144.394 0.
-44.0068 -39.1859 0.
-87.3036 -140.972 0.
-88.5422 -140.413 0.
-98.374 -173.863 0.
-118.529 -135.901 0.
-108.779 -112.475 0.
-54.8437 -98.6787 0.
-56.6151 -87.1853 0.
-57.113 -82.6592 0.
-296.082 -382.941 0.
-63.9445 -109.631 0.
-37.4525 -51.9002 0.
-646.638 -1482.57 0.
-316.073 -600.53 0.
-83.0863 -98.0454 0.
-607.676 -1343.63 0.
-488.37 -1024.84 0.
-377.254 -697.875 0.
-866.254 -1628 0.
-865.662 -1626.64 0.
-651.712 -1270.47 0.
-614.043 -1196.57 0.
-576.64 -1122.41 0.
-653.222 -1121.53 0.
-627.164 -1103.06 0.
-601.986 -1083.7 0.
-654.584 -1070.24 0.
-655.757 -1117.45 0.
-657.76 -1163.83 0.
-1006.18 -1514.92 0.
-1006.26 -1515.15 0.
-765.022 -1249.83 0.
-752.03 -1224.99 0.
-739.245 -1199.94 0.
-874.628 -1249.18 0.
-853.856 -1219.06 0.
-834.2 -1187.82 0.
-974.836 -1256.94 0.
-998.119 -1331.29 0.
-1022.65 -1404.39 0.
0.142821 0.195939 0.
-1.88069 -2.83999 0.
-7214.52 -4106.43 0.
-4.81404 -3.20863 0.
-4.82595 -3.1512 0.
-1065.5 -1472.28 0.
-1025.19 -1366.1 0.
-985.591 -1259.23 0.
-851.747 -1176.57 0.
-875.028 -1214.58 0.
-899.28 -1251.62 0.
-758.823 -1195.69 0.
-772.753 -1221.74 0.
-786.848 -1247.62 0.
-1008.5 -1506.35 0.
-1001.72 -1490.53 0.
-641.71 -1105.7 0.
-654.433 -1083.02 0.
-668.173 -1059.32 0.
-594.696 -1093.22 0.
-611.034 -1098.7 0.
-630.546 -1101 0.
-526.848 -1070.29 0.
-571.903 -1161.58 0.
-617.257 -1252.56 0.
-792.363 -1603.15 0.
-824.205 -1627.39 0.
-308.209 -380.246 0.
-461.073 -896.891 0.
-654.176 -1401.29 0.
-79.042 -88.4736 0.
-65.2965 -57.9707 0.
-586.221 -1000.63 0.
-88.5705 -49.9414 0.
-53.1126 -34.5046 0.
-241.423 -115.413 0.
-68.9636 -44.8844 0.
-66.4326 -53.9567 0.
-236.151 -186.1 0.
-79.0756 -133.036 0.
-125.148 -216.352 0.
-34.1839 -91.9488 0.
-20.4667 -56.0039 0.
-8.82715 -23.4775 0.
-78.8812 -84.1979 0.
-40.2245 -51.6327 0.
-70.7249 -72.7 0.
-52.4247 -138.431 0.
-123.942 -274.45 0.
-0.210174 -1.50417 0.
-24.3173 -50.8584 0.
-1092.31 -1895.19 0.
-1570.76 -2595.25 0.
1.20437 2.58578 0.
3.74539 10.0072 0.
0.86171 2.35778 0.
3.7672 4.36748 0.
-103.107 -277.105 0.
-21.2692 -46.6524 0.
-2481.69 -4273.93 0.
-128.477 -243.162 0.
-2658.53 -4842.44 0.
-77.8201 -114.226 0.
-54.9644 -48.165 0.
-3307.83 -6431.18 0.
-84.6174 -54.4621 0.
-2752.1 -3871.15 0.
-651.206 -703.023 0.
-29.9098 -45.9097 0.
-2848.53 -5809.59 0.
-1020.16 -1881.57 0.
-51.8378 -73.0163 0.
-2015.13 -4226.46 0.
-987.694 -2153.36 0.
-53.5706 -59.5122 0.
-1163.05 -2446.83 0.
-745.292 -1553.88 0.
-354.669 -633.796 0.
-944.209 -1708.92 0.
-800.243 -1463.64 0.
-561.011 -1054.05 0.
-497.457 -935.213 0.
-434.764 -815.516 0.
-532.029 -812.349 0.
-517.528 -798.242 0.
-503.515 -783.647 0.
-532.571 -768.884 0.
-509.599 -725.642 0.
-486.783 -682.243 0.
-843.557 -1066.99 0.
-834.309 -1045.4 0.
-607.989 -711.446 0.
-611.212 -727.501 0.
-614.571 -743.42 0.
-760.607 -817.516 0.
-753.755 -809.047 0.
-747.517 -799.964 0.
-873.353 -909.353 0.
-928.065 -1036.38 0.
-983.044 -1163.15 0.
0.239818 0.328523 0.
0.110842 0.0244629 0.
-6520.95 -2789.73 0.
-2.0936 -0.760626 0.
-2.98075 -1.07866 0.
-974.03 -1181.29 0.
-924.706 -1065.27 0.
-887.473 -937.161 0.
-776.779 -816.786 0.
-771.838 -800.092 0.
-767.11 -783.186 0.
-622.795 -705.331 0.
-621.274 -695.723 0.
-619.777 -686.09 0.
-832.279 -1035.53 0.
-853.525 -1085.07 0.
-499.809 -691.501 0.
-523.05 -735.475 0.
-546.421 -779.32 0.
-494.976 -795.28 0.
-516.468 -824.54 0.
-538.14 -853.619 0.
-429.864 -824.533 0.
-528.329 -1019.09 0.
-626.873 -1213.57 0.
-844.018 -1614.54 0.
-1055.82 -1966.29 0.
-310.609 -443.185 0.
-807.625 -1654.04 0.
-1342.5 -2795.21 0.
-44.5293 -30.306 0.
-992.397 -1938.64 0.
-2429.13 -5109.25 0.
-65.5352 -36.5718 0.
-789.912 -460.63 0.
-2607.69 -3519.63 0.
-34.1149 -26.7841 0.
-3907.64 -8126.43 0.
-16.8157 -30.7763 0.
-31.2792 -46.9395 0.
-2930.91 -4328.17 0.
-0.0940391 -0.140582 0.
-3153.63 -5153.92 0.
-96.7863 -172.606 0.
-1212.07 -2603.56 0.
-31.1921 -49.5022 0.
-93.6636 -87.6166 0.
-262.99 -345.191 0.
-0.017117 -0.703789 0.
-1848.89 -4255.48 0.
-74.1505 -157.009 0.
-2943.68 -6476.55 0.
-1890.8 -2818.34 0.
0.27435 0.996757 0.
3.4372 7.78425 0.
0.964981 1.10675 0.
-0.525125 -0.632996 0.
-75.6999 -163.332 0.
-2267.26 -4361.26 0.
-12.9895 -19.6219 0.
-102.244 -194.982 0.
-38.1622 -31.0602 0.
-85.9896 -146.094 0.
-124.246 -138.695 0.
-46.1527 -40.5148 0.
-47.8566 -46.5016 0.
-63.4549 -94.2074 0.
-41.005 -53.6584 0.
-37.0605 -39.9975 0.
-42.5929 -69.0505 0.
-36.627 -44.0041 0.
-39.9586 -45.4861 0.
-426.258 -710.27 0.
-44.3112 -49.5238 0.
-48.7769 -60.2592 0.
-653.337 -1411.33 0.
-298.498 -454.412 0.
-64.411 -57.9676 0.
-686.106 -1270.54 0.
-558.822 -1008.44 0.
-472.507 -899.543 0.
-418.695 -770.946 0.
-367.815 -639.416 0.
-492.939 -744.035 0.
-480.748 -727.619 0.
-466.748 -713.012 0.
-530.795 -727.99 0.
-505.64 -686.927 0.
-482.715 -643.635 0.
-845.225 -1067.67 0.
-835.976 -1046.09 0.
-623.18 -694.922 0.
-626.31 -711.072 0.
-629.595 -727.067 0.
-755.616 -758.584 0.
-749.242 -749.641 0.
-743.509 -740.057 0.
-805.311 -856.72 0.
-860.307 -983.483 0.
-915.492 -1110.06 0.
0.017048 0.0135823 0.
0.0618257 0.00348571 0.
-5306.48 -2264.15 0.
-1.29636 -0.503896 0.
-2.18277 -0.80264 0.
-908.528 -1114.52 0.
-858.824 -998.871 0.
-809.532 -882.809 0.
-756.037 -765.868 0.
-751.32 -748.947 0.
-747.773 -730.856 0.
-631.557 -702.041 0.
-630.618 -691.848 0.
-629.805 -681.529 0.
-836.336 -1037.26 0.
-857.577 -1086.81 0.
-474.115 -643.666 0.
-497.282 -687.717 0.
-525.868 -726.351 0.
-438.038 -700.591 0.
-459.455 -729.925 0.
-480.615 -759.516 0.
-333.933 -543.47 0.
-409.366 -761.12 0.
-491.81 -971.761 0.
-512.278 -946.919 0.
-695.219 -1327.82 0.
-60.5568 -58.1335 0.
-118.23 -97.299 0.
-605.571 -1287.96 0.
-40.3117 -27.4772 0.
-37.8477 -22.3143 0.
-284.902 -168.879 0.
-58.019 -33.7166 0.
-37.7012 -23.6839 0.
-17.575 -18.6701 0.
-28.8529 -25.387 0.
-44.5622 -35.2524 0.
-8.48205 -19.3057 0.
-4.57863 -9.60517 0.
-129.619 -149.439 0.
-38.1372 -92.0606 0.
-48.7841 -129.022 0.
-49.1943 -129.803 0.
-1854.66 -3754.37 0.
-112.293 -168.718 0.
-2385.52 -3601.38 0.
-61.0744 -168.159 0.
-0.0732537 -1.74785 0.
-1.02835 -5.95397 0.
-0.0580207 -8.3154 0.
-465.751 -824.733 0.
-952.48 -1134.61 0.
-1.2533 -2.85412 0.
-1932.67 -3764.56 0.
0.140161 11.422 0.
0.0669359 0.0519376 0.
-29.2734 -44.7675 0.
-148.915 -252.863 0.
-40.7417 -49.7836 0.
-93.1671 -145.072 0.
-60.008 -28.8683 0.
-368.522 -276.043 0.
-283.943 -215.281 0.
-24.6495 -15.7974 0.
-34.1442 -34.6932 0.
-47.1508 -70.9706 0.
-56.2401 -62.8579 0.
-58.979 -62.9499 0.
-40.7202 -45.667 0.
-35.8047 -27.8693 0.
-31.3083 -34.4446 0.
-70.3784 -95.3082 0.
-49.0628 -44.6633 0.
-53.099 -53.7151 0.
-250.151 -269.314 0.
-46.6114 -43.5794 0.
-65.0378 -53.121 0.
-476.869 -783.291 0.
-366.914 -503.724 0.
-407.914 -721.127 0.
-360.293 -586.32 0.
-314.088 -450.095 0.
-459.481 -670.089 0.
-445.058 -655.906 0.
-431.305 -641.053 0.
-537.066 -679.048 0.
-511.493 -638.402 0.
-486.16 -597.514 0.
-846.893 -1068.36 0.
-837.642 -1046.78 0.
-639.015 -677.755 0.
-642.045 -694.006 0.
-645.234 -710.099 0.
-751.362 -698.914 0.
-745.538 -689.426 0.
-740.03 -679.621 0.
-742.274 -799.082 0.
-797.334 -925.799 0.
-852.482 -1052.43 0.
0.110962 0.0130906 0.
0.0229828 0.000261337 0.
-5187.58 -2225.7 0.
-0.483178 -0.226642 0.
-1.36016 -0.595773 0.
-843.291 -1047.48 0.
-793.387 -932.025 0.
-743.668 -816.381 0.
-741.489 -708.755 0.
-736.718 -691.885 0.
-732.401 -674.56 0.
-653.262 -685.808 0.
-652.448 -675.486 0.
-651.789 -665.01 0.
-840.393 -1038.99 0.
-861.628 -1088.54 0.
-457.075 -587.178 0.
-485.467 -626.007 0.
-513.991 -664.704 0.
-394.093 -592.91 0.
-416.465 -621.288 0.
-437.768 -650.735 0.
-258.044 -242.366 0.
-328.248 -465.305 0.
-401.538 -685.157 0.
-245.598 -214.234 0.
-404.231 -619.732 0.
-53.2426 -47.8463 0.
-37.036 -21.4791 0.
-30.8799 -12.9212 0.
-53.598 -45.8635 0.
-33.5327 -19.3299 0.
-29.9412 -22.3477 0.
-61.463 -35.8233 0.
-41.1052 -26.6149 0.
-20.6861 -20.6276 0.
-60.1624 -37.5572 0.
-38.7851 -32.8742 0.
-280.574 -134.004 0.
-141.764 -102.832 0.
-274.371 -218.515 0.
-170.69 -185.511 0.
-170.953 -238.301 0.
-35.2574 -86.9295 0.
-593.118 -1297.72 0.
-96.2522 -110.826 0.
-8.56275e-06 -0.937936 0.
-1238.37 -1980.8 0.
-0.0193382 -0.0472458 0.
-2339.42 -4164.2 0.
2.66358 6.97414 0.
-90.8478 -131.5 0.
-552.193 -673.788 0.
-6.90785 -11.8381 0.
-1.25223 -5.7059 0.
-0.199169 -9.0793 0.
-0.370585 -1.01498 0.
-2260.47 -3835.04 0.
-358.105 -374.803 0.
-70.8192 -79.6418 0.
-95.5845 -105.395 0.
-2415.57 -4325.88 0.
-1740.77 -1661.7 0.
-88.0612 -133.741 0.
-2467.98 -4728.92 0.
-74.8212 -140.839 0.
-79.4511 -153.265 0.
-3735.8 -6384.85 0.
-65.4296 -124.616 0.
-2916.02 -4674.61 0.
-55.8146 -89.933 0.
-45.244 -65.5526 0.
-3053.16 -6891.43 0.
-155.262 -151.446 0.
-65.0179 -81.7845 0.
-1929.39 -4412.65 0.
-723.854 -1619.61 0.
-56.9551 -68.989 0.
-1261.93 -2673.24 0.
-816.178 -1760.81 0.
-914.481 -1919.28 0.
-684.986 -1440.19 0.
-472.895 -943.703 0.
-696.585 -1337.31 0.
-603.968 -1168.47 0.
-512.158 -998.82 0.
-679.092 -1086.68 0.
-640.618 -1033.16 0.
-603.015 -978.771 0.
-1000.71 -1516.63 0.
-990.301 -1492.36 0.
-746.765 -1078.39 0.
-737.052 -1064.26 0.
-727.939 -1049.54 0.
-799.342 -1070.45 0.
-819.552 -1121.75 0.
-840.086 -1172.73 0.
-851.409 -1303.92 0.
-915.849 -1468.7 0.
-985.765 -1628.02 0.
-0.860412 -1.29547 0.
-1.13185 -2.05351 0.
-5046.33 -3491.25 0.
-2.49718 -4.98069 0.
-1.37226 -2.11249 0.
-995.913 -1678.74 0.
-918.319 -1495.68 0.
-850.934 -1302.41 0.
-832.6 -1165.79 0.
-811.523 -1113.49 0.
-790.583 -1061.04 0.
-729.008 -1052.65 0.
-741.2 -1073.37 0.
-755.246 -1092.24 0.
-987.244 -1501.18 0.
-1005.67 -1544.15 0.
-569.314 -956.971 0.
-627.806 -1054.62 0.
-687.523 -1151.05 0.
-475.89 -979.411 0.
-595.052 -1239.81 0.
-723.388 -1491.03 0.
-428.121 -836.933 0.
-685.984 -1517.97 0.
-990.681 -2152.18 0.
-838.946 -1749.32 0.
-1466.72 -3172.67 0.
-42.4198 -54.6045 0.
-713.084 -1336.99 0.
-2357.32 -5165.63 0.
-50.9806 -59.1481 0.
-32.3308 -22.2474 0.
-2942.57 -6170.43 0.
-34.6004 -13.1022 0.
-34.0071 -13.3772 0.
-3156.11 -4504.9 0.
-53.3935 -43.8295 0.
-3031.49 -5861.03 0.
-47.3474 -106.961 0.
-698.912 -718.262 0.
-1259.94 -2912.76 0.
-218.513 -121.751 0.
-1778.91 -3204.06 0.
-24.7704 -58.0527 0.
-117.325 -145.709 0.
-81.4515 -55.3594 0.
0.836746 2.2097 0.
-347.144 -763.638 0.
-0.117775 -2.42585 0.
4.90275 11.2773 0.
-1.48454 -2.95151 0.
-2990.19 -4626.87 0.
-1540.19 -2287.1 0.
-2.21844 -4.16956 0.
-2032.96 -3471.17 0.
-0.84199 -12.8192 0.
-1769.76 -3005.83 0.
2.76695 6.42088 0.
-343.331 -238.427 0.
-102.732 -112.398 0.
-173.482 -331.842 0.
-702.491 -1582.34 0.
-0.0305785 -0.016619 0.
-7.02548 -5.07702 0.
-22.5283 -30.8569 0.
-76.9485 -107.322 0.
-77.6311 -115.791 0.
-70.1659 -161.292 0.
-56.4131 -128.272 0.
-105.062 -165.069 0.
-75.409 -106.621 0.
-50.9794 -74.5227 0.
-65.4622 -75.1654 0.
-66.5252 -76.831 0.
-63.0245 -84.3802 0.
-420.571 -808.723 0.
-60.5471 -75.716 0.
-51.0636 -60.6771 0.
-668.221 -1356.98 0.
-280.407 -385.256 0.
-578.984 -1216.58 0.
-386.66 -699.941 0.
-210.926 -166.715 0.
-541.291 -1106.72 0.
-460.921 -925.579 0.
-391.095 -733.895 0.
-615.327 -972.153 0.
-577.614 -917.868 0.
-540.677 -862.808 0.
-953.35 -1496.29 0.
-942.94 -1472.03 0.
-690.555 -984.549 0.
-681.019 -970.248 0.
-672.049 -955.382 0.
-720.931 -997.106 0.
-740.694 -1048.86 0.
-760.771 -1100.31 0.
-736.132 -1223.22 0.
-806.072 -1382.53 0.
-876.203 -1541.66 0.
-1.90713 -2.4544 0.
-1.8256 -2.2296 0.
-4583.44 -3290.33 0.
-3.88935 -9.86962 0.
-2.03562 -4.70617 0.
-896.447 -1590.3 0.
-818.625 -1407.44 0.
-741.204 -1224.19 0.
-747.51 -1093.13 0.
-725.082 -1042.17 0.
-703.855 -990.007 0.
-665.197 -943.582 0.
-678.131 -963.562 0.
-691.943 -982.665 0.
-926.448 -1471.65 0.
-949.109 -1510.39 0.
-501.522 -814.585 0.
-559.016 -913.254 0.
-617.681 -1010.75 0.
-315.395 -566.174 0.
-415.403 -845.835 0.
-527.138 -1113.77 0.
-15.6918 -33.0514 0.
-288.256 -470.674 0.
-544.146 -1154.39 0.
-48.6017 -53.9786 0.
-663.614 -1298.84 0.
-42.0615 -55.5985 0.
-50.1892 -55.5382 0.
-57.6023 -65.8648 0.
-50.6441 -60.0564 0.
-26.623 -21.2011 0.
-12.008 -6.76686 0.
-20.0167 -7.59043 0.
-15.7455 -6.06283 0.
-24.7312 -10.3999 0.
-5.53218 -3.777 0.
-41.5475 -69.6162 0.
-59.588 -117.691 0.
-911.132 -1102.57 0.
-145.91 -139.612 0.
-199.301 -113.99 0.
-55.0017 -89.269 0.
-1399.54 -2562.02 0.
-102.641 -104.864 0.
-64.3667 -27.4807 0.
-1789.33 -4367.97 0.
-135.338 -266.272 0.
6.53909 13.8542 0.
-1311.6 -2590.3 0.
-1.37527 -2.27581 0.
-10.334 -30.6756 0.
-388.179 -711.327 0.
-8.15141 -17.4292 0.
4.79974 8.1547 0.
-0.0928791 -0.665028 0.
-0.730148 -9.26337 0.
0.0278511 7.55859 0.
-245.25 -119.447 0.
-2518.57 -4706.42 0.
0.489875 0.194569 0.
-247.049 -535.238 0.
0.555377 0.384092 0.
-0.168342 -0.127138 0.
-8.50831 -9.822 0.
-101.917 -128.456 0.
-219.626 -502.721 0.
-1565.76 -3112.45 0.
-36.0784 -92.7306 0.
-2542.39 -4436.71 0.
-33.9266 -52.9807 0.
-39.3886 -63.7626 0.
-2856.42 -6728.47 0.
-46.281 -50.317 0.
-32.9588 -29.5863 0.
-2452.55 -5213.02 0.
-306.428 -303.029 0.
-39.3975 -53.3657 0.
-1679.23 -3754.07 0.
-774.424 -1619.15 0.
-1101.13 -2282 0.
-697.077 -1424.46 0.
-322.12 -537.819 0.
-825.45 -1653.71 0.
-613 -1230.05 0.
-411.949 -794.992 0.
-646.468 -1083.79 0.
-523.769 -825.519 0.
-395.996 -572.323 0.
-798.339 -1268.68 0.
-772.577 -1221.66 0.
-549.809 -662.215 0.
-558.846 -689.864 0.
-568.094 -717.301 0.
-586.322 -784.928 0.
-593.819 -801.077 0.
-601.753 -816.789 0.
-541.331 -880.176 0.
-572.433 -945.87 0.
-603.791 -1011.31 0.
-0.959579 -0.355131 0.
-0.684402 -0.283339 0.
-3985.98 -2609.49 0.
0.00461114 0.290591 0.
0.00071344 0.36566 0.
-607.534 -1036.94 0.
-568.702 -955.029 0.
-529.938 -873.056 0.
-580.227 -811.97 0.
-577.332 -807.157 0.
-576.145 -800.635 0.
-563.243 -724.126 0.
-558.777 -709.445 0.
-554.773 -694.303 0.
-752.725 -1258.98 0.
-798.722 -1330.64 0.
-365.833 -561.862 0.
-523.904 -891.612 0.
-679.742 -1223.59 0.
-346.647 -678.993 0.
-633.443 -1360.07 0.
-940.902 -2020.48 0.
-262.093 -349.072 0.
-728.668 -1473.52 0.
-1252.68 -2540.52 0.
-704.753 -1317.12 0.
-1902.49 -4238.07 0.
-35.1496 -29.5896 0.
-34.5268 -27.1084 0.
-2936.79 -6498.87 0.
-32.6295 -33.4395 0.
-28.5091 -32.9994 0.
-2820.18 -3233.02 0.
-22.6324 -32.3689 0.
-3549.16 -6764.38 0.
-0.0520193 -0.0365673 0.
0.426446 0.293828 0.
-2576.21 -5072.61 0.
-478.339 -304.826 0.
-1146.46 -1470.27 0.
-132.333 -117.337 0.
-183.655 -114.091 0.
-0.269303 -0.295212 0.
-85.9432 -230.271 0.
-1880.6 -3058.41 0.
5.5833 13.9762 0.
-60.964 -139.296 0.
-1640.76 -2933.15 0.
-0.490648 -17.0226 0.
-237.701 -411.76 0.
3.46154 5.9533 0.
-1035.89 -1418.28 0.
-409.185 -618.278 0.
-74.8682 -138.904 0.
-946.795 -1543.33 0.
-2.11124 -10.6888 0.
-1977.2 -4293.74 0.
0.643352 10.5565 0.
-87.7397 -37.1321 0.
4.34121 6.60217 0.
-1.85817 -1.0854 0.
-354.217 -850.155 0.
1.0535 0.596673 0.
-2423.81 -3467.79 0.
-9.39707 -15.9877 0.
-2234.56 -4646.61 0.
-1.05873 -2.64956 0.
-88.0522 -213.681 0.
-41.6225 -81.635 0.
-339.507 -286.675 0.
-28.0338 -36.128 0.
-34.8597 -51.635 0.
-47.9522 -72.3676 0.
-36.3855 -47.596 0.
-25.2404 -26.6377 0.
-32.9187 -17.0796 0.
-36.6345 -28.0196 0.
-54.1237 -69.5378 0.
-602.163 -1175.24 0.
-42.0779 -43.213 0.
-513.046 -951.852 0.
-116.502 -85.551 0.
-44.2344 -38.7721 0.
-510.833 -1047.28 0.
-327.328 -594.374 0.
-174.807 -110.482 0.
-483.89 -883.748 0.
-365.381 -621.217 0.
-261.075 -355.732 0.
-679.316 -1155.37 0.
-645.125 -1116.78 0.
-453.532 -581.673 0.
-462.705 -609.191 0.
-471.965 -636.622 0.
-452.668 -683.428 0.
-460.766 -698.982 0.
-469.489 -713.91 0.
-413.764 -817.708 0.
-444.76 -883.516 0.
-475.945 -949.136 0.
-0.280218 -0.104884 0.
-0.0995317 -0.0471081 0.
-2694.31 -2051.41 0.
0.0132374 0.232463 0.
0.00286467 0.443029 0.
-465.323 -961.115 0.
-426.472 -879.215 0.
-387.783 -797.154 0.
-450.935 -706.087 0.
-447.12 -702.194 0.
-444.379 -697.228 0.
-460.616 -625.237 0.
-455.999 -610.702 0.
-451.824 -595.725 0.
-598.979 -1114.33 0.
-648.716 -1182.27 0.
-202.77 -252.017 0.
-331.61 -609.961 0.
-475.157 -954.358 0.
-27.3454 -37.3156 0.
-283.784 -492.335 0.
-542.795 -1201.81 0.
-24.8813 -35.9891 0.
-28.1947 -39.5793 0.
-470.399 -667.098 0.
-25.1616 -36.3876 0.
-516.762 -699.778 0.
-24.6376 -22.6093 0.
-23.931 -21.453 0.
-24.6867 -23.9229 0.
-23.147 -23.7757 0.
-15.4089 -21.5882 0.
-18.7688 -33.9 0.
-12.1549 -17.7532 0.
-0.800739 -0.89943 0.
-0.709164 -0.501716 0.
-0.188557 -0.130999 0.
-0.060524 -0.0412145 0.
-86.6265 -58.9336 0.
-916.129 -1205.23 0.
-2426.55 -5296.52 0.
-167.243 -109.37 0.
-29.2528 -30.1349 0.
-149.127 -323.31 0.
-499.048 -772.819 0.
-0.048195 -10.5755 0.
4.36746 9.34227 0.
7.1316 15.1754 0.
7.72061 18.1962 0.
-2781.8 -4332.28 0.
11.7665 21.8192 0.
-553.846 -752.782 0.
-15.9677 -24.3776 0.
-10.032 -55.2871 0.
-767.034 -1320.38 0.
17.1631 34.4707 0.
-2.7163 -26.635 0.
0.277372 14.3509 0.
-27.1418 -63.1796 0.
-323.409 -627.999 0.
-1.64321 -1.07204 0.
0.976969 2.04364 0.
-1334.61 -2925.1 0.
-1.60871 -2.26802 0.
-0.722552 -1.33888 0.
-6.01833 -14.7991 0.
-0.119912 -0.328712 0.
-124.64 -275.265 0.
-246.958 -243.156 0.
-732.343 -500.237 0.
-61.6774 -84.1192 0.
-46.9745 -59.0067 0.
-47.7684 -76.1671 0.
-39.6719 -49.1488 0.
-46.2731 -33.8107 0.
-56.6056 -28.2029 0.
-61.0346 -37.4003 0.
-88.4121 -85.745 0.
-42.997 -51.5928 0.
-55.612 -53.662 0.
-48.5033 -57.539 0.
-49.1682 -45.1672 0.
-40.7238 -42.5502 0.
-257.983 -379.091 0.
-53.8431 -40.2339 0.
-76.4763 -57.3454 0.
-336.566 -668.454 0.
-231.583 -392.325 0.
-162.115 -196.181 0.
-569.114 -1033.25 0.
-536.03 -993.535 0.
-355.221 -503.165 0.
-366.328 -528.755 0.
-376.452 -555.328 0.
-321.202 -579.74 0.
-330.597 -594.003 0.
-340.458 -607.798 0.
-297.789 -743.647 0.
-319.472 -818.777 0.
-350.657 -884.405 0.
-0.0131618 -0.0100085 0.
-0.215366 -0.0593201 0.
-1869.79 -1696.48 0.
0.0465397 0.188397 0.
2.89076e-05 0.321308 0.
-330.483 -877.924 0.
-301.382 -786.261 0.
-275.878 -691.002 0.
-330.349 -591.498 0.
-325.242 -588.897 0.
-320.438 -585.994 0.
-358.54 -525.797 0.
-353.564 -511.616 0.
-347.345 -498.678 0.
-456.711 -958.207 0.
-504.382 -1028.23 0.
-58.002 -47.8289 0.
-202.642 -264.984 0.
-325.017 -630.675 0.
-32.4693 -42.4057 0.
-29.066 -40.3918 0.
-234.019 -293.806 0.
-43.1029 -51.3313 0.
-38.3382 -41.8337 0.
-47.836 -55.8914 0.
-17.7292 -31.0292 0.
-9.62088 -18.2841 0.
-13.8938 -15.9755 0.
-13.3419 -15.9059 0.
-17.9402 -26.154 0.
-13.9112 -15.702 0.
-5.74677 -12.3202 0.
-14.0917 -31.8346 0.
-16.2894 -19.8721 0.
-1.59251 -1.53712 0.
-0.075795 -0.0541552 0.
-0.00964499 -0.00674992 0.
-30.1689 -20.2671 0.
-14.4141 -19.5969 0.
-60.658 -117.825 0.
-146.909 -363.313 0.
-79.7544 -203.262 0.
-91.7698 -130.473 0.
-181.414 -321.84 0.
-1.27524 -20.4665 0.
-1426.48 -3688.9 0.
-2.10982 -12.3499 0.
-1888.79 -3941.91 0.
-1.21097 -9.62555 0.
13.9796 24.1866 0.
5.03184 7.89039 0.
-608.121 -941.206 0.
44.4163 82.4753 0.
21.1512 36.0001 0.
-328.072 -656.81 0.
8.76355 16.4236 0.
-127.58 -275.57 0.
0.0396421 1.23394 0.
-8.2171 -18.4825 0.
-690.814 -1414.3 0.
1.44933 0.958588 0.
-1404.01 -2915.89 0.
-101.197 -242.613 0.
2.18906 3.29609 0.
-0.636981 -3.32522 0.
-1.85363 -4.88267 0.
-1763.12 -3944.51 0.
-1274.43 -1730.59 0.
-112.701 -246.82 0.
-30.2272 -50.7859 0.
-3466.87 -7191.31 0.
-59.3738 -111.005 0.
-2311.35 -3801.4 0.
-39.672 -52.2802 0.
-47.8076 -70.0672 0.
-2531.68 -5641.5 0.
-51.0508 -57.4699 0.
-57.5296 -72.423 0.
-2266.9 -5373 0.
-284.226 -302.191 0.
-1600.91 -3318.71 0.
-736.076 -1351.55 0.
-21.9517 -34.1767 0.
-1120.12 -2603.28 0.
-624.578 -1431.91 0.
-167.164 -222.396 0.
-763.943 -1825.11 0.
-529.064 -1252.91 0.
-313.037 -661.863 0.
-754.983 -1754.66 0.
-680.421 -1603.92 0.
-502.12 -1138.09 0.
-475.293 -1074.97 0.
-449.12 -1011.18 0.
-416.817 -1038.22 0.
-430.295 -1070.59 0.
-445.546 -1101.19 0.
-406.454 -1118.2 0.
-380.596 -1049.38 0.
-355.548 -979.752 0.
-109.403 -271.966 0.
-143.35 -385.029 0.
-1238.53 -1949.68 0.
-219.392 -579.009 0.
-176.087 -420.818 0.
-321.377 -876.783 0.
-361.546 -990.535 0.
-402.284 -1103.72 0.
-415.27 -1084.77 0.
-400.501 -1055.61 0.
-387.764 -1024.41 0.
-403.953 -979.737 0.
-449.881 -1089.19 0.
-498.071 -1196.38 0.
-652.842 -1583.25 0.
-762.774 -1816.14 0.
-281.438 -509.234 0.
-569.953 -1343.87 0.
-892.797 -2144.17 0.
-19.5792 -23.4272 0.
-644.567 -1475.09 0.
-1314.3 -3066.42 0.
-29.1273 -42.3796 0.
-722.494 -1166.42 0.
-1827.52 -3721.75 0.
-16.2267 -25.9587 0.
-2385.64 -5221.24 0.
-19.6918 -50.1289 0.
-20.3253 -49.105 0.
-2740.86 -6274.04 0.
-4.49174 -6.15616 0.
-21.9196 -28.7569 0.
-2734.16 -4294.11 0.
-40.7176 -49.501 0.
-2180.89 -3336.83 0.
-113.527 -112.3 0.
-2134.2 -4318.51 0.
-0.309107 -0.267622 0.
-18.5882 -25.1474 0.
-5.55351 -14.3922 0.
-88.8908 -196.049 0.
-0.00101469 -1.14724 0.
-2460.02 -4118.87 0.
-324.188 -546.675 0.
0.228558 11.2397 0.
5.10673 11.1456 0.
-0.42713 -10.9879 0.
12.0673 28.9832 0.
17.0802 32.6665 0.
-1216.64 -2103.2 0.
-18.1353 -58.9434 0.
-423.906 -723.876 0.
29.2855 56.8537 0.
-1122.13 -1708.77 0.
-490.464 -935.462 0.
-5.28342 -35.4055 0.
-1955.69 -4014.54 0.
-0.279505 -6.35395 0.
-1708.24 -3749.32 0.
-491.437 -1180.34 0.
0.0127912 0.774664 0.
-113.36 -227.419 0.
-136.85 -350.454 0.
-0.00324105 -1.03682 0.
-2332.67 -4720.59 0.
-0.121717 -1.92563 0.
-453.861 -1107.06 0.
-5.58108e-06 -0.67036 0.
-16.3541 -36.4319 0.
-8.91821 -24.6759 0.
-79.888 -180.681 0.
-14.1314 -18.1985 0.
-34.7099 -30.9508 0.
-39.0771 -31.3741 0.
-53.8555 -63.4986 0.
-35.7367 -61.4838 0.
-30.849 -53.7829 0.
-31.3939 -59.2266 0.
-41.5476 -52.2728 0.
-40.4009 -45.6553 0.
-325.25 -380.52 0.
-40.9006 -32.5521 0.
-28.8029 -36.578 0.
-527.304 -1166.87 0.
-37.6651 -50.2102 0.
-28.5864 -49.6834 0.
-502.568 -1251.19 0.
-292.12 -654.21 0.
-78.4252 -79.6504 0.
-590.649 -1445.14 0.
-524.004 -1286.43 0.
-378.357 -966.286 0.
-350.531 -904.145 0.
-332.117 -832.592 0.
-342.309 -922.847 0.
-353.497 -957.51 0.
-366.345 -990.514 0.
-349.87 -965.556 0.
-324.253 -896.486 0.
-299.15 -826.904 0.
-214.43 -547.94 0.
-243.115 -666.235 0.
-686.913 -1657.66 0.
-314.026 -855.537 0.
-275.679 -692.429 0.
-278.184 -763.393 0.
-318.661 -876.853 0.
-359.11 -990.342 0.
-331.3 -913.843 0.
-318.748 -882.459 0.
-307.805 -849.468 0.
-285.175 -730.005 0.
-319.039 -851.549 0.
-361.765 -964.232 0.
-459.208 -1159.39 0.
-552.957 -1408.56 0.
-46.4071 -58.6253 0.
-272.322 -512.813 0.
-559.809 -1349.13 0.
-15.268 -20.2999 0.
-17.3499 -25.2973 0.
-502.693 -1073.31 0.
-38.1283 -59.7785 0.
-21.1621 -40.4375 0.
-45.2524 -61.2838 0.
-18.4413 -23.3696 0.
-23.7522 -38.8092 0.
-14.6789 -34.6352 0.
-14.0347 -31.9894 0.
-14.1953 -31.4309 0.
-7.49609 -7.73951 0.
-5.54003 -3.97819 0.
-30.5153 -41.7416 0.
-26.3501 -40.3107 0.
-39.2806 -66.2129 0.
-88.2713 -90.0728 0.
-103.645 -55.4045 0.
0.13612 0.354367 0.
-1860.11 -3253.17 0.
-926.702 -1999.09 0.
-96.7626 -217.888 0.
0.0163067 0.392097 0.
-0.0814418 -3.15198 0.
-587.343 -980.845 0.
7.93164 21.8102 0.
-93.9654 -188.75 0.
10.2356 24.7266 0.
-4.40033 -10.0726 0.
21.1247 37.3446 0.
-14.1207 -27.1795 0.
-29.2975 -72.8938 0.
-405.325 -612.086 0.
-26.7457 -163.043 0.
-27.8045 -44.6889 0.
-11.9702 -69.8829 0.
2.18626 4.24101 0.
-134.833 -317.359 0.
-1.49174 -36.4386 0.
6.64739 15.2149 0.
5.43009 12.6062 0.
4.62272 11.9782 0.
-69.3705 -135.628 0.
-204.616 -541.122 0.
-128.859 -354.451 0.
-62.7303 -133.222 0.
-0.00618479 -0.126533 0.
-4.95273 -13.5726 0.
-0.018572 -2.50804 0.
-1.27716 -2.57455 0.
-0.826913 -2.22131 0.
-46.7079 -117.095 0.
-162.678 -401.291 0.
-2164.54 -4082.28 0.
-48.4561 -50.7962 0.
-51.6823 -60.2565 0.
-2289.33 -5343.29 0.
-18.2896 -49.2948 0.
-13.3107 -28.0419 0.
-2274.95 -5110.2 0.
-29.9841 -41.935 0.
-1770.76 -3680.07 0.
-514.866 -728.724 0.
-21.4966 -21.5025 0.
-1380.02 -3243.23 0.
-560.363 -1247.63 0.
-44.0213 -46.2102 0.
-918.223 -2263.11 0.
-517.44 -1283.9 0.
-148.146 -273.201 0.
-726.322 -1729.7 0.
-560.387 -1383.71 0.
-430.135 -1084.71 0.
-355.665 -938.898 0.
-293.003 -781.28 0.
-327.198 -863.682 0.
-300.095 -808.116 0.
-277.165 -748.378 0.
-262.75 -719.524 0.
-225.322 -608.816 0.
-187.303 -498.699 0.
-132.284 -362.464 0.
-93.4055 -257.663 0.
-697.327 -1031.68 0.
-175.982 -417.474 0.
-193.872 -482.478 0.
-173.912 -431.735 0.
-232.92 -610.365 0.
-291.702 -789.221 0.
-253.354 -699.753 0.
-294.91 -807.152 0.
-341.353 -909.663 0.
-295.311 -785.309 0.
-379.394 -999.318 0.
-477.287 -1199.52 0.
-553.656 -1426.08 0.
-784.037 -1954.69 0.
-96.5531 -95.5893 0.
-555.104 -1369.76 0.
-1050.65 -2606.92 0.
-15.3052 -26.0265 0.
-500.583 -1139.05 0.
-1645.62 -3979.26 0.
-76.1813 -63.1621 0.
-373.86 -233.846 0.
-1892.8 -3592.76 0.
-22.1084 -29.2081 0.
-2412.54 -5685.5 0.
-181.466 -250.43 0.
-7.25176 -15.2124 0.
-1971.82 -2573.44 0.
-0.410886 -0.217163 0.
-2491.3 -6252.75 0.
-80.0714 -137.289 0.
-14.2199 -28.469 0.
-25.0018 -50.8041 0.
-62.0517 -69.905 0.
-18.1115 -17.9511 0.
0.140904 0.38337 0.
-107.012 -295.298 0.
-1.14472 -3.69435 0.
-454.04 -1225.54 0.
-0.402214 -4.21188 0.
4.22993 10.5212 0.
-6.60405 -16.3737 0.
6.82017 18.8742 0.
-2384.94 -4352.83 0.
-1.7168 -19.9132 0.
-1806.81 -3888.36 0.
-7.56101 -45.3437 0.
-1020.69 -1914.45 0.
-1520.57 -2103.33 0.
59.8245 105.245 0.
5.02312 13.8752 0.
-905.571 -1469.75 0.
-1710 -3366.14 0.
-137.903 -254.321 0.
18.9918 39.9176 0.
-1.4224 -24.4618 0.
7.47742 16.4441 0.
10.2472 23.1075 0.
-1555.83 -3829.86 0.
-799.548 -1508.66 0.
8.80088 22.1683 0.
-316.992 -809.32 0.
-11.1162 -24.3319 0.
-0.122722 -3.00683 0.
0.649432 1.7984 0.
-7.3787 -17.9191 0.
-2144.01 -4698.18 0.
-10.6906 -28.8428 0.
-1768.11 -4376.66 0.
-14.3923 -32.4193 0.
-16.6994 -31.2787 0.
-15.2407 -30.3404 0.
-20.8459 -55.1106 0.
-23.2653 -59.1596 0.
-14.3605 -28.8636 0.
-4.26537 -9.66633 0.
-54.8014 -55.8358 0.
-37.6836 -46.1673 0.
-27.9683 -52.4985 0.
-16.9973 -32.0742 0.
-21.1373 -20.2874 0.
-409.793 -839.427 0.
-39.935 -35.7953 0.
-39.7053 -46.256 0.
-500.981 -1245.79 0.
-133.236 -232.513 0.
-36.7457 -55.8851 0.
-455.611 -1122.85 0.
-307.747 -758.558 0.
-296.917 -786.202 0.
-230.966 -631.825 0.
-172.918 -469.545 0.
-255.012 -691.847 0.
-230.546 -633.636 0.
-208.214 -573.291 0.
-249.168 -684.313 0.
-212.011 -573.33 0.
-174.7 -462.5 0.
-182.957 -485.385 0.
-143.563 -381.114 0.
-254.699 -683.864 0.
-232.261 -522.49 0.
-250.837 -586.802 0.
-150.727 -381.041 0.
-210.533 -558.885 0.
-271.961 -735.106 0.
-178.212 -484.281 0.
-218.17 -593.3 0.
-260.638 -699.808 0.
-144.61 -379.118 0.
-223.438 -598.467 0.
-309.262 -810.82 0.
-245.177 -660.47 0.
-455.548 -1209.52 0.
-15.9 -27.5006 0.
-13.118 -21.1795 0.
-495.818 -1225.76 0.
-8.97683 -17.1274 0.
-6.61763 -13.6517 0.
-339.721 -746.429 0.
-11.6261 -30.49 0.
-16.2669 -42.4518 0.
-22.0047 -53.321 0.
-14.727 -21.0628 0.
-13.9011 -20.7445 0.
-1.06882 -0.397161 0.
-11.6925 -18.7851 0.
-18.9811 -42.7391 0.
-0.176121 -0.0639052 0.
-11.3176 -19.6833 0.
-17.403 -36.4027 0.
-0.0484557 -0.217161 0.
-1911.24 -3615.95 0.
-88.6993 -105.011 0.
-187.444 -247.092 0.
-0.000865816 -0.180862 0.
-107.307 -296.304 0.
0.337484 0.601906 0.
-951.874 -2177.6 0.
-0.966247 -7.00753 0.
2.8073 6.76355 0.
-1.60962 -30.0059 0.
5.73933 13.7566 0.
9.23753 22.3849 0.
4.17079 10.6769 0.
-9.45652 -20.2139 0.
23.3263 45.5011 0.
41.3544 88.303 0.
57.2118 89.4436 0.
45.3111 86.3527 0.
-0.637929 -78.827 0.
98.2734 162 0.
-3.31312 -7.03002 0.
22.104 47.2052 0.
22.0525 50.5719 0.
-55.7512 -131.739 0.
-1202.68 -2588.82 0.
-3.68926 -32.2171 0.
9.77522 23.7096 0.
7.28275 19.1458 0.
10.257 24.7762 0.
-489.24 -1215.92 0.
-0.00204057 -13.9641 0.
-0.140661 -3.83841 0.
-1491.11 -2947.71 0.
-0.390574 -3.80975 0.
-43.0507 -106.923 0.
-0.00199968 -3.05508 0.
-60.4619 -165.933 0.
-13.1652 -27.7318 0.
-0.215283 -0.669807 0.
-5.63353 -15.2909 0.
-12.9361 -35.8006 0.
-19.7177 -38.3284 0.
-7.39384 -12.1919 0.
-4.94563 -11.9459 0.
-66.9913 -55.1558 0.
-48.2027 -50.4017 0.
-35.1279 -55.7544 0.
-23.3078 -35.9553 0.
-20.7392 -22.2724 0.
-41.2135 -30.4761 0.
-40.2662 -35.8698 0.
-37.7899 -45.3309 0.
-129.7 -182.515 0.
-42.9058 -46.674 0.
-45.9912 -58.4163 0.
-210.031 -490.879 0.
-101.819 -202.145 0.
-179.695 -471.702 0.
-118.763 -312.256 0.
-83.948 -215.755 0.
-189.386 -513.453 0.
-165.695 -454.458 0.
-142.928 -394.539 0.
-236.166 -648.522 0.
-199.135 -537.409 0.
-161.291 -427.107 0.
-240.855 -601.081 0.
-200.094 -498.19 0.
-264.708 -671.987 0.
-307.227 -608.818 0.
-326.992 -671.936 0.
-145.961 -357.855 0.
-197.22 -498.331 0.
-259.205 -674.007 0.
-109.77 -287.772 0.
-142.679 -378.198 0.
-183.37 -486.506 0.
-26.8231 -66.3193 0.
-73.7837 -193.969 0.
-154.064 -409.295 0.
-12.0366 -18.6543 0.
-165.172 -426.23 0.
-17.2 -26.0236 0.
-15.3307 -20.9834 0.
-16.7868 -25.7457 0.
-4.80724 -10.136 0.
-3.72854 -8.48646 0.
-3.58991 -8.73532 0.
-14.0305 -38.1159 0.
-14.196 -38.0333 0.
-18.6456 -50.2916 0.
-15.5513 -20.434 0.
-8.61951 -9.89059 0.
-18.457 -7.5031 0.
-24.5345 -21.5036 0.
-33.2109 -45.389 0.
-0.0354713 -0.0261417 0.
-8.4232 -13.6418 0.
-5.77902 -11.5215 0.
-0.276464 -0.823078 0.
0.341608 0.640413 0.
-40.0439 -108.487 0.
-1598.59 -2697.28 0.
-1525.5 -2782.07 0.
-0.247399 -5.78214 0.
-0.691551 -3.19816 0.
-139.043 -341.355 0.
-0.639039 -19.6785 0.
-1557.27 -3675.37 0.
-6.0919 -14.855 0.
4.15354 9.37558 0.
-2.84526 -33.6901 0.
-1.4384 -3.54321 0.
-9.0394 -51.3032 0.
-9.3139 -57.1395 0.
-1138.46 -2391.45 0.
59.3916 95.2889 0.
-19.8687 -94.5575 0.
-0.844282 -34.4626 0.
2.42652 3.99138 0.
-66.5076 -139.6 0.
-121.765 -250.454 0.
-4.42196 -37.2708 0.
-3.2486 -8.36711 0.
-2.00651 -28.2932 0.
6.71325 15.7702 0.
10.1567 24.6349 0.
-0.382341 -19.91 0.
-99.0272 -243.47 0.
-1097.64 -2700.47 0.
5.92383 16.2207 0.
-1342.04 -2933.41 0.
-0.0319123 -1.2041 0.
0.433408 0.898241 0.
-12.6325 -32.9376 0.
-0.00128847 -4.09729 0.
-28.1385 -65.9618 0.
-1640.72 -3473.99 0.
-11.25 -31.1345 0.
-2333.56 -4010.47 0.
-3.40242 -8.73238 0.
-1770.71 -3588.9 0.
-30.556 -74.5012 0.
-0.0268525 -0.0204732 0.
-2159.82 -5348.8 0.
-38.2774 -38.2552 0.
-1962.81 -3431.75 0.
-146.954 -120.507 0.
-36.8746 -29.9891 0.
-1896.6 -4678.71 0.
-209.088 -305.439 0.
-27.7672 -37.4131 0.
-1197.68 -3052.35 0.
-476.53 -1209.75 0.
-39.0222 -72.3809 0.
-859.542 -2216.7 0.
-508.638 -1335.44 0.
-595.061 -1566.5 0.
-432.346 -1174.11 0.
-279.932 -771.413 0.
-450.393 -1212.34 0.
-362.017 -984.689 0.
-276.511 -754.162 0.
-385.366 -1053.66 0.
-301.371 -806.658 0.
-221.003 -556.028 0.
-289.313 -790.366 0.
-259.68 -707.876 0.
-296.228 -805.516 0.
-389.926 -821.916 0.
-418.55 -903.285 0.
-211.223 -528.406 0.
-309.884 -826.015 0.
-412.097 -1120.07 0.
-236.062 -642.659 0.
-356.901 -970.924 0.
-481.271 -1295.66 0.
-246.687 -669.344 0.
-440.174 -1181.33 0.
-645.667 -1681.31 0.
-479.565 -1298.11 0.
-950.719 -2512.33 0.
-16.8612 -40.3101 0.
-414.619 -994.383 0.
-1415.05 -3536.88 0.
-17.302 -36.4841 0.
-15.7928 -30.5777 0.
-2132.93 -5363.69 0.
-21.8735 -58.2858 0.
-23.6868 -63.89 0.
-2078.11 -3287.98 0.
-18.9063 -37.7021 0.
-2254.68 -5443.55 0.
-48.2718 -59.5942 0.
-38.3292 -33.4061 0.
-1854.01 -3311.22 0.
-18.1013 -48.6279 0.
-1685.64 -3661.58 0.
-137.932 -230.395 0.
-0.23566 -0.555552 0.
0.164148 0.391563 0.
-32.148 -77.2894 0.
0.0093013 3.38159 0.
0.757441 1.58052 0.
-589.433 -1199.34 0.
-0.483648 -2.4615 0.
-526.354 -1311.97 0.
6.71456 17.8343 0.
9.57667 23.7085 0.
-1442.53 -3532.01 0.
2.08558 4.44924 0.
-1223.23 -2770.41 0.
6.07796 14.4672 0.
-2.40335 -30.6222 0.
-10.0597 -56.3799 0.
-33.6873 -74.7383 0.
-28.4666 -52.1661 0.
36.6878 62.714 0.
54.5788 129.091 0.
44.5443 75.4552 0.
-818.76 -1794.19 0.
-1.54587 -3.34578 0.
-4.83393 -33.5064 0.
-244.049 -627.118 0.
0.708362 1.67037 0.
0.273387 0.62369 0.
6.14281 14.8953 0.
-138.284 -368.507 0.
-989.535 -2485.05 0.
-0.185617 -13.4469 0.
0.010935 0.694 0.
-656.718 -1531.47 0.
-0.0595235 -4.15019 0.
2.97749 5.74647 0.
-0.483213 -5.20049 0.
-1872.35 -4950.67 0.
-0.000467411 -2.64807 0.
-60.1875 -140.01 0.
0.837469 2.31177 0.
-0.0117406 -0.116863 0.
0.00334506 0.637303 0.
-37.5584 -55.8879 0.
-21.2825 -26.0611 0.
-13.4586 -9.13118 0.
-38.5865 -57.998 0.
-26.9891 -20.7653 0.
-49.3713 -42.8405 0.
-46.4052 -31.0693 0.
-37.3518 -31.2233 0.
-39.7183 -36.906 0.
-20.7309 -25.6013 0.
-41.7597 -48.3806 0.
-397.774 -969.667 0.
-17.6173 -46.0662 0.
-24.9071 -61.5673 0.
-498.537 -1282.99 0.
-161.269 -387.256 0.
-386.776 -1015.18 0.
-232.803 -613.823 0.
-98.2316 -251.817 0.
-357.094 -970.754 0.
-271.908 -739.854 0.
-187.872 -507.804 0.
-365.126 -1006.62 0.
-280.628 -760.111 0.
-208.979 -531.031 0.
-288.465 -786.792 0.
-259.934 -703.199 0.
-270.622 -722.491 0.
-399.698 -773.875 0.
-431.15 -852.419 0.
-180.582 -467.276 0.
-269.433 -734.872 0.
-372.18 -1028.42 0.
-122.799 -328.034 0.
-236.723 -643.7 0.
-357.21 -972.42 0.
-29.9846 -70.1774 0.
-177.255 -461.688 0.
-372.334 -972.444 0.
-29.6718 -73.9032 0.
-484.641 -1305.77 0.
-9.27102 -24.2947 0.
-7.78963 -21.2577 0.
-273.293 -635.7 0.
-16.8088 -25.0751 0.
-18.8422 -29.1716 0.
-24.7668 -45.0315 0.
-133.218 -125.043 0.
-19.5458 -50.167 0.
-97.6602 -131.73 0.
-2.35701 -5.46047 0.
-7.86962 -13.5846 0.
-46.4724 -32.0788 0.
-32.6822 -16.8286 0.
-21.4185 -9.1011 0.
-0.143494 -0.184461 0.
-75.8424 -210.068 0.
-73.6467 -129.877 0.
-1880.03 -3661.68 0.
-0.00561739 -0.316216 0.
-24.3561 -54.9762 0.
-0.000410596 -4.27091 0.
-0.853508 -7.02097 0.
-269.333 -593.466 0.
-0.791435 -37.2289 0.
-1006.97 -2517.03 0.
-6.02839 -16.0242 0.
-1.80826 -33.7661 0.
6.91314 15.5191 0.
14.191 38.1098 0.
-2.88266 -45.4378 0.
26.6962 64.4883 0.
17.0565 38.5083 0.
41.096 79.58 0.
-58.6725 -130.445 0.
-1233.92 -2596.64 0.
17.6504 26.4831 0.
42.9642 80.0657 0.
39.724 70.2513 0.
-108.966 -237.34 0.
-13.0495 -102.046 0.
-1.80241 -31.8209 0.
-613.127 -1573.98 0.
-1354.31 -3156.59 0.
2.00735 4.44792 0.
-1031.24 -2517.44 0.
-0.990538 -37.8942 0.
-48.2384 -131.676 0.
7.6994 20.8497 0.
-176.993 -468.042 0.
5.17103 14.0825 0.
7.60448 20.5839 0.
2.14765 3.89572 0.
-225.546 -531.54 0.
-70.5302 -194.451 0.
-0.00152127 -1.73348 0.
-0.0842909 -1.45334 0.
0.00174059 1.51203 0.
0.366416 0.927419 0.
0.00436078 0.783487 0.
-48.6286 -57.6317 0.
-1123.32 -2477.72 0.
-28.4041 -15.8448 0.
-1554.1 -3862.12 0.
-0.521374 -0.213728 0.
-1757.4 -3084.49 0.
-15.2868 -6.40874 0.
-27.4054 -19.6466 0.
-1879.89 -4860.8 0.
-10.6136 -23.7107 0.
-55.3603 -81.1809 0.
-1444.03 -3525.43 0.
-283.39 -647.699 0.
-15.2157 -41.9898 0.
-1026.12 -2634.44 0.
-451.109 -1155.24 0.
-675.425 -1691.9 0.
-415.938 -1057.69 0.
-167.395 -412.535 0.
-497.323 -1275.11 0.
-322.047 -827.775 0.
-150.183 -377.03 0.
-361.833 -961.564 0.
-264.004 -693.317 0.
-171.716 -419.53 0.
-275.136 -684.668 0.
-225.573 -552.401 0.
-313.642 -478.495 0.
-354.616 -613.1 0.
-411.662 -764.379 0.
-142.872 -355.234 0.
-268.521 -719.76 0.
-400.911 -1077.55 0.
-110.695 -281.165 0.
-339.186 -888.867 0.
-572.545 -1491.7 0.
-123.259 -303.589 0.
-434.393 -1076.85 0.
-755.296 -1840.35 0.
-392.293 -1037.33 0.
-1149.12 -2982.58 0.
-9.73878 -25.9651 0.
-52.4696 -145.323 0.
-1629.92 -4188.14 0.
-45.8692 -65.1265 0.
-5.09708 -2.59583 0.
-1591.9 -3698.91 0.
-25.5409 -66.0014 0.
-1675.28 -2987.71 0.
-277.802 -734.704 0.
-25.0787 -67.0638 0.
-1072.65 -2646.11 0.
-110.785 -163.176 0.
-28.4239 -12.9116 0.
-20.9631 -8.61511 0.
-0.158404 -0.250419 0.
-50.5894 -125.474 0.
-21.9757 -44.4821 0.
0.268535 0.57552 0.
-0.013869 -0.450835 0.
-1582.44 -2356.75 0.
-0.0434419 -14.8514 0.
2.26659 4.98981 0.
-667.725 -1533.67 0.
-0.784471 -36.0062 0.
2.79844 7.63031 0.
-482.164 -1280.91 0.
2.53324 6.18312 0.
-407.086 -916.644 0.
22.2531 58.1558 0.
-3.52278 -52.4716 0.
0.450009 1.06139 0.
-5.23542 -46.196 0.
-9.47024 -106.021 0.
-896.255 -2002.65 0.
-10.7351 -156.561 0.
-1740.91 -2345.66 0.
-359.383 -505.989 0.
41.3794 76.5805 0.
29.6908 64.264 0.
-29.7223 -63.0798 0.
10.5725 24.9051 0.
-61.2724 -156.176 0.
20.2522 52.1972 0.
-0.287901 -7.62803 0.
-7.67241 -19.7234 0.
5.58497 14.5102 0.
-7.50818 -20.1113 0.
-0.931086 -2.53232 0.
-730.395 -1964.75 0.
-1.54018 -4.2307 0.
-0.115679 -14.2967 0.
-1471.37 -3307.95 0.
-42.8539 -101.94 0.
-21.9966 -60.8607 0.
-0.00561102 -1.4203 0.
-0.0268206 -0.632566 0.
-112.414 -275.424 0.
-1613.32 -3693.7 0.
0.792133 2.00193 0.
-885.829 -2001.64 0.
-26.7756 -24.1412 0.
-22.21 -14.4537 0.
-9.62586 -21.9846 0.
0.0193224 0.0342691 0.
-9.23204 -4.73114 0.
-4.83808 -2.6769 0.
-19.6832 -14.557 0.
-10.3554 -23.5402 0.
-9.17359 -19.9233 0.
-38.6469 -60.5939 0.
-122.553 -249.634 0.
-6.43794 -16.7036 0.
-5.26931 -14.2236 0.
-486.696 -1267.48 0.
-19.9711 -44.836 0.
-366.115 -928.377 0.
-115.782 -284.519 0.
-25.9417 -68.2689 0.
-346.003 -901.814 0.
-176.076 -448.96 0.
-33.7453 -79.6151 0.
-293.299 -792.029 0.
-198.11 -521.096 0.
-115.241 -274.575 0.
-247.068 -543.396 0.
-213.287 -456.587 0.
-106.197 -292.763 0.
-311.241 -511.691 0.
-345.276 -598.999 0.
-89.2408 -227.312 0.
-176.157 -468.04 0.
-304.851 -829.611 0.
-6.17709 -16.6815 0.
-140.245 -370.94 0.
-366.538 -981.151 0.
-13.6123 -37.5303 0.
-21.3411 -58.4617 0.
-343.338 -821.668 0.
-10.1407 -24.5984 0.
-445.77 -1186.33 0.
-8.67014 -23.754 0.
-7.88189 -21.2983 0.
-61.94 -169.051 0.
-9.86051 -16.9424 0.
-0.740472 -0.824245 0.
-0.0363757 -0.0125165 0.
0.32823 0.00608725 0.
-279.989 -771.887 0.
-19.2998 -50.8251 0.
-20.4023 -56.4643 0.
-59.0573 -162.657 0.
-28.0006 -76.7523 0.
-2125.83 -4730.63 0.
-45.8512 -107.361 0.
-53.9295 -114.549 0.
-1321.75 -2298.25 0.
-2.55314 -5.84854 0.
-0.25182 -0.566064 0.
4.2851 10.8925 0.
4.29025 7.58876 0.
-977.919 -2187.49 0.
-0.00173754 -2.50436 0.
-1064.14 -2504.33 0.
4.41837 11.6861 0.
-3.56378 -9.723 0.
-50.5393 -132.051 0.
-3.94851 -9.56408 0.
-967.099 -2178.85 0.
14.2459 36.1133 0.
-2.12559 -5.04789 0.
-1463.89 -3371.93 0.
-7.21878 -53.9469 0.
52.0189 117.679 0.
8.56162 18.2253 0.
18.5044 40.3007 0.
4.43429 7.78439 0.
0.136212 2.70402 0.
-13.0833 -88.9134 0.
35.3806 73.173 0.
34.1714 73.7685 0.
-3.46663 -7.93433 0.
-27.5802 -67.2334 0.
-1.96288 -41.2511 0.
14.3385 36.2023 0.
-86.4766 -215.233 0.
4.36103 11.2901 0.
-6.49072 -16.9803 0.
-409.971 -1114.94 0.
-0.011114 -34.7315 0.
-21.1708 -58.385 0.
2.03051 5.42314 0.
7.58778 20.99 0.
0.507708 1.23836 0.
-31.6201 -87.57 0.
-661.546 -1738.2 0.
-1200.21 -2812.59 0.
-0.069629 -4.11641 0.
-0.316101 -2.48056 0.
0.777194 1.99957 0.
-7.2017e-05 -2.55029 0.
-21.4477 -23.2331 0.
-15.3722 -12.6269 0.
0.0357132 0.0971424 0.
-0.00135691 -0.0096057 0.
0.0019282 0.00366137 0.
-2.59987 -1.63215 0.
-14.7961 -13.3281 0.
-10.9565 -23.8713 0.
-10.0037 -20.9665 0.
-20.4492 -42.1757 0.
-11.0754 -23.4984 0.
-7.43218 -14.33 0.
-4.21652 -6.89922 0.
-20.3642 -37.7819 0.
-19.1601 -34.9748 0.
-66.1072 -155.557 0.
-12.4521 -34.3723 0.
-22.2811 -61.3061 0.
-202.731 -520.47 0.
-54.8351 -125.881 0.
-14.9123 -24.9135 0.
-242.201 -650.679 0.
-164.767 -432.954 0.
-92.7375 -214.127 0.
-267.606 -528.126 0.
-239.069 -458.316 0.
-51.3111 -92.1408 0.
-320.079 -522.295 0.
-339.61 -567.238 0.
-60.3452 -133.362 0.
-123.881 -311.456 0.
-235.265 -620.51 0.
-7.48455 -17.8245 0.
-12.825 -30.2697 0.
-171.969 -459.165 0.
-11.2065 -29.0611 0.
-9.71933 -26.1243 0.
-14.8327 -40.9571 0.
-9.37592 -22.8426 0.
-6.19318 -16.1182 0.
-9.38734 -26.0007 0.
-10.3218 -27.9366 0.
-11.4873 -29.5489 0.
-7.12941 -12.1856 0.
0.0102448 0.0128789 0.
0.507401 0.41139 0.
-0.29803 -0.0235608 0.
-17.7227 -21.9291 0.
-22.7128 -62.9045 0.
-26.2999 -62.4463 0.
-55.8808 -148.937 0.
0.232792 0.630618 0.
-7.78295 -20.4687 0.
-44.3078 -99.2989 0.
-69.8411 -139.649 0.
-0.447789 -3.08208 0.
-1711.05 -2988.42 0.
-0.0606482 -8.8856 0.
0.105545 2.41341 0.
0.00218123 11.2745 0.
-455.074 -1074.04 0.
-0.554635 -32.8951 0.
-0.325753 -29.688 0.
-39.6868 -105.375 0.
2.66543 7.26836 0.
-112.576 -287.396 0.
-1.47325 -38.49 0.
-61.4751 -163.07 0.
-1.09778 -2.71025 0.
-1445.03 -3400.69 0.
4.65124 11.366 0.
5.74591 11.9479 0.
-17.405 -39.0162 0.
13.5291 27.3295 0.
64.6197 132.457 0.
-9.57201 -36.0529 0.
0.0586239 0.78329 0.
-21.2466 -44.6397 0.
-17.6113 -121.45 0.
48.404 104.02 0.
46.8524 112.787 0.
-58.9797 -137.843 0.
-43.1623 -104.052 0.
-1.91614 -43.6411 0.
-255.844 -618.53 0.
-3.62932 -9.3719 0.
-828.441 -2109.53 0.
3.3453 9.24242 0.
-0.489562 -1.33798 0.
-99.7088 -275.507 0.
-766.327 -2062.3 0.
10.3196 28.5598 0.
2.08258 5.16986 0.
-609.381 -1375.72 0.
-2.65321 -6.74797 0.
-108.324 -268.051 0.
-0.0179784 -3.80015 0.
0.0860346 0.843935 0.
0.00614697 0.218821 0.
1.75313 4.14713 0.
-1439.81 -2753.37 0.
-4.26482 -11.3938 0.
-1535.48 -3478.9 0.
-3.97695 -10.8119 0.
-1.74121 -4.52958 0.
-2017.19 -4282.3 0.
-4.30349 -5.23852 0.
-1314.47 -2890.57 0.
-12.9783 -35.1072 0.
-26.4029 -56.0148 0.
-1532.68 -3911.75 0.
-16.326 -42.6269 0.
-17.8786 -46.2588 0.
-1267.72 -3278.42 0.
-192.437 -472.897 0.
-843.905 -2057.07 0.
-423.154 -1023.62 0.
-36.3605 -89.4777 0.
-691.483 -1810.98 0.
-393.326 -1021.69 0.
-102.414 -228.985 0.
-509.72 -1378.97 0.
-339.901 -916.121 0.
-173.748 -449.603 0.
-401.643 -934.006 0.
-371.511 -843.012 0.
-244.406 -517.726 0.
-418.939 -867.651 0.
-484.944 -1057.07 0.
-125.193 -328.982 0.
-343.142 -933.437 0.
-562.606 -1536.38 0.
-15.2786 -24.0493 0.
-389.897 -1035.68 0.
-789.214 -2091.33 0.
-6.28568 -13.3945 0.
-422.055 -953.311 0.
-962.449 -2235.19 0.
-36.8953 -98.7221 0.
-1357.12 -3552.24 0.
-11.3888 -22.5497 0.
-10.8742 -20.9693 0.
-1715.29 -4395.89 0.
-15.169 -40.4032 0.
-25.5477 -67.3938 0.
-1785.32 -3176.33 0.
-21.2972 -56.1613 0.
-1696.48 -4031.35 0.
-11.2839 -28.2531 0.
-2.80503 -6.3832 0.
-1548.74 -2566.31 0.
-3.27112e-08 -0.467744 0.
-1074.02 -2846.46 0.
-41.6751 -89.8546 0.
-83.1007 -166.589 0.
1.37078 3.04636 0.
-104.328 -199.704 0.
-0.0562782 -13.3315 0.
-1490.78 -3380.12 0.
11.115 30.7687 0.
-491.205 -1194.24 0.
14.4046 38.5391 0.
-2.87848 -7.7917 0.
-463.001 -1272.62 0.
2.55624 6.96312 0.
-192.631 -480.451 0.
2.56796 6.47483 0.
15.9483 42.0172 0.
21.6521 53.2053 0.
29.9636 75.8188 0.
-50.5091 -120.489 0.
16.0502 32.9105 0.
-3.27441 -7.45243 0.
-17.0322 -86.6311 0.
-15.7784 -91.4404 0.
-230.808 -404.557 0.
-1.61978 -20.1578 0.
24.5088 41.9019 0.
-19.2011 -40.0892 0.
40.8376 87.4743 0.
-5.95132 -85.965 0.
-1270.72 -2869.86 0.
-1117.94 -2615.05 0.
22.9796 57.3934 0.
-1254.93 -2959.63 0.
4.31505 11.1266 0.
-1.20972 -40.689 0.
3.48512 9.5535 0.
-141.017 -376.451 0.
-178.611 -494.034 0.
0.559455 1.53766 0.
6.41799 17.7706 0.
-0.319871 -7.24383 0.
-215.326 -525.761 0.
-2.56425 -6.60602 0.
2.99565 8.21842 0.
-0.0122418 -11.7011 0.
-0.00654659 -11.627 0.
-1480.21 -3770.84 0.
-0.00817164 -0.701274 0.
0.194879 0.451581 0.
0.848911 2.34213 0.
-35.2614 -96.9205 0.
-3.52398 -9.36167 0.
-1.30373 -3.28758 0.
0.0408583 0.109429 0.
-0.0742571 -0.230364 0.
-8.54983 -20.2608 0.
-6.12761 -11.5636 0.
-13.4277 -36.8869 0.
-24.0635 -62.7903 0.
-16.2183 -41.0123 0.
-18.1639 -44.9716 0.
-352.004 -905.947 0.
-24.7635 -61.0216 0.
-333.734 -791.336 0.
-7.65276 -21.1214 0.
-14.1304 -37.7078 0.
-401.252 -1073.26 0.
-110.94 -275.549 0.
-26.5647 -56.724 0.
-385.169 -1028.01 0.
-222.548 -583.83 0.
-97.8338 -242.401 0.
-338.51 -746.896 0.
-307.487 -651.613 0.
-61.4856 -88.5226 0.
-317.792 -628.806 0.
-380.302 -805.389 0.
-31.0446 -56.3976 0.
-170.949 -449.486 0.
-389.759 -1053.36 0.
-16.8325 -22.0015 0.
-16.7251 -21.1244 0.
-396.645 -1065.26 0.
-9.29597 -19.3396 0.
-8.14664 -15.7446 0.
-259.641 -565.032 0.
-12.1158 -14.3004 0.
-244.345 -597.128 0.
-1.26134 -0.907214 0.
-4.90462 -3.84051 0.
-12.1901 -15.3421 0.
-24.966 -50.389 0.
-26.7624 -69.4131 0.
-78.5283 -162.657 0.
-17.2221 -44.1027 0.
-13.3575 -31.5305 0.
-22.8488 -58.6585 0.
-2.79246 -5.26128 0.
-21.9165 -45.2313 0.
0.00983506 3.47869 0.
-78.0225 -215.725 0.
-74.1079 -182.82 0.
-1591.03 -2844.16 0.
0.000926041 0.0112613 0.
-26.2688 -53.371 0.
9.7077 26.639 0.
-2.06035 -4.76465 0.
-0.0168764 -20.1929 0.
-0.0298077 -29.9787 0.
3.8928 10.4515 0.
10.9408 29.6738 0.
7.5705 20.6489 0.
-592.86 -1611.25 0.
-354.262 -864.439 0.
11.6113 29.1367 0.
-13.8546 -36.2724 0.
23.6581 57.8605 0.
-2.10115 -49.6687 0.
-63.5426 -148.589 0.
-9.81117 -61.3311 0.
5.38795 12.3007 0.
-227.17 -329.438 0.
-54.1836 -306.731 0.
-401.956 -717.201 0.
-1.29011 -3.00098 0.
17.9697 29.9296 0.
21.2363 44.5002 0.
54.0008 115.41 0.
-33.8567 -79.0439 0.
-2.8047 -80.1316 0.
45.5572 108.435 0.
13.5668 36.7861 0.
-3.42956 -8.83883 0.
-0.677996 -63.1493 0.
-2.51827 -6.35361 0.
2.27927 6.1723 0.
-888.884 -2301.4 0.
-0.0483673 -20.7521 0.
12.6814 34.052 0.
3.61562 10.0143 0.
-265.379 -698.063 0.
-5.49044 -13.8282 0.
-1.69395 -4.40142 0.
-0.0397599 -11.9711 0.
-998.824 -2613.67 0.
1.02105 2.82241 0.
-4.35825 -11.7097 0.
2.34075 6.48339 0.
1.40433 3.52504 0.
-0.000400208 -2.00254 0.
-24.3235 -66.6153 0.
-2.99371 -7.75923 0.
-93.6711 -258.661 0.
-1415.63 -3739.49 0.
0.105177 0.288239 0.
-1566.91 -2325.37 0.
-2.93387 -8.12629 0.
-15.6619 -42.5418 0.
-1537.04 -3967.44 0.
-23.6133 -59.569 0.
-4.91239 -11.7149 0.
-1301.98 -3401.18 0.
-23.348 -56.7618 0.
-950.949 -2195.11 0.
-379.044 -848.907 0.
-17.5316 -36.5579 0.
-805.8 -2093.19 0.
-346.95 -893.589 0.
-6.47074 -13.7066 0.
-547.863 -1444.4 0.
-330.461 -874.993 0.
-119.718 -298.926 0.
-414.251 -1012.61 0.
-350.677 -832.216 0.
-80.762 -204.651 0.
-363.671 -810.269 0.
-499.893 -1165.45 0.
-56.6584 -111.784 0.
-336.84 -892.416 0.
-627.815 -1667.51 0.
-6.64672 -6.70395 0.
-311.789 -818.638 0.
-912.107 -2385.72 0.
0.0313952 0.0127126 0.
-329.391 -693.319 0.
-1023.69 -2313.36 0.
-16.4654 -26.7194 0.
-1483.9 -3426.97 0.
-4.34562 -6.30755 0.
-3.91761 -8.15035 0.
-1652.47 -4336.93 0.
-18.213 -24.154 0.
0.00389979 0.0112502 0.
-1433.95 -2654.28 0.
0.613498 0.00201976 0.
-1204.31 -3151.43 0.
-140.021 -267.481 0.
-17.862 -38.4229 0.
-23.4154 -51.5302 0.
3.71517 0.0040483 0.
-66.8449 -184.017 0.
-0.03883 -1.50105 0.
-21.7288 -40.8284 0.
-632.764 -1346.53 0.
0.720719 1.5162 0.
0.0309316 7.33467 0.
-0.030794 -8.23128 0.
-42.0674 -108.422 0.
15.9883 44.1971 0.
-444.519 -1222.78 0.
-52.8795 -143.566 0.
6.13912 16.5611 0.
10.9626 29.4566 0.
-754.501 -1913.51 0.
-344.148 -859.011 0.
-15.1534 -39.4441 0.
5.22535 12.7229 0.
24.9286 62.5194 0.
-150.387 -345.984 0.
-278.221 -684.561 0.
-10.6873 -119.137 0.
-790.913 -1157.85 0.
48.4862 89.3635 0.
-49.1044 -89.6587 0.
1.73133 4.03417 0.
-38.7386 -118.957 0.
-34.6123 -72.7513 0.
20.1652 44.1763 0.
-17.4319 -41.0593 0.
4.78233 12.0113 0.
1.37516 3.30515 0.
32.0511 85.6516 0.
11.1972 28.2885 0.
1.66698 4.43198 0.
9.41992 23.2616 0.
-0.477396 -30.4672 0.
8.25799 22.2509 0.
-0.000249946 -19.4958 0.
-2.54119 -6.62973 0.
11.243 31.139 0.
-5.34279 -13.9987 0.
2.84129 7.23871 0.
3.57212 9.32623 0.
-462.627 -1172.27 0.
4.51745 11.9326 0.
2.40458 6.64125 0.
-2.7874 -7.67644 0.
-0.0446598 -7.98139 0.
-1338.67 -3229.57 0.
-0.0584513 -4.04285 0.
-1391.63 -3078.51 0.
-2.27594 -4.78378 0.
-0.00543966 -0.954178 0.
-12.9644 -32.3492 0.
-0.00476898 -0.259011 0.
-2.67601 -7.40466 0.
-4.09553 -11.2783 0.
-5.79425 -15.8945 0.
-24.8133 -65.5459 0.
-9.06108 -23.5092 0.
-6.18201 -16.0648 0.
-163.3 -348.473 0.
-20.6994 -44.1422 0.
-214.446 -479.232 0.
-16.0582 -29.5686 0.
-18.6239 -35.7167 0.
-369.152 -973.72 0.
-8.62382 -19.7862 0.
-4.5463 -10.2608 0.
-311.228 -847.697 0.
-115.003 -306.651 0.
-23.5084 -53.7453 0.
-238.663 -571.473 0.
-181.054 -429.952 0.
-49.4135 -54.3425 0.
-179.691 -366.414 0.
-282.743 -651.687 0.
-28.9953 -46.4128 0.
-67.1037 -151.245 0.
-316.001 -843.28 0.
-3.22023 -2.68986 0.
0.153419 0.0165893 0.
-309.678 -826.184 0.
-2.27233 -0.866425 0.
-8.38031 -16.3311 0.
-137.428 -305.572 0.
-14.8664 -24.4455 0.
-20.8647 -41.5378 0.
-4.71628 -6.13142 0.
-4.59075 -8.41163 0.
-6.6931 -13.6653 0.
-2.13261 -5.30344 0.
0.320098 0.107425 0.
0.402151 0.54445 0.
0.0848165 0.760906 0.
-24.0784 -65.7551 0.
0.439222 1.10208 0.
-1220.47 -2401.34 0.
-0.108113 -3.12585 0.
-1155.8 -2580.13 0.
-74.5312 -200.006 0.
0.0744634 6.01743 0.
-0.269495 -1.97202 0.
-319.324 -757.181 0.
13.7233 35.4018 0.
0.0146603 2.72543 0.
-0.0918951 -19.9136 0.
-989.106 -2549.52 0.
8.32586 23.0128 0.
-6.30755 -17.2228 0.
-177.939 -483.529 0.
-42.4156 -113.069 0.
-1.15893 -59.8162 0.
18.9486 47.2289 0.
28.3536 76.8813 0.
-667.674 -1731.37 0.
-2.55271 -42.4409 0.
-993.064 -2478.09 0.
-710.462 -1632.49 0.
-126.118 -309.347 0.
29.2484 67.2246 0.
-1512.09 -2247.92 0.
-764.829 -1379.09 0.
-12.1013 -24.1417 0.
-0.342472 -0.808308 0.
-38.4735 -61.6025 0.
7.76671 16.3684 0.
45.3773 99.127 0.
27.4873 65.2206 0.
5.59598 13.8692 0.
4.56946 11.0879 0.
-0.907726 -42.1976 0.
23.4264 58.2133 0.
-1.58271 -66.2979 0.
-951.592 -2314.99 0.
0.014896 12.4015 0.
-0.309107 -0.826464 0.
-13.4519 -34.7928 0.
-2.76837 -7.01091 0.
0.0269575 9.34279 0.
-3.72218 -9.68142 0.
-42.4554 -108.665 0.
0.485297 1.24824 0.
-322.095 -824.457 0.
-0.0439696 -19.3376 0.
5.49067 15.1446 0.
-879.848 -2084.01 0.
0.516784 1.40667 0.
-55.3354 -147.413 0.
1.17487 3.24342 0.
0.0397828 3.96105 0.
0.687305 1.63843 0.
-8.84188e-05 -0.090027 0.
-5.31603 -13.2055 0.
-0.0209836 -0.621213 0.
-4.33069 -11.9461 0.
-5.71103 -15.8057 0.
-7.77209 -21.5271 0.
-14.0987 -34.6578 0.
-11.5999 -28.0747 0.
-9.19727 -22.8168 0.
-15.1968 -25.7941 0.
-22.7777 -42.6761 0.
-28.3714 -60.2683 0.
-20.0394 -36.6492 0.
-20.2685 -34.8807 0.
-23.6503 -56.4412 0.
-8.93377 -17.2523 0.
-5.10806 -4.00698 0.
-128.519 -337.929 0.
-25.4572 -47.2782 0.
-29.3189 -55.7388 0.
-152.043 -351.207 0.
-108.465 -241.372 0.
-20.6551 -21.5636 0.
-81.3211 -102.311 0.
-147.434 -288.465 0.
-40.5225 -50.2469 0.
-37.3548 -43.7559 0.
-97.8073 -197.902 0.
-7.99578 -10.5105 0.
-6.65433 -7.98839 0.
-7.08685 -11.0479 0.
-14.3092 -21.6444 0.
-22.3511 -40.9613 0.
-56.0621 -121.779 0.
-14.6383 -25.9124 0.
-19.962 -38.5414 0.
-4.99977 -6.05505 0.
-5.14915 -8.2779 0.
-8.68925 -15.4082 0.
-0.227327 -0.420268 0.
0.0237337 0.0213569 0.
0.561787 0.0320074 0.
0.675223 0.276796 0.
-29.6689 -79.7453 0.
-0.000250643 -1.88505 0.
0.864068 2.10802 0.
2.26447 6.15897 0.
-0.58639 -6.90088 0.
-0.107118 -5.34596 0.
-1239.65 -2977.05 0.
0.0792801 15.5854 0.
-168.146 -423.002 0.
-1.02425 -40.1596 0.
-1144.21 -2952.75 0.
-0.206776 -34.9875 0.
12.9515 35.6283 0.
10.5302 29.1002 0.
-119.626 -323.137 0.
-5.14253 -13.8953 0.
-997.145 -2625.87 0.
-434.906 -1098 0.
19.9025 48.817 0.
-0.447712 -42.1657 0.
-74.7918 -188.904 0.
23.0852 62.1378 0.
8.21748 21.1049 0.
-26.8329 -63.3252 0.
19.7962 48.392 0.
31.1418 71.8466 0.
31.3057 47.4889 0.
-851.375 -1510.62 0.
-573.019 -971.267 0.
-153.551 -369.78 0.
1.75951 2.79985 0.
-16.4746 -121.173 0.
-21.8244 -47.5731 0.
13.5305 32.2708 0.
15.3037 37.6448 0.
-5.59671 -13.7154 0.
-1.76976 -65.9058 0.
3.3576 8.24091 0.
3.72898 9.65291 0.
-1.73781 -58.1653 0.
2.36544 6.1904 0.
-13.1325 -34.8745 0.
4.33622 11.3234 0.
-1159.84 -2873.26 0.
-10.9196 -28.8979 0.
-328.856 -848.184 0.
-168.914 -432.677 0.
7.94785 20.5661 0.
-298.498 -767.558 0.
8.69385 24.0362 0.
-1014.76 -2516.53 0.
-0.219493 -19.6273 0.
-0.0603351 -13.4652 0.
-0.46703 -21.1157 0.
-0.00272778 -4.84761 0.
0.119428 4.85425 0.
-1084.82 -2603.06 0.
-0.118312 -1.44275 0.
-1143.03 -2109.72 0.
-1.42529 -2.78522 0.
-1316.16 -2465.62 0.
-20.4408 -44.6526 0.
0.133283 0.366959 0.
-1438.17 -3795.11 0.
-14.4235 -36.6813 0.
-1.96155 -3.44681 0.
-1308.57 -3091.4 0.
-25.8413 -56.5466 0.
-1026.75 -2420.85 0.
-303.328 -689.692 0.
-16.9899 -42.0175 0.
-998.682 -2609.35 0.
-245.514 -621.352 0.
-23.7151 -54.0092 0.
-695.879 -1876.79 0.
-335.332 -918.135 0.
-17.9525 -45.026 0.
-486.607 -1289.04 0.
-413.591 -1107.67 0.
-65.7725 -128.487 0.
-385.492 -950.555 0.
-601.33 -1543.87 0.
-20.7756 -37.7898 0.
-293.658 -760.233 0.
-804.288 -2096.81 0.
-10.4306 -15.6783 0.
-205.413 -512.612 0.
-1121.71 -2977.65 0.
-12.7068 -25.3338 0.
-277.051 -500.967 0.
-1052.66 -2244.4 0.
-2.7802 -3.24103 0.
-1343.05 -3356.56 0.
-2.26594 -4.34952 0.
-16.0525 -28.1133 0.
-1117.33 -2428.9 0.
-0.118865 -0.192311 0.
-1684.22 -3730.12 0.
0.0408316 0.11068 0.
-0.327761 -0.833964 0.
-1145.71 -2798.13 0.
-0.0541891 -3.61157 0.
0.517773 1.38442 0.
-0.00883757 -5.98157 0.
1.04146 2.58335 0.
-0.0869246 -12.1005 0.
-102.405 -261.223 0.
6.0208 16.6563 0.
-190.757 -494.259 0.
-6.94386 -18.3086 0.
8.64983 23.7198 0.
4.75732 12.9399 0.
-5.21838 -14.3843 0.
-731.846 -2007.05 0.
-416.246 -1111.66 0.
22.5805 61.2154 0.
-9.94164 -25.8763 0.
-810.739 -2046.52 0.
-91.7126 -221.906 0.
0.917746 2.4711 0.
-175.076 -434.204 0.
-0.685834 -51.9928 0.
-3.06821 -7.8676 0.
0.408594 0.971768 0.
-26.7167 -65.0696 0.
-25.8024 -52.9299 0.
41.4976 64.5375 0.
21.1815 37.3797 0.
37.2943 1.37475 0.
16.2764 28.9454 0.
80.1713 128.293 0.
10.1671 21.4691 0.
-5.79835 -12.6238 0.
-20.0215 -46.8435 0.
19.7594 48.5002 0.
-9.52796 -23.5896 0.
13.1477 33.9111 0.
-801.343 -1949.7 0.
35.1825 92.5322 0.
24.0149 62.2171 0.
24.6117 64.6552 0.
-515.456 -1361.97 0.
-555.344 -1462.97 0.
2.36017 6.37878 0.
-6.37031 -16.9504 0.
-769.415 -1970.39 0.
10.4163 27.7803 0.
-10.7576 -27.9387 0.
-371.151 -955.528 0.
-0.493218 -37.3702 0.
-161.827 -408.355 0.
3.31845 9.03816 0.
7.08125 19.4566 0.
8.89568 23.6751 0.
-1116.55 -2853.52 0.
1.55541 4.30655 0.
-26.6205 -63.906 0.
0.81079 2.06154 0.
0.271157 0.552637 0.
0.586612 1.31314 0.
0.0216777 0.492666 0.
-0.0116164 -0.393327 0.
3.9262e-06 0.0176469 0.
-28.1061 -71.1526 0.
-10.7075 -17.9265 0.
-2.59765 -3.72548 0.
-18.4123 -27.2803 0.
-19.2674 -26.4469 0.
-57.9277 -127.028 0.
-21.527 -51.6141 0.
-12.7151 -33.6004 0.
-191.541 -488.866 0.
-27.5991 -64.418 0.
-27.7067 -62.0569 0.
-276.482 -745.772 0.
-26.1135 -61.1036 0.
-21.2523 -50.9714 0.
-220.405 -572.41 0.
-151.71 -386.585 0.
-47.9006 -87.9516 0.
-94.7191 -138.438 0.
-260.569 -608.988 0.
-14.5667 -36.0189 0.
-7.85657 -21.4682 0.
-167.301 -397.106 0.
-19.3825 -31.0347 0.
-21.3776 -35.0683 0.
-192.219 -441.001 0.
-11.2025 -22.1412 0.
-9.5047 -21.4326 0.
-10.7767 -26.5456 0.
-0.0278321 -0.0451222 0.
-13.4897 -26.0791 0.
-0.144217 -0.339457 0.
-12.2301 -16.7612 0.
-43.8388 -90.3261 0.
0.21837 0.472221 0.
-0.36159 -0.77698 0.
-0.00359855 -1.48195 0.
-0.0339096 -0.0895888 0.
0.210738 0.524695 0.
-0.0098408 -2.24502 0.
-937.932 -2310.41 0.
5.33889 14.3275 0.
-0.226327 -7.06939 0.
-0.00507392 -2.27121 0.
-9.6067 -25.1398 0.
-1.96522 -5.43974 0.
-591.093 -1615.49 0.
15.3192 40.7047 0.
-4.73984 -13.0362 0.
-144.209 -390.92 0.
11.0607 30.5332 0.
0.68377 1.88576 0.
-927.631 -2450.26 0.
23.3972 63.6185 0.
12.8315 33.3819 0.
-3.98957 -10.4286 0.
-445.061 -1064.28 0.
13.6414 34.075 0.
-215.509 -526.832 0.
-1.29207 -94.8093 0.
-6.8828 -17.6616 0.
-108.781 -261.096 0.
-12.5981 -30.5602 0.
15.5785 31.4569 0.
-10.0524 -16.1339 0.
72.7832 169.088 0.
3.33655 19.8274 0.
-23.5537 -48.4635 0.
4.13646 6.69447 0.
-93.3043 -196.954 0.
-221.213 -514.98 0.
-145.404 -341.418 0.
33.2287 81.6189 0.
-20.201 -50.5195 0.
-1.06537 -30.9584 0.
34.9755 89.0431 0.
-0.48899 -1.29063 0.
-8.71897 -22.6404 0.
-1.7625 -83.3195 0.
-1006.34 -2652.13 0.
-6.05209 -16.5855 0.
-7.28296 -19.7818 0.
10.2177 27.3167 0.
21.7529 58.707 0.
-3.2867 -8.80008 0.
-134.191 -349.29 0.
-0.0502372 -16.2979 0.
-24.1592 -64.9413 0.
-157.691 -403.224 0.
4.31907 11.8164 0.
-943.354 -2428.71 0.
-0.00225573 -2.03003 0.
-0.476211 -1.23876 0.
3.60203 9.97614 0.
-0.117651 -3.03315 0.
-0.0155002 -1.03668 0.
0.261406 0.584691 0.
0.588782 1.43759 0.
1.07468 2.85922 0.
-1263.51 -3407.11 0.
0.316742 0.838308 0.
-869.202 -1668.72 0.
-33.1179 -80.9353 0.
-57.4622 -146.2 0.
-1154.23 -2981.65 0.
-21.023 -33.4487 0.
-925.12 -2013.45 0.
-199.732 -397.751 0.
-0.217336 -0.504122 0.
-1038.99 -2805.9 0.
-95.7744 -234.266 0.
-13.5682 -33.3505 0.
-824.181 -2165.21 0.
-277.981 -747.573 0.
-16.0424 -40.5677 0.
-544.562 -1443.26 0.
-465.149 -1255.65 0.
-27.2921 -41.0438 0.
-371.453 -944.628 0.
-716.159 -1871.45 0.
-11.2015 -30.3893 0.
-197.858 -535.01 0.
-911.181 -2436.41 0.
-17.6985 -25.8987 0.
-10.8852 -8.7569 0.
-981.897 -2405.05 0.
-29.6607 -48.243 0.
-1251.86 -2680.31 0.
-0.525789 -1.00772 0.
-0.567207 -0.906459 0.
-1116.33 -2879.35 0.
-0.035166 -0.291582 0.
-21.2854 -56.7747 0.
-1047.3 -2535.52 0.
-239.505 -556.093 0.
0.113849 0.283661 0.
0.584444 1.61773 0.
-0.00877286 -0.830124 0.
-0.0458298 -1.46492 0.
-0.00448224 -4.52902 0.
-0.0927473 -3.4588 0.
7.73802 21.103 0.
-1118.97 -2685.81 0.
-0.00627793 -8.44747 0.
-122.385 -325.788 0.
-0.980337 -2.71446 0.
-0.0246241 -39.6862 0.
-13.1475 -35.1461 0.
6.94398 19.1405 0.
-137.817 -381.295 0.
-8.45611 -23.3678 0.
-5.54783 -15.3006 0.
-2.57342 -7.01938 0.
0.986262 2.68884 0.
5.76032 14.9808 0.
-1.65094 -73.1152 0.
-740.943 -1873.95 0.
-3.71352 -82.8419 0.
-234.504 -567.105 0.
10.4973 28.1516 0.
-15.7376 -40.4665 0.
-280.965 -680.955 0.
-29.566 -71.4126 0.
-76.8521 -161.547 0.
-10.1009 -16.7936 0.
-14.4404 -136.505 0.
-393.277 -1074.55 0.
-12.8134 -30.036 0.
-224.209 -366.942 0.
-163.764 -345.449 0.
-80.35 -186.177 0.
-431.83 -1017.52 0.
-588.293 -1313.64 0.
-532.309 -1421.18 0.
15.2162 39.8951 0.
7.59867 19.417 0.
-6.59836 -17.4709 0.
-116.023 -302.111 0.
7.52489 19.9091 0.
-190.098 -498.188 0.
-4.73845 -12.9732 0.
17.7541 48.4231 0.
-381.621 -1025.13 0.
19.3975 52.5675 0.
-85.4279 -229.554 0.
-818.982 -2136.19 0.
1.25742 3.45102 0.
-220.981 -594.421 0.
-0.0158308 -53.3068 0.
6.73245 18.4389 0.
-78.6028 -205.721 0.
-0.0154691 -31.9833 0.
5.12355 13.5738 0.
4.02408 11.1389 0.
0.836927 2.20477 0.
2.38032 5.32225 0.
-914.945 -2194.07 0.
0.386061 0.999802 0.
0.338527 0.926488 0.
-10.455 -28.9383 0.
-0.000176991 -0.31093 0.
-19.1591 -50.2316 0.
-11.4367 -25.9002 0.
-17.7481 -47.1125 0.
-13.4125 -28.4993 0.
-2.01597 -4.93323 0.
-21.8958 -47.9985 0.
-10.2193 -20.425 0.
-4.03066 -6.87916 0.
-155.55 -404.541 0.
-11.8055 -30.3059 0.
-10.5747 -28.0707 0.
-90.9471 -222.329 0.
-19.9449 -40.4401 0.
-19.6513 -39.8562 0.
-87.8471 -200.019 0.
-23.3236 -31.186 0.
-14.4511 -33.1314 0.
-13.367 -31.3156 0.
-82.8558 -169.126 0.
-9.59794 -24.9855 0.
-7.33426 -18.5776 0.
-23.6016 -61.2642 0.
-15.3265 -30.3627 0.
-6.2393 -8.4689 0.
-4.80207 -7.37545 0.
0.0861867 0.0487564 0.
-173.986 -404.147 0.
-0.496498 -1.03687 0.
0.0685658 0.120036 0.
-3.97302 -6.89882 0.
0.0591019 0.456535 0.
-1.85384 -4.91875 0.
-32.3151 -88.8496 0.
0.330659 0.887005 0.
-610.44 -1408.23 0.
0.244186 0.625042 0.
-1228.78 -2615.85 0.
-0.0500959 -3.92665 0.
2.23226 6.18156 0.
-0.0834862 -4.83098 0.
5.24668 14.4066 0.
-0.00106583 -8.78968 0.
-5.07607 -13.5103 0.
2.53117 6.9731 0.
-2.48653 -6.88603 0.
-0.0177304 -34.2916 0.
-499.825 -1371.65 0.
-9.09878 -25.1213 0.
-163.444 -452.671 0.
-93.7601 -259.315 0.
21.333 58.8355 0.
17.1839 46.995 0.
-650.939 -1777.31 0.
11.0082 28.6256 0.
-0.657879 -1.73756 0.
13.7829 35.0892 0.
-318.118 -798.708 0.
-475.391 -1141.68 0.
-26.2965 -66.745 0.
18.1506 46.8122 0.
-339.848 -831.928 0.
-255.792 -614.91 0.
-170.675 -358.107 0.
71.0776 122.569 0.
-11.3074 -83.8877 0.
-570.159 -1517.57 0.
15.1615 23.281 0.
-890.24 -1474.16 0.
42.5303 91.5223 0.
56.1207 129.545 0.
-389.772 -921.788 0.
-183.152 -464.755 0.
29.4967 78.7701 0.
24.084 63.3289 0.
32.4487 83.2364 0.
-14.9945 -39.8065 0.
-397.229 -1038.27 0.
-400.862 -1064.87 0.
-6.07472 -15.9709 0.
-40.5203 -110.83 0.
21.2751 58.2303 0.
-163.623 -450.818 0.
6.28698 17.0977 0.
-170.509 -459.624 0.
17.7713 48.1759 0.
-3.39215 -9.319 0.
-504.952 -1358.45 0.
-0.0215207 -43.9993 0.
-345.331 -900.811 0.
13.6274 37.4222 0.
12.273 33.9699 0.
2.80298 7.49489 0.
-592.538 -1450.13 0.
-779.016 -1521.71 0.
4.25724 10.4475 0.
-0.317198 -0.793172 0.
0.220002 0.584144 0.
-0.00426307 -2.43952 0.
0.129504 0.35407 0.
-0.010804 -0.437571 0.
0.126832 0.208973 0.
-8.59597 -17.5919 0.
-15.6183 -38.3333 0.
-2.02239 -5.46439 0.
0.00095076 0.305842 0.
-0.000144522 -0.0213068 0.
-19.4367 -36.6281 0.
-10.1661 -14.1927 0.
-18.5852 -48.4612 0.
-13.0527 -34.5839 0.
-9.88736 -26.6101 0.
-27.143 -46.5833 0.
-26.1415 -43.0764 0.
-27.0652 -45.6787 0.
-31.2458 -49.2652 0.
-28.045 -41.0383 0.
-7.79108 -20.2707 0.
-7.81269 -21.321 0.
-11.2577 -30.7473 0.
-17.0091 -32.2242 0.
-14.7016 -25.7739 0.
-12.6697 -19.0414 0.
-16.9887 -39.1732 0.
-7.85674 -20.6184 0.
-2.29428 -4.842 0.
1.29189e-05 0.191705 0.
-18.1538 -44.273 0.
-0.633469 -1.46312 0.
0.0101764 0.019897 0.
0.0940508 0.125552 0.
0.0244254 0.29458 0.
0.00586586 0.204828 0.
-12.2285 -33.5773 0.
0.689986 1.90832 0.
0.120957 0.313226 0.
-0.0591555 -4.23834 0.
-0.222459 -3.13392 0.
-0.00203181 -2.84992 0.
-763.106 -1916.7 0.
-0.176073 -27.3348 0.
6.8426 18.8364 0.
7.89215 21.8598 0.
0.711449 1.90877 0.
-147.478 -403.08 0.
6.48168 17.9513 0.
5.29291 14.6439 0.
11.6007 32.1245 0.
-103.841 -287.04 0.
-185.62 -514.04 0.
9.11484 25.2348 0.
0.0305728 0.0843321 0.
23.0186 63.0982 0.
8.05149 21.6741 0.
0.898694 2.33769 0.
-6.94167 -18.4193 0.
16.6052 42.3803 0.
-14.0956 -36.3293 0.
-761.108 -1822.52 0.
-25.2933 -64.4603 0.
-76.2117 -197.434 0.
-195.604 -497.294 0.
-21.7862 -52.1244 0.
-78.117 -163.5 0.
-69.4286 -157.92 0.
-14.3886 -82.8519 0.
17.7789 34.386 0.
2.86338 4.57772 0.
-14.029 -148.933 0.
-21.6864 -46.5041 0.
-16.0559 -36.9712 0.
-109.951 -260.985 0.
-75.9991 -193.093 0.
40.4414 107.906 0.
12.9907 34.2263 0.
33.5312 86.356 0.
33.895 90.1702 0.
-725.672 -1905.7 0.
-195.018 -531.791 0.
-41.4282 -109.301 0.
-82.3785 -225.089 0.
-129.322 -355.007 0.
23.2581 64.0257 0.
-1.88469 -5.1411 0.
-480.411 -1321.21 0.
2.94715 8.01169 0.
0.791062 2.17676 0.
4.95097 13.6814 0.
-0.0436538 -57.0769 0.
-575.002 -1499.09 0.
-0.114534 -27.1637 0.
-0.00687156 -18.9963 0.
12.0962 32.9107 0.
-20.424 -52.4992 0.
-0.00408936 -22.4829 0.
-0.0723517 -2.0001 0.
-0.000696219 -0.585254 0.
1.49732 4.03612 0.
-0.584608 -1.42663 0.
-794.567 -2104.66 0.
-0.000897232 -1.21451 0.
-863.252 -1663.81 0.
-39.6794 -65.3513 0.
-19.9648 -39.9474 0.
-1048.28 -2791.38 0.
-9.28407 -24.6333 0.
-12.748 -34.8767 0.
-1291.18 -2786.96 0.
-20.5738 -51.9605 0.
-835.504 -2173.26 0.
-18.9471 -49.8664 0.
-11.4768 -26.9141 0.
-875.781 -2319.51 0.
-116.564 -282.698 0.
-20.9909 -45.4723 0.
-598.289 -1575.97 0.
-444.088 -1212.57 0.
-23.7566 -61.4079 0.
-203.322 -548.647 0.
-781.247 -2129.43 0.
-18.1459 -42.569 0.
-31.6823 -64.0854 0.
-958.299 -2465.43 0.
-13.4709 -34.7932 0.
-10.7184 -27.7555 0.
-1098.39 -2266.82 0.
-3.98262 -10.8032 0.
-1069.6 -2584.4 0.
-7.49879 -13.5802 0.
-9.11003 -23.7266 0.
-1069 -2604.84 0.
-0.831148 -2.30169 0.
0.0121166 0.426539 0.
-1009.13 -2111.93 0.
-1.85139e-07 -0.363186 0.
-888.489 -2251.51 0.
1.77227 4.83513 0.
0.9227 2.30611 0.
-0.00393198 -15.1407 0.
0.528966 1.38615 0.
0.815306 2.23725 0.
-603.06 -1590.6 0.
-4.91945e-05 -38.0082 0.
-489.512 -1320.49 0.
-71.476 -195.224 0.
13.7357 38.0117 0.
14.468 40.0301 0.
-6.04953 -16.755 0.
-0.151197 -54.288 0.
-253.115 -700.255 0.
-0.0121664 -72.2377 0.
-361.449 -997.339 0.
-0.21655 -62.2513 0.
20.18 54.3189 0.
29.1572 77.508 0.
5.15608 13.7411 0.
25.2477 64.617 0.
-1.13061 -2.93809 0.
-20.0275 -50.8209 0.
-257.359 -658.306 0.
-287.894 -750.378 0.
-101.912 -258.711 0.
-30.3213 -72.1666 0.
-60.0226 -125.286 0.
-81.1979 -185.123 0.
27.5255 58.9281 0.
10.2284 18.4917 0.
14.7441 26.5811 0.
45.0586 98.7757 0.
10.8707 23.2333 0.
-43.8638 -100.85 0.
-82.6879 -196.967 0.
-83.0002 -211.298 0.
-0.908846 -2.42153 0.
-24.6119 -64.9121 0.
-5.12872 -13.2622 0.
28.1075 74.8951 0.
-207.471 -566.174 0.
4.77107 13.0113 0.
-2.01285 -5.42591 0.
-184.69 -504.095 0.
-3.06416 -8.35168 0.
-2.74468 -7.54792 0.
-235.123 -646.677 0.
-39.3202 -108.174 0.
-50.7244 -138.233 0.
-392.14 -1080.51 0.
-0.0370636 -57.7137 0.
-4.20996 -11.608 0.
-0.929685 -2.57215 0.
0.0920667 0.251913 0.
-548.959 -1480.15 0.
9.58676 26.1125 0.
-25.7951 -68.1949 0.
9.51547 26.3335 0.
-0.00428365 -0.145014 0.
6.78142 18.1358 0.
-848.84 -1926.74 0.
-0.135209 -6.20434 0.
-0.418368 -1.14753 0.
1.06988 2.88595 0.
-0.0904601 -0.140616 0.
-9.76532 -17.0906 0.
-18.437 -35.2477 0.
-1.80807 -4.52388 0.
-3.64161 -9.56096 0.
-5.09866 -13.8209 0.
-26.0675 -68.9244 0.
-7.7484 -18.7182 0.
-63.0541 -125.513 0.
-22.7943 -54.9251 0.
-13.8748 -32.7707 0.
-12.9824 -22.244 0.
-10.8471 -22.8545 0.
-13.6608 -34.954 0.
-22.3004 -56.7893 0.
-20.458 -52.3557 0.
-20.3537 -42.9932 0.
-20.8067 -44.1618 0.
-27.8522 -61.1053 0.
-20.9636 -48.5551 0.
-17.3898 -39.0574 0.
-21.2571 -47.3948 0.
-7.49339 -18.8264 0.
-8.36775 -20.4419 0.
-8.44584 -23.3135 0.
0.0870301 0.240751 0.
-13.0967 -34.8265 0.
0.127214 0.435487 0.
0.0174663 0.251245 0.
-11.6495 -32.1379 0.
-16.5534 -45.2865 0.
0.619571 0.00533276 0.
0.0806767 0.977724 0.
1.85279 5.08314 0.
-6.98143 -18.8208 0.
-0.333581 -9.61034 0.
-716.999 -1505.41 0.
-0.0045845 -3.77256 0.
-0.0895691 -0.239946 0.
9.07898 24.9962 0.
-102.988 -274.103 0.
-6.72455 -18.4329 0.
-0.017949 -46.9238 0.
-43.4431 -118.552 0.
-22.1491 -59.7247 0.
0.197541 0.54655 0.
7.21126 19.9567 0.
-0.0924648 -63.4731 0.
-372.249 -1028.11 0.
-0.00745678 -47.2041 0.
-14.6569 -40.5793 0.
-397.316 -1098.72 0.
-39.2649 -105.69 0.
24.6177 66.9929 0.
28.3313 75.8155 0.
-331.446 -906.341 0.
-2.24652 -92.2674 0.
-43.6961 -111.337 0.
-479.729 -1231.2 0.
30.3261 79.5859 0.
-3.17285 -8.04412 0.
0.522339 1.23631 0.
-147.038 -306.031 0.
-181.407 -415.068 0.
-17.4152 -111.724 0.
28.7915 48.7047 0.
23.6326 40.4724 0.
-16.3068 -120.499 0.
-15.6037 -119.572 0.
-276.71 -635.397 0.
21.4332 54.1029 0.
17.395 44.3832 0.
1.48425 4.03857 0.
30.4343 80.3102 0.
-26.3136 -71.4152 0.
7.15567 19.0924 0.
-17.0184 -46.2944 0.
26.5334 72.3714 0.
26.8387 72.487 0.
-454.699 -1239.63 0.
-4.31337 -11.788 0.
-108.656 -298.487 0.
12.4396 34.4159 0.
-28.7876 -79.2305 0.
-111.671 -308.242 0.
-147.725 -407.913 0.
-10.7856 -29.8459 0.
-456.498 -1260.78 0.
20.4163 56.5305 0.
3.56111 9.71929 0.
0.785739 2.166 0.
0.406954 1.10942 0.
-326.627 -876.244 0.
11.6142 32.1141 0.
-686.418 -1740.05 0.
-0.0892127 -11.5914 0.
-0.486435 -9.32584 0.
-0.0136686 -1.5554 0.
1.39515 3.86431 0.
0.012115 0.54192 0.
2.49645 5.51952 0.
-7.83972 -13.1852 0.
-174.698 -396.718 0.
-530.163 -1446.01 0.
0.808192 0.204489 0.
0.671019 0.299466 0.
-786.2 -2098.16 0.
-3.12996 -6.64548 0.
-876.866 -1847.22 0.
-32.4519 -62.4495 0.
-39.4468 -76.4869 0.
-831.12 -2180.66 0.
-18.6911 -44.7276 0.
-20.0935 -45.2283 0.
-531.028 -1441.46 0.
-373.069 -1032.87 0.
-50.6538 -108.912 0.
-108.835 -276.251 0.
-732.021 -1977.71 0.
-17.0031 -36.5021 0.
-16.0983 -34.173 0.
-900.724 -2232.54 0.
-7.13711 -17.2913 0.
-5.38123 -12.5231 0.
-871.378 -1733.14 0.
0.0171344 0.0470123 0.
-726.635 -1972.87 0.
0.251234 0.618084 0.
-233.633 -605.928 0.
-0.0033059 -0.341639 0.
-44.4633 -80.8447 0.
0.094188 0.193498 0.
0.0427861 0.555267 0.
0.00879938 0.920659 0.
-0.00159914 -0.568084 0.
-0.0251339 -1.50583 0.
3.07854 7.01964 0.
-288.23 -766.157 0.
-0.109216 -46.5255 0.
2.43044 6.70251 0.
-0.00134121 -48.1753 0.
-28.4886 -78.0722 0.
-0.931833 -2.5772 0.
-263.943 -719.386 0.
0.97804 2.63107 0.
23.7655 65.4175 0.
-180.377 -498.386 0.
-7.542 -20.89 0.
-49.7615 -137.755 0.
21.3191 59.0175 0.
-0.0167099 -69.6783 0.
-464.246 -1283.57 0.
-181.9 -489.726 0.
-0.501328 -77.7357 0.
-443.131 -1191.32 0.
-269.338 -736.364 0.
8.2308 21.6886 0.
6.60213 18.0446 0.
-11.0287 -28.9261 0.
-1.17676 -95.8631 0.
-234.755 -594.328 0.
43.9062 111.942 0.
-345.574 -837.62 0.
-605.998 -1392.79 0.
-23.6605 -46.104 0.
56.3188 89.1243 0.
-20.4746 -62.8718 0.
-15.9256 -100.839 0.
-32.8025 -69.6581 0.
-408.86 -937.615 0.
15.419 38.9452 0.
-66.7423 -170.733 0.
8.43422 22.9645 0.
24.7167 65.2105 0.
-17.2117 -46.6676 0.
-469.892 -1255.16 0.
-3.19264 -8.70389 0.
-18.1936 -49.6322 0.
-29.8811 -80.8539 0.
6.8369 18.556 0.
12.9658 35.5198 0.
-333.903 -916.259 0.
-6.30047 -17.4409 0.
-58.7623 -161.792 0.
-189.751 -523.54 0.
-1.24385 -3.43323 0.
-0.0130296 -61.1705 0.
11.5041 31.8598 0.
0.315577 0.874075 0.
-474.009 -1303.92 0.
-0.0516415 -44.4297 0.
-3.38508 -9.23381 0.
5.54973 15.2641 0.
-1.25826 -3.47939 0.
-0.134273 -36.287 0.
6.80308 18.6514 0.
-0.304404 -8.56633 0.
-0.0603301 -14.9042 0.
-614.564 -1306.01 0.
-1.52719 -3.80076 0.
-0.0167068 -0.0461533 0.
-844.818 -1966.48 0.
-21.4057 -58.9857 0.
-24.153 -66.4563 0.
0.998804 0.0910409 0.
0.667966 0.244224 0.
-0.00865324 -0.0038078 0.
-2.64467 -6.50714 0.
-21.5029 -40.5322 0.
-14.9381 -32.1656 0.
-20.3514 -48.0831 0.
-17.5545 -48.3167 0.
-9.67603 -26.6239 0.
-4.59085 -12.4312 0.
-9.91843 -27.2047 0.
-4.0653 -10.714 0.
-22.1469 -38.3883 0.
-19.1915 -25.6385 0.
-21.4062 -29.9769 0.
-13.0959 -33.4986 0.
-11.1981 -30.0984 0.
-13.4655 -37.2911 0.
-8.34793 -18.7049 0.
-6.7662 -14.3683 0.
-12.0407 -25.7622 0.
0.135873 0.312144 0.
-4.54221 -11.5976 0.
0.344377 0.926877 0.
1.10406e-05 0.081394 0.
-432.52 -1081.41 0.
0.566882 1.25143 0.
-913.959 -1816.86 0.
-0.00116577 -6.14139 0.
-640.123 -1588.97 0.
-0.237965 -21.353 0.
-0.0356851 -3.64257 0.
-0.0459588 -33.9216 0.
-106.627 -288.355 0.
-6.44511 -17.5814 0.
-0.0520552 -33.4289 0.
4.5872 12.7036 0.
-570.69 -1563.42 0.
-12.8495 -35.4243 0.
-5.49872 -15.0363 0.
-126.466 -339.371 0.
21.6504 59.7814 0.
-589.769 -1626.25 0.
5.17374 14.3302 0.
-2.06097 -5.70689 0.
12.3078 34.0802 0.
25.5487 70.7142 0.
-85.9525 -235.276 0.
-315.064 -848.602 0.
5.4639 14.9362 0.
6.9214 18.9092 0.
-165.182 -451.513 0.
-46.3849 -122.993 0.
16.2672 44.3991 0.
5.55859 14.5897 0.
40.6334 109.348 0.
-16.2114 -41.0026 0.
17.9251 45.5632 0.
-421.485 -1022.79 0.
-706.044 -1622.03 0.
-25.6651 -47.6651 0.
-498.087 -737.347 0.
41.729 64.5181 0.
35.1114 68.8908 0.
-220.318 -466.445 0.
-13.4845 -33.1684 0.
-8.82742 -22.3061 0.
16.5668 42.4997 0.
39.2165 106.838 0.
-692.426 -1824.5 0.
-151.777 -411.088 0.
-74.3808 -198.86 0.
10.745 29.3531 0.
-8.2692 -22.5618 0.
-13.5466 -36.7243 0.
-0.621653 -79.8139 0.
23.1333 63.5113 0.
-312.79 -857.458 0.
11.676 32.3334 0.
-42.9203 -118.22 0.
5.37202 14.8789 0.
12.7346 35.1345 0.
-375.138 -1038.59 0.
-7.20743 -19.958 0.
20.9601 58.0522 0.
-10.4436 -28.7754 0.
4.45991 12.3349 0.
8.21066 22.4063 0.
-9.26649 -25.338 0.
-6.34255 -17.5448 0.
-0.0765612 -20.6872 0.
-0.0731421 -26.3268 0.
-0.163829 -23.5437 0.
-493.357 -1246.68 0.
-0.0402616 -6.4536 0.
-0.35727 -10.0487 0.
3.04478 8.41242 0.
-21.8231 -59.6016 0.
2.04433 5.30522 0.
-10.0705 -27.883 0.
0.908957 0.111063 0.
0.0889571 0.640639 0.
-15.0778 -12.6028 0.
-3.48327 -5.67543 0.
-8.88248 -24.5542 0.
-8.99335 -24.8859 0.
-13.42 -34.767 0.
-13.7427 -36.7111 0.
-7.32949 -18.5525 0.
-3.20143 -6.93053 0.
-4.23617 -11.4839 0.
-2.10809 -5.5384 0.
-20.9719 -28.5423 0.
-22.5332 -30.4338 0.
-26.2687 -36.9806 0.
-11.6736 -31.3462 0.
-9.29285 -25.4433 0.
-10.2002 -28.2512 0.
-11.3114 -20.3463 0.
-8.4959 -16.1409 0.
-18.5791 -37.9733 0.
-0.135103 -0.261051 0.
-9.11257 -20.3562 0.
0.366036 1.01293 0.
0.00327306 0.473975 0.
0.00368508 0.783999 0.
-0.03473 -2.34049 0.
0.222468 0.514668 0.
-0.000340205 -0.377102 0.
-1.1887 -3.11211 0.
-0.023838 -9.40084 0.
-343.606 -906.389 0.
-0.0971204 -40.4031 0.
-301.855 -823.144 0.
5.0513 13.787 0.
-523.091 -1417.83 0.
-0.00546314 -35.4737 0.
-0.0291621 -50.1811 0.
-10.7514 -29.6511 0.
-0.33463 -54.0548 0.
-380.01 -1017.47 0.
7.2361 19.9981 0.
-10.401 -28.7824 0.
-29.9131 -82.8499 0.
-8.09492 -22.4191 0.
-267.679 -740.995 0.
17.5009 48.432 0.
-91.7289 -251.388 0.
-556.812 -1501.08 0.
16.098 44.0969 0.
3.99551 10.9126 0.
-246.232 -672.862 0.
-294.416 -785.212 0.
-62.8405 -171.223 0.
27.2145 71.4478 0.
30.0038 80.7326 0.
44.1922 111.659 0.
43.7222 110.707 0.
-13.3822 -35.3222 0.
-43.2228 -89.9475 0.
-22.8446 -49.793 0.
11.2753 20.4231 0.
-47.9439 -70.4023 0.
-27.4747 -51.8895 0.
-108.181 -242.012 0.
2.43136 5.93292 0.
23.5046 59.4033 0.
-15.7513 -41.9333 0.
34.4333 93.8468 0.
7.6373 20.7004 0.
-119.265 -322.639 0.
12.3743 34.0995 0.
-2.74305 -7.50755 0.
-19.1508 -52.78 0.
-274.959 -755.009 0.
21.3914 58.8743 0.
-83.0978 -228.589 0.
-104.515 -286.667 0.
-10.9987 -30.4636 0.
-77.291 -212.968 0.
-0.000133148 -61.8191 0.
-28.8675 -79.6083 0.
4.7353 13.114 0.
-0.0103197 -57.0845 0.
-47.3025 -130.97 0.
13.0024 35.8443 0.
-9.53006 -26.3798 0.
-4.66511 -12.9205 0.
-45.7593 -124.921 0.
-271.097 -750.095 0.
16.6365 45.7081 0.
-799.054 -2120.57 0.
-0.179739 -35.8532 0.
7.15423 18.6126 0.
-0.0201658 -18.7723 0.
-0.116525 -4.01221 0.
-0.00207397 -1.8339 0.
1.90435 5.26314 0.
1.92361 5.25929 0.
-479.644 -1231.11 0.
0.543355 0.252904 0.
0.801051 0.990561 0.
-593.448 -1549.12 0.
1.17611 0.0191921 0.
-682.326 -1452.72 0.
-2.74852 -3.99506 0.
0.104578 0.714054 0.
-700.916 -1785.31 0.
-9.12787 -25.2748 0.
-19.2446 -52.4087 0.
-423.578 -1155.67 0.
-344.388 -952.655 0.
-74.8296 -186.229 0.
-63.3411 -161.178 0.
-613.442 -1595.92 0.
-25.0542 -45.2609 0.
-16.4034 -30.7579 0.
-770.43 -1962.79 0.
-4.62093 -7.39111 0.
-17.3903 -38.711 0.
-685.278 -1236.15 0.
0.128022 0.30396 0.
-785.774 -2031.88 0.
-0.00889298 -1.68349 0.
-8.1456 -20.6176 0.
-625.793 -1442.67 0.
-0.001403 -2.0431 0.
0.539732 1.378 0.
-0.0410623 -15.3587 0.
-0.106653 -8.46733 0.
-0.00945936 -22.7518 0.
-54.8906 -147.322 0.
1.49345 4.13367 0.
12.6555 34.7686 0.
16.058 43.8453 0.
-0.00101463 -36.9775 0.
-0.0953805 -0.26401 0.
14.6135 40.4271 0.
-289.198 -797.83 0.
16.6231 45.2778 0.
-9.82094 -27.1846 0.
18.4513 51.0503 0.
-0.0300753 -62.0911 0.
-337.57 -934.882 0.
-0.952169 -2.6373 0.
-157.357 -435.497 0.
-0.029265 -68.2441 0.
-108.02 -296.39 0.
-26.2264 -72.4602 0.
-58.3815 -160.249 0.
-5.83889 -16.0553 0.
-70.9086 -193.717 0.
-24.1027 -66.1663 0.
-239.085 -650.162 0.
18.7591 51.554 0.
-1.30279 -104.209 0.
-1.39701 -3.71807 0.
21.6884 54.6382 0.
20.6354 54.2703 0.
49.1953 101.898 0.
-2.69486 -5.92846 0.
-866.908 -1485.94 0.
-6.71537 -75.5726 0.
-6.98689 -104.833 0.
25.3117 63.7645 0.
-160.818 -412.054 0.
-306.627 -777.299 0.
-151.214 -401.392 0.
-8.93379 -24.3569 0.
-3.99375 -10.825 0.
-194.013 -524.147 0.
-26.9618 -74.3073 0.
-349.971 -959.506 0.
11.6248 32.0509 0.
-200.236 -550.17 0.
-3.41527 -9.40272 0.
-152.703 -420.782 0.
-74.1976 -205.513 0.
-32.2504 -89.3264 0.
-16.8482 -46.6058 0.
-7.07421 -19.5943 0.
-43.464 -119.803 0.
22.3746 61.966 0.
0.241515 0.668523 0.
-15.2771 -42.2609 0.
20.0574 55.3204 0.
-170.277 -471.564 0.
9.2012 25.4178 0.
-197.161 -537.393 0.
-0.83309 -2.29723 0.
-2.83561 -7.79985 0.
-4.38136 -12.0946 0.
-0.0970461 -25.5975 0.
-55.5987 -147.745 0.
9.82485 27.2084 0.
-459.67 -1088.35 0.
-0.102607 -5.59403 0.
-223.44 -604.251 0.
3.27348 8.89416 0.
0.264367 0.724376 0.
0.000735633 1.11545 0.
1.67504 0.26308 0.
1.69328 1.18911 0.
1.18856 0.483738 0.
-5.26588 -9.40925 0.
-0.607978 -0.0205705 0.
0.196154 0.0245906 0.
-9.84253 -26.4554 0.
-8.89101 -22.1809 0.
-10.5184 -24.3663 0.
-10.2354 -28.2886 0.
-8.60282 -23.4112 0.
-30.8405 -64.8643 0.
-16.4101 -29.7751 0.
-11.7406 -18.6412 0.
-33.9009 -52.0629 0.
-27.0982 -34.8197 0.
-33.2885 -48.1862 0.
-4.24451 -6.30061 0.
-1.31472 -2.23001 0.
-10.7321 -22.522 0.
-0.0358076 -0.845867 0.
-6.2398 -17.1189 0.
0.00137412 0.341475 0.
0.562061 1.53391 0.
3.97999 11.0032 0.
2.4698 5.99186 0.
-362.661 -725.959 0.
-452.21 -1177.81 0.
-0.129829 -17.3974 0.
1.55199 4.29873 0.
0.596645 1.63447 0.
-95.3343 -263.8 0.
-5.1349 -14.1095 0.
-1.1955 -3.26504 0.
-5.18626 -14.3577 0.
-226.901 -628.455 0.
-0.023732 -52.5688 0.
10.1123 27.8841 0.
-8.36302 -23.0597 0.
14.6286 40.5142 0.
-65.9066 -182.482 0.
-0.60986 -1.68678 0.
-2.46959 -6.83316 0.
-35.4087 -98.075 0.
-175.973 -486.924 0.
2.40576 6.64759 0.
-128.266 -352.357 0.
-23.3457 -64.4973 0.
-322.375 -886.592 0.
-33.5682 -92.3346 0.
30.4269 83.9604 0.
-26.7178 -73.4481 0.
-362.286 -983.109 0.
7.13886 19.6066 0.
-24.3213 -65.3369 0.
-18.4752 -48.9178 0.
-271.889 -680.795 0.
-20.1078 -52.6679 0.
50.0911 113.249 0.
5.79461 14.6781 0.
-208.075 -425.469 0.
-5.67119 -50.538 0.
-3.12516 -7.36138 0.
3.69779 9.221 0.
-233.14 -596.961 0.
-1.37494 -105.354 0.
-178.189 -471.317 0.
-8.74077 -23.8381 0.
21.066 57.0965 0.
-31.6682 -85.4241 0.
-7.68819 -21.1914 0.
-340.836 -936.055 0.
-17.8435 -49.2152 0.
-233.756 -642.635 0.
-11.1934 -30.8265 0.
-347.634 -955.007 0.
-45.9967 -127.403 0.
-129.951 -359.87 0.
23.8485 65.9808 0.
-20.4752 -56.7108 0.
-12.8143 -35.3889 0.
20.4805 56.7217 0.
-97.5878 -270.061 0.
-25.8584 -71.5399 0.
-51.5376 -142.212 0.
6.87591 18.9171 0.
14.9862 41.4023 0.
-340.987 -928.059 0.
16.9937 46.8052 0.
17.8318 49.3545 0.
17.1103 47.2004 0.
-1.95935 -5.38788 0.
13.6788 37.8699 0.
1.69158 4.6215 0.
-0.708683 -1.73694 0.
-0.110617 -9.10739 0.
-58.9778 -161.947 0.
3.76869 10.204 0.
0.201388 2.81141 0.
0.0645771 0.740412 0.
0.384134 1.40167 0.
-338.423 -925.77 0.
-20.4404 -54.7174 0.
-461.173 -1078.28 0.
-13.0231 -31.0229 0.
-11.17 -24.1704 0.
-525.965 -1387.77 0.
-16.5639 -42.2224 0.
-22.4468 -59.6878 0.
-250.51 -681.555 0.
-340.814 -937.943 0.
-50.6655 -136.328 0.
-39.0123 -106.961 0.
-469.641 -1250.36 0.
-98.9261 -171.193 0.
-21.7183 -14.4446 0.
-358.168 -646.792 0.
-0.0249622 -0.0289108 0.
-623.525 -1669.34 0.
-0.0377945 -0.622381 0.
-35.9744 -97.6023 0.
0.00097502 0.313899 0.
0.0111627 0.559983 0.
-6.5568e-05 -3.11481 0.
-0.0164901 -16.6153 0.
-0.0402786 -1.14266 0.
0.00710077 3.18155 0.
-4.70172 -12.6594 0.
12.6468 34.859 0.
13.861 38.3837 0.
-0.183275 -37.147 0.
-222.566 -615.698 0.
-149.211 -411.36 0.
6.86507 18.7523 0.
-0.0254151 -47.7172 0.
10.1046 27.9546 0.
-13.1118 -36.2827 0.
-13.2265 -36.4857 0.
-248.306 -684.959 0.
-4.62136 -12.8001 0.
-22.3631 -61.8492 0.
-116.662 -322.571 0.
-95.4642 -264.11 0.
-82.4239 -228.184 0.
-146.353 -404.875 0.
7.35257 20.2531 0.
-178.701 -491.453 0.
-41.6548 -115.071 0.
-165.479 -455.822 0.
-10.9726 -30.1916 0.
26.0152 71.8511 0.
-56.7132 -156.116 0.
-58.9238 -159.486 0.
4.30335 11.8099 0.
27.5368 73.876 0.
-1.4809 -3.89789 0.
18.8354 49.6596 0.
-134.935 -351.861 0.
-3.02302 -6.82939 0.
9.95345 24.3044 0.
-36.4399 -71.0652 0.
15.9418 33.4409 0.
43.1132 100.064 0.
48.6995 120.137 0.
-352.317 -901.612 0.
-21.7253 -58.1442 0.
-179.171 -491.411 0.
13.2294 36.4024 0.
-112.813 -305.799 0.
-13.8228 -38.17 0.
-114.385 -315.319 0.
-19.9734 -55.1396 0.
-76.9826 -212.409 0.
-16.1514 -44.697 0.
-38.8541 -107.037 0.
-95.3422 -262.033 0.
-8.64129 -23.9347 0.
-378.617 -1048.69 0.
-7.15102 -19.7871 0.
-191.508 -530.392 0.
-4.49607 -12.4145 0.
-43.637 -120.857 0.
-0.00400725 -54.5245 0.
-72.7303 -201.237 0.
-333.069 -919.459 0.
-0.664734 -1.83937 0.
-126.19 -348.674 0.
11.8276 32.7221 0.
10.2729 28.2598 0.
-290.247 -803.103 0.
-2.10868 -5.81379 0.
5.1702 14.2321 0.
-1.0036 -2.76963 0.
-7.75643 -21.3642 0.
7.90811 21.5657 0.
-0.0561584 -6.23611 0.
-0.0183731 -8.19566 0.
-300.542 -810.301 0.
5.64074 15.5883 0.
-540.056 -1204.11 0.
-12.1376 -33.5406 0.
-49.0241 -135.664 0.
-15.7407 -43.5001 0.
-27.9501 -68.0381 0.
-16.368 -38.8131 0.
-12.1369 -28.0422 0.
-20.6826 -54.864 0.
-12.1741 -32.5701 0.
-21.4242 -57.3282 0.
-12.3963 -31.5694 0.
-5.35266 -12.2884 0.
-17.4995 -45.8248 0.
-9.93349 -23.576 0.
-10.6839 -27.1021 0.
-20.2298 -21.3806 0.
-11.938 -4.69883 0.
-12.9081 -7.969 0.
0.0569066 0.0565542 0.
-31.5003 -55.9504 0.
0.909507 2.13379 0.
0.261092 0.721397 0.
-391.583 -991.93 0.
2.39979 6.48156 0.
-464.486 -1047.42 0.
7.89874 20.8972 0.
0.0707992 2.86183 0.
-0.21052 -37.1375 0.
-1.80616 -4.93704 0.
8.06593 22.2583 0.
-311.051 -852.583 0.
11.3643 31.1032 0.
-1.01179 -2.80085 0.
-85.5526 -235.636 0.
-6.04399 -16.7053 0.
-4.05461 -11.2041 0.
-2.48695 -6.87964 0.
-88.3385 -244.504 0.
7.7291 21.3287 0.
6.05866 16.6355 0.
-272.374 -754.149 0.
-44.0229 -121.745 0.
-217.51 -601.575 0.
-83.6876 -231.502 0.
-22.5465 -62.4443 0.
-157.57 -435.805 0.
10.4009 28.6669 0.
-126.821 -349.159 0.
-10.7177 -29.6054 0.
-37.1706 -102.78 0.
-138.662 -381.674 0.
-15.4975 -42.9126 0.
-176.506 -486.466 0.
23.5463 64.516 0.
-346.882 -951.031 0.
-7.18887 -19.8403 0.
-348.255 -910.403 0.
23.4991 61.7095 0.
-489.118 -1269.11 0.
48.1837 108.759 0.
-482.593 -1137.1 0.
-18.6064 -34.82 0.
-10.8674 -63.2929 0.
-125.365 -286.846 0.
-177.648 -432.979 0.
-1.01938 -105.143 0.
-79.6889 -212.416 0.
-238.152 -653.299 0.
34.6696 95.1967 0.
-19.4912 -52.8273 0.
-22.2463 -61.4331 0.
-32.6946 -90.1402 0.
15.2555 42.1033 0.
-57.4357 -158.515 0.
-6.33396 -17.5274 0.
-100.962 -278.22 0.
-0.0428994 -74.9585 0.
-48.8675 -135.349 0.
-24.0706 -66.6692 0.
-5.52239 -15.2827 0.
-148.972 -412.236 0.
3.6827 10.1668 0.
-283.598 -785.478 0.
-0.0029794 -64.0836 0.
-79.3533 -219.581 0.
10.2511 28.3321 0.
-7.17474 -19.8398 0.
-278.202 -768.796 0.
14.2032 39.2967 0.
2.6008 7.19094 0.
1.33321 3.68803 0.
-7.3868 -20.3556 0.
-0.566502 -1.55552 0.
-12.6965 -35.0704 0.
-263.208 -727.636 0.
12.8871 34.9735 0.
-222.201 -590.921 0.
-1.19657 -3.28209 0.
1.05083 2.8885 0.
-0.0639092 -10.6345 0.
-5.54622 -14.3132 0.
-0.00045146 -5.01874 0.
-30.5309 -83.6578 0.
-12.5204 -32.8787 0.
-0.551723 -1.27051 0.
-22.6162 -49.6319 0.
-18.6496 -40.193 0.
-23.0479 -62.5146 0.
-20.0022 -54.5028 0.
-24.5119 -65.8065 0.
-16.9296 -23.7826 0.
-14.7828 -17.543 0.
-14.5482 -31.7272 0.
-12.0311 -24.78 0.
-13.3074 -28.4524 0.
-16.9725 -17.6664 0.
-7.99878 -2.92561 0.
-8.42719 -5.68787 0.
0.0639956 0.0606827 0.
-34.1113 -44.4701 0.
-0.0400489 -0.474352 0.
2.42953e-05 0.0025138 0.
-0.0042402 -1.78617 0.
0.000697702 0.198916 0.
2.85907 6.96858 0.
-0.0371635 -4.96767 0.
-372.266 -947.388 0.
-0.147829 -21.4481 0.
-110.073 -302.888 0.
-6.4973 -17.9445 0.
8.01535 22.0868 0.
-82.7109 -228.488 0.
17.8864 49.4924 0.
-90.2074 -248.203 0.
9.90317 27.3795 0.
-144.854 -399.736 0.
16.555 45.7921 0.
11.7323 32.4964 0.
-66.0871 -182.434 0.
-4.62526 -12.6965 0.
-215.825 -594.025 0.
-45.0179 -124.488 0.
-33.1071 -91.5393 0.
-13.9522 -38.591 0.
-20.1649 -55.852 0.
-15.6812 -43.3593 0.
17.8571 49.2451 0.
-144.77 -400.078 0.
-177.14 -489.248 0.
2.50937 6.9383 0.
-60.6739 -167.063 0.
-0.0167767 -84.4098 0.
-63.0537 -173.983 0.
13.3405 36.4878 0.
-300.409 -822.779 0.
-13.6311 -37.5918 0.
-241.068 -625.362 0.
-19.1773 -50.1387 0.
30.1515 81.4102 0.
-20.8584 -54.4451 0.
-31.2383 -71.2491 0.
-3.32669 -36.0264 0.
-7.51487 -59.8293 0.
-296.011 -668.034 0.
18.8456 49.0646 0.
26.3985 70.962 0.
-256.85 -681.514 0.
30.6744 84.8218 0.
-437.513 -1198.16 0.
14.0045 38.7472 0.
-48.1515 -132.975 0.
-13.2013 -36.4869 0.
-19.9212 -54.9632 0.
15.4241 42.5556 0.
9.11407 25.2185 0.
-145.541 -401.938 0.
-0.0357327 -69.6921 0.
-233.674 -647.18 0.
23.3126 64.5621 0.
-19.6868 -54.4879 0.
-7.86647 -21.7716 0.
-5.99514 -16.5478 0.
-62.0062 -171.26 0.
4.6393 12.8471 0.
-106.612 -295.031 0.
20.9459 57.8981 0.
13.8812 38.3527 0.
5.84016 16.1522 0.
16.3394 45.2097 0.
-208.529 -576.849 0.
1.07232 2.96754 0.
-2.67298 -7.36228 0.
2.36001 6.47665 0.
-16.7281 -46.2393 0.
-9.60764 -26.5947 0.
11.2507 30.77 0.
-212.656 -569.595 0.
-0.0736176 -26.6172 0.
-0.00962345 -19.6181 0.
-0.0155895 -1.38405 0.
2.82957 7.4537 0.
-0.000107836 -6.0208 0.
-263.799 -701.002 0.
0.0688905 1.2745 0.
-0.0108646 -0.0738761 0.
-429.712 -1090.23 0.
-10.1596 -19.1007 0.
-206.008 -500.716 0.
-29.9236 -78.5415 0.
-94.8966 -246.177 0.
-123.099 -309.156 0.
-321.224 -860.636 0.
-22.7303 -46.5249 0.
-20.9328 -41.3979 0.
-357.57 -974.802 0.
-14.2532 -13.9617 0.
-10.265 -3.74875 0.
-314.459 -693.829 0.
0.108563 0.167979 0.
-312.038 -786.382 0.
0.102738 4.24508 0.
-285.307 -665.556 0.
1.04563 2.89617 0.
-0.00585379 -4.03421 0.
-0.153691 -3.98741 0.
-0.00719556 -2.69134 0.
-0.302094 -22.9527 0.
-7.22467 -19.9789 0.
15.4004 42.6562 0.
-3.75399 -10.374 0.
-9.06835 -24.9649 0.
-205.1 -566.225 0.
18.374 50.8147 0.
-196.11 -539.016 0.
4.25041 11.7541 0.
-12.6789 -35.0419 0.
8.62541 23.8564 0.
6.5835 18.2351 0.
-15.6386 -43.1842 0.
1.57499 4.32228 0.
16.1085 44.2406 0.
-132.123 -365.33 0.
-15.2746 -42.2176 0.
-60.5027 -167.32 0.
-77.6945 -215.2 0.
-10.1329 -28.06 0.
-124.508 -343.538 0.
22.2141 61.4598 0.
-155.445 -429.279 0.
-1.07122 -2.96166 0.
11.8191 32.5547 0.
-15.2191 -42.1229 0.
-10.099 -27.959 0.
-4.80406 -13.1127 0.
-0.168714 -0.466383 0.
29.1592 80.342 0.
4.9062 13.2495 0.
-25.8312 -67.1799 0.
10.8055 28.7416 0.
16.2838 44.44 0.
-329.983 -751.98 0.
2.01998 4.40708 0.
-14.5305 -30.9906 0.
16.2766 43.3413 0.
-0.539979 -80.0149 0.
-23.8374 -63.5371 0.
19.2953 52.303 0.
-0.101079 -73.9126 0.
-103.23 -281.746 0.
15.214 42.0456 0.
-61.1931 -168.996 0.
-17.5763 -48.563 0.
-10.1268 -27.9311 0.
4.97392 13.7769 0.
-26.8308 -74.2331 0.
-11.4652 -31.6599 0.
-7.86661 -21.7651 0.
-16.0101 -44.2378 0.
7.71148 21.3519 0.
-50.7901 -140.589 0.
16.9669 46.7167 0.
-11.4869 -31.7004 0.
-41.4084 -114.35 0.
15.6172 43.2405 0.
-70.0872 -194.112 0.
-10.868 -30.0207 0.
8.65142 23.8796 0.
9.69818 26.8001 0.
3.29009 9.09603 0.
-12.2192 -33.7761 0.
-2.21058 -6.11956 0.
-48.4512 -132.944 0.
-3.42429 -9.3923 0.
-13.0839 -36.1868 0.
-5.66287 -15.6802 0.
3.92293 10.7069 0.
-0.412889 -31.2729 0.
11.0031 30.332 0.
-3.01041e-06 -21.9787 0.
-116.032 -320.798 0.
-108.02 -260.697 0.
-0.0437928 -6.53979 0.
0.000114841 0.315159 0.
0.0148336 0.688197 0.
1.41873 3.26661 0.
-0.0495408 -0.298148 0.
-0.00321891 -0.178532 0.
-20.4652 -55.9571 0.
-10.2394 -28.3615 0.
-14.5862 -40.1808 0.
-27.2395 -39.5512 0.
-20.2105 -25.9958 0.
-26.228 -59.2633 0.
-14.6053 -30.198 0.
-12.1344 -28.1786 0.
-6.3566 -2.39756 0.
-4.79137 -1.80062 0.
-11.4552 -5.90677 0.
0.0234628 0.301691 0.
0.0685767 0.262098 0.
-0.15569 -6.99886 0.
-0.0525243 -2.39769 0.
-0.00112563 -18.4066 0.
-299.568 -792.606 0.
12.3073 34.0843 0.
-0.00864923 -9.5329 0.
2.87636 7.69987 0.
1.16727 3.2243 0.
15.248 42.2141 0.
-0.0341493 -43.976 0.
-3.74256 -10.2937 0.
-10.8443 -30.0211 0.
6.62391 18.3383 0.
-10.4576 -28.8904 0.
14.9912 41.4663 0.
15.9512 44.1719 0.
-93.3846 -258.268 0.
-3.96339 -10.9778 0.
-8.73292 -23.6383 0.
-14.1331 -38.7754 0.
-0.254735 -62.075 0.
-99.7625 -275.831 0.
-17.7954 -49.1648 0.
-8.31477 -23.0143 0.
-79.4696 -220.112 0.
-23.0874 -63.9178 0.
-98.2855 -271.32 0.
10.8788 30.1044 0.
4.09145 11.3323 0.
-77.0781 -213.079 0.
3.88021 10.7462 0.
-222.092 -614.475 0.
19.1705 53.0868 0.
-437.507 -1191.36 0.
-16.6461 -45.9552 0.
8.15331 22.441 0.
-0.914836 -80.4223 0.
-5.15581 -13.9197 0.
9.31483 24.6375 0.
20.3876 55.3496 0.
20.0876 50.135 0.
-19.1939 -47.519 0.
11.2617 27.4917 0.
30.8464 80.9047 0.
-1.00508 -101.128 0.
-40.8269 -107.945 0.
-0.479472 -1.28634 0.
25.777 71.009 0.
10.9536 30.3389 0.
31.3995 86.641 0.
8.01573 22.2021 0.
-10.1898 -28.146 0.
11.7332 32.3504 0.
10.3554 28.6826 0.
-199.889 -552.97 0.
6.76485 18.7372 0.
-16.1129 -44.5863 0.
8.39488 23.201 0.
14.8114 40.9983 0.
-153.745 -425.846 0.
24.811 68.3086 0.
-73.6664 -203.26 0.
22.2402 60.9995 0.
16.5969 45.9444 0.
-181.152 -501.665 0.
-0.595067 -1.64312 0.
-147.745 -408.313 0.
15.9043 43.9063 0.
-5.75025 -15.8962 0.
0.0269965 0.0746167 0.
-53.6546 -148.569 0.
3.56952 9.88626 0.
0.506957 1.38974 0.
-174.194 -482.016 0.
5.71069 15.7984 0.
8.89949 24.2417 0.
5.12649 13.724 0.
0.260699 0.719423 0.
14.7993 40.552 0.
-13.2213 -36.6198 0.
-0.732244 -24.0827 0.
0.00570663 4.11599 0.
-0.773035 -21.0619 0.
0.0270783 2.5645 0.
-0.179707 -3.24258 0.
0.252081 0.568473 0.
-0.00595802 -0.456623 0.
-93.7778 -252.304 0.
-14.2921 -39.4685 0.
-33.0735 -90.3512 0.
-37.8393 -87.5155 0.
-154.971 -414.394 0.
-10.2702 -17.2339 0.
-10.591 -14.5692 0.
-140.381 -378.557 0.
-15.3974 -11.8835 0.
-117.116 -276.022 0.
-13.1216 -7.10496 0.
0.138542 0.241282 0.
0.461146 0.0406746 0.
9.77723e-05 0.00462198 0.
-0.065813 -9.30742 0.
-0.0470596 -16.7758 0.
6.27607 17.1025 0.
12.1414 33.6275 0.
0.972848 2.67331 0.
3.77475 10.0932 0.
-137.922 -380.581 0.
0.935895 2.59085 0.
2.2546 6.17063 0.
-24.82 -68.2011 0.
9.70421 26.8734 0.
7.7564 21.4798 0.
-8.73963 -24.1512 0.
-144.52 -399.828 0.
15.3387 42.467 0.
10.9137 30.2186 0.
-35.0865 -97.18 0.
-0.468264 -1.26589 0.
10.2992 28.2489 0.
-1.88057 -5.15049 0.
-11.2448 -30.7788 0.
-0.938145 -2.59075 0.
-3.86003 -10.6778 0.
-104.802 -290.256 0.
-19.4659 -53.8911 0.
-10.6508 -29.4153 0.
-77.3434 -214.069 0.
24.9815 69.1942 0.
-196.317 -542.656 0.
17.9686 49.7621 0.
-36.5229 -101.005 0.
10.5385 29.0765 0.
31.3419 86.677 0.
-41.6451 -114.787 0.
18.5138 51.2751 0.
-144.233 -388.299 0.
-0.635158 -87.0638 0.
-85.0469 -223.598 0.
10.4842 28.2843 0.
7.9519 19.2379 0.
19.974 51.4085 0.
-181.58 -424.556 0.
-3.40156 -8.76481 0.
-17.9166 -48.0418 0.
5.92903 16.191 0.
29.8141 79.0541 0.
-3.65183 -10.0899 0.
-8.18509 -22.6484 0.
12.3009 33.8796 0.
1.52989 4.21682 0.
12.726 35.1455 0.
8.68394 23.9838 0.
7.39278 20.4764 0.
22.0963 61.1232 0.
20.0803 55.6152 0.
-17.0794 -47.2668 0.
-0.00618032 -60.3513 0.
-5.11646 -14.1566 0.
-104.26 -288.756 0.
-9.3804 -25.8232 0.
-239.209 -660.395 0.
8.5404 23.4087 0.
-21.8595 -60.4528 0.
15.0239 41.5995 0.
9.46106 26.1135 0.
-24.4148 -67.4483 0.
10.254 27.6774 0.
-113.636 -311.134 0.
-13.4918 -37.2871 0.
-8.53273 -23.6254 0.
14.0836 39.0056 0.
-38.5438 -105.603 0.
11.1078 30.4209 0.
10.8734 30.0867 0.
-110.113 -299.358 0.
6.44569 17.2119 0.
-4.19057 -11.4855 0.
9.47852 25.9909 0.
-22.8692 -63.2457 0.
9.92337 25.4519 0.
6.68449e-05 0.533582 0.
-0.0271449 -19.2931 0.
-126.757 -318.292 0.
1.51313 4.12343 0.
-121.676 -326.813 0.
-7.45074e-07 -0.00873584 0.
-28.138 -77.3391 0.
-4.92629 -13.6433 0.
-3.05472 -8.46084 0.
-32.2056 -76.675 0.
-15.9448 -24.8188 0.
-12.4693 -28.4109 0.
-8.0244 -8.79601 0.
-10.3166 -14.0604 0.
-7.88979 -8.23131 0.
-0.0572527 -0.00296622 0.
-73.0357 -187.842 0.
-0.0707748 -1.55177 0.
-222.144 -439.593 0.
-0.0153944 -11.1823 0.
-34.0902 -93.7654 0.
6.50727 17.6729 0.
0.264422 0.729511 0.
1.09909 3.04264 0.
-91.73 -252.711 0.
14.5379 38.7565 0.
2.01369 5.57685 0.
2.82003 7.80613 0.
16.8657 46.1093 0.
-77.1503 -211.785 0.
9.10103 25.2074 0.
-72.9966 -202.182 0.
17.6323 47.9928 0.
-5.39525 -14.9407 0.
18.8689 52.2265 0.
8.83827 24.4662 0.
-176.895 -489.93 0.
-3.66777 -9.90253 0.
-4.25465 -11.6846 0.
17.8667 48.8585 0.
-0.352958 -62.0793 0.
-62.5554 -172.67 0.
-4.49485 -12.424 0.
-67.8678 -187.943 0.
-36.1375 -100.045 0.
9.06916 25.1198 0.
-44.3158 -122.679 0.
9.23314 25.5683 0.
1.67634 4.63364 0.
1.01184 2.80262 0.
20.596 57.0267 0.
-232.42 -641.798 0.
5.46565 15.1226 0.
12.9133 35.534 0.
26.6672 73.8255 0.
-7.08803 -19.4865 0.
6.60683 17.9624 0.
-7.57138 -20.4886 0.
-338.88 -907.985 0.
-1.68867 -4.59428 0.
-3.55157 -77.3568 0.
-0.226072 -0.593424 0.
-154.123 -389.24 0.
28.2762 78.0416 0.
-0.633252 -64.8871 0.
-67.6482 -177.077 0.
-0.00998323 -58.7315 0.
-204.788 -565.32 0.
6.02933 16.7 0.
-4.7909 -13.1819 0.
-72.8195 -201.09 0.
-11.7925 -32.6453 0.
-60.5544 -167.714 0.
10.8771 30.0652 0.
18.9603 52.5086 0.
-87.8186 -242.971 0.
-12.8731 -35.6405 0.
-0.960552 -2.65636 0.
6.14657 16.8801 0.
13.0332 35.8784 0.
-8.50482 -23.4797 0.
5.75258 15.7595 0.
-12.0462 -33.3124 0.
22.1253 61.0161 0.
2.5986 7.19216 0.
-63.0324 -174.069 0.
20.5419 55.3609 0.
-1.47475 -4.03489 0.
18.866 52.1342 0.
-3.59399 -9.87686 0.
1.7516 4.85106 0.
-61.0815 -167.255 0.
6.8993 18.5665 0.
3.34922 9.2689 0.
-9.2097 -25.4909 0.
8.2721 22.0342 0.
-79.6928 -218.575 0.
-6.04827 -16.5962 0.
-27.7172 -76.461 0.
7.48799 19.1714 0.
-53.3967 -146.83 0.
11.0419 30.065 0.
1.39439 3.70105 0.
2.8172 7.63716 0.
-12.008 -33.2174 0.
-0.00582592 -0.7286 0.
-17.8826 -49.425 0.
-6.3944 -17.6473 0.
-7.05901 -19.0652 0.
-35.0576 -84.5819 0.
-19.2124 -41.6362 0.
-18.718 -44.7617 0.
-10.7492 -18.6394 0.
-13.8885 -20.9656 0.
-6.34231 -7.57132 0.
0.0650441 0.0349453 0.
-5.35863 -11.2672 0.
0.00805668 1.37083 0.
0.372177 0.850384 0.
-0.0669557 -7.81834 0.
3.04922 8.43199 0.
4.55816 12.3913 0.
3.28399 9.09317 0.
-0.0200495 -39.0098 0.
17.1161 44.7759 0.
11.647 30.8704 0.
-5.30266 -14.6851 0.
16.4219 45.4541 0.
5.52347 15.0835 0.
13.7914 37.4639 0.
-17.2677 -47.8281 0.
-69.7913 -191.746 0.
-5.54456 -15.0846 0.
-71.8684 -198.984 0.
10.4034 28.786 0.
19.8534 54.9306 0.
-9.643 -26.1383 0.
7.74825 20.8926 0.
9.2688 24.6192 0.
-6.90904 -18.863 0.
22.7058 61.9372 0.
-101.531 -280.125 0.
17.4133 48.0849 0.
11.9767 33.132 0.
-85.5284 -236.774 0.
16.3135 45.1852 0.
-71.0293 -196.659 0.
-0.629362 -1.74296 0.
-0.00132969 -74.3316 0.
-95.5278 -264.592 0.
-3.84538 -10.648 0.
-45.9136 -126.902 0.
-3.15783 -8.74121 0.
-18.1191 -50.1718 0.
-7.16486 -19.8225 0.
9.47259 26.0238 0.
7.07372 19.2182 0.
-6.4692 -17.4018 0.
-9.7077 -26.5407 0.
10.5671 28.5677 0.
-149.796 -361.59 0.
-181.393 -467.398 0.
32.0313 88.5854 0.
23.2788 63.7775 0.
-1.0861 -76.9707 0.
3.88065 10.5215 0.
11.2473 31.1511 0.
-0.0367824 -53.9751 0.
22.8891 63.3864 0.
-252.833 -694.312 0.
-7.55788 -20.8365 0.
-8.94254 -24.7599 0.
-11.7087 -32.426 0.
23.1907 64.132 0.
-68.9146 -190.832 0.
14.7151 40.6212 0.
-8.68051 -24.0272 0.
-99.1434 -274.605 0.
4.68331 12.8502 0.
-12.3354 -34.0783 0.
14.4312 39.2033 0.
3.08906 8.46126 0.
-37.0446 -102.449 0.
13.467 37.1059 0.
14.9931 41.4809 0.
3.03382 8.37487 0.
10.2714 27.5597 0.
5.42798 14.8434 0.
-0.589685 -54.8335 0.
3.1509 8.63871 0.
-0.0578797 -0.160294 0.
-2.65267 -7.34741 0.
-5.61161 -15.1108 0.
14.9411 41.3558 0.
10.364 28.6901 0.
5.19566 13.4161 0.
0.678698 1.79684 0.
14.852 40.7784 0.
7.4418 20.4434 0.
-0.878594 -30.1057 0.
-36.4565 -100.885 0.
-0.418746 -31.5077 0.
-0.0135794 -1.60528 0.
-0.0402747 -4.00184 0.
-9.57671 -26.3545 0.
-24.8317 -49.5085 0.
-9.32037 -25.1086 0.
-4.38515 -11.2975 0.
-0.414921 -0.609833 0.
-24.7625 -57.8335 0.
-12.9445 -25.4945 0.
-11.6564 -19.5589 0.
-6.14172 -5.62397 0.
-38.9772 -84.6632 0.
-2.60525 -5.97897 0.
-6.05924 -16.7819 0.
-26.9418 -47.6955 0.
-0.000315181 -1.0321 0.
0.92858 2.3122 0.
-0.299617 -17.2529 0.
4.95507 13.7173 0.
4.34673 11.6668 0.
-0.383009 -1.03595 0.
14.7855 40.8718 0.
10.6181 27.5808 0.
16.094 42.4036 0.
-9.87677 -27.0936 0.
-85.0272 -235.335 0.
3.73017 10.1752 0.
-4.25144 -11.7334 0.
-34.6013 -95.8287 0.
-45.2199 -124.241 0.
9.05928 24.6405 0.
13.5501 36.8854 0.
-23.6071 -65.3707 0.
6.61683 18.2958 0.
-1.14278 -53.8323 0.
-31.5652 -85.0118 0.
2.53437 6.66233 0.
-117.241 -319.553 0.
-14.926 -40.6515 0.
10.9404 29.7272 0.
0.391929 1.08114 0.
5.89032 16.2841 0.
-146.615 -405.86 0.
-14.1779 -39.2695 0.
23.8542 65.7637 0.
-180.022 -498.584 0.
-0.00248566 -70.4579 0.
22.0131 60.9703 0.
24.7072 68.4202 0.
-9.55227 -26.4421 0.
-18.2011 -50.401 0.
12.9348 35.8207 0.
26.0979 71.6745 0.
11.3362 31.1361 0.
15.5297 42.9391 0.
-97.1211 -259.684 0.
2.26066 6.12507 0.
29.1851 80.7999 0.
-686.705 -1594.18 0.
12.5208 34.5206 0.
-3.51492 -9.73561 0.
-3.02879 -8.21494 0.
-1.54449 -4.22827 0.
0.219685 0.593557 0.
21.099 58.3642 0.
20.307 56.2037 0.
12.7206 35.2111 0.
10.3345 28.6211 0.
-0.118768 -70.719 0.
-56.083 -155.309 0.
2.24404 6.11763 0.
8.258 22.8527 0.
-43.237 -119.718 0.
20.4055 56.3505 0.
11.7126 32.4122 0.
5.37851 14.677 0.
4.56936 12.5303 0.
7.55004 20.8529 0.
-0.548657 -63.9752 0.
-45.1086 -122.756 0.
-33.1164 -90.5535 0.
5.98925 16.4892 0.
-61.1731 -169.187 0.
2.84604 7.70239 0.
1.54296 4.12296 0.
-3.35288 -9.1686 0.
-0.61205 -49.1986 0.
-29.1169 -79.642 0.
-88.2211 -244.32 0.
2.69087 7.31232 0.
18.9916 51.1918 0.
2.65352 7.22299 0.
-8.75829 -23.7039 0.
-2.15073 -5.50788 0.
15.0376 39.5508 0.
-13.5436 -37.2093 0.
-6.80264 -18.712 0.
-1.17317 -35.5563 0.
0.47166 1.19186 0.
-0.702721 -36.3116 0.
-4.805 -13.3019 0.
4.37571 12.036 0.
-0.594198 -2.76009 0.
-0.00691633 -0.155046 0.
-9.13008 -25.231 0.
-9.9707 -25.2177 0.
-39.2774 -36.9296 0.
-21.03 -30.9224 0.
-19.4298 -29.8997 0.
-12.9104 -7.80742 0.
-9.32737 -4.01744 0.
-13.8479 -12.3958 0.
0.0396558 0.0362601 0.
-8.15872 -17.2527 0.
0.84844 6.53466 0.
-11.6642 -32.3079 0.
1.27342 3.46635 0.
7.69959 20.0384 0.
7.87769 18.9707 0.
-15.7778 -41.7777 0.
12.65 33.9421 0.
1.90349 5.04655 0.
8.46801 21.8338 0.
-54.5373 -142.792 0.
-10.3054 -28.2513 0.
2.77991 7.07007 0.
-13.6623 -37.2309 0.
-0.189706 -0.522417 0.
15.1029 41.4669 0.
-49.9895 -137.388 0.
8.93805 24.2068 0.
-1.29551 -3.52325 0.
-91.0954 -252.175 0.
7.94157 21.9433 0.
-1.36191 -53.4991 0.
-105.681 -284.327 0.
1.71247 4.45722 0.
-2.67017 -56.6782 0.
-7.81277 -21.2528 0.
2.76618 7.48857 0.
-133.434 -367.699 0.
-1.24281 -3.43404 0.
11.2502 30.5847 0.
-25.5098 -70.6514 0.
-0.0930099 -51.9838 0.
-34.9415 -96.7765 0.
-19.7089 -54.5831 0.
-0.889013 -2.45538 0.
26.5303 73.4742 0.
4.24939 11.7613 0.
13.8946 37.9948 0.
16.87 46.6201 0.
-0.0616372 -45.2091 0.
-9.12459 -25.0629 0.
26.2086 72.464 0.
14.8785 40.8454 0.
-3.16546 -8.52775 0.
-0.0752692 -76.4939 0.
3.12209 8.60653 0.
