# vtk DataFile Version 2.0
test grain
ASCII
DATASET UNSTRUCTURED_GRID
POINTS 5000 float
0.49775 0.000610539 0.
0.500589 0.000796147 0.
0.503071 0.000863911 0.
0.505532 0.000929715 0.
0.507651 0.000946313 0.
0.509771 0.000963238 0.
0.511861 0.000975804 0.
0.513904 0.000980757 0.
0.515947 0.000985735 0.
0.517969 0.000989561 0.
0.519979 0.000992797 0.
0.52199 0.000996043 0.
0.523992 0.000996873 0.
0.525994 0.000997391 0.
0.527995 0.000997875 0.
0.529996 0.000998071 0.
0.531997 0.000998266 0.
0.533998 0.000998478 0.
0.535999 0.000998725 0.
0.537999 0.000998971 0.
0.539999 0.000999122 0.
0.541999 0.000999198 0.
0.543999 0.000999273 0.
0.545999 0.000999293 0.
0.547999 0.000999297 0.
0.549999 0.0009993 0.
0.551999 0.000999257 0.
0.553999 0.000999214 0.
0.555999 0.000999194 0.
0.557999 0.00099926 0.
0.559999 0.000999326 0.
0.561999 0.000999372 0.
0.563999 0.000999391 0.
0.565999 0.000999411 0.
0.567999 0.000999419 0.
0.569999 0.00099942 0.
0.571999 0.000999421 0.
0.573999 0.000999377 0.
0.575998 0.000999327 0.
0.577998 0.000999288 0.
0.579998 0.000999333 0.
0.581998 0.000999377 0.
0.583998 0.000999407 0.
0.585998 0.000999407 0.
0.587997 0.000999408 0.
0.589997 0.000999537 0.
0.591997 0.000999768 0.
0.593996 0.001 0.
0.595997 0.000999419 0.
0.597999 0.000998604 0.
0.6 0.000997791 0.
0.602001 0.000998604 0.
0.604003 0.000999418 0.
0.606004 0.001 0.
0.608003 0.000999772 0.
0.610003 0.000999543 0.
0.612003 0.000999416 0.
0.614003 0.000999416 0.
0.616002 0.000999417 0.
0.618002 0.000999383 0.
0.620002 0.000999332 0.
0.622002 0.000999282 0.
0.624002 0.000999322 0.
0.626002 0.000999373 0.
0.628001 0.000999419 0.
0.630001 0.000999417 0.
0.632001 0.000999415 0.
0.634001 0.000999406 0.
0.636001 0.000999382 0.
0.638001 0.000999358 0.
0.640001 0.000999306 0.
0.642001 0.000999231 0.
0.644001 0.000999155 0.
0.646001 0.000999177 0.
0.648001 0.000999227 0.
0.650001 0.000999277 0.
0.652001 0.000999286 0.
0.654001 0.000999294 0.
0.656001 0.000999277 0.
0.658001 0.00099917 0.
0.660001 0.000999062 0.
0.662001 0.000998812 0.
0.664002 0.000998384 0.
0.666003 0.000997956 0.
0.668004 0.000997771 0.
0.670005 0.000997707 0.
0.672007 0.000997642 0.
0.674009 0.000996652 0.
0.676012 0.000995551 0.
0.678016 0.000994025 0.
0.680036 0.000989227 0.
0.682056 0.000984452 0.
0.68409 0.00097935 0.
0.68615 0.000973553 0.
0.688209 0.000967791 0.
0.690373 0.000940633 0.
0.692593 0.000903224 0.
0.694834 0.000864416 0.
0.697635 0.000762691 0.
0.700444 0.000663626 0.
0.4957 0.00157771 0.
0.499071 0.00229397 0.
0.50194 0.00255675 0.
0.504763 0.00277277 0.
0.507132 0.00283055 0.
0.50943 0.00288394 0.
0.511664 0.00292685 0.
0.513758 0.00294184 0.
0.515852 0.00295691 0.
0.517907 0.00296853 0.
0.519938 0.00297828 0.
0.52197 0.00298807 0.
0.523977 0.00299061 0.
0.525982 0.00299217 0.
0.527986 0.00299362 0.
0.529989 0.00299421 0.
0.531992 0.0029948 0.
0.533994 0.00299543 0.
0.535996 0.00299617 0.
0.537997 0.00299691 0.
0.539997 0.00299737 0.
0.541998 0.00299759 0.
0.543998 0.00299782 0.
0.545998 0.00299788 0.
0.547998 0.00299789 0.
0.549998 0.0029979 0.
0.551998 0.00299777 0.
0.553997 0.00299764 0.
0.555997 0.00299758 0.
0.557997 0.00299778 0.
0.559997 0.00299798 0.
0.561997 0.00299811 0.
0.563997 0.00299817 0.
0.565997 0.00299823 0.
0.567997 0.00299826 0.
0.569996 0.00299826 0.
0.571996 0.00299826 0.
0.573996 0.00299813 0.
0.575995 0.00299798 0.
0.577994 0.00299786 0.
0.579994 0.002998 0.
0.581993 0.00299813 0.
0.583993 0.00299822 0.
0.585993 0.00299822 0.
0.587992 0.00299822 0.
0.589991 0.00299861 0.
0.59199 0.0029993 0.
0.593989 0.003 0.
0.595992 0.00299826 0.
0.597996 0.00299581 0.
0.6 0.00299337 0.
0.602004 0.00299581 0.
0.604008 0.00299826 0.
0.606011 0.003 0.
0.60801 0.00299931 0.
0.610009 0.00299863 0.
0.612008 0.00299825 0.
0.614008 0.00299825 0.
0.616007 0.00299825 0.
0.618007 0.00299815 0.
0.620006 0.002998 0.
0.622006 0.00299784 0.
0.624005 0.00299797 0.
0.626005 0.00299812 0.
0.628004 0.00299826 0.
0.630004 0.00299825 0.
0.632004 0.00299825 0.
0.634003 0.00299822 0.
0.636003 0.00299815 0.
0.638003 0.00299807 0.
0.640003 0.00299792 0.
0.642003 0.00299769 0.
0.644003 0.00299747 0.
0.646003 0.00299753 0.
0.648002 0.00299768 0.
0.650002 0.00299783 0.
0.652002 0.00299786 0.
0.654002 0.00299788 0.
0.656002 0.00299783 0.
0.658003 0.00299751 0.
0.660003 0.00299719 0.
0.662004 0.00299643 0.
0.664006 0.00299515 0.
0.666008 0.00299387 0.
0.668012 0.00299331 0.
0.670016 0.00299312 0.
0.67202 0.00299293 0.
0.674027 0.00298993 0.
0.676035 0.00298662 0.
0.678049 0.00298194 0.
0.680104 0.00296743 0.
0.68216 0.002953 0.
0.684241 0.00293761 0.
0.686368 0.00292003 0.
0.688493 0.00290256 0.
0.6909 0.00280438 0.
0.69339 0.00268569 0.
0.696109 0.00252268 0.
0.699278 0.00220652 0.
0.702567 0.00169781 0.
0.493305 0.00220197 0.
0.496964 0.00339432 0.
0.500613 0.0042003 0.
0.503806 0.00457443 0.
0.506565 0.00470263 0.
0.509056 0.00479622 0.
0.511462 0.00487712 0.
0.513608 0.00490234 0.
0.515755 0.00492769 0.
0.517844 0.00494728 0.
0.519896 0.00496362 0.
0.521949 0.00498 0.
0.523962 0.00498434 0.
0.52597 0.00498693 0.
0.527977 0.00498937 0.
0.529982 0.00499035 0.
0.531987 0.00499133 0.
0.533991 0.00499239 0.
0.535993 0.00499362 0.
0.537995 0.00499485 0.
0.539996 0.00499561 0.
0.541996 0.00499599 0.
0.543997 0.00499636 0.
0.545997 0.00499646 0.
0.547997 0.00499648 0.
0.549997 0.0049965 0.
0.551996 0.00499628 0.
0.553996 0.00499607 0.
0.555995 0.00499597 0.
0.557995 0.0049963 0.
0.559995 0.00499663 0.
0.561995 0.00499686 0.
0.563995 0.00499696 0.
0.565995 0.00499706 0.
0.567994 0.00499709 0.
0.569994 0.0049971 0.
0.571994 0.00499711 0.
0.573993 0.00499689 0.
0.575991 0.00499664 0.
0.57799 0.00499644 0.
0.57999 0.00499666 0.
0.581989 0.00499689 0.
0.583988 0.00499704 0.
0.585988 0.00499704 0.
0.587987 0.00499704 0.
0.589985 0.00499768 0.
0.591984 0.00499884 0.
0.593982 0.005 0.
0.595987 0.0049971 0.
0.597994 0.00499303 0.
0.6 0.00498895 0.
0.602007 0.00499302 0.
0.604014 0.0049971 0.
0.606019 0.005 0.
0.608017 0.00499886 0.
0.610015 0.00499771 0.
0.612014 0.00499708 0.
0.614013 0.00499708 0.
0.616012 0.00499708 0.
0.618011 0.00499691 0.
0.620011 0.00499666 0.
0.62201 0.00499641 0.
0.624009 0.00499661 0.
0.626008 0.00499687 0.
0.628007 0.00499709 0.
0.630006 0.00499709 0.
0.632006 0.00499708 0.
0.634006 0.00499703 0.
0.636005 0.00499691 0.
0.638005 0.00499679 0.
0.640005 0.00499653 0.
0.642005 0.00499615 0.
0.644005 0.00499578 0.
0.646005 0.00499589 0.
0.648004 0.00499614 0.
0.650003 0.00499638 0.
0.652004 0.00499643 0.
0.654004 0.00499647 0.
0.656004 0.00499638 0.
0.658005 0.00499585 0.
0.660005 0.00499531 0.
0.662007 0.00499406 0.
0.66401 0.00499191 0.
0.666014 0.00498977 0.
0.66802 0.00498886 0.
0.670027 0.00498854 0.
0.672034 0.00498822 0.
0.674046 0.00498318 0.
0.676059 0.00497765 0.
0.678082 0.00496967 0.
0.680174 0.00494531 0.
0.682265 0.00492107 0.
0.684398 0.00489527 0.
0.686593 0.00486566 0.
0.688786 0.00483624 0.
0.691511 0.00464217 0.
0.6943 0.00443301 0.
0.697681 0.00406774 0.
0.70132 0.00347182 0.
0.705087 0.00232725 0.
0.490365 0.00235386 0.
0.494655 0.00404419 0.
0.498811 0.00531398 0.
0.50219 0.00583178 0.
0.50535 0.00615657 0.
0.508007 0.00635233 0.
0.510649 0.00655271 0.
0.512964 0.00664823 0.
0.515273 0.00673942 0.
0.5175 0.00681037 0.
0.519635 0.00685586 0.
0.521773 0.00690214 0.
0.523835 0.00692753 0.
0.525881 0.00694913 0.
0.527925 0.00696936 0.
0.52994 0.00697207 0.
0.531955 0.00697479 0.
0.533968 0.00697799 0.
0.535975 0.00698226 0.
0.537983 0.00698654 0.
0.539988 0.00698936 0.
0.54199 0.00699098 0.
0.543992 0.0069926 0.
0.545993 0.00699333 0.
0.547994 0.00699381 0.
0.549995 0.00699429 0.
0.551994 0.0069941 0.
0.553993 0.00699391 0.
0.555993 0.00699387 0.
0.557993 0.00699433 0.
0.559993 0.00699479 0.
0.561993 0.00699512 0.
0.563993 0.00699529 0.
0.565992 0.00699546 0.
0.567992 0.00699554 0.
0.569992 0.00699557 0.
0.571992 0.0069956 0.
0.57399 0.00699536 0.
0.575989 0.0069951 0.
0.577988 0.0069949 0.
0.579987 0.00699518 0.
0.581987 0.00699547 0.
0.583986 0.00699569 0.
0.585985 0.0069958 0.
0.587984 0.0069959 0.
0.589982 0.00699647 0.
0.591981 0.00699744 0.
0.593979 0.0069984 0.
0.595985 0.00699588 0.
0.597993 0.00699235 0.
0.6 0.00698881 0.
0.602008 0.00699233 0.
0.604016 0.00699585 0.
0.606022 0.00699836 0.
0.60802 0.00699742 0.
0.610019 0.00699648 0.
0.612017 0.00699592 0.
0.614016 0.00699584 0.
0.616015 0.00699576 0.
0.618014 0.00699553 0.
0.620013 0.00699522 0.
0.622013 0.00699491 0.
0.624011 0.0069951 0.
0.62601 0.00699536 0.
0.628009 0.00699559 0.
0.630009 0.00699555 0.
0.632008 0.00699552 0.
0.634008 0.00699543 0.
0.636008 0.00699523 0.
0.638007 0.00699504 0.
0.640007 0.00699466 0.
0.642008 0.00699413 0.
0.644008 0.0069936 0.
0.646007 0.00699362 0.
0.648007 0.00699379 0.
0.650006 0.00699395 0.
0.652007 0.00699323 0.
0.654008 0.00699251 0.
0.65601 0.00699144 0.
0.658013 0.00698918 0.
0.660017 0.00698692 0.
0.662024 0.00698304 0.
0.664035 0.00697719 0.
0.666046 0.00697135 0.
0.668063 0.0069675 0.
0.670085 0.00696456 0.
0.672106 0.00696163 0.
0.674175 0.00692992 0.
0.676247 0.00689648 0.
0.678341 0.0068591 0.
0.680528 0.0068002 0.
0.682711 0.0067425 0.
0.68503 0.00664949 0.
0.687435 0.00653732 0.
0.689926 0.0063799 0.
0.692857 0.00601456 0.
0.69592 0.00564755 0.
0.699564 0.00514832 0.
0.703847 0.00414928 0.
0.707918 0.00258271 0.
0.487342 0.00232099 0.
0.492093 0.00430017 0.
0.496328 0.00580083 0.
0.500303 0.00687287 0.
0.503754 0.00746165 0.
0.506797 0.00782894 0.
0.509666 0.00816405 0.
0.512237 0.00836135 0.
0.514731 0.00852708 0.
0.517136 0.00866671 0.
0.519359 0.00874325 0.
0.521586 0.00882112 0.
0.523703 0.00886905 0.
0.52579 0.00891013 0.
0.527873 0.00894925 0.
0.529898 0.00895371 0.
0.531923 0.00895818 0.
0.533944 0.00896352 0.
0.535958 0.00897086 0.
0.537972 0.0089782 0.
0.53998 0.00898309 0.
0.541984 0.00898596 0.
0.543988 0.00898882 0.
0.54599 0.00899019 0.
0.547991 0.00899113 0.
0.549992 0.00899207 0.
0.551992 0.00899192 0.
0.553991 0.00899176 0.
0.555991 0.00899177 0.
0.557991 0.00899236 0.
0.559991 0.00899295 0.
0.561991 0.00899339 0.
0.56399 0.00899363 0.
0.56599 0.00899386 0.
0.56799 0.00899398 0.
0.56999 0.00899403 0.
0.571989 0.00899408 0.
0.573988 0.00899384 0.
0.575987 0.00899356 0.
0.577985 0.00899335 0.
0.579985 0.0089937 0.
0.581984 0.00899405 0.
0.583983 0.00899435 0.
0.585982 0.00899455 0.
0.587981 0.00899475 0.
0.589979 0.00899527 0.
0.591978 0.00899603 0.
0.593976 0.00899679 0.
0.595983 0.00899466 0.
0.597992 0.00899167 0.
0.6 0.00898869 0.
0.602009 0.00899165 0.
0.604018 0.00899461 0.
0.606025 0.00899672 0.
0.608023 0.00899598 0.
0.610022 0.00899524 0.
0.61202 0.00899476 0.
0.614019 0.0089946 0.
0.616018 0.00899444 0.
0.618017 0.00899414 0.
0.620016 0.00899377 0.
0.622015 0.0089934 0.
0.624014 0.0089936 0.
0.626012 0.00899386 0.
0.628011 0.00899408 0.
0.630011 0.00899402 0.
0.632011 0.00899395 0.
0.63401 0.00899382 0.
0.63601 0.00899355 0.
0.63801 0.00899328 0.
0.64001 0.00899279 0.
0.64201 0.00899211 0.
0.64401 0.00899143 0.
0.64601 0.00899135 0.
0.648009 0.00899144 0.
0.650009 0.00899152 0.
0.652011 0.00899003 0.
0.654013 0.00898854 0.
0.656015 0.00898648 0.
0.658022 0.00898249 0.
0.660029 0.0089785 0.
0.662041 0.00897197 0.
0.664059 0.00896239 0.
0.666078 0.00895282 0.
0.668108 0.00894602 0.
0.670143 0.00894042 0.
0.672179 0.00893483 0.
0.67431 0.00887422 0.
0.676443 0.00881181 0.
0.678617 0.00874326 0.
0.680907 0.00864732 0.
0.68319 0.00855335 0.
0.685773 0.00836424 0.
0.688421 0.00815639 0.
0.691332 0.00777308 0.
0.694459 0.00721715 0.
0.698002 0.00660314 0.
0.702011 0.00577834 0.
0.706403 0.00440354 0.
0.711141 0.00248168 0.
0.484021 0.00218415 0.
0.489129 0.00426565 0.
0.493757 0.00605114 0.
0.498001 0.0075582 0.
0.501989 0.00859931 0.
0.505549 0.00923356 0.
0.508636 0.00968488 0.
0.511488 0.01 0.
0.514142 0.0102377 0.
0.51673 0.0104676 0.
0.519036 0.0105786 0.
0.52135 0.0106934 0.
0.523533 0.0107744 0.
0.525664 0.0108459 0.
0.527794 0.0109166 0.
0.529834 0.0109245 0.
0.531875 0.0109324 0.
0.533909 0.0109414 0.
0.535931 0.0109532 0.
0.537952 0.010965 0.
0.539966 0.0109731 0.
0.541974 0.0109781 0.
0.543981 0.0109832 0.
0.545984 0.0109857 0.
0.547986 0.0109876 0.
0.549989 0.0109894 0.
0.551988 0.0109895 0.
0.553988 0.0109895 0.
0.555988 0.0109898 0.
0.557988 0.0109905 0.
0.559989 0.0109913 0.
0.561989 0.0109918 0.
0.563988 0.0109921 0.
0.565988 0.0109924 0.
0.567988 0.0109926 0.
0.569988 0.0109927 0.
0.571988 0.0109928 0.
0.573986 0.0109926 0.
0.575985 0.0109924 0.
0.577984 0.0109922 0.
0.579983 0.0109925 0.
0.581982 0.0109929 0.
0.583981 0.0109933 0.
0.58598 0.0109935 0.
0.587979 0.0109938 0.
0.589978 0.0109942 0.
0.591976 0.0109947 0.
0.593975 0.0109952 0.
0.595982 0.0109939 0.
0.597991 0.010992 0.
0.6 0.0109901 0.
0.60201 0.010992 0.
0.604019 0.0109938 0.
0.606026 0.0109951 0.
0.608025 0.0109946 0.
0.610023 0.0109941 0.
0.612022 0.0109938 0.
0.614021 0.0109936 0.
0.61602 0.0109934 0.
0.618019 0.010993 0.
0.620018 0.0109927 0.
0.622017 0.0109923 0.
0.624016 0.0109924 0.
0.626014 0.0109926 0.
0.628013 0.0109928 0.
0.630013 0.0109927 0.
0.632012 0.0109926 0.
0.634012 0.0109924 0.
0.636012 0.010992 0.
0.638012 0.0109917 0.
0.640012 0.010991 0.
0.642013 0.0109901 0.
0.644013 0.0109892 0.
0.646013 0.0109888 0.
0.648013 0.0109885 0.
0.650014 0.0109882 0.
0.652017 0.0109855 0.
0.65402 0.0109828 0.
0.656025 0.010979 0.
0.658037 0.0109718 0.
0.660049 0.0109646 0.
0.662068 0.0109544 0.
0.664097 0.0109405 0.
0.666125 0.0109267 0.
0.668175 0.0109109 0.
0.670235 0.0108947 0.
0.672296 0.0108783 0.
0.67449 0.0107785 0.
0.676684 0.0106793 0.
0.678948 0.0105695 0.
0.681341 0.0104314 0.
0.683741 0.0102935 0.
0.686572 0.00999965 0.
0.689485 0.00968759 0.
0.692803 0.00903831 0.
0.69626 0.00827697 0.
0.700153 0.00743658 0.
0.704737 0.00603746 0.
0.709374 0.00441343 0.
0.714468 0.00220149 0.
0.480594 0.0019911 0.
0.486292 0.00421533 0.
0.491193 0.00613101 0.
0.495797 0.0080045 0.
0.500548 0.00954572 0.
0.504334 0.0103344 0.
0.507605 0.0108989 0.
0.510712 0.0114001 0.
0.513485 0.0117791 0.
0.516222 0.0121614 0.
0.518637 0.0123337 0.
0.521044 0.0125015 0.
0.523312 0.012633 0.
0.525497 0.0127504 0.
0.527683 0.0128688 0.
0.529747 0.0128832 0.
0.531809 0.0128966 0.
0.533862 0.0129112 0.
0.535893 0.0129289 0.
0.537924 0.0129466 0.
0.539945 0.0129592 0.
0.541958 0.0129674 0.
0.543971 0.0129756 0.
0.545977 0.0129799 0.
0.54798 0.012983 0.
0.549984 0.0129862 0.
0.551985 0.0129867 0.
0.553985 0.0129872 0.
0.555986 0.0129879 0.
0.557986 0.0129888 0.
0.559987 0.0129898 0.
0.561987 0.0129905 0.
0.563987 0.0129908 0.
0.565987 0.0129912 0.
0.567987 0.0129914 0.
0.569986 0.0129916 0.
0.571986 0.0129918 0.
0.573985 0.0129916 0.
0.575984 0.0129915 0.
0.577982 0.0129914 0.
0.579982 0.0129917 0.
0.581981 0.0129921 0.
0.58398 0.0129924 0.
0.585979 0.0129926 0.
0.587978 0.0129929 0.
0.589977 0.0129931 0.
0.591976 0.0129933 0.
0.593975 0.0129935 0.
0.595982 0.0129935 0.
0.597991 0.0129933 0.
0.6 0.0129932 0.
0.60201 0.0129933 0.
0.604019 0.0129934 0.
0.606026 0.0129934 0.
0.608025 0.0129933 0.
0.610024 0.0129931 0.
0.612023 0.0129929 0.
0.614022 0.0129927 0.
0.616021 0.0129926 0.
0.61802 0.0129922 0.
0.620019 0.0129919 0.
0.622018 0.0129915 0.
0.624017 0.0129916 0.
0.626016 0.0129916 0.
0.628014 0.0129917 0.
0.630014 0.0129915 0.
0.632014 0.0129913 0.
0.634014 0.012991 0.
0.636014 0.0129906 0.
0.638014 0.0129902 0.
0.640014 0.0129893 0.
0.642015 0.0129881 0.
0.644016 0.0129868 0.
0.646017 0.0129859 0.
0.648018 0.012985 0.
0.65002 0.0129841 0.
0.652025 0.0129796 0.
0.654031 0.0129752 0.
0.65604 0.012969 0.
0.658059 0.012957 0.
0.660078 0.012945 0.
0.662107 0.01293 0.
0.664148 0.0129112 0.
0.666188 0.0128925 0.
0.66827 0.0128599 0.
0.670366 0.0128236 0.
0.672469 0.0127842 0.
0.674731 0.0126319 0.
0.676988 0.0124819 0.
0.679377 0.0123037 0.
0.681903 0.0120931 0.
0.684499 0.011833 0.
0.687439 0.0113341 0.
0.690544 0.0108175 0.
0.694008 0.0100847 0.
0.697824 0.00920235 0.
0.702329 0.00795823 0.
0.707162 0.00621398 0.
0.712129 0.00438649 0.
0.717884 0.00196656 0.
0.477301 0.00185542 0.
0.483377 0.00417644 0.
0.488735 0.00614335 0.
0.493635 0.0082532 0.
0.498814 0.010111 0.
0.50281 0.0111729 0.
0.506451 0.0120148 0.
0.50981 0.0127123 0.
0.51279 0.0132789 0.
0.51566 0.0138121 0.
0.518217 0.0140797 0.
0.520721 0.0143019 0.
0.523085 0.0144865 0.
0.525325 0.0146509 0.
0.527569 0.014818 0.
0.529658 0.0148418 0.
0.531742 0.0148606 0.
0.533814 0.0148809 0.
0.535855 0.0149045 0.
0.537895 0.0149282 0.
0.539924 0.0149453 0.
0.541942 0.0149566 0.
0.54396 0.014968 0.
0.545969 0.0149741 0.
0.547974 0.0149785 0.
0.549979 0.014983 0.
0.551981 0.014984 0.
0.553982 0.0149849 0.
0.555983 0.0149859 0.
0.557984 0.0149871 0.
0.559985 0.0149882 0.
0.561985 0.0149891 0.
0.563985 0.0149895 0.
0.565985 0.0149899 0.
0.567985 0.0149903 0.
0.569985 0.0149905 0.
0.571985 0.0149907 0.
0.573984 0.0149907 0.
0.575982 0.0149906 0.
0.577981 0.0149905 0.
0.57998 0.0149909 0.
0.58198 0.0149912 0.
0.583979 0.0149915 0.
0.585978 0.0149918 0.
0.587977 0.014992 0.
0.589976 0.0149921 0.
0.591976 0.014992 0.
0.593975 0.0149919 0.
0.595982 0.0149931 0.
0.597991 0.0149947 0.
0.6 0.0149963 0.
0.60201 0.0149946 0.
0.604019 0.014993 0.
0.606026 0.0149918 0.
0.608025 0.0149919 0.
0.610025 0.0149921 0.
0.612024 0.0149921 0.
0.614023 0.0149919 0.
0.616022 0.0149917 0.
0.618021 0.0149914 0.
0.62002 0.0149911 0.
0.622019 0.0149908 0.
0.624018 0.0149907 0.
0.626017 0.0149907 0.
0.628016 0.0149906 0.
0.630016 0.0149903 0.
0.632015 0.0149901 0.
0.634016 0.0149897 0.
0.636016 0.0149892 0.
0.638016 0.0149887 0.
0.640017 0.0149876 0.
0.642018 0.014986 0.
0.644019 0.0149845 0.
0.646021 0.014983 0.
0.648023 0.0149815 0.
0.650026 0.0149799 0.
0.652034 0.0149737 0.
0.654042 0.0149676 0.
0.656054 0.0149589 0.
0.658081 0.0149421 0.
0.660107 0.0149253 0.
0.662147 0.0149055 0.
0.6642 0.0148818 0.
0.666252 0.0148582 0.
0.668367 0.0148075 0.
0.6705 0.0147507 0.
0.672649 0.0146861 0.
0.674979 0.01448 0.
0.677302 0.0142781 0.
0.679841 0.0140219 0.
0.682506 0.013736 0.
0.685311 0.0132964 0.
0.688343 0.0125977 0.
0.691702 0.0118415 0.
0.695355 0.0109513 0.
0.699336 0.00997091 0.
0.704489 0.0082568 0.
0.709665 0.00625081 0.
0.715112 0.00411894 0.
0.721534 0.00186769 0.
0.473862 0.0017135 0.
0.480346 0.00404059 0.
0.48608 0.00608559 0.
0.491178 0.00829652 0.
0.496632 0.0103107 0.
0.50118 0.0118725 0.
0.505219 0.0130373 0.
0.508794 0.0139183 0.
0.512032 0.0146739 0.
0.514938 0.0152806 0.
0.517623 0.0156688 0.
0.520194 0.0159544 0.
0.522671 0.0162138 0.
0.524966 0.0164191 0.
0.527272 0.0166291 0.
0.529432 0.0167014 0.
0.531576 0.0167613 0.
0.533703 0.0168165 0.
0.535762 0.0168476 0.
0.537821 0.0168788 0.
0.539866 0.0169044 0.
0.541898 0.016925 0.
0.54393 0.0169457 0.
0.545946 0.0169571 0.
0.547957 0.0169656 0.
0.549968 0.0169741 0.
0.551971 0.0169765 0.
0.553974 0.0169789 0.
0.555977 0.0169812 0.
0.557979 0.0169831 0.
0.559981 0.016985 0.
0.561982 0.0169864 0.
0.563983 0.0169871 0.
0.565983 0.0169878 0.
0.567983 0.0169883 0.
0.569983 0.0169886 0.
0.571983 0.016989 0.
0.573982 0.016989 0.
0.575981 0.016989 0.
0.57798 0.0169891 0.
0.57998 0.0169894 0.
0.581979 0.0169898 0.
0.583979 0.01699 0.
0.585978 0.0169902 0.
0.587977 0.0169903 0.
0.589977 0.0169901 0.
0.591976 0.0169897 0.
0.593976 0.0169892 0.
0.595983 0.0169905 0.
0.597992 0.0169924 0.
0.6 0.0169942 0.
0.60201 0.0169923 0.
0.604019 0.0169904 0.
0.606025 0.0169891 0.
0.608025 0.0169896 0.
0.610024 0.0169902 0.
0.612024 0.0169904 0.
0.614023 0.0169903 0.
0.616022 0.0169903 0.
0.618022 0.01699 0.
0.620021 0.0169896 0.
0.622021 0.0169892 0.
0.624019 0.0169891 0.
0.626018 0.016989 0.
0.628017 0.0169888 0.
0.630017 0.0169883 0.
0.632018 0.0169879 0.
0.634018 0.0169873 0.
0.636019 0.0169864 0.
0.63802 0.0169854 0.
0.640022 0.0169836 0.
0.642024 0.0169811 0.
0.644027 0.0169786 0.
0.646031 0.0169752 0.
0.648037 0.0169716 0.
0.650042 0.0169678 0.
0.652057 0.0169561 0.
0.654073 0.0169445 0.
0.656096 0.0169288 0.
0.65814 0.0169011 0.
0.660183 0.0168736 0.
0.662245 0.0168433 0.
0.664325 0.0168094 0.
0.666404 0.0167758 0.
0.668591 0.0166717 0.
0.670798 0.0165581 0.
0.673032 0.0164341 0.
0.675414 0.0161882 0.
0.677783 0.0159491 0.
0.680465 0.0155954 0.
0.683213 0.0152417 0.
0.686183 0.0146053 0.
0.689299 0.0137627 0.
0.692927 0.0127971 0.
0.696956 0.0116504 0.
0.701254 0.0104018 0.
0.706625 0.00840739 0.
0.71215 0.0062186 0.
0.718025 0.00395296 0.
0.7251 0.00170951 0.
0.470243 0.00156878 0.
0.476981 0.00388819 0.
0.483391 0.00595729 0.
0.488754 0.00821536 0.
0.494445 0.0104211 0.
0.499423 0.0124095 0.
0.503746 0.0138541 0.
0.507585 0.0149273 0.
0.510984 0.0158195 0.
0.513974 0.0165402 0.
0.516886 0.0171454 0.
0.519558 0.0175324 0.
0.522195 0.0179082 0.
0.524566 0.0181625 0.
0.526949 0.0184231 0.
0.529189 0.018549 0.
0.531399 0.0186541 0.
0.533587 0.0187504 0.
0.535665 0.0187892 0.
0.537744 0.0188283 0.
0.539807 0.0188625 0.
0.541853 0.0188927 0.
0.5439 0.018923 0.
0.545924 0.01894 0.
0.54794 0.0189525 0.
0.549956 0.0189651 0.
0.551961 0.0189691 0.
0.553966 0.0189729 0.
0.555971 0.0189765 0.
0.557974 0.0189791 0.
0.559977 0.0189818 0.
0.561979 0.0189837 0.
0.56398 0.0189847 0.
0.565981 0.0189857 0.
0.567981 0.0189863 0.
0.569982 0.0189868 0.
0.571982 0.0189872 0.
0.573981 0.0189873 0.
0.57598 0.0189874 0.
0.577979 0.0189876 0.
0.579979 0.0189879 0.
0.581979 0.0189883 0.
0.583978 0.0189885 0.
0.585978 0.0189885 0.
0.587978 0.0189885 0.
0.589977 0.0189881 0.
0.591977 0.0189873 0.
0.593977 0.0189866 0.
0.595983 0.018988 0.
0.597992 0.01899 0.
0.6 0.0189921 0.
0.602009 0.0189899 0.
0.604018 0.0189878 0.
0.606024 0.0189864 0.
0.608024 0.0189873 0.
0.610024 0.0189882 0.
0.612023 0.0189888 0.
0.614023 0.0189888 0.
0.616022 0.0189888 0.
0.618022 0.0189885 0.
0.620022 0.0189881 0.
0.622022 0.0189877 0.
0.624021 0.0189875 0.
0.62602 0.0189873 0.
0.628019 0.018987 0.
0.630019 0.0189864 0.
0.63202 0.0189857 0.
0.634021 0.0189849 0.
0.636022 0.0189835 0.
0.638024 0.0189822 0.
0.640026 0.0189796 0.
0.642031 0.0189761 0.
0.644035 0.0189726 0.
0.646042 0.0189673 0.
0.64805 0.0189616 0.
0.650058 0.0189556 0.
0.652082 0.0189383 0.
0.654105 0.0189211 0.
0.656138 0.0188982 0.
0.6582 0.0188593 0.
0.660261 0.0188206 0.
0.662347 0.0187793 0.
0.664456 0.0187345 0.
0.666563 0.01869 0.
0.668836 0.0185215 0.
0.671125 0.0183445 0.
0.673457 0.0181561 0.
0.675909 0.0178584 0.
0.678384 0.0175488 0.
0.681212 0.0170572 0.
0.684101 0.0165437 0.
0.68723 0.0156744 0.
0.690433 0.014763 0.
0.694218 0.0136796 0.
0.69874 0.0121984 0.
0.703469 0.0105549 0.
0.709138 0.00841223 0.
0.71486 0.00594753 0.
0.721595 0.00392028 0.
0.728772 0.00149841 0.
0.466009 0.00133286 0.
0.473002 0.00371783 0.
0.480522 0.00574814 0.
0.486148 0.0081036 0.
0.492059 0.010396 0.
0.497267 0.0125935 0.
0.502093 0.0144444 0.
0.506166 0.0157313 0.
0.50973 0.0168276 0.
0.512949 0.0177347 0.
0.516096 0.0185594 0.
0.518904 0.0190753 0.
0.521686 0.0195748 0.
0.524166 0.0198801 0.
0.526616 0.0201776 0.
0.528933 0.0203611 0.
0.531201 0.0205185 0.
0.53345 0.0206684 0.
0.535551 0.020716 0.
0.537653 0.020764 0.
0.539736 0.0208084 0.
0.541797 0.0208499 0.
0.543858 0.0208918 0.
0.545891 0.0209161 0.
0.547915 0.0209341 0.
0.549939 0.0209522 0.
0.551947 0.0209585 0.
0.553956 0.0209646 0.
0.555963 0.0209702 0.
0.557967 0.0209739 0.
0.559972 0.0209776 0.
0.561975 0.0209803 0.
0.563977 0.0209817 0.
0.565978 0.0209832 0.
0.567979 0.0209841 0.
0.56998 0.0209848 0.
0.57198 0.0209855 0.
0.57398 0.0209857 0.
0.575979 0.0209859 0.
0.577978 0.0209861 0.
0.579978 0.0209865 0.
0.581978 0.0209868 0.
0.583978 0.020987 0.
0.585978 0.0209869 0.
0.587978 0.0209869 0.
0.589978 0.0209863 0.
0.591978 0.0209852 0.
0.593978 0.0209842 0.
0.595984 0.0209857 0.
0.597992 0.0209879 0.
0.6 0.02099 0.
0.602009 0.0209878 0.
0.604017 0.0209855 0.
0.606023 0.020984 0.
0.608023 0.0209852 0.
0.610023 0.0209864 0.
0.612023 0.0209871 0.
0.614023 0.0209872 0.
0.616023 0.0209873 0.
0.618022 0.0209871 0.
0.620022 0.0209867 0.
0.622022 0.0209863 0.
0.624022 0.0209859 0.
0.626021 0.0209856 0.
0.628021 0.0209852 0.
0.630021 0.0209842 0.
0.632022 0.0209832 0.
0.634024 0.0209819 0.
0.636026 0.0209799 0.
0.638028 0.0209778 0.
0.640033 0.0209742 0.
0.642039 0.0209694 0.
0.644046 0.0209646 0.
0.646056 0.0209566 0.
0.648068 0.0209476 0.
0.650081 0.0209384 0.
0.652115 0.0209134 0.
0.654149 0.0208886 0.
0.656195 0.0208565 0.
0.658274 0.0208051 0.
0.660353 0.020754 0.
0.662469 0.0206966 0.
0.66461 0.0206348 0.
0.66675 0.0205735 0.
0.6691 0.0203348 0.
0.671459 0.0200958 0.
0.673878 0.0198485 0.
0.676401 0.0195086 0.
0.679025 0.0191063 0.
0.681978 0.0184783 0.
0.685087 0.017724 0.
0.688364 0.0166567 0.
0.691839 0.0155578 0.
0.695771 0.0143526 0.
0.700625 0.012616 0.
0.705672 0.0105988 0.
0.711655 0.0083165 0.
0.717511 0.00567225 0.
0.7256 0.0036814 0.
0.73361 0.00124536 0.
0.460542 0.00105898 0.
0.468777 0.00346611 0.
0.477611 0.00553786 0.
0.48353 0.00794867 0.
0.489724 0.0103191 0.
0.495171 0.0126922 0.
0.500489 0.0149187 0.
0.504727 0.0164314 0.
0.508492 0.0177348 0.
0.511983 0.0188644 0.
0.5153 0.0198392 0.
0.518254 0.0204703 0.
0.521112 0.0210356 0.
0.523709 0.0214356 0.
0.526238 0.0218192 0.
0.528647 0.022099 0.
0.530966 0.022332 0.
0.533277 0.0225617 0.
0.535409 0.0226214 0.
0.537542 0.0226814 0.
0.539651 0.0227389 0.
0.541727 0.0227945 0.
0.543803 0.0228506 0.
0.545848 0.0228844 0.
0.547883 0.0229097 0.
0.549917 0.022935 0.
0.55193 0.0229447 0.
0.553942 0.022954 0.
0.555953 0.0229624 0.
0.557959 0.0229673 0.
0.559965 0.0229722 0.
0.56197 0.022976 0.
0.563973 0.0229781 0.
0.565975 0.0229803 0.
0.567977 0.0229817 0.
0.569978 0.0229828 0.
0.571979 0.0229838 0.
0.573979 0.0229842 0.
0.575978 0.0229845 0.
0.577978 0.0229847 0.
0.579978 0.022985 0.
0.581978 0.0229853 0.
0.583979 0.0229854 0.
0.585979 0.0229853 0.
0.587979 0.0229852 0.
0.589979 0.0229845 0.
0.59198 0.0229834 0.
0.59398 0.0229822 0.
0.595986 0.0229836 0.
0.597993 0.0229859 0.
0.6 0.0229881 0.
0.602008 0.0229858 0.
0.604015 0.0229835 0.
0.606021 0.022982 0.
0.608021 0.0229834 0.
0.610022 0.0229847 0.
0.612022 0.0229855 0.
0.614022 0.0229857 0.
0.616022 0.0229858 0.
0.618023 0.0229856 0.
0.620023 0.0229852 0.
0.622023 0.0229848 0.
0.624023 0.0229844 0.
0.626023 0.0229839 0.
0.628022 0.0229833 0.
0.630024 0.0229818 0.
0.632025 0.0229804 0.
0.634027 0.0229784 0.
0.636031 0.0229753 0.
0.638035 0.0229723 0.
0.640041 0.0229673 0.
0.64205 0.0229609 0.
0.64406 0.0229544 0.
0.646075 0.0229426 0.
0.648092 0.0229294 0.
0.65011 0.0229156 0.
0.652158 0.0228804 0.
0.654205 0.0228455 0.
0.656268 0.0228016 0.
0.658367 0.0227353 0.
0.660465 0.0226694 0.
0.66262 0.0225849 0.
0.664806 0.0224917 0.
0.667001 0.0223902 0.
0.669403 0.0220665 0.
0.671805 0.0217477 0.
0.674331 0.0214145 0.
0.676934 0.0210142 0.
0.679697 0.0204874 0.
0.682676 0.0198153 0.
0.686021 0.0188209 0.
0.689447 0.0175881 0.
0.693216 0.0162836 0.
0.697575 0.0147444 0.
0.702686 0.0128624 0.
0.707991 0.0105473 0.
0.71428 0.00807585 0.
0.720465 0.00552527 0.
0.729812 0.00340817 0.
0.739643 0.000893796 0.
0.453101 0.000705639 0.
0.464343 0.00325348 0.
0.47438 0.00534684 0.
0.481019 0.00774536 0.
0.487514 0.0102668 0.
0.493093 0.0127135 0.
0.49856 0.0151203 0.
0.503068 0.0168707 0.
0.50725 0.018555 0.
0.510978 0.0198581 0.
0.514302 0.0208832 0.
0.517479 0.021745 0.
0.520462 0.0224335 0.
0.523224 0.0229695 0.
0.525839 0.0234428 0.
0.528352 0.0238264 0.
0.530724 0.0241362 0.
0.533095 0.0244489 0.
0.535265 0.024526 0.
0.53743 0.0245982 0.
0.539566 0.0246688 0.
0.541656 0.0247387 0.
0.543747 0.0248091 0.
0.545805 0.0248526 0.
0.54785 0.0248852 0.
0.549895 0.0249178 0.
0.551912 0.0249308 0.
0.553928 0.0249433 0.
0.555942 0.0249545 0.
0.557951 0.0249607 0.
0.559959 0.0249669 0.
0.561965 0.0249717 0.
0.563969 0.0249745 0.
0.565973 0.0249773 0.
0.567975 0.0249793 0.
0.569976 0.0249807 0.
0.571978 0.0249822 0.
0.573978 0.0249826 0.
0.575977 0.024983 0.
0.577977 0.0249833 0.
0.579978 0.0249835 0.
0.581978 0.0249838 0.
0.583979 0.0249839 0.
0.585979 0.0249837 0.
0.58798 0.0249836 0.
0.589981 0.0249828 0.
0.591981 0.0249815 0.
0.593982 0.0249802 0.
0.595987 0.0249816 0.
0.597994 0.0249839 0.
0.6 0.0249862 0.
0.602007 0.0249838 0.
0.604013 0.0249814 0.
0.606019 0.0249799 0.
0.608019 0.0249815 0.
0.61002 0.024983 0.
0.612021 0.024984 0.
0.614022 0.0249841 0.
0.616022 0.0249843 0.
0.618023 0.0249841 0.
0.620023 0.0249837 0.
0.622024 0.0249834 0.
0.624024 0.0249828 0.
0.626024 0.0249822 0.
0.628024 0.0249814 0.
0.630026 0.0249795 0.
0.632028 0.0249775 0.
0.634031 0.0249748 0.
0.636036 0.0249708 0.
0.638041 0.0249668 0.
0.64005 0.0249604 0.
0.642062 0.0249523 0.
0.644073 0.0249441 0.
0.646094 0.0249285 0.
0.648116 0.0249111 0.
0.65014 0.0248925 0.
0.652201 0.0248472 0.
0.654262 0.0248021 0.
0.656342 0.0247462 0.
0.658461 0.0246649 0.
0.660579 0.0245842 0.
0.662775 0.02447 0.
0.665007 0.0243446 0.
0.667261 0.0241965 0.
0.669712 0.0237869 0.
0.672159 0.0233877 0.
0.674818 0.0229616 0.
0.677528 0.022484 0.
0.680512 0.0217262 0.
0.683587 0.0209004 0.
0.687017 0.0197686 0.
0.690641 0.0184134 0.
0.694581 0.0169445 0.
0.699443 0.015 0.
0.704771 0.0129486 0.
0.710396 0.0104335 0.
0.71684 0.00775577 0.
0.723649 0.00540407 0.
0.734347 0.00325587 0.
0.750182 0.000606042 0.
0.440212 0.000525585 0.
0.459987 0.00299349 0.
0.471136 0.00519752 0.
0.478544 0.007557 0.
0.48516 0.0101857 0.
0.490894 0.0126449 0.
0.496505 0.0151644 0.
0.501341 0.0171735 0.
0.506006 0.0192779 0.
0.509723 0.0206537 0.
0.513239 0.0218464 0.
0.516659 0.0229805 0.
0.519756 0.023781 0.
0.522698 0.0244607 0.
0.525375 0.025005 0.
0.527967 0.0254821 0.
0.530368 0.0258428 0.
0.532787 0.0262104 0.
0.535021 0.0263392 0.
0.537233 0.0264508 0.
0.539414 0.0265557 0.
0.541528 0.0266401 0.
0.543643 0.0267252 0.
0.545722 0.0267842 0.
0.547786 0.0268316 0.
0.54985 0.0268795 0.
0.551875 0.0269002 0.
0.553899 0.0269196 0.
0.55592 0.026937 0.
0.557933 0.026946 0.
0.559946 0.0269551 0.
0.561955 0.0269622 0.
0.563961 0.0269667 0.
0.565967 0.0269712 0.
0.56797 0.0269743 0.
0.569973 0.0269766 0.
0.571975 0.0269789 0.
0.573976 0.0269797 0.
0.575976 0.0269802 0.
0.577976 0.0269808 0.
0.579977 0.0269811 0.
0.581978 0.0269813 0.
0.583979 0.0269814 0.
0.58598 0.0269811 0.
0.587981 0.0269807 0.
0.589982 0.0269797 0.
0.591984 0.0269781 0.
0.593985 0.0269765 0.
0.59599 0.0269775 0.
0.597995 0.0269792 0.
0.6 0.026981 0.
0.602006 0.0269792 0.
0.604011 0.0269774 0.
0.606015 0.0269764 0.
0.608017 0.0269781 0.
0.610019 0.0269799 0.
0.61202 0.026981 0.
0.614021 0.0269814 0.
0.616022 0.0269817 0.
0.618023 0.0269815 0.
0.620024 0.0269811 0.
0.622025 0.0269806 0.
0.624026 0.0269797 0.
0.626027 0.0269788 0.
0.628028 0.0269776 0.
0.630031 0.0269745 0.
0.632034 0.0269714 0.
0.634038 0.0269671 0.
0.636046 0.0269608 0.
0.638054 0.0269545 0.
0.640068 0.0269451 0.
0.642085 0.0269333 0.
0.644102 0.0269215 0.
0.646132 0.0268978 0.
0.648165 0.0268715 0.
0.650201 0.026843 0.
0.652285 0.026779 0.
0.654367 0.0267157 0.
0.656475 0.0266406 0.
0.658628 0.0265407 0.
0.660777 0.0264422 0.
0.663026 0.0262804 0.
0.665305 0.0261066 0.
0.667627 0.0258875 0.
0.670108 0.0254217 0.
0.672577 0.0249765 0.
0.67536 0.02447 0.
0.678188 0.0238994 0.
0.681386 0.022888 0.
0.684666 0.0218562 0.
0.688184 0.0205451 0.
0.691909 0.0191133 0.
0.696329 0.0172728 0.
0.701404 0.0151618 0.
0.706817 0.0129628 0.
0.712744 0.0102921 0.
0.71939 0.00753545 0.
0.726963 0.00512739 0.
0.738367 0.00297633 0.
0.770613 0.000493985 0.
0.412137 0.000843847 0.
0.456159 0.00253479 0.
0.467654 0.00498943 0.
0.475978 0.0073488 0.
0.482835 0.0100756 0.
0.488729 0.0125392 0.
0.494479 0.0151776 0.
0.499609 0.017399 0.
0.504562 0.0197937 0.
0.508319 0.0212986 0.
0.51214 0.0227264 0.
0.515748 0.0240802 0.
0.51895 0.0250097 0.
0.522002 0.0257997 0.
0.524725 0.0264268 0.
0.52745 0.0270642 0.
0.52993 0.0274944 0.
0.532424 0.0279251 0.
0.534744 0.0281238 0.
0.537013 0.028286 0.
0.539249 0.0284363 0.
0.54139 0.0285364 0.
0.543533 0.0286374 0.
0.545636 0.0287129 0.
0.547719 0.0287762 0.
0.549802 0.0288402 0.
0.551837 0.0288689 0.
0.553869 0.0288954 0.
0.555898 0.0289193 0.
0.557915 0.0289312 0.
0.559932 0.0289431 0.
0.561945 0.0289526 0.
0.563953 0.0289588 0.
0.565961 0.0289651 0.
0.567966 0.0289693 0.
0.569969 0.0289724 0.
0.571972 0.0289756 0.
0.573974 0.0289767 0.
0.575975 0.0289775 0.
0.577976 0.0289782 0.
0.579977 0.0289786 0.
0.581978 0.0289789 0.
0.583979 0.028979 0.
0.585981 0.0289784 0.
0.587982 0.0289779 0.
0.589984 0.0289766 0.
0.591986 0.0289747 0.
0.593988 0.0289728 0.
0.595992 0.0289734 0.
0.597996 0.0289746 0.
0.6 0.0289758 0.
0.602005 0.0289745 0.
0.604009 0.0289733 0.
0.606012 0.0289728 0.
0.608015 0.0289748 0.
0.610017 0.0289768 0.
0.612019 0.0289781 0.
0.61402 0.0289786 0.
0.616022 0.0289792 0.
0.618023 0.028979 0.
0.620025 0.0289784 0.
0.622026 0.0289779 0.
0.624028 0.0289767 0.
0.626029 0.0289754 0.
0.628031 0.0289738 0.
0.630035 0.0289695 0.
0.632039 0.0289652 0.
0.634046 0.0289594 0.
0.636057 0.0289508 0.
0.638068 0.0289421 0.
0.640086 0.0289295 0.
0.642109 0.028914 0.
0.644132 0.0288984 0.
0.646172 0.0288664 0.
0.648216 0.0288309 0.
0.650265 0.0287917 0.
0.652371 0.0287078 0.
0.654477 0.028625 0.
0.656619 0.0285284 0.
0.658811 0.0284068 0.
0.661 0.0282869 0.
0.663312 0.028064 0.
0.665647 0.0278308 0.
0.668061 0.0275173 0.
0.670615 0.0269731 0.
0.67321 0.026436 0.
0.676072 0.0258201 0.
0.679009 0.0251065 0.
0.682314 0.0239496 0.
0.685826 0.0227063 0.
0.68944 0.0212389 0.
0.693258 0.0196997 0.
0.698179 0.01744 0.
0.703527 0.0152371 0.
0.709038 0.0128161 0.
0.715158 0.0100544 0.
0.721981 0.00737179 0.
0.730319 0.00492538 0.
0.742108 0.00251575 0.
0.793201 0.00136809 0.
0.404028 0.00181731 0.
0.452306 0.00218271 0.
0.464023 0.00484135 0.
0.473289 0.00711191 0.
0.480429 0.00990129 0.
0.486556 0.0124488 0.
0.492389 0.0151079 0.
0.497677 0.0174939 0.
0.502675 0.0199129 0.
0.506844 0.0218248 0.
0.511025 0.023525 0.
0.514688 0.0249639 0.
0.517978 0.0260671 0.
0.521165 0.0270321 0.
0.52405 0.0278066 0.
0.526893 0.0285997 0.
0.529484 0.029133 0.
0.532054 0.0296228 0.
0.534469 0.0298919 0.
0.536788 0.0301029 0.
0.539081 0.0303043 0.
0.541247 0.0304189 0.
0.543415 0.0305349 0.
0.545542 0.0306278 0.
0.547643 0.0307089 0.
0.549745 0.0307911 0.
0.551791 0.03083 0.
0.553832 0.0308652 0.
0.55587 0.0308971 0.
0.557892 0.0309124 0.
0.559915 0.0309278 0.
0.561932 0.0309402 0.
0.563943 0.0309488 0.
0.565954 0.0309573 0.
0.56796 0.030963 0.
0.569965 0.0309673 0.
0.571969 0.0309715 0.
0.573971 0.0309731 0.
0.575973 0.0309742 0.
0.577974 0.0309753 0.
0.579976 0.0309758 0.
0.581978 0.0309762 0.
0.58398 0.0309762 0.
0.585981 0.0309755 0.
0.587983 0.0309747 0.
0.589986 0.0309733 0.
0.591988 0.0309714 0.
0.593991 0.0309694 0.
0.595994 0.0309696 0.
0.597997 0.0309706 0.
0.6 0.0309715 0.
0.602004 0.0309705 0.
0.604007 0.0309696 0.
0.60601 0.0309694 0.
0.608013 0.0309714 0.
0.610015 0.0309734 0.
0.612018 0.0309749 0.
0.61402 0.0309755 0.
0.616022 0.0309762 0.
0.618024 0.030976 0.
0.620026 0.0309753 0.
0.622028 0.0309746 0.
0.62403 0.0309729 0.
0.626033 0.0309711 0.
0.628035 0.0309689 0.
0.630041 0.0309631 0.
0.632047 0.0309574 0.
0.634056 0.0309496 0.
0.636071 0.0309378 0.
0.638085 0.030926 0.
0.640109 0.0309096 0.
0.642138 0.0308898 0.
0.644168 0.03087 0.
0.64622 0.0308273 0.
0.648276 0.0307804 0.
0.650339 0.0307278 0.
0.652468 0.0306233 0.
0.654595 0.0305202 0.
0.65677 0.0303993 0.
0.659 0.0302556 0.
0.661226 0.030117 0.
0.6636 0.0298325 0.
0.66599 0.0295399 0.
0.668503 0.0291271 0.
0.671131 0.028506 0.
0.673887 0.027852 0.
0.67686 0.0270912 0.
0.68002 0.0260844 0.
0.683297 0.0248666 0.
0.687005 0.0234829 0.
0.690918 0.0217473 0.
0.69477 0.0201209 0.
0.700069 0.0175022 0.
0.705629 0.0152427 0.
0.71134 0.0125971 0.
0.717533 0.00977085 0.
0.724709 0.00714677 0.
0.73403 0.00487293 0.
0.745672 0.00208091 0.
0.801406 0.00168662 0.
0.391201 0.00157172 0.
0.447991 0.00188885 0.
0.460078 0.00477233 0.
0.470531 0.00689692 0.
0.477971 0.00968296 0.
0.484373 0.0123376 0.
0.49028 0.0149777 0.
0.4957 0.0175243 0.
0.500842 0.0199761 0.
0.505355 0.0222763 0.
0.509708 0.0241751 0.
0.513477 0.0256723 0.
0.51702 0.027085 0.
0.520323 0.0282016 0.
0.52341 0.0291407 0.
0.526335 0.0300375 0.
0.529014 0.0306519 0.
0.531642 0.0311851 0.
0.534151 0.0315524 0.
0.536529 0.0318464 0.
0.538895 0.0321364 0.
0.541087 0.03227 0.
0.543282 0.0324054 0.
0.545435 0.0325203 0.
0.547554 0.0326241 0.
0.549674 0.0327293 0.
0.551734 0.0327813 0.
0.553787 0.0328276 0.
0.555837 0.0328696 0.
0.557865 0.0328891 0.
0.559893 0.0329086 0.
0.561915 0.0329247 0.
0.56393 0.0329362 0.
0.565944 0.0329477 0.
0.567953 0.0329553 0.
0.569959 0.032961 0.
0.571965 0.0329666 0.
0.573968 0.0329688 0.
0.57597 0.0329705 0.
0.577973 0.0329721 0.
0.579975 0.0329726 0.
0.581978 0.0329731 0.
0.58398 0.0329732 0.
0.585982 0.0329723 0.
0.587984 0.0329714 0.
0.589987 0.0329699 0.
0.591989 0.032968 0.
0.593992 0.0329661 0.
0.595995 0.0329664 0.
0.597998 0.0329672 0.
0.6 0.0329681 0.
0.602003 0.0329672 0.
0.604006 0.0329664 0.
0.606009 0.0329662 0.
0.608011 0.032968 0.
0.610014 0.0329699 0.
0.612017 0.0329713 0.
0.614019 0.0329721 0.
0.616022 0.0329729 0.
0.618025 0.0329725 0.
0.620027 0.0329717 0.
0.62203 0.0329708 0.
0.624034 0.0329684 0.
0.626037 0.0329659 0.
0.628041 0.0329628 0.
0.630049 0.0329553 0.
0.632057 0.0329479 0.
0.634069 0.0329374 0.
0.636089 0.0329215 0.
0.638108 0.0329056 0.
0.640138 0.0328846 0.
0.642174 0.0328598 0.
0.644211 0.0328352 0.
0.646278 0.0327783 0.
0.648349 0.032716 0.
0.650431 0.0326459 0.
0.652582 0.0325172 0.
0.654732 0.0323902 0.
0.656942 0.0322298 0.
0.659206 0.0320412 0.
0.661475 0.031855 0.
0.66392 0.031501 0.
0.666362 0.0311486 0.
0.668968 0.0306314 0.
0.671617 0.0299723 0.
0.67454 0.0292083 0.
0.677616 0.0283261 0.
0.68102 0.027002 0.
0.684485 0.0256409 0.
0.688173 0.0241984 0.
0.692485 0.0221371 0.
0.696722 0.0201269 0.
0.702058 0.0175448 0.
0.707774 0.0151834 0.
0.713588 0.0123499 0.
0.719896 0.00958298 0.
0.727521 0.00676283 0.
0.738031 0.00477162 0.
0.749798 0.0019355 0.
0.805161 0.00199743 0.
0.390317 0.00177153 0.
0.443807 0.00175548 0.
0.456175 0.00444744 0.
0.467703 0.00665544 0.
0.47558 0.00944538 0.
0.48222 0.0121882 0.
0.488223 0.0148412 0.
0.493764 0.0175248 0.
0.499003 0.0200126 0.
0.503622 0.0224866 0.
0.508176 0.0246296 0.
0.512242 0.0263171 0.
0.516038 0.0280318 0.
0.519452 0.0292805 0.
0.522666 0.0303257 0.
0.525611 0.031301 0.
0.52846 0.0320825 0.
0.531186 0.03271 0.
0.533818 0.0331981 0.
0.536259 0.0335783 0.
0.538701 0.0339636 0.
0.540925 0.0341197 0.
0.543147 0.0342745 0.
0.545326 0.0344115 0.
0.547464 0.0345381 0.
0.549603 0.0346665 0.
0.551677 0.0347324 0.
0.553742 0.0347898 0.
0.555803 0.034842 0.
0.557837 0.0348657 0.
0.559871 0.0348894 0.
0.561898 0.0349092 0.
0.563916 0.0349236 0.
0.565934 0.034938 0.
0.567945 0.0349476 0.
0.569953 0.0349547 0.
0.57196 0.0349618 0.
0.573964 0.0349646 0.
0.575968 0.0349668 0.
0.577972 0.0349688 0.
0.579974 0.0349694 0.
0.581977 0.03497 0.
0.58398 0.0349701 0.
0.585983 0.0349691 0.
0.587986 0.034968 0.
0.589988 0.0349665 0.
0.591991 0.0349647 0.
0.593993 0.0349629 0.
0.595996 0.0349631 0.
0.597998 0.0349639 0.
0.6 0.0349647 0.
0.602003 0.0349639 0.
0.604005 0.0349631 0.
0.606007 0.0349629 0.
0.60801 0.0349646 0.
0.610013 0.0349664 0.
0.612016 0.0349677 0.
0.614019 0.0349686 0.
0.616022 0.0349695 0.
0.618025 0.0349691 0.
0.620029 0.0349681 0.
0.622032 0.034967 0.
0.624037 0.034964 0.
0.626042 0.0349607 0.
0.628047 0.0349567 0.
0.630057 0.0349475 0.
0.632067 0.0349383 0.
0.634082 0.0349252 0.
0.636106 0.0349052 0.
0.638131 0.0348851 0.
0.640167 0.0348595 0.
0.642211 0.0348298 0.
0.644255 0.0348002 0.
0.646336 0.0347287 0.
0.648423 0.0346511 0.
0.650523 0.0345629 0.
0.652698 0.0344098 0.
0.654871 0.0342587 0.
0.657118 0.0340551 0.
0.659417 0.033821 0.
0.661737 0.0335856 0.
0.664256 0.0331559 0.
0.666764 0.0327319 0.
0.669519 0.0320708 0.
0.672269 0.0313156 0.
0.67532 0.0304014 0.
0.678421 0.0294429 0.
0.682034 0.0278522 0.
0.685813 0.0262982 0.
0.689381 0.024826 0.
0.694081 0.0224478 0.
0.698658 0.020063 0.
0.704134 0.0175831 0.
0.709927 0.0149949 0.
0.715831 0.0120776 0.
0.722307 0.00944254 0.
0.73036 0.00648904 0.
0.741949 0.00443441 0.
0.754222 0.00182272 0.
0.806343 0.00236169 0.
0.391261 0.00240462 0.
0.439461 0.00172378 0.
0.452642 0.0041468 0.
0.464926 0.00647634 0.
0.473228 0.00921559 0.
0.480092 0.0120048 0.
0.486248 0.0147771 0.
0.491863 0.0174585 0.
0.497111 0.0200353 0.
0.501868 0.0225527 0.
0.506604 0.024971 0.
0.510978 0.0269034 0.
0.514921 0.028783 0.
0.518457 0.0302086 0.
0.521789 0.0314422 0.
0.524839 0.0325283 0.
0.527875 0.0334842 0.
0.53069 0.0341986 0.
0.533454 0.0348127 0.
0.535932 0.0352537 0.
0.538416 0.0357139 0.
0.540686 0.0359089 0.
0.542944 0.036092 0.
0.545162 0.0362594 0.
0.547322 0.0364077 0.
0.549486 0.0365581 0.
0.551583 0.0366461 0.
0.553668 0.0367241 0.
0.555748 0.0367962 0.
0.55779 0.0368248 0.
0.559832 0.0368536 0.
0.561867 0.0368788 0.
0.563892 0.0368991 0.
0.565916 0.0369195 0.
0.567932 0.036933 0.
0.569942 0.0369427 0.
0.571953 0.0369523 0.
0.573958 0.0369565 0.
0.575964 0.0369598 0.
0.577969 0.0369629 0.
0.579972 0.0369639 0.
0.581976 0.0369649 0.
0.58398 0.0369653 0.
0.585983 0.0369645 0.
0.587986 0.0369636 0.
0.589989 0.0369625 0.
0.591992 0.0369612 0.
0.593994 0.0369598 0.
0.595996 0.03696 0.
0.597998 0.0369607 0.
0.6 0.0369614 0.
0.602003 0.0369607 0.
0.604005 0.0369601 0.
0.606007 0.0369599 0.
0.608009 0.036961 0.
0.610012 0.0369621 0.
0.612015 0.036963 0.
0.614019 0.0369635 0.
0.616023 0.0369641 0.
0.618027 0.0369632 0.
0.620032 0.0369616 0.
0.622036 0.0369601 0.
0.624043 0.0369556 0.
0.626049 0.0369507 0.
0.628057 0.0369449 0.
0.630071 0.0369321 0.
0.632085 0.0369194 0.
0.634106 0.0369014 0.
0.636139 0.0368739 0.
0.638171 0.0368465 0.
0.640216 0.0368147 0.
0.642268 0.0367797 0.
0.64432 0.0367448 0.
0.64643 0.0366449 0.
0.648544 0.0365392 0.
0.650674 0.0364243 0.
0.652871 0.0362524 0.
0.655064 0.0360827 0.
0.657358 0.0358275 0.
0.659694 0.035545 0.
0.662067 0.0352559 0.
0.664622 0.034778 0.
0.667214 0.0342757 0.
0.67011 0.0334766 0.
0.673029 0.0325974 0.
0.676256 0.0314597 0.
0.679477 0.0302515 0.
0.683063 0.0286344 0.
0.687235 0.0268468 0.
0.691149 0.0250191 0.
0.695719 0.0226527 0.
0.70053 0.019995 0.
0.7062 0.0175824 0.
0.711973 0.0147941 0.
0.717994 0.0118538 0.
0.724686 0.00927033 0.
0.733263 0.00638525 0.
0.745345 0.00400287 0.
0.758573 0.00175446 0.
0.806283 0.0028523 0.
0.39228 0.00317327 0.
0.435289 0.00175092 0.
0.449415 0.0039243 0.
0.462106 0.00637296 0.
0.470992 0.00902279 0.
0.478063 0.0118389 0.
0.484279 0.0147023 0.
0.489981 0.0173602 0.
0.495249 0.0200449 0.
0.500134 0.0225352 0.
0.504929 0.0251687 0.
0.509488 0.0273121 0.
0.513689 0.029381 0.
0.517349 0.0310254 0.
0.520787 0.0324785 0.
0.524029 0.0336963 0.
0.527237 0.0348074 0.
0.530077 0.0355572 0.
0.532933 0.0362767 0.
0.53548 0.0368164 0.
0.538032 0.0373824 0.
0.540385 0.0376551 0.
0.5427 0.0378835 0.
0.544974 0.0380938 0.
0.547165 0.0382663 0.
0.549361 0.0384413 0.
0.551484 0.0385541 0.
0.55359 0.0386549 0.
0.555691 0.0387491 0.
0.557742 0.0387829 0.
0.559792 0.0388168 0.
0.561835 0.0388476 0.
0.563866 0.0388741 0.
0.565898 0.0389007 0.
0.567918 0.0389182 0.
0.569932 0.0389305 0.
0.571945 0.0389428 0.
0.573953 0.0389483 0.
0.575959 0.0389528 0.
0.577965 0.038957 0.
0.57997 0.0389583 0.
0.581975 0.0389597 0.
0.58398 0.0389604 0.
0.585983 0.0389599 0.
0.587987 0.0389593 0.
0.58999 0.0389585 0.
0.591993 0.0389576 0.
0.593995 0.0389567 0.
0.595997 0.038957 0.
0.597999 0.0389575 0.
0.6 0.0389581 0.
0.602002 0.0389576 0.
0.604004 0.0389571 0.
0.606006 0.0389568 0.
0.608009 0.0389573 0.
0.610011 0.0389578 0.
0.612015 0.0389582 0.
0.614019 0.0389584 0.
0.616023 0.0389586 0.
0.618029 0.0389572 0.
0.620035 0.0389552 0.
0.622041 0.0389531 0.
0.624049 0.0389471 0.
0.626057 0.0389406 0.
0.628067 0.0389329 0.
0.630086 0.0389166 0.
0.632104 0.0389003 0.
0.634131 0.038877 0.
0.636172 0.0388419 0.
0.638213 0.0388069 0.
0.640266 0.0387688 0.
0.642327 0.0387281 0.
0.644387 0.0386875 0.
0.64653 0.0385552 0.
0.648677 0.0384174 0.
0.65084 0.0382723 0.
0.653067 0.0380781 0.
0.655289 0.0378863 0.
0.657657 0.0375601 0.
0.66006 0.0372112 0.
0.662545 0.0368229 0.
0.665174 0.0362407 0.
0.667854 0.0356353 0.
0.670747 0.0348103 0.
0.673876 0.0337724 0.
0.677233 0.0324454 0.
0.680727 0.0308902 0.
0.684261 0.0292726 0.
0.688693 0.0273119 0.
0.692975 0.0251123 0.
0.69746 0.0227146 0.
0.702447 0.0199774 0.
0.708197 0.0175582 0.
0.713952 0.0145921 0.
0.720108 0.0116816 0.
0.726977 0.00898448 0.
0.736179 0.00633332 0.
0.748523 0.00388183 0.
0.762619 0.00170788 0.
0.806086 0.00341158 0.
0.392574 0.00384882 0.
0.430837 0.00174448 0.
0.446355 0.00369797 0.
0.459253 0.00629544 0.
0.468694 0.00889901 0.
0.476017 0.0116657 0.
0.482334 0.0146137 0.
0.488133 0.0172553 0.
0.493374 0.0200246 0.
0.49836 0.0225275 0.
0.503105 0.0251622 0.
0.507861 0.0275645 0.
0.51234 0.0298358 0.
0.516174 0.0317448 0.
0.519738 0.0333917 0.
0.52319 0.0347815 0.
0.526374 0.0359114 0.
0.529379 0.036818 0.
0.53235 0.0376829 0.
0.535019 0.0383586 0.
0.537638 0.03903 0.
0.540079 0.0393933 0.
0.542452 0.0396663 0.
0.544789 0.0399227 0.
0.547005 0.0401146 0.
0.549229 0.0403114 0.
0.551379 0.0404501 0.
0.553506 0.0405757 0.
0.555629 0.0406956 0.
0.557688 0.0407347 0.
0.559747 0.0407739 0.
0.561798 0.0408105 0.
0.563837 0.040844 0.
0.565875 0.0408776 0.
0.567901 0.0408998 0.
0.569918 0.0409154 0.
0.571935 0.040931 0.
0.573945 0.0409383 0.
0.575953 0.0409443 0.
0.577961 0.0409499 0.
0.579967 0.0409519 0.
0.581973 0.0409538 0.
0.583979 0.0409551 0.
0.585983 0.0409549 0.
0.587987 0.0409548 0.
0.58999 0.0409545 0.
0.591993 0.0409542 0.
0.593995 0.0409538 0.
0.595997 0.0409541 0.
0.597999 0.0409547 0.
0.6 0.0409552 0.
0.602002 0.0409547 0.
0.604004 0.0409542 0.
0.606006 0.0409538 0.
0.608009 0.0409537 0.
0.610011 0.0409535 0.
0.612015 0.0409532 0.
0.61402 0.0409528 0.
0.616025 0.0409524 0.
0.618032 0.0409504 0.
0.620039 0.0409476 0.
0.622046 0.0409448 0.
0.624057 0.0409368 0.
0.626067 0.0409283 0.
0.62808 0.0409181 0.
0.630104 0.0408973 0.
0.632127 0.0408765 0.
0.63416 0.0408473 0.
0.63621 0.0408042 0.
0.638259 0.0407613 0.
0.640322 0.0407156 0.
0.642394 0.0406677 0.
0.644464 0.0406203 0.
0.646636 0.0404525 0.
0.648811 0.0402821 0.
0.651008 0.0401086 0.
0.653262 0.0398977 0.
0.655511 0.0396862 0.
0.657962 0.0392809 0.
0.660434 0.0388653 0.
0.663046 0.038363 0.
0.665763 0.0376682 0.
0.668651 0.0368807 0.
0.671656 0.0359317 0.
0.674798 0.0347937 0.
0.678239 0.0333519 0.
0.682036 0.0314545 0.
0.685878 0.0296696 0.
0.690279 0.027623 0.
0.694802 0.0251481 0.
0.699327 0.022613 0.
0.704503 0.0199546 0.
0.710154 0.0174408 0.
0.715929 0.0143796 0.
0.722192 0.0115658 0.
0.729271 0.00867868 0.
0.73911 0.00626166 0.
0.751585 0.00380931 0.
0.766706 0.00169447 0.
0.806149 0.00398511 0.
0.392289 0.00450549 0.
0.426148 0.00172486 0.
0.443245 0.0035931 0.
0.456345 0.00610601 0.
0.46643 0.00873894 0.
0.47394 0.0114472 0.
0.48033 0.0144539 0.
0.486237 0.0171664 0.
0.491487 0.0199204 0.
0.496553 0.0225562 0.
0.501307 0.025099 0.
0.506176 0.0276866 0.
0.510903 0.0301758 0.
0.514837 0.0322571 0.
0.518686 0.0341857 0.
0.522185 0.0356908 0.
0.525461 0.0369554 0.
0.528689 0.0380463 0.
0.531764 0.0390415 0.
0.534562 0.0398464 0.
0.537184 0.0405637 0.
0.539709 0.0410268 0.
0.542138 0.0413557 0.
0.544548 0.0416775 0.
0.546806 0.0419064 0.
0.549075 0.0421422 0.
0.551261 0.042319 0.
0.55341 0.0424781 0.
0.555558 0.0426323 0.
0.557626 0.0426772 0.
0.559695 0.0427222 0.
0.561756 0.0427656 0.
0.563801 0.0428073 0.
0.565847 0.0428492 0.
0.567879 0.0428773 0.
0.569901 0.042897 0.
0.571923 0.0429167 0.
0.573935 0.0429263 0.
0.575946 0.0429343 0.
0.577956 0.0429417 0.
0.579963 0.0429444 0.
0.58197 0.0429471 0.
0.583977 0.0429491 0.
0.585981 0.0429496 0.
0.587986 0.0429502 0.
0.58999 0.0429505 0.
0.591993 0.0429508 0.
0.593995 0.042951 0.
0.595997 0.0429515 0.
0.597999 0.0429522 0.
0.6 0.0429528 0.
0.602002 0.0429522 0.
0.604004 0.0429515 0.
0.606006 0.0429508 0.
0.608009 0.04295 0.
0.610012 0.0429491 0.
0.612017 0.042948 0.
0.614022 0.0429467 0.
0.616028 0.0429454 0.
0.618036 0.0429424 0.
0.620045 0.0429387 0.
0.622054 0.0429349 0.
0.624067 0.0429245 0.
0.62608 0.0429134 0.
0.628096 0.0429002 0.
0.630126 0.0428735 0.
0.632155 0.042847 0.
0.634196 0.0428108 0.
0.636254 0.0427591 0.
0.638311 0.0427076 0.
0.640389 0.0426514 0.
0.642476 0.0425925 0.
0.644564 0.0425322 0.
0.646757 0.0423201 0.
0.648951 0.0421071 0.
0.651202 0.0418809 0.
0.653531 0.0416164 0.
0.655845 0.0413605 0.
0.658351 0.0409013 0.
0.660851 0.0404424 0.
0.663545 0.0398398 0.
0.666343 0.0390588 0.
0.66948 0.0380861 0.
0.672622 0.0370137 0.
0.675985 0.0355899 0.
0.679412 0.034037 0.
0.683365 0.0319657 0.
0.687618 0.0299422 0.
0.69195 0.0277758 0.
0.696643 0.0251003 0.
0.701206 0.0224809 0.
0.706573 0.019914 0.
0.712118 0.0172396 0.
0.717937 0.014182 0.
0.72436 0.0114329 0.
0.731703 0.00846817 0.
0.74204 0.00605293 0.
0.754485 0.00368401 0.
0.771497 0.00169408 0.
0.806385 0.00460765 0.
0.392103 0.00531679 0.
0.421853 0.00197661 0.
0.440256 0.00356387 0.
0.453639 0.00596841 0.
0.464158 0.00858951 0.
0.471927 0.0112865 0.
0.47839 0.0142822 0.
0.484364 0.0171054 0.
0.489658 0.0197942 0.
0.494714 0.0225694 0.
0.499529 0.0250085 0.
0.504508 0.0277451 0.
0.509186 0.030262 0.
0.513391 0.0325941 0.
0.517555 0.0348408 0.
0.52101 0.0364743 0.
0.524494 0.0379414 0.
0.527975 0.0392119 0.
0.531036 0.0402534 0.
0.533908 0.0411927 0.
0.536619 0.0420106 0.
0.53929 0.0426193 0.
0.541796 0.0430225 0.
0.544296 0.0434263 0.
0.546602 0.0436942 0.
0.548916 0.0439696 0.
0.551141 0.0441859 0.
0.553313 0.0443786 0.
0.555485 0.0445685 0.
0.557564 0.0446196 0.
0.559643 0.0446705 0.
0.561713 0.0447204 0.
0.563766 0.0447705 0.
0.565819 0.0448207 0.
0.567857 0.0448547 0.
0.569884 0.0448785 0.
0.571911 0.0449024 0.
0.573926 0.0449142 0.
0.575938 0.0449242 0.
0.577951 0.0449335 0.
0.579959 0.044937 0.
0.581967 0.0449404 0.
0.583975 0.0449431 0.
0.58598 0.0449443 0.
0.587985 0.0449455 0.
0.589989 0.0449465 0.
0.591992 0.0449474 0.
0.593995 0.0449482 0.
0.595997 0.044949 0.
0.597999 0.0449497 0.
0.6 0.0449505 0.
0.602002 0.0449497 0.
0.604004 0.0449489 0.
0.606007 0.0449479 0.
0.60801 0.0449463 0.
0.610013 0.0449447 0.
0.612018 0.0449428 0.
0.614024 0.0449406 0.
0.616031 0.0449383 0.
0.61804 0.0449344 0.
0.620051 0.0449298 0.
0.622061 0.0449251 0.
0.624077 0.0449122 0.
0.626093 0.0448985 0.
0.628112 0.0448821 0.
0.630148 0.0448497 0.
0.632183 0.0448174 0.
0.634231 0.0447741 0.
0.636298 0.0447138 0.
0.638364 0.0446537 0.
0.640456 0.0445867 0.
0.642558 0.0445167 0.
0.644664 0.0444418 0.
0.646879 0.044185 0.
0.649092 0.0439291 0.
0.651406 0.0436466 0.
0.653818 0.0433238 0.
0.656228 0.043001 0.
0.658816 0.0424733 0.
0.661397 0.0419459 0.
0.664263 0.0411531 0.
0.667062 0.0403169 0.
0.670374 0.0392303 0.
0.67374 0.0379748 0.
0.677231 0.0363048 0.
0.680796 0.0345072 0.
0.684851 0.0323516 0.
0.689375 0.0301238 0.
0.693736 0.0277668 0.
0.698471 0.0250299 0.
0.703091 0.0224061 0.
0.708579 0.0198574 0.
0.714012 0.0170245 0.
0.719984 0.0140383 0.
0.726467 0.0112173 0.
0.734142 0.00837323 0.
0.74483 0.00578374 0.
0.757151 0.00362878 0.
0.775949 0.00196657 0.
0.806516 0.00532503 0.
0.392005 0.00619827 0.
0.419064 0.00243472 0.
0.437613 0.00358082 0.
0.451116 0.00587464 0.
0.461982 0.00849821 0.
0.469963 0.0111959 0.
0.476529 0.0141486 0.
0.482527 0.0170489 0.
0.487859 0.0196953 0.
0.492916 0.0225527 0.
0.497765 0.0250112 0.
0.502829 0.0277541 0.
0.507433 0.0302836 0.
0.511908 0.0328268 0.
0.516171 0.0352843 0.
0.519676 0.0371 0.
0.523485 0.0388472 0.
0.527048 0.0402007 0.
0.530112 0.0413277 0.
0.533209 0.0425075 0.
0.536018 0.0434273 0.
0.538854 0.0441936 0.
0.54143 0.0446685 0.
0.543997 0.0451371 0.
0.546343 0.0454371 0.
0.548693 0.0457499 0.
0.550958 0.0460094 0.
0.553149 0.0462285 0.
0.555343 0.0464454 0.
0.557451 0.0465183 0.
0.559557 0.0465895 0.
0.561651 0.0466571 0.
0.563713 0.0467152 0.
0.565775 0.0467736 0.
0.567821 0.0468154 0.
0.569856 0.0468465 0.
0.571891 0.0468778 0.
0.573909 0.046894 0.
0.575926 0.0469077 0.
0.577941 0.0469206 0.
0.579951 0.0469254 0.
0.581962 0.0469303 0.
0.58397 0.0469343 0.
0.585977 0.0469367 0.
0.587983 0.0469392 0.
0.589988 0.0469411 0.
0.591991 0.0469428 0.
0.593995 0.0469445 0.
0.595997 0.0469456 0.
0.597999 0.0469465 0.
0.600001 0.0469474 0.
0.602003 0.0469463 0.
0.604005 0.0469451 0.
0.606007 0.0469437 0.
0.608011 0.0469411 0.
0.610015 0.0469385 0.
0.612021 0.0469354 0.
0.614029 0.0469315 0.
0.616037 0.0469276 0.
0.618048 0.046922 0.
0.620061 0.0469156 0.
0.622074 0.0469092 0.
0.624094 0.0468919 0.
0.626115 0.0468736 0.
0.628139 0.0468517 0.
0.630185 0.0468096 0.
0.632231 0.0467679 0.
0.634289 0.0467151 0.
0.636365 0.0466459 0.
0.638441 0.0465771 0.
0.640565 0.0464866 0.
0.642704 0.0463903 0.
0.644847 0.0462855 0.
0.647076 0.0460012 0.
0.649299 0.0457163 0.
0.651666 0.0453728 0.
0.654137 0.045 0.
0.656641 0.0446201 0.
0.659304 0.0440318 0.
0.662011 0.043392 0.
0.665041 0.0424085 0.
0.668093 0.0413886 0.
0.671449 0.0401983 0.
0.674961 0.0387789 0.
0.678547 0.0369192 0.
0.682321 0.0348307 0.
0.686439 0.0325985 0.
0.691155 0.0301733 0.
0.695572 0.0276707 0.
0.700276 0.0249336 0.
0.704944 0.022365 0.
0.71048 0.0197698 0.
0.715821 0.0168625 0.
0.721926 0.0139291 0.
0.728393 0.0110406 0.
0.736503 0.00832542 0.
0.747427 0.00570588 0.
0.759643 0.00364129 0.
0.779227 0.00239177 0.
0.80648 0.00604244 0.
0.392051 0.00702524 0.
0.417045 0.00294974 0.
0.435359 0.00367777 0.
0.448799 0.00580501 0.
0.459916 0.00846012 0.
0.46804 0.0111699 0.
0.474673 0.0140405 0.
0.480701 0.0169515 0.
0.486022 0.0196527 0.
0.49117 0.0225078 0.
0.495965 0.0250569 0.
0.501051 0.0276904 0.
0.505679 0.030263 0.
0.510385 0.0329813 0.
0.514467 0.0354444 0.
0.518245 0.0375919 0.
0.522369 0.0396418 0.
0.525789 0.0409985 0.
0.529145 0.0423361 0.
0.532431 0.0437254 0.
0.535384 0.0447763 0.
0.538256 0.0456109 0.
0.540894 0.0461489 0.
0.543547 0.0467183 0.
0.54599 0.0471051 0.
0.548402 0.0474861 0.
0.550733 0.0478099 0.
0.552954 0.0480584 0.
0.555179 0.0483057 0.
0.557323 0.0484063 0.
0.559464 0.0485026 0.
0.561587 0.0485915 0.
0.563658 0.0486581 0.
0.565729 0.0487249 0.
0.567783 0.0487749 0.
0.569826 0.0488137 0.
0.57187 0.0488527 0.
0.573893 0.0488734 0.
0.575912 0.048891 0.
0.577931 0.0489076 0.
0.579943 0.0489138 0.
0.581956 0.04892 0.
0.583966 0.0489254 0.
0.585974 0.0489291 0.
0.587981 0.0489327 0.
0.589986 0.0489357 0.
0.59199 0.0489382 0.
0.593994 0.0489407 0.
0.595996 0.0489422 0.
0.597999 0.0489433 0.
0.600001 0.0489444 0.
0.602003 0.0489429 0.
0.604005 0.0489414 0.
0.606008 0.0489395 0.
0.608013 0.0489359 0.
0.610018 0.0489323 0.
0.612024 0.0489278 0.
0.614034 0.0489223 0.
0.616043 0.0489168 0.
0.618057 0.0489095 0.
0.620072 0.0489013 0.
0.622088 0.0488931 0.
0.624112 0.0488713 0.
0.626137 0.0488482 0.
0.628167 0.0488204 0.
0.630223 0.0487683 0.
0.63228 0.0487164 0.
0.634349 0.0486537 0.
0.636436 0.048575 0.
0.638523 0.0484967 0.
0.640688 0.0483768 0.
0.642873 0.0482478 0.
0.645062 0.0481062 0.
0.647321 0.047792 0.
0.649574 0.0474781 0.
0.652007 0.0470353 0.
0.654518 0.046562 0.
0.657142 0.0460882 0.
0.659892 0.0454731 0.
0.662696 0.0447371 0.
0.665853 0.0436031 0.
0.669207 0.04237 0.
0.672685 0.0410174 0.
0.676312 0.0393842 0.
0.679998 0.0373441 0.
0.68392 0.0350619 0.
0.688179 0.032678 0.
0.692917 0.0301509 0.
0.697365 0.0275816 0.
0.702087 0.0248636 0.
0.706798 0.0223386 0.
0.712299 0.0196815 0.
0.717563 0.0167399 0.
0.723779 0.0138697 0.
0.730248 0.0108891 0.
0.738678 0.00831252 0.
0.749766 0.00576974 0.
0.762095 0.00367727 0.
0.781347 0.00277807 0.
0.806265 0.00672913 0.
0.392175 0.00778135 0.
0.415401 0.00345426 0.
0.433366 0.0038418 0.
0.446561 0.005725 0.
0.45797 0.00841727 0.
0.466223 0.0111535 0.
0.472825 0.0139293 0.
0.478927 0.0168525 0.
0.4842 0.019621 0.
0.48941 0.0224331 0.
0.494146 0.0250992 0.
0.49927 0.027617 0.
0.503949 0.0302351 0.
0.508752 0.0330184 0.
0.512745 0.0355243 0.
0.516743 0.0379623 0.
0.520816 0.0401017 0.
0.524412 0.041678 0.
0.528133 0.0432729 0.
0.531507 0.0447687 0.
0.534471 0.045905 0.
0.53747 0.0468878 0.
0.540303 0.0475847 0.
0.543069 0.0482733 0.
0.545629 0.048761 0.
0.548104 0.0492105 0.
0.55051 0.0496066 0.
0.552761 0.0498828 0.
0.555016 0.0501532 0.
0.557194 0.0502814 0.
0.559365 0.0504052 0.
0.561515 0.05052 0.
0.563595 0.0505944 0.
0.565676 0.0506692 0.
0.56774 0.0507278 0.
0.569792 0.0507754 0.
0.571845 0.0508233 0.
0.573873 0.0508494 0.
0.575896 0.0508716 0.
0.577919 0.0508925 0.
0.579933 0.0509004 0.
0.581948 0.0509083 0.
0.58396 0.0509153 0.
0.585969 0.0509204 0.
0.587978 0.0509256 0.
0.589984 0.0509298 0.
0.591988 0.0509332 0.
0.593993 0.0509366 0.
0.595996 0.0509384 0.
0.597998 0.0509397 0.
0.600001 0.0509411 0.
0.602004 0.0509392 0.
0.604007 0.0509373 0.
0.60601 0.0509347 0.
0.608016 0.05093 0.
0.610021 0.0509253 0.
0.612029 0.0509194 0.
0.61404 0.0509118 0.
0.616051 0.0509043 0.
0.618067 0.050895 0.
0.620086 0.0508848 0.
0.622104 0.0508746 0.
0.624133 0.0508474 0.
0.626163 0.0508187 0.
0.6282 0.050784 0.
0.630268 0.0507203 0.
0.632335 0.0506571 0.
0.634416 0.0505844 0.
0.636514 0.0504974 0.
0.63861 0.0504108 0.
0.640815 0.0502563 0.
0.643043 0.0500934 0.
0.645276 0.0499192 0.
0.647566 0.0495786 0.
0.649848 0.0492366 0.
0.652351 0.0486777 0.
0.654903 0.0481043 0.
0.65771 0.0475198 0.
0.660638 0.0468148 0.
0.663683 0.0458162 0.
0.666746 0.0446692 0.
0.670374 0.0432661 0.
0.674065 0.0416872 0.
0.677772 0.0398337 0.
0.681572 0.0375895 0.
0.685605 0.0351589 0.
0.689958 0.0326773 0.
0.694714 0.0300797 0.
0.699183 0.027507 0.
0.703872 0.0248358 0.
0.708652 0.0223037 0.
0.714101 0.0195623 0.
0.719361 0.0166328 0.
0.725612 0.0138079 0.
0.732072 0.0108145 0.
0.740734 0.00827852 0.
0.751936 0.00585537 0.
0.764374 0.00377325 0.
0.783134 0.00315997 0.
0.805982 0.00737611 0.
0.392381 0.00848039 0.
0.413965 0.00394742 0.
0.431385 0.00396314 0.
0.444366 0.00571073 0.
0.456039 0.00836286 0.
0.464338 0.0111103 0.
0.470985 0.0138405 0.
0.477167 0.0167538 0.
0.4824 0.0195845 0.
0.487672 0.022358 0.
0.49235 0.0250631 0.
0.497517 0.0276151 0.
0.502191 0.030201 0.
0.506994 0.0329575 0.
0.511019 0.035547 0.
0.515118 0.0381396 0.
0.519062 0.0403529 0.
0.522944 0.0422492 0.
0.526974 0.0440537 0.
0.530273 0.0455547 0.
0.53349 0.046985 0.
0.536631 0.0481131 0.
0.539701 0.0489855 0.
0.542563 0.0497689 0.
0.545221 0.0503456 0.
0.54773 0.0508451 0.
0.550203 0.0513168 0.
0.552514 0.0516236 0.
0.554851 0.0519358 0.
0.557066 0.0521107 0.
0.559252 0.05228 0.
0.561419 0.0524361 0.
0.563515 0.0525189 0.
0.565611 0.0526021 0.
0.567689 0.0526706 0.
0.569751 0.0527293 0.
0.571814 0.0527883 0.
0.573848 0.0528212 0.
0.575876 0.0528489 0.
0.577904 0.0528752 0.
0.57992 0.0528849 0.
0.581937 0.0528947 0.
0.583952 0.0529036 0.
0.585963 0.0529107 0.
0.587973 0.0529178 0.
0.58998 0.0529234 0.
0.591986 0.0529277 0.
0.593991 0.0529321 0.
0.595995 0.0529343 0.
0.597998 0.0529359 0.
0.600001 0.0529375 0.
0.602005 0.052935 0.
0.604008 0.0529326 0.
0.606013 0.0529294 0.
0.608019 0.0529234 0.
0.610026 0.0529175 0.
0.612036 0.0529098 0.
0.614049 0.0528998 0.
0.616062 0.0528899 0.
0.618081 0.0528782 0.
0.620102 0.0528657 0.
0.622123 0.0528532 0.
0.624159 0.0528193 0.
0.626196 0.0527839 0.
0.628241 0.0527405 0.
0.630321 0.0526621 0.
0.6324 0.0525844 0.
0.634495 0.0525002 0.
0.636608 0.0524052 0.
0.638719 0.0523106 0.
0.640955 0.0520971 0.
0.643208 0.0518729 0.
0.645491 0.0516414 0.
0.647852 0.0512757 0.
0.650185 0.0509116 0.
0.652742 0.0502536 0.
0.655281 0.0496126 0.
0.658317 0.0489235 0.
0.661431 0.0481266 0.
0.664742 0.0467977 0.
0.667977 0.0454722 0.
0.671624 0.0440303 0.
0.67552 0.0422035 0.
0.679364 0.0401128 0.
0.683205 0.0377118 0.
0.687334 0.035171 0.
0.691729 0.0326498 0.
0.696506 0.0300084 0.
0.701002 0.0274381 0.
0.705631 0.0248223 0.
0.710479 0.0222521 0.
0.715883 0.0194311 0.
0.721158 0.016551 0.
0.727416 0.013711 0.
0.733893 0.0107934 0.
0.742648 0.00821428 0.
0.753995 0.00589728 0.
0.766522 0.00385492 0.
0.784479 0.0035597 0.
0.80571 0.00801638 0.
0.39279 0.00905978 0.
0.412859 0.004382 0.
0.429456 0.00406101 0.
0.442401 0.0058146 0.
0.454186 0.0083189 0.
0.462505 0.0110683 0.
0.469209 0.0138071 0.
0.475431 0.0166992 0.
0.480639 0.0195117 0.
0.485955 0.0223246 0.
0.490618 0.0250145 0.
0.495764 0.02765 0.
0.500442 0.0301522 0.
0.505211 0.0328585 0.
0.509279 0.0355169 0.
0.513387 0.0381646 0.
0.517282 0.0405261 0.
0.521387 0.042684 0.
0.525433 0.0445528 0.
0.528935 0.0462423 0.
0.532391 0.0479647 0.
0.535697 0.0492399 0.
0.538953 0.0502478 0.
0.54184 0.0511064 0.
0.544693 0.0518416 0.
0.54728 0.0524252 0.
0.549857 0.0530066 0.
0.552251 0.0533578 0.
0.554676 0.0537148 0.
0.556936 0.0539364 0.
0.559137 0.0541516 0.
0.561323 0.0543519 0.
0.563434 0.0544431 0.
0.565546 0.0545347 0.
0.567637 0.0546132 0.
0.56971 0.0546829 0.
0.571784 0.0547531 0.
0.573824 0.0547928 0.
0.575856 0.0548261 0.
0.577888 0.0548578 0.
0.579908 0.0548694 0.
0.581927 0.0548811 0.
0.583944 0.0548919 0.
0.585956 0.0549009 0.
0.587968 0.0549099 0.
0.589977 0.0549169 0.
0.591983 0.0549222 0.
0.593989 0.0549276 0.
0.595993 0.0549302 0.
0.597997 0.054932 0.
0.600001 0.0549339 0.
0.602006 0.0549309 0.
0.60401 0.0549279 0.
0.606015 0.054924 0.
0.608023 0.0549169 0.
0.610031 0.0549097 0.
0.612042 0.0549001 0.
0.614058 0.0548878 0.
0.616073 0.0548754 0.
0.618095 0.0548614 0.
0.620119 0.0548465 0.
0.622143 0.0548317 0.
0.624185 0.0547912 0.
0.626229 0.0547489 0.
0.628282 0.0546965 0.
0.630374 0.0546034 0.
0.632466 0.0545112 0.
0.634575 0.0544159 0.
0.636703 0.0543128 0.
0.638829 0.0542102 0.
0.641097 0.053933 0.
0.643376 0.0536471 0.
0.64572 0.0533586 0.
0.64817 0.0529523 0.
0.650623 0.0525169 0.
0.653346 0.0517166 0.
0.656005 0.0509762 0.
0.659147 0.0501849 0.
0.662347 0.0492838 0.
0.665863 0.0476823 0.
0.669382 0.0461707 0.
0.67304 0.0446218 0.
0.677027 0.0425836 0.
0.680992 0.0402715 0.
0.684858 0.0377643 0.
0.68908 0.0351399 0.
0.693521 0.0325977 0.
0.698252 0.0299708 0.
0.702754 0.0274175 0.
0.707374 0.0248083 0.
0.712263 0.0221992 0.
0.717613 0.0193411 0.
0.722889 0.0165042 0.
0.729134 0.0136276 0.
0.735696 0.0108123 0.
0.744405 0.00817844 0.
0.755825 0.00597248 0.
0.768477 0.00393671 0.
0.785303 0.00396621 0.
0.805263 0.00859697 0.
0.393391 0.00955019 0.
0.412169 0.00476161 0.
0.42786 0.00422807 0.
0.440746 0.00597527 0.
0.452529 0.00836207 0.
0.460801 0.0110782 0.
0.467556 0.0138393 0.
0.47378 0.0166887 0.
0.478935 0.0194518 0.
0.484287 0.0223181 0.
0.488966 0.0249815 0.
0.494033 0.0277035 0.
0.498699 0.0301207 0.
0.503438 0.0327784 0.
0.507548 0.035457 0.
0.51156 0.0380898 0.
0.515488 0.040603 0.
0.51967 0.0429141 0.
0.523673 0.0448937 0.
0.527536 0.0468358 0.
0.531125 0.0487198 0.
0.534549 0.0501629 0.
0.537958 0.0513764 0.
0.541054 0.0523986 0.
0.54414 0.0533158 0.
0.546805 0.0539846 0.
0.54947 0.0546723 0.
0.551947 0.0550608 0.
0.554421 0.055456 0.
0.556724 0.0557305 0.
0.558943 0.0559856 0.
0.561157 0.0562286 0.
0.563296 0.0563312 0.
0.565439 0.0564351 0.
0.567556 0.0565277 0.
0.569642 0.0566118 0.
0.571729 0.0566969 0.
0.57378 0.0567478 0.
0.575822 0.0567908 0.
0.577863 0.056832 0.
0.579886 0.0568461 0.
0.581909 0.0568603 0.
0.58393 0.0568736 0.
0.585944 0.0568856 0.
0.587959 0.0568975 0.
0.58997 0.0569066 0.
0.591978 0.0569134 0.
0.593986 0.0569201 0.
0.595991 0.0569233 0.
0.597996 0.0569254 0.
0.600002 0.0569275 0.
0.602007 0.0569237 0.
0.604013 0.05692 0.
0.60602 0.056915 0.
0.60803 0.0569059 0.
0.61004 0.0568968 0.
0.612054 0.0568846 0.
0.614073 0.0568687 0.
0.616092 0.0568529 0.
0.618117 0.056836 0.
0.620145 0.0568185 0.
0.622173 0.0568011 0.
0.624229 0.0567469 0.
0.626286 0.056691 0.
0.628353 0.0566242 0.
0.63046 0.0565164 0.
0.632566 0.0564097 0.
0.6347 0.0562985 0.
0.636854 0.0561807 0.
0.639005 0.0560638 0.
0.64131 0.0557263 0.
0.643608 0.0553887 0.
0.646005 0.0550484 0.
0.648514 0.054615 0.
0.651112 0.0540856 0.
0.653998 0.0531462 0.
0.656911 0.0522466 0.
0.660205 0.0512319 0.
0.663534 0.0500536 0.
0.66705 0.0484394 0.
0.670858 0.046774 0.
0.674647 0.0449916 0.
0.678602 0.0428275 0.
0.68264 0.0403482 0.
0.686555 0.0377572 0.
0.690799 0.0351142 0.
0.695283 0.0325549 0.
0.699962 0.0299681 0.
0.704462 0.0274268 0.
0.709077 0.0248123 0.
0.713972 0.0221636 0.
0.719314 0.0192703 0.
0.724571 0.0164915 0.
0.730754 0.0135688 0.
0.737433 0.0108706 0.
0.745983 0.0082124 0.
0.757369 0.00609326 0.
0.770125 0.00406985 0.
0.785604 0.00434941 0.
0.804455 0.00903605 0.
0.394258 0.00993513 0.
0.412045 0.00512306 0.
0.426602 0.00448113 0.
0.439416 0.00615606 0.
0.451049 0.00845685 0.
0.459239 0.0111195 0.
0.466034 0.0139308 0.
0.472198 0.016713 0.
0.477303 0.019414 0.
0.48264 0.0223226 0.
0.487331 0.0249756 0.
0.492318 0.0277076 0.
0.496976 0.0301411 0.
0.501676 0.0327304 0.
0.505794 0.0353581 0.
0.509738 0.0379952 0.
0.51371 0.0405835 0.
0.51783 0.0429953 0.
0.521878 0.0451397 0.
0.525941 0.0472013 0.
0.529659 0.0492409 0.
0.533246 0.0509332 0.
0.536805 0.0523605 0.
0.540222 0.0536304 0.
0.543481 0.0546965 0.
0.54621 0.0554069 0.
0.54897 0.0561261 0.
0.551539 0.0566315 0.
0.554052 0.0571373 0.
0.556426 0.0574985 0.
0.55869 0.0577953 0.
0.560955 0.0580857 0.
0.563135 0.058206 0.
0.565319 0.0583267 0.
0.567468 0.0584365 0.
0.569569 0.0585367 0.
0.571671 0.0586379 0.
0.573734 0.0587011 0.
0.575786 0.0587544 0.
0.577838 0.0588058 0.
0.579864 0.0588224 0.
0.581891 0.0588391 0.
0.583914 0.0588551 0.
0.585932 0.05887 0.
0.58795 0.058885 0.
0.589964 0.0588962 0.
0.591973 0.0589044 0.
0.593982 0.0589126 0.
0.595989 0.0589163 0.
0.597996 0.0589187 0.
0.600002 0.0589211 0.
0.602009 0.0589165 0.
0.604016 0.0589119 0.
0.606025 0.0589058 0.
0.608037 0.0588948 0.
0.61005 0.0588837 0.
0.612067 0.0588688 0.
0.614089 0.0588494 0.
0.616112 0.0588299 0.
0.618141 0.0588102 0.
0.620173 0.05879 0.
0.622204 0.0587699 0.
0.624275 0.0587007 0.
0.626347 0.0586299 0.
0.62843 0.0585471 0.
0.630554 0.0584234 0.
0.632676 0.0583009 0.
0.634843 0.0581684 0.
0.637035 0.0580284 0.
0.639235 0.0578786 0.
0.641603 0.0574765 0.
0.643956 0.0570796 0.
0.646501 0.0566273 0.
0.649106 0.056099 0.
0.651831 0.0554339 0.
0.654724 0.0544852 0.
0.657891 0.0534086 0.
0.661293 0.0521945 0.
0.664852 0.0506669 0.
0.668464 0.0490052 0.
0.672383 0.0472808 0.
0.676315 0.0452465 0.
0.680262 0.0429407 0.
0.684303 0.0403623 0.
0.688282 0.0377074 0.
0.692547 0.035083 0.
0.69701 0.0325337 0.
0.701643 0.0299841 0.
0.70612 0.0274522 0.
0.710753 0.0248304 0.
0.715602 0.0221378 0.
0.720966 0.0192369 0.
0.72617 0.0165216 0.
0.73227 0.0135686 0.
0.739072 0.0109601 0.
0.747389 0.0083487 0.
0.758639 0.00626492 0.
0.77133 0.0043285 0.
0.785498 0.00470287 0.
0.803298 0.00927055 0.
0.395503 0.0101798 0.
0.412202 0.00548824 0.
0.425665 0.00482006 0.
0.438338 0.00636908 0.
0.449667 0.00858241 0.
0.457735 0.0111691 0.
0.464524 0.0140177 0.
0.470614 0.0167452 0.
0.475683 0.0194035 0.
0.48099 0.0222953 0.
0.485686 0.0249802 0.
0.490634 0.027695 0.
0.495264 0.0301773 0.
0.499905 0.0326755 0.
0.504042 0.0352554 0.
0.507964 0.0379167 0.
0.511903 0.0405073 0.
0.51594 0.0429864 0.
0.520031 0.0452578 0.
0.524182 0.0473842 0.
0.528063 0.0496259 0.
0.531783 0.051513 0.
0.53553 0.0531944 0.
0.539261 0.0547293 0.
0.542412 0.0557916 0.
0.545446 0.0567183 0.
0.5484 0.0575341 0.
0.551124 0.0581804 0.
0.553677 0.0587965 0.
0.556124 0.0592616 0.
0.558434 0.0596 0.
0.560749 0.059935 0.
0.56297 0.0600722 0.
0.565194 0.0602092 0.
0.567376 0.0603387 0.
0.569489 0.0604536 0.
0.571604 0.0605695 0.
0.57368 0.0606463 0.
0.575745 0.0607124 0.
0.577809 0.0607769 0.
0.579839 0.0607959 0.
0.581869 0.060815 0.
0.583896 0.0608336 0.
0.585918 0.0608519 0.
0.587939 0.0608701 0.
0.589955 0.0608839 0.
0.591966 0.0608938 0.
0.593978 0.0609037 0.
0.595987 0.060908 0.
0.597994 0.0609107 0.
0.600002 0.0609134 0.
0.602011 0.0609077 0.
0.604021 0.0609021 0.
0.606031 0.0608947 0.
0.608047 0.0608814 0.
0.610062 0.0608681 0.
0.612082 0.0608503 0.
0.614108 0.0608272 0.
0.616134 0.0608042 0.
0.618168 0.0607806 0.
0.620205 0.0607566 0.
0.622242 0.0607326 0.
0.624328 0.0606464 0.
0.626414 0.0605594 0.
0.628514 0.0604604 0.
0.630653 0.0603227 0.
0.632789 0.0601863 0.
0.63499 0.0600312 0.
0.637217 0.0598713 0.
0.639473 0.0596847 0.
0.641902 0.0592189 0.
0.644313 0.0587623 0.
0.647036 0.0581755 0.
0.649772 0.0575291 0.
0.652752 0.0566166 0.
0.655731 0.0555533 0.
0.659 0.0543571 0.
0.662488 0.0529819 0.
0.666235 0.051218 0.
0.67005 0.0494719 0.
0.674021 0.047612 0.
0.678009 0.0454088 0.
0.681998 0.0429501 0.
0.686003 0.0403107 0.
0.690004 0.0376431 0.
0.694288 0.0350488 0.
0.698736 0.0325165 0.
0.703326 0.0300046 0.
0.707754 0.0274793 0.
0.712408 0.0248473 0.
0.717184 0.0221256 0.
0.722558 0.0192405 0.
0.727726 0.0165692 0.
0.733727 0.0136206 0.
0.740648 0.0110527 0.
0.748738 0.00853596 0.
0.759761 0.0064664 0.
0.772244 0.00467956 0.
0.785307 0.0050653 0.
0.801956 0.00930625 0.
0.396842 0.0102609 0.
0.412358 0.0058772 0.
0.424959 0.00523894 0.
0.437331 0.00659476 0.
0.448332 0.00870592 0.
0.456265 0.0112397 0.
0.46303 0.0140844 0.
0.469035 0.0167885 0.
0.474072 0.019423 0.
0.47937 0.0222744 0.
0.484058 0.024981 0.
0.488939 0.0276751 0.
0.493568 0.0302228 0.
0.498158 0.0326558 0.
0.502313 0.0351894 0.
0.506202 0.0378334 0.
0.510082 0.0403986 0.
0.514071 0.042918 0.
0.518164 0.0452788 0.
0.522334 0.0474917 0.
0.526358 0.0498467 0.
0.530191 0.051903 0.
0.534094 0.0538334 0.
0.537879 0.0554622 0.
0.541198 0.0567447 0.
0.544622 0.0580047 0.
0.547772 0.058909 0.
0.550694 0.059685 0.
0.553216 0.0603632 0.
0.555756 0.0609322 0.
0.558125 0.0612994 0.
0.560519 0.0616682 0.
0.562788 0.0618593 0.
0.565046 0.0620494 0.
0.567262 0.0622229 0.
0.569389 0.0623522 0.
0.571518 0.0624826 0.
0.573611 0.0625772 0.
0.575694 0.0626614 0.
0.577776 0.0627442 0.
0.579809 0.0627656 0.
0.581843 0.0627871 0.
0.583875 0.0628085 0.
0.585899 0.0628305 0.
0.587924 0.0628525 0.
0.589943 0.0628691 0.
0.591958 0.0628811 0.
0.593972 0.0628931 0.
0.595983 0.0628982 0.
0.597993 0.0629011 0.
0.600003 0.062904 0.
0.602015 0.0628972 0.
0.604026 0.0628903 0.
0.60604 0.0628813 0.
0.608059 0.0628653 0.
0.610077 0.0628494 0.
0.612102 0.0628284 0.
0.614131 0.0628016 0.
0.616161 0.0627749 0.
0.618201 0.0627459 0.
0.620245 0.0627159 0.
0.62229 0.0626854 0.
0.624394 0.0625778 0.
0.626497 0.0624697 0.
0.628615 0.0623507 0.
0.630771 0.0621985 0.
0.632924 0.0620477 0.
0.635202 0.0618257 0.
0.637511 0.0615918 0.
0.639864 0.0613272 0.
0.64235 0.0608345 0.
0.644793 0.0603513 0.
0.647621 0.0596659 0.
0.650488 0.058906 0.
0.653741 0.0577367 0.
0.656927 0.0564994 0.
0.660334 0.0551097 0.
0.663848 0.053552 0.
0.667726 0.0516817 0.
0.671743 0.0498496 0.
0.675757 0.047799 0.
0.679728 0.0454618 0.
0.683733 0.042909 0.
0.687707 0.0402329 0.
0.691752 0.0375793 0.
0.69603 0.035017 0.
0.700466 0.0325093 0.
0.705013 0.0300307 0.
0.709377 0.0275131 0.
0.714066 0.0248514 0.
0.71875 0.0221183 0.
0.724116 0.0192692 0.
0.729251 0.0166198 0.
0.735162 0.0137138 0.
0.742158 0.0111312 0.
0.750067 0.00875341 0.
0.760807 0.00668937 0.
0.773019 0.00511141 0.
0.785214 0.00545717 0.
0.80056 0.00923895 0.
0.398276 0.0101785 0.
0.412539 0.00628893 0.
0.424429 0.00571474 0.
0.436531 0.00685495 0.
0.447145 0.00887367 0.
0.454875 0.0113521 0.
0.461676 0.0141871 0.
0.467511 0.016871 0.
0.472513 0.0194715 0.
0.477814 0.0222931 0.
0.482472 0.0250018 0.
0.487288 0.0276829 0.
0.491913 0.0302459 0.
0.496444 0.0326871 0.
0.500608 0.0351525 0.
0.504466 0.0377496 0.
0.50829 0.0403179 0.
0.5122 0.0428318 0.
0.516277 0.0452499 0.
0.520457 0.0475432 0.
0.524582 0.0499017 0.
0.528515 0.0521423 0.
0.532514 0.0542921 0.
0.536257 0.0559896 0.
0.539865 0.0575508 0.
0.543626 0.0591532 0.
0.546835 0.0601139 0.
0.54989 0.0610364 0.
0.552554 0.0618245 0.
0.555333 0.0625614 0.
0.557791 0.0629781 0.
0.560277 0.0633959 0.
0.562603 0.06364 0.
0.564896 0.0638842 0.
0.567147 0.0641066 0.
0.569289 0.0642504 0.
0.571432 0.0643953 0.
0.573543 0.0645074 0.
0.575642 0.0646098 0.
0.577741 0.0647112 0.
0.57978 0.0647353 0.
0.581818 0.0647592 0.
0.583853 0.0647833 0.
0.585881 0.0648091 0.
0.587909 0.0648348 0.
0.589932 0.0648544 0.
0.591949 0.0648685 0.
0.593967 0.0648826 0.
0.59598 0.0648883 0.
0.597992 0.0648915 0.
0.600004 0.0648947 0.
0.602018 0.0648866 0.
0.604032 0.0648785 0.
0.606048 0.0648679 0.
0.608071 0.0648492 0.
0.610093 0.0648306 0.
0.612121 0.0648064 0.
0.614155 0.064776 0.
0.616188 0.0647456 0.
0.618235 0.0647111 0.
0.620286 0.0646751 0.
0.622338 0.0646377 0.
0.62446 0.0645085 0.
0.626581 0.0643791 0.
0.628718 0.0642403 0.
0.63089 0.0640736 0.
0.63306 0.0639084 0.
0.635427 0.0636103 0.
0.637824 0.0632973 0.
0.640312 0.0629383 0.
0.642925 0.062378 0.
0.645569 0.0617621 0.
0.648541 0.0608949 0.
0.651499 0.0600174 0.
0.654834 0.0587521 0.
0.658253 0.0573084 0.
0.661778 0.0557557 0.
0.665451 0.0539653 0.
0.669372 0.0520409 0.
0.673491 0.0501081 0.
0.677539 0.04789 0.
0.681485 0.0454445 0.
0.685465 0.0428407 0.
0.689405 0.0401484 0.
0.693496 0.0375241 0.
0.697759 0.0349934 0.
0.702186 0.0325273 0.
0.706658 0.0300748 0.
0.710975 0.0275618 0.
0.715644 0.0248728 0.
0.720269 0.0221371 0.
0.72561 0.0193444 0.
0.730708 0.0166845 0.
0.736545 0.0138619 0.
0.743511 0.0112518 0.
0.751289 0.0090072 0.
0.761717 0.00694122 0.
0.773599 0.00561699 0.
0.785052 0.00586069 0.
0.799122 0.00912789 0.
0.399937 0.00993636 0.
0.412867 0.00670941 0.
0.424119 0.00624283 0.
0.436022 0.00716801 0.
0.446143 0.00910766 0.
0.453646 0.0115281 0.
0.460444 0.0143447 0.
0.466061 0.0170089 0.
0.471059 0.0195678 0.
0.476349 0.0223558 0.
0.480933 0.0250402 0.
0.485693 0.0277261 0.
0.490291 0.0302786 0.
0.494747 0.0327453 0.
0.498934 0.0351407 0.
0.502767 0.0376968 0.
0.506525 0.0402398 0.
0.510387 0.0427447 0.
0.514437 0.0451955 0.
0.518586 0.0475442 0.
0.522761 0.0498797 0.
0.526771 0.0522879 0.
0.530754 0.0545209 0.
0.534584 0.0564063 0.
0.538412 0.0581597 0.
0.542177 0.0598339 0.
0.545579 0.0610784 0.
0.548873 0.0622781 0.
0.551812 0.0632437 0.
0.554835 0.0641543 0.
0.557422 0.0646367 0.
0.559958 0.0650784 0.
0.562342 0.0653757 0.
0.564671 0.0656784 0.
0.566976 0.0659623 0.
0.569135 0.0661141 0.
0.571299 0.0662671 0.
0.573431 0.0663974 0.
0.575549 0.0665226 0.
0.577668 0.0666479 0.
0.579721 0.0666827 0.
0.581773 0.0667163 0.
0.58382 0.0667487 0.
0.585852 0.0667778 0.
0.587885 0.066807 0.
0.589912 0.0668296 0.
0.591934 0.0668465 0.
0.593956 0.0668635 0.
0.595974 0.0668703 0.
0.59799 0.0668741 0.
0.600006 0.0668779 0.
0.602025 0.0668677 0.
0.604043 0.0668575 0.
0.606064 0.0668445 0.
0.608092 0.0668225 0.
0.610119 0.0668005 0.
0.612152 0.0667727 0.
0.614191 0.0667385 0.
0.616231 0.0667045 0.
0.618292 0.0666584 0.
0.620359 0.066609 0.
0.62243 0.066556 0.
0.624573 0.0664019 0.
0.626714 0.066249 0.
0.628876 0.0660915 0.
0.631069 0.0659162 0.
0.633257 0.0657426 0.
0.635712 0.0653523 0.
0.638177 0.0649679 0.
0.640812 0.0645189 0.
0.643549 0.063898 0.
0.646433 0.0630945 0.
0.649555 0.0620304 0.
0.652791 0.0608764 0.
0.656139 0.059561 0.
0.659703 0.0579699 0.
0.663364 0.0562136 0.
0.667158 0.0542901 0.
0.671147 0.0523064 0.
0.67527 0.0502382 0.
0.679334 0.0478992 0.
0.683251 0.0453679 0.
0.687194 0.0427525 0.
0.691102 0.040077 0.
0.695204 0.0374926 0.
0.699464 0.0349857 0.
0.703879 0.032576 0.
0.708283 0.0301233 0.
0.712541 0.0276243 0.
0.717156 0.0249226 0.
0.721729 0.0222052 0.
0.727019 0.0194666 0.
0.732061 0.0168 0.
0.737771 0.014078 0.
0.744661 0.0114489 0.
0.752287 0.00931201 0.
0.76239 0.00724278 0.
0.773908 0.00614997 0.
0.784704 0.00626225 0.
0.797655 0.00904242 0.
0.401735 0.0096569 0.
0.413399 0.00712865 0.
0.424058 0.0067952 0.
0.43574 0.00753185 0.
0.445311 0.00940541 0.
0.452616 0.0117807 0.
0.459278 0.0145507 0.
0.464694 0.0171959 0.
0.469728 0.0197251 0.
0.47495 0.0224667 0.
0.479443 0.0251108 0.
0.484148 0.0277913 0.
0.488685 0.0303279 0.
0.493086 0.0328141 0.
0.497268 0.0351769 0.
0.501065 0.0376652 0.
0.504791 0.0401778 0.
0.508608 0.0426862 0.
0.512607 0.0451307 0.
0.516721 0.0475184 0.
0.520921 0.049842 0.
0.524964 0.0522967 0.
0.528934 0.0546346 0.
0.532879 0.0567334 0.
0.536731 0.058558 0.
0.540534 0.0602773 0.
0.544235 0.0619182 0.
0.547679 0.0633343 0.
0.550941 0.0645473 0.
0.553971 0.0654626 0.
0.55672 0.0660778 0.
0.55939 0.0666284 0.
0.561946 0.067042 0.
0.56436 0.0674264 0.
0.566763 0.067799 0.
0.568953 0.0679613 0.
0.571147 0.0681248 0.
0.573307 0.068276 0.
0.575447 0.0684272 0.
0.577588 0.0685791 0.
0.579658 0.068627 0.
0.581725 0.0686716 0.
0.583786 0.0687133 0.
0.585823 0.0687458 0.
0.58786 0.0687784 0.
0.589891 0.0688043 0.
0.591918 0.0688241 0.
0.593945 0.068844 0.
0.595967 0.068852 0.
0.597988 0.0688564 0.
0.600008 0.0688607 0.
0.602031 0.0688484 0.
0.604054 0.0688361 0.
0.60608 0.0688206 0.
0.608113 0.0687951 0.
0.610146 0.0687696 0.
0.612185 0.0687381 0.
0.61423 0.0687001 0.
0.616274 0.0686621 0.
0.618352 0.068603 0.
0.620438 0.0685383 0.
0.622531 0.0684669 0.
0.6247 0.0682844 0.
0.626867 0.0681037 0.
0.629064 0.0679239 0.
0.631295 0.0677358 0.
0.63353 0.0675425 0.
0.636095 0.0670114 0.
0.63864 0.0665086 0.
0.641466 0.0659261 0.
0.644313 0.0652634 0.
0.647409 0.0642699 0.
0.65065 0.0630551 0.
0.654154 0.0616456 0.
0.657656 0.0601688 0.
0.661291 0.0584749 0.
0.665071 0.0565044 0.
0.668956 0.054492 0.
0.672992 0.0524742 0.
0.677082 0.0502775 0.
0.681131 0.0478568 0.
0.68502 0.0452691 0.
0.688924 0.0426466 0.
0.692815 0.040012 0.
0.696892 0.0374931 0.
0.701136 0.0350109 0.
0.705539 0.0326514 0.
0.709873 0.0301956 0.
0.714107 0.0276897 0.
0.718622 0.025 0.
0.723124 0.0223214 0.
0.728345 0.0196348 0.
0.733342 0.0169693 0.
0.73886 0.014352 0.
0.745642 0.0117206 0.
0.753073 0.00966532 0.
0.762773 0.00760205 0.
0.773991 0.00669435 0.
0.784253 0.00667741 0.
0.796182 0.00903465 0.
0.403294 0.00955244 0.
0.41395 0.0075678 0.
0.424121 0.00733396 0.
0.43554 0.00793295 0.
0.444566 0.00974543 0.
0.451693 0.0120819 0.
0.458164 0.0147929 0.
0.463389 0.0174081 0.
0.468472 0.0199199 0.
0.473576 0.0226089 0.
0.478003 0.025215 0.
0.482639 0.0278667 0.
0.487082 0.0303828 0.
0.491431 0.0328623 0.
0.495587 0.0352315 0.
0.499376 0.0376522 0.
0.503087 0.0401372 0.
0.506832 0.04263 0.
0.510795 0.0450643 0.
0.514879 0.0474732 0.
0.519057 0.0498126 0.
0.52314 0.0522368 0.
0.527119 0.0546819 0.
0.531064 0.0569025 0.
0.534949 0.0588504 0.
0.538857 0.0606413 0.
0.542682 0.0624829 0.
0.546294 0.0641184 0.
0.549745 0.0655251 0.
0.552859 0.0665705 0.
0.555919 0.0674613 0.
0.558761 0.0681407 0.
0.561533 0.068693 0.
0.564035 0.0691605 0.
0.566547 0.0696325 0.
0.568769 0.0698058 0.
0.570992 0.0699771 0.
0.573181 0.0701465 0.
0.57534 0.0703214 0.
0.577502 0.0704975 0.
0.57959 0.0705616 0.
0.581672 0.0706203 0.
0.583746 0.0706742 0.
0.585788 0.07071 0.
0.58783 0.0707458 0.
0.589868 0.0707748 0.
0.5919 0.0707976 0.
0.593932 0.0708203 0.
0.59596 0.0708296 0.
0.597986 0.0708346 0.
0.600011 0.0708396 0.
0.60204 0.0708252 0.
0.604068 0.0708107 0.
0.606099 0.0707926 0.
0.608138 0.0707634 0.
0.610177 0.0707343 0.
0.612222 0.070699 0.
0.614273 0.0706573 0.
0.616324 0.0706157 0.
0.618418 0.0705401 0.
0.620522 0.0704575 0.
0.622637 0.0703648 0.
0.624832 0.0701569 0.
0.62702 0.0699527 0.
0.629256 0.0697532 0.
0.631525 0.0695532 0.
0.633831 0.0693148 0.
0.636496 0.0686466 0.
0.639126 0.0680221 0.
0.642207 0.0672729 0.
0.645277 0.066449 0.
0.648615 0.065181 0.
0.651963 0.0638486 0.
0.655599 0.0623017 0.
0.659278 0.0606462 0.
0.662996 0.0588051 0.
0.666855 0.0566945 0.
0.670828 0.0546177 0.
0.67488 0.0525574 0.
0.678904 0.0502572 0.
0.68293 0.0477608 0.
0.686779 0.0451678 0.
0.690645 0.042555 0.
0.694538 0.0399531 0.
0.698584 0.0375019 0.
0.702785 0.0350684 0.
0.707168 0.0327404 0.
0.711438 0.030286 0.
0.715648 0.0277647 0.
0.720073 0.0250898 0.
0.724479 0.0224705 0.
0.729614 0.0198283 0.
0.734567 0.0171835 0.
0.73991 0.0146607 0.
0.746497 0.0120453 0.
0.753778 0.0100415 0.
0.762989 0.00800193 0.
0.773877 0.00723701 0.
0.783803 0.00712968 0.
0.794824 0.00916401 0.
0.404558 0.00969722 0.
0.414467 0.00804534 0.
0.424279 0.00784623 0.
0.435349 0.00836019 0.
0.443856 0.0101184 0.
0.450816 0.0124133 0.
0.457101 0.0150704 0.
0.462165 0.0176534 0.
0.467236 0.0201369 0.
0.472211 0.022769 0.
0.47657 0.0253385 0.
0.481125 0.0279433 0.
0.48548 0.0304422 0.
0.489776 0.0329069 0.
0.493906 0.0353017 0.
0.497691 0.0376688 0.
0.501379 0.0401115 0.
0.505085 0.0425797 0.
0.509008 0.0450158 0.
0.513053 0.0474155 0.
0.517208 0.0497773 0.
0.521339 0.0521574 0.
0.525298 0.0546342 0.
0.529202 0.0569638 0.
0.533129 0.0590784 0.
0.537101 0.0609197 0.
0.540986 0.0628216 0.
0.544775 0.0647016 0.
0.548317 0.066295 0.
0.551664 0.0675855 0.
0.555031 0.0687706 0.
0.558035 0.0695661 0.
0.560973 0.0702373 0.
0.563504 0.0707432 0.
0.566093 0.0712717 0.
0.568433 0.0715205 0.
0.570765 0.0717594 0.
0.573039 0.0719861 0.
0.57522 0.0721866 0.
0.577404 0.0723886 0.
0.579511 0.0724768 0.
0.581609 0.0725571 0.
0.583698 0.0726295 0.
0.585747 0.0726684 0.
0.587796 0.0727075 0.
0.58984 0.0727397 0.
0.591878 0.0727655 0.
0.593917 0.0727914 0.
0.595951 0.072802 0.
0.597983 0.0728078 0.
0.600015 0.0728136 0.
0.60205 0.0727968 0.
0.604084 0.07278 0.
0.606122 0.0727591 0.
0.608168 0.0727257 0.
0.610213 0.0726925 0.
0.612266 0.0726532 0.
0.614325 0.0726077 0.
0.616385 0.0725623 0.
0.618497 0.0724622 0.
0.620618 0.0723524 0.
0.622759 0.0722276 0.
0.624992 0.0719852 0.
0.627217 0.0717474 0.
0.629536 0.0714978 0.
0.631891 0.0712497 0.
0.634336 0.0709013 0.
0.637034 0.0701639 0.
0.639729 0.0694501 0.
0.643028 0.0685615 0.
0.646406 0.0674754 0.
0.649935 0.0659644 0.
0.653479 0.0644397 0.
0.657164 0.0628285 0.
0.660953 0.0610077 0.
0.664769 0.0589666 0.
0.668701 0.056789 0.
0.672734 0.0547023 0.
0.676792 0.0525612 0.
0.680734 0.0501917 0.
0.684699 0.0476479 0.
0.688543 0.0450535 0.
0.692366 0.0424752 0.
0.696252 0.0399258 0.
0.700281 0.0375155 0.
0.704441 0.0351415 0.
0.70878 0.0328333 0.
0.712981 0.0303848 0.
0.717145 0.0278537 0.
0.721514 0.0251989 0.
0.725832 0.0226423 0.
0.730839 0.0200421 0.
0.735773 0.0174338 0.
0.74095 0.0149908 0.
0.747259 0.0124125 0.
0.754418 0.0104426 0.
0.763166 0.00843145 0.
0.773667 0.00776013 0.
0.783386 0.00763113 0.
0.793637 0.0094308 0.
0.405758 0.0100484 0.
0.415008 0.00855354 0.
0.4246 0.00833848 0.
0.435246 0.00882653 0.
0.443271 0.0105522 0.
0.45006 0.012801 0.
0.4561 0.0153982 0.
0.461036 0.0179477 0.
0.466048 0.0203948 0.
0.470884 0.0229611 0.
0.475184 0.0254961 0.
0.479625 0.0280454 0.
0.483912 0.0305254 0.
0.488162 0.0329788 0.
0.492241 0.0353703 0.
0.496013 0.0377245 0.
0.499685 0.040113 0.
0.503374 0.042557 0.
0.507235 0.0449875 0.
0.511253 0.0473696 0.
0.515377 0.0497409 0.
0.519509 0.0520883 0.
0.523457 0.0545384 0.
0.527338 0.0569573 0.
0.531271 0.0591814 0.
0.535276 0.0611361 0.
0.539238 0.0630713 0.
0.543124 0.0651004 0.
0.546772 0.0668621 0.
0.550363 0.0684633 0.
0.55385 0.0697952 0.
0.556967 0.0707158 0.
0.560079 0.0716035 0.
0.562812 0.0722353 0.
0.56555 0.072855 0.
0.568064 0.0732134 0.
0.570521 0.0735305 0.
0.572895 0.073824 0.
0.575098 0.0740501 0.
0.577305 0.0742783 0.
0.579431 0.074391 0.
0.581545 0.0744931 0.
0.583649 0.0745847 0.
0.585705 0.0746269 0.
0.587761 0.0746691 0.
0.589811 0.0747045 0.
0.591857 0.0747334 0.
0.593902 0.0747624 0.
0.595942 0.0747744 0.
0.59798 0.074781 0.
0.600019 0.0747875 0.
0.60206 0.0747684 0.
0.604101 0.0747493 0.
0.606145 0.0747255 0.
0.608197 0.074688 0.
0.610249 0.0746506 0.
0.61231 0.0746073 0.
0.614378 0.0745579 0.
0.616446 0.0745087 0.
0.618576 0.0743829 0.
0.620715 0.0742457 0.
0.622884 0.0740878 0.
0.625156 0.0738104 0.
0.627419 0.0735384 0.
0.629845 0.073226 0.
0.632314 0.0729111 0.
0.634982 0.072378 0.
0.637843 0.071496 0.
0.640798 0.0706006 0.
0.644095 0.0696704 0.
0.647726 0.0682918 0.
0.651391 0.0665859 0.
0.655115 0.0649081 0.
0.658858 0.0632051 0.
0.662697 0.0612496 0.
0.666566 0.0590435 0.
0.670576 0.0568525 0.
0.674646 0.0547493 0.
0.678666 0.0525215 0.
0.682589 0.0500785 0.
0.686471 0.0475329 0.
0.690283 0.0449563 0.
0.694084 0.0424073 0.
0.697951 0.0399336 0.
0.701958 0.0375613 0.
0.706088 0.0352425 0.
0.710367 0.0329436 0.
0.714492 0.0305009 0.
0.718569 0.02798 0.
0.722888 0.0253599 0.
0.727152 0.0228554 0.
0.73201 0.0202929 0.
0.736914 0.01774 0.
0.741925 0.0153568 0.
0.747951 0.0128283 0.
0.754927 0.0108887 0.
0.763219 0.00891177 0.
0.773281 0.0082598 0.
0.782907 0.00816838 0.
0.792459 0.0097735 0.
0.407105 0.0104971 0.
0.415693 0.00908421 0.
0.425208 0.00878652 0.
0.435291 0.00936075 0.
0.442874 0.0110613 0.
0.449477 0.013262 0.
0.455197 0.0157946 0.
0.459997 0.0182996 0.
0.464926 0.0207049 0.
0.469622 0.0232052 0.
0.473839 0.0256953 0.
0.478157 0.0281843 0.
0.482387 0.0306375 0.
0.486567 0.0330729 0.
0.490592 0.0354424 0.
0.494351 0.0378052 0.
0.498008 0.0401458 0.
0.501658 0.042545 0.
0.505486 0.0449631 0.
0.50946 0.0473338 0.
0.513544 0.0496904 0.
0.517648 0.0520239 0.
0.521609 0.0544153 0.
0.525464 0.056873 0.
0.529404 0.0591931 0.
0.533433 0.0613121 0.
0.537443 0.0632517 0.
0.541382 0.0653012 0.
0.545158 0.0672901 0.
0.548888 0.0691408 0.
0.552394 0.0705217 0.
0.555795 0.0717477 0.
0.559055 0.0728546 0.
0.562057 0.0736961 0.
0.56494 0.0743963 0.
0.567641 0.0748629 0.
0.570196 0.0752499 0.
0.572675 0.0756277 0.
0.574896 0.0758693 0.
0.577127 0.076113 0.
0.579289 0.0762591 0.
0.581436 0.0763956 0.
0.583575 0.0765203 0.
0.585641 0.0765661 0.
0.587708 0.076612 0.
0.58977 0.0766508 0.
0.591824 0.0766824 0.
0.593878 0.076714 0.
0.595928 0.0767272 0.
0.597976 0.0767343 0.
0.600025 0.0767412 0.
0.602076 0.0767204 0.
0.604126 0.0766996 0.
0.60618 0.0766732 0.
0.608241 0.0766316 0.
0.610303 0.0765901 0.
0.612376 0.0765416 0.
0.614459 0.0764865 0.
0.616541 0.0764318 0.
0.618705 0.0762687 0.
0.620874 0.0760964 0.
0.623087 0.0758984 0.
0.6254 0.0755932 0.
0.627692 0.0752965 0.
0.630214 0.0749216 0.
0.632779 0.0745473 0.
0.635708 0.0737897 0.
0.63873 0.0727668 0.
0.64205 0.0715964 0.
0.645501 0.0704508 0.
0.649229 0.0688469 0.
0.652983 0.0670448 0.
0.656814 0.0652905 0.
0.660647 0.0634561 0.
0.664507 0.0613371 0.
0.668409 0.0590604 0.
0.672465 0.0568931 0.
0.676553 0.0547533 0.
0.680523 0.0524472 0.
0.684413 0.0499529 0.
0.68826 0.0474081 0.
0.692027 0.0448719 0.
0.695803 0.0423628 0.
0.699654 0.0399571 0.
0.703632 0.0376328 0.
0.707725 0.0353581 0.
0.711923 0.033074 0.
0.715971 0.0306422 0.
0.719955 0.0281431 0.
0.724195 0.0255813 0.
0.728415 0.0231191 0.
0.733097 0.0205995 0.
0.737939 0.0181186 0.
0.742822 0.015778 0.
0.748547 0.013301 0.
0.755262 0.0113937 0.
0.763087 0.00946421 0.
0.772613 0.00873497 0.
0.782263 0.00873983 0.
0.791165 0.0101322 0.
0.408478 0.010968 0.
0.416575 0.00964864 0.
0.426103 0.00918936 0.
0.435463 0.0099705 0.
0.442627 0.0116328 0.
0.448993 0.0137846 0.
0.454378 0.0162585 0.
0.459019 0.0187026 0.
0.463864 0.0210617 0.
0.4684 0.0234956 0.
0.472516 0.0259322 0.
0.476736 0.028364 0.
0.480892 0.030776 0.
0.484977 0.0331824 0.
0.488954 0.0355279 0.
0.492687 0.0378892 0.
0.496315 0.0402014 0.
0.499954 0.0425496 0.
0.503737 0.0449433 0.
0.507666 0.0473121 0.
0.51171 0.0496414 0.
0.515783 0.0519645 0.
0.519752 0.0543125 0.
0.523611 0.0567578 0.
0.527555 0.0591679 0.
0.531578 0.0614061 0.
0.53561 0.0634013 0.
0.539602 0.0654407 0.
0.543458 0.0675859 0.
0.547221 0.0695421 0.
0.550876 0.0711452 0.
0.554518 0.0726225 0.
0.557926 0.07393 0.
0.561178 0.0749832 0.
0.564162 0.0757087 0.
0.56706 0.0763246 0.
0.569727 0.076856 0.
0.572366 0.0773967 0.
0.574631 0.0776588 0.
0.576907 0.0779234 0.
0.579121 0.0781092 0.
0.581312 0.0782871 0.
0.583495 0.0784519 0.
0.585573 0.078502 0.
0.587653 0.0785523 0.
0.589726 0.0785948 0.
0.591789 0.0786293 0.
0.593854 0.0786638 0.
0.595914 0.0786782 0.
0.597972 0.0786858 0.
0.600031 0.0786933 0.
0.602092 0.0786706 0.
0.604153 0.078648 0.
0.606216 0.0786189 0.
0.608288 0.0785728 0.
0.610359 0.0785268 0.
0.612448 0.0784721 0.
0.614548 0.0784102 0.
0.616646 0.0783487 0.
0.618855 0.0781394 0.
0.621066 0.0779236 0.
0.623349 0.0776736 0.
0.625737 0.077328 0.
0.628118 0.0769864 0.
0.630862 0.0764418 0.
0.633542 0.0759492 0.
0.636621 0.0749686 0.
0.63974 0.0738856 0.
0.643385 0.0724602 0.
0.647059 0.0710106 0.
0.650827 0.0692552 0.
0.654686 0.0673778 0.
0.658588 0.065579 0.
0.662458 0.0636183 0.
0.666336 0.0613489 0.
0.670279 0.0590704 0.
0.674368 0.0569235 0.
0.678438 0.0547226 0.
0.682378 0.0523396 0.
0.686221 0.0498303 0.
0.690041 0.0472959 0.
0.693787 0.0447908 0.
0.697538 0.0423438 0.
0.701358 0.0399968 0.
0.705306 0.037719 0.
0.709365 0.0354763 0.
0.713481 0.0332086 0.
0.71744 0.030798 0.
0.721338 0.0283346 0.
0.725454 0.0258533 0.
0.729603 0.0234345 0.
0.734107 0.0209627 0.
0.738877 0.0185593 0.
0.74364 0.0162613 0.
0.749033 0.0138371 0.
0.755482 0.0119538 0.
0.762832 0.0100864 0.
0.771729 0.00918188 0.
0.781362 0.00934208 0.
0.789791 0.0104883 0.
0.409828 0.0114227 0.
0.417628 0.0102329 0.
0.427105 0.00958875 0.
0.43565 0.0106243 0.
0.442459 0.0122454 0.
0.448511 0.0143507 0.
0.453565 0.0167601 0.
0.458092 0.0191438 0.
0.462822 0.0214523 0.
0.467182 0.0238124 0.
0.471192 0.0261895 0.
0.475313 0.0285654 0.
0.479392 0.0309288 0.
0.483381 0.0332947 0.
0.487297 0.0356166 0.
0.491002 0.0379516 0.
0.494612 0.0402692 0.
0.498246 0.0425714 0.
0.502005 0.0449394 0.
0.505895 0.0473024 0.
0.509881 0.0496045 0.
0.513923 0.0519124 0.
0.517912 0.0542353 0.
0.521789 0.0566353 0.
0.525721 0.0590999 0.
0.529728 0.0614251 0.
0.533762 0.0635389 0.
0.537789 0.0655415 0.
0.541693 0.0677138 0.
0.545512 0.0698156 0.
0.549299 0.0716698 0.
0.553045 0.0732762 0.
0.556631 0.0747556 0.
0.560081 0.0760696 0.
0.563283 0.0769447 0.
0.566439 0.0777401 0.
0.569225 0.0784231 0.
0.572047 0.0791595 0.
0.574362 0.0794442 0.
0.576684 0.0797279 0.
0.57895 0.079949 0.
0.581183 0.0801666 0.
0.58341 0.0803773 0.
0.585502 0.0804316 0.
0.587595 0.0804863 0.
0.58968 0.0805326 0.
0.591754 0.0805696 0.
0.593828 0.0806066 0.
0.595898 0.080622 0.
0.597968 0.08063 0.
0.600037 0.0806377 0.
0.602109 0.0806136 0.
0.604181 0.0805895 0.
0.606255 0.080558 0.
0.608336 0.0805079 0.
0.610417 0.080458 0.
0.612522 0.0803957 0.
0.614639 0.0803254 0.
0.616758 0.080254 0.
0.619011 0.0799998 0.
0.62126 0.0797434 0.
0.623622 0.0794403 0.
0.626087 0.0790545 0.
0.628621 0.0786359 0.
0.631581 0.0779119 0.
0.634532 0.0771466 0.
0.637808 0.0758954 0.
0.64112 0.0746365 0.
0.644833 0.0731426 0.
0.648655 0.0714415 0.
0.652477 0.0695519 0.
0.65643 0.0676548 0.
0.660383 0.0657815 0.
0.66427 0.0636589 0.
0.668145 0.061326 0.
0.672154 0.0590792 0.
0.676266 0.0569275 0.
0.680311 0.0546624 0.
0.684207 0.0522228 0.
0.688027 0.049712 0.
0.69181 0.0472046 0.
0.695544 0.0447255 0.
0.699293 0.0423407 0.
0.703092 0.0400484 0.
0.706995 0.0378232 0.
0.711009 0.0356008 0.
0.715051 0.0333391 0.
0.718926 0.0309527 0.
0.722749 0.0285362 0.
0.726719 0.0261492 0.
0.730769 0.0237768 0.
0.735112 0.0213634 0.
0.739764 0.019044 0.
0.744399 0.0167884 0.
0.749498 0.014415 0.
0.755642 0.012559 0.
0.762584 0.0107472 0.
0.770805 0.00963326 0.
0.780286 0.00994717 0.
0.78839 0.0108511 0.
0.411129 0.0118728 0.
0.418793 0.0107922 0.
0.428028 0.0100501 0.
0.435796 0.0113023 0.
0.442292 0.0128967 0.
0.448003 0.0149536 0.
0.452732 0.0172841 0.
0.457185 0.0196171 0.
0.461743 0.021859 0.
0.465925 0.0241377 0.
0.469849 0.0264603 0.
0.473856 0.0287754 0.
0.477859 0.0310852 0.
0.481759 0.0334102 0.
0.485604 0.0357032 0.
0.489293 0.0380053 0.
0.492901 0.0403351 0.
0.49653 0.0426171 0.
0.500284 0.0449479 0.
0.50413 0.0472951 0.
0.508063 0.0495916 0.
0.512075 0.0518682 0.
0.516071 0.0541728 0.
0.519978 0.0565444 0.
0.523909 0.0590152 0.
0.527898 0.0614102 0.
0.53191 0.0636292 0.
0.535953 0.0656413 0.
0.539926 0.0677735 0.
0.543794 0.0700109 0.
0.547612 0.0720217 0.
0.55145 0.0737759 0.
0.555235 0.0754361 0.
0.558823 0.0769713 0.
0.562325 0.0781183 0.
0.56573 0.0790683 0.
0.568607 0.0798681 0.
0.571469 0.0807092 0.
0.57394 0.081087 0.
0.576388 0.0814174 0.
0.578757 0.0817113 0.
0.581033 0.0819992 0.
0.583313 0.0822855 0.
0.585422 0.0823463 0.
0.587531 0.0824074 0.
0.589631 0.0824588 0.
0.591715 0.0824983 0.
0.593799 0.0825378 0.
0.595882 0.0825539 0.
0.597963 0.0825619 0.
0.600044 0.0825695 0.
0.602128 0.0825441 0.
0.604212 0.0825187 0.
0.606298 0.082485 0.
0.608388 0.0824315 0.
0.610478 0.0823781 0.
0.612603 0.0823009 0.
0.614743 0.0822114 0.
0.616896 0.0821116 0.
0.619239 0.0817752 0.
0.62156 0.0814488 0.
0.624054 0.0810612 0.
0.62661 0.0806325 0.
0.629321 0.0801125 0.
0.632384 0.0792967 0.
0.635639 0.0781801 0.
0.639072 0.0767184 0.
0.642687 0.0751894 0.
0.646445 0.0736097 0.
0.650313 0.0717596 0.
0.654197 0.0697787 0.
0.658207 0.067897 0.
0.662171 0.0659238 0.
0.666061 0.0636534 0.
0.669966 0.0613059 0.
0.674008 0.0591045 0.
0.678123 0.0569141 0.
0.682167 0.0545737 0.
0.686034 0.052103 0.
0.689828 0.0496065 0.
0.693588 0.0471205 0.
0.697309 0.0446871 0.
0.701059 0.0423527 0.
0.704857 0.0401034 0.
0.70872 0.0379217 0.
0.712668 0.0357259 0.
0.716641 0.0334665 0.
0.720441 0.0311053 0.
0.724205 0.0287465 0.
0.728048 0.0264454 0.
0.731972 0.0241238 0.
0.736148 0.0217827 0.
0.740636 0.0195605 0.
0.74514 0.0173471 0.
0.749991 0.0150236 0.
0.755796 0.0132012 0.
0.762361 0.0114402 0.
0.76995 0.0101277 0.
0.779107 0.0105245 0.
0.78702 0.0112695 0.
0.41244 0.0123348 0.
0.420107 0.0112925 0.
0.4289 0.0105979 0.
0.435989 0.0120314 0.
0.442154 0.0136003 0.
0.44747 0.0155993 0.
0.451962 0.0178628 0.
0.456291 0.0201328 0.
0.460631 0.022294 0.
0.464667 0.0244949 0.
0.468504 0.0267609 0.
0.472396 0.0290112 0.
0.476314 0.0312592 0.
0.480125 0.0335362 0.
0.483908 0.0358014 0.
0.487595 0.0380802 0.
0.491211 0.0404 0.
0.494833 0.0426874 0.
0.498565 0.0449776 0.
0.502369 0.0472995 0.
0.50627 0.0495984 0.
0.510253 0.0518479 0.
0.514254 0.0541332 0.
0.51819 0.0564848 0.
0.522118 0.0589188 0.
0.526094 0.0613668 0.
0.530077 0.06366 0.
0.534119 0.0657503 0.
0.538149 0.067815 0.
0.542052 0.0700982 0.
0.545896 0.0722484 0.
0.549781 0.074165 0.
0.553698 0.0759186 0.
0.557424 0.077682 0.
0.561187 0.0791484 0.
0.56464 0.0801233 0.
0.5677 0.0810564 0.
0.570694 0.0820867 0.
0.57343 0.0826782 0.
0.576052 0.0830862 0.
0.578558 0.0834665 0.
0.580879 0.0838255 0.
0.58321 0.0841892 0.
0.58534 0.0842607 0.
0.587467 0.0843282 0.
0.589582 0.084385 0.
0.591676 0.0844269 0.
0.593771 0.0844688 0.
0.595865 0.0844858 0.
0.597958 0.0844938 0.
0.600051 0.0845014 0.
0.602148 0.0844746 0.
0.604244 0.0844479 0.
0.606341 0.0844119 0.
0.608441 0.0843549 0.
0.61054 0.0842981 0.
0.612686 0.0842049 0.
0.614848 0.0840959 0.
0.617044 0.0839615 0.
0.619481 0.0835409 0.
0.621888 0.0831352 0.
0.624583 0.0826239 0.
0.627315 0.0820979 0.
0.630328 0.0813309 0.
0.633461 0.0803895 0.
0.636929 0.0789653 0.
0.640518 0.0773399 0.
0.644314 0.0756579 0.
0.648142 0.0739195 0.
0.65202 0.0719638 0.
0.655955 0.0699673 0.
0.659983 0.0680706 0.
0.663961 0.0659636 0.
0.667837 0.0636199 0.
0.671774 0.0613162 0.
0.675832 0.0591394 0.
0.67994 0.0568938 0.
0.683972 0.0544867 0.
0.687838 0.0519915 0.
0.691617 0.0495175 0.
0.695347 0.047062 0.
0.699067 0.0446814 0.
0.702816 0.0423941 0.
0.706618 0.0401821 0.
0.710453 0.0380263 0.
0.714329 0.0358562 0.
0.718224 0.03361 0.
0.721964 0.0312787 0.
0.725678 0.0289825 0.
0.72942 0.0267519 0.
0.733199 0.0244891 0.
0.737197 0.0222335 0.
0.741493 0.0201147 0.
0.745854 0.0179519 0.
0.75046 0.0156892 0.
0.755913 0.0138955 0.
0.762108 0.0121864 0.
0.769113 0.0106946 0.
0.777786 0.0110625 0.
0.785622 0.0117388 0.
0.413895 0.0127918 0.
0.421637 0.0117174 0.
0.429814 0.0112573 0.
0.436295 0.0128358 0.
0.442052 0.0143718 0.
0.446961 0.0163162 0.
0.451245 0.018506 0.
0.455398 0.0206899 0.
0.459508 0.0227653 0.
0.463419 0.0248913 0.
0.467156 0.027091 0.
0.470941 0.0292781 0.
0.474768 0.0314646 0.
0.478501 0.0336884 0.
0.482219 0.0359201 0.
0.485907 0.0381728 0.
0.48953 0.0404694 0.
0.493143 0.0427733 0.
0.496845 0.0450304 0.
0.50062 0.0473155 0.
0.50449 0.0496097 0.
0.508457 0.0518588 0.
0.512454 0.0541139 0.
0.516408 0.0564386 0.
0.520343 0.0588404 0.
0.524296 0.0613036 0.
0.528257 0.0636615 0.
0.532291 0.0658477 0.
0.536354 0.0678759 0.
0.540305 0.0701162 0.
0.544171 0.0723929 0.
0.548073 0.0744477 0.
0.552082 0.0762853 0.
0.555951 0.0782047 0.
0.55981 0.0799152 0.
0.563371 0.0810172 0.
0.566729 0.0821623 0.
0.569847 0.0833736 0.
0.572859 0.0842374 0.
0.575638 0.0847173 0.
0.57828 0.0851784 0.
0.580631 0.0855905 0.
0.583017 0.0860155 0.
0.585202 0.0861237 0.
0.587371 0.0862136 0.
0.589522 0.0862875 0.
0.591629 0.0863303 0.
0.593737 0.0863731 0.
0.595845 0.0863901 0.
0.597952 0.0863976 0.
0.60006 0.0864046 0.
0.602171 0.0863769 0.
0.604281 0.0863492 0.
0.606393 0.0863118 0.
0.608508 0.0862533 0.
0.610623 0.086195 0.
0.612812 0.0860722 0.
0.61502 0.0859297 0.
0.61729 0.0857348 0.
0.619799 0.0852426 0.
0.622263 0.0847884 0.
0.625186 0.0841469 0.
0.628099 0.0835154 0.
0.631409 0.0824538 0.
0.634721 0.0812399 0.
0.638348 0.0795454 0.
0.642092 0.077783 0.
0.645962 0.0760367 0.
0.649845 0.074155 0.
0.65376 0.072127 0.
0.657735 0.070165 0.
0.661756 0.0682002 0.
0.665738 0.0659462 0.
0.669635 0.0635787 0.
0.673584 0.0613381 0.
0.677633 0.0591612 0.
0.681731 0.0568623 0.
0.685746 0.0544083 0.
0.689603 0.0519097 0.
0.69339 0.0494514 0.
0.697101 0.0470309 0.
0.700818 0.0447021 0.
0.704568 0.0424556 0.
0.708375 0.0402801 0.
0.71218 0.0381492 0.
0.716 0.0359902 0.
0.719813 0.0337601 0.
0.723485 0.0314814 0.
0.727145 0.0292608 0.
0.730796 0.0270875 0.
0.734445 0.0248794 0.
0.738275 0.0227254 0.
0.742352 0.02071 0.
0.746522 0.0186119 0.
0.750893 0.0164229 0.
0.75595 0.0146621 0.
0.761775 0.0130042 0.
0.768209 0.0113748 0.
0.776218 0.0115512 0.
0.78408 0.0122391 0.
0.415593 0.0132245 0.
0.423332 0.0121001 0.
0.430712 0.0120654 0.
0.436618 0.0137076 0.
0.441951 0.0152132 0.
0.446463 0.0170995 0.
0.450518 0.0191901 0.
0.454472 0.021281 0.
0.458375 0.0232753 0.
0.46215 0.0253126 0.
0.465794 0.0274429 0.
0.469488 0.0295758 0.
0.47321 0.0316952 0.
0.476869 0.0338608 0.
0.480539 0.0360542 0.
0.484216 0.0382741 0.
0.487837 0.0405447 0.
0.49143 0.0428408 0.
0.495111 0.0450938 0.
0.498874 0.0473427 0.
0.502729 0.0496318 0.
0.506672 0.0518848 0.
0.51066 0.0541112 0.
0.514635 0.05641 0.
0.518576 0.0587893 0.
0.522507 0.061227 0.
0.526462 0.0636389 0.
0.530485 0.0658994 0.
0.534561 0.0679679 0.
0.538573 0.0701235 0.
0.542461 0.0724721 0.
0.546391 0.0746471 0.
0.550444 0.0765836 0.
0.554426 0.0785811 0.
0.558287 0.0804389 0.
0.562034 0.0818193 0.
0.565654 0.0831116 0.
0.568886 0.0844334 0.
0.572079 0.0855573 0.
0.57496 0.0861556 0.
0.577824 0.0868075 0.
0.58027 0.0872906 0.
0.582758 0.087792 0.
0.585031 0.0879601 0.
0.587258 0.0880839 0.
0.589457 0.0881837 0.
0.59158 0.0882274 0.
0.593702 0.088271 0.
0.595824 0.088288 0.
0.597946 0.0882949 0.
0.600069 0.0883013 0.
0.602195 0.0882722 0.
0.60432 0.0882432 0.
0.606449 0.0882039 0.
0.608583 0.0881438 0.
0.610716 0.0880837 0.
0.61297 0.0879178 0.
0.615247 0.0877269 0.
0.617642 0.0874282 0.
0.620275 0.0868116 0.
0.622912 0.086211 0.
0.625982 0.0854493 0.
0.629073 0.0847042 0.
0.632542 0.0834421 0.
0.636096 0.0818461 0.
0.63982 0.079997 0.
0.643709 0.0781486 0.
0.647619 0.0763341 0.
0.651527 0.0743336 0.
0.655473 0.0722831 0.
0.659492 0.0703399 0.
0.663524 0.0682578 0.
0.667504 0.0659113 0.
0.671432 0.0635704 0.
0.675401 0.0613732 0.
0.67944 0.0591644 0.
0.683503 0.056812 0.
0.68749 0.054337 0.
0.69136 0.0518464 0.
0.695149 0.0494028 0.
0.698862 0.0470236 0.
0.702576 0.0447391 0.
0.706325 0.042533 0.
0.710132 0.0403856 0.
0.713921 0.038275 0.
0.717687 0.0361286 0.
0.721413 0.0339208 0.
0.725029 0.0317062 0.
0.728622 0.0295696 0.
0.73217 0.0274504 0.
0.735712 0.025296 0.
0.739405 0.0232474 0.
0.743269 0.0213329 0.
0.7472 0.0193081 0.
0.75134 0.0172125 0.
0.755974 0.0155015 0.
0.761357 0.0138975 0.
0.76729 0.0121973 0.
0.7745 0.012026 0.
0.782307 0.0127457 0.
0.417498 0.0136227 0.
0.424983 0.0125302 0.
0.431489 0.0130097 0.
0.436876 0.0146296 0.
0.441729 0.0161 0.
0.445876 0.0179004 0.
0.449713 0.019882 0.
0.453454 0.0218787 0.
0.457158 0.0237904 0.
0.460814 0.0257378 0.
0.464378 0.0277979 0.
0.467986 0.0298796 0.
0.471608 0.0319341 0.
0.475206 0.0340369 0.
0.478834 0.036191 0.
0.482502 0.0383815 0.
0.486111 0.0406168 0.
0.489686 0.0428894 0.
0.493359 0.0451629 0.
0.49713 0.0473992 0.
0.500978 0.0496684 0.
0.504905 0.0519257 0.
0.508887 0.0541429 0.
0.512871 0.0564048 0.
0.516827 0.0587621 0.
0.520755 0.0611683 0.
0.5247 0.0636039 0.
0.528711 0.065937 0.
0.532796 0.0680895 0.
0.536871 0.0701804 0.
0.540786 0.0725119 0.
0.544732 0.0748013 0.
0.548796 0.0768446 0.
0.552856 0.078839 0.
0.556763 0.0808449 0.
0.560636 0.0825133 0.
0.564399 0.0838882 0.
0.567776 0.0852818 0.
0.571137 0.0866784 0.
0.574224 0.0875246 0.
0.57732 0.0884028 0.
0.579891 0.0889754 0.
0.582486 0.0895536 0.
0.584858 0.089789 0.
0.587144 0.0899464 0.
0.589394 0.0900753 0.
0.591531 0.0901194 0.
0.593668 0.0901635 0.
0.595805 0.0901804 0.
0.597941 0.0901867 0.
0.600078 0.0901925 0.
0.602218 0.0901622 0.
0.604359 0.090132 0.
0.606504 0.0900912 0.
0.608656 0.0900299 0.
0.610807 0.089969 0.
0.613131 0.0897558 0.
0.615479 0.0895156 0.
0.618019 0.0890922 0.
0.62078 0.0883481 0.
0.623655 0.0875459 0.
0.626879 0.0866021 0.
0.630233 0.0855784 0.
0.633746 0.0842618 0.
0.637522 0.0823127 0.
0.64136 0.0803247 0.
0.645333 0.0784634 0.
0.649264 0.0765759 0.
0.653189 0.0744972 0.
0.657177 0.072469 0.
0.661215 0.0704962 0.
0.665248 0.0682804 0.
0.669246 0.0658829 0.
0.673216 0.0635895 0.
0.677202 0.0614115 0.
0.681226 0.0591637 0.
0.685261 0.0567649 0.
0.689223 0.0542754 0.
0.693103 0.0518005 0.
0.696905 0.0493757 0.
0.700629 0.0470378 0.
0.704343 0.0447969 0.
0.7081 0.0426222 0.
0.711909 0.0405011 0.
0.715681 0.0383984 0.
0.719402 0.0362602 0.
0.72306 0.0340816 0.
0.72663 0.0319387 0.
0.730158 0.0298756 0.
0.733604 0.0278084 0.
0.737038 0.0257258 0.
0.740617 0.0237776 0.
0.744306 0.0219485 0.
0.748005 0.0200034 0.
0.751883 0.0180226 0.
0.756151 0.016374 0.
0.761021 0.0148383 0.
0.76645 0.0131556 0.
0.772843 0.0125569 0.
0.780342 0.0132278 0.
0.419434 0.0139931 0.
0.426363 0.0131318 0.
0.432048 0.0140328 0.
0.436929 0.015588 0.
0.441269 0.016995 0.
0.445104 0.0186876 0.
0.44874 0.0205549 0.
0.452264 0.0224484 0.
0.455796 0.0242852 0.
0.459352 0.0261485 0.
0.462865 0.0281295 0.
0.466387 0.0301632 0.
0.469913 0.0321661 0.
0.473466 0.0342102 0.
0.477076 0.0363266 0.
0.480732 0.0384861 0.
0.484335 0.0406847 0.
0.487913 0.0429355 0.
0.491593 0.0452229 0.
0.495375 0.0474732 0.
0.499237 0.0497212 0.
0.503162 0.0519833 0.
0.507137 0.0542035 0.
0.51112 0.0564294 0.
0.515093 0.0587614 0.
0.519029 0.0611493 0.
0.522974 0.0635774 0.
0.526991 0.0659768 0.
0.531084 0.0682043 0.
0.535195 0.0702935 0.
0.539156 0.0725536 0.
0.543111 0.0749286 0.
0.547175 0.0770617 0.
0.551284 0.0790688 0.
0.555264 0.0811948 0.
0.559162 0.0830814 0.
0.562998 0.0845326 0.
0.566611 0.0860467 0.
0.570103 0.0876314 0.
0.573466 0.0888189 0.
0.576705 0.0898411 0.
0.579424 0.090494 0.
0.582084 0.0911043 0.
0.584589 0.0914621 0.
0.58698 0.0917238 0.
0.589332 0.0919462 0.
0.591484 0.0919911 0.
0.593636 0.092036 0.
0.595787 0.092053 0.
0.597938 0.0920591 0.
0.600089 0.0920645 0.
0.602243 0.0920324 0.
0.604396 0.0920004 0.
0.606557 0.0919555 0.
0.608728 0.091888 0.
0.610897 0.091821 0.
0.613363 0.0914886 0.
0.615828 0.0911458 0.
0.618513 0.0905678 0.
0.621321 0.0897769 0.
0.624435 0.0887834 0.
0.627805 0.0876823 0.
0.631434 0.0863573 0.
0.635092 0.0848099 0.
0.638965 0.0826796 0.
0.642907 0.0806338 0.
0.646936 0.0787654 0.
0.650873 0.0767833 0.
0.654821 0.0746694 0.
0.658849 0.0726738 0.
0.662898 0.0706243 0.
0.666933 0.0682962 0.
0.670952 0.0659 0.
0.674969 0.0636477 0.
0.678975 0.0614537 0.
0.682984 0.0591589 0.
0.686999 0.0567338 0.
0.690959 0.0542341 0.
0.694845 0.0517716 0.
0.698661 0.0493742 0.
0.702408 0.0470751 0.
0.706129 0.044871 0.
0.709907 0.0427174 0.
0.713719 0.0406186 0.
0.717474 0.0385187 0.
0.721156 0.0363869 0.
0.72477 0.0342449 0.
0.728316 0.0321707 0.
0.731791 0.0301634 0.
0.735158 0.0281383 0.
0.738499 0.026142 0.
0.741959 0.0243017 0.
0.745517 0.0225305 0.
0.74902 0.0206594 0.
0.752641 0.0188177 0.
0.756574 0.0172516 0.
0.760946 0.0157904 0.
0.765823 0.0141854 0.
0.771476 0.0132267 0.
0.778356 0.0137064 0.
0.421226 0.0144233 0.
0.42736 0.0139508 0.
0.432324 0.0150994 0.
0.43665 0.0165634 0.
0.440535 0.0178866 0.
0.444128 0.019459 0.
0.447547 0.0212038 0.
0.450911 0.0229988 0.
0.454319 0.024771 0.
0.457788 0.0265608 0.
0.461259 0.0284571 0.
0.464709 0.0304465 0.
0.46817 0.0324211 0.
0.47171 0.0344163 0.
0.475307 0.0364965 0.
0.478947 0.0386229 0.
0.482566 0.0407927 0.
0.486164 0.0430207 0.
0.489869 0.0453118 0.
0.493671 0.0475968 0.
0.497553 0.0498349 0.
0.501473 0.052086 0.
0.505433 0.0543074 0.
0.509409 0.0565106 0.
0.513394 0.0588036 0.
0.517353 0.0611799 0.
0.521314 0.0635878 0.
0.525343 0.066029 0.
0.529443 0.068331 0.
0.533564 0.0704696 0.
0.537575 0.0726385 0.
0.54154 0.0750377 0.
0.545617 0.0772695 0.
0.549754 0.0793103 0.
0.553795 0.0814634 0.
0.557696 0.083508 0.
0.561584 0.0851209 0.
0.565365 0.0866999 0.
0.569008 0.0884388 0.
0.572598 0.0898976 0.
0.575877 0.0910069 0.
0.578841 0.0918867 0.
0.581623 0.0925988 0.
0.584297 0.0931141 0.
0.586806 0.0934907 0.
0.58927 0.093817 0.
0.591436 0.0938627 0.
0.593604 0.0939084 0.
0.59577 0.0939257 0.
0.597935 0.0939315 0.
0.6001 0.0939366 0.
0.602267 0.0939026 0.
0.604434 0.0938687 0.
0.606611 0.0938194 0.
0.6088 0.0937458 0.
0.610988 0.0936726 0.
0.613624 0.0931974 0.
0.616237 0.0927238 0.
0.61912 0.0919232 0.
0.622015 0.0910137 0.
0.625317 0.0898084 0.
0.628813 0.0885948 0.
0.632652 0.0870574 0.
0.636461 0.0851995 0.
0.64039 0.082978 0.
0.644415 0.080942 0.
0.648474 0.0790568 0.
0.652429 0.0769761 0.
0.656405 0.0748755 0.
0.660464 0.0728875 0.
0.664513 0.0707358 0.
0.668556 0.0683368 0.
0.672611 0.0659695 0.
0.676667 0.0637478 0.
0.680685 0.0615247 0.
0.68468 0.0591853 0.
0.688682 0.05674 0.
0.692649 0.0542387 0.
0.696554 0.0517915 0.
0.700385 0.0494246 0.
0.704155 0.0471645 0.
0.707892 0.0449927 0.
0.711689 0.0428618 0.
0.715504 0.0407678 0.
0.719245 0.0386672 0.
0.722901 0.0365425 0.
0.726504 0.0344438 0.
0.730041 0.032428 0.
0.733475 0.0304551 0.
0.736796 0.0284655 0.
0.740088 0.0265568 0.
0.74345 0.0248158 0.
0.746871 0.0230863 0.
0.750239 0.0212858 0.
0.753654 0.0195992 0.
0.757281 0.0181282 0.
0.76123 0.0167403 0.
0.765544 0.0152324 0.
0.770491 0.0140844 0.
0.776573 0.0142507 0.
0.42266 0.015007 0.
0.427925 0.0149509 0.
0.432213 0.0161769 0.
0.435998 0.0175437 0.
0.439538 0.0187876 0.
0.442929 0.0202278 0.
0.44618 0.021852 0.
0.449441 0.0235562 0.
0.452777 0.0252815 0.
0.456174 0.0270112 0.
0.459604 0.0288278 0.
0.463031 0.0307754 0.
0.466468 0.032735 0.
0.47001 0.0346993 0.
0.473589 0.0367421 0.
0.477219 0.0388275 0.
0.480866 0.0409798 0.
0.484501 0.0431884 0.
0.488237 0.0454737 0.
0.492063 0.0477829 0.
0.495966 0.0500294 0.
0.499887 0.0522568 0.
0.503821 0.0544728 0.
0.507787 0.0566665 0.
0.511785 0.0589202 0.
0.515778 0.0612857 0.
0.519749 0.0636799 0.
0.523799 0.066127 0.
0.527901 0.0685049 0.
0.532005 0.0706994 0.
0.53605 0.0728024 0.
0.540051 0.0751603 0.
0.544152 0.0775006 0.
0.548289 0.0795885 0.
0.552383 0.0817132 0.
0.556304 0.0838913 0.
0.56021 0.0856727 0.
0.564086 0.0872734 0.
0.567879 0.0891033 0.
0.571641 0.0908273 0.
0.575013 0.0920982 0.
0.578232 0.0932411 0.
0.58114 0.0940529 0.
0.583997 0.094734 0.
0.586618 0.0952161 0.
0.589202 0.0956658 0.
0.591386 0.095712 0.
0.59357 0.0957583 0.
0.595751 0.095776 0.
0.597931 0.0957819 0.
0.600111 0.0957869 0.
0.602293 0.0957519 0.
0.604475 0.0957169 0.
0.60667 0.0956634 0.
0.608877 0.0955835 0.
0.611083 0.0955043 0.
0.613895 0.0948722 0.
0.616665 0.0942704 0.
0.619748 0.093232 0.
0.622767 0.0921644 0.
0.626252 0.0906956 0.
0.629897 0.0893377 0.
0.633859 0.0876712 0.
0.637764 0.0855368 0.
0.64175 0.0832788 0.
0.64585 0.0812873 0.
0.649929 0.0793507 0.
0.65391 0.0772095 0.
0.657909 0.0751508 0.
0.661988 0.0731261 0.
0.666044 0.0708679 0.
0.670089 0.06844 0.
0.674174 0.066113 0.
0.678273 0.0638951 0.
0.682304 0.0616404 0.
0.686269 0.0592827 0.
0.690261 0.0568199 0.
0.694256 0.0543115 0.
0.698186 0.0518878 0.
0.702037 0.049555 0.
0.705828 0.0473356 0.
0.709576 0.0451907 0.
0.713385 0.0430816 0.
0.717204 0.040988 0.
0.720945 0.0388843 0.
0.724585 0.0367721 0.
0.72819 0.0347165 0.
0.73174 0.0327455 0.
0.735152 0.0307925 0.
0.738457 0.0288394 0.
0.741737 0.0270206 0.
0.745032 0.0253486 0.
0.748343 0.0236438 0.
0.751615 0.0219269 0.
0.754889 0.0203848 0.
0.758287 0.0190042 0.
0.761879 0.0176792 0.
0.765707 0.0162674 0.
0.769989 0.0150757 0.
0.77523 0.0149398 0.
0.423584 0.015801 0.
0.428031 0.0160582 0.
0.431686 0.0172718 0.
0.435046 0.0185565 0.
0.438331 0.0197221 0.
0.441565 0.0210292 0.
0.444724 0.0225428 0.
0.447925 0.0241698 0.
0.451207 0.0258519 0.
0.454559 0.0275416 0.
0.457981 0.0293038 0.
0.461436 0.0312088 0.
0.46489 0.0331579 0.
0.468431 0.0351004 0.
0.471984 0.0370993 0.
0.475619 0.0391385 0.
0.479303 0.0412856 0.
0.48298 0.0434803 0.
0.48674 0.0457401 0.
0.490587 0.0480582 0.
0.494517 0.0503184 0.
0.498445 0.0525214 0.
0.502354 0.0547329 0.
0.506317 0.0569216 0.
0.510332 0.0591426 0.
0.514357 0.0614877 0.
0.518348 0.0638835 0.
0.522408 0.06632 0.
0.526497 0.0687534 0.
0.530575 0.0709927 0.
0.534657 0.0730818 0.
0.538699 0.0753566 0.
0.542822 0.0777799 0.
0.546973 0.0799397 0.
0.551105 0.0820413 0.
0.555063 0.0843075 0.
0.558955 0.0862116 0.
0.562881 0.087858 0.
0.566826 0.0897316 0.
0.570675 0.091619 0.
0.574207 0.0931433 0.
0.577696 0.0945363 0.
0.580714 0.0953916 0.
0.583666 0.096213 0.
0.586401 0.0968626 0.
0.589125 0.0974964 0.
0.591329 0.0975447 0.
0.593533 0.0975931 0.
0.595732 0.0976117 0.
0.597928 0.0976178 0.
0.600124 0.0976228 0.
0.602322 0.0975865 0.
0.60452 0.0975502 0.
0.606735 0.0974909 0.
0.608964 0.0974023 0.
0.61121 0.0972967 0.
0.614202 0.0963681 0.
0.617088 0.0955912 0.
0.620263 0.0944895 0.
0.623499 0.0931967 0.
0.627125 0.0915381 0.
0.63091 0.090003 0.
0.63495 0.0882124 0.
0.638927 0.0859095 0.
0.642971 0.0836481 0.
0.647139 0.0816888 0.
0.651244 0.0796845 0.
0.655249 0.0775223 0.
0.659274 0.0754918 0.
0.663366 0.0734016 0.
0.66742 0.0710778 0.
0.671482 0.068642 0.
0.67559 0.0663522 0.
0.679724 0.0641252 0.
0.683766 0.0618447 0.
0.6877 0.0594766 0.
0.69168 0.0570016 0.
0.695708 0.0544949 0.
0.699684 0.0520976 0.
0.703555 0.0498012 0.
0.707364 0.0476131 0.
0.711129 0.0454898 0.
0.714945 0.0434002 0.
0.718761 0.0413102 0.
0.722513 0.0392152 0.
0.726157 0.0371189 0.
0.729758 0.0351005 0.
0.73334 0.0331586 0.
0.736778 0.0312218 0.
0.740089 0.0293109 0.
0.743366 0.027576 0.
0.746633 0.0259471 0.
0.74988 0.0242613 0.
0.753098 0.0226403 0.
0.756275 0.0212157 0.
0.759512 0.019916 0.
0.762839 0.0186341 0.
0.766294 0.0173004 0.
0.769974 0.0161498 0.
0.774398 0.0157881 0.
CELLS 5000 10000
1 0
1 1
1 2
1 3
1 4
1 5
1 6
1 7
1 8
1 9
1 10
1 11
1 12
1 13
1 14
1 15
1 16
1 17
1 18
1 19
1 20
1 21
1 22
1 23
1 24
1 25
1 26
1 27
1 28
1 29
1 30
1 31
1 32
1 33
1 34
1 35
1 36
1 37
1 38
1 39
1 40
1 41
1 42
1 43
1 44
1 45
1 46
1 47
1 48
1 49
1 50
1 51
1 52
1 53
1 54
1 55
1 56
1 57
1 58
1 59
1 60
1 61
1 62
1 63
1 64
1 65
1 66
1 67
1 68
1 69
1 70
1 71
1 72
1 73
1 74
1 75
1 76
1 77
1 78
1 79
1 80
1 81
1 82
1 83
1 84
1 85
1 86
1 87
1 88
1 89
1 90
1 91
1 92
1 93
1 94
1 95
1 96
1 97
1 98
1 99
1 100
1 101
1 102
1 103
1 104
1 105
1 106
1 107
1 108
1 109
1 110
1 111
1 112
1 113
1 114
1 115
1 116
1 117
1 118
1 119
1 120
1 121
1 122
1 123
1 124
1 125
1 126
1 127
1 128
1 129
1 130
1 131
1 132
1 133
1 134
1 135
1 136
1 137
1 138
1 139
1 140
1 141
1 142
1 143
1 144
1 145
1 146
1 147
1 148
1 149
1 150
1 151
1 152
1 153
1 154
1 155
1 156
1 157
1 158
1 159
1 160
1 161
1 162
1 163
1 164
1 165
1 166
1 167
1 168
1 169
1 170
1 171
1 172
1 173
1 174
1 175
1 176
1 177
1 178
1 179
1 180
1 181
1 182
1 183
1 184
1 185
1 186
1 187
1 188
1 189
1 190
1 191
1 192
1 193
1 194
1 195
1 196
1 197
1 198
1 199
1 200
1 201
1 202
1 203
1 204
1 205
1 206
1 207
1 208
1 209
1 210
1 211
1 212
1 213
1 214
1 215
1 216
1 217
1 218
1 219
1 220
1 221
1 222
1 223
1 224
1 225
1 226
1 227
1 228
1 229
1 230
1 231
1 232
1 233
1 234
1 235
1 236
1 237
1 238
1 239
1 240
1 241
1 242
1 243
1 244
1 245
1 246
1 247
1 248
1 249
1 250
1 251
1 252
1 253
1 254
1 255
1 256
1 257
1 258
1 259
1 260
1 261
1 262
1 263
1 264
1 265
1 266
1 267
1 268
1 269
1 270
1 271
1 272
1 273
1 274
1 275
1 276
1 277
1 278
1 279
1 280
1 281
1 282
1 283
1 284
1 285
1 286
1 287
1 288
1 289
1 290
1 291
1 292
1 293
1 294
1 295
1 296
1 297
1 298
1 299
1 300
1 301
1 302
1 303
1 304
1 305
1 306
1 307
1 308
1 309
1 310
1 311
1 312
1 313
1 314
1 315
1 316
1 317
1 318
1 319
1 320
1 321
1 322
1 323
1 324
1 325
1 326
1 327
1 328
1 329
1 330
1 331
1 332
1 333
1 334
1 335
1 336
1 337
1 338
1 339
1 340
1 341
1 342
1 343
1 344
1 345
1 346
1 347
1 348
1 349
1 350
1 351
1 352
1 353
1 354
1 355
1 356
1 357
1 358
1 359
1 360
1 361
1 362
1 363
1 364
1 365
1 366
1 367
1 368
1 369
1 370
1 371
1 372
1 373
1 374
1 375
1 376
1 377
1 378
1 379
1 380
1 381
1 382
1 383
1 384
1 385
1 386
1 387
1 388
1 389
1 390
1 391
1 392
1 393
1 394
1 395
1 396
1 397
1 398
1 399
1 400
1 401
1 402
1 403
1 404
1 405
1 406
1 407
1 408
1 409
1 410
1 411
1 412
1 413
1 414
1 415
1 416
1 417
1 418
1 419
1 420
1 421
1 422
1 423
1 424
1 425
1 426
1 427
1 428
1 429
1 430
1 431
1 432
1 433
1 434
1 435
1 436
1 437
1 438
1 439
1 440
1 441
1 442
1 443
1 444
1 445
1 446
1 447
1 448
1 449
1 450
1 451
1 452
1 453
1 454
1 455
1 456
1 457
1 458
1 459
1 460
1 461
1 462
1 463
1 464
1 465
1 466
1 467
1 468
1 469
1 470
1 471
1 472
1 473
1 474
1 475
1 476
1 477
1 478
1 479
1 480
1 481
1 482
1 483
1 484
1 485
1 486
1 487
1 488
1 489
1 490
1 491
1 492
1 493
1 494
1 495
1 496
1 497
1 498
1 499
1 500
1 501
1 502
1 503
1 504
1 505
1 506
1 507
1 508
1 509
1 510
1 511
1 512
1 513
1 514
1 515
1 516
1 517
1 518
1 519
1 520
1 521
1 522
1 523
1 524
1 525
1 526
1 527
1 528
1 529
1 530
1 531
1 532
1 533
1 534
1 535
1 536
1 537
1 538
1 539
1 540
1 541
1 542
1 543
1 544
1 545
1 546
1 547
1 548
1 549
1 550
1 551
1 552
1 553
1 554
1 555
1 556
1 557
1 558
1 559
1 560
1 561
1 562
1 563
1 564
1 565
1 566
1 567
1 568
1 569
1 570
1 571
1 572
1 573
1 574
1 575
1 576
1 577
1 578
1 579
1 580
1 581
1 582
1 583
1 584
1 585
1 586
1 587
1 588
1 589
1 590
1 591
1 592
1 593
1 594
1 595
1 596
1 597
1 598
1 599
1 600
1 601
1 602
1 603
1 604
1 605
1 606
1 607
1 608
1 609
1 610
1 611
1 612
1 613
1 614
1 615
1 616
1 617
1 618
1 619
1 620
1 621
1 622
1 623
1 624
1 625
1 626
1 627
1 628
1 629
1 630
1 631
1 632
1 633
1 634
1 635
1 636
1 637
1 638
1 639
1 640
1 641
1 642
1 643
1 644
1 645
1 646
1 647
1 648
1 649
1 650
1 651
1 652
1 653
1 654
1 655
1 656
1 657
1 658
1 659
1 660
1 661
1 662
1 663
1 664
1 665
1 666
1 667
1 668
1 669
1 670
1 671
1 672
1 673
1 674
1 675
1 676
1 677
1 678
1 679
1 680
1 681
1 682
1 683
1 684
1 685
1 686
1 687
1 688
1 689
1 690
1 691
1 692
1 693
1 694
1 695
1 696
1 697
1 698
1 699
1 700
1 701
1 702
1 703
1 704
1 705
1 706
1 707
1 708
1 709
1 710
1 711
1 712
1 713
1 714
1 715
1 716
1 717
1 718
1 719
1 720
1 721
1 722
1 723
1 724
1 725
1 726
1 727
1 728
1 729
1 730
1 731
1 732
1 733
1 734
1 735
1 736
1 737
1 738
1 739
1 740
1 741
1 742
1 743
1 744
1 745
1 746
1 747
1 748
1 749
1 750
1 751
1 752
1 753
1 754
1 755
1 756
1 757
1 758
1 759
1 760
1 761
1 762
1 763
1 764
1 765
1 766
1 767
1 768
1 769
1 770
1 771
1 772
1 773
1 774
1 775
1 776
1 777
1 778
1 779
1 780
1 781
1 782
1 783
1 784
1 785
1 786
1 787
1 788
1 789
1 790
1 791
1 792
1 793
1 794
1 795
1 796
1 797
1 798
1 799
1 800
1 801
1 802
1 803
1 804
1 805
1 806
1 807
1 808
1 809
1 810
1 811
1 812
1 813
1 814
1 815
1 816
1 817
1 818
1 819
1 820
1 821
1 822
1 823
1 824
1 825
1 826
1 827
1 828
1 829
1 830
1 831
1 832
1 833
1 834
1 835
1 836
1 837
1 838
1 839
1 840
1 841
1 842
1 843
1 844
1 845
1 846
1 847
1 848
1 849
1 850
1 851
1 852
1 853
1 854
1 855
1 856
1 857
1 858
1 859
1 860
1 861
1 862
1 863
1 864
1 865
1 866
1 867
1 868
1 869
1 870
1 871
1 872
1 873
1 874
1 875
1 876
1 877
1 878
1 879
1 880
1 881
1 882
1 883
1 884
1 885
1 886
1 887
1 888
1 889
1 890
1 891
1 892
1 893
1 894
1 895
1 896
1 897
1 898
1 899
1 900
1 901
1 902
1 903
1 904
1 905
1 906
1 907
1 908
1 909
1 910
1 911
1 912
1 913
1 914
1 915
1 916
1 917
1 918
1 919
1 920
1 921
1 922
1 923
1 924
1 925
1 926
1 927
1 928
1 929
1 930
1 931
1 932
1 933
1 934
1 935
1 936
1 937
1 938
1 939
1 940
1 941
1 942
1 943
1 944
1 945
1 946
1 947
1 948
1 949
1 950
1 951
1 952
1 953
1 954
1 955
1 956
1 957
1 958
1 959
1 960
1 961
1 962
1 963
1 964
1 965
1 966
1 967
1 968
1 969
1 970
1 971
1 972
1 973
1 974
1 975
1 976
1 977
1 978
1 979
1 980
1 981
1 982
1 983
1 984
1 985
1 986
1 987
1 988
1 989
1 990
1 991
1 992
1 993
1 994
1 995
1 996
1 997
1 998
1 999
1 1000
1 1001
1 1002
1 1003
1 1004
1 1005
1 1006
1 1007
1 1008
1 1009
1 1010
1 1011
1 1012
1 1013
1 1014
1 1015
1 1016
1 1017
1 1018
1 1019
1 1020
1 1021
1 1022
1 1023
1 1024
1 1025
1 1026
1 1027
1 1028
1 1029
1 1030
1 1031
1 1032
1 1033
1 1034
1 1035
1 1036
1 1037
1 1038
1 1039
1 1040
1 1041
1 1042
1 1043
1 1044
1 1045
1 1046
1 1047
1 1048
1 1049
1 1050
1 1051
1 1052
1 1053
1 1054
1 1055
1 1056
1 1057
1 1058
1 1059
1 1060
1 1061
1 1062
1 1063
1 1064
1 1065
1 1066
1 1067
1 1068
1 1069
1 1070
1 1071
1 1072
1 1073
1 1074
1 1075
1 1076
1 1077
1 1078
1 1079
1 1080
1 1081
1 1082
1 1083
1 1084
1 1085
1 1086
1 1087
1 1088
1 1089
1 1090
1 1091
1 1092
1 1093
1 1094
1 1095
1 1096
1 1097
1 1098
1 1099
1 1100
1 1101
1 1102
1 1103
1 1104
1 1105
1 1106
1 1107
1 1108
1 1109
1 1110
1 1111
1 1112
1 1113
1 1114
1 1115
1 1116
1 1117
1 1118
1 1119
1 1120
1 1121
1 1122
1 1123
1 1124
1 1125
1 1126
1 1127
1 1128
1 1129
1 1130
1 1131
1 1132
1 1133
1 1134
1 1135
1 1136
1 1137
1 1138
1 1139
1 1140
1 1141
1 1142
1 1143
1 1144
1 1145
1 1146
1 1147
1 1148
1 1149
1 1150
1 1151
1 1152
1 1153
1 1154
1 1155
1 1156
1 1157
1 1158
1 1159
1 1160
1 1161
1 1162
1 1163
1 1164
1 1165
1 1166
1 1167
1 1168
1 1169
1 1170
1 1171
1 1172
1 1173
1 1174
1 1175
1 1176
1 1177
1 1178
1 1179
1 1180
1 1181
1 1182
1 1183
1 1184
1 1185
1 1186
1 1187
1 1188
1 1189
1 1190
1 1191
1 1192
1 1193
1 1194
1 1195
1 1196
1 1197
1 1198
1 1199
1 1200
1 1201
1 1202
1 1203
1 1204
1 1205
1 1206
1 1207
1 1208
1 1209
1 1210
1 1211
1 1212
1 1213
1 1214
1 1215
1 1216
1 1217
1 1218
1 1219
1 1220
1 1221
1 1222
1 1223
1 1224
1 1225
1 1226
1 1227
1 1228
1 1229
1 1230
1 1231
1 1232
1 1233
1 1234
1 1235
1 1236
1 1237
1 1238
1 1239
1 1240
1 1241
1 1242
1 1243
1 1244
1 1245
1 1246
1 1247
1 1248
1 1249
1 1250
1 1251
1 1252
1 1253
1 1254
1 1255
1 1256
1 1257
1 1258
1 1259
1 1260
1 1261
1 1262
1 1263
1 1264
1 1265
1 1266
1 1267
1 1268
1 1269
1 1270
1 1271
1 1272
1 1273
1 1274
1 1275
1 1276
1 1277
1 1278
1 1279
1 1280
1 1281
1 1282
1 1283
1 1284
1 1285
1 1286
1 1287
1 1288
1 1289
1 1290
1 1291
1 1292
1 1293
1 1294
1 1295
1 1296
1 1297
1 1298
1 1299
1 1300
1 1301
1 1302
1 1303
1 1304
1 1305
1 1306
1 1307
1 1308
1 1309
1 1310
1 1311
1 1312
1 1313
1 1314
1 1315
1 1316
1 1317
1 1318
1 1319
1 1320
1 1321
1 1322
1 1323
1 1324
1 1325
1 1326
1 1327
1 1328
1 1329
1 1330
1 1331
1 1332
1 1333
1 1334
1 1335
1 1336
1 1337
1 1338
1 1339
1 1340
1 1341
1 1342
1 1343
1 1344
1 1345
1 1346
1 1347
1 1348
1 1349
1 1350
1 1351
1 1352
1 1353
1 1354
1 1355
1 1356
1 1357
1 1358
1 1359
1 1360
1 1361
1 1362
1 1363
1 1364
1 1365
1 1366
1 1367
1 1368
1 1369
1 1370
1 1371
1 1372
1 1373
1 1374
1 1375
1 1376
1 1377
1 1378
1 1379
1 1380
1 1381
1 1382
1 1383
1 1384
1 1385
1 1386
1 1387
1 1388
1 1389
1 1390
1 1391
1 1392
1 1393
1 1394
1 1395
1 1396
1 1397
1 1398
1 1399
1 1400
1 1401
1 1402
1 1403
1 1404
1 1405
1 1406
1 1407
1 1408
1 1409
1 1410
1 1411
1 1412
1 1413
1 1414
1 1415
1 1416
1 1417
1 1418
1 1419
1 1420
1 1421
1 1422
1 1423
1 1424
1 1425
1 1426
1 1427
1 1428
1 1429
1 1430
1 1431
1 1432
1 1433
1 1434
1 1435
1 1436
1 1437
1 1438
1 1439
1 1440
1 1441
1 1442
1 1443
1 1444
1 1445
1 1446
1 1447
1 1448
1 1449
1 1450
1 1451
1 1452
1 1453
1 1454
1 1455
1 1456
1 1457
1 1458
1 1459
1 1460
1 1461
1 1462
1 1463
1 1464
1 1465
1 1466
1 1467
1 1468
1 1469
1 1470
1 1471
1 1472
1 1473
1 1474
1 1475
1 1476
1 1477
1 1478
1 1479
1 1480
1 1481
1 1482
1 1483
1 1484
1 1485
1 1486
1 1487
1 1488
1 1489
1 1490
1 1491
1 1492
1 1493
1 1494
1 1495
1 1496
1 1497
1 1498
1 1499
1 1500
1 1501
1 1502
1 1503
1 1504
1 1505
1 1506
1 1507
1 1508
1 1509
1 1510
1 1511
1 1512
1 1513
1 1514
1 1515
1 1516
1 1517
1 1518
1 1519
1 1520
1 1521
1 1522
1 1523
1 1524
1 1525
1 1526
1 1527
1 1528
1 1529
1 1530
1 1531
1 1532
1 1533
1 1534
1 1535
1 1536
1 1537
1 1538
1 1539
1 1540
1 1541
1 1542
1 1543
1 1544
1 1545
1 1546
1 1547
1 1548
1 1549
1 1550
1 1551
1 1552
1 1553
1 1554
1 1555
1 1556
1 1557
1 1558
1 1559
1 1560
1 1561
1 1562
1 1563
1 1564
1 1565
1 1566
1 1567
1 1568
1 1569
1 1570
1 1571
1 1572
1 1573
1 1574
1 1575
1 1576
1 1577
1 1578
1 1579
1 1580
1 1581
1 1582
1 1583
1 1584
1 1585
1 1586
1 1587
1 1588
1 1589
1 1590
1 1591
1 1592
1 1593
1 1594
1 1595
1 1596
1 1597
1 1598
1 1599
1 1600
1 1601
1 1602
1 1603
1 1604
1 1605
1 1606
1 1607
1 1608
1 1609
1 1610
1 1611
1 1612
1 1613
1 1614
1 1615
1 1616
1 1617
1 1618
1 1619
1 1620
1 1621
1 1622
1 1623
1 1624
1 1625
1 1626
1 1627
1 1628
1 1629
1 1630
1 1631
1 1632
1 1633
1 1634
1 1635
1 1636
1 1637
1 1638
1 1639
1 1640
1 1641
1 1642
1 1643
1 1644
1 1645
1 1646
1 1647
1 1648
1 1649
1 1650
1 1651
1 1652
1 1653
1 1654
1 1655
1 1656
1 1657
1 1658
1 1659
1 1660
1 1661
1 1662
1 1663
1 1664
1 1665
1 1666
1 1667
1 1668
1 1669
1 1670
1 1671
1 1672
1 1673
1 1674
1 1675
1 1676
1 1677
1 1678
1 1679
1 1680
1 1681
1 1682
1 1683
1 1684
1 1685
1 1686
1 1687
1 1688
1 1689
1 1690
1 1691
1 1692
1 1693
1 1694
1 1695
1 1696
1 1697
1 1698
1 1699
1 1700
1 1701
1 1702
1 1703
1 1704
1 1705
1 1706
1 1707
1 1708
1 1709
1 1710
1 1711
1 1712
1 1713
1 1714
1 1715
1 1716
1 1717
1 1718
1 1719
1 1720
1 1721
1 1722
1 1723
1 1724
1 1725
1 1726
1 1727
1 1728
1 1729
1 1730
1 1731
1 1732
1 1733
1 1734
1 1735
1 1736
1 1737
1 1738
1 1739
1 1740
1 1741
1 1742
1 1743
1 1744
1 1745
1 1746
1 1747
1 1748
1 1749
1 1750
1 1751
1 1752
1 1753
1 1754
1 1755
1 1756
1 1757
1 1758
1 1759
1 1760
1 1761
1 1762
1 1763
1 1764
1 1765
1 1766
1 1767
1 1768
1 1769
1 1770
1 1771
1 1772
1 1773
1 1774
1 1775
1 1776
1 1777
1 1778
1 1779
1 1780
1 1781
1 1782
1 1783
1 1784
1 1785
1 1786
1 1787
1 1788
1 1789
1 1790
1 1791
1 1792
1 1793
1 1794
1 1795
1 1796
1 1797
1 1798
1 1799
1 1800
1 1801
1 1802
1 1803
1 1804
1 1805
1 1806
1 1807
1 1808
1 1809
1 1810
1 1811
1 1812
1 1813
1 1814
1 1815
1 1816
1 1817
1 1818
1 1819
1 1820
1 1821
1 1822
1 1823
1 1824
1 1825
1 1826
1 1827
1 1828
1 1829
1 1830
1 1831
1 1832
1 1833
1 1834
1 1835
1 1836
1 1837
1 1838
1 1839
1 1840
1 1841
1 1842
1 1843
1 1844
1 1845
1 1846
1 1847
1 1848
1 1849
1 1850
1 1851
1 1852
1 1853
1 1854
1 1855
1 1856
1 1857
1 1858
1 1859
1 1860
1 1861
1 1862
1 1863
1 1864
1 1865
1 1866
1 1867
1 1868
1 1869
1 1870
1 1871
1 1872
1 1873
1 1874
1 1875
1 1876
1 1877
1 1878
1 1879
1 1880
1 1881
1 1882
1 1883
1 1884
1 1885
1 1886
1 1887
1 1888
1 1889
1 1890
1 1891
1 1892
1 1893
1 1894
1 1895
1 1896
1 1897
1 1898
1 1899
1 1900
1 1901
1 1902
1 1903
1 1904
1 1905
1 1906
1 1907
1 1908
1 1909
1 1910
1 1911
1 1912
1 1913
1 1914
1 1915
1 1916
1 1917
1 1918
1 1919
1 1920
1 1921
1 1922
1 1923
1 1924
1 1925
1 1926
1 1927
1 1928
1 1929
1 1930
1 1931
1 1932
1 1933
1 1934
1 1935
1 1936
1 1937
1 1938
1 1939
1 1940
1 1941
1 1942
1 1943
1 1944
1 1945
1 1946
1 1947
1 1948
1 1949
1 1950
1 1951
1 1952
1 1953
1 1954
1 1955
1 1956
1 1957
1 1958
1 1959
1 1960
1 1961
1 1962
1 1963
1 1964
1 1965
1 1966
1 1967
1 1968
1 1969
1 1970
1 1971
1 1972
1 1973
1 1974
1 1975
1 1976
1 1977
1 1978
1 1979
1 1980
1 1981
1 1982
1 1983
1 1984
1 1985
1 1986
1 1987
1 1988
1 1989
1 1990
1 1991
1 1992
1 1993
1 1994
1 1995
1 1996
1 1997
1 1998
1 1999
1 2000
1 2001
1 2002
1 2003
1 2004
1 2005
1 2006
1 2007
1 2008
1 2009
1 2010
1 2011
1 2012
1 2013
1 2014
1 2015
1 2016
1 2017
1 2018
1 2019
1 2020
1 2021
1 2022
1 2023
1 2024
1 2025
1 2026
1 2027
1 2028
1 2029
1 2030
1 2031
1 2032
1 2033
1 2034
1 2035
1 2036
1 2037
1 2038
1 2039
1 2040
1 2041
1 2042
1 2043
1 2044
1 2045
1 2046
1 2047
1 2048
1 2049
1 2050
1 2051
1 2052
1 2053
1 2054
1 2055
1 2056
1 2057
1 2058
1 2059
1 2060
1 2061
1 2062
1 2063
1 2064
1 2065
1 2066
1 2067
1 2068
1 2069
1 2070
1 2071
1 2072
1 2073
1 2074
1 2075
1 2076
1 2077
1 2078
1 2079
1 2080
1 2081
1 2082
1 2083
1 2084
1 2085
1 2086
1 2087
1 2088
1 2089
1 2090
1 2091
1 2092
1 2093
1 2094
1 2095
1 2096
1 2097
1 2098
1 2099
1 2100
1 2101
1 2102
1 2103
1 2104
1 2105
1 2106
1 2107
1 2108
1 2109
1 2110
1 2111
1 2112
1 2113
1 2114
1 2115
1 2116
1 2117
1 2118
1 2119
1 2120
1 2121
1 2122
1 2123
1 2124
1 2125
1 2126
1 2127
1 2128
1 2129
1 2130
1 2131
1 2132
1 2133
1 2134
1 2135
1 2136
1 2137
1 2138
1 2139
1 2140
1 2141
1 2142
1 2143
1 2144
1 2145
1 2146
1 2147
1 2148
1 2149
1 2150
1 2151
1 2152
1 2153
1 2154
1 2155
1 2156
1 2157
1 2158
1 2159
1 2160
1 2161
1 2162
1 2163
1 2164
1 2165
1 2166
1 2167
1 2168
1 2169
1 2170
1 2171
1 2172
1 2173
1 2174
1 2175
1 2176
1 2177
1 2178
1 2179
1 2180
1 2181
1 2182
1 2183
1 2184
1 2185
1 2186
1 2187
1 2188
1 2189
1 2190
1 2191
1 2192
1 2193
1 2194
1 2195
1 2196
1 2197
1 2198
1 2199
1 2200
1 2201
1 2202
1 2203
1 2204
1 2205
1 2206
1 2207
1 2208
1 2209
1 2210
1 2211
1 2212
1 2213
1 2214
1 2215
1 2216
1 2217
1 2218
1 2219
1 2220
1 2221
1 2222
1 2223
1 2224
1 2225
1 2226
1 2227
1 2228
1 2229
1 2230
1 2231
1 2232
1 2233
1 2234
1 2235
1 2236
1 2237
1 2238
1 2239
1 2240
1 2241
1 2242
1 2243
1 2244
1 2245
1 2246
1 2247
1 2248
1 2249
1 2250
1 2251
1 2252
1 2253
1 2254
1 2255
1 2256
1 2257
1 2258
1 2259
1 2260
1 2261
1 2262
1 2263
1 2264
1 2265
1 2266
1 2267
1 2268
1 2269
1 2270
1 2271
1 2272
1 2273
1 2274
1 2275
1 2276
1 2277
1 2278
1 2279
1 2280
1 2281
1 2282
1 2283
1 2284
1 2285
1 2286
1 2287
1 2288
1 2289
1 2290
1 2291
1 2292
1 2293
1 2294
1 2295
1 2296
1 2297
1 2298
1 2299
1 2300
1 2301
1 2302
1 2303
1 2304
1 2305
1 2306
1 2307
1 2308
1 2309
1 2310
1 2311
1 2312
1 2313
1 2314
1 2315
1 2316
1 2317
1 2318
1 2319
1 2320
1 2321
1 2322
1 2323
1 2324
1 2325
1 2326
1 2327
1 2328
1 2329
1 2330
1 2331
1 2332
1 2333
1 2334
1 2335
1 2336
1 2337
1 2338
1 2339
1 2340
1 2341
1 2342
1 2343
1 2344
1 2345
1 2346
1 2347
1 2348
1 2349
1 2350
1 2351
1 2352
1 2353
1 2354
1 2355
1 2356
1 2357
1 2358
1 2359
1 2360
1 2361
1 2362
1 2363
1 2364
1 2365
1 2366
1 2367
1 2368
1 2369
1 2370
1 2371
1 2372
1 2373
1 2374
1 2375
1 2376
1 2377
1 2378
1 2379
1 2380
1 2381
1 2382
1 2383
1 2384
1 2385
1 2386
1 2387
1 2388
1 2389
1 2390
1 2391
1 2392
1 2393
1 2394
1 2395
1 2396
1 2397
1 2398
1 2399
1 2400
1 2401
1 2402
1 2403
1 2404
1 2405
1 2406
1 2407
1 2408
1 2409
1 2410
1 2411
1 2412
1 2413
1 2414
1 2415
1 2416
1 2417
1 2418
1 2419
1 2420
1 2421
1 2422
1 2423
1 2424
1 2425
1 2426
1 2427
1 2428
1 2429
1 2430
1 2431
1 2432
1 2433
1 2434
1 2435
1 2436
1 2437
1 2438
1 2439
1 2440
1 2441
1 2442
1 2443
1 2444
1 2445
1 2446
1 2447
1 2448
1 2449
1 2450
1 2451
1 2452
1 2453
1 2454
1 2455
1 2456
1 2457
1 2458
1 2459
1 2460
1 2461
1 2462
1 2463
1 2464
1 2465
1 2466
1 2467
1 2468
1 2469
1 2470
1 2471
1 2472
1 2473
1 2474
1 2475
1 2476
1 2477
1 2478
1 2479
1 2480
1 2481
1 2482
1 2483
1 2484
1 2485
1 2486
1 2487
1 2488
1 2489
1 2490
1 2491
1 2492
1 2493
1 2494
1 2495
1 2496
1 2497
1 2498
1 2499
1 2500
1 2501
1 2502
1 2503
1 2504
1 2505
1 2506
1 2507
1 2508
1 2509
1 2510
1 2511
1 2512
1 2513
1 2514
1 2515
1 2516
1 2517
1 2518
1 2519
1 2520
1 2521
1 2522
1 2523
1 2524
1 2525
1 2526
1 2527
1 2528
1 2529
1 2530
1 2531
1 2532
1 2533
1 2534
1 2535
1 2536
1 2537
1 2538
1 2539
1 2540
1 2541
1 2542
1 2543
1 2544
1 2545
1 2546
1 2547
1 2548
1 2549
1 2550
1 2551
1 2552
1 2553
1 2554
1 2555
1 2556
1 2557
1 2558
1 2559
1 2560
1 2561
1 2562
1 2563
1 2564
1 2565
1 2566
1 2567
1 2568
1 2569
1 2570
1 2571
1 2572
1 2573
1 2574
1 2575
1 2576
1 2577
1 2578
1 2579
1 2580
1 2581
1 2582
1 2583
1 2584
1 2585
1 2586
1 2587
1 2588
1 2589
1 2590
1 2591
1 2592
1 2593
1 2594
1 2595
1 2596
1 2597
1 2598
1 2599
1 2600
1 2601
1 2602
1 2603
1 2604
1 2605
1 2606
1 2607
1 2608
1 2609
1 2610
1 2611
1 2612
1 2613
1 2614
1 2615
1 2616
1 2617
1 2618
1 2619
1 2620
1 2621
1 2622
1 2623
1 2624
1 2625
1 2626
1 2627
1 2628
1 2629
1 2630
1 2631
1 2632
1 2633
1 2634
1 2635
1 2636
1 2637
1 2638
1 2639
1 2640
1 2641
1 2642
1 2643
1 2644
1 2645
1 2646
1 2647
1 2648
1 2649
1 2650
1 2651
1 2652
1 2653
1 2654
1 2655
1 2656
1 2657
1 2658
1 2659
1 2660
1 2661
1 2662
1 2663
1 2664
1 2665
1 2666
1 2667
1 2668
1 2669
1 2670
1 2671
1 2672
1 2673
1 2674
1 2675
1 2676
1 2677
1 2678
1 2679
1 2680
1 2681
1 2682
1 2683
1 2684
1 2685
1 2686
1 2687
1 2688
1 2689
1 2690
1 2691
1 2692
1 2693
1 2694
1 2695
1 2696
1 2697
1 2698
1 2699
1 2700
1 2701
1 2702
1 2703
1 2704
1 2705
1 2706
1 2707
1 2708
1 2709
1 2710
1 2711
1 2712
1 2713
1 2714
1 2715
1 2716
1 2717
1 2718
1 2719
1 2720
1 2721
1 2722
1 2723
1 2724
1 2725
1 2726
1 2727
1 2728
1 2729
1 2730
1 2731
1 2732
1 2733
1 2734
1 2735
1 2736
1 2737
1 2738
1 2739
1 2740
1 2741
1 2742
1 2743
1 2744
1 2745
1 2746
1 2747
1 2748
1 2749
1 2750
1 2751
1 2752
1 2753
1 2754
1 2755
1 2756
1 2757
1 2758
1 2759
1 2760
1 2761
1 2762
1 2763
1 2764
1 2765
1 2766
1 2767
1 2768
1 2769
1 2770
1 2771
1 2772
1 2773
1 2774
1 2775
1 2776
1 2777
1 2778
1 2779
1 2780
1 2781
1 2782
1 2783
1 2784
1 2785
1 2786
1 2787
1 2788
1 2789
1 2790
1 2791
1 2792
1 2793
1 2794
1 2795
1 2796
1 2797
1 2798
1 2799
1 2800
1 2801
1 2802
1 2803
1 2804
1 2805
1 2806
1 2807
1 2808
1 2809
1 2810
1 2811
1 2812
1 2813
1 2814
1 2815
1 2816
1 2817
1 2818
1 2819
1 2820
1 2821
1 2822
1 2823
1 2824
1 2825
1 2826
1 2827
1 2828
1 2829
1 2830
1 2831
1 2832
1 2833
1 2834
1 2835
1 2836
1 2837
1 2838
1 2839
1 2840
1 2841
1 2842
1 2843
1 2844
1 2845
1 2846
1 2847
1 2848
1 2849
1 2850
1 2851
1 2852
1 2853
1 2854
1 2855
1 2856
1 2857
1 2858
1 2859
1 2860
1 2861
1 2862
1 2863
1 2864
1 2865
1 2866
1 2867
1 2868
1 2869
1 2870
1 2871
1 2872
1 2873
1 2874
1 2875
1 2876
1 2877
1 2878
1 2879
1 2880
1 2881
1 2882
1 2883
1 2884
1 2885
1 2886
1 2887
1 2888
1 2889
1 2890
1 2891
1 2892
1 2893
1 2894
1 2895
1 2896
1 2897
1 2898
1 2899
1 2900
1 2901
1 2902
1 2903
1 2904
1 2905
1 2906
1 2907
1 2908
1 2909
1 2910
1 2911
1 2912
1 2913
1 2914
1 2915
1 2916
1 2917
1 2918
1 2919
1 2920
1 2921
1 2922
1 2923
1 2924
1 2925
1 2926
1 2927
1 2928
1 2929
1 2930
1 2931
1 2932
1 2933
1 2934
1 2935
1 2936
1 2937
1 2938
1 2939
1 2940
1 2941
1 2942
1 2943
1 2944
1 2945
1 2946
1 2947
1 2948
1 2949
1 2950
1 2951
1 2952
1 2953
1 2954
1 2955
1 2956
1 2957
1 2958
1 2959
1 2960
1 2961
1 2962
1 2963
1 2964
1 2965
1 2966
1 2967
1 2968
1 2969
1 2970
1 2971
1 2972
1 2973
1 2974
1 2975
1 2976
1 2977
1 2978
1 2979
1 2980
1 2981
1 2982
1 2983
1 2984
1 2985
1 2986
1 2987
1 2988
1 2989
1 2990
1 2991
1 2992
1 2993
1 2994
1 2995
1 2996
1 2997
1 2998
1 2999
1 3000
1 3001
1 3002
1 3003
1 3004
1 3005
1 3006
1 3007
1 3008
1 3009
1 3010
1 3011
1 3012
1 3013
1 3014
1 3015
1 3016
1 3017
1 3018
1 3019
1 3020
1 3021
1 3022
1 3023
1 3024
1 3025
1 3026
1 3027
1 3028
1 3029
1 3030
1 3031
1 3032
1 3033
1 3034
1 3035
1 3036
1 3037
1 3038
1 3039
1 3040
1 3041
1 3042
1 3043
1 3044
1 3045
1 3046
1 3047
1 3048
1 3049
1 3050
1 3051
1 3052
1 3053
1 3054
1 3055
1 3056
1 3057
1 3058
1 3059
1 3060
1 3061
1 3062
1 3063
1 3064
1 3065
1 3066
1 3067
1 3068
1 3069
1 3070
1 3071
1 3072
1 3073
1 3074
1 3075
1 3076
1 3077
1 3078
1 3079
1 3080
1 3081
1 3082
1 3083
1 3084
1 3085
1 3086
1 3087
1 3088
1 3089
1 3090
1 3091
1 3092
1 3093
1 3094
1 3095
1 3096
1 3097
1 3098
1 3099
1 3100
1 3101
1 3102
1 3103
1 3104
1 3105
1 3106
1 3107
1 3108
1 3109
1 3110
1 3111
1 3112
1 3113
1 3114
1 3115
1 3116
1 3117
1 3118
1 3119
1 3120
1 3121
1 3122
1 3123
1 3124
1 3125
1 3126
1 3127
1 3128
1 3129
1 3130
1 3131
1 3132
1 3133
1 3134
1 3135
1 3136
1 3137
1 3138
1 3139
1 3140
1 3141
1 3142
1 3143
1 3144
1 3145
1 3146
1 3147
1 3148
1 3149
1 3150
1 3151
1 3152
1 3153
1 3154
1 3155
1 3156
1 3157
1 3158
1 3159
1 3160
1 3161
1 3162
1 3163
1 3164
1 3165
1 3166
1 3167
1 3168
1 3169
1 3170
1 3171
1 3172
1 3173
1 3174
1 3175
1 3176
1 3177
1 3178
1 3179
1 3180
1 3181
1 3182
1 3183
1 3184
1 3185
1 3186
1 3187
1 3188
1 3189
1 3190
1 3191
1 3192
1 3193
1 3194
1 3195
1 3196
1 3197
1 3198
1 3199
1 3200
1 3201
1 3202
1 3203
1 3204
1 3205
1 3206
1 3207
1 3208
1 3209
1 3210
1 3211
1 3212
1 3213
1 3214
1 3215
1 3216
1 3217
1 3218
1 3219
1 3220
1 3221
1 3222
1 3223
1 3224
1 3225
1 3226
1 3227
1 3228
1 3229
1 3230
1 3231
1 3232
1 3233
1 3234
1 3235
1 3236
1 3237
1 3238
1 3239
1 3240
1 3241
1 3242
1 3243
1 3244
1 3245
1 3246
1 3247
1 3248
1 3249
1 3250
1 3251
1 3252
1 3253
1 3254
1 3255
1 3256
1 3257
1 3258
1 3259
1 3260
1 3261
1 3262
1 3263
1 3264
1 3265
1 3266
1 3267
1 3268
1 3269
1 3270
1 3271
1 3272
1 3273
1 3274
1 3275
1 3276
1 3277
1 3278
1 3279
1 3280
1 3281
1 3282
1 3283
1 3284
1 3285
1 3286
1 3287
1 3288
1 3289
1 3290
1 3291
1 3292
1 3293
1 3294
1 3295
1 3296
1 3297
1 3298
1 3299
1 3300
1 3301
1 3302
1 3303
1 3304
1 3305
1 3306
1 3307
1 3308
1 3309
1 3310
1 3311
1 3312
1 3313
1 3314
1 3315
1 3316
1 3317
1 3318
1 3319
1 3320
1 3321
1 3322
1 3323
1 3324
1 3325
1 3326
1 3327
1 3328
1 3329
1 3330
1 3331
1 3332
1 3333
1 3334
1 3335
1 3336
1 3337
1 3338
1 3339
1 3340
1 3341
1 3342
1 3343
1 3344
1 3345
1 3346
1 3347
1 3348
1 3349
1 3350
1 3351
1 3352
1 3353
1 3354
1 3355
1 3356
1 3357
1 3358
1 3359
1 3360
1 3361
1 3362
1 3363
1 3364
1 3365
1 3366
1 3367
1 3368
1 3369
1 3370
1 3371
1 3372
1 3373
1 3374
1 3375
1 3376
1 3377
1 3378
1 3379
1 3380
1 3381
1 3382
1 3383
1 3384
1 3385
1 3386
1 3387
1 3388
1 3389
1 3390
1 3391
1 3392
1 3393
1 3394
1 3395
1 3396
1 3397
1 3398
1 3399
1 3400
1 3401
1 3402
1 3403
1 3404
1 3405
1 3406
1 3407
1 3408
1 3409
1 3410
1 3411
1 3412
1 3413
1 3414
1 3415
1 3416
1 3417
1 3418
1 3419
1 3420
1 3421
1 3422
1 3423
1 3424
1 3425
1 3426
1 3427
1 3428
1 3429
1 3430
1 3431
1 3432
1 3433
1 3434
1 3435
1 3436
1 3437
1 3438
1 3439
1 3440
1 3441
1 3442
1 3443
1 3444
1 3445
1 3446
1 3447
1 3448
1 3449
1 3450
1 3451
1 3452
1 3453
1 3454
1 3455
1 3456
1 3457
1 3458
1 3459
1 3460
1 3461
1 3462
1 3463
1 3464
1 3465
1 3466
1 3467
1 3468
1 3469
1 3470
1 3471
1 3472
1 3473
1 3474
1 3475
1 3476
1 3477
1 3478
1 3479
1 3480
1 3481
1 3482
1 3483
1 3484
1 3485
1 3486
1 3487
1 3488
1 3489
1 3490
1 3491
1 3492
1 3493
1 3494
1 3495
1 3496
1 3497
1 3498
1 3499
1 3500
1 3501
1 3502
1 3503
1 3504
1 3505
1 3506
1 3507
1 3508
1 3509
1 3510
1 3511
1 3512
1 3513
1 3514
1 3515
1 3516
1 3517
1 3518
1 3519
1 3520
1 3521
1 3522
1 3523
1 3524
1 3525
1 3526
1 3527
1 3528
1 3529
1 3530
1 3531
1 3532
1 3533
1 3534
1 3535
1 3536
1 3537
1 3538
1 3539
1 3540
1 3541
1 3542
1 3543
1 3544
1 3545
1 3546
1 3547
1 3548
1 3549
1 3550
1 3551
1 3552
1 3553
1 3554
1 3555
1 3556
1 3557
1 3558
1 3559
1 3560
1 3561
1 3562
1 3563
1 3564
1 3565
1 3566
1 3567
1 3568
1 3569
1 3570
1 3571
1 3572
1 3573
1 3574
1 3575
1 3576
1 3577
1 3578
1 3579
1 3580
1 3581
1 3582
1 3583
1 3584
1 3585
1 3586
1 3587
1 3588
1 3589
1 3590
1 3591
1 3592
1 3593
1 3594
1 3595
1 3596
1 3597
1 3598
1 3599
1 3600
1 3601
1 3602
1 3603
1 3604
1 3605
1 3606
1 3607
1 3608
1 3609
1 3610
1 3611
1 3612
1 3613
1 3614
1 3615
1 3616
1 3617
1 3618
1 3619
1 3620
1 3621
1 3622
1 3623
1 3624
1 3625
1 3626
1 3627
1 3628
1 3629
1 3630
1 3631
1 3632
1 3633
1 3634
1 3635
1 3636
1 3637
1 3638
1 3639
1 3640
1 3641
1 3642
1 3643
1 3644
1 3645
1 3646
1 3647
1 3648
1 3649
1 3650
1 3651
1 3652
1 3653
1 3654
1 3655
1 3656
1 3657
1 3658
1 3659
1 3660
1 3661
1 3662
1 3663
1 3664
1 3665
1 3666
1 3667
1 3668
1 3669
1 3670
1 3671
1 3672
1 3673
1 3674
1 3675
1 3676
1 3677
1 3678
1 3679
1 3680
1 3681
1 3682
1 3683
1 3684
1 3685
1 3686
1 3687
1 3688
1 3689
1 3690
1 3691
1 3692
1 3693
1 3694
1 3695
1 3696
1 3697
1 3698
1 3699
1 3700
1 3701
1 3702
1 3703
1 3704
1 3705
1 3706
1 3707
1 3708
1 3709
1 3710
1 3711
1 3712
1 3713
1 3714
1 3715
1 3716
1 3717
1 3718
1 3719
1 3720
1 3721
1 3722
1 3723
1 3724
1 3725
1 3726
1 3727
1 3728
1 3729
1 3730
1 3731
1 3732
1 3733
1 3734
1 3735
1 3736
1 3737
1 3738
1 3739
1 3740
1 3741
1 3742
1 3743
1 3744
1 3745
1 3746
1 3747
1 3748
1 3749
1 3750
1 3751
1 3752
1 3753
1 3754
1 3755
1 3756
1 3757
1 3758
1 3759
1 3760
1 3761
1 3762
1 3763
1 3764
1 3765
1 3766
1 3767
1 3768
1 3769
1 3770
1 3771
1 3772
1 3773
1 3774
1 3775
1 3776
1 3777
1 3778
1 3779
1 3780
1 3781
1 3782
1 3783
1 3784
1 3785
1 3786
1 3787
1 3788
1 3789
1 3790
1 3791
1 3792
1 3793
1 3794
1 3795
1 3796
1 3797
1 3798
1 3799
1 3800
1 3801
1 3802
1 3803
1 3804
1 3805
1 3806
1 3807
1 3808
1 3809
1 3810
1 3811
1 3812
1 3813
1 3814
1 3815
1 3816
1 3817
1 3818
1 3819
1 3820
1 3821
1 3822
1 3823
1 3824
1 3825
1 3826
1 3827
1 3828
1 3829
1 3830
1 3831
1 3832
1 3833
1 3834
1 3835
1 3836
1 3837
1 3838
1 3839
1 3840
1 3841
1 3842
1 3843
1 3844
1 3845
1 3846
1 3847
1 3848
1 3849
1 3850
1 3851
1 3852
1 3853
1 3854
1 3855
1 3856
1 3857
1 3858
1 3859
1 3860
1 3861
1 3862
1 3863
1 3864
1 3865
1 3866
1 3867
1 3868
1 3869
1 3870
1 3871
1 3872
1 3873
1 3874
1 3875
1 3876
1 3877
1 3878
1 3879
1 3880
1 3881
1 3882
1 3883
1 3884
1 3885
1 3886
1 3887
1 3888
1 3889
1 3890
1 3891
1 3892
1 3893
1 3894
1 3895
1 3896
1 3897
1 3898
1 3899
1 3900
1 3901
1 3902
1 3903
1 3904
1 3905
1 3906
1 3907
1 3908
1 3909
1 3910
1 3911
1 3912
1 3913
1 3914
1 3915
1 3916
1 3917
1 3918
1 3919
1 3920
1 3921
1 3922
1 3923
1 3924
1 3925
1 3926
1 3927
1 3928
1 3929
1 3930
1 3931
1 3932
1 3933
1 3934
1 3935
1 3936
1 3937
1 3938
1 3939
1 3940
1 3941
1 3942
1 3943
1 3944
1 3945
1 3946
1 3947
1 3948
1 3949
1 3950
1 3951
1 3952
1 3953
1 3954
1 3955
1 3956
1 3957
1 3958
1 3959
1 3960
1 3961
1 3962
1 3963
1 3964
1 3965
1 3966
1 3967
1 3968
1 3969
1 3970
1 3971
1 3972
1 3973
1 3974
1 3975
1 3976
1 3977
1 3978
1 3979
1 3980
1 3981
1 3982
1 3983
1 3984
1 3985
1 3986
1 3987
1 3988
1 3989
1 3990
1 3991
1 3992
1 3993
1 3994
1 3995
1 3996
1 3997
1 3998
1 3999
1 4000
1 4001
1 4002
1 4003
1 4004
1 4005
1 4006
1 4007
1 4008
1 4009
1 4010
1 4011
1 4012
1 4013
1 4014
1 4015
1 4016
1 4017
1 4018
1 4019
1 4020
1 4021
1 4022
1 4023
1 4024
1 4025
1 4026
1 4027
1 4028
1 4029
1 4030
1 4031
1 4032
1 4033
1 4034
1 4035
1 4036
1 4037
1 4038
1 4039
1 4040
1 4041
1 4042
1 4043
1 4044
1 4045
1 4046
1 4047
1 4048
1 4049
1 4050
1 4051
1 4052
1 4053
1 4054
1 4055
1 4056
1 4057
1 4058
1 4059
1 4060
1 4061
1 4062
1 4063
1 4064
1 4065
1 4066
1 4067
1 4068
1 4069
1 4070
1 4071
1 4072
1 4073
1 4074
1 4075
1 4076
1 4077
1 4078
1 4079
1 4080
1 4081
1 4082
1 4083
1 4084
1 4085
1 4086
1 4087
1 4088
1 4089
1 4090
1 4091
1 4092
1 4093
1 4094
1 4095
1 4096
1 4097
1 4098
1 4099
1 4100
1 4101
1 4102
1 4103
1 4104
1 4105
1 4106
1 4107
1 4108
1 4109
1 4110
1 4111
1 4112
1 4113
1 4114
1 4115
1 4116
1 4117
1 4118
1 4119
1 4120
1 4121
1 4122
1 4123
1 4124
1 4125
1 4126
1 4127
1 4128
1 4129
1 4130
1 4131
1 4132
1 4133
1 4134
1 4135
1 4136
1 4137
1 4138
1 4139
1 4140
1 4141
1 4142
1 4143
1 4144
1 4145
1 4146
1 4147
1 4148
1 4149
1 4150
1 4151
1 4152
1 4153
1 4154
1 4155
1 4156
1 4157
1 4158
1 4159
1 4160
1 4161
1 4162
1 4163
1 4164
1 4165
1 4166
1 4167
1 4168
1 4169
1 4170
1 4171
1 4172
1 4173
1 4174
1 4175
1 4176
1 4177
1 4178
1 4179
1 4180
1 4181
1 4182
1 4183
1 4184
1 4185
1 4186
1 4187
1 4188
1 4189
1 4190
1 4191
1 4192
1 4193
1 4194
1 4195
1 4196
1 4197
1 4198
1 4199
1 4200
1 4201
1 4202
1 4203
1 4204
1 4205
1 4206
1 4207
1 4208
1 4209
1 4210
1 4211
1 4212
1 4213
1 4214
1 4215
1 4216
1 4217
1 4218
1 4219
1 4220
1 4221
1 4222
1 4223
1 4224
1 4225
1 4226
1 4227
1 4228
1 4229
1 4230
1 4231
1 4232
1 4233
1 4234
1 4235
1 4236
1 4237
1 4238
1 4239
1 4240
1 4241
1 4242
1 4243
1 4244
1 4245
1 4246
1 4247
1 4248
1 4249
1 4250
1 4251
1 4252
1 4253
1 4254
1 4255
1 4256
1 4257
1 4258
1 4259
1 4260
1 4261
1 4262
1 4263
1 4264
1 4265
1 4266
1 4267
1 4268
1 4269
1 4270
1 4271
1 4272
1 4273
1 4274
1 4275
1 4276
1 4277
1 4278
1 4279
1 4280
1 4281
1 4282
1 4283
1 4284
1 4285
1 4286
1 4287
1 4288
1 4289
1 4290
1 4291
1 4292
1 4293
1 4294
1 4295
1 4296
1 4297
1 4298
1 4299
1 4300
1 4301
1 4302
1 4303
1 4304
1 4305
1 4306
1 4307
1 4308
1 4309
1 4310
1 4311
1 4312
1 4313
1 4314
1 4315
1 4316
1 4317
1 4318
1 4319
1 4320
1 4321
1 4322
1 4323
1 4324
1 4325
1 4326
1 4327
1 4328
1 4329
1 4330
1 4331
1 4332
1 4333
1 4334
1 4335
1 4336
1 4337
1 4338
1 4339
1 4340
1 4341
1 4342
1 4343
1 4344
1 4345
1 4346
1 4347
1 4348
1 4349
1 4350
1 4351
1 4352
1 4353
1 4354
1 4355
1 4356
1 4357
1 4358
1 4359
1 4360
1 4361
1 4362
1 4363
1 4364
1 4365
1 4366
1 4367
1 4368
1 4369
1 4370
1 4371
1 4372
1 4373
1 4374
1 4375
1 4376
1 4377
1 4378
1 4379
1 4380
1 4381
1 4382
1 4383
1 4384
1 4385
1 4386
1 4387
1 4388
1 4389
1 4390
1 4391
1 4392
1 4393
1 4394
1 4395
1 4396
1 4397
1 4398
1 4399
1 4400
1 4401
1 4402
1 4403
1 4404
1 4405
1 4406
1 4407
1 4408
1 4409
1 4410
1 4411
1 4412
1 4413
1 4414
1 4415
1 4416
1 4417
1 4418
1 4419
1 4420
1 4421
1 4422
1 4423
1 4424
1 4425
1 4426
1 4427
1 4428
1 4429
1 4430
1 4431
1 4432
1 4433
1 4434
1 4435
1 4436
1 4437
1 4438
1 4439
1 4440
1 4441
1 4442
1 4443
1 4444
1 4445
1 4446
1 4447
1 4448
1 4449
1 4450
1 4451
1 4452
1 4453
1 4454
1 4455
1 4456
1 4457
1 4458
1 4459
1 4460
1 4461
1 4462
1 4463
1 4464
1 4465
1 4466
1 4467
1 4468
1 4469
1 4470
1 4471
1 4472
1 4473
1 4474
1 4475
1 4476
1 4477
1 4478
1 4479
1 4480
1 4481
1 4482
1 4483
1 4484
1 4485
1 4486
1 4487
1 4488
1 4489
1 4490
1 4491
1 4492
1 4493
1 4494
1 4495
1 4496
1 4497
1 4498
1 4499
1 4500
1 4501
1 4502
1 4503
1 4504
1 4505
1 4506
1 4507
1 4508
1 4509
1 4510
1 4511
1 4512
1 4513
1 4514
1 4515
1 4516
1 4517
1 4518
1 4519
1 4520
1 4521
1 4522
1 4523
1 4524
1 4525
1 4526
1 4527
1 4528
1 4529
1 4530
1 4531
1 4532
1 4533
1 4534
1 4535
1 4536
1 4537
1 4538
1 4539
1 4540
1 4541
1 4542
1 4543
1 4544
1 4545
1 4546
1 4547
1 4548
1 4549
1 4550
1 4551
1 4552
1 4553
1 4554
1 4555
1 4556
1 4557
1 4558
1 4559
1 4560
1 4561
1 4562
1 4563
1 4564
1 4565
1 4566
1 4567
1 4568
1 4569
1 4570
1 4571
1 4572
1 4573
1 4574
1 4575
1 4576
1 4577
1 4578
1 4579
1 4580
1 4581
1 4582
1 4583
1 4584
1 4585
1 4586
1 4587
1 4588
1 4589
1 4590
1 4591
1 4592
1 4593
1 4594
1 4595
1 4596
1 4597
1 4598
1 4599
1 4600
1 4601
1 4602
1 4603
1 4604
1 4605
1 4606
1 4607
1 4608
1 4609
1 4610
1 4611
1 4612
1 4613
1 4614
1 4615
1 4616
1 4617
1 4618
1 4619
1 4620
1 4621
1 4622
1 4623
1 4624
1 4625
1 4626
1 4627
1 4628
1 4629
1 4630
1 4631
1 4632
1 4633
1 4634
1 4635
1 4636
1 4637
1 4638
1 4639
1 4640
1 4641
1 4642
1 4643
1 4644
1 4645
1 4646
1 4647
1 4648
1 4649
1 4650
1 4651
1 4652
1 4653
1 4654
1 4655
1 4656
1 4657
1 4658
1 4659
1 4660
1 4661
1 4662
1 4663
1 4664
1 4665
1 4666
1 4667
1 4668
1 4669
1 4670
1 4671
1 4672
1 4673
1 4674
1 4675
1 4676
1 4677
1 4678
1 4679
1 4680
1 4681
1 4682
1 4683
1 4684
1 4685
1 4686
1 4687
1 4688
1 4689
1 4690
1 4691
1 4692
1 4693
1 4694
1 4695
1 4696
1 4697
1 4698
1 4699
1 4700
1 4701
1 4702
1 4703
1 4704
1 4705
1 4706
1 4707
1 4708
1 4709
1 4710
1 4711
1 4712
1 4713
1 4714
1 4715
1 4716
1 4717
1 4718
1 4719
1 4720
1 4721
1 4722
1 4723
1 4724
1 4725
1 4726
1 4727
1 4728
1 4729
1 4730
1 4731
1 4732
1 4733
1 4734
1 4735
1 4736
1 4737
1 4738
1 4739
1 4740
1 4741
1 4742
1 4743
1 4744
1 4745
1 4746
1 4747
1 4748
1 4749
1 4750
1 4751
1 4752
1 4753
1 4754
1 4755
1 4756
1 4757
1 4758
1 4759
1 4760
1 4761
1 4762
1 4763
1 4764
1 4765
1 4766
1 4767
1 4768
1 4769
1 4770
1 4771
1 4772
1 4773
1 4774
1 4775
1 4776
1 4777
1 4778
1 4779
1 4780
1 4781
1 4782
1 4783
1 4784
1 4785
1 4786
1 4787
1 4788
1 4789
1 4790
1 4791
1 4792
1 4793
1 4794
1 4795
1 4796
1 4797
1 4798
1 4799
1 4800
1 4801
1 4802
1 4803
1 4804
1 4805
1 4806
1 4807
1 4808
1 4809
1 4810
1 4811
1 4812
1 4813
1 4814
1 4815
1 4816
1 4817
1 4818
1 4819
1 4820
1 4821
1 4822
1 4823
1 4824
1 4825
1 4826
1 4827
1 4828
1 4829
1 4830
1 4831
1 4832
1 4833
1 4834
1 4835
1 4836
1 4837
1 4838
1 4839
1 4840
1 4841
1 4842
1 4843
1 4844
1 4845
1 4846
1 4847
1 4848
1 4849
1 4850
1 4851
1 4852
1 4853
1 4854
1 4855
1 4856
1 4857
1 4858
1 4859
1 4860
1 4861
1 4862
1 4863
1 4864
1 4865
1 4866
1 4867
1 4868
1 4869
1 4870
1 4871
1 4872
1 4873
1 4874
1 4875
1 4876
1 4877
1 4878
1 4879
1 4880
1 4881
1 4882
1 4883
1 4884
1 4885
1 4886
1 4887
1 4888
1 4889
1 4890
1 4891
1 4892
1 4893
1 4894
1 4895
1 4896
1 4897
1 4898
1 4899
1 4900
1 4901
1 4902
1 4903
1 4904
1 4905
1 4906
1 4907
1 4908
1 4909
1 4910
1 4911
1 4912
1 4913
1 4914
1 4915
1 4916
1 4917
1 4918
1 4919
1 4920
1 4921
1 4922
1 4923
1 4924
1 4925
1 4926
1 4927
1 4928
1 4929
1 4930
1 4931
1 4932
1 4933
1 4934
1 4935
1 4936
1 4937
1 4938
1 4939
1 4940
1 4941
1 4942
1 4943
1 4944
1 4945
1 4946
1 4947
1 4948
1 4949
1 4950
1 4951
1 4952
1 4953
1 4954
1 4955
1 4956
1 4957
1 4958
1 4959
1 4960
1 4961
1 4962
1 4963
1 4964
1 4965
1 4966
1 4967
1 4968
1 4969
1 4970
1 4971
1 4972
1 4973
1 4974
1 4975
1 4976
1 4977
1 4978
1 4979
1 4980
1 4981
1 4982
1 4983
1 4984
1 4985
1 4986
1 4987
1 4988
1 4989
1 4990
1 4991
1 4992
1 4993
1 4994
1 4995
1 4996
1 4997
1 4998
1 4999
CELL_TYPES 5000
1 
1 
1 
1 
1 
1 
1 
1 
1 
1 
1 
1 
1 
1 
1 
1 
1 
1 
1 
1 
1 
1 
1 
1 
1 
1 
1 
1 
1 
1 
1 
1 
1 
1 
1 
1 
1 
1 
1 
1 
1 
1 
1 
1 
1 
1 
1 
1 
1 
1 
1 
1 
1 
1 
1 
1 
1 
1 
1 
1 
1 
1 
1 
1 
1 
1 
1 
1 
1 
1 
1 
1 
1 
1 
1 
1 
1 
1 
1 
1 
1 
1 
1 
1 
1 
1 
1 
1 
1 
1 
1 
1 
1 
1 
1 
1 
1 
1 
1 
1 
1 
1 
1 
1 
1 
1 
1 
1 
1 
1 
1 
1 
1 
1 
1 
1 
1 
1 
1 
1 
1 
1 
1 
1 
1 
1 
1 
1 
1 
1 
1 
1 
1 
1 
1 
1 
1 
1 
1 
1 
1 
1 
1 
1 
1 
1 
1 
1 
1 
1 
1 
1 
1 
1 
1 
1 
1 
1 
1 
1 
1 
1 
1 
1 
1 
1 
1 
1 
1 
1 
1 
1 
1 
1 
1 
1 
1 
1 
1 
1 
1 
1 
1 
1 
1 
1 
1 
1 
1 
1 
1 
1 
1 
1 
1 
1 
1 
1 
1 
1 
1 
1 
1 
1 
1 
1 
1 
1 
1 
1 
1 
1 
1 
1 
1 
1 
1 
1 
1 
1 
1 
1 
1 
1 
1 
1 
1 
1 
1 
1 
1 
1 
1 
1 
1 
1 
1 
1 
1 
1 
1 
1 
1 
1 
1 
1 
1 
1 
1 
1 
1 
1 
1 
1 
1 
1 
1 
1 
1 
1 
1 
1 
1 
1 
1 
1 
1 
1 
1 
1 
1 
1 
1 
1 
1 
1 
1 
1 
1 
1 
1 
1 
1 
1 
1 
1 
1 
1 
1 
1 
1 
1 
1 
1 
1 
1 
1 
1 
1 
1 
1 
1 
1 
1 
1 
1 
1 
1 
1 
1 
1 
1 
1 
1 
1 
1 
1 
1 
1 
1 
1 
1 
1 
1 
1 
1 
1 
1 
1 
1 
1 
1 
1 
1 
1 
1 
1 
1 
1 
1 
1 
1 
1 
1 
1 
1 
1 
1 
1 
1 
1 
1 
1 
1 
1 
1 
1 
1 
1 
1 
1 
1 
1 
1 
1 
1 
1 
1 
1 
1 
1 
1 
1 
1 
1 
1 
1 
1 
1 
1 
1 
1 
1 
1 
1 
1 
1 
1 
1 
1 
1 
1 
1 
1 
1 
1 
1 
1 
1 
1 
1 
1 
1 
1 
1 
1 
1 
1 
1 
1 
1 
1 
1 
1 
1 
1 
1 
1 
1 
1 
1 
1 
1 
1 
1 
1 
1 
1 
1 
1 
1 
1 
1 
1 
1 
1 
1 
1 
1 
1 
1 
1 
1 
1 
1 
1 
1 
1 
1 
1 
1 
1 
1 
1 
1 
1 
1 
1 
1 
1 
1 
1 
1 
1 
1 
1 
1 
1 
1 
1 
1 
1 
1 
1 
1 
1 
1 
1 
1 
1 
1 
1 
1 
1 
1 
1 
1 
1 
1 
1 
1 
1 
1 
1 
1 
1 
1 
1 
1 
1 
1 
1 
1 
1 
1 
1 
1 
1 
1 
1 
1 
1 
1 
1 
1 
1 
1 
1 
1 
1 
1 
1 
1 
1 
1 
1 
1 
1 
1 
1 
1 
1 
1 
1 
1 
1 
1 
1 
1 
1 
1 
1 
1 
1 
1 
1 
1 
1 
1 
1 
1 
1 
1 
1 
1 
1 
1 
1 
1 
1 
1 
1 
1 
1 
1 
1 
1 
1 
1 
1 
1 
1 
1 
1 
1 
1 
1 
1 
1 
1 
1 
1 
1 
1 
1 
1 
1 
1 
1 
1 
1 
1 
1 
1 
1 
1 
1 
1 
1 
1 
1 
1 
1 
1 
1 
1 
1 
1 
1 
1 
1 
1 
1 
1 
1 
1 
1 
1 
1 
1 
1 
1 
1 
1 
1 
1 
1 
1 
1 
1 
1 
1 
1 
1 
1 
1 
1 
1 
1 
1 
1 
1 
1 
1 
1 
1 
1 
1 
1 
1 
1 
1 
1 
1 
1 
1 
1 
1 
1 
1 
1 
1 
1 
1 
1 
1 
1 
1 
1 
1 
1 
1 
1 
1 
1 
1 
1 
1 
1 
1 
1 
1 
1 
1 
1 
1 
1 
1 
1 
1 
1 
1 
1 
1 
1 
1 
1 
1 
1 
1 
1 
1 
1 
1 
1 
1 
1 
1 
1 
1 
1 
1 
1 
1 
1 
1 
1 
1 
1 
1 
1 
1 
1 
1 
1 
1 
1 
1 
1 
1 
1 
1 
1 
1 
1 
1 
1 
1 
1 
1 
1 
1 
1 
1 
1 
1 
1 
1 
1 
1 
1 
1 
1 
1 
1 
1 
1 
1 
1 
1 
1 
1 
1 
1 
1 
1 
1 
1 
1 
1 
1 
1 
1 
1 
1 
1 
1 
1 
1 
1 
1 
1 
1 
1 
1 
1 
1 
1 
1 
1 
1 
1 
1 
1 
1 
1 
1 
1 
1 
1 
1 
1 
1 
1 
1 
1 
1 
1 
1 
1 
1 
1 
1 
1 
1 
1 
1 
1 
1 
1 
1 
1 
1 
1 
1 
1 
1 
1 
1 
1 
1 
1 
1 
1 
1 
1 
1 
1 
1 
1 
1 
1 
1 
1 
1 
1 
1 
1 
1 
1 
1 
1 
1 
1 
1 
1 
1 
1 
1 
1 
1 
1 
1 
1 
1 
1 
1 
1 
1 
1 
1 
1 
1 
1 
1 
1 
1 
1 
1 
1 
1 
1 
1 
1 
1 
1 
1 
1 
1 
1 
1 
1 
1 
1 
1 
1 
1 
1 
1 
1 
1 
1 
1 
1 
1 
1 
1 
1 
1 
1 
1 
1 
1 
1 
1 
1 
1 
1 
1 
1 
1 
1 
1 
1 
1 
1 
1 
1 
1 
1 
1 
1 
1 
1 
1 
1 
1 
1 
1 
1 
1 
1 
1 
1 
1 
1 
1 
1 
1 
1 
1 
1 
1 
1 
1 
1 
1 
1 
1 
1 
1 
1 
1 
1 
1 
1 
1 
1 
1 
1 
1 
1 
1 
1 
1 
1 
1 
1 
1 
1 
1 
1 
1 
1 
1 
1 
1 
1 
1 
1 
1 
1 
1 
1 
1 
1 
1 
1 
1 
1 
1 
1 
1 
1 
1 
1 
1 
1 
1 
1 
1 
1 
1 
1 
1 
1 
1 
1 
1 
1 
1 
1 
1 
1 
1 
1 
1 
1 
1 
1 
1 
1 
1 
1 
1 
1 
1 
1 
1 
1 
1 
1 
1 
1 
1 
1 
1 
1 
1 
1 
1 
1 
1 
1 
1 
1 
1 
1 
1 
1 
1 
1 
1 
1 
1 
1 
1 
1 
1 
1 
1 
1 
1 
1 
1 
1 
1 
1 
1 
1 
1 
1 
1 
1 
1 
1 
1 
1 
1 
1 
1 
1 
1 
1 
1 
1 
1 
1 
1 
1 
1 
1 
1 
1 
1 
1 
1 
1 
1 
1 
1 
1 
1 
1 
1 
1 
1 
1 
1 
1 
1 
1 
1 
1 
1 
1 
1 
1 
1 
1 
1 
1 
1 
1 
1 
1 
1 
1 
1 
1 
1 
1 
1 
1 
1 
1 
1 
1 
1 
1 
1 
1 
1 
1 
1 
1 
1 
1 
1 
1 
1 
1 
1 
1 
1 
1 
1 
1 
1 
1 
1 
1 
1 
1 
1 
1 
1 
1 
1 
1 
1 
1 
1 
1 
1 
1 
1 
1 
1 
1 
1 
1 
1 
1 
1 
1 
1 
1 
1 
1 
1 
1 
1 
1 
1 
1 
1 
1 
1 
1 
1 
1 
1 
1 
1 
1 
1 
1 
1 
1 
1 
1 
1 
1 
1 
1 
1 
1 
1 
1 
1 
1 
1 
1 
1 
1 
1 
1 
1 
1 
1 
1 
1 
1 
1 
1 
1 
1 
1 
1 
1 
1 
1 
1 
1 
1 
1 
1 
1 
1 
1 
1 
1 
1 
1 
1 
1 
1 
1 
1 
1 
1 
1 
1 
1 
1 
1 
1 
1 
1 
1 
1 
1 
1 
1 
1 
1 
1 
1 
1 
1 
1 
1 
1 
1 
1 
1 
1 
1 
1 
1 
1 
1 
1 
1 
1 
1 
1 
1 
1 
1 
1 
1 
1 
1 
1 
1 
1 
1 
1 
1 
1 
1 
1 
1 
1 
1 
1 
1 
1 
1 
1 
1 
1 
1 
1 
1 
1 
1 
1 
1 
1 
1 
1 
1 
1 
1 
1 
1 
1 
1 
1 
1 
1 
1 
1 
1 
1 
1 
1 
1 
1 
1 
1 
1 
1 
1 
1 
1 
1 
1 
1 
1 
1 
1 
1 
1 
1 
1 
1 
1 
1 
1 
1 
1 
1 
1 
1 
1 
1 
1 
1 
1 
1 
1 
1 
1 
1 
1 
1 
1 
1 
1 
1 
1 
1 
1 
1 
1 
1 
1 
1 
1 
1 
1 
1 
1 
1 
1 
1 
1 
1 
1 
1 
1 
1 
1 
1 
1 
1 
1 
1 
1 
1 
1 
1 
1 
1 
1 
1 
1 
1 
1 
1 
1 
1 
1 
1 
1 
1 
1 
1 
1 
1 
1 
1 
1 
1 
1 
1 
1 
1 
1 
1 
1 
1 
1 
1 
1 
1 
1 
1 
1 
1 
1 
1 
1 
1 
1 
1 
1 
1 
1 
1 
1 
1 
1 
1 
1 
1 
1 
1 
1 
1 
1 
1 
1 
1 
1 
1 
1 
1 
1 
1 
1 
1 
1 
1 
1 
1 
1 
1 
1 
1 
1 
1 
1 
1 
1 
1 
1 
1 
1 
1 
1 
1 
1 
1 
1 
1 
1 
1 
1 
1 
1 
1 
1 
1 
1 
1 
1 
1 
1 
1 
1 
1 
1 
1 
1 
1 
1 
1 
1 
1 
1 
1 
1 
1 
1 
1 
1 
1 
1 
1 
1 
1 
1 
1 
1 
1 
1 
1 
1 
1 
1 
1 
1 
1 
1 
1 
1 
1 
1 
1 
1 
1 
1 
1 
1 
1 
1 
1 
1 
1 
1 
1 
1 
1 
1 
1 
1 
1 
1 
1 
1 
1 
1 
1 
1 
1 
1 
1 
1 
1 
1 
1 
1 
1 
1 
1 
1 
1 
1 
1 
1 
1 
1 
1 
1 
1 
1 
1 
1 
1 
1 
1 
1 
1 
1 
1 
1 
1 
1 
1 
1 
1 
1 
1 
1 
1 
1 
1 
1 
1 
1 
1 
1 
1 
1 
1 
1 
1 
1 
1 
1 
1 
1 
1 
1 
1 
1 
1 
1 
1 
1 
1 
1 
1 
1 
1 
1 
1 
1 
1 
1 
1 
1 
1 
1 
1 
1 
1 
1 
1 
1 
1 
1 
1 
1 
1 
1 
1 
1 
1 
1 
1 
1 
1 
1 
1 
1 
1 
1 
1 
1 
1 
1 
1 
1 
1 
1 
1 
1 
1 
1 
1 
1 
1 
1 
1 
1 
1 
1 
1 
1 
1 
1 
1 
1 
1 
1 
1 
1 
1 
1 
1 
1 
1 
1 
1 
1 
1 
1 
1 
1 
1 
1 
1 
1 
1 
1 
1 
1 
1 
1 
1 
1 
1 
1 
1 
1 
1 
1 
1 
1 
1 
1 
1 
1 
1 
1 
1 
1 
1 
1 
1 
1 
1 
1 
1 
1 
1 
1 
1 
1 
1 
1 
1 
1 
1 
1 
1 
1 
1 
1 
1 
1 
1 
1 
1 
1 
1 
1 
1 
1 
1 
1 
1 
1 
1 
1 
1 
1 
1 
1 
1 
1 
1 
1 
1 
1 
1 
1 
1 
1 
1 
1 
1 
1 
1 
1 
1 
1 
1 
1 
1 
1 
1 
1 
1 
1 
1 
1 
1 
1 
1 
1 
1 
1 
1 
1 
1 
1 
1 
1 
1 
1 
1 
1 
1 
1 
1 
1 
1 
1 
1 
1 
1 
1 
1 
1 
1 
1 
1 
1 
1 
1 
1 
1 
1 
1 
1 
1 
1 
1 
1 
1 
1 
1 
1 
1 
1 
1 
1 
1 
1 
1 
1 
1 
1 
1 
1 
1 
1 
1 
1 
1 
1 
1 
1 
1 
1 
1 
1 
1 
1 
1 
1 
1 
1 
1 
1 
1 
1 
1 
1 
1 
1 
1 
1 
1 
1 
1 
1 
1 
1 
1 
1 
1 
1 
1 
1 
1 
1 
1 
1 
1 
1 
1 
1 
1 
1 
1 
1 
1 
1 
1 
1 
1 
1 
1 
1 
1 
1 
1 
1 
1 
1 
1 
1 
1 
1 
1 
1 
1 
1 
1 
1 
1 
1 
1 
1 
1 
1 
1 
1 
1 
1 
1 
1 
1 
1 
1 
1 
1 
1 
1 
1 
1 
1 
1 
1 
1 
1 
1 
1 
1 
1 
1 
1 
1 
1 
1 
1 
1 
1 
1 
1 
1 
1 
1 
1 
1 
1 
1 
1 
1 
1 
1 
1 
1 
1 
1 
1 
1 
1 
1 
1 
1 
1 
1 
1 
1 
1 
1 
1 
1 
1 
1 
1 
1 
1 
1 
1 
1 
1 
1 
1 
1 
1 
1 
1 
1 
1 
1 
1 
1 
1 
1 
1 
1 
1 
1 
1 
1 
1 
1 
1 
1 
1 
1 
1 
1 
1 
1 
1 
1 
1 
1 
1 
1 
1 
1 
1 
1 
1 
1 
1 
1 
1 
1 
1 
1 
1 
1 
1 
1 
1 
1 
1 
1 
1 
1 
1 
1 
1 
1 
1 
1 
1 
1 
1 
1 
1 
1 
1 
1 
1 
1 
1 
1 
1 
1 
1 
1 
1 
1 
1 
1 
1 
1 
1 
1 
1 
1 
1 
1 
1 
1 
1 
1 
1 
1 
1 
1 
1 
1 
1 
1 
1 
1 
1 
1 
1 
1 
1 
1 
1 
1 
1 
1 
1 
1 
1 
1 
1 
1 
1 
1 
1 
1 
1 
1 
1 
1 
1 
1 
1 
1 
1 
1 
1 
1 
1 
1 
1 
1 
1 
1 
1 
1 
1 
1 
1 
1 
1 
1 
1 
1 
1 
1 
1 
1 
1 
1 
1 
1 
1 
1 
1 
1 
1 
1 
1 
1 
1 
1 
1 
1 
1 
1 
1 
1 
1 
1 
1 
1 
1 
1 
1 
1 
1 
1 
1 
1 
1 
1 
1 
1 
1 
1 
1 
1 
1 
1 
1 
1 
1 
1 
1 
1 
1 
1 
1 
1 
1 
1 
1 
1 
1 
1 
1 
1 
1 
1 
1 
1 
1 
1 
1 
1 
1 
1 
1 
1 
1 
1 
1 
1 
1 
1 
1 
1 
1 
1 
1 
1 
1 
1 
1 
1 
1 
1 
1 
1 
1 
1 
1 
1 
1 
1 
1 
1 
1 
1 
1 
1 
1 
1 
1 
1 
1 
1 
1 
1 
1 
1 
1 
1 
1 
1 
1 
1 
1 
1 
1 
1 
1 
1 
1 
1 
1 
1 
1 
1 
1 
1 
1 
1 
1 
1 
1 
1 
1 
1 
1 
1 
1 
1 
1 
1 
1 
1 
1 
1 
1 
1 
1 
1 
1 
1 
1 
1 
1 
1 
1 
1 
1 
1 
1 
1 
1 
1 
1 
1 
1 
1 
1 
1 
1 
1 
1 
1 
1 
1 
1 
1 
1 
1 
1 
1 
1 
1 
1 
1 
1 
1 
1 
1 
1 
1 
1 
1 
1 
1 
1 
1 
1 
1 
1 
1 
1 
1 
1 
1 
1 
1 
1 
1 
1 
1 
1 
1 
1 
1 
1 
1 
1 
1 
1 
1 
1 
1 
1 
1 
1 
1 
1 
1 
1 
1 
1 
1 
1 
1 
1 
1 
1 
1 
1 
1 
1 
1 
1 
1 
1 
1 
1 
1 
1 
1 
1 
1 
1 
1 
1 
1 
1 
1 
1 
1 
1 
1 
1 
1 
1 
1 
1 
1 
1 
1 
1 
1 
1 
1 
1 
1 
1 
1 
1 
1 
1 
1 
1 
1 
1 
1 
1 
1 
1 
1 
1 
1 
1 
1 
1 
1 
1 
1 
1 
1 
1 
1 
1 
1 
1 
1 
1 
1 
1 
1 
1 
1 
1 
1 
1 
1 
1 
1 
1 
1 
1 
1 
1 
1 
1 
1 
1 
1 
1 
1 
1 
1 
1 
1 
1 
1 
1 
1 
1 
1 
1 
1 
1 
1 
1 
1 
1 
1 
1 
1 
1 
1 
1 
1 
1 
1 
1 
1 
1 
1 
1 
1 
1 
1 
1 
1 
1 
1 
1 
1 
1 
1 
1 
1 
1 
1 
1 
1 
1 
1 
1 
1 
1 
1 
1 
1 
1 
1 
1 
1 
1 
1 
1 
1 
1 
1 
1 
1 
1 
1 
1 
1 
1 
1 
1 
1 
1 
1 
1 
1 
1 
1 
1 
1 
1 
1 
1 
1 
1 
1 
1 
1 
1 
1 
1 
1 
1 
1 
1 
1 
1 
1 
1 
1 
1 
1 
1 
1 
1 
1 
1 
1 
1 
1 
1 
1 
1 
1 
1 
1 
1 
1 
1 
1 
1 
1 
1 
1 
1 
1 
1 
1 
1 
1 
1 
1 
1 
1 
1 
1 
1 
1 
1 
1 
1 
1 
1 
1 
1 
1 
1 
1 
1 
1 
1 
1 
1 
1 
1 
1 
1 
1 
1 
1 
1 
1 
1 
1 
1 
1 
1 
1 
1 
1 
1 
1 
1 
1 
1 
1 
1 
1 
1 
1 
1 
1 
1 
1 
1 
1 
1 
1 
1 
1 
1 
1 
1 
1 
1 
1 
1 
1 
1 
1 
1 
1 
1 
1 
1 
1 
1 
1 
1 
1 
1 
1 
1 
1 
1 
1 
1 
1 
1 
1 
1 
1 
1 
1 
1 
1 
1 
1 
1 
1 
1 
1 
1 
1 
1 
1 
1 
1 
1 
1 
1 
1 
1 
1 
1 
1 
1 
1 
1 
1 
1 
1 
1 
1 
1 
1 
1 
1 
1 
1 
1 
1 
1 
1 
1 
1 
1 
1 
1 
1 
1 
1 
1 
1 
1 
1 
1 
1 
1 
1 
1 
1 
1 
1 
1 
1 
1 
1 
1 
1 
1 
1 
1 
1 
1 
1 
1 
1 
1 
1 
1 
1 
1 
1 
1 
1 
1 
1 
1 
1 
1 
1 
1 
1 
1 
1 
1 
1 
1 
1 
1 
1 
1 
1 
1 
1 
1 
1 
1 
1 
1 
1 
1 
1 
1 
1 
1 
1 
1 
1 
1 
1 
1 
1 
1 
1 
1 
1 
1 
1 
1 
1 
1 
1 
1 
1 
1 
1 
1 
1 
1 
1 
1 
1 
1 
1 
1 
1 
1 
1 
1 
1 
1 
1 
1 
1 
1 
1 
1 
1 
1 
1 
1 
1 
1 
1 
1 
1 
1 
1 
1 
1 
1 
1 
1 
1 
1 
1 
1 
1 
1 
1 
1 
1 
1 
1 
1 
1 
1 
1 
1 
1 
1 
1 
1 
1 
1 
1 
1 
1 
1 
1 
1 
1 
1 
1 
1 
1 
1 
1 
1 
1 
1 
1 
1 
1 
1 
1 
1 
1 
1 
1 
1 
1 
1 
1 
1 
1 
1 
1 
1 
1 
1 
1 
1 
1 
1 
1 
1 
1 
1 
1 
1 
1 
1 
1 
1 
1 
1 
1 
1 
1 
1 
1 
1 
1 
1 
1 
1 
1 
1 
1 
1 
1 
1 
1 
1 
1 
1 
1 
1 
1 
1 
1 
1 
1 
1 
1 
1 
1 
1 
1 
1 
1 
1 
1 
1 
1 
1 
1 
1 
1 
1 
1 
1 
1 
1 
1 
1 
1 
1 
1 
1 
1 
1 
1 
1 
1 
1 
1 
1 
1 
1 
1 
1 
1 
1 
1 
1 
1 
1 
1 
1 
1 
1 
1 
1 
1 
1 
1 
1 
1 
1 
1 
1 
1 
1 
1 
1 
1 
1 
1 
1 
1 
1 
1 
1 
1 
1 
1 
1 
1 
1 
1 
1 
1 
1 
1 
1 
1 
1 
1 
1 
1 
1 
1 
1 
1 
1 
1 
1 
1 
1 
1 
1 
1 
1 
1 
1 
1 
1 
1 
1 
1 
1 
1 
1 
1 
1 
1 
1 
1 
1 
1 
1 
1 
1 
1 
1 
1 
1 
1 
1 
1 
1 
1 
1 
1 
1 
1 
1 
1 
1 
1 
1 
1 
1 
1 
1 
1 
1 
1 
1 
1 
1 
1 
1 
1 
1 
1 
1 
1 
1 
1 
1 
1 
1 
1 
1 
1 
1 
1 
1 
1 
1 
1 
1 
1 
1 
1 
1 
1 
1 
1 
1 
1 
1 
1 
1 
1 
1 
1 
1 
1 
1 
1 
1 
1 
1 
1 
1 
1 
1 
1 
1 
1 
1 
1 
1 
1 
1 
1 
1 
1 
1 
1 
1 
1 
1 
1 
1 
1 
1 
1 
1 
1 
1 
1 
1 
1 
1 
1 
1 
1 
1 
1 
1 
1 
1 
1 
1 
1 
1 
1 
1 
1 
1 
1 
1 
1 
1 
1 
1 
1 
1 
1 
1 
1 
1 
1 
1 
1 
1 
1 
1 
1 
1 
1 
1 
1 
1 
1 
1 
1 
1 
1 
1 
1 
1 
1 
1 
1 
1 
1 
1 
1 
1 
1 
1 
1 
1 
1 
1 
1 
1 
1 
1 
1 
1 
1 
1 
1 
1 
1 
1 
1 
1 
1 
1 
1 
1 
1 
1 
1 
1 
1 
1 
1 
1 
1 
1 
1 
1 
1 
1 
1 
1 
1 
1 
1 
1 
1 
1 
1 
1 
1 
1 
1 
1 
1 
1 
1 
1 
1 
1 
1 
1 
1 
1 
1 
1 
1 
1 
1 
1 
1 
1 
1 
1 
1 
1 
1 
1 
1 
1 
1 
1 
1 
1 
1 
1 
1 
1 
1 
1 
1 
1 
1 
1 
1 
1 
1 
1 
1 
1 
1 
1 
1 
1 
1 
1 
1 
1 
1 
1 
1 
1 
1 
1 
1 
1 
1 
1 
1 
1 
1 
1 
1 
1 
1 
1 
1 
1 
1 
1 
1 
1 
1 
1 
1 
1 
1 
1 
1 
1 
1 
1 
1 
1 
1 
1 
1 
1 
1 
1 
1 
1 
1 
1 
1 
1 
1 
1 
1 
1 
1 
1 
1 
1 
1 
1 
1 
1 
1 
1 
1 
1 
1 
1 
1 
1 
1 
1 
1 
1 
1 
1 
1 
1 
1 
1 
1 
1 
1 
1 
1 
1 
1 
1 
1 
1 
1 
1 
1 
1 
1 
1 
1 
1 
1 
1 
1 
1 
1 
1 
1 
1 
1 
1 
1 
1 
1 
1 
1 
1 
1 
1 
1 
1 
1 
1 
1 
1 
1 
1 
1 
1 
1 
1 
1 
1 
1 
1 
1 
1 
1 
1 
1 
1 
1 
1 
1 
1 
1 
1 
1 
1 
1 
1 
1 
1 
1 
1 
1 
1 
1 
1 
1 
1 
1 
1 
1 
1 
1 
1 
1 
1 
1 
1 
1 
1 
1 
1 
1 
1 
1 
1 
1 
1 
1 
1 
1 
1 
1 
1 
1 
1 
1 
1 
1 
1 
1 
1 
1 
1 
1 
1 
1 
1 
1 
1 
1 
1 
1 
1 
1 
1 
1 
1 
1 
1 
1 
1 
1 
1 
1 
1 
1 
1 
1 
1 
1 
1 
1 
1 
1 
1 
1 
1 
1 
1 
1 
1 
1 
1 
1 
1 
1 
1 
1 
1 
1 
1 
1 
1 
1 
1 
1 
1 
1 
1 
1 
1 
1 
1 
1 
1 
1 
1 
1 
1 
1 
1 
1 
1 
1 
1 
1 
1 
1 
1 
1 
1 
1 
1 
1 
1 
1 
1 
1 
1 
1 
1 
1 
1 
1 
1 
1 
1 
1 
1 
1 
1 
1 
1 
1 
1 
1 
1 
1 
1 
1 
1 
1 
1 
1 
1 
1 
1 
1 
1 
1 
1 
1 
1 
1 
1 
1 
1 
1 
1 
1 
1 
1 
1 
1 
1 
1 
1 
1 
1 
1 
1 
1 
1 
1 
1 
1 
1 
1 
1 
1 
1 
1 
1 
1 
1 
1 
1 
1 
1 
1 
1 
1 
1 
1 
1 
1 
1 
1 
1 
1 
1 
1 
1 
1 
1 
1 
1 
1 
1 
1 
1 
1 
1 
1 
1 
1 
1 
1 
1 
1 
1 
1 
1 
1 
1 
1 
1 
1 
1 
1 
1 
1 
1 
1 
1 
1 
1 
1 
1 
1 
1 
1 
1 
1 
1 
1 
1 
1 
1 
1 
1 
1 
1 
1 
1 
1 
1 
1 
1 
1 
1 
1 
1 
1 
1 
1 
1 
1 
1 
1 
1 
1 
1 
1 
1 
1 
1 
1 
1 
1 
1 
1 
1 
1 
1 
1 
1 
1 
1 
1 
1 
1 
1 
1 
1 
1 
1 
1 
1 
1 
1 
1 
1 
1 
1 
1 
1 
1 
1 
1 
1 
1 
1 
1 
1 
1 
1 
1 
1 
1 
1 
1 
1 
1 
1 
1 
1 
1 
1 
1 
1 
1 
1 
1 
1 
1 
1 
1 
1 
1 
1 
1 
1 
1 
1 
1 
1 
1 
1 
1 
1 
1 
1 
1 
1 
1 
1 
1 
1 
1 
1 
1 
1 
1 
1 
1 
1 
1 
1 
1 
1 
1 
1 
1 
1 
1 
1 
1 
1 
1 
1 
1 
1 
1 
1 
1 
1 
1 
1 
1 
1 
1 
1 
1 
1 
1 
1 
1 
1 
1 
1 
1 
1 
1 
1 
1 
1 
1 
1 
1 
1 
1 
1 
1 
1 
1 
1 
1 
1 
1 
1 
1 
1 
1 
1 
1 
1 
1 
1 
1 
1 
1 
1 
1 
1 
1 
1 
1 
1 
1 
1 
1 
1 
1 
1 
1 
1 
1 
1 
1 
1 
1 
1 
1 
1 
1 
1 
1 
1 
1 
1 
1 
1 
1 
1 
1 
1 
1 
1 
1 
1 
1 
1 
1 
1 
1 
1 
1 
1 
1 
1 
1 
1 
1 
1 
1 
1 
1 
1 
1 
1 
1 
1 
1 
1 
1 
1 
1 
1 
1 
1 
1 
1 
1 
1 
1 
1 
1 
1 
1 
1 
1 
1 
1 
1 
1 
1 
1 
1 
1 
1 
1 
1 
1 
1 
1 
1 
1 
1 
1 
1 
1 
1 
1 
1 
1 
1 
1 
1 
1 
1 
1 
1 
1 
1 
1 
1 
1 
1 
1 
1 
1 
1 
1 
1 
1 
1 
1 
1 
1 
1 
1 
1 
1 
1 
1 
1 
1 
1 
1 
1 
1 
1 
1 
1 
1 
1 
1 
1 
1 
1 
1 
1 
1 
1 
1 
1 
1 
1 
1 
1 
1 
1 
1 
1 
1 
1 
1 
1 
1 
1 
1 
1 
1 
1 
1 
1 
1 
1 
1 
1 
1 
1 
1 
1 
1 
1 
1 
1 
1 
1 
1 
1 
1 
1 
1 
1 
1 
1 
1 
1 
1 
1 
1 
1 
1 
1 
1 
1 
1 
1 
1 
1 
1 
1 
1 
1 
1 
1 
1 
1 
1 
1 
1 
1 
1 
1 
1 
1 
1 
1 
1 
1 
1 
1 
1 
1 
1 
1 
1 
1 
1 
1 
1 
1 
1 
1 
1 
1 
1 
1 
1 
1 
1 
1 
1 
1 
1 
1 
1 
1 
1 
1 
1 
1 
1 
1 
1 
1 
1 
1 
1 
1 
1 
1 
1 
1 
1 
1 
1 
1 
1 
1 
1 
1 
1 
1 
1 
1 
1 
1 
1 
1 
1 
1 
1 
1 
1 
1 
1 
1 
1 
1 
1 
1 
1 
1 
1 
1 
1 
1 
1 
1 
1 
1 
1 
1 
1 
1 
1 
1 
1 
1 
1 
1 
1 
1 
1 
1 
1 
1 
1 
1 
1 
1 
1 
1 
1 
1 
1 
1 
1 
1 
1 
1 
1 
1 
1 
1 
1 
1 
1 
1 
1 
1 
1 
1 
1 
1 
1 
1 
1 
1 
1 
1 
1 
1 
1 
1 
1 
1 
1 
1 
1 
1 
1 
1 
1 
1 
1 
1 
1 
1 
1 
1 
1 
1 
1 
1 
1 
1 
1 
1 
1 
1 
1 
1 
1 
1 
1 
1 
1 
1 
1 
1 
1 
1 
1 
1 
1 
1 
1 
1 
1 
1 
1 
1 
1 
1 
1 
1 
1 
1 
1 
1 
1 
1 
1 
1 
1 
1 
1 
1 
1 
1 
1 
1 
1 
1 
1 
1 
1 
1 
1 
1 
1 
1 
1 
1 
1 
1 
1 
1 
1 
1 
1 
1 
1 
1 
1 
1 
1 
1 
1 
1 
1 
1 
1 
1 
1 
1 
1 
1 
1 
1 
1 
1 
1 
1 
1 
1 
1 
1 
1 
1 
1 
1 
1 
1 
1 
1 
1 
1 
1 
1 
1 
1 
1 
1 
1 
1 
1 
1 
1 
1 
1 
1 
1 
1 
1 
1 
1 
1 
1 
1 
1 
1 
1 
1 
1 
1 
1 
1 
1 
1 
1 
1 
1 
1 
1 
1 
1 
1 
1 
1 
1 
1 
1 
1 
1 
1 
1 
1 
1 
1 
1 
1 
1 
1 
1 
1 
1 
1 
1 
1 
1 
1 
1 
1 
1 
1 
1 
1 
1 
1 
1 
1 
1 
1 
1 
1 
1 
1 
1 
1 
1 
1 
1 
1 
1 
1 
1 
1 
1 
1 
1 
1 
1 
1 
1 
1 
1 
1 
1 
1 
1 
1 
1 
1 
1 
1 
1 
1 
1 
1 
1 
1 
1 
1 
1 
1 
1 
1 
1 
1 
1 
1 
1 
1 
1 
1 
1 
1 
1 
1 
1 
1 
1 
1 
1 
1 
1 
1 
1 
1 
1 
1 
1 
1 
1 
1 
1 
1 
1 
1 
1 
1 
1 
1 
1 
1 
1 
1 
1 
1 
1 
1 
1 
1 
1 
1 
1 
1 
1 
1 
1 
1 
1 
1 
1 
1 
1 
1 
1 
1 
1 
1 
1 
1 
1 
1 
1 
1 
1 
1 
1 
1 
1 
1 
1 
1 
1 
1 
1 
1 
1 
1 
1 
1 
1 
1 
1 
1 
1 
1 
1 
1 
1 
1 
1 
1 
1 
1 
1 
1 
1 
1 
1 
1 
1 
1 
1 
1 
1 
1 
1 
1 
1 
1 
1 
1 
1 
1 
1 
1 
1 
1 
1 
1 
1 
1 
1 
1 
1 
1 
1 
1 
1 
1 
1 
1 
1 
1 
1 
1 
1 
1 
1 
1 
1 
1 
1 
1 
1 
1 
1 
1 
1 
1 
1 
1 
1 
1 
1 
1 
1 
1 
1 
1 
1 
1 
1 
1 
1 
1 
1 
1 
1 
1 
1 
1 
1 
1 
1 
1 
1 
1 
1 
1 
1 
1 
1 
1 
1 
1 
1 
1 
1 
1 
1 
1 
1 
1 
1 
1 
1 
1 
1 
1 
1 
1 
1 
1 
1 
1 
1 
1 
1 
1 
1 
1 
1 
1 
1 
1 
1 
1 
1 
1 
1 
1 
1 
1 
1 
1 
1 
1 
1 
1 
1 
1 
1 
1 
1 
1 
1 
1 
1 
1 
1 
1 
1 
1 
1 
1 
1 
1 
1 
1 
1 
1 
1 
1 
1 
1 
1 
1 
1 
1 
1 
1 
1 
1 
1 
1 
1 
1 
1 
1 
1 
1 
1 
1 
1 
1 
1 
1 
1 
1 
1 
1 
1 
1 
1 
1 
1 
1 
1 
1 
1 
1 
1 
1 
1 
1 
1 
1 
1 
1 
1 
1 
1 
1 
1 
1 
1 
1 
1 
1 
1 
1 
1 
1 
1 
1 
1 
1 
1 
1 
1 
1 
1 
1 
1 
1 
1 
1 
1 
1 
1 
1 
1 
1 
1 
1 
1 
1 
1 
1 
1 
1 
1 
1 
POINT_DATA 5000
VECTORS Stress float
-1906.65 -3139.76 0.
-2419.02 -2123.5 0.
-69.7368 -134.681 0.
-505.088 -702.669 0.
-3320.37 -6533.93 0.
-85.8588 -157.185 0.
-3033.56 -2964.31 0.
-50.0723 -88.428 0.
-24.1956 -37.8544 0.
-3933.59 -6053.47 0.
-1384.8 -2303.82 0.
-44.6063 -76.4292 0.
-1872.44 -2740.13 0.
-1450.51 -2162.83 0.
-1295.49 -1843.66 0.
-1083.93 -1677.73 0.
-864.596 -1519.56 0.
-870.439 -1681.36 0.
-692.589 -1385.54 0.
-514.868 -1089.58 0.
-536.052 -1072.45 0.
-484.374 -980.162 0.
-433.647 -886.917 0.
-461.338 -885.952 0.
-448.664 -889.701 0.
-441.653 -887.786 0.
-541.612 -1007.51 0.
-582.584 -1051.86 0.
-551.19 -995.149 0.
-515.673 -904.212 0.
-480.938 -812.494 0.
-488.847 -777.199 0.
-487.203 -738.6 0.
-484.402 -701.158 0.
-500.342 -685.578 0.
-508.012 -675.562 0.
-517.063 -664.166 0.
-641.526 -789.602 0.
-696.478 -830.666 0.
-684.692 -797.628 0.
-662.488 -735.17 0.
-636.728 -676.266 0.
-648.92 -667.446 0.
-653.663 -660.617 0.
-657.1 -655.095 0.
-612.435 -582.662 0.
-388.66 -361.45 0.
-155.251 -149.871 0.
-8.98358 -8.02434 0.
-476.975 -928.136 0.
-797.929 -2175.5 0.
-479.121 -916.112 0.
-0.100484 -0.298465 0.
-162.195 -157.652 0.
-392.582 -365.94 0.
-617.062 -580.135 0.
-663.491 -647.66 0.
-660.298 -651.498 0.
-656.1 -656.342 0.
-648.347 -668.638 0.
-678.584 -736.176 0.
-704.291 -808.243 0.
-710.897 -838.118 0.
-654.209 -794.334 0.
-521.496 -661.553 0.
-513.941 -673.554 0.
-507.458 -684.481 0.
-494.642 -701.809 0.
-500.001 -743.738 0.
-504.024 -787.003 0.
-500.357 -829.935 0.
-539.057 -935.295 0.
-579.522 -1038.89 0.
-608.409 -1088.55 0.
-564.509 -1035.57 0.
-496.062 -965.19 0.
-461.76 -886.099 0.
-463.501 -867.268 0.
-425.694 -842.171 0.
-498.201 -978.247 0.
-570.488 -1114.54 0.
-529.403 -1124.68 0.
-830.189 -1646.92 0.
-1133.63 -2166.5 0.
-1141.2 -1803.57 0.
-1322.13 -1746.85 0.
-1488.03 -1705.16 0.
-1583.42 -2401.94 0.
-2352.22 -3759.23 0.
-20.8168 -44.6749 0.
-702.34 -1028.26 0.
-4461.85 -6622.31 0.
-68.4703 -79.7405 0.
-132.061 -137.834 0.
-2919.13 -3194.04 0.
-33.0275 -39.465 0.
-3409.83 -4818.14 0.
0.381348 0.01569 0.
-2869.04 -5044.43 0.
-274.247 -560.265 0.
-1509.96 -2777.93 0.
-37.2467 -79.5854 0.
-54.922 -144.299 0.
-48.8708 -107.008 0.
-80.2272 -117.325 0.
-74.3602 -120.787 0.
-88.908 -163.237 0.
-43.5734 -79.9187 0.
-325.32 -168.787 0.
-21.5108 -28.4249 0.
-26.6643 -40.0582 0.
-65.2878 -90.399 0.
-770.473 -1023.28 0.
-406.004 -387.054 0.
-518.127 -716.279 0.
-358.114 -498.425 0.
-222.121 -256.551 0.
-561.817 -1234.42 0.
-400.496 -921.887 0.
-258.562 -589.968 0.
-463.515 -983.179 0.
-413.967 -888.75 0.
-365.086 -793.655 0.
-487.37 -824.651 0.
-467.341 -835.753 0.
-448.199 -845.963 0.
-673.052 -1106.41 0.
-701.491 -1163.28 0.
-560.656 -970.61 0.
-524.092 -880.719 0.
-487.896 -790.462 0.
-537.29 -831.422 0.
-536.004 -792.467 0.
-540.141 -748.09 0.
-576.82 -742.649 0.
-582.157 -734.965 0.
-589.54 -725.234 0.
-886.854 -1007.93 0.
-938.29 -1052.49 0.
-804.45 -903.455 0.
-783.729 -839.523 0.
-759.31 -779.287 0.
-829.483 -825.663 0.
-835.505 -817.557 0.
-840.133 -810.845 0.
-940.59 -859.636 0.
-729.86 -625.518 0.
-488.82 -421.709 0.
-17.9573 -11.46 0.
-19.2621 -14.9435 0.
-118.702 -284.672 0.
0.000152519 0.329606 0.
-0.0151445 -0.140127 0.
-509.015 -444.483 0.
-749.618 -642.408 0.
-964.008 -866.547 0.
-867.411 -817.83 0.
-863.018 -822.869 0.
-857.198 -829.337 0.
-788.295 -780.424 0.
-815.65 -850.83 0.
-840.276 -923.967 0.
-963.076 -1069.01 0.
-909.924 -1021.71 0.
-591.676 -720.433 0.
-585.312 -731.242 0.
-581.229 -739.77 0.
-551.672 -745.364 0.
-549.698 -794.625 0.
-550.974 -840.636 0.
-500.753 -803.944 0.
-541.773 -906.983 0.
-583.196 -1009.62 0.
-720.912 -1197.83 0.
-679.66 -1142.2 0.
-360.679 -816.751 0.
-465.472 -826.482 0.
-478.558 -796.307 0.
-325.135 -695.078 0.
-392.703 -836.119 0.
-463.856 -973.574 0.
-193.181 -192.006 0.
-388.291 -820.463 0.
-632.879 -1399.44 0.
-132.537 -117.631 0.
-214.195 -155.654 0.
-259.881 -234.355 0.
-35.5959 -66.0089 0.
-334.64 -869.513 0.
-27.3461 -47.449 0.
-27.3224 -46.4232 0.
-27.7611 -47.81 0.
-157.51 -121.96 0.
-47.4749 -101.648 0.
-60.8264 -134.876 0.
-30.9491 -21.9892 0.
-0.45804 -0.0898753 0.
0.195929 0.0631933 0.
-153.706 -412.929 0.
-61.9358 -154.567 0.
-17.0041 -7.75176 0.
-38.5282 -74.4416 0.
-58.4752 -150.855 0.
-43.1649 -103.155 0.
-93.085 -115.63 0.
-85.3371 -118.649 0.
-116.873 -207.286 0.
-76.5408 -105.654 0.
-735.942 -338.918 0.
-34.463 -42.1061 0.
-41.3333 -51.3909 0.
-209.753 -202.879 0.
-157.492 -132.064 0.
-73.3863 -74.0178 0.
-52.3938 -72.0854 0.
-56.3301 -77.6306 0.
-98.2799 -130.335 0.
-336.479 -704.199 0.
-208.983 -357.659 0.
-74.8493 -108.952 0.
-436.205 -848.677 0.
-388.36 -752.54 0.
-343.374 -653.543 0.
-519.364 -757.388 0.
-499.35 -768.474 0.
-479.784 -779.102 0.
-834.297 -1175.51 0.
-859.886 -1235.22 0.
-599.004 -917.189 0.
-551.987 -837.751 0.
-513.298 -749.985 0.
-599.282 -872.095 0.
-602.515 -828.624 0.
-606.482 -784.419 0.
-673.729 -779.29 0.
-673.832 -776.837 0.
-675.031 -773.288 0.
-1173.91 -1184.53 0.
-1212.8 -1241.6 0.
-940.36 -993.13 0.
-917.724 -931.121 0.
-893.507 -870.693 0.
-1021.03 -972.896 0.
-1026.32 -965.526 0.
-1030.75 -959.015 0.
-1303.88 -1101.47 0.
-1092.72 -867.922 0.
-883.334 -686.921 0.
-26.644 -13.2365 0.
-29.0862 -18.7607 0.
-8146.05 -5852.75 0.
0.00167248 0.307232 0.
0.00234858 0.143571 0.
-921.996 -702.24 0.
-1132.24 -893.291 0.
-1351.34 -1112.57 0.
-1079.97 -979.361 0.
-1075.68 -984.295 0.
-1070.75 -989.878 0.
-941.875 -878.579 0.
-970.717 -947.485 0.
-996.943 -1019.01 0.
-1249.45 -1265.7 0.
-1209.67 -1205.06 0.
-677.864 -763.306 0.
-678.325 -767.289 0.
-680.522 -769.535 0.
-619.421 -778.2 0.
-618.164 -826.743 0.
-615.764 -876.43 0.
-520.886 -758.215 0.
-567.748 -855.413 0.
-620.882 -946.34 0.
-864.473 -1276.04 0.
-834.927 -1208.72 0.
-427.248 -719.335 0.
-483.734 -752.315 0.
-495.833 -723.128 0.
-304.431 -468.131 0.
-345.646 -635.549 0.
-400.645 -789.183 0.
-95.9829 -101.225 0.
-46.2386 -51.3852 0.
-319.578 -444.934 0.
-275.679 -161.459 0.
-83.2406 -105.264 0.
-134.702 -156.563 0.
-35.8546 -64.2634 0.
-32.3873 -55.7538 0.
-38.2279 -51.9621 0.
-34.8789 -49.885 0.
-35.9994 -52.3188 0.
-514.627 -249.403 0.
-123.017 -138.677 0.
-191.794 -192.708 0.
-23.2234 -14.5657 0.
0.699742 0.353364 0.
-47.1491 -74.6928 0.
-70.1143 -178.123 0.
-1800.47 -2565.62 0.
-1698 -3061.12 0.
-73.0849 -142.368 0.
-57.6647 -119.719 0.
-2487.36 -3244.38 0.
-97.749 -249.495 0.
-2814.17 -5045.85 0.
-23.176 -26.164 0.
-1871.92 -2284.38 0.
-40.47 -99.5359 0.
-3331.79 -5302.18 0.
-59.4729 -132.419 0.
-85.5944 -136.811 0.
-3971.46 -7206.79 0.
-81.9645 -115.581 0.
-2183.82 -2908.88 0.
-1443.61 -1944.12 0.
-743.786 -938.955 0.
-2171.97 -4198.28 0.
-1146.5 -2264.98 0.
-224.802 -227.891 0.
-1252.01 -2646.97 0.
-851.5 -1845.97 0.
-489.689 -1006.28 0.
-827.28 -1648.01 0.
-686.328 -1348.72 0.
-548.647 -1046.16 0.
-1014.16 -1636.73 0.
-1004.64 -1614.54 0.
-729.712 -1250.76 0.
-689.706 -1163.81 0.
-657.817 -1068.74 0.
-754.983 -1127.74 0.
-725.518 -1094.85 0.
-701.386 -1056.62 0.
-802.743 -1030.05 0.
-783.218 -1026.3 0.
-767.902 -1018.33 0.
-1302.2 -1397.19 0.
-1306.3 -1406.8 0.
-986.404 -1144.61 0.
-965.338 -1104.38 0.
-944.464 -1063.96 0.
-1125.19 -1147.22 0.
-1095.64 -1081.56 0.
-1076.05 -1005.93 0.
-1429.76 -1205.26 0.
-1481.28 -1343.97 0.
-1533.97 -1481.5 0.
-4.58164 -5.28 0.
-7.61862 -9.3917 0.
-9572.11 -4113.6 0.
-0.00170075 -0.568429 0.
-1.17285e-07 -0.256965 0.
-1604.44 -1516.07 0.
-1550.22 -1378.17 0.
-1497.62 -1238.63 0.
-1133.15 -1041.41 0.
-1148.86 -1102.67 0.
-1175.08 -1153.42 0.
-984.913 -1056.17 0.
-1003.02 -1091.63 0.
-1021.3 -1126.91 0.
-1323.21 -1396.91 0.
-1323.9 -1398.5 0.
-765.518 -1006.31 0.
-782.88 -1012.24 0.
-805.618 -1012.8 0.
-708.521 -1048.56 0.
-734.402 -1092.82 0.
-763.619 -1133.76 0.
-647.951 -1059.92 0.
-688.564 -1164.38 0.
-735.968 -1262.05 0.
-992.93 -1655.45 0.
-1022.44 -1707.46 0.
-473.273 -910.118 0.
-718.678 -1468.74 0.
-954.437 -1971.33 0.
-444.172 -826.097 0.
-958.163 -1977.94 0.
-1535.27 -3066.67 0.
-97.5588 -104.316 0.
-1346.96 -2449.45 0.
-2564.72 -4838.75 0.
-240.781 -148.914 0.
-1273.73 -1709.07 0.
-2329.23 -3246.65 0.
-36.4831 -75.7128 0.
-4122.44 -6924.7 0.
-51.1031 -126.721 0.
-42.8437 -104.99 0.
-3474.35 -4161.17 0.
-24.2929 -65.1094 0.
-2023.88 -2873.01 0.
-38.786 -65.3319 0.
-2472.16 -4237.52 0.
-489.32 -789.553 0.
-788.438 -1309.09 0.
-53.5324 -141.027 0.
-568.677 -1086.6 0.
-315.606 -595.69 0.
-5.91491 -2.86437 0.
-1909.86 -3221.75 0.
-246.117 -550.429 0.
-68.4791 -169.695 0.
-76.8329 -155.254 0.
-31.2375 -30.1445 0.
-13.6955 -24.009 0.
-48.1481 -76.8995 0.
-114.41 -223.1 0.
-66.3628 -135.815 0.
-56.5539 -120.198 0.
-93.8887 -122.591 0.
-80.2282 -114.709 0.
-39.9687 -90.87 0.
-38.2838 -81.6799 0.
-39.8791 -79.9102 0.
-356.462 -354.848 0.
-99.1449 -109.877 0.
-59.5838 -76.619 0.
-710.562 -1463.24 0.
-383.032 -588.198 0.
-118.231 -127.56 0.
-680.72 -1339.91 0.
-560.739 -1019.55 0.
-448.948 -690.992 0.
-992.063 -1627.34 0.
-982.543 -1605.14 0.
-753.471 -1227.3 0.
-711.186 -1142.63 0.
-669.166 -1057.69 0.
-779.178 -1061.72 0.
-747.772 -1030.77 0.
-717.246 -998.935 0.
-839.962 -984.921 0.
-819.633 -981.962 0.
-800.136 -978.172 0.
-1351.75 -1418.41 0.
-1355.85 -1428.02 0.
-1064.48 -1146.66 0.
-1044.45 -1105.4 0.
-1024.63 -1063.93 0.
-1262.4 -1139.71 0.
-1228.34 -1078.57 0.
-1192.91 -1018.8 0.
-1442.62 -1148.82 0.
-1493.67 -1288.01 0.
-1545.97 -1425.94 0.
-0.125354 -0.341361 0.
-0.507616 -1.3798 0.
-11944.3 -5123.72 0.
0.186934 0.511761 0.
-5.56847e-07 -0.525854 0.
-1609.53 -1468.57 0.
-1555.55 -1330.42 0.
-1502.27 -1191.56 0.
-1243.1 -1047.82 0.
-1273.16 -1094.71 0.
-1302.11 -1142.72 0.
-1062.18 -1052.34 0.
-1080.18 -1087.9 0.
-1098.35 -1123.29 0.
-1364.72 -1414.69 0.
-1365.4 -1416.28 0.
-801.929 -959.065 0.
-824.628 -959.665 0.
-848.346 -959.247 0.
-723.897 -993.07 0.
-754.645 -1032.47 0.
-788.655 -1068.61 0.
-645.328 -1035.85 0.
-693 -1133.25 0.
-740.971 -1230.35 0.
-953.258 -1605.1 0.
-989.754 -1650.14 0.
-351.847 -365.353 0.
-517.049 -910.803 0.
-722.489 -1444.01 0.
-122.372 -134.404 0.
-114.373 -121.439 0.
-643.476 -1079.2 0.
-150.333 -143.948 0.
-35.7389 -33.0969 0.
-89.2529 -74.2539 0.
-29.5152 -29.3781 0.
-55.3971 -68.2254 0.
-160.888 -192.153 0.
-34.0738 -74.8504 0.
-48.7703 -112.172 0.
-40.8531 -106.697 0.
-35.3022 -93.2479 0.
-34.5086 -91.1185 0.
-5.11021 -14.0385 0.
-23.8143 -57.5664 0.
-31.0956 -62.5109 0.
-134.581 -289.079 0.
-59.4368 -133.448 0.
-25.2308 -36.4748 0.
-45.5947 -122.986 0.
-192.387 -429.614 0.
-645.406 -1107.55 0.
-105.323 -104.191 0.
0.292405 0.14348 0.
-258.447 -204.484 0.
-51.4508 -122.907 0.
-64.9397 -157.554 0.
-57.7988 -52.7779 0.
-2712.16 -4618.68 0.
-103.356 -146.311 0.
-2454.5 -4469.29 0.
-34.274 -72.7396 0.
-29.2126 -57.3448 0.
-3198.42 -6274.42 0.
-79.1064 -82.9541 0.
-2782.7 -3754.41 0.
-605.306 -590.654 0.
-26.9432 -48.7479 0.
-2874.16 -5646.62 0.
-1045.63 -1703.31 0.
-36.0858 -37.5251 0.
-2050.15 -4055.14 0.
-1035.42 -2039.04 0.
-59.6337 -56.5714 0.
-1217.91 -2399.15 0.
-810.164 -1529.57 0.
-429.55 -632.855 0.
-1070.78 -1710.01 0.
-915.737 -1444.44 0.
-667.394 -1015.87 0.
-601.272 -891.045 0.
-536.011 -765.36 0.
-668.332 -765.519 0.
-643.152 -726.492 0.
-618.46 -686.976 0.
-717.594 -694.779 0.
-694.133 -650.396 0.
-670.827 -605.857 0.
-1206.84 -1045.53 0.
-1184.69 -993.835 0.
-916.1 -619.504 0.
-917.798 -632.005 0.
-919.633 -644.37 0.
-1167.18 -763.194 0.
-1165.41 -766.574 0.
-1164.24 -769.339 0.
-1330.23 -934.865 0.
-1418.06 -1139.19 0.
-1506.14 -1343.25 0.
0.0200568 0.0443971 0.
0.217396 0.0635459 0.
-10056.6 -3630.88 0.
0.0262921 0.230747 0.
-4.02677e-05 -0.0172361 0.
-1541.78 -1400.08 0.
-1449.14 -1182.96 0.
-1368.6 -953.754 0.
-1196.57 -765.464 0.
-1195.87 -758.664 0.
-1195.39 -751.652 0.
-945.171 -628.323 0.
-941.506 -613.703 0.
-937.865 -599.059 0.
-1188.63 -983.963 0.
-1221.3 -1060.17 0.
-689.243 -610.171 0.
-715.914 -662.147 0.
-742.714 -713.992 0.
-638.527 -717.31 0.
-668.827 -767.124 0.
-699.309 -816.757 0.
-549.337 -781.302 0.
-651.628 -984.788 0.
-753.998 -1188.2 0.
-999.504 -1618.6 0.
-1221.84 -1994.92 0.
-365.812 -444.212 0.
-858.533 -1645.05 0.
-1389.11 -2776.2 0.
-28.1018 -11.9246 0.
-999.744 -1900.62 0.
-2438.19 -5075.27 0.
-28.7767 -21.8774 0.
-635.344 -484.909 0.
-2647.82 -3270.38 0.
-37.2502 -38.505 0.
-3645.02 -7598.08 0.
-21.0414 -47.4191 0.
-12.4585 -23.1942 0.
-2753.4 -3772.94 0.
0.00498828 0.0547208 0.
-2980.69 -4567.81 0.
-24.666 -61.1966 0.
-916.501 -2114.14 0.
-3.11538 -7.86238 0.
-27.5316 -59.2288 0.
-312.692 -507.041 0.
0.224404 0.346085 0.
-1564.98 -2194.99 0.
-432.281 -1176.78 0.
-2509.16 -4670.64 0.
-1878.82 -3263.46 0.
-17.0691 -22.3088 0.
-1662.34 -3422.14 0.
-229.589 -202.427 0.
-66.7293 -161.733 0.
-220.429 -473.672 0.
-2063.93 -3698.61 0.
-95.9757 -188.231 0.
-72.5964 -132.849 0.
-34.3597 -72.8685 0.
-52.0027 -95.1483 0.
-155.341 -131.695 0.
-30.7731 -63.3521 0.
-42.8849 -70.9862 0.
-63.3138 -84.3488 0.
-34.5849 -65.1653 0.
-27.8565 -42.0504 0.
-35.2968 -52.3237 0.
-33.706 -46.1983 0.
-33.6965 -38.9955 0.
-493.606 -551.76 0.
-45.4467 -46.0892 0.
-86.4025 -71.4101 0.
-699.484 -1359.85 0.
-354.656 -426.313 0.
-100.511 -83.3228 0.
-793.913 -1266 0.
-657.214 -981.938 0.
-573.309 -858.977 0.
-516.927 -724.392 0.
-463.479 -586.875 0.
-636.773 -700.448 0.
-613.902 -659.111 0.
-589.222 -619.583 0.
-694.401 -644.702 0.
-668.755 -602.5 0.
-645.338 -558.067 0.
-1193.69 -1039.88 0.
-1171.54 -988.185 0.
-912.17 -594.785 0.
-913.775 -607.382 0.
-915.534 -619.824 0.
-1109.76 -681.789 0.
-1108.46 -684.695 0.
-1107.81 -686.959 0.
-1164.05 -840.152 0.
-1252.17 -1044.23 0.
-1340.48 -1248.11 0.
-1.682 -1.04839 0.
-0.857984 -0.317448 0.
-7464.16 -2695.06 0.
0.0140449 0.181065 0.
0.00330971 0.248617 0.
-1382.37 -1293.05 0.
-1289.34 -1076.29 0.
-1196.72 -859.118 0.
-1131.56 -695.576 0.
-1131.08 -688.549 0.
-1131.78 -680.351 0.
-932.466 -615.83 0.
-929.382 -600.626 0.
-926.424 -585.296 0.
-1167.85 -975.059 0.
-1200.52 -1051.27 0.
-655.92 -559.069 0.
-682.517 -611.123 0.
-714.532 -657.758 0.
-578.252 -621.2 0.
-608.478 -671.091 0.
-638.448 -721.237 0.
-451.167 -499.289 0.
-530.428 -725.867 0.
-616.699 -945.436 0.
-650.516 -943.616 0.
-844.003 -1349.1 0.
-97.8819 -80.4581 0.
-150.801 -110.044 0.
-654.58 -1269.93 0.
-28.2001 -12.8508 0.
-27.1028 -14.2056 0.
-260.744 -176.545 0.
-20.7418 -18.9653 0.
-15.9919 -16.9242 0.
-34.931 -32.6479 0.
-46.0908 -44.953 0.
-46.1321 -53.3565 0.
-21.2955 -46.7722 0.
-17.6125 -25.8329 0.
-19.6179 -22.8353 0.
0.0281922 0.0881038 0.
-11.7214 -20.3003 0.
-36.135 -99.5652 0.
-1726.04 -3552.32 0.
-12.7623 -32.332 0.
-2090.33 -3732.32 0.
-152.83 -366.972 0.
-24.1548 -40.2754 0.
-63.523 -133.293 0.
-9.171 -20.4269 0.
-63.0702 -86.8353 0.
-206.97 -405.417 0.
-174.337 -412.556 0.
-354.528 -518.976 0.
0.00029681 0.283164 0.
-428.748 -308 0.
-113.173 -266.482 0.
-77.3063 -156.091 0.
-86.7863 -174.387 0.
-58.5776 -126.748 0.
-12.6235 -27.0986 0.
-431.841 -269.129 0.
-475.822 -288.508 0.
-17.1468 -40.7315 0.
-19.6712 -48.9298 0.
-29.2107 -68.8596 0.
-35.3286 -56.2616 0.
-34.6653 -53.767 0.
-41.3631 -62.6296 0.
-41.7281 -54.7085 0.
-40.7995 -47.3194 0.
-63.888 -55.7717 0.
-66.7777 -55.7824 0.
-115.343 -85.9004 0.
-280.332 -221.274 0.
-52.4773 -53.27 0.
-88.9997 -78.1306 0.
-567.582 -771.459 0.
-448.204 -469.92 0.
-503.135 -678.175 0.
-452.943 -537.38 0.
-404.168 -395.167 0.
-610.847 -629.745 0.
-585.743 -590.64 0.
-561.309 -550.865 0.
-679.254 -586.579 0.
-653.188 -544.792 0.
-627.362 -502.764 0.
-1180.54 -1034.22 0.
-1158.39 -982.534 0.
-908.883 -569.423 0.
-910.388 -582.122 0.
-912.051 -594.662 0.
-1053.08 -599.646 0.
-1052.33 -602.006 0.
-1051.9 -604.05 0.
-1002.87 -740.434 0.
-1091.07 -944.476 0.
-1179.36 -1148.43 0.
-3.64945 -1.53815 0.
-3.19646 -1.15514 0.
-6629.52 -2394.03 0.
0.0175865 0.244623 0.
-0.0056192 -0.607228 0.
-1223.23 -1185.76 0.
-1129.98 -969.174 0.
-1036.92 -752.404 0.
-1072.74 -619.493 0.
-1072.21 -612.517 0.
-1072.14 -605.086 0.
-932.703 -590.395 0.
-929.744 -575.062 0.
-926.941 -559.575 0.
-1147.07 -966.154 0.
-1179.73 -1042.37 0.
-631.25 -499.315 0.
-663.072 -546.146 0.
-695.027 -592.846 0.
-530.969 -512.099 0.
-562.151 -561.035 0.
-592.265 -611.039 0.
-364.608 -205.666 0.
-447.072 -429.103 0.
-524.191 -657.885 0.
-341.332 -228.831 0.
-535.779 -633.68 0.
-91.6186 -72.539 0.
-64.6991 -42.5317 0.
-50.8587 -27.3052 0.
-51.0984 -28.7955 0.
-36.5832 -23.8602 0.
-43.1644 -34.2961 0.
-29.6967 -24.138 0.
-18.1563 -18.5022 0.
-32.9611 -31.6252 0.
-82.8042 -57.322 0.
-64.8232 -64.0654 0.
-204.779 -164.859 0.
-167.833 -161.177 0.
-430.203 -276.914 0.
-0.106372 -0.182429 0.
-13.4366 -29.1873 0.
-50.3636 -137.429 0.
-395.597 -942.242 0.
-0.0169499 -0.166057 0.
0.112041 0.159391 0.
-1443.36 -1926.6 0.
-67.0738 -126.575 0.
-1925.63 -3616.59 0.
1.2926 2.27226 0.
-1530.23 -2059.48 0.
-1543.06 -2363.5 0.
-21.087 -48.3188 0.
-210.672 -313.831 0.
-0.333635 -2.33753 0.
-647.093 -788.914 0.
-1829.89 -3367.27 0.
-68.1145 -39.3047 0.
-76.8174 -159.38 0.
-59.5477 -141.217 0.
-1986.66 -3589.9 0.
-1429.6 -1615.16 0.
-49.1323 -100.163 0.
-2427.77 -4528.41 0.
-49.3593 -111.104 0.
-82.033 -169.761 0.
-3648.8 -6254 0.
-14.6001 -26.5996 0.
-2937.04 -4362.41 0.
-25.3878 -28.9689 0.
-57.4669 -61.1564 0.
-3056.93 -6290.61 0.
-53.8483 -64.7742 0.
-61.1981 -72.7948 0.
-1961.61 -4273.2 0.
-771.968 -1534.88 0.
-75.5088 -84.4532 0.
-1341.14 -2651.69 0.
-882.887 -1710.11 0.
-994.455 -1853.53 0.
-760.079 -1363.07 0.
-543.108 -855.199 0.
-816.172 -1263.02 0.
-721.473 -1089.33 0.
-627.58 -914.836 0.
-820.032 -1011.31 0.
-780.772 -955.964 0.
-742.384 -899.742 0.
-1291.01 -1474.23 0.
-1264.04 -1411.33 0.
-952.059 -940.659 0.
-946.936 -937.258 0.
-942.412 -933.256 0.
-1056.42 -986.221 0.
-1089.29 -1067.08 0.
-1122.49 -1147.62 0.
-1125.22 -1317.56 0.
-1219.87 -1552.83 0.
-1320 -1782.63 0.
-2.42101 -0.924144 0.
-3.415 -1.5897 0.
-7489.45 -4315.59 0.
-0.00134931 -0.765911 0.
0.00546497 0.113478 0.
-1355.59 -1816.21 0.
-1247.9 -1562.94 0.
-1150.42 -1299.47 0.
-1143.63 -1130.27 0.
-1115.36 -1061.16 0.
-1087.21 -991.91 0.
-958.957 -947.857 0.
-969.177 -963.961 0.
-981.251 -978.209 0.
-1249.55 -1419.43 0.
-1278.01 -1485.79 0.
-716.769 -862.86 0.
-779.402 -970.164 0.
-843.26 -1076.24 0.
-596.34 -898.065 0.
-720.668 -1170.5 0.
-854.171 -1433.76 0.
-534.759 -775.624 0.
-794.548 -1461.15 0.
-1101.17 -2099.85 0.
-923.468 -1691.75 0.
-1554.66 -3123.01 0.
-60.6796 -52.0713 0.
-759.072 -1247.62 0.
-2388.69 -5042.51 0.
-14.0417 -13.1368 0.
-5.32111 -4.30406 0.
-3013.92 -6064.47 0.
-0.0275703 -0.0645689 0.
0.0811425 0.00193074 0.
-3080.27 -4390.24 0.
-8.67091 -3.47571 0.
-2827.63 -4751.62 0.
-11.2363 -5.267 0.
-1248.9 -1090.38 0.
-626.189 -1567.61 0.
-0.171574 -0.4343 0.
-1631.86 -3117.03 0.
-67.1378 -174.376 0.
-57.7505 -122.558 0.
0.0139518 0.467047 0.
0.0345537 0.0226678 0.
0.752151 1.98404 0.
0.388157 0.789322 0.
-108.129 -205.821 0.
-0.849953 -2.07671 0.
-633.345 -779.693 0.
-991.995 -1430.15 0.
-0.219225 -2.03175 0.
-1523.93 -2221.58 0.
0.071798 1.08883 0.
-1617.21 -2997.29 0.
-0.00305567 -0.391429 0.
-27.9737 -10.9685 0.
-108.101 -175.337 0.
-272.43 -627.409 0.
-502.832 -1038.51 0.
-67.3109 -143.681 0.
-30.845 -77.6673 0.
-38.3039 -102.916 0.
-25.6808 -71.0188 0.
-61.8749 -117.605 0.
-62.5039 -95.6057 0.
-13.719 -30.6976 0.
-28.4074 -22.3909 0.
-32.988 -32.9154 0.
-63.668 -63.8059 0.
-46.5165 -60.351 0.
-39.7046 -50.0627 0.
-68.8465 -84.2964 0.
-460.79 -644.726 0.
-53.3767 -68.469 0.
-57.1687 -72.3558 0.
-738.563 -1331.74 0.
-342.908 -326.169 0.
-652.261 -1147.98 0.
-455.051 -619.961 0.
-215.381 -134.402 0.
-639.607 -1023.32 0.
-557.151 -837.328 0.
-485.24 -640.795 0.
-745.818 -892.313 0.
-707.32 -836.195 0.
-669.597 -779.302 0.
-1194.71 -1432.93 0.
-1167.73 -1370.03 0.
-831.935 -819.422 0.
-826.987 -815.848 0.
-822.606 -811.709 0.
-915.368 -886.031 0.
-947.802 -967.354 0.
-980.549 -1048.36 0.
-988.533 -1227.7 0.
-1088.69 -1457.51 0.
-1189.04 -1687.12 0.
-1.28342 -0.477719 0.
-2.43917 -1.17916 0.
-6577.09 -3922.03 0.
-3.87737e-05 -0.267396 0.
0.0124924 0.186968 0.
-1232.06 -1717.48 0.
-1124.13 -1464.41 0.
-1016.61 -1210.93 0.
-1005.51 -1034.88 0.
-975.877 -967.11 0.
-947.446 -898.141 0.
-839.268 -814.837 0.
-850.23 -830.199 0.
-862.07 -844.683 0.
-1138.97 -1368.56 0.
-1171.66 -1430.69 0.
-619.414 -707.808 0.
-681.051 -816.13 0.
-743.86 -923.281 0.
-415.92 -476.301 0.
-521.099 -768.007 0.
-638.006 -1047.99 0.
-64.5458 -46.2986 0.
-396.578 -411.629 0.
-652.905 -1101.33 0.
-58.5368 -42.3842 0.
-731.527 -1240.64 0.
-93.1717 -74.4104 0.
-59.6746 -47.3959 0.
-42.9416 -33.1813 0.
-12.8278 -12.9016 0.
-3.93876 -4.03794 0.
-20.1858 -11.0434 0.
0.0239794 0.0245676 0.
-0.0372236 -0.0137762 0.
-36.0384 -20.4229 0.
0.192282 0.0176978 0.
0.30034 0.0211955 0.
-63.3987 -43.4449 0.
-1370.93 -1513.63 0.
-24.0878 -36.442 0.
0.274859 0.311648 0.
-0.515332 -0.974582 0.
-1473.31 -2486.35 0.
-46.4112 -84.3522 0.
-1.65954 -2.46496 0.
-0.288556 -0.145557 0.
-1745.39 -3162.57 0.
-51.0524 -115.169 0.
-1478.13 -2436.16 0.
2.6328 3.82872 0.
-1930.49 -2230.51 0.
-1245.52 -1768.1 0.
1.15787 1.98023 0.
-1549.5 -2528.75 0.
-22.1133 -48.7529 0.
1.33886 2.93767 0.
0.639809 1.61911 0.
-34.4434 -15.9491 0.
-1486.16 -2537.93 0.
-42.8535 -50.6467 0.
-197.982 -448.064 0.
-27.7337 -44.6281 0.
-24.2092 -62.2963 0.
-33.734 -87.607 0.
-28.566 -76.2859 0.
-217.276 -312.247 0.
-1576.51 -3139.46 0.
-13.4477 -28.1205 0.
-2575.29 -4215.79 0.
-23.3493 -14.5821 0.
-52.3825 -37.4657 0.
-2759.66 -5810.8 0.
-30.6455 -30.5883 0.
-43.2712 -62.5627 0.
-2468.88 -5104.13 0.
-277.149 -242.76 0.
-36.2294 -31.6143 0.
-1729.71 -3673.13 0.
-818.306 -1522.7 0.
-1164.44 -2187.54 0.
-770.034 -1352.47 0.
-404.723 -488.297 0.
-927.804 -1617 0.
-708.026 -1176.27 0.
-499.648 -724.133 0.
-772.25 -1027.71 0.
-652.135 -775.485 0.
-526.946 -528.329 0.
-1022.42 -1261.17 0.
-994.261 -1208.57 0.
-698.936 -615.14 0.
-714.153 -657.22 0.
-729.58 -699.089 0.
-778.187 -789.416 0.
-788.472 -812.069 0.
-799.194 -834.286 0.
-751.531 -920.667 0.
-797.149 -1020.13 0.
-843.023 -1119.35 0.
-3.23412 -4.16499 0.
-3.38419 -5.49928 0.
-5742.67 -3421.19 0.
0.0748051 0.203004 0.
-0.00771396 -0.0814777 0.
-873.391 -1157.78 0.
-818.422 -1038.35 0.
-763.521 -918.858 0.
-817.265 -837.067 0.
-808.058 -817.533 0.
-800.56 -796.291 0.
-736.075 -690.549 0.
-729.125 -670.057 0.
-722.637 -649.103 0.
-961.779 -1235.36 0.
-1010.37 -1313.06 0.
-486.363 -509.635 0.
-644.644 -839.858 0.
-800.691 -1172.31 0.
-447.287 -617.394 0.
-731.212 -1291.75 0.
-1035.8 -1945.45 0.
-353.417 -279.776 0.
-827.694 -1409.39 0.
-1355.58 -2485.4 0.
-752.471 -1239.86 0.
-1950.31 -4160.95 0.
-65.2374 -54.9178 0.
-11.6544 -7.06781 0.
-2852.88 -6019.39 0.
-12.1819 -8.97858 0.
-13.0292 -11.6893 0.
-2841.32 -3174.41 0.
-9.42816 -5.27367 0.
-3485.36 -6452.31 0.
0.55538 0.288527 0.
-20.3758 -23.7392 0.
-2656.04 -4646.12 0.
-193.135 -155.192 0.
-1461.66 -1976.76 0.
-27.9403 -30.713 0.
-0.111223 -0.0937418 0.
0.113093 0.301886 0.
-64.1204 -162.14 0.
-1769.16 -2911.37 0.
-96.3966 -74.5729 0.
-1.12575 -7.38609 0.
-41.4606 -91.538 0.
3.03811 6.67918 0.
-15.3189 -23.9616 0.
0.613504 0.817188 0.
-1007.56 -1321.5 0.
-789.139 -1178.49 0.
2.60753 4.00211 0.
1.76231 3.14335 0.
-105.51 -217.889 0.
-665.47 -1391.54 0.
-44.3588 -97.4087 0.
-114.02 -49.5697 0.
-0.001034 -0.353601 0.
-0.431264 -0.495326 0.
-475.814 -1156.68 0.
-31.5891 -50.7653 0.
-2100.25 -3514.3 0.
-81.5035 -150.034 0.
-2141.84 -3792.09 0.
-14.8589 -32.1237 0.
-143.045 -314.297 0.
-14.7359 -27.3241 0.
-16.5313 -29.4717 0.
-9.01147 -7.84273 0.
-25.3441 -15.6387 0.
-10.1755 -4.3743 0.
-20.1615 -14.9812 0.
-24.377 -31.9773 0.
-45.1148 -81.8534 0.
-31.3583 -51.3492 0.
-25.7073 -32.8883 0.
-672.442 -1102.9 0.
-58.3166 -54.5171 0.
-586.205 -861.523 0.
-131.88 -85.1556 0.
-71.196 -58.9453 0.
-595.405 -1002.99 0.
-404.563 -532.991 0.
-188.025 -88.6911 0.
-583.37 -816.394 0.
-467.44 -559.904 0.
-365.714 -300.459 0.
-851.374 -1125.57 0.
-814.784 -1081.39 0.
-561.947 -517.147 0.
-577.302 -559.098 0.
-592.743 -600.962 0.
-579.484 -660.037 0.
-590.372 -682.097 0.
-601.885 -703.531 0.
-502.753 -806.265 0.
-548.275 -905.854 0.
-593.985 -1005.26 0.
-0.300215 -0.413054 0.
-1.18602 -2.71271 0.
-3713.9 -2547.22 0.
0.0700351 0.193955 0.
0.0736487 0.235078 0.
-589.15 -1021.12 0.
-534.148 -901.684 0.
-479.308 -782.091 0.
-601.675 -694.204 0.
-591.546 -675.588 0.
-582.491 -655.899 0.
-586.494 -571.536 0.
-579.391 -551.189 0.
-572.732 -530.399 0.
-766.017 -1072.71 0.
-818.351 -1146.69 0.
-302.175 -190.737 0.
-431.231 -549.157 0.
-574.993 -894.029 0.
-56.729 -33.699 0.
-372.271 -420.03 0.
-628.414 -1122.78 0.
-49.9867 -36.7948 0.
-50.2339 -41.7774 0.
-562.593 -607.438 0.
-24.9633 -26.6488 0.
-555.724 -618.868 0.
-42.6791 -34.9878 0.
0.0296044 0.0708346 0.
-0.0760777 -0.0522252 0.
-0.697177 -1.10784 0.
-2.01744 -2.90653 0.
-45.3303 -34.106 0.
-15.7715 -9.15283 0.
-50.0868 -24.601 0.
-0.0362034 -0.0085286 0.
0.257309 0.211612 0.
-20.1134 -30.9883 0.
-35.652 -55.2936 0.
-391.3 -681.815 0.
-2431.65 -5418 0.
-0.182037 -0.122392 0.
0.158622 0.539437 0.
-72.4409 -107.906 0.
-822.528 -1319.1 0.
1.07032 0.484219 0.
3.12748 8.46526 0.
-21.6967 -39.311 0.
0.00478854 0.0264246 0.
-1735.54 -2693.66 0.
-122.389 -128.682 0.
-858.742 -1356.52 0.
-618.44 -770.242 0.
0.544025 0.871014 0.
-1622.21 -2608.26 0.
-46.6681 -86.0707 0.
-202.991 -442.545 0.
0.660128 1.59991 0.
2.23874 5.12415 0.
-179.462 -457.68 0.
-0.412705 -0.518677 0.
-85.6586 -124.851 0.
-1109.25 -2304.99 0.
-24.6535 -40.6402 0.
-36.7579 -79.9164 0.
-23.5523 -64.3582 0.
-4.0957 -8.25248 0.
-203.835 -451.338 0.
-110.526 -197.338 0.
-373.949 -238.9 0.
-2.19458 -5.6774 0.
-19.674 -11.2964 0.
-0.271466 -0.129159 0.
-6.40267 -3.10678 0.
-15.886 -15.2603 0.
-48.7008 -83.9806 0.
-22.383 -54.9223 0.
-50.2169 -55.4217 0.
-62.3815 -58.5345 0.
-58.2425 -55.2382 0.
-50.0376 -52.8055 0.
-67.3577 -55.9724 0.
-80.9283 -63.5344 0.
-324.772 -327.209 0.
-45.9622 -38.5759 0.
-60.0507 -39.7862 0.
-409.744 -589.822 0.
-307.337 -319.733 0.
-240.444 -129.628 0.
-689.149 -981.153 0.
-653.664 -935.854 0.
-422.924 -421.187 0.
-440.214 -461.212 0.
-456.521 -502.222 0.
-382.97 -528.471 0.
-395.155 -549.241 0.
-407.809 -569.544 0.
-269.337 -676.503 0.
-303.77 -787.207 0.
-347.507 -888.607 0.
-0.0600861 -0.507595 0.
-0.00661903 -0.51569 0.
-1917.19 -1775.63 0.
-0.0271502 -0.0726303 0.
0.286775 5.18657e-05 0.
-326.36 -863 0.
-273.634 -741.256 0.
-236.706 -603.712 0.
-394.791 -542.635 0.
-383.368 -525.309 0.
-372.248 -507.679 0.
-437.463 -451.971 0.
-430.001 -431.978 0.
-421.296 -413.226 0.
-581.732 -898.576 0.
-632.004 -974.643 0.
-71.727 -42.0526 0.
-281.144 -195.13 0.
-403.74 -561.299 0.
-55.3332 -32.0345 0.
-46.352 -26.0137 0.
-310.358 -210.79 0.
-51.5876 -37.7354 0.
-48.4325 -46.2259 0.
-58.4951 -62.5198 0.
-26.9997 -28.1965 0.
-24.6178 -20.8727 0.
-31.0729 -21.7355 0.
-2.79589 -3.19617 0.
-0.808301 -0.407083 0.
0.0183564 0.0770899 0.
0.0131888 0.374848 0.
-83.1745 -53.9661 0.
-27.8979 -15.9713 0.
-61.9196 -37.921 0.
-0.42997 -0.123966 0.
-1.76463 -1.4491 0.
-15.5644 -19.4536 0.
-1.6259 -4.16732 0.
-39.0262 -83.3339 0.
-63.2099 -89.6299 0.
-37.8895 -104.82 0.
0.478175 0.565925 0.
-29.2251 -57.3612 0.
-0.0261128 -3.15119 0.
-2018.13 -3009.42 0.
-0.0426075 -8.11421 0.
-939.243 -1439.85 0.
2.44289 4.38988 0.
-14.4676 -24.3404 0.
0.0688548 0.237954 0.
-255.406 -344.498 0.
-41.4966 -62.6929 0.
6.36433 12.1046 0.
-826.899 -1354.49 0.
-178.21 -325.499 0.
-1399.96 -2747.03 0.
1.09827 2.59556 0.
1.7936 3.54453 0.
-1461.75 -3461.69 0.
-0.197758 -0.228347 0.
-521.308 -1176.66 0.
-70.6132 -165.291 0.
-38.6517 -41.6705 0.
-73.6097 -89.3986 0.
-16.5058 -43.0247 0.
-1674.57 -3226.36 0.
-1571.15 -2341.58 0.
-3.01575 -1.09396 0.
-0.153621 -0.0586592 0.
-3177.59 -6053.7 0.
-17.8694 -29.0801 0.
-2405.57 -3385.4 0.
-31.0946 -71.6981 0.
-24.9102 -58.8339 0.
-2553.46 -5391.1 0.
-38.3974 -80.8652 0.
-31.7951 -65.6844 0.
-2268.06 -5111.96 0.
-267.287 -157.182 0.
-1642.54 -3180.89 0.
-789.52 -1241.51 0.
-35.2274 -42.0072 0.
-1155.27 -2524.41 0.
-663.604 -1362.2 0.
-210.074 -161.859 0.
-821.433 -1769.83 0.
-583.65 -1190.92 0.
-364.719 -593.159 0.
-839.753 -1701.55 0.
-766.426 -1553.71 0.
-542.118 -1071.8 0.
-522.924 -1026.49 0.
-504.384 -980.531 0.
-386.023 -1010.57 0.
-447.989 -1156.05 0.
-511.727 -1299.75 0.
-417.289 -1155.34 0.
-496.913 -1333.06 0.
-590.266 -1497.05 0.
-4.23932 -11.3323 0.
-2.537 -6.8402 0.
-1809.4 -3555.93 0.
-0.0822446 -0.0187537 0.
-0.298121 -0.614332 0.
-547.654 -1405.13 0.
-470.995 -1273.26 0.
-407.373 -1128.34 0.
-504.28 -1284.23 0.
-442.607 -1161.62 0.
-389.337 -1030.6 0.
-484.158 -999.437 0.
-513.333 -1069.78 0.
-544.77 -1137.86 0.
-744.273 -1530.7 0.
-848.395 -1749.99 0.
-336.319 -419.537 0.
-622.173 -1247.91 0.
-942.356 -2041.95 0.
-26.8243 -26.8264 0.
-698.566 -1358.03 0.
-1363.12 -2937.22 0.
-20.1873 -11.7249 0.
-784.832 -1024.09 0.
-1884.83 -3567.88 0.
-35.8617 -26.5508 0.
-2405.76 -5075.22 0.
-79.2358 -75.1281 0.
-0.156291 -0.111321 0.
-2632.98 -5450.69 0.
0.364745 0.00283865 0.
0.221007 0.106672 0.
-2577.85 -4091.29 0.
-44.9739 -24.8618 0.
-1995.85 -3066.11 0.
-6.13625 -8.28174 0.
-1916.77 -4057.83 0.
-0.403017 -0.974603 0.
0.00245248 0.477733 0.
-5.86859 -6.4655 0.
-33.2453 -41.3086 0.
-1.13577e-05 -0.20433 0.
-1829.57 -3619.63 0.
-127.726 -238.014 0.
1.98203 5.0994 0.
-869.773 -1868.87 0.
-1.7878 -3.89113 0.
6.81611 12.5425 0.
-10.6354 -19.2108 0.
-1936.69 -3101.85 0.
-210.687 -335.176 0.
-280.3 -452.041 0.
-92.0778 -180.863 0.
-431.427 -740.277 0.
-2.03265 -6.34871 0.
-1.72408 -6.98602 0.
-755.195 -1401.55 0.
-89.2708 -216.387 0.
-1196.42 -2115.01 0.
0.00143855 0.111187 0.
1.68616 3.98741 0.
-160.037 -356.952 0.
-111.643 -250.523 0.
-57.0599 -52.1232 0.
-1602.25 -3035.72 0.
-212.16 -426.21 0.
-64.7306 -145.305 0.
-15.0828 -6.86189 0.
-11.9609 -5.23162 0.
-0.312952 -0.155114 0.
0.314077 0.430746 0.
-5.32316 -7.55493 0.
-26.7449 -66.7427 0.
-12.2498 -32.6705 0.
-8.12491 -22.4993 0.
-34.7569 -53.846 0.
-28.4942 -37.6595 0.
-23.589 -22.3111 0.
-49.3043 -74.408 0.
-33.8339 -36.6105 0.
-328.655 -245.646 0.
-32.2072 -30.2441 0.
-34.1265 -42.0035 0.
-537.723 -1077.37 0.
-22.0854 -35.4994 0.
-20.2494 -35.5024 0.
-528.533 -1182.41 0.
-315.167 -578.708 0.
-43.633 -52.349 0.
-632.81 -1373.77 0.
-567.397 -1217.96 0.
-376.16 -881.902 0.
-355.966 -837.584 0.
-345.183 -783.854 0.
-274.215 -752.014 0.
-328.506 -905.206 0.
-390.089 -1051.11 0.
-227.476 -625.945 0.
-296.367 -814.494 0.
-375.754 -992.545 0.
-10.0931 -27.3259 0.
-163.269 -365.774 0.
-1132.31 -3136.3 0.
-172.213 -412.675 0.
-10.8399 -20.6395 0.
-344.192 -909.977 0.
-278.852 -766.71 0.
-223.052 -613.904 0.
-359.905 -973.804 0.
-305.334 -844.051 0.
-259.356 -705.705 0.
-317.836 -729.324 0.
-334.947 -811.75 0.
-360.92 -885.314 0.
-505.744 -1087.59 0.
-593.689 -1323.17 0.
-15.547 -29.4985 0.
-306.079 -408.93 0.
-590.913 -1238.99 0.
-26.4389 -21.422 0.
-24.4022 -13.3732 0.
-542.002 -939.968 0.
-34.3171 -26.2255 0.
-13.9595 -7.0007 0.
-35.846 -27.2121 0.
-42.5222 -33.5983 0.
-78.2099 -48.0048 0.
-89.2308 -85.0875 0.
0.21826 0.162745 0.
0.179486 0.11228 0.
0.225904 0.00717748 0.
0.303399 0.0429402 0.
-2.64759 -1.62168 0.
-62.8595 -49.3914 0.
-33.3241 -47.8997 0.
0.17229 0.174747 0.
-0.612022 -0.0254773 0.
2.43672 0.341984 0.
-1614.74 -2859 0.
-940.158 -2026.27 0.
-21.4764 -26.8077 0.
-0.00483966 -2.4327 0.
-0.446697 -1.0804 0.
-293.008 -532.364 0.
-292.964 -650.557 0.
-753.728 -1556.5 0.
0.58782 1.10842 0.
-1013.4 -1782.23 0.
-94.2433 -169.788 0.
-124.243 -131.669 0.
-0.195846 -0.36347 0.
-73.0948 -78.8389 0.
-53.8007 -73.6129 0.
27.5204 38.3958 0.
-0.508218 -2.09046 0.
0.912723 1.46095 0.
1.9855 3.87553 0.
-79.8696 -175.536 0.
-925.98 -1821.48 0.
-0.0952021 -1.76663 0.
0.795255 2.18375 0.
-1132.94 -2563.59 0.
-92.4714 -166.357 0.
-72.1925 -57.8206 0.
-12.2773 -24.8979 0.
-10.6703 -29.3411 0.
-141.124 -307.618 0.
-52.8021 -43.4129 0.
-22.554 -16.373 0.
-0.497119 -0.262558 0.
0.176016 0.252058 0.
-117.505 -174.909 0.
-1909.64 -3589.18 0.
-15.5075 -41.8161 0.
-1.98941 -4.76669 0.
-2234.86 -4986.85 0.
-23.6982 -21.4099 0.
-20.6135 -18.4392 0.
-2275.44 -4873.82 0.
-28.0626 -36.0901 0.
-1722.37 -3376.84 0.
-515.327 -531.9 0.
-25.3619 -24.3504 0.
-1399.8 -3204.96 0.
-574.197 -1195.52 0.
-15.1056 -39.6418 0.
-925.553 -2203.38 0.
-533.164 -1243.85 0.
-172.266 -252.827 0.
-759.507 -1719.82 0.
-596.293 -1380.23 0.
-418.042 -1056.82 0.
-381.808 -1004.55 0.
-357.237 -940.622 0.
-321.394 -876.749 0.
-359.026 -989.946 0.
-404.452 -1095.35 0.
-205.379 -559.711 0.
-187.939 -507.715 0.
-170.378 -455.839 0.
-20.1561 -51.5928 0.
-35.6978 -86.6899 0.
-769.408 -2056.37 0.
-29.5922 -76.8882 0.
-11.8607 -29.7434 0.
-150.734 -406.264 0.
-190.714 -514.705 0.
-230.152 -623.688 0.
-390.489 -1067.69 0.
-358.076 -991.8 0.
-333.86 -907.711 0.
-360.629 -967.111 0.
-407.155 -1094.81 0.
-477.164 -1199.02 0.
-594.649 -1432.52 0.
-810.64 -1927.48 0.
-109.137 -77.0075 0.
-582.415 -1286.86 0.
-1063.12 -2489.28 0.
-20.6467 -18.3128 0.
-535.102 -1020.98 0.
-1683.51 -3868.87 0.
-61.9725 -61.8607 0.
-336.067 -191.368 0.
-1945.8 -3394.73 0.
-20.8583 -8.73962 0.
-2466.85 -5545.33 0.
-222.567 -238.422 0.
-33.3207 -37.5395 0.
-1983.01 -2029.56 0.
-1.95042 -2.94316 0.
-2276.76 -5667.26 0.
-322.065 -312.308 0.
-166.907 -143.713 0.
-127.55 -124.66 0.
-0.767389 -0.66676 0.
-0.278819 -0.0430744 0.
3.98302 0.1336 0.
-66.3049 -182.285 0.
-29.886 -53.6565 0.
-261.821 -679.016 0.
1.38319 3.78552 0.
1.94136 4.26276 0.
-1.68733 -19.7124 0.
1.94572 4.60103 0.
-48.7876 -85.4221 0.
1.9735 3.90634 0.
1.16008 2.38633 0.
3.68433 6.3294 0.
6.97273 14.398 0.
-684.014 -1084.14 0.
23.99 37.5807 0.
-12.9983 -42.7783 0.
-1076.73 -1466.52 0.
-0.99668 -9.61892 0.
-1.44631 -10.2058 0.
-74.1543 -140.282 0.
-97.1185 -191.952 0.
-0.193538 -4.39963 0.
5.17611 11.4901 0.
-96.8074 -267.515 0.
-0.757544 -9.22479 0.
-62.8911 -115.991 0.
-830.204 -1594.33 0.
-1.04281 -2.20476 0.
0.177936 0.47929 0.
-222.214 -460.1 0.
-83.9896 -43.9074 0.
-1753.31 -3739.59 0.
-44.0785 -73.3879 0.
-1640.51 -3154.12 0.
-0.0762593 -0.517706 0.
-72.3302 -199.393 0.
-12.485 -34.4431 0.
-0.0319572 -0.14546 0.
-21.3648 -37.8118 0.
-15.3854 -28.6742 0.
-11.4773 -26.9832 0.
-23.71 -54.2196 0.
-7.28818 -14.7963 0.
-23.8681 -30.9106 0.
-21.4973 -24.3813 0.
-23.1126 -28.4456 0.
-424.519 -799.086 0.
-12.2213 -30.5527 0.
-17.1319 -41.0398 0.
-484.909 -1175.97 0.
-125.548 -182.38 0.
-19.7978 -45.7962 0.
-444.86 -1094.14 0.
-300.322 -735.624 0.
-257.787 -668.485 0.
-224.625 -613.119 0.
-205.542 -543.674 0.
-202.606 -539.232 0.
-237.541 -655.163 0.
-277.352 -766.219 0.
-214.957 -580.185 0.
-197.892 -527.814 0.
-180.597 -475.672 0.
-131.396 -315.004 0.
-142.729 -351.638 0.
-478.046 -1313.23 0.
-155.188 -391.681 0.
-140.149 -341.862 0.
-150.96 -401.358 0.
-191.138 -509.604 0.
-230.527 -618.639 0.
-250.907 -694.594 0.
-222.969 -614.197 0.
-199.136 -529.696 0.
-172.173 -476.079 0.
-220.273 -602.263 0.
-280.869 -715.951 0.
-235.214 -644.906 0.
-437.268 -1154.22 0.
-11.9461 -29.569 0.
-7.13004 -16.1629 0.
-488.835 -1099.64 0.
-14.0561 -14.6373 0.
-14.5331 -14.9929 0.
-358.985 -628.12 0.
-12.2524 -10.6596 0.
-4.0055 -1.48161 0.
-14.4032 -6.73459 0.
0.2614 0.0945793 0.
-0.353777 -0.00492249 0.
0.263633 0.117244 0.
-8.50618 -11.9971 0.
-32.4804 -62.3539 0.
0.00974803 0.0157607 0.
-0.216883 -0.314193 0.
0.239715 0.000300302 0.
-0.152538 -0.004602 0.
-1127.03 -1593.66 0.
-1856.76 -3735.12 0.
3.51485 1.95165 0.
3.58047 0.861099 0.
-50.687 -139.702 0.
-18.585 -38.5612 0.
-927.921 -2074.92 0.
-0.0358803 -4.37739 0.
5.90475 12.044 0.
-1.71967 -20.5776 0.
-1.30072 -13.394 0.
-455.477 -858.403 0.
-1.4868 -3.09142 0.
-4.13986 -8.39123 0.
3.26834 5.20899 0.
3.2515 5.89926 0.
1.58842 2.12371 0.
-170.581 -300.929 0.
8.64577 15.0065 0.
-147.729 -231.008 0.
7.26204 14.2627 0.
-1145.19 -2110 0.
3.3343 6.35375 0.
7.0018 15.7199 0.
-14.408 -34.8451 0.
-0.128373 -3.59787 0.
-267.574 -544.985 0.
6.09423 16.7893 0.
-116.376 -230.33 0.
-647.969 -1328.07 0.
-109.946 -162.61 0.
0.458862 1.21628 0.
-1168.4 -2000.9 0.
-48.6431 -29.8526 0.
-36.2334 -61.0804 0.
-25.1096 -35.0859 0.
0.112076 0.265339 0.
0.000322826 0.00794524 0.
0.967922 0.000585568 0.
-19.8967 -47.8769 0.
-3.06032 -7.72113 0.
-17.5327 -43.9286 0.
-13.7825 -35.9352 0.
-12.8261 -34.4934 0.
-13.0894 -36.2472 0.
-0.0456229 -0.000401861 0.
-19.8813 -28.5437 0.
-20.8417 -30.9812 0.
-30.5459 -38.2453 0.
-14.6032 -25.9218 0.
-17.3136 -29.6898 0.
-21.6411 -40.7172 0.
-90.2264 -102.607 0.
-14.8165 -30.62 0.
-21.121 -46.6599 0.
-179.059 -419.609 0.
-69.4123 -141.404 0.
-111.434 -266.244 0.
-81.043 -208.083 0.
-79.3356 -210.299 0.
-82.0525 -203.481 0.
-119.081 -317.357 0.
-156.599 -430.743 0.
-225.192 -600.002 0.
-208.578 -547.18 0.
-191.565 -494.757 0.
-258.95 -643.225 0.
-265.895 -684.237 0.
-451.025 -1247.56 0.
-276.03 -711.229 0.
-265.781 -656.635 0.
-164.151 -429.413 0.
-191.886 -504.178 0.
-231.259 -613.231 0.
-122.27 -336.214 0.
-88.3076 -236.149 0.
-61.6918 -154.401 0.
-26.0474 -69.0228 0.
-42.5548 -103.209 0.
-96.9638 -220.489 0.
-11.0093 -22.0797 0.
-129.185 -315.674 0.
-14.7998 -26 0.
-7.54881 -9.21962 0.
-3.40956 -1.9426 0.
-18.8126 -18.106 0.
-16.1209 -9.13914 0.
-13.9142 -15.9361 0.
-16.1736 -11.6181 0.
-0.0435332 -0.0208976 0.
-7.93009 -3.25278 0.
0.0675478 0.0253812 0.
-0.186087 -3.67084e-05 0.
0.436313 0.00591822 0.
-1.60695 -4.43784 0.
-21.8652 -53.369 0.
-0.140096 -0.491148 0.
0.293939 0.387081 0.
0.100094 0.045604 0.
0.31009 0.000212351 0.
1.51223 1.19695 0.
-82.6349 -189.552 0.
-54.0963 -147.676 0.
-1243.92 -2680.95 0.
-3.00486e-05 -4.41128 0.
-16.9217 -37.9529 0.
-7.44381 -17.9548 0.
-0.00380249 -5.08609 0.
-1346.93 -2656.23 0.
-1020.75 -2399.78 0.
-2.19475 -17.3087 0.
-147.651 -279.838 0.
-437.91 -901.846 0.
4.91451 9.4705 0.
-6.82132 -19.4923 0.
8.79257 19.3551 0.
26.9674 37.849 0.
-16.5528 -77.303 0.
-8.43751 -24.2251 0.
-41.0899 -63.1074 0.
-10.2139 -33.108 0.
-6.94496 -12.03 0.
5.73866 9.95191 0.
-1.42677 -2.8162 0.
-32.3058 -72.6433 0.
-0.57821 -1.40956 0.
-287.469 -526.603 0.
0.765283 2.04802 0.
-207.63 -464.657 0.
-0.00249501 -0.367168 0.
-127.42 -246.389 0.
-994.667 -1902.73 0.
0.00940274 0.912196 0.
-44.0846 -78.0955 0.
-29.2628 -36.1566 0.
-24.1502 -27.5397 0.
0.190117 0.492307 0.
-1214.7 -2611.66 0.
-0.0570861 -0.690267 0.
-2058.39 -2984.99 0.
-9.43099 -25.3433 0.
-1677.67 -3401.12 0.
-4.43678 -12.0447 0.
0.127362 0.00608036 0.
-2062.93 -4770.31 0.
0.276532 0.203651 0.
-2003.24 -3247.66 0.
-43.3514 -57.1392 0.
-10.0488 -27.822 0.
-1875.51 -4592.17 0.
-205.526 -249.303 0.
-23.1594 -42.4725 0.
-1182.83 -3009.77 0.
-455.807 -1168.81 0.
-16.448 -29.0679 0.
-826.791 -2172.29 0.
-510.085 -1379.25 0.
-558.211 -1476.34 0.
-444.122 -1220.25 0.
-344.476 -949.724 0.
-421.809 -1151.85 0.
-354.637 -977.834 0.
-289.554 -801.733 0.
-382.01 -1042.86 0.
-264.856 -711.982 0.
-145.452 -383.357 0.
-276.557 -688.932 0.
-300.938 -789.565 0.
-404.436 -1119.05 0.
-297.076 -785.329 0.
-266.725 -673.858 0.
-105.492 -275.493 0.
-263.362 -704.252 0.
-417.039 -1137.2 0.
-271.229 -749.302 0.
-366.123 -1005.3 0.
-463.517 -1258.79 0.
-323.296 -895.101 0.
-463.882 -1259.04 0.
-620.778 -1606.68 0.
-490.392 -1337.32 0.
-929.725 -2448.5 0.
-31.0902 -69.8401 0.
-389.663 -917.213 0.
-1385.34 -3408.07 0.
-28.2024 -30.1133 0.
-19.964 -22.7291 0.
-2044.64 -5054.05 0.
-0.03663 -0.0139922 0.
-15.5915 -8.27764 0.
-2130.56 -3182.44 0.
-1.90716 -0.967502 0.
-2179.3 -5085.31 0.
-0.100228 -0.217644 0.
0.10767 0.148823 0.
-1699.86 -2474.62 0.
0.0642767 0.376258 0.
-1626.51 -3676.03 0.
-18.9594 -44.6379 0.
-1.29217 -0.0288089 0.
0.000898096 3.16297 0.
-0.0381095 -2.46034 0.
-0.203896 -0.54349 0.
-0.491025 -4.71708 0.
-486.928 -1026.01 0.
-18.1098 -42.3979 0.
-106.078 -247.201 0.
8.90246 22.26 0.
-0.687667 -21.7172 0.
4.27647 10.0399 0.
-1.82538 -12.0247 0.
2.30148 5.25116 0.
-8.39673 -17.6495 0.
2.70569 4.89474 0.
-995.385 -1413.56 0.
8.25451 15.6504 0.
-1642.15 -2207.07 0.
30.7385 56.0394 0.
20.5349 29.4499 0.
-323.442 -478.323 0.
16.9684 28.6863 0.
-1208.03 -1848.25 0.
-0.79255 -29.4822 0.
-792.062 -1457.7 0.
-61.8541 -128.585 0.
-668.422 -1568.84 0.
-1153.39 -1914.66 0.
-784.802 -1934.22 0.
6.53906 15.3204 0.
-0.135031 -6.7582 0.
-181.312 -433.212 0.
-771.229 -1569.32 0.
0.000268637 0.731721 0.
-112.468 -270.965 0.
-299.9 -428.121 0.
-1530.12 -2614.38 0.
0.000242955 0.427159 0.
0.0108359 0.0657168 0.
-3.85805 -7.06358 0.
-15.384 -41.048 0.
-6.79506 -17.8188 0.
-18.418 -42.75 0.
-4.08964 -7.52436 0.
0.375292 0.00717555 0.
-33.4062 -53.9643 0.
-7.36642 -19.4487 0.
-7.45201 -17.6101 0.
-5.54357 -13.3886 0.
-5.89837 -15.9787 0.
-22.2965 -37.9205 0.
-21.5637 -38.3966 0.
-21.4192 -39.8558 0.
-380.524 -894.095 0.
-22.4872 -25.6695 0.
-20.6052 -21.6361 0.
-436.686 -1164.5 0.
-133.913 -356.72 0.
-296.093 -775.751 0.
-188.419 -513.068 0.
-103.429 -286.452 0.
-302.714 -827.198 0.
-236.663 -652.01 0.
-171.825 -475.609 0.
-389.521 -1071.65 0.
-272.784 -740.366 0.
-162.974 -432.436 0.
-347.18 -897.429 0.
-369.433 -1000.17 0.
-417.256 -1155.16 0.
-355.033 -959.267 0.
-324.101 -848.395 0.
-118.313 -316.92 0.
-263.901 -718.105 0.
-417.619 -1151.01 0.
-128.979 -354.816 0.
-218.375 -596.792 0.
-314.437 -851.72 0.
-51.2966 -140.798 0.
-145.047 -384.834 0.
-293.403 -741.319 0.
-14.6431 -38.0664 0.
-435.585 -1148.09 0.
-23.6454 -39.6261 0.
-15.2768 -15.5132 0.
-224.173 -434.823 0.
-23.0031 -26.7544 0.
-11.7857 -11.2279 0.
-10.8352 -10.2671 0.
-0.0493331 -0.0187201 0.
0.00701995 0.00266222 0.
-53.7111 -88.7792 0.
-0.906545 -0.46551 0.
-1.70764 -1.22096 0.
-44.4542 -23.707 0.
-4.13821 -2.89977 0.
-3.03531 -2.49401 0.
0.00130021 0.484182 0.
0.138868 0.592236 0.
-0.0289885 -1.42309 0.
-1771.3 -3954.65 0.
-5.23725 -13.5757 0.
0.321032 0.88822 0.
0.626445 1.62052 0.
-0.788654 -6.15142 0.
-313.561 -708.412 0.
1.79571 4.41662 0.
-790.918 -1766.67 0.
-582.576 -1397.82 0.
9.61457 24.5795 0.
-1.3364 -13.5211 0.
-236.675 -502.928 0.
3.55436 8.26402 0.
-125.251 -228.914 0.
2.61281 4.45602 0.
-1370.64 -2102.4 0.
8.58531 13.7672 0.
25.2121 34.5827 0.
-24.9354 -43.9024 0.
9.68686 13.0814 0.
-131.427 -189.42 0.
27.7474 45.1627 0.
9.78129 15.981 0.
-0.441867 -5.479 0.
10.8442 20.5626 0.
0.145205 6.33587 0.
6.42801 14.0129 0.
-524.949 -1013.57 0.
14.5427 32.2728 0.
-3.17258 -34.0614 0.
-1.41888 -20.9198 0.
-358.237 -836.31 0.
0.00332968 6.4159 0.
0.000218739 0.798677 0.
-247.819 -524.314 0.
-889.363 -2021.15 0.
-0.369798 -1.28705 0.
0.0700718 0.806383 0.
-118.396 -260.636 0.
-128.889 -167.149 0.
-41.6989 -71.2824 0.
-19.501 -36.6127 0.
-28.3914 -53.4854 0.
-1051.48 -2299.28 0.
-14.8482 -25.0399 0.
-1483.01 -3170.99 0.
-11.0218 -30.4286 0.
-1745.61 -3049.07 0.
-3.20899 -8.88792 0.
0.0489119 0.278594 0.
-1842.14 -4597.7 0.
-2.57185 -1.16587 0.
-51.9134 -43.1745 0.
-1443.53 -3507.19 0.
-286.764 -664.871 0.
-40.671 -76.369 0.
-999.913 -2598.88 0.
-459.233 -1235.08 0.
-614.769 -1577.18 0.
-399.128 -1055.19 0.
-193.166 -523.531 0.
-468.262 -1234.39 0.
-291.703 -774.207 0.
-116.804 -312.368 0.
-387.219 -1017.52 0.
-231.719 -595.563 0.
-71.541 -178.289 0.
-250.143 -676.269 0.
-218.623 -599.293 0.
-203.929 -564.149 0.
-210.837 -563.12 0.
-255.086 -677.958 0.
-56.4054 -148.748 0.
-246.141 -644.475 0.
-431.119 -1144.96 0.
-72.4911 -186.012 0.
-315.441 -823.26 0.
-559.464 -1459.43 0.
-166.675 -441.284 0.
-424.535 -1085.9 0.
-695.244 -1717.66 0.
-403.381 -1072.42 0.
-1117.82 -2884.7 0.
-26.2523 -55.2416 0.
-44.0294 -101.496 0.
-1617.83 -4136.39 0.
-43.9232 -60.8748 0.
-13.5486 -7.69813 0.
-1500.7 -3156.86 0.
-2.89585 -1.23928 0.
-1827.51 -3273.55 0.
-100.835 -273.376 0.
-7.9267 -9.77808 0.
-1031.11 -2628.95 0.
-244.095 -352.868 0.
-56.7638 -23.391 0.
-44.5911 -25.8607 0.
-10.047 -8.6613 0.
0.0831376 0.0138583 0.
0.0216383 0.817451 0.
-40.092 -105.163 0.
-1.29144 -3.37799 0.
-1003.89 -2249.33 0.
-0.0423856 -0.946818 0.
2.59434 6.81043 0.
-646.199 -1532.55 0.
2.69658 6.42583 0.
-0.00315559 -17.5216 0.
-11.8657 -31.1757 0.
-88.9659 -225.167 0.
-1.06069 -8.42582 0.
-619.21 -1342.21 0.
-200.32 -469.008 0.
-1126.06 -1825.95 0.
-2.52955 -24.5021 0.
13.4146 23.2121 0.
0.508091 0.777233 0.
-24.1213 -68.5741 0.
-271.62 -464.347 0.
-77.7401 -101.196 0.
-22.6135 -39.9992 0.
53.3465 85.7526 0.
-1077.35 -1664.43 0.
14.0292 30.2029 0.
-1765.83 -3123.34 0.
-0.547085 -8.22812 0.
-136.439 -263.159 0.
4.80768 12.9547 0.
-5.16425 -33.1344 0.
-1106.12 -2447.98 0.
-1029.22 -2269.9 0.
5.26324 13.3996 0.
-0.182423 -11.8592 0.
-0.00110172 -2.33022 0.
-776.944 -1852.98 0.
-137.362 -346.591 0.
-0.12338 -0.756984 0.
-7.21965e-05 -0.421543 0.
-315.731 -547.969 0.
-185.692 -200.128 0.
-1648.05 -3303.47 0.
-0.0386617 -1.1697 0.
-781.134 -1794.69 0.
-0.0140297 -0.126407 0.
-1.3765 -3.56092 0.
-2.6398 -6.59915 0.
-2.5146 -6.36966 0.
-87.9219 -106.144 0.
-12.9857 -23.2209 0.
-6.73519 -12.9997 0.
-11.3782 -6.58811 0.
-3.54615 -1.38366 0.
-14.9999 -16.7593 0.
-86.0506 -195.36 0.
-14.4899 -24.8194 0.
-24.082 -49.0757 0.
-426.884 -1115.9 0.
-20.1673 -52.6608 0.
-297.968 -754.368 0.
-87.3179 -226.959 0.
-45.2596 -119.06 0.
-320.534 -854.522 0.
-146.146 -391.998 0.
-4.50546 -12.4467 0.
-327.813 -883.968 0.
-173.67 -460.6 0.
-25.8252 -67.665 0.
-243.38 -660.393 0.
-227.639 -628.891 0.
-84.1183 -228.081 0.
-208.622 -567.491 0.
-229.061 -619.139 0.
-22.3168 -60.4727 0.
-164.687 -441.048 0.
-347.859 -943.445 0.
-1.91678 -4.79074 0.
-116.177 -302.638 0.
-357.311 -942.031 0.
-42.887 -113.455 0.
-3.52542 -8.7935 0.
-264.386 -641.766 0.
-20.0617 -54.6692 0.
-389.646 -992.992 0.
-10.2029 -26.1322 0.
-7.71804 -16.5159 0.
-35.414 -78.4157 0.
-23.9094 -16.3744 0.
-10.1327 -4.8087 0.
-5.90505 -2.73044 0.
-0.0654656 -0.0539404 0.
-311.807 -835.715 0.
0.201069 0.0707976 0.
-0.0101639 -0.226107 0.
-52.7888 -142.163 0.
-21.9875 -31.4266 0.
-1547.97 -2681.89 0.
0.251127 1.14214 0.
-62.5187 -98.0783 0.
-1432.58 -1818.53 0.
2.55738 6.62975 0.
-0.620636 -1.68609 0.
2.92093 7.6785 0.
3.46592 8.14892 0.
-333.271 -745.083 0.
-0.0361348 -0.0967469 0.
6.65806 18.3771 0.
1.25017 2.8733 0.
-0.0507222 -13.8975 0.
-177.135 -449.03 0.
-251.515 -577.937 0.
-0.704283 -9.47958 0.
-70.2016 -154.725 0.
7.6901 17.8071 0.
-15.436 -25.8751 0.
-2.42285 -11.041 0.
-694.725 -1152.09 0.
29.8588 44.6946 0.
-114.867 -193.764 0.
-737.311 -1224.81 0.
-26.2967 -30.5432 0.
-77.0235 -142.007 0.
-15.7036 -24.899 0.
-22.2257 -75.8792 0.
2.63722 5.03913 0.
15.2333 30.9328 0.
-2.16576 -19.359 0.
-1687.16 -2942.26 0.
-2.49549 -6.52279 0.
18.1834 34.4539 0.
6.23669 12.9932 0.
0.22935 0.559477 0.
12.2345 30.7866 0.
2.00877 5.01962 0.
-0.000377338 -0.390669 0.
6.78564 16.0578 0.
-16.2763 -42.2494 0.
0.0039235 0.0352028 0.
-1394.75 -2756.97 0.
-1058.48 -1243.19 0.
1.44687 1.69559 0.
-15.6758 -36.7664 0.
-0.0244341 -1.48399 0.
0.108391 1.0914 0.
-0.016629 -0.143932 0.
0.07407 0.20468 0.
-1.68866 -4.29462 0.
-1.34634 -3.44497 0.
-1.29493 -3.34723 0.
-37.7977 -40.3741 0.
-30.0117 -27.7628 0.
-18.1307 -10.9921 0.
-14.7888 -6.01477 0.
-21.7882 -23.6294 0.
-4.76794 -7.99879 0.
-11.323 -19.2488 0.
-19.6233 -45.537 0.
-15.8178 -43.5823 0.
-16.4596 -44.9112 0.
-2.48659 -3.50076 0.
-0.540284 -0.649695 0.
-24.5635 -62.4736 0.
-175.483 -471.982 0.
-24.0986 -66.7441 0.
-5.17056 -14.0077 0.
-285.943 -778.506 0.
-151.08 -406.808 0.
-18.8986 -36.7297 0.
-292.098 -763.642 0.
-282.186 -748.568 0.
-35.7591 -89.5335 0.
-254.153 -688.342 0.
-259.812 -697.883 0.
-9.8248 -26.8485 0.
-122.139 -333.941 0.
-285.64 -786.193 0.
-4.10956 -10.1954 0.
-2.62835 -6.8034 0.
-159.679 -420.108 0.
-19.2646 -50.2899 0.
-1.17764 -2.83905 0.
0.0724464 0.158597 0.
-5.43386 -14.6791 0.
-0.748258 -1.89821 0.
-3.87616 -10.7331 0.
-0.761686 -2.02452 0.
-1.23248 -3.39032 0.
-29.3982 -15.2406 0.
-14.9776 -6.84579 0.
-9.45586 -4.09677 0.
-1.25063 -2.41167 0.
-9.64915 -26.4614 0.
0.00138756 0.492202 0.
-2.30932 -6.39619 0.
-39.6794 -109.636 0.
-7.018 -10.8118 0.
-7.10909 -8.7402 0.
-0.116461 -2.51432 0.
-0.423086 -2.23094 0.
2.04182 5.32364 0.
-1131.49 -2936.76 0.
2.05939 5.38267 0.
0.543778 1.43147 0.
-0.692658 -9.29722 0.
-877.961 -2006.31 0.
2.67772 7.23164 0.
3.13389 8.24448 0.
14.6741 38.1858 0.
9.14513 24.4378 0.
-772.313 -1865.78 0.
-335.72 -744.575 0.
-61.1032 -144.201 0.
-35.9491 -71.6404 0.
6.95048 14.4465 0.
-1868.4 -2958.95 0.
-6.1801 -30.067 0.
-9.62123 -16.1132 0.
58.8201 94.6124 0.
45.4892 85.0247 0.
-16.672 -45.6307 0.
2.31829 2.4652 0.
18.6174 35.3982 0.
51.1892 79.7462 0.
-1112.94 -1924.02 0.
6.17089 10.7626 0.
-9.34929 -49.5177 0.
16.4979 38.4917 0.
-4.23524 -27.7293 0.
11.7235 27.5731 0.
-4.44744 -37.3688 0.
4.99705 10.2729 0.
-0.649488 -1.54683 0.
-2.20265 -45.7228 0.
-1274.93 -3025.74 0.
0.926587 2.28708 0.
10.8227 24.7183 0.
-9.22477 -24.2678 0.
-481.867 -1184.74 0.
2.69282 6.04308 0.
-0.0499529 -13.2025 0.
1.05541 1.35846 0.
0.616499 0.976452 0.
-0.0222334 -2.40894 0.
-0.0117132 -1.84938 0.
-1405.65 -2669.4 0.
0.327491 0.902504 0.
-1495.96 -2575.29 0.
-15.2521 -39.1545 0.
-0.948545 -2.28244 0.
-2015.22 -4286.62 0.
-18.1474 -14.8888 0.
-1317.35 -2634.69 0.
-21.607 -23.0069 0.
-78.1594 -107.719 0.
-1528.9 -3926.83 0.
-21.4509 -58.8625 0.
-18.409 -50.292 0.
-1221.16 -3180.32 0.
-174.378 -469.822 0.
-806.72 -1985.75 0.
-407.941 -1022.03 0.
-55.8482 -144.872 0.
-676.225 -1800.71 0.
-349.294 -932.87 0.
-24.2559 -66.9713 0.
-524.877 -1444.88 0.
-310.561 -852.749 0.
-95.2139 -261.65 0.
-404.603 -1083.71 0.
-358.318 -956.473 0.
-173.334 -467.014 0.
-312.589 -854.659 0.
-397.958 -1091.59 0.
-61.6501 -168.111 0.
-322.723 -883.074 0.
-582.002 -1599.83 0.
-0.00154734 -0.124713 0.
-348.496 -919.545 0.
-784.376 -2077.84 0.
-43.344 -110.521 0.
-405.638 -967.438 0.
-926.582 -2174.64 0.
-49.0585 -122.081 0.
-1345.1 -3462.64 0.
-17.5345 -42.0741 0.
-24.4764 -54.1547 0.
-1643.57 -4093.23 0.
-23.2088 -32.5009 0.
-26.4512 -32.676 0.
-1777.78 -2878.72 0.
-1.02799 -1.77632 0.
-1588.86 -3623.65 0.
-17.3072 -38.8884 0.
-87.028 -178.065 0.
-1486.69 -2917.84 0.
-27.5654 -60.4359 0.
-708.562 -1598.74 0.
0.0555492 3.97563 0.
2.48229 5.5571 0.
-0.0438583 -2.61613 0.
-93.437 -241.735 0.
2.33164 6.09952 0.
-1015.86 -2365.45 0.
-0.648526 -1.52983 0.
-0.0197826 -7.88709 0.
-299.46 -802.936 0.
4.41627 10.8809 0.
0.480407 1.23302 0.
15.2549 39.4222 0.
-60.6444 -144.133 0.
-958.694 -2074.4 0.
-355.181 -840.882 0.
-1164.46 -2163.51 0.
17.0599 32.2789 0.
27.0723 51.5416 0.
0.368083 0.655833 0.
6.93396 11.942 0.
45.4954 68.8916 0.
-1064.22 -1802.22 0.
32.4904 50.3568 0.
27.1299 28.705 0.
-6.04106 -11.7128 0.
-36.2152 -92.479 0.
-42.8981 -83.9726 0.
6.89277 12.8453 0.
-897.163 -1671.63 0.
12.9191 27.9209 0.
11.4258 22.9616 0.
-5.32044 -42.2991 0.
-4.98212 -34.9173 0.
-1280.71 -2621.8 0.
-2.60428 -6.04476 0.
-652.274 -1602.53 0.
-0.859066 -45.3843 0.
-3.53602 -8.76329 0.
4.3469 9.56504 0.
-77.9558 -205.539 0.
4.48516 10.9314 0.
-1.35802 -3.24812 0.
-0.0311732 -11.2367 0.
2.02099 2.78627 0.
-0.48395 -2.37277 0.
-1492.5 -3231.24 0.
0.676864 1.81679 0.
-0.107349 -0.294673 0.
-0.0237386 -0.881554 0.
-37.1867 -90.953 0.
-11.6308 -14.9005 0.
-14.1177 -18.5391 0.
-1.93716 -1.90524 0.
-0.169467 -0.216201 0.
-15.6279 -19.9361 0.
-12.1501 -16.8467 0.
-25.0237 -54.9271 0.
-17.2763 -40.4283 0.
-17.0902 -40.5388 0.
-16.8303 -43.2515 0.
-287.746 -741.744 0.
-14.7247 -40.0825 0.
-281.67 -689.427 0.
-13.8336 -36.7198 0.
-22.1726 -61.4117 0.
-393.403 -1062.49 0.
-70.1602 -190.329 0.
-14.6448 -40.5629 0.
-416.806 -1151.51 0.
-209.289 -578.437 0.
-39.5698 -108.226 0.
-373.492 -933.239 0.
-326.765 -801.26 0.
-52.2597 -137.753 0.
-245.668 -674.007 0.
-327.105 -898.533 0.
0.00216248 0.102171 0.
-163.774 -452.474 0.
-422.517 -1170.07 0.
0.0141848 0.0384997 0.
-4.10698 -11.3626 0.
-397.592 -1069.17 0.
-31.9387 -79.7348 0.
-10.9543 -26.2292 0.
-207.881 -483.083 0.
-23.4111 -59.4425 0.
-194.548 -456.225 0.
-3.36576 -7.5514 0.
0.0478712 0.0951154 0.
-5.18627 -9.735 0.
-2.06358 -4.56939 0.
-2.3013 -4.77386 0.
-9.3434 -16.3126 0.
0.203808 0.418245 0.
-18.7626 -33.713 0.
-0.893326 -2.16269 0.
-22.5063 -55.9878 0.
-146.882 -331.815 0.
-3.44561 -9.24738 0.
-419.74 -1049.46 0.
-0.122219 -3.72374 0.
-974.172 -2019.15 0.
-0.0345438 -3.15555 0.
-190.448 -505.155 0.
2.67742 6.98519 0.
3.97006 9.69092 0.
2.01331 4.73093 0.
-0.491637 -23.1861 0.
-3.51925 -8.70357 0.
-434.303 -1003.13 0.
-1184.18 -2967.24 0.
13.9297 34.7747 0.
-20.7441 -47.7158 0.
-2.33678 -26.2121 0.
-3.17337 -37.1515 0.
26.5778 54.7586 0.
12.2217 25.2656 0.
-12.4287 -61.7337 0.
-12.7445 -21.835 0.
-523.262 -923.002 0.
-125.73 -172.544 0.
-31.8434 -85.4157 0.
-17.5418 -46.2229 0.
12.1118 12.7787 0.
18.6071 37.9317 0.
21.6704 32.1546 0.
-206.763 -399.977 0.
1.29252 2.30006 0.
19.5025 36.7462 0.
-5.51979 -34.4749 0.
-1363.29 -2692.82 0.
25.5853 50.5019 0.
-707.447 -1445.79 0.
-338.743 -771.89 0.
18.5266 41.136 0.
-96.4575 -235.514 0.
5.76397 15.1123 0.
-120.207 -298.352 0.
-1194.34 -2531.85 0.
-1.14694 -2.89585 0.
-14.0721 -33.6281 0.
-0.488589 -9.31992 0.
-0.00695915 -7.78964 0.
-1229.76 -2110.69 0.
-0.59494 -6.61304 0.
-0.0129177 -0.171288 0.
-0.0491366 -2.48498 0.
0.586428 1.62221 0.
-0.0541876 -1.18499 0.
-42.2415 -45.6417 0.
-31.0264 -24.7151 0.
-172.304 -357.367 0.
-1444.99 -3748.51 0.
-7.57009 -9.37183 0.
-1602.67 -2107.71 0.
-16.4557 -34.4351 0.
-39.5187 -75.4361 0.
-1533.81 -3835.68 0.
-6.84756 -18.9185 0.
-13.9498 -37.3604 0.
-1301.95 -3338.26 0.
-13.6667 -35.3958 0.
-913.58 -2097.98 0.
-348.501 -809.88 0.
-17.9581 -49.4142 0.
-792.184 -2079.91 0.
-285.082 -745.649 0.
-7.09528 -19.0678 0.
-539.606 -1459.89 0.
-285.762 -777.22 0.
-35.3734 -91.0963 0.
-423.868 -1128.01 0.
-361.093 -949.528 0.
-66.0072 -176.071 0.
-305.398 -842.53 0.
-444.573 -1209.21 0.
-0.145895 -0.400977 0.
-300.117 -805.777 0.
-623.059 -1674.73 0.
-0.399302 -0.979714 0.
-249.433 -646.525 0.
-893.278 -2349.56 0.
-22.575 -49.0091 0.
-291.602 -658.59 0.
-984.024 -2236.57 0.
-32.6462 -80.9433 0.
-1420.08 -3250.12 0.
-12.8878 -33.9901 0.
-6.82588 -17.633 0.
-1549.06 -3994.62 0.
-3.88035 -10.5335 0.
-12.1651 -29.0803 0.
-1338.24 -2561.4 0.
-16.8927 -41.1325 0.
-1039.37 -2392.7 0.
-24.1056 -64.1534 0.
-4.98868 -13.0225 0.
-114.205 -280.892 0.
0.811421 2.24652 0.
-180.332 -459.302 0.
0.074528 2.16086 0.
-0.0318671 -0.28593 0.
-369.962 -888.013 0.
-0.0058809 -5.64013 0.
-0.376807 -13.5192 0.
-1.14624 -16.6387 0.
-118.544 -279.761 0.
-6.56656 -16.3073 0.
-2.64774 -52.1973 0.
-1.1335 -57.0322 0.
-68.794 -158.717 0.
9.11203 21.8255 0.
-18.5754 -41.3612 0.
-4.14669 -32.279 0.
1.91764 4.11077 0.
0.190746 0.382806 0.
26.5705 51.6117 0.
-841.512 -1614.54 0.
4.45783 8.06807 0.
-591.064 -1034.39 0.
-213.268 -291.832 0.
-37.9977 -89.7633 0.
16.98 25.7779 0.
-4.91834 -5.18547 0.
-25.7752 -52.4149 0.
17.1725 29.1974 0.
-0.385644 -0.690266 0.
21.5782 36.9557 0.
34.8829 66.3391 0.
9.51297 20.3449 0.
-7.18113 -51.8431 0.
23.6185 54.8873 0.
12.4599 25.8777 0.
-359.875 -813.748 0.
-5.24001 -45.3674 0.
-251.662 -603.51 0.
3.9676 10.2736 0.
-3.60706 -9.35075 0.
3.67605 9.72092 0.
14.0224 35.6 0.
-973.983 -2278.26 0.
-0.000726001 -22.6989 0.
4.55299 10.6586 0.
-1.49188 -2.75734 0.
5.98028 14.5537 0.
-0.171276 -2.07434 0.
0.0294039 1.20721 0.
-1259.88 -2792.89 0.
0.763661 2.10082 0.
-1328.68 -2258.2 0.
0.229359 0.383136 0.
-0.138052 -0.294668 0.
-12.5521 -24.6782 0.
-0.775578 -1.26866 0.
-15.1648 -25.4803 0.
-11.4139 -13.1892 0.
-11.6045 -8.35027 0.
-0.906169 -2.46294 0.
-6.65365 -16.725 0.
-13.4914 -36.3417 0.
-108.477 -264.102 0.
-6.51296 -17.9859 0.
-157.663 -353.508 0.
-5.64479 -15.6073 0.
-12.7679 -35.336 0.
-366.811 -987.602 0.
-9.92942 -24.8457 0.
-4.67278 -10.2511 0.
-318.866 -878.38 0.
-83.4314 -226.792 0.
-1.61191 -1.8416 0.
-233.416 -643.502 0.
-181.125 -499.373 0.
-14.809 -38.7528 0.
-137.625 -381.187 0.
-245.182 -676.408 0.
-0.26025 -0.715774 0.
-37.7761 -100.107 0.
-322.561 -882.126 0.
-0.563815 -1.35887 0.
-2.70947 -6.74629 0.
-321.017 -861.013 0.
-18.4663 -38.4852 0.
-7.34946 -15.7722 0.
-107.907 -236.683 0.
-9.79705 -26.3111 0.
-11.2749 -29.8758 0.
-9.48631 -24.977 0.
-4.88316 -12.5377 0.
-10.1637 -24.6997 0.
0.14606 0.40129 0.
0.162229 0.42001 0.
-0.444307 -1.03915 0.
-4.22567 -11.5334 0.
-26.3446 -71.2105 0.
-3.99257 -10.6292 0.
-1160.07 -2487.85 0.
0.0130377 1.90757 0.
-981.627 -2350.13 0.
-8.46598 -23.1626 0.
0.0985941 2.68781 0.
-0.0156297 -16.4795 0.
-124.502 -308.911 0.
-165.466 -390.296 0.
-0.541569 -17.2384 0.
12.7441 29.54 0.
-1.67361 -49.9514 0.
-877.864 -2055.03 0.
-598.652 -1479.52 0.
-0.832116 -32.7526 0.
-426.537 -985.036 0.
-3.10593 -41.1534 0.
-0.67639 -18.4085 0.
-888.264 -1783.45 0.
17.9455 35.743 0.
-1664.47 -3291.48 0.
-5.11026 -9.44168 0.
18.0966 36.9409 0.
32.192 56.885 0.
-1136.29 -1900.47 0.
-146.321 -199.659 0.
-29.9644 -101.089 0.
-18.4102 -45.8316 0.
-28.6306 -30.3091 0.
21.0252 42.702 0.
3.47865 5.75638 0.
-231.42 -398.716 0.
13.1826 23.9461 0.
-1357.36 -2596.27 0.
-1.76084 -3.63203 0.
2.09939 4.38722 0.
21.4563 48.4581 0.
-6.23736 -41.4448 0.
-359.12 -806.336 0.
-0.606488 -1.30869 0.
-933.978 -2197.8 0.
-2.18973 -54.8214 0.
-182.81 -473.122 0.
-3.23926 -8.52378 0.
-280.844 -715.244 0.
-0.610836 -44.8732 0.
-0.224411 -41.1099 0.
-934.947 -2209.14 0.
-0.084739 -6.65359 0.
-0.0997584 -2.02069 0.
-1141.21 -2018.52 0.
-0.149833 -0.370412 0.
-15.6231 -42.8956 0.
0.772996 2.13667 0.
1.05375 2.91644 0.
0.147381 0.28245 0.
0.181019 0.424888 0.
-4.90361 -10.4058 0.
-0.00616644 -0.0108036 0.
-21.26 -17.3691 0.
-4.08256 -2.9347 0.
-9.69755 -7.24492 0.
-0.584444 -1.4895 0.
-6.93503 -15.0858 0.
-14.3419 -34.0595 0.
-7.21287 -18.9209 0.
-9.39616 -25.9756 0.
-1.24042 -3.4229 0.
-5.51366 -12.9979 0.
-13.8348 -36.03 0.
-35.8464 -94.2214 0.
-8.70176 -14.7246 0.
-1.63307 -1.71268 0.
-145.989 -389.872 0.
-15.3977 -30.0101 0.
-8.21221 -6.79105 0.
-135.881 -375.923 0.
-96.4516 -264.643 0.
-7.82822 -20.1769 0.
-41.1497 -113.906 0.
-111.912 -309.87 0.
-0.273517 -0.753317 0.
-15.1089 -40.6169 0.
-102.21 -281.85 0.
-1.21667 -2.8637 0.
-6.24715 -15.6221 0.
-44.8335 -120.632 0.
-23.8079 -49.157 0.
-10.2022 -21.5196 0.
-31.323 -66.1538 0.
-7.72944 -21.1446 0.
-9.28429 -25.1359 0.
-8.68029 -22.7006 0.
-3.85275 -9.85267 0.
-13.0758 -31.397 0.
0.174184 0.478103 0.
0.186473 0.488078 0.
-0.0352591 -0.571488 0.
-4.32981 -11.8702 0.
-24.3288 -67.3865 0.
0.22439 0.593273 0.
0.234935 0.530926 0.
0.0107121 1.22835 0.
0.579113 1.51406 0.
5.56854 14.6106 0.
-992.867 -2338.94 0.
0.00370332 6.96238 0.
-47.8646 -120.749 0.
-132.448 -311.905 0.
14.7805 40.8482 0.
-829.093 -1869.81 0.
3.17025 8.11848 0.
11.8084 30.8461 0.
-76.1384 -199.413 0.
14.8761 38.3467 0.
-1.02774 -19.0885 0.
0.939379 2.14073 0.
16.8519 40.7381 0.
19.221 40.2396 0.
30.0882 70.2239 0.
-1.76606 -3.78911 0.
-9.63362 -60.987 0.
-24.9526 -50.8096 0.
-13.4949 -23.3901 0.
16.9004 29.8782 0.
-28.5996 -107.108 0.
56.9668 97.1361 0.
-157.243 -179.336 0.
-12.4201 -13.2547 0.
29.6388 60.2006 0.
51.3627 83.9019 0.
22.3965 37.4561 0.
-18.2093 -80.3487 0.
-15.3039 -32.1287 0.
20.4002 40.874 0.
-22.1777 -46.1345 0.
8.92712 19.7026 0.
-885.404 -1823.71 0.
-165.852 -363.851 0.
-6.97705 -16.5789 0.
-4.59913 -56.5514 0.
-10.0099 -24.9087 0.
-76.6561 -198.04 0.
-339.177 -886.571 0.
-179.527 -491.749 0.
-2.43637 -6.52603 0.
10.8137 28.6406 0.
-0.030636 -25.1501 0.
9.57897 25.6276 0.
-573.801 -1364.91 0.
9.96128 27.4666 0.
-0.127548 -4.08004 0.
3.55762 9.83671 0.
-0.000197817 -2.58576 0.
-0.00246827 -1.50701 0.
-877.075 -2146.87 0.
-0.0250749 -0.0588801 0.
-1106.89 -2147.73 0.
-11.2172 -29.9947 0.
-1256.6 -2055.78 0.
-27.0601 -48.8594 0.
-14.5438 -29.2026 0.
-1444.54 -3633.22 0.
-11.8745 -21.658 0.
-2.02688 -4.22057 0.
-1331.8 -3094.71 0.
-16.3007 -36.9147 0.
-1023.32 -2305.79 0.
-276.622 -597.723 0.
-8.15404 -22.3075 0.
-982.591 -2597.52 0.
-182.226 -486.022 0.
-1.9632 -4.84971 0.
-697.969 -1896.78 0.
-322.803 -883.445 0.
-15.7859 -33.4817 0.
-492.958 -1356.12 0.
-417.525 -1154.61 0.
-31.0425 -85.9423 0.
-353.542 -978.12 0.
-571.028 -1573.63 0.
-2.21501 -6.1198 0.
-279.214 -736.218 0.
-798.448 -2102.27 0.
-0.699652 -1.79469 0.
-145.638 -373.322 0.
-1084.66 -2902.63 0.
-11.3423 -23.7957 0.
-204.454 -440.149 0.
-1035.69 -2252.12 0.
-18.512 -51.2678 0.
-1280.78 -3111.42 0.
-28.3053 -76.8755 0.
-16.8631 -45.1862 0.
-1027.77 -2174.32 0.
-5.27115 -14.5866 0.
-1543.04 -3493.48 0.
-0.0294453 -0.61187 0.
-16.4866 -45.3068 0.
-1008.03 -2209.68 0.
-419.244 -772.638 0.
0.661709 1.53064 0.
-0.095633 -10.2708 0.
-0.0475573 -3.5109 0.
9.35916 25.2619 0.
-212.827 -516.642 0.
-290.979 -752.858 0.
-0.0620025 -5.35261 0.
-693.56 -1618.25 0.
-0.114704 -10.8408 0.
10.1892 27.3066 0.
-587.894 -1498.96 0.
1.33603 3.47187 0.
-17.706 -46.3443 0.
17.7724 43.5209 0.
6.69213 15.8503 0.
-748.897 -1656.92 0.
-4.84283 -54.677 0.
-14.5469 -30.1805 0.
-4.30069 -44.6887 0.
-7.0634 -53.8464 0.
-11.7217 -23.8814 0.
-360.782 -732.501 0.
40.2155 69.2951 0.
2.82343 5.06626 0.
-26.7676 -106.848 0.
44.6226 74.1419 0.
-219.908 -236.605 0.
43.1782 46.6972 0.
6.45059 24.5602 0.
-22.7082 -37.5865 0.
-6.35738 -10.3932 0.
-20.5871 -38.3648 0.
-2.52815 -5.23322 0.
-10.9474 -66.9445 0.
-708.287 -1548.6 0.
29.7287 65.333 0.
20.596 47.6235 0.
18.8284 42.3872 0.
-6.32987 -14.9353 0.
2.75092 6.39471 0.
-13.2484 -32.439 0.
-365.874 -943.824 0.
9.41081 24.3362 0.
-273.305 -745.562 0.
-0.864347 -54.7032 0.
16.889 46.2138 0.
10.1974 28.0398 0.
7.0712 18.7053 0.
3.3425 9.11257 0.
0.0153957 4.53319 0.
-0.0969089 -4.38105 0.
0.00331439 2.62239 0.
-792.833 -1566.54 0.
-0.0128587 -1.23605 0.
-50.5609 -131.82 0.
0.235473 0.601325 0.
-13.7723 -32.8805 0.
-11.2461 -29.689 0.
-31.2612 -72.5715 0.
-2.27665 -5.51816 0.
0.000295126 0.175604 0.
-16.6707 -38.4665 0.
-6.55139 -11.9725 0.
-3.30325 -5.91408 0.
-3.57638 -6.21837 0.
-6.84244 -12.7284 0.
-24.5162 -60.4248 0.
-13.0448 -35.3778 0.
-7.62849 -20.3458 0.
-173.368 -473.743 0.
-1.88453 -4.9983 0.
-1.59414 -4.31126 0.
-266.323 -726.653 0.
-13.8487 -29.7301 0.
-14.6213 -30.9971 0.
-204.13 -564.477 0.
-131.196 -360.311 0.
-0.467652 -1.02757 0.
-39.8742 -110.443 0.
-210.063 -580.539 0.
-0.792931 -2.15675 0.
-8.17009 -20.4047 0.
-163.562 -425.778 0.
-1.30973 -3.14265 0.
-15.6219 -37.0759 0.
-177.079 -476.18 0.
-5.65165 -13.1076 0.
-6.0591 -14.9309 0.
-17.7396 -44.8532 0.
-8.09857 -22.2879 0.
-19.8753 -54.7968 0.
0.0236131 0.065342 0.
0.00165642 0.00455554 0.
-1.5739 -4.20977 0.
0.284895 0.788522 0.
-3.30003 -9.13958 0.
-0.0180776 -0.457704 0.
0.545435 1.5106 0.
-14.6858 -38.3688 0.
2.88551 6.72536 0.
-408.793 -751.126 0.
-733.964 -1798.74 0.
-0.00180288 -0.194596 0.
-0.049323 -7.59889 0.
0.51698 1.41425 0.
-99.2445 -251.151 0.
-0.576301 -30.9467 0.
6.71223 18.0172 0.
-234.42 -602.17 0.
-3.70353 -9.8828 0.
3.8997 10.3507 0.
-118.482 -306.195 0.
-90.9215 -238.013 0.
-129.328 -315.283 0.
-0.92719 -27.6054 0.
23.0773 53.5165 0.
15.8553 34.6788 0.
-1386.78 -2856.19 0.
-3.63388 -33.1179 0.
22.4962 47.565 0.
-14.1559 -28.8721 0.
-651.871 -1361.11 0.
4.50701 7.89205 0.
66.6574 120.936 0.
39.9684 72.6239 0.
40.6558 63.6518 0.
16.1224 16.6464 0.
3.46697 0.237103 0.
-16.216 -56.117 0.
-27.6118 -46.7733 0.
55.4659 90.4922 0.
25.6197 51.8986 0.
-173.299 -354.397 0.
-9.70304 -60.9278 0.
13.3853 29.0517 0.
-5.66169 -48.7487 0.
12.6187 28.7828 0.
-6.09701 -58.0991 0.
-46.0379 -107.892 0.
-589.814 -1375.68 0.
16.2755 38.42 0.
-65.3455 -164.967 0.
18.4525 47.6319 0.
-505.501 -1371.67 0.
2.40847 6.60132 0.
9.11931 24.8591 0.
16.1309 44.0106 0.
8.54234 22.2668 0.
-3.0827 -8.29041 0.
9.007 24.5731 0.
2.50744 6.64584 0.
-517.245 -1147.39 0.
2.2151 4.54604 0.
-0.0948911 -9.73512 0.
-7.48332 -19.8641 0.
0.307908 0.829547 0.
-1.72119 -4.76035 0.
-12.9792 -33.1004 0.
-33.3506 -72.5325 0.
-1123.46 -2801.76 0.
-0.0221034 -0.43199 0.
-863.058 -1778.7 0.
-42.6375 -75.5175 0.
-43.2766 -111.154 0.
-1135.72 -2832.31 0.
-0.021407 -0.0354133 0.
-971.877 -1937.11 0.
-181.884 -353.888 0.
-8.58961 -12.75 0.
-1046.97 -2821.87 0.
-58.9848 -159.888 0.
-2.75996 -6.83018 0.
-828.093 -2214.07 0.
-272.815 -746.886 0.
-7.62012 -13.3739 0.
-553.616 -1510.3 0.
-478.937 -1326.5 0.
-26.6081 -68.7287 0.
-359.171 -993.861 0.
-680.37 -1866.59 0.
-9.14043 -24.1797 0.
-190.589 -516.315 0.
-897.564 -2406.37 0.
-4.51673 -7.37818 0.
-1.80437 -2.59853 0.
-916.331 -2359.66 0.
-0.0268464 -0.275025 0.
-1221.63 -2685.74 0.
0.0932197 0.252261 0.
-12.4027 -34.338 0.
-1050.81 -2720.1 0.
-22.5249 -62.284 0.
-18.3586 -50.8214 0.
-880.319 -1819.99 0.
-334.227 -800.414 0.
-0.0625158 -0.172979 0.
0.0121449 0.34744 0.
-0.00144077 -1.39701 0.
0.15198 0.409944 0.
-0.301372 -7.20586 0.
-0.934257 -6.4931 0.
-37.0223 -95.7184 0.
12.3078 33.2409 0.
6.41738 17.5372 0.
1.00786 2.72909 0.
-470.825 -1166.14 0.
4.81137 12.5003 0.
-0.545276 -40.6834 0.
-25.09 -68.7894 0.
-0.875913 -48.1481 0.
19.2113 50.9434 0.
-12.8185 -33.5521 0.
-481.798 -1263.42 0.
-428.802 -1042.67 0.
-82.3298 -205.297 0.
-5.33099 -12.305 0.
6.36016 14.6415 0.
14.8915 34.1498 0.
27.4053 62.3359 0.
-972.681 -2043.98 0.
4.08544 8.64132 0.
29.0598 59.3093 0.
4.55573 8.10229 0.
-5.07447 -9.29556 0.
-704.8 -934.242 0.
-26.884 -37.3224 0.
-9.79801 -9.8175 0.
-42.2481 -2.68562 0.
-19.8331 -60.5798 0.
-3.29716 -15.7007 0.
20.8154 34.3335 0.
-22.3521 -45.0312 0.
-791.541 -1602.17 0.
38.0202 77.7135 0.
-96.4097 -206.718 0.
0.552937 1.20125 0.
13.4864 30.382 0.
-317.651 -702.104 0.
-120.573 -280.686 0.
-204.939 -514.298 0.
1.22877 2.89601 0.
-126.794 -319.928 0.
18.7166 48.2267 0.
-10.3624 -27.1488 0.
-3.61551 -9.87226 0.
-552.439 -1498.12 0.
-400.832 -1083.62 0.
-0.00834705 -5.3328 0.
-5.91853 -15.6156 0.
4.06018 10.9452 0.
-0.990098 -29.1669 0.
0.907997 2.08571 0.
2.86565 6.20812 0.
-0.0105618 -0.999666 0.
-16.7535 -45.8769 0.
-882.293 -1720.91 0.
-782.248 -1280.14 0.
-72.9367 -162.815 0.
-33.8017 -91.0232 0.
-0.0457665 -0.122158 0.
0.0785385 0.206019 0.
-0.025572 -0.0413596 0.
0.00818478 0.0156895 0.
-8.37222 -19.7269 0.
-13.3394 -36.8211 0.
0.0327253 0.0694743 0.
0.191634 0.0894884 0.
-6.08066 -7.89021 0.
-4.65078 -8.74838 0.
-154.8 -423.535 0.
-3.98275 -10.9417 0.
-3.80114 -10.5143 0.
-69.0177 -191.15 0.
-1.99741 -2.72512 0.
-2.72609 -5.27531 0.
-65.9441 -181.469 0.
-10.1134 -27.8795 0.
-21.0802 -56.4721 0.
-7.38657 -19.3392 0.
-41.4973 -114.861 0.
-6.38527 -16.9981 0.
-4.0199 -10.9826 0.
-10.1701 -28.0576 0.
-3.73107 -8.17652 0.
0.000603455 0.0120504 0.
-4.62349 -11.0064 0.
-2.9742 -7.13949 0.
-177.836 -428.209 0.
-0.0343891 -0.0936348 0.
0.0177379 0.0488863 0.
-9.94102 -27.5208 0.
-0.0417998 -0.11461 0.
-0.107017 -0.294469 0.
-22.3498 -60.6713 0.
0.51322 1.42117 0.
-565.984 -1323.32 0.
1.72805 4.75467 0.
-1089.21 -2305.39 0.
5.95611 15.2703 0.
-0.176408 -6.60921 0.
0.00446848 3.46454 0.
-34.0616 -90.4149 0.
9.89709 26.76 0.
-314.955 -825.416 0.
11.6924 31.184 0.
15.6637 42.3294 0.
0.109404 0.277836 0.
9.29108 24.8779 0.
2.68372 7.35474 0.
13.4969 35.942 0.
-279.046 -738.813 0.
14.1978 37.1488 0.
3.72602 9.5875 0.
-144.589 -360.208 0.
-382.111 -952.157 0.
-13.3109 -30.5932 0.
29.5913 67.2104 0.
8.66667 19.7855 0.
-0.67368 -1.51884 0.
18.6292 40.6101 0.
6.66589 14.0765 0.
-12.8506 -75.3173 0.
-16.6186 -112.645 0.
-4.19479 -7.74889 0.
-1248.21 -1235.84 0.
54.2572 76.287 0.
-19.3633 -18.6681 0.
42.6097 2.32527 0.
-31.2781 -84.9503 0.
31.2743 56.5952 0.
-21.2189 -35.3325 0.
-12.0231 -24.1234 0.
-10.0709 -20.6907 0.
-6.42831 -13.214 0.
-979.181 -2073.91 0.
3.4593 7.48139 0.
-757.458 -1682.56 0.
-83.7453 -212.248 0.
-8.94076 -21.6423 0.
-339.752 -843.009 0.
10.044 23.6389 0.
-551.445 -1390.7 0.
7.02173 17.8357 0.
21.365 55.7628 0.
3.73091 10.1431 0.
-1.30095 -3.54465 0.
-10.162 -27.868 0.
-0.000581608 -53.0377 0.
-688.737 -1777.49 0.
17.2557 47.7938 0.
3.45054 8.83262 0.
-328.327 -770.214 0.
14.0167 38.7999 0.
-443.037 -1091.76 0.
-0.00374811 -0.891124 0.
-0.409241 -4.32969 0.
-0.00092325 -4.79069 0.
-14.1243 -37.5517 0.
-0.0032413 -0.767654 0.
-0.0727727 -0.199875 0.
-0.0030432 -0.585636 0.
-0.0534689 -0.229203 0.
0.281566 0.591783 0.
-0.0218938 -0.383064 0.
-0.888789 -2.20606 0.
0.134819 0.216753 0.
0.273596 0.0932016 0.
-9.20869 -7.83408 0.
-9.28269 -12.0061 0.
-21.1159 -58.4755 0.
-7.13184 -19.6241 0.
-6.6361 -18.2172 0.
-3.52456 -5.50514 0.
-0.0898152 -0.247323 0.
-1.42694 -3.81507 0.
-0.0679842 -0.180364 0.
0.0459768 0.113237 0.
-9.2584 -23.6656 0.
-1.78974 -3.96995 0.
-1.5932 -4.22085 0.
-9.42779 -25.6758 0.
-4.27988 -11.661 0.
-7.93176 -20.5727 0.
-5.7547 -14.7431 0.
-7.98206 -20.3907 0.
-13.5427 -34.0608 0.
-5.90295 -15.0053 0.
-41.0901 -104.684 0.
-0.163138 -0.446735 0.
-0.107829 -0.298146 0.
-0.206482 -0.571761 0.
-0.0552692 -0.150146 0.
-0.04526 -0.123668 0.
-18.5827 -48.8286 0.
3.28775e-05 0.588702 0.
0.675934 1.79565 0.
-0.00187992 -8.27978 0.
-0.277682 -4.98811 0.
-0.23676 -14.4089 0.
-681.623 -1696.24 0.
-145.21 -396.073 0.
-237.922 -639.527 0.
-0.24471 -23.3349 0.
-0.384494 -45.7822 0.
0.879598 2.29489 0.
-0.48881 -45.9889 0.
6.8069 18.6834 0.
-296.475 -791.47 0.
-42.1078 -115.338 0.
0.850037 2.26139 0.
-145.303 -377.632 0.
-1.28638 -3.36499 0.
11.6119 29.5334 0.
-87.3033 -216.934 0.
3.65908 8.95551 0.
-690.895 -1580.96 0.
8.79653 19.768 0.
17.3852 39.545 0.
10.5362 23.5907 0.
26.8522 57.9101 0.
-0.14886 -0.314076 0.
6.15648 12.0676 0.
-7.29854 -44.4163 0.
6.19579 11.0479 0.
-11.2709 -12.2169 0.
-11.5357 -16.4567 0.
1.49601 4.02296 0.
-152.484 -107.798 0.
10.2723 25.5598 0.
-2.25581 -8.37115 0.
-335.306 -562.583 0.
-26.6741 -53.3879 0.
24.4085 49.8628 0.
19.2805 43.2391 0.
35.6513 76.0809 0.
0.328812 0.751933 0.
6.94865 15.4421 0.
-76.5117 -193.135 0.
-41.2393 -100.595 0.
-485.653 -1191.58 0.
6.74346 15.8527 0.
-5.2211 -12.7865 0.
-73.5311 -186.699 0.
-289.249 -752.866 0.
-2.66416 -7.08387 0.
10.2253 27.8371 0.
4.91 13.4161 0.
-0.039832 -46.6161 0.
16.6868 46.0922 0.
7.70468 21.2024 0.
-638.112 -1625.67 0.
14.2332 38.3975 0.
-0.154556 -32.2978 0.
-386.901 -985.47 0.
0.00158186 2.76522 0.
-0.0635464 -1.01703 0.
-3.39582e-05 -3.80303 0.
-0.00442621 -1.05556 0.
-39.3607 -87.086 0.
-730.846 -1754.26 0.
-10.9914 -29.2575 0.
-789.46 -1640.21 0.
-52.5198 -108.161 0.
-63.7425 -129.743 0.
-901.03 -2232.49 0.
-0.155119 -0.425936 0.
0.142099 0.365314 0.
-1253.47 -2806.21 0.
0.00345577 0.179697 0.
-817.903 -2148.57 0.
-8.66679 -23.3011 0.
-3.92869 -9.33963 0.
-868.644 -2337.56 0.
-98.1416 -271.734 0.
-17.5851 -47.7521 0.
-587.644 -1588.39 0.
-421.74 -1166.69 0.
-46.0377 -127.228 0.
-199.87 -553.292 0.
-753.698 -2071.27 0.
-27.6171 -76.4931 0.
-21.8733 -59.955 0.
-919.268 -2442.47 0.
-7.16033 -15.8381 0.
-8.21204 -16.4136 0.
-1026.84 -2222.55 0.
-4.93665 -13.6279 0.
-1066.07 -2559.35 0.
-0.775389 -2.14121 0.
-4.50868 -11.1702 0.
-1006.35 -2493.98 0.
-8.72188 -19.0665 0.
-39.0487 -99.4528 0.
-944.394 -2015.6 0.
0.376489 0.846923 0.
0.855898 2.30783 0.
-1.35949e-06 -10.4701 0.
-0.0197664 -0.571911 0.
-0.0171261 -1.94065 0.
-54.6249 -138.195 0.
-167.464 -456.251 0.
-0.0633613 -32.6625 0.
-0.380834 -33.192 0.
7.76335 20.9332 0.
-5.95705e-05 -23.8629 0.
-591.17 -1594.44 0.
2.34161 6.42783 0.
2.20094 6.04121 0.
-413.202 -1131.08 0.
9.23189 24.5351 0.
-81.3522 -211.111 0.
-0.25558 -0.66163 0.
-443.233 -1122.99 0.
-34.5466 -85.625 0.
-264.004 -644.395 0.
13.2241 31.7119 0.
-2.86486 -6.86289 0.
-704.872 -1597.72 0.
-6.50664 -14.4922 0.
-9.74417 -75.883 0.
-22.5071 -47.4943 0.
8.39839 16.0793 0.
-8.30456 -47.4355 0.
-557.605 -1017.68 0.
33.6477 39.0979 0.
-34.9798 -80.3458 0.
-9.96574 -37.2205 0.
-16.3406 -22.2879 0.
-33.7318 -78.9076 0.
63.7339 107.228 0.
22.9338 38.7507 0.
37.5629 75.1215 0.
3.91406 7.97185 0.
-1.09599 -2.43829 0.
-46.6243 -98.7706 0.
11.8004 26.7542 0.
35.3038 78.1351 0.
-118.718 -298.38 0.
-171.884 -422.211 0.
-4.71234 -11.849 0.
-8.69093 -22.0715 0.
-131.189 -320.147 0.
-111.838 -283.846 0.
-24.8262 -63.7812 0.
6.39335 16.9402 0.
-135.079 -367.368 0.
-87.4426 -237.941 0.
10.846 29.8785 0.
2.70469 7.46567 0.
-0.533013 -57.5077 0.
22.2398 60.4062 0.
-0.59362 -43.1244 0.
-38.638 -104.067 0.
10.6955 29.6011 0.
4.13949 11.46 0.
-0.223889 -4.41842 0.
-334.452 -773.159 0.
-701.347 -1342.95 0.
-0.139898 -2.7407 0.
-13.5415 -34.4503 0.
0.398715 1.10055 0.
-5.3318 -12.3386 0.
-2.15029 -4.78417 0.
-31.8012 -66.531 0.
-0.11378 -0.308792 0.
0.212257 0.585779 0.
0.00331471 0.0686436 0.
-7.58546 -20.9754 0.
0.0493268 0.383146 0.
-28.9324 -78.8591 0.
-8.40343 -22.3 0.
-9.61778 -26.0777 0.
-6.42251 -9.27807 0.
-6.25877 -8.47218 0.
-15.5814 -34.5045 0.
-6.43274 -11.3373 0.
-6.55066 -14.2098 0.
-29.1609 -80.3545 0.
-6.59747 -17.7327 0.
-5.04919 -13.9286 0.
-15.1084 -40.2813 0.
-2.57826 -5.3743 0.
-4.52272 -11.9468 0.
-5.81396 -11.3642 0.
-3.2747 -5.43389 0.
-9.0777 -14.9713 0.
-0.00258713 -0.162032 0.
-15.8981 -42.8447 0.
0.378433 1.04769 0.
-0.00222947 -0.133856 0.
0.276231 0.667215 0.
-9.14919 -17.7966 0.
-6.3807 -12.3367 0.
0.0899191 3.73337 0.
2.16969 5.62346 0.
-809.57 -1755.27 0.
-0.281645 -12.7561 0.
-588.429 -1467.98 0.
-0.0839435 -14.5035 0.
8.48046 23.2057 0.
-257.42 -699.276 0.
-42.4474 -111.109 0.
-0.00914889 -42.7289 0.
-488.28 -1303.41 0.
9.94539 27.5251 0.
7.19544 19.7611 0.
-348.262 -956.152 0.
14.3138 39.2695 0.
-86.1663 -233.983 0.
-213.167 -559.16 0.
-140.704 -364.643 0.
14.1952 36.4783 0.
-3.17169 -64.1833 0.
-16.5419 -40.9013 0.
-602.623 -1466.8 0.
-5.8394 -13.9549 0.
12.9102 31.9641 0.
-0.445402 -1.01238 0.
31.3053 71.6539 0.
-483.112 -1043.78 0.
-5.3297 -11.2604 0.
-45.1648 -86.8438 0.
14.4865 28.4993 0.
-366.354 -682.295 0.
53.4976 66.3152 0.
20.8286 30.9116 0.
12.2368 23.7685 0.
-172.347 -244.22 0.
-9.31164 -20.7032 0.
-4.91603 -15.3146 0.
-27.0393 -93.8771 0.
-13.6219 -80.2924 0.
48.5881 98.8242 0.
-10.6992 -98.0285 0.
-58.1164 -122.366 0.
11.91 26.8134 0.
29.0129 64.0094 0.
-516.355 -1290.27 0.
-78.4087 -197.187 0.
2.47806 6.24329 0.
14.6661 36.8809 0.
-598.061 -1455.74 0.
-7.93118 -19.7927 0.
-88.9068 -227.06 0.
22.224 58.6853 0.
-197.757 -534.418 0.
19.0605 52.1073 0.
-0.202872 -58.5194 0.
-308.753 -851.552 0.
7.78849 21.5726 0.
10.017 27.2444 0.
15.2452 40.5665 0.
7.63442 21.0685 0.
6.8398 18.9447 0.
5.88266 16.269 0.
6.21289 16.4387 0.
0.909856 2.24481 0.
-1.05233 -2.25058 0.
3.36727 8.64861 0.
0.0690551 0.183926 0.
0.993836 2.75179 0.
-0.0401295 -1.12958 0.
-3.82525 -8.55187 0.
-25.4706 -54.1495 0.
-577.823 -1528.62 0.
-0.0273462 -0.0735892 0.
-0.216228 -0.589305 0.
-814.763 -2170.81 0.
0.123746 0.342673 0.
-843.57 -1865.79 0.
-27.6025 -55.8687 0.
-32.5743 -75.217 0.
-816.396 -2147.37 0.
-14.0575 -20.968 0.
-28.4313 -52.1196 0.
-547.703 -1504.49 0.
-346.434 -959.464 0.
-68.6882 -189.846 0.
-107.274 -296.003 0.
-706.694 -1940.45 0.
-29.1838 -80.5957 0.
-16.8883 -46.7 0.
-853.231 -2250.39 0.
-18.7232 -36.4538 0.
-23.6908 -45.9806 0.
-826.729 -1797.32 0.
0.012565 0.0480011 0.
-660.8 -1755.09 0.
0.467254 1.29187 0.
-259.384 -648.513 0.
0.343284 0.875469 0.
-13.924 -24.7765 0.
-8.44021 -14.2177 0.
5.03984 13.3705 0.
-0.0694929 -7.1433 0.
-0.00220687 -12.6375 0.
1.5855 4.25752 0.
5.8465 16.1807 0.
4.5851 11.7048 0.
4.08094 11.2448 0.
13.7137 37.1411 0.
-69.7771 -180.174 0.
17.458 48.1732 0.
-1.31678 -3.64657 0.
-0.0771218 -57.1506 0.
-6.76363 -18.5768 0.
17.2721 47.6972 0.
-48.753 -133.683 0.
-116.81 -317.048 0.
-42.8099 -112.123 0.
17.2261 44.8123 0.
-14.7575 -37.6326 0.
3.54702 8.79127 0.
19.224 48.0247 0.
-17.4618 -44.1122 0.
-573.705 -1368.36 0.
2.92971 7.28149 0.
33.6517 76.2869 0.
13.849 31.448 0.
30.5304 66.1426 0.
-8.06395 -62.7476 0.
-230.857 -446.799 0.
-17.0824 -125.364 0.
-15.6151 -29.6463 0.
-13.9389 -25.5993 0.
31.3287 47.524 0.
-6.165 -44.9376 0.
-176.297 -257.408 0.
52.5623 73.6101 0.
-19.1414 -56.1429 0.
-37.7079 -64.577 0.
58.4224 104.645 0.
-3.62324 -7.36368 0.
21.9778 47.9282 0.
-226.842 -475.306 0.
-79.7223 -181.971 0.
-844.186 -1875.48 0.
-3.64048 -82.2229 0.
-53.0935 -132.959 0.
-10.3078 -26.0195 0.
-6.80196 -16.935 0.
25.4419 66.3478 0.
2.11402 5.25369 0.
-293.435 -744.926 0.
-16.4379 -42.3137 0.
-49.2254 -132.925 0.
19.4838 53.2213 0.
-0.284224 -58.6525 0.
-152.97 -418.247 0.
18.1987 50.4043 0.
-213.168 -580.166 0.
-0.149558 -45.7771 0.
4.60161 12.6855 0.
7.92012 21.8952 0.
-0.0418655 -21.9188 0.
14.414 37.7628 0.
-0.969942 -2.45568 0.
-0.0133373 -6.80169 0.
3.80747 9.92056 0.
2.2796 5.61611 0.
-781.815 -1633.92 0.
0.458662 1.14962 0.
-659.266 -1341.52 0.
-0.0264592 -0.304978 0.
-0.00359761 -0.0789806 0.
-0.0273176 -0.959869 0.
0.0186375 0.0494697 0.
-9.27294 -25.4884 0.
0.000416944 0.0399552 0.
-0.375252 -0.77238 0.
-0.0274838 -0.0588085 0.
-9.82225 -16.4102 0.
0.113146 0.000255655 0.
-0.0376297 -0.0354549 0.
-2.22356 -2.90281 0.
-8.35354 -21.1282 0.
-4.5423 -7.1849 0.
-28.9963 -80.0177 0.
-4.18318 -11.1698 0.
-8.90582 -24.3789 0.
-15.6359 -42.4541 0.
-4.20068 -10.7093 0.
-6.77121 -18.5575 0.
-7.70099 -11.5474 0.
-10.3864 -20.2418 0.
-24.6399 -50.7154 0.
-0.0454448 -0.180188 0.
0.0575195 0.127619 0.
-0.0123703 -1.06354 0.
-0.00191696 -1.31309 0.
-468.723 -1192.3 0.
-12.715 -25.281 0.
-796.677 -1550.45 0.
3.60379 9.98172 0.
-400.178 -1057.4 0.
-0.00330469 -18.9575 0.
1.55326 4.2196 0.
-0.00749852 -7.86442 0.
-315.758 -806.102 0.
-0.00607514 -22.2886 0.
-0.485671 -35.5726 0.
-503.215 -1280.11 0.
11.9492 32.7603 0.
7.2416 20.0493 0.
9.88997 27.1757 0.
-2.95822 -8.12552 0.
0.13272 0.366398 0.
4.91235 13.3559 0.
-119.414 -323.949 0.
-82.4007 -215.492 0.
12.4907 32.2637 0.
-2.68544 -65.8832 0.
-294.74 -729.261 0.
-3.20753 -67.7368 0.
21.106 53.4185 0.
31.474 78.281 0.
-124.443 -310.432 0.
-255.706 -578.07 0.
-27.9842 -64.133 0.
-88.8932 -191.091 0.
2.2541 4.76265 0.
-328.307 -640.536 0.
34.3621 72.4982 0.
-24.818 -48.0523 0.
-4.9221 -10.4664 0.
-33.4398 -90.4029 0.
22.1825 39.3301 0.
-1.49167 -1.19745 0.
-28.7954 -57.5359 0.
8.31029 13.104 0.
27.8632 48.041 0.
58.5327 105.302 0.
-68.7945 -139.918 0.
-347.119 -759.423 0.
-160.589 -350.254 0.
-22.8553 -52.9574 0.
37.4457 84.2132 0.
-3.63277 -83.6457 0.
-43.5041 -108.463 0.
-451.91 -1143.05 0.
22.6655 57.7698 0.
-8.83121 -22.984 0.
-12.5222 -31.0033 0.
6.91521 17.4086 0.
-9.61207 -24.5984 0.
17.1869 45.9796 0.
-123.191 -336.236 0.
9.57509 26.271 0.
-34.8055 -95.0999 0.
3.7335 10.3378 0.
-41.9201 -116.111 0.
-0.199125 -62.3618 0.
18.8691 51.9509 0.
-10.9515 -30.1373 0.
12.3886 33.883 0.
13.9529 36.0633 0.
-308.22 -786.796 0.
15.2035 42.084 0.
-523.634 -1174.89 0.
-0.27743 -7.98198 0.
2.92472 6.65127 0.
-0.0646059 -2.65802 0.
-0.281653 -2.96992 0.
0.0287651 1.27372 0.
-0.00123209 -0.0171218 0.
0.0662451 0.164648 0.
0.391389 1.0045 0.
-0.000643039 -0.717491 0.
0.516248 1.34814 0.
-0.461335 -1.1971 0.
-0.00290393 -0.0181124 0.
0.0615064 0.0730002 0.
0.157635 0.00031321 0.
0.128924 0.00837815 0.
-0.00570903 -0.00728725 0.
-2.61572 -3.24213 0.
-0.0236465 -0.0627964 0.
-13.8801 -33.6233 0.
-3.22221 -5.50863 0.
-7.60366 -16.0261 0.
-2.59726 -7.1385 0.
0.0022623 0.208628 0.
0.365084 0.00319009 0.
-3.36211 -1.27317 0.
-4.55082 -1.64441 0.
-16.8397 -24.8204 0.
0.00183592 0.00745922 0.
0.250061 0.536972 0.
-0.0234857 -0.991751 0.
0.782838 2.16477 0.
-0.0538301 -0.147227 0.
-0.176784 -0.38903 0.
-0.612056 -2.8263 0.
-0.0382774 -10.8007 0.
-3.30716 -9.01201 0.
-130.49 -347.356 0.
-0.117365 -18.6158 0.
-0.0594865 -21.9366 0.
12.0618 33.3145 0.
-6.7722 -18.7493 0.
-1.32302 -3.50462 0.
-0.297326 -48.7329 0.
-55.9536 -152.062 0.
-69.3463 -191.927 0.
4.60787 12.6624 0.
-8.92124 -24.6398 0.
-210.667 -581.425 0.
3.67422 9.98448 0.
-34.2979 -90.5756 0.
-129.382 -337.874 0.
-10.4629 -26.8279 0.
26.2067 66.125 0.
6.23065 15.928 0.
-30.8146 -76.526 0.
-21.1512 -53.6411 0.
-9.82176 -24.5226 0.
-124.53 -305.364 0.
-650.815 -1468.28 0.
-16.603 -38.1352 0.
-180.367 -385.552 0.
-22.6416 -47.0367 0.
-465.406 -916.653 0.
54.8797 115.558 0.
-9.60781 -18.981 0.
-37.3408 -92.9236 0.
9.98036 15.259 0.
-323.991 -489.46 0.
-6.69717 -3.937 0.
56.2325 75.9046 0.
-22.3181 -62.7056 0.
52.1233 90.4673 0.
64.4541 116.252 0.
-413.142 -839.819 0.
41.6284 91.1734 0.
8.92809 19.5514 0.
14.2696 33.2094 0.
-1.03579 -2.34084 0.
-42.2285 -106.244 0.
17.721 43.9785 0.
29.958 74.8902 0.
10.5446 26.9243 0.
-32.5922 -84.6567 0.
-10.6425 -27.846 0.
-9.52694 -24.1513 0.
21.9088 55.7258 0.
-8.23655 -21.2489 0.
-62.2148 -167.834 0.
13.1373 36.0176 0.
-42.2133 -115.263 0.
-14.4269 -39.4877 0.
-26.6836 -73.9079 0.
-102.915 -282.821 0.
-192.125 -528.164 0.
11.8513 32.7539 0.
21.9818 60.284 0.
-418.12 -1063.42 0.
15.7838 42.8242 0.
10.3112 28.2344 0.
-109.22 -251.055 0.
-0.286213 -10.3202 0.
0.787425 1.87236 0.
-0.00374872 -0.237169 0.
-0.242367 -4.70012 0.
0.167639 0.439233 0.
-565.261 -1329.5 0.
-1.11557 -2.89637 0.
0.000624164 0.208423 0.
-641.23 -1744.4 0.
-0.00323077 -0.550681 0.
-710.644 -1423.44 0.
-7.12156 -13.2582 0.
-9.33442 -18.7394 0.
-733.825 -1888.58 0.
-6.06029 -14.7489 0.
-0.802077 -2.06294 0.
-449.724 -1236.2 0.
-306.471 -848.839 0.
-120.336 -333.259 0.
-64.7388 -179.106 0.
-561.124 -1494.36 0.
-32.7497 -89.6236 0.
-23.3396 -62.7731 0.
-743.871 -1992.6 0.
-0.235953 -0.310895 0.
-5.61214 -7.37155 0.
-652.565 -1284.83 0.
0.0252425 0.333452 0.
-667.318 -1752.91 0.
-0.00290452 -4.10326 0.
-4.7384 -11.7575 0.
-428.399 -904.698 0.
1.61931 3.77226 0.
-0.315012 -1.90821 0.
4.50244 12.2073 0.
2.86888 7.90882 0.
-6.27385 -16.6142 0.
1.45905 3.91715 0.
3.02745 8.25705 0.
14.9332 41.2966 0.
-0.876775 -2.3869 0.
5.78019 15.0853 0.
0.846167 2.31522 0.
11.8187 32.7346 0.
-83.0887 -228.754 0.
-9.87749 -27.1449 0.
9.34623 25.8057 0.
-29.5942 -80.5635 0.
11.6468 31.6327 0.
-35.2119 -92.8463 0.
5.5001 14.2393 0.
-141.219 -359.211 0.
2.43874 6.14891 0.
2.69288 6.89544 0.
19.6574 50.1103 0.
-166.922 -424.267 0.
-122.447 -306.883 0.
-72.9431 -179.342 0.
-199.213 -461.227 0.
-141.376 -325.576 0.
-339.864 -724.304 0.
2.9815 6.22156 0.
-595.658 -1186.41 0.
-16.5762 -118.202 0.
6.22654 12.5678 0.
11.8821 35.9132 0.
-12.9697 -18.8677 0.
-0.904166 -13.6163 0.
10.0662 7.30536 0.
-270.591 -362.254 0.
10.7546 17.0862 0.
29.7744 52.0316 0.
-4.14768 -7.4886 0.
-14.1901 -28.7119 0.
-32.791 -71.7555 0.
44.4569 97.7345 0.
33.6351 78.6032 0.
-6.74778 -15.3222 0.
-435.94 -1099.07 0.
6.45405 16.1813 0.
17.8224 44.6189 0.
-3.32978 -8.51728 0.
-383.701 -994.258 0.
-14.6394 -38.231 0.
-13.2816 -33.8961 0.
-166.952 -423.933 0.
9.02466 23.1468 0.
-27.6467 -74.5207 0.
-46.0409 -126.136 0.
-158.788 -433.923 0.
3.20525 8.76732 0.
-173.047 -479.277 0.
16.0521 44.4575 0.
14.4289 39.9647 0.
21.4951 59.3469 0.
-184.035 -505.623 0.
-0.667979 -1.84612 0.
-0.418943 -29.5968 0.
-153.316 -419.59 0.
17.9119 49.1643 0.
-0.338904 -13.0043 0.
-0.515436 -8.68725 0.
-98.7637 -254.779 0.
-326.533 -815.236 0.
1.50519 4.09921 0.
-14.6032 -39.0507 0.
-0.170497 -0.469981 0.
0.00267942 0.334583 0.
-0.000339797 -0.0936021 0.
-0.00439038 -0.996963 0.
-1.48797 -2.97803 0.
0.0796958 0.168793 0.
0.0526416 0.12062 0.
-3.56704 -9.77109 0.
0.0717483 0.198724 0.
0.0252086 0.109178 0.
-1.4135 -2.89082 0.
-4.48424 -11.4189 0.
-26.3905 -71.383 0.
-3.86257 -10.1224 0.
-7.01805 -18.7984 0.
-26.6815 -73.6371 0.
-15.2756 -41.8392 0.
-18.2144 -49.3701 0.
-0.0100486 -0.317759 0.
-0.0275175 -0.159707 0.
0.218846 0.379704 0.
-0.0880505 -0.945315 0.
-0.0198582 -0.106908 0.
0.00161248 4.52076 0.
0.0294733 1.49071 0.
-0.00592567 -0.72548 0.
-505.424 -1127.67 0.
-0.000874984 -3.89146 0.
7.74316 20.8964 0.
0.00357456 1.00646 0.
-255.145 -668.959 0.
-11.3327 -30.4823 0.
3.16821 8.54412 0.
-392.467 -1086.54 0.
7.36426 20.0522 0.
17.6856 48.6198 0.
-269.055 -737.523 0.
-13.4796 -37.336 0.
4.42285 12.1721 0.
7.76216 21.4413 0.
4.8956 13.5129 0.
6.80716 18.5218 0.
-41.3312 -111.303 0.
-79.7632 -209.991 0.
-43.0429 -111.593 0.
-13.4195 -34.5099 0.
-55.3891 -139.566 0.
5.55461 14.247 0.
18.3244 46.8019 0.
6.68675 17.4457 0.
-411.755 -1035.98 0.
-66.2742 -163.382 0.
40.0012 92.7936 0.
14.2323 33.7944 0.
-299.434 -637.513 0.
-90.9733 -190.67 0.
-221.085 -446.119 0.
7.1906 14.9711 0.
-15.6054 -29.7052 0.
-8.05139 -16.7805 0.
-37.379 -51.4747 0.
-4.18062 -16.3461 0.
-241.055 -167.692 0.
27.1555 41.3553 0.
-728.447 -1172.21 0.
-133.041 -250.317 0.
44.1089 79.6628 0.
34.6503 69.7679 0.
-18.0199 -39.3941 0.
-22.8124 -50.3446 0.
-151.049 -354.373 0.
-24.235 -55.288 0.
-15.7893 -39.4658 0.
8.63062 21.6786 0.
-1.91503 -4.80147 0.
-68.5619 -175.679 0.
-0.950344 -2.5156 0.
-19.5403 -50.9298 0.
-133.754 -343.485 0.
-7.28184 -18.6217 0.
2.64373 6.74093 0.
-17.8762 -48.1445 0.
-64.1809 -172.966 0.
-131.648 -359.457 0.
-7.12775 -19.484 0.
9.20172 25.1554 0.
21.0852 58.4008 0.
13.8317 38.3097 0.
-5.41896 -14.9441 0.
15.1412 41.5554 0.
-8.04421 -22.2465 0.
1.86826 4.92893 0.
-0.0771366 -47.0973 0.
-0.0663581 -32.6236 0.
8.04965 20.8691 0.
7.81836 20.9477 0.
-59.0196 -156.846 0.
3.26982 9.02978 0.
3.15528 8.70393 0.
-0.0733536 -4.2295 0.
-0.00402028 -2.23827 0.
0.910367 2.35183 0.
-0.00376981 -1.45797 0.
-30.9664 -84.3645 0.
-416.894 -1002.1 0.
0.114021 0.291323 0.
0.113143 0.301385 0.
-515.388 -1395.75 0.
-8.59506 -23.6825 0.
-12.2511 -33.8739 0.
-306.444 -845.417 0.
-302.958 -838.832 0.
-113.584 -313.464 0.
-41.9025 -115.873 0.
-405.471 -1098.09 0.
-124.393 -342.389 0.
-36.5918 -99.6177 0.
-299.97 -708.416 0.
0.00792905 0.194332 0.
-604.258 -1638.29 0.
-25.1702 -68.8322 0.
-24.8665 -61.6679 0.
-0.17128 -0.892697 0.
0.000440885 0.16823 0.
-0.00798233 -1.01005 0.
5.8862 16.2976 0.
-0.711526 -1.75272 0.
-0.00179327 -5.06337 0.
-256.783 -675.383 0.
18.53 51.3092 0.
9.87686 27.0464 0.
-236.496 -636.564 0.
17.9167 48.7219 0.
-1.83371 -5.00598 0.
-117.873 -321.02 0.
7.9163 21.7929 0.
1.5516 4.29662 0.
-117.592 -325.675 0.
-60.8043 -167.264 0.
-0.815677 -2.25247 0.
20.3441 55.8948 0.
-9.52837 -25.9126 0.
-62.0694 -166.934 0.
-15.5252 -40.324 0.
-137.934 -358.122 0.
8.36229 21.8482 0.
3.45316 8.82275 0.
-377.578 -969.116 0.
-1.9194 -4.91145 0.
-2.85511 -7.44435 0.
-62.2348 -153.53 0.
-115.653 -285.875 0.
26.3302 61.2347 0.
7.32802 17.4357 0.
-22.1228 -45.9375 0.
-226.812 -477.415 0.
39.3357 80.4622 0.
-48.2043 -92.2918 0.
37.2773 69.8012 0.
43.4487 61.3172 0.
-801.421 -1043.31 0.
32.2757 69.866 0.
54.2653 48.9642 0.
-2.7402 -6.5788 0.
-14.4694 -89.3658 0.
-22.6518 -42.6472 0.
-27.5631 -49.7889 0.
27.2352 54.557 0.
48.2663 105.395 0.
-91.7936 -203.366 0.
-382.419 -900.914 0.
-10.0361 -23.3766 0.
-103.718 -259.279 0.
-6.97965 -17.5656 0.
-411.816 -1034.66 0.
-12.4056 -31.2598 0.
22.8046 60.4154 0.
22.062 57.3884 0.
16.8314 44.947 0.
-4.6679 -12.0146 0.
-73.8772 -187.275 0.
-49.3994 -129.857 0.
-97.6725 -263.003 0.
-114.8 -313.181 0.
-68.193 -186.078 0.
8.67566 23.7309 0.
9.9431 27.5406 0.
-313.639 -868.417 0.
-0.833383 -2.30798 0.
13.2922 36.4971 0.
15.8038 43.7223 0.
-63.0191 -173.706 0.
17.4734 48.1374 0.
12.5697 34.763 0.
-0.563965 -1.55892 0.
2.31447 6.18211 0.
-72.2906 -194.952 0.
8.35318 22.9709 0.
3.32069 9.18935 0.
4.17924 11.4426 0.
-356.927 -814.137 0.
-0.011184 -1.29352 0.
-321.711 -855.067 0.
0.604853 1.67528 0.
-0.00287615 -0.168356 0.
0.0288973 0.0789894 0.
0.182765 0.506139 0.
-14.933 -41.3537 0.
-1.88808 -5.12521 0.
-7.16513 -19.6546 0.
-4.04629 -10.0992 0.
-4.87823 -11.5528 0.
-0.00298144 -0.0270137 0.
0.0734126 0.20047 0.
-4.59106 -12.6447 0.
-8.19003 -17.657 0.
-0.313567 -0.544622 0.
0.124036 0.177288 0.
-0.000228825 -0.038016 0.
-25.0682 -67.7105 0.
-0.00191868 -1.41331 0.
-7.43056 -19.566 0.
-331.441 -871.535 0.
-0.00995405 -0.803834 0.
-366.475 -880.936 0.
-0.0620626 -7.57753 0.
-0.400052 -12.5083 0.
7.8531 21.7076 0.
0.00634145 4.48409 0.
-4.58427 -12.6756 0.
7.32301 20.0502 0.
0.392718 1.08573 0.
3.34647 9.16105 0.
-10.227 -27.9228 0.
7.16159 19.8281 0.
-4.67661 -12.8879 0.
13.1766 36.4918 0.
12.9394 35.6377 0.
-3.7889 -10.4631 0.
21.2706 58.72 0.
-4.23084 -11.6258 0.
4.05647 10.9148 0.
-134.55 -361.358 0.
-38.9564 -101.32 0.
25.3171 65.9507 0.
-274.351 -717.201 0.
-10.4509 -26.7494 0.
-9.23228 -24.1315 0.
-33.7713 -86.573 0.
21.1416 55.088 0.
-73.1845 -181.063 0.
-61.9859 -156.763 0.
-73.5081 -171.416 0.
-0.38898 -0.927454 0.
-23.206 -48.4151 0.
-6.87883 -15.2312 0.
0.153946 0.352303 0.
-213.371 -411.808 0.
33.1651 61.0435 0.
-667.664 -928.86 0.
6.66447 10.5228 0.
-11.0853 -62.5497 0.
8.32048 7.61454 0.
6.71922 9.71002 0.
-17.6129 -99.8774 0.
-71.8083 -135.352 0.
-218.643 -394.888 0.
6.97134 15.139 0.
-31.4525 -68.5828 0.
-18.788 -45.1356 0.
-113.11 -271.087 0.
-196.85 -460.75 0.
-165.713 -414.343 0.
-164.941 -416.056 0.
12.2885 31.4277 0.
-14.3838 -36.2951 0.
-218.216 -578.516 0.
17.1057 45.3209 0.
5.58213 14.897 0.
-192.91 -499.427 0.
20.7767 53.5792 0.
-22.2266 -58.5868 0.
-171.964 -462.657 0.
-55.2436 -148.081 0.
-37.8053 -103.068 0.
-4.09518 -11.2078 0.
-69.1435 -188.651 0.
6.9895 19.2557 0.
13.5514 37.535 0.
-7.58812 -20.8443 0.
-71.8634 -197.299 0.
-38.6641 -106.622 0.
-104.721 -287.917 0.
-3.88455 -10.7595 0.
17.377 48.0105 0.
12.1461 32.1937 0.
-245.131 -664.879 0.
-2.38249 -6.3986 0.
-209.194 -539.018 0.
6.66605 18.4249 0.
0.76088 1.87529 0.
-0.00754028 -2.89212 0.
-0.00538268 -1.39774 0.
-0.0019065 -1.35188 0.
-0.0191285 -0.803131 0.
-7.37373e-05 -0.397404 0.
-0.00651497 -0.617454 0.
-13.3367 -36.3117 0.
-7.11133 -18.4597 0.
-10.7947 -28.2442 0.
-1.54324 -4.22329 0.
-0.761484 -2.07073 0.
-0.0177214 -0.173747 0.
-0.00273897 -0.144694 0.
-6.83245e-06 -0.0830835 0.
-6.37917 -12.6705 0.
-0.0391325 -0.0673382 0.
0.192444 0.281844 0.
0.000160112 0.348812 0.
-11.3206 -31.3529 0.
-0.0106234 -0.841984 0.
0.935195 2.57221 0.
-4.57719 -11.8668 0.
-0.0711656 -10.4006 0.
-0.254684 -5.22929 0.
5.42808 14.9815 0.
10.1861 28.1092 0.
-0.0575883 -25.7142 0.
7.20244 19.8431 0.
-238.025 -658.746 0.
-0.896822 -2.45301 0.
13.7901 38.1316 0.
-0.290654 -57.9429 0.
10.6268 29.015 0.
-32.8153 -90.863 0.
-11.2517 -31.1417 0.
-171.415 -474.759 0.
-15.1834 -41.8019 0.
13.037 36.0157 0.
13.1428 36.1556 0.
-67.7161 -186.105 0.
-25.3435 -68.1012 0.
11.3506 30.2112 0.
-176.254 -459.03 0.
5.71514 14.8931 0.
-3.33859 -8.69349 0.
-71.6678 -183.762 0.
-40.6268 -105.967 0.
10.4543 27.3101 0.
-406.567 -1058.93 0.
-140.513 -348.629 0.
17.6657 44.6625 0.
-47.3244 -110.632 0.
-14.9384 -35.6931 0.
-116.327 -267.285 0.
-19.1864 -42.4465 0.
-233.68 -481.936 0.
-500.62 -975.414 0.
1.79111 3.23703 0.
-258.45 -359.773 0.
-10.3166 -17.9146 0.
-14.1746 -59.9252 0.
7.68048 7.13963 0.
-2.44173 -3.47653 0.
-11.8191 -61.2112 0.
-56.4605 -106.587 0.
-365.971 -660.587 0.
-22.281 -48.1089 0.
-28.3542 -61.7011 0.
25.5585 58.7574 0.
-8.82528 -21.1513 0.
-147.108 -346.027 0.
-190.471 -476.378 0.
-14.1453 -35.8137 0.
5.92895 15.1952 0.
-60.9977 -154.141 0.
-2.06653 -81.3523 0.
-16.8946 -44.7979 0.
-108.267 -288.739 0.
27.0958 72.1721 0.
-43.5953 -115.354 0.
-11.8597 -31.3439 0.
-53.4912 -140.854 0.
-6.06426 -16.2657 0.
-16.127 -43.9265 0.
-8.16677 -22.3275 0.
-17.0228 -46.4728 0.
14.5039 39.9345 0.
14.3216 39.6644 0.
3.51637 9.73959 0.
-15.5088 -42.5957 0.
-56.4737 -155.804 0.
-16.8596 -46.4655 0.
0.629511 1.74318 0.
-6.76075 -18.6763 0.
-89.434 -234.446 0.
-0.0101862 -25.6916 0.
-6.59005 -17.6684 0.
-0.13265 -0.348342 0.
-0.00131754 -16.0769 0.
1.45117 3.70401 0.
0.00307679 3.05614 0.
-177.042 -380.352 0.
0.740527 1.89862 0.
0.00627429 1.44158 0.
-433.48 -1122.46 0.
-0.0118549 -0.714756 0.
-199.06 -497.965 0.
-36.293 -99.8569 0.
-108.408 -297.743 0.
-126.611 -350.372 0.
-271.385 -749.808 0.
-63.7064 -176.359 0.
-23.2612 -64.4247 0.
-323.123 -889.166 0.
-46.972 -121.185 0.
-37.9399 -89.5165 0.
-293.125 -746.067 0.
0.357097 0.956216 0.
-231.912 -577.015 0.
-0.0163876 -3.20642 0.
-288.432 -763.819 0.
-0.0658098 -9.31456 0.
-0.0365936 -7.93963 0.
0.0390286 1.58908 0.
1.62597 4.50302 0.
13.6492 37.7335 0.
10.4106 28.5029 0.
-1.81489 -4.99782 0.
-22.8939 -63.3764 0.
-28.3693 -77.4949 0.
7.74706 21.4255 0.
8.52989 23.1324 0.
19.117 52.872 0.
-147.697 -409.001 0.
-5.23362 -14.4882 0.
1.14356 3.15524 0.
-174.191 -479.377 0.
-3.5695 -9.86458 0.
-28.1099 -77.3422 0.
-108.706 -296.031 0.
-78.5474 -210.774 0.
-8.56109 -22.7343 0.
-7.96886 -20.7046 0.
-17.0992 -44.5731 0.
20.1857 52.4512 0.
-7.49898 -19.7782 0.
-267.558 -696.485 0.
15.9429 41.6199 0.
31.8491 81.482 0.
-156.11 -388.439 0.
2.34446 5.92648 0.
-206.76 -489.322 0.
-44.2924 -106.059 0.
-124.498 -286.115 0.
17.3931 38.42 0.
-256.846 -527.618 0.
-111.975 -220.381 0.
-377.921 -670.086 0.
-44.8956 -62.5639 0.
45.837 88.2894 0.
20.8011 34.9536 0.
47.1552 44.7058 0.
-12.1534 -17.3135 0.
-19.336 -90.7556 0.
-39.7983 -75.2536 0.
5.69161 11.0689 0.
-18.536 -39.7647 0.
-362.122 -787.403 0.
20.4248 46.9172 0.
-4.22966 -10.1385 0.
-155.36 -387.325 0.
16.9091 42.5522 0.
-11.9735 -30.3126 0.
-60.376 -155.079 0.
32.8789 84.8598 0.
-11.2443 -29.4327 0.
-1.69238 -4.49123 0.
4.79706 12.9674 0.
-4.76491 -12.6829 0.
-103.572 -272.86 0.
25.9803 69.2683 0.
-81.4823 -215.155 0.
0.79309 2.12855 0.
-57.2821 -153.482 0.
-3.3022 -9.04727 0.
-22.179 -60.5831 0.
13.1911 36.2992 0.
-5.02483 -13.8268 0.
-3.36322 -9.31493 0.
12.1659 33.4278 0.
-14.243 -39.3344 0.
-11.5043 -31.7205 0.
16.8484 46.6208 0.
-65.6037 -181.233 0.
7.08664 19.3607 0.
-4.15068 -11.3081 0.
-117.988 -315.023 0.
13.3075 36.7976 0.
-0.000221455 -7.03329 0.
0.458017 1.26809 0.
-176.42 -476.124 0.
-0.384129 -0.921247 0.
-0.0505693 -4.22715 0.
-0.00584523 -0.744727 0.
-0.000131667 -1.21314 0.
0.582818 1.52469 0.
-2.0222 -5.55387 0.
-3.62877 -9.95551 0.
-6.57263 -18.1182 0.
-0.736614 -1.93248 0.
-8.0135 -22.0179 0.
-3.94301 -10.8727 0.
-0.0010425 -0.480117 0.
-7.27961 -20.0227 0.
0.177715 0.462711 0.
-2.74933 -6.49425 0.
-11.6638 -25.6079 0.
0.00516833 0.365412 0.
-0.0616148 -1.26665 0.
-0.0550363 -2.39816 0.
-0.00226169 -3.01809 0.
3.95396 10.8766 0.
-216.209 -585.953 0.
-0.686336 -25.4737 0.
-211.709 -586.291 0.
-2.53321 -7.01464 0.
-0.15293 -8.46995 0.
19.2095 52.9068 0.
4.05389 11.2254 0.
-5.61226 -15.5231 0.
-146.882 -406.292 0.
-0.415493 -53.9517 0.
19.3474 53.5192 0.
-5.39716 -14.8298 0.
10.5737 29.2758 0.
10.9868 30.3369 0.
-46.3406 -127.955 0.
-1.5615 -4.30746 0.
-100.703 -277.125 0.
-90.1885 -245.259 0.
21.1358 56.52 0.
-131.718 -348.943 0.
13.7591 35.7592 0.
6.72294 17.6784 0.
-149.921 -388.883 0.
-16.6892 -43.919 0.
-0.464047 -1.22402 0.
2.60997 6.80905 0.
-81.2613 -207.93 0.
30.2034 76.86 0.
-65.2243 -164.881 0.
-60.4717 -152.488 0.
-281.154 -649.92 0.
-162.431 -373.383 0.
-30.4404 -67.1409 0.
-322.622 -659.898 0.
-15.9375 -107.096 0.
-144.654 -251.167 0.
72.5599 101.301 0.
12.5327 22.139 0.
-15.9049 -49.3571 0.
38.4563 47.7805 0.
-3.13868 -4.50618 0.
51.1083 92.8673 0.
-13.5362 -25.6295 0.
20.7975 39.8245 0.
-4.07452 -8.68231 0.
-845.555 -1768.58 0.
43.1199 98.9732 0.
13.1665 31.5647 0.
33.0474 82.2127 0.
29.573 74.2977 0.
30.0967 76.1869 0.
-62.047 -159.913 0.
15.6575 40.4882 0.
-75.7002 -198.602 0.
24.6422 64.748 0.
-11.7861 -31.8715 0.
-91.2442 -242.697 0.
16.1406 43.1968 0.
22.2468 59.0751 0.
-67.6788 -179.182 0.
-67.634 -177.42 0.
3.96144 10.6212 0.
-6.95828 -19.1012 0.
-45.4603 -124.244 0.
-16.8563 -46.5572 0.
3.52083 9.68217 0.
-10.6818 -29.5748 0.
-128.815 -356.775 0.
20.1025 55.5401 0.
9.11065 25.1311 0.
-41.7863 -115.497 0.
-2.40596 -6.66385 0.
0.701987 1.91956 0.
7.66195 20.9496 0.
2.09667 5.76669 0.
5.92071 16.3988 0.
-105.153 -285.929 0.
-0.451996 -1.25192 0.
4.05345 11.1837 0.
-0.173297 -8.69338 0.
2.86542 7.85514 0.
-0.056485 -5.67451 0.
0.000561147 0.22561 0.
0.0256583 0.843793 0.
-118.559 -320.766 0.
-28.0486 -76.447 0.
-36.0019 -95.64 0.
-69.2752 -190.306 0.
-126.666 -347.303 0.
-43.4519 -116.839 0.
-18.3625 -47.7924 0.
-124.642 -343.505 0.
-0.00554212 -0.593699 0.
-149.133 -407.222 0.
-0.0604167 -0.793122 0.
0.654692 1.76038 0.
0.558434 1.40684 0.
0.0953185 2.5144 0.
0.394923 1.09166 0.
6.17743 16.8563 0.
-3.39582 -9.30447 0.
-1.26375 -3.48054 0.
3.60314 9.61912 0.
-88.6478 -245.499 0.
18.9361 51.6575 0.
-4.12241 -11.4093 0.
-54.0299 -149.638 0.
-8.51296 -23.5498 0.
-4.40662 -11.9625 0.
-3.72133 -10.2894 0.
-52.67 -145.722 0.
20.1597 55.3149 0.
-40.0059 -110.429 0.
-15.5422 -42.9437 0.
-12.242 -33.8158 0.
8.65578 23.8781 0.
14.6224 39.8331 0.
-102.717 -278.925 0.
10.3852 27.7109 0.
21.4636 56.5143 0.
20.9637 54.5001 0.
8.11692 21.298 0.
26.8563 71.7824 0.
23.9195 62.8047 0.
2.87399 7.61034 0.
-2.42926 -81.0024 0.
-227.263 -581.623 0.
-9.53914 -24.2674 0.
-171.507 -429 0.
-23.3996 -58.906 0.
-70.8657 -163.75 0.
-156.273 -359.251 0.
-5.73057 -13.4771 0.
-346.376 -705.236 0.
28.2008 57.7118 0.
45.6908 81.669 0.
35.6209 61.2476 0.
-11.9391 -19.5854 0.
6.95651 11.4955 0.
8.07534 10.0832 0.
37.0779 53.1985 0.
-230.518 -404.965 0.
21.7011 42.5984 0.
-22.6963 -42.7045 0.
38.4206 81.3241 0.
-21.5841 -48.6481 0.
29.5755 67.8699 0.
-12.3387 -29.5873 0.
5.49331 13.653 0.
14.8423 37.2209 0.
26.3009 67.7501 0.
-60.3296 -155.572 0.
-9.55116 -24.7442 0.
25.4598 67.7865 0.
-19.0389 -50.1348 0.
12.6724 34.2813 0.
27.1923 73.2859 0.
-1.63062 -4.37873 0.
-16.0917 -42.552 0.
2.49269 6.66754 0.
-7.8442 -20.5924 0.
-13.3688 -35.8646 0.
1.45879 4.01153 0.
-134.206 -366.914 0.
16.9986 46.9877 0.
17.2029 47.2773 0.
-14.9398 -40.7407 0.
-2.83211 -7.84435 0.
18.5746 51.3393 0.
-29.7255 -82.0282 0.
-15.7551 -43.4325 0.
5.38301 14.91 0.
7.62518 20.8703 0.
-0.728498 -53.2217 0.
-0.0259828 -0.0716559 0.
-0.00898585 -19.1224 0.
-0.111463 -21.4833 0.
1.57542 4.36279 0.
2.01416 5.57885 0.
-0.392201 -13.0415 0.
-107.242 -288.062 0.
-0.0108856 -8.71373 0.
-123.612 -321.615 0.
1.24953 3.42178 0.
-22.7609 -63.0237 0.
-1.63174 -3.78742 0.
-7.60266 -18.7241 0.
-28.8625 -79.3926 0.
-1.30168 -3.58524 0.
-0.901788 -2.41216 0.
-2.64849 -7.08221 0.
-8.08769 -21.6476 0.
-1.3055 -3.55107 0.
-2.23581 -6.14994 0.
-61.0721 -166.583 0.
-0.13824 -0.381946 0.
-145.59 -397.478 0.
0.319689 0.87841 0.
-0.0231426 -5.54655 0.
7.79523 21.1557 0.
12.7393 33.0174 0.
7.04687 19.4783 0.
17.8385 48.2389 0.
14.6966 40.1311 0.
-3.81309 -10.3836 0.
-1.30671 -3.61769 0.
1.00264 2.72062 0.
0.810063 2.24123 0.
-9.92944 -27.0271 0.
20.192 55.7385 0.
-73.4764 -202.216 0.
0.527981 1.44657 0.
-43.9315 -121.349 0.
-32.6954 -90.4268 0.
-54.8511 -151.568 0.
-12.7622 -35.2075 0.
15.5812 42.3878 0.
11.9894 32.5543 0.
5.19964 13.8446 0.
1.11598 2.93454 0.
-0.531169 -1.40897 0.
-1.79478 -74.0485 0.
-1.00572 -77.2171 0.
-14.5501 -38.3818 0.
-1.61666 -4.2974 0.
2.94329 7.6069 0.
-13.7007 -35.4183 0.
2.33302 6.03404 0.
-239.964 -599.39 0.
21.2075 53.2971 0.
-79.7716 -184.276 0.
-102.229 -236.63 0.
-20.6541 -48.4202 0.
-395.773 -801.97 0.
-14.6325 -91.2762 0.
25.8597 55.4436 0.
3.64891 6.11154 0.
-403.717 -573.463 0.
-15.1581 -50.3041 0.
33.9532 42.3843 0.
-161.804 -229.743 0.
7.45755 13.2182 0.
10.3553 20.1755 0.
53.9403 99.3931 0.
-62.6962 -116.71 0.
17.2611 38.8426 0.
-26.3876 -60.5706 0.
-329.326 -744.992 0.
34.2852 85.1475 0.
18.3427 45.9076 0.
9.30498 24.1265 0.
-24.2947 -62.6847 0.
-114.395 -295.462 0.
4.99911 13.3559 0.
-126.084 -332.755 0.
-0.483603 -1.30027 0.
-15.4306 -41.602 0.
-3.04993 -8.21594 0.
-10.8877 -28.8307 0.
-15.8102 -42.136 0.
-0.621331 -1.6322 0.
-7.16616 -18.7702 0.
5.48182 14.968 0.
-33.9676 -93.0542 0.
-11.1586 -30.8649 0.
-146.822 -404.789 0.
0.104035 0.282871 0.
9.68221 26.8122 0.
-2.20546 -6.09799 0.
-53.3872 -147.559 0.
21.0024 56.9558 0.
-2.27506 -6.30136 0.
-5.66609 -15.6917 0.
-4.1163 -10.9882 0.
6.50155 17.9578 0.
-13.732 -37.953 0.
2.91042 7.93584 0.
2.10376 5.81993 0.
-13.1186 -36.296 0.
1.12656 3.01437 0.
0.936003 2.56181 0.
-0.00138575 -7.93139 0.
-0.00829137 -1.85097 0.
-0.00763403 -0.485293 0.
-0.22549 -0.539429 0.
-0.0277389 -0.0708286 0.
-4.07414 -10.7845 0.
-0.681073 -1.88595 0.
-0.971872 -2.68601 0.
-1.76463 -4.83891 0.
-4.82055 -13.1849 0.
-8.15474 -22.3001 0.
-3.03423 -8.29168 0.
-3.97865 -10.9762 0.
-8.83787 -24.4623 0.
-0.0285106 -3.01372 0.
-8.2476 -22.7906 0.
2.77966 7.64882 0.
-45.5547 -122.199 0.
5.79682 15.7291 0.
9.4819 24.9505 0.
-2.80666 -7.77153 0.
12.1289 33.0667 0.
-11.835 -32.2646 0.
6.6918 18.1904 0.
9.66026 26.751 0.
-8.90603 -24.2086 0.
-11.8525 -32.2001 0.
5.61716 15.3262 0.
7.4994 20.6581 0.
-34.2323 -94.1017 0.
-2.24844 -6.22484 0.
-43.5235 -120.294 0.
19.2673 53.2946 0.
-7.38604 -20.3727 0.
23.4283 64.6339 0.
-3.00176 -8.15501 0.
-0.516553 -65.7538 0.
5.23387 13.8453 0.
-27.5258 -72.2961 0.
-1.46176 -3.87009 0.
-93.864 -248.045 0.
18.4273 49.7228 0.
-13.7942 -36.5369 0.
23.8831 62.9859 0.
-187.955 -485.72 0.
-6.51726 -16.8396 0.
-10.3023 -25.9406 0.
7.25562 18.0913 0.
2.78078 6.80519 0.
-103.623 -239.282 0.
-26.6592 -61.5215 0.
-164.462 -339.668 0.
-156.85 -316.335 0.
1.46988 2.96295 0.
-41.0045 -86.3837 0.
22.1513 43.1203 0.
-33.308 -47.3841 0.
3.87373 6.10073 0.
-2.70713 -6.0906 0.
-4.99338 -8.3411 0.
26.9397 46.913 0.
-17.5082 -91.2923 0.
-22.0852 -90.64 0.
-49.9215 -99.6124 0.
27.6491 62.1087 0.
-16.0297 -35.7923 0.
37.649 90.1428 0.
4.44552 11.0276 0.
-360.838 -867.229 0.
7.29202 19.027 0.
-89.992 -229.377 0.
-84.3939 -218.107 0.
4.86768 13.0456 0.
-46.091 -122.331 0.
-0.608127 -59.657 0.
-12.3033 -33.1775 0.
-2.52845 -6.9249 0.
-16.9083 -44.8949 0.
5.22221 13.9545 0.
19.3478 51.7452 0.
-11.6308 -30.483 0.
11.2463 30.754 0.
-3.38046 -9.27699 0.
-9.61751 -26.6107 0.
0.316856 0.874322 0.
8.15329 22.1028 0.
3.40837 9.43456 0.
-9.85617 -27.258 0.
0.953662 2.63681 0.
10.1672 27.5136 0.
6.0497 16.4782 0.
-80.3415 -222.52 0.
10.2085 27.1236 0.
-121.679 -336.43 0.
9.81573 26.8108 0.
-0.290293 -38.2986 0.
8.71506 24.0601 0.
-0.270281 -30.9788 0.
7.40563 19.6681 0.
-1.10708 -3.05637 0.
1.98796 5.47314 0.
0.857265 2.37339 0.
-0.0127289 -1.10324 0.
-29.2737 -66.2623 0.
-9.26721 -23.8814 0.
-12.972 -35.6291 0.
-25.3273 -69.9457 0.
-18.6356 -51.6162 0.
-2.45898 -6.74847 0.
-5.50357 -14.9271 0.
-41.7948 -113.269 0.
0.101105 0.262727 0.
-0.0550915 -0.149245 0.
-13.3338 -36.7311 0.
1.2231 3.23578 0.
-0.20934 -0.579614 0.
-0.00671023 -3.08551 0.
-0.116064 -3.01427 0.
-0.0952389 -19.991 0.
4.22373 11.271 0.
-0.544301 -45.2751 0.
0.808846 2.19931 0.
1.02755 2.79683 0.
-11.1148 -30.7004 0.
8.86286 24.5464 0.
-13.6953 -37.2846 0.
-1.06555 -2.94588 0.
5.6913 15.7176 0.
-0.188342 -56.9539 0.
-29.8928 -82.0785 0.
5.39677 14.9099 0.
-64.538 -178.272 0.
20.5411 56.8224 0.
9.13417 25.1951 0.
15.8969 43.6111 0.
-9.80221 -26.5944 0.
-0.510795 -69.3698 0.
12.4482 32.8949 0.
-15.9315 -42.6268 0.
-1.90459 -5.12333 0.
-15.0946 -40.0743 0.
26.8493 72.978 0.
-6.55831 -17.4368 0.
-13.9273 -36.8306 0.
14.2428 36.7657 0.
-19.1598 -49.4794 0.
-3.05733 -80.7753 0.
13.1965 32.848 0.
-4.77583 -84.6633 0.
-105.159 -253.312 0.
36.2188 83.3337 0.
-24.0748 -48.7831 0.
-3.38147 -7.08977 0.
12.2854 24.65 0.
16.8763 35.0703 0.
36.7818 71.3218 0.
-24.6051 -70.2394 0.
-330.478 -475.84 0.
7.12658 9.31513 0.
21.6693 39.4942 0.
-7.26384 -12.4635 0.
-1.90753 -3.66184 0.
-402.033 -760.854 0.
-4.45484 -8.77562 0.
22.5403 50.5313 0.
2.41568 5.38477 0.
6.19868 14.8984 0.
25.2862 61.7121 0.
-42.0234 -100.707 0.
-4.92963 -12.9345 0.
-44.5798 -114.291 0.
11.2146 30.3335 0.
-65.3921 -174.959 0.
-79.8784 -212.665 0.
-3.8113 -10.3506 0.
-81.6913 -216.782 0.
24.5238 67.435 0.
21.4584 57.095 0.
-72.5735 -194.213 0.
-4.73291 -12.6781 0.
-13.4287 -35.2128 0.
6.02522 16.4986 0.
7.9241 21.6572 0.
-0.554771 -1.53623 0.
15.7931 43.6072 0.
14.8126 40.0402 0.
-28.1318 -76.6444 0.
-0.0934343 -56.8454 0.
14.6446 40.504 0.
-10.8855 -30.0504 0.
-12.3036 -33.4572 0.
5.45007 15.0956 0.
-7.83251 -20.7151 0.
-43.7693 -116.855 0.
-8.64265 -23.4176 0.
0.296336 0.804108 0.
-0.0638406 -26.5147 0.
-22.583 -60.1328 0.
-2.16354 -5.70742 0.
8.73811 20.7498 0.
-4.28857 -11.8219 0.
-6.92634 -19.1704 0.
1.77989 4.59596 0.
0.161762 0.387366 0.
0.0577546 0.15331 0.
-1.39381 -3.84796 0.
-0.596017 -1.64821 0.
-0.395931 -1.09406 0.
0.133119 0.36736 0.
-0.00168674 -0.338706 0.
-0.00394316 -0.410815 0.
-3.62673 -9.19499 0.
-2.0036 -5.366 0.
0.634458 6.35316 0.
-15.2771 -41.532 0.
-2.26964 -6.19711 0.
5.31149 14.637 0.
-0.0109415 -0.242847 0.
-3.43501 -9.35532 0.
0.693552 1.84115 0.
-1.71621 -4.59908 0.
-144.908 -383.112 0.
-66.6023 -180.981 0.
-5.91543 -16.2811 0.
-4.83799 -13.1063 0.
-13.1539 -35.8558 0.
-1.96098 -5.42347 0.
-25.5949 -70.559 0.
6.20784 16.825 0.
6.52039 17.8842 0.
12.5935 34.6764 0.
1.78877 4.94126 0.
-0.108077 -0.299084 0.
23.4488 64.6806 0.
-60.9488 -167.734 0.
-10.4565 -28.4733 0.
-64.3167 -175.239 0.
22.3994 59.1473 0.
-72.9007 -195.829 0.
-72.9881 -194.344 0.
18.3792 48.9762 0.
-0.42424 -62.4753 0.
-79.7626 -207.726 0.
-6.84707 -18.1456 0.
-0.479341 -64.7079 0.
-0.696 -1.67225 0.
-4.4551 -11.4147 0.
-5.50743 -13.4932 0.
5.34058 13.0397 0.
10.7029 25.8345 0.
14.3887 33.0016 0.
14.7357 29.15 0.
41.5559 81.8789 0.
-18.4439 -36.8688 0.
-12.0244 -76.5659 0.
4.53807 8.69574 0.
10.0551 15.0696 0.
-62.9733 -89.3277 0.
