# vtk DataFile Version 2.0
test grain
ASCII
DATASET UNSTRUCTURED_GRID
POINTS 5000 float
0.497721 0.000613165 0.
0.500566 0.000797681 0.
0.503048 0.000864429 0.
0.505513 0.000929634 0.
0.507631 0.000946785 0.
0.509749 0.000964323 0.
0.51184 0.000977215 0.
0.513885 0.000981585 0.
0.515931 0.000985975 0.
0.517955 0.000989838 0.
0.519968 0.000993451 0.
0.521981 0.000997077 0.
0.523984 0.000998004 0.
0.525986 0.000998565 0.
0.527988 0.000999091 0.
0.52999 0.00099931 0.
0.531992 0.000999529 0.
0.533993 0.000999722 0.
0.535994 0.000999862 0.
0.537995 0.001 0.
0.539996 0.00100013 0.
0.541996 0.00100026 0.
0.543997 0.00100039 0.
0.545997 0.00100033 0.
0.547997 0.00100021 0.
0.549998 0.00100009 0.
0.551998 0.00100017 0.
0.553998 0.00100026 0.
0.555998 0.00100034 0.
0.557998 0.00100039 0.
0.559998 0.00100044 0.
0.561998 0.00100048 0.
0.563998 0.00100051 0.
0.565998 0.00100054 0.
0.567998 0.00100055 0.
0.569998 0.00100055 0.
0.571998 0.00100055 0.
0.573998 0.0010005 0.
0.575998 0.00100046 0.
0.577998 0.00100042 0.
0.579998 0.00100043 0.
0.581998 0.00100045 0.
0.583997 0.00100043 0.
0.585997 0.00100036 0.
0.587997 0.00100028 0.
0.589997 0.00100038 0.
0.591997 0.00100061 0.
0.593997 0.00100084 0.
0.595998 0.00100055 0.
0.597999 0.0010001 0.
0.6 0.000999656 0.
0.602001 0.00100012 0.
0.604003 0.00100058 0.
0.606003 0.00100089 0.
0.608003 0.00100065 0.
0.610003 0.00100041 0.
0.612003 0.00100031 0.
0.614003 0.00100038 0.
0.616003 0.00100045 0.
0.618003 0.00100045 0.
0.620003 0.00100042 0.
0.622002 0.0010004 0.
0.624002 0.00100043 0.
0.626002 0.00100048 0.
0.628002 0.00100052 0.
0.630002 0.00100053 0.
0.632002 0.00100053 0.
0.634002 0.00100053 0.
0.636002 0.00100051 0.
0.638002 0.0010005 0.
0.640002 0.00100043 0.
0.642002 0.00100033 0.
0.644002 0.00100022 0.
0.646002 0.00100017 0.
0.648002 0.00100015 0.
0.650002 0.00100012 0.
0.652003 0.00100018 0.
0.654003 0.00100024 0.
0.656004 0.00100026 0.
0.658005 0.00100013 0.
0.660005 0.001 0.
0.662006 0.000999845 0.
0.664007 0.000999656 0.
0.666008 0.000999466 0.
0.66801 0.000999319 0.
0.670012 0.000999194 0.
0.672014 0.000999069 0.
0.674017 0.000997719 0.
0.67602 0.000996228 0.
0.678026 0.000994366 0.
0.680048 0.000989753 0.
0.68207 0.000985161 0.
0.684107 0.000980114 0.
0.686169 0.000974181 0.
0.688231 0.000968284 0.
0.6904 0.000940356 0.
0.692623 0.000902451 0.
0.69487 0.00086332 0.
0.697665 0.000765578 0.
0.700464 0.000669779 0.
0.495591 0.0015765 0.
0.498975 0.00228789 0.
0.501872 0.00255693 0.
0.50471 0.00277104 0.
0.50709 0.00283098 0.
0.50939 0.0028864 0.
0.511628 0.00293116 0.
0.513723 0.00294437 0.
0.515819 0.00295763 0.
0.517878 0.00296925 0.
0.519913 0.00298015 0.
0.521949 0.0029911 0.
0.523959 0.002994 0.
0.525964 0.00299568 0.
0.52797 0.00299727 0.
0.529974 0.00299793 0.
0.531979 0.00299858 0.
0.533983 0.00299917 0.
0.535985 0.00299959 0.
0.537988 0.003 0.
0.53999 0.0030004 0.
0.54199 0.00300079 0.
0.543991 0.00300117 0.
0.545992 0.00300098 0.
0.547993 0.00300063 0.
0.549993 0.00300027 0.
0.551993 0.00300052 0.
0.553993 0.00300077 0.
0.555993 0.00300101 0.
0.557994 0.00300117 0.
0.559994 0.00300133 0.
0.561995 0.00300145 0.
0.563995 0.00300153 0.
0.565995 0.00300161 0.
0.567995 0.00300164 0.
0.569995 0.00300164 0.
0.571995 0.00300164 0.
0.573995 0.00300151 0.
0.575994 0.00300137 0.
0.577993 0.00300125 0.
0.579993 0.0030013 0.
0.581993 0.00300134 0.
0.583992 0.00300129 0.
0.585992 0.00300107 0.
0.587991 0.00300084 0.
0.589991 0.00300113 0.
0.591991 0.00300183 0.
0.59399 0.00300253 0.
0.595993 0.00300165 0.
0.597997 0.00300031 0.
0.6 0.00299897 0.
0.602004 0.00300035 0.
0.604008 0.00300174 0.
0.60601 0.00300266 0.
0.60801 0.00300195 0.
0.610009 0.00300124 0.
0.612009 0.00300094 0.
0.614009 0.00300114 0.
0.616008 0.00300134 0.
0.618008 0.00300135 0.
0.620008 0.00300127 0.
0.622007 0.00300119 0.
0.624007 0.0030013 0.
0.626006 0.00300144 0.
0.628005 0.00300157 0.
0.630005 0.00300158 0.
0.632005 0.00300159 0.
0.634005 0.00300159 0.
0.636005 0.00300154 0.
0.638006 0.0030015 0.
0.640006 0.0030013 0.
0.642006 0.00300098 0.
0.644007 0.00300066 0.
0.646007 0.00300052 0.
0.648007 0.00300044 0.
0.650007 0.00300036 0.
0.652008 0.00300054 0.
0.654009 0.00300072 0.
0.65601 0.00300077 0.
0.658011 0.00300038 0.
0.660013 0.003 0.
0.662015 0.00299953 0.
0.664018 0.00299896 0.
0.666022 0.00299839 0.
0.668026 0.00299796 0.
0.670031 0.00299758 0.
0.672036 0.00299721 0.
0.674046 0.00299311 0.
0.676056 0.00298863 0.
0.678072 0.00298289 0.
0.68013 0.00296895 0.
0.682188 0.00295507 0.
0.684274 0.00293975 0.
0.686405 0.00292174 0.
0.688536 0.00290385 0.
0.690953 0.00280205 0.
0.693446 0.00268175 0.
0.696177 0.00252093 0.
0.699368 0.00221514 0.
0.702682 0.00170465 0.
0.493078 0.00217619 0.
0.496784 0.00336413 0.
0.500488 0.00419816 0.
0.503711 0.00456937 0.
0.506496 0.00470152 0.
0.508992 0.00479885 0.
0.511411 0.00488446 0.
0.513557 0.00490663 0.
0.515704 0.0049289 0.
0.517799 0.00494831 0.
0.519858 0.00496659 0.
0.521917 0.00498493 0.
0.523933 0.00498997 0.
0.525943 0.00499278 0.
0.527952 0.00499544 0.
0.529959 0.00499653 0.
0.531966 0.00499763 0.
0.533972 0.00499861 0.
0.535976 0.0049993 0.
0.537981 0.005 0.
0.539983 0.00500067 0.
0.541984 0.00500131 0.
0.543986 0.00500195 0.
0.545987 0.00500163 0.
0.547988 0.00500104 0.
0.549989 0.00500045 0.
0.551989 0.00500087 0.
0.553989 0.00500129 0.
0.555989 0.00500167 0.
0.55799 0.00500194 0.
0.559991 0.00500221 0.
0.561991 0.00500242 0.
0.563992 0.00500255 0.
0.565992 0.00500269 0.
0.567992 0.00500274 0.
0.569992 0.00500273 0.
0.571992 0.00500273 0.
0.573991 0.00500252 0.
0.57599 0.00500229 0.
0.577989 0.00500209 0.
0.579988 0.00500216 0.
0.581988 0.00500223 0.
0.583987 0.00500215 0.
0.585986 0.00500178 0.
0.587986 0.00500141 0.
0.589985 0.00500189 0.
0.591984 0.00500305 0.
0.593984 0.00500421 0.
0.595988 0.00500274 0.
0.597994 0.00500051 0.
0.6 0.00499828 0.
0.602007 0.00500059 0.
0.604013 0.0050029 0.
0.606017 0.00500443 0.
0.608017 0.00500325 0.
0.610016 0.00500207 0.
0.612015 0.00500157 0.
0.614014 0.0050019 0.
0.616014 0.00500224 0.
0.618013 0.00500225 0.
0.620013 0.00500212 0.
0.622012 0.00500198 0.
0.624011 0.00500217 0.
0.62601 0.0050024 0.
0.628008 0.00500261 0.
0.630008 0.00500263 0.
0.632008 0.00500266 0.
0.634009 0.00500265 0.
0.636009 0.00500257 0.
0.638009 0.0050025 0.
0.64001 0.00500217 0.
0.642011 0.00500163 0.
0.644012 0.00500109 0.
0.646012 0.00500087 0.
0.648012 0.00500074 0.
0.650012 0.0050006 0.
0.652013 0.0050009 0.
0.654014 0.0050012 0.
0.656016 0.00500128 0.
0.658018 0.00500064 0.
0.66002 0.005 0.
0.662024 0.00499922 0.
0.66403 0.00499827 0.
0.666035 0.00499732 0.
0.668043 0.00499659 0.
0.670051 0.00499596 0.
0.672059 0.00499534 0.
0.674075 0.00498843 0.
0.676091 0.00498094 0.
0.678119 0.00497115 0.
0.680214 0.00494773 0.
0.682307 0.00492443 0.
0.684448 0.00489857 0.
0.686651 0.00486822 0.
0.688852 0.00483806 0.
0.691594 0.00463556 0.
0.694385 0.00442351 0.
0.697797 0.00406753 0.
0.701518 0.0034721 0.
0.705319 0.00232035 0.
0.490081 0.00231214 0.
0.494474 0.00401224 0.
0.498645 0.00528822 0.
0.50207 0.00582006 0.
0.505252 0.00614678 0.
0.507921 0.00634725 0.
0.510573 0.00655457 0.
0.512896 0.00665095 0.
0.515211 0.00673904 0.
0.517447 0.00680951 0.
0.519587 0.00685577 0.
0.521729 0.00690276 0.
0.523799 0.0069308 0.
0.525851 0.00695505 0.
0.527902 0.00697802 0.
0.529918 0.00698047 0.
0.531934 0.00698293 0.
0.533948 0.00698617 0.
0.535958 0.00699117 0.
0.537968 0.00699618 0.
0.539974 0.0069992 0.
0.541976 0.00700052 0.
0.543979 0.00700185 0.
0.545981 0.00700215 0.
0.547982 0.00700213 0.
0.549984 0.00700211 0.
0.551984 0.0070023 0.
0.553984 0.00700248 0.
0.555985 0.00700269 0.
0.557986 0.007003 0.
0.559987 0.0070033 0.
0.561987 0.00700361 0.
0.563988 0.00700391 0.
0.565989 0.00700421 0.
0.567989 0.00700441 0.
0.569989 0.00700457 0.
0.571989 0.00700472 0.
0.573988 0.00700455 0.
0.575987 0.00700434 0.
0.577986 0.00700415 0.
0.579986 0.00700422 0.
0.581986 0.00700429 0.
0.583985 0.00700427 0.
0.585984 0.00700405 0.
0.587983 0.00700384 0.
0.589982 0.00700418 0.
0.591981 0.00700496 0.
0.59398 0.00700575 0.
0.595986 0.00700472 0.
0.597993 0.00700316 0.
0.6 0.0070016 0.
0.602008 0.00700332 0.
0.604015 0.00700504 0.
0.606021 0.00700617 0.
0.60802 0.00700528 0.
0.610019 0.0070044 0.
0.612018 0.007004 0.
0.614017 0.0070042 0.
0.616016 0.0070044 0.
0.618015 0.0070044 0.
0.620015 0.00700428 0.
0.622015 0.00700417 0.
0.624013 0.00700431 0.
0.626012 0.00700447 0.
0.628011 0.00700461 0.
0.630012 0.00700446 0.
0.632012 0.00700431 0.
0.634012 0.00700413 0.
0.636013 0.00700388 0.
0.638014 0.00700364 0.
0.640015 0.00700321 0.
0.642016 0.00700265 0.
0.644017 0.00700208 0.
0.646017 0.00700199 0.
0.648018 0.00700202 0.
0.650018 0.00700206 0.
0.65202 0.00700172 0.
0.654022 0.00700139 0.
0.656024 0.00700073 0.
0.658029 0.00699902 0.
0.660033 0.00699731 0.
0.662041 0.00699335 0.
0.664054 0.00698676 0.
0.666067 0.00698019 0.
0.668087 0.0069761 0.
0.67011 0.00697307 0.
0.672133 0.00697005 0.
0.674207 0.00693557 0.
0.676283 0.00689958 0.
0.678383 0.00685983 0.
0.680575 0.00680172 0.
0.682764 0.00674483 0.
0.685094 0.00664956 0.
0.687504 0.0065358 0.
0.690015 0.00636995 0.
0.692957 0.00600034 0.
0.696037 0.0056338 0.
0.699713 0.00514919 0.
0.704107 0.00413477 0.
0.708245 0.00250897 0.
0.487018 0.00229994 0.
0.491854 0.0042535 0.
0.496144 0.0057596 0.
0.500158 0.00685409 0.
0.503616 0.00744035 0.
0.506684 0.00781422 0.
0.509563 0.00815734 0.
0.512149 0.0083624 0.
0.514652 0.00852495 0.
0.517076 0.00866452 0.
0.519302 0.00874049 0.
0.521532 0.00881768 0.
0.52366 0.00886972 0.
0.525757 0.00891598 0.
0.527853 0.00896058 0.
0.529878 0.00896439 0.
0.531903 0.00896821 0.
0.533925 0.00897366 0.
0.53594 0.00898298 0.
0.537955 0.00899232 0.
0.539964 0.00899772 0.
0.541968 0.00899974 0.
0.543972 0.00900175 0.
0.545975 0.00900265 0.
0.547977 0.00900321 0.
0.549978 0.00900377 0.
0.551979 0.00900373 0.
0.55398 0.00900367 0.
0.55598 0.00900371 0.
0.557981 0.00900405 0.
0.559982 0.0090044 0.
0.561984 0.0090048 0.
0.563984 0.00900526 0.
0.565985 0.00900573 0.
0.567986 0.00900609 0.
0.569986 0.0090064 0.
0.571987 0.00900671 0.
0.573986 0.00900657 0.
0.575985 0.00900638 0.
0.577984 0.00900622 0.
0.579984 0.00900629 0.
0.581984 0.00900635 0.
0.583983 0.00900638 0.
0.585982 0.00900633 0.
0.587981 0.00900628 0.
0.58998 0.00900648 0.
0.591979 0.00900688 0.
0.593977 0.00900728 0.
0.595984 0.00900669 0.
0.597992 0.0090058 0.
0.600001 0.00900491 0.
0.602009 0.00900604 0.
0.604018 0.00900717 0.
0.606024 0.00900791 0.
0.608023 0.00900732 0.
0.610021 0.00900672 0.
0.61202 0.00900642 0.
0.614019 0.0090065 0.
0.616018 0.00900657 0.
0.618018 0.00900654 0.
0.620017 0.00900645 0.
0.622017 0.00900636 0.
0.624016 0.00900644 0.
0.626015 0.00900655 0.
0.628014 0.0090066 0.
0.630015 0.00900628 0.
0.632015 0.00900596 0.
0.634016 0.0090056 0.
0.636017 0.00900519 0.
0.638018 0.00900478 0.
0.640019 0.00900426 0.
0.642021 0.00900366 0.
0.644022 0.00900307 0.
0.646023 0.0090031 0.
0.648024 0.00900331 0.
0.650025 0.00900351 0.
0.652027 0.00900254 0.
0.654029 0.00900158 0.
0.656032 0.00900018 0.
0.658039 0.00899739 0.
0.660046 0.00899461 0.
0.662059 0.00898742 0.
0.664079 0.00897517 0.
0.666099 0.00896296 0.
0.668132 0.00895553 0.
0.67017 0.00895009 0.
0.672209 0.00894466 0.
0.674344 0.00888037 0.
0.676482 0.00881484 0.
0.678664 0.00874309 0.
0.680962 0.00864771 0.
0.683254 0.00855434 0.
0.68585 0.00836032 0.
0.6885 0.0081502 0.
0.691438 0.00775395 0.
0.694584 0.00719482 0.
0.698152 0.00658945 0.
0.702243 0.00575794 0.
0.706749 0.00434375 0.
0.711527 0.00234747 0.
0.483658 0.00217635 0.
0.488835 0.00421789 0.
0.493535 0.00599763 0.
0.49779 0.00750782 0.
0.501827 0.00856807 0.
0.505411 0.00920735 0.
0.508511 0.00966911 0.
0.511379 0.01 0.
0.514047 0.0102325 0.
0.516661 0.0104619 0.
0.518967 0.0105713 0.
0.521282 0.0106846 0.
0.523477 0.0107698 0.
0.525623 0.0108467 0.
0.527768 0.0109235 0.
0.529809 0.0109332 0.
0.531851 0.0109431 0.
0.533886 0.0109541 0.
0.535909 0.0109681 0.
0.537932 0.0109822 0.
0.539946 0.0109909 0.
0.541954 0.010995 0.
0.543962 0.0109991 0.
0.545966 0.0110011 0.
0.547969 0.0110024 0.
0.549972 0.0110037 0.
0.551973 0.0110037 0.
0.553974 0.0110037 0.
0.555975 0.0110039 0.
0.557977 0.0110043 0.
0.559978 0.0110047 0.
0.561979 0.0110052 0.
0.56398 0.0110058 0.
0.565982 0.0110064 0.
0.567983 0.0110069 0.
0.569983 0.0110073 0.
0.571984 0.0110077 0.
0.573983 0.0110077 0.
0.575983 0.0110077 0.
0.577982 0.0110076 0.
0.579982 0.0110077 0.
0.581982 0.0110078 0.
0.583981 0.0110079 0.
0.58598 0.0110079 0.
0.587979 0.011008 0.
0.589978 0.011008 0.
0.591977 0.0110079 0.
0.593976 0.0110079 0.
0.595983 0.0110079 0.
0.597992 0.0110081 0.
0.600001 0.0110082 0.
0.60201 0.0110084 0.
0.604019 0.0110085 0.
0.606026 0.0110086 0.
0.608024 0.0110085 0.
0.610023 0.0110083 0.
0.612022 0.0110082 0.
0.614021 0.0110081 0.
0.61602 0.0110081 0.
0.61802 0.011008 0.
0.62002 0.0110079 0.
0.62202 0.0110078 0.
0.624019 0.0110078 0.
0.626018 0.0110077 0.
0.628018 0.0110076 0.
0.630018 0.0110071 0.
0.632019 0.0110066 0.
0.63402 0.0110062 0.
0.636022 0.0110056 0.
0.638023 0.0110051 0.
0.640024 0.0110045 0.
0.642026 0.0110038 0.
0.644027 0.0110031 0.
0.646029 0.011003 0.
0.64803 0.0110031 0.
0.650032 0.0110031 0.
0.652036 0.0110011 0.
0.654039 0.0109991 0.
0.656045 0.0109961 0.
0.658057 0.0109903 0.
0.660069 0.0109845 0.
0.662089 0.0109731 0.
0.664119 0.0109555 0.
0.666148 0.010938 0.
0.668202 0.010921 0.
0.670266 0.0109046 0.
0.67233 0.0108874 0.
0.67453 0.010784 0.
0.676727 0.0106817 0.
0.679004 0.0105671 0.
0.681406 0.0104281 0.
0.683824 0.0102877 0.
0.686662 0.00999034 0.
0.689589 0.00967018 0.
0.692933 0.00901088 0.
0.696411 0.00825376 0.
0.700358 0.00741079 0.
0.705023 0.0060083 0.
0.709809 0.00424733 0.
0.714973 0.00213381 0.
0.480142 0.00194356 0.
0.485953 0.00420988 0.
0.490918 0.00606099 0.
0.495572 0.00794295 0.
0.500387 0.00951372 0.
0.504175 0.0103028 0.
0.507469 0.0108768 0.
0.51059 0.0113875 0.
0.513377 0.0117645 0.
0.516126 0.0121432 0.
0.518549 0.0123179 0.
0.520957 0.0124856 0.
0.523239 0.0126209 0.
0.52544 0.0127412 0.
0.527642 0.0128627 0.
0.529711 0.0128853 0.
0.531777 0.0129065 0.
0.533833 0.0129274 0.
0.535866 0.0129465 0.
0.537898 0.0129656 0.
0.539921 0.0129787 0.
0.541935 0.0129863 0.
0.543949 0.0129939 0.
0.545956 0.0129974 0.
0.54796 0.0129996 0.
0.549965 0.0130018 0.
0.551967 0.0130022 0.
0.553968 0.0130027 0.
0.55597 0.0130031 0.
0.557972 0.0130037 0.
0.559973 0.0130043 0.
0.561975 0.0130049 0.
0.563976 0.0130056 0.
0.565977 0.0130062 0.
0.567979 0.0130068 0.
0.56998 0.0130072 0.
0.571981 0.0130077 0.
0.573981 0.0130079 0.
0.57598 0.0130081 0.
0.57798 0.0130083 0.
0.57998 0.0130085 0.
0.58198 0.0130086 0.
0.58398 0.0130088 0.
0.585979 0.0130089 0.
0.587979 0.013009 0.
0.589978 0.0130087 0.
0.591977 0.0130081 0.
0.593976 0.0130075 0.
0.595983 0.0130085 0.
0.597992 0.01301 0.
0.6 0.0130115 0.
0.60201 0.0130103 0.
0.604019 0.0130091 0.
0.606025 0.0130083 0.
0.608024 0.0130087 0.
0.610024 0.0130092 0.
0.612023 0.0130093 0.
0.614022 0.0130091 0.
0.616022 0.0130089 0.
0.618022 0.0130088 0.
0.620022 0.0130086 0.
0.622022 0.0130085 0.
0.624022 0.0130082 0.
0.626022 0.013008 0.
0.628021 0.0130077 0.
0.630022 0.013007 0.
0.632024 0.0130064 0.
0.634025 0.0130058 0.
0.636026 0.0130052 0.
0.638028 0.0130047 0.
0.640029 0.013004 0.
0.642031 0.013003 0.
0.644033 0.0130021 0.
0.646035 0.0130016 0.
0.648038 0.0130012 0.
0.65004 0.0130008 0.
0.652046 0.0129973 0.
0.654053 0.0129938 0.
0.656062 0.0129885 0.
0.658082 0.0129776 0.
0.660102 0.0129667 0.
0.662133 0.0129503 0.
0.664175 0.0129276 0.
0.666216 0.0129051 0.
0.668302 0.0128706 0.
0.670401 0.0128333 0.
0.67251 0.0127913 0.
0.674777 0.0126361 0.
0.677039 0.0124836 0.
0.679445 0.0122969 0.
0.681982 0.0120812 0.
0.684599 0.0118121 0.
0.687549 0.0113156 0.
0.690684 0.0107886 0.
0.694171 0.0100505 0.
0.697994 0.00918219 0.
0.702612 0.00790777 0.
0.707524 0.00610567 0.
0.712691 0.00418724 0.
0.718526 0.00193793 0.
0.476771 0.00176535 0.
0.483042 0.00420609 0.
0.48842 0.00606277 0.
0.49337 0.00817417 0.
0.498614 0.0100619 0.
0.502637 0.0111395 0.
0.506299 0.0119871 0.
0.509674 0.0126882 0.
0.512672 0.0132553 0.
0.515541 0.0137823 0.
0.518109 0.0140543 0.
0.520613 0.0142779 0.
0.522995 0.0144673 0.
0.525251 0.0146318 0.
0.527512 0.0147989 0.
0.529611 0.0148366 0.
0.531701 0.0148693 0.
0.53378 0.0149006 0.
0.535822 0.0149248 0.
0.537865 0.014949 0.
0.539895 0.0149664 0.
0.541915 0.0149775 0.
0.543935 0.0149887 0.
0.545945 0.0149938 0.
0.547951 0.0149968 0.
0.549958 0.0149999 0.
0.55196 0.0150008 0.
0.553963 0.0150016 0.
0.555965 0.0150024 0.
0.557967 0.0150031 0.
0.559969 0.0150039 0.
0.56197 0.0150046 0.
0.563972 0.0150054 0.
0.565973 0.0150061 0.
0.567975 0.0150067 0.
0.569976 0.0150072 0.
0.571977 0.0150077 0.
0.573978 0.0150082 0.
0.575978 0.0150086 0.
0.577978 0.0150091 0.
0.579978 0.0150093 0.
0.581978 0.0150095 0.
0.583978 0.0150097 0.
0.585978 0.0150098 0.
0.587978 0.0150099 0.
0.589978 0.0150094 0.
0.591977 0.0150082 0.
0.593977 0.0150071 0.
0.595983 0.015009 0.
0.597992 0.0150119 0.
0.6 0.0150147 0.
0.602009 0.0150122 0.
0.604018 0.0150097 0.
0.606025 0.015008 0.
0.608024 0.015009 0.
0.610024 0.01501 0.
0.612024 0.0150104 0.
0.614024 0.0150101 0.
0.616024 0.0150098 0.
0.618024 0.0150095 0.
0.620024 0.0150094 0.
0.622025 0.0150092 0.
0.624025 0.0150087 0.
0.626025 0.0150082 0.
0.628025 0.0150077 0.
0.630026 0.0150069 0.
0.632028 0.0150061 0.
0.634029 0.0150054 0.
0.636031 0.0150048 0.
0.638032 0.0150043 0.
0.640034 0.0150034 0.
0.642037 0.0150023 0.
0.644039 0.0150011 0.
0.646042 0.0150003 0.
0.648045 0.0149994 0.
0.650048 0.0149985 0.
0.652057 0.0149936 0.
0.654066 0.0149886 0.
0.65608 0.0149809 0.
0.658108 0.0149649 0.
0.660136 0.0149489 0.
0.662177 0.0149273 0.
0.664231 0.0148996 0.
0.666285 0.014872 0.
0.668404 0.0148187 0.
0.67054 0.0147601 0.
0.672696 0.0146909 0.
0.675032 0.0144827 0.
0.67736 0.0142789 0.
0.679923 0.0140086 0.
0.682599 0.0137136 0.
0.685431 0.0132613 0.
0.688478 0.0125705 0.
0.691882 0.0118007 0.
0.695562 0.0109054 0.
0.699514 0.00995307 0.
0.704819 0.00819918 0.
0.710035 0.0060572 0.
0.715845 0.00402502 0.
0.722199 0.00184142 0.
0.473221 0.0016512 0.
0.479858 0.0039655 0.
0.485725 0.00603875 0.
0.49091 0.00819862 0.
0.496432 0.0102682 0.
0.501009 0.0118456 0.
0.505047 0.0130058 0.
0.508649 0.0138891 0.
0.511914 0.0146481 0.
0.514815 0.015247 0.
0.517511 0.0156402 0.
0.520082 0.0159247 0.
0.522572 0.016188 0.
0.524882 0.0163932 0.
0.527202 0.0166038 0.
0.529373 0.0166905 0.
0.531524 0.0167663 0.
0.533659 0.0168355 0.
0.535721 0.0168672 0.
0.537784 0.0168991 0.
0.539833 0.0169253 0.
0.541868 0.0169461 0.
0.543902 0.016967 0.
0.545921 0.016978 0.
0.547933 0.0169855 0.
0.549945 0.0169931 0.
0.55195 0.0169956 0.
0.553954 0.0169979 0.
0.555958 0.017 0.
0.557961 0.0170014 0.
0.559963 0.0170028 0.
0.561966 0.017004 0.
0.563968 0.0170049 0.
0.56597 0.0170058 0.
0.567972 0.0170066 0.
0.569973 0.0170071 0.
0.571975 0.0170077 0.
0.573975 0.0170084 0.
0.575976 0.0170091 0.
0.577976 0.0170097 0.
0.579977 0.0170099 0.
0.581977 0.0170101 0.
0.583978 0.0170103 0.
0.585978 0.0170105 0.
0.587978 0.0170106 0.
0.589979 0.0170099 0.
0.591979 0.0170086 0.
0.593979 0.0170073 0.
0.595985 0.0170098 0.
0.597993 0.0170134 0.
0.6 0.017017 0.
0.602009 0.0170138 0.
0.604017 0.0170106 0.
0.606023 0.0170083 0.
0.608023 0.0170094 0.
0.610023 0.0170105 0.
0.612024 0.0170109 0.
0.614024 0.0170107 0.
0.616025 0.0170104 0.
0.618025 0.0170102 0.
0.620026 0.0170099 0.
0.622027 0.0170097 0.
0.624027 0.017009 0.
0.626027 0.0170084 0.
0.628028 0.0170076 0.
0.630029 0.0170067 0.
0.632031 0.0170058 0.
0.634033 0.0170049 0.
0.636035 0.0170039 0.
0.638037 0.0170029 0.
0.64004 0.0170014 0.
0.642044 0.0169996 0.
0.644048 0.0169977 0.
0.646053 0.0169947 0.
0.648059 0.0169914 0.
0.650065 0.0169879 0.
0.652082 0.0169774 0.
0.654099 0.0169668 0.
0.656124 0.0169519 0.
0.658169 0.0169247 0.
0.660215 0.0168976 0.
0.662279 0.0168652 0.
0.664361 0.0168274 0.
0.666442 0.0167898 0.
0.668635 0.0166829 0.
0.670845 0.0165678 0.
0.673088 0.0164356 0.
0.675475 0.0161828 0.
0.677849 0.0159396 0.
0.680553 0.0155746 0.
0.683311 0.0152126 0.
0.686316 0.0145644 0.
0.689461 0.013728 0.
0.693129 0.0127464 0.
0.697167 0.0116096 0.
0.701498 0.0103607 0.
0.706997 0.00831702 0.
0.712542 0.00599845 0.
0.718912 0.00393664 0.
0.725792 0.00168023 0.
0.469464 0.00150002 0.
0.476423 0.00373027 0.
0.483039 0.00596386 0.
0.488501 0.00811067 0.
0.494255 0.0103867 0.
0.499211 0.0123691 0.
0.503561 0.0138218 0.
0.507432 0.014899 0.
0.510867 0.0157848 0.
0.513854 0.0165021 0.
0.516776 0.0171199 0.
0.519445 0.0174995 0.
0.522088 0.0178739 0.
0.524471 0.0181303 0.
0.526865 0.0183926 0.
0.529118 0.0185331 0.
0.531335 0.0186555 0.
0.533533 0.0187686 0.
0.535617 0.0188084 0.
0.537701 0.0188483 0.
0.539769 0.0188835 0.
0.541819 0.0189141 0.
0.54387 0.018945 0.
0.545896 0.0189621 0.
0.547914 0.0189742 0.
0.549932 0.0189863 0.
0.551939 0.0189904 0.
0.553945 0.0189942 0.
0.555951 0.0189977 0.
0.557954 0.0189997 0.
0.559958 0.0190017 0.
0.561962 0.0190033 0.
0.563964 0.0190044 0.
0.565966 0.0190056 0.
0.567969 0.0190064 0.
0.569971 0.0190071 0.
0.571973 0.0190078 0.
0.573973 0.0190086 0.
0.575974 0.0190095 0.
0.577974 0.0190103 0.
0.579975 0.0190105 0.
0.581976 0.0190108 0.
0.583977 0.019011 0.
0.585978 0.0190111 0.
0.587979 0.0190113 0.
0.58998 0.0190105 0.
0.59198 0.019009 0.
0.593981 0.0190075 0.
0.595986 0.0190106 0.
0.597993 0.0190149 0.
0.6 0.0190193 0.
0.602008 0.0190154 0.
0.604015 0.0190114 0.
0.606021 0.0190087 0.
0.608022 0.0190098 0.
0.610023 0.0190109 0.
0.612024 0.0190115 0.
0.614025 0.0190113 0.
0.616026 0.0190111 0.
0.618027 0.0190108 0.
0.620028 0.0190105 0.
0.622029 0.0190101 0.
0.624029 0.0190093 0.
0.62603 0.0190085 0.
0.62803 0.0190076 0.
0.630032 0.0190066 0.
0.632034 0.0190055 0.
0.634037 0.0190043 0.
0.63604 0.0190029 0.
0.638042 0.0190015 0.
0.640046 0.0189995 0.
0.642051 0.0189969 0.
0.644056 0.0189943 0.
0.646064 0.0189892 0.
0.648073 0.0189834 0.
0.650082 0.0189773 0.
0.652108 0.018961 0.
0.654133 0.0189448 0.
0.656169 0.0189225 0.
0.658232 0.0188838 0.
0.660295 0.0188453 0.
0.662384 0.0188017 0.
0.664495 0.0187529 0.
0.666605 0.0187044 0.
0.668887 0.0185337 0.
0.67118 0.0183557 0.
0.673522 0.0181513 0.
0.675981 0.0178387 0.
0.678471 0.0175186 0.
0.681314 0.0170239 0.
0.684227 0.0164964 0.
0.687378 0.0156297 0.
0.690626 0.0147169 0.
0.694433 0.0136178 0.
0.698929 0.0121711 0.
0.70375 0.0105053 0.
0.70948 0.00825036 0.
0.715321 0.00584777 0.
0.722386 0.00390076 0.
0.729476 0.00151149 0.
0.465121 0.00124522 0.
0.472387 0.00363422 0.
0.480106 0.00568418 0.
0.485885 0.00803607 0.
0.491878 0.0103327 0.
0.497051 0.0125423 0.
0.501918 0.0144238 0.
0.506007 0.0157015 0.
0.509597 0.016783 0.
0.512834 0.0176873 0.
0.515979 0.018529 0.
0.518792 0.0190434 0.
0.521568 0.0195325 0.
0.524063 0.0198415 0.
0.526522 0.0201418 0.
0.528851 0.0203392 0.
0.531126 0.0205147 0.
0.533386 0.0206839 0.
0.535494 0.0207329 0.
0.537604 0.0207824 0.
0.539695 0.0208282 0.
0.54176 0.0208708 0.
0.543825 0.0209137 0.
0.545862 0.0209387 0.
0.547888 0.0209568 0.
0.549914 0.020975 0.
0.551924 0.0209816 0.
0.553933 0.0209878 0.
0.555941 0.0209934 0.
0.557947 0.0209963 0.
0.559952 0.0209992 0.
0.561957 0.0210015 0.
0.56396 0.021003 0.
0.565963 0.0210044 0.
0.567965 0.0210055 0.
0.569968 0.0210064 0.
0.57197 0.0210072 0.
0.573971 0.0210082 0.
0.575972 0.0210092 0.
0.577973 0.0210101 0.
0.579974 0.0210104 0.
0.581975 0.0210107 0.
0.583977 0.021011 0.
0.585978 0.021011 0.
0.587979 0.0210111 0.
0.589981 0.0210103 0.
0.591982 0.0210087 0.
0.593983 0.0210072 0.
0.595988 0.0210102 0.
0.597994 0.0210146 0.
0.6 0.021019 0.
0.602007 0.021015 0.
0.604014 0.0210111 0.
0.606019 0.0210083 0.
0.608021 0.0210095 0.
0.610022 0.0210106 0.
0.612023 0.0210112 0.
0.614025 0.0210111 0.
0.616026 0.021011 0.
0.618028 0.0210107 0.
0.620029 0.0210103 0.
0.622031 0.0210099 0.
0.624031 0.021009 0.
0.626032 0.0210079 0.
0.628033 0.0210069 0.
0.630035 0.0210056 0.
0.632038 0.0210043 0.
0.634041 0.0210028 0.
0.636044 0.0210009 0.
0.638048 0.020999 0.
0.640054 0.0209959 0.
0.642061 0.0209921 0.
0.644068 0.0209883 0.
0.646079 0.0209802 0.
0.648092 0.0209711 0.
0.650106 0.0209615 0.
0.652142 0.0209373 0.
0.654178 0.0209132 0.
0.656227 0.0208813 0.
0.658308 0.0208299 0.
0.660389 0.0207789 0.
0.662508 0.0207182 0.
0.664653 0.0206516 0.
0.666799 0.0205851 0.
0.669157 0.0203466 0.
0.671521 0.020109 0.
0.673953 0.0198352 0.
0.676484 0.0194718 0.
0.679128 0.0190599 0.
0.682093 0.0184372 0.
0.685233 0.0176643 0.
0.688528 0.0166043 0.
0.692036 0.0155073 0.
0.69604 0.0142656 0.
0.700828 0.0125849 0.
0.70598 0.0105461 0.
0.71196 0.00810611 0.
0.718079 0.00568379 0.
0.726297 0.00366371 0.
0.734176 0.00125456 0.
0.459137 0.000863081 0.
0.468141 0.00345806 0.
0.47719 0.00539322 0.
0.483271 0.00794005 0.
0.489568 0.0102489 0.
0.494959 0.0126337 0.
0.500328 0.0149136 0.
0.504542 0.0163911 0.
0.508346 0.0176857 0.
0.511873 0.0188038 0.
0.515184 0.0198025 0.
0.518146 0.0204447 0.
0.521012 0.0209985 0.
0.523623 0.0214021 0.
0.526146 0.021782 0.
0.528557 0.022071 0.
0.530882 0.0223216 0.
0.533203 0.0225707 0.
0.535346 0.0226345 0.
0.537488 0.0226969 0.
0.539606 0.0227567 0.
0.541686 0.0228141 0.
0.543767 0.022872 0.
0.545817 0.0229073 0.
0.547854 0.022933 0.
0.549891 0.0229589 0.
0.551905 0.022969 0.
0.553919 0.0229786 0.
0.555931 0.0229871 0.
0.557938 0.0229913 0.
0.559945 0.0229955 0.
0.561951 0.0229987 0.
0.563955 0.0230005 0.
0.565959 0.0230023 0.
0.567962 0.0230037 0.
0.569965 0.0230049 0.
0.571968 0.0230061 0.
0.573969 0.0230072 0.
0.57597 0.0230082 0.
0.577971 0.0230092 0.
0.579973 0.0230096 0.
0.581975 0.0230099 0.
0.583976 0.0230102 0.
0.585978 0.0230102 0.
0.58798 0.0230102 0.
0.589982 0.0230094 0.
0.591984 0.0230078 0.
0.593985 0.0230062 0.
0.59599 0.0230087 0.
0.597995 0.0230124 0.
0.6 0.0230161 0.
0.602006 0.0230128 0.
0.604012 0.0230095 0.
0.606017 0.0230073 0.
0.608019 0.0230084 0.
0.610021 0.0230096 0.
0.612023 0.0230102 0.
0.614025 0.0230102 0.
0.616027 0.0230101 0.
0.618029 0.0230098 0.
0.62003 0.0230094 0.
0.622032 0.0230091 0.
0.624033 0.0230079 0.
0.626034 0.0230067 0.
0.628035 0.0230055 0.
0.630039 0.0230038 0.
0.632042 0.0230021 0.
0.634045 0.0230002 0.
0.63605 0.0229977 0.
0.638055 0.0229952 0.
0.640062 0.0229909 0.
0.642072 0.0229853 0.
0.644082 0.0229797 0.
0.646098 0.0229679 0.
0.648116 0.0229545 0.
0.650136 0.0229402 0.
0.652186 0.0229054 0.
0.654235 0.0228709 0.
0.6563 0.0228268 0.
0.658402 0.0227607 0.
0.660502 0.022695 0.
0.662661 0.0226056 0.
0.664852 0.0225059 0.
0.667055 0.0223979 0.
0.669465 0.0220758 0.
0.671873 0.0217597 0.
0.674417 0.0213917 0.
0.677031 0.0209632 0.
0.679814 0.0204302 0.
0.682809 0.0197688 0.
0.68619 0.0187499 0.
0.689643 0.0175245 0.
0.693409 0.0162326 0.
0.697813 0.0146912 0.
0.702933 0.0127888 0.
0.708305 0.010444 0.
0.714627 0.00791446 0.
0.721075 0.00555635 0.
0.730381 0.0034178 0.
0.74024 0.000861067 0.
0.449177 0.000581379 0.
0.463924 0.00323069 0.
0.473948 0.00524064 0.
0.480716 0.0077405 0.
0.487361 0.0101838 0.
0.492854 0.0126513 0.
0.498361 0.0150839 0.
0.502886 0.0168436 0.
0.50709 0.0185031 0.
0.51087 0.0197805 0.
0.514186 0.0208364 0.
0.517377 0.0217252 0.
0.520379 0.0224037 0.
0.52316 0.0229431 0.
0.525754 0.023406 0.
0.528254 0.0237928 0.
0.530631 0.0241194 0.
0.533011 0.0244501 0.
0.535194 0.024535 0.
0.537369 0.0246106 0.
0.539516 0.0246846 0.
0.541612 0.024757 0.
0.543709 0.0248299 0.
0.545772 0.0248756 0.
0.54782 0.0249091 0.
0.549868 0.0249426 0.
0.551887 0.0249564 0.
0.553904 0.0249693 0.
0.55592 0.0249807 0.
0.557929 0.0249862 0.
0.559938 0.0249917 0.
0.561946 0.0249958 0.
0.56395 0.024998 0.
0.565955 0.0250002 0.
0.567959 0.025002 0.
0.569962 0.0250035 0.
0.571965 0.025005 0.
0.573967 0.0250061 0.
0.575968 0.0250073 0.
0.577969 0.0250083 0.
0.579972 0.0250087 0.
0.581974 0.0250091 0.
0.583976 0.0250094 0.
0.585978 0.0250093 0.
0.587981 0.0250093 0.
0.589983 0.0250085 0.
0.591985 0.0250069 0.
0.593987 0.0250053 0.
0.595991 0.0250073 0.
0.597996 0.0250102 0.
0.6 0.0250131 0.
0.602006 0.0250106 0.
0.604011 0.025008 0.
0.606015 0.0250063 0.
0.608018 0.0250074 0.
0.61002 0.0250086 0.
0.612022 0.0250092 0.
0.614025 0.0250092 0.
0.616027 0.0250092 0.
0.61803 0.0250089 0.
0.620032 0.0250085 0.
0.622034 0.0250082 0.
0.624035 0.0250069 0.
0.626036 0.0250055 0.
0.628038 0.0250041 0.
0.630042 0.025002 0.
0.632045 0.025 0.
0.63405 0.0249976 0.
0.636056 0.0249945 0.
0.638061 0.0249914 0.
0.640071 0.0249858 0.
0.642084 0.0249785 0.
0.644096 0.0249711 0.
0.646117 0.0249554 0.
0.648141 0.0249379 0.
0.650166 0.0249187 0.
0.65223 0.0248734 0.
0.654293 0.0248282 0.
0.656375 0.0247718 0.
0.658496 0.0246908 0.
0.660616 0.0246104 0.
0.662818 0.0244897 0.
0.665055 0.0243562 0.
0.667319 0.0242002 0.
0.66978 0.0237938 0.
0.672234 0.0233987 0.
0.674917 0.0229275 0.
0.67764 0.0224188 0.
0.680638 0.0216557 0.
0.68373 0.0208402 0.
0.687199 0.019689 0.
0.69084 0.0183467 0.
0.694805 0.0168742 0.
0.699638 0.0149866 0.
0.705042 0.0128436 0.
0.710634 0.0102968 0.
0.717212 0.00768555 0.
0.724192 0.00543707 0.
0.734813 0.00327823 0.
0.750951 0.000572431 0.
0.435156 0.000569116 0.
0.459881 0.00286803 0.
0.470668 0.00516427 0.
0.478284 0.0074847 0.
0.484974 0.0101382 0.
0.490702 0.0125847 0.
0.496321 0.0151079 0.
0.501174 0.017167 0.
0.505834 0.0192286 0.
0.509607 0.0205791 0.
0.513122 0.0217893 0.
0.516561 0.0229659 0.
0.519689 0.023759 0.
0.522665 0.0244463 0.
0.525306 0.0249758 0.
0.527869 0.0254455 0.
0.530275 0.0258199 0.
0.532698 0.0262011 0.
0.534946 0.0263413 0.
0.537168 0.0264581 0.
0.539361 0.0265684 0.
0.54148 0.0266558 0.
0.543601 0.0267438 0.
0.545687 0.0268059 0.
0.547754 0.0268553 0.
0.549822 0.0269051 0.
0.551849 0.0269268 0.
0.553874 0.0269467 0.
0.555897 0.0269645 0.
0.557911 0.0269728 0.
0.559925 0.0269812 0.
0.561936 0.0269878 0.
0.563943 0.0269919 0.
0.56595 0.026996 0.
0.567955 0.0269989 0.
0.569959 0.0270011 0.
0.571963 0.0270033 0.
0.573965 0.0270047 0.
0.575966 0.027006 0.
0.577968 0.0270071 0.
0.579971 0.0270075 0.
0.581973 0.0270078 0.
0.583976 0.027008 0.
0.585978 0.027008 0.
0.587981 0.0270079 0.
0.589984 0.027007 0.
0.591986 0.0270056 0.
0.593989 0.0270041 0.
0.595993 0.0270057 0.
0.597997 0.0270081 0.
0.6 0.0270105 0.
0.602005 0.0270083 0.
0.60401 0.0270062 0.
0.606014 0.0270047 0.
0.608017 0.0270059 0.
0.610019 0.0270071 0.
0.612022 0.0270078 0.
0.614025 0.0270079 0.
0.616028 0.027008 0.
0.61803 0.0270078 0.
0.620033 0.0270074 0.
0.622035 0.027007 0.
0.624037 0.0270054 0.
0.626039 0.0270037 0.
0.628041 0.0270019 0.
0.630046 0.0269989 0.
0.63205 0.0269959 0.
0.634056 0.0269919 0.
0.636065 0.0269862 0.
0.638074 0.0269805 0.
0.640089 0.0269718 0.
0.642107 0.0269609 0.
0.644125 0.0269501 0.
0.646156 0.0269263 0.
0.64819 0.0268997 0.
0.650228 0.0268703 0.
0.652313 0.0268058 0.
0.654398 0.0267421 0.
0.656509 0.026666 0.
0.658664 0.0265661 0.
0.660816 0.0264677 0.
0.663069 0.0262977 0.
0.665352 0.0261148 0.
0.667687 0.0258867 0.
0.670182 0.0254252 0.
0.672663 0.0249823 0.
0.675469 0.0244274 0.
0.678325 0.0238099 0.
0.681514 0.0228052 0.
0.684815 0.0217731 0.
0.688354 0.020468 0.
0.692081 0.0190565 0.
0.696544 0.0172088 0.
0.701623 0.0151274 0.
0.707119 0.0128413 0.
0.712909 0.0101492 0.
0.719787 0.00751421 0.
0.727391 0.00520342 0.
0.738876 0.0029651 0.
0.770679 0.00063996 0.
0.415947 0.00106163 0.
0.455935 0.00236805 0.
0.467196 0.00506025 0.
0.475767 0.00723473 0.
0.482609 0.0100638 0.
0.488599 0.0124911 0.
0.49431 0.0150983 0.
0.499446 0.0174007 0.
0.504344 0.0197344 0.
0.508204 0.0212404 0.
0.512016 0.0226572 0.
0.515631 0.0240536 0.
0.518888 0.0249968 0.
0.521961 0.0257949 0.
0.52465 0.0264035 0.
0.52736 0.0270252 0.
0.529845 0.0274668 0.
0.532335 0.0279075 0.
0.534667 0.0281196 0.
0.536946 0.0282885 0.
0.539194 0.0284461 0.
0.54134 0.0285497 0.
0.543489 0.0286541 0.
0.545598 0.0287336 0.
0.547686 0.0287998 0.
0.549774 0.0288667 0.
0.551812 0.0288967 0.
0.553844 0.0289237 0.
0.555875 0.028948 0.
0.557893 0.0289593 0.
0.559912 0.0289706 0.
0.561927 0.0289797 0.
0.563936 0.0289857 0.
0.565945 0.0289918 0.
0.567951 0.0289958 0.
0.569955 0.0289987 0.
0.57196 0.0290016 0.
0.573962 0.0290032 0.
0.575965 0.0290047 0.
0.577967 0.029006 0.
0.579969 0.0290063 0.
0.581972 0.0290065 0.
0.583975 0.0290067 0.
0.585978 0.0290066 0.
0.587981 0.0290064 0.
0.589985 0.0290056 0.
0.591987 0.0290043 0.
0.59399 0.0290029 0.
0.595994 0.0290041 0.
0.597997 0.029006 0.
0.6 0.0290078 0.
0.602005 0.0290061 0.
0.604009 0.0290043 0.
0.606012 0.0290032 0.
0.608016 0.0290044 0.
0.610019 0.0290056 0.
0.612022 0.0290064 0.
0.614025 0.0290066 0.
0.616028 0.0290068 0.
0.618031 0.0290066 0.
0.620034 0.0290062 0.
0.622037 0.0290058 0.
0.624039 0.0290039 0.
0.626042 0.0290019 0.
0.628044 0.0289997 0.
0.63005 0.0289957 0.
0.632055 0.0289918 0.
0.634063 0.0289863 0.
0.636075 0.0289779 0.
0.638087 0.0289695 0.
0.640106 0.0289576 0.
0.64213 0.0289433 0.
0.644154 0.028929 0.
0.646196 0.0288966 0.
0.648241 0.0288608 0.
0.650291 0.0288205 0.
0.6524 0.0287358 0.
0.654507 0.0286521 0.
0.656652 0.0285542 0.
0.658847 0.0284326 0.
0.661038 0.0283126 0.
0.663353 0.0280802 0.
0.66569 0.0278373 0.
0.668125 0.0275123 0.
0.670699 0.0269681 0.
0.67332 0.026419 0.
0.676193 0.0257645 0.
0.679142 0.025011 0.
0.682434 0.023858 0.
0.685972 0.0226159 0.
0.68961 0.0211591 0.
0.693378 0.0196686 0.
0.698354 0.0174055 0.
0.703718 0.0151692 0.
0.709293 0.0127077 0.
0.71527 0.00996617 0.
0.722312 0.00740581 0.
0.730636 0.00501047 0.
0.742534 0.00246902 0.
0.788298 0.0014441 0.
0.405218 0.00180744 0.
0.452048 0.00203468 0.
0.46366 0.00491159 0.
0.473105 0.00703171 0.
0.48015 0.00987865 0.
0.48648 0.0123716 0.
0.492225 0.0150592 0.
0.497537 0.0174618 0.
0.502493 0.0198949 0.
0.50674 0.0217892 0.
0.510886 0.0234388 0.
0.514559 0.0249195 0.
0.517875 0.0260351 0.
0.521074 0.0270138 0.
0.523959 0.0277899 0.
0.526808 0.0285628 0.
0.529409 0.0291013 0.
0.53197 0.0295973 0.
0.534392 0.0298808 0.
0.53672 0.0301 0.
0.539022 0.0303107 0.
0.541194 0.030429 0.
0.543368 0.0305488 0.
0.545502 0.0306465 0.
0.547609 0.0307316 0.
0.549716 0.0308181 0.
0.551765 0.0308586 0.
0.553808 0.0308944 0.
0.555847 0.0309269 0.
0.557871 0.0309417 0.
0.559895 0.0309565 0.
0.561914 0.0309687 0.
0.563925 0.030977 0.
0.565937 0.0309854 0.
0.567945 0.030991 0.
0.569951 0.0309951 0.
0.571957 0.0309991 0.
0.57396 0.0310011 0.
0.575963 0.0310027 0.
0.577965 0.0310042 0.
0.579969 0.0310045 0.
0.581972 0.0310048 0.
0.583975 0.0310049 0.
0.585978 0.0310047 0.
0.587982 0.0310045 0.
0.589985 0.0310038 0.
0.591988 0.0310027 0.
0.593991 0.0310015 0.
0.595994 0.0310024 0.
0.597997 0.0310039 0.
0.6 0.0310053 0.
0.602004 0.0310038 0.
0.604008 0.0310024 0.
0.606012 0.0310015 0.
0.608015 0.0310026 0.
0.610018 0.0310037 0.
0.612022 0.0310044 0.
0.614025 0.0310047 0.
0.616029 0.0310051 0.
0.618032 0.0310048 0.
0.620035 0.0310043 0.
0.622039 0.0310038 0.
0.624042 0.0310016 0.
0.626045 0.0309992 0.
0.628049 0.0309964 0.
0.630056 0.030991 0.
0.632062 0.0309857 0.
0.634072 0.0309781 0.
0.636088 0.0309664 0.
0.638104 0.0309548 0.
0.640128 0.0309392 0.
0.642159 0.0309207 0.
0.644189 0.0309022 0.
0.646243 0.0308588 0.
0.6483 0.030811 0.
0.650366 0.0307572 0.
0.652496 0.0306518 0.
0.654624 0.0305478 0.
0.656803 0.0304249 0.
0.659035 0.0302803 0.
0.661263 0.0301405 0.
0.663637 0.0298472 0.
0.666027 0.0295449 0.
0.668571 0.0291158 0.
0.671229 0.0284907 0.
0.67402 0.0278127 0.
0.677001 0.0270204 0.
0.680157 0.0259817 0.
0.683396 0.0247778 0.
0.687147 0.0233949 0.
0.691072 0.0216826 0.
0.69486 0.0201054 0.
0.700203 0.0174973 0.
0.705771 0.0151564 0.
0.711461 0.0125242 0.
0.717607 0.00977246 0.
0.724977 0.00725984 0.
0.734178 0.00493294 0.
0.746058 0.00204778 0.
0.79532 0.00182032 0.
0.399232 0.00176744 0.
0.447809 0.00185306 0.
0.459899 0.00467061 0.
0.47029 0.00690158 0.
0.47774 0.00959769 0.
0.484315 0.0122859 0.
0.490157 0.0149554 0.
0.49559 0.0174626 0.
0.500685 0.0199966 0.
0.505267 0.0222624 0.
0.509571 0.0240835 0.
0.513341 0.0256119 0.
0.51688 0.0270274 0.
0.520189 0.0281678 0.
0.523293 0.0291308 0.
0.52625 0.0300061 0.
0.52895 0.0306227 0.
0.531564 0.0311596 0.
0.534076 0.0315388 0.
0.536459 0.0318405 0.
0.538832 0.0321395 0.
0.541032 0.0322769 0.
0.543234 0.0324158 0.
0.545394 0.0325362 0.
0.547519 0.0326456 0.
0.549645 0.0327566 0.
0.551708 0.0328108 0.
0.553763 0.0328578 0.
0.555814 0.0329005 0.
0.557844 0.0329195 0.
0.559873 0.0329386 0.
0.561897 0.0329544 0.
0.563913 0.0329657 0.
0.565928 0.0329769 0.
0.567939 0.0329846 0.
0.569946 0.0329902 0.
0.571953 0.0329958 0.
0.573957 0.0329982 0.
0.575961 0.033 0.
0.577964 0.0330017 0.
0.579968 0.0330021 0.
0.581971 0.0330025 0.
0.583975 0.0330027 0.
0.585979 0.0330024 0.
0.587982 0.0330022 0.
0.589986 0.0330016 0.
0.591989 0.0330008 0.
0.593992 0.0329999 0.
0.595995 0.0330006 0.
0.597998 0.0330017 0.
0.6 0.0330029 0.
0.602004 0.0330016 0.
0.604008 0.0330003 0.
0.606011 0.0329995 0.
0.608014 0.0330004 0.
0.610018 0.0330013 0.
0.612021 0.033002 0.
0.614025 0.0330024 0.
0.616029 0.0330028 0.
0.618033 0.0330024 0.
0.620037 0.0330017 0.
0.62204 0.0330011 0.
0.624045 0.0329984 0.
0.626049 0.0329955 0.
0.628054 0.032992 0.
0.630063 0.0329847 0.
0.632071 0.0329775 0.
0.634084 0.0329672 0.
0.636105 0.0329516 0.
0.638125 0.0329361 0.
0.640156 0.0329159 0.
0.642193 0.0328925 0.
0.64423 0.0328692 0.
0.646299 0.0328109 0.
0.648373 0.0327474 0.
0.650457 0.0326756 0.
0.652608 0.0325465 0.
0.654757 0.0324191 0.
0.656972 0.0322557 0.
0.659242 0.0320646 0.
0.661518 0.0318755 0.
0.66397 0.0315122 0.
0.666413 0.0311511 0.
0.66905 0.0306066 0.
0.671727 0.0299474 0.
0.674694 0.0291504 0.
0.677779 0.0282423 0.
0.68116 0.0268933 0.
0.684587 0.0255483 0.
0.688309 0.0241202 0.
0.692616 0.0221031 0.
0.696813 0.0201155 0.
0.702164 0.0175305 0.
0.707904 0.015105 0.
0.7136 0.0123199 0.
0.719959 0.00962281 0.
0.727646 0.00699646 0.
0.738004 0.0048103 0.
0.74985 0.00190214 0.
0.798568 0.00212185 0.
0.398463 0.00204808 0.
0.443475 0.00173671 0.
0.456309 0.00421913 0.
0.467429 0.00676804 0.
0.475414 0.00933072 0.
0.482159 0.012167 0.
0.488162 0.0148478 0.
0.493711 0.017453 0.
0.49889 0.0200401 0.
0.503576 0.0225079 0.
0.508092 0.024579 0.
0.512112 0.026252 0.
0.515858 0.0279351 0.
0.519281 0.0292224 0.
0.522537 0.0303198 0.
0.52552 0.0312756 0.
0.528396 0.0320622 0.
0.53111 0.0326871 0.
0.533746 0.0331829 0.
0.536187 0.0335696 0.
0.538632 0.0339618 0.
0.540866 0.0341233 0.
0.543097 0.0342815 0.
0.545284 0.0344246 0.
0.547427 0.0345584 0.
0.549572 0.0346941 0.
0.55165 0.0347627 0.
0.553717 0.0348209 0.
0.555781 0.034874 0.
0.557816 0.0348973 0.
0.559852 0.0349206 0.
0.56188 0.0349401 0.
0.5639 0.0349543 0.
0.565919 0.0349684 0.
0.567932 0.0349781 0.
0.569941 0.0349853 0.
0.57195 0.0349925 0.
0.573954 0.0349953 0.
0.575959 0.0349974 0.
0.577963 0.0349993 0.
0.579967 0.0349997 0.
0.581971 0.0350002 0.
0.583975 0.0350004 0.
0.585979 0.0350001 0.
0.587983 0.0349998 0.
0.589986 0.0349994 0.
0.591989 0.0349989 0.
0.593992 0.0349983 0.
0.595995 0.0349988 0.
0.597998 0.0349996 0.
0.6 0.0350005 0.
0.602004 0.0349993 0.
0.604007 0.0349982 0.
0.606011 0.0349975 0.
0.608014 0.0349982 0.
0.610017 0.034999 0.
0.612021 0.0349996 0.
0.614025 0.035 0.
0.616029 0.0350005 0.
0.618033 0.035 0.
0.620038 0.0349992 0.
0.622042 0.0349983 0.
0.624047 0.0349952 0.
0.626053 0.0349917 0.
0.628059 0.0349876 0.
0.63007 0.0349784 0.
0.63208 0.0349692 0.
0.634097 0.0349563 0.
0.636122 0.0349368 0.
0.638147 0.0349173 0.
0.640184 0.0348926 0.
0.642228 0.0348643 0.
0.644272 0.0348361 0.
0.646356 0.0347626 0.
0.648446 0.0346831 0.
0.650548 0.0345931 0.
0.652721 0.0344401 0.
0.654892 0.0342891 0.
0.657145 0.0340813 0.
0.659454 0.0338431 0.
0.661788 0.0336031 0.
0.664323 0.0331645 0.
0.666842 0.0327293 0.
0.669628 0.0320164 0.
0.672402 0.0312462 0.
0.675477 0.0303366 0.
0.678617 0.0293257 0.
0.682172 0.0277397 0.
0.685908 0.0262104 0.
0.689538 0.0247535 0.
0.694194 0.0224421 0.
0.698741 0.0200665 0.
0.704194 0.0175343 0.
0.71001 0.014969 0.
0.715734 0.0120866 0.
0.722337 0.00952467 0.
0.730284 0.00674752 0.
0.741723 0.00448445 0.
0.753716 0.00181163 0.
0.799207 0.00254089 0.
0.398948 0.00258068 0.
0.439348 0.00175879 0.
0.453022 0.00384219 0.
0.464691 0.00660644 0.
0.473127 0.00913194 0.
0.480045 0.0120002 0.
0.486267 0.0147403 0.
0.491861 0.0174453 0.
0.497083 0.0200379 0.
0.501882 0.0226228 0.
0.506591 0.0249743 0.
0.510871 0.0268445 0.
0.514739 0.0286794 0.
0.518289 0.0301339 0.
0.521662 0.0314195 0.
0.52475 0.0325053 0.
0.527813 0.0334774 0.
0.530619 0.0341838 0.
0.533386 0.0347979 0.
0.53586 0.0352423 0.
0.538341 0.0357048 0.
0.540623 0.0359077 0.
0.542889 0.0360948 0.
0.545115 0.0362687 0.
0.547282 0.0364248 0.
0.549453 0.0365831 0.
0.551555 0.036675 0.
0.553643 0.0367548 0.
0.555727 0.036829 0.
0.55777 0.0368572 0.
0.559814 0.0368855 0.
0.56185 0.0369105 0.
0.563876 0.0369307 0.
0.565902 0.036951 0.
0.567919 0.0369647 0.
0.569931 0.0369746 0.
0.571943 0.0369845 0.
0.573949 0.0369885 0.
0.575955 0.0369917 0.
0.577961 0.0369946 0.
0.579965 0.0369956 0.
0.58197 0.0369966 0.
0.583975 0.0369973 0.
0.585979 0.0369973 0.
0.587983 0.0369974 0.
0.589986 0.0369973 0.
0.591989 0.0369971 0.
0.593992 0.036997 0.
0.595995 0.0369973 0.
0.597998 0.0369978 0.
0.600001 0.0369982 0.
0.602004 0.0369974 0.
0.604007 0.0369965 0.
0.60601 0.0369959 0.
0.608014 0.0369962 0.
0.610017 0.0369966 0.
0.612021 0.0369967 0.
0.614025 0.0369968 0.
0.616029 0.0369968 0.
0.618035 0.0369958 0.
0.62004 0.0369943 0.
0.622045 0.0369928 0.
0.624053 0.0369882 0.
0.62606 0.0369834 0.
0.628068 0.0369774 0.
0.630083 0.0369648 0.
0.632098 0.0369522 0.
0.63412 0.0369342 0.
0.636153 0.0369071 0.
0.638185 0.0368801 0.
0.640231 0.0368493 0.
0.642284 0.0368158 0.
0.644336 0.0367825 0.
0.646448 0.0366795 0.
0.648564 0.036571 0.
0.650696 0.0364541 0.
0.652893 0.0362832 0.
0.655086 0.0361144 0.
0.657389 0.0358523 0.
0.659735 0.0355631 0.
0.662127 0.0352677 0.
0.664706 0.0347844 0.
0.667325 0.0342561 0.
0.670241 0.0333864 0.
0.673188 0.0324859 0.
0.676418 0.0313931 0.
0.679638 0.0301559 0.
0.683187 0.0285254 0.
0.687302 0.0267763 0.
0.691277 0.0249804 0.
0.695827 0.0226527 0.
0.700589 0.0200236 0.
0.706192 0.0175176 0.
0.71198 0.0148275 0.
0.717821 0.0119054 0.
0.72468 0.00943978 0.
0.732946 0.00657398 0.
0.745035 0.00405972 0.
0.757583 0.00178525 0.
0.799128 0.00305456 0.
0.399528 0.00321218 0.
0.43549 0.00186845 0.
0.449805 0.00367565 0.
0.461977 0.0064365 0.
0.470945 0.00901054 0.
0.47806 0.0118366 0.
0.484363 0.014665 0.
0.49006 0.0174018 0.
0.495317 0.0200243 0.
0.500221 0.0226619 0.
0.504993 0.0252293 0.
0.509449 0.0272896 0.
0.513545 0.0292991 0.
0.517203 0.0309347 0.
0.520675 0.0324216 0.
0.523947 0.0336693 0.
0.527168 0.034809 0.
0.53001 0.035551 0.
0.532865 0.0362651 0.
0.535411 0.0368058 0.
0.537955 0.0373683 0.
0.540317 0.0376502 0.
0.542639 0.0378825 0.
0.544922 0.0380996 0.
0.547121 0.0382805 0.
0.549324 0.038464 0.
0.551454 0.0385819 0.
0.553565 0.0386856 0.
0.555672 0.0387831 0.
0.557724 0.0388164 0.
0.559775 0.0388498 0.
0.561819 0.0388804 0.
0.563852 0.0389069 0.
0.565885 0.0389335 0.
0.567906 0.0389513 0.
0.569921 0.0389638 0.
0.571936 0.0389764 0.
0.573944 0.0389817 0.
0.575951 0.038986 0.
0.577958 0.03899 0.
0.579964 0.0389915 0.
0.581969 0.0389931 0.
0.583975 0.0389943 0.
0.585979 0.0389946 0.
0.587983 0.0389949 0.
0.589987 0.0389952 0.
0.59199 0.0389954 0.
0.593993 0.0389956 0.
0.595996 0.0389958 0.
0.597998 0.0389959 0.
0.600001 0.038996 0.
0.602004 0.0389954 0.
0.604007 0.0389948 0.
0.60601 0.0389943 0.
0.608013 0.0389942 0.
0.610016 0.0389942 0.
0.61202 0.0389939 0.
0.614025 0.0389935 0.
0.61603 0.0389931 0.
0.618036 0.0389915 0.
0.620042 0.0389894 0.
0.622049 0.0389873 0.
0.624058 0.0389813 0.
0.626067 0.0389749 0.
0.628077 0.0389672 0.
0.630096 0.0389511 0.
0.632116 0.038935 0.
0.634143 0.0389118 0.
0.636184 0.0388769 0.
0.638225 0.0388421 0.
0.640279 0.0388051 0.
0.642341 0.0387662 0.
0.644403 0.0387274 0.
0.646546 0.0385914 0.
0.648692 0.0384501 0.
0.650857 0.0383033 0.
0.653087 0.0381108 0.
0.655312 0.0379206 0.
0.657691 0.037583 0.
0.660104 0.0372234 0.
0.662609 0.036824 0.
0.66526 0.036236 0.
0.667971 0.0355893 0.
0.670892 0.0346802 0.
0.674048 0.0336417 0.
0.677398 0.0323941 0.
0.680851 0.0308169 0.
0.68437 0.0291802 0.
0.688715 0.0272658 0.
0.693043 0.0251215 0.
0.697533 0.0227164 0.
0.702445 0.0200104 0.
0.708105 0.0175163 0.
0.71386 0.0146812 0.
0.71988 0.0117801 0.
0.726966 0.00930314 0.
0.735632 0.00649742 0.
0.748228 0.00391128 0.
0.761157 0.00183469 0.
0.798944 0.00364199 0.
0.399747 0.00384768 0.
0.431207 0.00205755 0.
0.446719 0.00353321 0.
0.459353 0.00627201 0.
0.468723 0.00898627 0.
0.476095 0.0116695 0.
0.482488 0.0146014 0.
0.488292 0.0173486 0.
0.493536 0.0200028 0.
0.498548 0.0226704 0.
0.503246 0.0252845 0.
0.50791 0.0275913 0.
0.512262 0.0297997 0.
0.516052 0.0316465 0.
0.519643 0.0333148 0.
0.523119 0.0347456 0.
0.5263 0.0358999 0.
0.529315 0.0368161 0.
0.532286 0.0376761 0.
0.534954 0.0383502 0.
0.53756 0.0390121 0.
0.54001 0.0393845 0.
0.542388 0.0396613 0.
0.544731 0.0399241 0.
0.546957 0.0401246 0.
0.54919 0.0403301 0.
0.551348 0.0404752 0.
0.553482 0.0406056 0.
0.555611 0.0407308 0.
0.557671 0.0407693 0.
0.559731 0.0408079 0.
0.561783 0.0408443 0.
0.563823 0.0408777 0.
0.565863 0.0409114 0.
0.567889 0.0409339 0.
0.569908 0.0409499 0.
0.571927 0.0409658 0.
0.573937 0.040973 0.
0.575946 0.0409787 0.
0.577955 0.0409842 0.
0.579961 0.0409864 0.
0.581968 0.0409887 0.
0.583974 0.0409905 0.
0.585978 0.0409913 0.
0.587983 0.0409921 0.
0.589987 0.0409928 0.
0.59199 0.0409934 0.
0.593993 0.040994 0.
0.595996 0.0409941 0.
0.597998 0.0409941 0.
0.600001 0.0409941 0.
0.602004 0.0409935 0.
0.604006 0.0409929 0.
0.606009 0.0409924 0.
0.608013 0.0409919 0.
0.610016 0.0409914 0.
0.612021 0.0409906 0.
0.614026 0.0409896 0.
0.616031 0.0409885 0.
0.618038 0.0409862 0.
0.620046 0.0409833 0.
0.622054 0.0409804 0.
0.624065 0.0409725 0.
0.626076 0.0409641 0.
0.628089 0.040954 0.
0.630113 0.0409334 0.
0.632137 0.0409128 0.
0.634171 0.0408838 0.
0.63622 0.0408411 0.
0.638269 0.0407986 0.
0.640334 0.0407535 0.
0.642407 0.0407066 0.
0.64448 0.04066 0.
0.64665 0.040489 0.
0.648822 0.040315 0.
0.651021 0.0401393 0.
0.65328 0.0399313 0.
0.655536 0.0397227 0.
0.657999 0.0393011 0.
0.66048 0.0388708 0.
0.663111 0.038353 0.
0.665847 0.0376507 0.
0.668757 0.036806 0.
0.671767 0.035785 0.
0.674967 0.034677 0.
0.678415 0.0333144 0.
0.682111 0.0314067 0.
0.685881 0.0296212 0.
0.690263 0.0276008 0.
0.694796 0.0252134 0.
0.699308 0.0226519 0.
0.704383 0.0199825 0.
0.709994 0.0174575 0.
0.715737 0.0145118 0.
0.721892 0.0116932 0.
0.729167 0.00911273 0.
0.738376 0.00640436 0.
0.751205 0.00384657 0.
0.764564 0.00192193 0.
0.798885 0.00425264 0.
0.399707 0.00455001 0.
0.426988 0.00236238 0.
0.443791 0.00346568 0.
0.45676 0.00605342 0.
0.466517 0.00895072 0.
0.474125 0.0114985 0.
0.480528 0.0144772 0.
0.486489 0.0172594 0.
0.491699 0.0199607 0.
0.496837 0.0226851 0.
0.501518 0.0252754 0.
0.506308 0.0277764 0.
0.510895 0.0301924 0.
0.514784 0.0322019 0.
0.518613 0.0341035 0.
0.522125 0.0356478 0.
0.525389 0.0369304 0.
0.528628 0.0380484 0.
0.531709 0.0390407 0.
0.534511 0.0398431 0.
0.537122 0.0405489 0.
0.539651 0.0410185 0.
0.542082 0.0413501 0.
0.544495 0.0416765 0.
0.546762 0.0419127 0.
0.549038 0.0421557 0.
0.551231 0.0423403 0.
0.553387 0.0425068 0.
0.555541 0.0426692 0.
0.55761 0.0427135 0.
0.55968 0.0427579 0.
0.561742 0.0428008 0.
0.563788 0.0428423 0.
0.565835 0.0428839 0.
0.567868 0.0429123 0.
0.569891 0.0429325 0.
0.571915 0.0429527 0.
0.573928 0.0429621 0.
0.575939 0.0429699 0.
0.57795 0.0429772 0.
0.579958 0.0429803 0.
0.581965 0.0429834 0.
0.583972 0.0429859 0.
0.585977 0.0429874 0.
0.587982 0.0429889 0.
0.589986 0.04299 0.
0.59199 0.042991 0.
0.593993 0.042992 0.
0.595996 0.0429923 0.
0.597998 0.0429924 0.
0.600001 0.0429926 0.
0.602004 0.0429918 0.
0.604007 0.042991 0.
0.60601 0.0429902 0.
0.608013 0.0429892 0.
0.610017 0.0429882 0.
0.612022 0.0429868 0.
0.614028 0.0429849 0.
0.616034 0.042983 0.
0.618042 0.0429797 0.
0.620051 0.0429758 0.
0.62206 0.042972 0.
0.624074 0.0429616 0.
0.626088 0.0429506 0.
0.628104 0.0429375 0.
0.630134 0.0429112 0.
0.632164 0.042885 0.
0.634204 0.0428493 0.
0.636262 0.0427986 0.
0.638319 0.0427482 0.
0.640398 0.0426912 0.
0.642487 0.042631 0.
0.644577 0.0425695 0.
0.646769 0.0423572 0.
0.648962 0.0421435 0.
0.651217 0.0419137 0.
0.653553 0.0416449 0.
0.655875 0.0413852 0.
0.658389 0.0409134 0.
0.660895 0.0404411 0.
0.663608 0.0398212 0.
0.666423 0.0390295 0.
0.669568 0.0379878 0.
0.672709 0.0368511 0.
0.676098 0.0355239 0.
0.679568 0.0340187 0.
0.683381 0.0319455 0.
0.687503 0.0299479 0.
0.691911 0.0277801 0.
0.696556 0.0252014 0.
0.7011 0.0225609 0.
0.706319 0.0199441 0.
0.711879 0.0173423 0.
0.717615 0.0143441 0.
0.724001 0.0116259 0.
0.731374 0.00889694 0.
0.741115 0.00623724 0.
0.754041 0.00373041 0.
0.768017 0.00210282 0.
0.798881 0.0049561 0.
0.399744 0.00536161 0.
0.424078 0.00281595 0.
0.441109 0.00354573 0.
0.454439 0.0058893 0.
0.464387 0.00885185 0.
0.472215 0.0113922 0.
0.478631 0.0143179 0.
0.484705 0.0171879 0.
0.489924 0.0198972 0.
0.495068 0.0226688 0.
0.499802 0.0252282 0.
0.504733 0.0279099 0.
0.50929 0.0303532 0.
0.513427 0.0326095 0.
0.51751 0.0347707 0.
0.520976 0.0364288 0.
0.524434 0.0379039 0.
0.527919 0.0392165 0.
0.530992 0.0402592 0.
0.533868 0.041197 0.
0.536573 0.0420024 0.
0.539248 0.0426143 0.
0.541751 0.043018 0.
0.544249 0.0434234 0.
0.546561 0.0436972 0.
0.548881 0.0439781 0.
0.551112 0.0442032 0.
0.553291 0.0444061 0.
0.555469 0.0446068 0.
0.557549 0.0446576 0.
0.559629 0.0447078 0.
0.5617 0.0447571 0.
0.563754 0.0448066 0.
0.565808 0.0448564 0.
0.567846 0.0448907 0.
0.569875 0.0449151 0.
0.571903 0.0449394 0.
0.573919 0.0449512 0.
0.575932 0.044961 0.
0.577945 0.0449702 0.
0.579954 0.0449741 0.
0.581963 0.044978 0.
0.583971 0.0449814 0.
0.585976 0.0449835 0.
0.587982 0.0449857 0.
0.589986 0.0449873 0.
0.591989 0.0449886 0.
0.593993 0.0449899 0.
0.595996 0.0449905 0.
0.597998 0.0449907 0.
0.600001 0.044991 0.
0.602004 0.0449901 0.
0.604007 0.0449891 0.
0.60601 0.044988 0.
0.608014 0.0449866 0.
0.610017 0.0449851 0.
0.612023 0.044983 0.
0.614029 0.0449802 0.
0.616036 0.0449774 0.
0.618045 0.0449732 0.
0.620056 0.0449684 0.
0.622067 0.0449635 0.
0.624083 0.0449507 0.
0.6261 0.0449372 0.
0.628119 0.0449209 0.
0.630155 0.044889 0.
0.63219 0.0448571 0.
0.634238 0.0448147 0.
0.636304 0.044756 0.
0.63837 0.0446976 0.
0.640463 0.0446283 0.
0.642568 0.0445547 0.
0.644676 0.044477 0.
0.64689 0.0442232 0.
0.649104 0.0439696 0.
0.651423 0.0436806 0.
0.653841 0.0433472 0.
0.656259 0.0430163 0.
0.658851 0.0424781 0.
0.661436 0.0419384 0.
0.664305 0.0411318 0.
0.667124 0.040281 0.
0.670433 0.0391162 0.
0.673786 0.037834 0.
0.677292 0.0362858 0.
0.680871 0.0345309 0.
0.684768 0.0323802 0.
0.68914 0.0301959 0.
0.69361 0.0278322 0.
0.698304 0.0251555 0.
0.702874 0.0225196 0.
0.708209 0.0199148 0.
0.713696 0.0172104 0.
0.719537 0.0142312 0.
0.726095 0.0115298 0.
0.733482 0.00874235 0.
0.743726 0.00598627 0.
0.756541 0.00371772 0.
0.771185 0.00238736 0.
0.798777 0.0057512 0.
0.399824 0.0061828 0.
0.421958 0.00330306 0.
0.438628 0.00366024 0.
0.452246 0.00578953 0.
0.462359 0.00873553 0.
0.470329 0.0113546 0.
0.476825 0.01419 0.
0.482937 0.0171368 0.
0.488197 0.0198438 0.
0.493343 0.0226564 0.
0.498134 0.0252282 0.
0.503152 0.0279937 0.
0.507661 0.0304516 0.
0.512045 0.0329295 0.
0.516207 0.0352634 0.
0.519708 0.0370752 0.
0.52344 0.0387985 0.
0.527014 0.0402011 0.
0.530091 0.0413395 0.
0.533177 0.0425204 0.
0.535986 0.0434269 0.
0.538826 0.0441935 0.
0.541395 0.0446661 0.
0.543954 0.0451324 0.
0.546305 0.0454369 0.
0.548657 0.0457535 0.
0.550928 0.0460217 0.
0.553125 0.0462525 0.
0.555325 0.0464816 0.
0.557435 0.0465555 0.
0.559544 0.0466271 0.
0.561639 0.0466949 0.
0.563702 0.0467526 0.
0.565764 0.0468105 0.
0.567811 0.0468526 0.
0.569847 0.0468841 0.
0.571883 0.0469158 0.
0.573903 0.046932 0.
0.575919 0.0469455 0.
0.577936 0.0469584 0.
0.579947 0.046964 0.
0.581957 0.0469696 0.
0.583967 0.0469744 0.
0.585973 0.0469777 0.
0.58798 0.0469811 0.
0.589985 0.0469836 0.
0.591988 0.0469856 0.
0.593992 0.0469876 0.
0.595995 0.0469884 0.
0.597998 0.0469889 0.
0.600001 0.0469894 0.
0.602004 0.0469881 0.
0.604007 0.0469867 0.
0.606011 0.0469852 0.
0.608015 0.0469829 0.
0.610019 0.0469806 0.
0.612025 0.0469774 0.
0.614033 0.046973 0.
0.616041 0.0469687 0.
0.618053 0.0469627 0.
0.620066 0.0469559 0.
0.622079 0.0469492 0.
0.624099 0.0469321 0.
0.62612 0.046914 0.
0.628145 0.0468924 0.
0.630191 0.0468509 0.
0.632236 0.0468096 0.
0.634294 0.0467577 0.
0.636371 0.0466902 0.
0.638446 0.0466231 0.
0.640572 0.0465286 0.
0.642712 0.0464268 0.
0.644856 0.0463185 0.
0.647087 0.0460389 0.
0.649312 0.0457585 0.
0.651685 0.0454047 0.
0.654163 0.0450157 0.
0.656671 0.0446263 0.
0.659334 0.0440312 0.
0.662042 0.0433796 0.
0.665057 0.0423856 0.
0.668105 0.0413415 0.
0.671435 0.0400952 0.
0.674942 0.0386855 0.
0.67854 0.0369518 0.
0.68228 0.0349037 0.
0.686241 0.0326885 0.
0.690799 0.0303148 0.
0.695302 0.0278287 0.
0.700013 0.0250943 0.
0.704605 0.0225038 0.
0.710016 0.0198867 0.
0.715419 0.0171109 0.
0.721388 0.0141552 0.
0.728035 0.0114657 0.
0.735559 0.00868947 0.
0.746094 0.00584546 0.
0.758754 0.00383855 0.
0.773776 0.00275488 0.
0.798575 0.0064986 0.
0.399972 0.00697713 0.
0.420338 0.00379532 0.
0.436384 0.0038238 0.
0.450176 0.00575427 0.
0.46046 0.0086451 0.
0.468448 0.0113782 0.
0.475036 0.0141034 0.
0.481199 0.0170765 0.
0.486469 0.0198265 0.
0.49167 0.0226625 0.
0.496462 0.0252705 0.
0.501493 0.0280056 0.
0.506035 0.0305112 0.
0.510641 0.0331825 0.
0.514641 0.0355277 0.
0.518363 0.0376086 0.
0.522358 0.0395874 0.
0.52582 0.0409955 0.
0.529158 0.0423533 0.
0.532413 0.0437477 0.
0.535362 0.0447853 0.
0.538235 0.0456149 0.
0.540866 0.046151 0.
0.543512 0.0467161 0.
0.545957 0.0471041 0.
0.548367 0.0474865 0.
0.550702 0.0478182 0.
0.55293 0.0480799 0.
0.555162 0.0483409 0.
0.557308 0.0484437 0.
0.559451 0.0485412 0.
0.561577 0.048631 0.
0.563648 0.0486971 0.
0.565719 0.0487635 0.
0.567774 0.0488136 0.
0.569818 0.0488526 0.
0.571862 0.0488918 0.
0.573886 0.0489125 0.
0.575907 0.04893 0.
0.577926 0.0489466 0.
0.579939 0.0489538 0.
0.581952 0.048961 0.
0.583963 0.0489674 0.
0.58597 0.0489719 0.
0.587978 0.0489765 0.
0.589983 0.04898 0.
0.591988 0.0489826 0.
0.593992 0.0489852 0.
0.595995 0.0489864 0.
0.597998 0.0489871 0.
0.600001 0.0489878 0.
0.602004 0.0489861 0.
0.604008 0.0489844 0.
0.606011 0.0489823 0.
0.608016 0.0489792 0.
0.610021 0.0489761 0.
0.612028 0.0489717 0.
0.614038 0.0489658 0.
0.616047 0.0489599 0.
0.618061 0.0489521 0.
0.620076 0.0489434 0.
0.622092 0.0489347 0.
0.624116 0.0489132 0.
0.626141 0.0488906 0.
0.628171 0.0488634 0.
0.630227 0.0488119 0.
0.632284 0.0487607 0.
0.634353 0.0486989 0.
0.63644 0.0486219 0.
0.638527 0.0485452 0.
0.640692 0.0484204 0.
0.642876 0.0482847 0.
0.645066 0.0481399 0.
0.647328 0.0478311 0.
0.649583 0.0475224 0.
0.652023 0.0470659 0.
0.654539 0.0465756 0.
0.657165 0.0460934 0.
0.659912 0.0454714 0.
0.662709 0.044724 0.
0.665839 0.0435808 0.
0.669155 0.0423231 0.
0.67259 0.0409281 0.
0.676191 0.0393666 0.
0.679881 0.0374516 0.
0.683745 0.0352015 0.
0.68782 0.0328567 0.
0.692433 0.0303643 0.
0.696932 0.0278224 0.
0.701704 0.0250686 0.
0.706291 0.0225188 0.
0.711719 0.0198788 0.
0.717069 0.0170455 0.
0.723116 0.0141337 0.
0.729859 0.0113901 0.
0.737539 0.00866317 0.
0.748302 0.00587456 0.
0.760884 0.00399499 0.
0.775823 0.00314444 0.
0.798197 0.00717241 0.
0.400163 0.00773187 0.
0.419274 0.00425264 0.
0.434395 0.00401658 0.
0.44823 0.00572819 0.
0.458658 0.00859616 0.
0.466638 0.0114248 0.
0.473263 0.0140459 0.
0.479518 0.0170227 0.
0.484779 0.0198092 0.
0.490003 0.0226618 0.
0.494784 0.0253148 0.
0.499836 0.0279941 0.
0.504432 0.0305605 0.
0.509132 0.0333143 0.
0.513049 0.0357168 0.
0.516958 0.0380442 0.
0.520936 0.0401067 0.
0.524535 0.0416907 0.
0.52819 0.0432981 0.
0.531513 0.0447977 0.
0.534473 0.045922 0.
0.537462 0.0468975 0.
0.540283 0.0475927 0.
0.543042 0.0482745 0.
0.545601 0.0487598 0.
0.548072 0.0492078 0.
0.550479 0.0496102 0.
0.552736 0.0499006 0.
0.554998 0.0501853 0.
0.557179 0.0503176 0.
0.559352 0.0504439 0.
0.561504 0.0505608 0.
0.563585 0.0506346 0.
0.565667 0.0507088 0.
0.567732 0.0507674 0.
0.569785 0.0508152 0.
0.571838 0.0508633 0.
0.573866 0.0508895 0.
0.575891 0.0509116 0.
0.577914 0.0509326 0.
0.579929 0.0509417 0.
0.581944 0.0509507 0.
0.583957 0.0509587 0.
0.585966 0.0509648 0.
0.587974 0.0509708 0.
0.589981 0.0509754 0.
0.591986 0.0509789 0.
0.593991 0.0509823 0.
0.595994 0.0509838 0.
0.597998 0.0509847 0.
0.600001 0.0509856 0.
0.602005 0.0509835 0.
0.604009 0.0509814 0.
0.606013 0.0509789 0.
0.608019 0.0509747 0.
0.610024 0.0509705 0.
0.612033 0.0509647 0.
0.614044 0.0509569 0.
0.616055 0.0509491 0.
0.618071 0.0509393 0.
0.620089 0.0509285 0.
0.622107 0.0509178 0.
0.624136 0.050891 0.
0.626166 0.0508629 0.
0.628203 0.0508288 0.
0.63027 0.0507657 0.
0.632337 0.0507031 0.
0.634418 0.0506314 0.
0.636517 0.050546 0.
0.638614 0.0504611 0.
0.640816 0.0503004 0.
0.643041 0.0501292 0.
0.645273 0.0499521 0.
0.647567 0.0496192 0.
0.649853 0.0492833 0.
0.652363 0.0487073 0.
0.654919 0.0481161 0.
0.657719 0.0475276 0.
0.660634 0.0468191 0.
0.663656 0.0458139 0.
0.66669 0.0446577 0.
0.670251 0.0432286 0.
0.673859 0.041649 0.
0.67755 0.0398984 0.
0.681319 0.037787 0.
0.68528 0.035391 0.
0.689414 0.0329592 0.
0.694088 0.0303713 0.
0.698582 0.0278191 0.
0.703351 0.0250964 0.
0.707957 0.0225498 0.
0.713402 0.0198639 0.
0.71871 0.0169911 0.
0.72482 0.0141342 0.
0.731597 0.0113452 0.
0.739433 0.0086424 0.
0.750366 0.00598064 0.
0.762888 0.00418956 0.
0.777731 0.00351207 0.
0.797766 0.00777748 0.
0.400475 0.00843471 0.
0.418382 0.00473184 0.
0.43265 0.00427422 0.
0.446397 0.00571841 0.
0.456815 0.00855719 0.
0.464818 0.0114398 0.
0.471544 0.0140271 0.
0.477886 0.016968 0.
0.483123 0.0198153 0.
0.488402 0.0226631 0.
0.493124 0.0253365 0.
0.49821 0.0280021 0.
0.502795 0.0306026 0.
0.507496 0.0333325 0.
0.511441 0.0358487 0.
0.515461 0.0383315 0.
0.519339 0.0404522 0.
0.52318 0.0422946 0.
0.527105 0.0441008 0.
0.530345 0.0456019 0.
0.533533 0.0470123 0.
0.53665 0.0481308 0.
0.539692 0.0490015 0.
0.54255 0.0497775 0.
0.545205 0.050348 0.
0.547707 0.0508434 0.
0.550177 0.0513174 0.
0.552491 0.0516391 0.
0.554831 0.0519668 0.
0.557049 0.0521469 0.
0.559238 0.0523197 0.
0.561408 0.0524784 0.
0.563505 0.0525604 0.
0.565603 0.0526428 0.
0.567681 0.0527113 0.
0.569744 0.0527701 0.
0.571808 0.0528293 0.
0.573842 0.0528622 0.
0.575871 0.0528899 0.
0.577898 0.0529163 0.
0.579916 0.0529273 0.
0.581933 0.0529383 0.
0.583949 0.0529484 0.
0.585959 0.0529562 0.
0.58797 0.0529641 0.
0.589978 0.05297 0.
0.591984 0.0529744 0.
0.593989 0.0529788 0.
0.595994 0.0529806 0.
0.597997 0.0529816 0.
0.600001 0.0529826 0.
0.602006 0.0529802 0.
0.60401 0.0529778 0.
0.606015 0.0529747 0.
0.608022 0.0529693 0.
0.610029 0.0529639 0.
0.612039 0.0529564 0.
0.614052 0.0529463 0.
0.616065 0.0529361 0.
0.618084 0.0529241 0.
0.620105 0.052911 0.
0.622126 0.052898 0.
0.624161 0.0528647 0.
0.626198 0.0528299 0.
0.628242 0.0527872 0.
0.630322 0.0527095 0.
0.632401 0.0526325 0.
0.634496 0.0525493 0.
0.63661 0.0524557 0.
0.638722 0.0523625 0.
0.640956 0.052144 0.
0.643208 0.0519129 0.
0.645492 0.0516779 0.
0.647857 0.0513146 0.
0.650196 0.0509542 0.
0.652754 0.0502803 0.
0.655292 0.0496229 0.
0.658305 0.0489348 0.
0.661397 0.0481409 0.
0.664665 0.0468108 0.
0.667845 0.0454823 0.
0.671415 0.0440195 0.
0.675198 0.0422527 0.
0.678998 0.0402921 0.
0.682807 0.0380036 0.
0.686863 0.0355024 0.
0.691013 0.0330232 0.
0.695727 0.0303825 0.
0.700235 0.027813 0.
0.704972 0.0251336 0.
0.709623 0.0225819 0.
0.715062 0.0198231 0.
0.720328 0.0169684 0.
0.726517 0.0141338 0.
0.733261 0.011324 0.
0.741228 0.00860158 0.
0.752291 0.00605856 0.
0.764697 0.00440407 0.
0.779093 0.00387258 0.
0.797351 0.00836859 0.
0.401017 0.00902049 0.
0.417843 0.0052051 0.
0.431295 0.00456374 0.
0.444823 0.00579963 0.
0.455157 0.00855715 0.
0.463115 0.0114368 0.
0.469924 0.0140688 0.
0.476328 0.0169597 0.
0.481508 0.0198196 0.
0.486838 0.0226924 0.
0.491521 0.0253605 0.
0.496592 0.0280331 0.
0.501161 0.0306235 0.
0.505834 0.0333048 0.
0.50982 0.0359265 0.
0.513872 0.0384813 0.
0.517726 0.0407266 0.
0.521766 0.0427936 0.
0.525703 0.0446475 0.
0.529089 0.0463213 0.
0.532496 0.0480162 0.
0.535761 0.049272 0.
0.538969 0.0502772 0.
0.541853 0.0511295 0.
0.544693 0.0518529 0.
0.547269 0.0524277 0.
0.549837 0.0530053 0.
0.55223 0.0533719 0.
0.554653 0.0537447 0.
0.556917 0.0539727 0.
0.559122 0.0541922 0.
0.561312 0.0543959 0.
0.563424 0.0544861 0.
0.565538 0.0545767 0.
0.56763 0.054655 0.
0.569703 0.0547248 0.
0.571777 0.054795 0.
0.573818 0.0548348 0.
0.57585 0.0548681 0.
0.577882 0.0548999 0.
0.579903 0.0549129 0.
0.581923 0.054926 0.
0.583941 0.054938 0.
0.585953 0.0549476 0.
0.587966 0.0549573 0.
0.589975 0.0549646 0.
0.591981 0.05497 0.
0.593988 0.0549753 0.
0.595993 0.0549774 0.
0.597997 0.0549785 0.
0.600001 0.0549797 0.
0.602007 0.0549769 0.
0.604012 0.0549742 0.
0.606018 0.0549706 0.
0.608025 0.054964 0.
0.610033 0.0549573 0.
0.612045 0.0549481 0.
0.61406 0.0549356 0.
0.616076 0.0549232 0.
0.618097 0.0549088 0.
0.620121 0.0548935 0.
0.622145 0.0548783 0.
0.624187 0.0548384 0.
0.626229 0.0547969 0.
0.628281 0.0547453 0.
0.630373 0.054653 0.
0.632465 0.0545614 0.
0.634574 0.054467 0.
0.636704 0.0543651 0.
0.638831 0.0542636 0.
0.641099 0.053983 0.
0.643378 0.0536916 0.
0.645724 0.0533986 0.
0.648179 0.0529908 0.
0.650637 0.0525536 0.
0.653351 0.0517417 0.
0.655999 0.0509888 0.
0.659101 0.0502047 0.
0.662266 0.0493181 0.
0.665723 0.0477153 0.
0.66915 0.0462091 0.
0.672703 0.0446693 0.
0.676585 0.04274 0.
0.680484 0.0405711 0.
0.68429 0.038172 0.
0.688462 0.0355661 0.
0.692657 0.0330507 0.
0.69733 0.0304107 0.
0.701832 0.0278485 0.
0.706543 0.0251896 0.
0.71125 0.0226221 0.
0.716651 0.0198173 0.
0.721879 0.016988 0.
0.728105 0.0141755 0.
0.734835 0.0113606 0.
0.74288 0.00855971 0.
0.753915 0.00616818 0.
0.76621 0.00468063 0.
0.779915 0.00425518 0.
0.796825 0.00890076 0.
0.401734 0.00950774 0.
0.417625 0.00566293 0.
0.430413 0.00492649 0.
0.443555 0.00597198 0.
0.453708 0.00865907 0.
0.461563 0.0114681 0.
0.468438 0.0141781 0.
0.474838 0.0170045 0.
0.479961 0.0198262 0.
0.485323 0.0227369 0.
0.489998 0.0254065 0.
0.494999 0.0280943 0.
0.499551 0.0306458 0.
0.504203 0.0332935 0.
0.508222 0.0359684 0.
0.512199 0.0385411 0.
0.516106 0.0409381 0.
0.520226 0.0431455 0.
0.524104 0.0450542 0.
0.527784 0.0469593 0.
0.531315 0.0488177 0.
0.534687 0.0502185 0.
0.53803 0.0514274 0.
0.541095 0.052439 0.
0.544157 0.0533389 0.
0.546807 0.0539937 0.
0.549455 0.0546703 0.
0.551926 0.0550718 0.
0.554393 0.0554813 0.
0.556701 0.0557636 0.
0.558925 0.0560242 0.
0.561145 0.0562717 0.
0.563286 0.0563739 0.
0.565431 0.0564776 0.
0.567548 0.0565704 0.
0.569635 0.0566546 0.
0.571722 0.0567398 0.
0.573773 0.0567906 0.
0.575816 0.0568335 0.
0.577857 0.0568748 0.
0.579881 0.0568903 0.
0.581904 0.0569058 0.
0.583925 0.0569204 0.
0.585941 0.0569331 0.
0.587957 0.0569458 0.
0.589968 0.0569553 0.
0.591977 0.0569622 0.
0.593985 0.056969 0.
0.595991 0.0569718 0.
0.597996 0.0569734 0.
0.600002 0.056975 0.
0.602008 0.0569713 0.
0.604014 0.0569676 0.
0.606022 0.0569628 0.
0.608032 0.0569543 0.
0.610042 0.0569457 0.
0.612056 0.0569338 0.
0.614075 0.0569179 0.
0.616094 0.0569021 0.
0.618119 0.056885 0.
0.620147 0.0568672 0.
0.622174 0.0568495 0.
0.62423 0.0567957 0.
0.626286 0.0567404 0.
0.628353 0.0566743 0.
0.63046 0.0565671 0.
0.632566 0.0564609 0.
0.634704 0.056349 0.
0.636865 0.0562301 0.
0.639024 0.0561115 0.
0.641323 0.0557744 0.
0.643617 0.0554347 0.
0.646019 0.0550881 0.
0.64853 0.0546509 0.
0.65113 0.054117 0.
0.653995 0.0531714 0.
0.656869 0.0522725 0.
0.660101 0.0512773 0.
0.663378 0.0501184 0.
0.666829 0.0485014 0.
0.670508 0.0468568 0.
0.674153 0.0451342 0.
0.678008 0.0431206 0.
0.68199 0.040773 0.
0.685814 0.0382841 0.
0.689991 0.0356385 0.
0.694281 0.0330762 0.
0.698895 0.0304714 0.
0.703393 0.0279253 0.
0.708067 0.0252757 0.
0.712787 0.0226941 0.
0.71819 0.0198351 0.
0.723353 0.017051 0.
0.729579 0.0142462 0.
0.736338 0.0114528 0.
0.744336 0.00858881 0.
0.755198 0.00634211 0.
0.76736 0.00504885 0.
0.780263 0.00467415 0.
0.796059 0.00931815 0.
0.40269 0.00987114 0.
0.417667 0.00611059 0.
0.429813 0.00535571 0.
0.442492 0.00621399 0.
0.452418 0.00881739 0.
0.460153 0.011543 0.
0.467056 0.0143355 0.
0.473409 0.0170901 0.
0.478487 0.0198641 0.
0.483851 0.0227954 0.
0.488533 0.0254773 0.
0.493463 0.0281741 0.
0.498 0.0307039 0.
0.502601 0.033334 0.
0.506623 0.0359761 0.
0.510543 0.0385769 0.
0.514506 0.0410688 0.
0.518567 0.043361 0.
0.522477 0.0453866 0.
0.526354 0.0474235 0.
0.529952 0.0493974 0.
0.533477 0.0510302 0.
0.536955 0.052446 0.
0.540287 0.0536864 0.
0.543508 0.0547319 0.
0.546221 0.0554264 0.
0.548961 0.0561307 0.
0.551519 0.0566433 0.
0.554024 0.0571583 0.
0.556402 0.0575283 0.
0.558673 0.0578324 0.
0.560945 0.0581288 0.
0.563126 0.0582496 0.
0.565311 0.0583705 0.
0.567461 0.0584807 0.
0.569562 0.058581 0.
0.571664 0.0586824 0.
0.573727 0.0587452 0.
0.57578 0.0587982 0.
0.577832 0.0588494 0.
0.579859 0.0588673 0.
0.581886 0.0588854 0.
0.58391 0.0589026 0.
0.585929 0.0589184 0.
0.587948 0.0589342 0.
0.589962 0.058946 0.
0.591972 0.0589543 0.
0.593982 0.0589627 0.
0.595989 0.0589662 0.
0.597995 0.0589682 0.
0.600002 0.0589703 0.
0.602009 0.0589656 0.
0.604017 0.058961 0.
0.606026 0.0589551 0.
0.608038 0.0589445 0.
0.610051 0.0589339 0.
0.612068 0.0589194 0.
0.61409 0.0589001 0.
0.616113 0.0588808 0.
0.618141 0.0588609 0.
0.620173 0.0588406 0.
0.622204 0.0588203 0.
0.624274 0.0587516 0.
0.626345 0.0586815 0.
0.628429 0.0585995 0.
0.630553 0.058476 0.
0.632676 0.0583538 0.
0.634852 0.0582189 0.
0.637058 0.058075 0.
0.639273 0.0579206 0.
0.641627 0.0575231 0.
0.64397 0.057128 0.
0.646509 0.0566692 0.
0.649113 0.0561328 0.
0.651834 0.0554633 0.
0.654709 0.0545118 0.
0.657809 0.0534577 0.
0.661132 0.0522738 0.
0.664603 0.0507788 0.
0.668118 0.0491132 0.
0.6719 0.0474274 0.
0.675655 0.0455137 0.
0.679493 0.0433854 0.
0.683498 0.0409241 0.
0.687372 0.0383535 0.
0.691533 0.0357087 0.
0.695835 0.0331428 0.
0.700413 0.0305614 0.
0.704889 0.0280292 0.
0.709546 0.0253899 0.
0.714254 0.0227804 0.
0.719674 0.0198788 0.
0.724778 0.0171486 0.
0.730969 0.0143289 0.
0.737759 0.0115751 0.
0.745628 0.00870535 0.
0.756211 0.00657629 0.
0.768157 0.00549777 0.
0.780261 0.00511612 0.
0.795032 0.0095976 0.
0.403941 0.0100889 0.
0.417852 0.00655473 0.
0.429348 0.00583118 0.
0.441619 0.00650115 0.
0.451239 0.00900616 0.
0.458842 0.0116475 0.
0.46572 0.0145039 0.
0.472014 0.0172044 0.
0.477081 0.0199303 0.
0.482397 0.0228581 0.
0.487092 0.0255751 0.
0.49197 0.028257 0.
0.496487 0.0307825 0.
0.500995 0.0333791 0.
0.505037 0.0359673 0.
0.508935 0.0386171 0.
0.512875 0.0411462 0.
0.516857 0.0434962 0.
0.520829 0.0456415 0.
0.524788 0.0477176 0.
0.528473 0.0498499 0.
0.532147 0.0517002 0.
0.535773 0.053325 0.
0.539351 0.0548007 0.
0.542488 0.0558588 0.
0.545482 0.0567542 0.
0.548403 0.057549 0.
0.551106 0.0581939 0.
0.553651 0.0588142 0.
0.5561 0.059288 0.
0.558418 0.0596351 0.
0.56074 0.0599758 0.
0.562963 0.0601145 0.
0.565185 0.0602529 0.
0.567367 0.0603835 0.
0.569481 0.0604985 0.
0.571597 0.0606146 0.
0.573673 0.0606911 0.
0.575738 0.0607568 0.
0.577803 0.060821 0.
0.579833 0.0608414 0.
0.581863 0.0608618 0.
0.583891 0.0608816 0.
0.585913 0.0609008 0.
0.587935 0.0609199 0.
0.589952 0.0609343 0.
0.591965 0.0609445 0.
0.593977 0.0609547 0.
0.595986 0.0609589 0.
0.597994 0.0609614 0.
0.600002 0.0609639 0.
0.602012 0.0609582 0.
0.604021 0.0609525 0.
0.606032 0.0609452 0.
0.608047 0.0609323 0.
0.610063 0.0609194 0.
0.612083 0.060902 0.
0.614109 0.0608792 0.
0.616135 0.0608565 0.
0.618168 0.0608329 0.
0.620204 0.0608089 0.
0.62224 0.0607849 0.
0.624327 0.0606987 0.
0.626413 0.0606118 0.
0.628513 0.0605133 0.
0.630653 0.0603758 0.
0.63279 0.0602396 0.
0.635005 0.0600792 0.
0.637254 0.059913 0.
0.639528 0.0597204 0.
0.641936 0.0592643 0.
0.644328 0.0588139 0.
0.647034 0.0582201 0.
0.649759 0.0575651 0.
0.652709 0.0566631 0.
0.655668 0.0556026 0.
0.658853 0.0544484 0.
0.662247 0.0531221 0.
0.66588 0.051385 0.
0.669545 0.0496562 0.
0.673358 0.0478789 0.
0.677189 0.0458144 0.
0.681065 0.0435442 0.
0.685035 0.0410131 0.
0.688925 0.0383995 0.
0.693082 0.0357718 0.
0.69737 0.0332197 0.
0.70191 0.0306641 0.
0.706329 0.0281531 0.
0.710998 0.0255151 0.
0.715662 0.0228759 0.
0.721096 0.0199594 0.
0.726168 0.0172663 0.
0.732295 0.0144423 0.
0.739104 0.0117144 0.
0.746828 0.00887924 0.
0.757059 0.00685169 0.
0.768742 0.00600111 0.
0.780127 0.00558317 0.
0.793845 0.00969908 0.
0.405221 0.0101968 0.
0.418092 0.00700103 0.
0.429021 0.00632871 0.
0.44086 0.00681289 0.
0.450197 0.00923574 0.
0.457617 0.0117969 0.
0.464441 0.014664 0.
0.470651 0.0173419 0.
0.475707 0.0200286 0.
0.480975 0.0229301 0.
0.48566 0.025672 0.
0.490469 0.0283406 0.
0.494983 0.0308723 0.
0.499412 0.0334301 0.
0.503466 0.0359845 0.
0.507329 0.0386448 0.
0.511221 0.0411798 0.
0.515173 0.0435909 0.
0.519154 0.0458126 0.
0.52314 0.047939 0.
0.526946 0.0501982 0.
0.530705 0.0521969 0.
0.53445 0.0540212 0.
0.53808 0.0555983 0.
0.541357 0.0568658 0.
0.544691 0.0580588 0.
0.547794 0.0589363 0.
0.55068 0.0597011 0.
0.553195 0.0603786 0.
0.555735 0.0609528 0.
0.558111 0.0613318 0.
0.560512 0.061712 0.
0.562782 0.0619045 0.
0.565039 0.0620948 0.
0.567253 0.0622684 0.
0.569382 0.0623981 0.
0.571512 0.062529 0.
0.573605 0.0626231 0.
0.575687 0.0627067 0.
0.577768 0.0627891 0.
0.579803 0.0628118 0.
0.581837 0.0628345 0.
0.583868 0.062857 0.
0.585894 0.0628798 0.
0.587919 0.0629027 0.
0.589939 0.06292 0.
0.591955 0.0629325 0.
0.593971 0.0629449 0.
0.595982 0.06295 0.
0.597992 0.0629528 0.
0.600003 0.0629557 0.
0.602015 0.0629488 0.
0.604027 0.0629419 0.
0.60604 0.062933 0.
0.608059 0.0629174 0.
0.610078 0.0629018 0.
0.612102 0.0628812 0.
0.614132 0.0628549 0.
0.616161 0.0628286 0.
0.6182 0.0628 0.
0.620243 0.0627704 0.
0.622286 0.0627403 0.
0.624392 0.0626318 0.
0.626498 0.0625229 0.
0.628618 0.062404 0.
0.630773 0.0622521 0.
0.632927 0.0621015 0.
0.635211 0.061874 0.
0.637529 0.0616321 0.
0.63989 0.0613638 0.
0.642366 0.0608822 0.
0.6448 0.0604065 0.
0.647599 0.0597148 0.
0.650442 0.0589496 0.
0.653636 0.0578107 0.
0.656767 0.0566024 0.
0.660092 0.055262 0.
0.663499 0.0537649 0.
0.667224 0.0519262 0.
0.671059 0.0501277 0.
0.674909 0.0482116 0.
0.678743 0.0460403 0.
0.682661 0.043641 0.
0.686589 0.0410598 0.
0.690497 0.0384345 0.
0.694641 0.0358204 0.
0.69892 0.033296 0.
0.703412 0.0307734 0.
0.707762 0.028286 0.
0.712429 0.0256466 0.
0.71704 0.0229817 0.
0.722435 0.0200802 0.
0.727508 0.0174134 0.
0.733565 0.0145887 0.
0.74037 0.0118621 0.
0.747937 0.00910581 0.
0.757789 0.00715803 0.
0.769235 0.00654107 0.
0.779973 0.00608698 0.
0.792589 0.00965723 0.
0.406518 0.0102497 0.
0.418408 0.00745845 0.
0.428931 0.00683025 0.
0.440328 0.00716739 0.
0.449347 0.00953005 0.
0.456509 0.0120112 0.
0.463323 0.0148657 0.
0.469352 0.0175192 0.
0.474376 0.0201622 0.
0.479622 0.0230374 0.
0.484267 0.025785 0.
0.489008 0.0284477 0.
0.493502 0.0309807 0.
0.497867 0.0335113 0.
0.501919 0.0360337 0.
0.505752 0.0386619 0.
0.509603 0.0412161 0.
0.513493 0.0436593 0.
0.517459 0.0459367 0.
0.521484 0.0481262 0.
0.525384 0.0504066 0.
0.529186 0.0525491 0.
0.533018 0.0545715 0.
0.536626 0.056221 0.
0.540131 0.0577424 0.
0.543758 0.0592462 0.
0.546894 0.0601635 0.
0.5499 0.0610641 0.
0.552554 0.0618437 0.
0.555317 0.0625772 0.
0.55778 0.0630099 0.
0.560271 0.0634431 0.
0.562597 0.0636886 0.
0.564889 0.0639316 0.
0.567139 0.0641528 0.
0.569281 0.0642972 0.
0.571425 0.0644429 0.
0.573536 0.0645545 0.
0.575635 0.0646561 0.
0.577734 0.0647569 0.
0.579772 0.0647821 0.
0.58181 0.0648071 0.
0.583846 0.0648323 0.
0.585875 0.0648589 0.
0.587903 0.0648855 0.
0.589927 0.0649058 0.
0.591945 0.0649204 0.
0.593964 0.0649351 0.
0.595978 0.064941 0.
0.597991 0.0649443 0.
0.600003 0.0649475 0.
0.602018 0.0649394 0.
0.604033 0.0649313 0.
0.606049 0.0649208 0.
0.608071 0.0649025 0.
0.610093 0.0648842 0.
0.612121 0.0648605 0.
0.614154 0.0648306 0.
0.616187 0.0648008 0.
0.618233 0.064767 0.
0.620282 0.0647318 0.
0.622333 0.0646951 0.
0.624459 0.0645641 0.
0.626584 0.0644331 0.
0.628723 0.064294 0.
0.630895 0.0641276 0.
0.633066 0.0639627 0.
0.635427 0.0636594 0.
0.637819 0.0633388 0.
0.640298 0.0629819 0.
0.642904 0.0624368 0.
0.645532 0.0618375 0.
0.648468 0.0609626 0.
0.651389 0.0600875 0.
0.654655 0.0588656 0.
0.65798 0.0574799 0.
0.661413 0.0559906 0.
0.664955 0.0542621 0.
0.668689 0.0523798 0.
0.672616 0.0505228 0.
0.676498 0.0484706 0.
0.680326 0.0461933 0.
0.684243 0.0437101 0.
0.688136 0.0410896 0.
0.692063 0.0384762 0.
0.696184 0.0358876 0.
0.700448 0.0333902 0.
0.704884 0.030903 0.
0.709189 0.0284345 0.
0.713807 0.0257951 0.
0.718372 0.0231089 0.
0.723693 0.0202447 0.
0.728761 0.0176037 0.
0.734732 0.0147876 0.
0.741468 0.0120656 0.
0.748828 0.00940485 0.
0.758336 0.00750189 0.
0.769506 0.00709763 0.
0.779639 0.00662602 0.
0.791254 0.00951916 0.
0.407829 0.010322 0.
0.418831 0.0079175 0.
0.42908 0.00734197 0.
0.440031 0.00757024 0.
0.448622 0.00987321 0.
0.45556 0.0122907 0.
0.462311 0.0151105 0.
0.46812 0.0177445 0.
0.473149 0.0203512 0.
0.478358 0.0231956 0.
0.482934 0.0259311 0.
0.487606 0.0285966 0.
0.492057 0.0311076 0.
0.496355 0.0336202 0.
0.500411 0.0361143 0.
0.504227 0.0387054 0.
0.508019 0.0412626 0.
0.511867 0.0437296 0.
0.515822 0.0460553 0.
0.519834 0.0482894 0.
0.523782 0.0505415 0.
0.527629 0.0528349 0.
0.531453 0.054945 0.
0.535123 0.0567369 0.
0.538811 0.0584413 0.
0.542431 0.0600087 0.
0.545716 0.0611762 0.
0.548936 0.0623325 0.
0.551838 0.0632703 0.
0.554824 0.0641637 0.
0.557412 0.0646652 0.
0.559945 0.0651236 0.
0.562331 0.0654244 0.
0.564659 0.0657249 0.
0.566964 0.0660068 0.
0.569125 0.0661602 0.
0.571291 0.0663149 0.
0.573424 0.0664451 0.
0.575541 0.0665693 0.
0.577659 0.0666938 0.
0.579712 0.0667298 0.
0.581764 0.0667645 0.
0.583812 0.0667978 0.
0.585845 0.0668277 0.
0.587878 0.0668576 0.
0.589906 0.066881 0.
0.591929 0.0668985 0.
0.593952 0.0669161 0.
0.595971 0.0669232 0.
0.597988 0.0669271 0.
0.600005 0.066931 0.
0.602024 0.066921 0.
0.604043 0.066911 0.
0.606064 0.0668983 0.
0.608092 0.0668768 0.
0.610119 0.0668553 0.
0.612152 0.066828 0.
0.614191 0.0667944 0.
0.616229 0.0667609 0.
0.61829 0.0667155 0.
0.620357 0.0666667 0.
0.622427 0.066614 0.
0.624575 0.0664566 0.
0.62672 0.0663006 0.
0.628884 0.0661427 0.
0.631079 0.0659682 0.
0.633268 0.0657952 0.
0.635708 0.0654018 0.
0.638158 0.0650097 0.
0.640763 0.0645688 0.
0.64349 0.063969 0.
0.646343 0.0631991 0.
0.649414 0.0621308 0.
0.65257 0.0610101 0.
0.655851 0.0597325 0.
0.659307 0.0582239 0.
0.662851 0.0565574 0.
0.666498 0.0546833 0.
0.670261 0.0527602 0.
0.674199 0.0508208 0.
0.678112 0.0486637 0.
0.68192 0.0462876 0.
0.685802 0.0437705 0.
0.689663 0.0411268 0.
0.693591 0.038539 0.
0.697695 0.0359751 0.
0.701932 0.0335214 0.
0.706309 0.0310614 0.
0.710578 0.0286072 0.
0.715121 0.0259685 0.
0.719638 0.0232754 0.
0.724878 0.020457 0.
0.729923 0.0178335 0.
0.735739 0.0150504 0.
0.742404 0.012339 0.
0.749522 0.0097666 0.
0.758685 0.00788639 0.
0.769542 0.00765195 0.
0.779196 0.00719611 0.
0.789928 0.00941326 0.
0.409167 0.010479 0.
0.419445 0.0083535 0.
0.429429 0.00785397 0.
0.439873 0.0080128 0.
0.447999 0.0102629 0.
0.454786 0.0126372 0.
0.461363 0.0153976 0.
0.466973 0.0180217 0.
0.472046 0.0206021 0.
0.477176 0.0234065 0.
0.481655 0.026112 0.
0.486255 0.0287794 0.
0.490646 0.0312664 0.
0.494905 0.0337684 0.
0.498949 0.0362382 0.
0.502726 0.0387876 0.
0.506482 0.041331 0.
0.51029 0.0438127 0.
0.514209 0.0461637 0.
0.518191 0.0484307 0.
0.522164 0.050652 0.
0.526034 0.0530231 0.
0.529835 0.0552118 0.
0.533594 0.0571728 0.
0.537312 0.0589527 0.
0.540945 0.0605713 0.
0.544465 0.0620773 0.
0.547818 0.0634345 0.
0.551002 0.0645859 0.
0.553999 0.0654842 0.
0.556728 0.06611 0.
0.559383 0.0666768 0.
0.561934 0.0670933 0.
0.564348 0.0674738 0.
0.56675 0.0678426 0.
0.568943 0.0680078 0.
0.571141 0.0681743 0.
0.573301 0.0683255 0.
0.575439 0.0684755 0.
0.577578 0.0686262 0.
0.579648 0.068675 0.
0.581716 0.0687204 0.
0.583777 0.0687629 0.
0.585814 0.0687961 0.
0.587852 0.0688293 0.
0.589884 0.0688559 0.
0.591912 0.0688764 0.
0.59394 0.0688969 0.
0.595963 0.0689052 0.
0.597985 0.0689098 0.
0.600006 0.0689144 0.
0.60203 0.0689025 0.
0.604054 0.0688906 0.
0.60608 0.0688756 0.
0.608112 0.0688507 0.
0.610145 0.0688259 0.
0.612184 0.068795 0.
0.614228 0.0687575 0.
0.616272 0.0687202 0.
0.61835 0.0686618 0.
0.620437 0.0685979 0.
0.62253 0.0685264 0.
0.624704 0.068339 0.
0.626874 0.0681537 0.
0.629073 0.0679738 0.
0.631306 0.0677871 0.
0.633543 0.067594 0.
0.636083 0.0670724 0.
0.638608 0.0665721 0.
0.641404 0.0659949 0.
0.644235 0.0653379 0.
0.647271 0.0643931 0.
0.650429 0.0631994 0.
0.653812 0.061855 0.
0.657222 0.0604375 0.
0.660753 0.0588248 0.
0.66439 0.0569662 0.
0.668093 0.0550196 0.
0.671907 0.0530719 0.
0.675818 0.0510393 0.
0.67972 0.0488069 0.
0.68351 0.0463501 0.
0.687344 0.0438163 0.
0.691167 0.041189 0.
0.69507 0.0386381 0.
0.699147 0.0361033 0.
0.703377 0.0336912 0.
0.707688 0.0312551 0.
0.711933 0.028809 0.
0.71637 0.0261768 0.
0.720837 0.0234852 0.
0.725998 0.0207146 0.
0.731014 0.0181047 0.
0.736624 0.0153685 0.
0.743211 0.0126701 0.
0.750072 0.0101793 0.
0.758831 0.00831239 0.
0.769354 0.0082021 0.
0.778731 0.0077898 0.
0.788632 0.00941962 0.
0.410477 0.0107508 0.
0.42015 0.00879078 0.
0.429842 0.00834644 0.
0.439762 0.00848948 0.
0.447463 0.0107008 0.
0.454114 0.0130358 0.
0.460486 0.0157296 0.
0.465912 0.0183492 0.
0.471033 0.020905 0.
0.476039 0.0236585 0.
0.480429 0.026327 0.
0.484946 0.0289794 0.
0.489262 0.0314461 0.
0.493479 0.0339355 0.
0.497489 0.036379 0.
0.501243 0.0388926 0.
0.504981 0.041413 0.
0.508721 0.0439003 0.
0.512607 0.0462687 0.
0.516566 0.0485554 0.
0.520532 0.0507727 0.
0.524415 0.0531349 0.
0.528222 0.0554195 0.
0.531994 0.0575175 0.
0.535723 0.0593624 0.
0.539433 0.0610643 0.
0.543075 0.0627685 0.
0.546541 0.0642871 0.
0.549886 0.0656086 0.
0.552964 0.0666308 0.
0.555961 0.067503 0.
0.558768 0.0681937 0.
0.561521 0.0687471 0.
0.564023 0.0692089 0.
0.566533 0.0696745 0.
0.568759 0.0698516 0.
0.570985 0.0700259 0.
0.573175 0.0701968 0.
0.575331 0.0703703 0.
0.57749 0.0705447 0.
0.579578 0.0706097 0.
0.581662 0.0706693 0.
0.583736 0.070724 0.
0.585779 0.0707603 0.
0.587822 0.0707967 0.
0.58986 0.0708263 0.
0.591893 0.0708497 0.
0.593926 0.0708731 0.
0.595955 0.0708827 0.
0.597981 0.070888 0.
0.600008 0.0708933 0.
0.602037 0.0708795 0.
0.604066 0.0708656 0.
0.606098 0.0708482 0.
0.608136 0.0708199 0.
0.610175 0.0707916 0.
0.61222 0.070757 0.
0.614271 0.070716 0.
0.616322 0.070675 0.
0.618417 0.0705997 0.
0.620522 0.0705172 0.
0.622639 0.0704238 0.
0.624837 0.0702105 0.
0.62703 0.07 0.
0.629264 0.0698011 0.
0.631535 0.0696034 0.
0.633842 0.0693666 0.
0.636473 0.0687212 0.
0.639077 0.0681106 0.
0.642119 0.0673649 0.
0.645144 0.0665562 0.
0.648405 0.0653382 0.
0.651635 0.0640604 0.
0.655135 0.0625927 0.
0.658689 0.0610254 0.
0.662281 0.059293 0.
0.665984 0.0572788 0.
0.669741 0.0552826 0.
0.673577 0.0533242 0.
0.677453 0.0512062 0.
0.681342 0.0488922 0.
0.685089 0.0464025 0.
0.688883 0.0438581 0.
0.692675 0.0412573 0.
0.696545 0.0387588 0.
0.700566 0.0362648 0.
0.704791 0.0338876 0.
0.709049 0.0314709 0.
0.713255 0.0290335 0.
0.7176 0.0264042 0.
0.72197 0.0237385 0.
0.727044 0.0210134 0.
0.732029 0.0184221 0.
0.737435 0.0157377 0.
0.743872 0.0130587 0.
0.750566 0.0106314 0.
0.758871 0.00877026 0.
0.769004 0.00873076 0.
0.778216 0.00840359 0.
0.787374 0.00960579 0.
0.41176 0.011077 0.
0.420862 0.0092572 0.
0.430293 0.00881349 0.
0.439693 0.00900547 0.
0.447012 0.0111851 0.
0.453521 0.0134794 0.
0.459686 0.0161109 0.
0.464952 0.0187186 0.
0.470056 0.0212427 0.
0.474919 0.0239385 0.
0.479227 0.0265676 0.
0.483648 0.029188 0.
0.48789 0.0316443 0.
0.492054 0.0341027 0.
0.496031 0.036532 0.
0.499767 0.0390102 0.
0.503471 0.0415015 0.
0.507167 0.0439846 0.
0.511016 0.0463669 0.
0.514938 0.0486635 0.
0.518892 0.0508959 0.
0.522811 0.0532157 0.
0.526604 0.0555675 0.
0.530345 0.0577562 0.
0.534103 0.0597123 0.
0.537876 0.0614879 0.
0.541562 0.0632592 0.
0.545143 0.0649547 0.
0.5486 0.0664774 0.
0.551863 0.0677003 0.
0.555126 0.0688318 0.
0.558068 0.0696219 0.
0.560968 0.0702894 0.
0.563499 0.0707895 0.
0.56608 0.0713072 0.
0.568422 0.0715627 0.
0.570758 0.0718104 0.
0.573031 0.0720403 0.
0.575209 0.0722378 0.
0.57739 0.0724367 0.
0.579497 0.0725255 0.
0.581597 0.0726066 0.
0.583687 0.0726797 0.
0.585736 0.0727191 0.
0.587786 0.0727586 0.
0.589831 0.0727913 0.
0.59187 0.0728176 0.
0.59391 0.072844 0.
0.595945 0.072855 0.
0.597978 0.0728612 0.
0.600011 0.0728673 0.
0.602046 0.0728513 0.
0.604081 0.0728353 0.
0.606119 0.0728153 0.
0.608164 0.0727832 0.
0.61021 0.0727511 0.
0.612263 0.0727126 0.
0.614322 0.0726676 0.
0.616381 0.0726228 0.
0.618496 0.0725221 0.
0.620621 0.0724114 0.
0.622763 0.0722863 0.
0.62499 0.0720446 0.
0.627213 0.0718062 0.
0.629532 0.0715528 0.
0.63189 0.0712984 0.
0.63433 0.0709525 0.
0.637001 0.0702454 0.
0.639659 0.0695584 0.
0.642905 0.0686739 0.
0.64619 0.0676301 0.
0.649625 0.0661787 0.
0.653023 0.0647417 0.
0.656555 0.0632227 0.
0.660203 0.0615044 0.
0.663868 0.0596033 0.
0.667615 0.0575326 0.
0.671424 0.0555148 0.
0.675278 0.0535137 0.
0.679095 0.0513308 0.
0.682946 0.0489443 0.
0.686684 0.0464316 0.
0.690428 0.0439031 0.
0.694188 0.0413372 0.
0.698034 0.0388795 0.
0.702003 0.0364331 0.
0.706189 0.0341024 0.
0.710391 0.0317024 0.
0.714552 0.0292664 0.
0.718814 0.0266489 0.
0.723081 0.0240214 0.
0.72802 0.0213533 0.
0.732993 0.0187775 0.
0.738189 0.0161528 0.
0.744391 0.0135097 0.
0.750966 0.011129 0.
0.758834 0.00926875 0.
0.76854 0.00921893 0.
0.777603 0.00904051 0.
0.786131 0.0099773 0.
0.413071 0.0113997 0.
0.421655 0.00975571 0.
0.430874 0.00926961 0.
0.439748 0.00957714 0.
0.446718 0.011737 0.
0.453078 0.0139949 0.
0.458988 0.0165653 0.
0.464118 0.0191483 0.
0.469139 0.0216308 0.
0.473846 0.0242628 0.
0.478073 0.0268494 0.
0.48238 0.0294235 0.
0.486543 0.0318698 0.
0.490655 0.0342956 0.
0.494589 0.0367101 0.
0.498303 0.0391559 0.
0.501975 0.0416178 0.
0.505645 0.0440857 0.
0.509436 0.0464755 0.
0.513329 0.0487783 0.
0.517268 0.0510241 0.
0.521197 0.0532874 0.
0.524972 0.0556621 0.
0.528696 0.0579292 0.
0.532465 0.0600001 0.
0.536261 0.0618502 0.
0.539998 0.0636684 0.
0.543669 0.0655015 0.
0.547205 0.0671596 0.
0.55066 0.0686493 0.
0.554029 0.0699075 0.
0.557065 0.0707952 0.
0.560122 0.071666 0.
0.562836 0.0722888 0.
0.565551 0.0728922 0.
0.568057 0.0732545 0.
0.570512 0.0735833 0.
0.572885 0.0738822 0.
0.575085 0.074104 0.
0.577288 0.0743275 0.
0.579416 0.0744402 0.
0.581532 0.074543 0.
0.583638 0.0746353 0.
0.585694 0.0746779 0.
0.587751 0.0747205 0.
0.589802 0.0747563 0.
0.591848 0.0747855 0.
0.593894 0.0748149 0.
0.595935 0.0748273 0.
0.597974 0.0748344 0.
0.600013 0.0748413 0.
0.602055 0.0748232 0.
0.604096 0.0748051 0.
0.60614 0.0747824 0.
0.608193 0.0747464 0.
0.610245 0.0747105 0.
0.612306 0.074668 0.
0.614374 0.0746192 0.
0.616442 0.0745704 0.
0.618576 0.0744432 0.
0.620721 0.074304 0.
0.622889 0.0741467 0.
0.625147 0.0738763 0.
0.627399 0.0736098 0.
0.629823 0.0732899 0.
0.632293 0.0729622 0.
0.63494 0.0724436 0.
0.637769 0.0716058 0.
0.640684 0.0707368 0.
0.643929 0.0697965 0.
0.647403 0.0685096 0.
0.650943 0.0668982 0.
0.65451 0.0653186 0.
0.658086 0.0637224 0.
0.661768 0.0618982 0.
0.665479 0.0598285 0.
0.669266 0.0577503 0.
0.673108 0.055729 0.
0.676953 0.0536661 0.
0.680758 0.0514066 0.
0.684535 0.0489854 0.
0.688256 0.046466 0.
0.691976 0.0439516 0.
0.695693 0.0414422 0.
0.699508 0.0390233 0.
0.70344 0.0366253 0.
0.70757 0.0343333 0.
0.711698 0.0319638 0.
0.715787 0.0295329 0.
0.719977 0.0269344 0.
0.72416 0.024347 0.
0.728922 0.0217477 0.
0.733855 0.0191945 0.
0.738861 0.0166251 0.
0.744784 0.0140341 0.
0.751206 0.0116911 0.
0.758641 0.00983048 0.
0.767899 0.00966901 0.
0.776848 0.00969924 0.
0.784815 0.0104684 0.
0.414391 0.0117289 0.
0.422544 0.01029 0.
0.431587 0.00970861 0.
0.439936 0.0102161 0.
0.446578 0.0123631 0.
0.452779 0.0145806 0.
0.458389 0.0170914 0.
0.463388 0.0196416 0.
0.468294 0.0220743 0.
0.472839 0.0246412 0.
0.476965 0.0271814 0.
0.481143 0.0296961 0.
0.485241 0.0321283 0.
0.489291 0.0345243 0.
0.493181 0.0369158 0.
0.496867 0.0393318 0.
0.500507 0.0417642 0.
0.504128 0.0441976 0.
0.50788 0.0465952 0.
0.511734 0.0489006 0.
0.515651 0.0511483 0.
0.519566 0.0533811 0.
0.523341 0.0557286 0.
0.527035 0.0580538 0.
0.530812 0.0602082 0.
0.534624 0.062167 0.
0.538393 0.0640095 0.
0.542119 0.0658806 0.
0.54574 0.0677084 0.
0.54932 0.0694296 0.
0.552702 0.0707251 0.
0.555977 0.0718672 0.
0.559166 0.0729403 0.
0.562113 0.0737578 0.
0.564956 0.0744358 0.
0.567633 0.0748985 0.
0.570183 0.0753001 0.
0.57266 0.0756872 0.
0.574879 0.0759228 0.
0.577108 0.0761601 0.
0.579271 0.0763062 0.
0.581421 0.0764442 0.
0.583561 0.0765704 0.
0.585629 0.0766165 0.
0.587697 0.0766629 0.
0.589759 0.076702 0.
0.591814 0.076734 0.
0.593869 0.0767661 0.
0.59592 0.0767798 0.
0.597969 0.0767875 0.
0.600018 0.0767951 0.
0.602069 0.0767752 0.
0.60412 0.0767553 0.
0.606174 0.0767301 0.
0.608236 0.07669 0.
0.610298 0.0766499 0.
0.612372 0.0766021 0.
0.614456 0.0765474 0.
0.616538 0.0764929 0.
0.618708 0.0763259 0.
0.620883 0.0761491 0.
0.623093 0.0759534 0.
0.625386 0.0756629 0.
0.627661 0.0753781 0.
0.63018 0.0749882 0.
0.632738 0.0745973 0.
0.635624 0.0738769 0.
0.638612 0.0729124 0.
0.64185 0.071792 0.
0.645221 0.0706535 0.
0.648789 0.0691428 0.
0.652384 0.067478 0.
0.656047 0.0658222 0.
0.659699 0.0641043 0.
0.66339 0.0621582 0.
0.667116 0.0600135 0.
0.670935 0.0579413 0.
0.674792 0.055917 0.
0.678606 0.0537989 0.
0.68239 0.0514664 0.
0.686131 0.0490188 0.
0.689808 0.0465214 0.
0.693507 0.0440264 0.
0.697198 0.0415748 0.
0.700965 0.0391975 0.
0.704859 0.0368496 0.
0.708922 0.0345923 0.
0.712971 0.0322564 0.
0.716973 0.0298375 0.
0.721072 0.0272745 0.
0.725183 0.024725 0.
0.72976 0.0221925 0.
0.734596 0.0196837 0.
0.739485 0.0171538 0.
0.745092 0.0146176 0.
0.751304 0.0123166 0.
0.758319 0.0104593 0.
0.767049 0.0100872 0.
0.775923 0.0103645 0.
0.783482 0.0110347 0.
0.415728 0.0120838 0.
0.423552 0.0108336 0.
0.432443 0.0101516 0.
0.4402 0.0109238 0.
0.446543 0.0130464 0.
0.452547 0.0152227 0.
0.457879 0.0176847 0.
0.46272 0.0201882 0.
0.467497 0.0225686 0.
0.471875 0.0250692 0.
0.47588 0.0275566 0.
0.479962 0.0300119 0.
0.483987 0.032423 0.
0.48796 0.0347922 0.
0.491804 0.0371468 0.
0.495456 0.0395408 0.
0.499046 0.0419339 0.
0.502636 0.0443359 0.
0.506339 0.0467213 0.
0.51015 0.0490306 0.
0.514039 0.0512741 0.
0.517931 0.0534901 0.
0.521698 0.0557766 0.
0.525381 0.0581339 0.
0.529162 0.0603694 0.
0.532967 0.0624327 0.
0.536756 0.0643101 0.
0.540523 0.0661978 0.
0.544208 0.0681537 0.
0.547825 0.0699696 0.
0.551325 0.0714552 0.
0.554819 0.0728216 0.
0.558116 0.0740516 0.
0.561272 0.0750625 0.
0.564213 0.075767 0.
0.567073 0.0763665 0.
0.569725 0.0769095 0.
0.572353 0.077459 0.
0.574617 0.0777137 0.
0.576892 0.0779704 0.
0.579105 0.0781553 0.
0.581297 0.0783352 0.
0.58348 0.0785022 0.
0.58556 0.0785526 0.
0.58764 0.0786031 0.
0.589713 0.0786461 0.
0.591778 0.078681 0.
0.593844 0.078716 0.
0.595904 0.0787311 0.
0.597963 0.0787395 0.
0.600022 0.0787477 0.
0.602083 0.078726 0.
0.604144 0.0787043 0.
0.606208 0.0786763 0.
0.608281 0.0786316 0.
0.610353 0.078587 0.
0.612443 0.078533 0.
0.614544 0.0784713 0.
0.616644 0.0784098 0.
0.618859 0.0781941 0.
0.621075 0.0779714 0.
0.623351 0.077728 0.
0.625714 0.077407 0.
0.628073 0.0770849 0.
0.630791 0.0765275 0.
0.633452 0.0760184 0.
0.636495 0.0750846 0.
0.639551 0.0740875 0.
0.64308 0.0727265 0.
0.64663 0.0713197 0.
0.650249 0.0696609 0.
0.653928 0.0679469 0.
0.65764 0.0662499 0.
0.661329 0.0644252 0.
0.665038 0.0623408 0.
0.668778 0.0601853 0.
0.672615 0.058126 0.
0.67647 0.0560773 0.
0.680259 0.0538956 0.
0.683995 0.05152 0.
0.687709 0.0490647 0.
0.691364 0.0465889 0.
0.695026 0.0441307 0.
0.698687 0.0417334 0.
0.702409 0.0393949 0.
0.706253 0.0371086 0.
0.710243 0.0348821 0.
0.714215 0.032575 0.
0.718133 0.0301755 0.
0.722114 0.0276658 0.
0.726142 0.0251585 0.
0.730548 0.0226847 0.
0.735245 0.0202363 0.
0.740038 0.0177448 0.
0.745325 0.0152604 0.
0.75131 0.0130004 0.
0.757934 0.0111469 0.
0.766052 0.0105003 0.
0.774808 0.0110202 0.
0.7822 0.0116396 0.
0.417062 0.0124858 0.
0.424677 0.0113631 0.
0.43335 0.0106346 0.
0.440483 0.011686 0.
0.446584 0.0137749 0.
0.452341 0.0159174 0.
0.457406 0.0183291 0.
0.462112 0.0207807 0.
0.466716 0.0231059 0.
0.470912 0.0255309 0.
0.474801 0.0279607 0.
0.478802 0.0303601 0.
0.482751 0.0327405 0.
0.486638 0.0350783 0.
0.490422 0.0373936 0.
0.494032 0.0397588 0.
0.497578 0.0421156 0.
0.501146 0.0444863 0.
0.504815 0.0468551 0.
0.508581 0.0491721 0.
0.51242 0.0514048 0.
0.516287 0.0536101 0.
0.52007 0.0558495 0.
0.523751 0.0581944 0.
0.527518 0.0604997 0.
0.531309 0.0626444 0.
0.535108 0.0645972 0.
0.538901 0.0664758 0.
0.542637 0.0684738 0.
0.546301 0.0703904 0.
0.549913 0.072103 0.
0.5535 0.0735891 0.
0.556919 0.0749365 0.
0.560256 0.0761999 0.
0.563385 0.0770354 0.
0.56648 0.0777919 0.
0.56924 0.0784809 0.
0.572035 0.0792224 0.
0.574352 0.0795002 0.
0.576673 0.0797739 0.
0.578935 0.0799925 0.
0.581167 0.0802135 0.
0.583394 0.0804268 0.
0.585487 0.0804815 0.
0.58758 0.0805364 0.
0.589666 0.0805832 0.
0.591741 0.0806208 0.
0.593816 0.0806585 0.
0.595887 0.0806747 0.
0.597957 0.0806836 0.
0.600027 0.0806922 0.
0.602099 0.080669 0.
0.604171 0.0806458 0.
0.606245 0.0806153 0.
0.608328 0.0805665 0.
0.61041 0.0805178 0.
0.612517 0.0804558 0.
0.614636 0.0803851 0.
0.616756 0.0803135 0.
0.619015 0.0800496 0.
0.621269 0.0797849 0.
0.623618 0.0794956 0.
0.626053 0.0791446 0.
0.628554 0.0787508 0.
0.631458 0.0780209 0.
0.634352 0.0772677 0.
0.637589 0.0760683 0.
0.640818 0.0749056 0.
0.644396 0.0734945 0.
0.648073 0.0718589 0.
0.651741 0.0701006 0.
0.655501 0.0683624 0.
0.659253 0.0665953 0.
0.662956 0.0646578 0.
0.666665 0.062492 0.
0.670448 0.0603486 0.
0.674306 0.058303 0.
0.678141 0.0562199 0.
0.681898 0.0539682 0.
0.685601 0.0515682 0.
0.689279 0.0491195 0.
0.692914 0.046667 0.
0.696555 0.0442526 0.
0.700187 0.0419055 0.
0.703855 0.039612 0.
0.707646 0.0373808 0.
0.711562 0.0351898 0.
0.715458 0.0329067 0.
0.719287 0.0305323 0.
0.723147 0.0280865 0.
0.727075 0.0256331 0.
0.731325 0.0232188 0.
0.735857 0.0208367 0.
0.740512 0.0183897 0.
0.745545 0.0159507 0.
0.751263 0.0137296 0.
0.757557 0.0118814 0.
0.765041 0.0109441 0.
0.773571 0.0116364 0.
0.780969 0.0122463 0.
0.418416 0.0129247 0.
0.425921 0.0118508 0.
0.434204 0.0111924 0.
0.440779 0.0124945 0.
0.44667 0.0145529 0.
0.452146 0.016659 0.
0.456946 0.0190112 0.
0.46151 0.021405 0.
0.465901 0.0236646 0.
0.469917 0.0260046 0.
0.473719 0.0283862 0.
0.477621 0.0307256 0.
0.481481 0.0330571 0.
0.485284 0.035366 0.
0.488998 0.037641 0.
0.492569 0.0399591 0.
0.496088 0.042294 0.
0.49964 0.0446407 0.
0.503287 0.0469945 0.
0.507006 0.0493077 0.
0.510797 0.0515353 0.
0.514642 0.0537293 0.
0.518434 0.0559404 0.
0.52213 0.0582506 0.
0.525892 0.0606086 0.
0.529669 0.0628175 0.
0.533461 0.064854 0.
0.537276 0.0667402 0.
0.541064 0.0687257 0.
0.544773 0.0707468 0.
0.548426 0.0726228 0.
0.552074 0.0742214 0.
0.555644 0.0757083 0.
0.559108 0.0771801 0.
0.562489 0.0782481 0.
0.565808 0.0791341 0.
0.568645 0.0799287 0.
0.571468 0.080763 0.
0.573938 0.0811423 0.
0.576385 0.0814706 0.
0.578751 0.081764 0.
0.581021 0.0820506 0.
0.583293 0.0823348 0.
0.585403 0.0823958 0.
0.587514 0.082457 0.
0.589615 0.0825088 0.
0.5917 0.0825491 0.
0.593786 0.0825895 0.
0.595869 0.0826068 0.
0.597951 0.0826159 0.
0.600033 0.0826247 0.
0.602117 0.0826001 0.
0.604202 0.0825754 0.
0.606288 0.0825425 0.
0.60838 0.0824897 0.
0.610472 0.0824371 0.
0.612599 0.0823601 0.
0.614742 0.0822703 0.
0.616896 0.0821708 0.
0.619233 0.0818273 0.
0.621551 0.0814923 0.
0.624021 0.0811278 0.
0.626551 0.0807377 0.
0.629217 0.0802407 0.
0.632196 0.0794295 0.
0.635363 0.0783575 0.
0.638749 0.0769555 0.
0.642223 0.0755612 0.
0.645832 0.0740803 0.
0.649558 0.0723036 0.
0.653285 0.0704905 0.
0.657085 0.0687439 0.
0.660856 0.0668987 0.
0.664565 0.0648414 0.
0.668288 0.0626394 0.
0.672096 0.0605207 0.
0.675969 0.0584741 0.
0.679807 0.056337 0.
0.683541 0.0540245 0.
0.687212 0.0516161 0.
0.690867 0.0491778 0.
0.694472 0.0467566 0.
0.698097 0.0443869 0.
0.701714 0.042077 0.
0.70534 0.0398374 0.
0.709069 0.0376581 0.
0.712908 0.0354986 0.
0.716712 0.0332419 0.
0.720467 0.0308979 0.
0.724226 0.0285159 0.
0.728027 0.0261291 0.
0.732117 0.0237797 0.
0.736463 0.0214727 0.
0.740943 0.0190814 0.
0.745767 0.0166871 0.
0.751185 0.0145065 0.
0.757172 0.0126658 0.
0.764083 0.0114621 0.
0.772286 0.0121925 0.
0.779701 0.0128484 0.
0.419848 0.0133786 0.
0.427314 0.0122893 0.
0.435043 0.011851 0.
0.441175 0.0133779 0.
0.44683 0.015396 0.
0.451962 0.0174546 0.
0.456551 0.0197521 0.
0.460901 0.0220723 0.
0.465057 0.0242537 0.
0.468929 0.026515 0.
0.472648 0.0288458 0.
0.476431 0.0311177 0.
0.480192 0.0333849 0.
0.483908 0.0356612 0.
0.487549 0.0379005 0.
0.491105 0.0401751 0.
0.494609 0.0424941 0.
0.498142 0.0448135 0.
0.501759 0.0471478 0.
0.505433 0.0494459 0.
0.509197 0.051682 0.
0.51302 0.0538681 0.
0.51682 0.0560625 0.
0.520542 0.0583362 0.
0.524288 0.0606992 0.
0.528059 0.0629697 0.
0.531835 0.0650832 0.
0.535658 0.0670125 0.
0.539483 0.068958 0.
0.54323 0.0710441 0.
0.546902 0.0730203 0.
0.550579 0.0747523 0.
0.554277 0.0763506 0.
0.557834 0.0779899 0.
0.561422 0.0793287 0.
0.564781 0.0802383 0.
0.567785 0.0811464 0.
0.57073 0.0821497 0.
0.573446 0.0827381 0.
0.576062 0.0831487 0.
0.578562 0.0835291 0.
0.580871 0.0838821 0.
0.583186 0.0842376 0.
0.585318 0.0843098 0.
0.587447 0.0843773 0.
0.589564 0.0844344 0.
0.591659 0.0844774 0.
0.593755 0.0845205 0.
0.59585 0.0845388 0.
0.597944 0.0845482 0.
0.600038 0.0845572 0.
0.602136 0.0845311 0.
0.604233 0.0845051 0.
0.606331 0.0844696 0.
0.608433 0.0844129 0.
0.610534 0.0843563 0.
0.612682 0.0842632 0.
0.614849 0.0841539 0.
0.617044 0.0840207 0.
0.619461 0.0835962 0.
0.621853 0.0831848 0.
0.624505 0.0827134 0.
0.627201 0.0822366 0.
0.630151 0.0815028 0.
0.633203 0.0805559 0.
0.63655 0.0792096 0.
0.640045 0.0776901 0.
0.643681 0.0761481 0.
0.647345 0.0745154 0.
0.651075 0.0726788 0.
0.65485 0.0708525 0.
0.658668 0.0690692 0.
0.662453 0.0671474 0.
0.666158 0.0649994 0.
0.669891 0.0628118 0.
0.673712 0.0607135 0.
0.67759 0.0586466 0.
0.681428 0.056443 0.
0.685159 0.0540839 0.
0.688815 0.0516712 0.
0.692443 0.0492558 0.
0.696026 0.0468712 0.
0.699629 0.0445472 0.
0.703239 0.0422682 0.
0.706841 0.0400809 0.
0.710507 0.0379529 0.
0.714258 0.0358233 0.
0.717976 0.0335919 0.
0.721657 0.0312842 0.
0.725321 0.028969 0.
0.728991 0.0266539 0.
0.732905 0.0243778 0.
0.737057 0.0221487 0.
0.741341 0.0198311 0.
0.745935 0.0174919 0.
0.751052 0.0153485 0.
0.75674 0.0135177 0.
0.763124 0.0120914 0.
0.770864 0.0126766 0.
0.778277 0.0134262 0.
0.421432 0.0138194 0.
0.428833 0.0127127 0.
0.435923 0.0126374 0.
0.441668 0.0143427 0.
0.447009 0.0162984 0.
0.451805 0.0183167 0.
0.456171 0.0205482 0.
0.460267 0.0227776 0.
0.464208 0.0248822 0.
0.467959 0.0270721 0.
0.471575 0.0293373 0.
0.475238 0.0315405 0.
0.478911 0.0337448 0.
0.482535 0.0359777 0.
0.486105 0.0381846 0.
0.489654 0.040419 0.
0.493149 0.0427129 0.
0.496665 0.0450122 0.
0.500245 0.0473179 0.
0.503887 0.0495999 0.
0.507619 0.0518436 0.
0.511428 0.0540288 0.
0.515229 0.056209 0.
0.518962 0.0584456 0.
0.522702 0.0607826 0.
0.526458 0.0631084 0.
0.530221 0.0652816 0.
0.534044 0.0672776 0.
0.537892 0.0691844 0.
0.541668 0.0712642 0.
0.545357 0.0733317 0.
0.54906 0.0752037 0.
0.552831 0.0768805 0.
0.556483 0.0786171 0.
0.560155 0.0801822 0.
0.563602 0.0812052 0.
0.566864 0.0822902 0.
0.569923 0.0834543 0.
0.572887 0.0842989 0.
0.575655 0.0847839 0.
0.578286 0.0852478 0.
0.58062 0.0856494 0.
0.582987 0.08606 0.
0.585174 0.0861691 0.
0.587346 0.08626 0.
0.5895 0.0863351 0.
0.591609 0.086379 0.
0.593719 0.0864228 0.
0.595828 0.0864412 0.
0.597937 0.0864501 0.
0.600046 0.0864585 0.
0.602158 0.0864315 0.
0.60427 0.0864045 0.
0.606384 0.0863677 0.
0.6085 0.0863096 0.
0.610616 0.0862515 0.
0.612811 0.0861267 0.
0.615026 0.0859814 0.
0.617295 0.0857885 0.
0.619775 0.0852999 0.
0.622209 0.0848425 0.
0.625064 0.0842614 0.
0.627923 0.0836974 0.
0.631164 0.082676 0.
0.634368 0.0814992 0.
0.637868 0.0798637 0.
0.641469 0.0782646 0.
0.645162 0.0766597 0.
0.648869 0.0748784 0.
0.652627 0.0730146 0.
0.656425 0.0711948 0.
0.660249 0.0693584 0.
0.664043 0.067334 0.
0.667756 0.0651406 0.
0.67149 0.0629888 0.
0.675307 0.060916 0.
0.679181 0.0588184 0.
0.683014 0.0565477 0.
0.686733 0.0541658 0.
0.690391 0.0517525 0.
0.694002 0.0493573 0.
0.697571 0.0470166 0.
0.701144 0.0447312 0.
0.704747 0.042492 0.
0.708329 0.0403516 0.
0.711954 0.0382675 0.
0.715613 0.0361627 0.
0.719234 0.033966 0.
0.722838 0.0317071 0.
0.726413 0.0294554 0.
0.729972 0.0272068 0.
0.733708 0.025017 0.
0.73766 0.0228657 0.
0.74172 0.0206318 0.
0.746067 0.0183625 0.
0.75086 0.0162628 0.
0.756225 0.0144446 0.
0.76213 0.0128652 0.
0.769267 0.0130999 0.
0.776617 0.0139765 0.
0.423229 0.0142233 0.
0.43041 0.0131872 0.
0.436819 0.0135655 0.
0.442199 0.0153748 0.
0.447183 0.0172663 0.
0.451646 0.0192417 0.
0.45574 0.0213792 0.
0.459601 0.0235168 0.
0.463364 0.0255564 0.
0.466976 0.0276612 0.
0.470488 0.0298531 0.
0.474051 0.032 0.
0.47763 0.0341341 0.
0.481168 0.0363175 0.
0.484691 0.038498 0.
0.488223 0.0406923 0.
0.491704 0.0429502 0.
0.495193 0.0452326 0.
0.498741 0.0475085 0.
0.502358 0.0497756 0.
0.50607 0.0520193 0.
0.509855 0.054204 0.
0.513646 0.0563699 0.
0.517392 0.058579 0.
0.521127 0.0608761 0.
0.524865 0.0632257 0.
0.528627 0.0654566 0.
0.532444 0.0675259 0.
0.536298 0.0694354 0.
0.540113 0.0714677 0.
0.543825 0.0736085 0.
0.547555 0.0755843 0.
0.551358 0.0773413 0.
0.555099 0.0791385 0.
0.558777 0.080831 0.
0.562369 0.0820867 0.
0.565861 0.0832987 0.
0.569014 0.0845515 0.
0.572132 0.0856302 0.
0.57499 0.086234 0.
0.577832 0.0868922 0.
0.580259 0.0873574 0.
0.582724 0.0878357 0.
0.584998 0.0880028 0.
0.587229 0.0881285 0.
0.589432 0.0882302 0.
0.591556 0.088275 0.
0.59368 0.0883197 0.
0.595805 0.088338 0.
0.597929 0.0883463 0.
0.600054 0.088354 0.
0.602182 0.0883257 0.
0.60431 0.0882973 0.
0.60644 0.0882588 0.
0.608574 0.088199 0.
0.610708 0.0881394 0.
0.612968 0.0879692 0.
0.615254 0.0877723 0.
0.617644 0.0874834 0.
0.620244 0.0868912 0.
0.62284 0.0863097 0.
0.625828 0.0856008 0.
0.628845 0.0849281 0.
0.632244 0.083714 0.
0.635646 0.082198 0.
0.639225 0.080424 0.
0.642938 0.078773 0.
0.64666 0.0770893 0.
0.650381 0.0752115 0.
0.654161 0.073344 0.
0.657987 0.0715244 0.
0.661821 0.0696253 0.
0.665624 0.0675004 0.
0.669347 0.0652999 0.
0.673093 0.0631771 0.
0.676908 0.0611165 0.
0.680756 0.0589747 0.
0.684567 0.0566587 0.
0.688285 0.0542651 0.
0.691939 0.0518592 0.
0.695543 0.0494901 0.
0.699099 0.0471889 0.
0.702652 0.0449389 0.
0.706235 0.04275 0.
0.70981 0.0406503 0.
0.713403 0.038599 0.
0.716979 0.0365177 0.
0.720507 0.0343573 0.
0.724026 0.0321597 0.
0.727511 0.029972 0.
0.730981 0.027785 0.
0.734556 0.0256847 0.
0.738296 0.0236195 0.
0.742128 0.0214711 0.
0.746216 0.0192884 0.
0.750664 0.017243 0.
0.755638 0.0154532 0.
0.761125 0.0137943 0.
0.767565 0.0135385 0.
0.774694 0.0144962 0.
0.42516 0.0146035 0.
0.4319 0.0137931 0.
0.437673 0.0146221 0.
0.442671 0.0164508 0.
0.447267 0.0182787 0.
0.451394 0.0201898 0.
0.455218 0.0222204 0.
0.458871 0.024273 0.
0.462453 0.0262394 0.
0.465933 0.0282546 0.
0.469354 0.0303737 0.
0.472821 0.0324671 0.
0.476314 0.0345364 0.
0.479784 0.0366633 0.
0.483268 0.0388181 0.
0.486777 0.0409814 0.
0.49024 0.0431954 0.
0.493698 0.0454563 0.
0.497221 0.0477066 0.
0.500836 0.0499667 0.
0.504527 0.0522017 0.
0.508293 0.0543954 0.
0.512078 0.0565516 0.
0.515828 0.0587348 0.
0.519566 0.0609986 0.
0.5233 0.0633385 0.
0.52706 0.0656223 0.
0.530867 0.0677592 0.
0.53473 0.0697177 0.
0.538589 0.0716887 0.
0.542323 0.0738445 0.
0.546067 0.0759133 0.
0.549881 0.0777642 0.
0.553695 0.0795685 0.
0.557404 0.081371 0.
0.561103 0.0828757 0.
0.56471 0.0841561 0.
0.567974 0.0854547 0.
0.571238 0.0867742 0.
0.574274 0.0876183 0.
0.577324 0.0884994 0.
0.57988 0.0890516 0.
0.582448 0.0895974 0.
0.58482 0.0898275 0.
0.58711 0.089987 0.
0.589365 0.0901197 0.
0.591504 0.0901648 0.
0.593643 0.09021 0.
0.595783 0.0902281 0.
0.597923 0.0902357 0.
0.600062 0.0902428 0.
0.602206 0.0902133 0.
0.604349 0.0901839 0.
0.606495 0.090144 0.
0.608647 0.0900833 0.
0.610797 0.0900227 0.
0.613129 0.0898027 0.
0.615487 0.0895535 0.
0.618016 0.0891539 0.
0.62074 0.0884559 0.
0.623556 0.0876966 0.
0.626683 0.086809 0.
0.629942 0.085859 0.
0.633383 0.0845919 0.
0.636958 0.0827645 0.
0.640622 0.080905 0.
0.64441 0.0792345 0.
0.64815 0.077462 0.
0.651884 0.0755381 0.
0.655688 0.0736773 0.
0.659523 0.0718348 0.
0.663357 0.0698554 0.
0.667175 0.0676629 0.
0.670924 0.0654775 0.
0.674682 0.0633825 0.
0.678492 0.0613164 0.
0.682324 0.0591192 0.
0.686109 0.056772 0.
0.689822 0.0543744 0.
0.69348 0.0519821 0.
0.697082 0.0496478 0.
0.700627 0.0473812 0.
0.704171 0.0451663 0.
0.707737 0.0430284 0.
0.7113 0.0409667 0.
0.714865 0.0389355 0.
0.718384 0.0368723 0.
0.721831 0.0347474 0.
0.725269 0.0326124 0.
0.728663 0.0304896 0.
0.732047 0.028373 0.
0.735489 0.0263538 0.
0.739031 0.0243747 0.
0.742646 0.0223228 0.
0.746445 0.0202396 0.
0.750573 0.0182605 0.
0.755129 0.0165146 0.
0.760175 0.0148553 0.
0.765947 0.014107 0.
0.772633 0.0149569 0.
0.427074 0.0150198 0.
0.433213 0.0145896 0.
0.438411 0.015768 0.
0.442978 0.0175561 0.
0.447154 0.0193029 0.
0.450965 0.0211293 0.
0.454544 0.0230473 0.
0.457997 0.0250074 0.
0.461406 0.0269029 0.
0.464773 0.0288304 0.
0.468126 0.0308754 0.
0.471501 0.0329178 0.
0.474911 0.0349338 0.
0.478333 0.0370017 0.
0.48179 0.0391331 0.
0.485274 0.0412681 0.
0.488718 0.0434348 0.
0.492161 0.0456675 0.
0.49568 0.0479083 0.
0.499297 0.0501636 0.
0.502981 0.0523996 0.
0.506737 0.0545957 0.
0.510518 0.0567495 0.
0.51427 0.0589115 0.
0.518019 0.0611513 0.
0.521759 0.0634611 0.
0.525525 0.0657899 0.
0.529339 0.0679918 0.
0.533213 0.0700168 0.
0.537094 0.0719503 0.
0.540866 0.0740783 0.
0.54462 0.0762266 0.
0.54844 0.0781589 0.
0.5523 0.0799776 0.
0.556061 0.0818629 0.
0.559796 0.0835761 0.
0.563448 0.0848984 0.
0.566901 0.0862896 0.
0.570282 0.0877738 0.
0.573548 0.0889294 0.
0.57672 0.0899436 0.
0.579428 0.0905809 0.
0.582078 0.0911654 0.
0.584574 0.0915112 0.
0.586954 0.0917689 0.
0.589297 0.0919885 0.
0.591452 0.0920343 0.
0.593608 0.09208 0.
0.595763 0.0920982 0.
0.597918 0.0921054 0.
0.600073 0.0921119 0.
0.602231 0.0920808 0.
0.604388 0.0920497 0.
0.60655 0.0920072 0.
0.608715 0.0919437 0.
0.610881 0.0918803 0.
0.613354 0.091533 0.
0.615829 0.0911727 0.
0.618488 0.0906396 0.
0.621263 0.0899127 0.
0.624293 0.0889878 0.
0.62755 0.0879472 0.
0.631053 0.0867092 0.
0.634594 0.0852502 0.
0.638267 0.0832429 0.
0.642015 0.0813742 0.
0.645848 0.0796749 0.
0.649603 0.0778101 0.
0.653359 0.0758792 0.
0.657185 0.0740285 0.
0.661024 0.0721483 0.
0.66486 0.0700727 0.
0.668688 0.0678507 0.
0.672472 0.0656831 0.
0.676259 0.0636065 0.
0.680063 0.0615145 0.
0.683881 0.0592662 0.
0.687656 0.0568912 0.
0.691366 0.0544912 0.
0.69503 0.0521177 0.
0.698639 0.0498209 0.
0.702179 0.0475846 0.
0.705718 0.0454075 0.
0.709274 0.0433176 0.
0.712823 0.0412888 0.
0.716363 0.0392708 0.
0.719843 0.0372208 0.
0.723234 0.035129 0.
0.726602 0.0330488 0.
0.729922 0.030983 0.
0.733221 0.0289443 0.
0.736544 0.0270087 0.
0.739935 0.0251012 0.
0.743351 0.0231479 0.
0.746867 0.0211796 0.
0.750672 0.019284 0.
0.754832 0.0175977 0.
0.759391 0.0159944 0.
0.764563 0.0148827 0.
0.770618 0.0153818 0.
0.428819 0.0155647 0.
0.434288 0.0155895 0.
0.438901 0.0169579 0.
0.443017 0.0186645 0.
0.446798 0.0203198 0.
0.450325 0.0220515 0.
0.453678 0.0238504 0.
0.456968 0.025719 0.
0.460238 0.0275536 0.
0.463519 0.0294062 0.
0.466812 0.0313714 0.
0.470108 0.033371 0.
0.473461 0.0353507 0.
0.476856 0.0373647 0.
0.480289 0.0394698 0.
0.483744 0.0415796 0.
0.487185 0.0437077 0.
0.490634 0.0459111 0.
0.494167 0.0481505 0.
0.497798 0.0504039 0.
0.501482 0.0526432 0.
0.505229 0.0548328 0.
0.509001 0.056989 0.
0.512756 0.0591394 0.
0.516517 0.0613514 0.
0.520272 0.0636381 0.
0.524053 0.0659836 0.
0.527879 0.06824 0.
0.531763 0.0703343 0.
0.53565 0.0722756 0.
0.539462 0.074343 0.
0.543226 0.0765351 0.
0.547061 0.0785442 0.
0.550954 0.0804021 0.
0.554764 0.0823255 0.
0.558499 0.0841558 0.
0.562189 0.0856011 0.
0.565784 0.0870517 0.
0.569283 0.0886544 0.
0.572725 0.0900363 0.
0.575929 0.0911315 0.
0.578875 0.0919954 0.
0.581655 0.0926857 0.
0.584311 0.093179 0.
0.586789 0.0935416 0.
0.589228 0.0938573 0.
0.5914 0.0939037 0.
0.593573 0.0939501 0.
0.595744 0.0939683 0.
0.597914 0.093975 0.
0.600084 0.093981 0.
0.602256 0.0939481 0.
0.604428 0.0939153 0.
0.606604 0.0938704 0.
0.608785 0.093804 0.
0.610965 0.0937378 0.
0.613605 0.0932415 0.
0.616226 0.092744 0.
0.619048 0.0920245 0.
0.621898 0.0911985 0.
0.625114 0.0900683 0.
0.628467 0.0889467 0.
0.632166 0.087491 0.
0.635811 0.0857721 0.
0.639537 0.0836898 0.
0.64336 0.0818472 0.
0.647216 0.0801041 0.
0.650995 0.0781694 0.
0.654781 0.0762496 0.
0.658628 0.0743947 0.
0.662465 0.0724666 0.
0.666303 0.0703098 0.
0.670149 0.0680816 0.
0.673964 0.0659363 0.
0.677777 0.0638664 0.
0.681577 0.0617373 0.
0.685382 0.0594485 0.
0.689153 0.0570508 0.
0.692872 0.0546524 0.
0.696551 0.0523033 0.
0.700171 0.0500373 0.
0.703715 0.0478331 0.
0.707253 0.0456952 0.
0.710806 0.043641 0.
0.714339 0.0416387 0.
0.717857 0.0396294 0.
0.721319 0.0375903 0.
0.724674 0.0355331 0.
0.727989 0.0334923 0.
0.731252 0.0314766 0.
0.734496 0.0295134 0.
0.73773 0.0276537 0.
0.740986 0.0258095 0.
0.74425 0.0239425 0.
0.747536 0.0220939 0.
0.751011 0.0203052 0.
0.7548 0.0186908 0.
0.758907 0.0171631 0.
0.763491 0.015875 0.
0.768859 0.0159104 0.
0.43017 0.0163175 0.
0.43497 0.0167157 0.
0.439024 0.0181446 0.
0.442704 0.019756 0.
0.446158 0.0213218 0.
0.449441 0.0229457 0.
0.452626 0.024636 0.
0.45581 0.0264204 0.
0.458989 0.0282133 0.
0.46221 0.0300118 0.
0.465449 0.031899 0.
0.468715 0.0338641 0.
0.472047 0.0358235 0.
0.475429 0.0377997 0.
0.478832 0.0398712 0.
0.482264 0.0419583 0.
0.485717 0.04406 0.
0.48919 0.0462341 0.
0.492741 0.048464 0.
0.496391 0.0507169 0.
0.500077 0.0529593 0.
0.503817 0.0551393 0.
0.507572 0.0572896 0.
0.51133 0.0594324 0.
0.515105 0.0616216 0.
0.518889 0.0638965 0.
0.522677 0.0662303 0.
0.526519 0.0685285 0.
0.53041 0.0706932 0.
0.534282 0.0726625 0.
0.538117 0.0746557 0.
0.54191 0.0768508 0.
0.545774 0.0789484 0.
0.549668 0.0808468 0.
0.55352 0.0827643 0.
0.557267 0.0846911 0.
0.560968 0.086283 0.
0.564643 0.0877462 0.
0.568257 0.0894087 0.
0.571831 0.0910147 0.
0.57511 0.0922541 0.
0.578294 0.0933718 0.
0.581209 0.0941637 0.
0.58404 0.0948122 0.
0.586608 0.0952704 0.
0.589154 0.0957016 0.
0.591344 0.0957481 0.
0.593536 0.0957947 0.
0.595724 0.0958133 0.
0.59791 0.09582 0.
0.600097 0.095826 0.
0.602284 0.0957924 0.
0.604471 0.0957589 0.
0.606662 0.0957121 0.
0.608859 0.0956436 0.
0.611054 0.0955754 0.
0.613867 0.0949135 0.
0.616642 0.0942825 0.
0.619622 0.093371 0.
0.622566 0.0924253 0.
0.625971 0.0910239 0.
0.629451 0.0897652 0.
0.633262 0.0881996 0.
0.636978 0.0862403 0.
0.640753 0.0841448 0.
0.644639 0.0823377 0.
0.648511 0.0805346 0.
0.652311 0.0785694 0.
0.65612 0.0766643 0.
0.659981 0.074793 0.
0.663828 0.0727959 0.
0.667662 0.0705901 0.
0.671517 0.0683707 0.
0.675368 0.0662451 0.
0.679204 0.0641739 0.
0.682987 0.0620164 0.
0.686771 0.0597008 0.
0.690559 0.0572743 0.
0.694298 0.0548851 0.
0.697996 0.0525721 0.
0.701623 0.050339 0.
0.705171 0.0481678 0.
0.708708 0.0460664 0.
0.712267 0.0440373 0.
0.715794 0.0420509 0.
0.719288 0.040051 0.
0.722739 0.0380192 0.
0.726082 0.0359932 0.
0.729368 0.0339824 0.
0.732604 0.0320064 0.
0.735819 0.030116 0.
0.739001 0.0283145 0.
0.742162 0.0265218 0.
0.745324 0.0247246 0.
0.748452 0.0229823 0.
0.751661 0.0213047 0.
0.755087 0.0197763 0.
0.758789 0.0183292 0.
0.762852 0.0170053 0.
0.76755 0.0166407 0.
0.431033 0.0172612 0.
0.435203 0.0179056 0.
0.438764 0.0193312 0.
0.442084 0.0208539 0.
0.445262 0.0223231 0.
0.44837 0.0238427 0.
0.451478 0.0254498 0.
0.454592 0.0271664 0.
0.457712 0.0289332 0.
0.460894 0.0306959 0.
0.464116 0.0325224 0.
0.467412 0.03446 0.
0.470754 0.0364065 0.
0.474116 0.0383566 0.
0.47749 0.0403893 0.
0.480917 0.0424494 0.
0.484394 0.0445389 0.
0.487897 0.0466844 0.
0.491463 0.0488931 0.
0.49512 0.05114 0.
0.498813 0.0533756 0.
0.50255 0.0555443 0.
0.506285 0.0576865 0.
0.510052 0.0598246 0.
0.51384 0.0619894 0.
0.517651 0.064251 0.
0.521454 0.0665752 0.
0.525304 0.0689027 0.
0.529189 0.0711232 0.
0.53304 0.0731263 0.
0.536908 0.0750771 0.
0.540728 0.0772352 0.
0.544613 0.0794114 0.
0.548514 0.0813547 0.
0.552402 0.08327 0.
0.556177 0.0852553 0.
0.559853 0.0869596 0.
0.563572 0.0884591 0.
0.567299 0.0901252 0.
0.570928 0.0918756 0.
0.57434 0.0933275 0.
0.577767 0.0946822 0.
0.580781 0.0955133 0.
0.583697 0.0963074 0.
0.586382 0.0969233 0.
0.589071 0.0975268 0.
0.591283 0.0975751 0.
0.593495 0.0976235 0.
0.595703 0.0976433 0.
0.597907 0.0976507 0.
0.600112 0.0976572 0.
0.602314 0.0976227 0.
0.604517 0.0975883 0.
0.606726 0.0975389 0.
0.608942 0.0974668 0.
0.611166 0.0973843 0.
0.614142 0.0964261 0.
0.617025 0.0956206 0.
0.620092 0.0946651 0.
0.623233 0.0935303 0.
0.62678 0.0919313 0.
0.63038 0.0905063 0.
0.634245 0.0888607 0.
0.638027 0.0867384 0.
0.641845 0.0846616 0.
0.645786 0.0828681 0.
0.649675 0.0810146 0.
0.653489 0.079046 0.
0.657324 0.0771482 0.
0.661189 0.0752563 0.
0.66504 0.0731982 0.
0.668884 0.0709569 0.
0.67275 0.0687455 0.
0.676631 0.0666408 0.
0.680481 0.0645667 0.
0.684248 0.062384 0.
0.688009 0.0600502 0.
0.691809 0.0576085 0.
0.695578 0.0552397 0.
0.699296 0.0529676 0.
0.702931 0.0507646 0.
0.70649 0.048619 0.
0.710024 0.0465541 0.
0.713586 0.0445458 0.
0.717112 0.0425792 0.
0.720595 0.0405847 0.
0.724035 0.0385606 0.
0.727379 0.03656 0.
0.730671 0.034575 0.
0.733907 0.0326294 0.
0.737117 0.0308038 0.
0.740293 0.0290535 0.
0.743406 0.0273011 0.
0.746499 0.0255612 0.
0.74953 0.0238966 0.
0.752572 0.0223229 0.
0.755697 0.0208772 0.
0.759032 0.0194895 0.
0.762643 0.0182061 0.
0.766737 0.0175765 0.
CELLS 5000 10000
1 0
1 1
1 2
1 3
1 4
1 5
1 6
1 7
1 8
1 9
1 10
1 11
1 12
1 13
1 14
1 15
1 16
1 17
1 18
1 19
1 20
1 21
1 22
1 23
1 24
1 25
1 26
1 27
1 28
1 29
1 30
1 31
1 32
1 33
1 34
1 35
1 36
1 37
1 38
1 39
1 40
1 41
1 42
1 43
1 44
1 45
1 46
1 47
1 48
1 49
1 50
1 51
1 52
1 53
1 54
1 55
1 56
1 57
1 58
1 59
1 60
1 61
1 62
1 63
1 64
1 65
1 66
1 67
1 68
1 69
1 70
1 71
1 72
1 73
1 74
1 75
1 76
1 77
1 78
1 79
1 80
1 81
1 82
1 83
1 84
1 85
1 86
1 87
1 88
1 89
1 90
1 91
1 92
1 93
1 94
1 95
1 96
1 97
1 98
1 99
1 100
1 101
1 102
1 103
1 104
1 105
1 106
1 107
1 108
1 109
1 110
1 111
1 112
1 113
1 114
1 115
1 116
1 117
1 118
1 119
1 120
1 121
1 122
1 123
1 124
1 125
1 126
1 127
1 128
1 129
1 130
1 131
1 132
1 133
1 134
1 135
1 136
1 137
1 138
1 139
1 140
1 141
1 142
1 143
1 144
1 145
1 146
1 147
1 148
1 149
1 150
1 151
1 152
1 153
1 154
1 155
1 156
1 157
1 158
1 159
1 160
1 161
1 162
1 163
1 164
1 165
1 166
1 167
1 168
1 169
1 170
1 171
1 172
1 173
1 174
1 175
1 176
1 177
1 178
1 179
1 180
1 181
1 182
1 183
1 184
1 185
1 186
1 187
1 188
1 189
1 190
1 191
1 192
1 193
1 194
1 195
1 196
1 197
1 198
1 199
1 200
1 201
1 202
1 203
1 204
1 205
1 206
1 207
1 208
1 209
1 210
1 211
1 212
1 213
1 214
1 215
1 216
1 217
1 218
1 219
1 220
1 221
1 222
1 223
1 224
1 225
1 226
1 227
1 228
1 229
1 230
1 231
1 232
1 233
1 234
1 235
1 236
1 237
1 238
1 239
1 240
1 241
1 242
1 243
1 244
1 245
1 246
1 247
1 248
1 249
1 250
1 251
1 252
1 253
1 254
1 255
1 256
1 257
1 258
1 259
1 260
1 261
1 262
1 263
1 264
1 265
1 266
1 267
1 268
1 269
1 270
1 271
1 272
1 273
1 274
1 275
1 276
1 277
1 278
1 279
1 280
1 281
1 282
1 283
1 284
1 285
1 286
1 287
1 288
1 289
1 290
1 291
1 292
1 293
1 294
1 295
1 296
1 297
1 298
1 299
1 300
1 301
1 302
1 303
1 304
1 305
1 306
1 307
1 308
1 309
1 310
1 311
1 312
1 313
1 314
1 315
1 316
1 317
1 318
1 319
1 320
1 321
1 322
1 323
1 324
1 325
1 326
1 327
1 328
1 329
1 330
1 331
1 332
1 333
1 334
1 335
1 336
1 337
1 338
1 339
1 340
1 341
1 342
1 343
1 344
1 345
1 346
1 347
1 348
1 349
1 350
1 351
1 352
1 353
1 354
1 355
1 356
1 357
1 358
1 359
1 360
1 361
1 362
1 363
1 364
1 365
1 366
1 367
1 368
1 369
1 370
1 371
1 372
1 373
1 374
1 375
1 376
1 377
1 378
1 379
1 380
1 381
1 382
1 383
1 384
1 385
1 386
1 387
1 388
1 389
1 390
1 391
1 392
1 393
1 394
1 395
1 396
1 397
1 398
1 399
1 400
1 401
1 402
1 403
1 404
1 405
1 406
1 407
1 408
1 409
1 410
1 411
1 412
1 413
1 414
1 415
1 416
1 417
1 418
1 419
1 420
1 421
1 422
1 423
1 424
1 425
1 426
1 427
1 428
1 429
1 430
1 431
1 432
1 433
1 434
1 435
1 436
1 437
1 438
1 439
1 440
1 441
1 442
1 443
1 444
1 445
1 446
1 447
1 448
1 449
1 450
1 451
1 452
1 453
1 454
1 455
1 456
1 457
1 458
1 459
1 460
1 461
1 462
1 463
1 464
1 465
1 466
1 467
1 468
1 469
1 470
1 471
1 472
1 473
1 474
1 475
1 476
1 477
1 478
1 479
1 480
1 481
1 482
1 483
1 484
1 485
1 486
1 487
1 488
1 489
1 490
1 491
1 492
1 493
1 494
1 495
1 496
1 497
1 498
1 499
1 500
1 501
1 502
1 503
1 504
1 505
1 506
1 507
1 508
1 509
1 510
1 511
1 512
1 513
1 514
1 515
1 516
1 517
1 518
1 519
1 520
1 521
1 522
1 523
1 524
1 525
1 526
1 527
1 528
1 529
1 530
1 531
1 532
1 533
1 534
1 535
1 536
1 537
1 538
1 539
1 540
1 541
1 542
1 543
1 544
1 545
1 546
1 547
1 548
1 549
1 550
1 551
1 552
1 553
1 554
1 555
1 556
1 557
1 558
1 559
1 560
1 561
1 562
1 563
1 564
1 565
1 566
1 567
1 568
1 569
1 570
1 571
1 572
1 573
1 574
1 575
1 576
1 577
1 578
1 579
1 580
1 581
1 582
1 583
1 584
1 585
1 586
1 587
1 588
1 589
1 590
1 591
1 592
1 593
1 594
1 595
1 596
1 597
1 598
1 599
1 600
1 601
1 602
1 603
1 604
1 605
1 606
1 607
1 608
1 609
1 610
1 611
1 612
1 613
1 614
1 615
1 616
1 617
1 618
1 619
1 620
1 621
1 622
1 623
1 624
1 625
1 626
1 627
1 628
1 629
1 630
1 631
1 632
1 633
1 634
1 635
1 636
1 637
1 638
1 639
1 640
1 641
1 642
1 643
1 644
1 645
1 646
1 647
1 648
1 649
1 650
1 651
1 652
1 653
1 654
1 655
1 656
1 657
1 658
1 659
1 660
1 661
1 662
1 663
1 664
1 665
1 666
1 667
1 668
1 669
1 670
1 671
1 672
1 673
1 674
1 675
1 676
1 677
1 678
1 679
1 680
1 681
1 682
1 683
1 684
1 685
1 686
1 687
1 688
1 689
1 690
1 691
1 692
1 693
1 694
1 695
1 696
1 697
1 698
1 699
1 700
1 701
1 702
1 703
1 704
1 705
1 706
1 707
1 708
1 709
1 710
1 711
1 712
1 713
1 714
1 715
1 716
1 717
1 718
1 719
1 720
1 721
1 722
1 723
1 724
1 725
1 726
1 727
1 728
1 729
1 730
1 731
1 732
1 733
1 734
1 735
1 736
1 737
1 738
1 739
1 740
1 741
1 742
1 743
1 744
1 745
1 746
1 747
1 748
1 749
1 750
1 751
1 752
1 753
1 754
1 755
1 756
1 757
1 758
1 759
1 760
1 761
1 762
1 763
1 764
1 765
1 766
1 767
1 768
1 769
1 770
1 771
1 772
1 773
1 774
1 775
1 776
1 777
1 778
1 779
1 780
1 781
1 782
1 783
1 784
1 785
1 786
1 787
1 788
1 789
1 790
1 791
1 792
1 793
1 794
1 795
1 796
1 797
1 798
1 799
1 800
1 801
1 802
1 803
1 804
1 805
1 806
1 807
1 808
1 809
1 810
1 811
1 812
1 813
1 814
1 815
1 816
1 817
1 818
1 819
1 820
1 821
1 822
1 823
1 824
1 825
1 826
1 827
1 828
1 829
1 830
1 831
1 832
1 833
1 834
1 835
1 836
1 837
1 838
1 839
1 840
1 841
1 842
1 843
1 844
1 845
1 846
1 847
1 848
1 849
1 850
1 851
1 852
1 853
1 854
1 855
1 856
1 857
1 858
1 859
1 860
1 861
1 862
1 863
1 864
1 865
1 866
1 867
1 868
1 869
1 870
1 871
1 872
1 873
1 874
1 875
1 876
1 877
1 878
1 879
1 880
1 881
1 882
1 883
1 884
1 885
1 886
1 887
1 888
1 889
1 890
1 891
1 892
1 893
1 894
1 895
1 896
1 897
1 898
1 899
1 900
1 901
1 902
1 903
1 904
1 905
1 906
1 907
1 908
1 909
1 910
1 911
1 912
1 913
1 914
1 915
1 916
1 917
1 918
1 919
1 920
1 921
1 922
1 923
1 924
1 925
1 926
1 927
1 928
1 929
1 930
1 931
1 932
1 933
1 934
1 935
1 936
1 937
1 938
1 939
1 940
1 941
1 942
1 943
1 944
1 945
1 946
1 947
1 948
1 949
1 950
1 951
1 952
1 953
1 954
1 955
1 956
1 957
1 958
1 959
1 960
1 961
1 962
1 963
1 964
1 965
1 966
1 967
1 968
1 969
1 970
1 971
1 972
1 973
1 974
1 975
1 976
1 977
1 978
1 979
1 980
1 981
1 982
1 983
1 984
1 985
1 986
1 987
1 988
1 989
1 990
1 991
1 992
1 993
1 994
1 995
1 996
1 997
1 998
1 999
1 1000
1 1001
1 1002
1 1003
1 1004
1 1005
1 1006
1 1007
1 1008
1 1009
1 1010
1 1011
1 1012
1 1013
1 1014
1 1015
1 1016
1 1017
1 1018
1 1019
1 1020
1 1021
1 1022
1 1023
1 1024
1 1025
1 1026
1 1027
1 1028
1 1029
1 1030
1 1031
1 1032
1 1033
1 1034
1 1035
1 1036
1 1037
1 1038
1 1039
1 1040
1 1041
1 1042
1 1043
1 1044
1 1045
1 1046
1 1047
1 1048
1 1049
1 1050
1 1051
1 1052
1 1053
1 1054
1 1055
1 1056
1 1057
1 1058
1 1059
1 1060
1 1061
1 1062
1 1063
1 1064
1 1065
1 1066
1 1067
1 1068
1 1069
1 1070
1 1071
1 1072
1 1073
1 1074
1 1075
1 1076
1 1077
1 1078
1 1079
1 1080
1 1081
1 1082
1 1083
1 1084
1 1085
1 1086
1 1087
1 1088
1 1089
1 1090
1 1091
1 1092
1 1093
1 1094
1 1095
1 1096
1 1097
1 1098
1 1099
1 1100
1 1101
1 1102
1 1103
1 1104
1 1105
1 1106
1 1107
1 1108
1 1109
1 1110
1 1111
1 1112
1 1113
1 1114
1 1115
1 1116
1 1117
1 1118
1 1119
1 1120
1 1121
1 1122
1 1123
1 1124
1 1125
1 1126
1 1127
1 1128
1 1129
1 1130
1 1131
1 1132
1 1133
1 1134
1 1135
1 1136
1 1137
1 1138
1 1139
1 1140
1 1141
1 1142
1 1143
1 1144
1 1145
1 1146
1 1147
1 1148
1 1149
1 1150
1 1151
1 1152
1 1153
1 1154
1 1155
1 1156
1 1157
1 1158
1 1159
1 1160
1 1161
1 1162
1 1163
1 1164
1 1165
1 1166
1 1167
1 1168
1 1169
1 1170
1 1171
1 1172
1 1173
1 1174
1 1175
1 1176
1 1177
1 1178
1 1179
1 1180
1 1181
1 1182
1 1183
1 1184
1 1185
1 1186
1 1187
1 1188
1 1189
1 1190
1 1191
1 1192
1 1193
1 1194
1 1195
1 1196
1 1197
1 1198
1 1199
1 1200
1 1201
1 1202
1 1203
1 1204
1 1205
1 1206
1 1207
1 1208
1 1209
1 1210
1 1211
1 1212
1 1213
1 1214
1 1215
1 1216
1 1217
1 1218
1 1219
1 1220
1 1221
1 1222
1 1223
1 1224
1 1225
1 1226
1 1227
1 1228
1 1229
1 1230
1 1231
1 1232
1 1233
1 1234
1 1235
1 1236
1 1237
1 1238
1 1239
1 1240
1 1241
1 1242
1 1243
1 1244
1 1245
1 1246
1 1247
1 1248
1 1249
1 1250
1 1251
1 1252
1 1253
1 1254
1 1255
1 1256
1 1257
1 1258
1 1259
1 1260
1 1261
1 1262
1 1263
1 1264
1 1265
1 1266
1 1267
1 1268
1 1269
1 1270
1 1271
1 1272
1 1273
1 1274
1 1275
1 1276
1 1277
1 1278
1 1279
1 1280
1 1281
1 1282
1 1283
1 1284
1 1285
1 1286
1 1287
1 1288
1 1289
1 1290
1 1291
1 1292
1 1293
1 1294
1 1295
1 1296
1 1297
1 1298
1 1299
1 1300
1 1301
1 1302
1 1303
1 1304
1 1305
1 1306
1 1307
1 1308
1 1309
1 1310
1 1311
1 1312
1 1313
1 1314
1 1315
1 1316
1 1317
1 1318
1 1319
1 1320
1 1321
1 1322
1 1323
1 1324
1 1325
1 1326
1 1327
1 1328
1 1329
1 1330
1 1331
1 1332
1 1333
1 1334
1 1335
1 1336
1 1337
1 1338
1 1339
1 1340
1 1341
1 1342
1 1343
1 1344
1 1345
1 1346
1 1347
1 1348
1 1349
1 1350
1 1351
1 1352
1 1353
1 1354
1 1355
1 1356
1 1357
1 1358
1 1359
1 1360
1 1361
1 1362
1 1363
1 1364
1 1365
1 1366
1 1367
1 1368
1 1369
1 1370
1 1371
1 1372
1 1373
1 1374
1 1375
1 1376
1 1377
1 1378
1 1379
1 1380
1 1381
1 1382
1 1383
1 1384
1 1385
1 1386
1 1387
1 1388
1 1389
1 1390
1 1391
1 1392
1 1393
1 1394
1 1395
1 1396
1 1397
1 1398
1 1399
1 1400
1 1401
1 1402
1 1403
1 1404
1 1405
1 1406
1 1407
1 1408
1 1409
1 1410
1 1411
1 1412
1 1413
1 1414
1 1415
1 1416
1 1417
1 1418
1 1419
1 1420
1 1421
1 1422
1 1423
1 1424
1 1425
1 1426
1 1427
1 1428
1 1429
1 1430
1 1431
1 1432
1 1433
1 1434
1 1435
1 1436
1 1437
1 1438
1 1439
1 1440
1 1441
1 1442
1 1443
1 1444
1 1445
1 1446
1 1447
1 1448
1 1449
1 1450
1 1451
1 1452
1 1453
1 1454
1 1455
1 1456
1 1457
1 1458
1 1459
1 1460
1 1461
1 1462
1 1463
1 1464
1 1465
1 1466
1 1467
1 1468
1 1469
1 1470
1 1471
1 1472
1 1473
1 1474
1 1475
1 1476
1 1477
1 1478
1 1479
1 1480
1 1481
1 1482
1 1483
1 1484
1 1485
1 1486
1 1487
1 1488
1 1489
1 1490
1 1491
1 1492
1 1493
1 1494
1 1495
1 1496
1 1497
1 1498
1 1499
1 1500
1 1501
1 1502
1 1503
1 1504
1 1505
1 1506
1 1507
1 1508
1 1509
1 1510
1 1511
1 1512
1 1513
1 1514
1 1515
1 1516
1 1517
1 1518
1 1519
1 1520
1 1521
1 1522
1 1523
1 1524
1 1525
1 1526
1 1527
1 1528
1 1529
1 1530
1 1531
1 1532
1 1533
1 1534
1 1535
1 1536
1 1537
1 1538
1 1539
1 1540
1 1541
1 1542
1 1543
1 1544
1 1545
1 1546
1 1547
1 1548
1 1549
1 1550
1 1551
1 1552
1 1553
1 1554
1 1555
1 1556
1 1557
1 1558
1 1559
1 1560
1 1561
1 1562
1 1563
1 1564
1 1565
1 1566
1 1567
1 1568
1 1569
1 1570
1 1571
1 1572
1 1573
1 1574
1 1575
1 1576
1 1577
1 1578
1 1579
1 1580
1 1581
1 1582
1 1583
1 1584
1 1585
1 1586
1 1587
1 1588
1 1589
1 1590
1 1591
1 1592
1 1593
1 1594
1 1595
1 1596
1 1597
1 1598
1 1599
1 1600
1 1601
1 1602
1 1603
1 1604
1 1605
1 1606
1 1607
1 1608
1 1609
1 1610
1 1611
1 1612
1 1613
1 1614
1 1615
1 1616
1 1617
1 1618
1 1619
1 1620
1 1621
1 1622
1 1623
1 1624
1 1625
1 1626
1 1627
1 1628
1 1629
1 1630
1 1631
1 1632
1 1633
1 1634
1 1635
1 1636
1 1637
1 1638
1 1639
1 1640
1 1641
1 1642
1 1643
1 1644
1 1645
1 1646
1 1647
1 1648
1 1649
1 1650
1 1651
1 1652
1 1653
1 1654
1 1655
1 1656
1 1657
1 1658
1 1659
1 1660
1 1661
1 1662
1 1663
1 1664
1 1665
1 1666
1 1667
1 1668
1 1669
1 1670
1 1671
1 1672
1 1673
1 1674
1 1675
1 1676
1 1677
1 1678
1 1679
1 1680
1 1681
1 1682
1 1683
1 1684
1 1685
1 1686
1 1687
1 1688
1 1689
1 1690
1 1691
1 1692
1 1693
1 1694
1 1695
1 1696
1 1697
1 1698
1 1699
1 1700
1 1701
1 1702
1 1703
1 1704
1 1705
1 1706
1 1707
1 1708
1 1709
1 1710
1 1711
1 1712
1 1713
1 1714
1 1715
1 1716
1 1717
1 1718
1 1719
1 1720
1 1721
1 1722
1 1723
1 1724
1 1725
1 1726
1 1727
1 1728
1 1729
1 1730
1 1731
1 1732
1 1733
1 1734
1 1735
1 1736
1 1737
1 1738
1 1739
1 1740
1 1741
1 1742
1 1743
1 1744
1 1745
1 1746
1 1747
1 1748
1 1749
1 1750
1 1751
1 1752
1 1753
1 1754
1 1755
1 1756
1 1757
1 1758
1 1759
1 1760
1 1761
1 1762
1 1763
1 1764
1 1765
1 1766
1 1767
1 1768
1 1769
1 1770
1 1771
1 1772
1 1773
1 1774
1 1775
1 1776
1 1777
1 1778
1 1779
1 1780
1 1781
1 1782
1 1783
1 1784
1 1785
1 1786
1 1787
1 1788
1 1789
1 1790
1 1791
1 1792
1 1793
1 1794
1 1795
1 1796
1 1797
1 1798
1 1799
1 1800
1 1801
1 1802
1 1803
1 1804
1 1805
1 1806
1 1807
1 1808
1 1809
1 1810
1 1811
1 1812
1 1813
1 1814
1 1815
1 1816
1 1817
1 1818
1 1819
1 1820
1 1821
1 1822
1 1823
1 1824
1 1825
1 1826
1 1827
1 1828
1 1829
1 1830
1 1831
1 1832
1 1833
1 1834
1 1835
1 1836
1 1837
1 1838
1 1839
1 1840
1 1841
1 1842
1 1843
1 1844
1 1845
1 1846
1 1847
1 1848
1 1849
1 1850
1 1851
1 1852
1 1853
1 1854
1 1855
1 1856
1 1857
1 1858
1 1859
1 1860
1 1861
1 1862
1 1863
1 1864
1 1865
1 1866
1 1867
1 1868
1 1869
1 1870
1 1871
1 1872
1 1873
1 1874
1 1875
1 1876
1 1877
1 1878
1 1879
1 1880
1 1881
1 1882
1 1883
1 1884
1 1885
1 1886
1 1887
1 1888
1 1889
1 1890
1 1891
1 1892
1 1893
1 1894
1 1895
1 1896
1 1897
1 1898
1 1899
1 1900
1 1901
1 1902
1 1903
1 1904
1 1905
1 1906
1 1907
1 1908
1 1909
1 1910
1 1911
1 1912
1 1913
1 1914
1 1915
1 1916
1 1917
1 1918
1 1919
1 1920
1 1921
1 1922
1 1923
1 1924
1 1925
1 1926
1 1927
1 1928
1 1929
1 1930
1 1931
1 1932
1 1933
1 1934
1 1935
1 1936
1 1937
1 1938
1 1939
1 1940
1 1941
1 1942
1 1943
1 1944
1 1945
1 1946
1 1947
1 1948
1 1949
1 1950
1 1951
1 1952
1 1953
1 1954
1 1955
1 1956
1 1957
1 1958
1 1959
1 1960
1 1961
1 1962
1 1963
1 1964
1 1965
1 1966
1 1967
1 1968
1 1969
1 1970
1 1971
1 1972
1 1973
1 1974
1 1975
1 1976
1 1977
1 1978
1 1979
1 1980
1 1981
1 1982
1 1983
1 1984
1 1985
1 1986
1 1987
1 1988
1 1989
1 1990
1 1991
1 1992
1 1993
1 1994
1 1995
1 1996
1 1997
1 1998
1 1999
1 2000
1 2001
1 2002
1 2003
1 2004
1 2005
1 2006
1 2007
1 2008
1 2009
1 2010
1 2011
1 2012
1 2013
1 2014
1 2015
1 2016
1 2017
1 2018
1 2019
1 2020
1 2021
1 2022
1 2023
1 2024
1 2025
1 2026
1 2027
1 2028
1 2029
1 2030
1 2031
1 2032
1 2033
1 2034
1 2035
1 2036
1 2037
1 2038
1 2039
1 2040
1 2041
1 2042
1 2043
1 2044
1 2045
1 2046
1 2047
1 2048
1 2049
1 2050
1 2051
1 2052
1 2053
1 2054
1 2055
1 2056
1 2057
1 2058
1 2059
1 2060
1 2061
1 2062
1 2063
1 2064
1 2065
1 2066
1 2067
1 2068
1 2069
1 2070
1 2071
1 2072
1 2073
1 2074
1 2075
1 2076
1 2077
1 2078
1 2079
1 2080
1 2081
1 2082
1 2083
1 2084
1 2085
1 2086
1 2087
1 2088
1 2089
1 2090
1 2091
1 2092
1 2093
1 2094
1 2095
1 2096
1 2097
1 2098
1 2099
1 2100
1 2101
1 2102
1 2103
1 2104
1 2105
1 2106
1 2107
1 2108
1 2109
1 2110
1 2111
1 2112
1 2113
1 2114
1 2115
1 2116
1 2117
1 2118
1 2119
1 2120
1 2121
1 2122
1 2123
1 2124
1 2125
1 2126
1 2127
1 2128
1 2129
1 2130
1 2131
1 2132
1 2133
1 2134
1 2135
1 2136
1 2137
1 2138
1 2139
1 2140
1 2141
1 2142
1 2143
1 2144
1 2145
1 2146
1 2147
1 2148
1 2149
1 2150
1 2151
1 2152
1 2153
1 2154
1 2155
1 2156
1 2157
1 2158
1 2159
1 2160
1 2161
1 2162
1 2163
1 2164
1 2165
1 2166
1 2167
1 2168
1 2169
1 2170
1 2171
1 2172
1 2173
1 2174
1 2175
1 2176
1 2177
1 2178
1 2179
1 2180
1 2181
1 2182
1 2183
1 2184
1 2185
1 2186
1 2187
1 2188
1 2189
1 2190
1 2191
1 2192
1 2193
1 2194
1 2195
1 2196
1 2197
1 2198
1 2199
1 2200
1 2201
1 2202
1 2203
1 2204
1 2205
1 2206
1 2207
1 2208
1 2209
1 2210
1 2211
1 2212
1 2213
1 2214
1 2215
1 2216
1 2217
1 2218
1 2219
1 2220
1 2221
1 2222
1 2223
1 2224
1 2225
1 2226
1 2227
1 2228
1 2229
1 2230
1 2231
1 2232
1 2233
1 2234
1 2235
1 2236
1 2237
1 2238
1 2239
1 2240
1 2241
1 2242
1 2243
1 2244
1 2245
1 2246
1 2247
1 2248
1 2249
1 2250
1 2251
1 2252
1 2253
1 2254
1 2255
1 2256
1 2257
1 2258
1 2259
1 2260
1 2261
1 2262
1 2263
1 2264
1 2265
1 2266
1 2267
1 2268
1 2269
1 2270
1 2271
1 2272
1 2273
1 2274
1 2275
1 2276
1 2277
1 2278
1 2279
1 2280
1 2281
1 2282
1 2283
1 2284
1 2285
1 2286
1 2287
1 2288
1 2289
1 2290
1 2291
1 2292
1 2293
1 2294
1 2295
1 2296
1 2297
1 2298
1 2299
1 2300
1 2301
1 2302
1 2303
1 2304
1 2305
1 2306
1 2307
1 2308
1 2309
1 2310
1 2311
1 2312
1 2313
1 2314
1 2315
1 2316
1 2317
1 2318
1 2319
1 2320
1 2321
1 2322
1 2323
1 2324
1 2325
1 2326
1 2327
1 2328
1 2329
1 2330
1 2331
1 2332
1 2333
1 2334
1 2335
1 2336
1 2337
1 2338
1 2339
1 2340
1 2341
1 2342
1 2343
1 2344
1 2345
1 2346
1 2347
1 2348
1 2349
1 2350
1 2351
1 2352
1 2353
1 2354
1 2355
1 2356
1 2357
1 2358
1 2359
1 2360
1 2361
1 2362
1 2363
1 2364
1 2365
1 2366
1 2367
1 2368
1 2369
1 2370
1 2371
1 2372
1 2373
1 2374
1 2375
1 2376
1 2377
1 2378
1 2379
1 2380
1 2381
1 2382
1 2383
1 2384
1 2385
1 2386
1 2387
1 2388
1 2389
1 2390
1 2391
1 2392
1 2393
1 2394
1 2395
1 2396
1 2397
1 2398
1 2399
1 2400
1 2401
1 2402
1 2403
1 2404
1 2405
1 2406
1 2407
1 2408
1 2409
1 2410
1 2411
1 2412
1 2413
1 2414
1 2415
1 2416
1 2417
1 2418
1 2419
1 2420
1 2421
1 2422
1 2423
1 2424
1 2425
1 2426
1 2427
1 2428
1 2429
1 2430
1 2431
1 2432
1 2433
1 2434
1 2435
1 2436
1 2437
1 2438
1 2439
1 2440
1 2441
1 2442
1 2443
1 2444
1 2445
1 2446
1 2447
1 2448
1 2449
1 2450
1 2451
1 2452
1 2453
1 2454
1 2455
1 2456
1 2457
1 2458
1 2459
1 2460
1 2461
1 2462
1 2463
1 2464
1 2465
1 2466
1 2467
1 2468
1 2469
1 2470
1 2471
1 2472
1 2473
1 2474
1 2475
1 2476
1 2477
1 2478
1 2479
1 2480
1 2481
1 2482
1 2483
1 2484
1 2485
1 2486
1 2487
1 2488
1 2489
1 2490
1 2491
1 2492
1 2493
1 2494
1 2495
1 2496
1 2497
1 2498
1 2499
1 2500
1 2501
1 2502
1 2503
1 2504
1 2505
1 2506
1 2507
1 2508
1 2509
1 2510
1 2511
1 2512
1 2513
1 2514
1 2515
1 2516
1 2517
1 2518
1 2519
1 2520
1 2521
1 2522
1 2523
1 2524
1 2525
1 2526
1 2527
1 2528
1 2529
1 2530
1 2531
1 2532
1 2533
1 2534
1 2535
1 2536
1 2537
1 2538
1 2539
1 2540
1 2541
1 2542
1 2543
1 2544
1 2545
1 2546
1 2547
1 2548
1 2549
1 2550
1 2551
1 2552
1 2553
1 2554
1 2555
1 2556
1 2557
1 2558
1 2559
1 2560
1 2561
1 2562
1 2563
1 2564
1 2565
1 2566
1 2567
1 2568
1 2569
1 2570
1 2571
1 2572
1 2573
1 2574
1 2575
1 2576
1 2577
1 2578
1 2579
1 2580
1 2581
1 2582
1 2583
1 2584
1 2585
1 2586
1 2587
1 2588
1 2589
1 2590
1 2591
1 2592
1 2593
1 2594
1 2595
1 2596
1 2597
1 2598
1 2599
1 2600
1 2601
1 2602
1 2603
1 2604
1 2605
1 2606
1 2607
1 2608
1 2609
1 2610
1 2611
1 2612
1 2613
1 2614
1 2615
1 2616
1 2617
1 2618
1 2619
1 2620
1 2621
1 2622
1 2623
1 2624
1 2625
1 2626
1 2627
1 2628
1 2629
1 2630
1 2631
1 2632
1 2633
1 2634
1 2635
1 2636
1 2637
1 2638
1 2639
1 2640
1 2641
1 2642
1 2643
1 2644
1 2645
1 2646
1 2647
1 2648
1 2649
1 2650
1 2651
1 2652
1 2653
1 2654
1 2655
1 2656
1 2657
1 2658
1 2659
1 2660
1 2661
1 2662
1 2663
1 2664
1 2665
1 2666
1 2667
1 2668
1 2669
1 2670
1 2671
1 2672
1 2673
1 2674
1 2675
1 2676
1 2677
1 2678
1 2679
1 2680
1 2681
1 2682
1 2683
1 2684
1 2685
1 2686
1 2687
1 2688
1 2689
1 2690
1 2691
1 2692
1 2693
1 2694
1 2695
1 2696
1 2697
1 2698
1 2699
1 2700
1 2701
1 2702
1 2703
1 2704
1 2705
1 2706
1 2707
1 2708
1 2709
1 2710
1 2711
1 2712
1 2713
1 2714
1 2715
1 2716
1 2717
1 2718
1 2719
1 2720
1 2721
1 2722
1 2723
1 2724
1 2725
1 2726
1 2727
1 2728
1 2729
1 2730
1 2731
1 2732
1 2733
1 2734
1 2735
1 2736
1 2737
1 2738
1 2739
1 2740
1 2741
1 2742
1 2743
1 2744
1 2745
1 2746
1 2747
1 2748
1 2749
1 2750
1 2751
1 2752
1 2753
1 2754
1 2755
1 2756
1 2757
1 2758
1 2759
1 2760
1 2761
1 2762
1 2763
1 2764
1 2765
1 2766
1 2767
1 2768
1 2769
1 2770
1 2771
1 2772
1 2773
1 2774
1 2775
1 2776
1 2777
1 2778
1 2779
1 2780
1 2781
1 2782
1 2783
1 2784
1 2785
1 2786
1 2787
1 2788
1 2789
1 2790
1 2791
1 2792
1 2793
1 2794
1 2795
1 2796
1 2797
1 2798
1 2799
1 2800
1 2801
1 2802
1 2803
1 2804
1 2805
1 2806
1 2807
1 2808
1 2809
1 2810
1 2811
1 2812
1 2813
1 2814
1 2815
1 2816
1 2817
1 2818
1 2819
1 2820
1 2821
1 2822
1 2823
1 2824
1 2825
1 2826
1 2827
1 2828
1 2829
1 2830
1 2831
1 2832
1 2833
1 2834
1 2835
1 2836
1 2837
1 2838
1 2839
1 2840
1 2841
1 2842
1 2843
1 2844
1 2845
1 2846
1 2847
1 2848
1 2849
1 2850
1 2851
1 2852
1 2853
1 2854
1 2855
1 2856
1 2857
1 2858
1 2859
1 2860
1 2861
1 2862
1 2863
1 2864
1 2865
1 2866
1 2867
1 2868
1 2869
1 2870
1 2871
1 2872
1 2873
1 2874
1 2875
1 2876
1 2877
1 2878
1 2879
1 2880
1 2881
1 2882
1 2883
1 2884
1 2885
1 2886
1 2887
1 2888
1 2889
1 2890
1 2891
1 2892
1 2893
1 2894
1 2895
1 2896
1 2897
1 2898
1 2899
1 2900
1 2901
1 2902
1 2903
1 2904
1 2905
1 2906
1 2907
1 2908
1 2909
1 2910
1 2911
1 2912
1 2913
1 2914
1 2915
1 2916
1 2917
1 2918
1 2919
1 2920
1 2921
1 2922
1 2923
1 2924
1 2925
1 2926
1 2927
1 2928
1 2929
1 2930
1 2931
1 2932
1 2933
1 2934
1 2935
1 2936
1 2937
1 2938
1 2939
1 2940
1 2941
1 2942
1 2943
1 2944
1 2945
1 2946
1 2947
1 2948
1 2949
1 2950
1 2951
1 2952
1 2953
1 2954
1 2955
1 2956
1 2957
1 2958
1 2959
1 2960
1 2961
1 2962
1 2963
1 2964
1 2965
1 2966
1 2967
1 2968
1 2969
1 2970
1 2971
1 2972
1 2973
1 2974
1 2975
1 2976
1 2977
1 2978
1 2979
1 2980
1 2981
1 2982
1 2983
1 2984
1 2985
1 2986
1 2987
1 2988
1 2989
1 2990
1 2991
1 2992
1 2993
1 2994
1 2995
1 2996
1 2997
1 2998
1 2999
1 3000
1 3001
1 3002
1 3003
1 3004
1 3005
1 3006
1 3007
1 3008
1 3009
1 3010
1 3011
1 3012
1 3013
1 3014
1 3015
1 3016
1 3017
1 3018
1 3019
1 3020
1 3021
1 3022
1 3023
1 3024
1 3025
1 3026
1 3027
1 3028
1 3029
1 3030
1 3031
1 3032
1 3033
1 3034
1 3035
1 3036
1 3037
1 3038
1 3039
1 3040
1 3041
1 3042
1 3043
1 3044
1 3045
1 3046
1 3047
1 3048
1 3049
1 3050
1 3051
1 3052
1 3053
1 3054
1 3055
1 3056
1 3057
1 3058
1 3059
1 3060
1 3061
1 3062
1 3063
1 3064
1 3065
1 3066
1 3067
1 3068
1 3069
1 3070
1 3071
1 3072
1 3073
1 3074
1 3075
1 3076
1 3077
1 3078
1 3079
1 3080
1 3081
1 3082
1 3083
1 3084
1 3085
1 3086
1 3087
1 3088
1 3089
1 3090
1 3091
1 3092
1 3093
1 3094
1 3095
1 3096
1 3097
1 3098
1 3099
1 3100
1 3101
1 3102
1 3103
1 3104
1 3105
1 3106
1 3107
1 3108
1 3109
1 3110
1 3111
1 3112
1 3113
1 3114
1 3115
1 3116
1 3117
1 3118
1 3119
1 3120
1 3121
1 3122
1 3123
1 3124
1 3125
1 3126
1 3127
1 3128
1 3129
1 3130
1 3131
1 3132
1 3133
1 3134
1 3135
1 3136
1 3137
1 3138
1 3139
1 3140
1 3141
1 3142
1 3143
1 3144
1 3145
1 3146
1 3147
1 3148
1 3149
1 3150
1 3151
1 3152
1 3153
1 3154
1 3155
1 3156
1 3157
1 3158
1 3159
1 3160
1 3161
1 3162
1 3163
1 3164
1 3165
1 3166
1 3167
1 3168
1 3169
1 3170
1 3171
1 3172
1 3173
1 3174
1 3175
1 3176
1 3177
1 3178
1 3179
1 3180
1 3181
1 3182
1 3183
1 3184
1 3185
1 3186
1 3187
1 3188
1 3189
1 3190
1 3191
1 3192
1 3193
1 3194
1 3195
1 3196
1 3197
1 3198
1 3199
1 3200
1 3201
1 3202
1 3203
1 3204
1 3205
1 3206
1 3207
1 3208
1 3209
1 3210
1 3211
1 3212
1 3213
1 3214
1 3215
1 3216
1 3217
1 3218
1 3219
1 3220
1 3221
1 3222
1 3223
1 3224
1 3225
1 3226
1 3227
1 3228
1 3229
1 3230
1 3231
1 3232
1 3233
1 3234
1 3235
1 3236
1 3237
1 3238
1 3239
1 3240
1 3241
1 3242
1 3243
1 3244
1 3245
1 3246
1 3247
1 3248
1 3249
1 3250
1 3251
1 3252
1 3253
1 3254
1 3255
1 3256
1 3257
1 3258
1 3259
1 3260
1 3261
1 3262
1 3263
1 3264
1 3265
1 3266
1 3267
1 3268
1 3269
1 3270
1 3271
1 3272
1 3273
1 3274
1 3275
1 3276
1 3277
1 3278
1 3279
1 3280
1 3281
1 3282
1 3283
1 3284
1 3285
1 3286
1 3287
1 3288
1 3289
1 3290
1 3291
1 3292
1 3293
1 3294
1 3295
1 3296
1 3297
1 3298
1 3299
1 3300
1 3301
1 3302
1 3303
1 3304
1 3305
1 3306
1 3307
1 3308
1 3309
1 3310
1 3311
1 3312
1 3313
1 3314
1 3315
1 3316
1 3317
1 3318
1 3319
1 3320
1 3321
1 3322
1 3323
1 3324
1 3325
1 3326
1 3327
1 3328
1 3329
1 3330
1 3331
1 3332
1 3333
1 3334
1 3335
1 3336
1 3337
1 3338
1 3339
1 3340
1 3341
1 3342
1 3343
1 3344
1 3345
1 3346
1 3347
1 3348
1 3349
1 3350
1 3351
1 3352
1 3353
1 3354
1 3355
1 3356
1 3357
1 3358
1 3359
1 3360
1 3361
1 3362
1 3363
1 3364
1 3365
1 3366
1 3367
1 3368
1 3369
1 3370
1 3371
1 3372
1 3373
1 3374
1 3375
1 3376
1 3377
1 3378
1 3379
1 3380
1 3381
1 3382
1 3383
1 3384
1 3385
1 3386
1 3387
1 3388
1 3389
1 3390
1 3391
1 3392
1 3393
1 3394
1 3395
1 3396
1 3397
1 3398
1 3399
1 3400
1 3401
1 3402
1 3403
1 3404
1 3405
1 3406
1 3407
1 3408
1 3409
1 3410
1 3411
1 3412
1 3413
1 3414
1 3415
1 3416
1 3417
1 3418
1 3419
1 3420
1 3421
1 3422
1 3423
1 3424
1 3425
1 3426
1 3427
1 3428
1 3429
1 3430
1 3431
1 3432
1 3433
1 3434
1 3435
1 3436
1 3437
1 3438
1 3439
1 3440
1 3441
1 3442
1 3443
1 3444
1 3445
1 3446
1 3447
1 3448
1 3449
1 3450
1 3451
1 3452
1 3453
1 3454
1 3455
1 3456
1 3457
1 3458
1 3459
1 3460
1 3461
1 3462
1 3463
1 3464
1 3465
1 3466
1 3467
1 3468
1 3469
1 3470
1 3471
1 3472
1 3473
1 3474
1 3475
1 3476
1 3477
1 3478
1 3479
1 3480
1 3481
1 3482
1 3483
1 3484
1 3485
1 3486
1 3487
1 3488
1 3489
1 3490
1 3491
1 3492
1 3493
1 3494
1 3495
1 3496
1 3497
1 3498
1 3499
1 3500
1 3501
1 3502
1 3503
1 3504
1 3505
1 3506
1 3507
1 3508
1 3509
1 3510
1 3511
1 3512
1 3513
1 3514
1 3515
1 3516
1 3517
1 3518
1 3519
1 3520
1 3521
1 3522
1 3523
1 3524
1 3525
1 3526
1 3527
1 3528
1 3529
1 3530
1 3531
1 3532
1 3533
1 3534
1 3535
1 3536
1 3537
1 3538
1 3539
1 3540
1 3541
1 3542
1 3543
1 3544
1 3545
1 3546
1 3547
1 3548
1 3549
1 3550
1 3551
1 3552
1 3553
1 3554
1 3555
1 3556
1 3557
1 3558
1 3559
1 3560
1 3561
1 3562
1 3563
1 3564
1 3565
1 3566
1 3567
1 3568
1 3569
1 3570
1 3571
1 3572
1 3573
1 3574
1 3575
1 3576
1 3577
1 3578
1 3579
1 3580
1 3581
1 3582
1 3583
1 3584
1 3585
1 3586
1 3587
1 3588
1 3589
1 3590
1 3591
1 3592
1 3593
1 3594
1 3595
1 3596
1 3597
1 3598
1 3599
1 3600
1 3601
1 3602
1 3603
1 3604
1 3605
1 3606
1 3607
1 3608
1 3609
1 3610
1 3611
1 3612
1 3613
1 3614
1 3615
1 3616
1 3617
1 3618
1 3619
1 3620
1 3621
1 3622
1 3623
1 3624
1 3625
1 3626
1 3627
1 3628
1 3629
1 3630
1 3631
1 3632
1 3633
1 3634
1 3635
1 3636
1 3637
1 3638
1 3639
1 3640
1 3641
1 3642
1 3643
1 3644
1 3645
1 3646
1 3647
1 3648
1 3649
1 3650
1 3651
1 3652
1 3653
1 3654
1 3655
1 3656
1 3657
1 3658
1 3659
1 3660
1 3661
1 3662
1 3663
1 3664
1 3665
1 3666
1 3667
1 3668
1 3669
1 3670
1 3671
1 3672
1 3673
1 3674
1 3675
1 3676
1 3677
1 3678
1 3679
1 3680
1 3681
1 3682
1 3683
1 3684
1 3685
1 3686
1 3687
1 3688
1 3689
1 3690
1 3691
1 3692
1 3693
1 3694
1 3695
1 3696
1 3697
1 3698
1 3699
1 3700
1 3701
1 3702
1 3703
1 3704
1 3705
1 3706
1 3707
1 3708
1 3709
1 3710
1 3711
1 3712
1 3713
1 3714
1 3715
1 3716
1 3717
1 3718
1 3719
1 3720
1 3721
1 3722
1 3723
1 3724
1 3725
1 3726
1 3727
1 3728
1 3729
1 3730
1 3731
1 3732
1 3733
1 3734
1 3735
1 3736
1 3737
1 3738
1 3739
1 3740
1 3741
1 3742
1 3743
1 3744
1 3745
1 3746
1 3747
1 3748
1 3749
1 3750
1 3751
1 3752
1 3753
1 3754
1 3755
1 3756
1 3757
1 3758
1 3759
1 3760
1 3761
1 3762
1 3763
1 3764
1 3765
1 3766
1 3767
1 3768
1 3769
1 3770
1 3771
1 3772
1 3773
1 3774
1 3775
1 3776
1 3777
1 3778
1 3779
1 3780
1 3781
1 3782
1 3783
1 3784
1 3785
1 3786
1 3787
1 3788
1 3789
1 3790
1 3791
1 3792
1 3793
1 3794
1 3795
1 3796
1 3797
1 3798
1 3799
1 3800
1 3801
1 3802
1 3803
1 3804
1 3805
1 3806
1 3807
1 3808
1 3809
1 3810
1 3811
1 3812
1 3813
1 3814
1 3815
1 3816
1 3817
1 3818
1 3819
1 3820
1 3821
1 3822
1 3823
1 3824
1 3825
1 3826
1 3827
1 3828
1 3829
1 3830
1 3831
1 3832
1 3833
1 3834
1 3835
1 3836
1 3837
1 3838
1 3839
1 3840
1 3841
1 3842
1 3843
1 3844
1 3845
1 3846
1 3847
1 3848
1 3849
1 3850
1 3851
1 3852
1 3853
1 3854
1 3855
1 3856
1 3857
1 3858
1 3859
1 3860
1 3861
1 3862
1 3863
1 3864
1 3865
1 3866
1 3867
1 3868
1 3869
1 3870
1 3871
1 3872
1 3873
1 3874
1 3875
1 3876
1 3877
1 3878
1 3879
1 3880
1 3881
1 3882
1 3883
1 3884
1 3885
1 3886
1 3887
1 3888
1 3889
1 3890
1 3891
1 3892
1 3893
1 3894
1 3895
1 3896
1 3897
1 3898
1 3899
1 3900
1 3901
1 3902
1 3903
1 3904
1 3905
1 3906
1 3907
1 3908
1 3909
1 3910
1 3911
1 3912
1 3913
1 3914
1 3915
1 3916
1 3917
1 3918
1 3919
1 3920
1 3921
1 3922
1 3923
1 3924
1 3925
1 3926
1 3927
1 3928
1 3929
1 3930
1 3931
1 3932
1 3933
1 3934
1 3935
1 3936
1 3937
1 3938
1 3939
1 3940
1 3941
1 3942
1 3943
1 3944
1 3945
1 3946
1 3947
1 3948
1 3949
1 3950
1 3951
1 3952
1 3953
1 3954
1 3955
1 3956
1 3957
1 3958
1 3959
1 3960
1 3961
1 3962
1 3963
1 3964
1 3965
1 3966
1 3967
1 3968
1 3969
1 3970
1 3971
1 3972
1 3973
1 3974
1 3975
1 3976
1 3977
1 3978
1 3979
1 3980
1 3981
1 3982
1 3983
1 3984
1 3985
1 3986
1 3987
1 3988
1 3989
1 3990
1 3991
1 3992
1 3993
1 3994
1 3995
1 3996
1 3997
1 3998
1 3999
1 4000
1 4001
1 4002
1 4003
1 4004
1 4005
1 4006
1 4007
1 4008
1 4009
1 4010
1 4011
1 4012
1 4013
1 4014
1 4015
1 4016
1 4017
1 4018
1 4019
1 4020
1 4021
1 4022
1 4023
1 4024
1 4025
1 4026
1 4027
1 4028
1 4029
1 4030
1 4031
1 4032
1 4033
1 4034
1 4035
1 4036
1 4037
1 4038
1 4039
1 4040
1 4041
1 4042
1 4043
1 4044
1 4045
1 4046
1 4047
1 4048
1 4049
1 4050
1 4051
1 4052
1 4053
1 4054
1 4055
1 4056
1 4057
1 4058
1 4059
1 4060
1 4061
1 4062
1 4063
1 4064
1 4065
1 4066
1 4067
1 4068
1 4069
1 4070
1 4071
1 4072
1 4073
1 4074
1 4075
1 4076
1 4077
1 4078
1 4079
1 4080
1 4081
1 4082
1 4083
1 4084
1 4085
1 4086
1 4087
1 4088
1 4089
1 4090
1 4091
1 4092
1 4093
1 4094
1 4095
1 4096
1 4097
1 4098
1 4099
1 4100
1 4101
1 4102
1 4103
1 4104
1 4105
1 4106
1 4107
1 4108
1 4109
1 4110
1 4111
1 4112
1 4113
1 4114
1 4115
1 4116
1 4117
1 4118
1 4119
1 4120
1 4121
1 4122
1 4123
1 4124
1 4125
1 4126
1 4127
1 4128
1 4129
1 4130
1 4131
1 4132
1 4133
1 4134
1 4135
1 4136
1 4137
1 4138
1 4139
1 4140
1 4141
1 4142
1 4143
1 4144
1 4145
1 4146
1 4147
1 4148
1 4149
1 4150
1 4151
1 4152
1 4153
1 4154
1 4155
1 4156
1 4157
1 4158
1 4159
1 4160
1 4161
1 4162
1 4163
1 4164
1 4165
1 4166
1 4167
1 4168
1 4169
1 4170
1 4171
1 4172
1 4173
1 4174
1 4175
1 4176
1 4177
1 4178
1 4179
1 4180
1 4181
1 4182
1 4183
1 4184
1 4185
1 4186
1 4187
1 4188
1 4189
1 4190
1 4191
1 4192
1 4193
1 4194
1 4195
1 4196
1 4197
1 4198
1 4199
1 4200
1 4201
1 4202
1 4203
1 4204
1 4205
1 4206
1 4207
1 4208
1 4209
1 4210
1 4211
1 4212
1 4213
1 4214
1 4215
1 4216
1 4217
1 4218
1 4219
1 4220
1 4221
1 4222
1 4223
1 4224
1 4225
1 4226
1 4227
1 4228
1 4229
1 4230
1 4231
1 4232
1 4233
1 4234
1 4235
1 4236
1 4237
1 4238
1 4239
1 4240
1 4241
1 4242
1 4243
1 4244
1 4245
1 4246
1 4247
1 4248
1 4249
1 4250
1 4251
1 4252
1 4253
1 4254
1 4255
1 4256
1 4257
1 4258
1 4259
1 4260
1 4261
1 4262
1 4263
1 4264
1 4265
1 4266
1 4267
1 4268
1 4269
1 4270
1 4271
1 4272
1 4273
1 4274
1 4275
1 4276
1 4277
1 4278
1 4279
1 4280
1 4281
1 4282
1 4283
1 4284
1 4285
1 4286
1 4287
1 4288
1 4289
1 4290
1 4291
1 4292
1 4293
1 4294
1 4295
1 4296
1 4297
1 4298
1 4299
1 4300
1 4301
1 4302
1 4303
1 4304
1 4305
1 4306
1 4307
1 4308
1 4309
1 4310
1 4311
1 4312
1 4313
1 4314
1 4315
1 4316
1 4317
1 4318
1 4319
1 4320
1 4321
1 4322
1 4323
1 4324
1 4325
1 4326
1 4327
1 4328
1 4329
1 4330
1 4331
1 4332
1 4333
1 4334
1 4335
1 4336
1 4337
1 4338
1 4339
1 4340
1 4341
1 4342
1 4343
1 4344
1 4345
1 4346
1 4347
1 4348
1 4349
1 4350
1 4351
1 4352
1 4353
1 4354
1 4355
1 4356
1 4357
1 4358
1 4359
1 4360
1 4361
1 4362
1 4363
1 4364
1 4365
1 4366
1 4367
1 4368
1 4369
1 4370
1 4371
1 4372
1 4373
1 4374
1 4375
1 4376
1 4377
1 4378
1 4379
1 4380
1 4381
1 4382
1 4383
1 4384
1 4385
1 4386
1 4387
1 4388
1 4389
1 4390
1 4391
1 4392
1 4393
1 4394
1 4395
1 4396
1 4397
1 4398
1 4399
1 4400
1 4401
1 4402
1 4403
1 4404
1 4405
1 4406
1 4407
1 4408
1 4409
1 4410
1 4411
1 4412
1 4413
1 4414
1 4415
1 4416
1 4417
1 4418
1 4419
1 4420
1 4421
1 4422
1 4423
1 4424
1 4425
1 4426
1 4427
1 4428
1 4429
1 4430
1 4431
1 4432
1 4433
1 4434
1 4435
1 4436
1 4437
1 4438
1 4439
1 4440
1 4441
1 4442
1 4443
1 4444
1 4445
1 4446
1 4447
1 4448
1 4449
1 4450
1 4451
1 4452
1 4453
1 4454
1 4455
1 4456
1 4457
1 4458
1 4459
1 4460
1 4461
1 4462
1 4463
1 4464
1 4465
1 4466
1 4467
1 4468
1 4469
1 4470
1 4471
1 4472
1 4473
1 4474
1 4475
1 4476
1 4477
1 4478
1 4479
1 4480
1 4481
1 4482
1 4483
1 4484
1 4485
1 4486
1 4487
1 4488
1 4489
1 4490
1 4491
1 4492
1 4493
1 4494
1 4495
1 4496
1 4497
1 4498
1 4499
1 4500
1 4501
1 4502
1 4503
1 4504
1 4505
1 4506
1 4507
1 4508
1 4509
1 4510
1 4511
1 4512
1 4513
1 4514
1 4515
1 4516
1 4517
1 4518
1 4519
1 4520
1 4521
1 4522
1 4523
1 4524
1 4525
1 4526
1 4527
1 4528
1 4529
1 4530
1 4531
1 4532
1 4533
1 4534
1 4535
1 4536
1 4537
1 4538
1 4539
1 4540
1 4541
1 4542
1 4543
1 4544
1 4545
1 4546
1 4547
1 4548
1 4549
1 4550
1 4551
1 4552
1 4553
1 4554
1 4555
1 4556
1 4557
1 4558
1 4559
1 4560
1 4561
1 4562
1 4563
1 4564
1 4565
1 4566
1 4567
1 4568
1 4569
1 4570
1 4571
1 4572
1 4573
1 4574
1 4575
1 4576
1 4577
1 4578
1 4579
1 4580
1 4581
1 4582
1 4583
1 4584
1 4585
1 4586
1 4587
1 4588
1 4589
1 4590
1 4591
1 4592
1 4593
1 4594
1 4595
1 4596
1 4597
1 4598
1 4599
1 4600
1 4601
1 4602
1 4603
1 4604
1 4605
1 4606
1 4607
1 4608
1 4609
1 4610
1 4611
1 4612
1 4613
1 4614
1 4615
1 4616
1 4617
1 4618
1 4619
1 4620
1 4621
1 4622
1 4623
1 4624
1 4625
1 4626
1 4627
1 4628
1 4629
1 4630
1 4631
1 4632
1 4633
1 4634
1 4635
1 4636
1 4637
1 4638
1 4639
1 4640
1 4641
1 4642
1 4643
1 4644
1 4645
1 4646
1 4647
1 4648
1 4649
1 4650
1 4651
1 4652
1 4653
1 4654
1 4655
1 4656
1 4657
1 4658
1 4659
1 4660
1 4661
1 4662
1 4663
1 4664
1 4665
1 4666
1 4667
1 4668
1 4669
1 4670
1 4671
1 4672
1 4673
1 4674
1 4675
1 4676
1 4677
1 4678
1 4679
1 4680
1 4681
1 4682
1 4683
1 4684
1 4685
1 4686
1 4687
1 4688
1 4689
1 4690
1 4691
1 4692
1 4693
1 4694
1 4695
1 4696
1 4697
1 4698
1 4699
1 4700
1 4701
1 4702
1 4703
1 4704
1 4705
1 4706
1 4707
1 4708
1 4709
1 4710
1 4711
1 4712
1 4713
1 4714
1 4715
1 4716
1 4717
1 4718
1 4719
1 4720
1 4721
1 4722
1 4723
1 4724
1 4725
1 4726
1 4727
1 4728
1 4729
1 4730
1 4731
1 4732
1 4733
1 4734
1 4735
1 4736
1 4737
1 4738
1 4739
1 4740
1 4741
1 4742
1 4743
1 4744
1 4745
1 4746
1 4747
1 4748
1 4749
1 4750
1 4751
1 4752
1 4753
1 4754
1 4755
1 4756
1 4757
1 4758
1 4759
1 4760
1 4761
1 4762
1 4763
1 4764
1 4765
1 4766
1 4767
1 4768
1 4769
1 4770
1 4771
1 4772
1 4773
1 4774
1 4775
1 4776
1 4777
1 4778
1 4779
1 4780
1 4781
1 4782
1 4783
1 4784
1 4785
1 4786
1 4787
1 4788
1 4789
1 4790
1 4791
1 4792
1 4793
1 4794
1 4795
1 4796
1 4797
1 4798
1 4799
1 4800
1 4801
1 4802
1 4803
1 4804
1 4805
1 4806
1 4807
1 4808
1 4809
1 4810
1 4811
1 4812
1 4813
1 4814
1 4815
1 4816
1 4817
1 4818
1 4819
1 4820
1 4821
1 4822
1 4823
1 4824
1 4825
1 4826
1 4827
1 4828
1 4829
1 4830
1 4831
1 4832
1 4833
1 4834
1 4835
1 4836
1 4837
1 4838
1 4839
1 4840
1 4841
1 4842
1 4843
1 4844
1 4845
1 4846
1 4847
1 4848
1 4849
1 4850
1 4851
1 4852
1 4853
1 4854
1 4855
1 4856
1 4857
1 4858
1 4859
1 4860
1 4861
1 4862
1 4863
1 4864
1 4865
1 4866
1 4867
1 4868
1 4869
1 4870
1 4871
1 4872
1 4873
1 4874
1 4875
1 4876
1 4877
1 4878
1 4879
1 4880
1 4881
1 4882
1 4883
1 4884
1 4885
1 4886
1 4887
1 4888
1 4889
1 4890
1 4891
1 4892
1 4893
1 4894
1 4895
1 4896
1 4897
1 4898
1 4899
1 4900
1 4901
1 4902
1 4903
1 4904
1 4905
1 4906
1 4907
1 4908
1 4909
1 4910
1 4911
1 4912
1 4913
1 4914
1 4915
1 4916
1 4917
1 4918
1 4919
1 4920
1 4921
1 4922
1 4923
1 4924
1 4925
1 4926
1 4927
1 4928
1 4929
1 4930
1 4931
1 4932
1 4933
1 4934
1 4935
1 4936
1 4937
1 4938
1 4939
1 4940
1 4941
1 4942
1 4943
1 4944
1 4945
1 4946
1 4947
1 4948
1 4949
1 4950
1 4951
1 4952
1 4953
1 4954
1 4955
1 4956
1 4957
1 4958
1 4959
1 4960
1 4961
1 4962
1 4963
1 4964
1 4965
1 4966
1 4967
1 4968
1 4969
1 4970
1 4971
1 4972
1 4973
1 4974
1 4975
1 4976
1 4977
1 4978
1 4979
1 4980
1 4981
1 4982
1 4983
1 4984
1 4985
1 4986
1 4987
1 4988
1 4989
1 4990
1 4991
1 4992
1 4993
1 4994
1 4995
1 4996
1 4997
1 4998
1 4999
CELL_TYPES 5000
1 
1 
1 
1 
1 
1 
1 
1 
1 
1 
1 
1 
1 
1 
1 
1 
1 
1 
1 
1 
1 
1 
1 
1 
1 
1 
1 
1 
1 
1 
1 
1 
1 
1 
1 
1 
1 
1 
1 
1 
1 
1 
1 
1 
1 
1 
1 
1 
1 
1 
1 
1 
1 
1 
1 
1 
1 
1 
1 
1 
1 
1 
1 
1 
1 
1 
1 
1 
1 
1 
1 
1 
1 
1 
1 
1 
1 
1 
1 
1 
1 
1 
1 
1 
1 
1 
1 
1 
1 
1 
1 
1 
1 
1 
1 
1 
1 
1 
1 
1 
1 
1 
1 
1 
1 
1 
1 
1 
1 
1 
1 
1 
1 
1 
1 
1 
1 
1 
1 
1 
1 
1 
1 
1 
1 
1 
1 
1 
1 
1 
1 
1 
1 
1 
1 
1 
1 
1 
1 
1 
1 
1 
1 
1 
1 
1 
1 
1 
1 
1 
1 
1 
1 
1 
1 
1 
1 
1 
1 
1 
1 
1 
1 
1 
1 
1 
1 
1 
1 
1 
1 
1 
1 
1 
1 
1 
1 
1 
1 
1 
1 
1 
1 
1 
1 
1 
1 
1 
1 
1 
1 
1 
1 
1 
1 
1 
1 
1 
1 
1 
1 
1 
1 
1 
1 
1 
1 
1 
1 
1 
1 
1 
1 
1 
1 
1 
1 
1 
1 
1 
1 
1 
1 
1 
1 
1 
1 
1 
1 
1 
1 
1 
1 
1 
1 
1 
1 
1 
1 
1 
1 
1 
1 
1 
1 
1 
1 
1 
1 
1 
1 
1 
1 
1 
1 
1 
1 
1 
1 
1 
1 
1 
1 
1 
1 
1 
1 
1 
1 
1 
1 
1 
1 
1 
1 
1 
1 
1 
1 
1 
1 
1 
1 
1 
1 
1 
1 
1 
1 
1 
1 
1 
1 
1 
1 
1 
1 
1 
1 
1 
1 
1 
1 
1 
1 
1 
1 
1 
1 
1 
1 
1 
1 
1 
1 
1 
1 
1 
1 
1 
1 
1 
1 
1 
1 
1 
1 
1 
1 
1 
1 
1 
1 
1 
1 
1 
1 
1 
1 
1 
1 
1 
1 
1 
1 
1 
1 
1 
1 
1 
1 
1 
1 
1 
1 
1 
1 
1 
1 
1 
1 
1 
1 
1 
1 
1 
1 
1 
1 
1 
1 
1 
1 
1 
1 
1 
1 
1 
1 
1 
1 
1 
1 
1 
1 
1 
1 
1 
1 
1 
1 
1 
1 
1 
1 
1 
1 
1 
1 
1 
1 
1 
1 
1 
1 
1 
1 
1 
1 
1 
1 
1 
1 
1 
1 
1 
1 
1 
1 
1 
1 
1 
1 
1 
1 
1 
1 
1 
1 
1 
1 
1 
1 
1 
1 
1 
1 
1 
1 
1 
1 
1 
1 
1 
1 
1 
1 
1 
1 
1 
1 
1 
1 
1 
1 
1 
1 
1 
1 
1 
1 
1 
1 
1 
1 
1 
1 
1 
1 
1 
1 
1 
1 
1 
1 
1 
1 
1 
1 
1 
1 
1 
1 
1 
1 
1 
1 
1 
1 
1 
1 
1 
1 
1 
1 
1 
1 
1 
1 
1 
1 
1 
1 
1 
1 
1 
1 
1 
1 
1 
1 
1 
1 
1 
1 
1 
1 
1 
1 
1 
1 
1 
1 
1 
1 
1 
1 
1 
1 
1 
1 
1 
1 
1 
1 
1 
1 
1 
1 
1 
1 
1 
1 
1 
1 
1 
1 
1 
1 
1 
1 
1 
1 
1 
1 
1 
1 
1 
1 
1 
1 
1 
1 
1 
1 
1 
1 
1 
1 
1 
1 
1 
1 
1 
1 
1 
1 
1 
1 
1 
1 
1 
1 
1 
1 
1 
1 
1 
1 
1 
1 
1 
1 
1 
1 
1 
1 
1 
1 
1 
1 
1 
1 
1 
1 
1 
1 
1 
1 
1 
1 
1 
1 
1 
1 
1 
1 
1 
1 
1 
1 
1 
1 
1 
1 
1 
1 
1 
1 
1 
1 
1 
1 
1 
1 
1 
1 
1 
1 
1 
1 
1 
1 
1 
1 
1 
1 
1 
1 
1 
1 
1 
1 
1 
1 
1 
1 
1 
1 
1 
1 
1 
1 
1 
1 
1 
1 
1 
1 
1 
1 
1 
1 
1 
1 
1 
1 
1 
1 
1 
1 
1 
1 
1 
1 
1 
1 
1 
1 
1 
1 
1 
1 
1 
1 
1 
1 
1 
1 
1 
1 
1 
1 
1 
1 
1 
1 
1 
1 
1 
1 
1 
1 
1 
1 
1 
1 
1 
1 
1 
1 
1 
1 
1 
1 
1 
1 
1 
1 
1 
1 
1 
1 
1 
1 
1 
1 
1 
1 
1 
1 
1 
1 
1 
1 
1 
1 
1 
1 
1 
1 
1 
1 
1 
1 
1 
1 
1 
1 
1 
1 
1 
1 
1 
1 
1 
1 
1 
1 
1 
1 
1 
1 
1 
1 
1 
1 
1 
1 
1 
1 
1 
1 
1 
1 
1 
1 
1 
1 
1 
1 
1 
1 
1 
1 
1 
1 
1 
1 
1 
1 
1 
1 
1 
1 
1 
1 
1 
1 
1 
1 
1 
1 
1 
1 
1 
1 
1 
1 
1 
1 
1 
1 
1 
1 
1 
1 
1 
1 
1 
1 
1 
1 
1 
1 
1 
1 
1 
1 
1 
1 
1 
1 
1 
1 
1 
1 
1 
1 
1 
1 
1 
1 
1 
1 
1 
1 
1 
1 
1 
1 
1 
1 
1 
1 
1 
1 
1 
1 
1 
1 
1 
1 
1 
1 
1 
1 
1 
1 
1 
1 
1 
1 
1 
1 
1 
1 
1 
1 
1 
1 
1 
1 
1 
1 
1 
1 
1 
1 
1 
1 
1 
1 
1 
1 
1 
1 
1 
1 
1 
1 
1 
1 
1 
1 
1 
1 
1 
1 
1 
1 
1 
1 
1 
1 
1 
1 
1 
1 
1 
1 
1 
1 
1 
1 
1 
1 
1 
1 
1 
1 
1 
1 
1 
1 
1 
1 
1 
1 
1 
1 
1 
1 
1 
1 
1 
1 
1 
1 
1 
1 
1 
1 
1 
1 
1 
1 
1 
1 
1 
1 
1 
1 
1 
1 
1 
1 
1 
1 
1 
1 
1 
1 
1 
1 
1 
1 
1 
1 
1 
1 
1 
1 
1 
1 
1 
1 
1 
1 
1 
1 
1 
1 
1 
1 
1 
1 
1 
1 
1 
1 
1 
1 
1 
1 
1 
1 
1 
1 
1 
1 
1 
1 
1 
1 
1 
1 
1 
1 
1 
1 
1 
1 
1 
1 
1 
1 
1 
1 
1 
1 
1 
1 
1 
1 
1 
1 
1 
1 
1 
1 
1 
1 
1 
1 
1 
1 
1 
1 
1 
1 
1 
1 
1 
1 
1 
1 
1 
1 
1 
1 
1 
1 
1 
1 
1 
1 
1 
1 
1 
1 
1 
1 
1 
1 
1 
1 
1 
1 
1 
1 
1 
1 
1 
1 
1 
1 
1 
1 
1 
1 
1 
1 
1 
1 
1 
1 
1 
1 
1 
1 
1 
1 
1 
1 
1 
1 
1 
1 
1 
1 
1 
1 
1 
1 
1 
1 
1 
1 
1 
1 
1 
1 
1 
1 
1 
1 
1 
1 
1 
1 
1 
1 
1 
1 
1 
1 
1 
1 
1 
1 
1 
1 
1 
1 
1 
1 
1 
1 
1 
1 
1 
1 
1 
1 
1 
1 
1 
1 
1 
1 
1 
1 
1 
1 
1 
1 
1 
1 
1 
1 
1 
1 
1 
1 
1 
1 
1 
1 
1 
1 
1 
1 
1 
1 
1 
1 
1 
1 
1 
1 
1 
1 
1 
1 
1 
1 
1 
1 
1 
1 
1 
1 
1 
1 
1 
1 
1 
1 
1 
1 
1 
1 
1 
1 
1 
1 
1 
1 
1 
1 
1 
1 
1 
1 
1 
1 
1 
1 
1 
1 
1 
1 
1 
1 
1 
1 
1 
1 
1 
1 
1 
1 
1 
1 
1 
1 
1 
1 
1 
1 
1 
1 
1 
1 
1 
1 
1 
1 
1 
1 
1 
1 
1 
1 
1 
1 
1 
1 
1 
1 
1 
1 
1 
1 
1 
1 
1 
1 
1 
1 
1 
1 
1 
1 
1 
1 
1 
1 
1 
1 
1 
1 
1 
1 
1 
1 
1 
1 
1 
1 
1 
1 
1 
1 
1 
1 
1 
1 
1 
1 
1 
1 
1 
1 
1 
1 
1 
1 
1 
1 
1 
1 
1 
1 
1 
1 
1 
1 
1 
1 
1 
1 
1 
1 
1 
1 
1 
1 
1 
1 
1 
1 
1 
1 
1 
1 
1 
1 
1 
1 
1 
1 
1 
1 
1 
1 
1 
1 
1 
1 
1 
1 
1 
1 
1 
1 
1 
1 
1 
1 
1 
1 
1 
1 
1 
1 
1 
1 
1 
1 
1 
1 
1 
1 
1 
1 
1 
1 
1 
1 
1 
1 
1 
1 
1 
1 
1 
1 
1 
1 
1 
1 
1 
1 
1 
1 
1 
1 
1 
1 
1 
1 
1 
1 
1 
1 
1 
1 
1 
1 
1 
1 
1 
1 
1 
1 
1 
1 
1 
1 
1 
1 
1 
1 
1 
1 
1 
1 
1 
1 
1 
1 
1 
1 
1 
1 
1 
1 
1 
1 
1 
1 
1 
1 
1 
1 
1 
1 
1 
1 
1 
1 
1 
1 
1 
1 
1 
1 
1 
1 
1 
1 
1 
1 
1 
1 
1 
1 
1 
1 
1 
1 
1 
1 
1 
1 
1 
1 
1 
1 
1 
1 
1 
1 
1 
1 
1 
1 
1 
1 
1 
1 
1 
1 
1 
1 
1 
1 
1 
1 
1 
1 
1 
1 
1 
1 
1 
1 
1 
1 
1 
1 
1 
1 
1 
1 
1 
1 
1 
1 
1 
1 
1 
1 
1 
1 
1 
1 
1 
1 
1 
1 
1 
1 
1 
1 
1 
1 
1 
1 
1 
1 
1 
1 
1 
1 
1 
1 
1 
1 
1 
1 
1 
1 
1 
1 
1 
1 
1 
1 
1 
1 
1 
1 
1 
1 
1 
1 
1 
1 
1 
1 
1 
1 
1 
1 
1 
1 
1 
1 
1 
1 
1 
1 
1 
1 
1 
1 
1 
1 
1 
1 
1 
1 
1 
1 
1 
1 
1 
1 
1 
1 
1 
1 
1 
1 
1 
1 
1 
1 
1 
1 
1 
1 
1 
1 
1 
1 
1 
1 
1 
1 
1 
1 
1 
1 
1 
1 
1 
1 
1 
1 
1 
1 
1 
1 
1 
1 
1 
1 
1 
1 
1 
1 
1 
1 
1 
1 
1 
1 
1 
1 
1 
1 
1 
1 
1 
1 
1 
1 
1 
1 
1 
1 
1 
1 
1 
1 
1 
1 
1 
1 
1 
1 
1 
1 
1 
1 
1 
1 
1 
1 
1 
1 
1 
1 
1 
1 
1 
1 
1 
1 
1 
1 
1 
1 
1 
1 
1 
1 
1 
1 
1 
1 
1 
1 
1 
1 
1 
1 
1 
1 
1 
1 
1 
1 
1 
1 
1 
1 
1 
1 
1 
1 
1 
1 
1 
1 
1 
1 
1 
1 
1 
1 
1 
1 
1 
1 
1 
1 
1 
1 
1 
1 
1 
1 
1 
1 
1 
1 
1 
1 
1 
1 
1 
1 
1 
1 
1 
1 
1 
1 
1 
1 
1 
1 
1 
1 
1 
1 
1 
1 
1 
1 
1 
1 
1 
1 
1 
1 
1 
1 
1 
1 
1 
1 
1 
1 
1 
1 
1 
1 
1 
1 
1 
1 
1 
1 
1 
1 
1 
1 
1 
1 
1 
1 
1 
1 
1 
1 
1 
1 
1 
1 
1 
1 
1 
1 
1 
1 
1 
1 
1 
1 
1 
1 
1 
1 
1 
1 
1 
1 
1 
1 
1 
1 
1 
1 
1 
1 
1 
1 
1 
1 
1 
1 
1 
1 
1 
1 
1 
1 
1 
1 
1 
1 
1 
1 
1 
1 
1 
1 
1 
1 
1 
1 
1 
1 
1 
1 
1 
1 
1 
1 
1 
1 
1 
1 
1 
1 
1 
1 
1 
1 
1 
1 
1 
1 
1 
1 
1 
1 
1 
1 
1 
1 
1 
1 
1 
1 
1 
1 
1 
1 
1 
1 
1 
1 
1 
1 
1 
1 
1 
1 
1 
1 
1 
1 
1 
1 
1 
1 
1 
1 
1 
1 
1 
1 
1 
1 
1 
1 
1 
1 
1 
1 
1 
1 
1 
1 
1 
1 
1 
1 
1 
1 
1 
1 
1 
1 
1 
1 
1 
1 
1 
1 
1 
1 
1 
1 
1 
1 
1 
1 
1 
1 
1 
1 
1 
1 
1 
1 
1 
1 
1 
1 
1 
1 
1 
1 
1 
1 
1 
1 
1 
1 
1 
1 
1 
1 
1 
1 
1 
1 
1 
1 
1 
1 
1 
1 
1 
1 
1 
1 
1 
1 
1 
1 
1 
1 
1 
1 
1 
1 
1 
1 
1 
1 
1 
1 
1 
1 
1 
1 
1 
1 
1 
1 
1 
1 
1 
1 
1 
1 
1 
1 
1 
1 
1 
1 
1 
1 
1 
1 
1 
1 
1 
1 
1 
1 
1 
1 
1 
1 
1 
1 
1 
1 
1 
1 
1 
1 
1 
1 
1 
1 
1 
1 
1 
1 
1 
1 
1 
1 
1 
1 
1 
1 
1 
1 
1 
1 
1 
1 
1 
1 
1 
1 
1 
1 
1 
1 
1 
1 
1 
1 
1 
1 
1 
1 
1 
1 
1 
1 
1 
1 
1 
1 
1 
1 
1 
1 
1 
1 
1 
1 
1 
1 
1 
1 
1 
1 
1 
1 
1 
1 
1 
1 
1 
1 
1 
1 
1 
1 
1 
1 
1 
1 
1 
1 
1 
1 
1 
1 
1 
1 
1 
1 
1 
1 
1 
1 
1 
1 
1 
1 
1 
1 
1 
1 
1 
1 
1 
1 
1 
1 
1 
1 
1 
1 
1 
1 
1 
1 
1 
1 
1 
1 
1 
1 
1 
1 
1 
1 
1 
1 
1 
1 
1 
1 
1 
1 
1 
1 
1 
1 
1 
1 
1 
1 
1 
1 
1 
1 
1 
1 
1 
1 
1 
1 
1 
1 
1 
1 
1 
1 
1 
1 
1 
1 
1 
1 
1 
1 
1 
1 
1 
1 
1 
1 
1 
1 
1 
1 
1 
1 
1 
1 
1 
1 
1 
1 
1 
1 
1 
1 
1 
1 
1 
1 
1 
1 
1 
1 
1 
1 
1 
1 
1 
1 
1 
1 
1 
1 
1 
1 
1 
1 
1 
1 
1 
1 
1 
1 
1 
1 
1 
1 
1 
1 
1 
1 
1 
1 
1 
1 
1 
1 
1 
1 
1 
1 
1 
1 
1 
1 
1 
1 
1 
1 
1 
1 
1 
1 
1 
1 
1 
1 
1 
1 
1 
1 
1 
1 
1 
1 
1 
1 
1 
1 
1 
1 
1 
1 
1 
1 
1 
1 
1 
1 
1 
1 
1 
1 
1 
1 
1 
1 
1 
1 
1 
1 
1 
1 
1 
1 
1 
1 
1 
1 
1 
1 
1 
1 
1 
1 
1 
1 
1 
1 
1 
1 
1 
1 
1 
1 
1 
1 
1 
1 
1 
1 
1 
1 
1 
1 
1 
1 
1 
1 
1 
1 
1 
1 
1 
1 
1 
1 
1 
1 
1 
1 
1 
1 
1 
1 
1 
1 
1 
1 
1 
1 
1 
1 
1 
1 
1 
1 
1 
1 
1 
1 
1 
1 
1 
1 
1 
1 
1 
1 
1 
1 
1 
1 
1 
1 
1 
1 
1 
1 
1 
1 
1 
1 
1 
1 
1 
1 
1 
1 
1 
1 
1 
1 
1 
1 
1 
1 
1 
1 
1 
1 
1 
1 
1 
1 
1 
1 
1 
1 
1 
1 
1 
1 
1 
1 
1 
1 
1 
1 
1 
1 
1 
1 
1 
1 
1 
1 
1 
1 
1 
1 
1 
1 
1 
1 
1 
1 
1 
1 
1 
1 
1 
1 
1 
1 
1 
1 
1 
1 
1 
1 
1 
1 
1 
1 
1 
1 
1 
1 
1 
1 
1 
1 
1 
1 
1 
1 
1 
1 
1 
1 
1 
1 
1 
1 
1 
1 
1 
1 
1 
1 
1 
1 
1 
1 
1 
1 
1 
1 
1 
1 
1 
1 
1 
1 
1 
1 
1 
1 
1 
1 
1 
1 
1 
1 
1 
1 
1 
1 
1 
1 
1 
1 
1 
1 
1 
1 
1 
1 
1 
1 
1 
1 
1 
1 
1 
1 
1 
1 
1 
1 
1 
1 
1 
1 
1 
1 
1 
1 
1 
1 
1 
1 
1 
1 
1 
1 
1 
1 
1 
1 
1 
1 
1 
1 
1 
1 
1 
1 
1 
1 
1 
1 
1 
1 
1 
1 
1 
1 
1 
1 
1 
1 
1 
1 
1 
1 
1 
1 
1 
1 
1 
1 
1 
1 
1 
1 
1 
1 
1 
1 
1 
1 
1 
1 
1 
1 
1 
1 
1 
1 
1 
1 
1 
1 
1 
1 
1 
1 
1 
1 
1 
1 
1 
1 
1 
1 
1 
1 
1 
1 
1 
1 
1 
1 
1 
1 
1 
1 
1 
1 
1 
1 
1 
1 
1 
1 
1 
1 
1 
1 
1 
1 
1 
1 
1 
1 
1 
1 
1 
1 
1 
1 
1 
1 
1 
1 
1 
1 
1 
1 
1 
1 
1 
1 
1 
1 
1 
1 
1 
1 
1 
1 
1 
1 
1 
1 
1 
1 
1 
1 
1 
1 
1 
1 
1 
1 
1 
1 
1 
1 
1 
1 
1 
1 
1 
1 
1 
1 
1 
1 
1 
1 
1 
1 
1 
1 
1 
1 
1 
1 
1 
1 
1 
1 
1 
1 
1 
1 
1 
1 
1 
1 
1 
1 
1 
1 
1 
1 
1 
1 
1 
1 
1 
1 
1 
1 
1 
1 
1 
1 
1 
1 
1 
1 
1 
1 
1 
1 
1 
1 
1 
1 
1 
1 
1 
1 
1 
1 
1 
1 
1 
1 
1 
1 
1 
1 
1 
1 
1 
1 
1 
1 
1 
1 
1 
1 
1 
1 
1 
1 
1 
1 
1 
1 
1 
1 
1 
1 
1 
1 
1 
1 
1 
1 
1 
1 
1 
1 
1 
1 
1 
1 
1 
1 
1 
1 
1 
1 
1 
1 
1 
1 
1 
1 
1 
1 
1 
1 
1 
1 
1 
1 
1 
1 
1 
1 
1 
1 
1 
1 
1 
1 
1 
1 
1 
1 
1 
1 
1 
1 
1 
1 
1 
1 
1 
1 
1 
1 
1 
1 
1 
1 
1 
1 
1 
1 
1 
1 
1 
1 
1 
1 
1 
1 
1 
1 
1 
1 
1 
1 
1 
1 
1 
1 
1 
1 
1 
1 
1 
1 
1 
1 
1 
1 
1 
1 
1 
1 
1 
1 
1 
1 
1 
1 
1 
1 
1 
1 
1 
1 
1 
1 
1 
1 
1 
1 
1 
1 
1 
1 
1 
1 
1 
1 
1 
1 
1 
1 
1 
1 
1 
1 
1 
1 
1 
1 
1 
1 
1 
1 
1 
1 
1 
1 
1 
1 
1 
1 
1 
1 
1 
1 
1 
1 
1 
1 
1 
1 
1 
1 
1 
1 
1 
1 
1 
1 
1 
1 
1 
1 
1 
1 
1 
1 
1 
1 
1 
1 
1 
1 
1 
1 
1 
1 
1 
1 
1 
1 
1 
1 
1 
1 
1 
1 
1 
1 
1 
1 
1 
1 
1 
1 
1 
1 
1 
1 
1 
1 
1 
1 
1 
1 
1 
1 
1 
1 
1 
1 
1 
1 
1 
1 
1 
1 
1 
1 
1 
1 
1 
1 
1 
1 
1 
1 
1 
1 
1 
1 
1 
1 
1 
1 
1 
1 
1 
1 
1 
1 
1 
1 
1 
1 
1 
1 
1 
1 
1 
1 
1 
1 
1 
1 
1 
1 
1 
1 
1 
1 
1 
1 
1 
1 
1 
1 
1 
1 
1 
1 
1 
1 
1 
1 
1 
1 
1 
1 
1 
1 
1 
1 
1 
1 
1 
1 
1 
1 
1 
1 
1 
1 
1 
1 
1 
1 
1 
1 
1 
1 
1 
1 
1 
1 
1 
1 
1 
1 
1 
1 
1 
1 
1 
1 
1 
1 
1 
1 
1 
1 
1 
1 
1 
1 
1 
1 
1 
1 
1 
1 
1 
1 
1 
1 
1 
1 
1 
1 
1 
1 
1 
1 
1 
1 
1 
1 
1 
1 
1 
1 
1 
1 
1 
1 
1 
1 
1 
1 
1 
1 
1 
1 
1 
1 
1 
1 
1 
1 
1 
1 
1 
1 
1 
1 
1 
1 
1 
1 
1 
1 
1 
1 
1 
1 
1 
1 
1 
1 
1 
1 
1 
1 
1 
1 
1 
1 
1 
1 
1 
1 
1 
1 
1 
1 
1 
1 
1 
1 
1 
1 
1 
1 
1 
1 
1 
1 
1 
1 
1 
1 
1 
1 
1 
1 
1 
1 
1 
1 
1 
1 
1 
1 
1 
1 
1 
1 
1 
1 
1 
1 
1 
1 
1 
1 
1 
1 
1 
1 
1 
1 
1 
1 
1 
1 
1 
1 
1 
1 
1 
1 
1 
1 
1 
1 
1 
1 
1 
1 
1 
1 
1 
1 
1 
1 
1 
1 
1 
1 
1 
1 
1 
1 
1 
1 
1 
1 
1 
1 
1 
1 
1 
1 
1 
1 
1 
1 
1 
1 
1 
1 
1 
1 
1 
1 
1 
1 
1 
1 
1 
1 
1 
1 
1 
1 
1 
1 
1 
1 
1 
1 
1 
1 
1 
1 
1 
1 
1 
1 
1 
1 
1 
1 
1 
1 
1 
1 
1 
1 
1 
1 
1 
1 
1 
1 
1 
1 
1 
1 
1 
1 
1 
1 
1 
1 
1 
1 
1 
1 
1 
1 
1 
1 
1 
1 
1 
1 
1 
1 
1 
1 
1 
1 
1 
1 
1 
1 
1 
1 
1 
1 
1 
1 
1 
1 
1 
1 
1 
1 
1 
1 
1 
1 
1 
1 
1 
1 
1 
1 
1 
1 
1 
1 
1 
1 
1 
1 
1 
1 
1 
1 
1 
1 
1 
1 
1 
1 
1 
1 
1 
1 
1 
1 
1 
1 
1 
1 
1 
1 
1 
1 
1 
1 
1 
1 
1 
1 
1 
1 
1 
1 
1 
1 
1 
1 
1 
1 
1 
1 
1 
1 
1 
1 
1 
1 
1 
1 
1 
1 
1 
1 
1 
1 
1 
1 
1 
1 
1 
1 
1 
1 
1 
1 
1 
1 
1 
1 
1 
1 
1 
1 
1 
1 
1 
1 
1 
1 
1 
1 
1 
1 
1 
1 
1 
1 
1 
1 
1 
1 
1 
1 
1 
1 
1 
1 
1 
1 
1 
1 
1 
1 
1 
1 
1 
1 
1 
1 
1 
1 
1 
1 
1 
1 
1 
1 
1 
1 
1 
1 
1 
1 
1 
1 
1 
1 
1 
1 
1 
1 
1 
1 
1 
1 
1 
1 
1 
1 
1 
1 
1 
1 
1 
1 
1 
1 
1 
1 
1 
1 
1 
1 
1 
1 
1 
1 
1 
1 
1 
1 
1 
1 
1 
1 
1 
1 
1 
1 
1 
1 
1 
1 
1 
1 
1 
1 
1 
1 
1 
1 
1 
1 
1 
1 
1 
1 
1 
1 
1 
1 
1 
1 
1 
1 
1 
1 
1 
1 
1 
1 
1 
1 
1 
1 
1 
1 
1 
1 
1 
1 
1 
1 
1 
1 
1 
1 
1 
1 
1 
1 
1 
1 
1 
1 
1 
1 
1 
1 
1 
1 
1 
1 
1 
1 
1 
1 
1 
1 
1 
1 
1 
1 
1 
1 
1 
1 
1 
1 
1 
1 
1 
1 
1 
1 
1 
1 
1 
1 
1 
1 
1 
1 
1 
1 
1 
1 
1 
1 
1 
1 
1 
1 
1 
1 
1 
1 
1 
1 
1 
1 
1 
1 
1 
1 
1 
1 
1 
1 
1 
1 
1 
1 
1 
1 
1 
1 
1 
1 
1 
1 
1 
1 
1 
1 
1 
1 
1 
1 
1 
1 
1 
1 
1 
1 
1 
1 
1 
1 
1 
1 
1 
1 
1 
1 
1 
1 
1 
1 
1 
1 
1 
1 
1 
1 
1 
1 
1 
1 
1 
1 
1 
1 
1 
1 
1 
1 
1 
1 
1 
1 
1 
1 
1 
1 
1 
1 
1 
1 
1 
1 
1 
1 
1 
1 
1 
1 
1 
1 
1 
1 
1 
1 
1 
1 
1 
1 
1 
1 
1 
1 
1 
1 
1 
1 
1 
1 
1 
1 
1 
1 
1 
1 
1 
1 
1 
1 
1 
1 
1 
1 
1 
1 
1 
1 
1 
1 
1 
1 
1 
1 
1 
1 
1 
1 
1 
1 
1 
1 
1 
1 
1 
1 
1 
1 
1 
1 
1 
1 
1 
1 
1 
1 
1 
1 
1 
1 
1 
1 
1 
1 
1 
1 
1 
1 
1 
1 
1 
1 
1 
1 
1 
1 
1 
1 
1 
1 
1 
1 
1 
1 
1 
1 
1 
1 
1 
1 
1 
1 
1 
1 
1 
1 
1 
1 
1 
1 
1 
1 
1 
1 
1 
1 
1 
1 
1 
1 
1 
1 
1 
1 
1 
1 
1 
1 
1 
1 
1 
1 
1 
1 
1 
1 
1 
1 
1 
1 
1 
1 
1 
1 
1 
1 
1 
1 
1 
1 
1 
1 
1 
1 
1 
1 
1 
1 
1 
1 
1 
1 
1 
1 
1 
1 
1 
1 
1 
1 
1 
1 
1 
1 
1 
1 
1 
1 
1 
1 
1 
1 
1 
1 
1 
1 
1 
1 
1 
1 
1 
1 
1 
1 
1 
1 
1 
1 
1 
1 
1 
1 
1 
1 
1 
1 
1 
1 
1 
1 
1 
1 
1 
1 
1 
1 
1 
1 
1 
1 
1 
1 
1 
1 
1 
1 
1 
1 
1 
1 
1 
1 
1 
1 
1 
1 
1 
1 
1 
1 
1 
1 
1 
1 
1 
1 
1 
1 
1 
1 
1 
1 
1 
1 
1 
1 
1 
1 
1 
1 
1 
1 
1 
1 
1 
1 
1 
1 
1 
1 
1 
1 
1 
1 
1 
1 
1 
1 
1 
1 
1 
1 
1 
1 
1 
1 
1 
1 
1 
1 
1 
1 
1 
1 
1 
1 
1 
1 
1 
1 
1 
1 
1 
1 
1 
1 
1 
1 
1 
1 
1 
1 
1 
1 
1 
1 
1 
1 
1 
1 
1 
1 
1 
1 
1 
1 
1 
1 
1 
1 
1 
1 
1 
1 
1 
1 
1 
1 
1 
1 
1 
1 
1 
1 
1 
1 
1 
1 
1 
1 
1 
1 
1 
1 
1 
1 
1 
1 
1 
1 
1 
1 
1 
1 
1 
1 
1 
1 
1 
1 
1 
1 
1 
1 
1 
1 
1 
1 
1 
1 
1 
1 
1 
1 
1 
1 
1 
1 
1 
1 
1 
1 
1 
1 
1 
1 
1 
1 
1 
1 
1 
1 
1 
1 
1 
1 
1 
1 
1 
1 
1 
1 
1 
1 
1 
1 
1 
1 
1 
1 
1 
1 
1 
1 
1 
1 
1 
1 
1 
1 
1 
1 
1 
1 
1 
1 
1 
1 
1 
1 
1 
1 
1 
1 
1 
1 
1 
1 
1 
1 
1 
1 
1 
1 
1 
1 
1 
1 
1 
1 
1 
1 
1 
1 
1 
1 
1 
1 
1 
1 
1 
1 
1 
1 
1 
1 
1 
1 
1 
1 
1 
1 
1 
1 
1 
1 
1 
1 
1 
1 
1 
1 
1 
1 
1 
1 
1 
1 
1 
1 
1 
1 
1 
1 
1 
1 
1 
1 
1 
1 
1 
1 
1 
1 
1 
1 
1 
1 
1 
1 
1 
1 
1 
1 
1 
1 
1 
1 
1 
1 
1 
1 
1 
1 
1 
1 
1 
1 
1 
1 
1 
1 
1 
1 
1 
1 
1 
1 
1 
1 
1 
1 
1 
1 
1 
1 
1 
1 
1 
1 
1 
1 
1 
1 
1 
1 
1 
1 
1 
1 
1 
1 
1 
1 
1 
1 
1 
1 
1 
1 
1 
1 
1 
1 
1 
1 
1 
1 
1 
1 
1 
1 
1 
1 
1 
1 
1 
1 
1 
1 
1 
1 
1 
1 
1 
1 
1 
1 
1 
1 
1 
1 
1 
1 
1 
1 
1 
1 
1 
1 
1 
1 
1 
1 
1 
1 
1 
1 
1 
1 
1 
1 
1 
1 
1 
1 
1 
1 
1 
1 
1 
1 
1 
1 
1 
1 
1 
1 
1 
1 
1 
1 
1 
1 
1 
1 
1 
1 
1 
1 
1 
1 
1 
1 
1 
1 
1 
1 
1 
1 
1 
1 
1 
1 
1 
1 
1 
1 
1 
1 
1 
1 
1 
1 
1 
1 
1 
1 
1 
1 
1 
1 
1 
1 
1 
1 
1 
1 
1 
1 
1 
1 
1 
1 
1 
1 
1 
1 
1 
1 
1 
1 
1 
1 
1 
1 
1 
1 
1 
1 
1 
1 
1 
1 
1 
1 
1 
1 
1 
1 
1 
1 
1 
1 
1 
1 
1 
1 
1 
1 
1 
1 
1 
1 
1 
1 
1 
1 
1 
1 
1 
1 
1 
1 
1 
1 
1 
1 
1 
1 
1 
1 
1 
1 
1 
1 
1 
1 
1 
1 
1 
1 
1 
1 
1 
1 
1 
1 
1 
1 
1 
1 
1 
1 
1 
1 
1 
1 
1 
1 
1 
1 
1 
1 
1 
1 
1 
1 
1 
1 
1 
1 
1 
1 
1 
1 
1 
1 
1 
1 
1 
1 
1 
1 
1 
1 
1 
1 
1 
1 
1 
1 
1 
1 
1 
1 
1 
1 
1 
1 
1 
1 
1 
1 
1 
1 
1 
1 
1 
1 
1 
1 
1 
1 
1 
1 
1 
1 
1 
1 
1 
1 
1 
1 
1 
1 
1 
1 
1 
1 
1 
1 
1 
1 
1 
1 
1 
1 
1 
1 
1 
1 
1 
1 
1 
1 
1 
1 
1 
1 
1 
1 
1 
1 
1 
1 
1 
1 
1 
1 
1 
1 
1 
1 
1 
1 
1 
1 
1 
1 
1 
1 
1 
1 
1 
1 
1 
1 
1 
1 
1 
1 
1 
1 
1 
1 
1 
1 
1 
1 
1 
1 
1 
1 
1 
1 
1 
1 
1 
1 
1 
1 
1 
1 
1 
1 
1 
1 
1 
1 
1 
1 
1 
1 
1 
1 
1 
1 
1 
1 
1 
1 
1 
1 
1 
1 
1 
1 
1 
1 
1 
1 
1 
1 
1 
1 
1 
1 
1 
1 
1 
1 
1 
1 
1 
1 
1 
1 
1 
1 
1 
1 
1 
1 
1 
1 
1 
1 
1 
1 
1 
1 
1 
1 
1 
1 
1 
1 
1 
1 
1 
1 
1 
1 
1 
1 
1 
1 
1 
1 
1 
1 
1 
1 
1 
1 
1 
1 
1 
1 
1 
1 
1 
1 
1 
1 
1 
1 
1 
1 
1 
1 
1 
1 
1 
1 
1 
1 
1 
1 
1 
1 
1 
1 
1 
1 
1 
1 
1 
1 
1 
1 
1 
1 
1 
1 
1 
1 
1 
1 
1 
1 
1 
1 
1 
1 
1 
1 
1 
1 
1 
1 
1 
1 
1 
1 
1 
1 
1 
1 
1 
1 
1 
1 
1 
1 
1 
1 
1 
1 
1 
1 
1 
1 
1 
1 
1 
1 
1 
1 
1 
1 
1 
1 
1 
1 
1 
1 
1 
1 
1 
1 
1 
1 
1 
1 
1 
1 
1 
1 
1 
1 
1 
1 
1 
1 
1 
1 
1 
1 
1 
1 
1 
1 
1 
1 
1 
1 
1 
1 
1 
1 
1 
1 
1 
1 
1 
1 
1 
1 
1 
1 
1 
1 
1 
POINT_DATA 5000
VECTORS Stress float
-1499.24 -2382.21 0.
-2548.43 -2881.99 0.
-35.8295 -21.9338 0.
-159.55 -208.643 0.
-3699.06 -7200.29 0.
-62.8906 -127.054 0.
-2223.57 -1599.76 0.
-41.594 -101.21 0.
-36.7206 -76.5735 0.
-3872.64 -6323.45 0.
-1128.21 -2038.95 0.
-139.9 -169.837 0.
-2121.62 -2849.21 0.
-1646.13 -2242.14 0.
-1264.9 -1694.53 0.
-1066.89 -1472.37 0.
-864.505 -1254.58 0.
-985.746 -1482.44 0.
-833.602 -1363.2 0.
-663.006 -1262.41 0.
-835.621 -1477.47 0.
-761.646 -1306.1 0.
-690.408 -1131.98 0.
-740.473 -1222.95 0.
-794.08 -1397.67 0.
-860.312 -1559.76 0.
-1032.72 -1616.81 0.
-973.497 -1513.93 0.
-753.907 -1356.19 0.
-740.991 -1266.15 0.
-721.169 -1183.01 0.
-763.311 -1177.88 0.
-747.201 -1141.16 0.
-728.27 -1107.25 0.
-766.819 -1138.69 0.
-771.807 -1135.75 0.
-777.275 -1132.34 0.
-940.238 -1262.16 0.
-997.337 -1295.69 0.
-971.478 -1251.9 0.
-975.889 -1220.02 0.
-977.394 -1191.05 0.
-1022.2 -1227.72 0.
-1080.13 -1312.23 0.
-1137.99 -1396.82 0.
-1074.11 -1278.6 0.
-914.728 -990.326 0.
-726.29 -731.11 0.
-298.688 -402.274 0.
-508.765 -1049.77 0.
-642.824 -1773.24 0.
-515.732 -1021.82 0.
-281.759 -369.29 0.
-695.212 -685.856 0.
-893.939 -939.153 0.
-1063.89 -1221.23 0.
-1128.37 -1338.24 0.
-1073.98 -1264.88 0.
-1019.45 -1191.66 0.
-988.891 -1175.31 0.
-996.21 -1219.74 0.
-1000.44 -1267.27 0.
-1034.02 -1326.86 0.
-975.57 -1297.5 0.
-791.112 -1144.32 0.
-787.524 -1138.32 0.
-783.675 -1132.58 0.
-749.394 -1102.29 0.
-759.64 -1120.72 0.
-768.052 -1140.99 0.
-734.144 -1176.28 0.
-787.21 -1329.84 0.
-837.987 -1485.69 0.
-1012.19 -1585.12 0.
-1033.31 -1615.48 0.
-848.933 -1497.16 0.
-775.127 -1362.37 0.
-742.125 -1280.81 0.
-675.871 -1205.55 0.
-770.555 -1356.72 0.
-862.19 -1510.94 0.
-777.601 -1347.05 0.
-978.007 -1511.45 0.
-1163.43 -1690.83 0.
-1037.24 -1350.5 0.
-1194.14 -1435.62 0.
-1346.88 -1524.88 0.
-1578.86 -2519.67 0.
-2680.21 -4294.85 0.
-27.9845 -58.2008 0.
-621.937 -910.029 0.
-4258.14 -6263.88 0.
-404.872 -361.594 0.
-432.385 -336.827 0.
-2654.61 -3129.34 0.
-46.0855 -60.0668 0.
-3508.33 -5336.18 0.
-0.05092 -0.000988368 0.
-2539.35 -4353.65 0.
-916.815 -1125.74 0.
-1757.78 -3146.83 0.
0.0849917 0.0406912 0.
-16.435 -7.44606 0.
-59.0733 -47.3468 0.
-72.2135 -98.3642 0.
-76.1561 -128.401 0.
-60.2568 -133.117 0.
-38.8274 -77.5256 0.
-690.249 -355.326 0.
-15.3189 -42.132 0.
-15.2027 -18.2877 0.
-30.1968 -51.2755 0.
-795.572 -774.303 0.
-474.525 -265.087 0.
-358.998 -269.467 0.
-106.302 -108.566 0.
-107.317 -122.587 0.
-319.201 -544.213 0.
-223.078 -390.215 0.
-160.249 -220.213 0.
-632.574 -1204.05 0.
-545.609 -1050.02 0.
-461.024 -894.571 0.
-589.033 -951.644 0.
-630.507 -1138.53 0.
-668.302 -1329.09 0.
-1062.73 -1538.38 0.
-1005.07 -1433.94 0.
-649.611 -1130.68 0.
-603.42 -1054.83 0.
-574.428 -975.783 0.
-689.526 -1059.44 0.
-671.384 -1024.74 0.
-670.117 -973.162 0.
-774.516 -1105.88 0.
-779.108 -1103.34 0.
-783.562 -1100.95 0.
-1180.21 -1401.34 0.
-1226.62 -1445.53 0.
-1050.91 -1305.01 0.
-1054.12 -1274.35 0.
-1056.62 -1244.38 0.
-1149.34 -1312.46 0.
-1207.58 -1396.65 0.
-1264.49 -1482.17 0.
-1176.94 -1394.68 0.
-1027.95 -1096.08 0.
-846.903 -829.534 0.
-1.91591 -1.44049 0.
-2.17043 -2.1147 0.
-13.8829 -34.0481 0.
0.260261 0.554188 0.
-0.0076518 -0.0866548 0.
-819.778 -787.469 0.
-1011.94 -1047.25 0.
-1171.7 -1339.44 0.
-1246.32 -1418.97 0.
-1192.15 -1345.42 0.
-1137.82 -1272 0.
-1082.44 -1242.41 0.
-1090.52 -1286.07 0.
-1096.6 -1331.73 0.
-1281.13 -1492.54 0.
-1232.28 -1453.62 0.
-799.289 -1076.24 0.
-781.387 -1084.55 0.
-780.919 -1075.43 0.
-676.929 -972.525 0.
-686.19 -991.944 0.
-696.037 -1010.78 0.
-609.385 -952.986 0.
-654.87 -1114.16 0.
-728.369 -1247.33 0.
-998.925 -1467.13 0.
-1020.86 -1496.69 0.
-746.51 -1357.03 0.
-655.796 -1152.18 0.
-644.11 -1044.36 0.
-309.42 -673.459 0.
-399.553 -845.197 0.
-493.757 -1017.1 0.
-107.223 -107.926 0.
-209.406 -225.112 0.
-326.532 -429.341 0.
-181.284 -158.388 0.
-47.8149 -80.5191 0.
-112.832 -143.134 0.
-31.8263 -65.7222 0.
-356.181 -461.745 0.
-31.5733 -41.531 0.
-27.2399 -30.9023 0.
-29.1899 -31.3643 0.
-20.667 -52.1375 0.
-34.9679 -88.3995 0.
-89.2221 -215.135 0.
-1.59774 -1.4658 0.
0.679877 0.404655 0.
-17.6064 -13.2001 0.
-144.241 -293.517 0.
-101.618 -126.448 0.
-43.7262 -105.609 0.
-29.8876 -45.6057 0.
-15.5303 -6.35458 0.
-60.6403 -30.9182 0.
-82.1218 -96.7398 0.
-91.0601 -126.672 0.
-70.0883 -142.768 0.
-37.353 -54.2219 0.
-1423.65 -721.073 0.
-20.942 -45.7105 0.
-14.1565 -16.3824 0.
-44.6367 -51.8077 0.
-273.626 -150.225 0.
-66.6962 -67.2791 0.
-773.442 -882.116 0.
-144.39 -122.605 0.
-186.269 -170.079 0.
-822.963 -1681.55 0.
-717.684 -1539.5 0.
-1288.21 -3241 0.
-1291.68 -2173.89 0.
-1044.68 -1730.98 0.
-857.176 -1372.55 0.
-741.369 -992.678 0.
-715.205 -948.249 0.
-1602.33 -3152.95 0.
-1348.71 -1931.78 0.
-1354.85 -1953.67 0.
-936.119 -1407.12 0.
-753.587 -1031.98 0.
-669.688 -880.858 0.
-852.879 -1138.43 0.
-767.842 -945.525 0.
-762.219 -945.889 0.
-912.472 -1095.02 0.
-847.021 -947.424 0.
-903.724 -1090.17 0.
-1461.71 -1426.03 0.
-1499.57 -1526 0.
-1071.5 -1021 0.
-972.307 -818.365 0.
-956.265 -796.678 0.
-1045.99 -1005.42 0.
-1064.62 -1094.82 0.
-1000.48 -1009.63 0.
-1064.7 -1081.57 0.
-1160.15 -1334.67 0.
-1262.67 -1600 0.
-0.106589 -0.0384899 0.
0.0448394 0.0163503 0.
-8512.35 -5800.24 0.
0.0321423 0.648961 0.
-0.0352514 -0.153561 0.
-1253.62 -1518.91 0.
-1150.15 -1251.75 0.
-1050.4 -1025.7 0.
-1011.21 -984.16 0.
-990.694 -929.541 0.
-1012.49 -935.928 0.
-987.815 -810.716 0.
-1038.94 -933.34 0.
-1069.23 -970.879 0.
-1582.34 -1555.7 0.
-1591.49 -1566.44 0.
-868.97 -908.333 0.
-900.585 -1073.88 0.
-921.822 -1105.48 0.
-803.032 -1029.23 0.
-798.414 -1015.4 0.
-877.903 -1158.62 0.
-692.323 -860.002 0.
-843.496 -1219.52 0.
-955.031 -1401.99 0.
-1468.34 -2230.05 0.
-1510.28 -2323.79 0.
-1672.33 -3093.25 0.
-815.854 -1010.06 0.
-877.585 -1084.78 0.
-612.792 -1323.98 0.
-909.07 -1638.99 0.
-2755.77 -6085.37 0.
-503.516 -799.997 0.
-767.1 -1519.3 0.
-826.234 -1533.4 0.
-306.55 -207.356 0.
-113.506 -124.959 0.
-356.652 -308.98 0.
-39.5581 -71.6813 0.
-35.9114 -62.8094 0.
-45.8054 -62.8101 0.
-36.3712 -36.6959 0.
-37.2898 -38.6395 0.
-16.3431 -45.2581 0.
-30.3889 -83.4754 0.
-176.719 -299.095 0.
-0.279587 -0.235179 0.
-0.0293044 -0.00881763 0.
-42.1918 -73.3501 0.
0.10798 0.0697953 0.
-1170.06 -1835.91 0.
-2230.82 -3909.39 0.
-112.268 -259.62 0.
-0.015227 -0.00281612 0.
-2726.13 -3732 0.
-188.297 -218.366 0.
-2829.39 -4707.86 0.
-64.8182 -56.1277 0.
-765.467 -981.061 0.
-27.8785 -57.3096 0.
-3625.52 -5574.88 0.
-59.6689 -95.6939 0.
-49.9133 -78.6691 0.
-3623.9 -7240.12 0.
-69.5 -85.3748 0.
-1880.39 -2399.75 0.
-1379.77 -1861.39 0.
-938.666 -1292.39 0.
-1825.59 -4038.91 0.
-567.618 -1126.46 0.
-66.6713 -80.8528 0.
-579.05 -1017.14 0.
-369.372 -671.876 0.
-284.549 -297.328 0.
-555.178 -655.137 0.
-374.468 -338.761 0.
-126.253 -107.939 0.
-676.581 -588.982 0.
-733.038 -729.324 0.
-509.082 -407.095 0.
-511.824 -439.471 0.
-525.119 -496.753 0.
-619.521 -599.623 0.
-580.509 -555.778 0.
-543.401 -502.708 0.
-646.041 -532.003 0.
-613.728 -456.51 0.
-594.152 -371.494 0.
-1093.84 -791.902 0.
-1082.45 -785.474 0.
-856.452 -478.944 0.
-852.612 -472.865 0.
-849.627 -469.824 0.
-1028.63 -718.412 0.
-996.373 -641.636 0.
-931.296 -599.736 0.
-1120.68 -722.184 0.
-1194 -908.759 0.
-1277.08 -1087.26 0.
-0.157483 -0.0568686 0.
-0.0113016 -0.00410921 0.
-9837.38 -3912.38 0.
0.0157858 0.733807 0.
0.0268459 0.265762 0.
-1221.33 -1069.01 0.
-1167.51 -893.497 0.
-1112.76 -719.451 0.
-941.752 -577.069 0.
-1027.11 -597.708 0.
-1065.95 -664.836 0.
-837.637 -474.973 0.
-831.882 -457.111 0.
-826.685 -440.525 0.
-1080.4 -749.593 0.
-1109.86 -778.281 0.
-588.376 -367.426 0.
-608.363 -442.803 0.
-656.789 -564.229 0.
-553.34 -513.128 0.
-581.83 -543.405 0.
-621.445 -564.175 0.
-532.242 -491.495 0.
-500.306 -417.695 0.
-484.274 -399.034 0.
-712.25 -653.631 0.
-634.874 -520.119 0.
-20.1309 -46.6347 0.
-380.501 -298.334 0.
-643.221 -691.641 0.
-61.7288 -87.145 0.
-106.44 -140.441 0.
-469.96 -621.615 0.
-56.1845 -124.156 0.
-698.282 -1156.07 0.
-2390.37 -4849.18 0.
-377.495 -341.625 0.
-1172.47 -1694.59 0.
-2081.36 -2974.13 0.
-44.6206 -80.5415 0.
-3983.64 -6839.13 0.
-53.4823 -124.733 0.
-60.7035 -115.451 0.
-3383.2 -4602.04 0.
-55.4835 -85.2519 0.
-2685.12 -4370 0.
-33.8326 -21.5536 0.
-2511.29 -4673.7 0.
-151.72 -213.647 0.
-1045.87 -1546.9 0.
-0.862125 -0.785254 0.
-1610.83 -3350.28 0.
-49.9237 -99.8416 0.
-19.9688 -54.6702 0.
-2090.32 -4259.86 0.
0.269703 0.0493858 0.
-165.405 -81.0071 0.
-133.507 -86.2098 0.
-81.1493 -68.5492 0.
-30.2543 -35.2867 0.
-42.0956 -53.1755 0.
-410.78 -342.729 0.
-89.1752 -116.904 0.
-74.4349 -91.8426 0.
-79.4088 -93.8425 0.
-74.0629 -90.0376 0.
-78.6017 -105.477 0.
-55.5911 -63.2697 0.
-43.4985 -39.3758 0.
-442.431 -431.916 0.
-75.7732 -93.7654 0.
-71.3543 -99.2601 0.
-215.533 -222.975 0.
-46.3329 -61.6522 0.
-106.831 -105.413 0.
-543.952 -570.826 0.
-369.348 -245.461 0.
-65.3396 -65.6786 0.
-715.316 -608.135 0.
-780.052 -739.416 0.
-511.052 -385.454 0.
-545.039 -419.373 0.
-556.813 -476.184 0.
-626.969 -509.581 0.
-586.772 -462.996 0.
-543.762 -420.221 0.
-633.109 -476.268 0.
-615.194 -386.193 0.
-573.526 -321.168 0.
-1111.13 -788.897 0.
-1112.32 -784.701 0.
-931.549 -506.391 0.
-928.876 -499.36 0.
-928.627 -494.742 0.
-1238.23 -747.267 0.
-1208.01 -687.5 0.
-1143.61 -676.027 0.
-1406.88 -815.094 0.
-1490.24 -993.567 0.
-1572.95 -1172.09 0.
-0.210337 -0.0759467 0.
-0.0676389 -0.0245364 0.
-12422.5 -5014.49 0.
0.00513564 0.792325 0.
0.016117 0.44929 0.
-1552.09 -1153.81 0.
-1485.44 -990.538 0.
-1429.64 -817.013 0.
-1160.16 -662.139 0.
-1232.56 -668.488 0.
-1272.83 -733.243 0.
-896.249 -501.859 0.
-903.581 -470.213 0.
-888.079 -463.417 0.
-1110.33 -759.955 0.
-1124.93 -790.579 0.
-588.969 -352.565 0.
-622.441 -414.226 0.
-667.729 -541.181 0.
-545.261 -381.325 0.
-596.87 -386.399 0.
-640.214 -398.461 0.
-521.256 -492.733 0.
-487.863 -425.096 0.
-453.653 -360.619 0.
-718.529 -646.264 0.
-639.514 -519.35 0.
-25.3538 -49.0614 0.
-232.37 -150.054 0.
-499.755 -529.489 0.
-81.8061 -112.07 0.
-36.4494 -72.4316 0.
-47.2907 -100.977 0.
-52.657 -109.914 0.
-40.3498 -75.1981 0.
-357.774 -180.47 0.
-29.4435 -62.2172 0.
-50.1625 -79.7792 0.
-65.4858 -110.558 0.
-35.127 -49.0165 0.
-57.4082 -98.4291 0.
-21.2963 -55.5157 0.
-21.9488 -53.4674 0.
-21.5323 -53.6631 0.
-31.1791 -35.7703 0.
-164.897 -346.504 0.
-20.9073 -14.5725 0.
-429.116 -564.451 0.
-50.4637 -45.745 0.
-0.240476 -0.381569 0.
-0.00411394 -0.136459 0.
-29.2648 -46.842 0.
-1078.23 -1505.74 0.
-74.3153 -123.802 0.
-54.0801 -111.862 0.
0.31103 0.029262 0.
-58.0191 -21.8795 0.
-327.417 -286.987 0.
-124.543 -86.8468 0.
-2597.4 -4691.6 0.
-151.26 -244.025 0.
-294.742 -727.134 0.
-1787.45 -2238.91 0.
-77.1231 -62.9204 0.
-2751.89 -4432.44 0.
-61.1634 -68.2789 0.
-93.6375 -139.393 0.
-3225.85 -6082.01 0.
-20.1933 -42.2624 0.
-2480.84 -4107.62 0.
-844.422 -816.357 0.
-30.2976 -19.2866 0.
-2321.89 -4478.68 0.
-1168.97 -2256.85 0.
-19.4066 -32.0569 0.
-1258.21 -2117 0.
-947.22 -1596.12 0.
-698.157 -1168.57 0.
-1253.61 -1828.27 0.
-1110.23 -1635.73 0.
-876.162 -1177.17 0.
-833.86 -1081.98 0.
-792.706 -987.483 0.
-832.855 -977.771 0.
-800.098 -943.448 0.
-773.767 -902.699 0.
-932.511 -1073.61 0.
-908.364 -1048.96 0.
-887.223 -1021.31 0.
-1549.69 -1596.12 0.
-1453.84 -1443.12 0.
-1159.47 -976.99 0.
-1143.3 -937.872 0.
-1128.4 -897.069 0.
-1455.14 -1157.42 0.
-1438.19 -1131.56 0.
-1425.15 -1113.1 0.
-1720.45 -1425.79 0.
-1877.06 -1792.84 0.
-2034.83 -2158.73 0.
-1.3236 -0.504918 0.
-1.42501 -1.7189 0.
-12456.3 -4835.28 0.
0.293283 0.77694 0.
0.286657 0.718768 0.
-2057.78 -2241.85 0.
-1887.1 -1851.25 0.
-1716.93 -1460.12 0.
-1354.23 -997.274 0.
-1412.2 -1047.44 0.
-1445.45 -1141.18 0.
-1151.21 -893.181 0.
-1162.32 -918.577 0.
-1175.43 -941.96 0.
-1463.27 -1395.87 0.
-1541.92 -1538.74 0.
-875.311 -975.266 0.
-915.799 -1073.37 0.
-965.174 -1170.7 0.
-847.296 -872.186 0.
-843.608 -897.986 0.
-841.566 -922.141 0.
-705.724 -1050.33 0.
-773.823 -1161.87 0.
-845.979 -1271.48 0.
-1058.59 -1544.99 0.
-1232.75 -1745.59 0.
-558.431 -878.355 0.
-947.88 -1672.86 0.
-1441.17 -2567.12 0.
-13.0848 -14.378 0.
-1233.48 -2194.29 0.
-2806.19 -5517.47 0.
-197.614 -124.084 0.
-604.034 -384.453 0.
-2320.54 -3564.68 0.
-39.2486 -95.6334 0.
-3638.21 -7137.47 0.
-44.3842 -81.3368 0.
-31.7623 -55.4653 0.
-2726.52 -4183.32 0.
-0.240775 -0.602465 0.
-2764.81 -4560.77 0.
-106.877 -255.66 0.
-25.8436 -23.4006 0.
-0.514947 -0.184736 0.
-32.1956 -26.9616 0.
-403.531 -525.919 0.
0.374664 0.987509 0.
-1839.29 -3067.57 0.
-8.44196 -21.5338 0.
-2394 -3665.09 0.
-1774.99 -3226.35 0.
-59.9664 -97.4246 0.
-1448.29 -2275.26 0.
-2.39465 -4.64948 0.
-50.0654 -20.0643 0.
-1066.9 -1104.5 0.
-2168.02 -3585.48 0.
-153.802 -338.304 0.
-125.047 -240.442 0.
-13.5952 -11.2113 0.
-1072.49 -1830.22 0.
-84.7296 -53.9938 0.
-16.0425 -18.4563 0.
-23.0938 -31.8985 0.
-48.352 -73.7777 0.
-240.258 -403.018 0.
-22.4528 -42.9902 0.
-45.9292 -49.7028 0.
-39.1434 -35.3529 0.
-33.6408 -22.4485 0.
-528.392 -663.292 0.
-14.9836 -20.6246 0.
-36.8092 -40.6746 0.
-618.156 -990.158 0.
-403.515 -438.903 0.
-244.449 -220.428 0.
-960.226 -1497.5 0.
-844.327 -1351.01 0.
-749.695 -1033.52 0.
-698.409 -967.224 0.
-667.873 -901.369 0.
-795.973 -843.837 0.
-768.165 -808.587 0.
-740.67 -787.952 0.
-830.543 -873.289 0.
-811.153 -855.948 0.
-791.072 -839.612 0.
-1347.86 -1365.77 0.
-1260.16 -1229.59 0.
-1058.4 -870.936 0.
-1039.92 -834.227 0.
-1021.76 -797.691 0.
-1283.5 -951.349 0.
-1278.64 -931.138 0.
-1253.08 -954.859 0.
-1461.57 -1252.28 0.
-1613.96 -1620.39 0.
-1768.83 -1990.36 0.
0.0383463 0.0565171 0.
-0.354104 -0.958955 0.
-9732.46 -3633.97 0.
-0.0107847 -0.473823 0.
-0.0150882 -0.491392 0.
-1804.65 -2070.99 0.
-1607.57 -1641.96 0.
-1429.47 -1242.42 0.
-1169.49 -828.603 0.
-1183.97 -886.786 0.
-1263.44 -911.698 0.
-1008.78 -791.861 0.
-1016.38 -810.235 0.
-1030.45 -842.398 0.
-1254.46 -1214.88 0.
-1334.06 -1331.14 0.
-797.552 -849.783 0.
-818.551 -897.462 0.
-858.862 -981.698 0.
-796.463 -798.515 0.
-798.792 -817.124 0.
-807.486 -836.091 0.
-613.98 -861.18 0.
-652.823 -935.753 0.
-707.674 -1044.08 0.
-747.461 -1134.44 0.
-867.238 -1286.01 0.
-136.45 -94.0852 0.
-223.496 -111.475 0.
-613.48 -1022.94 0.
-14.2809 -24.5711 0.
-34.5813 -47.6701 0.
-255.711 -188.36 0.
-38.4114 -57.9392 0.
-20.4537 -52.0475 0.
-23.0425 -60.4118 0.
-38.8357 -97.1394 0.
-40.688 -106.914 0.
-20.8122 -51.0878 0.
-17.0575 -35.8513 0.
-28.7076 -58.9487 0.
-0.122976 -0.3257 0.
-45.1106 -124.394 0.
-48.0541 -100.154 0.
-2704.22 -5290.77 0.
-90.6383 -157.174 0.
-2227.5 -3615.76 0.
-425.177 -595.011 0.
-0.519811 -2.93601 0.
-30.5362 -48.5365 0.
0.252935 0.428997 0.
0.127808 0.312144 0.
-1.22361 -2.60433 0.
0.0329029 1.20924 0.
-0.141908 -0.918692 0.
0.848473 2.13418 0.
-29.0715 -77.1245 0.
-50.9691 -77.0704 0.
-99.1164 -176.929 0.
-86.4858 -232.64 0.
-117.425 -229.394 0.
-20.1541 -14.6143 0.
-673.11 -1328.42 0.
-94.2696 -49.9772 0.
-19.7761 -19.6978 0.
-22.7389 -25.0223 0.
-32.483 -43.0656 0.
-74.8653 -99.4847 0.
-38.4472 -48.2637 0.
-50.6801 -58.9222 0.
-45.5142 -44.2377 0.
-42.1038 -30.0314 0.
-161.246 -93.3777 0.
-48.9028 -36.7202 0.
-73.5617 -59.7104 0.
-393.536 -246.656 0.
-162.904 -117.683 0.
-197.35 -126.354 0.
-876.148 -1179.26 0.
-527.719 -481.626 0.
-569.554 -544.483 0.
-563.14 -499.043 0.
-297.619 -139.54 0.
-868.927 -774.738 0.
-495.876 -230.994 0.
-173.274 -72.4558 0.
-605.704 -402.491 0.
-634.911 -465.382 0.
-668.927 -522.78 0.
-1027.47 -783.796 0.
-1092.57 -874.912 0.
-880.796 -403.204 0.
-907.262 -486.971 0.
-777.021 -293.842 0.
-978.379 -494.958 0.
-956.58 -465.95 0.
-1199.7 -1050.39 0.
-1157.18 -977.108 0.
-1082.67 -790.668 0.
-1138.9 -933.492 0.
0.00128799 0.176184 0.
-0.00218462 -0.444296 0.
-8332.29 -3595.09 0.
0.000376871 0.024672 0.
0.019246 0.220551 0.
-1259.14 -1139.11 0.
-1167.81 -880.88 0.
-1194.34 -912.212 0.
-1006.89 -479.174 0.
-1123.78 -719.977 0.
-1102.9 -564.013 0.
-842.447 -478.488 0.
-794.507 -351.196 0.
-781.332 -288.041 0.
-927.383 -598.868 0.
-1111.93 -1028.92 0.
-554.256 -213.449 0.
-675.309 -374.746 0.
-352.013 -131.604 0.
-450.434 -196.67 0.
-363.341 -160.355 0.
-289.26 -141.4 0.
-232.149 -116.589 0.
-490.731 -401.488 0.
-507.574 -487.959 0.
-303.273 -216.398 0.
-759.768 -1064.34 0.
-148.961 -106.861 0.
-76.4329 -60.337 0.
-8.27476 -22.5331 0.
-42.1334 -48.4259 0.
-81.4758 -65.7111 0.
-130.899 -97.6696 0.
-40.8147 -58.5372 0.
-19.4713 -53.2103 0.
-17.1034 -47.272 0.
-39.4865 -98.7968 0.
-44.3874 -102.905 0.
-14.3383 -35.6715 0.
-8.98141 -19.8461 0.
-22.4512 -42.044 0.
-5.28916 -13.7606 0.
-52.4431 -142.3 0.
-2.62898 -6.17736 0.
-53.6319 -117.887 0.
-57.7674 -102.464 0.
-245.321 -408.232 0.
-1012.62 -1233.36 0.
0.110954 0.316868 0.
-1812.26 -2989.21 0.
-22.3481 -30.0353 0.
-1311.95 -1779.11 0.
-1440.18 -2087.38 0.
-0.437396 -2.25431 0.
-2214.26 -3455.57 0.
-0.179864 -0.892879 0.
-2121.61 -5158.73 0.
-1163.77 -1036.64 0.
-434.961 -490.875 0.
-39.3939 -108.949 0.
-122.264 -219.011 0.
-2135.17 -4010.89 0.
-1071.4 -1323.57 0.
-133.784 -163.412 0.
-2780.08 -4565.36 0.
-20.6374 -29.8326 0.
-59.1906 -120.506 0.
-3120.32 -6108.3 0.
-46.4767 -60.9939 0.
-3235.26 -4452.47 0.
-25.2105 -36.2402 0.
-38.1109 -49.5661 0.
-3106.04 -6461.42 0.
-24.2411 -38.3234 0.
-48.8341 -52.5221 0.
-2013.86 -4304.76 0.
-704.963 -1316.58 0.
-47.798 -34.0617 0.
-1268.05 -2275.4 0.
-854.96 -1429.3 0.
-887.656 -1431.2 0.
-707.389 -1059.59 0.
-533.537 -688.923 0.
-756.455 -981.07 0.
-710.452 -894.209 0.
-661.025 -814.166 0.
-710.946 -732.483 0.
-671.878 -664.875 0.
-625.721 -605.733 0.
-1105.55 -1106.28 0.
-1085.74 -1073.69 0.
-811.922 -704.257 0.
-809.142 -692.167 0.
-819.947 -716.894 0.
-944.704 -840.983 0.
-948.082 -854.956 0.
-954.489 -876.539 0.
-926.682 -976.821 0.
-998.03 -1135.06 0.
-1083.38 -1304.57 0.
-0.000180905 -0.307278 0.
-0.000267472 -0.438098 0.
-5959.43 -2686.61 0.
-0.00119217 -0.00264618 0.
0.045455 0.02737 0.
-1076.69 -1224.95 0.
-1026.45 -1099.2 0.
-984.127 -963.98 0.
-998.272 -873.999 0.
-970.425 -798.962 0.
-911.076 -752.858 0.
-841.015 -706.319 0.
-831.666 -702.36 0.
-826.65 -709.496 0.
-1108.21 -1095.29 0.
-1131.14 -1128.59 0.
-675.235 -681.978 0.
-720.996 -761.411 0.
-764.344 -841.544 0.
-667.955 -802.526 0.
-776.876 -1021.36 0.
-884.073 -1239.28 0.
-535.235 -724.276 0.
-762.544 -1210.52 0.
-1004.46 -1684.44 0.
-905.837 -1592.62 0.
-1607.48 -3057.8 0.
-53.0351 -70.1315 0.
-809.127 -1324.77 0.
-2472.92 -5067.94 0.
-12.4456 -28.6475 0.
-17.9106 -40.4866 0.
-3164.22 -6475.55 0.
-15.8134 -42.5882 0.
-16.8849 -44.4781 0.
-2956.73 -4857.2 0.
-20.0758 -54.8365 0.
-2615.32 -2815.17 0.
-25.6512 -71.0348 0.
-2613.05 -5257.86 0.
-19.085 -47.7801 0.
-21.3838 -58.6431 0.
-1996.67 -3416.57 0.
0.17989 0.482506 0.
-36.6107 -76.1641 0.
-52.8445 -93.5412 0.
-260.239 -421.134 0.
-0.850636 -1.74767 0.
0.0158131 0.161368 0.
-27.7437 -42.9094 0.
0.264681 1.22015 0.
-1606.19 -2247.55 0.
-664.039 -858.086 0.
0.673704 2.54874 0.
-3.47006 -6.82646 0.
0.00358623 1.21415 0.
-20.6586 -43.3653 0.
-0.0738278 -1.49447 0.
-204.217 -229.885 0.
-17.8689 -48.8557 0.
-146.663 -406.183 0.
-213.973 -408.18 0.
-186.716 -332.624 0.
-85.4204 -82.4906 0.
-45.1732 -32.3019 0.
-3.94908 -2.12082 0.
-22.049 -40.6184 0.
-96.8901 -177.75 0.
-22.1309 -36.7742 0.
-21.26 -32.7209 0.
-30.2815 -38.8346 0.
-45.7904 -54.5357 0.
-32.1669 -50.0803 0.
-29.6619 -40.6127 0.
-34.0478 -36.6911 0.
-377.686 -543.354 0.
-48.1665 -36.3563 0.
-45.2842 -33.6625 0.
-679.104 -1076.7 0.
-307.217 -192.411 0.
-617.778 -863.945 0.
-474.467 -457.877 0.
-257.053 -129.758 0.
-614.477 -748.83 0.
-567.017 -665.865 0.
-524.844 -578.18 0.
-632.385 -608.232 0.
-594.319 -541.101 0.
-560.061 -494.408 0.
-1056.37 -1081.22 0.
-1037.66 -1050.37 0.
-713.434 -539.418 0.
-712.307 -524.798 0.
-717.122 -526.592 0.
-761.434 -736.343 0.
-760.562 -734.945 0.
-760.332 -732.588 0.
-673.537 -841.724 0.
-746.801 -1018.63 0.
-825.768 -1193.38 0.
-0.000184605 -0.282504 0.
-0.00157323 -0.856895 0.
-3919.9 -1688.52 0.
-0.180981 -0.0814021 0.
-0.106845 -0.039993 0.
-838.553 -1005.87 0.
-782.626 -885.201 0.
-726.041 -765.39 0.
-814.602 -716.229 0.
-777.113 -647.601 0.
-743.438 -580.274 0.
-729.952 -546.738 0.
-727.223 -538.694 0.
-740.015 -567.292 0.
-1094.65 -1084.5 0.
-1117.4 -1117.09 0.
-587.384 -538.513 0.
-630.971 -620.877 0.
-674.591 -709.674 0.
-437.437 -520.038 0.
-535.184 -747.366 0.
-651.791 -962.28 0.
-72.4151 -58.8324 0.
-429.74 -415.568 0.
-635.261 -928.251 0.
-34.1366 -33.7139 0.
-758.431 -1215.03 0.
-102.164 -104.151 0.
-36.9637 -46.9736 0.
-20.1006 -38.8721 0.
-10.3847 -18.371 0.
-17.6465 -35.9243 0.
-33.3132 -77.5756 0.
-21.6569 -42.6413 0.
-19.2247 -37.5568 0.
-29.4517 -69.1044 0.
-14.1764 -32.6331 0.
-44.4132 -122.429 0.
-170.957 -244.602 0.
-382.109 -475.449 0.
-11.898 -30.8735 0.
-16.2554 -44.9409 0.
0.634186 1.70488 0.
-1391.89 -2667.15 0.
-16.4742 -34.1253 0.
-84.1669 -143.452 0.
-413.62 -661.901 0.
-1847.1 -3975.78 0.
-0.494154 -3.67883 0.
-1479.43 -2277.53 0.
-1.28422 -3.71735 0.
-817.994 -1241.92 0.
-1151.77 -1578.27 0.
5.45547 7.7108 0.
-1588.03 -2781.6 0.
-0.310652 -4.17587 0.
-83.589 -139.587 0.
0.217288 0.599992 0.
-0.923029 -2.347 0.
-1548.14 -2965.76 0.
-63.6874 -176.335 0.
-249.593 -513.489 0.
-80.4869 -74.4942 0.
-42.3597 -60.7656 0.
-24.3662 -32.9005 0.
-0.0908732 -0.000636328 0.
-71.702 -167.99 0.
-1557.96 -3568.36 0.
-14.5364 -27.4917 0.
-2473.59 -4229.52 0.
-29.8598 -23.8616 0.
-60.7786 -49.9399 0.
-2818.54 -6033.31 0.
-14.1056 -11.7488 0.
-25.1833 -23.6163 0.
-2476.76 -5173.54 0.
-118.299 -185.502 0.
-4.644 -12.6178 0.
-1844.3 -3826.32 0.
-874.588 -1610.45 0.
-1193.51 -2091 0.
-838.619 -1362.66 0.
-525.876 -607.148 0.
-854.733 -1379.74 0.
-718.884 -1124.64 0.
-586.144 -866.671 0.
-812.521 -996.988 0.
-776.09 -926.585 0.
-740.454 -860.873 0.
-1173.2 -1513.24 0.
-1152.41 -1475.54 0.
-853.06 -973.459 0.
-839.654 -949.75 0.
-832.036 -941.184 0.
-836.871 -1074.61 0.
-816.163 -1149.32 0.
-838.096 -1191.7 0.
-789.805 -1299.5 0.
-800.09 -1309.51 0.
-747.391 -1384.32 0.
0.00130295 0.034523 0.
-0.00130812 -0.113765 0.
-4439.08 -4232.41 0.
-0.353973 -0.144065 0.
-0.742624 -0.855599 0.
-720.611 -1323.43 0.
-717.679 -1302.6 0.
-717.26 -1286.87 0.
-856.634 -1123.74 0.
-836.679 -1079.19 0.
-820.78 -1046.76 0.
-879.282 -966.758 0.
-873.247 -948.775 0.
-867.272 -930.925 0.
-1200.4 -1510.9 0.
-1242.81 -1617.57 0.
-721.428 -865.635 0.
-795.173 -994.431 0.
-878.06 -1140.87 0.
-539.164 -865.264 0.
-750.456 -1285.19 0.
-973.623 -1698 0.
-430.244 -387.724 0.
-905.932 -1453.89 0.
-1435.32 -2476.87 0.
-768.284 -1194.34 0.
-1971.2 -4108.95 0.
-74.0444 -102.316 0.
-9.32829 -15.7443 0.
-2730.19 -6003.8 0.
-12.9332 -18.0731 0.
-13.0107 -16.5452 0.
-2665.64 -3509.27 0.
-96.0099 -147.43 0.
-3331.49 -6381.77 0.
-48.4717 -133.942 0.
-16.4195 -45.3995 0.
-2714.78 -4662.5 0.
-852.101 -599.241 0.
-1148.15 -1239.45 0.
-7.15357 -18.5336 0.
-13.6153 -37.5984 0.
-0.160712 -2.08604 0.
0.0518975 1.93051 0.
-1078.75 -1830.01 0.
-45.6985 -89.0239 0.
2.74513 6.84859 0.
-125.793 -303.791 0.
-0.996365 -1.88527 0.
-8.31847 -14.6174 0.
-75.6062 -122.727 0.
-1556.8 -2060.42 0.
-454.131 -763.178 0.
-3.85658 -7.59606 0.
-2.27667 -4.40704 0.
-0.626386 -6.47615 0.
-1558.4 -2280.73 0.
-16.7249 -42.6757 0.
-0.0235456 -0.0587772 0.
-197.871 -359.505 0.
-18.3069 -50.7066 0.
-611.405 -1360.06 0.
-92.5054 -83.8581 0.
-1584.64 -2301.22 0.
-84.1455 -190.948 0.
-1969.36 -3374.27 0.
-9.20352 -18.7439 0.
-142.83 -342.437 0.
-12.4138 -23.9586 0.
-5.95614 -14.4266 0.
-12.3607 -13.3828 0.
-9.15926 -4.59134 0.
-16.9908 -8.26059 0.
-20.6442 -13.8328 0.
-29.8979 -24.6973 0.
-41.9256 -42.1049 0.
-4.06149 -6.16326 0.
-4.50601 -11.746 0.
-627.629 -1133.13 0.
-32.8242 -14.1042 0.
-602.048 -826.098 0.
-234.625 -107.449 0.
-56.6177 -23.7946 0.
-559.993 -927.271 0.
-428.653 -636.551 0.
-320.909 -327.67 0.
-633.817 -849.913 0.
-600.862 -779.418 0.
-568.712 -717.929 0.
-986.85 -1394.63 0.
-968.068 -1359.05 0.
-677.906 -810.851 0.
-674.45 -805.867 0.
-690.462 -858.109 0.
-566.304 -939.284 0.
-589.435 -986.19 0.
-612.977 -1033.96 0.
-427.691 -1124.01 0.
-439.345 -1146.04 0.
-488.077 -1215.39 0.
0.00199378 0.0386243 0.
-0.00077309 -0.0900759 0.
-2074.22 -3171.7 0.
-0.688212 -0.33722 0.
-0.857272 -0.685986 0.
-453.35 -1174.25 0.
-412.95 -1119.38 0.
-396.186 -1095.84 0.
-599.064 -1027.6 0.
-581.272 -978.913 0.
-560.98 -933.702 0.
-684.549 -868.179 0.
-664.416 -811.516 0.
-657.576 -794.288 0.
-1006.95 -1386.54 0.
-1048.62 -1488.62 0.
-510.903 -602.638 0.
-577.304 -738.541 0.
-646.162 -873.398 0.
-194.635 -176.51 0.
-428.09 -577.833 0.
-608.143 -1029.83 0.
-38.7479 -25.1591 0.
-41.9215 -34.4763 0.
-613.132 -692.089 0.
-27.9451 -40.7073 0.
-548.807 -637.817 0.
-50.6565 -73.9592 0.
-8.948 -15.5391 0.
-9.05953 -16.9865 0.
-11.2011 -17.1891 0.
-9.58446 -13.1459 0.
-104.686 -112.58 0.
-19.9381 -54.3307 0.
-45.2154 -115.211 0.
-9.64527 -24.1579 0.
-7.31372 -20.2225 0.
-15.4208 -41.6552 0.
-28.8184 -59.7699 0.
-182.455 -283.268 0.
-2673.82 -5783.46 0.
-11.6365 -32.0011 0.
-0.0201796 -0.107837 0.
-264.15 -497.994 0.
-817.842 -1477.24 0.
-59.9835 -110.428 0.
-0.42887 -7.11724 0.
-251.974 -527.258 0.
4.3821 7.60756 0.
-1743.8 -3182.61 0.
4.34137 7.88724 0.
-918.138 -1292.82 0.
-267.624 -356.714 0.
-105.861 -150.887 0.
-1467.84 -2850.04 0.
-1.40427 -10.2361 0.
1.25472 2.5926 0.
3.77612 8.09098 0.
-41.516 -109.854 0.
-183.615 -374.304 0.
-16.7539 -42.4651 0.
-40.7071 -80.1098 0.
-1127.31 -2114.77 0.
-163.714 -269.35 0.
-23.4008 -64.7742 0.
-32.8805 -82.137 0.
-7.28905 -16.5263 0.
-236.663 -522.139 0.
-41.6739 -43.2537 0.
-14.9435 -25.8026 0.
-4.37886 -1.88202 0.
-3.18854 -2.02408 0.
-33.0584 -13.9777 0.
-30.4788 -17.2109 0.
-41.9633 -29.1579 0.
-20.1137 -15.557 0.
-6.00773 -6.65137 0.
-8.28435 -15.6659 0.
-34.7469 -17.3054 0.
-19.8634 -11.0205 0.
-31.7532 -15.4211 0.
-43.1603 -16.5542 0.
-62.9487 -27.0261 0.
-308.78 -298.118 0.
-121.837 -54.7643 0.
-117.076 -66.6236 0.
-337.165 -380.221 0.
-287.866 -242.146 0.
-55.9113 -59.5849 0.
-408.863 -340.865 0.
-536.691 -692.906 0.
-76.3552 -62.1712 0.
-288.211 -419.183 0.
-153.975 -172.953 0.
-106.692 -213.373 0.
-187.223 -387.505 0.
-252.443 -514.518 0.
-93.5894 -197.285 0.
-96.3908 -201.562 0.
-115.412 -249.615 0.
-7.08126 -19.1884 0.
-15.2013 -41.0867 0.
-659.945 -1779.99 0.
-12.3506 -14.0028 0.
-14.3071 -18.6515 0.
-81.3919 -211.043 0.
-54.9417 -149.287 0.
-59.8728 -164.323 0.
-245.059 -583.486 0.
-162.481 -401.096 0.
-124.948 -301.506 0.
-207.759 -198.223 0.
-261.411 -282.912 0.
-298.43 -270.216 0.
-495.742 -497.595 0.
-385.219 -203.48 0.
-50.7713 -40.3224 0.
-294.976 -260.192 0.
-429.404 -604.044 0.
-97.7804 -140.294 0.
-70.6089 -83.4766 0.
-357.703 -375.127 0.
-41.9701 -31.5144 0.
-40.9262 -34.3554 0.
-46.5505 -45.428 0.
-24.5249 -38.5517 0.
-33.5653 -56.4866 0.
-38.0207 -52.0062 0.
-8.96455 -15.5015 0.
-8.45067 -16.7291 0.
-9.39028 -16.1848 0.
-12.4118 -18.121 0.
-126.744 -134.912 0.
-19.7678 -37.8593 0.
-31.1756 -80.3577 0.
-0.0479242 -0.665233 0.
-1.32492 -3.59981 0.
-43.9769 -88.2657 0.
-10.1324 -22.2746 0.
-50.5665 -83.4979 0.
-72.292 -187.24 0.
-142.471 -355.63 0.
-0.366554 -1.11482 0.
-148.787 -347.338 0.
-0.447438 -7.43428 0.
-729.788 -1168.25 0.
-42.7048 -100.425 0.
-1139.52 -2032.07 0.
0.824989 1.50246 0.
-295.583 -497.042 0.
3.24795 4.91789 0.
-409.483 -546.021 0.
73.1196 109.161 0.
16.8987 33.0286 0.
1.61535 3.10788 0.
-13.5199 -26.9746 0.
-1192.61 -2461.36 0.
-1.63822 -7.31383 0.
-1544.94 -3294.4 0.
-356.707 -690.979 0.
-22.4319 -44.9258 0.
-800.281 -1743.99 0.
-86.2754 -139.587 0.
-20.0897 -48.2817 0.
-0.00939026 -0.0167581 0.
-33.438 -80.7266 0.
-7.19585 -18.3363 0.
-1480.88 -2477.26 0.
0.180129 0.0489485 0.
0.0150538 0.00892057 0.
-2682.63 -5746.96 0.
-8.88995 -5.17923 0.
-2196.59 -3421.15 0.
-39.4881 -43.6095 0.
-30.6548 -22.2153 0.
-2444.21 -5351.69 0.
0.664605 0.0545126 0.
0.354298 0.0921579 0.
-2213.25 -5171.76 0.
-231.082 -206.096 0.
-1675.2 -3260.21 0.
-807.16 -1348.6 0.
-40.9163 -29.9978 0.
-1143.68 -2524.86 0.
-650.943 -1394.21 0.
-198.457 -219.9 0.
-696.846 -1505.93 0.
-491.07 -1006.26 0.
-309.501 -526.844 0.
-692.527 -1449.16 0.
-660.094 -1381.32 0.
-412.916 -802.78 0.
-434.899 -861.598 0.
-473.857 -953.712 0.
-309.446 -822.024 0.
-354.4 -944.253 0.
-402.59 -1066.81 0.
-341.233 -901.466 0.
-337.642 -896.004 0.
-336.851 -893.401 0.
-48.8756 -107.812 0.
-216.079 -509.207 0.
-492.709 -1336.75 0.
-143.446 -351.138 0.
-13.2662 -21.7781 0.
-330.229 -911.356 0.
-323.281 -883.567 0.
-318.225 -855.394 0.
-374.162 -1020.45 0.
-318.003 -880.7 0.
-267.572 -728.8 0.
-434.234 -876.73 0.
-410.865 -824.27 0.
-391.133 -783.062 0.
-656.801 -1406.72 0.
-731.352 -1559.47 0.
-282.627 -356.659 0.
-549.622 -1093.83 0.
-840.116 -1808.31 0.
-7.7049 -3.84931 0.
-711.243 -1409.18 0.
-1384.73 -2982.22 0.
-29.6218 -50.5415 0.
-839.277 -1195.47 0.
-1904.51 -3619.62 0.
-38.3845 -68.5399 0.
-2374.98 -5048.52 0.
-57.3207 -88.0115 0.
-12.5422 -21.4513 0.
-2623.55 -5410.08 0.
-20.2928 -55.0702 0.
-17.1027 -45.0764 0.
-2461.92 -4256.92 0.
-27.186 -67.8086 0.
-1856.3 -2727.57 0.
-0.00104093 -0.30538 0.
-2086.63 -4389.17 0.
-27.3478 -56.341 0.
-12.0213 -23.2751 0.
0.190324 0.361019 0.
-87.4677 -216.479 0.
-15.2293 -38.7307 0.
-1996.62 -3699.37 0.
-137.802 -368.237 0.
-0.00805723 -4.941 0.
-595.658 -1222.48 0.
1.56521 3.9538 0.
-534.472 -968.675 0.
-30.2717 -57.5131 0.
-1135.71 -1491.08 0.
-9.2496 -18.569 0.
88.578 149.606 0.
20.2298 52.9837 0.
-241.322 -431.028 0.
-960.024 -1716.45 0.
3.62402 7.35283 0.
-228.34 -486.665 0.
3.36527 7.63145 0.
6.61271 13.8461 0.
0.0227015 2.32484 0.
-0.0276292 -1.03659 0.
-186.771 -443.418 0.
-88.8761 -167.516 0.
-7.47665 -20.6389 0.
-637.311 -1357.07 0.
-71.8572 -196.921 0.
-2202.44 -4443.36 0.
0.281754 0.291754 0.
-0.1511 -0.0129338 0.
-0.149649 -0.00419088 0.
-6.15741 -2.81436 0.
-14.5818 -7.9456 0.
-43.7133 -84.0657 0.
-10.8617 -9.6734 0.
-7.6318 -11.2238 0.
-49.2218 -39.2585 0.
-1.2413 -0.700969 0.
0.311493 0.0807902 0.
0.200163 0.00570605 0.
-23.1186 -13.2305 0.
-291.915 -274.379 0.
-23.8613 -15.8933 0.
-23.8574 -21.1248 0.
-509.628 -1035.07 0.
-13.5605 -20.1769 0.
-14.337 -20.9349 0.
-468.6 -1053.13 0.
-284.157 -537.315 0.
-184.415 -218.535 0.
-529.127 -1268.72 0.
-491.558 -1210.41 0.
-287.999 -670.957 0.
-300.419 -692.045 0.
-332.093 -763.344 0.
-234.887 -629.27 0.
-276.744 -756.06 0.
-320.893 -881.027 0.
-259.353 -696.791 0.
-256.773 -692.593 0.
-254.767 -687.474 0.
-258.806 -553.97 0.
-404.463 -980.84 0.
-624.689 -1711.94 0.
-320.021 -797.828 0.
-187.97 -423.577 0.
-244.757 -669.299 0.
-239.408 -643.788 0.
-234.873 -617.792 0.
-298.305 -825.867 0.
-250.399 -685.163 0.
-204.811 -543.456 0.
-262.776 -717.475 0.
-244.419 -665.968 0.
-234.004 -622.531 0.
-451.229 -1148.99 0.
-516.593 -1298.37 0.
-53.2652 -36.4262 0.
-299.653 -434.797 0.
-560.874 -1180.38 0.
-6.99265 -3.38991 0.
-13.1275 -6.23192 0.
-543.907 -877.088 0.
-18.7839 -50.7524 0.
-14.2251 -38.851 0.
-21.19 -58.5746 0.
-36.8576 -48.6559 0.
-44.0834 -83.0075 0.
-19.1529 -40.0498 0.
-5.66909 -15.5975 0.
-14.6617 -39.9755 0.
-25.6968 -66.3832 0.
-18.8297 -51.2893 0.
-24.4405 -66.8072 0.
-102.699 -243.118 0.
-66.6184 -179.078 0.
0.425593 1.14207 0.
-19.4587 -52.6009 0.
-41.7869 -87.7969 0.
-1782.59 -2578.72 0.
-1095.91 -2327.45 0.
-304.501 -796.47 0.
-13.1421 -34.0703 0.
-11.3761 -30.1162 0.
-244.816 -586.945 0.
-880.832 -2283.23 0.
-1005.03 -1854.8 0.
0.295075 0.680656 0.
3.5074 6.7924 0.
6.63675 14.1151 0.
-1309.36 -2210.25 0.
-3.4479 -5.51434 0.
-167.154 -174.198 0.
-2.7016 -18.3978 0.
-906.441 -1182.72 0.
-81.8933 -126.259 0.
-16.9043 -33.585 0.
7.50737 17.2587 0.
3.97093 9.19498 0.
-1387.53 -2903.2 0.
4.74776 13.0139 0.
1.52877 4.20907 0.
-1066.37 -2384.34 0.
-90.0323 -150.058 0.
-1.7182 -4.37339 0.
-1082.57 -2008.43 0.
-11.4385 -31.5655 0.
-61.9069 -162.182 0.
0.501325 0.635642 0.
0.0105579 0.000173992 0.
-0.0904955 -0.000486932 0.
-11.008 -4.88926 0.
-214.916 -242.53 0.
-1791.29 -3633.33 0.
-10.9571 -18.0598 0.
0.152142 0.220323 0.
-2075.34 -4840 0.
-1.73536 -3.97327 0.
-3.23163 -8.1094 0.
-2199.29 -4858.08 0.
-4.81011 -4.62612 0.
-1705.92 -3494.77 0.
-476.403 -629.384 0.
-29.5074 -25.3113 0.
-1394.15 -3249.99 0.
-572.89 -1267.99 0.
-24.4091 -9.44974 0.
-947.246 -2240.38 0.
-544.568 -1254.65 0.
-168.998 -243.614 0.
-698.104 -1708.91 0.
-590.255 -1531.8 0.
-414.998 -1048.06 0.
-389.611 -1032.34 0.
-395.012 -1043.83 0.
-329.731 -893.053 0.
-345.74 -946.66 0.
-363.891 -995.791 0.
-331.713 -884.085 0.
-261.336 -678.686 0.
-195.763 -485.327 0.
-265.833 -611.324 0.
-333.105 -830.614 0.
-667.27 -1697.96 0.
-245.892 -621.391 0.
-211.566 -506.777 0.
-217.72 -556.097 0.
-258.317 -675.709 0.
-302.229 -804.093 0.
-370.807 -1026.85 0.
-351.169 -966.331 0.
-336.447 -901.722 0.
-383.119 -1059.24 0.
-416.427 -1128.76 0.
-470.364 -1186.48 0.
-594.078 -1587.8 0.
-750.704 -1870.91 0.
-136.242 -85.8511 0.
-598.499 -1328.4 0.
-1090.37 -2549.68 0.
-44.0621 -24.5048 0.
-545.643 -981.291 0.
-1655.73 -3825.12 0.
-8.90653 -20.858 0.
-401.971 -244.28 0.
-1889.18 -3356.88 0.
-30.903 -60.8018 0.
-2416.72 -5735.21 0.
-40.7199 -87.8004 0.
-0.249544 -0.339493 0.
-1926.28 -2301.49 0.
0.118625 0.180661 0.
-2263.57 -5302.56 0.
-1033.39 -1434.24 0.
-376.352 -571.351 0.
-69.9461 -188.092 0.
0.382228 0.995386 0.
-26.5916 -68.9564 0.
-0.117343 -1.06664 0.
-6.63147 -11.6818 0.
-74.5467 -202.36 0.
0.531729 1.46872 0.
-16.2164 -42.5371 0.
-14.8063 -36.1132 0.
0.573352 1.51098 0.
-165.567 -385.33 0.
-9.56402 -19.207 0.
-5.04808 -10.1692 0.
0.380008 0.738773 0.
-2.73142 -9.96994 0.
2.91879 4.98373 0.
-1166.4 -1700.97 0.
-3.5017 -11.0355 0.
-9.0165 -43.565 0.
-384.908 -572.618 0.
-4.80651 -40.2108 0.
-2.91021 -17.1011 0.
6.3484 13.9815 0.
-16.5245 -38.7755 0.
6.95123 14.0921 0.
5.87787 14.9752 0.
-594.668 -1275.28 0.
0.13688 6.76657 0.
-90.5402 -160.705 0.
-927.879 -1784.52 0.
-19.0584 -50.032 0.
-4.24025 -11.6753 0.
-84.6746 -216.079 0.
-16.3765 -28.3533 0.
-2290.88 -4479.05 0.
-68.4767 -50.2473 0.
-1707.26 -3111.35 0.
0.13628 0.00151803 0.
0.107797 0.00134603 0.
-22.1468 -54.0266 0.
0.0102005 0.0300216 0.
-2.56208 -3.10906 0.
-4.22357 -6.28042 0.
-6.57387 -11.5635 0.
-10.3263 -10.4742 0.
-6.74185 -5.06006 0.
-0.290765 -0.174019 0.
-5.75343 -4.02964 0.
-18.3354 -13.3782 0.
-373.729 -811.072 0.
-14.9488 -10.216 0.
-8.44847 -3.77346 0.
-466.401 -1178.81 0.
-94.4418 -162.51 0.
-26.3099 -14.6203 0.
-446.783 -1176.26 0.
-359.366 -984.998 0.
-303.408 -769.731 0.
-281.628 -747.329 0.
-279.461 -747.962 0.
-274.41 -736.695 0.
-291.327 -790.341 0.
-308.538 -838.863 0.
-346.866 -937.216 0.
-288.066 -763.152 0.
-232.759 -595.99 0.
-315.221 -767.802 0.
-364.179 -949.333 0.
-283.954 -778.798 0.
-315.412 -812.377 0.
-284.238 -688.412 0.
-251.454 -651.939 0.
-287.327 -762.153 0.
-325.96 -879.966 0.
-298.098 -824.619 0.
-279.612 -765.463 0.
-263.275 -702.751 0.
-232.267 -643.166 0.
-262.431 -716.816 0.
-303.691 -788.257 0.
-287.752 -789.809 0.
-419.244 -1096.77 0.
-23.9745 -14.7306 0.
-25.4683 -14.4111 0.
-498.483 -1190.87 0.
-21.5026 -13.9473 0.
-15.9528 -6.34964 0.
-361.679 -671.657 0.
-19.6273 -35.8913 0.
-15.7087 -24.8594 0.
-29.3308 -66.4134 0.
-10.4666 -18.1928 0.
-31.0839 -77.8811 0.
-44.491 -59.1896 0.
-3.46316 -3.93366 0.
-7.07179 -9.84331 0.
-0.75463 -1.12517 0.
-12.9974 -18.5853 0.
-33.5951 -92.886 0.
-16.8834 -46.4352 0.
-602.358 -1051.64 0.
-1951.08 -4450.84 0.
-34.7395 -85.8303 0.
-0.0677972 -0.714903 0.
-0.031724 -1.82155 0.
-60.5938 -164.09 0.
-1316.37 -2571.1 0.
-18.8135 -49.7365 0.
-28.396 -64.92 0.
3.24506 8.49645 0.
-111.988 -240.732 0.
-812.795 -1635.83 0.
-14.544 -27.9282 0.
-27.8759 -56.0445 0.
-3.84259 -8.66636 0.
3.80319 5.83725 0.
-103.284 -132.049 0.
-14.2959 -102.598 0.
-386.12 -897.608 0.
-26.6464 -44.0929 0.
8.94274 17.6697 0.
-5.0185 -22.3669 0.
3.35858 7.19559 0.
9.40984 23.3159 0.
3.07445 7.77983 0.
-0.770269 -13.6574 0.
4.41135 9.6188 0.
0.058698 7.57586 0.
-125.996 -288.136 0.
-540.484 -1126.36 0.
-187.602 -491.016 0.
-0.161046 -0.429179 0.
-1185.51 -2486.07 0.
-0.559448 -0.880348 0.
-80.9821 -46.7813 0.
-39.3991 -20.8599 0.
-0.256025 -0.0863766 0.
0.265462 0.0438551 0.
0.471687 0.00141402 0.
-53.89 -86.6489 0.
-8.70258 -3.38726 0.
-5.42047 -4.27201 0.
-8.44684 -8.06095 0.
-12.1872 -14.0481 0.
-15.9394 -12.7339 0.
-12.5648 -7.16128 0.
-0.497472 -0.29475 0.
-6.1342 -4.60884 0.
-24.2566 -17.8996 0.
-13.4673 -6.45014 0.
-12.4671 -5.46351 0.
-11.252 -4.84252 0.
-60.3785 -89.0095 0.
-3.02062 -1.11509 0.
-15.571 -7.03829 0.
-38.0781 -87.0968 0.
-12.957 -9.62193 0.
-57.2165 -109.076 0.
-12.7437 -7.60845 0.
-30.9329 -52.9543 0.
-20.4693 -46.0249 0.
-67.1084 -178.926 0.
-25.8999 -51.7617 0.
-89.283 -227.643 0.
-16.3521 -31.9377 0.
-35.6283 -80.2561 0.
-59.3319 -151.868 0.
-90.9053 -238.361 0.
-32.0379 -64.8464 0.
-35.5071 -72.2157 0.
-55.0581 -115.072 0.
-8.81095 -21.0315 0.
-84.9904 -221.249 0.
-29.8538 -81.8008 0.
-11.8813 -32.8809 0.
-31.9632 -87.0381 0.
-14.6279 -40.237 0.
-8.21499 -22.7526 0.
-30.2396 -75.0771 0.
-6.0336 -10.2729 0.
-13.1569 -22.0903 0.
-85.2521 -195.523 0.
0.247517 0.166347 0.
-0.239424 -0.0842653 0.
-4.42371 -5.92406 0.
-4.87753 -3.55691 0.
-0.153355 -0.00039242 0.
-4.846 -3.77516 0.
-62.2332 -71.6806 0.
-39.7859 -29.5616 0.
-53.961 -69.138 0.
-0.0302932 -5.42222e-06 0.
-13.9431 -36.463 0.
-70.2021 -55.6429 0.
-18.5822 -17.0689 0.
-13.2737 -15.8352 0.
-1.07457 -1.55442 0.
0.31639 0.324361 0.
-20.5144 -54.7888 0.
-9.15048 -23.2724 0.
-0.259614 -2.91147 0.
-30.1466 -83.4033 0.
-131.398 -304.147 0.
-1500.15 -2531.72 0.
-0.00429735 -0.409939 0.
-76.4536 -207.578 0.
-188.587 -388.837 0.
-0.10521 -17.0614 0.
-1250 -2532.37 0.
-531.556 -1381.66 0.
-80.3938 -159.958 0.
1.73261 4.22084 0.
-1076.09 -1993.25 0.
-1.47099 -13.7367 0.
-1.99684 -11.8237 0.
-8.49576 -39.1599 0.
-694.691 -1003.79 0.
-3.97229 -34.6861 0.
-223.855 -474.466 0.
-957.953 -1417.48 0.
15.3011 25.0301 0.
3.46963 6.62652 0.
-1.64551 -3.44803 0.
9.015 20.4457 0.
-0.206088 -5.32888 0.
-1.46276 -21.748 0.
-15.8443 -32.521 0.
5.21984 12.9455 0.
-215.956 -547.289 0.
-0.0979221 -7.6213 0.
-187.913 -502.322 0.
-1186.73 -2360.63 0.
0.01453 0.193012 0.
0.446765 0.524072 0.
-77.7749 -33.9456 0.
-68.7192 -33.5482 0.
0.217999 0.203949 0.
-1276 -2843.85 0.
0.211684 -0.0986144 0.
-2053.03 -3093.07 0.
0.281028 0.18649 0.
-1632.28 -3345.93 0.
0.388347 0.223226 0.
-0.608653 -0.390387 0.
-2011.3 -4751 0.
-16.2405 -13.8216 0.
-1933.04 -3337.34 0.
-77.0422 -100.604 0.
-3.99271 -2.91713 0.
-1855.55 -4563.28 0.
-172.534 -344.474 0.
-24.5065 -23.7635 0.
-1196.8 -3020.61 0.
-432.007 -1110.98 0.
-16.0247 -36.9259 0.
-827.43 -2138.4 0.
-541.06 -1462.11 0.
-562.124 -1437.44 0.
-425.198 -1121.75 0.
-302.891 -809.37 0.
-392.212 -1052.58 0.
-313.994 -841.649 0.
-237.564 -633.785 0.
-366.226 -983.015 0.
-287.954 -760.768 0.
-208.881 -542.737 0.
-332.47 -824.706 0.
-420.185 -1067.54 0.
-242.51 -653.035 0.
-346.651 -933.425 0.
-274.419 -711.686 0.
-195.117 -494.021 0.
-291.388 -771.183 0.
-389.354 -1054.68 0.
-243.276 -660.567 0.
-345.089 -931 0.
-450.309 -1203.08 0.
-302.72 -826.733 0.
-454.889 -1209.51 0.
-620.241 -1582.13 0.
-501.949 -1363.59 0.
-917.899 -2401.46 0.
-12.9674 -35.5387 0.
-392.202 -940.768 0.
-1385.81 -3379.86 0.
-20.7668 -51.2913 0.
-13.7981 -29.814 0.
-2032.16 -5090.69 0.
-19.0325 -22.6758 0.
-41.313 -72.2108 0.
-2020.86 -3165.34 0.
-14.3364 -16.661 0.
-2189.01 -5382.42 0.
-73.8186 -89.0282 0.
-44.8938 -43.9956 0.
-1962.34 -2585.18 0.
0.0440245 0.213458 0.
-1802.89 -4024.56 0.
-45.8635 -95.8484 0.
-4.17555 -9.98145 0.
-0.24368 -2.97016 0.
0.290623 0.79874 0.
2.28111 5.29927 0.
-0.182391 -0.330543 0.
-601.894 -1296.24 0.
-122.765 -335.151 0.
-151.552 -304.135 0.
-0.0162076 -8.75507 0.
6.0871 16.1242 0.
-5.37419 -12.2491 0.
5.63792 11.8253 0.
3.65668 7.78122 0.
-4.97977 -9.54307 0.
-0.602566 -3.06708 0.
-596.288 -1156.76 0.
19.9648 35.9877 0.
-30.3418 -46.1078 0.
34.089 72.1029 0.
-77.9438 -135.608 0.
87.5344 129.337 0.
-10.3251 -29.422 0.
-739.111 -1216.41 0.
2.83827 6.06734 0.
-1122.75 -2269.27 0.
4.50568 11.4406 0.
-125.847 -295.177 0.
-887.568 -1733.96 0.
-929.72 -2102.67 0.
4.63541 11.2748 0.
-0.126881 -11.8834 0.
-186.336 -504.816 0.
-439.603 -944.592 0.
0.0434274 0.842375 0.
-0.154803 -0.192812 0.
0.327548 0.390414 0.
-1199.97 -1658.48 0.
-0.111585 -0.545891 0.
-14.7481 -29.7838 0.
-0.0189283 -0.0485513 0.
-21.1073 -14.0794 0.
0.1887 0.102171 0.
-0.0963292 -0.0257714 0.
0.074238 0.046347 0.
-1.82959 -1.28116 0.
0.0228996 0.0440951 0.
-1.27485 -2.14119 0.
-7.66889 -7.53898 0.
-5.85894 -3.64538 0.
-4.05518 -2.47624 0.
-12.1618 -4.76236 0.
-9.30497 -3.79036 0.
-18.0991 -9.40609 0.
-373.822 -926.115 0.
-0.0233708 -0.21415 0.
0.0940609 0.218569 0.
-421.032 -1093.44 0.
-142.661 -380.979 0.
-331.133 -844.68 0.
-203.884 -522.081 0.
-108.225 -270.973 0.
-336.668 -906.698 0.
-260.015 -696.102 0.
-183.841 -485.436 0.
-354.169 -972.004 0.
-275.2 -749.303 0.
-196.414 -526.678 0.
-386.358 -922.403 0.
-475.385 -1164.38 0.
-123.379 -320.02 0.
-386.414 -1051.46 0.
-311.325 -835.376 0.
-188.828 -488.791 0.
-283.37 -770.314 0.
-382.721 -1056.4 0.
-134.219 -363.096 0.
-235.717 -635.386 0.
-338.573 -909.201 0.
-52.4626 -135.82 0.
-168.459 -435.854 0.
-324.579 -819.566 0.
-23.855 -65.3245 0.
-438.096 -1163.94 0.
0.00368662 0.281118 0.
-0.00259377 -0.00384809 0.
-205.723 -437.31 0.
-19.7751 -51.0409 0.
-11.8839 -28.0792 0.
-12.48 -27.0003 0.
-2.52177 -4.93725 0.
-18.4356 -41.1341 0.
-41.8439 -113.045 0.
-5.66253 -5.02156 0.
-36.3799 -79.7786 0.
-8.3131 -3.36964 0.
-17.6887 -15.0592 0.
-27.27 -29.2055 0.
0.00206368 0.132738 0.
-26.6947 -72.7469 0.
0.0688099 1.27214 0.
-1803.05 -3951.38 0.
-1.15833 -2.94125 0.
-0.0496879 -0.135799 0.
1.89589 4.29481 0.
1.92599 3.45873 0.
-281.706 -625.662 0.
-0.647174 -8.86761 0.
-583.411 -1155.5 0.
-938.914 -2362.28 0.
-0.540645 -25.2991 0.
-550.585 -1196.49 0.
-73.6647 -154.572 0.
8.29163 16.96 0.
-153.199 -265.057 0.
16.3533 27.426 0.
21.6919 37.022 0.
-18.2446 -48.5716 0.
-738.364 -1136.47 0.
32.0991 63.936 0.
-249.055 -431.38 0.
87.834 158.724 0.
-57.5467 -95.9519 0.
23.8386 43.5236 0.
5.35225 10.8011 0.
0.251681 0.478541 0.
-0.169155 -13.2262 0.
-1.1582 -2.83969 0.
-484.828 -950.7 0.
14.8401 34.3918 0.
4.88979 11.7646 0.
11.4241 28.2837 0.
-214.582 -578.91 0.
-0.0988196 -13.2487 0.
-0.0182198 -0.483387 0.
-8.48194 -9.76728 0.
-1376.25 -2818.06 0.
-2.05659 -1.94623 0.
-0.420648 -2.06842 0.
-147.042 -318.295 0.
-11.5847 -17.7764 0.
-19.5798 -17.4622 0.
-0.0932224 -0.0397104 0.
-0.0627087 -0.0202798 0.
-1033.87 -2141.14 0.
-20.9205 -15.8881 0.
-1436.91 -3344.22 0.
-0.0580113 -0.0329054 0.
-1661.24 -3034.8 0.
-0.184603 -0.0967671 0.
-0.522216 -0.262618 0.
-1857.54 -4704.66 0.
-17.4431 -8.08375 0.
-32.4169 -43.4435 0.
-1424.26 -3494.28 0.
-263.296 -671.258 0.
-18.3759 -50.7962 0.
-1009.45 -2579.09 0.
-472.395 -1233.56 0.
-666.628 -1659.59 0.
-424.41 -1070.98 0.
-195.133 -487.131 0.
-510.629 -1309.87 0.
-329.013 -846.743 0.
-150.975 -385.324 0.
-365.023 -964.111 0.
-277.989 -734.521 0.
-194.074 -513.904 0.
-359.802 -841.196 0.
-322.978 -743.094 0.
-340.298 -508.165 0.
-235.269 -602.795 0.
-274.908 -706.369 0.
-168.544 -436.52 0.
-288.032 -757.011 0.
-413.707 -1094.36 0.
-108.723 -278.118 0.
-339.673 -876.09 0.
-573.818 -1478.87 0.
-172.238 -443.729 0.
-442.211 -1104.31 0.
-724.862 -1758.71 0.
-408.148 -1087.26 0.
-1103.96 -2863.26 0.
-25.1719 -68.9574 0.
-57.8642 -154.76 0.
-1558.19 -4046.24 0.
-51.0499 -119.939 0.
-13.957 -29.2122 0.
-1399.09 -2995.24 0.
-2.98945 -2.45244 0.
-1825.63 -4041.35 0.
-35.508 -62.5534 0.
-46.0746 -85.4749 0.
-1157.43 -2805.94 0.
-179.134 -361.447 0.
-0.148633 -0.0540053 0.
-10.0872 -4.63479 0.
-5.3703 -14.7898 0.
-18.6522 -51.4225 0.
-0.109125 -3.52657 0.
-21.8393 -45.3907 0.
-0.0228889 -0.894997 0.
-1291.08 -2866.04 0.
-0.973402 -8.8949 0.
2.70879 7.15354 0.
-764.433 -1783.08 0.
2.22949 5.03935 0.
15.194 41.8389 0.
-409.526 -1067.72 0.
-0.517746 -21.6117 0.
-3.63225 -27.1098 0.
-901.987 -1924.6 0.
2.77866 5.47774 0.
-1322.4 -2160.94 0.
0.649866 10.3867 0.
-1079.1 -1647.58 0.
-18.503 -55.9026 0.
-110.525 -165.342 0.
-2.37194 -4.4445 0.
-626.46 -1503.4 0.
-788.271 -1498.34 0.
-22.5952 -40.6803 0.
-1137.95 -1995.74 0.
-0.42932 -11.7827 0.
14.2626 25.3396 0.
14.1787 36.1063 0.
0.479889 1.05114 0.
0.455253 1.19234 0.
1.15325 2.54502 0.
-1107.11 -2626.54 0.
-930.949 -2114.26 0.
4.27325 10.6509 0.
3.6422 9.91761 0.
1.07078 2.78233 0.
-663.333 -1518.88 0.
1.33175 3.01582 0.
-0.640309 -0.819065 0.
-0.131212 -0.648049 0.
-282.148 -721.38 0.
-289.331 -340.804 0.
-1584.24 -3060.71 0.
-0.360054 -0.346915 0.
-864.267 -1780 0.
-0.16837 -0.486148 0.
0.0152859 0.160545 0.
0.149118 0.00634114 0.
0.172999 0.0420942 0.
0.356992 0.261541 0.
0.197372 0.112826 0.
-3.81884 -2.23664 0.
-23.138 -32.0891 0.
-10.7434 -6.43093 0.
-11.3365 -7.67548 0.
-70.9463 -169.915 0.
0.00024662 0.0863975 0.
-10.7778 -27.6708 0.
-408.624 -1047.05 0.
-6.00894 -8.43412 0.
-346.75 -869.547 0.
-104.915 -259.659 0.
-28.7644 -57.9718 0.
-359.154 -951.125 0.
-184.014 -486.555 0.
-34.4357 -91.6787 0.
-306.778 -835.723 0.
-226.355 -617.756 0.
-156.831 -429.007 0.
-377.246 -847.795 0.
-342.435 -758.384 0.
-173.07 -438.518 0.
-255.496 -649.46 0.
-287.454 -731.759 0.
-107.267 -288.946 0.
-221.987 -606.512 0.
-342.336 -936.704 0.
-3.54454 -6.15498 0.
-146.66 -386.262 0.
-373.905 -990.882 0.
-24.1132 -60.1421 0.
-16.1775 -37.1831 0.
-291.555 -697.782 0.
-9.89781 -22.0179 0.
-377.801 -989.927 0.
-10.7915 -22.3866 0.
-4.94024 -9.14246 0.
-29.7123 -67.8405 0.
-11.8434 -30.4116 0.
-3.43688 -7.64063 0.
-8.10751 -16.3687 0.
-6.42482 -5.40001 0.
-300.03 -815.753 0.
-15.9748 -34.6707 0.
-22.5103 -40.9345 0.
-81.0846 -213.837 0.
-0.839764 -2.21685 0.
-1886.36 -3856.28 0.
-40.9046 -99.1977 0.
-68.5618 -126.675 0.
-1343.96 -2119.27 0.
0.0911627 3.67322 0.
2.2731 4.93461 0.
-0.142216 -6.90971 0.
1.16381 2.33643 0.
-617.95 -1286.06 0.
1.39542 3.70284 0.
0.011745 6.41584 0.
-1.28111 -10.2106 0.
0.000108021 0.239346 0.
-338.268 -833.327 0.
-0.744609 -14.8801 0.
7.15901 15.6608 0.
-28.3821 -62.1387 0.
-1.39208 -13.5609 0.
28.1467 49.1132 0.
11.351 25.9966 0.
-1.64711 -2.92987 0.
-11.5012 -18.3062 0.
57.5616 91.0406 0.
-65.9235 -113.744 0.
-175.499 -251.771 0.
-14.1104 -84.2486 0.
-23.6788 -39.3846 0.
-14.3675 -25.7613 0.
-0.968208 -9.88132 0.
-896.557 -1652.23 0.
3.67579 8.82573 0.
-1725.03 -3401.36 0.
-3.01672 -7.73583 0.
18.7655 39.4599 0.
-145.38 -333.148 0.
-1.09842 -29.3855 0.
-2.41485 -52.8351 0.
1.0007 2.57051 0.
-0.0267868 -1.37469 0.
-1.22496 -13.9317 0.
0.214603 0.540999 0.
1.22257 1.87167 0.
-1548.22 -3008.39 0.
-915.647 -1293.31 0.
-0.893322 -2.01941 0.
-0.571063 -0.404288 0.
-0.441173 -0.492188 0.
-8.45521 -11.4851 0.
0.575759 1.30475 0.
0.000838282 1.4784 0.
-0.334967 -0.0136067 0.
0.0174403 0.00859212 0.
0.120519 0.0741222 0.
-3.50513 -2.20629 0.
-6.63907 -4.67968 0.
-16.535 -34.0748 0.
-8.63996 -14.0605 0.
-7.90177 -13.4021 0.
0.134698 0.0164226 0.
0.0322454 0.0582787 0.
-4.18434 -9.36527 0.
-3.62566 -6.03518 0.
-4.49339 -6.52219 0.
-16.6866 -37.443 0.
-14.8132 -29.7124 0.
-18.7742 -36.4188 0.
-156.285 -419.371 0.
-20.7403 -55.1264 0.
-5.23548 -13.9888 0.
-157.445 -435.998 0.
-126.21 -349.512 0.
-41.3181 -113.235 0.
-225.029 -203.203 0.
-211.006 -194.815 0.
-74.0249 -86.8156 0.
-73.7707 -128.954 0.
-275.283 -476.637 0.
-16.123 -37.6785 0.
-129.336 -351.366 0.
-182.607 -499.404 0.
-8.47521 -15.5885 0.
-17.8341 -41.7659 0.
-140.907 -374.158 0.
-15.5466 -40.0775 0.
-0.837218 -2.12578 0.
-3.0389 -7.69983 0.
0.176845 0.355775 0.
-0.0998363 -0.491453 0.
-3.95605 -7.64079 0.
-0.0166662 -0.062682 0.
-0.0432326 -0.108744 0.
-4.94626 -11.8294 0.
0.213243 0.0161986 0.
-4.77871 -10.0618 0.
-9.8793 -8.54672 0.
-21.175 -33.2569 0.
-8.93713 -20.2496 0.
-5.57878 -10.7622 0.
-48.3968 -114.795 0.
-3.40075e-05 -0.219507 0.
-0.694625 -1.73129 0.
0.682524 1.55745 0.
-0.319857 -1.5875 0.
-0.00092047 -5.46283 0.
-1162.15 -3034.02 0.
2.78321 7.60889 0.
-0.00239184 -0.129034 0.
-1.39948 -2.96263 0.
-767.94 -1646.88 0.
-0.11119 -5.56847 0.
-0.270655 -16.2429 0.
4.21197 10.9324 0.
-0.242698 -35.9653 0.
-341.085 -792.743 0.
15.4897 36.9802 0.
-12.879 -28.0642 0.
-317.863 -668.56 0.
-4.53394 -28.7307 0.
-1611.52 -2756.21 0.
10.8652 22.3247 0.
-946.959 -1617.41 0.
-26.6008 -80.8099 0.
-816.822 -1366.86 0.
10.0886 25.8426 0.
-162.017 -216.435 0.
19.2532 40.297 0.
9.90863 14.3061 0.
10.9011 19.5464 0.
4.33869 8.80067 0.
10.8704 19.9735 0.
-3.80138 -28.1425 0.
4.75307 10.1205 0.
-0.844536 -24.1851 0.
-1.95876 -20.885 0.
-192.312 -428.337 0.
-0.990823 -2.49628 0.
-10.7471 -26.8973 0.
-1098.14 -2682.55 0.
9.10098 23.1282 0.
9.56004 21.5661 0.
-0.181687 -7.22816 0.
-366.557 -935.463 0.
-0.635351 -1.29767 0.
4.31004 10.4578 0.
-0.0146523 -0.0629165 0.
0.143714 2.64823 0.
-0.413219 -0.52294 0.
-18.7788 -28.2388 0.
-1290.61 -2513.4 0.
0.0544759 0.574383 0.
-1452.98 -2777.63 0.
-9.43447 -8.65457 0.
-0.338934 -0.269731 0.
-1962.11 -4289.87 0.
-0.158825 -0.0951649 0.
-1262.69 -2756.84 0.
0.0723484 0.0767259 0.
-50.0619 -120.538 0.
-1499.05 -3826.97 0.
-18.907 -42.5484 0.
-14.1871 -31.6884 0.
-1219.19 -3145.12 0.
-155.441 -396.16 0.
-849.974 -2057.6 0.
-402.447 -975.454 0.
-55.1166 -141.084 0.
-683.688 -1808.96 0.
-367.655 -972.101 0.
-60.6344 -163.12 0.
-491.376 -1338.07 0.
-314.328 -858.282 0.
-151.189 -411.637 0.
-443.712 -976.865 0.
-409.42 -883.774 0.
-210.119 -515.454 0.
-358.578 -824.972 0.
-427.391 -999.296 0.
-126.569 -343.202 0.
-328.972 -902.296 0.
-561.569 -1532.05 0.
-10.7585 -29.6802 0.
-375.519 -985.601 0.
-787.941 -2075.32 0.
-14.0158 -32.2116 0.
-405.331 -959.109 0.
-936.278 -2205.2 0.
-47.6439 -127.374 0.
-1296.41 -3407.57 0.
-14.2107 -34.4296 0.
-28.988 -69.12 0.
-1601.09 -4086.41 0.
-41.9786 -101.157 0.
-29.792 -67.7073 0.
-1690.04 -2976.19 0.
-10.2989 -13.7257 0.
-1579.89 -3678.54 0.
-35.8791 -91.7973 0.
-59.7111 -146.015 0.
-1456.53 -2920.5 0.
-2.66154 -7.36437 0.
-954.354 -2424.2 0.
-0.0151158 -0.167627 0.
1.83699 3.59056 0.
2.71328 7.41287 0.
-41.8891 -112.775 0.
3.08663 8.33716 0.
-889.393 -2099.71 0.
-16.4016 -36.3706 0.
5.99628 16.5929 0.
-158.818 -418.131 0.
-1.12581 -31.1276 0.
6.70376 17.2095 0.
-0.311175 -18.1896 0.
-523.338 -1218.7 0.
-383.919 -892.004 0.
-190.977 -417.759 0.
-1324.08 -2700.6 0.
-3.73335 -17.8897 0.
8.73923 17.4849 0.
31.9179 60.1667 0.
-18.4156 -75.6775 0.
61.1854 97.6259 0.
-36.7048 -63.9172 0.
15.537 16.9004 0.
-90.7417 -122.282 0.
62.0027 128.46 0.
-201.517 -292.831 0.
-458.225 -822.035 0.
17.6747 36.8558 0.
29.2188 52.2162 0.
-5.8039 -33.9782 0.
3.18202 6.67629 0.
-2.42249 -34.3797 0.
0.284361 0.626542 0.
-200.351 -434.186 0.
17.3241 43.1805 0.
-968.842 -2422.19 0.
-1.26525 -43.9346 0.
16.3347 41.9768 0.
13.4384 29.5823 0.
-123.665 -328.74 0.
-4.13911 -10.2429 0.
-0.369962 -0.818395 0.
0.0814173 3.24109 0.
-0.69976 -5.00217 0.
-0.0459317 -0.940846 0.
-1549.15 -3283.09 0.
1.09962 1.87074 0.
-0.0298615 -0.439487 0.
-0.0461166 -0.801096 0.
-0.294174 -0.317243 0.
0.435222 0.446938 0.
-0.0113222 -0.010163 0.
-0.145594 -0.116684 0.
-0.0601193 -0.0478081 0.
0.0526075 0.0550042 0.
0.0340801 0.0397798 0.
-24.2964 -52.9584 0.
-0.0544521 -0.0843261 0.
-0.114598 -0.262395 0.
-0.886821 -1.54117 0.
-292.717 -754.013 0.
0.0696933 0.151717 0.
-295.817 -715.4 0.
-5.53819 -14.4487 0.
-5.65781 -15.4744 0.
-389.477 -1054.64 0.
-93.2563 -255.178 0.
-7.69462 -16.6375 0.
-395.14 -1075.66 0.
-245.328 -662.592 0.
-96.5189 -252.606 0.
-404.222 -887.72 0.
-371.083 -799.639 0.
-54.6439 -101.569 0.
-317.081 -718.145 0.
-363.569 -844.528 0.
-24.6375 -67.8546 0.
-201.846 -558.949 0.
-405.841 -1123.76 0.
-9.66135 -26.7425 0.
-8.82704 -24.3195 0.
-401.537 -1084.79 0.
-7.02045 -17.4113 0.
-5.52673 -15.2278 0.
-240.088 -580.941 0.
-10.3152 -27.1556 0.
-203.911 -527.447 0.
0.103143 0.220907 0.
0.130012 0.240864 0.
-11.8264 -21.9931 0.
-12.0193 -30.2417 0.
-6.08131 -14.1776 0.
-1.60106 -3.1813 0.
-8.22039 -12.8691 0.
-52.303 -132.19 0.
-37.8512 -101.084 0.
-11.0534 -28.5139 0.
-73.3915 -179.601 0.
-0.0829629 -0.226432 0.
-95.6004 -263.638 0.
1.86444 4.60072 0.
-1099.88 -2207.47 0.
-0.0138998 -0.965661 0.
-51.9239 -142.611 0.
0.663111 1.7644 0.
-0.324002 -6.75603 0.
-61.3498 -141.112 0.
-0.172414 -14.8082 0.
-1.34777 -47.2636 0.
-839.298 -2045.91 0.
-117.487 -298.184 0.
-1.01158 -30.1738 0.
20.7937 47.6495 0.
-571.241 -1356.84 0.
-1.89086 -36.9438 0.
-5.99155 -57.8942 0.
-1.68775 -10.6914 0.
21.2735 41.6803 0.
31.7943 55.777 0.
-159.716 -289.888 0.
63.4121 99.9356 0.
72.0052 129.448 0.
-22.2321 -12.6598 0.
26.1156 53.1275 0.
-12.6513 -79.1203 0.
-236.442 -345.432 0.
-432.739 -839.643 0.
8.7751 17.6968 0.
36.614 77.6558 0.
-8.47595 -41.2235 0.
21.6759 44.9097 0.
8.32425 18.3079 0.
-1119.4 -2419.93 0.
-1311.41 -2767.33 0.
11.1307 26.2936 0.
-74.3511 -190.593 0.
-1.1692 -40.7485 0.
5.61944 14.5632 0.
-1047.94 -2238 0.
2.27877 5.74412 0.
-0.256167 -0.61904 0.
-0.317836 -0.739963 0.
-0.130877 -8.90236 0.
-1152.53 -2275.65 0.
0.0289704 1.69803 0.
-0.443801 -1.259 0.
-0.131769 -0.591741 0.
-0.0797199 -1.82574 0.
-0.0358021 -1.12262 0.
-0.188843 -0.29566 0.
-0.185836 -0.282574 0.
-158.477 -318.327 0.
-1403.93 -3734.7 0.
0.0374285 0.0762183 0.
-1483.81 -2139.86 0.
-36.1404 -80.4759 0.
-85.224 -170.508 0.
-1506.93 -3802.77 0.
-1.61493 -3.98207 0.
-2.63826 -6.90908 0.
-1293.86 -3337.38 0.
-6.74075 -16.7266 0.
-944.64 -2193.33 0.
-345.661 -799.073 0.
-3.21072 -8.89315 0.
-825.726 -2167.32 0.
-336.297 -882.94 0.
-8.32084 -18.2649 0.
-576.419 -1545.26 0.
-327.781 -887.379 0.
-96.3977 -248.852 0.
-460.999 -1081.84 0.
-398.431 -935.338 0.
-92.6852 -219.469 0.
-365.122 -913.323 0.
-480.547 -1211.27 0.
-39.5216 -108.688 0.
-320.574 -878.724 0.
-635.082 -1715.13 0.
-4.53997 -12.5741 0.
-289.148 -759.954 0.
-904.605 -2385.16 0.
-10.054 -26.7788 0.
-300.907 -699.388 0.
-969.816 -2264.34 0.
-12.2661 -32.5667 0.
-1378.05 -3301.8 0.
-9.46174 -22.5949 0.
0.122859 0.285576 0.
-1519.76 -4001.16 0.
-5.03718 -13.8147 0.
-15.5809 -39.5562 0.
-1326.19 -2685.02 0.
-33.4251 -53.9957 0.
-1016.99 -2447.31 0.
-89.3223 -237.243 0.
-24.8467 -65.0142 0.
-57.8068 -143.322 0.
-0.0458951 -2.00239 0.
-50.3991 -139.218 0.
-0.279465 -9.37575 0.
0.311643 0.664799 0.
-465.574 -1216.41 0.
-0.0227776 -5.359 0.
4.15023 10.855 0.
3.84591 9.43421 0.
-142.207 -336.02 0.
-5.21521 -13.4348 0.
11.7512 30.4158 0.
19.6489 51.9633 0.
-752.068 -1888.49 0.
-1.80529 -34.1749 0.
19.4216 44.1631 0.
-434.279 -976.026 0.
-2.06912 -29.9032 0.
-5.43317 -11.6994 0.
7.43962 14.6753 0.
15.5797 29.9882 0.
17.9212 37.5939 0.
-762.589 -1478.43 0.
-40.643 -123.678 0.
42.4784 80.0555 0.
0.326697 0.208556 0.
41.5035 79.135 0.
-0.135286 -0.75073 0.
-7.98332 -13.257 0.
-221.167 -408.657 0.
38.4178 75.3192 0.
-5.20329 -10.9039 0.
-1.86538 -17.3482 0.
-1045.97 -2149.77 0.
28.0384 64.1024 0.
3.71815 8.32355 0.
-7.36909 -17.5448 0.
19.2063 44.2566 0.
-255.567 -651.547 0.
14.9518 38.7207 0.
-548.841 -1431.22 0.
-0.372716 -22.454 0.
-8.84687 -22.4999 0.
-730.248 -1727.14 0.
15.3873 42.44 0.
-612.16 -1282.87 0.
-14.1094 -31.1612 0.
-0.0807757 -8.47825 0.
-0.631149 -2.12758 0.
-0.0474175 -0.259753 0.
-1375.5 -2957.25 0.
-7.02156e-05 -1.60209 0.
-1251.93 -2069.85 0.
0.137086 0.183968 0.
0.247615 0.408652 0.
0.0575768 0.12404 0.
0.225006 0.547831 0.
-2.19172 -5.72728 0.
-0.532674 -1.30375 0.
-3.41365 -8.57449 0.
-0.864046 -2.29368 0.
0.0598322 0.160628 0.
-1.28631 -3.55133 0.
-116.678 -294.163 0.
-1.94777 -4.82473 0.
-154.45 -365.753 0.
-1.59424 -4.40287 0.
-7.07946 -17.0831 0.
-341.066 -919.485 0.
-8.72338 -20.991 0.
-9.27756 -22.8867 0.
-328.711 -908.586 0.
-88.3028 -243.691 0.
-9.19333 -24.686 0.
-303.087 -750.809 0.
-242.125 -597.295 0.
-39.1852 -76.0172 0.
-150.689 -396.441 0.
-264.157 -697.054 0.
-9.30913 -23.5239 0.
-35.8781 -99.0472 0.
-339.91 -937.508 0.
-1.43651 -3.30532 0.
-6.78812 -18.5332 0.
-315.542 -856.724 0.
-12.7659 -31.7289 0.
-11.5568 -28.7696 0.
-125.468 -308.535 0.
0.157375 0.417879 0.
-9.8725 -27.0996 0.
-10.9109 -26.3415 0.
-0.165832 -0.396108 0.
-12.3413 -30.4584 0.
0.179932 0.497521 0.
-0.0203108 -0.0537054 0.
-12.6867 -29.3085 0.
-4.99021 -10.1538 0.
-14.4121 -25.5026 0.
-0.0717496 -0.999991 0.
-1197.34 -2870.51 0.
0.59442 1.63781 0.
-1053.7 -2532.44 0.
-58.8601 -160.237 0.
2.66352 7.03585 0.
-0.0454577 -18.3265 0.
-46.7844 -123.625 0.
-575.174 -1356.49 0.
6.46561 16.583 0.
7.74359 18.6293 0.
16.3741 41.89 0.
-1023.51 -2507.7 0.
-1.46292 -47.5027 0.
3.89891 10.2125 0.
7.12095 17.5996 0.
-2.1611 -36.3465 0.
-760.514 -1728.85 0.
-280.503 -600.76 0.
11.0699 25.5173 0.
2.68504 5.60605 0.
7.08165 13.6013 0.
-1002.23 -1902.03 0.
18.0631 36.3849 0.
1.62508 3.053 0.
106.003 169.721 0.
5.03164 9.52163 0.
-26.1976 -18.2261 0.
4.1298 7.41075 0.
-35.12 -102.079 0.
-2.22632 -3.83539 0.
0.171762 0.306586 0.
14.787 27.2042 0.
-12.22 -83.5573 0.
14.2472 30.348 0.
-9.44938 -60.5583 0.
9.96366 22.4498 0.
28.7569 64.6076 0.
11.7282 28.118 0.
-10.1103 -22.7361 0.
-652.528 -1655.33 0.
15.568 40.2561 0.
-6.88467 -18.0033 0.
-0.728907 -49.6004 0.
-368.18 -941.394 0.
7.41304 19.6874 0.
-0.0336146 -30.3776 0.
-46.6325 -99.382 0.
9.20313 22.8376 0.
6.05068 16.4488 0.
-762.109 -1373.85 0.
0.720827 1.68619 0.
-33.381 -91.9882 0.
-0.0431478 -1.16098 0.
0.035637 1.8234 0.
1.04509 1.24261 0.
0.316702 0.507698 0.
0.30001 0.720106 0.
0.00439503 0.2132 0.
0.0212827 0.0428646 0.
-1.33818 -2.86109 0.
-4.81459 -10.8859 0.
-0.353538 -0.974504 0.
-1.64919e-05 -0.328282 0.
-0.0289892 -0.0792775 0.
-9.63254 -25.3703 0.
-0.164615 -0.376424 0.
-8.94002 -15.378 0.
-6.76052 -12.0164 0.
-13.3096 -23.6823 0.
-20.4003 -56.4268 0.
-9.76183 -26.5034 0.
-11.0024 -28.8515 0.
-103.216 -284.354 0.
-8.92506 -24.6955 0.
-6.86423 -17.9506 0.
-86.5699 -210.257 0.
-59.635 -139.901 0.
-19.2117 -29.8805 0.
-27.9456 -57.0814 0.
-90.8036 -236.407 0.
-9.11768 -23.205 0.
-15.4319 -39.8021 0.
-58.2631 -158.016 0.
-0.219392 -0.408261 0.
-9.25852 -24.329 0.
-34.4382 -95.2808 0.
-16.5533 -36.8314 0.
-22.7226 -47.972 0.
-40.4156 -98.7818 0.
-0.00160332 -0.314235 0.
-3.14573 -8.70603 0.
-12.1839 -29.554 0.
-0.784162 -1.92267 0.
-16.7791 -41.6982 0.
0.112094 0.310442 0.
0.145501 0.388896 0.
-0.0563942 -0.899808 0.
-0.0574188 -0.714935 0.
0.333326 0.68942 0.
-0.0343613 -0.941528 0.
-69.5304 -172.534 0.
-0.0450221 -5.39691 0.
-18.9388 -49.5602 0.
6.45592 17.2569 0.
-1091.97 -2516.4 0.
4.91043 13.5229 0.
-244.786 -651.749 0.
-3.15814 -7.3705 0.
21.6327 59.4475 0.
-1027.78 -2409.09 0.
-1.13884 -2.93241 0.
7.55253 20.2254 0.
-74.081 -190.591 0.
10.6273 27.5502 0.
-334.644 -827.49 0.
13.5905 32.7179 0.
-2.94748 -46.1442 0.
17.5253 38.6445 0.
-9.77518 -21.9435 0.
-1059.47 -2155.44 0.
23.434 49.6651 0.
-0.340773 -0.654984 0.
13.4931 26.344 0.
15.949 29.1568 0.
-28.5808 -45.4227 0.
10.5494 20.1244 0.
-13.9253 -10.7498 0.
-13.6779 -47.6065 0.
-23.8276 -70.2306 0.
-279.993 -493.485 0.
-16.0338 -76.9968 0.
-17.5667 -77.6639 0.
-941.655 -1931.21 0.
30.1189 62.4143 0.
-517.455 -1053.26 0.
-2.6098 -24.7011 0.
-17.0377 -38.4186 0.
-492.845 -1192.38 0.
-6.38271 -56.6562 0.
-5.80544 -13.9659 0.
9.16498 23.8782 0.
-211.453 -551.999 0.
-0.668109 -1.7928 0.
-58.2825 -159.431 0.
5.91241 15.7553 0.
-5.38864 -14.5658 0.
-534.01 -1124.81 0.
5.80043 14.2779 0.
-161.949 -424.54 0.
6.77746 18.7361 0.
-0.403133 -7.30559 0.
0.000119513 0.161826 0.
0.678782 1.53384 0.
0.506217 1.28919 0.
-894.091 -2073.77 0.
-0.248534 -1.30047 0.
-982.592 -2144.52 0.
-25.3839 -47.0517 0.
-1216 -2006.07 0.
0.265585 0.565219 0.
-0.00599817 -0.0165032 0.
-1478.33 -3734.79 0.
-9.84871 -21.918 0.
0.102948 0.19659 0.
-1332.05 -3142.56 0.
-10.7856 -29.8742 0.
-1029.42 -2356.35 0.
-300.065 -659.782 0.
-12.6917 -26.9335 0.
-1019.34 -2688.81 0.
-198.849 -529.903 0.
-3.22283 -8.82941 0.
-714.649 -1947.32 0.
-308.454 -851.433 0.
-7.21969 -19.9406 0.
-520.567 -1411.69 0.
-413.277 -1130.51 0.
-80.7401 -216.916 0.
-348.154 -957.688 0.
-565.296 -1559.83 0.
-10.8378 -25.469 0.
-293.05 -793.356 0.
-809.77 -2150.82 0.
-10.298 -28.5066 0.
-159.982 -425.994 0.
-1057.83 -2853.41 0.
-0.793582 -1.38291 0.
-230.706 -504.903 0.
-1006.89 -2229.38 0.
0.00667847 0.391595 0.
-1244.89 -3138.6 0.
-21.9491 -53.9101 0.
-27.3856 -68.6488 0.
-989.535 -2292.35 0.
-0.0358599 -0.0992196 0.
-1471.26 -3461.02 0.
0.324492 0.870371 0.
-11.7429 -31.5502 0.
-1084.58 -2538.88 0.
-297.295 -633.75 0.
-0.076184 -1.78788 0.
3.31219 8.92168 0.
2.37045 6.4013 0.
8.21893 22.2554 0.
-88.5218 -214.074 0.
-169.063 -438.889 0.
-0.299313 -42.9016 0.
-6.42499 -14.8446 0.
-3.0176 -7.89566 0.
20.5415 53.9342 0.
-106.258 -275.031 0.
-0.597969 -37.7576 0.
-340.979 -900.867 0.
-12.2604 -31.4598 0.
-702.833 -1739.81 0.
8.62227 20.5984 0.
-11.0968 -26.8099 0.
-8.92804 -19.347 0.
-4.06987 -57.5356 0.
-9.83759 -76.2698 0.
-4.94393 -34.6494 0.
-192.051 -370.179 0.
-16.8094 -84.2272 0.
36.4648 65.3293 0.
-329.554 -620.48 0.
-86.7577 -165.438 0.
5.18694 4.93971 0.
20.1705 33.0245 0.
69.4428 111.158 0.
60.3455 106.609 0.
38.076 73.9355 0.
31.7621 58.6012 0.
-10.1888 -77.5673 0.
-9.24792 -58.0875 0.
-1128.25 -2293.2 0.
26.8628 59.1367 0.
-802.155 -1817.26 0.
-3.41353 -65.8808 0.
-2.61305 -49.8311 0.
-7.06325 -16.9575 0.
3.7989 9.84312 0.
-492.781 -1284.33 0.
6.89821 18.1517 0.
-224.873 -615.369 0.
12.4009 33.076 0.
-504.582 -1365.54 0.
-0.00213788 -35.715 0.
0.984704 2.38389 0.
-268.371 -703.002 0.
8.71473 24.1305 0.
-0.225419 -5.20865 0.
0.00103683 2.28966 0.
-564.155 -989.093 0.
0.217486 0.599613 0.
-103.987 -248.115 0.
-0.137757 -0.35189 0.
-43.5751 -88.1698 0.
-0.139115 -0.496169 0.
0.42867 0.748521 0.
0.00603594 0.0937965 0.
-0.00179931 -0.79115 0.
-10.4825 -21.8097 0.
0.0531897 0.0963762 0.
0.269988 0.458808 0.
-6.48636 -16.442 0.
-7.22705 -19.8496 0.
-41.4834 -94.2055 0.
-19.4794 -44.8762 0.
-10.8513 -24.2387 0.
-161.225 -440.324 0.
-6.22707 -17.0954 0.
-2.59929 -7.12987 0.
-251.809 -692.197 0.
-4.50387 -12.4615 0.
-7.11283 -19.6878 0.
-230.494 -625.078 0.
-146.814 -390.697 0.
-17.7112 -46.7391 0.
-44.4555 -121.182 0.
-230.924 -639.004 0.
-7.1502 -14.2463 0.
-14.2593 -34.0744 0.
-166.457 -448.36 0.
-13.8567 -36.393 0.
-7.93844 -20.3239 0.
-172.039 -469.354 0.
-4.51825 -7.79188 0.
-8.51896 -19.2304 0.
-33.1251 -87.8483 0.
0.636491 0.000482452 0.
-2.16568 -5.99812 0.
-7.90551 -21.0145 0.
-3.11094 -8.34295 0.
-16.1635 -44.2606 0.
-11.4406 -31.6763 0.
-0.0062042 -0.0171767 0.
-0.044768 -2.26609 0.
-0.00184874 -1.57502 0.
-20.4429 -52.7885 0.
-0.267128 -4.57259 0.
-451.806 -854.791 0.
-556.797 -1399.48 0.
1.13777 3.11 0.
6.9229 18.8365 0.
6.26953 17.2959 0.
-96.8239 -247.65 0.
-0.0870098 -6.12693 0.
-723.933 -1657.64 0.
-0.950972 -44.1247 0.
-0.883643 -42.2085 0.
-88.5502 -238.652 0.
-6.67821 -17.7547 0.
-291.069 -768.391 0.
20.3185 50.917 0.
-10.1605 -25.3981 0.
-8.06789 -19.1519 0.
4.61798 11.2005 0.
17.935 38.2864 0.
11.8069 27.2995 0.
23.7202 50.4222 0.
16.2025 33.3904 0.
-1232.06 -2379.24 0.
1.00601 2.00018 0.
-24.2444 -100.288 0.
23.4931 42.8602 0.
-137.368 -196.981 0.
24.0404 25.1383 0.
0.0991392 25.3086 0.
-37.7847 -109.504 0.
4.83467 8.29233 0.
32.325 64.2069 0.
25.9937 48.0481 0.
-14.9518 -31.7259 0.
9.45077 21.5059 0.
-9.00775 -79.1708 0.
-6.03845 -77.7479 0.
30.4963 72.6437 0.
-17.7553 -43.7102 0.
-2.81169 -56.6083 0.
-111.467 -267.105 0.
3.96014 10.2054 0.
22.5572 58.9291 0.
-8.04435 -21.1281 0.
-205.08 -561.417 0.
-78.3761 -208.975 0.
18.9284 52.2666 0.
-0.00021991 -37.5901 0.
4.68645 11.1215 0.
2.19322 5.90882 0.
-0.00245254 -34.1762 0.
2.25482 5.71114 0.
-622.629 -1392.47 0.
-0.874307 -4.21405 0.
-0.00407987 -0.315826 0.
-31.9296 -86.0598 0.
0.622011 1.72139 0.
-47.4021 -93.7906 0.
-16.9864 -26.539 0.
-19.1791 -29.3824 0.
-1117.51 -2884.97 0.
-0.0043819 -0.123349 0.
-846.539 -1880.48 0.
-23.7308 -60.7829 0.
-15.3816 -41.7003 0.
-1149.25 -2927.22 0.
-0.283018 -0.703776 0.
-939.335 -1943 0.
-206.871 -419.996 0.
-15.5786 -31.8996 0.
-1038.18 -2797.53 0.
-74.9354 -204.389 0.
-5.6036 -14.7675 0.
-855.264 -2282.22 0.
-278.267 -761.511 0.
-6.05108 -16.4553 0.
-600.326 -1625.51 0.
-474.095 -1310.78 0.
-43.5461 -114.256 0.
-363.168 -998.519 0.
-691.556 -1899.05 0.
-13.1453 -33.4739 0.
-197.496 -545.145 0.
-890.992 -2412.02 0.
-13.0147 -28.0162 0.
-10.2694 -23.0104 0.
-925.429 -2415.51 0.
-10.3215 -20.0546 0.
-1207.93 -2648.68 0.
-0.0895861 -0.279006 0.
0.00953786 0.110164 0.
-1026.37 -2729.62 0.
-6.1363 -16.2753 0.
-0.0012468 -0.250777 0.
-790.998 -1871.92 0.
-363.814 -880.405 0.
-0.0302269 -0.0836609 0.
0.0299228 1.28001 0.
0.811283 2.24678 0.
0.83262 2.23818 0.
-0.260878 -7.26336 0.
-0.948217 -6.93043 0.
-198.696 -526.908 0.
-0.428135 -31.6472 0.
10.183 27.6916 0.
2.41441 6.625 0.
-626.373 -1583.69 0.
7.92871 20.7963 0.
6.71846 18.0357 0.
-373.537 -989.476 0.
6.4048 16.9524 0.
-337.796 -911.542 0.
-0.909167 -59.63 0.
-251.294 -662.92 0.
-1.50882 -3.78462 0.
-82.6151 -205.858 0.
24.2348 59.8493 0.
-836.398 -2025.11 0.
-1082.99 -2277.65 0.
-6.43944 -66.4553 0.
-77.9191 -164.999 0.
-10.0403 -63.7311 0.
-105.552 -228.425 0.
-18.0668 -105.99 0.
33.4304 61.1625 0.
28.4249 50.2938 0.
20.425 29.8418 0.
17.5391 27.0157 0.
-0.014547 -12.6657 0.
-24.49 -69.7456 0.
48.5045 80.9046 0.
-7.4538 -15.0988 0.
36.8843 68.3296 0.
-12.4285 -26.327 0.
-3.84458 -39.7045 0.
0.382159 0.830739 0.
-78.8626 -186.762 0.
-133.521 -316.212 0.
-179.66 -441.336 0.
-3.25601 -8.11296 0.
-852.309 -2037.45 0.
27.9615 68.1746 0.
7.85121 20.425 0.
6.99255 18.3308 0.
-270.782 -741.55 0.
5.40508 14.7854 0.
21.8165 60.1317 0.
0.14071 0.38957 0.
1.16271 3.21141 0.
2.37004 6.30628 0.
10.6765 29.4949 0.
-4.25723 -10.9818 0.
-34.3118 -84.0363 0.
-2.24196 -11.776 0.
0.134734 5.60058 0.
-25.7961 -71.4482 0.
-741.362 -1573.9 0.
-660.806 -1253.21 0.
-61.2596 -129.887 0.
-62.9459 -158.704 0.
-10.7958 -29.5474 0.
0.328648 0.902836 0.
-23.5759 -59.6618 0.
-1.999 -5.22145 0.
0.129192 0.352701 0.
-8.92573 -22.047 0.
-0.000507856 -0.105234 0.
0.0905167 0.239066 0.
-7.96662 -10.9928 0.
-12.3002 -20.7994 0.
-150.703 -410.214 0.
-6.44382 -16.2173 0.
-6.46947 -16.7873 0.
-66.1687 -179.914 0.
-7.82984 -20.9368 0.
-6.46069 -17.242 0.
-53.3363 -140.168 0.
-7.43043 -17.9905 0.
-6.5961 -17.0255 0.
-5.90675 -15.5296 0.
-42.3803 -117.227 0.
-10.1916 -26.7846 0.
-8.29337 -21.3243 0.
-28.4262 -77.4793 0.
-10.0871 -25.4392 0.
-7.8735 -21.2715 0.
-13.8325 -37.6952 0.
-0.0875584 -0.583095 0.
-163.696 -366.143 0.
-0.219519 -0.234035 0.
-4.16427 -7.57661 0.
-24.9124 -66.3596 0.
0.00186951 0.0393593 0.
0.0692641 0.184827 0.
-0.000678054 -0.292453 0.
0.00691942 0.492452 0.
-572.252 -1381.48 0.
0.87792 2.18748 0.
-1056.17 -2422.83 0.
-0.0465386 -1.93332 0.
-0.0258301 -0.980667 0.
-0.12837 -13.1306 0.
-71.2906 -193.01 0.
6.47075 17.3754 0.
-792.215 -2032.74 0.
3.01199 8.1892 0.
-0.462237 -47.0085 0.
-351.814 -927.238 0.
8.78356 23.6729 0.
-353.193 -961.902 0.
-350.433 -930.785 0.
-174.156 -470.274 0.
-0.892638 -57.2412 0.
-219.02 -560.771 0.
-117.26 -294.43 0.
-106.99 -265.754 0.
11.7264 29.0511 0.
4.02454 9.97675 0.
17.3881 39.9151 0.
-30.5818 -73.0503 0.
-583.533 -1231.88 0.
-4.0538 -38.933 0.
-27.3574 -58.9186 0.
-14.2041 -85.2114 0.
-1.39382 -2.58217 0.
-17.178 -29.4666 0.
-24.5161 -59.9513 0.
38.8095 59.9949 0.
-334.492 -544.81 0.
26.0946 40.9252 0.
37.1734 60.6199 0.
59.4631 122.123 0.
20.9273 46.3448 0.
-15.8108 -33.4752 0.
-2.13854 -4.81397 0.
-8.37415 -18.072 0.
-87.1536 -206.665 0.
-393.805 -928.462 0.
-468.384 -1148.43 0.
-44.2679 -110.852 0.
-62.4448 -162.807 0.
-11.1957 -27.2426 0.
-208.797 -540.749 0.
17.7049 46.3257 0.
8.41776 22.5075 0.
-1.73034 -4.73523 0.
-501.784 -1379.93 0.
-7.02473 -19.4372 0.
5.04151 13.927 0.
-842.67 -2208.47 0.
-0.16434 -48.0798 0.
-8.6824 -22.2747 0.
-266.312 -672.246 0.
0.234127 29.6391 0.
-843.275 -1883.35 0.
-0.169704 -10.1199 0.
-0.347244 -5.36404 0.
-0.000648204 -7.28264 0.
-8.21233 -18.0844 0.
-10.1781 -25.7959 0.
-18.2746 -50.5746 0.
0.780768 2.139 0.
-9.6493 -25.0438 0.
-0.0134182 -0.57152 0.
-0.000731959 -0.139697 0.
0.000201085 0.00975918 0.
0.123883 0.343023 0.
-0.0116905 -0.548306 0.
-10.1449 -11.5413 0.
-21.8119 -30.6761 0.
-7.66611 -18.7487 0.
-5.59966 -14.0162 0.
-7.3005 -19.5995 0.
-10.5513 -28.9788 0.
-9.21766 -24.9885 0.
-7.99528 -21.2556 0.
-4.2141 -9.68274 0.
-5.51171 -13.2408 0.
-5.68834 -15.2327 0.
-5.02038 -13.6286 0.
-5.20309 -14.2543 0.
-10.0505 -27.3174 0.
-7.45382 -20.0514 0.
-11.1371 -29.7192 0.
-8.00974 -22.1429 0.
-6.78374 -17.6242 0.
-12.5373 -34.048 0.
0.140623 0.291352 0.
0.522777 0.920592 0.
-17.5831 -11.0561 0.
-31.7063 -38.7362 0.
-55.2015 -100.174 0.
-15.5313 -42.2076 0.
-0.00779958 -0.292634 0.
0.0398022 0.107935 0.
-0.000960169 -0.591866 0.
-0.0198417 -0.455852 0.
1.71915 4.45242 0.
2.44562 5.66761 0.
3.75363 10.2562 0.
-901.655 -2256.35 0.
-20.5061 -56.4357 0.
-270.961 -741.693 0.
5.91746 15.8718 0.
10.9557 30.1032 0.
1.10392 2.95873 0.
-0.358155 -47.7604 0.
-76.0571 -209.999 0.
-0.941517 -2.5449 0.
-284.904 -773.508 0.
16.4189 44.5719 0.
-162.652 -439.539 0.
18.4568 49.2463 0.
-113.917 -290.131 0.
-2.33166 -60.6668 0.
-739.958 -1831.65 0.
21.1978 52.6793 0.
1.1781 2.90997 0.
22.1149 51.5234 0.
-59.6075 -142.776 0.
11.5795 25.8745 0.
-8.67444 -82.2943 0.
11.9677 25.6965 0.
26.244 53.1317 0.
-5.38469 -10.0753 0.
51.9565 86.7872 0.
50.388 77.0919 0.
-7.34583 -11.4702 0.
-98.0175 -135.395 0.
-65.7916 -101.977 0.
55.5336 89.0854 0.
-13.0103 -26.9158 0.
57.0288 124.881 0.
21.9309 46.4626 0.
-178.667 -401.696 0.
17.7679 38.1231 0.
-181.414 -430.814 0.
-930.48 -2187.5 0.
-4.56428 -11.5919 0.
9.34048 23.4623 0.
-82.4094 -212.75 0.
26.314 63.9178 0.
-767.719 -1978.46 0.
24.4765 64.1302 0.
-147.593 -393.136 0.
4.28207 11.7228 0.
-116.428 -321.17 0.
19.5929 54.1518 0.
-43.8609 -121.181 0.
20.2833 56.1007 0.
-0.00114701 -22.4685 0.
-45.2339 -115.273 0.
-0.47582 -31.0308 0.
-2.64157 -7.28797 0.
-145.316 -343.062 0.
0.00208067 0.245087 0.
2.91134 7.33099 0.
-0.000544516 -7.56403 0.
-0.257101 -2.68873 0.
-342.523 -660.409 0.
-682.546 -1654.59 0.
0.541194 1.49522 0.
-757.862 -1832.04 0.
-3.52208 -9.65109 0.
-10.4701 -28.1905 0.
-949.315 -2481.73 0.
-8.68793 -23.4218 0.
-4.64395 -12.6657 0.
-1277.57 -2696.03 0.
-18.6468 -40.0452 0.
-864.407 -2254.58 0.
-24.5779 -63.7536 0.
-8.48707 -23.2109 0.
-893.959 -2385.75 0.
-105.694 -285.883 0.
-6.50559 -18.0177 0.
-618.341 -1652.61 0.
-427.679 -1178.1 0.
-50.7027 -136.257 0.
-235.296 -650.772 0.
-743.699 -2052.77 0.
-31.7685 -83.8095 0.
-36.1478 -94.1143 0.
-908.251 -2450.9 0.
-2.44127 -5.21963 0.
-2.12112 -3.75192 0.
-998.084 -2270.99 0.
-0.00512849 -0.3364 0.
-971.687 -2370.56 0.
-21.7801 -51.3218 0.
-1.77801 -3.58595 0.
-704.688 -1704.82 0.
0.118432 0.815068 0.
0.0660114 0.461938 0.
-1036.14 -2172.51 0.
-0.00126409 -0.292797 0.
-721.348 -1888.73 0.
0.0025866 0.129545 0.
-0.31519 -4.95547 0.
6.53796 18.0727 0.
-111.664 -291.475 0.
0.314009 0.858642 0.
-0.0748404 -28.696 0.
-0.415102 -27.8356 0.
-0.24121 -48.4903 0.
-0.601381 -27.7587 0.
10.285 28.0757 0.
-71.1681 -196.234 0.
6.99399 19.1622 0.
-219.594 -594.197 0.
-17.077 -46.3918 0.
-7.85148 -21.1398 0.
-17.2733 -46.0643 0.
-82.3681 -208.663 0.
-2.48011 -62.2472 0.
20.5157 51.7399 0.
5.51294 13.7426 0.
-124.041 -305.56 0.
-1.93102 -4.56017 0.
-156.947 -377.097 0.
-128.075 -283.394 0.
-3.38044 -7.44008 0.
42.1812 90.4553 0.
-16.222 -104.017 0.
40.6675 76.6498 0.
-21.8053 -68.0221 0.
9.35816 14.7496 0.
-30.1587 -47.3505 0.
-15.5359 -18.7227 0.
-51.6553 -78.6669 0.
65.4011 103.8 0.
27.2614 56.6134 0.
-5.95938 -13.2595 0.
-152.857 -314.53 0.
-272.991 -615.451 0.
-676.002 -1444.83 0.
30.9261 74.6803 0.
-8.44239 -20.2316 0.
28.3281 71.6102 0.
1.4218 3.56516 0.
-82.1811 -210.095 0.
-7.13933 -17.3164 0.
-12.2421 -30.0686 0.
23.2644 60.7297 0.
-456.58 -1211.96 0.
14.2308 38.4392 0.
-162.799 -448.44 0.
18.8345 51.9776 0.
-212.696 -582.394 0.
-13.1505 -36.3763 0.
-11.6401 -31.636 0.
-742.983 -1882.01 0.
3.55818 9.44254 0.
8.28542 22.8362 0.
-211.665 -511.421 0.
7.17185 19.5335 0.
-0.215961 -6.51047 0.
-283.608 -641.093 0.
-528.075 -990.381 0.
-0.398383 -5.13063 0.
-0.0548381 -3.64641 0.
-0.00797664 -3.69597 0.
-15.4373 -42.6982 0.
-8.10372 -21.5735 0.
-17.2938 -44.6693 0.
-17.6317 -48.1713 0.
-8.94499 -24.6491 0.
-10.9075 -30.1858 0.
-12.7227 -31.4314 0.
-2.61836 -6.91074 0.
-23.4976 -60.6936 0.
-9.62063 -26.5012 0.
-6.87597 -18.8375 0.
-7.30713 -20.1268 0.
-3.71149 -10.2792 0.
-0.704364 -1.78428 0.
-4.93894 -10.5734 0.
-10.2162 -23.5775 0.
-23.5336 -62.3065 0.
-12.8503 -32.454 0.
-12.6414 -31.6931 0.
-27.2489 -73.6276 0.
-14.1522 -32.5424 0.
-9.17985 -18.8584 0.
-2.75273 -7.18576 0.
-3.28934 -8.45895 0.
-8.96837 -23.4581 0.
-10.2508 -27.98 0.
-13.173 -31.7359 0.
-5.25296 -14.1265 0.
-0.0701422 -0.255937 0.
-0.599096 -0.371179 0.
0.90861 0.0639484 0.
0.00507081 0.959482 0.
-0.29522 -9.13266 0.
-7.07237e-05 -1.23867 0.
2.62302 7.05706 0.
-0.722812 -1.88892 0.
-629.791 -1492.27 0.
7.45758 20.6539 0.
-0.0698406 -18.2374 0.
9.73713 26.4124 0.
-5.60532 -14.54 0.
13.5197 35.9819 0.
-7.1628 -19.4918 0.
-3.15697 -8.69761 0.
-79.583 -217.661 0.
-91.1813 -251.013 0.
-4.48359 -12.2537 0.
-19.4814 -53.1446 0.
-119.848 -325.811 0.
10.9207 29.2829 0.
-45.5984 -116.292 0.
-269.14 -677.891 0.
19.579 49.411 0.
-4.93267 -12.3008 0.
9.12133 23.6225 0.
-592.582 -1456.97 0.
-290.681 -695.511 0.
-242.8 -585.233 0.
-200.022 -439.166 0.
37.5692 82.8987 0.
-7.1733 -15.384 0.
1.93013 4.01857 0.
-399.757 -757.376 0.
16.9258 27.333 0.
4.62466 7.51264 0.
-153.496 -234.958 0.
-7.3486 -7.91773 0.
-59.6021 -88.9125 0.
27.2455 42.9039 0.
46.5256 96.8642 0.
7.44645 16.4471 0.
-311.502 -647.295 0.
21.2018 47.9957 0.
25.5826 57.3838 0.
-5.72156 -93.4363 0.
-28.5723 -68.5767 0.
32.5 81.829 0.
-7.08818 -17.7467 0.
-293.563 -743.158 0.
-3.54103 -9.31957 0.
18.3707 44.9931 0.
8.94701 23.2706 0.
18.8412 49.7672 0.
24.6884 66.4661 0.
-158.794 -436.688 0.
-13.2274 -36.5451 0.
11.991 32.8652 0.
-20.7195 -57.3168 0.
-286.023 -779.66 0.
-0.277289 -59.7406 0.
6.97426 18.3582 0.
-316.837 -872.319 0.
4.55875 12.5952 0.
10.3558 28.0933 0.
7.49663 19.8784 0.
-4.46249 -10.6814 0.
-1.23809 -9.54928 0.
-0.478328 -11.9774 0.
-0.00528102 -0.641192 0.
-0.00222714 -0.780219 0.
-0.250921 -5.92991 0.
-15.6884 -39.3559 0.
-310.468 -706.109 0.
-426.178 -1110.58 0.
-18.4686 -51.0026 0.
-22.7015 -62.2453 0.
-748.388 -2014.05 0.
-4.67278 -12.6018 0.
-862.2 -1907.34 0.
-18.2037 -43.944 0.
-19.7206 -49.8094 0.
-825.203 -2175.88 0.
-12.4257 -33.2499 0.
-23.7419 -64.8822 0.
-569.393 -1544.71 0.
-345.435 -950.703 0.
-67.4506 -181.761 0.
-134.116 -369.183 0.
-686.224 -1896.92 0.
-32.7976 -80.9095 0.
-12.097 -28.5431 0.
-851.934 -2265.27 0.
-6.48698 -17.9655 0.
-6.00116 -16.5572 0.
-814.102 -1776.8 0.
-23.1374 -41.6361 0.
-753.38 -1955.05 0.
0.111173 0.208119 0.
-79.108 -163.085 0.
-320.99 -727.884 0.
0.00330828 1.03309 0.
0.117795 0.891661 0.
-0.467195 -10.7378 0.
-0.0139422 -4.47903 0.
-1.01748e-05 -14.687 0.
4.20262 11.1676 0.
-0.0535849 -22.4369 0.
2.58668 6.80573 0.
-0.0238856 -26.6517 0.
-309.384 -830.991 0.
3.90103 10.0894 0.
2.37184 6.56954 0.
-470.082 -1270.94 0.
19.3518 53.3236 0.
-10.3561 -28.5671 0.
-345.677 -949.995 0.
-0.678716 -1.8498 0.
-16.3261 -44.4775 0.
-205.749 -559.704 0.
10.5497 28.165 0.
-39.4771 -100.171 0.
11.9118 30.5163 0.
-7.08862 -17.846 0.
-101.979 -251.57 0.
-12.7192 -32.8302 0.
1.13752 2.91591 0.
-700.087 -1696.46 0.
-364.212 -880.784 0.
-264.791 -578.049 0.
7.89498 17.4589 0.
48.4301 104.013 0.
51.118 106.028 0.
-463.777 -881.709 0.
-26.3263 -42.1746 0.
43.109 72.2522 0.
-78.9747 -114.001 0.
-0.0627103 -82.7241 0.
-135.93 -198.523 0.
66.3979 103.991 0.
-12.4804 -26.016 0.
54.6256 119.69 0.
-345.912 -726.219 0.
-31.4305 -71.2304 0.
41.8964 94.2531 0.
15.8533 38.4618 0.
-16.6215 -39.9581 0.
-156.187 -391.845 0.
-161.327 -403.384 0.
25.298 63.9633 0.
5.93664 15.492 0.
-69.0657 -168.714 0.
13.2051 33.1886 0.
14.374 37.8083 0.
8.81112 23.6422 0.
-200.696 -547.042 0.
-14.0187 -38.6854 0.
9.74449 26.7341 0.
-89.467 -247.509 0.
-46.1135 -127.702 0.
9.78818 26.872 0.
-7.24237 -18.8999 0.
-5.925 -16.2662 0.
12.36 34.2007 0.
2.22472 5.98668 0.
5.22411 14.0436 0.
4.6872 11.5406 0.
0.00712275 3.57726 0.
0.0713129 2.79959 0.
1.92607 4.95189 0.
-789.368 -1928.34 0.
-0.000442237 -0.381642 0.
-439.393 -1041.43 0.
-0.013659 -1.23798 0.
-0.000398076 -0.390728 0.
0.14085 0.389281 0.
-0.0771309 -0.213211 0.
-9.4271 -25.8924 0.
-5.95044 -16.3656 0.
-14.8871 -37.4614 0.
-2.07115 -5.3694 0.
-0.109818 -0.292245 0.
-0.399581 -0.989887 0.
-1.49979 -3.81468 0.
-11.1048 -29.5463 0.
-16.082 -40.539 0.
-8.52638 -22.4879 0.
-35.4221 -94.6016 0.
-5.09901 -12.9046 0.
-3.75762 -9.59864 0.
-8.65411 -21.4541 0.
-5.18521 -12.046 0.
-2.62625 -4.79421 0.
-8.81125 -24.1824 0.
-4.17484 -10.5182 0.
-6.73267 -17.3851 0.
0.0894454 0.229648 0.
-11.1914 -29.3243 0.
0.496753 1.25527 0.
-40.9887 -99.6133 0.
-221.963 -554.594 0.
-112.424 -302.218 0.
-630.328 -1515.44 0.
5.00025 13.8266 0.
-343.723 -900.064 0.
5.13719 14.2257 0.
-0.175299 -12.7795 0.
7.71021 21.312 0.
-425.26 -1115.73 0.
-0.00108053 -44.3787 0.
16.1936 43.5371 0.
-685.615 -1764.41 0.
17.8956 49.4993 0.
-1.53483 -4.24314 0.
-442.752 -1220 0.
0.306396 0.843829 0.
-12.58 -34.7375 0.
-5.6846 -15.4472 0.
-29.6536 -80.6714 0.
-0.88877 -65.7193 0.
-460.56 -1224.7 0.
10.0644 25.4068 0.
-14.7851 -37.5984 0.
1.32649 3.41679 0.
-436.659 -1065.96 0.
22.4013 57.6491 0.
18.8765 48.0387 0.
16.8373 41.555 0.
-95.4754 -241.26 0.
-334.203 -726.472 0.
-8.62648 -19.1166 0.
8.68755 18.7094 0.
13.5275 27.9367 0.
-144.147 -274.659 0.
-35.8002 -57.1595 0.
37.8917 54.9206 0.
-104.895 -142.323 0.
20.9046 53.2568 0.
-28.761 -62.779 0.
-1.45827 -2.27986 0.
-387.503 -805.49 0.
18.24 39.6231 0.
-717.748 -1524.6 0.
-28.7582 -65.2562 0.
-11.9632 -26.9879 0.
-23.5092 -57.1659 0.
-74.7845 -180.069 0.
-435.379 -1088.97 0.
6.12105 15.8972 0.
-16.8587 -42.4889 0.
-16.7994 -43.4633 0.
-633.574 -1544.43 0.
26.3227 65.9543 0.
-28.3692 -74.3049 0.
-125.758 -336.358 0.
12.2912 33.4461 0.
-6.09773 -16.8042 0.
-252.904 -694.508 0.
5.44656 14.9327 0.
-57.4864 -159.174 0.
-0.192257 -63.7143 0.
-35.0109 -96.9677 0.
10.0839 27.6344 0.
6.62498 18.3473 0.
-10.1492 -28.111 0.
2.54189 6.87576 0.
-241.117 -601.608 0.
5.79885 15.9547 0.
-331.684 -782.74 0.
6.56107 17.2105 0.
-0.322717 -10.7526 0.
3.5352e-07 1.67775 0.
-4.32067 -11.2993 0.
-0.0037995 -2.79715 0.
0.000685346 0.199549 0.
0.230327 0.63504 0.
0.175704 0.485231 0.
-13.7076 -37.922 0.
-7.29126 -20.195 0.
-6.10781 -15.8218 0.
0.00484135 0.0126669 0.
-0.0102484 -0.0275508 0.
-0.116588 -0.302881 0.
-0.0281318 -0.0745966 0.
-8.61779 -22.3356 0.
-11.4626 -30.8673 0.
-5.19452 -14.3478 0.
-13.9082 -36.8167 0.
-5.6417 -14.1311 0.
-4.64569 -11.1499 0.
-6.29217 -15.5434 0.
-3.00201 -7.02192 0.
-0.671989 -0.842596 0.
-29.9623 -27.7497 0.
-21.0641 -22.9827 0.
-19.2491 -30.0431 0.
0.00188107 0.0365577 0.
0.0769253 0.203897 0.
-5.32178e-06 -0.469694 0.
-13.3022 -35.9214 0.
-177.734 -473.905 0.
-0.385476 -1.01845 0.
-0.587274 -1.3735 0.
-0.0313681 -9.14187 0.
-1.08858 -2.93205 0.
-300.051 -762.33 0.
5.52272 14.8259 0.
14.2785 39.5478 0.
-0.00236245 -30.8126 0.
-403.339 -1105.23 0.
-0.536097 -36.3616 0.
-1.654 -4.55262 0.
3.53452 9.74211 0.
10.4546 28.9021 0.
-6.14967 -16.9145 0.
-12.6489 -34.7727 0.
-52.7043 -145.396 0.
15.862 43.3433 0.
-373.612 -1014.73 0.
20.767 55.4768 0.
-0.852136 -2.16858 0.
17.9325 45.0275 0.
15.5099 39.1685 0.
-2.5055 -69.3063 0.
17.4589 44.582 0.
-20.4566 -52.5292 0.
-24.8504 -62.823 0.
12.3695 30.6191 0.
-3.93428 -97.7904 0.
19.2506 42.2293 0.
-277.67 -616.202 0.
-36.7818 -77.4561 0.
24.0219 49.357 0.
18.3211 34.9301 0.
-397.143 -635.901 0.
36.305 52.5756 0.
-10.9261 -19.4706 0.
-0.778339 -7.55974 0.
-10.5752 -16.8679 0.
-984.586 -1542.24 0.
10.6328 21.0389 0.
-32.4456 -69.827 0.
-209.959 -451.601 0.
9.89653 22.489 0.
-61.305 -138.661 0.
-14.5262 -35.4007 0.
-57.4678 -138.631 0.
-19.5362 -48.6227 0.
-2.02565 -68.546 0.
-217.882 -547.763 0.
5.95289 15.2723 0.
-3.26917 -8.59611 0.
-3.42463 -8.55796 0.
-425.677 -1110.5 0.
14.4366 38.1139 0.
-69.8551 -189.76 0.
2.35355 6.47608 0.
-75.4847 -207.756 0.
-14.5689 -39.9818 0.
-86.6807 -239.964 0.
-14.7575 -40.8711 0.
-68.493 -189.709 0.
-313.154 -856.708 0.
-0.0372103 -48.297 0.
5.06689 14.0341 0.
-663.114 -1800.93 0.
-0.000503056 -37.6527 0.
-117.916 -313.39 0.
-84.9169 -203.433 0.
-0.108223 -5.50181 0.
1.10857 2.93887 0.
-0.000155134 -0.555231 0.
0.254793 0.695599 0.
0.092079 0.229486 0.
-583.651 -1387.32 0.
-6.79036 -15.5487 0.
0.083223 0.202137 0.
-569.165 -1512.09 0.
0.00821432 0.0227275 0.
-647.107 -1454.33 0.
-21.0437 -54.2107 0.
-23.3619 -58.4357 0.
-724.484 -1857.46 0.
-15.9965 -37.3538 0.
-14.8642 -36.5482 0.
-474.508 -1291.49 0.
-285.209 -784.843 0.
-128.29 -351.452 0.
-59.7533 -162.097 0.
-560.053 -1513.98 0.
-48.629 -134.622 0.
-17.886 -48.3334 0.
-731.882 -1976.03 0.
-6.39159 -13.9047 0.
-11.3856 -20.2955 0.
-672.689 -1331.87 0.
-0.0160532 -0.0427606 0.
-613.346 -1659.9 0.
0.98222 2.65991 0.
-0.00387737 -0.00938256 0.
-292.315 -631.925 0.
-0.0713866 -3.54487 0.
-0.141629 -2.04227 0.
6.77033 18.5099 0.
-0.0670805 -10.421 0.
-1.11905 -2.88503 0.
-0.311463 -45.0179 0.
-0.0290096 -35.8097 0.
-0.0038886 -29.6915 0.
-0.297278 -54.3667 0.
-0.649532 -37.1989 0.
-0.131884 -54.3037 0.
-0.0307884 -58.3873 0.
-45.5735 -125.983 0.
22.0505 60.66 0.
19.9043 55.09 0.
-394.071 -1085.95 0.
19.3381 52.7738 0.
-1.37121 -3.67053 0.
-9.96515 -26.5015 0.
-111.956 -284.334 0.
-1.65298 -62.9275 0.
-522.688 -1309.89 0.
-0.320215 -0.809058 0.
3.03254 7.76309 0.
22.3462 58.3873 0.
-122.888 -308.863 0.
-19.9516 -49.5467 0.
29.3614 74.3111 0.
48.9167 107.543 0.
-10.9939 -24.9945 0.
-695.283 -1464.48 0.
1.54778 3.16157 0.
0.570492 1.19561 0.
15.0515 24.9089 0.
-31.1135 -47.1517 0.
-64.5093 -88.5762 0.
2.10126 4.16457 0.
-27.7078 -74.7964 0.
-646.105 -1059.86 0.
-18.4036 -103.46 0.
-16.3579 -34.8549 0.
-9.04222 -20.3957 0.
-10.6364 -24.2144 0.
-296.329 -737.746 0.
-20.4314 -49.9014 0.
-12.2966 -30.3471 0.
-93.792 -233.333 0.
8.69138 22.6352 0.
-623.563 -1565.07 0.
-2.1604 -71.4354 0.
-47.9812 -126.003 0.
5.21318 12.9974 0.
-8.34752 -21.3807 0.
1.23021 3.23481 0.
-326.035 -883.963 0.
9.90845 27.0664 0.
-34.9786 -96.2078 0.
-71.0692 -195.219 0.
-36.1064 -98.953 0.
-51.029 -141.309 0.
-134.837 -373.474 0.
-14.8404 -41.0937 0.
15.3581 42.4098 0.
1.11857 3.09817 0.
18.6164 51.5454 0.
1.55108 4.29567 0.
-390.511 -1044.73 0.
4.43461 12.2785 0.
-0.133164 -7.01743 0.
-325.72 -839.356 0.
2.8753 7.72914 0.
-593.494 -1312.49 0.
-0.121273 -7.75995 0.
-2.996 -6.71599 0.
-0.197923 -0.469925 0.
0.00329341 0.0083345 0.
-13.6396 -37.3949 0.
0.237355 0.656147 0.
-18.9563 -48.4293 0.
-10.2692 -24.7189 0.
-17.4987 -40.8984 0.
-7.40097 -17.266 0.
-5.33338 -13.1102 0.
-5.27827 -13.5991 0.
-7.49474 -19.3538 0.
-6.84617 -17.9162 0.
-28.1656 -74.7224 0.
-9.57202 -26.3368 0.
-8.73043 -24.1814 0.
-27.1437 -72.5443 0.
-5.71873 -14.6542 0.
-3.45625 -8.68931 0.
-0.0416599 -0.104214 0.
-0.0102198 -0.0242028 0.
0.0951317 0.213815 0.
-0.00182159 -0.663066 0.
-12.389 -32.5864 0.
-0.00575692 -3.04044 0.
-0.0373963 -1.19095 0.
-0.00148319 -7.61877 0.
-511.46 -1226.91 0.
9.17926 25.4032 0.
-302.086 -798.525 0.
12.6146 34.8595 0.
-3.65268 -9.44255 0.
-0.261708 -44.7897 0.
7.70224 21.2164 0.
-0.0722976 -0.20012 0.
1.7405 4.75564 0.
-0.0268415 -40.5917 0.
-8.7617 -24.133 0.
4.63996 12.833 0.
-9.21181 -25.3968 0.
-122.49 -337.042 0.
-2.10119 -5.81256 0.
-76.3367 -210.35 0.
0.58343 1.59012 0.
-12.4526 -33.4045 0.
7.75471 20.1798 0.
-281.336 -713.243 0.
-1.84089 -63.0032 0.
20.0314 51.8031 0.
-8.53871 -21.3813 0.
16.4834 42.303 0.
25.2824 65.2263 0.
-413.213 -1033.35 0.
-296.639 -732.215 0.
-21.5925 -54.7197 0.
-549.756 -1360.12 0.
8.48748 19.2893 0.
5.90236 13.2833 0.
-17.0029 -34.5052 0.
44.1443 92.2199 0.
26.5579 50.7534 0.
43.4775 65.4131 0.
-18.5023 -83.3848 0.
6.56933 10.7343 0.
-13.215 -19.8916 0.
-21.7969 -41.8395 0.
-2.4126 -4.7542 0.
-158.287 -333.784 0.
1.45581 3.27488 0.
-348.347 -795.128 0.
-309.436 -770.409 0.
4.07918 9.98468 0.
-20.482 -50.7788 0.
-96.0406 -238.905 0.
31.6314 82.8095 0.
12.7235 32.9858 0.
8.20607 21.6732 0.
-169.968 -445.832 0.
12.1669 32.2674 0.
15.3688 39.5469 0.
18.5593 48.5994 0.
-1.00605 -71.7165 0.
17.2341 47.007 0.
-38.1016 -104.725 0.
-93.7529 -257.973 0.
-36.7405 -100.712 0.
-36.4827 -101.011 0.
-28.4891 -78.8049 0.
5.0887 14.0923 0.
-0.101687 -54.6684 0.
-170.076 -471.066 0.
8.82007 24.421 0.
-68.0561 -187.45 0.
8.56607 23.712 0.
2.82455 7.82006 0.
-0.327974 -15.5788 0.
-0.00761032 -4.76138 0.
2.45179 6.66601 0.
5.91055 16.371 0.
0.0160424 2.50859 0.
-0.0486588 -2.34744 0.
-0.0552725 -1.03366 0.
-0.0433528 -1.56645 0.
-68.4727 -189.509 0.
-77.9188 -215.738 0.
-412.706 -1025.15 0.
-4.73037 -9.0454 0.
-7.39117 -17.3989 0.
-533.652 -1431.32 0.
-6.22718 -15.955 0.
-6.32754 -16.0518 0.
-320.843 -878.586 0.
-267.323 -736.862 0.
-121.611 -327.572 0.
-35.4832 -95.2694 0.
-402.555 -1098.69 0.
-118.655 -324.077 0.
-49.6393 -116.961 0.
-344.384 -763.899 0.
-8.67613 -23.2219 0.
-569.358 -1566.63 0.
-0.00750452 -0.34782 0.
-62.8268 -171.088 0.
0.32381 0.877865 0.
-0.000225872 -2.19252 0.
-0.00279265 -0.16803 0.
0.00973351 7.92736 0.
-0.239216 -7.27028 0.
8.70654 24.1123 0.
-7.88904 -20.9822 0.
15.2833 42.3305 0.
-299.723 -771.427 0.
10.2045 27.9166 0.
-15.4234 -42.6903 0.
-1.79785 -4.97385 0.
12.5963 34.3916 0.
4.04716 11.1931 0.
-180.532 -497.323 0.
-53.3499 -147.521 0.
17.9887 49.6002 0.
-64.9002 -179.719 0.
0.639822 1.76883 0.
-23.9771 -66.0704 0.
-0.639989 -1.71158 0.
-8.91881 -23.974 0.
-1.86611 -66.5833 0.
28.5084 74.855 0.
2.20982 5.68578 0.
2.42878 6.31248 0.
-224.561 -600.585 0.
-144.192 -371.028 0.
15.2949 39.5222 0.
-3.86144 -89.7805 0.
-439.202 -1084.43 0.
1.86127 4.72276 0.
-328.901 -812.174 0.
8.96082 20.346 0.
-25.4973 -57.125 0.
-171.814 -346.201 0.
-2.76392 -5.75467 0.
58.1863 109.921 0.
-29.7433 -44.384 0.
-20.0017 -73.1538 0.
9.64629 15.4131 0.
-32.3407 -75.6906 0.
12.1191 22.9582 0.
53.8993 105.972 0.
-209.447 -436.827 0.
-14.3359 -32.1532 0.
-41.7804 -95.5022 0.
-215.373 -536.235 0.
-273.816 -687.989 0.
24.7259 61.5769 0.
-159.198 -395.961 0.
-30.3879 -78.7192 0.
-10.0205 -26.1371 0.
-11.441 -30.327 0.
-463.276 -1214.03 0.
-6.32319 -16.7452 0.
-4.62787 -11.9615 0.
21.4165 55.3217 0.
8.13969 21.8245 0.
14.7615 40.2 0.
-0.388288 -70.7468 0.
-25.1448 -69.142 0.
-41.1487 -112.819 0.
16.6048 45.5127 0.
8.78195 24.2822 0.
1.67798 4.64723 0.
-88.0397 -242.388 0.
1.9849 5.49295 0.
9.48167 26.2531 0.
-205.314 -564.522 0.
-0.0232555 -46.0909 0.
1.17725 3.2575 0.
-219.392 -585.538 0.
-0.0218302 -23.7314 0.
-0.10521 -20.8469 0.
-0.00602363 -13.2832 0.
4.70207 12.9068 0.
-0.00210983 -7.80792 0.
-419.636 -936.653 0.
0.950729 2.4308 0.
-276.843 -762.253 0.
0.623085 1.67356 0.
0.068399 0.723314 0.
0.07784 0.138551 0.
-4.48782 -9.89107 0.
-3.98703 -9.97031 0.
-3.16982 -7.86413 0.
-8.30683 -20.2779 0.
-12.2921 -31.8679 0.
-8.15909 -21.3633 0.
-10.1388 -27.8669 0.
-0.987845 -2.73579 0.
-0.536154 -1.46356 0.
-0.061986 -0.169786 0.
0.0482953 0.133769 0.
-5.43681 -14.0635 0.
-9.62664 -26.6113 0.
-15.8999 -43.9486 0.
0.889411 2.30821 0.
-0.000368854 -1.17875 0.
-287.72 -759.494 0.
-0.0203375 -1.38409 0.
-455.878 -1064.67 0.
-0.016414 -4.20875 0.
-0.327545 -16.9225 0.
6.12885 16.9741 0.
-135.977 -362.82 0.
-0.0967724 -38.2164 0.
8.73635 24.1227 0.
-330.854 -906.043 0.
-65.2664 -180.66 0.
6.97074 19.1399 0.
-240.14 -655.165 0.
11.3261 31.3254 0.
18.2796 50.5908 0.
-183.397 -507.015 0.
-61.2863 -169.007 0.
5.8845 16.2959 0.
-59.0048 -162.436 0.
-12.4134 -34.2057 0.
0.622274 1.6679 0.
-0.476388 -1.27889 0.
-17.0673 -44.2128 0.
28.4567 74.9038 0.
7.30599 18.6772 0.
21.3965 55.8712 0.
-96.4635 -257.682 0.
-412.038 -1061.91 0.
7.69476 19.9154 0.
-3.84773 -89.2533 0.
-40.3586 -102.01 0.
-80.3387 -204.173 0.
-97.4396 -240.169 0.
-328.199 -744.274 0.
-30.3902 -67.7506 0.
-662.519 -1324.49 0.
21.5264 44.6567 0.
40.1359 74.8663 0.
-10.4656 -15.4872 0.
-3.85982 -6.30219 0.
-138.423 -216.567 0.
-29.8426 -42.5358 0.
33.1643 61.935 0.
-15.6051 -30.6174 0.
36.0324 79.2709 0.
0.615109 1.37513 0.
-64.7807 -148.416 0.
-24.4426 -60.9925 0.
16.4571 41.3284 0.
34.272 85.7388 0.
-217.552 -541.136 0.
-15.4233 -39.9552 0.
4.03897 10.5967 0.
-21.6123 -57.4898 0.
13.9698 36.9442 0.
-9.86682 -26.7702 0.
-391.303 -1016.02 0.
-12.138 -31.4942 0.
-5.48383 -14.712 0.
4.81138 12.9194 0.
-15.7071 -42.9825 0.
-8.61372 -23.6689 0.
-54.9003 -150.554 0.
-121.468 -333.024 0.
2.23871 6.18717 0.
-20.531 -56.8645 0.
-0.105449 -63.8602 0.
-11.1823 -30.9531 0.
-0.00826466 -56.8267 0.
20.2483 56.0794 0.
-8.0203 -22.168 0.
-5.74386 -15.8753 0.
11.6596 31.8941 0.
-0.0131914 -15.2062 0.
1.14062 3.13006 0.
-65.6252 -176.148 0.
-213.268 -565.312 0.
-0.00616935 -16.8303 0.
-0.29317 -3.64255 0.
-0.0294956 -1.73479 0.
-41.511 -112.827 0.
-0.0171838 -0.412141 0.
0.0258898 0.184391 0.
-0.15171 -0.596144 0.
-1.19399 -2.50967 0.
-1.14637 -2.76575 0.
-6.45117 -15.2053 0.
-16.7825 -39.0328 0.
-9.60962 -25.5091 0.
-5.88826 -15.7685 0.
-1.70624 -4.71783 0.
-0.0291898 -0.0807177 0.
-0.0318516 -0.0865327 0.
-2.6014e-05 -0.459131 0.
0.140279 0.382558 0.
0.00499287 0.149484 0.
-10.675 -29.3362 0.
-28.1525 -77.9713 0.
0.0332064 1.02692 0.
-0.000710452 -1.08071 0.
0.550368 1.48664 0.
0.00571844 1.07136 0.
1.1378 2.81404 0.
-0.0161099 -16.1451 0.
-195.36 -525.401 0.
12.0972 33.4864 0.
10.2844 28.465 0.
-209.675 -578.119 0.
4.67562 12.9129 0.
-6.81014 -18.8575 0.
-144.91 -401.137 0.
-0.206145 -52.3482 0.
-0.0405786 -55.1514 0.
-91.8231 -254.062 0.
-1.55966 -4.3159 0.
-14.3884 -39.6723 0.
-216.09 -595.99 0.
21.293 58.9688 0.
-28.089 -77.3264 0.
-5.56594 -15.3372 0.
-12.7361 -34.2092 0.
-0.114321 -0.306286 0.
-129.094 -333.739 0.
9.10998 24.0375 0.
-70.4901 -189.619 0.
-153.908 -403.759 0.
12.7729 34.0784 0.
-41.7678 -107.807 0.
-2.64289 -6.8513 0.
21.5363 54.109 0.
-3.82163 -95.9759 0.
-119.035 -302.996 0.
8.1021 19.9389 0.
-401.974 -910.006 0.
-68.3916 -151.616 0.
-14.2608 -104.95 0.
-240.031 -496 0.
45.0969 82.915 0.
-0.722439 -1.11277 0.
11.7467 18.223 0.
-129.634 -198.363 0.
-33.4411 -86.6444 0.
59.3281 109.018 0.
7.43109 14.5499 0.
32.1978 69.9375 0.
-127.786 -284.605 0.
-12.2944 -30.9584 0.
10.5573 26.3527 0.
1.80954 4.543 0.
28.4419 71.4735 0.
-11.2719 -27.9946 0.
-26.289 -68.1018 0.
-13.1792 -34.7699 0.
-21.927 -59.2532 0.
-42.1207 -111.825 0.
-63.2977 -171.871 0.
-32.1675 -87.5488 0.
-4.58976 -12.1941 0.
-265.844 -713.735 0.
26.6743 71.6642 0.
5.40909 14.8161 0.
-171.27 -470.295 0.
-23.8687 -65.4854 0.
-120.772 -331.181 0.
18.4427 50.9443 0.
-163.561 -452.428 0.
12.8985 35.5763 0.
-217.173 -601.271 0.
15.1174 41.868 0.
-9.61315 -26.6248 0.
11.0507 30.5077 0.
-10.1406 -28.0101 0.
-7.88509 -21.6118 0.
-0.0282772 -23.6331 0.
5.92948 16.2604 0.
10.1615 27.2672 0.
4.52736 12.189 0.
5.99661 16.5552 0.
2.84556 6.93377 0.
1.77879 4.8094 0.
-102.82 -262.94 0.
-3.94071e-05 -1.62556 0.
0.878042 2.30245 0.
-452.785 -1158.27 0.
-3.64133 -9.37759 0.
-205.229 -521.695 0.
-32.0815 -80.3404 0.
-105.355 -269.36 0.
-105.583 -287.983 0.
-272.454 -753.914 0.
-68.5535 -189.209 0.
-20.5407 -56.4977 0.
-326.556 -893.873 0.
-58.0723 -159.214 0.
-36.8521 -99.0177 0.
-280.837 -722.737 0.
-3.4575 -9.05543 0.
-268.414 -633.404 0.
-0.00264268 -1.10614 0.
-261.204 -717.117 0.
-0.0112294 -2.66073 0.
0.00989607 4.34241 0.
-0.217263 -22.2322 0.
7.68825 21.2883 0.
2.52336 6.81319 0.
-0.0176002 -17.9994 0.
13.9659 38.6479 0.
10.9361 30.2592 0.
14.902 41.1565 0.
1.42759 3.95315 0.
-3.43364 -9.42753 0.
19.0118 52.1264 0.
-3.77883 -10.4436 0.
18.6865 51.5726 0.
-156.644 -433.403 0.
9.38224 25.8969 0.
-21.9568 -60.784 0.
-37.2516 -103.168 0.
-9.40012 -25.8773 0.
2.12343 5.78608 0.
8.88444 23.913 0.
10.9711 29.3381 0.
-1.54854 -78.6367 0.
-438.797 -1161.08 0.
7.22945 19.43 0.
-105.899 -281.509 0.
17.7073 47.189 0.
-54.7386 -141.531 0.
-138.249 -359.363 0.
-11.0493 -27.7601 0.
9.58183 24.2779 0.
15.4205 38.6312 0.
-20.072 -49.3311 0.
-89.7732 -221.163 0.
-161.925 -356.739 0.
12.5136 26.1596 0.
-95.047 -195.577 0.
-265.589 -479.911 0.
15.6389 24.7056 0.
-245.925 -372.967 0.
-528.903 -743.798 0.
0.959176 1.52065 0.
-86.8711 -156.805 0.
-9.83878 -82.6426 0.
34.7107 74.3554 0.
-270.347 -599.653 0.
-0.986161 -2.48308 0.
20.5565 51.3322 0.
1.80867 4.63628 0.
-301.761 -762.108 0.
-87.8377 -219.285 0.
-20.9051 -54.1523 0.
-73.9252 -190.798 0.
23.9463 64.7539 0.
-68.0295 -181.265 0.
-24.5667 -66.7384 0.
-18.6062 -50.6742 0.
-26.6825 -70.9014 0.
-12.7512 -33.9806 0.
-6.57012 -17.6619 0.
-113.997 -312.536 0.
22.4352 61.3838 0.
2.92215 8.02012 0.
-107.306 -294.31 0.
18.6966 51.7577 0.
-112.313 -310.54 0.
-11.615 -32.027 0.
-30.2363 -83.5416 0.
-10.935 -30.2867 0.
6.16444 17.0733 0.
19.6774 54.4447 0.
14.7126 40.6394 0.
0.913945 2.51002 0.
18.1539 48.2569 0.
11.0621 30.3915 0.
0.953859 2.55361 0.
-0.0038997 -20.3136 0.
4.78042 13.1917 0.
8.13001 22.4494 0.
-211.493 -566.182 0.
-0.0337286 -1.43033 0.
0.871021 2.41118 0.
-0.00441375 -0.345104 0.
-3.51992 -9.2639 0.
-0.0350868 -0.0961971 0.
-9.28094 -24.1181 0.
-8.39558 -21.2433 0.
-17.1791 -41.081 0.
-0.00403131 -0.449482 0.
-0.706013 -1.91117 0.
-0.406672 -1.12156 0.
-8.19215 -22.6643 0.
-15.9973 -43.8203 0.
-9.36416 -24.9768 0.
-3.3784 -8.67062 0.
-5.04063 -12.4165 0.
-0.00779911 -0.503706 0.
-0.0304114 -0.400408 0.
-0.0552869 -2.50848 0.
0.767272 2.1234 0.
6.69704 18.0155 0.
-159.65 -439.412 0.
0.0577236 4.87318 0.
2.98317 8.26287 0.
2.84685 7.7345 0.
3.4848 9.55314 0.
7.13793 19.7531 0.
10.4317 28.8674 0.
-64.0274 -176.56 0.
-61.4832 -170.257 0.
8.93073 24.5491 0.
-2.90814 -8.02498 0.
-11.327 -31.2906 0.
-4.34245 -11.9758 0.
6.20365 17.1074 0.
18.0647 49.9086 0.
16.7565 46.3904 0.
18.1018 50.0601 0.
1.90323 5.23921 0.
-15.9135 -43.2946 0.
23.0128 62.1534 0.
-262.445 -700.602 0.
-19.4843 -51.663 0.
-85.8338 -230.524 0.
26.7118 71.7296 0.
12.425 32.9844 0.
14.0839 37.2168 0.
-86.6476 -224.426 0.
-12.421 -32.3532 0.
33.1866 83.3891 0.
8.48586 21.5281 0.
1.49405 3.74242 0.
-15.3305 -37.6233 0.
-19.1089 -46.8695 0.
-325.44 -712.161 0.
16.2243 33.5586 0.
-9.56633 -21.3465 0.
-59.2807 -105.81 0.
-107.804 -174.794 0.
-68.6862 -102.895 0.
-931.555 -1267.84 0.
15.0205 24.6885 0.
-406.25 -719.529 0.
37.0294 79.1093 0.
8.53267 18.0118 0.
-18.2661 -44.6328 0.
-49.7805 -118.998 0.
-0.907445 -2.26714 0.
-11.4261 -29.1908 0.
-20.6715 -52.8082 0.
-12.7252 -32.8112 0.
-66.867 -173.194 0.
-155.474 -401.257 0.
-17.1442 -46.3921 0.
-181.968 -490.474 0.
12.302 33.434 0.
-47.4931 -129.436 0.
-0.233304 -72.4361 0.
-26.312 -70.1251 0.
-14.1311 -38.0094 0.
-143.762 -389.833 0.
17.2701 47.2973 0.
6.42498 17.6403 0.
-22.9518 -62.8844 0.
-0.00747218 -61.9817 0.
-73.1669 -202.21 0.
9.61939 26.4231 0.
-0.910073 -2.51408 0.
-63.5105 -175.912 0.
-12.4169 -34.2788 0.
8.68114 24.0208 0.
0.877597 2.42419 0.
-0.0754999 -55.5284 0.
5.62448 15.0435 0.
12.5223 34.443 0.
-0.0143536 -28.3405 0.
3.51757 9.74288 0.
-50.2509 -137.691 0.
3.10499 8.58227 0.
0.211477 0.583568 0.
-0.23872 -5.73617 0.
1.33933 3.70126 0.
0.0035256 0.494633 0.
-0.252256 -0.690059 0.
0.3417 0.945844 0.
-128.011 -344.918 0.
-38.6398 -104.941 0.
-24.104 -66.4132 0.
-98.1324 -271.267 0.
-113.687 -314.557 0.
-32.7041 -90.5637 0.
-17.4851 -48.375 0.
-174.196 -482.268 0.
-9.89614 -27.1839 0.
-18.5631 -51.042 0.
-133.036 -367.915 0.
0.711403 1.91965 0.
-0.0708044 -1.29872 0.
0.0307864 0.674215 0.
0.55444 1.51236 0.
0.0427362 2.46737 0.
3.68214 10.1864 0.
-5.02016 -13.8999 0.
-2.55837 -51.9992 0.
13.9332 38.0816 0.
15.2223 41.6481 0.
-11.7441 -32.5032 0.
-12.9003 -35.7031 0.
-15.5035 -42.7578 0.
14.822 40.771 0.
-6.83251 -18.8011 0.
-1.90709 -5.2593 0.
-152.681 -421.783 0.
13.2046 36.3878 0.
-16.5576 -45.7086 0.
0.566099 1.56681 0.
-14.0815 -38.9866 0.
-12.6639 -35.0144 0.
-6.87018 -18.7964 0.
-271.646 -737.906 0.
-0.778977 -68.3544 0.
-127.302 -339.579 0.
-0.905049 -75.6129 0.
1.20051 3.22134 0.
-11.5858 -30.9813 0.
14.4156 38.2194 0.
7.36879 19.5422 0.
-116.35 -301.899 0.
-11.8389 -30.904 0.
1.34 3.50931 0.
-14.698 -37.3405 0.
25.2508 63.2514 0.
-207.223 -498.597 0.
-62.8454 -153.454 0.
30.973 72.4037 0.
-14.6021 -29.8775 0.
29.0512 61.5734 0.
46.4327 95.0236 0.
3.22924 5.69373 0.
14.4872 21.4186 0.
-322.335 -618.764 0.
-206.477 -350.703 0.
-0.586618 -1.15789 0.
-0.8073 -1.69696 0.
-145.641 -302.845 0.
-5.14195 -86.8128 0.
-59.5107 -141.599 0.
32.2819 82.7433 0.
-3.60729 -97.3474 0.
-3.38584 -91.4438 0.
-0.680495 -1.75451 0.
1.59049 4.11338 0.
-36.6055 -94.4921 0.
-5.43437 -14.7162 0.
-49.1001 -132.455 0.
10.7299 29.1745 0.
-100.103 -270.473 0.
-10.5063 -28.93 0.
-65.652 -174.989 0.
-0.528613 -1.43544 0.
15.4168 41.8546 0.
-40.4942 -111.006 0.
21.3191 58.4143 0.
-18.1314 -49.6958 0.
3.5783 9.91014 0.
-9.70489 -26.8643 0.
-3.06044 -8.40111 0.
9.59357 26.4979 0.
4.61874 12.7657 0.
-0.0645924 -54.3731 0.
16.7444 46.3337 0.
-62.8015 -173.484 0.
-9.59794 -26.4982 0.
-5.78917 -15.565 0.
-48.0314 -132.222 0.
16.6987 46.2201 0.
13.6579 37.7874 0.
-22.8512 -62.4772 0.
-0.00601711 -13.7868 0.
-2.00823 -5.56175 0.
-0.247214 -5.01672 0.
-148.119 -386.972 0.
1.37398 3.79684 0.
-106.079 -277.966 0.
-0.00300276 -1.54004 0.
-6.01061 -16.6283 0.
-5.26652 -14.587 0.
-7.22566 -19.9175 0.
-3.65144 -10.1135 0.
-9.29513 -25.7423 0.
-2.61253 -7.17639 0.
-7.23023 -19.9623 0.
-12.0453 -33.3299 0.
-3.39757 -9.39585 0.
-6.59703 -18.2389 0.
-10.1796 -28.1447 0.
-0.000518102 -1.37827 0.
-141.666 -386.722 0.
0.758696 2.04583 0.
-0.661836 -1.76908 0.
4.61322 12.1905 0.
-6.59983 -18.2798 0.
-6.3806 -17.6732 0.
-0.527776 -31.7561 0.
-112.138 -307.923 0.
14.9497 40.8177 0.
3.06356 8.47433 0.
-23.5501 -65.1848 0.
-8.34579 -23.0201 0.
16.9056 46.55 0.
-129.133 -355.677 0.
-3.88317 -10.669 0.
-4.93307 -13.6199 0.
-8.33254 -23.0508 0.
-9.56978 -26.4424 0.
20.5148 56.7981 0.
20.3064 56.2091 0.
-63.2315 -174.792 0.
-12.7449 -34.8217 0.
5.70256 15.5269 0.
-29.0533 -78.2022 0.
3.72891 9.94583 0.
17.0508 46.2639 0.
20.43 54.7712 0.
27.0479 72.6055 0.
0.170327 0.450979 0.
21.1937 56.4103 0.
-10.9178 -29.3116 0.
9.95775 26.0543 0.
-2.1487 -90.6695 0.
-4.50335 -11.4607 0.
-4.03247 -90.6963 0.
-4.3118 -86.6059 0.
-11.3684 -27.64 0.
22.8387 53.2377 0.
-34.6653 -70.191 0.
-8.58871 -17.9751 0.
-8.31692 -74.7135 0.
-9.22453 -15.9824 0.
-8.89525 -47.8828 0.
16.163 32.2849 0.
1.21796 2.42689 0.
3.89459 8.55182 0.
-10.1214 -20.9656 0.
10.9414 24.6404 0.
-1.37436 -3.32249 0.
-52.6824 -124.821 0.
35.0362 89.5863 0.
-98.7137 -247.243 0.
3.10634 7.87884 0.
-5.55421 -14.3189 0.
15.5886 40.3087 0.
9.84376 26.411 0.
-115.709 -304.738 0.
-4.45148 -12.0183 0.
0.213999 0.582105 0.
-21.5604 -58.2865 0.
-3.28714 -9.06595 0.
-167.654 -455.875 0.
14.7928 40.2906 0.
10.8084 29.3786 0.
-132.747 -358.906 0.
-7.04388 -19.321 0.
-41.4201 -113.565 0.
-3.6195 -10.014 0.
-13.6701 -37.8506 0.
9.23675 25.3389 0.
-5.55556 -15.3425 0.
0.150705 0.415713 0.
6.1851 17.0884 0.
-102.061 -282.423 0.
6.80241 18.45 0.
-7.64233 -21.0994 0.
-30.4754 -82.5573 0.
1.65947 4.48613 0.
-0.007046 -38.416 0.
-1.40968 -3.90376 0.
-1.06772 -2.94438 0.
0.59275 1.64135 0.
-33.6126 -93.0989 0.
-0.219778 -13.8375 0.
2.71808 7.32959 0.
-0.000190591 -0.629709 0.
0.916509 2.50414 0.
-0.00473905 -0.556668 0.
-0.568482 -1.57458 0.
-3.60205 -9.83677 0.
-8.1481 -21.8929 0.
-5.4461 -15.0067 0.
-12.9352 -35.5301 0.
-1.81352 -4.97363 0.
-3.15966 -8.7092 0.
-8.11738 -22.4496 0.
-7.60395 -21.0615 0.
-9.99721 -27.6901 0.
-12.1607 -33.6824 0.
-0.00307572 -1.58132 0.
-9.77288 -26.8582 0.
2.64485 7.14904 0.
-64.3105 -174.75 0.
-0.0905337 -17.3503 0.
-0.32828 -22.3997 0.
-1.77411 -4.91226 0.
7.59435 20.0341 0.
13.5914 37.0797 0.
-14.3234 -39.0236 0.
-30.5666 -83.8512 0.
-100.616 -277.454 0.
10.1357 27.9607 0.
13.0544 35.9787 0.
-2.39548 -6.59696 0.
3.75541 10.3036 0.
-0.262082 -0.72315 0.
8.08616 22.3557 0.
10.9474 30.2717 0.
6.52815 18.0782 0.
10.7839 29.847 0.
0.255519 0.702426 0.
4.90204 13.3757 0.
8.59652 23.3869 0.
-22.1525 -59.0694 0.
28.532 76.0881 0.
-0.421979 -61.1943 0.
-3.67654 -9.84746 0.
0.0345516 0.0930889 0.
-272.139 -719.979 0.
-15.5522 -41.5416 0.
-2.9555 -7.97545 0.
-126.587 -323.803 0.
-14.3487 -37.6625 0.
-277.453 -687.236 0.
22.4173 56.207 0.
-10.1223 -24.9833 0.
-22.3078 -54.0133 0.
31.2536 72.6188 0.
4.77684 10.1229 0.
-14.0261 -94.5148 0.
23.0679 49.5679 0.
25.9698 46.0843 0.
-11.2913 -42.5 0.
21.8012 39.8403 0.
19.9279 38.8815 0.
11.1846 24.169 0.
-94.8613 -194.212 0.
35.7395 79.9159 0.
37.3228 83.3787 0.
-24.5972 -58.0535 0.
-8.08236 -20.6197 0.
-7.28484 -18.2094 0.
27.7642 73.2767 0.
-2.76946 -7.12919 0.
-11.2012 -28.9596 0.
32.606 87.9567 0.
1.03561 2.73935 0.
14.6243 39.5119 0.
-5.8435 -15.968 0.
-1.98089 -5.35675 0.
-0.0766006 -59.7821 0.
4.33475 11.8075 0.
26.3115 71.8493 0.
20.549 55.9126 0.
10.5805 28.8788 0.
-16.8193 -46.1798 0.
-27.9782 -76.7318 0.
4.83047 13.376 0.
7.59315 21.0283 0.
-13.2794 -36.4072 0.
-33.3194 -91.5847 0.
2.83087 7.78985 0.
20.2955 56.0825 0.
-9.69904 -26.5762 0.
-7.78541 -21.0556 0.
16.8841 46.6147 0.
-31.1653 -86.1168 0.
15.0532 40.5474 0.
4.96965 13.7613 0.
12.0856 33.1401 0.
3.24505 8.92413 0.
12.1209 33.5728 0.
-0.323415 -26.1151 0.
-0.339105 -21.4526 0.
2.54271 6.95877 0.
1.52298 4.19345 0.
-0.00327793 -3.93699 0.
-0.00123124 -1.94123 0.
-33.204 -70.898 0.
-4.99311 -11.3589 0.
-2.07431 -5.22311 0.
-26.3834 -70.407 0.
-20.7566 -57.0071 0.
-7.64915 -19.8534 0.
-0.657902 -1.72196 0.
-9.68777 -25.8282 0.
-3.30202 -8.96953 0.
-10.948 -29.5346 0.
-26.2136 -70.219 0.
-0.00288344 -0.750683 0.
-0.0025151 -1.9309 0.
3.23714 8.76956 0.
14.1287 33.4978 0.
3.84764 10.4435 0.
5.62476 15.1871 0.
-95.2827 -263.584 0.
-4.88926 -12.7781 0.
-10.8427 -29.5184 0.
0.189368 0.518264 0.
-15.489 -42.537 0.
-11.4673 -31.6251 0.
0.698293 1.93413 0.
-9.344 -25.7736 0.
-1.29984 -3.57563 0.
-10.5619 -29.0449 0.
-0.687967 -1.89712 0.
-3.56775 -9.85725 0.
-57.4851 -158.792 0.
16.7794 46.4726 0.
-20.6583 -57.1714 0.
-12.2631 -33.7804 0.
-64.7665 -176.525 0.
27.3926 74.4698 0.
19.4421 52.3928 0.
-1.17481 -71.7443 0.
20.8792 57.0858 0.
-133.5 -354.476 0.
-2.38582 -6.44876 0.
28.6363 77.7299 0.
-62.228 -165.221 0.
-14.9298 -40.4749 0.
-194.579 -498.188 0.
8.21988 21.6008 0.
-9.45901 -24.6806 0.
-4.27295 -10.4878 0.
1.00247 2.46399 0.
-284.614 -659.637 0.
-7.2855 -86.7256 0.
-42.0139 -88.3345 0.
-11.2779 -23.0694 0.
-17.5941 -36.854 0.
28.7137 49.036 0.
-14.9753 -23.8602 0.
24.3089 40.8707 0.
-54.9571 -104.953 0.
-259.803 -482.943 0.
25.5295 55.2615 0.
-1.22247 -2.71154 0.
-7.72802 -17.1326 0.
28.5203 70.3488 0.
14.2008 34.792 0.
28.3168 70.5898 0.
-203.816 -525.887 0.
-2.74811 -90.8247 0.
31.3534 81.06 0.
27.8644 75.5951 0.
7.32505 19.4411 0.
10.677 29.0728 0.
23.1018 63.3001 0.
19.3081 52.2111 0.
-3.10797 -8.57849 0.
-0.433296 -65.6454 0.
12.381 33.8808 0.
-15.5839 -42.2688 0.
-3.73518 -10.237 0.
-64.9847 -178.581 0.
-85.8239 -235.389 0.
1.50701 4.17415 0.
-5.87429 -16.2699 0.
13.9692 38.5157 0.
-0.19664 -58.1484 0.
5.19501 14.2578 0.
-0.0065623 -40.3347 0.
15.6166 43.1805 0.
-25.9715 -70.0525 0.
-41.9672 -115.863 0.
11.2751 31.1468 0.
-38.5574 -103.462 0.
4.12286 11.1411 0.
6.46449 17.6842 0.
-4.87449 -13.3625 0.
-1.95189 -5.15507 0.
-0.526336 -24.5071 0.
-0.245412 -15.4785 0.
-1.27035 -19.2075 0.
-5.56647 -15.4181 0.
-6.12483 -16.8002 0.
2.63962 7.12732 0.
-0.0100648 -0.123532 0.
-0.00404539 -0.0855686 0.
0.115652 0.305071 0.
-1.68829 -4.51713 0.
-17.0881 -45.9715 0.
0.134343 0.350602 0.
-0.00672663 -0.0178999 0.
-0.99248 -2.67836 0.
-0.687184 -1.86849 0.
-10.9198 -29.5976 0.
-0.633876 -10.6229 0.
-0.803886 -2.12804 0.
-0.587339 -1.61031 0.
-0.0385162 -4.06596 0.
15.7363 36.9228 0.
3.34324 9.00961 0.
8.13116 21.934 0.
11.0592 28.3202 0.
-21.186 -54.8517 0.
-61.0783 -165.918 0.
-8.17732 -22.4039 0.
-29.181 -80.2128 0.
-12.7511 -35.1688 0.
5.27512 14.6108 0.
0.739963 1.99771 0.
-5.12786 -14.0906 0.
19.1234 52.3492 0.
-12.1393 -33.6023 0.
5.82136 16.0734 0.
-10.2221 -28.2453 0.
17.7701 49.1357 0.
-0.0583803 -58.7447 0.
7.38098 20.3624 0.
13.9253 38.5692 0.
16.883 45.877 0.
4.48029 12.1698 0.
-0.800273 -65.6713 0.
-0.183849 -42.367 0.
-121.827 -324.407 0.
11.4142 31.2605 0.
4.79237 13.02 0.
-39.054 -104.19 0.
-14.2844 -38.8701 0.
-152.856 -391.306 0.
-1.66084 -71.0904 0.
4.88242 12.7848 0.
-21.3398 -52.1459 0.
-16.7994 -41.1008 0.
-18.3224 -44.3318 0.
-7.28171 -84.5354 0.
-44.1737 -92.1521 0.
-346.572 -726.315 0.
-292.718 -596.332 0.
-45.4496 -74.6546 0.
-32.2484 -47.1515 0.
