# vtk DataFile Version 2.0
test grain
ASCII
DATASET UNSTRUCTURED_GRID
POINTS 5000 float
0.497723 0.000613459 0.
0.500567 0.000797473 0.
0.503048 0.000864197 0.
0.505514 0.000929377 0.
0.507631 0.000946617 0.
0.509749 0.000964247 0.
0.51184 0.000977175 0.
0.513885 0.00098147 0.
0.515931 0.000985784 0.
0.517955 0.000989662 0.
0.519968 0.000993343 0.
0.521981 0.000997037 0.
0.523984 0.000997964 0.
0.525986 0.000998518 0.
0.527988 0.000999041 0.
0.52999 0.000999301 0.
0.531992 0.000999561 0.
0.533993 0.000999773 0.
0.535994 0.000999887 0.
0.537996 0.001 0.
0.539996 0.00100013 0.
0.541997 0.00100026 0.
0.543997 0.0010004 0.
0.545997 0.00100033 0.
0.547998 0.00100019 0.
0.549998 0.00100005 0.
0.551998 0.00100015 0.
0.553998 0.00100024 0.
0.555998 0.00100033 0.
0.557998 0.00100036 0.
0.559999 0.0010004 0.
0.561999 0.00100043 0.
0.563999 0.00100045 0.
0.565999 0.00100047 0.
0.567999 0.00100047 0.
0.569999 0.00100046 0.
0.571999 0.00100045 0.
0.573999 0.00100044 0.
0.575999 0.00100042 0.
0.577999 0.00100042 0.
0.579999 0.00100044 0.
0.581999 0.00100047 0.
0.583999 0.00100048 0.
0.585999 0.00100045 0.
0.587999 0.00100041 0.
0.589999 0.00100047 0.
0.591999 0.00100061 0.
0.593999 0.00100075 0.
0.596 0.00100059 0.
0.598 0.00100033 0.
0.6 0.00100008 0.
0.602 0.00100035 0.
0.604 0.00100062 0.
0.606001 0.00100079 0.
0.608001 0.00100064 0.
0.610001 0.00100049 0.
0.612001 0.00100042 0.
0.614001 0.00100046 0.
0.616001 0.00100049 0.
0.618001 0.00100047 0.
0.620001 0.00100042 0.
0.622001 0.00100036 0.
0.624001 0.00100036 0.
0.626001 0.00100037 0.
0.628001 0.00100038 0.
0.630001 0.0010004 0.
0.632001 0.00100043 0.
0.634001 0.00100044 0.
0.636001 0.00100043 0.
0.638001 0.00100043 0.
0.640001 0.00100038 0.
0.642002 0.0010003 0.
0.644002 0.00100023 0.
0.646002 0.00100016 0.
0.648002 0.0010001 0.
0.650002 0.00100004 0.
0.652003 0.00100013 0.
0.654003 0.00100021 0.
0.656004 0.00100025 0.
0.658004 0.00100013 0.
0.660005 0.001 0.
0.662006 0.000999842 0.
0.664007 0.000999632 0.
0.666008 0.000999421 0.
0.66801 0.000999276 0.
0.670012 0.000999162 0.
0.672014 0.000999049 0.
0.674017 0.000997648 0.
0.67602 0.000996098 0.
0.678026 0.00099418 0.
0.680048 0.000989526 0.
0.68207 0.000984893 0.
0.684106 0.000979872 0.
0.686169 0.000974074 0.
0.688231 0.00096831 0.
0.690399 0.000940378 0.
0.692622 0.000902408 0.
0.694868 0.000863234 0.
0.697661 0.000765532 0.
0.700459 0.000669917 0.
0.495599 0.00157835 0.
0.49898 0.00228805 0.
0.501874 0.00255625 0.
0.504712 0.00277028 0.
0.507091 0.0028304 0.
0.50939 0.00288612 0.
0.511629 0.00293106 0.
0.513724 0.00294404 0.
0.51582 0.00295707 0.
0.517878 0.00296872 0.
0.519914 0.00297982 0.
0.52195 0.00299097 0.
0.523959 0.00299388 0.
0.525965 0.00299554 0.
0.52797 0.00299712 0.
0.529975 0.0029979 0.
0.531979 0.00299868 0.
0.533983 0.00299932 0.
0.535986 0.00299966 0.
0.537989 0.003 0.
0.53999 0.00300038 0.
0.541991 0.00300079 0.
0.543992 0.00300121 0.
0.545993 0.00300098 0.
0.547994 0.00300056 0.
0.549994 0.00300015 0.
0.551994 0.00300044 0.
0.553995 0.00300073 0.
0.555995 0.00300098 0.
0.557995 0.00300109 0.
0.559996 0.0030012 0.
0.561997 0.00300129 0.
0.563997 0.00300135 0.
0.565997 0.00300141 0.
0.567998 0.00300141 0.
0.569998 0.00300138 0.
0.571998 0.00300135 0.
0.573998 0.00300131 0.
0.575998 0.00300127 0.
0.577998 0.00300125 0.
0.579998 0.00300133 0.
0.581998 0.00300142 0.
0.583998 0.00300144 0.
0.585998 0.00300134 0.
0.587998 0.00300124 0.
0.589998 0.00300142 0.
0.591998 0.00300184 0.
0.593998 0.00300225 0.
0.595999 0.00300176 0.
0.598 0.003001 0.
0.6 0.00300024 0.
0.602001 0.00300105 0.
0.604001 0.00300185 0.
0.606002 0.00300238 0.
0.608002 0.00300193 0.
0.610002 0.00300148 0.
0.612002 0.00300127 0.
0.614002 0.00300137 0.
0.616002 0.00300147 0.
0.618002 0.0030014 0.
0.620002 0.00300125 0.
0.622002 0.00300109 0.
0.624002 0.00300109 0.
0.626002 0.00300111 0.
0.628002 0.00300113 0.
0.630002 0.00300121 0.
0.632002 0.00300128 0.
0.634003 0.00300132 0.
0.636003 0.0030013 0.
0.638004 0.00300128 0.
0.640004 0.00300114 0.
0.642005 0.00300091 0.
0.644005 0.00300068 0.
0.646006 0.00300049 0.
0.648006 0.00300031 0.
0.650006 0.00300013 0.
0.652007 0.00300038 0.
0.654008 0.00300064 0.
0.656009 0.00300075 0.
0.65801 0.00300038 0.
0.660012 0.00300001 0.
0.662014 0.00299952 0.
0.664018 0.00299889 0.
0.666021 0.00299826 0.
0.668025 0.00299783 0.
0.670031 0.00299749 0.
0.672036 0.00299715 0.
0.674045 0.00299289 0.
0.676055 0.00298823 0.
0.678071 0.00298233 0.
0.680129 0.00296827 0.
0.682187 0.00295426 0.
0.684274 0.00293905 0.
0.686405 0.00292147 0.
0.688535 0.00290399 0.
0.690951 0.00280206 0.
0.693442 0.00268155 0.
0.696171 0.00252073 0.
0.69936 0.00221507 0.
0.702668 0.00170692 0.
0.493104 0.00218493 0.
0.496797 0.00336677 0.
0.500492 0.00419707 0.
0.503714 0.00456813 0.
0.506498 0.00470043 0.
0.508994 0.0047983 0.
0.511412 0.00488433 0.
0.513558 0.00490611 0.
0.515705 0.00492799 0.
0.5178 0.00494741 0.
0.519859 0.00496603 0.
0.521918 0.00498472 0.
0.523934 0.00498978 0.
0.525944 0.00499255 0.
0.527953 0.00499518 0.
0.52996 0.00499649 0.
0.531967 0.00499779 0.
0.533973 0.00499886 0.
0.535977 0.00499943 0.
0.537982 0.005 0.
0.539984 0.00500063 0.
0.541986 0.00500132 0.
0.543987 0.00500201 0.
0.545988 0.00500163 0.
0.547989 0.00500094 0.
0.549991 0.00500025 0.
0.551991 0.00500072 0.
0.553991 0.00500121 0.
0.555991 0.00500163 0.
0.557992 0.00500182 0.
0.559994 0.005002 0.
0.561994 0.00500215 0.
0.563995 0.00500225 0.
0.565996 0.00500235 0.
0.567996 0.00500235 0.
0.569997 0.0050023 0.
0.571997 0.00500224 0.
0.573997 0.00500218 0.
0.575996 0.00500212 0.
0.577996 0.00500208 0.
0.579996 0.00500222 0.
0.581997 0.00500237 0.
0.583997 0.00500241 0.
0.585997 0.00500224 0.
0.587997 0.00500206 0.
0.589997 0.00500237 0.
0.591997 0.00500306 0.
0.593997 0.00500376 0.
0.595998 0.00500293 0.
0.597999 0.00500167 0.
0.6 0.0050004 0.
0.602001 0.00500174 0.
0.604002 0.00500309 0.
0.606003 0.00500396 0.
0.608003 0.00500321 0.
0.610003 0.00500246 0.
0.612003 0.00500212 0.
0.614003 0.00500229 0.
0.616003 0.00500245 0.
0.618003 0.00500233 0.
0.620003 0.00500208 0.
0.622004 0.00500182 0.
0.624003 0.00500182 0.
0.626003 0.00500185 0.
0.628003 0.00500189 0.
0.630003 0.00500201 0.
0.632004 0.00500213 0.
0.634005 0.0050022 0.
0.636005 0.00500217 0.
0.638006 0.00500214 0.
0.640007 0.00500191 0.
0.642008 0.00500152 0.
0.644009 0.00500113 0.
0.64601 0.00500081 0.
0.64801 0.00500051 0.
0.65001 0.00500022 0.
0.652012 0.00500064 0.
0.654013 0.00500106 0.
0.656014 0.00500125 0.
0.658017 0.00500063 0.
0.660019 0.00500001 0.
0.662023 0.0049992 0.
0.664028 0.00499815 0.
0.666034 0.00499709 0.
0.668041 0.00499637 0.
0.67005 0.00499581 0.
0.672058 0.00499524 0.
0.674073 0.00498806 0.
0.67609 0.00498028 0.
0.678118 0.00497021 0.
0.680212 0.00494658 0.
0.682306 0.00492307 0.
0.684447 0.00489747 0.
0.686649 0.00486784 0.
0.68885 0.00483839 0.
0.69159 0.00463549 0.
0.694378 0.00442305 0.
0.697788 0.00406729 0.
0.7015 0.00347467 0.
0.705293 0.00232654 0.
0.490137 0.00233409 0.
0.494496 0.00401839 0.
0.498659 0.00529005 0.
0.502078 0.00581874 0.
0.505258 0.00614532 0.
0.507925 0.00634639 0.
0.510576 0.00655442 0.
0.512898 0.0066504 0.
0.515212 0.00673774 0.
0.517449 0.00680786 0.
0.519589 0.00685453 0.
0.521731 0.00690192 0.
0.5238 0.00693021 0.
0.525853 0.00695467 0.
0.527904 0.00697784 0.
0.52992 0.00698045 0.
0.531936 0.00698305 0.
0.53395 0.00698635 0.
0.53596 0.00699119 0.
0.537969 0.00699605 0.
0.539975 0.00699904 0.
0.541978 0.00700046 0.
0.543981 0.00700189 0.
0.545983 0.0070021 0.
0.547984 0.00700195 0.
0.549986 0.00700179 0.
0.551986 0.00700204 0.
0.553987 0.00700229 0.
0.555988 0.00700253 0.
0.557989 0.00700272 0.
0.55999 0.00700291 0.
0.561991 0.00700312 0.
0.563992 0.00700336 0.
0.565993 0.0070036 0.
0.567994 0.00700372 0.
0.569994 0.00700377 0.
0.571995 0.00700383 0.
0.573995 0.00700379 0.
0.575995 0.00700374 0.
0.577995 0.00700371 0.
0.579995 0.00700384 0.
0.581995 0.00700397 0.
0.583995 0.00700405 0.
0.585996 0.00700404 0.
0.587996 0.00700403 0.
0.589996 0.00700427 0.
0.591996 0.00700473 0.
0.593995 0.00700519 0.
0.595997 0.00700466 0.
0.597999 0.00700386 0.
0.6 0.00700306 0.
0.602002 0.00700402 0.
0.604004 0.00700497 0.
0.606005 0.00700558 0.
0.608005 0.00700499 0.
0.610005 0.0070044 0.
0.612005 0.00700408 0.
0.614005 0.0070041 0.
0.616005 0.00700411 0.
0.618005 0.00700397 0.
0.620005 0.00700375 0.
0.622006 0.00700352 0.
0.624005 0.00700349 0.
0.626005 0.00700348 0.
0.628005 0.00700347 0.
0.630006 0.00700345 0.
0.632007 0.00700343 0.
0.634008 0.00700337 0.
0.636009 0.00700323 0.
0.63801 0.00700309 0.
0.640011 0.0070028 0.
0.642012 0.00700238 0.
0.644013 0.00700196 0.
0.646014 0.00700176 0.
0.648015 0.00700162 0.
0.650016 0.00700149 0.
0.652018 0.00700135 0.
0.654019 0.00700122 0.
0.656022 0.00700066 0.
0.658026 0.00699869 0.
0.660031 0.00699672 0.
0.662039 0.00699267 0.
0.664052 0.00698618 0.
0.666065 0.0069797 0.
0.668085 0.00697566 0.
0.670108 0.00697268 0.
0.672132 0.0069697 0.
0.674205 0.00693432 0.
0.676281 0.00689743 0.
0.678381 0.00685711 0.
0.680573 0.00679923 0.
0.682762 0.00674255 0.
0.685092 0.00664832 0.
0.687501 0.00653585 0.
0.69001 0.00637055 0.
0.692948 0.00600043 0.
0.696026 0.00563354 0.
0.699701 0.00514901 0.
0.704069 0.00414323 0.
0.708179 0.00254022 0.
0.487114 0.00232946 0.
0.491923 0.00427993 0.
0.496186 0.00577145 0.
0.500173 0.00685289 0.
0.503629 0.00743892 0.
0.506693 0.00781295 0.
0.509568 0.00815694 0.
0.512152 0.00836202 0.
0.514655 0.00852342 0.
0.517078 0.00866209 0.
0.519304 0.00873853 0.
0.521535 0.00881619 0.
0.523663 0.0088687 0.
0.52576 0.00891542 0.
0.527855 0.00896049 0.
0.52988 0.0089644 0.
0.531905 0.00896831 0.
0.533926 0.00897377 0.
0.535942 0.00898291 0.
0.537957 0.00899206 0.
0.539966 0.00899744 0.
0.541971 0.0089996 0.
0.543975 0.00900176 0.
0.545977 0.00900256 0.
0.547979 0.00900295 0.
0.549981 0.00900334 0.
0.551982 0.00900336 0.
0.553983 0.00900337 0.
0.555984 0.00900343 0.
0.557985 0.00900362 0.
0.559986 0.00900381 0.
0.561988 0.00900409 0.
0.563989 0.00900447 0.
0.56599 0.00900486 0.
0.567991 0.00900509 0.
0.569992 0.00900525 0.
0.571993 0.00900541 0.
0.573993 0.0090054 0.
0.575993 0.00900536 0.
0.577993 0.00900534 0.
0.579993 0.00900546 0.
0.581994 0.00900557 0.
0.583994 0.0090057 0.
0.585994 0.00900585 0.
0.587994 0.00900599 0.
0.589994 0.00900618 0.
0.591994 0.0090064 0.
0.593994 0.00900662 0.
0.595996 0.0090064 0.
0.597998 0.00900606 0.
0.6 0.00900572 0.
0.602003 0.00900629 0.
0.604005 0.00900686 0.
0.606006 0.0090072 0.
0.608006 0.00900677 0.
0.610006 0.00900634 0.
0.612006 0.00900604 0.
0.614006 0.00900591 0.
0.616006 0.00900577 0.
0.618007 0.0090056 0.
0.620007 0.00900542 0.
0.622008 0.00900523 0.
0.624008 0.00900517 0.
0.626007 0.00900511 0.
0.628007 0.00900505 0.
0.630008 0.00900489 0.
0.632009 0.00900473 0.
0.634011 0.00900454 0.
0.636012 0.00900429 0.
0.638014 0.00900404 0.
0.640015 0.00900369 0.
0.642016 0.00900324 0.
0.644018 0.0090028 0.
0.646019 0.00900271 0.
0.64802 0.00900274 0.
0.650021 0.00900275 0.
0.652023 0.00900206 0.
0.654026 0.00900137 0.
0.656029 0.00900006 0.
0.658036 0.00899674 0.
0.660043 0.00899342 0.
0.662056 0.00898608 0.
0.664076 0.00897413 0.
0.666096 0.0089622 0.
0.668129 0.00895488 0.
0.670168 0.00894945 0.
0.672206 0.00894404 0.
0.674342 0.00887816 0.
0.676479 0.00881107 0.
0.678661 0.00873868 0.
0.68096 0.00864401 0.
0.683251 0.00855131 0.
0.685846 0.0083593 0.
0.688495 0.00815114 0.
0.691427 0.00775485 0.
0.694568 0.00719519 0.
0.698137 0.00658917 0.
0.702192 0.00576953 0.
0.706671 0.0043741 0.
0.711413 0.00240394 0.
0.483799 0.00220864 0.
0.488958 0.0042673 0.
0.493633 0.00603232 0.
0.49785 0.00752308 0.
0.501846 0.00856679 0.
0.505426 0.00920564 0.
0.508521 0.00966836 0.
0.511384 0.01 0.
0.514052 0.0102309 0.
0.516664 0.0104589 0.
0.51897 0.0105688 0.
0.521286 0.0106826 0.
0.523481 0.0107683 0.
0.525626 0.010846 0.
0.527771 0.0109235 0.
0.529812 0.0109333 0.
0.531853 0.0109431 0.
0.533889 0.0109541 0.
0.535912 0.0109679 0.
0.537934 0.0109817 0.
0.539949 0.0109905 0.
0.541957 0.0109947 0.
0.543965 0.010999 0.
0.54597 0.0110009 0.
0.547973 0.011002 0.
0.549976 0.0110032 0.
0.551977 0.0110033 0.
0.553978 0.0110033 0.
0.555979 0.0110034 0.
0.557981 0.0110037 0.
0.559983 0.0110039 0.
0.561984 0.0110043 0.
0.563986 0.0110048 0.
0.565987 0.0110052 0.
0.567988 0.0110056 0.
0.56999 0.0110058 0.
0.571991 0.011006 0.
0.573991 0.0110061 0.
0.575991 0.0110062 0.
0.577991 0.0110063 0.
0.579992 0.0110064 0.
0.581992 0.0110065 0.
0.583993 0.0110067 0.
0.585993 0.0110069 0.
0.587993 0.0110072 0.
0.589993 0.0110073 0.
0.591993 0.0110073 0.
0.593993 0.0110073 0.
0.595995 0.0110073 0.
0.597998 0.0110072 0.
0.6 0.0110072 0.
0.602003 0.0110075 0.
0.604005 0.0110078 0.
0.606007 0.011008 0.
0.608007 0.0110077 0.
0.610007 0.0110075 0.
0.612007 0.0110072 0.
0.614008 0.011007 0.
0.616008 0.0110067 0.
0.618008 0.0110065 0.
0.620009 0.0110063 0.
0.62201 0.0110062 0.
0.62401 0.011006 0.
0.62601 0.0110058 0.
0.62801 0.0110057 0.
0.630011 0.0110054 0.
0.632013 0.0110051 0.
0.634014 0.0110048 0.
0.636016 0.0110045 0.
0.638017 0.0110042 0.
0.640019 0.0110037 0.
0.642021 0.0110032 0.
0.644023 0.0110026 0.
0.646024 0.0110024 0.
0.648026 0.0110023 0.
0.650028 0.0110022 0.
0.652032 0.0110005 0.
0.654036 0.0109987 0.
0.656041 0.0109959 0.
0.658053 0.0109894 0.
0.660065 0.0109829 0.
0.662086 0.0109714 0.
0.664115 0.0109541 0.
0.666145 0.010937 0.
0.668199 0.0109199 0.
0.670263 0.0109034 0.
0.672328 0.0108859 0.
0.674527 0.0107806 0.
0.676724 0.0106765 0.
0.679 0.0105615 0.
0.681402 0.0104234 0.
0.683819 0.0102844 0.
0.686656 0.00998993 0.
0.68958 0.0096718 0.
0.692916 0.00901213 0.
0.696392 0.00825401 0.
0.700328 0.00741403 0.
0.704912 0.00603938 0.
0.70966 0.00432396 0.
0.714755 0.0022061 0.
0.480406 0.00202665 0.
0.486158 0.00426644 0.
0.491117 0.00614032 0.
0.495686 0.00797925 0.
0.500414 0.00951265 0.
0.504198 0.0103022 0.
0.507489 0.010878 0.
0.510603 0.0113873 0.
0.513386 0.0117628 0.
0.51613 0.0121405 0.
0.518553 0.0123153 0.
0.520961 0.0124833 0.
0.523244 0.0126192 0.
0.525443 0.0127404 0.
0.527645 0.0128628 0.
0.529714 0.0128854 0.
0.531779 0.0129064 0.
0.533836 0.0129272 0.
0.535869 0.012946 0.
0.537901 0.0129649 0.
0.539924 0.012978 0.
0.541938 0.0129858 0.
0.543952 0.0129936 0.
0.545959 0.0129971 0.
0.547964 0.0129992 0.
0.549969 0.0130013 0.
0.551971 0.0130017 0.
0.553973 0.0130021 0.
0.555975 0.0130024 0.
0.557977 0.0130029 0.
0.559978 0.0130033 0.
0.56198 0.0130037 0.
0.563982 0.0130042 0.
0.565984 0.0130047 0.
0.567985 0.0130051 0.
0.569987 0.0130054 0.
0.571988 0.0130057 0.
0.573989 0.013006 0.
0.575989 0.0130063 0.
0.577989 0.0130065 0.
0.57999 0.0130067 0.
0.581991 0.0130069 0.
0.583991 0.013007 0.
0.585992 0.0130073 0.
0.587992 0.0130075 0.
0.589993 0.0130075 0.
0.591993 0.0130073 0.
0.593993 0.0130072 0.
0.595995 0.0130072 0.
0.597998 0.0130074 0.
0.6 0.0130075 0.
0.602003 0.0130076 0.
0.604005 0.0130078 0.
0.606007 0.0130079 0.
0.608008 0.0130079 0.
0.610008 0.0130079 0.
0.612008 0.0130077 0.
0.614009 0.0130073 0.
0.616009 0.0130069 0.
0.61801 0.0130067 0.
0.620011 0.0130065 0.
0.622012 0.0130063 0.
0.624012 0.013006 0.
0.626013 0.0130057 0.
0.628013 0.0130053 0.
0.630015 0.0130049 0.
0.632016 0.0130044 0.
0.634018 0.013004 0.
0.63602 0.0130038 0.
0.638021 0.0130035 0.
0.640023 0.0130029 0.
0.642026 0.0130022 0.
0.644028 0.0130015 0.
0.64603 0.0130009 0.
0.648033 0.0130004 0.
0.650035 0.0129999 0.
0.652042 0.0129966 0.
0.654048 0.0129933 0.
0.656058 0.012988 0.
0.658078 0.0129765 0.
0.660099 0.012965 0.
0.662129 0.0129484 0.
0.664171 0.012926 0.
0.666213 0.0129037 0.
0.668299 0.0128688 0.
0.670398 0.012831 0.
0.672507 0.0127883 0.
0.674773 0.0126315 0.
0.677034 0.0124774 0.
0.67944 0.0122907 0.
0.681975 0.012076 0.
0.68459 0.0118097 0.
0.687537 0.0113177 0.
0.690666 0.0107921 0.
0.694146 0.0100523 0.
0.697972 0.00918195 0.
0.702491 0.00794109 0.
0.707298 0.00619137 0.
0.712418 0.0043007 0.
0.718185 0.00202051 0.
0.477182 0.00188821 0.
0.483339 0.00427471 0.
0.488723 0.00618214 0.
0.493588 0.00825333 0.
0.498693 0.01008 0.
0.502675 0.0111406 0.
0.506334 0.0119929 0.
0.509698 0.0126897 0.
0.512686 0.0132532 0.
0.515549 0.0137797 0.
0.518114 0.0140517 0.
0.520618 0.0142753 0.
0.523 0.0144652 0.
0.525256 0.0146309 0.
0.527516 0.0147992 0.
0.529614 0.0148367 0.
0.531704 0.0148691 0.
0.533783 0.0149001 0.
0.535826 0.0149241 0.
0.537868 0.0149481 0.
0.539899 0.0149655 0.
0.541919 0.0149768 0.
0.543939 0.0149881 0.
0.545949 0.0149932 0.
0.547956 0.0149964 0.
0.549963 0.0149995 0.
0.551965 0.0150002 0.
0.553968 0.0150008 0.
0.55597 0.0150015 0.
0.557972 0.0150021 0.
0.559974 0.0150026 0.
0.561976 0.0150032 0.
0.563978 0.0150037 0.
0.56598 0.0150042 0.
0.567982 0.0150047 0.
0.569984 0.015005 0.
0.571985 0.0150054 0.
0.573986 0.0150059 0.
0.575987 0.0150063 0.
0.577987 0.0150068 0.
0.579988 0.015007 0.
0.581989 0.0150072 0.
0.58399 0.0150074 0.
0.585991 0.0150076 0.
0.587992 0.0150079 0.
0.589992 0.0150078 0.
0.591993 0.0150074 0.
0.593993 0.0150071 0.
0.595995 0.0150072 0.
0.597998 0.0150075 0.
0.6 0.0150078 0.
0.602003 0.0150078 0.
0.604005 0.0150077 0.
0.606007 0.0150078 0.
0.608008 0.015008 0.
0.610008 0.0150082 0.
0.612009 0.0150081 0.
0.61401 0.0150077 0.
0.616011 0.0150072 0.
0.618012 0.0150069 0.
0.620013 0.0150067 0.
0.622014 0.0150065 0.
0.624015 0.015006 0.
0.626015 0.0150055 0.
0.628016 0.015005 0.
0.630018 0.0150044 0.
0.63202 0.0150038 0.
0.634022 0.0150033 0.
0.636024 0.015003 0.
0.638026 0.0150028 0.
0.640028 0.0150021 0.
0.64203 0.0150012 0.
0.644033 0.0150003 0.
0.646036 0.0149994 0.
0.648039 0.0149985 0.
0.650043 0.0149975 0.
0.652052 0.0149927 0.
0.654061 0.0149878 0.
0.656075 0.0149801 0.
0.658103 0.0149635 0.
0.660132 0.0149471 0.
0.662173 0.0149253 0.
0.664227 0.0148977 0.
0.666281 0.0148702 0.
0.668401 0.0148162 0.
0.670537 0.0147567 0.
0.672693 0.0146865 0.
0.675028 0.014477 0.
0.677355 0.0142719 0.
0.679915 0.0140019 0.
0.682589 0.0137077 0.
0.685416 0.0132608 0.
0.688459 0.0125762 0.
0.691851 0.0118069 0.
0.695514 0.0109142 0.
0.699491 0.00995207 0.
0.704595 0.00826663 0.
0.709686 0.0062059 0.
0.715389 0.00416963 0.
0.721697 0.00193256 0.
0.473886 0.001791 0.
0.480403 0.00414012 0.
0.486202 0.00617906 0.
0.4913 0.0083544 0.
0.496608 0.0103258 0.
0.501062 0.0118461 0.
0.505099 0.0130161 0.
0.508687 0.0138946 0.
0.511934 0.0146455 0.
0.514829 0.0152452 0.
0.517519 0.0156377 0.
0.52009 0.0159223 0.
0.52258 0.0161859 0.
0.524889 0.0163925 0.
0.527208 0.0166045 0.
0.529378 0.0166912 0.
0.531529 0.0167662 0.
0.533663 0.0168348 0.
0.535725 0.016866 0.
0.537788 0.0168974 0.
0.539837 0.0169236 0.
0.541872 0.0169448 0.
0.543907 0.0169663 0.
0.545925 0.0169774 0.
0.547938 0.0169849 0.
0.54995 0.0169925 0.
0.551955 0.0169948 0.
0.553959 0.016997 0.
0.555963 0.016999 0.
0.557967 0.0170002 0.
0.55997 0.0170014 0.
0.561972 0.0170024 0.
0.563975 0.0170031 0.
0.565977 0.0170037 0.
0.567979 0.0170043 0.
0.569981 0.0170047 0.
0.571983 0.0170052 0.
0.573984 0.0170058 0.
0.575985 0.0170064 0.
0.577986 0.017007 0.
0.579987 0.0170072 0.
0.581988 0.0170075 0.
0.583989 0.0170077 0.
0.58599 0.017008 0.
0.587991 0.0170083 0.
0.589992 0.0170082 0.
0.591993 0.0170078 0.
0.593994 0.0170073 0.
0.595996 0.0170076 0.
0.597998 0.0170082 0.
0.6 0.0170088 0.
0.602003 0.0170085 0.
0.604005 0.0170082 0.
0.606007 0.0170081 0.
0.608008 0.0170083 0.
0.610009 0.0170085 0.
0.61201 0.0170084 0.
0.614011 0.0170079 0.
0.616012 0.0170074 0.
0.618013 0.0170071 0.
0.620015 0.0170068 0.
0.622016 0.0170065 0.
0.624017 0.0170059 0.
0.626018 0.0170053 0.
0.628019 0.0170046 0.
0.630021 0.0170039 0.
0.632023 0.0170032 0.
0.634025 0.0170026 0.
0.636028 0.0170019 0.
0.63803 0.0170012 0.
0.640033 0.0169999 0.
0.642037 0.0169983 0.
0.644041 0.0169966 0.
0.646047 0.0169936 0.
0.648053 0.0169902 0.
0.650059 0.0169867 0.
0.652077 0.0169761 0.
0.654094 0.0169656 0.
0.656119 0.0169505 0.
0.658165 0.0169227 0.
0.66021 0.0168952 0.
0.662275 0.0168625 0.
0.664357 0.0168246 0.
0.666438 0.0167869 0.
0.668631 0.0166796 0.
0.670841 0.0165638 0.
0.673084 0.0164306 0.
0.67547 0.0161762 0.
0.677843 0.0159317 0.
0.680542 0.0155676 0.
0.683298 0.0152063 0.
0.686294 0.0145671 0.
0.689431 0.0137372 0.
0.693082 0.0127557 0.
0.697065 0.0116368 0.
0.701339 0.0104083 0.
0.706605 0.00845151 0.
0.712005 0.00620806 0.
0.718202 0.00410633 0.
0.725011 0.00184709 0.
0.470416 0.00166191 0.
0.477294 0.00399248 0.
0.483678 0.0061234 0.
0.489058 0.00833844 0.
0.49454 0.0104892 0.
0.499339 0.0123986 0.
0.503629 0.0138311 0.
0.507487 0.014911 0.
0.510905 0.0157909 0.
0.513883 0.0165071 0.
0.516793 0.0171174 0.
0.51946 0.0174974 0.
0.5221 0.0178722 0.
0.524482 0.01813 0.
0.526874 0.0183939 0.
0.529125 0.0185343 0.
0.531341 0.0186556 0.
0.533538 0.0187676 0.
0.535622 0.0188067 0.
0.537707 0.0188459 0.
0.539775 0.018881 0.
0.541825 0.0189125 0.
0.543875 0.0189441 0.
0.545902 0.0189614 0.
0.54792 0.0189734 0.
0.549938 0.0189854 0.
0.551945 0.0189894 0.
0.553951 0.0189932 0.
0.555957 0.0189965 0.
0.557961 0.0189983 0.
0.559965 0.0190001 0.
0.561969 0.0190015 0.
0.563971 0.0190024 0.
0.565974 0.0190033 0.
0.567976 0.0190039 0.
0.569979 0.0190044 0.
0.571981 0.019005 0.
0.573982 0.0190057 0.
0.575983 0.0190065 0.
0.577984 0.0190072 0.
0.579986 0.0190075 0.
0.581987 0.0190078 0.
0.583989 0.0190081 0.
0.58599 0.0190084 0.
0.587991 0.0190088 0.
0.589992 0.0190087 0.
0.591993 0.0190081 0.
0.593994 0.0190075 0.
0.595996 0.0190081 0.
0.597998 0.019009 0.
0.6 0.0190098 0.
0.602003 0.0190093 0.
0.604005 0.0190088 0.
0.606007 0.0190084 0.
0.608008 0.0190085 0.
0.610009 0.0190087 0.
0.612011 0.0190086 0.
0.614012 0.0190081 0.
0.616013 0.0190077 0.
0.618015 0.0190073 0.
0.620017 0.0190069 0.
0.622018 0.0190065 0.
0.624019 0.0190058 0.
0.62602 0.019005 0.
0.628021 0.0190042 0.
0.630024 0.0190035 0.
0.632026 0.0190027 0.
0.634029 0.0190018 0.
0.636032 0.0190007 0.
0.638035 0.0189996 0.
0.640039 0.0189978 0.
0.642044 0.0189953 0.
0.644049 0.0189929 0.
0.646058 0.0189877 0.
0.648067 0.0189819 0.
0.650076 0.0189757 0.
0.652102 0.0189594 0.
0.654128 0.0189431 0.
0.656164 0.0189205 0.
0.658227 0.0188813 0.
0.66029 0.0188423 0.
0.66238 0.0187982 0.
0.664491 0.0187491 0.
0.666601 0.0187004 0.
0.668883 0.0185296 0.
0.671176 0.0183514 0.
0.673518 0.0181458 0.
0.675977 0.0178312 0.
0.678464 0.0175103 0.
0.681299 0.0170176 0.
0.684201 0.0164952 0.
0.68734 0.0156394 0.
0.690581 0.0147292 0.
0.69437 0.0136305 0.
0.698747 0.012226 0.
0.703403 0.0106225 0.
0.708859 0.0084824 0.
0.714526 0.0061179 0.
0.721334 0.00409391 0.
0.728376 0.0017397 0.
0.466359 0.00144033 0.
0.473864 0.00394982 0.
0.481048 0.00597311 0.
0.486751 0.00830736 0.
0.492408 0.0105405 0.
0.497378 0.0126638 0.
0.502001 0.0144296 0.
0.506101 0.0157271 0.
0.50967 0.0168047 0.
0.512881 0.0177033 0.
0.51601 0.0185308 0.
0.518814 0.0190414 0.
0.521585 0.0195312 0.
0.524077 0.0198416 0.
0.526534 0.0201437 0.
0.528861 0.0203413 0.
0.531134 0.0205152 0.
0.533393 0.0206828 0.
0.535501 0.0207308 0.
0.537611 0.0207793 0.
0.539701 0.0208249 0.
0.541766 0.0208686 0.
0.543831 0.0209126 0.
0.545868 0.0209379 0.
0.547894 0.0209558 0.
0.549921 0.0209739 0.
0.55193 0.0209804 0.
0.55394 0.0209866 0.
0.555948 0.020992 0.
0.557954 0.0209948 0.
0.559959 0.0209975 0.
0.561964 0.0209996 0.
0.563967 0.0210008 0.
0.565971 0.0210019 0.
0.567973 0.0210028 0.
0.569976 0.0210035 0.
0.571979 0.0210042 0.
0.57398 0.021005 0.
0.575981 0.0210059 0.
0.577982 0.0210067 0.
0.579984 0.0210071 0.
0.581986 0.0210074 0.
0.583988 0.0210078 0.
0.585989 0.0210082 0.
0.587991 0.0210086 0.
0.589992 0.0210085 0.
0.591993 0.021008 0.
0.593995 0.0210075 0.
0.595996 0.0210081 0.
0.597998 0.021009 0.
0.6 0.02101 0.
0.602003 0.0210094 0.
0.604005 0.0210087 0.
0.606007 0.0210082 0.
0.608008 0.0210083 0.
0.61001 0.0210083 0.
0.612011 0.0210082 0.
0.614013 0.0210077 0.
0.616015 0.0210073 0.
0.618016 0.0210069 0.
0.620018 0.0210064 0.
0.62202 0.021006 0.
0.624021 0.0210051 0.
0.626022 0.0210042 0.
0.628024 0.0210033 0.
0.630026 0.0210023 0.
0.632029 0.0210013 0.
0.634032 0.0210001 0.
0.636036 0.0209984 0.
0.63804 0.0209968 0.
0.640046 0.020994 0.
0.642053 0.0209903 0.
0.64406 0.0209867 0.
0.646072 0.0209786 0.
0.648085 0.0209694 0.
0.650099 0.0209596 0.
0.652136 0.020935 0.
0.654172 0.0209106 0.
0.656221 0.0208784 0.
0.658303 0.0208268 0.
0.660383 0.0207755 0.
0.662503 0.0207141 0.
0.664649 0.0206466 0.
0.666795 0.0205794 0.
0.669152 0.0203417 0.
0.671516 0.0201045 0.
0.673949 0.019829 0.
0.676482 0.0194632 0.
0.679119 0.0190517 0.
0.682071 0.0184319 0.
0.685187 0.0176713 0.
0.688464 0.0166247 0.
0.691967 0.0155253 0.
0.69588 0.0143121 0.
0.700484 0.0127042 0.
0.705442 0.0107348 0.
0.711098 0.00842946 0.
0.717009 0.00600011 0.
0.724638 0.00402402 0.
0.732619 0.00149409 0.
0.460938 0.00119055 0.
0.470434 0.00384643 0.
0.478408 0.00579824 0.
0.484434 0.00825117 0.
0.490326 0.0105569 0.
0.49549 0.0128501 0.
0.500425 0.0149144 0.
0.504718 0.0164446 0.
0.508462 0.017722 0.
0.51194 0.0188342 0.
0.51523 0.0198127 0.
0.518183 0.0204444 0.
0.52104 0.0209987 0.
0.523643 0.021403 0.
0.526162 0.0217851 0.
0.528569 0.0220749 0.
0.530893 0.0223232 0.
0.533213 0.02257 0.
0.535355 0.0226323 0.
0.537497 0.0226933 0.
0.539614 0.0227526 0.
0.541694 0.0228114 0.
0.543774 0.0228707 0.
0.545824 0.0229063 0.
0.547861 0.0229319 0.
0.549898 0.0229576 0.
0.551912 0.0229677 0.
0.553925 0.0229771 0.
0.555938 0.0229855 0.
0.557945 0.0229895 0.
0.559953 0.0229935 0.
0.561959 0.0229965 0.
0.563963 0.0229981 0.
0.565967 0.0229997 0.
0.56797 0.0230009 0.
0.569973 0.0230019 0.
0.571976 0.0230028 0.
0.573978 0.0230038 0.
0.575979 0.0230047 0.
0.57798 0.0230056 0.
0.579982 0.023006 0.
0.581984 0.0230065 0.
0.583986 0.0230069 0.
0.585988 0.0230073 0.
0.58799 0.0230078 0.
0.589992 0.0230078 0.
0.591993 0.0230074 0.
0.593995 0.0230071 0.
0.595996 0.0230077 0.
0.597998 0.0230085 0.
0.6 0.0230093 0.
0.602003 0.0230087 0.
0.604005 0.0230082 0.
0.606007 0.0230077 0.
0.608009 0.0230076 0.
0.61001 0.0230074 0.
0.612012 0.0230072 0.
0.614014 0.0230067 0.
0.616016 0.0230063 0.
0.618018 0.0230058 0.
0.62002 0.0230053 0.
0.622022 0.0230048 0.
0.624023 0.0230038 0.
0.626024 0.0230028 0.
0.628026 0.0230018 0.
0.630029 0.0230004 0.
0.632033 0.0229991 0.
0.634037 0.0229974 0.
0.636041 0.0229951 0.
0.638046 0.0229928 0.
0.640054 0.0229887 0.
0.642064 0.0229833 0.
0.644074 0.0229779 0.
0.646091 0.0229659 0.
0.648109 0.0229524 0.
0.650129 0.0229379 0.
0.652179 0.0229023 0.
0.654229 0.0228669 0.
0.656295 0.0228225 0.
0.658396 0.0227568 0.
0.660496 0.0226916 0.
0.662656 0.0226009 0.
0.664846 0.0224991 0.
0.667049 0.0223898 0.
0.669457 0.0220699 0.
0.671864 0.0217555 0.
0.674407 0.0213848 0.
0.677022 0.0209533 0.
0.679795 0.0204256 0.
0.682779 0.0197651 0.
0.68612 0.0187669 0.
0.689551 0.0175541 0.
0.693315 0.0162572 0.
0.697526 0.0147825 0.
0.7023 0.0130323 0.
0.707455 0.0107552 0.
0.713353 0.00836068 0.
0.7196 0.00590421 0.
0.727953 0.00394346 0.
0.738035 0.00117766 0.
0.453898 0.00106878 0.
0.467137 0.00373223 0.
0.475776 0.00572072 0.
0.482294 0.0081941 0.
0.488414 0.0105804 0.
0.493677 0.0129806 0.
0.498718 0.0152077 0.
0.503206 0.0169538 0.
0.507256 0.0185535 0.
0.510962 0.0198273 0.
0.514278 0.0208693 0.
0.517446 0.0217305 0.
0.520427 0.0224071 0.
0.523187 0.0229447 0.
0.525774 0.0234101 0.
0.528269 0.0237985 0.
0.530645 0.0241222 0.
0.533024 0.0244499 0.
0.535206 0.0245328 0.
0.53738 0.0246065 0.
0.539526 0.0246796 0.
0.541621 0.0247536 0.
0.543717 0.0248283 0.
0.54578 0.0248745 0.
0.547827 0.0249078 0.
0.549875 0.0249413 0.
0.551894 0.024955 0.
0.553911 0.0249677 0.
0.555927 0.024979 0.
0.557937 0.0249842 0.
0.559946 0.0249895 0.
0.561954 0.0249934 0.
0.563958 0.0249955 0.
0.565963 0.0249976 0.
0.567967 0.0249991 0.
0.569971 0.0250003 0.
0.571974 0.0250015 0.
0.573976 0.0250025 0.
0.575977 0.0250035 0.
0.577979 0.0250045 0.
0.579981 0.025005 0.
0.581983 0.0250056 0.
0.583985 0.0250061 0.
0.585987 0.0250065 0.
0.58799 0.0250069 0.
0.589992 0.025007 0.
0.591993 0.0250069 0.
0.593995 0.0250067 0.
0.595997 0.0250072 0.
0.597999 0.0250079 0.
0.6 0.0250086 0.
0.602003 0.0250081 0.
0.604005 0.0250076 0.
0.606007 0.0250071 0.
0.608009 0.0250068 0.
0.610011 0.0250066 0.
0.612012 0.0250062 0.
0.614015 0.0250057 0.
0.616017 0.0250052 0.
0.618019 0.0250047 0.
0.620021 0.0250042 0.
0.622024 0.0250036 0.
0.624025 0.0250025 0.
0.626027 0.0250014 0.
0.628028 0.0250002 0.
0.630032 0.0249986 0.
0.632036 0.0249969 0.
0.634041 0.0249948 0.
0.636047 0.0249917 0.
0.638053 0.0249887 0.
0.640063 0.0249833 0.
0.642075 0.0249762 0.
0.644088 0.0249691 0.
0.64611 0.0249532 0.
0.648133 0.0249354 0.
0.650159 0.024916 0.
0.652223 0.0248693 0.
0.654286 0.0248229 0.
0.656369 0.0247662 0.
0.65849 0.0246864 0.
0.66061 0.0246071 0.
0.662812 0.0244841 0.
0.665049 0.0243473 0.
0.667312 0.0241901 0.
0.66977 0.0237872 0.
0.672221 0.023395 0.
0.674898 0.0229197 0.
0.67762 0.0224072 0.
0.680594 0.0216656 0.
0.683668 0.0208576 0.
0.687099 0.019718 0.
0.690722 0.0183832 0.
0.694651 0.0169248 0.
0.699208 0.0151303 0.
0.704124 0.0132111 0.
0.709492 0.0107234 0.
0.715573 0.00823704 0.
0.722215 0.00586379 0.
0.731251 0.00389804 0.
0.745474 0.00107419 0.
0.447318 0.00129152 0.
0.464058 0.00362278 0.
0.473192 0.00571404 0.
0.480259 0.00809954 0.
0.486446 0.0106082 0.
0.491868 0.0130506 0.
0.496994 0.0153855 0.
0.501671 0.017351 0.
0.506057 0.019292 0.
0.509796 0.0206598 0.
0.513278 0.0218547 0.
0.516668 0.0229791 0.
0.519763 0.023767 0.
0.522699 0.0244484 0.
0.525332 0.0249808 0.
0.527889 0.0254534 0.
0.530295 0.0258244 0.
0.532716 0.0262018 0.
0.534961 0.0263394 0.
0.537182 0.0264543 0.
0.539373 0.0265635 0.
0.541491 0.0266526 0.
0.543611 0.0267425 0.
0.545696 0.0268051 0.
0.547762 0.0268541 0.
0.54983 0.0269037 0.
0.551857 0.0269252 0.
0.553882 0.0269449 0.
0.555905 0.0269625 0.
0.557919 0.0269707 0.
0.559933 0.0269789 0.
0.561944 0.0269852 0.
0.563951 0.0269891 0.
0.565958 0.026993 0.
0.567963 0.0269957 0.
0.569967 0.0269977 0.
0.571972 0.0269997 0.
0.573974 0.027001 0.
0.575975 0.0270021 0.
0.577977 0.0270033 0.
0.579979 0.0270038 0.
0.581982 0.0270044 0.
0.583984 0.027005 0.
0.585987 0.0270055 0.
0.587989 0.027006 0.
0.589991 0.0270063 0.
0.591993 0.0270063 0.
0.593995 0.0270064 0.
0.595997 0.0270069 0.
0.597999 0.0270076 0.
0.6 0.0270082 0.
0.602003 0.0270076 0.
0.604005 0.027007 0.
0.606007 0.0270065 0.
0.608009 0.0270062 0.
0.610011 0.0270058 0.
0.612013 0.0270053 0.
0.614016 0.0270048 0.
0.616018 0.0270042 0.
0.618021 0.0270036 0.
0.620023 0.027003 0.
0.622025 0.0270024 0.
0.624027 0.027001 0.
0.626029 0.0269994 0.
0.628032 0.0269978 0.
0.630036 0.0269951 0.
0.632041 0.0269924 0.
0.634047 0.0269887 0.
0.636056 0.0269831 0.
0.638065 0.0269775 0.
0.64008 0.026969 0.
0.642098 0.0269583 0.
0.644117 0.0269477 0.
0.646148 0.0269237 0.
0.648182 0.0268969 0.
0.65022 0.0268672 0.
0.652306 0.0268008 0.
0.654391 0.0267352 0.
0.656502 0.026659 0.
0.658657 0.0265611 0.
0.660809 0.0264646 0.
0.663063 0.0262911 0.
0.665346 0.026104 0.
0.667677 0.0258761 0.
0.670166 0.0254196 0.
0.672644 0.0249781 0.
0.675441 0.0244183 0.
0.678285 0.0238053 0.
0.68144 0.0228368 0.
0.684696 0.0218191 0.
0.6882 0.0205187 0.
0.69194 0.0190994 0.
0.696125 0.0174018 0.
0.700853 0.0154346 0.
0.705856 0.0133397 0.
0.711405 0.0106995 0.
0.717676 0.00814145 0.
0.724748 0.00584195 0.
0.734228 0.0037419 0.
0.752865 0.00142913 0.
0.442604 0.00171105 0.
0.461199 0.00353189 0.
0.470709 0.00572215 0.
0.478208 0.00801751 0.
0.484495 0.0106088 0.
0.49009 0.0130905 0.
0.495292 0.0155249 0.
0.500174 0.0176901 0.
0.50477 0.0198821 0.
0.508531 0.0213733 0.
0.512247 0.0227626 0.
0.5158 0.0240966 0.
0.518995 0.0250108 0.
0.522029 0.0258105 0.
0.524707 0.0264208 0.
0.527399 0.027037 0.
0.529876 0.0274735 0.
0.53236 0.0279094 0.
0.534687 0.0281183 0.
0.536964 0.0282852 0.
0.539209 0.0284414 0.
0.541354 0.0285467 0.
0.543501 0.0286531 0.
0.545609 0.0287331 0.
0.547696 0.0287988 0.
0.549783 0.0288652 0.
0.55182 0.028895 0.
0.553853 0.0289219 0.
0.555883 0.028946 0.
0.557902 0.0289571 0.
0.55992 0.0289682 0.
0.561935 0.0289771 0.
0.563944 0.0289828 0.
0.565953 0.0289885 0.
0.567959 0.0289923 0.
0.569964 0.0289951 0.
0.571969 0.0289979 0.
0.573971 0.0289994 0.
0.575973 0.0290008 0.
0.577975 0.0290021 0.
0.579978 0.0290027 0.
0.581981 0.0290033 0.
0.583983 0.0290039 0.
0.585986 0.0290046 0.
0.587989 0.0290052 0.
0.589991 0.0290056 0.
0.591993 0.0290058 0.
0.593995 0.029006 0.
0.595997 0.0290066 0.
0.597999 0.0290072 0.
0.6 0.0290078 0.
0.602003 0.0290072 0.
0.604005 0.0290065 0.
0.606007 0.0290059 0.
0.608009 0.0290055 0.
0.610012 0.029005 0.
0.612014 0.0290045 0.
0.614017 0.0290038 0.
0.616019 0.0290032 0.
0.618022 0.0290025 0.
0.620025 0.0290018 0.
0.622027 0.0290011 0.
0.62403 0.0289994 0.
0.626032 0.0289975 0.
0.628035 0.0289953 0.
0.63004 0.0289916 0.
0.632046 0.0289878 0.
0.634054 0.0289825 0.
0.636066 0.0289744 0.
0.638078 0.0289663 0.
0.640097 0.0289545 0.
0.642122 0.0289403 0.
0.644146 0.028926 0.
0.646188 0.0288936 0.
0.648233 0.0288576 0.
0.650284 0.0288169 0.
0.652392 0.0287298 0.
0.6545 0.0286437 0.
0.656644 0.028546 0.
0.658839 0.0284271 0.
0.66103 0.0283098 0.
0.663346 0.0280724 0.
0.665684 0.0278245 0.
0.66811 0.0275034 0.
0.670672 0.026968 0.
0.673277 0.026421 0.
0.676136 0.0257594 0.
0.679074 0.0250243 0.
0.682325 0.0239177 0.
0.685782 0.0226897 0.
0.689352 0.0212525 0.
0.693215 0.0197171 0.
0.697634 0.0177668 0.
0.702542 0.015667 0.
0.707614 0.0133607 0.
0.713292 0.0106716 0.
0.719691 0.00810348 0.
0.727173 0.0058413 0.
0.736896 0.00354807 0.
0.757221 0.00189316 0.
0.439945 0.00215547 0.
0.458587 0.00345238 0.
0.468281 0.00571778 0.
0.476183 0.00796327 0.
0.482597 0.0106087 0.
0.48838 0.013126 0.
0.493638 0.0156386 0.
0.498666 0.0179455 0.
0.503239 0.0201889 0.
0.507229 0.0219857 0.
0.511204 0.0235918 0.
0.514802 0.0250021 0.
0.518067 0.0260825 0.
0.52121 0.0270574 0.
0.524053 0.0278238 0.
0.526871 0.0285826 0.
0.529453 0.0291106 0.
0.532003 0.0296007 0.
0.534416 0.0298799 0.
0.536742 0.0300973 0.
0.539041 0.0303063 0.
0.54121 0.0304265 0.
0.543382 0.0305482 0.
0.545515 0.0306465 0.
0.54762 0.0307309 0.
0.549726 0.0308167 0.
0.551774 0.0308569 0.
0.553817 0.0308925 0.
0.555856 0.0309247 0.
0.55788 0.0309393 0.
0.559903 0.030954 0.
0.561922 0.0309659 0.
0.563934 0.030974 0.
0.565946 0.030982 0.
0.567954 0.0309874 0.
0.56996 0.0309914 0.
0.571966 0.0309954 0.
0.573969 0.0309973 0.
0.575971 0.0309989 0.
0.577974 0.0310004 0.
0.579977 0.0310011 0.
0.58198 0.0310018 0.
0.583982 0.0310026 0.
0.585985 0.0310033 0.
0.587988 0.0310041 0.
0.58999 0.0310046 0.
0.591992 0.0310049 0.
0.593995 0.0310053 0.
0.595997 0.0310058 0.
0.597999 0.0310064 0.
0.6 0.0310071 0.
0.602003 0.0310063 0.
0.604005 0.0310056 0.
0.606007 0.0310049 0.
0.60801 0.0310044 0.
0.610012 0.0310039 0.
0.612015 0.0310033 0.
0.614017 0.0310026 0.
0.61602 0.0310019 0.
0.618023 0.031001 0.
0.620026 0.0310001 0.
0.622029 0.0309992 0.
0.624032 0.030997 0.
0.626035 0.0309946 0.
0.628039 0.0309919 0.
0.630046 0.0309867 0.
0.632053 0.0309814 0.
0.634063 0.030974 0.
0.636079 0.0309626 0.
0.638095 0.0309513 0.
0.64012 0.0309358 0.
0.64215 0.0309173 0.
0.64418 0.0308989 0.
0.646234 0.0308554 0.
0.648292 0.0308076 0.
0.650358 0.0307532 0.
0.652488 0.030645 0.
0.654616 0.0305381 0.
0.656794 0.0304158 0.
0.659025 0.0302746 0.
0.661253 0.0301376 0.
0.663629 0.0298381 0.
0.66602 0.0295299 0.
0.668549 0.0291101 0.
0.671188 0.0284976 0.
0.673944 0.027822 0.
0.676896 0.027024 0.
0.680009 0.0260428 0.
0.68325 0.0248709 0.
0.686877 0.0234956 0.
0.690606 0.0218752 0.
0.694549 0.020232 0.
0.69916 0.0180387 0.
0.704201 0.0158345 0.
0.709391 0.0133249 0.
0.715174 0.0106198 0.
0.721708 0.00809625 0.
0.729511 0.00590165 0.
0.739406 0.00339149 0.
0.758708 0.00237985 0.
0.438619 0.00267337 0.
0.456169 0.00344632 0.
0.465929 0.0057599 0.
0.474111 0.00796049 0.
0.480724 0.0105272 0.
0.486698 0.0131878 0.
0.491995 0.0156971 0.
0.497122 0.0181427 0.
0.501758 0.0204499 0.
0.505962 0.0225477 0.
0.51007 0.0243116 0.
0.513715 0.0257686 0.
0.517168 0.0271128 0.
0.520406 0.0282444 0.
0.52343 0.0291852 0.
0.526344 0.0300377 0.
0.529018 0.0306397 0.
0.531618 0.0311704 0.
0.534112 0.0315423 0.
0.536488 0.0318408 0.
0.538853 0.032136 0.
0.54105 0.0322753 0.
0.54325 0.0324161 0.
0.545409 0.0325371 0.
0.547531 0.0326455 0.
0.549656 0.0327555 0.
0.551718 0.0328092 0.
0.553772 0.0328557 0.
0.555823 0.0328981 0.
0.557853 0.032917 0.
0.559882 0.032936 0.
0.561906 0.0329517 0.
0.563922 0.0329625 0.
0.565937 0.0329734 0.
0.567947 0.0329809 0.
0.569955 0.0329865 0.
0.571962 0.032992 0.
0.573966 0.0329944 0.
0.575969 0.0329964 0.
0.577972 0.0329982 0.
0.579975 0.0329991 0.
0.581978 0.0330001 0.
0.583982 0.033001 0.
0.585984 0.0330018 0.
0.587987 0.0330026 0.
0.58999 0.0330032 0.
0.591992 0.0330037 0.
0.593994 0.0330042 0.
0.595996 0.0330048 0.
0.597998 0.0330053 0.
0.6 0.0330059 0.
0.602003 0.0330051 0.
0.604005 0.0330043 0.
0.606008 0.0330036 0.
0.60801 0.033003 0.
0.610013 0.0330024 0.
0.612015 0.0330017 0.
0.614018 0.033001 0.
0.616021 0.0330003 0.
0.618024 0.0329992 0.
0.620028 0.032998 0.
0.622031 0.0329967 0.
0.624035 0.0329939 0.
0.626039 0.0329909 0.
0.628044 0.0329874 0.
0.630053 0.0329802 0.
0.632062 0.032973 0.
0.634075 0.0329629 0.
0.636096 0.0329476 0.
0.638116 0.0329323 0.
0.640147 0.0329122 0.
0.642184 0.0328888 0.
0.644221 0.0328655 0.
0.646291 0.0328072 0.
0.648364 0.0327437 0.
0.650448 0.0326713 0.
0.652599 0.0325392 0.
0.654748 0.0324088 0.
0.656961 0.0322465 0.
0.659228 0.0320592 0.
0.6615 0.0318723 0.
0.663947 0.0315038 0.
0.666389 0.0311369 0.
0.669005 0.0306125 0.
0.671671 0.0299624 0.
0.674577 0.029168 0.
0.677617 0.0282557 0.
0.680915 0.0270165 0.
0.684285 0.0257096 0.
0.687949 0.0242471 0.
0.691864 0.022436 0.
0.695989 0.0205505 0.
0.700652 0.0182812 0.
0.705845 0.0159605 0.
0.711083 0.0133045 0.
0.716974 0.0105813 0.
0.723683 0.0080861 0.
0.731812 0.00600223 0.
0.741738 0.00335816 0.
0.759398 0.00295811 0.
0.438543 0.00326693 0.
0.454132 0.00356813 0.
0.46382 0.00587254 0.
0.472181 0.00798794 0.
0.478963 0.0104915 0.
0.485052 0.0132286 0.
0.490403 0.0157611 0.
0.495648 0.0183194 0.
0.500347 0.0206977 0.
0.504693 0.0230452 0.
0.508808 0.0248983 0.
0.512635 0.0264937 0.
0.516274 0.0280849 0.
0.51959 0.0293361 0.
0.522731 0.0304017 0.
0.52568 0.0313361 0.
0.528506 0.032095 0.
0.531193 0.0327089 0.
0.533795 0.0331915 0.
0.536226 0.0335733 0.
0.538657 0.0339599 0.
0.540888 0.0341226 0.
0.543116 0.0342827 0.
0.545301 0.0344264 0.
0.547442 0.0345589 0.
0.549584 0.0346934 0.
0.551661 0.0347613 0.
0.553728 0.0348188 0.
0.555791 0.0348714 0.
0.557826 0.0348946 0.
0.559861 0.0349179 0.
0.56189 0.0349373 0.
0.563909 0.0349511 0.
0.565928 0.0349648 0.
0.567941 0.0349744 0.
0.56995 0.0349815 0.
0.571958 0.0349887 0.
0.573963 0.0349916 0.
0.575967 0.0349939 0.
0.577971 0.034996 0.
0.579974 0.0349972 0.
0.581977 0.0349983 0.
0.583981 0.0349993 0.
0.585984 0.0350002 0.
0.587987 0.0350011 0.
0.589989 0.0350019 0.
0.591991 0.0350025 0.
0.593994 0.0350031 0.
0.595996 0.0350037 0.
0.597998 0.0350042 0.
0.6 0.0350048 0.
0.602003 0.035004 0.
0.604006 0.0350031 0.
0.606008 0.0350023 0.
0.608011 0.0350016 0.
0.610013 0.0350008 0.
0.612016 0.0350001 0.
0.614019 0.0349994 0.
0.616022 0.0349987 0.
0.618026 0.0349973 0.
0.62003 0.0349958 0.
0.622033 0.0349942 0.
0.624038 0.0349908 0.
0.626044 0.0349872 0.
0.628049 0.0349829 0.
0.63006 0.0349738 0.
0.632071 0.0349646 0.
0.634087 0.0349518 0.
0.636112 0.0349325 0.
0.638137 0.0349133 0.
0.640174 0.0348886 0.
0.642219 0.0348603 0.
0.644263 0.034832 0.
0.646347 0.0347585 0.
0.648436 0.0346791 0.
0.650539 0.0345884 0.
0.652711 0.0344323 0.
0.654881 0.0342782 0.
0.657131 0.0340721 0.
0.659435 0.0338379 0.
0.66176 0.0335999 0.
0.664281 0.0331574 0.
0.666788 0.0327204 0.
0.669536 0.0320492 0.
0.672286 0.0313005 0.
0.675288 0.0303734 0.
0.678365 0.029389 0.
0.681816 0.0279381 0.
0.685359 0.0264859 0.
0.688999 0.0249506 0.
0.693098 0.0229469 0.
0.69743 0.0207982 0.
0.702163 0.0185035 0.
0.707444 0.0160134 0.
0.712703 0.0132993 0.
0.718711 0.0105922 0.
0.725552 0.00812009 0.
0.733881 0.0061172 0.
0.743651 0.00347911 0.
0.75931 0.00360639 0.
0.439031 0.00391847 0.
0.452516 0.00382735 0.
0.462023 0.00603961 0.
0.470425 0.00806381 0.
0.477343 0.0105173 0.
0.483551 0.0133126 0.
0.48895 0.0158744 0.
0.49428 0.0185208 0.
0.499013 0.0209376 0.
0.50342 0.0234277 0.
0.507544 0.0254031 0.
0.511575 0.0271898 0.
0.515315 0.0289189 0.
0.518709 0.0302956 0.
0.521959 0.0315478 0.
0.524985 0.0325993 0.
0.527971 0.0335281 0.
0.530736 0.0342185 0.
0.53345 0.0348119 0.
0.535911 0.0352514 0.
0.538379 0.0357067 0.
0.540654 0.035909 0.
0.542916 0.0360981 0.
0.545137 0.0362729 0.
0.547301 0.0364272 0.
0.549468 0.0365836 0.
0.551568 0.0366743 0.
0.553656 0.0367532 0.
0.555738 0.0368265 0.
0.557781 0.0368547 0.
0.559824 0.0368829 0.
0.56186 0.0369078 0.
0.563886 0.0369277 0.
0.565912 0.0369477 0.
0.567928 0.0369612 0.
0.56994 0.036971 0.
0.571951 0.0369809 0.
0.573958 0.0369852 0.
0.575963 0.0369887 0.
0.577968 0.0369921 0.
0.579972 0.0369939 0.
0.581976 0.0369957 0.
0.58398 0.0369973 0.
0.585983 0.0369984 0.
0.587986 0.0369996 0.
0.589989 0.0370006 0.
0.591991 0.0370014 0.
0.593994 0.0370022 0.
0.595996 0.0370026 0.
0.597998 0.037003 0.
0.6 0.0370034 0.
0.602003 0.0370026 0.
0.604006 0.0370018 0.
0.606008 0.037001 0.
0.608011 0.0370002 0.
0.610014 0.0369993 0.
0.612016 0.0369983 0.
0.61402 0.0369971 0.
0.616023 0.0369959 0.
0.618028 0.0369939 0.
0.620032 0.0369915 0.
0.622037 0.0369892 0.
0.624044 0.0369842 0.
0.626051 0.0369791 0.
0.628059 0.0369729 0.
0.630073 0.0369602 0.
0.632088 0.0369475 0.
0.63411 0.0369295 0.
0.636143 0.0369024 0.
0.638176 0.0368755 0.
0.640221 0.0368448 0.
0.642274 0.0368115 0.
0.644327 0.0367782 0.
0.646438 0.0366755 0.
0.648553 0.0365671 0.
0.650684 0.0364494 0.
0.65288 0.0362753 0.
0.655071 0.0361033 0.
0.657368 0.035845 0.
0.659707 0.0355605 0.
0.662085 0.0352667 0.
0.664642 0.0347788 0.
0.667233 0.0342633 0.
0.670097 0.0334536 0.
0.67297 0.0325814 0.
0.676086 0.0314733 0.
0.679245 0.0303083 0.
0.682709 0.0288108 0.
0.686438 0.0272005 0.
0.69019 0.025466 0.
0.694274 0.0234298 0.
0.698805 0.0210358 0.
0.703643 0.018701 0.
0.708951 0.0160595 0.
0.714263 0.0133333 0.
0.720319 0.0106555 0.
0.727271 0.00822299 0.
0.735641 0.00623103 0.
0.745182 0.0037374 0.
0.758877 0.00427827 0.
0.439701 0.00462837 0.
0.451346 0.00419881 0.
0.460498 0.00626328 0.
0.46885 0.0082173 0.
0.475864 0.0105952 0.
0.482177 0.0134388 0.
0.487576 0.0160198 0.
0.492963 0.0187187 0.
0.497719 0.0211643 0.
0.502163 0.0237314 0.
0.506309 0.0258702 0.
0.510508 0.0278519 0.
0.514298 0.0296382 0.
0.517777 0.0311764 0.
0.521114 0.0326192 0.
0.524263 0.0338009 0.
0.527388 0.0348861 0.
0.530178 0.0356119 0.
0.532968 0.0363023 0.
0.535491 0.0368299 0.
0.538019 0.037378 0.
0.540368 0.0376546 0.
0.542678 0.0378889 0.
0.54495 0.0381068 0.
0.547145 0.0382852 0.
0.549343 0.038466 0.
0.55147 0.0385821 0.
0.55358 0.0386845 0.
0.555685 0.0387807 0.
0.557735 0.038814 0.
0.559786 0.0388473 0.
0.56183 0.0388778 0.
0.563862 0.038904 0.
0.565895 0.0389303 0.
0.567916 0.0389479 0.
0.56993 0.0389605 0.
0.571945 0.038973 0.
0.573952 0.0389788 0.
0.575959 0.0389836 0.
0.577965 0.0389881 0.
0.57997 0.0389906 0.
0.581975 0.038993 0.
0.583979 0.0389952 0.
0.585982 0.0389967 0.
0.587985 0.0389981 0.
0.589988 0.0389993 0.
0.591991 0.0390003 0.
0.593994 0.0390012 0.
0.595996 0.0390016 0.
0.597998 0.0390018 0.
0.6 0.039002 0.
0.602003 0.0390013 0.
0.604006 0.0390006 0.
0.606008 0.0389998 0.
0.608011 0.0389988 0.
0.610014 0.0389978 0.
0.612017 0.0389965 0.
0.614021 0.0389948 0.
0.616025 0.0389931 0.
0.61803 0.0389904 0.
0.620035 0.0389873 0.
0.622041 0.0389841 0.
0.624049 0.0389776 0.
0.626058 0.0389708 0.
0.628068 0.0389628 0.
0.630087 0.0389465 0.
0.632106 0.0389302 0.
0.634133 0.0389069 0.
0.636174 0.0388718 0.
0.638215 0.038837 0.
0.640269 0.0388001 0.
0.642331 0.0387616 0.
0.644393 0.0387232 0.
0.646534 0.0385874 0.
0.648679 0.0384465 0.
0.650842 0.0382987 0.
0.653069 0.0381031 0.
0.655292 0.0379098 0.
0.657659 0.03758 0.
0.660061 0.0372283 0.
0.662537 0.0368364 0.
0.665155 0.0362496 0.
0.667813 0.0356343 0.
0.670692 0.0347886 0.
0.673698 0.0337814 0.
0.676898 0.0325208 0.
0.680205 0.0311233 0.
0.683637 0.029598 0.
0.687485 0.0278671 0.
0.691387 0.0259238 0.
0.695452 0.0238412 0.
0.700111 0.0212733 0.
0.704997 0.0189176 0.
0.710347 0.0161491 0.
0.715706 0.013416 0.
0.721807 0.0107787 0.
0.728832 0.00839766 0.
0.737156 0.00638861 0.
0.746365 0.00409267 0.
0.758262 0.00501481 0.
0.440322 0.00539953 0.
0.450446 0.00465236 0.
0.459216 0.00653493 0.
0.467447 0.0084337 0.
0.474489 0.010735 0.
0.480842 0.0135542 0.
0.486264 0.0161904 0.
0.491672 0.0189065 0.
0.496427 0.0213882 0.
0.500937 0.0240093 0.
0.505109 0.026302 0.
0.509371 0.0284153 0.
0.513209 0.0302519 0.
0.516835 0.0320129 0.
0.520241 0.0335969 0.
0.523522 0.0349182 0.
0.526638 0.0360475 0.
0.529556 0.0369225 0.
0.532442 0.0377455 0.
0.535065 0.038392 0.
0.537651 0.0390321 0.
0.54008 0.0393921 0.
0.54244 0.0396707 0.
0.544766 0.0399345 0.
0.546987 0.040132 0.
0.549214 0.0403341 0.
0.551368 0.0404767 0.
0.553499 0.0406053 0.
0.555625 0.0407287 0.
0.557684 0.0407671 0.
0.559743 0.0408056 0.
0.561795 0.0408419 0.
0.563834 0.0408751 0.
0.565873 0.0409085 0.
0.567899 0.040931 0.
0.569917 0.0409469 0.
0.571935 0.0409629 0.
0.573945 0.0409706 0.
0.575953 0.040977 0.
0.577961 0.0409831 0.
0.579967 0.0409863 0.
0.581972 0.0409896 0.
0.583977 0.0409924 0.
0.585981 0.0409943 0.
0.587985 0.0409961 0.
0.589988 0.0409976 0.
0.591991 0.0409987 0.
0.593993 0.0409999 0.
0.595996 0.0410003 0.
0.597998 0.0410004 0.
0.6 0.0410006 0.
0.602003 0.0409998 0.
0.604006 0.0409991 0.
0.606009 0.0409983 0.
0.608012 0.040997 0.
0.610015 0.0409958 0.
0.612018 0.0409941 0.
0.614022 0.0409918 0.
0.616027 0.0409895 0.
0.618033 0.040986 0.
0.62004 0.0409819 0.
0.622047 0.0409778 0.
0.624057 0.0409693 0.
0.626067 0.0409603 0.
0.62808 0.0409498 0.
0.630104 0.0409289 0.
0.632128 0.0409081 0.
0.634161 0.0408788 0.
0.63621 0.0408358 0.
0.638259 0.040793 0.
0.640323 0.0407482 0.
0.642396 0.0407021 0.
0.644468 0.0406562 0.
0.646637 0.0404855 0.
0.648807 0.0403118 0.
0.651002 0.0401351 0.
0.653257 0.0399238 0.
0.655509 0.0397122 0.
0.657955 0.0393032 0.
0.660421 0.0388841 0.
0.663004 0.0383825 0.
0.665693 0.0376899 0.
0.668481 0.0369125 0.
0.671421 0.035964 0.
0.674459 0.0348624 0.
0.677701 0.033521 0.
0.681167 0.0319003 0.
0.684698 0.0302601 0.
0.688532 0.0284824 0.
0.692582 0.0263399 0.
0.696723 0.0241182 0.
0.701431 0.0215106 0.
0.706298 0.0191251 0.
0.711665 0.0162654 0.
0.717035 0.0135481 0.
0.723209 0.0109261 0.
0.730256 0.00864629 0.
0.738463 0.00659929 0.
0.747299 0.00452853 0.
0.757721 0.00576509 0.
0.440782 0.00623331 0.
0.449823 0.00519059 0.
0.458141 0.00685778 0.
0.466209 0.0087098 0.
0.473211 0.0109239 0.
0.47956 0.01368 0.
0.485 0.0163746 0.
0.490401 0.0190949 0.
0.495158 0.0216173 0.
0.499764 0.0242941 0.
0.503931 0.0266801 0.
0.508189 0.028886 0.
0.512124 0.0308358 0.
0.515899 0.0327968 0.
0.51938 0.0344811 0.
0.522699 0.0359168 0.
0.525881 0.0371703 0.
0.52895 0.0382062 0.
0.531926 0.0391479 0.
0.534652 0.0399045 0.
0.537254 0.0405882 0.
0.539755 0.0410397 0.
0.542161 0.0413711 0.
0.544545 0.0416944 0.
0.546803 0.0419258 0.
0.54907 0.0421634 0.
0.551256 0.0423442 0.
0.553407 0.0425081 0.
0.555556 0.0426678 0.
0.557625 0.0427118 0.
0.559694 0.0427559 0.
0.561754 0.0427986 0.
0.563801 0.04284 0.
0.565847 0.0428815 0.
0.567878 0.0429099 0.
0.569901 0.0429301 0.
0.571924 0.0429504 0.
0.573936 0.0429605 0.
0.575946 0.0429689 0.
0.577956 0.0429769 0.
0.579963 0.0429811 0.
0.58197 0.0429853 0.
0.583975 0.0429889 0.
0.58598 0.0429912 0.
0.587984 0.0429936 0.
0.589987 0.0429954 0.
0.59199 0.0429968 0.
0.593993 0.0429981 0.
0.595996 0.0429986 0.
0.597998 0.0429989 0.
0.6 0.0429991 0.
0.602003 0.0429982 0.
0.604006 0.0429973 0.
0.606009 0.0429963 0.
0.608012 0.0429948 0.
0.610015 0.0429933 0.
0.612019 0.0429911 0.
0.614025 0.042988 0.
0.61603 0.0429849 0.
0.618037 0.0429804 0.
0.620045 0.0429752 0.
0.622054 0.04297 0.
0.624066 0.042959 0.
0.626079 0.0429473 0.
0.628095 0.0429336 0.
0.630125 0.042907 0.
0.632154 0.0428805 0.
0.634194 0.0428444 0.
0.636252 0.0427932 0.
0.638309 0.0427422 0.
0.640387 0.042686 0.
0.642475 0.0426272 0.
0.644564 0.042567 0.
0.646754 0.0423554 0.
0.648944 0.0421422 0.
0.651186 0.041915 0.
0.653504 0.0416492 0.
0.655811 0.0413917 0.
0.658305 0.040929 0.
0.660802 0.0404663 0.
0.66346 0.0398709 0.
0.666214 0.0390976 0.
0.66914 0.0381656 0.
0.672146 0.037118 0.
0.675307 0.0358186 0.
0.678527 0.0344221 0.
0.682097 0.0326546 0.
0.685777 0.0308767 0.
0.689587 0.0290547 0.
0.69377 0.0267293 0.
0.698012 0.0243448 0.
0.702744 0.0217441 0.
0.70761 0.0192741 0.
0.712959 0.0163868 0.
0.718364 0.0137166 0.
0.724552 0.0110806 0.
0.731558 0.00894019 0.
0.739592 0.00687588 0.
0.748002 0.00505346 0.
0.757325 0.00654532 0.
0.44119 0.00706914 0.
0.449452 0.00578786 0.
0.457333 0.0072617 0.
0.465186 0.00907154 0.
0.47208 0.0111715 0.
0.478394 0.0138744 0.
0.483822 0.0165918 0.
0.489206 0.0193133 0.
0.493974 0.0218838 0.
0.498591 0.0245632 0.
0.502765 0.0270142 0.
0.50706 0.0293262 0.
0.511088 0.0314072 0.
0.514921 0.033473 0.
0.518464 0.0352601 0.
0.521861 0.0368846 0.
0.525111 0.0382534 0.
0.52833 0.0394309 0.
0.531307 0.0404241 0.
0.534103 0.0412963 0.
0.536779 0.0420751 0.
0.539394 0.0426568 0.
0.541861 0.0430542 0.
0.544317 0.0434498 0.
0.546615 0.0437165 0.
0.548921 0.0439899 0.
0.551142 0.0442095 0.
0.553315 0.044409 0.
0.555487 0.0446061 0.
0.557565 0.0446564 0.
0.559644 0.0447062 0.
0.561714 0.0447552 0.
0.563767 0.0448047 0.
0.56582 0.0448545 0.
0.567857 0.0448889 0.
0.569885 0.0449133 0.
0.571912 0.0449379 0.
0.573927 0.0449503 0.
0.575939 0.0449608 0.
0.577951 0.0449708 0.
0.579959 0.0449759 0.
0.581967 0.044981 0.
0.583974 0.0449853 0.
0.585978 0.0449882 0.
0.587983 0.0449911 0.
0.589986 0.0449933 0.
0.59199 0.0449948 0.
0.593993 0.0449963 0.
0.595995 0.0449969 0.
0.597998 0.0449973 0.
0.6 0.0449976 0.
0.602003 0.0449966 0.
0.604006 0.0449956 0.
0.60601 0.0449944 0.
0.608013 0.0449926 0.
0.610016 0.0449908 0.
0.612021 0.044988 0.
0.614027 0.0449842 0.
0.616032 0.0449803 0.
0.618041 0.0449749 0.
0.620051 0.0449686 0.
0.622061 0.0449623 0.
0.624076 0.0449487 0.
0.626092 0.0449343 0.
0.62811 0.0449174 0.
0.630145 0.0448851 0.
0.63218 0.0448529 0.
0.634228 0.0448098 0.
0.636293 0.0447504 0.
0.638359 0.0446912 0.
0.640451 0.0446233 0.
0.642554 0.0445517 0.
0.644661 0.0444759 0.
0.646872 0.044223 0.
0.649082 0.0439701 0.
0.651378 0.0436886 0.
0.653763 0.0433654 0.
0.656148 0.0430427 0.
0.658704 0.0425129 0.
0.661256 0.0419884 0.
0.664034 0.0412453 0.
0.666797 0.0404141 0.
0.669818 0.0393754 0.
0.6729 0.0382325 0.
0.676158 0.036737 0.
0.679449 0.03518 0.
0.683014 0.0333814 0.
0.686852 0.0314593 0.
0.690707 0.0295082 0.
0.694922 0.0271018 0.
0.699236 0.0245859 0.
0.70398 0.0220009 0.
0.708838 0.019446 0.
0.714165 0.0165571 0.
0.719608 0.0139135 0.
0.725754 0.0113076 0.
0.732658 0.00928349 0.
0.740451 0.00725105 0.
0.748391 0.00565793 0.
0.756921 0.00735211 0.
0.441634 0.00790071 0.
0.449285 0.00642875 0.
0.456744 0.0077456 0.
0.464365 0.00949428 0.
0.471104 0.0114836 0.
0.477361 0.0141425 0.
0.482746 0.0168571 0.
0.488098 0.0195735 0.
0.492854 0.0221689 0.
0.497469 0.024849 0.
0.501691 0.0273748 0.
0.506009 0.0297714 0.
0.51007 0.0319527 0.
0.513949 0.0340886 0.
0.517542 0.0360011 0.
0.520996 0.0377834 0.
0.524331 0.0392724 0.
0.527605 0.0405353 0.
0.530594 0.0416167 0.
0.533529 0.0426636 0.
0.53628 0.0435361 0.
0.53902 0.0442593 0.
0.541541 0.0447192 0.
0.544047 0.0451702 0.
0.546378 0.0454653 0.
0.548712 0.0457723 0.
0.550968 0.0460328 0.
0.553159 0.0462599 0.
0.555352 0.0464852 0.
0.557457 0.0465573 0.
0.559562 0.0466272 0.
0.561655 0.0466937 0.
0.563716 0.0467515 0.
0.565777 0.0468095 0.
0.567823 0.0468517 0.
0.569857 0.0468834 0.
0.571892 0.0469152 0.
0.573911 0.0469321 0.
0.575926 0.0469464 0.
0.577942 0.04696 0.
0.579951 0.0469667 0.
0.581961 0.0469734 0.
0.583969 0.0469793 0.
0.585975 0.0469832 0.
0.587981 0.0469871 0.
0.589985 0.04699 0.
0.591989 0.0469921 0.
0.593992 0.0469942 0.
0.595995 0.046995 0.
0.597998 0.0469956 0.
0.600001 0.0469961 0.
0.602004 0.0469947 0.
0.604007 0.0469933 0.
0.60601 0.0469917 0.
0.608014 0.0469891 0.
0.610018 0.0469866 0.
0.612024 0.0469828 0.
0.614031 0.0469776 0.
0.616038 0.0469724 0.
0.618049 0.0469651 0.
0.620061 0.046957 0.
0.622073 0.0469488 0.
0.624093 0.0469307 0.
0.626112 0.0469118 0.
0.628136 0.0468894 0.
0.630181 0.0468474 0.
0.632226 0.0468057 0.
0.634284 0.0467532 0.
0.636359 0.0466849 0.
0.638434 0.046617 0.
0.640556 0.0465247 0.
0.642693 0.0464258 0.
0.644834 0.0463199 0.
0.647063 0.0460409 0.
0.649286 0.0457612 0.
0.651622 0.0454232 0.
0.65405 0.0450499 0.
0.656507 0.0446725 0.
0.659118 0.044085 0.
0.66175 0.0434768 0.
0.664635 0.0425859 0.
0.667503 0.04163 0.
0.670568 0.0404757 0.
0.673695 0.0392534 0.
0.677009 0.0376211 0.
0.680401 0.0358772 0.
0.683922 0.0340744 0.
0.687889 0.0320159 0.
0.691834 0.0299058 0.
0.696038 0.0274518 0.
0.700343 0.0248775 0.
0.705094 0.0223081 0.
0.709946 0.0196761 0.
0.715239 0.0167957 0.
0.720695 0.0141817 0.
0.726795 0.011612 0.
0.733543 0.00968549 0.
0.741054 0.00771604 0.
0.748541 0.00630687 0.
0.756443 0.00814118 0.
0.442137 0.00872429 0.
0.449231 0.00710993 0.
0.456348 0.00830148 0.
0.463699 0.00996567 0.
0.470286 0.0118718 0.
0.47643 0.014469 0.
0.481772 0.0171705 0.
0.487086 0.0198812 0.
0.491843 0.0225072 0.
0.496436 0.0251828 0.
0.500695 0.0277739 0.
0.505003 0.030222 0.
0.509074 0.0324716 0.
0.512989 0.0346666 0.
0.51663 0.0367225 0.
0.520117 0.0386134 0.
0.523492 0.0402047 0.
0.526782 0.0415722 0.
0.529874 0.0427695 0.
0.532935 0.04398 0.
0.535755 0.0449333 0.
0.538529 0.0457357 0.
0.541089 0.0462496 0.
0.543668 0.0467844 0.
0.546069 0.04715 0.
0.54845 0.0475172 0.
0.550759 0.0478359 0.
0.552977 0.0480933 0.
0.555199 0.0483498 0.
0.557338 0.0484492 0.
0.559474 0.0485433 0.
0.561593 0.0486305 0.
0.563663 0.0486968 0.
0.565733 0.0487634 0.
0.567787 0.0488137 0.
0.569829 0.0488529 0.
0.571872 0.0488923 0.
0.573894 0.0489136 0.
0.575914 0.0489318 0.
0.577932 0.0489492 0.
0.579944 0.0489575 0.
0.581955 0.0489659 0.
0.583965 0.0489732 0.
0.585972 0.0489781 0.
0.587979 0.0489831 0.
0.589984 0.0489868 0.
0.591988 0.0489894 0.
0.593992 0.048992 0.
0.595995 0.0489931 0.
0.597998 0.0489939 0.
0.600001 0.0489946 0.
0.602004 0.0489928 0.
0.604008 0.0489911 0.
0.606011 0.048989 0.
0.608016 0.0489857 0.
0.61002 0.0489824 0.
0.612027 0.0489776 0.
0.614036 0.048971 0.
0.616044 0.0489644 0.
0.618057 0.0489554 0.
0.620072 0.0489452 0.
0.622086 0.0489351 0.
0.624109 0.0489126 0.
0.626133 0.048889 0.
0.628163 0.0488608 0.
0.630218 0.0488088 0.
0.632273 0.0487571 0.
0.634342 0.0486948 0.
0.636428 0.048617 0.
0.638513 0.0485396 0.
0.640672 0.0484179 0.
0.642851 0.0482861 0.
0.645035 0.0481442 0.
0.647296 0.0478358 0.
0.649549 0.0475273 0.
0.651933 0.0471053 0.
0.654388 0.0466483 0.
0.656917 0.0461823 0.
0.659587 0.0455582 0.
0.662287 0.0448882 0.
0.665249 0.0438863 0.
0.668235 0.0427913 0.
0.671362 0.0415108 0.
0.674551 0.0401368 0.
0.677848 0.0384788 0.
0.681357 0.0365565 0.
0.684924 0.0346634 0.
0.688883 0.0325509 0.
0.692889 0.0303199 0.
0.697106 0.027801 0.
0.701375 0.0252217 0.
0.706092 0.0226642 0.
0.71093 0.0199741 0.
0.716172 0.0171107 0.
0.721614 0.0145261 0.
0.72767 0.0119896 0.
0.734233 0.0101384 0.
0.741486 0.00825537 0.
0.748524 0.00698642 0.
0.75584 0.00889086 0.
0.442684 0.00952729 0.
0.449323 0.00783073 0.
0.456132 0.00891472 0.
0.463166 0.0104867 0.
0.469614 0.0123272 0.
0.475612 0.0148554 0.
0.48089 0.0175274 0.
0.486166 0.0202372 0.
0.490925 0.0228863 0.
0.49548 0.025561 0.
0.499758 0.0282028 0.
0.504032 0.0306701 0.
0.508123 0.0329867 0.
0.512024 0.035221 0.
0.515724 0.0374089 0.
0.519229 0.0393826 0.
0.522626 0.041076 0.
0.525945 0.042564 0.
0.529141 0.0438786 0.
0.532243 0.0451608 0.
0.535084 0.0461739 0.
0.537928 0.0471107 0.
0.540602 0.0477515 0.
0.543269 0.0483812 0.
0.545756 0.0488248 0.
0.548184 0.0492518 0.
0.550551 0.0496348 0.
0.552797 0.0499202 0.
0.555047 0.0502004 0.
0.557217 0.0503278 0.
0.55938 0.0504488 0.
0.561524 0.0505611 0.
0.563603 0.0506354 0.
0.565683 0.05071 0.
0.567746 0.0507689 0.
0.569796 0.0508167 0.
0.571847 0.0508648 0.
0.573875 0.0508916 0.
0.575898 0.0509144 0.
0.57792 0.0509362 0.
0.579934 0.0509464 0.
0.581947 0.0509565 0.
0.583959 0.0509654 0.
0.585967 0.0509717 0.
0.587975 0.050978 0.
0.589982 0.0509827 0.
0.591986 0.050986 0.
0.593991 0.0509893 0.
0.595994 0.0509907 0.
0.597998 0.0509915 0.
0.600001 0.0509924 0.
0.602005 0.0509903 0.
0.604009 0.0509882 0.
0.606013 0.0509856 0.
0.608018 0.0509814 0.
0.610024 0.0509771 0.
0.612032 0.050971 0.
0.614042 0.0509626 0.
0.616053 0.0509542 0.
0.618068 0.0509433 0.
0.620085 0.0509311 0.
0.622102 0.050919 0.
0.62413 0.0508911 0.
0.626159 0.050862 0.
0.628195 0.0508269 0.
0.630261 0.0507632 0.
0.632327 0.0507001 0.
0.634406 0.0506278 0.
0.636503 0.0505417 0.
0.638598 0.0504561 0.
0.640792 0.0503 0.
0.643008 0.0501336 0.
0.645234 0.0499593 0.
0.647527 0.0496263 0.
0.649811 0.0492905 0.
0.652244 0.0487727 0.
0.654727 0.0482322 0.
0.657354 0.0476695 0.
0.660119 0.046967 0.
0.662956 0.046148 0.
0.665917 0.0450855 0.
0.668975 0.0438986 0.
0.672161 0.0425172 0.
0.675447 0.0409467 0.
0.678736 0.039244 0.
0.682292 0.0372162 0.
0.685942 0.0352093 0.
0.689875 0.0330582 0.
0.693879 0.0307559 0.
0.698078 0.0281901 0.
0.702351 0.0256005 0.
0.707016 0.0230405 0.
0.711828 0.0203164 0.
0.717007 0.0174836 0.
0.722395 0.0149348 0.
0.728388 0.0124368 0.
0.734777 0.0106486 0.
0.741747 0.00886534 0.
0.748476 0.00771898 0.
0.755193 0.00960011 0.
0.443327 0.0102965 0.
0.449528 0.00859191 0.
0.456033 0.0095834 0.
0.462753 0.0110574 0.
0.469037 0.0128394 0.
0.474875 0.015296 0.
0.480106 0.0179354 0.
0.485339 0.020641 0.
0.490086 0.0233087 0.
0.494609 0.0259881 0.
0.498861 0.028648 0.
0.50311 0.0311323 0.
0.507195 0.0335 0.
0.51111 0.0357845 0.
0.514821 0.0380542 0.
0.51832 0.0400853 0.
0.521768 0.0419257 0.
0.525106 0.0435129 0.
0.528365 0.0449078 0.
0.531462 0.0462225 0.
0.534415 0.0473894 0.
0.537328 0.0484504 0.
0.540117 0.0492287 0.
0.542857 0.0499302 0.
0.545414 0.0504395 0.
0.547869 0.0509117 0.
0.550286 0.0513581 0.
0.55258 0.051674 0.
0.554894 0.0519948 0.
0.557096 0.0521664 0.
0.559274 0.0523298 0.
0.561435 0.05248 0.
0.563528 0.0525628 0.
0.565622 0.0526459 0.
0.567697 0.0527147 0.
0.569757 0.0527731 0.
0.571818 0.052832 0.
0.573851 0.0528654 0.
0.575878 0.0528938 0.
0.577904 0.0529209 0.
0.579921 0.052933 0.
0.581937 0.052945 0.
0.583951 0.0529558 0.
0.585961 0.0529638 0.
0.587971 0.0529717 0.
0.589979 0.0529776 0.
0.591984 0.0529818 0.
0.59399 0.052986 0.
0.595994 0.0529876 0.
0.597998 0.0529885 0.
0.600001 0.0529894 0.
0.602006 0.052987 0.
0.60401 0.0529847 0.
0.606015 0.0529816 0.
0.608022 0.0529761 0.
0.610028 0.0529707 0.
0.612038 0.0529629 0.
0.61405 0.0529524 0.
0.616063 0.0529418 0.
0.618081 0.0529287 0.
0.620101 0.0529143 0.
0.622122 0.0528999 0.
0.624156 0.0528656 0.
0.626191 0.0528298 0.
0.628234 0.0527862 0.
0.630312 0.0527079 0.
0.632389 0.0526304 0.
0.634482 0.0525466 0.
0.636593 0.0524526 0.
0.638703 0.0523589 0.
0.640924 0.0521484 0.
0.643162 0.0519253 0.
0.645425 0.0516976 0.
0.647768 0.0513383 0.
0.650092 0.0509837 0.
0.652578 0.0503867 0.
0.655054 0.0497868 0.
0.657793 0.0491333 0.
0.660653 0.0483607 0.
0.663628 0.0473788 0.
0.666643 0.0462029 0.
0.669749 0.0449095 0.
0.67296 0.0434783 0.
0.676325 0.0417423 0.
0.679669 0.0399081 0.
0.683222 0.0378543 0.
0.686916 0.0357627 0.
0.690837 0.0335636 0.
0.694814 0.031209 0.
0.698983 0.0286147 0.
0.703266 0.0260118 0.
0.707878 0.0234422 0.
0.712646 0.0207047 0.
0.717774 0.0179074 0.
0.72308 0.0153899 0.
0.728972 0.0129486 0.
0.735216 0.0112127 0.
0.741859 0.00953138 0.
0.748295 0.008497 0.
0.754525 0.010326 0.
0.44406 0.0109763 0.
0.44991 0.00939091 0.
0.456115 0.0103177 0.
0.462527 0.0116938 0.
0.468622 0.0134313 0.
0.474298 0.0158238 0.
0.479483 0.0184262 0.
0.484638 0.0211182 0.
0.489345 0.0237912 0.
0.493829 0.0264685 0.
0.498048 0.0291281 0.
0.502262 0.0316292 0.
0.506328 0.0340349 0.
0.510234 0.0363486 0.
0.513925 0.0386671 0.
0.517441 0.0407734 0.
0.520912 0.0427303 0.
0.524269 0.0443985 0.
0.527548 0.0458627 0.
0.530671 0.0472604 0.
0.533733 0.0485717 0.
0.536693 0.049711 0.
0.539542 0.0505921 0.
0.542313 0.0513651 0.
0.544987 0.0519921 0.
0.547501 0.0525324 0.
0.549994 0.0530666 0.
0.552352 0.0534234 0.
0.554734 0.0537862 0.
0.556974 0.054002 0.
0.559167 0.0542079 0.
0.561345 0.0543987 0.
0.563452 0.0544899 0.
0.56556 0.0545816 0.
0.567648 0.0546602 0.
0.569717 0.0547294 0.
0.571788 0.054799 0.
0.573826 0.0548391 0.
0.575858 0.0548731 0.
0.577889 0.0549055 0.
0.579908 0.0549196 0.
0.581927 0.0549336 0.
0.583944 0.0549462 0.
0.585955 0.0549558 0.
0.587967 0.0549654 0.
0.589976 0.0549726 0.
0.591982 0.0549776 0.
0.593988 0.0549827 0.
0.595993 0.0549846 0.
0.597997 0.0549856 0.
0.600001 0.0549865 0.
0.602007 0.0549838 0.
0.604012 0.0549811 0.
0.606017 0.0549775 0.
0.608025 0.0549709 0.
0.610033 0.0549643 0.
0.612044 0.0549549 0.
0.614059 0.0549422 0.
0.616074 0.0549294 0.
0.618094 0.0549141 0.
0.620118 0.0548974 0.
0.622141 0.0548808 0.
0.624181 0.05484 0.
0.626223 0.0547976 0.
0.628274 0.0547452 0.
0.630364 0.0546523 0.
0.632453 0.0545601 0.
0.634559 0.0544653 0.
0.636685 0.0543631 0.
0.638809 0.0542614 0.
0.641057 0.0539925 0.
0.643319 0.0537124 0.
0.645623 0.0534324 0.
0.648022 0.0530367 0.
0.650419 0.0526335 0.
0.653019 0.0519372 0.
0.655577 0.0512623 0.
0.658369 0.0504998 0.
0.661219 0.0497072 0.
0.664311 0.048568 0.
0.667386 0.0472935 0.
0.67056 0.0458487 0.
0.673784 0.0443542 0.
0.677174 0.0425215 0.
0.680573 0.0405561 0.
0.684137 0.0384791 0.
0.687837 0.0363324 0.
0.691727 0.034096 0.
0.695678 0.0316919 0.
0.699798 0.0290911 0.
0.704087 0.0264766 0.
0.70864 0.0239048 0.
0.713348 0.021165 0.
0.718419 0.0184072 0.
0.723628 0.0159201 0.
0.729387 0.0135387 0.
0.735476 0.0118453 0.
0.741813 0.0102711 0.
0.747965 0.00932309 0.
0.753811 0.0110352 0.
0.444865 0.0116353 0.
0.450446 0.0102408 0.
0.45636 0.0111073 0.
0.462489 0.0123949 0.
0.468382 0.0141028 0.
0.473882 0.0164405 0.
0.479031 0.0190051 0.
0.484064 0.0216736 0.
0.488711 0.0243375 0.
0.493141 0.0270019 0.
0.497335 0.0296576 0.
0.501499 0.0321755 0.
0.505519 0.0345983 0.
0.509395 0.036927 0.
0.513076 0.0392772 0.
0.516605 0.0414698 0.
0.520063 0.0434965 0.
0.523426 0.0452365 0.
0.526721 0.0468081 0.
0.529884 0.0482628 0.
0.533027 0.049678 0.
0.535978 0.0508458 0.
0.538913 0.0518947 0.
0.541744 0.052773 0.
0.544545 0.0535317 0.
0.547113 0.054139 0.
0.549671 0.0547594 0.
0.552085 0.055142 0.
0.554504 0.0555399 0.
0.556781 0.0558055 0.
0.558992 0.0560502 0.
0.561197 0.0562815 0.
0.563327 0.0563836 0.
0.56546 0.0564869 0.
0.567569 0.0565789 0.
0.569652 0.0566621 0.
0.571736 0.0567463 0.
0.573784 0.056797 0.
0.575825 0.05684 0.
0.577864 0.0568815 0.
0.579887 0.0568979 0.
0.581909 0.0569144 0.
0.583929 0.0569296 0.
0.585944 0.056942 0.
0.587959 0.0569545 0.
0.58997 0.0569637 0.
0.591978 0.0569702 0.
0.593986 0.0569767 0.
0.595991 0.0569793 0.
0.597997 0.0569807 0.
0.600002 0.0569821 0.
0.602008 0.0569784 0.
0.604014 0.0569747 0.
0.606021 0.0569699 0.
0.608031 0.0569614 0.
0.610041 0.0569528 0.
0.612055 0.0569408 0.
0.614074 0.0569248 0.
0.616092 0.0569087 0.
0.618117 0.0568907 0.
0.620143 0.0568716 0.
0.62217 0.0568526 0.
0.624224 0.0567983 0.
0.626279 0.0567424 0.
0.628344 0.0566758 0.
0.630448 0.0565683 0.
0.632551 0.0564618 0.
0.634684 0.0563502 0.
0.636839 0.0562318 0.
0.638991 0.0561145 0.
0.641264 0.0557937 0.
0.643537 0.0554676 0.
0.645873 0.0551403 0.
0.648299 0.0547211 0.
0.650782 0.0542617 0.
0.653489 0.0534724 0.
0.65616 0.052699 0.
0.659042 0.0517747 0.
0.661936 0.0508482 0.
0.665012 0.0496815 0.
0.668149 0.0483259 0.
0.671358 0.0467681 0.
0.674629 0.045149 0.
0.677996 0.0432917 0.
0.681438 0.0412192 0.
0.684983 0.0391104 0.
0.688688 0.0369244 0.
0.692532 0.0346711 0.
0.696464 0.0322205 0.
0.70052 0.0296249 0.
0.704788 0.0270128 0.
0.709296 0.02443 0.
0.713928 0.0217063 0.
0.718913 0.0189914 0.
0.724032 0.0165319 0.
0.729628 0.0142115 0.
0.735542 0.0125469 0.
0.741614 0.0110734 0.
0.747477 0.0101815 0.
0.753031 0.0116928 0.
0.445737 0.0122795 0.
0.451075 0.0111274 0.
0.456719 0.0119445 0.
0.462589 0.0131559 0.
0.468295 0.0148515 0.
0.473615 0.0171404 0.
0.478701 0.0196644 0.
0.483598 0.0223 0.
0.48818 0.0249497 0.
0.492546 0.0275981 0.
0.496708 0.0302442 0.
0.500808 0.0327727 0.
0.504781 0.0351979 0.
0.508622 0.0375414 0.
0.51227 0.0399013 0.
0.515788 0.0421619 0.
0.519248 0.0442374 0.
0.522606 0.0460648 0.
0.525896 0.0477257 0.
0.529094 0.0492269 0.
0.532235 0.0506693 0.
0.535241 0.051945 0.
0.538256 0.0531442 0.
0.541155 0.0541308 0.
0.544046 0.0550054 0.
0.546644 0.0556353 0.
0.549266 0.0562817 0.
0.551734 0.0567571 0.
0.554188 0.0572449 0.
0.556525 0.0575865 0.
0.558775 0.0578723 0.
0.561024 0.0581497 0.
0.563186 0.058267 0.
0.56535 0.0583851 0.
0.567486 0.058493 0.
0.569583 0.0585918 0.
0.571681 0.0586915 0.
0.573741 0.0587537 0.
0.575791 0.0588063 0.
0.57784 0.0588572 0.
0.579865 0.0588761 0.
0.581891 0.058895 0.
0.583914 0.0589128 0.
0.585932 0.0589281 0.
0.58795 0.0589435 0.
0.589964 0.0589549 0.
0.591973 0.0589628 0.
0.593983 0.0589707 0.
0.59599 0.0589739 0.
0.597996 0.0589757 0.
0.600002 0.0589776 0.
0.60201 0.0589729 0.
0.604017 0.0589683 0.
0.606025 0.0589623 0.
0.608038 0.0589518 0.
0.61005 0.0589413 0.
0.612067 0.0589267 0.
0.614089 0.0589072 0.
0.616111 0.0588878 0.
0.618139 0.058867 0.
0.62017 0.0588455 0.
0.6222 0.058824 0.
0.624268 0.0587552 0.
0.626337 0.0586848 0.
0.628418 0.0586027 0.
0.630538 0.0584794 0.
0.632658 0.0583573 0.
0.634826 0.0582239 0.
0.637023 0.0580818 0.
0.639223 0.0579328 0.
0.641538 0.0575584 0.
0.643847 0.0571834 0.
0.646266 0.0567767 0.
0.648751 0.0562802 0.
0.651295 0.0557295 0.
0.654013 0.0549342 0.
0.65678 0.054074 0.
0.659722 0.0530044 0.
0.662686 0.0519369 0.
0.665778 0.0506859 0.
0.66892 0.0492965 0.
0.672148 0.0476725 0.
0.675466 0.0459223 0.
0.678806 0.0440326 0.
0.682254 0.0419002 0.
0.685791 0.0397562 0.
0.689467 0.0375507 0.
0.69326 0.0352875 0.
0.697156 0.032811 0.
0.701157 0.030219 0.
0.705385 0.0276161 0.
0.709843 0.0250228 0.
0.714405 0.0223199 0.
0.719276 0.0196503 0.
0.724317 0.0172181 0.
0.729723 0.0149516 0.
0.735447 0.0133113 0.
0.741276 0.0119322 0.
0.746871 0.0110554 0.
0.752181 0.0123538 0.
0.446661 0.0129302 0.
0.451751 0.0120468 0.
0.457149 0.0128263 0.
0.462799 0.0139687 0.
0.468293 0.0156568 0.
0.47346 0.0179063 0.
0.478447 0.0203851 0.
0.483216 0.0229867 0.
0.48773 0.0256171 0.
0.49201 0.0282432 0.
0.496143 0.0308837 0.
0.500183 0.0334149 0.
0.504096 0.0358329 0.
0.507884 0.0381828 0.
0.511497 0.0405417 0.
0.515009 0.0428526 0.
0.518442 0.0449623 0.
0.52179 0.0468844 0.
0.525076 0.0486117 0.
0.52828 0.0501421 0.
0.531421 0.0516364 0.
0.534488 0.0530055 0.
0.537557 0.0543165 0.
0.540479 0.0553821 0.
0.543383 0.0563358 0.
0.54611 0.0570655 0.
0.548832 0.057778 0.
0.551379 0.0583562 0.
0.553869 0.0589337 0.
0.556266 0.0593629 0.
0.558556 0.0596894 0.
0.560847 0.0600085 0.
0.563041 0.0601409 0.
0.565236 0.0602742 0.
0.567397 0.0603997 0.
0.569507 0.0605129 0.
0.571618 0.0606271 0.
0.57369 0.0607023 0.
0.575751 0.0607669 0.
0.577811 0.06083 0.
0.579841 0.0608512 0.
0.58187 0.0608725 0.
0.583896 0.0608928 0.
0.585918 0.0609114 0.
0.587939 0.06093 0.
0.589955 0.0609438 0.
0.591967 0.0609534 0.
0.593978 0.0609631 0.
0.595987 0.060967 0.
0.597995 0.0609692 0.
0.600003 0.0609715 0.
0.602012 0.0609657 0.
0.604021 0.06096 0.
0.606032 0.0609526 0.
0.608047 0.0609398 0.
0.610062 0.060927 0.
0.612082 0.0609095 0.
0.614108 0.0608866 0.
0.616133 0.0608638 0.
0.618166 0.0608394 0.
0.620201 0.0608143 0.
0.622236 0.0607893 0.
0.62432 0.0607034 0.
0.626404 0.0606168 0.
0.6285 0.0605186 0.
0.630635 0.0603817 0.
0.632768 0.0602459 0.
0.634972 0.0600885 0.
0.637208 0.0599253 0.
0.639458 0.0597432 0.
0.641813 0.0593174 0.
0.64416 0.0588936 0.
0.646675 0.0583966 0.
0.649234 0.0578154 0.
0.651887 0.0571176 0.
0.654652 0.0562263 0.
0.657472 0.0552886 0.
0.660422 0.0541713 0.
0.663442 0.0529995 0.
0.66655 0.0516768 0.
0.669718 0.0501876 0.
0.672941 0.0485403 0.
0.676286 0.0466912 0.
0.679628 0.0447331 0.
0.683045 0.0425854 0.
0.686557 0.0404234 0.
0.690193 0.0382121 0.
0.69394 0.0359357 0.
0.697782 0.0334485 0.
0.701742 0.0308561 0.
0.705898 0.0282771 0.
0.710297 0.0256791 0.
0.714807 0.0229896 0.
0.719553 0.0203657 0.
0.724512 0.0179638 0.
0.729726 0.0157432 0.
0.73525 0.0141202 0.
0.740851 0.0128314 0.
0.746209 0.0119562 0.
0.751292 0.0130247 0.
0.447595 0.0136299 0.
0.452458 0.0129901 0.
0.457644 0.0137369 0.
0.463077 0.0148289 0.
0.468365 0.0165175 0.
0.473396 0.0187292 0.
0.478263 0.0211617 0.
0.48291 0.0237327 0.
0.487338 0.0263405 0.
0.491541 0.0289434 0.
0.495631 0.0315715 0.
0.499598 0.0340926 0.
0.503449 0.0365022 0.
0.507172 0.0388482 0.
0.510755 0.0412058 0.
0.514248 0.0435461 0.
0.517642 0.0456901 0.
0.520989 0.0476886 0.
0.52426 0.0494578 0.
0.527467 0.0510448 0.
0.530613 0.0525933 0.
0.533728 0.0540287 0.
0.536783 0.055372 0.
0.539755 0.056553 0.
0.542707 0.0576314 0.
0.545562 0.0584838 0.
0.548382 0.0592528 0.
0.551011 0.0599164 0.
0.553499 0.0605473 0.
0.555963 0.061058 0.
0.558297 0.0614187 0.
0.560647 0.0617795 0.
0.562879 0.0619557 0.
0.565104 0.0621295 0.
0.567293 0.0622893 0.
0.569415 0.0624171 0.
0.571538 0.062546 0.
0.573626 0.062638 0.
0.575702 0.0627193 0.
0.577779 0.0627993 0.
0.579812 0.0628228 0.
0.581845 0.0628463 0.
0.583875 0.0628692 0.
0.585899 0.0628914 0.
0.587924 0.0629136 0.
0.589943 0.0629303 0.
0.591958 0.062942 0.
0.593973 0.0629538 0.
0.595984 0.0629585 0.
0.597994 0.062961 0.
0.600004 0.0629636 0.
0.602015 0.0629566 0.
0.604027 0.0629496 0.
0.60604 0.0629406 0.
0.608059 0.0629251 0.
0.610077 0.0629095 0.
0.612101 0.0628889 0.
0.61413 0.0628625 0.
0.61616 0.0628361 0.
0.618198 0.0628069 0.
0.62024 0.0627764 0.
0.622282 0.0627455 0.
0.624385 0.0626382 0.
0.626487 0.0625303 0.
0.628601 0.0624123 0.
0.630751 0.0622613 0.
0.632899 0.0621115 0.
0.635152 0.061897 0.
0.63744 0.0616682 0.
0.639746 0.0614261 0.
0.642147 0.0609838 0.
0.644522 0.0605428 0.
0.647105 0.0599739 0.
0.649726 0.0593271 0.
0.652482 0.0584777 0.
0.655294 0.0574952 0.
0.658197 0.0564336 0.
0.661159 0.0552581 0.
0.664213 0.0540262 0.
0.667321 0.0526586 0.
0.670523 0.0510587 0.
0.673745 0.049359 0.
0.677084 0.0474555 0.
0.680423 0.0454332 0.
0.683829 0.0432797 0.
0.687304 0.0411123 0.
0.690894 0.0389017 0.
0.694589 0.0366108 0.
0.698365 0.0341281 0.
0.70228 0.0315377 0.
0.706362 0.0289802 0.
0.710671 0.0263962 0.
0.715124 0.0237245 0.
0.71976 0.0211384 0.
0.724621 0.0187673 0.
0.72967 0.0165841 0.
0.734974 0.0149741 0.
0.740382 0.0137697 0.
0.745527 0.0129052 0.
0.750377 0.0137219 0.
0.448546 0.0143897 0.
0.453217 0.0139747 0.
0.458234 0.0146768 0.
0.463471 0.0157504 0.
0.468555 0.0174453 0.
0.473436 0.0196218 0.
0.478188 0.0220142 0.
0.482701 0.0245563 0.
0.487016 0.0271296 0.
0.491161 0.0297116 0.
0.495184 0.0323192 0.
0.499073 0.0348226 0.
0.50285 0.0372165 0.
0.50651 0.0395504 0.
0.510055 0.041902 0.
0.513508 0.0442522 0.
0.516882 0.046437 0.
0.520197 0.048476 0.
0.523457 0.0502928 0.
0.526674 0.051958 0.
0.529823 0.0535314 0.
0.532942 0.0549956 0.
0.535997 0.0563863 0.
0.539018 0.0576893 0.
0.542008 0.0588684 0.
0.544949 0.059834 0.
0.547768 0.0606305 0.
0.550469 0.0613889 0.
0.553042 0.0620991 0.
0.555627 0.0627252 0.
0.558024 0.0631344 0.
0.560439 0.0635462 0.
0.562714 0.0637663 0.
0.564969 0.063981 0.
0.567189 0.0641783 0.
0.569323 0.0643208 0.
0.571458 0.0644645 0.
0.573561 0.0645732 0.
0.575653 0.0646713 0.
0.577746 0.0647683 0.
0.579783 0.0647943 0.
0.581819 0.06482 0.
0.583853 0.0648456 0.
0.585881 0.0648714 0.
0.587909 0.0648973 0.
0.589931 0.0649167 0.
0.591949 0.0649306 0.
0.593967 0.0649445 0.
0.59598 0.0649499 0.
0.597992 0.0649528 0.
0.600004 0.0649557 0.
0.602018 0.0649475 0.
0.604033 0.0649392 0.
0.606049 0.0649287 0.
0.60807 0.0649104 0.
0.610092 0.0648921 0.
0.612119 0.0648683 0.
0.614153 0.0648384 0.
0.616186 0.0648085 0.
0.61823 0.0647743 0.
0.620279 0.0647384 0.
0.622329 0.0647012 0.
0.62445 0.0645722 0.
0.62657 0.064443 0.
0.628704 0.0643054 0.
0.630868 0.0641403 0.
0.633031 0.0639765 0.
0.63534 0.0636981 0.
0.637681 0.0634022 0.
0.640055 0.0630959 0.
0.642529 0.0626155 0.
0.644993 0.0621204 0.
0.647667 0.0614241 0.
0.650321 0.0607065 0.
0.653119 0.0597699 0.
0.655959 0.0587197 0.
0.658931 0.0575599 0.
0.661929 0.0563274 0.
0.665001 0.0550173 0.
0.668113 0.0535993 0.
0.671312 0.0519272 0.
0.674539 0.0501536 0.
0.677859 0.0482252 0.
0.681184 0.0461559 0.
0.684563 0.0440004 0.
0.688016 0.0418288 0.
0.691559 0.039628 0.
0.695189 0.0373284 0.
0.698891 0.0348582 0.
0.702741 0.032284 0.
0.706754 0.0297409 0.
0.710961 0.0271839 0.
0.715327 0.0245395 0.
0.719864 0.021986 0.
0.724595 0.0196498 0.
0.729504 0.0174875 0.
0.734597 0.0158845 0.
0.739811 0.0147453 0.
0.744788 0.0139016 0.
0.749426 0.0144526 0.
0.449512 0.0152191 0.
0.454033 0.014999 0.
0.458926 0.0156545 0.
0.463952 0.0167277 0.
0.468841 0.0184388 0.
0.473591 0.0205876 0.
0.478203 0.0229464 0.
0.482586 0.0254575 0.
0.486791 0.0279954 0.
0.490872 0.0305549 0.
0.494807 0.0331325 0.
0.498618 0.0356156 0.
0.502314 0.0379907 0.
0.505906 0.040303 0.
0.509409 0.0426434 0.
0.512817 0.0449884 0.
0.516155 0.0472045 0.
0.519447 0.0492692 0.
0.522698 0.0511413 0.
0.525898 0.0528629 0.
0.529035 0.0544493 0.
0.53215 0.0559493 0.
0.535212 0.0573883 0.
0.538264 0.0587619 0.
0.541267 0.0599839 0.
0.544228 0.0610412 0.
0.547081 0.0619411 0.
0.549892 0.0628396 0.
0.55255 0.0636288 0.
0.555258 0.0643751 0.
0.557718 0.0648277 0.
0.560161 0.0652658 0.
0.562481 0.0655337 0.
0.564769 0.0657953 0.
0.567032 0.0660409 0.
0.569182 0.0661919 0.
0.571335 0.066344 0.
0.573458 0.0664702 0.
0.575567 0.0665895 0.
0.577677 0.0667089 0.
0.579727 0.0667447 0.
0.581776 0.0667793 0.
0.583821 0.0668125 0.
0.585853 0.0668415 0.
0.587885 0.0668706 0.
0.589911 0.0668931 0.
0.591934 0.0669097 0.
0.593956 0.0669264 0.
0.595974 0.0669329 0.
0.59799 0.0669364 0.
0.600006 0.0669399 0.
0.602025 0.0669297 0.
0.604043 0.0669194 0.
0.606064 0.0669065 0.
0.608091 0.0668849 0.
0.610118 0.0668633 0.
0.612151 0.066836 0.
0.614189 0.0668024 0.
0.616228 0.0667689 0.
0.618287 0.0667234 0.
0.620352 0.0666744 0.
0.622421 0.0666219 0.
0.624561 0.0664678 0.
0.626699 0.0663149 0.
0.628856 0.0661594 0.
0.631041 0.0659865 0.
0.633221 0.065815 0.
0.635583 0.0654632 0.
0.637964 0.0651042 0.
0.640401 0.0647432 0.
0.642936 0.0642349 0.
0.645502 0.0636694 0.
0.648254 0.0628435 0.
0.650988 0.0619978 0.
0.653839 0.0609545 0.
0.656688 0.0598661 0.
0.659684 0.0586565 0.
0.662715 0.0573761 0.
0.665795 0.0559859 0.
0.668908 0.0544977 0.
0.672095 0.052791 0.
0.675311 0.0509543 0.
0.67859 0.0490081 0.
0.681902 0.0469132 0.
0.685246 0.0447603 0.
0.68867 0.0425896 0.
0.692159 0.0404045 0.
0.69573 0.0381013 0.
0.699357 0.0356472 0.
0.703125 0.0330985 0.
0.707058 0.0305726 0.
0.711165 0.0280487 0.
0.715413 0.0254382 0.
0.719852 0.0229157 0.
0.724451 0.0206142 0.
0.729226 0.0184608 0.
0.734141 0.0168472 0.
0.739149 0.0157431 0.
0.743989 0.0149577 0.
0.74847 0.0152579 0.
0.450507 0.0161468 0.
0.454924 0.0160476 0.
0.459673 0.0166607 0.
0.464491 0.0177577 0.
0.469209 0.0194927 0.
0.473829 0.0216178 0.
0.478284 0.0239479 0.
0.482544 0.0264271 0.
0.486664 0.0289366 0.
0.490662 0.0314701 0.
0.494499 0.0340178 0.
0.49823 0.0364763 0.
0.50184 0.0388266 0.
0.50537 0.0411143 0.
0.50882 0.0434363 0.
0.512171 0.0457629 0.
0.515474 0.0479999 0.
0.518737 0.0500797 0.
0.52196 0.0520023 0.
0.525133 0.0537571 0.
0.528261 0.0553653 0.
0.531366 0.0569043 0.
0.534428 0.0583716 0.
0.537496 0.0597725 0.
0.540489 0.0610366 0.
0.543475 0.0621903 0.
0.546375 0.0632044 0.
0.549259 0.0642228 0.
0.551982 0.0650654 0.
0.554692 0.0658361 0.
0.557216 0.0663685 0.
0.559734 0.0668905 0.
0.562153 0.0672452 0.
0.564506 0.0675737 0.
0.566843 0.0678887 0.
0.569018 0.0680499 0.
0.571198 0.0682123 0.
0.573345 0.068358 0.
0.575473 0.0685014 0.
0.577603 0.0686454 0.
0.579668 0.0686928 0.
0.581731 0.0687374 0.
0.583788 0.0687789 0.
0.585824 0.0688112 0.
0.58786 0.0688436 0.
0.589891 0.0688692 0.
0.591918 0.0688886 0.
0.593945 0.0689081 0.
0.595967 0.0689158 0.
0.597988 0.0689199 0.
0.600008 0.068924 0.
0.602031 0.0689117 0.
0.604054 0.0688994 0.
0.60608 0.0688841 0.
0.608112 0.0688591 0.
0.610144 0.0688341 0.
0.612183 0.0688031 0.
0.614227 0.0687657 0.
0.616271 0.0687283 0.
0.618346 0.0686703 0.
0.62043 0.0686068 0.
0.62252 0.0685364 0.
0.624684 0.068354 0.
0.626844 0.0681734 0.
0.629031 0.0679971 0.
0.631251 0.0678133 0.
0.633468 0.0676281 0.
0.635895 0.0671745 0.
0.638324 0.0667285 0.
0.640857 0.0662844 0.
0.643451 0.0657346 0.
0.646093 0.0650925 0.
0.648871 0.0642054 0.
0.651678 0.0632449 0.
0.654575 0.062114 0.
0.657479 0.0609459 0.
0.66047 0.0597138 0.
0.663512 0.058395 0.
0.666588 0.0569433 0.
0.669703 0.05537 0.
0.672857 0.0536545 0.
0.67606 0.0517722 0.
0.679293 0.0498081 0.
0.68257 0.0477089 0.
0.685875 0.0455671 0.
0.689257 0.0434049 0.
0.692696 0.0412328 0.
0.696199 0.0389396 0.
0.69977 0.0364987 0.
0.703438 0.0339828 0.
0.707287 0.031475 0.
0.711296 0.0289863 0.
0.715425 0.0264125 0.
0.719749 0.0239128 0.
0.724229 0.021642 0.
0.728848 0.0195065 0.
0.733612 0.0178628 0.
0.738436 0.0167652 0.
0.743151 0.0160459 0.
0.747512 0.0161491 0.
0.451513 0.0171458 0.
0.455836 0.0171062 0.
0.460425 0.0176978 0.
0.465059 0.0188404 0.
0.469639 0.020599 0.
0.474108 0.0227044 0.
0.478422 0.0250094 0.
0.482575 0.0274644 0.
0.486617 0.0299469 0.
0.490507 0.032445 0.
0.494249 0.0349649 0.
0.497885 0.0373911 0.
0.501406 0.039709 0.
0.504868 0.0419673 0.
0.508256 0.044264 0.
0.511556 0.0465719 0.
0.514826 0.048816 0.
0.518039 0.0509039 0.
0.521232 0.0528653 0.
0.524381 0.0546417 0.
0.527495 0.0562814 0.
0.530583 0.0578479 0.
0.533656 0.0593418 0.
0.536703 0.060759 0.
0.53971 0.0620743 0.
0.542705 0.0632946 0.
0.545635 0.0644017 0.
0.548528 0.0654424 0.
0.551295 0.0663539 0.
0.554049 0.0672144 0.
0.556682 0.067886 0.
0.559285 0.0684959 0.
0.561814 0.0689456 0.
0.564235 0.0693417 0.
0.566653 0.0697347 0.
0.568854 0.0699044 0.
0.571056 0.0700732 0.
0.573228 0.0702371 0.
0.575374 0.0704027 0.
0.577522 0.0705691 0.
0.579603 0.0706313 0.
0.581681 0.0706888 0.
0.58375 0.0707415 0.
0.585791 0.0707769 0.
0.587832 0.0708124 0.
0.589869 0.0708409 0.
0.5919 0.0708632 0.
0.593932 0.0708855 0.
0.595959 0.0708943 0.
0.597985 0.0708991 0.
0.600011 0.0709037 0.
0.602039 0.0708893 0.
0.604067 0.0708749 0.
0.606098 0.0708571 0.
0.608136 0.0708285 0.
0.610174 0.0708 0.
0.612219 0.0707654 0.
0.61427 0.0707243 0.
0.61632 0.0706833 0.
0.618412 0.0706091 0.
0.620514 0.0705279 0.
0.622625 0.0704367 0.
0.62481 0.07023 0.
0.62699 0.0700253 0.
0.62921 0.0698313 0.
0.631464 0.0696378 0.
0.633729 0.0694227 0.
0.636214 0.0688708 0.
0.638691 0.0683372 0.
0.641338 0.0678052 0.
0.644018 0.0671846 0.
0.646774 0.0663959 0.
0.649579 0.0654375 0.
0.652414 0.0644137 0.
0.65533 0.0632481 0.
0.658282 0.0620082 0.
0.661272 0.0607291 0.
0.664318 0.0593704 0.
0.667379 0.0578838 0.
0.670487 0.0562439 0.
0.673621 0.0545025 0.
0.676782 0.0526043 0.
0.679982 0.0506235 0.
0.683216 0.048532 0.
0.686474 0.0464052 0.
0.689798 0.0442639 0.
0.69319 0.0421064 0.
0.696621 0.0398286 0.
0.700127 0.0374096 0.
0.703716 0.0349229 0.
0.707452 0.0324409 0.
0.711367 0.0299832 0.
0.71538 0.027455 0.
0.719571 0.0249796 0.
0.723941 0.0227223 0.
0.728422 0.0206121 0.
0.733035 0.0189294 0.
0.737688 0.0178166 0.
0.742277 0.0171432 0.
0.746553 0.0171314 0.
0.452522 0.0181669 0.
0.456746 0.018171 0.
0.461179 0.0187762 0.
0.46566 0.0199777 0.
0.470098 0.0217486 0.
0.474428 0.0238444 0.
0.478619 0.0261332 0.
0.482673 0.0285634 0.
0.486613 0.0310141 0.
0.490385 0.0334757 0.
0.494029 0.0359626 0.
0.497558 0.0383485 0.
0.500994 0.0406322 0.
0.504387 0.0428597 0.
0.507713 0.0451259 0.
0.510962 0.0474114 0.
0.514183 0.0496443 0.
0.517354 0.0517446 0.
0.520513 0.0537267 0.
0.523633 0.0555259 0.
0.526733 0.0572051 0.
0.52982 0.0587863 0.
0.532878 0.0602949 0.
0.535906 0.0617378 0.
0.538926 0.0630998 0.
0.541916 0.0643588 0.
0.544854 0.0655186 0.
0.547765 0.0666049 0.
0.550601 0.0676175 0.
0.553395 0.0685577 0.
0.556122 0.0693655 0.
0.558783 0.0700301 0.
0.561391 0.0705568 0.
0.563842 0.0709928 0.
0.566305 0.0714326 0.
0.568583 0.071656 0.
0.570865 0.0718808 0.
0.573097 0.0720907 0.
0.575261 0.0722793 0.
0.577428 0.072469 0.
0.579527 0.0725528 0.
0.58162 0.0726296 0.
0.583704 0.0726988 0.
0.585752 0.0727373 0.
0.587799 0.0727759 0.
0.589842 0.0728075 0.
0.59188 0.0728326 0.
0.593917 0.0728578 0.
0.59595 0.072868 0.
0.597982 0.0728733 0.
0.600014 0.0728786 0.
0.602048 0.0728619 0.
0.604083 0.0728452 0.
0.60612 0.0728246 0.
0.608165 0.0727921 0.
0.610209 0.0727597 0.
0.612262 0.0727211 0.
0.614321 0.0726761 0.
0.61638 0.0726312 0.
0.61849 0.0725332 0.
0.620609 0.0724253 0.
0.622743 0.0723047 0.
0.624952 0.0720728 0.
0.627158 0.0718432 0.
0.629443 0.0716009 0.
0.631768 0.0713563 0.
0.634116 0.0710676 0.
0.636627 0.0704713 0.
0.639107 0.069892 0.
0.641852 0.0692911 0.
0.64461 0.0686104 0.
0.647467 0.0676705 0.
0.650315 0.0666305 0.
0.653197 0.0655102 0.
0.656106 0.0643272 0.
0.659085 0.0630503 0.
0.662084 0.061732 0.
0.665127 0.0603174 0.
0.668185 0.0587969 0.
0.671262 0.0571214 0.
0.674373 0.0553512 0.
0.677505 0.0534454 0.
0.680658 0.051457 0.
0.683849 0.0493817 0.
0.687063 0.0472715 0.
0.690324 0.0451558 0.
0.693654 0.043019 0.
0.697013 0.0407607 0.
0.700451 0.0383684 0.
0.70396 0.0359137 0.
0.707581 0.0334628 0.
0.711385 0.0310373 0.
0.715301 0.028551 0.
0.719346 0.0261056 0.
0.723594 0.0238623 0.
0.727948 0.0217665 0.
0.732418 0.0200487 0.
0.736917 0.0189012 0.
0.741364 0.0182529 0.
0.745564 0.0181895 0.
0.453579 0.0191981 0.
0.457696 0.0192637 0.
0.461994 0.0199161 0.
0.466328 0.0211758 0.
0.470632 0.0229624 0.
0.474838 0.025061 0.
0.478902 0.0273346 0.
0.482847 0.029736 0.
0.486658 0.0321496 0.
0.490314 0.0345752 0.
0.493852 0.0370202 0.
0.49727 0.0393648 0.
0.500619 0.041608 0.
0.503943 0.0438031 0.
0.507196 0.046031 0.
0.510396 0.0482871 0.
0.513565 0.0505039 0.
0.516697 0.052612 0.
0.51981 0.0545965 0.
0.522908 0.0564242 0.
0.52599 0.0581331 0.
0.529059 0.0597186 0.
0.532097 0.0612467 0.
0.535114 0.0627128 0.
0.538128 0.0640999 0.
0.541112 0.065388 0.
0.544065 0.0666143 0.
0.546986 0.067743 0.
0.549876 0.0688307 0.
0.552691 0.0698214 0.
0.555468 0.0707259 0.
0.558164 0.0714506 0.
0.56087 0.0721005 0.
0.563387 0.072597 0.
0.565918 0.0730999 0.
0.568295 0.0733956 0.
0.570663 0.0736806 0.
0.572964 0.0739429 0.
0.575147 0.0741547 0.
0.577333 0.0743679 0.
0.579451 0.0744734 0.
0.581559 0.0745696 0.
0.583658 0.0746561 0.
0.585712 0.0746977 0.
0.587766 0.0747394 0.
0.589815 0.074774 0.
0.591859 0.0748021 0.
0.593902 0.0748302 0.
0.595942 0.0748416 0.
0.597979 0.0748476 0.
0.600017 0.0748535 0.
0.602058 0.0748345 0.
0.604098 0.0748156 0.
0.606141 0.0747922 0.
0.608193 0.0747557 0.
0.610245 0.0747194 0.
0.612305 0.0746767 0.
0.614373 0.0746279 0.
0.61644 0.0745791 0.
0.618568 0.074456 0.
0.620706 0.0743214 0.
0.622862 0.074171 0.
0.625097 0.0739137 0.
0.627328 0.0736591 0.
0.629693 0.0733591 0.
0.632104 0.0730502 0.
0.634566 0.0726578 0.
0.637158 0.0719918 0.
0.639741 0.0713381 0.
0.642516 0.0706597 0.
0.645292 0.0699248 0.
0.648194 0.0688907 0.
0.651081 0.0677804 0.
0.65399 0.0665873 0.
0.65691 0.0653624 0.
0.659887 0.0640665 0.
0.662887 0.062718 0.
0.665924 0.0612619 0.
0.668971 0.0597004 0.
0.672035 0.0580066 0.
0.675109 0.0562137 0.
0.678205 0.0543077 0.
0.681321 0.0523156 0.
0.68446 0.0502623 0.
0.687626 0.0481756 0.
0.690824 0.0460897 0.
0.694083 0.0439791 0.
0.697368 0.0417465 0.
0.700716 0.0393909 0.
0.70415 0.0369681 0.
0.707663 0.0345534 0.
0.711339 0.0321646 0.
0.715151 0.0297203 0.
0.71907 0.027299 0.
0.723162 0.0250808 0.
0.727395 0.022991 0.
0.731723 0.021231 0.
0.736086 0.020032 0.
0.740394 0.0193801 0.
0.744502 0.0192903 0.
0.454683 0.0202593 0.
0.458693 0.0203969 0.
0.462862 0.0211096 0.
0.46707 0.0224355 0.
0.471249 0.0242539 0.
0.475321 0.0263515 0.
0.479258 0.0286096 0.
0.483082 0.0309857 0.
0.486752 0.0333586 0.
0.490303 0.0357467 0.
0.493717 0.0381456 0.
0.497027 0.0404469 0.
0.500296 0.0426449 0.
0.503539 0.0448042 0.
0.506721 0.0469904 0.
0.509866 0.0492103 0.
0.512978 0.0514023 0.
0.516053 0.0535043 0.
0.519132 0.0554853 0.
0.522197 0.0573372 0.
0.525251 0.0590601 0.
0.5283 0.0606569 0.
0.53132 0.0622032 0.
0.534313 0.06368 0.
0.537318 0.0650794 0.
0.540305 0.066404 0.
0.543263 0.0676798 0.
0.546194 0.0688457 0.
0.549107 0.0699749 0.
0.551936 0.0710053 0.
0.554762 0.07201 0.
0.557518 0.0728397 0.
0.560298 0.0736078 0.
0.562901 0.0741825 0.
0.565494 0.0747362 0.
0.56796 0.0750939 0.
0.570394 0.0754365 0.
0.572761 0.0757618 0.
0.574961 0.0759867 0.
0.577169 0.0762126 0.
0.579319 0.0763486 0.
0.581457 0.0764768 0.
0.583587 0.0765939 0.
0.585651 0.0766391 0.
0.587716 0.0766844 0.
0.589775 0.0767224 0.
0.591828 0.076753 0.
0.59388 0.0767837 0.
0.595929 0.0767961 0.
0.597976 0.0768024 0.
0.600023 0.0768086 0.
0.602072 0.0767877 0.
0.604122 0.0767667 0.
0.606175 0.0767406 0.
0.608237 0.0766999 0.
0.610298 0.0766593 0.
0.612371 0.0766114 0.
0.614453 0.0765568 0.
0.616535 0.0765026 0.
0.618695 0.0763429 0.
0.62086 0.0761733 0.
0.623052 0.0759882 0.
0.625314 0.0757137 0.
0.627564 0.0754431 0.
0.629998 0.0750823 0.
0.632474 0.0747183 0.
0.635051 0.0742211 0.
0.637723 0.073491 0.
0.640415 0.0727519 0.
0.643234 0.0719668 0.
0.646059 0.0711012 0.
0.648959 0.070028 0.
0.65187 0.0688811 0.
0.654796 0.0676439 0.
0.657728 0.0663852 0.
0.660695 0.0650679 0.
0.663691 0.0636895 0.
0.666711 0.0622086 0.
0.669739 0.0606062 0.
0.672784 0.0589021 0.
0.675838 0.0570929 0.
0.678884 0.0551942 0.
0.68196 0.0532093 0.
0.685048 0.0511803 0.
0.688158 0.0491234 0.
0.691296 0.0470694 0.
0.694474 0.0449936 0.
0.697681 0.0427931 0.
0.700934 0.0404776 0.
0.704275 0.0380965 0.
0.707691 0.0357181 0.
0.71124 0.0333629 0.
0.714926 0.030969 0.
0.71874 0.0285673 0.
0.722678 0.0263616 0.
0.726768 0.0242883 0.
0.730963 0.0224817 0.
0.735187 0.0212124 0.
0.739368 0.0205292 0.
0.743366 0.0203985 0.
0.455818 0.0213737 0.
0.459718 0.0215733 0.
0.463777 0.0223599 0.
0.467872 0.0237647 0.
0.471919 0.0256165 0.
0.475852 0.0277056 0.
0.479668 0.0299607 0.
0.483352 0.0323048 0.
0.486895 0.0346332 0.
0.490326 0.0369865 0.
0.493613 0.0393377 0.
0.496829 0.0415907 0.
0.500015 0.0437431 0.
0.503174 0.0458628 0.
0.506284 0.0480044 0.
0.509366 0.0501837 0.
0.512407 0.0523403 0.
0.515433 0.0544251 0.
0.518466 0.0563981 0.
0.521499 0.058266 0.
0.524526 0.059995 0.
0.527545 0.0616048 0.
0.530535 0.0631589 0.
0.533515 0.0646451 0.
0.536512 0.0660579 0.
0.539494 0.0674105 0.
0.542454 0.068721 0.
0.545392 0.0699276 0.
0.548303 0.0710757 0.
0.551173 0.0721639 0.
0.554038 0.0732386 0.
0.556855 0.0741777 0.
0.559672 0.07501 0.
0.562344 0.0756418 0.
0.564994 0.0762251 0.
0.567551 0.0766788 0.
0.570041 0.0771214 0.
0.57249 0.0775534 0.
0.574729 0.0777948 0.
0.576975 0.0780375 0.
0.579167 0.0782087 0.
0.581344 0.078375 0.
0.583512 0.0785288 0.
0.585588 0.0785781 0.
0.587664 0.0786276 0.
0.589734 0.0786692 0.
0.591795 0.0787026 0.
0.593857 0.0787361 0.
0.595915 0.0787495 0.
0.597972 0.0787562 0.
0.600028 0.0787627 0.
0.602088 0.0787396 0.
0.604147 0.0787166 0.
0.60621 0.0786875 0.
0.608282 0.0786421 0.
0.610354 0.0785969 0.
0.612442 0.0785429 0.
0.61454 0.0784816 0.
0.616638 0.0784207 0.
0.618839 0.0782166 0.
0.621042 0.0780048 0.
0.623286 0.0777776 0.
0.625601 0.077478 0.
0.627903 0.077182 0.
0.63044 0.0767049 0.
0.632974 0.0762461 0.
0.635623 0.0756423 0.
0.638324 0.0749023 0.
0.6411 0.0741025 0.
0.643956 0.0732341 0.
0.646832 0.0722462 0.
0.649746 0.0711195 0.
0.652669 0.0699413 0.
0.655601 0.0686882 0.
0.658552 0.0674005 0.
0.661508 0.0660606 0.
0.664494 0.0646519 0.
0.667494 0.063153 0.
0.670504 0.0615201 0.
0.673515 0.0598069 0.
0.676544 0.0579954 0.
0.679554 0.0561055 0.
0.68258 0.0541383 0.
0.685611 0.0521394 0.
0.688658 0.0501175 0.
0.691734 0.0480999 0.
0.694834 0.0460601 0.
0.697958 0.0438999 0.
0.701117 0.0416268 0.
0.704353 0.0392925 0.
0.707674 0.0369536 0.
0.711099 0.0346329 0.
0.714655 0.032285 0.
0.718346 0.0299155 0.
0.722157 0.0277062 0.
0.726092 0.0256472 0.
0.730155 0.0238006 0.
0.734245 0.0224522 0.
0.738302 0.0217083 0.
0.742207 0.0215225 0.
0.456965 0.0225374 0.
0.460764 0.0227982 0.
0.464721 0.023674 0.
0.468694 0.0251551 0.
0.472603 0.0270266 0.
0.476413 0.029124 0.
0.480099 0.0313746 0.
0.483642 0.033677 0.
0.487066 0.0359701 0.
0.490355 0.0382832 0.
0.493523 0.0405805 0.
0.496649 0.0427824 0.
0.499752 0.0448896 0.
0.502822 0.0469628 0.
0.505856 0.0490575 0.
0.508865 0.0511878 0.
0.51184 0.0533047 0.
0.514818 0.0553651 0.
0.517812 0.0573313 0.
0.520812 0.0592029 0.
0.5238 0.0609376 0.
0.52679 0.0625633 0.
0.529765 0.064118 0.
0.532731 0.0656124 0.
0.535709 0.067038 0.
0.538692 0.0684131 0.
0.54165 0.0697455 0.
0.544589 0.0709887 0.
0.547505 0.0721615 0.
0.55041 0.0732978 0.
0.553301 0.0744114 0.
0.556145 0.0754146 0.
0.558973 0.0762978 0.
0.561737 0.0770471 0.
0.564466 0.0776932 0.
0.567132 0.0782407 0.
0.569678 0.0787839 0.
0.572217 0.0793423 0.
0.574494 0.0795991 0.
0.576779 0.079856 0.
0.579014 0.0800574 0.
0.581226 0.0802615 0.
0.583432 0.0804568 0.
0.58552 0.0805103 0.
0.587608 0.080564 0.
0.58969 0.0806093 0.
0.591761 0.0806453 0.
0.593833 0.0806812 0.
0.595901 0.0806955 0.
0.597968 0.0807022 0.
0.600035 0.0807087 0.
0.602105 0.0806839 0.
0.604175 0.0806591 0.
0.606248 0.0806273 0.
0.60833 0.0805777 0.
0.610411 0.0805282 0.
0.612515 0.0804667 0.
0.614631 0.0803969 0.
0.616747 0.0803268 0.
0.618987 0.0800784 0.
0.621224 0.0798281 0.
0.623525 0.0795612 0.
0.625893 0.0792373 0.
0.628272 0.0789004 0.
0.630898 0.0783028 0.
0.6335 0.0777395 0.
0.636244 0.0770064 0.
0.638996 0.0762041 0.
0.641823 0.0753382 0.
0.644686 0.074436 0.
0.647594 0.0733657 0.
0.650522 0.0722013 0.
0.653465 0.0709818 0.
0.656403 0.0697133 0.
0.659357 0.0684087 0.
0.662318 0.0670476 0.
0.665295 0.0656105 0.
0.668276 0.0640917 0.
0.671256 0.0624442 0.
0.674244 0.0607224 0.
0.677239 0.0589162 0.
0.680216 0.0570379 0.
0.683194 0.0550939 0.
0.686174 0.053128 0.
0.689149 0.0511452 0.
0.69216 0.0491661 0.
0.695186 0.0471626 0.
0.698229 0.0450482 0.
0.701296 0.0428228 0.
0.704419 0.0405392 0.
0.707634 0.0382464 0.
0.710937 0.0359694 0.
0.71436 0.0336603 0.
0.71792 0.0313242 0.
0.721606 0.029115 0.
0.725404 0.0270566 0.
0.729328 0.0251815 0.
0.733294 0.0237549 0.
0.737228 0.022927 0.
0.741053 0.0226701 0.
0.458123 0.0237388 0.
0.461829 0.0240824 0.
0.465673 0.0250517 0.
0.469516 0.0265951 0.
0.473303 0.0284942 0.
0.476988 0.0306065 0.
0.480522 0.0328339 0.
0.483936 0.0351012 0.
0.487216 0.0373546 0.
0.490361 0.0396199 0.
0.493428 0.041861 0.
0.496464 0.0440127 0.
0.499472 0.0460688 0.
0.502451 0.0480932 0.
0.505406 0.0501376 0.
0.50834 0.0522102 0.
0.51126 0.0542861 0.
0.514198 0.0563225 0.
0.517157 0.0582799 0.
0.520118 0.0601453 0.
0.52307 0.0618877 0.
0.526037 0.0635272 0.
0.528998 0.065082 0.
0.531952 0.0665873 0.
0.534923 0.0680229 0.
0.537899 0.0694079 0.
0.540853 0.070761 0.
0.543796 0.0720445 0.
0.546719 0.0732401 0.
0.549642 0.074398 0.
0.55254 0.0755272 0.
0.555414 0.0766081 0.
0.558268 0.0775591 0.
0.561109 0.0784284 0.
0.563911 0.0791273 0.
0.566685 0.07975 0.
0.569244 0.0803526 0.
0.571815 0.080986 0.
0.574175 0.0812918 0.
0.576548 0.0815881 0.
0.578851 0.0818498 0.
0.581095 0.0821121 0.
0.583338 0.0823696 0.
0.585442 0.0824288 0.
0.587546 0.0824883 0.
0.589642 0.0825385 0.
0.591724 0.0825769 0.
0.593805 0.0826155 0.
0.595885 0.0826304 0.
0.597964 0.0826369 0.
0.600042 0.0826432 0.
0.602125 0.0826166 0.
0.604207 0.08259 0.
0.606292 0.0825555 0.
0.608382 0.0825019 0.
0.610472 0.0824484 0.
0.612596 0.0823729 0.
0.614735 0.0822856 0.
0.616882 0.0821908 0.
0.619186 0.081872 0.
0.621477 0.0815583 0.
0.623853 0.081235 0.
0.626283 0.0808833 0.
0.628743 0.0804908 0.
0.631389 0.0798373 0.
0.634061 0.0791723 0.
0.636878 0.078343 0.
0.639691 0.0774707 0.
0.642561 0.0765329 0.
0.645445 0.0755721 0.
0.648365 0.0744556 0.
0.651297 0.0732654 0.
0.654243 0.0720221 0.
0.657187 0.070738 0.
0.66015 0.0694157 0.
0.66311 0.0680325 0.
0.66608 0.0665748 0.
0.669055 0.0650321 0.
0.672015 0.0633772 0.
0.674974 0.06165 0.
0.677938 0.0598534 0.
0.680877 0.0579891 0.
0.683814 0.0560701 0.
0.686749 0.0541377 0.
0.689662 0.0521955 0.
0.692596 0.0502606 0.
0.695551 0.0482935 0.
0.69851 0.046225 0.
0.701492 0.0440535 0.
0.704506 0.0418253 0.
0.707603 0.039582 0.
0.710782 0.0373506 0.
0.714064 0.0350937 0.
0.717485 0.0327873 0.
0.721037 0.0305839 0.
0.724712 0.0285227 0.
0.728498 0.0266238 0.
0.732345 0.0251215 0.
0.736167 0.0241945 0.
0.739899 0.0238577 0.
0.459317 0.0249844 0.
0.462935 0.0254309 0.
0.466658 0.0265078 0.
0.47038 0.0281122 0.
0.474045 0.0300449 0.
0.477575 0.0321572 0.
0.480968 0.0343621 0.
0.484236 0.0365934 0.
0.487354 0.0387974 0.
0.490374 0.0410112 0.
0.493339 0.0431925 0.
0.496276 0.045287 0.
0.499182 0.0472863 0.
0.502072 0.0492621 0.
0.504948 0.0512511 0.
0.507819 0.0532684 0.
0.510693 0.0553018 0.
0.513587 0.0573057 0.
0.516507 0.0592495 0.
0.519428 0.0611028 0.
0.522355 0.0628546 0.
0.525301 0.0645006 0.
0.528252 0.0660606 0.
0.531197 0.067575 0.
0.534155 0.0690148 0.
0.537124 0.0704073 0.
0.540073 0.0717764 0.
0.543013 0.0730877 0.
0.545938 0.0743041 0.
0.548869 0.0754747 0.
0.551771 0.0766259 0.
0.554661 0.0777561 0.
0.55754 0.078773 0.
0.560417 0.0797347 0.
0.563244 0.0804675 0.
0.566053 0.0811394 0.
0.568686 0.0818196 0.
0.571328 0.0825477 0.
0.573817 0.0829563 0.
0.576297 0.0833096 0.
0.578686 0.083637 0.
0.580961 0.0839581 0.
0.583239 0.0842786 0.
0.585363 0.0843471 0.
0.587483 0.0844124 0.
0.589594 0.0844675 0.
0.591686 0.0845086 0.
0.593778 0.0845497 0.
0.595869 0.0845654 0.
0.597959 0.0845717 0.
0.60005 0.0845776 0.
0.602145 0.0845493 0.
0.604239 0.084521 0.
0.606335 0.0844837 0.
0.608435 0.084426 0.
0.610534 0.0843684 0.
0.612678 0.0842781 0.
0.61484 0.0841729 0.
0.617024 0.0840486 0.
0.619394 0.0836585 0.
0.621745 0.0832771 0.
0.624223 0.0828811 0.
0.626751 0.0824732 0.
0.629331 0.0819627 0.
0.632017 0.0812117 0.
0.634728 0.0804662 0.
0.637564 0.0796225 0.
0.640421 0.0786932 0.
0.643312 0.0776974 0.
0.646216 0.0766798 0.
0.649139 0.0755259 0.
0.652072 0.0743136 0.
0.65502 0.0730564 0.
0.65796 0.0717645 0.
0.660915 0.0704271 0.
0.663878 0.0690206 0.
0.66684 0.0675505 0.
0.669804 0.0659853 0.
0.672756 0.0643261 0.
0.675694 0.0625976 0.
0.678623 0.060815 0.
0.681525 0.058968 0.
0.684421 0.0570777 0.
0.687311 0.0551815 0.
0.690176 0.0532802 0.
0.693035 0.0513897 0.
0.695913 0.0494647 0.
0.698795 0.0474407 0.
0.701689 0.0453251 0.
0.704602 0.0431561 0.
0.707572 0.0409743 0.
0.710624 0.0387887 0.
0.713762 0.0365863 0.
0.717029 0.0343269 0.
0.720439 0.0321273 0.
0.723981 0.030066 0.
0.727639 0.0281442 0.
0.73136 0.0265661 0.
0.73507 0.0255338 0.
0.7387 0.0251052 0.
0.460555 0.026283 0.
0.464084 0.02685 0.
0.467695 0.0280513 0.
0.471295 0.0297204 0.
0.474807 0.0316784 0.
0.478181 0.0337872 0.
0.481423 0.0359702 0.
0.484517 0.0381465 0.
0.487489 0.0403011 0.
0.490395 0.0424591 0.
0.493254 0.0445756 0.
0.496084 0.0466045 0.
0.498897 0.048552 0.
0.501699 0.0504764 0.
0.504498 0.0524073 0.
0.507314 0.054369 0.
0.510143 0.0563527 0.
0.512994 0.0583218 0.
0.51587 0.0602426 0.
0.518755 0.0620812 0.
0.521656 0.063837 0.
0.524587 0.065486 0.
0.527523 0.0670532 0.
0.530452 0.0685715 0.
0.5334 0.0700146 0.
0.536357 0.0714142 0.
0.539297 0.0727926 0.
0.54223 0.07412 0.
0.545158 0.0753598 0.
0.548086 0.0765427 0.
0.550993 0.077708 0.
0.553893 0.0788643 0.
0.556799 0.0799321 0.
0.559684 0.0809263 0.
0.562533 0.0817479 0.
0.565378 0.0824939 0.
0.568098 0.0832561 0.
0.570804 0.0840732 0.
0.573414 0.084595 0.
0.57598 0.084996 0.
0.578441 0.0853826 0.
0.580737 0.0857463 0.
0.583055 0.0861135 0.
0.585227 0.0862134 0.
0.58739 0.0863005 0.
0.589535 0.0863722 0.
0.59164 0.086414 0.
0.593745 0.0864559 0.
0.59585 0.0864713 0.
0.597955 0.0864768 0.
0.60006 0.0864818 0.
0.602169 0.0864523 0.
0.604278 0.0864229 0.
0.606388 0.0863841 0.
0.608502 0.0863248 0.
0.610615 0.0862655 0.
0.612802 0.0861455 0.
0.615009 0.0860063 0.
0.617253 0.0858319 0.
0.619672 0.0853891 0.
0.622063 0.0849636 0.
0.624639 0.0845022 0.
0.627257 0.0840411 0.
0.629945 0.0833952 0.
0.63267 0.0825488 0.
0.635442 0.0816998 0.
0.638297 0.080821 0.
0.641168 0.0798582 0.
0.644073 0.0788293 0.
0.646998 0.0777653 0.
0.649921 0.0765858 0.
0.652849 0.0753514 0.
0.655795 0.0740864 0.
0.658738 0.0727897 0.
0.661678 0.0714399 0.
0.664626 0.0700159 0.
0.667582 0.068533 0.
0.670533 0.0669522 0.
0.673465 0.0652937 0.
0.676391 0.0635718 0.
0.679292 0.061803 0.
0.682157 0.0599761 0.
0.68501 0.0581169 0.
0.687858 0.0562593 0.
0.690677 0.0544015 0.
0.693477 0.0525541 0.
0.696275 0.0506744 0.
0.699072 0.0487026 0.
0.701881 0.0466464 0.
0.704701 0.0445357 0.
0.707552 0.0424161 0.
0.710467 0.0402913 0.
0.713464 0.0381372 0.
0.716569 0.0359393 0.
0.719815 0.0337578 0.
0.723205 0.0316934 0.
0.726729 0.0297532 0.
0.730324 0.0281012 0.
0.733914 0.0269628 0.
0.737436 0.0264229 0.
0.461845 0.0276562 0.
0.465279 0.028365 0.
0.468774 0.0296911 0.
0.472232 0.0314232 0.
0.475576 0.0333973 0.
0.478788 0.0355024 0.
0.481848 0.0376368 0.
0.484778 0.0397584 0.
0.487619 0.0418619 0.
0.490405 0.0439519 0.
0.493157 0.0459976 0.
0.495892 0.0479647 0.
0.498613 0.0498611 0.
0.501333 0.051731 0.
0.504066 0.0536056 0.
0.506829 0.0555082 0.
0.509608 0.0574394 0.
0.512411 0.0593705 0.
0.515243 0.0612596 0.
0.518092 0.0630803 0.
0.520974 0.0648329 0.
0.523883 0.0664824 0.
0.526802 0.0680586 0.
0.529719 0.0695765 0.
0.532653 0.0710234 0.
0.535594 0.0724273 0.
0.538528 0.0738101 0.
0.541454 0.0751515 0.
0.544379 0.076413 0.
0.547309 0.0776065 0.
0.550228 0.0787861 0.
0.553143 0.0799584 0.
0.556058 0.0810571 0.
0.558951 0.0820862 0.
0.561823 0.0829948 0.
0.564689 0.0838002 0.
0.567477 0.0846105 0.
0.570209 0.0854445 0.
0.572878 0.086075 0.
0.575489 0.0865656 0.
0.578054 0.0870695 0.
0.580422 0.0874853 0.
0.582816 0.0879077 0.
0.585063 0.0880562 0.
0.587281 0.0881753 0.
0.589473 0.0882714 0.
0.591592 0.0883141 0.
0.593712 0.0883568 0.
0.595831 0.088372 0.
0.597951 0.0883765 0.
0.600071 0.0883806 0.
0.602195 0.0883496 0.
0.604319 0.0883186 0.
0.606445 0.0882779 0.
0.608575 0.0882168 0.
0.610705 0.0881558 0.
0.612951 0.0879932 0.
0.615222 0.0878054 0.
0.617557 0.0875557 0.
0.620052 0.0870403 0.
0.622521 0.0865447 0.
0.625177 0.0860065 0.
0.627837 0.0854977 0.
0.630586 0.0847349 0.
0.633342 0.0838283 0.
0.636165 0.0829113 0.
0.639035 0.0820023 0.
0.641921 0.0809919 0.
0.64483 0.0799369 0.
0.647764 0.0788414 0.
0.650692 0.0776445 0.
0.653623 0.0763887 0.
0.656567 0.0751163 0.
0.659507 0.0738139 0.
0.662442 0.072451 0.
0.665375 0.0710153 0.
0.668313 0.069521 0.
0.671246 0.0679321 0.
0.67416 0.0662775 0.
0.677064 0.0645688 0.
0.679942 0.0628188 0.
0.682775 0.061013 0.
0.68559 0.0591861 0.
0.688394 0.0573687 0.
0.691169 0.0555565 0.
0.693918 0.0537527 0.
0.696646 0.0519188 0.
0.699362 0.0499986 0.
0.702083 0.0480049 0.
0.704809 0.0459609 0.
0.707556 0.0438973 0.
0.710337 0.0418384 0.
0.713186 0.0397479 0.
0.716131 0.0376081 0.
0.719202 0.0354699 0.
0.722414 0.0334082 0.
0.725776 0.0314562 0.
0.729237 0.0297378 0.
0.732701 0.0284976 0.
0.736113 0.0278168 0.
0.463158 0.0291205 0.
0.466487 0.0299955 0.
0.469846 0.031422 0.
0.473139 0.0332024 0.
0.476305 0.035188 0.
0.479327 0.037262 0.
0.482208 0.0393368 0.
0.484988 0.0414031 0.
0.48769 0.0434378 0.
0.490363 0.0454597 0.
0.493014 0.0474328 0.
0.495661 0.0493427 0.
0.4983 0.0511893 0.
0.500946 0.0530048 0.
0.50362 0.0548246 0.
0.506329 0.0566677 0.
0.509059 0.0585487 0.
0.511815 0.0604375 0.
0.514607 0.0622906 0.
0.517433 0.0640948 0.
0.520293 0.0658383 0.
0.523185 0.0674888 0.
0.52609 0.0690725 0.
0.528995 0.07059 0.
0.531914 0.0720407 0.
0.534846 0.0734467 0.
0.537773 0.0748318 0.
0.540692 0.0761872 0.
0.543619 0.0774685 0.
0.546558 0.0786724 0.
0.549485 0.0798614 0.
0.552404 0.0810441 0.
0.555328 0.0821781 0.
0.55823 0.0832332 0.
0.56112 0.0842053 0.
0.563999 0.0850423 0.
0.566825 0.0858841 0.
0.569586 0.0867551 0.
0.572317 0.0875082 0.
0.574983 0.0881034 0.
0.577652 0.088744 0.
0.580096 0.0892139 0.
0.582568 0.0896904 0.
0.584896 0.0898903 0.
0.58717 0.0900404 0.
0.589411 0.0901651 0.
0.591545 0.0902081 0.
0.593679 0.0902512 0.
0.595813 0.090266 0.
0.597948 0.0902696 0.
0.600082 0.0902727 0.
0.602221 0.0902404 0.
0.604359 0.0902081 0.
0.606501 0.0901659 0.
0.608647 0.0901037 0.
0.610793 0.0900416 0.
0.613104 0.0898324 0.
0.61544 0.0895954 0.
0.617872 0.089264 0.
0.620445 0.0886756 0.
0.623013 0.0880992 0.
0.625735 0.0874727 0.
0.628454 0.0868639 0.
0.631242 0.0859922 0.
0.634026 0.0850526 0.
0.636886 0.0841053 0.
0.639772 0.0831621 0.
0.642669 0.0821172 0.
0.645583 0.0810396 0.
0.648521 0.0799153 0.
0.651448 0.0787017 0.
0.654378 0.0774303 0.
0.657324 0.0761526 0.
0.660263 0.0748432 0.
0.663193 0.0734653 0.
0.666118 0.0720204 0.
0.669042 0.0705143 0.
0.671957 0.068923 0.
0.674849 0.0672756 0.
0.677733 0.0655825 0.
0.680588 0.0638505 0.
0.683394 0.0620685 0.
0.686175 0.0602765 0.
0.688938 0.0584976 0.
0.69167 0.0567324 0.
0.694375 0.054969 0.
0.697049 0.0531773 0.
0.699693 0.0513063 0.
0.702333 0.0493712 0.
0.704967 0.0473965 0.
0.707609 0.0453992 0.
0.710276 0.0433976 0.
0.712981 0.0413808 0.
0.715763 0.0393136 0.
0.718657 0.037225 0.
0.721676 0.0351906 0.
0.724849 0.0332361 0.
0.728145 0.0314744 0.
0.731475 0.0301239 0.
0.734774 0.0292992 0.
0.464451 0.0307011 0.
0.467655 0.0317272 0.
0.470853 0.0332287 0.
0.473956 0.0350454 0.
0.476916 0.0370129 0.
0.479742 0.0390295 0.
0.482454 0.041042 0.
0.485079 0.0430356 0.
0.487656 0.0450012 0.
0.490226 0.0469543 0.
0.492788 0.0488618 0.
0.495357 0.0507201 0.
0.497918 0.0525156 0.
0.500506 0.0542827 0.
0.503129 0.0560522 0.
0.505786 0.0578384 0.
0.50847 0.0596708 0.
0.511186 0.0615134 0.
0.513952 0.0633331 0.
0.516763 0.065122 0.
0.519603 0.0668544 0.
0.522484 0.0685066 0.
0.525382 0.0700942 0.
0.528277 0.0716142 0.
0.531186 0.0730709 0.
0.534109 0.0744782 0.
0.537034 0.0758656 0.
0.539954 0.0772308 0.
0.542887 0.078526 0.
0.545834 0.0797465 0.
0.548769 0.0809467 0.
0.551689 0.0821345 0.
0.554617 0.0832888 0.
0.557527 0.0843723 0.
0.560434 0.0853881 0.
0.563322 0.0862653 0.
0.566179 0.0871466 0.
0.568977 0.0880548 0.
0.571765 0.0888968 0.
0.574492 0.0895945 0.
0.577216 0.0903061 0.
0.579733 0.0908081 0.
0.582258 0.091305 0.
0.584673 0.0915934 0.
0.587028 0.0918346 0.
0.589347 0.0920389 0.
0.591497 0.0920825 0.
0.593647 0.0921261 0.
0.595797 0.0921408 0.
0.597946 0.0921437 0.
0.600096 0.092146 0.
0.602248 0.0921119 0.
0.604401 0.0920779 0.
0.606557 0.0920332 0.
0.608717 0.0919682 0.
0.610877 0.0919033 0.
0.613303 0.0915802 0.
0.615737 0.0912412 0.
0.618251 0.0908184 0.
0.620852 0.090214 0.
0.623496 0.0895997 0.
0.626276 0.0889103 0.
0.629062 0.0881821 0.
0.631884 0.0872328 0.
0.634704 0.0862452 0.
0.637585 0.0852887 0.
0.640489 0.0843107 0.
0.643396 0.0832372 0.
0.646316 0.0821424 0.
0.649253 0.0809936 0.
0.652181 0.0797635 0.
0.655114 0.078481 0.
0.65806 0.0771987 0.
0.660999 0.0758821 0.
0.663932 0.0744876 0.
0.666856 0.0730351 0.
0.669772 0.071516 0.
0.672674 0.069925 0.
0.675548 0.0682857 0.
0.678414 0.066609 0.
0.681248 0.0648961 0.
0.684031 0.0631371 0.
0.686782 0.06138 0.
0.689511 0.05964 0.
0.692205 0.0579196 0.
0.69487 0.0561954 0.
0.697499 0.0544394 0.
0.700089 0.0526117 0.
0.702658 0.0507309 0.
0.705215 0.0488184 0.
0.70776 0.0468887 0.
0.710316 0.04495 0.
0.712903 0.0429984 0.
0.715529 0.0410162 0.
0.718241 0.0389972 0.
0.721066 0.037006 0.
0.724029 0.0350731 0.
0.727127 0.0332859 0.
0.730297 0.0318412 0.
0.73347 0.0308836 0.
0.46568 0.0324014 0.
0.46873 0.0335427 0.
0.471735 0.0351082 0.
0.474617 0.0369231 0.
0.477364 0.0388418 0.
0.480007 0.0407962 0.
0.482552 0.0427297 0.
0.485043 0.044649 0.
0.487519 0.0465512 0.
0.489999 0.04844 0.
0.492488 0.0502931 0.
0.494983 0.0521 0.
0.497488 0.0538505 0.
0.500033 0.0555789 0.
0.502609 0.0573039 0.
0.505223 0.059041 0.
0.507874 0.0608279 0.
0.510561 0.0626208 0.
0.513316 0.0644096 0.
0.516114 0.0661802 0.
0.51894 0.0678999 0.
0.521811 0.0695507 0.
0.5247 0.0711392 0.
0.527587 0.0726634 0.
0.530488 0.0741239 0.
0.533406 0.0755315 0.
0.536331 0.07692 0.
0.539254 0.0782909 0.
0.542195 0.0795968 0.
0.545148 0.0808351 0.
0.548082 0.0820462 0.
0.551003 0.0832341 0.
0.553938 0.0843998 0.
0.556865 0.0855151 0.
0.559777 0.0865611 0.
0.562675 0.0874787 0.
0.56555 0.0883997 0.
0.56838 0.0893423 0.
0.571206 0.090213 0.
0.573961 0.0909585 0.
0.576706 0.0917289 0.
0.579318 0.0923301 0.
0.581918 0.0928901 0.
0.584436 0.0932832 0.
0.586878 0.0936208 0.
0.589282 0.0939127 0.
0.591449 0.0939569 0.
0.593615 0.0940011 0.
0.59578 0.0940157 0.
0.597945 0.0940178 0.
0.600109 0.0940193 0.
0.602276 0.0939834 0.
0.604442 0.0939476 0.
0.606613 0.0939004 0.
0.608788 0.0938325 0.
0.610962 0.0937648 0.
0.61352 0.0933103 0.
0.616072 0.0928484 0.
0.61868 0.0923103 0.
0.621321 0.0916513 0.
0.624027 0.0909675 0.
0.626824 0.0902603 0.
0.629653 0.0894597 0.
0.632505 0.088463 0.
0.635356 0.0874414 0.
0.638249 0.0864653 0.
0.641161 0.0854558 0.
0.644082 0.0843624 0.
0.647015 0.0832522 0.
0.649952 0.0820823 0.
0.652878 0.0808385 0.
0.655814 0.0795473 0.
0.658764 0.0782614 0.
0.661701 0.0769375 0.
0.664633 0.0755319 0.
0.667561 0.0740688 0.
0.670474 0.0725404 0.
0.673363 0.070955 0.
0.676226 0.0693275 0.
0.679076 0.067666 0.
0.681892 0.0659745 0.
0.684659 0.0642387 0.
0.687386 0.0625139 0.
0.690086 0.060814 0.
0.692749 0.0591337 0.
0.695381 0.0574434 0.
0.697974 0.0557221 0.
0.700526 0.0539299 0.
0.703042 0.0520951 0.
0.705532 0.0502392 0.
0.708004 0.0483688 0.
0.710466 0.0464908 0.
0.712945 0.0446013 0.
0.715447 0.0426959 0.
0.717992 0.0407641 0.
0.720624 0.0388306 0.
0.723374 0.0369389 0.
0.726253 0.03516 0.
0.729228 0.0336496 0.
0.732246 0.0325756 0.
0.466752 0.0342035 0.
0.469615 0.0354214 0.
0.472395 0.0370118 0.
0.475055 0.0388 0.
0.477612 0.0406662 0.
0.480083 0.0425387 0.
0.482491 0.0443934 0.
0.484892 0.0462478 0.
0.487293 0.0480969 0.
0.48971 0.0499376 0.
0.492137 0.0517428 0.
0.494581 0.0535024 0.
0.497058 0.0552236 0.
0.499569 0.0569184 0.
0.502106 0.0586091 0.
0.504688 0.0603034 0.
0.507315 0.0620407 0.
0.50999 0.063788 0.
0.512738 0.0655477 0.
0.51552 0.0672917 0.
0.518334 0.0689972 0.
0.521196 0.0706379 0.
0.52407 0.0722207 0.
0.526949 0.073748 0.
0.52985 0.0752115 0.
0.532761 0.0766167 0.
0.535683 0.0780061 0.
0.538615 0.0793805 0.
0.541561 0.0806939 0.
0.544505 0.0819452 0.
0.547434 0.0831611 0.
0.550364 0.0843494 0.
0.553312 0.0855251 0.
0.556237 0.086665 0.
0.559151 0.0877307 0.
0.562061 0.0886861 0.
0.564949 0.0896394 0.
0.567806 0.0905929 0.
0.570647 0.0914833 0.
0.573427 0.0922924 0.
0.576194 0.0931285 0.
0.578895 0.0938287 0.
0.581571 0.0944458 0.
0.584193 0.0949397 0.
0.58672 0.0953677 0.
0.589213 0.0957621 0.
0.591397 0.0958064 0.
0.593582 0.0958507 0.
0.595764 0.0958656 0.
0.597944 0.0958676 0.
0.600125 0.0958688 0.
0.602306 0.0958322 0.
0.604486 0.0957956 0.
0.606672 0.0957466 0.
0.608862 0.0956765 0.
0.611052 0.0956067 0.
0.613744 0.0950065 0.
0.61642 0.0944265 0.
0.619108 0.093782 0.
0.62179 0.0930708 0.
0.62456 0.092314 0.
0.627376 0.0915591 0.
0.630226 0.0906835 0.
0.633101 0.0896682 0.
0.635977 0.0886384 0.
0.638878 0.087645 0.
0.641795 0.0866075 0.
0.644717 0.0855033 0.
0.647656 0.0843771 0.
0.6506 0.0831907 0.
0.653531 0.0819342 0.
0.656462 0.080641 0.
0.65941 0.079351 0.
0.66235 0.0780191 0.
0.66528 0.0766068 0.
0.668201 0.0751386 0.
0.671112 0.0736045 0.
0.673999 0.0720275 0.
0.67685 0.0704176 0.
0.679687 0.0687753 0.
0.682486 0.0671072 0.
0.685235 0.0654008 0.
0.687948 0.0637047 0.
0.690626 0.0620421 0.
0.693264 0.0604013 0.
0.695872 0.0587371 0.
0.698437 0.0570451 0.
0.700961 0.0552878 0.
0.703444 0.0534903 0.
0.705891 0.0516803 0.
0.708311 0.0498619 0.
0.710706 0.048033 0.
0.713099 0.0462005 0.
0.715507 0.0443576 0.
0.717931 0.0425038 0.
0.720391 0.0406489 0.
0.722939 0.0388016 0.
0.725599 0.0370541 0.
0.728362 0.0355272 0.
0.731196 0.034353 0.
0.467581 0.0360566 0.
0.470235 0.0373273 0.
0.4728 0.0389358 0.
0.475276 0.0406944 0.
0.477662 0.0424944 0.
0.479997 0.0442859 0.
0.482327 0.0460767 0.
0.484668 0.0478823 0.
0.487021 0.0496971 0.
0.489395 0.0514997 0.
0.491782 0.0532599 0.
0.494211 0.0549843 0.
0.496676 0.0566815 0.
0.499158 0.0583506 0.
0.501668 0.0600102 0.
0.504229 0.0616561 0.
0.506844 0.0633433 0.
0.509515 0.0650519 0.
0.512248 0.0667755 0.
0.515015 0.0684932 0.
0.517822 0.070179 0.
0.520667 0.0717938 0.
0.523526 0.0733675 0.
0.526405 0.0748953 0.
0.529302 0.076352 0.
0.532207 0.077752 0.
0.535133 0.0791467 0.
0.538069 0.0805251 0.
0.541003 0.0818332 0.
0.54394 0.0830962 0.
0.546876 0.0843188 0.
0.549813 0.0855009 0.
0.552759 0.0866847 0.
0.555685 0.0878495 0.
0.558603 0.0889233 0.
0.561529 0.0899048 0.
0.564423 0.0908775 0.
0.567276 0.0918458 0.
0.570127 0.0927591 0.
0.572938 0.0936169 0.
0.575742 0.0945046 0.
0.578531 0.0952712 0.
0.581263 0.0959126 0.
0.583946 0.096493 0.
0.586551 0.0970561 0.
0.589135 0.0975929 0.
0.59134 0.0976388 0.
0.593546 0.0976849 0.
0.595747 0.0977009 0.
0.597945 0.0977034 0.
0.600142 0.097705 0.
0.602338 0.0976675 0.
0.604534 0.0976299 0.
0.606737 0.0975782 0.
0.608945 0.0975045 0.
0.611159 0.0974238 0.
0.613933 0.0966191 0.
0.616681 0.0958921 0.
0.619436 0.0952058 0.
0.622192 0.0944744 0.
0.625039 0.0936522 0.
0.627882 0.0928534 0.
0.630754 0.091914 0.
0.633635 0.0908816 0.
0.63652 0.089851 0.
0.639431 0.0888405 0.
0.642352 0.087787 0.
0.64527 0.0866822 0.
0.648204 0.0855382 0.
0.651156 0.084336 0.
0.654091 0.0830768 0.
0.657026 0.0817775 0.
0.659968 0.0804853 0.
0.662909 0.079152 0.
0.665839 0.0777383 0.
0.668749 0.0762682 0.
0.67165 0.0747372 0.
0.674536 0.073172 0.
0.677383 0.0715839 0.
0.680202 0.0699709 0.
0.682988 0.0683312 0.
0.685725 0.0666547 0.
0.688423 0.0649872 0.
0.691089 0.0633589 0.
0.693708 0.0617576 0.
0.696298 0.0601253 0.
0.698843 0.058454 0.
0.701347 0.0567286 0.
0.703818 0.0549681 0.
0.706245 0.053193 0.
0.708632 0.0514236 0.
0.710991 0.0496388 0.
0.713331 0.0478455 0.
0.715665 0.0460586 0.
0.718009 0.0442609 0.
0.720348 0.0424761 0.
0.722726 0.0406874 0.
0.72519 0.0389658 0.
0.727749 0.0374302 0.
0.730387 0.0361832 0.
CELLS 5000 10000
1 0
1 1
1 2
1 3
1 4
1 5
1 6
1 7
1 8
1 9
1 10
1 11
1 12
1 13
1 14
1 15
1 16
1 17
1 18
1 19
1 20
1 21
1 22
1 23
1 24
1 25
1 26
1 27
1 28
1 29
1 30
1 31
1 32
1 33
1 34
1 35
1 36
1 37
1 38
1 39
1 40
1 41
1 42
1 43
1 44
1 45
1 46
1 47
1 48
1 49
1 50
1 51
1 52
1 53
1 54
1 55
1 56
1 57
1 58
1 59
1 60
1 61
1 62
1 63
1 64
1 65
1 66
1 67
1 68
1 69
1 70
1 71
1 72
1 73
1 74
1 75
1 76
1 77
1 78
1 79
1 80
1 81
1 82
1 83
1 84
1 85
1 86
1 87
1 88
1 89
1 90
1 91
1 92
1 93
1 94
1 95
1 96
1 97
1 98
1 99
1 100
1 101
1 102
1 103
1 104
1 105
1 106
1 107
1 108
1 109
1 110
1 111
1 112
1 113
1 114
1 115
1 116
1 117
1 118
1 119
1 120
1 121
1 122
1 123
1 124
1 125
1 126
1 127
1 128
1 129
1 130
1 131
1 132
1 133
1 134
1 135
1 136
1 137
1 138
1 139
1 140
1 141
1 142
1 143
1 144
1 145
1 146
1 147
1 148
1 149
1 150
1 151
1 152
1 153
1 154
1 155
1 156
1 157
1 158
1 159
1 160
1 161
1 162
1 163
1 164
1 165
1 166
1 167
1 168
1 169
1 170
1 171
1 172
1 173
1 174
1 175
1 176
1 177
1 178
1 179
1 180
1 181
1 182
1 183
1 184
1 185
1 186
1 187
1 188
1 189
1 190
1 191
1 192
1 193
1 194
1 195
1 196
1 197
1 198
1 199
1 200
1 201
1 202
1 203
1 204
1 205
1 206
1 207
1 208
1 209
1 210
1 211
1 212
1 213
1 214
1 215
1 216
1 217
1 218
1 219
1 220
1 221
1 222
1 223
1 224
1 225
1 226
1 227
1 228
1 229
1 230
1 231
1 232
1 233
1 234
1 235
1 236
1 237
1 238
1 239
1 240
1 241
1 242
1 243
1 244
1 245
1 246
1 247
1 248
1 249
1 250
1 251
1 252
1 253
1 254
1 255
1 256
1 257
1 258
1 259
1 260
1 261
1 262
1 263
1 264
1 265
1 266
1 267
1 268
1 269
1 270
1 271
1 272
1 273
1 274
1 275
1 276
1 277
1 278
1 279
1 280
1 281
1 282
1 283
1 284
1 285
1 286
1 287
1 288
1 289
1 290
1 291
1 292
1 293
1 294
1 295
1 296
1 297
1 298
1 299
1 300
1 301
1 302
1 303
1 304
1 305
1 306
1 307
1 308
1 309
1 310
1 311
1 312
1 313
1 314
1 315
1 316
1 317
1 318
1 319
1 320
1 321
1 322
1 323
1 324
1 325
1 326
1 327
1 328
1 329
1 330
1 331
1 332
1 333
1 334
1 335
1 336
1 337
1 338
1 339
1 340
1 341
1 342
1 343
1 344
1 345
1 346
1 347
1 348
1 349
1 350
1 351
1 352
1 353
1 354
1 355
1 356
1 357
1 358
1 359
1 360
1 361
1 362
1 363
1 364
1 365
1 366
1 367
1 368
1 369
1 370
1 371
1 372
1 373
1 374
1 375
1 376
1 377
1 378
1 379
1 380
1 381
1 382
1 383
1 384
1 385
1 386
1 387
1 388
1 389
1 390
1 391
1 392
1 393
1 394
1 395
1 396
1 397
1 398
1 399
1 400
1 401
1 402
1 403
1 404
1 405
1 406
1 407
1 408
1 409
1 410
1 411
1 412
1 413
1 414
1 415
1 416
1 417
1 418
1 419
1 420
1 421
1 422
1 423
1 424
1 425
1 426
1 427
1 428
1 429
1 430
1 431
1 432
1 433
1 434
1 435
1 436
1 437
1 438
1 439
1 440
1 441
1 442
1 443
1 444
1 445
1 446
1 447
1 448
1 449
1 450
1 451
1 452
1 453
1 454
1 455
1 456
1 457
1 458
1 459
1 460
1 461
1 462
1 463
1 464
1 465
1 466
1 467
1 468
1 469
1 470
1 471
1 472
1 473
1 474
1 475
1 476
1 477
1 478
1 479
1 480
1 481
1 482
1 483
1 484
1 485
1 486
1 487
1 488
1 489
1 490
1 491
1 492
1 493
1 494
1 495
1 496
1 497
1 498
1 499
1 500
1 501
1 502
1 503
1 504
1 505
1 506
1 507
1 508
1 509
1 510
1 511
1 512
1 513
1 514
1 515
1 516
1 517
1 518
1 519
1 520
1 521
1 522
1 523
1 524
1 525
1 526
1 527
1 528
1 529
1 530
1 531
1 532
1 533
1 534
1 535
1 536
1 537
1 538
1 539
1 540
1 541
1 542
1 543
1 544
1 545
1 546
1 547
1 548
1 549
1 550
1 551
1 552
1 553
1 554
1 555
1 556
1 557
1 558
1 559
1 560
1 561
1 562
1 563
1 564
1 565
1 566
1 567
1 568
1 569
1 570
1 571
1 572
1 573
1 574
1 575
1 576
1 577
1 578
1 579
1 580
1 581
1 582
1 583
1 584
1 585
1 586
1 587
1 588
1 589
1 590
1 591
1 592
1 593
1 594
1 595
1 596
1 597
1 598
1 599
1 600
1 601
1 602
1 603
1 604
1 605
1 606
1 607
1 608
1 609
1 610
1 611
1 612
1 613
1 614
1 615
1 616
1 617
1 618
1 619
1 620
1 621
1 622
1 623
1 624
1 625
1 626
1 627
1 628
1 629
1 630
1 631
1 632
1 633
1 634
1 635
1 636
1 637
1 638
1 639
1 640
1 641
1 642
1 643
1 644
1 645
1 646
1 647
1 648
1 649
1 650
1 651
1 652
1 653
1 654
1 655
1 656
1 657
1 658
1 659
1 660
1 661
1 662
1 663
1 664
1 665
1 666
1 667
1 668
1 669
1 670
1 671
1 672
1 673
1 674
1 675
1 676
1 677
1 678
1 679
1 680
1 681
1 682
1 683
1 684
1 685
1 686
1 687
1 688
1 689
1 690
1 691
1 692
1 693
1 694
1 695
1 696
1 697
1 698
1 699
1 700
1 701
1 702
1 703
1 704
1 705
1 706
1 707
1 708
1 709
1 710
1 711
1 712
1 713
1 714
1 715
1 716
1 717
1 718
1 719
1 720
1 721
1 722
1 723
1 724
1 725
1 726
1 727
1 728
1 729
1 730
1 731
1 732
1 733
1 734
1 735
1 736
1 737
1 738
1 739
1 740
1 741
1 742
1 743
1 744
1 745
1 746
1 747
1 748
1 749
1 750
1 751
1 752
1 753
1 754
1 755
1 756
1 757
1 758
1 759
1 760
1 761
1 762
1 763
1 764
1 765
1 766
1 767
1 768
1 769
1 770
1 771
1 772
1 773
1 774
1 775
1 776
1 777
1 778
1 779
1 780
1 781
1 782
1 783
1 784
1 785
1 786
1 787
1 788
1 789
1 790
1 791
1 792
1 793
1 794
1 795
1 796
1 797
1 798
1 799
1 800
1 801
1 802
1 803
1 804
1 805
1 806
1 807
1 808
1 809
1 810
1 811
1 812
1 813
1 814
1 815
1 816
1 817
1 818
1 819
1 820
1 821
1 822
1 823
1 824
1 825
1 826
1 827
1 828
1 829
1 830
1 831
1 832
1 833
1 834
1 835
1 836
1 837
1 838
1 839
1 840
1 841
1 842
1 843
1 844
1 845
1 846
1 847
1 848
1 849
1 850
1 851
1 852
1 853
1 854
1 855
1 856
1 857
1 858
1 859
1 860
1 861
1 862
1 863
1 864
1 865
1 866
1 867
1 868
1 869
1 870
1 871
1 872
1 873
1 874
1 875
1 876
1 877
1 878
1 879
1 880
1 881
1 882
1 883
1 884
1 885
1 886
1 887
1 888
1 889
1 890
1 891
1 892
1 893
1 894
1 895
1 896
1 897
1 898
1 899
1 900
1 901
1 902
1 903
1 904
1 905
1 906
1 907
1 908
1 909
1 910
1 911
1 912
1 913
1 914
1 915
1 916
1 917
1 918
1 919
1 920
1 921
1 922
1 923
1 924
1 925
1 926
1 927
1 928
1 929
1 930
1 931
1 932
1 933
1 934
1 935
1 936
1 937
1 938
1 939
1 940
1 941
1 942
1 943
1 944
1 945
1 946
1 947
1 948
1 949
1 950
1 951
1 952
1 953
1 954
1 955
1 956
1 957
1 958
1 959
1 960
1 961
1 962
1 963
1 964
1 965
1 966
1 967
1 968
1 969
1 970
1 971
1 972
1 973
1 974
1 975
1 976
1 977
1 978
1 979
1 980
1 981
1 982
1 983
1 984
1 985
1 986
1 987
1 988
1 989
1 990
1 991
1 992
1 993
1 994
1 995
1 996
1 997
1 998
1 999
1 1000
1 1001
1 1002
1 1003
1 1004
1 1005
1 1006
1 1007
1 1008
1 1009
1 1010
1 1011
1 1012
1 1013
1 1014
1 1015
1 1016
1 1017
1 1018
1 1019
1 1020
1 1021
1 1022
1 1023
1 1024
1 1025
1 1026
1 1027
1 1028
1 1029
1 1030
1 1031
1 1032
1 1033
1 1034
1 1035
1 1036
1 1037
1 1038
1 1039
1 1040
1 1041
1 1042
1 1043
1 1044
1 1045
1 1046
1 1047
1 1048
1 1049
1 1050
1 1051
1 1052
1 1053
1 1054
1 1055
1 1056
1 1057
1 1058
1 1059
1 1060
1 1061
1 1062
1 1063
1 1064
1 1065
1 1066
1 1067
1 1068
1 1069
1 1070
1 1071
1 1072
1 1073
1 1074
1 1075
1 1076
1 1077
1 1078
1 1079
1 1080
1 1081
1 1082
1 1083
1 1084
1 1085
1 1086
1 1087
1 1088
1 1089
1 1090
1 1091
1 1092
1 1093
1 1094
1 1095
1 1096
1 1097
1 1098
1 1099
1 1100
1 1101
1 1102
1 1103
1 1104
1 1105
1 1106
1 1107
1 1108
1 1109
1 1110
1 1111
1 1112
1 1113
1 1114
1 1115
1 1116
1 1117
1 1118
1 1119
1 1120
1 1121
1 1122
1 1123
1 1124
1 1125
1 1126
1 1127
1 1128
1 1129
1 1130
1 1131
1 1132
1 1133
1 1134
1 1135
1 1136
1 1137
1 1138
1 1139
1 1140
1 1141
1 1142
1 1143
1 1144
1 1145
1 1146
1 1147
1 1148
1 1149
1 1150
1 1151
1 1152
1 1153
1 1154
1 1155
1 1156
1 1157
1 1158
1 1159
1 1160
1 1161
1 1162
1 1163
1 1164
1 1165
1 1166
1 1167
1 1168
1 1169
1 1170
1 1171
1 1172
1 1173
1 1174
1 1175
1 1176
1 1177
1 1178
1 1179
1 1180
1 1181
1 1182
1 1183
1 1184
1 1185
1 1186
1 1187
1 1188
1 1189
1 1190
1 1191
1 1192
1 1193
1 1194
1 1195
1 1196
1 1197
1 1198
1 1199
1 1200
1 1201
1 1202
1 1203
1 1204
1 1205
1 1206
1 1207
1 1208
1 1209
1 1210
1 1211
1 1212
1 1213
1 1214
1 1215
1 1216
1 1217
1 1218
1 1219
1 1220
1 1221
1 1222
1 1223
1 1224
1 1225
1 1226
1 1227
1 1228
1 1229
1 1230
1 1231
1 1232
1 1233
1 1234
1 1235
1 1236
1 1237
1 1238
1 1239
1 1240
1 1241
1 1242
1 1243
1 1244
1 1245
1 1246
1 1247
1 1248
1 1249
1 1250
1 1251
1 1252
1 1253
1 1254
1 1255
1 1256
1 1257
1 1258
1 1259
1 1260
1 1261
1 1262
1 1263
1 1264
1 1265
1 1266
1 1267
1 1268
1 1269
1 1270
1 1271
1 1272
1 1273
1 1274
1 1275
1 1276
1 1277
1 1278
1 1279
1 1280
1 1281
1 1282
1 1283
1 1284
1 1285
1 1286
1 1287
1 1288
1 1289
1 1290
1 1291
1 1292
1 1293
1 1294
1 1295
1 1296
1 1297
1 1298
1 1299
1 1300
1 1301
1 1302
1 1303
1 1304
1 1305
1 1306
1 1307
1 1308
1 1309
1 1310
1 1311
1 1312
1 1313
1 1314
1 1315
1 1316
1 1317
1 1318
1 1319
1 1320
1 1321
1 1322
1 1323
1 1324
1 1325
1 1326
1 1327
1 1328
1 1329
1 1330
1 1331
1 1332
1 1333
1 1334
1 1335
1 1336
1 1337
1 1338
1 1339
1 1340
1 1341
1 1342
1 1343
1 1344
1 1345
1 1346
1 1347
1 1348
1 1349
1 1350
1 1351
1 1352
1 1353
1 1354
1 1355
1 1356
1 1357
1 1358
1 1359
1 1360
1 1361
1 1362
1 1363
1 1364
1 1365
1 1366
1 1367
1 1368
1 1369
1 1370
1 1371
1 1372
1 1373
1 1374
1 1375
1 1376
1 1377
1 1378
1 1379
1 1380
1 1381
1 1382
1 1383
1 1384
1 1385
1 1386
1 1387
1 1388
1 1389
1 1390
1 1391
1 1392
1 1393
1 1394
1 1395
1 1396
1 1397
1 1398
1 1399
1 1400
1 1401
1 1402
1 1403
1 1404
1 1405
1 1406
1 1407
1 1408
1 1409
1 1410
1 1411
1 1412
1 1413
1 1414
1 1415
1 1416
1 1417
1 1418
1 1419
1 1420
1 1421
1 1422
1 1423
1 1424
1 1425
1 1426
1 1427
1 1428
1 1429
1 1430
1 1431
1 1432
1 1433
1 1434
1 1435
1 1436
1 1437
1 1438
1 1439
1 1440
1 1441
1 1442
1 1443
1 1444
1 1445
1 1446
1 1447
1 1448
1 1449
1 1450
1 1451
1 1452
1 1453
1 1454
1 1455
1 1456
1 1457
1 1458
1 1459
1 1460
1 1461
1 1462
1 1463
1 1464
1 1465
1 1466
1 1467
1 1468
1 1469
1 1470
1 1471
1 1472
1 1473
1 1474
1 1475
1 1476
1 1477
1 1478
1 1479
1 1480
1 1481
1 1482
1 1483
1 1484
1 1485
1 1486
1 1487
1 1488
1 1489
1 1490
1 1491
1 1492
1 1493
1 1494
1 1495
1 1496
1 1497
1 1498
1 1499
1 1500
1 1501
1 1502
1 1503
1 1504
1 1505
1 1506
1 1507
1 1508
1 1509
1 1510
1 1511
1 1512
1 1513
1 1514
1 1515
1 1516
1 1517
1 1518
1 1519
1 1520
1 1521
1 1522
1 1523
1 1524
1 1525
1 1526
1 1527
1 1528
1 1529
1 1530
1 1531
1 1532
1 1533
1 1534
1 1535
1 1536
1 1537
1 1538
1 1539
1 1540
1 1541
1 1542
1 1543
1 1544
1 1545
1 1546
1 1547
1 1548
1 1549
1 1550
1 1551
1 1552
1 1553
1 1554
1 1555
1 1556
1 1557
1 1558
1 1559
1 1560
1 1561
1 1562
1 1563
1 1564
1 1565
1 1566
1 1567
1 1568
1 1569
1 1570
1 1571
1 1572
1 1573
1 1574
1 1575
1 1576
1 1577
1 1578
1 1579
1 1580
1 1581
1 1582
1 1583
1 1584
1 1585
1 1586
1 1587
1 1588
1 1589
1 1590
1 1591
1 1592
1 1593
1 1594
1 1595
1 1596
1 1597
1 1598
1 1599
1 1600
1 1601
1 1602
1 1603
1 1604
1 1605
1 1606
1 1607
1 1608
1 1609
1 1610
1 1611
1 1612
1 1613
1 1614
1 1615
1 1616
1 1617
1 1618
1 1619
1 1620
1 1621
1 1622
1 1623
1 1624
1 1625
1 1626
1 1627
1 1628
1 1629
1 1630
1 1631
1 1632
1 1633
1 1634
1 1635
1 1636
1 1637
1 1638
1 1639
1 1640
1 1641
1 1642
1 1643
1 1644
1 1645
1 1646
1 1647
1 1648
1 1649
1 1650
1 1651
1 1652
1 1653
1 1654
1 1655
1 1656
1 1657
1 1658
1 1659
1 1660
1 1661
1 1662
1 1663
1 1664
1 1665
1 1666
1 1667
1 1668
1 1669
1 1670
1 1671
1 1672
1 1673
1 1674
1 1675
1 1676
1 1677
1 1678
1 1679
1 1680
1 1681
1 1682
1 1683
1 1684
1 1685
1 1686
1 1687
1 1688
1 1689
1 1690
1 1691
1 1692
1 1693
1 1694
1 1695
1 1696
1 1697
1 1698
1 1699
1 1700
1 1701
1 1702
1 1703
1 1704
1 1705
1 1706
1 1707
1 1708
1 1709
1 1710
1 1711
1 1712
1 1713
1 1714
1 1715
1 1716
1 1717
1 1718
1 1719
1 1720
1 1721
1 1722
1 1723
1 1724
1 1725
1 1726
1 1727
1 1728
1 1729
1 1730
1 1731
1 1732
1 1733
1 1734
1 1735
1 1736
1 1737
1 1738
1 1739
1 1740
1 1741
1 1742
1 1743
1 1744
1 1745
1 1746
1 1747
1 1748
1 1749
1 1750
1 1751
1 1752
1 1753
1 1754
1 1755
1 1756
1 1757
1 1758
1 1759
1 1760
1 1761
1 1762
1 1763
1 1764
1 1765
1 1766
1 1767
1 1768
1 1769
1 1770
1 1771
1 1772
1 1773
1 1774
1 1775
1 1776
1 1777
1 1778
1 1779
1 1780
1 1781
1 1782
1 1783
1 1784
1 1785
1 1786
1 1787
1 1788
1 1789
1 1790
1 1791
1 1792
1 1793
1 1794
1 1795
1 1796
1 1797
1 1798
1 1799
1 1800
1 1801
1 1802
1 1803
1 1804
1 1805
1 1806
1 1807
1 1808
1 1809
1 1810
1 1811
1 1812
1 1813
1 1814
1 1815
1 1816
1 1817
1 1818
1 1819
1 1820
1 1821
1 1822
1 1823
1 1824
1 1825
1 1826
1 1827
1 1828
1 1829
1 1830
1 1831
1 1832
1 1833
1 1834
1 1835
1 1836
1 1837
1 1838
1 1839
1 1840
1 1841
1 1842
1 1843
1 1844
1 1845
1 1846
1 1847
1 1848
1 1849
1 1850
1 1851
1 1852
1 1853
1 1854
1 1855
1 1856
1 1857
1 1858
1 1859
1 1860
1 1861
1 1862
1 1863
1 1864
1 1865
1 1866
1 1867
1 1868
1 1869
1 1870
1 1871
1 1872
1 1873
1 1874
1 1875
1 1876
1 1877
1 1878
1 1879
1 1880
1 1881
1 1882
1 1883
1 1884
1 1885
1 1886
1 1887
1 1888
1 1889
1 1890
1 1891
1 1892
1 1893
1 1894
1 1895
1 1896
1 1897
1 1898
1 1899
1 1900
1 1901
1 1902
1 1903
1 1904
1 1905
1 1906
1 1907
1 1908
1 1909
1 1910
1 1911
1 1912
1 1913
1 1914
1 1915
1 1916
1 1917
1 1918
1 1919
1 1920
1 1921
1 1922
1 1923
1 1924
1 1925
1 1926
1 1927
1 1928
1 1929
1 1930
1 1931
1 1932
1 1933
1 1934
1 1935
1 1936
1 1937
1 1938
1 1939
1 1940
1 1941
1 1942
1 1943
1 1944
1 1945
1 1946
1 1947
1 1948
1 1949
1 1950
1 1951
1 1952
1 1953
1 1954
1 1955
1 1956
1 1957
1 1958
1 1959
1 1960
1 1961
1 1962
1 1963
1 1964
1 1965
1 1966
1 1967
1 1968
1 1969
1 1970
1 1971
1 1972
1 1973
1 1974
1 1975
1 1976
1 1977
1 1978
1 1979
1 1980
1 1981
1 1982
1 1983
1 1984
1 1985
1 1986
1 1987
1 1988
1 1989
1 1990
1 1991
1 1992
1 1993
1 1994
1 1995
1 1996
1 1997
1 1998
1 1999
1 2000
1 2001
1 2002
1 2003
1 2004
1 2005
1 2006
1 2007
1 2008
1 2009
1 2010
1 2011
1 2012
1 2013
1 2014
1 2015
1 2016
1 2017
1 2018
1 2019
1 2020
1 2021
1 2022
1 2023
1 2024
1 2025
1 2026
1 2027
1 2028
1 2029
1 2030
1 2031
1 2032
1 2033
1 2034
1 2035
1 2036
1 2037
1 2038
1 2039
1 2040
1 2041
1 2042
1 2043
1 2044
1 2045
1 2046
1 2047
1 2048
1 2049
1 2050
1 2051
1 2052
1 2053
1 2054
1 2055
1 2056
1 2057
1 2058
1 2059
1 2060
1 2061
1 2062
1 2063
1 2064
1 2065
1 2066
1 2067
1 2068
1 2069
1 2070
1 2071
1 2072
1 2073
1 2074
1 2075
1 2076
1 2077
1 2078
1 2079
1 2080
1 2081
1 2082
1 2083
1 2084
1 2085
1 2086
1 2087
1 2088
1 2089
1 2090
1 2091
1 2092
1 2093
1 2094
1 2095
1 2096
1 2097
1 2098
1 2099
1 2100
1 2101
1 2102
1 2103
1 2104
1 2105
1 2106
1 2107
1 2108
1 2109
1 2110
1 2111
1 2112
1 2113
1 2114
1 2115
1 2116
1 2117
1 2118
1 2119
1 2120
1 2121
1 2122
1 2123
1 2124
1 2125
1 2126
1 2127
1 2128
1 2129
1 2130
1 2131
1 2132
1 2133
1 2134
1 2135
1 2136
1 2137
1 2138
1 2139
1 2140
1 2141
1 2142
1 2143
1 2144
1 2145
1 2146
1 2147
1 2148
1 2149
1 2150
1 2151
1 2152
1 2153
1 2154
1 2155
1 2156
1 2157
1 2158
1 2159
1 2160
1 2161
1 2162
1 2163
1 2164
1 2165
1 2166
1 2167
1 2168
1 2169
1 2170
1 2171
1 2172
1 2173
1 2174
1 2175
1 2176
1 2177
1 2178
1 2179
1 2180
1 2181
1 2182
1 2183
1 2184
1 2185
1 2186
1 2187
1 2188
1 2189
1 2190
1 2191
1 2192
1 2193
1 2194
1 2195
1 2196
1 2197
1 2198
1 2199
1 2200
1 2201
1 2202
1 2203
1 2204
1 2205
1 2206
1 2207
1 2208
1 2209
1 2210
1 2211
1 2212
1 2213
1 2214
1 2215
1 2216
1 2217
1 2218
1 2219
1 2220
1 2221
1 2222
1 2223
1 2224
1 2225
1 2226
1 2227
1 2228
1 2229
1 2230
1 2231
1 2232
1 2233
1 2234
1 2235
1 2236
1 2237
1 2238
1 2239
1 2240
1 2241
1 2242
1 2243
1 2244
1 2245
1 2246
1 2247
1 2248
1 2249
1 2250
1 2251
1 2252
1 2253
1 2254
1 2255
1 2256
1 2257
1 2258
1 2259
1 2260
1 2261
1 2262
1 2263
1 2264
1 2265
1 2266
1 2267
1 2268
1 2269
1 2270
1 2271
1 2272
1 2273
1 2274
1 2275
1 2276
1 2277
1 2278
1 2279
1 2280
1 2281
1 2282
1 2283
1 2284
1 2285
1 2286
1 2287
1 2288
1 2289
1 2290
1 2291
1 2292
1 2293
1 2294
1 2295
1 2296
1 2297
1 2298
1 2299
1 2300
1 2301
1 2302
1 2303
1 2304
1 2305
1 2306
1 2307
1 2308
1 2309
1 2310
1 2311
1 2312
1 2313
1 2314
1 2315
1 2316
1 2317
1 2318
1 2319
1 2320
1 2321
1 2322
1 2323
1 2324
1 2325
1 2326
1 2327
1 2328
1 2329
1 2330
1 2331
1 2332
1 2333
1 2334
1 2335
1 2336
1 2337
1 2338
1 2339
1 2340
1 2341
1 2342
1 2343
1 2344
1 2345
1 2346
1 2347
1 2348
1 2349
1 2350
1 2351
1 2352
1 2353
1 2354
1 2355
1 2356
1 2357
1 2358
1 2359
1 2360
1 2361
1 2362
1 2363
1 2364
1 2365
1 2366
1 2367
1 2368
1 2369
1 2370
1 2371
1 2372
1 2373
1 2374
1 2375
1 2376
1 2377
1 2378
1 2379
1 2380
1 2381
1 2382
1 2383
1 2384
1 2385
1 2386
1 2387
1 2388
1 2389
1 2390
1 2391
1 2392
1 2393
1 2394
1 2395
1 2396
1 2397
1 2398
1 2399
1 2400
1 2401
1 2402
1 2403
1 2404
1 2405
1 2406
1 2407
1 2408
1 2409
1 2410
1 2411
1 2412
1 2413
1 2414
1 2415
1 2416
1 2417
1 2418
1 2419
1 2420
1 2421
1 2422
1 2423
1 2424
1 2425
1 2426
1 2427
1 2428
1 2429
1 2430
1 2431
1 2432
1 2433
1 2434
1 2435
1 2436
1 2437
1 2438
1 2439
1 2440
1 2441
1 2442
1 2443
1 2444
1 2445
1 2446
1 2447
1 2448
1 2449
1 2450
1 2451
1 2452
1 2453
1 2454
1 2455
1 2456
1 2457
1 2458
1 2459
1 2460
1 2461
1 2462
1 2463
1 2464
1 2465
1 2466
1 2467
1 2468
1 2469
1 2470
1 2471
1 2472
1 2473
1 2474
1 2475
1 2476
1 2477
1 2478
1 2479
1 2480
1 2481
1 2482
1 2483
1 2484
1 2485
1 2486
1 2487
1 2488
1 2489
1 2490
1 2491
1 2492
1 2493
1 2494
1 2495
1 2496
1 2497
1 2498
1 2499
1 2500
1 2501
1 2502
1 2503
1 2504
1 2505
1 2506
1 2507
1 2508
1 2509
1 2510
1 2511
1 2512
1 2513
1 2514
1 2515
1 2516
1 2517
1 2518
1 2519
1 2520
1 2521
1 2522
1 2523
1 2524
1 2525
1 2526
1 2527
1 2528
1 2529
1 2530
1 2531
1 2532
1 2533
1 2534
1 2535
1 2536
1 2537
1 2538
1 2539
1 2540
1 2541
1 2542
1 2543
1 2544
1 2545
1 2546
1 2547
1 2548
1 2549
1 2550
1 2551
1 2552
1 2553
1 2554
1 2555
1 2556
1 2557
1 2558
1 2559
1 2560
1 2561
1 2562
1 2563
1 2564
1 2565
1 2566
1 2567
1 2568
1 2569
1 2570
1 2571
1 2572
1 2573
1 2574
1 2575
1 2576
1 2577
1 2578
1 2579
1 2580
1 2581
1 2582
1 2583
1 2584
1 2585
1 2586
1 2587
1 2588
1 2589
1 2590
1 2591
1 2592
1 2593
1 2594
1 2595
1 2596
1 2597
1 2598
1 2599
1 2600
1 2601
1 2602
1 2603
1 2604
1 2605
1 2606
1 2607
1 2608
1 2609
1 2610
1 2611
1 2612
1 2613
1 2614
1 2615
1 2616
1 2617
1 2618
1 2619
1 2620
1 2621
1 2622
1 2623
1 2624
1 2625
1 2626
1 2627
1 2628
1 2629
1 2630
1 2631
1 2632
1 2633
1 2634
1 2635
1 2636
1 2637
1 2638
1 2639
1 2640
1 2641
1 2642
1 2643
1 2644
1 2645
1 2646
1 2647
1 2648
1 2649
1 2650
1 2651
1 2652
1 2653
1 2654
1 2655
1 2656
1 2657
1 2658
1 2659
1 2660
1 2661
1 2662
1 2663
1 2664
1 2665
1 2666
1 2667
1 2668
1 2669
1 2670
1 2671
1 2672
1 2673
1 2674
1 2675
1 2676
1 2677
1 2678
1 2679
1 2680
1 2681
1 2682
1 2683
1 2684
1 2685
1 2686
1 2687
1 2688
1 2689
1 2690
1 2691
1 2692
1 2693
1 2694
1 2695
1 2696
1 2697
1 2698
1 2699
1 2700
1 2701
1 2702
1 2703
1 2704
1 2705
1 2706
1 2707
1 2708
1 2709
1 2710
1 2711
1 2712
1 2713
1 2714
1 2715
1 2716
1 2717
1 2718
1 2719
1 2720
1 2721
1 2722
1 2723
1 2724
1 2725
1 2726
1 2727
1 2728
1 2729
1 2730
1 2731
1 2732
1 2733
1 2734
1 2735
1 2736
1 2737
1 2738
1 2739
1 2740
1 2741
1 2742
1 2743
1 2744
1 2745
1 2746
1 2747
1 2748
1 2749
1 2750
1 2751
1 2752
1 2753
1 2754
1 2755
1 2756
1 2757
1 2758
1 2759
1 2760
1 2761
1 2762
1 2763
1 2764
1 2765
1 2766
1 2767
1 2768
1 2769
1 2770
1 2771
1 2772
1 2773
1 2774
1 2775
1 2776
1 2777
1 2778
1 2779
1 2780
1 2781
1 2782
1 2783
1 2784
1 2785
1 2786
1 2787
1 2788
1 2789
1 2790
1 2791
1 2792
1 2793
1 2794
1 2795
1 2796
1 2797
1 2798
1 2799
1 2800
1 2801
1 2802
1 2803
1 2804
1 2805
1 2806
1 2807
1 2808
1 2809
1 2810
1 2811
1 2812
1 2813
1 2814
1 2815
1 2816
1 2817
1 2818
1 2819
1 2820
1 2821
1 2822
1 2823
1 2824
1 2825
1 2826
1 2827
1 2828
1 2829
1 2830
1 2831
1 2832
1 2833
1 2834
1 2835
1 2836
1 2837
1 2838
1 2839
1 2840
1 2841
1 2842
1 2843
1 2844
1 2845
1 2846
1 2847
1 2848
1 2849
1 2850
1 2851
1 2852
1 2853
1 2854
1 2855
1 2856
1 2857
1 2858
1 2859
1 2860
1 2861
1 2862
1 2863
1 2864
1 2865
1 2866
1 2867
1 2868
1 2869
1 2870
1 2871
1 2872
1 2873
1 2874
1 2875
1 2876
1 2877
1 2878
1 2879
1 2880
1 2881
1 2882
1 2883
1 2884
1 2885
1 2886
1 2887
1 2888
1 2889
1 2890
1 2891
1 2892
1 2893
1 2894
1 2895
1 2896
1 2897
1 2898
1 2899
1 2900
1 2901
1 2902
1 2903
1 2904
1 2905
1 2906
1 2907
1 2908
1 2909
1 2910
1 2911
1 2912
1 2913
1 2914
1 2915
1 2916
1 2917
1 2918
1 2919
1 2920
1 2921
1 2922
1 2923
1 2924
1 2925
1 2926
1 2927
1 2928
1 2929
1 2930
1 2931
1 2932
1 2933
1 2934
1 2935
1 2936
1 2937
1 2938
1 2939
1 2940
1 2941
1 2942
1 2943
1 2944
1 2945
1 2946
1 2947
1 2948
1 2949
1 2950
1 2951
1 2952
1 2953
1 2954
1 2955
1 2956
1 2957
1 2958
1 2959
1 2960
1 2961
1 2962
1 2963
1 2964
1 2965
1 2966
1 2967
1 2968
1 2969
1 2970
1 2971
1 2972
1 2973
1 2974
1 2975
1 2976
1 2977
1 2978
1 2979
1 2980
1 2981
1 2982
1 2983
1 2984
1 2985
1 2986
1 2987
1 2988
1 2989
1 2990
1 2991
1 2992
1 2993
1 2994
1 2995
1 2996
1 2997
1 2998
1 2999
1 3000
1 3001
1 3002
1 3003
1 3004
1 3005
1 3006
1 3007
1 3008
1 3009
1 3010
1 3011
1 3012
1 3013
1 3014
1 3015
1 3016
1 3017
1 3018
1 3019
1 3020
1 3021
1 3022
1 3023
1 3024
1 3025
1 3026
1 3027
1 3028
1 3029
1 3030
1 3031
1 3032
1 3033
1 3034
1 3035
1 3036
1 3037
1 3038
1 3039
1 3040
1 3041
1 3042
1 3043
1 3044
1 3045
1 3046
1 3047
1 3048
1 3049
1 3050
1 3051
1 3052
1 3053
1 3054
1 3055
1 3056
1 3057
1 3058
1 3059
1 3060
1 3061
1 3062
1 3063
1 3064
1 3065
1 3066
1 3067
1 3068
1 3069
1 3070
1 3071
1 3072
1 3073
1 3074
1 3075
1 3076
1 3077
1 3078
1 3079
1 3080
1 3081
1 3082
1 3083
1 3084
1 3085
1 3086
1 3087
1 3088
1 3089
1 3090
1 3091
1 3092
1 3093
1 3094
1 3095
1 3096
1 3097
1 3098
1 3099
1 3100
1 3101
1 3102
1 3103
1 3104
1 3105
1 3106
1 3107
1 3108
1 3109
1 3110
1 3111
1 3112
1 3113
1 3114
1 3115
1 3116
1 3117
1 3118
1 3119
1 3120
1 3121
1 3122
1 3123
1 3124
1 3125
1 3126
1 3127
1 3128
1 3129
1 3130
1 3131
1 3132
1 3133
1 3134
1 3135
1 3136
1 3137
1 3138
1 3139
1 3140
1 3141
1 3142
1 3143
1 3144
1 3145
1 3146
1 3147
1 3148
1 3149
1 3150
1 3151
1 3152
1 3153
1 3154
1 3155
1 3156
1 3157
1 3158
1 3159
1 3160
1 3161
1 3162
1 3163
1 3164
1 3165
1 3166
1 3167
1 3168
1 3169
1 3170
1 3171
1 3172
1 3173
1 3174
1 3175
1 3176
1 3177
1 3178
1 3179
1 3180
1 3181
1 3182
1 3183
1 3184
1 3185
1 3186
1 3187
1 3188
1 3189
1 3190
1 3191
1 3192
1 3193
1 3194
1 3195
1 3196
1 3197
1 3198
1 3199
1 3200
1 3201
1 3202
1 3203
1 3204
1 3205
1 3206
1 3207
1 3208
1 3209
1 3210
1 3211
1 3212
1 3213
1 3214
1 3215
1 3216
1 3217
1 3218
1 3219
1 3220
1 3221
1 3222
1 3223
1 3224
1 3225
1 3226
1 3227
1 3228
1 3229
1 3230
1 3231
1 3232
1 3233
1 3234
1 3235
1 3236
1 3237
1 3238
1 3239
1 3240
1 3241
1 3242
1 3243
1 3244
1 3245
1 3246
1 3247
1 3248
1 3249
1 3250
1 3251
1 3252
1 3253
1 3254
1 3255
1 3256
1 3257
1 3258
1 3259
1 3260
1 3261
1 3262
1 3263
1 3264
1 3265
1 3266
1 3267
1 3268
1 3269
1 3270
1 3271
1 3272
1 3273
1 3274
1 3275
1 3276
1 3277
1 3278
1 3279
1 3280
1 3281
1 3282
1 3283
1 3284
1 3285
1 3286
1 3287
1 3288
1 3289
1 3290
1 3291
1 3292
1 3293
1 3294
1 3295
1 3296
1 3297
1 3298
1 3299
1 3300
1 3301
1 3302
1 3303
1 3304
1 3305
1 3306
1 3307
1 3308
1 3309
1 3310
1 3311
1 3312
1 3313
1 3314
1 3315
1 3316
1 3317
1 3318
1 3319
1 3320
1 3321
1 3322
1 3323
1 3324
1 3325
1 3326
1 3327
1 3328
1 3329
1 3330
1 3331
1 3332
1 3333
1 3334
1 3335
1 3336
1 3337
1 3338
1 3339
1 3340
1 3341
1 3342
1 3343
1 3344
1 3345
1 3346
1 3347
1 3348
1 3349
1 3350
1 3351
1 3352
1 3353
1 3354
1 3355
1 3356
1 3357
1 3358
1 3359
1 3360
1 3361
1 3362
1 3363
1 3364
1 3365
1 3366
1 3367
1 3368
1 3369
1 3370
1 3371
1 3372
1 3373
1 3374
1 3375
1 3376
1 3377
1 3378
1 3379
1 3380
1 3381
1 3382
1 3383
1 3384
1 3385
1 3386
1 3387
1 3388
1 3389
1 3390
1 3391
1 3392
1 3393
1 3394
1 3395
1 3396
1 3397
1 3398
1 3399
1 3400
1 3401
1 3402
1 3403
1 3404
1 3405
1 3406
1 3407
1 3408
1 3409
1 3410
1 3411
1 3412
1 3413
1 3414
1 3415
1 3416
1 3417
1 3418
1 3419
1 3420
1 3421
1 3422
1 3423
1 3424
1 3425
1 3426
1 3427
1 3428
1 3429
1 3430
1 3431
1 3432
1 3433
1 3434
1 3435
1 3436
1 3437
1 3438
1 3439
1 3440
1 3441
1 3442
1 3443
1 3444
1 3445
1 3446
1 3447
1 3448
1 3449
1 3450
1 3451
1 3452
1 3453
1 3454
1 3455
1 3456
1 3457
1 3458
1 3459
1 3460
1 3461
1 3462
1 3463
1 3464
1 3465
1 3466
1 3467
1 3468
1 3469
1 3470
1 3471
1 3472
1 3473
1 3474
1 3475
1 3476
1 3477
1 3478
1 3479
1 3480
1 3481
1 3482
1 3483
1 3484
1 3485
1 3486
1 3487
1 3488
1 3489
1 3490
1 3491
1 3492
1 3493
1 3494
1 3495
1 3496
1 3497
1 3498
1 3499
1 3500
1 3501
1 3502
1 3503
1 3504
1 3505
1 3506
1 3507
1 3508
1 3509
1 3510
1 3511
1 3512
1 3513
1 3514
1 3515
1 3516
1 3517
1 3518
1 3519
1 3520
1 3521
1 3522
1 3523
1 3524
1 3525
1 3526
1 3527
1 3528
1 3529
1 3530
1 3531
1 3532
1 3533
1 3534
1 3535
1 3536
1 3537
1 3538
1 3539
1 3540
1 3541
1 3542
1 3543
1 3544
1 3545
1 3546
1 3547
1 3548
1 3549
1 3550
1 3551
1 3552
1 3553
1 3554
1 3555
1 3556
1 3557
1 3558
1 3559
1 3560
1 3561
1 3562
1 3563
1 3564
1 3565
1 3566
1 3567
1 3568
1 3569
1 3570
1 3571
1 3572
1 3573
1 3574
1 3575
1 3576
1 3577
1 3578
1 3579
1 3580
1 3581
1 3582
1 3583
1 3584
1 3585
1 3586
1 3587
1 3588
1 3589
1 3590
1 3591
1 3592
1 3593
1 3594
1 3595
1 3596
1 3597
1 3598
1 3599
1 3600
1 3601
1 3602
1 3603
1 3604
1 3605
1 3606
1 3607
1 3608
1 3609
1 3610
1 3611
1 3612
1 3613
1 3614
1 3615
1 3616
1 3617
1 3618
1 3619
1 3620
1 3621
1 3622
1 3623
1 3624
1 3625
1 3626
1 3627
1 3628
1 3629
1 3630
1 3631
1 3632
1 3633
1 3634
1 3635
1 3636
1 3637
1 3638
1 3639
1 3640
1 3641
1 3642
1 3643
1 3644
1 3645
1 3646
1 3647
1 3648
1 3649
1 3650
1 3651
1 3652
1 3653
1 3654
1 3655
1 3656
1 3657
1 3658
1 3659
1 3660
1 3661
1 3662
1 3663
1 3664
1 3665
1 3666
1 3667
1 3668
1 3669
1 3670
1 3671
1 3672
1 3673
1 3674
1 3675
1 3676
1 3677
1 3678
1 3679
1 3680
1 3681
1 3682
1 3683
1 3684
1 3685
1 3686
1 3687
1 3688
1 3689
1 3690
1 3691
1 3692
1 3693
1 3694
1 3695
1 3696
1 3697
1 3698
1 3699
1 3700
1 3701
1 3702
1 3703
1 3704
1 3705
1 3706
1 3707
1 3708
1 3709
1 3710
1 3711
1 3712
1 3713
1 3714
1 3715
1 3716
1 3717
1 3718
1 3719
1 3720
1 3721
1 3722
1 3723
1 3724
1 3725
1 3726
1 3727
1 3728
1 3729
1 3730
1 3731
1 3732
1 3733
1 3734
1 3735
1 3736
1 3737
1 3738
1 3739
1 3740
1 3741
1 3742
1 3743
1 3744
1 3745
1 3746
1 3747
1 3748
1 3749
1 3750
1 3751
1 3752
1 3753
1 3754
1 3755
1 3756
1 3757
1 3758
1 3759
1 3760
1 3761
1 3762
1 3763
1 3764
1 3765
1 3766
1 3767
1 3768
1 3769
1 3770
1 3771
1 3772
1 3773
1 3774
1 3775
1 3776
1 3777
1 3778
1 3779
1 3780
1 3781
1 3782
1 3783
1 3784
1 3785
1 3786
1 3787
1 3788
1 3789
1 3790
1 3791
1 3792
1 3793
1 3794
1 3795
1 3796
1 3797
1 3798
1 3799
1 3800
1 3801
1 3802
1 3803
1 3804
1 3805
1 3806
1 3807
1 3808
1 3809
1 3810
1 3811
1 3812
1 3813
1 3814
1 3815
1 3816
1 3817
1 3818
1 3819
1 3820
1 3821
1 3822
1 3823
1 3824
1 3825
1 3826
1 3827
1 3828
1 3829
1 3830
1 3831
1 3832
1 3833
1 3834
1 3835
1 3836
1 3837
1 3838
1 3839
1 3840
1 3841
1 3842
1 3843
1 3844
1 3845
1 3846
1 3847
1 3848
1 3849
1 3850
1 3851
1 3852
1 3853
1 3854
1 3855
1 3856
1 3857
1 3858
1 3859
1 3860
1 3861
1 3862
1 3863
1 3864
1 3865
1 3866
1 3867
1 3868
1 3869
1 3870
1 3871
1 3872
1 3873
1 3874
1 3875
1 3876
1 3877
1 3878
1 3879
1 3880
1 3881
1 3882
1 3883
1 3884
1 3885
1 3886
1 3887
1 3888
1 3889
1 3890
1 3891
1 3892
1 3893
1 3894
1 3895
1 3896
1 3897
1 3898
1 3899
1 3900
1 3901
1 3902
1 3903
1 3904
1 3905
1 3906
1 3907
1 3908
1 3909
1 3910
1 3911
1 3912
1 3913
1 3914
1 3915
1 3916
1 3917
1 3918
1 3919
1 3920
1 3921
1 3922
1 3923
1 3924
1 3925
1 3926
1 3927
1 3928
1 3929
1 3930
1 3931
1 3932
1 3933
1 3934
1 3935
1 3936
1 3937
1 3938
1 3939
1 3940
1 3941
1 3942
1 3943
1 3944
1 3945
1 3946
1 3947
1 3948
1 3949
1 3950
1 3951
1 3952
1 3953
1 3954
1 3955
1 3956
1 3957
1 3958
1 3959
1 3960
1 3961
1 3962
1 3963
1 3964
1 3965
1 3966
1 3967
1 3968
1 3969
1 3970
1 3971
1 3972
1 3973
1 3974
1 3975
1 3976
1 3977
1 3978
1 3979
1 3980
1 3981
1 3982
1 3983
1 3984
1 3985
1 3986
1 3987
1 3988
1 3989
1 3990
1 3991
1 3992
1 3993
1 3994
1 3995
1 3996
1 3997
1 3998
1 3999
1 4000
1 4001
1 4002
1 4003
1 4004
1 4005
1 4006
1 4007
1 4008
1 4009
1 4010
1 4011
1 4012
1 4013
1 4014
1 4015
1 4016
1 4017
1 4018
1 4019
1 4020
1 4021
1 4022
1 4023
1 4024
1 4025
1 4026
1 4027
1 4028
1 4029
1 4030
1 4031
1 4032
1 4033
1 4034
1 4035
1 4036
1 4037
1 4038
1 4039
1 4040
1 4041
1 4042
1 4043
1 4044
1 4045
1 4046
1 4047
1 4048
1 4049
1 4050
1 4051
1 4052
1 4053
1 4054
1 4055
1 4056
1 4057
1 4058
1 4059
1 4060
1 4061
1 4062
1 4063
1 4064
1 4065
1 4066
1 4067
1 4068
1 4069
1 4070
1 4071
1 4072
1 4073
1 4074
1 4075
1 4076
1 4077
1 4078
1 4079
1 4080
1 4081
1 4082
1 4083
1 4084
1 4085
1 4086
1 4087
1 4088
1 4089
1 4090
1 4091
1 4092
1 4093
1 4094
1 4095
1 4096
1 4097
1 4098
1 4099
1 4100
1 4101
1 4102
1 4103
1 4104
1 4105
1 4106
1 4107
1 4108
1 4109
1 4110
1 4111
1 4112
1 4113
1 4114
1 4115
1 4116
1 4117
1 4118
1 4119
1 4120
1 4121
1 4122
1 4123
1 4124
1 4125
1 4126
1 4127
1 4128
1 4129
1 4130
1 4131
1 4132
1 4133
1 4134
1 4135
1 4136
1 4137
1 4138
1 4139
1 4140
1 4141
1 4142
1 4143
1 4144
1 4145
1 4146
1 4147
1 4148
1 4149
1 4150
1 4151
1 4152
1 4153
1 4154
1 4155
1 4156
1 4157
1 4158
1 4159
1 4160
1 4161
1 4162
1 4163
1 4164
1 4165
1 4166
1 4167
1 4168
1 4169
1 4170
1 4171
1 4172
1 4173
1 4174
1 4175
1 4176
1 4177
1 4178
1 4179
1 4180
1 4181
1 4182
1 4183
1 4184
1 4185
1 4186
1 4187
1 4188
1 4189
1 4190
1 4191
1 4192
1 4193
1 4194
1 4195
1 4196
1 4197
1 4198
1 4199
1 4200
1 4201
1 4202
1 4203
1 4204
1 4205
1 4206
1 4207
1 4208
1 4209
1 4210
1 4211
1 4212
1 4213
1 4214
1 4215
1 4216
1 4217
1 4218
1 4219
1 4220
1 4221
1 4222
1 4223
1 4224
1 4225
1 4226
1 4227
1 4228
1 4229
1 4230
1 4231
1 4232
1 4233
1 4234
1 4235
1 4236
1 4237
1 4238
1 4239
1 4240
1 4241
1 4242
1 4243
1 4244
1 4245
1 4246
1 4247
1 4248
1 4249
1 4250
1 4251
1 4252
1 4253
1 4254
1 4255
1 4256
1 4257
1 4258
1 4259
1 4260
1 4261
1 4262
1 4263
1 4264
1 4265
1 4266
1 4267
1 4268
1 4269
1 4270
1 4271
1 4272
1 4273
1 4274
1 4275
1 4276
1 4277
1 4278
1 4279
1 4280
1 4281
1 4282
1 4283
1 4284
1 4285
1 4286
1 4287
1 4288
1 4289
1 4290
1 4291
1 4292
1 4293
1 4294
1 4295
1 4296
1 4297
1 4298
1 4299
1 4300
1 4301
1 4302
1 4303
1 4304
1 4305
1 4306
1 4307
1 4308
1 4309
1 4310
1 4311
1 4312
1 4313
1 4314
1 4315
1 4316
1 4317
1 4318
1 4319
1 4320
1 4321
1 4322
1 4323
1 4324
1 4325
1 4326
1 4327
1 4328
1 4329
1 4330
1 4331
1 4332
1 4333
1 4334
1 4335
1 4336
1 4337
1 4338
1 4339
1 4340
1 4341
1 4342
1 4343
1 4344
1 4345
1 4346
1 4347
1 4348
1 4349
1 4350
1 4351
1 4352
1 4353
1 4354
1 4355
1 4356
1 4357
1 4358
1 4359
1 4360
1 4361
1 4362
1 4363
1 4364
1 4365
1 4366
1 4367
1 4368
1 4369
1 4370
1 4371
1 4372
1 4373
1 4374
1 4375
1 4376
1 4377
1 4378
1 4379
1 4380
1 4381
1 4382
1 4383
1 4384
1 4385
1 4386
1 4387
1 4388
1 4389
1 4390
1 4391
1 4392
1 4393
1 4394
1 4395
1 4396
1 4397
1 4398
1 4399
1 4400
1 4401
1 4402
1 4403
1 4404
1 4405
1 4406
1 4407
1 4408
1 4409
1 4410
1 4411
1 4412
1 4413
1 4414
1 4415
1 4416
1 4417
1 4418
1 4419
1 4420
1 4421
1 4422
1 4423
1 4424
1 4425
1 4426
1 4427
1 4428
1 4429
1 4430
1 4431
1 4432
1 4433
1 4434
1 4435
1 4436
1 4437
1 4438
1 4439
1 4440
1 4441
1 4442
1 4443
1 4444
1 4445
1 4446
1 4447
1 4448
1 4449
1 4450
1 4451
1 4452
1 4453
1 4454
1 4455
1 4456
1 4457
1 4458
1 4459
1 4460
1 4461
1 4462
1 4463
1 4464
1 4465
1 4466
1 4467
1 4468
1 4469
1 4470
1 4471
1 4472
1 4473
1 4474
1 4475
1 4476
1 4477
1 4478
1 4479
1 4480
1 4481
1 4482
1 4483
1 4484
1 4485
1 4486
1 4487
1 4488
1 4489
1 4490
1 4491
1 4492
1 4493
1 4494
1 4495
1 4496
1 4497
1 4498
1 4499
1 4500
1 4501
1 4502
1 4503
1 4504
1 4505
1 4506
1 4507
1 4508
1 4509
1 4510
1 4511
1 4512
1 4513
1 4514
1 4515
1 4516
1 4517
1 4518
1 4519
1 4520
1 4521
1 4522
1 4523
1 4524
1 4525
1 4526
1 4527
1 4528
1 4529
1 4530
1 4531
1 4532
1 4533
1 4534
1 4535
1 4536
1 4537
1 4538
1 4539
1 4540
1 4541
1 4542
1 4543
1 4544
1 4545
1 4546
1 4547
1 4548
1 4549
1 4550
1 4551
1 4552
1 4553
1 4554
1 4555
1 4556
1 4557
1 4558
1 4559
1 4560
1 4561
1 4562
1 4563
1 4564
1 4565
1 4566
1 4567
1 4568
1 4569
1 4570
1 4571
1 4572
1 4573
1 4574
1 4575
1 4576
1 4577
1 4578
1 4579
1 4580
1 4581
1 4582
1 4583
1 4584
1 4585
1 4586
1 4587
1 4588
1 4589
1 4590
1 4591
1 4592
1 4593
1 4594
1 4595
1 4596
1 4597
1 4598
1 4599
1 4600
1 4601
1 4602
1 4603
1 4604
1 4605
1 4606
1 4607
1 4608
1 4609
1 4610
1 4611
1 4612
1 4613
1 4614
1 4615
1 4616
1 4617
1 4618
1 4619
1 4620
1 4621
1 4622
1 4623
1 4624
1 4625
1 4626
1 4627
1 4628
1 4629
1 4630
1 4631
1 4632
1 4633
1 4634
1 4635
1 4636
1 4637
1 4638
1 4639
1 4640
1 4641
1 4642
1 4643
1 4644
1 4645
1 4646
1 4647
1 4648
1 4649
1 4650
1 4651
1 4652
1 4653
1 4654
1 4655
1 4656
1 4657
1 4658
1 4659
1 4660
1 4661
1 4662
1 4663
1 4664
1 4665
1 4666
1 4667
1 4668
1 4669
1 4670
1 4671
1 4672
1 4673
1 4674
1 4675
1 4676
1 4677
1 4678
1 4679
1 4680
1 4681
1 4682
1 4683
1 4684
1 4685
1 4686
1 4687
1 4688
1 4689
1 4690
1 4691
1 4692
1 4693
1 4694
1 4695
1 4696
1 4697
1 4698
1 4699
1 4700
1 4701
1 4702
1 4703
1 4704
1 4705
1 4706
1 4707
1 4708
1 4709
1 4710
1 4711
1 4712
1 4713
1 4714
1 4715
1 4716
1 4717
1 4718
1 4719
1 4720
1 4721
1 4722
1 4723
1 4724
1 4725
1 4726
1 4727
1 4728
1 4729
1 4730
1 4731
1 4732
1 4733
1 4734
1 4735
1 4736
1 4737
1 4738
1 4739
1 4740
1 4741
1 4742
1 4743
1 4744
1 4745
1 4746
1 4747
1 4748
1 4749
1 4750
1 4751
1 4752
1 4753
1 4754
1 4755
1 4756
1 4757
1 4758
1 4759
1 4760
1 4761
1 4762
1 4763
1 4764
1 4765
1 4766
1 4767
1 4768
1 4769
1 4770
1 4771
1 4772
1 4773
1 4774
1 4775
1 4776
1 4777
1 4778
1 4779
1 4780
1 4781
1 4782
1 4783
1 4784
1 4785
1 4786
1 4787
1 4788
1 4789
1 4790
1 4791
1 4792
1 4793
1 4794
1 4795
1 4796
1 4797
1 4798
1 4799
1 4800
1 4801
1 4802
1 4803
1 4804
1 4805
1 4806
1 4807
1 4808
1 4809
1 4810
1 4811
1 4812
1 4813
1 4814
1 4815
1 4816
1 4817
1 4818
1 4819
1 4820
1 4821
1 4822
1 4823
1 4824
1 4825
1 4826
1 4827
1 4828
1 4829
1 4830
1 4831
1 4832
1 4833
1 4834
1 4835
1 4836
1 4837
1 4838
1 4839
1 4840
1 4841
1 4842
1 4843
1 4844
1 4845
1 4846
1 4847
1 4848
1 4849
1 4850
1 4851
1 4852
1 4853
1 4854
1 4855
1 4856
1 4857
1 4858
1 4859
1 4860
1 4861
1 4862
1 4863
1 4864
1 4865
1 4866
1 4867
1 4868
1 4869
1 4870
1 4871
1 4872
1 4873
1 4874
1 4875
1 4876
1 4877
1 4878
1 4879
1 4880
1 4881
1 4882
1 4883
1 4884
1 4885
1 4886
1 4887
1 4888
1 4889
1 4890
1 4891
1 4892
1 4893
1 4894
1 4895
1 4896
1 4897
1 4898
1 4899
1 4900
1 4901
1 4902
1 4903
1 4904
1 4905
1 4906
1 4907
1 4908
1 4909
1 4910
1 4911
1 4912
1 4913
1 4914
1 4915
1 4916
1 4917
1 4918
1 4919
1 4920
1 4921
1 4922
1 4923
1 4924
1 4925
1 4926
1 4927
1 4928
1 4929
1 4930
1 4931
1 4932
1 4933
1 4934
1 4935
1 4936
1 4937
1 4938
1 4939
1 4940
1 4941
1 4942
1 4943
1 4944
1 4945
1 4946
1 4947
1 4948
1 4949
1 4950
1 4951
1 4952
1 4953
1 4954
1 4955
1 4956
1 4957
1 4958
1 4959
1 4960
1 4961
1 4962
1 4963
1 4964
1 4965
1 4966
1 4967
1 4968
1 4969
1 4970
1 4971
1 4972
1 4973
1 4974
1 4975
1 4976
1 4977
1 4978
1 4979
1 4980
1 4981
1 4982
1 4983
1 4984
1 4985
1 4986
1 4987
1 4988
1 4989
1 4990
1 4991
1 4992
1 4993
1 4994
1 4995
1 4996
1 4997
1 4998
1 4999
CELL_TYPES 5000
1 
1 
1 
1 
1 
1 
1 
1 
1 
1 
1 
1 
1 
1 
1 
1 
1 
1 
1 
1 
1 
1 
1 
1 
1 
1 
1 
1 
1 
1 
1 
1 
1 
1 
1 
1 
1 
1 
1 
1 
1 
1 
1 
1 
1 
1 
1 
1 
1 
1 
1 
1 
1 
1 
1 
1 
1 
1 
1 
1 
1 
1 
1 
1 
1 
1 
1 
1 
1 
1 
1 
1 
1 
1 
1 
1 
1 
1 
1 
1 
1 
1 
1 
1 
1 
1 
1 
1 
1 
1 
1 
1 
1 
1 
1 
1 
1 
1 
1 
1 
1 
1 
1 
1 
1 
1 
1 
1 
1 
1 
1 
1 
1 
1 
1 
1 
1 
1 
1 
1 
1 
1 
1 
1 
1 
1 
1 
1 
1 
1 
1 
1 
1 
1 
1 
1 
1 
1 
1 
1 
1 
1 
1 
1 
1 
1 
1 
1 
1 
1 
1 
1 
1 
1 
1 
1 
1 
1 
1 
1 
1 
1 
1 
1 
1 
1 
1 
1 
1 
1 
1 
1 
1 
1 
1 
1 
1 
1 
1 
1 
1 
1 
1 
1 
1 
1 
1 
1 
1 
1 
1 
1 
1 
1 
1 
1 
1 
1 
1 
1 
1 
1 
1 
1 
1 
1 
1 
1 
1 
1 
1 
1 
1 
1 
1 
1 
1 
1 
1 
1 
1 
1 
1 
1 
1 
1 
1 
1 
1 
1 
1 
1 
1 
1 
1 
1 
1 
1 
1 
1 
1 
1 
1 
1 
1 
1 
1 
1 
1 
1 
1 
1 
1 
1 
1 
1 
1 
1 
1 
1 
1 
1 
1 
1 
1 
1 
1 
1 
1 
1 
1 
1 
1 
1 
1 
1 
1 
1 
1 
1 
1 
1 
1 
1 
1 
1 
1 
1 
1 
1 
1 
1 
1 
1 
1 
1 
1 
1 
1 
1 
1 
1 
1 
1 
1 
1 
1 
1 
1 
1 
1 
1 
1 
1 
1 
1 
1 
1 
1 
1 
1 
1 
1 
1 
1 
1 
1 
1 
1 
1 
1 
1 
1 
1 
1 
1 
1 
1 
1 
1 
1 
1 
1 
1 
1 
1 
1 
1 
1 
1 
1 
1 
1 
1 
1 
1 
1 
1 
1 
1 
1 
1 
1 
1 
1 
1 
1 
1 
1 
1 
1 
1 
1 
1 
1 
1 
1 
1 
1 
1 
1 
1 
1 
1 
1 
1 
1 
1 
1 
1 
1 
1 
1 
1 
1 
1 
1 
1 
1 
1 
1 
1 
1 
1 
1 
1 
1 
1 
1 
1 
1 
1 
1 
1 
1 
1 
1 
1 
1 
1 
1 
1 
1 
1 
1 
1 
1 
1 
1 
1 
1 
1 
1 
1 
1 
1 
1 
1 
1 
1 
1 
1 
1 
1 
1 
1 
1 
1 
1 
1 
1 
1 
1 
1 
1 
1 
1 
1 
1 
1 
1 
1 
1 
1 
1 
1 
1 
1 
1 
1 
1 
1 
1 
1 
1 
1 
1 
1 
1 
1 
1 
1 
1 
1 
1 
1 
1 
1 
1 
1 
1 
1 
1 
1 
1 
1 
1 
1 
1 
1 
1 
1 
1 
1 
1 
1 
1 
1 
1 
1 
1 
1 
1 
1 
1 
1 
1 
1 
1 
1 
1 
1 
1 
1 
1 
1 
1 
1 
1 
1 
1 
1 
1 
1 
1 
1 
1 
1 
1 
1 
1 
1 
1 
1 
1 
1 
1 
1 
1 
1 
1 
1 
1 
1 
1 
1 
1 
1 
1 
1 
1 
1 
1 
1 
1 
1 
1 
1 
1 
1 
1 
1 
1 
1 
1 
1 
1 
1 
1 
1 
1 
1 
1 
1 
1 
1 
1 
1 
1 
1 
1 
1 
1 
1 
1 
1 
1 
1 
1 
1 
1 
1 
1 
1 
1 
1 
1 
1 
1 
1 
1 
1 
1 
1 
1 
1 
1 
1 
1 
1 
1 
1 
1 
1 
1 
1 
1 
1 
1 
1 
1 
1 
1 
1 
1 
1 
1 
1 
1 
1 
1 
1 
1 
1 
1 
1 
1 
1 
1 
1 
1 
1 
1 
1 
1 
1 
1 
1 
1 
1 
1 
1 
1 
1 
1 
1 
1 
1 
1 
1 
1 
1 
1 
1 
1 
1 
1 
1 
1 
1 
1 
1 
1 
1 
1 
1 
1 
1 
1 
1 
1 
1 
1 
1 
1 
1 
1 
1 
1 
1 
1 
1 
1 
1 
1 
1 
1 
1 
1 
1 
1 
1 
1 
1 
1 
1 
1 
1 
1 
1 
1 
1 
1 
1 
1 
1 
1 
1 
1 
1 
1 
1 
1 
1 
1 
1 
1 
1 
1 
1 
1 
1 
1 
1 
1 
1 
1 
1 
1 
1 
1 
1 
1 
1 
1 
1 
1 
1 
1 
1 
1 
1 
1 
1 
1 
1 
1 
1 
1 
1 
1 
1 
1 
1 
1 
1 
1 
1 
1 
1 
1 
1 
1 
1 
1 
1 
1 
1 
1 
1 
1 
1 
1 
1 
1 
1 
1 
1 
1 
1 
1 
1 
1 
1 
1 
1 
1 
1 
1 
1 
1 
1 
1 
1 
1 
1 
1 
1 
1 
1 
1 
1 
1 
1 
1 
1 
1 
1 
1 
1 
1 
1 
1 
1 
1 
1 
1 
1 
1 
1 
1 
1 
1 
1 
1 
1 
1 
1 
1 
1 
1 
1 
1 
1 
1 
1 
1 
1 
1 
1 
1 
1 
1 
1 
1 
1 
1 
1 
1 
1 
1 
1 
1 
1 
1 
1 
1 
1 
1 
1 
1 
1 
1 
1 
1 
1 
1 
1 
1 
1 
1 
1 
1 
1 
1 
1 
1 
1 
1 
1 
1 
1 
1 
1 
1 
1 
1 
1 
1 
1 
1 
1 
1 
1 
1 
1 
1 
1 
1 
1 
1 
1 
1 
1 
1 
1 
1 
1 
1 
1 
1 
1 
1 
1 
1 
1 
1 
1 
1 
1 
1 
1 
1 
1 
1 
1 
1 
1 
1 
1 
1 
1 
1 
1 
1 
1 
1 
1 
1 
1 
1 
1 
1 
1 
1 
1 
1 
1 
1 
1 
1 
1 
1 
1 
1 
1 
1 
1 
1 
1 
1 
1 
1 
1 
1 
1 
1 
1 
1 
1 
1 
1 
1 
1 
1 
1 
1 
1 
1 
1 
1 
1 
1 
1 
1 
1 
1 
1 
1 
1 
1 
1 
1 
1 
1 
1 
1 
1 
1 
1 
1 
1 
1 
1 
1 
1 
1 
1 
1 
1 
1 
1 
1 
1 
1 
1 
1 
1 
1 
1 
1 
1 
1 
1 
1 
1 
1 
1 
1 
1 
1 
1 
1 
1 
1 
1 
1 
1 
1 
1 
1 
1 
1 
1 
1 
1 
1 
1 
1 
1 
1 
1 
1 
1 
1 
1 
1 
1 
1 
1 
1 
1 
1 
1 
1 
1 
1 
1 
1 
1 
1 
1 
1 
1 
1 
1 
1 
1 
1 
1 
1 
1 
1 
1 
1 
1 
1 
1 
1 
1 
1 
1 
1 
1 
1 
1 
1 
1 
1 
1 
1 
1 
1 
1 
1 
1 
1 
1 
1 
1 
1 
1 
1 
1 
1 
1 
1 
1 
1 
1 
1 
1 
1 
1 
1 
1 
1 
1 
1 
1 
1 
1 
1 
1 
1 
1 
1 
1 
1 
1 
1 
1 
1 
1 
1 
1 
1 
1 
1 
1 
1 
1 
1 
1 
1 
1 
1 
1 
1 
1 
1 
1 
1 
1 
1 
1 
1 
1 
1 
1 
1 
1 
1 
1 
1 
1 
1 
1 
1 
1 
1 
1 
1 
1 
1 
1 
1 
1 
1 
1 
1 
1 
1 
1 
1 
1 
1 
1 
1 
1 
1 
1 
1 
1 
1 
1 
1 
1 
1 
1 
1 
1 
1 
1 
1 
1 
1 
1 
1 
1 
1 
1 
1 
1 
1 
1 
1 
1 
1 
1 
1 
1 
1 
1 
1 
1 
1 
1 
1 
1 
1 
1 
1 
1 
1 
1 
1 
1 
1 
1 
1 
1 
1 
1 
1 
1 
1 
1 
1 
1 
1 
1 
1 
1 
1 
1 
1 
1 
1 
1 
1 
1 
1 
1 
1 
1 
1 
1 
1 
1 
1 
1 
1 
1 
1 
1 
1 
1 
1 
1 
1 
1 
1 
1 
1 
1 
1 
1 
1 
1 
1 
1 
1 
1 
1 
1 
1 
1 
1 
1 
1 
1 
1 
1 
1 
1 
1 
1 
1 
1 
1 
1 
1 
1 
1 
1 
1 
1 
1 
1 
1 
1 
1 
1 
1 
1 
1 
1 
1 
1 
1 
1 
1 
1 
1 
1 
1 
1 
1 
1 
1 
1 
1 
1 
1 
1 
1 
1 
1 
1 
1 
1 
1 
1 
1 
1 
1 
1 
1 
1 
1 
1 
1 
1 
1 
1 
1 
1 
1 
1 
1 
1 
1 
1 
1 
1 
1 
1 
1 
1 
1 
1 
1 
1 
1 
1 
1 
1 
1 
1 
1 
1 
1 
1 
1 
1 
1 
1 
1 
1 
1 
1 
1 
1 
1 
1 
1 
1 
1 
1 
1 
1 
1 
1 
1 
1 
1 
1 
1 
1 
1 
1 
1 
1 
1 
1 
1 
1 
1 
1 
1 
1 
1 
1 
1 
1 
1 
1 
1 
1 
1 
1 
1 
1 
1 
1 
1 
1 
1 
1 
1 
1 
1 
1 
1 
1 
1 
1 
1 
1 
1 
1 
1 
1 
1 
1 
1 
1 
1 
1 
1 
1 
1 
1 
1 
1 
1 
1 
1 
1 
1 
1 
1 
1 
1 
1 
1 
1 
1 
1 
1 
1 
1 
1 
1 
1 
1 
1 
1 
1 
1 
1 
1 
1 
1 
1 
1 
1 
1 
1 
1 
1 
1 
1 
1 
1 
1 
1 
1 
1 
1 
1 
1 
1 
1 
1 
1 
1 
1 
1 
1 
1 
1 
1 
1 
1 
1 
1 
1 
1 
1 
1 
1 
1 
1 
1 
1 
1 
1 
1 
1 
1 
1 
1 
1 
1 
1 
1 
1 
1 
1 
1 
1 
1 
1 
1 
1 
1 
1 
1 
1 
1 
1 
1 
1 
1 
1 
1 
1 
1 
1 
1 
1 
1 
1 
1 
1 
1 
1 
1 
1 
1 
1 
1 
1 
1 
1 
1 
1 
1 
1 
1 
1 
1 
1 
1 
1 
1 
1 
1 
1 
1 
1 
1 
1 
1 
1 
1 
1 
1 
1 
1 
1 
1 
1 
1 
1 
1 
1 
1 
1 
1 
1 
1 
1 
1 
1 
1 
1 
1 
1 
1 
1 
1 
1 
1 
1 
1 
1 
1 
1 
1 
1 
1 
1 
1 
1 
1 
1 
1 
1 
1 
1 
1 
1 
1 
1 
1 
1 
1 
1 
1 
1 
1 
1 
1 
1 
1 
1 
1 
1 
1 
1 
1 
1 
1 
1 
1 
1 
1 
1 
1 
1 
1 
1 
1 
1 
1 
1 
1 
1 
1 
1 
1 
1 
1 
1 
1 
1 
1 
1 
1 
1 
1 
1 
1 
1 
1 
1 
1 
1 
1 
1 
1 
1 
1 
1 
1 
1 
1 
1 
1 
1 
1 
1 
1 
1 
1 
1 
1 
1 
1 
1 
1 
1 
1 
1 
1 
1 
1 
1 
1 
1 
1 
1 
1 
1 
1 
1 
1 
1 
1 
1 
1 
1 
1 
1 
1 
1 
1 
1 
1 
1 
1 
1 
1 
1 
1 
1 
1 
1 
1 
1 
1 
1 
1 
1 
1 
1 
1 
1 
1 
1 
1 
1 
1 
1 
1 
1 
1 
1 
1 
1 
1 
1 
1 
1 
1 
1 
1 
1 
1 
1 
1 
1 
1 
1 
1 
1 
1 
1 
1 
1 
1 
1 
1 
1 
1 
1 
1 
1 
1 
1 
1 
1 
1 
1 
1 
1 
1 
1 
1 
1 
1 
1 
1 
1 
1 
1 
1 
1 
1 
1 
1 
1 
1 
1 
1 
1 
1 
1 
1 
1 
1 
1 
1 
1 
1 
1 
1 
1 
1 
1 
1 
1 
1 
1 
1 
1 
1 
1 
1 
1 
1 
1 
1 
1 
1 
1 
1 
1 
1 
1 
1 
1 
1 
1 
1 
1 
1 
1 
1 
1 
1 
1 
1 
1 
1 
1 
1 
1 
1 
1 
1 
1 
1 
1 
1 
1 
1 
1 
1 
1 
1 
1 
1 
1 
1 
1 
1 
1 
1 
1 
1 
1 
1 
1 
1 
1 
1 
1 
1 
1 
1 
1 
1 
1 
1 
1 
1 
1 
1 
1 
1 
1 
1 
1 
1 
1 
1 
1 
1 
1 
1 
1 
1 
1 
1 
1 
1 
1 
1 
1 
1 
1 
1 
1 
1 
1 
1 
1 
1 
1 
1 
1 
1 
1 
1 
1 
1 
1 
1 
1 
1 
1 
1 
1 
1 
1 
1 
1 
1 
1 
1 
1 
1 
1 
1 
1 
1 
1 
1 
1 
1 
1 
1 
1 
1 
1 
1 
1 
1 
1 
1 
1 
1 
1 
1 
1 
1 
1 
1 
1 
1 
1 
1 
1 
1 
1 
1 
1 
1 
1 
1 
1 
1 
1 
1 
1 
1 
1 
1 
1 
1 
1 
1 
1 
1 
1 
1 
1 
1 
1 
1 
1 
1 
1 
1 
1 
1 
1 
1 
1 
1 
1 
1 
1 
1 
1 
1 
1 
1 
1 
1 
1 
1 
1 
1 
1 
1 
1 
1 
1 
1 
1 
1 
1 
1 
1 
1 
1 
1 
1 
1 
1 
1 
1 
1 
1 
1 
1 
1 
1 
1 
1 
1 
1 
1 
1 
1 
1 
1 
1 
1 
1 
1 
1 
1 
1 
1 
1 
1 
1 
1 
1 
1 
1 
1 
1 
1 
1 
1 
1 
1 
1 
1 
1 
1 
1 
1 
1 
1 
1 
1 
1 
1 
1 
1 
1 
1 
1 
1 
1 
1 
1 
1 
1 
1 
1 
1 
1 
1 
1 
1 
1 
1 
1 
1 
1 
1 
1 
1 
1 
1 
1 
1 
1 
1 
1 
1 
1 
1 
1 
1 
1 
1 
1 
1 
1 
1 
1 
1 
1 
1 
1 
1 
1 
1 
1 
1 
1 
1 
1 
1 
1 
1 
1 
1 
1 
1 
1 
1 
1 
1 
1 
1 
1 
1 
1 
1 
1 
1 
1 
1 
1 
1 
1 
1 
1 
1 
1 
1 
1 
1 
1 
1 
1 
1 
1 
1 
1 
1 
1 
1 
1 
1 
1 
1 
1 
1 
1 
1 
1 
1 
1 
1 
1 
1 
1 
1 
1 
1 
1 
1 
1 
1 
1 
1 
1 
1 
1 
1 
1 
1 
1 
1 
1 
1 
1 
1 
1 
1 
1 
1 
1 
1 
1 
1 
1 
1 
1 
1 
1 
1 
1 
1 
1 
1 
1 
1 
1 
1 
1 
1 
1 
1 
1 
1 
1 
1 
1 
1 
1 
1 
1 
1 
1 
1 
1 
1 
1 
1 
1 
1 
1 
1 
1 
1 
1 
1 
1 
1 
1 
1 
1 
1 
1 
1 
1 
1 
1 
1 
1 
1 
1 
1 
1 
1 
1 
1 
1 
1 
1 
1 
1 
1 
1 
1 
1 
1 
1 
1 
1 
1 
1 
1 
1 
1 
1 
1 
1 
1 
1 
1 
1 
1 
1 
1 
1 
1 
1 
1 
1 
1 
1 
1 
1 
1 
1 
1 
1 
1 
1 
1 
1 
1 
1 
1 
1 
1 
1 
1 
1 
1 
1 
1 
1 
1 
1 
1 
1 
1 
1 
1 
1 
1 
1 
1 
1 
1 
1 
1 
1 
1 
1 
1 
1 
1 
1 
1 
1 
1 
1 
1 
1 
1 
1 
1 
1 
1 
1 
1 
1 
1 
1 
1 
1 
1 
1 
1 
1 
1 
1 
1 
1 
1 
1 
1 
1 
1 
1 
1 
1 
1 
1 
1 
1 
1 
1 
1 
1 
1 
1 
1 
1 
1 
1 
1 
1 
1 
1 
1 
1 
1 
1 
1 
1 
1 
1 
1 
1 
1 
1 
1 
1 
1 
1 
1 
1 
1 
1 
1 
1 
1 
1 
1 
1 
1 
1 
1 
1 
1 
1 
1 
1 
1 
1 
1 
1 
1 
1 
1 
1 
1 
1 
1 
1 
1 
1 
1 
1 
1 
1 
1 
1 
1 
1 
1 
1 
1 
1 
1 
1 
1 
1 
1 
1 
1 
1 
1 
1 
1 
1 
1 
1 
1 
1 
1 
1 
1 
1 
1 
1 
1 
1 
1 
1 
1 
1 
1 
1 
1 
1 
1 
1 
1 
1 
1 
1 
1 
1 
1 
1 
1 
1 
1 
1 
1 
1 
1 
1 
1 
1 
1 
1 
1 
1 
1 
1 
1 
1 
1 
1 
1 
1 
1 
1 
1 
1 
1 
1 
1 
1 
1 
1 
1 
1 
1 
1 
1 
1 
1 
1 
1 
1 
1 
1 
1 
1 
1 
1 
1 
1 
1 
1 
1 
1 
1 
1 
1 
1 
1 
1 
1 
1 
1 
1 
1 
1 
1 
1 
1 
1 
1 
1 
1 
1 
1 
1 
1 
1 
1 
1 
1 
1 
1 
1 
1 
1 
1 
1 
1 
1 
1 
1 
1 
1 
1 
1 
1 
1 
1 
1 
1 
1 
1 
1 
1 
1 
1 
1 
1 
1 
1 
1 
1 
1 
1 
1 
1 
1 
1 
1 
1 
1 
1 
1 
1 
1 
1 
1 
1 
1 
1 
1 
1 
1 
1 
1 
1 
1 
1 
1 
1 
1 
1 
1 
1 
1 
1 
1 
1 
1 
1 
1 
1 
1 
1 
1 
1 
1 
1 
1 
1 
1 
1 
1 
1 
1 
1 
1 
1 
1 
1 
1 
1 
1 
1 
1 
1 
1 
1 
1 
1 
1 
1 
1 
1 
1 
1 
1 
1 
1 
1 
1 
1 
1 
1 
1 
1 
1 
1 
1 
1 
1 
1 
1 
1 
1 
1 
1 
1 
1 
1 
1 
1 
1 
1 
1 
1 
1 
1 
1 
1 
1 
1 
1 
1 
1 
1 
1 
1 
1 
1 
1 
1 
1 
1 
1 
1 
1 
1 
1 
1 
1 
1 
1 
1 
1 
1 
1 
1 
1 
1 
1 
1 
1 
1 
1 
1 
1 
1 
1 
1 
1 
1 
1 
1 
1 
1 
1 
1 
1 
1 
1 
1 
1 
1 
1 
1 
1 
1 
1 
1 
1 
1 
1 
1 
1 
1 
1 
1 
1 
1 
1 
1 
1 
1 
1 
1 
1 
1 
1 
1 
1 
1 
1 
1 
1 
1 
1 
1 
1 
1 
1 
1 
1 
1 
1 
1 
1 
1 
1 
1 
1 
1 
1 
1 
1 
1 
1 
1 
1 
1 
1 
1 
1 
1 
1 
1 
1 
1 
1 
1 
1 
1 
1 
1 
1 
1 
1 
1 
1 
1 
1 
1 
1 
1 
1 
1 
1 
1 
1 
1 
1 
1 
1 
1 
1 
1 
1 
1 
1 
1 
1 
1 
1 
1 
1 
1 
1 
1 
1 
1 
1 
1 
1 
1 
1 
1 
1 
1 
1 
1 
1 
1 
1 
1 
1 
1 
1 
1 
1 
1 
1 
1 
1 
1 
1 
1 
1 
1 
1 
1 
1 
1 
1 
1 
1 
1 
1 
1 
1 
1 
1 
1 
1 
1 
1 
1 
1 
1 
1 
1 
1 
1 
1 
1 
1 
1 
1 
1 
1 
1 
1 
1 
1 
1 
1 
1 
1 
1 
1 
1 
1 
1 
1 
1 
1 
1 
1 
1 
1 
1 
1 
1 
1 
1 
1 
1 
1 
1 
1 
1 
1 
1 
1 
1 
1 
1 
1 
1 
1 
1 
1 
1 
1 
1 
1 
1 
1 
1 
1 
1 
1 
1 
1 
1 
1 
1 
1 
1 
1 
1 
1 
1 
1 
1 
1 
1 
1 
1 
1 
1 
1 
1 
1 
1 
1 
1 
1 
1 
1 
1 
1 
1 
1 
1 
1 
1 
1 
1 
1 
1 
1 
1 
1 
1 
1 
1 
1 
1 
1 
1 
1 
1 
1 
1 
1 
1 
1 
1 
1 
1 
1 
1 
1 
1 
1 
1 
1 
1 
1 
1 
1 
1 
1 
1 
1 
1 
1 
1 
1 
1 
1 
1 
1 
1 
1 
1 
1 
1 
1 
1 
1 
1 
1 
1 
1 
1 
1 
1 
1 
1 
1 
1 
1 
1 
1 
1 
1 
1 
1 
1 
1 
1 
1 
1 
1 
1 
1 
1 
1 
1 
1 
1 
1 
1 
1 
1 
1 
1 
1 
1 
1 
1 
1 
1 
1 
1 
1 
1 
1 
1 
1 
1 
1 
1 
1 
1 
1 
1 
1 
1 
1 
1 
1 
1 
1 
1 
1 
1 
1 
1 
1 
1 
1 
1 
1 
1 
1 
1 
1 
1 
1 
1 
1 
1 
1 
1 
1 
1 
1 
1 
1 
1 
1 
1 
1 
1 
1 
1 
1 
1 
1 
1 
1 
1 
1 
1 
1 
1 
1 
1 
1 
1 
1 
1 
1 
1 
1 
1 
1 
1 
1 
1 
1 
1 
1 
1 
1 
1 
1 
1 
1 
1 
1 
1 
1 
1 
1 
1 
1 
1 
1 
1 
1 
1 
1 
1 
1 
1 
1 
1 
1 
1 
1 
1 
1 
1 
1 
1 
1 
1 
1 
1 
1 
1 
1 
1 
1 
1 
1 
1 
1 
1 
1 
1 
1 
1 
1 
1 
1 
1 
1 
1 
1 
1 
1 
1 
1 
1 
1 
1 
1 
1 
1 
1 
1 
1 
1 
1 
1 
1 
1 
1 
1 
1 
1 
1 
1 
1 
1 
1 
1 
1 
1 
1 
1 
1 
1 
1 
1 
1 
1 
1 
1 
1 
1 
1 
1 
1 
1 
1 
1 
1 
1 
1 
1 
1 
1 
1 
1 
1 
1 
1 
1 
1 
1 
1 
1 
1 
1 
1 
1 
1 
1 
1 
1 
1 
1 
1 
1 
1 
1 
1 
1 
1 
1 
1 
1 
1 
1 
1 
1 
1 
1 
1 
1 
1 
1 
1 
1 
1 
1 
1 
1 
1 
1 
1 
1 
1 
1 
1 
1 
1 
1 
1 
1 
1 
1 
1 
1 
1 
1 
1 
1 
1 
1 
1 
1 
1 
1 
1 
1 
1 
1 
1 
1 
1 
1 
1 
1 
1 
1 
1 
1 
1 
1 
1 
1 
1 
1 
1 
1 
1 
1 
1 
1 
1 
1 
1 
1 
1 
1 
1 
1 
1 
1 
1 
1 
1 
1 
1 
1 
1 
1 
1 
1 
1 
1 
1 
1 
1 
1 
1 
1 
1 
1 
1 
1 
1 
1 
1 
1 
1 
1 
1 
1 
1 
1 
1 
1 
1 
1 
1 
1 
1 
1 
1 
1 
1 
1 
1 
1 
1 
1 
1 
1 
1 
1 
1 
1 
1 
1 
1 
1 
1 
1 
1 
1 
1 
1 
1 
1 
1 
1 
1 
1 
1 
1 
1 
1 
1 
1 
1 
1 
1 
1 
1 
1 
1 
1 
1 
1 
1 
1 
1 
1 
1 
1 
1 
1 
1 
1 
1 
1 
1 
1 
1 
1 
1 
1 
1 
1 
1 
1 
1 
1 
1 
1 
1 
1 
1 
1 
1 
1 
1 
1 
1 
1 
1 
1 
1 
1 
1 
1 
1 
1 
1 
1 
1 
1 
1 
1 
1 
1 
1 
1 
1 
1 
1 
1 
1 
1 
1 
1 
1 
1 
1 
1 
1 
1 
1 
1 
1 
1 
1 
1 
1 
1 
1 
1 
1 
1 
1 
1 
1 
1 
1 
1 
1 
1 
1 
1 
1 
1 
1 
1 
1 
1 
1 
1 
1 
1 
1 
1 
1 
1 
1 
1 
1 
1 
1 
1 
1 
1 
1 
1 
1 
1 
1 
1 
1 
1 
1 
1 
1 
1 
1 
1 
1 
1 
1 
1 
1 
1 
1 
1 
1 
1 
1 
1 
1 
1 
1 
1 
1 
1 
1 
1 
1 
1 
1 
1 
1 
1 
1 
1 
1 
1 
1 
1 
1 
1 
1 
1 
1 
1 
1 
1 
1 
1 
1 
1 
1 
1 
1 
1 
1 
1 
1 
1 
1 
1 
1 
1 
1 
1 
1 
1 
1 
1 
1 
1 
1 
1 
1 
1 
1 
1 
1 
1 
1 
1 
1 
1 
1 
1 
1 
1 
1 
1 
1 
1 
1 
1 
1 
1 
1 
1 
1 
1 
1 
1 
1 
1 
1 
1 
1 
1 
1 
1 
1 
1 
1 
1 
1 
1 
1 
1 
1 
1 
1 
1 
1 
1 
1 
1 
1 
1 
1 
1 
1 
1 
1 
1 
1 
1 
1 
1 
1 
1 
1 
1 
1 
1 
1 
1 
1 
1 
1 
1 
1 
1 
1 
1 
1 
1 
1 
1 
1 
1 
1 
1 
1 
1 
1 
1 
1 
1 
1 
1 
1 
1 
1 
1 
1 
1 
1 
1 
1 
1 
1 
1 
1 
1 
1 
1 
1 
1 
1 
1 
1 
1 
1 
1 
1 
1 
1 
1 
1 
1 
1 
1 
1 
1 
1 
1 
1 
1 
1 
1 
1 
1 
1 
1 
1 
1 
1 
1 
1 
1 
1 
1 
1 
1 
1 
1 
1 
1 
1 
1 
1 
1 
1 
1 
1 
1 
1 
1 
1 
1 
1 
1 
1 
1 
1 
1 
1 
1 
1 
1 
1 
1 
1 
1 
1 
1 
1 
1 
1 
1 
1 
1 
1 
1 
1 
1 
1 
1 
1 
1 
1 
1 
1 
1 
1 
1 
1 
1 
1 
1 
1 
1 
1 
1 
1 
1 
1 
1 
1 
1 
1 
1 
1 
1 
1 
1 
1 
1 
1 
1 
1 
1 
1 
1 
1 
1 
1 
1 
1 
1 
1 
1 
1 
1 
1 
1 
1 
1 
1 
1 
1 
1 
1 
1 
1 
1 
1 
1 
1 
1 
1 
1 
1 
1 
1 
1 
1 
1 
1 
1 
1 
1 
1 
1 
1 
1 
1 
1 
1 
1 
1 
1 
1 
1 
1 
1 
1 
1 
1 
1 
1 
1 
1 
1 
1 
1 
1 
1 
1 
1 
1 
1 
1 
1 
1 
1 
1 
1 
1 
1 
1 
1 
1 
1 
1 
1 
1 
1 
1 
1 
1 
1 
1 
1 
1 
1 
1 
1 
1 
1 
1 
1 
1 
1 
1 
1 
1 
1 
1 
1 
1 
1 
1 
1 
1 
1 
1 
1 
1 
1 
1 
1 
1 
1 
1 
1 
1 
1 
1 
1 
1 
1 
1 
1 
1 
1 
1 
1 
1 
1 
1 
1 
1 
1 
1 
1 
1 
1 
1 
1 
1 
1 
1 
1 
1 
1 
1 
1 
1 
1 
1 
1 
1 
1 
1 
1 
1 
1 
1 
1 
1 
1 
1 
1 
1 
1 
1 
1 
1 
1 
1 
1 
1 
1 
1 
1 
1 
1 
1 
1 
1 
1 
1 
1 
1 
1 
1 
1 
1 
1 
1 
1 
1 
1 
1 
1 
1 
1 
1 
1 
1 
1 
1 
1 
1 
1 
1 
1 
1 
1 
1 
1 
1 
1 
1 
1 
1 
1 
1 
1 
1 
1 
1 
1 
1 
1 
1 
1 
1 
1 
1 
1 
1 
1 
1 
1 
1 
1 
1 
1 
1 
1 
1 
1 
1 
1 
1 
1 
1 
1 
1 
1 
1 
1 
1 
1 
1 
1 
1 
1 
1 
1 
1 
1 
1 
1 
1 
1 
1 
1 
1 
1 
1 
1 
1 
1 
1 
1 
1 
1 
1 
1 
1 
1 
1 
1 
1 
1 
1 
1 
1 
1 
1 
1 
1 
1 
1 
1 
1 
1 
1 
1 
1 
1 
1 
1 
1 
1 
1 
1 
1 
1 
1 
1 
1 
1 
1 
1 
1 
1 
1 
1 
1 
1 
1 
1 
1 
1 
1 
1 
1 
1 
1 
1 
1 
1 
1 
1 
1 
1 
1 
1 
1 
1 
1 
1 
1 
1 
1 
1 
1 
1 
1 
1 
1 
1 
1 
1 
1 
1 
1 
1 
1 
1 
1 
1 
1 
1 
1 
1 
1 
1 
1 
1 
1 
1 
1 
1 
1 
1 
1 
1 
1 
1 
1 
1 
1 
1 
1 
1 
1 
1 
1 
1 
1 
1 
1 
1 
1 
1 
1 
1 
1 
1 
1 
1 
1 
1 
1 
1 
1 
1 
1 
1 
1 
1 
1 
1 
1 
1 
1 
1 
1 
1 
1 
1 
1 
1 
1 
1 
1 
1 
1 
1 
1 
1 
1 
1 
1 
1 
1 
1 
1 
1 
1 
1 
1 
1 
1 
1 
1 
1 
1 
1 
1 
1 
1 
1 
1 
1 
1 
1 
1 
1 
1 
1 
1 
1 
1 
1 
1 
1 
1 
1 
1 
1 
1 
1 
1 
1 
1 
1 
1 
1 
1 
1 
1 
1 
1 
1 
1 
1 
1 
1 
1 
1 
1 
1 
1 
1 
1 
1 
1 
1 
1 
1 
1 
1 
1 
1 
1 
1 
1 
1 
1 
1 
1 
1 
1 
1 
1 
1 
1 
1 
1 
1 
1 
1 
1 
1 
1 
1 
1 
1 
1 
1 
1 
1 
1 
1 
1 
1 
1 
1 
1 
1 
1 
1 
1 
1 
1 
1 
1 
1 
1 
1 
1 
1 
1 
1 
1 
1 
1 
1 
1 
1 
1 
1 
1 
1 
1 
1 
1 
1 
1 
1 
1 
1 
1 
1 
1 
1 
1 
1 
1 
1 
1 
1 
1 
1 
1 
1 
1 
1 
1 
1 
1 
1 
1 
1 
1 
1 
1 
1 
1 
1 
1 
1 
1 
1 
1 
1 
1 
1 
1 
1 
1 
1 
1 
1 
1 
1 
1 
1 
1 
1 
1 
1 
1 
1 
1 
1 
1 
1 
1 
1 
1 
1 
1 
1 
1 
1 
1 
1 
1 
1 
1 
1 
1 
1 
1 
1 
1 
1 
1 
1 
1 
1 
1 
1 
1 
1 
1 
1 
1 
1 
1 
1 
1 
1 
1 
1 
1 
1 
1 
1 
1 
1 
1 
1 
1 
1 
1 
1 
1 
1 
1 
1 
1 
1 
1 
1 
1 
1 
1 
1 
1 
1 
1 
1 
1 
1 
1 
1 
1 
1 
1 
1 
1 
1 
1 
1 
1 
1 
1 
1 
1 
1 
1 
1 
1 
1 
1 
1 
1 
1 
1 
1 
1 
1 
1 
1 
1 
1 
1 
1 
1 
1 
1 
1 
1 
1 
1 
1 
1 
1 
1 
1 
1 
1 
1 
1 
1 
1 
1 
1 
1 
1 
1 
1 
1 
1 
1 
1 
1 
1 
1 
1 
1 
1 
1 
1 
1 
1 
1 
1 
1 
1 
1 
1 
1 
1 
1 
1 
1 
1 
1 
1 
1 
1 
1 
1 
1 
1 
1 
1 
1 
1 
1 
1 
1 
1 
1 
1 
1 
1 
1 
1 
1 
1 
1 
1 
1 
1 
1 
1 
1 
1 
1 
1 
1 
1 
1 
1 
1 
1 
1 
1 
1 
1 
1 
1 
1 
1 
1 
1 
1 
1 
1 
1 
1 
1 
1 
1 
1 
1 
1 
1 
1 
1 
1 
1 
1 
1 
1 
1 
1 
1 
1 
1 
1 
1 
1 
1 
1 
1 
1 
1 
1 
1 
1 
1 
1 
1 
1 
1 
1 
1 
1 
1 
1 
1 
1 
1 
1 
1 
1 
1 
1 
1 
1 
1 
1 
1 
1 
1 
1 
1 
1 
1 
1 
1 
1 
1 
1 
1 
1 
1 
1 
1 
1 
1 
1 
1 
1 
1 
1 
1 
1 
1 
1 
1 
1 
1 
1 
1 
1 
1 
1 
1 
1 
1 
1 
1 
1 
1 
1 
POINT_DATA 5000
VECTORS Stress float
-1637.09 -2779.42 0.
-2742.78 -3364.19 0.
-65.6202 -176.686 0.
-331.735 -772.695 0.
-3773.01 -7566.72 0.
-10.6489 -25.2203 0.
-2276.36 -1631.32 0.
-26.0358 -41.3704 0.
-216.94 -104.688 0.
-3953.11 -6575 0.
-1176.99 -2194.22 0.
-160.111 -225.697 0.
-2146.81 -2904.66 0.
-1676 -2308.51 0.
-1265.68 -1774.54 0.
-1031.88 -1503.07 0.
-798.2 -1231.46 0.
-931.538 -1443.96 0.
-789.561 -1370.81 0.
-639.203 -1306.05 0.
-822.701 -1482.13 0.
-743.352 -1298.23 0.
-663.423 -1114.9 0.
-720.068 -1238.22 0.
-798.914 -1421.58 0.
-875.311 -1607.38 0.
-1011.91 -1637.53 0.
-946.604 -1520.46 0.
-723.821 -1359.34 0.
-706.179 -1301.84 0.
-680.817 -1252.05 0.
-715.882 -1266.87 0.
-696.829 -1250.82 0.
-675.566 -1236.97 0.
-694.019 -1272.21 0.
-693.062 -1290.96 0.
-692.053 -1309.77 0.
-794.607 -1375.92 0.
-796.23 -1400.01 0.
-706.913 -1375.29 0.
-686.036 -1340.04 0.
-665.164 -1304.78 0.
-698.786 -1310.48 0.
-718.717 -1356.99 0.
-738.648 -1403.51 0.
-710.524 -1323.5 0.
-630.334 -1136.39 0.
-550.144 -949.275 0.
-481.29 -1080.83 0.
-612.37 -1437.55 0.
-758.712 -1778.98 0.
-645.538 -1435.23 0.
-501.017 -1063.06 0.
-534.798 -899.329 0.
-620.877 -1100.2 0.
-706.956 -1301.07 0.
-726.544 -1384.47 0.
-707.612 -1340.29 0.
-688.681 -1296.1 0.
-676.389 -1316.66 0.
-709.363 -1382.99 0.
-744.918 -1446.75 0.
-829.465 -1474.65 0.
-830.648 -1461.52 0.
-727.476 -1394.39 0.
-722.268 -1354.13 0.
-716.473 -1314.46 0.
-690.307 -1268.89 0.
-702.265 -1267.23 0.
-712.822 -1266.98 0.
-688.215 -1268.3 0.
-744.24 -1363.2 0.
-797.575 -1460.78 0.
-980.722 -1584.45 0.
-1020.33 -1657.96 0.
-880.153 -1593.72 0.
-792.318 -1426.2 0.
-745.288 -1311.91 0.
-649.948 -1238.63 0.
-724.525 -1400.88 0.
-822.791 -1539.45 0.
-743.314 -1387.74 0.
-958.245 -1576.42 0.
-1158.17 -1780.1 0.
-1044.95 -1421.74 0.
-1205.03 -1481.06 0.
-1355.28 -1550.22 0.
-1627.79 -2620.33 0.
-2763.88 -4476.58 0.
-91.722 -112.682 0.
-719.087 -1223.96 0.
-4376.55 -6634.22 0.
-567.685 -693.46 0.
-511.362 -490.647 0.
-2654.99 -3099.91 0.
-79.3373 -170.483 0.
-3612.51 -5715.48 0.
-69.4987 -140.792 0.
-3201.33 -5450.06 0.
-906.216 -1441.39 0.
-1882.24 -3532.3 0.
-40.5653 -84.0912 0.
-66.0159 -180.185 0.
-0.084521 -0.514271 0.
-27.368 -75.432 0.
-4.51367 -12.3788 0.
-54.9101 -60.4027 0.
-53.6926 -53.9223 0.
-954.564 -474.365 0.
-144.064 -77.3857 0.
-55.4139 -46.2972 0.
-81.0942 -67.7747 0.
-828.257 -832.844 0.
-511.91 -334.572 0.
-363.46 -304.224 0.
-92.454 -76.4043 0.
-41.1085 -57.5571 0.
-280.376 -530.975 0.
-197.731 -419.807 0.
-168.497 -272.518 0.
-580.536 -1191.98 0.
-488.191 -1025.41 0.
-398.226 -857.421 0.
-541.444 -973.685 0.
-605.291 -1172.08 0.
-665.82 -1373.79 0.
-969.926 -1528.28 0.
-906.177 -1409.63 0.
-552.314 -1101.47 0.
-514.464 -1045.1 0.
-488.512 -990.83 0.
-576.417 -1093.67 0.
-550.487 -1084.49 0.
-550.876 -1048.98 0.
-599.995 -1162.49 0.
-599.303 -1180.97 0.
-598.272 -1199.8 0.
-872.514 -1355.07 0.
-876.384 -1376.91 0.
-640.313 -1286.83 0.
-614.053 -1256.96 0.
-591.327 -1223.55 0.
-692.814 -1247.12 0.
-702.006 -1304.37 0.
-712.113 -1360.71 0.
-697.903 -1286.72 0.
-617.715 -1099.6 0.
-537.527 -912.485 0.
-339.059 -660.363 0.
-434.236 -1053.1 0.
-539.044 -1436.14 0.
-492.856 -1145.68 0.
-387.989 -733.77 0.
-537.091 -868.946 0.
-623.154 -1069.82 0.
-709.218 -1270.7 0.
-691.324 -1337.92 0.
-680.03 -1286.1 0.
-671.383 -1231.63 0.
-632.057 -1242.49 0.
-672.428 -1301.42 0.
-713.571 -1359.58 0.
-883.509 -1446.43 0.
-881.213 -1436.78 0.
-637.947 -1246.61 0.
-613.065 -1226.03 0.
-608.944 -1184.68 0.
-542.229 -1076.72 0.
-561.093 -1068.17 0.
-581.143 -1058.42 0.
-531.825 -976.821 0.
-561.333 -1098.27 0.
-618.125 -1192.43 0.
-891.476 -1433.97 0.
-931.908 -1506.69 0.
-751.84 -1442.43 0.
-647.093 -1204.84 0.
-621.374 -1064.29 0.
-291.039 -683.547 0.
-378.044 -849.389 0.
-477.048 -1007.47 0.
-120.851 -99.1002 0.
-221.104 -257.055 0.
-332.489 -505.863 0.
-228.947 -186.929 0.
-110.918 -70.9801 0.
-164.012 -122.878 0.
-94.167 -77.9547 0.
-449.516 -648.775 0.
-128.224 -138.753 0.
-45.5345 -64.8153 0.
-81.701 -143.66 0.
-150.545 -221.263 0.
-88.5522 -183.502 0.
-84.1984 -188.018 0.
-9.49007 -18.43 0.
-156.152 -344.831 0.
-69.5456 -79.8554 0.
-173.491 -327.23 0.
-61.8625 -121.227 0.
1.02526 2.62494 0.
-15.1604 -21.3839 0.
-78.1936 -209.567 0.
-0.0660641 -0.571723 0.
-5.96113 -14.2852 0.
-2.08132 -4.87659 0.
-85.7668 -74.128 0.
-84.9259 -67.2535 0.
-1664.97 -871.158 0.
-142.247 -74.3202 0.
-106.235 -67.4361 0.
-84.4754 -70.7273 0.
-313.803 -211.866 0.
-143.118 -105.793 0.
-731.657 -921.548 0.
-100.561 -78.7295 0.
-102.057 -81.2336 0.
-792.346 -1700.72 0.
-702.841 -1599.26 0.
-872.971 -2140.05 0.
-1211.55 -2226.45 0.
-967.687 -1735.19 0.
-766.626 -1345.11 0.
-684.063 -1039.19 0.
-663.825 -1027.45 0.
-1595.61 -3204.08 0.
-1201.57 -1931.96 0.
-1205.9 -1949.6 0.
-795.137 -1408.55 0.
-624.206 -1060.48 0.
-551.908 -936.424 0.
-707.159 -1198.46 0.
-626.981 -1016.9 0.
-626.217 -1028.61 0.
-684.356 -1161.53 0.
-634.842 -1051.12 0.
-707.482 -1231.06 0.
-1020.52 -1468.74 0.
-1060.38 -1573.36 0.
-694.255 -1099.06 0.
-598.729 -904.973 0.
-586.353 -891.835 0.
-688.599 -1110.08 0.
-706.363 -1197.44 0.
-641.37 -1110.22 0.
-706.941 -1139.83 0.
-762.16 -1299.24 0.
-824.459 -1470.89 0.
-305.039 -549.891 0.
-163.213 -268.445 0.
-4531.59 -2858.56 0.
-188.043 -296.156 0.
-318.758 -552.762 0.
-845.387 -1412.03 0.
-779.66 -1232.76 0.
-717.669 -1094.62 0.
-653.975 -1087.61 0.
-639.773 -1047.76 0.
-667.883 -1068.9 0.
-645.782 -943.37 0.
-692.709 -1056.18 0.
-718.788 -1083.91 0.
-1037.94 -1574.65 0.
-1041.15 -1571.51 0.
-678.265 -1055.25 0.
-699.568 -1196.73 0.
-710.491 -1204.27 0.
-650.54 -1129.85 0.
-629.741 -1078.26 0.
-693.049 -1183.74 0.
-562.988 -893.392 0.
-712.346 -1248.68 0.
-822.066 -1426.93 0.
-1324.5 -2256.69 0.
-1371.2 -2361.54 0.
-1663.88 -3195.78 0.
-759.393 -1085.9 0.
-807.509 -1099.53 0.
-593.534 -1345.8 0.
-904.268 -1913.7 0.
-2500.99 -5540.78 0.
-502.399 -804.31 0.
-777.022 -1551.46 0.
-839.347 -1601.24 0.
-335.59 -251.781 0.
-188.79 -100.464 0.
-361.319 -332.428 0.
-158.595 -108.912 0.
-214.818 -148.181 0.
-169.939 -159.702 0.
-47.0076 -65.8642 0.
-92.7801 -145.01 0.
-218.995 -232.166 0.
-159.731 -195.534 0.
-204.636 -234.562 0.
-13.0597 -24.6902 0.
-137.819 -241.604 0.
-152.858 -195.33 0.
0.59131 0.201408 0.
-1590.29 -2893.68 0.
-2209.43 -4356.11 0.
-0.591747 -0.523961 0.
-302.652 -438.137 0.
-3076.77 -5055.28 0.
-0.114991 -1.11946 0.
-3102.36 -5904.12 0.
-1.32623 -0.516493 0.
-935.714 -1289.51 0.
-41.6079 -24.2387 0.
-3624 -6173.45 0.
-150.862 -84.2766 0.
-8.20004 -21.3128 0.
-3752.71 -7685.48 0.
-11.5992 -15.1907 0.
-1805.62 -2367.58 0.
-1319.43 -1876.38 0.
-899.28 -1348.02 0.
-1853 -4097.81 0.
-572.104 -1229.42 0.
-6.17857 -5.73613 0.
-491.139 -1102.51 0.
-308.492 -684.98 0.
-211.427 -277.44 0.
-502.998 -655.182 0.
-337.812 -361.892 0.
-147.536 -111.739 0.
-561.087 -597.115 0.
-609.081 -739.851 0.
-367.432 -408.192 0.
-381.775 -467.639 0.
-406.671 -551.991 0.
-465.585 -656.111 0.
-431.433 -623.612 0.
-399.186 -581.887 0.
-410.356 -595.226 0.
-393.982 -556.929 0.
-392.144 -507.311 0.
-663.521 -839.27 0.
-654.116 -837.49 0.
-464.485 -550.68 0.
-464.31 -553.152 0.
-464.992 -558.662 0.
-562.926 -776.655 0.
-529.8 -697.841 0.
-489.689 -628.069 0.
-580.837 -702.494 0.
-613.974 -795.402 0.
-656.853 -880.234 0.
-4.44448 -11.2857 0.
-2.62192 -4.93542 0.
-4666.92 -2051.76 0.
-15.5202 -14.2704 0.
-9.28147 -3.45921 0.
-607.484 -874.094 0.
-591.387 -786.464 0.
-574.363 -700.302 0.
-506.117 -586.249 0.
-561.382 -658.068 0.
-600.477 -746.024 0.
-468.996 -596.217 0.
-459.038 -568.545 0.
-449.638 -542.148 0.
-590.969 -792.09 0.
-614.488 -806.899 0.
-386.519 -506.239 0.
-393.886 -559.859 0.
-431.999 -657.219 0.
-397.103 -612.086 0.
-409.409 -604.604 0.
-432.842 -587.615 0.
-419.282 -531.898 0.
-387.197 -452.204 0.
-374.445 -424.22 0.
-605.186 -693.408 0.
-563.776 -539.82 0.
-70.8877 -65.2663 0.
-368.847 -304.654 0.
-572.753 -682.053 0.
-68.3245 -80.0738 0.
-218.647 -295.394 0.
-511.362 -1115.01 0.
-41.8817 -33.7565 0.
-783.111 -1448.27 0.
-2419.37 -5010.82 0.
-393.265 -472.418 0.
-1193.31 -1837.1 0.
-2107.28 -3128.36 0.
-51.7657 -18.7019 0.
-4336.5 -8054.56 0.
-0.209585 -0.456397 0.
-20.6274 -13.6602 0.
-3624.57 -5320.22 0.
-93.1981 -238.913 0.
-2803.33 -4459.53 0.
-43.3279 -87.7949 0.
-3124.6 -6328.67 0.
-450.715 -754.485 0.
-1649.87 -2891.62 0.
-6.73652 -9.65736 0.
-2324.25 -5616.86 0.
-1.25764 -4.45149 0.
0.0661928 3.84771 0.
-2297.33 -2904.84 0.
-104.324 -261.911 0.
-17.9641 -38.9619 0.
-43.6855 -72.816 0.
0.448046 1.03113 0.
-113.372 -192.94 0.
-12.258 -8.31895 0.
-687.857 -570.212 0.
-201.439 -101.414 0.
-28.1916 -42.9274 0.
-22.3543 -31.5121 0.
-13.2951 -16.7725 0.
-8.32709 -6.55831 0.
-3.09607 -1.53134 0.
-58.0585 -90.8272 0.
-403.054 -462.059 0.
-14.9126 -38.5487 0.
-0.0470148 -0.133154 0.
-169.405 -291.583 0.
-11.0222 -25.2174 0.
-57.0682 -87.1416 0.
-462.88 -558.418 0.
-299.852 -260.084 0.
-60.875 -53.8754 0.
-630.959 -624.729 0.
-681.778 -763.852 0.
-368.733 -386.219 0.
-414.321 -447.211 0.
-437.697 -531.094 0.
-464.817 -562.529 0.
-429.482 -527.29 0.
-391.334 -495.861 0.
-389.855 -536.207 0.
-387.882 -483.332 0.
-391.124 -426.539 0.
-691.673 -840.923 0.
-694.857 -841.376 0.
-524.86 -571.804 0.
-525.852 -573.327 0.
-529.267 -577.262 0.
-664.21 -759.091 0.
-633.116 -697.284 0.
-587.76 -663.848 0.
-684.963 -717.451 0.
-728.159 -802.276 0.
-770.712 -887.151 0.
-0.744167 -0.631607 0.
-1.43031 -1.90018 0.
-5619.68 -2454.3 0.
-21.5611 -16.8264 0.
-15.7478 -6.08606 0.
-732.643 -870.861 0.
-703.691 -795.457 0.
-685.586 -709.796 0.
-600.05 -623.117 0.
-639.893 -683.121 0.
-686.486 -762.642 0.
-504.722 -607.972 0.
-504.128 -570.236 0.
-484.422 -553.629 0.
-675.873 -825.997 0.
-684.525 -842.741 0.
-387.751 -471.486 0.
-394.505 -525.484 0.
-429.479 -628.371 0.
-385.564 -478.339 0.
-420.702 -445.932 0.
-447.861 -420.227 0.
-424.729 -540.091 0.
-394.126 -463.621 0.
-366.895 -386.122 0.
-656.964 -690.46 0.
-615.202 -542.19 0.
-36.1751 -35.9857 0.
-204.216 -148.159 0.
-412.083 -512.372 0.
-95.9518 -94.4084 0.
-29.4212 -52.4204 0.
-25.2148 -42.3916 0.
-50.3877 -37.2646 0.
-47.5216 -26.6973 0.
-380.374 -280.249 0.
-97.4784 -47.0244 0.
-61.4842 -36.3429 0.
-92.9845 -52.4344 0.
-28.206 -10.2035 0.
-76.4125 -30.988 0.
-29.0292 -13.6199 0.
-71.5998 -42.924 0.
-146.618 -179.707 0.
-92.2793 -144.893 0.
-258.247 -535.52 0.
-34.1216 -54.9518 0.
-263.825 -491.771 0.
-240.083 -529.917 0.
0.163282 2.40179 0.
-0.0157439 -0.178796 0.
-0.410766 -1.08476 0.
-1267.52 -1933.89 0.
-0.143425 -1.35303 0.
-0.398706 -6.89675 0.
-1.0153 -4.34602 0.
-64.4691 -137.863 0.
1.25984 1.69923 0.
0.390414 0.404655 0.
-1864.63 -3759.27 0.
-457.925 -930.432 0.
-593.525 -1587.64 0.
-1526.42 -2268.32 0.
-8.66152 -13.9427 0.
-2948.24 -5006.25 0.
-37.8826 -16.658 0.
-48.3111 -19.9155 0.
-3223.82 -6154.29 0.
-57.7049 -60.0808 0.
-2419.74 -4239.64 0.
-811.544 -933.616 0.
-38.8239 -51.1245 0.
-2299.77 -4606.75 0.
-1133.9 -2395.53 0.
-78.7779 -73.9762 0.
-1199.04 -2178.22 0.
-860.642 -1593.37 0.
-584.167 -1101.86 0.
-1127.39 -1833.83 0.
-1014.45 -1701.55 0.
-772.063 -1258.34 0.
-730.81 -1165.6 0.
-690.704 -1073.55 0.
-677.683 -1051.94 0.
-656.676 -1045.03 0.
-642.094 -1031.71 0.
-709.278 -1167.45 0.
-682.315 -1136.23 0.
-658.358 -1102 0.
-1142.54 -1625.08 0.
-1061.73 -1507.18 0.
-771.651 -1069.82 0.
-761.896 -1045.69 0.
-753.417 -1019.88 0.
-880.797 -1209.26 0.
-873.873 -1206.78 0.
-870.852 -1211.72 0.
-994.665 -1352.06 0.
-1048.56 -1479.44 0.
-1103.62 -1605.67 0.
-67.1024 -183.696 0.
-29.1875 -77.4729 0.
-6268.6 -3803.99 0.
-58.8995 -111.286 0.
-100.766 -222.847 0.
-1101.89 -1708.61 0.
-1032.87 -1555.24 0.
-964.36 -1401.36 0.
-794.991 -1122.24 0.
-846.641 -1157.7 0.
-873.584 -1236.72 0.
-783.704 -1063.25 0.
-787.7 -1072.06 0.
-793.708 -1078.86 0.
-1076.49 -1499.52 0.
-1137.74 -1601.81 0.
-650.16 -1085.47 0.
-689.103 -1179.98 0.
-736.933 -1273.72 0.
-707.06 -1004.18 0.
-692.915 -1005.58 0.
-680.414 -1005.34 0.
-635.608 -1155.89 0.
-696.271 -1250.07 0.
-760.992 -1342.33 0.
-951.35 -1633.01 0.
-1116.22 -1799.33 0.
-469.821 -876.193 0.
-880.28 -1719.73 0.
-1394.58 -2663.01 0.
-42.2277 -18.1594 0.
-1155.73 -2368.15 0.
-2724.04 -5639 0.
-189.927 -127.647 0.
-574.194 -511.772 0.
-2319.39 -3764.91 0.
-50.1544 -23.7303 0.
-3830.5 -7813.66 0.
-32.6271 -12.0433 0.
-35.2224 -30.2302 0.
-2919.67 -5070.16 0.
-123.779 -121.253 0.
-3075.26 -5640.26 0.
-176.834 -306.618 0.
-164.106 -229.186 0.
-17.1552 -12.2583 0.
-31.5464 -26.4178 0.
-196.452 -439.781 0.
0.0439896 6.58887 0.
-2482.4 -4799.2 0.
-292.11 -788.462 0.
-2230.91 -4482.31 0.
-2420.26 -4599.58 0.
7.5345 14.293 0.
-1851.26 -4321.42 0.
0.736604 1.11471 0.
-105.994 -224.307 0.
-204.641 -443.113 0.
-2330.32 -4399.02 0.
-22.1902 -55.1489 0.
-56.8627 -140.455 0.
-27.9523 -75.8883 0.
-839.897 -1846.24 0.
-41.0786 -55.793 0.
-20.8892 -11.6892 0.
-1.21899 -0.462943 0.
-0.630749 -0.048026 0.
-290.089 -400.631 0.
-9.02428 -6.31116 0.
-8.3385 -16.6162 0.
-8.11851 -18.3473 0.
-37.8769 -46.2563 0.
-450.195 -758.871 0.
-1.43437 -3.97275 0.
-3.59722 -9.45202 0.
-564.244 -1053.9 0.
-322.167 -438.625 0.
-134.632 -157.157 0.
-826.349 -1472.6 0.
-732.736 -1394.54 0.
-655.406 -1118.9 0.
-605.169 -1055.05 0.
-575.683 -991.637 0.
-643.761 -919.225 0.
-627.704 -911.398 0.
-611.959 -918.187 0.
-628.124 -976.063 0.
-605.919 -952.145 0.
-583.022 -929.232 0.
-983.951 -1413.23 0.
-911.303 -1312.15 0.
-702.424 -977.406 0.
-690.37 -955.687 0.
-678.63 -934.14 0.
-773.433 -1030.72 0.
-778.593 -1033.9 0.
-763.062 -1081.02 0.
-880.903 -1240.8 0.
-930.541 -1369.19 0.
-982.656 -1499.45 0.
-50.2699 -136.102 0.
-13.4214 -34.8712 0.
-5059.19 -3251.72 0.
-60.7426 -83 0.
-100.876 -192.821 0.
-980.106 -1594.02 0.
-884.735 -1402.29 0.
-808.342 -1240.05 0.
-695.694 -990.179 0.
-703.856 -1033.65 0.
-777.005 -1043.85 0.
-672.214 -975.175 0.
-672.7 -976.962 0.
-679.658 -992.539 0.
-890.205 -1328.14 0.
-952.408 -1403.81 0.
-593.543 -969.041 0.
-612.996 -1013.13 0.
-651.761 -1093.77 0.
-671.755 -937.12 0.
-663.626 -931.333 0.
-661.862 -925.905 0.
-531.408 -961.36 0.
-562.815 -1018.58 0.
-610.229 -1109.55 0.
-628.007 -1194.17 0.
-734.696 -1315.25 0.
-75.0264 -63.6966 0.
-203.842 -109.439 0.
-566.109 -1118.75 0.
-32.8145 -13.9526 0.
-21.0858 -8.1814 0.
-234.289 -165.633 0.
-58.8796 -41.4245 0.
-45.6229 -24.5547 0.
-58.8803 -38.3841 0.
-104.031 -43.0975 0.
-126.687 -46.6397 0.
-19.3219 -6.98078 0.
-23.1678 -29.0494 0.
-122.097 -137.995 0.
-68.5857 -90.1115 0.
-74.6826 -64.295 0.
-54.0089 -42.7283 0.
-2766.61 -5424.91 0.
-45.2429 -65.9119 0.
-2256.82 -4236.08 0.
-241.724 -432.144 0.
-0.00499866 -7.81771 0.
-0.112589 -0.999153 0.
3.72305 9.81187 0.
9.55214 15.7778 0.
-282.491 -536.49 0.
9.13194 14.8036 0.
11.3246 25.0257 0.
0.000939265 11.2605 0.
7.02191 10.2693 0.
-183.526 -388.072 0.
-8.66593 -16.2484 0.
1.23469 2.97823 0.
-45.66 -121.134 0.
-16.9163 -46.6318 0.
-543.498 -1253.93 0.
-90.9099 -88.1073 0.
-1.59136 -0.0202088 0.
0.966203 0.359924 0.
0.466821 0.174049 0.
0.133268 0.0752741 0.
-5.38388 -3.86223 0.
-15.2961 -19.2042 0.
-15.3708 -21.1638 0.
-51.8676 -56.7649 0.
-93.0266 -90.4192 0.
-0.342914 -0.926207 0.
-0.104294 -0.288842 0.
-356.645 -301.156 0.
-118.389 -88.265 0.
-180.694 -183.006 0.
-722.635 -1158.99 0.
-392.701 -504.502 0.
-449.841 -551.857 0.
-446.834 -514.37 0.
-248.211 -99.3293 0.
-691.053 -784.447 0.
-334.337 -267.334 0.
-97.4114 -66.0858 0.
-398.701 -454.879 0.
-426.024 -513.363 0.
-458.157 -566.354 0.
-684.306 -797.186 0.
-765.481 -925.798 0.
-535.152 -472.86 0.
-558.128 -548.465 0.
-432.998 -338.57 0.
-475.042 -466.991 0.
-433.478 -391.83 0.
-656.837 -930.121 0.
-635.693 -827.205 0.
-540.299 -592.145 0.
-575.642 -686.35 0.
-2.21304 -2.08443 0.
-2.382 -3.47367 0.
-4441.79 -2635.17 0.
-79.3368 -62.6149 0.
-73.259 -69.8347 0.
-641.401 -894.175 0.
-579.134 -703.655 0.
-634.723 -802.7 0.
-517.834 -442.003 0.
-648.524 -715.055 0.
-641.445 -591.339 0.
-488.521 -561.933 0.
-441.689 -437.239 0.
-484.165 -322.138 0.
-561.065 -664.139 0.
-735.471 -1070.57 0.
-368.781 -304.592 0.
-471.231 -453.497 0.
-213.265 -114.031 0.
-310.42 -269.871 0.
-271.683 -166.637 0.
-199.787 -126.935 0.
-205.775 -110.852 0.
-395.177 -495.058 0.
-421.058 -602.617 0.
-247.267 -249.764 0.
-614.163 -1066.13 0.
-90.5126 -72.4582 0.
-67.9862 -46.1426 0.
-47.3326 -20.7132 0.
-44.8578 -20.6415 0.
-45.0023 -19.0963 0.
-63.6584 -37.2445 0.
-60.7415 -41.3381 0.
-50.5135 -28.0151 0.
-65.4587 -40.6473 0.
-246.808 -100.605 0.
-57.9744 -24.9722 0.
-6.36206 -2.76361 0.
-21.9025 -19.0891 0.
-49.009 -96.4259 0.
-33.1992 -72.6494 0.
-69.9658 -58.1131 0.
-79.2802 -46.8511 0.
-334.047 -691.721 0.
-42.1257 -79.93 0.
-0.469396 -1.00317 0.
-730.765 -1174.53 0.
3.43659 8.84304 0.
-2482.81 -4217.23 0.
0.070208 0.155923 0.
-1474.62 -1984.57 0.
-731.211 -1139.5 0.
1.58194 3.54233 0.
-17.8912 -34.6634 0.
-0.0964002 -7.06141 0.
-3.15775 -4.94478 0.
-2438.62 -4703.35 0.
-204.474 -448.304 0.
0.337926 0.791514 0.
-38.1114 -104.764 0.
-2239.34 -4635.94 0.
-1242.13 -1601.56 0.
-62.0519 -81.5063 0.
-2746.85 -5061.2 0.
-0.627847 -0.147751 0.
0.41864 0.273391 0.
-3058.45 -6219.26 0.
-24.7532 -23.5748 0.
-3261.2 -4749.85 0.
-23.896 -57.5483 0.
-18.9652 -51.5443 0.
-3134.7 -7062.38 0.
-145.582 -170.601 0.
-0.0222081 -0.0460667 0.
-1967.73 -4342.88 0.
-679.946 -1403.84 0.
-28.6753 -54.3301 0.
-1162.98 -2340.73 0.
-734.425 -1458.51 0.
-769.695 -1439.3 0.
-592.838 -1075.65 0.
-422.395 -712.938 0.
-607.247 -1003.01 0.
-574.146 -946.231 0.
-537.619 -896.266 0.
-538.271 -799.586 0.
-497.321 -727.571 0.
-449.283 -664.022 0.
-811.526 -1140.71 0.
-807.803 -1145.62 0.
-531.145 -801.718 0.
-524.874 -781.466 0.
-532.189 -798.03 0.
-590.326 -876.865 0.
-573.938 -844.679 0.
-560.579 -820.103 0.
-563.385 -894.704 0.
-613.833 -1004.31 0.
-678.282 -1125.19 0.
-1.38617 -1.71953 0.
-1.79853 -3.26773 0.
-3156.76 -2192.9 0.
-113.429 -73.4292 0.
-105.455 -82.252 0.
-633.096 -1054.61 0.
-611.925 -996.59 0.
-598.673 -929.102 0.
-635.251 -890.852 0.
-621.211 -848.07 0.
-575.668 -834.222 0.
-572.491 -826.365 0.
-564.247 -825.003 0.
-560.336 -834.735 0.
-802.113 -1186.35 0.
-814.901 -1196.02 0.
-517.935 -798.455 0.
-554.388 -856.195 0.
-588.426 -914.634 0.
-554.665 -887.156 0.
-658.006 -1093 0.
-759.623 -1297.91 0.
-429.506 -796.32 0.
-665.86 -1303.67 0.
-916.822 -1798.68 0.
-824.479 -1709.21 0.
-1523.63 -3168.63 0.
-8.5095 -3.0919 0.
-741.797 -1506.54 0.
-2440.77 -5331.12 0.
-35.9857 -21.7083 0.
-61.34 -32.1338 0.
-3111.08 -6949.63 0.
-38.1229 -22.1693 0.
-46.8284 -41.1641 0.
-3073.04 -5653.74 0.
-65.0535 -68.3603 0.
-2662.54 -3058.41 0.
-33.912 -35.61 0.
-2975.12 -6071.49 0.
0.595046 0.118143 0.
-26.4314 -58.3109 0.
-2325.31 -4337.33 0.
-112.71 -78.8071 0.
-65.3068 -142.294 0.
-82.277 -196.644 0.
-16.878 -37.991 0.
-116.228 -268.336 0.
0.0603236 1.75179 0.
11.2498 26.9509 0.
-2.68634 -14.0614 0.
-2611.45 -4031.6 0.
-2527.62 -3906.09 0.
11.1195 25.4574 0.
-2553.1 -4518.6 0.
-285.751 -733.154 0.
-1697.39 -2883.78 0.
0.409866 19.2707 0.
-88.9126 -98.1106 0.
-0.341709 -3.38029 0.
-0.163098 -1.82502 0.
-365.522 -897.068 0.
-43.9624 -85.085 0.
0.0532551 0.75533 0.
0.849674 1.24603 0.
-0.382846 -0.0897845 0.
-0.114737 -0.0732363 0.
-0.0706233 -0.0598716 0.
-16.9808 -15.6343 0.
-30.8941 -73.6518 0.
-8.43559 -21.431 0.
-4.48541 -12.3225 0.
-20.3025 -56.1598 0.
-4.10812 -9.72479 0.
-1.52958 -2.69866 0.
-349.222 -588.569 0.
-14.1238 -26.6364 0.
-22.9853 -48.9987 0.
-588.523 -1148.39 0.
-228.059 -201.054 0.
-501.569 -872.776 0.
-361.67 -474.668 0.
-213.574 -88.6034 0.
-493.936 -783.008 0.
-459.383 -730.128 0.
-430.117 -672.528 0.
-494.039 -690.052 0.
-454.094 -618.513 0.
-417.955 -567.412 0.
-811.496 -1136.68 0.
-808.88 -1143.34 0.
-497.524 -664.683 0.
-492.906 -641.901 0.
-494.23 -635.534 0.
-556.016 -836.074 0.
-535.377 -788.51 0.
-515.379 -739.987 0.
-468.432 -827.394 0.
-520.782 -955.649 0.
-578.835 -1081.75 0.
-83.8937 -177.874 0.
-54.5531 -122.982 0.
-2235.67 -1674.15 0.
-194.61 -210.834 0.
-216.598 -266.611 0.
-569.107 -910.133 0.
-542.256 -857.21 0.
-514.747 -805.147 0.
-577.62 -787.105 0.
-553.945 -750.74 0.
-534.083 -715.677 0.
-546.832 -703.385 0.
-545.204 -697.936 0.
-559.097 -729.13 0.
-848.77 -1201.34 0.
-861.365 -1210.3 0.
-467.557 -671.028 0.
-501.831 -731.694 0.
-536.138 -798.793 0.
-350.871 -616.098 0.
-443.031 -830.425 0.
-554.05 -1032.34 0.
-53.6329 -42.3552 0.
-331.926 -508.291 0.
-546.499 -1042.09 0.
-39.8159 -34.0732 0.
-687.36 -1331.3 0.
-0.65489 -0.239312 0.
-25.7496 -11.5969 0.
-66.2031 -29.1019 0.
-23.9638 -17.6939 0.
-8.41038 -4.67424 0.
-47.4598 -47.19 0.
-39.769 -20.0532 0.
-20.9304 -32.3543 0.
-32.4064 -58.3073 0.
-43.2753 -56.9416 0.
-49.7465 -63.7067 0.
-45.4568 -33.7058 0.
-486.44 -901.562 0.
-0.0248641 -0.000527812 0.
-35.5101 -85.1155 0.
-57.6395 -149.409 0.
-1778.51 -2981.16 0.
-108.471 -194.322 0.
-177.36 -302.279 0.
-2462.5 -5676.2 0.
-244.829 -520.598 0.
0.331105 3.19716 0.
-2140.71 -4883.98 0.
19.031 30.7507 0.
-1028.42 -1559.59 0.
-1667.26 -2479.18 0.
30.6624 57.1308 0.
13.4746 27.016 0.
0.351981 0.773412 0.
7.78338 18.5963 0.
0.00495644 0.06042 0.
-48.3493 -33.129 0.
-2413.26 -4808.38 0.
0.00400168 0.0718349 0.
-259.824 -680.056 0.
0.150687 1.94119 0.
0.734811 1.3464 0.
3.68693 0.000330687 0.
-0.736262 -0.170536 0.
-20.4125 -16.8137 0.
-1653.71 -3382.8 0.
0.635882 0.480884 0.
-2386.6 -4330.31 0.
0.116121 0.618162 0.
0.165934 0.455074 0.
-2941.23 -6894.92 0.
-10.5203 -20.9224 0.
-20.0802 -38.2122 0.
-2491.66 -5301.7 0.
-257.796 -177.038 0.
-8.56313 -12.2084 0.
-1770.63 -3886 0.
-813.661 -1699.63 0.
-1121.93 -2194.96 0.
-766.851 -1466.16 0.
-453.925 -710.206 0.
-776.499 -1465.29 0.
-622.653 -1168.18 0.
-471.917 -868.185 0.
-666.1 -996.477 0.
-648.836 -970.773 0.
-632.367 -949.762 0.
-978.72 -1566.67 0.
-956.199 -1524.88 0.
-668.112 -1021.57 0.
-638.736 -960.564 0.
-615.149 -914.706 0.
-695.446 -1049.67 0.
-658.275 -1085.93 0.
-663.745 -1089.87 0.
-698.633 -1161.77 0.
-653.836 -1043.51 0.
-546.055 -990.045 0.
-225.995 -550.234 0.
-251.987 -649.19 0.
-2559.03 -2198.73 0.
-341.872 -586.839 0.
-330.932 -542.366 0.
-530.565 -984.812 0.
-574.719 -1073.66 0.
-621.386 -1167.62 0.
-666.74 -1031.3 0.
-667.83 -1035.89 0.
-672.977 -1052.6 0.
-706.448 -994.501 0.
-715.661 -1012.13 0.
-724.936 -1029.89 0.
-976.576 -1547.67 0.
-1001.38 -1613.33 0.
-574.435 -869.926 0.
-637.381 -973.556 0.
-709.469 -1094.83 0.
-416.008 -843.853 0.
-654.715 -1327.75 0.
-905.297 -1804.54 0.
-334.691 -496.919 0.
-803.472 -1546.93 0.
-1325.95 -2553.76 0.
-715.208 -1321.75 0.
-1936.8 -4280.12 0.
-19.5712 -27.676 0.
-23.1525 -25.0348 0.
-2844.61 -6802.59 0.
-20.4216 -21.6361 0.
-36.9732 -29.4201 0.
-2633.42 -3544.63 0.
-33.8739 -23.7239 0.
-3406.74 -7568.64 0.
-0.785367 -0.295783 0.
-21.3511 -26.8874 0.
-2555.75 -5310.4 0.
-361.379 -352.821 0.
-753.753 -1528.75 0.
0.0878255 0.0342005 0.
-60.9655 -124.73 0.
-16.144 -35.5683 0.
-101.063 -128.528 0.
-1619.44 -2981.51 0.
-0.0259007 -7.90445 0.
5.99654 14.653 0.
-2217.36 -4164.45 0.
-0.848407 -4.57129 0.
14.1087 30.4714 0.
27.8075 52.4523 0.
-724.285 -978.436 0.
-612.404 -974.236 0.
17.6493 33.3333 0.
-1691.09 -3109.13 0.
-6.12351 -35.6878 0.
-1984.31 -4587.45 0.
6.52408 13.9884 0.
-126.656 -136.665 0.
-1.19946 -2.97401 0.
-0.144737 -3.94403 0.
-461.167 -1258.47 0.
-0.00269273 -0.79598 0.
-1990.07 -3423.47 0.
0.0292785 2.61321 0.
-2386.81 -5124.62 0.
-1.76493 -1.87984 0.
-0.291729 -0.351058 0.
-0.0808437 -0.0599126 0.
-200.858 -202.264 0.
0.238362 0.234629 0.
-0.0167638 -0.517752 0.
-5.63389 -12.7909 0.
-10.3658 -20.3907 0.
-18.231 -37.2631 0.
-17.0528 -39.6999 0.
-8.56806 -19.1265 0.
-39.397 -24.3483 0.
-593.81 -1209.67 0.
-2.78929 -2.20069 0.
-538.184 -933.367 0.
-213.516 -171.336 0.
-36.3331 -60.9941 0.
-502.861 -1021.95 0.
-353.523 -689.199 0.
-227.78 -338.287 0.
-519.683 -863.181 0.
-505.904 -837.398 0.
-492.93 -820.621 0.
-868.655 -1480.75 0.
-848.152 -1441.09 0.
-584.742 -898.319 0.
-565.317 -856.039 0.
-565.361 -870.986 0.
-563.671 -973.843 0.
-570.335 -982.291 0.
-577.408 -991.607 0.
-573.084 -1106.19 0.
-535.161 -994.436 0.
-496.979 -967.332 0.
-247.795 -579.774 0.
-274.567 -659.723 0.
-1175.31 -1558.51 0.
-362.806 -619.134 0.
-349.06 -575.906 0.
-487.971 -1003.09 0.
-515.187 -1037.38 0.
-566.837 -1102.21 0.
-569.618 -1003.92 0.
-572.878 -1004.39 0.
-573.637 -1008.33 0.
-586.976 -928.192 0.
-582.094 -907.144 0.
-590.505 -925.531 0.
-860.86 -1456.59 0.
-884.918 -1517.66 0.
-394.544 -620.032 0.
-450.138 -730.759 0.
-508.189 -840.439 0.
-137.076 -99.8166 0.
-339.502 -623.602 0.
-546.982 -1139.6 0.
-22.1732 -38.6947 0.
-11.7016 -14.4154 0.
-493.09 -764.308 0.
-22.6596 -17.3094 0.
-533.769 -818.321 0.
-22.5467 -27.0428 0.
-21.0485 -22.8924 0.
-26.8177 -24.7213 0.
-11.455 -15.0017 0.
-6.01239 -14.5629 0.
-46.1959 -46.4295 0.
-29.3173 -16.9961 0.
-17.5051 -8.26106 0.
0.455073 0.222062 0.
-15.6484 -25.3818 0.
-36.7869 -71.3054 0.
-39.1047 -40.0717 0.
-877.728 -1304.74 0.
-2654.06 -5856.99 0.
-91.7462 -185.421 0.
1.1023e-05 0.0829253 0.
-310.118 -311.667 0.
-1366.77 -2446.7 0.
-0.00389803 -1.47764 0.
-1.88432 -22.2105 0.
15.3814 33.8285 0.
-0.912527 -48.1588 0.
28.6216 56.2399 0.
-13.559 -52.1132 0.
-1607.78 -2542.12 0.
-145.397 -240.086 0.
-16.1314 -27.3622 0.
-11.5877 -23.4252 0.
-2.08429 -38.0997 0.
19.1388 42.9761 0.
9.67373 25.5667 0.
12.7333 30.5376 0.
-14.8297 -33.9988 0.
-0.415308 -1.08403 0.
3.3463 9.18438 0.
-1308.09 -2987.73 0.
2.78539 1.55746 0.
0.107329 3.4265 0.
-0.409225 -0.660704 0.
0.47931 0.678156 0.
-11.2694 -19.3747 0.
0.0499963 0.0598596 0.
-209.486 -196.689 0.
-34.2926 -36.0547 0.
-6.31739 -14.4645 0.
-6.5719 -13.3916 0.
-10.0329 -20.1724 0.
-16.156 -36.7807 0.
-28.617 -45.0005 0.
-20.5232 -24.3742 0.
-79.8003 -42.8529 0.
-6.05159 -10.5266 0.
-6.78853 -12.1379 0.
-20.3466 -34.856 0.
-23.1158 -41.8224 0.
-35.9276 -61.2388 0.
-272.75 -401.928 0.
-100.39 -83.9465 0.
-52.5015 -58.1709 0.
-308.364 -531.083 0.
-229.281 -323.492 0.
-1.15321 -2.65322 0.
-313.225 -334.267 0.
-435.634 -673.578 0.
-18.8942 -39.9809 0.
-202.134 -348.492 0.
-39.7138 -53.3295 0.
-95.3036 -149.934 0.
-127.321 -205.476 0.
-140.428 -217.5 0.
-106.193 -157.414 0.
-84.7814 -128.727 0.
-87.9685 -135.438 0.
-62.1462 -69.8473 0.
-171.447 -280.37 0.
-529.684 -554.108 0.
-143.972 -73.5602 0.
-136.468 -62.1017 0.
-52.1416 -75.3531 0.
-60.6266 -82.0166 0.
-95.8267 -157.378 0.
-170.612 -313.12 0.
-148.266 -262.084 0.
-164.85 -299.965 0.
-116.018 -123.666 0.
-184.561 -247.84 0.
-237.882 -273.22 0.
-390.795 -515.592 0.
-298.279 -263.586 0.
-77.7278 -75.0209 0.
-274.163 -442.218 0.
-373.136 -703.371 0.
-52.7945 -61.3401 0.
-53.0512 -48.8176 0.
-303.706 -488.143 0.
-20.5421 -35.9756 0.
-15.8153 -16.3499 0.
-10.258 -11.5109 0.
-24.4175 -22.1265 0.
-23.4091 -16.0545 0.
-29.7603 -31.2653 0.
-27.8437 -26.7357 0.
-41.5956 -29.7298 0.
-19.6055 -20.9095 0.
-18.6332 -22.0946 0.
-21.6901 -24.9358 0.
-48.9128 -24.2567 0.
-37.9936 -14.5798 0.
0.267203 0.135129 0.
-17.3822 -20.607 0.
-33.8984 -70.5646 0.
-9.61163 -15.7585 0.
-14.6279 -20.1271 0.
-148.819 -392.923 0.
-55.9424 -130.487 0.
-0.000258017 -1.80964 0.
-332.139 -262.728 0.
-0.794841 -7.36976 0.
-1532.17 -4112.49 0.
9.31927 20.2914 0.
-2280.17 -4842.87 0.
14.2304 35.7995 0.
-2847.74 -5236.16 0.
5.08182 8.05527 0.
-16.6353 -31.0148 0.
-680.796 -1139.2 0.
33.3706 54.6619 0.
-2142.03 -4347.1 0.
4.67643 10.5616 0.
-5.36854 -52.6279 0.
7.65082 19.6227 0.
3.04989 7.30982 0.
-67.7082 -147.047 0.
-12.9512 -34.309 0.
-1010.07 -2237.09 0.
-0.0414587 -0.36538 0.
1.4599 1.82561 0.
1.2672 3.19263 0.
-0.19015 -0.437847 0.
0.41556 0.715771 0.
-1597.06 -1555.65 0.
-9.24208 -17.1347 0.
-0.87371 -1.70573 0.
-3125.46 -6777.38 0.
-10.098 -27.9508 0.
-2350.06 -4019.57 0.
0.955918 0.000619844 0.
0.336728 0.00959555 0.
-2554.66 -5521.95 0.
0.011894 0.334831 0.
0.00435683 0.116274 0.
-2231.47 -5303.46 0.
-267.01 -328.622 0.
-1654.66 -3323.68 0.
-781.967 -1404.75 0.
0.0278199 0.00103084 0.
-1105.08 -2579.65 0.
-634.384 -1500.34 0.
-203.937 -377.371 0.
-684.051 -1640.99 0.
-454.35 -1085.44 0.
-248.857 -550.15 0.
-676.935 -1476.88 0.
-639.088 -1396.31 0.
-422.774 -817.32 0.
-421.629 -822.137 0.
-437.459 -860.25 0.
-364.669 -856.795 0.
-362.952 -858.57 0.
-364.318 -860.824 0.
-401.679 -961.679 0.
-378.281 -918.85 0.
-362.206 -874.357 0.
-291.821 -624.168 0.
-313.39 -685.141 0.
-323.662 -680.039 0.
-393.644 -648.252 0.
-374.155 -589.012 0.
-365.765 -849.868 0.
-381.759 -889.745 0.
-398.617 -930.267 0.
-330.117 -853.87 0.
-328.997 -850.695 0.
-330.189 -838.785 0.
-434.246 -843.525 0.
-427.178 -829.146 0.
-423.748 -826.017 0.
-629.76 -1458.14 0.
-722.31 -1653 0.
-242.88 -473.753 0.
-536.905 -1274.02 0.
-854.428 -2051.6 0.
-80.712 -72.2679 0.
-698.888 -1615.07 0.
-1349.61 -3135 0.
-19.3047 -30.7402 0.
-750.087 -1361.37 0.
-1833.1 -3826.99 0.
-23.8845 -17.4559 0.
-2355.24 -5240.42 0.
-46.0747 -40.5904 0.
-23.2811 -9.528 0.
-2711.09 -6533.77 0.
-10.2339 -5.23973 0.
-31.4099 -41.4446 0.
-2515.95 -4249.78 0.
-126.203 -81.8615 0.
-1905.01 -3962.46 0.
0.0568236 0.0447905 0.
-2201.19 -4604.81 0.
-41.7597 -72.7772 0.
-0.000966902 -0.00211111 0.
-3.68707 -8.66567 0.
-104.462 -280.286 0.
-17.5644 -44.9257 0.
-2425.13 -5298.76 0.
-507.335 -502.586 0.
14.7467 36.9049 0.
-3.14441 -8.03885 0.
22.2076 60.2841 0.
5.45117 14.0425 0.
13.3495 30.4882 0.
-8.65669 -19.494 0.
40.6791 68.5778 0.
120.959 223.713 0.
-0.341105 -2.74969 0.
-347.173 -549.495 0.
-10.4361 -113.784 0.
19.5678 41.2921 0.
-1243.27 -2790.58 0.
5.96003 14.8483 0.
-1893.8 -4440.53 0.
-1340.57 -2778.34 0.
-0.0384577 -23.0046 0.
-22.0105 -50.0206 0.
0.0200708 0.306715 0.
1.73197 3.847 0.
-1930.3 -3850.29 0.
4.12743 9.25883 0.
-2081.76 -4515.57 0.
3.10921 0.552613 0.
0.119917 0.121687 0.
-1.19242 -1.80217 0.
-8.04922 -21.9598 0.
-10.1533 -26.3224 0.
-78.8502 -83.7416 0.
-17.485 -10.2858 0.
0.906385 0.0347041 0.
0.0643175 0.70377 0.
0.00205678 0.368795 0.
-15.3072 -6.0701 0.
-110.34 -45.4241 0.
-0.111042 -0.0431006 0.
-332.307 -375.577 0.
-3.87479 -1.5836 0.
0.273279 0.0446916 0.
-493.515 -1099.3 0.
-22.7965 -16.7875 0.
-16.8526 -25.0154 0.
-483.76 -1200.26 0.
-275.396 -628.552 0.
-151.733 -253.882 0.
-585.481 -1338.86 0.
-547.575 -1262.75 0.
-370.668 -716.736 0.
-359.955 -683.815 0.
-368.497 -701.104 0.
-352.68 -766.293 0.
-353.82 -766.653 0.
-355.575 -766.868 0.
-350.16 -874.571 0.
-333.533 -827.248 0.
-316.846 -779.639 0.
-325.408 -726.541 0.
-348.176 -790.39 0.
-506.64 -1123.36 0.
-440.597 -747.587 0.
-430.511 -713.093 0.
-306.676 -707.655 0.
-321.848 -752.246 0.
-336.997 -797.19 0.
-334.49 -713.25 0.
-325.94 -724.828 0.
-321.869 -733.243 0.
-337.135 -743.028 0.
-337.527 -727.159 0.
-345.394 -719.827 0.
-500.97 -1234.96 0.
-581.91 -1428.87 0.
-33.6235 -34.3625 0.
-297.868 -619.779 0.
-586.124 -1428.48 0.
-28.8314 -52.8169 0.
-44.9518 -51.2713 0.
-510.838 -1030.47 0.
-33.4898 -53.1534 0.
-17.4139 -21.0868 0.
-128.909 -85.1005 0.
-23.0553 -17.708 0.
-32.8172 -23.0452 0.
-47.7108 -43.3436 0.
-19.1594 -7.21279 0.
-1.75147 -0.660688 0.
-15.4267 -9.07107 0.
-46.0443 -51.6667 0.
-102.522 -134.012 0.
-226.213 -123.805 0.
-96.1823 -34.8879 0.
-0.0465218 -0.0415014 0.
-66.1892 -164.023 0.
-24.4318 -61.8743 0.
-2193.11 -4252.29 0.
-1045.31 -2275.05 0.
-100.295 -273.161 0.
-10.8252 -28.2924 0.
-26.3901 -64.9147 0.
-692.108 -785.043 0.
0.126665 8.68484 0.
-218.136 -532.515 0.
-0.362774 -12.2647 0.
14.1379 36.1577 0.
-1.43932 -3.08245 0.
-544.83 -1236.93 0.
-37.6105 -126.919 0.
39.1211 76.9983 0.
73.272 180.148 0.
6.03798 9.90271 0.
-1324.44 -3039.65 0.
31.7812 68.5452 0.
-1.77853 -4.60545 0.
-0.312567 -9.60853 0.
4.82363 12.6929 0.
-1.5151 -41.2772 0.
-0.680368 -19.9775 0.
-113.72 -257.597 0.
-30.2364 -76.8961 0.
-373.888 -938.244 0.
-0.867553 -8.40549 0.
-0.21613 -3.52001 0.
0.193941 2.18081 0.
0.514099 2.79674 0.
0.574132 0.499955 0.
-1.41364 -1.78781 0.
-14.4908 -36.2635 0.
-172.144 -274.218 0.
-2088.5 -4207.6 0.
-0.650038 -1.58128 0.
-3.61261 -9.26898 0.
-2212.74 -5137.82 0.
-0.06013 -0.16436 0.
-23.4618 -54.5751 0.
-2251.41 -4984.83 0.
-0.0033406 -0.0020056 0.
-1783.1 -3707.12 0.
-542.939 -780.614 0.
-30.9785 -30.8543 0.
-1388.97 -3272.88 0.
-576.191 -1298.83 0.
-8.67151 -22.3615 0.
-943.08 -2275.8 0.
-536.602 -1281.05 0.
-157.231 -260.989 0.
-754.737 -1767.73 0.
-627.766 -1506.98 0.
-451.858 -1000.84 0.
-405.573 -886.069 0.
-375.29 -813.288 0.
-406.151 -844.349 0.
-392.225 -809.579 0.
-377.915 -772.86 0.
-442.486 -899.745 0.
-357.72 -867.171 0.
-331.784 -792.614 0.
-363.731 -869.309 0.
-364.152 -873.585 0.
-984.848 -1119.23 0.
-438.272 -779.027 0.
-456.847 -834.041 0.
-341.105 -745.636 0.
-361.755 -798.765 0.
-385.488 -860.898 0.
-386.179 -797.589 0.
-390.711 -800.525 0.
-396.091 -803.434 0.
-346.535 -856.299 0.
-427.337 -1033.95 0.
-516.034 -1212.54 0.
-630.777 -1556.71 0.
-819.632 -1905.02 0.
-89.6066 -109.904 0.
-564.807 -1382.9 0.
-1069.62 -2634.63 0.
-19.3969 -13.4288 0.
-505.334 -1086.1 0.
-1619.98 -3940.92 0.
-30.7385 -16.9516 0.
-420.014 -311.739 0.
-1831.17 -3567.96 0.
-31.2482 -36.1148 0.
-2376.22 -5904.36 0.
-88.5338 -129.302 0.
-40.6941 -27.1231 0.
-1919.97 -2892.56 0.
-55.9104 -27.7742 0.
-2409.61 -6041.81 0.
-690.303 -954.969 0.
-364.841 -212.084 0.
-305.762 -140.295 0.
-0.543819 -0.529879 0.
-4.6083 -5.45735 0.
-0.00179129 -0.957015 0.
-45.0861 -97.3433 0.
-29.1239 -67.8021 0.
-396.868 -1096.49 0.
-25.9476 -68.6461 0.
-27.218 -64.6128 0.
-7.83577 -19.6599 0.
4.63796 12.7787 0.
-2570.54 -6061.56 0.
8.39561 20.6511 0.
-1968.49 -4992.1 0.
21.7801 44.0728 0.
-59.5097 -130.007 0.
89.9494 160.811 0.
-21.7467 -147.565 0.
-6.71486 -148.208 0.
-409.555 -664.323 0.
-517.876 -1165.36 0.
-8.30818 -64.5454 0.
-2.6824 -79.2715 0.
-1.62871 -40.8918 0.
-7.90652 -20.6046 0.
-1.18153 -30.9711 0.
9.17576 23.7531 0.
-1040.82 -2317.74 0.
-0.00277203 -34.6926 0.
-308.726 -770.984 0.
0.0443762 0.103616 0.
0.00478393 0.123763 0.
-0.143463 -2.71777 0.
1.82068 4.59881 0.
-2306.68 -3758.85 0.
-0.888708 -1.75323 0.
-1775.96 -4294.43 0.
-0.181056 -0.26266 0.
-0.772079 -1.21759 0.
-1.68308 -4.18737 0.
-5.57616 -14.5066 0.
-2.10899 -5.7693 0.
0.0187715 0.0508466 0.
-10.6118 -29.3736 0.
-12.8883 -9.87893 0.
-0.118898 -0.0551538 0.
-1.88263 -0.70109 0.
-16.4261 -11.1818 0.
-39.7899 -34.1769 0.
-405.925 -882.867 0.
-9.93831 -26.2638 0.
-9.82856 -25.8151 0.
-501.288 -1235.37 0.
-128.624 -206.992 0.
-24.5041 -64.2907 0.
-523.835 -1302.7 0.
-407.609 -1037.46 0.
-355.779 -879.732 0.
-301.507 -769.868 0.
-270.39 -679.497 0.
-332.79 -839.7 0.
-317.88 -806.854 0.
-301.81 -770.337 0.
-384.828 -871.875 0.
-333.384 -848.875 0.
-316.394 -801.817 0.
-342.747 -849.754 0.
-327.355 -813.784 0.
-305.155 -598.639 0.
-422.135 -755.317 0.
-441.074 -803.765 0.
-316.409 -792.67 0.
-334.116 -834.629 0.
-355.685 -883.086 0.
-293.049 -794.732 0.
-296.906 -800.865 0.
-302.266 -804.089 0.
-208.155 -549.588 0.
-279.086 -738.115 0.
-361.147 -924.4 0.
-339.29 -814.662 0.
-499.998 -1189.87 0.
-39.2403 -45.8774 0.
-34.7464 -34.8013 0.
-525.92 -1296.58 0.
-17.9222 -13.0558 0.
-14.0306 -7.36773 0.
-357.809 -801.219 0.
-70.9901 -51.6525 0.
-8.26193 -10.5529 0.
-20.7064 -27.8052 0.
-19.901 -21.0144 0.
-35.0758 -50.7866 0.
-48.7902 -62.1308 0.
-22.8358 -17.9429 0.
-14.9059 -13.2895 0.
-3.71473 -4.32953 0.
-17.9394 -19.2096 0.
0.532359 0.599435 0.
-0.674179 -0.52008 0.
-920.636 -893.187 0.
-1693.33 -3997.95 0.
-3.66443 -4.65333 0.
-0.0108274 -3.64565 0.
-0.0209804 -0.305527 0.
-14.9531 -36.7852 0.
-1055.19 -2574.83 0.
-47.928 -127.692 0.
-62.9511 -146.31 0.
-99.8208 -250.704 0.
-0.0413117 -28.3044 0.
24.0709 64.5303 0.
3.75174 8.84672 0.
-4.08328 -65.2259 0.
41.1983 99.3434 0.
-1697.59 -3654.17 0.
-44.3416 -172.328 0.
77.6596 161.895 0.
52.6483 131.153 0.
43.7319 77.6923 0.
-591.377 -1307.92 0.
-8.70339 -123.732 0.
-1580.09 -3997.79 0.
-12.2835 -30.6754 0.
7.15604 18.4707 0.
13.461 34.0798 0.
-639.593 -1665.97 0.
2.877 7.61416 0.
-0.0981105 -24.728 0.
-448.834 -1119.24 0.
-0.113193 -12.432 0.
0.00222267 0.0854734 0.
-1143.23 -2386.61 0.
-0.109175 -3.03904 0.
-32.7005 -67.2165 0.
-0.100521 -2.25296 0.
-68.715 -156.801 0.
0.179017 0.281134 0.
0.040478 0.0697224 0.
-2.87745 -7.33347 0.
-7.61022 -19.6793 0.
-2.63354 -6.73303 0.
-0.0747065 -0.17924 0.
-1.32906 -3.02248 0.
-21.8693 -17.5151 0.
0.0426977 0.0337622 0.
-5.26423 -2.19323 0.
-20.7917 -13.4771 0.
-48.5275 -38.306 0.
-11.6059 -31.654 0.
-11.9858 -30.4313 0.
-14.1465 -31.8898 0.
-115.892 -185.139 0.
-17.8264 -48.4008 0.
-31.3117 -74.8402 0.
-133.672 -283.035 0.
-70.6483 -130.448 0.
-167.478 -333.921 0.
-96.3997 -123.261 0.
-58.2995 -62.6187 0.
-114.314 -232.131 0.
-116.971 -279.705 0.
-59.0147 -131.344 0.
-81.5842 -164.207 0.
-75.4721 -109.876 0.
-116.24 -236.257 0.
-119.505 -225.695 0.
-113.643 -205.609 0.
-74.6188 -48.61 0.
-93.2932 -54.7706 0.
-193.74 -224.515 0.
-16.1439 -25.3881 0.
-136.778 -218.2 0.
-62.2461 -101.391 0.
-27.6283 -37.9039 0.
-108.81 -258.983 0.
-67.0759 -143.008 0.
-26.4869 -41.1392 0.
-79.402 -185.721 0.
-72.3636 -164.046 0.
-47.5433 -36.626 0.
-177.401 -348.041 0.
-44.5961 -48.3129 0.
-25.1666 -19.2906 0.
-27.6537 -28.8019 0.
-25.9263 -17.4735 0.
-17.9104 -8.43184 0.
-15.3994 -10.5675 0.
-137.383 -112.855 0.
-23.0462 -17.2147 0.
-31.4788 -33.7425 0.
-19.4376 -21.3483 0.
-26.4499 -36.5039 0.
-30.1816 -41.862 0.
-14.4603 -15.1011 0.
-5.04063 -8.3266 0.
-1.38627 -2.62405 0.
-0.224841 -0.162686 0.
0.239903 0.551702 0.
1.62871 1.78107 0.
0.696673 0.938031 0.
-742.566 -2009.87 0.
-0.0675871 -1.41119 0.
-1706.83 -2885.59 0.
-0.0428439 -3.1377 0.
-5.1229 -12.9851 0.
-342.687 -877.149 0.
20.3539 53.9948 0.
-98.9034 -226.321 0.
-696.695 -1744.42 0.
8.0888 21.9322 0.
23.4644 61.5277 0.
5.6666 15.0762 0.
43.4192 104.856 0.
12.3975 29.856 0.
-30.2323 -69.9861 0.
-908.871 -1599.42 0.
-21.5256 -121.769 0.
24.0625 58.9156 0.
98.5824 175.123 0.
-1127.17 -2456.01 0.
52.7211 125.38 0.
28.7243 72.5173 0.
-45.6597 -113.064 0.
-643.085 -1654.28 0.
-4.29663 -11.5484 0.
-0.256636 -51.3525 0.
-0.531648 -33.5776 0.
12.578 32.9933 0.
-450.619 -1122.3 0.
4.31621 11.8708 0.
-1117.77 -2727.1 0.
-0.0338754 -12.1727 0.
0.769216 1.97436 0.
-0.765228 -1.79523 0.
0.8928 2.40794 0.
-56.8795 -120.159 0.
-1377.63 -2721.54 0.
-8.41634 -20.5659 0.
-2312.6 -4140.12 0.
-53.2287 -109.373 0.
-1707.32 -3284.65 0.
0.118705 0.20915 0.
-0.602056 -1.38377 0.
-2097.72 -5131.23 0.
-22.2741 -20.5066 0.
-1939.47 -3506.04 0.
-206.512 -169.981 0.
-14.2899 -5.6061 0.
-1906.26 -4654.56 0.
-231.81 -395.354 0.
-27.7398 -54.0911 0.
-1223.14 -3063.54 0.
-465.469 -1121.83 0.
-12.2828 -27.384 0.
-878.956 -2198.02 0.
-555.25 -1422.17 0.
-605.014 -1479.47 0.
-431.982 -1081.75 0.
-275.867 -685.034 0.
-378.592 -1018.29 0.
-301.872 -819.349 0.
-227.492 -622.932 0.
-319.628 -769.106 0.
-292.046 -703.097 0.
-267.183 -637.784 0.
-366.165 -729.949 0.
-426.304 -840.423 0.
-296.755 -645.449 0.
-415.81 -811.558 0.
-385.303 -721.052 0.
-278.409 -695.69 0.
-313.901 -789.917 0.
-352.378 -889.185 0.
-263.09 -674.343 0.
-375.261 -968.761 0.
-492.749 -1262.91 0.
-279.619 -711.345 0.
-477.779 -1213.48 0.
-689.69 -1704.89 0.
-550.046 -1363.4 0.
-995.207 -2489.65 0.
-32.6431 -49.026 0.
-450.074 -998.804 0.
-1452.53 -3505.34 0.
-54.705 -50.3796 0.
-101.865 -139.113 0.
-2146.39 -5475.11 0.
-11.5417 -16.7582 0.
-28.0212 -18.7366 0.
-2004.24 -3217.85 0.
-20.0405 -24.9363 0.
-2244.33 -5847.64 0.
-13.7809 -30.0788 0.
-31.8609 -55.1856 0.
-1918.05 -3366.05 0.
-28.9718 -79.3559 0.
-1754.13 -3978.49 0.
1.38577 2.66827 0.
2.81718 3.57662 0.
1.09276 0.176092 0.
-116.215 -319.331 0.
3.38089 8.28709 0.
5.59098 10.0512 0.
-627.867 -1276.23 0.
-2.38817 -6.15697 0.
-234.865 -600.016 0.
15.5574 41.1085 0.
-961.707 -2172.41 0.
-1272.6 -3181.93 0.
16.0701 42.5422 0.
13.9142 35.6319 0.
8.14171 21.548 0.
-21.246 -51.3795 0.
-20.0532 -48.3281 0.
-37.1587 -85.1791 0.
39.2275 74.8866 0.
-10.43 -18.927 0.
39.7128 88.0187 0.
-12.9149 -23.0572 0.
-26.3598 -58.0068 0.
48.1438 114.695 0.
-20.8681 -52.2888 0.
18.3255 47.7958 0.
-0.55848 -57.8385 0.
10.556 28.2117 0.
-5.64447 -15.3186 0.
-0.449052 -33.9102 0.
-439.486 -1155.84 0.
-0.218137 -19.4808 0.
-0.000609303 -1.88149 0.
-424.044 -1070.12 0.
-0.0182864 -18.8625 0.
-0.156902 -5.10229 0.
0.00212921 0.267284 0.
-1836.11 -4230.32 0.
-0.0031509 -0.714668 0.
-71.7846 -198.056 0.
-9.85293 -27.0005 0.
0.303708 0.747055 0.
0.000495795 0.192782 0.
0.333947 0.371522 0.
0.0598492 0.114472 0.
-1.50499 -3.92283 0.
-30.5133 -32.4067 0.
-26.4347 -23.5475 0.
-16.6531 -9.99543 0.
-0.761939 -0.292246 0.
-0.392643 -0.00024584 0.
-113.978 -58.8781 0.
-35.9458 -34.9482 0.
-50.5345 -63.8417 0.
-457.123 -1089.65 0.
-12.2032 -31.01 0.
-17.5966 -29.9968 0.
-506.238 -1254.49 0.
-193.871 -439.111 0.
-403.251 -987.485 0.
-247.512 -575.235 0.
-122.951 -234.888 0.
-320.292 -865.034 0.
-247.579 -663.995 0.
-175.734 -462.497 0.
-306.378 -663.019 0.
-280.234 -594.422 0.
-266.11 -514.065 0.
-375.028 -729.047 0.
-429.356 -845.818 0.
-102.382 -177.199 0.
-392.974 -776.659 0.
-364.793 -686.593 0.
-261.415 -597.583 0.
-300.206 -691.14 0.
-340.986 -792.081 0.
-162.601 -392.689 0.
-271.014 -692.408 0.
-382.706 -991.731 0.
-59.2051 -99.9026 0.
-223.491 -517.032 0.
-420.766 -1024.98 0.
-103.646 -147.691 0.
-542.688 -1339.12 0.
-36.4383 -48.1979 0.
-31.6012 -31.2606 0.
-310.307 -620.649 0.
-22.6559 -27.3184 0.
-16.2665 -16.683 0.
-51.3262 -39.5346 0.
-3.57509 -9.8995 0.
-1.02734 -1.7687 0.
-23.1887 -19.1127 0.
-15.7185 -19.035 0.
-25.0467 -35.2389 0.
0.198757 0.546089 0.
-0.0100802 -0.224162 0.
-31.879 -61.3843 0.
-9.93898 -22.1514 0.
-42.7418 -113.611 0.
-0.227132 -2.1714 0.
-2050.37 -4540.11 0.
0.519596 1.36925 0.
-86.9357 -239.36 0.
0.238567 3.85932 0.
-2.77661 -12.1846 0.
-479.316 -1076.92 0.
-0.353384 -18.7577 0.
-288.928 -735.564 0.
20.4186 54.1902 0.
12.1225 31.3962 0.
-0.636014 -1.66246 0.
-7.44396 -19.281 0.
-1162.59 -2933.06 0.
-1.4343 -67.7088 0.
-1682.79 -4090.46 0.
42.3567 96.4923 0.
-28.4502 -64.7124 0.
47.2991 92.2242 0.
23.5853 56.6479 0.
0.236023 8.00201 0.
118.485 213.059 0.
-151.514 -332.026 0.
-130.684 -312.345 0.
4.24773 10.5906 0.
-7.51582 -19.483 0.
11.5149 30.9817 0.
11.2889 30.0007 0.
-38.0233 -102.318 0.
-400.236 -1078 0.
0.314189 0.864265 0.
0.416253 1.12553 0.
-7.00373 -18.9853 0.
-289.865 -745.988 0.
7.36735 20.3848 0.
3.18644 8.23791 0.
0.0676117 2.9765 0.
-0.308111 -7.03358 0.
-0.0597499 -7.68189 0.
-97.1004 -256.711 0.
-15.6527 -43.3225 0.
0.0100553 0.613932 0.
-0.0122127 -1.68282 0.
0.29393 0.0730999 0.
-1001.29 -2111.19 0.
-10.3869 -19.4422 0.
-1560.61 -3875.9 0.
-15.062 -16.5005 0.
-1762.36 -3083.57 0.
0.0237771 0.0290491 0.
-0.0799515 -0.0278922 0.
-1909.03 -4861.37 0.
-3.51631 -1.27385 0.
-38.2574 -19.4293 0.
-1464.17 -3528.24 0.
-306.263 -654.007 0.
-15.8305 -30.2561 0.
-1041.57 -2590.55 0.
-491.683 -1188.91 0.
-710.548 -1692.44 0.
-446.282 -1060.99 0.
-199.487 -429.781 0.
-493.544 -1234.81 0.
-345.351 -885.906 0.
-207.07 -532.368 0.
-374.873 -798.501 0.
-328.924 -680.187 0.
-286.878 -570.061 0.
-413.163 -781.698 0.
-383.738 -715.431 0.
-399.513 -485.849 0.
-328.675 -574.134 0.
-357.643 -648.344 0.
-267.118 -573.533 0.
-336.436 -761.816 0.
-414.785 -964.118 0.
-188.099 -460.519 0.
-394.236 -992.113 0.
-612.967 -1519.12 0.
-190.682 -366.566 0.
-479.979 -1106.22 0.
-790.978 -1830.67 0.
-450.407 -1058.16 0.
-1175.32 -2923.14 0.
-2.16171 -0.87174 0.
-90.9148 -166.951 0.
-1601.97 -4115.82 0.
-23.6241 -32.7363 0.
-44.5465 -53.0817 0.
-1389.02 -3311.67 0.
-4.62432 -12.3503 0.
-1775.43 -3882.34 0.
-44.6291 -104.466 0.
-32.4223 -70.4713 0.
-1190.29 -2898.28 0.
-19.2404 -45.8387 0.
0.0013449 0.0370126 0.
0.456931 1.0334 0.
-13.1821 -29.1242 0.
-7.20127 -14.7733 0.
-0.025198 -0.42913 0.
-0.349538 -2.84441 0.
2.56985 6.78602 0.
-1248.06 -2502.65 0.
0.577649 8.34063 0.
-2.27935 -10.4698 0.
-565.967 -1337.23 0.
17.2745 45.9206 0.
-734.106 -1860.18 0.
-13.2456 -35.2639 0.
7.43312 19.2579 0.
6.83017 17.6843 0.
26.935 72.899 0.
10.0724 27.1953 0.
39.8823 101.445 0.
-12.7411 -34.1903 0.
5.17585 11.7438 0.
36.2371 81.9342 0.
-14.8461 -29.4643 0.
12.2432 27.9994 0.
19.332 48.7945 0.
-14.329 -173.167 0.
-398.303 -871.805 0.
29.9626 69.4943 0.
-532.784 -1326.13 0.
25.5809 65.9249 0.
-13.7021 -36.6674 0.
5.65605 14.9475 0.
-1432.01 -3816.57 0.
15.3099 42.0547 0.
12.7834 34.6497 0.
6.95698 18.8391 0.
-117.293 -317.12 0.
-0.0328102 -5.74754 0.
5.88862 16.3001 0.
-1774.81 -3760.59 0.
-0.152621 -10.2863 0.
0.0407779 0.828212 0.
-0.0167082 -1.47782 0.
-276.441 -741.768 0.
-442.43 -823.721 0.
-1646.84 -3296.26 0.
-0.0343626 -0.84612 0.
-964.017 -2133.01 0.
-35.0684 -87.2094 0.
-5.68375 -13.8438 0.
0.126262 0.179422 0.
0.128815 0.171475 0.
-25.4588 -23.3291 0.
-18.0078 -12.5602 0.
-10.3113 -5.34705 0.
-121.172 -88.1045 0.
-1.22336 -0.454576 0.
-27.445 -14.9904 0.
-177.645 -320.688 0.
-17.7991 -18.0457 0.
-26.356 -34.1973 0.
-475.794 -1175.37 0.
-33.1023 -14.2456 0.
-384.08 -924.154 0.
-128.295 -263.305 0.
-22.0087 -15.2915 0.
-339.67 -871.142 0.
-203.743 -515.028 0.
-96.2155 -225.77 0.
-284.946 -653.114 0.
-242.378 -549.657 0.
-213.894 -472.233 0.
-387.545 -759.685 0.
-364.501 -697.739 0.
-212.621 -526.415 0.
-279.228 -589.041 0.
-299.193 -643.305 0.
-187.6 -401.024 0.
-248.445 -590.078 0.
-320.326 -786.349 0.
-30.173 -52.5717 0.
-180.76 -451.179 0.
-384.335 -988.276 0.
-37.0526 -37.3417 0.
-66.5245 -77.1112 0.
-374.786 -803.271 0.
-17.9506 -6.56356 0.
-461.861 -1123.47 0.
-0.274144 -0.0474086 0.
-3.99618 -2.18313 0.
-97.2692 -201.182 0.
-13.7471 -28.0981 0.
-9.14609 -14.3255 0.
-39.2588 -73.2175 0.
-1.30655 -3.55693 0.
-354.812 -910.925 0.
-9.36962 -19.0297 0.
-9.26036 -16.7543 0.
-16.1073 -34.4922 0.
-0.00138869 -0.13759 0.
-2327.09 -5508.75 0.
0.618125 1.42391 0.
-23.236 -38.073 0.
-1479.92 -2172.18 0.
-0.0722503 -2.08529 0.
1.47399 3.39121 0.
4.22265 11.1577 0.
0.228746 0.453248 0.
-1357.67 -2993.27 0.
0.0660986 14.4445 0.
-521.827 -1271.46 0.
12.8161 34.2089 0.
4.1891 11.5359 0.
-1058.96 -2828.81 0.
-18.6406 -48.293 0.
-3.89372 -9.9919 0.
-0.698812 -45.2852 0.
-5.56137 -14.9048 0.
40.0162 101.831 0.
31.3503 83.2672 0.
15.0542 34.0726 0.
-25.4896 -61.5009 0.
-4.24929 -97.9074 0.
1.18546 2.573 0.
-1.5014 -26.4639 0.
5.16793 11.6629 0.
-453.3 -994.606 0.
-10.7475 -125.085 0.
-881.593 -2305.94 0.
3.51394 9.00906 0.
-1314.16 -3494.02 0.
2.27339 5.97795 0.
-2.94437 -7.99537 0.
26.7938 74.0179 0.
6.45183 17.1804 0.
-0.281603 -31.236 0.
-846.279 -2312.3 0.
8.30712 22.8258 0.
-618.725 -1537.97 0.
-0.226231 -24.1643 0.
-0.183649 -15.9434 0.
4.13758 10.209 0.
-1182.93 -2886.53 0.
-1088.27 -2016.14 0.
-0.0261703 -1.72703 0.
-0.127272 -1.31855 0.
-0.106054 -2.27101 0.
0.527432 1.40307 0.
-53.6157 -147.021 0.
-13.1136 -36.1108 0.
-0.0403837 -0.173733 0.
-0.037764 -0.116349 0.
-0.141779 -0.365 0.
-87.7484 -41.5674 0.
-98.4756 -37.4992 0.
0.117268 0.0461114 0.
-1.33275 -0.57856 0.
-22.4939 -13.4899 0.
-21.7043 -9.61786 0.
-31.206 -23.9644 0.
-39.8964 -40.036 0.
-23.5252 -23.4856 0.
-32.9121 -16.2717 0.
-33.8402 -20.2008 0.
-15.3551 -7.68551 0.
-17.4315 -14.984 0.
-148.291 -320.571 0.
-55.35 -61.4203 0.
-35.4829 -27.4369 0.
-133.041 -207.279 0.
-145.348 -229.622 0.
-96.0205 -110.15 0.
-185.159 -93.5899 0.
-182.901 -112.667 0.
-38.7196 -45.1679 0.
-28.8208 -35.7857 0.
-216.026 -357.753 0.
-53.4696 -45.0681 0.
-158.784 -288.757 0.
-160.805 -305.644 0.
-8.06339 -4.05007 0.
-22.2886 -25.585 0.
-135.244 -316.075 0.
-44.5398 -40.566 0.
-35.0341 -19.2244 0.
-34.6094 -13.9841 0.
-21.381 -8.02236 0.
-21.7019 -7.91105 0.
-0.163148 -0.0436661 0.
-4.45362 -3.2163 0.
-14.0911 -26.8764 0.
-9.66039 -21.0293 0.
-1.50658 -3.19774 0.
-15.2583 -23.8579 0.
-3.12222 -7.49484 0.
-6.45067 -16.3721 0.
-7.27931 -18.6683 0.
-6.10289 -15.9415 0.
-5.21427 -14.4003 0.
0.801912 2.20254 0.
-0.072458 -1.87411 0.
-0.0731471 -2.67525 0.
0.399215 0.80179 0.
4.04866 10.8393 0.
-1666.06 -3757.02 0.
0.967121 2.43855 0.
0.0318674 1.5438 0.
0.154459 7.41524 0.
-469.66 -1101.34 0.
-0.260782 -34.8711 0.
-520.704 -1293.05 0.
-0.697096 -47.9651 0.
16.2604 44.7958 0.
-44.0485 -119.474 0.
-494.823 -1283.1 0.
-256.508 -653.119 0.
-1.24149 -58.08 0.
-46.4414 -123.744 0.
21.2701 54.1806 0.
-70.0114 -184.23 0.
-2.77733 -6.28144 0.
21.3733 52.0131 0.
59.9487 147.185 0.
12.1151 24.4075 0.
3.85508 8.97289 0.
-19.3911 -169.124 0.
-407.932 -899.875 0.
51.6098 118.653 0.
47.8802 125.072 0.
-1.1598 -92.8393 0.
25.233 68.0718 0.
-0.00179493 -46.1541 0.
-91.0929 -244.265 0.
5.08745 14.0859 0.
-308.305 -808.517 0.
-358.307 -973.579 0.
7.95007 21.5444 0.
16.889 46.5826 0.
-668.741 -1690.05 0.
-0.165496 -29.4614 0.
9.24798 25.0041 0.
4.62907 12.8194 0.
-149.098 -392.074 0.
-53.6679 -123.219 0.
-0.0198852 -3.51514 0.
-0.0560803 -0.560852 0.
0.938921 2.31354 0.
-0.300084 -2.78245 0.
-1460.67 -2474.4 0.
-6.39191 -15.7015 0.
-1512.9 -3320.16 0.
-0.0236407 -0.0646931 0.
-0.00632514 -0.137786 0.
-2059.98 -4379.4 0.
-38.3015 -32.0538 0.
-1331.46 -2992.03 0.
-12.7223 -17.361 0.
-34.1429 -38.4977 0.
-1591.24 -3984.75 0.
-13.3895 -10.0753 0.
-9.40081 -6.4716 0.
-1269.44 -3209.56 0.
-216.414 -466.531 0.
-864.769 -2077.55 0.
-426.58 -994.278 0.
-88.9985 -158.368 0.
-685.409 -1745.24 0.
-404.935 -1026.91 0.
-145.036 -324.897 0.
-469.251 -1176.9 0.
-325.837 -792.485 0.
-198.475 -439.076 0.
-425.504 -898.337 0.
-400.283 -826.41 0.
-233 -542.813 0.
-331.563 -767.799 0.
-395.426 -930.588 0.
-196.518 -457.049 0.
-371.839 -952.281 0.
-580.457 -1515.07 0.
-70.5498 -140.706 0.
-431.436 -1119.6 0.
-805.544 -2084.84 0.
-59.6399 -75.2582 0.
-473.498 -991.958 0.
-998.094 -2250.55 0.
-111.067 -149.4 0.
-1374.38 -3522.77 0.
-8.44284 -17.9109 0.
-6.63782 -12.7499 0.
-1695.39 -4365.48 0.
-8.58668 -21.2904 0.
-21.4435 -56.5972 0.
-1744.56 -3185.05 0.
-0.132352 -0.34869 0.
-1823.67 -4406.35 0.
-11.9258 -14.3248 0.
-29.3419 -23.4668 0.
-1831.4 -3221.38 0.
0.601227 1.66327 0.
-1247.93 -3290.4 0.
0.024277 1.88331 0.
-0.413587 -4.18147 0.
-0.0227063 -16.3724 0.
4.95761 12.1382 0.
1.23219 3.15265 0.
-1514.25 -3561.26 0.
-0.0519494 -4.92537 0.
-479.473 -1170.73 0.
13.012 35.3753 0.
15.2337 42.1944 0.
13.5813 36.4301 0.
7.07692 19.4975 0.
-56.7204 -152.162 0.
-0.406442 -60.9151 0.
-1891.14 -4778.11 0.
16.4685 42.8642 0.
-601.881 -1595.23 0.
43.2192 110.311 0.
-246.402 -643.464 0.
-23.073 -55.0114 0.
-32.3079 -79.1986 0.
-5.22851 -77.3782 0.
4.71389 8.4673 0.
-1.22654 -2.64234 0.
86.1107 182.459 0.
-497.962 -1107.17 0.
23.92 54.9025 0.
3.07067 8.02861 0.
-1.43457 -3.85234 0.
-0.443656 -1.19484 0.
19.5054 53.9948 0.
-129.684 -344.015 0.
7.23426 19.3734 0.
-828.269 -2148.04 0.
-1.17522 -3.20243 0.
-0.836286 -2.25069 0.
15.2151 42.0639 0.
16.1994 44.8677 0.
-0.0793666 -21.7109 0.
-767.77 -2018.32 0.
6.42449 17.7882 0.
-10.5216 -28.5411 0.
0.0041542 0.638919 0.
0.00265468 1.06847 0.
2.70084 7.1143 0.
-1680.42 -3834.14 0.
-0.0180432 -0.766109 0.
-0.188681 -0.429431 0.
-0.0300286 -0.0774389 0.
-36.8859 -102.166 0.
0.302413 0.795371 0.
-0.0573094 -0.744596 0.
0.0471741 0.100808 0.
-0.0168185 -0.401161 0.
-6.90297 -11.653 0.
-5.97644 -10.5732 0.
-4.95303 -9.41341 0.
-39.5462 -50.5341 0.
-17.2982 -12.1334 0.
-12.8102 -8.09007 0.
-359.612 -840.683 0.
-35.788 -13.1315 0.
-331.96 -745.565 0.
-9.3804 -18.4971 0.
-3.26902 -4.85221 0.
-383.547 -948.742 0.
-134.385 -256.363 0.
-26.0425 -20.4248 0.
-367.693 -892.516 0.
-253.348 -573.015 0.
-141.426 -255.171 0.
-396.377 -813.63 0.
-372.311 -746.715 0.
-76.5429 -69.3344 0.
-297.402 -664.112 0.
-338.938 -778.959 0.
-77.5434 -126.946 0.
-223.634 -558.216 0.
-403.196 -1056.51 0.
-23.3003 -28.6556 0.
-49.1538 -93.6766 0.
-400.097 -1040.66 0.
-17.3806 -12.8058 0.
-13.173 -5.89043 0.
-305.458 -596.732 0.
-32.4598 -38.7647 0.
-305.837 -642.064 0.
-10.8405 -19.7843 0.
-8.79501 -14.8922 0.
-7.02896 -10.3569 0.
-10.3866 -18.8682 0.
-22.3989 -52.9936 0.
-34.7222 -86.3128 0.
-0.000542379 -0.0507417 0.
-0.0324884 -0.426637 0.
-14.8982 -15.0503 0.
-0.301714 -0.23275 0.
-31.6766 -20.8242 0.
0.593302 1.50339 0.
-19.746 -54.4587 0.
0.641967 1.69463 0.
-1775.2 -3682.86 0.
-0.000433438 -19.2386 0.
4.44608 11.4512 0.
6.09568 15.7455 0.
-6.44125 -15.1095 0.
1.30488 3.32746 0.
18.5527 51.1255 0.
-5.8736 -15.9535 0.
-7.54935e-05 -33.7918 0.
-876.958 -2358.94 0.
-585.089 -1590.5 0.
-275.944 -732.343 0.
23.1377 61.4645 0.
-0.966107 -2.58216 0.
-2.17561 -68.0929 0.
-1003.72 -2654.48 0.
40.2821 103.138 0.
-390.222 -1013.32 0.
-469.578 -1199.3 0.
-79.3132 -195.736 0.
28.4913 65.9955 0.
-44.1228 -66.915 0.
-14.5033 -27.8782 0.
42.2532 86.6016 0.
-22.6367 -50.8157 0.
-221.687 -546.257 0.
7.41009 19.4054 0.
32.9985 88.6014 0.
-2.12373 -5.71639 0.
-23.3564 -62.5125 0.
-153.14 -402.769 0.
-13.7371 -36.8376 0.
2.72254 7.37195 0.
5.43987 14.866 0.
16.0124 42.8308 0.
-0.827632 -2.2556 0.
-0.00205025 -35.3057 0.
6.69176 18.4182 0.
-214.541 -565.439 0.
-0.00846001 -29.8474 0.
-25.2523 -69.5627 0.
-380.136 -956.959 0.
-1116.28 -2475.77 0.
-0.210663 -8.911 0.
-1.28037 -3.26905 0.
-0.0129423 -5.4886 0.
-0.0965133 -1.42254 0.
-0.0276363 -1.29265 0.
-48.7725 -134.971 0.
0.355755 0.896412 0.
-94.7849 -259.104 0.
-1446.14 -3833.09 0.
-0.0504148 -0.606579 0.
-1643.22 -2509.11 0.
-7.43935 -10.2176 0.
-5.86959 -7.90397 0.
-1533.1 -3928.7 0.
-21.6694 -19.0238 0.
-26.7248 -35.6377 0.
-1334.29 -3396.72 0.
-37.1448 -15.0945 0.
-958.613 -2219.21 0.
-393.725 -857.981 0.
-1.65122 -3.72411 0.
-833.555 -2123.58 0.
-388.055 -959.513 0.
-10.4081 -8.24027 0.
-565.106 -1437.53 0.
-335.462 -827.996 0.
-122.933 -237.947 0.
-457.413 -996.895 0.
-411.985 -890.369 0.
-203.292 -293.023 0.
-367.791 -886.338 0.
-477.962 -1172.06 0.
-75.8492 -178.899 0.
-341.993 -918.646 0.
-646.52 -1719.84 0.
-22.9446 -29.5261 0.
-363.762 -930.474 0.
-946.548 -2452.55 0.
-25.934 -44.7769 0.
-375.968 -806.338 0.
-1027.88 -2352.77 0.
-27.0597 -54.4201 0.
-1414.21 -3294.4 0.
-16.5537 -32.7792 0.
-16.2602 -32.1443 0.
-1628.03 -4334.03 0.
-21.1624 -34.1511 0.
-18.1996 -22.8422 0.
-1392.35 -2858.3 0.
-0.0173185 -0.716537 0.
-1058.56 -2741.32 0.
-48.2247 -38.5556 0.
-29.1292 -18.8269 0.
-11.154 -5.75216 0.
-0.0269812 -0.292209 0.
-5.97752 -15.8015 0.
-0.199415 -10.9214 0.
-1.29966 -10.3451 0.
-0.0203487 -1.57281 0.
-776.595 -1987.66 0.
-0.251479 -9.17219 0.
4.12049 9.79225 0.
-100.198 -259.142 0.
13.9386 38.4798 0.
-49.6509 -134.752 0.
-2.23229 -6.16457 0.
-3.11353 -8.53298 0.
-1049.91 -2854.78 0.
-362.644 -952.871 0.
29.4875 78.7994 0.
3.11917 8.39811 0.
-53.624 -148.529 0.
-19.3984 -49.8047 0.
-0.0825182 -0.22562 0.
28.3535 69.8758 0.
-37.0635 -94.2803 0.
-780.962 -1938.38 0.
75.0348 167.904 0.
-45.8541 -90.3736 0.
11.7168 25.1556 0.
-126.516 -250.816 0.
-14.0409 -148.56 0.
-266.062 -655.216 0.
-1.81042 -4.75111 0.
-73.4485 -197.031 0.
-68.9018 -185.563 0.
-25.5021 -68.3958 0.
-254.025 -664 0.
-826.906 -2220.33 0.
11.7683 31.9055 0.
-11.8261 -32.3992 0.
16.2795 43.3059 0.
-780.206 -2126.01 0.
-0.0068144 -50.9502 0.
-421.034 -1126.55 0.
7.86722 21.7634 0.
-0.0149192 -32.9301 0.
-40.8181 -112.989 0.
-217.079 -581.347 0.
2.45165 5.38942 0.
-0.139705 -5.52076 0.
1.27318 3.40372 0.
3.15135 8.72336 0.
-1357.66 -3142.91 0.
0.820669 2.18234 0.
-1353.02 -2811.9 0.
-0.00150779 -0.790147 0.
-0.000504439 -0.335353 0.
0.0552124 0.13312 0.
0.202962 0.522762 0.
-8.18757 -11.6456 0.
-8.21056 -11.3119 0.
-9.68742 -12.7733 0.
-6.84017 -7.54666 0.
-1.20595 -0.499268 0.
-8.72832 -17.6142 0.
-187.699 -343.116 0.
-33.398 -13.2642 0.
-200.92 -388.607 0.
-6.49049 -10.0173 0.
-6.92367 -10.1629 0.
-346.356 -873.265 0.
-2.2853 -6.31739 0.
-0.589322 -1.46968 0.
-318.942 -821.612 0.
-98.2711 -204.351 0.
-22.9685 -15.62 0.
-310.995 -670.771 0.
-267.178 -557.247 0.
-41.1154 -44.6354 0.
-172.595 -377.696 0.
-280.804 -666.081 0.
-21.0966 -27.558 0.
-58.8484 -120.549 0.
-344.979 -931.7 0.
-20.3794 -24.8323 0.
-21.4874 -28.2819 0.
-338.64 -880.646 0.
-20.8842 -30.4461 0.
-20.2281 -34.7614 0.
-163.207 -334.174 0.
-14.5661 -40.2614 0.
-9.04279 -22.6872 0.
-17.4645 -30.8386 0.
-17.348 -30.9678 0.
-21.5994 -43.3082 0.
-10.3341 -28.6233 0.
-2.98113 -5.03023 0.
-7.68894 -21.2207 0.
2.48215e-05 0.0447946 0.
-40.4159 -111.35 0.
-10.3159 -23.5627 0.
-1393.26 -2800.19 0.
-0.000322221 -3.3821 0.
-1197.38 -2470.3 0.
-6.02272 -15.08 0.
-0.118962 -6.95893 0.
6.74042 15.1168 0.
-0.023143 -4.39574 0.
-0.688439 -1.79852 0.
-0.24121 -9.28812 0.
-0.0480069 -21.1229 0.
-550.607 -1440.34 0.
-0.0311339 -45.5335 0.
-1049.45 -2847.74 0.
-0.0730726 -62.8451 0.
10.4676 28.685 0.
13.1159 35.9788 0.
-478.757 -1247.1 0.
-1.0478 -2.81473 0.
27.3806 74.1804 0.
-35.2995 -97.7735 0.
-27.2743 -70.7024 0.
-0.600128 -132.56 0.
13.8969 34.5042 0.
7.70287 19.518 0.
-752.412 -1878.66 0.
-19.6658 -159.461 0.
-29.4806 -71.4276 0.
-0.0141271 -0.393174 0.
-524.312 -1007.46 0.
1.17599 3.12775 0.
-249.714 -614.843 0.
-581.268 -1530.68 0.
-96.9617 -260.163 0.
-225.437 -608.435 0.
-25.8526 -69.4662 0.
-763.834 -1990.85 0.
17.373 47.6374 0.
15.7264 42.6923 0.
-14.775 -40.5688 0.
-370.102 -980.085 0.
19.5773 53.9626 0.
-0.0145999 -60.7897 0.
-441.584 -1179.32 0.
15.2149 42.0562 0.
-0.0257818 -37.5367 0.
7.39478 19.8219 0.
-149.873 -410.633 0.
7.74163 17.263 0.
7.85928 20.4255 0.
-794.608 -1753.06 0.
-0.115396 -6.78141 0.
-51.9663 -136.82 0.
1.09816 3.04035 0.
0.174935 3.63515 0.
-0.0115103 -0.975239 0.
-0.0070468 -1.40228 0.
-0.0213877 -0.690578 0.
0.408271 1.10553 0.
-10.1183 -14.2102 0.
-12.1793 -16.2829 0.
-13.5827 -17.48 0.
-0.384465 -0.353184 0.
-0.0156084 -0.00461913 0.
0.105761 0.020822 0.
-40.264 -18.8575 0.
-30.9676 -12.2762 0.
-16.9216 -14.3064 0.
-17.1326 -14.7286 0.
-17.1625 -15.2179 0.
-8.55561 -13.9584 0.
-2.64969 -6.5303 0.
-1.0163 -2.80372 0.
-107.054 -206.066 0.
-13.8793 -8.39549 0.
-14.6559 -12.2165 0.
-96.2904 -144.812 0.
-85.2499 -115.711 0.
-45.2922 -47.1262 0.
-56.6107 -59.0529 0.
-123.83 -216.52 0.
-29.8469 -30.7314 0.
-29.0375 -30.1757 0.
-67.6423 -131.014 0.
-18.3307 -21.8837 0.
-19.5833 -23.3894 0.
-27.1674 -43.6727 0.
-21.6267 -31.3759 0.
-21.3799 -35.5883 0.
-41.0893 -78.3753 0.
-7.54801 -19.0879 0.
-5.15702 -11.6167 0.
-19.5403 -28.3346 0.
-19.7558 -29.1726 0.
-25.4656 -44.7515 0.
-6.60738 -16.5381 0.
0.358508 0.182172 0.
0.0962374 0.0882853 0.
-0.033365 -0.438067 0.
-34.9204 -89.121 0.
-0.00997423 -0.31786 0.
-0.0524939 -0.298614 0.
-0.0226367 -6.88456 0.
-0.208942 -5.86076 0.
5.32431 13.4808 0.
-1246.04 -3088.13 0.
10.0795 27.5153 0.
-0.0173737 -10.5101 0.
3.3173 9.08895 0.
-697.944 -1807.74 0.
-0.0564959 -38.3534 0.
-821.483 -2168.85 0.
12.385 34.2356 0.
12.7322 35.2202 0.
-230.156 -635.862 0.
-5.40119 -14.8018 0.
21.0181 57.839 0.
-518.083 -1340.12 0.
-104.517 -282.049 0.
-23.8016 -64.8322 0.
-26.667 -73.8624 0.
22.8162 59.6625 0.
22.6241 61.9925 0.
30.0076 75.0381 0.
-6.03725 -147.04 0.
31.3273 84.979 0.
26.6241 55.2929 0.
61.6347 91.3742 0.
66.3781 120.62 0.
-0.0759394 -7.2517 0.
-2.31765 -115.121 0.
-268.16 -660.362 0.
-25.8197 -68.1946 0.
-77.9475 -209.178 0.
-623.801 -1689.5 0.
-48.2049 -129.755 0.
-104.057 -279.032 0.
-4.43978 -12.2093 0.
30.0118 81.5872 0.
17.0294 46.852 0.
-252.642 -697.64 0.
-5.58134 -15.4182 0.
22.1004 61.1633 0.
22.0615 61.0491 0.
-0.0470204 -37.7641 0.
-205.126 -549.903 0.
4.08866 10.9856 0.
-128.113 -353.855 0.
20.8601 52.297 0.
-659.244 -1625.86 0.
3.00019 6.88512 0.
6.18957 16.7206 0.
-20.1251 -55.098 0.
-0.0141937 -3.89175 0.
0.0585075 0.921119 0.
-984.711 -2325.74 0.
-1.64006 -3.82609 0.
-1072.66 -2279.97 0.
-0.0991454 -0.945622 0.
-1293.16 -2501.08 0.
-50.7265 -80.3118 0.
-0.155645 -0.752885 0.
-1406.55 -3647.52 0.
-2.41207 -4.52215 0.
-10.8932 -23.9952 0.
-1270.62 -3044.99 0.
-15.8352 -19.0633 0.
-1032.84 -2399.86 0.
-328.175 -699.884 0.
-8.20489 -3.12179 0.
-986.385 -2588.7 0.
-222.025 -558.459 0.
-2.2749 -4.79485 0.
-701.909 -1874.79 0.
-317.889 -830.902 0.
-21.1227 -28.9811 0.
-504.934 -1307.71 0.
-401.25 -1039.22 0.
-76.312 -178.022 0.
-339.736 -902.996 0.
-569.898 -1528.1 0.
-15.3464 -27.8132 0.
-302.414 -802.572 0.
-813.065 -2143.64 0.
-28.3403 -59.133 0.
-208.872 -526.975 0.
-1089.41 -2911.38 0.
-17.802 -19.163 0.
-294.405 -580.295 0.
-1026.45 -2266.41 0.
-12.3339 -33.7769 0.
-1288.53 -3268.88 0.
-20.5206 -50.1844 0.
-3.98188 -7.4443 0.
-1039.67 -2299.04 0.
0.322067 0.568031 0.
-1642.52 -3878.6 0.
-0.0247178 -0.640526 0.
-37.3375 -95.3142 0.
-1158.34 -2680.29 0.
-0.382316 -4.13987 0.
-0.28574 -2.7377 0.
5.71198 15.5473 0.
3.32941 8.91068 0.
-0.0806747 -5.00972 0.
-99.1579 -256.998 0.
-0.00895037 -29.1027 0.
4.24541 11.7511 0.
-0.116349 -35.7266 0.
-485.734 -1270.48 0.
-25.4252 -69.6242 0.
-0.102872 -54.6424 0.
-5.97421 -16.528 0.
14.2053 39.2896 0.
-976.332 -2698.11 0.
-11.7982 -32.3382 0.
-1.45281 -4.00808 0.
-12.9711 -34.8788 0.
-349.69 -947.391 0.
-88.0833 -241.039 0.
-24.2617 -67.1978 0.
-129.513 -341.349 0.
2.16738 5.93717 0.
-384.787 -968.925 0.
-18.1396 -45.6027 0.
32.0694 86.4947 0.
-8.28507 -103.462 0.
-32.0628 -77.2107 0.
-13.2458 -47.9048 0.
42.7737 112.537 0.
-3.12757 -130.288 0.
-494.048 -1217.1 0.
41.9703 111.301 0.
-76.302 -204.792 0.
-70.5924 -191.996 0.
-121.024 -326.31 0.
17.6847 47.5055 0.
9.48415 26.1421 0.
-77.9553 -215.396 0.
-3.39233 -9.34984 0.
-75.2499 -208.174 0.
-6.86954 -19.0061 0.
11.5343 31.9144 0.
-0.373466 -1.0339 0.
-4.88607 -13.4797 0.
-313.789 -842.906 0.
-9.00829 -24.2566 0.
-171.151 -473.884 0.
9.49602 26.2098 0.
-270.195 -696.299 0.
0.00702967 3.1437 0.
0.052928 6.6829 0.
0.0131046 0.728677 0.
-1064.08 -2362.3 0.
2.26639 6.25147 0.
-76.3728 -192.385 0.
0.145006 0.379556 0.
0.309457 0.695244 0.
0.265458 0.616433 0.
-28.8129 -67.5215 0.
-0.0230007 -0.31488 0.
0.00889268 0.632348 0.
-0.148526 -0.0735956 0.
-3.20437 -4.28941 0.
-14.6075 -25.4775 0.
-4.02562 -11.1489 0.
-0.0253992 -0.14821 0.
-65.8197 -100.277 0.
-15.3617 -13.6552 0.
-7.53614 -3.17729 0.
-157.17 -381.565 0.
-1.08924 -1.44026 0.
-7.74855 -13.763 0.
-266.947 -685.724 0.
-14.1887 -23.4267 0.
-25.7776 -29.4675 0.
-221.725 -571.633 0.
-143.389 -348.229 0.
-13.2407 -12.1937 0.
-50.7125 -107.53 0.
-246.086 -652.426 0.
-6.7437 -16.6248 0.
-6.75283 -18.6017 0.
-175.973 -452.684 0.
-28.6905 -54.3723 0.
-21.2177 -32.7761 0.
-178.915 -461.012 0.
-31.2201 -36.9186 0.
-29.9435 -34.1242 0.
-30.592 -45.0765 0.
-8.33362 -22.8868 0.
-29.6818 -79.4952 0.
-4.42743 -10.3273 0.
-0.379305 -0.752963 0.
-0.117237 -0.33331 0.
0.398117 0.788936 0.
-28.5379 -61.1803 0.
0.29421 0.814457 0.
-12.8013 -34.0699 0.
-49.0801 -129.497 0.
-0.348086 -6.93079 0.
-1142.92 -2502.86 0.
-0.0846704 -14.4241 0.
-0.0817096 -12.4807 0.
8.31406 22.7808 0.
-16.6386 -44.4205 0.
2.97729 8.23415 0.
-971.235 -2588.1 0.
-0.0895287 -35.9905 0.
-180.807 -476.184 0.
-78.3114 -215.139 0.
-0.154421 -63.7568 0.
-68.3197 -189.127 0.
21.658 59.8905 0.
-14.8548 -40.9606 0.
-471.072 -1291.53 0.
-0.0666338 -76.6059 0.
-197.373 -546.686 0.
-701.767 -1908.1 0.
-19.3701 -53.5355 0.
-11.7486 -32.5367 0.
-474.354 -1259.07 0.
-27.7823 -76.0601 0.
48.7263 123.52 0.
-24.5205 -61.4009 0.
29.7904 79.6896 0.
15.5758 34.9538 0.
42.7229 63.2596 0.
-25.5721 -79.9555 0.
-3.3258 -89.9448 0.
-4.19106 -145.273 0.
-579.406 -1428.34 0.
-14.5023 -39.6543 0.
-524.644 -1408.64 0.
31.3995 86.624 0.
-334.867 -916.195 0.
26.1418 72.4074 0.
10.1442 28.0138 0.
-94.1643 -260.309 0.
-598.47 -1652.41 0.
-15.2042 -42.07 0.
-19.9279 -55.1836 0.
-649.698 -1795.93 0.
9.38324 25.9838 0.
6.63388 18.2836 0.
7.82618 21.6008 0.
-14.0021 -37.7796 0.
-344.594 -954.013 0.
-2.67694 -7.39184 0.
-136.942 -363.079 0.
7.00618 19.4045 0.
-925.717 -2390.24 0.
0.0203953 3.83612 0.
-0.699645 -11.0879 0.
4.67446 12.917 0.
-23.883 -63.4413 0.
-0.00653398 -2.11573 0.
0.705 1.63917 0.
-0.122781 -1.89042 0.
-95.6673 -245.534 0.
-1203.11 -3160.07 0.
-1.58509 -4.37638 0.
-891.865 -1744.19 0.
-39.5973 -79.3856 0.
-20.4411 -52.0463 0.
-1145.4 -3015.21 0.
-0.0187059 -0.0458406 0.
-883.554 -1907.87 0.
-220.429 -386.897 0.
-15.2845 -12.5122 0.
-1029.75 -2755.97 0.
-95.8173 -216.205 0.
0.135155 0.00462665 0.
-820.482 -2144.59 0.
-281.047 -718.262 0.
-13.8499 -12.4474 0.
-573.499 -1545.59 0.
-468.583 -1259.2 0.
-37.6467 -80.499 0.
-364.409 -983.777 0.
-702.168 -1901.1 0.
-11.5839 -27.3272 0.
-204.821 -555.359 0.
-907.332 -2438.47 0.
-18.869 -46.0343 0.
-16.0055 -31.9221 0.
-950.134 -2457.92 0.
-26.989 -27.9783 0.
-1222.76 -2706.81 0.
-0.153984 -0.0600182 0.
-0.841395 -0.791371 0.
-1082.61 -2860.56 0.
-18.7522 -41.5688 0.
-23.0152 -50.9423 0.
-1034.96 -2443.14 0.
-113.291 -293.373 0.
-8.82079 -19.8174 0.
0.363589 0.986162 0.
-6.86531 -18.955 0.
-34.8155 -94.6114 0.
-0.454638 -14.3154 0.
-1.21863 -11.54 0.
-0.00187348 -1.10318 0.
-1208.6 -3086.16 0.
-104.6 -275.334 0.
-61.8453 -168.274 0.
-0.0367362 -36.2135 0.
7.53818 20.0912 0.
-0.991207 -2.66183 0.
0.899052 2.48285 0.
-159.652 -439.664 0.
-1.40295 -3.85913 0.
-753.295 -2086.15 0.
21.1791 58.4631 0.
-27.5609 -76.0207 0.
-476.862 -1308.05 0.
6.49902 17.987 0.
-145.656 -403.416 0.
-417.139 -1152.72 0.
7.29452 20.1658 0.
-102.87 -284.831 0.
-287.328 -789.003 0.
-123.431 -337.634 0.
47.4987 128.415 0.
-533.216 -1330.06 0.
3.2993 8.73082 0.
22.3167 48.1251 0.
-29.836 -71.7153 0.
-20.9636 -57.584 0.
-7.29333 -17.8796 0.
-523.239 -1337.21 0.
-93.9536 -231.772 0.
18.8459 51.4854 0.
-379.324 -1018.47 0.
12.0357 33.2154 0.
3.02252 8.27487 0.
-12.2649 -33.9716 0.
-456.341 -1261.96 0.
-196.509 -543.48 0.
-31.9855 -88.5309 0.
21.9767 60.8195 0.
-170.094 -471.128 0.
-8.61785 -23.8123 0.
11.8931 32.9397 0.
-264.372 -727.781 0.
-10.4476 -28.8456 0.
-93.8886 -253.771 0.
-0.199047 -37.947 0.
2.63904 7.29005 0.
-338.053 -912.352 0.
-2.97614 -8.1967 0.
7.96747 21.148 0.
12.8924 35.6383 0.
-0.157027 -3.48811 0.
7.33185 20.2728 0.
-62.857 -172.155 0.
-100.724 -208.335 0.
-930.052 -2140.24 0.
-36.5128 -91.1805 0.
-3.75591 -10.1222 0.
-6.22678 -17.1695 0.
0.379628 1.01976 0.
-48.6121 -129.381 0.
-14.3147 -39.3532 0.
-6.03639 -14.9844 0.
0.462157 0.016039 0.
0.00414173 0.22319 0.
-7.88225 -7.23187 0.
-8.05908 -6.12166 0.
-9.95523 -6.85183 0.
-167.589 -419.807 0.
-6.49617 -4.8909 0.
0.125577 0.0139576 0.
-56.0494 -129.998 0.
0.187909 0.139938 0.
-2.96743 -5.41013 0.
-61.2347 -141.38 0.
-32.3806 -42.1607 0.
-11.0965 -22.9159 0.
-16.3293 -32.7253 0.
-69.8603 -182.433 0.
-10.4537 -26.6482 0.
-10.5722 -25.6997 0.
-41.7795 -114.807 0.
-12.2849 -32.2541 0.
-6.77208 -18.6504 0.
-6.74479 -18.6818 0.
-20.0068 -22.8883 0.
-209.985 -466.115 0.
0.160933 0.09023 0.
-0.0970972 -0.0741515 0.
-43.8715 -100.287 0.
0.0406695 0.1008 0.
-14.9232 -37.1228 0.
-30.1054 -75.0223 0.
-0.0182653 -0.672975 0.
-865.415 -2083.07 0.
0.899577 2.22956 0.
-1231.27 -2299.3 0.
0.0205337 0.430997 0.
-0.0322369 -1.41531 0.
6.89559 16.1037 0.
-0.00481576 -15.9323 0.
0.549465 1.44417 0.
-126.053 -339.799 0.
-4.62825 -12.679 0.
4.68349 12.9261 0.
7.4496 20.5591 0.
13.3084 35.9362 0.
-0.0569164 -33.6084 0.
-203.8 -562.264 0.
-0.679804 -1.87778 0.
19.8927 54.8803 0.
-38.426 -106.037 0.
-8.54635 -23.5812 0.
-299.15 -828.099 0.
-156.158 -432.492 0.
-49.9098 -138.218 0.
30.6972 84.8659 0.
-171.451 -474.057 0.
-604.389 -1673.12 0.
-303.233 -833.321 0.
-811.304 -2216.98 0.
25.585 69.2453 0.
-12.6518 -31.4278 0.
22.3401 58.3309 0.
-15.2382 -102.925 0.
-32.1095 -77.1162 0.
-399.622 -587.984 0.
-27.4423 -64.6319 0.
-73.8091 -185.837 0.
-2.22018 -126.522 0.
39.511 107.804 0.
-517.005 -1388.25 0.
15.5375 42.8887 0.
-17.3051 -47.4054 0.
33.6929 93.3233 0.
-216.747 -599.976 0.
-412.054 -1140.09 0.
-28.1314 -77.8848 0.
-10.2936 -28.4906 0.
-623.373 -1725.85 0.
10.3867 28.6807 0.
13.5532 37.54 0.
-575.595 -1584.98 0.
17.7239 48.9499 0.
-267.901 -733.227 0.
-3.75432 -10.2915 0.
-2.8799 -7.95819 0.
-109.3 -300.893 0.
-0.0579362 -40.3375 0.
3.29521 8.9008 0.
-3.61528e-05 -9.02018 0.
-0.158527 -4.365 0.
-696.382 -1708.65 0.
-424.468 -772.836 0.
0.0412626 0.632323 0.
-46.7954 -104.881 0.
-0.039495 -0.0988304 0.
-0.0520706 -2.82506 0.
-0.224212 -0.605741 0.
0.344164 0.889399 0.
-37.3738 -102.067 0.
-5.49633 -11.1509 0.
-0.683383 -0.488457 0.
0.406146 0.0446036 0.
0.127771 0.0589584 0.
-0.130348 -0.295219 0.
-5.43949 -5.02938 0.
-10.8583 -9.76792 0.
-22.6805 -30.3039 0.
-12.5661 -7.52992 0.
-0.236677 -0.0589701 0.
0.138911 0.0538442 0.
0.189866 0.0033811 0.
0.0968459 0.00757596 0.
-22.7525 -21.7026 0.
-28.062 -30.2477 0.
-13.1734 -24.2296 0.
-13.8003 -25.0883 0.
-20.2493 -38.8938 0.
-9.64629 -25.5831 0.
-9.76169 -25.205 0.
-10.1733 -25.3616 0.
-8.92157 -24.7064 0.
-3.97924 -9.62472 0.
-4.37229 -11.0257 0.
-24.8914 -27.765 0.
-18.2725 -18.0316 0.
-0.195894 -0.121504 0.
-0.00117127 -0.00104654 0.
-34.1343 -55.6397 0.
-0.00227227 -0.601282 0.
-8.34023 -22.5036 0.
-22.943 -61.0823 0.
-0.0281616 -3.07644 0.
-0.157325 -2.88364 0.
2.7303 7.22011 0.
2.86414 6.23638 0.
7.74003 21.2912 0.
-1038.63 -2669.57 0.
-55.5665 -152.368 0.
9.72238 26.9287 0.
-0.00549523 -5.41981 0.
-143.954 -393.499 0.
-0.154256 -37.6314 0.
-90.4265 -244.755 0.
18.092 50.0043 0.
-124.657 -338.228 0.
2.43168 6.73389 0.
-369.206 -1016.62 0.
23.8641 65.9117 0.
-3.3528 -9.24649 0.
-420.168 -1159.13 0.
-23.5205 -64.9224 0.
-7.30888 -20.2355 0.
-98.0078 -271.446 0.
14.0546 38.9173 0.
23.2461 64.2817 0.
-210.42 -581.922 0.
-543.158 -1502.85 0.
-299.924 -824.9 0.
-196.806 -536.908 0.
-85.0332 -230.394 0.
50.5468 133.712 0.
-547.656 -1405.58 0.
-755.272 -1490.52 0.
20.7994 39.7312 0.
-3008.31 -4589.58 0.
-3.98988 -81.536 0.
27.5001 73.6462 0.
22.7921 60.3506 0.
-331.588 -903.331 0.
3.8321 10.5986 0.
-5.53957 -15.2929 0.
-0.0743895 -100.37 0.
1.5078 4.17636 0.
3.32117 9.18865 0.
-171.154 -473.719 0.
1.47753 4.08709 0.
23.6485 65.4624 0.
-421.384 -1165.74 0.
21.471 59.2401 0.
8.80987 24.4006 0.
23.7151 65.5663 0.
-4.1667 -11.511 0.
-450.604 -1235.39 0.
1.98248 5.44493 0.
15.3437 42.4131 0.
-58.3414 -161.044 0.
-5.8007 -16.0364 0.
-0.0245161 -43.7385 0.
-0.00308777 -6.69183 0.
-126.648 -347.863 0.
-189.367 -499.359 0.
-0.00462141 -18.2056 0.
0.299634 7.88537 0.
0.0335213 8.07761 0.
-0.0915013 -1.69893 0.
-122.711 -268.595 0.
-893.549 -2305.3 0.
0.000337505 0.474935 0.
-782.026 -1507.4 0.
-0.0232495 -0.165773 0.
-0.253794 -0.688324 0.
-1024.21 -2772.11 0.
-8.69712 -19.5845 0.
-3.85729 -8.16694 0.
-1229.43 -2650.73 0.
0.0560684 0.0862626 0.
-814.255 -2149.41 0.
-0.357482 -0.819746 0.
-11.3812 -16.4251 0.
-859.244 -2293.33 0.
-102.906 -272.172 0.
-7.43799 -7.40797 0.
-591.517 -1575.22 0.
-423.567 -1152.62 0.
-14.9284 -30.4312 0.
-231.899 -633.845 0.
-774.223 -2123.2 0.
-14.2867 -38.4917 0.
-37.4843 -100.653 0.
-934.878 -2499.32 0.
-15.7556 -40.28 0.
-14.9612 -40.3783 0.
-1049.36 -2274.87 0.
-19.8656 -53.2219 0.
-1077.11 -2645.86 0.
-6.69921 -15.9615 0.
-3.75042 -10.2567 0.
-1017.48 -2518.21 0.
-57.9156 -119.079 0.
-46.2557 -113.028 0.
-997.998 -2036.61 0.
-0.00125379 -0.135361 0.
-969.099 -2237.72 0.
-0.111075 -10.7616 0.
-0.352441 -4.78418 0.
-0.0468394 -18.8942 0.
-12.9848 -35.3034 0.
-13.7901 -37.8019 0.
-81.7366 -220.21 0.
7.62081 20.9618 0.
-172.742 -475.802 0.
0.992758 2.72577 0.
-170.828 -463.099 0.
-0.0203675 -40.2141 0.
-451.19 -1229.15 0.
15.0747 41.7355 0.
9.15173 25.193 0.
-16.1222 -44.5234 0.
3.52163 9.70838 0.
-260.175 -717.479 0.
-127.971 -354.455 0.
2.54843 7.05684 0.
-53.2031 -147.359 0.
-444.845 -1231.61 0.
22.1962 61.4061 0.
-134.063 -371.326 0.
-7.47224 -20.691 0.
-158.535 -436.406 0.
-0.0977531 -97.273 0.
-421.379 -1142.95 0.
27.6743 72.5606 0.
-5.96623 -16.4275 0.
-1.51599 -108.327 0.
-141.013 -295.789 0.
-0.786943 -13.4155 0.
5.61133 13.2641 0.
-19.4387 -50.9407 0.
29.9415 78.9243 0.
-356.97 -970.446 0.
8.48004 23.4465 0.
-513.22 -1417.16 0.
3.28906 9.09415 0.
-440.672 -1220.58 0.
4.32423 11.9642 0.
-235.883 -653.078 0.
-18.5668 -51.3644 0.
-253.587 -702.025 0.
-6.48923 -17.9448 0.
-17.817 -49.111 0.
-32.0685 -88.6915 0.
20.3224 56.1621 0.
-22.5699 -62.5145 0.
-7.07126 -19.5705 0.
-8.66581 -23.8411 0.
-401.51 -1109.88 0.
6.78307 18.7261 0.
-169.674 -469.563 0.
1.65106 4.56238 0.
-189.372 -519.225 0.
-62.624 -172.108 0.
-34.0353 -92.8676 0.
-0.131032 -34.0813 0.
-781.687 -1998.29 0.
-0.245111 -13.1194 0.
-628.314 -1251.14 0.
-0.166269 -2.8034 0.
-78.1058 -216.325 0.
-0.0824368 -4.06959 0.
-0.725048 -1.46479 0.
-0.217192 -1.22417 0.
0.158135 0.397413 0.
-11.2393 -28.2087 0.
-6.25211 -15.6314 0.
-1.95557 -4.83428 0.
-0.238844 -0.588472 0.
0.103943 0.286291 0.
-12.6016 -12.3249 0.
-0.262654 -0.40248 0.
-2.67801 -6.21127 0.
-11.7658 -16.6666 0.
-8.62653 -10.7955 0.
-5.82968 -6.24765 0.
-5.72982 -9.18384 0.
-10.5103 -24.1189 0.
-19.1542 -30.6799 0.
-25.1836 -45.9807 0.
-37.0812 -77.5548 0.
-18.7229 -51.5733 0.
-19.9192 -55.1618 0.
-21.5134 -59.0487 0.
-14.3929 -38.5515 0.
-16.7062 -45.5737 0.
-21.3527 -57.5008 0.
-4.02722 -11.1455 0.
-11.5747 -31.693 0.
-0.0252446 -0.761887 0.
0.00315514 0.00872237 0.
-0.00812121 -0.382901 0.
-23.8124 -38.6377 0.
-29.6428 -69.6174 0.
0.0979689 3.10432 0.
-0.000882552 -2.44668 0.
2.04791 5.32989 0.
2.62169 7.06991 0.
-771.416 -1873.41 0.
3.18772 8.82689 0.
-5.96892 -16.5004 0.
-0.172461 -0.472598 0.
-48.1643 -129.698 0.
-466.184 -1286.73 0.
-214.418 -592.792 0.
-0.128038 -38.4888 0.
-471.029 -1278.47 0.
0.17548 0.485201 0.
21.9412 60.445 0.
-9.6465 -26.6982 0.
-11.046 -30.4016 0.
-163.235 -450.726 0.
-5.31234 -14.6431 0.
13.7327 38.0123 0.
-144.784 -401.016 0.
-73.5833 -203.786 0.
-289.498 -801.858 0.
-755.352 -2091.03 0.
-13.3545 -36.9317 0.
-351.737 -974.092 0.
17.896 49.5416 0.
-47.3537 -130.469 0.
29.6923 82.0609 0.
-113.924 -309.343 0.
-31.0818 -80.6315 0.
-8.6314 -23.2242 0.
-0.0354315 -15.447 0.
24.8523 49.6554 0.
-1.99851 -21.0539 0.
8.02842 21.3666 0.
-586.834 -1498.5 0.
-455.497 -1194.45 0.
13.1031 36.2697 0.
-38.1233 -105.362 0.
-0.319992 -85.7844 0.
-39.2937 -108.659 0.
-1.7347 -4.8048 0.
-106.254 -294.001 0.
-73.4425 -203.417 0.
-11.313 -31.3012 0.
-1.21978 -3.37715 0.
-4.01198 -11.0862 0.
-123.672 -340.511 0.
-115.508 -319.324 0.
2.24994 6.21481 0.
-65.6493 -181.834 0.
-7.82514 -21.6493 0.
-0.114424 -51.946 0.
1.39025 3.84148 0.
1.74993 4.83176 0.
-355.913 -985.566 0.
8.89653 24.6415 0.
-172.349 -472.795 0.
-56.2874 -154.774 0.
-91.2275 -252.096 0.
-3.15484 -8.69653 0.
-124.225 -330.945 0.
-0.018313 -5.17494 0.
-1.7307 -13.8558 0.
0.0797288 2.42666 0.
-34.3553 -93.3608 0.
-0.119349 -2.52673 0.
-0.343025 -2.16327 0.
-0.218048 -1.10576 0.
-100.102 -239.045 0.
-505.388 -1377.74 0.
-0.113575 -0.312799 0.
-0.01014 -0.164374 0.
-786.838 -2114.92 0.
-0.00927893 -0.180178 0.
-847.203 -1849.82 0.
0.111759 0.0950535 0.
-13.1054 -13.4454 0.
-805.168 -2123.38 0.
-16.754 -21.7662 0.
-25.8612 -44.1388 0.
-524.337 -1437.87 0.
-352.358 -973.766 0.
-32.1637 -47.5184 0.
-138.517 -353.303 0.
-732.501 -1997.21 0.
-5.27407 -14.587 0.
-8.74046 -23.8036 0.
-890.849 -2335.31 0.
-17.962 -46.2807 0.
-13.7005 -29.8403 0.
-879.144 -1772.37 0.
-2.0501 -5.53753 0.
-827.308 -2128.59 0.
-5.21896 -14.3381 0.
-9.48573 -24.221 0.
-713.596 -1872.35 0.
-52.505 -76.3209 0.
-72.3156 -141.73 0.
0.109847 3.00417 0.
3.4094 9.42657 0.
2.79937 7.55249 0.
5.61895 15.4654 0.
-3.03454 -7.78096 0.
-0.010515 -27.6226 0.
-495.75 -1361.08 0.
-0.704565 -1.92958 0.
-71.0845 -191.366 0.
-272.749 -752.957 0.
16.7877 45.6876 0.
12.6219 34.7047 0.
-6.1788 -17.1139 0.
-5.68143 -15.7207 0.
-8.4891 -23.3639 0.
-2.17993 -6.03071 0.
-0.21392 -61.6461 0.
-298.309 -823.544 0.
-16.3614 -45.0788 0.
10.0685 27.8649 0.
-485.18 -1343.77 0.
-141.322 -391.419 0.
-100.145 -277.384 0.
-15.5239 -42.9706 0.
27.2386 75.2962 0.
23.2094 64.2646 0.
-198.663 -549.698 0.
22.2264 61.2928 0.
-8.58819 -23.739 0.
-14.8117 -40.9097 0.
-97.7786 -265.856 0.
45.6625 121.632 0.
-0.733949 -70.2166 0.
21.019 39.478 0.
-8.97001 -67.689 0.
17.6583 45.5214 0.
-43.3381 -115.794 0.
-32.6183 -85.0492 0.
-19.0695 -52.8141 0.
-980.322 -2707.09 0.
19.4183 53.3329 0.
-398.12 -1101.07 0.
2.55067 7.03701 0.
-97.143 -268.814 0.
-15.331 -42.2267 0.
-229.244 -634.337 0.
20.1596 55.4946 0.
-0.0893867 -65.6982 0.
-190.999 -522.492 0.
-143.006 -389.407 0.
-4.14511 -11.4436 0.
-84.9337 -235.229 0.
-0.0322834 -49.9834 0.
-37.2546 -102.871 0.
12.0651 33.3696 0.
-4.6647 -12.8815 0.
-170.054 -469.988 0.
-11.2968 -31.2901 0.
-262.635 -720.86 0.
-29.3795 -80.8225 0.
-365.647 -1012.36 0.
0.339035 0.935591 0.
-158.054 -431.289 0.
-7.80277e-07 -23.5717 0.
-0.438792 -4.85357 0.
-595.179 -1393.4 0.
-593.002 -1199.04 0.
-53.7031 -127.813 0.
0.211127 0.576584 0.
-908.119 -2262.36 0.
-0.00571899 -1.23849 0.
-1.7813 -4.92037 0.
-0.00894872 -0.39466 0.
0.00721576 0.0713334 0.
-0.0119629 -0.336522 0.
-0.00209496 -0.0395363 0.
-0.10281 -0.136791 0.
-0.064795 -0.0279748 0.
0.139532 0.022196 0.
-4.74963 -2.11509 0.
-8.57691 -8.45603 0.
-12.4088 -17.7281 0.
-10.4181 -27.9661 0.
-8.56541 -22.5334 0.
-17.2006 -21.6943 0.
-14.7981 -20.3439 0.
-22.0374 -33.0222 0.
-5.8394 -15.9043 0.
-9.05417 -24.6974 0.
-17.2895 -43.3699 0.
-18.8742 -37.9805 0.
-18.7421 -41.2734 0.
-21.4511 -41.3471 0.
-0.0166747 -0.394911 0.
-32.7526 -90.5771 0.
-0.00278153 -1.24045 0.
-0.0372817 -1.42449 0.
-0.100376 -1.42134 0.
-33.7292 -72.6724 0.
-1040.95 -1983.28 0.
-0.19272 -10.1543 0.
-614.424 -1456.45 0.
0.278959 13.9792 0.
-0.00700165 -25.5441 0.
9.26824 25.0273 0.
-0.0165921 -24.426 0.
14.7146 40.5767 0.
-196.484 -531.83 0.
-0.0215147 -32.7595 0.
-114.214 -315.328 0.
16.2015 44.2454 0.
4.59599 12.5834 0.
-0.00405985 -47.8918 0.
14.2578 39.4721 0.
16.9439 46.3894 0.
-619.961 -1713.79 0.
0.061418 0.168493 0.
-16.5526 -45.5966 0.
-245.835 -676.988 0.
-0.072804 -71.2723 0.
-272.518 -754.708 0.
-71.0725 -196.376 0.
25.4407 70.4627 0.
-4.12682 -11.4152 0.
-78.8465 -217.863 0.
21.8292 59.7698 0.
-473.333 -1308.87 0.
14.0109 38.7889 0.
-122.42 -338.43 0.
-17.9222 -49.4379 0.
10.6879 29.6035 0.
-793.642 -2089.25 0.
19.668 51.7261 0.
34.9398 60.8052 0.
-366.617 -744.102 0.
-20.0578 -49.7969 0.
-53.6343 -142.497 0.
2.37019 6.49122 0.
-173.598 -480.804 0.
32.8317 90.3236 0.
-0.292379 -90.8997 0.
-344.801 -953.918 0.
-11.2546 -31.0566 0.
-53.4658 -147.966 0.
-10.3991 -28.6369 0.
-459.362 -1271.21 0.
18.3397 50.4204 0.
16.9472 46.7393 0.
-76.467 -208.962 0.
13.7412 37.3796 0.
-34.0465 -93.619 0.
-353.406 -978.619 0.
11.392 31.49 0.
-151.265 -418.124 0.
12.2106 33.796 0.
-5.08125 -14.0337 0.
-68.1276 -188.226 0.
-11.0308 -30.5525 0.
-3.41191 -9.44006 0.
-45.9828 -127.085 0.
8.04201 22.2749 0.
1.41757 3.91553 0.
-0.153532 -41.2688 0.
-0.026362 -14.5891 0.
-4.81587 -13.339 0.
-31.8739 -80.7106 0.
-0.000592024 -0.0349238 0.
-0.483242 -9.48923 0.
-0.0411199 -8.40568 0.
1.70545 4.56702 0.
-0.00526206 -3.21323 0.
-0.236556 -0.637804 0.
0.285813 0.71325 0.
0.00897382 0.0708741 0.
-0.0115753 -0.308331 0.
6.34945e-05 0.00116933 0.
-0.258605 -0.36145 0.
0.0495444 0.0211377 0.
-0.231425 -0.00637417 0.
-3.55456 -1.32922 0.
-6.6187 -8.13971 0.
-9.69945 -15.3687 0.
-7.90124 -8.22754 0.
-3.2453 -3.16193 0.
-16.5612 -21.1119 0.
-15.3138 -19.9428 0.
-20.7175 -28.5763 0.
-7.34572 -19.4634 0.
-11.6966 -30.8803 0.
-22.0579 -51.424 0.
-35.6915 -50.7932 0.
-35.2032 -54.0022 0.
-34.8793 -57.2946 0.
-0.0541739 -0.81708 0.
-0.0107064 -0.853067 0.
0.895419 2.47185 0.
-0.0238261 -1.28675 0.
0.766613 1.89373 0.
1.59741 4.06279 0.
-34.1743 -77.0528 0.
-0.0723611 -8.49891 0.
0.0496274 0.125022 0.
10.1701 28.1563 0.
-573.103 -1547.81 0.
0.0180145 1.64914 0.
-0.0224965 -24.5877 0.
-0.0187053 -33.6985 0.
-131.068 -357.493 0.
8.12265 22.4972 0.
-2.60627 -7.1957 0.
14.4182 39.496 0.
8.60607 23.6234 0.
9.72787 26.9295 0.
-543.372 -1504.81 0.
0.0107433 0.0293808 0.
1.11139 3.05003 0.
-126.526 -346.626 0.
-12.873 -35.1376 0.
-307.441 -846.16 0.
-9.37616 -25.8997 0.
-147.629 -408.793 0.
-73.718 -203.747 0.
11.0791 30.6803 0.
-18.8785 -52.1895 0.
-211.17 -583.206 0.
-49.5853 -135.955 0.
-202.496 -559.662 0.
-8.64829 -23.9475 0.
-14.5529 -40.0354 0.
5.54441 15.3563 0.
6.17659 17.1059 0.
-0.953846 -112.433 0.
10.6922 27.2887 0.
4.36392 6.88986 0.
-585.784 -1332.77 0.
31.4958 82.3038 0.
35.6579 98.4546 0.
24.3621 67.3128 0.
-401.98 -1112.52 0.
-14.5397 -40.071 0.
1.18571 3.26182 0.
-0.703687 -84.3357 0.
-166.55 -459.735 0.
12.3694 33.8571 0.
-335.878 -924.842 0.
3.35573 9.20917 0.
-51.759 -142.103 0.
-136.085 -374.882 0.
-66.2341 -180.772 0.
18.9474 51.472 0.
-38.9132 -106.944 0.
6.31991 17.2491 0.
-0.975436 -2.69305 0.
-268.643 -740.453 0.
-2.87635 -7.96474 0.
-52.7873 -145.902 0.
-34.3504 -94.8682 0.
-47.81 -132.413 0.
-10.4801 -28.9119 0.
-175.915 -486.66 0.
-5.96118 -16.5094 0.
5.75709 15.9146 0.
-2.72926 -7.50389 0.
-327.252 -904.037 0.
-0.00105804 -38.0701 0.
-4.30056 -11.399 0.
-0.0799686 -29.6421 0.
3.22112 8.13661 0.
-0.0599887 -13.0908 0.
-387.006 -1065.99 0.
3.14923 8.65831 0.
-673.943 -1493.03 0.
-29.2212 -80.1778 0.
-25.3524 -70.2107 0.
-622.693 -1640.4 0.
-0.00294747 -0.220546 0.
-665.909 -1462.78 0.
-17.2097 -33.7777 0.
0.0594264 0.0244445 0.
-677.153 -1770.08 0.
-4.79665 -2.46006 0.
-14.7618 -16.8745 0.
-425.92 -1171.9 0.
-339.328 -926.345 0.
-64.3572 -154.977 0.
-54.7533 -120.982 0.
-622.772 -1619.43 0.
-24.8041 -33.7356 0.
-11.0871 -20.7348 0.
-772.498 -2038.62 0.
-20.9461 -52.7901 0.
-29.1561 -69.4676 0.
-703.967 -1340.44 0.
0.536615 1.42433 0.
-697.724 -1834.89 0.
-0.000789103 -1.50398 0.
-49.9106 -129.365 0.
-778.082 -1729.19 0.
-1.97422 -4.68333 0.
0.670541 1.6622 0.
-0.0245091 -6.51899 0.
-0.213576 -7.62554 0.
-0.0133568 -15.9847 0.
-52.1436 -143.12 0.
-4.06469 -11.252 0.
-304.412 -842.955 0.
-0.00264289 -42.5249 0.
-125.304 -343.658 0.
4.58358 12.6951 0.
-93.3868 -258.614 0.
-9.88909 -27.1611 0.
-262.417 -724.985 0.
8.26755 22.8588 0.
-4.90022 -13.3467 0.
-1.11578 -3.0479 0.
8.64497 23.4378 0.
-136.266 -372.758 0.
9.25706 25.2685 0.
-327.787 -901.61 0.
-21.427 -59.1736 0.
-8.01915 -22.1988 0.
-215.404 -595.543 0.
20.5772 56.727 0.
-106.898 -295.318 0.
3.6666 9.95914 0.
-329.871 -905.724 0.
-0.603966 -77.5298 0.
14.1904 39.3004 0.
2.19561 6.05329 0.
-216.626 -599.987 0.
4.87634 13.4975 0.
-16.3161 -43.7591 0.
-1.70581 -83.861 0.
30.5377 83.4094 0.
11.1382 29.3165 0.
-75.333 -194.718 0.
-12.2415 -33.6883 0.
-224.101 -620.28 0.
-0.258124 -81.46 0.
30.099 83.0906 0.
-18.119 -49.8935 0.
7.02633 19.265 0.
-361.479 -998.215 0.
22.0068 60.2377 0.
-176.558 -486.104 0.
21.301 58.468 0.
-390.969 -1071.78 0.
-0.285254 -72.7417 0.
-85.65 -233.436 0.
7.90581 21.3054 0.
-41.4556 -113.863 0.
17.9532 48.9697 0.
-18.8439 -51.9894 0.
13.3451 36.7423 0.
-6.63831 -18.3862 0.
12.2955 34.0524 0.
-64.8015 -178.896 0.
-236.901 -656.036 0.
12.5825 34.6741 0.
-299.982 -830.435 0.
-0.00835354 -39.8384 0.
10.8349 29.9707 0.
3.57915 9.91242 0.
-168.502 -465.673 0.
-4.14019 -11.466 0.
7.97703 21.6862 0.
-0.0674782 -22.1968 0.
-721.884 -1818.6 0.
6.93512 18.9313 0.
2.16372 5.99307 0.
-0.0748306 -5.08268 0.
-6.1282 -16.7206 0.
-1.74645 -4.83224 0.
0.0949615 0.261967 0.
-0.00290484 -0.749824 0.
-0.0460785 -1.06605 0.
-9.39705 -23.9873 0.
-0.10667 -0.0385489 0.
-0.0415245 -0.0153207 0.
-0.00247495 -0.00213695 0.
0.0295872 0.019903 0.
-9.0302 -4.35697 0.
-16.3258 -29.2355 0.
-9.83055 -20.6586 0.
-17.8069 -46.2602 0.
-2.19736 -5.70903 0.
-0.397943 -0.184924 0.
-14.2388 -23.7548 0.
-8.30008 -21.7239 0.
-28.3015 -66.7529 0.
-11.4828 -29.213 0.
-16.5714 -45.5972 0.
-26.8637 -73.6413 0.
-0.0259987 -1.42101 0.
-0.00291626 -0.450997 0.
-0.00119931 -0.489095 0.
0.735456 2.00752 0.
0.000313986 2.22715 0.
-0.198832 -5.63766 0.
-96.9076 -216.046 0.
-489.252 -1280.57 0.
1.09569 2.8952 0.
5.38362 14.785 0.
-66.3603 -183.406 0.
-6.35186 -17.5782 0.
-154.207 -427.077 0.
13.4829 37.3429 0.
-146.88 -406.831 0.
15.0814 41.7711 0.
-2.2445 -6.21687 0.
-18.7384 -51.5847 0.
-9.04651 -24.9692 0.
-12.7455 -35.2129 0.
18.6023 50.5985 0.
-64.4984 -175.966 0.
-9.28829 -25.1463 0.
-126.999 -346.859 0.
0.237233 0.647612 0.
7.94733 21.5557 0.
-240.584 -664.252 0.
16.2995 44.7783 0.
-193.439 -534.992 0.
1.58153 4.35851 0.
-281.477 -776.978 0.
-34.0007 -92.579 0.
-399.836 -1099.57 0.
0.881757 2.4035 0.
-63.2052 -175.065 0.
11.0309 30.4772 0.
1.94696 5.30966 0.
-505.464 -1397.41 0.
-90.3617 -238.687 0.
29.6899 80.2892 0.
2.97866 7.95309 0.
-6.68492 -17.3868 0.
-368.393 -941.226 0.
-635.023 -1739.68 0.
-2.40074 -6.53366 0.
26.6591 72.9698 0.
-96.8307 -267.686 0.
21.8316 58.6123 0.
7.12493 19.5513 0.
5.36533 14.6029 0.
-18.2713 -50.0151 0.
26.0038 70.5289 0.
11.021 30.257 0.
-55.9329 -153.894 0.
-8.63287 -23.6857 0.
-50.2724 -136.812 0.
11.3384 30.5359 0.
-413.882 -1136 0.
11.4454 30.9006 0.
-48.5183 -133.755 0.
2.71899 7.47896 0.
7.78361 21.5583 0.
1.89801 5.25654 0.
-72.1171 -199.007 0.
-13.6522 -37.2779 0.
0.800209 2.20248 0.
-37.0096 -101.838 0.
4.1311 11.4301 0.
-259.552 -718.897 0.
5.27916 14.6163 0.
-122.075 -337.472 0.
13.0538 36.1497 0.
-273.848 -745.842 0.
7.39524 20.4326 0.
0.344774 0.886804 0.
-0.0484747 -11.736 0.
3.80328 10.4797 0.
-0.32015 -11.7889 0.
-1.69192 -16.8265 0.
0.477344 1.32213 0.
-0.0565589 -0.155571 0.
-393.998 -1089.69 0.
0.566108 1.30134 0.
-461.071 -1062.35 0.
-2.46496 -2.44109 0.
-2.28755 -2.29033 0.
-531.309 -1393.71 0.
-16.6228 -14.5719 0.
-18.6156 -16.061 0.
-265.189 -732.679 0.
-331.37 -917.597 0.
-36.5051 -82.321 0.
-34.6575 -78.3322 0.
-494.957 -1301.09 0.
-82.5495 -162.722 0.
-15.0115 -25.8373 0.
-364.382 -689.88 0.
-12.771 -35.0239 0.
-562.266 -1508.78 0.
0.0118357 1.9957 0.
-194.326 -491.787 0.
0.000162397 0.0230251 0.
2.17396 5.89316 0.
-0.00275644 -6.0848 0.
6.56222 18.1409 0.
-0.0426746 -2.17822 0.
-0.0404422 -16.8129 0.
-146.633 -399.147 0.
-2.45954 -6.8124 0.
-255.188 -706.263 0.
-0.107023 -45.1285 0.
-4.17073 -11.5384 0.
-4.7619 -13.1795 0.
-109.537 -303.371 0.
10.1053 27.9898 0.
-3.05896 -8.47241 0.
-3.25692 -9.01987 0.
-120.042 -332.47 0.
2.63122 7.25453 0.
-13.5398 -37.374 0.
14.1233 38.0345 0.
-182.067 -496.064 0.
8.01679 21.6723 0.
-11.956 -32.2256 0.
-322.945 -881.473 0.
8.71199 23.9512 0.
-355.514 -981.398 0.
-13.1878 -36.2347 0.
2.11675 5.78779 0.
-5.88077 -16.2011 0.
5.96932 16.364 0.
-466.769 -1274.22 0.
8.00945 21.6609 0.
-259.884 -710.179 0.
-0.290406 -77.8813 0.
-244.445 -675.94 0.
10.0773 27.5954 0.
-0.229281 -68.1215 0.
-21.3406 -59.1092 0.
-1.65912 -4.41748 0.
21.3752 55.2977 0.
-130.753 -335.731 0.
13.6312 37.5918 0.
24.7398 68.5027 0.
2.72728 7.44072 0.
-364.311 -1000.13 0.
11.527 31.33 0.
-26.0654 -70.1446 0.
17.4316 46.9387 0.
7.90165 21.5272 0.
-38.5816 -105.611 0.
22.5187 61.0834 0.
-167.372 -459.57 0.
20.4865 56.1978 0.
18.6277 51.1015 0.
-1.56569 -4.25959 0.
23.9454 64.4401 0.
-136.305 -373.876 0.
21.1241 56.9505 0.
-239.06 -658.403 0.
-0.246444 -0.675175 0.
-20.6527 -57.2021 0.
-2.04716 -5.66963 0.
3.07143 8.39179 0.
-17.8135 -48.6906 0.
-53.1352 -146.055 0.
14.3704 39.4854 0.
8.29003 22.939 0.
7.87401 21.7853 0.
10.323 28.5684 0.
-3.93326 -10.8591 0.
5.00981 13.8737 0.
10.811 29.8297 0.
-0.00540047 -33.7381 0.
-0.00949761 -4.03321 0.
-0.0233478 -7.58633 0.
-0.842882 -2.29778 0.
-427.702 -1143.48 0.
-0.00251767 -5.08103 0.
-434.723 -881.878 0.
1.71721 4.6063 0.
0.42374 1.08675 0.
0.0177332 0.17242 0.
-3.72521 -4.22979 0.
-1.71858 -1.87887 0.
-1.13012 -1.23707 0.
-6.07827 -5.57931 0.
-6.82535 -4.51568 0.
-27.0181 -26.1647 0.
-3.67754 -6.16673 0.
-0.0573512 -0.00948081 0.
-7.42184 -10.3826 0.
-3.79241 -5.3242 0.
-14.8763 -31.8846 0.
-10.9592 -24.5614 0.
-8.00812 -17.3151 0.
-20.6817 -42.5214 0.
-0.0111397 -0.0254057 0.
-44.1388 -113.177 0.
-0.277203 -1.86688 0.
-0.00471535 -3.94245 0.
-317.148 -811.127 0.
2.92552 7.65197 0.
-439.839 -1030.68 0.
-0.0522001 -3.58989 0.
-0.0753135 -6.11099 0.
10.4636 28.3309 0.
-0.248309 -0.685769 0.
4.17531 11.564 0.
-109.463 -303.009 0.
10.5388 29.1867 0.
1.56426 4.32617 0.
9.59059 26.5364 0.
-161.551 -447.381 0.
2.41772 6.69016 0.
-8.4559 -23.4204 0.
8.69142 24.0589 0.
-228.143 -631.906 0.
7.69695 21.0741 0.
-192.637 -531.186 0.
18.5438 49.8695 0.
-8.32801 -22.5456 0.
-129.666 -349.964 0.
-8.10175 -22.0145 0.
-184.124 -502.674 0.
-54.0618 -148.571 0.
7.71289 21.1217 0.
-309.2 -849.733 0.
17.9986 49.2256 0.
-70.6725 -194.616 0.
1.40498 3.84999 0.
-170.492 -466.469 0.
3.45906 9.38542 0.
-1.11422 -67.0745 0.
-3.61467 -9.93974 0.
-0.602162 -65.2819 0.
-567.897 -1560.81 0.
-2.83119 -7.81467 0.
33.1085 89.4277 0.
26.8139 70.0541 0.
-156.586 -389.467 0.
-19.5096 -49.331 0.
28.8952 79.9868 0.
24.3925 67.1943 0.
-471.884 -1290.97 0.
-8.11705 -21.7778 0.
-9.87109 -26.8766 0.
-231.64 -624.837 0.
-0.86971 -77.2799 0.
-421.998 -1150.86 0.
0.78355 2.11277 0.
-215.058 -583.481 0.
-15.2128 -41.3823 0.
-1.51698 -4.15818 0.
-138.314 -379.384 0.
23.1872 63 0.
-19.3566 -52.0568 0.
10.3128 27.12 0.
1.50297 4.0461 0.
-74.8884 -203.231 0.
-4.96284 -13.5692 0.
-328.611 -910.163 0.
-26.4805 -73.3384 0.
3.34417 9.14621 0.
-57.9577 -158.583 0.
-82.9896 -227.792 0.
14.9908 41.0624 0.
-69.9838 -193.556 0.
17.0821 47.2368 0.
5.98569 16.5556 0.
-20.9777 -57.845 0.
8.23418 22.7827 0.
15.9941 44.0027 0.
-2.34134 -6.48494 0.
13.5643 37.2024 0.
-207.126 -554.992 0.
-0.291184 -35.1666 0.
-35.5779 -97.8136 0.
-0.0518301 -14.9294 0.
3.47849 8.10226 0.
0.0111001 3.9106 0.
0.561845 1.39918 0.
-0.0461758 -0.406867 0.
-0.272773 -1.23948 0.
-12.6464 -14.5279 0.
-1.79466 -2.17063 0.
-10.8139 -8.22242 0.
-19.0192 -9.61736 0.
-38.9407 -35.5498 0.
0.0349882 0.0147412 0.
0.075321 0.0331715 0.
-7.6748 -13.4466 0.
-8.86117 -18.1341 0.
-14.7139 -36.0211 0.
-5.48592 -14.2252 0.
-3.79428 -9.58204 0.
-17.2294 -39.4199 0.
-0.594803 -0.829263 0.
-27.5262 -72.0289 0.
-0.209723 -1.39946 0.
0.00224802 0.118947 0.
0.409421 1.13061 0.
-0.0538095 -2.92432 0.
-0.26202 -4.54623 0.
-0.0318851 -11.0232 0.
-410.389 -1076.57 0.
-1.9353 -5.3532 0.
-3.05305 -8.45639 0.
-1.74923 -4.84432 0.
-60.578 -167.715 0.
14.343 39.7169 0.
-66.2862 -183.567 0.
-7.79926 -21.5734 0.
-230.306 -637.693 0.
-0.195114 -0.539903 0.
-126.686 -350.489 0.
-34.5877 -95.666 0.
-16.969 -46.4052 0.
18.0013 49.2936 0.
-17.1105 -46.0671 0.
-8.59556 -23.0823 0.
10.7964 28.7802 0.
-103.643 -279.284 0.
-32.4988 -88.2348 0.
-10.8478 -29.1432 0.
-142.42 -391.235 0.
-7.93773 -21.7284 0.
-270.179 -742.608 0.
9.33956 25.5504 0.
12.8746 34.7974 0.
-50.8894 -139.379 0.
2.12406 5.74422 0.
-12.5895 -34.2685 0.
15.134 40.4744 0.
-73.906 -203.569 0.
19.5342 53.0895 0.
-10.6132 -28.3151 0.
27.6494 75.1387 0.
13.067 35.6225 0.
-0.656504 -83.701 0.
25.2352 69.7049 0.
-144.613 -381.077 0.
3.45565 9.57136 0.
-0.135339 -0.366289 0.
-385.923 -1058.64 0.
23.9318 64.3856 0.
19.9564 53.1432 0.
25.5085 66.8354 0.
-7.80487 -21.0834 0.
-11.1632 -29.9987 0.
18.1817 49.0415 0.
-241.164 -654.432 0.
2.79155 7.58688 0.
-233.001 -638.207 0.
13.1255 35.3914 0.
-7.08511 -19.2231 0.
-139.561 -375.202 0.
-8.84661 -23.3387 0.
1.88425 5.06509 0.
15.9205 42.7472 0.
-2.9942 -8.16873 0.
14.1116 38.4849 0.
14.8167 40.9748 0.
-0.0417798 -51.0618 0.
-81.1603 -222.288 0.
-24.6259 -67.6045 0.
4.81924 13.1909 0.
-212.684 -587.894 0.
15.1796 41.9494 0.
-56.893 -157.045 0.
-7.99127 -22.0456 0.
-4.92517 -13.6072 0.
-0.131061 -31.4283 0.
13.0086 36.0086 0.
5.36058 14.8339 0.
-31.5029 -85.2501 0.
-0.352152 -0.964617 0.
-1.22549 -3.39433 0.
-0.133077 -10.3746 0.
7.07942 17.6361 0.
7.26919 20.09 0.
-298.633 -741.065 0.
0.727772 2.01065 0.
-0.283418 -3.65624 0.
-454.183 -1193.51 0.
0.274241 0.158109 0.
-191.645 -437.212 0.
-28.4402 -31.0287 0.
-115.623 -251.262 0.
-73.633 -186.206 0.
-314.412 -868.095 0.
-26.3658 -42.4593 0.
-13.5012 -24.2074 0.
-362.726 -967.969 0.
-3.15076 -8.11923 0.
-19.8127 -47.0588 0.
-314.288 -745.144 0.
-0.346481 -0.795058 0.
-287.782 -558.497 0.
3.25723 8.65289 0.
-213.498 -591.107 0.
0.308015 0.850769 0.
-0.0585291 -3.94562 0.
4.34594 10.8153 0.
10.6641 29.5338 0.
-11.7975 -31.7574 0.
9.82748 27.1677 0.
-246.074 -681.488 0.
2.3292 6.44997 0.
-39.0295 -108.07 0.
6.62764 18.3494 0.
-215.135 -595.689 0.
4.48388 12.399 0.
-1.65786 -4.58823 0.
-4.16728 -11.5312 0.
1.00138 2.75411 0.
-84.6359 -233.347 0.
-4.17419 -11.4167 0.
-26.822 -73.4557 0.
-12.147 -32.3222 0.
-74.5474 -199.881 0.
-15.5624 -41.5154 0.
-14.2084 -38.2266 0.
-100.199 -271.818 0.
9.46942 25.418 0.
-294.735 -809.313 0.
-34.6739 -94.8735 0.
-0.171186 -0.467014 0.
-98.0052 -268.205 0.
6.26145 16.9042 0.
-218.512 -598.08 0.
11.6763 31.5953 0.
25.0641 67.1419 0.
-325.097 -873.177 0.
-1.74722 -76.1801 0.
-444.453 -1211.63 0.
-15.0807 -40.4809 0.
-3.74421 -10.2353 0.
-16.8027 -46.1735 0.
-1.91224 -5.1307 0.
30.2421 83.0049 0.
13.9702 38.6625 0.
0.442682 1.22455 0.
-187.272 -508.826 0.
-18.4282 -48.8987 0.
-526.212 -1417.93 0.
-6.34024 -16.2338 0.
-10.4066 -27.4456 0.
22.7981 61.679 0.
-10.084 -27.2446 0.
-19.4356 -52.4405 0.
16.3909 43.6263 0.
-8.77906 -23.8365 0.
-137.642 -376.673 0.
24.6426 66.3456 0.
-119.372 -323.374 0.
-4.53197 -11.8432 0.
-8.64348 -22.8774 0.
-72.4918 -194.584 0.
-15.798 -42.3836 0.
5.62413 15.3072 0.
0.184826 0.502792 0.
16.5362 45.711 0.
-8.07373 -22.3083 0.
0.110843 0.303841 0.
-10.877 -29.8777 0.
15.5907 42.6402 0.
-10.4371 -28.4459 0.
10.9727 30.2207 0.
-15.5085 -42.7606 0.
-33.7268 -93.0831 0.
-231.797 -639.091 0.
7.10956 19.4274 0.
-320.142 -886.647 0.
-2.18658 -6.04882 0.
-47.7768 -130.288 0.
7.94936 21.8946 0.
-0.329769 -0.910658 0.
-2.95525 -8.08715 0.
-285.611 -761.835 0.
7.15903 19.769 0.
0.114075 0.299249 0.
0.00030361 0.508594 0.
2.7013 6.55062 0.
-10.9815 -25.7759 0.
0.00535364 0.0108446 0.
-13.3835 -26.9781 0.
-1.32418 -0.478389 0.
-24.7383 -30.8362 0.
-15.6374 -28.1827 0.
-4.70705 -8.73666 0.
-28.6647 -48.0433 0.
-12.7041 -23.6569 0.
-11.8362 -23.6964 0.
-3.75139 -9.51293 0.
-19.808 -48.6358 0.
-65.006 -158.584 0.
-0.0161419 -2.51176 0.
0.616739 1.48778 0.
2.21043 5.666 0.
0.435965 1.2002 0.
0.658584 1.80844 0.
-360.692 -947.261 0.
7.46304 20.5855 0.
11.2219 31.0419 0.
0.457754 1.25325 0.
-0.894208 -2.47053 0.
6.58698 18.1525 0.
-3.13423 -8.66167 0.
14.0924 39.0029 0.
12.524 34.6671 0.
-7.84058 -21.6746 0.
-8.58211 -23.7184 0.
-0.715862 -1.9782 0.
14.3102 39.5969 0.
2.39288 6.57963 0.
-85.4728 -235.607 0.
18.5032 50.6152 0.
-73.134 -200.305 0.
17.2878 45.9374 0.
-105.028 -281.173 0.
-26.2306 -70.0353 0.
-7.65368 -20.2134 0.
-202.873 -549.904 0.
16.3878 43.9495 0.
21.7187 58.7807 0.
-369.054 -1009.24 0.
14.9796 40.892 0.
9.28816 25.2209 0.
-119.172 -321.308 0.
8.49772 22.8272 0.
-228.844 -619.543 0.
-12.159 -32.601 0.
-129.591 -349.381 0.
11.269 29.7541 0.
2.5864 6.81422 0.
-166.472 -449.606 0.
0.648011 1.70456 0.
-246.403 -681.076 0.
-0.742934 -82.751 0.
10.2124 27.7174 0.
-3.02596 -8.38119 0.
24.6206 68.1106 0.
28.7504 75.6659 0.
-37.0769 -98.7212 0.
19.2557 49.9867 0.
5.77207 14.9 0.
-400.57 -1062.92 0.
26.4881 70.3756 0.
-195.678 -531.302 0.
23.2365 60.92 0.
-1.68616 -4.50596 0.
-48.5191 -131.581 0.
-6.30696 -16.9972 0.
16.2492 43.6738 0.
-104.945 -283.84 0.
18.6725 48.9852 0.
-44.2675 -117.556 0.
19.9075 53.1343 0.
-15.3338 -41.1022 0.
-67.1647 -182.334 0.
-12.7048 -33.9843 0.
-10.1173 -27.9545 0.
1.50042 4.14363 0.
-3.31481 -9.06453 0.
-9.18223 -25.2432 0.
1.56686 4.28195 0.
-1.07581 -2.92943 0.
-3.1967 -8.80088 0.
-0.0917297 -45.0857 0.
-76.3124 -210.701 0.
-28.3357 -78.191 0.
-4.48302 -12.2068 0.
-0.337772 -40.897 0.
-3.8148 -10.5494 0.
-77.311 -212.018 0.
11.4622 31.5929 0.
-148.037 -409.975 0.
1.97204 5.40883 0.
-0.475393 -1.29796 0.
8.10944 22.4428 0.
0.355087 14.1425 0.
-0.00838133 -2.89424 0.
0.159202 3.04944 0.
-0.0290843 -0.266666 0.
-36.4792 -99.0059 0.
-100.348 -242.24 0.
-22.0119 -45.0926 0.
-22.232 -45.6867 0.
-50.4834 -134.051 0.
-131.096 -360.327 0.
-6.58403 -15.2608 0.
-9.0952 -19.5761 0.
-177.004 -480.971 0.
-12.211 -28.6246 0.
-10.3591 -24.7543 0.
-117.753 -310.492 0.
0.000174025 0.440911 0.
-0.0331424 -1.68436 0.
-0.572367 -12.1676 0.
-0.407958 -1.10679 0.
-0.0141772 -15.9361 0.
4.80793 12.8772 0.
-0.0734214 -14.5517 0.
-106.727 -295.599 0.
5.06175 13.9255 0.
-3.53416 -9.75838 0.
-3.17709 -8.72583 0.
4.6407 12.7966 0.
-33.0632 -91.2261 0.
-5.02738 -13.9127 0.
-0.0502833 -47.0731 0.
0.404923 1.11838 0.
4.43268 12.245 0.
12.5349 34.6842 0.
4.76614 13.1022 0.
-95.064 -261.99 0.
12.0901 32.7217 0.
-237.718 -651.08 0.
-13.901 -36.8863 0.
12.4788 32.7783 0.
-99.2204 -265.152 0.
-7.5865 -20.3819 0.
4.59781 12.2804 0.
-9.34673 -25.4394 0.
20.3066 55.0119 0.
-28.8434 -78.8478 0.
-70.7149 -193.179 0.
19.8464 53.9339 0.
-185.822 -500.318 0.
21.9507 58.8882 0.
12.3431 32.7092 0.
17.6025 47.2286 0.
-9.71525 -25.7276 0.
-36.8429 -97.7797 0.
24.7023 65.6074 0.
-2.83256 -7.29352 0.
-91.3103 -242.143 0.
25.3061 68.4529 0.
-9.49341 -25.25 0.
-232.492 -620.153 0.
-9.71245 -26.7692 0.
5.24574 13.5557 0.
-76.93 -203.784 0.
8.00779 20.3559 0.
12.5366 32.7035 0.
-8.28284 -21.5362 0.
6.11314 15.7842 0.
-3.51072 -9.38633 0.
-4.03694 -10.6993 0.
-1.28501 -59.5697 0.
-96.721 -259.412 0.
7.95795 21.3061 0.
-16.2697 -43.8762 0.
-181.177 -485.819 0.
-7.12255 -18.8041 0.
11.5419 30.3975 0.
-6.82707 -18.1882 0.
13.1439 35.0486 0.
-13.955 -37.3716 0.
17.5268 46.4174 0.
-0.854711 -55.5028 0.
-60.234 -166.341 0.
17.2777 47.3145 0.
-2.25523 -6.17339 0.
-19.4099 -53.4052 0.
-9.73476 -26.5814 0.
6.24327 16.7706 0.
16.9076 46.5307 0.
12.8995 35.543 0.
-29.5187 -81.5317 0.
-4.42298 -12.1332 0.
7.04777 19.1579 0.
9.54122 25.8649 0.
-6.19375 -17.1215 0.
11.5499 31.8018 0.
-5.68832 -15.7387 0.
-0.00034284 -36.2338 0.
5.11016 14.0398 0.
8.10534 21.6202 0.
-0.0901174 -26.5997 0.
3.69406 10.1987 0.
-162.627 -435.862 0.
-0.0402853 -5.92911 0.
-95.2367 -250.583 0.
0.00378054 0.311007 0.
-31.0158 -64.2765 0.
-10.6843 -16.8666 0.
-11.7705 -14.937 0.
-12.6271 -32.4207 0.
-1.45139 -3.37613 0.
-8.32874 -19.929 0.
-5.09136 -12.1148 0.
-8.59632 -19.5456 0.
-6.88616 -16.9062 0.
-4.07104 -10.0517 0.
-22.3377 -55.9781 0.
1.81808 5.01356 0.
-145.064 -356.415 0.
1.39314 3.81881 0.
-139.626 -386.738 0.
8.27582 22.9199 0.
-0.205084 -23.6382 0.
-0.220279 -24.3997 0.
-36.6545 -101.337 0.
-2.04095 -5.61623 0.
-3.35002 -9.21547 0.
-4.31671 -11.8082 0.
-8.91544 -24.5149 0.
-27.7658 -76.6397 0.
13.4572 37.1188 0.
13.2072 36.4627 0.
-100.212 -276.591 0.
-6.30364 -17.4072 0.
-7.07412 -19.5162 0.
-5.36072 -14.7328 0.
20.3971 55.3654 0.
9.78845 26.4035 0.
-77.2008 -206.526 0.
-12.0603 -31.9544 0.
-12.518 -33.1975 0.
4.13414 11.059 0.
6.60491 17.713 0.
-12.0886 -32.2259 0.
-142.265 -387.478 0.
-40.468 -109.732 0.
5.66972 15.3781 0.
11.7624 32.1479 0.
11.8217 31.7892 0.
-7.80668 -20.5627 0.
16.0925 43.1048 0.
7.01737 18.6324 0.
4.24362 11.3899 0.
-179.161 -477.948 0.
-1.34652 -47.4608 0.
-291.844 -780.679 0.
15.9825 41.5468 0.
-1.0759 -2.72226 0.
-14.8698 -38.602 0.
16.4578 43.9998 0.
-66.9791 -180.057 0.
-48.0139 -132.919 0.
-114.863 -299.005 0.
4.80884 12.13 0.
1.1969 3.05808 0.
-109.536 -286.774 0.
22.4046 56.3275 0.
2.52357 6.58849 0.
18.3822 49.4099 0.
-8.2444 -21.8942 0.
3.42453 9.05855 0.
15.3966 40.5534 0.
-5.64347 -15.121 0.
-65.2101 -175.963 0.
-1.19903 -39.554 0.
13.6035 36.0243 0.
-376.674 -1017.25 0.
-1.48892 -57.1017 0.
-25.1963 -67.839 0.
-28.6995 -76.7875 0.
-1.12145 -47.9918 0.
7.47666 19.946 0.
-98.2954 -264.397 0.
2.08363 5.69041 0.
14.262 39.1272 0.
-36.1884 -99.6558 0.
-6.2986 -16.7456 0.
-7.91685 -21.2083 0.
-7.66399 -21.0837 0.
0.426181 1.17389 0.
-3.31976 -9.07479 0.
2.29073 6.28366 0.
-9.0381 -24.5247 0.
16.1378 43.6625 0.
-0.122347 -41.1785 0.
0.906814 2.49682 0.
6.80538 18.8496 0.
1.60681 4.44511 0.
-0.469835 -1.29253 0.
-2.22255 -6.08635 0.
-38.6354 -107 0.
-0.167965 -25.7854 0.
-0.451827 -1.2445 0.
0.0724262 4.32071 0.
1.00111 2.73295 0.
1.29947 3.44394 0.
-23.0066 -31.604 0.
-18.4946 -23.0275 0.
-16.715 -20.1489 0.
-22.5003 -56.7677 0.
-20.3471 -51.7486 0.
-13.3235 -32.6643 0.
-9.69424 -23.43 0.
-11.9285 -28.0105 0.
-3.02019 -7.67305 0.
-1.61693 -4.13498 0.
-16.6639 -43.4338 0.
-0.00480956 -4.96175 0.
2.93433 7.73189 0.
0.34185 0.925743 0.
-17.7215 -48.9931 0.
-0.0146172 -21.8911 0.
0.599244 1.64115 0.
-0.406969 -30.7718 0.
-3.11195 -8.57122 0.
1.23609 3.40225 0.
1.5438 4.2478 0.
0.539447 1.44876 0.
-144.219 -395.197 0.
-23.9912 -66.2458 0.
0.102901 0.283943 0.
2.40147 6.56636 0.
-111.908 -309.206 0.
-25.1889 -69.5324 0.
14.241 38.8574 0.
-4.34664 -11.7811 0.
6.18117 16.7236 0.
3.83899 10.3183 0.
9.01172 23.2794 0.
-14.3326 -37.9198 0.
-13.3875 -35.4827 0.
14.971 38.9166 0.
-20.1119 -53.8343 0.
-3.88182 -10.3276 0.
-0.595717 -49.3754 0.
-0.325491 -0.883452 0.
-12.047 -32.6934 0.
16.9948 44.8156 0.
-282.2 -759.869 0.
-1.00922 -47.8164 0.
11.5701 29.7632 0.
-59.6361 -158.596 0.
23.9795 62.8012 0.
-29.1849 -78.3563 0.
-1.18551 -48.4717 0.
15.2946 39.9562 0.
6.7848 17.7811 0.
-1.64024 -4.22728 0.
-1.55785 -28.9505 0.
21.956 58.9678 0.
22.232 58.6607 0.
-145.539 -371.623 0.
5.30694 12.9235 0.
-2.76999 -60.3469 0.
-103.023 -264.031 0.
0.578595 1.45499 0.
-2.06234 -55.6022 0.
-56.0976 -147.856 0.
20.2453 52.788 0.
20.6465 54.9116 0.
7.65505 20.33 0.
9.00493 23.8745 0.
19.613 52.5887 0.
-2.48193 -53.9981 0.
-1.90469 -5.03399 0.
-5.30528 -14.0977 0.
9.78247 25.0791 0.
-7.98079 -20.8372 0.
-68.2576 -184.088 0.
16.9954 42.2764 0.
17.9965 47.1877 0.
6.70181 17.8576 0.
-7.3889 -19.0872 0.
17.8562 48.62 0.
-28.2416 -77.2798 0.
-4.26405 -11.3677 0.
15.9601 43.4379 0.
3.6789 9.82796 0.
-47.1851 -127 0.
-3.71781 -9.99867 0.
-10.4401 -28.5379 0.
-17.0056 -46.6481 0.
-103.39 -280.031 0.
15.4692 40.5055 0.
-5.90341 -16.2352 0.
13.9126 38.3068 0.
-14.3705 -39.7532 0.
13.0798 36.04 0.
-9.76717 -26.754 0.
1.69958 4.6519 0.
-76.1425 -210.043 0.
11.9954 32.1796 0.
-6.87549e-06 -10.3525 0.
-0.396972 -16.1319 0.
1.28572 3.55483 0.
-0.00836703 -4.1859 0.
-31.2949 -48.5402 0.
-5.1592 -2.36091 0.
-8.48618 -6.30707 0.
-17.8251 -45.0052 0.
-12.5083 -31.1798 0.
-5.25317 -12.9466 0.
-6.75719 -16.9882 0.
-27.3324 -70.7191 0.
-2.30849 -6.32234 0.
-6.9542 -19.0513 0.
-30.8808 -82.7914 0.
2.47463 6.70694 0.
3.94251 10.7159 0.
6.16458 16.474 0.
-0.452582 -1.24481 0.
0.313736 0.868993 0.
5.71036 15.7413 0.
-0.978835 -37.7438 0.
3.82309 10.4778 0.
-25.2223 -69.4388 0.
4.81084 13.2402 0.
-3.02686 -8.11805 0.
12.9353 35.2035 0.
-38.7545 -107.05 0.
9.63831 26.4776 0.
1.36107 3.71743 0.
11.6651 31.72 0.
-60.1752 -166.048 0.
-7.96487 -21.741 0.
7.7335 20.9692 0.
7.83138 20.1257 0.
-2.73588 -7.3261 0.
-8.26674 -21.3935 0.
14.4975 35.8811 0.
-69.6317 -184.522 0.
17.2164 44.7276 0.
18.9068 47.4464 0.
-15.4532 -41.0312 0.
7.5872 20.4901 0.
-0.882544 -28.6105 0.
-217.409 -590.662 0.
1.60295 4.22738 0.
-3.37688 -8.31881 0.
13.3719 35.2984 0.
-1.32473 -52.1243 0.
-22.2629 -59.2854 0.
-12.7967 -33.5687 0.
-8.97669 -23.4469 0.
18.9795 50.0456 0.
-5.91082 -15.5856 0.
1.67282 4.21978 0.
-124.932 -327.124 0.
-2.14022 -48.6428 0.
-1.37715 -38.6809 0.
-12.815 -33.9766 0.
1.80474 4.22371 0.
22.253 54.1837 0.
9.4198 23.5793 0.
-3.84675 -54.3581 0.
-3.84268 -9.76241 0.
-0.66268 -1.70531 0.
10.876 27.6716 0.
9.60977 25.0909 0.
-87.2751 -232.461 0.
11.6992 29.8353 0.
-41.8636 -111.813 0.
-23.3335 -64.0924 0.
-2.39307 -51.2045 0.
0.937315 2.48197 0.
10.7755 24.9538 0.
-1.33326 -3.45337 0.
18.3039 47.9325 0.
6.23539 15.2641 0.
4.22029 10.4859 0.
6.32326 16.5993 0.
10.8391 25.4427 0.
14.7501 38.2884 0.
-33.4224 -90.7125 0.
-26.8912 -73.3797 0.
2.33319 6.21612 0.
-10.9383 -29.7729 0.
2.62509 6.99407 0.
3.64095 9.13569 0.
-0.567498 -43.0738 0.
-31.8045 -86.4455 0.
-32.9623 -90.4295 0.
10.1504 26.8374 0.
-0.985656 -38.1564 0.
7.46583 20.5325 0.
5.32447 14.6607 0.
-31.8744 -87.881 0.
11.1916 29.7359 0.
-18.8277 -51.5478 0.
0.0845054 0.23118 0.
-24.6855 -67.5572 0.
13.4663 35.4676 0.
-4.01479 -10.6432 0.
-0.251322 -9.86363 0.
-40.2488 -105.051 0.
0.00371918 0.97739 0.
-13.4771 -5.55275 0.
-7.67462 -3.70436 0.
-16.2576 -10.403 0.
-14.984 -30.9955 0.
-15.5407 -30.4534 0.
-0.884957 -2.02592 0.
-0.696572 -1.62445 0.
-1.54929 -3.72808 0.
-3.2977 -9.13401 0.
-5.9361 -16.4332 0.
1.62559 12.3482 0.
4.97445 12.8809 0.
2.04547 5.1383 0.
-4.28017 -10.734 0.
-0.280382 -0.765424 0.
7.69259 21.278 0.
6.98913 17.8993 0.
-4.4819 -11.5633 0.
0.703548 1.86458 0.
8.87351 24.4352 0.
-89.5239 -240.941 0.
-7.96331 -21.3303 0.
-27.1196 -73.4228 0.
-2.65254 -7.02166 0.
-99.0641 -271.944 0.
-10.5667 -28.8322 0.
-38.6327 -104.891 0.
8.96483 23.7119 0.
-0.274785 -46.8296 0.
-9.76253 -26.4876 0.
-5.12665 -13.093 0.
1.18529 3.162 0.
3.83235 9.95096 0.
21.7833 54.0506 0.
-0.960589 -51.2425 0.
3.52708 9.16527 0.
-8.19247 -20.4159 0.
-16.2307 -43.0011 0.
-68.4289 -185.663 0.
1.02065 2.64635 0.
14.5833 36.6903 0.
0.416756 1.10024 0.
-3.73738 -9.27553 0.
8.0997 21.4163 0.
15.9118 41.7897 0.
-1.8755 -40.6929 0.
-6.57316 -17.2697 0.
-64.4904 -170.505 0.
6.00932 15.0026 0.
-70.3902 -187.108 0.
14.3274 36.493 0.
6.78566 16.9682 0.
17.9872 45.9105 0.
24.6104 59.8844 0.
-2.98717 -59.4435 0.
