# vtk DataFile Version 2.0
test grain
ASCII
DATASET UNSTRUCTURED_GRID
POINTS 5000 float
0.498225 0.000698214 0.
0.500817 0.000827618 0.
0.50322 0.000890772 0.
0.505598 0.000951523 0.
0.507693 0.000960679 0.
0.509789 0.000969924 0.
0.511863 0.000977537 0.
0.513901 0.000982334 0.
0.51594 0.000987154 0.
0.51796 0.000990856 0.
0.519971 0.000993971 0.
0.521982 0.000997097 0.
0.523985 0.000997951 0.
0.525987 0.000998501 0.
0.527988 0.000999018 0.
0.52999 0.000999274 0.
0.531992 0.000999529 0.
0.533994 0.000999743 0.
0.535995 0.000999872 0.
0.537996 0.001 0.
0.539996 0.00100009 0.
0.541997 0.00100014 0.
0.543997 0.00100018 0.
0.545997 0.00100014 0.
0.547998 0.00100007 0.
0.549998 0.001 0.
0.551998 0.00100004 0.
0.553998 0.00100008 0.
0.555998 0.00100013 0.
0.557999 0.0010002 0.
0.559999 0.00100026 0.
0.561999 0.0010003 0.
0.563999 0.0010003 0.
0.565999 0.0010003 0.
0.567999 0.0010003 0.
0.57 0.0010003 0.
0.572 0.0010003 0.
0.574 0.00100031 0.
0.576 0.00100033 0.
0.578 0.00100035 0.
0.58 0.00100041 0.
0.582 0.00100047 0.
0.584 0.0010005 0.
0.586 0.00100049 0.
0.588 0.00100048 0.
0.59 0.00100047 0.
0.592 0.00100046 0.
0.594 0.00100045 0.
0.596 0.00100041 0.
0.598 0.00100036 0.
0.6 0.0010003 0.
0.602 0.00100038 0.
0.604 0.00100045 0.
0.606 0.0010005 0.
0.608 0.0010005 0.
0.61 0.00100049 0.
0.612 0.00100048 0.
0.614 0.00100047 0.
0.616 0.00100046 0.
0.618 0.00100043 0.
0.62 0.00100038 0.
0.622 0.00100033 0.
0.624 0.00100031 0.
0.626 0.00100029 0.
0.628 0.00100028 0.
0.63 0.0010003 0.
0.632 0.00100032 0.
0.634001 0.00100033 0.
0.636001 0.0010003 0.
0.638001 0.00100028 0.
0.640001 0.00100021 0.
0.642001 0.00100012 0.
0.644002 0.00100002 0.
0.646002 0.001 0.
0.648002 0.001 0.
0.650002 0.001 0.
0.652003 0.00100005 0.
0.654003 0.00100009 0.
0.656004 0.00100012 0.
0.658004 0.00100006 0.
0.660005 0.001 0.
0.662006 0.000999872 0.
0.664007 0.00099965 0.
0.666008 0.000999428 0.
0.66801 0.0009992 0.
0.670012 0.000998969 0.
0.672014 0.000998737 0.
0.674016 0.000997709 0.
0.676019 0.000996588 0.
0.678024 0.000995085 0.
0.680045 0.000990756 0.
0.682065 0.000986446 0.
0.684099 0.000981623 0.
0.686158 0.000975824 0.
0.688217 0.00097006 0.
0.690353 0.000949466 0.
0.69253 0.000921701 0.
0.694715 0.000894902 0.
0.697325 0.000825416 0.
0.699951 0.000758009 0.
0.496885 0.00193893 0.
0.499784 0.00244662 0.
0.50238 0.00264185 0.
0.504995 0.00284161 0.
0.507262 0.00287855 0.
0.509496 0.00290725 0.
0.511681 0.00293199 0.
0.513761 0.00294651 0.
0.51584 0.0029611 0.
0.51789 0.00297236 0.
0.51992 0.00298175 0.
0.521952 0.00299118 0.
0.52396 0.00299384 0.
0.525966 0.00299549 0.
0.527971 0.00299705 0.
0.529976 0.00299782 0.
0.53198 0.00299858 0.
0.533984 0.00299923 0.
0.535986 0.00299962 0.
0.537989 0.003 0.
0.53999 0.00300026 0.
0.541991 0.00300041 0.
0.543992 0.00300055 0.
0.545993 0.00300043 0.
0.547994 0.00300022 0.
0.549994 0.00300001 0.
0.551995 0.00300013 0.
0.553995 0.00300025 0.
0.555995 0.00300039 0.
0.557996 0.00300059 0.
0.559997 0.00300079 0.
0.561997 0.0030009 0.
0.563998 0.0030009 0.
0.565998 0.00300091 0.
0.567998 0.0030009 0.
0.569999 0.0030009 0.
0.571999 0.0030009 0.
0.573999 0.00300094 0.
0.575999 0.00300099 0.
0.577999 0.00300106 0.
0.579999 0.00300123 0.
0.581999 0.0030014 0.
0.583999 0.0030015 0.
0.586 0.00300146 0.
0.588 0.00300143 0.
0.59 0.0030014 0.
0.592 0.00300138 0.
0.594 0.00300136 0.
0.596 0.00300123 0.
0.598 0.00300107 0.
0.6 0.00300091 0.
0.602 0.00300113 0.
0.604 0.00300134 0.
0.606 0.0030015 0.
0.608 0.00300149 0.
0.61 0.00300147 0.
0.612 0.00300145 0.
0.614 0.00300142 0.
0.616 0.00300139 0.
0.618001 0.00300128 0.
0.620001 0.00300114 0.
0.622001 0.00300099 0.
0.624001 0.00300092 0.
0.626001 0.00300087 0.
0.628001 0.00300083 0.
0.630001 0.00300089 0.
0.632001 0.00300096 0.
0.634002 0.00300098 0.
0.636002 0.0030009 0.
0.638003 0.00300083 0.
0.640004 0.00300064 0.
0.642004 0.00300035 0.
0.644005 0.00300007 0.
0.646006 0.003 0.
0.648006 0.00300001 0.
0.650006 0.00300001 0.
0.652007 0.00300015 0.
0.654008 0.00300028 0.
0.656009 0.00300035 0.
0.65801 0.00300018 0.
0.660012 0.00300001 0.
0.662014 0.00299961 0.
0.664017 0.00299895 0.
0.666021 0.00299828 0.
0.668025 0.0029976 0.
0.670031 0.0029969 0.
0.672036 0.00299621 0.
0.674044 0.00299309 0.
0.676052 0.00298972 0.
0.678067 0.00298507 0.
0.68012 0.00297199 0.
0.682173 0.00295898 0.
0.684253 0.0029443 0.
0.686376 0.00292672 0.
0.688499 0.00290923 0.
0.690799 0.00283664 0.
0.693158 0.00274939 0.
0.695597 0.00265479 0.
0.698383 0.0024362 0.
0.701182 0.00214962 0.
0.495437 0.00298132 0.
0.498545 0.00387876 0.
0.501447 0.0043506 0.
0.504293 0.00469621 0.
0.506798 0.00479148 0.
0.509179 0.004841 0.
0.511496 0.0048856 0.
0.513617 0.00491002 0.
0.515739 0.00493456 0.
0.517818 0.00495359 0.
0.519869 0.00496932 0.
0.521921 0.0049851 0.
0.523936 0.00498971 0.
0.525945 0.00499246 0.
0.527954 0.00499507 0.
0.529961 0.00499635 0.
0.531968 0.00499763 0.
0.533974 0.00499871 0.
0.535978 0.00499936 0.
0.537982 0.005 0.
0.539984 0.00500043 0.
0.541986 0.00500067 0.
0.543987 0.00500092 0.
0.545989 0.00500071 0.
0.54799 0.00500036 0.
0.549991 0.00500001 0.
0.551991 0.00500021 0.
0.553992 0.00500041 0.
0.555992 0.00500064 0.
0.557993 0.00500098 0.
0.559994 0.00500132 0.
0.561995 0.0050015 0.
0.563996 0.00500151 0.
0.565997 0.00500151 0.
0.567997 0.00500151 0.
0.569998 0.0050015 0.
0.571998 0.0050015 0.
0.573998 0.00500157 0.
0.575998 0.00500166 0.
0.577998 0.00500176 0.
0.579999 0.00500205 0.
0.581999 0.00500233 0.
0.583999 0.0050025 0.
0.585999 0.00500244 0.
0.587999 0.00500238 0.
0.589999 0.00500233 0.
0.592 0.0050023 0.
0.594 0.00500226 0.
0.596 0.00500205 0.
0.598 0.00500178 0.
0.6 0.00500152 0.
0.602 0.00500188 0.
0.604 0.00500224 0.
0.606 0.00500251 0.
0.608 0.00500248 0.
0.61 0.00500246 0.
0.612 0.00500242 0.
0.614 0.00500237 0.
0.616001 0.00500232 0.
0.618001 0.00500214 0.
0.620001 0.00500189 0.
0.622002 0.00500165 0.
0.624002 0.00500154 0.
0.626001 0.00500145 0.
0.628001 0.00500139 0.
0.630002 0.00500149 0.
0.632002 0.0050016 0.
0.634003 0.00500162 0.
0.636004 0.00500151 0.
0.638005 0.00500139 0.
0.640006 0.00500107 0.
0.642007 0.00500059 0.
0.644008 0.00500011 0.
0.646009 0.00500001 0.
0.64801 0.00500001 0.
0.65001 0.00500001 0.
0.652011 0.00500024 0.
0.654013 0.00500047 0.
0.656014 0.00500058 0.
0.658016 0.00500029 0.
0.660019 0.00500001 0.
0.662022 0.00499935 0.
0.664028 0.00499824 0.
0.666033 0.00499713 0.
0.668041 0.00499598 0.
0.67005 0.00499483 0.
0.672058 0.00499367 0.
0.674072 0.00498843 0.
0.676086 0.0049828 0.
0.67811 0.00497481 0.
0.680197 0.00495286 0.
0.682283 0.00493102 0.
0.684413 0.00490621 0.
0.686602 0.00487657 0.
0.68879 0.00484712 0.
0.691289 0.00470673 0.
0.693845 0.00455443 0.
0.696568 0.00436358 0.
0.69952 0.00399252 0.
0.702542 0.00331586 0.
0.49406 0.00388404 0.
0.497315 0.0049974 0.
0.500438 0.00574869 0.
0.503312 0.00616065 0.
0.505993 0.00639697 0.
0.508476 0.00652603 0.
0.510935 0.00665189 0.
0.513157 0.00671773 0.
0.51538 0.00678529 0.
0.517548 0.00683989 0.
0.51966 0.00687971 0.
0.521773 0.00692006 0.
0.523827 0.0069416 0.
0.525867 0.00695928 0.
0.527906 0.00697601 0.
0.529922 0.00697945 0.
0.531938 0.00698289 0.
0.533951 0.00698665 0.
0.535961 0.00699114 0.
0.53797 0.00699563 0.
0.539976 0.00699837 0.
0.541978 0.00699962 0.
0.543981 0.00700087 0.
0.545983 0.0070011 0.
0.547985 0.00700103 0.
0.549986 0.00700095 0.
0.551987 0.00700107 0.
0.553988 0.00700118 0.
0.555988 0.00700134 0.
0.55799 0.00700166 0.
0.559991 0.00700198 0.
0.561992 0.00700223 0.
0.563993 0.0070024 0.
0.565994 0.00700256 0.
0.567995 0.00700269 0.
0.569996 0.00700278 0.
0.571997 0.00700288 0.
0.573997 0.00700302 0.
0.575997 0.00700316 0.
0.577997 0.00700331 0.
0.579997 0.00700355 0.
0.581998 0.00700379 0.
0.583998 0.00700398 0.
0.585998 0.00700407 0.
0.587999 0.00700417 0.
0.589999 0.00700416 0.
0.591999 0.00700407 0.
0.593999 0.00700397 0.
0.596 0.00700381 0.
0.598 0.00700364 0.
0.6 0.00700346 0.
0.602 0.00700374 0.
0.604 0.00700402 0.
0.606 0.00700423 0.
0.608001 0.0070042 0.
0.610001 0.00700417 0.
0.612001 0.00700408 0.
0.614001 0.00700392 0.
0.616002 0.00700375 0.
0.618002 0.00700356 0.
0.620003 0.00700336 0.
0.622003 0.00700315 0.
0.624003 0.00700304 0.
0.626003 0.00700293 0.
0.628003 0.00700283 0.
0.630004 0.00700273 0.
0.632005 0.00700263 0.
0.634006 0.00700249 0.
0.636007 0.00700225 0.
0.638008 0.00700201 0.
0.64001 0.00700162 0.
0.642011 0.00700112 0.
0.644013 0.00700062 0.
0.646014 0.00700046 0.
0.648014 0.00700039 0.
0.650015 0.00700032 0.
0.652017 0.00700031 0.
0.654019 0.00700029 0.
0.656022 0.00699987 0.
0.658026 0.0069981 0.
0.66003 0.00699633 0.
0.662038 0.00699257 0.
0.66405 0.00698649 0.
0.666062 0.00698043 0.
0.668081 0.00697653 0.
0.670102 0.00697358 0.
0.672123 0.00697064 0.
0.674185 0.00694209 0.
0.676248 0.00691218 0.
0.67833 0.00687985 0.
0.680485 0.00683263 0.
0.682638 0.00678606 0.
0.684878 0.00671191 0.
0.687185 0.00662113 0.
0.689505 0.00651909 0.
0.692109 0.00627533 0.
0.694736 0.00603818 0.
0.6976 0.00573821 0.
0.700619 0.00528749 0.
0.70381 0.00427431 0.
0.492865 0.00477047 0.
0.496202 0.00597088 0.
0.499373 0.00698646 0.
0.502279 0.0075333 0.
0.505109 0.00794827 0.
0.50771 0.00817205 0.
0.510299 0.00839312 0.
0.512657 0.00850845 0.
0.514992 0.00862349 0.
0.517266 0.00872192 0.
0.519442 0.008787 0.
0.52162 0.00885296 0.
0.523715 0.00889244 0.
0.525787 0.00892534 0.
0.527858 0.0089569 0.
0.529882 0.0089625 0.
0.531907 0.00896811 0.
0.533929 0.00897454 0.
0.535943 0.00898288 0.
0.537958 0.00899123 0.
0.539967 0.0089963 0.
0.541971 0.00899855 0.
0.543975 0.00900081 0.
0.545978 0.00900149 0.
0.54798 0.00900169 0.
0.549982 0.00900189 0.
0.551983 0.00900192 0.
0.553983 0.00900195 0.
0.555984 0.00900204 0.
0.557986 0.00900234 0.
0.559988 0.00900263 0.
0.561989 0.00900295 0.
0.56399 0.00900328 0.
0.565992 0.00900362 0.
0.567993 0.00900387 0.
0.569994 0.00900407 0.
0.571995 0.00900427 0.
0.573995 0.00900447 0.
0.575995 0.00900466 0.
0.577995 0.00900486 0.
0.579996 0.00900505 0.
0.581997 0.00900524 0.
0.583997 0.00900546 0.
0.585998 0.0090057 0.
0.587998 0.00900595 0.
0.589999 0.00900598 0.
0.591999 0.00900584 0.
0.593999 0.00900569 0.
0.596 0.00900558 0.
0.598 0.00900549 0.
0.6 0.0090054 0.
0.602001 0.0090056 0.
0.604001 0.0090058 0.
0.606001 0.00900595 0.
0.608001 0.00900592 0.
0.610001 0.00900589 0.
0.612002 0.00900575 0.
0.614002 0.00900546 0.
0.616003 0.00900518 0.
0.618003 0.00900498 0.
0.620004 0.00900482 0.
0.622005 0.00900466 0.
0.624005 0.00900454 0.
0.626005 0.00900442 0.
0.628005 0.00900428 0.
0.630007 0.00900397 0.
0.632008 0.00900367 0.
0.634009 0.00900334 0.
0.636011 0.00900298 0.
0.638012 0.00900262 0.
0.640014 0.00900217 0.
0.642015 0.00900166 0.
0.644017 0.00900114 0.
0.646018 0.00900091 0.
0.648019 0.00900077 0.
0.65002 0.00900062 0.
0.652023 0.00900037 0.
0.654026 0.00900012 0.
0.656029 0.00899916 0.
0.658035 0.00899589 0.
0.660041 0.00899263 0.
0.662053 0.00898574 0.
0.664072 0.00897468 0.
0.666092 0.00896364 0.
0.668121 0.00895704 0.
0.670154 0.00895229 0.
0.672188 0.00894755 0.
0.674301 0.00889398 0.
0.676416 0.00883902 0.
0.678558 0.00878206 0.
0.680787 0.00870813 0.
0.683012 0.00863525 0.
0.685388 0.00849453 0.
0.687825 0.00833504 0.
0.690304 0.00813358 0.
0.692989 0.00778031 0.
0.695724 0.00744039 0.
0.698659 0.00700634 0.
0.701728 0.0063191 0.
0.704962 0.00518966 0.
0.491939 0.00571329 0.
0.495189 0.00694977 0.
0.498327 0.00810758 0.
0.501305 0.00885345 0.
0.504221 0.00942535 0.
0.506971 0.00977106 0.
0.509676 0.0100683 0.
0.512165 0.0102402 0.
0.514594 0.0104068 0.
0.516964 0.0105606 0.
0.519196 0.0106532 0.
0.521431 0.0107478 0.
0.523572 0.0108134 0.
0.52568 0.0108707 0.
0.527787 0.0109273 0.
0.529824 0.0109359 0.
0.531861 0.0109446 0.
0.533894 0.0109546 0.
0.535915 0.0109678 0.
0.537937 0.0109811 0.
0.539951 0.0109895 0.
0.541958 0.0109937 0.
0.543966 0.010998 0.
0.54597 0.0109996 0.
0.547973 0.0110005 0.
0.549976 0.0110014 0.
0.551978 0.0110016 0.
0.553979 0.0110017 0.
0.55598 0.0110019 0.
0.557982 0.0110022 0.
0.559984 0.0110025 0.
0.561986 0.0110028 0.
0.563987 0.0110033 0.
0.565989 0.0110037 0.
0.56799 0.0110041 0.
0.569992 0.0110044 0.
0.571993 0.0110047 0.
0.573993 0.011005 0.
0.575994 0.0110053 0.
0.577994 0.0110056 0.
0.579995 0.0110058 0.
0.581996 0.011006 0.
0.583996 0.0110062 0.
0.585997 0.0110066 0.
0.587998 0.011007 0.
0.589998 0.0110071 0.
0.591999 0.0110069 0.
0.593999 0.0110068 0.
0.596 0.0110067 0.
0.598 0.0110066 0.
0.6 0.0110066 0.
0.602001 0.0110067 0.
0.604001 0.0110069 0.
0.606001 0.011007 0.
0.608002 0.0110069 0.
0.610002 0.0110069 0.
0.612003 0.0110067 0.
0.614003 0.0110063 0.
0.616004 0.0110059 0.
0.618005 0.0110057 0.
0.620006 0.0110055 0.
0.622007 0.0110054 0.
0.624007 0.0110051 0.
0.626007 0.0110049 0.
0.628008 0.0110046 0.
0.630009 0.0110042 0.
0.632011 0.0110037 0.
0.634012 0.0110033 0.
0.636014 0.0110029 0.
0.638016 0.0110025 0.
0.640018 0.011002 0.
0.642019 0.0110014 0.
0.644021 0.0110008 0.
0.646023 0.0110004 0.
0.648025 0.0109999 0.
0.650027 0.0109995 0.
0.652031 0.0109983 0.
0.654035 0.0109971 0.
0.656041 0.0109948 0.
0.658051 0.0109888 0.
0.660062 0.0109829 0.
0.662081 0.010972 0.
0.664108 0.0109555 0.
0.666136 0.010939 0.
0.668183 0.010925 0.
0.670236 0.0109121 0.
0.67229 0.0108989 0.
0.67445 0.0108132 0.
0.67661 0.0107275 0.
0.678812 0.0106404 0.
0.681106 0.0105369 0.
0.683394 0.0104365 0.
0.685897 0.0102187 0.
0.688449 0.00999389 0.
0.691063 0.00969033 0.
0.693825 0.00924102 0.
0.696678 0.00879062 0.
0.699658 0.00823892 0.
0.702763 0.0073214 0.
0.705986 0.0061539 0.
0.491283 0.00678405 0.
0.494474 0.00801604 0.
0.497595 0.00923415 0.
0.50065 0.0101213 0.
0.503619 0.0107582 0.
0.506426 0.0112096 0.
0.509155 0.011594 0.
0.511717 0.011853 0.
0.514192 0.0120952 0.
0.516628 0.0123327 0.
0.518908 0.0124621 0.
0.521194 0.0125943 0.
0.52339 0.0126977 0.
0.525541 0.0127915 0.
0.527692 0.0128856 0.
0.529745 0.0128991 0.
0.531798 0.0129119 0.
0.533845 0.0129266 0.
0.535875 0.0129458 0.
0.537906 0.0129651 0.
0.539927 0.012978 0.
0.54194 0.0129852 0.
0.543953 0.0129924 0.
0.54596 0.0129956 0.
0.547965 0.0129975 0.
0.54997 0.0129995 0.
0.551972 0.013 0.
0.553974 0.0130004 0.
0.555976 0.0130008 0.
0.557978 0.0130011 0.
0.55998 0.0130015 0.
0.561982 0.0130019 0.
0.563984 0.0130024 0.
0.565986 0.0130029 0.
0.567987 0.0130034 0.
0.569989 0.0130037 0.
0.571991 0.013004 0.
0.573991 0.0130045 0.
0.575992 0.013005 0.
0.577992 0.0130055 0.
0.579993 0.0130057 0.
0.581994 0.013006 0.
0.583995 0.0130063 0.
0.585996 0.0130067 0.
0.587997 0.0130072 0.
0.589998 0.0130074 0.
0.591998 0.0130073 0.
0.593999 0.0130072 0.
0.595999 0.0130071 0.
0.598 0.0130071 0.
0.6 0.0130071 0.
0.602001 0.0130072 0.
0.604001 0.0130073 0.
0.606001 0.0130073 0.
0.608002 0.0130073 0.
0.610003 0.0130072 0.
0.612003 0.0130069 0.
0.614004 0.0130064 0.
0.616005 0.0130059 0.
0.618006 0.0130056 0.
0.620007 0.0130054 0.
0.622008 0.0130052 0.
0.624009 0.0130048 0.
0.62601 0.0130043 0.
0.628011 0.0130039 0.
0.630012 0.0130034 0.
0.632014 0.0130029 0.
0.634016 0.0130024 0.
0.636018 0.0130019 0.
0.63802 0.0130015 0.
0.640022 0.013001 0.
0.642024 0.0130003 0.
0.644026 0.0129996 0.
0.646029 0.0129988 0.
0.648031 0.0129979 0.
0.650034 0.0129969 0.
0.65204 0.0129941 0.
0.654047 0.0129914 0.
0.656056 0.0129868 0.
0.658074 0.0129769 0.
0.660092 0.012967 0.
0.66212 0.0129511 0.
0.664159 0.0129286 0.
0.666198 0.0129063 0.
0.668269 0.0128789 0.
0.670351 0.0128505 0.
0.672436 0.0128196 0.
0.674636 0.0126933 0.
0.676836 0.0125681 0.
0.679098 0.0124375 0.
0.68145 0.0122898 0.
0.683805 0.0121378 0.
0.686353 0.0118234 0.
0.688931 0.0115125 0.
0.691599 0.0111236 0.
0.694394 0.0106165 0.
0.697318 0.0100827 0.
0.700349 0.00945335 0.
0.703489 0.00840188 0.
0.706715 0.00723441 0.
0.490767 0.00793688 0.
0.493919 0.00912712 0.
0.49702 0.0103579 0.
0.500068 0.0113432 0.
0.503031 0.0120516 0.
0.505875 0.0126234 0.
0.508626 0.0130988 0.
0.51126 0.013449 0.
0.51378 0.0137677 0.
0.516276 0.0140923 0.
0.518613 0.0142662 0.
0.52095 0.0144365 0.
0.523205 0.0145786 0.
0.525398 0.0147095 0.
0.527593 0.0148418 0.
0.529666 0.0148621 0.
0.531734 0.0148791 0.
0.533796 0.0148984 0.
0.535835 0.0149236 0.
0.537874 0.014949 0.
0.539903 0.0149665 0.
0.541921 0.0149766 0.
0.54394 0.0149867 0.
0.54595 0.0149915 0.
0.547957 0.0149945 0.
0.549964 0.0149976 0.
0.551966 0.0149984 0.
0.553969 0.0149991 0.
0.555972 0.0149998 0.
0.557974 0.0150001 0.
0.559976 0.0150005 0.
0.561978 0.0150009 0.
0.56398 0.0150015 0.
0.565982 0.0150021 0.
0.567984 0.0150026 0.
0.569986 0.015003 0.
0.571988 0.0150034 0.
0.573989 0.0150041 0.
0.57599 0.0150048 0.
0.577991 0.0150054 0.
0.579992 0.0150057 0.
0.581993 0.015006 0.
0.583994 0.0150063 0.
0.585995 0.0150069 0.
0.587996 0.0150074 0.
0.589997 0.0150077 0.
0.591998 0.0150076 0.
0.593999 0.0150076 0.
0.595999 0.0150076 0.
0.598 0.0150076 0.
0.6 0.0150076 0.
0.602001 0.0150076 0.
0.604001 0.0150077 0.
0.606001 0.0150077 0.
0.608002 0.0150076 0.
0.610003 0.0150075 0.
0.612004 0.0150072 0.
0.614005 0.0150066 0.
0.616006 0.015006 0.
0.618008 0.0150056 0.
0.620009 0.0150054 0.
0.62201 0.0150051 0.
0.624011 0.0150045 0.
0.626012 0.0150038 0.
0.628013 0.0150031 0.
0.630015 0.0150026 0.
0.632017 0.015002 0.
0.634019 0.0150014 0.
0.636021 0.015001 0.
0.638023 0.0150006 0.
0.640026 0.015 0.
0.642028 0.0149992 0.
0.644031 0.0149985 0.
0.646034 0.0149972 0.
0.648038 0.0149958 0.
0.650041 0.0149943 0.
0.65205 0.0149899 0.
0.654059 0.0149855 0.
0.656071 0.0149788 0.
0.658097 0.0149649 0.
0.660122 0.014951 0.
0.66216 0.0149301 0.
0.66421 0.0149017 0.
0.666259 0.0148733 0.
0.668356 0.0148318 0.
0.670467 0.0147877 0.
0.672584 0.0147377 0.
0.674826 0.0145701 0.
0.677066 0.0144047 0.
0.679395 0.0142279 0.
0.681806 0.0140351 0.
0.684231 0.0138195 0.
0.686815 0.0134087 0.
0.689423 0.013007 0.
0.692135 0.0125407 0.
0.694944 0.0119714 0.
0.697881 0.0113464 0.
0.700916 0.010629 0.
0.704064 0.00952561 0.
0.70726 0.00839379 0.
0.490383 0.00917534 0.
0.493477 0.0103087 0.
0.496528 0.0115209 0.
0.499539 0.012574 0.
0.502489 0.0133461 0.
0.505353 0.0140181 0.
0.508116 0.0145655 0.
0.5108 0.0149972 0.
0.513342 0.0153701 0.
0.515863 0.0157463 0.
0.518239 0.015969 0.
0.520605 0.0161785 0.
0.522905 0.0163655 0.
0.525134 0.0165276 0.
0.527367 0.0166916 0.
0.529488 0.0167476 0.
0.531601 0.0167965 0.
0.533701 0.0168427 0.
0.535754 0.0168736 0.
0.537807 0.0169045 0.
0.539849 0.016929 0.
0.54188 0.0169475 0.
0.543911 0.0169661 0.
0.545928 0.016976 0.
0.54794 0.0169828 0.
0.549951 0.0169897 0.
0.551956 0.0169921 0.
0.553961 0.0169944 0.
0.555965 0.0169964 0.
0.557968 0.0169976 0.
0.559972 0.0169988 0.
0.561975 0.0169998 0.
0.563977 0.0170006 0.
0.565979 0.0170014 0.
0.567981 0.017002 0.
0.569984 0.0170025 0.
0.571986 0.017003 0.
0.573987 0.0170038 0.
0.575988 0.0170047 0.
0.577989 0.0170055 0.
0.57999 0.0170059 0.
0.581992 0.0170062 0.
0.583993 0.0170066 0.
0.585994 0.0170072 0.
0.587995 0.0170078 0.
0.589996 0.0170081 0.
0.591997 0.0170082 0.
0.593998 0.0170082 0.
0.595999 0.0170084 0.
0.598 0.0170086 0.
0.6 0.0170089 0.
0.602001 0.0170087 0.
0.604001 0.0170085 0.
0.606002 0.0170084 0.
0.608003 0.0170081 0.
0.610004 0.0170079 0.
0.612005 0.0170075 0.
0.614006 0.0170069 0.
0.616008 0.0170062 0.
0.618009 0.0170058 0.
0.620011 0.0170054 0.
0.622012 0.017005 0.
0.624013 0.0170042 0.
0.626015 0.0170034 0.
0.628016 0.0170026 0.
0.630018 0.0170019 0.
0.63202 0.0170012 0.
0.634023 0.0170004 0.
0.636025 0.0169995 0.
0.638028 0.0169987 0.
0.640031 0.0169973 0.
0.642035 0.0169957 0.
0.644039 0.016994 0.
0.646044 0.016991 0.
0.64805 0.0169876 0.
0.650057 0.0169841 0.
0.652072 0.0169746 0.
0.654087 0.016965 0.
0.65611 0.0169515 0.
0.658152 0.0169266 0.
0.660193 0.016902 0.
0.662249 0.0168719 0.
0.664319 0.0168361 0.
0.666389 0.0168005 0.
0.668528 0.0167233 0.
0.670681 0.0166398 0.
0.672848 0.0165481 0.
0.675121 0.0163517 0.
0.677389 0.0161578 0.
0.679767 0.0159293 0.
0.682211 0.0156898 0.
0.684681 0.0154086 0.
0.687278 0.0149435 0.
0.689905 0.0144711 0.
0.692644 0.0139438 0.
0.695459 0.0133199 0.
0.698386 0.0126197 0.
0.701393 0.0118265 0.
0.704498 0.0107219 0.
0.707651 0.00965593 0.
0.490094 0.0104998 0.
0.493119 0.0115534 0.
0.496104 0.0127267 0.
0.499059 0.0138108 0.
0.501991 0.0146416 0.
0.50486 0.0153781 0.
0.507618 0.0159821 0.
0.510307 0.0164867 0.
0.512871 0.0169091 0.
0.515409 0.0173343 0.
0.517828 0.0176234 0.
0.520226 0.0178877 0.
0.522577 0.0181352 0.
0.524848 0.0183321 0.
0.527126 0.0185319 0.
0.529301 0.0186256 0.
0.53146 0.018709 0.
0.533604 0.0187861 0.
0.535671 0.0188227 0.
0.537739 0.0188594 0.
0.539794 0.018891 0.
0.541838 0.0189181 0.
0.543882 0.0189453 0.
0.545906 0.0189604 0.
0.547922 0.0189711 0.
0.549939 0.0189818 0.
0.551946 0.0189858 0.
0.553952 0.0189896 0.
0.555958 0.0189931 0.
0.557963 0.0189951 0.
0.559967 0.0189971 0.
0.561971 0.0189987 0.
0.563974 0.0189997 0.
0.565976 0.0190007 0.
0.567979 0.0190014 0.
0.569981 0.019002 0.
0.571983 0.0190025 0.
0.573985 0.0190035 0.
0.575986 0.0190046 0.
0.577987 0.0190056 0.
0.579989 0.019006 0.
0.58199 0.0190064 0.
0.583992 0.0190069 0.
0.585993 0.0190076 0.
0.587994 0.0190082 0.
0.589996 0.0190086 0.
0.591997 0.0190087 0.
0.593998 0.0190088 0.
0.595999 0.0190092 0.
0.598 0.0190097 0.
0.6 0.0190102 0.
0.602001 0.0190098 0.
0.604002 0.0190094 0.
0.606002 0.019009 0.
0.608003 0.0190086 0.
0.610005 0.0190083 0.
0.612006 0.0190078 0.
0.614008 0.0190071 0.
0.616009 0.0190065 0.
0.618011 0.019006 0.
0.620013 0.0190055 0.
0.622015 0.019005 0.
0.624016 0.019004 0.
0.626017 0.019003 0.
0.628018 0.019002 0.
0.630021 0.0190012 0.
0.632023 0.0190004 0.
0.634026 0.0189994 0.
0.636029 0.0189981 0.
0.638032 0.0189968 0.
0.640036 0.0189947 0.
0.642042 0.0189921 0.
0.644047 0.0189895 0.
0.646055 0.0189847 0.
0.648063 0.0189795 0.
0.650072 0.0189739 0.
0.652094 0.0189591 0.
0.654117 0.0189443 0.
0.656149 0.0189238 0.
0.658207 0.0188878 0.
0.660265 0.018852 0.
0.662341 0.0188127 0.
0.664433 0.018769 0.
0.666524 0.0187256 0.
0.668708 0.0186072 0.
0.670907 0.0184811 0.
0.673127 0.0183462 0.
0.67544 0.0181163 0.
0.677746 0.0178895 0.
0.680175 0.017589 0.
0.682647 0.0172853 0.
0.685153 0.0169242 0.
0.687757 0.0164139 0.
0.690395 0.0158964 0.
0.693134 0.0153242 0.
0.695941 0.0146583 0.
0.698846 0.0139027 0.
0.701812 0.0130552 0.
0.704842 0.0119804 0.
0.707914 0.0109888 0.
0.48985 0.0118808 0.
0.492804 0.0128481 0.
0.495734 0.0139775 0.
0.498654 0.0150708 0.
0.501553 0.0159398 0.
0.504394 0.0167189 0.
0.507137 0.0173861 0.
0.509828 0.0179629 0.
0.512412 0.0184421 0.
0.514966 0.0189146 0.
0.517428 0.0192645 0.
0.519859 0.0195822 0.
0.522259 0.019894 0.
0.524572 0.0201159 0.
0.52689 0.0203423 0.
0.529112 0.020476 0.
0.531309 0.0205999 0.
0.533492 0.0207166 0.
0.535575 0.020759 0.
0.537659 0.0208015 0.
0.539731 0.020841 0.
0.541787 0.0208784 0.
0.543843 0.020916 0.
0.545875 0.020938 0.
0.547899 0.020954 0.
0.549923 0.0209701 0.
0.551932 0.0209765 0.
0.553941 0.0209825 0.
0.55595 0.0209879 0.
0.557956 0.0209911 0.
0.559962 0.0209942 0.
0.561966 0.0209966 0.
0.56397 0.0209979 0.
0.565973 0.0209992 0.
0.567976 0.0210001 0.
0.569978 0.0210009 0.
0.571981 0.0210016 0.
0.573982 0.0210027 0.
0.575984 0.0210039 0.
0.577985 0.021005 0.
0.579987 0.0210055 0.
0.581989 0.0210061 0.
0.58399 0.0210066 0.
0.585992 0.0210073 0.
0.587993 0.021008 0.
0.589995 0.0210085 0.
0.591996 0.0210087 0.
0.593997 0.0210089 0.
0.595998 0.0210094 0.
0.597999 0.02101 0.
0.6 0.0210106 0.
0.602001 0.0210101 0.
0.604002 0.0210097 0.
0.606003 0.0210092 0.
0.608004 0.0210086 0.
0.610006 0.021008 0.
0.612007 0.0210074 0.
0.614009 0.0210068 0.
0.616011 0.0210061 0.
0.618013 0.0210055 0.
0.620015 0.0210049 0.
0.622017 0.0210043 0.
0.624018 0.0210032 0.
0.626019 0.021002 0.
0.628021 0.0210009 0.
0.630023 0.0209998 0.
0.632026 0.0209987 0.
0.63403 0.0209974 0.
0.636033 0.0209956 0.
0.638037 0.0209938 0.
0.640043 0.0209908 0.
0.64205 0.0209868 0.
0.644057 0.0209829 0.
0.646068 0.0209755 0.
0.64808 0.0209673 0.
0.650092 0.0209586 0.
0.652124 0.0209368 0.
0.654155 0.0209152 0.
0.656199 0.0208856 0.
0.658272 0.0208366 0.
0.660346 0.020788 0.
0.662442 0.0207384 0.
0.664556 0.0206863 0.
0.666669 0.0206346 0.
0.668893 0.0204687 0.
0.671129 0.0202972 0.
0.673396 0.0201202 0.
0.675746 0.0198665 0.
0.678095 0.0196087 0.
0.68057 0.0192338 0.
0.683072 0.0188665 0.
0.685612 0.0184333 0.
0.688222 0.0178791 0.
0.690871 0.0173135 0.
0.693604 0.0166908 0.
0.696389 0.0159811 0.
0.699255 0.0151941 0.
0.702172 0.0143175 0.
0.70514 0.0132838 0.
0.708139 0.0123609 0.
0.489665 0.0133296 0.
0.492561 0.0142171 0.
0.495459 0.0153005 0.
0.498339 0.0163763 0.
0.501193 0.0172711 0.
0.504006 0.0180818 0.
0.506746 0.0188026 0.
0.509434 0.019434 0.
0.512039 0.0199596 0.
0.514614 0.0204624 0.
0.517107 0.0208616 0.
0.519561 0.0212177 0.
0.52199 0.0215705 0.
0.524326 0.0218291 0.
0.526665 0.0220927 0.
0.52892 0.0222795 0.
0.531144 0.0224575 0.
0.533357 0.0226291 0.
0.535461 0.0226785 0.
0.537566 0.022728 0.
0.539656 0.0227768 0.
0.541725 0.0228269 0.
0.543794 0.0228774 0.
0.545837 0.0229084 0.
0.547869 0.0229315 0.
0.549902 0.0229546 0.
0.551915 0.022964 0.
0.553928 0.0229728 0.
0.555939 0.0229808 0.
0.557947 0.0229854 0.
0.559955 0.02299 0.
0.561961 0.0229934 0.
0.563965 0.0229951 0.
0.565969 0.0229968 0.
0.567973 0.0229981 0.
0.569976 0.0229992 0.
0.571979 0.0230003 0.
0.57398 0.0230014 0.
0.575981 0.0230026 0.
0.577983 0.0230037 0.
0.579985 0.0230044 0.
0.581987 0.0230052 0.
0.583989 0.0230059 0.
0.585991 0.0230066 0.
0.587992 0.0230073 0.
0.589994 0.0230078 0.
0.591995 0.0230081 0.
0.593997 0.0230084 0.
0.595998 0.0230089 0.
0.597999 0.0230095 0.
0.6 0.0230101 0.
0.602001 0.0230097 0.
0.604003 0.0230093 0.
0.606004 0.0230089 0.
0.608005 0.023008 0.
0.610007 0.0230072 0.
0.612008 0.0230064 0.
0.61401 0.0230057 0.
0.616012 0.023005 0.
0.618014 0.0230043 0.
0.620016 0.0230036 0.
0.622018 0.0230029 0.
0.62402 0.0230017 0.
0.626021 0.0230005 0.
0.628023 0.0229992 0.
0.630026 0.0229977 0.
0.63203 0.0229963 0.
0.634034 0.0229945 0.
0.636039 0.0229922 0.
0.638044 0.0229898 0.
0.640051 0.0229855 0.
0.64206 0.0229798 0.
0.64407 0.0229741 0.
0.646085 0.0229632 0.
0.648101 0.0229511 0.
0.650119 0.0229381 0.
0.652162 0.0229074 0.
0.654205 0.0228768 0.
0.656261 0.0228358 0.
0.658349 0.0227709 0.
0.660436 0.0227067 0.
0.662554 0.0226443 0.
0.664693 0.0225812 0.
0.666832 0.0225165 0.
0.669086 0.0222928 0.
0.671346 0.0220664 0.
0.673645 0.0218319 0.
0.676019 0.021535 0.
0.678396 0.0212352 0.
0.68089 0.0208256 0.
0.683409 0.020418 0.
0.685974 0.0199316 0.
0.688597 0.0193444 0.
0.69126 0.0187406 0.
0.693987 0.0180787 0.
0.696759 0.0173322 0.
0.699591 0.0165249 0.
0.702458 0.0156386 0.
0.705373 0.0146475 0.
0.70832 0.0137896 0.
0.48959 0.0148597 0.
0.492416 0.0156649 0.
0.495259 0.016678 0.
0.498093 0.0177202 0.
0.500907 0.0186337 0.
0.503688 0.0194648 0.
0.506407 0.0202188 0.
0.509085 0.0208843 0.
0.511699 0.021456 0.
0.514277 0.0219967 0.
0.516792 0.0224467 0.
0.519263 0.0228414 0.
0.521715 0.023239 0.
0.524076 0.0235375 0.
0.526438 0.0238386 0.
0.528725 0.0240775 0.
0.530975 0.0243101 0.
0.53322 0.02454 0.
0.535346 0.0245977 0.
0.537472 0.0246543 0.
0.53958 0.024712 0.
0.541662 0.024775 0.
0.543745 0.0248384 0.
0.545798 0.0248787 0.
0.547839 0.0249088 0.
0.54988 0.024939 0.
0.551898 0.0249515 0.
0.553914 0.0249632 0.
0.555929 0.0249738 0.
0.557939 0.0249798 0.
0.559948 0.0249858 0.
0.561956 0.0249902 0.
0.563961 0.0249923 0.
0.565965 0.0249944 0.
0.567969 0.0249961 0.
0.569973 0.0249975 0.
0.571976 0.0249989 0.
0.573978 0.0250001 0.
0.575979 0.0250012 0.
0.577981 0.0250023 0.
0.579983 0.0250033 0.
0.581985 0.0250042 0.
0.583987 0.0250051 0.
0.585989 0.0250059 0.
0.587991 0.0250066 0.
0.589993 0.0250071 0.
0.591995 0.0250075 0.
0.593996 0.0250079 0.
0.595998 0.0250085 0.
0.597999 0.025009 0.
0.6 0.0250095 0.
0.602002 0.0250093 0.
0.604003 0.025009 0.
0.606005 0.0250086 0.
0.608006 0.0250075 0.
0.610008 0.0250064 0.
0.612009 0.0250054 0.
0.614012 0.0250047 0.
0.616014 0.0250039 0.
0.618016 0.0250032 0.
0.620018 0.0250024 0.
0.62202 0.0250016 0.
0.624022 0.0250003 0.
0.626023 0.024999 0.
0.628025 0.0249975 0.
0.630029 0.0249957 0.
0.632033 0.0249938 0.
0.634038 0.0249916 0.
0.636044 0.0249887 0.
0.63805 0.0249858 0.
0.640059 0.0249803 0.
0.642071 0.0249728 0.
0.644082 0.0249653 0.
0.646102 0.0249508 0.
0.648123 0.0249347 0.
0.650146 0.0249174 0.
0.652201 0.0248777 0.
0.654255 0.0248382 0.
0.656324 0.0247853 0.
0.658426 0.0247046 0.
0.660527 0.0246246 0.
0.662668 0.0245496 0.
0.664832 0.0244754 0.
0.666999 0.0243933 0.
0.669281 0.0241116 0.
0.671566 0.0238301 0.
0.673899 0.0235371 0.
0.676297 0.0231956 0.
0.678702 0.0228462 0.
0.681208 0.022397 0.
0.683734 0.0219505 0.
0.686306 0.0214201 0.
0.688927 0.020805 0.
0.691597 0.0201687 0.
0.694315 0.0194791 0.
0.697062 0.0187089 0.
0.699855 0.0178903 0.
0.702673 0.0170065 0.
0.705533 0.0160641 0.
0.708417 0.0152724 0.
0.489618 0.0164582 0.
0.492363 0.0171725 0.
0.495145 0.0181149 0.
0.497924 0.019121 0.
0.500685 0.020039 0.
0.503423 0.02088 0.
0.506113 0.0216526 0.
0.508766 0.0223442 0.
0.511379 0.0229566 0.
0.513955 0.0235304 0.
0.516484 0.0240282 0.
0.518967 0.0244592 0.
0.521432 0.0248898 0.
0.523809 0.02522 0.
0.526179 0.0255508 0.
0.528488 0.0258319 0.
0.530751 0.0260997 0.
0.533012 0.0263646 0.
0.535172 0.0264523 0.
0.53733 0.0265347 0.
0.539468 0.0266149 0.
0.541564 0.02669 0.
0.543661 0.0267656 0.
0.545729 0.0268187 0.
0.547785 0.0268613 0.
0.54984 0.0269042 0.
0.551865 0.0269236 0.
0.553888 0.0269417 0.
0.555909 0.0269581 0.
0.557923 0.0269666 0.
0.559936 0.0269752 0.
0.561946 0.0269818 0.
0.563953 0.0269858 0.
0.56596 0.0269898 0.
0.567965 0.0269926 0.
0.569969 0.0269948 0.
0.571973 0.0269969 0.
0.573975 0.0269984 0.
0.575977 0.0269999 0.
0.577979 0.0270012 0.
0.579981 0.0270022 0.
0.581984 0.0270032 0.
0.583986 0.0270041 0.
0.585988 0.027005 0.
0.58799 0.0270059 0.
0.589992 0.0270066 0.
0.591994 0.0270071 0.
0.593996 0.0270076 0.
0.595997 0.0270082 0.
0.597999 0.0270088 0.
0.6 0.0270095 0.
0.602002 0.027009 0.
0.604003 0.0270085 0.
0.606005 0.0270078 0.
0.608007 0.0270068 0.
0.610009 0.0270057 0.
0.612011 0.0270047 0.
0.614013 0.0270038 0.
0.616015 0.0270029 0.
0.618018 0.027002 0.
0.62002 0.027001 0.
0.622022 0.0270001 0.
0.624024 0.0269984 0.
0.626026 0.0269966 0.
0.628029 0.0269947 0.
0.630033 0.026992 0.
0.632038 0.0269893 0.
0.634044 0.0269857 0.
0.636053 0.0269804 0.
0.638061 0.0269753 0.
0.640074 0.0269669 0.
0.642091 0.0269562 0.
0.644108 0.0269456 0.
0.646135 0.0269237 0.
0.648164 0.0268993 0.
0.650197 0.0268729 0.
0.652269 0.0268172 0.
0.654341 0.0267621 0.
0.656428 0.0266942 0.
0.658546 0.0266013 0.
0.660662 0.0265089 0.
0.662831 0.0264074 0.
0.665023 0.0263036 0.
0.667222 0.0261848 0.
0.66952 0.0258723 0.
0.671818 0.0255583 0.
0.674175 0.025219 0.
0.676585 0.0248405 0.
0.679008 0.0244486 0.
0.681517 0.0239669 0.
0.684046 0.0234833 0.
0.686617 0.0229148 0.
0.689227 0.0222767 0.
0.691883 0.021613 0.
0.69457 0.0209046 0.
0.697291 0.0201241 0.
0.700048 0.0193007 0.
0.70281 0.018431 0.
0.705605 0.0175448 0.
0.70841 0.0168218 0.
0.489715 0.0181158 0.
0.492369 0.0187503 0.
0.495078 0.0196204 0.
0.497795 0.0205766 0.
0.500501 0.0214778 0.
0.50319 0.0223191 0.
0.505846 0.0231051 0.
0.508479 0.0238175 0.
0.511085 0.0244615 0.
0.513654 0.0250577 0.
0.516183 0.0255852 0.
0.518664 0.0260425 0.
0.521129 0.0265006 0.
0.523517 0.0268715 0.
0.525894 0.0272386 0.
0.528224 0.0275643 0.
0.530505 0.0278654 0.
0.532784 0.0281652 0.
0.534983 0.0282917 0.
0.537178 0.0284061 0.
0.53935 0.0285143 0.
0.541462 0.0286021 0.
0.543574 0.0286904 0.
0.545659 0.0287569 0.
0.547729 0.0288126 0.
0.5498 0.0288686 0.
0.551832 0.0288954 0.
0.553862 0.02892 0.
0.555889 0.0289423 0.
0.557906 0.0289534 0.
0.559924 0.0289645 0.
0.561937 0.0289735 0.
0.563946 0.0289793 0.
0.565955 0.0289851 0.
0.567961 0.0289891 0.
0.569966 0.028992 0.
0.571971 0.0289949 0.
0.573973 0.0289968 0.
0.575975 0.0289985 0.
0.577977 0.0290001 0.
0.579979 0.0290011 0.
0.581982 0.0290021 0.
0.583984 0.0290031 0.
0.585987 0.0290042 0.
0.587989 0.0290052 0.
0.589992 0.029006 0.
0.591993 0.0290067 0.
0.593995 0.0290073 0.
0.595997 0.029008 0.
0.597999 0.0290087 0.
0.6 0.0290094 0.
0.602002 0.0290087 0.
0.604004 0.0290079 0.
0.606005 0.0290071 0.
0.608008 0.0290061 0.
0.61001 0.0290051 0.
0.612012 0.029004 0.
0.614014 0.0290029 0.
0.616017 0.0290018 0.
0.618019 0.0290007 0.
0.620022 0.0289997 0.
0.622025 0.0289987 0.
0.624027 0.0289965 0.
0.626029 0.0289943 0.
0.628032 0.0289919 0.
0.630038 0.0289883 0.
0.632043 0.0289847 0.
0.63405 0.0289797 0.
0.636061 0.0289722 0.
0.638072 0.0289646 0.
0.64009 0.0289534 0.
0.642111 0.0289395 0.
0.644133 0.0289256 0.
0.646169 0.0288961 0.
0.648207 0.0288633 0.
0.650249 0.0288273 0.
0.65234 0.0287549 0.
0.65443 0.0286831 0.
0.656536 0.0285995 0.
0.658671 0.0284937 0.
0.660805 0.0283886 0.
0.663007 0.0282533 0.
0.66523 0.0281121 0.
0.667465 0.027948 0.
0.669783 0.0276038 0.
0.672098 0.0272593 0.
0.674475 0.0268722 0.
0.676889 0.0264558 0.
0.67932 0.0260258 0.
0.681823 0.0255202 0.
0.684344 0.0250087 0.
0.686905 0.0244144 0.
0.689498 0.0237605 0.
0.692132 0.0230777 0.
0.694787 0.0223548 0.
0.697465 0.021573 0.
0.700174 0.0207565 0.
0.702884 0.019917 0.
0.705611 0.0190981 0.
0.708328 0.0184515 0.
0.48983 0.019822 0.
0.492398 0.0203844 0.
0.495034 0.021175 0.
0.497685 0.0220652 0.
0.500336 0.022941 0.
0.502985 0.0237803 0.
0.505615 0.0245757 0.
0.50823 0.025302 0.
0.510817 0.0259664 0.
0.513367 0.0265786 0.
0.515889 0.0271333 0.
0.518367 0.0276224 0.
0.520832 0.0281096 0.
0.523233 0.0285184 0.
0.525618 0.028921 0.
0.527968 0.0292925 0.
0.530266 0.0296249 0.
0.532565 0.0299546 0.
0.5348 0.0301174 0.
0.537028 0.0302649 0.
0.539231 0.0304048 0.
0.541356 0.0305039 0.
0.543483 0.0306034 0.
0.545582 0.0306835 0.
0.547667 0.0307538 0.
0.549753 0.030825 0.
0.551794 0.0308605 0.
0.553831 0.0308929 0.
0.555865 0.0309222 0.
0.557886 0.0309365 0.
0.559908 0.0309509 0.
0.561925 0.0309626 0.
0.563937 0.0309706 0.
0.565948 0.0309786 0.
0.567956 0.0309841 0.
0.569961 0.0309882 0.
0.571967 0.0309923 0.
0.57397 0.0309946 0.
0.575972 0.0309966 0.
0.577975 0.0309986 0.
0.579978 0.0309996 0.
0.58198 0.0310007 0.
0.583983 0.0310018 0.
0.585986 0.031003 0.
0.587988 0.0310041 0.
0.589991 0.0310051 0.
0.591993 0.0310058 0.
0.593995 0.0310065 0.
0.595996 0.0310073 0.
0.597998 0.031008 0.
0.6 0.0310087 0.
0.602002 0.0310078 0.
0.604004 0.031007 0.
0.606006 0.0310061 0.
0.608008 0.031005 0.
0.610011 0.031004 0.
0.612013 0.0310029 0.
0.614016 0.0310017 0.
0.616018 0.0310005 0.
0.618021 0.0309993 0.
0.620024 0.030998 0.
0.622027 0.0309967 0.
0.62403 0.0309941 0.
0.626033 0.0309914 0.
0.628036 0.0309884 0.
0.630043 0.0309834 0.
0.63205 0.0309784 0.
0.634059 0.0309715 0.
0.636073 0.0309612 0.
0.638087 0.0309509 0.
0.640109 0.0309361 0.
0.642137 0.0309181 0.
0.644164 0.0309002 0.
0.646208 0.0308617 0.
0.648255 0.0308194 0.
0.650309 0.0307722 0.
0.652416 0.0306813 0.
0.654522 0.0305917 0.
0.656645 0.0304928 0.
0.658796 0.0303761 0.
0.660946 0.03026 0.
0.663178 0.0300879 0.
0.66543 0.0299099 0.
0.6677 0.0297036 0.
0.670038 0.0293307 0.
0.672372 0.0289564 0.
0.674767 0.0285203 0.
0.677187 0.0280665 0.
0.679625 0.0276006 0.
0.68212 0.0270714 0.
0.684631 0.0265306 0.
0.687175 0.0259162 0.
0.689744 0.0252521 0.
0.692349 0.0245572 0.
0.694976 0.0238233 0.
0.697619 0.0230434 0.
0.700279 0.0222401 0.
0.702928 0.0214462 0.
0.705584 0.0207058 0.
0.708215 0.0201377 0.
0.489933 0.0215741 0.
0.492425 0.0220621 0.
0.494995 0.0227719 0.
0.497593 0.0235986 0.
0.500205 0.0244471 0.
0.502826 0.0252798 0.
0.505429 0.026075 0.
0.508016 0.0268073 0.
0.510581 0.0274863 0.
0.513117 0.0281131 0.
0.515634 0.0286908 0.
0.518114 0.0292058 0.
0.520583 0.0297149 0.
0.523 0.030156 0.
0.525397 0.0305883 0.
0.527765 0.0309955 0.
0.530079 0.0313452 0.
0.532394 0.0316927 0.
0.534645 0.0318985 0.
0.536885 0.0320925 0.
0.539104 0.0322768 0.
0.541243 0.0323868 0.
0.543382 0.0324974 0.
0.545497 0.0325929 0.
0.547597 0.0326816 0.
0.549698 0.0327714 0.
0.551748 0.0328179 0.
0.553794 0.0328594 0.
0.555836 0.0328973 0.
0.557863 0.0329156 0.
0.559889 0.0329339 0.
0.561911 0.0329491 0.
0.563925 0.0329596 0.
0.565939 0.0329702 0.
0.567949 0.0329776 0.
0.569956 0.0329834 0.
0.571963 0.0329891 0.
0.573967 0.0329919 0.
0.57597 0.0329942 0.
0.577973 0.0329965 0.
0.579976 0.0329977 0.
0.581979 0.032999 0.
0.583982 0.0330002 0.
0.585985 0.0330015 0.
0.587987 0.0330027 0.
0.58999 0.0330037 0.
0.591992 0.0330046 0.
0.593994 0.0330054 0.
0.595996 0.0330061 0.
0.597998 0.0330067 0.
0.6 0.0330074 0.
0.602002 0.0330065 0.
0.604005 0.0330056 0.
0.606007 0.0330047 0.
0.608009 0.0330036 0.
0.610011 0.0330025 0.
0.612014 0.0330013 0.
0.614017 0.0330002 0.
0.616019 0.032999 0.
0.618022 0.0329976 0.
0.620026 0.0329959 0.
0.622029 0.0329943 0.
0.624033 0.0329912 0.
0.626037 0.0329879 0.
0.628041 0.0329842 0.
0.630049 0.0329773 0.
0.632058 0.0329704 0.
0.63407 0.032961 0.
0.636088 0.0329474 0.
0.638106 0.0329338 0.
0.640133 0.0329146 0.
0.642167 0.0328916 0.
0.6442 0.0328687 0.
0.646255 0.0328194 0.
0.648313 0.0327658 0.
0.650379 0.0327048 0.
0.652498 0.0325917 0.
0.654617 0.0324801 0.
0.656756 0.0323642 0.
0.658922 0.0322363 0.
0.661087 0.0321092 0.
0.663339 0.0318868 0.
0.665606 0.0316591 0.
0.667894 0.0314087 0.
0.670244 0.0310189 0.
0.672594 0.0306257 0.
0.675002 0.0301587 0.
0.677434 0.0296742 0.
0.679883 0.0291793 0.
0.682375 0.0286317 0.
0.68488 0.0280663 0.
0.687413 0.0274353 0.
0.689963 0.0267631 0.
0.692539 0.0260655 0.
0.695133 0.0253285 0.
0.697742 0.0245527 0.
0.700364 0.0237658 0.
0.702965 0.0230197 0.
0.70556 0.0223545 0.
0.708114 0.0218615 0.
0.490058 0.0233623 0.
0.492492 0.0237835 0.
0.495004 0.0244186 0.
0.497555 0.0251836 0.
0.500125 0.0259937 0.
0.502707 0.0268076 0.
0.505276 0.0275953 0.
0.507835 0.028331 0.
0.51038 0.029022 0.
0.512906 0.0296601 0.
0.515417 0.0302532 0.
0.517895 0.030789 0.
0.520359 0.0313172 0.
0.522782 0.031787 0.
0.525185 0.0322465 0.
0.527564 0.03269 0.
0.529892 0.0330614 0.
0.532221 0.0334296 0.
0.534488 0.0336752 0.
0.53674 0.0339159 0.
0.538977 0.0341483 0.
0.541128 0.0342694 0.
0.543281 0.0343911 0.
0.545411 0.0345014 0.
0.547526 0.0346087 0.
0.549642 0.0347172 0.
0.551703 0.034775 0.
0.553756 0.0348258 0.
0.555807 0.0348724 0.
0.557838 0.0348946 0.
0.55987 0.0349169 0.
0.561896 0.0349355 0.
0.563913 0.0349486 0.
0.56593 0.0349618 0.
0.567942 0.0349712 0.
0.569951 0.0349785 0.
0.571959 0.0349858 0.
0.573964 0.0349891 0.
0.575967 0.0349918 0.
0.577971 0.0349944 0.
0.579974 0.0349958 0.
0.581977 0.0349973 0.
0.583981 0.0349987 0.
0.585983 0.035 0.
0.587986 0.0350013 0.
0.589989 0.0350024 0.
0.591991 0.0350033 0.
0.593993 0.0350043 0.
0.595995 0.0350049 0.
0.597998 0.0350055 0.
0.6 0.035006 0.
0.602002 0.0350051 0.
0.604005 0.0350042 0.
0.606008 0.0350033 0.
0.60801 0.0350021 0.
0.610012 0.035001 0.
0.612015 0.0349998 0.
0.614018 0.0349987 0.
0.616021 0.0349975 0.
0.618024 0.0349958 0.
0.620028 0.0349939 0.
0.622031 0.0349919 0.
0.624036 0.0349883 0.
0.626041 0.0349845 0.
0.628046 0.03498 0.
0.630056 0.0349712 0.
0.632066 0.0349623 0.
0.63408 0.0349505 0.
0.636102 0.0349336 0.
0.638124 0.0349167 0.
0.640157 0.0348931 0.
0.642197 0.034865 0.
0.644237 0.034837 0.
0.646302 0.0347769 0.
0.648371 0.0347118 0.
0.650449 0.0346365 0.
0.652582 0.034501 0.
0.654713 0.0343673 0.
0.656868 0.0342351 0.
0.659049 0.034096 0.
0.661229 0.0339568 0.
0.663502 0.0336809 0.
0.665785 0.0334032 0.
0.66809 0.033109 0.
0.67045 0.0326954 0.
0.672811 0.0322752 0.
0.675222 0.0317818 0.
0.677653 0.0312777 0.
0.680105 0.0307616 0.
0.682591 0.0302007 0.
0.685092 0.0296159 0.
0.687616 0.0289717 0.
0.690149 0.0282923 0.
0.692699 0.0275938 0.
0.69526 0.026862 0.
0.697829 0.0261027 0.
0.700405 0.0253398 0.
0.702959 0.0246397 0.
0.705501 0.0240399 0.
0.70799 0.0236096 0.
0.490221 0.0251639 0.
0.492605 0.0255383 0.
0.495063 0.0261121 0.
0.497562 0.0268097 0.
0.500087 0.0275733 0.
0.50263 0.028366 0.
0.505169 0.0291457 0.
0.507703 0.0298819 0.
0.510229 0.0305783 0.
0.512737 0.0312236 0.
0.515232 0.0318269 0.
0.517698 0.032381 0.
0.520152 0.0329267 0.
0.522576 0.0334222 0.
0.52498 0.0339072 0.
0.527365 0.0343825 0.
0.529702 0.0347727 0.
0.532038 0.0351545 0.
0.534316 0.0354342 0.
0.536574 0.0357143 0.
0.538822 0.0359883 0.
0.540987 0.03612 0.
0.543154 0.0362526 0.
0.5453 0.0363781 0.
0.547428 0.036504 0.
0.549558 0.0366315 0.
0.551633 0.0367056 0.
0.5537 0.036771 0.
0.555764 0.0368315 0.
0.557801 0.0368587 0.
0.559839 0.0368859 0.
0.561871 0.0369095 0.
0.563893 0.0369278 0.
0.565916 0.036946 0.
0.567931 0.0369589 0.
0.569942 0.0369686 0.
0.571953 0.0369784 0.
0.573958 0.036983 0.
0.575963 0.0369869 0.
0.577968 0.0369906 0.
0.579972 0.0369926 0.
0.581976 0.0369947 0.
0.583979 0.0369966 0.
0.585982 0.0369982 0.
0.587986 0.0369998 0.
0.589988 0.0370011 0.
0.591991 0.0370022 0.
0.593993 0.0370033 0.
0.595995 0.0370038 0.
0.597998 0.0370043 0.
0.6 0.0370047 0.
0.602002 0.0370038 0.
0.604005 0.0370029 0.
0.606008 0.037002 0.
0.60801 0.0370007 0.
0.610013 0.0369995 0.
0.612015 0.0369981 0.
0.614019 0.0369965 0.
0.616022 0.0369949 0.
0.618026 0.0369926 0.
0.62003 0.0369899 0.
0.622035 0.0369872 0.
0.624041 0.0369822 0.
0.626047 0.036977 0.
0.628054 0.0369708 0.
0.630067 0.0369588 0.
0.63208 0.0369468 0.
0.634099 0.0369305 0.
0.636128 0.036907 0.
0.638156 0.0368835 0.
0.640196 0.0368541 0.
0.642243 0.0368207 0.
0.64429 0.0367875 0.
0.646371 0.0367096 0.
0.648455 0.0366265 0.
0.650548 0.0365322 0.
0.652693 0.0363798 0.
0.654836 0.0362287 0.
0.657007 0.0360782 0.
0.659201 0.0359238 0.
0.661396 0.0357672 0.
0.663679 0.0354522 0.
0.665972 0.0351339 0.
0.668289 0.0348018 0.
0.670654 0.0343701 0.
0.673022 0.0339277 0.
0.67543 0.0334115 0.
0.677856 0.0328886 0.
0.680304 0.032354 0.
0.682775 0.0317819 0.
0.685258 0.0311841 0.
0.687765 0.0305333 0.
0.690284 0.0298497 0.
0.692811 0.0291507 0.
0.695342 0.0284259 0.
0.697871 0.0276854 0.
0.700401 0.0269526 0.
0.702904 0.0263022 0.
0.705392 0.0257641 0.
0.707829 0.0253828 0.
0.490408 0.0269892 0.
0.492743 0.0273251 0.
0.49515 0.0278426 0.
0.497601 0.0284767 0.
0.500085 0.0291941 0.
0.502594 0.0299633 0.
0.505104 0.0307286 0.
0.50761 0.0314591 0.
0.510109 0.0321545 0.
0.512594 0.032804 0.
0.51507 0.0334145 0.
0.517522 0.0339824 0.
0.519965 0.0345411 0.
0.522382 0.0350571 0.
0.52478 0.0355568 0.
0.527161 0.0360458 0.
0.529499 0.0364602 0.
0.531834 0.0368664 0.
0.534123 0.0371798 0.
0.536389 0.037494 0.
0.538648 0.0378059 0.
0.540833 0.0379566 0.
0.543018 0.0381042 0.
0.545182 0.0382474 0.
0.547325 0.0383935 0.
0.549469 0.0385413 0.
0.551561 0.0386333 0.
0.553642 0.0387143 0.
0.55572 0.0387899 0.
0.557764 0.0388221 0.
0.559808 0.0388544 0.
0.561845 0.0388832 0.
0.563873 0.0389066 0.
0.565901 0.0389302 0.
0.56792 0.0389465 0.
0.569933 0.0389587 0.
0.571946 0.038971 0.
0.573953 0.0389769 0.
0.575959 0.038982 0.
0.577965 0.0389868 0.
0.57997 0.0389895 0.
0.581974 0.0389922 0.
0.583978 0.0389946 0.
0.585982 0.0389964 0.
0.587985 0.0389983 0.
0.589988 0.0389998 0.
0.59199 0.039001 0.
0.593993 0.0390022 0.
0.595995 0.0390027 0.
0.597998 0.039003 0.
0.6 0.0390033 0.
0.602002 0.0390025 0.
0.604005 0.0390016 0.
0.606007 0.0390006 0.
0.60801 0.0389994 0.
0.610013 0.0389981 0.
0.612016 0.0389964 0.
0.61402 0.0389944 0.
0.616023 0.0389923 0.
0.618028 0.0389893 0.
0.620033 0.0389859 0.
0.622038 0.0389825 0.
0.624046 0.0389761 0.
0.626053 0.0389694 0.
0.628062 0.0389616 0.
0.630079 0.0389464 0.
0.632095 0.0389312 0.
0.634118 0.0389103 0.
0.636154 0.03888 0.
0.638189 0.0388498 0.
0.640236 0.0388143 0.
0.64229 0.0387755 0.
0.644344 0.0387369 0.
0.646442 0.0386396 0.
0.648542 0.0385368 0.
0.650653 0.0384218 0.
0.652811 0.0382519 0.
0.654969 0.0380835 0.
0.657158 0.0379096 0.
0.659369 0.0377313 0.
0.661583 0.0375454 0.
0.663874 0.0371975 0.
0.666172 0.0368486 0.
0.668495 0.0364851 0.
0.670857 0.0360339 0.
0.673223 0.0355692 0.
0.675626 0.0350407 0.
0.678041 0.0345059 0.
0.680478 0.0339571 0.
0.682933 0.0333763 0.
0.685397 0.0327685 0.
0.687881 0.0321155 0.
0.690374 0.0314342 0.
0.692876 0.0307401 0.
0.69538 0.0300255 0.
0.697876 0.0293062 0.
0.700365 0.0286058 0.
0.702821 0.0280037 0.
0.705257 0.0275201 0.
0.707649 0.0271795 0.
0.490592 0.0288349 0.
0.492888 0.0291354 0.
0.49525 0.0296014 0.
0.497658 0.0301784 0.
0.500104 0.030851 0.
0.502577 0.0315886 0.
0.505055 0.032332 0.
0.507532 0.0330537 0.
0.510006 0.0337468 0.
0.512469 0.034399 0.
0.514924 0.0350156 0.
0.517362 0.035594 0.
0.51979 0.0361605 0.
0.522196 0.0366905 0.
0.524584 0.0372007 0.
0.526961 0.0377038 0.
0.5293 0.0381457 0.
0.531636 0.0385762 0.
0.533935 0.0389227 0.
0.53621 0.039271 0.
0.538478 0.0396194 0.
0.540683 0.0397902 0.
0.542887 0.0399513 0.
0.54507 0.0401111 0.
0.547225 0.0402753 0.
0.549381 0.0404411 0.
0.551487 0.0405517 0.
0.553581 0.0406503 0.
0.555672 0.0407437 0.
0.557722 0.0407807 0.
0.559772 0.0408178 0.
0.561816 0.0408518 0.
0.56385 0.0408811 0.
0.565883 0.0409106 0.
0.567906 0.0409311 0.
0.569922 0.0409464 0.
0.571938 0.0409617 0.
0.573946 0.0409693 0.
0.575954 0.0409758 0.
0.577962 0.040982 0.
0.579967 0.0409854 0.
0.581972 0.0409889 0.
0.583977 0.0409919 0.
0.58598 0.0409941 0.
0.587984 0.0409963 0.
0.589987 0.040998 0.
0.59199 0.0409994 0.
0.593993 0.0410007 0.
0.595995 0.0410012 0.
0.597998 0.0410015 0.
0.6 0.0410018 0.
0.602003 0.0410009 0.
0.604005 0.041 0.
0.606008 0.040999 0.
0.608011 0.0409976 0.
0.610014 0.0409961 0.
0.612017 0.0409942 0.
0.614021 0.0409916 0.
0.616025 0.040989 0.
0.618031 0.0409852 0.
0.620037 0.0409809 0.
0.622043 0.0409766 0.
0.624052 0.0409684 0.
0.626062 0.0409599 0.
0.628073 0.0409499 0.
0.630093 0.0409308 0.
0.632113 0.0409117 0.
0.634141 0.0408856 0.
0.636183 0.0408479 0.
0.638225 0.0408104 0.
0.640279 0.0407689 0.
0.64234 0.0407248 0.
0.644401 0.0406808 0.
0.646513 0.0405617 0.
0.648629 0.0404379 0.
0.650755 0.0403026 0.
0.652926 0.0401178 0.
0.655096 0.0399347 0.
0.657304 0.039737 0.
0.659533 0.0395356 0.
0.661766 0.0393212 0.
0.664063 0.0389412 0.
0.666366 0.0385615 0.
0.668695 0.0381673 0.
0.671053 0.037697 0.
0.673415 0.0372104 0.
0.675808 0.0366708 0.
0.67821 0.0361275 0.
0.680634 0.0355699 0.
0.683075 0.0349834 0.
0.685522 0.0343676 0.
0.687983 0.033713 0.
0.69045 0.033035 0.
0.692923 0.0323486 0.
0.695397 0.03165 0.
0.697862 0.0309588 0.
0.700315 0.0302953 0.
0.702729 0.0297362 0.
0.705119 0.029298 0.
0.707468 0.0289911 0.
0.490758 0.0306933 0.
0.493025 0.0309628 0.
0.495352 0.0313829 0.
0.49772 0.0319067 0.
0.500128 0.0325347 0.
0.502567 0.0332404 0.
0.505013 0.0339621 0.
0.507465 0.0346748 0.
0.509916 0.035364 0.
0.512359 0.0360168 0.
0.514795 0.0366352 0.
0.517218 0.0372192 0.
0.519633 0.0377918 0.
0.522032 0.0383351 0.
0.524416 0.038855 0.
0.526792 0.0393689 0.
0.529133 0.0398323 0.
0.531471 0.0402822 0.
0.533777 0.0406543 0.
0.536058 0.0410225 0.
0.538334 0.0413873 0.
0.540554 0.0415855 0.
0.542771 0.0417715 0.
0.544967 0.0419554 0.
0.547128 0.0421365 0.
0.549291 0.0423194 0.
0.551409 0.0424528 0.
0.553516 0.0425747 0.
0.55562 0.0426913 0.
0.557676 0.042733 0.
0.559733 0.0427748 0.
0.561782 0.0428142 0.
0.563822 0.0428504 0.
0.565861 0.0428868 0.
0.567888 0.0429124 0.
0.569908 0.0429314 0.
0.571927 0.0429504 0.
0.573938 0.0429601 0.
0.575947 0.0429683 0.
0.577957 0.0429762 0.
0.579963 0.0429805 0.
0.581969 0.0429848 0.
0.583975 0.0429886 0.
0.585979 0.0429912 0.
0.587983 0.0429938 0.
0.589986 0.0429957 0.
0.591989 0.0429972 0.
0.593992 0.0429987 0.
0.595995 0.0429994 0.
0.597997 0.0429998 0.
0.6 0.0430001 0.
0.602003 0.0429991 0.
0.604005 0.0429982 0.
0.606008 0.042997 0.
0.608011 0.0429954 0.
0.610015 0.0429938 0.
0.612018 0.0429914 0.
0.614023 0.0429882 0.
0.616028 0.042985 0.
0.618034 0.0429802 0.
0.620042 0.0429748 0.
0.62205 0.0429694 0.
0.624061 0.0429591 0.
0.626072 0.0429482 0.
0.628086 0.0429356 0.
0.630111 0.0429118 0.
0.632135 0.042888 0.
0.634169 0.0428556 0.
0.636218 0.0428097 0.
0.638266 0.0427639 0.
0.640327 0.042716 0.
0.642394 0.0426663 0.
0.644462 0.0426166 0.
0.646588 0.0424701 0.
0.648716 0.0423196 0.
0.650855 0.0421597 0.
0.653036 0.0419588 0.
0.655214 0.0417598 0.
0.657435 0.0415366 0.
0.659675 0.0413091 0.
0.66192 0.0410663 0.
0.664222 0.0406697 0.
0.666529 0.0402704 0.
0.668863 0.0398515 0.
0.671219 0.0393652 0.
0.673581 0.0388609 0.
0.675968 0.0383121 0.
0.678362 0.037761 0.
0.680773 0.0371958 0.
0.683198 0.0366067 0.
0.685629 0.035988 0.
0.68807 0.0353346 0.
0.690515 0.03466 0.
0.692964 0.0339826 0.
0.695409 0.0333011 0.
0.697842 0.0326385 0.
0.700261 0.0320109 0.
0.702637 0.0314927 0.
0.704986 0.031096 0.
0.7073 0.0308181 0.
0.490931 0.0325572 0.
0.493177 0.0328015 0.
0.495473 0.0331842 0.
0.497806 0.0336634 0.
0.500177 0.0342508 0.
0.502581 0.0349251 0.
0.504996 0.035623 0.
0.507422 0.0363206 0.
0.509848 0.0370006 0.
0.512268 0.0376506 0.
0.514685 0.0382692 0.
0.517093 0.0388576 0.
0.519497 0.0394354 0.
0.521889 0.0399885 0.
0.524268 0.040515 0.
0.526638 0.0410373 0.
0.528977 0.0415186 0.
0.53131 0.0419855 0.
0.533619 0.0423808 0.
0.535906 0.0427672 0.
0.53819 0.0431505 0.
0.540423 0.0433778 0.
0.542653 0.0435897 0.
0.544863 0.0437989 0.
0.547032 0.043997 0.
0.549201 0.044197 0.
0.551331 0.0443528 0.
0.55345 0.0444981 0.
0.555568 0.0446388 0.
0.55763 0.0446852 0.
0.559693 0.0447317 0.
0.561749 0.0447765 0.
0.563794 0.0448196 0.
0.565839 0.044863 0.
0.567871 0.0448936 0.
0.569894 0.0449163 0.
0.571917 0.0449391 0.
0.57393 0.0449508 0.
0.575941 0.0449608 0.
0.577952 0.0449703 0.
0.579959 0.0449756 0.
0.581966 0.0449808 0.
0.583973 0.0449853 0.
0.585977 0.0449883 0.
0.587982 0.0449912 0.
0.589985 0.0449935 0.
0.591988 0.0449951 0.
0.593992 0.0449967 0.
0.595994 0.0449975 0.
0.597997 0.044998 0.
0.6 0.0449985 0.
0.602003 0.0449974 0.
0.604006 0.0449963 0.
0.606009 0.044995 0.
0.608012 0.0449932 0.
0.610015 0.0449914 0.
0.61202 0.0449886 0.
0.614025 0.0449848 0.
0.61603 0.0449809 0.
0.618038 0.0449753 0.
0.620047 0.0449687 0.
0.622056 0.0449622 0.
0.624069 0.0449497 0.
0.626083 0.0449366 0.
0.628099 0.0449212 0.
0.630128 0.0448927 0.
0.632157 0.0448643 0.
0.634197 0.0448255 0.
0.636252 0.0447712 0.
0.638306 0.0447172 0.
0.640374 0.044663 0.
0.642449 0.0446076 0.
0.644523 0.0445517 0.
0.646663 0.0443774 0.
0.648803 0.0442001 0.
0.650956 0.0440161 0.
0.653145 0.043799 0.
0.655333 0.043584 0.
0.657566 0.0433327 0.
0.659817 0.043078 0.
0.662073 0.0428064 0.
0.664377 0.0423927 0.
0.666685 0.0419764 0.
0.669018 0.0415359 0.
0.671369 0.0410364 0.
0.673727 0.0405178 0.
0.676108 0.0399618 0.
0.678495 0.0394051 0.
0.680896 0.0388347 0.
0.683304 0.0382439 0.
0.685717 0.0376243 0.
0.688136 0.0369758 0.
0.690556 0.03631 0.
0.692978 0.0356449 0.
0.695395 0.0349823 0.
0.697795 0.0343484 0.
0.700178 0.0337544 0.
0.70252 0.0332717 0.
0.704835 0.0329102 0.
0.707121 0.0326566 0.
0.491119 0.0344256 0.
0.493346 0.0346507 0.
0.495615 0.0350026 0.
0.497916 0.0354455 0.
0.500254 0.0359992 0.
0.502623 0.0366399 0.
0.505005 0.0373096 0.
0.507404 0.0379897 0.
0.509807 0.0386586 0.
0.512207 0.0393049 0.
0.514607 0.0399235 0.
0.517001 0.0405143 0.
0.51939 0.0410933 0.
0.52177 0.041651 0.
0.524138 0.0421834 0.
0.526497 0.0427132 0.
0.52883 0.0432098 0.
0.531157 0.043692 0.
0.533466 0.0441096 0.
0.535757 0.0445116 0.
0.538045 0.0449098 0.
0.540288 0.0451633 0.
0.542526 0.0454001 0.
0.544745 0.0456336 0.
0.546917 0.0458427 0.
0.549089 0.046053 0.
0.551229 0.0462275 0.
0.553359 0.0463934 0.
0.555489 0.0465556 0.
0.557563 0.0466121 0.
0.559636 0.0466687 0.
0.561702 0.046723 0.
0.563754 0.0467738 0.
0.565805 0.0468248 0.
0.567843 0.0468622 0.
0.569871 0.0468906 0.
0.5719 0.0469191 0.
0.573916 0.0469345 0.
0.57593 0.0469478 0.
0.577944 0.0469604 0.
0.579952 0.0469671 0.
0.581961 0.0469739 0.
0.583969 0.0469797 0.
0.585974 0.0469836 0.
0.58798 0.0469874 0.
0.589984 0.0469903 0.
0.591988 0.0469924 0.
0.593991 0.0469945 0.
0.595994 0.0469955 0.
0.597997 0.0469962 0.
0.6 0.0469969 0.
0.602003 0.0469955 0.
0.604006 0.046994 0.
0.606009 0.0469924 0.
0.608013 0.04699 0.
0.610017 0.0469875 0.
0.612022 0.0469839 0.
0.614029 0.0469789 0.
0.616035 0.0469739 0.
0.618045 0.0469666 0.
0.620056 0.0469583 0.
0.622067 0.04695 0.
0.624083 0.0469336 0.
0.626101 0.0469165 0.
0.628121 0.0468966 0.
0.630157 0.0468608 0.
0.632192 0.0468253 0.
0.634238 0.0467788 0.
0.6363 0.0467163 0.
0.638361 0.0466541 0.
0.640441 0.0465885 0.
0.642529 0.046521 0.
0.644617 0.0464515 0.
0.646765 0.0462554 0.
0.648914 0.0460568 0.
0.651075 0.0458541 0.
0.653268 0.0456271 0.
0.655461 0.0454016 0.
0.657702 0.045124 0.
0.659959 0.044843 0.
0.662222 0.044545 0.
0.664526 0.0441174 0.
0.666833 0.0436862 0.
0.669164 0.0432259 0.
0.671507 0.0427143 0.
0.673857 0.0421843 0.
0.676226 0.0416244 0.
0.678601 0.0410645 0.
0.680988 0.0404916 0.
0.683381 0.0399011 0.
0.685776 0.0392824 0.
0.688174 0.0386394 0.
0.69057 0.0379832 0.
0.692964 0.0373327 0.
0.695352 0.0366909 0.
0.697719 0.0360874 0.
0.700068 0.035527 0.
0.702377 0.0350734 0.
0.704664 0.0347397 0.
0.706924 0.0345055 0.
0.491314 0.0363013 0.
0.493525 0.0365112 0.
0.49577 0.0368367 0.
0.498042 0.0372475 0.
0.500348 0.0377708 0.
0.502687 0.0383805 0.
0.505041 0.0390241 0.
0.507416 0.0396863 0.
0.509797 0.0403425 0.
0.512177 0.0409819 0.
0.514557 0.0415968 0.
0.516932 0.0421863 0.
0.519304 0.0427644 0.
0.521669 0.0433256 0.
0.524022 0.0438624 0.
0.52637 0.0443975 0.
0.528698 0.0449065 0.
0.53102 0.0454005 0.
0.533328 0.0458343 0.
0.535617 0.0462462 0.
0.537903 0.0466544 0.
0.540149 0.0469352 0.
0.542389 0.0472 0.
0.544613 0.047461 0.
0.546789 0.04768 0.
0.548965 0.0479 0.
0.551117 0.0480933 0.
0.553261 0.048281 0.
0.555405 0.0484656 0.
0.557491 0.048535 0.
0.559577 0.0486032 0.
0.561655 0.0486682 0.
0.563712 0.0487269 0.
0.565771 0.0487858 0.
0.567814 0.0488301 0.
0.569849 0.0488645 0.
0.571883 0.0488989 0.
0.573902 0.0489181 0.
0.575919 0.0489346 0.
0.577935 0.0489505 0.
0.579946 0.0489587 0.
0.581956 0.0489669 0.
0.583965 0.048974 0.
0.585972 0.0489788 0.
0.587978 0.0489837 0.
0.589983 0.0489872 0.
0.591987 0.0489898 0.
0.593991 0.0489923 0.
0.595994 0.0489935 0.
0.597997 0.0489944 0.
0.6 0.0489953 0.
0.602003 0.0489935 0.
0.604007 0.0489918 0.
0.60601 0.0489898 0.
0.608014 0.0489867 0.
0.610019 0.0489836 0.
0.612025 0.0489792 0.
0.614033 0.048973 0.
0.61604 0.0489668 0.
0.618052 0.0489579 0.
0.620065 0.0489478 0.
0.622078 0.0489376 0.
0.624098 0.0489173 0.
0.626119 0.0488961 0.
0.628143 0.0488715 0.
0.630186 0.0488284 0.
0.632228 0.0487854 0.
0.634281 0.0487308 0.
0.63635 0.0486599 0.
0.638417 0.0485893 0.
0.640511 0.0485107 0.
0.642615 0.0484289 0.
0.64472 0.0483424 0.
0.646878 0.0481237 0.
0.649036 0.0479029 0.
0.651206 0.0476817 0.
0.653402 0.0474446 0.
0.655598 0.047209 0.
0.657843 0.046904 0.
0.6601 0.0465971 0.
0.662365 0.046274 0.
0.664665 0.0458372 0.
0.666968 0.0453967 0.
0.669293 0.0449234 0.
0.671629 0.0444014 0.
0.673971 0.0438614 0.
0.676328 0.0432986 0.
0.678689 0.0427375 0.
0.681058 0.042165 0.
0.683432 0.0415781 0.
0.685807 0.040964 0.
0.688184 0.0403282 0.
0.690557 0.0396821 0.
0.692926 0.039046 0.
0.695286 0.038424 0.
0.697625 0.0378479 0.
0.699945 0.0373191 0.
0.702227 0.0368924 0.
0.704487 0.0365841 0.
0.706725 0.0363668 0.
0.491499 0.0381822 0.
0.493697 0.0383781 0.
0.495923 0.0386811 0.
0.498172 0.0390649 0.
0.500453 0.0395617 0.
0.502765 0.0401438 0.
0.505095 0.0407629 0.
0.507445 0.0414033 0.
0.509801 0.0420423 0.
0.51216 0.0426726 0.
0.514521 0.0432836 0.
0.516878 0.0438721 0.
0.519234 0.0444495 0.
0.521583 0.0450126 0.
0.523923 0.0455526 0.
0.526258 0.0460912 0.
0.528578 0.0466073 0.
0.530892 0.0471092 0.
0.533196 0.0475584 0.
0.535482 0.0479809 0.
0.537765 0.0484 0.
0.540013 0.0487056 0.
0.542255 0.0489982 0.
0.544485 0.0492884 0.
0.546665 0.0495165 0.
0.548847 0.0497454 0.
0.551009 0.0499557 0.
0.553166 0.0501632 0.
0.555323 0.0503683 0.
0.557421 0.0504516 0.
0.559517 0.0505322 0.
0.561605 0.050609 0.
0.563669 0.0506751 0.
0.565733 0.0507415 0.
0.567783 0.050793 0.
0.569823 0.0508339 0.
0.571863 0.0508751 0.
0.573886 0.0508987 0.
0.575906 0.0509191 0.
0.577925 0.0509387 0.
0.579937 0.0509485 0.
0.581949 0.0509584 0.
0.58396 0.050967 0.
0.585968 0.0509729 0.
0.587975 0.0509789 0.
0.589981 0.0509833 0.
0.591985 0.0509865 0.
0.59399 0.0509896 0.
0.595994 0.0509911 0.
0.597997 0.0509921 0.
0.6 0.0509931 0.
0.602004 0.050991 0.
0.604007 0.050989 0.
0.606011 0.0509866 0.
0.608017 0.0509827 0.
0.610022 0.0509788 0.
0.612029 0.0509731 0.
0.614038 0.0509655 0.
0.616047 0.0509578 0.
0.618061 0.0509471 0.
0.620076 0.0509351 0.
0.622091 0.050923 0.
0.624115 0.0508981 0.
0.62614 0.0508722 0.
0.628169 0.0508421 0.
0.630218 0.0507908 0.
0.632267 0.0507399 0.
0.634327 0.0506771 0.
0.636402 0.0505985 0.
0.638476 0.0505202 0.
0.640581 0.0504274 0.
0.642698 0.0503304 0.
0.644817 0.0502266 0.
0.646986 0.0499883 0.
0.649154 0.0497469 0.
0.651332 0.0495085 0.
0.653532 0.049262 0.
0.655731 0.0490153 0.
0.65798 0.0486831 0.
0.660238 0.0483503 0.
0.662505 0.0480035 0.
0.6648 0.0475562 0.
0.667098 0.0471047 0.
0.669415 0.0466219 0.
0.671739 0.0460956 0.
0.67407 0.0455503 0.
0.676414 0.0449853 0.
0.67876 0.0444229 0.
0.681112 0.0438512 0.
0.683469 0.0432678 0.
0.685826 0.0426594 0.
0.688181 0.0420327 0.
0.690532 0.0414001 0.
0.692876 0.0407816 0.
0.69521 0.0401801 0.
0.697523 0.0396279 0.
0.699818 0.0391267 0.
0.702077 0.0387242 0.
0.704317 0.0384381 0.
0.706536 0.0382354 0.
0.491673 0.0400665 0.
0.49386 0.0402499 0.
0.49607 0.0405349 0.
0.498299 0.0408984 0.
0.500558 0.0413736 0.
0.502844 0.0419271 0.
0.50515 0.0425188 0.
0.507478 0.0431374 0.
0.509814 0.0437616 0.
0.512153 0.0443845 0.
0.514496 0.0449915 0.
0.516837 0.0455779 0.
0.519176 0.0461526 0.
0.521509 0.0467149 0.
0.523835 0.0472557 0.
0.526159 0.047796 0.
0.528472 0.0483182 0.
0.530781 0.0488281 0.
0.533081 0.0492908 0.
0.535366 0.0497211 0.
0.537648 0.0501475 0.
0.539898 0.0504742 0.
0.542142 0.0507897 0.
0.544375 0.0511023 0.
0.546563 0.0513365 0.
0.548754 0.0515713 0.
0.550924 0.051797 0.
0.553086 0.0520257 0.
0.555247 0.0522524 0.
0.557352 0.0523537 0.
0.559455 0.0524508 0.
0.561549 0.0525423 0.
0.56362 0.0526159 0.
0.56569 0.0526898 0.
0.567747 0.0527492 0.
0.569793 0.052798 0.
0.571839 0.0528471 0.
0.573866 0.0528759 0.
0.575889 0.0529009 0.
0.577912 0.0529249 0.
0.579926 0.0529365 0.
0.581941 0.0529481 0.
0.583954 0.0529584 0.
0.585963 0.0529658 0.
0.587971 0.0529732 0.
0.589978 0.0529787 0.
0.591984 0.0529826 0.
0.593989 0.0529866 0.
0.595993 0.0529882 0.
0.597996 0.0529893 0.
0.6 0.0529903 0.
0.602004 0.052988 0.
0.604009 0.0529857 0.
0.606013 0.0529828 0.
0.608019 0.0529778 0.
0.610026 0.0529728 0.
0.612034 0.0529658 0.
0.614045 0.0529563 0.
0.616056 0.0529469 0.
0.618072 0.0529342 0.
0.62009 0.05292 0.
0.622108 0.0529058 0.
0.624136 0.0528755 0.
0.626165 0.0528439 0.
0.628199 0.0528074 0.
0.630255 0.0527468 0.
0.632311 0.0526865 0.
0.634378 0.052615 0.
0.636459 0.0525288 0.
0.63854 0.052443 0.
0.640652 0.0523315 0.
0.642774 0.0522137 0.
0.6449 0.0520879 0.
0.647074 0.0518326 0.
0.649248 0.0515749 0.
0.651434 0.0513217 0.
0.653641 0.0510661 0.
0.655846 0.0508092 0.
0.658096 0.0504584 0.
0.660355 0.0501051 0.
0.662623 0.0497381 0.
0.664916 0.0492825 0.
0.667212 0.0488223 0.
0.669522 0.0483317 0.
0.671838 0.0478012 0.
0.674158 0.0472524 0.
0.676487 0.046688 0.
0.678818 0.0461266 0.
0.681154 0.0455572 0.
0.683494 0.0449781 0.
0.685834 0.0443745 0.
0.688171 0.0437559 0.
0.690503 0.0431352 0.
0.692825 0.0425337 0.
0.695136 0.0419543 0.
0.697425 0.0414283 0.
0.699695 0.0409531 0.
0.701934 0.0405694 0.
0.704155 0.0402998 0.
0.70636 0.0401101 0.
0.491856 0.0419523 0.
0.494034 0.0421258 0.
0.496229 0.0423968 0.
0.49844 0.0427447 0.
0.500678 0.0432009 0.
0.502943 0.0437284 0.
0.505228 0.0442952 0.
0.507534 0.0448949 0.
0.509849 0.0455057 0.
0.512169 0.0461191 0.
0.51449 0.0467187 0.
0.516811 0.0472995 0.
0.519132 0.0478692 0.
0.521451 0.0484294 0.
0.523765 0.0489698 0.
0.52608 0.0495107 0.
0.528386 0.0500385 0.
0.530688 0.0505539 0.
0.532983 0.0510242 0.
0.535262 0.0514625 0.
0.537537 0.0518977 0.
0.539787 0.0522423 0.
0.54203 0.0525772 0.
0.544264 0.0529107 0.
0.546462 0.0531536 0.
0.548661 0.0533959 0.
0.550839 0.0536374 0.
0.553005 0.0538874 0.
0.55517 0.0541357 0.
0.557283 0.0542552 0.
0.559393 0.0543687 0.
0.561494 0.0544754 0.
0.563571 0.0545565 0.
0.565647 0.054638 0.
0.56771 0.0547054 0.
0.569763 0.054762 0.
0.571815 0.0548189 0.
0.573846 0.054853 0.
0.575873 0.0548827 0.
0.577899 0.054911 0.
0.579916 0.0549244 0.
0.581932 0.0549378 0.
0.583947 0.0549497 0.
0.585957 0.0549586 0.
0.587968 0.0549674 0.
0.589976 0.054974 0.
0.591982 0.0549787 0.
0.593988 0.0549835 0.
0.595992 0.0549854 0.
0.597996 0.0549864 0.
0.6 0.0549875 0.
0.602005 0.054985 0.
0.60401 0.0549824 0.
0.606015 0.0549791 0.
0.608022 0.054973 0.
0.610029 0.0549669 0.
0.612039 0.0549584 0.
0.614052 0.0549472 0.
0.616065 0.0549359 0.
0.618084 0.0549212 0.
0.620104 0.0549049 0.
0.622125 0.0548886 0.
0.624157 0.0548528 0.
0.62619 0.0548155 0.
0.628228 0.0547725 0.
0.630292 0.0547026 0.
0.632355 0.054633 0.
0.634429 0.0545527 0.
0.636517 0.0544589 0.
0.638604 0.0543655 0.
0.640723 0.0542347 0.
0.642851 0.054096 0.
0.644984 0.0539487 0.
0.647163 0.0536762 0.
0.649343 0.0534017 0.
0.651536 0.0531326 0.
0.653749 0.0528657 0.
0.655962 0.0525952 0.
0.658211 0.0522287 0.
0.660466 0.0518605 0.
0.662731 0.0514784 0.
0.665017 0.0510151 0.
0.667306 0.050547 0.
0.669609 0.0500511 0.
0.671917 0.0495174 0.
0.674229 0.0489655 0.
0.676545 0.0484026 0.
0.678861 0.0478438 0.
0.68118 0.0472787 0.
0.683501 0.0467062 0.
0.685821 0.0461115 0.
0.688137 0.045503 0.
0.690449 0.0448933 0.
0.692753 0.0443067 0.
0.695043 0.0437463 0.
0.697309 0.0432436 0.
0.699557 0.0427925 0.
0.701778 0.0424252 0.
0.703983 0.0421679 0.
0.706176 0.0419878 0.
0.492051 0.0438308 0.
0.494221 0.0440001 0.
0.496403 0.0442635 0.
0.4986 0.0446019 0.
0.500821 0.045043 0.
0.503067 0.045549 0.
0.505331 0.0460941 0.
0.507615 0.0466738 0.
0.509907 0.0472683 0.
0.512205 0.0478702 0.
0.514505 0.0484612 0.
0.516809 0.0490373 0.
0.519113 0.0496031 0.
0.521419 0.0501612 0.
0.523723 0.0507007 0.
0.526026 0.0512403 0.
0.52832 0.0517695 0.
0.53061 0.0522864 0.
0.532895 0.0527622 0.
0.535166 0.0532088 0.
0.537434 0.053652 0.
0.539682 0.0540134 0.
0.541921 0.0543671 0.
0.544154 0.05472 0.
0.546358 0.0549709 0.
0.548562 0.0552196 0.
0.550744 0.055474 0.
0.552909 0.0557401 0.
0.555074 0.0560038 0.
0.557195 0.0561418 0.
0.559312 0.0562721 0.
0.561421 0.0563942 0.
0.563503 0.0564813 0.
0.565587 0.0565688 0.
0.567657 0.0566442 0.
0.569718 0.0567102 0.
0.571779 0.0567766 0.
0.573816 0.0568183 0.
0.575848 0.0568549 0.
0.577879 0.0568901 0.
0.579898 0.0569056 0.
0.581918 0.0569211 0.
0.583935 0.0569352 0.
0.585948 0.0569464 0.
0.587961 0.0569576 0.
0.589971 0.056966 0.
0.591978 0.056972 0.
0.593985 0.056978 0.
0.595991 0.0569804 0.
0.597996 0.0569819 0.
0.6 0.0569833 0.
0.602006 0.05698 0.
0.604012 0.0569766 0.
0.606019 0.0569722 0.
0.608027 0.0569644 0.
0.610036 0.0569566 0.
0.612049 0.0569459 0.
0.614065 0.0569317 0.
0.616081 0.0569176 0.
0.618103 0.0569004 0.
0.620126 0.0568817 0.
0.62215 0.0568631 0.
0.624189 0.0568189 0.
0.626228 0.0567732 0.
0.628274 0.056721 0.
0.630346 0.0566408 0.
0.632417 0.0565611 0.
0.634499 0.0564726 0.
0.636593 0.0563731 0.
0.638687 0.0562739 0.
0.640811 0.0561247 0.
0.642944 0.0559666 0.
0.645082 0.0557989 0.
0.647262 0.0555137 0.
0.649443 0.0552263 0.
0.65164 0.0549438 0.
0.653857 0.0546664 0.
0.656075 0.0543833 0.
0.65832 0.0540023 0.
0.660571 0.0536197 0.
0.66283 0.0532234 0.
0.665105 0.0527536 0.
0.667385 0.0522793 0.
0.669677 0.0517808 0.
0.671972 0.0512473 0.
0.674271 0.0506957 0.
0.676575 0.0501359 0.
0.678879 0.0495792 0.
0.681183 0.0490175 0.
0.683485 0.0484504 0.
0.685785 0.0478645 0.
0.688081 0.0472683 0.
0.690371 0.0466726 0.
0.692652 0.0461023 0.
0.694921 0.0455597 0.
0.69717 0.0450753 0.
0.6994 0.0446427 0.
0.701607 0.0442883 0.
0.703799 0.0440403 0.
0.705982 0.0438669 0.
0.492253 0.0457157 0.
0.494415 0.0458832 0.
0.496587 0.04614 0.
0.498771 0.0464703 0.
0.500978 0.046898 0.
0.503205 0.0473843 0.
0.505449 0.0479101 0.
0.507711 0.0484711 0.
0.509983 0.0490507 0.
0.512262 0.0496419 0.
0.514545 0.0502251 0.
0.516832 0.0507954 0.
0.51912 0.0513559 0.
0.521409 0.0519095 0.
0.523698 0.0524459 0.
0.525985 0.0529824 0.
0.528266 0.0535124 0.
0.530544 0.0540308 0.
0.532818 0.0545109 0.
0.535081 0.0549639 0.
0.53734 0.0554135 0.
0.539583 0.055787 0.
0.541818 0.056151 0.
0.544048 0.0565131 0.
0.546251 0.0567776 0.
0.548453 0.0570384 0.
0.550635 0.0573067 0.
0.552802 0.0575869 0.
0.554968 0.0578651 0.
0.557098 0.0580225 0.
0.559224 0.0581703 0.
0.561342 0.0583092 0.
0.563432 0.0584028 0.
0.565523 0.0584967 0.
0.567602 0.0585806 0.
0.569671 0.0586566 0.
0.571741 0.0587331 0.
0.573784 0.0587829 0.
0.575822 0.0588267 0.
0.577858 0.0588689 0.
0.57988 0.0588865 0.
0.581903 0.0589042 0.
0.583923 0.0589206 0.
0.585938 0.0589341 0.
0.587954 0.0589478 0.
0.589965 0.0589579 0.
0.591974 0.0589652 0.
0.593983 0.0589724 0.
0.595989 0.0589755 0.
0.597995 0.0589773 0.
0.600001 0.0589791 0.
0.602007 0.0589749 0.
0.604014 0.0589707 0.
0.606022 0.0589653 0.
0.608033 0.0589558 0.
0.610044 0.0589463 0.
0.612058 0.0589333 0.
0.614078 0.0589162 0.
0.616097 0.0588991 0.
0.618122 0.0588793 0.
0.620149 0.0588583 0.
0.622176 0.0588372 0.
0.624221 0.0587843 0.
0.626268 0.0587297 0.
0.628321 0.0586678 0.
0.630402 0.0585766 0.
0.632482 0.0584859 0.
0.634573 0.0583887 0.
0.636675 0.058283 0.
0.638776 0.0581776 0.
0.640908 0.0580089 0.
0.643046 0.0578314 0.
0.645191 0.0576436 0.
0.647372 0.0573456 0.
0.649553 0.0570455 0.
0.65175 0.0567497 0.
0.653964 0.0564613 0.
0.65618 0.0561652 0.
0.65842 0.0557765 0.
0.660665 0.0553856 0.
0.662918 0.0549789 0.
0.665183 0.0545029 0.
0.667451 0.0540233 0.
0.669731 0.053523 0.
0.672013 0.0529897 0.
0.674297 0.0524401 0.
0.676585 0.0518858 0.
0.678872 0.0513345 0.
0.68116 0.0507776 0.
0.683445 0.0502153 0.
0.685729 0.0496369 0.
0.688006 0.0490517 0.
0.690276 0.0484693 0.
0.692537 0.0479146 0.
0.694785 0.0473895 0.
0.697015 0.0469211 0.
0.699229 0.0465041 0.
0.701423 0.0461599 0.
0.703607 0.0459202 0.
0.70578 0.0457533 0.
0.492452 0.0476088 0.
0.494605 0.0477732 0.
0.496768 0.0480226 0.
0.498942 0.0483455 0.
0.501135 0.0487611 0.
0.503346 0.0492306 0.
0.505571 0.0497406 0.
0.507813 0.0502864 0.
0.510067 0.0508521 0.
0.512328 0.0514305 0.
0.514593 0.0520031 0.
0.516863 0.052566 0.
0.519134 0.0531206 0.
0.521406 0.0536693 0.
0.523679 0.0542024 0.
0.525951 0.0547359 0.
0.528219 0.0552663 0.
0.530484 0.0557847 0.
0.532748 0.0562669 0.
0.535 0.0567249 0.
0.537249 0.0571791 0.
0.539486 0.0575622 0.
0.541718 0.0579346 0.
0.543945 0.0583063 0.
0.546146 0.0585847 0.
0.548345 0.0588575 0.
0.550529 0.0591396 0.
0.552697 0.0594337 0.
0.554866 0.0597256 0.
0.557005 0.0599017 0.
0.559138 0.0600662 0.
0.561266 0.0602219 0.
0.563362 0.060321 0.
0.565459 0.0604204 0.
0.567545 0.060512 0.
0.569622 0.0605978 0.
0.571699 0.0606842 0.
0.573749 0.0607429 0.
0.575792 0.0607949 0.
0.577835 0.0608452 0.
0.57986 0.060865 0.
0.581885 0.0608847 0.
0.583908 0.0609033 0.
0.585926 0.0609195 0.
0.587944 0.0609358 0.
0.589958 0.060948 0.
0.591968 0.0609568 0.
0.593979 0.0609655 0.
0.595987 0.0609692 0.
0.597994 0.0609714 0.
0.600001 0.0609736 0.
0.602009 0.0609684 0.
0.604018 0.0609632 0.
0.606027 0.0609566 0.
0.60804 0.0609451 0.
0.610053 0.0609337 0.
0.612071 0.0609181 0.
0.614093 0.0608978 0.
0.616116 0.0608775 0.
0.618144 0.0608552 0.
0.620174 0.0608319 0.
0.622205 0.0608087 0.
0.624258 0.0607455 0.
0.626311 0.0606809 0.
0.628372 0.0606086 0.
0.63046 0.0605072 0.
0.632547 0.0604064 0.
0.634645 0.0603015 0.
0.636753 0.0601904 0.
0.638861 0.0600796 0.
0.641001 0.0598917 0.
0.643145 0.0596954 0.
0.645296 0.0594883 0.
0.647478 0.0591778 0.
0.649659 0.0588653 0.
0.651856 0.0585562 0.
0.654068 0.0582566 0.
0.656281 0.0579476 0.
0.658516 0.0575516 0.
0.660754 0.0571544 0.
0.662999 0.0567404 0.
0.665253 0.0562609 0.
0.667511 0.0557774 0.
0.669778 0.0552763 0.
0.672047 0.0547439 0.
0.674317 0.0541961 0.
0.67659 0.0536468 0.
0.67886 0.0531007 0.
0.68113 0.0525495 0.
0.683398 0.051994 0.
0.685664 0.0514251 0.
0.687925 0.050852 0.
0.690178 0.0502832 0.
0.69242 0.049742 0.
0.69465 0.0492313 0.
0.696862 0.0487759 0.
0.69906 0.0483725 0.
0.701242 0.0480373 0.
0.703415 0.0478054 0.
0.70558 0.0476454 0.
0.49264 0.0495113 0.
0.494785 0.0496713 0.
0.49694 0.0499127 0.
0.499106 0.0502273 0.
0.501287 0.0506325 0.
0.503482 0.0510885 0.
0.505691 0.051585 0.
0.507916 0.0521159 0.
0.510151 0.052668 0.
0.512394 0.0532342 0.
0.514641 0.0537972 0.
0.516894 0.0543532 0.
0.519148 0.0549023 0.
0.521404 0.0554459 0.
0.523661 0.0559751 0.
0.52592 0.0565037 0.
0.528176 0.0570317 0.
0.53043 0.0575489 0.
0.532683 0.058032 0.
0.534926 0.058494 0.
0.537167 0.0589526 0.
0.539401 0.0593447 0.
0.54163 0.0597245 0.
0.543854 0.0601037 0.
0.546053 0.0603943 0.
0.548251 0.0606771 0.
0.550436 0.0609698 0.
0.552607 0.0612716 0.
0.554778 0.0615697 0.
0.556922 0.0617636 0.
0.559061 0.0619487 0.
0.561195 0.0621251 0.
0.563295 0.0622292 0.
0.565394 0.0623336 0.
0.567485 0.0624329 0.
0.569567 0.0625296 0.
0.57165 0.062627 0.
0.573707 0.0626963 0.
0.575758 0.0627584 0.
0.577809 0.0628187 0.
0.579837 0.0628404 0.
0.581864 0.0628622 0.
0.58389 0.0628831 0.
0.585911 0.0629023 0.
0.587931 0.0629216 0.
0.589948 0.0629361 0.
0.591961 0.0629466 0.
0.593974 0.0629571 0.
0.595984 0.0629615 0.
0.597993 0.062964 0.
0.600002 0.0629666 0.
0.602012 0.0629603 0.
0.604023 0.062954 0.
0.606034 0.062946 0.
0.60805 0.0629322 0.
0.610066 0.0629185 0.
0.612087 0.0629 0.
0.614112 0.0628762 0.
0.616138 0.0628523 0.
0.618169 0.0628275 0.
0.620203 0.062802 0.
0.622237 0.0627765 0.
0.624299 0.0627009 0.
0.626361 0.0626238 0.
0.628429 0.0625392 0.
0.630521 0.0624276 0.
0.632612 0.0623167 0.
0.634713 0.0622042 0.
0.636825 0.0620875 0.
0.638936 0.061971 0.
0.641083 0.061762 0.
0.643233 0.061546 0.
0.645388 0.0613224 0.
0.64757 0.0610056 0.
0.649752 0.0606855 0.
0.651949 0.0603659 0.
0.654159 0.0600565 0.
0.656371 0.059736 0.
0.6586 0.0593338 0.
0.660834 0.0589309 0.
0.663073 0.0585101 0.
0.665317 0.0580277 0.
0.667565 0.0575418 0.
0.669821 0.0570419 0.
0.672076 0.0565128 0.
0.674333 0.0559686 0.
0.676592 0.0554245 0.
0.678848 0.0548824 0.
0.681102 0.0543366 0.
0.683353 0.0537875 0.
0.685602 0.0532278 0.
0.687844 0.0526661 0.
0.69008 0.0521105 0.
0.692306 0.0515831 0.
0.694519 0.0510859 0.
0.696716 0.050641 0.
0.698899 0.0502483 0.
0.701069 0.0499215 0.
0.703233 0.0496973 0.
0.705389 0.0495449 0.
0.492835 0.0514204 0.
0.494973 0.0515762 0.
0.49712 0.0518095 0.
0.499277 0.0521163 0.
0.501447 0.0525122 0.
0.503629 0.0529563 0.
0.505822 0.0534418 0.
0.508029 0.0539606 0.
0.510245 0.0545014 0.
0.51247 0.055057 0.
0.514699 0.0556106 0.
0.516934 0.0561581 0.
0.519171 0.0566989 0.
0.52141 0.0572351 0.
0.523653 0.0577591 0.
0.525897 0.058282 0.
0.528142 0.0588076 0.
0.530386 0.0593232 0.
0.53263 0.0598072 0.
0.534867 0.0602732 0.
0.537101 0.0607355 0.
0.539327 0.0611339 0.
0.541548 0.0615186 0.
0.543764 0.0619031 0.
0.545962 0.0622041 0.
0.548158 0.0624959 0.
0.550342 0.0627986 0.
0.552516 0.0631074 0.
0.554689 0.0634125 0.
0.556838 0.0636244 0.
0.558984 0.0638304 0.
0.561124 0.0640282 0.
0.563227 0.0641373 0.
0.56533 0.0642467 0.
0.567425 0.0643535 0.
0.569512 0.0644611 0.
0.5716 0.0645694 0.
0.573665 0.0646496 0.
0.575724 0.0647217 0.
0.577783 0.0647921 0.
0.579813 0.0648159 0.
0.581843 0.0648397 0.
0.583872 0.0648628 0.
0.585895 0.0648851 0.
0.587919 0.0649073 0.
0.589938 0.0649242 0.
0.591953 0.0649365 0.
0.593969 0.0649487 0.
0.595981 0.0649538 0.
0.597992 0.0649567 0.
0.600003 0.0649596 0.
0.602015 0.0649522 0.
0.604027 0.0649448 0.
0.606041 0.0649354 0.
0.60806 0.0649194 0.
0.610079 0.0649034 0.
0.612102 0.0648819 0.
0.614131 0.0648545 0.
0.61616 0.0648271 0.
0.618195 0.0647997 0.
0.620232 0.0647721 0.
0.622269 0.0647442 0.
0.62434 0.064656 0.
0.626411 0.0645665 0.
0.628487 0.0644695 0.
0.630582 0.0643477 0.
0.632677 0.0642267 0.
0.634782 0.0641067 0.
0.636897 0.0639844 0.
0.639012 0.0638615 0.
0.641165 0.0636312 0.
0.643321 0.0633949 0.
0.645481 0.0631545 0.
0.647663 0.0628312 0.
0.649845 0.0625045 0.
0.65204 0.0621752 0.
0.654246 0.0618577 0.
0.656455 0.0615284 0.
0.658677 0.0611223 0.
0.660903 0.060716 0.
0.663134 0.0602904 0.
0.66537 0.0598053 0.
0.667609 0.059317 0.
0.669854 0.058818 0.
0.672097 0.0582921 0.
0.674341 0.0577524 0.
0.676585 0.0572147 0.
0.678825 0.0566787 0.
0.681063 0.0561405 0.
0.683297 0.0555997 0.
0.685528 0.055049 0.
0.687752 0.0544976 0.
0.689971 0.0539538 0.
0.692178 0.0534375 0.
0.694375 0.0529516 0.
0.696558 0.052515 0.
0.69873 0.0521315 0.
0.700889 0.0518119 0.
0.703045 0.0515945 0.
0.705193 0.0514493 0.
0.493039 0.0533241 0.
0.495171 0.0534789 0.
0.49731 0.0537085 0.
0.499459 0.0540124 0.
0.501618 0.0544012 0.
0.503788 0.0548364 0.
0.505967 0.0553135 0.
0.508158 0.0558217 0.
0.510356 0.0563509 0.
0.512562 0.056895 0.
0.514772 0.0574387 0.
0.51699 0.0579771 0.
0.51921 0.0585096 0.
0.521434 0.0590387 0.
0.523663 0.0595579 0.
0.525895 0.0600757 0.
0.528128 0.0605985 0.
0.53036 0.0611118 0.
0.532593 0.0615946 0.
0.53482 0.0620616 0.
0.537044 0.0625253 0.
0.539261 0.0629289 0.
0.541472 0.0633181 0.
0.54368 0.0637076 0.
0.545874 0.0640182 0.
0.548067 0.0643187 0.
0.55025 0.0646306 0.
0.552423 0.0649444 0.
0.554595 0.0652543 0.
0.556746 0.0654816 0.
0.558893 0.0657051 0.
0.561037 0.0659212 0.
0.563143 0.0660358 0.
0.565249 0.0661505 0.
0.567349 0.0662636 0.
0.56944 0.0663781 0.
0.571532 0.0664928 0.
0.573605 0.0665833 0.
0.575672 0.0666665 0.
0.577739 0.0667484 0.
0.579775 0.0667775 0.
0.581812 0.0668066 0.
0.583845 0.0668344 0.
0.585872 0.0668595 0.
0.587899 0.0668846 0.
0.589922 0.066904 0.
0.591941 0.0669185 0.
0.59396 0.0669329 0.
0.595975 0.0669388 0.
0.59799 0.0669421 0.
0.600004 0.0669454 0.
0.60202 0.0669364 0.
0.604037 0.0669275 0.
0.606054 0.0669162 0.
0.608077 0.0668974 0.
0.6101 0.0668786 0.
0.612128 0.0668542 0.
0.61416 0.0668236 0.
0.616192 0.0667932 0.
0.618234 0.0667598 0.
0.620279 0.0667253 0.
0.622325 0.0666902 0.
0.624402 0.0665908 0.
0.626479 0.0664905 0.
0.628561 0.0663839 0.
0.630658 0.0662569 0.
0.632756 0.0661302 0.
0.634865 0.0660028 0.
0.636983 0.0658732 0.
0.639101 0.065742 0.
0.641256 0.0654952 0.
0.643414 0.0652421 0.
0.645576 0.0649876 0.
0.647756 0.0646592 0.
0.649936 0.0643273 0.
0.652129 0.0639889 0.
0.654329 0.0636637 0.
0.656532 0.063326 0.
0.658747 0.0629168 0.
0.660964 0.062508 0.
0.663184 0.06208 0.
0.665409 0.0615957 0.
0.667637 0.0611077 0.
0.669869 0.0606099 0.
0.6721 0.0600867 0.
0.674332 0.0595509 0.
0.676561 0.0590196 0.
0.678786 0.0584891 0.
0.681007 0.0579585 0.
0.683224 0.0574268 0.
0.685437 0.0568866 0.
0.687643 0.056346 0.
0.689843 0.0558136 0.
0.692034 0.0553074 0.
0.694217 0.0548307 0.
0.696388 0.0543996 0.
0.698549 0.0540227 0.
0.700701 0.053708 0.
0.702849 0.053494 0.
0.704989 0.0533526 0.
0.493251 0.0552287 0.
0.495377 0.0553846 0.
0.497509 0.0556135 0.
0.499649 0.055917 0.
0.501797 0.0562998 0.
0.503954 0.0567283 0.
0.50612 0.0571976 0.
0.508295 0.0576953 0.
0.510477 0.0582144 0.
0.512666 0.0587489 0.
0.514861 0.0592846 0.
0.517065 0.059815 0.
0.51927 0.0603398 0.
0.52148 0.0608612 0.
0.523694 0.0613744 0.
0.525911 0.0618851 0.
0.52813 0.0624031 0.
0.530348 0.0629128 0.
0.532568 0.0633936 0.
0.534783 0.0638615 0.
0.536996 0.064327 0.
0.539203 0.0647346 0.
0.541404 0.0651265 0.
0.543603 0.065519 0.
0.545792 0.0658372 0.
0.547979 0.0661434 0.
0.550157 0.0664614 0.
0.552326 0.0667795 0.
0.554494 0.0670938 0.
0.556645 0.0673338 0.
0.558793 0.0675728 0.
0.560938 0.0678056 0.
0.56305 0.0679286 0.
0.565163 0.0680504 0.
0.567268 0.0681706 0.
0.569364 0.0682912 0.
0.571461 0.0684122 0.
0.573541 0.0685135 0.
0.575617 0.0686087 0.
0.577693 0.0687028 0.
0.579736 0.0687379 0.
0.581779 0.0687727 0.
0.583819 0.0688056 0.
0.585849 0.0688336 0.
0.58788 0.0688616 0.
0.589906 0.0688836 0.
0.591928 0.0689003 0.
0.593951 0.068917 0.
0.59597 0.0689237 0.
0.597988 0.0689274 0.
0.600006 0.0689311 0.
0.602026 0.0689205 0.
0.604046 0.06891 0.
0.606067 0.0688968 0.
0.608095 0.0688751 0.
0.610122 0.0688534 0.
0.612153 0.068826 0.
0.614189 0.0687923 0.
0.616225 0.0687587 0.
0.618274 0.0687188 0.
0.620328 0.0686767 0.
0.622383 0.0686333 0.
0.624466 0.0685223 0.
0.62655 0.0684104 0.
0.628638 0.0682941 0.
0.63074 0.0681628 0.
0.632841 0.0680316 0.
0.634956 0.067895 0.
0.637078 0.067755 0.
0.639201 0.0676114 0.
0.641355 0.0673507 0.
0.643512 0.0670846 0.
0.645672 0.0668195 0.
0.647848 0.066487 0.
0.650024 0.0661511 0.
0.652211 0.0658067 0.
0.654405 0.0654764 0.
0.656602 0.0651324 0.
0.658807 0.0647213 0.
0.661015 0.0643113 0.
0.663224 0.0638818 0.
0.665436 0.063398 0.
0.667651 0.0629108 0.
0.669869 0.0624159 0.
0.672085 0.0618972 0.
0.674302 0.0613675 0.
0.676516 0.0608433 0.
0.678727 0.0603182 0.
0.680933 0.0597949 0.
0.683135 0.0592713 0.
0.685333 0.0587408 0.
0.687523 0.0582094 0.
0.689707 0.057687 0.
0.691883 0.0571899 0.
0.69405 0.0567219 0.
0.69621 0.0562951 0.
0.698361 0.0559224 0.
0.700504 0.0556122 0.
0.702644 0.0554001 0.
0.704777 0.0552613 0.
0.49346 0.0571422 0.
0.495579 0.0572976 0.
0.497703 0.0575245 0.
0.499834 0.0578272 0.
0.501972 0.0582052 0.
0.504117 0.0586282 0.
0.506271 0.0590907 0.
0.508433 0.0595798 0.
0.510602 0.0600904 0.
0.512778 0.0606172 0.
0.514958 0.0611456 0.
0.517146 0.0616666 0.
0.519336 0.0621818 0.
0.521529 0.0626947 0.
0.523729 0.0632015 0.
0.525931 0.0637051 0.
0.528136 0.0642182 0.
0.53034 0.0647241 0.
0.532547 0.0652032 0.
0.53475 0.0656721 0.
0.536951 0.0661382 0.
0.539147 0.0665474 0.
0.54134 0.0669402 0.
0.54353 0.0673343 0.
0.545712 0.0676583 0.
0.547892 0.0679692 0.
0.550066 0.0682935 0.
0.55223 0.0686157 0.
0.554395 0.0689343 0.
0.556546 0.0691863 0.
0.558695 0.0694405 0.
0.560842 0.0696893 0.
0.56296 0.0698209 0.
0.565079 0.0699494 0.
0.56719 0.0700762 0.
0.56929 0.070202 0.
0.57139 0.0703279 0.
0.573478 0.070439 0.
0.57556 0.0705456 0.
0.577643 0.0706513 0.
0.579694 0.0706935 0.
0.581743 0.070735 0.
0.583789 0.0707738 0.
0.585823 0.0708045 0.
0.587858 0.0708352 0.
0.589888 0.0708598 0.
0.591914 0.0708787 0.
0.59394 0.0708976 0.
0.595964 0.0709051 0.
0.597986 0.0709091 0.
0.600008 0.0709131 0.
0.602032 0.0709008 0.
0.604056 0.0708886 0.
0.606083 0.0708734 0.
0.608114 0.070849 0.
0.610146 0.0708245 0.
0.612181 0.0707942 0.
0.614221 0.0707577 0.
0.616261 0.0707212 0.
0.618317 0.0706736 0.
0.620379 0.0706227 0.
0.622441 0.0705702 0.
0.62453 0.0704492 0.
0.62662 0.0703271 0.
0.628713 0.0702023 0.
0.630819 0.0700672 0.
0.632924 0.0699325 0.
0.635044 0.0697867 0.
0.637171 0.0696364 0.
0.639299 0.0694808 0.
0.641453 0.0692066 0.
0.643608 0.0689277 0.
0.645767 0.0686524 0.
0.647939 0.0683159 0.
0.650111 0.0679758 0.
0.652291 0.0676263 0.
0.654477 0.0672924 0.
0.656666 0.066944 0.
0.658861 0.0665328 0.
0.661058 0.066123 0.
0.663258 0.0656938 0.
0.665458 0.065211 0.
0.667661 0.0647242 0.
0.669864 0.0642321 0.
0.672066 0.063718 0.
0.674267 0.0631944 0.
0.676466 0.0626778 0.
0.678662 0.0621594 0.
0.680853 0.0616449 0.
0.683039 0.0611308 0.
0.685223 0.0606099 0.
0.687398 0.0600855 0.
0.689568 0.0595708 0.
0.691731 0.059081 0.
0.693887 0.0586201 0.
0.696036 0.0581972 0.
0.698177 0.057828 0.
0.70031 0.0575217 0.
0.702442 0.0573113 0.
0.704568 0.0571758 0.
0.49366 0.0590668 0.
0.495771 0.0592193 0.
0.497888 0.0594429 0.
0.500011 0.0597447 0.
0.502139 0.0601185 0.
0.504275 0.060537 0.
0.506418 0.0609935 0.
0.508568 0.0614748 0.
0.510724 0.0619777 0.
0.512884 0.0624968 0.
0.515049 0.0630179 0.
0.517223 0.0635301 0.
0.519397 0.0640368 0.
0.521576 0.0645428 0.
0.523761 0.0650441 0.
0.525948 0.0655405 0.
0.528139 0.0660475 0.
0.53033 0.0665484 0.
0.532523 0.0670239 0.
0.534715 0.0674918 0.
0.536904 0.0679571 0.
0.539092 0.0683677 0.
0.541277 0.0687615 0.
0.54346 0.0691573 0.
0.545636 0.0694871 0.
0.547811 0.0698027 0.
0.54998 0.0701321 0.
0.552142 0.0704569 0.
0.554304 0.0707777 0.
0.556456 0.0710369 0.
0.558605 0.0712995 0.
0.560753 0.0715561 0.
0.562876 0.0716997 0.
0.564999 0.0718392 0.
0.567116 0.0719753 0.
0.569218 0.0721044 0.
0.571321 0.0722336 0.
0.573413 0.0723542 0.
0.5755 0.0724727 0.
0.577588 0.0725905 0.
0.579646 0.0726418 0.
0.581703 0.0726918 0.
0.583756 0.0727379 0.
0.585794 0.0727714 0.
0.587833 0.0728049 0.
0.589867 0.072832 0.
0.591898 0.0728531 0.
0.593929 0.0728741 0.
0.595957 0.0728824 0.
0.597984 0.0728867 0.
0.60001 0.072891 0.
0.60204 0.0728769 0.
0.604069 0.0728628 0.
0.6061 0.0728455 0.
0.608136 0.0728183 0.
0.610173 0.0727911 0.
0.612213 0.0727579 0.
0.614258 0.0727185 0.
0.616303 0.0726792 0.
0.618365 0.0726218 0.
0.620432 0.0725596 0.
0.6225 0.0724955 0.
0.624594 0.0723663 0.
0.626688 0.0722359 0.
0.628786 0.0721035 0.
0.630895 0.0719637 0.
0.633003 0.0718243 0.
0.635127 0.0716686 0.
0.637258 0.0715077 0.
0.639389 0.0713401 0.
0.641542 0.071059 0.
0.643697 0.0707724 0.
0.645855 0.0704904 0.
0.648023 0.0701512 0.
0.650191 0.069808 0.
0.652366 0.0694541 0.
0.654546 0.0691164 0.
0.656728 0.0687638 0.
0.658914 0.0683522 0.
0.661103 0.0679426 0.
0.663292 0.0675141 0.
0.665481 0.0670338 0.
0.667671 0.06655 0.
0.669861 0.0660625 0.
0.672049 0.0655537 0.
0.674236 0.0650361 0.
0.67642 0.0645263 0.
0.678601 0.0640136 0.
0.680776 0.0635062 0.
0.682947 0.0630008 0.
0.685116 0.0624891 0.
0.687277 0.0619724 0.
0.689433 0.0614651 0.
0.691584 0.0609814 0.
0.693729 0.0605264 0.
0.695867 0.0601069 0.
0.697999 0.0597405 0.
0.700123 0.0594381 0.
0.702247 0.0592286 0.
0.704365 0.059096 0.
0.49387 0.0609969 0.
0.495975 0.0611472 0.
0.498084 0.0613695 0.
0.500198 0.0616716 0.
0.502317 0.0620415 0.
0.504442 0.0624563 0.
0.506573 0.0629073 0.
0.50871 0.0633817 0.
0.510853 0.063878 0.
0.512999 0.0643903 0.
0.51515 0.0649044 0.
0.517308 0.0654091 0.
0.519466 0.0659087 0.
0.521629 0.0664079 0.
0.523798 0.0669015 0.
0.52597 0.0673887 0.
0.528147 0.0678882 0.
0.530324 0.0683834 0.
0.532505 0.0688549 0.
0.534685 0.0693215 0.
0.536864 0.0697857 0.
0.539042 0.0701973 0.
0.54122 0.0705917 0.
0.543395 0.0709885 0.
0.545565 0.0713216 0.
0.547733 0.0716393 0.
0.549898 0.0719717 0.
0.552056 0.0722985 0.
0.554214 0.0726214 0.
0.556365 0.0728866 0.
0.558515 0.0731568 0.
0.560663 0.0734215 0.
0.562792 0.0735775 0.
0.56492 0.0737283 0.
0.567041 0.0738744 0.
0.569146 0.0740067 0.
0.571252 0.0741393 0.
0.573348 0.0742689 0.
0.57544 0.0743995 0.
0.577532 0.0745293 0.
0.579598 0.0745898 0.
0.581663 0.0746483 0.
0.583723 0.0747019 0.
0.585765 0.0747382 0.
0.587808 0.0747746 0.
0.589847 0.0748042 0.
0.591882 0.0748274 0.
0.593917 0.0748507 0.
0.59595 0.0748598 0.
0.597982 0.0748644 0.
0.600013 0.0748689 0.
0.602048 0.0748529 0.
0.604082 0.0748369 0.
0.606118 0.0748175 0.
0.608159 0.0747875 0.
0.6102 0.0747576 0.
0.612245 0.0747216 0.
0.614295 0.0746794 0.
0.616345 0.0746372 0.
0.618413 0.0745697 0.
0.620485 0.0744961 0.
0.62256 0.0744206 0.
0.624658 0.0742831 0.
0.626757 0.0741445 0.
0.628859 0.0740046 0.
0.630972 0.07386 0.
0.633083 0.0737159 0.
0.635211 0.0735496 0.
0.637345 0.0733776 0.
0.639479 0.0731981 0.
0.641632 0.0729101 0.
0.643787 0.0726171 0.
0.645943 0.0723296 0.
0.648106 0.0719881 0.
0.650269 0.0716423 0.
0.652438 0.0712873 0.
0.65461 0.0709488 0.
0.656784 0.0705936 0.
0.658961 0.0701815 0.
0.661141 0.0697719 0.
0.663321 0.0693441 0.
0.665499 0.0688667 0.
0.667678 0.0683863 0.
0.669855 0.0679043 0.
0.672029 0.0674025 0.
0.674201 0.066893 0.
0.676368 0.0663921 0.
0.678533 0.0658864 0.
0.680692 0.0653849 0.
0.682847 0.0648858 0.
0.685001 0.0643816 0.
0.687148 0.0638719 0.
0.68929 0.063371 0.
0.691429 0.0628927 0.
0.693563 0.0624434 0.
0.69569 0.0620272 0.
0.697812 0.0616629 0.
0.699927 0.0613642 0.
0.702042 0.0611542 0.
0.704153 0.061023 0.
0.494091 0.0629227 0.
0.496189 0.063075 0.
0.498291 0.0633004 0.
0.500397 0.0636063 0.
0.502506 0.063974 0.
0.504621 0.0643866 0.
0.50674 0.0648331 0.
0.508864 0.065302 0.
0.510993 0.0657927 0.
0.513125 0.0662986 0.
0.515261 0.0668055 0.
0.517403 0.0673017 0.
0.519545 0.0677937 0.
0.521692 0.0682866 0.
0.523845 0.0687736 0.
0.526001 0.0692527 0.
0.528163 0.0697452 0.
0.530326 0.0702347 0.
0.532493 0.0707008 0.
0.534662 0.071164 0.
0.536829 0.0716244 0.
0.538998 0.0720346 0.
0.541166 0.0724286 0.
0.543333 0.0728254 0.
0.545496 0.0731613 0.
0.547657 0.0734809 0.
0.549815 0.0738157 0.
0.551969 0.0741437 0.
0.554122 0.0744677 0.
0.556272 0.074738 0.
0.558421 0.0750144 0.
0.560569 0.0752854 0.
0.5627 0.0754529 0.
0.56483 0.0756141 0.
0.566953 0.0757694 0.
0.56906 0.0759039 0.
0.571167 0.0760386 0.
0.573267 0.0761737 0.
0.575364 0.0763111 0.
0.577461 0.0764473 0.
0.579535 0.0765195 0.
0.581608 0.0765895 0.
0.583675 0.0766533 0.
0.585724 0.076692 0.
0.587773 0.0767308 0.
0.589818 0.0767626 0.
0.59186 0.0767877 0.
0.593902 0.0768128 0.
0.595941 0.0768224 0.
0.597979 0.0768269 0.
0.600018 0.0768314 0.
0.602059 0.0768138 0.
0.6041 0.0767963 0.
0.606142 0.076775 0.
0.60819 0.0767426 0.
0.610237 0.0767102 0.
0.612289 0.0766716 0.
0.614344 0.076627 0.
0.6164 0.0765824 0.
0.618475 0.0765041 0.
0.620554 0.0764186 0.
0.622635 0.0763315 0.
0.624738 0.0761883 0.
0.62684 0.076044 0.
0.628946 0.0758993 0.
0.63106 0.075752 0.
0.633173 0.075605 0.
0.635303 0.0754289 0.
0.637437 0.0752469 0.
0.639573 0.0750565 0.
0.641724 0.074763 0.
0.643877 0.0744644 0.
0.646031 0.0741719 0.
0.648188 0.0738289 0.
0.650346 0.0734812 0.
0.652507 0.0731258 0.
0.65467 0.0727872 0.
0.656835 0.0724309 0.
0.659003 0.0720197 0.
0.661172 0.0716112 0.
0.663342 0.0711863 0.
0.665509 0.0707135 0.
0.667676 0.0702373 0.
0.66984 0.0697612 0.
0.671999 0.0692663 0.
0.674156 0.0687647 0.
0.676307 0.0682723 0.
0.678455 0.0677735 0.
0.680597 0.067278 0.
0.682736 0.0667861 0.
0.684874 0.0662895 0.
0.687007 0.0657858 0.
0.689137 0.0652906 0.
0.691263 0.0648167 0.
0.693384 0.0643718 0.
0.695502 0.063958 0.
0.697614 0.0635936 0.
0.69972 0.0632964 0.
0.701826 0.063083 0.
0.703928 0.0629498 0.
0.494322 0.0648562 0.
0.496412 0.0650107 0.
0.498506 0.0652404 0.
0.500604 0.0655508 0.
0.502703 0.0659167 0.
0.504807 0.0663278 0.
0.506914 0.0667704 0.
0.509024 0.0672345 0.
0.511139 0.0677196 0.
0.513258 0.0682195 0.
0.51538 0.0687195 0.
0.517508 0.0692086 0.
0.519636 0.0696944 0.
0.521768 0.0701823 0.
0.523906 0.0706644 0.
0.526045 0.0711368 0.
0.528191 0.0716211 0.
0.530337 0.0721017 0.
0.532489 0.0725598 0.
0.534645 0.0730177 0.
0.536799 0.0734736 0.
0.538956 0.0738817 0.
0.541114 0.0742745 0.
0.543271 0.0746702 0.
0.545427 0.0750083 0.
0.547581 0.0753288 0.
0.549734 0.0756643 0.
0.551883 0.0759926 0.
0.554033 0.0763166 0.
0.55618 0.0765899 0.
0.558326 0.0768702 0.
0.560472 0.0771457 0.
0.562603 0.0773242 0.
0.564732 0.0774956 0.
0.566857 0.0776607 0.
0.568966 0.0777977 0.
0.571076 0.0779349 0.
0.57318 0.0780748 0.
0.575283 0.0782184 0.
0.577386 0.0783608 0.
0.579469 0.0784454 0.
0.58155 0.0785281 0.
0.583626 0.0786031 0.
0.585681 0.0786444 0.
0.587737 0.0786858 0.
0.589789 0.0787201 0.
0.591837 0.0787471 0.
0.593886 0.0787742 0.
0.595932 0.0787843 0.
0.597977 0.0787888 0.
0.600022 0.0787932 0.
0.60207 0.078774 0.
0.604118 0.0787549 0.
0.606167 0.0787316 0.
0.608221 0.0786964 0.
0.610276 0.0786614 0.
0.612334 0.0786201 0.
0.614395 0.0785728 0.
0.616457 0.0785256 0.
0.61854 0.0784358 0.
0.620626 0.0783379 0.
0.622715 0.0782389 0.
0.624822 0.0780895 0.
0.626929 0.0779391 0.
0.629039 0.0777896 0.
0.631154 0.0776399 0.
0.633269 0.0774904 0.
0.6354 0.0773045 0.
0.637534 0.0771131 0.
0.63967 0.0769128 0.
0.641817 0.0766158 0.
0.643966 0.0763141 0.
0.646117 0.0760188 0.
0.648269 0.0756755 0.
0.650421 0.0753267 0.
0.652575 0.0749718 0.
0.654731 0.0746336 0.
0.656887 0.0742764 0.
0.659043 0.0738671 0.
0.661201 0.0734607 0.
0.663358 0.0730395 0.
0.665512 0.0725725 0.
0.667666 0.0721026 0.
0.669815 0.0716348 0.
0.671958 0.0711486 0.
0.674099 0.0706555 0.
0.676234 0.0701703 0.
0.678367 0.0696763 0.
0.680494 0.0691857 0.
0.682617 0.0686996 0.
0.684741 0.0682095 0.
0.68686 0.067712 0.
0.688976 0.0672223 0.
0.691089 0.0667528 0.
0.693198 0.0663115 0.
0.695305 0.0658994 0.
0.697407 0.065534 0.
0.699505 0.0652372 0.
0.701602 0.0650192 0.
0.703696 0.0648824 0.
0.494547 0.0668005 0.
0.49663 0.0669551 0.
0.498716 0.0671882 0.
0.500805 0.0675015 0.
0.502895 0.0678658 0.
0.504988 0.068276 0.
0.507083 0.0687159 0.
0.509181 0.0691767 0.
0.511284 0.0696573 0.
0.513388 0.0701521 0.
0.515497 0.0706458 0.
0.517612 0.0711283 0.
0.519725 0.0716076 0.
0.521844 0.0720893 0.
0.523965 0.0725653 0.
0.526088 0.07303 0.
0.528217 0.0735063 0.
0.530347 0.0739789 0.
0.532484 0.0744298 0.
0.534627 0.0748827 0.
0.536768 0.0753334 0.
0.538914 0.0757374 0.
0.541062 0.0761274 0.
0.543209 0.0765207 0.
0.545358 0.0768594 0.
0.547505 0.0771794 0.
0.549652 0.0775145 0.
0.551798 0.0778428 0.
0.553944 0.0781664 0.
0.556089 0.0784424 0.
0.558233 0.0787266 0.
0.560376 0.0790065 0.
0.562507 0.0791953 0.
0.564637 0.0793767 0.
0.566763 0.079552 0.
0.568875 0.0796913 0.
0.570986 0.0798307 0.
0.573095 0.0799746 0.
0.575204 0.0801232 0.
0.577314 0.0802706 0.
0.579404 0.080367 0.
0.581492 0.0804622 0.
0.583576 0.0805488 0.
0.585637 0.0805924 0.
0.587699 0.080636 0.
0.589758 0.0806723 0.
0.591814 0.0807011 0.
0.593869 0.0807299 0.
0.595923 0.0807405 0.
0.597975 0.080745 0.
0.600028 0.0807493 0.
0.602082 0.0807287 0.
0.604137 0.0807081 0.
0.606193 0.080683 0.
0.608254 0.0806455 0.
0.610315 0.0806079 0.
0.612379 0.0805643 0.
0.614446 0.0805148 0.
0.616514 0.0804654 0.
0.618603 0.0803638 0.
0.620696 0.0802538 0.
0.622792 0.0801436 0.
0.624904 0.079989 0.
0.627016 0.0798334 0.
0.629129 0.0796797 0.
0.631246 0.0795279 0.
0.633363 0.0793762 0.
0.635495 0.0791802 0.
0.637629 0.0789794 0.
0.639765 0.0787696 0.
0.64191 0.0784693 0.
0.644055 0.0781646 0.
0.646202 0.0778671 0.
0.648349 0.0775246 0.
0.650496 0.0771761 0.
0.652644 0.0768229 0.
0.654791 0.0764864 0.
0.65694 0.0761295 0.
0.659085 0.0757235 0.
0.661231 0.0753204 0.
0.663376 0.0749038 0.
0.665515 0.0744423 0.
0.667655 0.0739781 0.
0.669789 0.0735179 0.
0.671917 0.0730401 0.
0.674043 0.0725561 0.
0.676162 0.0720795 0.
0.678279 0.0715922 0.
0.680392 0.0711068 0.
0.6825 0.0706262 0.
0.68461 0.0701417 0.
0.686716 0.0696492 0.
0.688818 0.0691636 0.
0.690919 0.0686974 0.
0.693016 0.0682586 0.
0.695112 0.0678478 0.
0.697205 0.067481 0.
0.699294 0.0671849 0.
0.701382 0.0669636 0.
0.703468 0.0668231 0.
0.494764 0.0687539 0.
0.496838 0.0689082 0.
0.498915 0.0691446 0.
0.500996 0.0694602 0.
0.503076 0.0698245 0.
0.505159 0.070235 0.
0.507242 0.0706727 0.
0.509327 0.0711311 0.
0.511417 0.0716073 0.
0.513508 0.0720963 0.
0.515603 0.0725831 0.
0.517703 0.0730588 0.
0.519802 0.0735319 0.
0.521905 0.0740085 0.
0.52401 0.0744793 0.
0.526116 0.0749371 0.
0.52823 0.0754063 0.
0.530346 0.0758711 0.
0.53247 0.0763142 0.
0.534599 0.0767594 0.
0.536729 0.0772021 0.
0.538865 0.0776005 0.
0.541005 0.0779874 0.
0.543144 0.078378 0.
0.545287 0.0787175 0.
0.547428 0.079037 0.
0.549571 0.0793711 0.
0.551714 0.0796986 0.
0.553857 0.0800209 0.
0.556 0.0802983 0.
0.558143 0.0805845 0.
0.560285 0.0808667 0.
0.562418 0.081064 0.
0.564549 0.0812536 0.
0.566678 0.0814373 0.
0.568794 0.0815777 0.
0.570911 0.0817181 0.
0.573024 0.0818649 0.
0.575135 0.0820178 0.
0.577246 0.0821698 0.
0.579341 0.0822786 0.
0.581434 0.0823875 0.
0.583523 0.0824869 0.
0.585591 0.0825325 0.
0.587659 0.0825782 0.
0.589725 0.0826166 0.
0.591788 0.0826471 0.
0.593851 0.0826777 0.
0.595913 0.0826889 0.
0.597973 0.0826933 0.
0.600033 0.0826976 0.
0.602095 0.0826757 0.
0.604157 0.0826537 0.
0.606221 0.0826269 0.
0.608288 0.0825868 0.
0.610355 0.0825469 0.
0.612425 0.082501 0.
0.614498 0.0824495 0.
0.61657 0.0823981 0.
0.618665 0.0822836 0.
0.620763 0.0821603 0.
0.622863 0.0820385 0.
0.624978 0.0818792 0.
0.627092 0.081719 0.
0.629209 0.081562 0.
0.63133 0.0814086 0.
0.63345 0.0812552 0.
0.635584 0.0810525 0.
0.637719 0.0808447 0.
0.639855 0.0806277 0.
0.641998 0.0803257 0.
0.644142 0.0800195 0.
0.646286 0.0797208 0.
0.648429 0.0793798 0.
0.650572 0.0790325 0.
0.652714 0.0786819 0.
0.654855 0.0783467 0.
0.656997 0.0779902 0.
0.659133 0.0775882 0.
0.66127 0.0771897 0.
0.663403 0.0767798 0.
0.665529 0.0763261 0.
0.667655 0.0758688 0.
0.669775 0.0754157 0.
0.671888 0.0749455 0.
0.673998 0.0744695 0.
0.676102 0.0740007 0.
0.678203 0.0735191 0.
0.680301 0.0730385 0.
0.682395 0.0725637 0.
0.684491 0.0720853 0.
0.686583 0.0715984 0.
0.688671 0.071117 0.
0.69076 0.0706533 0.
0.692845 0.0702157 0.
0.694929 0.0698057 0.
0.697012 0.0694369 0.
0.699092 0.0691403 0.
0.701172 0.0689162 0.
0.70325 0.0687719 0.
0.494992 0.0707163 0.
0.497056 0.0708717 0.
0.499124 0.0711129 0.
0.501194 0.0714305 0.
0.503263 0.0717948 0.
0.505334 0.0722058 0.
0.507405 0.0726417 0.
0.509477 0.0730975 0.
0.511554 0.0735699 0.
0.51363 0.0740544 0.
0.515709 0.0745348 0.
0.517793 0.0750047 0.
0.519874 0.0754727 0.
0.521961 0.0759441 0.
0.52405 0.0764091 0.
0.526142 0.0768588 0.
0.528241 0.0773193 0.
0.530343 0.0777751 0.
0.532454 0.0782094 0.
0.534571 0.0786461 0.
0.53669 0.0790807 0.
0.538818 0.0794732 0.
0.54095 0.0798558 0.
0.543082 0.0802428 0.
0.545218 0.080582 0.
0.547354 0.0808994 0.
0.549492 0.0812303 0.
0.551632 0.0815564 0.
0.553771 0.0818768 0.
0.555912 0.0821548 0.
0.558053 0.0824428 0.
0.560194 0.0827271 0.
0.562328 0.0829321 0.
0.564462 0.0831294 0.
0.566594 0.0833217 0.
0.568714 0.0834636 0.
0.570836 0.0836053 0.
0.572953 0.083755 0.
0.575066 0.0839124 0.
0.577179 0.0840689 0.
0.579278 0.0841896 0.
0.581375 0.0843122 0.
0.583469 0.0844249 0.
0.585544 0.0844726 0.
0.587619 0.0845204 0.
0.589692 0.0845608 0.
0.591763 0.0845931 0.
0.593833 0.0846255 0.
0.595902 0.0846372 0.
0.597971 0.0846417 0.
0.600039 0.0846459 0.
0.602109 0.0846226 0.
0.604178 0.0845993 0.
0.606248 0.0845707 0.
0.608322 0.0845282 0.
0.610396 0.0844857 0.
0.612471 0.0844376 0.
0.614549 0.0843842 0.
0.616626 0.0843309 0.
0.618726 0.0842029 0.
0.620829 0.0840664 0.
0.622934 0.0839332 0.
0.625051 0.0837691 0.
0.627168 0.0836043 0.
0.629289 0.0834435 0.
0.631414 0.0832881 0.
0.633538 0.0831319 0.
0.635672 0.0829229 0.
0.637808 0.0827093 0.
0.639945 0.0824861 0.
0.642085 0.082183 0.
0.644227 0.081876 0.
0.646368 0.0815774 0.
0.648507 0.0812389 0.
0.650646 0.0808936 0.
0.652782 0.0805469 0.
0.654916 0.0802143 0.
0.65705 0.0798587 0.
0.659178 0.0794617 0.
0.661307 0.0790689 0.
0.663429 0.078666 0.
0.665543 0.0782206 0.
0.667655 0.0777717 0.
0.669761 0.0773271 0.
0.671859 0.0768656 0.
0.673954 0.0763985 0.
0.676043 0.0759379 0.
0.678129 0.0754621 0.
0.680212 0.0749859 0.
0.68229 0.0745154 0.
0.68437 0.074042 0.
0.686446 0.0735603 0.
0.688521 0.0730821 0.
0.690597 0.0726206 0.
0.69267 0.0721844 0.
0.694743 0.0717756 0.
0.696814 0.071404 0.
0.698884 0.0711058 0.
0.700953 0.0708784 0.
0.703023 0.0707286 0.
0.495235 0.0726842 0.
0.497289 0.072844 0.
0.499347 0.0730932 0.
0.501405 0.0734138 0.
0.503462 0.0737786 0.
0.50552 0.0741908 0.
0.507578 0.0746255 0.
0.509636 0.0750801 0.
0.511697 0.0755489 0.
0.513758 0.0760285 0.
0.515821 0.0765025 0.
0.517887 0.0769664 0.
0.519951 0.0774285 0.
0.522021 0.0778936 0.
0.524094 0.0783522 0.
0.526169 0.0787937 0.
0.528254 0.0792453 0.
0.530342 0.0796916 0.
0.532439 0.0801162 0.
0.534545 0.0805444 0.
0.536653 0.0809704 0.
0.538771 0.0813557 0.
0.540895 0.081733 0.
0.543019 0.0821146 0.
0.545148 0.0824521 0.
0.547278 0.0827666 0.
0.54941 0.0830931 0.
0.551546 0.083417 0.
0.553681 0.0837346 0.
0.55582 0.0840128 0.
0.557959 0.0843018 0.
0.560097 0.0845874 0.
0.562233 0.0847995 0.
0.564368 0.0850038 0.
0.566502 0.0852032 0.
0.568626 0.0853467 0.
0.57075 0.0854898 0.
0.57287 0.0856414 0.
0.574985 0.0858012 0.
0.577099 0.0859599 0.
0.579204 0.08609 0.
0.581306 0.0862237 0.
0.583407 0.0863476 0.
0.585489 0.0863962 0.
0.587572 0.0864449 0.
0.589653 0.0864864 0.
0.591733 0.0865198 0.
0.593813 0.0865531 0.
0.595891 0.0865653 0.
0.597968 0.0865701 0.
0.600045 0.0865746 0.
0.602123 0.0865507 0.
0.604201 0.0865268 0.
0.606279 0.0864973 0.
0.60836 0.0864537 0.
0.610441 0.0864101 0.
0.612524 0.0863601 0.
0.614609 0.0863046 0.
0.616694 0.0862492 0.
0.6188 0.08611 0.
0.620907 0.0859627 0.
0.623016 0.0858207 0.
0.625135 0.0856542 0.
0.627254 0.0854868 0.
0.629377 0.0853235 0.
0.631504 0.0851663 0.
0.633631 0.0850075 0.
0.635766 0.0847933 0.
0.637903 0.0845746 0.
0.640039 0.0843459 0.
0.642177 0.0840423 0.
0.644315 0.083735 0.
0.646453 0.0834368 0.
0.648586 0.0831015 0.
0.65072 0.082759 0.
0.65285 0.0824174 0.
0.654977 0.0820883 0.
0.657103 0.0817356 0.
0.659222 0.0813453 0.
0.661341 0.0809592 0.
0.663454 0.080564 0.
0.665555 0.0801276 0.
0.667655 0.0796875 0.
0.669745 0.0792518 0.
0.671827 0.0787986 0.
0.673907 0.0783401 0.
0.67598 0.0778886 0.
0.678049 0.0774198 0.
0.680116 0.0769494 0.
0.682178 0.0764835 0.
0.684242 0.0760149 0.
0.686303 0.0755379 0.
0.688364 0.0750629 0.
0.690426 0.0746031 0.
0.692485 0.0741673 0.
0.694545 0.0737591 0.
0.696604 0.0733839 0.
0.698663 0.0730829 0.
0.70072 0.0728512 0.
0.702779 0.0726926 0.
0.495492 0.0746637 0.
0.497536 0.0748298 0.
0.499581 0.0750887 0.
0.501626 0.0754125 0.
0.50367 0.0757792 0.
0.505714 0.0761935 0.
0.507757 0.0766268 0.
0.5098 0.0770793 0.
0.511845 0.0775434 0.
0.513889 0.0780175 0.
0.515935 0.0784852 0.
0.517984 0.0789437 0.
0.520031 0.0794007 0.
0.522084 0.0798596 0.
0.52414 0.0803119 0.
0.526199 0.0807447 0.
0.528269 0.0811869 0.
0.530343 0.0816227 0.
0.532427 0.0820356 0.
0.534521 0.0824534 0.
0.536616 0.0828696 0.
0.538724 0.083247 0.
0.540838 0.0836177 0.
0.542952 0.083993 0.
0.545075 0.0843284 0.
0.547198 0.0846392 0.
0.549327 0.0849604 0.
0.551459 0.0852814 0.
0.553591 0.0855956 0.
0.555728 0.0858727 0.
0.557865 0.0861617 0.
0.560003 0.0864475 0.
0.562138 0.0866642 0.
0.564273 0.0868722 0.
0.566408 0.0870759 0.
0.568533 0.0872244 0.
0.570658 0.0873716 0.
0.57278 0.0875264 0.
0.574896 0.0876878 0.
0.577014 0.0878483 0.
0.579124 0.0879867 0.
0.581233 0.088131 0.
0.583341 0.0882663 0.
0.585432 0.0883161 0.
0.587524 0.0883659 0.
0.589614 0.0884086 0.
0.591702 0.0884431 0.
0.593791 0.0884776 0.
0.595878 0.0884905 0.
0.597965 0.0884956 0.
0.600052 0.0885004 0.
0.602138 0.0884759 0.
0.604224 0.0884514 0.
0.60631 0.088421 0.
0.608398 0.0883762 0.
0.610486 0.0883314 0.
0.612579 0.0882791 0.
0.614673 0.088221 0.
0.616767 0.0881625 0.
0.618879 0.0880121 0.
0.620991 0.0878546 0.
0.623105 0.0877049 0.
0.625225 0.0875365 0.
0.627346 0.0873673 0.
0.629471 0.087201 0.
0.631598 0.0870407 0.
0.633725 0.0868777 0.
0.63586 0.0866604 0.
0.637996 0.086439 0.
0.640133 0.0862066 0.
0.642269 0.0859035 0.
0.644405 0.0855969 0.
0.64654 0.0853004 0.
0.648669 0.0849688 0.
0.650797 0.0846296 0.
0.652921 0.0842939 0.
0.655041 0.0839694 0.
0.657159 0.0836202 0.
0.659267 0.0832373 0.
0.661376 0.0828592 0.
0.663478 0.0824726 0.
0.665566 0.0820461 0.
0.667653 0.0816167 0.
0.66973 0.0811922 0.
0.671797 0.0807485 0.
0.673861 0.0802984 0.
0.675916 0.0798552 0.
0.677968 0.079393 0.
0.680018 0.0789284 0.
0.682064 0.0784667 0.
0.684111 0.0780024 0.
0.686157 0.0775306 0.
0.688202 0.0770603 0.
0.690248 0.0766034 0.
0.692292 0.0761679 0.
0.694337 0.0757603 0.
0.696383 0.0753806 0.
0.698428 0.0750753 0.
0.700472 0.0748393 0.
0.702518 0.0746705 0.
0.495747 0.0766559 0.
0.497779 0.0768286 0.
0.49981 0.077097 0.
0.501841 0.0774228 0.
0.50387 0.0777914 0.
0.505899 0.0782076 0.
0.507925 0.0786395 0.
0.509951 0.0790898 0.
0.511979 0.0795498 0.
0.514005 0.0800197 0.
0.516033 0.0804814 0.
0.518066 0.0809338 0.
0.520097 0.0813843 0.
0.522134 0.0818358 0.
0.524175 0.0822807 0.
0.52622 0.0827042 0.
0.528277 0.0831363 0.
0.530337 0.0835609 0.
0.532408 0.0839624 0.
0.53449 0.0843703 0.
0.536573 0.0847772 0.
0.538671 0.0851461 0.
0.540776 0.0855088 0.
0.542883 0.0858761 0.
0.545 0.0862084 0.
0.547119 0.0865151 0.
0.549244 0.0868301 0.
0.551373 0.0871475 0.
0.553502 0.0874578 0.
0.555637 0.0877335 0.
0.557773 0.0880221 0.
0.559909 0.0883079 0.
0.562045 0.0885289 0.
0.56418 0.0887405 0.
0.566315 0.0889484 0.
0.568441 0.0891019 0.
0.570567 0.089253 0.
0.572691 0.089411 0.
0.57481 0.0895737 0.
0.57693 0.0897354 0.
0.579047 0.0898812 0.
0.581163 0.0900354 0.
0.583278 0.0901811 0.
0.585378 0.0902319 0.
0.587478 0.0902826 0.
0.589576 0.0903264 0.
0.591674 0.0903617 0.
0.593771 0.0903971 0.
0.595867 0.0904106 0.
0.597962 0.0904161 0.
0.600057 0.0904214 0.
0.602151 0.0903965 0.
0.604245 0.0903715 0.
0.60634 0.0903405 0.
0.608435 0.0902948 0.
0.61053 0.0902492 0.
0.612631 0.0901947 0.
0.614734 0.0901341 0.
0.616838 0.0900723 0.
0.618955 0.0899122 0.
0.621072 0.0897449 0.
0.623191 0.0895882 0.
0.625313 0.0894183 0.
0.627436 0.0892476 0.
0.629562 0.0890785 0.
0.63169 0.088915 0.
0.633818 0.0887477 0.
0.635953 0.0885272 0.
0.638089 0.0883031 0.
0.640225 0.0880673 0.
0.64236 0.0877651 0.
0.644494 0.0874598 0.
0.646626 0.087166 0.
0.648751 0.0868392 0.
0.650875 0.0865045 0.
0.652994 0.0861753 0.
0.655108 0.0858557 0.
0.657219 0.0855109 0.
0.659319 0.0851364 0.
0.661419 0.084767 0.
0.663509 0.0843891 0.
0.665585 0.0839721 0.
0.66766 0.083553 0.
0.669724 0.0831401 0.
0.671777 0.0827074 0.
0.673827 0.0822669 0.
0.675867 0.0818326 0.
0.677903 0.081377 0.
0.679936 0.0809188 0.
0.681965 0.0804622 0.
0.683995 0.0800031 0.
0.686023 0.0795363 0.
0.68805 0.0790695 0.
0.69008 0.0786152 0.
0.692107 0.0781806 0.
0.694135 0.0777732 0.
0.696166 0.0773895 0.
0.698196 0.0770802 0.
0.700226 0.0768421 0.
0.702257 0.0766631 0.
0.495982 0.0786601 0.
0.498 0.0788405 0.
0.500018 0.079119 0.
0.502033 0.0794469 0.
0.504044 0.0798182 0.
0.506055 0.0802357 0.
0.508063 0.0806666 0.
0.51007 0.0811147 0.
0.51208 0.0815699 0.
0.514088 0.0820336 0.
0.516101 0.0824877 0.
0.518117 0.0829331 0.
0.520132 0.0833765 0.
0.522155 0.0838208 0.
0.524182 0.0842587 0.
0.526215 0.0846725 0.
0.528259 0.0850938 0.
0.530308 0.0855069 0.
0.532369 0.0858977 0.
0.534441 0.086296 0.
0.536515 0.0866935 0.
0.538605 0.0870529 0.
0.540705 0.0874054 0.
0.542807 0.0877637 0.
0.54492 0.088093 0.
0.547037 0.0883958 0.
0.54916 0.0887043 0.
0.551287 0.0890176 0.
0.553415 0.0893234 0.
0.555551 0.0895968 0.
0.557686 0.0898841 0.
0.559822 0.0901692 0.
0.561959 0.0903935 0.
0.564095 0.0906076 0.
0.566231 0.0908183 0.
0.56836 0.0909763 0.
0.570488 0.0911307 0.
0.572616 0.0912909 0.
0.574739 0.0914535 0.
0.576863 0.0916151 0.
0.578984 0.0917661 0.
0.581104 0.0919281 0.
0.583223 0.0920824 0.
0.585331 0.0921356 0.
0.587439 0.092188 0.
0.589546 0.0922334 0.
0.59165 0.0922692 0.
0.593754 0.0923051 0.
0.595857 0.0923194 0.
0.597959 0.0923258 0.
0.600062 0.0923319 0.
0.602163 0.0923068 0.
0.604264 0.0922817 0.
0.606365 0.0922501 0.
0.608467 0.0922038 0.
0.610569 0.0921575 0.
0.612676 0.0920993 0.
0.614786 0.0920342 0.
0.616896 0.091967 0.
0.619017 0.0918 0.
0.621139 0.0916265 0.
0.623262 0.0914656 0.
0.625387 0.0912957 0.
0.627513 0.091125 0.
0.629642 0.090954 0.
0.631771 0.0907876 0.
0.633901 0.0906163 0.
0.636037 0.0903934 0.
0.638174 0.0901672 0.
0.640311 0.0899287 0.
0.642446 0.0896283 0.
0.64458 0.0893255 0.
0.646712 0.0890358 0.
0.648835 0.0887143 0.
0.650957 0.0883847 0.
0.653073 0.0880626 0.
0.655183 0.0877478 0.
0.657289 0.0874072 0.
0.659384 0.087042 0.
0.661477 0.0866827 0.
0.663559 0.0863142 0.
0.665625 0.0859071 0.
0.667689 0.085498 0.
0.669742 0.0850959 0.
0.671784 0.0846746 0.
0.673821 0.0842446 0.
0.675847 0.0838194 0.
0.677867 0.0833699 0.
0.679885 0.0829182 0.
0.681897 0.0824678 0.
0.683911 0.0820151 0.
0.685922 0.0815552 0.
0.68793 0.0810933 0.
0.68994 0.0806421 0.
0.691949 0.0802077 0.
0.69396 0.0797996 0.
0.695974 0.0794121 0.
0.697988 0.079098 0.
0.700002 0.0788585 0.
0.702019 0.0786693 0.
0.496196 0.0806775 0.
0.4982 0.080867 0.
0.500201 0.0811553 0.
0.502199 0.0814848 0.
0.504194 0.081858 0.
0.506187 0.0822758 0.
0.508176 0.0827051 0.
0.510164 0.0831504 0.
0.512156 0.0836002 0.
0.514145 0.0840579 0.
0.51614 0.0845045 0.
0.518141 0.0849428 0.
0.520141 0.0853786 0.
0.522151 0.0858148 0.
0.524165 0.0862456 0.
0.526189 0.0866488 0.
0.528225 0.0870583 0.
0.530267 0.0874589 0.
0.53232 0.0878389 0.
0.534385 0.0882274 0.
0.536454 0.0886152 0.
0.53854 0.088965 0.
0.540637 0.0893073 0.
0.542736 0.0896566 0.
0.544846 0.0899824 0.
0.54696 0.0902811 0.
0.549081 0.090583 0.
0.551208 0.0908916 0.
0.553335 0.091192 0.
0.555469 0.091462 0.
0.557604 0.0917475 0.
0.55974 0.0920313 0.
0.561876 0.0922581 0.
0.564013 0.0924744 0.
0.566149 0.0926875 0.
0.56828 0.0928498 0.
0.570411 0.0930075 0.
0.572541 0.0931701 0.
0.574668 0.0933328 0.
0.576795 0.0934946 0.
0.578921 0.0936507 0.
0.581045 0.0938206 0.
0.583169 0.0939833 0.
0.585285 0.0940391 0.
0.587401 0.0940934 0.
0.589515 0.0941403 0.
0.591626 0.0941767 0.
0.593737 0.0942131 0.
0.595847 0.0942282 0.
0.597956 0.0942354 0.
0.600066 0.0942423 0.
0.602174 0.094217 0.
0.604282 0.0941918 0.
0.606391 0.0941598 0.
0.608499 0.0941127 0.
0.610607 0.0940657 0.
0.612721 0.0940038 0.
0.614837 0.0939342 0.
0.616954 0.0938616 0.
0.619079 0.0936877 0.
0.621205 0.0935077 0.
0.623332 0.0933426 0.
0.62546 0.0931726 0.
0.627588 0.0930018 0.
0.629719 0.092829 0.
0.63185 0.0926599 0.
0.633982 0.0924849 0.
0.636118 0.0922599 0.
0.638255 0.092032 0.
0.640392 0.0917915 0.
0.642526 0.0914934 0.
0.64466 0.0911935 0.
0.646791 0.0909087 0.
0.648913 0.0905934 0.
0.651034 0.0902693 0.
0.653147 0.0899546 0.
0.655253 0.0896448 0.
0.657356 0.0893087 0.
0.659447 0.0889525 0.
0.661537 0.0886034 0.
0.663614 0.0882448 0.
0.665674 0.0878483 0.
0.66773 0.0874498 0.
0.669776 0.0870584 0.
0.671808 0.0866491 0.
0.673836 0.0862312 0.
0.675851 0.0858165 0.
0.677858 0.0853735 0.
0.679861 0.0849281 0.
0.681856 0.0844841 0.
0.683853 0.0840377 0.
0.685846 0.0835847 0.
0.687835 0.0831278 0.
0.689826 0.0826806 0.
0.691816 0.0822473 0.
0.693809 0.0818393 0.
0.695806 0.0814484 0.
0.697804 0.0811296 0.
0.699803 0.0808886 0.
0.701805 0.0806895 0.
0.496377 0.0827039 0.
0.498366 0.0829029 0.
0.50035 0.0831999 0.
0.502332 0.0835316 0.
0.504307 0.0839067 0.
0.506282 0.0843244 0.
0.508252 0.0847518 0.
0.510222 0.0851936 0.
0.512197 0.0856381 0.
0.514172 0.0860899 0.
0.516154 0.0865288 0.
0.518143 0.0869589 0.
0.520133 0.0873861 0.
0.522133 0.0878139 0.
0.524139 0.088237 0.
0.526156 0.0886291 0.
0.528186 0.0890274 0.
0.530222 0.089416 0.
0.532271 0.0897856 0.
0.534333 0.090164 0.
0.536399 0.0905417 0.
0.538482 0.0908817 0.
0.540577 0.0912136 0.
0.542674 0.0915535 0.
0.544781 0.0918752 0.
0.546891 0.0921693 0.
0.549009 0.0924643 0.
0.551133 0.0927676 0.
0.553258 0.0930621 0.
0.55539 0.0933286 0.
0.557524 0.0936123 0.
0.559659 0.0938946 0.
0.561796 0.0941235 0.
0.563933 0.0943415 0.
0.566071 0.0945567 0.
0.568204 0.0947228 0.
0.570337 0.0948836 0.
0.57247 0.0950478 0.
0.574601 0.0952097 0.
0.576732 0.0953709 0.
0.578862 0.0955296 0.
0.58099 0.0957037 0.
0.583118 0.0958709 0.
0.585242 0.0959296 0.
0.587365 0.0959859 0.
0.589486 0.0960345 0.
0.591604 0.0960709 0.
0.593721 0.0961074 0.
0.595838 0.0961229 0.
0.597955 0.0961308 0.
0.600071 0.0961383 0.
0.602186 0.0961134 0.
0.604301 0.0960885 0.
0.606416 0.0960566 0.
0.60853 0.0960095 0.
0.610644 0.0959624 0.
0.612764 0.0958976 0.
0.614886 0.0958241 0.
0.617008 0.0957469 0.
0.619137 0.0955687 0.
0.621267 0.0953848 0.
0.623397 0.0952175 0.
0.625529 0.0950481 0.
0.62766 0.0948779 0.
0.629793 0.0947036 0.
0.631926 0.0945322 0.
0.63406 0.094354 0.
0.636197 0.0941273 0.
0.638333 0.0938981 0.
0.64047 0.0936559 0.
0.642603 0.0933602 0.
0.644736 0.0930632 0.
0.646865 0.0927833 0.
0.648985 0.0924748 0.
0.651104 0.0921567 0.
0.653214 0.0918495 0.
0.655316 0.0915447 0.
0.657415 0.091214 0.
0.659502 0.0908674 0.
0.661589 0.0905289 0.
0.663663 0.0901803 0.
0.66572 0.0897945 0.
0.667773 0.0894069 0.
0.669813 0.0890261 0.
0.671838 0.0886285 0.
0.673859 0.0882224 0.
0.675867 0.0878191 0.
0.677864 0.0873839 0.
0.679855 0.0869453 0.
0.681839 0.086508 0.
0.683823 0.0860683 0.
0.685802 0.0856221 0.
0.687776 0.0851698 0.
0.68975 0.0847265 0.
0.691721 0.0842946 0.
0.693695 0.0838869 0.
0.695674 0.083494 0.
0.697655 0.0831705 0.
0.699638 0.082927 0.
0.701625 0.0827192 0.
0.496507 0.0847377 0.
0.498482 0.0849471 0.
0.50045 0.0852523 0.
0.502415 0.0855873 0.
0.504374 0.0859647 0.
0.506333 0.0863813 0.
0.50829 0.0868063 0.
0.510248 0.0872437 0.
0.512213 0.0876828 0.
0.514178 0.0881284 0.
0.516151 0.0885596 0.
0.518133 0.0889823 0.
0.520117 0.0894012 0.
0.522112 0.089821 0.
0.524113 0.0902381 0.
0.526126 0.0906176 0.
0.528151 0.0910023 0.
0.530182 0.0913791 0.
0.532229 0.0917387 0.
0.534289 0.0921069 0.
0.536353 0.0924738 0.
0.538435 0.0928033 0.
0.540527 0.0931251 0.
0.542622 0.0934556 0.
0.544726 0.0937731 0.
0.546834 0.0940632 0.
0.548949 0.0943509 0.
0.551072 0.094649 0.
0.553197 0.0949376 0.
0.555328 0.0952 0.
0.557462 0.0954816 0.
0.559597 0.0957616 0.
0.561733 0.0959908 0.
0.563869 0.0962094 0.
0.566006 0.0964256 0.
0.568139 0.0965943 0.
0.570273 0.0967568 0.
0.572407 0.0969219 0.
0.574538 0.0970839 0.
0.57667 0.0972453 0.
0.578803 0.097405 0.
0.580936 0.0975812 0.
0.58307 0.0977511 0.
0.5852 0.0978135 0.
0.58733 0.0978728 0.
0.589458 0.0979235 0.
0.591582 0.0979603 0.
0.593706 0.0979972 0.
0.59583 0.0980133 0.
0.597953 0.0980216 0.
0.600076 0.0980295 0.
0.602198 0.0980049 0.
0.604319 0.0979802 0.
0.60644 0.0979484 0.
0.608561 0.0979011 0.
0.610681 0.0978538 0.
0.612806 0.0977859 0.
0.614933 0.0977087 0.
0.61706 0.0976269 0.
0.619193 0.0974455 0.
0.621325 0.0972586 0.
0.623458 0.0970902 0.
0.62559 0.0969211 0.
0.627722 0.0967513 0.
0.629856 0.0965766 0.
0.631989 0.096404 0.
0.634123 0.0962237 0.
0.636258 0.0959964 0.
0.638394 0.0957669 0.
0.64053 0.0955252 0.
0.642663 0.0952326 0.
0.644796 0.0949379 0.
0.646924 0.0946634 0.
0.649043 0.0943619 0.
0.651161 0.09405 0.
0.653268 0.0937501 0.
0.655367 0.0934496 0.
0.657463 0.0931238 0.
0.659548 0.0927872 0.
0.661631 0.0924594 0.
0.663702 0.0921213 0.
0.665758 0.0917467 0.
0.667809 0.0913701 0.
0.669846 0.0910002 0.
0.671867 0.0906144 0.
0.673883 0.090222 0.
0.675886 0.0898311 0.
0.677878 0.0894023 0.
0.679863 0.0889699 0.
0.681839 0.0885392 0.
0.683815 0.0881055 0.
0.685784 0.0876663 0.
0.687747 0.0872192 0.
0.68971 0.0867799 0.
0.691668 0.0863496 0.
0.693628 0.0859422 0.
0.69559 0.0855477 0.
0.697555 0.0852192 0.
0.699524 0.0849717 0.
0.701496 0.0847561 0.
CELLS 5000 10000
1 0
1 1
1 2
1 3
1 4
1 5
1 6
1 7
1 8
1 9
1 10
1 11
1 12
1 13
1 14
1 15
1 16
1 17
1 18
1 19
1 20
1 21
1 22
1 23
1 24
1 25
1 26
1 27
1 28
1 29
1 30
1 31
1 32
1 33
1 34
1 35
1 36
1 37
1 38
1 39
1 40
1 41
1 42
1 43
1 44
1 45
1 46
1 47
1 48
1 49
1 50
1 51
1 52
1 53
1 54
1 55
1 56
1 57
1 58
1 59
1 60
1 61
1 62
1 63
1 64
1 65
1 66
1 67
1 68
1 69
1 70
1 71
1 72
1 73
1 74
1 75
1 76
1 77
1 78
1 79
1 80
1 81
1 82
1 83
1 84
1 85
1 86
1 87
1 88
1 89
1 90
1 91
1 92
1 93
1 94
1 95
1 96
1 97
1 98
1 99
1 100
1 101
1 102
1 103
1 104
1 105
1 106
1 107
1 108
1 109
1 110
1 111
1 112
1 113
1 114
1 115
1 116
1 117
1 118
1 119
1 120
1 121
1 122
1 123
1 124
1 125
1 126
1 127
1 128
1 129
1 130
1 131
1 132
1 133
1 134
1 135
1 136
1 137
1 138
1 139
1 140
1 141
1 142
1 143
1 144
1 145
1 146
1 147
1 148
1 149
1 150
1 151
1 152
1 153
1 154
1 155
1 156
1 157
1 158
1 159
1 160
1 161
1 162
1 163
1 164
1 165
1 166
1 167
1 168
1 169
1 170
1 171
1 172
1 173
1 174
1 175
1 176
1 177
1 178
1 179
1 180
1 181
1 182
1 183
1 184
1 185
1 186
1 187
1 188
1 189
1 190
1 191
1 192
1 193
1 194
1 195
1 196
1 197
1 198
1 199
1 200
1 201
1 202
1 203
1 204
1 205
1 206
1 207
1 208
1 209
1 210
1 211
1 212
1 213
1 214
1 215
1 216
1 217
1 218
1 219
1 220
1 221
1 222
1 223
1 224
1 225
1 226
1 227
1 228
1 229
1 230
1 231
1 232
1 233
1 234
1 235
1 236
1 237
1 238
1 239
1 240
1 241
1 242
1 243
1 244
1 245
1 246
1 247
1 248
1 249
1 250
1 251
1 252
1 253
1 254
1 255
1 256
1 257
1 258
1 259
1 260
1 261
1 262
1 263
1 264
1 265
1 266
1 267
1 268
1 269
1 270
1 271
1 272
1 273
1 274
1 275
1 276
1 277
1 278
1 279
1 280
1 281
1 282
1 283
1 284
1 285
1 286
1 287
1 288
1 289
1 290
1 291
1 292
1 293
1 294
1 295
1 296
1 297
1 298
1 299
1 300
1 301
1 302
1 303
1 304
1 305
1 306
1 307
1 308
1 309
1 310
1 311
1 312
1 313
1 314
1 315
1 316
1 317
1 318
1 319
1 320
1 321
1 322
1 323
1 324
1 325
1 326
1 327
1 328
1 329
1 330
1 331
1 332
1 333
1 334
1 335
1 336
1 337
1 338
1 339
1 340
1 341
1 342
1 343
1 344
1 345
1 346
1 347
1 348
1 349
1 350
1 351
1 352
1 353
1 354
1 355
1 356
1 357
1 358
1 359
1 360
1 361
1 362
1 363
1 364
1 365
1 366
1 367
1 368
1 369
1 370
1 371
1 372
1 373
1 374
1 375
1 376
1 377
1 378
1 379
1 380
1 381
1 382
1 383
1 384
1 385
1 386
1 387
1 388
1 389
1 390
1 391
1 392
1 393
1 394
1 395
1 396
1 397
1 398
1 399
1 400
1 401
1 402
1 403
1 404
1 405
1 406
1 407
1 408
1 409
1 410
1 411
1 412
1 413
1 414
1 415
1 416
1 417
1 418
1 419
1 420
1 421
1 422
1 423
1 424
1 425
1 426
1 427
1 428
1 429
1 430
1 431
1 432
1 433
1 434
1 435
1 436
1 437
1 438
1 439
1 440
1 441
1 442
1 443
1 444
1 445
1 446
1 447
1 448
1 449
1 450
1 451
1 452
1 453
1 454
1 455
1 456
1 457
1 458
1 459
1 460
1 461
1 462
1 463
1 464
1 465
1 466
1 467
1 468
1 469
1 470
1 471
1 472
1 473
1 474
1 475
1 476
1 477
1 478
1 479
1 480
1 481
1 482
1 483
1 484
1 485
1 486
1 487
1 488
1 489
1 490
1 491
1 492
1 493
1 494
1 495
1 496
1 497
1 498
1 499
1 500
1 501
1 502
1 503
1 504
1 505
1 506
1 507
1 508
1 509
1 510
1 511
1 512
1 513
1 514
1 515
1 516
1 517
1 518
1 519
1 520
1 521
1 522
1 523
1 524
1 525
1 526
1 527
1 528
1 529
1 530
1 531
1 532
1 533
1 534
1 535
1 536
1 537
1 538
1 539
1 540
1 541
1 542
1 543
1 544
1 545
1 546
1 547
1 548
1 549
1 550
1 551
1 552
1 553
1 554
1 555
1 556
1 557
1 558
1 559
1 560
1 561
1 562
1 563
1 564
1 565
1 566
1 567
1 568
1 569
1 570
1 571
1 572
1 573
1 574
1 575
1 576
1 577
1 578
1 579
1 580
1 581
1 582
1 583
1 584
1 585
1 586
1 587
1 588
1 589
1 590
1 591
1 592
1 593
1 594
1 595
1 596
1 597
1 598
1 599
1 600
1 601
1 602
1 603
1 604
1 605
1 606
1 607
1 608
1 609
1 610
1 611
1 612
1 613
1 614
1 615
1 616
1 617
1 618
1 619
1 620
1 621
1 622
1 623
1 624
1 625
1 626
1 627
1 628
1 629
1 630
1 631
1 632
1 633
1 634
1 635
1 636
1 637
1 638
1 639
1 640
1 641
1 642
1 643
1 644
1 645
1 646
1 647
1 648
1 649
1 650
1 651
1 652
1 653
1 654
1 655
1 656
1 657
1 658
1 659
1 660
1 661
1 662
1 663
1 664
1 665
1 666
1 667
1 668
1 669
1 670
1 671
1 672
1 673
1 674
1 675
1 676
1 677
1 678
1 679
1 680
1 681
1 682
1 683
1 684
1 685
1 686
1 687
1 688
1 689
1 690
1 691
1 692
1 693
1 694
1 695
1 696
1 697
1 698
1 699
1 700
1 701
1 702
1 703
1 704
1 705
1 706
1 707
1 708
1 709
1 710
1 711
1 712
1 713
1 714
1 715
1 716
1 717
1 718
1 719
1 720
1 721
1 722
1 723
1 724
1 725
1 726
1 727
1 728
1 729
1 730
1 731
1 732
1 733
1 734
1 735
1 736
1 737
1 738
1 739
1 740
1 741
1 742
1 743
1 744
1 745
1 746
1 747
1 748
1 749
1 750
1 751
1 752
1 753
1 754
1 755
1 756
1 757
1 758
1 759
1 760
1 761
1 762
1 763
1 764
1 765
1 766
1 767
1 768
1 769
1 770
1 771
1 772
1 773
1 774
1 775
1 776
1 777
1 778
1 779
1 780
1 781
1 782
1 783
1 784
1 785
1 786
1 787
1 788
1 789
1 790
1 791
1 792
1 793
1 794
1 795
1 796
1 797
1 798
1 799
1 800
1 801
1 802
1 803
1 804
1 805
1 806
1 807
1 808
1 809
1 810
1 811
1 812
1 813
1 814
1 815
1 816
1 817
1 818
1 819
1 820
1 821
1 822
1 823
1 824
1 825
1 826
1 827
1 828
1 829
1 830
1 831
1 832
1 833
1 834
1 835
1 836
1 837
1 838
1 839
1 840
1 841
1 842
1 843
1 844
1 845
1 846
1 847
1 848
1 849
1 850
1 851
1 852
1 853
1 854
1 855
1 856
1 857
1 858
1 859
1 860
1 861
1 862
1 863
1 864
1 865
1 866
1 867
1 868
1 869
1 870
1 871
1 872
1 873
1 874
1 875
1 876
1 877
1 878
1 879
1 880
1 881
1 882
1 883
1 884
1 885
1 886
1 887
1 888
1 889
1 890
1 891
1 892
1 893
1 894
1 895
1 896
1 897
1 898
1 899
1 900
1 901
1 902
1 903
1 904
1 905
1 906
1 907
1 908
1 909
1 910
1 911
1 912
1 913
1 914
1 915
1 916
1 917
1 918
1 919
1 920
1 921
1 922
1 923
1 924
1 925
1 926
1 927
1 928
1 929
1 930
1 931
1 932
1 933
1 934
1 935
1 936
1 937
1 938
1 939
1 940
1 941
1 942
1 943
1 944
1 945
1 946
1 947
1 948
1 949
1 950
1 951
1 952
1 953
1 954
1 955
1 956
1 957
1 958
1 959
1 960
1 961
1 962
1 963
1 964
1 965
1 966
1 967
1 968
1 969
1 970
1 971
1 972
1 973
1 974
1 975
1 976
1 977
1 978
1 979
1 980
1 981
1 982
1 983
1 984
1 985
1 986
1 987
1 988
1 989
1 990
1 991
1 992
1 993
1 994
1 995
1 996
1 997
1 998
1 999
1 1000
1 1001
1 1002
1 1003
1 1004
1 1005
1 1006
1 1007
1 1008
1 1009
1 1010
1 1011
1 1012
1 1013
1 1014
1 1015
1 1016
1 1017
1 1018
1 1019
1 1020
1 1021
1 1022
1 1023
1 1024
1 1025
1 1026
1 1027
1 1028
1 1029
1 1030
1 1031
1 1032
1 1033
1 1034
1 1035
1 1036
1 1037
1 1038
1 1039
1 1040
1 1041
1 1042
1 1043
1 1044
1 1045
1 1046
1 1047
1 1048
1 1049
1 1050
1 1051
1 1052
1 1053
1 1054
1 1055
1 1056
1 1057
1 1058
1 1059
1 1060
1 1061
1 1062
1 1063
1 1064
1 1065
1 1066
1 1067
1 1068
1 1069
1 1070
1 1071
1 1072
1 1073
1 1074
1 1075
1 1076
1 1077
1 1078
1 1079
1 1080
1 1081
1 1082
1 1083
1 1084
1 1085
1 1086
1 1087
1 1088
1 1089
1 1090
1 1091
1 1092
1 1093
1 1094
1 1095
1 1096
1 1097
1 1098
1 1099
1 1100
1 1101
1 1102
1 1103
1 1104
1 1105
1 1106
1 1107
1 1108
1 1109
1 1110
1 1111
1 1112
1 1113
1 1114
1 1115
1 1116
1 1117
1 1118
1 1119
1 1120
1 1121
1 1122
1 1123
1 1124
1 1125
1 1126
1 1127
1 1128
1 1129
1 1130
1 1131
1 1132
1 1133
1 1134
1 1135
1 1136
1 1137
1 1138
1 1139
1 1140
1 1141
1 1142
1 1143
1 1144
1 1145
1 1146
1 1147
1 1148
1 1149
1 1150
1 1151
1 1152
1 1153
1 1154
1 1155
1 1156
1 1157
1 1158
1 1159
1 1160
1 1161
1 1162
1 1163
1 1164
1 1165
1 1166
1 1167
1 1168
1 1169
1 1170
1 1171
1 1172
1 1173
1 1174
1 1175
1 1176
1 1177
1 1178
1 1179
1 1180
1 1181
1 1182
1 1183
1 1184
1 1185
1 1186
1 1187
1 1188
1 1189
1 1190
1 1191
1 1192
1 1193
1 1194
1 1195
1 1196
1 1197
1 1198
1 1199
1 1200
1 1201
1 1202
1 1203
1 1204
1 1205
1 1206
1 1207
1 1208
1 1209
1 1210
1 1211
1 1212
1 1213
1 1214
1 1215
1 1216
1 1217
1 1218
1 1219
1 1220
1 1221
1 1222
1 1223
1 1224
1 1225
1 1226
1 1227
1 1228
1 1229
1 1230
1 1231
1 1232
1 1233
1 1234
1 1235
1 1236
1 1237
1 1238
1 1239
1 1240
1 1241
1 1242
1 1243
1 1244
1 1245
1 1246
1 1247
1 1248
1 1249
1 1250
1 1251
1 1252
1 1253
1 1254
1 1255
1 1256
1 1257
1 1258
1 1259
1 1260
1 1261
1 1262
1 1263
1 1264
1 1265
1 1266
1 1267
1 1268
1 1269
1 1270
1 1271
1 1272
1 1273
1 1274
1 1275
1 1276
1 1277
1 1278
1 1279
1 1280
1 1281
1 1282
1 1283
1 1284
1 1285
1 1286
1 1287
1 1288
1 1289
1 1290
1 1291
1 1292
1 1293
1 1294
1 1295
1 1296
1 1297
1 1298
1 1299
1 1300
1 1301
1 1302
1 1303
1 1304
1 1305
1 1306
1 1307
1 1308
1 1309
1 1310
1 1311
1 1312
1 1313
1 1314
1 1315
1 1316
1 1317
1 1318
1 1319
1 1320
1 1321
1 1322
1 1323
1 1324
1 1325
1 1326
1 1327
1 1328
1 1329
1 1330
1 1331
1 1332
1 1333
1 1334
1 1335
1 1336
1 1337
1 1338
1 1339
1 1340
1 1341
1 1342
1 1343
1 1344
1 1345
1 1346
1 1347
1 1348
1 1349
1 1350
1 1351
1 1352
1 1353
1 1354
1 1355
1 1356
1 1357
1 1358
1 1359
1 1360
1 1361
1 1362
1 1363
1 1364
1 1365
1 1366
1 1367
1 1368
1 1369
1 1370
1 1371
1 1372
1 1373
1 1374
1 1375
1 1376
1 1377
1 1378
1 1379
1 1380
1 1381
1 1382
1 1383
1 1384
1 1385
1 1386
1 1387
1 1388
1 1389
1 1390
1 1391
1 1392
1 1393
1 1394
1 1395
1 1396
1 1397
1 1398
1 1399
1 1400
1 1401
1 1402
1 1403
1 1404
1 1405
1 1406
1 1407
1 1408
1 1409
1 1410
1 1411
1 1412
1 1413
1 1414
1 1415
1 1416
1 1417
1 1418
1 1419
1 1420
1 1421
1 1422
1 1423
1 1424
1 1425
1 1426
1 1427
1 1428
1 1429
1 1430
1 1431
1 1432
1 1433
1 1434
1 1435
1 1436
1 1437
1 1438
1 1439
1 1440
1 1441
1 1442
1 1443
1 1444
1 1445
1 1446
1 1447
1 1448
1 1449
1 1450
1 1451
1 1452
1 1453
1 1454
1 1455
1 1456
1 1457
1 1458
1 1459
1 1460
1 1461
1 1462
1 1463
1 1464
1 1465
1 1466
1 1467
1 1468
1 1469
1 1470
1 1471
1 1472
1 1473
1 1474
1 1475
1 1476
1 1477
1 1478
1 1479
1 1480
1 1481
1 1482
1 1483
1 1484
1 1485
1 1486
1 1487
1 1488
1 1489
1 1490
1 1491
1 1492
1 1493
1 1494
1 1495
1 1496
1 1497
1 1498
1 1499
1 1500
1 1501
1 1502
1 1503
1 1504
1 1505
1 1506
1 1507
1 1508
1 1509
1 1510
1 1511
1 1512
1 1513
1 1514
1 1515
1 1516
1 1517
1 1518
1 1519
1 1520
1 1521
1 1522
1 1523
1 1524
1 1525
1 1526
1 1527
1 1528
1 1529
1 1530
1 1531
1 1532
1 1533
1 1534
1 1535
1 1536
1 1537
1 1538
1 1539
1 1540
1 1541
1 1542
1 1543
1 1544
1 1545
1 1546
1 1547
1 1548
1 1549
1 1550
1 1551
1 1552
1 1553
1 1554
1 1555
1 1556
1 1557
1 1558
1 1559
1 1560
1 1561
1 1562
1 1563
1 1564
1 1565
1 1566
1 1567
1 1568
1 1569
1 1570
1 1571
1 1572
1 1573
1 1574
1 1575
1 1576
1 1577
1 1578
1 1579
1 1580
1 1581
1 1582
1 1583
1 1584
1 1585
1 1586
1 1587
1 1588
1 1589
1 1590
1 1591
1 1592
1 1593
1 1594
1 1595
1 1596
1 1597
1 1598
1 1599
1 1600
1 1601
1 1602
1 1603
1 1604
1 1605
1 1606
1 1607
1 1608
1 1609
1 1610
1 1611
1 1612
1 1613
1 1614
1 1615
1 1616
1 1617
1 1618
1 1619
1 1620
1 1621
1 1622
1 1623
1 1624
1 1625
1 1626
1 1627
1 1628
1 1629
1 1630
1 1631
1 1632
1 1633
1 1634
1 1635
1 1636
1 1637
1 1638
1 1639
1 1640
1 1641
1 1642
1 1643
1 1644
1 1645
1 1646
1 1647
1 1648
1 1649
1 1650
1 1651
1 1652
1 1653
1 1654
1 1655
1 1656
1 1657
1 1658
1 1659
1 1660
1 1661
1 1662
1 1663
1 1664
1 1665
1 1666
1 1667
1 1668
1 1669
1 1670
1 1671
1 1672
1 1673
1 1674
1 1675
1 1676
1 1677
1 1678
1 1679
1 1680
1 1681
1 1682
1 1683
1 1684
1 1685
1 1686
1 1687
1 1688
1 1689
1 1690
1 1691
1 1692
1 1693
1 1694
1 1695
1 1696
1 1697
1 1698
1 1699
1 1700
1 1701
1 1702
1 1703
1 1704
1 1705
1 1706
1 1707
1 1708
1 1709
1 1710
1 1711
1 1712
1 1713
1 1714
1 1715
1 1716
1 1717
1 1718
1 1719
1 1720
1 1721
1 1722
1 1723
1 1724
1 1725
1 1726
1 1727
1 1728
1 1729
1 1730
1 1731
1 1732
1 1733
1 1734
1 1735
1 1736
1 1737
1 1738
1 1739
1 1740
1 1741
1 1742
1 1743
1 1744
1 1745
1 1746
1 1747
1 1748
1 1749
1 1750
1 1751
1 1752
1 1753
1 1754
1 1755
1 1756
1 1757
1 1758
1 1759
1 1760
1 1761
1 1762
1 1763
1 1764
1 1765
1 1766
1 1767
1 1768
1 1769
1 1770
1 1771
1 1772
1 1773
1 1774
1 1775
1 1776
1 1777
1 1778
1 1779
1 1780
1 1781
1 1782
1 1783
1 1784
1 1785
1 1786
1 1787
1 1788
1 1789
1 1790
1 1791
1 1792
1 1793
1 1794
1 1795
1 1796
1 1797
1 1798
1 1799
1 1800
1 1801
1 1802
1 1803
1 1804
1 1805
1 1806
1 1807
1 1808
1 1809
1 1810
1 1811
1 1812
1 1813
1 1814
1 1815
1 1816
1 1817
1 1818
1 1819
1 1820
1 1821
1 1822
1 1823
1 1824
1 1825
1 1826
1 1827
1 1828
1 1829
1 1830
1 1831
1 1832
1 1833
1 1834
1 1835
1 1836
1 1837
1 1838
1 1839
1 1840
1 1841
1 1842
1 1843
1 1844
1 1845
1 1846
1 1847
1 1848
1 1849
1 1850
1 1851
1 1852
1 1853
1 1854
1 1855
1 1856
1 1857
1 1858
1 1859
1 1860
1 1861
1 1862
1 1863
1 1864
1 1865
1 1866
1 1867
1 1868
1 1869
1 1870
1 1871
1 1872
1 1873
1 1874
1 1875
1 1876
1 1877
1 1878
1 1879
1 1880
1 1881
1 1882
1 1883
1 1884
1 1885
1 1886
1 1887
1 1888
1 1889
1 1890
1 1891
1 1892
1 1893
1 1894
1 1895
1 1896
1 1897
1 1898
1 1899
1 1900
1 1901
1 1902
1 1903
1 1904
1 1905
1 1906
1 1907
1 1908
1 1909
1 1910
1 1911
1 1912
1 1913
1 1914
1 1915
1 1916
1 1917
1 1918
1 1919
1 1920
1 1921
1 1922
1 1923
1 1924
1 1925
1 1926
1 1927
1 1928
1 1929
1 1930
1 1931
1 1932
1 1933
1 1934
1 1935
1 1936
1 1937
1 1938
1 1939
1 1940
1 1941
1 1942
1 1943
1 1944
1 1945
1 1946
1 1947
1 1948
1 1949
1 1950
1 1951
1 1952
1 1953
1 1954
1 1955
1 1956
1 1957
1 1958
1 1959
1 1960
1 1961
1 1962
1 1963
1 1964
1 1965
1 1966
1 1967
1 1968
1 1969
1 1970
1 1971
1 1972
1 1973
1 1974
1 1975
1 1976
1 1977
1 1978
1 1979
1 1980
1 1981
1 1982
1 1983
1 1984
1 1985
1 1986
1 1987
1 1988
1 1989
1 1990
1 1991
1 1992
1 1993
1 1994
1 1995
1 1996
1 1997
1 1998
1 1999
1 2000
1 2001
1 2002
1 2003
1 2004
1 2005
1 2006
1 2007
1 2008
1 2009
1 2010
1 2011
1 2012
1 2013
1 2014
1 2015
1 2016
1 2017
1 2018
1 2019
1 2020
1 2021
1 2022
1 2023
1 2024
1 2025
1 2026
1 2027
1 2028
1 2029
1 2030
1 2031
1 2032
1 2033
1 2034
1 2035
1 2036
1 2037
1 2038
1 2039
1 2040
1 2041
1 2042
1 2043
1 2044
1 2045
1 2046
1 2047
1 2048
1 2049
1 2050
1 2051
1 2052
1 2053
1 2054
1 2055
1 2056
1 2057
1 2058
1 2059
1 2060
1 2061
1 2062
1 2063
1 2064
1 2065
1 2066
1 2067
1 2068
1 2069
1 2070
1 2071
1 2072
1 2073
1 2074
1 2075
1 2076
1 2077
1 2078
1 2079
1 2080
1 2081
1 2082
1 2083
1 2084
1 2085
1 2086
1 2087
1 2088
1 2089
1 2090
1 2091
1 2092
1 2093
1 2094
1 2095
1 2096
1 2097
1 2098
1 2099
1 2100
1 2101
1 2102
1 2103
1 2104
1 2105
1 2106
1 2107
1 2108
1 2109
1 2110
1 2111
1 2112
1 2113
1 2114
1 2115
1 2116
1 2117
1 2118
1 2119
1 2120
1 2121
1 2122
1 2123
1 2124
1 2125
1 2126
1 2127
1 2128
1 2129
1 2130
1 2131
1 2132
1 2133
1 2134
1 2135
1 2136
1 2137
1 2138
1 2139
1 2140
1 2141
1 2142
1 2143
1 2144
1 2145
1 2146
1 2147
1 2148
1 2149
1 2150
1 2151
1 2152
1 2153
1 2154
1 2155
1 2156
1 2157
1 2158
1 2159
1 2160
1 2161
1 2162
1 2163
1 2164
1 2165
1 2166
1 2167
1 2168
1 2169
1 2170
1 2171
1 2172
1 2173
1 2174
1 2175
1 2176
1 2177
1 2178
1 2179
1 2180
1 2181
1 2182
1 2183
1 2184
1 2185
1 2186
1 2187
1 2188
1 2189
1 2190
1 2191
1 2192
1 2193
1 2194
1 2195
1 2196
1 2197
1 2198
1 2199
1 2200
1 2201
1 2202
1 2203
1 2204
1 2205
1 2206
1 2207
1 2208
1 2209
1 2210
1 2211
1 2212
1 2213
1 2214
1 2215
1 2216
1 2217
1 2218
1 2219
1 2220
1 2221
1 2222
1 2223
1 2224
1 2225
1 2226
1 2227
1 2228
1 2229
1 2230
1 2231
1 2232
1 2233
1 2234
1 2235
1 2236
1 2237
1 2238
1 2239
1 2240
1 2241
1 2242
1 2243
1 2244
1 2245
1 2246
1 2247
1 2248
1 2249
1 2250
1 2251
1 2252
1 2253
1 2254
1 2255
1 2256
1 2257
1 2258
1 2259
1 2260
1 2261
1 2262
1 2263
1 2264
1 2265
1 2266
1 2267
1 2268
1 2269
1 2270
1 2271
1 2272
1 2273
1 2274
1 2275
1 2276
1 2277
1 2278
1 2279
1 2280
1 2281
1 2282
1 2283
1 2284
1 2285
1 2286
1 2287
1 2288
1 2289
1 2290
1 2291
1 2292
1 2293
1 2294
1 2295
1 2296
1 2297
1 2298
1 2299
1 2300
1 2301
1 2302
1 2303
1 2304
1 2305
1 2306
1 2307
1 2308
1 2309
1 2310
1 2311
1 2312
1 2313
1 2314
1 2315
1 2316
1 2317
1 2318
1 2319
1 2320
1 2321
1 2322
1 2323
1 2324
1 2325
1 2326
1 2327
1 2328
1 2329
1 2330
1 2331
1 2332
1 2333
1 2334
1 2335
1 2336
1 2337
1 2338
1 2339
1 2340
1 2341
1 2342
1 2343
1 2344
1 2345
1 2346
1 2347
1 2348
1 2349
1 2350
1 2351
1 2352
1 2353
1 2354
1 2355
1 2356
1 2357
1 2358
1 2359
1 2360
1 2361
1 2362
1 2363
1 2364
1 2365
1 2366
1 2367
1 2368
1 2369
1 2370
1 2371
1 2372
1 2373
1 2374
1 2375
1 2376
1 2377
1 2378
1 2379
1 2380
1 2381
1 2382
1 2383
1 2384
1 2385
1 2386
1 2387
1 2388
1 2389
1 2390
1 2391
1 2392
1 2393
1 2394
1 2395
1 2396
1 2397
1 2398
1 2399
1 2400
1 2401
1 2402
1 2403
1 2404
1 2405
1 2406
1 2407
1 2408
1 2409
1 2410
1 2411
1 2412
1 2413
1 2414
1 2415
1 2416
1 2417
1 2418
1 2419
1 2420
1 2421
1 2422
1 2423
1 2424
1 2425
1 2426
1 2427
1 2428
1 2429
1 2430
1 2431
1 2432
1 2433
1 2434
1 2435
1 2436
1 2437
1 2438
1 2439
1 2440
1 2441
1 2442
1 2443
1 2444
1 2445
1 2446
1 2447
1 2448
1 2449
1 2450
1 2451
1 2452
1 2453
1 2454
1 2455
1 2456
1 2457
1 2458
1 2459
1 2460
1 2461
1 2462
1 2463
1 2464
1 2465
1 2466
1 2467
1 2468
1 2469
1 2470
1 2471
1 2472
1 2473
1 2474
1 2475
1 2476
1 2477
1 2478
1 2479
1 2480
1 2481
1 2482
1 2483
1 2484
1 2485
1 2486
1 2487
1 2488
1 2489
1 2490
1 2491
1 2492
1 2493
1 2494
1 2495
1 2496
1 2497
1 2498
1 2499
1 2500
1 2501
1 2502
1 2503
1 2504
1 2505
1 2506
1 2507
1 2508
1 2509
1 2510
1 2511
1 2512
1 2513
1 2514
1 2515
1 2516
1 2517
1 2518
1 2519
1 2520
1 2521
1 2522
1 2523
1 2524
1 2525
1 2526
1 2527
1 2528
1 2529
1 2530
1 2531
1 2532
1 2533
1 2534
1 2535
1 2536
1 2537
1 2538
1 2539
1 2540
1 2541
1 2542
1 2543
1 2544
1 2545
1 2546
1 2547
1 2548
1 2549
1 2550
1 2551
1 2552
1 2553
1 2554
1 2555
1 2556
1 2557
1 2558
1 2559
1 2560
1 2561
1 2562
1 2563
1 2564
1 2565
1 2566
1 2567
1 2568
1 2569
1 2570
1 2571
1 2572
1 2573
1 2574
1 2575
1 2576
1 2577
1 2578
1 2579
1 2580
1 2581
1 2582
1 2583
1 2584
1 2585
1 2586
1 2587
1 2588
1 2589
1 2590
1 2591
1 2592
1 2593
1 2594
1 2595
1 2596
1 2597
1 2598
1 2599
1 2600
1 2601
1 2602
1 2603
1 2604
1 2605
1 2606
1 2607
1 2608
1 2609
1 2610
1 2611
1 2612
1 2613
1 2614
1 2615
1 2616
1 2617
1 2618
1 2619
1 2620
1 2621
1 2622
1 2623
1 2624
1 2625
1 2626
1 2627
1 2628
1 2629
1 2630
1 2631
1 2632
1 2633
1 2634
1 2635
1 2636
1 2637
1 2638
1 2639
1 2640
1 2641
1 2642
1 2643
1 2644
1 2645
1 2646
1 2647
1 2648
1 2649
1 2650
1 2651
1 2652
1 2653
1 2654
1 2655
1 2656
1 2657
1 2658
1 2659
1 2660
1 2661
1 2662
1 2663
1 2664
1 2665
1 2666
1 2667
1 2668
1 2669
1 2670
1 2671
1 2672
1 2673
1 2674
1 2675
1 2676
1 2677
1 2678
1 2679
1 2680
1 2681
1 2682
1 2683
1 2684
1 2685
1 2686
1 2687
1 2688
1 2689
1 2690
1 2691
1 2692
1 2693
1 2694
1 2695
1 2696
1 2697
1 2698
1 2699
1 2700
1 2701
1 2702
1 2703
1 2704
1 2705
1 2706
1 2707
1 2708
1 2709
1 2710
1 2711
1 2712
1 2713
1 2714
1 2715
1 2716
1 2717
1 2718
1 2719
1 2720
1 2721
1 2722
1 2723
1 2724
1 2725
1 2726
1 2727
1 2728
1 2729
1 2730
1 2731
1 2732
1 2733
1 2734
1 2735
1 2736
1 2737
1 2738
1 2739
1 2740
1 2741
1 2742
1 2743
1 2744
1 2745
1 2746
1 2747
1 2748
1 2749
1 2750
1 2751
1 2752
1 2753
1 2754
1 2755
1 2756
1 2757
1 2758
1 2759
1 2760
1 2761
1 2762
1 2763
1 2764
1 2765
1 2766
1 2767
1 2768
1 2769
1 2770
1 2771
1 2772
1 2773
1 2774
1 2775
1 2776
1 2777
1 2778
1 2779
1 2780
1 2781
1 2782
1 2783
1 2784
1 2785
1 2786
1 2787
1 2788
1 2789
1 2790
1 2791
1 2792
1 2793
1 2794
1 2795
1 2796
1 2797
1 2798
1 2799
1 2800
1 2801
1 2802
1 2803
1 2804
1 2805
1 2806
1 2807
1 2808
1 2809
1 2810
1 2811
1 2812
1 2813
1 2814
1 2815
1 2816
1 2817
1 2818
1 2819
1 2820
1 2821
1 2822
1 2823
1 2824
1 2825
1 2826
1 2827
1 2828
1 2829
1 2830
1 2831
1 2832
1 2833
1 2834
1 2835
1 2836
1 2837
1 2838
1 2839
1 2840
1 2841
1 2842
1 2843
1 2844
1 2845
1 2846
1 2847
1 2848
1 2849
1 2850
1 2851
1 2852
1 2853
1 2854
1 2855
1 2856
1 2857
1 2858
1 2859
1 2860
1 2861
1 2862
1 2863
1 2864
1 2865
1 2866
1 2867
1 2868
1 2869
1 2870
1 2871
1 2872
1 2873
1 2874
1 2875
1 2876
1 2877
1 2878
1 2879
1 2880
1 2881
1 2882
1 2883
1 2884
1 2885
1 2886
1 2887
1 2888
1 2889
1 2890
1 2891
1 2892
1 2893
1 2894
1 2895
1 2896
1 2897
1 2898
1 2899
1 2900
1 2901
1 2902
1 2903
1 2904
1 2905
1 2906
1 2907
1 2908
1 2909
1 2910
1 2911
1 2912
1 2913
1 2914
1 2915
1 2916
1 2917
1 2918
1 2919
1 2920
1 2921
1 2922
1 2923
1 2924
1 2925
1 2926
1 2927
1 2928
1 2929
1 2930
1 2931
1 2932
1 2933
1 2934
1 2935
1 2936
1 2937
1 2938
1 2939
1 2940
1 2941
1 2942
1 2943
1 2944
1 2945
1 2946
1 2947
1 2948
1 2949
1 2950
1 2951
1 2952
1 2953
1 2954
1 2955
1 2956
1 2957
1 2958
1 2959
1 2960
1 2961
1 2962
1 2963
1 2964
1 2965
1 2966
1 2967
1 2968
1 2969
1 2970
1 2971
1 2972
1 2973
1 2974
1 2975
1 2976
1 2977
1 2978
1 2979
1 2980
1 2981
1 2982
1 2983
1 2984
1 2985
1 2986
1 2987
1 2988
1 2989
1 2990
1 2991
1 2992
1 2993
1 2994
1 2995
1 2996
1 2997
1 2998
1 2999
1 3000
1 3001
1 3002
1 3003
1 3004
1 3005
1 3006
1 3007
1 3008
1 3009
1 3010
1 3011
1 3012
1 3013
1 3014
1 3015
1 3016
1 3017
1 3018
1 3019
1 3020
1 3021
1 3022
1 3023
1 3024
1 3025
1 3026
1 3027
1 3028
1 3029
1 3030
1 3031
1 3032
1 3033
1 3034
1 3035
1 3036
1 3037
1 3038
1 3039
1 3040
1 3041
1 3042
1 3043
1 3044
1 3045
1 3046
1 3047
1 3048
1 3049
1 3050
1 3051
1 3052
1 3053
1 3054
1 3055
1 3056
1 3057
1 3058
1 3059
1 3060
1 3061
1 3062
1 3063
1 3064
1 3065
1 3066
1 3067
1 3068
1 3069
1 3070
1 3071
1 3072
1 3073
1 3074
1 3075
1 3076
1 3077
1 3078
1 3079
1 3080
1 3081
1 3082
1 3083
1 3084
1 3085
1 3086
1 3087
1 3088
1 3089
1 3090
1 3091
1 3092
1 3093
1 3094
1 3095
1 3096
1 3097
1 3098
1 3099
1 3100
1 3101
1 3102
1 3103
1 3104
1 3105
1 3106
1 3107
1 3108
1 3109
1 3110
1 3111
1 3112
1 3113
1 3114
1 3115
1 3116
1 3117
1 3118
1 3119
1 3120
1 3121
1 3122
1 3123
1 3124
1 3125
1 3126
1 3127
1 3128
1 3129
1 3130
1 3131
1 3132
1 3133
1 3134
1 3135
1 3136
1 3137
1 3138
1 3139
1 3140
1 3141
1 3142
1 3143
1 3144
1 3145
1 3146
1 3147
1 3148
1 3149
1 3150
1 3151
1 3152
1 3153
1 3154
1 3155
1 3156
1 3157
1 3158
1 3159
1 3160
1 3161
1 3162
1 3163
1 3164
1 3165
1 3166
1 3167
1 3168
1 3169
1 3170
1 3171
1 3172
1 3173
1 3174
1 3175
1 3176
1 3177
1 3178
1 3179
1 3180
1 3181
1 3182
1 3183
1 3184
1 3185
1 3186
1 3187
1 3188
1 3189
1 3190
1 3191
1 3192
1 3193
1 3194
1 3195
1 3196
1 3197
1 3198
1 3199
1 3200
1 3201
1 3202
1 3203
1 3204
1 3205
1 3206
1 3207
1 3208
1 3209
1 3210
1 3211
1 3212
1 3213
1 3214
1 3215
1 3216
1 3217
1 3218
1 3219
1 3220
1 3221
1 3222
1 3223
1 3224
1 3225
1 3226
1 3227
1 3228
1 3229
1 3230
1 3231
1 3232
1 3233
1 3234
1 3235
1 3236
1 3237
1 3238
1 3239
1 3240
1 3241
1 3242
1 3243
1 3244
1 3245
1 3246
1 3247
1 3248
1 3249
1 3250
1 3251
1 3252
1 3253
1 3254
1 3255
1 3256
1 3257
1 3258
1 3259
1 3260
1 3261
1 3262
1 3263
1 3264
1 3265
1 3266
1 3267
1 3268
1 3269
1 3270
1 3271
1 3272
1 3273
1 3274
1 3275
1 3276
1 3277
1 3278
1 3279
1 3280
1 3281
1 3282
1 3283
1 3284
1 3285
1 3286
1 3287
1 3288
1 3289
1 3290
1 3291
1 3292
1 3293
1 3294
1 3295
1 3296
1 3297
1 3298
1 3299
1 3300
1 3301
1 3302
1 3303
1 3304
1 3305
1 3306
1 3307
1 3308
1 3309
1 3310
1 3311
1 3312
1 3313
1 3314
1 3315
1 3316
1 3317
1 3318
1 3319
1 3320
1 3321
1 3322
1 3323
1 3324
1 3325
1 3326
1 3327
1 3328
1 3329
1 3330
1 3331
1 3332
1 3333
1 3334
1 3335
1 3336
1 3337
1 3338
1 3339
1 3340
1 3341
1 3342
1 3343
1 3344
1 3345
1 3346
1 3347
1 3348
1 3349
1 3350
1 3351
1 3352
1 3353
1 3354
1 3355
1 3356
1 3357
1 3358
1 3359
1 3360
1 3361
1 3362
1 3363
1 3364
1 3365
1 3366
1 3367
1 3368
1 3369
1 3370
1 3371
1 3372
1 3373
1 3374
1 3375
1 3376
1 3377
1 3378
1 3379
1 3380
1 3381
1 3382
1 3383
1 3384
1 3385
1 3386
1 3387
1 3388
1 3389
1 3390
1 3391
1 3392
1 3393
1 3394
1 3395
1 3396
1 3397
1 3398
1 3399
1 3400
1 3401
1 3402
1 3403
1 3404
1 3405
1 3406
1 3407
1 3408
1 3409
1 3410
1 3411
1 3412
1 3413
1 3414
1 3415
1 3416
1 3417
1 3418
1 3419
1 3420
1 3421
1 3422
1 3423
1 3424
1 3425
1 3426
1 3427
1 3428
1 3429
1 3430
1 3431
1 3432
1 3433
1 3434
1 3435
1 3436
1 3437
1 3438
1 3439
1 3440
1 3441
1 3442
1 3443
1 3444
1 3445
1 3446
1 3447
1 3448
1 3449
1 3450
1 3451
1 3452
1 3453
1 3454
1 3455
1 3456
1 3457
1 3458
1 3459
1 3460
1 3461
1 3462
1 3463
1 3464
1 3465
1 3466
1 3467
1 3468
1 3469
1 3470
1 3471
1 3472
1 3473
1 3474
1 3475
1 3476
1 3477
1 3478
1 3479
1 3480
1 3481
1 3482
1 3483
1 3484
1 3485
1 3486
1 3487
1 3488
1 3489
1 3490
1 3491
1 3492
1 3493
1 3494
1 3495
1 3496
1 3497
1 3498
1 3499
1 3500
1 3501
1 3502
1 3503
1 3504
1 3505
1 3506
1 3507
1 3508
1 3509
1 3510
1 3511
1 3512
1 3513
1 3514
1 3515
1 3516
1 3517
1 3518
1 3519
1 3520
1 3521
1 3522
1 3523
1 3524
1 3525
1 3526
1 3527
1 3528
1 3529
1 3530
1 3531
1 3532
1 3533
1 3534
1 3535
1 3536
1 3537
1 3538
1 3539
1 3540
1 3541
1 3542
1 3543
1 3544
1 3545
1 3546
1 3547
1 3548
1 3549
1 3550
1 3551
1 3552
1 3553
1 3554
1 3555
1 3556
1 3557
1 3558
1 3559
1 3560
1 3561
1 3562
1 3563
1 3564
1 3565
1 3566
1 3567
1 3568
1 3569
1 3570
1 3571
1 3572
1 3573
1 3574
1 3575
1 3576
1 3577
1 3578
1 3579
1 3580
1 3581
1 3582
1 3583
1 3584
1 3585
1 3586
1 3587
1 3588
1 3589
1 3590
1 3591
1 3592
1 3593
1 3594
1 3595
1 3596
1 3597
1 3598
1 3599
1 3600
1 3601
1 3602
1 3603
1 3604
1 3605
1 3606
1 3607
1 3608
1 3609
1 3610
1 3611
1 3612
1 3613
1 3614
1 3615
1 3616
1 3617
1 3618
1 3619
1 3620
1 3621
1 3622
1 3623
1 3624
1 3625
1 3626
1 3627
1 3628
1 3629
1 3630
1 3631
1 3632
1 3633
1 3634
1 3635
1 3636
1 3637
1 3638
1 3639
1 3640
1 3641
1 3642
1 3643
1 3644
1 3645
1 3646
1 3647
1 3648
1 3649
1 3650
1 3651
1 3652
1 3653
1 3654
1 3655
1 3656
1 3657
1 3658
1 3659
1 3660
1 3661
1 3662
1 3663
1 3664
1 3665
1 3666
1 3667
1 3668
1 3669
1 3670
1 3671
1 3672
1 3673
1 3674
1 3675
1 3676
1 3677
1 3678
1 3679
1 3680
1 3681
1 3682
1 3683
1 3684
1 3685
1 3686
1 3687
1 3688
1 3689
1 3690
1 3691
1 3692
1 3693
1 3694
1 3695
1 3696
1 3697
1 3698
1 3699
1 3700
1 3701
1 3702
1 3703
1 3704
1 3705
1 3706
1 3707
1 3708
1 3709
1 3710
1 3711
1 3712
1 3713
1 3714
1 3715
1 3716
1 3717
1 3718
1 3719
1 3720
1 3721
1 3722
1 3723
1 3724
1 3725
1 3726
1 3727
1 3728
1 3729
1 3730
1 3731
1 3732
1 3733
1 3734
1 3735
1 3736
1 3737
1 3738
1 3739
1 3740
1 3741
1 3742
1 3743
1 3744
1 3745
1 3746
1 3747
1 3748
1 3749
1 3750
1 3751
1 3752
1 3753
1 3754
1 3755
1 3756
1 3757
1 3758
1 3759
1 3760
1 3761
1 3762
1 3763
1 3764
1 3765
1 3766
1 3767
1 3768
1 3769
1 3770
1 3771
1 3772
1 3773
1 3774
1 3775
1 3776
1 3777
1 3778
1 3779
1 3780
1 3781
1 3782
1 3783
1 3784
1 3785
1 3786
1 3787
1 3788
1 3789
1 3790
1 3791
1 3792
1 3793
1 3794
1 3795
1 3796
1 3797
1 3798
1 3799
1 3800
1 3801
1 3802
1 3803
1 3804
1 3805
1 3806
1 3807
1 3808
1 3809
1 3810
1 3811
1 3812
1 3813
1 3814
1 3815
1 3816
1 3817
1 3818
1 3819
1 3820
1 3821
1 3822
1 3823
1 3824
1 3825
1 3826
1 3827
1 3828
1 3829
1 3830
1 3831
1 3832
1 3833
1 3834
1 3835
1 3836
1 3837
1 3838
1 3839
1 3840
1 3841
1 3842
1 3843
1 3844
1 3845
1 3846
1 3847
1 3848
1 3849
1 3850
1 3851
1 3852
1 3853
1 3854
1 3855
1 3856
1 3857
1 3858
1 3859
1 3860
1 3861
1 3862
1 3863
1 3864
1 3865
1 3866
1 3867
1 3868
1 3869
1 3870
1 3871
1 3872
1 3873
1 3874
1 3875
1 3876
1 3877
1 3878
1 3879
1 3880
1 3881
1 3882
1 3883
1 3884
1 3885
1 3886
1 3887
1 3888
1 3889
1 3890
1 3891
1 3892
1 3893
1 3894
1 3895
1 3896
1 3897
1 3898
1 3899
1 3900
1 3901
1 3902
1 3903
1 3904
1 3905
1 3906
1 3907
1 3908
1 3909
1 3910
1 3911
1 3912
1 3913
1 3914
1 3915
1 3916
1 3917
1 3918
1 3919
1 3920
1 3921
1 3922
1 3923
1 3924
1 3925
1 3926
1 3927
1 3928
1 3929
1 3930
1 3931
1 3932
1 3933
1 3934
1 3935
1 3936
1 3937
1 3938
1 3939
1 3940
1 3941
1 3942
1 3943
1 3944
1 3945
1 3946
1 3947
1 3948
1 3949
1 3950
1 3951
1 3952
1 3953
1 3954
1 3955
1 3956
1 3957
1 3958
1 3959
1 3960
1 3961
1 3962
1 3963
1 3964
1 3965
1 3966
1 3967
1 3968
1 3969
1 3970
1 3971
1 3972
1 3973
1 3974
1 3975
1 3976
1 3977
1 3978
1 3979
1 3980
1 3981
1 3982
1 3983
1 3984
1 3985
1 3986
1 3987
1 3988
1 3989
1 3990
1 3991
1 3992
1 3993
1 3994
1 3995
1 3996
1 3997
1 3998
1 3999
1 4000
1 4001
1 4002
1 4003
1 4004
1 4005
1 4006
1 4007
1 4008
1 4009
1 4010
1 4011
1 4012
1 4013
1 4014
1 4015
1 4016
1 4017
1 4018
1 4019
1 4020
1 4021
1 4022
1 4023
1 4024
1 4025
1 4026
1 4027
1 4028
1 4029
1 4030
1 4031
1 4032
1 4033
1 4034
1 4035
1 4036
1 4037
1 4038
1 4039
1 4040
1 4041
1 4042
1 4043
1 4044
1 4045
1 4046
1 4047
1 4048
1 4049
1 4050
1 4051
1 4052
1 4053
1 4054
1 4055
1 4056
1 4057
1 4058
1 4059
1 4060
1 4061
1 4062
1 4063
1 4064
1 4065
1 4066
1 4067
1 4068
1 4069
1 4070
1 4071
1 4072
1 4073
1 4074
1 4075
1 4076
1 4077
1 4078
1 4079
1 4080
1 4081
1 4082
1 4083
1 4084
1 4085
1 4086
1 4087
1 4088
1 4089
1 4090
1 4091
1 4092
1 4093
1 4094
1 4095
1 4096
1 4097
1 4098
1 4099
1 4100
1 4101
1 4102
1 4103
1 4104
1 4105
1 4106
1 4107
1 4108
1 4109
1 4110
1 4111
1 4112
1 4113
1 4114
1 4115
1 4116
1 4117
1 4118
1 4119
1 4120
1 4121
1 4122
1 4123
1 4124
1 4125
1 4126
1 4127
1 4128
1 4129
1 4130
1 4131
1 4132
1 4133
1 4134
1 4135
1 4136
1 4137
1 4138
1 4139
1 4140
1 4141
1 4142
1 4143
1 4144
1 4145
1 4146
1 4147
1 4148
1 4149
1 4150
1 4151
1 4152
1 4153
1 4154
1 4155
1 4156
1 4157
1 4158
1 4159
1 4160
1 4161
1 4162
1 4163
1 4164
1 4165
1 4166
1 4167
1 4168
1 4169
1 4170
1 4171
1 4172
1 4173
1 4174
1 4175
1 4176
1 4177
1 4178
1 4179
1 4180
1 4181
1 4182
1 4183
1 4184
1 4185
1 4186
1 4187
1 4188
1 4189
1 4190
1 4191
1 4192
1 4193
1 4194
1 4195
1 4196
1 4197
1 4198
1 4199
1 4200
1 4201
1 4202
1 4203
1 4204
1 4205
1 4206
1 4207
1 4208
1 4209
1 4210
1 4211
1 4212
1 4213
1 4214
1 4215
1 4216
1 4217
1 4218
1 4219
1 4220
1 4221
1 4222
1 4223
1 4224
1 4225
1 4226
1 4227
1 4228
1 4229
1 4230
1 4231
1 4232
1 4233
1 4234
1 4235
1 4236
1 4237
1 4238
1 4239
1 4240
1 4241
1 4242
1 4243
1 4244
1 4245
1 4246
1 4247
1 4248
1 4249
1 4250
1 4251
1 4252
1 4253
1 4254
1 4255
1 4256
1 4257
1 4258
1 4259
1 4260
1 4261
1 4262
1 4263
1 4264
1 4265
1 4266
1 4267
1 4268
1 4269
1 4270
1 4271
1 4272
1 4273
1 4274
1 4275
1 4276
1 4277
1 4278
1 4279
1 4280
1 4281
1 4282
1 4283
1 4284
1 4285
1 4286
1 4287
1 4288
1 4289
1 4290
1 4291
1 4292
1 4293
1 4294
1 4295
1 4296
1 4297
1 4298
1 4299
1 4300
1 4301
1 4302
1 4303
1 4304
1 4305
1 4306
1 4307
1 4308
1 4309
1 4310
1 4311
1 4312
1 4313
1 4314
1 4315
1 4316
1 4317
1 4318
1 4319
1 4320
1 4321
1 4322
1 4323
1 4324
1 4325
1 4326
1 4327
1 4328
1 4329
1 4330
1 4331
1 4332
1 4333
1 4334
1 4335
1 4336
1 4337
1 4338
1 4339
1 4340
1 4341
1 4342
1 4343
1 4344
1 4345
1 4346
1 4347
1 4348
1 4349
1 4350
1 4351
1 4352
1 4353
1 4354
1 4355
1 4356
1 4357
1 4358
1 4359
1 4360
1 4361
1 4362
1 4363
1 4364
1 4365
1 4366
1 4367
1 4368
1 4369
1 4370
1 4371
1 4372
1 4373
1 4374
1 4375
1 4376
1 4377
1 4378
1 4379
1 4380
1 4381
1 4382
1 4383
1 4384
1 4385
1 4386
1 4387
1 4388
1 4389
1 4390
1 4391
1 4392
1 4393
1 4394
1 4395
1 4396
1 4397
1 4398
1 4399
1 4400
1 4401
1 4402
1 4403
1 4404
1 4405
1 4406
1 4407
1 4408
1 4409
1 4410
1 4411
1 4412
1 4413
1 4414
1 4415
1 4416
1 4417
1 4418
1 4419
1 4420
1 4421
1 4422
1 4423
1 4424
1 4425
1 4426
1 4427
1 4428
1 4429
1 4430
1 4431
1 4432
1 4433
1 4434
1 4435
1 4436
1 4437
1 4438
1 4439
1 4440
1 4441
1 4442
1 4443
1 4444
1 4445
1 4446
1 4447
1 4448
1 4449
1 4450
1 4451
1 4452
1 4453
1 4454
1 4455
1 4456
1 4457
1 4458
1 4459
1 4460
1 4461
1 4462
1 4463
1 4464
1 4465
1 4466
1 4467
1 4468
1 4469
1 4470
1 4471
1 4472
1 4473
1 4474
1 4475
1 4476
1 4477
1 4478
1 4479
1 4480
1 4481
1 4482
1 4483
1 4484
1 4485
1 4486
1 4487
1 4488
1 4489
1 4490
1 4491
1 4492
1 4493
1 4494
1 4495
1 4496
1 4497
1 4498
1 4499
1 4500
1 4501
1 4502
1 4503
1 4504
1 4505
1 4506
1 4507
1 4508
1 4509
1 4510
1 4511
1 4512
1 4513
1 4514
1 4515
1 4516
1 4517
1 4518
1 4519
1 4520
1 4521
1 4522
1 4523
1 4524
1 4525
1 4526
1 4527
1 4528
1 4529
1 4530
1 4531
1 4532
1 4533
1 4534
1 4535
1 4536
1 4537
1 4538
1 4539
1 4540
1 4541
1 4542
1 4543
1 4544
1 4545
1 4546
1 4547
1 4548
1 4549
1 4550
1 4551
1 4552
1 4553
1 4554
1 4555
1 4556
1 4557
1 4558
1 4559
1 4560
1 4561
1 4562
1 4563
1 4564
1 4565
1 4566
1 4567
1 4568
1 4569
1 4570
1 4571
1 4572
1 4573
1 4574
1 4575
1 4576
1 4577
1 4578
1 4579
1 4580
1 4581
1 4582
1 4583
1 4584
1 4585
1 4586
1 4587
1 4588
1 4589
1 4590
1 4591
1 4592
1 4593
1 4594
1 4595
1 4596
1 4597
1 4598
1 4599
1 4600
1 4601
1 4602
1 4603
1 4604
1 4605
1 4606
1 4607
1 4608
1 4609
1 4610
1 4611
1 4612
1 4613
1 4614
1 4615
1 4616
1 4617
1 4618
1 4619
1 4620
1 4621
1 4622
1 4623
1 4624
1 4625
1 4626
1 4627
1 4628
1 4629
1 4630
1 4631
1 4632
1 4633
1 4634
1 4635
1 4636
1 4637
1 4638
1 4639
1 4640
1 4641
1 4642
1 4643
1 4644
1 4645
1 4646
1 4647
1 4648
1 4649
1 4650
1 4651
1 4652
1 4653
1 4654
1 4655
1 4656
1 4657
1 4658
1 4659
1 4660
1 4661
1 4662
1 4663
1 4664
1 4665
1 4666
1 4667
1 4668
1 4669
1 4670
1 4671
1 4672
1 4673
1 4674
1 4675
1 4676
1 4677
1 4678
1 4679
1 4680
1 4681
1 4682
1 4683
1 4684
1 4685
1 4686
1 4687
1 4688
1 4689
1 4690
1 4691
1 4692
1 4693
1 4694
1 4695
1 4696
1 4697
1 4698
1 4699
1 4700
1 4701
1 4702
1 4703
1 4704
1 4705
1 4706
1 4707
1 4708
1 4709
1 4710
1 4711
1 4712
1 4713
1 4714
1 4715
1 4716
1 4717
1 4718
1 4719
1 4720
1 4721
1 4722
1 4723
1 4724
1 4725
1 4726
1 4727
1 4728
1 4729
1 4730
1 4731
1 4732
1 4733
1 4734
1 4735
1 4736
1 4737
1 4738
1 4739
1 4740
1 4741
1 4742
1 4743
1 4744
1 4745
1 4746
1 4747
1 4748
1 4749
1 4750
1 4751
1 4752
1 4753
1 4754
1 4755
1 4756
1 4757
1 4758
1 4759
1 4760
1 4761
1 4762
1 4763
1 4764
1 4765
1 4766
1 4767
1 4768
1 4769
1 4770
1 4771
1 4772
1 4773
1 4774
1 4775
1 4776
1 4777
1 4778
1 4779
1 4780
1 4781
1 4782
1 4783
1 4784
1 4785
1 4786
1 4787
1 4788
1 4789
1 4790
1 4791
1 4792
1 4793
1 4794
1 4795
1 4796
1 4797
1 4798
1 4799
1 4800
1 4801
1 4802
1 4803
1 4804
1 4805
1 4806
1 4807
1 4808
1 4809
1 4810
1 4811
1 4812
1 4813
1 4814
1 4815
1 4816
1 4817
1 4818
1 4819
1 4820
1 4821
1 4822
1 4823
1 4824
1 4825
1 4826
1 4827
1 4828
1 4829
1 4830
1 4831
1 4832
1 4833
1 4834
1 4835
1 4836
1 4837
1 4838
1 4839
1 4840
1 4841
1 4842
1 4843
1 4844
1 4845
1 4846
1 4847
1 4848
1 4849
1 4850
1 4851
1 4852
1 4853
1 4854
1 4855
1 4856
1 4857
1 4858
1 4859
1 4860
1 4861
1 4862
1 4863
1 4864
1 4865
1 4866
1 4867
1 4868
1 4869
1 4870
1 4871
1 4872
1 4873
1 4874
1 4875
1 4876
1 4877
1 4878
1 4879
1 4880
1 4881
1 4882
1 4883
1 4884
1 4885
1 4886
1 4887
1 4888
1 4889
1 4890
1 4891
1 4892
1 4893
1 4894
1 4895
1 4896
1 4897
1 4898
1 4899
1 4900
1 4901
1 4902
1 4903
1 4904
1 4905
1 4906
1 4907
1 4908
1 4909
1 4910
1 4911
1 4912
1 4913
1 4914
1 4915
1 4916
1 4917
1 4918
1 4919
1 4920
1 4921
1 4922
1 4923
1 4924
1 4925
1 4926
1 4927
1 4928
1 4929
1 4930
1 4931
1 4932
1 4933
1 4934
1 4935
1 4936
1 4937
1 4938
1 4939
1 4940
1 4941
1 4942
1 4943
1 4944
1 4945
1 4946
1 4947
1 4948
1 4949
1 4950
1 4951
1 4952
1 4953
1 4954
1 4955
1 4956
1 4957
1 4958
1 4959
1 4960
1 4961
1 4962
1 4963
1 4964
1 4965
1 4966
1 4967
1 4968
1 4969
1 4970
1 4971
1 4972
1 4973
1 4974
1 4975
1 4976
1 4977
1 4978
1 4979
1 4980
1 4981
1 4982
1 4983
1 4984
1 4985
1 4986
1 4987
1 4988
1 4989
1 4990
1 4991
1 4992
1 4993
1 4994
1 4995
1 4996
1 4997
1 4998
1 4999
CELL_TYPES 5000
1 
1 
1 
1 
1 
1 
1 
1 
1 
1 
1 
1 
1 
1 
1 
1 
1 
1 
1 
1 
1 
1 
1 
1 
1 
1 
1 
1 
1 
1 
1 
1 
1 
1 
1 
1 
1 
1 
1 
1 
1 
1 
1 
1 
1 
1 
1 
1 
1 
1 
1 
1 
1 
1 
1 
1 
1 
1 
1 
1 
1 
1 
1 
1 
1 
1 
1 
1 
1 
1 
1 
1 
1 
1 
1 
1 
1 
1 
1 
1 
1 
1 
1 
1 
1 
1 
1 
1 
1 
1 
1 
1 
1 
1 
1 
1 
1 
1 
1 
1 
1 
1 
1 
1 
1 
1 
1 
1 
1 
1 
1 
1 
1 
1 
1 
1 
1 
1 
1 
1 
1 
1 
1 
1 
1 
1 
1 
1 
1 
1 
1 
1 
1 
1 
1 
1 
1 
1 
1 
1 
1 
1 
1 
1 
1 
1 
1 
1 
1 
1 
1 
1 
1 
1 
1 
1 
1 
1 
1 
1 
1 
1 
1 
1 
1 
1 
1 
1 
1 
1 
1 
1 
1 
1 
1 
1 
1 
1 
1 
1 
1 
1 
1 
1 
1 
1 
1 
1 
1 
1 
1 
1 
1 
1 
1 
1 
1 
1 
1 
1 
1 
1 
1 
1 
1 
1 
1 
1 
1 
1 
1 
1 
1 
1 
1 
1 
1 
1 
1 
1 
1 
1 
1 
1 
1 
1 
1 
1 
1 
1 
1 
1 
1 
1 
1 
1 
1 
1 
1 
1 
1 
1 
1 
1 
1 
1 
1 
1 
1 
1 
1 
1 
1 
1 
1 
1 
1 
1 
1 
1 
1 
1 
1 
1 
1 
1 
1 
1 
1 
1 
1 
1 
1 
1 
1 
1 
1 
1 
1 
1 
1 
1 
1 
1 
1 
1 
1 
1 
1 
1 
1 
1 
1 
1 
1 
1 
1 
1 
1 
1 
1 
1 
1 
1 
1 
1 
1 
1 
1 
1 
1 
1 
1 
1 
1 
1 
1 
1 
1 
1 
1 
1 
1 
1 
1 
1 
1 
1 
1 
1 
1 
1 
1 
1 
1 
1 
1 
1 
1 
1 
1 
1 
1 
1 
1 
1 
1 
1 
1 
1 
1 
1 
1 
1 
1 
1 
1 
1 
1 
1 
1 
1 
1 
1 
1 
1 
1 
1 
1 
1 
1 
1 
1 
1 
1 
1 
1 
1 
1 
1 
1 
1 
1 
1 
1 
1 
1 
1 
1 
1 
1 
1 
1 
1 
1 
1 
1 
1 
1 
1 
1 
1 
1 
1 
1 
1 
1 
1 
1 
1 
1 
1 
1 
1 
1 
1 
1 
1 
1 
1 
1 
1 
1 
1 
1 
1 
1 
1 
1 
1 
1 
1 
1 
1 
1 
1 
1 
1 
1 
1 
1 
1 
1 
1 
1 
1 
1 
1 
1 
1 
1 
1 
1 
1 
1 
1 
1 
1 
1 
1 
1 
1 
1 
1 
1 
1 
1 
1 
1 
1 
1 
1 
1 
1 
1 
1 
1 
1 
1 
1 
1 
1 
1 
1 
1 
1 
1 
1 
1 
1 
1 
1 
1 
1 
1 
1 
1 
1 
1 
1 
1 
1 
1 
1 
1 
1 
1 
1 
1 
1 
1 
1 
1 
1 
1 
1 
1 
1 
1 
1 
1 
1 
1 
1 
1 
1 
1 
1 
1 
1 
1 
1 
1 
1 
1 
1 
1 
1 
1 
1 
1 
1 
1 
1 
1 
1 
1 
1 
1 
1 
1 
1 
1 
1 
1 
1 
1 
1 
1 
1 
1 
1 
1 
1 
1 
1 
1 
1 
1 
1 
1 
1 
1 
1 
1 
1 
1 
1 
1 
1 
1 
1 
1 
1 
1 
1 
1 
1 
1 
1 
1 
1 
1 
1 
1 
1 
1 
1 
1 
1 
1 
1 
1 
1 
1 
1 
1 
1 
1 
1 
1 
1 
1 
1 
1 
1 
1 
1 
1 
1 
1 
1 
1 
1 
1 
1 
1 
1 
1 
1 
1 
1 
1 
1 
1 
1 
1 
1 
1 
1 
1 
1 
1 
1 
1 
1 
1 
1 
1 
1 
1 
1 
1 
1 
1 
1 
1 
1 
1 
1 
1 
1 
1 
1 
1 
1 
1 
1 
1 
1 
1 
1 
1 
1 
1 
1 
1 
1 
1 
1 
1 
1 
1 
1 
1 
1 
1 
1 
1 
1 
1 
1 
1 
1 
1 
1 
1 
1 
1 
1 
1 
1 
1 
1 
1 
1 
1 
1 
1 
1 
1 
1 
1 
1 
1 
1 
1 
1 
1 
1 
1 
1 
1 
1 
1 
1 
1 
1 
1 
1 
1 
1 
1 
1 
1 
1 
1 
1 
1 
1 
1 
1 
1 
1 
1 
1 
1 
1 
1 
1 
1 
1 
1 
1 
1 
1 
1 
1 
1 
1 
1 
1 
1 
1 
1 
1 
1 
1 
1 
1 
1 
1 
1 
1 
1 
1 
1 
1 
1 
1 
1 
1 
1 
1 
1 
1 
1 
1 
1 
1 
1 
1 
1 
1 
1 
1 
1 
1 
1 
1 
1 
1 
1 
1 
1 
1 
1 
1 
1 
1 
1 
1 
1 
1 
1 
1 
1 
1 
1 
1 
1 
1 
1 
1 
1 
1 
1 
1 
1 
1 
1 
1 
1 
1 
1 
1 
1 
1 
1 
1 
1 
1 
1 
1 
1 
1 
1 
1 
1 
1 
1 
1 
1 
1 
1 
1 
1 
1 
1 
1 
1 
1 
1 
1 
1 
1 
1 
1 
1 
1 
1 
1 
1 
1 
1 
1 
1 
1 
1 
1 
1 
1 
1 
1 
1 
1 
1 
1 
1 
1 
1 
1 
1 
1 
1 
1 
1 
1 
1 
1 
1 
1 
1 
1 
1 
1 
1 
1 
1 
1 
1 
1 
1 
1 
1 
1 
1 
1 
1 
1 
1 
1 
1 
1 
1 
1 
1 
1 
1 
1 
1 
1 
1 
1 
1 
1 
1 
1 
1 
1 
1 
1 
1 
1 
1 
1 
1 
1 
1 
1 
1 
1 
1 
1 
1 
1 
1 
1 
1 
1 
1 
1 
1 
1 
1 
1 
1 
1 
1 
1 
1 
1 
1 
1 
1 
1 
1 
1 
1 
1 
1 
1 
1 
1 
1 
1 
1 
1 
1 
1 
1 
1 
1 
1 
1 
1 
1 
1 
1 
1 
1 
1 
1 
1 
1 
1 
1 
1 
1 
1 
1 
1 
1 
1 
1 
1 
1 
1 
1 
1 
1 
1 
1 
1 
1 
1 
1 
1 
1 
1 
1 
1 
1 
1 
1 
1 
1 
1 
1 
1 
1 
1 
1 
1 
1 
1 
1 
1 
1 
1 
1 
1 
1 
1 
1 
1 
1 
1 
1 
1 
1 
1 
1 
1 
1 
1 
1 
1 
1 
1 
1 
1 
1 
1 
1 
1 
1 
1 
1 
1 
1 
1 
1 
1 
1 
1 
1 
1 
1 
1 
1 
1 
1 
1 
1 
1 
1 
1 
1 
1 
1 
1 
1 
1 
1 
1 
1 
1 
1 
1 
1 
1 
1 
1 
1 
1 
1 
1 
1 
1 
1 
1 
1 
1 
1 
1 
1 
1 
1 
1 
1 
1 
1 
1 
1 
1 
1 
1 
1 
1 
1 
1 
1 
1 
1 
1 
1 
1 
1 
1 
1 
1 
1 
1 
1 
1 
1 
1 
1 
1 
1 
1 
1 
1 
1 
1 
1 
1 
1 
1 
1 
1 
1 
1 
1 
1 
1 
1 
1 
1 
1 
1 
1 
1 
1 
1 
1 
1 
1 
1 
1 
1 
1 
1 
1 
1 
1 
1 
1 
1 
1 
1 
1 
1 
1 
1 
1 
1 
1 
1 
1 
1 
1 
1 
1 
1 
1 
1 
1 
1 
1 
1 
1 
1 
1 
1 
1 
1 
1 
1 
1 
1 
1 
1 
1 
1 
1 
1 
1 
1 
1 
1 
1 
1 
1 
1 
1 
1 
1 
1 
1 
1 
1 
1 
1 
1 
1 
1 
1 
1 
1 
1 
1 
1 
1 
1 
1 
1 
1 
1 
1 
1 
1 
1 
1 
1 
1 
1 
1 
1 
1 
1 
1 
1 
1 
1 
1 
1 
1 
1 
1 
1 
1 
1 
1 
1 
1 
1 
1 
1 
1 
1 
1 
1 
1 
1 
1 
1 
1 
1 
1 
1 
1 
1 
1 
1 
1 
1 
1 
1 
1 
1 
1 
1 
1 
1 
1 
1 
1 
1 
1 
1 
1 
1 
1 
1 
1 
1 
1 
1 
1 
1 
1 
1 
1 
1 
1 
1 
1 
1 
1 
1 
1 
1 
1 
1 
1 
1 
1 
1 
1 
1 
1 
1 
1 
1 
1 
1 
1 
1 
1 
1 
1 
1 
1 
1 
1 
1 
1 
1 
1 
1 
1 
1 
1 
1 
1 
1 
1 
1 
1 
1 
1 
1 
1 
1 
1 
1 
1 
1 
1 
1 
1 
1 
1 
1 
1 
1 
1 
1 
1 
1 
1 
1 
1 
1 
1 
1 
1 
1 
1 
1 
1 
1 
1 
1 
1 
1 
1 
1 
1 
1 
1 
1 
1 
1 
1 
1 
1 
1 
1 
1 
1 
1 
1 
1 
1 
1 
1 
1 
1 
1 
1 
1 
1 
1 
1 
1 
1 
1 
1 
1 
1 
1 
1 
1 
1 
1 
1 
1 
1 
1 
1 
1 
1 
1 
1 
1 
1 
1 
1 
1 
1 
1 
1 
1 
1 
1 
1 
1 
1 
1 
1 
1 
1 
1 
1 
1 
1 
1 
1 
1 
1 
1 
1 
1 
1 
1 
1 
1 
1 
1 
1 
1 
1 
1 
1 
1 
1 
1 
1 
1 
1 
1 
1 
1 
1 
1 
1 
1 
1 
1 
1 
1 
1 
1 
1 
1 
1 
1 
1 
1 
1 
1 
1 
1 
1 
1 
1 
1 
1 
1 
1 
1 
1 
1 
1 
1 
1 
1 
1 
1 
1 
1 
1 
1 
1 
1 
1 
1 
1 
1 
1 
1 
1 
1 
1 
1 
1 
1 
1 
1 
1 
1 
1 
1 
1 
1 
1 
1 
1 
1 
1 
1 
1 
1 
1 
1 
1 
1 
1 
1 
1 
1 
1 
1 
1 
1 
1 
1 
1 
1 
1 
1 
1 
1 
1 
1 
1 
1 
1 
1 
1 
1 
1 
1 
1 
1 
1 
1 
1 
1 
1 
1 
1 
1 
1 
1 
1 
1 
1 
1 
1 
1 
1 
1 
1 
1 
1 
1 
1 
1 
1 
1 
1 
1 
1 
1 
1 
1 
1 
1 
1 
1 
1 
1 
1 
1 
1 
1 
1 
1 
1 
1 
1 
1 
1 
1 
1 
1 
1 
1 
1 
1 
1 
1 
1 
1 
1 
1 
1 
1 
1 
1 
1 
1 
1 
1 
1 
1 
1 
1 
1 
1 
1 
1 
1 
1 
1 
1 
1 
1 
1 
1 
1 
1 
1 
1 
1 
1 
1 
1 
1 
1 
1 
1 
1 
1 
1 
1 
1 
1 
1 
1 
1 
1 
1 
1 
1 
1 
1 
1 
1 
1 
1 
1 
1 
1 
1 
1 
1 
1 
1 
1 
1 
1 
1 
1 
1 
1 
1 
1 
1 
1 
1 
1 
1 
1 
1 
1 
1 
1 
1 
1 
1 
1 
1 
1 
1 
1 
1 
1 
1 
1 
1 
1 
1 
1 
1 
1 
1 
1 
1 
1 
1 
1 
1 
1 
1 
1 
1 
1 
1 
1 
1 
1 
1 
1 
1 
1 
1 
1 
1 
1 
1 
1 
1 
1 
1 
1 
1 
1 
1 
1 
1 
1 
1 
1 
1 
1 
1 
1 
1 
1 
1 
1 
1 
1 
1 
1 
1 
1 
1 
1 
1 
1 
1 
1 
1 
1 
1 
1 
1 
1 
1 
1 
1 
1 
1 
1 
1 
1 
1 
1 
1 
1 
1 
1 
1 
1 
1 
1 
1 
1 
1 
1 
1 
1 
1 
1 
1 
1 
1 
1 
1 
1 
1 
1 
1 
1 
1 
1 
1 
1 
1 
1 
1 
1 
1 
1 
1 
1 
1 
1 
1 
1 
1 
1 
1 
1 
1 
1 
1 
1 
1 
1 
1 
1 
1 
1 
1 
1 
1 
1 
1 
1 
1 
1 
1 
1 
1 
1 
1 
1 
1 
1 
1 
1 
1 
1 
1 
1 
1 
1 
1 
1 
1 
1 
1 
1 
1 
1 
1 
1 
1 
1 
1 
1 
1 
1 
1 
1 
1 
1 
1 
1 
1 
1 
1 
1 
1 
1 
1 
1 
1 
1 
1 
1 
1 
1 
1 
1 
1 
1 
1 
1 
1 
1 
1 
1 
1 
1 
1 
1 
1 
1 
1 
1 
1 
1 
1 
1 
1 
1 
1 
1 
1 
1 
1 
1 
1 
1 
1 
1 
1 
1 
1 
1 
1 
1 
1 
1 
1 
1 
1 
1 
1 
1 
1 
1 
1 
1 
1 
1 
1 
1 
1 
1 
1 
1 
1 
1 
1 
1 
1 
1 
1 
1 
1 
1 
1 
1 
1 
1 
1 
1 
1 
1 
1 
1 
1 
1 
1 
1 
1 
1 
1 
1 
1 
1 
1 
1 
1 
1 
1 
1 
1 
1 
1 
1 
1 
1 
1 
1 
1 
1 
1 
1 
1 
1 
1 
1 
1 
1 
1 
1 
1 
1 
1 
1 
1 
1 
1 
1 
1 
1 
1 
1 
1 
1 
1 
1 
1 
1 
1 
1 
1 
1 
1 
1 
1 
1 
1 
1 
1 
1 
1 
1 
1 
1 
1 
1 
1 
1 
1 
1 
1 
1 
1 
1 
1 
1 
1 
1 
1 
1 
1 
1 
1 
1 
1 
1 
1 
1 
1 
1 
1 
1 
1 
1 
1 
1 
1 
1 
1 
1 
1 
1 
1 
1 
1 
1 
1 
1 
1 
1 
1 
1 
1 
1 
1 
1 
1 
1 
1 
1 
1 
1 
1 
1 
1 
1 
1 
1 
1 
1 
1 
1 
1 
1 
1 
1 
1 
1 
1 
1 
1 
1 
1 
1 
1 
1 
1 
1 
1 
1 
1 
1 
1 
1 
1 
1 
1 
1 
1 
1 
1 
1 
1 
1 
1 
1 
1 
1 
1 
1 
1 
1 
1 
1 
1 
1 
1 
1 
1 
1 
1 
1 
1 
1 
1 
1 
1 
1 
1 
1 
1 
1 
1 
1 
1 
1 
1 
1 
1 
1 
1 
1 
1 
1 
1 
1 
1 
1 
1 
1 
1 
1 
1 
1 
1 
1 
1 
1 
1 
1 
1 
1 
1 
1 
1 
1 
1 
1 
1 
1 
1 
1 
1 
1 
1 
1 
1 
1 
1 
1 
1 
1 
1 
1 
1 
1 
1 
1 
1 
1 
1 
1 
1 
1 
1 
1 
1 
1 
1 
1 
1 
1 
1 
1 
1 
1 
1 
1 
1 
1 
1 
1 
1 
1 
1 
1 
1 
1 
1 
1 
1 
1 
1 
1 
1 
1 
1 
1 
1 
1 
1 
1 
1 
1 
1 
1 
1 
1 
1 
1 
1 
1 
1 
1 
1 
1 
1 
1 
1 
1 
1 
1 
1 
1 
1 
1 
1 
1 
1 
1 
1 
1 
1 
1 
1 
1 
1 
1 
1 
1 
1 
1 
1 
1 
1 
1 
1 
1 
1 
1 
1 
1 
1 
1 
1 
1 
1 
1 
1 
1 
1 
1 
1 
1 
1 
1 
1 
1 
1 
1 
1 
1 
1 
1 
1 
1 
1 
1 
1 
1 
1 
1 
1 
1 
1 
1 
1 
1 
1 
1 
1 
1 
1 
1 
1 
1 
1 
1 
1 
1 
1 
1 
1 
1 
1 
1 
1 
1 
1 
1 
1 
1 
1 
1 
1 
1 
1 
1 
1 
1 
1 
1 
1 
1 
1 
1 
1 
1 
1 
1 
1 
1 
1 
1 
1 
1 
1 
1 
1 
1 
1 
1 
1 
1 
1 
1 
1 
1 
1 
1 
1 
1 
1 
1 
1 
1 
1 
1 
1 
1 
1 
1 
1 
1 
1 
1 
1 
1 
1 
1 
1 
1 
1 
1 
1 
1 
1 
1 
1 
1 
1 
1 
1 
1 
1 
1 
1 
1 
1 
1 
1 
1 
1 
1 
1 
1 
1 
1 
1 
1 
1 
1 
1 
1 
1 
1 
1 
1 
1 
1 
1 
1 
1 
1 
1 
1 
1 
1 
1 
1 
1 
1 
1 
1 
1 
1 
1 
1 
1 
1 
1 
1 
1 
1 
1 
1 
1 
1 
1 
1 
1 
1 
1 
1 
1 
1 
1 
1 
1 
1 
1 
1 
1 
1 
1 
1 
1 
1 
1 
1 
1 
1 
1 
1 
1 
1 
1 
1 
1 
1 
1 
1 
1 
1 
1 
1 
1 
1 
1 
1 
1 
1 
1 
1 
1 
1 
1 
1 
1 
1 
1 
1 
1 
1 
1 
1 
1 
1 
1 
1 
1 
1 
1 
1 
1 
1 
1 
1 
1 
1 
1 
1 
1 
1 
1 
1 
1 
1 
1 
1 
1 
1 
1 
1 
1 
1 
1 
1 
1 
1 
1 
1 
1 
1 
1 
1 
1 
1 
1 
1 
1 
1 
1 
1 
1 
1 
1 
1 
1 
1 
1 
1 
1 
1 
1 
1 
1 
1 
1 
1 
1 
1 
1 
1 
1 
1 
1 
1 
1 
1 
1 
1 
1 
1 
1 
1 
1 
1 
1 
1 
1 
1 
1 
1 
1 
1 
1 
1 
1 
1 
1 
1 
1 
1 
1 
1 
1 
1 
1 
1 
1 
1 
1 
1 
1 
1 
1 
1 
1 
1 
1 
1 
1 
1 
1 
1 
1 
1 
1 
1 
1 
1 
1 
1 
1 
1 
1 
1 
1 
1 
1 
1 
1 
1 
1 
1 
1 
1 
1 
1 
1 
1 
1 
1 
1 
1 
1 
1 
1 
1 
1 
1 
1 
1 
1 
1 
1 
1 
1 
1 
1 
1 
1 
1 
1 
1 
1 
1 
1 
1 
1 
1 
1 
1 
1 
1 
1 
1 
1 
1 
1 
1 
1 
1 
1 
1 
1 
1 
1 
1 
1 
1 
1 
1 
1 
1 
1 
1 
1 
1 
1 
1 
1 
1 
1 
1 
1 
1 
1 
1 
1 
1 
1 
1 
1 
1 
1 
1 
1 
1 
1 
1 
1 
1 
1 
1 
1 
1 
1 
1 
1 
1 
1 
1 
1 
1 
1 
1 
1 
1 
1 
1 
1 
1 
1 
1 
1 
1 
1 
1 
1 
1 
1 
1 
1 
1 
1 
1 
1 
1 
1 
1 
1 
1 
1 
1 
1 
1 
1 
1 
1 
1 
1 
1 
1 
1 
1 
1 
1 
1 
1 
1 
1 
1 
1 
1 
1 
1 
1 
1 
1 
1 
1 
1 
1 
1 
1 
1 
1 
1 
1 
1 
1 
1 
1 
1 
1 
1 
1 
1 
1 
1 
1 
1 
1 
1 
1 
1 
1 
1 
1 
1 
1 
1 
1 
1 
1 
1 
1 
1 
1 
1 
1 
1 
1 
1 
1 
1 
1 
1 
1 
1 
1 
1 
1 
1 
1 
1 
1 
1 
1 
1 
1 
1 
1 
1 
1 
1 
1 
1 
1 
1 
1 
1 
1 
1 
1 
1 
1 
1 
1 
1 
1 
1 
1 
1 
1 
1 
1 
1 
1 
1 
1 
1 
1 
1 
1 
1 
1 
1 
1 
1 
1 
1 
1 
1 
1 
1 
1 
1 
1 
1 
1 
1 
1 
1 
1 
1 
1 
1 
1 
1 
1 
1 
1 
1 
1 
1 
1 
1 
1 
1 
1 
1 
1 
1 
1 
1 
1 
1 
1 
1 
1 
1 
1 
1 
1 
1 
1 
1 
1 
1 
1 
1 
1 
1 
1 
1 
1 
1 
1 
1 
1 
1 
1 
1 
1 
1 
1 
1 
1 
1 
1 
1 
1 
1 
1 
1 
1 
1 
1 
1 
1 
1 
1 
1 
1 
1 
1 
1 
1 
1 
1 
1 
1 
1 
1 
1 
1 
1 
1 
1 
1 
1 
1 
1 
1 
1 
1 
1 
1 
1 
1 
1 
1 
1 
1 
1 
1 
1 
1 
1 
1 
1 
1 
1 
1 
1 
1 
1 
1 
1 
1 
1 
1 
1 
1 
1 
1 
1 
1 
1 
1 
1 
1 
1 
1 
1 
1 
1 
1 
1 
1 
1 
1 
1 
1 
1 
1 
1 
1 
1 
1 
1 
1 
1 
1 
1 
1 
1 
1 
1 
1 
1 
1 
1 
1 
1 
1 
1 
1 
1 
1 
1 
1 
1 
1 
1 
1 
1 
1 
1 
1 
1 
1 
1 
1 
1 
1 
1 
1 
1 
1 
1 
1 
1 
1 
1 
1 
1 
1 
1 
1 
1 
1 
1 
1 
1 
1 
1 
1 
1 
1 
1 
1 
1 
1 
1 
1 
1 
1 
1 
1 
1 
1 
1 
1 
1 
1 
1 
1 
1 
1 
1 
1 
1 
1 
1 
1 
1 
1 
1 
1 
1 
1 
1 
1 
1 
1 
1 
1 
1 
1 
1 
1 
1 
1 
1 
1 
1 
1 
1 
1 
1 
1 
1 
1 
1 
1 
1 
1 
1 
1 
1 
1 
1 
1 
1 
1 
1 
1 
1 
1 
1 
1 
1 
1 
1 
1 
1 
1 
1 
1 
1 
1 
1 
1 
1 
1 
1 
1 
1 
1 
1 
1 
1 
1 
1 
1 
1 
1 
1 
1 
1 
1 
1 
1 
1 
1 
1 
1 
1 
1 
1 
1 
1 
1 
1 
1 
1 
1 
1 
1 
1 
1 
1 
1 
1 
1 
1 
1 
1 
1 
1 
1 
1 
1 
1 
1 
1 
1 
1 
1 
1 
1 
1 
1 
1 
1 
1 
1 
1 
1 
1 
1 
1 
1 
1 
1 
1 
1 
1 
1 
1 
1 
1 
1 
1 
1 
1 
1 
1 
1 
1 
1 
1 
1 
1 
1 
1 
1 
1 
1 
1 
1 
1 
1 
1 
1 
1 
1 
1 
1 
1 
1 
1 
1 
1 
1 
1 
1 
1 
1 
1 
1 
1 
1 
1 
1 
1 
1 
1 
1 
1 
1 
1 
1 
1 
1 
1 
1 
1 
1 
1 
1 
1 
1 
1 
1 
1 
1 
1 
1 
1 
1 
1 
1 
1 
1 
1 
1 
1 
1 
1 
1 
1 
1 
1 
1 
1 
1 
1 
1 
1 
1 
1 
1 
1 
1 
1 
1 
1 
1 
1 
1 
1 
1 
1 
1 
1 
1 
1 
1 
1 
1 
1 
1 
1 
1 
1 
1 
1 
1 
1 
1 
1 
1 
1 
1 
1 
1 
1 
1 
1 
1 
1 
1 
1 
1 
1 
1 
1 
1 
1 
1 
1 
1 
1 
1 
1 
1 
1 
1 
1 
1 
1 
1 
1 
1 
1 
1 
1 
1 
1 
1 
1 
1 
1 
1 
1 
1 
1 
1 
1 
1 
1 
1 
1 
1 
1 
1 
1 
1 
1 
1 
1 
1 
1 
1 
1 
1 
1 
1 
1 
1 
1 
1 
1 
1 
1 
1 
1 
1 
1 
1 
1 
1 
1 
1 
1 
1 
1 
1 
1 
1 
1 
1 
1 
1 
1 
1 
1 
1 
1 
1 
1 
1 
1 
1 
1 
1 
1 
1 
1 
1 
1 
1 
1 
1 
1 
1 
1 
1 
1 
1 
1 
1 
1 
1 
1 
1 
1 
1 
1 
1 
1 
1 
1 
1 
1 
1 
1 
1 
1 
1 
1 
1 
1 
1 
1 
1 
1 
1 
1 
1 
1 
1 
1 
1 
1 
1 
1 
1 
1 
1 
1 
1 
1 
1 
1 
1 
1 
1 
1 
1 
1 
1 
1 
1 
1 
1 
1 
1 
1 
1 
1 
1 
1 
1 
1 
1 
1 
1 
1 
1 
1 
1 
1 
1 
1 
1 
1 
1 
1 
1 
1 
1 
1 
1 
1 
1 
1 
1 
1 
1 
1 
1 
1 
1 
1 
1 
1 
1 
1 
1 
1 
1 
1 
1 
1 
1 
1 
1 
1 
1 
1 
1 
1 
1 
1 
1 
1 
1 
1 
1 
1 
1 
1 
1 
1 
1 
1 
1 
1 
1 
1 
1 
1 
1 
1 
1 
1 
1 
1 
1 
1 
1 
1 
1 
1 
1 
1 
1 
1 
1 
1 
1 
1 
1 
1 
1 
1 
1 
1 
1 
1 
1 
1 
1 
1 
1 
1 
1 
1 
1 
1 
1 
1 
1 
1 
1 
1 
1 
1 
1 
1 
1 
1 
1 
1 
1 
1 
1 
1 
1 
1 
1 
1 
1 
1 
1 
1 
1 
1 
1 
1 
1 
1 
1 
1 
1 
1 
1 
1 
1 
1 
1 
1 
1 
1 
1 
1 
1 
1 
1 
1 
1 
1 
1 
1 
1 
1 
1 
1 
1 
1 
1 
1 
1 
1 
1 
1 
1 
1 
1 
1 
1 
1 
1 
1 
1 
1 
1 
1 
1 
1 
1 
1 
1 
1 
1 
1 
1 
1 
1 
1 
1 
1 
1 
1 
1 
1 
1 
1 
1 
1 
1 
1 
1 
1 
1 
1 
1 
1 
1 
1 
1 
1 
1 
1 
1 
1 
1 
1 
1 
1 
1 
1 
1 
1 
1 
1 
1 
1 
1 
1 
1 
1 
1 
1 
1 
1 
1 
1 
1 
1 
1 
1 
1 
1 
1 
1 
1 
1 
1 
1 
1 
1 
1 
1 
1 
1 
1 
1 
1 
1 
1 
1 
1 
1 
1 
1 
1 
1 
1 
1 
1 
1 
1 
1 
1 
1 
1 
1 
1 
1 
1 
1 
1 
1 
1 
1 
1 
1 
1 
1 
1 
1 
1 
1 
1 
1 
1 
1 
1 
1 
1 
1 
1 
1 
1 
1 
1 
1 
1 
1 
1 
1 
1 
1 
1 
1 
1 
1 
1 
1 
1 
1 
1 
1 
1 
1 
1 
1 
1 
1 
1 
1 
1 
1 
1 
1 
1 
1 
1 
1 
1 
1 
1 
1 
1 
1 
1 
1 
1 
1 
1 
1 
1 
1 
1 
1 
1 
1 
1 
1 
1 
1 
1 
1 
1 
1 
1 
1 
1 
1 
1 
1 
1 
1 
1 
1 
1 
1 
1 
1 
1 
1 
1 
1 
1 
1 
1 
1 
1 
1 
1 
1 
1 
1 
1 
1 
1 
1 
1 
1 
1 
1 
1 
1 
1 
1 
1 
1 
1 
1 
1 
1 
1 
1 
1 
1 
1 
1 
1 
1 
1 
1 
1 
1 
1 
1 
1 
1 
1 
1 
1 
1 
1 
1 
1 
1 
1 
1 
1 
1 
1 
1 
1 
1 
1 
1 
1 
1 
1 
1 
1 
1 
1 
1 
1 
1 
1 
1 
1 
1 
1 
1 
1 
1 
1 
1 
1 
1 
1 
1 
1 
1 
1 
1 
1 
1 
1 
1 
1 
1 
1 
1 
1 
1 
1 
1 
1 
1 
1 
1 
1 
1 
1 
1 
1 
1 
1 
1 
1 
1 
1 
1 
1 
1 
1 
1 
1 
1 
1 
1 
1 
1 
1 
1 
1 
1 
1 
1 
1 
1 
1 
1 
1 
1 
1 
1 
1 
1 
1 
1 
1 
1 
1 
1 
1 
1 
1 
1 
1 
1 
1 
1 
1 
1 
1 
1 
1 
1 
1 
1 
1 
1 
1 
1 
1 
1 
1 
1 
1 
1 
1 
1 
1 
1 
1 
1 
1 
1 
1 
1 
1 
1 
1 
1 
1 
1 
1 
1 
1 
1 
1 
1 
1 
1 
1 
1 
1 
1 
1 
1 
1 
1 
1 
1 
1 
1 
1 
1 
1 
1 
1 
1 
1 
1 
1 
1 
1 
1 
1 
1 
1 
1 
1 
1 
1 
1 
1 
1 
1 
1 
1 
1 
1 
1 
1 
1 
1 
1 
1 
1 
1 
1 
1 
1 
1 
1 
1 
1 
1 
1 
1 
1 
1 
1 
1 
1 
1 
1 
1 
1 
1 
1 
1 
1 
1 
1 
1 
1 
1 
1 
1 
1 
1 
1 
1 
1 
1 
1 
1 
1 
1 
1 
1 
1 
1 
1 
1 
1 
1 
1 
1 
1 
1 
1 
1 
1 
1 
1 
1 
1 
1 
1 
1 
1 
1 
1 
1 
1 
1 
1 
1 
1 
1 
1 
1 
1 
1 
1 
1 
1 
1 
1 
1 
1 
1 
1 
1 
1 
1 
1 
1 
1 
1 
1 
1 
1 
1 
1 
1 
1 
1 
1 
1 
1 
1 
1 
1 
1 
1 
1 
1 
1 
1 
1 
1 
1 
1 
1 
1 
1 
1 
1 
1 
1 
1 
1 
1 
1 
1 
1 
1 
1 
1 
1 
1 
1 
1 
1 
1 
1 
1 
1 
1 
1 
1 
1 
1 
1 
1 
1 
1 
1 
1 
1 
1 
1 
1 
1 
1 
1 
1 
1 
1 
1 
1 
1 
1 
1 
1 
1 
1 
1 
1 
1 
1 
1 
1 
1 
1 
1 
1 
1 
1 
1 
1 
1 
1 
1 
1 
1 
1 
1 
1 
1 
1 
1 
1 
1 
1 
1 
1 
1 
1 
1 
1 
1 
1 
1 
1 
1 
1 
1 
1 
1 
1 
1 
1 
1 
1 
1 
1 
1 
1 
1 
1 
1 
1 
1 
1 
1 
1 
1 
1 
1 
1 
1 
1 
1 
1 
1 
1 
1 
1 
1 
1 
1 
1 
1 
1 
1 
1 
1 
1 
1 
1 
1 
1 
1 
1 
1 
1 
1 
1 
1 
1 
1 
1 
1 
1 
1 
1 
1 
1 
1 
1 
1 
1 
1 
1 
1 
1 
1 
1 
1 
1 
1 
1 
1 
1 
1 
1 
1 
1 
1 
1 
1 
1 
1 
1 
1 
1 
1 
1 
1 
1 
1 
1 
1 
1 
1 
1 
1 
1 
1 
1 
1 
1 
1 
1 
1 
1 
1 
1 
1 
1 
1 
1 
1 
1 
1 
1 
1 
1 
1 
1 
1 
1 
1 
1 
1 
1 
1 
1 
1 
1 
1 
1 
1 
1 
1 
1 
1 
1 
1 
1 
1 
1 
1 
1 
1 
1 
1 
1 
1 
1 
1 
1 
1 
1 
1 
1 
1 
1 
1 
1 
1 
1 
1 
1 
1 
1 
1 
1 
1 
1 
1 
1 
1 
1 
1 
1 
1 
1 
1 
1 
1 
1 
1 
1 
1 
1 
1 
1 
1 
1 
1 
1 
1 
1 
1 
1 
1 
1 
1 
1 
1 
1 
1 
1 
1 
1 
1 
1 
1 
1 
1 
1 
1 
1 
1 
1 
1 
1 
1 
1 
1 
1 
1 
1 
1 
1 
1 
1 
1 
1 
1 
1 
1 
1 
1 
1 
1 
1 
1 
1 
1 
1 
1 
1 
1 
1 
1 
1 
1 
1 
1 
1 
1 
1 
1 
1 
1 
1 
1 
1 
1 
1 
1 
1 
1 
1 
1 
1 
1 
1 
1 
1 
1 
1 
1 
1 
1 
1 
1 
1 
1 
1 
1 
1 
1 
1 
1 
1 
1 
1 
1 
1 
1 
1 
1 
1 
1 
1 
1 
1 
1 
1 
1 
1 
1 
1 
1 
1 
1 
1 
1 
1 
1 
1 
1 
1 
1 
1 
1 
1 
1 
1 
1 
1 
1 
1 
1 
1 
1 
1 
1 
1 
1 
1 
1 
1 
1 
1 
1 
1 
1 
1 
1 
1 
1 
1 
1 
1 
1 
1 
1 
1 
1 
1 
1 
1 
1 
1 
1 
1 
1 
1 
1 
1 
1 
1 
1 
1 
1 
1 
1 
1 
1 
1 
1 
1 
1 
1 
1 
1 
1 
1 
1 
1 
1 
1 
1 
1 
1 
1 
1 
1 
1 
1 
1 
1 
1 
1 
1 
1 
1 
1 
1 
1 
1 
1 
1 
1 
1 
1 
1 
1 
1 
POINT_DATA 5000
VECTORS Stress float
-1041 -1836.09 0.
-1253.38 -1487.77 0.
6.29441 7.67658 0.
-3385.37 -5200.1 0.
3.27572 5.46161 0.
-0.763505 -4.4329 0.
-3931.35 -6001.11 0.
-392.103 -715.099 0.
-147.459 -340.62 0.
-3876.47 -6272.07 0.
-1453.7 -2642.28 0.
-32.027 -82.2532 0.
-2053.11 -3045.78 0.
-1613.72 -2430.25 0.
-1253.37 -1883.44 0.
-1038.13 -1603.95 0.
-814.708 -1332.63 0.
-954.897 -1514.16 0.
-809.1 -1411.8 0.
-646.141 -1326.6 0.
-841.134 -1534.89 0.
-812.896 -1470.25 0.
-784.078 -1406.19 0.
-834.249 -1490.58 0.
-873.946 -1582.58 0.
-911.193 -1677.04 0.
-1048.47 -1767.58 0.
-1014.77 -1724.27 0.
-823.134 -1616.68 0.
-789.531 -1521.94 0.
-748.208 -1434.91 0.
-783.677 -1440.28 0.
-773.231 -1444.31 0.
-760.575 -1450.55 0.
-778.303 -1488.18 0.
-775.163 -1501.83 0.
-771.97 -1515.54 0.
-824.167 -1526.01 0.
-805.916 -1503.72 0.
-740.806 -1452.49 0.
-704.685 -1381.67 0.
-668.569 -1310.85 0.
-668.57 -1274.83 0.
-675.975 -1292.12 0.
-683.379 -1309.4 0.
-701.236 -1327.12 0.
-704.823 -1335.48 0.
-708.41 -1343.85 0.
-702.015 -1390.23 0.
-734.133 -1465.18 0.
-766.25 -1540.12 0.
-787.35 -1466.82 0.
-744.13 -1365.96 0.
-684.213 -1277.78 0.
-687.862 -1286.31 0.
-691.511 -1294.83 0.
-666.238 -1292.47 0.
-671.699 -1305.2 0.
-677.159 -1317.93 0.
-668.345 -1354.29 0.
-700.386 -1418.44 0.
-735.008 -1480.02 0.
-861.182 -1546.03 0.
-874.444 -1561.08 0.
-764.84 -1512.21 0.
-762.301 -1478.19 0.
-759.176 -1444.75 0.
-737.817 -1411.74 0.
-760.988 -1436.26 0.
-782.759 -1462.17 0.
-758.164 -1483.45 0.
-824.075 -1601.41 0.
-887.295 -1722.05 0.
-1059.41 -1795.14 0.
-1065.32 -1790.01 0.
-889.55 -1646.43 0.
-823.311 -1529.31 0.
-797.877 -1465.41 0.
-756.521 -1431.04 0.
-782.968 -1515.1 0.
-833.994 -1574.58 0.
-694.771 -1398.73 0.
-913.746 -1605.63 0.
-1117.2 -1828.05 0.
-979.932 -1536.33 0.
-1210.95 -1751.35 0.
-1433.85 -1974.49 0.
-1756.99 -2839.45 0.
-2585.89 -4170.51 0.
1.45104 1.91538 0.
-557.864 -768.728 0.
-3968.1 -5789.36 0.
-1.42951 -1.02693 0.
-32.4533 -35.3294 0.
-2702.79 -2487.46 0.
-128.689 -248.844 0.
-3107 -5613.98 0.
-147.38 -307.175 0.
10.4134 18.9329 0.
-1269.44 -2067.77 0.
-298.442 -612.415 0.
29.5874 68.4184 0.
18.7463 30.3071 0.
0.596535 4.88621 0.
7.333 13.566 0.
-0.663458 -5.44958 0.
-29.1961 -60.5625 0.
-1.72302 -3.87873 0.
0.233358 0.590194 0.
-394.135 -1089.76 0.
-32.1624 -82.199 0.
-6.3522 -16.2409 0.
-665.588 -1095.33 0.
-373.47 -584.909 0.
-295.199 -567.894 0.
-125.923 -248.917 0.
-62.5452 -101.929 0.
-322.781 -635.255 0.
-234.347 -496.824 0.
-164.029 -357.566 0.
-590.376 -1240.76 0.
-549.15 -1193.49 0.
-509.958 -1145.15 0.
-670.107 -1232.4 0.
-694.798 -1339.43 0.
-716.17 -1449.77 0.
-956.981 -1637.01 0.
-924.842 -1592.13 0.
-632.899 -1350.84 0.
-579.083 -1257.21 0.
-537.165 -1165.69 0.
-626.31 -1259.38 0.
-608.988 -1270.29 0.
-617.985 -1254.87 0.
-658.355 -1367.35 0.
-655.483 -1380.74 0.
-652.272 -1394.46 0.
-816.771 -1468.63 0.
-800.768 -1444.09 0.
-673.202 -1363.61 0.
-631.693 -1298.18 0.
-593.719 -1229.21 0.
-631.254 -1198.03 0.
-627.917 -1226.06 0.
-625.496 -1253.18 0.
-663.223 -1279.4 0.
-666.811 -1287.76 0.
-670.398 -1296.12 0.
-606.091 -1309.02 0.
-632.136 -1390.04 0.
-664.245 -1464.97 0.
-813.006 -1446.37 0.
-769.799 -1345.5 0.
-652.526 -1232.77 0.
-656.166 -1241.3 0.
-659.807 -1249.83 0.
-588.737 -1227.81 0.
-601.835 -1232.91 0.
-617.581 -1235.36 0.
-563.534 -1254.19 0.
-602.972 -1310.95 0.
-643.181 -1366.94 0.
-909.69 -1515.44 0.
-919.47 -1533.97 0.
-648.412 -1352.92 0.
-626.198 -1338.56 0.
-624.747 -1303.44 0.
-554.623 -1204.54 0.
-584.702 -1222.15 0.
-615.967 -1238.58 0.
-548.493 -1169.15 0.
-587.894 -1313.67 0.
-654.577 -1430.9 0.
-940.778 -1631.96 0.
-947.503 -1626.02 0.
-729.252 -1481.52 0.
-646.102 -1294.33 0.
-641.98 -1204.18 0.
-388.607 -967.835 0.
-443.252 -1039.65 0.
-503.682 -1109.91 0.
-55.9309 -145.763 0.
-149.085 -357.62 0.
-278.967 -610.217 0.
-100.574 -149.141 0.
-100.32 -130.996 0.
-184.552 -249.992 0.
0.0296827 0.550766 0.
-451.884 -1099.84 0.
-0.566451 -1.75515 0.
0.260774 0.449363 0.
-3.8145 -4.72166 0.
-50.0926 -45.8941 0.
-40.6423 -47.9226 0.
-103.399 -148.144 0.
-0.68716 -17.0168 0.
-738.974 -1691.65 0.
20.4405 43.9261 0.
-8.28302 -39.7952 0.
-22.4312 -51.709 0.
-458.253 -1007.54 0.
1.13966 27.9622 0.
29.321 54.6727 0.
-3.5131 -51.5633 0.
1.34775 7.64326 0.
0.560984 5.86221 0.
0.850921 1.97643 0.
0.166625 0.418997 0.
0.00536963 0.604113 0.
-124.61 -343.067 0.
-2.61252 -6.81658 0.
0.250177 0.682609 0.
-145.281 -132.924 0.
-97.0835 -85.6232 0.
-647.574 -1299.86 0.
-152.937 -289.179 0.
-22.7361 -35.0745 0.
-857.37 -1835.52 0.
-763.841 -1705 0.
-656.213 -1540.77 0.
-1321.66 -2525.33 0.
-1002.24 -1857.74 0.
-723.305 -1285.91 0.
-738.083 -1104.8 0.
-785.947 -1281.79 0.
-1186.73 -2181.1 0.
-1210.97 -2186.97 0.
-1170.46 -2099.95 0.
-802.348 -1522.53 0.
-635.75 -1184.55 0.
-567.784 -1070.58 0.
-731.887 -1339.43 0.
-649.789 -1153.38 0.
-647.105 -1160.6 0.
-682.806 -1276 0.
-627.997 -1153.25 0.
-695.343 -1320.86 0.
-849.747 -1476.17 0.
-881.795 -1562.59 0.
-721.568 -1165.03 0.
-634.438 -990.487 0.
-630.459 -996.892 0.
-658.401 -1194.01 0.
-676.269 -1281.61 0.
-611.381 -1194.62 0.
-665.143 -1164.35 0.
-668.423 -1202.6 0.
-678.782 -1253.1 0.
-579.459 -1206.2 0.
-559.218 -1160.42 0.
-1560.97 -1975.21 0.
-757.991 -1238.44 0.
-787.471 -1307.35 0.
-735.977 -1315.91 0.
-716.568 -1244.75 0.
-700.894 -1214.7 0.
-631.869 -1245.86 0.
-607.624 -1182.58 0.
-625.692 -1180.32 0.
-558.233 -1025.82 0.
-602.674 -1132.82 0.
-626.268 -1154.74 0.
-1081.79 -1695.58 0.
-1080.4 -1681.67 0.
-655.17 -1134.43 0.
-693.204 -1314.97 0.
-720.858 -1361.57 0.
-655.581 -1307.36 0.
-636.759 -1260.38 0.
-702.044 -1370.46 0.
-525.303 -1060.23 0.
-673.175 -1412.06 0.
-781.408 -1586.84 0.
-1315.39 -2374.25 0.
-1340.68 -2429.16 0.
-1204.5 -2276.69 0.
-859.695 -1472.74 0.
-820.171 -1281.88 0.
-680.926 -1568.64 0.
-1037.91 -2220.18 0.
-1519.74 -3190.47 0.
-368.976 -987.814 0.
-696.463 -1704.4 0.
-763.233 -1772.04 0.
-89.0931 -116.389 0.
-66.0079 -68.8073 0.
-303.323 -463.435 0.
0.0137129 2.17001 0.
-0.116819 -2.16573 0.
2.39006 4.39319 0.
-1.40325 -3.47934 0.
-2.11037 -3.6025 0.
-143.192 -133.871 0.
-56.4601 -73.4157 0.
-113.678 -178.569 0.
8.31933 22.5952 0.
-2.02077 -4.99772 0.
-1.94782 -16.8973 0.
5.92018 11.4398 0.
25.4846 63.3401 0.
12.5974 33.2479 0.
-0.918516 -31.5481 0.
-1270.08 -2997.24 0.
13.1009 31.0673 0.
-2418.05 -4441.97 0.
-1.89961 -3.64106 0.
-1.68593 -10.8725 0.
-3631.72 -7055.49 0.
-1.01076 -12.6064 0.
-3266.48 -6238.28 0.
-41.1508 -99.8232 0.
0.664464 1.8337 0.
-4002.7 -7719.69 0.
-55.5034 -119.388 0.
-2153.32 -3877.98 0.
-1430.88 -2787.66 0.
-763.911 -1670.73 0.
-1793.26 -4090.86 0.
-634.483 -1522.59 0.
-4.32358 -10.8146 0.
-640.367 -1478.52 0.
-387.193 -871.759 0.
-191.93 -302.657 0.
-525.923 -703.44 0.
-437.801 -589.969 0.
-356.472 -487.751 0.
-582.878 -859.341 0.
-588.564 -903.325 0.
-340.168 -507.382 0.
-358.833 -576.923 0.
-388.053 -671.369 0.
-483.711 -794.252 0.
-447.639 -757.267 0.
-413.471 -711.057 0.
-391.769 -702.389 0.
-370.103 -651.751 0.
-362.971 -589.793 0.
-545.257 -869.245 0.
-528.052 -849.263 0.
-410.235 -581.663 0.
-418.456 -603.679 0.
-427.534 -628.734 0.
-445.211 -823.093 0.
-412.188 -744.505 0.
-372.18 -674.961 0.
-438.865 -684.123 0.
-420.073 -655.87 0.
-411.025 -619.541 0.
-238.752 -551.612 0.
-225.842 -515.238 0.
-1003.89 -871.671 0.
-414.114 -620.918 0.
-397.696 -718.294 0.
-387.599 -730.665 0.
-417.817 -751.135 0.
-447.107 -773.072 0.
-417.082 -715.801 0.
-462.313 -764.201 0.
-491.374 -828.739 0.
-368.947 -673.314 0.
-356.5 -639.83 0.
-344.613 -607.621 0.
-563.124 -882.274 0.
-582.041 -886.32 0.
-360.45 -584.17 0.
-384.545 -676.862 0.
-439.386 -813.295 0.
-404.67 -790.684 0.
-418.952 -787.814 0.
-444.361 -775.435 0.
-421.267 -715.722 0.
-387.689 -632.568 0.
-373.445 -601.123 0.
-659 -990.883 0.
-685.2 -987.635 0.
-328.613 -540.778 0.
-426.736 -678.253 0.
-540.118 -844.428 0.
-49.8334 -91.0671 0.
-327.991 -887.609 0.
-694.976 -1769.93 0.
-5.29624 -14.3065 0.
-723.266 -1805.68 0.
-2186.09 -5062.86 0.
-605.158 -1127.4 0.
-1251.27 -2057.56 0.
-1964.11 -2961.51 0.
-0.363227 -1.27061 0.
-3729.68 -7880.07 0.
-2.06156 -9.11833 0.
5.91081 9.59643 0.
-1419.58 -2409.86 0.
-2.75678 -10.2589 0.
-2301.62 -3940.85 0.
0.760043 10.7807 0.
-1330.45 -3132.93 0.
12.9024 29.646 0.
-238.56 -539.185 0.
-0.447651 -122.661 0.
-532.514 -1352.29 0.
34.5557 94.6558 0.
6.06508 16.785 0.
8.85821 24.531 0.
-1.217 -3.03886 0.
24.8763 63.291 0.
10.2975 21.3773 0.
-2.90442 -28.5129 0.
-0.390473 -3.75961 0.
-0.43993 -13.2433 0.
-0.0980003 -0.830875 0.
-0.000378587 -0.00904468 0.
-0.00165199 -0.886389 0.
-112.463 -259.611 0.
-1.90616 -3.57235 0.
-114.299 -171.842 0.
-53.3874 -57.9714 0.
-25.1338 -24.6621 0.
-336.472 -702.363 0.
-20.8697 -17.0597 0.
-5.76502 -14.2523 0.
-335.72 -759.038 0.
-123.581 -138.749 0.
-40.2049 -27.7877 0.
-452.159 -591.877 0.
-366.211 -473.394 0.
-293.449 -357.902 0.
-663.415 -892.862 0.
-672.736 -932.406 0.
-306.994 -470.622 0.
-356.895 -541.713 0.
-384.584 -635.696 0.
-476.341 -697.837 0.
-439.085 -658.116 0.
-399.016 -622.204 0.
-354.232 -636.064 0.
-346.968 -570.844 0.
-344.919 -501.707 0.
-625.921 -893.448 0.
-621.31 -875.694 0.
-389.045 -567.799 0.
-398.433 -588.867 0.
-410.245 -612.347 0.
-458.979 -768.032 0.
-427.987 -706.447 0.
-382.731 -673.232 0.
-442.815 -656.195 0.
-434.096 -619.851 0.
-424.734 -583.556 0.
-256.898 -567.138 0.
-244.382 -533.543 0.
-1126.47 -918.411 0.
-381.725 -592.063 0.
-408.877 -646.302 0.
-402.282 -680.118 0.
-419.642 -712.812 0.
-447.851 -735.25 0.
-444.087 -723.979 0.
-473.904 -760.56 0.
-510.47 -816.66 0.
-392.172 -679.719 0.
-389.089 -636.171 0.
-366.892 -613.75 0.
-576.328 -885.441 0.
-580.377 -891.422 0.
-358.708 -548.167 0.
-382.187 -641.25 0.
-433.886 -783.222 0.
-395.655 -658.025 0.
-432.77 -630.234 0.
-461.904 -609.146 0.
-466.385 -740.9 0.
-434.282 -660.972 0.
-405.552 -580.016 0.
-688.232 -986.16 0.
-727.212 -975.127 0.
-149.522 -333.364 0.
-223.246 -495.433 0.
-334.151 -654.774 0.
-47.4066 -96.2866 0.
-31.3468 -71.2068 0.
-242.333 -669.942 0.
-4.33977 -11.2908 0.
-6.54158 -17.554 0.
-253.889 -650.082 0.
1.45758 2.85899 0.
2.84246 4.55968 0.
3.83255 5.23594 0.
1.45313 2.75257 0.
-0.485604 -3.24422 0.
6.06984 11.8737 0.
6.52464 11.352 0.
0.178437 0.508947 0.
-3.54561 -28.0384 0.
7.79411 13.897 0.
-0.941176 -38.944 0.
-0.288495 -0.726944 0.
26.7952 64.3956 0.
-503.614 -1179.62 0.
-0.469332 -54.8771 0.
12.0242 31.4445 0.
49.4277 129.428 0.
22.2769 61.4404 0.
-4.28109 -11.8157 0.
24.6008 63.6711 0.
9.74135 25.8357 0.
10.9414 24.077 0.
12.029 31.0928 0.
-1576.97 -4013.36 0.
6.39781 16.7204 0.
-2962.09 -6372.9 0.
-1.08545 -10.6821 0.
-0.119955 -3.05246 0.
-3283.25 -7549.41 0.
0.43092 1.1639 0.
-2422.97 -4483.39 0.
-916.067 -1916.4 0.
-22.2815 -33.7609 0.
-2778.69 -6093.37 0.
-968.827 -2087.01 0.
-8.69573 -3.71668 0.
-2139.06 -4356.92 0.
-1136.5 -2527.55 0.
-260.604 -571.941 0.
-1213.66 -2337.91 0.
-853.807 -1678.51 0.
-548.956 -1119.38 0.
-1047.92 -1833.87 0.
-936.102 -1704.21 0.
-672.729 -1268.79 0.
-668.835 -1263.2 0.
-666.089 -1258.29 0.
-720.767 -1291.44 0.
-682.535 -1244.4 0.
-650.728 -1190.94 0.
-684.644 -1306.14 0.
-661.508 -1283.86 0.
-641.378 -1258.58 0.
-1126.97 -1786.22 0.
-1048.04 -1672.69 0.
-680.795 -1205.42 0.
-670.796 -1180.76 0.
-662.072 -1154.41 0.
-686.264 -1285 0.
-656.793 -1229.91 0.
-631.225 -1182.22 0.
-695.689 -1202.07 0.
-677.528 -1161.35 0.
-660.521 -1119.47 0.
-561.046 -1213.95 0.
-557.839 -1206.9 0.
-1573.88 -1697.34 0.
-717.405 -1301.91 0.
-733.154 -1333.8 0.
-645.825 -1265.36 0.
-650.142 -1283.1 0.
-654.972 -1300.34 0.
-586.744 -1140.72 0.
-637.147 -1173.28 0.
-662.842 -1249.41 0.
-672.733 -1131.52 0.
-687.435 -1165.29 0.
-704.15 -1197.06 0.
-976.953 -1632.96 0.
-1048.4 -1758.99 0.
-676.563 -1305.35 0.
-697.168 -1357.01 0.
-726.659 -1407.88 0.
-693.971 -1116.8 0.
-684.109 -1128.19 0.
-675.893 -1137.93 0.
-633.843 -1264.79 0.
-668.153 -1297.43 0.
-706.521 -1328.14 0.
-869.065 -1633.55 0.
-1041.94 -1874.22 0.
-394.129 -1032.06 0.
-827.594 -1916.18 0.
-1351.16 -2913.78 0.
-43.2892 -119.824 0.
-1160.96 -2762.11 0.
-2463.59 -5258.02 0.
-0.210524 -0.355859 0.
-473.349 -1103.77 0.
-2361.19 -5022.4 0.
0.266034 3.38083 0.
-3431.91 -7571.19 0.
-286.413 -791.909 0.
-157.419 -402.011 0.
-1244.39 -3236.16 0.
-1.93837 -4.15575 0.
-2184.64 -4685.16 0.
-4.86024 -12.8515 0.
-304.07 -804.1 0.
-285.859 -601.43 0.
0.0199118 3.26726 0.
-8.26977 -21.8258 0.
-3.69432 -76.4848 0.
-707.16 -1705.51 0.
31.4923 84.0771 0.
-15.846 -40.377 0.
51.9868 134.793 0.
-679.222 -1862.88 0.
17.7198 48.5884 0.
-290.478 -801.231 0.
16.8336 46.5578 0.
-1572.65 -4050 0.
-0.894816 -44.8881 0.
12.7368 33.9405 0.
2.63405 7.15877 0.
11.2475 31.071 0.
7.00746 17.2362 0.
5.93181 15.9315 0.
-95.7434 -263.841 0.
-0.050223 -1.72775 0.
-0.292049 -2.57547 0.
-0.152789 -0.223833 0.
-0.927884 -1.63015 0.
-217.916 -271.291 0.
-24.7091 -23.5914 0.
-22.6851 -9.11121 0.
-422.705 -866.831 0.
-0.311243 -0.0762678 0.
-0.149304 -0.0491568 0.
-518.735 -1260.44 0.
-253.379 -572.345 0.
-104.133 -156.493 0.
-740.007 -1469.68 0.
-647.512 -1394.25 0.
-575.906 -1137.68 0.
-563.026 -1160.99 0.
-570.898 -1184.74 0.
-661.55 -1147.97 0.
-628.272 -1099.99 0.
-595.306 -1066.63 0.
-606.469 -1116.03 0.
-588.093 -1101.05 0.
-569.025 -1087.07 0.
-925.236 -1555.87 0.
-854.462 -1459.16 0.
-655.81 -1131.94 0.
-643.508 -1109.69 0.
-631.52 -1087.62 0.
-621.613 -1124.8 0.
-604.23 -1075.35 0.
-566.156 -1069.83 0.
-635.01 -1113.6 0.
-612.58 -1073.87 0.
-592.629 -1036.01 0.
-498.136 -1158.33 0.
-494.524 -1151.2 0.
-1221.17 -1512.23 0.
-738.012 -1219.76 0.
-785.623 -1219.09 0.
-590.578 -1179.29 0.
-568.558 -1158.7 0.
-565.516 -1167.6 0.
-512.137 -1019.24 0.
-519.054 -1059.81 0.
-590.958 -1067.1 0.
-581.046 -1051.96 0.
-592.241 -1078.72 0.
-609.907 -1119.26 0.
-784.335 -1458.89 0.
-856.735 -1558.31 0.
-608.627 -1184.03 0.
-609.734 -1185.25 0.
-630.154 -1223.03 0.
-669.768 -1054.5 0.
-665.924 -1058.7 0.
-668.445 -1063.25 0.
-480.427 -1049.07 0.
-485.477 -1044.73 0.
-506.534 -1074.16 0.
-553.658 -1230.63 0.
-668.613 -1425.81 0.
-7.21934 -19.9033 0.
-193.952 -519.888 0.
-588.804 -1560.08 0.
0.00136849 0.188083 0.
0.718425 1.97896 0.
-198.706 -461.273 0.
-3.57781 -2.9973 0.
-1.69922 -0.217318 0.
-5.60071 -0.107727 0.
0.281125 6.97143 0.
2.95237 8.15095 0.
-109.119 -300.078 0.
-14.2532 -36.6595 0.
-3.5952 -8.30894 0.
-0.665602 -13.3976 0.
-599.493 -1469.62 0.
-8.87944 -24.2343 0.
-271.129 -735.41 0.
-335.99 -925.841 0.
-39.6886 -109.671 0.
-710.35 -1967.08 0.
19.6499 54.2064 0.
30.684 83.811 0.
31.6482 83.0117 0.
1.97727 5.04728 0.
21.5798 55.3896 0.
-17.4346 -45.679 0.
29.1069 76.8223 0.
-567.708 -1570.39 0.
-5.45312 -15.1036 0.
-126.655 -332.278 0.
17.993 48.3453 0.
-0.222758 -35.0129 0.
-0.0311865 -30.3937 0.
-0.050109 -43.0836 0.
-0.549258 -18.9403 0.
-0.0507114 -12.5891 0.
0.470396 1.27053 0.
2.07336 5.18042 0.
-0.116832 -0.968449 0.
-0.47298 -1.51327 0.
0.247788 0.478934 0.
-65.7501 -85.8902 0.
-54.0167 -43.8983 0.
-58.6353 -25.0485 0.
-0.559862 -0.124886 0.
0.00692252 0.00192647 0.
-0.601415 -0.232151 0.
-258.573 -546.979 0.
-117.618 -140.598 0.
-91.5853 -139.905 0.
-695.172 -1306.54 0.
-449.865 -851.595 0.
-524.207 -943.418 0.
-538.514 -894.689 0.
-287.124 -288.93 0.
-646.936 -916.959 0.
-284.845 -387.233 0.
-95.5602 -120.973 0.
-369.7 -572.011 0.
-398.445 -633.769 0.
-432 -690.033 0.
-555.121 -857.176 0.
-624.511 -958.285 0.
-478.432 -519.762 0.
-493.651 -577.233 0.
-360.765 -349.206 0.
-298.93 -422.817 0.
-256.749 -346.228 0.
-479.491 -883.09 0.
-443.533 -724.117 0.
-301.506 -380.256 0.
-290.216 -365.66 0.
-184.935 -347.366 0.
-208.443 -412.379 0.
-1120.3 -1041.86 0.
-556.015 -739.223 0.
-569.768 -763.282 0.
-346.285 -572.645 0.
-309.504 -441.617 0.
-390.581 -600.155 0.
-273.018 -280.809 0.
-421.145 -594.609 0.
-431.504 -511.643 0.
-370.671 -538.76 0.
-328.633 -425.291 0.
-375.903 -321.415 0.
-392.973 -661.646 0.
-580.818 -1099.49 0.
-325.302 -404.33 0.
-430.249 -559.069 0.
-190.394 -209.822 0.
-328.631 -413.234 0.
-296.846 -326.212 0.
-230.741 -265.278 0.
-181.733 -285.561 0.
-433.217 -884.127 0.
-305.269 -632.669 0.
-166.48 -336.509 0.
-549.072 -1219.57 0.
-28.911 -36.0905 0.
-39.2053 -59.6157 0.
-140.801 -323.899 0.
0.00645931 0.328544 0.
-0.00037141 -0.574932 0.
0.949358 2.60144 0.
-19.503 -15.0809 0.
-2.08922 -0.453725 0.
-2.26263 -0.17011 0.
-0.162379 -2.06661 0.
0.0280761 2.02902 0.
-0.0222654 -11.8853 0.
-0.271156 -11.921 0.
0.756234 1.82787 0.
4.25724 11.4535 0.
-76.8577 -201.371 0.
-0.276192 -0.764013 0.
-237.57 -653.985 0.
-37.7831 -104.414 0.
-3.59818 -9.96029 0.
1.20649 3.33874 0.
-0.0159117 -68.5031 0.
-38.5884 -93.8774 0.
-14.9722 -38.4911 0.
-19.254 -49.4025 0.
-3.10023 -7.87439 0.
27.5052 68.4027 0.
-2.07371 -86.5426 0.
-1.81527 -78.016 0.
-14.3193 -39.6384 0.
17.2922 47.7165 0.
-0.304376 -38.0097 0.
12.1859 33.5993 0.
-659.719 -1810.1 0.
-0.674473 -1.86156 0.
-2014.99 -5015.78 0.
-0.993713 -26.2672 0.
-2095.83 -4495.17 0.
-13.1568 -33.0373 0.
-13.8933 -38.1173 0.
-3655.53 -9253.09 0.
1.25482 3.36401 0.
-2509.98 -4238.06 0.
-431.945 -552.803 0.
-34.3125 -41.1389 0.
-2866.38 -6691.61 0.
-422.029 -877.959 0.
-27.0411 -67.6236 0.
-1915.74 -4563.6 0.
-799.267 -2057.1 0.
-29.7386 -63.2837 0.
-1318.48 -2928.92 0.
-896.987 -2051.14 0.
-899.266 -1977.9 0.
-655.428 -1457.98 0.
-418.003 -939.009 0.
-624.704 -1161.56 0.
-586.413 -1092.61 0.
-544.697 -1030.46 0.
-542.979 -931.154 0.
-503.45 -862.416 0.
-456.833 -802.143 0.
-726.822 -1219.8 0.
-711.317 -1197.2 0.
-484.952 -853.134 0.
-470.921 -814.747 0.
-470.475 -813.177 0.
-492.174 -866.108 0.
-475.176 -832.494 0.
-461.207 -806.488 0.
-433.772 -818.441 0.
-437.58 -819.234 0.
-455.389 -831.298 0.
-348.28 -823.314 0.
-332.488 -783.397 0.
-714.822 -976.544 0.
-662.205 -906.528 0.
-716.644 -906.744 0.
-434.54 -774.458 0.
-438.854 -775.935 0.
-451.088 -767.946 0.
-445.035 -753.064 0.
-448.438 -751.032 0.
-420.339 -777.934 0.
-457.624 -804.476 0.
-454.181 -814.334 0.
-455.071 -835.286 0.
-681.929 -1204.42 0.
-708.155 -1245.5 0.
-478.764 -900.051 0.
-517.713 -963.627 0.
-554.248 -1027.9 0.
-585.918 -1036.12 0.
-696.209 -1258.19 0.
-804.775 -1479.32 0.
-420.999 -1069.11 0.
-704.521 -1709.35 0.
-1002.02 -2337.89 0.
-906.477 -2317.79 0.
-1450.7 -3423.34 0.
0.106964 0.34783 0.
-771.697 -2066.96 0.
-2264.59 -5551.86 0.
-0.000248842 -0.222938 0.
-82.1156 -225.767 0.
-3287.65 -7874.63 0.
-65.7769 -92.8831 0.
-173.315 -291.352 0.
-2996.14 -5302.71 0.
-0.0432057 -8.98145 0.
-2429.8 -6481.87 0.
8.11049 21.8072 0.
-0.246397 -5.5052 0.
-2097.04 -4693.44 0.
5.77643 15.8692 0.
-840.815 -2322.19 0.
-0.130195 -43.1803 0.
-245.169 -678.845 0.
-22.4308 -62.0901 0.
-2.43144 -6.73466 0.
-2.55581 -7.07719 0.
13.2573 36.7115 0.
-98.4238 -240.555 0.
33.9381 79.5566 0.
-18.4848 -47.835 0.
15.5314 36.2027 0.
38.2786 95.1043 0.
-91.5271 -237.898 0.
28.0491 72.9661 0.
-3.29179 -9.0916 0.
-12.9117 -35.498 0.
20.4486 55.9851 0.
16.8327 46.403 0.
-68.4266 -188.809 0.
4.10715 11.3693 0.
1.58177 4.11865 0.
7.20222 19.2118 0.
6.06545 13.9408 0.
0.392312 1.0042 0.
1.20331 3.29889 0.
-77.9128 -213.987 0.
0.809427 2.21757 0.
-48.7163 -49.0719 0.
-42.3257 -43.913 0.
-39.9114 -43.0566 0.
0.332997 0.793618 0.
-0.0168045 -1.03745 0.
-0.00317093 -0.885408 0.
-482.922 -1249.2 0.
-16.0332 -22.398 0.
-14.5958 -19.2577 0.
-731.427 -1781.14 0.
-363.323 -852.986 0.
-594.685 -1396.18 0.
-387.752 -841.72 0.
-193.523 -278.405 0.
-573.152 -968.033 0.
-533.411 -902.98 0.
-498.955 -833.208 0.
-532.455 -836.054 0.
-493.931 -767.796 0.
-459.213 -719.976 0.
-771.272 -1234.88 0.
-756.877 -1214.01 0.
-461.858 -720.614 0.
-449.476 -679.696 0.
-443.035 -655.192 0.
-535.824 -858.735 0.
-514.582 -809.742 0.
-493.98 -759.788 0.
-401.365 -777.956 0.
-407.068 -797.387 0.
-418.475 -814.663 0.
-339.509 -794.346 0.
-324.462 -755.565 0.
-747.532 -866.567 0.
-702.526 -930.707 0.
-757.921 -930.299 0.
-467.111 -671.354 0.
-465.744 -677.937 0.
-463.72 -685.379 0.
-442.003 -672.725 0.
-435.777 -677.111 0.
-433.365 -682.797 0.
-434.946 -682.78 0.
-438.127 -688.547 0.
-456.829 -730.955 0.
-776.493 -1239.99 0.
-802.526 -1280.34 0.
-432.694 -774.481 0.
-469.463 -840.985 0.
-506.266 -913.922 0.
-395.168 -770.672 0.
-494.274 -1001.23 0.
-612.239 -1219.37 0.
-141.172 -312.7 0.
-385.356 -992.889 0.
-649.683 -1657.08 0.
-240.213 -665.108 0.
-702.842 -1854.9 0.
-0.242263 -1.79627 0.
0.0151918 0.599418 0.
-341.89 -933.269 0.
-0.0252145 -3.43928 0.
0.879669 2.43353 0.
-0.00366133 -3.64793 0.
-26.9305 -39.2284 0.
-46.88 -76.72 0.
-78.7021 -138.665 0.
0.011055 1.80568 0.
0.000333869 1.75296 0.
-0.130585 -22.3566 0.
-0.267156 -9.50617 0.
-0.786735 -13.3217 0.
-0.00175633 -25.2995 0.
-149.289 -413.44 0.
-1.63101 -4.46483 0.
-346.956 -960.862 0.
11.714 32.4308 0.
-205.83 -570.034 0.
24.9416 68.8179 0.
-803.693 -2219.72 0.
-156.296 -384.162 0.
-6.75285 -90.9568 0.
-0.515126 -1.30335 0.
23.2188 54.0253 0.
4.90368 12.1852 0.
-580.308 -1495.59 0.
8.09857 20.1935 0.
14.904 40.873 0.
2.27692 6.24912 0.
17.3507 47.8325 0.
16.6366 46.053 0.
0.049253 0.136289 0.
12.5934 34.8792 0.
5.4274 14.5812 0.
-0.0372828 -7.80877 0.
4.11273 9.74937 0.
-1959.59 -5138.18 0.
-0.229987 -16.4826 0.
-1967.87 -5099.15 0.
3.45633 9.5526 0.
-2441.34 -4777.47 0.
-86.6809 -122.256 0.
-107.993 -222.095 0.
-2978.15 -7584.5 0.
-0.116273 -1.32013 0.
-0.0596057 -0.541132 0.
-2450.59 -5882.41 0.
-455.987 -1142.49 0.
-14.3152 -21.9114 0.
-1639.86 -3889.78 0.
-820.567 -1995.27 0.
-1100.89 -2508.77 0.
-713.5 -1653.28 0.
-358.731 -780.162 0.
-818.718 -1539.6 0.
-675.354 -1267 0.
-535.1 -991.527 0.
-704.696 -1089.45 0.
-665.948 -1013.63 0.
-627.993 -942.509 0.
-916.594 -1566.39 0.
-915.956 -1575.64 0.
-679.375 -1125.57 0.
-618.35 -990.671 0.
-563.113 -870.914 0.
-677.783 -979.349 0.
-639.558 -1013.14 0.
-643.975 -1014.62 0.
-671.748 -1108.96 0.
-652.071 -1049.3 0.
-569.411 -1054.43 0.
-528.258 -1257.24 0.
-538.944 -1278.5 0.
-1232.13 -1547.71 0.
-845.255 -1195.98 0.
-839.573 -1105 0.
-517.434 -844.218 0.
-591.951 -1003.88 0.
-668.981 -1168.65 0.
-620.354 -1024.08 0.
-621.539 -1028.92 0.
-626.783 -1045.88 0.
-638.308 -998.544 0.
-663.219 -1052.84 0.
-688.191 -1107.28 0.
-933.566 -1616.58 0.
-953.179 -1670.16 0.
-519.331 -919.717 0.
-601.996 -1069.36 0.
-693.803 -1236.64 0.
-485.361 -1021.6 0.
-680.503 -1414.17 0.
-882.819 -1804.34 0.
-284.365 -727.502 0.
-729.367 -1809.5 0.
-1212.37 -2864.02 0.
-767.36 -2017.43 0.
-1906.85 -4720.97 0.
0.773505 2.08092 0.
-240.952 -645.199 0.
-2725.32 -6646.79 0.
-0.127169 -3.2103 0.
-0.138569 -3.18511 0.
-2931.23 -7922.28 0.
-13.2713 -28.9197 0.
-31.9825 -63.02 0.
-2081.83 -5023.85 0.
6.14309 16.9928 0.
-1251.66 -3328.18 0.
8.52832 23.1805 0.
11.6369 30.8963 0.
-0.0361641 -3.85937 0.
-3.68398 -10.0761 0.
-252.896 -693.939 0.
3.79227 10.332 0.
-374.322 -1035.47 0.
16.5923 45.907 0.
-84.6155 -234.252 0.
5.36305 14.6513 0.
-1.86728 -5.09857 0.
-310.654 -768.728 0.
20.271 48.1778 0.
-2.52378 -72.114 0.
34.0337 79.1579 0.
-110.496 -275.199 0.
-4.26151 -69.7099 0.
-3.63058 -72.9321 0.
-11.9199 -32.6269 0.
0.369879 1.01321 0.
-879.657 -2434.53 0.
18.0282 49.9199 0.
-444.05 -1229.93 0.
-5.60893 -15.352 0.
-1598.56 -4417.12 0.
-286.882 -793.18 0.
-35.5036 -98.2476 0.
-526.584 -1433.24 0.
6.62612 18.3444 0.
3.73131 10.3156 0.
-0.010213 -1.07035 0.
-0.217805 -0.283267 0.
-24.1994 -36.339 0.
-55.7837 -110.504 0.
0.81651 2.04492 0.
-0.0463283 -0.8754 0.
-0.0986455 -1.45663 0.
-50.5818 -87.0982 0.
-0.0444617 -0.304544 0.
-0.000240451 -0.0849226 0.
-599.152 -1480.11 0.
-26.0487 -19.998 0.
-545.627 -1331.9 0.
-202.005 -429.747 0.
-40.7015 -54.739 0.
-498.475 -1090.93 0.
-362.761 -779.555 0.
-254.644 -446.015 0.
-580.661 -965.816 0.
-545.399 -889.909 0.
-510.942 -823.008 0.
-811.934 -1482.76 0.
-813.311 -1494.13 0.
-649.794 -1025.41 0.
-598.713 -909.232 0.
-567.102 -850.28 0.
-572.194 -914.742 0.
-577.808 -920.721 0.
-583.832 -927.568 0.
-585.91 -1070.39 0.
-573.122 -1017.23 0.
-560.073 -1048.72 0.
-511.789 -1120.52 0.
-514.961 -1131.07 0.
-788.225 -1310.26 0.
-783.208 -1075.51 0.
-755.034 -1005.45 0.
-493.837 -870.631 0.
-551.405 -975.746 0.
-633.405 -1111.4 0.
-574.769 -1018.78 0.
-578.123 -1019.49 0.
-578.977 -1023.68 0.
-596.629 -965.582 0.
-607.447 -981.211 0.
-631.558 -1036.28 0.
-809.964 -1522.11 0.
-828.835 -1571.1 0.
-341.985 -670.951 0.
-417.299 -827.704 0.
-495.071 -983.411 0.
-174.51 -349.787 0.
-328.643 -786.899 0.
-499.224 -1204.83 0.
-1.39867 -0.158296 0.
-112.085 -282.089 0.
-538.807 -1393.68 0.
-10.9251 -25.6935 0.
-586.051 -1611.74 0.
0.00362974 0.941903 0.
-0.00072329 -1.49727 0.
-0.0135964 -1.01577 0.
-0.110682 -1.04814 0.
-0.00797895 -0.0837167 0.
0.110536 0.254072 0.
0.481183 1.25431 0.
-7.71842 -17.9226 0.
-0.0333606 -10.2929 0.
5.13266 14.2162 0.
-0.073291 -20.9938 0.
9.71522 26.8377 0.
-1930.26 -5258.21 0.
-97.9601 -260.641 0.
-595.835 -1638.7 0.
-18.3031 -50.1923 0.
-0.431601 -46.3986 0.
-181.847 -501.83 0.
16.7744 46.3679 0.
-434.717 -1202.66 0.
-0.48766 -61.2023 0.
-0.58262 -72.2355 0.
5.67983 13.7157 0.
29.816 71.5153 0.
3.59597 9.29242 0.
-3.9694 -9.25932 0.
-5.177 -60.966 0.
-0.264941 -0.636989 0.
28.5834 70.381 0.
-169.66 -463.364 0.
20.3638 55.6679 0.
10.5304 28.7515 0.
-4.90022 -13.375 0.
-654.269 -1790.78 0.
11.2714 30.4803 0.
-111.768 -309.055 0.
-17.9743 -49.7456 0.
4.95582 13.7237 0.
-12.2192 -33.833 0.
-0.0702967 -16.0385 0.
-0.00259224 -3.47317 0.
6.43413 17.0359 0.
-1.59329 -21.3254 0.
0.257501 0.443325 0.
-2.35559 -4.81966 0.
-0.0100638 -0.450226 0.
0.776906 2.02229 0.
0.0280393 0.980446 0.
0.141894 0.667431 0.
0.579398 1.37009 0.
-0.000735618 -0.973563 0.
-33.8577 -72.0576 0.
-11.9225 -18.8592 0.
-45.1229 -45.9565 0.
-46.1206 -50.0141 0.
-47.1354 -55.7483 0.
-237.949 -449.387 0.
-128.587 -103.408 0.
-54.8549 -69.5887 0.
-391.722 -643.377 0.
-325.181 -465.048 0.
-167.179 -104.192 0.
-321.166 -476.837 0.
-381.467 -671.153 0.
-37.432 -16.4711 0.
-248.825 -330.487 0.
-81.3616 -58.3041 0.
-152.29 -138.843 0.
-166.577 -168.31 0.
-166.543 -149.667 0.
-148.462 -89.4377 0.
-150.225 -85.4841 0.
-189.806 -103.708 0.
-91.7518 -125.712 0.
-246.488 -551.078 0.
-391.186 -312.594 0.
-424.863 -362.034 0.
-324.312 -223.179 0.
-161.798 -188.682 0.
-129.342 -133.187 0.
-138.273 -131.717 0.
-179.463 -238.33 0.
-183.21 -248.189 0.
-225.819 -347.03 0.
-200.846 -236.825 0.
-298.733 -381.265 0.
-357.001 -418.148 0.
-358.418 -639.344 0.
-301.867 -471.29 0.
-127.428 -214.474 0.
-243.871 -540.308 0.
-362.566 -847.505 0.
-47.6928 -129.02 0.
-58.8221 -107.338 0.
-234.877 -614.589 0.
1.96456 0.79581 0.
-13.4142 -6.8023 0.
-44.5802 -65.6962 0.
-4.18958 -11.1893 0.
-16.0783 -43.5826 0.
-0.000464866 -1.3011 0.
0.00457342 2.21847 0.
-0.0348081 -1.88576 0.
-0.544577 -2.6878 0.
-0.411106 -2.4698 0.
-17.9049 -37.6987 0.
-0.0032487 -1.24706 0.
0.458146 1.17969 0.
0.0150357 3.30535 0.
-0.00231625 -14.2241 0.
-0.0291583 -18.1436 0.
-0.00933066 -34.2601 0.
-0.00737757 -19.175 0.
3.23403 8.43353 0.
-419.81 -1143.59 0.
-3.06136 -8.36957 0.
-9.13373 -24.7462 0.
-451.515 -1213.31 0.
15.2688 41.0666 0.
6.51215 18.0012 0.
-0.689582 -65.4663 0.
-153.323 -414.305 0.
0.113184 0.274005 0.
1.1817 2.75206 0.
14.0175 32.9488 0.
-9.51044 -67.1078 0.
-5.22623 -67.2968 0.
24.5232 58.5742 0.
-172.76 -422.452 0.
13.6536 35.3286 0.
-12.6 -32.8571 0.
18.5712 50.586 0.
0.895503 2.43815 0.
-458.8 -1242.78 0.
6.00048 15.9872 0.
11.2296 29.2781 0.
2.36402 6.54664 0.
-5.58199 -15.4611 0.
-1179.4 -3263.67 0.
10.7831 29.605 0.
-1831.13 -5013.5 0.
-0.127012 -15.9346 0.
0.945362 2.53971 0.
-2841.97 -6764.67 0.
2.26636 5.67397 0.
-2042.09 -4997.11 0.
-10.403 -27.0285 0.
-18.3999 -49.386 0.
-2500.23 -6605.8 0.
-0.00117252 -1.09543 0.
-0.026133 -0.224565 0.
-2140.2 -5526.37 0.
-360.452 -950.082 0.
-1444.59 -3439.24 0.
-712.103 -1751.58 0.
-49.0477 -78.5936 0.
-1135.31 -2830.45 0.
-670.919 -1714.4 0.
-236.613 -564.857 0.
-759.679 -1751.4 0.
-537.358 -1213.08 0.
-339.244 -695.026 0.
-694.915 -1542.88 0.
-627.386 -1392.97 0.
-464.36 -786.863 0.
-468.602 -804.235 0.
-489.817 -854.901 0.
-427.828 -854.922 0.
-412.97 -826.024 0.
-401.194 -797.604 0.
-445.101 -905.066 0.
-436.072 -895.778 0.
-434.368 -884.826 0.
-336.823 -864.406 0.
-330.289 -847.635 0.
-368.939 -869.074 0.
-624.906 -912.911 0.
-649.836 -963.617 0.
-469.61 -943.735 0.
-454.674 -911.425 0.
-440.602 -879.759 0.
-392.108 -810.042 0.
-421.689 -863.156 0.
-450.078 -911.038 0.
-506.181 -930.541 0.
-514.009 -950.891 0.
-525.474 -982.49 0.
-659.272 -1621.21 0.
-772.014 -1863.29 0.
-302.732 -772.078 0.
-560.012 -1442.14 0.
-828.384 -2101.91 0.
-158.531 -437.833 0.
-682.141 -1844.75 0.
-1248.47 -3218.64 0.
-24.5029 -41.1676 0.
-751.006 -1873.76 0.
-1726.12 -4089.17 0.
-184.677 -505.105 0.
-2429.14 -6391.62 0.
-0.00277575 -2.19482 0.
-0.00239054 -3.64567 0.
-2701.88 -7092.61 0.
-0.0620141 -2.98067 0.
-0.000727522 -2.41095 0.
-1974.66 -4787.15 0.
-0.160445 -8.01824 0.
-2626.77 -6887.03 0.
9.70178 26.8206 0.
4.87349 13.4775 0.
-1407.11 -3843.13 0.
-2.39541 -6.63414 0.
-0.00551329 -14.5414 0.
4.70745 12.0395 0.
-233.246 -627.709 0.
4.19748 11.4346 0.
17.664 47.633 0.
-10.882 -29.0513 0.
22.605 60.4492 0.
-13.5016 -34.6921 0.
1.71748 4.3413 0.
-658.538 -1660.48 0.
-182.431 -443.3 0.
20.5197 53.4161 0.
7.69006 18.3153 0.
-4.40119 -33.2207 0.
5.03712 12.0314 0.
-9.48183 -22.4887 0.
13.2149 29.0541 0.
8.85338 22.8864 0.
9.28977 24.202 0.
-554.036 -1505.42 0.
14.1689 38.4726 0.
-259.319 -704.013 0.
-127.563 -338.657 0.
-11.1025 -29.4179 0.
-600.321 -1661.79 0.
-5.20521 -14.4169 0.
-481.996 -1327.43 0.
-0.262896 -30.8147 0.
-50.5762 -139.402 0.
2.84638 7.80136 0.
4.39675 11.9428 0.
1.73666 4.34182 0.
-0.0165774 -4.33444 0.
0.613358 1.50605 0.
-5.07908 -13.0704 0.
-14.7389 -39.2199 0.
-3.23983 -8.76369 0.
-0.0653051 -1.23906 0.
-0.318868 -1.43393 0.
-406.345 -941.775 0.
-96.0517 -136.726 0.
-382.343 -862.153 0.
-14.7344 -29.6153 0.
-40.2139 -64.5734 0.
-559.526 -1489.16 0.
-131.162 -333.997 0.
-30.8712 -42.8611 0.
-521.503 -1336.35 0.
-331.798 -770.601 0.
-214.571 -414.11 0.
-655.996 -1427.43 0.
-588.406 -1281.97 0.
-412.537 -686.378 0.
-407.21 -666.015 0.
-421.137 -695.862 0.
-426.602 -769.046 0.
-414.599 -738.727 0.
-403.211 -708.262 0.
-402.357 -821.699 0.
-400.103 -807.917 0.
-397.79 -793.848 0.
-330.779 -840.064 0.
-322.393 -829.21 0.
-630.301 -994.196 0.
-642.127 -875.673 0.
-670.432 -957.166 0.
-392.849 -793.921 0.
-377.077 -766.32 0.
-361.284 -739.071 0.
-461.059 -688.945 0.
-478.595 -761.429 0.
-500.612 -830.749 0.
-381.727 -818.351 0.
-397.016 -837.223 0.
-419.779 -864.633 0.
-567.433 -1439.96 0.
-669.299 -1680.34 0.
-200.049 -335.446 0.
-367.147 -857.44 0.
-601.524 -1552.94 0.
-26.0946 -50.2757 0.
-34.241 -76.9552 0.
-550.337 -1497.38 0.
-12.3142 -30.3633 0.
-9.476 -20.6953 0.
-270.61 -674.74 0.
-0.185436 -0.51362 0.
-228.658 -622.69 0.
0.00299637 0.510081 0.
1.65387 4.57766 0.
0.74779 2.06585 0.
-0.00339123 -0.321526 0.
2.84338e-05 0.0472695 0.
0.0144156 0.601844 0.
1.09028 3.01857 0.
-68.2195 -187.279 0.
-0.0142452 -6.22284 0.
-0.000336066 -24.79 0.
9.32897 25.6851 0.
4.38282 12.0669 0.
-587.635 -1626.06 0.
-10.6531 -27.8142 0.
-123.431 -323.802 0.
-8.68801 -23.0769 0.
-32.7474 -87.8678 0.
-1.08505 -58.1677 0.
-106.849 -283.966 0.
18.0208 46.1505 0.
-16.4732 -41.4826 0.
-6.04045 -13.8942 0.
-12.8801 -31.4569 0.
-41.7948 -110.603 0.
14.1683 34.3915 0.
25.9363 56.199 0.
20.2931 43.6247 0.
-10.1704 -72.7916 0.
-4.78086 -10.5145 0.
-184.526 -476.563 0.
15.8005 41.1264 0.
-360.628 -977.243 0.
18.526 49.4839 0.
1.989 5.37028 0.
-211.612 -561.257 0.
17.7341 46.9324 0.
-379.87 -1052.17 0.
5.94417 16.4374 0.
-98.988 -270.654 0.
3.36635 9.01321 0.
-75.2808 -208.27 0.
-6.09562 -16.8132 0.
1.45639 3.99302 0.
-1617.97 -4479.28 0.
3.6451 10.0959 0.
-2150.22 -4557.75 0.
-161.972 -321.45 0.
-71.137 -166.706 0.
-2294.57 -6268.49 0.
-0.0303633 -2.55902 0.
-0.0528885 -1.9483 0.
-2144.71 -5573.22 0.
-40.1206 -77.5131 0.
-1699.29 -4042.43 0.
-566.389 -1340.14 0.
-5.8194 -15.9275 0.
-1280.13 -3305.67 0.
-570.1 -1517.51 0.
-14.7454 -23.719 0.
-914.092 -2328.05 0.
-509.051 -1325.15 0.
-129.493 -298.574 0.
-811.079 -1746.47 0.
-680.613 -1477.53 0.
-496.421 -962.791 0.
-455.528 -860.619 0.
-430.639 -800.435 0.
-471.591 -844.718 0.
-460.826 -817.353 0.
-449.676 -788.04 0.
-537.73 -935.871 0.
-460.686 -921.306 0.
-442.47 -864.757 0.
-444.69 -988.664 0.
-483.625 -1003.66 0.
-786.266 -1140.22 0.
-675.158 -1039.37 0.
-684.674 -1067.04 0.
-411.324 -819.321 0.
-421.124 -847.123 0.
-434.007 -883.93 0.
-555.486 -852.358 0.
-549.85 -831.53 0.
-545.064 -810.676 0.
-351.461 -797.049 0.
-433.448 -977.535 0.
-521.947 -1160.34 0.
-610.054 -1538.54 0.
-767.416 -1852.3 0.
-87.8087 -94.3995 0.
-551.678 -1356.84 0.
-1047.94 -2595.22 0.
-0.706409 -0.926689 0.
-580.711 -1551.8 0.
-1535.47 -3934.77 0.
-12.2058 -33.7832 0.
-511.396 -1274.04 0.
-1909.59 -4637.19 0.
-24.553 -67.7223 0.
-2382.5 -6161.04 0.
0.4763 1.31926 0.
-0.88452 -2.44994 0.
-2381.96 -6597.17 0.
-0.0172182 -7.32748 0.
0.341737 0.944044 0.
-1815.74 -4720.61 0.
-1.44319 -3.98668 0.
-147.486 -408.117 0.
6.51927 17.8778 0.
9.90841 27.4295 0.
-0.339352 -18.4064 0.
-1.91195 -5.19649 0.
-373.573 -1027.53 0.
14.3952 37.6705 0.
-136.901 -359.999 0.
4.08379 10.7457 0.
-12.5156 -33.1139 0.
16.9785 44.8367 0.
-488.711 -1290.29 0.
-227.512 -580.157 0.
15.4887 38.8586 0.
-9.48131 -22.1785 0.
12.0318 26.7672 0.
11.4594 27.8427 0.
4.52773 10.1305 0.
-8.38516 -46.8191 0.
17.6891 39.1055 0.
13.0977 27.4698 0.
-258.381 -568.473 0.
-33.0422 -85.2663 0.
-2.8911 -58.8078 0.
17.0944 42.936 0.
-2.9267 -7.73237 0.
4.17322 11.1554 0.
-578.37 -1533.12 0.
2.03954 5.39116 0.
-233.224 -645.351 0.
3.12632 8.61385 0.
-1174.14 -3082.32 0.
-2.12757 -5.61397 0.
-1259.02 -3395.03 0.
-327.242 -905.281 0.
-296.893 -807.139 0.
-1.30211 -3.5392 0.
1.31369 3.54328 0.
1.80166 3.79685 0.
-0.536287 -6.85893 0.
-0.189133 -7.55053 0.
-164.094 -454.182 0.
1.05445 2.7633 0.
-0.0345171 -0.771031 0.
-12.5274 -23.9251 0.
-13.203 -29.6036 0.
-262.207 -615.17 0.
-8.72432 -24.081 0.
0.169131 0.46838 0.
-494.971 -1325.84 0.
-6.83347 -6.36213 0.
-8.7672 -16.4743 0.
-507.789 -1346.3 0.
-132.565 -313.848 0.
-46.3292 -37.1344 0.
-555.526 -1346.07 0.
-438.516 -1069.94 0.
-414.696 -847.821 0.
-363.66 -752.709 0.
-329.096 -683.775 0.
-369.193 -827.624 0.
-357.442 -802.18 0.
-344.531 -773.064 0.
-483.303 -909.381 0.
-439.578 -904.391 0.
-430.307 -875.342 0.
-367.25 -965.501 0.
-370.751 -959.876 0.
-343.159 -914.541 0.
-622.168 -926.287 0.
-630.201 -949.228 0.
-378.506 -862.873 0.
-385.362 -879.506 0.
-396.079 -902.637 0.
-412.052 -847.225 0.
-405.297 -830.039 0.
-400.623 -809.367 0.
-240.651 -564.783 0.
-312.038 -756.863 0.
-400.042 -941.214 0.
-333.967 -924.591 0.
-467.949 -1260.42 0.
-23.8779 -9.19606 0.
-92.0353 -145.232 0.
-552.773 -1415.33 0.
-0.733135 -0.933484 0.
-1.23 -1.53474 0.
-483.618 -1286.5 0.
0.231301 0.608976 0.
-0.000261505 -0.665419 0.
-185.002 -460.451 0.
-8.283 -22.7518 0.
-33.322 -92.097 0.
-0.0242795 -3.03069 0.
0.672042 1.83765 0.
-111.589 -306.732 0.
0.870956 2.40728 0.
1.90534 5.25424 0.
2.71493 7.27508 0.
1.66086 4.58439 0.
-1404.51 -3829.83 0.
11.7403 32.5044 0.
-1273.66 -3527.8 0.
-12.1805 -32.4279 0.
-99.6482 -265.149 0.
-338.593 -921.248 0.
16.8845 44.2803 0.
-285.5 -752.944 0.
15.4838 40.3313 0.
-104.512 -274.075 0.
-9.63618 -25.3544 0.
-12.0317 -31.4745 0.
14.9363 37.3904 0.
-47.8031 -119.427 0.
-485.222 -1153.66 0.
16.1797 36.7366 0.
-1.18175 -37.3764 0.
1.78534 4.08567 0.
-5.45682 -34.4704 0.
-16.8795 -38.6366 0.
3.45461 7.25076 0.
3.08837 6.24119 0.
-2.21344 -5.38962 0.
11.114 27.3921 0.
-113.662 -283.726 0.
-313.094 -816.548 0.
-219.488 -579.444 0.
-44.6224 -118.027 0.
-0.427726 -1.07734 0.
-110.843 -300.307 0.
15.948 42.6917 0.
9.28881 24.1122 0.
-0.75867 -26.1878 0.
11.8702 30.6726 0.
-8.52779 -23.6196 0.
-6.34925 -17.3687 0.
-41.5514 -107.999 0.
0.591834 1.49274 0.
2.27742 5.23492 0.
4.44358 11.1429 0.
3.18225 8.59276 0.
-101.476 -274.951 0.
1.24177 3.15965 0.
0.670923 1.62289 0.
-0.558489 -1.18644 0.
-0.223976 -0.536589 0.
-39.8371 -108.064 0.
-0.000621555 -1.48057 0.
-0.00308019 -1.2946 0.
-8.45215 -18.7741 0.
-2.57329 -5.18563 0.
-5.26855 -14.2729 0.
-178.421 -334.217 0.
-71.8648 -54.5828 0.
-73.0874 -53.2442 0.
-173.125 -358.617 0.
-112.406 -192.052 0.
-235.008 -313.885 0.
-147.015 -138.13 0.
-97.3622 -107.03 0.
-119.178 -210.111 0.
-166.034 -426.867 0.
-147.475 -317.868 0.
-202.736 -263.925 0.
-184.555 -213.41 0.
-250.953 -366.412 0.
-138.19 -284.077 0.
-115.908 -223.415 0.
-23.6162 -25.2404 0.
-169.759 -86.8642 0.
-280.491 -299.15 0.
-36.2257 -76.2289 0.
-157.71 -207.839 0.
-128.3 -131.589 0.
-79.9813 -69.8647 0.
-195.587 -305.27 0.
-124.507 -136.632 0.
-99.4781 -117.855 0.
-186.992 -231.833 0.
-179.597 -214.511 0.
-33.5836 -92.6046 0.
-188.379 -518.993 0.
-3.4949 -1.34431 0.
-23.6296 -10.1274 0.
-129.136 -253.914 0.
-1.03671 -1.2619 0.
-1.91318 -2.26464 0.
-25.6351 -35.3151 0.
-0.000109071 -0.00369245 0.
0.233361 0.643174 0.
0.330545 0.907093 0.
-0.0361896 -2.33556 0.
-16.3191 -45.0612 0.
-0.0742136 -2.3591 0.
1.62412 4.2787 0.
-54.6542 -146.607 0.
-0.000933878 -4.16133 0.
1.85605 5.10967 0.
0.445517 9.87009 0.
6.84992 18.6533 0.
0.374723 1.03672 0.
11.1859 30.6863 0.
-314.408 -866.754 0.
-70.8033 -186.635 0.
-159.271 -419.907 0.
-482.095 -1271.06 0.
-10.9197 -27.7359 0.
-3.77838 -9.59723 0.
-2.05218 -5.28753 0.
-453.137 -1176.54 0.
-7.54742 -19.7826 0.
-198.9 -518.242 0.
-3.54924 -8.85801 0.
24.7419 60.0661 0.
-5.79201 -13.5064 0.
19.7823 45.9428 0.
-7.65423 -68.6565 0.
-2.4826 -32.6747 0.
12.7567 23.7675 0.
10.2016 20.9934 0.
-7.53123 -36.5404 0.
20.9326 43.3589 0.
0.151291 0.365743 0.
-262.17 -641.925 0.
-229.429 -568.907 0.
-304.931 -783.197 0.
15.8073 38.7131 0.
7.48087 18.5169 0.
-4.26094 -10.6441 0.
-748.798 -2019.53 0.
13.4624 35.8062 0.
-2.88034 -7.33214 0.
13.4708 34.1478 0.
-0.906892 -22.0041 0.
-1.14417e-05 -24.1463 0.
-0.00679433 -24.2368 0.
-1044.35 -2827.5 0.
-2.85312 -7.50347 0.
-0.750939 -18.509 0.
-1874.31 -4746.14 0.
-0.367857 -0.984357 0.
-1575.13 -4321.27 0.
-33.3564 -92.2949 0.
-12.8036 -35.007 0.
-2069.44 -5545.59 0.
0.106292 0.293634 0.
-1773.29 -4349.42 0.
-333.728 -790.547 0.
-3.73991 -9.14491 0.
-1682.4 -4382.32 0.
-338.73 -880.235 0.
-2.52673 -4.70864 0.
-1142.19 -3009.38 0.
-467.689 -1223.38 0.
-43.4703 -63.0066 0.
-869.177 -2212.22 0.
-572.354 -1485.82 0.
-615.276 -1488.67 0.
-457.777 -1120.91 0.
-317.086 -754.277 0.
-411.103 -1052.25 0.
-335.093 -856.172 0.
-261.872 -662.166 0.
-366.646 -795.902 0.
-354.719 -766.486 0.
-345.512 -737.764 0.
-353.232 -772.327 0.
-396.271 -842.908 0.
-253.379 -663.095 0.
-510.027 -862.06 0.
-493.875 -805.051 0.
-313.574 -759.431 0.
-325.815 -799.405 0.
-341.041 -844.42 0.
-301.265 -722.884 0.
-410.979 -1006.24 0.
-524.652 -1290.68 0.
-324.868 -803.745 0.
-495.286 -1268.94 0.
-676.251 -1726.62 0.
-551.697 -1508.05 0.
-949.564 -2518.6 0.
-49.5449 -90.3872 0.
-502.326 -1345.45 0.
-1360.68 -3606.3 0.
-30.6223 -77.0742 0.
-247.074 -664.505 0.
-1982.61 -5244.25 0.
0.545061 1.25464 0.
-303.534 -772.041 0.
-1898.81 -4711.25 0.
-0.00042305 -1.82109 0.
-2206.12 -5916.66 0.
1.83529 5.08168 0.
-184.829 -497.295 0.
-1365.62 -3614.43 0.
-0.0610908 -5.61429 0.
-2424.68 -6547.49 0.
2.16229 5.88965 0.
3.03929 8.31733 0.
-1232.21 -3379.05 0.
2.66686 7.17416 0.
-132.312 -359.888 0.
-130.035 -339.111 0.
-206.018 -537.773 0.
-461.894 -1182.5 0.
11.0718 28.2368 0.
-233.469 -596.836 0.
7.23795 17.6152 0.
-6.52679 -15.8116 0.
-11.8521 -30.9423 0.
-648.588 -1680.5 0.
-389.077 -969.272 0.
7.82395 18.9246 0.
-3.31124 -7.77805 0.
-3.48049 -7.68227 0.
13.1683 27.1837 0.
-3.26684 -7.23167 0.
2.65828 5.04719 0.
9.42751 19.8761 0.
32.0337 62.4421 0.
-173.751 -370.81 0.
-233.487 -560.259 0.
-30.6212 -74.3928 0.
-4.33566 -56.4216 0.
-5.34027 -12.9528 0.
-41.0325 -100.085 0.
-576.028 -1413.69 0.
18.0981 44.8139 0.
-384.197 -1028.49 0.
13.6221 35.9873 0.
-218.354 -549.426 0.
-121.789 -308.573 0.
-214.358 -546.045 0.
-936.31 -2590.03 0.
0.544785 1.50498 0.
-173.752 -469.04 0.
-3.06728 -8.04486 0.
9.10058 22.9843 0.
-545.524 -1473.58 0.
-0.027739 -8.88027 0.
-14.0105 -38.4316 0.
-2.24307 -6.21116 0.
-0.850463 -2.30827 0.
-10.5135 -29.1117 0.
-0.0504457 -2.83887 0.
-64.0689 -174.686 0.
-37.2724 -97.9821 0.
-12.2178 -28.6063 0.
-253.928 -632.557 0.
0.286608 0.599274 0.
-0.00694586 -0.0158231 0.
-503.548 -1379.69 0.
-19.7068 -54.5844 0.
-17.8248 -48.9045 0.
-519.069 -1354.14 0.
-232.224 -589.688 0.
-408.388 -1022.32 0.
-266.369 -641.867 0.
-154.972 -333.874 0.
-391.343 -921.473 0.
-317.864 -724.779 0.
-249.705 -523.174 0.
-292.814 -663.845 0.
-282.323 -631.84 0.
-283.851 -588.076 0.
-328.761 -757.139 0.
-365.99 -834.016 0.
-200.812 -470.218 0.
-509.015 -836.521 0.
-495.185 -779.954 0.
-275.113 -652.107 0.
-290.645 -691.412 0.
-308.166 -738.099 0.
-206.501 -490.609 0.
-314.089 -777.616 0.
-426.718 -1062.47 0.
-109.681 -260.988 0.
-236.261 -651.092 0.
-408.431 -1119.41 0.
-162.978 -450.385 0.
-556.63 -1523.91 0.
-28.0443 -51.3357 0.
-34.0386 -75.7475 0.
-501.564 -1378.22 0.
-9.04249 -22.4125 0.
-9.45087 -25.7096 0.
-204.679 -550.415 0.
-23.6618 -53.7229 0.
-0.0793367 -0.467741 0.
-0.457225 -1.83478 0.
-0.0180819 -4.67615 0.
1.67534 4.61315 0.
-0.000766586 -7.25997 0.
2.56001 7.01548 0.
-0.117125 -6.37246 0.
5.25097 14.5434 0.
-1.02196 -2.80287 0.
-0.279162 -20.7405 0.
5.69683 15.4058 0.
-169.839 -461.965 0.
8.94282 23.3192 0.
-318.681 -836.788 0.
9.78068 24.4299 0.
-49.9003 -126.178 0.
12.1745 31.172 0.
16.6931 42.7485 0.
-382.092 -982.189 0.
-3.21277 -7.77606 0.
6.67018 16.0711 0.
-2.49806 -43.2119 0.
-9.3238 -22.4017 0.
14.8777 33.8002 0.
-282.914 -682.204 0.
-211.017 -500.023 0.
15.3364 34.0969 0.
1.5515 3.21717 0.
7.31303 16.6016 0.
2.88474 5.60425 0.
-1.36448 -2.96241 0.
15.2924 30.8242 0.
-7.13442 -45.5092 0.
0.64807 1.44186 0.
-4.92516 -52.1946 0.
2.38147 5.52414 0.
-422.937 -1021.15 0.
-399.142 -969.095 0.
-221.194 -537.706 0.
-10.7436 -25.3817 0.
6.41867 16.7022 0.
4.94766 12.8597 0.
-611.079 -1579.47 0.
-48.742 -124.105 0.
-67.5786 -173.033 0.
-659.263 -1810.83 0.
-0.189657 -28.9561 0.
-165.818 -445.774 0.
-1.49418 -3.90916 0.
0.671695 1.69555 0.
2.7315 7.53676 0.
0.942228 2.60981 0.
-1639.64 -4497.62 0.
-28.4313 -78.7107 0.
-8.24193 -22.7954 0.
-1834.08 -5079.39 0.
1.80006 4.83784 0.
-1613.07 -3435.57 0.
-151.003 -312.146 0.
-126.75 -318.195 0.
-1816.5 -4934.73 0.
-15.6488 -40.2728 0.
-0.0198432 -0.390862 0.
-1298.76 -3429.01 0.
-333.864 -894.072 0.
-15.6987 -42.2517 0.
-936.352 -2426.69 0.
-474.345 -1225.28 0.
-676.084 -1678.69 0.
-420.096 -1058.49 0.
-180.73 -439.382 0.
-510.839 -1171.28 0.
-398.836 -907.631 0.
-301.892 -634.205 0.
-367.273 -855.268 0.
-333.609 -765.587 0.
-303.848 -684.094 0.
-381.4 -876.55 0.
-349.575 -804.676 0.
-316.902 -549.738 0.
-478.698 -714.824 0.
-495.659 -760.987 0.
-255.402 -607.074 0.
-305.529 -731.468 0.
-362.67 -871.899 0.
-209.95 -528.18 0.
-371.424 -960.549 0.
-548.586 -1385.24 0.
-144.523 -391.973 0.
-435.438 -1144.31 0.
-742.562 -1886.92 0.
-474.967 -1266.31 0.
-1082.87 -2841.02 0.
-10.0843 -25.3082 0.
-279.807 -752.224 0.
-1518.09 -3986.05 0.
0.209836 0.573754 0.
-0.0532162 -0.145618 0.
-1940.53 -5314.02 0.
-50.2855 -131.464 0.
-225.598 -563.43 0.
-1720.8 -4301.95 0.
-0.0488763 -3.79397 0.
-1606.09 -4445.48 0.
-1.48188 -4.10434 0.
-758.661 -2043.93 0.
1.03827 2.7998 0.
0.0125721 2.34712 0.
-0.000493937 -14.8468 0.
5.16139 13.5924 0.
-0.380369 -22.8526 0.
-55.0571 -147.949 0.
4.26979 11.0669 0.
-593.53 -1549.62 0.
3.02827 7.4966 0.
-292.74 -733.941 0.
11.2598 28.3971 0.
-8.07885 -20.1337 0.
15.1464 38.9533 0.
-247.005 -594.611 0.
-340.303 -815.224 0.
-307.336 -740.411 0.
-3.63876 -52.1552 0.
2.77172 6.33433 0.
4.05538 8.98133 0.
-4.31425 -38.9779 0.
-9.07884 -20.3574 0.
-7.33916 -51.1348 0.
4.28219 9.99305 0.
-3.37484 -17.4212 0.
-2.55431 -5.28454 0.
3.604 6.98292 0.
4.46547 9.39003 0.
-6.25694 -13.7302 0.
-18.4207 -41.27 0.
-280.466 -642.144 0.
-16.2337 -39.0573 0.
-7.80991 -18.1115 0.
13.9736 32.5915 0.
17.5271 41.3754 0.
-405.336 -1043.51 0.
8.08838 20.8002 0.
6.53239 16.7703 0.
-124.651 -318.836 0.
-56.2837 -144.747 0.
-184.403 -499.404 0.
9.29416 24.1474 0.
-1226.08 -3177.95 0.
-21.6013 -56.0302 0.
2.04367 5.25737 0.
-1675.13 -4613.59 0.
1.29113 3.49971 0.
-9.96192 -27.4375 0.
2.51278 6.95737 0.
-0.00347919 -7.26487 0.
-42.9322 -117.004 0.
-0.0410882 -1.04719 0.
0.58536 0.967417 0.
-0.103348 -0.520025 0.
-19.7233 -46.5928 0.
-334.393 -913.453 0.
-14.2582 -39.3545 0.
0.301347 0.832152 0.
-357.696 -941.028 0.
-2.05087 -5.14946 0.
-0.899033 -2.47856 0.
-452.251 -1176.57 0.
-38.4572 -80.1409 0.
-393.644 -985.501 0.
-146.569 -335.532 0.
-51.1451 -70.7964 0.
-328.22 -805.996 0.
-226.647 -536.997 0.
-157.829 -330.5 0.
-288.012 -722.928 0.
-259.007 -646.83 0.
-242.93 -597.924 0.
-349.933 -858.567 0.
-325.078 -790.423 0.
-323.946 -768.348 0.
-405.759 -719.664 0.
-413.714 -745.882 0.
-183.875 -447.107 0.
-224.11 -573.68 0.
-273.5 -709.352 0.
-67.7518 -173.689 0.
-175.861 -470.814 0.
-339.775 -903.614 0.
-29.5313 -60.4435 0.
-91.7635 -233.958 0.
-380.769 -993.583 0.
-35.8982 -87.9494 0.
-480.104 -1295.85 0.
-4.9435 -12.6701 0.
-5.87831 -15.8256 0.
-299.406 -801.633 0.
0.526597 1.44872 0.
0.46664 1.28458 0.
-323.09 -894.577 0.
-5.99612 -15.8872 0.
-13.7192 -36.2511 0.
-0.757209 -8.85379 0.
-0.171154 -5.2555 0.
2.47222 6.70575 0.
1.35867 3.75669 0.
1.63585 4.49972 0.
-961.34 -2554.75 0.
-2.43109 -6.59794 0.
-1642.56 -4488.46 0.
-13.7314 -36.1715 0.
-19.1091 -50.833 0.
-810.224 -2166.99 0.
14.2323 36.659 0.
-56.4154 -146.53 0.
-1.98757 -36.3762 0.
-816.429 -2031.16 0.
17.6477 44.2233 0.
-8.12845 -20.1206 0.
-2.39816 -42.5292 0.
-2.41923 -5.50293 0.
-7.0096 -15.8208 0.
-232.453 -554.615 0.
-68.0899 -160.236 0.
-425.707 -978.805 0.
14.5275 32.3753 0.
-199.012 -446.102 0.
-6.08973 -41.6446 0.
-8.3151 -41.5941 0.
2.12734 4.59133 0.
-2.64072 -15.4154 0.
3.7769 8.0811 0.
16.4366 32.956 0.
-163.645 -356.509 0.
-138.545 -299.475 0.
-134.383 -296.683 0.
1.76873 3.74979 0.
-6.47978 -14.5951 0.
9.81516 22.4516 0.
-288.811 -672.219 0.
-184.273 -434.493 0.
-323.204 -823.263 0.
17.938 45.6032 0.
10.0559 25.5034 0.
-320.703 -797.716 0.
9.46228 23.3616 0.
-344.362 -896.413 0.
-1.78422 -4.58285 0.
-7.2857 -18.9572 0.
-0.775997 -25.2871 0.
3.55462 9.09594 0.
-278.075 -748.846 0.
3.30445 8.5267 0.
-0.0191855 -8.53494 0.
-0.00194146 -9.14689 0.
1.22665 3.39508 0.
1.90818 5.0188 0.
3.40431 8.19542 0.
-0.153392 -0.529286 0.
-0.201764 -1.03755 0.
0.65414 1.41569 0.
-39.5493 -108.452 0.
-13.9241 -37.6578 0.
0.00529059 0.291737 0.
0.00664311 0.461447 0.
0.00057163 0.0804961 0.
0.201913 0.497374 0.
-37.2674 -84.6506 0.
-33.0991 -76.7079 0.
-87.5183 -156.56 0.
-48.3782 -69.1755 0.
-38.933 -47.3176 0.
-124.403 -237.504 0.
-63.9535 -67.3528 0.
-22.8995 -55.0771 0.
-151.703 -285.211 0.
-175.278 -337.213 0.
-144.201 -240.418 0.
-137.51 -200.69 0.
-133.038 -213.969 0.
-221.617 -275.288 0.
-140.35 -147.849 0.
-307.051 -450.263 0.
-57.5432 -68.0478 0.
-131.369 -295.962 0.
-114.037 -249.101 0.
-25.7559 -64.1546 0.
-28.3029 -74.0431 0.
-104.917 -286.222 0.
-52.2172 -83.9279 0.
-49.817 -87.1316 0.
-94.3734 -213.98 0.
-31.7959 -76.5098 0.
-47.7059 -117.254 0.
-1.3945 -3.6068 0.
-1.88716 -5.08539 0.
-13.3115 -36.6452 0.
-0.166248 -0.459234 0.
-5.30123 -14.629 0.
-20.6301 -56.5346 0.
0.641139 1.7523 0.
-5.08439 -13.8348 0.
-0.0470729 -0.430278 0.
2.62073 6.46104 0.
-0.16471 -7.65752 0.
-0.00934494 -4.77091 0.
-0.578348 -1.59869 0.
-0.110178 -12.23 0.
2.34615 6.14541 0.
-70.9438 -190.155 0.
1.82171 4.79792 0.
3.69116 9.81586 0.
-335.436 -856.267 0.
-2.58206 -6.6025 0.
-91.7596 -235.103 0.
17.048 40.8832 0.
-2.0787 -39.6517 0.
-190.454 -474.008 0.
-90.783 -223.171 0.
-452.466 -1101.24 0.
-246.603 -560.71 0.
12.9445 29.1879 0.
0.374849 0.840721 0.
15.3707 33.9515 0.
-14.265 -33.0414 0.
20.5452 46.1104 0.
-299.886 -685.537 0.
12.8537 27.1166 0.
20.9878 40.5906 0.
2.56321 5.70667 0.
7.63047 15.8174 0.
-1.56911 -3.4852 0.
17.4124 34.1028 0.
-4.43971 -31.064 0.
18.1694 36.1474 0.
-5.4982 -11.3328 0.
-3.79793 -8.10244 0.
7.76137 17.2245 0.
-303.175 -682.059 0.
-380.266 -883.66 0.
-16.9748 -40.0162 0.
-9.37479 -22.7131 0.
-8.72242 -21.2779 0.
10.1171 24.8567 0.
-279.594 -692.208 0.
-4.24481 -10.4343 0.
-824.765 -2125.72 0.
-1.146 -29.8435 0.
0.0575222 0.148957 0.
-2.70969 -6.95942 0.
0.897152 2.28363 0.
-822.164 -2153.13 0.
-0.877288 -19.6781 0.
-1155.09 -3198.22 0.
3.06421 8.36185 0.
0.0531456 0.144833 0.
-1322.95 -3663.03 0.
-14.3163 -39.6124 0.
1.12776 3.1207 0.
-1811.8 -4375.87 0.
-10.4144 -26.2656 0.
-1522.62 -4170.27 0.
-37.6128 -103.419 0.
-23.9779 -63.6372 0.
-1572.6 -4142.73 0.
-23.9798 -65.941 0.
-18.4503 -50.5983 0.
-1165.23 -3076.81 0.
-278.51 -737.118 0.
-814.057 -2074.47 0.
-423.229 -1070.99 0.
-136.069 -311.807 0.
-612.44 -1619.39 0.
-375.195 -982.74 0.
-152.937 -367.993 0.
-438.826 -1130.82 0.
-318.217 -801.652 0.
-213.142 -504.009 0.
-366.182 -924.388 0.
-342.523 -859.466 0.
-257.338 -647.683 0.
-418.908 -833.435 0.
-469.716 -965.752 0.
-193.288 -509.253 0.
-333.553 -913.369 0.
-505.382 -1386.78 0.
-109.987 -304.235 0.
-412.094 -1134.14 0.
-724.596 -1953.22 0.
-105.08 -251.54 0.
-440.825 -1133.16 0.
-918.662 -2325.31 0.
-230.167 -607.899 0.
-1348.34 -3548.06 0.
-0.00103202 -0.499826 0.
-0.328475 -0.894813 0.
-1773.29 -4750.11 0.
0.0789079 0.212222 0.
-29.7997 -81.9371 0.
-1593.55 -4349.52 0.
0.489077 1.24345 0.
-2182.72 -5155.41 0.
-0.0235982 -9.73199 0.
2.99442 8.27794 0.
-1765.96 -4885.35 0.
-0.00231443 -13.9466 0.
-134.593 -371.619 0.
-1343.22 -3691.97 0.
-0.855252 -19.878 0.
-280.633 -726.577 0.
-0.65663 -30.237 0.
-3.88569 -10.3293 0.
-1.44064 -33.6649 0.
0.21541 0.543196 0.
-671.6 -1693.92 0.
-12.2376 -29.1807 0.
-172.143 -408.801 0.
-3.66988 -8.74121 0.
15.2648 36.1195 0.
-99.4627 -227.623 0.
-192.729 -437.706 0.
-127.685 -287.732 0.
-424.94 -944.336 0.
4.70046 10.2789 0.
-15.6231 -34.2134 0.
1.93484 4.11008 0.
-54.9107 -120.147 0.
-5.37933 -10.9706 0.
-4.78466 -26.3111 0.
10.5495 24.3137 0.
3.07897 6.32679 0.
4.67697 9.97946 0.
12.8492 25.3765 0.
0.148569 0.313606 0.
-6.68824 -39.5933 0.
4.85729 10.0796 0.
-585.301 -1256.71 0.
-25.9008 -56.5629 0.
-3.97316 -8.35599 0.
6.09593 13.4396 0.
-49.3403 -110.499 0.
-142.796 -343.158 0.
-2.53571 -6.13469 0.
-225.848 -550.131 0.
-734.464 -1814.93 0.
6.63302 16.229 0.
-216.673 -550.629 0.
-4.12763 -10.3658 0.
-595.55 -1525.47 0.
-160.576 -414.588 0.
-230.997 -590.318 0.
-398.89 -1004.8 0.
7.415 17.6371 0.
-136.232 -376.239 0.
3.33102 9.13303 0.
-0.0389522 -8.29419 0.
-47.9064 -132.642 0.
0.440563 1.21872 0.
1.49813 4.14565 0.
-1.28335 -3.20386 0.
1.32348 3.55033 0.
-38.4934 -105.991 0.
-23.8779 -64.1514 0.
-12.5776 -32.084 0.
-76.2044 -210 0.
-23.7777 -64.2104 0.
-18.4029 -49.276 0.
-426.771 -1147.35 0.
-30.0436 -82.3567 0.
-374.765 -931.813 0.
-72.4853 -142.44 0.
-33.7767 -40.011 0.
-342.088 -938.039 0.
-124.002 -339.627 0.
-13.3046 -28.0559 0.
-344.901 -875.096 0.
-252.106 -612.12 0.
-161.751 -350.785 0.
-334.224 -863.811 0.
-314.303 -801.321 0.
-218.221 -437.304 0.
-385.282 -743 0.
-415.841 -825.291 0.
-93.7394 -246.235 0.
-211.886 -579.209 0.
-356.26 -986.453 0.
-48.8283 -98.3568 0.
-101.335 -250.512 0.
-391.634 -1050.09 0.
-27.1718 -72.2081 0.
-30.4391 -82.7822 0.
-344.074 -890.53 0.
-2.30121 -4.17339 0.
-392.648 -1054.81 0.
0.00163099 0.0452519 0.
-12.0004 -29.5567 0.
-47.309 -115.804 0.
0.540666 1.38941 0.
0.141795 0.381876 0.
-20.3645 -56.0504 0.
-0.0937866 -6.43404 0.
3.12151 7.54303 0.
-0.0354622 -3.06805 0.
-0.0244192 -3.82779 0.
-5.46462 -15.0161 0.
1.10142 3.04307 0.
-62.6654 -173.541 0.
4.55804 11.0441 0.
0.888304 2.20361 0.
-620.053 -1574.71 0.
3.54282 9.10711 0.
-637.49 -1658.41 0.
-5.51096 -13.3372 0.
-11.8988 -29.5574 0.
-141.011 -351.514 0.
-10.994 -26.062 0.
-750.506 -1771.47 0.
-24.2026 -57.4752 0.
-0.985808 -2.32547 0.
8.59313 19.0662 0.
-10.6933 -23.4018 0.
-12.2377 -26.4265 0.
-330.204 -726.359 0.
-161.207 -348.905 0.
-378.97 -831.113 0.
5.07447 10.7698 0.
12.9505 26.6376 0.
-4.12092 -8.59047 0.
11.5365 22.2126 0.
6.99363 15.7547 0.
7.5645 15.9579 0.
-30.4224 -66.5862 0.
12.9427 25.8046 0.
-225.957 -484.528 0.
-7.13457 -43.3758 0.
-7.69561 -42.3714 0.
-6.21532 -40.5195 0.
-2.86784 -5.90315 0.
14.6318 30.6529 0.
-233.659 -515.252 0.
-529.201 -1185.81 0.
-303.068 -722.078 0.
-238.364 -571.673 0.
-5.46468 -12.5526 0.
10.791 25.3058 0.
-3.84992 -9.084 0.
-546.541 -1361.86 0.
-32.7821 -82.0088 0.
-6.81991 -17.1175 0.
-66.6603 -171.184 0.
-173.038 -439.862 0.
-161.355 -389.916 0.
-1.85 -19.2768 0.
-143.968 -398.685 0.
-32.3185 -89.1843 0.
-0.527172 -1.45055 0.
-68.9961 -191.107 0.
-190.688 -509.515 0.
-191.281 -490.991 0.
-1395.46 -3865.16 0.
-0.0127445 -6.59205 0.
-1400.34 -3719.55 0.
-20.6533 -56.5329 0.
-8.85738 -24.5325 0.
-1451.31 -3937.33 0.
-21.1763 -58.0861 0.
-0.704614 -1.89792 0.
-1217.66 -3257.67 0.
-37.5167 -102.182 0.
-886.678 -2215.04 0.
-391.188 -967.175 0.
-68.3875 -145.041 0.
-713.234 -1926.52 0.
-332.463 -911.855 0.
-8.14562 -18.1076 0.
-481.488 -1293.57 0.
-275.621 -748.652 0.
-85.2696 -224.823 0.
-349.734 -919.085 0.
-309.889 -818.07 0.
-112.783 -259.49 0.
-401.956 -803.189 0.
-495.476 -1051.68 0.
-68.3752 -183.8 0.
-314.356 -867.364 0.
-595.079 -1616.02 0.
-28.738 -43.8277 0.
-393.749 -1042.41 0.
-873.486 -2299.99 0.
-24.2828 -64.4345 0.
-396.407 -996.256 0.
-1000.48 -2472.9 0.
-1.43798 -3.68934 0.
-1362.25 -3657.83 0.
-11.2466 -30.3923 0.
-19.9978 -55.2869 0.
-1625.18 -4369.13 0.
-0.0219511 -0.0605417 0.
-15.4251 -41.9236 0.
-1572.61 -4102.27 0.
-0.00897119 -3.38914 0.
-1359.47 -3707.22 0.
-143.548 -367.24 0.
-0.0646792 -3.96715 0.
-0.154092 -0.416588 0.
0.869351 2.37633 0.
-0.0285923 -12.8735 0.
10.8296 25.8789 0.
4.74555 11.6212 0.
-459.06 -1152 0.
8.40284 21.2724 0.
-608.714 -1562.71 0.
-8.3918 -20.1752 0.
12.6373 30.2946 0.
-12.1414 -29.0259 0.
-6.42262 -14.5388 0.
-13.9565 -32.7492 0.
-257.408 -609.732 0.
-257.098 -604.692 0.
-265.109 -583.562 0.
-294.103 -638.279 0.
0.492768 1.05701 0.
5.4007 11.2708 0.
14.3609 29.138 0.
-8.23134 -16.8204 0.
-85.8408 -182.104 0.
-9.58863 -19.6901 0.
-380.861 -816.034 0.
-5.14365 -10.1209 0.
4.96356 11.3237 0.
0.264334 0.557631 0.
5.85468 12.6565 0.
16.5478 31.5585 0.
-4.07459 -24.0499 0.
15.1445 28.5175 0.
-4.4679 -8.80724 0.
-11.0328 -22.7532 0.
-1.33837 -2.74328 0.
-589.039 -1231.36 0.
-257.235 -567.167 0.
3.01777 6.75598 0.
-3.94688 -38.3011 0.
13.0729 29.4681 0.
15.1532 34.4641 0.
-191.793 -447.982 0.
-151.041 -354.821 0.
-560.314 -1389.67 0.
-51.5205 -128.395 0.
-19.1321 -47.8384 0.
-28.139 -71.8654 0.
-5.3908 -13.7458 0.
-171.629 -419.677 0.
-0.426159 -1.04067 0.
-125.262 -304.393 0.
-864.039 -2370.54 0.
-117.317 -324.908 0.
-650.555 -1755.57 0.
-82.6642 -219.771 0.
-88.2909 -225.169 0.
-89.5462 -246.153 0.
-0.0173573 -3.63122 0.
-10.5537 -27.9737 0.
-0.0140377 -2.11603 0.
-0.000895098 -2.20875 0.
-30.2388 -82.3928 0.
0.19255 0.533139 0.
-0.0205448 -1.03737 0.
-300.427 -822.454 0.
0.0567855 0.153832 0.
-275.414 -661.506 0.
-24.5907 -35.3501 0.
-20.6886 -28.5567 0.
-317.269 -874.367 0.
-19.4875 -50.2454 0.
-0.747928 -1.50994 0.
-270.979 -749.165 0.
-71.9181 -198.77 0.
-1.3718 -3.55956 0.
-244.588 -651.842 0.
-204.752 -545.435 0.
-46.0498 -96.5698 0.
-201.326 -333.603 0.
-290.917 -586.693 0.
-5.92377 -13.2687 0.
-63.1085 -167.508 0.
-332.491 -918.948 0.
-16.2753 -26.1711 0.
-25.7661 -50.8839 0.
-366.835 -982.067 0.
-9.3406 -25.6253 0.
-9.32003 -25.7883 0.
-260.077 -646.223 0.
-0.319019 -0.860144 0.
-282.151 -770.296 0.
-0.0957095 -0.258377 0.
-0.715624 -1.9821 0.
-11.8902 -32.2062 0.
1.05487 2.91572 0.
0.12711 0.348012 0.
-0.0271712 -2.38162 0.
3.32065 9.13168 0.
-214.821 -594.897 0.
2.68937 6.93052 0.
-35.076 -93.801 0.
-1128.53 -3072.39 0.
6.23501 17.0618 0.
-1351.69 -3719.17 0.
-1.11884 -18.1138 0.
-1.55034 -3.78601 0.
-133.834 -329.597 0.
-1.21266 -25.6786 0.
-314.733 -796.013 0.
-106.979 -255.372 0.
-52.3883 -124.726 0.
-411.102 -976.109 0.
-20.5535 -46.1445 0.
16.337 36.4263 0.
-9.176 -20.6185 0.
-8.88215 -19.7524 0.
-24.4338 -53.488 0.
-71.6659 -154.671 0.
3.52356 7.50478 0.
-336.987 -702.537 0.
10.372 21.0321 0.
10.3942 21.3156 0.
11.7884 23.1743 0.
-7.30804 -34.7859 0.
3.45077 7.01469 0.
2.8584 5.55878 0.
5.92038 13.814 0.
-1.40936 -3.01633 0.
-70.2141 -154.051 0.
15.3895 29.0889 0.
-5.1081 -10.156 0.
16.3224 30.8291 0.
8.44717 16.7293 0.
-317.425 -659.32 0.
-22.2683 -45.4494 0.
19.2128 37.1129 0.
15.1312 31.1291 0.
-2.61088 -5.48605 0.
2.92309 6.46524 0.
-173.696 -387.475 0.
-525.147 -1184.42 0.
-490.469 -1141.52 0.
-89.0015 -207.54 0.
2.17978 5.22936 0.
11.1957 27.0459 0.
-15.8625 -38.5627 0.
-351.615 -887.589 0.
1.01378 2.5663 0.
-322.362 -774.104 0.
-13.3159 -32.021 0.
9.4784 22.6996 0.
-228.889 -632.951 0.
3.1397 8.66527 0.
-42.4276 -114.726 0.
-18.325 -48.0375 0.
4.29174 10.7216 0.
-123.645 -325.074 0.
2.581 6.62874 0.
0.889009 2.33389 0.
1.29371 3.50951 0.
0.79533 2.19529 0.
-1.36598 -3.77104 0.
0.245967 0.676575 0.
0.86154 2.24985 0.
0.0437845 0.120207 0.
0.189549 0.514183 0.
-26.5042 -41.6197 0.
-22.8794 -34.5772 0.
-18.6393 -27.4706 0.
-37.372 -89.5849 0.
-10.6262 -14.3811 0.
-3.45608 -4.0373 0.
-79.6738 -220.207 0.
-0.14003 -0.385493 0.
-0.235128 -0.645562 0.
-71.9135 -184.005 0.
-63.6569 -163.223 0.
-2.84996 -3.03842 0.
-72.1927 -61.7318 0.
-119.564 -185.114 0.
-7.37854 -15.8076 0.
-12.0173 -30.2665 0.
-84.4982 -218.945 0.
-6.44916 -16.0739 0.
-12.482 -30.5819 0.
-29.3671 -74.9527 0.
-0.00354484 -0.00980668 0.
0.128949 0.357012 0.
-0.130754 -0.362153 0.
0.207221 0.57149 0.
-1.51917 -4.14913 0.
0.175962 0.472674 0.
0.348335 0.963562 0.
-0.0456263 -0.125321 0.
-0.000486714 -1.47431 0.
0.552297 1.51807 0.
0.164712 0.447015 0.
-0.00384157 -0.172611 0.
-0.659882 -1.78499 0.
2.45319 6.37939 0.
-0.142319 -10.767 0.
-0.0501987 -12.7424 0.
-0.114749 -11.1694 0.
-312.546 -851.594 0.
-0.354928 -0.841738 0.
3.66936 8.80218 0.
-591.883 -1434 0.
-1.67873 -27.5914 0.
2.80153 6.8135 0.
-9.90955 -22.7264 0.
7.43879 16.9697 0.
-346.157 -816.386 0.
-227.49 -506.5 0.
-382.926 -846.877 0.
-343.957 -766.938 0.
-3.98829 -8.7949 0.
-10.6703 -22.1797 0.
-1.3346 -2.70076 0.
13.0035 25.5946 0.
-113.725 -237.357 0.
-21.0501 -42.6679 0.
-420.18 -866.017 0.
-5.61344 -11.0671 0.
1.01295 1.91076 0.
1.69222 3.46995 0.
3.58178 7.01558 0.
-9.62198 -22.8097 0.
9.1157 19.8032 0.
-81.204 -180.781 0.
9.93011 18.5883 0.
-43.0281 -84.969 0.
-3.86915 -6.80492 0.
-7.60243 -33.4535 0.
10.8029 20.803 0.
19.3428 36.5677 0.
-359.214 -690.692 0.
18.0892 37.2063 0.
-506.868 -1061.17 0.
-91.9212 -201.097 0.
-163.616 -361.174 0.
7.6265 16.5425 0.
14.9864 33.4823 0.
-0.832349 -1.85738 0.
-305.824 -728.896 0.
2.29913 5.53749 0.
-118.421 -286.838 0.
-627.988 -1573.46 0.
-11.0005 -27.6374 0.
-343.14 -809.787 0.
-177.875 -419.281 0.
-19.6597 -46.271 0.
-270.546 -749.289 0.
4.46681 12.2888 0.
-707.377 -1957.77 0.
-0.0953629 -10.544 0.
2.28238 6.03247 0.
-1303.07 -3588.33 0.
0.585258 1.57441 0.
-1222.85 -3049.96 0.
-12.6746 -33.652 0.
1.43631 3.91098 0.
-1359.24 -3725.54 0.
0.18937 0.524062 0.
0.590151 1.59595 0.
-1337.74 -3684.52 0.
-0.138834 -0.372757 0.
-919.192 -2220.23 0.
-310.837 -737.463 0.
-55.897 -146.133 0.
-891.607 -2423.71 0.
-267.556 -740.538 0.
-7.24435 -10.3819 0.
-636.086 -1757.27 0.
-297.852 -823.219 0.
-32.1616 -89.0791 0.
-465.502 -1255.51 0.
-380.584 -1031.78 0.
-156.985 -350.741 0.
-354.224 -862.258 0.
-546.881 -1396.44 0.
-17.4152 -48.1642 0.
-328.629 -908.917 0.
-757.797 -2084.51 0.
-11.4519 -31.7161 0.
-269.362 -737.014 0.
-1049.88 -2800.89 0.
-28.0425 -77.6631 0.
-341.518 -839.416 0.
-1043.22 -2472.46 0.
0.09029 0.24902 0.
-1504.06 -4054.28 0.
-0.00254877 -2.7416 0.
-3.98939 -10.9131 0.
-1534.02 -4146.42 0.
-7.7868 -20.3523 0.
-27.1406 -67.6363 0.
-1439.53 -3528.82 0.
2.44392 6.70561 0.
-1400.47 -3868.26 0.
-2.52618 -6.8728 0.
-3.73057 -10.1855 0.
-554.868 -1516.56 0.
1.16009 3.08861 0.
0.0556324 0.150095 0.
2.21878 5.1587 0.
-0.881165 -2.07508 0.
-386.068 -919.842 0.
10.7356 25.6349 0.
-775.676 -1857.08 0.
-56.4858 -129.049 0.
-8.88419 -20.187 0.
11.7727 26.611 0.
8.09906 17.2541 0.
5.46572 11.5585 0.
-199.755 -441.408 0.
-218.879 -478.566 0.
-173.413 -363.086 0.
-371.567 -756.986 0.
8.94671 17.7259 0.
9.12946 17.3372 0.
-9.032 -16.8335 0.
-8.53611 -16.3894 0.
-6.8135 -12.5743 0.
10.2831 19.4347 0.
-172.173 -356.331 0.
-1.17667 -2.32358 0.
-33.1665 -79.9457 0.
2.97119 6.5244 0.
-3.85725 -8.66147 0.
1.28573 2.30455 0.
-6.79834 -12.446 0.
18.965 33.1895 0.
12.3442 22.6428 0.
-2.29614 -4.41801 0.
14.1492 26.6434 0.
-412.313 -789.679 0.
-108.31 -222.55 0.
16.1337 31.826 0.
12.2649 25.1471 0.
16.2214 34.2629 0.
-84.9258 -184.731 0.
-104.619 -230.998 0.
-332.12 -731.192 0.
-196.37 -467.893 0.
-166.57 -399.776 0.
-150.145 -362.923 0.
-36.5455 -90.5848 0.
3.99962 9.35993 0.
-251.889 -551.121 0.
-129.1 -286.611 0.
-213.927 -480.02 0.
-372.712 -1016.01 0.
2.55886 6.91285 0.
-387.517 -1064.04 0.
0.558009 1.49621 0.
-0.123314 -4.65512 0.
-0.0677229 -6.90183 0.
0.785995 2.08336 0.
0.732018 1.91595 0.
-0.214126 -0.575403 0.
-0.0175653 -3.96295 0.
0.66148 1.83217 0.
1.14841 3.15228 0.
0.440659 1.16911 0.
-30.68 -80.7138 0.
0.0677584 0.169315 0.
-105.613 -262.874 0.
-5.05564 -13.9781 0.
-11.5274 -30.2896 0.
-237.77 -658.079 0.
-0.0828756 -0.526504 0.
-0.142099 -0.430247 0.
-274.212 -758.255 0.
-23.0567 -61.175 0.
-22.1601 -60.9637 0.
-230.264 -608.16 0.
-165.3 -434.966 0.
-49.3171 -48.8152 0.
-114.385 -186.556 0.
-270.985 -641.655 0.
-12.2912 -34.0144 0.
-13.7847 -38.0789 0.
-270.886 -749.973 0.
-5.16022 -14.2643 0.
-5.77115 -15.3638 0.
-210.184 -577.674 0.
-11.8279 -32.458 0.
-21.2989 -58.4216 0.
-84.1149 -231.034 0.
0.0784728 0.216546 0.
0.482663 1.33352 0.
-0.0144723 -1.90355 0.
0.485417 1.34439 0.
-1.10212 -3.00587 0.
-0.204116 -0.54774 0.
-0.154799 -0.400567 0.
-12.3398 -30.658 0.
-0.108797 -7.56089 0.
-17.381 -47.3037 0.
1.18497 3.18842 0.
4.55453 12.3183 0.
-502.868 -1364.21 0.
-4.69015 -12.2983 0.
-653.764 -1735.35 0.
-15.3688 -35.6465 0.
-7.52798 -17.4539 0.
-45.6044 -105.695 0.
10.7052 25.1819 0.
-287.761 -679.606 0.
-296.281 -675.251 0.
-192.884 -436.851 0.
-218.152 -491.369 0.
-422.712 -896.04 0.
15.3078 32.2453 0.
13.9685 29.6954 0.
12.8846 26.8176 0.
16.8155 33.5178 0.
5.307 10.8943 0.
10.6551 21.2627 0.
-343.351 -641.372 0.
-9.31177 -17.0765 0.
-21.8449 -42.1972 0.
-0.125217 -0.232224 0.
-7.02442 -27.8868 0.
1.13925 2.23764 0.
8.30069 15.9073 0.
2.70756 6.66071 0.
-1.18538 -2.59175 0.
13.9738 24.7283 0.
1.45904 2.63822 0.
-129.621 -239.504 0.
-9.82961 -17.1117 0.
-275.651 -504.009 0.
-4.05497 -7.46756 0.
-0.159786 -0.279359 0.
-4.94197 -8.85477 0.
9.71543 18.6572 0.
-483.107 -945.274 0.
16.7174 34.3238 0.
-202.67 -429.165 0.
-522.509 -1138.52 0.
-386.759 -841.955 0.
-19.2369 -41.836 0.
-26.0799 -60.0378 0.
11.2662 25.8884 0.
-7.25413 -16.6436 0.
-162.33 -371.663 0.
10.1678 23.1334 0.
-405.167 -899.696 0.
-74.3466 -167.402 0.
-181.176 -412.306 0.
-404.817 -1084.24 0.
-1.5475 -4.06964 0.
-132.881 -360.017 0.
0.898238 2.38028 0.
-0.0683565 -2.10124 0.
-0.115118 -0.307667 0.
-46.4139 -127.062 0.
-885.568 -2280.8 0.
-123.171 -329.395 0.
-96.188 -263.711 0.
-1117.35 -3093.63 0.
-0.000891952 -2.79649 0.
0.000432828 0.520664 0.
-1125.94 -3060.29 0.
0.46156 1.22411 0.
-824.968 -1934.02 0.
-230.89 -558.554 0.
-102.226 -264.926 0.
-936.16 -2567 0.
-174.277 -482.313 0.
0.340902 0.790666 0.
-723.576 -1970.1 0.
-285.912 -790.421 0.
-5.9403 -16.393 0.
-523.508 -1423.29 0.
-413.482 -1126.68 0.
-112.266 -212.956 0.
-342.147 -876.554 0.
-638.506 -1699.52 0.
0.0899257 0.199845 0.
-282.418 -778.515 0.
-868.953 -2327.21 0.
-0.0145469 -0.451891 0.
-141.032 -390.315 0.
-1076.02 -2922.46 0.
-49.3707 -136.597 0.
-276.98 -660.436 0.
-953.98 -2169.05 0.
-0.200804 -0.55295 0.
-1256.59 -3401.07 0.
-0.428457 -1.18037 0.
-50.5242 -139.937 0.
-1100.9 -3034.28 0.
2.14431 5.83913 0.
-15.4213 -40.9565 0.
-1016.23 -2699.57 0.
-0.183214 -6.26113 0.
4.64736 12.3496 0.
-0.279869 -15.5679 0.
5.05874 13.5264 0.
-30.2843 -81.43 0.
-5.03812 -13.0508 0.
-672.788 -1766.46 0.
-3.63237 -8.43423 0.
-8.66243 -20.1072 0.
-604.807 -1405.2 0.
10.5761 24.0383 0.
-4.97907 -11.251 0.
14.7286 31.968 0.
13.8937 29.8923 0.
-15.7301 -35.2712 0.
-257.56 -544.162 0.
-14.0373 -29.4475 0.
-411.017 -874.101 0.
-3.33553 -6.96133 0.
-2.5622 -4.98507 0.
-8.00508 -15.2513 0.
-7.14788 -33.1511 0.
20.1698 34.9816 0.
-17.1162 -30.8487 0.
-202.113 -392.872 0.
-116.005 -216.249 0.
-7.50988 -13.4192 0.
-147.784 -292.128 0.
3.89575 7.51764 0.
3.25692 8.24307 0.
-30.6386 -66.6594 0.
-5.76556 -10.2955 0.
12.0368 21.9611 0.
11.9256 20.6784 0.
-6.50411 -10.5437 0.
-9.24153 -15.579 0.
17.6697 30.0372 0.
-9.43665 -16.4415 0.
-413.271 -738.874 0.
-10.6304 -20.2159 0.
-405.108 -785.876 0.
-166.413 -342.245 0.
-87.7429 -186.124 0.
11.0759 22.8524 0.
8.50596 17.4104 0.
15.7654 32.6096 0.
-67.3695 -154.543 0.
-37.5527 -85.9849 0.
-45.837 -104.764 0.
-724.4 -1620.86 0.
1.53536 3.39025 0.
-17.9177 -40.4347 0.
-49.2726 -112.422 0.
3.21029 7.27258 0.
-183.622 -482.25 0.
-5.20783 -13.6748 0.
-653.828 -1784.57 0.
-77.1338 -210.032 0.
-46.757 -126.605 0.
-1065.82 -2872.07 0.
2.35064 6.25402 0.
-56.449 -151.904 0.
2.19249 6.01665 0.
-0.000366875 -6.06992 0.
-51.2946 -140.955 0.
-0.0144035 -2.81 0.
-0.00539968 -0.676048 0.
1.11663 3.08545 0.
0.0215578 0.805668 0.
-62.0057 -139.488 0.
-2.15172 -5.91052 0.
-7.05402 -19.4193 0.
-209.326 -578.729 0.
0.158115 0.339794 0.
0.27664 0.586944 0.
-128.425 -344.715 0.
-5.87298 -15.2358 0.
0.0738746 0.167041 0.
-66.2943 -175.925 0.
-5.6292 -4.80792 0.
-8.36464 -18.1601 0.
-4.1041 -10.7518 0.
-107.191 -282.77 0.
-0.0265515 -0.268995 0.
0.0325383 0.0697659 0.
-118.6 -328.488 0.
-0.00121578 -0.0698911 0.
-6.23644 -16.8791 0.
-241.73 -669.367 0.
-0.275612 -0.741311 0.
-0.0361829 -0.0992189 0.
0.000401953 0.00527677 0.
0.585919 1.54231 0.
-1.81067 -4.97538 0.
0.0693599 0.189386 0.
2.12803 5.88146 0.
-199.84 -552.664 0.
-0.852876 -2.34623 0.
2.22464 6.01507 0.
2.27802 5.66146 0.
4.09067 10.5693 0.
-1282.75 -3363.21 0.
-4.31338 -11.5218 0.
-21.8392 -58.1031 0.
-540.519 -1437.43 0.
5.13702 13.086 0.
-28.8397 -74.8022 0.
-18.1614 -42.2217 0.
-12.0769 -28.0654 0.
-355.285 -825.721 0.
11.7065 26.2827 0.
-877.859 -1957.61 0.
-7.86951 -17.029 0.
-8.22425 -17.64 0.
15.0906 32.0792 0.
10.1346 20.093 0.
-8.04614 -15.7634 0.
-18.0006 -38.4984 0.
-129.933 -271.74 0.
-120.098 -227.496 0.
-280.872 -520.718 0.
-11.1263 -20.2671 0.
-38.7578 -67.8764 0.
-4.17256 -7.08046 0.
-3.90143 -7.00022 0.
-2.46115 -4.3023 0.
-7.38159 -25.7668 0.
-10.8317 -21.5921 0.
-10.1213 -19.6708 0.
6.53764 12.3821 0.
1.60374 3.20639 0.
-2.18743 -3.66382 0.
-5.6454 -9.59018 0.
11.8308 20.3817 0.
-8.83893 -26.5287 0.
-384.589 -646.685 0.
-0.2841 -0.481008 0.
19.1813 33.297 0.
-229.642 -409.137 0.
18.4998 33.3637 0.
4.88333 9.03446 0.
-7.21229 -14.2943 0.
-7.60279 -15.3171 0.
-137.384 -281.283 0.
-137.355 -278.801 0.
-527.795 -1082.94 0.
-400.698 -914.863 0.
-341.962 -778.644 0.
-6.48091 -14.7621 0.
-28.5083 -60.4169 0.
2.5827 5.46615 0.
9.28973 20.5578 0.
-6.06877 -13.5746 0.
-19.7771 -44.7068 0.
-242.657 -635.013 0.
-6.43716 -16.8201 0.
-145.851 -396.878 0.
-32.2222 -87.218 0.
3.67928 9.89465 0.
-68.8334 -183.781 0.
1.91717 4.91967 0.
0.547859 1.50221 0.
2.07644 5.74591 0.
-0.00531656 -4.77805 0.
-37.1051 -100.085 0.
-0.0660471 -4.36858 0.
-0.0375858 -1.74657 0.
0.991862 2.71554 0.
0.00180721 0.0575625 0.
0.0041705 0.150188 0.
-0.00175192 -0.67188 0.
-0.00338342 -0.933872 0.
-0.842921 -1.70082 0.
0.357955 0.705897 0.
0.324498 0.62397 0.
-18.8174 -42.598 0.
-6.67307 -13.5498 0.
-0.0112482 -0.0319805 0.
-10.5557 -17.6956 0.
-12.3675 -24.8054 0.
-0.00686002 -0.33939 0.
0.186897 0.483917 0.
0.00375541 0.0932092 0.
0.00975931 0.0221968 0.
0.0855919 0.186407 0.
-2.62043 -5.74279 0.
0.218137 0.59436 0.
-1.87988 -5.1466 0.
-13.3551 -36.898 0.
-0.00383353 -0.159717 0.
0.308187 0.830215 0.
-0.187731 -1.72351 0.
-0.0863813 -1.85906 0.
-0.062192 -3.81843 0.
-0.0266752 -2.5391 0.
1.12955 3.10421 0.
-91.9115 -254.509 0.
-0.00315578 -4.27963 0.
1.37785 3.76875 0.
1.38213 3.31987 0.
-0.228031 -0.572506 0.
-18.3974 -47.7136 0.
-25.7229 -68.1575 0.
-42.0982 -111.102 0.
-449.711 -1187.98 0.
2.74753 6.9065 0.
-244.023 -625.846 0.
1.63808 3.81872 0.
7.35116 16.9821 0.
-7.85361 -17.9727 0.
3.80169 8.1997 0.
-134.966 -297.547 0.
-138.946 -299.94 0.
-295.806 -633.635 0.
-153.217 -325.019 0.
-526.581 -1035.67 0.
16.9813 32.9577 0.
-9.40995 -18.5966 0.
-3.0931 -6.04179 0.
-9.45863 -18.2717 0.
-1.9473 -3.32397 0.
-72.9238 -129.14 0.
-313.478 -554.393 0.
11.8117 20.2473 0.
7.95165 13.1941 0.
-162.259 -281.284 0.
15.5306 26.2228 0.
0.458387 0.868347 0.
-0.284211 -0.523097 0.
5.08925 9.09808 0.
1.34816 2.67441 0.
10.2116 16.9841 0.
13.3864 22.5834 0.
-77.4381 -132.603 0.
-39.811 -63.9286 0.
-101.581 -170.147 0.
1.05475 1.68939 0.
20.6348 33.8931 0.
9.94453 16.7662 0.
5.6519 10.1187 0.
-474.91 -874.04 0.
12.7104 24.9988 0.
-172.35 -344.381 0.
-553.596 -1122.55 0.
-33.1653 -66.7538 0.
10.919 20.8549 0.
1.02589 2.2119 0.
-3.17251 -26.7537 0.
8.2189 18.034 0.
-341.514 -722.577 0.
-5.54132 -11.6915 0.
-483.439 -1070.55 0.
-185.914 -415.341 0.
-71.9902 -162.407 0.
-303.899 -792.362 0.
-25.1269 -65.3431 0.
-93.0212 -251.669 0.
-17.611 -47.3484 0.
-4.90976 -13.1781 0.
-412.466 -1093.09 0.
5.31385 13.9068 0.
-0.0902535 -0.23038 0.
-935.691 -2487.82 0.
2.04398 5.62623 0.
-698.475 -1930.25 0.
-56.2436 -155.721 0.
-28.5481 -78.8488 0.
-973.303 -2691.84 0.
-0.534223 -1.4737 0.
-0.0160389 -1.94035 0.
-1207.39 -3088.67 0.
0.373647 1.02256 0.
-818.482 -2236.63 0.
-67.1862 -185.647 0.
-1.64044 -4.51546 0.
-810.787 -2184.02 0.
-209.625 -572.427 0.
-0.0117024 -0.319724 0.
-527.638 -1438.26 0.
-418.481 -1159.07 0.
-1.39382 -3.74179 0.
-282.863 -778.562 0.
-709.996 -1943.77 0.
0.192319 0.503861 0.
-180.409 -499.464 0.
-942.59 -2518.59 0.
-7.70841 -21.2955 0.
-84.1842 -229.271 0.
-907.209 -2463.81 0.
-5.89218 -15.9075 0.
-1381.17 -3367.77 0.
-0.0114961 -1.82878 0.
0.0653336 0.18096 0.
-992.894 -2727.41 0.
-31.933 -87.8267 0.
-93.7413 -257.087 0.
-538.891 -1470.75 0.
3.76296 10.3734 0.
-1099.54 -3006.45 0.
-18.1757 -46.3004 0.
-17.8453 -45.6916 0.
-107.812 -276.729 0.
-33.4849 -87.9318 0.
-51.6016 -134.973 0.
-69.2803 -180.545 0.
7.94625 19.7094 0.
-566.246 -1436.64 0.
-20.1231 -47.1387 0.
-163.76 -380.145 0.
-409.505 -941.766 0.
12.1698 26.0089 0.
0.80407 1.69028 0.
-6.23101 -12.764 0.
-6.54009 -13.399 0.
10.7472 22.0222 0.
-176.538 -343.595 0.
-4.83756 -9.30048 0.
-595.854 -1159.34 0.
-8.01332 -15.4176 0.
6.74849 12.8431 0.
-168.864 -289.304 0.
-2.23701 -3.7029 0.
-7.11202 -23.2126 0.
-6.23001 -10.1868 0.
8.23503 13.8079 0.
-189.077 -324.882 0.
12.2435 20.4721 0.
-129.282 -245.514 0.
-2.82172 -5.20524 0.
6.70612 12.0059 0.
-0.177498 -0.320585 0.
-4.89117 -13.8514 0.
11.5292 19.0708 0.
7.23789 12.5365 0.
0.176482 0.279829 0.
-177.668 -285.601 0.
2.79284 4.42973 0.
-9.46205 -29.0504 0.
-635.933 -1063.34 0.
-2.15143 -3.82204 0.
-320.503 -585.346 0.
-60.8615 -118.715 0.
9.7557 18.0274 0.
-9.10261 -16.9709 0.
7.45715 13.8391 0.
-359.322 -680.577 0.
4.99937 10.5974 0.
-128.357 -274.301 0.
-286.584 -618.271 0.
-522.932 -1099.89 0.
-118.504 -248.966 0.
-29.0378 -63.9523 0.
-21.1873 -46.5465 0.
3.17655 7.03176 0.
-29.4054 -74.4723 0.
-2.90078 -7.32066 0.
-295.665 -781.591 0.
-10.2261 -27.2022 0.
-41.325 -110.377 0.
-165.137 -430.718 0.
-1.40718 -3.59838 0.
-0.474744 -9.79324 0.
-245.079 -674.442 0.
-0.000786215 -7.70427 0.
-8.43853 -23.2676 0.
-1.44165 -3.99311 0.
-0.734938 -2.02585 0.
-9.31964 -25.693 0.
0.434691 1.18302 0.
0.572156 1.51733 0.
-12.8288 -35.326 0.
0.616582 1.70294 0.
-1.15188 -3.1761 0.
-1.46757 -4.0424 0.
-1.48564 -4.08761 0.
0.0999941 0.275335 0.
-0.0024922 -0.534312 0.
-0.0222996 -0.467954 0.
-7.95762 -18.0094 0.
-5.5861 -11.7841 0.
-3.81309 -10.2772 0.
-2.73802 -7.53391 0.
-2.2426 -6.20655 0.
-0.0066447 -0.125251 0.
-0.00730565 -0.567269 0.
-6.20962 -17.1038 0.
-0.0228348 -0.0632476 0.
0.403794 1.10334 0.
-17.9166 -47.5801 0.
0.285239 0.78794 0.
0.357437 0.952841 0.
-0.087895 -5.70621 0.
1.16255 3.19932 0.
-14.1867 -39.2877 0.
-0.0137229 -5.50097 0.
-0.0232489 -6.51771 0.
-43.1638 -118.185 0.
4.43059 12.2541 0.
-151.224 -418.592 0.
-9.31199 -23.5098 0.
-9.29177 -23.5902 0.
-427.928 -1087.15 0.
-8.35899 -22.0197 0.
-158.771 -421.787 0.
-337.667 -842.058 0.
-1.06678 -20.6876 0.
6.64743 16.2277 0.
1.86678 4.17166 0.
-38.0047 -88.6683 0.
-265.559 -613.598 0.
-207.087 -438.358 0.
-487.752 -1017.65 0.
-333.426 -672.402 0.
-4.5814 -27.9042 0.
5.10849 10.311 0.
15.8503 29.4467 0.
-7.46149 -30.9241 0.
-6.85592 -12.2453 0.
-76.1804 -144.251 0.
-16.8556 -31.5766 0.
-382.807 -658.392 0.
8.89664 14.7795 0.
-271.862 -447.783 0.
1.86342 3.01531 0.
8.24151 13.1095 0.
-6.73513 -10.9246 0.
-4.25042 -6.73432 0.
-3.66182 -15.3361 0.
-4.31814 -16.3107 0.
3.18217 5.38358 0.
3.66859 6.62765 0.
-4.92881 -14.1832 0.
-45.7564 -76.3733 0.
-84.7875 -148.594 0.
-76.7489 -121.392 0.
-252.323 -404.912 0.
7.1307 11.1919 0.
-155.16 -250.076 0.
8.752 13.6192 0.
8.75278 14.5412 0.
-8.47811 -14.5072 0.
-3.19393 -5.79268 0.
-6.75519 -12.3573 0.
-370.001 -682.629 0.
-1.04914 -1.92826 0.
-440.131 -825.631 0.
-214.115 -445.938 0.
-112.102 -235.271 0.
7.48051 15.366 0.
-3.01813 -6.18973 0.
-25.4183 -52.5774 0.
-34.426 -74.8702 0.
-12.0892 -26.4922 0.
-4.05823 -8.96296 0.
-540.847 -1357.3 0.
-6.43861 -16.0803 0.
-241.476 -635.405 0.
-101.293 -267.912 0.
-115.873 -307.838 0.
-212.833 -543.724 0.
-0.617376 -13.4067 0.
6.84992 16.56 0.
1.10135 3.04996 0.
-0.0065819 -9.80978 0.
-658.695 -1796.62 0.
-85.727 -236.3 0.
-18.4477 -51.0959 0.
-742.201 -2055.77 0.
-0.0117421 -3.65613 0.
-0.0212547 -2.14527 0.
-869.264 -2347.72 0.
-0.00674544 -1.11111 0.
-805.898 -2060.5 0.
-31.8364 -80.8971 0.
-20.2797 -55.0656 0.
-711.55 -1902.68 0.
-115.984 -320.98 0.
0.0237191 0.0655169 0.
-482.736 -1318.31 0.
-408.76 -1123.79 0.
-7.30397 -18.72 0.
-223.679 -617.44 0.
-723.753 -1948.77 0.
-7.39308 -20.4546 0.
-84.729 -227.597 0.
-824.502 -2169.5 0.
-7.61516 -19.0996 0.
-96.8662 -236.952 0.
-903.067 -2279.21 0.
-0.0194788 -3.24309 0.
-872.489 -2386.65 0.
1.03491 2.80157 0.
-24.399 -67.1757 0.
-720.132 -1994.59 0.
-28.2421 -77.4723 0.
-461.996 -1254.33 0.
-18.5821 -50.9397 0.
-0.0634018 -9.25436 0.
-1.24838 -3.44749 0.
-6.66985 -16.6819 0.
-0.111394 -0.280312 0.
-165.903 -419.464 0.
-113.207 -296.329 0.
-291.582 -770.15 0.
4.83458 11.9447 0.
9.19974 22.4673 0.
-531.263 -1280.39 0.
-13.4923 -29.7888 0.
-14.0518 -30.79 0.
-42.8365 -93.2142 0.
-3.86948 -7.83964 0.
1.03641 2.08309 0.
-121.124 -240.025 0.
-284.873 -565.081 0.
-197.826 -393.111 0.
-542.382 -1005.51 0.
-0.0370563 -0.0665981 0.
-159.958 -282.778 0.
-8.13752 -14.1095 0.
-5.24859 -8.93937 0.
-9.42185 -15.0316 0.
-0.220734 -0.344614 0.
-69.1024 -112.599 0.
-10.2546 -16.412 0.
9.1762 14.4339 0.
-94.9698 -152.707 0.
0.347498 0.545629 0.
-131.552 -240.048 0.
-3.5239 -13.5438 0.
7.39241 12.5662 0.
-2.3875 -9.92639 0.
4.31721 6.90344 0.
-25.4696 -42.872 0.
-6.89614 -10.7283 0.
6.45522 9.69017 0.
8.73712 13.1674 0.
9.01037 13.2703 0.
-6.00878 -9.02125 0.
-83.782 -128.344 0.
-7.9985 -26.0674 0.
-520.756 -894.901 0.
-8.86604 -15.9131 0.
-196.358 -355.468 0.
-283.354 -517.573 0.
10.9227 19.1374 0.
1.47829 2.65027 0.
-6.07023 -12.0201 0.
8.68635 17.4018 0.
-2.05489 -4.16789 0.
-211.482 -433.13 0.
-217.616 -449.618 0.
-364.398 -790.907 0.
-172.512 -377.195 0.
-54.8098 -120.766 0.
-49.9695 -123.974 0.
-12.6573 -31.2687 0.
-81.197 -199.754 0.
-71.1186 -185.712 0.
-23.4361 -60.8466 0.
-414.078 -1029.27 0.
-35.7874 -88.9014 0.
-55.9489 -139.141 0.
-777.59 -2148.21 0.
3.4441 9.47042 0.
2.90113 8.00072 0.
0.180371 0.499539 0.
1.09123 3.01447 0.
-0.0129197 -5.40752 0.
0.357835 0.9738 0.
2.2371 5.96218 0.
-0.0123105 -2.46485 0.
1.12166 3.09952 0.
-0.998592 -2.36727 0.
-2.47316 -6.35531 0.
-6.7669 -18.3473 0.
-6.25978 -17.327 0.
0.218863 0.601187 0.
0.322079 0.866595 0.
-6.08411 -16.808 0.
-2.23358 -6.14404 0.
-0.019237 -0.285325 0.
-0.67961 -1.84326 0.
-9.30998 -25.7284 0.
-0.176062 -0.485446 0.
-2.15714 -5.94504 0.
-8.56944 -22.9996 0.
-0.0282404 -0.071456 0.
0.978904 2.35 0.
0.808646 1.8326 0.
0.13688 0.37828 0.
-43.9188 -121.645 0.
-0.0724341 -7.56969 0.
2.0244 5.5665 0.
-0.00130149 -7.45322 0.
0.655746 1.81299 0.
-7.12026 -19.591 0.
-393.42 -1071.51 0.
2.98354 8.08551 0.
-805.94 -2193.8 0.
-41.5825 -103.163 0.
-43.9703 -109.185 0.
-190.151 -472.807 0.
-21.6186 -55.5761 0.
-179.544 -467.22 0.
8.26562 20.1906 0.
-5.96747 -14.3992 0.
-102.721 -244.83 0.
-160.551 -349.919 0.
-327.701 -710.236 0.
-389.372 -839.556 0.
-325.569 -668.562 0.
-19.7451 -40.0708 0.
0.135444 0.258025 0.
-3.92644 -7.35655 0.
-6.13014 -27.2229 0.
9.50979 16.5048 0.
-224.385 -401.507 0.
-325.571 -569.596 0.
-127.564 -218.716 0.
-7.9775 -26.8457 0.
-409.48 -651.117 0.
9.52065 14.7793 0.
-9.87803 -24.8687 0.
15.7193 23.4152 0.
18.8298 27.7181 0.
13.4595 20.3758 0.
-39.9764 -62.1672 0.
-67.7041 -124.427 0.
8.96914 15.8918 0.
-3.45528 -5.90354 0.
-10.8323 -20.7529 0.
8.6213 13.8005 0.
-2.2539 -3.68546 0.
-8.76356 -12.8716 0.
10.4145 15.3541 0.
-76.8758 -113.687 0.
16.3398 23.6672 0.
-127.828 -188.704 0.
-387.29 -583.867 0.
-185.56 -309.434 0.
-63.5048 -109.151 0.
-3.83932 -6.27369 0.
-7.62563 -25.2846 0.
9.64766 16.5561 0.
-0.762759 -1.33184 0.
-516.221 -921.228 0.
-9.78789 -19.1253 0.
-71.9676 -142.297 0.
-407.445 -816.406 0.
-270.41 -553.98 0.
-143.531 -297.331 0.
5.36125 11.3393 0.
-2.82948 -20.9303 0.
0.300573 0.634814 0.
-28.0076 -67.8961 0.
7.69259 18.7498 0.
-163.996 -402.644 0.
-92.4873 -240.17 0.
-25.1058 -64.7899 0.
-157.266 -391.025 0.
-21.1688 -52.6614 0.
-42.1141 -104.897 0.
-4.65451 -12.7345 0.
-0.0969945 -8.66267 0.
2.13415 5.90694 0.
1.16777 3.23209 0.
0.801624 2.20363 0.
0.749913 2.04938 0.
1.51388 4.07145 0.
-0.15678 -6.75412 0.
-0.00406184 -4.03278 0.
-3.53034e-05 -0.730863 0.
-0.136443 -2.26157 0.
0.6362 1.64832 0.
0.445719 1.20878 0.
-2.16203 -5.91172 0.
0.162672 0.435991 0.
0.117119 0.30289 0.
0.176535 0.488059 0.
0.259505 0.697093 0.
0.433662 1.0118 0.
-0.0206215 -0.856816 0.
0.376588 1.03674 0.
0.206023 0.560029 0.
-0.226186 -0.626397 0.
-0.323755 -0.889456 0.
-0.306819 -0.783111 0.
-0.251272 -0.612904 0.
-0.0476784 -0.110523 0.
0.347586 0.92703 0.
-30.4691 -83.0038 0.
1.03298 2.79798 0.
2.92847 8.04714 0.
-0.366113 -1.01327 0.
-0.000150984 -7.58945 0.
-1.03718 -2.86952 0.
-18.4034 -50.7255 0.
-1.26044 -3.34746 0.
-51.1176 -137.224 0.
-2.37319 -5.91145 0.
-0.662775 -1.65228 0.
-290.47 -724.688 0.
-3.01117 -7.75882 0.
-216.512 -564.165 0.
-18.546 -43.5751 0.
-3.18544 -7.44422 0.
-5.33019 -12.3921 0.
-0.0379001 -0.0805425 0.
2.21048 4.66429 0.
-99.5637 -207.283 0.
-246.898 -511.339 0.
-23.7341 -48.6291 0.
-744.366 -1400.09 0.
-2.80724 -5.18595 0.
-5.06574 -9.21111 0.
-333.201 -566.103 0.
-10.2398 -17.0478 0.
-2.17916 -3.56678 0.
-8.56534 -25.3351 0.
-0.0376019 -0.0624565 0.
-205.245 -324.327 0.
-6.32869 -9.76624 0.
-311.307 -460.227 0.
1.91429 2.78942 0.
-0.0841106 -0.121171 0.
3.57518 5.38013 0.
12.3336 18.4765 0.
-8.21302 -20.1043 0.
8.54198 14.9031 0.
-2.02618 -3.40651 0.
-2.35487 -4.77814 0.
3.31062 5.30498 0.
-222.735 -365.283 0.
-43.9952 -63.4511 0.
-146.296 -211.565 0.
-69.2626 -100.485 0.
4.86314 6.92032 0.
-0.371041 -0.518681 0.
-56.2531 -80.5517 0.
-9.84667 -15.2495 0.
-80.6113 -125.813 0.
-7.18339 -21.0112 0.
14.3362 23.4565 0.
-339.741 -567.812 0.
13.1774 22.9332 0.
-296.337 -528.037 0.
-137.773 -265.533 0.
-2.27018 -4.1994 0.
-1.85742 -3.46213 0.
11.1628 21.9916 0.
-46.7553 -93.9804 0.
-48.1022 -100.545 0.
-6.60188 -13.787 0.
-142.822 -297.709 0.
-427.386 -1036.77 0.
-2.29268 -5.57241 0.
3.29675 8.05927 0.
-170.462 -440.335 0.
-83.2078 -213.518 0.
-0.482113 -1.19923 0.
-11.7701 -29.6308 0.
5.58076 13.9854 0.
-240.463 -649.935 0.
1.62175 4.36178 0.
-592.978 -1610.51 0.
-38.2378 -105.231 0.
-16.5995 -45.8412 0.
-494.532 -1365.26 0.
-30.2941 -83.8978 0.
-15.3443 -42.467 0.
-641.577 -1776.72 0.
0.00855887 0.0235935 0.
-765.607 -1876.61 0.
-22.3274 -55.8526 0.
-0.0725807 -2.27894 0.
-614.287 -1632.06 0.
-76.2858 -211.129 0.
-0.165658 -0.458063 0.
-368.556 -1009.97 0.
-372.63 -1024.59 0.
0.38274 1.05902 0.
-150.422 -411.582 0.
-592.409 -1562.35 0.
0.309742 0.85324 0.
-33.3352 -90.08 0.
-768.331 -2027.15 0.
-24.3212 -58.6317 0.
-11.1633 -26.3393 0.
-733.62 -1830.28 0.
1.30582 3.58943 0.
-594.709 -1645.14 0.
-0.000200184 -5.23459 0.
0.529387 1.4655 0.
-667.506 -1845.33 0.
-9.44295 -26.1243 0.
-45.1317 -124.467 0.
-442.638 -1216.55 0.
-0.229579 -11.3587 0.
-309.532 -827.141 0.
-90.9955 -230.45 0.
2.566 6.42073 0.
2.47737 6.20399 0.
-3.46537 -8.95102 0.
-390.885 -1019.49 0.
-77.8088 -179.251 0.
-216.234 -495.477 0.
-188.519 -429.546 0.
-95.1965 -198.519 0.
-31.8097 -65.9034 0.
-21.2741 -43.9937 0.
-1.12044 -2.27485 0.
12.2786 24.4558 0.
11.2809 19.9481 0.
-101.185 -184.207 0.
11.7326 21.0176 0.
-416.659 -693.568 0.
-0.992737 -1.61944 0.
-227.905 -370.655 0.
2.23328 3.5643 0.
2.28887 3.58238 0.
-6.4575 -9.57069 0.
-6.96759 -10.1938 0.
5.31555 7.39276 0.
-16.3148 -23.2313 0.
5.01929 7.06866 0.
-175.222 -261.931 0.
-91.1775 -135.695 0.
10.4125 15.4333 0.
2.75998 4.82737 0.
-5.40118 -9.09111 0.
1.72262 3.68527 0.
2.09852 3.17152 0.
3.03128 4.58995 0.
14.3827 19.0891 0.
0.714063 0.959467 0.
7.84054 10.6671 0.
11.3733 15.5098 0.
-204.067 -285.005 0.
-1.04826 -1.5826 0.
-16.0683 -24.4362 0.
-211.232 -323.413 0.
-121.719 -189.593 0.
-121.855 -194.296 0.
14.4722 21.7734 0.
16.1555 26.1092 0.
13.1626 22.1075 0.
12.7461 22.9221 0.
12.5227 22.6619 0.
-323.003 -590.437 0.
-140.229 -276.119 0.
-475.292 -953.172 0.
-252.888 -521.758 0.
-56.8937 -117.315 0.
-4.96763 -10.2343 0.
-3.43794 -8.28014 0.
6.29443 15.2086 0.
-1.00757 -16.6655 0.
-53.5367 -138.187 0.
-74.4756 -192.58 0.
-140.027 -354.467 0.
-6.88166 -17.3491 0.
-4.62796 -11.6153 0.
-160.718 -427.772 0.
5.52778 14.5525 0.
-75.2872 -206.191 0.
-8.08345 -22.25 0.
2.7807 7.67852 0.
-24.1436 -66.8174 0.
-13.8804 -38.4435 0.
-0.611272 -1.68937 0.
-0.940024 -2.58577 0.
-0.120964 -6.47308 0.
-4.83001 -12.0723 0.
0.229796 0.588665 0.
0.421415 1.10666 0.
-0.00640036 -1.22124 0.
0.82275 2.27423 0.
0.313446 0.867883 0.
-0.044843 -0.124207 0.
-0.0167028 -1.96755 0.
0.746921 2.06864 0.
-0.0135445 -2.2559 0.
0.348093 0.907462 0.
-0.000695555 -1.65486 0.
1.13416 3.13175 0.
-14.0061 -38.2285 0.
-7.30482 -17.7722 0.
0.933831 2.23307 0.
-1.09964 -2.58671 0.
2.54121 6.87371 0.
0.0207463 0.0573625 0.
-0.00393302 -6.57343 0.
-1.09424 -3.0295 0.
-0.392828 -1.08802 0.
0.291807 0.807639 0.
-11.5153 -31.7914 0.
-66.9459 -184.116 0.
2.98219 7.741 0.
-185.114 -486.986 0.
-57.0419 -143.525 0.
-33.0006 -83.1823 0.
-50.8591 -128.439 0.
0.246386 0.634895 0.
4.47409 11.4756 0.
-17.4657 -38.4207 0.
-29.334 -65.8402 0.
-180.206 -402.686 0.
-82.4409 -168.708 0.
-196.285 -398.913 0.
-343.417 -713.219 0.
-377.495 -769.822 0.
0.475601 0.953547 0.
-173.655 -304.647 0.
-6.0195 -21.2293 0.
12.9467 21.5909 0.
-8.16631 -12.6105 0.
11.1298 16.7536 0.
-155.243 -251.146 0.
-202.198 -320.487 0.
3.96696 6.17148 0.
-276.045 -401.862 0.
14.7216 21.1828 0.
-4.66766 -6.4547 0.
-12.2644 -16.5998 0.
19.5423 25.8955 0.
9.07776 12.6018 0.
12.4907 17.3552 0.
-9.23726 -19.0666 0.
-1.06951 -1.7555 0.
4.89662 8.25476 0.
0.137682 0.20215 0.
-4.62496 -6.80379 0.
2.92976 4.31382 0.
12.2804 16.1126 0.
-50.0798 -66.5228 0.
-271.094 -364.834 0.
-65.5586 -89.3044 0.
-352.485 -491.366 0.
0.604505 0.895853 0.
7.82759 11.0741 0.
-8.53582 -18.4446 0.
1.5914 2.28212 0.
-8.92092 -20.6012 0.
-5.94474 -8.79734 0.
10.2616 16.5595 0.
-527.199 -885.296 0.
-26.1073 -45.9147 0.
-55.7794 -98.6776 0.
-176.627 -314.917 0.
6.98387 13.7986 0.
3.98223 7.91941 0.
0.317968 0.640543 0.
-2.14406 -4.32847 0.
3.69931 7.48527 0.
-50.6336 -121.592 0.
-67.6953 -163.052 0.
-38.9932 -94.2134 0.
-149.882 -386.54 0.
-123.944 -320.237 0.
-174.381 -442.224 0.
-53.3017 -134.601 0.
-2.74121 -6.88972 0.
-108.027 -281.925 0.
5.40427 13.8735 0.
-38.5121 -105.52 0.
-0.151213 -0.416128 0.
-1.85335 -5.11613 0.
-46.6121 -129.096 0.
-13.6035 -37.367 0.
-4.62083 -12.5676 0.
-450.746 -1204.65 0.
2.21487 5.72722 0.
-500.69 -1209.52 0.
-5.28043 -13.4217 0.
1.04141 2.6922 0.
-536.705 -1425.75 0.
-64.8728 -178.271 0.
-6.73924 -18.6622 0.
-329.615 -911.607 0.
-335.774 -925.357 0.
-10.4133 -28.841 0.
-126.15 -347.013 0.
-469.545 -1269.4 0.
0.762638 2.10991 0.
0.229831 0.636589 0.
-558.975 -1511.32 0.
-10.9806 -27.8446 0.
-5.03314 -12.5563 0.
-435.916 -1119.44 0.
-0.0736937 -0.19481 0.
-419.938 -1145.12 0.
-66.9562 -183.671 0.
-13.0846 -36.0932 0.
-1.77959 -4.91811 0.
-0.411039 -1.13799 0.
-12.8608 -35.5352 0.
-0.705314 -15.5134 0.
3.65675 9.31333 0.
4.99315 12.9132 0.
-52.323 -130.79 0.
-112.437 -281.702 0.
-267.239 -671.118 0.
-145.253 -373.194 0.
-128.068 -327.365 0.
-40.9465 -90.6452 0.
-0.0821904 -0.180347 0.
-3.48125 -7.5694 0.
6.15275 12.1574 0.
-10.6504 -21.1577 0.
6.28692 13.2654 0.
-3.41508 -22.562 0.
-3.01399 -6.0844 0.
-509.261 -884.636 0.
-37.4826 -63.5488 0.
14.0995 23.3006 0.
-518.598 -797.623 0.
13.9456 20.919 0.
2.53561 3.7682 0.
-9.24262 -21.5343 0.
-7.38626 -16.5787 0.
18.8986 25.369 0.
-73.7579 -104.249 0.
-94.0952 -131.408 0.
-244.577 -329.015 0.
13.3148 17.5252 0.
-171.339 -232.794 0.
14.576 19.823 0.
-1.62051 -2.20546 0.
0.676545 1.09221 0.
-6.64705 -10.6354 0.
0.202575 0.289537 0.
1.04745 1.49864 0.
-90.7579 -129.967 0.
-119.973 -155.532 0.
-30.671 -40.251 0.
-6.15635 -7.75493 0.
5.67407 7.30949 0.
4.73916 6.2312 0.
-2.17333 -2.99717 0.
2.67604 3.69238 0.
-285.157 -394.062 0.
1.19579 1.68541 0.
-44.7682 -64.0601 0.
-507.074 -736.567 0.
-101.189 -162.981 0.
-40.7939 -68.4696 0.
-3.70606 -6.00366 0.
-3.23724 -5.36055 0.
2.19642 3.72142 0.
2.16245 4.21506 0.
-265.078 -530.348 0.
-23.6793 -48.7686 0.
-39.7082 -78.9902 0.
-283.778 -565.317 0.
-189.268 -452.378 0.
-91.5964 -219.683 0.
-0.0574313 -0.138367 0.
1.84146 4.75335 0.
-11.1988 -28.5544 0.
-122.33 -307.32 0.
-49.6411 -125.063 0.
-3.19025 -8.06929 0.
-348.674 -899.922 0.
4.18546 10.6725 0.
-295.294 -809.825 0.
-57.1178 -157.617 0.
-128.057 -354.637 0.
-102.174 -281.899 0.
1.30675 3.58309 0.
-1.9321 -5.24385 0.
2.3754 6.05911 0.
2.5528 6.2881 0.
-3.64121 -9.36123 0.
-0.0757403 -0.197707 0.
-0.0680479 -3.60672 0.
1.08286 2.917 0.
0.342855 0.944394 0.
-0.000640613 -2.82463 0.
0.125205 0.346675 0.
1.20892 3.31219 0.
0.125121 0.346528 0.
0.983472 2.69349 0.
0.0603103 0.160624 0.
-0.00813979 -2.68472 0.
0.997868 2.75783 0.
-0.250563 -0.693896 0.
-14.2027 -35.919 0.
-0.484681 -1.20909 0.
-0.562324 -1.37753 0.
-0.181119 -4.43233 0.
1.23323 3.26255 0.
-10.3804 -28.4733 0.
-37.0057 -101.93 0.
-331.772 -915.833 0.
-78.8644 -218.419 0.
-480.254 -1328.99 0.
-2.55621 -6.63249 0.
6.11117 15.8412 0.
-256.164 -662.437 0.
-4.53287 -11.3204 0.
-0.459312 -1.14826 0.
-6.53542 -16.3542 0.
-63.6144 -162.719 0.
-80.1166 -203.948 0.
-239.043 -532.572 0.
-198.577 -438.806 0.
-4.93395 -10.7993 0.
-366.347 -722.256 0.
-61.9836 -122.785 0.
-45.2799 -95.1826 0.
7.59477 15.3162 0.
10.9653 21.2261 0.
5.83998 9.46912 0.
-6.04394 -9.52103 0.
-6.65461 -20.7357 0.
-250.794 -384.44 0.
-10.051 -15.0162 0.
-501.367 -720.771 0.
-33.477 -47.4106 0.
10.7316 14.9819 0.
-41.7331 -54.9976 0.
16.3113 21.3069 0.
12.0422 15.5969 0.
-11.4359 -19.0091 0.
-2.77229 -3.45245 0.
8.21596 10.9084 0.
-26.9238 -35.8292 0.
5.11193 6.81049 0.
-55.6826 -88.3621 0.
-59.3006 -93.3059 0.
8.06443 10.1526 0.
12.0128 15.4665 0.
9.97756 13.1431 0.
17.676 21.8527 0.
18.4795 22.9118 0.
-3.79876 -4.72236 0.
6.04894 7.65059 0.
-306.327 -394.887 0.
2.46241 3.31188 0.
-128.265 -172.505 0.
-128.055 -172.191 0.
-4.18841 -5.51465 0.
-7.57561 -10.2518 0.
1.95427 2.71916 0.
-6.26898 -9.44114 0.
-103.953 -160.312 0.
-5.41855 -8.66334 0.
2.90954 4.75646 0.
-449.915 -753.413 0.
6.05393 11.8987 0.
-15.2178 -30.7784 0.
-159.416 -331.326 0.
-76.163 -149.239 0.
-5.87633 -11.4299 0.
-24.1658 -57.2426 0.
-4.23109 -9.99966 0.
0.0236401 0.0557246 0.
4.89369 12.4731 0.
-69.7571 -178.235 0.
-147.796 -371.936 0.
-22.6759 -57.2203 0.
-4.16341 -10.5558 0.
-4.58496 -11.6295 0.
-0.577647 -12.8777 0.
-0.562997 -1.38801 0.
-1.31089 -3.62023 0.
0.586914 1.62541 0.
-101.787 -280.474 0.
-2.0415 -5.58747 0.
3.80234 10.2989 0.
-0.463115 -1.13266 0.
3.45716 8.09518 0.
-0.0929907 -4.17864 0.
0.328397 0.874882 0.
1.42864 3.85508 0.
-0.036161 -4.25475 0.
-0.0035468 -2.53402 0.
-0.00117389 -3.16146 0.
-0.000320655 -4.09276 0.
0.804896 2.21054 0.
-0.000154155 -4.10136 0.
-0.0153287 -3.99162 0.
-0.0613044 -4.49362 0.
1.43263 3.89963 0.
-0.373699 -1.02626 0.
1.28114 3.53697 0.
-50.501 -125.938 0.
-14.8534 -36.8684 0.
0.8518 2.08727 0.
2.21923 5.35326 0.
2.68042 6.84327 0.
-0.045501 -11.4166 0.
-1.2031 -3.31414 0.
-10.1414 -28.0182 0.
4.41182 12.1902 0.
-50.8575 -140.859 0.
-1.00245 -2.59899 0.
1.37563 3.56297 0.
-71.1513 -184.001 0.
-18.9114 -47.1499 0.
-13.9907 -34.918 0.
-29.5777 -73.8952 0.
-57.7183 -147.953 0.
0.535916 1.36438 0.
-6.16544 -13.7517 0.
3.87528 8.59178 0.
-1.73559 -3.82447 0.
-66.7298 -131.044 0.
-150.672 -297.35 0.
-410.417 -860.682 0.
-42.4008 -84.9743 0.
3.63091 6.96706 0.
-433.606 -697.142 0.
9.63183 15.0339 0.
5.20291 7.89183 0.
-6.25317 -8.76862 0.
-9.11834 -18.3848 0.
10.9314 14.2803 0.
4.49956 6.16239 0.
-99.5852 -134.548 0.
-177.269 -229.168 0.
-205.907 -264.018 0.
-26.2338 -33.3605 0.
-142.423 -178.868 0.
14.976 18.5075 0.
3.33766 4.09105 0.
-10.2326 -15.7379 0.
-10.8447 -16.5136 0.
6.29988 8.71106 0.
0.187856 0.258164 0.
7.34142 9.02747 0.
-6.94283 -8.73152 0.
-50.6494 -65.1593 0.
-3.26199 -3.98063 0.
-286.333 -350.307 0.
-78.33 -96.0676 0.
-151.91 -188.342 0.
4.59254 5.35811 0.
0.0737018 0.0881054 0.
-8.49745 -10.2477 0.
-9.38515 -11.4298 0.
12.4693 16.4124 0.
-88.0047 -119.054 0.
-159.862 -222.4 0.
-2.03816 -2.977 0.
-381.707 -571.696 0.
-8.23051 -12.9762 0.
-98.1152 -158.198 0.
1.18226 1.8482 0.
-1.09018 -2.06405 0.
2.0754 4.07079 0.
-0.839157 -1.70391 0.
-2.63727 -5.03605 0.
-112.028 -216.959 0.
-24.3246 -57.2789 0.
-109.57 -257.123 0.
-69.6948 -163.168 0.
-114.644 -292.93 0.
-145.679 -373.32 0.
-105.492 -265.687 0.
-32.3344 -81.7805 0.
-21.456 -54.5294 0.
-4.5608 -11.3683 0.
-41.9502 -102.501 0.
-93.2439 -226.522 0.
-201.991 -558.553 0.
-1.09961 -3.03986 0.
-154.892 -428.97 0.
-1.19739 -3.31617 0.
-17.9755 -49.7826 0.
-330.137 -875.505 0.
-0.22835 -0.584935 0.
-354.255 -855.908 0.
-32.1818 -81.7749 0.
1.56777 4.16785 0.
-369.745 -994.501 0.
-50.6372 -138.625 0.
0.315014 0.871615 0.
-253.593 -699.986 0.
-154.554 -427.762 0.
-69.9959 -193.873 0.
-133.503 -369.4 0.
-302.438 -833.347 0.
-7.50966 -20.6621 0.
0.441157 1.22136 0.
-210.44 -579.83 0.
-86.4777 -221.2 0.
-382.157 -921.787 0.
1.98262 5.33504 0.
0.00852532 0.0229435 0.
-297.221 -798.504 0.
-12.1857 -33.7519 0.
-35.4949 -98.3088 0.
-220.102 -609.618 0.
1.89986 5.2372 0.
-137.461 -378.583 0.
-35.4329 -89.3351 0.
-24.0267 -62.1709 0.
-77.7752 -200.954 0.
-62.096 -154.567 0.
-86.4298 -215.384 0.
-91.8627 -229.18 0.
-227.396 -583.285 0.
-38.2716 -97.4256 0.
-246.673 -551.624 0.
-14.1915 -31.5418 0.
-1.64872 -3.64221 0.
-86.51 -165.578 0.
0.484145 0.910165 0.
8.47468 16.4865 0.
3.69841 7.01523 0.
-4.03019 -18.0847 0.
-224.088 -356.803 0.
-108.197 -167.267 0.
4.7795 7.17412 0.
-580.991 -797.079 0.
-60.4001 -80.8692 0.
-171.011 -220.972 0.
-1.10391 -1.39777 0.
-2.04561 -2.54691 0.
4.50213 5.33851 0.
15.7381 18.4965 0.
-5.16213 -6.01675 0.
-85.0802 -105.989 0.
-92.8143 -113.838 0.
-1.15263 -1.37379 0.
-170.202 -202.433 0.
6.15207 7.28558 0.
-2.32008 -3.12709 0.
4.39794 5.89588 0.
-128.306 -154.068 0.
-83.8304 -102.804 0.
10.2831 11.6624 0.
-12.0959 -15.6953 0.
3.13425 3.573 0.
14.5697 16.7022 0.
-10.6161 -12.1565 0.
17.4012 19.8992 0.
11.0622 12.7201 0.
1.47907 1.71266 0.
-293.586 -342.232 0.
9.35499 12.3088 0.
-169.619 -229.3 0.
-107.745 -150.041 0.
1.75508 2.39199 0.
10.0283 13.6877 0.
9.38324 13.7655 0.
-5.22404 -13.4813 0.
1.00656 1.58983 0.
1.23607 2.34324 0.
-236.271 -464.367 0.
-28.4009 -57.875 0.
-15.5255 -29.5181 0.
-180.207 -347.696 0.
-63.8748 -149.474 0.
-0.693622 -1.61941 0.
-3.13431 -7.29677 0.
1.37305 3.51 0.
-43.591 -111.955 0.
-35.3566 -88.9683 0.
0.612915 1.53693 0.
0.369626 0.923526 0.
-48.0973 -118.392 0.
-0.189788 -0.465149 0.
-24.0453 -58.6266 0.
-104.596 -289.675 0.
3.85385 10.6729 0.
-8.47859e-05 -11.309 0.
2.33605 6.47027 0.
-7.45677 -20.6533 0.
-8.22251 -21.2832 0.
-0.369625 -8.35615 0.
-0.289663 -6.8785 0.
1.4884 3.8975 0.
0.0358412 0.0969824 0.
1.33887 3.59941 0.
-0.448296 -1.22805 0.
0.854229 2.36286 0.
-0.00353133 -4.9176 0.
0.0714233 0.197698 0.
-0.713487 -1.97511 0.
-1.29733 -3.59322 0.
-6.61538 -18.2995 0.
-0.674505 -1.86706 0.
0.0317953 0.0872151 0.
-0.0851884 -5.15624 0.
1.90308 5.25131 0.
-57.3107 -153.123 0.
1.94724 5.20652 0.
-2.39971 -6.41823 0.
-39.4239 -105.436 0.
3.04121 8.4228 0.
-3.56552 -9.87572 0.
-46.7309 -129.436 0.
2.78916 7.63241 0.
-90.1213 -246.459 0.
-4.27661 -10.8231 0.
-3.68528 -9.34552 0.
-89.4099 -227.125 0.
-8.92823 -21.7362 0.
6.33731 15.4075 0.
-0.645237 -1.56647 0.
2.12921 5.3554 0.
-3.73432 -9.50006 0.
-60.7121 -136.094 0.
-18.5915 -41.4258 0.
2.40726 5.33148 0.
-341.823 -647.886 0.
-37.2394 -69.4672 0.
-113.548 -219.599 0.
-124.054 -233.667 0.
5.17399 9.49162 0.
-38.9393 -60.8505 0.
-5.98154 -15.2015 0.
-6.05826 -14.2231 0.
-9.9515 -13.0177 0.
-157.942 -205.477 0.
-280.519 -358.141 0.
-67.7986 -84.6853 0.
-10.4796 -16.2855 0.
-307.452 -356.46 0.
-5.94759 -6.82397 0.
17.65 20.0933 0.
2.39538 2.71872 0.
-13.0833 -17.0869 0.
21.1255 23.8831 0.
9.88802 10.7876 0.
-3.79304 -4.10848 0.
-18.9308 -24.8504 0.
-77.2985 -101.065 0.
-0.459705 -0.512497 0.
-1.38448 -1.53527 0.
5.00082 5.50712 0.
-8.36093 -9.20856 0.
-19.5098 -21.6727 0.
-16.2222 -18.2374 0.
-203.775 -228.705 0.
-224.451 -251.5 0.
-93.8469 -103.582 0.
14.5331 15.1489 0.
-5.21628 -5.50574 0.
-2.67321 -3.29671 0.
-5.12232 -6.57101 0.
-75.7888 -101.502 0.
11.2339 15.0082 0.
-198.001 -265.091 0.
5.63793 8.34623 0.
-0.103599 -0.159346 0.
-333.265 -530.667 0.
-0.858585 -1.62968 0.
-0.427665 -0.843135 0.
3.86656 7.84071 0.
5.45488 10.2133 0.
-12.6651 -24.0951 0.
-3.09147 -7.06103 0.
-1.28188 -2.94289 0.
-22.904 -52.8601 0.
-1.89038 -4.85617 0.
-139.596 -360.643 0.
-58.8163 -146.627 0.
-48.778 -121.12 0.
-12.9293 -31.9848 0.
-103.323 -254.87 0.
1.21728 2.99029 0.
2.05467 5.0227 0.
-36.4269 -100.868 0.
3.5043 9.70265 0.
-1.62219 -4.4914 0.
-0.00190387 -10.1508 0.
-0.244333 -0.676422 0.
2.20485 5.60166 0.
-68.7692 -166.421 0.
0.917397 2.1833 0.
-228.415 -628.113 0.
1.01286 2.80085 0.
-73.1414 -200.971 0.
-24.8683 -68.7066 0.
-100.985 -279.71 0.
-189.766 -524.564 0.
-0.189097 -0.523708 0.
-88.3596 -243.947 0.
-37.7772 -104.635 0.
-65.0835 -179.719 0.
-126.619 -344.789 0.
-69.6834 -186.68 0.
-147.221 -389.109 0.
0.35721 0.97928 0.
-233.276 -641.18 0.
1.55302 3.71114 0.
-19.8339 -52.6737 0.
-59.6108 -158.279 0.
-1.34212 -3.71537 0.
-0.00135857 -11.4061 0.
-29.3249 -81.2141 0.
-4.14878 -11.2317 0.
-85.6251 -231.826 0.
-2.74842 -6.97996 0.
1.95222 4.96783 0.
-143.534 -366.052 0.
-35.3512 -86.0087 0.
-30.5032 -74.1064 0.
-41.1945 -104.301 0.
-132.264 -334.132 0.
4.53608 11.4444 0.
4.48484 9.87928 0.
-4.02723 -8.81442 0.
8.01412 17.4309 0.
-29.0907 -54.3612 0.
6.18004 11.2992 0.
-162.821 -312.526 0.
-40.4806 -75.5291 0.
1.42529 2.59007 0.
-382.642 -596.14 0.
5.25298 7.935 0.
10.5938 15.4856 0.
-100.037 -129.6 0.
-4.59117 -5.86089 0.
-9.76008 -12.1105 0.
14.1479 16.9485 0.
6.08424 7.05409 0.
-7.16802 -7.65899 0.
-156.575 -175.344 0.
-71.7836 -79.7698 0.
-175.402 -192.874 0.
-74.9129 -82.2998 0.
11.2075 12.297 0.
18.1897 19.5053 0.
-1.66175 -1.76994 0.
-5.59572 -7.15554 0.
-0.892664 -1.02528 0.
-13.4046 -14.5353 0.
-1.89841 -2.046 0.
-55.4792 -59.0437 0.
-97.0291 -104.08 0.
-57.4938 -62.1558 0.
20.8369 21.0313 0.
-13.8825 -14.2926 0.
3.94405 4.01588 0.
13.7732 14.0797 0.
8.42739 8.71914 0.
-291.482 -306.307 0.
8.94586 10.7114 0.
-299.881 -374.281 0.
-192.242 -250.556 0.
-47.8165 -62.6238 0.
-34.363 -45.0211 0.
3.26148 4.89002 0.
-0.279428 -0.434023 0.
3.98992 6.41757 0.
1.90488 3.64761 0.
2.8909 5.7264 0.
5.76018 11.7861 0.
-3.65868 -6.94474 0.
-181.344 -349.637 0.
-6.52251 -14.8078 0.
-7.12393 -16.2572 0.
-106.395 -244.328 0.
-13.9567 -36.0301 0.
-72.3821 -187.694 0.
-91.4618 -235.513 0.
-18.4654 -45.4179 0.
0.866246 2.05111 0.
-28.1152 -67.4255 0.
5.05037 12.1341 0.
1.28687 3.09817 0.
-145.136 -399.688 0.
-0.031222 -11.9068 0.
-105.703 -291.741 0.
-47.3794 -130.278 0.
-70.2916 -192.387 0.
-84.0786 -205.515 0.
1.88898 4.54545 0.
-1.64305 -3.89312 0.
-2.753 -7.60813 0.
1.35525 3.75379 0.
2.56741 7.06988 0.
2.75818 7.63131 0.
-13.9103 -38.5232 0.
1.74657 4.83688 0.
0.345479 0.956357 0.
0.829863 2.29004 0.
1.55434 4.30499 0.
0.74369 2.05564 0.
-0.771698 -2.11175 0.
-0.15538 -0.41974 0.
-26.5204 -70.5765 0.
2.78401 7.56869 0.
2.67932 7.31304 0.
-1.71736 -4.05171 0.
4.69683 11.4763 0.
-160.791 -403.564 0.
-3.88956 -10.6662 0.
-31.1939 -85.7134 0.
-119.619 -329.24 0.
-0.352444 -0.931004 0.
-114.276 -303.414 0.
-2.47594 -6.16934 0.
-2.90592 -7.2298 0.
-2.14244 -5.32262 0.
-1.88598 -4.58582 0.
-4.7393 -11.5073 0.
-21.306 -54.2086 0.
-11.8661 -30.1428 0.
5.40556 13.708 0.
-235.688 -516.39 0.
4.50852 9.82703 0.
-5.20224 -11.2657 0.
-147.65 -278.501 0.
4.86754 8.99858 0.
0.961801 1.81922 0.
6.09845 11.209 0.
-3.03862 -12.1886 0.
-2.38511 -3.66451 0.
8.85088 13.2806 0.
11.6504 16.97 0.
-136.62 -175.304 0.
-52.271 -66.0757 0.
-122.814 -148.807 0.
-303.076 -354.241 0.
3.08242 3.48671 0.
1.8053 1.88295 0.
8.7825 9.12312 0.
-7.58017 -7.84448 0.
-7.43298 -7.52085 0.
6.06744 6.07109 0.
-6.25872 -6.65815 0.
-142.283 -149.989 0.
12.4353 13.0153 0.
15.6794 16.3 0.
10.586 11.5996 0.
4.42939 4.25585 0.
12.2789 11.8671 0.
1.8368 1.80589 0.
-2.28002 -2.20941 0.
-13.0921 -11.8206 0.
-3.49047 -3.39697 0.
-0.186482 -0.181993 0.
-34.5713 -33.8268 0.
3.83326 3.88764 0.
10.2594 10.5303 0.
-108.902 -113.338 0.
-1.85998 -2.15395 0.
-0.438895 -0.50128 0.
7.61185 8.82087 0.
10.6312 13.0771 0.
3.02135 3.84035 0.
10.1479 15.3112 0.
6.93789 10.8561 0.
-198.134 -320.988 0.
4.14683 8.00386 0.
0.558255 1.11566 0.
-134.192 -277.215 0.
-6.07768 -11.6997 0.
1.41358 2.76359 0.
-9.14254 -20.6278 0.
5.63321 12.0858 0.
2.2894 4.91623 0.
3.93324 9.72087 0.
-1.39503 -3.4841 0.
-4.49644 -11.3423 0.
3.42121 8.09418 0.
-23.2171 -54.8676 0.
-8.10737 -19.3399 0.
-1.57239 -3.75801 0.
0.397669 0.952299 0.
-47.8174 -131.072 0.
-0.222768 -0.609668 0.
0.342419 0.945172 0.
4.59382 12.6371 0.
-0.0523611 -11.0268 0.
-12.3747 -30.0847 0.
-0.729 -10.9845 0.
5.44788 12.8534 0.
-1.08437 -3.00306 0.
-0.873507 -2.41679 0.
0.329412 0.909408 0.
-0.000812604 -8.04226 0.
-0.00252926 -7.61365 0.
2.78521 7.71454 0.
1.23986 3.42958 0.
1.02528 2.82975 0.
-0.511877 -1.41768 0.
2.78515 7.70141 0.
1.64238 4.51604 0.
2.50115 6.80764 0.
1.23281 3.31112 0.
3.39665 9.13891 0.
-0.101199 -10.153 0.
2.79851 6.5259 0.
2.89273 6.98294 0.
0.792354 1.97094 0.
-4.55224 -12.4996 0.
1.18447 3.25867 0.
3.21526 8.86105 0.
-0.303364 -14.0233 0.
-19.2249 -50.8602 0.
-2.47035 -6.08277 0.
4.27433 10.5112 0.
-0.659133 -1.61905 0.
-24.7908 -58.4109 0.
-2.71553 -6.3395 0.
6.63406 16.1081 0.
-0.0831155 -0.201184 0.
3.15481 7.61468 0.
4.41243 9.1085 0.
-5.57582 -12.1003 0.
-6.63144 -14.298 0.
-10.4615 -20.0127 0.
0.933467 1.74572 0.
-189.153 -357.37 0.
1.66722 3.06445 0.
8.27151 14.7597 0.
-105.142 -161.762 0.
-3.26805 -4.91155 0.
9.20007 13.498 0.
6.12659 7.68114 0.
-7.32731 -10.7887 0.
7.66116 8.26164 0.
-29.1121 -33.1183 0.
-43.5083 -47.876 0.
-85.6016 -87.0732 0.
10.8437 10.9936 0.
17.4301 17.6151 0.
7.96546 7.90575 0.
0.968506 0.950981 0.
-13.561 -12.7551 0.
-0.165191 -0.154461 0.
6.88415 6.50792 0.
18.4239 17.5627 0.
6.64252 6.27558 0.
-15.0948 -14.1802 0.
5.52192 5.21449 0.
-5.75575 -5.45633 0.
-4.35955 -4.06853 0.
-37.5518 -34.4401 0.
-177.47 -166.254 0.
-103.652 -97.2206 0.
15.1546 12.829 0.
-7.56597 -6.38842 0.
-8.7786 -8.1229 0.
3.02155 3.04626 0.
-6.60244 -8.22663 0.
1.18824 1.33496 0.
-16.5657 -18.8776 0.
-6.73551 -10.4359 0.
-239.635 -303.015 0.
8.24824 12.5278 0.
7.41745 11.6978 0.
6.84864 11.2076 0.
3.73811 6.93319 0.
1.25994 2.36455 0.
2.36589 4.49183 0.
2.64424 4.80501 0.
-2.48937 -4.6469 0.
-4.29448 -9.14656 0.
-8.02364 -17.1033 0.
1.36616 2.9144 0.
-0.700688 -1.73464 0.
-63.7914 -159.617 0.
-32.4804 -82.0779 0.
0.983199 2.32226 0.
-78.7705 -185.829 0.
-16.9312 -40.1773 0.
-23.6153 -56.1572 0.
-19.5856 -46.6671 0.
-53.1726 -144.806 0.
0.950415 2.58212 0.
4.7054 12.8684 0.
-0.3938 -1.07793 0.
0.938966 2.57248 0.
-31.1868 -76.8817 0.
2.45851 5.99185 0.
3.75656 9.04795 0.
-22.5042 -62.2389 0.
-0.582422 -1.60272 0.
-65.361 -180.912 0.
-30.1778 -83.5864 0.
-6.14388 -16.9991 0.
-21.1684 -58.6319 0.
1.86147 5.15156 0.
-33.0036 -91.1288 0.
-11.5859 -32.079 0.
-6.57937 -18.2179 0.
0.0524827 0.145216 0.
-15.9776 -44.023 0.
-58.8695 -161.126 0.
-0.497522 -1.33252 0.
-18.4713 -49.9571 0.
5.53019 13.0987 0.
1.46643 3.52256 0.
-25.113 -61.114 0.
-21.722 -59.1512 0.
-15.7819 -43.0087 0.
1.68714 4.65367 0.
4.54378 11.9309 0.
-2.37014 -6.25154 0.
6.23931 15.1726 0.
6.23759 15.1536 0.
-72.7838 -176.713 0.
-123.498 -293.217 0.
-3.34979 -7.87713 0.
-60.5326 -145.855 0.
6.11337 14.686 0.
3.94007 9.43822 0.
-20.8419 -43.1152 0.
-2.62618 -16.8768 0.
-0.327879 -0.662152 0.
6.81743 12.2817 0.
1.30177 2.29127 0.
-4.30941 -7.54196 0.
1.78419 3.08733 0.
6.95148 12.3934 0.
-89.7086 -138.339 0.
-5.33415 -8.03016 0.
-4.11208 -6.03957 0.
-178.877 -223.861 0.
-3.22584 -3.8556 0.
-7.78355 -8.20929 0.
9.18416 9.52398 0.
5.6738 5.78991 0.
-33.4952 -32.0034 0.
-11.2771 -9.56022 0.
-11.2924 -8.96689 0.
-114.551 -111.304 0.
-176.591 -169.815 0.
-61.1982 -58.309 0.
5.15609 4.59805 0.
9.581 8.65724 0.
4.314 3.93893 0.
-7.45151 -6.08691 0.
12.636 11.6004 0.
2.08476 1.92223 0.
-17.9764 -7.93326 0.
13.7857 10.0129 0.
-0.347341 -0.266365 0.
16.3534 13.8288 0.
6.81802 5.70775 0.
-6.45955 -5.35045 0.
-1.0353 -0.948439 0.
3.76624 3.60793 0.
-147.969 -148.518 0.
8.26626 9.00516 0.
-11.8677 -13.1038 0.
-63.7179 -71.3703 0.
-4.36402 -3.30331 0.
5.41363 5.71241 0.
-5.77391 -12.5588 0.
1.16719 1.76221 0.
-16.4352 -26.3397 0.
-3.78095 -7.0461 0.
-0.0130227 -0.0245586 0.
-13.2221 -25.2254 0.
4.51735 8.27008 0.
-8.65255 -16.2814 0.
-28.3167 -59.916 0.
-8.11136 -17.1752 0.
-23.8846 -50.6161 0.
-1.82503 -4.52617 0.
-17.5405 -43.9674 0.
-2.7926 -13.5399 0.
8.36909 16.0971 0.
5.68333 11.7481 0.
-0.897264 -1.93748 0.
4.0783 8.9748 0.
3.64973 8.18919 0.
-18.0564 -48.0342 0.
5.11377 13.6079 0.
-16.3583 -44.6589 0.
-3.35852 -9.17812 0.
2.01087 5.50056 0.
4.95754 12.294 0.
-0.158515 -0.388665 0.
3.94368 9.55966 0.
-1.6774 -4.6201 0.
3.99768 10.9224 0.
-5.27095 -14.5944 0.
1.92211 5.32348 0.
0.194521 0.538047 0.
-0.679203 -1.88118 0.
-0.00397293 -9.11087 0.
-0.00654651 -8.38557 0.
0.844244 2.33822 0.
0.411293 1.1384 0.
0.632629 1.75197 0.
-1.19411 -3.29828 0.
3.44131 9.45401 0.
1.02638 2.73019 0.
-2.14538 -5.76653 0.
2.22347 5.1971 0.
-1.51797 -3.60036 0.
-12.6636 -30.4431 0.
-15.2182 -41.5099 0.
-11.0319 -30.1134 0.
-11.4864 -31.3772 0.
5.20848 13.1975 0.
-5.06751 -12.7842 0.
2.53433 5.6944 0.
-1.86419 -4.0828 0.
3.76115 8.03359 0.
6.32481 12.5522 0.
6.82272 12.0415 0.
5.65029 13.5075 0.
-34.917 -83.2272 0.
-7.349 -17.4662 0.
-51.9977 -107.822 0.
4.24269 8.69284 0.
3.53385 7.15214 0.
-32.7938 -59.2921 0.
-2.07976 -3.67281 0.
-25.2582 -44.1398 0.
-1.11251 -1.92211 0.
-3.8302 -6.54263 0.
8.51764 12.6139 0.
7.05952 9.36149 0.
5.95984 7.07276 0.
14.5404 12.838 0.
7.45407 8.89776 0.
-0.260261 -0.268194 0.
2.78242 2.81955 0.
-1.01054 -1.00802 0.
-161.481 -153.42 0.
9.77236 8.98516 0.
-11.7402 -9.17449 0.
-10.8325 -7.54036 0.
2.34039 1.95203 0.
11.8897 9.7949 0.
2.67423 1.80922 0.
9.15579 5.69905 0.
-30.8768 -27.0138 0.
3.38471 2.96976 0.
