# vtk DataFile Version 2.0
test grain
ASCII
DATASET UNSTRUCTURED_GRID
POINTS 5000 float
0.497738 0.000616999 0.
0.500571 0.000797437 0.
0.503051 0.000864516 0.
0.505514 0.000930101 0.
0.507632 0.000946792 0.
0.509749 0.000963835 0.
0.511839 0.000976468 0.
0.513885 0.000981031 0.
0.515931 0.000985615 0.
0.517955 0.000989554 0.
0.519968 0.000993176 0.
0.521981 0.000996811 0.
0.523984 0.000997761 0.
0.525986 0.000998348 0.
0.527988 0.000998903 0.
0.52999 0.000999193 0.
0.531992 0.000999483 0.
0.533994 0.000999723 0.
0.535995 0.000999862 0.
0.537996 0.001 0.
0.539996 0.00100012 0.
0.541997 0.00100022 0.
0.543997 0.00100031 0.
0.545998 0.00100024 0.
0.547998 0.00100012 0.
0.549998 0.000999999 0.
0.551998 0.0010001 0.
0.553998 0.0010002 0.
0.555998 0.00100029 0.
0.557999 0.00100033 0.
0.559999 0.00100037 0.
0.561999 0.00100039 0.
0.563999 0.00100039 0.
0.565999 0.00100039 0.
0.567999 0.00100038 0.
0.57 0.00100037 0.
0.572 0.00100036 0.
0.574 0.00100038 0.
0.576 0.00100041 0.
0.577999 0.00100044 0.
0.58 0.00100046 0.
0.582 0.00100049 0.
0.584 0.0010005 0.
0.586 0.00100048 0.
0.588 0.00100045 0.
0.59 0.00100047 0.
0.592 0.00100051 0.
0.594 0.00100056 0.
0.596 0.00100048 0.
0.598 0.00100037 0.
0.6 0.00100025 0.
0.602 0.00100038 0.
0.604 0.00100052 0.
0.606 0.00100061 0.
0.608 0.00100055 0.
0.61 0.00100049 0.
0.612 0.00100047 0.
0.614 0.00100049 0.
0.616 0.00100051 0.
0.618 0.00100048 0.
0.62 0.00100042 0.
0.622001 0.00100036 0.
0.624001 0.00100036 0.
0.626 0.00100036 0.
0.628 0.00100037 0.
0.630001 0.00100039 0.
0.632001 0.00100042 0.
0.634001 0.00100043 0.
0.636001 0.00100043 0.
0.638001 0.00100042 0.
0.640001 0.00100038 0.
0.642001 0.00100031 0.
0.644002 0.00100024 0.
0.646002 0.00100016 0.
0.648002 0.00100009 0.
0.650002 0.00100001 0.
0.652002 0.00100009 0.
0.654003 0.00100018 0.
0.656004 0.00100022 0.
0.658004 0.00100011 0.
0.660005 0.001 0.
0.662006 0.000999832 0.
0.664007 0.000999587 0.
0.666008 0.000999341 0.
0.66801 0.000999185 0.
0.670012 0.000999073 0.
0.672014 0.00099896 0.
0.674017 0.000997608 0.
0.67602 0.000996113 0.
0.678026 0.000994226 0.
0.680048 0.000989438 0.
0.68207 0.000984672 0.
0.684106 0.000979603 0.
0.686169 0.000973896 0.
0.688231 0.000968223 0.
0.690398 0.000940488 0.
0.692619 0.00090275 0.
0.694863 0.000863869 0.
0.697649 0.00076682 0.
0.700439 0.000672388 0.
0.495654 0.00159615 0.
0.499004 0.00229372 0.
0.501881 0.0025567 0.
0.504715 0.00277207 0.
0.507093 0.00283137 0.
0.50939 0.00288519 0.
0.511627 0.00292886 0.
0.513723 0.00294266 0.
0.515819 0.00295652 0.
0.517878 0.0029684 0.
0.519914 0.00297933 0.
0.52195 0.0029903 0.
0.523959 0.00299327 0.
0.525965 0.00299503 0.
0.52797 0.0029967 0.
0.529975 0.00299757 0.
0.53198 0.00299844 0.
0.533984 0.00299917 0.
0.535986 0.00299958 0.
0.537989 0.003 0.
0.539991 0.00300035 0.
0.541992 0.00300065 0.
0.543992 0.00300094 0.
0.545993 0.00300073 0.
0.547994 0.00300036 0.
0.549995 0.003 0.
0.551995 0.0030003 0.
0.553995 0.00300059 0.
0.555995 0.00300086 0.
0.557996 0.00300098 0.
0.559997 0.0030011 0.
0.561997 0.00300117 0.
0.563998 0.00300116 0.
0.565998 0.00300116 0.
0.567998 0.00300114 0.
0.569999 0.00300111 0.
0.571999 0.00300108 0.
0.573999 0.00300115 0.
0.575999 0.00300123 0.
0.577999 0.00300131 0.
0.579999 0.00300139 0.
0.581999 0.00300148 0.
0.583999 0.00300151 0.
0.585999 0.00300144 0.
0.587999 0.00300136 0.
0.589999 0.0030014 0.
0.591999 0.00300154 0.
0.593999 0.00300168 0.
0.596 0.00300144 0.
0.598 0.0030011 0.
0.6 0.00300075 0.
0.602001 0.00300115 0.
0.604001 0.00300156 0.
0.606001 0.00300183 0.
0.608001 0.00300165 0.
0.610001 0.00300147 0.
0.612001 0.0030014 0.
0.614001 0.00300147 0.
0.616001 0.00300154 0.
0.618001 0.00300144 0.
0.620001 0.00300126 0.
0.622002 0.00300108 0.
0.624001 0.00300107 0.
0.626001 0.00300108 0.
0.628001 0.0030011 0.
0.630001 0.00300118 0.
0.632002 0.00300125 0.
0.634002 0.0030013 0.
0.636003 0.00300128 0.
0.638003 0.00300126 0.
0.640004 0.00300114 0.
0.642004 0.00300093 0.
0.644005 0.00300072 0.
0.646005 0.00300049 0.
0.648006 0.00300025 0.
0.650006 0.00300002 0.
0.652007 0.00300027 0.
0.654007 0.00300053 0.
0.656008 0.00300066 0.
0.65801 0.00300033 0.
0.660012 0.003 0.
0.662014 0.00299949 0.
0.664017 0.00299876 0.
0.666021 0.00299802 0.
0.668025 0.00299755 0.
0.670031 0.00299722 0.
0.672036 0.00299688 0.
0.674045 0.00299278 0.
0.676055 0.00298828 0.
0.678072 0.00298246 0.
0.68013 0.00296798 0.
0.682187 0.00295358 0.
0.684274 0.00293827 0.
0.686405 0.00292097 0.
0.688536 0.00290377 0.
0.690947 0.00280258 0.
0.693432 0.00268283 0.
0.696152 0.00252368 0.
0.69933 0.00222006 0.
0.702606 0.00172331 0.
0.493243 0.00223387 0.
0.49688 0.00339402 0.
0.500505 0.00419683 0.
0.503722 0.00457033 0.
0.506502 0.00470284 0.
0.508994 0.00479729 0.
0.511409 0.00488052 0.
0.513556 0.0049037 0.
0.515704 0.00492699 0.
0.517799 0.00494689 0.
0.519858 0.00496521 0.
0.521918 0.0049836 0.
0.523934 0.00498875 0.
0.525944 0.0049917 0.
0.527953 0.00499449 0.
0.52996 0.00499594 0.
0.531968 0.0049974 0.
0.533974 0.00499861 0.
0.535978 0.0049993 0.
0.537982 0.005 0.
0.539985 0.00500058 0.
0.541986 0.00500108 0.
0.543988 0.00500157 0.
0.545989 0.00500121 0.
0.54799 0.0050006 0.
0.549991 0.005 0.
0.551992 0.00500049 0.
0.553992 0.00500099 0.
0.555992 0.00500142 0.
0.557993 0.00500163 0.
0.559994 0.00500183 0.
0.561995 0.00500194 0.
0.563996 0.00500194 0.
0.565997 0.00500193 0.
0.567997 0.00500189 0.
0.569998 0.00500185 0.
0.571998 0.00500181 0.
0.573998 0.00500192 0.
0.575998 0.00500205 0.
0.577998 0.00500218 0.
0.579998 0.00500232 0.
0.581998 0.00500247 0.
0.583998 0.00500252 0.
0.585998 0.0050024 0.
0.587999 0.00500227 0.
0.589999 0.00500234 0.
0.591999 0.00500257 0.
0.593999 0.0050028 0.
0.595999 0.0050024 0.
0.598 0.00500183 0.
0.6 0.00500125 0.
0.602001 0.00500192 0.
0.604001 0.00500259 0.
0.606001 0.00500305 0.
0.608001 0.00500275 0.
0.610001 0.00500245 0.
0.612001 0.00500234 0.
0.614001 0.00500245 0.
0.616002 0.00500256 0.
0.618002 0.0050024 0.
0.620002 0.0050021 0.
0.622003 0.0050018 0.
0.624002 0.00500178 0.
0.626002 0.0050018 0.
0.628002 0.00500184 0.
0.630002 0.00500196 0.
0.632003 0.00500209 0.
0.634004 0.00500216 0.
0.636004 0.00500213 0.
0.638005 0.0050021 0.
0.640006 0.00500189 0.
0.642007 0.00500155 0.
0.644008 0.0050012 0.
0.646009 0.00500082 0.
0.648009 0.00500042 0.
0.65001 0.00500003 0.
0.652011 0.00500046 0.
0.654012 0.00500088 0.
0.656013 0.00500109 0.
0.658016 0.00500055 0.
0.660018 0.005 0.
0.662022 0.00499915 0.
0.664028 0.00499792 0.
0.666034 0.00499669 0.
0.668041 0.00499592 0.
0.670049 0.00499536 0.
0.672058 0.0049948 0.
0.674074 0.00498787 0.
0.67609 0.00498037 0.
0.678118 0.00497041 0.
0.680213 0.00494609 0.
0.682307 0.00492189 0.
0.684448 0.0048962 0.
0.68665 0.00486706 0.
0.688851 0.00483809 0.
0.69158 0.00463669 0.
0.694358 0.00442565 0.
0.697749 0.00407428 0.
0.701413 0.00349693 0.
0.705163 0.00236525 0.
0.490404 0.00242963 0.
0.494655 0.00407477 0.
0.498735 0.00531275 0.
0.502108 0.00582491 0.
0.505276 0.00615301 0.
0.507937 0.00634986 0.
0.510582 0.00655275 0.
0.512902 0.00664827 0.
0.515214 0.00673638 0.
0.517449 0.00680677 0.
0.519589 0.00685297 0.
0.521732 0.00689989 0.
0.523801 0.00692824 0.
0.525854 0.00695292 0.
0.527904 0.00697632 0.
0.529921 0.00697919 0.
0.531937 0.00698206 0.
0.533951 0.00698559 0.
0.535961 0.0069906 0.
0.53797 0.00699562 0.
0.539976 0.00699866 0.
0.541979 0.00700004 0.
0.543982 0.00700143 0.
0.545984 0.00700162 0.
0.547985 0.00700147 0.
0.549987 0.00700131 0.
0.551987 0.00700163 0.
0.553988 0.00700196 0.
0.555989 0.00700225 0.
0.55799 0.00700244 0.
0.559991 0.00700262 0.
0.561992 0.00700279 0.
0.563993 0.00700292 0.
0.565994 0.00700306 0.
0.567995 0.00700318 0.
0.569996 0.00700329 0.
0.571997 0.00700341 0.
0.573997 0.00700352 0.
0.575996 0.00700362 0.
0.577996 0.00700373 0.
0.579997 0.00700387 0.
0.581997 0.007004 0.
0.583997 0.00700411 0.
0.585998 0.00700416 0.
0.587998 0.00700421 0.
0.589998 0.00700426 0.
0.591998 0.00700431 0.
0.593998 0.00700437 0.
0.595999 0.0070041 0.
0.598 0.00700375 0.
0.6 0.0070034 0.
0.602001 0.00700393 0.
0.604002 0.00700446 0.
0.606002 0.00700483 0.
0.608002 0.00700464 0.
0.610002 0.00700446 0.
0.612002 0.00700433 0.
0.614003 0.00700427 0.
0.616003 0.00700422 0.
0.618003 0.00700402 0.
0.620004 0.00700375 0.
0.622004 0.00700349 0.
0.624004 0.00700344 0.
0.626004 0.00700341 0.
0.628004 0.00700339 0.
0.630005 0.00700339 0.
0.632005 0.00700339 0.
0.634006 0.00700334 0.
0.636007 0.00700316 0.
0.638009 0.00700299 0.
0.64001 0.0070027 0.
0.642011 0.00700231 0.
0.644012 0.00700192 0.
0.646013 0.00700167 0.
0.648014 0.00700147 0.
0.650015 0.00700126 0.
0.652016 0.00700114 0.
0.654018 0.00700102 0.
0.656021 0.00700043 0.
0.658025 0.00699827 0.
0.66003 0.00699611 0.
0.662038 0.00699193 0.
0.664051 0.00698538 0.
0.666064 0.00697885 0.
0.668084 0.00697468 0.
0.670108 0.00697154 0.
0.672132 0.00696841 0.
0.674205 0.00693372 0.
0.676281 0.00689754 0.
0.678381 0.00685756 0.
0.680572 0.0067991 0.
0.682759 0.00674182 0.
0.685087 0.00664894 0.
0.687494 0.00653833 0.
0.689993 0.00637536 0.
0.692913 0.00600759 0.
0.695978 0.00564308 0.
0.699638 0.00516185 0.
0.703881 0.00419805 0.
0.707924 0.00265526 0.
0.487559 0.00246393 0.
0.492267 0.00440507 0.
0.496403 0.00585686 0.
0.500244 0.00686701 0.
0.503679 0.00745321 0.
0.506721 0.00782291 0.
0.509587 0.00815979 0.
0.512163 0.00836072 0.
0.514661 0.00852207 0.
0.517079 0.00866047 0.
0.519305 0.00873627 0.
0.521536 0.00881328 0.
0.523664 0.00886577 0.
0.525761 0.00891277 0.
0.527856 0.00895812 0.
0.529881 0.00896241 0.
0.531906 0.0089667 0.
0.533928 0.0089725 0.
0.535943 0.00898184 0.
0.537958 0.00899119 0.
0.539968 0.00899673 0.
0.541972 0.00899901 0.
0.543976 0.00900128 0.
0.545978 0.00900203 0.
0.54798 0.00900232 0.
0.549982 0.00900262 0.
0.551983 0.00900277 0.
0.553984 0.00900292 0.
0.555985 0.00900308 0.
0.557986 0.00900324 0.
0.559988 0.00900341 0.
0.561989 0.00900363 0.
0.56399 0.00900391 0.
0.565992 0.00900419 0.
0.567993 0.00900447 0.
0.569994 0.00900474 0.
0.571995 0.00900501 0.
0.573995 0.00900511 0.
0.575995 0.0090052 0.
0.577995 0.00900529 0.
0.579995 0.00900541 0.
0.581996 0.00900554 0.
0.583996 0.0090057 0.
0.585997 0.00900593 0.
0.587997 0.00900616 0.
0.589997 0.00900619 0.
0.591998 0.00900606 0.
0.593998 0.00900593 0.
0.595999 0.00900581 0.
0.598 0.00900568 0.
0.6 0.00900555 0.
0.602001 0.00900594 0.
0.604002 0.00900632 0.
0.606003 0.0090066 0.
0.608003 0.00900653 0.
0.610003 0.00900646 0.
0.612003 0.00900632 0.
0.614004 0.0090061 0.
0.616004 0.00900587 0.
0.618005 0.00900564 0.
0.620005 0.00900541 0.
0.622006 0.00900518 0.
0.624006 0.00900509 0.
0.626006 0.00900502 0.
0.628006 0.00900494 0.
0.630007 0.00900482 0.
0.632008 0.00900469 0.
0.634009 0.00900451 0.
0.636011 0.00900419 0.
0.638012 0.00900388 0.
0.640014 0.0090035 0.
0.642015 0.00900307 0.
0.644017 0.00900264 0.
0.646018 0.00900253 0.
0.648019 0.00900251 0.
0.65002 0.00900249 0.
0.652022 0.00900182 0.
0.654024 0.00900115 0.
0.656028 0.00899976 0.
0.658035 0.00899598 0.
0.660041 0.0089922 0.
0.662054 0.00898466 0.
0.664075 0.00897276 0.
0.666095 0.0089609 0.
0.668128 0.00895336 0.
0.670167 0.00894763 0.
0.672206 0.0089419 0.
0.674342 0.0088772 0.
0.676479 0.00881128 0.
0.67866 0.00873941 0.
0.680955 0.00864431 0.
0.683244 0.00855115 0.
0.685834 0.00836291 0.
0.688478 0.00815833 0.
0.69138 0.00776738 0.
0.694495 0.00721135 0.
0.698052 0.00660878 0.
0.701984 0.00583754 0.
0.706345 0.00449837 0.
0.71103 0.00259812 0.
0.484463 0.00237212 0.
0.48951 0.00447051 0.
0.494045 0.00620618 0.
0.498104 0.00762346 0.
0.501942 0.00859061 0.
0.505475 0.00922349 0.
0.508555 0.00967708 0.
0.511403 0.01 0.
0.514064 0.0102309 0.
0.516667 0.010458 0.
0.518973 0.0105666 0.
0.521288 0.0106787 0.
0.523483 0.010764 0.
0.525628 0.0108425 0.
0.527772 0.0109208 0.
0.529813 0.0109308 0.
0.531854 0.0109409 0.
0.53389 0.0109523 0.
0.535913 0.0109664 0.
0.537936 0.0109806 0.
0.539951 0.0109895 0.
0.541959 0.0109939 0.
0.543967 0.0109984 0.
0.545971 0.0110003 0.
0.547974 0.0110013 0.
0.549977 0.0110024 0.
0.551978 0.0110026 0.
0.553979 0.0110027 0.
0.555981 0.0110029 0.
0.557982 0.0110032 0.
0.559984 0.0110034 0.
0.561986 0.0110037 0.
0.563987 0.0110041 0.
0.565989 0.0110045 0.
0.56799 0.0110048 0.
0.569992 0.0110052 0.
0.571993 0.0110055 0.
0.573993 0.0110057 0.
0.575993 0.0110059 0.
0.577993 0.0110061 0.
0.579994 0.0110063 0.
0.581995 0.0110064 0.
0.583995 0.0110066 0.
0.585996 0.0110069 0.
0.587996 0.0110073 0.
0.589997 0.0110073 0.
0.591997 0.0110071 0.
0.593997 0.0110069 0.
0.595998 0.0110069 0.
0.597999 0.0110069 0.
0.6 0.0110069 0.
0.602002 0.0110072 0.
0.604003 0.0110074 0.
0.606004 0.0110077 0.
0.608004 0.0110077 0.
0.610004 0.0110077 0.
0.612004 0.0110075 0.
0.614005 0.0110071 0.
0.616005 0.0110068 0.
0.618006 0.0110065 0.
0.620007 0.0110063 0.
0.622008 0.0110061 0.
0.624008 0.0110059 0.
0.626008 0.0110057 0.
0.628008 0.0110055 0.
0.63001 0.0110053 0.
0.632011 0.011005 0.
0.634012 0.0110047 0.
0.636014 0.0110043 0.
0.638016 0.011004 0.
0.640018 0.0110035 0.
0.642019 0.0110029 0.
0.644021 0.0110024 0.
0.646023 0.0110022 0.
0.648024 0.0110021 0.
0.650026 0.0110019 0.
0.65203 0.0110002 0.
0.654034 0.0109984 0.
0.65604 0.0109954 0.
0.658052 0.0109884 0.
0.660063 0.0109813 0.
0.662084 0.0109695 0.
0.664114 0.0109523 0.
0.666143 0.0109352 0.
0.668198 0.0109177 0.
0.670262 0.0109005 0.
0.672327 0.0108826 0.
0.674526 0.0107793 0.
0.676722 0.010677 0.
0.678996 0.0105628 0.
0.681394 0.0104244 0.
0.683806 0.0102864 0.
0.686634 0.00999753 0.
0.68954 0.00968585 0.
0.692828 0.00903435 0.
0.696282 0.00828055 0.
0.700183 0.00745519 0.
0.704501 0.00619136 0.
0.709128 0.00458629 0.
0.714041 0.00247107 0.
0.481441 0.00229624 0.
0.487063 0.00452835 0.
0.491831 0.00643828 0.
0.496155 0.00818712 0.
0.500558 0.00954693 0.
0.504296 0.0103345 0.
0.507554 0.0109005 0.
0.510643 0.0113979 0.
0.513411 0.0117696 0.
0.516142 0.0121445 0.
0.518561 0.0123153 0.
0.520968 0.0124787 0.
0.523248 0.0126127 0.
0.525447 0.0127357 0.
0.527647 0.0128601 0.
0.529715 0.0128828 0.
0.531781 0.0129038 0.
0.533838 0.0129247 0.
0.53587 0.0129441 0.
0.537903 0.0129636 0.
0.539926 0.012977 0.
0.54194 0.0129848 0.
0.543954 0.0129927 0.
0.545961 0.0129963 0.
0.547966 0.0129985 0.
0.549971 0.0130007 0.
0.551973 0.0130011 0.
0.553974 0.0130014 0.
0.555976 0.0130018 0.
0.557978 0.0130022 0.
0.55998 0.0130026 0.
0.561982 0.013003 0.
0.563984 0.0130035 0.
0.565985 0.0130039 0.
0.567987 0.0130043 0.
0.569989 0.0130046 0.
0.57199 0.013005 0.
0.573991 0.0130054 0.
0.575991 0.0130058 0.
0.577992 0.0130062 0.
0.579993 0.0130064 0.
0.581994 0.0130066 0.
0.583994 0.0130068 0.
0.585995 0.0130072 0.
0.587996 0.0130075 0.
0.589996 0.0130076 0.
0.591997 0.0130074 0.
0.593997 0.0130073 0.
0.595998 0.0130073 0.
0.597999 0.0130073 0.
0.6 0.0130074 0.
0.602002 0.0130076 0.
0.604003 0.0130078 0.
0.606004 0.013008 0.
0.608004 0.0130081 0.
0.610005 0.0130081 0.
0.612005 0.0130079 0.
0.614006 0.0130074 0.
0.616007 0.013007 0.
0.618008 0.0130067 0.
0.620009 0.0130064 0.
0.62201 0.0130062 0.
0.62401 0.0130059 0.
0.626011 0.0130055 0.
0.628011 0.0130051 0.
0.630013 0.0130047 0.
0.632014 0.0130043 0.
0.634016 0.0130039 0.
0.636018 0.0130036 0.
0.63802 0.0130032 0.
0.640022 0.0130027 0.
0.642024 0.0130019 0.
0.644026 0.0130012 0.
0.646028 0.0130006 0.
0.648031 0.0130001 0.
0.650033 0.0129996 0.
0.65204 0.0129962 0.
0.654046 0.0129928 0.
0.656056 0.0129873 0.
0.658076 0.0129754 0.
0.660097 0.0129634 0.
0.662127 0.0129464 0.
0.664169 0.0129239 0.
0.666211 0.0129014 0.
0.668297 0.0128657 0.
0.670397 0.0128268 0.
0.672506 0.0127836 0.
0.674771 0.01263 0.
0.677031 0.0124789 0.
0.679431 0.0122932 0.
0.68196 0.0120784 0.
0.684563 0.0118177 0.
0.687494 0.0113363 0.
0.690582 0.0108206 0.
0.694014 0.0100852 0.
0.697829 0.00921812 0.
0.70209 0.00809587 0.
0.706601 0.00649455 0.
0.711566 0.00468724 0.
0.717093 0.00234937 0.
0.478619 0.00226249 0.
0.484628 0.00459422 0.
0.489728 0.00659796 0.
0.494318 0.00859318 0.
0.499021 0.0102043 0.
0.502871 0.0112125 0.
0.506445 0.0120347 0.
0.509769 0.0127151 0.
0.512726 0.0132679 0.
0.515572 0.0137896 0.
0.518127 0.0140549 0.
0.520629 0.0142709 0.
0.523008 0.0144563 0.
0.525261 0.0146249 0.
0.527518 0.0147963 0.
0.529616 0.014834 0.
0.531706 0.0148661 0.
0.533785 0.014897 0.
0.535827 0.0149218 0.
0.537869 0.0149466 0.
0.5399 0.0149644 0.
0.541921 0.0149757 0.
0.543941 0.014987 0.
0.545951 0.0149923 0.
0.547958 0.0149957 0.
0.549964 0.014999 0.
0.551967 0.0149996 0.
0.55397 0.0150001 0.
0.555972 0.0150006 0.
0.557974 0.0150012 0.
0.559976 0.0150017 0.
0.561978 0.0150023 0.
0.56398 0.0150028 0.
0.565982 0.0150033 0.
0.567984 0.0150037 0.
0.569986 0.0150041 0.
0.571988 0.0150044 0.
0.573989 0.0150051 0.
0.575989 0.0150057 0.
0.57799 0.0150064 0.
0.579991 0.0150066 0.
0.581992 0.0150068 0.
0.583993 0.0150071 0.
0.585994 0.0150074 0.
0.587995 0.0150078 0.
0.589996 0.0150079 0.
0.591997 0.0150077 0.
0.593997 0.0150076 0.
0.595998 0.0150077 0.
0.597999 0.0150078 0.
0.6 0.0150079 0.
0.602002 0.0150081 0.
0.604003 0.0150082 0.
0.606004 0.0150084 0.
0.608004 0.0150084 0.
0.610005 0.0150085 0.
0.612006 0.0150083 0.
0.614007 0.0150077 0.
0.616008 0.0150071 0.
0.618009 0.0150068 0.
0.62001 0.0150066 0.
0.622012 0.0150064 0.
0.624012 0.0150058 0.
0.626013 0.0150053 0.
0.628014 0.0150047 0.
0.630016 0.0150042 0.
0.632018 0.0150036 0.
0.63402 0.0150031 0.
0.636022 0.0150028 0.
0.638024 0.0150025 0.
0.640026 0.0150018 0.
0.642028 0.0150009 0.
0.644031 0.015 0.
0.646034 0.0149991 0.
0.648037 0.0149982 0.
0.650041 0.0149972 0.
0.65205 0.0149922 0.
0.654059 0.0149872 0.
0.656073 0.0149792 0.
0.658101 0.0149623 0.
0.66013 0.0149454 0.
0.662171 0.0149232 0.
0.664225 0.0148953 0.
0.666279 0.0148674 0.
0.668399 0.0148121 0.
0.670536 0.014751 0.
0.672692 0.0146806 0.
0.675025 0.0144755 0.
0.677349 0.0142746 0.
0.679902 0.0140057 0.
0.682566 0.0137117 0.
0.685369 0.0132783 0.
0.688389 0.0126086 0.
0.691707 0.0118558 0.
0.695294 0.0109846 0.
0.699318 0.00999716 0.
0.703915 0.00854941 0.
0.708657 0.0066904 0.
0.713992 0.00468328 0.
0.720027 0.00233348 0.
0.475984 0.00224545 0.
0.482344 0.00466144 0.
0.487695 0.0067177 0.
0.492433 0.00886921 0.
0.497239 0.0106128 0.
0.501383 0.0119735 0.
0.505279 0.013087 0.
0.508801 0.0139382 0.
0.511992 0.014669 0.
0.514869 0.0152634 0.
0.517545 0.0156457 0.
0.52011 0.015921 0.
0.522593 0.0161772 0.
0.524898 0.0163861 0.
0.527214 0.0166001 0.
0.529382 0.0166874 0.
0.531532 0.0167627 0.
0.533666 0.0168317 0.
0.535728 0.0168637 0.
0.53779 0.0168958 0.
0.539839 0.0169223 0.
0.541874 0.0169436 0.
0.543909 0.016965 0.
0.545927 0.0169761 0.
0.54794 0.0169837 0.
0.549952 0.0169913 0.
0.551957 0.0169937 0.
0.553961 0.0169959 0.
0.555965 0.016998 0.
0.557969 0.0169992 0.
0.559972 0.0170004 0.
0.561975 0.0170013 0.
0.563977 0.017002 0.
0.565979 0.0170027 0.
0.567981 0.0170033 0.
0.569983 0.0170037 0.
0.571985 0.0170042 0.
0.573986 0.0170049 0.
0.575987 0.0170058 0.
0.577988 0.0170065 0.
0.57999 0.0170068 0.
0.581991 0.0170071 0.
0.583992 0.0170075 0.
0.585994 0.0170079 0.
0.587995 0.0170083 0.
0.589996 0.0170084 0.
0.591996 0.0170083 0.
0.593997 0.0170081 0.
0.595998 0.0170084 0.
0.597999 0.0170088 0.
0.6 0.0170091 0.
0.602002 0.0170091 0.
0.604003 0.0170091 0.
0.606004 0.017009 0.
0.608005 0.0170089 0.
0.610006 0.0170088 0.
0.612007 0.0170085 0.
0.614008 0.017008 0.
0.61601 0.0170075 0.
0.618011 0.017007 0.
0.620012 0.0170067 0.
0.622014 0.0170064 0.
0.624015 0.0170057 0.
0.626016 0.017005 0.
0.628017 0.0170043 0.
0.630019 0.0170037 0.
0.632021 0.017003 0.
0.634023 0.0170023 0.
0.636026 0.0170016 0.
0.638028 0.0170008 0.
0.640031 0.0169996 0.
0.642035 0.0169979 0.
0.644039 0.0169963 0.
0.646045 0.0169932 0.
0.648051 0.0169898 0.
0.650057 0.0169861 0.
0.652075 0.0169754 0.
0.654092 0.0169648 0.
0.656117 0.0169495 0.
0.658162 0.0169213 0.
0.660208 0.0168932 0.
0.662272 0.0168603 0.
0.664353 0.0168221 0.
0.666433 0.0167842 0.
0.668625 0.0166751 0.
0.670835 0.0165575 0.
0.673077 0.016425 0.
0.675462 0.0161759 0.
0.677833 0.0159363 0.
0.680519 0.0155737 0.
0.683264 0.0152126 0.
0.686223 0.014597 0.
0.689318 0.0137878 0.
0.692868 0.0128286 0.
0.696683 0.0117864 0.
0.700845 0.0106093 0.
0.70559 0.00890162 0.
0.710596 0.00686947 0.
0.716194 0.00474896 0.
0.722669 0.00235249 0.
0.473253 0.00221663 0.
0.480011 0.00474071 0.
0.485671 0.00678145 0.
0.490576 0.00901918 0.
0.495479 0.0109443 0.
0.499871 0.0126285 0.
0.503946 0.0139645 0.
0.507654 0.0149763 0.
0.511004 0.0158412 0.
0.513961 0.0165466 0.
0.516842 0.0171313 0.
0.519495 0.0175012 0.
0.522118 0.0178657 0.
0.524495 0.0181239 0.
0.526884 0.0183883 0.
0.529133 0.0185293 0.
0.531347 0.0186516 0.
0.533543 0.0187646 0.
0.535626 0.0188043 0.
0.53771 0.0188441 0.
0.539777 0.0188795 0.
0.541827 0.018911 0.
0.543877 0.0189427 0.
0.545904 0.0189598 0.
0.547922 0.0189716 0.
0.54994 0.0189835 0.
0.551946 0.0189877 0.
0.553953 0.0189918 0.
0.555959 0.0189954 0.
0.557963 0.0189972 0.
0.559967 0.018999 0.
0.561971 0.0190004 0.
0.563973 0.0190012 0.
0.565976 0.0190021 0.
0.567979 0.0190028 0.
0.569981 0.0190033 0.
0.571983 0.0190039 0.
0.573984 0.0190048 0.
0.575985 0.0190058 0.
0.577987 0.0190067 0.
0.579988 0.0190071 0.
0.58199 0.0190074 0.
0.583991 0.0190079 0.
0.585993 0.0190083 0.
0.587994 0.0190088 0.
0.589995 0.019009 0.
0.591996 0.0190088 0.
0.593997 0.0190086 0.
0.595998 0.0190091 0.
0.597999 0.0190097 0.
0.6 0.0190104 0.
0.602002 0.0190101 0.
0.604003 0.0190099 0.
0.606004 0.0190097 0.
0.608005 0.0190094 0.
0.610007 0.0190091 0.
0.612008 0.0190088 0.
0.614009 0.0190083 0.
0.616011 0.0190078 0.
0.618013 0.0190073 0.
0.620014 0.0190068 0.
0.622016 0.0190064 0.
0.624017 0.0190056 0.
0.626018 0.0190048 0.
0.628019 0.019004 0.
0.630021 0.0190032 0.
0.632024 0.0190024 0.
0.634026 0.0190014 0.
0.63603 0.0190003 0.
0.638033 0.0189992 0.
0.640037 0.0189973 0.
0.642042 0.0189949 0.
0.644047 0.0189925 0.
0.646055 0.0189872 0.
0.648064 0.0189813 0.
0.650074 0.018975 0.
0.6521 0.0189586 0.
0.654125 0.0189422 0.
0.656161 0.0189194 0.
0.658224 0.0188796 0.
0.660287 0.0188401 0.
0.662376 0.0187958 0.
0.664485 0.0187466 0.
0.666594 0.0186978 0.
0.668872 0.0185248 0.
0.671162 0.0183444 0.
0.673503 0.0181411 0.
0.675962 0.0178327 0.
0.678443 0.0175174 0.
0.681258 0.0170287 0.
0.684128 0.0165196 0.
0.68722 0.0156938 0.
0.6904 0.0148033 0.
0.694074 0.0137308 0.
0.698135 0.0124904 0.
0.702496 0.0110293 0.
0.707343 0.00917523 0.
0.712478 0.00699879 0.
0.718318 0.00487849 0.
0.725246 0.00236908 0.
0.470446 0.00222661 0.
0.477797 0.00486129 0.
0.483699 0.00687325 0.
0.488822 0.00915662 0.
0.493793 0.0112326 0.
0.4983 0.0131085 0.
0.502483 0.0146421 0.
0.506357 0.0158329 0.
0.509851 0.0168977 0.
0.513004 0.0177736 0.
0.516092 0.0185596 0.
0.51887 0.0190507 0.
0.521614 0.0195291 0.
0.524096 0.0198363 0.
0.526548 0.0201375 0.
0.528871 0.0203352 0.
0.531142 0.0205108 0.
0.533399 0.02068 0.
0.535506 0.0207284 0.
0.537615 0.0207772 0.
0.539704 0.020823 0.
0.541768 0.0208668 0.
0.543833 0.0209109 0.
0.54587 0.020936 0.
0.547896 0.0209537 0.
0.549922 0.0209716 0.
0.551932 0.0209784 0.
0.553942 0.0209849 0.
0.55595 0.0209907 0.
0.557956 0.0209935 0.
0.559962 0.0209962 0.
0.561966 0.0209983 0.
0.56397 0.0209995 0.
0.565973 0.0210007 0.
0.567976 0.0210016 0.
0.569978 0.0210023 0.
0.571981 0.0210031 0.
0.573982 0.0210041 0.
0.575983 0.0210051 0.
0.577985 0.0210061 0.
0.579987 0.0210066 0.
0.581988 0.0210071 0.
0.58399 0.0210076 0.
0.585992 0.0210082 0.
0.587993 0.0210087 0.
0.589995 0.0210089 0.
0.591996 0.0210088 0.
0.593997 0.0210088 0.
0.595998 0.0210093 0.
0.597999 0.0210101 0.
0.6 0.0210108 0.
0.602002 0.0210105 0.
0.604003 0.0210102 0.
0.606005 0.0210098 0.
0.608006 0.0210094 0.
0.610007 0.0210089 0.
0.612009 0.0210085 0.
0.614011 0.0210079 0.
0.616012 0.0210074 0.
0.618014 0.0210069 0.
0.620016 0.0210063 0.
0.622018 0.0210058 0.
0.624019 0.0210049 0.
0.62602 0.021004 0.
0.628021 0.021003 0.
0.630024 0.021002 0.
0.632027 0.0210009 0.
0.63403 0.0209997 0.
0.636034 0.020998 0.
0.638038 0.0209964 0.
0.640044 0.0209935 0.
0.642051 0.0209899 0.
0.644058 0.0209862 0.
0.64607 0.020978 0.
0.648083 0.0209686 0.
0.650097 0.0209587 0.
0.652133 0.020934 0.
0.65417 0.0209095 0.
0.656219 0.0208771 0.
0.6583 0.0208249 0.
0.66038 0.0207731 0.
0.662498 0.0207118 0.
0.664641 0.0206446 0.
0.666785 0.0205774 0.
0.669137 0.020337 0.
0.671495 0.0200969 0.
0.673927 0.0198255 0.
0.67646 0.0194668 0.
0.679083 0.0190627 0.
0.682009 0.0184493 0.
0.685057 0.0177233 0.
0.688271 0.0167156 0.
0.691663 0.0156501 0.
0.695342 0.0145311 0.
0.699574 0.0131154 0.
0.704143 0.0113409 0.
0.709088 0.0093602 0.
0.714337 0.00709058 0.
0.720459 0.0049981 0.
0.728184 0.00235266 0.
0.467316 0.00232122 0.
0.475718 0.00498262 0.
0.481895 0.00701895 0.
0.487152 0.00930079 0.
0.492193 0.0114925 0.
0.496799 0.0135109 0.
0.501082 0.0152172 0.
0.505135 0.0166385 0.
0.508736 0.0178583 0.
0.512112 0.0189424 0.
0.515352 0.0198654 0.
0.518269 0.020464 0.
0.521093 0.0210071 0.
0.523673 0.0214035 0.
0.526183 0.0217819 0.
0.528582 0.0220689 0.
0.530903 0.022319 0.
0.533221 0.0225675 0.
0.535361 0.0226298 0.
0.537501 0.0226908 0.
0.539617 0.0227501 0.
0.541697 0.022809 0.
0.543777 0.0228684 0.
0.545826 0.022904 0.
0.547863 0.0229296 0.
0.5499 0.0229553 0.
0.551914 0.0229656 0.
0.553927 0.0229753 0.
0.55594 0.0229839 0.
0.557947 0.022988 0.
0.559955 0.0229921 0.
0.561961 0.0229952 0.
0.563965 0.0229968 0.
0.565969 0.0229985 0.
0.567973 0.0229998 0.
0.569976 0.0230007 0.
0.571979 0.0230017 0.
0.57398 0.0230028 0.
0.575982 0.0230038 0.
0.577983 0.0230049 0.
0.579985 0.0230055 0.
0.581987 0.0230061 0.
0.583989 0.0230068 0.
0.585991 0.0230074 0.
0.587993 0.023008 0.
0.589994 0.0230083 0.
0.591995 0.0230084 0.
0.593997 0.0230085 0.
0.595998 0.023009 0.
0.597999 0.0230097 0.
0.6 0.0230104 0.
0.602002 0.0230101 0.
0.604004 0.0230098 0.
0.606005 0.0230094 0.
0.608007 0.0230088 0.
0.610008 0.0230082 0.
0.61201 0.0230076 0.
0.614012 0.023007 0.
0.616014 0.0230064 0.
0.618016 0.0230058 0.
0.620018 0.0230052 0.
0.62202 0.0230046 0.
0.624021 0.0230036 0.
0.626022 0.0230025 0.
0.628024 0.0230015 0.
0.630027 0.0230001 0.
0.632031 0.0229987 0.
0.634035 0.022997 0.
0.636039 0.0229946 0.
0.638044 0.0229923 0.
0.640052 0.0229882 0.
0.642062 0.0229827 0.
0.644072 0.0229773 0.
0.646089 0.0229652 0.
0.648107 0.0229516 0.
0.650126 0.0229369 0.
0.652176 0.0229011 0.
0.654226 0.0228655 0.
0.656292 0.022821 0.
0.658392 0.0227549 0.
0.660492 0.0226893 0.
0.662649 0.0225992 0.
0.664837 0.0224983 0.
0.667036 0.0223894 0.
0.669436 0.0220674 0.
0.671836 0.0217506 0.
0.674372 0.0213858 0.
0.676984 0.0209613 0.
0.679733 0.0204469 0.
0.682693 0.0197896 0.
0.685919 0.0188526 0.
0.689248 0.0176971 0.
0.692855 0.0164547 0.
0.696663 0.0151687 0.
0.700938 0.0136794 0.
0.705654 0.0116457 0.
0.710701 0.0095596 0.
0.716078 0.00722604 0.
0.722404 0.00516052 0.
0.73125 0.00242824 0.
0.464687 0.00258822 0.
0.473934 0.00516679 0.
0.480238 0.00723002 0.
0.485648 0.0094724 0.
0.490747 0.0117453 0.
0.495389 0.0138802 0.
0.499757 0.0157418 0.
0.503894 0.0173239 0.
0.507633 0.0187338 0.
0.511188 0.0199795 0.
0.514481 0.0209776 0.
0.517584 0.0217724 0.
0.520515 0.0224316 0.
0.523231 0.0229529 0.
0.525804 0.0234111 0.
0.528284 0.0237926 0.
0.530657 0.0241182 0.
0.533033 0.0244476 0.
0.535213 0.0245304 0.
0.537385 0.0246036 0.
0.539529 0.0246764 0.
0.541624 0.0247507 0.
0.54372 0.0248255 0.
0.545782 0.0248719 0.
0.54783 0.0249054 0.
0.549877 0.024939 0.
0.551896 0.0249528 0.
0.553913 0.0249657 0.
0.555929 0.0249771 0.
0.557939 0.0249825 0.
0.559948 0.0249879 0.
0.561956 0.024992 0.
0.563961 0.0249942 0.
0.565966 0.0249964 0.
0.56797 0.0249979 0.
0.569973 0.0249991 0.
0.571977 0.0250003 0.
0.573978 0.0250014 0.
0.57598 0.0250025 0.
0.577981 0.0250036 0.
0.579983 0.0250044 0.
0.581985 0.0250051 0.
0.583987 0.0250059 0.
0.58599 0.0250066 0.
0.587992 0.0250073 0.
0.589993 0.0250077 0.
0.591995 0.025008 0.
0.593996 0.0250082 0.
0.595998 0.0250088 0.
0.597999 0.0250094 0.
0.6 0.02501 0.
0.602002 0.0250097 0.
0.604004 0.0250094 0.
0.606006 0.025009 0.
0.608008 0.0250083 0.
0.610009 0.0250075 0.
0.612011 0.0250068 0.
0.614013 0.0250061 0.
0.616015 0.0250054 0.
0.618018 0.0250047 0.
0.62002 0.0250041 0.
0.622022 0.0250034 0.
0.624023 0.0250023 0.
0.626025 0.0250011 0.
0.628026 0.0249999 0.
0.63003 0.0249982 0.
0.632034 0.0249964 0.
0.634039 0.0249943 0.
0.636045 0.0249913 0.
0.638051 0.0249883 0.
0.640061 0.0249828 0.
0.642073 0.0249756 0.
0.644086 0.0249684 0.
0.646107 0.0249524 0.
0.648131 0.0249344 0.
0.650156 0.0249148 0.
0.65222 0.0248679 0.
0.654283 0.0248213 0.
0.656365 0.0247644 0.
0.658486 0.0246844 0.
0.660606 0.024605 0.
0.662805 0.0244831 0.
0.665037 0.0243479 0.
0.667295 0.0241914 0.
0.669743 0.0237871 0.
0.672186 0.0233931 0.
0.674846 0.0229258 0.
0.677556 0.022421 0.
0.680482 0.0217163 0.
0.683515 0.0209259 0.
0.686817 0.0198436 0.
0.690261 0.0186017 0.
0.694001 0.0172188 0.
0.697981 0.015735 0.
0.702326 0.0140956 0.
0.707097 0.0119387 0.
0.712192 0.00976223 0.
0.717663 0.00743348 0.
0.724162 0.00534665 0.
0.73381 0.00265187 0.
0.46314 0.00305012 0.
0.472501 0.00546549 0.
0.478838 0.00753397 0.
0.484347 0.00972503 0.
0.489417 0.0120195 0.
0.494089 0.0142553 0.
0.498503 0.0162114 0.
0.502663 0.0179319 0.
0.506541 0.0195163 0.
0.510195 0.0209029 0.
0.513586 0.0220376 0.
0.516868 0.0230464 0.
0.519897 0.0238106 0.
0.522759 0.0244654 0.
0.525372 0.0249872 0.
0.527913 0.0254483 0.
0.530316 0.0258215 0.
0.532731 0.0262012 0.
0.534972 0.0263387 0.
0.53719 0.0264524 0.
0.539379 0.0265607 0.
0.541496 0.0266497 0.
0.543615 0.0267395 0.
0.545699 0.0268022 0.
0.547765 0.0268515 0.
0.549832 0.0269012 0.
0.551859 0.0269229 0.
0.553884 0.0269428 0.
0.555907 0.0269606 0.
0.557921 0.0269688 0.
0.559935 0.0269771 0.
0.561946 0.0269836 0.
0.563953 0.0269876 0.
0.56596 0.0269917 0.
0.567966 0.0269944 0.
0.56997 0.0269964 0.
0.571974 0.0269985 0.
0.573976 0.0269999 0.
0.575977 0.0270012 0.
0.577979 0.0270024 0.
0.579981 0.0270032 0.
0.581984 0.027004 0.
0.583986 0.0270048 0.
0.585989 0.0270057 0.
0.587991 0.0270065 0.
0.589993 0.0270071 0.
0.591994 0.0270075 0.
0.593996 0.0270079 0.
0.595998 0.0270086 0.
0.597999 0.0270093 0.
0.6 0.02701 0.
0.602002 0.0270095 0.
0.604004 0.027009 0.
0.606006 0.0270084 0.
0.608008 0.0270076 0.
0.61001 0.0270069 0.
0.612012 0.0270061 0.
0.614014 0.0270053 0.
0.616017 0.0270045 0.
0.618019 0.0270037 0.
0.620022 0.027003 0.
0.622024 0.0270022 0.
0.624026 0.0270007 0.
0.626028 0.0269992 0.
0.62803 0.0269974 0.
0.630034 0.0269947 0.
0.632039 0.0269919 0.
0.634045 0.0269881 0.
0.636054 0.0269826 0.
0.638063 0.026977 0.
0.640078 0.0269684 0.
0.642096 0.0269576 0.
0.644115 0.0269468 0.
0.646146 0.0269228 0.
0.64818 0.0268959 0.
0.650218 0.0268661 0.
0.652303 0.0267993 0.
0.654387 0.0267333 0.
0.656497 0.0266572 0.
0.65865 0.0265599 0.
0.6608 0.0264639 0.
0.663049 0.0262924 0.
0.665327 0.0261074 0.
0.667652 0.025881 0.
0.670131 0.0254235 0.
0.672598 0.0249808 0.
0.675368 0.0244298 0.
0.678182 0.0238356 0.
0.681268 0.0229279 0.
0.68442 0.0219622 0.
0.687791 0.0207148 0.
0.691301 0.0194072 0.
0.695114 0.0179422 0.
0.699237 0.0162828 0.
0.70364 0.0144569 0.
0.708437 0.0122373 0.
0.713572 0.00997503 0.
0.719057 0.00775404 0.
0.725607 0.00560291 0.
0.735289 0.00308998 0.
0.462445 0.00371649 0.
0.471317 0.00588775 0.
0.477605 0.00790723 0.
0.483143 0.0100305 0.
0.48818 0.0123238 0.
0.492845 0.0146092 0.
0.497273 0.0166452 0.
0.501492 0.0185058 0.
0.505474 0.0202305 0.
0.50917 0.0217469 0.
0.512674 0.0230341 0.
0.516096 0.0242268 0.
0.519185 0.0250781 0.
0.522139 0.0258572 0.
0.524795 0.0264521 0.
0.527453 0.0270394 0.
0.529915 0.0274729 0.
0.532385 0.0279112 0.
0.534703 0.0281199 0.
0.536976 0.0282848 0.
0.539218 0.0284391 0.
0.541361 0.0285441 0.
0.543506 0.02865 0.
0.545613 0.02873 0.
0.547699 0.0287959 0.
0.549786 0.0288626 0.
0.551822 0.0288925 0.
0.553855 0.0289196 0.
0.555885 0.0289439 0.
0.557904 0.0289551 0.
0.559922 0.0289662 0.
0.561937 0.0289752 0.
0.563946 0.0289811 0.
0.565955 0.0289869 0.
0.567962 0.0289909 0.
0.569966 0.0289937 0.
0.571971 0.0289966 0.
0.573973 0.0289983 0.
0.575975 0.0289998 0.
0.577977 0.0290012 0.
0.57998 0.0290021 0.
0.581982 0.0290029 0.
0.583985 0.0290038 0.
0.585987 0.0290048 0.
0.58799 0.0290057 0.
0.589992 0.0290065 0.
0.591994 0.0290071 0.
0.593996 0.0290076 0.
0.595998 0.0290084 0.
0.597999 0.0290092 0.
0.6 0.02901 0.
0.602002 0.0290092 0.
0.604004 0.0290085 0.
0.606006 0.0290078 0.
0.608009 0.029007 0.
0.610011 0.0290062 0.
0.612013 0.0290054 0.
0.614016 0.0290045 0.
0.616018 0.0290035 0.
0.618021 0.0290027 0.
0.620023 0.0290018 0.
0.622026 0.029001 0.
0.624028 0.0289991 0.
0.62603 0.0289972 0.
0.628033 0.028995 0.
0.630039 0.0289911 0.
0.632044 0.0289873 0.
0.634052 0.0289819 0.
0.636064 0.0289738 0.
0.638076 0.0289657 0.
0.640095 0.0289539 0.
0.64212 0.0289395 0.
0.644144 0.0289251 0.
0.646185 0.0288927 0.
0.64823 0.0288567 0.
0.650281 0.0288159 0.
0.652389 0.0287282 0.
0.654496 0.0286415 0.
0.656638 0.0285443 0.
0.658828 0.0284269 0.
0.661014 0.028311 0.
0.663324 0.0280767 0.
0.665656 0.0278318 0.
0.668072 0.0275145 0.
0.670622 0.0269815 0.
0.6732 0.02644 0.
0.676021 0.0257871 0.
0.678916 0.0250889 0.
0.682086 0.0240598 0.
0.685362 0.0229157 0.
0.688771 0.0215497 0.
0.692377 0.020128 0.
0.69624 0.0185919 0.
0.700433 0.0168221 0.
0.704894 0.0148175 0.
0.709644 0.0125696 0.
0.714765 0.0102673 0.
0.720262 0.00812897 0.
0.726741 0.00600202 0.
0.735969 0.00375044 0.
0.462242 0.00458666 0.
0.470343 0.00642413 0.
0.476518 0.00833066 0.
0.482031 0.0103871 0.
0.487006 0.0126514 0.
0.491665 0.014956 0.
0.496109 0.0170783 0.
0.500386 0.0190582 0.
0.504415 0.0208783 0.
0.508156 0.0225184 0.
0.511765 0.0239635 0.
0.515219 0.0252209 0.
0.518374 0.0262079 0.
0.521419 0.0271557 0.
0.524197 0.0278882 0.
0.526964 0.0286007 0.
0.529513 0.0291121 0.
0.532041 0.0296048 0.
0.534438 0.029884 0.
0.536758 0.0300987 0.
0.539053 0.0303048 0.
0.54122 0.0304244 0.
0.54339 0.0305454 0.
0.54552 0.0306434 0.
0.547624 0.030728 0.
0.549729 0.030814 0.
0.551777 0.0308544 0.
0.553819 0.0308902 0.
0.555858 0.0309225 0.
0.557882 0.0309372 0.
0.559905 0.0309518 0.
0.561924 0.0309638 0.
0.563936 0.0309721 0.
0.565948 0.0309803 0.
0.567956 0.0309858 0.
0.569962 0.0309899 0.
0.571968 0.030994 0.
0.57397 0.0309961 0.
0.575973 0.0309979 0.
0.577975 0.0309996 0.
0.579978 0.0310005 0.
0.581981 0.0310015 0.
0.583984 0.0310025 0.
0.585986 0.0310036 0.
0.587989 0.0310046 0.
0.589991 0.0310055 0.
0.591993 0.0310062 0.
0.593995 0.0310069 0.
0.595997 0.0310077 0.
0.597999 0.0310085 0.
0.6 0.0310093 0.
0.602003 0.0310085 0.
0.604005 0.0310076 0.
0.606007 0.0310068 0.
0.608009 0.031006 0.
0.610012 0.0310052 0.
0.612014 0.0310043 0.
0.614017 0.0310033 0.
0.616019 0.0310023 0.
0.618022 0.0310013 0.
0.620025 0.0310002 0.
0.622028 0.0309992 0.
0.624031 0.0309968 0.
0.626034 0.0309944 0.
0.628037 0.0309915 0.
0.630044 0.0309862 0.
0.632051 0.0309808 0.
0.634061 0.0309733 0.
0.636077 0.030962 0.
0.638093 0.0309506 0.
0.640118 0.030935 0.
0.642148 0.0309164 0.
0.644178 0.0308978 0.
0.646232 0.0308545 0.
0.648289 0.0308069 0.
0.650354 0.0307525 0.
0.652483 0.0306434 0.
0.654611 0.0305356 0.
0.656784 0.0304146 0.
0.659009 0.030276 0.
0.661231 0.0301413 0.
0.663599 0.0298455 0.
0.665983 0.0295412 0.
0.668497 0.0291286 0.
0.671121 0.0285219 0.
0.673823 0.0278611 0.
0.676715 0.0270782 0.
0.679738 0.0261857 0.
0.682938 0.0250723 0.
0.686296 0.023811 0.
0.689757 0.0223463 0.
0.693461 0.0208062 0.
0.697381 0.0191681 0.
0.701588 0.0173103 0.
0.70606 0.0151855 0.
0.710781 0.0129226 0.
0.715859 0.0106121 0.
0.721329 0.00854927 0.
0.727676 0.00650511 0.
0.735979 0.00465025 0.
0.462331 0.00561224 0.
0.469553 0.0070678 0.
0.475563 0.00881931 0.
0.481004 0.0108053 0.
0.485936 0.0130293 0.
0.490589 0.0153361 0.
0.49504 0.01753 0.
0.499341 0.0195974 0.
0.5034 0.0214874 0.
0.507215 0.0232643 0.
0.510879 0.024832 0.
0.514334 0.0261354 0.
0.517605 0.027301 0.
0.520726 0.0283991 0.
0.523637 0.0292891 0.
0.526482 0.0300785 0.
0.529109 0.0306504 0.
0.531679 0.0311837 0.
0.534144 0.0315526 0.
0.536512 0.0318466 0.
0.538869 0.0321365 0.
0.541063 0.0322746 0.
0.54326 0.0324141 0.
0.545416 0.0325344 0.
0.547537 0.032643 0.
0.549659 0.0327531 0.
0.551721 0.0328068 0.
0.553775 0.0328534 0.
0.555825 0.0328958 0.
0.557855 0.0329147 0.
0.559884 0.0329337 0.
0.561908 0.0329494 0.
0.563923 0.0329605 0.
0.565939 0.0329716 0.
0.567949 0.0329792 0.
0.569956 0.032985 0.
0.571964 0.0329907 0.
0.573967 0.0329933 0.
0.57597 0.0329954 0.
0.577974 0.0329975 0.
0.579977 0.0329986 0.
0.58198 0.0329998 0.
0.583983 0.033001 0.
0.585985 0.0330021 0.
0.587988 0.0330032 0.
0.589991 0.0330041 0.
0.591993 0.033005 0.
0.593995 0.0330058 0.
0.595997 0.0330066 0.
0.597999 0.0330074 0.
0.6 0.0330082 0.
0.602003 0.0330073 0.
0.604005 0.0330064 0.
0.606008 0.0330054 0.
0.60801 0.0330046 0.
0.610012 0.0330037 0.
0.612015 0.0330028 0.
0.614018 0.0330018 0.
0.61602 0.0330008 0.
0.618024 0.0329995 0.
0.620027 0.0329981 0.
0.62203 0.0329967 0.
0.624034 0.0329938 0.
0.626038 0.0329907 0.
0.628043 0.0329871 0.
0.630051 0.0329797 0.
0.63206 0.0329723 0.
0.634073 0.0329621 0.
0.636094 0.0329468 0.
0.638114 0.0329316 0.
0.640145 0.0329114 0.
0.642182 0.0328878 0.
0.644219 0.0328643 0.
0.646287 0.0328065 0.
0.64836 0.0327435 0.
0.650442 0.0326713 0.
0.652592 0.0325381 0.
0.654739 0.0324065 0.
0.656946 0.0322475 0.
0.659206 0.0320657 0.
0.661469 0.0318835 0.
0.663899 0.031518 0.
0.666328 0.0311541 0.
0.668924 0.0306455 0.
0.671586 0.0299985 0.
0.674402 0.0292302 0.
0.677361 0.0283394 0.
0.680515 0.0272561 0.
0.683769 0.0260454 0.
0.687195 0.0246565 0.
0.690723 0.0231123 0.
0.694469 0.021485 0.
0.698481 0.0197192 0.
0.702715 0.017765 0.
0.707142 0.0155733 0.
0.711825 0.0133123 0.
0.716864 0.0110124 0.
0.722259 0.00903384 0.
0.728436 0.00711432 0.
0.735754 0.00572251 0.
0.46266 0.00671894 0.
0.469043 0.00782055 0.
0.474825 0.00939893 0.
0.480143 0.0113195 0.
0.485016 0.01348 0.
0.489627 0.0157697 0.
0.494063 0.018014 0.
0.498365 0.0201155 0.
0.502447 0.0220864 0.
0.506325 0.0239915 0.
0.50999 0.0256423 0.
0.513485 0.0270332 0.
0.516865 0.0283538 0.
0.520032 0.0295508 0.
0.52302 0.0305571 0.
0.525904 0.0314261 0.
0.528647 0.0321262 0.
0.531286 0.0327357 0.
0.533838 0.0332087 0.
0.536258 0.033584 0.
0.538677 0.033963 0.
0.540904 0.0341233 0.
0.543128 0.0342816 0.
0.54531 0.0344242 0.
0.547449 0.0345568 0.
0.549589 0.0346912 0.
0.551664 0.034759 0.
0.55373 0.0348164 0.
0.555793 0.034869 0.
0.557828 0.0348922 0.
0.559863 0.0349155 0.
0.561892 0.034935 0.
0.563911 0.0349489 0.
0.56593 0.0349629 0.
0.567942 0.0349726 0.
0.569951 0.03498 0.
0.57196 0.0349874 0.
0.573964 0.0349905 0.
0.575968 0.034993 0.
0.577972 0.0349954 0.
0.579975 0.0349967 0.
0.581978 0.0349981 0.
0.583982 0.0349994 0.
0.585984 0.0350006 0.
0.587987 0.0350017 0.
0.58999 0.0350027 0.
0.591992 0.0350037 0.
0.593994 0.0350047 0.
0.595996 0.0350055 0.
0.597998 0.0350063 0.
0.6 0.035007 0.
0.602003 0.0350061 0.
0.604006 0.0350051 0.
0.606009 0.0350041 0.
0.608011 0.0350032 0.
0.610013 0.0350022 0.
0.612016 0.0350012 0.
0.614019 0.0350002 0.
0.616021 0.0349992 0.
0.618025 0.0349977 0.
0.620029 0.034996 0.
0.622032 0.0349942 0.
0.624037 0.0349907 0.
0.626042 0.0349871 0.
0.628048 0.0349827 0.
0.630059 0.0349733 0.
0.632069 0.0349639 0.
0.634085 0.0349509 0.
0.63611 0.0349316 0.
0.638135 0.0349124 0.
0.640172 0.0348877 0.
0.642216 0.0348591 0.
0.644261 0.0348307 0.
0.646344 0.034758 0.
0.648431 0.0346796 0.
0.650532 0.0345891 0.
0.652701 0.0344316 0.
0.654868 0.034276 0.
0.657112 0.0340758 0.
0.659407 0.03385 0.
0.661718 0.0336185 0.
0.664211 0.0331785 0.
0.666696 0.0327456 0.
0.669401 0.03211 0.
0.672131 0.031378 0.
0.67503 0.0304765 0.
0.678006 0.0295327 0.
0.68127 0.0282913 0.
0.684586 0.0269915 0.
0.688051 0.0254716 0.
0.691647 0.0238526 0.
0.695436 0.0221469 0.
0.699483 0.0202759 0.
0.70373 0.0182358 0.
0.708123 0.0160032 0.
0.712752 0.0137477 0.
0.717713 0.011503 0.
0.723 0.00960531 0.
0.728894 0.00783313 0.
0.735362 0.00684382 0.
0.463116 0.00784793 0.
0.468796 0.00868012 0.
0.474315 0.0100861 0.
0.479444 0.0119213 0.
0.484246 0.014014 0.
0.488822 0.0162823 0.
0.493217 0.018553 0.
0.497493 0.020665 0.
0.501584 0.0227026 0.
0.505502 0.0247175 0.
0.509148 0.0264363 0.
0.512681 0.0279242 0.
0.51613 0.0293503 0.
0.519306 0.0305939 0.
0.522374 0.0317739 0.
0.525308 0.0327456 0.
0.528168 0.0335825 0.
0.530868 0.0342614 0.
0.533504 0.0348368 0.
0.535956 0.0352684 0.
0.538411 0.0357145 0.
0.540679 0.0359129 0.
0.542935 0.0360997 0.
0.54515 0.0362728 0.
0.547311 0.0364269 0.
0.549475 0.036583 0.
0.551573 0.0366732 0.
0.553659 0.0367514 0.
0.555741 0.0368241 0.
0.557783 0.0368522 0.
0.559826 0.0368804 0.
0.561862 0.0369054 0.
0.563887 0.0369255 0.
0.565913 0.0369457 0.
0.56793 0.0369594 0.
0.569941 0.0369695 0.
0.571953 0.0369795 0.
0.573959 0.0369841 0.
0.575964 0.0369879 0.
0.577969 0.0369914 0.
0.579973 0.0369935 0.
0.581977 0.0369955 0.
0.58398 0.0369974 0.
0.585984 0.0369988 0.
0.587987 0.0370002 0.
0.589989 0.0370015 0.
0.591992 0.0370026 0.
0.593994 0.0370037 0.
0.595996 0.0370044 0.
0.597998 0.0370049 0.
0.600001 0.0370055 0.
0.602003 0.0370046 0.
0.604006 0.0370038 0.
0.606009 0.0370028 0.
0.608011 0.0370018 0.
0.610014 0.0370008 0.
0.612016 0.0369996 0.
0.61402 0.0369981 0.
0.616023 0.0369967 0.
0.618027 0.0369945 0.
0.620032 0.0369919 0.
0.622036 0.0369893 0.
0.624043 0.0369843 0.
0.626049 0.036979 0.
0.628057 0.0369727 0.
0.630072 0.0369598 0.
0.632086 0.0369469 0.
0.634108 0.0369287 0.
0.636141 0.0369017 0.
0.638173 0.0368747 0.
0.640218 0.036844 0.
0.642271 0.0368106 0.
0.644323 0.0367773 0.
0.646432 0.0366761 0.
0.648545 0.0365692 0.
0.650673 0.036452 0.
0.652865 0.0362764 0.
0.655053 0.0361028 0.
0.657338 0.0358535 0.
0.659667 0.0355801 0.
0.662025 0.0352941 0.
0.664548 0.0348067 0.
0.667099 0.0343052 0.
0.669901 0.033549 0.
0.67271 0.0327166 0.
0.675701 0.0316521 0.
0.678727 0.0305816 0.
0.682002 0.0292929 0.
0.685383 0.0278994 0.
0.688854 0.026287 0.
0.692501 0.0245833 0.
0.696326 0.0228091 0.
0.700386 0.0208648 0.
0.704613 0.0187544 0.
0.708972 0.0165049 0.
0.713521 0.0142702 0.
0.718392 0.0121004 0.
0.723517 0.0102706 0.
0.729111 0.00865879 0.
0.734911 0.00795092 0.
0.463626 0.00899989 0.
0.468768 0.00960675 0.
0.473969 0.0108665 0.
0.478909 0.0126117 0.
0.483629 0.0146377 0.
0.488145 0.016872 0.
0.49248 0.0191393 0.
0.496722 0.0212637 0.
0.500802 0.0233431 0.
0.504707 0.0254099 0.
0.508341 0.0272185 0.
0.511912 0.0288133 0.
0.515371 0.0302644 0.
0.518577 0.0316029 0.
0.52171 0.0329471 0.
0.524697 0.0340099 0.
0.527658 0.0349764 0.
0.530372 0.0356918 0.
0.533073 0.0363476 0.
0.53557 0.0368595 0.
0.538074 0.037394 0.
0.540407 0.0376632 0.
0.542708 0.0378944 0.
0.544971 0.0381096 0.
0.54716 0.0382873 0.
0.549353 0.0384674 0.
0.551477 0.0385823 0.
0.553585 0.0386834 0.
0.555687 0.0387782 0.
0.557738 0.0388115 0.
0.559788 0.0388448 0.
0.561832 0.0388753 0.
0.563864 0.0389017 0.
0.565896 0.0389283 0.
0.567917 0.0389461 0.
0.569931 0.0389589 0.
0.571946 0.0389717 0.
0.573953 0.0389777 0.
0.57596 0.0389827 0.
0.577966 0.0389875 0.
0.579971 0.0389902 0.
0.581975 0.0389929 0.
0.583979 0.0389953 0.
0.585983 0.0389971 0.
0.587986 0.0389988 0.
0.589989 0.0390003 0.
0.591991 0.0390015 0.
0.593994 0.0390027 0.
0.595996 0.0390033 0.
0.597998 0.0390036 0.
0.600001 0.039004 0.
0.602003 0.0390032 0.
0.604006 0.0390024 0.
0.606009 0.0390016 0.
0.608011 0.0390005 0.
0.610014 0.0389994 0.
0.612017 0.0389979 0.
0.614021 0.038996 0.
0.616025 0.0389942 0.
0.618029 0.0389912 0.
0.620035 0.0389878 0.
0.62204 0.0389844 0.
0.624048 0.0389778 0.
0.626057 0.038971 0.
0.628066 0.0389628 0.
0.630085 0.0389463 0.
0.632104 0.0389298 0.
0.634131 0.0389063 0.
0.636172 0.0388712 0.
0.638212 0.0388362 0.
0.640266 0.0387995 0.
0.642327 0.0387611 0.
0.644388 0.0387228 0.
0.646526 0.0385892 0.
0.648668 0.0384504 0.
0.650827 0.0383034 0.
0.653048 0.0381065 0.
0.655264 0.037912 0.
0.657613 0.0375958 0.
0.659997 0.0372587 0.
0.662437 0.0368828 0.
0.665013 0.0363052 0.
0.667612 0.0357168 0.
0.670427 0.0349251 0.
0.673317 0.0339851 0.
0.676375 0.032784 0.
0.679472 0.0315826 0.
0.682741 0.030235 0.
0.686129 0.0287772 0.
0.68962 0.0270964 0.
0.693308 0.0253087 0.
0.697136 0.0234805 0.
0.701176 0.0214807 0.
0.705372 0.0193304 0.
0.709699 0.0170802 0.
0.714156 0.0148772 0.
0.718929 0.0127828 0.
0.723875 0.0110262 0.
0.729154 0.0095759 0.
0.734423 0.00909455 0.
0.464109 0.0101473 0.
0.468847 0.0106049 0.
0.473747 0.0117225 0.
0.478503 0.0133798 0.
0.483129 0.0153359 0.
0.487551 0.0175177 0.
0.491843 0.0197749 0.
0.496039 0.0219077 0.
0.500066 0.0240008 0.
0.503931 0.0260971 0.
0.507573 0.0279915 0.
0.511172 0.0296816 0.
0.514603 0.0311518 0.
0.517856 0.0325875 0.
0.521037 0.0340493 0.
0.524077 0.035197 0.
0.527051 0.0362503 0.
0.529841 0.0370708 0.
0.532615 0.0378266 0.
0.53518 0.0384355 0.
0.537732 0.0390576 0.
0.540135 0.0394057 0.
0.542481 0.0396803 0.
0.544794 0.0399403 0.
0.547008 0.0401368 0.
0.549228 0.0403378 0.
0.551377 0.0404786 0.
0.553505 0.0406051 0.
0.555629 0.0407263 0.
0.557687 0.0407646 0.
0.559746 0.040803 0.
0.561797 0.0408393 0.
0.563836 0.0408728 0.
0.565875 0.0409064 0.
0.567901 0.0409292 0.
0.569918 0.0409454 0.
0.571936 0.0409616 0.
0.573946 0.0409695 0.
0.575954 0.0409762 0.
0.577962 0.0409825 0.
0.579967 0.040986 0.
0.581973 0.0409895 0.
0.583978 0.0409926 0.
0.585981 0.0409947 0.
0.587985 0.0409968 0.
0.589988 0.0409986 0.
0.591991 0.0409999 0.
0.593994 0.0410013 0.
0.595996 0.0410019 0.
0.597998 0.0410021 0.
0.600001 0.0410024 0.
0.602003 0.0410017 0.
0.604006 0.0410009 0.
0.606009 0.041 0.
0.608012 0.0409987 0.
0.610015 0.0409974 0.
0.612018 0.0409956 0.
0.614022 0.0409931 0.
0.616027 0.0409907 0.
0.618033 0.0409869 0.
0.620039 0.0409826 0.
0.622046 0.0409782 0.
0.624056 0.0409696 0.
0.626066 0.0409606 0.
0.628079 0.0409499 0.
0.630102 0.0409289 0.
0.632125 0.040908 0.
0.634158 0.0408785 0.
0.636207 0.0408352 0.
0.638255 0.0407921 0.
0.640319 0.0407478 0.
0.64239 0.0407024 0.
0.644461 0.0406573 0.
0.646625 0.040489 0.
0.648792 0.0403179 0.
0.650982 0.0401424 0.
0.653229 0.0399297 0.
0.655473 0.0397171 0.
0.657891 0.0393273 0.
0.660331 0.0389265 0.
0.66286 0.0384526 0.
0.665494 0.0377812 0.
0.668177 0.0370595 0.
0.671025 0.0361748 0.
0.673948 0.0351444 0.
0.677031 0.0338765 0.
0.680194 0.0325703 0.
0.683465 0.0311614 0.
0.686858 0.0296211 0.
0.69036 0.0278893 0.
0.694064 0.0260405 0.
0.697908 0.0241497 0.
0.701905 0.0221092 0.
0.706048 0.0199486 0.
0.710323 0.0177222 0.
0.7147 0.0155525 0.
0.719346 0.013536 0.
0.72413 0.0118571 0.
0.729097 0.0105558 0.
0.73396 0.0102183 0.
0.464555 0.011345 0.
0.468984 0.0116515 0.
0.473623 0.0126405 0.
0.478204 0.0142174 0.
0.482712 0.0160976 0.
0.487034 0.0182224 0.
0.491278 0.0204622 0.
0.495401 0.0225907 0.
0.499368 0.0246801 0.
0.5032 0.0268012 0.
0.506854 0.0287617 0.
0.510437 0.0305187 0.
0.51387 0.0320468 0.
0.517185 0.0335683 0.
0.520388 0.0350742 0.
0.52346 0.0363271 0.
0.526466 0.0374973 0.
0.529334 0.038436 0.
0.532173 0.0392772 0.
0.534807 0.0399629 0.
0.537377 0.0406321 0.
0.539834 0.0410644 0.
0.542222 0.041391 0.
0.544587 0.0417086 0.
0.546834 0.0419372 0.
0.549089 0.0421714 0.
0.551268 0.0423487 0.
0.553416 0.0425093 0.
0.555561 0.0426656 0.
0.557628 0.0427093 0.
0.559697 0.0427533 0.
0.561757 0.0427959 0.
0.563802 0.0428376 0.
0.565848 0.0428796 0.
0.56788 0.0429083 0.
0.569902 0.0429287 0.
0.571925 0.0429492 0.
0.573936 0.0429595 0.
0.575947 0.0429681 0.
0.577957 0.0429764 0.
0.579963 0.0429808 0.
0.58197 0.0429852 0.
0.583976 0.0429891 0.
0.58598 0.0429917 0.
0.587984 0.0429943 0.
0.589987 0.0429964 0.
0.59199 0.0429979 0.
0.593993 0.0429995 0.
0.595996 0.0430001 0.
0.597998 0.0430005 0.
0.6 0.0430009 0.
0.602003 0.043 0.
0.604006 0.0429991 0.
0.606009 0.0429981 0.
0.608012 0.0429965 0.
0.610016 0.0429949 0.
0.61202 0.0429926 0.
0.614024 0.0429895 0.
0.616029 0.0429863 0.
0.618037 0.0429816 0.
0.620045 0.0429761 0.
0.622053 0.0429706 0.
0.624065 0.0429595 0.
0.626078 0.0429478 0.
0.628094 0.042934 0.
0.630123 0.0429073 0.
0.632152 0.0428808 0.
0.634191 0.0428444 0.
0.636248 0.0427925 0.
0.638305 0.0427409 0.
0.640381 0.0426861 0.
0.642466 0.0426294 0.
0.644553 0.0425712 0.
0.646738 0.0423619 0.
0.648923 0.0421511 0.
0.651153 0.0419285 0.
0.653455 0.0416676 0.
0.655745 0.0414148 0.
0.658203 0.040971 0.
0.660673 0.0405255 0.
0.663269 0.0399686 0.
0.665955 0.0392289 0.
0.668715 0.0383832 0.
0.671594 0.0374122 0.
0.674574 0.0362456 0.
0.677666 0.0349265 0.
0.680864 0.0335554 0.
0.684145 0.0321015 0.
0.687557 0.0304607 0.
0.691068 0.0286802 0.
0.694773 0.0267874 0.
0.698617 0.0248417 0.
0.70258 0.0227691 0.
0.70667 0.0206061 0.
0.710892 0.0184149 0.
0.715172 0.0162931 0.
0.719671 0.0143624 0.
0.724293 0.0127609 0.
0.728988 0.0115905 0.
0.733526 0.0113411 0.
0.465012 0.0125355 0.
0.469223 0.0127307 0.
0.473636 0.0136395 0.
0.478046 0.0151395 0.
0.482396 0.0169369 0.
0.486625 0.0190024 0.
0.490794 0.0212103 0.
0.494831 0.0233208 0.
0.498755 0.0254086 0.
0.502539 0.0275386 0.
0.506176 0.0295419 0.
0.509752 0.0313608 0.
0.513199 0.0329476 0.
0.516543 0.0345306 0.
0.519748 0.036058 0.
0.522859 0.0374419 0.
0.525893 0.0387115 0.
0.52882 0.0397539 0.
0.531674 0.0406354 0.
0.534363 0.0414062 0.
0.536975 0.0421546 0.
0.539505 0.0426964 0.
0.541947 0.0430864 0.
0.544375 0.0434732 0.
0.546657 0.0437347 0.
0.548947 0.0440024 0.
0.551158 0.0442168 0.
0.553325 0.0444119 0.
0.555492 0.0446042 0.
0.55757 0.044654 0.
0.559647 0.0447034 0.
0.561716 0.0447523 0.
0.563769 0.0448023 0.
0.565822 0.0448526 0.
0.567859 0.0448873 0.
0.569886 0.044912 0.
0.571913 0.0449368 0.
0.573927 0.0449494 0.
0.575939 0.04496 0.
0.577951 0.0449702 0.
0.579959 0.0449756 0.
0.581967 0.044981 0.
0.583973 0.0449856 0.
0.585978 0.0449887 0.
0.587982 0.0449918 0.
0.589986 0.0449942 0.
0.591989 0.0449959 0.
0.593993 0.0449976 0.
0.595995 0.0449984 0.
0.597998 0.0449989 0.
0.6 0.0449994 0.
0.602003 0.0449984 0.
0.604007 0.0449973 0.
0.60601 0.0449961 0.
0.608013 0.0449943 0.
0.610016 0.0449925 0.
0.612021 0.0449897 0.
0.614027 0.0449858 0.
0.616032 0.0449819 0.
0.618041 0.0449762 0.
0.62005 0.0449696 0.
0.62206 0.0449631 0.
0.624075 0.0449494 0.
0.62609 0.044935 0.
0.628109 0.044918 0.
0.630143 0.0448857 0.
0.632178 0.0448536 0.
0.634225 0.0448101 0.
0.636289 0.0447496 0.
0.638354 0.0446894 0.
0.640443 0.0446239 0.
0.642543 0.0445558 0.
0.644646 0.0444833 0.
0.646851 0.0442325 0.
0.649055 0.0439819 0.
0.651331 0.0437094 0.
0.653689 0.0433982 0.
0.656042 0.0430882 0.
0.658546 0.0425796 0.
0.661055 0.0420769 0.
0.663726 0.0414094 0.
0.666437 0.0406101 0.
0.669254 0.0396701 0.
0.672153 0.0386289 0.
0.675178 0.0373384 0.
0.678281 0.0359573 0.
0.681503 0.0345327 0.
0.684798 0.0330381 0.
0.688201 0.0313159 0.
0.691721 0.0294751 0.
0.695425 0.0275538 0.
0.699245 0.0255737 0.
0.703161 0.0234914 0.
0.7072 0.0213305 0.
0.71136 0.0191785 0.
0.715534 0.017115 0.
0.719874 0.015274 0.
0.724311 0.0137528 0.
0.728774 0.0126777 0.
0.733057 0.0124938 0.
0.465531 0.0137489 0.
0.469557 0.0138661 0.
0.473762 0.0147191 0.
0.477996 0.0161368 0.
0.482185 0.0178517 0.
0.486325 0.0198635 0.
0.490395 0.0220224 0.
0.494346 0.02411 0.
0.49822 0.02619 0.
0.501972 0.0283235 0.
0.505596 0.0303651 0.
0.509141 0.0322268 0.
0.512578 0.0338618 0.
0.515935 0.0354754 0.
0.519146 0.0370478 0.
0.522285 0.0385416 0.
0.525328 0.0398662 0.
0.528279 0.0409973 0.
0.531152 0.041958 0.
0.533911 0.0428335 0.
0.536563 0.0436581 0.
0.539163 0.0443147 0.
0.541652 0.0447645 0.
0.544127 0.0452056 0.
0.546438 0.0454935 0.
0.548753 0.0457924 0.
0.550993 0.0460452 0.
0.553178 0.0462671 0.
0.555365 0.0464869 0.
0.557467 0.0465571 0.
0.559568 0.0466254 0.
0.561658 0.0466907 0.
0.563719 0.0467491 0.
0.56578 0.0468078 0.
0.567824 0.0468504 0.
0.569859 0.0468822 0.
0.571893 0.0469142 0.
0.573911 0.0469312 0.
0.575927 0.0469457 0.
0.577942 0.0469595 0.
0.579951 0.0469665 0.
0.581961 0.0469735 0.
0.583969 0.0469796 0.
0.585975 0.0469837 0.
0.58798 0.0469878 0.
0.589985 0.0469909 0.
0.591988 0.0469932 0.
0.593992 0.0469954 0.
0.595995 0.0469964 0.
0.597998 0.0469971 0.
0.600001 0.0469978 0.
0.602004 0.0469964 0.
0.604007 0.046995 0.
0.60601 0.0469934 0.
0.608014 0.0469909 0.
0.610018 0.0469884 0.
0.612024 0.0469846 0.
0.614031 0.0469793 0.
0.616038 0.0469741 0.
0.618048 0.0469666 0.
0.62006 0.0469582 0.
0.622072 0.0469497 0.
0.624091 0.0469316 0.
0.626111 0.0469126 0.
0.628134 0.0468902 0.
0.630178 0.0468486 0.
0.632222 0.0468073 0.
0.634278 0.0467545 0.
0.636352 0.046685 0.
0.638425 0.0466159 0.
0.640543 0.0465279 0.
0.642674 0.0464347 0.
0.644809 0.0463336 0.
0.64703 0.0460558 0.
0.649246 0.0457775 0.
0.651556 0.0454549 0.
0.65395 0.0450992 0.
0.656358 0.0447409 0.
0.6589 0.0441774 0.
0.661452 0.0436134 0.
0.66419 0.0428325 0.
0.666937 0.0419543 0.
0.669803 0.0408987 0.
0.672709 0.0398091 0.
0.675761 0.0384223 0.
0.678866 0.0369918 0.
0.682096 0.0355126 0.
0.685401 0.0339718 0.
0.688799 0.0321979 0.
0.692307 0.0302965 0.
0.695983 0.0283608 0.
0.699772 0.0263638 0.
0.703641 0.0242802 0.
0.707619 0.0221317 0.
0.711699 0.020023 0.
0.715782 0.0180235 0.
0.719962 0.0162622 0.
0.724199 0.014826 0.
0.728446 0.0138165 0.
0.732529 0.0136362 0.
0.466101 0.0149686 0.
0.469954 0.0150543 0.
0.473972 0.0158679 0.
0.478015 0.0171958 0.
0.482068 0.0188389 0.
0.486111 0.0207976 0.
0.49008 0.0229043 0.
0.493965 0.0249688 0.
0.497785 0.0270342 0.
0.501492 0.0291612 0.
0.505086 0.0312309 0.
0.508595 0.0331246 0.
0.512019 0.0347977 0.
0.515371 0.0364326 0.
0.51857 0.0380415 0.
0.521727 0.0396143 0.
0.524768 0.04098 0.
0.52775 0.0422279 0.
0.530642 0.0432591 0.
0.533463 0.0442322 0.
0.536139 0.0451052 0.
0.538775 0.0458423 0.
0.541288 0.0463384 0.
0.543807 0.0468493 0.
0.546165 0.0471965 0.
0.548514 0.0475493 0.
0.550798 0.0478553 0.
0.553008 0.0481063 0.
0.555222 0.0483561 0.
0.557354 0.0484518 0.
0.559484 0.0485427 0.
0.561598 0.0486275 0.
0.563667 0.0486946 0.
0.565736 0.0487619 0.
0.567789 0.0488126 0.
0.569831 0.0488518 0.
0.571873 0.0488912 0.
0.573895 0.0489128 0.
0.575914 0.0489312 0.
0.577932 0.0489487 0.
0.579944 0.0489573 0.
0.581955 0.048966 0.
0.583965 0.0489735 0.
0.585972 0.0489786 0.
0.587978 0.0489838 0.
0.589983 0.0489876 0.
0.591987 0.0489904 0.
0.593991 0.0489932 0.
0.595995 0.0489945 0.
0.597998 0.0489953 0.
0.600001 0.0489962 0.
0.602004 0.0489945 0.
0.604007 0.0489928 0.
0.606011 0.0489907 0.
0.608016 0.0489875 0.
0.61002 0.0489842 0.
0.612027 0.0489795 0.
0.614035 0.0489728 0.
0.616044 0.0489662 0.
0.618056 0.048957 0.
0.620071 0.0489466 0.
0.622085 0.0489363 0.
0.624108 0.0489137 0.
0.626132 0.04889 0.
0.62816 0.0488619 0.
0.630214 0.0488107 0.
0.632268 0.0487597 0.
0.634334 0.0486971 0.
0.636417 0.0486181 0.
0.6385 0.0485395 0.
0.640651 0.0484245 0.
0.642821 0.048301 0.
0.644997 0.0481654 0.
0.647246 0.0478577 0.
0.649489 0.0475502 0.
0.651838 0.0471568 0.
0.654253 0.0467299 0.
0.656706 0.0462943 0.
0.659288 0.0456929 0.
0.661876 0.0450872 0.
0.664651 0.0442285 0.
0.667444 0.0432615 0.
0.670348 0.0421076 0.
0.67328 0.0409227 0.
0.676315 0.0395036 0.
0.679433 0.0380344 0.
0.682655 0.0365032 0.
0.68595 0.0349024 0.
0.689338 0.0331066 0.
0.692835 0.0311552 0.
0.69646 0.029213 0.
0.700207 0.0272125 0.
0.70402 0.0251371 0.
0.707923 0.023009 0.
0.711922 0.0209441 0.
0.715922 0.0190109 0.
0.719959 0.0173177 0.
0.724009 0.0159611 0.
0.728039 0.0150205 0.
0.731921 0.0148274 0.
0.466681 0.0162049 0.
0.470386 0.0162907 0.
0.474215 0.0170592 0.
0.478096 0.0183099 0.
0.482035 0.0198932 0.
0.485969 0.0217933 0.
0.489835 0.023849 0.
0.493664 0.0258847 0.
0.497424 0.0279271 0.
0.501077 0.0300478 0.
0.504635 0.0321355 0.
0.508112 0.0340451 0.
0.511517 0.0357556 0.
0.51483 0.0374082 0.
0.518036 0.0390449 0.
0.521183 0.0406615 0.
0.524227 0.0420888 0.
0.527229 0.0434349 0.
0.530137 0.0445343 0.
0.532978 0.0455665 0.
0.535667 0.0464823 0.
0.53835 0.047316 0.
0.540914 0.0478961 0.
0.54348 0.0484818 0.
0.545892 0.0488909 0.
0.548276 0.0492973 0.
0.550604 0.0496612 0.
0.552841 0.0499391 0.
0.55508 0.0502123 0.
0.557241 0.0503343 0.
0.559395 0.0504504 0.
0.561531 0.0505585 0.
0.563608 0.0506336 0.
0.565687 0.050709 0.
0.567749 0.0507681 0.
0.569798 0.0508159 0.
0.571848 0.0508639 0.
0.573875 0.0508908 0.
0.575898 0.0509138 0.
0.57792 0.0509358 0.
0.579933 0.0509462 0.
0.581947 0.0509566 0.
0.583959 0.0509657 0.
0.585967 0.0509721 0.
0.587975 0.0509786 0.
0.589981 0.0509834 0.
0.591986 0.0509869 0.
0.59399 0.0509904 0.
0.595994 0.0509919 0.
0.597997 0.0509929 0.
0.600001 0.0509939 0.
0.602005 0.0509919 0.
0.604008 0.0509898 0.
0.606013 0.0509873 0.
0.608018 0.0509832 0.
0.610023 0.050979 0.
0.612031 0.050973 0.
0.614041 0.0509646 0.
0.616052 0.0509563 0.
0.618067 0.0509451 0.
0.620084 0.0509327 0.
0.622101 0.0509203 0.
0.624128 0.0508923 0.
0.626157 0.0508631 0.
0.628191 0.0508283 0.
0.630256 0.0507658 0.
0.63232 0.0507039 0.
0.634396 0.0506316 0.
0.636489 0.0505444 0.
0.63858 0.0504576 0.
0.640763 0.0503107 0.
0.642967 0.050155 0.
0.645181 0.0499877 0.
0.647459 0.0496551 0.
0.64973 0.0493199 0.
0.652118 0.0488472 0.
0.654554 0.0483495 0.
0.657065 0.0478349 0.
0.659704 0.0471716 0.
0.662359 0.0464721 0.
0.665138 0.0455495 0.
0.667947 0.0445284 0.
0.670884 0.0433025 0.
0.67384 0.0420283 0.
0.676862 0.0405659 0.
0.679965 0.039076 0.
0.683179 0.03751 0.
0.68647 0.0358416 0.
0.68983 0.0340322 0.
0.693304 0.0320488 0.
0.696882 0.0300984 0.
0.700574 0.02811 0.
0.704333 0.0260467 0.
0.708152 0.0239482 0.
0.712059 0.0219285 0.
0.71597 0.0200653 0.
0.719886 0.0184394 0.
0.723769 0.0171446 0.
0.727616 0.0162748 0.
0.731309 0.0160516 0.
0.467263 0.0174566 0.
0.470825 0.0175557 0.
0.47449 0.0182898 0.
0.478233 0.0194752 0.
0.482053 0.0210057 0.
0.485871 0.0228442 0.
0.489658 0.0248484 0.
0.493423 0.02685 0.
0.497123 0.0288733 0.
0.500724 0.0309833 0.
0.504231 0.0330748 0.
0.507676 0.0349947 0.
0.511045 0.0367385 0.
0.514341 0.0384068 0.
0.517537 0.0400642 0.
0.520658 0.041712 0.
0.523707 0.0431993 0.
0.526715 0.0446158 0.
0.529617 0.0457661 0.
0.532476 0.046867 0.
0.535211 0.0478531 0.
0.537937 0.0487714 0.
0.540553 0.0494354 0.
0.543151 0.0500727 0.
0.545604 0.0505338 0.
0.548011 0.0509823 0.
0.550378 0.0514013 0.
0.552652 0.0517082 0.
0.554942 0.0520185 0.
0.557128 0.0521811 0.
0.559296 0.0523361 0.
0.561447 0.0524788 0.
0.563537 0.0525621 0.
0.565628 0.0526457 0.
0.567701 0.0527145 0.
0.56976 0.0527727 0.
0.571819 0.0528313 0.
0.573851 0.0528647 0.
0.575878 0.0528933 0.
0.577904 0.0529206 0.
0.579921 0.0529328 0.
0.581937 0.0529451 0.
0.583951 0.0529561 0.
0.585961 0.0529642 0.
0.587971 0.0529723 0.
0.589978 0.0529783 0.
0.591984 0.0529827 0.
0.593989 0.052987 0.
0.595993 0.0529888 0.
0.597997 0.0529899 0.
0.600001 0.0529909 0.
0.602005 0.0529886 0.
0.60401 0.0529863 0.
0.606015 0.0529833 0.
0.608021 0.052978 0.
0.610028 0.0529727 0.
0.612037 0.052965 0.
0.614049 0.0529545 0.
0.616062 0.0529441 0.
0.61808 0.0529308 0.
0.6201 0.0529161 0.
0.62212 0.0529015 0.
0.624153 0.0528671 0.
0.626187 0.0528311 0.
0.628229 0.0527879 0.
0.630305 0.0527116 0.
0.632381 0.0526359 0.
0.634469 0.0525528 0.
0.636575 0.0524583 0.
0.638679 0.0523641 0.
0.640884 0.0521659 0.
0.643106 0.051956 0.
0.645348 0.05174 0.
0.647667 0.0513877 0.
0.649972 0.0510367 0.
0.652399 0.0504952 0.
0.654844 0.0499423 0.
0.657416 0.0493572 0.
0.660109 0.0486411 0.
0.662824 0.0478436 0.
0.665622 0.0468353 0.
0.668458 0.0457304 0.
0.671391 0.0444831 0.
0.674368 0.043143 0.
0.677389 0.0416409 0.
0.680477 0.0401163 0.
0.683665 0.0385332 0.
0.686944 0.0368069 0.
0.690283 0.0349714 0.
0.693731 0.032981 0.
0.697257 0.0310248 0.
0.700887 0.029054 0.
0.704584 0.0270096 0.
0.708328 0.024944 0.
0.712138 0.022968 0.
0.715956 0.0211772 0.
0.719761 0.0196157 0.
0.723498 0.0183766 0.
0.72718 0.0175658 0.
0.730721 0.0173269 0.
0.467874 0.0187183 0.
0.471312 0.0188525 0.
0.474835 0.0195641 0.
0.478458 0.0207093 0.
0.482155 0.0221849 0.
0.485864 0.0239669 0.
0.489576 0.0259176 0.
0.493268 0.0278805 0.
0.496896 0.0298827 0.
0.500436 0.0319731 0.
0.503894 0.0340585 0.
0.507297 0.0359862 0.
0.51063 0.0377531 0.
0.513896 0.039427 0.
0.517065 0.0411053 0.
0.520173 0.0427785 0.
0.523215 0.0443121 0.
0.526208 0.0457568 0.
0.529114 0.0469855 0.
0.531979 0.0481569 0.
0.534753 0.0492076 0.
0.537499 0.0501658 0.
0.540138 0.0508971 0.
0.542751 0.0515964 0.
0.545263 0.0521348 0.
0.547713 0.0526391 0.
0.550133 0.0531298 0.
0.552457 0.0534738 0.
0.554798 0.0538222 0.
0.557015 0.0540253 0.
0.559196 0.0542193 0.
0.561362 0.054399 0.
0.563465 0.0544904 0.
0.565568 0.0545822 0.
0.567653 0.0546607 0.
0.569721 0.0547294 0.
0.571789 0.0547985 0.
0.573827 0.0548386 0.
0.575858 0.0548727 0.
0.577889 0.0549052 0.
0.579908 0.0549195 0.
0.581927 0.0549337 0.
0.583943 0.0549465 0.
0.585955 0.0549562 0.
0.587966 0.0549659 0.
0.589975 0.0549732 0.
0.591981 0.0549784 0.
0.593988 0.0549837 0.
0.595992 0.0549857 0.
0.597997 0.0549868 0.
0.600001 0.054988 0.
0.602006 0.0549854 0.
0.604011 0.0549828 0.
0.606017 0.0549793 0.
0.608024 0.0549728 0.
0.610032 0.0549663 0.
0.612043 0.0549571 0.
0.614058 0.0549444 0.
0.616072 0.0549318 0.
0.618093 0.0549164 0.
0.620116 0.0548996 0.
0.622139 0.0548828 0.
0.624178 0.0548417 0.
0.626218 0.0547991 0.
0.628267 0.0547472 0.
0.630355 0.0546569 0.
0.632442 0.0545675 0.
0.634544 0.0544739 0.
0.636662 0.0543719 0.
0.638779 0.0542703 0.
0.641006 0.0540172 0.
0.643246 0.0537527 0.
0.645519 0.0534906 0.
0.647882 0.053112 0.
0.650232 0.0527305 0.
0.652722 0.0521057 0.
0.655215 0.0514887 0.
0.657831 0.0508259 0.
0.660532 0.0500697 0.
0.663283 0.049187 0.
0.666092 0.0481122 0.
0.66895 0.0469268 0.
0.671879 0.0456457 0.
0.674856 0.0442598 0.
0.677865 0.0427361 0.
0.680955 0.0411733 0.
0.684112 0.0395748 0.
0.68737 0.0378035 0.
0.690676 0.0359425 0.
0.694087 0.0339632 0.
0.69757 0.0320041 0.
0.701127 0.0300595 0.
0.704755 0.0280404 0.
0.708418 0.0260118 0.
0.712129 0.0240828 0.
0.715859 0.0223543 0.
0.719548 0.0208537 0.
0.723164 0.0196674 0.
0.726708 0.0188968 0.
0.730118 0.0186429 0.
0.468515 0.0200086 0.
0.471842 0.0201849 0.
0.475252 0.0208894 0.
0.478763 0.0219992 0.
0.482338 0.0234297 0.
0.485955 0.0251628 0.
0.489582 0.0270554 0.
0.493195 0.0289797 0.
0.496748 0.0309549 0.
0.500216 0.0330224 0.
0.503629 0.0350933 0.
0.506981 0.0370229 0.
0.510267 0.0388057 0.
0.513499 0.0404874 0.
0.516651 0.0421805 0.
0.519733 0.0438655 0.
0.522752 0.0454305 0.
0.525727 0.0469038 0.
0.528634 0.0482041 0.
0.531498 0.0494202 0.
0.534286 0.0505074 0.
0.537038 0.0515096 0.
0.539708 0.0523356 0.
0.542346 0.0531079 0.
0.544913 0.053727 0.
0.547401 0.0542858 0.
0.549866 0.0548481 0.
0.552227 0.0552122 0.
0.554595 0.0555928 0.
0.556842 0.0558406 0.
0.559038 0.0560707 0.
0.561228 0.0562874 0.
0.56335 0.0563881 0.
0.565474 0.0564898 0.
0.567576 0.0565806 0.
0.569657 0.0566632 0.
0.571739 0.0567466 0.
0.573786 0.0567971 0.
0.575826 0.05684 0.
0.577864 0.0568814 0.
0.579887 0.0568979 0.
0.581909 0.0569146 0.
0.583929 0.0569299 0.
0.585943 0.0569424 0.
0.587958 0.056955 0.
0.589969 0.0569644 0.
0.591977 0.056971 0.
0.593985 0.0569776 0.
0.595991 0.0569803 0.
0.597996 0.0569819 0.
0.600001 0.0569835 0.
0.602007 0.0569799 0.
0.604013 0.0569764 0.
0.60602 0.0569718 0.
0.60803 0.0569634 0.
0.61004 0.056955 0.
0.612054 0.0569432 0.
0.614072 0.0569272 0.
0.61609 0.0569113 0.
0.618114 0.0568931 0.
0.620141 0.056874 0.
0.622168 0.0568548 0.
0.624219 0.0568009 0.
0.626272 0.0567455 0.
0.628334 0.0566799 0.
0.630435 0.0565753 0.
0.632534 0.0564716 0.
0.634659 0.0563633 0.
0.636804 0.0562479 0.
0.638946 0.0561337 0.
0.641191 0.0558316 0.
0.643439 0.0555223 0.
0.645735 0.0552186 0.
0.648115 0.0548244 0.
0.650514 0.0544075 0.
0.653058 0.0537061 0.
0.655597 0.0530256 0.
0.658262 0.0522694 0.
0.660972 0.0514394 0.
0.663738 0.050477 0.
0.66655 0.0493697 0.
0.669417 0.0481266 0.
0.672334 0.0468204 0.
0.675304 0.0453878 0.
0.678301 0.0438532 0.
0.681367 0.0422615 0.
0.684504 0.0406363 0.
0.687729 0.0388472 0.
0.691009 0.0369625 0.
0.694367 0.034999 0.
0.697799 0.0330481 0.
0.701295 0.0311238 0.
0.704841 0.0291433 0.
0.708422 0.0271518 0.
0.712034 0.0252744 0.
0.715668 0.0236005 0.
0.719263 0.0221475 0.
0.722758 0.0210015 0.
0.726187 0.0202612 0.
0.729492 0.0199873 0.
0.469184 0.0213427 0.
0.472408 0.0215665 0.
0.475715 0.0222574 0.
0.479121 0.0233418 0.
0.482594 0.0247408 0.
0.486124 0.0264206 0.
0.489661 0.0282597 0.
0.493188 0.0301445 0.
0.496659 0.0320892 0.
0.500065 0.0341325 0.
0.503423 0.0361831 0.
0.506718 0.0381099 0.
0.509967 0.0399013 0.
0.513161 0.0415888 0.
0.516277 0.0432857 0.
0.519326 0.0449756 0.
0.522329 0.0465725 0.
0.525281 0.0480664 0.
0.528175 0.0494168 0.
0.531028 0.0506582 0.
0.533824 0.0518007 0.
0.536582 0.0528472 0.
0.539281 0.0537536 0.
0.541935 0.0545821 0.
0.544537 0.0552724 0.
0.547048 0.0558535 0.
0.549551 0.0564354 0.
0.55194 0.0568716 0.
0.554329 0.0573257 0.
0.556618 0.0576371 0.
0.558847 0.0579052 0.
0.561073 0.0581638 0.
0.56322 0.0582769 0.
0.56537 0.058391 0.
0.567495 0.0584959 0.
0.56959 0.0585938 0.
0.571686 0.0586928 0.
0.573744 0.0587544 0.
0.575792 0.0588067 0.
0.57784 0.0588572 0.
0.579865 0.0588762 0.
0.581891 0.0588952 0.
0.583914 0.0589131 0.
0.585932 0.0589285 0.
0.587949 0.058944 0.
0.589963 0.0589555 0.
0.591972 0.0589635 0.
0.593982 0.0589716 0.
0.595989 0.058975 0.
0.597995 0.058977 0.
0.600001 0.0589789 0.
0.602008 0.0589745 0.
0.604016 0.05897 0.
0.606024 0.0589643 0.
0.608036 0.058954 0.
0.610049 0.0589437 0.
0.612065 0.0589292 0.
0.614087 0.0589098 0.
0.616109 0.0588905 0.
0.618136 0.0588696 0.
0.620167 0.058848 0.
0.622197 0.0588265 0.
0.624262 0.0587588 0.
0.626328 0.0586897 0.
0.628405 0.0586093 0.
0.63052 0.0584891 0.
0.632634 0.0583699 0.
0.63479 0.0582426 0.
0.636973 0.0581078 0.
0.639155 0.0579678 0.
0.641428 0.0576174 0.
0.643701 0.0572641 0.
0.646045 0.0568999 0.
0.648458 0.0564431 0.
0.650883 0.0559611 0.
0.653429 0.0552424 0.
0.655993 0.054534 0.
0.658688 0.053694 0.
0.661406 0.052795 0.
0.664186 0.0517517 0.
0.666994 0.050612 0.
0.669863 0.0493344 0.
0.672768 0.0480041 0.
0.675714 0.0465368 0.
0.678693 0.0449911 0.
0.681741 0.0433806 0.
0.684843 0.0417323 0.
0.688024 0.0399375 0.
0.69127 0.0380392 0.
0.694577 0.03609 0.
0.697956 0.0341548 0.
0.701391 0.0322473 0.
0.704858 0.0303088 0.
0.708362 0.028359 0.
0.711877 0.026526 0.
0.715408 0.0249042 0.
0.718909 0.0234949 0.
0.722306 0.0223752 0.
0.72563 0.02165 0.
0.728841 0.021365 0.
0.469859 0.0227248 0.
0.472986 0.0229858 0.
0.476202 0.0236677 0.
0.479513 0.02473 0.
0.482894 0.0260977 0.
0.486336 0.0277278 0.
0.489785 0.0295192 0.
0.493223 0.0313629 0.
0.496613 0.0332758 0.
0.499959 0.0352912 0.
0.503259 0.037319 0.
0.506507 0.039242 0.
0.509712 0.0410332 0.
0.512856 0.0427208 0.
0.515933 0.0444165 0.
0.518959 0.0461102 0.
0.521932 0.0477307 0.
0.524849 0.049241 0.
0.527734 0.0506321 0.
0.530573 0.0519001 0.
0.533369 0.0530902 0.
0.536127 0.0541674 0.
0.538842 0.0551389 0.
0.541503 0.0560112 0.
0.544137 0.0567774 0.
0.546684 0.0573925 0.
0.549229 0.0580106 0.
0.551652 0.0585193 0.
0.554063 0.0590467 0.
0.556395 0.0594298 0.
0.558656 0.0597352 0.
0.560916 0.0600323 0.
0.563089 0.0601575 0.
0.565263 0.060284 0.
0.56741 0.0604042 0.
0.569517 0.0605165 0.
0.571624 0.0606298 0.
0.573694 0.0607041 0.
0.575753 0.0607679 0.
0.577811 0.0608301 0.
0.57984 0.0608514 0.
0.581869 0.0608728 0.
0.583896 0.0608932 0.
0.585917 0.0609118 0.
0.587938 0.0609305 0.
0.589954 0.0609444 0.
0.591965 0.0609542 0.
0.593977 0.060964 0.
0.595986 0.0609681 0.
0.597994 0.0609705 0.
0.600002 0.0609729 0.
0.602011 0.0609673 0.
0.60402 0.0609618 0.
0.60603 0.0609547 0.
0.608045 0.0609421 0.
0.61006 0.0609295 0.
0.61208 0.0609122 0.
0.614105 0.0608894 0.
0.61613 0.0608666 0.
0.618163 0.0608423 0.
0.620197 0.0608172 0.
0.622232 0.0607922 0.
0.624312 0.0607085 0.
0.626392 0.060624 0.
0.628483 0.0605282 0.
0.63061 0.0603945 0.
0.632736 0.0602618 0.
0.634923 0.0601142 0.
0.637142 0.0599617 0.
0.639364 0.0597951 0.
0.641665 0.0593985 0.
0.643963 0.0590014 0.
0.646359 0.0585713 0.
0.64881 0.0580498 0.
0.651281 0.0574764 0.
0.653848 0.0567044 0.
0.656435 0.0559489 0.
0.659122 0.055081 0.
0.661839 0.0541302 0.
0.664626 0.0530254 0.
0.667433 0.0518475 0.
0.670289 0.0505436 0.
0.673182 0.0491945 0.
0.676115 0.0476996 0.
0.679062 0.046141 0.
0.682077 0.0445256 0.
0.685148 0.0428603 0.
0.688282 0.0410632 0.
0.691481 0.0391604 0.
0.694743 0.0372254 0.
0.698053 0.0353153 0.
0.701434 0.0334254 0.
0.704834 0.0315204 0.
0.708261 0.0296168 0.
0.711687 0.0278239 0.
0.715114 0.0262479 0.
0.718516 0.0248789 0.
0.721824 0.0237866 0.
0.725058 0.0230672 0.
0.728185 0.0227766 0.
0.470524 0.0241505 0.
0.473568 0.024439 0.
0.4767 0.0251122 0.
0.479923 0.0261556 0.
0.483223 0.0274942 0.
0.486581 0.0290818 0.
0.489945 0.03083 0.
0.493291 0.0326285 0.
0.496609 0.0345132 0.
0.499889 0.0364968 0.
0.503131 0.0384994 0.
0.506328 0.0404127 0.
0.509482 0.0421967 0.
0.512576 0.0438846 0.
0.51562 0.0455749 0.
0.518609 0.0472705 0.
0.521547 0.0489103 0.
0.524446 0.050436 0.
0.527313 0.051856 0.
0.530134 0.0531474 0.
0.532929 0.0543783 0.
0.535684 0.0554746 0.
0.538405 0.0565019 0.
0.541078 0.0574318 0.
0.543739 0.0582733 0.
0.546327 0.0589303 0.
0.548908 0.0595735 0.
0.551355 0.0601323 0.
0.553771 0.0607081 0.
0.556139 0.0611538 0.
0.558437 0.0614933 0.
0.560744 0.0618311 0.
0.562946 0.0619909 0.
0.565144 0.0621487 0.
0.567312 0.0622962 0.
0.56943 0.0624232 0.
0.571548 0.0625513 0.
0.573632 0.0626418 0.
0.575706 0.0627213 0.
0.577779 0.0627994 0.
0.579812 0.0628231 0.
0.581844 0.0628467 0.
0.583874 0.0628698 0.
0.585899 0.062892 0.
0.587923 0.0629142 0.
0.589942 0.0629309 0.
0.591957 0.0629428 0.
0.593971 0.0629547 0.
0.595982 0.0629595 0.
0.597992 0.0629623 0.
0.600002 0.0629651 0.
0.602014 0.0629584 0.
0.604025 0.0629517 0.
0.606038 0.0629429 0.
0.608056 0.0629276 0.
0.610075 0.0629123 0.
0.612098 0.0628918 0.
0.614127 0.0628654 0.
0.616156 0.0628391 0.
0.618194 0.0628101 0.
0.620235 0.0627799 0.
0.622277 0.0627493 0.
0.624374 0.0626454 0.
0.62647 0.0625408 0.
0.628578 0.0624265 0.
0.630718 0.0622796 0.
0.632857 0.0621339 0.
0.635075 0.0619412 0.
0.637323 0.0617362 0.
0.639581 0.0615208 0.
0.641918 0.0611102 0.
0.644244 0.0606948 0.
0.64668 0.0602088 0.
0.649159 0.0596396 0.
0.65167 0.0589824 0.
0.654258 0.0581626 0.
0.656873 0.0573495 0.
0.659568 0.0564298 0.
0.662279 0.0554368 0.
0.66505 0.0543041 0.
0.667857 0.0530919 0.
0.6707 0.0517618 0.
0.673572 0.0503902 0.
0.676486 0.0488835 0.
0.679419 0.0473136 0.
0.682396 0.0456951 0.
0.685429 0.0440183 0.
0.688516 0.0422232 0.
0.691658 0.0403279 0.
0.694873 0.038402 0.
0.698122 0.0365181 0.
0.701429 0.0346553 0.
0.704766 0.0327828 0.
0.708119 0.0309236 0.
0.711469 0.0291667 0.
0.714801 0.027626 0.
0.718106 0.0262963 0.
0.721329 0.0252356 0.
0.724481 0.0245191 0.
0.727529 0.0242249 0.
0.471203 0.0256082 0.
0.474173 0.0259165 0.
0.477231 0.0265915 0.
0.48038 0.0276209 0.
0.483604 0.0289376 0.
0.486879 0.0304908 0.
0.490154 0.0321921 0.
0.493415 0.0339551 0.
0.496657 0.0358087 0.
0.499869 0.0377573 0.
0.503052 0.0397342 0.
0.506192 0.0416289 0.
0.509288 0.0434008 0.
0.512336 0.045086 0.
0.515337 0.0467683 0.
0.518287 0.0484644 0.
0.521199 0.0501129 0.
0.524066 0.0516479 0.
0.526912 0.0530912 0.
0.529725 0.0544055 0.
0.53251 0.0556559 0.
0.535255 0.0567797 0.
0.537975 0.0578572 0.
0.540654 0.0588415 0.
0.543328 0.0597351 0.
0.545928 0.0604181 0.
0.548506 0.0610952 0.
0.550988 0.0617087 0.
0.55344 0.0623355 0.
0.555863 0.0628572 0.
0.558208 0.0632414 0.
0.560566 0.0636262 0.
0.562801 0.0638213 0.
0.565022 0.0640108 0.
0.567215 0.0641877 0.
0.569342 0.0643294 0.
0.571471 0.0644723 0.
0.573569 0.064579 0.
0.575658 0.0646744 0.
0.577746 0.0647685 0.
0.579783 0.0647946 0.
0.581819 0.0648206 0.
0.583853 0.0648463 0.
0.58588 0.0648721 0.
0.587908 0.0648979 0.
0.58993 0.0649174 0.
0.591948 0.0649314 0.
0.593965 0.0649454 0.
0.595979 0.064951 0.
0.597991 0.0649542 0.
0.600003 0.0649574 0.
0.602016 0.0649494 0.
0.60403 0.0649415 0.
0.606046 0.0649312 0.
0.608068 0.0649131 0.
0.610089 0.0648951 0.
0.612116 0.0648715 0.
0.614149 0.0648415 0.
0.616182 0.0648116 0.
0.618226 0.0647777 0.
0.620273 0.0647424 0.
0.622322 0.0647058 0.
0.624436 0.0645815 0.
0.626549 0.0644569 0.
0.628673 0.0643242 0.
0.630826 0.0641642 0.
0.632978 0.0640054 0.
0.635229 0.0637631 0.
0.637509 0.0635047 0.
0.639806 0.0632401 0.
0.642189 0.0628036 0.
0.644558 0.0623631 0.
0.647044 0.0617971 0.
0.649546 0.061167 0.
0.652085 0.0604447 0.
0.654676 0.0595993 0.
0.657309 0.058739 0.
0.660006 0.0577755 0.
0.662718 0.0567333 0.
0.665475 0.0555757 0.
0.668258 0.0543469 0.
0.671083 0.0529987 0.
0.673938 0.0516031 0.
0.676827 0.0500896 0.
0.679737 0.0485153 0.
0.682685 0.0468956 0.
0.685676 0.0452149 0.
0.688715 0.0434245 0.
0.691797 0.0415425 0.
0.694948 0.039635 0.
0.698142 0.0377733 0.
0.701371 0.0359428 0.
0.704637 0.0341052 0.
0.707919 0.0322874 0.
0.711188 0.0305706 0.
0.714438 0.0290511 0.
0.717657 0.027751 0.
0.720804 0.0267177 0.
0.72388 0.0260068 0.
0.726856 0.0256931 0.
0.471887 0.0270861 0.
0.474797 0.0274165 0.
0.477798 0.0281062 0.
0.48088 0.0291253 0.
0.484033 0.0304275 0.
0.487222 0.0319471 0.
0.490413 0.0336125 0.
0.493594 0.0353439 0.
0.49676 0.037162 0.
0.499906 0.0390791 0.
0.503027 0.0410268 0.
0.506105 0.0428971 0.
0.509145 0.0446556 0.
0.512141 0.0463322 0.
0.515095 0.048004 0.
0.518009 0.0496934 0.
0.520884 0.0513426 0.
0.523722 0.0528879 0.
0.526552 0.0543449 0.
0.529342 0.0556738 0.
0.532106 0.0569411 0.
0.534837 0.0580933 0.
0.537551 0.0592062 0.
0.540226 0.0602162 0.
0.54289 0.0611244 0.
0.545502 0.0618724 0.
0.54809 0.0626058 0.
0.55061 0.0632764 0.
0.553095 0.0639518 0.
0.555569 0.0645511 0.
0.557952 0.0649682 0.
0.560334 0.065381 0.
0.562602 0.065616 0.
0.564848 0.0658426 0.
0.56707 0.066056 0.
0.569211 0.0662059 0.
0.571355 0.0663566 0.
0.57347 0.0664799 0.
0.575574 0.0665952 0.
0.57768 0.0667104 0.
0.579729 0.0667458 0.
0.581777 0.0667803 0.
0.583821 0.0668133 0.
0.585852 0.0668423 0.
0.587884 0.0668714 0.
0.58991 0.066894 0.
0.591932 0.0669107 0.
0.593954 0.0669274 0.
0.595972 0.0669342 0.
0.597988 0.066938 0.
0.600004 0.0669418 0.
0.602022 0.0669318 0.
0.604041 0.0669219 0.
0.606061 0.0669093 0.
0.608088 0.0668879 0.
0.610115 0.0668666 0.
0.612147 0.0668394 0.
0.614185 0.0668056 0.
0.616223 0.066772 0.
0.618281 0.0667276 0.
0.620344 0.0666799 0.
0.62241 0.0666293 0.
0.624539 0.0664825 0.
0.626667 0.0663363 0.
0.62881 0.0661871 0.
0.63098 0.0660201 0.
0.633146 0.0658541 0.
0.635429 0.0655574 0.
0.637732 0.0652474 0.
0.640061 0.0649402 0.
0.642476 0.0644883 0.
0.644893 0.0640227 0.
0.647417 0.0633728 0.
0.649942 0.0626778 0.
0.652512 0.0618821 0.
0.655113 0.0610048 0.
0.657751 0.0601063 0.
0.660437 0.0591158 0.
0.663142 0.0580382 0.
0.665885 0.0568601 0.
0.668649 0.0556113 0.
0.67144 0.0542564 0.
0.674266 0.052844 0.
0.677129 0.0513283 0.
0.680011 0.0497534 0.
0.682928 0.0481345 0.
0.685876 0.0464569 0.
0.688868 0.0446754 0.
0.69189 0.0428092 0.
0.694971 0.0409282 0.
0.698101 0.0390893 0.
0.70126 0.0372867 0.
0.704443 0.0354887 0.
0.707655 0.0337109 0.
0.710851 0.0320297 0.
0.714024 0.0305287 0.
0.71717 0.0292463 0.
0.720249 0.0282293 0.
0.723261 0.0275213 0.
0.726176 0.0271835 0.
0.472586 0.0285987 0.
0.475443 0.0289507 0.
0.478392 0.0296545 0.
0.481411 0.0306638 0.
0.48449 0.0319531 0.
0.487597 0.03345 0.
0.490711 0.035085 0.
0.493816 0.0367842 0.
0.496912 0.0385745 0.
0.499996 0.0404624 0.
0.50305 0.0423771 0.
0.506069 0.044224 0.
0.50905 0.0459663 0.
0.511991 0.0476265 0.
0.514899 0.0492835 0.
0.517768 0.0509619 0.
0.520606 0.052608 0.
0.523418 0.0541573 0.
0.526214 0.0556204 0.
0.528974 0.0569618 0.
0.531717 0.0582409 0.
0.534435 0.0594132 0.
0.537131 0.0605415 0.
0.539796 0.0615741 0.
0.542455 0.0625119 0.
0.545076 0.0633155 0.
0.547669 0.0640942 0.
0.550214 0.0648154 0.
0.552711 0.0655049 0.
0.555202 0.0661331 0.
0.557607 0.0665975 0.
0.560021 0.0670714 0.
0.562342 0.0673705 0.
0.56463 0.0676481 0.
0.5669 0.0679122 0.
0.569061 0.068071 0.
0.571226 0.0682307 0.
0.573363 0.0683722 0.
0.575485 0.0685102 0.
0.577609 0.0686485 0.
0.579672 0.0686949 0.
0.581733 0.0687388 0.
0.583788 0.0687798 0.
0.585824 0.0688122 0.
0.58786 0.0688446 0.
0.58989 0.0688702 0.
0.591917 0.0688898 0.
0.593943 0.0689093 0.
0.595965 0.0689173 0.
0.597985 0.0689216 0.
0.600006 0.068926 0.
0.602028 0.0689141 0.
0.604051 0.0689021 0.
0.606076 0.0688871 0.
0.608108 0.0688624 0.
0.61014 0.0688377 0.
0.612178 0.0688067 0.
0.614222 0.068769 0.
0.616265 0.0687315 0.
0.618338 0.0686753 0.
0.620419 0.0686142 0.
0.622504 0.0685472 0.
0.624652 0.0683752 0.
0.626798 0.0682043 0.
0.628965 0.0680363 0.
0.631162 0.0678598 0.
0.633355 0.0676844 0.
0.63568 0.0673175 0.
0.638016 0.0669454 0.
0.640393 0.0665779 0.
0.642835 0.0660886 0.
0.645279 0.0655885 0.
0.647807 0.0649077 0.
0.650347 0.0641676 0.
0.652942 0.0633127 0.
0.655551 0.0624068 0.
0.658195 0.0614679 0.
0.660864 0.0604546 0.
0.663556 0.0593504 0.
0.666277 0.058161 0.
0.669016 0.056898 0.
0.671778 0.0555387 0.
0.674567 0.0541161 0.
0.677392 0.052602 0.
0.680239 0.0510328 0.
0.683121 0.0494184 0.
0.686029 0.0477453 0.
0.688968 0.0459807 0.
0.691942 0.0441339 0.
0.69495 0.0422768 0.
0.698009 0.0404668 0.
0.701101 0.0386895 0.
0.704209 0.0369237 0.
0.707346 0.0351833 0.
0.710475 0.0335339 0.
0.713575 0.0320502 0.
0.716648 0.0307822 0.
0.719669 0.029772 0.
0.722625 0.0290643 0.
0.725487 0.0286997 0.
0.473286 0.0301562 0.
0.47609 0.0305193 0.
0.478986 0.0312273 0.
0.481944 0.0322305 0.
0.484956 0.0335139 0.
0.487991 0.0349927 0.
0.491034 0.0365981 0.
0.494071 0.0382727 0.
0.497106 0.0400394 0.
0.500121 0.0418938 0.
0.503108 0.0437781 0.
0.506064 0.0456002 0.
0.50898 0.0473166 0.
0.511865 0.0489573 0.
0.514723 0.0505994 0.
0.517549 0.0522626 0.
0.520351 0.0539003 0.
0.523126 0.0554494 0.
0.525885 0.0569137 0.
0.528622 0.0582656 0.
0.531339 0.0595499 0.
0.534037 0.0607357 0.
0.536717 0.0618794 0.
0.539376 0.0629378 0.
0.542024 0.0638935 0.
0.544645 0.0647395 0.
0.547231 0.0655479 0.
0.549789 0.0662981 0.
0.552302 0.0670133 0.
0.554816 0.0676821 0.
0.557258 0.0682165 0.
0.559703 0.0687515 0.
0.562077 0.0691178 0.
0.564408 0.0694467 0.
0.566729 0.0697668 0.
0.568911 0.0699327 0.
0.571094 0.0700981 0.
0.573252 0.0702563 0.
0.575391 0.0704153 0.
0.577531 0.0705746 0.
0.579609 0.0706349 0.
0.581683 0.070691 0.
0.58375 0.0707426 0.
0.585791 0.070778 0.
0.587832 0.0708136 0.
0.589868 0.0708423 0.
0.591899 0.0708646 0.
0.59393 0.070887 0.
0.595957 0.0708961 0.
0.597982 0.070901 0.
0.600008 0.070906 0.
0.602036 0.0708919 0.
0.604064 0.0708779 0.
0.606094 0.0708604 0.
0.608132 0.0708321 0.
0.61017 0.0708039 0.
0.612214 0.0707692 0.
0.614264 0.0707278 0.
0.616314 0.0706865 0.
0.618402 0.0706154 0.
0.620499 0.0705378 0.
0.622602 0.0704521 0.
0.624767 0.0702587 0.
0.626929 0.0700662 0.
0.629122 0.0698823 0.
0.631345 0.0696975 0.
0.633569 0.0695059 0.
0.635934 0.0690688 0.
0.638302 0.0686344 0.
0.640731 0.0682082 0.
0.643211 0.0676714 0.
0.645696 0.0671011 0.
0.648237 0.0663717 0.
0.650782 0.0656018 0.
0.65338 0.0647329 0.
0.655992 0.0638046 0.
0.658631 0.0628307 0.
0.661284 0.0617976 0.
0.663959 0.0606723 0.
0.666657 0.0594755 0.
0.669373 0.0582002 0.
0.6721 0.0568404 0.
0.674855 0.0554134 0.
0.67764 0.0539024 0.
0.680445 0.0523397 0.
0.683283 0.0507379 0.
0.68615 0.0490743 0.
0.689039 0.0473261 0.
0.691955 0.0455084 0.
0.694905 0.0436762 0.
0.697887 0.0418919 0.
0.700907 0.0401438 0.
0.703944 0.0384061 0.
0.707006 0.0366989 0.
0.710071 0.0350744 0.
0.713115 0.0336051 0.
0.71612 0.0323491 0.
0.719079 0.031344 0.
0.721982 0.0306423 0.
0.724798 0.0302545 0.
0.473974 0.0317396 0.
0.476727 0.0321086 0.
0.479573 0.0328218 0.
0.482476 0.0338283 0.
0.485428 0.0351065 0.
0.488399 0.0365697 0.
0.491377 0.0381505 0.
0.494352 0.0398071 0.
0.49732 0.0415459 0.
0.500265 0.0433705 0.
0.503183 0.0452262 0.
0.50607 0.0470142 0.
0.508922 0.0487041 0.
0.511753 0.0503259 0.
0.51456 0.0519495 0.
0.517342 0.0535936 0.
0.520101 0.055218 0.
0.52284 0.0567624 0.
0.525568 0.0582246 0.
0.528274 0.0595843 0.
0.530969 0.060873 0.
0.53365 0.0620705 0.
0.536312 0.0632236 0.
0.538956 0.0643027 0.
0.541594 0.0652736 0.
0.544212 0.0661537 0.
0.546794 0.0669902 0.
0.549363 0.0677776 0.
0.551895 0.0685199 0.
0.554429 0.069219 0.
0.556901 0.0698066 0.
0.559358 0.0703762 0.
0.561766 0.0707983 0.
0.564122 0.0711638 0.
0.566475 0.0715263 0.
0.568702 0.0717242 0.
0.570935 0.0719262 0.
0.57313 0.0721171 0.
0.575285 0.0722976 0.
0.577442 0.0724789 0.
0.579536 0.0725591 0.
0.581624 0.0726331 0.
0.583704 0.0727 0.
0.585752 0.0727387 0.
0.587799 0.0727774 0.
0.589841 0.0728092 0.
0.591878 0.0728344 0.
0.593915 0.0728597 0.
0.595948 0.0728701 0.
0.597979 0.0728756 0.
0.600011 0.0728812 0.
0.602045 0.0728648 0.
0.604079 0.0728484 0.
0.606115 0.0728282 0.
0.60816 0.072796 0.
0.610205 0.0727639 0.
0.612256 0.0727253 0.
0.614315 0.0726799 0.
0.616373 0.0726347 0.
0.618476 0.0725418 0.
0.620588 0.0724398 0.
0.622709 0.0723279 0.
0.624893 0.0721147 0.
0.627074 0.0719025 0.
0.629311 0.0716808 0.
0.631582 0.0714553 0.
0.633855 0.0712172 0.
0.636242 0.0707496 0.
0.638622 0.0702803 0.
0.641085 0.0698121 0.
0.643591 0.0692407 0.
0.646111 0.0686035 0.
0.648666 0.0678314 0.
0.651225 0.0670179 0.
0.653823 0.0661275 0.
0.656428 0.0651903 0.
0.659062 0.0641954 0.
0.661704 0.0631445 0.
0.664358 0.062004 0.
0.667028 0.0608014 0.
0.669722 0.0595197 0.
0.672422 0.0581592 0.
0.675138 0.056731 0.
0.677882 0.0552303 0.
0.680646 0.0536744 0.
0.683435 0.0520851 0.
0.686254 0.0504408 0.
0.689093 0.0487117 0.
0.691954 0.0469214 0.
0.694838 0.0451221 0.
0.697751 0.0433626 0.
0.700693 0.0416404 0.
0.703661 0.0399316 0.
0.706652 0.0382511 0.
0.709647 0.0366512 0.
0.712638 0.0351915 0.
0.715588 0.0339419 0.
0.71849 0.0329375 0.
0.72134 0.0322404 0.
0.724111 0.0318395 0.
0.474669 0.0333382 0.
0.477383 0.0337261 0.
0.480185 0.0344511 0.
0.483039 0.0354664 0.
0.485933 0.0367394 0.
0.488848 0.0381953 0.
0.491761 0.0397577 0.
0.494668 0.0413927 0.
0.497565 0.0431062 0.
0.500439 0.0449054 0.
0.503285 0.0467242 0.
0.506101 0.0484777 0.
0.50889 0.0501397 0.
0.511664 0.051739 0.
0.514416 0.0533397 0.
0.517152 0.0549608 0.
0.519871 0.0565675 0.
0.522573 0.0581029 0.
0.525263 0.0595589 0.
0.527944 0.0609234 0.
0.530612 0.062211 0.
0.533267 0.0634158 0.
0.535911 0.0645744 0.
0.538545 0.0656706 0.
0.541169 0.0666555 0.
0.54378 0.0675625 0.
0.546358 0.0684253 0.
0.548928 0.0692415 0.
0.551468 0.0699988 0.
0.554004 0.070711 0.
0.556493 0.0713437 0.
0.558969 0.0719546 0.
0.561416 0.0724432 0.
0.563808 0.072855 0.
0.566202 0.0732674 0.
0.568485 0.0735096 0.
0.570769 0.07375 0.
0.573007 0.0739766 0.
0.575178 0.0741789 0.
0.577351 0.0743822 0.
0.579462 0.0744825 0.
0.581565 0.0745745 0.
0.583659 0.0746574 0.
0.585712 0.0746993 0.
0.587766 0.0747412 0.
0.589814 0.074776 0.
0.591857 0.0748042 0.
0.5939 0.0748325 0.
0.595939 0.0748441 0.
0.597976 0.0748502 0.
0.600013 0.0748563 0.
0.602054 0.0748376 0.
0.604094 0.074819 0.
0.606137 0.0747959 0.
0.608188 0.0747598 0.
0.610239 0.0747239 0.
0.612299 0.0746812 0.
0.614366 0.074632 0.
0.616432 0.0745828 0.
0.618551 0.0744671 0.
0.620678 0.0743404 0.
0.622818 0.0742027 0.
0.625021 0.0739694 0.
0.627221 0.0737375 0.
0.629508 0.0734723 0.
0.631834 0.0731978 0.
0.634169 0.0728984 0.
0.636594 0.0723925 0.
0.639011 0.0718879 0.
0.641504 0.0713643 0.
0.644014 0.0707579 0.
0.646545 0.0700706 0.
0.649102 0.0692737 0.
0.651667 0.0684303 0.
0.65426 0.0675225 0.
0.656858 0.0665674 0.
0.659479 0.0655595 0.
0.662111 0.0644992 0.
0.664749 0.0633485 0.
0.667393 0.0621403 0.
0.670056 0.0608569 0.
0.67273 0.0595001 0.
0.675415 0.0580735 0.
0.678113 0.056586 0.
0.680831 0.0550458 0.
0.68357 0.0534712 0.
0.686335 0.0518486 0.
0.689118 0.0501481 0.
0.691919 0.0483866 0.
0.694739 0.0466188 0.
0.697583 0.0448878 0.
0.70045 0.0431904 0.
0.703342 0.0415097 0.
0.706265 0.0398528 0.
0.709193 0.0382742 0.
0.712121 0.0368247 0.
0.715023 0.0355722 0.
0.717878 0.0345624 0.
0.720677 0.033865 0.
0.723403 0.033459 0.
0.475381 0.0349533 0.
0.478065 0.035373 0.
0.480825 0.03611 0.
0.483633 0.0371402 0.
0.486476 0.0384183 0.
0.489332 0.0398714 0.
0.492176 0.0414125 0.
0.495017 0.0430298 0.
0.497843 0.0447255 0.
0.500645 0.0464944 0.
0.503418 0.0482779 0.
0.506165 0.049998 0.
0.508891 0.0516268 0.
0.511604 0.0532011 0.
0.514301 0.0547775 0.
0.516988 0.0563704 0.
0.519662 0.0579535 0.
0.522319 0.059475 0.
0.524975 0.0609187 0.
0.527621 0.0622815 0.
0.530256 0.063566 0.
0.53289 0.0647746 0.
0.535519 0.065935 0.
0.538133 0.0670428 0.
0.540741 0.0680406 0.
0.543346 0.0689677 0.
0.545919 0.0698475 0.
0.548484 0.0706778 0.
0.551026 0.0714564 0.
0.553566 0.0721929 0.
0.556075 0.0728706 0.
0.558568 0.0735215 0.
0.561052 0.0740778 0.
0.563475 0.0745323 0.
0.565901 0.0749818 0.
0.568231 0.0752634 0.
0.570552 0.0755416 0.
0.572825 0.075807 0.
0.57501 0.0760213 0.
0.5772 0.0762361 0.
0.579338 0.0763642 0.
0.581468 0.0764855 0.
0.583589 0.0765961 0.
0.585652 0.0766413 0.
0.587716 0.0766867 0.
0.589774 0.0767249 0.
0.591826 0.0767557 0.
0.593878 0.0767867 0.
0.595926 0.0767992 0.
0.597972 0.0768056 0.
0.600019 0.0768119 0.
0.602068 0.0767911 0.
0.604117 0.0767704 0.
0.60617 0.0767445 0.
0.608231 0.0767042 0.
0.610292 0.076664 0.
0.612364 0.0766164 0.
0.614443 0.076562 0.
0.616522 0.0765079 0.
0.618667 0.0763605 0.
0.620818 0.076203 0.
0.622985 0.076036 0.
0.625208 0.0757901 0.
0.627423 0.0755459 0.
0.629748 0.0752357 0.
0.632112 0.0749183 0.
0.634503 0.0745645 0.
0.636963 0.0740269 0.
0.639418 0.0734882 0.
0.641932 0.0729045 0.
0.644449 0.0722524 0.
0.646991 0.0715113 0.
0.649549 0.0706992 0.
0.652114 0.0698349 0.
0.654696 0.0689166 0.
0.657284 0.0679493 0.
0.659893 0.0669302 0.
0.662506 0.0658631 0.
0.665125 0.064708 0.
0.667749 0.0634947 0.
0.670383 0.0622131 0.
0.673022 0.060865 0.
0.675673 0.0594465 0.
0.678332 0.057975 0.
0.680998 0.0564557 0.
0.683684 0.0549025 0.
0.686389 0.0533054 0.
0.689111 0.051637 0.
0.69185 0.0499089 0.
0.694603 0.0481725 0.
0.697378 0.0464695 0.
0.700176 0.0447951 0.
0.702995 0.0431402 0.
0.705846 0.0415072 0.
0.708713 0.0399421 0.
0.711574 0.0385024 0.
0.714423 0.0372428 0.
0.717233 0.036221 0.
0.719989 0.0355106 0.
0.722673 0.0350996 0.
0.476116 0.0366045 0.
0.478767 0.0370486 0.
0.481487 0.037802 0.
0.484251 0.038857 0.
0.487039 0.0401444 0.
0.489832 0.0415882 0.
0.492614 0.0431141 0.
0.495392 0.0447216 0.
0.498144 0.0463939 0.
0.500875 0.0481355 0.
0.503577 0.0498897 0.
0.506259 0.0515696 0.
0.508919 0.0531647 0.
0.511572 0.0547143 0.
0.514214 0.0562631 0.
0.516847 0.0578233 0.
0.519466 0.059379 0.
0.522079 0.06088 0.
0.524693 0.0623059 0.
0.527304 0.0636627 0.
0.529912 0.0649402 0.
0.532522 0.0661471 0.
0.535125 0.0673051 0.
0.537723 0.0684205 0.
0.540319 0.0694305 0.
0.542911 0.0703713 0.
0.545479 0.0712652 0.
0.54804 0.0721126 0.
0.550586 0.0729109 0.
0.55313 0.0736652 0.
0.555655 0.0743777 0.
0.558162 0.0750549 0.
0.560663 0.0756466 0.
0.563108 0.0761279 0.
0.565557 0.0766062 0.
0.567926 0.0769505 0.
0.570276 0.0772894 0.
0.572593 0.0776154 0.
0.574806 0.0778438 0.
0.577024 0.0780729 0.
0.579198 0.0782326 0.
0.581361 0.0783883 0.
0.583515 0.0785318 0.
0.585589 0.0785811 0.
0.587664 0.0786304 0.
0.589733 0.0786722 0.
0.591794 0.0787059 0.
0.593855 0.0787397 0.
0.595912 0.0787532 0.
0.597968 0.0787599 0.
0.600024 0.0787664 0.
0.602083 0.0787435 0.
0.604142 0.0787205 0.
0.606205 0.0786916 0.
0.608276 0.0786466 0.
0.610347 0.0786017 0.
0.612432 0.0785485 0.
0.614526 0.0784882 0.
0.616619 0.0784282 0.
0.618798 0.078243 0.
0.62098 0.0780491 0.
0.623187 0.0778482 0.
0.625445 0.0775845 0.
0.627696 0.0773229 0.
0.630065 0.0769406 0.
0.632454 0.0765567 0.
0.634873 0.0761428 0.
0.637349 0.0755959 0.
0.639828 0.075045 0.
0.642356 0.0744248 0.
0.644884 0.0737304 0.
0.647436 0.0729503 0.
0.649995 0.072125 0.
0.652559 0.071244 0.
0.655132 0.0703136 0.
0.657711 0.0693348 0.
0.660304 0.0683103 0.
0.6629 0.0672382 0.
0.665496 0.0660824 0.
0.668093 0.0648683 0.
0.670701 0.0635916 0.
0.673307 0.0622545 0.
0.675918 0.0608522 0.
0.678533 0.0594018 0.
0.681149 0.0579056 0.
0.683777 0.0563799 0.
0.686422 0.0548125 0.
0.689079 0.0531771 0.
0.691752 0.0514866 0.
0.69444 0.0497828 0.
0.697145 0.0481053 0.
0.699876 0.046453 0.
0.702629 0.0448194 0.
0.705407 0.0432106 0.
0.708208 0.0416566 0.
0.711011 0.0402199 0.
0.713805 0.0389523 0.
0.716566 0.0379197 0.
0.71928 0.0371831 0.
0.721929 0.03676 0.
0.476859 0.0382873 0.
0.479474 0.0387518 0.
0.482152 0.039532 0.
0.484868 0.040611 0.
0.487599 0.0418984 0.
0.490337 0.043338 0.
0.493062 0.0448608 0.
0.49577 0.0464512 0.
0.498453 0.0481035 0.
0.501112 0.0498262 0.
0.50374 0.0515427 0.
0.506357 0.0531814 0.
0.508956 0.0547455 0.
0.511547 0.0562667 0.
0.514128 0.0577812 0.
0.516701 0.0593078 0.
0.519269 0.0608318 0.
0.521835 0.0623073 0.
0.524412 0.0637148 0.
0.526993 0.0650619 0.
0.529571 0.0663295 0.
0.532155 0.0675311 0.
0.534741 0.0686859 0.
0.53732 0.0698043 0.
0.5399 0.0708248 0.
0.542481 0.0717779 0.
0.545045 0.0726859 0.
0.547605 0.0735451 0.
0.550155 0.0743566 0.
0.552703 0.0751251 0.
0.555237 0.0758582 0.
0.557752 0.076554 0.
0.560265 0.0771805 0.
0.562736 0.0777089 0.
0.565209 0.0782248 0.
0.567618 0.0786261 0.
0.569998 0.079026 0.
0.57236 0.0794215 0.
0.574602 0.079663 0.
0.576849 0.0799037 0.
0.579056 0.0800905 0.
0.58125 0.0802805 0.
0.583437 0.080461 0.
0.585523 0.0805141 0.
0.587609 0.0805675 0.
0.589689 0.0806128 0.
0.59176 0.0806491 0.
0.59383 0.0806854 0.
0.595898 0.0806998 0.
0.597964 0.0807065 0.
0.60003 0.080713 0.
0.6021 0.0806882 0.
0.604169 0.0806634 0.
0.606242 0.0806316 0.
0.608323 0.0805823 0.
0.610404 0.0805332 0.
0.612503 0.0804734 0.
0.614613 0.080406 0.
0.616721 0.0803386 0.
0.618932 0.0801153 0.
0.621143 0.079888 0.
0.62339 0.079656 0.
0.625685 0.0793756 0.
0.627974 0.0790943 0.
0.630384 0.0786331 0.
0.6328 0.0781822 0.
0.635252 0.0777089 0.
0.637745 0.077135 0.
0.640243 0.0765499 0.
0.642777 0.0759056 0.
0.645309 0.0751878 0.
0.647869 0.0743882 0.
0.650433 0.0735498 0.
0.652997 0.0726546 0.
0.655562 0.0717153 0.
0.658134 0.0707255 0.
0.660715 0.0696976 0.
0.663292 0.0686216 0.
0.665865 0.0674687 0.
0.668439 0.0662586 0.
0.671017 0.0649901 0.
0.67359 0.0636649 0.
0.676164 0.0622818 0.
0.678735 0.0608579 0.
0.6813 0.0593884 0.
0.683872 0.0578899 0.
0.686453 0.0563562 0.
0.689047 0.0547583 0.
0.691651 0.0531053 0.
0.69427 0.0514379 0.
0.696907 0.0497865 0.
0.699563 0.0481581 0.
0.70225 0.0465406 0.
0.704962 0.0449517 0.
0.707698 0.0434103 0.
0.710444 0.0419708 0.
0.713188 0.0406897 0.
0.7159 0.0396496 0.
0.718571 0.0388868 0.
0.721184 0.0384365 0.
0.477604 0.0400019 0.
0.480178 0.0404895 0.
0.482808 0.0412989 0.
0.485473 0.0423893 0.
0.488156 0.0436847 0.
0.490841 0.0451298 0.
0.4935 0.0466404 0.
0.496138 0.0482149 0.
0.49875 0.0498581 0.
0.501331 0.0515527 0.
0.50389 0.0532288 0.
0.506444 0.0548305 0.
0.508974 0.0563591 0.
0.511501 0.0578474 0.
0.514017 0.0593298 0.
0.516534 0.0608164 0.
0.519053 0.0623047 0.
0.521578 0.0637562 0.
0.524124 0.0651435 0.
0.526672 0.0664763 0.
0.529222 0.0677323 0.
0.531788 0.0689268 0.
0.534354 0.0700775 0.
0.536919 0.0711976 0.
0.539487 0.0722271 0.
0.542058 0.0731898 0.
0.54462 0.074109 0.
0.54718 0.0749785 0.
0.549733 0.0758014 0.
0.552281 0.0765799 0.
0.55482 0.0773328 0.
0.557343 0.0780492 0.
0.559867 0.078706 0.
0.562362 0.0792754 0.
0.564854 0.0798181 0.
0.567293 0.0802618 0.
0.569693 0.080704 0.
0.572087 0.0811505 0.
0.574371 0.0814084 0.
0.576667 0.0816698 0.
0.578914 0.0819006 0.
0.581131 0.0821414 0.
0.583345 0.0823754 0.
0.585446 0.082434 0.
0.587548 0.0824928 0.
0.589641 0.0825426 0.
0.591722 0.0825814 0.
0.593803 0.0826204 0.
0.595882 0.0826354 0.
0.59796 0.0826419 0.
0.600038 0.0826481 0.
0.60212 0.0826215 0.
0.604201 0.0825948 0.
0.606285 0.0825603 0.
0.608375 0.0825067 0.
0.610465 0.0824532 0.
0.612582 0.0823821 0.
0.614712 0.0823008 0.
0.616845 0.082215 0.
0.619095 0.0819373 0.
0.621338 0.0816592 0.
0.623627 0.0813858 0.
0.625961 0.0810866 0.
0.628291 0.0807802 0.
0.630719 0.0802785 0.
0.633151 0.0797826 0.
0.63563 0.0792625 0.
0.638138 0.0786666 0.
0.640655 0.0780498 0.
0.643196 0.0773788 0.
0.645735 0.0766345 0.
0.648293 0.0758198 0.
0.650856 0.0749752 0.
0.65342 0.0740706 0.
0.655984 0.0731225 0.
0.658549 0.0721239 0.
0.661119 0.0710949 0.
0.663686 0.0700171 0.
0.666241 0.0688676 0.
0.668793 0.0676634 0.
0.671344 0.0664075 0.
0.673883 0.0650971 0.
0.676422 0.0637327 0.
0.678953 0.0623365 0.
0.681468 0.0608979 0.
0.683984 0.05943 0.
0.686504 0.0579296 0.
0.68903 0.0563713 0.
0.691567 0.0547604 0.
0.694112 0.0531304 0.
0.696679 0.0515056 0.
0.699261 0.0499021 0.
0.701876 0.0483054 0.
0.704522 0.0467269 0.
0.707194 0.0451986 0.
0.70988 0.0437582 0.
0.712575 0.0424562 0.
0.715243 0.0414026 0.
0.717871 0.0406232 0.
0.720446 0.0401467 0.
0.478361 0.0417489 0.
0.480893 0.0422631 0.
0.483478 0.0431045 0.
0.486099 0.0442106 0.
0.488734 0.0455258 0.
0.491354 0.0469683 0.
0.493943 0.0484662 0.
0.49651 0.0500368 0.
0.499041 0.0516621 0.
0.501546 0.0533217 0.
0.504039 0.0549614 0.
0.506521 0.05652 0.
0.508981 0.0580094 0.
0.51144 0.0594669 0.
0.513896 0.0609126 0.
0.51636 0.0623566 0.
0.518834 0.06381 0.
0.521323 0.0652319 0.
0.523835 0.0665949 0.
0.526353 0.0679095 0.
0.528882 0.0691537 0.
0.531428 0.0703394 0.
0.533978 0.0714842 0.
0.536529 0.0726017 0.
0.539085 0.0736369 0.
0.541647 0.074606 0.
0.544207 0.0755348 0.
0.546762 0.0764124 0.
0.549312 0.0772439 0.
0.551859 0.0780305 0.
0.554399 0.0788007 0.
0.556926 0.0795322 0.
0.559454 0.0802023 0.
0.561957 0.0808047 0.
0.564453 0.0813752 0.
0.566922 0.0818606 0.
0.569354 0.0823454 0.
0.571784 0.0828435 0.
0.574128 0.0831418 0.
0.576479 0.0834319 0.
0.57877 0.0837067 0.
0.58101 0.0839987 0.
0.583252 0.0842875 0.
0.585369 0.0843536 0.
0.587486 0.0844178 0.
0.589593 0.0844723 0.
0.591684 0.0845137 0.
0.593775 0.0845553 0.
0.595866 0.084571 0.
0.597955 0.0845773 0.
0.600045 0.0845832 0.
0.602139 0.0845547 0.
0.604233 0.0845263 0.
0.606328 0.0844889 0.
0.608427 0.0844309 0.
0.610525 0.0843731 0.
0.612661 0.08429 0.
0.614812 0.0841947 0.
0.616973 0.0840873 0.
0.619261 0.0837547 0.
0.621541 0.0834241 0.
0.623879 0.0831021 0.
0.626261 0.0827686 0.
0.628645 0.0824126 0.
0.631094 0.0818685 0.
0.633544 0.0813369 0.
0.636039 0.0807904 0.
0.638551 0.0801774 0.
0.641075 0.0795333 0.
0.643618 0.0788446 0.
0.64616 0.0780793 0.
0.648715 0.0772501 0.
0.651274 0.0763978 0.
0.653831 0.0754893 0.
0.656389 0.0745359 0.
0.65895 0.0735313 0.
0.661509 0.0725023 0.
0.664064 0.071426 0.
0.666606 0.070284 0.
0.669143 0.0690874 0.
0.671667 0.0678461 0.
0.674173 0.0665548 0.
0.676675 0.0652139 0.
0.67917 0.0638455 0.
0.681641 0.06244 0.
0.684101 0.0610072 0.
0.686561 0.0595427 0.
0.689024 0.0580224 0.
0.691492 0.0564548 0.
0.693962 0.0548672 0.
0.696453 0.0532727 0.
0.698961 0.0516911 0.
0.701499 0.0501194 0.
0.704071 0.048555 0.
0.706679 0.047032 0.
0.709306 0.0455944 0.
0.711946 0.0442732 0.
0.714572 0.0431906 0.
0.717159 0.0423935 0.
0.719695 0.0418943 0.
0.479137 0.0435278 0.
0.481631 0.0440767 0.
0.48418 0.0449571 0.
0.486753 0.046091 0.
0.489324 0.0474221 0.
0.491874 0.0488587 0.
0.494393 0.0503572 0.
0.496878 0.0519147 0.
0.499327 0.0535132 0.
0.501764 0.0551449 0.
0.504183 0.0567382 0.
0.506589 0.0582491 0.
0.508981 0.0597044 0.
0.511376 0.0611272 0.
0.513773 0.0625325 0.
0.516189 0.0639334 0.
0.518623 0.0653472 0.
0.521075 0.0667351 0.
0.523553 0.0680697 0.
0.526045 0.0693637 0.
0.528549 0.0705942 0.
0.531075 0.0717672 0.
0.533608 0.0729037 0.
0.536143 0.0740164 0.
0.538689 0.0750559 0.
0.541242 0.0760284 0.
0.543793 0.0769622 0.
0.546341 0.0778463 0.
0.548887 0.0786835 0.
0.551431 0.0794768 0.
0.553969 0.0802578 0.
0.556497 0.0809988 0.
0.559029 0.081682 0.
0.56154 0.0823201 0.
0.564044 0.0829217 0.
0.566538 0.0834469 0.
0.568997 0.0839739 0.
0.571458 0.0845177 0.
0.573855 0.0848568 0.
0.576242 0.0851678 0.
0.578564 0.0854783 0.
0.580819 0.0858069 0.
0.583082 0.0861331 0.
0.58524 0.0862248 0.
0.587395 0.0863083 0.
0.589534 0.0863775 0.
0.591639 0.0864198 0.
0.593743 0.0864621 0.
0.595847 0.0864777 0.
0.597951 0.0864831 0.
0.600056 0.0864881 0.
0.602164 0.0864584 0.
0.604272 0.0864288 0.
0.606381 0.0863898 0.
0.608494 0.0863302 0.
0.610606 0.0862706 0.
0.612776 0.086164 0.
0.614962 0.0860412 0.
0.617166 0.0858978 0.
0.619481 0.0855286 0.
0.621785 0.0851617 0.
0.624162 0.0848003 0.
0.626583 0.0844361 0.
0.629014 0.0840315 0.
0.631482 0.0834482 0.
0.633952 0.0828792 0.
0.636459 0.0823049 0.
0.638973 0.0816715 0.
0.641503 0.0810012 0.
0.644048 0.0803 0.
0.646591 0.0795196 0.
0.64914 0.07868 0.
0.651693 0.0778215 0.
0.654242 0.0769116 0.
0.656791 0.0759555 0.
0.659339 0.0749489 0.
0.661889 0.0739206 0.
0.664432 0.0728486 0.
0.666958 0.0717166 0.
0.669477 0.0705332 0.
0.671982 0.069308 0.
0.674458 0.0680356 0.
0.676923 0.0667225 0.
0.679379 0.0653865 0.
0.681811 0.0640151 0.
0.684224 0.0626186 0.
0.686625 0.0611947 0.
0.689021 0.0597176 0.
0.691421 0.0581938 0.
0.69382 0.056648 0.
0.696233 0.0550908 0.
0.698662 0.0535328 0.
0.701125 0.0519815 0.
0.703618 0.0504411 0.
0.706149 0.0489234 0.
0.708711 0.0474832 0.
0.711292 0.0461527 0.
0.713867 0.0450337 0.
0.71641 0.0442083 0.
0.718912 0.0436754 0.
0.479947 0.0453506 0.
0.482405 0.0459421 0.
0.484906 0.0468666 0.
0.487419 0.0480312 0.
0.489921 0.0493745 0.
0.492398 0.0508141 0.
0.494835 0.0523045 0.
0.497234 0.0538412 0.
0.499608 0.0554202 0.
0.501967 0.0570092 0.
0.50431 0.0585487 0.
0.506647 0.0600192 0.
0.508973 0.061437 0.
0.511307 0.0628207 0.
0.513654 0.0641868 0.
0.516024 0.065542 0.
0.518417 0.0669142 0.
0.520832 0.0682655 0.
0.523277 0.0695691 0.
0.52574 0.0708384 0.
0.52822 0.0720513 0.
0.530725 0.0732085 0.
0.53324 0.0743357 0.
0.535762 0.0754417 0.
0.538296 0.0764824 0.
0.540838 0.0774553 0.
0.543381 0.0783921 0.
0.545921 0.0792826 0.
0.548463 0.0801232 0.
0.551007 0.0809219 0.
0.553543 0.0817134 0.
0.556073 0.0824641 0.
0.558607 0.0831571 0.
0.561126 0.083821 0.
0.563637 0.0844471 0.
0.566143 0.0849985 0.
0.568618 0.0855421 0.
0.571089 0.0860934 0.
0.573504 0.0864878 0.
0.575907 0.0868483 0.
0.57827 0.0872116 0.
0.580564 0.0875782 0.
0.582869 0.0879445 0.
0.585085 0.0880748 0.
0.58729 0.0881866 0.
0.589472 0.0882773 0.
0.591591 0.0883205 0.
0.593709 0.0883637 0.
0.595828 0.088379 0.
0.597947 0.0883836 0.
0.600066 0.0883877 0.
0.60219 0.0883564 0.
0.604312 0.0883251 0.
0.606438 0.0882842 0.
0.608567 0.0882229 0.
0.610696 0.0881617 0.
0.61291 0.0880213 0.
0.615145 0.0878595 0.
0.617407 0.0876656 0.
0.619766 0.0872551 0.
0.622111 0.0868489 0.
0.624523 0.0864387 0.
0.626958 0.0860375 0.
0.629405 0.0855862 0.
0.631881 0.0849918 0.
0.634364 0.084404 0.
0.636877 0.0838099 0.
0.639394 0.0831573 0.
0.641928 0.0824657 0.
0.644473 0.0817546 0.
0.647015 0.0809615 0.
0.649562 0.0801121 0.
0.652112 0.0792483 0.
0.654654 0.0783386 0.
0.657193 0.0773801 0.
0.659729 0.0763747 0.
0.662264 0.0753508 0.
0.664792 0.074284 0.
0.667304 0.0731631 0.
0.669802 0.0719958 0.
0.672283 0.0707936 0.
0.674735 0.0695412 0.
0.677169 0.0682553 0.
0.679588 0.0669545 0.
0.681979 0.0656209 0.
0.684351 0.0642617 0.
0.6867 0.0628797 0.
0.689034 0.0614468 0.
0.691366 0.0599719 0.
0.693695 0.0584679 0.
0.696034 0.0569473 0.
0.698382 0.0554251 0.
0.70076 0.0538963 0.
0.703172 0.0523766 0.
0.70562 0.0508785 0.
0.708103 0.049434 0.
0.710617 0.0480901 0.
0.713134 0.0469374 0.
0.715625 0.0460778 0.
0.718086 0.0454971 0.
0.48077 0.0472197 0.
0.483184 0.0478652 0.
0.485626 0.0488309 0.
0.48807 0.0500253 0.
0.490497 0.0513785 0.
0.492888 0.0528126 0.
0.495237 0.0542864 0.
0.497551 0.0558041 0.
0.499842 0.0573499 0.
0.502122 0.0588882 0.
0.504392 0.0603792 0.
0.506664 0.0618067 0.
0.508931 0.0631845 0.
0.511212 0.0645317 0.
0.513513 0.065857 0.
0.51584 0.0671672 0.
0.518196 0.068499 0.
0.520576 0.0698137 0.
0.52299 0.0710845 0.
0.525427 0.0723261 0.
0.527884 0.0735204 0.
0.530372 0.0746611 0.
0.532875 0.0757775 0.
0.535383 0.0768736 0.
0.537906 0.0779136 0.
0.540439 0.0788874 0.
0.542975 0.0798266 0.
0.54551 0.0807226 0.
0.548048 0.0815658 0.
0.55059 0.0823696 0.
0.553125 0.0831689 0.
0.555656 0.0839288 0.
0.558194 0.0846314 0.
0.560721 0.0853133 0.
0.563236 0.0859533 0.
0.565747 0.0865215 0.
0.568233 0.0870839 0.
0.570715 0.0876549 0.
0.573151 0.0881065 0.
0.575571 0.0885172 0.
0.577972 0.0889386 0.
0.580307 0.0893429 0.
0.582654 0.0897475 0.
0.584929 0.0899166 0.
0.587184 0.0900559 0.
0.589411 0.0901716 0.
0.591543 0.0902151 0.
0.593677 0.0902587 0.
0.59581 0.0902738 0.
0.597944 0.0902774 0.
0.600078 0.0902805 0.
0.602215 0.0902479 0.
0.604353 0.0902153 0.
0.606493 0.0901729 0.
0.608639 0.0901105 0.
0.610784 0.0900482 0.
0.613046 0.0898712 0.
0.615329 0.0896701 0.
0.617651 0.0894256 0.
0.620055 0.0889746 0.
0.622443 0.0885275 0.
0.624887 0.0880658 0.
0.627338 0.0876214 0.
0.6298 0.0871234 0.
0.632282 0.086516 0.
0.634773 0.0859138 0.
0.63729 0.0853055 0.
0.639811 0.0846381 0.
0.642348 0.0839307 0.
0.644893 0.0832084 0.
0.647433 0.0824046 0.
0.649975 0.0815478 0.
0.652521 0.0806803 0.
0.655059 0.0797719 0.
0.65759 0.0788109 0.
0.660117 0.0778076 0.
0.662639 0.0767892 0.
0.665153 0.0757307 0.
0.667647 0.0746216 0.
0.670131 0.0734711 0.
0.672592 0.0722919 0.
0.675018 0.071064 0.
0.677425 0.0698062 0.
0.679811 0.0685375 0.
0.682167 0.0672421 0.
0.6845 0.0659218 0.
0.686806 0.0645803 0.
0.68909 0.0631895 0.
0.691359 0.0617618 0.
0.693618 0.0603065 0.
0.695883 0.0588261 0.
0.698153 0.0573392 0.
0.700445 0.0558452 0.
0.702767 0.0543503 0.
0.705126 0.0528724 0.
0.707522 0.0514375 0.
0.709955 0.0500809 0.
0.712405 0.0488945 0.
0.714837 0.0479944 0.
0.717248 0.0473663 0.
0.481579 0.049142 0.
0.483935 0.0498479 0.
0.486306 0.0508485 0.
0.488671 0.0520639 0.
0.491007 0.0534163 0.
0.493301 0.0548359 0.
0.495557 0.0562895 0.
0.497779 0.0577773 0.
0.499987 0.0592785 0.
0.502191 0.0607685 0.
0.504397 0.0622116 0.
0.506609 0.0635951 0.
0.508824 0.0649375 0.
0.511061 0.0662472 0.
0.513322 0.0675342 0.
0.515614 0.0688033 0.
0.517937 0.0700971 0.
0.520286 0.0713735 0.
0.522675 0.0726096 0.
0.525094 0.0738251 0.
0.527535 0.0750035 0.
0.530012 0.0761255 0.
0.532504 0.077228 0.
0.535003 0.0783145 0.
0.537519 0.0793549 0.
0.540045 0.0803301 0.
0.542576 0.0812692 0.
0.545107 0.0821686 0.
0.547643 0.0830139 0.
0.550186 0.0838221 0.
0.552724 0.084627 0.
0.555259 0.0853961 0.
0.557798 0.086107 0.
0.560328 0.0868021 0.
0.562848 0.0874562 0.
0.565364 0.0880435 0.
0.567865 0.0886215 0.
0.570361 0.0892099 0.
0.57282 0.089707 0.
0.57526 0.0901563 0.
0.57769 0.0906136 0.
0.580057 0.0910226 0.
0.582435 0.0914272 0.
0.584759 0.0916545 0.
0.587069 0.0918675 0.
0.589347 0.092046 0.
0.591496 0.0920902 0.
0.593645 0.0921344 0.
0.595794 0.0921493 0.
0.597942 0.0921523 0.
0.600091 0.0921546 0.
0.602243 0.0921202 0.
0.604394 0.0920859 0.
0.606549 0.0920409 0.
0.608709 0.0919757 0.
0.610868 0.0919106 0.
0.613196 0.0916548 0.
0.615539 0.0913784 0.
0.617911 0.0910767 0.
0.620337 0.090622 0.
0.622758 0.0901622 0.
0.625226 0.0896742 0.
0.627697 0.0891932 0.
0.630175 0.0886588 0.
0.632666 0.0880394 0.
0.635168 0.0874233 0.
0.63769 0.0867977 0.
0.640213 0.0861141 0.
0.642752 0.0853966 0.
0.645298 0.084664 0.
0.64784 0.0838514 0.
0.650379 0.0829892 0.
0.652922 0.0821195 0.
0.655456 0.0812131 0.
0.657984 0.0802513 0.
0.660506 0.0792509 0.
0.66302 0.0782378 0.
0.665522 0.0771867 0.
0.668004 0.0760912 0.
0.670474 0.074959 0.
0.67292 0.0738008 0.
0.675325 0.0725964 0.
0.677708 0.0713693 0.
0.680066 0.0701329 0.
0.682392 0.0688716 0.
0.684693 0.0675893 0.
0.686962 0.066288 0.
0.689205 0.0649371 0.
0.691425 0.0635518 0.
0.693624 0.0621423 0.
0.695819 0.0607089 0.
0.698014 0.0592596 0.
0.700221 0.0578017 0.
0.702452 0.0563433 0.
0.704713 0.0548922 0.
0.707015 0.053474 0.
0.709353 0.0521157 0.
0.71172 0.0509046 0.
0.714083 0.0499626 0.
0.716437 0.0492916 0.
0.482341 0.0511227 0.
0.484627 0.0518796 0.
0.486915 0.0529088 0.
0.489183 0.0541349 0.
0.491414 0.0554779 0.
0.493609 0.0568747 0.
0.49577 0.0582989 0.
0.497904 0.0597486 0.
0.500037 0.0612046 0.
0.502177 0.0626459 0.
0.504325 0.0640433 0.
0.50649 0.0653898 0.
0.508666 0.0666941 0.
0.510867 0.067969 0.
0.513098 0.0692259 0.
0.515363 0.0704609 0.
0.517659 0.0717151 0.
0.519987 0.0729507 0.
0.522362 0.0741547 0.
0.524768 0.0753459 0.
0.527196 0.0765052 0.
0.529663 0.0776087 0.
0.532147 0.0786982 0.
0.534641 0.0797751 0.
0.537149 0.0808128 0.
0.539667 0.0817852 0.
0.542194 0.0827225 0.
0.544725 0.0836252 0.
0.547261 0.0844715 0.
0.549808 0.0852826 0.
0.552347 0.0860918 0.
0.554883 0.0868677 0.
0.557423 0.0875856 0.
0.559958 0.0882916 0.
0.562483 0.0889587 0.
0.565007 0.0895606 0.
0.567518 0.0901533 0.
0.57002 0.0907603 0.
0.572494 0.0912873 0.
0.574944 0.0917596 0.
0.57739 0.0922465 0.
0.579795 0.0926765 0.
0.582208 0.0930967 0.
0.584583 0.0933837 0.
0.586949 0.0936733 0.
0.589282 0.0939204 0.
0.591447 0.0939652 0.
0.593613 0.09401 0.
0.595777 0.0940249 0.
0.597941 0.0940271 0.
0.600104 0.0940286 0.
0.60227 0.0939925 0.
0.604435 0.0939564 0.
0.606605 0.0939089 0.
0.608779 0.0938408 0.
0.610952 0.0937729 0.
0.613354 0.0934286 0.
0.615763 0.0930664 0.
0.618188 0.0926998 0.
0.620638 0.0922225 0.
0.623084 0.0917366 0.
0.625558 0.0912387 0.
0.628036 0.0907479 0.
0.630524 0.0901943 0.
0.633025 0.0895633 0.
0.635537 0.0889326 0.
0.638064 0.0882916 0.
0.640593 0.0875935 0.
0.643134 0.0868668 0.
0.645679 0.0861254 0.
0.64822 0.0853071 0.
0.650761 0.0844398 0.
0.653305 0.0835691 0.
0.655836 0.0826651 0.
0.65836 0.0817047 0.
0.660877 0.080711 0.
0.663385 0.0797042 0.
0.665878 0.0786608 0.
0.668349 0.0775786 0.
0.670808 0.0764669 0.
0.673242 0.0753318 0.
0.675634 0.0741492 0.
0.677999 0.0729499 0.
0.680335 0.071746 0.
0.682635 0.0705191 0.
0.684911 0.0692701 0.
0.687154 0.0680058 0.
0.689365 0.0666929 0.
0.691547 0.0653484 0.
0.693701 0.0639778 0.
0.695841 0.0625876 0.
0.69797 0.061181 0.
0.700101 0.0597591 0.
0.702245 0.0583368 0.
0.704411 0.0569224 0.
0.706614 0.055532 0.
0.708849 0.0541834 0.
0.711116 0.052961 0.
0.713395 0.0519828 0.
0.715678 0.0512703 0.
0.482995 0.0531453 0.
0.485197 0.0539423 0.
0.487388 0.0549957 0.
0.489552 0.0562244 0.
0.491683 0.0575462 0.
0.493782 0.0589135 0.
0.495856 0.0603047 0.
0.497922 0.0617122 0.
0.5 0.0631244 0.
0.50209 0.0645258 0.
0.504198 0.0658843 0.
0.506331 0.0671899 0.
0.508483 0.0684612 0.
0.510664 0.0697088 0.
0.512873 0.0709415 0.
0.515115 0.0721424 0.
0.517396 0.073358 0.
0.519714 0.074557 0.
0.522078 0.0757313 0.
0.524473 0.0768956 0.
0.52689 0.0780337 0.
0.529348 0.0791188 0.
0.531826 0.0801944 0.
0.534312 0.0812584 0.
0.536812 0.082288 0.
0.539324 0.0832573 0.
0.541848 0.0841936 0.
0.54438 0.0850971 0.
0.546915 0.0859429 0.
0.549458 0.0867539 0.
0.551996 0.0875647 0.
0.554533 0.088346 0.
0.557076 0.0890702 0.
0.559613 0.0897846 0.
0.562143 0.0904619 0.
0.56467 0.0910754 0.
0.567182 0.0916812 0.
0.569686 0.0923058 0.
0.572173 0.0928609 0.
0.574633 0.0933563 0.
0.577093 0.0938697 0.
0.579534 0.0943191 0.
0.581981 0.0947474 0.
0.584405 0.0950832 0.
0.586825 0.0954476 0.
0.589213 0.0957704 0.
0.591396 0.0958154 0.
0.59358 0.0958603 0.
0.595761 0.0958755 0.
0.59794 0.0958775 0.
0.60012 0.0958789 0.
0.6023 0.095842 0.
0.604479 0.0958051 0.
0.606664 0.0957558 0.
0.608853 0.0956856 0.
0.611041 0.0956156 0.
0.613512 0.0951759 0.
0.615989 0.0947329 0.
0.61846 0.0943108 0.
0.620935 0.093814 0.
0.623404 0.0933069 0.
0.625885 0.0927983 0.
0.628368 0.0922957 0.
0.630861 0.0917257 0.
0.633363 0.0910855 0.
0.635878 0.0904426 0.
0.63841 0.0897891 0.
0.640944 0.0890797 0.
0.643486 0.0883455 0.
0.646032 0.0875956 0.
0.648571 0.086774 0.
0.65111 0.0859059 0.
0.653651 0.085035 0.
0.656182 0.0841327 0.
0.658704 0.0831765 0.
0.661214 0.0821907 0.
0.663712 0.0811931 0.
0.666198 0.0801596 0.
0.668662 0.0790915 0.
0.671111 0.078002 0.
0.673534 0.0768916 0.
0.675914 0.0757363 0.
0.678268 0.0745631 0.
0.680589 0.0733865 0.
0.682873 0.0721902 0.
0.685129 0.0709761 0.
0.687354 0.0697454 0.
0.689545 0.0684638 0.
0.691701 0.0671539 0.
0.693826 0.0658212 0.
0.695931 0.0644671 0.
0.698013 0.0630988 0.
0.700086 0.0617144 0.
0.702161 0.0603267 0.
0.704246 0.0589468 0.
0.706355 0.0575897 0.
0.70849 0.056266 0.
0.710652 0.0550457 0.
0.712835 0.0540412 0.
0.715032 0.0532894 0.
0.483483 0.0551941 0.
0.485596 0.0560286 0.
0.487692 0.0571037 0.
0.489763 0.0583298 0.
0.491802 0.059632 0.
0.493821 0.0609685 0.
0.495838 0.0623241 0.
0.49786 0.0636969 0.
0.499902 0.0650789 0.
0.501962 0.0664441 0.
0.504047 0.0677582 0.
0.506168 0.0690266 0.
0.508315 0.0702715 0.
0.510483 0.0714944 0.
0.512674 0.072702 0.
0.514905 0.0738689 0.
0.517181 0.0750463 0.
0.519494 0.0762091 0.
0.521846 0.0773537 0.
0.524232 0.078494 0.
0.526641 0.079608 0.
0.529092 0.0806723 0.
0.531558 0.0817277 0.
0.534038 0.0827768 0.
0.536532 0.0837949 0.
0.53904 0.0847591 0.
0.541565 0.0856959 0.
0.544088 0.086595 0.
0.546617 0.0874343 0.
0.54916 0.0882463 0.
0.551703 0.0890616 0.
0.55424 0.0898454 0.
0.556785 0.0905763 0.
0.559317 0.0912949 0.
0.561841 0.0919769 0.
0.564366 0.0925981 0.
0.56688 0.0932156 0.
0.569387 0.0938563 0.
0.571886 0.094435 0.
0.574364 0.0949506 0.
0.57684 0.0954674 0.
0.579307 0.095921 0.
0.581775 0.0963475 0.
0.584233 0.0967294 0.
0.586697 0.0971855 0.
0.589135 0.0976019 0.
0.591339 0.0976485 0.
0.593544 0.0976951 0.
0.595744 0.0977114 0.
0.59794 0.097714 0.
0.600137 0.0977158 0.
0.602332 0.097678 0.
0.604527 0.0976402 0.
0.606728 0.0975884 0.
0.608936 0.0975145 0.
0.611145 0.0974377 0.
0.613655 0.0968791 0.
0.616164 0.0963373 0.
0.618668 0.095887 0.
0.621173 0.095391 0.
0.623675 0.094875 0.
0.626169 0.0943621 0.
0.628662 0.0938486 0.
0.631164 0.0932657 0.
0.633668 0.0926172 0.
0.636181 0.091962 0.
0.638706 0.0912998 0.
0.641233 0.0905887 0.
0.643777 0.0898476 0.
0.646327 0.0890875 0.
0.648867 0.0882655 0.
0.651407 0.0873946 0.
0.653945 0.0865253 0.
0.656469 0.0856323 0.
0.658988 0.0846833 0.
0.661497 0.0837034 0.
0.663987 0.0827152 0.
0.66646 0.0816971 0.
0.668913 0.0806496 0.
0.671354 0.0795822 0.
0.673771 0.078497 0.
0.676144 0.0773709 0.
0.678488 0.0762274 0.
0.680799 0.0750788 0.
0.683074 0.073908 0.
0.685321 0.0727249 0.
0.687532 0.0715308 0.
0.689709 0.0702817 0.
0.691856 0.0689997 0.
0.693969 0.0676975 0.
0.696055 0.0663808 0.
0.698112 0.0650497 0.
0.700151 0.0636958 0.
0.702176 0.0623393 0.
0.704201 0.0609907 0.
0.706237 0.0596613 0.
0.708286 0.0583605 0.
0.710354 0.0571477 0.
0.712443 0.0561245 0.
0.714552 0.0553339 0.
CELLS 5000 10000
1 0
1 1
1 2
1 3
1 4
1 5
1 6
1 7
1 8
1 9
1 10
1 11
1 12
1 13
1 14
1 15
1 16
1 17
1 18
1 19
1 20
1 21
1 22
1 23
1 24
1 25
1 26
1 27
1 28
1 29
1 30
1 31
1 32
1 33
1 34
1 35
1 36
1 37
1 38
1 39
1 40
1 41
1 42
1 43
1 44
1 45
1 46
1 47
1 48
1 49
1 50
1 51
1 52
1 53
1 54
1 55
1 56
1 57
1 58
1 59
1 60
1 61
1 62
1 63
1 64
1 65
1 66
1 67
1 68
1 69
1 70
1 71
1 72
1 73
1 74
1 75
1 76
1 77
1 78
1 79
1 80
1 81
1 82
1 83
1 84
1 85
1 86
1 87
1 88
1 89
1 90
1 91
1 92
1 93
1 94
1 95
1 96
1 97
1 98
1 99
1 100
1 101
1 102
1 103
1 104
1 105
1 106
1 107
1 108
1 109
1 110
1 111
1 112
1 113
1 114
1 115
1 116
1 117
1 118
1 119
1 120
1 121
1 122
1 123
1 124
1 125
1 126
1 127
1 128
1 129
1 130
1 131
1 132
1 133
1 134
1 135
1 136
1 137
1 138
1 139
1 140
1 141
1 142
1 143
1 144
1 145
1 146
1 147
1 148
1 149
1 150
1 151
1 152
1 153
1 154
1 155
1 156
1 157
1 158
1 159
1 160
1 161
1 162
1 163
1 164
1 165
1 166
1 167
1 168
1 169
1 170
1 171
1 172
1 173
1 174
1 175
1 176
1 177
1 178
1 179
1 180
1 181
1 182
1 183
1 184
1 185
1 186
1 187
1 188
1 189
1 190
1 191
1 192
1 193
1 194
1 195
1 196
1 197
1 198
1 199
1 200
1 201
1 202
1 203
1 204
1 205
1 206
1 207
1 208
1 209
1 210
1 211
1 212
1 213
1 214
1 215
1 216
1 217
1 218
1 219
1 220
1 221
1 222
1 223
1 224
1 225
1 226
1 227
1 228
1 229
1 230
1 231
1 232
1 233
1 234
1 235
1 236
1 237
1 238
1 239
1 240
1 241
1 242
1 243
1 244
1 245
1 246
1 247
1 248
1 249
1 250
1 251
1 252
1 253
1 254
1 255
1 256
1 257
1 258
1 259
1 260
1 261
1 262
1 263
1 264
1 265
1 266
1 267
1 268
1 269
1 270
1 271
1 272
1 273
1 274
1 275
1 276
1 277
1 278
1 279
1 280
1 281
1 282
1 283
1 284
1 285
1 286
1 287
1 288
1 289
1 290
1 291
1 292
1 293
1 294
1 295
1 296
1 297
1 298
1 299
1 300
1 301
1 302
1 303
1 304
1 305
1 306
1 307
1 308
1 309
1 310
1 311
1 312
1 313
1 314
1 315
1 316
1 317
1 318
1 319
1 320
1 321
1 322
1 323
1 324
1 325
1 326
1 327
1 328
1 329
1 330
1 331
1 332
1 333
1 334
1 335
1 336
1 337
1 338
1 339
1 340
1 341
1 342
1 343
1 344
1 345
1 346
1 347
1 348
1 349
1 350
1 351
1 352
1 353
1 354
1 355
1 356
1 357
1 358
1 359
1 360
1 361
1 362
1 363
1 364
1 365
1 366
1 367
1 368
1 369
1 370
1 371
1 372
1 373
1 374
1 375
1 376
1 377
1 378
1 379
1 380
1 381
1 382
1 383
1 384
1 385
1 386
1 387
1 388
1 389
1 390
1 391
1 392
1 393
1 394
1 395
1 396
1 397
1 398
1 399
1 400
1 401
1 402
1 403
1 404
1 405
1 406
1 407
1 408
1 409
1 410
1 411
1 412
1 413
1 414
1 415
1 416
1 417
1 418
1 419
1 420
1 421
1 422
1 423
1 424
1 425
1 426
1 427
1 428
1 429
1 430
1 431
1 432
1 433
1 434
1 435
1 436
1 437
1 438
1 439
1 440
1 441
1 442
1 443
1 444
1 445
1 446
1 447
1 448
1 449
1 450
1 451
1 452
1 453
1 454
1 455
1 456
1 457
1 458
1 459
1 460
1 461
1 462
1 463
1 464
1 465
1 466
1 467
1 468
1 469
1 470
1 471
1 472
1 473
1 474
1 475
1 476
1 477
1 478
1 479
1 480
1 481
1 482
1 483
1 484
1 485
1 486
1 487
1 488
1 489
1 490
1 491
1 492
1 493
1 494
1 495
1 496
1 497
1 498
1 499
1 500
1 501
1 502
1 503
1 504
1 505
1 506
1 507
1 508
1 509
1 510
1 511
1 512
1 513
1 514
1 515
1 516
1 517
1 518
1 519
1 520
1 521
1 522
1 523
1 524
1 525
1 526
1 527
1 528
1 529
1 530
1 531
1 532
1 533
1 534
1 535
1 536
1 537
1 538
1 539
1 540
1 541
1 542
1 543
1 544
1 545
1 546
1 547
1 548
1 549
1 550
1 551
1 552
1 553
1 554
1 555
1 556
1 557
1 558
1 559
1 560
1 561
1 562
1 563
1 564
1 565
1 566
1 567
1 568
1 569
1 570
1 571
1 572
1 573
1 574
1 575
1 576
1 577
1 578
1 579
1 580
1 581
1 582
1 583
1 584
1 585
1 586
1 587
1 588
1 589
1 590
1 591
1 592
1 593
1 594
1 595
1 596
1 597
1 598
1 599
1 600
1 601
1 602
1 603
1 604
1 605
1 606
1 607
1 608
1 609
1 610
1 611
1 612
1 613
1 614
1 615
1 616
1 617
1 618
1 619
1 620
1 621
1 622
1 623
1 624
1 625
1 626
1 627
1 628
1 629
1 630
1 631
1 632
1 633
1 634
1 635
1 636
1 637
1 638
1 639
1 640
1 641
1 642
1 643
1 644
1 645
1 646
1 647
1 648
1 649
1 650
1 651
1 652
1 653
1 654
1 655
1 656
1 657
1 658
1 659
1 660
1 661
1 662
1 663
1 664
1 665
1 666
1 667
1 668
1 669
1 670
1 671
1 672
1 673
1 674
1 675
1 676
1 677
1 678
1 679
1 680
1 681
1 682
1 683
1 684
1 685
1 686
1 687
1 688
1 689
1 690
1 691
1 692
1 693
1 694
1 695
1 696
1 697
1 698
1 699
1 700
1 701
1 702
1 703
1 704
1 705
1 706
1 707
1 708
1 709
1 710
1 711
1 712
1 713
1 714
1 715
1 716
1 717
1 718
1 719
1 720
1 721
1 722
1 723
1 724
1 725
1 726
1 727
1 728
1 729
1 730
1 731
1 732
1 733
1 734
1 735
1 736
1 737
1 738
1 739
1 740
1 741
1 742
1 743
1 744
1 745
1 746
1 747
1 748
1 749
1 750
1 751
1 752
1 753
1 754
1 755
1 756
1 757
1 758
1 759
1 760
1 761
1 762
1 763
1 764
1 765
1 766
1 767
1 768
1 769
1 770
1 771
1 772
1 773
1 774
1 775
1 776
1 777
1 778
1 779
1 780
1 781
1 782
1 783
1 784
1 785
1 786
1 787
1 788
1 789
1 790
1 791
1 792
1 793
1 794
1 795
1 796
1 797
1 798
1 799
1 800
1 801
1 802
1 803
1 804
1 805
1 806
1 807
1 808
1 809
1 810
1 811
1 812
1 813
1 814
1 815
1 816
1 817
1 818
1 819
1 820
1 821
1 822
1 823
1 824
1 825
1 826
1 827
1 828
1 829
1 830
1 831
1 832
1 833
1 834
1 835
1 836
1 837
1 838
1 839
1 840
1 841
1 842
1 843
1 844
1 845
1 846
1 847
1 848
1 849
1 850
1 851
1 852
1 853
1 854
1 855
1 856
1 857
1 858
1 859
1 860
1 861
1 862
1 863
1 864
1 865
1 866
1 867
1 868
1 869
1 870
1 871
1 872
1 873
1 874
1 875
1 876
1 877
1 878
1 879
1 880
1 881
1 882
1 883
1 884
1 885
1 886
1 887
1 888
1 889
1 890
1 891
1 892
1 893
1 894
1 895
1 896
1 897
1 898
1 899
1 900
1 901
1 902
1 903
1 904
1 905
1 906
1 907
1 908
1 909
1 910
1 911
1 912
1 913
1 914
1 915
1 916
1 917
1 918
1 919
1 920
1 921
1 922
1 923
1 924
1 925
1 926
1 927
1 928
1 929
1 930
1 931
1 932
1 933
1 934
1 935
1 936
1 937
1 938
1 939
1 940
1 941
1 942
1 943
1 944
1 945
1 946
1 947
1 948
1 949
1 950
1 951
1 952
1 953
1 954
1 955
1 956
1 957
1 958
1 959
1 960
1 961
1 962
1 963
1 964
1 965
1 966
1 967
1 968
1 969
1 970
1 971
1 972
1 973
1 974
1 975
1 976
1 977
1 978
1 979
1 980
1 981
1 982
1 983
1 984
1 985
1 986
1 987
1 988
1 989
1 990
1 991
1 992
1 993
1 994
1 995
1 996
1 997
1 998
1 999
1 1000
1 1001
1 1002
1 1003
1 1004
1 1005
1 1006
1 1007
1 1008
1 1009
1 1010
1 1011
1 1012
1 1013
1 1014
1 1015
1 1016
1 1017
1 1018
1 1019
1 1020
1 1021
1 1022
1 1023
1 1024
1 1025
1 1026
1 1027
1 1028
1 1029
1 1030
1 1031
1 1032
1 1033
1 1034
1 1035
1 1036
1 1037
1 1038
1 1039
1 1040
1 1041
1 1042
1 1043
1 1044
1 1045
1 1046
1 1047
1 1048
1 1049
1 1050
1 1051
1 1052
1 1053
1 1054
1 1055
1 1056
1 1057
1 1058
1 1059
1 1060
1 1061
1 1062
1 1063
1 1064
1 1065
1 1066
1 1067
1 1068
1 1069
1 1070
1 1071
1 1072
1 1073
1 1074
1 1075
1 1076
1 1077
1 1078
1 1079
1 1080
1 1081
1 1082
1 1083
1 1084
1 1085
1 1086
1 1087
1 1088
1 1089
1 1090
1 1091
1 1092
1 1093
1 1094
1 1095
1 1096
1 1097
1 1098
1 1099
1 1100
1 1101
1 1102
1 1103
1 1104
1 1105
1 1106
1 1107
1 1108
1 1109
1 1110
1 1111
1 1112
1 1113
1 1114
1 1115
1 1116
1 1117
1 1118
1 1119
1 1120
1 1121
1 1122
1 1123
1 1124
1 1125
1 1126
1 1127
1 1128
1 1129
1 1130
1 1131
1 1132
1 1133
1 1134
1 1135
1 1136
1 1137
1 1138
1 1139
1 1140
1 1141
1 1142
1 1143
1 1144
1 1145
1 1146
1 1147
1 1148
1 1149
1 1150
1 1151
1 1152
1 1153
1 1154
1 1155
1 1156
1 1157
1 1158
1 1159
1 1160
1 1161
1 1162
1 1163
1 1164
1 1165
1 1166
1 1167
1 1168
1 1169
1 1170
1 1171
1 1172
1 1173
1 1174
1 1175
1 1176
1 1177
1 1178
1 1179
1 1180
1 1181
1 1182
1 1183
1 1184
1 1185
1 1186
1 1187
1 1188
1 1189
1 1190
1 1191
1 1192
1 1193
1 1194
1 1195
1 1196
1 1197
1 1198
1 1199
1 1200
1 1201
1 1202
1 1203
1 1204
1 1205
1 1206
1 1207
1 1208
1 1209
1 1210
1 1211
1 1212
1 1213
1 1214
1 1215
1 1216
1 1217
1 1218
1 1219
1 1220
1 1221
1 1222
1 1223
1 1224
1 1225
1 1226
1 1227
1 1228
1 1229
1 1230
1 1231
1 1232
1 1233
1 1234
1 1235
1 1236
1 1237
1 1238
1 1239
1 1240
1 1241
1 1242
1 1243
1 1244
1 1245
1 1246
1 1247
1 1248
1 1249
1 1250
1 1251
1 1252
1 1253
1 1254
1 1255
1 1256
1 1257
1 1258
1 1259
1 1260
1 1261
1 1262
1 1263
1 1264
1 1265
1 1266
1 1267
1 1268
1 1269
1 1270
1 1271
1 1272
1 1273
1 1274
1 1275
1 1276
1 1277
1 1278
1 1279
1 1280
1 1281
1 1282
1 1283
1 1284
1 1285
1 1286
1 1287
1 1288
1 1289
1 1290
1 1291
1 1292
1 1293
1 1294
1 1295
1 1296
1 1297
1 1298
1 1299
1 1300
1 1301
1 1302
1 1303
1 1304
1 1305
1 1306
1 1307
1 1308
1 1309
1 1310
1 1311
1 1312
1 1313
1 1314
1 1315
1 1316
1 1317
1 1318
1 1319
1 1320
1 1321
1 1322
1 1323
1 1324
1 1325
1 1326
1 1327
1 1328
1 1329
1 1330
1 1331
1 1332
1 1333
1 1334
1 1335
1 1336
1 1337
1 1338
1 1339
1 1340
1 1341
1 1342
1 1343
1 1344
1 1345
1 1346
1 1347
1 1348
1 1349
1 1350
1 1351
1 1352
1 1353
1 1354
1 1355
1 1356
1 1357
1 1358
1 1359
1 1360
1 1361
1 1362
1 1363
1 1364
1 1365
1 1366
1 1367
1 1368
1 1369
1 1370
1 1371
1 1372
1 1373
1 1374
1 1375
1 1376
1 1377
1 1378
1 1379
1 1380
1 1381
1 1382
1 1383
1 1384
1 1385
1 1386
1 1387
1 1388
1 1389
1 1390
1 1391
1 1392
1 1393
1 1394
1 1395
1 1396
1 1397
1 1398
1 1399
1 1400
1 1401
1 1402
1 1403
1 1404
1 1405
1 1406
1 1407
1 1408
1 1409
1 1410
1 1411
1 1412
1 1413
1 1414
1 1415
1 1416
1 1417
1 1418
1 1419
1 1420
1 1421
1 1422
1 1423
1 1424
1 1425
1 1426
1 1427
1 1428
1 1429
1 1430
1 1431
1 1432
1 1433
1 1434
1 1435
1 1436
1 1437
1 1438
1 1439
1 1440
1 1441
1 1442
1 1443
1 1444
1 1445
1 1446
1 1447
1 1448
1 1449
1 1450
1 1451
1 1452
1 1453
1 1454
1 1455
1 1456
1 1457
1 1458
1 1459
1 1460
1 1461
1 1462
1 1463
1 1464
1 1465
1 1466
1 1467
1 1468
1 1469
1 1470
1 1471
1 1472
1 1473
1 1474
1 1475
1 1476
1 1477
1 1478
1 1479
1 1480
1 1481
1 1482
1 1483
1 1484
1 1485
1 1486
1 1487
1 1488
1 1489
1 1490
1 1491
1 1492
1 1493
1 1494
1 1495
1 1496
1 1497
1 1498
1 1499
1 1500
1 1501
1 1502
1 1503
1 1504
1 1505
1 1506
1 1507
1 1508
1 1509
1 1510
1 1511
1 1512
1 1513
1 1514
1 1515
1 1516
1 1517
1 1518
1 1519
1 1520
1 1521
1 1522
1 1523
1 1524
1 1525
1 1526
1 1527
1 1528
1 1529
1 1530
1 1531
1 1532
1 1533
1 1534
1 1535
1 1536
1 1537
1 1538
1 1539
1 1540
1 1541
1 1542
1 1543
1 1544
1 1545
1 1546
1 1547
1 1548
1 1549
1 1550
1 1551
1 1552
1 1553
1 1554
1 1555
1 1556
1 1557
1 1558
1 1559
1 1560
1 1561
1 1562
1 1563
1 1564
1 1565
1 1566
1 1567
1 1568
1 1569
1 1570
1 1571
1 1572
1 1573
1 1574
1 1575
1 1576
1 1577
1 1578
1 1579
1 1580
1 1581
1 1582
1 1583
1 1584
1 1585
1 1586
1 1587
1 1588
1 1589
1 1590
1 1591
1 1592
1 1593
1 1594
1 1595
1 1596
1 1597
1 1598
1 1599
1 1600
1 1601
1 1602
1 1603
1 1604
1 1605
1 1606
1 1607
1 1608
1 1609
1 1610
1 1611
1 1612
1 1613
1 1614
1 1615
1 1616
1 1617
1 1618
1 1619
1 1620
1 1621
1 1622
1 1623
1 1624
1 1625
1 1626
1 1627
1 1628
1 1629
1 1630
1 1631
1 1632
1 1633
1 1634
1 1635
1 1636
1 1637
1 1638
1 1639
1 1640
1 1641
1 1642
1 1643
1 1644
1 1645
1 1646
1 1647
1 1648
1 1649
1 1650
1 1651
1 1652
1 1653
1 1654
1 1655
1 1656
1 1657
1 1658
1 1659
1 1660
1 1661
1 1662
1 1663
1 1664
1 1665
1 1666
1 1667
1 1668
1 1669
1 1670
1 1671
1 1672
1 1673
1 1674
1 1675
1 1676
1 1677
1 1678
1 1679
1 1680
1 1681
1 1682
1 1683
1 1684
1 1685
1 1686
1 1687
1 1688
1 1689
1 1690
1 1691
1 1692
1 1693
1 1694
1 1695
1 1696
1 1697
1 1698
1 1699
1 1700
1 1701
1 1702
1 1703
1 1704
1 1705
1 1706
1 1707
1 1708
1 1709
1 1710
1 1711
1 1712
1 1713
1 1714
1 1715
1 1716
1 1717
1 1718
1 1719
1 1720
1 1721
1 1722
1 1723
1 1724
1 1725
1 1726
1 1727
1 1728
1 1729
1 1730
1 1731
1 1732
1 1733
1 1734
1 1735
1 1736
1 1737
1 1738
1 1739
1 1740
1 1741
1 1742
1 1743
1 1744
1 1745
1 1746
1 1747
1 1748
1 1749
1 1750
1 1751
1 1752
1 1753
1 1754
1 1755
1 1756
1 1757
1 1758
1 1759
1 1760
1 1761
1 1762
1 1763
1 1764
1 1765
1 1766
1 1767
1 1768
1 1769
1 1770
1 1771
1 1772
1 1773
1 1774
1 1775
1 1776
1 1777
1 1778
1 1779
1 1780
1 1781
1 1782
1 1783
1 1784
1 1785
1 1786
1 1787
1 1788
1 1789
1 1790
1 1791
1 1792
1 1793
1 1794
1 1795
1 1796
1 1797
1 1798
1 1799
1 1800
1 1801
1 1802
1 1803
1 1804
1 1805
1 1806
1 1807
1 1808
1 1809
1 1810
1 1811
1 1812
1 1813
1 1814
1 1815
1 1816
1 1817
1 1818
1 1819
1 1820
1 1821
1 1822
1 1823
1 1824
1 1825
1 1826
1 1827
1 1828
1 1829
1 1830
1 1831
1 1832
1 1833
1 1834
1 1835
1 1836
1 1837
1 1838
1 1839
1 1840
1 1841
1 1842
1 1843
1 1844
1 1845
1 1846
1 1847
1 1848
1 1849
1 1850
1 1851
1 1852
1 1853
1 1854
1 1855
1 1856
1 1857
1 1858
1 1859
1 1860
1 1861
1 1862
1 1863
1 1864
1 1865
1 1866
1 1867
1 1868
1 1869
1 1870
1 1871
1 1872
1 1873
1 1874
1 1875
1 1876
1 1877
1 1878
1 1879
1 1880
1 1881
1 1882
1 1883
1 1884
1 1885
1 1886
1 1887
1 1888
1 1889
1 1890
1 1891
1 1892
1 1893
1 1894
1 1895
1 1896
1 1897
1 1898
1 1899
1 1900
1 1901
1 1902
1 1903
1 1904
1 1905
1 1906
1 1907
1 1908
1 1909
1 1910
1 1911
1 1912
1 1913
1 1914
1 1915
1 1916
1 1917
1 1918
1 1919
1 1920
1 1921
1 1922
1 1923
1 1924
1 1925
1 1926
1 1927
1 1928
1 1929
1 1930
1 1931
1 1932
1 1933
1 1934
1 1935
1 1936
1 1937
1 1938
1 1939
1 1940
1 1941
1 1942
1 1943
1 1944
1 1945
1 1946
1 1947
1 1948
1 1949
1 1950
1 1951
1 1952
1 1953
1 1954
1 1955
1 1956
1 1957
1 1958
1 1959
1 1960
1 1961
1 1962
1 1963
1 1964
1 1965
1 1966
1 1967
1 1968
1 1969
1 1970
1 1971
1 1972
1 1973
1 1974
1 1975
1 1976
1 1977
1 1978
1 1979
1 1980
1 1981
1 1982
1 1983
1 1984
1 1985
1 1986
1 1987
1 1988
1 1989
1 1990
1 1991
1 1992
1 1993
1 1994
1 1995
1 1996
1 1997
1 1998
1 1999
1 2000
1 2001
1 2002
1 2003
1 2004
1 2005
1 2006
1 2007
1 2008
1 2009
1 2010
1 2011
1 2012
1 2013
1 2014
1 2015
1 2016
1 2017
1 2018
1 2019
1 2020
1 2021
1 2022
1 2023
1 2024
1 2025
1 2026
1 2027
1 2028
1 2029
1 2030
1 2031
1 2032
1 2033
1 2034
1 2035
1 2036
1 2037
1 2038
1 2039
1 2040
1 2041
1 2042
1 2043
1 2044
1 2045
1 2046
1 2047
1 2048
1 2049
1 2050
1 2051
1 2052
1 2053
1 2054
1 2055
1 2056
1 2057
1 2058
1 2059
1 2060
1 2061
1 2062
1 2063
1 2064
1 2065
1 2066
1 2067
1 2068
1 2069
1 2070
1 2071
1 2072
1 2073
1 2074
1 2075
1 2076
1 2077
1 2078
1 2079
1 2080
1 2081
1 2082
1 2083
1 2084
1 2085
1 2086
1 2087
1 2088
1 2089
1 2090
1 2091
1 2092
1 2093
1 2094
1 2095
1 2096
1 2097
1 2098
1 2099
1 2100
1 2101
1 2102
1 2103
1 2104
1 2105
1 2106
1 2107
1 2108
1 2109
1 2110
1 2111
1 2112
1 2113
1 2114
1 2115
1 2116
1 2117
1 2118
1 2119
1 2120
1 2121
1 2122
1 2123
1 2124
1 2125
1 2126
1 2127
1 2128
1 2129
1 2130
1 2131
1 2132
1 2133
1 2134
1 2135
1 2136
1 2137
1 2138
1 2139
1 2140
1 2141
1 2142
1 2143
1 2144
1 2145
1 2146
1 2147
1 2148
1 2149
1 2150
1 2151
1 2152
1 2153
1 2154
1 2155
1 2156
1 2157
1 2158
1 2159
1 2160
1 2161
1 2162
1 2163
1 2164
1 2165
1 2166
1 2167
1 2168
1 2169
1 2170
1 2171
1 2172
1 2173
1 2174
1 2175
1 2176
1 2177
1 2178
1 2179
1 2180
1 2181
1 2182
1 2183
1 2184
1 2185
1 2186
1 2187
1 2188
1 2189
1 2190
1 2191
1 2192
1 2193
1 2194
1 2195
1 2196
1 2197
1 2198
1 2199
1 2200
1 2201
1 2202
1 2203
1 2204
1 2205
1 2206
1 2207
1 2208
1 2209
1 2210
1 2211
1 2212
1 2213
1 2214
1 2215
1 2216
1 2217
1 2218
1 2219
1 2220
1 2221
1 2222
1 2223
1 2224
1 2225
1 2226
1 2227
1 2228
1 2229
1 2230
1 2231
1 2232
1 2233
1 2234
1 2235
1 2236
1 2237
1 2238
1 2239
1 2240
1 2241
1 2242
1 2243
1 2244
1 2245
1 2246
1 2247
1 2248
1 2249
1 2250
1 2251
1 2252
1 2253
1 2254
1 2255
1 2256
1 2257
1 2258
1 2259
1 2260
1 2261
1 2262
1 2263
1 2264
1 2265
1 2266
1 2267
1 2268
1 2269
1 2270
1 2271
1 2272
1 2273
1 2274
1 2275
1 2276
1 2277
1 2278
1 2279
1 2280
1 2281
1 2282
1 2283
1 2284
1 2285
1 2286
1 2287
1 2288
1 2289
1 2290
1 2291
1 2292
1 2293
1 2294
1 2295
1 2296
1 2297
1 2298
1 2299
1 2300
1 2301
1 2302
1 2303
1 2304
1 2305
1 2306
1 2307
1 2308
1 2309
1 2310
1 2311
1 2312
1 2313
1 2314
1 2315
1 2316
1 2317
1 2318
1 2319
1 2320
1 2321
1 2322
1 2323
1 2324
1 2325
1 2326
1 2327
1 2328
1 2329
1 2330
1 2331
1 2332
1 2333
1 2334
1 2335
1 2336
1 2337
1 2338
1 2339
1 2340
1 2341
1 2342
1 2343
1 2344
1 2345
1 2346
1 2347
1 2348
1 2349
1 2350
1 2351
1 2352
1 2353
1 2354
1 2355
1 2356
1 2357
1 2358
1 2359
1 2360
1 2361
1 2362
1 2363
1 2364
1 2365
1 2366
1 2367
1 2368
1 2369
1 2370
1 2371
1 2372
1 2373
1 2374
1 2375
1 2376
1 2377
1 2378
1 2379
1 2380
1 2381
1 2382
1 2383
1 2384
1 2385
1 2386
1 2387
1 2388
1 2389
1 2390
1 2391
1 2392
1 2393
1 2394
1 2395
1 2396
1 2397
1 2398
1 2399
1 2400
1 2401
1 2402
1 2403
1 2404
1 2405
1 2406
1 2407
1 2408
1 2409
1 2410
1 2411
1 2412
1 2413
1 2414
1 2415
1 2416
1 2417
1 2418
1 2419
1 2420
1 2421
1 2422
1 2423
1 2424
1 2425
1 2426
1 2427
1 2428
1 2429
1 2430
1 2431
1 2432
1 2433
1 2434
1 2435
1 2436
1 2437
1 2438
1 2439
1 2440
1 2441
1 2442
1 2443
1 2444
1 2445
1 2446
1 2447
1 2448
1 2449
1 2450
1 2451
1 2452
1 2453
1 2454
1 2455
1 2456
1 2457
1 2458
1 2459
1 2460
1 2461
1 2462
1 2463
1 2464
1 2465
1 2466
1 2467
1 2468
1 2469
1 2470
1 2471
1 2472
1 2473
1 2474
1 2475
1 2476
1 2477
1 2478
1 2479
1 2480
1 2481
1 2482
1 2483
1 2484
1 2485
1 2486
1 2487
1 2488
1 2489
1 2490
1 2491
1 2492
1 2493
1 2494
1 2495
1 2496
1 2497
1 2498
1 2499
1 2500
1 2501
1 2502
1 2503
1 2504
1 2505
1 2506
1 2507
1 2508
1 2509
1 2510
1 2511
1 2512
1 2513
1 2514
1 2515
1 2516
1 2517
1 2518
1 2519
1 2520
1 2521
1 2522
1 2523
1 2524
1 2525
1 2526
1 2527
1 2528
1 2529
1 2530
1 2531
1 2532
1 2533
1 2534
1 2535
1 2536
1 2537
1 2538
1 2539
1 2540
1 2541
1 2542
1 2543
1 2544
1 2545
1 2546
1 2547
1 2548
1 2549
1 2550
1 2551
1 2552
1 2553
1 2554
1 2555
1 2556
1 2557
1 2558
1 2559
1 2560
1 2561
1 2562
1 2563
1 2564
1 2565
1 2566
1 2567
1 2568
1 2569
1 2570
1 2571
1 2572
1 2573
1 2574
1 2575
1 2576
1 2577
1 2578
1 2579
1 2580
1 2581
1 2582
1 2583
1 2584
1 2585
1 2586
1 2587
1 2588
1 2589
1 2590
1 2591
1 2592
1 2593
1 2594
1 2595
1 2596
1 2597
1 2598
1 2599
1 2600
1 2601
1 2602
1 2603
1 2604
1 2605
1 2606
1 2607
1 2608
1 2609
1 2610
1 2611
1 2612
1 2613
1 2614
1 2615
1 2616
1 2617
1 2618
1 2619
1 2620
1 2621
1 2622
1 2623
1 2624
1 2625
1 2626
1 2627
1 2628
1 2629
1 2630
1 2631
1 2632
1 2633
1 2634
1 2635
1 2636
1 2637
1 2638
1 2639
1 2640
1 2641
1 2642
1 2643
1 2644
1 2645
1 2646
1 2647
1 2648
1 2649
1 2650
1 2651
1 2652
1 2653
1 2654
1 2655
1 2656
1 2657
1 2658
1 2659
1 2660
1 2661
1 2662
1 2663
1 2664
1 2665
1 2666
1 2667
1 2668
1 2669
1 2670
1 2671
1 2672
1 2673
1 2674
1 2675
1 2676
1 2677
1 2678
1 2679
1 2680
1 2681
1 2682
1 2683
1 2684
1 2685
1 2686
1 2687
1 2688
1 2689
1 2690
1 2691
1 2692
1 2693
1 2694
1 2695
1 2696
1 2697
1 2698
1 2699
1 2700
1 2701
1 2702
1 2703
1 2704
1 2705
1 2706
1 2707
1 2708
1 2709
1 2710
1 2711
1 2712
1 2713
1 2714
1 2715
1 2716
1 2717
1 2718
1 2719
1 2720
1 2721
1 2722
1 2723
1 2724
1 2725
1 2726
1 2727
1 2728
1 2729
1 2730
1 2731
1 2732
1 2733
1 2734
1 2735
1 2736
1 2737
1 2738
1 2739
1 2740
1 2741
1 2742
1 2743
1 2744
1 2745
1 2746
1 2747
1 2748
1 2749
1 2750
1 2751
1 2752
1 2753
1 2754
1 2755
1 2756
1 2757
1 2758
1 2759
1 2760
1 2761
1 2762
1 2763
1 2764
1 2765
1 2766
1 2767
1 2768
1 2769
1 2770
1 2771
1 2772
1 2773
1 2774
1 2775
1 2776
1 2777
1 2778
1 2779
1 2780
1 2781
1 2782
1 2783
1 2784
1 2785
1 2786
1 2787
1 2788
1 2789
1 2790
1 2791
1 2792
1 2793
1 2794
1 2795
1 2796
1 2797
1 2798
1 2799
1 2800
1 2801
1 2802
1 2803
1 2804
1 2805
1 2806
1 2807
1 2808
1 2809
1 2810
1 2811
1 2812
1 2813
1 2814
1 2815
1 2816
1 2817
1 2818
1 2819
1 2820
1 2821
1 2822
1 2823
1 2824
1 2825
1 2826
1 2827
1 2828
1 2829
1 2830
1 2831
1 2832
1 2833
1 2834
1 2835
1 2836
1 2837
1 2838
1 2839
1 2840
1 2841
1 2842
1 2843
1 2844
1 2845
1 2846
1 2847
1 2848
1 2849
1 2850
1 2851
1 2852
1 2853
1 2854
1 2855
1 2856
1 2857
1 2858
1 2859
1 2860
1 2861
1 2862
1 2863
1 2864
1 2865
1 2866
1 2867
1 2868
1 2869
1 2870
1 2871
1 2872
1 2873
1 2874
1 2875
1 2876
1 2877
1 2878
1 2879
1 2880
1 2881
1 2882
1 2883
1 2884
1 2885
1 2886
1 2887
1 2888
1 2889
1 2890
1 2891
1 2892
1 2893
1 2894
1 2895
1 2896
1 2897
1 2898
1 2899
1 2900
1 2901
1 2902
1 2903
1 2904
1 2905
1 2906
1 2907
1 2908
1 2909
1 2910
1 2911
1 2912
1 2913
1 2914
1 2915
1 2916
1 2917
1 2918
1 2919
1 2920
1 2921
1 2922
1 2923
1 2924
1 2925
1 2926
1 2927
1 2928
1 2929
1 2930
1 2931
1 2932
1 2933
1 2934
1 2935
1 2936
1 2937
1 2938
1 2939
1 2940
1 2941
1 2942
1 2943
1 2944
1 2945
1 2946
1 2947
1 2948
1 2949
1 2950
1 2951
1 2952
1 2953
1 2954
1 2955
1 2956
1 2957
1 2958
1 2959
1 2960
1 2961
1 2962
1 2963
1 2964
1 2965
1 2966
1 2967
1 2968
1 2969
1 2970
1 2971
1 2972
1 2973
1 2974
1 2975
1 2976
1 2977
1 2978
1 2979
1 2980
1 2981
1 2982
1 2983
1 2984
1 2985
1 2986
1 2987
1 2988
1 2989
1 2990
1 2991
1 2992
1 2993
1 2994
1 2995
1 2996
1 2997
1 2998
1 2999
1 3000
1 3001
1 3002
1 3003
1 3004
1 3005
1 3006
1 3007
1 3008
1 3009
1 3010
1 3011
1 3012
1 3013
1 3014
1 3015
1 3016
1 3017
1 3018
1 3019
1 3020
1 3021
1 3022
1 3023
1 3024
1 3025
1 3026
1 3027
1 3028
1 3029
1 3030
1 3031
1 3032
1 3033
1 3034
1 3035
1 3036
1 3037
1 3038
1 3039
1 3040
1 3041
1 3042
1 3043
1 3044
1 3045
1 3046
1 3047
1 3048
1 3049
1 3050
1 3051
1 3052
1 3053
1 3054
1 3055
1 3056
1 3057
1 3058
1 3059
1 3060
1 3061
1 3062
1 3063
1 3064
1 3065
1 3066
1 3067
1 3068
1 3069
1 3070
1 3071
1 3072
1 3073
1 3074
1 3075
1 3076
1 3077
1 3078
1 3079
1 3080
1 3081
1 3082
1 3083
1 3084
1 3085
1 3086
1 3087
1 3088
1 3089
1 3090
1 3091
1 3092
1 3093
1 3094
1 3095
1 3096
1 3097
1 3098
1 3099
1 3100
1 3101
1 3102
1 3103
1 3104
1 3105
1 3106
1 3107
1 3108
1 3109
1 3110
1 3111
1 3112
1 3113
1 3114
1 3115
1 3116
1 3117
1 3118
1 3119
1 3120
1 3121
1 3122
1 3123
1 3124
1 3125
1 3126
1 3127
1 3128
1 3129
1 3130
1 3131
1 3132
1 3133
1 3134
1 3135
1 3136
1 3137
1 3138
1 3139
1 3140
1 3141
1 3142
1 3143
1 3144
1 3145
1 3146
1 3147
1 3148
1 3149
1 3150
1 3151
1 3152
1 3153
1 3154
1 3155
1 3156
1 3157
1 3158
1 3159
1 3160
1 3161
1 3162
1 3163
1 3164
1 3165
1 3166
1 3167
1 3168
1 3169
1 3170
1 3171
1 3172
1 3173
1 3174
1 3175
1 3176
1 3177
1 3178
1 3179
1 3180
1 3181
1 3182
1 3183
1 3184
1 3185
1 3186
1 3187
1 3188
1 3189
1 3190
1 3191
1 3192
1 3193
1 3194
1 3195
1 3196
1 3197
1 3198
1 3199
1 3200
1 3201
1 3202
1 3203
1 3204
1 3205
1 3206
1 3207
1 3208
1 3209
1 3210
1 3211
1 3212
1 3213
1 3214
1 3215
1 3216
1 3217
1 3218
1 3219
1 3220
1 3221
1 3222
1 3223
1 3224
1 3225
1 3226
1 3227
1 3228
1 3229
1 3230
1 3231
1 3232
1 3233
1 3234
1 3235
1 3236
1 3237
1 3238
1 3239
1 3240
1 3241
1 3242
1 3243
1 3244
1 3245
1 3246
1 3247
1 3248
1 3249
1 3250
1 3251
1 3252
1 3253
1 3254
1 3255
1 3256
1 3257
1 3258
1 3259
1 3260
1 3261
1 3262
1 3263
1 3264
1 3265
1 3266
1 3267
1 3268
1 3269
1 3270
1 3271
1 3272
1 3273
1 3274
1 3275
1 3276
1 3277
1 3278
1 3279
1 3280
1 3281
1 3282
1 3283
1 3284
1 3285
1 3286
1 3287
1 3288
1 3289
1 3290
1 3291
1 3292
1 3293
1 3294
1 3295
1 3296
1 3297
1 3298
1 3299
1 3300
1 3301
1 3302
1 3303
1 3304
1 3305
1 3306
1 3307
1 3308
1 3309
1 3310
1 3311
1 3312
1 3313
1 3314
1 3315
1 3316
1 3317
1 3318
1 3319
1 3320
1 3321
1 3322
1 3323
1 3324
1 3325
1 3326
1 3327
1 3328
1 3329
1 3330
1 3331
1 3332
1 3333
1 3334
1 3335
1 3336
1 3337
1 3338
1 3339
1 3340
1 3341
1 3342
1 3343
1 3344
1 3345
1 3346
1 3347
1 3348
1 3349
1 3350
1 3351
1 3352
1 3353
1 3354
1 3355
1 3356
1 3357
1 3358
1 3359
1 3360
1 3361
1 3362
1 3363
1 3364
1 3365
1 3366
1 3367
1 3368
1 3369
1 3370
1 3371
1 3372
1 3373
1 3374
1 3375
1 3376
1 3377
1 3378
1 3379
1 3380
1 3381
1 3382
1 3383
1 3384
1 3385
1 3386
1 3387
1 3388
1 3389
1 3390
1 3391
1 3392
1 3393
1 3394
1 3395
1 3396
1 3397
1 3398
1 3399
1 3400
1 3401
1 3402
1 3403
1 3404
1 3405
1 3406
1 3407
1 3408
1 3409
1 3410
1 3411
1 3412
1 3413
1 3414
1 3415
1 3416
1 3417
1 3418
1 3419
1 3420
1 3421
1 3422
1 3423
1 3424
1 3425
1 3426
1 3427
1 3428
1 3429
1 3430
1 3431
1 3432
1 3433
1 3434
1 3435
1 3436
1 3437
1 3438
1 3439
1 3440
1 3441
1 3442
1 3443
1 3444
1 3445
1 3446
1 3447
1 3448
1 3449
1 3450
1 3451
1 3452
1 3453
1 3454
1 3455
1 3456
1 3457
1 3458
1 3459
1 3460
1 3461
1 3462
1 3463
1 3464
1 3465
1 3466
1 3467
1 3468
1 3469
1 3470
1 3471
1 3472
1 3473
1 3474
1 3475
1 3476
1 3477
1 3478
1 3479
1 3480
1 3481
1 3482
1 3483
1 3484
1 3485
1 3486
1 3487
1 3488
1 3489
1 3490
1 3491
1 3492
1 3493
1 3494
1 3495
1 3496
1 3497
1 3498
1 3499
1 3500
1 3501
1 3502
1 3503
1 3504
1 3505
1 3506
1 3507
1 3508
1 3509
1 3510
1 3511
1 3512
1 3513
1 3514
1 3515
1 3516
1 3517
1 3518
1 3519
1 3520
1 3521
1 3522
1 3523
1 3524
1 3525
1 3526
1 3527
1 3528
1 3529
1 3530
1 3531
1 3532
1 3533
1 3534
1 3535
1 3536
1 3537
1 3538
1 3539
1 3540
1 3541
1 3542
1 3543
1 3544
1 3545
1 3546
1 3547
1 3548
1 3549
1 3550
1 3551
1 3552
1 3553
1 3554
1 3555
1 3556
1 3557
1 3558
1 3559
1 3560
1 3561
1 3562
1 3563
1 3564
1 3565
1 3566
1 3567
1 3568
1 3569
1 3570
1 3571
1 3572
1 3573
1 3574
1 3575
1 3576
1 3577
1 3578
1 3579
1 3580
1 3581
1 3582
1 3583
1 3584
1 3585
1 3586
1 3587
1 3588
1 3589
1 3590
1 3591
1 3592
1 3593
1 3594
1 3595
1 3596
1 3597
1 3598
1 3599
1 3600
1 3601
1 3602
1 3603
1 3604
1 3605
1 3606
1 3607
1 3608
1 3609
1 3610
1 3611
1 3612
1 3613
1 3614
1 3615
1 3616
1 3617
1 3618
1 3619
1 3620
1 3621
1 3622
1 3623
1 3624
1 3625
1 3626
1 3627
1 3628
1 3629
1 3630
1 3631
1 3632
1 3633
1 3634
1 3635
1 3636
1 3637
1 3638
1 3639
1 3640
1 3641
1 3642
1 3643
1 3644
1 3645
1 3646
1 3647
1 3648
1 3649
1 3650
1 3651
1 3652
1 3653
1 3654
1 3655
1 3656
1 3657
1 3658
1 3659
1 3660
1 3661
1 3662
1 3663
1 3664
1 3665
1 3666
1 3667
1 3668
1 3669
1 3670
1 3671
1 3672
1 3673
1 3674
1 3675
1 3676
1 3677
1 3678
1 3679
1 3680
1 3681
1 3682
1 3683
1 3684
1 3685
1 3686
1 3687
1 3688
1 3689
1 3690
1 3691
1 3692
1 3693
1 3694
1 3695
1 3696
1 3697
1 3698
1 3699
1 3700
1 3701
1 3702
1 3703
1 3704
1 3705
1 3706
1 3707
1 3708
1 3709
1 3710
1 3711
1 3712
1 3713
1 3714
1 3715
1 3716
1 3717
1 3718
1 3719
1 3720
1 3721
1 3722
1 3723
1 3724
1 3725
1 3726
1 3727
1 3728
1 3729
1 3730
1 3731
1 3732
1 3733
1 3734
1 3735
1 3736
1 3737
1 3738
1 3739
1 3740
1 3741
1 3742
1 3743
1 3744
1 3745
1 3746
1 3747
1 3748
1 3749
1 3750
1 3751
1 3752
1 3753
1 3754
1 3755
1 3756
1 3757
1 3758
1 3759
1 3760
1 3761
1 3762
1 3763
1 3764
1 3765
1 3766
1 3767
1 3768
1 3769
1 3770
1 3771
1 3772
1 3773
1 3774
1 3775
1 3776
1 3777
1 3778
1 3779
1 3780
1 3781
1 3782
1 3783
1 3784
1 3785
1 3786
1 3787
1 3788
1 3789
1 3790
1 3791
1 3792
1 3793
1 3794
1 3795
1 3796
1 3797
1 3798
1 3799
1 3800
1 3801
1 3802
1 3803
1 3804
1 3805
1 3806
1 3807
1 3808
1 3809
1 3810
1 3811
1 3812
1 3813
1 3814
1 3815
1 3816
1 3817
1 3818
1 3819
1 3820
1 3821
1 3822
1 3823
1 3824
1 3825
1 3826
1 3827
1 3828
1 3829
1 3830
1 3831
1 3832
1 3833
1 3834
1 3835
1 3836
1 3837
1 3838
1 3839
1 3840
1 3841
1 3842
1 3843
1 3844
1 3845
1 3846
1 3847
1 3848
1 3849
1 3850
1 3851
1 3852
1 3853
1 3854
1 3855
1 3856
1 3857
1 3858
1 3859
1 3860
1 3861
1 3862
1 3863
1 3864
1 3865
1 3866
1 3867
1 3868
1 3869
1 3870
1 3871
1 3872
1 3873
1 3874
1 3875
1 3876
1 3877
1 3878
1 3879
1 3880
1 3881
1 3882
1 3883
1 3884
1 3885
1 3886
1 3887
1 3888
1 3889
1 3890
1 3891
1 3892
1 3893
1 3894
1 3895
1 3896
1 3897
1 3898
1 3899
1 3900
1 3901
1 3902
1 3903
1 3904
1 3905
1 3906
1 3907
1 3908
1 3909
1 3910
1 3911
1 3912
1 3913
1 3914
1 3915
1 3916
1 3917
1 3918
1 3919
1 3920
1 3921
1 3922
1 3923
1 3924
1 3925
1 3926
1 3927
1 3928
1 3929
1 3930
1 3931
1 3932
1 3933
1 3934
1 3935
1 3936
1 3937
1 3938
1 3939
1 3940
1 3941
1 3942
1 3943
1 3944
1 3945
1 3946
1 3947
1 3948
1 3949
1 3950
1 3951
1 3952
1 3953
1 3954
1 3955
1 3956
1 3957
1 3958
1 3959
1 3960
1 3961
1 3962
1 3963
1 3964
1 3965
1 3966
1 3967
1 3968
1 3969
1 3970
1 3971
1 3972
1 3973
1 3974
1 3975
1 3976
1 3977
1 3978
1 3979
1 3980
1 3981
1 3982
1 3983
1 3984
1 3985
1 3986
1 3987
1 3988
1 3989
1 3990
1 3991
1 3992
1 3993
1 3994
1 3995
1 3996
1 3997
1 3998
1 3999
1 4000
1 4001
1 4002
1 4003
1 4004
1 4005
1 4006
1 4007
1 4008
1 4009
1 4010
1 4011
1 4012
1 4013
1 4014
1 4015
1 4016
1 4017
1 4018
1 4019
1 4020
1 4021
1 4022
1 4023
1 4024
1 4025
1 4026
1 4027
1 4028
1 4029
1 4030
1 4031
1 4032
1 4033
1 4034
1 4035
1 4036
1 4037
1 4038
1 4039
1 4040
1 4041
1 4042
1 4043
1 4044
1 4045
1 4046
1 4047
1 4048
1 4049
1 4050
1 4051
1 4052
1 4053
1 4054
1 4055
1 4056
1 4057
1 4058
1 4059
1 4060
1 4061
1 4062
1 4063
1 4064
1 4065
1 4066
1 4067
1 4068
1 4069
1 4070
1 4071
1 4072
1 4073
1 4074
1 4075
1 4076
1 4077
1 4078
1 4079
1 4080
1 4081
1 4082
1 4083
1 4084
1 4085
1 4086
1 4087
1 4088
1 4089
1 4090
1 4091
1 4092
1 4093
1 4094
1 4095
1 4096
1 4097
1 4098
1 4099
1 4100
1 4101
1 4102
1 4103
1 4104
1 4105
1 4106
1 4107
1 4108
1 4109
1 4110
1 4111
1 4112
1 4113
1 4114
1 4115
1 4116
1 4117
1 4118
1 4119
1 4120
1 4121
1 4122
1 4123
1 4124
1 4125
1 4126
1 4127
1 4128
1 4129
1 4130
1 4131
1 4132
1 4133
1 4134
1 4135
1 4136
1 4137
1 4138
1 4139
1 4140
1 4141
1 4142
1 4143
1 4144
1 4145
1 4146
1 4147
1 4148
1 4149
1 4150
1 4151
1 4152
1 4153
1 4154
1 4155
1 4156
1 4157
1 4158
1 4159
1 4160
1 4161
1 4162
1 4163
1 4164
1 4165
1 4166
1 4167
1 4168
1 4169
1 4170
1 4171
1 4172
1 4173
1 4174
1 4175
1 4176
1 4177
1 4178
1 4179
1 4180
1 4181
1 4182
1 4183
1 4184
1 4185
1 4186
1 4187
1 4188
1 4189
1 4190
1 4191
1 4192
1 4193
1 4194
1 4195
1 4196
1 4197
1 4198
1 4199
1 4200
1 4201
1 4202
1 4203
1 4204
1 4205
1 4206
1 4207
1 4208
1 4209
1 4210
1 4211
1 4212
1 4213
1 4214
1 4215
1 4216
1 4217
1 4218
1 4219
1 4220
1 4221
1 4222
1 4223
1 4224
1 4225
1 4226
1 4227
1 4228
1 4229
1 4230
1 4231
1 4232
1 4233
1 4234
1 4235
1 4236
1 4237
1 4238
1 4239
1 4240
1 4241
1 4242
1 4243
1 4244
1 4245
1 4246
1 4247
1 4248
1 4249
1 4250
1 4251
1 4252
1 4253
1 4254
1 4255
1 4256
1 4257
1 4258
1 4259
1 4260
1 4261
1 4262
1 4263
1 4264
1 4265
1 4266
1 4267
1 4268
1 4269
1 4270
1 4271
1 4272
1 4273
1 4274
1 4275
1 4276
1 4277
1 4278
1 4279
1 4280
1 4281
1 4282
1 4283
1 4284
1 4285
1 4286
1 4287
1 4288
1 4289
1 4290
1 4291
1 4292
1 4293
1 4294
1 4295
1 4296
1 4297
1 4298
1 4299
1 4300
1 4301
1 4302
1 4303
1 4304
1 4305
1 4306
1 4307
1 4308
1 4309
1 4310
1 4311
1 4312
1 4313
1 4314
1 4315
1 4316
1 4317
1 4318
1 4319
1 4320
1 4321
1 4322
1 4323
1 4324
1 4325
1 4326
1 4327
1 4328
1 4329
1 4330
1 4331
1 4332
1 4333
1 4334
1 4335
1 4336
1 4337
1 4338
1 4339
1 4340
1 4341
1 4342
1 4343
1 4344
1 4345
1 4346
1 4347
1 4348
1 4349
1 4350
1 4351
1 4352
1 4353
1 4354
1 4355
1 4356
1 4357
1 4358
1 4359
1 4360
1 4361
1 4362
1 4363
1 4364
1 4365
1 4366
1 4367
1 4368
1 4369
1 4370
1 4371
1 4372
1 4373
1 4374
1 4375
1 4376
1 4377
1 4378
1 4379
1 4380
1 4381
1 4382
1 4383
1 4384
1 4385
1 4386
1 4387
1 4388
1 4389
1 4390
1 4391
1 4392
1 4393
1 4394
1 4395
1 4396
1 4397
1 4398
1 4399
1 4400
1 4401
1 4402
1 4403
1 4404
1 4405
1 4406
1 4407
1 4408
1 4409
1 4410
1 4411
1 4412
1 4413
1 4414
1 4415
1 4416
1 4417
1 4418
1 4419
1 4420
1 4421
1 4422
1 4423
1 4424
1 4425
1 4426
1 4427
1 4428
1 4429
1 4430
1 4431
1 4432
1 4433
1 4434
1 4435
1 4436
1 4437
1 4438
1 4439
1 4440
1 4441
1 4442
1 4443
1 4444
1 4445
1 4446
1 4447
1 4448
1 4449
1 4450
1 4451
1 4452
1 4453
1 4454
1 4455
1 4456
1 4457
1 4458
1 4459
1 4460
1 4461
1 4462
1 4463
1 4464
1 4465
1 4466
1 4467
1 4468
1 4469
1 4470
1 4471
1 4472
1 4473
1 4474
1 4475
1 4476
1 4477
1 4478
1 4479
1 4480
1 4481
1 4482
1 4483
1 4484
1 4485
1 4486
1 4487
1 4488
1 4489
1 4490
1 4491
1 4492
1 4493
1 4494
1 4495
1 4496
1 4497
1 4498
1 4499
1 4500
1 4501
1 4502
1 4503
1 4504
1 4505
1 4506
1 4507
1 4508
1 4509
1 4510
1 4511
1 4512
1 4513
1 4514
1 4515
1 4516
1 4517
1 4518
1 4519
1 4520
1 4521
1 4522
1 4523
1 4524
1 4525
1 4526
1 4527
1 4528
1 4529
1 4530
1 4531
1 4532
1 4533
1 4534
1 4535
1 4536
1 4537
1 4538
1 4539
1 4540
1 4541
1 4542
1 4543
1 4544
1 4545
1 4546
1 4547
1 4548
1 4549
1 4550
1 4551
1 4552
1 4553
1 4554
1 4555
1 4556
1 4557
1 4558
1 4559
1 4560
1 4561
1 4562
1 4563
1 4564
1 4565
1 4566
1 4567
1 4568
1 4569
1 4570
1 4571
1 4572
1 4573
1 4574
1 4575
1 4576
1 4577
1 4578
1 4579
1 4580
1 4581
1 4582
1 4583
1 4584
1 4585
1 4586
1 4587
1 4588
1 4589
1 4590
1 4591
1 4592
1 4593
1 4594
1 4595
1 4596
1 4597
1 4598
1 4599
1 4600
1 4601
1 4602
1 4603
1 4604
1 4605
1 4606
1 4607
1 4608
1 4609
1 4610
1 4611
1 4612
1 4613
1 4614
1 4615
1 4616
1 4617
1 4618
1 4619
1 4620
1 4621
1 4622
1 4623
1 4624
1 4625
1 4626
1 4627
1 4628
1 4629
1 4630
1 4631
1 4632
1 4633
1 4634
1 4635
1 4636
1 4637
1 4638
1 4639
1 4640
1 4641
1 4642
1 4643
1 4644
1 4645
1 4646
1 4647
1 4648
1 4649
1 4650
1 4651
1 4652
1 4653
1 4654
1 4655
1 4656
1 4657
1 4658
1 4659
1 4660
1 4661
1 4662
1 4663
1 4664
1 4665
1 4666
1 4667
1 4668
1 4669
1 4670
1 4671
1 4672
1 4673
1 4674
1 4675
1 4676
1 4677
1 4678
1 4679
1 4680
1 4681
1 4682
1 4683
1 4684
1 4685
1 4686
1 4687
1 4688
1 4689
1 4690
1 4691
1 4692
1 4693
1 4694
1 4695
1 4696
1 4697
1 4698
1 4699
1 4700
1 4701
1 4702
1 4703
1 4704
1 4705
1 4706
1 4707
1 4708
1 4709
1 4710
1 4711
1 4712
1 4713
1 4714
1 4715
1 4716
1 4717
1 4718
1 4719
1 4720
1 4721
1 4722
1 4723
1 4724
1 4725
1 4726
1 4727
1 4728
1 4729
1 4730
1 4731
1 4732
1 4733
1 4734
1 4735
1 4736
1 4737
1 4738
1 4739
1 4740
1 4741
1 4742
1 4743
1 4744
1 4745
1 4746
1 4747
1 4748
1 4749
1 4750
1 4751
1 4752
1 4753
1 4754
1 4755
1 4756
1 4757
1 4758
1 4759
1 4760
1 4761
1 4762
1 4763
1 4764
1 4765
1 4766
1 4767
1 4768
1 4769
1 4770
1 4771
1 4772
1 4773
1 4774
1 4775
1 4776
1 4777
1 4778
1 4779
1 4780
1 4781
1 4782
1 4783
1 4784
1 4785
1 4786
1 4787
1 4788
1 4789
1 4790
1 4791
1 4792
1 4793
1 4794
1 4795
1 4796
1 4797
1 4798
1 4799
1 4800
1 4801
1 4802
1 4803
1 4804
1 4805
1 4806
1 4807
1 4808
1 4809
1 4810
1 4811
1 4812
1 4813
1 4814
1 4815
1 4816
1 4817
1 4818
1 4819
1 4820
1 4821
1 4822
1 4823
1 4824
1 4825
1 4826
1 4827
1 4828
1 4829
1 4830
1 4831
1 4832
1 4833
1 4834
1 4835
1 4836
1 4837
1 4838
1 4839
1 4840
1 4841
1 4842
1 4843
1 4844
1 4845
1 4846
1 4847
1 4848
1 4849
1 4850
1 4851
1 4852
1 4853
1 4854
1 4855
1 4856
1 4857
1 4858
1 4859
1 4860
1 4861
1 4862
1 4863
1 4864
1 4865
1 4866
1 4867
1 4868
1 4869
1 4870
1 4871
1 4872
1 4873
1 4874
1 4875
1 4876
1 4877
1 4878
1 4879
1 4880
1 4881
1 4882
1 4883
1 4884
1 4885
1 4886
1 4887
1 4888
1 4889
1 4890
1 4891
1 4892
1 4893
1 4894
1 4895
1 4896
1 4897
1 4898
1 4899
1 4900
1 4901
1 4902
1 4903
1 4904
1 4905
1 4906
1 4907
1 4908
1 4909
1 4910
1 4911
1 4912
1 4913
1 4914
1 4915
1 4916
1 4917
1 4918
1 4919
1 4920
1 4921
1 4922
1 4923
1 4924
1 4925
1 4926
1 4927
1 4928
1 4929
1 4930
1 4931
1 4932
1 4933
1 4934
1 4935
1 4936
1 4937
1 4938
1 4939
1 4940
1 4941
1 4942
1 4943
1 4944
1 4945
1 4946
1 4947
1 4948
1 4949
1 4950
1 4951
1 4952
1 4953
1 4954
1 4955
1 4956
1 4957
1 4958
1 4959
1 4960
1 4961
1 4962
1 4963
1 4964
1 4965
1 4966
1 4967
1 4968
1 4969
1 4970
1 4971
1 4972
1 4973
1 4974
1 4975
1 4976
1 4977
1 4978
1 4979
1 4980
1 4981
1 4982
1 4983
1 4984
1 4985
1 4986
1 4987
1 4988
1 4989
1 4990
1 4991
1 4992
1 4993
1 4994
1 4995
1 4996
1 4997
1 4998
1 4999
CELL_TYPES 5000
1 
1 
1 
1 
1 
1 
1 
1 
1 
1 
1 
1 
1 
1 
1 
1 
1 
1 
1 
1 
1 
1 
1 
1 
1 
1 
1 
1 
1 
1 
1 
1 
1 
1 
1 
1 
1 
1 
1 
1 
1 
1 
1 
1 
1 
1 
1 
1 
1 
1 
1 
1 
1 
1 
1 
1 
1 
1 
1 
1 
1 
1 
1 
1 
1 
1 
1 
1 
1 
1 
1 
1 
1 
1 
1 
1 
1 
1 
1 
1 
1 
1 
1 
1 
1 
1 
1 
1 
1 
1 
1 
1 
1 
1 
1 
1 
1 
1 
1 
1 
1 
1 
1 
1 
1 
1 
1 
1 
1 
1 
1 
1 
1 
1 
1 
1 
1 
1 
1 
1 
1 
1 
1 
1 
1 
1 
1 
1 
1 
1 
1 
1 
1 
1 
1 
1 
1 
1 
1 
1 
1 
1 
1 
1 
1 
1 
1 
1 
1 
1 
1 
1 
1 
1 
1 
1 
1 
1 
1 
1 
1 
1 
1 
1 
1 
1 
1 
1 
1 
1 
1 
1 
1 
1 
1 
1 
1 
1 
1 
1 
1 
1 
1 
1 
1 
1 
1 
1 
1 
1 
1 
1 
1 
1 
1 
1 
1 
1 
1 
1 
1 
1 
1 
1 
1 
1 
1 
1 
1 
1 
1 
1 
1 
1 
1 
1 
1 
1 
1 
1 
1 
1 
1 
1 
1 
1 
1 
1 
1 
1 
1 
1 
1 
1 
1 
1 
1 
1 
1 
1 
1 
1 
1 
1 
1 
1 
1 
1 
1 
1 
1 
1 
1 
1 
1 
1 
1 
1 
1 
1 
1 
1 
1 
1 
1 
1 
1 
1 
1 
1 
1 
1 
1 
1 
1 
1 
1 
1 
1 
1 
1 
1 
1 
1 
1 
1 
1 
1 
1 
1 
1 
1 
1 
1 
1 
1 
1 
1 
1 
1 
1 
1 
1 
1 
1 
1 
1 
1 
1 
1 
1 
1 
1 
1 
1 
1 
1 
1 
1 
1 
1 
1 
1 
1 
1 
1 
1 
1 
1 
1 
1 
1 
1 
1 
1 
1 
1 
1 
1 
1 
1 
1 
1 
1 
1 
1 
1 
1 
1 
1 
1 
1 
1 
1 
1 
1 
1 
1 
1 
1 
1 
1 
1 
1 
1 
1 
1 
1 
1 
1 
1 
1 
1 
1 
1 
1 
1 
1 
1 
1 
1 
1 
1 
1 
1 
1 
1 
1 
1 
1 
1 
1 
1 
1 
1 
1 
1 
1 
1 
1 
1 
1 
1 
1 
1 
1 
1 
1 
1 
1 
1 
1 
1 
1 
1 
1 
1 
1 
1 
1 
1 
1 
1 
1 
1 
1 
1 
1 
1 
1 
1 
1 
1 
1 
1 
1 
1 
1 
1 
1 
1 
1 
1 
1 
1 
1 
1 
1 
1 
1 
1 
1 
1 
1 
1 
1 
1 
1 
1 
1 
1 
1 
1 
1 
1 
1 
1 
1 
1 
1 
1 
1 
1 
1 
1 
1 
1 
1 
1 
1 
1 
1 
1 
1 
1 
1 
1 
1 
1 
1 
1 
1 
1 
1 
1 
1 
1 
1 
1 
1 
1 
1 
1 
1 
1 
1 
1 
1 
1 
1 
1 
1 
1 
1 
1 
1 
1 
1 
1 
1 
1 
1 
1 
1 
1 
1 
1 
1 
1 
1 
1 
1 
1 
1 
1 
1 
1 
1 
1 
1 
1 
1 
1 
1 
1 
1 
1 
1 
1 
1 
1 
1 
1 
1 
1 
1 
1 
1 
1 
1 
1 
1 
1 
1 
1 
1 
1 
1 
1 
1 
1 
1 
1 
1 
1 
1 
1 
1 
1 
1 
1 
1 
1 
1 
1 
1 
1 
1 
1 
1 
1 
1 
1 
1 
1 
1 
1 
1 
1 
1 
1 
1 
1 
1 
1 
1 
1 
1 
1 
1 
1 
1 
1 
1 
1 
1 
1 
1 
1 
1 
1 
1 
1 
1 
1 
1 
1 
1 
1 
1 
1 
1 
1 
1 
1 
1 
1 
1 
1 
1 
1 
1 
1 
1 
1 
1 
1 
1 
1 
1 
1 
1 
1 
1 
1 
1 
1 
1 
1 
1 
1 
1 
1 
1 
1 
1 
1 
1 
1 
1 
1 
1 
1 
1 
1 
1 
1 
1 
1 
1 
1 
1 
1 
1 
1 
1 
1 
1 
1 
1 
1 
1 
1 
1 
1 
1 
1 
1 
1 
1 
1 
1 
1 
1 
1 
1 
1 
1 
1 
1 
1 
1 
1 
1 
1 
1 
1 
1 
1 
1 
1 
1 
1 
1 
1 
1 
1 
1 
1 
1 
1 
1 
1 
1 
1 
1 
1 
1 
1 
1 
1 
1 
1 
1 
1 
1 
1 
1 
1 
1 
1 
1 
1 
1 
1 
1 
1 
1 
1 
1 
1 
1 
1 
1 
1 
1 
1 
1 
1 
1 
1 
1 
1 
1 
1 
1 
1 
1 
1 
1 
1 
1 
1 
1 
1 
1 
1 
1 
1 
1 
1 
1 
1 
1 
1 
1 
1 
1 
1 
1 
1 
1 
1 
1 
1 
1 
1 
1 
1 
1 
1 
1 
1 
1 
1 
1 
1 
1 
1 
1 
1 
1 
1 
1 
1 
1 
1 
1 
1 
1 
1 
1 
1 
1 
1 
1 
1 
1 
1 
1 
1 
1 
1 
1 
1 
1 
1 
1 
1 
1 
1 
1 
1 
1 
1 
1 
1 
1 
1 
1 
1 
1 
1 
1 
1 
1 
1 
1 
1 
1 
1 
1 
1 
1 
1 
1 
1 
1 
1 
1 
1 
1 
1 
1 
1 
1 
1 
1 
1 
1 
1 
1 
1 
1 
1 
1 
1 
1 
1 
1 
1 
1 
1 
1 
1 
1 
1 
1 
1 
1 
1 
1 
1 
1 
1 
1 
1 
1 
1 
1 
1 
1 
1 
1 
1 
1 
1 
1 
1 
1 
1 
1 
1 
1 
1 
1 
1 
1 
1 
1 
1 
1 
1 
1 
1 
1 
1 
1 
1 
1 
1 
1 
1 
1 
1 
1 
1 
1 
1 
1 
1 
1 
1 
1 
1 
1 
1 
1 
1 
1 
1 
1 
1 
1 
1 
1 
1 
1 
1 
1 
1 
1 
1 
1 
1 
1 
1 
1 
1 
1 
1 
1 
1 
1 
1 
1 
1 
1 
1 
1 
1 
1 
1 
1 
1 
1 
1 
1 
1 
1 
1 
1 
1 
1 
1 
1 
1 
1 
1 
1 
1 
1 
1 
1 
1 
1 
1 
1 
1 
1 
1 
1 
1 
1 
1 
1 
1 
1 
1 
1 
1 
1 
1 
1 
1 
1 
1 
1 
1 
1 
1 
1 
1 
1 
1 
1 
1 
1 
1 
1 
1 
1 
1 
1 
1 
1 
1 
1 
1 
1 
1 
1 
1 
1 
1 
1 
1 
1 
1 
1 
1 
1 
1 
1 
1 
1 
1 
1 
1 
1 
1 
1 
1 
1 
1 
1 
1 
1 
1 
1 
1 
1 
1 
1 
1 
1 
1 
1 
1 
1 
1 
1 
1 
1 
1 
1 
1 
1 
1 
1 
1 
1 
1 
1 
1 
1 
1 
1 
1 
1 
1 
1 
1 
1 
1 
1 
1 
1 
1 
1 
1 
1 
1 
1 
1 
1 
1 
1 
1 
1 
1 
1 
1 
1 
1 
1 
1 
1 
1 
1 
1 
1 
1 
1 
1 
1 
1 
1 
1 
1 
1 
1 
1 
1 
1 
1 
1 
1 
1 
1 
1 
1 
1 
1 
1 
1 
1 
1 
1 
1 
1 
1 
1 
1 
1 
1 
1 
1 
1 
1 
1 
1 
1 
1 
1 
1 
1 
1 
1 
1 
1 
1 
1 
1 
1 
1 
1 
1 
1 
1 
1 
1 
1 
1 
1 
1 
1 
1 
1 
1 
1 
1 
1 
1 
1 
1 
1 
1 
1 
1 
1 
1 
1 
1 
1 
1 
1 
1 
1 
1 
1 
1 
1 
1 
1 
1 
1 
1 
1 
1 
1 
1 
1 
1 
1 
1 
1 
1 
1 
1 
1 
1 
1 
1 
1 
1 
1 
1 
1 
1 
1 
1 
1 
1 
1 
1 
1 
1 
1 
1 
1 
1 
1 
1 
1 
1 
1 
1 
1 
1 
1 
1 
1 
1 
1 
1 
1 
1 
1 
1 
1 
1 
1 
1 
1 
1 
1 
1 
1 
1 
1 
1 
1 
1 
1 
1 
1 
1 
1 
1 
1 
1 
1 
1 
1 
1 
1 
1 
1 
1 
1 
1 
1 
1 
1 
1 
1 
1 
1 
1 
1 
1 
1 
1 
1 
1 
1 
1 
1 
1 
1 
1 
1 
1 
1 
1 
1 
1 
1 
1 
1 
1 
1 
1 
1 
1 
1 
1 
1 
1 
1 
1 
1 
1 
1 
1 
1 
1 
1 
1 
1 
1 
1 
1 
1 
1 
1 
1 
1 
1 
1 
1 
1 
1 
1 
1 
1 
1 
1 
1 
1 
1 
1 
1 
1 
1 
1 
1 
1 
1 
1 
1 
1 
1 
1 
1 
1 
1 
1 
1 
1 
1 
1 
1 
1 
1 
1 
1 
1 
1 
1 
1 
1 
1 
1 
1 
1 
1 
1 
1 
1 
1 
1 
1 
1 
1 
1 
1 
1 
1 
1 
1 
1 
1 
1 
1 
1 
1 
1 
1 
1 
1 
1 
1 
1 
1 
1 
1 
1 
1 
1 
1 
1 
1 
1 
1 
1 
1 
1 
1 
1 
1 
1 
1 
1 
1 
1 
1 
1 
1 
1 
1 
1 
1 
1 
1 
1 
1 
1 
1 
1 
1 
1 
1 
1 
1 
1 
1 
1 
1 
1 
1 
1 
1 
1 
1 
1 
1 
1 
1 
1 
1 
1 
1 
1 
1 
1 
1 
1 
1 
1 
1 
1 
1 
1 
1 
1 
1 
1 
1 
1 
1 
1 
1 
1 
1 
1 
1 
1 
1 
1 
1 
1 
1 
1 
1 
1 
1 
1 
1 
1 
1 
1 
1 
1 
1 
1 
1 
1 
1 
1 
1 
1 
1 
1 
1 
1 
1 
1 
1 
1 
1 
1 
1 
1 
1 
1 
1 
1 
1 
1 
1 
1 
1 
1 
1 
1 
1 
1 
1 
1 
1 
1 
1 
1 
1 
1 
1 
1 
1 
1 
1 
1 
1 
1 
1 
1 
1 
1 
1 
1 
1 
1 
1 
1 
1 
1 
1 
1 
1 
1 
1 
1 
1 
1 
1 
1 
1 
1 
1 
1 
1 
1 
1 
1 
1 
1 
1 
1 
1 
1 
1 
1 
1 
1 
1 
1 
1 
1 
1 
1 
1 
1 
1 
1 
1 
1 
1 
1 
1 
1 
1 
1 
1 
1 
1 
1 
1 
1 
1 
1 
1 
1 
1 
1 
1 
1 
1 
1 
1 
1 
1 
1 
1 
1 
1 
1 
1 
1 
1 
1 
1 
1 
1 
1 
1 
1 
1 
1 
1 
1 
1 
1 
1 
1 
1 
1 
1 
1 
1 
1 
1 
1 
1 
1 
1 
1 
1 
1 
1 
1 
1 
1 
1 
1 
1 
1 
1 
1 
1 
1 
1 
1 
1 
1 
1 
1 
1 
1 
1 
1 
1 
1 
1 
1 
1 
1 
1 
1 
1 
1 
1 
1 
1 
1 
1 
1 
1 
1 
1 
1 
1 
1 
1 
1 
1 
1 
1 
1 
1 
1 
1 
1 
1 
1 
1 
1 
1 
1 
1 
1 
1 
1 
1 
1 
1 
1 
1 
1 
1 
1 
1 
1 
1 
1 
1 
1 
1 
1 
1 
1 
1 
1 
1 
1 
1 
1 
1 
1 
1 
1 
1 
1 
1 
1 
1 
1 
1 
1 
1 
1 
1 
1 
1 
1 
1 
1 
1 
1 
1 
1 
1 
1 
1 
1 
1 
1 
1 
1 
1 
1 
1 
1 
1 
1 
1 
1 
1 
1 
1 
1 
1 
1 
1 
1 
1 
1 
1 
1 
1 
1 
1 
1 
1 
1 
1 
1 
1 
1 
1 
1 
1 
1 
1 
1 
1 
1 
1 
1 
1 
1 
1 
1 
1 
1 
1 
1 
1 
1 
1 
1 
1 
1 
1 
1 
1 
1 
1 
1 
1 
1 
1 
1 
1 
1 
1 
1 
1 
1 
1 
1 
1 
1 
1 
1 
1 
1 
1 
1 
1 
1 
1 
1 
1 
1 
1 
1 
1 
1 
1 
1 
1 
1 
1 
1 
1 
1 
1 
1 
1 
1 
1 
1 
1 
1 
1 
1 
1 
1 
1 
1 
1 
1 
1 
1 
1 
1 
1 
1 
1 
1 
1 
1 
1 
1 
1 
1 
1 
1 
1 
1 
1 
1 
1 
1 
1 
1 
1 
1 
1 
1 
1 
1 
1 
1 
1 
1 
1 
1 
1 
1 
1 
1 
1 
1 
1 
1 
1 
1 
1 
1 
1 
1 
1 
1 
1 
1 
1 
1 
1 
1 
1 
1 
1 
1 
1 
1 
1 
1 
1 
1 
1 
1 
1 
1 
1 
1 
1 
1 
1 
1 
1 
1 
1 
1 
1 
1 
1 
1 
1 
1 
1 
1 
1 
1 
1 
1 
1 
1 
1 
1 
1 
1 
1 
1 
1 
1 
1 
1 
1 
1 
1 
1 
1 
1 
1 
1 
1 
1 
1 
1 
1 
1 
1 
1 
1 
1 
1 
1 
1 
1 
1 
1 
1 
1 
1 
1 
1 
1 
1 
1 
1 
1 
1 
1 
1 
1 
1 
1 
1 
1 
1 
1 
1 
1 
1 
1 
1 
1 
1 
1 
1 
1 
1 
1 
1 
1 
1 
1 
1 
1 
1 
1 
1 
1 
1 
1 
1 
1 
1 
1 
1 
1 
1 
1 
1 
1 
1 
1 
1 
1 
1 
1 
1 
1 
1 
1 
1 
1 
1 
1 
1 
1 
1 
1 
1 
1 
1 
1 
1 
1 
1 
1 
1 
1 
1 
1 
1 
1 
1 
1 
1 
1 
1 
1 
1 
1 
1 
1 
1 
1 
1 
1 
1 
1 
1 
1 
1 
1 
1 
1 
1 
1 
1 
1 
1 
1 
1 
1 
1 
1 
1 
1 
1 
1 
1 
1 
1 
1 
1 
1 
1 
1 
1 
1 
1 
1 
1 
1 
1 
1 
1 
1 
1 
1 
1 
1 
1 
1 
1 
1 
1 
1 
1 
1 
1 
1 
1 
1 
1 
1 
1 
1 
1 
1 
1 
1 
1 
1 
1 
1 
1 
1 
1 
1 
1 
1 
1 
1 
1 
1 
1 
1 
1 
1 
1 
1 
1 
1 
1 
1 
1 
1 
1 
1 
1 
1 
1 
1 
1 
1 
1 
1 
1 
1 
1 
1 
1 
1 
1 
1 
1 
1 
1 
1 
1 
1 
1 
1 
1 
1 
1 
1 
1 
1 
1 
1 
1 
1 
1 
1 
1 
1 
1 
1 
1 
1 
1 
1 
1 
1 
1 
1 
1 
1 
1 
1 
1 
1 
1 
1 
1 
1 
1 
1 
1 
1 
1 
1 
1 
1 
1 
1 
1 
1 
1 
1 
1 
1 
1 
1 
1 
1 
1 
1 
1 
1 
1 
1 
1 
1 
1 
1 
1 
1 
1 
1 
1 
1 
1 
1 
1 
1 
1 
1 
1 
1 
1 
1 
1 
1 
1 
1 
1 
1 
1 
1 
1 
1 
1 
1 
1 
1 
1 
1 
1 
1 
1 
1 
1 
1 
1 
1 
1 
1 
1 
1 
1 
1 
1 
1 
1 
1 
1 
1 
1 
1 
1 
1 
1 
1 
1 
1 
1 
1 
1 
1 
1 
1 
1 
1 
1 
1 
1 
1 
1 
1 
1 
1 
1 
1 
1 
1 
1 
1 
1 
1 
1 
1 
1 
1 
1 
1 
1 
1 
1 
1 
1 
1 
1 
1 
1 
1 
1 
1 
1 
1 
1 
1 
1 
1 
1 
1 
1 
1 
1 
1 
1 
1 
1 
1 
1 
1 
1 
1 
1 
1 
1 
1 
1 
1 
1 
1 
1 
1 
1 
1 
1 
1 
1 
1 
1 
1 
1 
1 
1 
1 
1 
1 
1 
1 
1 
1 
1 
1 
1 
1 
1 
1 
1 
1 
1 
1 
1 
1 
1 
1 
1 
1 
1 
1 
1 
1 
1 
1 
1 
1 
1 
1 
1 
1 
1 
1 
1 
1 
1 
1 
1 
1 
1 
1 
1 
1 
1 
1 
1 
1 
1 
1 
1 
1 
1 
1 
1 
1 
1 
1 
1 
1 
1 
1 
1 
1 
1 
1 
1 
1 
1 
1 
1 
1 
1 
1 
1 
1 
1 
1 
1 
1 
1 
1 
1 
1 
1 
1 
1 
1 
1 
1 
1 
1 
1 
1 
1 
1 
1 
1 
1 
1 
1 
1 
1 
1 
1 
1 
1 
1 
1 
1 
1 
1 
1 
1 
1 
1 
1 
1 
1 
1 
1 
1 
1 
1 
1 
1 
1 
1 
1 
1 
1 
1 
1 
1 
1 
1 
1 
1 
1 
1 
1 
1 
1 
1 
1 
1 
1 
1 
1 
1 
1 
1 
1 
1 
1 
1 
1 
1 
1 
1 
1 
1 
1 
1 
1 
1 
1 
1 
1 
1 
1 
1 
1 
1 
1 
1 
1 
1 
1 
1 
1 
1 
1 
1 
1 
1 
1 
1 
1 
1 
1 
1 
1 
1 
1 
1 
1 
1 
1 
1 
1 
1 
1 
1 
1 
1 
1 
1 
1 
1 
1 
1 
1 
1 
1 
1 
1 
1 
1 
1 
1 
1 
1 
1 
1 
1 
1 
1 
1 
1 
1 
1 
1 
1 
1 
1 
1 
1 
1 
1 
1 
1 
1 
1 
1 
1 
1 
1 
1 
1 
1 
1 
1 
1 
1 
1 
1 
1 
1 
1 
1 
1 
1 
1 
1 
1 
1 
1 
1 
1 
1 
1 
1 
1 
1 
1 
1 
1 
1 
1 
1 
1 
1 
1 
1 
1 
1 
1 
1 
1 
1 
1 
1 
1 
1 
1 
1 
1 
1 
1 
1 
1 
1 
1 
1 
1 
1 
1 
1 
1 
1 
1 
1 
1 
1 
1 
1 
1 
1 
1 
1 
1 
1 
1 
1 
1 
1 
1 
1 
1 
1 
1 
1 
1 
1 
1 
1 
1 
1 
1 
1 
1 
1 
1 
1 
1 
1 
1 
1 
1 
1 
1 
1 
1 
1 
1 
1 
1 
1 
1 
1 
1 
1 
1 
1 
1 
1 
1 
1 
1 
1 
1 
1 
1 
1 
1 
1 
1 
1 
1 
1 
1 
1 
1 
1 
1 
1 
1 
1 
1 
1 
1 
1 
1 
1 
1 
1 
1 
1 
1 
1 
1 
1 
1 
1 
1 
1 
1 
1 
1 
1 
1 
1 
1 
1 
1 
1 
1 
1 
1 
1 
1 
1 
1 
1 
1 
1 
1 
1 
1 
1 
1 
1 
1 
1 
1 
1 
1 
1 
1 
1 
1 
1 
1 
1 
1 
1 
1 
1 
1 
1 
1 
1 
1 
1 
1 
1 
1 
1 
1 
1 
1 
1 
1 
1 
1 
1 
1 
1 
1 
1 
1 
1 
1 
1 
1 
1 
1 
1 
1 
1 
1 
1 
1 
1 
1 
1 
1 
1 
1 
1 
1 
1 
1 
1 
1 
1 
1 
1 
1 
1 
1 
1 
1 
1 
1 
1 
1 
1 
1 
1 
1 
1 
1 
1 
1 
1 
1 
1 
1 
1 
1 
1 
1 
1 
1 
1 
1 
1 
1 
1 
1 
1 
1 
1 
1 
1 
1 
1 
1 
1 
1 
1 
1 
1 
1 
1 
1 
1 
1 
1 
1 
1 
1 
1 
1 
1 
1 
1 
1 
1 
1 
1 
1 
1 
1 
1 
1 
1 
1 
1 
1 
1 
1 
1 
1 
1 
1 
1 
1 
1 
1 
1 
1 
1 
1 
1 
1 
1 
1 
1 
1 
1 
1 
1 
1 
1 
1 
1 
1 
1 
1 
1 
1 
1 
1 
1 
1 
1 
1 
1 
1 
1 
1 
1 
1 
1 
1 
1 
1 
1 
1 
1 
1 
1 
1 
1 
1 
1 
1 
1 
1 
1 
1 
1 
1 
1 
1 
1 
1 
1 
1 
1 
1 
1 
1 
1 
1 
1 
1 
1 
1 
1 
1 
1 
1 
1 
1 
1 
1 
1 
1 
1 
1 
1 
1 
1 
1 
1 
1 
1 
1 
1 
1 
1 
1 
1 
1 
1 
1 
1 
1 
1 
1 
1 
1 
1 
1 
1 
1 
1 
1 
1 
1 
1 
1 
1 
1 
1 
1 
1 
1 
1 
1 
1 
1 
1 
1 
1 
1 
1 
1 
1 
1 
1 
1 
1 
1 
1 
1 
1 
1 
1 
1 
1 
1 
1 
1 
1 
1 
1 
1 
1 
1 
1 
1 
1 
1 
1 
1 
1 
1 
1 
1 
1 
1 
1 
1 
1 
1 
1 
1 
1 
1 
1 
1 
1 
1 
1 
1 
1 
1 
1 
1 
1 
1 
1 
1 
1 
1 
1 
1 
1 
1 
1 
1 
1 
1 
1 
1 
1 
1 
1 
1 
1 
1 
1 
1 
1 
1 
1 
1 
1 
1 
1 
1 
1 
1 
1 
1 
1 
1 
1 
1 
1 
1 
1 
1 
1 
1 
1 
1 
1 
1 
1 
1 
1 
1 
1 
1 
1 
1 
1 
1 
1 
1 
1 
1 
1 
1 
1 
1 
1 
1 
1 
1 
1 
1 
1 
1 
1 
1 
1 
1 
1 
1 
1 
1 
1 
1 
1 
1 
1 
1 
1 
1 
1 
1 
1 
1 
1 
1 
1 
1 
1 
1 
1 
1 
1 
1 
1 
1 
1 
1 
1 
1 
1 
1 
1 
1 
1 
1 
1 
1 
1 
1 
1 
1 
1 
1 
1 
1 
1 
1 
1 
1 
1 
1 
1 
1 
1 
1 
1 
1 
1 
1 
1 
1 
1 
1 
1 
1 
1 
1 
1 
1 
1 
1 
1 
1 
1 
1 
1 
1 
1 
1 
1 
1 
1 
1 
1 
1 
1 
1 
1 
1 
1 
1 
1 
1 
1 
1 
1 
1 
1 
1 
1 
1 
1 
1 
1 
1 
1 
1 
1 
1 
1 
1 
1 
1 
1 
1 
1 
1 
1 
1 
1 
1 
1 
1 
1 
1 
1 
1 
1 
1 
1 
1 
1 
1 
1 
1 
1 
1 
1 
1 
1 
1 
1 
1 
1 
1 
1 
1 
1 
1 
1 
1 
1 
1 
1 
1 
1 
1 
1 
1 
1 
1 
1 
1 
1 
1 
1 
1 
1 
1 
1 
1 
1 
1 
1 
1 
1 
1 
1 
1 
1 
1 
1 
1 
1 
1 
1 
1 
1 
1 
1 
1 
1 
1 
1 
1 
1 
1 
1 
1 
1 
1 
1 
1 
1 
1 
1 
1 
1 
1 
1 
1 
1 
1 
1 
1 
1 
1 
1 
1 
1 
1 
1 
1 
1 
1 
1 
1 
1 
1 
1 
1 
1 
1 
1 
1 
1 
1 
1 
1 
1 
1 
1 
1 
1 
1 
1 
1 
1 
1 
1 
1 
1 
1 
1 
1 
1 
1 
1 
1 
1 
1 
1 
1 
1 
1 
1 
1 
1 
1 
1 
1 
1 
1 
1 
1 
1 
1 
1 
1 
1 
1 
1 
1 
1 
1 
1 
1 
1 
1 
1 
1 
1 
1 
1 
1 
1 
1 
1 
1 
1 
1 
1 
1 
1 
1 
1 
1 
1 
1 
1 
1 
1 
1 
1 
1 
1 
1 
1 
1 
1 
1 
1 
1 
1 
1 
1 
1 
1 
1 
1 
1 
1 
1 
1 
1 
1 
1 
1 
1 
1 
1 
1 
1 
1 
1 
1 
1 
1 
1 
1 
1 
1 
1 
1 
1 
1 
1 
1 
1 
1 
1 
1 
1 
1 
1 
1 
1 
1 
1 
1 
1 
1 
1 
1 
1 
1 
1 
1 
1 
1 
1 
1 
1 
1 
1 
1 
1 
1 
1 
1 
1 
1 
1 
1 
1 
1 
1 
1 
1 
1 
1 
1 
1 
1 
1 
1 
1 
1 
1 
1 
1 
1 
1 
1 
1 
1 
1 
1 
1 
1 
1 
1 
1 
1 
1 
1 
1 
1 
1 
1 
1 
1 
1 
1 
1 
1 
1 
1 
1 
1 
1 
1 
1 
1 
1 
1 
1 
1 
1 
1 
1 
1 
1 
1 
1 
1 
1 
1 
1 
1 
1 
1 
1 
1 
1 
1 
1 
1 
1 
1 
1 
1 
1 
1 
1 
1 
1 
1 
1 
1 
1 
1 
1 
1 
1 
1 
1 
1 
1 
1 
1 
1 
1 
1 
1 
1 
1 
1 
1 
1 
1 
1 
1 
1 
1 
1 
1 
1 
1 
1 
1 
1 
1 
1 
1 
1 
1 
1 
1 
1 
1 
1 
1 
1 
1 
1 
1 
1 
1 
1 
1 
1 
1 
1 
1 
1 
1 
1 
1 
1 
1 
1 
1 
1 
1 
1 
1 
1 
1 
1 
1 
1 
1 
1 
1 
1 
1 
1 
1 
1 
1 
1 
1 
1 
1 
1 
1 
1 
1 
1 
1 
1 
1 
1 
1 
1 
1 
1 
1 
1 
1 
1 
1 
1 
1 
1 
1 
1 
1 
1 
1 
1 
1 
1 
1 
1 
1 
1 
1 
1 
1 
1 
1 
1 
1 
1 
1 
1 
1 
1 
1 
1 
1 
1 
1 
1 
1 
1 
1 
1 
1 
1 
1 
1 
1 
1 
1 
1 
1 
1 
1 
1 
1 
1 
1 
1 
1 
1 
1 
1 
1 
1 
1 
1 
1 
1 
1 
1 
1 
1 
1 
1 
1 
1 
1 
1 
1 
1 
1 
1 
1 
1 
1 
1 
1 
1 
1 
1 
1 
1 
1 
1 
1 
1 
1 
1 
1 
1 
1 
1 
1 
1 
1 
1 
1 
1 
1 
1 
1 
1 
1 
1 
1 
1 
1 
1 
1 
1 
1 
1 
1 
1 
1 
1 
1 
1 
1 
1 
1 
1 
1 
1 
1 
1 
1 
1 
1 
1 
1 
1 
1 
1 
1 
1 
1 
1 
1 
1 
1 
1 
1 
1 
1 
1 
1 
1 
1 
1 
1 
1 
1 
1 
1 
1 
1 
1 
1 
1 
1 
1 
1 
1 
1 
1 
1 
1 
1 
1 
1 
1 
1 
1 
1 
1 
1 
1 
1 
1 
1 
1 
1 
1 
1 
1 
1 
1 
1 
1 
1 
1 
1 
1 
1 
1 
1 
1 
1 
1 
1 
1 
1 
1 
1 
1 
1 
1 
1 
1 
1 
1 
1 
1 
1 
1 
1 
1 
1 
1 
1 
1 
1 
1 
1 
1 
1 
1 
1 
1 
1 
1 
1 
1 
1 
1 
1 
1 
1 
1 
1 
1 
1 
1 
1 
1 
1 
1 
1 
1 
1 
1 
1 
1 
1 
1 
1 
1 
1 
1 
1 
1 
1 
1 
1 
1 
1 
1 
1 
1 
1 
1 
1 
1 
1 
1 
1 
1 
1 
1 
1 
1 
1 
1 
1 
1 
1 
1 
1 
1 
1 
1 
1 
1 
1 
1 
1 
1 
1 
1 
1 
1 
1 
1 
1 
1 
1 
1 
1 
1 
1 
1 
1 
1 
1 
1 
1 
1 
1 
1 
1 
1 
1 
1 
1 
1 
1 
1 
1 
1 
1 
1 
1 
1 
1 
1 
1 
1 
1 
1 
1 
1 
1 
1 
1 
1 
1 
1 
1 
1 
1 
1 
1 
1 
1 
1 
1 
1 
1 
1 
1 
1 
1 
1 
1 
1 
1 
1 
1 
1 
1 
1 
1 
1 
1 
1 
1 
1 
1 
1 
1 
1 
1 
1 
1 
1 
1 
1 
1 
1 
1 
1 
1 
1 
1 
1 
1 
1 
1 
1 
1 
1 
1 
1 
1 
1 
1 
1 
1 
1 
1 
1 
1 
1 
1 
1 
1 
1 
1 
1 
1 
1 
1 
1 
1 
1 
1 
1 
1 
1 
1 
1 
1 
1 
1 
1 
1 
1 
1 
1 
1 
1 
1 
1 
1 
1 
1 
1 
1 
1 
1 
1 
1 
1 
1 
1 
1 
1 
1 
1 
1 
1 
1 
1 
1 
1 
1 
1 
1 
1 
1 
1 
1 
1 
1 
1 
1 
1 
1 
1 
1 
1 
1 
1 
1 
1 
1 
1 
1 
1 
1 
1 
1 
1 
1 
1 
1 
1 
1 
1 
1 
1 
1 
1 
1 
1 
1 
1 
1 
1 
1 
1 
1 
1 
1 
1 
1 
1 
1 
1 
1 
1 
1 
1 
1 
1 
1 
1 
1 
1 
1 
1 
1 
1 
1 
1 
1 
1 
1 
1 
1 
1 
1 
1 
1 
1 
1 
1 
1 
1 
1 
1 
1 
1 
1 
1 
1 
1 
1 
1 
1 
1 
1 
1 
1 
1 
1 
1 
1 
1 
1 
1 
1 
1 
1 
1 
1 
1 
1 
1 
1 
1 
1 
1 
1 
1 
1 
1 
1 
1 
1 
1 
1 
1 
1 
1 
1 
1 
1 
1 
1 
1 
1 
1 
1 
1 
1 
1 
1 
1 
1 
1 
1 
1 
1 
1 
1 
1 
1 
1 
1 
1 
1 
1 
1 
1 
1 
1 
1 
1 
1 
1 
1 
1 
1 
1 
1 
1 
1 
1 
1 
1 
1 
1 
1 
1 
1 
1 
1 
1 
1 
1 
1 
1 
1 
1 
1 
1 
1 
1 
1 
1 
1 
1 
1 
1 
1 
1 
1 
1 
1 
1 
1 
1 
1 
1 
1 
1 
1 
1 
1 
1 
1 
1 
1 
1 
1 
1 
1 
1 
1 
1 
1 
1 
1 
1 
1 
1 
1 
1 
1 
1 
1 
1 
1 
1 
1 
1 
1 
1 
1 
1 
1 
1 
1 
1 
1 
1 
1 
1 
1 
1 
1 
1 
1 
1 
1 
1 
1 
1 
1 
1 
1 
1 
1 
1 
1 
1 
1 
1 
1 
1 
1 
1 
1 
1 
1 
1 
1 
1 
1 
1 
1 
1 
1 
1 
1 
1 
1 
1 
1 
1 
1 
1 
1 
1 
1 
1 
1 
1 
1 
1 
1 
1 
1 
1 
1 
1 
1 
1 
1 
1 
1 
1 
1 
1 
1 
1 
1 
1 
1 
1 
1 
1 
1 
1 
1 
1 
1 
1 
1 
1 
1 
1 
1 
1 
1 
1 
1 
1 
1 
1 
1 
1 
1 
1 
1 
1 
1 
1 
1 
1 
1 
1 
1 
1 
1 
1 
1 
1 
1 
1 
1 
1 
1 
1 
1 
1 
1 
1 
1 
1 
1 
1 
1 
1 
1 
1 
1 
1 
1 
1 
1 
1 
1 
1 
1 
1 
1 
1 
1 
1 
1 
1 
1 
1 
1 
1 
1 
1 
1 
1 
1 
1 
1 
1 
1 
1 
1 
1 
1 
1 
1 
1 
1 
1 
1 
1 
1 
1 
1 
1 
1 
1 
1 
1 
1 
1 
1 
1 
1 
1 
1 
1 
1 
1 
1 
1 
1 
1 
1 
1 
1 
1 
1 
1 
1 
1 
1 
1 
1 
1 
1 
1 
1 
1 
1 
1 
1 
1 
1 
1 
1 
1 
1 
1 
1 
1 
1 
1 
1 
1 
1 
1 
1 
1 
1 
1 
1 
1 
1 
1 
1 
1 
1 
1 
1 
1 
1 
1 
1 
1 
1 
1 
1 
1 
1 
1 
1 
1 
1 
1 
1 
1 
1 
1 
1 
1 
1 
1 
1 
1 
1 
1 
1 
1 
1 
1 
1 
1 
1 
1 
1 
1 
1 
1 
1 
1 
1 
1 
1 
1 
1 
1 
1 
1 
1 
1 
1 
1 
1 
1 
1 
1 
1 
1 
1 
1 
1 
1 
1 
1 
1 
1 
1 
1 
1 
1 
1 
1 
1 
1 
1 
1 
1 
1 
POINT_DATA 5000
VECTORS Stress float
-888.14 -1448.63 0.
-3388.61 -4128.52 0.
-408.946 -398.127 0.
-391.737 -549.86 0.
-3818.87 -7618.39 0.
-54.9032 -95.7672 0.
-2691.88 -2535.03 0.
-114.357 -156.032 0.
-247.256 -298.264 0.
-3971.33 -6717.09 0.
-1240.02 -2406.51 0.
-237.197 -538.946 0.
-2258.4 -3177.75 0.
-1767.5 -2534.71 0.
-1312.08 -1943.49 0.
-1059.96 -1629.32 0.
-807.98 -1315.01 0.
-945.73 -1519.47 0.
-802.809 -1405.96 0.
-643.452 -1308.89 0.
-832.239 -1499.03 0.
-774.071 -1364.54 0.
-715.323 -1230.63 0.
-762.666 -1346.13 0.
-832.816 -1509.19 0.
-900.516 -1674.69 0.
-1031.44 -1697.76 0.
-963.694 -1574.99 0.
-748.53 -1412.81 0.
-729.175 -1351.3 0.
-702.099 -1297.52 0.
-729.247 -1317.89 0.
-722.911 -1331.51 0.
-714.364 -1347.34 0.
-733.948 -1389.11 0.
-731.385 -1404.11 0.
-728.77 -1419.17 0.
-815.341 -1442.05 0.
-795.654 -1416.42 0.
-694.993 -1350.45 0.
-672.74 -1311.98 0.
-650.493 -1273.51 0.
-673.969 -1270.64 0.
-689.995 -1308.04 0.
-706.02 -1345.44 0.
-699.975 -1327.46 0.
-672.608 -1263.6 0.
-645.24 -1199.74 0.
-623.445 -1277.8 0.
-690.24 -1433.66 0.
-757.032 -1589.5 0.
-706.86 -1421.4 0.
-629.896 -1241.82 0.
-641.882 -1147.08 0.
-675.358 -1225.21 0.
-708.833 -1303.33 0.
-689.632 -1320.38 0.
-677.675 -1292.47 0.
-665.719 -1264.56 0.
-650.291 -1293.74 0.
-687.626 -1370.25 0.
-727.542 -1444.17 0.
-831.792 -1483.75 0.
-834.335 -1473.79 0.
-728.019 -1407.36 0.
-721.651 -1364.4 0.
-714.697 -1322.03 0.
-695.377 -1278.48 0.
-708.218 -1278.88 0.
-719.658 -1280.69 0.
-691.081 -1275.17 0.
-741.543 -1357.08 0.
-789.314 -1441.68 0.
-974.422 -1580.38 0.
-1025.18 -1679.89 0.
-898.471 -1642.63 0.
-809.909 -1473.41 0.
-762.151 -1357.43 0.
-658.057 -1275.62 0.
-723.803 -1417.81 0.
-813.564 -1535.99 0.
-741.284 -1396.77 0.
-977.966 -1636.19 0.
-1199.64 -1890.63 0.
-1076.74 -1539.54 0.
-1235.1 -1594.81 0.
-1383.61 -1659.93 0.
-1623.99 -2662.45 0.
-2728.78 -4445.58 0.
-55.0118 -63.5544 0.
-771.646 -1343.88 0.
-4495.25 -6946.3 0.
-724.313 -1060.46 0.
-615.825 -735.869 0.
-2707.29 -3223.37 0.
-127.841 -312.216 0.
-3835.55 -6256.95 0.
-469.771 -1001.86 0.
-3917.81 -6657.77 0.
-943.345 -1676.59 0.
-1631.67 -3247.73 0.
0.411019 5.7819 0.
-3.21236 -1.01787 0.
-59.683 -60.7035 0.
-24.0372 -58.7283 0.
0.118932 2.21342 0.
-147.486 -84.0798 0.
-158.197 -115.307 0.
-861.43 -537.042 0.
-96.0695 -225.461 0.
-82.4676 -199.102 0.
-131.875 -349.31 0.
-921.714 -1098.67 0.
-585.228 -553.413 0.
-347.606 -446.797 0.
-128.287 -106.172 0.
-33.2446 -69.9023 0.
-287.913 -619.902 0.
-206.535 -466.131 0.
-177.375 -277.431 0.
-597.327 -1211.87 0.
-526.17 -1094.73 0.
-457.395 -976.172 0.
-577.889 -1078.99 0.
-633.04 -1257.09 0.
-684.873 -1438.5 0.
-970.236 -1580.28 0.
-904.046 -1455.94 0.
-583.145 -1157.56 0.
-543.581 -1097.19 0.
-515.914 -1038.92 0.
-571.179 -1136.69 0.
-557.967 -1157.19 0.
-571.074 -1151.36 0.
-613.725 -1268.15 0.
-611.428 -1282.89 0.
-608.792 -1297.97 0.
-875.876 -1413.78 0.
-858.437 -1385.89 0.
-625.864 -1260.9 0.
-598.227 -1227.82 0.
-574.125 -1191.21 0.
-646.242 -1197.95 0.
-651.528 -1246.1 0.
-657.73 -1293.32 0.
-661.616 -1279.6 0.
-634.249 -1215.74 0.
-606.881 -1151.88 0.
-463.228 -1144.98 0.
-509.464 -1321.41 0.
-573.913 -1479.59 0.
-590.776 -1340.2 0.
-513.806 -1160.61 0.
-638.105 -1114.04 0.
-671.566 -1192.17 0.
-705.028 -1270.3 0.
-635.916 -1265.91 0.
-631.597 -1230.36 0.
-629.927 -1192.17 0.
-563.499 -1201.37 0.
-608.234 -1270.48 0.
-653.741 -1338.82 0.
-885.224 -1455.27 0.
-884.288 -1448.79 0.
-623.515 -1253.17 0.
-597.474 -1229.88 0.
-592.194 -1185.83 0.
-552.335 -1088.48 0.
-572.082 -1081.98 0.
-593.015 -1074.29 0.
-535.4 -983.975 0.
-559.344 -1092.44 0.
-610.572 -1173.61 0.
-873.32 -1424.86 0.
-924.9 -1523.58 0.
-762.499 -1488.06 0.
-657.023 -1248.77 0.
-630.575 -1106.52 0.
-285.374 -714.591 0.
-363.708 -860.2 0.
-454.042 -998.043 0.
-112.572 -90.1079 0.
-223.739 -309.737 0.
-356.904 -609.354 0.
-208.655 -282.376 0.
-115.04 -136.239 0.
-141.94 -208.557 0.
-89.931 -36.0201 0.
-361.731 -594.161 0.
-107.94 -83.3583 0.
-34.2789 -29.1642 0.
-188.721 -217.512 0.
-524.671 -341.951 0.
-314.955 -272.241 0.
-155.725 -252.031 0.
-0.276901 -2.51369 0.
-239.842 -586.44 0.
-200.05 -426.711 0.
-124.485 -260.158 0.
-0.726775 -6.01524 0.
-147.626 -348.934 0.
2.89364 7.95823 0.
-4.26478 -0.966413 0.
-4.31578 -3.58689 0.
-1.67607e-05 -2.19624 0.
0.350452 3.61081 0.
-155.905 -61.6578 0.
-192.337 -92.0989 0.
-1426.29 -825.924 0.
-36.6814 -60.5355 0.
-51.0755 -96.0538 0.
-78.934 -178.229 0.
-406.918 -452.635 0.
-264.779 -250.749 0.
-653.555 -1037.74 0.
-66.4513 -89.7047 0.
-34.1285 -64.7991 0.
-795.242 -1801.06 0.
-704.047 -1659.92 0.
-744.783 -1816.42 0.
-1326.39 -2461.2 0.
-1036.59 -1862.77 0.
-789.591 -1365.51 0.
-680.148 -1070.52 0.
-677.356 -1129.33 0.
-1572.36 -3181.84 0.
-1206.64 -2031.65 0.
-1193.76 -2009.1 0.
-831.193 -1465.23 0.
-665.45 -1129.26 0.
-598.34 -1017.31 0.
-694.32 -1259.13 0.
-613.793 -1076.74 0.
-612.679 -1087.62 0.
-644.113 -1191.08 0.
-580.55 -1047.89 0.
-639.142 -1195.06 0.
-978.928 -1455.65 0.
-1027.32 -1580.21 0.
-706.338 -1139.94 0.
-611.759 -948.065 0.
-600.33 -937.133 0.
-654.824 -1132.27 0.
-666.538 -1205.51 0.
-595.497 -1104.15 0.
-635.419 -1099.56 0.
-673.504 -1219.01 0.
-718.668 -1350.69 0.
-467.843 -1099.03 0.
-404.562 -967.114 0.
-3075.54 -2514.48 0.
-396.519 -948.371 0.
-445.558 -1050.13 0.
-787.352 -1297.71 0.
-736.054 -1152.08 0.
-688.491 -1047.58 0.
-597.01 -1047.23 0.
-586.769 -1016.63 0.
-618.841 -1047.04 0.
-542.964 -903.057 0.
-591.522 -1019.69 0.
-619.234 -1051.23 0.
-1040.66 -1587.1 0.
-1044.44 -1585.29 0.
-648.868 -1055.34 0.
-667.153 -1189.78 0.
-675.059 -1190.28 0.
-662.82 -1137.1 0.
-649.258 -1102.41 0.
-719.803 -1224.77 0.
-586.239 -945.131 0.
-741.347 -1313.83 0.
-856.816 -1505.49 0.
-1322.55 -2307.97 0.
-1359.89 -2391 0.
-1620.62 -3130.16 0.
-747.587 -1093.68 0.
-793.762 -1102.78 0.
-577.482 -1378.79 0.
-965.288 -2126.53 0.
-2259.62 -5048.04 0.
-466.142 -799.031 0.
-762.571 -1597.04 0.
-846.703 -1697.7 0.
-263.215 -324.875 0.
-133.922 -150.277 0.
-285.501 -397.416 0.
-107.742 -43.359 0.
-92.9518 -51.3352 0.
-158.543 -105.722 0.
-64.0076 -76.515 0.
-78.4992 -113.707 0.
-591.521 -325.111 0.
-342.045 -293.105 0.
-236.108 -297.511 0.
-0.341124 -2.63022 0.
-32.236 -62.6851 0.
-221.632 -373.973 0.
-0.00580192 -0.877849 0.
-2713.74 -5092.15 0.
-2483.32 -4679.36 0.
-12.702 -34.8146 0.
-0.741677 -13.4389 0.
-2590.99 -3390.48 0.
-153.988 -188.218 0.
-3168.43 -6605.75 0.
0.765499 1.314 0.
-1244.48 -1816.19 0.
-0.200611 -1.13773 0.
-3769.12 -6646.13 0.
-367.37 -609.533 0.
-266.43 -438.233 0.
-3928.34 -8368.51 0.
-34.613 -80.7769 0.
-1898.16 -2955.96 0.
-1387.71 -2374.74 0.
-971.299 -1728.36 0.
-2002.86 -4449.05 0.
-710.479 -1553.92 0.
-14.5262 -5.63127 0.
-625.344 -1345.95 0.
-396.737 -821.167 0.
-253.713 -306.369 0.
-508.896 -686.94 0.
-370.11 -455.265 0.
-235.667 -237.296 0.
-594.362 -708.958 0.
-625.137 -811.507 0.
-370.422 -450.68 0.
-389.95 -522.229 0.
-420.032 -618.684 0.
-441.179 -711.832 0.
-406.677 -678.5 0.
-374.079 -635.941 0.
-394.513 -635.262 0.
-364.09 -564.185 0.
-348.202 -481.787 0.
-607.428 -819.956 0.
-606.561 -838.118 0.
-437.965 -575.019 0.
-438.735 -579.696 0.
-440.361 -587.412 0.
-480.205 -777.884 0.
-441.024 -684.936 0.
-394.858 -601.032 0.
-452.205 -637.75 0.
-468.212 -690.703 0.
-493.962 -735.58 0.
-143.479 -301.708 0.
-90.1072 -176.596 0.
-2743.13 -1507.22 0.
-79.0286 -169.88 0.
-119.39 -262.905 0.
-479.832 -729.95 0.
-478.159 -675.958 0.
-475.56 -623.434 0.
-407.31 -527.94 0.
-466.543 -609.018 0.
-509.606 -706.234 0.
-376.857 -560.489 0.
-368.533 -536.63 0.
-360.767 -514.047 0.
-546.474 -784.303 0.
-570.558 -800.436 0.
-371.339 -512.41 0.
-375.688 -558.994 0.
-410.781 -649.317 0.
-405.001 -617.488 0.
-424.546 -626.898 0.
-455.217 -626.801 0.
-426.112 -576.617 0.
-399.777 -510.334 0.
-392.775 -495.761 0.
-626.429 -754.589 0.
-577.891 -576.949 0.
-118.215 -56.5816 0.
-382.379 -323.276 0.
-584.339 -696.132 0.
-74.8904 -98.5255 0.
-289.911 -513.32 0.
-654.495 -1518.23 0.
-65.4849 -80.0494 0.
-876.002 -1798.21 0.
-2475.2 -5274.12 0.
-390.384 -756.006 0.
-1240.34 -2237.09 0.
-2204.22 -3644.76 0.
-180.911 -225.991 0.
-4312.79 -8041.62 0.
-15.1046 -10.1158 0.
-8.24388 -4.04166 0.
-3750.8 -5604.49 0.
-65.9037 -140.593 0.
-2160.09 -3217.62 0.
-0.380877 -5.83098 0.
-4208.37 -9543.55 0.
-543.438 -745.5 0.
-2165.58 -2325.89 0.
-0.00371785 -0.0625804 0.
13.2844 24.4994 0.
-156.724 -326.245 0.
-0.665379 -27.2711 0.
-1987.07 -4314.71 0.
-36.6439 -46.863 0.
-11.3213 -15.2246 0.
-470.125 -1085.25 0.
-3.85459 -6.39567 0.
-1.88846 -8.28959 0.
0.12446 2.744 0.
-908.074 -1043.79 0.
-532.891 -594.174 0.
-506.095 -519.961 0.
-87.7202 -242.92 0.
-13.7346 -33.9383 0.
-24.6582 -33.4766 0.
-23.8733 -29.6309 0.
-352.904 -333.326 0.
-539.34 -807.734 0.
-65.4299 -111.935 0.
-13.956 -5.64201 0.
-308.595 -558.1 0.
-90.7948 -49.3646 0.
-124.452 -118.827 0.
-476.039 -593.16 0.
-339.42 -356.452 0.
-193.575 -145.146 0.
-691.623 -749.539 0.
-726.028 -847.658 0.
-338.657 -414.518 0.
-389.428 -487.611 0.
-417.986 -583.597 0.
-428.844 -613.298 0.
-393.158 -577.225 0.
-354.659 -544.961 0.
-398.412 -586.729 0.
-382.389 -501.071 0.
-371.582 -411.495 0.
-621.081 -815.385 0.
-632.802 -835.781 0.
-459.736 -579.595 0.
-461.671 -583.323 0.
-466.03 -589.464 0.
-532.542 -739.352 0.
-495.389 -663.41 0.
-443.971 -615.84 0.
-499.22 -628.239 0.
-525.292 -673.112 0.
-550.72 -718.035 0.
-116.837 -235.627 0.
-65.7888 -111.345 0.
-3226.47 -1708.58 0.
-20.2737 -32.8089 0.
-60.547 -126.372 0.
-535.372 -696.891 0.
-520.841 -655.121 0.
-517.159 -603.096 0.
-459.402 -546.88 0.
-503.219 -616.145 0.
-553.785 -704.927 0.
-423.262 -576.828 0.
-424.305 -542.905 0.
-406.235 -530.111 0.
-584.155 -797.972 0.
-593.372 -816.041 0.
-386.787 -483.742 0.
-390.521 -530.702 0.
-422.476 -626.552 0.
-389.08 -481.886 0.
-431.459 -466.375 0.
-465.859 -457.567 0.
-415.138 -577.789 0.
-390.285 -514.732 0.
-368.803 -450.646 0.
-696.076 -766.867 0.
-657.867 -583.861 0.
-23.733 -28.5862 0.
-243.086 -177.622 0.
-449.001 -537.287 0.
-121.535 -115.932 0.
-67.1029 -80.4148 0.
-228.173 -159.949 0.
-84.5678 -100.643 0.
-72.9148 -90.2016 0.
-409.592 -527.947 0.
-69.634 -97.774 0.
-98.1053 -158.244 0.
-233.262 -319.951 0.
-30.2682 -31.2609 0.
-36.4355 -60.2997 0.
-24.2308 -13.2958 0.
-13.5633 -5.72632 0.
-127.723 -190.901 0.
-1.95717 -4.93373 0.
-84.3022 -233.393 0.
0.95715 2.29553 0.
-41.7159 -88.1017 0.
-110.75 -178.985 0.
5.01115 11.6114 0.
-0.49017 -6.89923 0.
-1188.95 -1924.58 0.
-2569.94 -4620.46 0.
14.1476 33.4187 0.
18.251 43.8774 0.
-0.00775507 -1.36652 0.
1.82281 2.63344 0.
-2.21081 -6.3473 0.
-29.9982 -48.3098 0.
-1355.24 -3211.74 0.
-295.398 -786.47 0.
-1488.76 -3699.36 0.
-1036.69 -1592.04 0.
-390.761 -326.303 0.
-3271.66 -7082.53 0.
-0.0263742 -0.118851 0.
-60.843 -142.591 0.
-3246 -6325.27 0.
-212.296 -398.152 0.
-2564.62 -4643.87 0.
-885.402 -1179.49 0.
-50.4254 -118.829 0.
-2365.16 -4678.98 0.
-1225.05 -2528.06 0.
-223.06 -239.436 0.
-1252.5 -2289.98 0.
-868.9 -1599.65 0.
-547.225 -1002.65 0.
-1131.18 -1820.19 0.
-1054.96 -1773.58 0.
-771.086 -1366.35 0.
-726.522 -1265.87 0.
-683.105 -1166.08 0.
-660.218 -1127.6 0.
-628.296 -1095.21 0.
-602.799 -1056.39 0.
-721.909 -1227.65 0.
-711.082 -1234.09 0.
-703.26 -1237.52 0.
-1108.67 -1717.77 0.
-1020.39 -1582.46 0.
-713.273 -1124.46 0.
-700.355 -1092.95 0.
-688.713 -1059.76 0.
-751.393 -1216.48 0.
-743.052 -1210.69 0.
-738.614 -1212.3 0.
-792.808 -1253.04 0.
-781.631 -1228.57 0.
-771.609 -1202.95 0.
-354.786 -899.042 0.
-343.029 -869.541 0.
-3697.67 -2597.19 0.
-313.143 -859.321 0.
-327.888 -902.608 0.
-799.441 -1331.25 0.
-789.585 -1315.96 0.
-780.242 -1300.15 0.
-660.186 -1101.32 0.
-708.176 -1128.25 0.
-731.459 -1198.73 0.
-722.15 -1054.9 0.
-724.117 -1058.99 0.
-728.096 -1061.06 0.
-976.927 -1474.5 0.
-1042.72 -1587.38 0.
-668.601 -1127.21 0.
-707.087 -1220.66 0.
-754.46 -1313.33 0.
-708.33 -1034.3 0.
-691.136 -1028.58 0.
-675.588 -1021.21 0.
-622.802 -1166.54 0.
-684.187 -1262.42 0.
-749.63 -1356.38 0.
-980.178 -1662.44 0.
-1136.85 -1832.11 0.
-510.379 -905.678 0.
-941.834 -1798.17 0.
-1477.13 -2790.4 0.
-41.8133 -31.7623 0.
-1170.26 -2469.77 0.
-2713.76 -5694.37 0.
-219.02 -127.673 0.
-607.309 -700.425 0.
-2409.21 -4089.5 0.
-28.1735 -44.9763 0.
-3958.84 -8615.71 0.
-61.9215 -148.728 0.
-72.7307 -190.245 0.
-2983.34 -4977.42 0.
-135.662 -181.836 0.
-3665.76 -6995.9 0.
-7.52779 -20.1104 0.
-1106.17 -2681.29 0.
-0.0890418 -9.24322 0.
1.61113 3.83111 0.
-7.88695 -16.4792 0.
-0.42914 -15.4073 0.
-2096.27 -4507.9 0.
-3.24331 -21.2975 0.
-1621.43 -2858.73 0.
7.9974 12.7917 0.
22.8433 53.9376 0.
14.2098 32.4639 0.
-0.600404 -26.5235 0.
3.08606 4.66803 0.
-744.756 -1209.37 0.
-1902.81 -3760.76 0.
-18.2802 -50.5207 0.
-0.0539796 -0.147768 0.
3.96509 10.6429 0.
-595.645 -1431.7 0.
-59.6612 -164.328 0.
0.505295 0.000425404 0.
0.0953329 0.0471493 0.
-65.8383 -106.293 0.
-319.274 -680.092 0.
-15.4238 -20.4588 0.
-37.7751 -89.5694 0.
-16.9255 -42.9827 0.
-38.5503 -101.898 0.
-468.68 -810.381 0.
-11.0337 -28.3817 0.
-36.2948 -94.9155 0.
-628.515 -1170.74 0.
-341.202 -449.877 0.
-93.4002 -77.8608 0.
-805.293 -1448.11 0.
-748.413 -1455.76 0.
-674.962 -1235.72 0.
-621.413 -1164.13 0.
-588.615 -1092.98 0.
-656.962 -1008.07 0.
-629.99 -974.756 0.
-603.329 -956.052 0.
-616.389 -1025.77 0.
-610.322 -1039.52 0.
-603.563 -1054.27 0.
-930.433 -1497.52 0.
-850.316 -1379.02 0.
-649.728 -1034.48 0.
-634.51 -1005.39 0.
-619.607 -976.46 0.
-669.753 -1048.97 0.
-673.497 -1048.83 0.
-656.55 -1092.62 0.
-706.398 -1153.53 0.
-690.951 -1130.06 0.
-677.982 -1108.46 0.
-346.576 -859.424 0.
-334.639 -829.62 0.
-2915.18 -2227.89 0.
-301.308 -826.815 0.
-316.746 -868.718 0.
-702.406 -1227.28 0.
-666.212 -1173.64 0.
-648.996 -1149.48 0.
-558.661 -968.307 0.
-563.163 -1003.24 0.
-632.653 -1004.9 0.
-624.804 -972.891 0.
-623.261 -969.952 0.
-628.19 -980.803 0.
-815.065 -1313.59 0.
-881.81 -1399.86 0.
-614.428 -1011.83 0.
-633.424 -1054.85 0.
-671.732 -1134.42 0.
-644.131 -954.842 0.
-632.955 -941.93 0.
-628.143 -929.377 0.
-555.314 -987.748 0.
-587.441 -1046.66 0.
-635.575 -1139.33 0.
-639.233 -1216.06 0.
-740.779 -1337.42 0.
-105.795 -73.0602 0.
-244.397 -179.08 0.
-627.702 -1237.41 0.
-57.64 -48.0257 0.
-48.4786 -33.7434 0.
-304.238 -155.118 0.
-28.8069 -45.1123 0.
-31.1828 -53.3136 0.
-95.1 -128.147 0.
-61.281 -77.674 0.
-387.597 -535.168 0.
-35.0141 -77.6582 0.
-39.3439 -100.049 0.
-82.9745 -225.279 0.
0.0845083 0.0403938 0.
-49.0708 -124.404 0.
-0.0101696 -4.10019 0.
-2357.4 -5341.62 0.
7.78395 19.4957 0.
-2678.47 -6363.04 0.
0.831212 1.72266 0.
-1.42521 -36.4058 0.
8.56036 20.3356 0.
29.4364 70.5413 0.
18.8128 35.4031 0.
-2935.68 -4087.28 0.
24.202 52.3273 0.
-2149.56 -4755.34 0.
20.6028 53.3259 0.
-96.0277 -258.732 0.
-592.19 -1187 0.
-1.96283 -7.1985 0.
-0.0537897 -4.14418 0.
-0.0385257 -8.15971 0.
-0.145868 -9.96675 0.
-428.722 -1182.75 0.
-2.08531 -4.06265 0.
-0.711548 -0.028614 0.
-33.2865 -13.0803 0.
-131.839 -134.571 0.
-73.0568 -127.898 0.
-18.7826 -24.4662 0.
-21.1466 -54.8818 0.
-8.55527 -23.4129 0.
-34.7478 -96.1763 0.
-62.3878 -123.424 0.
-11.6774 -29.4953 0.
-16.1447 -44.7175 0.
-431.73 -423.06 0.
-147.012 -105.687 0.
-155.759 -103.041 0.
-741.904 -1275.72 0.
-447.235 -703.507 0.
-478.762 -651.473 0.
-471.973 -605.165 0.
-289.839 -161.029 0.
-727.149 -868.435 0.
-370.161 -350.702 0.
-160.522 -121.272 0.
-365.894 -501.599 0.
-388.015 -547.925 0.
-414.945 -588.757 0.
-573.502 -785.113 0.
-652.109 -907.688 0.
-458.878 -464.069 0.
-471.235 -514.873 0.
-335.486 -280.179 0.
-347.626 -380.786 0.
-303.755 -300.223 0.
-524.807 -833.112 0.
-460.842 -686.72 0.
-343.45 -400.344 0.
-356.796 -443.232 0.
-99.4905 -102.319 0.
-116.929 -159.149 0.
-2666.75 -1741.5 0.
-151.471 -382.111 0.
-156.484 -393.378 0.
-419.738 -610.667 0.
-391.966 -500.632 0.
-482.05 -680.162 0.
-348.756 -349.048 0.
-479.81 -622.992 0.
-473.094 -500.17 0.
-440.866 -532.22 0.
-401.473 -424.885 0.
-451.387 -327.144 0.
-507.967 -654.632 0.
-678.091 -1051.08 0.
-374.309 -306.948 0.
-485.968 -477.334 0.
-252.824 -143.733 0.
-262.181 -294.332 0.
-221.274 -186.047 0.
-157.39 -131.112 0.
-296.301 -153.341 0.
-463.278 -554.711 0.
-475.367 -630.079 0.
-237.443 -267.548 0.
-598.757 -1084.64 0.
-89.1207 -67.9475 0.
-42.5942 -42.9543 0.
-31.2803 -37.1576 0.
-110.263 -72.1428 0.
-104.217 -60.0701 0.
-106.048 -63.1593 0.
-66.2116 -67.2964 0.
-56.8615 -72.7447 0.
-123.914 -143.41 0.
-92.7173 -115.471 0.
-213.064 -201.321 0.
-20.9858 -34.1342 0.
-42.6038 -81.4579 0.
-95.5585 -214.122 0.
0.970842 0.454435 0.
-16.5461 -43.136 0.
2.17111 6.01343 0.
-1092.18 -2692.94 0.
5.48343 14.03 0.
-0.499573 -1.25246 0.
-1218.09 -2124.3 0.
13.7406 33.9952 0.
2.96237 6.58991 0.
-3.50323 -26.1825 0.
-846.678 -1508.03 0.
25.0702 42.7582 0.
8.11036 15.8262 0.
32.2548 76.8659 0.
2.84195 7.0999 0.
-373.87 -996.795 0.
-1354.08 -2973.62 0.
-0.156809 -26.8968 0.
-0.382147 -7.94651 0.
-0.0342611 -7.72825 0.
-2157.97 -4690.12 0.
-1561.72 -3191.88 0.
-0.0394063 -4.38644 0.
-2602.17 -6042.16 0.
-89.5328 -164.999 0.
-137.374 -305.717 0.
-3356.86 -7899.3 0.
-65.4956 -122.125 0.
-3243.65 -4932.81 0.
-157.129 -222.474 0.
-17.8382 -43.9588 0.
-3161.9 -7277.08 0.
-192.113 -339.209 0.
-4.85457 -12.8144 0.
-2078.59 -4551.38 0.
-856.072 -1764.64 0.
-110.221 -161.89 0.
-1277.38 -2688.4 0.
-787.444 -1662.97 0.
-792.68 -1536.39 0.
-612.036 -1163.91 0.
-437.806 -792.377 0.
-634.211 -1083.08 0.
-600.836 -1025.68 0.
-564.037 -975.097 0.
-537.021 -859.844 0.
-490.87 -775.669 0.
-437.631 -699.958 0.
-715.835 -1135.12 0.
-709.544 -1133.99 0.
-470.078 -799.458 0.
-453.185 -754.405 0.
-449.877 -746.168 0.
-497.845 -805.63 0.
-479.151 -768.043 0.
-463.486 -738.065 0.
-463.117 -786.185 0.
-491.563 -844.467 0.
-534.011 -914.019 0.
-298.49 -661.175 0.
-277.283 -612.437 0.
-1723.61 -1445.75 0.
-233.459 -635.389 0.
-244.352 -657.608 0.
-482.245 -801.448 0.
-495.569 -823.923 0.
-516.814 -836.932 0.
-536.385 -827.982 0.
-522.71 -786.093 0.
-477.533 -773.138 0.
-523.03 -795.891 0.
-522.226 -811.889 0.
-525.754 -838.981 0.
-756.803 -1180.17 0.
-765.308 -1179.85 0.
-512.089 -795.957 0.
-557.751 -875.182 0.
-600.999 -955.106 0.
-539.375 -925.732 0.
-640.538 -1126.52 0.
-739.978 -1326.38 0.
-488.443 -855.043 0.
-723.224 -1358.71 0.
-972.613 -1850.04 0.
-858.382 -1776.2 0.
-1574.41 -3275.05 0.
-54.2396 -47.3495 0.
-786.181 -1619.37 0.
-2473.83 -5417.54 0.
-129.344 -59.112 0.
-48.8578 -33.9876 0.
-3211.92 -7233.06 0.
-3.28329 -8.93511 0.
0.0278192 -0.0222033 0.
-3293.55 -6076.38 0.
-42.2662 -46.1556 0.
-2821.7 -4253.44 0.
-127.068 -279.897 0.
-3201.1 -6879.19 0.
0.0534628 0.143306 0.
-0.00242439 -2.03298 0.
-2463.68 -5120.44 0.
0.00582338 2.8815 0.
0.0074223 13.5681 0.
-0.546722 -18.5429 0.
-1.46565 -26.5412 0.
-1493.98 -3714.9 0.
0.362407 20.6082 0.
-1637.07 -3477.38 0.
-17.8091 -97.4419 0.
87.6625 168.692 0.
-2659.64 -4390.7 0.
20.5665 35.2984 0.
8.53232 19.2933 0.
-2.73753 -42.9308 0.
-1847.88 -4884.07 0.
-0.0878632 -54.5044 0.
10.6978 29.1289 0.
5.99422 13.5936 0.
0.878842 2.2943 0.
-353.087 -844.214 0.
-47.6362 -88.2524 0.
-0.353826 -5.67717 0.
1.75374 4.82177 0.
-36.2527 -79.1765 0.
-85.8709 -201.847 0.
-138.267 -332.223 0.
-82.0445 -137.552 0.
-56.1659 -143.025 0.
-21.9087 -46.4329 0.
-22.2986 -55.5918 0.
-7.72164 -11.8293 0.
-1.0164 -2.75096 0.
-6.52434 -16.6126 0.
-457.633 -794.543 0.
-33.397 -79.2833 0.
-47.3642 -130.076 0.
-698.518 -1494.77 0.
-276.614 -404.098 0.
-518.617 -967.34 0.
-374.928 -560.402 0.
-243.942 -144.607 0.
-511.767 -859.163 0.
-476.941 -805.663 0.
-447.401 -747.444 0.
-524.345 -763.847 0.
-479.2 -680.145 0.
-437.863 -616.882 0.
-730.918 -1137.59 0.
-725.733 -1138.2 0.
-451.665 -668.955 0.
-436.421 -621.37 0.
-427.12 -590.201 0.
-498.469 -779.81 0.
-475.524 -726.846 0.
-453.221 -672.922 0.
-442.747 -750.842 0.
-473.09 -827.765 0.
-509.137 -902.533 0.
-333.232 -707.259 0.
-313.511 -658.929 0.
-1251.92 -1119.6 0.
-266.474 -728.642 0.
-287.593 -740.96 0.
-489.066 -687.313 0.
-496.713 -714.898 0.
-503.702 -743.344 0.
-548.965 -754.321 0.
-525.657 -718.849 0.
-506.162 -684.677 0.
-495.564 -672.15 0.
-501.377 -684.062 0.
-522.711 -732.617 0.
-811.247 -1198.5 0.
-819.558 -1197.46 0.
-450.337 -663.676 0.
-493.821 -745.831 0.
-537.339 -834.42 0.
-368.53 -668.789 0.
-458.505 -878.058 0.
-567.339 -1074.91 0.
-125.914 -72.3813 0.
-378.554 -558.717 0.
-591.556 -1088.83 0.
-6.77158 -7.01451 0.
-759.933 -1447.28 0.
-93.9004 -63.8132 0.
-69.6817 -42.0497 0.
-63.5876 -38.7495 0.
-199.107 -78.3916 0.
-53.116 -40.9306 0.
-64.0137 -59.8484 0.
-7.57686 -13.6173 0.
-0.0582168 -0.0577459 0.
-49.0325 -24.6138 0.
-82.1348 -86.952 0.
-218.292 -312.565 0.
-212.448 -302.502 0.
-538.418 -1171.18 0.
-0.000488149 -0.712557 0.
1.30398 3.56606 0.
-0.0748874 -7.72277 0.
-1710.74 -4259.37 0.
-0.00718277 -9.50044 0.
-0.629552 -23.5041 0.
-72.0083 -172.857 0.
-1080.73 -2651.66 0.
-0.350663 -9.67526 0.
-4.22724 -101.223 0.
34.1421 74.2722 0.
-333.142 -628.247 0.
32.5689 58.7384 0.
32.9701 51.4474 0.
-2640.29 -5759.28 0.
26.2811 69.3135 0.
8.92779 23.711 0.
8.95103 24.5777 0.
-0.102733 -8.71835 0.
-2380.04 -5421.45 0.
7.66618 19.8874 0.
-2.00707 -5.54392 0.
0.0444694 5.39939 0.
0.333213 2.93287 0.
-0.227606 -9.44029 0.
-3.66551 -8.9484 0.
-308.168 -631.205 0.
-1768.75 -4701.1 0.
-90.9816 -107.454 0.
-2668.94 -4755.33 0.
-15.531 -31.4511 0.
-20.5022 -42.5539 0.
-3156.6 -7585.71 0.
-25.1104 -69.3667 0.
-18.7055 -50.3544 0.
-2593.93 -5639.8 0.
-342.927 -339.185 0.
0.0038364 0.417493 0.
-1756.77 -3918.16 0.
-827.613 -1796.48 0.
-1156.76 -2338.93 0.
-788.042 -1575.69 0.
-460.688 -786.063 0.
-776.79 -1511.98 0.
-609.897 -1184.43 0.
-446.113 -853.994 0.
-671.438 -990.124 0.
-656.649 -970.21 0.
-642.654 -954.988 0.
-919.921 -1564.83 0.
-910.557 -1553.71 0.
-669.276 -1090.78 0.
-629.109 -1004.58 0.
-594.73 -933.524 0.
-688.979 -1047.51 0.
-630.839 -1034.84 0.
-615.341 -989.847 0.
-707.975 -1078.79 0.
-672.863 -983.154 0.
-574.768 -952.304 0.
-466.498 -1031.67 0.
-480.1 -1068.08 0.
-1917.51 -1759.12 0.
-400.702 -972.645 0.
-420.975 -942.278 0.
-542.208 -896.947 0.
-586.274 -985.6 0.
-632.853 -1079.36 0.
-648.509 -943.564 0.
-665.209 -984.577 0.
-685.966 -1037.72 0.
-669.998 -969.789 0.
-680.487 -990.41 0.
-691.037 -1011.16 0.
-951.637 -1538.45 0.
-979.607 -1611.52 0.
-571.748 -882.383 0.
-637.947 -993.624 0.
-713.289 -1122.51 0.
-438.566 -879.576 0.
-671.161 -1349.21 0.
-915.631 -1811.73 0.
-364.257 -518.933 0.
-842.266 -1594.79 0.
-1367.52 -2633.93 0.
-788.042 -1410.86 0.
-2012.57 -4376.13 0.
-52.8132 -23.705 0.
-45.733 -18.8064 0.
-2919.83 -7026.55 0.
-142.892 -54.5156 0.
-133.761 -61.6506 0.
-2781.1 -3679.1 0.
-42.7445 -45.9891 0.
-3782.81 -7962.65 0.
-40.0544 -89.5107 0.
-20.6741 -16.9524 0.
-2774.55 -6481.73 0.
-663.984 -546.867 0.
-745.001 -1155.05 0.
-0.00131195 -0.457897 0.
1.5636 4.08102 0.
8.22297 22.5923 0.
-111.672 -274.857 0.
-1689.43 -4108.53 0.
22.4225 62.1061 0.
-1161.48 -2812.99 0.
-912.074 -2226.46 0.
32.3406 78.9547 0.
46.2418 115.128 0.
16.4498 34.3098 0.
-36.9575 -71.4786 0.
-771.483 -1491.3 0.
-32.3898 -238.664 0.
-21.5428 -47.5558 0.
-0.456886 -12.5298 0.
12.7301 33.4362 0.
-2.01713 -5.50666 0.
-940.204 -2567.29 0.
10.0803 27.8004 0.
-0.551952 -17.6663 0.
-46.2042 -126.553 0.
4.45292 10.1431 0.
-2330.84 -6209.82 0.
-0.088326 -6.76153 0.
-2592.69 -5469.26 0.
-0.00907848 -2.74699 0.
-76.2383 -73.9049 0.
-0.201347 -0.22761 0.
-18.5473 -31.5747 0.
-12.1164 -27.9647 0.
-14.2396 -33.2024 0.
-31.7174 -86.5837 0.
-24.2342 -67.0667 0.
-22.0244 -60.6857 0.
-10.3859 -28.7199 0.
0.466242 1.23673 0.
7.36731e-06 0.00336061 0.
-611.464 -1254.86 0.
-30.8153 -40.8396 0.
-572.003 -1079.19 0.
-244.618 -271.73 0.
-51.787 -60.4179 0.
-500.287 -1067.48 0.
-337.896 -704.273 0.
-199.1 -322.907 0.
-516.531 -853.182 0.
-505.226 -833.188 0.
-494.726 -822.202 0.
-850.854 -1496.47 0.
-843.509 -1487.46 0.
-617.632 -981.153 0.
-587.416 -913.67 0.
-576.669 -903.415 0.
-590.619 -986.032 0.
-576.315 -945.539 0.
-562.42 -905.915 0.
-600.869 -1031.13 0.
-572.638 -941.985 0.
-544.147 -937.496 0.
-436.199 -949.174 0.
-442.618 -974.544 0.
-959.008 -1301.12 0.
-394.266 -875.998 0.
-392.061 -866.55 0.
-512.255 -920.645 0.
-539.382 -954.734 0.
-590.942 -1019.36 0.
-564.93 -922 0.
-583.8 -958.894 0.
-600.169 -999.262 0.
-581.548 -916.778 0.
-577.94 -898.723 0.
-587.626 -920.103 0.
-865.519 -1460.06 0.
-892.738 -1528.54 0.
-417.947 -643.677 0.
-476.789 -762.016 0.
-538.088 -879.309 0.
-172.405 -118.269 0.
-352.816 -643.685 0.
-554.181 -1145.42 0.
-42.533 -15.4752 0.
-44.1607 -16.0266 0.
-537.924 -839.745 0.
-75.6814 -28.5206 0.
-616.317 -917.305 0.
-34.0275 -17.1061 0.
-23.1356 -10.7771 0.
-29.5269 -11.287 0.
-52.1546 -19.3337 0.
-14.4182 -9.13601 0.
-39.6813 -34.7274 0.
-46.0879 -49.1768 0.
-50.6858 -80.254 0.
-27.351 -60.9753 0.
0.420372 0.234816 0.
-116.701 -143.422 0.
2.49265 1.54368 0.
-768.838 -1318.4 0.
-2764.39 -6522.07 0.
-0.00903224 -0.15609 0.
0.00252347 1.70728 0.
3.92035 10.3246 0.
-1070.28 -2612.96 0.
-0.612152 -52.4355 0.
2.80482 7.26389 0.
-1.29027 -82.3004 0.
17.8249 41.9539 0.
-852.28 -2110.19 0.
19.3462 50.2339 0.
-972.262 -1914.04 0.
-9.90069 -159.177 0.
-2.16859 -156.353 0.
-106.067 -239.308 0.
-4.50388 -89.7017 0.
-131.465 -342.586 0.
9.33855 25.3428 0.
14.5292 40.1329 0.
-0.036195 -23.624 0.
2.99433 7.66698 0.
-324.64 -888.672 0.
-125.649 -347.599 0.
-0.0693278 -0.179369 0.
-0.0162914 -2.27318 0.
-243.272 -673.429 0.
0.0460272 1.49087 0.
-132.124 -164.985 0.
-0.042976 -0.0422707 0.
-24.648 -36.0559 0.
-9.30466 -23.1656 0.
-13.5977 -33.5913 0.
-31.1501 -83.3808 0.
-27.9992 -77.1742 0.
-30.4133 -83.8616 0.
-13.4198 -35.9583 0.
-0.0078283 -0.933607 0.
-8.85006e-05 -0.362414 0.
-47.4868 -32.4974 0.
-61.0936 -62.1851 0.
-36.3414 -65.4276 0.
-34.7311 -58.2086 0.
-68.3284 -67.5281 0.
-267.312 -446.286 0.
-119.938 -59.795 0.
-44.4125 -17.2689 0.
-296.72 -517.437 0.
-254.135 -395.032 0.
-9.17102 -18.0802 0.
-342.14 -380.914 0.
-455.259 -698.539 0.
-43.9988 -55.5818 0.
-227.571 -353.596 0.
-50.8783 -62.5411 0.
-146.032 -154.141 0.
-174.78 -202.045 0.
-184.617 -206.431 0.
-174.134 -159.903 0.
-145.383 -132.743 0.
-150.058 -132.153 0.
-105.658 -44.2375 0.
-274.534 -464.719 0.
-488.242 -341.177 0.
-108.897 -175.873 0.
-11.0105 -15.8712 0.
-130.492 -114.796 0.
-117.23 -82.6534 0.
-128.65 -121.243 0.
-177.918 -233.313 0.
-164.701 -203.592 0.
-190.413 -262.787 0.
-126.994 -91.5368 0.
-199.914 -225.934 0.
-257.612 -261.535 0.
-419.261 -518.262 0.
-332.433 -279.548 0.
-226.936 -197.259 0.
-326.899 -484.665 0.
-429.116 -753.433 0.
-96.8223 -61.3135 0.
-67.028 -24.2169 0.
-307.77 -492.574 0.
-36.5628 -13.3249 0.
-37.4211 -14.0088 0.
-45.4578 -17.897 0.
-74.6165 -28.6071 0.
-85.8202 -31.0883 0.
-33.9446 -15.08 0.
-16.1624 -7.23636 0.
-26.4907 -9.81667 0.
-0.419796 -0.191481 0.
-0.686869 -0.351711 0.
0.32277 0.247992 0.
-103.37 -83.1064 0.
-109.148 -107.957 0.
-41.9566 -51.2961 0.
-27.3422 -9.88245 0.
-165.048 -335.407 0.
0.59668 4.71331 0.
-226.996 -495.133 0.
-1042.83 -2676.53 0.
-1.55475 -4.25003 0.
11.3103 31.2949 0.
-0.71994 -33.6972 0.
-369.593 -902.574 0.
-134.973 -364.425 0.
11.4709 29.7469 0.
29.7129 78.9294 0.
42.7988 116.487 0.
-10.2823 -26.1334 0.
-2.84223 -144.917 0.
-6.6006 -14.6401 0.
67.1555 167.711 0.
63.0573 170.407 0.
-1230.69 -2833.14 0.
-5.30494 -87.7052 0.
-1567.66 -4073.14 0.
-0.0522348 -71.4701 0.
16.8212 46.5918 0.
10.0853 27.8543 0.
-0.773283 -20.5369 0.
-204.712 -518.027 0.
-202.868 -558.039 0.
0.243716 0.640678 0.
3.46088 9.49883 0.
-230.567 -627.879 0.
0.19585 3.76071 0.
-1897.32 -3083.18 0.
-84.9407 -147.149 0.
-63.702 -106.611 0.
-2960.83 -7257.79 0.
-0.198762 -0.194065 0.
-2219.24 -4382.12 0.
-13.0862 -30.4799 0.
-36.3824 -89.6181 0.
-2686.31 -6103.74 0.
-13.323 -36.7379 0.
0.113154 0.27036 0.
-2329.95 -5462.66 0.
-356.737 -467.896 0.
-1652.39 -3383.3 0.
-798.682 -1500.75 0.
-51.2768 -37.2666 0.
-1149.29 -2733.27 0.
-672.132 -1631.28 0.
-232.95 -487.903 0.
-726.441 -1741.45 0.
-488.711 -1167.14 0.
-275.188 -613.099 0.
-716.694 -1528.19 0.
-669.557 -1425.94 0.
-464.144 -835.069 0.
-459.952 -832.767 0.
-472.736 -863.76 0.
-423.192 -864.342 0.
-418.206 -858.478 0.
-416.303 -853.092 0.
-462.047 -952.878 0.
-436.901 -905.982 0.
-419.08 -857.422 0.
-417.966 -805.795 0.
-414.606 -795.114 0.
-351.882 -801.124 0.
-353.131 -762.655 0.
-366.309 -797.17 0.
-433.237 -876.255 0.
-431.065 -873.737 0.
-429.758 -871.865 0.
-355.112 -789.82 0.
-367.731 -803.352 0.
-379.16 -811.651 0.
-455.414 -815.768 0.
-452.724 -811.612 0.
-453.671 -818.708 0.
-675.211 -1468.1 0.
-773.447 -1676.26 0.
-298.078 -509.058 0.
-595.577 -1317.45 0.
-916.573 -2103.14 0.
-124.714 -87.028 0.
-720.964 -1660.38 0.
-1374.27 -3186.34 0.
-44.4599 -16.4106 0.
-806.215 -1453.76 0.
-1897.67 -3939.05 0.
-69.946 -25.8867 0.
-2410.03 -5393.03 0.
-89.5324 -56.477 0.
-42.4843 -17.888 0.
-2829.92 -7065.73 0.
-2.72561 -2.58486 0.
-37.9654 -23.0986 0.
-2604.74 -4448.34 0.
-91.2865 -217.321 0.
-2022.05 -4544.68 0.
-312.161 -605.015 0.
-1821.97 -3763.24 0.
0.433228 8.58437 0.
0.0952717 4.74958 0.
0.278308 7.62667 0.
-44.391 -117.721 0.
9.82108 26.8208 0.
-1910.59 -5004.01 0.
14.3391 37.7515 0.
-0.0143943 -66.8801 0.
-2040.96 -5528.53 0.
-1.57734 -55.8821 0.
-10.9189 -28.8985 0.
-1.43336 -137.226 0.
16.3963 41.7753 0.
51.4336 137.931 0.
82.0315 190.484 0.
-4.62062 -115.764 0.
-1473.42 -3848.18 0.
-471.314 -1219.71 0.
-125.099 -335.246 0.
3.40581 9.16076 0.
-0.111381 -58.7886 0.
25.2663 69.8338 0.
13.277 36.6916 0.
-1.04001 -2.84634 0.
-199.78 -519.719 0.
-394.177 -1079.13 0.
-0.0986968 -10.3098 0.
-1058.33 -2738.94 0.
-0.0614164 -9.1381 0.
-2432.03 -6163.15 0.
-0.0534354 -3.26974 0.
-35.6475 -97.1747 0.
-20.0111 -45.1077 0.
-47.8502 -120.633 0.
0.259045 0.25243 0.
-11.9372 -29.0465 0.
-6.93638 -17.6739 0.
-8.95362 -23.3589 0.
-56.858 -126.959 0.
-30.0327 -79.3017 0.
-15.8424 -33.9962 0.
-267.1 -219.652 0.
-46.8817 -51.5218 0.
-330.555 -436.335 0.
-10.4673 -23.007 0.
-63.1967 -42.3602 0.
-532.488 -1268.98 0.
-107.031 -112.04 0.
-27.7586 -54.7446 0.
-532.477 -1303.45 0.
-316.084 -712.988 0.
-184.39 -319.559 0.
-636.084 -1394.84 0.
-588.889 -1297.03 0.
-424.924 -740.012 0.
-411.165 -699.97 0.
-416.661 -710.139 0.
-418.997 -777.179 0.
-416.868 -769.899 0.
-415.354 -762.473 0.
-397.32 -860.113 0.
-378.948 -808.721 0.
-360.515 -757.043 0.
-453.483 -829.992 0.
-451.528 -821.981 0.
-699.479 -1010.84 0.
-423.063 -752.804 0.
-442.976 -814.737 0.
-357.396 -726.861 0.
-354.4 -729.051 0.
-351.382 -731.593 0.
-388.613 -653.519 0.
-389.19 -686.417 0.
-394.247 -716.151 0.
-368.495 -719.643 0.
-373.265 -713.999 0.
-385.509 -716.893 0.
-563.406 -1252.22 0.
-650.029 -1459.42 0.
-106.823 -54.8254 0.
-363.296 -666.112 0.
-655.022 -1482.93 0.
-6.22867 -5.58294 0.
-9.46753 -7.71712 0.
-536.146 -1082.12 0.
-130.696 -71.2346 0.
-59.7913 -22.0553 0.
-272.638 -115.495 0.
-36.9424 -16.125 0.
-72.7719 -27.9509 0.
-20.5397 -10.4568 0.
-18.4907 -8.38992 0.
-14.0866 -8.67065 0.
-28.1355 -18.7837 0.
-24.4321 -14.3312 0.
-32.8232 -16.739 0.
-1.95445 -5.41325 0.
-129.25 -341.052 0.
-11.9035 -26.0014 0.
-102.55 -199.821 0.
0.780125 2.10562 0.
-2696.74 -6299.94 0.
-0.0531446 -22.6811 0.
4.48699 12.2002 0.
-0.12429 -19.2081 0.
-578.278 -1531.07 0.
-194.77 -490.673 0.
21.1915 58.6758 0.
11.2284 30.8087 0.
-8.53304 -22.159 0.
-0.263586 -0.696238 0.
44.4474 122.529 0.
-45.6774 -116.706 0.
30.1147 81.492 0.
39.9618 93.9253 0.
-13.1329 -332.355 0.
-656.238 -1701.6 0.
43.6483 113.83 0.
0.292993 0.786386 0.
16.098 43.407 0.
-0.798004 -2.19354 0.
-623.907 -1716.46 0.
-9.77752 -27.0306 0.
-4.64185 -12.7918 0.
-405.851 -1077.28 0.
-617.891 -1688.15 0.
-65.7527 -182.058 0.
-610.617 -1627.74 0.
5.69015 15.7377 0.
0.004051 2.06799 0.
0.078314 7.18353 0.
-10.1203 -27.9762 0.
-0.0252065 -0.394896 0.
-96.6061 -252.682 0.
-249.945 -637.28 0.
-2062.46 -4582.09 0.
-28.4887 -74.7628 0.
-2.32296 -6.17997 0.
-2308.02 -5680.96 0.
-63.3505 -50.7343 0.
-20.8468 -38.5656 0.
-2317.17 -5128.29 0.
-6.64274 -11.9672 0.
-1766.43 -3798.49 0.
-542.356 -866.549 0.
-42.9978 -26.8834 0.
-1415.6 -3385.13 0.
-598.004 -1410.84 0.
-36.2439 -29.9671 0.
-975.9 -2337.34 0.
-554.227 -1307.14 0.
-159.662 -251.645 0.
-789.526 -1760.29 0.
-657.594 -1487.94 0.
-485.12 -974.628 0.
-438.239 -858.478 0.
-407.36 -784.316 0.
-460.717 -830.361 0.
-456.655 -818.618 0.
-452.208 -804.925 0.
-510.751 -939.814 0.
-428.016 -911.98 0.
-404.111 -842.162 0.
-560.195 -1006.77 0.
-583.659 -985.675 0.
-991.349 -1137.8 0.
-477.374 -887.689 0.
-499.156 -944.002 0.
-402.418 -790.142 0.
-412.269 -818.088 0.
-425.203 -855.041 0.
-474.67 -801.262 0.
-479.084 -803.918 0.
-484.346 -806.548 0.
-395.952 -845.032 0.
-478.552 -1026.9 0.
-567.665 -1211.09 0.
-686.12 -1572.16 0.
-863.489 -1928.86 0.
-133.759 -103.291 0.
-627.377 -1419.24 0.
-1146.57 -2717.96 0.
-16.8929 -24.7681 0.
-563.042 -1172.54 0.
-1675.43 -4022.55 0.
-95.7164 -47.0606 0.
-494.031 -353.104 0.
-1873 -3640.36 0.
-38.3856 -18.151 0.
-2405.65 -6002.93 0.
-43.7927 -60.7815 0.
-55.2546 -59.4936 0.
-1960.46 -3335.46 0.
-36.1003 -36.4281 0.
-2744.29 -6720.92 0.
-84.388 -220.962 0.
0.0532417 1.28568 0.
-121.64 -336.068 0.
1.56233 4.1168 0.
-43.0348 -98.4683 0.
1.15448 3.16573 0.
-257.326 -679.748 0.
6.55469 18.0442 0.
-1739.01 -4700.97 0.
-0.16552 -23.3294 0.
11.775 32.4513 0.
-329.356 -840.938 0.
-0.00430144 -70.896 0.
29.5742 80.7653 0.
-6.52921 -17.9028 0.
-1882.24 -4967.63 0.
12.601 34.7781 0.
-54.2817 -139.102 0.
35.5743 96.8846 0.
-240.905 -553.89 0.
-0.0605006 -70.4619 0.
-34.5297 -88.8603 0.
26.1497 68.6406 0.
31.9521 85.8815 0.
20.3898 55.1151 0.
24.1962 66.4304 0.
-1455.07 -3983.1 0.
-0.511462 -80.4158 0.
-2.84035 -7.854 0.
-611.293 -1644.4 0.
-0.00342762 -29.2818 0.
-25.5812 -70.8551 0.
-232.179 -632.777 0.
6.14207 16.9986 0.
-0.0275482 -15.8614 0.
-0.00193203 -0.358221 0.
-3010.39 -6737.01 0.
-0.00370629 -5.02137 0.
-1712.17 -4169.97 0.
-0.127492 -0.230933 0.
0.159197 0.264434 0.
-9.28039 -23.53 0.
0.420226 1.13495 0.
-91.0789 -105.748 0.
-17.7617 -30.5539 0.
-20.0081 -39.1539 0.
-144.711 -88.8945 0.
-9.48223 -24.7484 0.
-22.1801 -34.1425 0.
-0.302559 -0.556975 0.
-10.3039 -12.6216 0.
-458.688 -1024.21 0.
-29.0343 -19.7119 0.
-29.1323 -28.953 0.
-532.526 -1296.33 0.
-144.654 -232.479 0.
-37.3344 -37.3631 0.
-568.483 -1309.73 0.
-443.965 -1036.22 0.
-376.68 -848.217 0.
-319.654 -739.127 0.
-279.099 -656.214 0.
-376.902 -821.221 0.
-371.855 -811.403 0.
-365.648 -797.913 0.
-460.568 -915.143 0.
-411.157 -896.883 0.
-396.199 -854.565 0.
-480.419 -965.793 0.
-464.596 -927.924 0.
-341.163 -758.388 0.
-451.072 -786.05 0.
-471.379 -837.64 0.
-393.624 -843.983 0.
-400.531 -860.761 0.
-411.299 -884.037 0.
-362.381 -809.487 0.
-365.677 -815.782 0.
-371.055 -818.591 0.
-259.662 -566.644 0.
-325.854 -765.922 0.
-407.121 -959.012 0.
-368.31 -874.947 0.
-526.883 -1249.19 0.
-67.8196 -50.1466 0.
-96.75 -67.0791 0.
-578.872 -1399.34 0.
-25.0497 -27.7496 0.
-20.764 -18.2295 0.
-447.906 -910.14 0.
-137.18 -89.7788 0.
-12.3131 -4.95746 0.
-2.25125 -0.879282 0.
-23.6391 -9.19447 0.
-171.585 -351.961 0.
-42.8 -53.249 0.
-0.120281 -3.81469e-05 0.
0.0417579 0.000327654 0.
0.277461 0.649401 0.
-182.436 -404.805 0.
1.19826 3.09415 0.
1.40763 2.98816 0.
-2381.26 -5227.61 0.
3.95329 8.26067 0.
-876.171 -1678 0.
-0.00803918 -7.23579 0.
2.4634 6.62916 0.
-0.0839942 -29.3759 0.
-5.98277 -16.5026 0.
-0.303389 -39.2604 0.
-1.35239 -3.73041 0.
-1002.39 -2772.01 0.
24.5109 67.888 0.
26.7266 72.6255 0.
-0.36245 -127.378 0.
-16.6348 -45.96 0.
39.9884 109.261 0.
-175.874 -448.836 0.
-5.66748 -177.195 0.
63.0051 174.388 0.
0.000435589 10.1131 0.
-39.4849 -100.922 0.
30.6977 80.929 0.
-71.5938 -192.692 0.
-27.8822 -75.5597 0.
-61.3502 -168.583 0.
26.0069 71.8506 0.
26.8764 74.4386 0.
-143.193 -396.482 0.
-773.966 -2100.84 0.
-265.239 -732.34 0.
-56.9621 -157.741 0.
-267.545 -735.89 0.
-0.00538804 -2.16756 0.
-1408.77 -3799.7 0.
-2.61627e-07 -5.56608 0.
-69.5503 -168.926 0.
-0.000450992 -5.86952 0.
-27.4145 -72.5465 0.
0.0652262 0.455702 0.
0.115924 0.25506 0.
-38.6494 -69.0839 0.
-15.9432 -28.6909 0.
-109.986 -180.665 0.
-21.529 -27.0757 0.
-25.9303 -34.4178 0.
-46.5229 -40.161 0.
-24.7748 -30.001 0.
-5.5219 -7.174 0.
-2.84796 -3.32939 0.
-10.8558 -14.2258 0.
-29.214 -15.1725 0.
-31.5758 -21.8272 0.
-35.1059 -35.402 0.
-145.546 -245.513 0.
-40.9781 -39.4437 0.
-48.7707 -45.9761 0.
-185.806 -306.911 0.
-119.53 -141.012 0.
-170.278 -302.841 0.
-76.2921 -113.106 0.
-33.3388 -55.3344 0.
-147.971 -209.16 0.
-194.454 -358.996 0.
-90.6156 -107.829 0.
-144.261 -162.876 0.
-143.307 -152.762 0.
-204.32 -308.273 0.
-242.089 -323.172 0.
-243.217 -319.413 0.
-19.8926 -53.6297 0.
-74.7194 -100.072 0.
-169.14 -247.528 0.
-59.2893 -67.1516 0.
-212.952 -236.926 0.
-102.76 -109.022 0.
-40.8474 -69.936 0.
-147.681 -212.352 0.
-126.088 -159.209 0.
-85.6329 -80.9684 0.
-146.168 -223.939 0.
-140.418 -206.984 0.
-58.2331 -69.5972 0.
-202.117 -428.036 0.
-69.9283 -51.1387 0.
-69.4355 -49.5629 0.
-100.871 -80.8279 0.
-43.4971 -34.5674 0.
-39.8778 -25.2396 0.
-51.0742 -23.1904 0.
-200.361 -141.968 0.
-0.297165 -0.00177411 0.
0.342198 0.123855 0.
-11.3661 -4.58828 0.
-54.1736 -68.7067 0.
-41.3658 -46.852 0.
0.291754 0.105756 0.
0.385189 0.139378 0.
0.798839 1.77291 0.
0.207748 0.568823 0.
-0.0438794 -1.59378 0.
0.840087 1.86889 0.
-0.0398328 -11.0082 0.
4.42061 10.2559 0.
-1745.53 -3545.75 0.
-1332.3 -3479.37 0.
11.8085 30.1294 0.
8.22357 22.6115 0.
11.0588 30.5385 0.
-379.37 -1020.85 0.
8.9147 24.6063 0.
-8.16424 -22.5971 0.
-1899.3 -5252.97 0.
16.7647 45.37 0.
34.1701 94.2412 0.
37.56 103.864 0.
35.918 98.2581 0.
-656.398 -1688.79 0.
-7.41698 -18.8753 0.
43.4308 119.501 0.
44.2576 121.535 0.
31.198 79.2482 0.
-24.4432 -67.3188 0.
-155.474 -419.016 0.
-291.871 -793.118 0.
39.2988 108.342 0.
31.4715 86.996 0.
3.33281 9.23046 0.
-269.12 -745.405 0.
19.3303 50.4043 0.
-216.266 -596.898 0.
-71.3598 -197.482 0.
-0.426848 -24.4553 0.
-557.345 -1532.93 0.
-256.507 -701.755 0.
4.62025 12.7208 0.
2.56325 6.60216 0.
0.00228987 4.02392 0.
0.0565023 0.741183 0.
-1920.93 -3658.59 0.
-33.8215 -91.7837 0.
-2406.78 -4969.7 0.
-27.4807 -71.3047 0.
-1609.78 -3704.31 0.
-13.9242 -12.1761 0.
-30.5836 -38.9172 0.
-2092.68 -5201.25 0.
-22.8169 -27.9329 0.
-1961.47 -3630.63 0.
-247.644 -289.809 0.
-10.3016 -11.5453 0.
-1923.17 -4852.26 0.
-249.586 -575.644 0.
-11.9635 -23.5342 0.
-1233.84 -3135.12 0.
-477.955 -1187.33 0.
-31.5544 -40.8638 0.
-917.123 -2263.32 0.
-590.322 -1468.05 0.
-588.515 -1490.6 0.
-419.288 -1099.52 0.
-266.256 -710.175 0.
-420.155 -1033.04 0.
-338.591 -820.169 0.
-259.784 -609.403 0.
-349.038 -753.509 0.
-336.258 -722.075 0.
-326.198 -691.336 0.
-452.487 -811.884 0.
-519.619 -938.687 0.
-275.963 -732.222 0.
-417.12 -864.691 0.
-376.622 -750.888 0.
-333.638 -732.166 0.
-355.11 -793.655 0.
-379.568 -860.185 0.
-269.129 -669.596 0.
-362.163 -933.482 0.
-464.518 -1193.1 0.
-281.998 -661.221 0.
-488.478 -1191.32 0.
-708.615 -1710.79 0.
-562.632 -1379 0.
-1013.06 -2502.97 0.
-48.2057 -31.4173 0.
-463.27 -1058.66 0.
-1447.37 -3555.6 0.
-60.3783 -56.5967 0.
-139.951 -160.965 0.
-2143.34 -5586.14 0.
-80.4757 -72.2903 0.
-42.8479 -39.5555 0.
-1928.71 -3204.35 0.
-37.6093 -54.6765 0.
-2310.89 -6070.71 0.
-0.149123 -0.267436 0.
-61.6073 -91.1236 0.
-2093.15 -4175.3 0.
-0.0811918 -2.41041 0.
-1945.82 -4261.38 0.
-1.31109 -2.84584 0.
-0.368228 -4.14187 0.
-0.0242334 -17.4245 0.
-0.300394 -5.57809 0.
5.33944 14.776 0.
-236.151 -625.361 0.
3.15646 8.66336 0.
0.383274 1.05344 0.
5.81598 16.0727 0.
-1467.68 -3965.26 0.
-2.41476 -6.66997 0.
9.08688 25.154 0.
19.3684 53.6466 0.
-308.638 -832.987 0.
-21.3045 -58.8701 0.
17.5401 48.5366 0.
-19.428 -53.1788 0.
-0.269636 -134.085 0.
0.232862 0.583631 0.
44.7382 120.993 0.
-1.82371 -108.003 0.
-175.597 -443.627 0.
-0.284145 -134.438 0.
-335.784 -906.2 0.
-825.155 -2248.87 0.
-0.137077 -116.22 0.
27.482 76.0093 0.
38.5955 106.831 0.
-508.005 -1407.05 0.
-5.42785 -15.0068 0.
-178.074 -491.451 0.
-194.845 -538.395 0.
-474.098 -1312.81 0.
-412.032 -1134.87 0.
0.991423 2.73971 0.
-0.139059 -19.4224 0.
-1.6569 -26.4776 0.
-2045.28 -5373.81 0.
-0.0043384 -5.34015 0.
0.41834 0.837791 0.
1.16264 3.14834 0.
-148.704 -410.194 0.
-0.00667052 -0.0512354 0.
-92.941 -153.131 0.
-24.5365 -14.2924 0.
-41.0971 -42.0744 0.
-39.6788 -43.0387 0.
-37.4913 -34.3747 0.
-29.8947 -23.2536 0.
-27.8176 -19.2404 0.
-26.0322 -15.3849 0.
-122.95 -295.688 0.
-3.20712 -7.57281 0.
-8.07634 -21.4164 0.
-486.949 -1199.79 0.
-26.7038 -23.1377 0.
-33.8398 -32.5152 0.
-534.906 -1328.1 0.
-219.903 -492.822 0.
-398.239 -991.57 0.
-241.624 -590.65 0.
-117.684 -260.136 0.
-376.552 -875.767 0.
-298.651 -661.139 0.
-222.683 -444.987 0.
-302.52 -633.156 0.
-291.177 -599.136 0.
-291.854 -553.357 0.
-425.089 -795.441 0.
-486.411 -928.543 0.
-154.759 -347.555 0.
-410.202 -836.613 0.
-372.03 -723.252 0.
-281.68 -619.072 0.
-306.45 -679.89 0.
-333.209 -748.091 0.
-161.378 -379.76 0.
-250.634 -648.961 0.
-347.98 -912.955 0.
-61.4331 -56.3555 0.
-233.976 -501.53 0.
-439.041 -1037.98 0.
-120.542 -163.573 0.
-567.394 -1350.17 0.
-20.7745 -8.21662 0.
-19.2424 -7.55376 0.
-366.058 -768.516 0.
-26.2063 -26.2294 0.
-13.4626 -8.37328 0.
-88.3811 -142.629 0.
0.093415 0.042105 0.
-12.2209 -11.8765 0.
-25.8689 -30.4161 0.
-34.6599 -46.1573 0.
-113.944 -227.525 0.
-0.00618448 -0.0431556 0.
0.635188 1.02857 0.
-55.7307 -86.709 0.
1.45095 3.95665 0.
1.45147 3.54302 0.
2.91979 7.21828 0.
-2263.23 -5226.32 0.
-0.250983 -17.1267 0.
-0.796227 -20.2806 0.
-0.0274389 -22.3905 0.
-58.7429 -159.455 0.
12.8175 35.0883 0.
-1567.42 -4339.64 0.
9.17606 25.3741 0.
-0.114687 -51.4087 0.
-720.701 -1995.82 0.
1.03965 2.8783 0.
35.8494 99.2586 0.
-1286.3 -3466.8 0.
-21.5324 -59.5797 0.
-21.1441 -58.539 0.
3.99516 10.9367 0.
-4.81737 -13.2776 0.
-8.70288 -162.847 0.
19.7092 51.2759 0.
-0.309339 -17.9992 0.
37.96 103.392 0.
7.71178 21.263 0.
-663.668 -1793.69 0.
-23.7353 -65.5469 0.
-154.404 -427.045 0.
36.5333 101.094 0.
33.7334 93.2682 0.
-778.573 -2156.31 0.
-13.7362 -37.9231 0.
-366.098 -1010.56 0.
-618.51 -1701.9 0.
-384.63 -1064.54 0.
-292.927 -807.64 0.
-0.0215244 -19.1875 0.
-972.874 -2694.44 0.
-3.34199 -9.20532 0.
-78.2671 -215.481 0.
-0.0784281 -7.61542 0.
-0.905991 -7.99889 0.
-0.0316164 -3.01177 0.
-15.9178 -39.3304 0.
-0.0697567 -0.441139 0.
-4.79413 -1.73286 0.
-1085.12 -2276.78 0.
0.549151 0.235249 0.
-1600.48 -3947.94 0.
-3.74464 -1.35861 0.
-1785.08 -3281.87 0.
-16.4074 -8.31849 0.
-15.7578 -7.29782 0.
-1939.07 -5179.47 0.
-2.8378 -7.8419 0.
-0.0123372 -0.070845 0.
-1475.06 -3622.01 0.
-323.118 -739.527 0.
-33.3062 -34.0467 0.
-1040.72 -2642.22 0.
-504.091 -1267.62 0.
-733.168 -1751.93 0.
-463.932 -1098.96 0.
-211.62 -446.794 0.
-527.625 -1243.67 0.
-390.872 -912.002 0.
-263.05 -576.687 0.
-376.705 -816.829 0.
-335.941 -710.61 0.
-299.08 -612.58 0.
-433.414 -828.75 0.
-403.217 -760.682 0.
-411.532 -526.429 0.
-335.43 -603.19 0.
-359.54 -666.05 0.
-264.195 -577.488 0.
-323.022 -741.281 0.
-390.878 -919.094 0.
-189.276 -471.086 0.
-384.565 -981.975 0.
-592.451 -1488.27 0.
-199.367 -368.28 0.
-488.273 -1117.94 0.
-798.818 -1852.45 0.
-457.741 -1068.9 0.
-1175.09 -2920.39 0.
-17.3665 -18.3889 0.
-132.403 -295.191 0.
-1620.81 -4176.6 0.
-43.2396 -52.1122 0.
-17.4793 -17.5116 0.
-1532.17 -3926.06 0.
-17.024 -23.5017 0.
-1745.65 -3550.24 0.
-0.0246547 -0.217902 0.
-47.3591 -68.8651 0.
-1314.86 -3364.32 0.
-63.5409 -126.054 0.
0.926419 1.70063 0.
0.171465 0.452736 0.
0.00191941 3.14666 0.
-0.0259044 -0.9304 0.
2.28062 6.03795 0.
-29.6143 -72.4925 0.
-0.127873 -16.3732 0.
-1632.79 -4363.6 0.
-164.705 -455.923 0.
-37.145 -102.151 0.
16.7426 45.7118 0.
2.53191 7.00088 0.
13.5812 37.5721 0.
2.06372 5.68214 0.
-1625.5 -4501.15 0.
0.234013 0.647941 0.
33.2413 91.958 0.
10.397 28.796 0.
7.06429 19.5622 0.
-11.1314 -30.5543 0.
-261.036 -714.294 0.
36.6311 100.931 0.
-2.67671 -50.2264 0.
-1053.59 -2554.35 0.
-3.33988 -112.823 0.
-8.92432 -23.9698 0.
19.2954 53.2207 0.
-868.438 -2350.54 0.
10.9042 30.1159 0.
-560.215 -1550.84 0.
7.90698 21.768 0.
33.1601 91.5309 0.
33.0485 91.1389 0.
30.0298 82.7547 0.
-450.198 -1243.08 0.
31.2022 86.341 0.
-353.886 -978.617 0.
8.06373 22.247 0.
-265.298 -731.206 0.
-290.323 -804.046 0.
6.78796 18.7429 0.
-55.3727 -153.184 0.
-0.509878 -15.2388 0.
0.236735 2.76548 0.
4.47002 11.1913 0.
-1784.7 -4397.53 0.
0.818358 2.04899 0.
-1158.72 -2728.5 0.
0.919435 1.97814 0.
2.7705 0.00227062 0.
0.548678 0.198797 0.
-9.22279 -3.61336 0.
-34.4437 -24.0374 0.
-13.8138 -7.53826 0.
-10.3607 -5.38684 0.
-165.307 -426.464 0.
0.00987643 0.0242936 0.
-0.00395587 -0.00895062 0.
-218.778 -475.36 0.
-0.345766 -0.160069 0.
-19.3702 -16.4419 0.
-474.557 -1228.33 0.
-17.0853 -32.8206 0.
-419.585 -1002.64 0.
-160.73 -318.377 0.
-39.1273 -48.5101 0.
-356.189 -875.91 0.
-229.233 -539.508 0.
-131.411 -269.228 0.
-283.391 -669.988 0.
-246.008 -578.627 0.
-222.708 -513.3 0.
-391.336 -799.679 0.
-367.518 -735.932 0.
-309.455 -616.82 0.
-276.84 -614.177 0.
-291.946 -657.091 0.
-181.245 -403.499 0.
-231.595 -568.062 0.
-292.983 -739.842 0.
-44.4826 -67.3157 0.
-181.154 -448.267 0.
-374.583 -963.938 0.
-47.4408 -35.7786 0.
-73.6846 -88.9 0.
-370.569 -836.06 0.
-5.42252 -3.90891 0.
-456.555 -1149.5 0.
-12.938 -16.5418 0.
-11.9172 -14.1207 0.
-108.517 -266.595 0.
-3.59684 -4.83133 0.
-4.78844 -6.0561 0.
-5.43618 -6.62747 0.
-1.33631 -1.72428 0.
-490.297 -1225.12 0.
-0.0257385 -0.54095 0.
0.330361 0.876797 0.
-35.564 -70.6649 0.
-0.102958 -2.52384 0.
-2619.21 -6132.77 0.
2.50598 6.91095 0.
1.3585 3.61492 0.
-1724.94 -4313.48 0.
3.23564 8.83769 0.
4.03782 10.4134 0.
-0.0572772 -15.5075 0.
-0.29745 -17.5413 0.
-195.474 -538.281 0.
-453.845 -1254.53 0.
11.4693 31.2235 0.
6.86328 18.959 0.
-358.825 -993.49 0.
-0.181257 -65.635 0.
11.2488 30.6923 0.
21.9282 60.7208 0.
17.7549 49.0499 0.
14.6915 39.9901 0.
-271.943 -753.234 0.
5.10873 14.0161 0.
-550.45 -1504.93 0.
3.56373 9.81358 0.
-9.92969 -133.853 0.
25.6771 53.1136 0.
26.4859 66.0639 0.
33.9971 89.5257 0.
-1078.7 -2976.36 0.
38.2739 105.983 0.
44.118 121.849 0.
-1029.13 -2850.26 0.
-12.0437 -33.1561 0.
-485.635 -1337.74 0.
6.07953 16.4182 0.
-50.6548 -139.306 0.
23.4114 64.68 0.
-0.0691007 -85.9545 0.
-357.879 -988.369 0.
-0.702724 -17.7178 0.
-268.081 -742.086 0.
-0.0067714 -25.0096 0.
-0.0113973 -18.252 0.
-51.4383 -140.466 0.
0.718681 1.9831 0.
-1822.17 -4556.9 0.
-0.026795 -2.28915 0.
0.748519 1.74117 0.
-0.16435 -4.8531 0.
0.00376721 0.713246 0.
1.18433 3.09482 0.
0.00482482 0.473553 0.
-0.0411925 -0.0158587 0.
-14.2926 -6.2835 0.
-33.9635 -18.3396 0.
-10.9833 -6.67812 0.
-8.29299 -4.94155 0.
-0.274042 -0.225307 0.
-0.282928 -0.143364 0.
-0.153403 -0.0645054 0.
0.0888103 0.0746535 0.
-7.94025 -4.92859 0.
-26.7748 -19.3102 0.
-28.0946 -44.8516 0.
-18.028 -32.684 0.
-91.05 -108.861 0.
-60.8625 -59.2714 0.
-57.4584 -52.5536 0.
-146.274 -322.227 0.
-64.5757 -80.5189 0.
-49.8762 -68.4226 0.
-128.1 -222.699 0.
-145.59 -257.139 0.
-101.447 -149.764 0.
-172.49 -126.525 0.
-169.455 -143.802 0.
-46.5114 -64.1831 0.
-25.8824 -48.4071 0.
-199.633 -367.619 0.
-48.5364 -41.206 0.
-138.499 -265.259 0.
-130.025 -257.654 0.
-18.7431 -16.6637 0.
-34.3316 -27.3928 0.
-149.244 -285.259 0.
-40.9687 -34.8554 0.
-27.7431 -13.3598 0.
-25.6282 -15.3056 0.
-2.42678 -2.74975 0.
-21.0523 -53.0051 0.
-9.44739 -15.0584 0.
-8.4154 -12.6278 0.
-26.1533 -56.9858 0.
0.290499 0.499041 0.
0.151124 0.233594 0.
-0.326955 -0.469712 0.
-4.89547 -5.65496 0.
-2.06649 -2.18462 0.
0.011711 0.315929 0.
-0.000143236 -0.125688 0.
-0.0428312 -0.935678 0.
-0.00304245 -3.93097 0.
-7.18548 -19.1344 0.
-0.00397972 -8.75471 0.
2.09328 5.65124 0.
-4.57298 -11.7913 0.
1.32192 3.36431 0.
-1140.8 -2437.77 0.
-0.0219934 -15.1912 0.
3.99277 10.7647 0.
-221.744 -605.758 0.
-722.717 -1981.22 0.
11.5051 31.2273 0.
18.7073 51.6179 0.
-615.096 -1703.54 0.
13.0272 35.8174 0.
20.4147 55.4804 0.
-618.866 -1703.12 0.
24.6865 68.065 0.
41.2612 112.03 0.
-710.684 -1963.67 0.
-29.5382 -81.0205 0.
-2.71432e-05 -107.463 0.
14.8557 40.8696 0.
-13.7231 -139.127 0.
9.6543 73.898 0.
-207.563 -492.98 0.
46.1992 118.439 0.
-125.817 -347.142 0.
44.9687 124.513 0.
33.6029 92.7985 0.
-391.975 -1085.69 0.
-11.1833 -30.7907 0.
-551.423 -1523.96 0.
28.6577 77.2467 0.
-115.672 -317.385 0.
-6.42376 -17.6275 0.
9.53427 26.3254 0.
-212.442 -585.72 0.
25.7999 69.8052 0.
-235.374 -651.819 0.
-0.0122171 -18.2481 0.
-0.00685156 -31.3637 0.
-948.13 -2575.91 0.
6.94159 19.179 0.
-103.946 -274.823 0.
-0.00600693 -5.46362 0.
2.28621 5.47673 0.
0.0353795 1.30088 0.
-0.344163 -0.845454 0.
-1490.1 -3613.31 0.
2.13829 5.4787 0.
-1482.72 -2858.18 0.
-50.6804 -50.9432 0.
-110.646 -152.003 0.
-2071.24 -4849.36 0.
-21.4394 -55.939 0.
-1364.62 -3540 0.
-14.2062 -39.0465 0.
-12.2685 -33.2316 0.
-1645.51 -4218.98 0.
-11.649 -21.5721 0.
-0.562028 -0.502967 0.
-1281.37 -3325.44 0.
-219.603 -568.102 0.
-888.528 -2133.03 0.
-457.514 -1058.47 0.
-130.164 -228.222 0.
-678.7 -1778.26 0.
-405.053 -1072.71 0.
-154.357 -381.105 0.
-472.88 -1202.61 0.
-331.187 -822.204 0.
-205.545 -472.797 0.
-417.01 -926.742 0.
-392.219 -855.81 0.
-234.042 -576.921 0.
-314.169 -787.6 0.
-374.676 -942.549 0.
-209.59 -472.89 0.
-371.755 -937.471 0.
-567.216 -1469.61 0.
-86.5375 -162.856 0.
-438.804 -1121.44 0.
-803.771 -2066.89 0.
-56.6009 -110.845 0.
-446.846 -1045.33 0.
-966.029 -2303.5 0.
-93.0816 -214.441 0.
-1353.2 -3602.46 0.
-8.0461 -21.5201 0.
-9.37235 -21.9612 0.
-1667.06 -4412.72 0.
-8.39767 -14.8258 0.
-15.639 -27.3501 0.
-1774.37 -3790.33 0.
-4.75549 -9.18547 0.
-1803.37 -4208.69 0.
-0.174873 -2.10212 0.
-17.5618 -36.7699 0.
-1921.25 -3997.87 0.
-0.0208539 -2.12605 0.
-896.955 -2346.43 0.
-0.000200651 -7.3199 0.
0.129665 0.353319 0.
-0.0395582 -12.4854 0.
-0.233578 -7.39329 0.
7.41947 20.5422 0.
-697.133 -1901.99 0.
7.29618 17.8085 0.
-278.59 -754.082 0.
-307.694 -845.631 0.
-479.167 -1317.29 0.
5.91141 16.2893 0.
-727.573 -2015.25 0.
-60.8962 -167.175 0.
31.287 84.6318 0.
-774.842 -2126.81 0.
-230.937 -635.049 0.
-61.7275 -167.2 0.
25.281 67.3701 0.
-173.374 -475.566 0.
19.975 55.3238 0.
-7.32763 -20.13 0.
-25.6574 -55.0952 0.
0.550918 3.23136 0.
-1405.61 -3207.42 0.
-1.06976 -76.0684 0.
-0.734896 -137.301 0.
6.12153 16.9479 0.
-552.275 -1524.96 0.
13.8561 37.82 0.
-577.025 -1588.88 0.
-87.4638 -241.728 0.
-35.1001 -94.4757 0.
-460.094 -1259.63 0.
19.0341 50.1452 0.
16.1272 44.4645 0.
-20.2308 -55.6456 0.
5.24518 14.1638 0.
-180.312 -498.332 0.
14.4756 37.1631 0.
-842.527 -2271.96 0.
14.3102 39.6297 0.
-0.00902906 -12.821 0.
6.1694 16.7829 0.
-874.278 -2254.38 0.
5.74512 15.407 0.
-1612.64 -3801.75 0.
2.05517 5.42461 0.
-0.14303 -6.13073 0.
0.000981157 0.541505 0.
-1.03924 -1.17146 0.
1.16131 1.39392 0.
-37.3212 -52.608 0.
-21.9347 -60.5143 0.
-0.00157739 -0.0146467 0.
-25.5704 -69.8993 0.
-12.9246 -35.5834 0.
-5.62797 -12.9356 0.
-17.5945 -18.1037 0.
-2.00112 -1.58424 0.
-0.414833 -0.300358 0.
-372.213 -984.333 0.
-5.33759 -12.8136 0.
-353.342 -807.01 0.
-23.017 -23.9654 0.
-23.8494 -32.4589 0.
-368.714 -976.395 0.
-120.674 -302.508 0.
-27.9593 -56.1292 0.
-376.44 -920.427 0.
-263.816 -604.93 0.
-153.616 -291.089 0.
-395.414 -845.259 0.
-371.778 -779.34 0.
-54.8278 -149.468 0.
-273.541 -681.142 0.
-311.724 -788.148 0.
-101.938 -160.424 0.
-243.817 -552.075 0.
-410.211 -1019.71 0.
-27.1469 -24.3436 0.
-61.2991 -94.7019 0.
-402.254 -1022.72 0.
-14.06 -20.5968 0.
-23.466 -41.935 0.
-298.815 -665.567 0.
-19.3168 -51.1888 0.
-274.367 -731.394 0.
-0.0230493 -0.31887 0.
-0.877042 -2.42163 0.
-10.8717 -26.7815 0.
-9.1748 -16.3477 0.
-21.4129 -37.4615 0.
-36.8915 -67.7694 0.
0.617274 1.45671 0.
0.355459 0.743461 0.
0.59369 1.38943 0.
0.790393 1.70073 0.
0.318461 0.626085 0.
0.978685 2.70922 0.
-235.466 -640.879 0.
3.27581 9.04882 0.
-1592.62 -4197.88 0.
2.56244 6.77804 0.
6.95451 18.0621 0.
10.6137 28.9595 0.
-427.057 -1180.41 0.
-167.699 -448.212 0.
-499.62 -1338.12 0.
-50.1768 -138.119 0.
11.6051 31.973 0.
5.76416 15.8592 0.
27.5447 73.171 0.
-248.704 -680.575 0.
-0.945414 -76.6931 0.
-9.36338 -25.064 0.
24.6585 66.2928 0.
-585.108 -1581.81 0.
-16.4067 -43.7725 0.
-22.8257 -62.6291 0.
-14.9526 -41.402 0.
-7.66894 -21.2409 0.
13.1228 26.4057 0.
-11.8296 -56.4789 0.
41.3608 109.67 0.
1.79269 4.7009 0.
-11.4583 -31.4879 0.
-59.0818 -163.548 0.
-82.3363 -227.269 0.
12.9884 35.4485 0.
-380.509 -1048.08 0.
14.706 39.7211 0.
-47.998 -129.039 0.
28.7005 74.9787 0.
23.3427 61.4316 0.
-694.221 -1911.69 0.
-2.6451 -7.09947 0.
-57.7432 -155.601 0.
-329.317 -906.843 0.
-2.0919 -5.74896 0.
-612.301 -1672.97 0.
14.4766 39.9589 0.
-0.0125199 -26.734 0.
-0.570269 -1.5778 0.
-349.758 -933.603 0.
-0.0192441 -7.58474 0.
4.47575 10.8863 0.
-0.0129114 -1.4995 0.
-0.00784896 -1.74013 0.
-0.00169806 -0.696978 0.
-1.28831 -1.87653 0.
0.674385 0.916298 0.
-156.418 -296.275 0.
-1449.65 -4010.1 0.
-5.05221 -13.9737 0.
-1557.88 -2662.14 0.
-41.1488 -88.287 0.
-40.1946 -102.037 0.
-1580.41 -4167.83 0.
-16.4098 -20.3366 0.
-13.6877 -15.4268 0.
-1319.18 -3492.84 0.
-23.2261 -37.24 0.
-981.041 -2290.56 0.
-421.795 -942.961 0.
-25.1285 -36.7309 0.
-827.72 -2160.22 0.
-387.342 -1014.47 0.
-15.2915 -23.4206 0.
-578.884 -1480.4 0.
-350.569 -873.997 0.
-139.368 -287.08 0.
-467.168 -1041.88 0.
-420.473 -932.392 0.
-179.117 -318.621 0.
-341.043 -893.233 0.
-441.962 -1157.4 0.
-111.895 -181.635 0.
-374.608 -909.313 0.
-671.194 -1702.95 0.
-36.6284 -42.5154 0.
-367.853 -951.34 0.
-935.11 -2444.34 0.
-14.5199 -21.0645 0.
-366.078 -845.664 0.
-1007.56 -2372.86 0.
-8.12672 -20.3457 0.
-1410.97 -3565.71 0.
0.00194245 0.129032 0.
-6.69166 -18.5165 0.
-1688.88 -4468.72 0.
-82.6487 -177.99 0.
-99.7416 -179.638 0.
-1555.33 -2639.71 0.
0.996234 2.54766 0.
-1487.61 -4093.34 0.
-0.113507 -1.52681 0.
-0.121515 -1.05567 0.
-0.0944547 -0.575407 0.
-0.0169647 -6.10607 0.
-28.6874 -79.3844 0.
5.14904 14.2581 0.
-0.203865 -14.8142 0.
-0.260584 -25.8207 0.
-1387.72 -3660.5 0.
-0.0854528 -5.1527 0.
-226.836 -628.041 0.
3.58517 9.60941 0.
-378.991 -1026.69 0.
2.721 7.49817 0.
-1.10066 -3.03547 0.
-186.217 -514.575 0.
-1.50206 -73.4651 0.
-247.386 -674.44 0.
-83.0927 -221.613 0.
-1.05077 -2.80322 0.
21.2009 56.8247 0.
-1251.9 -3378.76 0.
11.1476 29.7928 0.
-2.92135 -112.367 0.
-38.4918 -106.512 0.
-6.21259 -17.1821 0.
-0.156663 -120.56 0.
3.47638 8.12283 0.
-0.393394 -12.1495 0.
12.3064 31.4295 0.
-186.398 -514.392 0.
-387.558 -1072.59 0.
2.03811 5.63513 0.
-115.858 -316.203 0.
-68.0386 -187.493 0.
23.9986 64.7994 0.
-1015.39 -2726.3 0.
17.5687 45.8545 0.
-156.448 -411.374 0.
-4.11409 -11.3035 0.
-87.7288 -236.617 0.
-422.239 -1135 0.
-4.77382 -13.0074 0.
11.7313 32.144 0.
-334.531 -921.456 0.
-0.0726101 -19.2039 0.
-1121.1 -3097.25 0.
-5.50843 -15.2564 0.
8.66917 23.6402 0.
-7.70619e-05 -6.46284 0.
-0.339964 -9.01868 0.
2.47015 6.20181 0.
-1392.79 -3209.92 0.
-0.380785 -7.17471 0.
-1486.53 -2751.24 0.
-21.1878 -43.3578 0.
-0.167907 -3.25563 0.
-128.002 -353.464 0.
-0.0127197 -1.111 0.
-0.075522 -0.403205 0.
-0.044016 -0.103308 0.
-0.0842496 -0.226799 0.
-13.0196 -20.0381 0.
-10.2341 -14.072 0.
-7.83552 -9.73482 0.
-209.454 -512.337 0.
-26.3547 -29.8256 0.
-231.43 -462.588 0.
-19.8986 -35.8318 0.
-18.1197 -30.7181 0.
-352.757 -920.089 0.
-18.6271 -28.0096 0.
-14.4417 -20.9961 0.
-324.026 -860.753 0.
-104.681 -246.623 0.
-31.6196 -60.1065 0.
-325.414 -717.75 0.
-280.33 -601.268 0.
-24.7859 -60.7907 0.
-156.022 -388.944 0.
-254.975 -655.758 0.
-47.7444 -48.8741 0.
-82.3973 -140.679 0.
-369.324 -935.512 0.
-18.7831 -29.6015 0.
-16.1647 -20.8969 0.
-328.591 -879.684 0.
-11.1228 -12.1457 0.
-13.3762 -19.7273 0.
-147.862 -338.558 0.
0.126078 0.254878 0.
-2.55421 -5.30492 0.
8.84533e-05 0.0022583 0.
0.0661976 0.171471 0.
-55.5031 -153.124 0.
-0.0119519 -0.0269342 0.
-0.209023 -1.18422 0.
-0.317876 -1.27026 0.
-0.0151645 -1.92057 0.
-0.319489 -0.86468 0.
-3.40333 -9.10858 0.
-33.9329 -87.3421 0.
-1381.26 -3493.32 0.
-8.83885 -24.318 0.
-33.8643 -93.5648 0.
0.0039584 2.31988 0.
4.97395 13.5832 0.
4.61317 12.6488 0.
-198.318 -531.643 0.
-0.232155 -32.1661 0.
-332.649 -915.253 0.
8.65071 23.2182 0.
-6.62912 -18.0068 0.
-0.409305 -1.13248 0.
-1.35159 -3.65027 0.
-387.594 -1068.95 0.
-4.52191 -11.8639 0.
-843.932 -2289.52 0.
-143.772 -383.289 0.
0.212875 0.565833 0.
8.6974 23.2347 0.
-140.141 -376.943 0.
-184.57 -494.35 0.
20.9574 54.8214 0.
-308.077 -851.508 0.
16.8906 46.4412 0.
27.5009 76.171 0.
-71.5257 -168.489 0.
-4.75239 -96.824 0.
-15.22 -37.6994 0.
-972.943 -2693.2 0.
-0.498637 -89.9314 0.
-14.5194 -40.1363 0.
-580.006 -1583.16 0.
-11.5394 -30.7337 0.
-12.3032 -33.2172 0.
-325.923 -874.7 0.
-1.06017 -2.76482 0.
-496.05 -1303.34 0.
11.6831 31.3749 0.
3.06859 8.2558 0.
-466.774 -1251.9 0.
-201.016 -545.687 0.
-11.9605 -32.6612 0.
-126.445 -349.759 0.
-0.301981 -50.9493 0.
-606.533 -1678.75 0.
-3.47198 -9.61439 0.
1.36108 3.75503 0.
-1.95313 -5.34384 0.
-1212.54 -3209.09 0.
5.71872 14.7822 0.
3.3473 7.81395 0.
3.69459 9.46382 0.
-0.680885 -1.42142 0.
-0.534245 -7.22262 0.
3.12768 8.3956 0.
-230.553 -605.378 0.
0.57203 1.46411 0.
0.476131 1.01278 0.
-0.00974652 -0.162929 0.
0.237539 0.639477 0.
-7.78147 -12.942 0.
-4.99489 -7.43412 0.
-3.16707 -4.252 0.
-30.4695 -25.3493 0.
-33.0552 -29.4117 0.
-20.9426 -46.7862 0.
-14.7139 -27.5339 0.
-15.8779 -32.1334 0.
-25.5258 -47.415 0.
-22.0468 -36.7939 0.
-22.1756 -27.3001 0.
-103.444 -241.477 0.
-16.3651 -42.1644 0.
-18.6987 -48.8812 0.
-115.373 -193.789 0.
-103.066 -161.728 0.
-59.6582 -76.1545 0.
-57.0476 -67.8211 0.
-108.173 -210.544 0.
-49.4918 -57.9561 0.
-47.2658 -56.0218 0.
-95.5203 -151.67 0.
-12.3295 -27.4658 0.
-13.8192 -32.0479 0.
-15.6111 -36.8887 0.
-17.1413 -20.5653 0.
-23.0854 -31.8294 0.
-37.1969 -60.5659 0.
-0.0288101 -0.425788 0.
0.119025 0.266558 0.
-0.00675727 -0.0935478 0.
0.109569 0.268653 0.
-13.19 -34.2118 0.
0.72837 1.7728 0.
0.928302 2.02958 0.
-0.0970209 -0.557923 0.
-3.86167e-05 -1.70207 0.
0.299334 0.827951 0.
0.802775 2.16756 0.
-0.119665 -4.54389 0.
4.34044 10.9924 0.
2.98389 8.26446 0.
-1300.63 -3358.84 0.
-0.130706 -23.4172 0.
-849.379 -2233.76 0.
-0.035841 -29.9412 0.
-5.3877 -14.6312 0.
-5.08289 -13.8152 0.
-759.308 -2100.62 0.
7.89083 21.2018 0.
-4.17304 -11.3878 0.
-297.29 -821.447 0.
-3.17166 -8.52177 0.
-904.295 -2487.2 0.
-5.01933 -13.2088 0.
-32.9735 -89.054 0.
-245.137 -653.355 0.
-2.33241 -80.0669 0.
-121.709 -323.937 0.
8.69306 22.869 0.
-80.3264 -215.715 0.
-14.249 -37.4113 0.
39.4034 108.088 0.
26.5233 72.1205 0.
5.12363 14.1262 0.
-997.384 -2380.37 0.
-83.5814 -217.302 0.
13.5165 33.9322 0.
-2.5369 -6.89038 0.
-20.3122 -55.5083 0.
-487.945 -1348.73 0.
-4.50699 -11.6953 0.
37.0682 98.7686 0.
-472.238 -1274.52 0.
15.2997 39.4236 0.
-191.707 -499.681 0.
-0.471706 -1.19228 0.
-10.2945 -27.5779 0.
-2.17041 -5.82422 0.
-11.8929 -30.9301 0.
-744.654 -1967.57 0.
-434.596 -1183.07 0.
-86.6936 -237.078 0.
8.74053 23.7993 0.
-57.5641 -159.439 0.
0.612876 1.69512 0.
-930.522 -2577.37 0.
10.4927 28.488 0.
1.09169 2.93899 0.
-0.304742 -16.533 0.
1.15234 2.80124 0.
-0.3553 -15.4132 0.
7.21384 19.8671 0.
-1477.67 -3929.16 0.
3.97387 10.8848 0.
-1224.47 -2571.55 0.
-14.9275 -40.6489 0.
-1334.13 -2802.12 0.
-0.144277 -1.60818 0.
-0.0468421 -1.11894 0.
-1558.26 -4197.59 0.
-5.99229 -16.3883 0.
0.371015 0.0205538 0.
-1341.13 -3287.38 0.
-5.91527 -4.99683 0.
-1022.19 -2416.45 0.
-331.356 -751.967 0.
-20.7121 -53.8877 0.
-1013.71 -2649.85 0.
-253.834 -631.023 0.
-27.3372 -40.7816 0.
-691.427 -1891.13 0.
-309.225 -850.243 0.
-11.1399 -26.1757 0.
-519.646 -1332.01 0.
-417.027 -1066 0.
-100.835 -215.455 0.
-348.902 -903.283 0.
-563.605 -1496.16 0.
-26.0671 -27.1848 0.
-326.537 -798.536 0.
-827.66 -2118.04 0.
-16.1753 -32.7637 0.
-214.75 -554.178 0.
-1102.45 -2951.3 0.
-8.11696 -19.8034 0.
-291.97 -659.056 0.
-1001.62 -2313.99 0.
-0.371038 -1.01481 0.
-1366.2 -3548.79 0.
-3.53165 -9.78125 0.
-0.183826 -0.503369 0.
-1159.2 -2840.41 0.
0.0121419 0.234389 0.
-1676.14 -3889.5 0.
-0.00457534 -0.511373 0.
-12.0672 -33.0012 0.
-1057.21 -2825.71 0.
-92.0875 -212.568 0.
1.98277 5.22746 0.
-0.134072 -3.28853 0.
3.98293 10.9891 0.
7.82309 21.5799 0.
-0.0572449 -24.4538 0.
-4.64591 -12.3939 0.
-534.559 -1462.51 0.
-41.4123 -113.533 0.
7.26863 19.7219 0.
5.18909 13.9647 0.
-511.322 -1388.34 0.
-0.420633 -50.3571 0.
-464.305 -1279.88 0.
8.06182 21.7766 0.
-269.669 -739.325 0.
-9.79102 -25.6216 0.
-7.16664 -18.5416 0.
-442.664 -1179.76 0.
28.5223 73.8047 0.
-137.438 -364.335 0.
-9.40546 -24.845 0.
-13.697 -36.0751 0.
41.3545 109.045 0.
12.6355 34.7209 0.
11.2068 31.0373 0.
-0.0833062 -52.1748 0.
-4.57157 -11.003 0.
-210.925 -551.069 0.
16.7872 44.6618 0.
33.4206 91.7436 0.
14.7979 40.4363 0.
-355.393 -982.392 0.
24.908 64.6383 0.
-422.457 -1126.08 0.
-16.1138 -42.3647 0.
-10.1764 -26.1817 0.
-269.357 -701.687 0.
13.3393 33.5206 0.
-376.25 -1005.13 0.
-1.034 -70.96 0.
-5.82941 -15.0982 0.
5.18117 13.4725 0.
-123.915 -335.679 0.
-826.264 -2253.56 0.
8.48958 23.0411 0.
-63.4964 -175.832 0.
-26.3326 -72.6851 0.
-72.7182 -201.166 0.
2.93862 7.91741 0.
-31.1865 -85.2207 0.
-0.112466 -12.0159 0.
-1023.48 -2769.99 0.
-2.09825 -5.78895 0.
2.77827 7.69132 0.
-48.8628 -135.242 0.
-0.0119264 -4.22413 0.
0.767825 2.06193 0.
-0.00525996 -1.8653 0.
1.10968 3.07154 0.
-0.00898843 -0.367479 0.
-0.00287842 -2.91784 0.
-33.549 -88.0423 0.
-14.9823 -36.2481 0.
0.399653 0.202876 0.
0.369219 0.331039 0.
-0.248358 -0.32095 0.
-52.7032 -115.368 0.
-14.8451 -37.3089 0.
-16.3442 -42.995 0.
-195.456 -472.562 0.
-30.105 -45.7934 0.
-21.3933 -32.3118 0.
-261.802 -717.698 0.
-8.30414 -20.3007 0.
-10.8188 -27.4209 0.
-244.046 -599.199 0.
-166.777 -378.273 0.
-31.9273 -64.2625 0.
-77.4858 -131.843 0.
-257.816 -644.045 0.
-17.6233 -19.5354 0.
-18.1576 -16.6099 0.
-212.506 -451.221 0.
-27.9219 -43.0974 0.
-34.6834 -50.0835 0.
-206.086 -496.525 0.
-0.0786887 -0.217777 0.
-8.26304 -22.8397 0.
-20.633 -55.9794 0.
-0.000748789 -0.598514 0.
-2.85029 -7.88479 0.
-1.43313 -3.88835 0.
0.0828433 0.216122 0.
0.207288 0.500193 0.
-0.0217607 -1.3073 0.
1.11763 2.89457 0.
0.00187603 0.109227 0.
1.52007 4.20976 0.
-27.0873 -72.6347 0.
3.49249 8.85764 0.
-1278.85 -2815.17 0.
-0.0185414 -9.74273 0.
-980.012 -2622.57 0.
-0.094689 -27.6273 0.
4.1444 11.4597 0.
-0.0240233 -31.0992 0.
-285.491 -788.531 0.
-115.292 -314.123 0.
3.85714 10.4462 0.
1.74799 4.68209 0.
-312.335 -845 0.
13.353 36.0561 0.
-550.076 -1511.22 0.
-8.96162 -24.1271 0.
21.2385 57.9963 0.
-499.104 -1298.23 0.
-1.61383 -4.15324 0.
-424.582 -1131.42 0.
15.4412 39.9263 0.
-3.21842 -93.7677 0.
-468.782 -1243.46 0.
38.5205 101.964 0.
38.7319 102.628 0.
-149.078 -410.426 0.
10.7154 29.6207 0.
-0.0139105 -54.2343 0.
-227.291 -592.325 0.
-370.214 -972.749 0.
18.4918 50.1181 0.
-896.375 -2477.11 0.
-452.91 -1237.59 0.
-118.395 -317.966 0.
-169.46 -439.896 0.
-321.015 -856.472 0.
2.83565 7.42731 0.
-568.169 -1457.96 0.
3.33007 8.20741 0.
9.84115 24.5806 0.
-372.197 -991.37 0.
-1.78516 -59.3876 0.
-134.673 -347.309 0.
10.6149 27.4785 0.
-104.654 -272.832 0.
19.6872 50.9685 0.
0.406259 1.09875 0.
-498.957 -1347.59 0.
-28.5783 -78.6383 0.
-7.72555 -21.311 0.
13.3798 35.7837 0.
-7.37621 -20.3403 0.
-270.595 -740.016 0.
-0.0910496 -17.688 0.
-0.035991 -18.6065 0.
8.30866 23.0094 0.
-26.9351 -73.9375 0.
-0.0571208 -2.57123 0.
-0.199569 -0.543254 0.
-0.00107988 -1.57881 0.
-44.2824 -121.77 0.
-1374.25 -3631.78 0.
-0.000127782 -0.154899 0.
-917.614 -2077.2 0.
-12.0596 -29.4531 0.
-31.913 -79.5917 0.
-1174.18 -3088.08 0.
-0.271158 -0.489989 0.
-912.089 -2032.44 0.
-241.916 -466.427 0.
-12.6415 -28.0358 0.
-1030.47 -2794.1 0.
-112.698 -276.574 0.
-21.4035 -43.8108 0.
-807.357 -2158.39 0.
-273.855 -751.567 0.
-12.0855 -32.2594 0.
-592.831 -1538.4 0.
-472.435 -1215.84 0.
-44.2172 -54.6831 0.
-374.308 -938.007 0.
-700.874 -1849.89 0.
-16.621 -24.5563 0.
-234.234 -554.535 0.
-929.814 -2424.96 0.
-20.2863 -25.7313 0.
-18.6662 -21.8323 0.
-967.271 -2505.66 0.
-62.1055 -144.601 0.
-1187.02 -2677.83 0.
-0.00577305 -0.0434405 0.
-0.0461892 -0.963981 0.
-1246.44 -3375.22 0.
-0.0155503 -0.62742 0.
0.329116 0.813139 0.
-1106.43 -2640.6 0.
-0.100379 -2.70292 0.
-0.0244149 -2.43821 0.
-0.160007 -6.82354 0.
-0.00266514 -2.18445 0.
-0.0199439 -4.72572 0.
-0.0458147 -2.68354 0.
0.860524 2.07745 0.
0.200675 0.555695 0.
-54.5931 -149.692 0.
11.6294 32.157 0.
-803.1 -2211.75 0.
-0.108159 -23.4468 0.
-67.5835 -187.194 0.
3.08197 8.40503 0.
-333.366 -909.061 0.
-0.696952 -42.4595 0.
-188.11 -506.882 0.
13.3787 35.9613 0.
-198.655 -543.582 0.
20.334 54.5538 0.
-5.67788 -15.1109 0.
-612.222 -1583.56 0.
26.3233 67.5485 0.
6.51717 16.7912 0.
-936.14 -2427.3 0.
-15.6773 -40.1232 0.
-188.03 -501.159 0.
-155.501 -414.156 0.
19.7457 50.5601 0.
-58.4575 -161.221 0.
-192.339 -524.503 0.
21.9721 60.8464 0.
-408.173 -1057.75 0.
-749.955 -1985.43 0.
-0.288107 -87.8579 0.
-9.92068 -27.284 0.
-1.54491 -71.1419 0.
-2.7392 -7.38357 0.
-400.901 -1041.24 0.
31.6777 81.7059 0.
26.1875 68.3179 0.
-474.385 -1215.96 0.
15.4351 38.0146 0.
-10.918 -27.0978 0.
-8.48089 -21.7022 0.
-7.37478 -18.9531 0.
-448.443 -1151.96 0.
-11.7692 -29.5715 0.
-152.499 -396.893 0.
15.8833 41.0473 0.
-260.543 -702.301 0.
16.9524 45.849 0.
-38.3158 -105.019 0.
1.75532 4.74398 0.
-478.796 -1317.9 0.
15.0045 41.3463 0.
-124.038 -343.004 0.
0.379877 1.02145 0.
4.53278 12.4894 0.
6.18288 17.125 0.
-912.319 -2440.97 0.
-0.00341179 -2.0486 0.
-996.348 -2500.19 0.
-0.444721 -1.2041 0.
0.252698 0.695481 0.
-16.8982 -46.3298 0.
-0.00780055 -0.461565 0.
0.33794 0.422005 0.
-0.544193 -1.10564 0.
-14.9048 -39.4745 0.
-0.700321 -1.50798 0.
0.254891 0.555253 0.
-8.91624 -19.4489 0.
-6.61742 -15.1164 0.
-7.42919 -17.7203 0.
-181.935 -477.438 0.
-8.85367 -24.522 0.
-9.21147 -22.9587 0.
-63.2354 -175.118 0.
-6.71227 -17.4061 0.
-11.0874 -30.3818 0.
-99.7844 -146.432 0.
-25.4133 -41.0312 0.
-19.225 -23.7575 0.
-18.0983 -21.2532 0.
-90.3741 -169.833 0.
-15.2816 -30.5006 0.
-10.9668 -18.6441 0.
-61.6844 -117.63 0.
-14.098 -21.2504 0.
-15.4587 -24.7492 0.
-17.4168 -32.8251 0.
0.105311 0.291484 0.
-231.593 -567.582 0.
0.536418 1.1449 0.
0.00120118 0.0217387 0.
-2.47818 -6.54223 0.
0.134388 0.361906 0.
0.097662 0.251968 0.
0.0818002 0.201046 0.
-0.00164862 -1.03397 0.
-1256.34 -3278.83 0.
-0.069869 -8.45868 0.
-8.41809 -21.9604 0.
-1025.39 -2495.82 0.
1.96735 5.19324 0.
1.49238 3.78302 0.
4.72649 12.9997 0.
-1.17112 -3.23966 0.
2.97501 8.23768 0.
-306.545 -846.56 0.
-0.178383 -35.8885 0.
-78.7138 -217.45 0.
3.02697 8.26091 0.
-251.391 -686.091 0.
18.9609 49.9971 0.
-209.123 -561.095 0.
11.6177 31.0854 0.
13.8546 37.0991 0.
-229.719 -613.841 0.
-203.364 -539.074 0.
-16.4427 -40.742 0.
-714.784 -1825.43 0.
29.4061 75.5393 0.
-280.666 -725.851 0.
35.2533 90.1771 0.
11.6528 29.7723 0.
-535.692 -1436.42 0.
6.0121 15.5176 0.
-3.07397 -8.32954 0.
-0.973805 -53.0748 0.
24.9129 68.7895 0.
-0.00073733 -55.2919 0.
10.4955 28.4621 0.
-0.560823 -77.4624 0.
-115.475 -318.306 0.
-214.165 -566.724 0.
-114.059 -291.17 0.
-3.95869 -80.6225 0.
-3.33513 -8.56542 0.
-407.913 -1058.97 0.
-16.4747 -39.7958 0.
-355.479 -874.361 0.
-216.165 -533.159 0.
-2.42478 -65.0596 0.
-270.443 -690.853 0.
-2.61779 -59.7143 0.
17.7646 44.5196 0.
-700.059 -1820.18 0.
-2.74794 -7.04565 0.
-265.775 -715.713 0.
-4.05106 -10.9451 0.
-35.5876 -97.0896 0.
-105.889 -287.225 0.
-298.307 -819.894 0.
-9.01019 -24.8093 0.
-19.7212 -54.6057 0.
-0.231182 -11.9001 0.
-677.282 -1799.56 0.
-0.214841 -23.027 0.
1.31461 3.62567 0.
4.31784 11.8216 0.
-0.146268 -3.9522 0.
2.21065 6.03963 0.
0.000403913 0.162586 0.
0.783814 2.03433 0.
0.0568854 0.868022 0.
0.715992 0.985671 0.
-0.0721777 -0.361035 0.
-3.8564 -9.22491 0.
0.406766 0.985094 0.
-0.0166925 -0.372894 0.
0.389093 1.01817 0.
-5.001 -12.1316 0.
-15.6884 -36.599 0.
-4.46894 -12.0204 0.
0.0283178 0.0776273 0.
-0.295613 -0.782359 0.
-8.42126 -22.1088 0.
-10.6665 -29.5003 0.
-13.2825 -36.689 0.
-35.5204 -51.3605 0.
-33.041 -46.9975 0.
-23.8223 -33.6161 0.
-20.726 -25.553 0.
-20.9252 -26.591 0.
-15.971 -38.0295 0.
-10.5616 -27.0129 0.
-8.63641 -22.0406 0.
-17.8379 -24.0639 0.
-21.1124 -25.1867 0.
-18.7227 -33.843 0.
-3.79459 -9.09186 0.
-16.196 -30.2505 0.
0.040308 0.325329 0.
-0.0380787 -0.605775 0.
0.586048 1.53016 0.
-0.00472005 -0.85171 0.
0.22104 0.586276 0.
0.108244 0.276034 0.
2.67356 7.36592 0.
-0.0235902 -3.43339 0.
0.715112 1.96404 0.
3.65032 9.73589 0.
-0.00248246 -4.54342 0.
0.206073 0.559886 0.
-895.942 -2360.43 0.
2.79349 7.71266 0.
7.13002 19.7414 0.
7.33234 20.3089 0.
-7.15425 -19.7926 0.
-0.215655 -38.8289 0.
-577.961 -1589.48 0.
12.3238 33.6564 0.
-204.084 -557.409 0.
-1.03653 -49.4282 0.
-95.6177 -252.956 0.
4.31652 11.4925 0.
-256.7 -684.07 0.
-10.7243 -27.6808 0.
-486.016 -1283 0.
4.81826 11.9352 0.
-92.5762 -235.988 0.
6.08012 15.5681 0.
-9.2639 -22.93 0.
-262.59 -672.023 0.
30.287 77.1027 0.
-10.3855 -26.5025 0.
21.3311 55.5402 0.
-0.541286 -66.6231 0.
6.41254 17.0723 0.
-4.38464 -12.1433 0.
9.80528 27.0315 0.
-125.231 -338.058 0.
-14.2856 -39.0467 0.
28.6472 74.2641 0.
-693.565 -1845.09 0.
-9.51023 -22.8255 0.
-12.2399 -30.5857 0.
-51.7186 -132.222 0.
33.4866 81.6112 0.
30.2648 73.1063 0.
-419.625 -1031.74 0.
24.3835 57.1352 0.
-59.3984 -150.205 0.
-145.874 -370.298 0.
-10.0161 -25.0696 0.
-112.828 -282.115 0.
-113.124 -293.228 0.
-3.52026 -9.00302 0.
-288.947 -777.321 0.
-4.58658 -12.3804 0.
-415.545 -1128.31 0.
-69.731 -189.428 0.
-93.0092 -255.334 0.
-20.374 -56.0513 0.
-676.812 -1863.91 0.
-2.14145 -5.87988 0.
-1.47501 -3.99928 0.
-0.0506804 -25.6522 0.
-0.00209017 -16.3136 0.
-0.022886 -2.78217 0.
3.41373 8.87957 0.
2.71333 7.44609 0.
-0.210032 -7.39267 0.
-823.434 -2189.82 0.
-0.0112868 -1.68156 0.
-931.439 -2024.82 0.
-0.297099 -0.672126 0.
-10.8256 -27.8505 0.
-1075.18 -2888.2 0.
0.318205 0.842056 0.
0.326722 0.82127 0.
-1268.02 -2794.89 0.
-3.81476 -9.16761 0.
-853.496 -2265.54 0.
-11.3463 -29.6267 0.
-8.05742 -20.7565 0.
-870.707 -2333.12 0.
-114.011 -314.57 0.
-10.0763 -24.6532 0.
-620.582 -1564.26 0.
-453.845 -1141.8 0.
-34.1182 -59.5642 0.
-258.157 -624.434 0.
-788.531 -2086.87 0.
-16.8998 -42.5951 0.
-59.495 -107.755 0.
-952.907 -2513.87 0.
-10.9731 -25.65 0.
-6.8645 -10.9264 0.
-1115.67 -2550.31 0.
-17.3896 -30.6892 0.
-1123.47 -2716.51 0.
-0.106464 -1.67987 0.
-0.0173144 -1.01031 0.
-1195.02 -3182.2 0.
0.0848492 0.217036 0.
1.01477 2.32279 0.
-1156.59 -2185.85 0.
1.12538 3.09203 0.
-644.982 -1786.43 0.
-0.00886961 -7.31263 0.
1.40409 3.79964 0.
-0.000185154 -0.266053 0.
-0.0427226 -21.5757 0.
-50.0471 -135.337 0.
-0.946025 -2.61154 0.
-865.762 -2396.63 0.
5.16046 14.2909 0.
-2.39919 -6.64394 0.
12.2913 33.5473 0.
-182.377 -500.857 0.
-4.10462 -11.0915 0.
-119.469 -326.549 0.
8.93711 23.5784 0.
-82.9728 -219.526 0.
-8.83479 -23.3959 0.
-230.907 -612.272 0.
-10.4372 -26.8519 0.
-151.239 -397.485 0.
-143.278 -354.977 0.
-11.4226 -28.1747 0.
14.0257 35.791 0.
18.4014 45.7919 0.
-7.84024 -18.4778 0.
-182.796 -463.51 0.
-1.76174 -4.35538 0.
-3.80069 -70.9924 0.
-344.971 -940.141 0.
-2.29427 -6.13047 0.
-14.8292 -41.0741 0.
-3.52814 -9.73488 0.
13.2502 35.7815 0.
-358.317 -982.818 0.
-323.481 -844.092 0.
-11.9949 -30.4207 0.
-4.94645 -80.7281 0.
-790.345 -1988.64 0.
18.9099 44.8267 0.
-48.6519 -118.41 0.
-218.557 -527.813 0.
9.32497 21.8914 0.
5.82978 13.6953 0.
-302.889 -760.932 0.
-1.24003 -3.06278 0.
-197.185 -492.515 0.
-395.779 -987.618 0.
14.2595 36.5146 0.
13.0101 33.1861 0.
-62.2876 -167.504 0.
-6.59529 -17.6178 0.
-232.805 -633.233 0.
-48.7941 -132.738 0.
-138.805 -380.611 0.
11.8187 32.0727 0.
-118.158 -325.106 0.
12.1792 33.4325 0.
4.34292 11.943 0.
0.911021 2.52337 0.
5.4236 15.0177 0.
-625.639 -1720.12 0.
2.08473 5.77335 0.
-904.037 -2288.33 0.
4.81444 13.1143 0.
1.02862 2.84406 0.
-0.00907661 -0.512656 0.
0.172365 0.341085 0.
0.185994 0.424772 0.
-0.248506 -0.634766 0.
-10.3175 -28.5509 0.
-0.814254 -2.24747 0.
0.119128 0.324897 0.
-0.0357209 -0.389202 0.
-0.0203507 -0.36058 0.
-53.1599 -134.217 0.
-15.8551 -43.3973 0.
-11.3296 -30.9813 0.
-16.3311 -39.135 0.
-10.5183 -25.4316 0.
-10.5167 -26.4543 0.
-33.8345 -62.3431 0.
-30.8631 -53.0451 0.
-33.688 -63.6868 0.
-27.5707 -47.6785 0.
-24.2065 -39.6018 0.
-16.4526 -43.8059 0.
-13.4221 -34.488 0.
-10.8014 -25.3361 0.
-14.7328 -30.1636 0.
-8.26673 -15.2983 0.
-1.414 -0.718338 0.
-3.80866 -5.51945 0.
-52.9918 -108.969 0.
0.853693 2.06438 0.
0.00428161 0.197697 0.
0.439158 1.20789 0.
-0.00845409 -0.414164 0.
-0.197153 -3.32974 0.
5.18983 12.5776 0.
0.97966 2.58673 0.
-2.14341 -5.85826 0.
3.30202 9.13206 0.
-809.734 -2131.79 0.
-0.0437846 -23.8286 0.
3.09214 8.5637 0.
0.680103 1.84786 0.
1.88788 5.21101 0.
-0.00580727 -27.5849 0.
6.29087 17.4179 0.
-640.807 -1774.74 0.
-3.31655 -9.03829 0.
-120.62 -330.814 0.
17.577 47.2645 0.
13.4395 36.1503 0.
-42.0455 -110.95 0.
-177.959 -470.919 0.
-3.77012 -9.77262 0.
-298.189 -786.356 0.
-30.8093 -79.0003 0.
-8.05372 -19.3852 0.
-764.499 -1894.6 0.
-3.28803 -62.1888 0.
-5.07575 -73.4724 0.
-664.743 -1663.71 0.
-4.96071 -69.3478 0.
-6.31761 -67.9661 0.
-19.3616 -47.66 0.
31.5916 78.6813 0.
29.8547 70.5035 0.
19.2042 51.5161 0.
-242.595 -671.924 0.
-203.228 -561.123 0.
-6.59424 -17.2898 0.
14.9491 40.0596 0.
-3.12814 -61.2244 0.
-0.356886 -0.910076 0.
-7.9316 -19.3681 0.
-3.04337 -7.76354 0.
23.6844 56.0612 0.
-255.446 -620.895 0.
10.1796 23.1904 0.
17.0741 39.2263 0.
-50.2078 -118.286 0.
-7.27812 -17.4233 0.
-130.976 -323.528 0.
-354.852 -884.264 0.
7.72517 18.7572 0.
-289.308 -738.722 0.
-206.598 -525.327 0.
-16.4673 -44.0593 0.
18.7059 49.5842 0.
-298.938 -814.185 0.
-20.5129 -55.8774 0.
-204.979 -559.502 0.
15.3658 41.6085 0.
-1.6269 -4.47505 0.
-6.43868 -17.6692 0.
10.952 30.3075 0.
-444.804 -1230.32 0.
-0.435541 -1.20566 0.
-17.0445 -47.1519 0.
9.7339 26.918 0.
-0.333353 -17.1169 0.
-0.000106172 -0.135292 0.
-0.00396861 -6.25723 0.
3.9939 10.4132 0.
-0.00969039 -0.0623518 0.
0.846362 1.94562 0.
-113.861 -249.765 0.
-457.169 -1231.7 0.
-2.13964 -5.92631 0.
-3.70664 -10.0199 0.
-865.786 -2367.31 0.
-0.0123827 -0.668047 0.
-883.757 -1988.7 0.
-23.5997 -65.2974 0.
-16.0237 -44.1945 0.
-822.939 -2167.02 0.
-18.5049 -50.2553 0.
-8.22336 -21.5426 0.
-526.526 -1425.26 0.
-368.59 -999.645 0.
-18.395 -30.3166 0.
-159.731 -334.548 0.
-754.714 -2010.89 0.
-13.0583 -32.385 0.
-7.16164 -12.5186 0.
-940.791 -2358.16 0.
-7.80521 -9.93344 0.
-9.4258 -13.463 0.
-961.697 -1990.46 0.
0.0731968 0.125939 0.
-887.741 -2412.18 0.
-0.012671 -0.253645 0.
-0.01548 -1.93822 0.
-677.34 -1824.23 0.
-0.00172137 -0.134917 0.
-0.0867259 -2.12521 0.
-0.252741 -2.49151 0.
3.17634 7.95646 0.
1.19545 3.17337 0.
1.90113 5.2628 0.
-0.892593 -2.39103 0.
-0.0016527 -0.00457751 0.
-665.512 -1820.76 0.
-1.30265 -3.60801 0.
3.32879 9.18766 0.
-1.16976 -3.21532 0.
9.20269 25.4217 0.
-59.4372 -161.371 0.
-15.2061 -41.4383 0.
-149.768 -410.177 0.
-3.66266 -9.79645 0.
-317.34 -849.445 0.
-3.24035 -8.28956 0.
-304.109 -804.736 0.
12.3297 31.8267 0.
0.109083 0.278707 0.
-253.209 -646.859 0.
12.8435 30.8652 0.
-4.02657 -54.2091 0.
-778.302 -1916.04 0.
-13.5986 -32.3422 0.
-11.3229 -26.0627 0.
-8.299 -19.8353 0.
-17.6046 -39.9992 0.
22.9507 50.9229 0.
-630.173 -1591.67 0.
33.1545 79.4579 0.
-2.80954 -7.13133 0.
-3.42899 -63.6886 0.
16.9643 45.5056 0.
-1.06483 -54.5881 0.
-100.675 -271.775 0.
-16.0301 -39.8415 0.
-405.38 -1038.23 0.
-6.53471 -70.9046 0.
12.5072 29.5088 0.
-452.143 -1068.03 0.
-186.731 -453.292 0.
12.9151 29.3454 0.
-290.2 -668.964 0.
0.424553 0.936985 0.
9.98939 23.9005 0.
-359.777 -889.226 0.
-4.01656 -56.8155 0.
4.12282 9.98147 0.
-310.614 -790.746 0.
11.6824 29.4579 0.
-21.4665 -57.0192 0.
8.74539 22.9867 0.
12.1265 33.0795 0.
-1.37588 -3.7275 0.
-218.079 -594.136 0.
-7.45368 -20.1374 0.
10.4981 28.8695 0.
-3.33464 -9.19816 0.
5.83684 16.0435 0.
-265.819 -736.001 0.
5.48833 15.2014 0.
-4.80587 -13.3102 0.
-0.0815029 -26.3216 0.
4.93358 13.3857 0.
4.3521 11.8503 0.
-824.192 -2122.35 0.
3.33891 9.0502 0.
3.29071 9.11394 0.
-1046.76 -2579.86 0.
-0.00761578 -0.792865 0.
0.352158 0.944532 0.
0.121963 0.337579 0.
-0.082208 -0.224602 0.
-0.527636 -1.44845 0.
0.0148409 0.0407305 0.
-23.2347 -64.3111 0.
-10.5094 -28.6897 0.
-6.11638 -16.2403 0.
-13.9022 -37.5586 0.
-7.00151 -19.0448 0.
-5.58715 -15.2185 0.
-22.3424 -53.0596 0.
-12.2924 -21.766 0.
-14.9038 -22.904 0.
-16.9624 -27.176 0.
-19.0707 -31.7138 0.
-13.8601 -32.9613 0.
-7.35859 -17.1837 0.
-3.57769 -5.30939 0.
-2.14497 -4.32687 0.
-3.18144 -8.75325 0.
-5.26329 -13.8477 0.
0.213393 0.356346 0.
-0.195355 -0.37627 0.
0.0347712 0.618115 0.
0.845133 2.25655 0.
-0.00160052 -2.13926 0.
0.415596 1.11544 0.
-1078.46 -2660.78 0.
3.89742 10.4373 0.
0.316447 0.876036 0.
-595.51 -1597.19 0.
-0.000694623 -8.68137 0.
0.768564 2.07687 0.
-0.0123788 -15.7624 0.
-216.727 -598.134 0.
-7.22407 -20.0014 0.
-224.281 -621.178 0.
-7.62498 -20.9512 0.
-4.60857 -12.6781 0.
2.39704 6.4913 0.
-41.0171 -111.522 0.
-0.972988 -2.59104 0.
-8.4502 -22.4691 0.
-119.134 -304.615 0.
4.07249 10.3967 0.
-61.6483 -153.644 0.
-260.208 -668.659 0.
-61.1478 -152.806 0.
-7.94326 -19.7628 0.
-622.001 -1488.15 0.
17.4747 41.1527 0.
11.0195 25.4456 0.
-163.738 -388.679 0.
26.7247 61.39 0.
-24.2651 -58.4972 0.
-920.186 -2092.4 0.
30.2163 66.8866 0.
10.5947 25.0331 0.
12.3057 29.9567 0.
-3.27724 -8.36575 0.
11.5032 28.427 0.
12.6887 34.1847 0.
-117.582 -313.962 0.
-512.216 -1393.12 0.
-84.7183 -211.869 0.
-2.89953 -7.01201 0.
21.0226 48.2007 0.
-47.3018 -112.248 0.
-210.157 -495.859 0.
-2.35109 -5.18688 0.
-548.604 -1239.99 0.
-7.22987 -16.7337 0.
15.2814 33.4899 0.
-77.4496 -185.341 0.
-14.3441 -33.8674 0.
14.8045 35.0626 0.
-466.141 -1126.14 0.
-14.3977 -36.5625 0.
-11.0415 -27.7627 0.
-301.859 -795.362 0.
-1.45069 -3.77834 0.
-88.7977 -239.864 0.
-31.1795 -84.1157 0.
10.891 29.3447 0.
3.52975 9.51489 0.
1.06029 2.86785 0.
-12.549 -34.5878 0.
-2.24169 -6.15541 0.
-80.9163 -224.124 0.
9.18192 25.427 0.
-485.294 -1341.36 0.
-1.23641 -3.40883 0.
-547.172 -1495.69 0.
-0.0304917 -25.0166 0.
4.75887 12.5541 0.
2.43506 6.66345 0.
1.53141 4.24051 0.
2.50638 6.71594 0.
2.06566 5.71049 0.
0.0848492 0.22803 0.
0.488607 1.35095 0.
0.19738 0.542976 0.
-0.326966 -0.905636 0.
-0.000120238 -0.903896 0.
-16.2564 -44.5015 0.
-5.87123 -15.7685 0.
-0.21734 -0.562575 0.
-9.55375 -26.3098 0.
-5.68248 -15.7321 0.
-3.3335 -9.21288 0.
-17.6687 -44.9727 0.
-11.1915 -26.7677 0.
-15.0921 -25.8589 0.
-17.0107 -29.4459 0.
-19.1659 -33.9166 0.
-18.4467 -39.7255 0.
-14.4367 -30.8358 0.
-10.8609 -21.9695 0.
0.137561 0.126773 0.
-0.407101 -0.87767 0.
-1.98024 -5.45509 0.
0.188852 0.308507 0.
0.0673618 0.125119 0.
-0.316933 -5.16561 0.
-0.00197993 -0.0887609 0.
-0.00856289 -2.19036 0.
-0.00683089 -2.76423 0.
3.50413 9.15246 0.
-0.0348711 -1.98074 0.
-0.00397592 -16.9437 0.
6.88938 18.8448 0.
7.48668 20.2037 0.
-545.685 -1451.23 0.
8.2271 22.7495 0.
3.84144 10.6371 0.
9.10499 25.1883 0.
-227.818 -630.717 0.
7.30814 20.0794 0.
-218.418 -601.553 0.
2.93245 7.91989 0.
-139.231 -377.659 0.
-2.09585 -5.57856 0.
-12.8805 -34.275 0.
-94.1083 -240.095 0.
-182.115 -463.745 0.
-48.356 -120.801 0.
-31.2028 -77.5666 0.
-359.719 -898.439 0.
-12.1742 -30.2637 0.
-8.23434 -19.2782 0.
-466.475 -1094.86 0.
-19.3915 -44.8524 0.
-18.9662 -44.9331 0.
-109.17 -250.132 0.
27.5042 61.3132 0.
-184.331 -417.175 0.
-5.93812 -13.1144 0.
22.5366 53.4427 0.
22.1721 50.9213 0.
-65.9111 -169.303 0.
-16.2913 -40.5119 0.
-160.021 -433.085 0.
-38.3932 -103.426 0.
11.8889 26.9325 0.
11.8309 27.7826 0.
-14.0719 -31.3502 0.
-428.769 -989.31 0.
-56.1462 -128.821 0.
22.8588 49.7022 0.
26.1621 57.5698 0.
-290.17 -654.846 0.
-3.37004 -7.18027 0.
-801.776 -1744.9 0.
9.29564 21.4387 0.
12.5617 29.6515 0.
-12.6851 -29.9557 0.
-136.727 -329.148 0.
-3.9386 -9.82836 0.
-218.603 -548.017 0.
-240.078 -627.172 0.
-1.67048 -46.1699 0.
-140.96 -361.214 0.
-184.417 -495.214 0.
-89.3562 -239.598 0.
-9.53922 -25.6613 0.
2.35612 6.35966 0.
-140.009 -385.585 0.
0.586407 1.60852 0.
-9.37707 -25.9653 0.
12.3076 34.0505 0.
-183.129 -506.006 0.
2.4128 6.6471 0.
-11.8444 -32.691 0.
6.82159 18.8913 0.
-0.00891148 -2.03051 0.
-0.0365619 -13.251 0.
2.39252 6.6185 0.
-327.074 -887.345 0.
-0.000396321 -1.84352 0.
-822.247 -1645.3 0.
-58.357 -149.318 0.
-0.588363 -1.62936 0.
-721.554 -1992.31 0.
-0.00547351 -0.946414 0.
-724.768 -1460.38 0.
-2.0846 -5.40606 0.
-8.02804 -20.2151 0.
-721.546 -1860.24 0.
-13.35 -36.7698 0.
-0.22598 -0.610373 0.
-409.471 -1119.46 0.
-333.213 -922.516 0.
-49.7131 -80.8735 0.
-59.4212 -130.932 0.
-656.768 -1703.41 0.
-10.823 -12.6489 0.
-16.6417 -24.3043 0.
-847.861 -2079.07 0.
-0.871589 -2.15583 0.
-3.17026 -8.73312 0.
-770.541 -1535.82 0.
-0.0423526 -1.3012 0.
-791.2 -2102.56 0.
-0.000230198 -0.674576 0.
-0.0241031 -4.76525 0.
-719.549 -1888.25 0.
-0.24223 -10.9031 0.
2.51331 6.77002 0.
5.19745 13.7444 0.
2.49655 6.89239 0.
-0.0142948 -12.9969 0.
9.26424 25.3615 0.
-0.0797245 -33.6731 0.
-0.0416263 -29.0647 0.
-429.141 -1186.49 0.
-5.99868 -16.5747 0.
-190.931 -528.191 0.
-8.57628 -23.5627 0.
-115.039 -316.816 0.
0.723264 1.95765 0.
-129.194 -349.548 0.
-76.8499 -204.466 0.
-155.103 -412.579 0.
17.2623 44.2818 0.
-48.975 -124.466 0.
-194.1 -486.157 0.
-38.7377 -96.5455 0.
1.99084 4.96603 0.
-300.239 -745.572 0.
15.7658 36.7472 0.
-14.9207 -35.0343 0.
-246.558 -572.073 0.
-5.46054 -51.8821 0.
-176.574 -403.714 0.
-487.581 -1082.39 0.
0.179722 0.38002 0.
-14.0107 -30.8685 0.
-203.386 -484.631 0.
12.3595 28.4946 0.
4.78339 11.7888 0.
21.3031 50.283 0.
14.7953 39.249 0.
-0.313106 -0.817169 0.
-3.77997 -8.60518 0.
-37.0609 -87.504 0.
-17.4062 -39.0432 0.
-6.4717 -49.187 0.
-2.32382 -4.85364 0.
-298.701 -649.507 0.
-178.981 -392.263 0.
-6.37294 -13.1666 0.
19.4745 41.172 0.
-93.4971 -201.748 0.
15.5553 35.8775 0.
-538.269 -1270.97 0.
-6.15332 -14.4868 0.
21.288 50.378 0.
-37.361 -92.9535 0.
-198.594 -496.436 0.
20.2002 49.2578 0.
3.29032 8.38281 0.
-102.483 -262.346 0.
-121.335 -324.179 0.
-44.5228 -117.939 0.
12.6085 33.8439 0.
-57.8443 -155.763 0.
-263.272 -724.441 0.
-6.07713 -16.6012 0.
-145.012 -401.368 0.
9.97627 27.5855 0.
-5.16987 -14.2787 0.
4.92888 13.568 0.
8.48302 23.4957 0.
-188.348 -521.629 0.
5.97834 16.5325 0.
-655.875 -1786.09 0.
0.270862 0.749782 0.
-0.00706787 -13.689 0.
-0.041442 -4.9354 0.
0.412518 1.04181 0.
1.24697 3.38227 0.
1.38185 3.81556 0.
-0.0098249 -1.15155 0.
-0.0141441 -0.674212 0.
-6.23186 -15.8689 0.
-4.56965 -11.6606 0.
-12.5051 -31.998 0.
-34.9941 -91.1783 0.
-11.6258 -30.549 0.
-0.333301 -0.887581 0.
-11.7701 -30.5706 0.
-7.77764 -18.5572 0.
-29.8114 -44.3182 0.
-19.9373 -23.6139 0.
-15.2495 -13.5647 0.
-18.564 -27.8817 0.
-23.8547 -33.0863 0.
-30.7618 -48.8964 0.
0.0454546 0.111406 0.
0.139813 0.377657 0.
-7.98477 -22.0665 0.
-0.0492123 -1.14133 0.
0.124813 0.344063 0.
1.75438 4.83916 0.
2.03911 5.62674 0.
-0.0389239 -3.19164 0.
-0.05251 -15.7711 0.
-416.099 -1090.25 0.
8.36741 23.1746 0.
-393.024 -1084.01 0.
-0.0484873 -20.85 0.
10.7272 29.6064 0.
10.74 29.4879 0.
-1.0975 -3.02237 0.
-106.778 -294.723 0.
-7.26165 -19.9025 0.
-76.2286 -209.18 0.
5.93193 16.2966 0.
-298.106 -820.933 0.
1.21262 3.27451 0.
10.9616 29.5324 0.
-86.4916 -229.986 0.
-472.353 -1255.44 0.
-37.4251 -95.9407 0.
-8.18958 -20.7887 0.
-250.213 -628.297 0.
-131.172 -327.795 0.
4.67754 11.4348 0.
-6.99616 -17.3629 0.
-28.6302 -66.3797 0.
6.28115 14.1632 0.
-36.0953 -83.0883 0.
-569.741 -1273.85 0.
21.1639 45.3407 0.
-7.52105 -16.6846 0.
-5.682 -12.2659 0.
6.93513 14.076 0.
-9.97208 -52.7951 0.
-93.8679 -217.411 0.
-12.4942 -27.9903 0.
15.1781 36.4949 0.
-2.28651 -5.25248 0.
-50.5859 -133.369 0.
9.62535 22.0337 0.
-261.908 -621.886 0.
-10.8665 -22.6577 0.
5.86311 12.3953 0.
25.6842 53.6157 0.
-110.968 -241.481 0.
-7.43067 -43.1557 0.
-394.014 -810.944 0.
-77.3993 -162.198 0.
18.6805 38.8804 0.
-24.5709 -56.6763 0.
-264.625 -624.696 0.
16.4613 37.7019 0.
-247.478 -591.939 0.
-225.165 -558.44 0.
-5.08931 -12.2269 0.
-39.323 -95.8056 0.
-28.4243 -72.339 0.
5.78179 14.5894 0.
-42.4486 -112.449 0.
-57.4078 -152.198 0.
-187.079 -500.588 0.
-95.2019 -255.732 0.
11.555 31.5299 0.
-3.93816 -10.7316 0.
-186.461 -515.864 0.
5.12707 14.1677 0.
4.7173 13.021 0.
-156.988 -432.878 0.
-88.3202 -242.983 0.
-97.1584 -268.609 0.
3.6599 10.0801 0.
4.95764 13.6039 0.
9.34563 25.8847 0.
4.22102 11.6593 0.
4.02488 10.6325 0.
1.41977 3.72194 0.
-0.00245536 -0.756 0.
0.00559352 1.93825 0.
-277.807 -721.938 0.
-0.720885 -1.97387 0.
-511.165 -1263.79 0.
-16.4571 -44.361 0.
-0.0786505 -0.635814 0.
-536.342 -1435.3 0.
-0.00943845 -0.0193 0.
-11.724 -24.3654 0.
-272.007 -725.361 0.
-334.23 -924.075 0.
-26.702 -33.5791 0.
-44.9638 -73.4162 0.
-528.672 -1336.7 0.
-59.6326 -38.4255 0.
-8.55565 -6.40076 0.
-450.766 -965.287 0.
-0.000278783 -0.365462 0.
-652.811 -1637.84 0.
0.037691 0.660884 0.
-116.134 -320.23 0.
0.791758 2.15209 0.
-0.0118293 -3.37791 0.
2.7824 7.70247 0.
-0.494044 -25.8904 0.
5.93106 16.4266 0.
5.2095 14.1432 0.
-0.00538253 -23.6704 0.
-2.62907 -7.26563 0.
2.85564 7.89789 0.
-274.687 -758.326 0.
-2.07978 -5.71514 0.
-0.125723 -34.9331 0.
1.30037 3.55408 0.
-2.22913 -6.10063 0.
-384.267 -1047.02 0.
2.71641 7.33936 0.
-1.69461 -4.6662 0.
-7.77215 -20.935 0.
-200.253 -537.95 0.
16.5406 43.5528 0.
5.43168 14.4326 0.
-186.145 -476.87 0.
1.34184 3.40473 0.
-11.9371 -29.7112 0.
-32.302 -80.937 0.
-143.6 -350.529 0.
2.51435 6.0154 0.
-198.4 -456.686 0.
-399.359 -891.33 0.
-8.18888 -17.8681 0.
-180.877 -404.984 0.
8.52053 18.2929 0.
-0.161916 -0.328825 0.
-15.0469 -32.3886 0.
-166.441 -339.117 0.
12.4335 24.2278 0.
-7.336 -53.9334 0.
-37.5405 -84.4458 0.
-161.563 -396.183 0.
9.49017 22.2461 0.
-0.698347 -26.1941 0.
5.06679 10.9069 0.
13.4356 30.4719 0.
25.2437 52.3081 0.
-266.478 -560.137 0.
28.3657 55.4371 0.
-8.13625 -45.3534 0.
-9.19419 -52.4779 0.
-106.081 -217.485 0.
8.76257 17.6482 0.
-369.434 -772.703 0.
-109.057 -251.502 0.
18.7268 42.3094 0.
21.2451 49.2313 0.
-195.75 -473.365 0.
17.8125 42.4914 0.
-12.9551 -31.0976 0.
-375.479 -913.461 0.
-7.92062 -19.7442 0.
-5.21538 -13.1285 0.
-124.637 -330.449 0.
-159.545 -423.261 0.
-1.29001 -3.40152 0.
-6.47237 -17.1162 0.
-187.687 -510.87 0.
-0.27537 -34.5951 0.
-61.894 -171.127 0.
-3.54046 -9.776 0.
11.6157 32.0579 0.
-123.38 -340.153 0.
-5.92661 -16.3019 0.
-17.0894 -47.0765 0.
5.2677 14.4207 0.
-0.625316 -1.7244 0.
-0.0111954 -27.6983 0.
-428.63 -1178.32 0.
3.93208 10.8908 0.
-0.041367 -16.2309 0.
-612.06 -1558.26 0.
-0.00650227 -2.94985 0.
-0.617358 -1.65221 0.
-0.00126866 -2.44477 0.
-25.5756 -69.9325 0.
0.385655 0.947538 0.
-0.0348105 -0.257339 0.
-0.9498 -1.09532 0.
-9.52676 -12.5882 0.
-16.752 -35.3332 0.
-15.138 -40.8868 0.
-4.59639 -12.5478 0.
-10.4783 -15.7272 0.
-11.3606 -16.2196 0.
-23.7746 -36.4499 0.
-42.7633 -34.6298 0.
-6.17268 -5.86368 0.
-0.514646 -0.400913 0.
0.00748628 0.326546 0.
-0.0595387 -0.164831 0.
2.72964 6.68097 0.
0.933234 2.57703 0.
-303.768 -818.488 0.
-0.194423 -11.5316 0.
-584.846 -1428.7 0.
3.0461 8.38625 0.
-280.756 -766.104 0.
-0.0265827 -13.9734 0.
-0.0158177 -28.7146 0.
9.0978 25.1738 0.
4.89038 13.5453 0.
-94.6907 -262.119 0.
13.0279 35.7512 0.
-43.2228 -118.715 0.
0.162107 0.44233 0.
-19.4544 -53.1596 0.
-8.92547 -24.1131 0.
5.5051 14.8501 0.
-200.005 -527.459 0.
-7.08926 -18.4583 0.
-129.469 -346.881 0.
-83.0058 -218.282 0.
15.0502 39.4069 0.
-6.06475 -15.2304 0.
-4.68626 -11.8842 0.
-41.8293 -103.823 0.
1.68537 4.1477 0.
-246.583 -600.802 0.
-3.36941 -8.04452 0.
-57.6546 -126.209 0.
-72.2579 -160.806 0.
-6.47518 -53.9017 0.
-11.1275 -23.4066 0.
6.29003 13.5318 0.
-280.495 -566.361 0.
24.1642 46.9837 0.
29.0877 54.1526 0.
-14.7041 -28.7449 0.
-2.89661 -6.06052 0.
-7.5564 -15.5723 0.
-9.13672 -21.31 0.
-3.26698 -28.3257 0.
-5.85583 -42.6841 0.
-9.08496 -20.1727 0.
28.9584 58.792 0.
-48.3009 -99.4256 0.
8.95265 17.8454 0.
4.54317 8.77582 0.
-328.135 -639.273 0.
17.0444 32.474 0.
5.479 10.6471 0.
-14.9758 -30.2916 0.
-17.3645 -36.4557 0.
3.99353 8.75448 0.
-355.091 -799.229 0.
-1.29106 -3.02899 0.
1.83648 4.30902 0.
-100.91 -241.127 0.
-1.85579 -4.4509 0.
-3.3454 -45.4612 0.
9.41436 23.4053 0.
-83.8302 -210.533 0.
-33.915 -90.0002 0.
12.8304 33.6215 0.
13.3393 35.1246 0.
-9.0485 -23.8952 0.
-227.737 -618.175 0.
-6.22292 -16.8653 0.
11.7483 31.6923 0.
-2.55331 -7.04174 0.
3.10559 8.56358 0.
-92.6989 -255.523 0.
3.98752 10.9656 0.
-20.0289 -54.8903 0.
-23.6745 -64.5114 0.
-209.926 -580.168 0.
2.72572 7.54718 0.
1.54205 4.26124 0.
1.77547 4.91472 0.
-0.0394372 -8.29114 0.
3.25809 8.82341 0.
-0.0169101 -9.32633 0.
-0.00712478 -2.77341 0.
1.41475 3.86535 0.
-0.200667 -3.90967 0.
-0.0143317 -0.205005 0.
-0.221429 -1.5464 0.
-16.7323 -10.7231 0.
-26.9188 -26.173 0.
-39.1727 -51.5041 0.
-23.6566 -52.601 0.
-11.8577 -25.86 0.
-7.05718 -15.8011 0.
-6.21983 -13.9945 0.
-6.0289 -14.6838 0.
-41.5973 -34.2346 0.
-11.7125 -9.53398 0.
-0.455525 -0.407004 0.
0.0126713 0.282203 0.
-0.000484954 -0.0981715 0.
4.38442 10.745 0.
3.57024 9.74752 0.
-0.0268649 -8.23918 0.
6.18966 16.9168 0.
4.69212 12.0056 0.
3.13535 8.68137 0.
-43.954 -121.546 0.
-14.0974 -39.0459 0.
-15.6726 -43.4103 0.
-266.075 -736.973 0.
0.985474 2.72713 0.
-72.6962 -201.347 0.
-3.09392 -8.47785 0.
-103.186 -283.007 0.
-4.88284 -13.3441 0.
-12.4968 -34.1629 0.
6.14898 16.585 0.
-124.584 -335.486 0.
-147.583 -383.881 0.
-6.08319 -15.8238 0.
-1.39267 -3.62368 0.
-111.982 -294.151 0.
-41.9179 -109.635 0.
-6.69562 -16.7649 0.
-0.591728 -1.4727 0.
-285.405 -706.111 0.
-6.03273 -14.8038 0.
3.88694 9.21774 0.
-1.30436 -3.10706 0.
-172.532 -381.454 0.
-5.61054 -40.8851 0.
-9.26955 -19.9393 0.
-314.073 -660.719 0.
-1.2479 -2.49938 0.
14.0414 26.2249 0.
19.2175 37.085 0.
20.273 37.4723 0.
12.9037 23.4448 0.
3.80828 7.89001 0.
7.56145 15.4364 0.
10.7447 25.9641 0.
-5.53749 -12.598 0.
7.22112 15.7454 0.
-188.564 -432.345 0.
-7.76446 -15.6546 0.
9.99076 19.0964 0.
-10.6218 -51.5147 0.
-285.611 -544.97 0.
-14.1131 -26.3653 0.
26.2714 49.4771 0.
-297.174 -570.072 0.
-1.03521 -2.00862 0.
19.1924 38.0635 0.
-3.19086 -6.97791 0.
-104.056 -233.966 0.
17.5701 40.5448 0.
-84.6676 -199.025 0.
-336.06 -804.426 0.
-3.30584 -40.112 0.
-10.0253 -23.6518 0.
-4.79209 -11.882 0.
-154.757 -387.706 0.
-2.82923 -7.40949 0.
1.07209 2.80563 0.
-54.7014 -143.808 0.
-91.171 -240.427 0.
-9.70287 -25.1565 0.
0.692024 1.85433 0.
7.02655 18.9204 0.
-24.195 -66.6654 0.
-7.08948 -19.5303 0.
-86.3514 -237.984 0.
8.3953 23.0203 0.
-220.123 -601.634 0.
4.01163 10.9245 0.
-64.699 -179.177 0.
1.9893 5.50774 0.
5.85665 16.169 0.
2.2516 6.22027 0.
9.11178 24.8147 0.
3.64411 10.0673 0.
0.465703 1.26967 0.
-421.845 -922.219 0.
2.29572 6.12709 0.
-0.0809764 -2.13054 0.
-489.114 -1270.34 0.
0.137919 1.06066 0.
-235.8 -480.204 0.
-31.1913 -31.9849 0.
-115.18 -233.041 0.
-86.1087 -222.816 0.
-320.878 -886.913 0.
-12.3342 -32.6977 0.
-5.93411 -16.2322 0.
-399.687 -1029.02 0.
-20.4618 -24.2879 0.
-12.2375 -18.8194 0.
-393.371 -655.189 0.
-0.00198724 -1.35378 0.
-451.253 -1182.73 0.
-0.0273918 -3.98355 0.
-0.0431827 -9.64828 0.
-282.708 -730.314 0.
0.00466555 3.07113 0.
5.04658 13.3473 0.
-0.113835 -25.4518 0.
7.21595 19.9644 0.
-11.6419 -32.2441 0.
-19.2413 -53.2945 0.
6.62134 18.2392 0.
-3.92685 -10.8251 0.
-101.895 -281.056 0.
-53.4934 -146.35 0.
-265.573 -727.196 0.
-7.36478 -20.1238 0.
-28.7717 -78.6404 0.
9.06203 24.4651 0.
-35.2419 -94.7402 0.
-45.9825 -119.479 0.
-123.863 -321.941 0.
13.6603 34.8841 0.
-5.85608 -14.9145 0.
-149.802 -391.298 0.
-254.425 -635.5 0.
16.4789 40.8863 0.
16.2514 39.1874 0.
17.2456 42.193 0.
-92.494 -219.698 0.
-0.753673 -1.7493 0.
-245.37 -548.639 0.
-345.439 -734.435 0.
23.1578 46.8693 0.
9.3752 18.6412 0.
-1.95692 -3.91204 0.
23.4213 43.6043 0.
-10.8858 -19.75 0.
-345.307 -634.228 0.
14.1065 25.4379 0.
-13.8978 -26.8958 0.
-1.31618 -2.47068 0.
-6.93544 -13.7996 0.
-2.85194 -39.8293 0.
-1.76205 -3.55933 0.
-5.47938 -42.1326 0.
-11.0448 -47.9816 0.
-51.37 -97.0682 0.
-30.1456 -56.3476 0.
-5.38042 -9.57171 0.
25.8856 47.2835 0.
-139.739 -259.615 0.
-26.5752 -48.2743 0.
-3.45437 -6.68791 0.
-231.302 -457.971 0.
11.0826 23.9693 0.
-24.9892 -55.6702 0.
3.98472 9.21301 0.
-20.6885 -48.7128 0.
9.93138 23.0148 0.
10.3722 24.057 0.
-251.955 -593.503 0.
-21.791 -53.8809 0.
-9.009 -22.1628 0.
12.5661 32.8666 0.
-29.0746 -75.9851 0.
-24.0523 -62.8142 0.
11.5373 29.8197 0.
10.5622 27.4129 0.
-4.76674 -12.7463 0.
-8.19265 -22.0176 0.
-189.996 -523.015 0.
11.0607 30.197 0.
-1.02217 -2.7993 0.
-4.59022 -12.5631 0.
-58.7142 -160.397 0.
-0.231678 -31.2926 0.
-83.8892 -232.255 0.
2.03335 5.61409 0.
1.12057 3.07544 0.
-209.917 -581.43 0.
0.160563 0.444467 0.
-164.991 -450.21 0.
3.30234 9.14682 0.
1.04724 2.62398 0.
-0.00794949 -4.91663 0.
-0.10462 -3.15345 0.
-0.0249568 -0.31625 0.
-0.152855 -1.17812 0.
-23.4609 -21.9357 0.
-18.5227 -10.6372 0.
-26.0426 -25.0306 0.
-27.8712 -34.9391 0.
-22.7125 -29.4597 0.
-21.4289 -42.9507 0.
-9.70581 -20.9374 0.
-8.89689 -17.6635 0.
-7.22824 -11.4469 0.
-7.14163 -14.321 0.
-13.3354 -28.4033 0.
1.43514 3.88753 0.
-0.0148288 -3.31261 0.
-0.148294 -10.8656 0.
-0.000879775 -4.87829 0.
-0.388254 -1.04171 0.
-0.0404111 -19.109 0.
-213.802 -583.418 0.
8.34326 22.6459 0.
-111.511 -305.955 0.
-3.68244 -10.1987 0.
-2.31134 -6.40183 0.
-0.0895066 -31.4316 0.
1.27939 3.52266 0.
-117.661 -318.231 0.
7.7399 20.9388 0.
-27.1022 -73.3143 0.
-14.6293 -39.9673 0.
-223.142 -609.726 0.
4.28495 11.5484 0.
-14.4503 -38.9758 0.
3.53344 9.23224 0.
-28.2604 -73.3739 0.
-93.4216 -237.77 0.
16.5804 42.0906 0.
-10.7846 -26.2438 0.
-52.9977 -131.89 0.
7.62856 18.8668 0.
-13.1209 -31.6729 0.
16.1849 38.1774 0.
-118.655 -282.317 0.
3.537 8.22511 0.
-46.4538 -102.085 0.
-12.764 -27.5139 0.
-3.01953 -6.18245 0.
6.20119 12.2538 0.
5.34383 10.447 0.
-529.822 -984.53 0.
0.405791 0.733573 0.
-12.081 -21.0044 0.
-114.436 -204.735 0.
-18.5623 -32.6692 0.
-9.05781 -42.9018 0.
20.0119 36.5209 0.
8.31567 19.6597 0.
15.1348 31.4302 0.
-4.15127 -36.4347 0.
-263.629 -476.456 0.
12.1768 20.3463 0.
-3.53164 -5.98463 0.
-50.9876 -90.2091 0.
-56.2842 -101.325 0.
24.0678 42.0432 0.
-186.463 -339.725 0.
2.71917 5.24929 0.
4.14608 8.08406 0.
-6.70639 -14.6171 0.
-321.419 -720.276 0.
14.5994 33.8153 0.
-3.5224 -36.8824 0.
-37.1716 -86.5762 0.
-9.79174 -22.6801 0.
-78.7258 -185.274 0.
7.8962 19.2227 0.
4.41391 10.835 0.
-57.835 -151.06 0.
3.10988 8.1167 0.
-2.0581 -5.25688 0.
-0.111226 -0.287806 0.
14.7006 38.1954 0.
-147.895 -394.558 0.
-88.2673 -236.724 0.
1.15289 3.13888 0.
-2.80824 -7.66102 0.
-47.0373 -128.57 0.
9.79015 26.7404 0.
-9.67399 -26.4117 0.
0.527775 1.43537 0.
2.8963 7.85346 0.
-83.6712 -230.944 0.
2.06346 5.68913 0.
9.44294 26.1333 0.
-0.209901 -0.579694 0.
1.66558 4.60716 0.
-0.0215603 -6.48493 0.
-0.129299 -6.56598 0.
-0.000189492 -8.50935 0.
-0.525542 -17.0136 0.
-0.00970949 -0.119858 0.
-37.3337 -95.4335 0.
-150.239 -289.276 0.
-15.097 -5.45408 0.
-37.576 -31.6531 0.
-86.6507 -193.57 0.
-164.49 -408.574 0.
-10.8778 -13.7853 0.
-2.90032 -6.01236 0.
-214.644 -492.032 0.
-1.237 -3.24497 0.
-0.480605 -1.19505 0.
-178.497 -387.266 0.
-0.104659 -6.39822 0.
-0.000440287 -4.96057 0.
8.99939 23.8266 0.
3.74765 10.3657 0.
5.06958 13.961 0.
-2.14837e-05 -16.3108 0.
-6.00622 -16.5736 0.
-3.45001 -9.32764 0.
-32.278 -87.8544 0.
6.45043 17.8256 0.
-18.9299 -52.3521 0.
11.7275 32.2154 0.
8.51984 23.4278 0.
3.32445 8.97353 0.
-8.08305 -21.8166 0.
-111.945 -302.121 0.
9.93949 26.746 0.
-30.5506 -83.4789 0.
7.88973 21.2263 0.
-71.3396 -192.073 0.
2.40588 6.28095 0.
15.1336 39.2667 0.
-108.141 -274.329 0.
-9.26457 -23.4368 0.
9.73083 23.8387 0.
11.3387 27.2105 0.
-13.9669 -34.4274 0.
-99.2619 -239.883 0.
-6.96191 -16.4361 0.
9.50751 21.6956 0.
-30.6048 -71.285 0.
-175.937 -391.393 0.
19.1631 40.7963 0.
17.164 34.8752 0.
-204.657 -402.198 0.
16.2991 31.6517 0.
4.0368 7.50853 0.
5.31506 9.56411 0.
15.1383 26.5828 0.
-12.0651 -40.3521 0.
-15.4233 -48.4199 0.
-97.9579 -184.791 0.
-9.01336 -38.9145 0.
12.091 28.6051 0.
-128.349 -274.853 0.
-90.5393 -156.278 0.
19.261 31.3766 0.
14.1224 23.0951 0.
-82.5475 -138.672 0.
-227.937 -399.492 0.
-9.78488 -16.4281 0.
-202.439 -353.866 0.
-41.2521 -75.3079 0.
18.321 34.5162 0.
16.7513 32.6966 0.
-10.2109 -22.42 0.
-38.9348 -88.0141 0.
8.88731 19.5728 0.
-3.78998 -8.63056 0.
-226.113 -529.192 0.
-4.3765 -9.9174 0.
8.36343 19.4508 0.
3.11773 7.57149 0.
-26.2159 -64.196 0.
-0.206165 -0.483751 0.
10.5264 26.5907 0.
6.20018 15.7882 0.
-66.4731 -172.214 0.
-100.099 -260.409 0.
2.69115 7.04966 0.
-6.14409 -16.1524 0.
-29.7445 -80.9151 0.
8.10914 22.105 0.
-125.426 -342.134 0.
4.3611 11.8859 0.
-0.286454 -0.774421 0.
-8.27532 -22.4267 0.
-5.69578 -15.4519 0.
-59.387 -163.685 0.
-0.474404 -1.3058 0.
8.37574 23.1268 0.
2.50585 6.89381 0.
-0.0116405 -23.1752 0.
-4.36421 -12.0176 0.
-0.0869684 -24.8509 0.
-199.174 -530.268 0.
-0.0613282 -7.95949 0.
-155.362 -390.361 0.
2.30659 6.3704 0.
-26.9693 -19.0919 0.
-7.5288 -2.75666 0.
-18.6538 -6.74468 0.
-30.448 -39.5961 0.
-27.0209 -32.8989 0.
-11.2489 -11.9462 0.
-2.25594 -5.40014 0.
-10.3164 -11.1466 0.
-1.38592 -3.82063 0.
-2.08535 -5.6174 0.
-12.2015 -33.3151 0.
2.59925 7.14642 0.
-114.544 -304.315 0.
5.45134 15.0992 0.
-165.745 -457.815 0.
5.36047 14.8018 0.
3.10902 8.58116 0.
-5.24165 -14.518 0.
6.65028 17.9054 0.
-20.2093 -54.8103 0.
-7.99804 -22.0806 0.
-38.837 -107.321 0.
-19.8821 -54.2955 0.
2.8228 7.7027 0.
8.75698 23.58 0.
-15.6976 -42.267 0.
-3.75818 -10.1258 0.
9.05602 24.3343 0.
-56.9422 -152.605 0.
-3.38444 -8.82054 0.
-44.5547 -119.75 0.
-48.2161 -125.776 0.
7.98126 20.69 0.
-8.01923 -20.2072 0.
-20.2672 -51.0873 0.
-144.78 -357.135 0.
-7.3708 -17.8167 0.
-2.35728 -32.225 0.
10.2041 23.4795 0.
14.7583 34.8612 0.
-35.9625 -82.4482 0.
0.298718 0.666351 0.
-28.7655 -64.8142 0.
-133.934 -288.585 0.
-6.23718 -12.829 0.
8.21823 15.5964 0.
16.2236 31.2645 0.
-57.8938 -108.401 0.
-4.98942 -8.91362 0.
15.4457 26.9631 0.
-90.6471 -150.148 0.
28.0181 45.4105 0.
-8.46291 -32.0508 0.
-4.72117 -8.64577 0.
-7.68253 -13.6448 0.
8.98841 19.1969 0.
8.93555 14.1717 0.
-106.854 -170.274 0.
-214.029 -341.235 0.
-12.1353 -32.5057 0.
12.3209 20.3101 0.
-8.1361 -13.6451 0.
-195.265 -341.049 0.
-3.58829 -6.52634 0.
-1.67658 -3.15669 0.
-195.738 -382.041 0.
11.6743 24.4789 0.
12.8096 27.6598 0.
-137.924 -306.291 0.
-5.63677 -12.8984 0.
11.6211 26.3458 0.
-3.74678 -40.2798 0.
-102.413 -239.177 0.
-14.1281 -34.2229 0.
14.2649 32.638 0.
-10.6819 -25.1711 0.
12.8529 32.3602 0.
-8.61988 -21.8811 0.
-18.4014 -47.7261 0.
-0.263536 -0.673059 0.
-0.500876 -1.3097 0.
-21.2368 -55.7315 0.
-78.6294 -213.713 0.
-45.66 -124.365 0.
4.28195 11.5244 0.
-7.04984 -19.0006 0.
2.0527 5.55377 0.
7.53057 20.4179 0.
-50.2683 -136.445 0.
-90.7624 -249.75 0.
8.02888 22.058 0.
-36.9766 -100.834 0.
1.25172 3.40405 0.
-96.9637 -266.333 0.
1.68885 4.62458 0.
-0.108769 -16.7837 0.
3.91389 10.6776 0.
-0.0144843 -13.8952 0.
2.64077 7.15589 0.
-0.117097 -9.90684 0.
-33.6597 -32.3994 0.
-18.1835 -6.59246 0.
-13.2622 -5.5846 0.
-56.2216 -72.8263 0.
-51.2886 -56.3642 0.
-11.5218 -11.8157 0.
-24.1409 -22.5143 0.
-31.9329 -40.9764 0.
-2.46038 -6.81229 0.
-7.26678 -14.7611 0.
-28.6657 -47.5083 0.
0.0864118 5.55642 0.
5.7113 15.7395 0.
-0.0195971 -13.2201 0.
-1.46661 -4.06218 0.
8.53496 23.5248 0.
0.0531128 0.146626 0.
-40.4841 -107.492 0.
-25.6601 -68.3138 0.
-3.45261 -9.32856 0.
-2.03471 -5.61078 0.
-69.4039 -191.599 0.
-6.95364 -18.9988 0.
-6.92405 -18.9032 0.
-4.39466 -11.6574 0.
0.674091 1.77922 0.
-15.1888 -40.8674 0.
-79.4735 -213.254 0.
8.78418 22.9991 0.
7.05991 18.3743 0.
-0.59141 -1.5298 0.
-81.5113 -212.454 0.
-15.8034 -40.9318 0.
-7.97986 -20.1667 0.
-4.76588 -11.8362 0.
-2.13201 -31.5976 0.
16.4367 40.0256 0.
9.81399 23.2773 0.
-7.31338 -16.9291 0.
-3.55955 -36.3407 0.
-133.067 -306.483 0.
17.8613 40.0346 0.
-1.06455 -2.30242 0.
10.7523 21.9467 0.
19.812 41.2492 0.
-10.0516 -19.068 0.
-6.20191 -27.5128 0.
-105.971 -199.373 0.
-120.208 -215.682 0.
-9.21154 -32.6787 0.
6.24192 9.71492 0.
-18.3595 -29.3019 0.
-6.03549 -27.032 0.
1.33033 2.21692 0.
-6.7831 -19.1004 0.
-2.85397 -6.17935 0.
-190.559 -295.346 0.
25.6777 36.1053 0.
7.68374 11.2902 0.
-1.03506 -1.62138 0.
9.41546 15.7598 0.
3.02688 4.87862 0.
2.31257 3.90554 0.
0.466024 0.845551 0.
14.5914 27.4221 0.
11.8379 20.9429 0.
-1.62969 -3.44714 0.
10.8285 23.5887 0.
-161.595 -362.111 0.
10.3398 22.2372 0.
7.57192 17.1771 0.
-3.45458 -38.2147 0.
-4.84872 -11.3839 0.
-3.30402 -28.5442 0.
-3.11071 -35.4248 0.
-54.7981 -129.757 0.
7.55997 18.9707 0.
15.944 38.3183 0.
-1.47012 -37.9123 0.
12.8182 32.7899 0.
-16.4695 -42.9863 0.
-68.3602 -179.082 0.
-6.07209 -15.1683 0.
-6.24838 -16.588 0.
-0.418517 -32.4889 0.
1.03613 2.79493 0.
-14.2857 -38.6837 0.
-23.2737 -63.1367 0.
-3.01519 -8.18779 0.
11.9 32.0572 0.
7.21195 19.4772 0.
-11.6433 -31.7279 0.
0.685065 1.86149 0.
0.425344 1.15225 0.
8.81918 23.9772 0.
7.29879 19.7321 0.
2.94372 8.12852 0.
-0.00320734 -13.8848 0.
-47.7853 -131.516 0.
3.26568 8.43531 0.
-69.9498 -78.7463 0.
-16.9407 -10.2974 0.
-14.0864 -7.37423 0.
-43.4047 -55.0572 0.
-40.3972 -48.05 0.
-10.3868 -13.2921 0.
-24.1596 -16.9823 0.
-59.8111 -74.3776 0.
-14.7981 -12.6238 0.
-5.04163 -1.94528 0.
-49.5241 -41.0272 0.
-0.148773 -3.49001 0.
5.06328 14.0185 0.
0.964914 2.63734 0.
0.99075 2.73568 0.
1.58084 4.34784 0.
-12.7489 -35.1332 0.
-8.63348 -22.9025 0.
-14.2901 -38.012 0.
-5.75515 -15.7285 0.
11.1946 30.4 0.
-22.9589 -63.3085 0.
-39.271 -107.347 0.
-44.9828 -122.864 0.
-2.8358 -7.51333 0.
-2.05242 -5.41017 0.
-2.69918 -7.07329 0.
-7.05957 -18.192 0.
-99.1252 -259.281 0.
11.4711 29.8146 0.
11.9357 29.8323 0.
9.53354 23.6407 0.
4.17548 10.2719 0.
-146.088 -370.431 0.
-8.62278 -21.4853 0.
5.24873 12.6088 0.
11.0288 25.0934 0.
-67.7173 -161.661 0.
-3.59302 -8.3708 0.
-1.30276 -2.95788 0.
-4.6897 -9.98286 0.
-0.510077 -1.14886 0.
-6.08904 -13.3531 0.
16.1908 33.4565 0.
7.21063 14.0089 0.
-7.97718 -15.1092 0.
16.9302 31.1653 0.
13.557 24.2569 0.
14.0364 23.3461 0.
5.36681 9.2134 0.
12.0383 18.7238 0.
-2.81452 -4.10801 0.
9.70975 13.3622 0.
-99.1762 -165.747 0.
-11.7828 -33.2925 0.
-6.03669 -11.0536 0.
22.0067 29.5452 0.
-11.3956 -22.4287 0.
-8.69343 -20.998 0.
-1.01131 -1.60201 0.
-7.1455 -20.7202 0.
10.5178 16.9941 0.
7.63545 12.9449 0.
-6.9758 -12.8573 0.
8.09821 12.755 0.
-5.90757 -23.5608 0.
4.48781 9.58255 0.
20.5971 35.7925 0.
-4.4225 -9.01129 0.
0.00547635 0.0117617 0.
-34.1487 -77.5762 0.
-3.67457 -17.3896 0.
-4.52472 -27.3137 0.
-7.44575 -16.1188 0.
0.684729 1.58274 0.
-89.5132 -213.21 0.
0.531094 1.20027 0.
6.14452 14.7351 0.
-3.98451 -10.1257 0.
3.89909 9.99325 0.
-39.9205 -104.01 0.
0.793797 1.84069 0.
11.3196 28.4881 0.
8.64236 22.8941 0.
-20.7139 -55.5642 0.
-23.2322 -62.7283 0.
-60.9765 -165.274 0.
-1.83101 -32.9039 0.
-0.0642318 -0.166343 0.
11.8473 31.7871 0.
-3.85508 -10.3703 0.
1.1585 3.15438 0.
8.52102 23.1336 0.
-0.451519 -1.22201 0.
6.91873 18.6493 0.
-1.18937 -18.0087 0.
-3.38709 -9.2514 0.
-2.9912 -8.12167 0.
1.8057 4.82709 0.
-0.899329 -14.4824 0.
-23.8388 -19.8285 0.
-15.6496 -9.1436 0.
-16.5154 -8.49931 0.
-15.6772 -13.2951 0.
-17.8389 -11.5316 0.
-10.7088 -13.3953 0.
-14.6627 -10.7666 0.
-32.4909 -39.6278 0.
-16.0255 -9.85758 0.
-14.064 -5.61798 0.
-3.29812 -16.4097 0.
9.26188 21.5707 0.
-31.4224 -81.2498 0.
6.37964 16.288 0.
9.51816 24.0003 0.
7.85025 21.536 0.
-28.2517 -77.6908 0.
-0.278531 -0.738192 0.
10.382 27.5909 0.
3.87822 10.5706 0.
7.21647 19.5328 0.
-16.8815 -45.3371 0.
-1.11992 -24.8938 0.
-20.5107 -56.0517 0.
-9.18521 -24.3083 0.
1.69444 4.46108 0.
-59.261 -154.905 0.
9.35037 24.0167 0.
6.94984 16.6592 0.
-0.0638506 -0.16575 0.
12.5132 31.2413 0.
10.806 26.7646 0.
5.33575 13.1098 0.
3.5425 8.08774 0.
-9.23613 -23.1031 0.
-0.119225 -0.288336 0.
8.6741 19.823 0.
5.70831 11.9831 0.
20.1662 36.4801 0.
-2.78215 -30.7395 0.
-3.61651 -27.0876 0.
1.85438 3.66677 0.
2.76325 5.01158 0.
4.2982 9.00637 0.
4.32212 8.49144 0.
19.8331 32.0584 0.
24.6427 34.9902 0.
-163.573 -294.385 0.
13.6021 22.6744 0.
7.07228 10.9664 0.
-96.3035 -149.027 0.
7.04275 10.1931 0.
0.172912 0.235723 0.
13.2193 19.5303 0.
19.4287 29.5586 0.
