# vtk DataFile Version 2.0
test grain
ASCII
DATASET UNSTRUCTURED_GRID
POINTS 5000 float
0.499271 0.000887775 0.
0.501463 0.000919394 0.
0.503638 0.000950526 0.
0.505792 0.000978064 0.
0.507836 0.000980507 0.
0.50988 0.000982957 0.
0.511915 0.000985853 0.
0.513938 0.00098939 0.
0.515961 0.00099294 0.
0.517973 0.000995168 0.
0.519979 0.000996703 0.
0.521985 0.00099824 0.
0.523987 0.000998802 0.
0.525988 0.000999233 0.
0.52799 0.00099963 0.
0.529991 0.000999742 0.
0.531993 0.000999855 0.
0.533994 0.000999953 0.
0.535995 0.00100002 0.
0.537996 0.00100009 0.
0.539996 0.00100018 0.
0.541997 0.00100029 0.
0.543997 0.0010004 0.
0.545998 0.00100036 0.
0.547998 0.00100027 0.
0.549998 0.00100019 0.
0.551998 0.0010003 0.
0.553998 0.00100041 0.
0.555999 0.0010005 0.
0.557999 0.00100051 0.
0.559999 0.00100052 0.
0.561999 0.00100054 0.
0.563999 0.00100056 0.
0.566 0.00100059 0.
0.568 0.00100061 0.
0.57 0.00100062 0.
0.572 0.00100064 0.
0.574 0.0010007 0.
0.576 0.00100076 0.
0.578 0.00100081 0.
0.58 0.00100084 0.
0.582 0.00100087 0.
0.584 0.00100088 0.
0.586 0.00100084 0.
0.588 0.0010008 0.
0.59 0.00100077 0.
0.592 0.00100075 0.
0.594 0.00100073 0.
0.596 0.00100072 0.
0.598 0.00100072 0.
0.6 0.00100071 0.
0.602 0.00100074 0.
0.604 0.00100077 0.
0.606 0.00100079 0.
0.608 0.00100078 0.
0.61 0.00100078 0.
0.612 0.0010008 0.
0.614 0.00100085 0.
0.616 0.0010009 0.
0.618 0.00100088 0.
0.62 0.00100082 0.
0.622 0.00100076 0.
0.624 0.00100068 0.
0.626 0.0010006 0.
0.628 0.00100053 0.
0.63 0.00100054 0.
0.632 0.00100054 0.
0.634 0.00100054 0.
0.636001 0.00100052 0.
0.638001 0.00100051 0.
0.640001 0.00100049 0.
0.642001 0.00100046 0.
0.644002 0.00100044 0.
0.646002 0.00100037 0.
0.648002 0.00100029 0.
0.650002 0.00100022 0.
0.652003 0.00100027 0.
0.654003 0.00100033 0.
0.656004 0.00100035 0.
0.658004 0.00100026 0.
0.660004 0.00100016 0.
0.662005 0.00100008 0.
0.664006 0.000999998 0.
0.666007 0.000999918 0.
0.668008 0.000999742 0.
0.67001 0.000999517 0.
0.672012 0.000999293 0.
0.674013 0.000998855 0.
0.676015 0.000998391 0.
0.678018 0.000997684 0.
0.680028 0.000995168 0.
0.682037 0.000992658 0.
0.684056 0.000989631 0.
0.68609 0.000985616 0.
0.688125 0.000981617 0.
0.690179 0.000977221 0.
0.692246 0.000972579 0.
0.694312 0.000967959 0.
0.696505 0.000938618 0.
0.698716 0.000907095 0.
0.498877 0.00265168 0.
0.501118 0.00274968 0.
0.503338 0.00284394 0.
0.505549 0.00293383 0.
0.507638 0.00294122 0.
0.509727 0.00294862 0.
0.511801 0.00295723 0.
0.51385 0.00296791 0.
0.5159 0.00297863 0.
0.517928 0.00298544 0.
0.519944 0.00299005 0.
0.52196 0.00299467 0.
0.523966 0.0029964 0.
0.52597 0.00299769 0.
0.527975 0.00299889 0.
0.529978 0.00299923 0.
0.531982 0.00299956 0.
0.533985 0.00299986 0.
0.535987 0.00300006 0.
0.537989 0.00300026 0.
0.539991 0.00300053 0.
0.541992 0.00300086 0.
0.543993 0.00300119 0.
0.545993 0.00300107 0.
0.547994 0.00300082 0.
0.549995 0.00300058 0.
0.551995 0.00300091 0.
0.553995 0.00300124 0.
0.555996 0.0030015 0.
0.557997 0.00300153 0.
0.559997 0.00300157 0.
0.561998 0.00300162 0.
0.563998 0.00300169 0.
0.565999 0.00300176 0.
0.567999 0.00300182 0.
0.569999 0.00300187 0.
0.572 0.00300193 0.
0.574 0.00300209 0.
0.575999 0.00300227 0.
0.577999 0.00300244 0.
0.579999 0.00300253 0.
0.582 0.00300262 0.
0.584 0.00300264 0.
0.586 0.00300251 0.
0.588 0.00300239 0.
0.59 0.00300231 0.
0.592 0.00300225 0.
0.594 0.0030022 0.
0.596 0.00300217 0.
0.598 0.00300216 0.
0.6 0.00300214 0.
0.602 0.00300223 0.
0.604 0.00300231 0.
0.606 0.00300238 0.
0.608 0.00300235 0.
0.61 0.00300233 0.
0.612 0.00300239 0.
0.614 0.00300255 0.
0.616 0.00300271 0.
0.618 0.00300264 0.
0.62 0.00300246 0.
0.622 0.00300227 0.
0.624 0.00300204 0.
0.626 0.0030018 0.
0.628 0.00300159 0.
0.630001 0.00300161 0.
0.632001 0.00300162 0.
0.634001 0.00300161 0.
0.636002 0.00300157 0.
0.638002 0.00300152 0.
0.640003 0.00300146 0.
0.642004 0.00300138 0.
0.644004 0.0030013 0.
0.646005 0.00300111 0.
0.648005 0.00300088 0.
0.650006 0.00300065 0.
0.652007 0.00300082 0.
0.654008 0.00300099 0.
0.656009 0.00300105 0.
0.65801 0.00300077 0.
0.660011 0.00300049 0.
0.662013 0.00300023 0.
0.664015 0.00299999 0.
0.666018 0.00299975 0.
0.668021 0.00299922 0.
0.670025 0.00299855 0.
0.67203 0.00299787 0.
0.674035 0.00299656 0.
0.676041 0.00299516 0.
0.678049 0.00299296 0.
0.680074 0.00298538 0.
0.682099 0.00297782 0.
0.684138 0.00296864 0.
0.686203 0.00295652 0.
0.688268 0.00294444 0.
0.690366 0.00293103 0.
0.692484 0.00291698 0.
0.694603 0.00290163 0.
0.696852 0.00280651 0.
0.699108 0.00271103 0.
0.498479 0.00439999 0.
0.500764 0.00456843 0.
0.503031 0.00472698 0.
0.505295 0.00488473 0.
0.507434 0.00490152 0.
0.50957 0.00491396 0.
0.511685 0.00492817 0.
0.513762 0.00494607 0.
0.515838 0.00496405 0.
0.517883 0.00497561 0.
0.519909 0.00498332 0.
0.521935 0.00499104 0.
0.523945 0.00499397 0.
0.525953 0.00499613 0.
0.52796 0.00499814 0.
0.529966 0.0049987 0.
0.531971 0.00499927 0.
0.533976 0.00499976 0.
0.535979 0.00500009 0.
0.537983 0.00500043 0.
0.539985 0.00500088 0.
0.541986 0.00500143 0.
0.543988 0.00500197 0.
0.545989 0.00500178 0.
0.54799 0.00500137 0.
0.549991 0.00500096 0.
0.551992 0.00500151 0.
0.553992 0.00500206 0.
0.555993 0.0050025 0.
0.557994 0.00500256 0.
0.559996 0.00500261 0.
0.561997 0.00500269 0.
0.563997 0.00500281 0.
0.565998 0.00500293 0.
0.567999 0.00500303 0.
0.569999 0.00500312 0.
0.571999 0.00500322 0.
0.573999 0.00500349 0.
0.575999 0.00500379 0.
0.577999 0.00500407 0.
0.579999 0.00500422 0.
0.581999 0.00500436 0.
0.584 0.00500439 0.
0.586 0.00500419 0.
0.588 0.00500399 0.
0.59 0.00500385 0.
0.592 0.00500376 0.
0.593999 0.00500367 0.
0.596 0.00500362 0.
0.598 0.00500359 0.
0.6 0.00500356 0.
0.602 0.00500371 0.
0.604 0.00500386 0.
0.606 0.00500396 0.
0.608 0.00500392 0.
0.61 0.00500388 0.
0.612 0.00500398 0.
0.614 0.00500425 0.
0.616 0.00500452 0.
0.618 0.00500441 0.
0.62 0.0050041 0.
0.622001 0.00500379 0.
0.624001 0.0050034 0.
0.626 0.005003 0.
0.628 0.00500265 0.
0.630001 0.00500268 0.
0.632002 0.0050027 0.
0.634002 0.00500269 0.
0.636003 0.00500262 0.
0.638004 0.00500254 0.
0.640005 0.00500243 0.
0.642006 0.0050023 0.
0.644007 0.00500217 0.
0.646008 0.00500185 0.
0.648009 0.00500146 0.
0.65001 0.00500109 0.
0.652011 0.00500137 0.
0.654012 0.00500165 0.
0.656014 0.00500175 0.
0.658016 0.00500129 0.
0.660017 0.00500082 0.
0.66202 0.00500038 0.
0.664024 0.00499998 0.
0.666028 0.00499958 0.
0.668034 0.00499869 0.
0.670041 0.00499757 0.
0.672048 0.00499645 0.
0.674057 0.00499424 0.
0.676066 0.00499192 0.
0.678079 0.00498811 0.
0.68012 0.00497543 0.
0.68216 0.00496279 0.
0.684222 0.0049473 0.
0.686318 0.00492697 0.
0.688413 0.00490673 0.
0.69056 0.00488397 0.
0.692729 0.00486034 0.
0.694906 0.00482529 0.
0.697206 0.00466177 0.
0.699509 0.00450109 0.
0.498165 0.00611664 0.
0.500458 0.00631777 0.
0.50273 0.00650851 0.
0.504999 0.00669718 0.
0.507174 0.00675124 0.
0.509341 0.00679382 0.
0.511489 0.00683398 0.
0.513587 0.00686409 0.
0.515686 0.00689439 0.
0.517757 0.00691865 0.
0.519811 0.00693908 0.
0.521865 0.00695965 0.
0.52389 0.00696995 0.
0.52591 0.00697834 0.
0.527929 0.00698622 0.
0.52994 0.00698823 0.
0.531951 0.00699025 0.
0.533961 0.00699254 0.
0.535967 0.00699545 0.
0.537973 0.00699836 0.
0.539977 0.00700023 0.
0.54198 0.00700125 0.
0.543982 0.00700226 0.
0.545984 0.00700237 0.
0.547985 0.00700221 0.
0.549987 0.00700204 0.
0.551988 0.00700247 0.
0.553989 0.0070029 0.
0.55599 0.00700327 0.
0.557991 0.00700343 0.
0.559992 0.00700359 0.
0.561994 0.00700378 0.
0.563995 0.00700401 0.
0.565996 0.00700424 0.
0.567996 0.00700449 0.
0.569997 0.00700477 0.
0.571998 0.00700505 0.
0.573998 0.00700539 0.
0.575998 0.00700573 0.
0.577998 0.00700606 0.
0.579998 0.00700623 0.
0.581999 0.0070064 0.
0.583999 0.0070065 0.
0.585999 0.00700646 0.
0.588 0.00700642 0.
0.59 0.00700631 0.
0.592 0.00700614 0.
0.594 0.00700596 0.
0.596 0.00700593 0.
0.598 0.00700595 0.
0.6 0.00700596 0.
0.602 0.00700609 0.
0.604 0.00700621 0.
0.606 0.00700632 0.
0.608 0.00700635 0.
0.61 0.00700639 0.
0.612 0.00700643 0.
0.614 0.00700648 0.
0.616 0.00700653 0.
0.618001 0.00700637 0.
0.620001 0.00700609 0.
0.622002 0.00700582 0.
0.624002 0.00700533 0.
0.626002 0.00700482 0.
0.628002 0.00700435 0.
0.630003 0.00700425 0.
0.632004 0.00700416 0.
0.634005 0.00700401 0.
0.636006 0.00700374 0.
0.638007 0.00700347 0.
0.640008 0.00700319 0.
0.64201 0.00700291 0.
0.644011 0.00700263 0.
0.646012 0.00700227 0.
0.648013 0.00700189 0.
0.650015 0.00700151 0.
0.652016 0.00700166 0.
0.654018 0.00700181 0.
0.656021 0.00700165 0.
0.658024 0.00700043 0.
0.660026 0.00699922 0.
0.662032 0.00699698 0.
0.66404 0.00699354 0.
0.666048 0.0069901 0.
0.66806 0.00698705 0.
0.670073 0.00698418 0.
0.672086 0.00698132 0.
0.674111 0.00697181 0.
0.676137 0.00696177 0.
0.67817 0.0069487 0.
0.68024 0.00692072 0.
0.682308 0.00689296 0.
0.684398 0.00686362 0.
0.686515 0.00683067 0.
0.688631 0.00679795 0.
0.69081 0.00674382 0.
0.693007 0.00668546 0.
0.695217 0.00660865 0.
0.697521 0.00641924 0.
0.699831 0.00622983 0.
0.497858 0.00783053 0.
0.500152 0.00805551 0.
0.502427 0.00827829 0.
0.504699 0.00849997 0.
0.506907 0.00859284 0.
0.509106 0.00866734 0.
0.511289 0.0087375 0.
0.513409 0.0087803 0.
0.51553 0.00882338 0.
0.517629 0.00886049 0.
0.519711 0.00889396 0.
0.521794 0.00892765 0.
0.523835 0.0089457 0.
0.525867 0.00896037 0.
0.527898 0.00897428 0.
0.529915 0.00897775 0.
0.531931 0.00898122 0.
0.533945 0.0089853 0.
0.535954 0.00899078 0.
0.537964 0.00899626 0.
0.53997 0.00899958 0.
0.541973 0.00900106 0.
0.543976 0.00900254 0.
0.545979 0.00900295 0.
0.547981 0.00900304 0.
0.549983 0.00900313 0.
0.551984 0.00900343 0.
0.553985 0.00900373 0.
0.555986 0.00900403 0.
0.557988 0.0090043 0.
0.559989 0.00900458 0.
0.561991 0.00900488 0.
0.563992 0.00900521 0.
0.565993 0.00900554 0.
0.567994 0.00900596 0.
0.569995 0.00900642 0.
0.571996 0.00900688 0.
0.573997 0.00900728 0.
0.575997 0.00900768 0.
0.577997 0.00900805 0.
0.579998 0.00900824 0.
0.581998 0.00900843 0.
0.583999 0.0090086 0.
0.585999 0.00900873 0.
0.587999 0.00900886 0.
0.59 0.00900877 0.
0.592 0.00900851 0.
0.594 0.00900826 0.
0.596 0.00900824 0.
0.598 0.0090083 0.
0.6 0.00900835 0.
0.602 0.00900846 0.
0.604 0.00900857 0.
0.606 0.00900868 0.
0.608 0.00900878 0.
0.61 0.00900889 0.
0.612 0.00900888 0.
0.614 0.00900871 0.
0.616001 0.00900855 0.
0.618002 0.00900833 0.
0.620002 0.00900809 0.
0.622003 0.00900786 0.
0.624003 0.00900726 0.
0.626004 0.00900663 0.
0.628004 0.00900604 0.
0.630005 0.00900583 0.
0.632006 0.00900562 0.
0.634007 0.00900533 0.
0.636009 0.00900486 0.
0.63801 0.0090044 0.
0.640012 0.00900395 0.
0.642014 0.00900352 0.
0.644015 0.0090031 0.
0.646017 0.0090027 0.
0.648018 0.00900231 0.
0.650019 0.00900193 0.
0.652022 0.00900195 0.
0.654024 0.00900198 0.
0.656027 0.00900153 0.
0.658032 0.00899957 0.
0.660036 0.00899761 0.
0.662043 0.00899356 0.
0.664055 0.00898706 0.
0.666067 0.00898057 0.
0.668085 0.00897539 0.
0.670105 0.00897077 0.
0.672125 0.00896615 0.
0.674167 0.00894913 0.
0.67621 0.00893127 0.
0.678263 0.00890837 0.
0.680362 0.0088647 0.
0.682459 0.00882138 0.
0.684577 0.00877812 0.
0.686716 0.00873194 0.
0.688855 0.00868609 0.
0.691067 0.00859492 0.
0.693293 0.00849924 0.
0.69553 0.00838016 0.
0.697837 0.00816377 0.
0.700149 0.00794799 0.
0.497588 0.00955769 0.
0.499884 0.00979897 0.
0.502168 0.0100456 0.
0.50445 0.0102892 0.
0.506681 0.0104169 0.
0.508904 0.0105236 0.
0.511112 0.0106259 0.
0.513249 0.010679 0.
0.515387 0.0107325 0.
0.517506 0.0107821 0.
0.519607 0.0108309 0.
0.521709 0.0108802 0.
0.523766 0.0109093 0.
0.525813 0.0109334 0.
0.527858 0.0109565 0.
0.52988 0.0109617 0.
0.531902 0.010967 0.
0.533922 0.0109732 0.
0.535935 0.0109818 0.
0.537948 0.0109904 0.
0.539958 0.0109958 0.
0.541963 0.0109983 0.
0.543968 0.0110009 0.
0.545972 0.0110018 0.
0.547975 0.0110023 0.
0.549978 0.0110028 0.
0.551979 0.0110032 0.
0.553981 0.0110036 0.
0.555982 0.011004 0.
0.557984 0.0110044 0.
0.559986 0.0110048 0.
0.561987 0.0110053 0.
0.563989 0.0110058 0.
0.56599 0.0110063 0.
0.567992 0.0110068 0.
0.569993 0.0110074 0.
0.571994 0.0110079 0.
0.573995 0.0110084 0.
0.575995 0.0110089 0.
0.577996 0.0110094 0.
0.579997 0.0110096 0.
0.581997 0.0110098 0.
0.583998 0.01101 0.
0.585999 0.0110103 0.
0.587999 0.0110105 0.
0.589999 0.0110105 0.
0.592 0.0110103 0.
0.594 0.0110101 0.
0.596 0.0110101 0.
0.598 0.0110101 0.
0.6 0.0110102 0.
0.602 0.0110103 0.
0.604 0.0110105 0.
0.606 0.0110106 0.
0.608 0.0110106 0.
0.61 0.0110107 0.
0.612 0.0110105 0.
0.614001 0.0110102 0.
0.616002 0.0110099 0.
0.618003 0.0110096 0.
0.620004 0.0110093 0.
0.622005 0.0110091 0.
0.624005 0.0110084 0.
0.626006 0.0110077 0.
0.628006 0.011007 0.
0.630008 0.0110067 0.
0.632009 0.0110063 0.
0.63401 0.0110059 0.
0.636012 0.0110053 0.
0.638014 0.0110046 0.
0.640016 0.011004 0.
0.642018 0.0110034 0.
0.644019 0.0110028 0.
0.646021 0.0110023 0.
0.648023 0.0110018 0.
0.650025 0.0110012 0.
0.652029 0.0110007 0.
0.654032 0.0110002 0.
0.656036 0.010999 0.
0.658043 0.0109956 0.
0.66005 0.0109923 0.
0.662061 0.0109857 0.
0.664078 0.0109755 0.
0.666095 0.0109652 0.
0.668119 0.0109576 0.
0.670147 0.0109511 0.
0.672174 0.0109445 0.
0.674232 0.0109156 0.
0.676292 0.0108857 0.
0.678365 0.0108493 0.
0.680482 0.0107895 0.
0.6826 0.0107303 0.
0.684738 0.0106733 0.
0.686895 0.0106147 0.
0.689053 0.0105556 0.
0.691289 0.0104296 0.
0.693536 0.0102997 0.
0.695795 0.0101453 0.
0.69811 0.00990975 0.
0.700427 0.00967387 0.
0.497458 0.0113174 0.
0.499747 0.0115529 0.
0.502025 0.0118053 0.
0.5043 0.0120553 0.
0.506532 0.0122135 0.
0.508755 0.0123546 0.
0.510967 0.0124916 0.
0.513114 0.0125543 0.
0.515261 0.0126165 0.
0.51739 0.0126791 0.
0.5195 0.0127469 0.
0.52161 0.0128154 0.
0.523683 0.0128595 0.
0.525746 0.0128966 0.
0.527808 0.0129327 0.
0.529836 0.01294 0.
0.531865 0.0129473 0.
0.53389 0.012956 0.
0.535909 0.0129683 0.
0.537928 0.0129807 0.
0.539941 0.0129887 0.
0.54195 0.012993 0.
0.543958 0.0129972 0.
0.545963 0.012999 0.
0.547968 0.0130001 0.
0.549972 0.0130012 0.
0.551974 0.0130018 0.
0.553976 0.0130025 0.
0.555978 0.0130031 0.
0.55798 0.0130037 0.
0.559982 0.0130043 0.
0.561984 0.013005 0.
0.563986 0.0130057 0.
0.565987 0.0130065 0.
0.567989 0.0130071 0.
0.56999 0.0130076 0.
0.571992 0.0130082 0.
0.573993 0.0130088 0.
0.575993 0.0130094 0.
0.577994 0.01301 0.
0.579995 0.0130103 0.
0.581996 0.0130105 0.
0.583997 0.0130108 0.
0.585998 0.0130111 0.
0.587998 0.0130114 0.
0.589999 0.0130115 0.
0.591999 0.0130115 0.
0.593999 0.0130115 0.
0.596 0.0130115 0.
0.598 0.0130115 0.
0.6 0.0130114 0.
0.602 0.0130117 0.
0.604 0.0130119 0.
0.606 0.013012 0.
0.608 0.0130119 0.
0.610001 0.0130117 0.
0.612001 0.0130114 0.
0.614002 0.013011 0.
0.616003 0.0130105 0.
0.618004 0.0130102 0.
0.620005 0.0130098 0.
0.622006 0.0130095 0.
0.624007 0.0130088 0.
0.626008 0.013008 0.
0.628009 0.0130073 0.
0.63001 0.0130068 0.
0.632012 0.0130062 0.
0.634014 0.0130056 0.
0.636016 0.0130049 0.
0.638017 0.0130042 0.
0.640019 0.0130035 0.
0.642022 0.0130027 0.
0.644024 0.0130019 0.
0.646026 0.0130011 0.
0.648029 0.0130003 0.
0.650031 0.0129994 0.
0.652036 0.0129979 0.
0.654042 0.0129964 0.
0.656048 0.0129939 0.
0.658059 0.0129886 0.
0.660069 0.0129833 0.
0.662086 0.0129734 0.
0.664109 0.0129586 0.
0.666132 0.0129438 0.
0.668164 0.0129335 0.
0.670198 0.0129248 0.
0.672233 0.0129161 0.
0.67431 0.0128699 0.
0.676387 0.0128229 0.
0.678476 0.0127686 0.
0.680601 0.0126913 0.
0.682725 0.0126147 0.
0.684874 0.0125418 0.
0.687041 0.0124686 0.
0.689209 0.0123931 0.
0.691445 0.0122371 0.
0.69369 0.0120774 0.
0.695948 0.0118981 0.
0.698257 0.0116598 0.
0.70057 0.0114231 0.
0.497334 0.0130788 0.
0.499612 0.0133067 0.
0.501882 0.0135645 0.
0.50415 0.0138209 0.
0.506383 0.0140073 0.
0.508606 0.0141829 0.
0.510821 0.014355 0.
0.512978 0.0144291 0.
0.515135 0.0145 0.
0.517275 0.0145749 0.
0.519392 0.0146618 0.
0.52151 0.0147495 0.
0.523599 0.0148092 0.
0.525679 0.0148594 0.
0.527758 0.0149088 0.
0.529793 0.0149182 0.
0.531827 0.0149277 0.
0.533859 0.0149389 0.
0.535883 0.0149549 0.
0.537907 0.0149709 0.
0.539925 0.0149817 0.
0.541936 0.0149876 0.
0.543948 0.0149935 0.
0.545955 0.0149962 0.
0.54796 0.0149979 0.
0.549966 0.0149995 0.
0.551969 0.0150004 0.
0.553971 0.0150014 0.
0.555974 0.0150023 0.
0.557976 0.015003 0.
0.559978 0.0150038 0.
0.561981 0.0150047 0.
0.563983 0.0150057 0.
0.565984 0.0150067 0.
0.567986 0.0150073 0.
0.569988 0.0150079 0.
0.571989 0.0150084 0.
0.57399 0.0150092 0.
0.575991 0.01501 0.
0.577992 0.0150107 0.
0.579993 0.015011 0.
0.581995 0.0150112 0.
0.583996 0.0150115 0.
0.585997 0.0150119 0.
0.587998 0.0150122 0.
0.589998 0.0150125 0.
0.591999 0.0150127 0.
0.593999 0.0150129 0.
0.595999 0.0150129 0.
0.598 0.0150128 0.
0.6 0.0150127 0.
0.602 0.015013 0.
0.604 0.0150133 0.
0.606 0.0150135 0.
0.608001 0.0150131 0.
0.610001 0.0150127 0.
0.612002 0.0150123 0.
0.614003 0.0150117 0.
0.616004 0.0150112 0.
0.618006 0.0150107 0.
0.620007 0.0150103 0.
0.622008 0.0150099 0.
0.624009 0.0150091 0.
0.62601 0.0150083 0.
0.628012 0.0150075 0.
0.630013 0.0150068 0.
0.632015 0.0150061 0.
0.634017 0.0150054 0.
0.636019 0.0150046 0.
0.638021 0.0150038 0.
0.640023 0.0150029 0.
0.642026 0.0150019 0.
0.644028 0.0150009 0.
0.646031 0.0149998 0.
0.648035 0.0149987 0.
0.650038 0.0149976 0.
0.652044 0.0149951 0.
0.654051 0.0149926 0.
0.65606 0.0149888 0.
0.658074 0.0149815 0.
0.660088 0.0149742 0.
0.66211 0.0149611 0.
0.66414 0.0149417 0.
0.666169 0.0149223 0.
0.668208 0.0149093 0.
0.670251 0.0148985 0.
0.672293 0.0148873 0.
0.674388 0.0148235 0.
0.676483 0.0147593 0.
0.678587 0.0146869 0.
0.680719 0.014592 0.
0.682851 0.014498 0.
0.685011 0.0144092 0.
0.687187 0.0143214 0.
0.689366 0.0142284 0.
0.691601 0.0140422 0.
0.693844 0.0138529 0.
0.696102 0.0136506 0.
0.698404 0.0134096 0.
0.70071 0.0131735 0.
0.497268 0.0148702 0.
0.499531 0.0150898 0.
0.501788 0.0153498 0.
0.50404 0.0156086 0.
0.506265 0.0158118 0.
0.50848 0.0160063 0.
0.510689 0.0161956 0.
0.512849 0.0162853 0.
0.515009 0.0163699 0.
0.517153 0.0164568 0.
0.519275 0.0165524 0.
0.521396 0.0166484 0.
0.523494 0.0167215 0.
0.525584 0.0167859 0.
0.527673 0.0168498 0.
0.52972 0.0168685 0.
0.531767 0.0168867 0.
0.533809 0.0169055 0.
0.53584 0.016926 0.
0.537871 0.0169465 0.
0.539895 0.0169614 0.
0.541912 0.016971 0.
0.543929 0.0169806 0.
0.54594 0.0169862 0.
0.547949 0.0169904 0.
0.549957 0.0169947 0.
0.551961 0.0169967 0.
0.553965 0.0169987 0.
0.555968 0.0170005 0.
0.557971 0.0170017 0.
0.559974 0.0170029 0.
0.561977 0.0170041 0.
0.563979 0.0170052 0.
0.565981 0.0170063 0.
0.567983 0.0170072 0.
0.569985 0.0170079 0.
0.571987 0.0170086 0.
0.573988 0.0170095 0.
0.575989 0.0170104 0.
0.57799 0.0170113 0.
0.579992 0.0170116 0.
0.581993 0.0170119 0.
0.583994 0.0170123 0.
0.585996 0.0170128 0.
0.587997 0.0170133 0.
0.589998 0.0170137 0.
0.591998 0.0170139 0.
0.593999 0.0170141 0.
0.595999 0.0170143 0.
0.597999 0.0170145 0.
0.6 0.0170146 0.
0.602 0.0170148 0.
0.604 0.0170149 0.
0.606001 0.0170149 0.
0.608002 0.0170143 0.
0.610002 0.0170137 0.
0.612003 0.0170131 0.
0.614005 0.0170124 0.
0.616006 0.0170117 0.
0.618007 0.0170112 0.
0.620009 0.0170107 0.
0.62201 0.0170103 0.
0.624011 0.0170094 0.
0.626012 0.0170085 0.
0.628014 0.0170076 0.
0.630016 0.0170066 0.
0.632018 0.0170057 0.
0.63402 0.0170047 0.
0.636023 0.0170037 0.
0.638025 0.0170026 0.
0.640028 0.0170013 0.
0.642032 0.0169998 0.
0.644035 0.0169983 0.
0.646039 0.016996 0.
0.648044 0.0169934 0.
0.650048 0.0169908 0.
0.652059 0.0169856 0.
0.654069 0.0169804 0.
0.656082 0.0169734 0.
0.658103 0.0169615 0.
0.660124 0.0169497 0.
0.662153 0.0169317 0.
0.66419 0.0169075 0.
0.666227 0.0168833 0.
0.668278 0.0168611 0.
0.670334 0.0168396 0.
0.67239 0.016817 0.
0.674493 0.0167385 0.
0.676597 0.01666 0.
0.678709 0.0165745 0.
0.680844 0.0164718 0.
0.682979 0.0163695 0.
0.685141 0.0162665 0.
0.687318 0.0161628 0.
0.689499 0.0160521 0.
0.691725 0.0158515 0.
0.693956 0.0156464 0.
0.696203 0.0154325 0.
0.69849 0.0151922 0.
0.700783 0.0149587 0.
0.497243 0.0166871 0.
0.499481 0.016892 0.
0.501713 0.0171486 0.
0.503942 0.0174055 0.
0.506153 0.0176188 0.
0.508358 0.017825 0.
0.510557 0.0180265 0.
0.51272 0.0181347 0.
0.514881 0.0182358 0.
0.51703 0.0183367 0.
0.519155 0.0184402 0.
0.52128 0.018544 0.
0.523387 0.0186307 0.
0.525487 0.0187099 0.
0.527586 0.018789 0.
0.529646 0.0188175 0.
0.531705 0.0188449 0.
0.533759 0.0188718 0.
0.535797 0.0188968 0.
0.537835 0.0189219 0.
0.539865 0.018941 0.
0.541888 0.0189542 0.
0.543911 0.0189675 0.
0.545926 0.0189761 0.
0.547937 0.018983 0.
0.549948 0.0189899 0.
0.551953 0.018993 0.
0.553958 0.018996 0.
0.555962 0.0189987 0.
0.557966 0.0190004 0.
0.55997 0.019002 0.
0.561973 0.0190035 0.
0.563976 0.0190048 0.
0.565978 0.019006 0.
0.567981 0.019007 0.
0.569983 0.0190079 0.
0.571985 0.0190087 0.
0.573987 0.0190098 0.
0.575988 0.0190108 0.
0.577989 0.0190118 0.
0.57999 0.0190122 0.
0.581992 0.0190126 0.
0.583993 0.0190131 0.
0.585994 0.0190138 0.
0.587996 0.0190144 0.
0.589997 0.0190149 0.
0.591997 0.0190151 0.
0.593998 0.0190154 0.
0.595999 0.0190157 0.
0.597999 0.0190162 0.
0.6 0.0190166 0.
0.602 0.0190165 0.
0.604001 0.0190165 0.
0.606002 0.0190162 0.
0.608003 0.0190154 0.
0.610004 0.0190146 0.
0.612005 0.0190138 0.
0.614006 0.019013 0.
0.616008 0.0190123 0.
0.618009 0.0190117 0.
0.620011 0.0190112 0.
0.622012 0.0190107 0.
0.624013 0.0190097 0.
0.626015 0.0190087 0.
0.628016 0.0190076 0.
0.630018 0.0190064 0.
0.632021 0.0190053 0.
0.634023 0.019004 0.
0.636026 0.0190028 0.
0.638029 0.0190015 0.
0.640033 0.0189998 0.
0.642037 0.0189978 0.
0.644041 0.0189957 0.
0.646047 0.0189921 0.
0.648053 0.0189881 0.
0.650059 0.018984 0.
0.652073 0.018976 0.
0.654087 0.0189681 0.
0.656104 0.0189579 0.
0.658132 0.0189414 0.
0.66016 0.0189249 0.
0.662196 0.0189021 0.
0.664241 0.0188729 0.
0.666285 0.0188438 0.
0.668349 0.0188118 0.
0.670418 0.0187792 0.
0.67249 0.018744 0.
0.674601 0.0186504 0.
0.676712 0.0185569 0.
0.678832 0.0184584 0.
0.680971 0.0183481 0.
0.683109 0.0182382 0.
0.685272 0.0181196 0.
0.687447 0.0179986 0.
0.689626 0.0178695 0.
0.691839 0.0176595 0.
0.694056 0.0174459 0.
0.696282 0.0172288 0.
0.698538 0.0169962 0.
0.700801 0.0167714 0.
0.497217 0.0185146 0.
0.499432 0.018704 0.
0.501643 0.018956 0.
0.503851 0.0192095 0.
0.50605 0.0194313 0.
0.508245 0.0196475 0.
0.510438 0.0198591 0.
0.512604 0.0199843 0.
0.514767 0.0201011 0.
0.516919 0.0202158 0.
0.519048 0.0203259 0.
0.521177 0.0204361 0.
0.523291 0.0205344 0.
0.525398 0.0206267 0.
0.527505 0.0207189 0.
0.529575 0.0207583 0.
0.531643 0.0207958 0.
0.533706 0.0208318 0.
0.535751 0.0208615 0.
0.537795 0.0208912 0.
0.539832 0.0209149 0.
0.54186 0.0209326 0.
0.543889 0.0209503 0.
0.545907 0.0209624 0.
0.547922 0.0209724 0.
0.549937 0.0209825 0.
0.551943 0.0209871 0.
0.55395 0.0209915 0.
0.555956 0.0209955 0.
0.55796 0.0209978 0.
0.559965 0.0210002 0.
0.561969 0.0210021 0.
0.563972 0.0210035 0.
0.565975 0.0210049 0.
0.567978 0.0210061 0.
0.569981 0.0210072 0.
0.571983 0.0210082 0.
0.573985 0.0210094 0.
0.575986 0.0210106 0.
0.577987 0.0210118 0.
0.579988 0.0210123 0.
0.58199 0.0210129 0.
0.583992 0.0210135 0.
0.585993 0.0210143 0.
0.587995 0.0210151 0.
0.589996 0.0210157 0.
0.591997 0.021016 0.
0.593998 0.0210162 0.
0.595999 0.0210167 0.
0.597999 0.0210173 0.
0.6 0.0210178 0.
0.602001 0.0210176 0.
0.604001 0.0210174 0.
0.606002 0.021017 0.
0.608003 0.0210161 0.
0.610005 0.0210152 0.
0.612006 0.0210143 0.
0.614007 0.0210134 0.
0.616009 0.0210125 0.
0.618011 0.0210118 0.
0.620012 0.0210112 0.
0.622014 0.0210106 0.
0.624015 0.0210094 0.
0.626017 0.0210082 0.
0.628018 0.0210069 0.
0.630021 0.0210055 0.
0.632024 0.0210041 0.
0.634027 0.0210026 0.
0.63603 0.0210011 0.
0.638034 0.0209996 0.
0.640038 0.0209973 0.
0.642044 0.0209944 0.
0.644049 0.0209916 0.
0.646056 0.0209864 0.
0.648064 0.0209807 0.
0.650073 0.0209748 0.
0.652091 0.0209632 0.
0.654109 0.0209516 0.
0.656131 0.0209373 0.
0.658165 0.0209156 0.
0.660199 0.0208939 0.
0.662242 0.0208659 0.
0.664293 0.0208318 0.
0.666344 0.0207978 0.
0.668418 0.0207551 0.
0.670498 0.0207105 0.
0.67258 0.0206622 0.
0.674697 0.0205559 0.
0.676815 0.0204495 0.
0.678942 0.0203402 0.
0.681084 0.0202234 0.
0.683226 0.020107 0.
0.685391 0.0199733 0.
0.687565 0.019836 0.
0.689743 0.0196901 0.
0.691945 0.0194723 0.
0.694149 0.0192514 0.
0.696356 0.0190325 0.
0.698585 0.0188085 0.
0.70082 0.0185926 0.
0.497203 0.0203817 0.
0.499403 0.0205534 0.
0.501603 0.0207962 0.
0.503799 0.021041 0.
0.505989 0.0212639 0.
0.508176 0.0214826 0.
0.510361 0.0216974 0.
0.512524 0.0218353 0.
0.514684 0.0219647 0.
0.516836 0.0220912 0.
0.518966 0.0222063 0.
0.521096 0.0223216 0.
0.523213 0.0224294 0.
0.525323 0.0225332 0.
0.527433 0.0226369 0.
0.529509 0.0226885 0.
0.531582 0.0227377 0.
0.533651 0.0227843 0.
0.535701 0.022819 0.
0.537752 0.0228538 0.
0.539794 0.0228828 0.
0.541828 0.0229057 0.
0.543862 0.0229286 0.
0.545885 0.0229449 0.
0.547903 0.0229588 0.
0.549922 0.0229727 0.
0.551931 0.022979 0.
0.55394 0.0229851 0.
0.555948 0.0229907 0.
0.557954 0.022994 0.
0.55996 0.0229973 0.
0.561965 0.0229999 0.
0.563968 0.0230014 0.
0.565972 0.023003 0.
0.567975 0.0230044 0.
0.569978 0.0230057 0.
0.571981 0.0230071 0.
0.573982 0.0230085 0.
0.575984 0.0230099 0.
0.577985 0.0230112 0.
0.579987 0.023012 0.
0.581988 0.0230128 0.
0.58399 0.0230136 0.
0.585992 0.0230145 0.
0.587994 0.0230154 0.
0.589995 0.0230161 0.
0.591996 0.0230164 0.
0.593997 0.0230168 0.
0.595998 0.0230173 0.
0.597999 0.0230177 0.
0.6 0.0230182 0.
0.602001 0.023018 0.
0.604002 0.0230177 0.
0.606003 0.0230173 0.
0.608004 0.0230164 0.
0.610005 0.0230154 0.
0.612007 0.0230145 0.
0.614009 0.0230135 0.
0.61601 0.0230124 0.
0.618012 0.0230116 0.
0.620014 0.0230108 0.
0.622016 0.02301 0.
0.624017 0.0230085 0.
0.626019 0.023007 0.
0.62802 0.0230055 0.
0.630024 0.0230038 0.
0.632027 0.0230022 0.
0.63403 0.0230005 0.
0.636034 0.0229987 0.
0.638039 0.022997 0.
0.640044 0.0229939 0.
0.642051 0.0229898 0.
0.644058 0.0229858 0.
0.646068 0.0229788 0.
0.648078 0.0229711 0.
0.650089 0.0229631 0.
0.652112 0.0229468 0.
0.654134 0.0229305 0.
0.656162 0.0229111 0.
0.658202 0.0228835 0.
0.660242 0.022856 0.
0.662291 0.0228223 0.
0.664349 0.022783 0.
0.666406 0.0227438 0.
0.668485 0.0226888 0.
0.67057 0.0226305 0.
0.672657 0.0225681 0.
0.674776 0.0224515 0.
0.676896 0.0223348 0.
0.679024 0.0222166 0.
0.681166 0.0220939 0.
0.683307 0.0219716 0.
0.685471 0.0218264 0.
0.687642 0.0216778 0.
0.689816 0.0215217 0.
0.692008 0.0213031 0.
0.694203 0.0210814 0.
0.696398 0.0208662 0.
0.698612 0.020655 0.
0.700831 0.0204524 0.
0.497206 0.0222591 0.
0.499387 0.0224118 0.
0.501572 0.0226418 0.
0.503754 0.0228751 0.
0.505932 0.0230973 0.
0.508109 0.0233179 0.
0.510285 0.0235356 0.
0.512444 0.0236856 0.
0.514602 0.0238278 0.
0.516753 0.0239665 0.
0.518884 0.0240865 0.
0.521015 0.0242069 0.
0.523135 0.0243241 0.
0.525247 0.0244393 0.
0.52736 0.0245545 0.
0.529442 0.0246183 0.
0.531521 0.0246792 0.
0.533595 0.0247367 0.
0.535651 0.0247765 0.
0.537708 0.0248163 0.
0.539756 0.0248506 0.
0.541796 0.0248786 0.
0.543835 0.0249068 0.
0.545862 0.0249274 0.
0.547885 0.0249451 0.
0.549908 0.0249628 0.
0.551919 0.024971 0.
0.55393 0.0249788 0.
0.55594 0.0249859 0.
0.557947 0.0249902 0.
0.559955 0.0249945 0.
0.56196 0.0249976 0.
0.563964 0.0249994 0.
0.565968 0.0250011 0.
0.567972 0.0250027 0.
0.569975 0.0250043 0.
0.571979 0.0250059 0.
0.57398 0.0250075 0.
0.575982 0.0250091 0.
0.577983 0.0250107 0.
0.579985 0.0250117 0.
0.581987 0.0250127 0.
0.583989 0.0250137 0.
0.585991 0.0250147 0.
0.587993 0.0250157 0.
0.589995 0.0250164 0.
0.591996 0.0250169 0.
0.593997 0.0250173 0.
0.595998 0.0250178 0.
0.597999 0.0250182 0.
0.6 0.0250187 0.
0.602001 0.0250184 0.
0.604002 0.025018 0.
0.606003 0.0250175 0.
0.608004 0.0250166 0.
0.610006 0.0250157 0.
0.612007 0.0250146 0.
0.61401 0.0250135 0.
0.616012 0.0250124 0.
0.618014 0.0250113 0.
0.620016 0.0250103 0.
0.622018 0.0250094 0.
0.624019 0.0250076 0.
0.626021 0.0250059 0.
0.628023 0.0250041 0.
0.630026 0.0250022 0.
0.63203 0.0250002 0.
0.634034 0.0249983 0.
0.636039 0.0249963 0.
0.638043 0.0249944 0.
0.64005 0.0249905 0.
0.642058 0.0249852 0.
0.644067 0.0249799 0.
0.646079 0.0249711 0.
0.648092 0.0249614 0.
0.650106 0.0249513 0.
0.652133 0.0249303 0.
0.65416 0.0249094 0.
0.656193 0.0248849 0.
0.658239 0.0248513 0.
0.660285 0.0248179 0.
0.66234 0.0247786 0.
0.664404 0.0247341 0.
0.666468 0.0246897 0.
0.668552 0.0246219 0.
0.670641 0.02455 0.
0.672734 0.0244737 0.
0.674856 0.0243466 0.
0.676977 0.0242196 0.
0.679107 0.0240928 0.
0.681248 0.0239642 0.
0.683389 0.023836 0.
0.685552 0.0236789 0.
0.687719 0.0235191 0.
0.689888 0.0233533 0.
0.692068 0.0231348 0.
0.694249 0.0229141 0.
0.696431 0.0227044 0.
0.698629 0.0225081 0.
0.700832 0.0223204 0.
0.497238 0.0241435 0.
0.499403 0.0242826 0.
0.501572 0.024504 0.
0.503738 0.0247286 0.
0.505904 0.0249488 0.
0.508069 0.0251701 0.
0.510233 0.0253882 0.
0.512387 0.0255466 0.
0.514538 0.0256976 0.
0.516684 0.0258452 0.
0.518813 0.0259693 0.
0.520941 0.0260938 0.
0.52306 0.026217 0.
0.525172 0.0263397 0.
0.527285 0.0264623 0.
0.52937 0.0265374 0.
0.531453 0.0266088 0.
0.533532 0.0266761 0.
0.535593 0.0267201 0.
0.537654 0.0267641 0.
0.539708 0.0268034 0.
0.541753 0.0268374 0.
0.543798 0.0268715 0.
0.54583 0.0268974 0.
0.547858 0.0269201 0.
0.549885 0.0269429 0.
0.5519 0.0269545 0.
0.553915 0.0269656 0.
0.555928 0.0269757 0.
0.557937 0.0269817 0.
0.559947 0.0269876 0.
0.561954 0.0269924 0.
0.563959 0.0269954 0.
0.565964 0.0269983 0.
0.567969 0.0270008 0.
0.569972 0.0270029 0.
0.571976 0.027005 0.
0.573978 0.0270068 0.
0.57598 0.0270086 0.
0.577981 0.0270103 0.
0.579983 0.0270113 0.
0.581985 0.0270122 0.
0.583987 0.0270132 0.
0.58599 0.0270144 0.
0.587992 0.0270155 0.
0.589994 0.0270164 0.
0.591995 0.0270171 0.
0.593997 0.0270177 0.
0.595998 0.0270183 0.
0.597999 0.0270189 0.
0.6 0.0270196 0.
0.602001 0.0270189 0.
0.604002 0.0270183 0.
0.606003 0.0270176 0.
0.608005 0.0270165 0.
0.610007 0.0270155 0.
0.612009 0.0270144 0.
0.614011 0.0270131 0.
0.616013 0.0270119 0.
0.618015 0.0270108 0.
0.620017 0.0270098 0.
0.62202 0.0270088 0.
0.624022 0.0270068 0.
0.626023 0.0270047 0.
0.628026 0.0270026 0.
0.63003 0.0270002 0.
0.632034 0.0269977 0.
0.634038 0.0269948 0.
0.636045 0.0269912 0.
0.638051 0.0269876 0.
0.64006 0.026982 0.
0.64207 0.026975 0.
0.644081 0.026968 0.
0.646097 0.0269555 0.
0.648115 0.0269418 0.
0.650133 0.0269275 0.
0.652165 0.0269008 0.
0.654197 0.0268742 0.
0.656236 0.0268437 0.
0.658287 0.0268038 0.
0.660339 0.026764 0.
0.662399 0.0267198 0.
0.664467 0.0266715 0.
0.666535 0.0266232 0.
0.668624 0.0265442 0.
0.670716 0.0264605 0.
0.672811 0.0263723 0.
0.674932 0.0262391 0.
0.677052 0.0261058 0.
0.679179 0.025973 0.
0.681315 0.0258398 0.
0.683452 0.0257067 0.
0.685609 0.0255419 0.
0.687769 0.0253739 0.
0.689931 0.0252011 0.
0.692098 0.0249843 0.
0.694265 0.0247655 0.
0.696433 0.024562 0.
0.698614 0.0243779 0.
0.700799 0.0242012 0.
0.497303 0.0260566 0.
0.499446 0.0261871 0.
0.501596 0.0263946 0.
0.503743 0.0266042 0.
0.505892 0.0268166 0.
0.508043 0.0270345 0.
0.510193 0.0272496 0.
0.512338 0.0274125 0.
0.51448 0.0275689 0.
0.516619 0.0277231 0.
0.518744 0.0278513 0.
0.520868 0.0279798 0.
0.522985 0.0281086 0.
0.525097 0.0282386 0.
0.527208 0.0283687 0.
0.529298 0.0284548 0.
0.531385 0.0285368 0.
0.533468 0.0286141 0.
0.535534 0.0286624 0.
0.5376 0.0287108 0.
0.539659 0.0287552 0.
0.541709 0.0287953 0.
0.54376 0.0288356 0.
0.545798 0.0288671 0.
0.54783 0.0288949 0.
0.549862 0.0289228 0.
0.551881 0.0289378 0.
0.553899 0.0289523 0.
0.555916 0.0289655 0.
0.557927 0.0289731 0.
0.559939 0.0289808 0.
0.561948 0.0289871 0.
0.563954 0.0289913 0.
0.56596 0.0289956 0.
0.567965 0.0289988 0.
0.569969 0.0290015 0.
0.571973 0.0290041 0.
0.573975 0.0290062 0.
0.575977 0.0290082 0.
0.577979 0.02901 0.
0.579982 0.0290109 0.
0.581984 0.0290118 0.
0.583986 0.0290128 0.
0.585989 0.029014 0.
0.587991 0.0290153 0.
0.589993 0.0290164 0.
0.591994 0.0290173 0.
0.593996 0.0290181 0.
0.595997 0.0290189 0.
0.597999 0.0290197 0.
0.6 0.0290204 0.
0.602001 0.0290195 0.
0.604002 0.0290186 0.
0.606004 0.0290176 0.
0.608006 0.0290165 0.
0.610008 0.0290153 0.
0.61201 0.0290141 0.
0.614012 0.0290128 0.
0.616014 0.0290114 0.
0.618017 0.0290103 0.
0.620019 0.0290093 0.
0.622022 0.0290083 0.
0.624024 0.029006 0.
0.626026 0.0290036 0.
0.628029 0.0290012 0.
0.630033 0.0289982 0.
0.632037 0.0289952 0.
0.634043 0.0289914 0.
0.636051 0.0289861 0.
0.638058 0.0289808 0.
0.640069 0.0289735 0.
0.642083 0.0289647 0.
0.644096 0.028956 0.
0.646116 0.0289398 0.
0.648138 0.028922 0.
0.65016 0.0289034 0.
0.652197 0.0288709 0.
0.654235 0.0288385 0.
0.656279 0.0288017 0.
0.658336 0.0287553 0.
0.660394 0.028709 0.
0.66246 0.0286597 0.
0.664531 0.0286074 0.
0.666603 0.0285551 0.
0.668696 0.0284644 0.
0.670791 0.0283688 0.
0.67289 0.0282691 0.
0.675008 0.0281303 0.
0.677126 0.0279915 0.
0.679249 0.0278531 0.
0.68138 0.0277152 0.
0.683511 0.0275772 0.
0.685657 0.0274084 0.
0.687806 0.0272372 0.
0.689956 0.027062 0.
0.692107 0.0268503 0.
0.69426 0.0266371 0.
0.696409 0.0264458 0.
0.698568 0.0262799 0.
0.700732 0.0261198 0.
0.497367 0.0279769 0.
0.499486 0.0280983 0.
0.501617 0.0282903 0.
0.503746 0.028484 0.
0.50588 0.0286882 0.
0.508018 0.0289022 0.
0.510156 0.0291139 0.
0.512292 0.0292812 0.
0.514426 0.0294431 0.
0.516559 0.0296037 0.
0.51868 0.0297358 0.
0.520801 0.0298678 0.
0.522917 0.0300015 0.
0.525029 0.030138 0.
0.52714 0.0302742 0.
0.529234 0.0303703 0.
0.531324 0.0304623 0.
0.533411 0.0305496 0.
0.53548 0.030602 0.
0.53755 0.0306545 0.
0.539613 0.0307038 0.
0.541668 0.0307498 0.
0.543722 0.030796 0.
0.545765 0.0308329 0.
0.547801 0.0308657 0.
0.549838 0.0308986 0.
0.55186 0.0309177 0.
0.553881 0.0309361 0.
0.555901 0.0309528 0.
0.557915 0.0309625 0.
0.559929 0.0309722 0.
0.56194 0.0309803 0.
0.563948 0.030986 0.
0.565956 0.0309916 0.
0.567961 0.0309959 0.
0.569966 0.0309993 0.
0.571971 0.0310027 0.
0.573973 0.031005 0.
0.575975 0.0310072 0.
0.577977 0.0310092 0.
0.57998 0.0310102 0.
0.581982 0.0310112 0.
0.583985 0.0310123 0.
0.585987 0.0310136 0.
0.58799 0.031015 0.
0.589992 0.0310161 0.
0.591994 0.0310172 0.
0.593995 0.0310182 0.
0.595997 0.031019 0.
0.597998 0.0310199 0.
0.6 0.0310207 0.
0.602001 0.0310196 0.
0.604003 0.0310185 0.
0.606005 0.0310174 0.
0.608007 0.0310161 0.
0.610009 0.0310149 0.
0.612011 0.0310136 0.
0.614013 0.0310122 0.
0.616016 0.0310108 0.
0.618018 0.0310095 0.
0.620021 0.0310084 0.
0.622024 0.0310072 0.
0.624026 0.0310046 0.
0.626029 0.0310019 0.
0.628032 0.030999 0.
0.630037 0.0309951 0.
0.632042 0.0309913 0.
0.634049 0.0309863 0.
0.636058 0.0309794 0.
0.638067 0.0309725 0.
0.640081 0.0309631 0.
0.642097 0.0309521 0.
0.644113 0.030941 0.
0.646137 0.0309208 0.
0.648162 0.0308986 0.
0.650188 0.0308754 0.
0.65223 0.0308372 0.
0.654272 0.0307991 0.
0.656321 0.0307562 0.
0.658383 0.0307035 0.
0.660445 0.0306509 0.
0.662514 0.0305969 0.
0.664589 0.0305407 0.
0.666664 0.0304846 0.
0.66876 0.0303826 0.
0.670859 0.030276 0.
0.672961 0.030166 0.
0.675077 0.0300228 0.
0.677194 0.0298792 0.
0.679315 0.0297357 0.
0.68144 0.0295932 0.
0.683566 0.0294504 0.
0.685703 0.0292779 0.
0.687841 0.0291037 0.
0.68998 0.0289262 0.
0.692118 0.0287198 0.
0.694257 0.0285123 0.
0.696388 0.0283336 0.
0.698525 0.0281868 0.
0.700667 0.0280443 0.
0.497407 0.0299203 0.
0.499511 0.0300321 0.
0.501631 0.0302089 0.
0.503748 0.0303871 0.
0.505872 0.0305814 0.
0.508002 0.0307894 0.
0.510131 0.0309956 0.
0.51226 0.0311643 0.
0.514389 0.0313277 0.
0.516516 0.0314901 0.
0.518634 0.0316248 0.
0.520753 0.0317593 0.
0.522867 0.0318961 0.
0.524977 0.032036 0.
0.527088 0.0321757 0.
0.529183 0.0322814 0.
0.531275 0.0323837 0.
0.533365 0.0324813 0.
0.535435 0.0325375 0.
0.537505 0.0325937 0.
0.53957 0.0326476 0.
0.541628 0.0326995 0.
0.543686 0.0327516 0.
0.545731 0.0327941 0.
0.547771 0.032832 0.
0.549812 0.03287 0.
0.551837 0.0328938 0.
0.553862 0.0329167 0.
0.555885 0.0329376 0.
0.557901 0.0329497 0.
0.559917 0.0329619 0.
0.561931 0.0329719 0.
0.56394 0.0329792 0.
0.56595 0.0329864 0.
0.567957 0.0329919 0.
0.569962 0.0329964 0.
0.571968 0.0330009 0.
0.573971 0.0330034 0.
0.575973 0.0330057 0.
0.577976 0.0330078 0.
0.579979 0.0330091 0.
0.581981 0.0330104 0.
0.583984 0.0330117 0.
0.585986 0.0330131 0.
0.587989 0.0330144 0.
0.589991 0.0330157 0.
0.591992 0.0330168 0.
0.593994 0.0330179 0.
0.595996 0.0330188 0.
0.597998 0.0330197 0.
0.6 0.0330206 0.
0.602002 0.0330193 0.
0.604004 0.0330181 0.
0.606006 0.0330169 0.
0.608008 0.0330155 0.
0.61001 0.0330142 0.
0.612012 0.0330128 0.
0.614014 0.0330114 0.
0.616017 0.03301 0.
0.61802 0.0330085 0.
0.620023 0.0330069 0.
0.622025 0.0330054 0.
0.624029 0.0330025 0.
0.626032 0.0329995 0.
0.628035 0.0329961 0.
0.630042 0.0329911 0.
0.632048 0.032986 0.
0.634056 0.0329797 0.
0.636067 0.0329711 0.
0.638078 0.0329625 0.
0.640094 0.0329507 0.
0.642113 0.0329368 0.
0.644132 0.0329229 0.
0.646159 0.0328982 0.
0.648188 0.0328711 0.
0.650218 0.032843 0.
0.652264 0.0327989 0.
0.654309 0.032755 0.
0.656361 0.0327061 0.
0.658425 0.0326471 0.
0.660489 0.0325884 0.
0.66256 0.0325297 0.
0.664636 0.0324696 0.
0.666712 0.0324096 0.
0.66881 0.0322967 0.
0.67091 0.0321795 0.
0.673013 0.0320606 0.
0.675128 0.0319152 0.
0.677243 0.0317694 0.
0.679362 0.0316238 0.
0.681484 0.0314793 0.
0.683606 0.0313341 0.
0.685736 0.0311612 0.
0.687866 0.0309869 0.
0.689997 0.0308097 0.
0.692126 0.0306104 0.
0.694255 0.0304103 0.
0.696374 0.0302429 0.
0.698498 0.0301107 0.
0.700625 0.0299826 0.
0.497452 0.0318779 0.
0.499547 0.0319788 0.
0.501653 0.032138 0.
0.503757 0.0322985 0.
0.50587 0.0324808 0.
0.507989 0.0326809 0.
0.510109 0.03288 0.
0.512231 0.0330487 0.
0.514353 0.0332126 0.
0.516473 0.0333761 0.
0.518589 0.0335136 0.
0.520704 0.0336507 0.
0.522816 0.0337905 0.
0.524926 0.0339339 0.
0.527036 0.0340771 0.
0.529132 0.0341921 0.
0.531226 0.0343047 0.
0.533318 0.0344129 0.
0.53539 0.0344729 0.
0.537461 0.0345329 0.
0.539528 0.0345913 0.
0.541588 0.0346491 0.
0.543649 0.0347072 0.
0.545698 0.0347552 0.
0.547742 0.0347982 0.
0.549785 0.0348413 0.
0.551814 0.0348698 0.
0.553842 0.0348973 0.
0.555868 0.0349224 0.
0.557887 0.0349369 0.
0.559906 0.0349514 0.
0.561922 0.0349636 0.
0.563933 0.0349724 0.
0.565944 0.0349812 0.
0.567952 0.0349879 0.
0.569959 0.0349934 0.
0.571965 0.034999 0.
0.573969 0.0350018 0.
0.575972 0.0350042 0.
0.577974 0.0350065 0.
0.579977 0.0350081 0.
0.58198 0.0350097 0.
0.583983 0.0350112 0.
0.585985 0.0350126 0.
0.587987 0.0350139 0.
0.58999 0.0350152 0.
0.591991 0.0350164 0.
0.593993 0.0350176 0.
0.595995 0.0350185 0.
0.597998 0.0350195 0.
0.6 0.0350204 0.
0.602002 0.035019 0.
0.604005 0.0350177 0.
0.606007 0.0350164 0.
0.608009 0.0350149 0.
0.610011 0.0350135 0.
0.612013 0.0350121 0.
0.614016 0.0350106 0.
0.616018 0.0350092 0.
0.618021 0.0350074 0.
0.620024 0.0350055 0.
0.622027 0.0350037 0.
0.624031 0.0350004 0.
0.626035 0.034997 0.
0.628039 0.0349933 0.
0.630046 0.034987 0.
0.632053 0.0349807 0.
0.634063 0.034973 0.
0.636076 0.0349627 0.
0.638089 0.0349524 0.
0.640107 0.0349383 0.
0.642129 0.0349215 0.
0.644151 0.0349048 0.
0.646182 0.0348755 0.
0.648214 0.0348436 0.
0.650247 0.0348104 0.
0.652297 0.0347606 0.
0.654346 0.0347109 0.
0.656401 0.0346558 0.
0.658467 0.0345906 0.
0.660533 0.0345257 0.
0.662606 0.0344624 0.
0.664683 0.0343984 0.
0.66676 0.0343343 0.
0.66886 0.0342105 0.
0.670961 0.0340827 0.
0.673065 0.033955 0.
0.675179 0.0338074 0.
0.677292 0.0336595 0.
0.679408 0.0335117 0.
0.681526 0.0333655 0.
0.683645 0.0332184 0.
0.685767 0.0330459 0.
0.687889 0.0328729 0.
0.690012 0.0326976 0.
0.692129 0.0325075 0.
0.694246 0.0323172 0.
0.696353 0.0321617 0.
0.698464 0.0320428 0.
0.700579 0.0319272 0.
0.497511 0.0338292 0.
0.499596 0.033923 0.
0.50169 0.0340689 0.
0.503783 0.0342157 0.
0.505885 0.0343883 0.
0.507995 0.0345822 0.
0.510104 0.0347751 0.
0.512219 0.0349432 0.
0.514334 0.0351072 0.
0.516448 0.0352713 0.
0.51856 0.0354112 0.
0.520671 0.0355505 0.
0.52278 0.0356923 0.
0.524886 0.0358376 0.
0.526992 0.0359826 0.
0.529087 0.0361043 0.
0.53118 0.0362245 0.
0.533271 0.0363403 0.
0.535344 0.036404 0.
0.537416 0.0364677 0.
0.539484 0.0365301 0.
0.541546 0.0365925 0.
0.543608 0.036655 0.
0.54566 0.0367079 0.
0.547707 0.0367558 0.
0.549754 0.0368039 0.
0.551787 0.0368373 0.
0.553818 0.0368696 0.
0.555847 0.0368993 0.
0.557869 0.0369167 0.
0.559891 0.0369341 0.
0.561909 0.036949 0.
0.563922 0.0369604 0.
0.565936 0.0369718 0.
0.567946 0.0369804 0.
0.569953 0.0369874 0.
0.571961 0.0369945 0.
0.573965 0.0369982 0.
0.575969 0.0370013 0.
0.577973 0.0370044 0.
0.579976 0.0370064 0.
0.581979 0.0370083 0.
0.583982 0.0370101 0.
0.585984 0.0370117 0.
0.587987 0.0370132 0.
0.589989 0.0370146 0.
0.591991 0.0370159 0.
0.593993 0.0370172 0.
0.595995 0.037018 0.
0.597998 0.0370187 0.
0.6 0.0370194 0.
0.602002 0.0370183 0.
0.604005 0.0370171 0.
0.606007 0.0370159 0.
0.608009 0.0370144 0.
0.610011 0.037013 0.
0.612014 0.0370114 0.
0.614016 0.0370096 0.
0.616019 0.0370079 0.
0.618022 0.0370057 0.
0.620026 0.0370032 0.
0.622029 0.0370008 0.
0.624034 0.0369967 0.
0.626038 0.0369924 0.
0.628044 0.0369877 0.
0.630053 0.0369796 0.
0.632062 0.0369715 0.
0.634073 0.0369616 0.
0.636089 0.0369484 0.
0.638104 0.0369352 0.
0.640126 0.0369181 0.
0.642151 0.0368983 0.
0.644176 0.0368786 0.
0.64621 0.0368442 0.
0.648245 0.036807 0.
0.650282 0.0367683 0.
0.652335 0.0367132 0.
0.654388 0.0366582 0.
0.656445 0.0365982 0.
0.658511 0.0365292 0.
0.660578 0.0364602 0.
0.662652 0.0363921 0.
0.66473 0.0363234 0.
0.666808 0.0362542 0.
0.668906 0.0361241 0.
0.671005 0.0359897 0.
0.673106 0.0358561 0.
0.675216 0.0357073 0.
0.677326 0.0355581 0.
0.679438 0.035409 0.
0.681552 0.0352615 0.
0.683666 0.0351129 0.
0.68578 0.0349412 0.
0.687894 0.0347692 0.
0.690008 0.0345957 0.
0.692114 0.0344134 0.
0.69422 0.0342313 0.
0.696317 0.0340855 0.
0.698416 0.0339775 0.
0.70052 0.0338722 0.
0.497579 0.0357921 0.
0.499655 0.0358805 0.
0.50174 0.0360144 0.
0.503823 0.0361486 0.
0.505916 0.0363114 0.
0.508017 0.036497 0.
0.510117 0.0366816 0.
0.512224 0.036847 0.
0.51433 0.0370092 0.
0.516437 0.037172 0.
0.518542 0.0373131 0.
0.520647 0.0374537 0.
0.52275 0.0375966 0.
0.52485 0.0377426 0.
0.52695 0.0378883 0.
0.529043 0.0380158 0.
0.531134 0.0381429 0.
0.533223 0.0382656 0.
0.535297 0.0383336 0.
0.53737 0.0384014 0.
0.53944 0.0384683 0.
0.541503 0.038535 0.
0.543567 0.0386019 0.
0.545622 0.0386598 0.
0.547672 0.0387127 0.
0.549723 0.0387658 0.
0.551759 0.0388043 0.
0.553793 0.0388416 0.
0.555826 0.038876 0.
0.55785 0.0388963 0.
0.559875 0.0389166 0.
0.561896 0.0389344 0.
0.563912 0.0389483 0.
0.565928 0.0389623 0.
0.567939 0.0389728 0.
0.569948 0.0389814 0.
0.571957 0.03899 0.
0.573962 0.0389946 0.
0.575967 0.0389985 0.
0.577971 0.0390023 0.
0.579974 0.0390046 0.
0.581978 0.0390069 0.
0.583981 0.0390091 0.
0.585984 0.0390108 0.
0.587986 0.0390125 0.
0.589989 0.0390141 0.
0.591991 0.0390154 0.
0.593993 0.0390168 0.
0.595995 0.0390175 0.
0.597998 0.039018 0.
0.6 0.0390185 0.
0.602002 0.0390175 0.
0.604005 0.0390165 0.
0.606007 0.0390154 0.
0.608009 0.039014 0.
0.610012 0.0390125 0.
0.612014 0.0390107 0.
0.614017 0.0390087 0.
0.61602 0.0390066 0.
0.618024 0.0390039 0.
0.620028 0.0390009 0.
0.622032 0.0389979 0.
0.624037 0.038993 0.
0.626042 0.0389878 0.
0.628049 0.038982 0.
0.630059 0.0389721 0.
0.63207 0.0389623 0.
0.634083 0.0389501 0.
0.636101 0.038934 0.
0.63812 0.0389179 0.
0.640144 0.0388977 0.
0.642172 0.0388749 0.
0.6442 0.0388521 0.
0.646238 0.0388125 0.
0.648277 0.0387697 0.
0.650318 0.0387254 0.
0.652374 0.0386648 0.
0.654429 0.0386045 0.
0.656489 0.0385396 0.
0.658556 0.0384669 0.
0.660623 0.0383943 0.
0.662698 0.0383209 0.
0.664778 0.0382465 0.
0.666857 0.0381714 0.
0.668951 0.0380362 0.
0.671046 0.037897 0.
0.673144 0.0377592 0.
0.675247 0.0376097 0.
0.67735 0.0374599 0.
0.679456 0.0373105 0.
0.681562 0.0371629 0.
0.683669 0.0370142 0.
0.685776 0.0368456 0.
0.687882 0.0366769 0.
0.689986 0.0365073 0.
0.692084 0.0363344 0.
0.694181 0.036162 0.
0.696268 0.0360247 0.
0.698358 0.0359253 0.
0.700452 0.0358281 0.
0.497644 0.0377613 0.
0.499712 0.0378435 0.
0.501788 0.0379641 0.
0.503862 0.0380848 0.
0.505945 0.038237 0.
0.508037 0.0384136 0.
0.51013 0.0385898 0.
0.512229 0.0387528 0.
0.514328 0.0389132 0.
0.516428 0.0390748 0.
0.518526 0.0392172 0.
0.520625 0.0393591 0.
0.522722 0.0395031 0.
0.524817 0.0396498 0.
0.526912 0.0397963 0.
0.529003 0.0399287 0.
0.531092 0.0400617 0.
0.53318 0.0401905 0.
0.535255 0.040263 0.
0.53733 0.040335 0.
0.5394 0.0404061 0.
0.541465 0.0404767 0.
0.54353 0.0405473 0.
0.545587 0.0406098 0.
0.54764 0.0406677 0.
0.549694 0.0407257 0.
0.551732 0.0407693 0.
0.553769 0.0408115 0.
0.555805 0.0408507 0.
0.557831 0.0408739 0.
0.559858 0.0408972 0.
0.561882 0.0409178 0.
0.5639 0.0409343 0.
0.565918 0.0409508 0.
0.567931 0.0409635 0.
0.569942 0.0409739 0.
0.571952 0.0409844 0.
0.573958 0.04099 0.
0.575963 0.0409949 0.
0.577969 0.0409996 0.
0.579972 0.0410024 0.
0.581976 0.0410051 0.
0.58398 0.0410076 0.
0.585983 0.0410096 0.
0.587986 0.0410115 0.
0.589988 0.0410132 0.
0.59199 0.0410147 0.
0.593993 0.0410162 0.
0.595995 0.0410168 0.
0.597998 0.0410172 0.
0.6 0.0410175 0.
0.602002 0.0410166 0.
0.604005 0.0410157 0.
0.606007 0.0410146 0.
0.60801 0.041013 0.
0.610012 0.0410115 0.
0.612015 0.0410095 0.
0.614018 0.0410071 0.
0.616021 0.0410047 0.
0.618025 0.0410015 0.
0.62003 0.0409979 0.
0.622035 0.0409943 0.
0.624041 0.0409883 0.
0.626047 0.040982 0.
0.628055 0.0409749 0.
0.630067 0.040963 0.
0.632079 0.040951 0.
0.634095 0.0409365 0.
0.636116 0.0409175 0.
0.638136 0.0408985 0.
0.640163 0.0408753 0.
0.642194 0.0408493 0.
0.644225 0.0408233 0.
0.646265 0.0407785 0.
0.648307 0.0407303 0.
0.650351 0.0406804 0.
0.652409 0.0406148 0.
0.654467 0.0405494 0.
0.656528 0.0404801 0.
0.658596 0.0404043 0.
0.660664 0.0403286 0.
0.66274 0.0402499 0.
0.664821 0.0401698 0.
0.666901 0.0400887 0.
0.668993 0.0399493 0.
0.671084 0.0398058 0.
0.673178 0.0396644 0.
0.675275 0.0395142 0.
0.677373 0.0393637 0.
0.679473 0.0392139 0.
0.681572 0.039066 0.
0.683673 0.0389172 0.
0.685772 0.0387515 0.
0.68787 0.0385862 0.
0.689967 0.0384208 0.
0.692055 0.038258 0.
0.694144 0.0380961 0.
0.696222 0.0379678 0.
0.698302 0.0378768 0.
0.700386 0.0377876 0.
0.497693 0.0397324 0.
0.499755 0.0398092 0.
0.501823 0.0399195 0.
0.503891 0.0400302 0.
0.505967 0.0401738 0.
0.508053 0.0403425 0.
0.510139 0.0405112 0.
0.512232 0.0406714 0.
0.514325 0.0408297 0.
0.516419 0.0409893 0.
0.518513 0.0411318 0.
0.520607 0.0412738 0.
0.522701 0.0414175 0.
0.524793 0.0415638 0.
0.526886 0.0417098 0.
0.528974 0.0418447 0.
0.531062 0.0419809 0.
0.533149 0.0421132 0.
0.535224 0.0421907 0.
0.537299 0.0422675 0.
0.53937 0.042343 0.
0.541436 0.0424165 0.
0.543501 0.0424901 0.
0.545559 0.0425569 0.
0.547613 0.0426197 0.
0.549667 0.0426826 0.
0.551708 0.0427315 0.
0.553746 0.0427788 0.
0.555783 0.0428229 0.
0.557812 0.0428492 0.
0.559841 0.0428756 0.
0.561866 0.042899 0.
0.563886 0.042918 0.
0.565907 0.0429371 0.
0.567922 0.0429521 0.
0.569934 0.0429649 0.
0.571946 0.0429776 0.
0.573953 0.0429845 0.
0.57596 0.0429905 0.
0.577966 0.0429963 0.
0.57997 0.0429995 0.
0.581975 0.0430028 0.
0.583979 0.0430057 0.
0.585982 0.043008 0.
0.587985 0.0430103 0.
0.589988 0.0430121 0.
0.59199 0.0430137 0.
0.593993 0.0430152 0.
0.595995 0.0430159 0.
0.597997 0.0430163 0.
0.6 0.0430167 0.
0.602002 0.0430156 0.
0.604005 0.0430146 0.
0.606008 0.0430134 0.
0.60801 0.0430117 0.
0.610013 0.04301 0.
0.612016 0.0430078 0.
0.61402 0.043005 0.
0.616023 0.0430022 0.
0.618028 0.0429985 0.
0.620033 0.0429943 0.
0.622038 0.0429901 0.
0.624046 0.0429827 0.
0.626053 0.0429749 0.
0.628062 0.0429663 0.
0.630076 0.0429519 0.
0.63209 0.0429375 0.
0.634108 0.0429204 0.
0.636131 0.0428986 0.
0.638154 0.0428768 0.
0.640183 0.0428504 0.
0.642216 0.042821 0.
0.644248 0.0427916 0.
0.64629 0.0427414 0.
0.648334 0.0426876 0.
0.650379 0.0426322 0.
0.652438 0.042562 0.
0.654497 0.042492 0.
0.656559 0.0424188 0.
0.658628 0.0423405 0.
0.660696 0.0422623 0.
0.662772 0.0421786 0.
0.664851 0.0420929 0.
0.666931 0.0420061 0.
0.669021 0.0418646 0.
0.671112 0.0417193 0.
0.673203 0.0415765 0.
0.675298 0.0414267 0.
0.677392 0.0412766 0.
0.679487 0.0411276 0.
0.681582 0.0409804 0.
0.683677 0.0408321 0.
0.68577 0.0406697 0.
0.687862 0.0405083 0.
0.689953 0.0403472 0.
0.692034 0.0401927 0.
0.694115 0.0400395 0.
0.696186 0.0399183 0.
0.698259 0.0398341 0.
0.700336 0.0397514 0.
0.497746 0.0417047 0.
0.499804 0.0417763 0.
0.501867 0.0418788 0.
0.503928 0.0419817 0.
0.505997 0.0421174 0.
0.508074 0.0422771 0.
0.510152 0.0424374 0.
0.512237 0.0425939 0.
0.514324 0.0427489 0.
0.516412 0.0429056 0.
0.518501 0.0430476 0.
0.520589 0.043189 0.
0.522679 0.043332 0.
0.524769 0.0434779 0.
0.526859 0.0436234 0.
0.528946 0.0437607 0.
0.531032 0.0439 0.
0.533118 0.0440358 0.
0.535193 0.0441183 0.
0.537268 0.0441999 0.
0.53934 0.0442798 0.
0.541406 0.0443563 0.
0.543472 0.0444329 0.
0.545531 0.044504 0.
0.547586 0.0445716 0.
0.549641 0.0446395 0.
0.551683 0.0446936 0.
0.553723 0.0447461 0.
0.555762 0.0447952 0.
0.557793 0.0448245 0.
0.559823 0.0448539 0.
0.561851 0.0448802 0.
0.563873 0.0449018 0.
0.565895 0.0449234 0.
0.567912 0.0449408 0.
0.569926 0.0449558 0.
0.57194 0.0449709 0.
0.573948 0.044979 0.
0.575956 0.0449861 0.
0.577963 0.0449929 0.
0.579968 0.0449967 0.
0.581973 0.0450005 0.
0.583978 0.0450039 0.
0.585981 0.0450064 0.
0.587984 0.045009 0.
0.589987 0.045011 0.
0.59199 0.0450126 0.
0.593992 0.0450143 0.
0.595995 0.045015 0.
0.597997 0.0450154 0.
0.6 0.0450158 0.
0.602003 0.0450146 0.
0.604005 0.0450135 0.
0.606008 0.0450122 0.
0.608011 0.0450104 0.
0.610014 0.0450086 0.
0.612017 0.0450061 0.
0.614021 0.045003 0.
0.616025 0.0449998 0.
0.61803 0.0449955 0.
0.620036 0.0449906 0.
0.622042 0.0449858 0.
0.62405 0.044977 0.
0.626059 0.0449679 0.
0.628069 0.0449577 0.
0.630085 0.0449409 0.
0.632101 0.044924 0.
0.634121 0.0449043 0.
0.636146 0.0448797 0.
0.638172 0.044855 0.
0.640203 0.0448254 0.
0.642237 0.0447927 0.
0.644272 0.04476 0.
0.646315 0.0447043 0.
0.648361 0.0446449 0.
0.650407 0.0445839 0.
0.652467 0.0445091 0.
0.654527 0.0444344 0.
0.656591 0.0443574 0.
0.658659 0.0442767 0.
0.660728 0.044196 0.
0.662804 0.0441073 0.
0.664882 0.0440159 0.
0.666961 0.0439233 0.
0.66905 0.0437799 0.
0.671139 0.0436328 0.
0.673228 0.0434887 0.
0.675319 0.0433395 0.
0.67741 0.04319 0.
0.6795 0.0430424 0.
0.681589 0.0428965 0.
0.683679 0.0427498 0.
0.685765 0.0425914 0.
0.687849 0.0424347 0.
0.689932 0.0422787 0.
0.692005 0.042133 0.
0.694077 0.041989 0.
0.696141 0.0418742 0.
0.698209 0.0417951 0.
0.700281 0.0417172 0.
0.497806 0.0436707 0.
0.499861 0.0437399 0.
0.501918 0.0438372 0.
0.503974 0.0439345 0.
0.506036 0.0440641 0.
0.508105 0.0442168 0.
0.510174 0.0443701 0.
0.512253 0.0445227 0.
0.514333 0.044674 0.
0.516414 0.0448278 0.
0.518499 0.0449694 0.
0.520584 0.0451105 0.
0.52267 0.045253 0.
0.524757 0.0453985 0.
0.526843 0.0455436 0.
0.528927 0.0456824 0.
0.531011 0.0458237 0.
0.533093 0.0459614 0.
0.535167 0.0460479 0.
0.537241 0.0461334 0.
0.539312 0.0462169 0.
0.541377 0.0462959 0.
0.543442 0.0463749 0.
0.545501 0.0464494 0.
0.547557 0.0465209 0.
0.549613 0.0465926 0.
0.551656 0.0466515 0.
0.553698 0.0467088 0.
0.555739 0.0467625 0.
0.557771 0.0467944 0.
0.559803 0.0468264 0.
0.561833 0.0468555 0.
0.563857 0.0468799 0.
0.565881 0.0469043 0.
0.5679 0.0469244 0.
0.569916 0.0469419 0.
0.571932 0.0469593 0.
0.573942 0.0469696 0.
0.575951 0.0469787 0.
0.577959 0.0469873 0.
0.579965 0.0469922 0.
0.581971 0.046997 0.
0.583976 0.0470013 0.
0.58598 0.0470044 0.
0.587983 0.0470074 0.
0.589986 0.0470098 0.
0.591989 0.0470116 0.
0.593992 0.0470133 0.
0.595995 0.0470142 0.
0.597997 0.0470147 0.
0.6 0.0470152 0.
0.602003 0.0470139 0.
0.604006 0.0470125 0.
0.606009 0.047011 0.
0.608012 0.0470089 0.
0.610015 0.0470069 0.
0.612018 0.047004 0.
0.614023 0.0470001 0.
0.616027 0.0469963 0.
0.618033 0.0469909 0.
0.62004 0.0469849 0.
0.622047 0.0469789 0.
0.624057 0.0469681 0.
0.626067 0.0469568 0.
0.628079 0.0469444 0.
0.630097 0.0469246 0.
0.632116 0.0469049 0.
0.634137 0.0468822 0.
0.636165 0.0468546 0.
0.638193 0.046827 0.
0.640225 0.0467945 0.
0.642261 0.0467591 0.
0.644297 0.0467238 0.
0.646343 0.0466631 0.
0.64839 0.0465986 0.
0.650438 0.0465325 0.
0.652498 0.0464542 0.
0.654558 0.046376 0.
0.656621 0.046296 0.
0.658689 0.046213 0.
0.660757 0.0461302 0.
0.66283 0.0460377 0.
0.664907 0.0459423 0.
0.666984 0.0458456 0.
0.669069 0.0457009 0.
0.671155 0.0455528 0.
0.673241 0.045408 0.
0.675328 0.0452595 0.
0.677415 0.0451105 0.
0.679501 0.0449641 0.
0.681585 0.0448194 0.
0.683669 0.0446742 0.
0.685748 0.0445196 0.
0.687826 0.0443671 0.
0.689901 0.0442156 0.
0.691966 0.0440771 0.
0.694031 0.0439405 0.
0.696089 0.0438308 0.
0.698152 0.0437558 0.
0.700219 0.0436819 0.
0.497871 0.0456431 0.
0.499922 0.0457099 0.
0.501975 0.0458019 0.
0.504026 0.0458941 0.
0.506083 0.0460189 0.
0.508146 0.0461656 0.
0.51021 0.0463127 0.
0.512282 0.0464604 0.
0.514357 0.046607 0.
0.516432 0.0467566 0.
0.518512 0.0468972 0.
0.520591 0.0470373 0.
0.522671 0.0471787 0.
0.524753 0.0473232 0.
0.526833 0.0474673 0.
0.528913 0.0476067 0.
0.530992 0.0477489 0.
0.533071 0.0478876 0.
0.535142 0.0479778 0.
0.537214 0.0480669 0.
0.539283 0.0481538 0.
0.541347 0.0482351 0.
0.543411 0.0483165 0.
0.54547 0.0483942 0.
0.547527 0.0484695 0.
0.549583 0.0485451 0.
0.551629 0.0486088 0.
0.553673 0.048671 0.
0.555716 0.0487294 0.
0.557749 0.048764 0.
0.559783 0.0487987 0.
0.561814 0.0488306 0.
0.563841 0.0488578 0.
0.565867 0.0488851 0.
0.567888 0.0489078 0.
0.569906 0.0489278 0.
0.571924 0.0489478 0.
0.573935 0.0489601 0.
0.575946 0.0489712 0.
0.577955 0.0489818 0.
0.579962 0.0489877 0.
0.581968 0.0489935 0.
0.583974 0.0489987 0.
0.585978 0.0490023 0.
0.587982 0.0490059 0.
0.589986 0.0490086 0.
0.591989 0.0490105 0.
0.593992 0.0490124 0.
0.595995 0.0490134 0.
0.597997 0.049014 0.
0.6 0.0490146 0.
0.602003 0.0490131 0.
0.604006 0.0490115 0.
0.606009 0.0490098 0.
0.608012 0.0490075 0.
0.610016 0.0490052 0.
0.61202 0.0490018 0.
0.614025 0.0489973 0.
0.61603 0.0489927 0.
0.618037 0.0489864 0.
0.620044 0.0489792 0.
0.622052 0.048972 0.
0.624064 0.0489591 0.
0.626076 0.0489457 0.
0.628089 0.048931 0.
0.630109 0.0489083 0.
0.63213 0.0488856 0.
0.634154 0.0488599 0.
0.636184 0.0488292 0.
0.638214 0.0487986 0.
0.640248 0.0487633 0.
0.642286 0.0487252 0.
0.644323 0.0486872 0.
0.646371 0.0486214 0.
0.648419 0.0485516 0.
0.650469 0.0484804 0.
0.652529 0.0483986 0.
0.654588 0.048317 0.
0.656651 0.0482341 0.
0.658718 0.048149 0.
0.660785 0.048064 0.
0.662856 0.0479683 0.
0.66493 0.0478698 0.
0.667004 0.0477699 0.
0.669084 0.0476247 0.
0.671165 0.0474761 0.
0.673246 0.0473314 0.
0.675327 0.0471846 0.
0.677409 0.0470373 0.
0.679489 0.0468927 0.
0.681567 0.0467497 0.
0.683645 0.0466062 0.
0.685719 0.0464563 0.
0.68779 0.0463087 0.
0.68986 0.046162 0.
0.691919 0.0460293 0.
0.693979 0.0458986 0.
0.696032 0.0457927 0.
0.698092 0.0457221 0.
0.700155 0.0456526 0.
0.497933 0.0476208 0.
0.499981 0.0476839 0.
0.502029 0.0477699 0.
0.504076 0.047856 0.
0.506128 0.0479756 0.
0.508186 0.0481156 0.
0.510244 0.0482562 0.
0.512311 0.0483993 0.
0.51438 0.0485412 0.
0.516451 0.0486869 0.
0.518525 0.0488264 0.
0.520598 0.0489657 0.
0.522674 0.049106 0.
0.52475 0.0492496 0.
0.526825 0.0493928 0.
0.528901 0.0495326 0.
0.530976 0.0496757 0.
0.53305 0.0498153 0.
0.53512 0.0499091 0.
0.537189 0.0500015 0.
0.539257 0.0500917 0.
0.54132 0.050175 0.
0.543384 0.0502583 0.
0.545443 0.050339 0.
0.547501 0.0504179 0.
0.549558 0.050497 0.
0.551605 0.0505654 0.
0.55365 0.0506325 0.
0.555694 0.0506956 0.
0.55773 0.0507327 0.
0.559765 0.0507698 0.
0.561797 0.0508042 0.
0.563825 0.0508341 0.
0.565853 0.0508641 0.
0.567876 0.0508894 0.
0.569896 0.050912 0.
0.571915 0.0509347 0.
0.573928 0.0509492 0.
0.575939 0.0509626 0.
0.57795 0.0509753 0.
0.579958 0.0509822 0.
0.581965 0.0509892 0.
0.583972 0.0509952 0.
0.585976 0.0509994 0.
0.587981 0.0510036 0.
0.589985 0.0510067 0.
0.591988 0.0510089 0.
0.593991 0.0510111 0.
0.595994 0.0510121 0.
0.597997 0.0510128 0.
0.6 0.0510134 0.
0.602003 0.0510118 0.
0.604007 0.0510101 0.
0.60601 0.0510082 0.
0.608013 0.0510055 0.
0.610017 0.0510028 0.
0.612022 0.0509989 0.
0.614027 0.0509935 0.
0.616033 0.0509882 0.
0.618041 0.0509808 0.
0.62005 0.0509724 0.
0.622058 0.050964 0.
0.624071 0.0509488 0.
0.626085 0.050933 0.
0.628099 0.0509158 0.
0.630122 0.0508901 0.
0.632144 0.0508644 0.
0.63417 0.0508358 0.
0.636202 0.0508023 0.
0.638233 0.0507689 0.
0.640269 0.050731 0.
0.642308 0.0506904 0.
0.644347 0.0506499 0.
0.646395 0.0505792 0.
0.648445 0.0505044 0.
0.650496 0.0504283 0.
0.652556 0.0503434 0.
0.654615 0.0502586 0.
0.656678 0.050173 0.
0.658744 0.050086 0.
0.66081 0.0499991 0.
0.66288 0.0499005 0.
0.664951 0.0497988 0.
0.667023 0.0496956 0.
0.669098 0.0495499 0.
0.671174 0.049401 0.
0.673251 0.0492565 0.
0.675326 0.0491111 0.
0.677402 0.0489654 0.
0.679476 0.0488224 0.
0.681549 0.0486809 0.
0.683622 0.048539 0.
0.68569 0.0483938 0.
0.687756 0.0482514 0.
0.68982 0.0481098 0.
0.691875 0.0479831 0.
0.693929 0.0478587 0.
0.695979 0.0477569 0.
0.698034 0.0476911 0.
0.700093 0.0476263 0.
0.497982 0.0496023 0.
0.500027 0.0496611 0.
0.502072 0.0497413 0.
0.504115 0.0498221 0.
0.506163 0.049937 0.
0.508217 0.0500709 0.
0.510272 0.0502058 0.
0.512335 0.0503453 0.
0.514401 0.0504839 0.
0.516467 0.0506264 0.
0.518536 0.050765 0.
0.520605 0.0509033 0.
0.522676 0.0510423 0.
0.524748 0.0511847 0.
0.526819 0.0513266 0.
0.528892 0.0514657 0.
0.530964 0.0516083 0.
0.533036 0.0517477 0.
0.535105 0.0518438 0.
0.537173 0.0519385 0.
0.539239 0.0520309 0.
0.541302 0.0521154 0.
0.543365 0.0522001 0.
0.545424 0.0522831 0.
0.547481 0.0523651 0.
0.549538 0.0524472 0.
0.551585 0.0525204 0.
0.553631 0.0525924 0.
0.555676 0.0526604 0.
0.557712 0.0526998 0.
0.559748 0.0527393 0.
0.561781 0.0527761 0.
0.56381 0.0528084 0.
0.565839 0.0528407 0.
0.567863 0.0528688 0.
0.569884 0.0528943 0.
0.571905 0.0529199 0.
0.573919 0.052937 0.
0.575932 0.0529527 0.
0.577944 0.0529678 0.
0.579953 0.0529758 0.
0.581961 0.0529839 0.
0.583969 0.0529909 0.
0.585974 0.0529957 0.
0.58798 0.0530006 0.
0.589984 0.0530042 0.
0.591988 0.0530068 0.
0.593991 0.0530093 0.
0.595994 0.0530104 0.
0.597997 0.053011 0.
0.6 0.0530116 0.
0.602004 0.0530099 0.
0.604007 0.0530081 0.
0.606011 0.0530061 0.
0.608015 0.0530029 0.
0.610019 0.0529997 0.
0.612024 0.0529951 0.
0.61403 0.0529889 0.
0.616037 0.0529827 0.
0.618046 0.0529741 0.
0.620056 0.0529645 0.
0.622066 0.0529548 0.
0.62408 0.0529371 0.
0.626095 0.0529185 0.
0.628111 0.0528986 0.
0.630134 0.0528698 0.
0.632158 0.052841 0.
0.634185 0.0528094 0.
0.636218 0.0527734 0.
0.63825 0.0527374 0.
0.640287 0.052697 0.
0.642327 0.0526541 0.
0.644367 0.0526112 0.
0.646415 0.0525357 0.
0.648464 0.052456 0.
0.650515 0.0523754 0.
0.652575 0.0522879 0.
0.654634 0.0522005 0.
0.656696 0.0521128 0.
0.658762 0.0520243 0.
0.660827 0.051936 0.
0.662896 0.0518356 0.
0.664966 0.0517324 0.
0.667036 0.0516275 0.
0.669108 0.0514824 0.
0.671181 0.0513343 0.
0.673254 0.0511907 0.
0.675325 0.0510469 0.
0.677396 0.0509027 0.
0.679466 0.0507612 0.
0.681534 0.0506209 0.
0.683602 0.0504802 0.
0.685665 0.0503385 0.
0.687728 0.0502002 0.
0.689788 0.0500629 0.
0.69184 0.0499416 0.
0.69389 0.0498228 0.
0.695936 0.0497249 0.
0.697988 0.049663 0.
0.700043 0.049602 0.
0.498034 0.051583 0.
0.500078 0.0516385 0.
0.502119 0.0517144 0.
0.50416 0.0517912 0.
0.506205 0.0519019 0.
0.508254 0.0520294 0.
0.510304 0.0521585 0.
0.512363 0.0522943 0.
0.514423 0.0524296 0.
0.516484 0.0525691 0.
0.518548 0.0527061 0.
0.520612 0.0528429 0.
0.522678 0.0529801 0.
0.524746 0.0531207 0.
0.526813 0.0532609 0.
0.528883 0.0533991 0.
0.530952 0.0535411 0.
0.533022 0.0536801 0.
0.535089 0.0537785 0.
0.537156 0.0538755 0.
0.539222 0.05397 0.
0.541284 0.0540559 0.
0.543346 0.0541418 0.
0.545405 0.0542273 0.
0.547462 0.0543123 0.
0.549519 0.0543974 0.
0.551566 0.0544753 0.
0.553612 0.0545523 0.
0.555657 0.0546251 0.
0.557694 0.0546669 0.
0.559731 0.0547088 0.
0.561765 0.054748 0.
0.563795 0.0547827 0.
0.565825 0.0548174 0.
0.567851 0.0548482 0.
0.569873 0.0548766 0.
0.571895 0.0549051 0.
0.573911 0.0549247 0.
0.575925 0.0549429 0.
0.577938 0.0549603 0.
0.579948 0.0549694 0.
0.581957 0.0549785 0.
0.583966 0.0549865 0.
0.585972 0.054992 0.
0.587978 0.0549976 0.
0.589983 0.0550017 0.
0.591987 0.0550046 0.
0.593991 0.0550075 0.
0.595994 0.0550086 0.
0.597997 0.0550092 0.
0.6 0.0550097 0.
0.602004 0.055008 0.
0.604008 0.0550062 0.
0.606012 0.055004 0.
0.608016 0.0550003 0.
0.610021 0.0549966 0.
0.612026 0.0549914 0.
0.614034 0.0549843 0.
0.616041 0.0549771 0.
0.618051 0.0549674 0.
0.620062 0.0549565 0.
0.622073 0.0549456 0.
0.624089 0.0549253 0.
0.626105 0.0549041 0.
0.628122 0.0548813 0.
0.630147 0.0548494 0.
0.632172 0.0548175 0.
0.634201 0.054783 0.
0.636234 0.0547445 0.
0.638268 0.0547059 0.
0.640306 0.0546631 0.
0.642346 0.0546178 0.
0.644386 0.0545726 0.
0.646435 0.0544922 0.
0.648484 0.0544075 0.
0.650535 0.0543224 0.
0.652594 0.0542324 0.
0.654653 0.0541425 0.
0.656715 0.0540525 0.
0.65878 0.0539626 0.
0.660844 0.0538728 0.
0.662912 0.0537708 0.
0.66498 0.0536659 0.
0.667049 0.0535594 0.
0.669118 0.0534153 0.
0.671188 0.0532683 0.
0.673257 0.053126 0.
0.675324 0.0529842 0.
0.67739 0.052842 0.
0.679455 0.0527027 0.
0.681517 0.0525641 0.
0.68358 0.0524253 0.
0.685638 0.0522868 0.
0.687695 0.0521524 0.
0.689751 0.0520189 0.
0.691798 0.0519028 0.
0.693845 0.0517895 0.
0.695888 0.0516951 0.
0.697936 0.0516362 0.
0.699989 0.0515784 0.
0.498092 0.0535544 0.
0.500133 0.0536098 0.
0.502172 0.0536847 0.
0.50421 0.0537604 0.
0.506252 0.053868 0.
0.508298 0.0539905 0.
0.510344 0.0541144 0.
0.512398 0.0542466 0.
0.514453 0.0543784 0.
0.516509 0.054515 0.
0.518568 0.0546508 0.
0.520628 0.0547865 0.
0.52269 0.0549225 0.
0.524754 0.0550619 0.
0.526817 0.0552009 0.
0.528884 0.0553382 0.
0.53095 0.0554793 0.
0.533017 0.0556175 0.
0.535081 0.0557175 0.
0.537146 0.0558161 0.
0.539209 0.0559122 0.
0.54127 0.0559993 0.
0.54333 0.0560864 0.
0.545388 0.0561736 0.
0.547443 0.0562608 0.
0.549499 0.0563482 0.
0.551546 0.05643 0.
0.553592 0.0565113 0.
0.555637 0.0565883 0.
0.557675 0.056632 0.
0.559712 0.0566759 0.
0.561747 0.0567172 0.
0.563778 0.0567541 0.
0.565809 0.0567912 0.
0.567835 0.0568245 0.
0.569859 0.0568554 0.
0.571883 0.0568863 0.
0.573899 0.0569086 0.
0.575915 0.0569295 0.
0.57793 0.0569494 0.
0.579941 0.0569599 0.
0.581951 0.0569704 0.
0.583961 0.0569796 0.
0.585968 0.0569862 0.
0.587975 0.0569929 0.
0.589981 0.0569978 0.
0.591985 0.0570013 0.
0.59399 0.0570049 0.
0.595994 0.0570063 0.
0.597997 0.057007 0.
0.6 0.0570078 0.
0.602004 0.0570056 0.
0.604008 0.0570034 0.
0.606013 0.0570007 0.
0.608018 0.0569962 0.
0.610023 0.0569916 0.
0.61203 0.0569854 0.
0.614039 0.056977 0.
0.616047 0.0569687 0.
0.618058 0.0569576 0.
0.620071 0.0569452 0.
0.622083 0.0569328 0.
0.6241 0.0569098 0.
0.626118 0.0568857 0.
0.628136 0.0568602 0.
0.630163 0.0568256 0.
0.632189 0.0567911 0.
0.634219 0.056754 0.
0.636253 0.0567129 0.
0.638288 0.0566719 0.
0.640326 0.056627 0.
0.642366 0.0565799 0.
0.644407 0.0565328 0.
0.646455 0.0564484 0.
0.648504 0.0563596 0.
0.650554 0.0562707 0.
0.652612 0.0561787 0.
0.654669 0.0560868 0.
0.656729 0.0559952 0.
0.658792 0.0559039 0.
0.660855 0.0558128 0.
0.66292 0.0557097 0.
0.664986 0.0556039 0.
0.667052 0.0554965 0.
0.669118 0.0553536 0.
0.671185 0.055208 0.
0.67325 0.0550671 0.
0.675312 0.0549268 0.
0.677374 0.0547861 0.
0.679435 0.0546486 0.
0.681492 0.0545116 0.
0.68355 0.0543743 0.
0.685603 0.0542388 0.
0.687655 0.0541076 0.
0.689706 0.0539775 0.
0.69175 0.0538656 0.
0.693794 0.0537565 0.
0.695834 0.0536644 0.
0.697881 0.0536074 0.
0.69993 0.0535515 0.
0.498155 0.0555271 0.
0.500194 0.0555827 0.
0.502232 0.0556573 0.
0.504267 0.0557324 0.
0.506306 0.055838 0.
0.508349 0.0559566 0.
0.510391 0.0560765 0.
0.512441 0.056205 0.
0.514492 0.0563332 0.
0.516544 0.0564668 0.
0.5186 0.0566013 0.
0.520656 0.0567358 0.
0.522714 0.0568703 0.
0.524773 0.0570085 0.
0.526832 0.0571462 0.
0.528893 0.0572819 0.
0.530955 0.0574213 0.
0.533017 0.0575579 0.
0.535078 0.0576586 0.
0.537139 0.0577581 0.
0.539199 0.0578552 0.
0.541257 0.0579432 0.
0.543315 0.0580313 0.
0.545371 0.0581201 0.
0.547425 0.0582094 0.
0.549479 0.0582988 0.
0.551526 0.0583845 0.
0.553572 0.05847 0.
0.555617 0.0585511 0.
0.557655 0.0585968 0.
0.559692 0.0586426 0.
0.561728 0.058686 0.
0.56376 0.0587253 0.
0.565792 0.0587647 0.
0.56782 0.0588005 0.
0.569845 0.058834 0.
0.57187 0.0588675 0.
0.573888 0.0588924 0.
0.575905 0.058916 0.
0.577922 0.0589385 0.
0.579934 0.0589503 0.
0.581945 0.0589622 0.
0.583956 0.0589727 0.
0.585964 0.0589804 0.
0.587972 0.0589882 0.
0.589979 0.0589939 0.
0.591984 0.0589981 0.
0.593989 0.0590022 0.
0.595993 0.0590039 0.
0.597997 0.0590049 0.
0.600001 0.0590059 0.
0.602005 0.0590032 0.
0.604009 0.0590006 0.
0.606014 0.0589974 0.
0.60802 0.058992 0.
0.610026 0.0589866 0.
0.612034 0.0589793 0.
0.614043 0.0589698 0.
0.616053 0.0589603 0.
0.618065 0.0589477 0.
0.620079 0.0589338 0.
0.622093 0.0589199 0.
0.624111 0.0588941 0.
0.626131 0.0588673 0.
0.628151 0.0588389 0.
0.630179 0.0588017 0.
0.632206 0.0587645 0.
0.634237 0.0587246 0.
0.636272 0.058681 0.
0.638308 0.0586375 0.
0.640346 0.0585905 0.
0.642387 0.0585416 0.
0.644427 0.0584928 0.
0.646475 0.0584044 0.
0.648523 0.0583117 0.
0.650573 0.0582191 0.
0.652629 0.0581252 0.
0.654684 0.0580314 0.
0.656742 0.0579383 0.
0.658802 0.057846 0.
0.660862 0.0577539 0.
0.662923 0.0576503 0.
0.664985 0.0575444 0.
0.667048 0.057437 0.
0.669109 0.0572959 0.
0.671171 0.0571524 0.
0.673232 0.0570137 0.
0.675289 0.0568753 0.
0.677347 0.0567364 0.
0.679403 0.0566005 0.
0.681457 0.0564649 0.
0.683511 0.0563292 0.
0.68556 0.0561968 0.
0.687608 0.0560691 0.
0.689655 0.0559423 0.
0.691696 0.0558332 0.
0.693737 0.0557269 0.
0.695775 0.055636 0.
0.697819 0.0555803 0.
0.699866 0.0555257 0.
0.498217 0.0575051 0.
0.500254 0.0575596 0.
0.502289 0.0576325 0.
0.504323 0.057706 0.
0.506359 0.0578092 0.
0.508398 0.0579237 0.
0.510437 0.0580395 0.
0.512484 0.0581645 0.
0.514531 0.0582892 0.
0.51658 0.0584197 0.
0.518632 0.0585529 0.
0.520684 0.0586861 0.
0.522738 0.0588193 0.
0.524792 0.0589563 0.
0.526847 0.0590928 0.
0.528903 0.0592269 0.
0.53096 0.0593646 0.
0.533017 0.0594997 0.
0.535075 0.0596012 0.
0.537133 0.0597015 0.
0.53919 0.0597996 0.
0.541246 0.0598884 0.
0.543302 0.0599773 0.
0.545356 0.0600676 0.
0.547409 0.0601589 0.
0.549462 0.0602503 0.
0.551508 0.0603397 0.
0.553554 0.0604292 0.
0.555599 0.0605142 0.
0.557637 0.0605617 0.
0.559675 0.0606092 0.
0.561711 0.0606546 0.
0.563744 0.0606961 0.
0.565777 0.0607376 0.
0.567806 0.0607757 0.
0.569832 0.0608116 0.
0.571858 0.0608476 0.
0.573877 0.0608752 0.
0.575895 0.0609014 0.
0.577913 0.0609266 0.
0.579926 0.0609397 0.
0.581938 0.0609529 0.
0.58395 0.0609647 0.
0.585959 0.0609736 0.
0.587968 0.0609825 0.
0.589975 0.0609891 0.
0.591981 0.060994 0.
0.593987 0.0609989 0.
0.595992 0.0610009 0.
0.597996 0.0610021 0.
0.600001 0.0610032 0.
0.602006 0.0610001 0.
0.604011 0.060997 0.
0.606016 0.0609931 0.
0.608023 0.0609868 0.
0.61003 0.0609805 0.
0.612039 0.0609722 0.
0.61405 0.0609614 0.
0.61606 0.0609506 0.
0.618074 0.0609367 0.
0.620088 0.0609214 0.
0.622103 0.060906 0.
0.624123 0.0608775 0.
0.626143 0.0608478 0.
0.628165 0.0608166 0.
0.630193 0.0607768 0.
0.632222 0.0607371 0.
0.634253 0.0606948 0.
0.636289 0.0606489 0.
0.638325 0.060603 0.
0.640364 0.0605542 0.
0.642405 0.0605036 0.
0.644445 0.0604532 0.
0.646493 0.0603611 0.
0.64854 0.0602647 0.
0.650589 0.0601687 0.
0.652643 0.0600729 0.
0.654698 0.0599772 0.
0.656753 0.0598827 0.
0.658811 0.0597895 0.
0.660868 0.0596964 0.
0.662926 0.0595925 0.
0.664984 0.0594865 0.
0.667043 0.059379 0.
0.6691 0.0592398 0.
0.671157 0.0590982 0.
0.673214 0.0589613 0.
0.675267 0.0588246 0.
0.67732 0.0586876 0.
0.679371 0.0585533 0.
0.681421 0.0584191 0.
0.683471 0.0582847 0.
0.685518 0.0581555 0.
0.687562 0.0580314 0.
0.689606 0.0579082 0.
0.691644 0.0578021 0.
0.693681 0.057699 0.
0.695716 0.0576095 0.
0.697758 0.0575555 0.
0.699803 0.0575027 0.
0.49827 0.0594897 0.
0.500305 0.0595414 0.
0.502338 0.0596112 0.
0.50437 0.059682 0.
0.506404 0.0597829 0.
0.50844 0.0598936 0.
0.510476 0.060006 0.
0.51252 0.0601282 0.
0.514565 0.0602504 0.
0.51661 0.0603788 0.
0.518659 0.0605113 0.
0.520707 0.0606438 0.
0.522756 0.0607761 0.
0.524807 0.0609121 0.
0.526856 0.0610477 0.
0.52891 0.0611798 0.
0.530963 0.0613152 0.
0.533017 0.0614481 0.
0.535073 0.0615494 0.
0.537129 0.0616495 0.
0.539184 0.0617474 0.
0.541239 0.0618367 0.
0.543294 0.061926 0.
0.545347 0.0620174 0.
0.547398 0.0621103 0.
0.54945 0.0622033 0.
0.551496 0.0622959 0.
0.553541 0.0623888 0.
0.555585 0.0624772 0.
0.557623 0.0625263 0.
0.559661 0.0625754 0.
0.561698 0.0626225 0.
0.563731 0.062666 0.
0.565764 0.0627095 0.
0.567793 0.0627499 0.
0.569819 0.062788 0.
0.571846 0.0628263 0.
0.573866 0.0628566 0.
0.575884 0.0628857 0.
0.577903 0.0629135 0.
0.579916 0.062928 0.
0.58193 0.0629426 0.
0.583943 0.0629557 0.
0.585953 0.0629657 0.
0.587963 0.0629757 0.
0.589971 0.0629834 0.
0.591978 0.0629891 0.
0.593985 0.0629949 0.
0.59599 0.0629972 0.
0.597996 0.0629985 0.
0.600001 0.0629998 0.
0.602007 0.0629961 0.
0.604013 0.0629924 0.
0.606019 0.0629879 0.
0.608027 0.0629806 0.
0.610035 0.0629732 0.
0.612045 0.0629637 0.
0.614057 0.0629517 0.
0.616068 0.0629397 0.
0.618083 0.0629245 0.
0.620098 0.0629077 0.
0.622114 0.062891 0.
0.624135 0.0628596 0.
0.626156 0.062827 0.
0.628178 0.0627929 0.
0.630207 0.0627507 0.
0.632236 0.0627086 0.
0.634267 0.062664 0.
0.636303 0.062616 0.
0.638339 0.0625681 0.
0.640378 0.0625176 0.
0.642417 0.0624657 0.
0.644457 0.0624138 0.
0.646504 0.0623183 0.
0.648552 0.0622186 0.
0.6506 0.0621197 0.
0.652653 0.0620227 0.
0.654706 0.0619258 0.
0.656761 0.0618304 0.
0.658816 0.0617369 0.
0.660873 0.0616435 0.
0.662928 0.0615401 0.
0.664984 0.0614349 0.
0.66704 0.0613281 0.
0.669094 0.0611912 0.
0.671148 0.061052 0.
0.673201 0.060917 0.
0.675249 0.0607816 0.
0.677298 0.0606458 0.
0.679346 0.0605127 0.
0.681392 0.0603791 0.
0.683438 0.0602454 0.
0.685482 0.0601184 0.
0.687524 0.0599972 0.
0.689565 0.0598767 0.
0.6916 0.0597734 0.
0.693634 0.0596733 0.
0.695667 0.0595855 0.
0.697706 0.0595337 0.
0.699749 0.0594833 0.
0.498326 0.0614751 0.
0.500359 0.0615245 0.
0.50239 0.0615913 0.
0.50442 0.0616594 0.
0.506452 0.0617581 0.
0.508485 0.0618654 0.
0.51052 0.0619746 0.
0.51256 0.0620946 0.
0.514601 0.0622147 0.
0.516642 0.0623412 0.
0.518686 0.0624727 0.
0.520729 0.0626042 0.
0.522774 0.0627353 0.
0.52482 0.0628699 0.
0.526865 0.0630041 0.
0.528915 0.0631338 0.
0.530966 0.0632665 0.
0.533017 0.0633969 0.
0.535071 0.0634977 0.
0.537125 0.0635974 0.
0.539178 0.0636952 0.
0.541232 0.0637849 0.
0.543285 0.0638746 0.
0.545337 0.0639672 0.
0.547387 0.0640617 0.
0.549438 0.0641563 0.
0.551483 0.064252 0.
0.553527 0.0643483 0.
0.555571 0.0644401 0.
0.557609 0.0644908 0.
0.559647 0.0645416 0.
0.561684 0.0645904 0.
0.563717 0.0646359 0.
0.56575 0.0646814 0.
0.56778 0.064724 0.
0.569807 0.0647645 0.
0.571834 0.064805 0.
0.573854 0.0648381 0.
0.575874 0.0648699 0.
0.577893 0.0649005 0.
0.579907 0.0649163 0.
0.581922 0.0649322 0.
0.583935 0.0649466 0.
0.585946 0.0649577 0.
0.587957 0.0649689 0.
0.589966 0.0649776 0.
0.591974 0.0649842 0.
0.593982 0.0649909 0.
0.595989 0.0649935 0.
0.597995 0.0649949 0.
0.600001 0.0649963 0.
0.602008 0.0649921 0.
0.604015 0.0649879 0.
0.606022 0.0649827 0.
0.608031 0.0649743 0.
0.61004 0.0649659 0.
0.612051 0.0649553 0.
0.614064 0.064942 0.
0.616077 0.0649288 0.
0.618092 0.0649122 0.
0.620108 0.0648941 0.
0.622125 0.064876 0.
0.624146 0.0648418 0.
0.626168 0.0648061 0.
0.628191 0.0647692 0.
0.63022 0.0647246 0.
0.632249 0.0646802 0.
0.634281 0.0646333 0.
0.636317 0.0645832 0.
0.638353 0.0645331 0.
0.640391 0.0644811 0.
0.64243 0.0644277 0.
0.644469 0.0643744 0.
0.646516 0.0642756 0.
0.648563 0.0641725 0.
0.65061 0.0640707 0.
0.652662 0.0639725 0.
0.654715 0.0638744 0.
0.656768 0.0637781 0.
0.658822 0.0636843 0.
0.660877 0.0635906 0.
0.662931 0.0634878 0.
0.664984 0.0633835 0.
0.667038 0.0632778 0.
0.669089 0.0631437 0.
0.671139 0.0630075 0.
0.673188 0.0628749 0.
0.675232 0.062741 0.
0.677277 0.0626067 0.
0.67932 0.0624749 0.
0.681362 0.0623423 0.
0.683403 0.0622096 0.
0.685443 0.0620844 0.
0.687481 0.0619656 0.
0.689519 0.0618474 0.
0.691552 0.0617466 0.
0.693584 0.0616493 0.
0.695615 0.0615631 0.
0.697652 0.0615133 0.
0.699691 0.061465 0.
0.498385 0.0634506 0.
0.500417 0.063501 0.
0.502446 0.0635682 0.
0.504474 0.0636365 0.
0.506504 0.0637339 0.
0.508536 0.0638385 0.
0.510568 0.0639452 0.
0.512605 0.0640629 0.
0.514641 0.0641808 0.
0.516678 0.0643057 0.
0.518718 0.0644365 0.
0.520758 0.0645674 0.
0.522798 0.0646975 0.
0.52484 0.0648311 0.
0.526882 0.0649641 0.
0.528929 0.0650919 0.
0.530977 0.0652223 0.
0.533025 0.0653505 0.
0.535076 0.0654506 0.
0.537128 0.0655497 0.
0.539179 0.0656472 0.
0.54123 0.0657375 0.
0.543281 0.0658277 0.
0.545331 0.0659212 0.
0.547379 0.0660168 0.
0.549427 0.0661125 0.
0.551471 0.0662104 0.
0.553514 0.0663093 0.
0.555556 0.0664036 0.
0.557594 0.0664555 0.
0.559631 0.0665075 0.
0.561667 0.0665578 0.
0.5637 0.066605 0.
0.565733 0.0666524 0.
0.567763 0.0666969 0.
0.56979 0.0667394 0.
0.571818 0.0667819 0.
0.573839 0.0668174 0.
0.57586 0.0668518 0.
0.57788 0.0668847 0.
0.579896 0.0669018 0.
0.581911 0.0669189 0.
0.583926 0.0669344 0.
0.585938 0.0669468 0.
0.58795 0.0669591 0.
0.589961 0.0669688 0.
0.59197 0.0669762 0.
0.593979 0.0669836 0.
0.595987 0.0669865 0.
0.597994 0.0669881 0.
0.600001 0.0669897 0.
0.60201 0.0669849 0.
0.604018 0.0669801 0.
0.606026 0.0669743 0.
0.608037 0.0669648 0.
0.610047 0.0669553 0.
0.612059 0.0669435 0.
0.614074 0.0669291 0.
0.616088 0.0669146 0.
0.618104 0.0668969 0.
0.620122 0.0668776 0.
0.622139 0.0668584 0.
0.624161 0.0668216 0.
0.626184 0.0667834 0.
0.628207 0.0667439 0.
0.630237 0.0666974 0.
0.632266 0.066651 0.
0.634298 0.0666022 0.
0.636334 0.0665506 0.
0.638369 0.0664989 0.
0.640406 0.0664453 0.
0.642445 0.0663904 0.
0.644483 0.0663355 0.
0.646528 0.0662344 0.
0.648573 0.0661289 0.
0.650619 0.066025 0.
0.652669 0.0659262 0.
0.654719 0.0658274 0.
0.65677 0.0657305 0.
0.658821 0.0656365 0.
0.660873 0.0655425 0.
0.662925 0.0654404 0.
0.664977 0.0653367 0.
0.667028 0.0652317 0.
0.669075 0.0651003 0.
0.671122 0.0649669 0.
0.673168 0.0648367 0.
0.675208 0.0647038 0.
0.677248 0.0645706 0.
0.679287 0.0644398 0.
0.681325 0.064308 0.
0.683363 0.0641762 0.
0.685399 0.0640528 0.
0.687434 0.0639361 0.
0.689468 0.06382 0.
0.691499 0.0637211 0.
0.69353 0.0636255 0.
0.695559 0.0635399 0.
0.697594 0.0634906 0.
0.699632 0.0634429 0.
0.49845 0.0654267 0.
0.500479 0.0654786 0.
0.502507 0.0655468 0.
0.504534 0.0656159 0.
0.506562 0.0657124 0.
0.508591 0.0658153 0.
0.510621 0.06592 0.
0.512654 0.0660358 0.
0.514687 0.0661517 0.
0.516722 0.0662751 0.
0.518759 0.0664051 0.
0.520796 0.0665351 0.
0.522834 0.0666643 0.
0.524872 0.0667968 0.
0.526911 0.0669287 0.
0.528954 0.0670544 0.
0.530998 0.067182 0.
0.533042 0.0673077 0.
0.53509 0.0674067 0.
0.537137 0.0675048 0.
0.539185 0.0676017 0.
0.541232 0.0676921 0.
0.54328 0.0677826 0.
0.545326 0.0678767 0.
0.547371 0.067973 0.
0.549417 0.0680693 0.
0.551459 0.0681692 0.
0.5535 0.0682703 0.
0.555541 0.0683671 0.
0.557577 0.0684201 0.
0.559614 0.0684732 0.
0.561649 0.0685249 0.
0.563682 0.068574 0.
0.565715 0.0686231 0.
0.567745 0.0686696 0.
0.569773 0.0687141 0.
0.571801 0.0687587 0.
0.573824 0.0687967 0.
0.575846 0.0688334 0.
0.577867 0.0688688 0.
0.579884 0.0688871 0.
0.581901 0.0689054 0.
0.583916 0.0689223 0.
0.58593 0.0689357 0.
0.587943 0.0689492 0.
0.589955 0.0689599 0.
0.591965 0.0689681 0.
0.593976 0.0689763 0.
0.595985 0.0689796 0.
0.597993 0.0689813 0.
0.600002 0.068983 0.
0.602011 0.0689776 0.
0.604021 0.0689723 0.
0.606031 0.0689657 0.
0.608043 0.0689552 0.
0.610054 0.0689446 0.
0.612068 0.0689317 0.
0.614083 0.068916 0.
0.616099 0.0689003 0.
0.618116 0.0688814 0.
0.620135 0.068861 0.
0.622153 0.0688406 0.
0.624176 0.0688013 0.
0.6262 0.0687605 0.
0.628224 0.0687185 0.
0.630254 0.06867 0.
0.632284 0.0686216 0.
0.634316 0.068571 0.
0.636351 0.0685179 0.
0.638386 0.0684648 0.
0.640422 0.0684095 0.
0.64246 0.068353 0.
0.644497 0.0682965 0.
0.64654 0.0681933 0.
0.648584 0.0680858 0.
0.650627 0.0679803 0.
0.652674 0.0678812 0.
0.654721 0.067782 0.
0.656768 0.0676849 0.
0.658816 0.0675911 0.
0.660864 0.0674972 0.
0.662912 0.0673961 0.
0.664959 0.0672934 0.
0.667007 0.0671897 0.
0.66905 0.0670611 0.
0.671093 0.0669308 0.
0.673136 0.0668031 0.
0.675173 0.0666712 0.
0.67721 0.066539 0.
0.679246 0.0664094 0.
0.681282 0.0662787 0.
0.683317 0.0661479 0.
0.68535 0.0660259 0.
0.687381 0.0659109 0.
0.689413 0.0657964 0.
0.691442 0.0656987 0.
0.69347 0.0656044 0.
0.695498 0.0655188 0.
0.697531 0.0654697 0.
0.699566 0.0654223 0.
0.498514 0.0674081 0.
0.500541 0.0674602 0.
0.502567 0.0675278 0.
0.504593 0.0675964 0.
0.506619 0.067692 0.
0.508645 0.0677929 0.
0.510672 0.0678957 0.
0.512703 0.0680096 0.
0.514733 0.0681235 0.
0.516765 0.0682454 0.
0.5188 0.0683746 0.
0.520834 0.0685038 0.
0.522869 0.0686319 0.
0.524904 0.0687633 0.
0.526939 0.0688941 0.
0.528979 0.0690176 0.
0.531019 0.0691427 0.
0.533059 0.0692659 0.
0.535103 0.0693639 0.
0.537147 0.0694611 0.
0.53919 0.0695573 0.
0.541234 0.069648 0.
0.543278 0.0697387 0.
0.545322 0.0698334 0.
0.547364 0.0699305 0.
0.549407 0.0700275 0.
0.551447 0.0701292 0.
0.553487 0.0702324 0.
0.555527 0.0703312 0.
0.557563 0.0703854 0.
0.559599 0.0704396 0.
0.561633 0.0704925 0.
0.563666 0.0705432 0.
0.565699 0.0705939 0.
0.567729 0.0706422 0.
0.569758 0.0706885 0.
0.571786 0.0707348 0.
0.57381 0.0707751 0.
0.575832 0.0708144 0.
0.577854 0.0708521 0.
0.579872 0.0708716 0.
0.58189 0.0708911 0.
0.583907 0.070909 0.
0.585921 0.0709236 0.
0.587936 0.0709382 0.
0.589949 0.0709497 0.
0.59196 0.0709587 0.
0.593972 0.0709677 0.
0.595982 0.0709713 0.
0.597992 0.0709731 0.
0.600003 0.070975 0.
0.602013 0.070969 0.
0.604024 0.0709631 0.
0.606035 0.0709558 0.
0.608049 0.0709442 0.
0.610062 0.0709326 0.
0.612077 0.0709186 0.
0.614093 0.0709018 0.
0.61611 0.070885 0.
0.618128 0.070865 0.
0.620147 0.0708436 0.
0.622167 0.0708222 0.
0.624191 0.0707805 0.
0.626215 0.0707372 0.
0.62824 0.0706928 0.
0.63027 0.0706425 0.
0.6323 0.0705922 0.
0.634332 0.0705401 0.
0.636366 0.0704857 0.
0.6384 0.0704312 0.
0.640436 0.0703745 0.
0.642473 0.0703165 0.
0.64451 0.0702584 0.
0.646551 0.0701535 0.
0.648593 0.0700442 0.
0.650635 0.0699371 0.
0.652678 0.0698375 0.
0.654722 0.0697379 0.
0.656766 0.0696404 0.
0.65881 0.0695466 0.
0.660855 0.0694528 0.
0.662899 0.0693526 0.
0.664942 0.0692511 0.
0.666986 0.0691487 0.
0.669026 0.0690229 0.
0.671065 0.0688954 0.
0.673104 0.06877 0.
0.675138 0.0686393 0.
0.677172 0.0685081 0.
0.679206 0.0683797 0.
0.681238 0.06825 0.
0.683271 0.0681203 0.
0.685302 0.0679996 0.
0.68733 0.0678864 0.
0.689359 0.0677735 0.
0.691386 0.0676773 0.
0.693412 0.0675844 0.
0.695437 0.0674992 0.
0.697468 0.0674511 0.
0.699501 0.0674047 0.
0.498569 0.069396 0.
0.500595 0.0694466 0.
0.502619 0.0695121 0.
0.504643 0.069579 0.
0.506666 0.0696737 0.
0.50869 0.0697728 0.
0.510715 0.0698741 0.
0.512743 0.0699866 0.
0.514772 0.0700994 0.
0.516801 0.0702203 0.
0.518832 0.070349 0.
0.520863 0.0704777 0.
0.522895 0.070605 0.
0.524927 0.0707357 0.
0.526959 0.0708658 0.
0.528996 0.0709871 0.
0.531032 0.0711095 0.
0.533069 0.0712302 0.
0.53511 0.0713272 0.
0.537151 0.0714235 0.
0.539192 0.0715189 0.
0.541234 0.0716093 0.
0.543276 0.0716998 0.
0.545317 0.0717946 0.
0.547358 0.0718918 0.
0.549399 0.071989 0.
0.551439 0.0720915 0.
0.553478 0.0721959 0.
0.555517 0.0722959 0.
0.557552 0.0723514 0.
0.559586 0.0724068 0.
0.56162 0.0724609 0.
0.563653 0.0725127 0.
0.565685 0.0725644 0.
0.567715 0.0726141 0.
0.569744 0.072662 0.
0.571773 0.0727099 0.
0.573796 0.0727526 0.
0.575819 0.0727943 0.
0.577842 0.0728344 0.
0.57986 0.0728549 0.
0.581879 0.0728755 0.
0.583897 0.0728945 0.
0.585912 0.0729101 0.
0.587928 0.0729258 0.
0.589942 0.0729382 0.
0.591955 0.072948 0.
0.593968 0.0729577 0.
0.59598 0.0729615 0.
0.597992 0.0729635 0.
0.600003 0.0729655 0.
0.602016 0.0729589 0.
0.604028 0.0729523 0.
0.606041 0.0729443 0.
0.608055 0.0729317 0.
0.61007 0.0729191 0.
0.612086 0.0729041 0.
0.614103 0.0728862 0.
0.61612 0.0728684 0.
0.61814 0.0728475 0.
0.62016 0.0728252 0.
0.62218 0.072803 0.
0.624204 0.0727588 0.
0.626228 0.0727131 0.
0.628254 0.0726664 0.
0.630284 0.0726146 0.
0.632314 0.0725628 0.
0.634345 0.0725093 0.
0.636378 0.0724539 0.
0.638412 0.0723985 0.
0.640447 0.0723405 0.
0.642483 0.0722812 0.
0.64452 0.0722218 0.
0.64656 0.0721158 0.
0.6486 0.0720056 0.
0.650641 0.0718978 0.
0.652682 0.0717983 0.
0.654724 0.0716988 0.
0.656766 0.0716014 0.
0.658808 0.0715079 0.
0.660851 0.0714144 0.
0.662892 0.0713153 0.
0.664932 0.071215 0.
0.666972 0.0711139 0.
0.669009 0.0709907 0.
0.671045 0.070866 0.
0.673081 0.0707426 0.
0.675112 0.0706127 0.
0.677143 0.0704823 0.
0.679173 0.0703548 0.
0.681203 0.0702256 0.
0.683233 0.0700963 0.
0.685261 0.0699765 0.
0.687288 0.0698645 0.
0.689315 0.0697528 0.
0.691338 0.0696577 0.
0.693362 0.0695663 0.
0.695385 0.0694819 0.
0.697413 0.0694352 0.
0.699444 0.0693905 0.
0.498628 0.0713854 0.
0.500651 0.0714344 0.
0.502673 0.0714978 0.
0.504695 0.0715631 0.
0.506717 0.071657 0.
0.508739 0.0717548 0.
0.510761 0.071855 0.
0.512787 0.0719665 0.
0.514812 0.0720781 0.
0.516838 0.0721982 0.
0.518866 0.0723262 0.
0.520893 0.0724541 0.
0.522921 0.0725804 0.
0.524949 0.0727101 0.
0.526978 0.0728392 0.
0.52901 0.0729581 0.
0.531044 0.0730774 0.
0.533078 0.0731952 0.
0.535116 0.073291 0.
0.537154 0.0733862 0.
0.539193 0.0734806 0.
0.541233 0.0735708 0.
0.543273 0.0736609 0.
0.545312 0.0737558 0.
0.547352 0.0738532 0.
0.549391 0.0739504 0.
0.55143 0.0740538 0.
0.553468 0.0741594 0.
0.555506 0.0742607 0.
0.55754 0.0743173 0.
0.559574 0.0743739 0.
0.561608 0.0744293 0.
0.56364 0.0744821 0.
0.565672 0.074535 0.
0.567702 0.074586 0.
0.56973 0.0746354 0.
0.571759 0.0746849 0.
0.573783 0.07473 0.
0.575806 0.0747741 0.
0.57783 0.0748167 0.
0.579849 0.0748383 0.
0.581868 0.0748599 0.
0.583886 0.0748799 0.
0.585903 0.0748966 0.
0.58792 0.0749133 0.
0.589935 0.0749267 0.
0.59195 0.0749372 0.
0.593964 0.0749477 0.
0.595978 0.0749518 0.
0.597991 0.0749539 0.
0.600004 0.0749561 0.
0.602018 0.0749488 0.
0.604032 0.0749415 0.
0.606046 0.0749328 0.
0.608062 0.0749192 0.
0.610078 0.0749057 0.
0.612095 0.0748896 0.
0.614113 0.0748707 0.
0.616131 0.0748518 0.
0.618151 0.0748299 0.
0.620172 0.0748069 0.
0.622192 0.0747838 0.
0.624217 0.0747372 0.
0.626242 0.0746891 0.
0.628267 0.07464 0.
0.630297 0.0745866 0.
0.632327 0.0745333 0.
0.634358 0.0744786 0.
0.636391 0.0744222 0.
0.638424 0.0743658 0.
0.640458 0.0743065 0.
0.642494 0.0742459 0.
0.644529 0.0741852 0.
0.646568 0.0740782 0.
0.648607 0.073967 0.
0.650647 0.0738586 0.
0.652687 0.0737592 0.
0.654727 0.0736598 0.
0.656767 0.0735625 0.
0.658807 0.0734694 0.
0.660847 0.0733764 0.
0.662885 0.0732785 0.
0.664923 0.0731796 0.
0.66696 0.07308 0.
0.668993 0.0729598 0.
0.671026 0.0728381 0.
0.673059 0.0727173 0.
0.675086 0.0725884 0.
0.677113 0.0724591 0.
0.67914 0.0723326 0.
0.681166 0.072204 0.
0.683192 0.0720753 0.
0.685217 0.0719561 0.
0.687241 0.0718451 0.
0.689266 0.0717344 0.
0.691288 0.0716401 0.
0.693309 0.0715499 0.
0.69533 0.0714658 0.
0.697357 0.0714207 0.
0.699385 0.0713776 0.
0.498689 0.0733664 0.
0.500711 0.0734171 0.
0.502731 0.0734816 0.
0.504752 0.0735479 0.
0.506771 0.0736413 0.
0.508791 0.0737381 0.
0.510812 0.0738373 0.
0.512834 0.0739478 0.
0.514856 0.0740585 0.
0.516879 0.0741779 0.
0.518903 0.0743053 0.
0.520926 0.0744326 0.
0.522951 0.0745585 0.
0.524976 0.0746878 0.
0.527001 0.0748165 0.
0.52903 0.074933 0.
0.531061 0.0750496 0.
0.533092 0.0751647 0.
0.535127 0.0752591 0.
0.537163 0.0753531 0.
0.539199 0.0754466 0.
0.541236 0.0755367 0.
0.543273 0.0756268 0.
0.54531 0.0757216 0.
0.547347 0.0758189 0.
0.549384 0.0759161 0.
0.551421 0.0760197 0.
0.553457 0.0761255 0.
0.555493 0.0762271 0.
0.557526 0.0762848 0.
0.559559 0.0763426 0.
0.561592 0.0763989 0.
0.563623 0.0764525 0.
0.565654 0.0765061 0.
0.567684 0.076558 0.
0.569712 0.0766085 0.
0.571741 0.076659 0.
0.573766 0.0767058 0.
0.57579 0.0767519 0.
0.577814 0.0767964 0.
0.579834 0.0768188 0.
0.581855 0.0768411 0.
0.583874 0.0768619 0.
0.585893 0.0768794 0.
0.587911 0.0768968 0.
0.589928 0.0769109 0.
0.591944 0.0769221 0.
0.59396 0.0769333 0.
0.595975 0.0769376 0.
0.59799 0.0769397 0.
0.600005 0.0769419 0.
0.602021 0.0769341 0.
0.604036 0.0769263 0.
0.606052 0.0769171 0.
0.60807 0.0769028 0.
0.610087 0.0768885 0.
0.612105 0.0768717 0.
0.614125 0.076852 0.
0.616144 0.0768324 0.
0.618165 0.0768099 0.
0.620187 0.0767861 0.
0.622208 0.0767623 0.
0.624234 0.0767138 0.
0.626259 0.0766637 0.
0.628285 0.0766129 0.
0.630315 0.0765587 0.
0.632344 0.0765044 0.
0.634375 0.0764489 0.
0.636407 0.076392 0.
0.638438 0.0763351 0.
0.640472 0.0762746 0.
0.642506 0.0762127 0.
0.64454 0.0761505 0.
0.646577 0.0760436 0.
0.648614 0.0759322 0.
0.650651 0.0758238 0.
0.652688 0.0757245 0.
0.654726 0.0756252 0.
0.656763 0.0755281 0.
0.658801 0.0754353 0.
0.660838 0.0753426 0.
0.662873 0.0752458 0.
0.664908 0.0751483 0.
0.666943 0.0750502 0.
0.668973 0.0749329 0.
0.671002 0.0748142 0.
0.673031 0.0746958 0.
0.675055 0.0745675 0.
0.677079 0.0744386 0.
0.679102 0.0743125 0.
0.681125 0.0741844 0.
0.683148 0.0740563 0.
0.68517 0.0739377 0.
0.687191 0.0738276 0.
0.689213 0.0737177 0.
0.691233 0.0736239 0.
0.693253 0.073534 0.
0.695273 0.0734497 0.
0.697297 0.0734043 0.
0.699323 0.0733611 0.
0.498756 0.075349 0.
0.500776 0.0754019 0.
0.502795 0.0754679 0.
0.504813 0.0755354 0.
0.506831 0.0756287 0.
0.508848 0.0757248 0.
0.510866 0.0758233 0.
0.512886 0.0759331 0.
0.514905 0.076043 0.
0.516925 0.0761618 0.
0.518947 0.0762887 0.
0.520968 0.0764156 0.
0.52299 0.076541 0.
0.525012 0.0766698 0.
0.527034 0.0767979 0.
0.52906 0.0769121 0.
0.531087 0.0770259 0.
0.533114 0.0771384 0.
0.535146 0.0772312 0.
0.537178 0.0773235 0.
0.53921 0.0774158 0.
0.541243 0.0775054 0.
0.543277 0.0775951 0.
0.54531 0.0776896 0.
0.547344 0.0777866 0.
0.549378 0.0778835 0.
0.551411 0.0779868 0.
0.553445 0.0780923 0.
0.555479 0.0781937 0.
0.557511 0.0782526 0.
0.559543 0.0783113 0.
0.561575 0.0783687 0.
0.563605 0.0784229 0.
0.565635 0.0784772 0.
0.567665 0.0785299 0.
0.569693 0.0785813 0.
0.571722 0.0786328 0.
0.573748 0.0786814 0.
0.575773 0.0787294 0.
0.577798 0.078776 0.
0.57982 0.078799 0.
0.581841 0.0788221 0.
0.583862 0.0788438 0.
0.585882 0.078862 0.
0.587902 0.0788802 0.
0.589921 0.078895 0.
0.591939 0.0789069 0.
0.593956 0.0789188 0.
0.595973 0.0789233 0.
0.59799 0.0789254 0.
0.600006 0.0789276 0.
0.602023 0.0789193 0.
0.60404 0.078911 0.
0.606058 0.0789012 0.
0.608077 0.0788861 0.
0.610096 0.0788711 0.
0.612116 0.0788536 0.
0.614137 0.0788332 0.
0.616158 0.0788128 0.
0.61818 0.0787896 0.
0.620202 0.0787651 0.
0.622225 0.0787406 0.
0.624251 0.0786901 0.
0.626277 0.0786381 0.
0.628304 0.0785856 0.
0.630333 0.0785305 0.
0.632362 0.0784755 0.
0.634392 0.0784193 0.
0.636423 0.0783619 0.
0.638454 0.0783046 0.
0.640486 0.078243 0.
0.642519 0.0781797 0.
0.644552 0.0781163 0.
0.646586 0.0780098 0.
0.64862 0.0778992 0.
0.650654 0.0777913 0.
0.652688 0.0776923 0.
0.654722 0.0775933 0.
0.656755 0.0774965 0.
0.658789 0.0774044 0.
0.660822 0.0773123 0.
0.662854 0.0772169 0.
0.664885 0.0771211 0.
0.666916 0.0770249 0.
0.668943 0.0769105 0.
0.670969 0.0767947 0.
0.672994 0.0766787 0.
0.675015 0.0765509 0.
0.677037 0.0764224 0.
0.679057 0.0762968 0.
0.681078 0.0761692 0.
0.683098 0.0760416 0.
0.685117 0.0759233 0.
0.687136 0.0758139 0.
0.689155 0.0757045 0.
0.691173 0.0756108 0.
0.693191 0.075521 0.
0.69521 0.0754361 0.
0.697231 0.0753901 0.
0.699255 0.0753464 0.
0.498823 0.0773359 0.
0.50084 0.0773897 0.
0.502857 0.0774561 0.
0.504874 0.077524 0.
0.506889 0.0776171 0.
0.508904 0.0777125 0.
0.510919 0.0778105 0.
0.512936 0.0779194 0.
0.514953 0.0780283 0.
0.516971 0.0781466 0.
0.51899 0.078273 0.
0.521009 0.0783993 0.
0.523028 0.0785242 0.
0.525047 0.0786525 0.
0.527067 0.07878 0.
0.529089 0.0788918 0.
0.531112 0.079003 0.
0.533136 0.0791128 0.
0.535164 0.079204 0.
0.537192 0.0792949 0.
0.539221 0.0793859 0.
0.54125 0.0794751 0.
0.54328 0.0795643 0.
0.54531 0.0796586 0.
0.547341 0.0797553 0.
0.549371 0.0798521 0.
0.551402 0.079955 0.
0.553434 0.0800603 0.
0.555465 0.0801613 0.
0.557497 0.0802211 0.
0.559528 0.0802808 0.
0.561559 0.080339 0.
0.563589 0.0803938 0.
0.565619 0.0804485 0.
0.567648 0.0805018 0.
0.569676 0.080554 0.
0.571705 0.0806062 0.
0.573732 0.0806564 0.
0.575758 0.0807062 0.
0.577783 0.0807547 0.
0.579806 0.0807784 0.
0.581829 0.0808021 0.
0.583851 0.0808243 0.
0.585872 0.0808432 0.
0.587893 0.0808621 0.
0.589914 0.0808776 0.
0.591933 0.0808902 0.
0.593952 0.0809027 0.
0.595971 0.0809073 0.
0.597989 0.0809095 0.
0.600007 0.0809117 0.
0.602026 0.0809029 0.
0.604045 0.0808941 0.
0.606064 0.0808837 0.
0.608085 0.0808681 0.
0.610105 0.0808525 0.
0.612126 0.0808343 0.
0.614148 0.0808133 0.
0.61617 0.0807923 0.
0.618193 0.0807685 0.
0.620216 0.0807434 0.
0.622239 0.0807183 0.
0.624266 0.0806659 0.
0.626293 0.0806121 0.
0.628321 0.0805581 0.
0.63035 0.0805025 0.
0.632379 0.0804469 0.
0.634408 0.0803902 0.
0.636439 0.0803325 0.
0.638469 0.0802747 0.
0.6405 0.0802122 0.
0.642532 0.0801478 0.
0.644563 0.0800832 0.
0.646595 0.0799775 0.
0.648627 0.0798675 0.
0.650658 0.0797602 0.
0.652688 0.0796614 0.
0.654718 0.0795625 0.
0.656748 0.079466 0.
0.658778 0.0793745 0.
0.660808 0.0792829 0.
0.662836 0.0791889 0.
0.664863 0.0790946 0.
0.666891 0.0790001 0.
0.668914 0.0788885 0.
0.670936 0.0787756 0.
0.672958 0.078662 0.
0.674977 0.0785347 0.
0.676995 0.0784068 0.
0.679013 0.0782818 0.
0.681031 0.0781548 0.
0.683049 0.0780277 0.
0.685066 0.0779098 0.
0.687082 0.077801 0.
0.689099 0.0776923 0.
0.691115 0.0775988 0.
0.693131 0.0775094 0.
0.695147 0.0774241 0.
0.697166 0.0773781 0.
0.699186 0.0773345 0.
0.49888 0.079328 0.
0.500896 0.0793817 0.
0.50291 0.0794472 0.
0.504924 0.0795147 0.
0.506937 0.0796079 0.
0.50895 0.079703 0.
0.510963 0.0798008 0.
0.512977 0.0799092 0.
0.514991 0.0800177 0.
0.517006 0.0801356 0.
0.519022 0.0802617 0.
0.521038 0.0803878 0.
0.523054 0.0805125 0.
0.52507 0.0806406 0.
0.527086 0.0807679 0.
0.529105 0.0808773 0.
0.531125 0.0809856 0.
0.533146 0.0810926 0.
0.535171 0.0811823 0.
0.537196 0.0812718 0.
0.539222 0.0813615 0.
0.54125 0.0814501 0.
0.543277 0.0815387 0.
0.545305 0.0816327 0.
0.547334 0.0817292 0.
0.549362 0.0818257 0.
0.551392 0.0819274 0.
0.553423 0.082031 0.
0.555454 0.0821305 0.
0.557484 0.082191 0.
0.559515 0.0822513 0.
0.561546 0.0823101 0.
0.563575 0.082365 0.
0.565605 0.0824199 0.
0.567634 0.0824736 0.
0.569662 0.0825261 0.
0.571691 0.0825787 0.
0.573718 0.0826303 0.
0.575744 0.0826819 0.
0.577771 0.0827321 0.
0.579794 0.0827563 0.
0.581818 0.0827805 0.
0.583841 0.0828033 0.
0.585863 0.0828227 0.
0.587885 0.0828422 0.
0.589907 0.0828583 0.
0.591927 0.0828715 0.
0.593948 0.0828848 0.
0.595968 0.0828896 0.
0.597989 0.0828918 0.
0.600009 0.082894 0.
0.602029 0.0828847 0.
0.60405 0.0828754 0.
0.60607 0.0828645 0.
0.608092 0.0828483 0.
0.610114 0.0828321 0.
0.612136 0.0828134 0.
0.614159 0.082792 0.
0.616182 0.0827706 0.
0.618205 0.0827461 0.
0.620229 0.0827204 0.
0.622252 0.0826946 0.
0.62428 0.0826406 0.
0.626307 0.0825853 0.
0.628335 0.0825301 0.
0.630364 0.0824743 0.
0.632392 0.0824185 0.
0.634422 0.0823617 0.
0.636451 0.0823037 0.
0.638481 0.0822458 0.
0.640512 0.0821826 0.
0.642543 0.0821177 0.
0.644574 0.0820525 0.
0.646605 0.0819487 0.
0.648635 0.0818407 0.
0.650665 0.081735 0.
0.652693 0.0816362 0.
0.65472 0.0815374 0.
0.656748 0.0814411 0.
0.658775 0.0813502 0.
0.660802 0.0812592 0.
0.662828 0.0811665 0.
0.664853 0.0810737 0.
0.666877 0.0809807 0.
0.668897 0.0808719 0.
0.670916 0.0807619 0.
0.672935 0.0806507 0.
0.67495 0.0805236 0.
0.676966 0.0803958 0.
0.678981 0.080271 0.
0.680996 0.0801443 0.
0.683011 0.0800174 0.
0.685025 0.0798996 0.
0.687039 0.0797911 0.
0.689052 0.0796826 0.
0.691066 0.0795892 0.
0.693079 0.0795001 0.
0.695092 0.0794146 0.
0.697109 0.079369 0.
0.699127 0.0793262 0.
0.49894 0.0813219 0.
0.500953 0.0813754 0.
0.502965 0.0814404 0.
0.504977 0.0815076 0.
0.506987 0.0816011 0.
0.508998 0.0816962 0.
0.511008 0.0817941 0.
0.513019 0.0819021 0.
0.51503 0.0820102 0.
0.517041 0.0821278 0.
0.519054 0.0822534 0.
0.521065 0.0823791 0.
0.523078 0.0825033 0.
0.52509 0.082631 0.
0.527103 0.0827578 0.
0.529119 0.0828644 0.
0.531136 0.0829694 0.
0.533154 0.0830733 0.
0.535176 0.0831614 0.
0.537199 0.0832491 0.
0.539223 0.0833374 0.
0.541248 0.0834254 0.
0.543274 0.0835133 0.
0.5453 0.0836069 0.
0.547327 0.0837032 0.
0.549353 0.0837994 0.
0.551382 0.0838997 0.
0.553412 0.0840017 0.
0.555442 0.0840997 0.
0.557472 0.0841609 0.
0.559502 0.0842218 0.
0.561533 0.0842812 0.
0.563562 0.0843363 0.
0.565591 0.0843914 0.
0.567619 0.0844454 0.
0.569648 0.0844983 0.
0.571677 0.0845511 0.
0.573704 0.0846042 0.
0.575731 0.0846575 0.
0.577759 0.0847095 0.
0.579783 0.0847342 0.
0.581807 0.0847589 0.
0.58383 0.0847822 0.
0.585854 0.0848023 0.
0.587877 0.0848223 0.
0.5899 0.0848391 0.
0.591922 0.0848529 0.
0.593944 0.0848668 0.
0.595966 0.0848718 0.
0.597988 0.0848741 0.
0.60001 0.0848764 0.
0.602032 0.0848665 0.
0.604054 0.0848567 0.
0.606077 0.0848452 0.
0.6081 0.0848285 0.
0.610123 0.0848117 0.
0.612146 0.0847925 0.
0.614169 0.0847707 0.
0.616193 0.0847488 0.
0.618217 0.0847238 0.
0.620241 0.0846974 0.
0.622265 0.084671 0.
0.624293 0.0846154 0.
0.626321 0.0845585 0.
0.628348 0.0845021 0.
0.630377 0.0844461 0.
0.632406 0.0843902 0.
0.634435 0.0843331 0.
0.636464 0.084275 0.
0.638494 0.0842168 0.
0.640524 0.0841531 0.
0.642555 0.0840875 0.
0.644585 0.0840217 0.
0.646615 0.0839199 0.
0.648644 0.0838139 0.
0.650673 0.0837098 0.
0.652698 0.0836112 0.
0.654724 0.0835126 0.
0.656749 0.0834166 0.
0.658774 0.0833264 0.
0.660799 0.0832361 0.
0.662822 0.0831449 0.
0.664844 0.0830539 0.
0.666866 0.0829626 0.
0.668882 0.0828569 0.
0.670898 0.0827501 0.
0.672914 0.0826417 0.
0.674925 0.0825149 0.
0.676937 0.0823874 0.
0.678949 0.0822631 0.
0.68096 0.0821366 0.
0.682972 0.0820101 0.
0.684983 0.0818923 0.
0.686994 0.0817839 0.
0.689005 0.0816756 0.
0.691016 0.0815821 0.
0.693026 0.0814931 0.
0.695037 0.0814073 0.
0.697052 0.0813622 0.
0.699067 0.0813202 0.
0.499003 0.0833127 0.
0.501014 0.083368 0.
0.503024 0.0834342 0.
0.505034 0.0835027 0.
0.507042 0.0835967 0.
0.509049 0.0836919 0.
0.511057 0.0837899 0.
0.513065 0.0838975 0.
0.515072 0.0840051 0.
0.51708 0.0841225 0.
0.519088 0.0842478 0.
0.521096 0.0843732 0.
0.523105 0.0844971 0.
0.525114 0.0846245 0.
0.527122 0.084751 0.
0.529135 0.0848548 0.
0.531149 0.0849567 0.
0.533163 0.0850577 0.
0.535183 0.085144 0.
0.537203 0.08523 0.
0.539225 0.0853169 0.
0.541248 0.0854044 0.
0.543271 0.0854919 0.
0.545295 0.0855851 0.
0.547319 0.0856811 0.
0.549343 0.085777 0.
0.55137 0.0858753 0.
0.553398 0.085975 0.
0.555426 0.0860707 0.
0.557456 0.0861321 0.
0.559485 0.0861933 0.
0.561515 0.086253 0.
0.563543 0.0863081 0.
0.565572 0.0863632 0.
0.567601 0.0864172 0.
0.56963 0.0864702 0.
0.571658 0.0865232 0.
0.573686 0.0865769 0.
0.575714 0.0866309 0.
0.577742 0.0866837 0.
0.579767 0.0867091 0.
0.581793 0.0867344 0.
0.583818 0.0867582 0.
0.585843 0.0867785 0.
0.587867 0.0867988 0.
0.589892 0.0868157 0.
0.591916 0.0868298 0.
0.59394 0.0868438 0.
0.595964 0.0868489 0.
0.597988 0.0868513 0.
0.600011 0.0868536 0.
0.602035 0.0868435 0.
0.604059 0.0868335 0.
0.606083 0.0868218 0.
0.608108 0.0868048 0.
0.610132 0.0867878 0.
0.612157 0.0867685 0.
0.614182 0.0867466 0.
0.616206 0.0867247 0.
0.618232 0.086699 0.
0.620257 0.0866718 0.
0.622283 0.0866445 0.
0.624311 0.0865883 0.
0.626339 0.086531 0.
0.628367 0.0864742 0.
0.630396 0.0864184 0.
0.632424 0.0863626 0.
0.634453 0.0863057 0.
0.636482 0.0862476 0.
0.638511 0.0861896 0.
0.640541 0.0861257 0.
0.64257 0.0860598 0.
0.644599 0.0859936 0.
0.646627 0.0858941 0.
0.648654 0.0857905 0.
0.65068 0.0856883 0.
0.652703 0.0855899 0.
0.654726 0.0854915 0.
0.656749 0.0853958 0.
0.658771 0.0853062 0.
0.660794 0.0852165 0.
0.662814 0.0851269 0.
0.664833 0.0850378 0.
0.666852 0.0849484 0.
0.668865 0.0848456 0.
0.670878 0.0847419 0.
0.67289 0.0846362 0.
0.674897 0.0845094 0.
0.676905 0.0843819 0.
0.678913 0.0842576 0.
0.680921 0.0841314 0.
0.682929 0.0840052 0.
0.684937 0.0838874 0.
0.686945 0.083779 0.
0.688953 0.0836707 0.
0.690961 0.083577 0.
0.69297 0.0834878 0.
0.694979 0.0834012 0.
0.69699 0.0833551 0.
0.699002 0.0833122 0.
0.499075 0.085307 0.
0.501083 0.0853646 0.
0.50309 0.0854324 0.
0.505098 0.0855025 0.
0.507102 0.085597 0.
0.509106 0.0856926 0.
0.51111 0.085791 0.
0.513115 0.0858982 0.
0.515119 0.0860055 0.
0.517123 0.0861226 0.
0.519127 0.0862476 0.
0.521132 0.0863725 0.
0.523137 0.086496 0.
0.525143 0.0866227 0.
0.527148 0.0867485 0.
0.529158 0.0868495 0.
0.531168 0.0869483 0.
0.533179 0.0870464 0.
0.535196 0.0871306 0.
0.537213 0.0872144 0.
0.539231 0.0872996 0.
0.541251 0.0873865 0.
0.54327 0.0874733 0.
0.545291 0.0875659 0.
0.547312 0.0876613 0.
0.549333 0.0877567 0.
0.551358 0.0878525 0.
0.553384 0.0879492 0.
0.55541 0.0880421 0.
0.557438 0.0881036 0.
0.559467 0.0881649 0.
0.561495 0.0882246 0.
0.563524 0.0882797 0.
0.565553 0.0883348 0.
0.567582 0.0883889 0.
0.56961 0.088442 0.
0.571639 0.0884951 0.
0.573668 0.0885492 0.
0.575696 0.0886039 0.
0.577725 0.0886574 0.
0.579752 0.0886835 0.
0.581779 0.0887096 0.
0.583806 0.088734 0.
0.585832 0.0887545 0.
0.587858 0.0887749 0.
0.589884 0.0887921 0.
0.59191 0.0888064 0.
0.593936 0.0888206 0.
0.595962 0.0888258 0.
0.597987 0.0888282 0.
0.600013 0.0888306 0.
0.602038 0.0888203 0.
0.604064 0.08881 0.
0.60609 0.0887981 0.
0.608116 0.0887809 0.
0.610142 0.0887637 0.
0.612168 0.0887443 0.
0.614194 0.0887224 0.
0.61622 0.0887005 0.
0.618247 0.088674 0.
0.620274 0.0886458 0.
0.622301 0.0886175 0.
0.62433 0.0885609 0.
0.626358 0.0885032 0.
0.628386 0.0884462 0.
0.630415 0.0883906 0.
0.632443 0.088335 0.
0.634472 0.0882781 0.
0.636501 0.0882201 0.
0.63853 0.0881622 0.
0.640558 0.0880984 0.
0.642586 0.0880327 0.
0.644613 0.0879666 0.
0.646638 0.0878697 0.
0.648663 0.087769 0.
0.650686 0.0876692 0.
0.652706 0.0875711 0.
0.654726 0.0874731 0.
0.656745 0.0873779 0.
0.658764 0.0872892 0.
0.660784 0.0872004 0.
0.662801 0.0871126 0.
0.664816 0.0870258 0.
0.666832 0.0869387 0.
0.668842 0.0868389 0.
0.670851 0.0867382 0.
0.67286 0.0866352 0.
0.674865 0.0865088 0.
0.676869 0.0863815 0.
0.678874 0.0862575 0.
0.680878 0.0861316 0.
0.682882 0.0860056 0.
0.684887 0.0858878 0.
0.686891 0.0857796 0.
0.688895 0.0856713 0.
0.690901 0.0855768 0.
0.692906 0.085487 0.
0.694912 0.0853994 0.
0.69692 0.0853521 0.
0.698929 0.085308 0.
0.499146 0.0873039 0.
0.501151 0.0873636 0.
0.503156 0.0874326 0.
0.50516 0.0875039 0.
0.507161 0.0875991 0.
0.509161 0.0876951 0.
0.511162 0.0877938 0.
0.513162 0.0879006 0.
0.515163 0.0880073 0.
0.517163 0.0881241 0.
0.519165 0.0882485 0.
0.521166 0.0883729 0.
0.523168 0.0884956 0.
0.52517 0.0886216 0.
0.527172 0.0887466 0.
0.529179 0.0888448 0.
0.531186 0.0889407 0.
0.533194 0.0890359 0.
0.535207 0.089118 0.
0.537221 0.0891997 0.
0.539235 0.0892832 0.
0.541252 0.0893693 0.
0.543269 0.0894553 0.
0.545287 0.0895474 0.
0.547305 0.0896424 0.
0.549323 0.0897374 0.
0.551346 0.0898308 0.
0.553369 0.0899243 0.
0.555393 0.0900143 0.
0.557421 0.0900757 0.
0.559449 0.0901368 0.
0.561477 0.0901965 0.
0.563506 0.0902515 0.
0.565535 0.0903065 0.
0.567564 0.0903606 0.
0.569593 0.0904137 0.
0.571621 0.0904669 0.
0.57365 0.0905213 0.
0.57568 0.0905763 0.
0.577709 0.0906303 0.
0.579737 0.0906571 0.
0.581766 0.0906837 0.
0.583794 0.0907087 0.
0.585822 0.0907292 0.
0.587849 0.0907497 0.
0.589877 0.090767 0.
0.591905 0.0907815 0.
0.593932 0.090796 0.
0.59596 0.0908013 0.
0.597987 0.0908037 0.
0.600014 0.0908061 0.
0.602041 0.0907957 0.
0.604068 0.0907852 0.
0.606095 0.0907731 0.
0.608123 0.0907558 0.
0.61015 0.0907385 0.
0.612178 0.090719 0.
0.614205 0.0906971 0.
0.616232 0.0906752 0.
0.618261 0.0906481 0.
0.620289 0.090619 0.
0.622318 0.0905898 0.
0.624347 0.0905331 0.
0.626375 0.0904754 0.
0.628404 0.0904184 0.
0.630433 0.0903628 0.
0.632461 0.0903072 0.
0.63449 0.0902503 0.
0.636518 0.0901925 0.
0.638547 0.0901346 0.
0.640575 0.0900713 0.
0.642601 0.0900061 0.
0.644628 0.0899406 0.
0.64665 0.0898465 0.
0.648672 0.0897488 0.
0.650693 0.0896514 0.
0.652709 0.0895537 0.
0.654726 0.0894559 0.
0.656743 0.0893611 0.
0.658759 0.0892732 0.
0.660775 0.0891852 0.
0.662789 0.0890992 0.
0.664801 0.0890145 0.
0.666814 0.0889295 0.
0.668821 0.0888327 0.
0.670827 0.088735 0.
0.672833 0.0886348 0.
0.674834 0.0885089 0.
0.676835 0.0883821 0.
0.678837 0.0882585 0.
0.680837 0.0881331 0.
0.682838 0.0880077 0.
0.684839 0.0878901 0.
0.686839 0.0877822 0.
0.688839 0.0876742 0.
0.690841 0.0875788 0.
0.692843 0.0874883 0.
0.694845 0.0873994 0.
0.69685 0.0873513 0.
0.698855 0.0873066 0.
0.499206 0.0893046 0.
0.501207 0.0893662 0.
0.503208 0.0894366 0.
0.505208 0.0895092 0.
0.507205 0.0896049 0.
0.509203 0.0897014 0.
0.511199 0.0898005 0.
0.513196 0.0899071 0.
0.515192 0.0900137 0.
0.517189 0.0901303 0.
0.519187 0.0902545 0.
0.521184 0.0903786 0.
0.523182 0.0905007 0.
0.525181 0.0906262 0.
0.527179 0.0907506 0.
0.529184 0.0908453 0.
0.531188 0.0909372 0.
0.533194 0.0910287 0.
0.535205 0.0911093 0.
0.537217 0.0911897 0.
0.539229 0.0912719 0.
0.541244 0.0913566 0.
0.54326 0.0914411 0.
0.545276 0.0915324 0.
0.547293 0.0916271 0.
0.54931 0.0917218 0.
0.551332 0.0918122 0.
0.553355 0.0919023 0.
0.555379 0.091989 0.
0.557406 0.0920493 0.
0.559434 0.0921094 0.
0.561462 0.0921682 0.
0.563491 0.0922231 0.
0.56552 0.0922781 0.
0.567549 0.0923322 0.
0.569578 0.0923853 0.
0.571607 0.0924383 0.
0.573636 0.0924926 0.
0.575665 0.0925476 0.
0.577695 0.0926016 0.
0.579725 0.092629 0.
0.581754 0.0926562 0.
0.583784 0.0926816 0.
0.585813 0.092702 0.
0.587842 0.0927225 0.
0.589871 0.0927399 0.
0.5919 0.0927547 0.
0.593929 0.0927695 0.
0.595958 0.0927749 0.
0.597987 0.0927774 0.
0.600015 0.0927798 0.
0.602043 0.0927692 0.
0.604072 0.0927585 0.
0.6061 0.0927463 0.
0.608129 0.092729 0.
0.610157 0.0927116 0.
0.612186 0.0926921 0.
0.614215 0.0926702 0.
0.616243 0.0926483 0.
0.618273 0.0926206 0.
0.620302 0.0925908 0.
0.622332 0.0925608 0.
0.624361 0.0925045 0.
0.62639 0.0924472 0.
0.628419 0.0923906 0.
0.630447 0.0923348 0.
0.632476 0.092279 0.
0.634504 0.0922222 0.
0.636533 0.0921646 0.
0.638562 0.092107 0.
0.640589 0.092045 0.
0.642616 0.0919815 0.
0.644643 0.0919178 0.
0.646664 0.0918269 0.
0.648685 0.0917325 0.
0.650705 0.091638 0.
0.65272 0.0915405 0.
0.654736 0.0914429 0.
0.65675 0.0913488 0.
0.658764 0.0912621 0.
0.660778 0.0911753 0.
0.66279 0.0910906 0.
0.6648 0.0910073 0.
0.66681 0.0909239 0.
0.668815 0.0908307 0.
0.670819 0.0907368 0.
0.672822 0.09064 0.
0.674819 0.0905144 0.
0.676817 0.0903879 0.
0.678815 0.0902646 0.
0.680811 0.0901395 0.
0.682808 0.0900143 0.
0.684805 0.0898967 0.
0.686801 0.0897889 0.
0.688798 0.089681 0.
0.690795 0.0895847 0.
0.692793 0.0894932 0.
0.694792 0.0894031 0.
0.696793 0.0893543 0.
0.698794 0.0893092 0.
0.499257 0.0913082 0.
0.501255 0.091372 0.
0.503253 0.0914439 0.
0.50525 0.0915181 0.
0.507244 0.0916143 0.
0.509238 0.091711 0.
0.511231 0.0918105 0.
0.513225 0.0919168 0.
0.515218 0.0920232 0.
0.517211 0.0921397 0.
0.519205 0.0922634 0.
0.521198 0.0923871 0.
0.523193 0.0925084 0.
0.525187 0.0926329 0.
0.527182 0.0927563 0.
0.529184 0.0928469 0.
0.531187 0.0929343 0.
0.533191 0.0930216 0.
0.535201 0.093101 0.
0.53721 0.0931804 0.
0.539221 0.0932613 0.
0.541235 0.0933443 0.
0.543249 0.0934272 0.
0.545264 0.0935176 0.
0.54728 0.0936119 0.
0.549296 0.0937062 0.
0.551318 0.0937937 0.
0.553341 0.0938803 0.
0.555364 0.0939637 0.
0.557391 0.094023 0.
0.559419 0.0940819 0.
0.561447 0.09414 0.
0.563476 0.0941948 0.
0.565505 0.0942496 0.
0.567534 0.0943037 0.
0.569563 0.0943568 0.
0.571592 0.0944098 0.
0.573621 0.094464 0.
0.575651 0.0945189 0.
0.577681 0.0945729 0.
0.579712 0.0946009 0.
0.581743 0.0946286 0.
0.583773 0.0946545 0.
0.585804 0.0946749 0.
0.587835 0.0946953 0.
0.589865 0.0947129 0.
0.591896 0.094728 0.
0.593926 0.094743 0.
0.595956 0.0947485 0.
0.597986 0.0947511 0.
0.600016 0.0947536 0.
0.602046 0.0947427 0.
0.604076 0.0947318 0.
0.606105 0.0947194 0.
0.608135 0.0947021 0.
0.610165 0.0946848 0.
0.612194 0.0946653 0.
0.614224 0.0946434 0.
0.616254 0.0946214 0.
0.618285 0.0945931 0.
0.620315 0.0945627 0.
0.622346 0.0945319 0.
0.624375 0.0944759 0.
0.626405 0.0944191 0.
0.628434 0.0943628 0.
0.630462 0.0943069 0.
0.632491 0.0942509 0.
0.634519 0.0941941 0.
0.636548 0.0941367 0.
0.638577 0.0940794 0.
0.640604 0.0940187 0.
0.642631 0.093957 0.
0.644657 0.093895 0.
0.646678 0.0938073 0.
0.648699 0.0937163 0.
0.650718 0.0936246 0.
0.652732 0.0935274 0.
0.654746 0.0934302 0.
0.656759 0.0933369 0.
0.658772 0.0932515 0.
0.660784 0.0931661 0.
0.662794 0.0930827 0.
0.664802 0.0930007 0.
0.66681 0.0929186 0.
0.668813 0.0928295 0.
0.670814 0.09274 0.
0.672815 0.0926471 0.
0.674809 0.0925223 0.
0.676803 0.0923966 0.
0.678797 0.0922739 0.
0.68079 0.0921491 0.
0.682783 0.0920243 0.
0.684776 0.0919068 0.
0.686769 0.0917988 0.
0.688762 0.0916909 0.
0.690757 0.0915939 0.
0.692752 0.0915016 0.
0.694747 0.0914104 0.
0.696745 0.0913606 0.
0.698743 0.0913148 0.
0.499299 0.0933128 0.
0.501295 0.0933788 0.
0.503289 0.0934524 0.
0.505284 0.0935282 0.
0.507275 0.0936248 0.
0.509266 0.0937219 0.
0.511256 0.0938217 0.
0.513246 0.0939278 0.
0.515236 0.0940339 0.
0.517226 0.0941501 0.
0.519217 0.0942735 0.
0.521207 0.0943969 0.
0.523198 0.0945175 0.
0.52519 0.094641 0.
0.527181 0.0947634 0.
0.529182 0.0948501 0.
0.531184 0.0949328 0.
0.533186 0.0950158 0.
0.535194 0.0950941 0.
0.537203 0.0951723 0.
0.539212 0.095252 0.
0.541225 0.0953334 0.
0.543238 0.0954147 0.
0.545253 0.095504 0.
0.547268 0.0955975 0.
0.549283 0.095691 0.
0.551305 0.0957756 0.
0.553327 0.0958587 0.
0.55535 0.0959389 0.
0.557378 0.0959973 0.
0.559405 0.0960554 0.
0.561433 0.0961128 0.
0.563461 0.0961673 0.
0.56549 0.0962218 0.
0.567519 0.0962757 0.
0.569548 0.0963287 0.
0.571577 0.0963816 0.
0.573607 0.0964351 0.
0.575637 0.0964892 0.
0.577668 0.0965423 0.
0.5797 0.0965704 0.
0.581732 0.0965983 0.
0.583764 0.0966242 0.
0.585795 0.0966446 0.
0.587827 0.0966649 0.
0.589859 0.0966825 0.
0.591891 0.0966975 0.
0.593923 0.0967125 0.
0.595954 0.0967181 0.
0.597986 0.0967208 0.
0.600018 0.0967234 0.
0.602049 0.0967127 0.
0.60408 0.096702 0.
0.606111 0.0966897 0.
0.608142 0.0966724 0.
0.610173 0.0966551 0.
0.612203 0.0966356 0.
0.614234 0.0966137 0.
0.616265 0.0965918 0.
0.618296 0.0965634 0.
0.620327 0.0965328 0.
0.622359 0.0965018 0.
0.624389 0.0964467 0.
0.626419 0.0963908 0.
0.628449 0.0963353 0.
0.630477 0.0962795 0.
0.632506 0.0962238 0.
0.634534 0.0961671 0.
0.636563 0.0961101 0.
0.638591 0.0960531 0.
0.640618 0.0959935 0.
0.642644 0.0959332 0.
0.64467 0.0958725 0.
0.646691 0.095788 0.
0.648711 0.0957002 0.
0.65073 0.0956112 0.
0.652743 0.0955147 0.
0.654757 0.095418 0.
0.656769 0.0953257 0.
0.65878 0.095242 0.
0.660792 0.0951582 0.
0.6628 0.0950761 0.
0.664806 0.0949954 0.
0.666813 0.0949146 0.
0.668814 0.0948296 0.
0.670814 0.0947445 0.
0.672812 0.0946555 0.
0.674803 0.0945314 0.
0.676793 0.0944065 0.
0.678784 0.0942844 0.
0.680774 0.0941599 0.
0.682764 0.0940353 0.
0.684754 0.0939178 0.
0.686744 0.0938099 0.
0.688734 0.093702 0.
0.690726 0.0936042 0.
0.692718 0.0935111 0.
0.69471 0.093419 0.
0.696705 0.0933679 0.
0.6987 0.0933209 0.
0.499327 0.0953194 0.
0.501321 0.0953875 0.
0.503313 0.095463 0.
0.505305 0.0955406 0.
0.507294 0.0956376 0.
0.509282 0.095735 0.
0.51127 0.095835 0.
0.513258 0.0959409 0.
0.515246 0.0960467 0.
0.517234 0.0961628 0.
0.519222 0.0962861 0.
0.52121 0.0964094 0.
0.5232 0.0965293 0.
0.52519 0.096652 0.
0.527181 0.0967737 0.
0.52918 0.0968559 0.
0.53118 0.0969335 0.
0.533182 0.0970115 0.
0.535189 0.0970884 0.
0.537196 0.0971652 0.
0.539205 0.0972434 0.
0.541217 0.0973232 0.
0.543229 0.0974029 0.
0.545243 0.0974909 0.
0.547258 0.0975835 0.
0.549273 0.0976762 0.
0.551293 0.0977578 0.
0.553316 0.0978375 0.
0.555338 0.0979145 0.
0.557365 0.0979719 0.
0.559391 0.098029 0.
0.561419 0.0980856 0.
0.563447 0.0981398 0.
0.565475 0.098194 0.
0.567504 0.0982477 0.
0.569533 0.0983006 0.
0.571562 0.0983534 0.
0.573593 0.098406 0.
0.575624 0.0984592 0.
0.577655 0.0985114 0.
0.579688 0.0985396 0.
0.581721 0.0985675 0.
0.583754 0.0985934 0.
0.585787 0.0986138 0.
0.58782 0.0986342 0.
0.589853 0.0986517 0.
0.591886 0.0986666 0.
0.593919 0.0986815 0.
0.595953 0.0986873 0.
0.597986 0.0986902 0.
0.600019 0.098693 0.
0.602052 0.0986824 0.
0.604085 0.0986719 0.
0.606117 0.0986597 0.
0.608149 0.0986424 0.
0.610181 0.098625 0.
0.612213 0.0986055 0.
0.614244 0.0985836 0.
0.616276 0.0985617 0.
0.618308 0.0985332 0.
0.62034 0.0985025 0.
0.622371 0.0984715 0.
0.624402 0.0984173 0.
0.626433 0.0983624 0.
0.628463 0.0983078 0.
0.630491 0.0982522 0.
0.63252 0.0981966 0.
0.634548 0.0981403 0.
0.636576 0.0980837 0.
0.638604 0.0980271 0.
0.640631 0.0979687 0.
0.642656 0.0979098 0.
0.644682 0.0978505 0.
0.646702 0.0977691 0.
0.648721 0.0976846 0.
0.65074 0.0975985 0.
0.652752 0.0975026 0.
0.654765 0.0974067 0.
0.656777 0.0973155 0.
0.658787 0.0972334 0.
0.660797 0.0971512 0.
0.662804 0.0970708 0.
0.66481 0.0969916 0.
0.666815 0.0969123 0.
0.668815 0.096832 0.
0.670813 0.0967518 0.
0.672811 0.096667 0.
0.6748 0.0965435 0.
0.67679 0.0964191 0.
0.678779 0.0962976 0.
0.680766 0.096173 0.
0.682754 0.0960484 0.
0.684741 0.0959309 0.
0.686729 0.095823 0.
0.688717 0.095715 0.
0.690706 0.0956167 0.
0.692696 0.0955228 0.
0.694686 0.0954298 0.
0.696679 0.0953772 0.
0.698672 0.0953289 0.
CELLS 5000 10000
1 0
1 1
1 2
1 3
1 4
1 5
1 6
1 7
1 8
1 9
1 10
1 11
1 12
1 13
1 14
1 15
1 16
1 17
1 18
1 19
1 20
1 21
1 22
1 23
1 24
1 25
1 26
1 27
1 28
1 29
1 30
1 31
1 32
1 33
1 34
1 35
1 36
1 37
1 38
1 39
1 40
1 41
1 42
1 43
1 44
1 45
1 46
1 47
1 48
1 49
1 50
1 51
1 52
1 53
1 54
1 55
1 56
1 57
1 58
1 59
1 60
1 61
1 62
1 63
1 64
1 65
1 66
1 67
1 68
1 69
1 70
1 71
1 72
1 73
1 74
1 75
1 76
1 77
1 78
1 79
1 80
1 81
1 82
1 83
1 84
1 85
1 86
1 87
1 88
1 89
1 90
1 91
1 92
1 93
1 94
1 95
1 96
1 97
1 98
1 99
1 100
1 101
1 102
1 103
1 104
1 105
1 106
1 107
1 108
1 109
1 110
1 111
1 112
1 113
1 114
1 115
1 116
1 117
1 118
1 119
1 120
1 121
1 122
1 123
1 124
1 125
1 126
1 127
1 128
1 129
1 130
1 131
1 132
1 133
1 134
1 135
1 136
1 137
1 138
1 139
1 140
1 141
1 142
1 143
1 144
1 145
1 146
1 147
1 148
1 149
1 150
1 151
1 152
1 153
1 154
1 155
1 156
1 157
1 158
1 159
1 160
1 161
1 162
1 163
1 164
1 165
1 166
1 167
1 168
1 169
1 170
1 171
1 172
1 173
1 174
1 175
1 176
1 177
1 178
1 179
1 180
1 181
1 182
1 183
1 184
1 185
1 186
1 187
1 188
1 189
1 190
1 191
1 192
1 193
1 194
1 195
1 196
1 197
1 198
1 199
1 200
1 201
1 202
1 203
1 204
1 205
1 206
1 207
1 208
1 209
1 210
1 211
1 212
1 213
1 214
1 215
1 216
1 217
1 218
1 219
1 220
1 221
1 222
1 223
1 224
1 225
1 226
1 227
1 228
1 229
1 230
1 231
1 232
1 233
1 234
1 235
1 236
1 237
1 238
1 239
1 240
1 241
1 242
1 243
1 244
1 245
1 246
1 247
1 248
1 249
1 250
1 251
1 252
1 253
1 254
1 255
1 256
1 257
1 258
1 259
1 260
1 261
1 262
1 263
1 264
1 265
1 266
1 267
1 268
1 269
1 270
1 271
1 272
1 273
1 274
1 275
1 276
1 277
1 278
1 279
1 280
1 281
1 282
1 283
1 284
1 285
1 286
1 287
1 288
1 289
1 290
1 291
1 292
1 293
1 294
1 295
1 296
1 297
1 298
1 299
1 300
1 301
1 302
1 303
1 304
1 305
1 306
1 307
1 308
1 309
1 310
1 311
1 312
1 313
1 314
1 315
1 316
1 317
1 318
1 319
1 320
1 321
1 322
1 323
1 324
1 325
1 326
1 327
1 328
1 329
1 330
1 331
1 332
1 333
1 334
1 335
1 336
1 337
1 338
1 339
1 340
1 341
1 342
1 343
1 344
1 345
1 346
1 347
1 348
1 349
1 350
1 351
1 352
1 353
1 354
1 355
1 356
1 357
1 358
1 359
1 360
1 361
1 362
1 363
1 364
1 365
1 366
1 367
1 368
1 369
1 370
1 371
1 372
1 373
1 374
1 375
1 376
1 377
1 378
1 379
1 380
1 381
1 382
1 383
1 384
1 385
1 386
1 387
1 388
1 389
1 390
1 391
1 392
1 393
1 394
1 395
1 396
1 397
1 398
1 399
1 400
1 401
1 402
1 403
1 404
1 405
1 406
1 407
1 408
1 409
1 410
1 411
1 412
1 413
1 414
1 415
1 416
1 417
1 418
1 419
1 420
1 421
1 422
1 423
1 424
1 425
1 426
1 427
1 428
1 429
1 430
1 431
1 432
1 433
1 434
1 435
1 436
1 437
1 438
1 439
1 440
1 441
1 442
1 443
1 444
1 445
1 446
1 447
1 448
1 449
1 450
1 451
1 452
1 453
1 454
1 455
1 456
1 457
1 458
1 459
1 460
1 461
1 462
1 463
1 464
1 465
1 466
1 467
1 468
1 469
1 470
1 471
1 472
1 473
1 474
1 475
1 476
1 477
1 478
1 479
1 480
1 481
1 482
1 483
1 484
1 485
1 486
1 487
1 488
1 489
1 490
1 491
1 492
1 493
1 494
1 495
1 496
1 497
1 498
1 499
1 500
1 501
1 502
1 503
1 504
1 505
1 506
1 507
1 508
1 509
1 510
1 511
1 512
1 513
1 514
1 515
1 516
1 517
1 518
1 519
1 520
1 521
1 522
1 523
1 524
1 525
1 526
1 527
1 528
1 529
1 530
1 531
1 532
1 533
1 534
1 535
1 536
1 537
1 538
1 539
1 540
1 541
1 542
1 543
1 544
1 545
1 546
1 547
1 548
1 549
1 550
1 551
1 552
1 553
1 554
1 555
1 556
1 557
1 558
1 559
1 560
1 561
1 562
1 563
1 564
1 565
1 566
1 567
1 568
1 569
1 570
1 571
1 572
1 573
1 574
1 575
1 576
1 577
1 578
1 579
1 580
1 581
1 582
1 583
1 584
1 585
1 586
1 587
1 588
1 589
1 590
1 591
1 592
1 593
1 594
1 595
1 596
1 597
1 598
1 599
1 600
1 601
1 602
1 603
1 604
1 605
1 606
1 607
1 608
1 609
1 610
1 611
1 612
1 613
1 614
1 615
1 616
1 617
1 618
1 619
1 620
1 621
1 622
1 623
1 624
1 625
1 626
1 627
1 628
1 629
1 630
1 631
1 632
1 633
1 634
1 635
1 636
1 637
1 638
1 639
1 640
1 641
1 642
1 643
1 644
1 645
1 646
1 647
1 648
1 649
1 650
1 651
1 652
1 653
1 654
1 655
1 656
1 657
1 658
1 659
1 660
1 661
1 662
1 663
1 664
1 665
1 666
1 667
1 668
1 669
1 670
1 671
1 672
1 673
1 674
1 675
1 676
1 677
1 678
1 679
1 680
1 681
1 682
1 683
1 684
1 685
1 686
1 687
1 688
1 689
1 690
1 691
1 692
1 693
1 694
1 695
1 696
1 697
1 698
1 699
1 700
1 701
1 702
1 703
1 704
1 705
1 706
1 707
1 708
1 709
1 710
1 711
1 712
1 713
1 714
1 715
1 716
1 717
1 718
1 719
1 720
1 721
1 722
1 723
1 724
1 725
1 726
1 727
1 728
1 729
1 730
1 731
1 732
1 733
1 734
1 735
1 736
1 737
1 738
1 739
1 740
1 741
1 742
1 743
1 744
1 745
1 746
1 747
1 748
1 749
1 750
1 751
1 752
1 753
1 754
1 755
1 756
1 757
1 758
1 759
1 760
1 761
1 762
1 763
1 764
1 765
1 766
1 767
1 768
1 769
1 770
1 771
1 772
1 773
1 774
1 775
1 776
1 777
1 778
1 779
1 780
1 781
1 782
1 783
1 784
1 785
1 786
1 787
1 788
1 789
1 790
1 791
1 792
1 793
1 794
1 795
1 796
1 797
1 798
1 799
1 800
1 801
1 802
1 803
1 804
1 805
1 806
1 807
1 808
1 809
1 810
1 811
1 812
1 813
1 814
1 815
1 816
1 817
1 818
1 819
1 820
1 821
1 822
1 823
1 824
1 825
1 826
1 827
1 828
1 829
1 830
1 831
1 832
1 833
1 834
1 835
1 836
1 837
1 838
1 839
1 840
1 841
1 842
1 843
1 844
1 845
1 846
1 847
1 848
1 849
1 850
1 851
1 852
1 853
1 854
1 855
1 856
1 857
1 858
1 859
1 860
1 861
1 862
1 863
1 864
1 865
1 866
1 867
1 868
1 869
1 870
1 871
1 872
1 873
1 874
1 875
1 876
1 877
1 878
1 879
1 880
1 881
1 882
1 883
1 884
1 885
1 886
1 887
1 888
1 889
1 890
1 891
1 892
1 893
1 894
1 895
1 896
1 897
1 898
1 899
1 900
1 901
1 902
1 903
1 904
1 905
1 906
1 907
1 908
1 909
1 910
1 911
1 912
1 913
1 914
1 915
1 916
1 917
1 918
1 919
1 920
1 921
1 922
1 923
1 924
1 925
1 926
1 927
1 928
1 929
1 930
1 931
1 932
1 933
1 934
1 935
1 936
1 937
1 938
1 939
1 940
1 941
1 942
1 943
1 944
1 945
1 946
1 947
1 948
1 949
1 950
1 951
1 952
1 953
1 954
1 955
1 956
1 957
1 958
1 959
1 960
1 961
1 962
1 963
1 964
1 965
1 966
1 967
1 968
1 969
1 970
1 971
1 972
1 973
1 974
1 975
1 976
1 977
1 978
1 979
1 980
1 981
1 982
1 983
1 984
1 985
1 986
1 987
1 988
1 989
1 990
1 991
1 992
1 993
1 994
1 995
1 996
1 997
1 998
1 999
1 1000
1 1001
1 1002
1 1003
1 1004
1 1005
1 1006
1 1007
1 1008
1 1009
1 1010
1 1011
1 1012
1 1013
1 1014
1 1015
1 1016
1 1017
1 1018
1 1019
1 1020
1 1021
1 1022
1 1023
1 1024
1 1025
1 1026
1 1027
1 1028
1 1029
1 1030
1 1031
1 1032
1 1033
1 1034
1 1035
1 1036
1 1037
1 1038
1 1039
1 1040
1 1041
1 1042
1 1043
1 1044
1 1045
1 1046
1 1047
1 1048
1 1049
1 1050
1 1051
1 1052
1 1053
1 1054
1 1055
1 1056
1 1057
1 1058
1 1059
1 1060
1 1061
1 1062
1 1063
1 1064
1 1065
1 1066
1 1067
1 1068
1 1069
1 1070
1 1071
1 1072
1 1073
1 1074
1 1075
1 1076
1 1077
1 1078
1 1079
1 1080
1 1081
1 1082
1 1083
1 1084
1 1085
1 1086
1 1087
1 1088
1 1089
1 1090
1 1091
1 1092
1 1093
1 1094
1 1095
1 1096
1 1097
1 1098
1 1099
1 1100
1 1101
1 1102
1 1103
1 1104
1 1105
1 1106
1 1107
1 1108
1 1109
1 1110
1 1111
1 1112
1 1113
1 1114
1 1115
1 1116
1 1117
1 1118
1 1119
1 1120
1 1121
1 1122
1 1123
1 1124
1 1125
1 1126
1 1127
1 1128
1 1129
1 1130
1 1131
1 1132
1 1133
1 1134
1 1135
1 1136
1 1137
1 1138
1 1139
1 1140
1 1141
1 1142
1 1143
1 1144
1 1145
1 1146
1 1147
1 1148
1 1149
1 1150
1 1151
1 1152
1 1153
1 1154
1 1155
1 1156
1 1157
1 1158
1 1159
1 1160
1 1161
1 1162
1 1163
1 1164
1 1165
1 1166
1 1167
1 1168
1 1169
1 1170
1 1171
1 1172
1 1173
1 1174
1 1175
1 1176
1 1177
1 1178
1 1179
1 1180
1 1181
1 1182
1 1183
1 1184
1 1185
1 1186
1 1187
1 1188
1 1189
1 1190
1 1191
1 1192
1 1193
1 1194
1 1195
1 1196
1 1197
1 1198
1 1199
1 1200
1 1201
1 1202
1 1203
1 1204
1 1205
1 1206
1 1207
1 1208
1 1209
1 1210
1 1211
1 1212
1 1213
1 1214
1 1215
1 1216
1 1217
1 1218
1 1219
1 1220
1 1221
1 1222
1 1223
1 1224
1 1225
1 1226
1 1227
1 1228
1 1229
1 1230
1 1231
1 1232
1 1233
1 1234
1 1235
1 1236
1 1237
1 1238
1 1239
1 1240
1 1241
1 1242
1 1243
1 1244
1 1245
1 1246
1 1247
1 1248
1 1249
1 1250
1 1251
1 1252
1 1253
1 1254
1 1255
1 1256
1 1257
1 1258
1 1259
1 1260
1 1261
1 1262
1 1263
1 1264
1 1265
1 1266
1 1267
1 1268
1 1269
1 1270
1 1271
1 1272
1 1273
1 1274
1 1275
1 1276
1 1277
1 1278
1 1279
1 1280
1 1281
1 1282
1 1283
1 1284
1 1285
1 1286
1 1287
1 1288
1 1289
1 1290
1 1291
1 1292
1 1293
1 1294
1 1295
1 1296
1 1297
1 1298
1 1299
1 1300
1 1301
1 1302
1 1303
1 1304
1 1305
1 1306
1 1307
1 1308
1 1309
1 1310
1 1311
1 1312
1 1313
1 1314
1 1315
1 1316
1 1317
1 1318
1 1319
1 1320
1 1321
1 1322
1 1323
1 1324
1 1325
1 1326
1 1327
1 1328
1 1329
1 1330
1 1331
1 1332
1 1333
1 1334
1 1335
1 1336
1 1337
1 1338
1 1339
1 1340
1 1341
1 1342
1 1343
1 1344
1 1345
1 1346
1 1347
1 1348
1 1349
1 1350
1 1351
1 1352
1 1353
1 1354
1 1355
1 1356
1 1357
1 1358
1 1359
1 1360
1 1361
1 1362
1 1363
1 1364
1 1365
1 1366
1 1367
1 1368
1 1369
1 1370
1 1371
1 1372
1 1373
1 1374
1 1375
1 1376
1 1377
1 1378
1 1379
1 1380
1 1381
1 1382
1 1383
1 1384
1 1385
1 1386
1 1387
1 1388
1 1389
1 1390
1 1391
1 1392
1 1393
1 1394
1 1395
1 1396
1 1397
1 1398
1 1399
1 1400
1 1401
1 1402
1 1403
1 1404
1 1405
1 1406
1 1407
1 1408
1 1409
1 1410
1 1411
1 1412
1 1413
1 1414
1 1415
1 1416
1 1417
1 1418
1 1419
1 1420
1 1421
1 1422
1 1423
1 1424
1 1425
1 1426
1 1427
1 1428
1 1429
1 1430
1 1431
1 1432
1 1433
1 1434
1 1435
1 1436
1 1437
1 1438
1 1439
1 1440
1 1441
1 1442
1 1443
1 1444
1 1445
1 1446
1 1447
1 1448
1 1449
1 1450
1 1451
1 1452
1 1453
1 1454
1 1455
1 1456
1 1457
1 1458
1 1459
1 1460
1 1461
1 1462
1 1463
1 1464
1 1465
1 1466
1 1467
1 1468
1 1469
1 1470
1 1471
1 1472
1 1473
1 1474
1 1475
1 1476
1 1477
1 1478
1 1479
1 1480
1 1481
1 1482
1 1483
1 1484
1 1485
1 1486
1 1487
1 1488
1 1489
1 1490
1 1491
1 1492
1 1493
1 1494
1 1495
1 1496
1 1497
1 1498
1 1499
1 1500
1 1501
1 1502
1 1503
1 1504
1 1505
1 1506
1 1507
1 1508
1 1509
1 1510
1 1511
1 1512
1 1513
1 1514
1 1515
1 1516
1 1517
1 1518
1 1519
1 1520
1 1521
1 1522
1 1523
1 1524
1 1525
1 1526
1 1527
1 1528
1 1529
1 1530
1 1531
1 1532
1 1533
1 1534
1 1535
1 1536
1 1537
1 1538
1 1539
1 1540
1 1541
1 1542
1 1543
1 1544
1 1545
1 1546
1 1547
1 1548
1 1549
1 1550
1 1551
1 1552
1 1553
1 1554
1 1555
1 1556
1 1557
1 1558
1 1559
1 1560
1 1561
1 1562
1 1563
1 1564
1 1565
1 1566
1 1567
1 1568
1 1569
1 1570
1 1571
1 1572
1 1573
1 1574
1 1575
1 1576
1 1577
1 1578
1 1579
1 1580
1 1581
1 1582
1 1583
1 1584
1 1585
1 1586
1 1587
1 1588
1 1589
1 1590
1 1591
1 1592
1 1593
1 1594
1 1595
1 1596
1 1597
1 1598
1 1599
1 1600
1 1601
1 1602
1 1603
1 1604
1 1605
1 1606
1 1607
1 1608
1 1609
1 1610
1 1611
1 1612
1 1613
1 1614
1 1615
1 1616
1 1617
1 1618
1 1619
1 1620
1 1621
1 1622
1 1623
1 1624
1 1625
1 1626
1 1627
1 1628
1 1629
1 1630
1 1631
1 1632
1 1633
1 1634
1 1635
1 1636
1 1637
1 1638
1 1639
1 1640
1 1641
1 1642
1 1643
1 1644
1 1645
1 1646
1 1647
1 1648
1 1649
1 1650
1 1651
1 1652
1 1653
1 1654
1 1655
1 1656
1 1657
1 1658
1 1659
1 1660
1 1661
1 1662
1 1663
1 1664
1 1665
1 1666
1 1667
1 1668
1 1669
1 1670
1 1671
1 1672
1 1673
1 1674
1 1675
1 1676
1 1677
1 1678
1 1679
1 1680
1 1681
1 1682
1 1683
1 1684
1 1685
1 1686
1 1687
1 1688
1 1689
1 1690
1 1691
1 1692
1 1693
1 1694
1 1695
1 1696
1 1697
1 1698
1 1699
1 1700
1 1701
1 1702
1 1703
1 1704
1 1705
1 1706
1 1707
1 1708
1 1709
1 1710
1 1711
1 1712
1 1713
1 1714
1 1715
1 1716
1 1717
1 1718
1 1719
1 1720
1 1721
1 1722
1 1723
1 1724
1 1725
1 1726
1 1727
1 1728
1 1729
1 1730
1 1731
1 1732
1 1733
1 1734
1 1735
1 1736
1 1737
1 1738
1 1739
1 1740
1 1741
1 1742
1 1743
1 1744
1 1745
1 1746
1 1747
1 1748
1 1749
1 1750
1 1751
1 1752
1 1753
1 1754
1 1755
1 1756
1 1757
1 1758
1 1759
1 1760
1 1761
1 1762
1 1763
1 1764
1 1765
1 1766
1 1767
1 1768
1 1769
1 1770
1 1771
1 1772
1 1773
1 1774
1 1775
1 1776
1 1777
1 1778
1 1779
1 1780
1 1781
1 1782
1 1783
1 1784
1 1785
1 1786
1 1787
1 1788
1 1789
1 1790
1 1791
1 1792
1 1793
1 1794
1 1795
1 1796
1 1797
1 1798
1 1799
1 1800
1 1801
1 1802
1 1803
1 1804
1 1805
1 1806
1 1807
1 1808
1 1809
1 1810
1 1811
1 1812
1 1813
1 1814
1 1815
1 1816
1 1817
1 1818
1 1819
1 1820
1 1821
1 1822
1 1823
1 1824
1 1825
1 1826
1 1827
1 1828
1 1829
1 1830
1 1831
1 1832
1 1833
1 1834
1 1835
1 1836
1 1837
1 1838
1 1839
1 1840
1 1841
1 1842
1 1843
1 1844
1 1845
1 1846
1 1847
1 1848
1 1849
1 1850
1 1851
1 1852
1 1853
1 1854
1 1855
1 1856
1 1857
1 1858
1 1859
1 1860
1 1861
1 1862
1 1863
1 1864
1 1865
1 1866
1 1867
1 1868
1 1869
1 1870
1 1871
1 1872
1 1873
1 1874
1 1875
1 1876
1 1877
1 1878
1 1879
1 1880
1 1881
1 1882
1 1883
1 1884
1 1885
1 1886
1 1887
1 1888
1 1889
1 1890
1 1891
1 1892
1 1893
1 1894
1 1895
1 1896
1 1897
1 1898
1 1899
1 1900
1 1901
1 1902
1 1903
1 1904
1 1905
1 1906
1 1907
1 1908
1 1909
1 1910
1 1911
1 1912
1 1913
1 1914
1 1915
1 1916
1 1917
1 1918
1 1919
1 1920
1 1921
1 1922
1 1923
1 1924
1 1925
1 1926
1 1927
1 1928
1 1929
1 1930
1 1931
1 1932
1 1933
1 1934
1 1935
1 1936
1 1937
1 1938
1 1939
1 1940
1 1941
1 1942
1 1943
1 1944
1 1945
1 1946
1 1947
1 1948
1 1949
1 1950
1 1951
1 1952
1 1953
1 1954
1 1955
1 1956
1 1957
1 1958
1 1959
1 1960
1 1961
1 1962
1 1963
1 1964
1 1965
1 1966
1 1967
1 1968
1 1969
1 1970
1 1971
1 1972
1 1973
1 1974
1 1975
1 1976
1 1977
1 1978
1 1979
1 1980
1 1981
1 1982
1 1983
1 1984
1 1985
1 1986
1 1987
1 1988
1 1989
1 1990
1 1991
1 1992
1 1993
1 1994
1 1995
1 1996
1 1997
1 1998
1 1999
1 2000
1 2001
1 2002
1 2003
1 2004
1 2005
1 2006
1 2007
1 2008
1 2009
1 2010
1 2011
1 2012
1 2013
1 2014
1 2015
1 2016
1 2017
1 2018
1 2019
1 2020
1 2021
1 2022
1 2023
1 2024
1 2025
1 2026
1 2027
1 2028
1 2029
1 2030
1 2031
1 2032
1 2033
1 2034
1 2035
1 2036
1 2037
1 2038
1 2039
1 2040
1 2041
1 2042
1 2043
1 2044
1 2045
1 2046
1 2047
1 2048
1 2049
1 2050
1 2051
1 2052
1 2053
1 2054
1 2055
1 2056
1 2057
1 2058
1 2059
1 2060
1 2061
1 2062
1 2063
1 2064
1 2065
1 2066
1 2067
1 2068
1 2069
1 2070
1 2071
1 2072
1 2073
1 2074
1 2075
1 2076
1 2077
1 2078
1 2079
1 2080
1 2081
1 2082
1 2083
1 2084
1 2085
1 2086
1 2087
1 2088
1 2089
1 2090
1 2091
1 2092
1 2093
1 2094
1 2095
1 2096
1 2097
1 2098
1 2099
1 2100
1 2101
1 2102
1 2103
1 2104
1 2105
1 2106
1 2107
1 2108
1 2109
1 2110
1 2111
1 2112
1 2113
1 2114
1 2115
1 2116
1 2117
1 2118
1 2119
1 2120
1 2121
1 2122
1 2123
1 2124
1 2125
1 2126
1 2127
1 2128
1 2129
1 2130
1 2131
1 2132
1 2133
1 2134
1 2135
1 2136
1 2137
1 2138
1 2139
1 2140
1 2141
1 2142
1 2143
1 2144
1 2145
1 2146
1 2147
1 2148
1 2149
1 2150
1 2151
1 2152
1 2153
1 2154
1 2155
1 2156
1 2157
1 2158
1 2159
1 2160
1 2161
1 2162
1 2163
1 2164
1 2165
1 2166
1 2167
1 2168
1 2169
1 2170
1 2171
1 2172
1 2173
1 2174
1 2175
1 2176
1 2177
1 2178
1 2179
1 2180
1 2181
1 2182
1 2183
1 2184
1 2185
1 2186
1 2187
1 2188
1 2189
1 2190
1 2191
1 2192
1 2193
1 2194
1 2195
1 2196
1 2197
1 2198
1 2199
1 2200
1 2201
1 2202
1 2203
1 2204
1 2205
1 2206
1 2207
1 2208
1 2209
1 2210
1 2211
1 2212
1 2213
1 2214
1 2215
1 2216
1 2217
1 2218
1 2219
1 2220
1 2221
1 2222
1 2223
1 2224
1 2225
1 2226
1 2227
1 2228
1 2229
1 2230
1 2231
1 2232
1 2233
1 2234
1 2235
1 2236
1 2237
1 2238
1 2239
1 2240
1 2241
1 2242
1 2243
1 2244
1 2245
1 2246
1 2247
1 2248
1 2249
1 2250
1 2251
1 2252
1 2253
1 2254
1 2255
1 2256
1 2257
1 2258
1 2259
1 2260
1 2261
1 2262
1 2263
1 2264
1 2265
1 2266
1 2267
1 2268
1 2269
1 2270
1 2271
1 2272
1 2273
1 2274
1 2275
1 2276
1 2277
1 2278
1 2279
1 2280
1 2281
1 2282
1 2283
1 2284
1 2285
1 2286
1 2287
1 2288
1 2289
1 2290
1 2291
1 2292
1 2293
1 2294
1 2295
1 2296
1 2297
1 2298
1 2299
1 2300
1 2301
1 2302
1 2303
1 2304
1 2305
1 2306
1 2307
1 2308
1 2309
1 2310
1 2311
1 2312
1 2313
1 2314
1 2315
1 2316
1 2317
1 2318
1 2319
1 2320
1 2321
1 2322
1 2323
1 2324
1 2325
1 2326
1 2327
1 2328
1 2329
1 2330
1 2331
1 2332
1 2333
1 2334
1 2335
1 2336
1 2337
1 2338
1 2339
1 2340
1 2341
1 2342
1 2343
1 2344
1 2345
1 2346
1 2347
1 2348
1 2349
1 2350
1 2351
1 2352
1 2353
1 2354
1 2355
1 2356
1 2357
1 2358
1 2359
1 2360
1 2361
1 2362
1 2363
1 2364
1 2365
1 2366
1 2367
1 2368
1 2369
1 2370
1 2371
1 2372
1 2373
1 2374
1 2375
1 2376
1 2377
1 2378
1 2379
1 2380
1 2381
1 2382
1 2383
1 2384
1 2385
1 2386
1 2387
1 2388
1 2389
1 2390
1 2391
1 2392
1 2393
1 2394
1 2395
1 2396
1 2397
1 2398
1 2399
1 2400
1 2401
1 2402
1 2403
1 2404
1 2405
1 2406
1 2407
1 2408
1 2409
1 2410
1 2411
1 2412
1 2413
1 2414
1 2415
1 2416
1 2417
1 2418
1 2419
1 2420
1 2421
1 2422
1 2423
1 2424
1 2425
1 2426
1 2427
1 2428
1 2429
1 2430
1 2431
1 2432
1 2433
1 2434
1 2435
1 2436
1 2437
1 2438
1 2439
1 2440
1 2441
1 2442
1 2443
1 2444
1 2445
1 2446
1 2447
1 2448
1 2449
1 2450
1 2451
1 2452
1 2453
1 2454
1 2455
1 2456
1 2457
1 2458
1 2459
1 2460
1 2461
1 2462
1 2463
1 2464
1 2465
1 2466
1 2467
1 2468
1 2469
1 2470
1 2471
1 2472
1 2473
1 2474
1 2475
1 2476
1 2477
1 2478
1 2479
1 2480
1 2481
1 2482
1 2483
1 2484
1 2485
1 2486
1 2487
1 2488
1 2489
1 2490
1 2491
1 2492
1 2493
1 2494
1 2495
1 2496
1 2497
1 2498
1 2499
1 2500
1 2501
1 2502
1 2503
1 2504
1 2505
1 2506
1 2507
1 2508
1 2509
1 2510
1 2511
1 2512
1 2513
1 2514
1 2515
1 2516
1 2517
1 2518
1 2519
1 2520
1 2521
1 2522
1 2523
1 2524
1 2525
1 2526
1 2527
1 2528
1 2529
1 2530
1 2531
1 2532
1 2533
1 2534
1 2535
1 2536
1 2537
1 2538
1 2539
1 2540
1 2541
1 2542
1 2543
1 2544
1 2545
1 2546
1 2547
1 2548
1 2549
1 2550
1 2551
1 2552
1 2553
1 2554
1 2555
1 2556
1 2557
1 2558
1 2559
1 2560
1 2561
1 2562
1 2563
1 2564
1 2565
1 2566
1 2567
1 2568
1 2569
1 2570
1 2571
1 2572
1 2573
1 2574
1 2575
1 2576
1 2577
1 2578
1 2579
1 2580
1 2581
1 2582
1 2583
1 2584
1 2585
1 2586
1 2587
1 2588
1 2589
1 2590
1 2591
1 2592
1 2593
1 2594
1 2595
1 2596
1 2597
1 2598
1 2599
1 2600
1 2601
1 2602
1 2603
1 2604
1 2605
1 2606
1 2607
1 2608
1 2609
1 2610
1 2611
1 2612
1 2613
1 2614
1 2615
1 2616
1 2617
1 2618
1 2619
1 2620
1 2621
1 2622
1 2623
1 2624
1 2625
1 2626
1 2627
1 2628
1 2629
1 2630
1 2631
1 2632
1 2633
1 2634
1 2635
1 2636
1 2637
1 2638
1 2639
1 2640
1 2641
1 2642
1 2643
1 2644
1 2645
1 2646
1 2647
1 2648
1 2649
1 2650
1 2651
1 2652
1 2653
1 2654
1 2655
1 2656
1 2657
1 2658
1 2659
1 2660
1 2661
1 2662
1 2663
1 2664
1 2665
1 2666
1 2667
1 2668
1 2669
1 2670
1 2671
1 2672
1 2673
1 2674
1 2675
1 2676
1 2677
1 2678
1 2679
1 2680
1 2681
1 2682
1 2683
1 2684
1 2685
1 2686
1 2687
1 2688
1 2689
1 2690
1 2691
1 2692
1 2693
1 2694
1 2695
1 2696
1 2697
1 2698
1 2699
1 2700
1 2701
1 2702
1 2703
1 2704
1 2705
1 2706
1 2707
1 2708
1 2709
1 2710
1 2711
1 2712
1 2713
1 2714
1 2715
1 2716
1 2717
1 2718
1 2719
1 2720
1 2721
1 2722
1 2723
1 2724
1 2725
1 2726
1 2727
1 2728
1 2729
1 2730
1 2731
1 2732
1 2733
1 2734
1 2735
1 2736
1 2737
1 2738
1 2739
1 2740
1 2741
1 2742
1 2743
1 2744
1 2745
1 2746
1 2747
1 2748
1 2749
1 2750
1 2751
1 2752
1 2753
1 2754
1 2755
1 2756
1 2757
1 2758
1 2759
1 2760
1 2761
1 2762
1 2763
1 2764
1 2765
1 2766
1 2767
1 2768
1 2769
1 2770
1 2771
1 2772
1 2773
1 2774
1 2775
1 2776
1 2777
1 2778
1 2779
1 2780
1 2781
1 2782
1 2783
1 2784
1 2785
1 2786
1 2787
1 2788
1 2789
1 2790
1 2791
1 2792
1 2793
1 2794
1 2795
1 2796
1 2797
1 2798
1 2799
1 2800
1 2801
1 2802
1 2803
1 2804
1 2805
1 2806
1 2807
1 2808
1 2809
1 2810
1 2811
1 2812
1 2813
1 2814
1 2815
1 2816
1 2817
1 2818
1 2819
1 2820
1 2821
1 2822
1 2823
1 2824
1 2825
1 2826
1 2827
1 2828
1 2829
1 2830
1 2831
1 2832
1 2833
1 2834
1 2835
1 2836
1 2837
1 2838
1 2839
1 2840
1 2841
1 2842
1 2843
1 2844
1 2845
1 2846
1 2847
1 2848
1 2849
1 2850
1 2851
1 2852
1 2853
1 2854
1 2855
1 2856
1 2857
1 2858
1 2859
1 2860
1 2861
1 2862
1 2863
1 2864
1 2865
1 2866
1 2867
1 2868
1 2869
1 2870
1 2871
1 2872
1 2873
1 2874
1 2875
1 2876
1 2877
1 2878
1 2879
1 2880
1 2881
1 2882
1 2883
1 2884
1 2885
1 2886
1 2887
1 2888
1 2889
1 2890
1 2891
1 2892
1 2893
1 2894
1 2895
1 2896
1 2897
1 2898
1 2899
1 2900
1 2901
1 2902
1 2903
1 2904
1 2905
1 2906
1 2907
1 2908
1 2909
1 2910
1 2911
1 2912
1 2913
1 2914
1 2915
1 2916
1 2917
1 2918
1 2919
1 2920
1 2921
1 2922
1 2923
1 2924
1 2925
1 2926
1 2927
1 2928
1 2929
1 2930
1 2931
1 2932
1 2933
1 2934
1 2935
1 2936
1 2937
1 2938
1 2939
1 2940
1 2941
1 2942
1 2943
1 2944
1 2945
1 2946
1 2947
1 2948
1 2949
1 2950
1 2951
1 2952
1 2953
1 2954
1 2955
1 2956
1 2957
1 2958
1 2959
1 2960
1 2961
1 2962
1 2963
1 2964
1 2965
1 2966
1 2967
1 2968
1 2969
1 2970
1 2971
1 2972
1 2973
1 2974
1 2975
1 2976
1 2977
1 2978
1 2979
1 2980
1 2981
1 2982
1 2983
1 2984
1 2985
1 2986
1 2987
1 2988
1 2989
1 2990
1 2991
1 2992
1 2993
1 2994
1 2995
1 2996
1 2997
1 2998
1 2999
1 3000
1 3001
1 3002
1 3003
1 3004
1 3005
1 3006
1 3007
1 3008
1 3009
1 3010
1 3011
1 3012
1 3013
1 3014
1 3015
1 3016
1 3017
1 3018
1 3019
1 3020
1 3021
1 3022
1 3023
1 3024
1 3025
1 3026
1 3027
1 3028
1 3029
1 3030
1 3031
1 3032
1 3033
1 3034
1 3035
1 3036
1 3037
1 3038
1 3039
1 3040
1 3041
1 3042
1 3043
1 3044
1 3045
1 3046
1 3047
1 3048
1 3049
1 3050
1 3051
1 3052
1 3053
1 3054
1 3055
1 3056
1 3057
1 3058
1 3059
1 3060
1 3061
1 3062
1 3063
1 3064
1 3065
1 3066
1 3067
1 3068
1 3069
1 3070
1 3071
1 3072
1 3073
1 3074
1 3075
1 3076
1 3077
1 3078
1 3079
1 3080
1 3081
1 3082
1 3083
1 3084
1 3085
1 3086
1 3087
1 3088
1 3089
1 3090
1 3091
1 3092
1 3093
1 3094
1 3095
1 3096
1 3097
1 3098
1 3099
1 3100
1 3101
1 3102
1 3103
1 3104
1 3105
1 3106
1 3107
1 3108
1 3109
1 3110
1 3111
1 3112
1 3113
1 3114
1 3115
1 3116
1 3117
1 3118
1 3119
1 3120
1 3121
1 3122
1 3123
1 3124
1 3125
1 3126
1 3127
1 3128
1 3129
1 3130
1 3131
1 3132
1 3133
1 3134
1 3135
1 3136
1 3137
1 3138
1 3139
1 3140
1 3141
1 3142
1 3143
1 3144
1 3145
1 3146
1 3147
1 3148
1 3149
1 3150
1 3151
1 3152
1 3153
1 3154
1 3155
1 3156
1 3157
1 3158
1 3159
1 3160
1 3161
1 3162
1 3163
1 3164
1 3165
1 3166
1 3167
1 3168
1 3169
1 3170
1 3171
1 3172
1 3173
1 3174
1 3175
1 3176
1 3177
1 3178
1 3179
1 3180
1 3181
1 3182
1 3183
1 3184
1 3185
1 3186
1 3187
1 3188
1 3189
1 3190
1 3191
1 3192
1 3193
1 3194
1 3195
1 3196
1 3197
1 3198
1 3199
1 3200
1 3201
1 3202
1 3203
1 3204
1 3205
1 3206
1 3207
1 3208
1 3209
1 3210
1 3211
1 3212
1 3213
1 3214
1 3215
1 3216
1 3217
1 3218
1 3219
1 3220
1 3221
1 3222
1 3223
1 3224
1 3225
1 3226
1 3227
1 3228
1 3229
1 3230
1 3231
1 3232
1 3233
1 3234
1 3235
1 3236
1 3237
1 3238
1 3239
1 3240
1 3241
1 3242
1 3243
1 3244
1 3245
1 3246
1 3247
1 3248
1 3249
1 3250
1 3251
1 3252
1 3253
1 3254
1 3255
1 3256
1 3257
1 3258
1 3259
1 3260
1 3261
1 3262
1 3263
1 3264
1 3265
1 3266
1 3267
1 3268
1 3269
1 3270
1 3271
1 3272
1 3273
1 3274
1 3275
1 3276
1 3277
1 3278
1 3279
1 3280
1 3281
1 3282
1 3283
1 3284
1 3285
1 3286
1 3287
1 3288
1 3289
1 3290
1 3291
1 3292
1 3293
1 3294
1 3295
1 3296
1 3297
1 3298
1 3299
1 3300
1 3301
1 3302
1 3303
1 3304
1 3305
1 3306
1 3307
1 3308
1 3309
1 3310
1 3311
1 3312
1 3313
1 3314
1 3315
1 3316
1 3317
1 3318
1 3319
1 3320
1 3321
1 3322
1 3323
1 3324
1 3325
1 3326
1 3327
1 3328
1 3329
1 3330
1 3331
1 3332
1 3333
1 3334
1 3335
1 3336
1 3337
1 3338
1 3339
1 3340
1 3341
1 3342
1 3343
1 3344
1 3345
1 3346
1 3347
1 3348
1 3349
1 3350
1 3351
1 3352
1 3353
1 3354
1 3355
1 3356
1 3357
1 3358
1 3359
1 3360
1 3361
1 3362
1 3363
1 3364
1 3365
1 3366
1 3367
1 3368
1 3369
1 3370
1 3371
1 3372
1 3373
1 3374
1 3375
1 3376
1 3377
1 3378
1 3379
1 3380
1 3381
1 3382
1 3383
1 3384
1 3385
1 3386
1 3387
1 3388
1 3389
1 3390
1 3391
1 3392
1 3393
1 3394
1 3395
1 3396
1 3397
1 3398
1 3399
1 3400
1 3401
1 3402
1 3403
1 3404
1 3405
1 3406
1 3407
1 3408
1 3409
1 3410
1 3411
1 3412
1 3413
1 3414
1 3415
1 3416
1 3417
1 3418
1 3419
1 3420
1 3421
1 3422
1 3423
1 3424
1 3425
1 3426
1 3427
1 3428
1 3429
1 3430
1 3431
1 3432
1 3433
1 3434
1 3435
1 3436
1 3437
1 3438
1 3439
1 3440
1 3441
1 3442
1 3443
1 3444
1 3445
1 3446
1 3447
1 3448
1 3449
1 3450
1 3451
1 3452
1 3453
1 3454
1 3455
1 3456
1 3457
1 3458
1 3459
1 3460
1 3461
1 3462
1 3463
1 3464
1 3465
1 3466
1 3467
1 3468
1 3469
1 3470
1 3471
1 3472
1 3473
1 3474
1 3475
1 3476
1 3477
1 3478
1 3479
1 3480
1 3481
1 3482
1 3483
1 3484
1 3485
1 3486
1 3487
1 3488
1 3489
1 3490
1 3491
1 3492
1 3493
1 3494
1 3495
1 3496
1 3497
1 3498
1 3499
1 3500
1 3501
1 3502
1 3503
1 3504
1 3505
1 3506
1 3507
1 3508
1 3509
1 3510
1 3511
1 3512
1 3513
1 3514
1 3515
1 3516
1 3517
1 3518
1 3519
1 3520
1 3521
1 3522
1 3523
1 3524
1 3525
1 3526
1 3527
1 3528
1 3529
1 3530
1 3531
1 3532
1 3533
1 3534
1 3535
1 3536
1 3537
1 3538
1 3539
1 3540
1 3541
1 3542
1 3543
1 3544
1 3545
1 3546
1 3547
1 3548
1 3549
1 3550
1 3551
1 3552
1 3553
1 3554
1 3555
1 3556
1 3557
1 3558
1 3559
1 3560
1 3561
1 3562
1 3563
1 3564
1 3565
1 3566
1 3567
1 3568
1 3569
1 3570
1 3571
1 3572
1 3573
1 3574
1 3575
1 3576
1 3577
1 3578
1 3579
1 3580
1 3581
1 3582
1 3583
1 3584
1 3585
1 3586
1 3587
1 3588
1 3589
1 3590
1 3591
1 3592
1 3593
1 3594
1 3595
1 3596
1 3597
1 3598
1 3599
1 3600
1 3601
1 3602
1 3603
1 3604
1 3605
1 3606
1 3607
1 3608
1 3609
1 3610
1 3611
1 3612
1 3613
1 3614
1 3615
1 3616
1 3617
1 3618
1 3619
1 3620
1 3621
1 3622
1 3623
1 3624
1 3625
1 3626
1 3627
1 3628
1 3629
1 3630
1 3631
1 3632
1 3633
1 3634
1 3635
1 3636
1 3637
1 3638
1 3639
1 3640
1 3641
1 3642
1 3643
1 3644
1 3645
1 3646
1 3647
1 3648
1 3649
1 3650
1 3651
1 3652
1 3653
1 3654
1 3655
1 3656
1 3657
1 3658
1 3659
1 3660
1 3661
1 3662
1 3663
1 3664
1 3665
1 3666
1 3667
1 3668
1 3669
1 3670
1 3671
1 3672
1 3673
1 3674
1 3675
1 3676
1 3677
1 3678
1 3679
1 3680
1 3681
1 3682
1 3683
1 3684
1 3685
1 3686
1 3687
1 3688
1 3689
1 3690
1 3691
1 3692
1 3693
1 3694
1 3695
1 3696
1 3697
1 3698
1 3699
1 3700
1 3701
1 3702
1 3703
1 3704
1 3705
1 3706
1 3707
1 3708
1 3709
1 3710
1 3711
1 3712
1 3713
1 3714
1 3715
1 3716
1 3717
1 3718
1 3719
1 3720
1 3721
1 3722
1 3723
1 3724
1 3725
1 3726
1 3727
1 3728
1 3729
1 3730
1 3731
1 3732
1 3733
1 3734
1 3735
1 3736
1 3737
1 3738
1 3739
1 3740
1 3741
1 3742
1 3743
1 3744
1 3745
1 3746
1 3747
1 3748
1 3749
1 3750
1 3751
1 3752
1 3753
1 3754
1 3755
1 3756
1 3757
1 3758
1 3759
1 3760
1 3761
1 3762
1 3763
1 3764
1 3765
1 3766
1 3767
1 3768
1 3769
1 3770
1 3771
1 3772
1 3773
1 3774
1 3775
1 3776
1 3777
1 3778
1 3779
1 3780
1 3781
1 3782
1 3783
1 3784
1 3785
1 3786
1 3787
1 3788
1 3789
1 3790
1 3791
1 3792
1 3793
1 3794
1 3795
1 3796
1 3797
1 3798
1 3799
1 3800
1 3801
1 3802
1 3803
1 3804
1 3805
1 3806
1 3807
1 3808
1 3809
1 3810
1 3811
1 3812
1 3813
1 3814
1 3815
1 3816
1 3817
1 3818
1 3819
1 3820
1 3821
1 3822
1 3823
1 3824
1 3825
1 3826
1 3827
1 3828
1 3829
1 3830
1 3831
1 3832
1 3833
1 3834
1 3835
1 3836
1 3837
1 3838
1 3839
1 3840
1 3841
1 3842
1 3843
1 3844
1 3845
1 3846
1 3847
1 3848
1 3849
1 3850
1 3851
1 3852
1 3853
1 3854
1 3855
1 3856
1 3857
1 3858
1 3859
1 3860
1 3861
1 3862
1 3863
1 3864
1 3865
1 3866
1 3867
1 3868
1 3869
1 3870
1 3871
1 3872
1 3873
1 3874
1 3875
1 3876
1 3877
1 3878
1 3879
1 3880
1 3881
1 3882
1 3883
1 3884
1 3885
1 3886
1 3887
1 3888
1 3889
1 3890
1 3891
1 3892
1 3893
1 3894
1 3895
1 3896
1 3897
1 3898
1 3899
1 3900
1 3901
1 3902
1 3903
1 3904
1 3905
1 3906
1 3907
1 3908
1 3909
1 3910
1 3911
1 3912
1 3913
1 3914
1 3915
1 3916
1 3917
1 3918
1 3919
1 3920
1 3921
1 3922
1 3923
1 3924
1 3925
1 3926
1 3927
1 3928
1 3929
1 3930
1 3931
1 3932
1 3933
1 3934
1 3935
1 3936
1 3937
1 3938
1 3939
1 3940
1 3941
1 3942
1 3943
1 3944
1 3945
1 3946
1 3947
1 3948
1 3949
1 3950
1 3951
1 3952
1 3953
1 3954
1 3955
1 3956
1 3957
1 3958
1 3959
1 3960
1 3961
1 3962
1 3963
1 3964
1 3965
1 3966
1 3967
1 3968
1 3969
1 3970
1 3971
1 3972
1 3973
1 3974
1 3975
1 3976
1 3977
1 3978
1 3979
1 3980
1 3981
1 3982
1 3983
1 3984
1 3985
1 3986
1 3987
1 3988
1 3989
1 3990
1 3991
1 3992
1 3993
1 3994
1 3995
1 3996
1 3997
1 3998
1 3999
1 4000
1 4001
1 4002
1 4003
1 4004
1 4005
1 4006
1 4007
1 4008
1 4009
1 4010
1 4011
1 4012
1 4013
1 4014
1 4015
1 4016
1 4017
1 4018
1 4019
1 4020
1 4021
1 4022
1 4023
1 4024
1 4025
1 4026
1 4027
1 4028
1 4029
1 4030
1 4031
1 4032
1 4033
1 4034
1 4035
1 4036
1 4037
1 4038
1 4039
1 4040
1 4041
1 4042
1 4043
1 4044
1 4045
1 4046
1 4047
1 4048
1 4049
1 4050
1 4051
1 4052
1 4053
1 4054
1 4055
1 4056
1 4057
1 4058
1 4059
1 4060
1 4061
1 4062
1 4063
1 4064
1 4065
1 4066
1 4067
1 4068
1 4069
1 4070
1 4071
1 4072
1 4073
1 4074
1 4075
1 4076
1 4077
1 4078
1 4079
1 4080
1 4081
1 4082
1 4083
1 4084
1 4085
1 4086
1 4087
1 4088
1 4089
1 4090
1 4091
1 4092
1 4093
1 4094
1 4095
1 4096
1 4097
1 4098
1 4099
1 4100
1 4101
1 4102
1 4103
1 4104
1 4105
1 4106
1 4107
1 4108
1 4109
1 4110
1 4111
1 4112
1 4113
1 4114
1 4115
1 4116
1 4117
1 4118
1 4119
1 4120
1 4121
1 4122
1 4123
1 4124
1 4125
1 4126
1 4127
1 4128
1 4129
1 4130
1 4131
1 4132
1 4133
1 4134
1 4135
1 4136
1 4137
1 4138
1 4139
1 4140
1 4141
1 4142
1 4143
1 4144
1 4145
1 4146
1 4147
1 4148
1 4149
1 4150
1 4151
1 4152
1 4153
1 4154
1 4155
1 4156
1 4157
1 4158
1 4159
1 4160
1 4161
1 4162
1 4163
1 4164
1 4165
1 4166
1 4167
1 4168
1 4169
1 4170
1 4171
1 4172
1 4173
1 4174
1 4175
1 4176
1 4177
1 4178
1 4179
1 4180
1 4181
1 4182
1 4183
1 4184
1 4185
1 4186
1 4187
1 4188
1 4189
1 4190
1 4191
1 4192
1 4193
1 4194
1 4195
1 4196
1 4197
1 4198
1 4199
1 4200
1 4201
1 4202
1 4203
1 4204
1 4205
1 4206
1 4207
1 4208
1 4209
1 4210
1 4211
1 4212
1 4213
1 4214
1 4215
1 4216
1 4217
1 4218
1 4219
1 4220
1 4221
1 4222
1 4223
1 4224
1 4225
1 4226
1 4227
1 4228
1 4229
1 4230
1 4231
1 4232
1 4233
1 4234
1 4235
1 4236
1 4237
1 4238
1 4239
1 4240
1 4241
1 4242
1 4243
1 4244
1 4245
1 4246
1 4247
1 4248
1 4249
1 4250
1 4251
1 4252
1 4253
1 4254
1 4255
1 4256
1 4257
1 4258
1 4259
1 4260
1 4261
1 4262
1 4263
1 4264
1 4265
1 4266
1 4267
1 4268
1 4269
1 4270
1 4271
1 4272
1 4273
1 4274
1 4275
1 4276
1 4277
1 4278
1 4279
1 4280
1 4281
1 4282
1 4283
1 4284
1 4285
1 4286
1 4287
1 4288
1 4289
1 4290
1 4291
1 4292
1 4293
1 4294
1 4295
1 4296
1 4297
1 4298
1 4299
1 4300
1 4301
1 4302
1 4303
1 4304
1 4305
1 4306
1 4307
1 4308
1 4309
1 4310
1 4311
1 4312
1 4313
1 4314
1 4315
1 4316
1 4317
1 4318
1 4319
1 4320
1 4321
1 4322
1 4323
1 4324
1 4325
1 4326
1 4327
1 4328
1 4329
1 4330
1 4331
1 4332
1 4333
1 4334
1 4335
1 4336
1 4337
1 4338
1 4339
1 4340
1 4341
1 4342
1 4343
1 4344
1 4345
1 4346
1 4347
1 4348
1 4349
1 4350
1 4351
1 4352
1 4353
1 4354
1 4355
1 4356
1 4357
1 4358
1 4359
1 4360
1 4361
1 4362
1 4363
1 4364
1 4365
1 4366
1 4367
1 4368
1 4369
1 4370
1 4371
1 4372
1 4373
1 4374
1 4375
1 4376
1 4377
1 4378
1 4379
1 4380
1 4381
1 4382
1 4383
1 4384
1 4385
1 4386
1 4387
1 4388
1 4389
1 4390
1 4391
1 4392
1 4393
1 4394
1 4395
1 4396
1 4397
1 4398
1 4399
1 4400
1 4401
1 4402
1 4403
1 4404
1 4405
1 4406
1 4407
1 4408
1 4409
1 4410
1 4411
1 4412
1 4413
1 4414
1 4415
1 4416
1 4417
1 4418
1 4419
1 4420
1 4421
1 4422
1 4423
1 4424
1 4425
1 4426
1 4427
1 4428
1 4429
1 4430
1 4431
1 4432
1 4433
1 4434
1 4435
1 4436
1 4437
1 4438
1 4439
1 4440
1 4441
1 4442
1 4443
1 4444
1 4445
1 4446
1 4447
1 4448
1 4449
1 4450
1 4451
1 4452
1 4453
1 4454
1 4455
1 4456
1 4457
1 4458
1 4459
1 4460
1 4461
1 4462
1 4463
1 4464
1 4465
1 4466
1 4467
1 4468
1 4469
1 4470
1 4471
1 4472
1 4473
1 4474
1 4475
1 4476
1 4477
1 4478
1 4479
1 4480
1 4481
1 4482
1 4483
1 4484
1 4485
1 4486
1 4487
1 4488
1 4489
1 4490
1 4491
1 4492
1 4493
1 4494
1 4495
1 4496
1 4497
1 4498
1 4499
1 4500
1 4501
1 4502
1 4503
1 4504
1 4505
1 4506
1 4507
1 4508
1 4509
1 4510
1 4511
1 4512
1 4513
1 4514
1 4515
1 4516
1 4517
1 4518
1 4519
1 4520
1 4521
1 4522
1 4523
1 4524
1 4525
1 4526
1 4527
1 4528
1 4529
1 4530
1 4531
1 4532
1 4533
1 4534
1 4535
1 4536
1 4537
1 4538
1 4539
1 4540
1 4541
1 4542
1 4543
1 4544
1 4545
1 4546
1 4547
1 4548
1 4549
1 4550
1 4551
1 4552
1 4553
1 4554
1 4555
1 4556
1 4557
1 4558
1 4559
1 4560
1 4561
1 4562
1 4563
1 4564
1 4565
1 4566
1 4567
1 4568
1 4569
1 4570
1 4571
1 4572
1 4573
1 4574
1 4575
1 4576
1 4577
1 4578
1 4579
1 4580
1 4581
1 4582
1 4583
1 4584
1 4585
1 4586
1 4587
1 4588
1 4589
1 4590
1 4591
1 4592
1 4593
1 4594
1 4595
1 4596
1 4597
1 4598
1 4599
1 4600
1 4601
1 4602
1 4603
1 4604
1 4605
1 4606
1 4607
1 4608
1 4609
1 4610
1 4611
1 4612
1 4613
1 4614
1 4615
1 4616
1 4617
1 4618
1 4619
1 4620
1 4621
1 4622
1 4623
1 4624
1 4625
1 4626
1 4627
1 4628
1 4629
1 4630
1 4631
1 4632
1 4633
1 4634
1 4635
1 4636
1 4637
1 4638
1 4639
1 4640
1 4641
1 4642
1 4643
1 4644
1 4645
1 4646
1 4647
1 4648
1 4649
1 4650
1 4651
1 4652
1 4653
1 4654
1 4655
1 4656
1 4657
1 4658
1 4659
1 4660
1 4661
1 4662
1 4663
1 4664
1 4665
1 4666
1 4667
1 4668
1 4669
1 4670
1 4671
1 4672
1 4673
1 4674
1 4675
1 4676
1 4677
1 4678
1 4679
1 4680
1 4681
1 4682
1 4683
1 4684
1 4685
1 4686
1 4687
1 4688
1 4689
1 4690
1 4691
1 4692
1 4693
1 4694
1 4695
1 4696
1 4697
1 4698
1 4699
1 4700
1 4701
1 4702
1 4703
1 4704
1 4705
1 4706
1 4707
1 4708
1 4709
1 4710
1 4711
1 4712
1 4713
1 4714
1 4715
1 4716
1 4717
1 4718
1 4719
1 4720
1 4721
1 4722
1 4723
1 4724
1 4725
1 4726
1 4727
1 4728
1 4729
1 4730
1 4731
1 4732
1 4733
1 4734
1 4735
1 4736
1 4737
1 4738
1 4739
1 4740
1 4741
1 4742
1 4743
1 4744
1 4745
1 4746
1 4747
1 4748
1 4749
1 4750
1 4751
1 4752
1 4753
1 4754
1 4755
1 4756
1 4757
1 4758
1 4759
1 4760
1 4761
1 4762
1 4763
1 4764
1 4765
1 4766
1 4767
1 4768
1 4769
1 4770
1 4771
1 4772
1 4773
1 4774
1 4775
1 4776
1 4777
1 4778
1 4779
1 4780
1 4781
1 4782
1 4783
1 4784
1 4785
1 4786
1 4787
1 4788
1 4789
1 4790
1 4791
1 4792
1 4793
1 4794
1 4795
1 4796
1 4797
1 4798
1 4799
1 4800
1 4801
1 4802
1 4803
1 4804
1 4805
1 4806
1 4807
1 4808
1 4809
1 4810
1 4811
1 4812
1 4813
1 4814
1 4815
1 4816
1 4817
1 4818
1 4819
1 4820
1 4821
1 4822
1 4823
1 4824
1 4825
1 4826
1 4827
1 4828
1 4829
1 4830
1 4831
1 4832
1 4833
1 4834
1 4835
1 4836
1 4837
1 4838
1 4839
1 4840
1 4841
1 4842
1 4843
1 4844
1 4845
1 4846
1 4847
1 4848
1 4849
1 4850
1 4851
1 4852
1 4853
1 4854
1 4855
1 4856
1 4857
1 4858
1 4859
1 4860
1 4861
1 4862
1 4863
1 4864
1 4865
1 4866
1 4867
1 4868
1 4869
1 4870
1 4871
1 4872
1 4873
1 4874
1 4875
1 4876
1 4877
1 4878
1 4879
1 4880
1 4881
1 4882
1 4883
1 4884
1 4885
1 4886
1 4887
1 4888
1 4889
1 4890
1 4891
1 4892
1 4893
1 4894
1 4895
1 4896
1 4897
1 4898
1 4899
1 4900
1 4901
1 4902
1 4903
1 4904
1 4905
1 4906
1 4907
1 4908
1 4909
1 4910
1 4911
1 4912
1 4913
1 4914
1 4915
1 4916
1 4917
1 4918
1 4919
1 4920
1 4921
1 4922
1 4923
1 4924
1 4925
1 4926
1 4927
1 4928
1 4929
1 4930
1 4931
1 4932
1 4933
1 4934
1 4935
1 4936
1 4937
1 4938
1 4939
1 4940
1 4941
1 4942
1 4943
1 4944
1 4945
1 4946
1 4947
1 4948
1 4949
1 4950
1 4951
1 4952
1 4953
1 4954
1 4955
1 4956
1 4957
1 4958
1 4959
1 4960
1 4961
1 4962
1 4963
1 4964
1 4965
1 4966
1 4967
1 4968
1 4969
1 4970
1 4971
1 4972
1 4973
1 4974
1 4975
1 4976
1 4977
1 4978
1 4979
1 4980
1 4981
1 4982
1 4983
1 4984
1 4985
1 4986
1 4987
1 4988
1 4989
1 4990
1 4991
1 4992
1 4993
1 4994
1 4995
1 4996
1 4997
1 4998
1 4999
CELL_TYPES 5000
1 
1 
1 
1 
1 
1 
1 
1 
1 
1 
1 
1 
1 
1 
1 
1 
1 
1 
1 
1 
1 
1 
1 
1 
1 
1 
1 
1 
1 
1 
1 
1 
1 
1 
1 
1 
1 
1 
1 
1 
1 
1 
1 
1 
1 
1 
1 
1 
1 
1 
1 
1 
1 
1 
1 
1 
1 
1 
1 
1 
1 
1 
1 
1 
1 
1 
1 
1 
1 
1 
1 
1 
1 
1 
1 
1 
1 
1 
1 
1 
1 
1 
1 
1 
1 
1 
1 
1 
1 
1 
1 
1 
1 
1 
1 
1 
1 
1 
1 
1 
1 
1 
1 
1 
1 
1 
1 
1 
1 
1 
1 
1 
1 
1 
1 
1 
1 
1 
1 
1 
1 
1 
1 
1 
1 
1 
1 
1 
1 
1 
1 
1 
1 
1 
1 
1 
1 
1 
1 
1 
1 
1 
1 
1 
1 
1 
1 
1 
1 
1 
1 
1 
1 
1 
1 
1 
1 
1 
1 
1 
1 
1 
1 
1 
1 
1 
1 
1 
1 
1 
1 
1 
1 
1 
1 
1 
1 
1 
1 
1 
1 
1 
1 
1 
1 
1 
1 
1 
1 
1 
1 
1 
1 
1 
1 
1 
1 
1 
1 
1 
1 
1 
1 
1 
1 
1 
1 
1 
1 
1 
1 
1 
1 
1 
1 
1 
1 
1 
1 
1 
1 
1 
1 
1 
1 
1 
1 
1 
1 
1 
1 
1 
1 
1 
1 
1 
1 
1 
1 
1 
1 
1 
1 
1 
1 
1 
1 
1 
1 
1 
1 
1 
1 
1 
1 
1 
1 
1 
1 
1 
1 
1 
1 
1 
1 
1 
1 
1 
1 
1 
1 
1 
1 
1 
1 
1 
1 
1 
1 
1 
1 
1 
1 
1 
1 
1 
1 
1 
1 
1 
1 
1 
1 
1 
1 
1 
1 
1 
1 
1 
1 
1 
1 
1 
1 
1 
1 
1 
1 
1 
1 
1 
1 
1 
1 
1 
1 
1 
1 
1 
1 
1 
1 
1 
1 
1 
1 
1 
1 
1 
1 
1 
1 
1 
1 
1 
1 
1 
1 
1 
1 
1 
1 
1 
1 
1 
1 
1 
1 
1 
1 
1 
1 
1 
1 
1 
1 
1 
1 
1 
1 
1 
1 
1 
1 
1 
1 
1 
1 
1 
1 
1 
1 
1 
1 
1 
1 
1 
1 
1 
1 
1 
1 
1 
1 
1 
1 
1 
1 
1 
1 
1 
1 
1 
1 
1 
1 
1 
1 
1 
1 
1 
1 
1 
1 
1 
1 
1 
1 
1 
1 
1 
1 
1 
1 
1 
1 
1 
1 
1 
1 
1 
1 
1 
1 
1 
1 
1 
1 
1 
1 
1 
1 
1 
1 
1 
1 
1 
1 
1 
1 
1 
1 
1 
1 
1 
1 
1 
1 
1 
1 
1 
1 
1 
1 
1 
1 
1 
1 
1 
1 
1 
1 
1 
1 
1 
1 
1 
1 
1 
1 
1 
1 
1 
1 
1 
1 
1 
1 
1 
1 
1 
1 
1 
1 
1 
1 
1 
1 
1 
1 
1 
1 
1 
1 
1 
1 
1 
1 
1 
1 
1 
1 
1 
1 
1 
1 
1 
1 
1 
1 
1 
1 
1 
1 
1 
1 
1 
1 
1 
1 
1 
1 
1 
1 
1 
1 
1 
1 
1 
1 
1 
1 
1 
1 
1 
1 
1 
1 
1 
1 
1 
1 
1 
1 
1 
1 
1 
1 
1 
1 
1 
1 
1 
1 
1 
1 
1 
1 
1 
1 
1 
1 
1 
1 
1 
1 
1 
1 
1 
1 
1 
1 
1 
1 
1 
1 
1 
1 
1 
1 
1 
1 
1 
1 
1 
1 
1 
1 
1 
1 
1 
1 
1 
1 
1 
1 
1 
1 
1 
1 
1 
1 
1 
1 
1 
1 
1 
1 
1 
1 
1 
1 
1 
1 
1 
1 
1 
1 
1 
1 
1 
1 
1 
1 
1 
1 
1 
1 
1 
1 
1 
1 
1 
1 
1 
1 
1 
1 
1 
1 
1 
1 
1 
1 
1 
1 
1 
1 
1 
1 
1 
1 
1 
1 
1 
1 
1 
1 
1 
1 
1 
1 
1 
1 
1 
1 
1 
1 
1 
1 
1 
1 
1 
1 
1 
1 
1 
1 
1 
1 
1 
1 
1 
1 
1 
1 
1 
1 
1 
1 
1 
1 
1 
1 
1 
1 
1 
1 
1 
1 
1 
1 
1 
1 
1 
1 
1 
1 
1 
1 
1 
1 
1 
1 
1 
1 
1 
1 
1 
1 
1 
1 
1 
1 
1 
1 
1 
1 
1 
1 
1 
1 
1 
1 
1 
1 
1 
1 
1 
1 
1 
1 
1 
1 
1 
1 
1 
1 
1 
1 
1 
1 
1 
1 
1 
1 
1 
1 
1 
1 
1 
1 
1 
1 
1 
1 
1 
1 
1 
1 
1 
1 
1 
1 
1 
1 
1 
1 
1 
1 
1 
1 
1 
1 
1 
1 
1 
1 
1 
1 
1 
1 
1 
1 
1 
1 
1 
1 
1 
1 
1 
1 
1 
1 
1 
1 
1 
1 
1 
1 
1 
1 
1 
1 
1 
1 
1 
1 
1 
1 
1 
1 
1 
1 
1 
1 
1 
1 
1 
1 
1 
1 
1 
1 
1 
1 
1 
1 
1 
1 
1 
1 
1 
1 
1 
1 
1 
1 
1 
1 
1 
1 
1 
1 
1 
1 
1 
1 
1 
1 
1 
1 
1 
1 
1 
1 
1 
1 
1 
1 
1 
1 
1 
1 
1 
1 
1 
1 
1 
1 
1 
1 
1 
1 
1 
1 
1 
1 
1 
1 
1 
1 
1 
1 
1 
1 
1 
1 
1 
1 
1 
1 
1 
1 
1 
1 
1 
1 
1 
1 
1 
1 
1 
1 
1 
1 
1 
1 
1 
1 
1 
1 
1 
1 
1 
1 
1 
1 
1 
1 
1 
1 
1 
1 
1 
1 
1 
1 
1 
1 
1 
1 
1 
1 
1 
1 
1 
1 
1 
1 
1 
1 
1 
1 
1 
1 
1 
1 
1 
1 
1 
1 
1 
1 
1 
1 
1 
1 
1 
1 
1 
1 
1 
1 
1 
1 
1 
1 
1 
1 
1 
1 
1 
1 
1 
1 
1 
1 
1 
1 
1 
1 
1 
1 
1 
1 
1 
1 
1 
1 
1 
1 
1 
1 
1 
1 
1 
1 
1 
1 
1 
1 
1 
1 
1 
1 
1 
1 
1 
1 
1 
1 
1 
1 
1 
1 
1 
1 
1 
1 
1 
1 
1 
1 
1 
1 
1 
1 
1 
1 
1 
1 
1 
1 
1 
1 
1 
1 
1 
1 
1 
1 
1 
1 
1 
1 
1 
1 
1 
1 
1 
1 
1 
1 
1 
1 
1 
1 
1 
1 
1 
1 
1 
1 
1 
1 
1 
1 
1 
1 
1 
1 
1 
1 
1 
1 
1 
1 
1 
1 
1 
1 
1 
1 
1 
1 
1 
1 
1 
1 
1 
1 
1 
1 
1 
1 
1 
1 
1 
1 
1 
1 
1 
1 
1 
1 
1 
1 
1 
1 
1 
1 
1 
1 
1 
1 
1 
1 
1 
1 
1 
1 
1 
1 
1 
1 
1 
1 
1 
1 
1 
1 
1 
1 
1 
1 
1 
1 
1 
1 
1 
1 
1 
1 
1 
1 
1 
1 
1 
1 
1 
1 
1 
1 
1 
1 
1 
1 
1 
1 
1 
1 
1 
1 
1 
1 
1 
1 
1 
1 
1 
1 
1 
1 
1 
1 
1 
1 
1 
1 
1 
1 
1 
1 
1 
1 
1 
1 
1 
1 
1 
1 
1 
1 
1 
1 
1 
1 
1 
1 
1 
1 
1 
1 
1 
1 
1 
1 
1 
1 
1 
1 
1 
1 
1 
1 
1 
1 
1 
1 
1 
1 
1 
1 
1 
1 
1 
1 
1 
1 
1 
1 
1 
1 
1 
1 
1 
1 
1 
1 
1 
1 
1 
1 
1 
1 
1 
1 
1 
1 
1 
1 
1 
1 
1 
1 
1 
1 
1 
1 
1 
1 
1 
1 
1 
1 
1 
1 
1 
1 
1 
1 
1 
1 
1 
1 
1 
1 
1 
1 
1 
1 
1 
1 
1 
1 
1 
1 
1 
1 
1 
1 
1 
1 
1 
1 
1 
1 
1 
1 
1 
1 
1 
1 
1 
1 
1 
1 
1 
1 
1 
1 
1 
1 
1 
1 
1 
1 
1 
1 
1 
1 
1 
1 
1 
1 
1 
1 
1 
1 
1 
1 
1 
1 
1 
1 
1 
1 
1 
1 
1 
1 
1 
1 
1 
1 
1 
1 
1 
1 
1 
1 
1 
1 
1 
1 
1 
1 
1 
1 
1 
1 
1 
1 
1 
1 
1 
1 
1 
1 
1 
1 
1 
1 
1 
1 
1 
1 
1 
1 
1 
1 
1 
1 
1 
1 
1 
1 
1 
1 
1 
1 
1 
1 
1 
1 
1 
1 
1 
1 
1 
1 
1 
1 
1 
1 
1 
1 
1 
1 
1 
1 
1 
1 
1 
1 
1 
1 
1 
1 
1 
1 
1 
1 
1 
1 
1 
1 
1 
1 
1 
1 
1 
1 
1 
1 
1 
1 
1 
1 
1 
1 
1 
1 
1 
1 
1 
1 
1 
1 
1 
1 
1 
1 
1 
1 
1 
1 
1 
1 
1 
1 
1 
1 
1 
1 
1 
1 
1 
1 
1 
1 
1 
1 
1 
1 
1 
1 
1 
1 
1 
1 
1 
1 
1 
1 
1 
1 
1 
1 
1 
1 
1 
1 
1 
1 
1 
1 
1 
1 
1 
1 
1 
1 
1 
1 
1 
1 
1 
1 
1 
1 
1 
1 
1 
1 
1 
1 
1 
1 
1 
1 
1 
1 
1 
1 
1 
1 
1 
1 
1 
1 
1 
1 
1 
1 
1 
1 
1 
1 
1 
1 
1 
1 
1 
1 
1 
1 
1 
1 
1 
1 
1 
1 
1 
1 
1 
1 
1 
1 
1 
1 
1 
1 
1 
1 
1 
1 
1 
1 
1 
1 
1 
1 
1 
1 
1 
1 
1 
1 
1 
1 
1 
1 
1 
1 
1 
1 
1 
1 
1 
1 
1 
1 
1 
1 
1 
1 
1 
1 
1 
1 
1 
1 
1 
1 
1 
1 
1 
1 
1 
1 
1 
1 
1 
1 
1 
1 
1 
1 
1 
1 
1 
1 
1 
1 
1 
1 
1 
1 
1 
1 
1 
1 
1 
1 
1 
1 
1 
1 
1 
1 
1 
1 
1 
1 
1 
1 
1 
1 
1 
1 
1 
1 
1 
1 
1 
1 
1 
1 
1 
1 
1 
1 
1 
1 
1 
1 
1 
1 
1 
1 
1 
1 
1 
1 
1 
1 
1 
1 
1 
1 
1 
1 
1 
1 
1 
1 
1 
1 
1 
1 
1 
1 
1 
1 
1 
1 
1 
1 
1 
1 
1 
1 
1 
1 
1 
1 
1 
1 
1 
1 
1 
1 
1 
1 
1 
1 
1 
1 
1 
1 
1 
1 
1 
1 
1 
1 
1 
1 
1 
1 
1 
1 
1 
1 
1 
1 
1 
1 
1 
1 
1 
1 
1 
1 
1 
1 
1 
1 
1 
1 
1 
1 
1 
1 
1 
1 
1 
1 
1 
1 
1 
1 
1 
1 
1 
1 
1 
1 
1 
1 
1 
1 
1 
1 
1 
1 
1 
1 
1 
1 
1 
1 
1 
1 
1 
1 
1 
1 
1 
1 
1 
1 
1 
1 
1 
1 
1 
1 
1 
1 
1 
1 
1 
1 
1 
1 
1 
1 
1 
1 
1 
1 
1 
1 
1 
1 
1 
1 
1 
1 
1 
1 
1 
1 
1 
1 
1 
1 
1 
1 
1 
1 
1 
1 
1 
1 
1 
1 
1 
1 
1 
1 
1 
1 
1 
1 
1 
1 
1 
1 
1 
1 
1 
1 
1 
1 
1 
1 
1 
1 
1 
1 
1 
1 
1 
1 
1 
1 
1 
1 
1 
1 
1 
1 
1 
1 
1 
1 
1 
1 
1 
1 
1 
1 
1 
1 
1 
1 
1 
1 
1 
1 
1 
1 
1 
1 
1 
1 
1 
1 
1 
1 
1 
1 
1 
1 
1 
1 
1 
1 
1 
1 
1 
1 
1 
1 
1 
1 
1 
1 
1 
1 
1 
1 
1 
1 
1 
1 
1 
1 
1 
1 
1 
1 
1 
1 
1 
1 
1 
1 
1 
1 
1 
1 
1 
1 
1 
1 
1 
1 
1 
1 
1 
1 
1 
1 
1 
1 
1 
1 
1 
1 
1 
1 
1 
1 
1 
1 
1 
1 
1 
1 
1 
1 
1 
1 
1 
1 
1 
1 
1 
1 
1 
1 
1 
1 
1 
1 
1 
1 
1 
1 
1 
1 
1 
1 
1 
1 
1 
1 
1 
1 
1 
1 
1 
1 
1 
1 
1 
1 
1 
1 
1 
1 
1 
1 
1 
1 
1 
1 
1 
1 
1 
1 
1 
1 
1 
1 
1 
1 
1 
1 
1 
1 
1 
1 
1 
1 
1 
1 
1 
1 
1 
1 
1 
1 
1 
1 
1 
1 
1 
1 
1 
1 
1 
1 
1 
1 
1 
1 
1 
1 
1 
1 
1 
1 
1 
1 
1 
1 
1 
1 
1 
1 
1 
1 
1 
1 
1 
1 
1 
1 
1 
1 
1 
1 
1 
1 
1 
1 
1 
1 
1 
1 
1 
1 
1 
1 
1 
1 
1 
1 
1 
1 
1 
1 
1 
1 
1 
1 
1 
1 
1 
1 
1 
1 
1 
1 
1 
1 
1 
1 
1 
1 
1 
1 
1 
1 
1 
1 
1 
1 
1 
1 
1 
1 
1 
1 
1 
1 
1 
1 
1 
1 
1 
1 
1 
1 
1 
1 
1 
1 
1 
1 
1 
1 
1 
1 
1 
1 
1 
1 
1 
1 
1 
1 
1 
1 
1 
1 
1 
1 
1 
1 
1 
1 
1 
1 
1 
1 
1 
1 
1 
1 
1 
1 
1 
1 
1 
1 
1 
1 
1 
1 
1 
1 
1 
1 
1 
1 
1 
1 
1 
1 
1 
1 
1 
1 
1 
1 
1 
1 
1 
1 
1 
1 
1 
1 
1 
1 
1 
1 
1 
1 
1 
1 
1 
1 
1 
1 
1 
1 
1 
1 
1 
1 
1 
1 
1 
1 
1 
1 
1 
1 
1 
1 
1 
1 
1 
1 
1 
1 
1 
1 
1 
1 
1 
1 
1 
1 
1 
1 
1 
1 
1 
1 
1 
1 
1 
1 
1 
1 
1 
1 
1 
1 
1 
1 
1 
1 
1 
1 
1 
1 
1 
1 
1 
1 
1 
1 
1 
1 
1 
1 
1 
1 
1 
1 
1 
1 
1 
1 
1 
1 
1 
1 
1 
1 
1 
1 
1 
1 
1 
1 
1 
1 
1 
1 
1 
1 
1 
1 
1 
1 
1 
1 
1 
1 
1 
1 
1 
1 
1 
1 
1 
1 
1 
1 
1 
1 
1 
1 
1 
1 
1 
1 
1 
1 
1 
1 
1 
1 
1 
1 
1 
1 
1 
1 
1 
1 
1 
1 
1 
1 
1 
1 
1 
1 
1 
1 
1 
1 
1 
1 
1 
1 
1 
1 
1 
1 
1 
1 
1 
1 
1 
1 
1 
1 
1 
1 
1 
1 
1 
1 
1 
1 
1 
1 
1 
1 
1 
1 
1 
1 
1 
1 
1 
1 
1 
1 
1 
1 
1 
1 
1 
1 
1 
1 
1 
1 
1 
1 
1 
1 
1 
1 
1 
1 
1 
1 
1 
1 
1 
1 
1 
1 
1 
1 
1 
1 
1 
1 
1 
1 
1 
1 
1 
1 
1 
1 
1 
1 
1 
1 
1 
1 
1 
1 
1 
1 
1 
1 
1 
1 
1 
1 
1 
1 
1 
1 
1 
1 
1 
1 
1 
1 
1 
1 
1 
1 
1 
1 
1 
1 
1 
1 
1 
1 
1 
1 
1 
1 
1 
1 
1 
1 
1 
1 
1 
1 
1 
1 
1 
1 
1 
1 
1 
1 
1 
1 
1 
1 
1 
1 
1 
1 
1 
1 
1 
1 
1 
1 
1 
1 
1 
1 
1 
1 
1 
1 
1 
1 
1 
1 
1 
1 
1 
1 
1 
1 
1 
1 
1 
1 
1 
1 
1 
1 
1 
1 
1 
1 
1 
1 
1 
1 
1 
1 
1 
1 
1 
1 
1 
1 
1 
1 
1 
1 
1 
1 
1 
1 
1 
1 
1 
1 
1 
1 
1 
1 
1 
1 
1 
1 
1 
1 
1 
1 
1 
1 
1 
1 
1 
1 
1 
1 
1 
1 
1 
1 
1 
1 
1 
1 
1 
1 
1 
1 
1 
1 
1 
1 
1 
1 
1 
1 
1 
1 
1 
1 
1 
1 
1 
1 
1 
1 
1 
1 
1 
1 
1 
1 
1 
1 
1 
1 
1 
1 
1 
1 
1 
1 
1 
1 
1 
1 
1 
1 
1 
1 
1 
1 
1 
1 
1 
1 
1 
1 
1 
1 
1 
1 
1 
1 
1 
1 
1 
1 
1 
1 
1 
1 
1 
1 
1 
1 
1 
1 
1 
1 
1 
1 
1 
1 
1 
1 
1 
1 
1 
1 
1 
1 
1 
1 
1 
1 
1 
1 
1 
1 
1 
1 
1 
1 
1 
1 
1 
1 
1 
1 
1 
1 
1 
1 
1 
1 
1 
1 
1 
1 
1 
1 
1 
1 
1 
1 
1 
1 
1 
1 
1 
1 
1 
1 
1 
1 
1 
1 
1 
1 
1 
1 
1 
1 
1 
1 
1 
1 
1 
1 
1 
1 
1 
1 
1 
1 
1 
1 
1 
1 
1 
1 
1 
1 
1 
1 
1 
1 
1 
1 
1 
1 
1 
1 
1 
1 
1 
1 
1 
1 
1 
1 
1 
1 
1 
1 
1 
1 
1 
1 
1 
1 
1 
1 
1 
1 
1 
1 
1 
1 
1 
1 
1 
1 
1 
1 
1 
1 
1 
1 
1 
1 
1 
1 
1 
1 
1 
1 
1 
1 
1 
1 
1 
1 
1 
1 
1 
1 
1 
1 
1 
1 
1 
1 
1 
1 
1 
1 
1 
1 
1 
1 
1 
1 
1 
1 
1 
1 
1 
1 
1 
1 
1 
1 
1 
1 
1 
1 
1 
1 
1 
1 
1 
1 
1 
1 
1 
1 
1 
1 
1 
1 
1 
1 
1 
1 
1 
1 
1 
1 
1 
1 
1 
1 
1 
1 
1 
1 
1 
1 
1 
1 
1 
1 
1 
1 
1 
1 
1 
1 
1 
1 
1 
1 
1 
1 
1 
1 
1 
1 
1 
1 
1 
1 
1 
1 
1 
1 
1 
1 
1 
1 
1 
1 
1 
1 
1 
1 
1 
1 
1 
1 
1 
1 
1 
1 
1 
1 
1 
1 
1 
1 
1 
1 
1 
1 
1 
1 
1 
1 
1 
1 
1 
1 
1 
1 
1 
1 
1 
1 
1 
1 
1 
1 
1 
1 
1 
1 
1 
1 
1 
1 
1 
1 
1 
1 
1 
1 
1 
1 
1 
1 
1 
1 
1 
1 
1 
1 
1 
1 
1 
1 
1 
1 
1 
1 
1 
1 
1 
1 
1 
1 
1 
1 
1 
1 
1 
1 
1 
1 
1 
1 
1 
1 
1 
1 
1 
1 
1 
1 
1 
1 
1 
1 
1 
1 
1 
1 
1 
1 
1 
1 
1 
1 
1 
1 
1 
1 
1 
1 
1 
1 
1 
1 
1 
1 
1 
1 
1 
1 
1 
1 
1 
1 
1 
1 
1 
1 
1 
1 
1 
1 
1 
1 
1 
1 
1 
1 
1 
1 
1 
1 
1 
1 
1 
1 
1 
1 
1 
1 
1 
1 
1 
1 
1 
1 
1 
1 
1 
1 
1 
1 
1 
1 
1 
1 
1 
1 
1 
1 
1 
1 
1 
1 
1 
1 
1 
1 
1 
1 
1 
1 
1 
1 
1 
1 
1 
1 
1 
1 
1 
1 
1 
1 
1 
1 
1 
1 
1 
1 
1 
1 
1 
1 
1 
1 
1 
1 
1 
1 
1 
1 
1 
1 
1 
1 
1 
1 
1 
1 
1 
1 
1 
1 
1 
1 
1 
1 
1 
1 
1 
1 
1 
1 
1 
1 
1 
1 
1 
1 
1 
1 
1 
1 
1 
1 
1 
1 
1 
1 
1 
1 
1 
1 
1 
1 
1 
1 
1 
1 
1 
1 
1 
1 
1 
1 
1 
1 
1 
1 
1 
1 
1 
1 
1 
1 
1 
1 
1 
1 
1 
1 
1 
1 
1 
1 
1 
1 
1 
1 
1 
1 
1 
1 
1 
1 
1 
1 
1 
1 
1 
1 
1 
1 
1 
1 
1 
1 
1 
1 
1 
1 
1 
1 
1 
1 
1 
1 
1 
1 
1 
1 
1 
1 
1 
1 
1 
1 
1 
1 
1 
1 
1 
1 
1 
1 
1 
1 
1 
1 
1 
1 
1 
1 
1 
1 
1 
1 
1 
1 
1 
1 
1 
1 
1 
1 
1 
1 
1 
1 
1 
1 
1 
1 
1 
1 
1 
1 
1 
1 
1 
1 
1 
1 
1 
1 
1 
1 
1 
1 
1 
1 
1 
1 
1 
1 
1 
1 
1 
1 
1 
1 
1 
1 
1 
1 
1 
1 
1 
1 
1 
1 
1 
1 
1 
1 
1 
1 
1 
1 
1 
1 
1 
1 
1 
1 
1 
1 
1 
1 
1 
1 
1 
1 
1 
1 
1 
1 
1 
1 
1 
1 
1 
1 
1 
1 
1 
1 
1 
1 
1 
1 
1 
1 
1 
1 
1 
1 
1 
1 
1 
1 
1 
1 
1 
1 
1 
1 
1 
1 
1 
1 
1 
1 
1 
1 
1 
1 
1 
1 
1 
1 
1 
1 
1 
1 
1 
1 
1 
1 
1 
1 
1 
1 
1 
1 
1 
1 
1 
1 
1 
1 
1 
1 
1 
1 
1 
1 
1 
1 
1 
1 
1 
1 
1 
1 
1 
1 
1 
1 
1 
1 
1 
1 
1 
1 
1 
1 
1 
1 
1 
1 
1 
1 
1 
1 
1 
1 
1 
1 
1 
1 
1 
1 
1 
1 
1 
1 
1 
1 
1 
1 
1 
1 
1 
1 
1 
1 
1 
1 
1 
1 
1 
1 
1 
1 
1 
1 
1 
1 
1 
1 
1 
1 
1 
1 
1 
1 
1 
1 
1 
1 
1 
1 
1 
1 
1 
1 
1 
1 
1 
1 
1 
1 
1 
1 
1 
1 
1 
1 
1 
1 
1 
1 
1 
1 
1 
1 
1 
1 
1 
1 
1 
1 
1 
1 
1 
1 
1 
1 
1 
1 
1 
1 
1 
1 
1 
1 
1 
1 
1 
1 
1 
1 
1 
1 
1 
1 
1 
1 
1 
1 
1 
1 
1 
1 
1 
1 
1 
1 
1 
1 
1 
1 
1 
1 
1 
1 
1 
1 
1 
1 
1 
1 
1 
1 
1 
1 
1 
1 
1 
1 
1 
1 
1 
1 
1 
1 
1 
1 
1 
1 
1 
1 
1 
1 
1 
1 
1 
1 
1 
1 
1 
1 
1 
1 
1 
1 
1 
1 
1 
1 
1 
1 
1 
1 
1 
1 
1 
1 
1 
1 
1 
1 
1 
1 
1 
1 
1 
1 
1 
1 
1 
1 
1 
1 
1 
1 
1 
1 
1 
1 
1 
1 
1 
1 
1 
1 
1 
1 
1 
1 
1 
1 
1 
1 
1 
1 
1 
1 
1 
1 
1 
1 
1 
1 
1 
1 
1 
1 
1 
1 
1 
1 
1 
1 
1 
1 
1 
1 
1 
1 
1 
1 
1 
1 
1 
1 
1 
1 
1 
1 
1 
1 
1 
1 
1 
1 
1 
1 
1 
1 
1 
1 
1 
1 
1 
1 
1 
1 
1 
1 
1 
1 
1 
1 
1 
1 
1 
1 
1 
1 
1 
1 
1 
1 
1 
1 
1 
1 
1 
1 
1 
1 
1 
1 
1 
1 
1 
1 
1 
1 
1 
1 
1 
1 
1 
1 
1 
1 
1 
1 
1 
1 
1 
1 
1 
1 
1 
1 
1 
1 
1 
1 
1 
1 
1 
1 
1 
1 
1 
1 
1 
1 
1 
1 
1 
1 
1 
1 
1 
1 
1 
1 
1 
1 
1 
1 
1 
1 
1 
1 
1 
1 
1 
1 
1 
1 
1 
1 
1 
1 
1 
1 
1 
1 
1 
1 
1 
1 
1 
1 
1 
1 
1 
1 
1 
1 
1 
1 
1 
1 
1 
1 
1 
1 
1 
1 
1 
1 
1 
1 
1 
1 
1 
1 
1 
1 
1 
1 
1 
1 
1 
1 
1 
1 
1 
1 
1 
1 
1 
1 
1 
1 
1 
1 
1 
1 
1 
1 
1 
1 
1 
1 
1 
1 
1 
1 
1 
1 
1 
1 
1 
1 
1 
1 
1 
1 
1 
1 
1 
1 
1 
1 
1 
1 
1 
1 
1 
1 
1 
1 
1 
1 
1 
1 
1 
1 
1 
1 
1 
1 
1 
1 
1 
1 
1 
1 
1 
1 
1 
1 
1 
1 
1 
1 
1 
1 
1 
1 
1 
1 
1 
1 
1 
1 
1 
1 
1 
1 
1 
1 
1 
1 
1 
1 
1 
1 
1 
1 
1 
1 
1 
1 
1 
1 
1 
1 
1 
1 
1 
1 
1 
1 
1 
1 
1 
1 
1 
1 
1 
1 
1 
1 
1 
1 
1 
1 
1 
1 
1 
1 
1 
1 
1 
1 
1 
1 
1 
1 
1 
1 
1 
1 
1 
1 
1 
1 
1 
1 
1 
1 
1 
1 
1 
1 
1 
1 
1 
1 
1 
1 
1 
1 
1 
1 
1 
1 
1 
1 
1 
1 
1 
1 
1 
1 
1 
1 
1 
1 
1 
1 
1 
1 
1 
1 
1 
1 
1 
1 
1 
1 
1 
1 
1 
1 
1 
1 
1 
1 
1 
1 
1 
1 
1 
1 
1 
1 
1 
1 
1 
1 
1 
1 
1 
1 
1 
1 
1 
1 
1 
1 
1 
1 
1 
1 
1 
1 
1 
1 
1 
1 
1 
1 
1 
1 
1 
1 
1 
1 
1 
1 
1 
1 
1 
1 
1 
1 
1 
1 
1 
1 
1 
1 
1 
1 
1 
1 
1 
1 
1 
1 
1 
1 
1 
1 
1 
1 
1 
1 
1 
1 
1 
1 
1 
1 
1 
1 
1 
1 
1 
1 
1 
1 
1 
1 
1 
1 
1 
1 
1 
1 
1 
1 
1 
1 
1 
1 
1 
1 
1 
1 
1 
1 
1 
1 
1 
1 
1 
1 
1 
1 
1 
1 
1 
1 
1 
1 
1 
1 
1 
1 
1 
1 
1 
1 
1 
1 
1 
1 
1 
1 
1 
1 
1 
1 
1 
1 
1 
1 
1 
1 
1 
1 
1 
1 
1 
1 
1 
1 
1 
1 
1 
1 
1 
1 
1 
1 
1 
1 
1 
1 
1 
1 
1 
1 
1 
1 
1 
1 
1 
1 
1 
1 
1 
1 
1 
1 
1 
1 
1 
1 
1 
1 
1 
1 
1 
1 
1 
1 
1 
1 
1 
1 
1 
1 
1 
1 
1 
1 
1 
1 
1 
1 
1 
1 
1 
1 
1 
1 
1 
1 
1 
1 
1 
1 
1 
1 
1 
1 
1 
1 
1 
1 
1 
1 
1 
1 
1 
1 
1 
1 
1 
1 
1 
1 
1 
1 
1 
1 
1 
1 
1 
1 
1 
1 
1 
1 
1 
1 
1 
1 
1 
1 
1 
1 
1 
1 
1 
1 
1 
1 
1 
1 
1 
1 
1 
1 
1 
1 
1 
1 
1 
1 
1 
1 
1 
1 
1 
1 
1 
1 
1 
1 
1 
1 
1 
1 
1 
1 
1 
1 
1 
1 
1 
1 
1 
1 
1 
1 
1 
1 
1 
1 
1 
1 
1 
1 
1 
1 
1 
1 
1 
1 
1 
1 
1 
1 
1 
1 
1 
1 
1 
1 
1 
1 
1 
1 
1 
1 
1 
1 
1 
1 
1 
1 
1 
1 
1 
1 
1 
1 
1 
1 
1 
1 
1 
1 
1 
1 
1 
1 
1 
1 
1 
1 
1 
1 
1 
1 
1 
1 
1 
1 
1 
1 
1 
1 
1 
1 
1 
1 
1 
1 
1 
1 
1 
1 
1 
1 
1 
1 
1 
1 
1 
1 
1 
1 
1 
1 
1 
1 
1 
1 
1 
1 
1 
1 
1 
1 
1 
1 
1 
1 
1 
1 
1 
1 
1 
1 
1 
1 
1 
1 
1 
1 
1 
1 
1 
1 
1 
1 
1 
1 
1 
1 
1 
1 
1 
1 
1 
1 
1 
1 
1 
1 
1 
1 
1 
1 
1 
1 
1 
1 
1 
1 
1 
1 
1 
1 
1 
1 
1 
1 
1 
1 
1 
1 
1 
1 
1 
1 
1 
1 
1 
1 
1 
1 
1 
1 
1 
1 
1 
1 
1 
1 
1 
1 
1 
1 
1 
1 
1 
1 
1 
1 
1 
1 
1 
1 
1 
1 
1 
1 
1 
1 
1 
1 
1 
1 
1 
1 
1 
1 
1 
1 
1 
1 
1 
1 
1 
1 
1 
1 
1 
1 
1 
1 
1 
1 
1 
1 
1 
1 
1 
1 
1 
1 
1 
1 
1 
1 
1 
1 
1 
1 
1 
1 
1 
1 
1 
1 
1 
1 
1 
1 
1 
1 
1 
1 
1 
1 
1 
1 
1 
1 
1 
1 
1 
1 
1 
1 
1 
1 
1 
1 
1 
1 
1 
1 
1 
1 
1 
1 
1 
1 
1 
1 
1 
1 
1 
1 
1 
1 
1 
1 
1 
1 
1 
1 
1 
1 
1 
1 
1 
1 
1 
1 
1 
1 
1 
1 
1 
1 
1 
1 
1 
1 
1 
1 
1 
1 
1 
1 
1 
1 
1 
1 
1 
1 
1 
1 
1 
1 
1 
1 
1 
1 
1 
1 
1 
1 
1 
1 
1 
1 
1 
1 
1 
1 
1 
1 
1 
1 
1 
1 
1 
1 
1 
1 
1 
1 
1 
1 
1 
1 
1 
1 
1 
1 
1 
1 
1 
1 
1 
1 
1 
1 
1 
1 
1 
1 
1 
1 
1 
1 
1 
1 
1 
1 
1 
1 
1 
1 
1 
1 
1 
1 
1 
1 
1 
1 
1 
1 
1 
1 
1 
1 
1 
1 
1 
1 
1 
1 
1 
1 
1 
1 
1 
1 
1 
1 
1 
1 
1 
1 
1 
1 
1 
1 
1 
1 
1 
1 
1 
1 
1 
1 
1 
1 
1 
1 
1 
1 
1 
1 
1 
1 
1 
1 
1 
1 
1 
1 
1 
1 
1 
1 
1 
1 
1 
1 
1 
1 
1 
1 
1 
1 
1 
1 
1 
1 
1 
1 
1 
1 
1 
1 
1 
1 
1 
1 
1 
1 
1 
1 
1 
1 
1 
1 
1 
1 
1 
1 
1 
1 
1 
1 
1 
1 
1 
1 
1 
1 
1 
1 
1 
1 
1 
1 
1 
1 
1 
1 
1 
1 
1 
1 
1 
1 
1 
1 
1 
1 
1 
1 
1 
1 
1 
1 
1 
1 
1 
1 
1 
1 
1 
1 
1 
1 
1 
1 
1 
1 
1 
1 
1 
1 
1 
1 
1 
1 
1 
1 
1 
1 
1 
1 
1 
1 
1 
1 
1 
1 
1 
1 
1 
1 
1 
1 
1 
1 
1 
1 
1 
1 
1 
1 
1 
1 
1 
1 
1 
1 
1 
1 
1 
1 
1 
1 
1 
1 
1 
1 
1 
1 
1 
1 
1 
1 
1 
1 
1 
1 
1 
1 
1 
1 
1 
1 
1 
1 
1 
1 
1 
1 
1 
1 
1 
1 
1 
1 
1 
1 
1 
1 
1 
1 
1 
1 
1 
1 
1 
1 
1 
1 
1 
1 
1 
1 
1 
1 
1 
1 
1 
1 
1 
POINT_DATA 5000
VECTORS Stress float
0.483106 1.13769 0.
-976.426 -2087.37 0.
5.32808 11.2371 0.
-1940.22 -2442.39 0.
2.44001 3.3163 0.
3.45002 5.28679 0.
-3280.09 -4938.17 0.
-543.616 -859.339 0.
-0.225664 -0.780512 0.
-2639.32 -3969.12 0.
-1369.67 -2264.98 0.
-189.233 -471.618 0.
-1566.3 -2201.34 0.
-1225.6 -1713.48 0.
-944.403 -1246.15 0.
-826.398 -1153.08 0.
-707.669 -1060.74 0.
-888.58 -1333.4 0.
-785.299 -1302.7 0.
-668.707 -1285.31 0.
-792.654 -1414.7 0.
-731.428 -1273.09 0.
-669.622 -1132.06 0.
-711.891 -1209.34 0.
-758.575 -1317.65 0.
-802.809 -1428.41 0.
-880.498 -1415.28 0.
-805.729 -1276.14 0.
-599.93 -1114.95 0.
-598.124 -1094.39 0.
-588.598 -1081.56 0.
-638.993 -1116.15 0.
-615.729 -1090.27 0.
-590.254 -1066.61 0.
-609.076 -1078.75 0.
-591.914 -1059.69 0.
-574.7 -1040.68 0.
-631.764 -1016.4 0.
-593.508 -947.44 0.
-474.393 -841.771 0.
-450.583 -799.69 0.
-426.778 -757.603 0.
-472.029 -767.776 0.
-497.028 -826.118 0.
-522.027 -884.461 0.
-538.58 -924.419 0.
-549.624 -950.192 0.
-560.667 -975.965 0.
-512.75 -962.212 0.
-514.182 -965.558 0.
-515.613 -968.903 0.
-589.044 -971.853 0.
-574.082 -936.921 0.
-517.789 -892.305 0.
-521.734 -901.516 0.
-525.678 -910.727 0.
-516.519 -884.669 0.
-485.468 -812.207 0.
-454.417 -739.745 0.
-416.293 -747.762 0.
-454.178 -825.56 0.
-494.644 -900.777 0.
-633.76 -1038.65 0.
-685.453 -1143.38 0.
-610.981 -1176.41 0.
-616.816 -1161.93 0.
-622.064 -1148.02 0.
-627.336 -1133.91 0.
-645.541 -1146.84 0.
-662.345 -1161.16 0.
-623.22 -1129.9 0.
-649.354 -1155.04 0.
-672.796 -1182.88 0.
-808.923 -1286.54 0.
-857.133 -1380.11 0.
-752.979 -1347.68 0.
-682.745 -1221.24 0.
-653.315 -1148.02 0.
-694.438 -1151.57 0.
-738.173 -1284.53 0.
-791.607 -1407.79 0.
-667.522 -1275.24 0.
-792.441 -1301.08 0.
-905.963 -1338.32 0.
-740.524 -1109.47 0.
-936.78 -1346.49 0.
-1124.77 -1591.78 0.
-1373.9 -1942.4 0.
-1785.99 -2434.92 0.
1.33226 2.7303 0.
-1082.13 -2006.23 0.
-2997.12 -4936.02 0.
0.0949489 0.175141 0.
0.871307 1.43608 0.
-2125.71 -3386 0.
-2.99382 -8.30497 0.
-59.3834 -89.8945 0.
-1215.3 -1774.43 0.
-3.55263 -28.9587 0.
-823.559 -1804.27 0.
-11.236 -28.7347 0.
-3.89179 -9.30766 0.
12.6375 30.6999 0.
0.945056 19.7776 0.
-3.61144 -13.0267 0.
0.643526 4.02378 0.
-0.299333 -1.15907 0.
2.18712 4.43478 0.
0.172671 3.5312 0.
-0.261368 -0.736158 0.
-0.0420872 -0.26152 0.
0.250823 0.644493 0.
-360.827 -699.287 0.
-162.186 -322.44 0.
-183.196 -212.825 0.
-87.6375 -104.224 0.
-14.6323 -10.2676 0.
-340.101 -657.139 0.
-270.942 -613.715 0.
-235.743 -553.619 0.
-526.877 -1152.45 0.
-464.173 -1016.67 0.
-401.382 -881.946 0.
-538.924 -947.346 0.
-570.604 -1070.68 0.
-598.965 -1197.33 0.
-747.712 -1267.16 0.
-674.49 -1126.44 0.
-383.914 -837.966 0.
-361.903 -818.549 0.
-351.789 -801.238 0.
-471.162 -930.807 0.
-441.018 -911.801 0.
-437.192 -866.476 0.
-508.668 -966.289 0.
-491.77 -946.96 0.
-474.534 -927.969 0.
-687.322 -986.023 0.
-651.317 -914.805 0.
-403.305 -751.38 0.
-374.1 -714.693 0.
-348.43 -674.472 0.
-467.897 -705.179 0.
-482.152 -774.267 0.
-497.322 -842.439 0.
-539.438 -893.368 0.
-550.477 -919.141 0.
-561.517 -944.914 0.
-395.681 -871.93 0.
-391.038 -881.349 0.
-392.465 -884.697 0.
-642.421 -963.282 0.
-627.474 -928.342 0.
-488.267 -848.239 0.
-492.208 -857.453 0.
-496.148 -866.668 0.
-484.802 -839.641 0.
-461.387 -759.544 0.
-440.621 -676.8 0.
-343.931 -661.574 0.
-389.21 -731.978 0.
-435.26 -801.61 0.
-661.334 -999.078 0.
-709.54 -1107.3 0.
-469.317 -1006.3 0.
-455.479 -1011.48 0.
-462.403 -995.907 0.
-471.255 -938.323 0.
-496.365 -944.353 0.
-522.66 -949.198 0.
-440.224 -826.971 0.
-439.834 -878.652 0.
-466.728 -903.05 0.
-615.69 -1091.54 0.
-664.725 -1184.32 0.
-575.614 -1175.42 0.
-488.464 -978.909 0.
-480.344 -879.44 0.
-385.136 -837.881 0.
-449.545 -966.125 0.
-517.16 -1095.39 0.
-154.714 -372.727 0.
-168.116 -388.89 0.
-221.277 -442.762 0.
-5.70831 -9.34588 0.
-45.0158 -121.961 0.
-165.894 -359.981 0.
-87.6777 -85.8786 0.
-331.627 -455.271 0.
0.429978 5.52528 0.
0.0137544 3.99772 0.
-0.309973 -7.76035 0.
2.88961 5.67242 0.
4.62268 8.19358 0.
5.925 9.58779 0.
8.29786 17.8121 0.
5.36565 10.2825 0.
0.290285 5.03028 0.
3.82747 9.20873 0.
-78.0657 -186.168 0.
-2.12712 -5.74135 0.
-0.741939 -24.0777 0.
9.69912 25.6931 0.
-0.334326 -53.7631 0.
-2.40821 -14.4596 0.
0.817972 9.77065 0.
-1.17715 -8.55035 0.
-0.3297 -4.96177 0.
0.00350878 0.383099 0.
0.0150901 0.0619496 0.
-0.153884 -1.29215 0.
0.488335 1.24897 0.
-97.0046 -110.842 0.
-7.48818 -12.3794 0.
-695.751 -1263.8 0.
-263.834 -474.917 0.
-84.4226 -138.564 0.
-969.839 -2048.53 0.
-779.442 -1675.42 0.
-471.339 -945.011 0.
-911.029 -1592.48 0.
-743.306 -1309.84 0.
-617.463 -1105.72 0.
-646.564 -929.063 0.
-671.064 -1051.53 0.
-767.008 -1239.55 0.
-902.963 -1665.47 0.
-948.397 -1779.02 0.
-681.404 -1357.27 0.
-493.314 -969.148 0.
-385.124 -761.326 0.
-591.97 -1066.32 0.
-531.951 -931.719 0.
-539.081 -961.766 0.
-641.184 -1089.91 0.
-572.438 -934.63 0.
-586.023 -976.776 0.
-869.479 -1222.32 0.
-891.886 -1286.3 0.
-564.593 -823.327 0.
-471.74 -635.369 0.
-452.59 -606.312 0.
-572.466 -818.596 0.
-588.318 -901.503 0.
-517.706 -801.167 0.
-565.403 -760.348 0.
-579.122 -822.894 0.
-584.208 -861.011 0.
-373.46 -819.392 0.
-359.287 -787.802 0.
-801.48 -1271.92 0.
-683.391 -926.468 0.
-699.275 -963.628 0.
-558.282 -895.389 0.
-516.092 -771.156 0.
-473.345 -678.03 0.
-529.475 -774.448 0.
-533.156 -776.333 0.
-579.15 -839.226 0.
-476.37 -693.16 0.
-525.412 -810.861 0.
-570.237 -882.278 0.
-852.394 -1263.51 0.
-931.659 -1437.72 0.
-488.703 -865.149 0.
-514.543 -1017.22 0.
-521.969 -1016.59 0.
-572.004 -989.101 0.
-581.318 -1007.76 0.
-672.033 -1177.17 0.
-527.377 -924.798 0.
-677.356 -1281.51 0.
-777.152 -1436.58 0.
-942.426 -1864.24 0.
-874.594 -1701.87 0.
-775.826 -1361.31 0.
-694.583 -1172.34 0.
-656.373 -984.54 0.
-701.334 -1393.77 0.
-848.565 -1591.46 0.
-1069.13 -1948.94 0.
-412.413 -945.721 0.
-821.814 -1828.8 0.
-895.368 -1890.58 0.
-4.91526 -7.23605 0.
-151.441 -395.369 0.
-516.522 -1124.68 0.
-1.49155 -0.636217 0.
-0.204507 -0.0513753 0.
0.132045 7.70179 0.
-0.0385834 -8.78426 0.
-0.0520264 -10.2711 0.
-0.667271 -4.34295 0.
-0.677185 -3.15076 0.
-0.323284 -1.15392 0.
-0.878524 -18.9139 0.
-0.629652 -6.167 0.
19.8238 52.7047 0.
-1.23798 -43.3523 0.
2.2899 5.82309 0.
-0.0236975 -44.5793 0.
-251.927 -679.488 0.
5.38765 14.5281 0.
0.0458965 0.123696 0.
-1365.86 -3102.43 0.
-1.73679 -18.2301 0.
-1608.69 -2888.11 0.
5.96294 11.0476 0.
-1.08064 -2.11941 0.
-2728.1 -5258.11 0.
2.21913 4.49157 0.
0.0784246 1.29789 0.
-2675.99 -5134.34 0.
-547.506 -1195.18 0.
-1410.02 -2393.15 0.
-949.615 -1724.8 0.
-525.483 -1049.04 0.
-1207.3 -2848.28 0.
-454.863 -1125.93 0.
-21.838 -33.9419 0.
-387.205 -782.266 0.
-270.439 -553.876 0.
-196.449 -378.28 0.
-413.854 -543.386 0.
-330.215 -440.343 0.
-253.37 -348.555 0.
-435.047 -724.812 0.
-453.349 -798.217 0.
-320.816 -456.601 0.
-305.156 -446.056 0.
-300.051 -460.415 0.
-374.019 -550.319 0.
-353.364 -549.207 0.
-334.614 -538.87 0.
-360.949 -536.193 0.
-319.995 -440.512 0.
-293.575 -333.51 0.
-436.69 -585.652 0.
-415.748 -556.996 0.
-262.485 -264.826 0.
-255.243 -250.744 0.
-248.858 -239.7 0.
-385.563 -462.802 0.
-348.436 -374.692 0.
-304.325 -295.625 0.
-386.907 -316.262 0.
-375.813 -305.931 0.
-374.462 -287.526 0.
-108.914 -215.262 0.
-114.606 -209.497 0.
-421.146 -387.018 0.
-420.301 -351.702 0.
-384.491 -403.814 0.
-303.757 -348.017 0.
-312.438 -318.316 0.
-320.192 -290.083 0.
-281.103 -229.986 0.
-354.275 -343.571 0.
-411.276 -473.293 0.
-234.341 -318.055 0.
-226.484 -295.279 0.
-219.185 -273.78 0.
-358.647 -557.833 0.
-402.555 -620.165 0.
-265.969 -391.378 0.
-265.023 -425.726 0.
-294.823 -503.815 0.
-311.819 -486.602 0.
-349.26 -537.807 0.
-397.828 -579.504 0.
-380.792 -580.659 0.
-383.681 -582.589 0.
-405.903 -636.228 0.
-507.113 -937.523 0.
-516.85 -895.899 0.
-325.285 -488.19 0.
-388.6 -544.448 0.
-467.174 -629.406 0.
-182.79 -341.975 0.
-312.642 -739.651 0.
-483.629 -1097.48 0.
-17.3782 -42.6273 0.
-425.536 -1070.67 0.
-1314.66 -3056.4 0.
-488.21 -1096.72 0.
-1024.89 -2039.6 0.
-1612.07 -2972.5 0.
-71.7228 -157.073 0.
-2752.74 -4883.42 0.
2.20895 5.44049 0.
-0.974335 -12.4055 0.
-2126.7 -4541.47 0.
-1.81335 -10.3267 0.
-3.12924 -14.5377 0.
-841.984 -1509.45 0.
-1.09471 -16.234 0.
-1044.27 -2462.8 0.
9.13715 24.293 0.
-0.756138 -46.2437 0.
-347.181 -927.736 0.
-8.04374 -22.2713 0.
-226.952 -616.812 0.
2.03338 5.5275 0.
6.55417 17.8174 0.
-5.79124 -14.1777 0.
2.30476 5.68895 0.
3.93385 7.5494 0.
10.5398 21.2625 0.
3.62946 7.77211 0.
4.96473 11.015 0.
-0.388326 -7.53809 0.
-0.0264597 -6.8003 0.
-0.935432 -4.52742 0.
-0.266688 -2.63233 0.
-66.9673 -179.726 0.
-52.4458 -142.582 0.
-45.687 -122.805 0.
-383.552 -970.465 0.
-27.4769 -61.5324 0.
-34.0559 -38.8942 0.
-160.511 -350.658 0.
-76.4172 -117.535 0.
-61.4992 -71.55 0.
-306.677 -417.493 0.
-225.224 -309.439 0.
-156.957 -204.376 0.
-508.636 -755.334 0.
-530.589 -824.304 0.
-352.047 -447.549 0.
-367.624 -438.551 0.
-360.987 -452.446 0.
-388.341 -463.17 0.
-366.516 -459.327 0.
-341.878 -459.293 0.
-326.222 -471.111 0.
-299.675 -360.84 0.
-278.343 -246.652 0.
-375.811 -549.212 0.
-367.469 -522.784 0.
-239.553 -250.233 0.
-233.463 -235.212 0.
-229.797 -222.604 0.
-423.541 -418.027 0.
-388.433 -346.927 0.
-339.062 -304.198 0.
-430.419 -305.288 0.
-429.387 -286.877 0.
-427.711 -268.515 0.
-193.95 -277.609 0.
-194.521 -280.149 0.
-620.08 -466.487 0.
-464.431 -355.647 0.
-472.188 -364.625 0.
-413.523 -338.221 0.
-409.36 -320.766 0.
-416.045 -293.056 0.
-274.559 -223.721 0.
-332.295 -325.549 0.
-396.817 -446.859 0.
-204.825 -301.857 0.
-206.317 -269.029 0.
-188.697 -257.329 0.
-345.888 -549.9 0.
-374.917 -614.193 0.
-312.196 -375.825 0.
-310.598 -410.588 0.
-337.22 -494.241 0.
-284.02 -345.927 0.
-344.284 -372.236 0.
-396.567 -405.249 0.
-373.64 -583.526 0.
-377.996 -588.692 0.
-385.725 -592.83 0.
-567.395 -946.054 0.
-589.898 -896.636 0.
-214.194 -309.742 0.
-253.091 -390.564 0.
-329.169 -468.658 0.
-48.8223 -88.3059 0.
-52.1748 -85.4682 0.
-182.843 -459.594 0.
-2.22049 -5.85727 0.
0.556826 0.505579 0.
-251.194 -605.192 0.
-0.0753279 -0.21763 0.
-13.4627 -36.0248 0.
-61.6361 -168.288 0.
-0.164718 -6.47421 0.
-0.77458 -9.66263 0.
4.97927 12.6152 0.
5.59261 13.5466 0.
-0.861328 -10.2389 0.
10.0534 22.0067 0.
10.625 21.848 0.
13.3582 26.107 0.
1.84868 4.70797 0.
2.72172 6.78971 0.
-1.85576 -5.0105 0.
16.8716 45.5951 0.
3.90577 10.5839 0.
-9.10777 -25.2267 0.
8.51147 23.5741 0.
11.5391 31.5081 0.
-1.45637 -3.98451 0.
-126.451 -349.7 0.
2.21607 6.12415 0.
-1127.43 -2722.08 0.
3.12361 7.86546 0.
-1.32351 -3.44304 0.
-1709.01 -4561.66 0.
7.0652 18.7772 0.
-0.252789 -12.6231 0.
-2162.51 -4737.55 0.
-0.861871 -6.83698 0.
-1668.66 -2946.42 0.
-885.845 -1687.63 0.
-165.274 -365.79 0.
-1860.82 -4322.16 0.
-753.276 -1858.11 0.
-7.90814 -13.1921 0.
-1447.99 -2869.3 0.
-866.017 -1832.1 0.
-320.823 -758.542 0.
-869.557 -1559.61 0.
-664.306 -1248.97 0.
-514.634 -1038.02 0.
-903.771 -1662.78 0.
-798.391 -1548.25 0.
-695.869 -1173.86 0.
-647.611 -1064.78 0.
-600.502 -956.392 0.
-566.885 -866.947 0.
-483.786 -715.299 0.
-407.112 -557.225 0.
-494.854 -685.381 0.
-486.644 -697.85 0.
-481.439 -707.313 0.
-720.459 -1159.35 0.
-657.452 -1082.96 0.
-439.168 -706.313 0.
-428.491 -679.986 0.
-419.089 -651.974 0.
-607.72 -859.61 0.
-589.818 -831.419 0.
-575.819 -810.633 0.
-702.602 -823.557 0.
-643.356 -686.998 0.
-585.266 -549.286 0.
-462.328 -652.966 0.
-483.837 -703.63 0.
-826.86 -952.736 0.
-698.116 -791.415 0.
-673.019 -728.031 0.
-552.806 -608.215 0.
-611.79 -753.503 0.
-671.287 -898.278 0.
-422.906 -719.602 0.
-473.766 -753.244 0.
-499.918 -830.452 0.
-448.584 -701.266 0.
-474.836 -762.013 0.
-503.099 -820.747 0.
-686.062 -1136.34 0.
-707.952 -1146.64 0.
-455.779 -672.88 0.
-513.46 -799.607 0.
-576.616 -928.968 0.
-514.203 -680.263 0.
-524.119 -737.705 0.
-535.681 -793.501 0.
-488.98 -970.467 0.
-556.637 -1080.95 0.
-628.351 -1189.51 0.
-700.84 -1403.16 0.
-799.678 -1501.97 0.
-398.386 -788.261 0.
-657.652 -1266.21 0.
-989.828 -1874.83 0.
-298.554 -777.941 0.
-933.55 -2054.69 0.
-1633.93 -3287.1 0.
0.00725879 1.68368 0.
-733.887 -1779.14 0.
-2072.49 -4802.56 0.
-59.8946 -139.932 0.
-712.138 -1346.7 0.
-1540.44 -2624.96 0.
4.61129 12.0124 0.
-1924.88 -4566.76 0.
6.52417 17.3532 0.
-0.297904 -12.1176 0.
-1147.7 -2958.9 0.
-0.565936 -19.2639 0.
-1021.44 -2625.01 0.
9.65622 26.7374 0.
-3.20179 -8.86838 0.
-47.4767 -131.478 0.
-1.12897 -3.09603 0.
2.77712 7.58638 0.
12.2633 32.9229 0.
15.3389 40.2162 0.
-12.7843 -34.0764 0.
-138.84 -377.337 0.
7.54295 20.544 0.
-48.928 -135.445 0.
4.51749 12.5053 0.
-0.00717 -28.0769 0.
8.00384 20.5515 0.
-0.347111 -17.0088 0.
2.30525 6.29255 0.
-0.354952 -0.968573 0.
-0.0688609 -10.6918 0.
3.99709 9.59758 0.
-0.271667 -8.59563 0.
-0.495844 -2.01503 0.
0.154702 0.802827 0.
3.23811 0.227366 0.
-312.11 -788.12 0.
1.0458 0.123321 0.
-0.0220022 -0.895972 0.
-462.484 -997.025 0.
-34.1381 -87.5295 0.
-43.586 -118.318 0.
-364.386 -789.966 0.
-220.029 -484.854 0.
-109.561 -168.919 0.
-647.557 -1344.11 0.
-565.862 -1279.49 0.
-557.132 -1025 0.
-499.88 -944.829 0.
-463.38 -865.098 0.
-523.859 -730.568 0.
-445.708 -577.981 0.
-367.869 -440.009 0.
-495.627 -529.051 0.
-492.179 -548.838 0.
-488.038 -569.632 0.
-572.465 -952.02 0.
-517.623 -892.466 0.
-380.673 -618.467 0.
-367.671 -594.578 0.
-354.982 -570.863 0.
-493.326 -677.979 0.
-487.483 -655.473 0.
-460.949 -676.9 0.
-678.757 -750.871 0.
-615.229 -615.325 0.
-554.178 -481.65 0.
-447.479 -617.946 0.
-468.579 -668.533 0.
-641.943 -839.539 0.
-681.084 -693.127 0.
-687.851 -597.187 0.
-479.309 -514.351 0.
-511.995 -621.326 0.
-563.659 -757.787 0.
-312.939 -582.944 0.
-320.329 -624.623 0.
-392.706 -633.03 0.
-373.764 -628.946 0.
-396.528 -682.673 0.
-425.764 -750.19 0.
-539.661 -982.018 0.
-562.486 -965.703 0.
-412.023 -557.078 0.
-446.767 -636.824 0.
-500.824 -753.128 0.
-472.859 -610.659 0.
-488.775 -660.924 0.
-511.055 -711.548 0.
-403.863 -784.129 0.
-442.246 -857.654 0.
-496.636 -964.937 0.
-448.877 -1118.91 0.
-502.3 -1159.61 0.
-45.7854 -66.3925 0.
-194.653 -392.689 0.
-425.018 -1015.99 0.
0.44626 0.67716 0.
-0.120916 -0.115728 0.
-363.331 -831.361 0.
0.799878 2.60645 0.
0.134013 1.87924 0.
-242.679 -647.128 0.
0.899601 2.16254 0.
-0.454376 -2.41213 0.
7.94776e-05 4.69198 0.
-0.104213 -17.9878 0.
4.61814 12.2986 0.
-0.00869389 -1.75085 0.
-0.198801 -19.0087 0.
0.762016 2.03152 0.
0.65832 1.76964 0.
-37.9989 -101.601 0.
-0.0573255 -39.6601 0.
6.89077 19.0569 0.
-35.5962 -98.5481 0.
10.1031 27.6784 0.
-93.2528 -255.507 0.
-8.08672 -22.3966 0.
-1.63895 -4.3475 0.
-87.2457 -234.825 0.
-319.516 -863.626 0.
5.06938 13.734 0.
-400.391 -1100.66 0.
-4.55193 -12.493 0.
-0.0976729 -20.4887 0.
6.01472 15.6841 0.
2.78038 7.42739 0.
-0.0180445 -18.5331 0.
2.29406 6.34375 0.
4.43151 12.2631 0.
-0.0752655 -3.38173 0.
-0.0276433 -7.42847 0.
-0.0469667 -10.1911 0.
0.136397 3.22668 0.
0.000302673 1.89694 0.
0.115624 1.55207 0.
0.589425 0.474366 0.
0.00209063 0.101988 0.
-42.7716 -86.1216 0.
-55.2702 -116.979 0.
-66.5455 -145.32 0.
-212.913 -465.397 0.
-209.944 -425.627 0.
-128.42 -206.986 0.
-585.948 -1130.91 0.
-378.085 -653.001 0.
-395.631 -697.063 0.
-434.818 -663.844 0.
-270.384 -261.009 0.
-548.103 -559.758 0.
-316.547 -332.946 0.
-173.698 -175.915 0.
-439.8 -250.018 0.
-468.664 -319.917 0.
-544.191 -474.151 0.
-338.239 -467.702 0.
-360.493 -458.661 0.
-289.625 -270.841 0.
-295.526 -306.421 0.
-214.627 -193.673 0.
-234.468 -173.894 0.
-48.1892 -34.1137 0.
-305.178 -422.785 0.
-513.451 -353.411 0.
-307.554 -117.67 0.
-315.943 -127.644 0.
-209.359 -108.089 0.
-260.48 -150.55 0.
-594.402 -479.693 0.
-536.257 -371.813 0.
-538.372 -368.732 0.
-330.357 -186.094 0.
-298.43 -125.812 0.
-426.331 -313.124 0.
-28.3241 -10.3027 0.
-229.397 -365.578 0.
-230.227 -229.611 0.
-158.681 -172.773 0.
-239.587 -158.369 0.
-345.5 -279.004 0.
-257.67 -351.654 0.
-394.908 -671.43 0.
-417.32 -531.241 0.
-410.145 -350.07 0.
-139.683 -179.92 0.
-232.043 -254.697 0.
-181.469 -174.071 0.
-141.762 -106.071 0.
-222.132 -250.407 0.
-403.205 -660.685 0.
-324.757 -501.343 0.
-104.674 -257.252 0.
-467.429 -1050.7 0.
-72.9238 -78.054 0.
-60.7426 -52.5552 0.
-194.245 -254.996 0.
0.00702752 0.0283667 0.
0.141188 0.0907622 0.
1.28678 0.252894 0.
0.571347 2.14098 0.
-0.0698718 -0.721684 0.
-0.00163179 -0.063459 0.
-0.0747836 -1.64605 0.
-0.246046 -1.98859 0.
0.0105107 2.50286 0.
0.000495983 6.71204 0.
5.34168 14.6428 0.
-0.00464187 -14.2408 0.
3.09126 8.50303 0.
-0.0792786 -11.6455 0.
-1.0319 -2.83597 0.
10.1377 27.7298 0.
12.5264 34.3642 0.
0.0541097 0.149014 0.
-320.353 -884.207 0.
-4.27151 -11.6897 0.
-92.676 -253.662 0.
-35.9804 -99.4054 0.
-3.24997 -8.72197 0.
9.79118 26.1244 0.
8.28575 21.7668 0.
-2.38962 -6.29327 0.
-160.389 -427.965 0.
11.5239 30.5742 0.
12.0554 31.7886 0.
-734.025 -1992.27 0.
9.29742 25.0317 0.
-953.91 -2598.54 0.
-6.99207 -19.1372 0.
6.67176 18.3263 0.
-1584.81 -4168.18 0.
-0.163575 -8.96839 0.
-0.334478 -18.3103 0.
-2290.91 -5097.75 0.
0.269599 0.630424 0.
-1751.84 -4048.09 0.
-391.238 -935.979 0.
0.0316826 0.773313 0.
-1769.25 -4110.14 0.
-685.577 -1721.94 0.
-42.8647 -87.3696 0.
-1344.52 -3081.35 0.
-582.755 -1385.98 0.
-48.7531 -51.1425 0.
-839.772 -1789.19 0.
-584.933 -1226.02 0.
-560.903 -1146.16 0.
-433.529 -893.823 0.
-306.314 -648.682 0.
-463.525 -798.259 0.
-437.771 -758.622 0.
-408.593 -725.803 0.
-563.609 -677.989 0.
-504.96 -564.665 0.
-439.221 -459.807 0.
-556.731 -836.865 0.
-558.549 -854.512 0.
-361.049 -552.736 0.
-349.713 -520.554 0.
-351.962 -525.189 0.
-400.885 -571.63 0.
-349.715 -458.244 0.
-301.573 -352.466 0.
-461.723 -429.707 0.
-478.833 -461.446 0.
-509.944 -504.456 0.
-405.965 -526.845 0.
-390.527 -491.624 0.
-292.755 -458.878 0.
-549.308 -499.214 0.
-592.112 -472.297 0.
-391.454 -367.281 0.
-418.434 -421.703 0.
-453.333 -466.658 0.
-378.136 -470.265 0.
-409.824 -534.382 0.
-410.01 -627.433 0.
-409.859 -626.638 0.
-383.589 -583.229 0.
-361.651 -550.913 0.
-552.937 -868.865 0.
-560.802 -867.089 0.
-393.795 -524.276 0.
-462.079 -656.182 0.
-527.949 -788.787 0.
-447.089 -755.082 0.
-511.205 -869.294 0.
-573.597 -982.583 0.
-332.974 -755.797 0.
-492.858 -1092.73 0.
-657.705 -1426.97 0.
-647.772 -1601.14 0.
-1031.33 -2421.22 0.
-32.1877 -54.0793 0.
-610.038 -1575.1 0.
-1402.76 -3322.84 0.
-0.029548 -1.20581 0.
-573.471 -1430.85 0.
-1914.61 -4512.94 0.
-0.132872 -0.359386 0.
-231.829 -590.217 0.
-1666.51 -3959.71 0.
-0.35054 -0.830248 0.
-2455.77 -5542.05 0.
2.65538 7.25208 0.
-1.4672 -3.98491 0.
-1297.74 -3520.62 0.
-1.51271 -4.10043 0.
-0.373323 -1.00867 0.
-723.047 -1937.5 0.
-2.56548 -7.09319 0.
-233.809 -645.941 0.
9.79748 26.4963 0.
10.415 28.136 0.
14.4948 39.1178 0.
-3.81569 -10.0468 0.
-2.94776 -7.62364 0.
9.66999 26.5596 0.
14.8396 39.3517 0.
3.80429 10.2451 0.
1.22367 3.1888 0.
11.9106 31.1128 0.
-128.486 -340.8 0.
11.4638 30.2216 0.
3.44396 9.01911 0.
-301.414 -826.21 0.
6.37275 17.3625 0.
-16.5342 -45.2372 0.
0.730468 2.00556 0.
2.14017 5.894 0.
-0.66886 -1.83139 0.
-0.0498962 -15.2199 0.
0.0023251 1.45752 0.
-0.377559 -4.75634 0.
0.0403234 1.09354 0.
-0.223611 -3.26223 0.
-0.000354764 -0.0109714 0.
0.00846865 2.73375 0.
-116.795 -321.609 0.
0.0951144 2.07474 0.
2.72281 0.00464792 0.
-562.049 -1233.07 0.
-107.047 -115.652 0.
-87.7229 -77.7219 0.
-506.009 -1157.93 0.
-313.577 -536.225 0.
-401.018 -776.192 0.
-291.163 -508.995 0.
-189.201 -237.752 0.
-317.418 -594.867 0.
-295.34 -554.024 0.
-276.97 -510.039 0.
-460.491 -543.269 0.
-402.848 -430.421 0.
-349.012 -338.011 0.
-655.039 -874.976 0.
-657.977 -894.371 0.
-444.471 -465.834 0.
-434.768 -431.149 0.
-431.007 -412.878 0.
-459.199 -570.555 0.
-403.792 -441.782 0.
-349.025 -312.049 0.
-375.088 -383.457 0.
-401.265 -426.659 0.
-431.039 -469.814 0.
-371.787 -499.354 0.
-356.802 -465.546 0.
-307.841 -365.833 0.
-496.488 -483.488 0.
-540.252 -455.956 0.
-390.537 -249.882 0.
-411.827 -309.428 0.
-432.46 -369.834 0.
-491.009 -439.52 0.
-513.033 -510.105 0.
-538.869 -581.99 0.
-436.983 -526.232 0.
-417.336 -478.728 0.
-413.21 -467.867 0.
-668.618 -913.408 0.
-676.297 -910.895 0.
-313.477 -411.041 0.
-390.316 -535.14 0.
-464.219 -668.64 0.
-232.362 -517.721 0.
-277.844 -647.828 0.
-349.335 -758.371 0.
-163.854 -329.542 0.
-302.035 -688.402 0.
-452.528 -1039.09 0.
-274.018 -682.044 0.
-586.688 -1574.36 0.
1.04795 0.00133607 0.
0.643144 0.0532436 0.
-354.528 -901.492 0.
0.0210082 0.200874 0.
-0.0401603 -2.73827 0.
-31.3447 -86.8192 0.
-0.0583095 -6.16506 0.
-0.166707 -5.94446 0.
0.0706077 0.173043 0.
3.02618 7.84496 0.
-0.458633 -8.67165 0.
5.23712 14.4988 0.
7.69174 21.2407 0.
-0.405724 -1.11638 0.
1.77805 4.7983 0.
0.989569 2.66087 0.
1.12848 3.02229 0.
-0.00120769 -18.5848 0.
-440.551 -1220.25 0.
6.84719 18.3763 0.
5.87703 15.7584 0.
7.27764 19.4976 0.
-7.01794 -18.4049 0.
-1.32016 -41.2018 0.
14.1672 39.081 0.
8.57523 22.9893 0.
-62.5187 -169.837 0.
-302.87 -782.787 0.
-8.70373 -22.5363 0.
-226.691 -597.629 0.
4.40743 11.5424 0.
-1.06734 -2.7754 0.
-57.4373 -158.411 0.
2.72078 7.51931 0.
-637.225 -1747.92 0.
7.2209 19.8712 0.
5.95742 16.4561 0.
-986.615 -2726.05 0.
-2.96184 -8.12906 0.
2.30806 6.30404 0.
-1375.73 -3677.66 0.
-0.0750514 -0.198288 0.
-1668.25 -4008.75 0.
-215.963 -526.849 0.
-0.21053 -6.64512 0.
-1687.13 -4209.52 0.
-254.719 -650.927 0.
0.821778 2.2736 0.
-1506.57 -3717.78 0.
-491.923 -1179.47 0.
1.07245 0.000119874 0.
-1198.03 -2729.28 0.
-699.801 -1591.14 0.
-851.506 -1742.11 0.
-598.884 -1202.47 0.
-360.353 -663.727 0.
-510.546 -950.462 0.
-446.088 -867.784 0.
-382.796 -784.17 0.
-655.997 -916.276 0.
-630.104 -870.522 0.
-605.005 -829.461 0.
-870.394 -1337.9 0.
-805.008 -1196.15 0.
-614.864 -655.386 0.
-552.938 -518.452 0.
-496.801 -396.662 0.
-489.996 -435.858 0.
-426.13 -409.872 0.
-404.906 -351.565 0.
-532.731 -475.67 0.
-521.328 -435.259 0.
-446.941 -459.639 0.
-484.065 -693.512 0.
-490.824 -705.778 0.
-840.271 -820.355 0.
-629.454 -649.695 0.
-679.243 -688.09 0.
-461.897 -522.561 0.
-461.943 -508.376 0.
-464.501 -499.299 0.
-488.101 -328.531 0.
-514.124 -391.172 0.
-544.203 -465.943 0.
-470.217 -424.125 0.
-516.081 -527.273 0.
-562.007 -630.553 0.
-815.212 -1242.6 0.
-890.646 -1426.51 0.
-516.338 -846.337 0.
-562.418 -903.979 0.
-616.34 -980.566 0.
-327.655 -704.427 0.
-413.779 -876.259 0.
-500.644 -1052.12 0.
-259.112 -611.521 0.
-568.429 -1305.49 0.
-892.958 -1994.77 0.
-588.822 -1550.11 0.
-1171.62 -2888.62 0.
0.523621 0.373147 0.
-342.21 -872.294 0.
-1564.65 -3938.33 0.
0.418517 1.14505 0.
-132.459 -362.133 0.
-1753.03 -4533.57 0.
3.42242 8.45974 0.
-172.01 -421.259 0.
-1637.88 -4044.06 0.
-0.125873 -8.7515 0.
-1132.7 -3006.57 0.
-0.0650082 -14.4315 0.
-0.0924165 -19.4231 0.
-855.941 -2352.71 0.
5.04584 13.9643 0.
-57.9514 -160.407 0.
-406.966 -1126.83 0.
5.75033 15.8586 0.
-378.153 -1044.09 0.
4.24769 11.3006 0.
-0.64437 -36.9044 0.
-124.701 -331.362 0.
-218.096 -569.112 0.
-2.31913 -5.93425 0.
-0.399736 -1.10488 0.
8.38141 20.4989 0.
-1.50903 -36.9312 0.
1.49189 3.43471 0.
-2.95262 -39.032 0.
7.20372 17.709 0.
-1.52655 -32.2499 0.
1.85136 4.66968 0.
-214.129 -589.557 0.
3.59814 9.84846 0.
-279.756 -767.088 0.
-21.181 -58.385 0.
-46.1068 -127.501 0.
-261.69 -718.45 0.
4.20459 11.463 0.
-1.44235 -3.90754 0.
-58.5352 -159.441 0.
-0.0649335 -10.0646 0.
3.38504 8.25303 0.
3.78787 9.64561 0.
1.57509 4.17555 0.
-221.789 -593.553 0.
-1.00264e-05 -2.67732 0.
-0.0305236 -1.52775 0.
-369.965 -1015.85 0.
0.691848 0.164544 0.
0.173851 0.0238685 0.
-502.947 -1215.83 0.
-69.9694 -33.5687 0.
-434.714 -1018.14 0.
-205.431 -452.95 0.
-5.20642 -1.87985 0.
-374.081 -704.947 0.
-315.118 -585.792 0.
-259.799 -468.425 0.
-556.008 -802.912 0.
-533.616 -757.075 0.
-512.029 -720.245 0.
-746.512 -1246.15 0.
-683.144 -1106.53 0.
-590.413 -557.404 0.
-538.437 -439.185 0.
-505.93 -378.193 0.
-366.064 -363.429 0.
-346.051 -309.598 0.
-326.449 -256.635 0.
-419.611 -425.368 0.
-415.106 -391.434 0.
-410.34 -442.154 0.
-495.619 -568.892 0.
-494.885 -570.407 0.
-666.287 -698.577 0.
-736.77 -601.836 0.
-764.058 -661.179 0.
-418.234 -540.342 0.
-401.315 -471.606 0.
-408.829 -433.414 0.
-372.316 -291.319 0.
-399.232 -351.13 0.
-424.91 -413.153 0.
-401.433 -379.535 0.
-433.193 -444.044 0.
-478.246 -547.987 0.
-695.339 -1149.77 0.
-770.043 -1329.09 0.
-397.407 -649.027 0.
-436.839 -713.023 0.
-477.57 -777.131 0.
-155.087 -370.281 0.
-221.532 -565.098 0.
-304.579 -740.58 0.
-0.826486 -0.0186156 0.
-131.98 -353.501 0.
-417.193 -1081.85 0.
1.20262 0.221218 0.
-429.081 -1126.58 0.
0.0296281 1.47448 0.
-0.010194 -1.60805 0.
-303.848 -810.79 0.
2.29554 6.20295 0.
-0.000106928 -5.42652 0.
-199.396 -541.55 0.
0.928273 2.39059 0.
3.83042 9.62049 0.
1.16326 2.85358 0.
0.593285 1.6272 0.
-0.104532 -15.7262 0.
1.33927 3.63433 0.
7.99236 21.686 0.
-314.939 -855.008 0.
4.49492 12.4501 0.
-82.2139 -227.716 0.
-347.166 -961.5 0.
-9.71353 -25.7475 0.
-281.87 -754.552 0.
-2.89492 -7.38744 0.
6.84356 17.0387 0.
-2.48088 -6.01231 0.
-2.37706 -33.9928 0.
-3.64616 -8.57184 0.
0.246633 0.672207 0.
5.43957 13.4486 0.
3.72928 9.51607 0.
8.4829 19.2944 0.
1.5615 3.63282 0.
-312.731 -764.556 0.
0.54211 1.34366 0.
4.48709 11.2686 0.
-429.924 -1170.79 0.
-0.190322 -16.4702 0.
-133.717 -367.311 0.
-73.6152 -203.207 0.
-89.3122 -247.185 0.
6.05027 16.4687 0.
0.0360011 0.097383 0.
-1.95284 -5.24095 0.
3.7975 10.4961 0.
-0.00365808 -9.19295 0.
-0.313915 -7.66307 0.
-0.162784 -6.68182 0.
-0.0395813 -3.6716 0.
-4.00382e-05 -4.09978 0.
1.90869 5.17678 0.
-0.307324 -6.21722 0.
-0.000932924 -1.13974 0.
1.70061 0.224712 0.
0.126664 1.52635 0.
1.48572 0.988177 0.
-0.198173 -0.119833 0.
-112.067 -127.817 0.
-2.28067 -0.833029 0.
-3.86613 -1.39945 0.
-251.929 -311.961 0.
-192.315 -185.353 0.
-32.8642 -32.3149 0.
-210.664 -104.802 0.
-258.276 -215.555 0.
-40.9248 -15.747 0.
-308.212 -399.573 0.
-428.875 -734.716 0.
-1.32966 -0.0212638 0.
-59.6901 -26.1011 0.
-153.634 -107.695 0.
-13.8762 -30.1837 0.
-20.4098 -43.0953 0.
-26.9519 -56.1437 0.
-68.2387 -154.741 0.
-39.4229 -82.2874 0.
-7.93064 -21.095 0.
-104.752 -59.5131 0.
-135.081 -60.9996 0.
-166.187 -64.4449 0.
-311.046 -119.672 0.
-245.577 -159.568 0.
-36.1833 -97.8541 0.
-34.1461 -94.3085 0.
-32.102 -88.6796 0.
-13.0411 -34.3722 0.
-0.0923677 -0.237359 0.
0.0218293 0.391436 0.
-0.16162 -0.0877234 0.
-1.18674 -0.0857375 0.
-63.4051 -24.1764 0.
-415.579 -660.94 0.
-212.381 -177.908 0.
-129.517 -99.4618 0.
-217.403 -257.798 0.
-347.668 -564.18 0.
-71.5887 -158.964 0.
-128.568 -184.604 0.
-212.735 -453.336 0.
-1.01657 -0.0523389 0.
-0.477863 -0.0208749 0.
-34.8312 -31.5037 0.
-0.44466 -0.0730705 0.
-0.937671 -0.209553 0.
0.294541 1.43695 0.
-0.0477879 -1.35194 0.
0.915586 2.52746 0.
-0.00778495 -0.529241 0.
1.74199 4.81358 0.
-0.0131906 -5.63247 0.
4.03012 10.6844 0.
1.3056 3.38717 0.
3.54659 9.00653 0.
3.18978 8.83182 0.
6.21042 17.1521 0.
-0.28898 -20.549 0.
5.01067 13.4341 0.
5.98758 16.0627 0.
-25.1127 -69.4949 0.
-124.423 -344.252 0.
3.93602 10.1484 0.
8.14621 21.2909 0.
-425.454 -1126.03 0.
-135.696 -346.832 0.
-8.95244 -22.2706 0.
3.47289 8.39728 0.
-2.27307 -32.2474 0.
10.3525 24.3075 0.
-2.66237 -7.25745 0.
3.91816 9.80562 0.
-152.313 -393.365 0.
-110.966 -249.191 0.
-169.037 -388.609 0.
1.08625 2.64198 0.
2.54872 6.19938 0.
-3.34368 -8.18369 0.
2.9843 7.94726 0.
-0.415655 -23.5555 0.
-227.652 -628.428 0.
-151.744 -418.832 0.
-119.987 -331.11 0.
-415.438 -1118.7 0.
-0.994451 -2.67319 0.
-0.200124 -15.2692 0.
-989.012 -2739.37 0.
3.48973 9.65902 0.
-1304.72 -3434.61 0.
-63.128 -163.536 0.
3.63198 9.35277 0.
-1595.45 -4304.86 0.
1.87492 5.12138 0.
-0.001439 -5.87639 0.
-1517.61 -4005.07 0.
-194.095 -527.367 0.
-6.79392e-05 -0.00790313 0.
-1298.8 -3263.98 0.
-389.629 -979.22 0.
-1022.39 -2487.71 0.
-551.602 -1358.65 0.
-126.441 -187.77 0.
-801.486 -1819.93 0.
-490.718 -1102.57 0.
-218.14 -343.615 0.
-465.565 -910.417 0.
-299.886 -560.444 0.
-156.476 -232.667 0.
-452.003 -915.51 0.
-412.256 -830.378 0.
-410.979 -367.926 0.
-436.662 -430.62 0.
-476.1 -529.83 0.
-321.261 -498.265 0.
-316.122 -491.954 0.
-314.066 -486.121 0.
-418.132 -597.702 0.
-370.121 -532.65 0.
-339.099 -456.267 0.
-349.336 -513.576 0.
-328.019 -459.762 0.
-397.745 -383.099 0.
-669.407 -451.697 0.
-701.554 -527.106 0.
-358.012 -469.402 0.
-383.096 -534.288 0.
-413.823 -595.039 0.
-309.166 -524.949 0.
-316.148 -525.278 0.
-321.938 -520.375 0.
-356.462 -558.123 0.
-334.349 -517.058 0.
-317.773 -485.343 0.
-416.343 -963.929 0.
-490.76 -1100.07 0.
-196.543 -270.307 0.
-348.24 -722.969 0.
-525.368 -1151.01 0.
-117.99 -300.683 0.
-464.32 -1224.62 0.
-841.624 -2127.26 0.
-39.2481 -107.304 0.
-523.952 -1383.42 0.
-1047.51 -2636.27 0.
-342.51 -869.422 0.
-1441.95 -3659.76 0.
0.264512 0.731779 0.
-98.3081 -267.31 0.
-1597.6 -4250.06 0.
-0.00244296 -7.46324 0.
0.111226 0.306067 0.
-1624.45 -4432.31 0.
-0.16305 -8.86849 0.
-58.9069 -154.515 0.
-1190.74 -3133.01 0.
-0.0168477 -15.7183 0.
-951.937 -2636.32 0.
-95.9096 -259.376 0.
4.21076 11.3248 0.
3.6284 9.68545 0.
0.280999 0.775553 0.
-260.81 -721.676 0.
6.73671 17.6374 0.
-5.36492 -13.8419 0.
12.035 30.5933 0.
2.61208 6.42578 0.
-32.168 -79.9881 0.
-315.366 -763.1 0.
-55.1648 -131.055 0.
-2.48758 -32.1975 0.
-2.90353 -7.91763 0.
6.05743 14.3799 0.
-1.14042 -2.86057 0.
-4.13229 -8.83711 0.
7.60153 17.0795 0.
-1.00986 -2.44624 0.
13.4812 32.8655 0.
-43.9035 -107.699 0.
1.18479 3.11586 0.
3.99995 10.4885 0.
-403.088 -1054.46 0.
-158.819 -435.406 0.
-106.014 -290.353 0.
-585.407 -1567.92 0.
-1.83739 -4.92942 0.
3.0985 8.30442 0.
-40.678 -112.444 0.
-0.0381327 -15.3345 0.
-96.5375 -253.32 0.
2.99437 7.81292 0.
-0.306621 -10.9345 0.
-162.106 -445.421 0.
-0.00105861 -4.91801 0.
-0.00167187 -0.752298 0.
-230.865 -617.995 0.
-0.00117188 -5.29171 0.
-0.0984049 -5.02861 0.
-336.097 -851.065 0.
1.25543 0.313191 0.
-428.11 -1011.51 0.
-45.8158 -21.3024 0.
-76.7616 -45.8264 0.
-487.079 -1042.47 0.
-242.155 -257.26 0.
-84.3452 -57.7362 0.
-340.713 -650.318 0.
-187.401 -293.306 0.
-132.938 -119.183 0.
-381.782 -841.506 0.
-330.196 -772.614 0.
-379.369 -253.135 0.
-394.082 -279.514 0.
-428.05 -356.104 0.
-357.658 -428.489 0.
-355.375 -420.76 0.
-353.706 -412.884 0.
-396.023 -523.219 0.
-365.351 -443.097 0.
-334.618 -362.689 0.
-327.062 -510.762 0.
-301.471 -465.284 0.
-490.064 -435.578 0.
-624.341 -387.75 0.
-662.257 -491.574 0.
-339.522 -340.976 0.
-364.907 -409.456 0.
-390.27 -478.288 0.
-365.468 -398.41 0.
-360.4 -418.124 0.
-359.813 -434.673 0.
-347.961 -421.422 0.
-337.565 -374.612 0.
-332.888 -338.096 0.
-304.242 -814.12 0.
-358.095 -958.233 0.
-151.402 -99.1641 0.
-265.414 -351.072 0.
-409.387 -813.806 0.
-0.398634 -0.109116 0.
-102.991 -220.185 0.
-445.615 -1152.12 0.
-5.596 -11.6828 0.
0.260384 0.360631 0.
-323.88 -821.806 0.
2.90433e-05 0.168506 0.
-334.699 -897.713 0.
1.92119 5.31601 0.
-0.0109703 -3.19239 0.
-222.079 -603.207 0.
3.27787 9.06795 0.
-0.00139079 -8.30434 0.
-144.054 -397.218 0.
3.06283 8.24243 0.
1.84522 4.92378 0.
-147.507 -388.93 0.
3.80132 10.3456 0.
-135.615 -372.219 0.
-134.187 -365.64 0.
-1.33604 -3.62272 0.
-546.012 -1466.63 0.
2.76727 7.55962 0.
-305.37 -839.398 0.
-3.51255 -9.08307 0.
4.45227 11.3326 0.
-14.3838 -36.0345 0.
-10.1987 -24.9992 0.
-14.9921 -36.5027 0.
-16.1125 -38.967 0.
-2.43102 -31.1732 0.
-2.37018 -21.303 0.
-0.300638 -11.1319 0.
4.33717 10.2475 0.
-66.82 -167.708 0.
12.6343 26.9629 0.
-149.15 -335.303 0.
-67.538 -163.975 0.
-85.629 -209.255 0.
-254.407 -625.921 0.
-317.304 -823.1 0.
-0.774109 -25.4662 0.
5.74956 14.7845 0.
-159.371 -432.497 0.
-82.6848 -223.827 0.
-97.81 -254.314 0.
-2.94294 -7.702 0.
-60.5026 -158.836 0.
-747.199 -2021.34 0.
-2.03194 -5.3496 0.
-567.334 -1569.4 0.
3.60249 9.90588 0.
1.00588 2.76387 0.
-1052.81 -2893.06 0.
-10.8446 -29.7531 0.
-0.0333706 -8.92232 0.
-1250.32 -3437.78 0.
0.338576 0.933289 0.
0.923862 2.55848 0.
-1249.78 -3311.92 0.
-91.2731 -238.282 0.
-1115.8 -2762.36 0.
-473.558 -1122.23 0.
0.188734 0.0711473 0.
-909.325 -2146.67 0.
-482.203 -1034.39 0.
-90.4667 -41.8549 0.
-567.107 -1294.32 0.
-307.58 -668.701 0.
-50.9645 -41.9785 0.
-461.836 -1205.73 0.
-403.59 -1083.04 0.
-492.846 -567.24 0.
-413.311 -374.903 0.
-349.78 -224.555 0.
-331.727 -205.806 0.
-340.283 -223.459 0.
-348.453 -239.163 0.
-444.704 -415.703 0.
-375.98 -420.542 0.
-366.086 -383.397 0.
-444.692 -493.979 0.
-450.101 -430.802 0.
-587.331 -432.664 0.
-551.284 -417.856 0.
-589.087 -511.524 0.
-387.376 -338.61 0.
-402.654 -379.26 0.
-421.016 -428.915 0.
-403.227 -356.215 0.
-412.326 -369.836 0.
-422.273 -383.43 0.
-367.94 -458.263 0.
-443.359 -634.429 0.
-521.819 -816.391 0.
-435.263 -1153.75 0.
-522.091 -1353.53 0.
-173.99 -203.262 0.
-437.332 -969.383 0.
-737.643 -1703.82 0.
-77.1235 -117.147 0.
-468.898 -1187.4 0.
-959.713 -2478.62 0.
2.09409 0.000235106 0.
-431.296 -1084.94 0.
-1159.06 -2936.67 0.
-0.301428 -0.833225 0.
-1273.4 -3429.31 0.
-1.38653e-06 -6.94338 0.
-1.57641 -4.34589 0.
-1171.54 -3225.66 0.
-2.42856 -6.71654 0.
-3.29124 -9.10642 0.
-894.555 -2467.69 0.
-47.3509 -130.486 0.
-179.642 -492.264 0.
-936.772 -2534.3 0.
-2.68436 -6.86111 0.
-560.275 -1435.09 0.
-83.4283 -218.027 0.
-121.672 -322.333 0.
4.26168 11.5805 0.
1.02134 2.74803 0.
-291.556 -792.536 0.
-18.8975 -48.1603 0.
-31.3975 -78.6687 0.
-205.819 -507.073 0.
-219.374 -535.997 0.
-23.5919 -57.2211 0.
-32.6824 -78.7347 0.
-187.292 -447.71 0.
-5.25881 -11.7825 0.
-0.411833 -16.0114 0.
-56.2562 -131.936 0.
1.00162 2.22831 0.
-4.7384 -8.82709 0.
5.04093 9.94131 0.
6.48937 14.0494 0.
5.45644 12.0959 0.
-7.87131 -17.8647 0.
-5.20103 -12.5406 0.
-3.04601 -7.43306 0.
-1.3551 -26.5978 0.
-323.565 -863.181 0.
-58.2691 -153.706 0.
-113.679 -296.805 0.
-21.9014 -57.5074 0.
-85.4658 -225.183 0.
-260.099 -681.422 0.
-0.734978 -19.1344 0.
-304.814 -839.468 0.
2.17108 5.95018 0.
-15.8934 -43.5196 0.
-343.724 -935.282 0.
-20.1046 -54.7541 0.
1.32867 3.61967 0.
-352.137 -973.65 0.
-0.000337428 -4.8635 0.
-0.0246516 -6.32183 0.
-381.071 -1036.07 0.
1.0379 2.87417 0.
-406.792 -1036.13 0.
-12.4167 -7.74115 0.
-0.21698 -0.0164406 0.
-427.885 -1030.77 0.
-11.4524 -5.24869 0.
-37.0468 -18.8296 0.
-252.719 -676.677 0.
-24.6592 -20.4683 0.
-0.033437 -0.0756015 0.
-349.901 -943.875 0.
-304.556 -814.64 0.
-377.148 -529.624 0.
-293.312 -338.504 0.
-221.228 -178.28 0.
-330.919 -232.237 0.
-338.506 -251.804 0.
-344.934 -267.699 0.
-389.671 -388.938 0.
-354.276 -403.339 0.
-353.335 -393.681 0.
-272.626 -433.196 0.
-237.778 -354.215 0.
-321.471 -329.898 0.
-440.459 -279.986 0.
-476.79 -368.938 0.
-399.555 -401.465 0.
-411.889 -430.956 0.
-428.084 -466.944 0.
-349.558 -389.525 0.
-357.528 -406.812 0.
-367.579 -420.613 0.
-210.554 -347.075 0.
-287.644 -522.568 0.
-369.696 -701.986 0.
-288.632 -739.821 0.
-360.46 -953.164 0.
-8.02394 -16.9435 0.
-103.858 -203.649 0.
-361.991 -975.523 0.
-64.7213 -111.342 0.
-33.6041 -38.2478 0.
-450.374 -1203.08 0.
0.804123 1.1051 0.
0.533135 1.41728 0.
-370.802 -947.114 0.
-0.0635587 -0.175612 0.
-365.916 -1006.85 0.
-0.0135155 -1.94389 0.
0.662948 1.83219 0.
-239.014 -661.823 0.
3.5088 9.67266 0.
-1.20254 -3.31825 0.
-402.48 -1109.12 0.
0.124279 0.342948 0.
-88.9357 -244.68 0.
-0.598485 -12.4612 0.
3.87791 9.63967 0.
-250.583 -623.058 0.
-21.6065 -56.3205 0.
-46.5235 -122.917 0.
-173.535 -463.911 0.
3.53703 9.18884 0.
-69.6467 -180.015 0.
-2.96952 -6.85892 0.
-2.43909 -5.5679 0.
-3.2688 -7.3742 0.
7.77732 17.5039 0.
-3.05749 -27.0602 0.
1.51949 3.25469 0.
5.31409 11.5391 0.
11.062 22.62 0.
-10.4058 -27.2381 0.
4.57158 9.67978 0.
0.907263 2.03096 0.
-4.99899 -9.57322 0.
-18.3254 -37.1844 0.
14.6003 31.3438 0.
8.58489 18.8886 0.
-202.548 -457.235 0.
-99.4773 -233.144 0.
4.63524 10.9838 0.
-351.424 -843.184 0.
-482.21 -1285.31 0.
-75.5742 -199.303 0.
-313.375 -821.05 0.
-30.9815 -81.6412 0.
-96.5476 -255.372 0.
7.22222 18.307 0.
-1.15309 -20.2891 0.
6.6402 15.4148 0.
-107.013 -291.897 0.
-211.987 -576.595 0.
-60.2454 -162.563 0.
-27.5519 -74.3373 0.
1.01572 2.7398 0.
-0.000545837 -9.40569 0.
-0.0236543 -8.63421 0.
-0.00480021 -0.431499 0.
-0.187658 -0.51978 0.
0.596233 1.61645 0.
-19.4561 -52.0171 0.
-0.105161 -0.287768 0.
-0.913471 -0.504896 0.
1.43255 0.0155024 0.
0.203797 1.1954 0.
0.220336 0.192088 0.
-24.2686 -20.3143 0.
0.280658 0.21721 0.
0.0799339 0.383262 0.
-99.4336 -191.189 0.
-88.6534 -178.465 0.
-39.6818 -14.3522 0.
-72.9007 -87.7294 0.
-105.93 -167.421 0.
-200.198 -256.573 0.
-185.305 -235.517 0.
-172.984 -218.149 0.
-92.1599 -167.63 0.
-82.9287 -144.145 0.
-72.796 -120.327 0.
-13.7542 -30.8639 0.
-25.0086 -68.5229 0.
-46.6871 -126.815 0.
-41.5489 -77.7489 0.
-30.505 -48.1029 0.
-4.74894 -9.9535 0.
-0.051826 -1.40042 0.
0.870565 0.706675 0.
-26.7737 -9.70701 0.
-137.125 -51.8574 0.
-254.994 -222.718 0.
-143.108 -146.068 0.
-192.392 -239.835 0.
-181.434 -166.8 0.
-1.82407 -0.200526 0.
-177.354 -444.631 0.
-1.70739e-05 -0.991646 0.
0.772997 2.12831 0.
-88.147 -235.425 0.
-52.6262 -105.641 0.
-24.9363 -28.6347 0.
0.824148 0.00381323 0.
0.261994 0.778769 0.
-0.0490285 -1.27857 0.
0.00979989 0.0269821 0.
0.85095 2.32502 0.
-0.078127 -0.216389 0.
-0.127947 -5.64121 0.
-0.0454558 -5.16378 0.
2.68809 7.40218 0.
1.09856 3.01345 0.
-5.37612 -14.7711 0.
-9.59786 -26.4061 0.
-2.84025 -7.84355 0.
-35.3367 -97.3725 0.
7.80531 18.7608 0.
1.49789 3.60775 0.
-5.79509 -13.9837 0.
4.13796 10.7607 0.
-4.98216 -13.1295 0.
-477.06 -1272.28 0.
-1.88515 -4.84772 0.
-409.097 -1047.51 0.
-77.768 -178.787 0.
1.26077 2.8656 0.
4.70213 10.5596 0.
0.258352 0.577632 0.
-5.78127 -12.5992 0.
-1.91135 -4.05927 0.
4.05145 8.97462 0.
3.99923 8.32406 0.
-0.329611 -0.823982 0.
-1.15823 -2.46158 0.
-123.16 -277.592 0.
2.5595 5.058 0.
-321.368 -672.926 0.
2.79166 5.94068 0.
-18.8544 -41.1638 0.
-136.16 -305.107 0.
-82.734 -187.725 0.
-3.96872 -8.85179 0.
-4.39418 -9.93197 0.
-111.327 -288.467 0.
3.89404 10.0363 0.
-3.56844 -9.21304 0.
6.44041 16.6165 0.
4.73841 12.2152 0.
-12.5522 -31.048 0.
-3.16546 -7.99125 0.
-354.684 -911.912 0.
-582.232 -1573.41 0.
-75.6181 -208 0.
-714.014 -1907.67 0.
-5.57669 -15.0107 0.
-28.3472 -76.6854 0.
-1092.09 -3020.26 0.
-0.111081 -0.307255 0.
-0.00408895 -7.05406 0.
-1099.68 -3034.34 0.
0.650256 1.79317 0.
-1078.71 -2847.49 0.
-291.941 -771.075 0.
-0.017698 -1.20024 0.
-931.312 -2510.69 0.
-308.849 -848.98 0.
0.00589268 0.66428 0.
-673.723 -1806.09 0.
-268.661 -668.025 0.
1.28065 0.132032 0.
-521.411 -1410.67 0.
-335.593 -929.165 0.
-383.208 -732.886 0.
-312.075 -549.571 0.
-246.478 -378.65 0.
-414.395 -626.344 0.
-360.47 -494.672 0.
-307.931 -366.475 0.
-335.079 -435.034 0.
-336.325 -416.598 0.
-347.404 -391.744 0.
-247.568 -395.574 0.
-317.858 -529.681 0.
-203.061 -551.937 0.
-386.338 -491.555 0.
-323.049 -324.592 0.
-316.314 -351.663 0.
-325.016 -378.038 0.
-335.924 -410.233 0.
-233.827 -334.245 0.
-297.099 -503.22 0.
-363.314 -674.304 0.
-198.946 -340.052 0.
-312.355 -704.069 0.
-437.016 -1059.86 0.
-351.102 -964.384 0.
-580.007 -1596.88 0.
0.28234 0.205431 0.
-297.888 -821.712 0.
-768.473 -2115.21 0.
0.250015 0.691303 0.
-329.959 -880.895 0.
-1033.1 -2739.2 0.
0.743249 2.05111 0.
-240.314 -636.64 0.
-1102.85 -2908.95 0.
0.235101 0.651184 0.
-1120.33 -3091.25 0.
-0.0196504 -6.58199 0.
-0.419576 -1.15249 0.
-1063.53 -2928.56 0.
-28.1135 -76.4929 0.
-18.6852 -50.8394 0.
-620.151 -1687.99 0.
4.94281 13.6866 0.
-776.553 -2150.75 0.
-59.5521 -145.815 0.
-20.5388 -50.3749 0.
-18.4698 -45.3807 0.
1.49351 3.93367 0.
-3.00141 -7.8845 0.
3.14974 8.25346 0.
7.89005 19.6163 0.
-2.34828 -5.78439 0.
2.48421 5.4724 0.
-31.3667 -70.9475 0.
-251.839 -561.378 0.
-114.565 -254.399 0.
-2.09507 -4.52899 0.
2.57589 5.42083 0.
-261.9 -593.815 0.
4.51499 9.59599 0.
1.62042 4.11861 0.
-1.9355 -12.1816 0.
1.43799 3.0607 0.
-3.77351 -18.9784 0.
6.33326 12.9111 0.
-4.01955 -24.6209 0.
2.70037 5.63193 0.
8.69861 18.7321 0.
1.72925 3.8096 0.
-2.0617 -4.60517 0.
-41.8073 -94.639 0.
-111.485 -286.861 0.
-2.49811 -6.39081 0.
-365.383 -936.931 0.
-117.375 -301.91 0.
7.2939 18.7674 0.
-597.916 -1457.94 0.
-33.31 -83.1943 0.
-31.8679 -81.2897 0.
-318.822 -880.272 0.
0.823642 2.28063 0.
-329.151 -887.057 0.
-10.8341 -29.304 0.
-37.6491 -102.323 0.
-181.841 -499.475 0.
2.7668 7.60125 0.
1.92933 5.29556 0.
-280.942 -778.122 0.
2.06867 5.71513 0.
-315.905 -839.215 0.
-6.17005e-05 -1.04253 0.
0.837365 2.18186 0.
-296.11 -805.955 0.
-0.00632394 -0.43746 0.
0.04112 0.667575 0.
-361.726 -894.422 0.
-2.10414 -0.00439331 0.
-0.627301 -0.00030769 0.
-317.061 -875.706 0.
-144.759 -353.012 0.
-232.578 -526.631 0.
-181.884 -325.804 0.
-144.071 -215.179 0.
-339.748 -533.275 0.
-292.873 -396.471 0.
-249.607 -256.467 0.
-287.078 -363.192 0.
-281.361 -350.571 0.
-276.037 -337.819 0.
-209.13 -384.503 0.
-280.697 -517.821 0.
-184.084 -492.85 0.
-359.486 -468.183 0.
-295.227 -304.96 0.
-277.396 -231.341 0.
-267.655 -278.779 0.
-277.283 -316.221 0.
-164.118 -213.303 0.
-231.841 -379.318 0.
-298.017 -549.762 0.
-71.5396 -80.9296 0.
-173.856 -336.941 0.
-290.905 -702.024 0.
-131.411 -317.975 0.
-365.572 -1003.32 0.
0.0651267 2.88218 0.
0.115864 0.160404 0.
-335.283 -928.289 0.
-0.0251703 -1.35457 0.
-0.168052 -0.465323 0.
-305.695 -804.21 0.
0.446362 1.22263 0.
0.0953792 0.264173 0.
-299.23 -800.898 0.
0.592617 1.62774 0.
-213.299 -590.647 0.
1.59144 4.35573 0.
-3.77852 -10.3273 0.
-277.573 -758.352 0.
-36.1781 -98.4182 0.
-23.623 -64.2514 0.
-445.493 -1215.13 0.
4.30257 11.8154 0.
-473.628 -1307.91 0.
-20.5385 -50.2694 0.
-16.3416 -40.0686 0.
-655.071 -1600.87 0.
0.861429 2.24408 0.
-72.1956 -187.607 0.
-282.197 -732.22 0.
7.93596 19.5677 0.
-0.491289 -1.19986 0.
-32.6843 -72.136 0.
-2.7714 -24.102 0.
0.632985 1.37211 0.
8.83523 18.9817 0.
11.8674 24.6335 0.
9.00856 18.0478 0.
4.20883 9.30138 0.
9.36987 19.2117 0.
0.0282181 0.0700279 0.
-1.33622 -8.17361 0.
-0.848507 -1.79829 0.
-2.54924 -13.4248 0.
-183.655 -380.035 0.
0.799307 1.59653 0.
-3.12991 -20.9857 0.
-322.531 -689.475 0.
0.0395763 0.0873056 0.
-179.474 -401.069 0.
-277.058 -627.252 0.
-296.021 -756.043 0.
-3.10556 -7.88509 0.
-159.452 -409.404 0.
-72.6486 -186.611 0.
-110.416 -283.329 0.
-111.729 -269.201 0.
-33.8312 -76.1928 0.
-15.6228 -34.7859 0.
-549.191 -1486.91 0.
-0.137303 -14.4897 0.
-398.38 -1077.69 0.
-85.0473 -228.165 0.
-48.0893 -127.621 0.
-638.861 -1673.39 0.
2.13147 5.63222 0.
-0.130174 -0.344475 0.
-820.665 -2233.06 0.
0.419362 1.13901 0.
-857.704 -2361.49 0.
-88.8359 -243.645 0.
1.42905 3.95564 0.
-878.928 -2376.2 0.
-177.556 -461.39 0.
-0.000327202 -0.980071 0.
-796.666 -2160.05 0.
-236.65 -623.494 0.
-35.6233 -60.5164 0.
-539.78 -1482.67 0.
-265.172 -732.373 0.
-380.999 -983.712 0.
-237.594 -606.916 0.
-118.491 -223.534 0.
-334.778 -595.01 0.
-257.847 -393.623 0.
-181.027 -197.406 0.
-259.713 -309.732 0.
-242.799 -266.924 0.
-229.301 -232.791 0.
-131.227 -334.215 0.
-119.705 -319.191 0.
-110.276 -219.225 0.
-256.792 -239.64 0.
-279.925 -297.695 0.
-275.547 -317.722 0.
-297.169 -372.79 0.
-325.235 -444.464 0.
-198.345 -325.882 0.
-300.005 -603.729 0.
-411.431 -879.817 0.
-100.44 -255.054 0.
-254.066 -691.29 0.
-418.781 -1122.93 0.
-271.37 -751.648 0.
-629.374 -1730.56 0.
-7.81592 -20.7759 0.
-235.544 -645.508 0.
-838.839 -2297.52 0.
-0.185188 -0.491825 0.
-155.366 -421.161 0.
-940.809 -2541.54 0.
-3.57664e-05 -4.52637 0.
-63.7113 -174.126 0.
-891.875 -2438.85 0.
-0.0503225 -7.04904 0.
-785.906 -2134.97 0.
1.36071 3.5841 0.
-1.92936 -5.13854 0.
-597.583 -1593.26 0.
-37.3598 -101.109 0.
-83.3919 -226.201 0.
-459.343 -1254.28 0.
3.27275 8.70404 0.
-261.363 -694.932 0.
-88.4946 -201.985 0.
-61.4773 -150.625 0.
-217.869 -533.383 0.
8.2434 21.2147 0.
2.09128 5.36969 0.
-299.676 -768.694 0.
-94.6739 -231.556 0.
-317.798 -770.462 0.
-280.147 -619.723 0.
10.039 22.0109 0.
7.98444 17.3452 0.
-171.479 -368.002 0.
7.00244 14.5202 0.
-0.626364 -1.25152 0.
-16.1684 -36.1233 0.
-2.0728 -13.7027 0.
3.92633 9.77109 0.
0.93289 1.86631 0.
4.04567 8.53153 0.
6.08125 11.97 0.
2.25797 4.20337 0.
-4.11028 -7.22222 0.
-5.46087 -22.8982 0.
-2.11979 -3.96374 0.
-4.43714 -8.84576 0.
-2.621 -5.37844 0.
1.85681 3.91552 0.
-1.94053 -4.63957 0.
4.02921 9.74008 0.
-97.6004 -242.328 0.
0.448186 1.11097 0.
4.11823 10.1985 0.
-146.02 -333.843 0.
-8.29963 -18.7611 0.
1.03585 2.31557 0.
-360.461 -958.652 0.
2.03092 5.40579 0.
-312.92 -845.818 0.
-32.6607 -87.7316 0.
-8.66665 -23.0543 0.
-356.948 -925.21 0.
-2.52224 -6.5745 0.
2.43078 6.34328 0.
-382.134 -1020.24 0.
-0.115536 -5.10969 0.
-372.853 -1029.74 0.
-0.00101289 -3.20787 0.
0.000182809 0.212217 0.
-346.933 -930.565 0.
0.823229 2.25289 0.
-0.00777213 -1.23637 0.
-317.549 -878.971 0.
-17.2872 -37.4496 0.
-19.81 -40.0381 0.
-251.039 -695.313 0.
-0.143544 -0.236294 0.
-214.153 -579.528 0.
-69.3458 -183.566 0.
-1.98105 -0.0468472 0.
-218.289 -450.646 0.
-142.343 -253.417 0.
-97.1502 -120.691 0.
-147.491 -230.252 0.
-135.589 -200.681 0.
-134.592 -200.322 0.
-154.367 -314.209 0.
-154.37 -298.37 0.
-169.406 -328.425 0.
-201.306 -240.942 0.
-216.849 -277.63 0.
-192.693 -245.51 0.
-211.973 -295.195 0.
-235.978 -358.407 0.
-129.546 -197.526 0.
-176.144 -341.696 0.
-278.311 -621.776 0.
-4.44873 -6.45718 0.
-70.47 -195.149 0.
-229.039 -631.346 0.
-1.1007 -2.27749 0.
-310.66 -859.808 0.
-8.36738 -22.2875 0.
-8.61904 -22.8398 0.
-317.243 -871.565 0.
-0.0147691 -0.826078 0.
1.05147 2.90818 0.
-352.991 -962.928 0.
-0.00128695 -0.885454 0.
-0.000817244 -2.14792 0.
-392.169 -1077.94 0.
-0.103929 -6.83981 0.
-373.621 -999.57 0.
2.54862 6.63621 0.
0.874397 2.30512 0.
-339.62 -901.874 0.
-1.14936 -3.09317 0.
1.79566 4.83752 0.
-331.827 -899.617 0.
-1.17401 -3.04702 0.
-351.245 -912.116 0.
-33.0967 -75.5581 0.
-31.213 -71.726 0.
-106.096 -245.335 0.
0.975838 2.3621 0.
-3.60947 -8.64141 0.
-19.0715 -45.1726 0.
-0.777961 -1.75708 0.
2.51867 5.63499 0.
1.04854 2.14496 0.
-1.86867 -3.7147 0.
13.4854 26.0346 0.
6.63299 12.3621 0.
12.4059 22.2119 0.
-3.73118 -13.3719 0.
-145.033 -328.267 0.
-7.78471 -16.0926 0.
2.38324 5.94769 0.
-3.00832 -5.53108 0.
-23.493 -44.0505 0.
-2.91704 -11.8588 0.
-2.52321 -4.7394 0.
1.8175 3.1317 0.
2.40059 4.26879 0.
5.30643 9.74992 0.
9.96094 20.0701 0.
-72.4974 -150.448 0.
-135.677 -289.521 0.
-162.034 -382.959 0.
-310.635 -743.244 0.
-207.929 -508.441 0.
-303.8 -741.433 0.
-91.7 -223.251 0.
-516.021 -1183.2 0.
0.606607 1.37625 0.
6.08671 13.6597 0.
-219.321 -570.498 0.
-1.52515 -3.96931 0.
-228.187 -616.768 0.
-4.62092 -12.4351 0.
-14.6368 -39.0062 0.
-23.9217 -61.3534 0.
-6.35965 -16.325 0.
2.49283 6.40289 0.
-1.5272 -3.94663 0.
-0.215882 -5.14714 0.
-0.00125372 -3.53732 0.
-0.000462423 -1.05367 0.
1.82562 5.0032 0.
0.563365 1.51656 0.
1.3364 3.70065 0.
0.0128669 1.03978 0.
-4.63027 -12.3174 0.
-6.05396 -15.0186 0.
-8.81778 -20.3788 0.
-43.5235 -52.3302 0.
-34.2872 -28.5417 0.
-24.2486 -38.9635 0.
1.40012 0.240902 0.
-0.226032 -0.583262 0.
-2.22159 -1.79991 0.
-5.16514 -7.1435 0.
-9.68903 -15.3611 0.
-35.9441 -31.9374 0.
-38.3094 -76.1068 0.
-13.0738 -19.7394 0.
-8.75863 -17.5551 0.
-8.42811 -17.1389 0.
-8.54977 -17.1864 0.
-2.87034 -6.17862 0.
-68.3726 -50.4344 0.
-90.2486 -65.2749 0.
-85.3529 -37.6561 0.
-0.705239 -0.361241 0.
-0.17318 -0.151898 0.
-0.330844 -0.40823 0.
-130.841 -286.714 0.
0.00314325 0.978562 0.
1.53962 1.01213e-06 0.
-74.7745 -206.767 0.
-3.19796 -7.68574 0.
-18.2405 -47.7889 0.
-9.65049 -25.7377 0.
-9.40486 -24.9485 0.
-9.86915 -26.0058 0.
-0.0699706 -3.79641 0.
0.827356 2.28051 0.
1.13641 3.13539 0.
-0.0118838 -2.42667 0.
-0.000521957 -2.06039 0.
-0.00539844 -5.43541 0.
0.499703 1.30367 0.
0.0208842 0.054985 0.
2.99092 7.6966 0.
-1.71377 -4.46993 0.
-38.2096 -100.82 0.
0.938305 2.51242 0.
-1.63254 -4.37677 0.
-205.722 -552.948 0.
-0.603801 -14.4793 0.
-540.962 -1364.06 0.
-4.52245 -10.3207 0.
-0.0342634 -0.0786977 0.
-502.007 -1163.2 0.
-127.697 -306.137 0.
-309.562 -735.145 0.
-163.612 -383.956 0.
-465.156 -1057.34 0.
-23.2492 -51.9816 0.
2.43284 4.9663 0.
9.61878 19.0587 0.
6.67218 12.8286 0.
-4.10765 -18.7138 0.
3.8228 6.81374 0.
-3.53019 -12.4236 0.
-1.41588 -2.74919 0.
7.06161 13.2266 0.
3.7042 8.83762 0.
-6.46489 -11.8197 0.
-49.9639 -93.1883 0.
-2.32364 -4.2016 0.
-157.71 -298.792 0.
12.7762 21.554 0.
-11.2846 -19.6634 0.
-305.281 -549.929 0.
-1.44292 -2.94092 0.
-85.8961 -180.442 0.
-304.267 -657.804 0.
-74.3789 -173.407 0.
-1.75954 -18.7695 0.
0.460337 1.06505 0.
-4.82125 -11.196 0.
-1.42083 -17.6519 0.
-105.447 -234.96 0.
2.5676 5.69879 0.
-0.136037 -0.300311 0.
-52.2567 -132.373 0.
0.99173 2.50936 0.
-357.959 -961.135 0.
-0.0170936 -0.0457785 0.
-0.293876 -0.784846 0.
-631.662 -1635.36 0.
3.11134 7.94874 0.
1.47516 3.74194 0.
-752.278 -1967.7 0.
-0.189267 -7.36349 0.
-749.397 -2073.93 0.
-66.5736 -184.327 0.
1.30049 3.60212 0.
-786.826 -2170.04 0.
-85.3024 -229.058 0.
1.24234 3.35959 0.
-760.759 -2104.8 0.
-121.288 -330.468 0.
-0.00394114 -1.46807 0.
-673.709 -1857.16 0.
-152.755 -413.818 0.
-420.722 -1163.36 0.
-169.559 -465.478 0.
-0.0064882 -0.0087501 0.
-259.384 -713.916 0.
-141.474 -333.29 0.
-3.60554 -9.51359 0.
-108.852 -284.16 0.
-66.7511 -168.343 0.
-37.6294 -86.6015 0.
-114.629 -240.489 0.
-107.437 -227.54 0.
-92.9476 -193.117 0.
-82.8119 -208.062 0.
-103.184 -255.508 0.
-53.7775 -85.0424 0.
-101.984 -249.656 0.
-177.199 -488.118 0.
-23.43 -9.48685 0.
-195.015 -490.949 0.
-358.389 -980.227 0.
-0.0955376 -0.748755 0.
-219.28 -607.264 0.
-498.702 -1370.77 0.
-151.42 -412.328 0.
-728.852 -2009.38 0.
0.379903 1.03995 0.
-114.454 -311.247 0.
-875.128 -2403.76 0.
-0.314658 -0.866301 0.
-92.7088 -253.166 0.
-822.183 -2261.01 0.
-0.966707 -2.67358 0.
-47.5025 -131.175 0.
-745.615 -2064.66 0.
2.13057 5.57123 0.
-701.783 -1843.51 0.
1.49362 3.8726 0.
-2.72314 -7.11353 0.
-500.207 -1318.25 0.
-4.44939 -11.8405 0.
-23.4045 -62.465 0.
-347.117 -924.593 0.
-2.39386 -5.91916 0.
-64.4142 -159.007 0.
6.1821 13.8217 0.
-1.78073 -3.96229 0.
-2.2289 -4.93671 0.
1.06235 2.42769 0.
-2.28286 -5.22011 0.
-0.503298 -1.15159 0.
1.66459 3.75272 0.
-124.951 -279.479 0.
-321.009 -656.989 0.
-1.23735 -2.44415 0.
-3.89556 -7.45845 0.
-366.297 -677.194 0.
9.13679 16.2103 0.
3.44954 5.85376 0.
-32.4548 -63.9324 0.
4.18386 7.94154 0.
-74.6985 -173.851 0.
5.08266 9.16863 0.
-1.26133 -2.33208 0.
-0.449237 -0.799927 0.
4.77469 8.88155 0.
-4.92788 -14.6527 0.
-7.23931 -12.144 0.
-48.0642 -84.0115 0.
4.00293 7.9424 0.
1.50334 3.06228 0.
-27.5355 -57.5602 0.
-8.35158 -18.7337 0.
-68.5226 -154.722 0.
0.751036 1.73512 0.
0.2456 0.569517 0.
5.52344 12.8559 0.
-276.05 -603.359 0.
-24.3116 -52.9469 0.
3.63276 7.86807 0.
-579.312 -1440.42 0.
5.16061 12.7901 0.
-553.051 -1473.76 0.
3.60548 9.53611 0.
4.3102 11.3568 0.
-446.182 -1141.14 0.
-0.356111 -9.22549 0.
-0.273914 -6.51657 0.
-232.53 -605.209 0.
2.68688 7.0185 0.
-330.305 -914.174 0.
1.37379 3.80282 0.
-0.00699376 -6.29442 0.
-253.5 -698.412 0.
0.153049 0.422049 0.
1.34594 3.7269 0.
-234.882 -638.583 0.
-0.0272345 -2.17066 0.
0.000300713 0.530971 0.
-333.432 -923.539 0.
-3.22196 -8.40425 0.
-205.004 -559.366 0.
-2.30838 -3.16558 0.
-0.799797 -0.897901 0.
-149.279 -352.298 0.
-2.77535 -6.34611 0.
-3.40516 -9.0955 0.
-65.9255 -168.087 0.
-49.1833 -120.985 0.
-34.4205 -75.9846 0.
-72.6214 -195.044 0.
-67.3168 -186.382 0.
-60.9654 -168.786 0.
-86.6743 -191.32 0.
-84.8191 -190.697 0.
-4.96325 -10.5966 0.
-41.2699 -100.351 0.
-98.2196 -263.34 0.
-0.198346 -0.174361 0.
-45.787 -45.1516 0.
-209.712 -533.959 0.
-0.000261777 -0.000586208 0.
-2.60969 -6.68326 0.
-240.907 -666.699 0.
-12.9488 -34.7556 0.
-333.634 -922.544 0.
-0.0310179 -1.65473 0.
0.109471 0.30311 0.
-306.931 -845.78 0.
0.224047 0.62054 0.
0.0970047 0.268001 0.
-249.097 -685.663 0.
-0.00212229 -6.30341 0.
0.772933 2.1364 0.
-325.901 -902.153 0.
-0.172668 -0.440414 0.
-275.828 -709.931 0.
-0.59712 -1.5418 0.
1.22547 3.18822 0.
-521.294 -1365.64 0.
-3.63193 -9.58464 0.
-44.2987 -117.242 0.
-595.418 -1570.79 0.
0.541466 1.31683 0.
-703.974 -1699.31 0.
-2.01073 -17.9664 0.
-77.5206 -169.84 0.
-159.599 -348.221 0.
-2.76064 -6.25848 0.
5.85582 13.2851 0.
3.27912 7.44493 0.
-7.55098 -16.9599 0.
4.60763 10.2263 0.
9.28593 18.5614 0.
1.37811 2.65087 0.
11.6655 21.5726 0.
4.35123 7.77989 0.
-1.40286 -2.41904 0.
10.3858 17.27 0.
-0.0162411 -0.0324188 0.
-1.79332 -9.25781 0.
-114.694 -278.126 0.
-1.83251 -7.59973 0.
0.0474318 0.087828 0.
3.48049 6.18161 0.
-107.627 -200.52 0.
-4.66892 -14.0457 0.
-10.5928 -17.8788 0.
-357.763 -630.504 0.
0.846872 1.67389 0.
-72.0174 -146.343 0.
-177.229 -369.895 0.
-283.132 -628.491 0.
-319.068 -714.089 0.
-270.54 -623.713 0.
-153.091 -354.175 0.
-26.2037 -60.8865 0.
-295.86 -634.998 0.
-16.8592 -36.0378 0.
7.8608 16.6991 0.
-242.001 -588.922 0.
2.45405 5.86341 0.
-166.391 -426.765 0.
0.664149 1.70111 0.
2.89599 7.41924 0.
-322.922 -805.586 0.
-12.275 -30.3497 0.
-2.97912 -7.26893 0.
-429.211 -1055.4 0.
-0.3949 -7.39486 0.
-555.288 -1496.82 0.
-0.559651 -1.52147 0.
0.463728 1.26384 0.
-632.768 -1736.03 0.
0.695169 1.91975 0.
1.0348 2.84233 0.
-672.925 -1861.83 0.
-0.0353189 -4.00296 0.
0.00517925 1.67896 0.
-631.317 -1747.89 0.
-28.0732 -65.312 0.
-439.296 -1211.23 0.
-152.874 -422.108 0.
-6.6269 -15.7855 0.
-342.838 -949.601 0.
-174.95 -455.134 0.
-19.4716 -50.62 0.
-233.567 -631.111 0.
-140.818 -375.793 0.
-57.7916 -147.357 0.
-142.47 -391.469 0.
-132.825 -367.892 0.
-68.959 -152.441 0.
-196.949 -423.561 0.
-224.472 -525.486 0.
-35.7213 -94.4055 0.
-126.43 -348.993 0.
-244.277 -676.272 0.
-8.42804 -23.1985 0.
-174.035 -463.388 0.
-398.549 -1103.78 0.
0.391171 0.642605 0.
-180.445 -483.142 0.
-512.822 -1392.87 0.
-34.3448 -70.9088 0.
-714.972 -1980.2 0.
1.83876e-05 0.0945906 0.
-0.00540642 -3.40493 0.
-736.008 -2036.88 0.
-0.0103573 -4.16477 0.
1.46287 4.04495 0.
-638.982 -1765.69 0.
-2.10049 -5.80933 0.
-9.4881 -26.2198 0.
-503.722 -1381.02 0.
-7.74575 -18.5655 0.
-353.146 -857.611 0.
3.44075 8.50735 0.
2.10553 5.25686 0.
-262.156 -660.925 0.
-18.8972 -47.988 0.
-31.844 -81.7273 0.
-139.04 -360.382 0.
-2.2201 -5.30456 0.
-264.924 -631.891 0.
-4.63811 -10.0327 0.
-84.731 -182.572 0.
-422.528 -907.383 0.
-165.476 -372.541 0.
-145.543 -327.782 0.
-116.654 -262.835 0.
-334.273 -754.356 0.
-215.391 -481.252 0.
-250.436 -502.048 0.
-73.4862 -141.246 0.
7.46889 13.7662 0.
-311.33 -555.113 0.
-1.45192 -2.49588 0.
1.91205 3.16453 0.
2.73387 5.48769 0.
-1.5956 -8.37315 0.
-47.8068 -117.461 0.
-1.82274 -7.57291 0.
3.05441 5.14679 0.
-7.22075 -12.7859 0.
-93.6172 -174.383 0.
9.645 15.6501 0.
-5.81097 -15.7976 0.
1.1612 1.85621 0.
5.29476 9.43075 0.
-0.998899 -1.84258 0.
-3.36227 -16.8053 0.
5.81792 11.9338 0.
8.29485 17.252 0.
4.70712 10.1 0.
1.34461 2.90974 0.
-1.90522 -16.3965 0.
-5.28745 -10.7057 0.
3.36556 6.92594 0.
-2.88374 -6.03521 0.
-228.714 -551.257 0.
1.95136 4.60898 0.
-288.759 -735.231 0.
-2.90294 -7.39498 0.
0.075214 0.19163 0.
-322.921 -803.483 0.
1.30063 3.20528 0.
2.56884 6.24794 0.
-328.255 -786.382 0.
1.34472 3.19675 0.
-343.621 -927.616 0.
-0.228497 -0.621694 0.
1.52294 4.15385 0.
-351.555 -961.134 0.
-0.198156 -0.539876 0.
1.39909 3.76384 0.
-323.919 -896.083 0.
2.08828e-06 0.626892 0.
0.00586913 1.72209 0.
-269.646 -746.845 0.
0.609407 1.30276 0.
-163.337 -450.423 0.
-0.232181 -0.362091 0.
-0.730424 -1.31708 0.
-139.829 -383.662 0.
-8.30867 -18.6587 0.
-21.3969 -52.5698 0.
-133.108 -360.705 0.
-41.2541 -106.043 0.
-31.0724 -77.8668 0.
-111.329 -305.683 0.
-100.503 -277.917 0.
-77.9132 -191.288 0.
-74.2571 -205.151 0.
-108.638 -300.82 0.
-10.3433 -22.5048 0.
-11.481 -25.7427 0.
-125.579 -347.814 0.
-5.96061 -14.8186 0.
-0.655165 -1.37993 0.
-178.692 -491.043 0.
0.0201144 0.0638273 0.
0.0728678 0.126175 0.
-207.868 -547.273 0.
0.0139852 0.0756684 0.
-354.056 -980.569 0.
0.0044216 0.301998 0.
-0.00551549 -1.9417 0.
-375.467 -1034.89 0.
-0.0432562 -3.1495 0.
-0.0505248 -6.7049 0.
-362.065 -994.705 0.
-5.52399 -15.2528 0.
-15.8467 -43.7048 0.
-328.996 -902.396 0.
-7.72192 -18.4852 0.
-321.227 -775.616 0.
3.67414 8.9065 0.
4.0056 9.81786 0.
-327.518 -811.901 0.
-2.46448 -6.25932 0.
3.41458 8.7664 0.
-276.45 -714.708 0.
-1.2652 -14.0219 0.
-171.946 -392.997 0.
-5.58307 -11.6339 0.
-2.86374 -5.92536 0.
-4.24435 -8.72153 0.
3.83168 8.22259 0.
-2.55536 -5.40418 0.
7.09198 14.7826 0.
-2.42131 -16.7912 0.
-2.35756 -4.76246 0.
-6.01455 -10.6262 0.
1.45219 2.50867 0.
8.86697 14.9758 0.
2.35864 3.8952 0.
7.61625 13.0455 0.
3.3681 5.54494 0.
2.35625 4.75874 0.
-0.459711 -0.895398 0.
-9.56322 -23.8851 0.
-25.5355 -44.6129 0.
3.12365 5.0678 0.
7.0873 11.7167 0.
3.30287 5.56714 0.
-1.58541 -2.4152 0.
-5.18101 -14.4491 0.
-55.6701 -89.8683 0.
-0.239891 -0.420985 0.
-83.7771 -152.585 0.
-2.69558 -5.09166 0.
-1.84423 -3.77024 0.
-448.51 -926.035 0.
-1.31602 -2.77526 0.
-240.599 -512.485 0.
-426.507 -919.746 0.
-164.054 -325.995 0.
-318.265 -641.824 0.
-121.619 -249.891 0.
-472.406 -1128.17 0.
5.04214 11.7744 0.
-438.313 -1104.84 0.
-45.1313 -114.343 0.
2.79547 7.08121 0.
-323.235 -802.21 0.
-0.976028 -2.39729 0.
3.65004 8.84946 0.
-185.836 -432.692 0.
-0.686637 -7.74763 0.
-82.8181 -224.761 0.
-0.401496 -1.09325 0.
1.67395 4.56915 0.
-27.2933 -73.7554 0.
-0.909398 -2.42502 0.
0.0361211 0.0944328 0.
0.958736 2.64803 0.
-0.0217069 -3.23763 0.
-0.0917135 -4.25984 0.
-0.0702987 -0.528478 0.
0.880735 2.03148 0.
0.0236343 0.0408273 0.
-0.105684 -0.49681 0.
0.33892 0.721282 0.
-14.4816 -32.8159 0.
-10.7666 -22.7128 0.
-23.984 -54.9644 0.
0.549691 0.0106218 0.
-0.491609 -0.0649869 0.
0.145713 0.110399 0.
0.123379 0.495798 0.
-0.834899 -1.92335 0.
-32.1657 -86.0322 0.
-5.76381 -15.8767 0.
-15.3468 -41.2213 0.
0.274669 0.776563 0.
0.134323 0.235206 0.
-8.99588 -19.312 0.
-3.50224 -7.84437 0.
0.142543 0.277998 0.
-3.44522 -6.11525 0.
-0.167125 -0.533754 0.
-0.390101 -0.763657 0.
-0.00650472 -0.00853961 0.
2.74417 0.00289808 0.
0.123563 1.33958 0.
2.33367 5.89091 0.
1.88641 5.02276 0.
1.15012 3.14262 0.
-0.0763081 -2.42832 0.
-0.122587 -6.10642 0.
-44.4684 -119.676 0.
-15.9396 -43.9051 0.
-22.7481 -62.5693 0.
-107.17 -293.987 0.
-3.97771 -9.509 0.
-272.793 -655.871 0.
3.24433 7.70681 0.
4.20971 10.1237 0.
-395.972 -964.373 0.
-0.462557 -12.093 0.
-14.4988 -37.2024 0.
-455.7 -1178.61 0.
0.946746 2.12033 0.
-419.532 -939.806 0.
-190.352 -392.755 0.
-369.176 -756.573 0.
-148.836 -303.052 0.
-397.744 -846.452 0.
-119.902 -250.679 0.
2.65409 5.46313 0.
-348.55 -715.385 0.
-2.60345 -15.0829 0.
0.162939 0.287747 0.
-26.3009 -45.3923 0.
7.17368 12.0984 0.
-14.745 -24.3518 0.
6.29335 10.105 0.
7.56668 11.8117 0.
-3.45703 -6.47807 0.
-18.2157 -34.3946 0.
-33.1142 -62.9696 0.
-56.6665 -99.0783 0.
-3.35467 -9.80489 0.
5.9456 9.68302 0.
-146.335 -242.759 0.
2.71143 4.17165 0.
5.94191 9.42412 0.
-273.437 -445.11 0.
9.64574 16.6538 0.
-103.046 -184.916 0.
-277.154 -517.616 0.
-32.2238 -65.64 0.
-98.4075 -203.208 0.
0.844594 1.749 0.
2.97835 6.07514 0.
7.51533 15.5849 0.
-66.3817 -125.703 0.
-34.5107 -64.3076 0.
-24.9104 -45.6496 0.
5.92838 12.7666 0.
1.34251 2.93991 0.
-11.3917 -28.2745 0.
-15.7315 -38.9205 0.
-21.9946 -54.2339 0.
-150.887 -360.799 0.
2.73784 6.51513 0.
3.71873 8.79522 0.
-444.113 -1017.58 0.
0.644878 1.44565 0.
-484.165 -1304.44 0.
-0.0404988 -6.10857 0.
2.20906 6.03947 0.
-594.462 -1590.98 0.
1.77027 4.69596 0.
1.00226 2.62077 0.
-594.991 -1613.42 0.
0.899657 2.47038 0.
-0.0269571 -4.91797 0.
-589.17 -1619.78 0.
0.594669 1.52576 0.
-469.322 -1286.91 0.
-119.848 -316.969 0.
0.103595 0.668816 0.
-369.583 -1020.51 0.
-91.0213 -252.079 0.
0.119626 1.41311 0.
-267.478 -739.774 0.
-98.943 -272.464 0.
-2.90304 -5.11446 0.
-170.036 -461.007 0.
-127.061 -349.857 0.
-60.4661 -161.53 0.
-107.285 -294.615 0.
-195.711 -541.772 0.
0.992281 0.0308055 0.
-113.445 -314.184 0.
-319.164 -883.799 0.
0.852373 0.287147 0.
-122.359 -336.679 0.
-430.573 -1184.03 0.
1.79862 0.56158 0.
-146.02 -361.781 0.
-532.961 -1441 0.
1.07123 2.77033 0.
-673.124 -1857.33 0.
0.814293 2.20922 0.
1.11611 3.0598 0.
-606.143 -1653.72 0.
0.232978 0.607204 0.
0.583007 1.53264 0.
-581.487 -1558.81 0.
-10.3843 -28.6772 0.
2.22563 6.12573 0.
-407.938 -1110.19 0.
-0.989485 -2.22896 0.
-252.992 -588.292 0.
-1.66171 -3.92641 0.
-0.706581 -10.2739 0.
-112.353 -269.387 0.
4.71474 11.7812 0.
3.84805 9.51713 0.
4.8721 11.9267 0.
-2.87412 -5.90628 0.
-4.48578 -9.15383 0.
1.2006 2.28082 0.
7.07516 13.4974 0.
-23.0999 -44.2496 0.
-1.35293 -2.70801 0.
-27.4521 -56.6044 0.
-60.2704 -122.435 0.
-108.871 -220.497 0.
4.74198 9.28939 0.
-325.092 -573.026 0.
-150.388 -259.078 0.
3.45609 5.82017 0.
-268.596 -444.405 0.
-4.42306 -13.068 0.
3.53913 5.51553 0.
-96.744 -178.739 0.
-28.1068 -52.3097 0.
-46.5962 -87.3518 0.
-1.18288 -2.09984 0.
0.205767 0.32543 0.
-3.33437 -5.30268 0.
5.30563 8.48724 0.
-3.31193 -4.9591 0.
0.119475 0.183309 0.
2.07346 3.26249 0.
-2.57985 -4.26389 0.
2.96941 5.02916 0.
-12.4856 -21.6581 0.
-2.63026 -13.2316 0.
-110.939 -218.7 0.
-0.690801 -1.37206 0.
-2.60301 -15.9351 0.
2.0603 4.23228 0.
-22.9558 -43.4231 0.
-195.623 -363.654 0.
-35.3755 -64.7567 0.
-384.195 -809.024 0.
-123.465 -263.574 0.
-505.488 -1251.67 0.
-240.764 -594.694 0.
-0.511009 -1.25869 0.
-579.767 -1361.19 0.
-0.676108 -1.56598 0.
-0.826541 -9.38875 0.
-501.863 -1130.54 0.
0.752299 1.66834 0.
-316.591 -855.862 0.
1.60046 4.36773 0.
0.17228 0.471428 0.
-307.778 -816.882 0.
-0.133343 -5.99336 0.
0.658325 1.70534 0.
-245.629 -666.079 0.
-0.0254197 -3.22489 0.
0.368006 0.993273 0.
-207.505 -574.165 0.
0.000806772 0.635437 0.
-161.787 -431.046 0.
-0.139204 -1.78048 0.
2.54446 0.0546244 0.
-109.308 -301.781 0.
3.59879e-05 1.57699 0.
6.22757e-09 1.94411 0.
-96.6129 -267.52 0.
-0.127934 -0.233484 0.
0.492645 0.00808303 0.
-78.2729 -211.781 0.
-55.287 -151.257 0.
-10.7769 -26.6332 0.
-22.7589 -61.3834 0.
-82.3752 -227.955 0.
0.467926 0.528528 0.
0.351727 0.534075 0.
-95.2669 -263.53 0.
0.0884737 1.58192 0.
0.000120748 1.45243 0.
-131.598 -352.354 0.
0.183594 1.8914 0.
-0.317549 -2.10396 0.
-205.965 -535.065 0.
0.00250265 1.2682 0.
-259.711 -719.045 0.
-0.041946 -2.2804 0.
-0.0431812 -3.85723 0.
-280.361 -760.858 0.
0.0949689 0.24097 0.
2.3624 6.06529 0.
-344.076 -901.292 0.
-26.8372 -74.3153 0.
1.28196 3.54581 0.
-340.805 -934.021 0.
-0.854922 -1.85891 0.
-410.691 -930.979 0.
2.74679 6.42994 0.
-43.2721 -102.012 0.
-631.566 -1481.82 0.
-3.2273 -7.98908 0.
-226.25 -554.446 0.
-508.471 -1239.12 0.
-231.45 -468.571 0.
-249.804 -502.035 0.
7.98091 15.0044 0.
-150.253 -283.497 0.
-26.8594 -50.9283 0.
-116.034 -232.271 0.
-3.97417 -7.83542 0.
0.471342 0.916241 0.
-4.0735 -7.87248 0.
-3.79173 -7.18639 0.
-38.778 -68.426 0.
0.877697 1.50103 0.
7.79902 12.9083 0.
0.51891 0.827658 0.
9.46353 14.7803 0.
-4.07012 -6.22902 0.
-2.935 -5.26619 0.
4.97187 8.85847 0.
1.4157 2.50389 0.
-3.4372 -6.19537 0.
6.8707 10.6781 0.
1.55047 2.4223 0.
-95.2172 -149.303 0.
10.7833 15.8701 0.
-0.656957 -0.99088 0.
-308.898 -475.554 0.
9.79629 16.2976 0.
-274.331 -469.12 0.
-51.3054 -89.6916 0.
-129.745 -247.322 0.
-313.041 -616.976 0.
-177.256 -348.679 0.
-188.367 -376.803 0.
-191.934 -390.527 0.
-73.1114 -138.024 0.
-171.879 -319.355 0.
-142.576 -260.795 0.
-169.754 -346.132 0.
-47.0992 -97.6599 0.
0.728933 1.80454 0.
1.19794 2.95631 0.
-1.50803 -3.70969 0.
-25.3983 -57.0777 0.
0.65031 1.44709 0.
-1.4758 -3.25254 0.
-64.3164 -140.125 0.
-1.22844 -2.60619 0.
-230.11 -593.851 0.
-13.9119 -36.3349 0.
-7.72916 -20.3438 0.
-358.755 -900.253 0.
1.88291 4.70988 0.
1.30411 3.23247 0.
-414.11 -1071.14 0.
-0.523876 -1.37851 0.
1.12689 2.96458 0.
-429.952 -1160.47 0.
0.221846 0.612269 0.
-384.462 -1050.93 0.
-45.2585 -117.57 0.
1.0178 2.67628 0.
-363.572 -991.889 0.
-81.4387 -212.89 0.
0.849515 1.92943 0.
-317.52 -851.377 0.
-107.466 -287.064 0.
0.453976 0.623056 0.
-217.134 -575.763 0.
-160.727 -441.475 0.
-44.0647 -121.549 0.
-123.758 -342.264 0.
-278.882 -769.123 0.
0.109876 0.290309 0.
-127.623 -339.208 0.
-377.041 -1028.52 0.
-0.144237 -1.93032 0.
-111.716 -284.994 0.
-430.088 -1166.25 0.
-0.267474 -0.693457 0.
-74.6162 -192.024 0.
-438.648 -1193.89 0.
0.405604 1.12315 0.
-453.872 -1237.89 0.
-0.135213 -5.25361 0.
0.471467 1.23712 0.
-416.612 -1093.41 0.
1.58444 3.78789 0.
2.82579 6.69285 0.
-279.776 -674.924 0.
-28.1468 -76.4277 0.
-39.51 -106.295 0.
-188.889 -489.11 0.
-11.2519 -23.857 0.
-80.8843 -179.595 0.
-54.298 -127.203 0.
-35.2944 -82.1431 0.
-20.0298 -47.2423 0.
-0.885679 -2.17044 0.
-4.90161 -11.8799 0.
-25.5539 -61.263 0.
-124.256 -248.588 0.
-255.649 -506.606 0.
-128.944 -239.54 0.
-150.296 -280.62 0.
-48.2797 -90.6117 0.
-309.707 -620.549 0.
-190.04 -374.822 0.
-69.2278 -134.436 0.
-357.222 -680.387 0.
-118.668 -220.959 0.
-66.1666 -117.853 0.
-273.423 -470.119 0.
-3.36686 -5.61488 0.
-176.42 -276.446 0.
7.48795 11.4798 0.
2.13671 3.2096 0.
3.74905 6.67829 0.
-2.66381 -4.70913 0.
2.75001 4.82753 0.
-15.6703 -28.6906 0.
-15.8776 -24.2305 0.
-14.3142 -21.9528 0.
-18.367 -28.3103 0.
2.8646 4.13698 0.
-5.1371 -12.3694 0.
-39.718 -57.2376 0.
-4.08506 -6.43801 0.
-3.67849 -5.95654 0.
-3.10881 -5.17884 0.
6.42344 11.347 0.
-3.93878 -7.08348 0.
8.7908 15.7516 0.
-2.06872 -3.79635 0.
8.14377 15.3145 0.
-5.24107 -9.44372 0.
-3.19441 -5.89737 0.
3.34035 6.32261 0.
-50.9355 -107.019 0.
-29.1925 -60.4131 0.
-51.7455 -124.839 0.
2.45401 5.92621 0.
-1.70342 -4.11963 0.
-216.309 -482.764 0.
2.36669 5.2313 0.
3.77346 8.26012 0.
-221.096 -476.088 0.
0.652441 1.37294 0.
-260.143 -665.357 0.
-19.0182 -49.4077 0.
-14.5162 -38.0233 0.
-264.068 -657.219 0.
0.328128 0.813887 0.
0.0317413 0.0779917 0.
-256.847 -656.494 0.
-0.201006 -0.516375 0.
1.61026 4.12755 0.
-233.049 -629.465 0.
1.31864 3.58138 0.
-152.88 -408.161 0.
-0.0257674 -1.46262 0.
0.00322502 0.323416 0.
-107.501 -284.279 0.
-0.106839 -1.95797 0.
-0.0900428 -2.32419 0.
-76.1065 -196.874 0.
0.00693499 0.688207 0.
0.00471085 0.950754 0.
-23.3448 -63.4229 0.
0.0464526 0.696919 0.
0.152179 0.776946 0.
0.0100487 1.24502 0.
-55.5032 -149.359 0.
3.19179e-05 0.0241305 0.
-0.0165436 -0.809127 0.
-98.7006 -259.19 0.
0.546476 1.37085 0.
0.368997 0.90076 0.
-134.296 -343.076 0.
0.120374 0.322702 0.
0.700611 1.84822 0.
-212.065 -566.279 0.
0.303795 0.837708 0.
-265.844 -727.236 0.
-0.132857 -4.17536 0.
0.791787 2.05175 0.
-291.96 -755.064 0.
-0.918621 -2.17273 0.
-0.955823 -2.23994 0.
-246.704 -585.992 0.
-105.11 -279.968 0.
-92.4139 -243.106 0.
-182.56 -368.833 0.
4.88258 10.2771 0.
-182.123 -401.65 0.
-40.1567 -95.4078 0.
-23.9258 -56.501 0.
-161.128 -377.336 0.
-2.08089 -4.94335 0.
-17.638 -41.6681 0.
-34.469 -80.9708 0.
-27.3227 -54.692 0.
-31.4455 -63.6214 0.
-3.17347 -14.4007 0.
7.96326 14.4178 0.
-0.0181005 -0.0319939 0.
1.54229 2.85997 0.
9.23993 16.7598 0.
-3.8449 -6.82952 0.
-5.97682 -10.2316 0.
-5.32413 -8.96106 0.
3.38377 5.61466 0.
2.47341 3.98553 0.
-1.65751 -2.76864 0.
-17.8605 -27.4346 0.
-6.78216 -10.1953 0.
7.89559 11.6267 0.
-1.93224 -3.4146 0.
-26.3374 -46.1463 0.
-67.8123 -117.742 0.
3.41553 5.72523 0.
7.1635 10.1384 0.
-4.23703 -9.36113 0.
-24.4664 -35.3559 0.
-0.272127 -0.380414 0.
3.67722 5.24444 0.
-43.631 -63.467 0.
-5.74018 -8.83478 0.
-166.896 -264.474 0.
-9.19056 -14.9665 0.
-2.01144 -3.48644 0.
-148.544 -262.475 0.
-2.34386 -4.13544 0.
-113.978 -206.108 0.
-280.151 -519.961 0.
3.07624 5.45434 0.
-333.435 -605.379 0.
-227.019 -423.08 0.
-235.549 -491.204 0.
-370.344 -760.967 0.
-370.143 -890.988 0.
-192.664 -463.386 0.
-14.0352 -33.7726 0.
-508.725 -1119.2 0.
-36.5241 -80.1476 0.
0.0898853 0.195455 0.
-379.259 -807.312 0.
-1.65998 -3.46685 0.
-274.469 -695.57 0.
-28.5705 -73.7422 0.
-23.543 -61.2997 0.
-148.994 -369.073 0.
-1.27596 -3.13844 0.
3.04361 7.41362 0.
-55.4211 -139.1 0.
1.98738 4.96456 0.
0.0224913 0.0559245 0.
-0.167273 -0.450928 0.
-0.024897 -1.31496 0.
0.368877 0.987792 0.
-0.00660569 -0.802684 0.
0.000234568 0.0738025 0.
-0.054256 -1.54408 0.
1.00551 2.63899 0.
0.012301 0.96047 0.
0.809359 1.73186 0.
0.0894307 0.142132 0.
0.116156 1.06803 0.
0.645596 0.087638 0.
0.00202873 0.689793 0.
0.327903 0.640165 0.
0.0846272 0.675306 0.
0.000567503 0.372113 0.
0.541243 1.49595 0.
-0.00183203 -0.394629 0.
0.220611 0.583107 0.
-0.0268 -1.08918 0.
-0.0748731 -2.106 0.
-0.0599489 -1.28955 0.
-0.0117761 -2.25548 0.
0.876852 2.37061 0.
-0.0497227 -3.13891 0.
-0.394074 -1.07778 0.
-33.4144 -91.9696 0.
0.019766 0.0501661 0.
-0.195996 -5.60834 0.
-125.404 -320.69 0.
2.4635 5.75881 0.
-0.430738 -0.997534 0.
-196.585 -459.062 0.
-206.924 -540.603 0.
-192.742 -493.711 0.
5.64294 11.3202 0.
-1.48961 -10.5352 0.
-301.687 -658.776 0.
-27.4224 -66.0624 0.
-73.3389 -175.511 0.
-417.687 -982.317 0.
-81.7509 -192.656 0.
-228.079 -535.544 0.
-376.346 -879.365 0.
-443.827 -895.026 0.
-162.855 -330.699 0.
-287.714 -521.483 0.
-317.761 -560.508 0.
-4.81073 -8.29189 0.
-216.773 -392.226 0.
-30.4337 -53.8679 0.
7.27449 12.6078 0.
-184.204 -311.507 0.
0.146123 0.242884 0.
1.67072 2.72819 0.
-106.263 -168.236 0.
-2.62099 -4.03338 0.
3.54868 5.13962 0.
3.88986 5.53051 0.
9.49305 13.2428 0.
4.24428 6.78004 0.
-1.09439 -1.75101 0.
-0.778188 -1.24714 0.
3.71566 6.13424 0.
-1.58735 -2.2294 0.
-40.0596 -56.8591 0.
-132.869 -190.875 0.
6.64546 9.37521 0.
2.31698 3.33574 0.
-288.653 -424.259 0.
-44.6244 -66.98 0.
-228.046 -352.211 0.
-73.6063 -123.04 0.
-112.31 -190.944 0.
-112.533 -194.658 0.
-126.065 -218.797 0.
-86.8485 -154.615 0.
-28.6145 -52.2693 0.
3.14715 5.05237 0.
-6.29083 -10.2027 0.
-4.46901 -7.32309 0.
2.40126 4.44139 0.
1.30222 2.43157 0.
-0.819297 -1.81241 0.
2.22441 4.98291 0.
2.617 5.93936 0.
0.0282456 0.060286 0.
-0.992869 -2.14042 0.
-24.4102 -53.0993 0.
2.10211 4.45607 0.
4.76786 9.88867 0.
-239.67 -617.802 0.
-35.482 -92.3739 0.
-45.5614 -118.129 0.
-368.01 -902.152 0.
-0.323907 -5.63188 0.
-0.210161 -3.96135 0.
-353.615 -915.94 0.
0.832526 2.15656 0.
-0.650041 -1.66191 0.
-393.934 -1044.61 0.
0.726354 1.97473 0.
-363.366 -1001.5 0.
-46.5312 -125.362 0.
-5.51034 -14.9212 0.
-338.551 -928.116 0.
-44.2195 -118.157 0.
-7.87225 -21.2225 0.
-299.879 -818.486 0.
-85.8303 -233.701 0.
-0.105024 -0.286838 0.
-242.064 -653.989 0.
-196.896 -543.709 0.
-57.5897 -156.719 0.
-136.869 -377.478 0.
-295.205 -816.99 0.
0.569083 1.57523 0.
-88.0612 -241.174 0.
-362.486 -996.549 0.
-0.276962 -0.73555 0.
-72.4454 -191.982 0.
-390.283 -1066.59 0.
1.17474 3.19162 0.
-96.4624 -261.7 0.
-391.719 -1077.27 0.
0.744477 2.03181 0.
-433.063 -1168.17 0.
-0.265759 -0.674951 0.
-10.9712 -28.3414 0.
-367.815 -953.922 0.
-8.83489 -21.9103 0.
2.1777 5.13363 0.
-164.729 -365.423 0.
-100.712 -253.004 0.
-241.21 -638.275 0.
2.23249 4.76095 0.
3.80486 8.02288 0.
-1.42356 -2.9719 0.
-0.357061 -0.820267 0.
-0.737436 -1.67103 0.
3.48356 7.78727 0.
-10.2133 -22.2161 0.
-17.4592 -38.0955 0.
-32.4131 -70.9577 0.
0.523594 0.977046 0.
5.57672 10.1957 0.
-62.4288 -99.5972 0.
-1.83291 -2.89819 0.
-36.0688 -60.4974 0.
-102.089 -179.996 0.
-113.685 -196.022 0.
-101.544 -171.453 0.
-168.885 -281.793 0.
-105.134 -172.481 0.
-84.9417 -136.268 0.
-229.056 -355.746 0.
-4.95351 -7.48048 0.
-162.73 -238.53 0.
7.34456 10.5512 0.
5.74251 8.09339 0.
-86.3971 -134.436 0.
-3.92215 -6.12619 0.
-8.17766 -12.801 0.
1.60873 2.67173 0.
-2.78901 -3.89258 0.
-2.58703 -3.60565 0.
0.18651 0.259565 0.
1.9972 2.76942 0.
1.871 2.6585 0.
-3.88375 -5.65861 0.
-4.83069 -7.07464 0.
-10.2884 -15.3696 0.
7.42512 11.7963 0.
-2.39794 -3.87629 0.
-4.2102 -6.92696 0.
7.0867 11.5821 0.
8.0099 13.1837 0.
-33.6375 -55.7566 0.
7.06855 11.3592 0.
-118.086 -191.542 0.
-40.2409 -66.0073 0.
2.91941 5.31984 0.
-262.759 -484.223 0.
-202.203 -439.449 0.
-139.516 -306.965 0.
-79.6721 -177.581 0.
-386.623 -825.158 0.
-167.372 -362.58 0.
-31.1468 -68.3482 0.
-473.332 -964.33 0.
-2.07731 -4.17778 0.
-286.456 -565.977 0.
-90.0971 -232.686 0.
-61.7487 -159.039 0.
-384.017 -913.003 0.
1.69708 4.02114 0.
-0.402296 -5.94297 0.
-177.236 -459.926 0.
1.00132 2.59957 0.
0.0160447 0.0411356 0.
-90.2746 -245.782 0.
1.31559 3.57447 0.
-66.3385 -178.391 0.
-3.41386 -9.20259 0.
-2.68209 -7.2656 0.
-10.6916 -28.5984 0.
-6.19857 -16.7564 0.
-2.20528 -6.01853 0.
-7.77434 -21.1357 0.
0.074797 0.205939 0.
-0.0518784 -0.143691 0.
0.169744 0.466096 0.
-0.0279636 -1.29302 0.
0.195789 0.526053 0.
0.411339 1.12769 0.
-20.1578 -55.7505 0.
-0.000686536 -0.739879 0.
-0.00149619 -1.71601 0.
-19.3276 -52.7341 0.
0.991095 2.69428 0.
0.888856 2.39779 0.
-45.8635 -122.981 0.
1.13184 3.0764 0.
-0.27599 -0.743684 0.
-96.9244 -261.709 0.
0.32192 0.869131 0.
-189.317 -512.319 0.
-0.76673 -1.90823 0.
-3.3913 -8.60311 0.
-265.526 -683.337 0.
-25.5673 -65.2767 0.
-2.03016 -4.94428 0.
-295.8 -671.877 0.
-78.5 -187.164 0.
-380.013 -964.243 0.
-152.482 -315.649 0.
0.465956 0.948985 0.
-386.242 -788.246 0.
-53.5061 -121.871 0.
-196.037 -438.593 0.
-344.892 -756.655 0.
-102.655 -223.064 0.
-115.115 -251.029 0.
-128.255 -280.703 0.
-231.661 -424.987 0.
1.78937 3.20253 0.
-46.4708 -75.0613 0.
-116.964 -187.269 0.
8.92477 14.1609 0.
-11.0065 -17.9262 0.
2.397 3.83352 0.
-1.45691 -2.28923 0.
1.82908 2.86871 0.
-4.50174 -12.1763 0.
5.94797 9.12677 0.
3.27614 4.90528 0.
-0.0575376 -0.0843656 0.
-3.60655 -5.22844 0.
-5.0041 -11.0257 0.
2.91815 4.10929 0.
5.08188 7.71515 0.
2.09738 3.16022 0.
2.10043 3.14184 0.
-0.332173 -0.543582 0.
6.10229 8.40845 0.
1.23396 1.69766 0.
-58.9658 -81.0451 0.
-2.63101 -3.59817 0.
7.07598 9.92103 0.
-162.986 -234.569 0.
4.57482 6.74376 0.
-399.02 -599.465 0.
-1.5579 -2.45046 0.
-101.653 -162.681 0.
-339.186 -551.44 0.
-116.646 -187.035 0.
-143.453 -231.48 0.
-149.76 -243.237 0.
-2.63372 -4.23597 0.
-146.73 -238.181 0.
-262.649 -430.918 0.
-100.738 -180.949 0.
-254.975 -463.397 0.
-142.562 -303.244 0.
-39.4619 -85.0373 0.
-18.3071 -39.9815 0.
-59.9462 -130.169 0.
-43.7758 -96.0071 0.
-46.5719 -102.861 0.
-13.9346 -28.1824 0.
-1.74186 -3.49541 0.
-3.0764 -6.12226 0.
-138.592 -355.399 0.
-24.1121 -59.6032 0.
-43.6351 -94.0751 0.
-0.660831 -1.47849 0.
-11.6985 -26.8638 0.
-215.932 -541.005 0.
-4.9974 -12.51 0.
1.43817 3.55084 0.
-264.448 -685.474 0.
-0.390805 -1.02888 0.
-253.399 -701.317 0.
-6.85624 -18.6658 0.
0.151676 0.413473 0.
-284.697 -787.509 0.
-14.8777 -40.6847 0.
-0.00548818 -2.03709 0.
-255.538 -706.704 0.
-48.5982 -134.539 0.
0.517478 1.42951 0.
-183.033 -503.336 0.
-148.415 -410.994 0.
-2.60673 -7.03037 0.
-102.328 -281.297 0.
-270.602 -749.125 0.
-0.405169 -1.12214 0.
-68.6961 -189.536 0.
-323.91 -895.137 0.
1.10471 3.04535 0.
-46.4249 -127.717 0.
-327.938 -907.362 0.
-0.0166847 -4.03497 0.
-36.2728 -99.6336 0.
-262.617 -727.405 0.
1.85675 4.72523 0.
-261.787 -657.545 0.
1.40919 3.17948 0.
2.77873 6.3072 0.
-175.697 -405.617 0.
-19.2333 -45.5931 0.
-9.99805 -24.0927 0.
-16.5792 -40.4933 0.
1.84363 4.34404 0.
-172.159 -409.597 0.
5.75046 10.7655 0.
-2.50708 -4.73565 0.
1.95867 3.73035 0.
-113.668 -256.735 0.
-30.8394 -68.7131 0.
-1.81395 -3.9851 0.
-7.83629 -17.0556 0.
-87.2858 -190.253 0.
-196.22 -428.432 0.
-332.894 -597.725 0.
-80.54 -141.109 0.
-273.607 -448.394 0.
-119.946 -194.573 0.
-4.82679 -14.3228 0.
-208.507 -333.781 0.
-183.57 -288.763 0.
-139.752 -216.08 0.
-369.561 -574.271 0.
-55.7366 -85.484 0.
3.16443 4.80085 0.
-341.954 -509.919 0.
-1.75741 -2.56934 0.
-64.7181 -92.1245 0.
0.149113 0.209151 0.
0.973006 1.34562 0.
-3.13573 -4.68448 0.
-1.16056 -1.72115 0.
-3.52321 -5.18804 0.
-10.7165 -17.274 0.
-27.8268 -37.8663 0.
-22.2712 -30.2536 0.
-21.6946 -29.4183 0.
2.49875 3.36712 0.
-76.1351 -105.235 0.
-140.671 -199.704 0.
-3.28336 -4.87284 0.
-5.29664 -11.2647 0.
-2.32072 -3.34146 0.
1.37968 2.00795 0.
5.68265 8.36315 0.
0.060471 0.0872274 0.
-1.1911 -1.74141 0.
2.31195 3.42815 0.
2.52723 3.84065 0.
6.17558 9.6617 0.
-1.23775 -1.99613 0.
7.02827 12.6773 0.
2.66679 4.89198 0.
-55.2349 -120.222 0.
-12.3838 -26.7643 0.
-4.23491 -9.08003 0.
2.24181 4.81109 0.
-1.73779 -3.79965 0.
-46.3772 -103.133 0.
-17.535 -34.6948 0.
-3.88632 -7.623 0.
-11.2522 -21.8687 0.
-168.75 -419.499 0.
-46.1136 -110.789 0.
-82.8598 -181.267 0.
-1.6511 -3.76057 0.
-16.0657 -37.5345 0.
-164.804 -408.23 0.
-2.03665 -5.01493 0.
2.23448 5.42029 0.
-134.668 -344.945 0.
0.524655 1.34289 0.
-52.0027 -142.76 0.
-0.147654 -0.404959 0.
-0.00850481 -2.38774 0.
0.402621 1.09926 0.
0.579107 1.59304 0.
-0.000579826 -0.755081 0.
0.668577 1.84519 0.
-1.0122e-07 -0.747379 0.
0.370024 1.02072 0.
-0.0445915 -0.123509 0.
-0.00456636 -1.8608 0.
0.382523 1.03108 0.
-0.55505 -1.52522 0.
-1.02317 -2.83342 0.
-0.158109 -0.437811 0.
0.920714 2.54178 0.
-1.76403 -4.83875 0.
0.389756 1.07917 0.
-0.00242834 -3.15243 0.
-74.297 -205.221 0.
0.767246 2.10585 0.
1.47573 4.03911 0.
-98.4373 -271.22 0.
1.63779 4.06376 0.
-158.183 -389.012 0.
-0.543933 -5.78154 0.
-0.511559 -5.62606 0.
-170.649 -394.77 0.
-37.4102 -87.6092 0.
-17.0921 -40.7022 0.
-97.68 -232.987 0.
-0.606267 -7.71952 0.
-166.541 -395.46 0.
-1.62144 -2.95361 0.
2.91007 5.35426 0.
-4.39987 -8.16994 0.
0.707188 1.56835 0.
-3.19453 -7.02604 0.
-7.92642 -17.2959 0.
-1.80857 -3.9842 0.
-0.374752 -0.823381 0.
-10.4044 -22.786 0.
-35.78 -63.2836 0.
3.21606 5.5836 0.
5.0824 8.19228 0.
6.96373 10.8221 0.
0.740469 1.1116 0.
-2.10046 -3.02477 0.
1.75475 2.49418 0.
-4.66947 -6.55373 0.
2.74505 3.87162 0.
7.79158 10.8659 0.
2.76357 3.81226 0.
-0.28417 -0.423315 0.
-5.24719 -7.64737 0.
-78.2913 -109.275 0.
-38.7904 -53.3771 0.
5.93529 8.05487 0.
-33.5225 -49.2446 0.
-22.4828 -32.7981 0.
-12.9415 -18.7517 0.
-1.12334 -1.609 0.
-0.28593 -0.36405 0.
6.46721 8.28863 0.
-0.846353 -1.09214 0.
7.20545 9.31579 0.
3.27703 4.28887 0.
-40.1289 -53.1443 0.
6.59393 8.96057 0.
-32.8786 -45.2664 0.
-4.30108 -6.08016 0.
3.0401 4.34288 0.
-121.117 -175.035 0.
7.43831 10.4789 0.
-2.66487 -3.80392 0.
-54.5474 -78.9858 0.
0.487416 0.723454 0.
-327.13 -498.746 0.
-206.028 -324.19 0.
2.88312 5.19686 0.
-433.903 -806.06 0.
-138.475 -299.252 0.
-185.565 -397.208 0.
-234.652 -497.358 0.
-160.294 -345.248 0.
-136.375 -299.419 0.
-111.269 -248.845 0.
-225.035 -435.799 0.
-6.47767 -12.4194 0.
-88.5402 -167.996 0.
-318.107 -759.22 0.
-73.3752 -171.161 0.
-142.113 -316.325 0.
-7.19873 -16.6991 0.
-22.0757 -52.509 0.
-108.454 -265.441 0.
-0.0310828 -0.0752737 0.
0.258798 0.616713 0.
-0.983088 -2.46312 0.
0.497668 1.2332 0.
1.13643 3.12998 0.
1.38228 3.81138 0.
-0.00268531 -1.86291 0.
-0.0101006 -3.28413 0.
-0.00123994 -1.23236 0.
0.567122 1.57073 0.
-0.000998305 -1.42693 0.
1.06443 2.94758 0.
0.779305 2.14667 0.
0.109397 0.302585 0.
-0.000779964 -1.79582 0.
-0.290985 -0.78347 0.
-0.0106419 -2.66712 0.
-0.417074 -1.15418 0.
0.809677 2.2415 0.
0.108709 0.299963 0.
1.17588 3.22405 0.
-0.000899339 -2.88914 0.
0.668234 1.85089 0.
-0.000680277 -3.61869 0.
-0.0145135 -4.07958 0.
-0.0188373 -4.04243 0.
-0.0168933 -2.85949 0.
-0.246734 -3.93355 0.
-29.6316 -71.5085 0.
3.16259 7.232 0.
-0.604255 -6.90833 0.
-156.397 -362.464 0.
-56.9414 -131.886 0.
-32.477 -76.4013 0.
-245.765 -570.636 0.
2.79741 6.49889 0.
-321.492 -759.796 0.
-21.6107 -38.2713 0.
-3.42265 -6.13309 0.
-291.941 -525.13 0.
-191.99 -414.176 0.
-151.978 -326.051 0.
-113.311 -241.779 0.
-270.995 -590.874 0.
-168.264 -367.92 0.
-64.0277 -140.352 0.
-494.473 -875.267 0.
-5.83986 -10.1532 0.
-175.275 -274.683 0.
-274.016 -413.714 0.
9.2581 13.5218 0.
-57.1605 -81.081 0.
-4.09671 -5.7348 0.
-2.66559 -3.68487 0.
-74.1998 -102.992 0.
4.6631 6.40062 0.
1.38148 1.87594 0.
-19.3305 -26.1392 0.
5.86461 7.9055 0.
-10.0476 -13.3519 0.
3.49941 4.57201 0.
-5.53665 -7.11361 0.
6.36056 8.60727 0.
6.12281 8.23392 0.
-3.93096 -5.25371 0.
-31.0113 -43.6488 0.
-50.6981 -63.8143 0.
-57.9097 -73.3399 0.
-77.205 -98.3718 0.
5.18723 6.65304 0.
-37.482 -48.6541 0.
-136.287 -178.992 0.
-81.0941 -107.665 0.
-213.038 -286.266 0.
-76.8735 -106.659 0.
-120.903 -169.549 0.
-123.871 -175.643 0.
-192.679 -265.17 0.
-131.809 -183.603 0.
-100.467 -141.79 0.
-21.0575 -30.4659 0.
-5.95615 -8.23852 0.
-48.63 -69.2296 0.
-1.70281 -2.7906 0.
-0.865114 -1.4592 0.
-1.72503 -10.0733 0.
1.43061 2.87027 0.
-1.83744 -3.70837 0.
0.766334 1.56957 0.
4.87773 10.0641 0.
-1.1078 -7.63785 0.
-0.309075 -0.55225 0.
5.98573 10.8683 0.
-2.33738 -4.31575 0.
-159.522 -386.045 0.
-29.7697 -70.6598 0.
-14.4001 -35.2036 0.
-29.0953 -71.2916 0.
-50.7758 -124.84 0.
-183.449 -460.289 0.
-7.04765 -17.5102 0.
0.608197 1.50169 0.
-306.375 -772.715 0.
1.73226 4.27161 0.
-228.427 -632.513 0.
-35.3019 -97.7701 0.
-0.408086 -1.13031 0.
-227.198 -628.301 0.
-35.7373 -98.9312 0.
0.987429 2.73182 0.
-220.895 -611.828 0.
-34.5622 -95.7312 0.
-0.00105145 -3.22454 0.
-146.059 -402.679 0.
-141.079 -390.738 0.
-0.593656 -1.61079 0.
-66.7282 -183.385 0.
-196.968 -544.331 0.
-0.32483 -0.899565 0.
-54.2911 -150.108 0.
-245.558 -679.5 0.
0.643624 1.78251 0.
-52.6137 -145.72 0.
-249.877 -691.767 0.
0.780718 2.14818 0.
-93.9594 -260.238 0.
-266.301 -734.109 0.
0.295137 0.683603 0.
-275.085 -672.21 0.
-23.7561 -59.5535 0.
-1.70638 -4.22294 0.
-141.403 -344.479 0.
-35.7347 -86.5605 0.
-27.3071 -67.9335 0.
-22.596 -57.6594 0.
2.97124 6.84056 0.
-77.2867 -176.589 0.
-52.0555 -89.6778 0.
-16.6436 -28.4851 0.
1.08758 1.8504 0.
3.057 6.1892 0.
-1.42189 -8.33855 0.
0.943915 1.8603 0.
5.42541 11.1761 0.
-1.56824 -9.69158 0.
-1.79446 -10.4192 0.
3.48382 5.63746 0.
-1.79734 -2.84771 0.
-69.2779 -97.5125 0.
-74.2471 -108.989 0.
-19.2125 -27.2294 0.
-136.17 -190.187 0.
-117.949 -162.568 0.
-207.04 -281.801 0.
-132.573 -180.956 0.
-112.386 -151.723 0.
-82.7253 -110.506 0.
-192.922 -254.601 0.
-48.9537 -64.4389 0.
-150.029 -198.334 0.
-62.3543 -81.0233 0.
8.08038 10.3213 0.
-82.6955 -111.295 0.
-2.36952 -3.16707 0.
-2.46635 -3.2761 0.
-2.86288 -5.36163 0.
4.49039 5.40325 0.
-4.64223 -5.61184 0.
3.11765 3.78733 0.
7.60005 9.37254 0.
-1.01906 -1.27895 0.
1.57541 2.01342 0.
-4.0907 -5.26038 0.
-43.2716 -56.3985 0.
5.347 7.16465 0.
3.95298 5.29469 0.
6.84661 9.166 0.
3.46377 4.46337 0.
1.28385 1.65231 0.
-4.39338 -5.64705 0.
8.81399 11.9697 0.
-38.3116 -53.6293 0.
-67.5255 -97.3472 0.
6.19507 9.95401 0.
-105.883 -175.192 0.
-2.22458 -4.39153 0.
-0.771235 -1.53171 0.
-165.609 -327.776 0.
-15.7499 -31.3668 0.
-85.9778 -172.405 0.
-154.341 -312.438 0.
-21.958 -38.9101 0.
-87.9674 -158.809 0.
-170.266 -313.839 0.
-294.529 -697.778 0.
-3.06717 -7.03878 0.
-224.296 -542.235 0.
-53.8801 -132.86 0.
-65.604 -162.532 0.
-160.1 -401.33 0.
1.91767 4.78959 0.
1.94248 4.82132 0.
-35.021 -87.4487 0.
1.09972 2.67688 0.
-0.00175603 -3.98144 0.
0.176207 0.487886 0.
0.995602 2.75755 0.
-0.550881 -1.52499 0.
0.422668 1.16876 0.
1.57625 4.35072 0.
-0.309684 -0.85759 0.
-0.000122111 -2.57444 0.
1.33757 3.69997 0.
-0.392117 -1.07917 0.
0.652872 1.80712 0.
0.323853 0.884068 0.
0.623747 1.72255 0.
-0.000277866 -3.00831 0.
1.42255 3.93752 0.
-0.000340928 -3.28134 0.
-0.568294 -1.5696 0.
0.989969 2.742 0.
-0.704962 -1.95248 0.
0.148854 0.412225 0.
-8.55673 -23.4475 0.
-2.20982 -6.08982 0.
-0.753732 -5.10175 0.
-0.827294 -1.84753 0.
-25.4112 -60.277 0.
-26.0615 -66.4723 0.
-0.815823 -2.05743 0.
-189.346 -469.759 0.
-20.5581 -50.4675 0.
-102.816 -258.505 0.
-238.763 -606.78 0.
-1.46721 -3.22731 0.
-337.379 -744.347 0.
-185.226 -325.465 0.
-209.351 -365.941 0.
3.55246 6.13307 0.
-91.8441 -182.155 0.
-14.0202 -27.4443 0.
-11.1655 -21.5725 0.
-126.045 -250.061 0.
1.72472 3.37169 0.
0.0220435 0.0424344 0.
-174.121 -280.942 0.
7.47019 11.8018 0.
-80.723 -114.476 0.
2.89392 3.99902 0.
9.75235 13.1188 0.
-4.01609 -5.20942 0.
0.342704 0.445287 0.
-1.18797 -1.54604 0.
-1.82609 -2.40785 0.
2.83757 3.70553 0.
9.27659 12.0011 0.
-2.64581 -3.34406 0.
5.86152 7.32252 0.
0.549937 0.69233 0.
0.244889 0.3049 0.
8.59837 10.5902 0.
2.60834 3.37236 0.
2.10548 2.70779 0.
2.73097 3.49441 0.
-0.71464 -0.939993 0.
3.76547 4.50576 0.
-4.69353 -6.97751 0.
4.70553 5.68448 0.
4.91194 5.94174 0.
-75.4313 -92.8962 0.
-2.82776 -3.54462 0.
-34.4358 -43.7286 0.
-304.319 -392.199 0.
-17.6547 -23.2773 0.
-18.7076 -24.6479 0.
-278.643 -368.693 0.
-146.043 -185.642 0.
-138.703 -175.996 0.
-110.802 -140.328 0.
4.27733 5.88047 0.
-175.013 -247.808 0.
-121.138 -176.897 0.
-32.157 -50.5679 0.
-271.795 -438.61 0.
-67.3076 -131.101 0.
-116.957 -228.601 0.
-92.7172 -182.556 0.
-42.4445 -82.1285 0.
-57.816 -112.591 0.
-49.4945 -97.016 0.
-109.486 -192.291 0.
-34.8686 -62.0645 0.
-84.0257 -149.479 0.
-63.8071 -144.523 0.
-0.0558738 -0.125818 0.
-34.1573 -85.8865 0.
-41.1595 -101.652 0.
-46.3854 -112.546 0.
-106.437 -258.805 0.
-12.848 -31.6161 0.
-42.0769 -103.692 0.
-212.059 -505.79 0.
-0.45996 -5.61385 0.
-176.214 -484.459 0.
-47.049 -129.614 0.
-0.143866 -0.396335 0.
-181.049 -495.216 0.
-20.6372 -56.5643 0.
0.204212 0.560705 0.
-194.841 -539.552 0.
-50.1284 -138.676 0.
-14.0081 -38.6591 0.
-98.0691 -271.558 0.
-92.8344 -256.895 0.
-3.6158 -9.98665 0.
-79.8253 -220.947 0.
-191.744 -531.098 0.
0.331219 0.912132 0.
-50.5639 -139.546 0.
-183.162 -506.197 0.
-5.94149 -16.3801 0.
-31.3844 -86.3561 0.
-159.705 -437.568 0.
-52.2086 -144.601 0.
-167.144 -462.763 0.
-38.7231 -88.2833 0.
1.65635 3.78443 0.
-155.208 -354.114 0.
-47.2889 -117.588 0.
-13.9641 -34.8319 0.
-82.3482 -204.789 0.
-56.1632 -137.397 0.
-58.4386 -143.616 0.
-63.5232 -156.837 0.
-30.0723 -62.1981 0.
-110.125 -232.448 0.
-93.9717 -171.02 0.
-3.74687 -6.59863 0.
-91.434 -160.639 0.
-82.3154 -159.729 0.
-138.008 -263.753 0.
-152.96 -288.307 0.
-141.594 -271.045 0.
-108.404 -204.104 0.
-18.5969 -34.513 0.
-325.978 -524.124 0.
-4.86316 -7.65902 0.
-133.583 -190.909 0.
-176.208 -244.951 0.
4.15803 5.63021 0.
-86.2988 -109.06 0.
-121.523 -154.024 0.
-112.716 -143.225 0.
-354.366 -459.458 0.
-56.3982 -72.4106 0.
-3.71855 -4.72912 0.
-238.348 -298.004 0.
-33.9262 -41.8582 0.
-5.07012 -6.31537 0.
-1.60144 -1.9726 0.
-2.00043 -2.43743 0.
-3.48354 -4.41255 0.
1.01783 1.28305 0.
2.99578 3.75884 0.
1.43077 1.85739 0.
-62.5172 -74.3321 0.
-39.5413 -47.2515 0.
-40.5399 -48.6811 0.
-11.5352 -13.6738 0.
-81.2564 -98.0255 0.
-99.3219 -122.04 0.
-40.3155 -50.5281 0.
4.23832 5.03041 0.
-2.37348 -2.84885 0.
-1.87448 -2.24349 0.
-1.17238 -1.39893 0.
5.88273 6.87573 0.
8.97455 10.5465 0.
-6.48036 -9.27595 0.
-2.47479 -3.2196 0.
-3.60815 -4.87813 0.
-0.820462 -1.15662 0.
0.883381 1.3614 0.
-39.0712 -62.7047 0.
3.89162 7.68003 0.
-2.04224 -4.06768 0.
-1.00554 -2.02187 0.
-16.9742 -32.8786 0.
-6.6841 -13.0632 0.
2.67115 5.27187 0.
3.95528 7.12498 0.
-16.3638 -29.5066 0.
-68.219 -122.892 0.
-9.51743 -21.2911 0.
-1.89295 -4.20747 0.
-40.356 -102.554 0.
-16.6039 -41.6235 0.
-27.0189 -66.5672 0.
-55.1796 -136.935 0.
-6.14997 -15.3509 0.
-28.8323 -72.1068 0.
-30.3785 -70.8859 0.
-0.511278 -1.14674 0.
-0.693523 -5.37946 0.
0.0284053 0.0783857 0.
-0.970618 -2.67645 0.
-0.964422 -2.63636 0.
-1.00078 -2.74019 0.
-0.624662 -1.71302 0.
1.19814 3.31864 0.
-0.586504 -1.62328 0.
-0.00510042 -4.37235 0.
0.273868 0.758533 0.
0.704473 1.94784 0.
-0.273133 -0.754268 0.
-0.0249278 -0.0690076 0.
1.40768 3.89879 0.
-0.425873 -1.17067 0.
0.906299 2.4979 0.
0.402067 1.1104 0.
-12.2632 -33.9508 0.
0.0299087 0.0827711 0.
0.95099 2.63007 0.
-4.14018 -11.4018 0.
-58.0845 -160.772 0.
2.76043 6.22714 0.
0.753393 1.7009 0.
-5.71306 -12.9057 0.
-24.9705 -62.1703 0.
-3.47041 -8.65915 0.
-58.2639 -145.098 0.
-3.85216 -9.46799 0.
0.677431 1.67157 0.
-17.8597 -44.272 0.
-21.2764 -44.1765 0.
-63.4229 -134.258 0.
-32.7404 -60.0701 0.
-0.805349 -1.44885 0.
4.14777 7.31224 0.
-23.42 -44.7163 0.
-11.3356 -21.4745 0.
2.15124 4.04518 0.
1.50464 2.82802 0.
2.03517 3.8089 0.
-1.88755 -3.51877 0.
-3.72678 -5.93183 0.
-2.73489 -4.15176 0.
1.36504 1.83917 0.
-0.872679 -1.13875 0.
6.48567 8.21406 0.
8.92936 10.3772 0.
10.2193 11.8995 0.
-4.03693 -4.70985 0.
-2.66528 -3.18386 0.
-1.3852 -1.65245 0.
-1.44387 -1.72017 0.
-68.0973 -83.8734 0.
-93.7394 -114.143 0.
-122.914 -151.855 0.
-52.563 -64.08 0.
-5.85697 -8.74898 0.
-13.1796 -16.3511 0.
-6.43668 -7.94985 0.
5.70007 7.0108 0.
-3.07872 -3.68765 0.
-0.632767 -0.715573 0.
-2.91209 -3.3034 0.
7.79892 8.87554 0.
-6.80554 -7.66713 0.
-8.10323 -9.24083 0.
-10.9601 -12.657 0.
4.42189 5.15521 0.
-0.545325 -0.635568 0.
0.914178 1.06835 0.
5.91276 6.88525 0.
6.84226 7.9373 0.
3.40481 3.91508 0.
4.89807 5.66116 0.
8.57446 9.96328 0.
6.80167 8.50055 0.
-261.419 -338.546 0.
-61.9543 -83.9219 0.
-19.5485 -30.0924 0.
-359.136 -578.2 0.
1.44262 2.81872 0.
-71.1665 -140.279 0.
-254.511 -504.972 0.
-65.4519 -123.23 0.
-78.3828 -148.701 0.
-170.979 -326.949 0.
5.24894 9.5741 0.
-66.5063 -121.095 0.
-45.9293 -83.8143 0.
-89.8212 -198.701 0.
-1.23484 -2.70921 0.
-92.5104 -236.225 0.
-39.2 -99.1618 0.
-9.28188 -23.1606 0.
-15.9919 -40.342 0.
-4.65135 -11.7639 0.
-20.3671 -51.6191 0.
-4.06124 -9.19117 0.
2.10528 4.56858 0.
2.89175 5.97119 0.
1.38012 3.81154 0.
-5.41176 -14.9343 0.
-2.48474 -6.78175 0.
-3.19917 -8.74675 0.
-2.75472 -7.54414 0.
1.22256 3.38625 0.
0.270153 0.747912 0.
0.311673 0.861386 0.
0.762329 2.11132 0.
-0.00558969 -4.32087 0.
0.168243 0.464535 0.
-0.00114327 -4.13374 0.
-0.220155 -0.609782 0.
1.04481 2.86647 0.
0.320208 0.881095 0.
-0.00719462 -4.09263 0.
-17.1168 -47.3798 0.
1.38905 3.84545 0.
-0.000418896 -3.66549 0.
-0.0430382 -3.70663 0.
-25.7396 -70.5394 0.
0.202412 0.450891 0.
-1.89682 -4.22981 0.
-0.927504 -2.07082 0.
-12.9323 -32.2122 0.
-3.54864 -8.85139 0.
-57.9572 -144.336 0.
-0.742325 -1.83074 0.
-17.9698 -44.5305 0.
-68.3215 -170.407 0.
-8.59574 -17.932 0.
-171.546 -359.715 0.
-26.538 -49.0923 0.
-69.269 -125.765 0.
2.61638 4.64751 0.
-218.812 -413.748 0.
-120.267 -225.457 0.
-53.2584 -99.1251 0.
-249.738 -456.509 0.
-40.904 -74.2936 0.
-17.0344 -30.8474 0.
-332.243 -518.652 0.
-3.59395 -5.35049 0.
-22.3886 -29.2126 0.
-212.059 -267.377 0.
1.65758 2.03286 0.
9.37973 10.6873 0.
-4.41482 -5.04244 0.
-4.67489 -5.35165 0.
1.87843 2.19916 0.
-2.79145 -3.26486 0.
7.52792 8.79661 0.
-9.31583 -10.8426 0.
-9.25121 -10.7626 0.
-2.90538 -3.44737 0.
-3.71147 -4.34527 0.
3.70337 4.27936 0.
5.38311 6.24592 0.
-0.483445 -0.557361 0.
-3.32709 -3.81216 0.
0.412596 0.487513 0.
-80.7025 -89.5295 0.
-32.8659 -36.563 0.
-23.7887 -26.5391 0.
-67.8677 -75.1355 0.
-75.4587 -84.5236 0.
-78.8545 -89.4075 0.
-70.1201 -80.2661 0.
-100.768 -115.237 0.
-65.0533 -73.9568 0.
-70.3664 -79.6151 0.
-49.6393 -55.9063 0.
-201.574 -227.456 0.
-49.6041 -56.3524 0.
1.29 1.47345 0.
-18.517 -22.1353 0.
-51.2695 -63.67 0.
-32.4122 -38.6452 0.
4.69825 6.47932 0.
-3.35249 -7.39156 0.
-1.02259 -1.73047 0.
-1.24935 -2.15165 0.
4.78917 8.41039 0.
2.47646 4.09399 0.
3.02564 5.10829 0.
2.85442 4.92227 0.
0.396956 0.697109 0.
1.20654 2.18045 0.
-53.7833 -99.904 0.
-8.50654 -19.3653 0.
-15.2356 -35.1424 0.
-49.7292 -131.959 0.
-51.8025 -135.638 0.
-56.4216 -145.445 0.
-55.2777 -143.367 0.
-30.4797 -78.9831 0.
-10.4541 -27.0627 0.
-132.421 -307.689 0.
-9.97628 -23.2207 0.
-20.6733 -47.9604 0.
-175.335 -485.647 0.
-0.00896537 -3.95223 0.
-69.9235 -191.613 0.
-14.969 -41.074 0.
-30.9004 -84.8846 0.
-85.1761 -235.834 0.
-31.5382 -87.2153 0.
-23.9998 -66.2171 0.
-84.8309 -234.924 0.
-77.9327 -215.636 0.
-29.7483 -82.1707 0.
-45.2143 -125.128 0.
-90.9109 -251.796 0.
-22.61 -62.2738 0.
-42.9573 -118.155 0.
-103.811 -285.064 0.
-49.1993 -135.865 0.
-48.2544 -133.597 0.
-54.3767 -150.6 0.
-15.4705 -41.8502 0.
-262.254 -721.214 0.
-11.009 -24.8204 0.
-8.41227 -19.0607 0.
-108.494 -246.985 0.
-2.47167 -6.33456 0.
-20.5725 -53.0198 0.
-46.2204 -119.73 0.
1.1471 2.93162 0.
-30.9913 -79.4998 0.
-62.2065 -160.248 0.
-73.0054 -157.278 0.
-39.1038 -84.2721 0.
-1.07667 -1.95498 0.
1.97178 3.45526 0.
3.85765 6.52734 0.
0.92775 1.61325 0.
2.08575 3.55733 0.
-1.44808 -2.42266 0.
0.119217 0.188879 0.
3.17616 4.95149 0.
-0.100598 -0.154427 0.
-0.840615 -1.16217 0.
6.02712 8.16159 0.
-132.507 -166.793 0.
-123.66 -150.708 0.
-7.32446 -8.67731 0.
-12.1214 -13.5412 0.
-33.672 -37.7218 0.
-250.879 -281.82 0.
-65.3501 -74.8976 0.
-95.7104 -109.635 0.
-85.4764 -97.9115 0.
-107.608 -123.178 0.
-118.291 -135.39 0.
-88.3702 -103.329 0.
-41.3843 -47.7197 0.
-66.0238 -75.1837 0.
-37.1845 -42.1764 0.
-26.5901 -29.9756 0.
-39.7293 -44.5485 0.
-2.23138 -2.4538 0.
0.350425 0.363295 0.
-2.99651 -3.08038 0.
-3.96174 -4.03663 0.
-5.34406 -5.41476 0.
-0.635695 -0.645396 0.
-3.13348 -3.19415 0.
8.27973 8.58608 0.
-4.13869 -4.29846 0.
8.84522 9.28121 0.
-0.113183 -0.121217 0.
-0.717282 -0.784623 0.
-5.84664 -6.38412 0.
8.88886 9.56474 0.
2.26401 2.39834 0.
-0.985822 -1.11577 0.
-3.21478 -3.74428 0.
-25.8278 -30.9353 0.
3.73864 5.17846 0.
1.61575 2.32139 0.
0.710482 1.15061 0.
1.03899 1.70946 0.
2.56609 4.29716 0.
-5.35532 -8.78703 0.
-6.58209 -11.0337 0.
-51.7441 -88.3608 0.
1.43736 2.53441 0.
-97.2797 -176.58 0.
-126.989 -237.14 0.
-81.2684 -186.9 0.
-65.0759 -151.619 0.
-33.3144 -87.9503 0.
-27.5003 -71.6335 0.
-22.233 -57.0398 0.
-37.6626 -97.2497 0.
-7.39 -19.0669 0.
-1.48493 -3.82619 0.
-21.562 -49.916 0.
-16.6656 -38.4734 0.
-8.69638 -20.0173 0.
-0.377803 -1.04284 0.
-0.0206366 -2.85441 0.
0.479568 1.32429 0.
-7.99899 -22.096 0.
-33.1945 -91.7238 0.
0.769238 2.13066 0.
0.287731 0.796506 0.
-3.39095 -9.37181 0.
1.71928 4.76193 0.
-4.34675 -12.0324 0.
-10.4166 -28.8161 0.
0.136615 0.378357 0.
-0.228088 -0.631632 0.
-22.9632 -63.5163 0.
-5.31506 -14.6966 0.
0.309354 0.854989 0.
-10.7619 -29.6296 0.
1.43733 3.97424 0.
-7.40094 -20.4971 0.
0.570212 1.52704 0.
-1.77882 -4.82678 0.
-13.8558 -31.1473 0.
-12.7023 -28.6945 0.
-31.2198 -70.8721 0.
-4.55369 -11.6935 0.
-24.4902 -63.2315 0.
-44.7727 -116.202 0.
-15.2572 -38.7667 0.
-35.3211 -90.0125 0.
-55.6863 -142.403 0.
-188.478 -408.971 0.
-60.0049 -130.401 0.
-92.1425 -166.5 0.
-79.6575 -138.403 0.
-0.0791869 -0.132201 0.
-28.1224 -48.4132 0.
0.726077 1.22759 0.
-2.0428 -6.60259 0.
-0.124784 -0.193735 0.
-2.69967 -7.02669 0.
-7.00732 -10.5425 0.
-2.03887 -2.79703 0.
2.59279 3.48193 0.
-42.2443 -51.013 0.
5.89826 6.93638 0.
-4.75459 -6.33033 0.
-6.65038 -6.9701 0.
0.912021 0.959703 0.
0.0785295 0.0829392 0.
2.27198 2.43596 0.
8.17827 8.61614 0.
-1.48144 -1.53452 0.
-3.72079 -3.80335 0.
-2.18562 -2.23553 0.
-3.24703 -3.34088 0.
5.69665 5.92592 0.
-6.70704 -7.45018 0.
3.94948 4.13251 0.
5.03278 5.23275 0.
-5.25924 -5.64007 0.
0.38482 0.406393 0.
-4.45045 -4.51097 0.
-6.42635 -6.49072 0.
6.8479 6.81575 0.
-15.0578 -14.8314 0.
8.62852 8.50857 0.
-1.25499 -1.26116 0.
9.23018 9.27929 0.
-84.2604 -84.7245 0.
3.5583 3.67906 0.
-1.27722 -1.34814 0.
-286.545 -308.729 0.
-61.9954 -65.4442 0.
-19.6191 -20.3827 0.
-52.9429 -54.0731 0.
-5.17304 -6.78927 0.
-98.0995 -114.495 0.
-36.012 -43.326 0.
4.54747 6.32828 0.
-182.613 -266.083 0.
-90.1447 -139.255 0.
-69.5723 -108.947 0.
-117.779 -187.208 0.
-122.84 -198.328 0.
-81.7123 -135.119 0.
-53.5077 -90.6516 0.
3.24785 5.75128 0.
2.42115 4.41979 0.
-37.2322 -68.7115 0.
-32.8289 -73.4652 0.
-52.7662 -117.356 0.
-32.3803 -81.6494 0.
-0.922106 -2.33647 0.
-9.35124 -23.8326 0.
-38.0029 -98.5158 0.
-35.7808 -92.4003 0.
-31.6716 -81.461 0.
-71.0958 -163.9 0.
-14.6571 -33.5363 0.
-7.10426 -16.1254 0.
-82.906 -227.728 0.
-1.03073 -2.82799 0.
-44.8225 -123.236 0.
-31.7469 -87.9032 0.
-32.5266 -89.88 0.
-39.045 -107.967 0.
-9.9722 -27.5496 0.
-26.2906 -72.5361 0.
-45.5258 -126.035 0.
-37.5866 -104.011 0.
-9.17153 -25.3966 0.
-13.908 -38.5065 0.
-47.6192 -131.802 0.
-46.1968 -127.185 0.
-20.1517 -55.7176 0.
-21.8998 -60.655 0.
-32.3942 -89.5163 0.
-42.741 -118.377 0.
-58.8298 -162.776 0.
-0.0782241 -5.84384 0.
-58.0632 -156.38 0.
-14.086 -31.1962 0.
-52.0295 -116.264 0.
-97.657 -220.638 0.
2.51536 6.45956 0.
-13.0992 -33.7997 0.
-45.6455 -118.289 0.
0.23796 0.599144 0.
2.65929 6.71 0.
-14.9451 -37.7369 0.
-65.0481 -140.833 0.
1.65045 3.57423 0.
-65.1364 -116.262 0.
-9.80763 -16.7677 0.
4.45861 7.3329 0.
-23.1651 -39.5395 0.
-84.9548 -141.61 0.
-116.968 -191.11 0.
-157.565 -238.138 0.
-92.6673 -138.234 0.
-104.115 -153.057 0.
-162.101 -222.559 0.
-2.81056 -3.74215 0.
-47.3658 -57.2663 0.
-70.1794 -82.3361 0.
4.90022 5.5981 0.
-33.1392 -33.6015 0.
-62.6563 -63.8511 0.
-94.7588 -97.0644 0.
-277.043 -290.168 0.
-20.5471 -21.1796 0.
-1.8432 -1.86907 0.
-20.3588 -20.1864 0.
-5.97384 -5.93326 0.
-4.66028 -4.63548 0.
-4.56544 -4.55813 0.
3.97932 4.01902 0.
-4.77421 -4.91955 0.
-2.49005 -2.55034 0.
-3.80574 -3.8748 0.
-9.62861 -9.77215 0.
-34.2113 -33.9112 0.
-16.0638 -15.7764 0.
7.21207 7.01424 0.
-52.5296 -50.2832 0.
-77.0728 -73.8029 0.
-86.102 -83.9322 0.
-40.5556 -39.5085 0.
4.66446 4.23316 0.
6.48485 6.09269 0.
0.328838 0.309331 0.
-6.17384 -5.43659 0.
1.15395 1.07844 0.
-6.90299 -6.13261 0.
7.13392 6.83415 0.
7.54299 8.34037 0.
4.57701 5.29364 0.
-13.7575 -16.6797 0.
3.45426 4.8775 0.
-2.37461 -5.53687 0.
-0.61962 -0.982402 0.
2.83029 4.63297 0.
-6.8537 -11.5584 0.
-14.3123 -24.6647 0.
-18.847 -32.289 0.
-31.1751 -53.0744 0.
-1.44793 -2.58141 0.
0.700244 1.27999 0.
-39.4709 -73.9898 0.
-12.8717 -29.1578 0.
-32.9951 -74.271 0.
1.61182 4.0657 0.
0.208648 0.52942 0.
-1.92954 -4.92396 0.
-18.7035 -48.3001 0.
-9.24575 -23.7834 0.
-5.12713 -13.1344 0.
-7.47553 -17.3151 0.
-3.20273 -7.36013 0.
-1.65761 -3.77915 0.
-0.937547 -2.56319 0.
0.598906 1.63426 0.
-0.447792 -1.23165 0.
-2.77453 -7.6814 0.
-2.35589 -6.51485 0.
-0.0406891 -0.112663 0.
-4.16344 -11.521 0.
-18.3426 -50.7144 0.
-6.21908 -17.2146 0.
-5.84843 -16.1813 0.
-8.4498 -23.4038 0.
-3.42549 -9.48726 0.
0.745732 2.06523 0.
-6.20144 -17.1178 0.
-0.550449 -1.52361 0.
0.141875 0.392948 0.
-0.00312289 -0.00863537 0.
1.01267 2.80489 0.
1.77741 4.91728 0.
-0.0953434 -5.58626 0.
0.0877007 0.234241 0.
2.0579 4.59896 0.
1.31794 2.96977 0.
-7.18182 -16.3204 0.
0.317942 0.810995 0.
2.37061 6.07683 0.
-36.6092 -94.2764 0.
-0.432576 -1.08741 0.
-0.309603 -7.38768 0.
-7.61474 -19.2089 0.
-29.3319 -64.3516 0.
1.45978 3.19613 0.
-45.4624 -81.1642 0.
-2.08192 -3.61658 0.
0.610071 1.03066 0.
-0.0648475 -0.112453 0.
2.9293 5.08495 0.
-1.43882 -2.49928 0.
-21.9234 -35.7243 0.
0.4216 0.666375 0.
3.99755 6.11251 0.
1.2711 1.70048 0.
1.06602 1.36255 0.
-1.59656 -1.83267 0.
2.94607 3.22849 0.
0.103608 0.108656 0.
3.26709 2.98408 0.
3.05686 2.78711 0.
-0.205863 -0.187365 0.
-6.84389 -5.8267 0.
-0.483292 -0.450018 0.
3.28349 3.06971 0.
2.90211 2.7919 0.
-4.87683 -4.70317 0.
-52.4459 -50.6711 0.
-29.8661 -28.6337 0.
-67.0171 -65.0742 0.
-5.49178 -5.57185 0.
-25.0109 -25.2199 0.
-32.5649 -32.6509 0.
3.93046 3.468 0.
-2.43105 -2.21302 0.
-6.05782 -4.89903 0.
-1.43431 -1.29086 0.
0.295179 0.264316 0.
-5.64684 -5.02872 0.
8.22724 7.39005 0.
-4.02929 -3.59254 0.
-1.00646 -0.890606 0.
4.66663 4.21637 0.
-6.91962 -5.56668 0.
-5.82836 -4.68446 0.
6.73287 6.19958 0.
2.7044 2.52036 0.
-13.5672 -12.8024 0.
6.1119 6.58809 0.
-2.11008 -2.38304 0.
-109.979 -130.373 0.
1.02332 1.3935 0.
-53.2208 -75.0123 0.
-1.9244 -3.08082 0.
-1.74844 -2.8918 0.
-71.038 -120.772 0.
-10.3898 -17.8943 0.
-12.0818 -20.6925 0.
-94.2519 -160.042 0.
-1.21972 -2.20933 0.
2.05408 3.81513 0.
-49.9844 -95.2786 0.
-0.0190623 -0.0436959 0.
-31.9814 -72.8376 0.
-14.217 -35.9154 0.
-4.85526 -12.3376 0.
-3.71289 -9.48863 0.
-14.7523 -37.9452 0.
-4.36415 -11.1802 0.
2.15862 5.5066 0.
1.71086 3.97904 0.
3.08407 7.11726 0.
0.202395 0.463381 0.
-1.06989 -2.90763 0.
-0.792029 -2.14718 0.
0.522068 1.43654 0.
0.878844 2.4329 0.
-0.222835 -0.616505 0.
0.152089 0.421259 0.
-1.63273 -4.52176 0.
-13.1416 -36.3803 0.
-4.54246 -12.5729 0.
-1.33637 -3.69718 0.
-10.3229 -28.5918 0.
-3.18089 -8.81045 0.
1.07461 2.97648 0.
1.25968 3.48221 0.
-0.719264 -1.99189 0.
0.688607 1.90662 0.
1.42675 3.94702 0.
-0.737171 -2.04183 0.
-0.471687 -1.3047 0.
-0.106763 -5.05848 0.
2.05393 5.43915 0.
2.85465 6.43322 0.
-1.19346 -2.7114 0.
0.496624 1.13769 0.
1.93116 4.89216 0.
2.3122 5.88796 0.
-34.3649 -87.93 0.
1.44364 3.62359 0.
-4.84663 -12.1864 0.
-18.2485 -45.9371 0.
-54.0036 -119.77 0.
-0.890754 -1.97152 0.
-83.0636 -151.724 0.
3.66168 6.50685 0.
-2.30668 -3.9878 0.
-112.894 -190.063 0.
-5.68505 -9.62026 0.
-10.764 -18.2408 0.
-107.963 -176.705 0.
-4.16405 -6.64642 0.
-1.85456 -2.86004 0.
-70.4639 -91.4425 0.
0.564475 0.69769 0.
-97.5473 -109.743 0.
0.502801 0.538234 0.
-5.26733 -5.52498 0.
-5.33916 -4.82186 0.
9.11544 8.21811 0.
8.99111 8.09347 0.
-0.93468 -0.829732 0.
-3.65469 -3.26425 0.
7.82587 7.03071 0.
4.38706 3.89544 0.
5.41043 4.82844 0.
-5.05499 -4.5329 0.
7.53447 6.67628 0.
0.377518 0.336374 0.
-0.0989925 -0.0883929 0.
-2.96974 -2.68797 0.
-1.90465 -1.74614 0.
5.20653 4.46133 0.
-23.2993 -20.7289 0.
-4.45279 -3.93821 0.
-5.26891 -4.63013 0.
-32.1385 -28.4493 0.
5.93284 5.22434 0.
-3.80808 -3.33977 0.
-7.99452 -6.95693 0.
-79.8357 -68.8664 0.
6.47424 5.62478 0.
-24.6214 -21.3418 0.
-58.5628 -50.6354 0.
-8.88289 -8.05409 0.
-43.6358 -40.0319 0.
-93.6054 -86.9249 0.
-2.0664 -2.16529 0.
-21.5319 -23.6769 0.
-3.01862 -3.22472 0.
3.18045 3.88496 0.
-5.5949 -7.18736 0.
1.61324 2.4367 0.
0.41377 0.64015 0.
-5.67808 -8.9958 0.
-2.00122 -3.18779 0.
1.48542 2.36133 0.
-4.17379 -6.62046 0.
-0.7955 -1.38148 0.
-0.834415 -1.50845 0.
-7.32333 -13.7549 0.
-0.467131 -1.05368 0.
-4.08652 -9.28199 0.
-13.1519 -33.2782 0.
1.54509 3.90818 0.
-0.390397 -0.986882 0.
-4.70867 -11.9093 0.
-1.27328 -3.21421 0.
-1.89127 -4.76465 0.
-0.274291 -0.637018 0.
-15.4295 -35.7121 0.
-26.1218 -60.2727 0.
-1.48605 -4.02536 0.
-2.01716 -5.45617 0.
-21.1044 -58.2195 0.
-1.77267 -4.90386 0.
-0.331256 -0.917474 0.
-20.8334 -57.613 0.
-8.61428 -23.8472 0.
1.24398 3.4455 0.
-16.8785 -46.7502 0.
-0.000851953 -6.08105 0.
-20.515 -56.8066 0.
-2.78637 -7.71206 0.
1.81356 5.01609 0.
0.939798 2.60293 0.
-8.68875 -24.0584 0.
-28.6105 -79.0987 0.
0.295886 0.819244 0.
1.06278 2.94371 0.
-15.4371 -42.7463 0.
-7.15864 -18.9002 0.
-21.421 -56.7038 0.
-8.82838 -20.1589 0.
-15.2003 -34.7623 0.
-0.645692 -1.47917 0.
-1.57747 -3.93389 0.
0.984489 2.46468 0.
-7.98627 -20.0681 0.
-0.379945 -7.42263 0.
-1.50032 -3.71618 0.
-11.4637 -28.4582 0.
1.12014 2.43449 0.
0.9637 2.04893 0.
-6.81084 -11.9227 0.
-0.842639 -1.43145 0.
3.86994 6.36982 0.
-1.08315 -1.66024 0.
3.59105 5.48194 0.
2.47036 3.75592 0.
-12.552 -19.0484 0.
0.639568 0.944386 0.
0.145639 0.20917 0.
-41.5248 -48.7641 0.
-4.38839 -5.22576 0.
-113.736 -124.867 0.
-16.8725 -17.5986 0.
3.45422 3.43624 0.
-103.701 -92.6844 0.
-55.8562 -49.8004 0.
1.13211 1.00771 0.
-38.3561 -32.6044 0.
-15.1743 -13.0042 0.
2.56804 2.21737 0.
-49.4828 -42.8216 0.
-31.2939 -27.2427 0.
-27.6387 -24.1935 0.
-7.34468 -5.56851 0.
-55.495 -49.0307 0.
1.91279 1.65681 0.
6.53404 5.74202 0.
-11.2679 -10.0325 0.
0.529134 0.370917 0.
-4.05657 -3.2603 0.
1.27709 1.01555 0.
-0.71237 -0.560412 0.
-6.27337 -3.98405 0.
1.82045 1.45772 0.
-2.09286 -1.66317 0.
6.72155 5.31529 0.
-6.91715 -4.113 0.
5.68851 4.48115 0.
-4.92554 -3.88197 0.
-21.383 -16.8604 0.
-6.35382 -4.5329 0.
-1.87701 -1.61492 0.
-0.502442 -0.435405 0.
4.75567 4.4685 0.
2.14983 2.1302 0.
-11.993 -12.5669 0.
3.04149 3.7755 0.
-6.09282 -7.97241 0.
1.75093 2.64752 0.
0.725531 1.1244 0.
-32.7935 -52.0784 0.
-2.1522 -6.29542 0.
-2.09854 -3.34688 0.
1.21175 1.92857 0.
-1.79054 -3.14396 0.
0.998277 1.82731 0.
-34.2651 -65.3066 0.
-1.81872 -4.10425 0.
-18.8054 -42.7284 0.
-10.4832 -26.5399 0.
-0.351829 -0.890468 0.
1.36378 3.4499 0.
-2.65885 -6.71727 0.
-1.00483 -2.53362 0.
-2.48638 -6.25663 0.
1.89229 4.41873 0.
0.959871 2.23479 0.
-4.98409 -11.5695 0.
0.039349 0.106435 0.
-1.80425 -4.87304 0.
-0.526679 -1.45335 0.
-1.09568 -3.03131 0.
1.06737 2.95629 0.
-2.72234 -7.53545 0.
1.16158 3.2171 0.
2.01585 5.58323 0.
0.602306 1.66821 0.
-0.610276 -1.69001 0.
-0.45673 -1.26426 0.
-1.15237 -3.18784 0.
0.0911878 0.252038 0.
2.29464 6.35473 0.
1.19601 3.31226 0.
1.74327 4.82214 0.
0.298056 0.824952 0.
0.187334 0.518838 0.
-0.927462 -2.56873 0.
-5.09562 -13.435 0.
-12.4529 -32.9212 0.
1.77473 4.06267 0.
1.06354 2.43852 0.
-0.977692 -2.24528 0.
-4.16051 -10.3561 0.
0.788166 1.96956 0.
-6.75591 -16.9456 0.
2.45453 6.06111 0.
-7.17616 -17.7609 0.
-23.6033 -58.528 0.
1.45307 3.17398 0.
3.43371 7.33335 0.
-44.9941 -80.083 0.
2.36801 4.08657 0.
4.15311 6.94039 0.
4.31514 6.60811 0.
0.830878 1.26721 0.
2.45412 3.72764 0.
-54.3157 -82.6687 0.
3.91901 5.80272 0.
3.77451 5.4311 0.
-38.9639 -46.3976 0.
2.86585 3.22228 0.
-35.4338 -35.3814 0.
-1.39422 -1.32644 0.
2.44181 2.2223 0.
9.06786 7.70079 0.
0.469189 0.397302 0.
3.2713 2.76193 0.
-43.002 -33.431 0.
7.82901 6.08244 0.
3.04976 2.3682 0.
5.09319 3.96702 0.
3.54551 2.77654 0.
6.57972 5.17957 0.
-6.64789 -4.05632 0.
-4.0314 -3.23711 0.
5.34497 3.8711 0.
-2.56038 -1.92411 0.
-18.4163 -14.3546 0.
