# vtk DataFile Version 2.0
test grain
ASCII
DATASET UNSTRUCTURED_GRID
POINTS 5000 float
0.497751 0.000610685 0.
0.50059 0.000796228 0.
0.503071 0.000863897 0.
0.505533 0.000929591 0.
0.507651 0.00094626 0.
0.509771 0.000963261 0.
0.511861 0.000975857 0.
0.513904 0.000980762 0.
0.515947 0.000985691 0.
0.517969 0.000989517 0.
0.519979 0.00099278 0.
0.52199 0.000996053 0.
0.523993 0.000996872 0.
0.525994 0.000997375 0.
0.527996 0.000997848 0.
0.529997 0.00099808 0.
0.531997 0.000998313 0.
0.533998 0.000998547 0.
0.535999 0.000998785 0.
0.537999 0.000999024 0.
0.539999 0.000999166 0.
0.541999 0.000999231 0.
0.543999 0.000999296 0.
0.546 0.000999306 0.
0.548 0.0009993 0.
0.55 0.000999295 0.
0.552 0.000999268 0.
0.553999 0.000999242 0.
0.555999 0.000999231 0.
0.557999 0.000999274 0.
0.559999 0.000999316 0.
0.561999 0.000999348 0.
0.563999 0.000999367 0.
0.565999 0.000999386 0.
0.567999 0.000999394 0.
0.569999 0.000999395 0.
0.571999 0.000999396 0.
0.573999 0.000999345 0.
0.575999 0.000999288 0.
0.577999 0.000999241 0.
0.579999 0.000999274 0.
0.581999 0.000999308 0.
0.583999 0.000999332 0.
0.585999 0.000999336 0.
0.587999 0.00099934 0.
0.589999 0.000999439 0.
0.591999 0.000999615 0.
0.593999 0.00099979 0.
0.595999 0.000999468 0.
0.598 0.000999005 0.
0.6 0.000998541 0.
0.602001 0.000998996 0.
0.604001 0.000999451 0.
0.606001 0.000999768 0.
0.608001 0.0009996 0.
0.610001 0.000999432 0.
0.612001 0.000999338 0.
0.614001 0.000999334 0.
0.616001 0.00099933 0.
0.618001 0.000999306 0.
0.620001 0.000999272 0.
0.622001 0.000999238 0.
0.624001 0.000999275 0.
0.626001 0.000999322 0.
0.628001 0.000999364 0.
0.630001 0.00099937 0.
0.632001 0.000999376 0.
0.634 0.000999375 0.
0.636 0.000999359 0.
0.638 0.000999342 0.
0.640001 0.000999306 0.
0.642001 0.000999254 0.
0.644001 0.000999203 0.
0.646001 0.000999207 0.
0.648 0.000999228 0.
0.65 0.00099925 0.
0.652 0.000999271 0.
0.654001 0.000999292 0.
0.656001 0.000999286 0.
0.658001 0.000999184 0.
0.660001 0.000999083 0.
0.662001 0.000998826 0.
0.664002 0.000998374 0.
0.666003 0.000997923 0.
0.668004 0.000997735 0.
0.670005 0.000997679 0.
0.672006 0.000997623 0.
0.674009 0.000996616 0.
0.676011 0.000995495 0.
0.678016 0.000993946 0.
0.680036 0.000989105 0.
0.682056 0.000984287 0.
0.684089 0.000979177 0.
0.686149 0.000973431 0.
0.688209 0.000967719 0.
0.690373 0.000940585 0.
0.692592 0.000903186 0.
0.694833 0.000864421 0.
0.697633 0.000762911 0.
0.70044 0.000663958 0.
0.495703 0.00157824 0.
0.499073 0.00229437 0.
0.501941 0.00255684 0.
0.504764 0.0027725 0.
0.507133 0.00283034 0.
0.509431 0.00288397 0.
0.511664 0.00292702 0.
0.513758 0.00294187 0.
0.515853 0.00295679 0.
0.517907 0.00296839 0.
0.519939 0.00297823 0.
0.52197 0.00298809 0.
0.523978 0.00299061 0.
0.525982 0.00299212 0.
0.527987 0.00299354 0.
0.52999 0.00299424 0.
0.531992 0.00299494 0.
0.533995 0.00299564 0.
0.535996 0.00299636 0.
0.537997 0.00299707 0.
0.539998 0.0029975 0.
0.541998 0.00299769 0.
0.543998 0.00299789 0.
0.545999 0.00299792 0.
0.547999 0.0029979 0.
0.549999 0.00299788 0.
0.551999 0.00299781 0.
0.553998 0.00299773 0.
0.555998 0.00299769 0.
0.557998 0.00299782 0.
0.559998 0.00299795 0.
0.561998 0.00299804 0.
0.563998 0.0029981 0.
0.565998 0.00299816 0.
0.567998 0.00299818 0.
0.569998 0.00299818 0.
0.571998 0.00299819 0.
0.573998 0.00299804 0.
0.575998 0.00299786 0.
0.577997 0.00299772 0.
0.579997 0.00299782 0.
0.581997 0.00299792 0.
0.583997 0.002998 0.
0.585997 0.00299801 0.
0.587997 0.00299802 0.
0.589996 0.00299832 0.
0.591996 0.00299884 0.
0.593996 0.00299937 0.
0.595997 0.00299841 0.
0.597999 0.00299701 0.
0.6 0.00299562 0.
0.602002 0.00299699 0.
0.604003 0.00299835 0.
0.606004 0.0029993 0.
0.608004 0.0029988 0.
0.610003 0.0029983 0.
0.612003 0.00299801 0.
0.614003 0.002998 0.
0.616003 0.00299799 0.
0.618003 0.00299792 0.
0.620003 0.00299782 0.
0.622003 0.00299771 0.
0.624002 0.00299783 0.
0.626002 0.00299797 0.
0.628002 0.00299809 0.
0.630002 0.00299811 0.
0.632002 0.00299813 0.
0.634001 0.00299812 0.
0.636001 0.00299808 0.
0.638001 0.00299803 0.
0.640002 0.00299792 0.
0.642002 0.00299776 0.
0.644002 0.00299761 0.
0.646002 0.00299762 0.
0.648001 0.00299769 0.
0.650001 0.00299775 0.
0.652001 0.00299781 0.
0.654002 0.00299788 0.
0.656002 0.00299786 0.
0.658002 0.00299755 0.
0.660002 0.00299725 0.
0.662004 0.00299648 0.
0.664006 0.00299512 0.
0.666008 0.00299377 0.
0.668011 0.00299321 0.
0.670015 0.00299304 0.
0.672019 0.00299287 0.
0.674027 0.00298982 0.
0.676034 0.00298645 0.
0.678048 0.0029817 0.
0.680104 0.00296706 0.
0.682159 0.0029525 0.
0.684241 0.0029371 0.
0.686367 0.00291968 0.
0.688492 0.00290237 0.
0.690899 0.00280424 0.
0.693388 0.00268559 0.
0.696105 0.00252302 0.
0.699273 0.00220752 0.
0.702559 0.00169844 0.
0.493314 0.00220457 0.
0.496969 0.00339526 0.
0.500615 0.00420073 0.
0.503808 0.0045742 0.
0.506566 0.00470217 0.
0.509057 0.0047962 0.
0.511463 0.00487744 0.
0.513609 0.0049024 0.
0.515756 0.0049275 0.
0.517845 0.00494705 0.
0.519897 0.00496352 0.
0.52195 0.00498005 0.
0.523963 0.00498433 0.
0.52597 0.00498685 0.
0.527978 0.00498924 0.
0.529983 0.0049904 0.
0.531987 0.00499156 0.
0.533991 0.00499273 0.
0.535993 0.00499392 0.
0.537995 0.00499512 0.
0.539996 0.00499583 0.
0.541997 0.00499616 0.
0.543997 0.00499648 0.
0.545998 0.00499653 0.
0.547998 0.0049965 0.
0.549998 0.00499647 0.
0.551998 0.00499634 0.
0.553997 0.00499621 0.
0.555997 0.00499616 0.
0.557997 0.00499637 0.
0.559997 0.00499658 0.
0.561997 0.00499674 0.
0.563997 0.00499684 0.
0.565997 0.00499693 0.
0.567997 0.00499697 0.
0.569997 0.00499697 0.
0.571997 0.00499698 0.
0.573997 0.00499673 0.
0.575996 0.00499644 0.
0.577996 0.0049962 0.
0.579995 0.00499637 0.
0.581995 0.00499654 0.
0.583995 0.00499666 0.
0.585995 0.00499668 0.
0.587995 0.0049967 0.
0.589994 0.0049972 0.
0.591993 0.00499807 0.
0.593993 0.00499895 0.
0.595995 0.00499734 0.
0.597998 0.00499502 0.
0.6 0.00499271 0.
0.602003 0.00499498 0.
0.604005 0.00499726 0.
0.606007 0.00499884 0.
0.608006 0.004998 0.
0.610006 0.00499716 0.
0.612005 0.00499669 0.
0.614005 0.00499667 0.
0.616005 0.00499665 0.
0.618004 0.00499653 0.
0.620004 0.00499636 0.
0.622004 0.00499619 0.
0.624004 0.00499638 0.
0.626003 0.00499661 0.
0.628003 0.00499682 0.
0.630003 0.00499685 0.
0.632003 0.00499688 0.
0.634002 0.00499687 0.
0.636002 0.00499679 0.
0.638002 0.00499671 0.
0.640003 0.00499653 0.
0.642003 0.00499627 0.
0.644003 0.00499601 0.
0.646003 0.00499604 0.
0.648002 0.00499614 0.
0.650002 0.00499625 0.
0.652002 0.00499635 0.
0.654003 0.00499646 0.
0.656003 0.00499643 0.
0.658003 0.00499592 0.
0.660004 0.00499541 0.
0.662006 0.00499412 0.
0.664009 0.00499186 0.
0.666013 0.00498961 0.
0.668018 0.00498868 0.
0.670025 0.0049884 0.
0.672033 0.00498812 0.
0.674045 0.004983 0.
0.676058 0.00497737 0.
0.678081 0.00496927 0.
0.680173 0.00494468 0.
0.682264 0.00492022 0.
0.684397 0.00489445 0.
0.686592 0.00486511 0.
0.688785 0.00483595 0.
0.691508 0.00464195 0.
0.694296 0.00443285 0.
0.697676 0.00406893 0.
0.701309 0.00347337 0.
0.705072 0.00232775 0.
0.490385 0.00236141 0.
0.494663 0.00404576 0.
0.498817 0.00531532 0.
0.502194 0.00583217 0.
0.505353 0.00615603 0.
0.50801 0.00635212 0.
0.510651 0.0065529 0.
0.512965 0.00664832 0.
0.515275 0.00673932 0.
0.517502 0.0068102 0.
0.519637 0.0068558 0.
0.521774 0.00690218 0.
0.523836 0.00692755 0.
0.525882 0.00694907 0.
0.527926 0.00696926 0.
0.529941 0.00697215 0.
0.531956 0.00697504 0.
0.533969 0.00697836 0.
0.535977 0.00698258 0.
0.537984 0.00698681 0.
0.539989 0.00698958 0.
0.541992 0.00699116 0.
0.543994 0.00699274 0.
0.545995 0.0069934 0.
0.547995 0.00699379 0.
0.549996 0.00699419 0.
0.551996 0.00699408 0.
0.553995 0.00699398 0.
0.555995 0.00699397 0.
0.557995 0.00699429 0.
0.559996 0.00699462 0.
0.561996 0.00699487 0.
0.563996 0.00699501 0.
0.565996 0.00699515 0.
0.567996 0.00699518 0.
0.569996 0.00699517 0.
0.571996 0.00699516 0.
0.573995 0.00699491 0.
0.575994 0.00699463 0.
0.577994 0.0069944 0.
0.579994 0.00699462 0.
0.581993 0.00699484 0.
0.583993 0.00699501 0.
0.585993 0.00699509 0.
0.587992 0.00699517 0.
0.589992 0.00699561 0.
0.591991 0.00699635 0.
0.59399 0.00699709 0.
0.595993 0.00699555 0.
0.597997 0.00699335 0.
0.6 0.00699116 0.
0.602004 0.00699328 0.
0.604007 0.00699541 0.
0.60601 0.0069969 0.
0.608009 0.00699619 0.
0.610008 0.00699548 0.
0.612007 0.00699506 0.
0.614007 0.00699499 0.
0.616007 0.00699492 0.
0.618006 0.00699476 0.
0.620006 0.00699454 0.
0.622006 0.00699433 0.
0.624005 0.00699449 0.
0.626005 0.00699471 0.
0.628004 0.00699491 0.
0.630004 0.00699497 0.
0.632004 0.00699503 0.
0.634004 0.00699503 0.
0.636004 0.0069949 0.
0.638004 0.00699477 0.
0.640004 0.00699448 0.
0.642005 0.00699407 0.
0.644005 0.00699366 0.
0.646005 0.00699361 0.
0.648004 0.00699366 0.
0.650004 0.0069937 0.
0.652005 0.00699309 0.
0.654006 0.00699247 0.
0.656008 0.00699149 0.
0.658011 0.00698926 0.
0.660015 0.00698702 0.
0.662022 0.00698306 0.
0.664033 0.006977 0.
0.666044 0.00697094 0.
0.668062 0.00696709 0.
0.670083 0.00696424 0.
0.672104 0.00696139 0.
0.674173 0.00692933 0.
0.676245 0.00689553 0.
0.67834 0.00685789 0.
0.680527 0.00679905 0.
0.68271 0.00674138 0.
0.685028 0.00664871 0.
0.687433 0.00653699 0.
0.689923 0.0063799 0.
0.692852 0.00601469 0.
0.695913 0.00564834 0.
0.699556 0.00515077 0.
0.703827 0.00415049 0.
0.707892 0.00259222 0.
0.487373 0.00232997 0.
0.492118 0.00430881 0.
0.496344 0.00580469 0.
0.500309 0.00687432 0.
0.503758 0.00746189 0.
0.5068 0.00782858 0.
0.509669 0.00816403 0.
0.51224 0.00836143 0.
0.514733 0.00852704 0.
0.517138 0.00866661 0.
0.519361 0.00874322 0.
0.521588 0.00882116 0.
0.523705 0.00886907 0.
0.525791 0.0089101 0.
0.527875 0.00894919 0.
0.5299 0.00895382 0.
0.531924 0.00895846 0.
0.533946 0.00896391 0.
0.53596 0.00897119 0.
0.537973 0.00897847 0.
0.539982 0.00898332 0.
0.541986 0.00898615 0.
0.54399 0.00898898 0.
0.545992 0.00899026 0.
0.547993 0.00899108 0.
0.549994 0.0089919 0.
0.551994 0.00899182 0.
0.553994 0.00899174 0.
0.555993 0.00899178 0.
0.557994 0.00899222 0.
0.559994 0.00899267 0.
0.561994 0.00899299 0.
0.563994 0.00899318 0.
0.565994 0.00899336 0.
0.567994 0.0089934 0.
0.569994 0.00899337 0.
0.571994 0.00899334 0.
0.573993 0.00899309 0.
0.575993 0.00899281 0.
0.577992 0.0089926 0.
0.579992 0.00899286 0.
0.581991 0.00899313 0.
0.583991 0.00899336 0.
0.58599 0.0089935 0.
0.58799 0.00899363 0.
0.589989 0.00899403 0.
0.591988 0.00899463 0.
0.593988 0.00899523 0.
0.595991 0.00899376 0.
0.597996 0.00899168 0.
0.6 0.00898961 0.
0.602005 0.00899158 0.
0.604009 0.00899356 0.
0.606012 0.00899496 0.
0.608011 0.00899438 0.
0.61001 0.00899381 0.
0.61201 0.00899343 0.
0.614009 0.00899331 0.
0.616009 0.0089932 0.
0.618008 0.00899298 0.
0.620008 0.00899272 0.
0.622008 0.00899246 0.
0.624007 0.00899261 0.
0.626006 0.00899281 0.
0.628006 0.00899299 0.
0.630006 0.00899309 0.
0.632006 0.00899319 0.
0.634006 0.00899319 0.
0.636006 0.008993 0.
0.638006 0.00899282 0.
0.640006 0.00899243 0.
0.642006 0.00899187 0.
0.644007 0.00899131 0.
0.646007 0.00899118 0.
0.648006 0.00899117 0.
0.650006 0.00899116 0.
0.652008 0.00898982 0.
0.65401 0.00898848 0.
0.656013 0.00898655 0.
0.658019 0.00898257 0.
0.660026 0.0089786 0.
0.662038 0.00897194 0.
0.664057 0.00896205 0.
0.666075 0.00895217 0.
0.668106 0.00894538 0.
0.670141 0.00893992 0.
0.672177 0.00893446 0.
0.674308 0.00887318 0.
0.676441 0.00881013 0.
0.678615 0.0087413 0.
0.680905 0.00864572 0.
0.683188 0.00855207 0.
0.68577 0.00836363 0.
0.688417 0.00815645 0.
0.691325 0.00777356 0.
0.69445 0.00721786 0.
0.697992 0.00660515 0.
0.701987 0.00578296 0.
0.70637 0.0044098 0.
0.711106 0.00250271 0.
0.484063 0.00219086 0.
0.489174 0.00428292 0.
0.493791 0.00606156 0.
0.498022 0.00756392 0.
0.501996 0.00860068 0.
0.505554 0.00923314 0.
0.50864 0.00968472 0.
0.511491 0.01 0.
0.514145 0.0102376 0.
0.516733 0.0104677 0.
0.519039 0.0105787 0.
0.521353 0.0106934 0.
0.523535 0.0107744 0.
0.525666 0.0108459 0.
0.527796 0.0109166 0.
0.529837 0.0109246 0.
0.531877 0.0109327 0.
0.533911 0.0109418 0.
0.535933 0.0109535 0.
0.537954 0.0109652 0.
0.539968 0.0109733 0.
0.541976 0.0109783 0.
0.543983 0.0109833 0.
0.545987 0.0109858 0.
0.547989 0.0109875 0.
0.549991 0.0109892 0.
0.551991 0.0109893 0.
0.553991 0.0109894 0.
0.555992 0.0109897 0.
0.557992 0.0109903 0.
0.559992 0.0109909 0.
0.561992 0.0109913 0.
0.563993 0.0109915 0.
0.565993 0.0109918 0.
0.567993 0.0109918 0.
0.569993 0.0109918 0.
0.571993 0.0109918 0.
0.573992 0.0109916 0.
0.575991 0.0109913 0.
0.577991 0.0109912 0.
0.57999 0.0109914 0.
0.58199 0.0109917 0.
0.583989 0.010992 0.
0.585989 0.0109921 0.
0.587988 0.0109923 0.
0.589988 0.0109926 0.
0.591987 0.010993 0.
0.593986 0.0109935 0.
0.59599 0.0109923 0.
0.597995 0.0109906 0.
0.6 0.010989 0.
0.602005 0.0109905 0.
0.60401 0.010992 0.
0.606013 0.0109931 0.
0.608013 0.0109927 0.
0.610012 0.0109923 0.
0.612011 0.0109921 0.
0.614011 0.0109919 0.
0.61601 0.0109918 0.
0.61801 0.0109915 0.
0.620009 0.0109913 0.
0.622009 0.010991 0.
0.624008 0.0109911 0.
0.626007 0.0109912 0.
0.628007 0.0109914 0.
0.630007 0.0109915 0.
0.632007 0.0109915 0.
0.634007 0.0109915 0.
0.636007 0.0109913 0.
0.638007 0.010991 0.
0.640008 0.0109905 0.
0.642008 0.0109897 0.
0.644009 0.0109889 0.
0.646009 0.0109885 0.
0.64801 0.0109881 0.
0.65001 0.0109878 0.
0.652013 0.0109852 0.
0.654017 0.0109827 0.
0.656022 0.010979 0.
0.658034 0.0109718 0.
0.660046 0.0109647 0.
0.662065 0.0109543 0.
0.664094 0.0109401 0.
0.666122 0.0109259 0.
0.668173 0.0109101 0.
0.670232 0.0108938 0.
0.672293 0.0108774 0.
0.674488 0.0107769 0.
0.676681 0.0106769 0.
0.678945 0.010567 0.
0.681337 0.0104295 0.
0.683737 0.0102922 0.
0.686568 0.00999934 0.
0.689479 0.00968814 0.
0.692792 0.00903941 0.
0.696248 0.00827876 0.
0.700139 0.0074401 0.
0.704688 0.0060466 0.
0.709323 0.00443918 0.
0.7144 0.00222591 0.
0.480653 0.00200407 0.
0.486357 0.00423059 0.
0.49126 0.006158 0.
0.49584 0.00801589 0.
0.500558 0.00954825 0.
0.504342 0.0103352 0.
0.507611 0.0108991 0.
0.510717 0.0113994 0.
0.513489 0.0117786 0.
0.516225 0.0121614 0.
0.51864 0.0123338 0.
0.521048 0.0125014 0.
0.523315 0.0126329 0.
0.5255 0.0127505 0.
0.527686 0.012869 0.
0.529749 0.0128835 0.
0.531811 0.0128969 0.
0.533865 0.0129116 0.
0.535895 0.0129291 0.
0.537926 0.0129467 0.
0.539948 0.0129593 0.
0.541961 0.0129675 0.
0.543974 0.0129757 0.
0.54598 0.0129799 0.
0.547983 0.012983 0.
0.549987 0.012986 0.
0.551988 0.0129865 0.
0.553989 0.012987 0.
0.55599 0.0129876 0.
0.55799 0.0129884 0.
0.559991 0.0129893 0.
0.561991 0.0129898 0.
0.563991 0.0129901 0.
0.565992 0.0129904 0.
0.567992 0.0129905 0.
0.569992 0.0129905 0.
0.571992 0.0129906 0.
0.573991 0.0129904 0.
0.57599 0.0129902 0.
0.57799 0.0129901 0.
0.579989 0.0129904 0.
0.581989 0.0129906 0.
0.583989 0.0129909 0.
0.585988 0.012991 0.
0.587988 0.0129912 0.
0.589987 0.0129914 0.
0.591986 0.0129916 0.
0.593986 0.0129918 0.
0.59599 0.0129911 0.
0.597995 0.0129902 0.
0.6 0.0129892 0.
0.602005 0.01299 0.
0.60401 0.0129908 0.
0.606014 0.0129914 0.
0.608013 0.0129913 0.
0.610012 0.0129911 0.
0.612012 0.0129909 0.
0.614011 0.0129908 0.
0.616011 0.0129907 0.
0.618011 0.0129904 0.
0.62001 0.0129902 0.
0.62201 0.0129899 0.
0.624009 0.0129899 0.
0.626008 0.01299 0.
0.628008 0.0129901 0.
0.630008 0.0129901 0.
0.632008 0.0129901 0.
0.634008 0.01299 0.
0.636008 0.0129897 0.
0.638009 0.0129893 0.
0.640009 0.0129886 0.
0.64201 0.0129875 0.
0.644011 0.0129865 0.
0.646013 0.0129855 0.
0.648014 0.0129845 0.
0.650016 0.0129836 0.
0.652021 0.0129792 0.
0.654027 0.0129749 0.
0.656036 0.0129688 0.
0.658055 0.0129569 0.
0.660075 0.0129449 0.
0.662104 0.0129298 0.
0.664144 0.0129108 0.
0.666185 0.0128918 0.
0.668266 0.0128588 0.
0.670362 0.0128221 0.
0.672465 0.0127823 0.
0.674727 0.0126295 0.
0.676985 0.0124789 0.
0.679374 0.012301 0.
0.681899 0.0120911 0.
0.684494 0.0118321 0.
0.687432 0.0113348 0.
0.690533 0.0108193 0.
0.693993 0.0100866 0.
0.697809 0.00920493 0.
0.702279 0.00797144 0.
0.707072 0.00624221 0.
0.712047 0.00442701 0.
0.717779 0.00199493 0.
0.477386 0.00187693 0.
0.483462 0.00418864 0.
0.488835 0.00618532 0.
0.49371 0.00827761 0.
0.498842 0.0101188 0.
0.502822 0.0111757 0.
0.506462 0.0120161 0.
0.509819 0.0127118 0.
0.512797 0.0132777 0.
0.515665 0.013812 0.
0.51822 0.0140799 0.
0.520725 0.0143018 0.
0.523089 0.0144862 0.
0.525329 0.0146509 0.
0.527572 0.0148182 0.
0.529661 0.014842 0.
0.531745 0.0148609 0.
0.533817 0.0148812 0.
0.535858 0.0149047 0.
0.537899 0.0149282 0.
0.539927 0.0149453 0.
0.541946 0.0149566 0.
0.543964 0.014968 0.
0.545972 0.014974 0.
0.547978 0.0149784 0.
0.549983 0.0149828 0.
0.551985 0.0149837 0.
0.553986 0.0149847 0.
0.555988 0.0149856 0.
0.557988 0.0149866 0.
0.559989 0.0149876 0.
0.56199 0.0149883 0.
0.56399 0.0149886 0.
0.565991 0.0149889 0.
0.567991 0.0149891 0.
0.569991 0.0149892 0.
0.571991 0.0149893 0.
0.57399 0.0149892 0.
0.575989 0.0149891 0.
0.577989 0.014989 0.
0.579988 0.0149893 0.
0.581988 0.0149895 0.
0.583988 0.0149898 0.
0.585987 0.0149899 0.
0.587987 0.01499 0.
0.589986 0.0149901 0.
0.591986 0.0149901 0.
0.593986 0.0149902 0.
0.59599 0.01499 0.
0.597995 0.0149897 0.
0.6 0.0149895 0.
0.602005 0.0149895 0.
0.60401 0.0149896 0.
0.606014 0.0149897 0.
0.608014 0.0149898 0.
0.610013 0.0149899 0.
0.612013 0.0149898 0.
0.614012 0.0149897 0.
0.616012 0.0149895 0.
0.618011 0.0149893 0.
0.620011 0.014989 0.
0.622011 0.0149888 0.
0.62401 0.0149888 0.
0.626009 0.0149888 0.
0.628009 0.0149888 0.
0.630009 0.0149887 0.
0.632009 0.0149886 0.
0.634009 0.0149884 0.
0.63601 0.0149881 0.
0.63801 0.0149877 0.
0.640011 0.0149867 0.
0.642012 0.0149854 0.
0.644014 0.014984 0.
0.646016 0.0149825 0.
0.648019 0.0149809 0.
0.650021 0.0149793 0.
0.652029 0.0149733 0.
0.654037 0.0149672 0.
0.65605 0.0149586 0.
0.658077 0.0149418 0.
0.660103 0.0149251 0.
0.662143 0.0149052 0.
0.664195 0.0148814 0.
0.666248 0.0148575 0.
0.668363 0.0148062 0.
0.670495 0.0147486 0.
0.672644 0.0146832 0.
0.674975 0.0144768 0.
0.677299 0.0142746 0.
0.679837 0.014019 0.
0.6825 0.013734 0.
0.685303 0.0132963 0.
0.688333 0.0125997 0.
0.691685 0.0118451 0.
0.695329 0.0109567 0.
0.699319 0.0099741 0.
0.704398 0.00828163 0.
0.709525 0.00630576 0.
0.714976 0.00416662 0.
0.72137 0.00190363 0.
0.474015 0.00175107 0.
0.480463 0.00406812 0.
0.486223 0.00612184 0.
0.491305 0.00834986 0.
0.496696 0.0103291 0.
0.501198 0.0118775 0.
0.505233 0.0130404 0.
0.508806 0.0139186 0.
0.512041 0.0146718 0.
0.514945 0.0152803 0.
0.517628 0.0156693 0.
0.520199 0.0159544 0.
0.522675 0.0162135 0.
0.524971 0.0164192 0.
0.527277 0.0166297 0.
0.529436 0.0167019 0.
0.53158 0.0167615 0.
0.533706 0.0168164 0.
0.535765 0.0168473 0.
0.537825 0.0168783 0.
0.53987 0.016904 0.
0.541902 0.0169248 0.
0.543935 0.0169457 0.
0.54595 0.0169571 0.
0.547961 0.0169655 0.
0.549972 0.0169739 0.
0.551975 0.0169763 0.
0.553979 0.0169786 0.
0.555982 0.0169808 0.
0.557984 0.0169826 0.
0.559986 0.0169843 0.
0.561987 0.0169855 0.
0.563988 0.0169861 0.
0.565989 0.0169867 0.
0.567989 0.016987 0.
0.56999 0.0169872 0.
0.57199 0.0169874 0.
0.573989 0.0169873 0.
0.575988 0.0169873 0.
0.577988 0.0169873 0.
0.579988 0.0169876 0.
0.581988 0.0169878 0.
0.583987 0.016988 0.
0.585987 0.0169881 0.
0.587987 0.0169881 0.
0.589987 0.016988 0.
0.591987 0.0169878 0.
0.593986 0.0169876 0.
0.59599 0.0169874 0.
0.597995 0.0169872 0.
0.6 0.0169871 0.
0.602005 0.0169871 0.
0.60401 0.016987 0.
0.606013 0.0169871 0.
0.608013 0.0169874 0.
0.610013 0.0169878 0.
0.612013 0.0169879 0.
0.614012 0.0169879 0.
0.616012 0.0169878 0.
0.618012 0.0169876 0.
0.620012 0.0169873 0.
0.622012 0.016987 0.
0.624011 0.0169869 0.
0.62601 0.0169869 0.
0.62801 0.0169868 0.
0.63001 0.0169865 0.
0.632011 0.0169863 0.
0.634011 0.0169858 0.
0.636012 0.0169851 0.
0.638013 0.0169843 0.
0.640015 0.0169826 0.
0.642018 0.0169803 0.
0.644021 0.0169779 0.
0.646026 0.0169745 0.
0.648031 0.0169709 0.
0.650036 0.0169672 0.
0.652052 0.0169555 0.
0.654068 0.0169438 0.
0.656091 0.0169282 0.
0.658135 0.0169006 0.
0.660179 0.0168731 0.
0.662241 0.0168428 0.
0.66432 0.0168089 0.
0.666399 0.0167752 0.
0.668586 0.0166701 0.
0.670792 0.0165554 0.
0.673027 0.0164306 0.
0.67541 0.0161847 0.
0.677779 0.0159455 0.
0.680459 0.0155928 0.
0.683206 0.0152398 0.
0.686173 0.0146064 0.
0.689285 0.0137663 0.
0.692902 0.012803 0.
0.696906 0.0116633 0.
0.701186 0.0104225 0.
0.706471 0.0084548 0.
0.711945 0.00629727 0.
0.717815 0.00401051 0.
0.724854 0.00175736 0.
0.470468 0.00161058 0.
0.477156 0.00393641 0.
0.48357 0.00598682 0.
0.488931 0.00829505 0.
0.494548 0.0104511 0.
0.499463 0.012422 0.
0.503766 0.0138595 0.
0.5076 0.0149294 0.
0.510998 0.0158188 0.
0.513985 0.0165411 0.
0.516894 0.0171466 0.
0.519565 0.0175328 0.
0.522201 0.0179078 0.
0.524571 0.0181627 0.
0.526954 0.018424 0.
0.529194 0.0185498 0.
0.531403 0.0186543 0.
0.533591 0.0187499 0.
0.53567 0.0187886 0.
0.537748 0.0188274 0.
0.539811 0.0188618 0.
0.541858 0.0188923 0.
0.543905 0.0189231 0.
0.545928 0.0189401 0.
0.547944 0.0189525 0.
0.54996 0.018965 0.
0.551966 0.0189688 0.
0.553972 0.0189725 0.
0.555977 0.018976 0.
0.55798 0.0189785 0.
0.559983 0.018981 0.
0.561985 0.0189827 0.
0.563986 0.0189836 0.
0.565987 0.0189844 0.
0.567988 0.0189849 0.
0.569988 0.0189852 0.
0.571989 0.0189854 0.
0.573988 0.0189855 0.
0.575988 0.0189855 0.
0.577987 0.0189855 0.
0.579987 0.0189858 0.
0.581987 0.0189861 0.
0.583987 0.0189863 0.
0.585987 0.0189862 0.
0.587987 0.0189862 0.
0.589987 0.0189859 0.
0.591987 0.0189854 0.
0.593987 0.0189849 0.
0.595991 0.0189848 0.
0.597996 0.0189847 0.
0.6 0.0189847 0.
0.602005 0.0189845 0.
0.604009 0.0189844 0.
0.606013 0.0189844 0.
0.608013 0.018985 0.
0.610013 0.0189857 0.
0.612013 0.0189861 0.
0.614012 0.0189861 0.
0.616012 0.0189861 0.
0.618012 0.0189859 0.
0.620012 0.0189856 0.
0.622013 0.0189853 0.
0.624012 0.0189851 0.
0.626011 0.0189849 0.
0.628011 0.0189847 0.
0.630012 0.0189843 0.
0.632012 0.0189839 0.
0.634013 0.0189832 0.
0.636015 0.018982 0.
0.638017 0.0189809 0.
0.64002 0.0189785 0.
0.642024 0.0189751 0.
0.644028 0.0189718 0.
0.646036 0.0189665 0.
0.648044 0.0189608 0.
0.650052 0.0189549 0.
0.652076 0.0189375 0.
0.6541 0.0189201 0.
0.656133 0.0188973 0.
0.658195 0.0188585 0.
0.660256 0.0188199 0.
0.662343 0.0187786 0.
0.664451 0.0187339 0.
0.666558 0.0186894 0.
0.668831 0.0185195 0.
0.671119 0.018341 0.
0.673451 0.0181521 0.
0.675904 0.0178548 0.
0.678379 0.0175457 0.
0.681204 0.0170556 0.
0.684088 0.0165442 0.
0.687211 0.0156784 0.
0.690412 0.0147689 0.
0.694184 0.0136882 0.
0.698653 0.0122222 0.
0.703323 0.0106033 0.
0.708884 0.00849884 0.
0.714581 0.00604 0.
0.721256 0.00399565 0.
0.728447 0.0015552 0.
0.466295 0.00136899 0.
0.473343 0.00380792 0.
0.480749 0.00579928 0.
0.486408 0.00817414 0.
0.49224 0.0104655 0.
0.497378 0.01263 0.
0.50212 0.0144521 0.
0.506189 0.0157366 0.
0.50975 0.0168307 0.
0.512965 0.0177376 0.
0.516108 0.0185616 0.
0.518914 0.0190762 0.
0.521693 0.0195746 0.
0.524172 0.0198804 0.
0.526622 0.0201789 0.
0.528939 0.0203624 0.
0.531206 0.0205188 0.
0.533455 0.0206676 0.
0.535556 0.020715 0.
0.537658 0.0207628 0.
0.539741 0.0208073 0.
0.541802 0.0208494 0.
0.543863 0.0208919 0.
0.545897 0.0209162 0.
0.54792 0.0209341 0.
0.549944 0.0209521 0.
0.551953 0.0209582 0.
0.553961 0.0209642 0.
0.555969 0.0209696 0.
0.557973 0.0209731 0.
0.559978 0.0209766 0.
0.561981 0.0209792 0.
0.563983 0.0209805 0.
0.565985 0.0209818 0.
0.567986 0.0209826 0.
0.569987 0.0209831 0.
0.571988 0.0209836 0.
0.573987 0.0209837 0.
0.575987 0.0209838 0.
0.577986 0.0209839 0.
0.579986 0.0209842 0.
0.581987 0.0209844 0.
0.583987 0.0209846 0.
0.585987 0.0209845 0.
0.587987 0.0209844 0.
0.589988 0.020984 0.
0.591988 0.0209833 0.
0.593988 0.0209826 0.
0.595992 0.0209825 0.
0.597996 0.0209826 0.
0.6 0.0209826 0.
0.602004 0.0209824 0.
0.604008 0.0209821 0.
0.606011 0.020982 0.
0.608012 0.0209829 0.
0.610012 0.0209838 0.
0.612012 0.0209843 0.
0.614012 0.0209844 0.
0.616013 0.0209844 0.
0.618013 0.0209842 0.
0.620013 0.0209839 0.
0.622013 0.0209836 0.
0.624013 0.0209833 0.
0.626013 0.0209831 0.
0.628012 0.0209827 0.
0.630013 0.020982 0.
0.632014 0.0209812 0.
0.634016 0.0209801 0.
0.636019 0.0209782 0.
0.638021 0.0209764 0.
0.640026 0.020973 0.
0.642032 0.0209683 0.
0.644039 0.0209637 0.
0.64605 0.0209556 0.
0.648062 0.0209467 0.
0.650074 0.0209375 0.
0.652108 0.0209122 0.
0.654143 0.0208871 0.
0.656189 0.020855 0.
0.658269 0.0208038 0.
0.660348 0.0207529 0.
0.662464 0.0206958 0.
0.664605 0.0206342 0.
0.666745 0.020573 0.
0.669094 0.0203325 0.
0.671452 0.0200916 0.
0.673872 0.0198443 0.
0.676395 0.019505 0.
0.679017 0.019104 0.
0.681966 0.0184778 0.
0.685062 0.017728 0.
0.688331 0.0166651 0.
0.691803 0.0155683 0.
0.695697 0.0143728 0.
0.700471 0.0126643 0.
0.705451 0.0106744 0.
0.711298 0.00844099 0.
0.717167 0.00577334 0.
0.725059 0.00378711 0.
0.733167 0.00130327 0.
0.460908 0.00110705 0.
0.469333 0.0035569 0.
0.477878 0.00560883 0.
0.483864 0.00800957 0.
0.489974 0.0104264 0.
0.495353 0.012753 0.
0.500522 0.0149287 0.
0.504769 0.0164455 0.
0.508521 0.0177411 0.
0.512004 0.0188701 0.
0.515317 0.019843 0.
0.518268 0.0204724 0.
0.521125 0.0210367 0.
0.523719 0.0214367 0.
0.526247 0.0218211 0.
0.528654 0.0221008 0.
0.530972 0.0223325 0.
0.533284 0.0225607 0.
0.535416 0.0226202 0.
0.537549 0.0226799 0.
0.539657 0.0227375 0.
0.541733 0.0227939 0.
0.543808 0.0228508 0.
0.545854 0.0228847 0.
0.547888 0.0229097 0.
0.549923 0.0229349 0.
0.551936 0.0229443 0.
0.553948 0.0229534 0.
0.555959 0.0229616 0.
0.557965 0.0229664 0.
0.559972 0.0229712 0.
0.561977 0.0229748 0.
0.56398 0.0229768 0.
0.565982 0.0229788 0.
0.567984 0.0229801 0.
0.569985 0.022981 0.
0.571986 0.0229819 0.
0.573986 0.0229821 0.
0.575986 0.0229822 0.
0.577986 0.0229824 0.
0.579986 0.0229826 0.
0.581987 0.0229828 0.
0.583987 0.0229829 0.
0.585988 0.0229828 0.
0.587988 0.0229827 0.
0.589988 0.0229823 0.
0.591989 0.0229814 0.
0.593989 0.0229806 0.
0.595993 0.0229805 0.
0.597997 0.0229807 0.
0.6 0.0229809 0.
0.602004 0.0229805 0.
0.604007 0.0229801 0.
0.60601 0.02298 0.
0.608011 0.022981 0.
0.610011 0.022982 0.
0.612012 0.0229826 0.
0.614012 0.0229827 0.
0.616012 0.0229828 0.
0.618013 0.0229826 0.
0.620013 0.0229823 0.
0.622014 0.022982 0.
0.624014 0.0229816 0.
0.626014 0.0229812 0.
0.628014 0.0229807 0.
0.630015 0.0229795 0.
0.632017 0.0229782 0.
0.634019 0.0229764 0.
0.636023 0.0229735 0.
0.638027 0.0229707 0.
0.640034 0.0229659 0.
0.642043 0.0229596 0.
0.644052 0.0229533 0.
0.646068 0.0229415 0.
0.648085 0.0229283 0.
0.650103 0.0229144 0.
0.652151 0.0228787 0.
0.654199 0.0228432 0.
0.656262 0.0227992 0.
0.658361 0.0227334 0.
0.66046 0.022668 0.
0.662614 0.022584 0.
0.6648 0.0224912 0.
0.666996 0.0223898 0.
0.669395 0.0220643 0.
0.671797 0.0217437 0.
0.674322 0.0214102 0.
0.676925 0.0210103 0.
0.679684 0.0204875 0.
0.68266 0.0198162 0.
0.685983 0.0188291 0.
0.689397 0.0176018 0.
0.693163 0.0163 0.
0.697443 0.0147817 0.
0.7024 0.0129669 0.
0.707634 0.010669 0.
0.713776 0.00823612 0.
0.719995 0.00564195 0.
0.729056 0.00354237 0.
0.739178 0.000960402 0.
0.453808 0.000804823 0.
0.465117 0.00335408 0.
0.474815 0.00547022 0.
0.481448 0.0078362 0.
0.487853 0.0103868 0.
0.493379 0.0128129 0.
0.498675 0.0151609 0.
0.503151 0.0169053 0.
0.507288 0.0185639 0.
0.511005 0.0198669 0.
0.514328 0.0208909 0.
0.517502 0.0217495 0.
0.520481 0.0224366 0.
0.523239 0.0229717 0.
0.525851 0.0234455 0.
0.52836 0.023829 0.
0.530732 0.024137 0.
0.533103 0.0244479 0.
0.535273 0.0245246 0.
0.537437 0.0245964 0.
0.539573 0.0246671 0.
0.541663 0.0247379 0.
0.543753 0.0248093 0.
0.545811 0.024853 0.
0.547856 0.0248852 0.
0.549901 0.0249176 0.
0.551918 0.0249304 0.
0.553934 0.0249426 0.
0.555949 0.0249536 0.
0.557957 0.0249597 0.
0.559966 0.0249658 0.
0.561972 0.0249705 0.
0.563976 0.0249731 0.
0.56598 0.0249758 0.
0.567982 0.0249775 0.
0.569984 0.0249788 0.
0.571985 0.0249801 0.
0.573985 0.0249805 0.
0.575985 0.0249807 0.
0.577985 0.0249809 0.
0.579986 0.0249811 0.
0.581987 0.0249812 0.
0.583987 0.0249813 0.
0.585988 0.0249812 0.
0.587989 0.0249811 0.
0.589989 0.0249805 0.
0.59199 0.0249796 0.
0.593991 0.0249786 0.
0.595994 0.0249786 0.
0.597997 0.0249788 0.
0.6 0.0249791 0.
0.602003 0.0249786 0.
0.604006 0.0249781 0.
0.606009 0.024978 0.
0.608009 0.0249791 0.
0.61001 0.0249803 0.
0.612011 0.024981 0.
0.614012 0.0249811 0.
0.616012 0.0249812 0.
0.618013 0.024981 0.
0.620014 0.0249807 0.
0.622015 0.0249804 0.
0.624015 0.0249799 0.
0.626015 0.0249794 0.
0.628015 0.0249787 0.
0.630017 0.0249769 0.
0.632019 0.0249752 0.
0.634023 0.0249727 0.
0.636028 0.0249689 0.
0.638033 0.024965 0.
0.640042 0.0249589 0.
0.642054 0.0249509 0.
0.644066 0.024943 0.
0.646086 0.0249274 0.
0.648109 0.0249099 0.
0.650133 0.0248912 0.
0.652194 0.024845 0.
0.654256 0.024799 0.
0.656335 0.0247429 0.
0.658455 0.0246624 0.
0.660573 0.0245825 0.
0.662769 0.0244691 0.
0.665001 0.0243443 0.
0.667254 0.0241962 0.
0.669704 0.0237848 0.
0.672149 0.0233837 0.
0.674806 0.0229571 0.
0.677515 0.0224792 0.
0.680487 0.0217338 0.
0.683555 0.0209125 0.
0.686962 0.0197817 0.
0.690574 0.0184333 0.
0.694507 0.0169704 0.
0.699246 0.0150563 0.
0.704353 0.0131101 0.
0.70991 0.0105996 0.
0.716221 0.0079429 0.
0.723003 0.00554559 0.
0.733311 0.00341212 0.
0.748819 0.000713234 0.
0.442583 0.000703258 0.
0.460986 0.00313911 0.
0.471762 0.00535341 0.
0.479065 0.00768074 0.
0.485605 0.0102963 0.
0.491309 0.0127945 0.
0.496732 0.0152447 0.
0.501473 0.0172341 0.
0.506053 0.019289 0.
0.509767 0.0206686 0.
0.513277 0.0218591 0.
0.516691 0.0229877 0.
0.519783 0.0237863 0.
0.522719 0.024464 0.
0.525391 0.0250085 0.
0.527978 0.0254857 0.
0.530379 0.0258442 0.
0.532798 0.0262093 0.
0.53503 0.0263375 0.
0.537241 0.0264492 0.
0.539422 0.0265545 0.
0.541535 0.0266397 0.
0.54365 0.0267257 0.
0.545729 0.0267847 0.
0.547792 0.0268317 0.
0.549856 0.0268791 0.
0.551882 0.0268995 0.
0.553905 0.0269187 0.
0.555927 0.0269359 0.
0.55794 0.0269449 0.
0.559953 0.0269539 0.
0.561963 0.0269609 0.
0.563968 0.0269653 0.
0.565974 0.0269696 0.
0.567978 0.0269725 0.
0.56998 0.0269747 0.
0.571983 0.0269768 0.
0.573983 0.0269775 0.
0.575984 0.0269779 0.
0.577984 0.0269783 0.
0.579985 0.0269786 0.
0.581986 0.0269788 0.
0.583987 0.0269789 0.
0.585988 0.0269787 0.
0.587989 0.0269785 0.
0.58999 0.0269779 0.
0.591991 0.0269769 0.
0.593992 0.0269759 0.
0.595995 0.0269757 0.
0.597998 0.0269758 0.
0.6 0.0269758 0.
0.602003 0.0269756 0.
0.604005 0.0269754 0.
0.606007 0.0269755 0.
0.608008 0.0269766 0.
0.610009 0.0269777 0.
0.61201 0.0269783 0.
0.614011 0.0269785 0.
0.616012 0.0269787 0.
0.618014 0.0269785 0.
0.620015 0.026978 0.
0.622016 0.0269776 0.
0.624017 0.0269767 0.
0.626017 0.0269759 0.
0.628019 0.0269748 0.
0.630022 0.0269718 0.
0.632025 0.0269689 0.
0.63403 0.0269648 0.
0.636038 0.0269587 0.
0.638046 0.0269526 0.
0.640059 0.0269433 0.
0.642077 0.0269317 0.
0.644095 0.0269201 0.
0.646125 0.0268964 0.
0.648158 0.0268701 0.
0.650194 0.0268414 0.
0.652277 0.026776 0.
0.65436 0.0267114 0.
0.656468 0.0266361 0.
0.658621 0.0265375 0.
0.660771 0.0264403 0.
0.663019 0.0262794 0.
0.665298 0.0261064 0.
0.667619 0.0258873 0.
0.670098 0.0254199 0.
0.672564 0.0249727 0.
0.675345 0.0244649 0.
0.678168 0.0238972 0.
0.681346 0.0229071 0.
0.684602 0.0218827 0.
0.688098 0.0205694 0.
0.691827 0.0191401 0.
0.696124 0.017367 0.
0.701052 0.0152909 0.
0.706245 0.0131777 0.
0.7121 0.0105063 0.
0.718648 0.00774185 0.
0.726096 0.00530196 0.
0.73708 0.00315002 0.
0.763638 0.000851428 0.
0.427435 0.00106329 0.
0.457424 0.00278053 0.
0.468541 0.0051217 0.
0.476636 0.00753353 0.
0.483381 0.0101814 0.
0.489263 0.0127367 0.
0.494815 0.0152964 0.
0.499817 0.0174937 0.
0.504661 0.0198307 0.
0.508389 0.0213232 0.
0.512189 0.0227449 0.
0.515791 0.0240921 0.
0.518986 0.0250174 0.
0.522032 0.0258073 0.
0.524749 0.0264345 0.
0.527469 0.0270697 0.
0.529946 0.0274968 0.
0.532437 0.0279241 0.
0.534756 0.0281219 0.
0.537023 0.0282846 0.
0.539259 0.0284356 0.
0.541399 0.0285364 0.
0.543541 0.0286381 0.
0.545644 0.0287136 0.
0.547726 0.0287762 0.
0.549809 0.0288394 0.
0.551844 0.0288679 0.
0.553876 0.0288943 0.
0.555905 0.028918 0.
0.557922 0.0289299 0.
0.55994 0.0289418 0.
0.561953 0.0289512 0.
0.563961 0.0289573 0.
0.565969 0.0289634 0.
0.567974 0.0289675 0.
0.569977 0.0289705 0.
0.57198 0.0289735 0.
0.573982 0.0289744 0.
0.575983 0.0289751 0.
0.577984 0.0289758 0.
0.579985 0.0289761 0.
0.581986 0.0289764 0.
0.583987 0.0289765 0.
0.585989 0.0289762 0.
0.58799 0.0289759 0.
0.589991 0.0289752 0.
0.591993 0.0289742 0.
0.593994 0.0289732 0.
0.595996 0.0289728 0.
0.597998 0.0289727 0.
0.6 0.0289726 0.
0.602002 0.0289726 0.
0.604004 0.0289727 0.
0.606006 0.028973 0.
0.608007 0.028974 0.
0.610008 0.028975 0.
0.61201 0.0289757 0.
0.614011 0.028976 0.
0.616012 0.0289762 0.
0.618014 0.0289759 0.
0.620015 0.0289753 0.
0.622017 0.0289747 0.
0.624018 0.0289736 0.
0.62602 0.0289724 0.
0.628022 0.0289708 0.
0.630026 0.0289667 0.
0.63203 0.0289626 0.
0.634037 0.0289569 0.
0.636048 0.0289485 0.
0.638059 0.02894 0.
0.640077 0.0289276 0.
0.642101 0.0289121 0.
0.644124 0.0288967 0.
0.646164 0.0288648 0.
0.648208 0.0288293 0.
0.650257 0.0287899 0.
0.652364 0.0287041 0.
0.65447 0.0286194 0.
0.656612 0.0285227 0.
0.658804 0.028403 0.
0.660992 0.0282849 0.
0.663304 0.0280629 0.
0.66564 0.0278306 0.
0.668052 0.0275176 0.
0.670602 0.0269728 0.
0.673189 0.026435 0.
0.676041 0.0258178 0.
0.678973 0.0251146 0.
0.682256 0.0239839 0.
0.685726 0.0227469 0.
0.689302 0.0212848 0.
0.69316 0.019734 0.
0.697825 0.017614 0.
0.702978 0.0154571 0.
0.708291 0.0130839 0.
0.714344 0.0103099 0.
0.721109 0.0075982 0.
0.729215 0.00512384 0.
0.740535 0.00282823 0.
0.776698 0.0015072 0.
0.417942 0.0016691 0.
0.454013 0.00249416 0.
0.465178 0.004993 0.
0.474115 0.00737825 0.
0.481124 0.0100527 0.
0.487218 0.012667 0.
0.492897 0.0152858 0.
0.498056 0.017645 0.
0.502867 0.0200006 0.
0.506947 0.021862 0.
0.511088 0.0235501 0.
0.514743 0.0249816 0.
0.518028 0.0260783 0.
0.521207 0.0270453 0.
0.524085 0.0278196 0.
0.52692 0.0286081 0.
0.529506 0.0291368 0.
0.532072 0.0296222 0.
0.534483 0.0298895 0.
0.536801 0.0301017 0.
0.539091 0.0303043 0.
0.541256 0.0304195 0.
0.543424 0.030536 0.
0.54555 0.0306287 0.
0.547651 0.0307089 0.
0.549752 0.0307902 0.
0.551798 0.0308288 0.
0.55384 0.0308639 0.
0.555878 0.0308956 0.
0.5579 0.030911 0.
0.559922 0.0309264 0.
0.56194 0.0309388 0.
0.563951 0.0309472 0.
0.565961 0.0309556 0.
0.567968 0.0309612 0.
0.569972 0.0309653 0.
0.571977 0.0309694 0.
0.573979 0.0309708 0.
0.575981 0.0309719 0.
0.577982 0.0309729 0.
0.579984 0.0309733 0.
0.581986 0.0309738 0.
0.583987 0.030974 0.
0.585989 0.0309737 0.
0.58799 0.0309733 0.
0.589992 0.0309726 0.
0.591994 0.0309716 0.
0.593995 0.0309707 0.
0.595997 0.0309703 0.
0.597999 0.0309702 0.
0.6 0.03097 0.
0.602002 0.0309701 0.
0.604003 0.0309703 0.
0.606005 0.0309706 0.
0.608006 0.0309715 0.
0.610008 0.0309724 0.
0.612009 0.030973 0.
0.614011 0.0309733 0.
0.616013 0.0309735 0.
0.618015 0.0309731 0.
0.620017 0.0309722 0.
0.622019 0.0309714 0.
0.624021 0.0309698 0.
0.626023 0.030968 0.
0.628026 0.0309658 0.
0.630032 0.0309602 0.
0.632038 0.0309546 0.
0.634047 0.0309469 0.
0.636062 0.0309353 0.
0.638077 0.0309237 0.
0.6401 0.0309074 0.
0.64213 0.0308877 0.
0.644159 0.030868 0.
0.646212 0.0308254 0.
0.648268 0.0307786 0.
0.650331 0.0307258 0.
0.652461 0.0306189 0.
0.654588 0.0305135 0.
0.656763 0.0303928 0.
0.658991 0.0302514 0.
0.661216 0.030115 0.
0.663591 0.0298314 0.
0.665982 0.0295398 0.
0.668492 0.0291282 0.
0.671116 0.0285077 0.
0.673851 0.027855 0.
0.676802 0.0270946 0.
0.679938 0.0261197 0.
0.683219 0.0249193 0.
0.686863 0.0235375 0.
0.690671 0.0218456 0.
0.6946 0.0201937 0.
0.699562 0.017759 0.
0.704892 0.0155477 0.
0.710428 0.0129154 0.
0.716571 0.0100576 0.
0.72362 0.00742228 0.
0.732602 0.00510034 0.
0.743841 0.00248536 0.
0.780937 0.00195264 0.
0.413384 0.00179889 0.
0.450301 0.0022871 0.
0.461586 0.00498758 0.
0.471581 0.00720907 0.
0.478813 0.00988209 0.
0.485162 0.0125701 0.
0.490953 0.0152105 0.
0.496254 0.0177318 0.
0.501128 0.0201156 0.
0.50551 0.0223383 0.
0.509809 0.0242162 0.
0.51355 0.0256991 0.
0.517085 0.0270984 0.
0.520379 0.028219 0.
0.523455 0.0291601 0.
0.526372 0.03005 0.
0.529044 0.0306588 0.
0.531667 0.0311874 0.
0.534169 0.0315514 0.
0.536544 0.0318466 0.
0.538906 0.0321375 0.
0.541097 0.0322714 0.
0.543292 0.032407 0.
0.545443 0.0325215 0.
0.547562 0.0326242 0.
0.549682 0.0327283 0.
0.551742 0.03278 0.
0.553795 0.032826 0.
0.555845 0.0328678 0.
0.557873 0.0328875 0.
0.559901 0.0329072 0.
0.561923 0.0329233 0.
0.563937 0.0329346 0.
0.565952 0.0329459 0.
0.567961 0.0329535 0.
0.569967 0.032959 0.
0.571973 0.0329645 0.
0.573976 0.0329666 0.
0.575978 0.0329682 0.
0.577981 0.0329697 0.
0.579983 0.0329703 0.
0.581985 0.032971 0.
0.583987 0.0329713 0.
0.585989 0.032971 0.
0.587991 0.0329706 0.
0.589993 0.03297 0.
0.591994 0.0329692 0.
0.593996 0.0329683 0.
0.595997 0.0329682 0.
0.597999 0.0329682 0.
0.6 0.0329682 0.
0.602002 0.0329682 0.
0.604003 0.0329683 0.
0.606004 0.0329685 0.
0.608006 0.0329691 0.
0.610007 0.0329697 0.
0.612009 0.0329702 0.
0.614011 0.0329704 0.
0.616013 0.0329705 0.
0.618016 0.0329699 0.
0.620018 0.0329688 0.
0.622021 0.0329677 0.
0.624024 0.0329653 0.
0.626028 0.0329628 0.
0.628032 0.0329597 0.
0.63004 0.0329523 0.
0.632048 0.032945 0.
0.63406 0.0329346 0.
0.636079 0.0329188 0.
0.638099 0.0329031 0.
0.640129 0.0328821 0.
0.642166 0.0328574 0.
0.644202 0.0328328 0.
0.646269 0.0327761 0.
0.64834 0.0327141 0.
0.650422 0.0326436 0.
0.652573 0.0325123 0.
0.654723 0.0323828 0.
0.656932 0.0322231 0.
0.659195 0.0320372 0.
0.661462 0.0318532 0.
0.663904 0.0314998 0.
0.666345 0.0311481 0.
0.668945 0.0306376 0.
0.671599 0.0299762 0.
0.674482 0.0292162 0.
0.677524 0.0283361 0.
0.680885 0.0270728 0.
0.68432 0.0257319 0.
0.687984 0.0242668 0.
0.692091 0.0223056 0.
0.696303 0.0203454 0.
0.701317 0.0178955 0.
0.70681 0.0155525 0.
0.712497 0.012746 0.
0.71879 0.00989538 0.
0.726218 0.00709178 0.
0.73609 0.00504317 0.
0.74735 0.00228029 0.
0.782829 0.00234824 0.
0.412844 0.00213835 0.
0.446816 0.00221918 0.
0.458277 0.00485295 0.
0.469032 0.00696332 0.
0.476607 0.00973981 0.
0.483168 0.0124592 0.
0.48905 0.0151295 0.
0.4945 0.0177972 0.
0.499455 0.0202187 0.
0.503982 0.0226725 0.
0.508325 0.0246907 0.
0.512337 0.0263555 0.
0.516121 0.0280515 0.
0.519523 0.0293006 0.
0.522723 0.0303525 0.
0.525662 0.0313209 0.
0.528502 0.032095 0.
0.531219 0.0327164 0.
0.533841 0.0331988 0.
0.536277 0.0335799 0.
0.538714 0.0339658 0.
0.540936 0.0341219 0.
0.543157 0.0342766 0.
0.545336 0.034413 0.
0.547473 0.0345383 0.
0.549611 0.0346654 0.
0.551685 0.0347308 0.
0.55375 0.0347879 0.
0.555811 0.03484 0.
0.557845 0.0348639 0.
0.559879 0.0348879 0.
0.561906 0.0349078 0.
0.563924 0.034922 0.
0.565942 0.0349362 0.
0.567953 0.0349457 0.
0.569961 0.0349527 0.
0.571968 0.0349596 0.
0.573972 0.0349623 0.
0.575976 0.0349644 0.
0.577979 0.0349664 0.
0.579982 0.0349673 0.
0.581985 0.0349681 0.
0.583987 0.0349686 0.
0.585989 0.0349683 0.
0.587991 0.0349679 0.
0.589993 0.0349674 0.
0.591995 0.0349667 0.
0.593997 0.034966 0.
0.595998 0.034966 0.
0.597999 0.0349662 0.
0.6 0.0349663 0.
0.602001 0.0349663 0.
0.604002 0.0349663 0.
0.606003 0.0349663 0.
0.608005 0.0349667 0.
0.610007 0.0349671 0.
0.612009 0.0349674 0.
0.614011 0.0349675 0.
0.616014 0.0349675 0.
0.618016 0.0349667 0.
0.62002 0.0349653 0.
0.622023 0.0349639 0.
0.624027 0.0349608 0.
0.626032 0.0349576 0.
0.628037 0.0349536 0.
0.630047 0.0349444 0.
0.632057 0.0349353 0.
0.634072 0.0349223 0.
0.636097 0.0349023 0.
0.638121 0.0348824 0.
0.640157 0.0348568 0.
0.642201 0.0348271 0.
0.644246 0.0347975 0.
0.646327 0.0347262 0.
0.648414 0.0346489 0.
0.650514 0.0345603 0.
0.652688 0.0344044 0.
0.65486 0.0342507 0.
0.657105 0.0340483 0.
0.659402 0.0338173 0.
0.661718 0.0335841 0.
0.664231 0.0331543 0.
0.666734 0.0327314 0.
0.66947 0.0320908 0.
0.672215 0.0313431 0.
0.675218 0.0304233 0.
0.678282 0.0294775 0.
0.681837 0.0279662 0.
0.685512 0.0264472 0.
0.6891 0.0249307 0.
0.693513 0.0226994 0.
0.698007 0.0204192 0.
0.70314 0.0180301 0.
0.708761 0.0154162 0.
0.714565 0.0125422 0.
0.72105 0.00978275 0.
0.728764 0.00687159 0.
0.739404 0.00492404 0.
0.751 0.00222178 0.
0.783398 0.00282611 0.
0.413662 0.00271073 0.
0.443674 0.00229663 0.
0.455379 0.00468192 0.
0.466564 0.00680851 0.
0.474441 0.00962363 0.
0.481253 0.0123612 0.
0.487226 0.0151066 0.
0.492818 0.0178405 0.
0.4978 0.0203175 0.
0.502439 0.0228677 0.
0.506805 0.0250543 0.
0.511106 0.0269613 0.
0.515028 0.0288156 0.
0.518545 0.030231 0.
0.521865 0.0314759 0.
0.524906 0.032556 0.
0.527931 0.0335029 0.
0.530735 0.0342096 0.
0.533483 0.0348151 0.
0.535955 0.0352572 0.
0.538433 0.0357178 0.
0.540701 0.0359124 0.
0.542957 0.036095 0.
0.545173 0.0362614 0.
0.547332 0.0364081 0.
0.549496 0.0365568 0.
0.551592 0.0366443 0.
0.553677 0.0367221 0.
0.555757 0.0367941 0.
0.557798 0.036823 0.
0.55984 0.036852 0.
0.561875 0.0368774 0.
0.5639 0.0368975 0.
0.565924 0.0369178 0.
0.56794 0.0369311 0.
0.56995 0.0369407 0.
0.571961 0.0369502 0.
0.573966 0.0369543 0.
0.575971 0.0369577 0.
0.577976 0.0369608 0.
0.57998 0.0369622 0.
0.581983 0.0369635 0.
0.583986 0.0369644 0.
0.585989 0.0369644 0.
0.587991 0.0369644 0.
0.589993 0.0369642 0.
0.591995 0.0369639 0.
0.593997 0.0369636 0.
0.595998 0.0369637 0.
0.597999 0.036964 0.
0.6 0.0369642 0.
0.602001 0.0369641 0.
0.604002 0.036964 0.
0.606003 0.0369639 0.
0.608005 0.0369638 0.
0.610007 0.0369637 0.
0.612009 0.0369635 0.
0.614012 0.0369632 0.
0.616015 0.0369628 0.
0.618019 0.0369614 0.
0.620023 0.0369593 0.
0.622027 0.0369573 0.
0.624034 0.0369526 0.
0.62604 0.0369477 0.
0.628047 0.0369418 0.
0.630061 0.036929 0.
0.632076 0.0369163 0.
0.634096 0.0368983 0.
0.636129 0.0368708 0.
0.638161 0.0368435 0.
0.640206 0.0368117 0.
0.642258 0.0367768 0.
0.64431 0.036742 0.
0.64642 0.0366424 0.
0.648534 0.0365371 0.
0.650663 0.0364215 0.
0.652859 0.0362469 0.
0.655051 0.0360745 0.
0.657342 0.0358216 0.
0.659674 0.0355425 0.
0.662041 0.0352553 0.
0.664588 0.034776 0.
0.667166 0.0342811 0.
0.67003 0.0335155 0.
0.672912 0.0326527 0.
0.676074 0.0315111 0.
0.679256 0.0303399 0.
0.682799 0.0287985 0.
0.686762 0.0270686 0.
0.690576 0.0252668 0.
0.694906 0.023044 0.
0.699653 0.0204796 0.
0.704955 0.0181205 0.
0.710627 0.0152776 0.
0.716538 0.0123683 0.
0.723181 0.00967661 0.
0.731309 0.00681549 0.
0.742262 0.00474576 0.
0.754442 0.00225443 0.
0.783127 0.00338843 0.
0.41466 0.00336762 0.
0.44079 0.00244545 0.
0.452854 0.00459413 0.
0.464123 0.00678159 0.
0.472419 0.00951901 0.
0.479417 0.012272 0.
0.485405 0.0150702 0.
0.491146 0.0178464 0.
0.496173 0.020401 0.
0.500908 0.0229758 0.
0.505314 0.0253627 0.
0.509803 0.027486 0.
0.513823 0.0294297 0.
0.517462 0.031054 0.
0.520888 0.0325183 0.
0.524113 0.0337323 0.
0.527308 0.0348332 0.
0.530138 0.0355766 0.
0.532974 0.0362869 0.
0.535513 0.0368248 0.
0.538058 0.0373892 0.
0.540405 0.0376603 0.
0.542716 0.0378876 0.
0.544988 0.0380966 0.
0.547177 0.0382671 0.
0.549371 0.0384399 0.
0.551493 0.0385521 0.
0.553599 0.0386528 0.
0.5557 0.0387469 0.
0.55775 0.0387811 0.
0.5598 0.0388153 0.
0.561843 0.0388462 0.
0.563875 0.0388725 0.
0.565906 0.038899 0.
0.567926 0.0389163 0.
0.56994 0.0389285 0.
0.571953 0.0389407 0.
0.57396 0.0389462 0.
0.575967 0.0389508 0.
0.577973 0.0389551 0.
0.579977 0.038957 0.
0.581981 0.0389589 0.
0.583985 0.0389602 0.
0.585988 0.0389605 0.
0.587991 0.0389608 0.
0.589993 0.038961 0.
0.591995 0.038961 0.
0.593997 0.0389611 0.
0.595998 0.0389614 0.
0.597999 0.0389618 0.
0.6 0.0389622 0.
0.602001 0.0389619 0.
0.604002 0.0389617 0.
0.606003 0.0389614 0.
0.608005 0.0389609 0.
0.610007 0.0389604 0.
0.612009 0.0389597 0.
0.614013 0.0389589 0.
0.616016 0.0389581 0.
0.618021 0.038956 0.
0.620026 0.0389533 0.
0.622032 0.0389506 0.
0.62404 0.0389443 0.
0.626048 0.0389377 0.
0.628057 0.0389298 0.
0.630076 0.0389135 0.
0.632094 0.0388971 0.
0.634121 0.0388738 0.
0.636162 0.0388385 0.
0.638203 0.0388034 0.
0.640256 0.0387654 0.
0.642317 0.038725 0.
0.644378 0.0386847 0.
0.64652 0.0385528 0.
0.648665 0.0384154 0.
0.650827 0.0382695 0.
0.653052 0.0380727 0.
0.655273 0.0378784 0.
0.657635 0.0375563 0.
0.660033 0.037212 0.
0.662502 0.0368291 0.
0.665115 0.036249 0.
0.667766 0.0356615 0.
0.670631 0.0348732 0.
0.673683 0.0338578 0.
0.676959 0.0325283 0.
0.680373 0.0310624 0.
0.683849 0.0295104 0.
0.688018 0.0276187 0.
0.692097 0.025514 0.
0.696366 0.02328 0.
0.701284 0.0205615 0.
0.706672 0.0181886 0.
0.712421 0.0151794 0.
0.718422 0.0122367 0.
0.725231 0.00947552 0.
0.73375 0.00684047 0.
0.744791 0.00459423 0.
0.757303 0.00240078 0.
0.782698 0.00401716 0.
0.415179 0.0040021 0.
0.43811 0.00266765 0.
0.450586 0.0045397 0.
0.461742 0.00683033 0.
0.470453 0.00942258 0.
0.477606 0.0121887 0.
0.483661 0.0150422 0.
0.489507 0.0178386 0.
0.494548 0.0204819 0.
0.499409 0.023064 0.
0.503823 0.0255654 0.
0.508412 0.0278869 0.
0.512501 0.0299032 0.
0.51635 0.031809 0.
0.519864 0.0334388 0.
0.523292 0.0348258 0.
0.526483 0.0359567 0.
0.529465 0.0368509 0.
0.532409 0.0377035 0.
0.535062 0.0383727 0.
0.537673 0.0390404 0.
0.540106 0.0394003 0.
0.542473 0.0396717 0.
0.544804 0.0399263 0.
0.547019 0.0401158 0.
0.549241 0.0403101 0.
0.55139 0.0404479 0.
0.553516 0.0405736 0.
0.555638 0.0406936 0.
0.557697 0.0407329 0.
0.559756 0.0407723 0.
0.561807 0.040809 0.
0.563845 0.0408424 0.
0.565884 0.0408759 0.
0.567909 0.040898 0.
0.569926 0.0409135 0.
0.571943 0.0409291 0.
0.573952 0.0409365 0.
0.575961 0.0409427 0.
0.577968 0.0409485 0.
0.579974 0.0409511 0.
0.581979 0.0409537 0.
0.583984 0.0409556 0.
0.585987 0.0409564 0.
0.58799 0.0409571 0.
0.589993 0.0409577 0.
0.591995 0.0409582 0.
0.593997 0.0409587 0.
0.595998 0.0409592 0.
0.597999 0.0409597 0.
0.6 0.0409602 0.
0.602001 0.0409598 0.
0.604002 0.0409595 0.
0.606004 0.0409589 0.
0.608006 0.0409579 0.
0.610008 0.0409569 0.
0.612011 0.0409556 0.
0.614015 0.0409542 0.
0.616019 0.0409527 0.
0.618024 0.0409498 0.
0.620031 0.0409463 0.
0.622038 0.0409427 0.
0.624048 0.0409344 0.
0.626058 0.0409256 0.
0.62807 0.0409152 0.
0.630094 0.0408942 0.
0.632117 0.0408733 0.
0.63415 0.040844 0.
0.636199 0.0408006 0.
0.638249 0.0407574 0.
0.640312 0.0407119 0.
0.642383 0.0406646 0.
0.644454 0.0406177 0.
0.646625 0.0404503 0.
0.648798 0.0402803 0.
0.650993 0.040106 0.
0.653245 0.0398925 0.
0.655493 0.0396786 0.
0.657934 0.0392796 0.
0.660398 0.0388698 0.
0.662981 0.0383782 0.
0.66567 0.037691 0.
0.668493 0.036943 0.
0.671452 0.036038 0.
0.674515 0.0349103 0.
0.677851 0.0334819 0.
0.681525 0.0317248 0.
0.685203 0.0300186 0.
0.689305 0.0280919 0.
0.693627 0.0257053 0.
0.697967 0.0233479 0.
0.703032 0.0206425 0.
0.708373 0.0181565 0.
0.714214 0.0150627 0.
0.720279 0.0121647 0.
0.727235 0.00926358 0.
0.736168 0.00685524 0.
0.747171 0.00448966 0.
0.759808 0.0026445 0.
0.782421 0.00467732 0.
0.415285 0.00469137 0.
0.435686 0.00300837 0.
0.448461 0.00452934 0.
0.459445 0.00685444 0.
0.468499 0.00928172 0.
0.475787 0.0120903 0.
0.481953 0.0150116 0.
0.487881 0.0178298 0.
0.492928 0.020534 0.
0.497913 0.0231798 0.
0.50234 0.025699 0.
0.506981 0.028172 0.
0.51118 0.0303206 0.
0.515196 0.0324443 0.
0.518839 0.0342411 0.
0.522346 0.0357655 0.
0.525625 0.03703 0.
0.528804 0.038094 0.
0.531845 0.0390739 0.
0.534616 0.0398667 0.
0.537234 0.0405808 0.
0.539749 0.0410399 0.
0.54217 0.041366 0.
0.544569 0.0416839 0.
0.546825 0.0419095 0.
0.54909 0.0421417 0.
0.551273 0.0423171 0.
0.553421 0.0424762 0.
0.555567 0.0426306 0.
0.557635 0.0426755 0.
0.559704 0.0427206 0.
0.561764 0.0427639 0.
0.56381 0.0428056 0.
0.565856 0.0428476 0.
0.567887 0.0428756 0.
0.569909 0.0428952 0.
0.571931 0.0429149 0.
0.573943 0.0429247 0.
0.575953 0.042933 0.
0.577963 0.0429408 0.
0.579969 0.0429443 0.
0.581976 0.0429477 0.
0.583981 0.0429505 0.
0.585985 0.0429519 0.
0.587989 0.0429533 0.
0.589992 0.0429544 0.
0.591994 0.0429554 0.
0.593996 0.0429563 0.
0.595998 0.0429571 0.
0.597999 0.0429578 0.
0.6 0.0429584 0.
0.602002 0.0429578 0.
0.604003 0.0429573 0.
0.606004 0.0429564 0.
0.608007 0.0429548 0.
0.610009 0.0429532 0.
0.612012 0.0429513 0.
0.614017 0.0429489 0.
0.616022 0.0429466 0.
0.618029 0.0429427 0.
0.620037 0.0429381 0.
0.622045 0.0429335 0.
0.624058 0.0429226 0.
0.626071 0.042911 0.
0.628086 0.0428974 0.
0.630116 0.0428706 0.
0.632145 0.042844 0.
0.634185 0.0428075 0.
0.636243 0.0427551 0.
0.638301 0.0427031 0.
0.640378 0.0426475 0.
0.642464 0.0425898 0.
0.644552 0.0425306 0.
0.646744 0.0423189 0.
0.648936 0.0421064 0.
0.65118 0.041881 0.
0.6535 0.0416167 0.
0.655806 0.0413609 0.
0.6583 0.0409067 0.
0.660795 0.0404527 0.
0.663455 0.0398661 0.
0.666214 0.0390981 0.
0.669235 0.0381912 0.
0.672298 0.0371734 0.
0.675547 0.0357692 0.
0.678846 0.0342733 0.
0.682677 0.0323459 0.
0.686637 0.0304286 0.
0.690643 0.0284497 0.
0.695153 0.0258625 0.
0.699579 0.023361 0.
0.704792 0.0207043 0.
0.710097 0.0180399 0.
0.715993 0.0149412 0.
0.722155 0.0120981 0.
0.729249 0.00912738 0.
0.73851 0.0068775 0.
0.749403 0.00446446 0.
0.762265 0.00296706 0.
0.782265 0.00539326 0.
0.415537 0.0054551 0.
0.433786 0.00338491 0.
0.446562 0.00460564 0.
0.45737 0.00688723 0.
0.466662 0.00920382 0.
0.474026 0.0120501 0.
0.480288 0.0149628 0.
0.486284 0.0178479 0.
0.49135 0.0205551 0.
0.49639 0.0232804 0.
0.500866 0.0257894 0.
0.505614 0.0284193 0.
0.509879 0.0306815 0.
0.513988 0.0329418 0.
0.517737 0.0349051 0.
0.521325 0.0366303 0.
0.524729 0.0380534 0.
0.528123 0.0392758 0.
0.531153 0.0403038 0.
0.533996 0.0412251 0.
0.536698 0.0420392 0.
0.539348 0.0426415 0.
0.541841 0.0430393 0.
0.544326 0.0434362 0.
0.546626 0.0436995 0.
0.548934 0.0439701 0.
0.551155 0.0441842 0.
0.553326 0.0443771 0.
0.555495 0.044567 0.
0.557574 0.044618 0.
0.559652 0.0446688 0.
0.561722 0.0447186 0.
0.563775 0.0447688 0.
0.565828 0.0448191 0.
0.567865 0.0448531 0.
0.569892 0.0448769 0.
0.571919 0.0449008 0.
0.573933 0.0449129 0.
0.575945 0.0449233 0.
0.577957 0.0449331 0.
0.579965 0.0449374 0.
0.581972 0.0449418 0.
0.583979 0.0449454 0.
0.585983 0.0449474 0.
0.587988 0.0449495 0.
0.589991 0.0449511 0.
0.591993 0.0449525 0.
0.593996 0.044954 0.
0.595997 0.0449549 0.
0.597999 0.0449558 0.
0.6 0.0449567 0.
0.602002 0.0449559 0.
0.604003 0.0449551 0.
0.606005 0.0449539 0.
0.608008 0.0449518 0.
0.61001 0.0449496 0.
0.612014 0.0449469 0.
0.61402 0.0449437 0.
0.616025 0.0449405 0.
0.618034 0.0449356 0.
0.620043 0.0449299 0.
0.622053 0.0449242 0.
0.624068 0.0449107 0.
0.626084 0.0448964 0.
0.628102 0.0448795 0.
0.630138 0.044847 0.
0.632173 0.0448146 0.
0.63422 0.0447708 0.
0.636287 0.0447095 0.
0.638353 0.0446485 0.
0.640444 0.0445827 0.
0.642546 0.0445145 0.
0.644652 0.0444412 0.
0.646864 0.0441849 0.
0.649076 0.0439295 0.
0.651377 0.0436498 0.
0.65377 0.0433306 0.
0.656162 0.0430112 0.
0.658726 0.0424888 0.
0.661287 0.0419707 0.
0.6641 0.0412172 0.
0.666863 0.0403945 0.
0.670023 0.039385 0.
0.673236 0.0382122 0.
0.676611 0.0365664 0.
0.680021 0.0348715 0.
0.683859 0.032912 0.
0.688069 0.030778 0.
0.692107 0.0286447 0.
0.696671 0.0259956 0.
0.701146 0.0233943 0.
0.706469 0.0207673 0.
0.711727 0.0179554 0.
0.717689 0.0148635 0.
0.723964 0.0119913 0.
0.731234 0.00911271 0.
0.740677 0.00691323 0.
0.751379 0.0045313 0.
0.764366 0.00333215 0.
0.782101 0.00612931 0.
0.415892 0.00622882 0.
0.432595 0.00378373 0.
0.444903 0.00478198 0.
0.455578 0.00696507 0.
0.464965 0.00922219 0.
0.472412 0.012065 0.
0.478717 0.0149468 0.
0.484734 0.0178836 0.
0.489829 0.0205952 0.
0.494924 0.0234045 0.
0.499465 0.0259052 0.
0.504297 0.0286459 0.
0.508537 0.0309757 0.
0.512776 0.0333584 0.
0.516579 0.0354831 0.
0.520226 0.0373849 0.
0.523804 0.0390039 0.
0.527275 0.0403068 0.
0.530317 0.0414188 0.
0.533342 0.0425546 0.
0.536131 0.043468 0.
0.538931 0.0442256 0.
0.54149 0.0446924 0.
0.544037 0.0451519 0.
0.546376 0.0454461 0.
0.548718 0.0457531 0.
0.550977 0.0460091 0.
0.553166 0.0462287 0.
0.555357 0.0464461 0.
0.557462 0.0465181 0.
0.559568 0.0465883 0.
0.56166 0.0466551 0.
0.563722 0.0467136 0.
0.565784 0.0467723 0.
0.567829 0.0468142 0.
0.569864 0.0468453 0.
0.571898 0.0468766 0.
0.573917 0.0468932 0.
0.575932 0.0469074 0.
0.577947 0.0469208 0.
0.579957 0.0469266 0.
0.581966 0.0469324 0.
0.583974 0.0469374 0.
0.58598 0.0469406 0.
0.587985 0.0469438 0.
0.589989 0.0469464 0.
0.591992 0.0469485 0.
0.593995 0.0469506 0.
0.595997 0.0469518 0.
0.597999 0.0469528 0.
0.6 0.0469538 0.
0.602002 0.0469527 0.
0.604004 0.0469516 0.
0.606006 0.0469501 0.
0.608009 0.0469471 0.
0.610013 0.046944 0.
0.612018 0.0469402 0.
0.614025 0.0469355 0.
0.616032 0.0469307 0.
0.618042 0.0469241 0.
0.620054 0.0469166 0.
0.622066 0.0469091 0.
0.624085 0.046891 0.
0.626105 0.046872 0.
0.628129 0.0468494 0.
0.630175 0.0468072 0.
0.63222 0.0467652 0.
0.634278 0.0467119 0.
0.636353 0.0466418 0.
0.638429 0.046572 0.
0.640552 0.0464832 0.
0.642689 0.0463893 0.
0.644831 0.0462865 0.
0.647058 0.0460028 0.
0.64928 0.0457183 0.
0.651626 0.0453813 0.
0.654071 0.045014 0.
0.656543 0.0446403 0.
0.659171 0.0440576 0.
0.661832 0.0434455 0.
0.664791 0.0425248 0.
0.667742 0.0415567 0.
0.670956 0.0404249 0.
0.674255 0.0391128 0.
0.677698 0.0373072 0.
0.681312 0.0353466 0.
0.685109 0.0333731 0.
0.689477 0.031079 0.
0.693621 0.028751 0.
0.698179 0.0260938 0.
0.702677 0.0234629 0.
0.708064 0.0207936 0.
0.713266 0.0179288 0.
0.719294 0.0148228 0.
0.725615 0.0119146 0.
0.73306 0.00917585 0.
0.742571 0.00696946 0.
0.753013 0.00467054 0.
0.765885 0.00371451 0.
0.781826 0.00685209 0.
0.416349 0.00697035 0.
0.431782 0.00419463 0.
0.443537 0.0050319 0.
0.45401 0.00709824 0.
0.463393 0.00931875 0.
0.47092 0.0121291 0.
0.47724 0.01498 0.
0.483284 0.0179544 0.
0.488394 0.0206765 0.
0.493526 0.023555 0.
0.498062 0.0260643 0.
0.502885 0.0288005 0.
0.507183 0.0312226 0.
0.511572 0.0337293 0.
0.515366 0.0359765 0.
0.519095 0.0380444 0.
0.522786 0.0398505 0.
0.526222 0.0412201 0.
0.529455 0.0424794 0.
0.532644 0.043808 0.
0.535536 0.0448298 0.
0.538375 0.0456623 0.
0.540986 0.0461906 0.
0.543617 0.0467464 0.
0.546044 0.0471222 0.
0.548441 0.0474946 0.
0.550761 0.0478122 0.
0.552977 0.0480612 0.
0.555198 0.0483089 0.
0.557338 0.048408 0.
0.559476 0.0485021 0.
0.561597 0.0485895 0.
0.563667 0.0486565 0.
0.565738 0.0487239 0.
0.567792 0.0487741 0.
0.569834 0.0488129 0.
0.571877 0.0488518 0.
0.5739 0.048873 0.
0.575919 0.0488912 0.
0.577937 0.0489084 0.
0.579948 0.0489157 0.
0.58196 0.048923 0.
0.58397 0.0489293 0.
0.585976 0.0489337 0.
0.587983 0.0489381 0.
0.589987 0.0489416 0.
0.591991 0.0489444 0.
0.593994 0.0489472 0.
0.595996 0.0489487 0.
0.597998 0.0489498 0.
0.6 0.0489509 0.
0.602002 0.0489496 0.
0.604005 0.0489482 0.
0.606007 0.0489462 0.
0.608011 0.0489423 0.
0.610015 0.0489384 0.
0.612021 0.0489335 0.
0.61403 0.0489272 0.
0.616038 0.0489209 0.
0.618051 0.0489125 0.
0.620065 0.0489031 0.
0.62208 0.0488937 0.
0.624103 0.048871 0.
0.626127 0.0488471 0.
0.628157 0.0488186 0.
0.630213 0.0487661 0.
0.632269 0.048714 0.
0.634337 0.0486506 0.
0.636424 0.048571 0.
0.638509 0.0484918 0.
0.640672 0.0483743 0.
0.642854 0.0482483 0.
0.645041 0.0481091 0.
0.647298 0.0477956 0.
0.649549 0.0474822 0.
0.651951 0.0470561 0.
0.654428 0.0465981 0.
0.656994 0.0461335 0.
0.659694 0.0455186 0.
0.662439 0.0448321 0.
0.665507 0.0437834 0.
0.66868 0.0426395 0.
0.671993 0.0413557 0.
0.675388 0.0398297 0.
0.678837 0.0379538 0.
0.682625 0.0357769 0.
0.68651 0.0336788 0.
0.690883 0.0313065 0.
0.69507 0.0288684 0.
0.699666 0.02617 0.
0.704188 0.0235582 0.
0.709572 0.0208249 0.
0.714729 0.0179368 0.
0.720777 0.0148506 0.
0.727093 0.0119043 0.
0.734692 0.00929304 0.
0.744166 0.00707079 0.
0.754406 0.00487665 0.
0.766836 0.00411146 0.
0.781409 0.00754975 0.
0.416836 0.00767946 0.
0.431134 0.00461868 0.
0.442416 0.0053295 0.
0.452588 0.00727049 0.
0.46199 0.00946849 0.
0.469521 0.012199 0.
0.475787 0.0150186 0.
0.481897 0.0180409 0.
0.48699 0.020771 0.
0.492112 0.0236761 0.
0.496648 0.0262269 0.
0.501469 0.0289326 0.
0.505855 0.0314551 0.
0.510351 0.0340612 0.
0.514118 0.0363864 0.
0.517938 0.0386107 0.
0.521633 0.0405384 0.
0.525121 0.0420593 0.
0.528565 0.043479 0.
0.531821 0.0449012 0.
0.53473 0.0459974 0.
0.537673 0.0469737 0.
0.540436 0.0476497 0.
0.543172 0.0483176 0.
0.545704 0.0487871 0.
0.548159 0.049225 0.
0.550545 0.0496114 0.
0.55279 0.0498881 0.
0.55504 0.0501593 0.
0.557213 0.0502853 0.
0.55938 0.0504059 0.
0.561525 0.050518 0.
0.563605 0.0505931 0.
0.565686 0.0506686 0.
0.567749 0.0507275 0.
0.569801 0.050775 0.
0.571852 0.0508229 0.
0.573879 0.0508496 0.
0.575902 0.0508724 0.
0.577924 0.0508941 0.
0.579938 0.0509031 0.
0.581951 0.050912 0.
0.583963 0.05092 0.
0.585971 0.0509258 0.
0.587979 0.0509317 0.
0.589985 0.0509363 0.
0.591989 0.0509398 0.
0.593993 0.0509433 0.
0.595995 0.0509451 0.
0.597998 0.0509465 0.
0.6 0.0509478 0.
0.602003 0.050946 0.
0.604006 0.0509443 0.
0.606009 0.0509418 0.
0.608014 0.0509369 0.
0.610019 0.050932 0.
0.612026 0.0509257 0.
0.614036 0.0509175 0.
0.616047 0.0509093 0.
0.618062 0.0508989 0.
0.620079 0.0508874 0.
0.622096 0.0508759 0.
0.624125 0.0508477 0.
0.626154 0.0508182 0.
0.62819 0.0507827 0.
0.630257 0.0507186 0.
0.632323 0.050655 0.
0.634403 0.0505816 0.
0.6365 0.0504938 0.
0.638595 0.0504063 0.
0.640796 0.0502549 0.
0.643019 0.0500956 0.
0.645249 0.049924 0.
0.647537 0.0495842 0.
0.649818 0.0492429 0.
0.652277 0.0487137 0.
0.654787 0.0481652 0.
0.657491 0.047598 0.
0.660328 0.0468999 0.
0.66327 0.0460101 0.
0.666297 0.0449242 0.
0.669651 0.0436465 0.
0.673076 0.0422107 0.
0.676614 0.0404114 0.
0.680092 0.0384365 0.
0.683927 0.036165 0.
0.687936 0.0339183 0.
0.692326 0.0314797 0.
0.696532 0.029 0.
0.701089 0.0262733 0.
0.705656 0.0236681 0.
0.711013 0.0208614 0.
0.716147 0.0179605 0.
0.722194 0.0149199 0.
0.728461 0.0119553 0.
0.736207 0.00942734 0.
0.745575 0.00721639 0.
0.755559 0.00516482 0.
0.767629 0.00452913 0.
0.780944 0.00821312 0.
0.417363 0.00837146 0.
0.430566 0.00508361 0.
0.441397 0.00566883 0.
0.45131 0.00747639 0.
0.460657 0.00964039 0.
0.468149 0.0122724 0.
0.47436 0.0150841 0.
0.480526 0.0181256 0.
0.485618 0.0208809 0.
0.490731 0.023781 0.
0.495272 0.0263965 0.
0.500114 0.029081 0.
0.504525 0.031671 0.
0.509014 0.0343052 0.
0.512852 0.0367339 0.
0.51675 0.0390963 0.
0.520403 0.041111 0.
0.52399 0.0428289 0.
0.527616 0.0443793 0.
0.530799 0.0457972 0.
0.533896 0.0471289 0.
0.536945 0.0482414 0.
0.539879 0.0490765 0.
0.542702 0.0498319 0.
0.545324 0.0503842 0.
0.547812 0.0508718 0.
0.550261 0.0513301 0.
0.552561 0.0516369 0.
0.554884 0.0519484 0.
0.55709 0.0521193 0.
0.559271 0.0522832 0.
0.561433 0.0524345 0.
0.563527 0.0525181 0.
0.565622 0.0526021 0.
0.567699 0.052671 0.
0.56976 0.0527295 0.
0.571822 0.0527884 0.
0.573855 0.0528219 0.
0.575882 0.0528504 0.
0.577909 0.0528774 0.
0.579925 0.0528883 0.
0.581941 0.0528993 0.
0.583955 0.0529091 0.
0.585965 0.0529167 0.
0.587974 0.0529244 0.
0.589981 0.0529302 0.
0.591986 0.0529346 0.
0.593991 0.052939 0.
0.595994 0.0529412 0.
0.597997 0.0529428 0.
0.6 0.0529443 0.
0.602004 0.0529421 0.
0.604007 0.0529398 0.
0.606011 0.0529367 0.
0.608018 0.0529307 0.
0.610024 0.0529247 0.
0.612033 0.0529167 0.
0.614045 0.0529062 0.
0.616058 0.0528957 0.
0.618075 0.052883 0.
0.620096 0.0528691 0.
0.622116 0.0528552 0.
0.624151 0.0528204 0.
0.626187 0.052784 0.
0.62823 0.0527398 0.
0.63031 0.0526609 0.
0.632388 0.0525828 0.
0.634481 0.0524981 0.
0.636592 0.0524024 0.
0.638702 0.0523071 0.
0.64093 0.0520982 0.
0.643176 0.0518787 0.
0.645448 0.0516524 0.
0.647797 0.0512908 0.
0.650122 0.0509313 0.
0.652637 0.0503122 0.
0.655137 0.049701 0.
0.658009 0.0490377 0.
0.660985 0.0482639 0.
0.664137 0.0471252 0.
0.667272 0.0458833 0.
0.670688 0.0445287 0.
0.67421 0.0429406 0.
0.67783 0.0409616 0.
0.681408 0.0388008 0.
0.685272 0.0364746 0.
0.689313 0.0341507 0.
0.693742 0.0316374 0.
0.697991 0.0291316 0.
0.702484 0.0263934 0.
0.707093 0.0237742 0.
0.712411 0.0209115 0.
0.717514 0.0180163 0.
0.723583 0.0149772 0.
0.729788 0.0120685 0.
0.737588 0.00959363 0.
0.746879 0.00739364 0.
0.756528 0.00551231 0.
0.768154 0.00500659 0.
0.78048 0.00887372 0.
0.417999 0.00898571 0.
0.430168 0.00557188 0.
0.440555 0.00606843 0.
0.450249 0.00772843 0.
0.459422 0.00982328 0.
0.46689 0.0124056 0.
0.473074 0.0152077 0.
0.479242 0.018249 0.
0.484317 0.0210301 0.
0.489437 0.0239274 0.
0.493975 0.0265939 0.
0.498796 0.0292619 0.
0.503202 0.0318683 0.
0.50765 0.0345084 0.
0.511568 0.0370342 0.
0.515505 0.0395032 0.
0.519138 0.0416129 0.
0.522842 0.0435093 0.
0.526467 0.0451115 0.
0.529731 0.0466331 0.
0.533022 0.0482144 0.
0.536153 0.0494182 0.
0.539188 0.0503701 0.
0.542043 0.0512018 0.
0.54484 0.0519031 0.
0.547399 0.0524703 0.
0.549944 0.0530315 0.
0.552319 0.05338 0.
0.554721 0.0537342 0.
0.556967 0.0539499 0.
0.559161 0.0541576 0.
0.561341 0.0543509 0.
0.563449 0.0544429 0.
0.565558 0.0545354 0.
0.567648 0.0546143 0.
0.569719 0.0546838 0.
0.571791 0.0547538 0.
0.57383 0.0547941 0.
0.575862 0.0548282 0.
0.577893 0.0548607 0.
0.579912 0.0548736 0.
0.581931 0.0548865 0.
0.583947 0.0548983 0.
0.585958 0.0549077 0.
0.587969 0.054917 0.
0.589977 0.0549242 0.
0.591983 0.0549294 0.
0.593989 0.0549347 0.
0.595993 0.0549373 0.
0.597997 0.0549391 0.
0.6 0.0549409 0.
0.602005 0.0549381 0.
0.604009 0.0549354 0.
0.606014 0.0549317 0.
0.608021 0.0549245 0.
0.610029 0.0549174 0.
0.612039 0.0549077 0.
0.614054 0.0548949 0.
0.616069 0.0548821 0.
0.618089 0.054867 0.
0.620113 0.0548508 0.
0.622136 0.0548345 0.
0.624177 0.054793 0.
0.62622 0.0547497 0.
0.628272 0.0546964 0.
0.630363 0.0546029 0.
0.632453 0.0545101 0.
0.634561 0.0544144 0.
0.636686 0.0543109 0.
0.638809 0.0542078 0.
0.641066 0.0539366 0.
0.643336 0.0536566 0.
0.645657 0.053377 0.
0.648078 0.0529806 0.
0.650497 0.0525659 0.
0.653156 0.0518247 0.
0.655754 0.0511248 0.
0.65871 0.0503533 0.
0.661712 0.049542 0.
0.665043 0.0481694 0.
0.668343 0.046781 0.
0.671823 0.0452804 0.
0.675384 0.0435515 0.
0.679051 0.0414418 0.
0.682706 0.0391329 0.
0.686635 0.0367388 0.
0.690702 0.0343603 0.
0.695081 0.0318262 0.
0.699363 0.0292903 0.
0.70382 0.0265416 0.
0.708483 0.0238827 0.
0.713741 0.0210104 0.
0.718808 0.0181146 0.
0.724885 0.0150613 0.
0.73103 0.0122411 0.
0.738783 0.00981221 0.
0.747949 0.00764854 0.
0.757315 0.0059225 0.
0.768381 0.0055205 0.
0.779875 0.00947773 0.
0.41876 0.00955122 0.
0.430042 0.00606014 0.
0.439987 0.00653812 0.
0.449445 0.00804333 0.
0.458407 0.010068 0.
0.465786 0.0126136 0.
0.471976 0.0154085 0.
0.478084 0.0184356 0.
0.483112 0.0212258 0.
0.488236 0.0241233 0.
0.492757 0.0268092 0.
0.497508 0.0294709 0.
0.501895 0.0320617 0.
0.506304 0.0347097 0.
0.510297 0.0373105 0.
0.514159 0.0398155 0.
0.517854 0.0420572 0.
0.521652 0.0441121 0.
0.525208 0.0457675 0.
0.528639 0.0474036 0.
0.532053 0.0491355 0.
0.535196 0.0504179 0.
0.538359 0.051569 0.
0.541335 0.0525316 0.
0.544338 0.0534043 0.
0.546965 0.05405 0.
0.549592 0.0547123 0.
0.552038 0.0550928 0.
0.554483 0.0554844 0.
0.556769 0.0557509 0.
0.55898 0.0559972 0.
0.561186 0.0562311 0.
0.56332 0.0563339 0.
0.565457 0.056438 0.
0.567569 0.0565305 0.
0.569653 0.0566144 0.
0.571738 0.0566991 0.
0.573787 0.0567504 0.
0.575828 0.0567939 0.
0.577868 0.0568357 0.
0.57989 0.0568511 0.
0.581913 0.0568664 0.
0.583932 0.0568808 0.
0.585946 0.056893 0.
0.58796 0.0569051 0.
0.589971 0.0569143 0.
0.591978 0.0569209 0.
0.593985 0.0569276 0.
0.595991 0.0569307 0.
0.597996 0.0569328 0.
0.6 0.0569349 0.
0.602006 0.0569313 0.
0.604012 0.0569277 0.
0.606018 0.0569229 0.
0.608028 0.0569139 0.
0.610038 0.0569049 0.
0.612051 0.0568926 0.
0.614069 0.0568764 0.
0.616088 0.0568602 0.
0.618112 0.0568423 0.
0.620139 0.0568235 0.
0.622166 0.0568048 0.
0.624221 0.0567497 0.
0.626276 0.0566929 0.
0.628342 0.0566253 0.
0.630447 0.056517 0.
0.632551 0.0564098 0.
0.634682 0.0562986 0.
0.636832 0.0561812 0.
0.63898 0.0560649 0.
0.64127 0.0557351 0.
0.643555 0.0554039 0.
0.645918 0.0550763 0.
0.648382 0.0546579 0.
0.650914 0.054172 0.
0.653712 0.0533127 0.
0.656488 0.0524849 0.
0.659567 0.051515 0.
0.66267 0.050495 0.
0.66599 0.049108 0.
0.669452 0.0476017 0.
0.672982 0.0459666 0.
0.676602 0.0440581 0.
0.680295 0.041835 0.
0.683993 0.0394462 0.
0.687948 0.0370031 0.
0.692061 0.0345735 0.
0.696372 0.0320533 0.
0.700656 0.02948 0.
0.705077 0.0267312 0.
0.709761 0.0240402 0.
0.714975 0.0211593 0.
0.719999 0.0182684 0.
0.726051 0.0152137 0.
0.732156 0.012477 0.
0.739778 0.0100898 0.
0.748721 0.00798194 0.
0.757863 0.00640618 0.
0.768276 0.00602542 0.
0.778991 0.00995525 0.
0.419718 0.0100575 0.
0.430251 0.00653413 0.
0.439686 0.00706917 0.
0.448874 0.00841924 0.
0.457609 0.0103856 0.
0.464846 0.0128943 0.
0.47102 0.0156781 0.
0.477026 0.018681 0.
0.481985 0.021452 0.
0.487072 0.0243435 0.
0.491584 0.0270404 0.
0.496249 0.0296987 0.
0.500635 0.0322701 0.
0.505009 0.0349251 0.
0.509 0.037543 0.
0.512814 0.0400898 0.
0.516583 0.0424609 0.
0.520346 0.0445944 0.
0.523928 0.0463689 0.
0.527514 0.0481018 0.
0.530927 0.0498578 0.
0.534165 0.0513305 0.
0.537443 0.0526703 0.
0.540592 0.0538043 0.
0.543746 0.0548188 0.
0.546431 0.0555013 0.
0.549142 0.0561989 0.
0.551661 0.0566888 0.
0.554144 0.0571819 0.
0.556494 0.0575285 0.
0.558748 0.0578148 0.
0.561001 0.0580942 0.
0.56317 0.0582129 0.
0.565343 0.0583325 0.
0.567484 0.0584413 0.
0.569582 0.058541 0.
0.571681 0.0586417 0.
0.573742 0.0587049 0.
0.575793 0.0587586 0.
0.577843 0.0588102 0.
0.579869 0.0588281 0.
0.581894 0.058846 0.
0.583917 0.058863 0.
0.585934 0.058878 0.
0.587952 0.0588931 0.
0.589964 0.0589043 0.
0.591973 0.0589123 0.
0.593982 0.0589203 0.
0.595989 0.058924 0.
0.597995 0.0589264 0.
0.600001 0.0589288 0.
0.602007 0.0589244 0.
0.604014 0.0589199 0.
0.606023 0.058914 0.
0.608035 0.0589031 0.
0.610047 0.0588922 0.
0.612063 0.0588772 0.
0.614085 0.0588575 0.
0.616107 0.0588379 0.
0.618135 0.0588171 0.
0.620166 0.0587957 0.
0.622197 0.0587744 0.
0.624267 0.0587045 0.
0.626336 0.0586331 0.
0.628418 0.0585496 0.
0.630539 0.0584254 0.
0.632659 0.0583023 0.
0.634821 0.0581708 0.
0.637007 0.0580324 0.
0.6392 0.0578856 0.
0.641544 0.0574945 0.
0.643879 0.0571071 0.
0.646353 0.0566865 0.
0.648892 0.0561842 0.
0.651524 0.0555875 0.
0.654333 0.0547192 0.
0.657271 0.0537592 0.
0.660434 0.0526114 0.
0.663695 0.0513515 0.
0.667045 0.0498945 0.
0.670587 0.0483393 0.
0.674181 0.0465593 0.
0.677834 0.0445101 0.
0.681551 0.0421703 0.
0.6853 0.0397222 0.
0.689243 0.0372644 0.
0.69337 0.0348022 0.
0.697617 0.0323022 0.
0.701891 0.0296913 0.
0.706278 0.0269611 0.
0.710944 0.0242476 0.
0.716116 0.0213568 0.
0.721075 0.0184915 0.
0.727058 0.0154429 0.
0.73316 0.0127734 0.
0.740568 0.0104285 0.
0.749229 0.00837967 0.
0.758132 0.00696154 0.
0.767889 0.00651831 0.
0.777898 0.0102713 0.
0.420824 0.0104357 0.
0.430641 0.00701855 0.
0.439564 0.00762922 0.
0.448482 0.00883575 0.
0.456933 0.010755 0.
0.463996 0.0132212 0.
0.470119 0.0159788 0.
0.475996 0.0189472 0.
0.480916 0.021703 0.
0.485927 0.0245734 0.
0.490446 0.0272898 0.
0.495043 0.0299504 0.
0.499417 0.0324992 0.
0.503719 0.0351353 0.
0.507707 0.037755 0.
0.511519 0.040357 0.
0.515283 0.0428124 0.
0.518985 0.0449966 0.
0.522628 0.0469162 0.
0.526275 0.0486897 0.
0.529709 0.050484 0.
0.533091 0.0521751 0.
0.536458 0.0536615 0.
0.53973 0.0549478 0.
0.542867 0.0560118 0.
0.545784 0.0568593 0.
0.548644 0.0576466 0.
0.55128 0.0582659 0.
0.5538 0.0588604 0.
0.556216 0.0593016 0.
0.558512 0.0596278 0.
0.560811 0.05995 0.
0.563017 0.0600838 0.
0.565224 0.0602184 0.
0.567395 0.0603457 0.
0.569505 0.06046 0.
0.571617 0.0605753 0.
0.57369 0.0606518 0.
0.575753 0.0607178 0.
0.577815 0.060782 0.
0.579844 0.0608024 0.
0.581873 0.0608227 0.
0.583899 0.0608423 0.
0.58592 0.0608605 0.
0.58794 0.0608788 0.
0.589956 0.0608924 0.
0.591967 0.0609021 0.
0.593978 0.0609118 0.
0.595986 0.0609161 0.
0.597993 0.0609187 0.
0.600001 0.0609214 0.
0.60201 0.0609159 0.
0.604018 0.0609105 0.
0.606029 0.0609032 0.
0.608044 0.0608901 0.
0.610059 0.0608769 0.
0.612079 0.0608591 0.
0.614104 0.0608359 0.
0.61613 0.0608127 0.
0.618163 0.0607882 0.
0.620199 0.0607631 0.
0.622235 0.060738 0.
0.624319 0.0606514 0.
0.626403 0.060564 0.
0.6285 0.0604644 0.
0.630636 0.0603262 0.
0.63277 0.0601891 0.
0.634964 0.0600362 0.
0.637184 0.0598791 0.
0.639426 0.0596983 0.
0.641825 0.059247 0.
0.644209 0.058803 0.
0.646815 0.0582739 0.
0.649453 0.0576721 0.
0.652273 0.056882 0.
0.655164 0.0559004 0.
0.658161 0.0548381 0.
0.661339 0.0536201 0.
0.664753 0.0521665 0.
0.668191 0.0506256 0.
0.671766 0.0489805 0.
0.675412 0.047059 0.
0.679098 0.044888 0.
0.682821 0.042459 0.
0.686599 0.0399803 0.
0.690518 0.0375266 0.
0.694632 0.0350482 0.
0.698837 0.0325576 0.
0.703074 0.0299297 0.
0.707444 0.0272045 0.
0.712057 0.0244895 0.
0.717176 0.0216008 0.
0.722088 0.0187578 0.
0.727964 0.0157226 0.
0.734081 0.0131065 0.
0.741247 0.0108052 0.
0.749599 0.00881382 0.
0.758235 0.00755938 0.
0.767404 0.00703327 0.
0.776751 0.010458 0.
0.421938 0.0107016 0.
0.431055 0.00754408 0.
0.439549 0.00821009 0.
0.448154 0.00928325 0.
0.456338 0.0111643 0.
0.46321 0.0135843 0.
0.469278 0.0163054 0.
0.475012 0.0192387 0.
0.479897 0.0219822 0.
0.484833 0.0248365 0.
0.489349 0.0275654 0.
0.493876 0.0302218 0.
0.498231 0.0327567 0.
0.502467 0.035359 0.
0.506454 0.0379783 0.
0.510255 0.0406207 0.
0.513964 0.0431139 0.
0.517646 0.0453759 0.
0.521315 0.0474033 0.
0.52496 0.0492345 0.
0.528474 0.05108 0.
0.531952 0.0529022 0.
0.535361 0.0544942 0.
0.538704 0.0558999 0.
0.541932 0.0571299 0.
0.545102 0.0581961 0.
0.548109 0.0590645 0.
0.550884 0.0598014 0.
0.553384 0.0604538 0.
0.555887 0.060989 0.
0.558235 0.0613452 0.
0.5606 0.0617023 0.
0.562848 0.0618848 0.
0.565087 0.0620665 0.
0.567288 0.0622331 0.
0.569411 0.0623618 0.
0.571535 0.0624915 0.
0.573624 0.0625852 0.
0.575703 0.0626685 0.
0.577782 0.0627502 0.
0.579815 0.0627729 0.
0.581848 0.0627957 0.
0.583878 0.062818 0.
0.585902 0.0628398 0.
0.587926 0.0628617 0.
0.589944 0.0628782 0.
0.591958 0.0628899 0.
0.593972 0.0629016 0.
0.595983 0.0629066 0.
0.597992 0.0629096 0.
0.600001 0.0629126 0.
0.602013 0.0629058 0.
0.604024 0.0628991 0.
0.606037 0.0628902 0.
0.608055 0.0628743 0.
0.610074 0.0628585 0.
0.612097 0.0628375 0.
0.614127 0.0628106 0.
0.616157 0.0627837 0.
0.618196 0.0627541 0.
0.620239 0.0627232 0.
0.622282 0.0626919 0.
0.624384 0.0625843 0.
0.626485 0.0624762 0.
0.6286 0.0623569 0.
0.630751 0.0622042 0.
0.6329 0.0620528 0.
0.635162 0.0618384 0.
0.637454 0.0616128 0.
0.639776 0.0613623 0.
0.64222 0.0608886 0.
0.644627 0.0604233 0.
0.647311 0.0598118 0.
0.650036 0.0591294 0.
0.653059 0.0581333 0.
0.656052 0.0570302 0.
0.659201 0.0557661 0.
0.662354 0.0544657 0.
0.665859 0.0529263 0.
0.669394 0.0513078 0.
0.672992 0.0495523 0.
0.676659 0.0474912 0.
0.680362 0.0452105 0.
0.68406 0.0427445 0.
0.687889 0.0402353 0.
0.691786 0.0377875 0.
0.695866 0.035316 0.
0.700029 0.032827 0.
0.70421 0.0301957 0.
0.708574 0.0274627 0.
0.713123 0.0247551 0.
0.718168 0.0218853 0.
0.723044 0.0190584 0.
0.728798 0.016055 0.
0.734923 0.0134707 0.
0.74187 0.0112122 0.
0.749892 0.00927389 0.
0.758287 0.00818529 0.
0.766957 0.00758454 0.
0.775613 0.0105973 0.
0.42307 0.0108816 0.
0.431514 0.00811118 0.
0.439665 0.0088158 0.
0.447991 0.00977955 0.
0.455895 0.0116307 0.
0.462529 0.0140017 0.
0.46857 0.0166925 0.
0.474121 0.0195887 0.
0.478952 0.0223125 0.
0.483838 0.025156 0.
0.488322 0.0278885 0.
0.492774 0.030527 0.
0.497102 0.033057 0.
0.501279 0.0356192 0.
0.505252 0.0382275 0.
0.509012 0.0408739 0.
0.512678 0.0433993 0.
0.51632 0.0457351 0.
0.519979 0.0478365 0.
0.523634 0.0497469 0.
0.527236 0.0516347 0.
0.530738 0.0534973 0.
0.534182 0.0552055 0.
0.537593 0.056751 0.
0.540939 0.0581541 0.
0.544331 0.0594537 0.
0.547319 0.0603311 0.
0.550187 0.0612087 0.
0.552817 0.0619612 0.
0.55552 0.0626428 0.
0.557938 0.0630447 0.
0.560379 0.0634497 0.
0.562675 0.0636803 0.
0.564947 0.06391 0.
0.56718 0.0641201 0.
0.569316 0.0642631 0.
0.571453 0.0644073 0.
0.573558 0.064518 0.
0.575654 0.0646187 0.
0.577749 0.0647182 0.
0.579786 0.0647434 0.
0.581823 0.0647686 0.
0.583857 0.0647936 0.
0.585884 0.0648191 0.
0.587911 0.0648446 0.
0.589933 0.0648639 0.
0.59195 0.0648777 0.
0.593967 0.0648915 0.
0.595979 0.0648972 0.
0.597991 0.0649004 0.
0.600002 0.0649037 0.
0.602016 0.0648957 0.
0.60403 0.0648876 0.
0.606045 0.0648771 0.
0.608067 0.0648586 0.
0.610089 0.06484 0.
0.612116 0.0648158 0.
0.61415 0.0647852 0.
0.616183 0.0647547 0.
0.618229 0.0647198 0.
0.620279 0.0646832 0.
0.622331 0.0646452 0.
0.624449 0.0645165 0.
0.626567 0.0643875 0.
0.6287 0.0642488 0.
0.630867 0.0640815 0.
0.633031 0.0639157 0.
0.63537 0.063632 0.
0.63774 0.0633335 0.
0.640167 0.0630026 0.
0.642706 0.0624753 0.
0.645248 0.0619211 0.
0.648059 0.0611516 0.
0.65084 0.0603804 0.
0.653919 0.0592993 0.
0.657032 0.0580525 0.
0.660286 0.0566415 0.
0.663554 0.0551944 0.
0.667015 0.0536315 0.
0.670633 0.0519174 0.
0.67426 0.0500361 0.
0.677903 0.0478855 0.
0.681616 0.0455067 0.
0.685291 0.0430256 0.
0.689124 0.0405148 0.
0.69302 0.0380637 0.
0.697068 0.0356152 0.
0.701161 0.033128 0.
0.705275 0.0305063 0.
0.70961 0.0277751 0.
0.714116 0.0250692 0.
0.719067 0.022224 0.
0.723913 0.0194094 0.
0.72953 0.0164531 0.
0.735611 0.0138964 0.
0.742361 0.0116677 0.
0.750071 0.00976881 0.
0.758225 0.00883135 0.
0.766442 0.00816694 0.
0.774484 0.0107157 0.
0.424245 0.0110103 0.
0.4321 0.00872163 0.
0.439964 0.00945783 0.
0.448049 0.0103277 0.
0.455614 0.0121631 0.
0.462025 0.0144951 0.
0.467993 0.0171588 0.
0.473342 0.020012 0.
0.478125 0.0227179 0.
0.482953 0.0255451 0.
0.487365 0.02826 0.
0.491753 0.0308808 0.
0.496031 0.0334055 0.
0.500146 0.0359208 0.
0.504092 0.0385061 0.
0.507813 0.0411446 0.
0.511425 0.0436867 0.
0.515038 0.0460793 0.
0.518684 0.0482468 0.
0.522328 0.0502218 0.
0.525955 0.0521227 0.
0.529486 0.0540442 0.
0.532977 0.0558679 0.
0.536431 0.0574987 0.
0.539874 0.0590241 0.
0.543257 0.060388 0.
0.54633 0.0614371 0.
0.549389 0.0625542 0.
0.552187 0.0634352 0.
0.555096 0.0642709 0.
0.557611 0.0647244 0.
0.56009 0.0651533 0.
0.562434 0.0654337 0.
0.56474 0.0657163 0.
0.567019 0.0659811 0.
0.569171 0.066132 0.
0.571327 0.066284 0.
0.573453 0.0664125 0.
0.575565 0.066535 0.
0.577679 0.0666576 0.
0.579729 0.0666929 0.
0.581779 0.0667271 0.
0.583824 0.0667598 0.
0.585856 0.0667887 0.
0.587888 0.0668176 0.
0.589914 0.06684 0.
0.591935 0.0668565 0.
0.593956 0.0668731 0.
0.595973 0.0668799 0.
0.597989 0.0668837 0.
0.600004 0.0668875 0.
0.602022 0.0668773 0.
0.60404 0.0668672 0.
0.606061 0.0668542 0.
0.608088 0.0668322 0.
0.610115 0.0668103 0.
0.612148 0.0667825 0.
0.614186 0.0667482 0.
0.616225 0.066714 0.
0.618285 0.0666678 0.
0.620351 0.0666181 0.
0.622421 0.066565 0.
0.62456 0.0664123 0.
0.626697 0.0662606 0.
0.628853 0.0661036 0.
0.631039 0.0659279 0.
0.63322 0.0657539 0.
0.635632 0.0653876 0.
0.638063 0.0650212 0.
0.640598 0.064618 0.
0.643227 0.0640451 0.
0.645933 0.0633667 0.
0.648867 0.0624328 0.
0.651828 0.0614649 0.
0.654948 0.0602867 0.
0.658111 0.0589504 0.
0.661415 0.0574557 0.
0.664808 0.0558764 0.
0.66826 0.0542687 0.
0.671884 0.0524641 0.
0.675542 0.0504531 0.
0.679154 0.0482342 0.
0.682842 0.0458028 0.
0.686507 0.0433132 0.
0.690311 0.0408231 0.
0.694201 0.0383709 0.
0.698208 0.0359553 0.
0.702249 0.0334613 0.
0.706281 0.0308608 0.
0.710565 0.0281494 0.
0.715014 0.0254454 0.
0.719865 0.0226273 0.
0.724654 0.0198374 0.
0.730101 0.0169352 0.
0.736094 0.0144073 0.
0.742642 0.0121967 0.
0.750068 0.0103182 0.
0.757968 0.00948235 0.
0.765786 0.00878106 0.
0.773337 0.010854 0.
0.425473 0.0111406 0.
0.432863 0.00938007 0.
0.440454 0.0101222 0.
0.448269 0.0109236 0.
0.455479 0.0127628 0.
0.46172 0.015068 0.
0.467518 0.0176999 0.
0.472682 0.0205124 0.
0.477428 0.0232003 0.
0.482158 0.0259949 0.
0.486477 0.0286847 0.
0.490808 0.0312857 0.
0.495008 0.0337952 0.
0.499062 0.0362645 0.
0.502966 0.0388186 0.
0.506639 0.0414319 0.
0.510212 0.0439888 0.
0.513791 0.0464172 0.
0.517408 0.0486393 0.
0.521037 0.0506739 0.
0.524663 0.0525936 0.
0.528221 0.0545611 0.
0.531733 0.0564528 0.
0.53524 0.0581678 0.
0.5387 0.0597624 0.
0.542068 0.0611822 0.
0.545292 0.0624533 0.
0.54847 0.0637588 0.
0.551447 0.0648031 0.
0.554368 0.0656536 0.
0.557013 0.0662182 0.
0.559603 0.0667446 0.
0.562081 0.0671249 0.
0.564459 0.0674817 0.
0.566822 0.0678252 0.
0.569002 0.0679859 0.
0.571186 0.0681476 0.
0.573337 0.0682961 0.
0.575469 0.0684438 0.
0.577602 0.068592 0.
0.579669 0.0686394 0.
0.581734 0.0686839 0.
0.583791 0.0687253 0.
0.585827 0.0687576 0.
0.587863 0.0687899 0.
0.589894 0.0688154 0.
0.59192 0.0688349 0.
0.593946 0.0688544 0.
0.595967 0.0688623 0.
0.597987 0.0688667 0.
0.600007 0.068871 0.
0.602029 0.0688586 0.
0.604051 0.0688462 0.
0.606076 0.0688307 0.
0.608109 0.0688052 0.
0.610142 0.0687798 0.
0.61218 0.0687482 0.
0.614224 0.0687101 0.
0.616269 0.068672 0.
0.618345 0.068613 0.
0.620429 0.0685486 0.
0.62252 0.0684777 0.
0.624684 0.0682977 0.
0.626844 0.0681192 0.
0.629034 0.0679408 0.
0.631255 0.0677532 0.
0.633475 0.0675635 0.
0.635971 0.0670753 0.
0.63846 0.066605 0.
0.641145 0.0660892 0.
0.643866 0.0654768 0.
0.646709 0.0646808 0.
0.649717 0.0636425 0.
0.652857 0.062483 0.
0.656047 0.0611888 0.
0.659305 0.0597129 0.
0.662636 0.0581551 0.
0.666084 0.0565127 0.
0.669562 0.0548233 0.
0.673149 0.0529554 0.
0.676808 0.0508424 0.
0.680412 0.048552 0.
0.684056 0.0461022 0.
0.687706 0.0436162 0.
0.691464 0.0411602 0.
0.695327 0.0387186 0.
0.69929 0.0363344 0.
0.703271 0.0338438 0.
0.707257 0.0312487 0.
0.711446 0.0285793 0.
0.715817 0.0258862 0.
0.720565 0.0231027 0.
0.72529 0.0203412 0.
0.73053 0.0174945 0.
0.736398 0.0149933 0.
0.742737 0.0128 0.
0.749875 0.0109216 0.
0.757542 0.010144 0.
0.76503 0.00943479 0.
0.772152 0.0110525 0.
0.426677 0.0113712 0.
0.433699 0.0100801 0.
0.441012 0.0107898 0.
0.448552 0.011558 0.
0.455428 0.0134154 0.
0.461508 0.015693 0.
0.467114 0.0182952 0.
0.472106 0.021075 0.
0.476816 0.0237384 0.
0.481416 0.0264889 0.
0.485657 0.0291594 0.
0.489909 0.0317299 0.
0.494013 0.034212 0.
0.498004 0.0366435 0.
0.501855 0.0391563 0.
0.50549 0.0417444 0.
0.509034 0.0443061 0.
0.51256 0.0467505 0.
0.516153 0.0490256 0.
0.519763 0.0511072 0.
0.523371 0.0530601 0.
0.526952 0.0550405 0.
0.530483 0.0569735 0.
0.533999 0.0587876 0.
0.537467 0.0604273 0.
0.540857 0.0619244 0.
0.544185 0.0633587 0.
0.547402 0.0647289 0.
0.550472 0.0659082 0.
0.553476 0.0668904 0.
0.55635 0.0676728 0.
0.559074 0.0683082 0.
0.561714 0.0688032 0.
0.564167 0.0692353 0.
0.566622 0.0696676 0.
0.56883 0.0698371 0.
0.571041 0.0700059 0.
0.573218 0.0701722 0.
0.575368 0.0703428 0.
0.57752 0.0705143 0.
0.579604 0.0705768 0.
0.581683 0.0706344 0.
0.583753 0.0706872 0.
0.585794 0.0707227 0.
0.587835 0.0707582 0.
0.589871 0.0707869 0.
0.591902 0.0708093 0.
0.593934 0.0708317 0.
0.59596 0.0708408 0.
0.597985 0.0708457 0.
0.60001 0.0708506 0.
0.602037 0.0708359 0.
0.604065 0.0708213 0.
0.606095 0.0708032 0.
0.608134 0.070774 0.
0.610172 0.0707449 0.
0.612217 0.0707096 0.
0.614267 0.0706677 0.
0.616318 0.070626 0.
0.61841 0.070551 0.
0.620512 0.070469 0.
0.622623 0.0703777 0.
0.624811 0.0701735 0.
0.626993 0.0699723 0.
0.629217 0.069775 0.
0.631473 0.0695764 0.
0.633751 0.0693512 0.
0.63632 0.068744 0.
0.63887 0.068169 0.
0.641752 0.0675201 0.
0.644622 0.0668105 0.
0.647661 0.065786 0.
0.650693 0.0646884 0.
0.653941 0.0634071 0.
0.657212 0.0619964 0.
0.660545 0.0604004 0.
0.663925 0.0587748 0.
0.667389 0.0570926 0.
0.670882 0.0553333 0.
0.674433 0.0533853 0.
0.678071 0.0512102 0.
0.681651 0.0488653 0.
0.685257 0.0464113 0.
0.688889 0.0439354 0.
0.692595 0.0415169 0.
0.696411 0.039105 0.
0.700327 0.0367453 0.
0.704242 0.0342684 0.
0.708184 0.0316776 0.
0.712292 0.0290432 0.
0.716554 0.0263789 0.
0.721194 0.0236305 0.
0.725841 0.0209077 0.
0.730894 0.0181112 0.
0.736579 0.0156336 0.
0.742747 0.0134523 0.
0.749578 0.0115666 0.
0.757005 0.0108134 0.
0.764227 0.0101356 0.
0.770996 0.0113747 0.
0.427793 0.0117319 0.
0.434521 0.0108081 0.
0.44158 0.0114566 0.
0.44885 0.0122261 0.
0.455422 0.0141045 0.
0.461333 0.0163596 0.
0.466774 0.0189443 0.
0.471612 0.0216931 0.
0.476243 0.0243199 0.
0.48071 0.027021 0.
0.484869 0.0296696 0.
0.489029 0.0322043 0.
0.49304 0.0346544 0.
0.496969 0.0370561 0.
0.50077 0.0395251 0.
0.504362 0.0420827 0.
0.507869 0.044636 0.
0.511356 0.0470947 0.
0.514923 0.0494089 0.
0.518506 0.0515321 0.
0.522102 0.0535193 0.
0.5257 0.0554904 0.
0.529221 0.0574529 0.
0.532726 0.059361 0.
0.536199 0.0610441 0.
0.539614 0.0626144 0.
0.542982 0.0641181 0.
0.546242 0.0655393 0.
0.549444 0.0669378 0.
0.552538 0.0680583 0.
0.555638 0.0690807 0.
0.558469 0.0697954 0.
0.561223 0.0703875 0.
0.563707 0.0708593 0.
0.566229 0.0713411 0.
0.568534 0.071573 0.
0.570837 0.0718031 0.
0.573086 0.0720211 0.
0.575256 0.0722155 0.
0.577428 0.0724111 0.
0.579528 0.072496 0.
0.581622 0.0725736 0.
0.583706 0.0726436 0.
0.585754 0.0726823 0.
0.587802 0.072721 0.
0.589844 0.0727529 0.
0.591881 0.0727784 0.
0.593919 0.0728039 0.
0.595951 0.0728142 0.
0.597982 0.0728198 0.
0.600014 0.0728252 0.
0.602048 0.0728082 0.
0.604081 0.0727912 0.
0.606118 0.0727702 0.
0.608163 0.0727368 0.
0.610208 0.0727036 0.
0.612261 0.0726642 0.
0.614319 0.0726186 0.
0.616378 0.0725731 0.
0.618487 0.0724743 0.
0.620605 0.0723659 0.
0.622741 0.0722441 0.
0.624961 0.0720088 0.
0.627175 0.0717773 0.
0.629475 0.0715321 0.
0.63181 0.0712869 0.
0.634195 0.0709752 0.
0.636787 0.0703091 0.
0.639363 0.0696656 0.
0.642421 0.0689051 0.
0.645465 0.0680563 0.
0.648659 0.0668213 0.
0.651814 0.0655751 0.
0.655086 0.06423 0.
0.658425 0.0626951 0.
0.661802 0.061039 0.
0.665244 0.0593502 0.
0.668719 0.057638 0.
0.672212 0.0558067 0.
0.675722 0.0537778 0.
0.679316 0.0515561 0.
0.682882 0.0491776 0.
0.686439 0.0467352 0.
0.690047 0.0442841 0.
0.693715 0.0418927 0.
0.69747 0.0395248 0.
0.701327 0.0371892 0.
0.705169 0.0347303 0.
0.709059 0.0321506 0.
0.713104 0.0295445 0.
0.717257 0.0269101 0.
0.721767 0.0242033 0.
0.726348 0.0215192 0.
0.731222 0.0187717 0.
0.736686 0.016319 0.
0.742692 0.0141488 0.
0.749264 0.0122461 0.
0.756433 0.0114801 0.
0.763417 0.0108714 0.
0.769908 0.0118295 0.
0.428891 0.0121883 0.
0.435361 0.0115615 0.
0.442226 0.0121344 0.
0.449223 0.0129405 0.
0.455528 0.0148501 0.
0.461263 0.0170934 0.
0.466512 0.0196632 0.
0.471211 0.0223763 0.
0.475733 0.0249603 0.
0.480062 0.0276095 0.
0.484144 0.0302316 0.
0.488187 0.0327254 0.
0.492119 0.0351451 0.
0.495985 0.0375193 0.
0.49972 0.0399368 0.
0.503267 0.0424585 0.
0.506733 0.0449942 0.
0.510196 0.0474612 0.
0.513714 0.049795 0.
0.517277 0.0519609 0.
0.520852 0.0539763 0.
0.524437 0.0559293 0.
0.527946 0.0579162 0.
0.531437 0.0598659 0.
0.534908 0.061613 0.
0.538351 0.063261 0.
0.541739 0.0648145 0.
0.545052 0.0662987 0.
0.548331 0.0678124 0.
0.551526 0.0691098 0.
0.554716 0.0702635 0.
0.557604 0.0710684 0.
0.560517 0.0718601 0.
0.56313 0.0724187 0.
0.565769 0.0729719 0.
0.568211 0.0732908 0.
0.57062 0.0735908 0.
0.572953 0.0738685 0.
0.575142 0.0740868 0.
0.577334 0.0743067 0.
0.579452 0.0744143 0.
0.581561 0.0745121 0.
0.583659 0.0745999 0.
0.585714 0.0746418 0.
0.587768 0.0746838 0.
0.589817 0.0747189 0.
0.591861 0.0747475 0.
0.593904 0.0747761 0.
0.595943 0.0747877 0.
0.59798 0.0747939 0.
0.600018 0.0747999 0.
0.602058 0.0747805 0.
0.604098 0.0747612 0.
0.606141 0.0747371 0.
0.608193 0.0746996 0.
0.610244 0.0746622 0.
0.612305 0.0746188 0.
0.614372 0.0745694 0.
0.616439 0.0745201 0.
0.618565 0.0743963 0.
0.6207 0.0742613 0.
0.622861 0.0741082 0.
0.625115 0.0738416 0.
0.627362 0.0735794 0.
0.629756 0.0732746 0.
0.632194 0.072966 0.
0.634743 0.0725169 0.
0.637455 0.0717436 0.
0.640218 0.0709628 0.
0.64331 0.0701271 0.
0.646445 0.0691386 0.
0.649716 0.0677682 0.
0.652993 0.0663904 0.
0.656288 0.0649684 0.
0.659674 0.0633277 0.
0.663081 0.0616067 0.
0.666559 0.0598933 0.
0.670046 0.0581448 0.
0.673517 0.0562515 0.
0.677023 0.0541459 0.
0.680555 0.0518891 0.
0.684086 0.0495069 0.
0.687603 0.0470802 0.
0.69117 0.0446689 0.
0.6948 0.042305 0.
0.698497 0.0399842 0.
0.702284 0.0376772 0.
0.706048 0.0352393 0.
0.709855 0.0326872 0.
0.713831 0.0301088 0.
0.717903 0.0274976 0.
0.722275 0.0248382 0.
0.726779 0.0221958 0.
0.731476 0.0194922 0.
0.736723 0.0170622 0.
0.742522 0.0149058 0.
0.748863 0.0129765 0.
0.755774 0.0121458 0.
0.76257 0.0116325 0.
0.76882 0.0123642 0.
0.430047 0.0127267 0.
0.436309 0.0123423 0.
0.443026 0.0128238 0.
0.449731 0.013725 0.
0.455795 0.0156821 0.
0.461333 0.0179097 0.
0.466353 0.0204663 0.
0.4709 0.0231368 0.
0.475296 0.025669 0.
0.479492 0.0282665 0.
0.483472 0.0308513 0.
0.487396 0.033302 0.
0.491252 0.0356874 0.
0.495038 0.0380286 0.
0.498704 0.040397 0.
0.502202 0.0428739 0.
0.505627 0.0453822 0.
0.509042 0.0478373 0.
0.512529 0.0501882 0.
0.516058 0.0523882 0.
0.5196 0.0544273 0.
0.523159 0.0563747 0.
0.526664 0.0583605 0.
0.53013 0.0603235 0.
0.533609 0.062153 0.
0.537076 0.0638687 0.
0.540472 0.0654616 0.
0.543841 0.0669999 0.
0.547161 0.0685757 0.
0.55041 0.0700143 0.
0.553619 0.0712422 0.
0.556678 0.0722629 0.
0.559715 0.0732473 0.
0.562507 0.0739574 0.
0.565257 0.07457 0.
0.567841 0.0749676 0.
0.570333 0.0753324 0.
0.572751 0.0756847 0.
0.574955 0.0759169 0.
0.577166 0.0761503 0.
0.579317 0.0762889 0.
0.581458 0.0764189 0.
0.583589 0.0765376 0.
0.585654 0.0765831 0.
0.587718 0.0766288 0.
0.589777 0.0766671 0.
0.591829 0.0766983 0.
0.593882 0.0767294 0.
0.59593 0.076742 0.
0.597977 0.0767484 0.
0.600024 0.0767547 0.
0.602074 0.0767335 0.
0.604123 0.0767122 0.
0.606176 0.0766856 0.
0.608237 0.0766439 0.
0.610298 0.0766024 0.
0.61237 0.0765538 0.
0.614452 0.0764989 0.
0.616532 0.0764442 0.
0.618691 0.0762847 0.
0.620854 0.0761158 0.
0.623054 0.0759257 0.
0.625342 0.0756349 0.
0.627614 0.0753508 0.
0.630094 0.0749857 0.
0.632616 0.074621 0.
0.635345 0.0740156 0.
0.638176 0.0731393 0.
0.641168 0.0721753 0.
0.644342 0.0711899 0.
0.647568 0.0699953 0.
0.650838 0.0685987 0.
0.654206 0.0671385 0.
0.657557 0.0656085 0.
0.660953 0.0639152 0.
0.664389 0.0621483 0.
0.667871 0.0604152 0.
0.671363 0.058626 0.
0.674813 0.0566621 0.
0.678299 0.0545089 0.
0.681799 0.052219 0.
0.68528 0.0498507 0.
0.688757 0.047448 0.
0.692278 0.0450823 0.
0.695858 0.0427558 0.
0.699497 0.0404805 0.
0.703204 0.038207 0.
0.706881 0.0357977 0.
0.710595 0.0332818 0.
0.714479 0.0307443 0.
0.718477 0.0281566 0.
0.722697 0.0255474 0.
0.727092 0.0229578 0.
0.731637 0.0202967 0.
0.736665 0.0178765 0.
0.742215 0.0157372 0.
0.748318 0.013778 0.
0.754942 0.0128228 0.
0.761603 0.0124169 0.
0.767649 0.0129431 0.
0.431306 0.0133318 0.
0.437408 0.0131405 0.
0.443988 0.0135341 0.
0.450374 0.0145956 0.
0.456172 0.0165889 0.
0.46149 0.0188016 0.
0.466282 0.0213513 0.
0.470652 0.023968 0.
0.474923 0.0264452 0.
0.47898 0.0289885 0.
0.482841 0.0315274 0.
0.486659 0.033933 0.
0.490423 0.036276 0.
0.494116 0.0385801 0.
0.497711 0.0408984 0.
0.501152 0.0433203 0.
0.504526 0.0457915 0.
0.507905 0.0482289 0.
0.511348 0.0505843 0.
0.514841 0.0528118 0.
0.518353 0.054878 0.
0.521881 0.0568254 0.
0.525375 0.058788 0.
0.528837 0.0607649 0.
0.532323 0.062672 0.
0.53579 0.0644317 0.
0.539204 0.0660819 0.
0.542597 0.0676627 0.
0.545932 0.0692585 0.
0.549238 0.0708185 0.
0.552498 0.0721499 0.
0.555712 0.0733688 0.
0.558831 0.0744833 0.
0.561779 0.075335 0.
0.564617 0.0759725 0.
0.567356 0.0764933 0.
0.569935 0.0769834 0.
0.572475 0.0774714 0.
0.574715 0.0777209 0.
0.576962 0.0779719 0.
0.579159 0.0781468 0.
0.581341 0.0783156 0.
0.583514 0.0784715 0.
0.58559 0.0785213 0.
0.587666 0.0785712 0.
0.589735 0.0786133 0.
0.591797 0.0786471 0.
0.593859 0.078681 0.
0.595917 0.0786946 0.
0.597973 0.0787013 0.
0.60003 0.0787079 0.
0.60209 0.0786847 0.
0.60415 0.0786614 0.
0.606212 0.0786319 0.
0.608283 0.0785857 0.
0.610354 0.0785397 0.
0.612441 0.0784852 0.
0.614539 0.0784236 0.
0.616636 0.0783622 0.
0.618837 0.0781589 0.
0.621039 0.0779486 0.
0.6233 0.0777112 0.
0.62565 0.0773855 0.
0.62799 0.0770655 0.
0.630638 0.0765634 0.
0.63325 0.0760969 0.
0.636095 0.0753174 0.
0.63895 0.074433 0.
0.642155 0.0732952 0.
0.645419 0.0721519 0.
0.648736 0.0707643 0.
0.652051 0.0693251 0.
0.655444 0.0678312 0.
0.658832 0.0661971 0.
0.662245 0.0644583 0.
0.6657 0.0626738 0.
0.669186 0.0609288 0.
0.672662 0.059094 0.
0.676104 0.0570551 0.
0.679558 0.0548642 0.
0.68303 0.0525588 0.
0.686473 0.0502069 0.
0.689905 0.0478403 0.
0.693374 0.0455226 0.
0.6969 0.0432398 0.
0.700483 0.0410091 0.
0.704108 0.0387687 0.
0.707694 0.0363953 0.
0.71131 0.0339265 0.
0.71507 0.0314419 0.
0.718967 0.0288892 0.
0.723046 0.0263287 0.
0.727317 0.0237971 0.
0.731714 0.0211863 0.
0.736506 0.0187687 0.
0.741829 0.0166341 0.
0.747651 0.0146505 0.
0.753977 0.0135309 0.
0.760474 0.0132208 0.
0.766395 0.01357 0.
0.432635 0.0140148 0.
0.438611 0.0139457 0.
0.445018 0.0142917 0.
0.451067 0.0155376 0.
0.456594 0.0175423 0.
0.461674 0.0197597 0.
0.46623 0.0222919 0.
0.470452 0.0248487 0.
0.474584 0.0272754 0.
0.478489 0.0297577 0.
0.482222 0.0322396 0.
0.485939 0.0345989 0.
0.489605 0.0368947 0.
0.493199 0.0391572 0.
0.496714 0.0414283 0.
0.5001 0.0437878 0.
0.503429 0.0462203 0.
0.506774 0.0486322 0.
0.510187 0.0509925 0.
0.513644 0.0532394 0.
0.517114 0.0553301 0.
0.520613 0.0572918 0.
0.524104 0.0592258 0.
0.527565 0.0612093 0.
0.531044 0.0631574 0.
0.534509 0.0649721 0.
0.537936 0.0666847 0.
0.541327 0.0682948 0.
0.54469 0.0698937 0.
0.54804 0.0715261 0.
0.551355 0.0729884 0.
0.554653 0.0743243 0.
0.557812 0.0754989 0.
0.560935 0.0765881 0.
0.563912 0.0773242 0.
0.566849 0.0779874 0.
0.569517 0.0786041 0.
0.572195 0.0792552 0.
0.574472 0.0795215 0.
0.576756 0.0797882 0.
0.578998 0.0799948 0.
0.58122 0.0802012 0.
0.583435 0.0803995 0.
0.585523 0.0804535 0.
0.587611 0.0805077 0.
0.589692 0.0805534 0.
0.591763 0.0805896 0.
0.593834 0.0806259 0.
0.595903 0.0806402 0.
0.59797 0.0806471 0.
0.600037 0.0806536 0.
0.602108 0.0806287 0.
0.604178 0.0806038 0.
0.606251 0.0805717 0.
0.608331 0.0805216 0.
0.610411 0.0804716 0.
0.612514 0.0804097 0.
0.614629 0.0803399 0.
0.616745 0.0802693 0.
0.618987 0.080023 0.
0.621226 0.0797741 0.
0.623553 0.0794896 0.
0.625967 0.0791293 0.
0.628419 0.0787538 0.
0.631224 0.0781081 0.
0.633992 0.0774734 0.
0.636997 0.0764644 0.
0.639964 0.0754563 0.
0.643214 0.0742663 0.
0.646543 0.0729883 0.
0.649904 0.0714952 0.
0.653286 0.0700025 0.
0.656694 0.0684701 0.
0.660103 0.0667531 0.
0.663522 0.064973 0.
0.667 0.0631872 0.
0.670493 0.061424 0.
0.673954 0.0595397 0.
0.677375 0.0574461 0.
0.680805 0.055222 0.
0.684241 0.0529181 0.
0.687655 0.0505818 0.
0.691055 0.0482558 0.
0.694476 0.0459814 0.
0.697939 0.043751 0.
0.701461 0.0415626 0.
0.705008 0.0393538 0.
0.708511 0.0370167 0.
0.712033 0.0345993 0.
0.715652 0.032173 0.
0.719424 0.0296695 0.
0.723371 0.0271673 0.
0.727494 0.024694 0.
0.731746 0.0221316 0.
0.736313 0.0197226 0.
0.741401 0.0175896 0.
0.746944 0.0155854 0.
0.752978 0.0142892 0.
0.759251 0.0140158 0.
0.765091 0.0142415 0.
0.434018 0.014781 0.
0.439877 0.0147412 0.
0.446021 0.0151128 0.
0.451741 0.0165252 0.
0.45702 0.0185445 0.
0.461854 0.0207731 0.
0.466164 0.0232697 0.
0.470271 0.0257727 0.
0.474231 0.0281417 0.
0.477979 0.0305522 0.
0.481597 0.0329774 0.
0.485206 0.0352926 0.
0.488773 0.0375372 0.
0.492273 0.0397581 0.
0.495703 0.0419824 0.
0.499038 0.0442764 0.
0.502333 0.0466651 0.
0.505652 0.049055 0.
0.509041 0.0514125 0.
0.512452 0.0536694 0.
0.515885 0.0557866 0.
0.519357 0.0577657 0.
0.522839 0.0596793 0.
0.526304 0.0616556 0.
0.529779 0.0636296 0.
0.53324 0.0654992 0.
0.536661 0.0672576 0.
0.540055 0.0689089 0.
0.543451 0.0705059 0.
0.546827 0.0721684 0.
0.550178 0.073754 0.
0.553511 0.0751584 0.
0.556755 0.0764391 0.
0.560001 0.0777294 0.
0.563149 0.0786251 0.
0.566289 0.0794183 0.
0.568996 0.0801139 0.
0.571711 0.0808652 0.
0.574107 0.0811998 0.
0.576503 0.0815055 0.
0.578831 0.081776 0.
0.581087 0.0820458 0.
0.583342 0.0823119 0.
0.585446 0.0823717 0.
0.58755 0.0824318 0.
0.589645 0.0824823 0.
0.591726 0.0825209 0.
0.593808 0.0825596 0.
0.595887 0.0825744 0.
0.597966 0.0825809 0.
0.600045 0.082587 0.
0.602127 0.0825606 0.
0.604209 0.0825342 0.
0.606293 0.0824997 0.
0.608383 0.082446 0.
0.610472 0.0823924 0.
0.612594 0.0823163 0.
0.614732 0.0822284 0.
0.61688 0.0821314 0.
0.619204 0.0818081 0.
0.621509 0.0814928 0.
0.623939 0.0811382 0.
0.626427 0.0807427 0.
0.629005 0.0802947 0.
0.631869 0.0795839 0.
0.634814 0.0787254 0.
0.637946 0.0775402 0.
0.641082 0.0763649 0.
0.644365 0.0751138 0.
0.64773 0.0737213 0.
0.651112 0.0721754 0.
0.654526 0.0706508 0.
0.657946 0.0690606 0.
0.661354 0.0673034 0.
0.664794 0.0654876 0.
0.668276 0.0637094 0.
0.671769 0.0619159 0.
0.675235 0.0599639 0.
0.678644 0.0578301 0.
0.682042 0.0555888 0.
0.68545 0.0532933 0.
0.688828 0.0509792 0.
0.692204 0.0486936 0.
0.695588 0.0464606 0.
0.698991 0.0442826 0.
0.702444 0.0421379 0.
0.705918 0.0399562 0.
0.709342 0.0376557 0.
0.712776 0.0352928 0.
0.716275 0.032922 0.
0.719903 0.0304765 0.
0.723706 0.0280386 0.
0.727655 0.0256323 0.
0.731763 0.0231229 0.
0.736127 0.0207287 0.
0.740971 0.0185931 0.
0.74625 0.016575 0.
0.751993 0.0151135 0.
0.758016 0.014797 0.
0.763753 0.0149779 0.
0.435466 0.0155886 0.
0.441195 0.0155322 0.
0.447026 0.0160113 0.
0.452458 0.0175838 0.
0.457483 0.0196202 0.
0.462033 0.0218481 0.
0.466151 0.024312 0.
0.470102 0.0267536 0.
0.473874 0.0290566 0.
0.477479 0.0313923 0.
0.480984 0.0337584 0.
0.48448 0.0360236 0.
0.487943 0.0382164 0.
0.491351 0.0403929 0.
0.494701 0.0425726 0.
0.497998 0.044809 0.
0.501267 0.0471472 0.
0.504555 0.0495077 0.
0.507905 0.0518486 0.
0.511272 0.0541078 0.
0.514678 0.0562489 0.
0.518125 0.0582493 0.
0.5216 0.0601565 0.
0.525065 0.0621132 0.
0.52853 0.0640954 0.
0.531987 0.0660115 0.
0.535396 0.0678104 0.
0.538795 0.0695041 0.
0.542206 0.0711085 0.
0.545605 0.0727757 0.
0.548986 0.074455 0.
0.552332 0.0759182 0.
0.55566 0.0773018 0.
0.558962 0.0787203 0.
0.562228 0.0797957 0.
0.565407 0.0806222 0.
0.568251 0.0814335 0.
0.571075 0.0823441 0.
0.573675 0.0828392 0.
0.57622 0.0832079 0.
0.578661 0.0835514 0.
0.580951 0.0838853 0.
0.583246 0.0842209 0.
0.585368 0.0842897 0.
0.587488 0.0843557 0.
0.589598 0.0844112 0.
0.591689 0.0844521 0.
0.593781 0.0844932 0.
0.595872 0.0845086 0.
0.597963 0.0845147 0.
0.600053 0.0845204 0.
0.602147 0.0844925 0.
0.604241 0.0844645 0.
0.606336 0.0844276 0.
0.608435 0.0843703 0.
0.610533 0.0843131 0.
0.612676 0.0842218 0.
0.614836 0.0841154 0.
0.617024 0.0839862 0.
0.619432 0.0835843 0.
0.621814 0.0831948 0.
0.624396 0.0827427 0.
0.627022 0.082271 0.
0.629816 0.0816436 0.
0.632739 0.0808126 0.
0.635784 0.0797678 0.
0.638974 0.0785141 0.
0.642245 0.07722 0.
0.645564 0.0758773 0.
0.648955 0.07439 0.
0.652354 0.0728241 0.
0.655771 0.0712742 0.
0.6592 0.0696157 0.
0.662596 0.0678312 0.
0.666041 0.066012 0.
0.669523 0.0642392 0.
0.673012 0.0624085 0.
0.676476 0.0603908 0.
0.679889 0.058215 0.
0.683263 0.0559722 0.
0.686633 0.0536964 0.
0.689981 0.0514099 0.
0.693329 0.0491669 0.
0.696684 0.0469741 0.
0.70004 0.0448449 0.
0.703417 0.0427436 0.
0.70681 0.0405945 0.
0.710165 0.038331 0.
0.71352 0.036022 0.
0.716916 0.0337021 0.
0.720392 0.0313232 0.
0.724033 0.0289527 0.
0.727809 0.0266189 0.
0.731748 0.0241798 0.
0.735912 0.0218055 0.
0.740504 0.0196642 0.
0.745526 0.017639 0.
0.750968 0.0160301 0.
0.756732 0.0155785 0.
0.762342 0.0157609 0.
0.437007 0.016398 0.
0.442582 0.0163411 0.
0.448113 0.0170196 0.
0.453269 0.0187419 0.
0.457996 0.0207869 0.
0.462257 0.0230155 0.
0.466193 0.0254351 0.
0.469942 0.0277905 0.
0.47353 0.0300255 0.
0.476996 0.0322915 0.
0.480385 0.0345892 0.
0.483765 0.0367955 0.
0.487128 0.0389394 0.
0.490442 0.0410674 0.
0.493716 0.0432015 0.
0.496977 0.0453808 0.
0.500219 0.047661 0.
0.503473 0.0499883 0.
0.506775 0.0522984 0.
0.510106 0.054556 0.
0.513482 0.0567142 0.
0.516916 0.0587411 0.
0.520379 0.0606561 0.
0.523835 0.0625817 0.
0.527293 0.0645617 0.
0.530736 0.0665095 0.
0.534136 0.0683501 0.
0.537541 0.0700842 0.
0.540959 0.0717085 0.
0.544381 0.0733616 0.
0.547772 0.0750733 0.
0.551139 0.0766294 0.
0.554536 0.0780863 0.
0.557866 0.0795472 0.
0.561188 0.0808127 0.
0.564427 0.0817391 0.
0.56746 0.0826932 0.
0.570385 0.0837559 0.
0.573191 0.0844522 0.
0.575866 0.0848774 0.
0.578415 0.0852873 0.
0.580727 0.0856692 0.
0.583068 0.0860588 0.
0.585238 0.0861593 0.
0.587398 0.0862455 0.
0.589541 0.0863165 0.
0.591645 0.0863584 0.
0.59375 0.0864003 0.
0.595854 0.0864156 0.
0.597959 0.086421 0.
0.600063 0.0864259 0.
0.602171 0.0863967 0.
0.604279 0.0863677 0.
0.606389 0.0863292 0.
0.608502 0.0862703 0.
0.610614 0.0862115 0.
0.612799 0.0860916 0.
0.615002 0.0859529 0.
0.617258 0.0857684 0.
0.619731 0.0853012 0.
0.622164 0.0848653 0.
0.624911 0.0843174 0.
0.627671 0.0837704 0.
0.630678 0.0829236 0.
0.633677 0.0819442 0.
0.636853 0.0806464 0.
0.640089 0.0793585 0.
0.643422 0.0780105 0.
0.64678 0.0765672 0.
0.650193 0.0750207 0.
0.653606 0.0734519 0.
0.65702 0.0718694 0.
0.660444 0.0701539 0.
0.66385 0.0683461 0.
0.667284 0.0665389 0.
0.670751 0.0647674 0.
0.674235 0.0628907 0.
0.677694 0.0608205 0.
0.681096 0.0586203 0.
0.684463 0.0563804 0.
0.687801 0.0541242 0.
0.691116 0.0518712 0.
0.694437 0.0496672 0.
0.697766 0.0475207 0.
0.701076 0.0454389 0.
0.704389 0.0433771 0.
0.707699 0.0412603 0.
0.710976 0.0390474 0.
0.714248 0.0367985 0.
0.717544 0.0345269 0.
0.720886 0.0322132 0.
0.724358 0.0299239 0.
0.727951 0.027663 0.
0.731687 0.0253104 0.
0.735644 0.0229703 0.
0.739956 0.0208314 0.
0.744723 0.0187985 0.
0.74985 0.0170726 0.
0.755337 0.0163841 0.
0.760789 0.0165539 0.
0.438675 0.0171968 0.
0.444047 0.0172187 0.
0.449277 0.0181726 0.
0.454115 0.020005 0.
0.458522 0.0220432 0.
0.462505 0.0242674 0.
0.466226 0.0266095 0.
0.469768 0.0288752 0.
0.473192 0.0310451 0.
0.476507 0.0332317 0.
0.479785 0.0354565 0.
0.483059 0.0376078 0.
0.486317 0.0396989 0.
0.489535 0.0417749 0.
0.492743 0.0438604 0.
0.495963 0.0459818 0.
0.49917 0.0481993 0.
0.502381 0.0504834 0.
0.505644 0.0527606 0.
0.508947 0.0550104 0.
0.512302 0.0571828 0.
0.515719 0.0592353 0.
0.519166 0.0611669 0.
0.522619 0.0630673 0.
0.526067 0.0650342 0.
0.529488 0.066999 0.
0.532892 0.0688819 0.
0.536297 0.07065 0.
0.539719 0.0723053 0.
0.543166 0.0739413 0.
0.546576 0.0756651 0.
0.54997 0.0773231 0.
0.553391 0.0788198 0.
0.556754 0.080292 0.
0.560115 0.0817329 0.
0.563418 0.0827927 0.
0.566623 0.083843 0.
0.569597 0.0849603 0.
0.57252 0.0858547 0.
0.57528 0.0863884 0.
0.578009 0.0869564 0.
0.580404 0.0873988 0.
0.582831 0.0878528 0.
0.585079 0.0880045 0.
0.587292 0.0881214 0.
0.58948 0.0882156 0.
0.591598 0.0882585 0.
0.593717 0.0883013 0.
0.595836 0.0883165 0.
0.597955 0.088321 0.
0.600074 0.0883251 0.
0.602197 0.0882944 0.
0.604319 0.0882638 0.
0.606445 0.0882234 0.
0.608576 0.0881627 0.
0.610706 0.0881022 0.
0.612951 0.0879406 0.
0.615219 0.0877548 0.
0.617587 0.087478 0.
0.62017 0.0869042 0.
0.622727 0.0863583 0.
0.625585 0.0857131 0.
0.628442 0.0851031 0.
0.631577 0.08409 0.
0.634685 0.082908 0.
0.637942 0.0814772 0.
0.641239 0.0801488 0.
0.644595 0.0787598 0.
0.647983 0.077221 0.
0.651406 0.075643 0.
0.654837 0.0740738 0.
0.658265 0.072443 0.
0.661683 0.0706895 0.
0.665096 0.068867 0.
0.668527 0.0670782 0.
0.671984 0.0652893 0.
0.675447 0.0633569 0.
0.678891 0.06125 0.
0.68229 0.0590369 0.
0.685646 0.0568087 0.
0.68896 0.0545719 0.
0.692248 0.0523544 0.
0.69554 0.0501912 0.
0.69884 0.0480941 0.
0.702112 0.0460585 0.
0.705366 0.0440344 0.
0.708595 0.0419509 0.
0.711792 0.0397926 0.
0.714976 0.0376107 0.
0.718158 0.0353976 0.
0.721389 0.0331428 0.
0.724706 0.0309349 0.
0.728117 0.0287523 0.
0.731641 0.0264913 0.
0.735373 0.0242131 0.
0.739389 0.0220874 0.
0.743836 0.0200656 0.
0.748675 0.018247 0.
0.753844 0.0172735 0.
0.759096 0.0173322 0.
0.440406 0.0180064 0.
0.445528 0.0182224 0.
0.450421 0.0194622 0.
0.454911 0.0213422 0.
0.458978 0.0233669 0.
0.462692 0.0255518 0.
0.46618 0.0277967 0.
0.469533 0.029978 0.
0.472785 0.032073 0.
0.475971 0.0341832 0.
0.479143 0.0363341 0.
0.482318 0.0384297 0.
0.485477 0.0404745 0.
0.488608 0.0424973 0.
0.491756 0.0445327 0.
0.494933 0.0466012 0.
0.498101 0.0487563 0.
0.501273 0.0509902 0.
0.504506 0.0532352 0.
0.507799 0.0554791 0.
0.511134 0.057659 0.
0.514538 0.0597349 0.
0.517975 0.0616898 0.
0.521418 0.0635752 0.
0.524859 0.0655225 0.
0.528268 0.0674906 0.
0.531671 0.069405 0.
0.535077 0.071214 0.
0.538511 0.0729055 0.
0.541981 0.074538 0.
0.545405 0.0762537 0.
0.548811 0.0779799 0.
0.552241 0.0795296 0.
0.555647 0.0810078 0.
0.559022 0.082533 0.
0.562384 0.0837642 0.
0.565683 0.0848626 0.
0.568707 0.0860044 0.
0.571772 0.0871489 0.
0.574653 0.0878484 0.
0.577574 0.0886053 0.
0.580066 0.0891163 0.
0.582584 0.0896347 0.
0.584917 0.0898427 0.
0.587185 0.0899897 0.
0.58942 0.0901101 0.
0.591552 0.0901535 0.
0.593686 0.0901968 0.
0.595818 0.0902118 0.
0.597951 0.0902155 0.
0.600084 0.0902187 0.
0.602222 0.0901867 0.
0.604358 0.0901547 0.
0.6065 0.0901127 0.
0.608649 0.0900509 0.
0.610796 0.0899894 0.
0.613107 0.089782 0.
0.615441 0.0895484 0.
0.617937 0.0891638 0.
0.620632 0.0884813 0.
0.623355 0.0877964 0.
0.626325 0.0870169 0.
0.629345 0.0862189 0.
0.632525 0.0851124 0.
0.635733 0.0837624 0.
0.639046 0.0822668 0.
0.642394 0.0809056 0.
0.645761 0.0794618 0.
0.649167 0.0778622 0.
0.652606 0.0762742 0.
0.656044 0.0746918 0.
0.659475 0.0730112 0.
0.662902 0.0712213 0.
0.666325 0.0694014 0.
0.669752 0.0676272 0.
0.673199 0.0658084 0.
0.67665 0.0638191 0.
0.680077 0.0616807 0.
0.683465 0.0594701 0.
0.686818 0.0572557 0.
0.690114 0.055041 0.
0.693379 0.0528594 0.
0.696648 0.0507351 0.
0.69992 0.0486884 0.
0.703156 0.0466979 0.
0.70636 0.0447044 0.
0.709525 0.042649 0.
0.712646 0.0405469 0.
0.715744 0.0384283 0.
0.718821 0.036277 0.
0.721933 0.0340905 0.
0.725117 0.0319502 0.
0.728367 0.0298483 0.
0.731693 0.027686 0.
0.735177 0.025489 0.
0.738915 0.0233962 0.
0.742994 0.0214104 0.
0.747501 0.0195423 0.
0.752336 0.0182952 0.
0.757348 0.0181269 0.
0.442092 0.0188901 0.
0.446911 0.0193725 0.
0.451436 0.0208381 0.
0.455541 0.0227196 0.
0.459267 0.0247089 0.
0.462714 0.0268151 0.
0.46599 0.0289597 0.
0.469158 0.0310564 0.
0.472258 0.0330785 0.
0.475338 0.0351189 0.
0.478419 0.0371948 0.
0.4815 0.0392414 0.
0.484565 0.0412461 0.
0.487627 0.0432226 0.
0.490731 0.0452146 0.
0.493867 0.0472331 0.
0.496999 0.0493267 0.
0.500146 0.0515096 0.
0.503363 0.0537294 0.
0.506653 0.0559652 0.
0.509979 0.0581508 0.
0.513376 0.0602469 0.
0.516804 0.0622272 0.
0.520234 0.064116 0.
0.52367 0.0660382 0.
0.52707 0.0679948 0.
0.530476 0.0699345 0.
0.533893 0.0717855 0.
0.537342 0.0735135 0.
0.540824 0.0751571 0.
0.544265 0.0768556 0.
0.547677 0.0786093 0.
0.551118 0.0802188 0.
0.554548 0.0817125 0.
0.557942 0.0832806 0.
0.561339 0.0846866 0.
0.564657 0.0857961 0.
0.567802 0.0870026 0.
0.57097 0.0883113 0.
0.574015 0.0892464 0.
0.577048 0.0901157 0.
0.579653 0.0906833 0.
0.582229 0.0912265 0.
0.584675 0.0915384 0.
0.587036 0.0917804 0.
0.58936 0.0919846 0.
0.591508 0.0920287 0.
0.593656 0.0920728 0.
0.595803 0.0920878 0.
0.59795 0.0920911 0.
0.600097 0.0920938 0.
0.602247 0.0920598 0.
0.604397 0.0920259 0.
0.606554 0.0919799 0.
0.60872 0.0919123 0.
0.610885 0.0918451 0.
0.613331 0.0915236 0.
0.615776 0.0911907 0.
0.618391 0.0906751 0.
0.621128 0.0899558 0.
0.624 0.0891628 0.
0.627075 0.0882731 0.
0.630261 0.0872673 0.
0.633498 0.086052 0.
0.636791 0.0845383 0.
0.640148 0.0830408 0.
0.643529 0.0816491 0.
0.646904 0.0801271 0.
0.650319 0.0785012 0.
0.653772 0.0769184 0.
0.657218 0.0753125 0.
0.660656 0.0735832 0.
0.664089 0.0717692 0.
0.667523 0.0699594 0.
0.670955 0.0681859 0.
0.674396 0.0663251 0.
0.677837 0.0642903 0.
0.681257 0.0621258 0.
0.684634 0.0599238 0.
0.687982 0.0577241 0.
0.691268 0.055535 0.
0.694515 0.0533852 0.
0.69777 0.0513027 0.
0.701019 0.0493026 0.
0.704226 0.0473503 0.
0.707384 0.0453802 0.
0.710499 0.0433509 0.
0.713565 0.0412968 0.
0.716593 0.0392318 0.
0.719583 0.037136 0.
0.722579 0.0350243 0.
0.725632 0.0329529 0.
0.728754 0.0309194 0.
0.731914 0.0288513 0.
0.735162 0.0267493 0.
0.738621 0.0247181 0.
0.742353 0.0227815 0.
0.746453 0.0209241 0.
0.750925 0.0194774 0.
0.755644 0.0190079 0.
0.443667 0.0199044 0.
0.44812 0.0206762 0.
0.452226 0.0222655 0.
0.455944 0.0241188 0.
0.459345 0.0260374 0.
0.462546 0.0280476 0.
0.465626 0.0300944 0.
0.468643 0.0321086 0.
0.471629 0.0340678 0.
0.474619 0.0360431 0.
0.477619 0.0380514 0.
0.480622 0.0400613 0.
0.483615 0.0420316 0.
0.486636 0.043974 0.
0.489703 0.045931 0.
0.4928 0.0479029 0.
0.495912 0.0499444 0.
0.499049 0.0520795 0.
0.502263 0.054274 0.
0.505553 0.056498 0.
0.508876 0.0586871 0.
0.512261 0.0607903 0.
0.515674 0.0627937 0.
0.51909 0.064697 0.
0.522513 0.0665913 0.
0.525918 0.0685347 0.
0.529334 0.070488 0.
0.532763 0.0723763 0.
0.536227 0.0741359 0.
0.539712 0.0758035 0.
0.543164 0.0774825 0.
0.546582 0.0792366 0.
0.550033 0.0809068 0.
0.553483 0.0824347 0.
0.556898 0.0840079 0.
0.560306 0.0855336 0.
0.563643 0.0867147 0.
0.566883 0.0879535 0.
0.570133 0.08935 0.
0.573282 0.0904456 0.
0.576352 0.0914049 0.
0.579146 0.0921512 0.
0.581826 0.0927749 0.
0.584415 0.0932169 0.
0.586879 0.0935624 0.
0.5893 0.0938591 0.
0.591463 0.093904 0.
0.593626 0.0939488 0.
0.595788 0.0939639 0.
0.597949 0.0939667 0.
0.60011 0.0939688 0.
0.602273 0.0939329 0.
0.604436 0.093897 0.
0.606609 0.0938468 0.
0.608792 0.0937735 0.
0.610975 0.0937005 0.
0.613582 0.0932431 0.
0.616169 0.0927848 0.
0.618933 0.0920853 0.
0.621732 0.091266 0.
0.624721 0.0903466 0.
0.627848 0.0894216 0.
0.631174 0.0882541 0.
0.634481 0.0869004 0.
0.637822 0.0852898 0.
0.641218 0.0838112 0.
0.644615 0.0823891 0.
0.648003 0.0807915 0.
0.651429 0.0791594 0.
0.654894 0.0775777 0.
0.65834 0.0759431 0.
0.661785 0.0741755 0.
0.665235 0.0723461 0.
0.668673 0.070557 0.
0.672107 0.0687698 0.
0.675544 0.0668581 0.
0.678978 0.0647875 0.
0.682398 0.0626078 0.
0.685767 0.0604241 0.
0.689108 0.0582381 0.
0.692384 0.0560779 0.
0.69562 0.0539629 0.
0.698861 0.0519244 0.
0.702091 0.0499659 0.
0.705273 0.0480435 0.
0.7084 0.0460855 0.
0.711485 0.0440771 0.
0.714512 0.042063 0.
0.717488 0.0400421 0.
0.720417 0.0379916 0.
0.723328 0.0359467 0.
0.726269 0.0339435 0.
0.729266 0.0319707 0.
0.732295 0.029986 0.
0.735357 0.0279805 0.
0.738548 0.026032 0.
0.741966 0.0241613 0.
0.745663 0.0223454 0.
0.749714 0.0208125 0.
0.75407 0.0200382 0.
0.44501 0.0210824 0.
0.44904 0.022081 0.
0.452718 0.0237155 0.
0.456072 0.025516 0.
0.45919 0.0273433 0.
0.462185 0.029253 0.
0.465112 0.0312104 0.
0.468024 0.0331594 0.
0.470935 0.035069 0.
0.473852 0.0369885 0.
0.476783 0.0389452 0.
0.479737 0.0409252 0.
0.482689 0.0428688 0.
0.485689 0.0447887 0.
0.488716 0.0467127 0.
0.491781 0.0486413 0.
0.494889 0.050637 0.
0.498026 0.0527298 0.
0.501244 0.0548999 0.
0.504531 0.0571037 0.
0.507858 0.059292 0.
0.511228 0.0613899 0.
0.514617 0.0634063 0.
0.518019 0.0653275 0.
0.521431 0.0672021 0.
0.52485 0.0691325 0.
0.528268 0.0710844 0.
0.531712 0.0729978 0.
0.535186 0.0747969 0.
0.53866 0.0764835 0.
0.542111 0.0781456 0.
0.545549 0.0798864 0.
0.549011 0.0816041 0.
0.552464 0.0831743 0.
0.555906 0.084735 0.
0.559319 0.0863234 0.
0.562669 0.0876192 0.
0.565976 0.0888509 0.
0.569279 0.0902619 0.
0.572508 0.0915433 0.
0.575636 0.0926343 0.
0.578618 0.0935887 0.
0.581407 0.0942902 0.
0.58415 0.0948654 0.
0.586711 0.0953061 0.
0.589235 0.0957115 0.
0.591414 0.0957569 0.
0.593594 0.0958023 0.
0.595772 0.0958177 0.
0.597947 0.0958204 0.
0.600123 0.0958223 0.
0.602301 0.0957853 0.
0.604478 0.0957483 0.
0.606667 0.0956941 0.
0.608869 0.0956149 0.
0.611069 0.0955363 0.
0.613843 0.0949297 0.
0.616579 0.0943492 0.
0.619482 0.0934588 0.
0.622346 0.0925389 0.
0.625459 0.091456 0.
0.628646 0.090443 0.
0.632061 0.0891715 0.
0.63543 0.0876818 0.
0.638803 0.0860419 0.
0.642226 0.0845948 0.
0.64564 0.0831242 0.
0.64904 0.0814797 0.
0.652472 0.0798535 0.
0.655944 0.0782643 0.
0.659398 0.0765956 0.
0.662842 0.0747991 0.
0.666305 0.0729674 0.
0.66975 0.0711986 0.
0.673186 0.0693908 0.
0.676608 0.0674361 0.
0.680035 0.065336 0.
0.683466 0.0631512 0.
0.686831 0.06099 0.
0.690167 0.0588229 0.
0.693431 0.0566962 0.
0.696653 0.0546214 0.
0.699882 0.0526234 0.
0.703095 0.0507069 0.
0.706261 0.0488019 0.
0.709366 0.0468491 0.
0.712432 0.0448606 0.
0.715444 0.0428787 0.
0.718382 0.0408943 0.
0.721271 0.0388829 0.
0.72413 0.0368931 0.
0.726983 0.034954 0.
0.729881 0.0330299 0.
0.732804 0.0311116 0.
0.735736 0.0291929 0.
0.73872 0.0273289 0.
0.741851 0.0255338 0.
0.745204 0.0237765 0.
0.748835 0.0222183 0.
0.752782 0.0212213 0.
0.446005 0.0223809 0.
0.44962 0.0235443 0.
0.452908 0.0251926 0.
0.455946 0.026921 0.
0.458839 0.0286516 0.
0.461685 0.030467 0.
0.464512 0.0323591 0.
0.467358 0.03426 0.
0.470215 0.036137 0.
0.473079 0.0380165 0.
0.47598 0.0399449 0.
0.478915 0.041895 0.
0.481854 0.0438137 0.
0.484833 0.0457105 0.
0.487816 0.047599 0.
0.490868 0.0494869 0.
0.49398 0.0514451 0.
0.497128 0.0535032 0.
0.500343 0.0556393 0.
0.503622 0.0578166 0.
0.506956 0.0599938 0.
0.510313 0.0620746 0.
0.513681 0.0641035 0.
0.517072 0.0660362 0.
0.520478 0.0678967 0.
0.523912 0.0698114 0.
0.527336 0.07176 0.
0.530786 0.073694 0.
0.534255 0.0755239 0.
0.537712 0.0772213 0.
0.541174 0.0788806 0.
0.544626 0.0805959 0.
0.548092 0.0823365 0.
0.551562 0.0839576 0.
0.555028 0.0855181 0.
0.558445 0.0871269 0.
0.561799 0.0885281 0.
0.565138 0.0897688 0.
0.568488 0.0911659 0.
0.571777 0.0925924 0.
0.574984 0.0938238 0.
0.578165 0.0949695 0.
0.581047 0.0957043 0.
0.583866 0.0963953 0.
0.586523 0.096984 0.
0.589162 0.0975458 0.
0.591361 0.0975932 0.
0.59356 0.0976407 0.
0.595755 0.0976571 0.
0.597946 0.0976599 0.
0.600137 0.0976618 0.
0.602331 0.0976235 0.
0.604523 0.0975853 0.
0.606733 0.0975256 0.
0.608955 0.0974382 0.
0.611192 0.0973364 0.
0.614086 0.0964769 0.
0.616922 0.0957368 0.
0.619915 0.0947822 0.
0.622907 0.0937543 0.
0.626133 0.0925446 0.
0.629391 0.0914199 0.
0.632829 0.0900737 0.
0.636276 0.0884796 0.
0.639681 0.0868329 0.
0.643115 0.0854072 0.
0.646552 0.0838932 0.
0.649961 0.0822266 0.
0.653397 0.0806053 0.
0.656878 0.0789983 0.
0.660333 0.0773094 0.
0.663781 0.0754877 0.
0.667255 0.0736581 0.
0.670704 0.0719097 0.
0.674138 0.0700855 0.
0.677544 0.0680933 0.
0.680957 0.0659725 0.
0.684405 0.0637959 0.
0.687778 0.0616641 0.
0.691103 0.0595235 0.
0.694361 0.0574238 0.
0.697571 0.0553857 0.
0.700793 0.0534271 0.
0.703985 0.0515558 0.
0.707137 0.0496736 0.
0.710237 0.0477232 0.
0.713287 0.0457458 0.
0.716302 0.0437888 0.
0.719235 0.0418415 0.
0.722098 0.039863 0.
0.724919 0.0379231 0.
0.727717 0.0360433 0.
0.730545 0.0341642 0.
0.733392 0.0322866 0.
0.73623 0.0304352 0.
0.739079 0.0286462 0.
0.741985 0.0269189 0.
0.745052 0.0252264 0.
0.748313 0.0236613 0.
0.751853 0.0225107 0.
CELLS 5000 10000
1 0
1 1
1 2
1 3
1 4
1 5
1 6
1 7
1 8
1 9
1 10
1 11
1 12
1 13
1 14
1 15
1 16
1 17
1 18
1 19
1 20
1 21
1 22
1 23
1 24
1 25
1 26
1 27
1 28
1 29
1 30
1 31
1 32
1 33
1 34
1 35
1 36
1 37
1 38
1 39
1 40
1 41
1 42
1 43
1 44
1 45
1 46
1 47
1 48
1 49
1 50
1 51
1 52
1 53
1 54
1 55
1 56
1 57
1 58
1 59
1 60
1 61
1 62
1 63
1 64
1 65
1 66
1 67
1 68
1 69
1 70
1 71
1 72
1 73
1 74
1 75
1 76
1 77
1 78
1 79
1 80
1 81
1 82
1 83
1 84
1 85
1 86
1 87
1 88
1 89
1 90
1 91
1 92
1 93
1 94
1 95
1 96
1 97
1 98
1 99
1 100
1 101
1 102
1 103
1 104
1 105
1 106
1 107
1 108
1 109
1 110
1 111
1 112
1 113
1 114
1 115
1 116
1 117
1 118
1 119
1 120
1 121
1 122
1 123
1 124
1 125
1 126
1 127
1 128
1 129
1 130
1 131
1 132
1 133
1 134
1 135
1 136
1 137
1 138
1 139
1 140
1 141
1 142
1 143
1 144
1 145
1 146
1 147
1 148
1 149
1 150
1 151
1 152
1 153
1 154
1 155
1 156
1 157
1 158
1 159
1 160
1 161
1 162
1 163
1 164
1 165
1 166
1 167
1 168
1 169
1 170
1 171
1 172
1 173
1 174
1 175
1 176
1 177
1 178
1 179
1 180
1 181
1 182
1 183
1 184
1 185
1 186
1 187
1 188
1 189
1 190
1 191
1 192
1 193
1 194
1 195
1 196
1 197
1 198
1 199
1 200
1 201
1 202
1 203
1 204
1 205
1 206
1 207
1 208
1 209
1 210
1 211
1 212
1 213
1 214
1 215
1 216
1 217
1 218
1 219
1 220
1 221
1 222
1 223
1 224
1 225
1 226
1 227
1 228
1 229
1 230
1 231
1 232
1 233
1 234
1 235
1 236
1 237
1 238
1 239
1 240
1 241
1 242
1 243
1 244
1 245
1 246
1 247
1 248
1 249
1 250
1 251
1 252
1 253
1 254
1 255
1 256
1 257
1 258
1 259
1 260
1 261
1 262
1 263
1 264
1 265
1 266
1 267
1 268
1 269
1 270
1 271
1 272
1 273
1 274
1 275
1 276
1 277
1 278
1 279
1 280
1 281
1 282
1 283
1 284
1 285
1 286
1 287
1 288
1 289
1 290
1 291
1 292
1 293
1 294
1 295
1 296
1 297
1 298
1 299
1 300
1 301
1 302
1 303
1 304
1 305
1 306
1 307
1 308
1 309
1 310
1 311
1 312
1 313
1 314
1 315
1 316
1 317
1 318
1 319
1 320
1 321
1 322
1 323
1 324
1 325
1 326
1 327
1 328
1 329
1 330
1 331
1 332
1 333
1 334
1 335
1 336
1 337
1 338
1 339
1 340
1 341
1 342
1 343
1 344
1 345
1 346
1 347
1 348
1 349
1 350
1 351
1 352
1 353
1 354
1 355
1 356
1 357
1 358
1 359
1 360
1 361
1 362
1 363
1 364
1 365
1 366
1 367
1 368
1 369
1 370
1 371
1 372
1 373
1 374
1 375
1 376
1 377
1 378
1 379
1 380
1 381
1 382
1 383
1 384
1 385
1 386
1 387
1 388
1 389
1 390
1 391
1 392
1 393
1 394
1 395
1 396
1 397
1 398
1 399
1 400
1 401
1 402
1 403
1 404
1 405
1 406
1 407
1 408
1 409
1 410
1 411
1 412
1 413
1 414
1 415
1 416
1 417
1 418
1 419
1 420
1 421
1 422
1 423
1 424
1 425
1 426
1 427
1 428
1 429
1 430
1 431
1 432
1 433
1 434
1 435
1 436
1 437
1 438
1 439
1 440
1 441
1 442
1 443
1 444
1 445
1 446
1 447
1 448
1 449
1 450
1 451
1 452
1 453
1 454
1 455
1 456
1 457
1 458
1 459
1 460
1 461
1 462
1 463
1 464
1 465
1 466
1 467
1 468
1 469
1 470
1 471
1 472
1 473
1 474
1 475
1 476
1 477
1 478
1 479
1 480
1 481
1 482
1 483
1 484
1 485
1 486
1 487
1 488
1 489
1 490
1 491
1 492
1 493
1 494
1 495
1 496
1 497
1 498
1 499
1 500
1 501
1 502
1 503
1 504
1 505
1 506
1 507
1 508
1 509
1 510
1 511
1 512
1 513
1 514
1 515
1 516
1 517
1 518
1 519
1 520
1 521
1 522
1 523
1 524
1 525
1 526
1 527
1 528
1 529
1 530
1 531
1 532
1 533
1 534
1 535
1 536
1 537
1 538
1 539
1 540
1 541
1 542
1 543
1 544
1 545
1 546
1 547
1 548
1 549
1 550
1 551
1 552
1 553
1 554
1 555
1 556
1 557
1 558
1 559
1 560
1 561
1 562
1 563
1 564
1 565
1 566
1 567
1 568
1 569
1 570
1 571
1 572
1 573
1 574
1 575
1 576
1 577
1 578
1 579
1 580
1 581
1 582
1 583
1 584
1 585
1 586
1 587
1 588
1 589
1 590
1 591
1 592
1 593
1 594
1 595
1 596
1 597
1 598
1 599
1 600
1 601
1 602
1 603
1 604
1 605
1 606
1 607
1 608
1 609
1 610
1 611
1 612
1 613
1 614
1 615
1 616
1 617
1 618
1 619
1 620
1 621
1 622
1 623
1 624
1 625
1 626
1 627
1 628
1 629
1 630
1 631
1 632
1 633
1 634
1 635
1 636
1 637
1 638
1 639
1 640
1 641
1 642
1 643
1 644
1 645
1 646
1 647
1 648
1 649
1 650
1 651
1 652
1 653
1 654
1 655
1 656
1 657
1 658
1 659
1 660
1 661
1 662
1 663
1 664
1 665
1 666
1 667
1 668
1 669
1 670
1 671
1 672
1 673
1 674
1 675
1 676
1 677
1 678
1 679
1 680
1 681
1 682
1 683
1 684
1 685
1 686
1 687
1 688
1 689
1 690
1 691
1 692
1 693
1 694
1 695
1 696
1 697
1 698
1 699
1 700
1 701
1 702
1 703
1 704
1 705
1 706
1 707
1 708
1 709
1 710
1 711
1 712
1 713
1 714
1 715
1 716
1 717
1 718
1 719
1 720
1 721
1 722
1 723
1 724
1 725
1 726
1 727
1 728
1 729
1 730
1 731
1 732
1 733
1 734
1 735
1 736
1 737
1 738
1 739
1 740
1 741
1 742
1 743
1 744
1 745
1 746
1 747
1 748
1 749
1 750
1 751
1 752
1 753
1 754
1 755
1 756
1 757
1 758
1 759
1 760
1 761
1 762
1 763
1 764
1 765
1 766
1 767
1 768
1 769
1 770
1 771
1 772
1 773
1 774
1 775
1 776
1 777
1 778
1 779
1 780
1 781
1 782
1 783
1 784
1 785
1 786
1 787
1 788
1 789
1 790
1 791
1 792
1 793
1 794
1 795
1 796
1 797
1 798
1 799
1 800
1 801
1 802
1 803
1 804
1 805
1 806
1 807
1 808
1 809
1 810
1 811
1 812
1 813
1 814
1 815
1 816
1 817
1 818
1 819
1 820
1 821
1 822
1 823
1 824
1 825
1 826
1 827
1 828
1 829
1 830
1 831
1 832
1 833
1 834
1 835
1 836
1 837
1 838
1 839
1 840
1 841
1 842
1 843
1 844
1 845
1 846
1 847
1 848
1 849
1 850
1 851
1 852
1 853
1 854
1 855
1 856
1 857
1 858
1 859
1 860
1 861
1 862
1 863
1 864
1 865
1 866
1 867
1 868
1 869
1 870
1 871
1 872
1 873
1 874
1 875
1 876
1 877
1 878
1 879
1 880
1 881
1 882
1 883
1 884
1 885
1 886
1 887
1 888
1 889
1 890
1 891
1 892
1 893
1 894
1 895
1 896
1 897
1 898
1 899
1 900
1 901
1 902
1 903
1 904
1 905
1 906
1 907
1 908
1 909
1 910
1 911
1 912
1 913
1 914
1 915
1 916
1 917
1 918
1 919
1 920
1 921
1 922
1 923
1 924
1 925
1 926
1 927
1 928
1 929
1 930
1 931
1 932
1 933
1 934
1 935
1 936
1 937
1 938
1 939
1 940
1 941
1 942
1 943
1 944
1 945
1 946
1 947
1 948
1 949
1 950
1 951
1 952
1 953
1 954
1 955
1 956
1 957
1 958
1 959
1 960
1 961
1 962
1 963
1 964
1 965
1 966
1 967
1 968
1 969
1 970
1 971
1 972
1 973
1 974
1 975
1 976
1 977
1 978
1 979
1 980
1 981
1 982
1 983
1 984
1 985
1 986
1 987
1 988
1 989
1 990
1 991
1 992
1 993
1 994
1 995
1 996
1 997
1 998
1 999
1 1000
1 1001
1 1002
1 1003
1 1004
1 1005
1 1006
1 1007
1 1008
1 1009
1 1010
1 1011
1 1012
1 1013
1 1014
1 1015
1 1016
1 1017
1 1018
1 1019
1 1020
1 1021
1 1022
1 1023
1 1024
1 1025
1 1026
1 1027
1 1028
1 1029
1 1030
1 1031
1 1032
1 1033
1 1034
1 1035
1 1036
1 1037
1 1038
1 1039
1 1040
1 1041
1 1042
1 1043
1 1044
1 1045
1 1046
1 1047
1 1048
1 1049
1 1050
1 1051
1 1052
1 1053
1 1054
1 1055
1 1056
1 1057
1 1058
1 1059
1 1060
1 1061
1 1062
1 1063
1 1064
1 1065
1 1066
1 1067
1 1068
1 1069
1 1070
1 1071
1 1072
1 1073
1 1074
1 1075
1 1076
1 1077
1 1078
1 1079
1 1080
1 1081
1 1082
1 1083
1 1084
1 1085
1 1086
1 1087
1 1088
1 1089
1 1090
1 1091
1 1092
1 1093
1 1094
1 1095
1 1096
1 1097
1 1098
1 1099
1 1100
1 1101
1 1102
1 1103
1 1104
1 1105
1 1106
1 1107
1 1108
1 1109
1 1110
1 1111
1 1112
1 1113
1 1114
1 1115
1 1116
1 1117
1 1118
1 1119
1 1120
1 1121
1 1122
1 1123
1 1124
1 1125
1 1126
1 1127
1 1128
1 1129
1 1130
1 1131
1 1132
1 1133
1 1134
1 1135
1 1136
1 1137
1 1138
1 1139
1 1140
1 1141
1 1142
1 1143
1 1144
1 1145
1 1146
1 1147
1 1148
1 1149
1 1150
1 1151
1 1152
1 1153
1 1154
1 1155
1 1156
1 1157
1 1158
1 1159
1 1160
1 1161
1 1162
1 1163
1 1164
1 1165
1 1166
1 1167
1 1168
1 1169
1 1170
1 1171
1 1172
1 1173
1 1174
1 1175
1 1176
1 1177
1 1178
1 1179
1 1180
1 1181
1 1182
1 1183
1 1184
1 1185
1 1186
1 1187
1 1188
1 1189
1 1190
1 1191
1 1192
1 1193
1 1194
1 1195
1 1196
1 1197
1 1198
1 1199
1 1200
1 1201
1 1202
1 1203
1 1204
1 1205
1 1206
1 1207
1 1208
1 1209
1 1210
1 1211
1 1212
1 1213
1 1214
1 1215
1 1216
1 1217
1 1218
1 1219
1 1220
1 1221
1 1222
1 1223
1 1224
1 1225
1 1226
1 1227
1 1228
1 1229
1 1230
1 1231
1 1232
1 1233
1 1234
1 1235
1 1236
1 1237
1 1238
1 1239
1 1240
1 1241
1 1242
1 1243
1 1244
1 1245
1 1246
1 1247
1 1248
1 1249
1 1250
1 1251
1 1252
1 1253
1 1254
1 1255
1 1256
1 1257
1 1258
1 1259
1 1260
1 1261
1 1262
1 1263
1 1264
1 1265
1 1266
1 1267
1 1268
1 1269
1 1270
1 1271
1 1272
1 1273
1 1274
1 1275
1 1276
1 1277
1 1278
1 1279
1 1280
1 1281
1 1282
1 1283
1 1284
1 1285
1 1286
1 1287
1 1288
1 1289
1 1290
1 1291
1 1292
1 1293
1 1294
1 1295
1 1296
1 1297
1 1298
1 1299
1 1300
1 1301
1 1302
1 1303
1 1304
1 1305
1 1306
1 1307
1 1308
1 1309
1 1310
1 1311
1 1312
1 1313
1 1314
1 1315
1 1316
1 1317
1 1318
1 1319
1 1320
1 1321
1 1322
1 1323
1 1324
1 1325
1 1326
1 1327
1 1328
1 1329
1 1330
1 1331
1 1332
1 1333
1 1334
1 1335
1 1336
1 1337
1 1338
1 1339
1 1340
1 1341
1 1342
1 1343
1 1344
1 1345
1 1346
1 1347
1 1348
1 1349
1 1350
1 1351
1 1352
1 1353
1 1354
1 1355
1 1356
1 1357
1 1358
1 1359
1 1360
1 1361
1 1362
1 1363
1 1364
1 1365
1 1366
1 1367
1 1368
1 1369
1 1370
1 1371
1 1372
1 1373
1 1374
1 1375
1 1376
1 1377
1 1378
1 1379
1 1380
1 1381
1 1382
1 1383
1 1384
1 1385
1 1386
1 1387
1 1388
1 1389
1 1390
1 1391
1 1392
1 1393
1 1394
1 1395
1 1396
1 1397
1 1398
1 1399
1 1400
1 1401
1 1402
1 1403
1 1404
1 1405
1 1406
1 1407
1 1408
1 1409
1 1410
1 1411
1 1412
1 1413
1 1414
1 1415
1 1416
1 1417
1 1418
1 1419
1 1420
1 1421
1 1422
1 1423
1 1424
1 1425
1 1426
1 1427
1 1428
1 1429
1 1430
1 1431
1 1432
1 1433
1 1434
1 1435
1 1436
1 1437
1 1438
1 1439
1 1440
1 1441
1 1442
1 1443
1 1444
1 1445
1 1446
1 1447
1 1448
1 1449
1 1450
1 1451
1 1452
1 1453
1 1454
1 1455
1 1456
1 1457
1 1458
1 1459
1 1460
1 1461
1 1462
1 1463
1 1464
1 1465
1 1466
1 1467
1 1468
1 1469
1 1470
1 1471
1 1472
1 1473
1 1474
1 1475
1 1476
1 1477
1 1478
1 1479
1 1480
1 1481
1 1482
1 1483
1 1484
1 1485
1 1486
1 1487
1 1488
1 1489
1 1490
1 1491
1 1492
1 1493
1 1494
1 1495
1 1496
1 1497
1 1498
1 1499
1 1500
1 1501
1 1502
1 1503
1 1504
1 1505
1 1506
1 1507
1 1508
1 1509
1 1510
1 1511
1 1512
1 1513
1 1514
1 1515
1 1516
1 1517
1 1518
1 1519
1 1520
1 1521
1 1522
1 1523
1 1524
1 1525
1 1526
1 1527
1 1528
1 1529
1 1530
1 1531
1 1532
1 1533
1 1534
1 1535
1 1536
1 1537
1 1538
1 1539
1 1540
1 1541
1 1542
1 1543
1 1544
1 1545
1 1546
1 1547
1 1548
1 1549
1 1550
1 1551
1 1552
1 1553
1 1554
1 1555
1 1556
1 1557
1 1558
1 1559
1 1560
1 1561
1 1562
1 1563
1 1564
1 1565
1 1566
1 1567
1 1568
1 1569
1 1570
1 1571
1 1572
1 1573
1 1574
1 1575
1 1576
1 1577
1 1578
1 1579
1 1580
1 1581
1 1582
1 1583
1 1584
1 1585
1 1586
1 1587
1 1588
1 1589
1 1590
1 1591
1 1592
1 1593
1 1594
1 1595
1 1596
1 1597
1 1598
1 1599
1 1600
1 1601
1 1602
1 1603
1 1604
1 1605
1 1606
1 1607
1 1608
1 1609
1 1610
1 1611
1 1612
1 1613
1 1614
1 1615
1 1616
1 1617
1 1618
1 1619
1 1620
1 1621
1 1622
1 1623
1 1624
1 1625
1 1626
1 1627
1 1628
1 1629
1 1630
1 1631
1 1632
1 1633
1 1634
1 1635
1 1636
1 1637
1 1638
1 1639
1 1640
1 1641
1 1642
1 1643
1 1644
1 1645
1 1646
1 1647
1 1648
1 1649
1 1650
1 1651
1 1652
1 1653
1 1654
1 1655
1 1656
1 1657
1 1658
1 1659
1 1660
1 1661
1 1662
1 1663
1 1664
1 1665
1 1666
1 1667
1 1668
1 1669
1 1670
1 1671
1 1672
1 1673
1 1674
1 1675
1 1676
1 1677
1 1678
1 1679
1 1680
1 1681
1 1682
1 1683
1 1684
1 1685
1 1686
1 1687
1 1688
1 1689
1 1690
1 1691
1 1692
1 1693
1 1694
1 1695
1 1696
1 1697
1 1698
1 1699
1 1700
1 1701
1 1702
1 1703
1 1704
1 1705
1 1706
1 1707
1 1708
1 1709
1 1710
1 1711
1 1712
1 1713
1 1714
1 1715
1 1716
1 1717
1 1718
1 1719
1 1720
1 1721
1 1722
1 1723
1 1724
1 1725
1 1726
1 1727
1 1728
1 1729
1 1730
1 1731
1 1732
1 1733
1 1734
1 1735
1 1736
1 1737
1 1738
1 1739
1 1740
1 1741
1 1742
1 1743
1 1744
1 1745
1 1746
1 1747
1 1748
1 1749
1 1750
1 1751
1 1752
1 1753
1 1754
1 1755
1 1756
1 1757
1 1758
1 1759
1 1760
1 1761
1 1762
1 1763
1 1764
1 1765
1 1766
1 1767
1 1768
1 1769
1 1770
1 1771
1 1772
1 1773
1 1774
1 1775
1 1776
1 1777
1 1778
1 1779
1 1780
1 1781
1 1782
1 1783
1 1784
1 1785
1 1786
1 1787
1 1788
1 1789
1 1790
1 1791
1 1792
1 1793
1 1794
1 1795
1 1796
1 1797
1 1798
1 1799
1 1800
1 1801
1 1802
1 1803
1 1804
1 1805
1 1806
1 1807
1 1808
1 1809
1 1810
1 1811
1 1812
1 1813
1 1814
1 1815
1 1816
1 1817
1 1818
1 1819
1 1820
1 1821
1 1822
1 1823
1 1824
1 1825
1 1826
1 1827
1 1828
1 1829
1 1830
1 1831
1 1832
1 1833
1 1834
1 1835
1 1836
1 1837
1 1838
1 1839
1 1840
1 1841
1 1842
1 1843
1 1844
1 1845
1 1846
1 1847
1 1848
1 1849
1 1850
1 1851
1 1852
1 1853
1 1854
1 1855
1 1856
1 1857
1 1858
1 1859
1 1860
1 1861
1 1862
1 1863
1 1864
1 1865
1 1866
1 1867
1 1868
1 1869
1 1870
1 1871
1 1872
1 1873
1 1874
1 1875
1 1876
1 1877
1 1878
1 1879
1 1880
1 1881
1 1882
1 1883
1 1884
1 1885
1 1886
1 1887
1 1888
1 1889
1 1890
1 1891
1 1892
1 1893
1 1894
1 1895
1 1896
1 1897
1 1898
1 1899
1 1900
1 1901
1 1902
1 1903
1 1904
1 1905
1 1906
1 1907
1 1908
1 1909
1 1910
1 1911
1 1912
1 1913
1 1914
1 1915
1 1916
1 1917
1 1918
1 1919
1 1920
1 1921
1 1922
1 1923
1 1924
1 1925
1 1926
1 1927
1 1928
1 1929
1 1930
1 1931
1 1932
1 1933
1 1934
1 1935
1 1936
1 1937
1 1938
1 1939
1 1940
1 1941
1 1942
1 1943
1 1944
1 1945
1 1946
1 1947
1 1948
1 1949
1 1950
1 1951
1 1952
1 1953
1 1954
1 1955
1 1956
1 1957
1 1958
1 1959
1 1960
1 1961
1 1962
1 1963
1 1964
1 1965
1 1966
1 1967
1 1968
1 1969
1 1970
1 1971
1 1972
1 1973
1 1974
1 1975
1 1976
1 1977
1 1978
1 1979
1 1980
1 1981
1 1982
1 1983
1 1984
1 1985
1 1986
1 1987
1 1988
1 1989
1 1990
1 1991
1 1992
1 1993
1 1994
1 1995
1 1996
1 1997
1 1998
1 1999
1 2000
1 2001
1 2002
1 2003
1 2004
1 2005
1 2006
1 2007
1 2008
1 2009
1 2010
1 2011
1 2012
1 2013
1 2014
1 2015
1 2016
1 2017
1 2018
1 2019
1 2020
1 2021
1 2022
1 2023
1 2024
1 2025
1 2026
1 2027
1 2028
1 2029
1 2030
1 2031
1 2032
1 2033
1 2034
1 2035
1 2036
1 2037
1 2038
1 2039
1 2040
1 2041
1 2042
1 2043
1 2044
1 2045
1 2046
1 2047
1 2048
1 2049
1 2050
1 2051
1 2052
1 2053
1 2054
1 2055
1 2056
1 2057
1 2058
1 2059
1 2060
1 2061
1 2062
1 2063
1 2064
1 2065
1 2066
1 2067
1 2068
1 2069
1 2070
1 2071
1 2072
1 2073
1 2074
1 2075
1 2076
1 2077
1 2078
1 2079
1 2080
1 2081
1 2082
1 2083
1 2084
1 2085
1 2086
1 2087
1 2088
1 2089
1 2090
1 2091
1 2092
1 2093
1 2094
1 2095
1 2096
1 2097
1 2098
1 2099
1 2100
1 2101
1 2102
1 2103
1 2104
1 2105
1 2106
1 2107
1 2108
1 2109
1 2110
1 2111
1 2112
1 2113
1 2114
1 2115
1 2116
1 2117
1 2118
1 2119
1 2120
1 2121
1 2122
1 2123
1 2124
1 2125
1 2126
1 2127
1 2128
1 2129
1 2130
1 2131
1 2132
1 2133
1 2134
1 2135
1 2136
1 2137
1 2138
1 2139
1 2140
1 2141
1 2142
1 2143
1 2144
1 2145
1 2146
1 2147
1 2148
1 2149
1 2150
1 2151
1 2152
1 2153
1 2154
1 2155
1 2156
1 2157
1 2158
1 2159
1 2160
1 2161
1 2162
1 2163
1 2164
1 2165
1 2166
1 2167
1 2168
1 2169
1 2170
1 2171
1 2172
1 2173
1 2174
1 2175
1 2176
1 2177
1 2178
1 2179
1 2180
1 2181
1 2182
1 2183
1 2184
1 2185
1 2186
1 2187
1 2188
1 2189
1 2190
1 2191
1 2192
1 2193
1 2194
1 2195
1 2196
1 2197
1 2198
1 2199
1 2200
1 2201
1 2202
1 2203
1 2204
1 2205
1 2206
1 2207
1 2208
1 2209
1 2210
1 2211
1 2212
1 2213
1 2214
1 2215
1 2216
1 2217
1 2218
1 2219
1 2220
1 2221
1 2222
1 2223
1 2224
1 2225
1 2226
1 2227
1 2228
1 2229
1 2230
1 2231
1 2232
1 2233
1 2234
1 2235
1 2236
1 2237
1 2238
1 2239
1 2240
1 2241
1 2242
1 2243
1 2244
1 2245
1 2246
1 2247
1 2248
1 2249
1 2250
1 2251
1 2252
1 2253
1 2254
1 2255
1 2256
1 2257
1 2258
1 2259
1 2260
1 2261
1 2262
1 2263
1 2264
1 2265
1 2266
1 2267
1 2268
1 2269
1 2270
1 2271
1 2272
1 2273
1 2274
1 2275
1 2276
1 2277
1 2278
1 2279
1 2280
1 2281
1 2282
1 2283
1 2284
1 2285
1 2286
1 2287
1 2288
1 2289
1 2290
1 2291
1 2292
1 2293
1 2294
1 2295
1 2296
1 2297
1 2298
1 2299
1 2300
1 2301
1 2302
1 2303
1 2304
1 2305
1 2306
1 2307
1 2308
1 2309
1 2310
1 2311
1 2312
1 2313
1 2314
1 2315
1 2316
1 2317
1 2318
1 2319
1 2320
1 2321
1 2322
1 2323
1 2324
1 2325
1 2326
1 2327
1 2328
1 2329
1 2330
1 2331
1 2332
1 2333
1 2334
1 2335
1 2336
1 2337
1 2338
1 2339
1 2340
1 2341
1 2342
1 2343
1 2344
1 2345
1 2346
1 2347
1 2348
1 2349
1 2350
1 2351
1 2352
1 2353
1 2354
1 2355
1 2356
1 2357
1 2358
1 2359
1 2360
1 2361
1 2362
1 2363
1 2364
1 2365
1 2366
1 2367
1 2368
1 2369
1 2370
1 2371
1 2372
1 2373
1 2374
1 2375
1 2376
1 2377
1 2378
1 2379
1 2380
1 2381
1 2382
1 2383
1 2384
1 2385
1 2386
1 2387
1 2388
1 2389
1 2390
1 2391
1 2392
1 2393
1 2394
1 2395
1 2396
1 2397
1 2398
1 2399
1 2400
1 2401
1 2402
1 2403
1 2404
1 2405
1 2406
1 2407
1 2408
1 2409
1 2410
1 2411
1 2412
1 2413
1 2414
1 2415
1 2416
1 2417
1 2418
1 2419
1 2420
1 2421
1 2422
1 2423
1 2424
1 2425
1 2426
1 2427
1 2428
1 2429
1 2430
1 2431
1 2432
1 2433
1 2434
1 2435
1 2436
1 2437
1 2438
1 2439
1 2440
1 2441
1 2442
1 2443
1 2444
1 2445
1 2446
1 2447
1 2448
1 2449
1 2450
1 2451
1 2452
1 2453
1 2454
1 2455
1 2456
1 2457
1 2458
1 2459
1 2460
1 2461
1 2462
1 2463
1 2464
1 2465
1 2466
1 2467
1 2468
1 2469
1 2470
1 2471
1 2472
1 2473
1 2474
1 2475
1 2476
1 2477
1 2478
1 2479
1 2480
1 2481
1 2482
1 2483
1 2484
1 2485
1 2486
1 2487
1 2488
1 2489
1 2490
1 2491
1 2492
1 2493
1 2494
1 2495
1 2496
1 2497
1 2498
1 2499
1 2500
1 2501
1 2502
1 2503
1 2504
1 2505
1 2506
1 2507
1 2508
1 2509
1 2510
1 2511
1 2512
1 2513
1 2514
1 2515
1 2516
1 2517
1 2518
1 2519
1 2520
1 2521
1 2522
1 2523
1 2524
1 2525
1 2526
1 2527
1 2528
1 2529
1 2530
1 2531
1 2532
1 2533
1 2534
1 2535
1 2536
1 2537
1 2538
1 2539
1 2540
1 2541
1 2542
1 2543
1 2544
1 2545
1 2546
1 2547
1 2548
1 2549
1 2550
1 2551
1 2552
1 2553
1 2554
1 2555
1 2556
1 2557
1 2558
1 2559
1 2560
1 2561
1 2562
1 2563
1 2564
1 2565
1 2566
1 2567
1 2568
1 2569
1 2570
1 2571
1 2572
1 2573
1 2574
1 2575
1 2576
1 2577
1 2578
1 2579
1 2580
1 2581
1 2582
1 2583
1 2584
1 2585
1 2586
1 2587
1 2588
1 2589
1 2590
1 2591
1 2592
1 2593
1 2594
1 2595
1 2596
1 2597
1 2598
1 2599
1 2600
1 2601
1 2602
1 2603
1 2604
1 2605
1 2606
1 2607
1 2608
1 2609
1 2610
1 2611
1 2612
1 2613
1 2614
1 2615
1 2616
1 2617
1 2618
1 2619
1 2620
1 2621
1 2622
1 2623
1 2624
1 2625
1 2626
1 2627
1 2628
1 2629
1 2630
1 2631
1 2632
1 2633
1 2634
1 2635
1 2636
1 2637
1 2638
1 2639
1 2640
1 2641
1 2642
1 2643
1 2644
1 2645
1 2646
1 2647
1 2648
1 2649
1 2650
1 2651
1 2652
1 2653
1 2654
1 2655
1 2656
1 2657
1 2658
1 2659
1 2660
1 2661
1 2662
1 2663
1 2664
1 2665
1 2666
1 2667
1 2668
1 2669
1 2670
1 2671
1 2672
1 2673
1 2674
1 2675
1 2676
1 2677
1 2678
1 2679
1 2680
1 2681
1 2682
1 2683
1 2684
1 2685
1 2686
1 2687
1 2688
1 2689
1 2690
1 2691
1 2692
1 2693
1 2694
1 2695
1 2696
1 2697
1 2698
1 2699
1 2700
1 2701
1 2702
1 2703
1 2704
1 2705
1 2706
1 2707
1 2708
1 2709
1 2710
1 2711
1 2712
1 2713
1 2714
1 2715
1 2716
1 2717
1 2718
1 2719
1 2720
1 2721
1 2722
1 2723
1 2724
1 2725
1 2726
1 2727
1 2728
1 2729
1 2730
1 2731
1 2732
1 2733
1 2734
1 2735
1 2736
1 2737
1 2738
1 2739
1 2740
1 2741
1 2742
1 2743
1 2744
1 2745
1 2746
1 2747
1 2748
1 2749
1 2750
1 2751
1 2752
1 2753
1 2754
1 2755
1 2756
1 2757
1 2758
1 2759
1 2760
1 2761
1 2762
1 2763
1 2764
1 2765
1 2766
1 2767
1 2768
1 2769
1 2770
1 2771
1 2772
1 2773
1 2774
1 2775
1 2776
1 2777
1 2778
1 2779
1 2780
1 2781
1 2782
1 2783
1 2784
1 2785
1 2786
1 2787
1 2788
1 2789
1 2790
1 2791
1 2792
1 2793
1 2794
1 2795
1 2796
1 2797
1 2798
1 2799
1 2800
1 2801
1 2802
1 2803
1 2804
1 2805
1 2806
1 2807
1 2808
1 2809
1 2810
1 2811
1 2812
1 2813
1 2814
1 2815
1 2816
1 2817
1 2818
1 2819
1 2820
1 2821
1 2822
1 2823
1 2824
1 2825
1 2826
1 2827
1 2828
1 2829
1 2830
1 2831
1 2832
1 2833
1 2834
1 2835
1 2836
1 2837
1 2838
1 2839
1 2840
1 2841
1 2842
1 2843
1 2844
1 2845
1 2846
1 2847
1 2848
1 2849
1 2850
1 2851
1 2852
1 2853
1 2854
1 2855
1 2856
1 2857
1 2858
1 2859
1 2860
1 2861
1 2862
1 2863
1 2864
1 2865
1 2866
1 2867
1 2868
1 2869
1 2870
1 2871
1 2872
1 2873
1 2874
1 2875
1 2876
1 2877
1 2878
1 2879
1 2880
1 2881
1 2882
1 2883
1 2884
1 2885
1 2886
1 2887
1 2888
1 2889
1 2890
1 2891
1 2892
1 2893
1 2894
1 2895
1 2896
1 2897
1 2898
1 2899
1 2900
1 2901
1 2902
1 2903
1 2904
1 2905
1 2906
1 2907
1 2908
1 2909
1 2910
1 2911
1 2912
1 2913
1 2914
1 2915
1 2916
1 2917
1 2918
1 2919
1 2920
1 2921
1 2922
1 2923
1 2924
1 2925
1 2926
1 2927
1 2928
1 2929
1 2930
1 2931
1 2932
1 2933
1 2934
1 2935
1 2936
1 2937
1 2938
1 2939
1 2940
1 2941
1 2942
1 2943
1 2944
1 2945
1 2946
1 2947
1 2948
1 2949
1 2950
1 2951
1 2952
1 2953
1 2954
1 2955
1 2956
1 2957
1 2958
1 2959
1 2960
1 2961
1 2962
1 2963
1 2964
1 2965
1 2966
1 2967
1 2968
1 2969
1 2970
1 2971
1 2972
1 2973
1 2974
1 2975
1 2976
1 2977
1 2978
1 2979
1 2980
1 2981
1 2982
1 2983
1 2984
1 2985
1 2986
1 2987
1 2988
1 2989
1 2990
1 2991
1 2992
1 2993
1 2994
1 2995
1 2996
1 2997
1 2998
1 2999
1 3000
1 3001
1 3002
1 3003
1 3004
1 3005
1 3006
1 3007
1 3008
1 3009
1 3010
1 3011
1 3012
1 3013
1 3014
1 3015
1 3016
1 3017
1 3018
1 3019
1 3020
1 3021
1 3022
1 3023
1 3024
1 3025
1 3026
1 3027
1 3028
1 3029
1 3030
1 3031
1 3032
1 3033
1 3034
1 3035
1 3036
1 3037
1 3038
1 3039
1 3040
1 3041
1 3042
1 3043
1 3044
1 3045
1 3046
1 3047
1 3048
1 3049
1 3050
1 3051
1 3052
1 3053
1 3054
1 3055
1 3056
1 3057
1 3058
1 3059
1 3060
1 3061
1 3062
1 3063
1 3064
1 3065
1 3066
1 3067
1 3068
1 3069
1 3070
1 3071
1 3072
1 3073
1 3074
1 3075
1 3076
1 3077
1 3078
1 3079
1 3080
1 3081
1 3082
1 3083
1 3084
1 3085
1 3086
1 3087
1 3088
1 3089
1 3090
1 3091
1 3092
1 3093
1 3094
1 3095
1 3096
1 3097
1 3098
1 3099
1 3100
1 3101
1 3102
1 3103
1 3104
1 3105
1 3106
1 3107
1 3108
1 3109
1 3110
1 3111
1 3112
1 3113
1 3114
1 3115
1 3116
1 3117
1 3118
1 3119
1 3120
1 3121
1 3122
1 3123
1 3124
1 3125
1 3126
1 3127
1 3128
1 3129
1 3130
1 3131
1 3132
1 3133
1 3134
1 3135
1 3136
1 3137
1 3138
1 3139
1 3140
1 3141
1 3142
1 3143
1 3144
1 3145
1 3146
1 3147
1 3148
1 3149
1 3150
1 3151
1 3152
1 3153
1 3154
1 3155
1 3156
1 3157
1 3158
1 3159
1 3160
1 3161
1 3162
1 3163
1 3164
1 3165
1 3166
1 3167
1 3168
1 3169
1 3170
1 3171
1 3172
1 3173
1 3174
1 3175
1 3176
1 3177
1 3178
1 3179
1 3180
1 3181
1 3182
1 3183
1 3184
1 3185
1 3186
1 3187
1 3188
1 3189
1 3190
1 3191
1 3192
1 3193
1 3194
1 3195
1 3196
1 3197
1 3198
1 3199
1 3200
1 3201
1 3202
1 3203
1 3204
1 3205
1 3206
1 3207
1 3208
1 3209
1 3210
1 3211
1 3212
1 3213
1 3214
1 3215
1 3216
1 3217
1 3218
1 3219
1 3220
1 3221
1 3222
1 3223
1 3224
1 3225
1 3226
1 3227
1 3228
1 3229
1 3230
1 3231
1 3232
1 3233
1 3234
1 3235
1 3236
1 3237
1 3238
1 3239
1 3240
1 3241
1 3242
1 3243
1 3244
1 3245
1 3246
1 3247
1 3248
1 3249
1 3250
1 3251
1 3252
1 3253
1 3254
1 3255
1 3256
1 3257
1 3258
1 3259
1 3260
1 3261
1 3262
1 3263
1 3264
1 3265
1 3266
1 3267
1 3268
1 3269
1 3270
1 3271
1 3272
1 3273
1 3274
1 3275
1 3276
1 3277
1 3278
1 3279
1 3280
1 3281
1 3282
1 3283
1 3284
1 3285
1 3286
1 3287
1 3288
1 3289
1 3290
1 3291
1 3292
1 3293
1 3294
1 3295
1 3296
1 3297
1 3298
1 3299
1 3300
1 3301
1 3302
1 3303
1 3304
1 3305
1 3306
1 3307
1 3308
1 3309
1 3310
1 3311
1 3312
1 3313
1 3314
1 3315
1 3316
1 3317
1 3318
1 3319
1 3320
1 3321
1 3322
1 3323
1 3324
1 3325
1 3326
1 3327
1 3328
1 3329
1 3330
1 3331
1 3332
1 3333
1 3334
1 3335
1 3336
1 3337
1 3338
1 3339
1 3340
1 3341
1 3342
1 3343
1 3344
1 3345
1 3346
1 3347
1 3348
1 3349
1 3350
1 3351
1 3352
1 3353
1 3354
1 3355
1 3356
1 3357
1 3358
1 3359
1 3360
1 3361
1 3362
1 3363
1 3364
1 3365
1 3366
1 3367
1 3368
1 3369
1 3370
1 3371
1 3372
1 3373
1 3374
1 3375
1 3376
1 3377
1 3378
1 3379
1 3380
1 3381
1 3382
1 3383
1 3384
1 3385
1 3386
1 3387
1 3388
1 3389
1 3390
1 3391
1 3392
1 3393
1 3394
1 3395
1 3396
1 3397
1 3398
1 3399
1 3400
1 3401
1 3402
1 3403
1 3404
1 3405
1 3406
1 3407
1 3408
1 3409
1 3410
1 3411
1 3412
1 3413
1 3414
1 3415
1 3416
1 3417
1 3418
1 3419
1 3420
1 3421
1 3422
1 3423
1 3424
1 3425
1 3426
1 3427
1 3428
1 3429
1 3430
1 3431
1 3432
1 3433
1 3434
1 3435
1 3436
1 3437
1 3438
1 3439
1 3440
1 3441
1 3442
1 3443
1 3444
1 3445
1 3446
1 3447
1 3448
1 3449
1 3450
1 3451
1 3452
1 3453
1 3454
1 3455
1 3456
1 3457
1 3458
1 3459
1 3460
1 3461
1 3462
1 3463
1 3464
1 3465
1 3466
1 3467
1 3468
1 3469
1 3470
1 3471
1 3472
1 3473
1 3474
1 3475
1 3476
1 3477
1 3478
1 3479
1 3480
1 3481
1 3482
1 3483
1 3484
1 3485
1 3486
1 3487
1 3488
1 3489
1 3490
1 3491
1 3492
1 3493
1 3494
1 3495
1 3496
1 3497
1 3498
1 3499
1 3500
1 3501
1 3502
1 3503
1 3504
1 3505
1 3506
1 3507
1 3508
1 3509
1 3510
1 3511
1 3512
1 3513
1 3514
1 3515
1 3516
1 3517
1 3518
1 3519
1 3520
1 3521
1 3522
1 3523
1 3524
1 3525
1 3526
1 3527
1 3528
1 3529
1 3530
1 3531
1 3532
1 3533
1 3534
1 3535
1 3536
1 3537
1 3538
1 3539
1 3540
1 3541
1 3542
1 3543
1 3544
1 3545
1 3546
1 3547
1 3548
1 3549
1 3550
1 3551
1 3552
1 3553
1 3554
1 3555
1 3556
1 3557
1 3558
1 3559
1 3560
1 3561
1 3562
1 3563
1 3564
1 3565
1 3566
1 3567
1 3568
1 3569
1 3570
1 3571
1 3572
1 3573
1 3574
1 3575
1 3576
1 3577
1 3578
1 3579
1 3580
1 3581
1 3582
1 3583
1 3584
1 3585
1 3586
1 3587
1 3588
1 3589
1 3590
1 3591
1 3592
1 3593
1 3594
1 3595
1 3596
1 3597
1 3598
1 3599
1 3600
1 3601
1 3602
1 3603
1 3604
1 3605
1 3606
1 3607
1 3608
1 3609
1 3610
1 3611
1 3612
1 3613
1 3614
1 3615
1 3616
1 3617
1 3618
1 3619
1 3620
1 3621
1 3622
1 3623
1 3624
1 3625
1 3626
1 3627
1 3628
1 3629
1 3630
1 3631
1 3632
1 3633
1 3634
1 3635
1 3636
1 3637
1 3638
1 3639
1 3640
1 3641
1 3642
1 3643
1 3644
1 3645
1 3646
1 3647
1 3648
1 3649
1 3650
1 3651
1 3652
1 3653
1 3654
1 3655
1 3656
1 3657
1 3658
1 3659
1 3660
1 3661
1 3662
1 3663
1 3664
1 3665
1 3666
1 3667
1 3668
1 3669
1 3670
1 3671
1 3672
1 3673
1 3674
1 3675
1 3676
1 3677
1 3678
1 3679
1 3680
1 3681
1 3682
1 3683
1 3684
1 3685
1 3686
1 3687
1 3688
1 3689
1 3690
1 3691
1 3692
1 3693
1 3694
1 3695
1 3696
1 3697
1 3698
1 3699
1 3700
1 3701
1 3702
1 3703
1 3704
1 3705
1 3706
1 3707
1 3708
1 3709
1 3710
1 3711
1 3712
1 3713
1 3714
1 3715
1 3716
1 3717
1 3718
1 3719
1 3720
1 3721
1 3722
1 3723
1 3724
1 3725
1 3726
1 3727
1 3728
1 3729
1 3730
1 3731
1 3732
1 3733
1 3734
1 3735
1 3736
1 3737
1 3738
1 3739
1 3740
1 3741
1 3742
1 3743
1 3744
1 3745
1 3746
1 3747
1 3748
1 3749
1 3750
1 3751
1 3752
1 3753
1 3754
1 3755
1 3756
1 3757
1 3758
1 3759
1 3760
1 3761
1 3762
1 3763
1 3764
1 3765
1 3766
1 3767
1 3768
1 3769
1 3770
1 3771
1 3772
1 3773
1 3774
1 3775
1 3776
1 3777
1 3778
1 3779
1 3780
1 3781
1 3782
1 3783
1 3784
1 3785
1 3786
1 3787
1 3788
1 3789
1 3790
1 3791
1 3792
1 3793
1 3794
1 3795
1 3796
1 3797
1 3798
1 3799
1 3800
1 3801
1 3802
1 3803
1 3804
1 3805
1 3806
1 3807
1 3808
1 3809
1 3810
1 3811
1 3812
1 3813
1 3814
1 3815
1 3816
1 3817
1 3818
1 3819
1 3820
1 3821
1 3822
1 3823
1 3824
1 3825
1 3826
1 3827
1 3828
1 3829
1 3830
1 3831
1 3832
1 3833
1 3834
1 3835
1 3836
1 3837
1 3838
1 3839
1 3840
1 3841
1 3842
1 3843
1 3844
1 3845
1 3846
1 3847
1 3848
1 3849
1 3850
1 3851
1 3852
1 3853
1 3854
1 3855
1 3856
1 3857
1 3858
1 3859
1 3860
1 3861
1 3862
1 3863
1 3864
1 3865
1 3866
1 3867
1 3868
1 3869
1 3870
1 3871
1 3872
1 3873
1 3874
1 3875
1 3876
1 3877
1 3878
1 3879
1 3880
1 3881
1 3882
1 3883
1 3884
1 3885
1 3886
1 3887
1 3888
1 3889
1 3890
1 3891
1 3892
1 3893
1 3894
1 3895
1 3896
1 3897
1 3898
1 3899
1 3900
1 3901
1 3902
1 3903
1 3904
1 3905
1 3906
1 3907
1 3908
1 3909
1 3910
1 3911
1 3912
1 3913
1 3914
1 3915
1 3916
1 3917
1 3918
1 3919
1 3920
1 3921
1 3922
1 3923
1 3924
1 3925
1 3926
1 3927
1 3928
1 3929
1 3930
1 3931
1 3932
1 3933
1 3934
1 3935
1 3936
1 3937
1 3938
1 3939
1 3940
1 3941
1 3942
1 3943
1 3944
1 3945
1 3946
1 3947
1 3948
1 3949
1 3950
1 3951
1 3952
1 3953
1 3954
1 3955
1 3956
1 3957
1 3958
1 3959
1 3960
1 3961
1 3962
1 3963
1 3964
1 3965
1 3966
1 3967
1 3968
1 3969
1 3970
1 3971
1 3972
1 3973
1 3974
1 3975
1 3976
1 3977
1 3978
1 3979
1 3980
1 3981
1 3982
1 3983
1 3984
1 3985
1 3986
1 3987
1 3988
1 3989
1 3990
1 3991
1 3992
1 3993
1 3994
1 3995
1 3996
1 3997
1 3998
1 3999
1 4000
1 4001
1 4002
1 4003
1 4004
1 4005
1 4006
1 4007
1 4008
1 4009
1 4010
1 4011
1 4012
1 4013
1 4014
1 4015
1 4016
1 4017
1 4018
1 4019
1 4020
1 4021
1 4022
1 4023
1 4024
1 4025
1 4026
1 4027
1 4028
1 4029
1 4030
1 4031
1 4032
1 4033
1 4034
1 4035
1 4036
1 4037
1 4038
1 4039
1 4040
1 4041
1 4042
1 4043
1 4044
1 4045
1 4046
1 4047
1 4048
1 4049
1 4050
1 4051
1 4052
1 4053
1 4054
1 4055
1 4056
1 4057
1 4058
1 4059
1 4060
1 4061
1 4062
1 4063
1 4064
1 4065
1 4066
1 4067
1 4068
1 4069
1 4070
1 4071
1 4072
1 4073
1 4074
1 4075
1 4076
1 4077
1 4078
1 4079
1 4080
1 4081
1 4082
1 4083
1 4084
1 4085
1 4086
1 4087
1 4088
1 4089
1 4090
1 4091
1 4092
1 4093
1 4094
1 4095
1 4096
1 4097
1 4098
1 4099
1 4100
1 4101
1 4102
1 4103
1 4104
1 4105
1 4106
1 4107
1 4108
1 4109
1 4110
1 4111
1 4112
1 4113
1 4114
1 4115
1 4116
1 4117
1 4118
1 4119
1 4120
1 4121
1 4122
1 4123
1 4124
1 4125
1 4126
1 4127
1 4128
1 4129
1 4130
1 4131
1 4132
1 4133
1 4134
1 4135
1 4136
1 4137
1 4138
1 4139
1 4140
1 4141
1 4142
1 4143
1 4144
1 4145
1 4146
1 4147
1 4148
1 4149
1 4150
1 4151
1 4152
1 4153
1 4154
1 4155
1 4156
1 4157
1 4158
1 4159
1 4160
1 4161
1 4162
1 4163
1 4164
1 4165
1 4166
1 4167
1 4168
1 4169
1 4170
1 4171
1 4172
1 4173
1 4174
1 4175
1 4176
1 4177
1 4178
1 4179
1 4180
1 4181
1 4182
1 4183
1 4184
1 4185
1 4186
1 4187
1 4188
1 4189
1 4190
1 4191
1 4192
1 4193
1 4194
1 4195
1 4196
1 4197
1 4198
1 4199
1 4200
1 4201
1 4202
1 4203
1 4204
1 4205
1 4206
1 4207
1 4208
1 4209
1 4210
1 4211
1 4212
1 4213
1 4214
1 4215
1 4216
1 4217
1 4218
1 4219
1 4220
1 4221
1 4222
1 4223
1 4224
1 4225
1 4226
1 4227
1 4228
1 4229
1 4230
1 4231
1 4232
1 4233
1 4234
1 4235
1 4236
1 4237
1 4238
1 4239
1 4240
1 4241
1 4242
1 4243
1 4244
1 4245
1 4246
1 4247
1 4248
1 4249
1 4250
1 4251
1 4252
1 4253
1 4254
1 4255
1 4256
1 4257
1 4258
1 4259
1 4260
1 4261
1 4262
1 4263
1 4264
1 4265
1 4266
1 4267
1 4268
1 4269
1 4270
1 4271
1 4272
1 4273
1 4274
1 4275
1 4276
1 4277
1 4278
1 4279
1 4280
1 4281
1 4282
1 4283
1 4284
1 4285
1 4286
1 4287
1 4288
1 4289
1 4290
1 4291
1 4292
1 4293
1 4294
1 4295
1 4296
1 4297
1 4298
1 4299
1 4300
1 4301
1 4302
1 4303
1 4304
1 4305
1 4306
1 4307
1 4308
1 4309
1 4310
1 4311
1 4312
1 4313
1 4314
1 4315
1 4316
1 4317
1 4318
1 4319
1 4320
1 4321
1 4322
1 4323
1 4324
1 4325
1 4326
1 4327
1 4328
1 4329
1 4330
1 4331
1 4332
1 4333
1 4334
1 4335
1 4336
1 4337
1 4338
1 4339
1 4340
1 4341
1 4342
1 4343
1 4344
1 4345
1 4346
1 4347
1 4348
1 4349
1 4350
1 4351
1 4352
1 4353
1 4354
1 4355
1 4356
1 4357
1 4358
1 4359
1 4360
1 4361
1 4362
1 4363
1 4364
1 4365
1 4366
1 4367
1 4368
1 4369
1 4370
1 4371
1 4372
1 4373
1 4374
1 4375
1 4376
1 4377
1 4378
1 4379
1 4380
1 4381
1 4382
1 4383
1 4384
1 4385
1 4386
1 4387
1 4388
1 4389
1 4390
1 4391
1 4392
1 4393
1 4394
1 4395
1 4396
1 4397
1 4398
1 4399
1 4400
1 4401
1 4402
1 4403
1 4404
1 4405
1 4406
1 4407
1 4408
1 4409
1 4410
1 4411
1 4412
1 4413
1 4414
1 4415
1 4416
1 4417
1 4418
1 4419
1 4420
1 4421
1 4422
1 4423
1 4424
1 4425
1 4426
1 4427
1 4428
1 4429
1 4430
1 4431
1 4432
1 4433
1 4434
1 4435
1 4436
1 4437
1 4438
1 4439
1 4440
1 4441
1 4442
1 4443
1 4444
1 4445
1 4446
1 4447
1 4448
1 4449
1 4450
1 4451
1 4452
1 4453
1 4454
1 4455
1 4456
1 4457
1 4458
1 4459
1 4460
1 4461
1 4462
1 4463
1 4464
1 4465
1 4466
1 4467
1 4468
1 4469
1 4470
1 4471
1 4472
1 4473
1 4474
1 4475
1 4476
1 4477
1 4478
1 4479
1 4480
1 4481
1 4482
1 4483
1 4484
1 4485
1 4486
1 4487
1 4488
1 4489
1 4490
1 4491
1 4492
1 4493
1 4494
1 4495
1 4496
1 4497
1 4498
1 4499
1 4500
1 4501
1 4502
1 4503
1 4504
1 4505
1 4506
1 4507
1 4508
1 4509
1 4510
1 4511
1 4512
1 4513
1 4514
1 4515
1 4516
1 4517
1 4518
1 4519
1 4520
1 4521
1 4522
1 4523
1 4524
1 4525
1 4526
1 4527
1 4528
1 4529
1 4530
1 4531
1 4532
1 4533
1 4534
1 4535
1 4536
1 4537
1 4538
1 4539
1 4540
1 4541
1 4542
1 4543
1 4544
1 4545
1 4546
1 4547
1 4548
1 4549
1 4550
1 4551
1 4552
1 4553
1 4554
1 4555
1 4556
1 4557
1 4558
1 4559
1 4560
1 4561
1 4562
1 4563
1 4564
1 4565
1 4566
1 4567
1 4568
1 4569
1 4570
1 4571
1 4572
1 4573
1 4574
1 4575
1 4576
1 4577
1 4578
1 4579
1 4580
1 4581
1 4582
1 4583
1 4584
1 4585
1 4586
1 4587
1 4588
1 4589
1 4590
1 4591
1 4592
1 4593
1 4594
1 4595
1 4596
1 4597
1 4598
1 4599
1 4600
1 4601
1 4602
1 4603
1 4604
1 4605
1 4606
1 4607
1 4608
1 4609
1 4610
1 4611
1 4612
1 4613
1 4614
1 4615
1 4616
1 4617
1 4618
1 4619
1 4620
1 4621
1 4622
1 4623
1 4624
1 4625
1 4626
1 4627
1 4628
1 4629
1 4630
1 4631
1 4632
1 4633
1 4634
1 4635
1 4636
1 4637
1 4638
1 4639
1 4640
1 4641
1 4642
1 4643
1 4644
1 4645
1 4646
1 4647
1 4648
1 4649
1 4650
1 4651
1 4652
1 4653
1 4654
1 4655
1 4656
1 4657
1 4658
1 4659
1 4660
1 4661
1 4662
1 4663
1 4664
1 4665
1 4666
1 4667
1 4668
1 4669
1 4670
1 4671
1 4672
1 4673
1 4674
1 4675
1 4676
1 4677
1 4678
1 4679
1 4680
1 4681
1 4682
1 4683
1 4684
1 4685
1 4686
1 4687
1 4688
1 4689
1 4690
1 4691
1 4692
1 4693
1 4694
1 4695
1 4696
1 4697
1 4698
1 4699
1 4700
1 4701
1 4702
1 4703
1 4704
1 4705
1 4706
1 4707
1 4708
1 4709
1 4710
1 4711
1 4712
1 4713
1 4714
1 4715
1 4716
1 4717
1 4718
1 4719
1 4720
1 4721
1 4722
1 4723
1 4724
1 4725
1 4726
1 4727
1 4728
1 4729
1 4730
1 4731
1 4732
1 4733
1 4734
1 4735
1 4736
1 4737
1 4738
1 4739
1 4740
1 4741
1 4742
1 4743
1 4744
1 4745
1 4746
1 4747
1 4748
1 4749
1 4750
1 4751
1 4752
1 4753
1 4754
1 4755
1 4756
1 4757
1 4758
1 4759
1 4760
1 4761
1 4762
1 4763
1 4764
1 4765
1 4766
1 4767
1 4768
1 4769
1 4770
1 4771
1 4772
1 4773
1 4774
1 4775
1 4776
1 4777
1 4778
1 4779
1 4780
1 4781
1 4782
1 4783
1 4784
1 4785
1 4786
1 4787
1 4788
1 4789
1 4790
1 4791
1 4792
1 4793
1 4794
1 4795
1 4796
1 4797
1 4798
1 4799
1 4800
1 4801
1 4802
1 4803
1 4804
1 4805
1 4806
1 4807
1 4808
1 4809
1 4810
1 4811
1 4812
1 4813
1 4814
1 4815
1 4816
1 4817
1 4818
1 4819
1 4820
1 4821
1 4822
1 4823
1 4824
1 4825
1 4826
1 4827
1 4828
1 4829
1 4830
1 4831
1 4832
1 4833
1 4834
1 4835
1 4836
1 4837
1 4838
1 4839
1 4840
1 4841
1 4842
1 4843
1 4844
1 4845
1 4846
1 4847
1 4848
1 4849
1 4850
1 4851
1 4852
1 4853
1 4854
1 4855
1 4856
1 4857
1 4858
1 4859
1 4860
1 4861
1 4862
1 4863
1 4864
1 4865
1 4866
1 4867
1 4868
1 4869
1 4870
1 4871
1 4872
1 4873
1 4874
1 4875
1 4876
1 4877
1 4878
1 4879
1 4880
1 4881
1 4882
1 4883
1 4884
1 4885
1 4886
1 4887
1 4888
1 4889
1 4890
1 4891
1 4892
1 4893
1 4894
1 4895
1 4896
1 4897
1 4898
1 4899
1 4900
1 4901
1 4902
1 4903
1 4904
1 4905
1 4906
1 4907
1 4908
1 4909
1 4910
1 4911
1 4912
1 4913
1 4914
1 4915
1 4916
1 4917
1 4918
1 4919
1 4920
1 4921
1 4922
1 4923
1 4924
1 4925
1 4926
1 4927
1 4928
1 4929
1 4930
1 4931
1 4932
1 4933
1 4934
1 4935
1 4936
1 4937
1 4938
1 4939
1 4940
1 4941
1 4942
1 4943
1 4944
1 4945
1 4946
1 4947
1 4948
1 4949
1 4950
1 4951
1 4952
1 4953
1 4954
1 4955
1 4956
1 4957
1 4958
1 4959
1 4960
1 4961
1 4962
1 4963
1 4964
1 4965
1 4966
1 4967
1 4968
1 4969
1 4970
1 4971
1 4972
1 4973
1 4974
1 4975
1 4976
1 4977
1 4978
1 4979
1 4980
1 4981
1 4982
1 4983
1 4984
1 4985
1 4986
1 4987
1 4988
1 4989
1 4990
1 4991
1 4992
1 4993
1 4994
1 4995
1 4996
1 4997
1 4998
1 4999
CELL_TYPES 5000
1 
1 
1 
1 
1 
1 
1 
1 
1 
1 
1 
1 
1 
1 
1 
1 
1 
1 
1 
1 
1 
1 
1 
1 
1 
1 
1 
1 
1 
1 
1 
1 
1 
1 
1 
1 
1 
1 
1 
1 
1 
1 
1 
1 
1 
1 
1 
1 
1 
1 
1 
1 
1 
1 
1 
1 
1 
1 
1 
1 
1 
1 
1 
1 
1 
1 
1 
1 
1 
1 
1 
1 
1 
1 
1 
1 
1 
1 
1 
1 
1 
1 
1 
1 
1 
1 
1 
1 
1 
1 
1 
1 
1 
1 
1 
1 
1 
1 
1 
1 
1 
1 
1 
1 
1 
1 
1 
1 
1 
1 
1 
1 
1 
1 
1 
1 
1 
1 
1 
1 
1 
1 
1 
1 
1 
1 
1 
1 
1 
1 
1 
1 
1 
1 
1 
1 
1 
1 
1 
1 
1 
1 
1 
1 
1 
1 
1 
1 
1 
1 
1 
1 
1 
1 
1 
1 
1 
1 
1 
1 
1 
1 
1 
1 
1 
1 
1 
1 
1 
1 
1 
1 
1 
1 
1 
1 
1 
1 
1 
1 
1 
1 
1 
1 
1 
1 
1 
1 
1 
1 
1 
1 
1 
1 
1 
1 
1 
1 
1 
1 
1 
1 
1 
1 
1 
1 
1 
1 
1 
1 
1 
1 
1 
1 
1 
1 
1 
1 
1 
1 
1 
1 
1 
1 
1 
1 
1 
1 
1 
1 
1 
1 
1 
1 
1 
1 
1 
1 
1 
1 
1 
1 
1 
1 
1 
1 
1 
1 
1 
1 
1 
1 
1 
1 
1 
1 
1 
1 
1 
1 
1 
1 
1 
1 
1 
1 
1 
1 
1 
1 
1 
1 
1 
1 
1 
1 
1 
1 
1 
1 
1 
1 
1 
1 
1 
1 
1 
1 
1 
1 
1 
1 
1 
1 
1 
1 
1 
1 
1 
1 
1 
1 
1 
1 
1 
1 
1 
1 
1 
1 
1 
1 
1 
1 
1 
1 
1 
1 
1 
1 
1 
1 
1 
1 
1 
1 
1 
1 
1 
1 
1 
1 
1 
1 
1 
1 
1 
1 
1 
1 
1 
1 
1 
1 
1 
1 
1 
1 
1 
1 
1 
1 
1 
1 
1 
1 
1 
1 
1 
1 
1 
1 
1 
1 
1 
1 
1 
1 
1 
1 
1 
1 
1 
1 
1 
1 
1 
1 
1 
1 
1 
1 
1 
1 
1 
1 
1 
1 
1 
1 
1 
1 
1 
1 
1 
1 
1 
1 
1 
1 
1 
1 
1 
1 
1 
1 
1 
1 
1 
1 
1 
1 
1 
1 
1 
1 
1 
1 
1 
1 
1 
1 
1 
1 
1 
1 
1 
1 
1 
1 
1 
1 
1 
1 
1 
1 
1 
1 
1 
1 
1 
1 
1 
1 
1 
1 
1 
1 
1 
1 
1 
1 
1 
1 
1 
1 
1 
1 
1 
1 
1 
1 
1 
1 
1 
1 
1 
1 
1 
1 
1 
1 
1 
1 
1 
1 
1 
1 
1 
1 
1 
1 
1 
1 
1 
1 
1 
1 
1 
1 
1 
1 
1 
1 
1 
1 
1 
1 
1 
1 
1 
1 
1 
1 
1 
1 
1 
1 
1 
1 
1 
1 
1 
1 
1 
1 
1 
1 
1 
1 
1 
1 
1 
1 
1 
1 
1 
1 
1 
1 
1 
1 
1 
1 
1 
1 
1 
1 
1 
1 
1 
1 
1 
1 
1 
1 
1 
1 
1 
1 
1 
1 
1 
1 
1 
1 
1 
1 
1 
1 
1 
1 
1 
1 
1 
1 
1 
1 
1 
1 
1 
1 
1 
1 
1 
1 
1 
1 
1 
1 
1 
1 
1 
1 
1 
1 
1 
1 
1 
1 
1 
1 
1 
1 
1 
1 
1 
1 
1 
1 
1 
1 
1 
1 
1 
1 
1 
1 
1 
1 
1 
1 
1 
1 
1 
1 
1 
1 
1 
1 
1 
1 
1 
1 
1 
1 
1 
1 
1 
1 
1 
1 
1 
1 
1 
1 
1 
1 
1 
1 
1 
1 
1 
1 
1 
1 
1 
1 
1 
1 
1 
1 
1 
1 
1 
1 
1 
1 
1 
1 
1 
1 
1 
1 
1 
1 
1 
1 
1 
1 
1 
1 
1 
1 
1 
1 
1 
1 
1 
1 
1 
1 
1 
1 
1 
1 
1 
1 
1 
1 
1 
1 
1 
1 
1 
1 
1 
1 
1 
1 
1 
1 
1 
1 
1 
1 
1 
1 
1 
1 
1 
1 
1 
1 
1 
1 
1 
1 
1 
1 
1 
1 
1 
1 
1 
1 
1 
1 
1 
1 
1 
1 
1 
1 
1 
1 
1 
1 
1 
1 
1 
1 
1 
1 
1 
1 
1 
1 
1 
1 
1 
1 
1 
1 
1 
1 
1 
1 
1 
1 
1 
1 
1 
1 
1 
1 
1 
1 
1 
1 
1 
1 
1 
1 
1 
1 
1 
1 
1 
1 
1 
1 
1 
1 
1 
1 
1 
1 
1 
1 
1 
1 
1 
1 
1 
1 
1 
1 
1 
1 
1 
1 
1 
1 
1 
1 
1 
1 
1 
1 
1 
1 
1 
1 
1 
1 
1 
1 
1 
1 
1 
1 
1 
1 
1 
1 
1 
1 
1 
1 
1 
1 
1 
1 
1 
1 
1 
1 
1 
1 
1 
1 
1 
1 
1 
1 
1 
1 
1 
1 
1 
1 
1 
1 
1 
1 
1 
1 
1 
1 
1 
1 
1 
1 
1 
1 
1 
1 
1 
1 
1 
1 
1 
1 
1 
1 
1 
1 
1 
1 
1 
1 
1 
1 
1 
1 
1 
1 
1 
1 
1 
1 
1 
1 
1 
1 
1 
1 
1 
1 
1 
1 
1 
1 
1 
1 
1 
1 
1 
1 
1 
1 
1 
1 
1 
1 
1 
1 
1 
1 
1 
1 
1 
1 
1 
1 
1 
1 
1 
1 
1 
1 
1 
1 
1 
1 
1 
1 
1 
1 
1 
1 
1 
1 
1 
1 
1 
1 
1 
1 
1 
1 
1 
1 
1 
1 
1 
1 
1 
1 
1 
1 
1 
1 
1 
1 
1 
1 
1 
1 
1 
1 
1 
1 
1 
1 
1 
1 
1 
1 
1 
1 
1 
1 
1 
1 
1 
1 
1 
1 
1 
1 
1 
1 
1 
1 
1 
1 
1 
1 
1 
1 
1 
1 
1 
1 
1 
1 
1 
1 
1 
1 
1 
1 
1 
1 
1 
1 
1 
1 
1 
1 
1 
1 
1 
1 
1 
1 
1 
1 
1 
1 
1 
1 
1 
1 
1 
1 
1 
1 
1 
1 
1 
1 
1 
1 
1 
1 
1 
1 
1 
1 
1 
1 
1 
1 
1 
1 
1 
1 
1 
1 
1 
1 
1 
1 
1 
1 
1 
1 
1 
1 
1 
1 
1 
1 
1 
1 
1 
1 
1 
1 
1 
1 
1 
1 
1 
1 
1 
1 
1 
1 
1 
1 
1 
1 
1 
1 
1 
1 
1 
1 
1 
1 
1 
1 
1 
1 
1 
1 
1 
1 
1 
1 
1 
1 
1 
1 
1 
1 
1 
1 
1 
1 
1 
1 
1 
1 
1 
1 
1 
1 
1 
1 
1 
1 
1 
1 
1 
1 
1 
1 
1 
1 
1 
1 
1 
1 
1 
1 
1 
1 
1 
1 
1 
1 
1 
1 
1 
1 
1 
1 
1 
1 
1 
1 
1 
1 
1 
1 
1 
1 
1 
1 
1 
1 
1 
1 
1 
1 
1 
1 
1 
1 
1 
1 
1 
1 
1 
1 
1 
1 
1 
1 
1 
1 
1 
1 
1 
1 
1 
1 
1 
1 
1 
1 
1 
1 
1 
1 
1 
1 
1 
1 
1 
1 
1 
1 
1 
1 
1 
1 
1 
1 
1 
1 
1 
1 
1 
1 
1 
1 
1 
1 
1 
1 
1 
1 
1 
1 
1 
1 
1 
1 
1 
1 
1 
1 
1 
1 
1 
1 
1 
1 
1 
1 
1 
1 
1 
1 
1 
1 
1 
1 
1 
1 
1 
1 
1 
1 
1 
1 
1 
1 
1 
1 
1 
1 
1 
1 
1 
1 
1 
1 
1 
1 
1 
1 
1 
1 
1 
1 
1 
1 
1 
1 
1 
1 
1 
1 
1 
1 
1 
1 
1 
1 
1 
1 
1 
1 
1 
1 
1 
1 
1 
1 
1 
1 
1 
1 
1 
1 
1 
1 
1 
1 
1 
1 
1 
1 
1 
1 
1 
1 
1 
1 
1 
1 
1 
1 
1 
1 
1 
1 
1 
1 
1 
1 
1 
1 
1 
1 
1 
1 
1 
1 
1 
1 
1 
1 
1 
1 
1 
1 
1 
1 
1 
1 
1 
1 
1 
1 
1 
1 
1 
1 
1 
1 
1 
1 
1 
1 
1 
1 
1 
1 
1 
1 
1 
1 
1 
1 
1 
1 
1 
1 
1 
1 
1 
1 
1 
1 
1 
1 
1 
1 
1 
1 
1 
1 
1 
1 
1 
1 
1 
1 
1 
1 
1 
1 
1 
1 
1 
1 
1 
1 
1 
1 
1 
1 
1 
1 
1 
1 
1 
1 
1 
1 
1 
1 
1 
1 
1 
1 
1 
1 
1 
1 
1 
1 
1 
1 
1 
1 
1 
1 
1 
1 
1 
1 
1 
1 
1 
1 
1 
1 
1 
1 
1 
1 
1 
1 
1 
1 
1 
1 
1 
1 
1 
1 
1 
1 
1 
1 
1 
1 
1 
1 
1 
1 
1 
1 
1 
1 
1 
1 
1 
1 
1 
1 
1 
1 
1 
1 
1 
1 
1 
1 
1 
1 
1 
1 
1 
1 
1 
1 
1 
1 
1 
1 
1 
1 
1 
1 
1 
1 
1 
1 
1 
1 
1 
1 
1 
1 
1 
1 
1 
1 
1 
1 
1 
1 
1 
1 
1 
1 
1 
1 
1 
1 
1 
1 
1 
1 
1 
1 
1 
1 
1 
1 
1 
1 
1 
1 
1 
1 
1 
1 
1 
1 
1 
1 
1 
1 
1 
1 
1 
1 
1 
1 
1 
1 
1 
1 
1 
1 
1 
1 
1 
1 
1 
1 
1 
1 
1 
1 
1 
1 
1 
1 
1 
1 
1 
1 
1 
1 
1 
1 
1 
1 
1 
1 
1 
1 
1 
1 
1 
1 
1 
1 
1 
1 
1 
1 
1 
1 
1 
1 
1 
1 
1 
1 
1 
1 
1 
1 
1 
1 
1 
1 
1 
1 
1 
1 
1 
1 
1 
1 
1 
1 
1 
1 
1 
1 
1 
1 
1 
1 
1 
1 
1 
1 
1 
1 
1 
1 
1 
1 
1 
1 
1 
1 
1 
1 
1 
1 
1 
1 
1 
1 
1 
1 
1 
1 
1 
1 
1 
1 
1 
1 
1 
1 
1 
1 
1 
1 
1 
1 
1 
1 
1 
1 
1 
1 
1 
1 
1 
1 
1 
1 
1 
1 
1 
1 
1 
1 
1 
1 
1 
1 
1 
1 
1 
1 
1 
1 
1 
1 
1 
1 
1 
1 
1 
1 
1 
1 
1 
1 
1 
1 
1 
1 
1 
1 
1 
1 
1 
1 
1 
1 
1 
1 
1 
1 
1 
1 
1 
1 
1 
1 
1 
1 
1 
1 
1 
1 
1 
1 
1 
1 
1 
1 
1 
1 
1 
1 
1 
1 
1 
1 
1 
1 
1 
1 
1 
1 
1 
1 
1 
1 
1 
1 
1 
1 
1 
1 
1 
1 
1 
1 
1 
1 
1 
1 
1 
1 
1 
1 
1 
1 
1 
1 
1 
1 
1 
1 
1 
1 
1 
1 
1 
1 
1 
1 
1 
1 
1 
1 
1 
1 
1 
1 
1 
1 
1 
1 
1 
1 
1 
1 
1 
1 
1 
1 
1 
1 
1 
1 
1 
1 
1 
1 
1 
1 
1 
1 
1 
1 
1 
1 
1 
1 
1 
1 
1 
1 
1 
1 
1 
1 
1 
1 
1 
1 
1 
1 
1 
1 
1 
1 
1 
1 
1 
1 
1 
1 
1 
1 
1 
1 
1 
1 
1 
1 
1 
1 
1 
1 
1 
1 
1 
1 
1 
1 
1 
1 
1 
1 
1 
1 
1 
1 
1 
1 
1 
1 
1 
1 
1 
1 
1 
1 
1 
1 
1 
1 
1 
1 
1 
1 
1 
1 
1 
1 
1 
1 
1 
1 
1 
1 
1 
1 
1 
1 
1 
1 
1 
1 
1 
1 
1 
1 
1 
1 
1 
1 
1 
1 
1 
1 
1 
1 
1 
1 
1 
1 
1 
1 
1 
1 
1 
1 
1 
1 
1 
1 
1 
1 
1 
1 
1 
1 
1 
1 
1 
1 
1 
1 
1 
1 
1 
1 
1 
1 
1 
1 
1 
1 
1 
1 
1 
1 
1 
1 
1 
1 
1 
1 
1 
1 
1 
1 
1 
1 
1 
1 
1 
1 
1 
1 
1 
1 
1 
1 
1 
1 
1 
1 
1 
1 
1 
1 
1 
1 
1 
1 
1 
1 
1 
1 
1 
1 
1 
1 
1 
1 
1 
1 
1 
1 
1 
1 
1 
1 
1 
1 
1 
1 
1 
1 
1 
1 
1 
1 
1 
1 
1 
1 
1 
1 
1 
1 
1 
1 
1 
1 
1 
1 
1 
1 
1 
1 
1 
1 
1 
1 
1 
1 
1 
1 
1 
1 
1 
1 
1 
1 
1 
1 
1 
1 
1 
1 
1 
1 
1 
1 
1 
1 
1 
1 
1 
1 
1 
1 
1 
1 
1 
1 
1 
1 
1 
1 
1 
1 
1 
1 
1 
1 
1 
1 
1 
1 
1 
1 
1 
1 
1 
1 
1 
1 
1 
1 
1 
1 
1 
1 
1 
1 
1 
1 
1 
1 
1 
1 
1 
1 
1 
1 
1 
1 
1 
1 
1 
1 
1 
1 
1 
1 
1 
1 
1 
1 
1 
1 
1 
1 
1 
1 
1 
1 
1 
1 
1 
1 
1 
1 
1 
1 
1 
1 
1 
1 
1 
1 
1 
1 
1 
1 
1 
1 
1 
1 
1 
1 
1 
1 
1 
1 
1 
1 
1 
1 
1 
1 
1 
1 
1 
1 
1 
1 
1 
1 
1 
1 
1 
1 
1 
1 
1 
1 
1 
1 
1 
1 
1 
1 
1 
1 
1 
1 
1 
1 
1 
1 
1 
1 
1 
1 
1 
1 
1 
1 
1 
1 
1 
1 
1 
1 
1 
1 
1 
1 
1 
1 
1 
1 
1 
1 
1 
1 
1 
1 
1 
1 
1 
1 
1 
1 
1 
1 
1 
1 
1 
1 
1 
1 
1 
1 
1 
1 
1 
1 
1 
1 
1 
1 
1 
1 
1 
1 
1 
1 
1 
1 
1 
1 
1 
1 
1 
1 
1 
1 
1 
1 
1 
1 
1 
1 
1 
1 
1 
1 
1 
1 
1 
1 
1 
1 
1 
1 
1 
1 
1 
1 
1 
1 
1 
1 
1 
1 
1 
1 
1 
1 
1 
1 
1 
1 
1 
1 
1 
1 
1 
1 
1 
1 
1 
1 
1 
1 
1 
1 
1 
1 
1 
1 
1 
1 
1 
1 
1 
1 
1 
1 
1 
1 
1 
1 
1 
1 
1 
1 
1 
1 
1 
1 
1 
1 
1 
1 
1 
1 
1 
1 
1 
1 
1 
1 
1 
1 
1 
1 
1 
1 
1 
1 
1 
1 
1 
1 
1 
1 
1 
1 
1 
1 
1 
1 
1 
1 
1 
1 
1 
1 
1 
1 
1 
1 
1 
1 
1 
1 
1 
1 
1 
1 
1 
1 
1 
1 
1 
1 
1 
1 
1 
1 
1 
1 
1 
1 
1 
1 
1 
1 
1 
1 
1 
1 
1 
1 
1 
1 
1 
1 
1 
1 
1 
1 
1 
1 
1 
1 
1 
1 
1 
1 
1 
1 
1 
1 
1 
1 
1 
1 
1 
1 
1 
1 
1 
1 
1 
1 
1 
1 
1 
1 
1 
1 
1 
1 
1 
1 
1 
1 
1 
1 
1 
1 
1 
1 
1 
1 
1 
1 
1 
1 
1 
1 
1 
1 
1 
1 
1 
1 
1 
1 
1 
1 
1 
1 
1 
1 
1 
1 
1 
1 
1 
1 
1 
1 
1 
1 
1 
1 
1 
1 
1 
1 
1 
1 
1 
1 
1 
1 
1 
1 
1 
1 
1 
1 
1 
1 
1 
1 
1 
1 
1 
1 
1 
1 
1 
1 
1 
1 
1 
1 
1 
1 
1 
1 
1 
1 
1 
1 
1 
1 
1 
1 
1 
1 
1 
1 
1 
1 
1 
1 
1 
1 
1 
1 
1 
1 
1 
1 
1 
1 
1 
1 
1 
1 
1 
1 
1 
1 
1 
1 
1 
1 
1 
1 
1 
1 
1 
1 
1 
1 
1 
1 
1 
1 
1 
1 
1 
1 
1 
1 
1 
1 
1 
1 
1 
1 
1 
1 
1 
1 
1 
1 
1 
1 
1 
1 
1 
1 
1 
1 
1 
1 
1 
1 
1 
1 
1 
1 
1 
1 
1 
1 
1 
1 
1 
1 
1 
1 
1 
1 
1 
1 
1 
1 
1 
1 
1 
1 
1 
1 
1 
1 
1 
1 
1 
1 
1 
1 
1 
1 
1 
1 
1 
1 
1 
1 
1 
1 
1 
1 
1 
1 
1 
1 
1 
1 
1 
1 
1 
1 
1 
1 
1 
1 
1 
1 
1 
1 
1 
1 
1 
1 
1 
1 
1 
1 
1 
1 
1 
1 
1 
1 
1 
1 
1 
1 
1 
1 
1 
1 
1 
1 
1 
1 
1 
1 
1 
1 
1 
1 
1 
1 
1 
1 
1 
1 
1 
1 
1 
1 
1 
1 
1 
1 
1 
1 
1 
1 
1 
1 
1 
1 
1 
1 
1 
1 
1 
1 
1 
1 
1 
1 
1 
1 
1 
1 
1 
1 
1 
1 
1 
1 
1 
1 
1 
1 
1 
1 
1 
1 
1 
1 
1 
1 
1 
1 
1 
1 
1 
1 
1 
1 
1 
1 
1 
1 
1 
1 
1 
1 
1 
1 
1 
1 
1 
1 
1 
1 
1 
1 
1 
1 
1 
1 
1 
1 
1 
1 
1 
1 
1 
1 
1 
1 
1 
1 
1 
1 
1 
1 
1 
1 
1 
1 
1 
1 
1 
1 
1 
1 
1 
1 
1 
1 
1 
1 
1 
1 
1 
1 
1 
1 
1 
1 
1 
1 
1 
1 
1 
1 
1 
1 
1 
1 
1 
1 
1 
1 
1 
1 
1 
1 
1 
1 
1 
1 
1 
1 
1 
1 
1 
1 
1 
1 
1 
1 
1 
1 
1 
1 
1 
1 
1 
1 
1 
1 
1 
1 
1 
1 
1 
1 
1 
1 
1 
1 
1 
1 
1 
1 
1 
1 
1 
1 
1 
1 
1 
1 
1 
1 
1 
1 
1 
1 
1 
1 
1 
1 
1 
1 
1 
1 
1 
1 
1 
1 
1 
1 
1 
1 
1 
1 
1 
1 
1 
1 
1 
1 
1 
1 
1 
1 
1 
1 
1 
1 
1 
1 
1 
1 
1 
1 
1 
1 
1 
1 
1 
1 
1 
1 
1 
1 
1 
1 
1 
1 
1 
1 
1 
1 
1 
1 
1 
1 
1 
1 
1 
1 
1 
1 
1 
1 
1 
1 
1 
1 
1 
1 
1 
1 
1 
1 
1 
1 
1 
1 
1 
1 
1 
1 
1 
1 
1 
1 
1 
1 
1 
1 
1 
1 
1 
1 
1 
1 
1 
1 
1 
1 
1 
1 
1 
1 
1 
1 
1 
1 
1 
1 
1 
1 
1 
1 
1 
1 
1 
1 
1 
1 
1 
1 
1 
1 
1 
1 
1 
1 
1 
1 
1 
1 
1 
1 
1 
1 
1 
1 
1 
1 
1 
1 
1 
1 
1 
1 
1 
1 
1 
1 
1 
1 
1 
1 
1 
1 
1 
1 
1 
1 
1 
1 
1 
1 
1 
1 
1 
1 
1 
1 
1 
1 
1 
1 
1 
1 
1 
1 
1 
1 
1 
1 
1 
1 
1 
1 
1 
1 
1 
1 
1 
1 
1 
1 
1 
1 
1 
1 
1 
1 
1 
1 
1 
1 
1 
1 
1 
1 
1 
1 
1 
1 
1 
1 
1 
1 
1 
1 
1 
1 
1 
1 
1 
1 
1 
1 
1 
1 
1 
1 
1 
1 
1 
1 
1 
1 
1 
1 
1 
1 
1 
1 
1 
1 
1 
1 
1 
1 
1 
1 
1 
1 
1 
1 
1 
1 
1 
1 
1 
1 
1 
1 
1 
1 
1 
1 
1 
1 
1 
1 
1 
1 
1 
1 
1 
1 
1 
1 
1 
1 
1 
1 
1 
1 
1 
1 
1 
1 
1 
1 
1 
1 
1 
1 
1 
1 
1 
1 
1 
1 
1 
1 
1 
1 
1 
1 
1 
1 
1 
1 
1 
1 
1 
1 
1 
1 
1 
1 
1 
1 
1 
1 
1 
1 
1 
1 
1 
1 
1 
1 
1 
1 
1 
1 
1 
1 
1 
1 
1 
1 
1 
1 
1 
1 
1 
1 
1 
1 
1 
1 
1 
1 
1 
1 
1 
1 
1 
1 
1 
1 
1 
1 
1 
1 
1 
1 
1 
1 
1 
1 
1 
1 
1 
1 
1 
1 
1 
1 
1 
1 
1 
1 
1 
1 
1 
1 
1 
1 
1 
1 
1 
1 
1 
1 
1 
1 
1 
1 
1 
1 
1 
1 
1 
1 
1 
1 
1 
1 
1 
1 
1 
1 
1 
1 
1 
1 
1 
1 
1 
1 
1 
1 
1 
1 
1 
1 
1 
1 
1 
1 
1 
1 
1 
1 
1 
1 
1 
1 
1 
1 
1 
1 
1 
1 
1 
1 
1 
1 
1 
1 
1 
1 
1 
1 
1 
1 
1 
1 
1 
1 
1 
1 
1 
1 
1 
1 
1 
1 
1 
1 
1 
1 
1 
1 
1 
1 
1 
1 
1 
1 
1 
1 
1 
1 
1 
1 
1 
1 
1 
1 
1 
1 
1 
1 
1 
1 
1 
1 
1 
1 
1 
1 
1 
1 
1 
1 
1 
1 
1 
1 
1 
1 
1 
1 
1 
1 
1 
1 
1 
1 
1 
1 
1 
1 
1 
1 
1 
1 
1 
1 
1 
1 
1 
1 
1 
1 
1 
1 
1 
1 
1 
1 
1 
1 
1 
1 
1 
1 
1 
1 
1 
1 
1 
1 
1 
1 
1 
1 
1 
1 
1 
1 
1 
1 
1 
1 
1 
1 
1 
1 
1 
1 
1 
1 
1 
1 
1 
1 
1 
1 
1 
1 
1 
1 
1 
1 
1 
1 
1 
1 
1 
1 
1 
1 
1 
1 
1 
1 
1 
1 
1 
1 
1 
1 
1 
1 
1 
1 
1 
1 
1 
1 
1 
1 
1 
1 
1 
1 
1 
1 
1 
1 
1 
1 
1 
1 
1 
1 
1 
1 
1 
1 
1 
1 
1 
1 
1 
1 
1 
1 
1 
1 
1 
1 
1 
1 
1 
1 
1 
1 
1 
1 
1 
1 
1 
1 
1 
1 
1 
1 
1 
1 
1 
1 
1 
1 
1 
1 
1 
1 
1 
1 
1 
1 
1 
1 
1 
1 
1 
1 
1 
1 
1 
1 
1 
1 
1 
1 
1 
1 
1 
1 
1 
1 
1 
1 
1 
1 
1 
1 
1 
1 
1 
1 
1 
1 
1 
1 
1 
1 
1 
1 
1 
1 
1 
1 
1 
1 
1 
1 
1 
1 
1 
1 
1 
1 
1 
1 
1 
1 
1 
1 
1 
1 
1 
1 
1 
1 
1 
1 
1 
1 
1 
1 
1 
1 
1 
1 
1 
1 
1 
1 
1 
1 
1 
1 
1 
1 
1 
1 
1 
1 
1 
1 
1 
1 
1 
1 
1 
1 
1 
1 
1 
1 
1 
1 
1 
1 
1 
1 
1 
1 
1 
1 
1 
1 
1 
1 
1 
1 
1 
1 
1 
1 
1 
1 
1 
1 
1 
1 
1 
1 
1 
1 
1 
1 
1 
1 
1 
1 
1 
1 
1 
1 
1 
1 
1 
1 
1 
1 
1 
1 
1 
1 
1 
1 
1 
1 
1 
1 
1 
1 
1 
1 
1 
1 
1 
1 
1 
1 
1 
1 
1 
1 
1 
1 
1 
1 
1 
1 
1 
1 
1 
1 
1 
1 
1 
1 
1 
1 
1 
1 
1 
1 
1 
1 
1 
1 
1 
1 
1 
1 
1 
1 
1 
1 
1 
1 
1 
1 
1 
1 
1 
1 
1 
1 
1 
1 
1 
1 
1 
1 
1 
1 
1 
1 
1 
1 
1 
1 
1 
1 
1 
1 
1 
1 
1 
1 
1 
1 
1 
1 
1 
1 
1 
1 
1 
1 
1 
1 
1 
1 
1 
1 
1 
1 
1 
1 
1 
1 
1 
1 
1 
1 
1 
1 
1 
1 
1 
1 
1 
1 
1 
1 
1 
1 
1 
1 
1 
1 
1 
1 
1 
1 
1 
1 
1 
1 
1 
1 
1 
1 
1 
1 
1 
1 
1 
1 
1 
1 
1 
1 
1 
1 
1 
1 
1 
1 
1 
1 
1 
1 
1 
1 
1 
1 
1 
1 
1 
1 
1 
1 
1 
1 
1 
1 
1 
1 
1 
1 
1 
1 
1 
1 
1 
1 
1 
1 
1 
1 
1 
1 
1 
1 
1 
1 
1 
1 
1 
1 
1 
1 
1 
1 
1 
1 
1 
1 
1 
1 
1 
1 
1 
1 
1 
1 
1 
1 
1 
1 
1 
1 
1 
1 
1 
1 
1 
1 
1 
1 
1 
1 
1 
1 
1 
1 
1 
1 
1 
1 
1 
1 
1 
1 
1 
1 
1 
1 
1 
1 
1 
1 
1 
1 
1 
1 
1 
1 
1 
1 
1 
1 
1 
1 
1 
1 
1 
1 
1 
1 
1 
1 
1 
1 
1 
1 
1 
1 
1 
1 
1 
1 
1 
1 
1 
1 
1 
1 
1 
1 
1 
1 
1 
1 
1 
1 
1 
1 
1 
1 
1 
1 
1 
1 
1 
1 
1 
1 
1 
1 
1 
1 
1 
1 
1 
1 
1 
1 
1 
1 
1 
1 
1 
1 
1 
1 
1 
1 
1 
1 
1 
1 
1 
1 
1 
1 
1 
1 
1 
1 
1 
1 
1 
1 
1 
1 
1 
1 
1 
1 
1 
1 
1 
1 
1 
1 
1 
1 
1 
1 
1 
1 
1 
1 
1 
1 
1 
1 
1 
1 
1 
1 
1 
1 
1 
1 
1 
1 
1 
1 
1 
1 
1 
1 
1 
1 
1 
1 
1 
1 
1 
1 
1 
1 
1 
1 
1 
1 
1 
1 
1 
1 
1 
1 
1 
1 
1 
1 
1 
1 
1 
1 
1 
1 
1 
1 
1 
1 
1 
1 
1 
1 
1 
1 
1 
1 
1 
1 
1 
1 
1 
1 
1 
1 
1 
1 
1 
1 
1 
1 
1 
1 
1 
1 
1 
1 
1 
1 
1 
1 
1 
1 
1 
1 
1 
1 
1 
1 
1 
1 
1 
1 
1 
1 
1 
1 
1 
1 
1 
1 
1 
1 
1 
1 
1 
1 
1 
1 
1 
1 
1 
1 
1 
1 
1 
1 
1 
1 
1 
1 
1 
1 
1 
1 
1 
1 
1 
1 
1 
1 
1 
1 
1 
1 
1 
1 
1 
1 
1 
1 
1 
1 
1 
1 
1 
1 
1 
1 
1 
1 
1 
1 
1 
1 
1 
1 
1 
1 
1 
1 
1 
1 
1 
1 
1 
1 
1 
1 
1 
1 
1 
1 
1 
1 
1 
1 
1 
1 
1 
1 
1 
1 
1 
1 
1 
1 
1 
1 
1 
1 
1 
1 
1 
1 
1 
1 
1 
1 
1 
1 
1 
1 
1 
1 
1 
1 
1 
1 
1 
1 
1 
1 
1 
1 
1 
1 
1 
1 
1 
1 
1 
1 
1 
1 
1 
1 
1 
1 
1 
1 
1 
1 
1 
1 
1 
1 
1 
1 
1 
1 
1 
1 
1 
1 
1 
1 
1 
1 
1 
1 
1 
1 
1 
1 
1 
1 
1 
1 
1 
1 
1 
1 
1 
1 
1 
1 
1 
1 
1 
1 
1 
1 
1 
1 
1 
1 
1 
1 
1 
1 
1 
1 
1 
1 
1 
1 
1 
1 
1 
1 
1 
1 
1 
1 
1 
1 
1 
1 
1 
1 
1 
1 
1 
1 
1 
1 
1 
1 
1 
1 
1 
1 
1 
1 
1 
1 
1 
1 
1 
1 
1 
1 
1 
1 
1 
1 
1 
1 
1 
1 
1 
1 
1 
1 
1 
1 
1 
1 
1 
1 
1 
1 
1 
1 
1 
1 
1 
1 
1 
1 
1 
1 
1 
1 
1 
1 
1 
1 
1 
1 
1 
1 
1 
1 
1 
1 
1 
1 
1 
1 
1 
1 
1 
1 
1 
1 
1 
1 
1 
1 
1 
1 
1 
1 
1 
1 
1 
1 
1 
1 
1 
1 
1 
1 
1 
1 
1 
1 
1 
1 
1 
1 
1 
1 
1 
1 
1 
1 
1 
1 
1 
1 
1 
1 
1 
1 
1 
1 
1 
1 
1 
1 
1 
1 
1 
1 
1 
1 
1 
1 
1 
1 
1 
1 
1 
1 
1 
1 
1 
1 
1 
1 
1 
1 
1 
1 
1 
1 
1 
1 
1 
1 
1 
1 
1 
1 
1 
1 
1 
1 
1 
1 
1 
1 
1 
1 
1 
1 
1 
1 
1 
1 
1 
1 
1 
1 
1 
1 
1 
1 
1 
1 
1 
1 
1 
1 
1 
1 
1 
1 
1 
1 
1 
1 
1 
1 
1 
1 
1 
1 
1 
1 
1 
1 
1 
1 
1 
1 
1 
1 
1 
1 
1 
1 
1 
1 
1 
1 
1 
1 
1 
1 
1 
1 
1 
1 
1 
1 
1 
1 
1 
1 
1 
1 
1 
1 
1 
1 
1 
1 
1 
1 
1 
1 
1 
1 
1 
1 
1 
1 
1 
1 
1 
1 
1 
1 
1 
1 
1 
1 
1 
1 
1 
1 
1 
1 
1 
1 
1 
1 
1 
1 
1 
1 
1 
1 
1 
1 
1 
1 
1 
1 
1 
1 
1 
1 
1 
1 
1 
1 
1 
1 
1 
1 
1 
1 
1 
1 
1 
1 
1 
1 
1 
1 
1 
1 
1 
1 
1 
1 
1 
1 
1 
1 
1 
1 
1 
1 
1 
1 
1 
1 
1 
1 
1 
1 
1 
1 
1 
1 
1 
1 
1 
1 
1 
1 
1 
1 
1 
1 
1 
1 
1 
1 
1 
1 
1 
1 
1 
1 
1 
1 
1 
1 
1 
1 
1 
1 
1 
1 
1 
1 
1 
1 
1 
1 
1 
1 
1 
1 
1 
1 
1 
1 
1 
1 
1 
1 
1 
1 
1 
1 
1 
1 
1 
1 
1 
1 
1 
1 
1 
1 
1 
1 
1 
1 
1 
1 
1 
1 
1 
1 
1 
1 
1 
1 
1 
1 
1 
1 
1 
1 
1 
1 
1 
1 
1 
1 
1 
1 
1 
1 
1 
1 
1 
1 
1 
1 
1 
1 
1 
1 
1 
1 
1 
1 
1 
1 
1 
1 
1 
1 
1 
1 
1 
1 
1 
1 
1 
1 
1 
1 
1 
1 
1 
1 
1 
1 
1 
1 
1 
1 
1 
1 
1 
1 
1 
1 
1 
1 
1 
1 
1 
1 
1 
1 
1 
1 
1 
1 
1 
1 
1 
1 
1 
1 
1 
1 
1 
1 
1 
1 
1 
1 
1 
1 
1 
1 
1 
1 
1 
1 
1 
1 
1 
1 
1 
1 
1 
1 
1 
1 
1 
1 
1 
1 
1 
1 
1 
1 
1 
1 
1 
1 
1 
1 
1 
1 
1 
1 
1 
1 
1 
1 
1 
1 
1 
1 
1 
1 
1 
1 
1 
1 
1 
1 
1 
1 
1 
1 
1 
1 
1 
1 
1 
1 
POINT_DATA 5000
VECTORS Stress float
-1859.16 -3148.57 0.
-2426.94 -1962.34 0.
-28.5901 -17.0555 0.
-601.148 -917.473 0.
-3374.81 -6640.33 0.
-19.0399 -20.3971 0.
-3001.97 -2884.24 0.
-16.5077 -25.4935 0.
-19.2887 -33.9443 0.
-3957.09 -6130.84 0.
-1401.1 -2336.71 0.
-40.1098 -78.4179 0.
-1869.71 -2740.63 0.
-1456.86 -2185.45 0.
-1291.57 -1908.2 0.
-1058.04 -1693.54 0.
-817.896 -1485.49 0.
-808.671 -1611.38 0.
-631.311 -1328.39 0.
-456.422 -1042.92 0.
-505.7 -1010.17 0.
-460.001 -931.881 0.
-414.31 -853.584 0.
-442.402 -863.076 0.
-429.675 -887.448 0.
-419.926 -908.839 0.
-494.586 -1001.55 0.
-514.803 -1031.98 0.
-466.615 -976.982 0.
-434.325 -926.906 0.
-402.697 -876.169 0.
-404.145 -861.381 0.
-395.287 -832.806 0.
-388.242 -802.419 0.
-390.025 -785.181 0.
-388.818 -785.532 0.
-392.08 -781.414 0.
-477.752 -896.858 0.
-525.644 -958.173 0.
-529.653 -954.075 0.
-518.639 -900.045 0.
-509.983 -843.656 0.
-519.827 -830.524 0.
-527.668 -815.243 0.
-535.549 -799.923 0.
-519.603 -696.429 0.
-427.582 -451.119 0.
-291.288 -250.082 0.
-208.751 -262.661 0.
-421.966 -941.868 0.
-606.6 -1649.61 0.
-454.488 -1013.4 0.
-249.573 -342.932 0.
-304.505 -271.499 0.
-429.021 -469.037 0.
-511.578 -708.534 0.
-528.284 -813.386 0.
-519.415 -828.974 0.
-511.895 -843.212 0.
-501.463 -855.76 0.
-508.858 -915.241 0.
-519.005 -971.97 0.
-524.315 -987.926 0.
-482.059 -940.372 0.
-396.933 -834.062 0.
-392.488 -826.044 0.
-390.811 -815.257 0.
-386.65 -823.903 0.
-396.752 -845.494 0.
-409.471 -864.466 0.
-407.78 -882.077 0.
-445.145 -945.205 0.
-483.244 -1007.6 0.
-528.289 -1069.39 0.
-510.491 -1045.08 0.
-484.129 -1016.42 0.
-452.375 -913.458 0.
-457.587 -868.109 0.
-407.414 -844.485 0.
-474.541 -972.918 0.
-541.72 -1101.3 0.
-491.599 -1136.05 0.
-803.984 -1693.76 0.
-1120.56 -2247.27 0.
-1130.75 -1875.65 0.
-1323.29 -1791.04 0.
-1492.75 -1729.51 0.
-1583.94 -2480.11 0.
-2360.28 -3867.66 0.
-50.2455 -117.637 0.
-781.866 -1252.51 0.
-4569.91 -6901.49 0.
-203.464 -187.396 0.
-241.619 -174.335 0.
-2896.66 -3265.99 0.
-56.7484 -118.833 0.
-3485.46 -5034.5 0.
-57.0236 -121.131 0.
-3197.15 -5301.61 0.
-248.047 -410.981 0.
-1516.22 -2994.65 0.
-56.344 -37.9419 0.
-26.5495 -19.9771 0.
-226.933 -204.974 0.
-93.1558 -71.205 0.
-43.9966 -30.8288 0.
-29.7246 -38.4595 0.
-33.7701 -42.5425 0.
-406.807 -180.563 0.
-22.5499 -41.6819 0.
-21.0431 -40.1728 0.
-78.6667 -108.199 0.
-760.373 -1020.49 0.
-405.272 -406.132 0.
-520.24 -785.857 0.
-343.555 -513.913 0.
-208.649 -200.19 0.
-512.038 -1152.63 0.
-355.433 -848.709 0.
-226.428 -517.184 0.
-419.138 -916.216 0.
-372.002 -839.359 0.
-328.038 -759.33 0.
-448.231 -793.108 0.
-434.374 -818.609 0.
-421.403 -843.218 0.
-597.328 -1062.91 0.
-612.521 -1098.36 0.
-456.769 -907.587 0.
-421.88 -860.108 0.
-388.923 -810.697 0.
-430.998 -854.519 0.
-416.432 -831.653 0.
-410.066 -800.588 0.
-410.883 -772.611 0.
-402.226 -780.41 0.
-401.802 -779.975 0.
-611.732 -984.458 0.
-644.495 -1060.89 0.
-553.505 -971.674 0.
-541.679 -918.457 0.
-531.985 -863.107 0.
-575.122 -902.173 0.
-583.767 -886.09 0.
-592.102 -870.316 0.
-629.969 -855.961 0.
-553.004 -595.641 0.
-439.402 -371.958 0.
-16.9855 -11.418 0.
-87.4784 -160.106 0.
-325.908 -814.488 0.
-174.946 -364.309 0.
-11.9407 -18.8053 0.
-437.025 -385.713 0.
-542.389 -602.36 0.
-615.161 -851.598 0.
-588.078 -885.234 0.
-579.528 -900.505 0.
-572.169 -914.584 0.
-524.498 -870.106 0.
-532.093 -929.386 0.
-547.977 -980.376 0.
-658.478 -1081.2 0.
-631.537 -1018.35 0.
-413.671 -823.349 0.
-415.72 -808.836 0.
-422.493 -789.598 0.
-416.371 -805.014 0.
-420.274 -832.803 0.
-429.91 -854.861 0.
-389.461 -806.724 0.
-429.866 -866.815 0.
-471.184 -925.993 0.
-603.028 -1131.33 0.
-590.026 -1102.23 0.
-352.016 -842.749 0.
-449.894 -836.345 0.
-456.066 -790.036 0.
-312.636 -692.11 0.
-380.255 -820.074 0.
-451.182 -944.73 0.
-185.69 -170.397 0.
-392.926 -833.826 0.
-651.241 -1446.17 0.
-173.662 -120.771 0.
-238.647 -159.167 0.
-252.461 -253.439 0.
-54.0622 -86.1096 0.
-374.629 -961.856 0.
-48.8849 -117.896 0.
-33.9066 -73.992 0.
-27.1173 -67.008 0.
-318.602 -190.297 0.
-47.5615 -100.422 0.
-71.5782 -128.64 0.
-50.4757 -106.726 0.
-67.5521 -132.651 0.
-53.6041 -108.24 0.
-176.712 -441.344 0.
-105.803 -285.324 0.
0.663284 1.08049 0.
-86.5891 -34.7797 0.
-50.8938 -47.686 0.
-88.5774 -96.6654 0.
-52.6158 -25.1699 0.
-75.7479 -44.8097 0.
-112.445 -100.289 0.
-95.3034 -80.3905 0.
-827.326 -346 0.
-23.8616 -43.3446 0.
-23.007 -41.5528 0.
-274.484 -203.02 0.
-140.313 -125.683 0.
-70.4506 -84.6717 0.
-50.6442 -68.2279 0.
-64.2418 -60.944 0.
-100.744 -68.9757 0.
-296.487 -612.808 0.
-172.991 -275.598 0.
-33.5584 -45.5172 0.
-379.679 -775.16 0.
-337.828 -693.012 0.
-298.837 -608.006 0.
-460.023 -717.179 0.
-446.181 -742.663 0.
-432.787 -767.691 0.
-712.195 -1112.15 0.
-727.388 -1147.59 0.
-465.778 -819.338 0.
-431.983 -770.762 0.
-399.104 -721.269 0.
-462.235 -843.273 0.
-453.849 -814.229 0.
-447.306 -783.342 0.
-454.202 -737.579 0.
-443.516 -747.404 0.
-433.709 -756.351 0.
-766.86 -1050.91 0.
-799.623 -1127.32 0.
-603.666 -962.964 0.
-580.267 -921.32 0.
-570.9 -865.645 0.
-645.789 -958.449 0.
-652.506 -944.296 0.
-659.652 -929.714 0.
-822.395 -933.433 0.
-717.636 -700.953 0.
-599.795 -481.556 0.
-23.9771 -13.3052 0.
-31.163 -30.2322 0.
-5737.04 -3993.58 0.
-27.2278 -49.9007 0.
-10.07 -15.5214 0.
-590.946 -478.527 0.
-708.622 -682.818 0.
-809.451 -903.956 0.
-662.223 -942.732 0.
-656.373 -955.304 0.
-651.953 -966.445 0.
-571.152 -860.833 0.
-586.24 -912.617 0.
-611.195 -954.535 0.
-817.724 -1149.4 0.
-790.785 -1086.55 0.
-457.973 -785.07 0.
-464.792 -765.787 0.
-472.66 -745.454 0.
-449.487 -782.728 0.
-454.165 -809.745 0.
-458.369 -837.235 0.
-393.303 -709.21 0.
-432.46 -770.553 0.
-472.529 -830.983 0.
-698.828 -1172.22 0.
-685.708 -1143.24 0.
-402.008 -738.223 0.
-451.579 -755.068 0.
-456.763 -709.746 0.
-299.924 -457.67 0.
-337.23 -615.969 0.
-388.322 -760.484 0.
-80.5391 -84.8965 0.
-50.9505 -62.0307 0.
-336.468 -490.53 0.
-299.041 -164.997 0.
-101.278 -97.8043 0.
-147.22 -138.301 0.
-61.1021 -87.3266 0.
-66.581 -97.0316 0.
-70.7202 -136.654 0.
-31.3237 -69.9093 0.
-24.7603 -60.0763 0.
-663.23 -316.773 0.
-208.758 -166.074 0.
-206.187 -188.685 0.
-43.6508 -103.539 0.
-73.1878 -130.42 0.
-53.9128 -108.89 0.
0.00193043 0.00317366 0.
-2612 -5019.67 0.
-2037.37 -3756.58 0.
-208.489 -287.209 0.
-75.3425 -70.1775 0.
-2617.65 -3057.91 0.
-64.8703 -107.772 0.
-2885.92 -5415 0.
-100.53 -58.9011 0.
-1951.13 -2387.16 0.
-32.4849 -62.2461 0.
-3340.43 -5289.07 0.
-32.8622 -66.3699 0.
-148.288 -154.203 0.
-3965.92 -7201.3 0.
-32.2112 -62.092 0.
-2176.45 -2923.69 0.
-1437.78 -1966.41 0.
-748.241 -959.991 0.
-2155.39 -4185.19 0.
-1123.39 -2269.2 0.
-218.816 -225.761 0.
-1202.8 -2635.91 0.
-806.277 -1820.72 0.
-441.396 -973.885 0.
-750.745 -1633.58 0.
-619.827 -1354.54 0.
-495.074 -1069.34 0.
-911.659 -1632.26 0.
-904.449 -1615.46 0.
-636.233 -1260.09 0.
-601.271 -1184.91 0.
-566.376 -1109.66 0.
-642.073 -1158.48 0.
-616.588 -1141.98 0.
-592.277 -1124.3 0.
-648.416 -1084.76 0.
-640.382 -1107.82 0.
-633.2 -1130.03 0.
-980.165 -1418.52 0.
-979.632 -1417.33 0.
-742.081 -1183.31 0.
-724.934 -1152.23 0.
-707.979 -1120.95 0.
-825.165 -1189.16 0.
-801.873 -1155.28 0.
-785.85 -1114.13 0.
-1010.16 -1231.01 0.
-1044.35 -1329.24 0.
-1079.72 -1426.3 0.
-10.9543 -10.3947 0.
-12.9351 -14.8964 0.
-6813.92 -3712.94 0.
-1.95931 -5.019 0.
-2.30176 -5.62733 0.
-1097.52 -1462.61 0.
-1063.46 -1371.84 0.
-1031.03 -1279.44 0.
-816.28 -1179.96 0.
-834.356 -1210.49 0.
-854.906 -1238.55 0.
-722.795 -1156.24 0.
-737.326 -1183.34 0.
-752.022 -1210.27 0.
-1007.65 -1467.45 0.
-1012.89 -1479.66 0.
-652.162 -1182.31 0.
-657.489 -1146.24 0.
-664.014 -1108.97 0.
-604.233 -1150.5 0.
-630.076 -1173.65 0.
-656.69 -1196.04 0.
-570.748 -1138.6 0.
-617.498 -1235.07 0.
-664.346 -1331.44 0.
-874.295 -1710.31 0.
-890.917 -1749.13 0.
-463.334 -965.172 0.
-692.651 -1498.48 0.
-916.796 -1971.29 0.
-412.046 -814.98 0.
-914.735 -1986.7 0.
-1485.38 -3090.46 0.
-104.605 -114.455 0.
-1364.47 -2539.18 0.
-2609.41 -4991.36 0.
-292.967 -271.914 0.
-1291.46 -1820.72 0.
-2333.23 -3326.23 0.
-64.7437 -102.072 0.
-4261.34 -7512.15 0.
-63.357 -162.078 0.
-44.6915 -120.664 0.
-3553.27 -4386.51 0.
-37.9793 -100.037 0.
-2006.29 -2867.86 0.
-40.2736 -90.1197 0.
-2826.5 -4986.56 0.
-654.806 -1014.31 0.
-1169.92 -1739.16 0.
-32.6083 -82.4594 0.
-128.504 -328.735 0.
-0.417718 -3.49419 0.
0.564493 1.11808 0.
-2167.83 -3536.96 0.
-250.372 -547.55 0.
-17.4944 -46.2328 0.
-288.112 -465.395 0.
-77.2175 -57.4513 0.
-115.215 -143.341 0.
-47.5014 -62.2099 0.
-47.1011 -105.25 0.
-32.6027 -68.5083 0.
-114.625 -132.228 0.
-91.141 -110.383 0.
-41.7422 -77.5551 0.
-35.8382 -62.947 0.
-39.7699 -69.134 0.
-51.4791 -84.6583 0.
-338.908 -335.29 0.
-92.6628 -90.0431 0.
-54.6372 -66.0462 0.
-656.943 -1440.25 0.
-326.332 -558.05 0.
-74.2465 -74.4646 0.
-604.161 -1307.48 0.
-493.265 -1008.32 0.
-390.557 -700.974 0.
-882.716 -1619.93 0.
-875.508 -1603.12 0.
-652.48 -1233.4 0.
-615.238 -1160.5 0.
-578.262 -1087.33 0.
-657.869 -1088.85 0.
-632.575 -1072.16 0.
-608.162 -1054.58 0.
-686.006 -1039.77 0.
-677.17 -1063.62 0.
-669.164 -1086.65 0.
-1048.34 -1447.73 0.
-1047.81 -1446.54 0.
-822.064 -1186.17 0.
-805.955 -1154.05 0.
-790.053 -1121.73 0.
-945.692 -1174.48 0.
-923.039 -1139.96 0.
-901.502 -1104.33 0.
-1082.87 -1200.26 0.
-1116.59 -1298.98 0.
-1151.56 -1396.44 0.
-6.35716 -5.13497 0.
-7.50152 -8.08767 0.
-8188.42 -4295.49 0.
-3.40684 -8.47004 0.
0.197215 0.476465 0.
-1185.83 -1450.82 0.
-1152.02 -1359.81 0.
-1118.92 -1268.09 0.
-930.613 -1165.66 0.
-950.089 -1194.79 0.
-970.535 -1222.95 0.
-801.214 -1152.9 0.
-815.638 -1180.1 0.
-830.227 -1207.13 0.
-1073.22 -1495.54 0.
-1078.46 -1507.76 0.
-684.03 -1127.13 0.
-690.516 -1089.89 0.
-698.02 -1051.64 0.
-622.994 -1082.22 0.
-647.488 -1106.73 0.
-675.154 -1128.06 0.
-571.912 -1106.6 0.
-619.029 -1202.7 0.
-666.444 -1298.5 0.
-839.719 -1648.88 0.
-871.372 -1672.68 0.
-343.528 -420.109 0.
-496.305 -936.566 0.
-689.322 -1440.78 0.
-81.5433 -99.5312 0.
-76.2028 -92.5259 0.
-594.963 -1069.25 0.
-145 -137.183 0.
-64.2773 -82.9121 0.
-182.387 -149.924 0.
-69.1242 -86.2182 0.
-71.0449 -84.4281 0.
-191.3 -235.616 0.
-66.8748 -107.293 0.
-72.603 -136.632 0.
-58.9665 -154.377 0.
-39.7629 -107.039 0.
-29.2949 -77.8376 0.
-50.1784 -93.7057 0.
-72.7783 -167.594 0.
-22.6656 -59.6658 0.
-145.75 -219.489 0.
-134.531 -267.995 0.
-0.153167 -0.330988 0.
0.0505814 1.25274 0.
-1192.83 -2129.35 0.
-1143.59 -1952.25 0.
-19.5359 -51.691 0.
-0.0380387 -1.28022 0.
-0.144128 -0.52329 0.
-54.0342 -55.1127 0.
-19.9082 -54.066 0.
-44.5147 -55.782 0.
-2461.23 -4377.42 0.
-62.6413 -82.2712 0.
-2441.77 -4357.27 0.
-18.2231 -13.9122 0.
-50.989 -82.9434 0.
-3253.93 -6344.35 0.
-29.5198 -58.6862 0.
-2793.1 -3747.55 0.
-674.423 -578.085 0.
-10.4089 -14.6322 0.
-2870.31 -5668.95 0.
-1047.32 -1753.32 0.
-47.0284 -41.604 0.
-2008.72 -4111.73 0.
-994.17 -2068.61 0.
-37.449 -40.2337 0.
-1154.41 -2392.08 0.
-741.029 -1509.31 0.
-354.779 -599.414 0.
-947.674 -1682.32 0.
-807.039 -1444.82 0.
-574.791 -1041.01 0.
-505.983 -909.914 0.
-438.036 -777.956 0.
-534.893 -766.751 0.
-517.702 -746.364 0.
-501 -725.488 0.
-558.55 -727.491 0.
-540.545 -695.839 0.
-522.696 -664.031 0.
-906.26 -1043.55 0.
-886.471 -997.377 0.
-678.575 -653.197 0.
-680.854 -667.052 0.
-683.27 -680.77 0.
-848.884 -768.002 0.
-851.536 -781.709 0.
-854.802 -794.803 0.
-996.983 -920.63 0.
-1052.92 -1050.52 0.
-1109.12 -1180.15 0.
-5.69908 -5.77818 0.
-6.59921 -7.28903 0.
-7450.56 -2974.24 0.
-0.000101163 -1.11533 0.
-0.652064 -1.80275 0.
-1124.43 -1251.58 0.
-1057.83 -1095.23 0.
-1003.32 -926.798 0.
-849.689 -774.788 0.
-850.453 -771.406 0.
-851.43 -767.811 0.
-674.34 -682.276 0.
-674.995 -677.745 0.
-675.674 -673.19 0.
-897.514 -1024.65 0.
-917.34 -1070.88 0.
-521.873 -657.522 0.
-547.434 -706.911 0.
-573.125 -756.169 0.
-523.254 -778.461 0.
-549.003 -817.653 0.
-574.932 -856.665 0.
-465.251 -828.684 0.
-561.96 -1019.14 0.
-658.747 -1209.53 0.
-876.585 -1619.53 0.
-1094.74 -1986.1 0.
-342.615 -472.102 0.
-842.098 -1688.7 0.
-1379.44 -2835.6 0.
-47.4553 -26.3579 0.
-971.749 -1957.11 0.
-2408.15 -5126.89 0.
-53.5966 -36.7912 0.
-662.882 -428.775 0.
-2566.25 -3255.03 0.
-47.4421 -25.7465 0.
-3791.9 -8017.73 0.
-33.0449 -76.7335 0.
-39.3473 -71.3048 0.
-2819.07 -4247.58 0.
-29.9831 -83.0249 0.
-3195.34 -4973.02 0.
-67.3144 -120.892 0.
-1095.72 -2515.33 0.
-19.426 -49.4016 0.
-20.0332 -55.0251 0.
-286.663 -415.932 0.
-0.0292463 -2.86888 0.
-1753.24 -3618.68 0.
-18.7689 -51.4471 0.
-2387.3 -4925.03 0.
-2548.31 -3503.47 0.
-0.367766 -2.75172 0.
-1916.72 -3913.55 0.
-0.930603 -2.99432 0.
-122.052 -171.207 0.
-212.682 -349.011 0.
-2046.42 -3995.66 0.
-45.1914 -84.0428 0.
-42.8239 -66.633 0.
-20.016 -20.1002 0.
-64.2341 -52.7413 0.
-251.513 -146.884 0.
-25.3805 -65.7206 0.
-21.5626 -49.2321 0.
-29.2197 -62.3461 0.
-25.203 -49.1178 0.
-6.6134 -9.64142 0.
-17.7022 -14.5979 0.
-18.9697 -17.0346 0.
-33.4026 -33.625 0.
-438.44 -603.26 0.
-14.1394 -33.9766 0.
-54.0059 -46.2572 0.
-654.31 -1360.67 0.
-303.853 -413.943 0.
-58.0627 -43.7813 0.
-672.77 -1236.73 0.
-548.814 -982.406 0.
-488.917 -887.643 0.
-429.85 -746.784 0.
-373.716 -602.993 0.
-509.308 -704.227 0.
-494.427 -681.531 0.
-477.737 -660.643 0.
-545.818 -681.894 0.
-525.63 -652.423 0.
-507.672 -620.722 0.
-914.286 -1046.97 0.
-894.496 -1000.8 0.
-690.932 -635.46 0.
-693.119 -649.409 0.
-695.46 -663.204 0.
-836.137 -705.738 0.
-839.268 -718.973 0.
-843.04 -731.567 0.
-904.997 -857.734 0.
-961.219 -987.361 0.
-1017.63 -1116.8 0.
-9.89315 -11.632 0.
-10.3801 -12.0714 0.
-5965.77 -2332.8 0.
-4.60784e-06 -1.12811 0.
-1.04824 -2.89889 0.
-1034.68 -1174.41 0.
-967.696 -1018.43 0.
-901.122 -862.042 0.
-833.456 -725.806 0.
-834.444 -722.197 0.
-836.603 -717.418 0.
-685.398 -679.971 0.
-686.634 -674.856 0.
-687.997 -669.614 0.
-895.741 -1023.88 0.
-915.562 -1070.11 0.
-502.963 -612.597 0.
-528.45 -662.063 0.
-559.356 -706.11 0.
-463.476 -682.559 0.
-489.15 -721.827 0.
-514.568 -761.35 0.
-368.412 -547.23 0.
-442.089 -760.78 0.
-522.775 -967.32 0.
-543.528 -951.366 0.
-732.827 -1347.1 0.
-85.4239 -84.3572 0.
-143.162 -131.681 0.
-635.637 -1325.43 0.
-34.3452 -20.5139 0.
-32.1784 -17.3114 0.
-250.619 -187.963 0.
-53.2548 -26.0422 0.
-40.1637 -17.9896 0.
-25.0253 -11.5687 0.
-58.602 -39.995 0.
-67.577 -61.6845 0.
-81.9119 -110.928 0.
-51.8305 -79.5989 0.
-138.266 -176.951 0.
-12.9223 -35.2837 0.
-32.8103 -86.6016 0.
-62.2116 -143.578 0.
-1826.32 -3702.01 0.
-95.6349 -239.849 0.
-2368.65 -3783.66 0.
-94.8478 -223.299 0.
2.16331 5.72315 0.
0.998704 2.26638 0.
-0.494991 -10.0706 0.
-298.174 -425.304 0.
-1.75838 -4.31075 0.
-0.183524 -0.619266 0.
-197.003 -378.878 0.
-0.00939614 -6.25064 0.
-0.497011 -3.32824 0.
-195.225 -376.479 0.
0.814079 1.05558 0.
-0.204349 -0.368049 0.
-39.1854 -78.7327 0.
-18.922 -30.2909 0.
-420.091 -208.086 0.
-545.225 -293.06 0.
-34.548 -89.2897 0.
-17.1301 -46.5782 0.
-21.0886 -49.8096 0.
-18.3951 -47.3788 0.
-3.1944 -4.31911 0.
-15.5501 -15.3199 0.
-15.8963 -17.1 0.
-34.8796 -50.0351 0.
-42.6964 -54.4736 0.
-29.0495 -43.9781 0.
-71.7636 -52.9034 0.
-260.732 -222.737 0.
-34.6814 -34.1132 0.
-64.8406 -46.5218 0.
-446.731 -742.273 0.
-340.102 -470.482 0.
-426.955 -710.364 0.
-374.078 -563.294 0.
-322.618 -414.807 0.
-489.356 -636.071 0.
-472.243 -615.608 0.
-455.8 -594.474 0.
-541.133 -628.251 0.
-520.526 -599.196 0.
-500.161 -569.9 0.
-922.311 -1050.39 0.
-902.521 -1004.22 0.
-703.933 -617.078 0.
-706.019 -631.13 0.
-708.264 -645.023 0.
-824.128 -642.738 0.
-827.809 -655.428 0.
-831.806 -667.802 0.
-818.015 -789.833 0.
-874.303 -919.416 0.
-930.679 -1048.91 0.
-14.4449 -15.2838 0.
-15.05 -16.0626 0.
-5790.84 -2270.34 0.
0.137241 0.376008 0.
-2.00219 -5.54278 0.
-945.197 -1096.97 0.
-878.008 -941.184 0.
-811.003 -785.209 0.
-823.417 -670.629 0.
-824.351 -667.072 0.
-825.74 -663.059 0.
-709.397 -664.725 0.
-710.76 -659.48 0.
-712.277 -654.081 0.
-893.969 -1023.11 0.
-913.784 -1069.34 0.
-492.707 -559.019 0.
-523.419 -603.262 0.
-554.264 -647.373 0.
-416.69 -573.665 0.
-443.32 -611.978 0.
-468.88 -651.359 0.
-291.615 -245.733 0.
-360.061 -464.571 0.
-431.594 -680.323 0.
-275.532 -218.138 0.
-440.527 -638.478 0.
-68.2807 -74.0662 0.
-54.0961 -53.9188 0.
-52.1043 -49.4384 0.
-39.691 -34.9331 0.
-31.2279 -17.0814 0.
-35.2501 -23.2115 0.
-64.4206 -28.7039 0.
-49.5246 -21.062 0.
-35.1126 -15.2598 0.
-71.9328 -58.8131 0.
-80.6304 -80.7556 0.
-528.6 -294.98 0.
-367.461 -213.161 0.
-447.384 -309.241 0.
-15.9276 -27.9676 0.
-22.4436 -51.826 0.
-63.7001 -174.155 0.
-575.353 -1257.4 0.
-72.779 -178.281 0.
-0.266 -0.719735 0.
-1272.24 -1904.14 0.
-0.101486 -1.35044 0.
-2235.56 -4041.06 0.
5.01511 10.0596 0.
-146.358 -204.362 0.
-1428.22 -2111.42 0.
1.14793 1.27247 0.
-54.7054 -97.5124 0.
0.218976 0.581393 0.
-0.0815258 -0.146669 0.
-1997.48 -3608.79 0.
-6.19893 -9.93494 0.
-0.393755 -1.42151 0.
-54.569 -119.55 0.
-2181.56 -3867.81 0.
-1480.43 -1328.99 0.
-60.7884 -72.9331 0.
-2467.77 -4753.29 0.
-29.7166 -82.2316 0.
-17.095 -47.3478 0.
-3679.94 -6184.47 0.
-22.9693 -58.6029 0.
-2980.46 -4604.47 0.
-26.4564 -43.3892 0.
-18.4205 -25.3515 0.
-3063.46 -6542.33 0.
-34.4613 -43.5947 0.
-14.0111 -27.2986 0.
-1895.56 -4254.45 0.
-714.561 -1518.63 0.
-33.8421 -63.6008 0.
-1223.52 -2605.91 0.
-777.116 -1691.95 0.
-911.474 -1864.95 0.
-682.164 -1386.3 0.
-470.258 -890.247 0.
-712.267 -1290.81 0.
-618.326 -1118.89 0.
-525.191 -946.155 0.
-693.083 -1036.5 0.
-656.94 -988.427 0.
-621.67 -939.476 0.
-1063.29 -1484.44 0.
-1045.63 -1443.25 0.
-791.345 -1012.76 0.
-783.832 -1003.78 0.
-776.92 -994.191 0.
-861.399 -1025.44 0.
-884.659 -1083.86 0.
-908.242 -1141.95 0.
-924.218 -1288.79 0.
-999.2 -1478.17 0.
-1079.66 -1662.08 0.
-12.8157 -10.8333 0.
-6.78146 -3.39315 0.
-5588.13 -3644.82 0.
-0.010688 -0.686583 0.
-0.00231367 -0.725174 0.
-1070.51 -1685.87 0.
-987.327 -1489.77 0.
-914.352 -1283.47 0.
-912.758 -1146.6 0.
-889.834 -1089.98 0.
-867.046 -1033.23 0.
-764.009 -1002.58 0.
-773.611 -1017.26 0.
-785.067 -1030.08 0.
-1023.11 -1451.69 0.
-1047.75 -1509.17 0.
-595.64 -926.573 0.
-658.059 -1033.39 0.
-721.702 -1138.97 0.
-500.892 -968.012 0.
-619.536 -1227.2 0.
-747.354 -1477.21 0.
-462.707 -830.833 0.
-723.925 -1519.71 0.
-1031.97 -2161.76 0.
-863.9 -1747.83 0.
-1488.07 -3162.76 0.
-33.2255 -12.0972 0.
-708.083 -1334.96 0.
-2365.77 -5194.81 0.
-45.772 -33.9388 0.
-43.0257 -30.0242 0.
-2973.15 -6207.21 0.
-40.919 -16.5128 0.
-57.6891 -26.061 0.
-3124.57 -4413.15 0.
-31.4664 -19.8297 0.
-2923.9 -5434.96 0.
-0.0624289 -0.0448696 0.
-978.33 -1030.42 0.
-1134.1 -2603.24 0.
-36.4874 -57.9057 0.
-1561.65 -3210.25 0.
-81.4328 -205.592 0.
-72.5025 -169.992 0.
-48.6423 -129.589 0.
-1.59392 -3.91468 0.
-456.505 -905.389 0.
-0.0510617 -3.84255 0.
2.86172 5.68298 0.
-1.93881 -3.21522 0.
-2622.34 -4327.27 0.
-660.762 -1020.47 0.
-0.996215 -16.38 0.
-2240.56 -3573.37 0.
-136.368 -333.949 0.
-1880.77 -3423.96 0.
-0.128999 -15.3553 0.
-17.3134 -36.2446 0.
-0.670921 -1.67944 0.
-171.134 -316.108 0.
-570.728 -1336.56 0.
-37.8971 -55.6043 0.
-12.1332 -16.4428 0.
-29.0114 -51.1785 0.
-23.7916 -60.047 0.
-8.24836 -18.6684 0.
-23.8871 -51.9237 0.
-22.8436 -51.9514 0.
-121.243 -131.819 0.
-45.2766 -59.4425 0.
-44.4778 -39.3721 0.
-7.09541 -7.93773 0.
-7.86656 -8.82014 0.
-56.0408 -65.2993 0.
-396.44 -645.814 0.
-13.0057 -33.9152 0.
-27.9431 -60.7435 0.
-633.663 -1291.3 0.
-245.688 -317.56 0.
-571.793 -1160.45 0.
-379.652 -644.254 0.
-190.589 -124.977 0.
-545.995 -1055.52 0.
-464.299 -871.295 0.
-393.146 -676.526 0.
-641.271 -927.101 0.
-605.891 -878.255 0.
-571.287 -828.634 0.
-1007.59 -1460.54 0.
-989.924 -1419.35 0.
-712.711 -909.307 0.
-705.375 -900.15 0.
-698.605 -890.426 0.
-763.945 -943.94 0.
-786.759 -1002.82 0.
-809.886 -1061.38 0.
-808.566 -1207.93 0.
-889.049 -1391.85 0.
-969.724 -1575.57 0.
-12.6747 -14.2236 0.
-6.83175 -3.68007 0.
-5072.91 -3421.47 0.
-2.61266 -6.66665 0.
-2.13413 -5.12604 0.
-959.907 -1592.66 0.
-876.494 -1396.76 0.
-793.481 -1200.47 0.
-815.475 -1068.71 0.
-791.198 -1013.44 0.
-768.123 -956.964 0.
-689.457 -888.908 0.
-699.8 -902.841 0.
-711.021 -915.896 0.
-958.273 -1420.43 0.
-987.153 -1473.68 0.
-517.53 -779.77 0.
-578.951 -887.599 0.
-641.544 -994.257 0.
-339.232 -554.274 0.
-438.722 -832.727 0.
-549.939 -1099.45 0.
-41.3505 -44.8504 0.
-332.465 -475.119 0.
-591.708 -1166.68 0.
-70.8254 -50.4677 0.
-681.661 -1287.47 0.
-32.3819 -11.7223 0.
-46.8319 -30.3516 0.
-62.7662 -77.0551 0.
-40.7224 -14.7295 0.
-44.993 -19.169 0.
-49.325 -34.8989 0.
-24.9944 -13.2733 0.
-38.6563 -19.349 0.
-50.8417 -32.7244 0.
-23.2063 -13.3409 0.
-0.0342414 -0.0829244 0.
-3.95799 -1.75177 0.
-1087.35 -1445.46 0.
-29.256 -60.4347 0.
-49.2662 -94.4043 0.
-16.151 -38.3864 0.
-1538.6 -2887.42 0.
-51.712 -124.147 0.
-29.5399 -81.2193 0.
-1675 -3790.72 0.
-126.778 -233.697 0.
-0.0656964 -0.918115 0.
-1451.28 -2583.4 0.
4.54521 7.22726 0.
-6.84633 -31.2023 0.
-1823.02 -2501.28 0.
6.14603 12.7677 0.
-60.0349 -84.3703 0.
3.1064 5.92848 0.
5.41601 13.2031 0.
-0.58197 -9.28261 0.
-23.7185 -53.2609 0.
-1836.19 -3128.18 0.
-0.171464 -2.2177 0.
-226.771 -606.596 0.
-0.0585687 -0.156125 0.
-0.324981 -1.16736 0.
0.049503 0.731888 0.
-25.5165 -44.1476 0.
-153.46 -275.307 0.
-1522.66 -2997.43 0.
-7.19267 -16.8819 0.
-2563.03 -4342.29 0.
-0.555151 -0.447488 0.
-0.0817147 -0.102796 0.
-2794.48 -6104.4 0.
-7.25446 -15.4563 0.
-26.6009 -63.8217 0.
-2426.67 -5058.91 0.
-271.649 -216.407 0.
-12.6421 -34.9675 0.
-1649.91 -3678.38 0.
-751.67 -1558.68 0.
-1103.69 -2241.62 0.
-698.114 -1380.47 0.
-321.63 -490.232 0.
-825.266 -1603.42 0.
-611.419 -1176.51 0.
-408.97 -738.19 0.
-675.01 -1038.33 0.
-551.303 -777.711 0.
-422.522 -522.166 0.
-847.658 -1232.76 0.
-824.682 -1192.24 0.
-577.198 -627.719 0.
-590.066 -664.305 0.
-603.144 -700.68 0.
-639.212 -778.27 0.
-642.55 -784.715 0.
-646.325 -790.723 0.
-599.526 -863.149 0.
-637.097 -943.916 0.
-674.925 -1024.43 0.
-9.04732 -6.75227 0.
-3.20469 -1.15788 0.
-4409.67 -2763.25 0.
-4.52095 -10.889 0.
-5.62068 -14.5768 0.
-657.633 -1048.6 0.
-613.244 -953.745 0.
-568.921 -858.826 0.
-636.938 -798.512 0.
-632.851 -790.919 0.
-630.473 -781.618 0.
-590.72 -694.842 0.
-587.806 -683.778 0.
-585.353 -672.254 0.
-798.841 -1248.42 0.
-847.491 -1326.27 0.
-387.728 -550.421 0.
-545.71 -879.963 0.
-701.459 -1211.74 0.
-370.431 -665.125 0.
-652.933 -1336.19 0.
-956.098 -1986.58 0.
-288.437 -314.934 0.
-753.667 -1436.2 0.
-1276.34 -2500.02 0.
-713.793 -1287.96 0.
-1923.46 -4236.75 0.
-42.0426 -15.5886 0.
-42.8045 -18.2187 0.
-2912.09 -6490.82 0.
-27.5457 -10.5298 0.
-34.9896 -12.685 0.
-2757.82 -3343.64 0.
-23.1619 -11.6151 0.
-3479.8 -6436.69 0.
-16.7995 -6.25932 0.
-16.1669 -9.97277 0.
-2612.89 -5061.91 0.
-259.483 -142.126 0.
-1204.91 -1860.29 0.
-61.6071 -86.97 0.
-70.2819 -127.595 0.
-7.40961 -18.8377 0.
-42.8672 -118.069 0.
-1990.64 -3323.75 0.
-0.114573 -13.9174 0.
-1.28459 -12.0582 0.
-1532.51 -2623.79 0.
-0.33496 -3.60959 0.
-175.957 -285.214 0.
2.91012 5.98485 0.
-1271.74 -2325.34 0.
-1060.54 -1317.38 0.
6.45099 11.2807 0.
-902.177 -1149.21 0.
-3.88807 -6.95762 0.
-1411.64 -3373.99 0.
6.77119 14.6381 0.
-101.739 -265.64 0.
2.25049 5.83222 0.
1.52632 3.70661 0.
-442.635 -1211.39 0.
0.300537 0.771463 0.
-2166.54 -3449.85 0.
0.784529 1.44634 0.
-2085 -4388.02 0.
-0.0398374 -0.0574547 0.
-54.9229 -138.28 0.
-13.4419 -29.1331 0.
-217.905 -165.636 0.
-0.0231505 -0.0216382 0.
0.141757 0.179239 0.
-0.0867129 -0.129286 0.
-8.00735 -14.0026 0.
-30.5412 -59.8904 0.
-9.15166 -24.1611 0.
-5.53625 -15.0019 0.
-17.1347 -47.0579 0.
-592.831 -1108.01 0.
-8.58647 -22.0181 0.
-527.602 -916.626 0.
-108.142 -68.1161 0.
-32.4559 -19.6315 0.
-508.87 -996.24 0.
-323.966 -540.071 0.
-160.731 -62.234 0.
-506.985 -835.955 0.
-387.466 -571.075 0.
-282.152 -303.241 0.
-725.188 -1117.97 0.
-693.783 -1085.88 0.
-473.641 -544.056 0.
-486.646 -580.512 0.
-499.737 -616.882 0.
-500.161 -674.456 0.
-504.099 -680.304 0.
-508.663 -685.527 0.
-438.761 -786.458 0.
-476.229 -867.341 0.
-513.886 -948.036 0.
-1.52414 -0.557947 0.
-1.54695 -0.562172 0.
-2930.06 -2124.64 0.
-7.83397 -13.8436 0.
-8.46273 -16.6351 0.
-483.708 -959.19 0.
-439.296 -864.343 0.
-395.045 -769.334 0.
-480.529 -681.008 0.
-475.521 -674.336 0.
-471.588 -666.588 0.
-480.104 -592.528 0.
-477.038 -581.612 0.
-474.415 -570.253 0.
-641.468 -1102.22 0.
-693.858 -1176.35 0.
-225.043 -240.738 0.
-353.794 -598.475 0.
-497.252 -942.664 0.
-39.6093 -39.4892 0.
-306.444 -469.794 0.
-561.157 -1169.24 0.
-32.671 -25.3979 0.
-28.7649 -17.106 0.
-484.134 -622.329 0.
-31.1772 -13.1867 0.
-537.92 -698.798 0.
-38.4211 -13.9212 0.
-39.2897 -14.1898 0.
-40.6912 -16.7689 0.
-10.4036 -4.55997 0.
-16.4306 -7.03213 0.
-50.4589 -62.5913 0.
-37.1509 -16.0264 0.
-3.95172 -2.24748 0.
0.314001 0.040493 0.
-2.93995 -2.36638 0.
-31.9895 -50.5851 0.
-76.7948 -89.472 0.
-871.953 -1479.41 0.
-2285.29 -5120.99 0.
-101.537 -149.218 0.
-4.78049 -12.5014 0.
-137.492 -271.052 0.
-646.021 -1063.38 0.
-0.0181958 -9.71534 0.
4.71105 9.83101 0.
-1.86072 -16.9424 0.
8.71461 18.0867 0.
-2270.3 -3441.36 0.
11.7733 23.1705 0.
-1258.34 -1661.61 0.
-753.178 -1250.58 0.
28.9227 44.3391 0.
-1658.87 -2912.14 0.
-5.5136 -19.2876 0.
0.594286 1.12212 0.
3.71212 9.91475 0.
8.10066 17.6494 0.
-0.906207 -11.7003 0.
-0.163997 -3.07894 0.
-0.00011706 -0.0576477 0.
-1227.69 -2468.91 0.
-57.5807 -117.748 0.
-0.232906 -1.68327 0.
-0.22925 -0.619823 0.
-0.106245 -0.517559 0.
-94.8455 -226.765 0.
-168.733 -180.691 0.
-622.001 -407.534 0.
0.0980742 0.160262 0.
0.000644235 0.00185076 0.
0.0225626 0.0317542 0.
-8.29215 -12.9871 0.
-33.8656 -56.6359 0.
-9.605 -23.1958 0.
-5.82744 -14.3372 0.
-39.5049 -78.5192 0.
-14.0635 -32.4188 0.
-32.5931 -50.5318 0.
-50.0232 -52.4945 0.
-47.7794 -37.9131 0.
-44.1992 -25.3136 0.
-254.24 -327.293 0.
-24.5932 -9.27989 0.
-49.7699 -19.1855 0.
-354.214 -618.327 0.
-248.221 -339.848 0.
-177.742 -141.355 0.
-611.539 -994.363 0.
-581.242 -961.158 0.
-368.051 -462.426 0.
-382.989 -496.956 0.
-396.944 -532.469 0.
-363.298 -568.453 0.
-368.532 -573.009 0.
-374.234 -577.098 0.
-293.357 -694.406 0.
-319.729 -786.399 0.
-355.405 -869.087 0.
-1.06578 -0.405401 0.
-1.10965 -0.400937 0.
-1881.86 -1673.83 0.
-17.21 -24.2314 0.
-18.9193 -27.9973 0.
-318.259 -861.307 0.
-283.101 -757.188 0.
-255.11 -645.901 0.
-332.825 -554.799 0.
-326.526 -549.417 0.
-320.53 -543.733 0.
-370.038 -489.664 0.
-366.613 -479.102 0.
-361.946 -469.783 0.
-495.573 -944.543 0.
-545.899 -1020.76 0.
-68.1111 -49.2545 0.
-225.204 -253.66 0.
-347.49 -619.143 0.
-49.2354 -44.5985 0.
-39.0246 -35.0621 0.
-255.547 -262.577 0.
-35.8348 -25.8842 0.
-32.0682 -17.5331 0.
-40.7686 -17.736 0.
-33.0904 -15.1114 0.
-44.4545 -25.2145 0.
-35.6205 -13.6297 0.
-33.4622 -12.457 0.
-36.2967 -13.3104 0.
-1.06582 -0.564603 0.
-21.5321 -9.24674 0.
-50.0737 -68.4232 0.
-49.9144 -29.1172 0.
-31.5479 -11.7278 0.
-0.0896101 -0.0228323 0.
-2.53475 -2.16036 0.
-27.7146 -42.1675 0.
-23.9407 -30.8841 0.
-78.1758 -117.633 0.
-52.8566 -146.355 0.
-103.936 -238.382 0.
-2.73857 -7.28494 0.
-121.887 -247.398 0.
0.714304 14.9966 0.
-1525.46 -3940.67 0.
8.16034 16.0242 0.
-1732.82 -3818.19 0.
-3.19617 -16.0459 0.
9.12194 18.1978 0.
16.9838 32.9401 0.
-1244.74 -1639.4 0.
-4.99038 -8.09357 0.
-9.31629 -26.1021 0.
-26.8272 -50.9173 0.
9.48384 14.6422 0.
-205.657 -366.686 0.
2.20342 5.68504 0.
-5.19489 -11.2102 0.
-1645.26 -3682.16 0.
-0.119455 -2.32446 0.
-1000.92 -1998.44 0.
1.71082 2.37735 0.
-47.5278 -105.583 0.
-0.150591 -1.82593 0.
0.744695 1.32173 0.
-1779.32 -3547.58 0.
-1351.11 -1769.82 0.
-40.5363 -83.4866 0.
-0.207173 -0.52715 0.
-3410.39 -6873.91 0.
-0.348241 -0.506337 0.
-2414.41 -3226.07 0.
-4.26593 -5.37873 0.
-48.8048 -74.8559 0.
-2509.37 -5344.27 0.
-20.1576 -55.3608 0.
-22.0433 -60.1832 0.
-2253.43 -5251.72 0.
-277.015 -235.181 0.
-1614.05 -3271.6 0.
-749.233 -1304.57 0.
-18.2054 -15.4712 0.
-1123.77 -2552.58 0.
-628.463 -1381.72 0.
-171.285 -172.727 0.
-773.073 -1771.54 0.
-533.222 -1187.75 0.
-312.221 -585.113 0.
-766.257 -1682.16 0.
-691.807 -1531.69 0.
-501.556 -1061.5 0.
-477.567 -1004.99 0.
-454.232 -947.831 0.
-397.547 -977.191 0.
-425.66 -1043.7 0.
-455.545 -1108.43 0.
-406.484 -1113.87 0.
-417.727 -1141.89 0.
-432.854 -1166.04 0.
-12.0523 -26.3861 0.
-61.6891 -163.429 0.
-1394.08 -2307.1 0.
-194.682 -492.896 0.
-128.429 -292.49 0.
-369.75 -1007.94 0.
-385.713 -1051.99 0.
-403.194 -1094.53 0.
-422.336 -1117.23 0.
-396.895 -1063.17 0.
-375.498 -1005.06 0.
-420.031 -965.372 0.
-463.318 -1068.66 0.
-508.867 -1169.69 0.
-681.756 -1558.89 0.
-788.815 -1785.07 0.
-295.3 -468.815 0.
-586.846 -1310.53 0.
-912.721 -2117.92 0.
-30.678 -34.0772 0.
-665.473 -1447.9 0.
-1333.21 -3034.57 0.
-27.7141 -25.8159 0.
-740.071 -1146.79 0.
-1849.87 -3713.27 0.
-38.8304 -31.226 0.
-2371.44 -5163.24 0.
-43.2568 -25.1416 0.
-41.0688 -22.2953 0.
-2745.11 -6276.7 0.
-1.68565 -1.30334 0.
-14.7035 -7.55593 0.
-2640.2 -4305.58 0.
-55.8801 -64.0621 0.
-2063.96 -3202.15 0.
-44.3633 -52.6613 0.
-2040.48 -4266.17 0.
-107.062 -83.9729 0.
-23.6593 -30.0202 0.
-0.141183 -0.391039 0.
-17.5246 -48.4462 0.
0.819048 2.23344 0.
-2356.43 -4058.37 0.
-96.1407 -217.348 0.
-0.394881 -26.5934 0.
4.93901 11.6207 0.
-0.216612 -3.7716 0.
-2.6599 -27.1948 0.
14.1224 24.7477 0.
-1410.87 -2936.45 0.
-475.472 -671.109 0.
51.8951 90.5187 0.
106.606 174.117 0.
-534.602 -824.503 0.
-1999.6 -3746.05 0.
4.27297 8.65712 0.
-1133.95 -1971.81 0.
-0.534129 -11.282 0.
-1509.93 -3230.53 0.
-1.08509 -12.3102 0.
-0.0258246 -20.8923 0.
-331.363 -734.852 0.
-1.34883 -2.35384 0.
0.115258 0.218678 0.
-1942.77 -4198.19 0.
-0.435234 -1.20365 0.
-272.731 -630.896 0.
-0.0442564 -0.122577 0.
-0.415018 -1.13392 0.
0.189476 0.48088 0.
-9.50845 -13.8419 0.
-3.76085 -4.40413 0.
0.36224 0.400697 0.
-4.27586 -5.15418 0.
-46.6567 -61.2315 0.
-15.4352 -42.6702 0.
-15.8464 -43.8874 0.
-17.5153 -48.3792 0.
-35.5452 -64.8867 0.
-18.7067 -25.423 0.
-331.38 -329.039 0.
-22.3542 -19.8535 0.
-21.4713 -21.4858 0.
-539.584 -1119.86 0.
-31.3738 -22.5419 0.
-28.4085 -17.6933 0.
-503.049 -1193.93 0.
-287.623 -585.353 0.
-45.7707 -22.3777 0.
-581.24 -1363.78 0.
-514.705 -1205.33 0.
-380.297 -890.762 0.
-355.31 -835.242 0.
-339.734 -770.311 0.
-307.493 -806.675 0.
-332.426 -876.376 0.
-359.519 -943.917 0.
-317.68 -867.843 0.
-326.742 -898.057 0.
-338.983 -925.09 0.
-177.656 -450.518 0.
-220.473 -594.321 0.
-809.011 -2000.74 0.
-338.176 -869.861 0.
-276.978 -664.473 0.
-300.71 -803.989 0.
-316.951 -847.774 0.
-334.617 -890.134 0.
-336.277 -904.522 0.
-313.599 -847.689 0.
-294.571 -787.205 0.
-295.454 -713.154 0.
-326.677 -828.532 0.
-366.762 -935.049 0.
-481.515 -1132.19 0.
-572.392 -1374.66 0.
-32.8498 -52.3017 0.
-293.882 -481.492 0.
-584.399 -1324.9 0.
-28.1838 -34.749 0.
-23.8939 -24.2747 0.
-518.607 -1040.15 0.
-49.082 -33.4941 0.
-36.9525 -28.2316 0.
-69.4165 -53.7117 0.
-37.7034 -28.0014 0.
-46.6956 -34.3333 0.
-34.2231 -17.8528 0.
-32.4597 -15.9431 0.
-46.9715 -36.3226 0.
-5.20232 -3.3369 0.
-9.93333 -5.31596 0.
-25.7628 -11.6934 0.
-0.0917505 -0.256038 0.
-37.3315 -62.9461 0.
-24.4361 -13.5217 0.
-20.5628 -9.27677 0.
0.179774 0.375046 0.
-1855.18 -3526.2 0.
-1160.24 -2612.1 0.
-7.28082 -19.848 0.
1.23552 3.40979 0.
0.010716 3.19513 0.
-415.121 -663.23 0.
9.18713 25.364 0.
-3.49416 -7.67008 0.
1.55855 3.72436 0.
-46.1171 -100.89 0.
-7.09685 -22.254 0.
-258.901 -524.965 0.
16.9449 24.1459 0.
-592.413 -611.33 0.
0.732498 5.14612 0.
56.1924 98.8059 0.
26.032 44.4992 0.
-2.75201 -5.54536 0.
-1732.1 -3350.31 0.
-3.816 -26.0224 0.
4.24188 10.2819 0.
-2.20099 -23.6141 0.
-0.866831 -22.8807 0.
-1032.31 -2311.08 0.
0.395117 9.72526 0.
-0.105544 -0.389732 0.
-4.37498 -11.7231 0.
-0.0558391 -0.154297 0.
-20.4068 -55.8541 0.
-0.082394 -0.227803 0.
0.405255 1.10142 0.
-0.0447273 -1.14112 0.
-22.1738 -27.0003 0.
-144.407 -162.131 0.
-2044.86 -3288.19 0.
-0.100042 -0.146043 0.
-24.619 -32.7624 0.
-2253.93 -4949.6 0.
-12.3056 -26.8139 0.
-13.2082 -33.3507 0.
-2280.79 -4991.61 0.
-17.3013 -18.653 0.
-1744.95 -3546.84 0.
-509.293 -633.699 0.
-0.992324 -0.42668 0.
-1401.78 -3213.55 0.
-578.438 -1209.39 0.
-35.8821 -21.9381 0.
-917.561 -2215.74 0.
-523.498 -1252.23 0.
-160.925 -257.22 0.
-729.051 -1708.38 0.
-561.555 -1358.76 0.
-454.818 -1053.61 0.
-391.913 -939.085 0.
-340.67 -812.898 0.
-316.624 -843.899 0.
-307.559 -834.079 0.
-303.644 -819.109 0.
-256.589 -690.628 0.
-221.396 -587.11 0.
-185.419 -484.377 0.
-98.3061 -251.186 0.
-56.6678 -143.523 0.
-707.141 -1182.96 0.
-167.427 -392.924 0.
-191.865 -456.857 0.
-170.42 -409.823 0.
-231.914 -583.018 0.
-292.178 -757.443 0.
-291.786 -787.613 0.
-314.933 -848.692 0.
-343.936 -903.914 0.
-323.829 -833.563 0.
-398.263 -1025.05 0.
-487.274 -1201.95 0.
-579.132 -1422.98 0.
-802.866 -1936.07 0.
-121.456 -67.4096 0.
-575.525 -1331.12 0.
-1066.59 -2557.83 0.
-20.0523 -23.7732 0.
-517.97 -1110.97 0.
-1673.04 -3974.62 0.
-100.597 -59.8337 0.
-393.824 -220.01 0.
-1908.31 -3568.42 0.
-37.5682 -21.2469 0.
-2414.4 -5633.28 0.
-203.219 -255.108 0.
-0.322774 -0.00181289 0.
-1937.55 -2391.42 0.
-1.1739 -0.00633744 0.
-2495.59 -6387.01 0.
-89.97 -220.253 0.
-0.00292607 -0.00466106 0.
-2.31611 -4.77663 0.
-22.7889 -12.8693 0.
0.12756 0.14903 0.
0.117232 0.728944 0.
-31.9047 -37.6938 0.
-45.8617 -98.2334 0.
-353.338 -972.977 0.
1.48437 3.9731 0.
-0.624891 -14.3015 0.
-1.59361 -23.066 0.
-0.0132837 -10.835 0.
-1830.5 -3712.84 0.
-2.91472 -6.83175 0.
-808.267 -1709.12 0.
18.5365 39.8381 0.
-1250.42 -2312.74 0.
-1638.41 -2225.28 0.
2.59057 17.4188 0.
0.100725 26.4381 0.
35.7019 60.7692 0.
-14.6352 -36.3794 0.
0.88935 1.7676 0.
5.70321 9.9432 0.
7.92455 15.4979 0.
-5.75722 -13.4118 0.
4.88129 10.9962 0.
-880.414 -2238.46 0.
-0.366605 -30.9978 0.
-0.0723803 -23.74 0.
-1142.42 -2352.93 0.
-1.46929 -3.92573 0.
0.154178 0.425619 0.
-11.2051 -30.9438 0.
-73.1876 -196.721 0.
-2019.75 -4087.65 0.
-0.269584 -1.44228 0.
-1697.82 -4034.73 0.
0.543183 0.463116 0.
-0.0223574 -0.0205846 0.
-1.49548 -1.69942 0.
-58.0885 -60.2936 0.
-17.6314 -34.8878 0.
-11.5458 -21.0884 0.
-6.9177 -11.5567 0.
-32.507 -33.6095 0.
-15.57 -14.8305 0.
-13.2444 -9.36714 0.
-10.1054 -6.17439 0.
-19.1089 -10.5757 0.
-427.285 -807.979 0.
-33.2444 -16.2528 0.
-29.3754 -18.0753 0.
-495.912 -1196.48 0.
-134.889 -198.91 0.
-37.5992 -45.5119 0.
-445.963 -1096.23 0.
-297.149 -727.69 0.
-300.624 -727.822 0.
-246.944 -604.029 0.
-200.511 -472.988 0.
-234.721 -628.2 0.
-226.778 -617.257 0.
-221.854 -603.294 0.
-249.888 -665.479 0.
-214.932 -561.721 0.
-179.116 -458.824 0.
-168.24 -442.421 0.
-124.542 -336.839 0.
-281.246 -764.62 0.
-233.08 -555.406 0.
-259.344 -617.506 0.
-150.075 -369.375 0.
-211.602 -542.547 0.
-271.782 -717.066 0.
-194.166 -531.621 0.
-217.499 -592.529 0.
-244.321 -649.947 0.
-162.903 -411.601 0.
-234.1 -606.4 0.
-314.977 -791.518 0.
-259.672 -652.519 0.
-465.95 -1183.48 0.
-22.4166 -17.7603 0.
-19.5811 -13.4218 0.
-511.803 -1176.64 0.
-20.5235 -29.271 0.
-19.9128 -27.6517 0.
-368.801 -742.711 0.
-30.2774 -23.7091 0.
-34.2498 -21.3489 0.
-37.0054 -20.2102 0.
-30.2116 -14.6218 0.
-34.986 -19.3986 0.
-25.9406 -24.5158 0.
0.0558766 0.00770913 0.
-0.313596 -0.00863084 0.
1.23311 0.51037 0.
-50.0708 -97.9553 0.
-10.9541 -30.2716 0.
-9.11669 -20.5946 0.
-1802.51 -3696.78 0.
-223.782 -320.465 0.
-141.885 -196.992 0.
0.746547 0.435646 0.
0.0910626 0.0944444 0.
0.83294 1.98981 0.
-1208.76 -2674.38 0.
-0.110134 -3.52862 0.
1.73397 4.07448 0.
7.16919 16.7648 0.
-0.863476 -31.9901 0.
6.44596 15.1616 0.
-0.987629 -13.8211 0.
-1.91597 -10.0387 0.
-7.66363 -16.7683 0.
-895.35 -1701.75 0.
81.1712 112.937 0.
-12.825 -199.408 0.
-0.0278447 -68.4157 0.
-890.134 -1356.58 0.
-16.697 -71.1711 0.
-30.4878 -59.6471 0.
-0.527836 -6.25302 0.
13.231 27.8606 0.
-1209.61 -2653.79 0.
-3.8507 -8.59315 0.
-49.9763 -122.452 0.
-0.371018 -28.6463 0.
-0.00751993 -9.82391 0.
-489.003 -1028.1 0.
-0.000698274 -7.11987 0.
-0.00478366 -2.34946 0.
-1439.84 -2494.18 0.
-1.31057e-05 -1.33999 0.
-33.7669 -77.4654 0.
0.109903 0.600413 0.
0.0380453 0.0298992 0.
-0.218749 -0.187041 0.
0.285695 0.267151 0.
-5.49869 -5.11879 0.
-93.2585 -84.5002 0.
-38.0617 -63.4913 0.
-29.2379 -48.955 0.
-19.905 -37.1248 0.
-37.0499 -34.6117 0.
-14.8488 -12.3053 0.
-24.1689 -17.4358 0.
-28.4132 -17.2089 0.
-44.86 -21.4282 0.
-36.8525 -14.8434 0.
-29.8427 -13.9916 0.
-35.8049 -18.1452 0.
-120.224 -131.269 0.
-27.1573 -31.4866 0.
-40.5417 -48.0286 0.
-202.089 -444.876 0.
-87.142 -157.672 0.
-155.541 -392.925 0.
-106.542 -264.407 0.
-83.4859 -199.007 0.
-158.072 -407.247 0.
-148.581 -397.851 0.
-142.026 -385.518 0.
-246.234 -637.283 0.
-211.279 -533.522 0.
-175.032 -431.052 0.
-239.702 -632.129 0.
-193.361 -529.211 0.
-277.726 -761.016 0.
-308.634 -707.988 0.
-337.838 -767.139 0.
-142.536 -362.047 0.
-191.757 -501.609 0.
-251.882 -676.192 0.
-108.185 -289.655 0.
-125.378 -331.054 0.
-151.352 -389.335 0.
-45.833 -72.0891 0.
-84.3521 -175.993 0.
-157.653 -366.111 0.
-36.7301 -35.5669 0.
-175.636 -384.287 0.
-22.0168 -18.0364 0.
-19.6904 -15.061 0.
-20.9147 -18.3944 0.
-24.658 -31.0134 0.
-25.543 -30.7052 0.
-26.863 -34.3554 0.
-27.0765 -27.723 0.
-21.4033 -18.4577 0.
-24.6795 -16.8687 0.
-35.9116 -17.2201 0.
-33.3364 -18.9808 0.
-17.5707 -15.9023 0.
-0.0295095 -0.007636 0.
-0.654949 -0.0614545 0.
-1.0388 -0.191335 0.
-38.425 -80.9666 0.
0.00298709 0.0393731 0.
0.00412369 0.570972 0.
-0.0658885 -0.271497 0.
0.460625 0.829899 0.
-1510.94 -2462.81 0.
-1614.16 -2941.52 0.
0.052858 1.36853 0.
-0.238552 -5.53657 0.
-13.9751 -31.3517 0.
-0.962986 -31.3181 0.
-1621.47 -3662.79 0.
3.96307 9.09145 0.
4.2844 10.5808 0.
-92.2847 -206.872 0.
11.4643 26.4244 0.
19.3672 35.144 0.
24.252 52.1387 0.
-0.884877 -1.41442 0.
-47.9117 -114.769 0.
0.110282 61.4872 0.
17.3793 47.9226 0.
-44.3817 -134.272 0.
39.0075 74.1864 0.
-9.17779 -18.395 0.
-3.15897 -32.7863 0.
-57.7709 -123.507 0.
-5.26761 -37.7646 0.
7.38134 18.7315 0.
-48.1387 -114.941 0.
1.95612 5.23278 0.
-720.311 -1884.07 0.
-98.3835 -270.148 0.
6.6766 18.3202 0.
-788.758 -1622.29 0.
-5.65302 -12.9391 0.
-1.5427e-05 -4.0466 0.
-22.1798 -49.2607 0.
-0.00595623 -0.0352012 0.
-0.442581 -0.273 0.
-1558.5 -3133.19 0.
-1.00388 -0.238053 0.
-2313.91 -2831.29 0.
-89.5444 -103.343 0.
-1834.14 -3512.12 0.
-44.6941 -114.955 0.
-0.351472 -0.330879 0.
-2190.56 -5098.57 0.
-22.3933 -18.969 0.
-2027.93 -3344.96 0.
-157.72 -69.6948 0.
-21.3097 -10.2906 0.
-1889.84 -4611.24 0.
-217.611 -256.33 0.
-29.3511 -28.8844 0.
-1208.42 -3019.52 0.
-483.606 -1175.88 0.
-31.3801 -48.5308 0.
-845.747 -2159.99 0.
-503.034 -1304.17 0.
-584.022 -1512.55 0.
-432.49 -1158.6 0.
-292.219 -793.389 0.
-437.026 -1171.26 0.
-356.884 -964.44 0.
-279.204 -755.155 0.
-395.268 -1053.83 0.
-299.947 -777.141 0.
-205.756 -499.321 0.
-286.058 -779.551 0.
-257.45 -707.486 0.
-286.388 -788.779 0.
-380.741 -884.258 0.
-405.952 -954.43 0.
-189.611 -478.847 0.
-302.112 -809.497 0.
-415.832 -1138.93 0.
-247.811 -654.901 0.
-365.593 -972.774 0.
-486.323 -1287.7 0.
-278.34 -736.27 0.
-459.839 -1207.49 0.
-655.041 -1665.01 0.
-502.252 -1300.15 0.
-960.338 -2473.15 0.
-21.4959 -24.1491 0.
-422.779 -961.533 0.
-1422.65 -3502.49 0.
-20.5775 -30.1648 0.
-24.3271 -38.3598 0.
-2132.56 -5303.48 0.
-25.7498 -32.8143 0.
-9.80564 -11.3417 0.
-2071.11 -3227.51 0.
-40.2983 -26.8117 0.
-2250.74 -5425.44 0.
-49.1408 -53.9605 0.
-14.775 -19.2634 0.
-1819.12 -2907.67 0.
-0.235947 -0.474555 0.
-1591.79 -3887.23 0.
-24.1133 -42.0142 0.
0.00353672 0.330363 0.
-0.0640495 -0.500154 0.
0.0203501 0.0410484 0.
3.25006 8.52052 0.
3.54575 6.13842 0.
-753.153 -1697.98 0.
0.345835 0.889335 0.
-131.76 -291.205 0.
-1.43554 -39.3558 0.
0.0848981 0.209106 0.
-1338.03 -3048.18 0.
4.20535 9.87729 0.
-1128.02 -2433.98 0.
-6.0601 -13.6276 0.
-1.41629 -16.5321 0.
-8.84457 -51.6953 0.
-29.67 -75.4018 0.
-1746.58 -2701.52 0.
4.14924 56.6743 0.
-1.04273 -26.2804 0.
6.14449 10.2481 0.
62.6818 115.992 0.
-23.8908 -47.5657 0.
-10.6234 -23.6654 0.
-571.096 -1231.16 0.
-6.00158 -40.4252 0.
12.1558 30.006 0.
-160.401 -372.33 0.
-19.2305 -51.1866 0.
-13.9131 -37.9261 0.
-0.0520958 -21.6845 0.
5.19354 13.9805 0.
-718.099 -1475.39 0.
-15.8838 -32.3406 0.
-3.37037e-06 -1.73912 0.
2.94969 7.36982 0.
-1561.67 -4083.64 0.
-44.1624 -118.919 0.
-80.1361 -174.839 0.
0.22396 0.0998456 0.
1.33495 1.4169 0.
0.647792 0.883517 0.
-24.2922 -42.5916 0.
-0.0266681 -0.0331711 0.
0.52719 0.513584 0.
-73.5731 -63.8082 0.
-3.93562 -3.53847 0.
-35.3713 -24.6488 0.
-37.0873 -20.1546 0.
-44.9157 -18.8783 0.
0.00561459 0.147386 0.
-20.9429 -9.76372 0.
-41.2824 -32.105 0.
-409.859 -927.666 0.
-19.7463 -31.5775 0.
-23.0339 -39.7505 0.
-469.601 -1201.69 0.
-139.41 -332.514 0.
-358.034 -919.41 0.
-215.717 -556.032 0.
-93.5896 -231.214 0.
-343.119 -909.918 0.
-265.374 -700.646 0.
-188.353 -490.649 0.
-377.908 -1024.08 0.
-282.27 -747.702 0.
-196.882 -491.35 0.
-302.551 -822.071 0.
-273.189 -750.764 0.
-274.414 -751.744 0.
-401.487 -871.257 0.
-428.552 -939.575 0.
-173.403 -450.217 0.
-276.081 -750.858 0.
-390.833 -1079.28 0.
-136.672 -330.878 0.
-248.569 -635.118 0.
-366.338 -953.106 0.
-44.5807 -89.9721 0.
-180.008 -440.567 0.
-365.028 -908.623 0.
-44.3125 -52.4956 0.
-487.356 -1241.98 0.
-18.8773 -18.9133 0.
-19.5483 -21.6367 0.
-276.3 -579.198 0.
-16.4436 -23.8839 0.
-20.2814 -32.6764 0.
-24.2141 -41.7643 0.
-111.864 -78.8714 0.
-4.32338 -6.0062 0.
-95.8059 -73.5358 0.
-36.7313 -20.0725 0.
-56.7805 -60.9368 0.
-3.53769 -2.81887 0.
-13.6316 -20.9088 0.
-22.8997 -42.9284 0.
0.120161 0.319964 0.
-46.0832 -99.8037 0.
0.0206262 0.572194 0.
-1871.42 -4104 0.
-49.327 -112.168 0.
-0.0583141 -0.553893 0.
-0.234691 -8.16464 0.
-0.834755 -3.71031 0.
-26.1332 -61.2271 0.
0.000666198 14.3498 0.
-1166.76 -2551.78 0.
-4.21963 -10.834 0.
-1.67516 -28.2166 0.
13.4417 30.8708 0.
12.5648 31.9973 0.
-36.9153 -81.1984 0.
4.27851 9.44972 0.
-2.82863 -34.8387 0.
13.4234 26.7651 0.
79.9805 121.562 0.
36.9808 70.3399 0.
63.555 135.312 0.
-3.6071 -27.1378 0.
-420.215 -744.626 0.
1.26114 2.28493 0.
-1129.21 -2241.28 0.
23.4797 48.8423 0.
3.40363 8.74448 0.
-1027.34 -2093.86 0.
1.56012 3.7478 0.
-1043.91 -2368.44 0.
5.58868 13.592 0.
-52.9138 -143.897 0.
-0.309806 -0.852909 0.
9.83988 25.7855 0.
-0.946258 -18.6917 0.
-36.1321 -61.4513 0.
-2.88679e-05 -0.517843 0.
2.24583 5.89168 0.
-129.921 -332.822 0.
-14.3013 -39.3458 0.
-65.6737 -171.278 0.
0.00592303 0.608528 0.
-1.3837 -2.00889 0.
-0.814763 -1.98576 0.
-4.01645 -5.83363 0.
-1030.86 -2378.23 0.
-3.14778 -5.72539 0.
-1518.12 -3609.55 0.
-16.7301 -19.6369 0.
-1809.64 -3028.88 0.
-49.8966 -19.6147 0.
-49.0387 -21.2841 0.
-1885.24 -4776.84 0.
-4.11654 -4.37082 0.
-67.7086 -48.3208 0.
-1453.88 -3511.81 0.
-292.86 -639.405 0.
-35.1325 -28.2016 0.
-1002.5 -2570.34 0.
-435.71 -1131.79 0.
-655.281 -1646.67 0.
-404.238 -1035.36 0.
-163.273 -413.967 0.
-487.281 -1238.01 0.
-313.779 -789.341 0.
-142.089 -338.856 0.
-366.987 -960.996 0.
-250.314 -640.796 0.
-135.678 -318.559 0.
-254.359 -688.242 0.
-209.435 -561.951 0.
-310.358 -516.348 0.
-343.455 -643.575 0.
-398.4 -789.953 0.
-125.261 -296.141 0.
-268.125 -704.133 0.
-415.686 -1107.43 0.
-111.806 -247.99 0.
-344.359 -864.582 0.
-580.072 -1478.01 0.
-132.608 -312.891 0.
-428.538 -1049.95 0.
-734.788 -1776.69 0.
-406.764 -1013.52 0.
-1155.28 -2927.73 0.
-16.7632 -22.5343 0.
-56.0844 -124.57 0.
-1634.72 -4163.97 0.
-41.0898 -54.65 0.
-15.4217 -30.5196 0.
-1587.96 -3653.98 0.
-46.0246 -70.0765 0.
-1744.19 -3042.93 0.
-212.196 -486.035 0.
-40.4706 -23.1067 0.
-1082.08 -2722.67 0.
-98.277 -138.114 0.
-12.4975 -22.12 0.
-21.8276 -44.2535 0.
-0.0325068 -0.166841 0.
0.194452 0.673672 0.
-0.0210248 -0.294223 0.
-94.2987 -256.686 0.
-0.143561 -3.88001 0.
-1571.8 -2737.55 0.
0.180313 5.06475 0.
11.3492 31.1065 0.
-362.962 -869.635 0.
7.7248 19.7813 0.
11.5631 31.2608 0.
-738.379 -1903.83 0.
0.94821 2.26556 0.
-4.25197 -9.73813 0.
-0.475614 -1.17111 0.
-1124.68 -2428.43 0.
8.47616 17.5827 0.
1.2767 2.99038 0.
20.7422 41.1106 0.
4.06658 5.98797 0.
-424.702 -882.662 0.
40.4867 76.1035 0.
-836.272 -1574.84 0.
41.2874 73.575 0.
-32.1079 -116.111 0.
-5.11855 -77.6309 0.
-9.02725 -18.543 0.
-10.7938 -26.348 0.
2.92988 6.57325 0.
1.58248 3.52487 0.
1.57345 4.06467 0.
6.9996 16.6523 0.
-172.417 -467.666 0.
-42.4735 -116.784 0.
-898.132 -2386.56 0.
15.3264 40.0092 0.
-124.023 -174.602 0.
-1341 -2966.24 0.
-0.158221 -6.20905 0.
-119.076 -312.14 0.
-4.51776e-05 -0.231827 0.
-59.4113 -164.22 0.
-138.738 -345.322 0.
-1375.54 -2548.85 0.
-0.00166373 -0.00289906 0.
-805.103 -1942.25 0.
-0.455623 -1.17898 0.
-0.154897 -0.322827 0.
-82.4528 -141.142 0.
-21.8871 -21.6101 0.
-31.6894 -15.9183 0.
-30.4857 -13.5982 0.
-27.8345 -14.211 0.
-0.198167 -0.00685656 0.
0.026728 0.0187692 0.
-9.4055 -12.4262 0.
-122.89 -230.636 0.
-12.0347 -14.7781 0.
-10.1069 -13.0039 0.
-454.213 -1153.57 0.
-9.01357 -14.2869 0.
-345.104 -866.902 0.
-101.473 -247.691 0.
-23.0169 -51.4076 0.
-331.037 -865.832 0.
-160.875 -413.647 0.
-20.5522 -42.7263 0.
-306.252 -805.14 0.
-191.466 -483.002 0.
-85.7168 -188.561 0.
-236.133 -565.843 0.
-205.541 -486.463 0.
-113.003 -294.842 0.
-305.386 -544.44 0.
-337.319 -626.846 0.
-79.4259 -189.443 0.
-183.202 -473.996 0.
-327.502 -880.647 0.
-21.1995 -31.2336 0.
-140.982 -348.42 0.
-371.674 -967.192 0.
-25.234 -42.8482 0.
-17.1498 -28.15 0.
-324.373 -754.688 0.
-19.3862 -14.8257 0.
-438.987 -1099.47 0.
-19.1395 -23.3083 0.
-21.4973 -21.1072 0.
-58.0164 -123.249 0.
-2.83415 -7.49989 0.
-8.51678 -22.7595 0.
-14.9922 -37.4797 0.
-11.7436 -25.0338 0.
-300.994 -789.213 0.
-35.0476 -38.2843 0.
-20.7807 -16.595 0.
-100.302 -214.269 0.
0.00946834 0.338728 0.
-1923.41 -4072.13 0.
-194.033 -375.016 0.
-138.118 -218.715 0.
-1284.82 -2185.87 0.
-0.0506716 -0.571607 0.
-72.8223 -201.368 0.
4.08128 10.7653 0.
1.52082 3.58459 0.
-1082.65 -2255.93 0.
0.00813426 13.8625 0.
-869.709 -2109.31 0.
-28.595 -74.3408 0.
-0.210462 -23.0185 0.
-56.5115 -143.891 0.
15.8178 37.1507 0.
-1522.35 -3465.75 0.
-2.49658 -35.5374 0.
14.3312 34.1395 0.
-1470.05 -2849.37 0.
-4.6803 -44.5528 0.
-1371.59 -2708.81 0.
-49.1192 -109.781 0.
-10.5768 -20.0138 0.
-2.45856 -32.0497 0.
0.141691 20.535 0.
-41.1056 -73.6141 0.
-29.1788 -95.89 0.
9.6817 21.8313 0.
5.88354 12.3663 0.
-37.9101 -87.9461 0.
-1.21051 -2.87017 0.
4.63835 10.1953 0.
-0.903186 -22.5728 0.
-1.90285 -23.1075 0.
-846.508 -2286.35 0.
-210.753 -578.59 0.
10.1508 28.1124 0.
0.117234 10.495 0.
-275.007 -384.539 0.
0.455379 1.11944 0.
1.77399 4.6012 0.
-144 -383.053 0.
-700.729 -1642.03 0.
-1009.61 -2289.94 0.
-0.00130507 -0.00303736 0.
1.84488 3.31882 0.
1.65921 3.14111 0.
1.50366 3.03824 0.
0.10951 0.286175 0.
-0.0545538 -0.528495 0.
-62.4226 -61.5155 0.
-30.9233 -26.7878 0.
-24.4216 -16.7112 0.
-11.6241 -7.93486 0.
-8.87002 -6.59092 0.
-0.144513 -0.0156179 0.
-2.03603 -1.44287 0.
-6.21355 -6.7088 0.
-7.12112 -12.0217 0.
-5.73985 -10.3218 0.
-4.27351 -9.65494 0.
-10.6741 -14.7962 0.
-14.9183 -16.1859 0.
-39.3616 -82.701 0.
-4.27922 -11.4835 0.
-13.8496 -32.8554 0.
-184.6 -483.842 0.
-36.2673 -90.1214 0.
-7.08498 -15.0087 0.
-261.203 -679.22 0.
-165.294 -409.164 0.
-71.1272 -141.669 0.
-276.771 -559.187 0.
-251.425 -496.807 0.
-56.8253 -108.928 0.
-319.53 -557.317 0.
-336.958 -597.358 0.
-53.7278 -121.318 0.
-133.124 -344.239 0.
-260.341 -698.148 0.
-15.3473 -26.2783 0.
-18.5719 -30.6388 0.
-172.545 -447.1 0.
-22.4614 -33.0343 0.
-16.2454 -16.4527 0.
-17.0596 -18.7871 0.
-12.0084 -12.328 0.
-15.0866 -17.6227 0.
-24.3627 -25.1414 0.
-24.6435 -25.3059 0.
-25.1585 -24.5849 0.
-0.053919 -0.00823809 0.
-4.84644 -11.676 0.
-10.0305 -27.7681 0.
-6.27678 -15.9868 0.
-2.13565 -5.51856 0.
-19.0837 -27.6579 0.
-6.06395 -6.89679 0.
-92.8485 -211.819 0.
-0.000217238 -0.576244 0.
0.359586 0.843481 0.
0.544541 1.05106 0.
-0.617395 -2.00322 0.
0.0197971 2.13454 0.
-1582.87 -3608.09 0.
7.44301 20.5567 0.
-0.115532 -7.57948 0.
2.78827 6.69382 0.
-370.522 -785.49 0.
8.07526 22.3512 0.
-0.156286 -27.1026 0.
-559.001 -1468.37 0.
12.0221 32.5816 0.
-144.156 -364.162 0.
3.4363 8.322 0.
5.32498 13.1502 0.
0.106192 0.257928 0.
10.7435 26.3067 0.
5.50025 12.6101 0.
-7.57053 -56.1232 0.
29.8781 63.8498 0.
28.637 42.7605 0.
-20.7315 -74.3277 0.
-4.60228 -52.015 0.
-264.253 -237.774 0.
-465.569 -771.791 0.
42.5068 69.3873 0.
-508.535 -1097.69 0.
20.5725 42.9877 0.
-1176.4 -2624.92 0.
-169.115 -400.813 0.
10.3946 22.5814 0.
-681.074 -1698.9 0.
-3.12232 -32.7301 0.
7.2743 18.3 0.
-2.94827 -7.96924 0.
10.779 29.7799 0.
13.7676 37.7683 0.
1.20438 3.21783 0.
6.32059 15.7376 0.
3.20299 8.2551 0.
-829.508 -1894.86 0.
1.60638 3.96011 0.
1.05253 2.10337 0.
1.43975 3.37206 0.
1.38134 2.64162 0.
-0.252181 -1.57453 0.
0.811274 1.71311 0.
-1148.18 -2805.32 0.
0.00191094 0.977371 0.
-1379.66 -3064.15 0.
-32.9259 -34.9297 0.
-45.6312 -94.2284 0.
-1999.16 -4106.21 0.
-9.21353 -17.8428 0.
-1341.78 -2883.34 0.
-11.2139 -18.9966 0.
-28.5969 -57.0416 0.
-1541.09 -3898.66 0.
-19.6161 -46.4631 0.
-19.8606 -36.3605 0.
-1239.98 -3204.23 0.
-173.548 -418.154 0.
-835.079 -2023.3 0.
-418.748 -1010.27 0.
-41.3237 -91.5948 0.
-687.658 -1808.73 0.
-373.946 -977.623 0.
-62.7588 -147.818 0.
-512.118 -1372.2 0.
-335.364 -885.42 0.
-161.752 -395.498 0.
-408.909 -961.689 0.
-375.756 -863.646 0.
-245.718 -531.349 0.
-414.5 -890.265 0.
-486.517 -1093.71 0.
-132.557 -333.269 0.
-353.807 -948.257 0.
-577.024 -1561.28 0.
-23.6334 -51.8014 0.
-374.821 -983.203 0.
-784.333 -2070.01 0.
-26.5949 -48.5965 0.
-425.441 -953.707 0.
-966.184 -2225.86 0.
-52.0158 -79.6222 0.
-1361.93 -3519.73 0.
-17.1139 -29.5761 0.
-16.4982 -24.0203 0.
-1677.3 -4256.86 0.
-10.3496 -17.7669 0.
-21.4356 -47.5638 0.
-1744.02 -3151.68 0.
0.146484 0.128452 0.
-1671.44 -3787.82 0.
-41.7257 -58.9511 0.
-1.60779 -3.8968 0.
-1491.26 -2625.54 0.
0.928118 2.47918 0.
-1194.68 -3255.89 0.
-0.173409 -1.1484 0.
-0.529766 -2.12615 0.
2.39526 6.6147 0.
0.878748 2.17042 0.
0.000785511 1.05123 0.
-1417.1 -3408.68 0.
8.71965 21.1205 0.
-504.542 -1086.13 0.
-12.4622 -33.1881 0.
-0.115939 -28.9034 0.
6.61465 18.2707 0.
-131.209 -355.176 0.
-249.785 -625.792 0.
-1.42578 -22.5565 0.
-8.83057 -21.6574 0.
-4.70821 -11.2173 0.
24.6467 57.5981 0.
-5.58243 -12.4317 0.
-9.56327 -59.1392 0.
-37.3632 -78.6779 0.
41.139 62.7219 0.
-36.2534 -108.236 0.
3.8697 8.6673 0.
-450.306 -550.745 0.
11.0945 18.3311 0.
-326.295 -629.611 0.
-24.1505 -51.9425 0.
7.49716 15.6099 0.
5.35408 11.4431 0.
-0.725534 -32.489 0.
7.62648 19.5421 0.
-1.54182 -22.2258 0.
17.5991 47.4129 0.
-4.23351 -10.3252 0.
2.12612 5.73168 0.
-102.95 -281.661 0.
-0.0291064 -34.642 0.
19.3853 51.4789 0.
-2.22797 -5.53283 0.
-0.0504167 -1.45377 0.
-3.13765 -7.63895 0.
-0.607774 -1.54382 0.
5.36225 14.7564 0.
-0.187301 -2.44048 0.
-0.14479 -0.392356 0.
-1178.92 -2773.8 0.
-3.9207 -8.79998 0.
-86.9064 -240.225 0.
-0.0463611 -2.32094 0.
-7.86489 -7.96446 0.
-2.52465 -2.32817 0.
-8.28106 -17.4674 0.
-0.0735012 -0.329955 0.
-0.0222195 -0.609939 0.
-1.72076 -2.6776 0.
-1.92949 -3.38002 0.
-6.63249 -14.2617 0.
-24.4855 -51.186 0.
-14.2043 -19.8397 0.
0.102582 0.0486016 0.
-325.816 -816.571 0.
-10.7713 -17.9408 0.
-317.913 -742.998 0.
-7.55356 -20.3698 0.
-10.9446 -28.658 0.
-402.67 -1072.43 0.
-93.4963 -236.172 0.
-10.0519 -21.9894 0.
-388.548 -1045.68 0.
-219.468 -577.101 0.
-88.4796 -211.085 0.
-344.766 -774.148 0.
-310.722 -671.816 0.
-61.6986 -101.675 0.
-315.02 -652.136 0.
-383.543 -842.753 0.
-38.5155 -71.7583 0.
-183.766 -473.335 0.
-405.624 -1088 0.
-23.2071 -49.6725 0.
-24.4342 -53.2515 0.
-395.425 -1057.34 0.
-20.8777 -40.4442 0.
-18.0803 -34.604 0.
-255.098 -555.164 0.
-34.0775 -45.1139 0.
-243.343 -558.438 0.
-14.0662 -22.3281 0.
-12.1498 -18.065 0.
-9.61467 -18.0539 0.
-24.6936 -24.5934 0.
-40.91 -69.9212 0.
-57.547 -114.779 0.
-5.1959 -3.35274 0.
-4.4529 -3.36406 0.
-61.3068 -74.4173 0.
-7.02545 -13.8456 0.
-44.4716 -57.9762 0.
0.724683 1.81555 0.
-82.9393 -228.907 0.
0.866818 2.02996 0.
-1336.68 -2215.41 0.
-0.000321745 -6.311 0.
1.68428 4.32193 0.
-0.0103681 -12.24 0.
-14.2653 -36.3426 0.
-1.07244 -17.6593 0.
-0.0189217 -15.2657 0.
-674.91 -1807.5 0.
-4.27326 -11.7391 0.
-6.28392 -17.2705 0.
-4.21742 -10.8425 0.
-1048.84 -2603.81 0.
-2.66728 -6.40724 0.
-115.851 -282.418 0.
10.6925 25.0726 0.
12.6675 28.4341 0.
-1016.69 -2224.86 0.
21.0015 43.9283 0.
-877.615 -1831.95 0.
-131.025 -203.426 0.
92.2047 146.906 0.
28.4252 62.0707 0.
32.4675 57.6871 0.
33.3069 55.1041 0.
-21.4961 -40.7597 0.
-18.4649 -39.5987 0.
-583.113 -1213.18 0.
11.2809 23.5392 0.
-20.6236 -49.8555 0.
18.4868 46.5488 0.
-7.59067 -17.7133 0.
14.924 39.7103 0.
-45.0377 -107.004 0.
-2.50719 -6.73964 0.
-755.099 -2029.08 0.
-0.0498412 -40.7987 0.
-0.189449 -0.499709 0.
-27.706 -68.2177 0.
-66.1794 -167.128 0.
6.83691 16.9413 0.
-0.344863 -11.2131 0.
-0.000325641 -0.232249 0.
-804.786 -1657.5 0.
2.93876 7.87978 0.
-67.1711 -163.568 0.
-21.3778 -50.6807 0.
-8.97839 -24.648 0.
-0.151593 -3.59198 0.
-0.10362 -0.193995 0.
0.0867064 0.376058 0.
-124.39 -308.508 0.
-1322.93 -3563.81 0.
-24.5173 -61.7043 0.
-1508.81 -2242.77 0.
-9.77849 -11.3086 0.
-0.214721 -0.229471 0.
-1518.47 -3866.66 0.
-3.40766 -9.29636 0.
-11.8867 -32.9183 0.
-1309.7 -3386.77 0.
-20.5407 -33.3136 0.
-943.028 -2152.83 0.
-368.804 -817.044 0.
-11.1806 -23.5262 0.
-807.458 -2089.3 0.
-334.018 -848.975 0.
-12.5935 -18.691 0.
-554.5 -1460.34 0.
-324.717 -859.652 0.
-101.329 -252.57 0.
-412.106 -1024.22 0.
-351.723 -851.276 0.
-92.0969 -217.601 0.
-358.511 -824.381 0.
-490.336 -1169.31 0.
-41.3305 -80.0903 0.
-330.17 -875.119 0.
-628.27 -1666.14 0.
-16.6834 -36.8654 0.
-296.2 -775.515 0.
-908.713 -2384.53 0.
-22.8497 -48.7702 0.
-320.493 -690.52 0.
-1020.86 -2304.03 0.
-21.3555 -34.6287 0.
-1446.58 -3307.97 0.
-3.5614 -2.42511 0.
-0.138306 -0.00522882 0.
-1616.15 -4230.64 0.
-37.6357 -39.4098 0.
-27.549 -20.0149 0.
-1399.07 -2627.83 0.
-35.6278 -36.2362 0.
-1099.61 -2832.76 0.
-179.446 -222.412 0.
-50.4731 -51.3513 0.
-75.57 -68.1744 0.
-0.114141 -1.67783 0.
-55.412 -149.535 0.
4.28883 10.3311 0.
-1.02903 -4.83224 0.
-727.247 -1753.51 0.
2.80912 7.34858 0.
-0.00713504 -6.40336 0.
4.94559 12.9788 0.
-661.947 -1628.18 0.
-0.366087 -1.01108 0.
11.0193 30.48 0.
-388.531 -1067.5 0.
-47.3428 -129.118 0.
-9.49951 -24.2536 0.
-1.83231 -54.9817 0.
16.1471 41.1867 0.
-1240.39 -3010.53 0.
-679.197 -1579 0.
11.4063 24.7286 0.
-15.2243 -32.5792 0.
-4.94604 -34.4907 0.
-16.1024 -34.7073 0.
-409.178 -677.245 0.
-26.7319 -78.4129 0.
2.61372 5.56317 0.
13.4356 21.6764 0.
-27.0867 -128.215 0.
47.1253 87.6122 0.
15.7612 33.757 0.
37.8125 100.615 0.
-344.233 -703.536 0.
-234.47 -560.902 0.
-8.95367 -22.1986 0.
-467.531 -1073.58 0.
-0.877764 -38.4336 0.
-712.961 -1660.46 0.
7.14192 19.1425 0.
-0.863093 -34.9341 0.
-3.6529e-05 -41.2953 0.
-1.0866 -44.6853 0.
-989.954 -2413.63 0.
-150.952 -381.981 0.
-22.7661 -56.7405 0.
14.9554 40.9477 0.
-622.314 -1493.57 0.
-1.27477 -8.93389 0.
-0.182075 -10.4069 0.
-84.6495 -213.445 0.
-36.1414 -89.7396 0.
-1093.08 -2954.4 0.
1.06078 2.57351 0.
-1213.8 -2362.78 0.
-0.318245 -1.99979 0.
0.202406 0.535997 0.
-29.0515 -79.2881 0.
-4.11899 -11.4051 0.
-20.6155 -29.8217 0.
-0.192531 -0.219594 0.
0.461407 0.509332 0.
0.149414 0.121422 0.
0.0334634 0.127338 0.
0.00184909 0.021826 0.
-145.362 -325.556 0.
-7.3006 -17.1052 0.
-197.662 -420.653 0.
-0.469136 -1.03488 0.
-1.81435 -4.77475 0.
-370.569 -971.507 0.
-9.42485 -15.6171 0.
-6.12415 -7.90478 0.
-319.014 -855.754 0.
-110.087 -283.728 0.
-14.4008 -14.5888 0.
-233.248 -581.676 0.
-178.832 -447.609 0.
-50.4716 -79.4919 0.
-176.723 -381.464 0.
-275.377 -656.478 0.
-20.8486 -34.8585 0.
-57.411 -132.972 0.
-314.27 -840.116 0.
-9.83062 -23.0229 0.
-12.7269 -29.8716 0.
-314.333 -848.344 0.
-15.7224 -35.1505 0.
-16.3299 -36.9827 0.
-132.661 -294.121 0.
-8.58252 -10.2494 0.
-1.93037 -2.10475 0.
-6.88898 -4.67908 0.
-0.238071 -0.113073 0.
-9.79939 -4.79521 0.
-6.35964 -4.35182 0.
-0.223436 -0.113303 0.
-7.45085 -5.711 0.
-3.25353 -5.57688 0.
-79.1841 -173.168 0.
-0.316596 -1.01079 0.
-1088.57 -1744.92 0.
-0.0275131 -6.22034 0.
-1192.19 -2995.46 0.
-32.4065 -85.0907 0.
-0.616488 -10.9283 0.
-0.551133 -3.09917 0.
-28.2016 -72.6882 0.
-0.139381 -0.374207 0.
0.00396487 2.20514 0.
-33.4231 -88.476 0.
3.56743 9.88064 0.
-0.0499649 -34.6024 0.
-0.139856 -49.2865 0.
-0.060858 -39.8453 0.
-995.885 -2683.73 0.
9.87166 25.026 0.
17.6923 44.623 0.
-0.654239 -1.65955 0.
10.0145 25.2924 0.
10.9648 26.2398 0.
13.1894 33.6864 0.
10.6468 22.582 0.
3.1186 6.49156 0.
-8.53089 -18.1443 0.
3.12237 5.624 0.
-0.181825 -0.384474 0.
6.8833 14.2822 0.
20.6626 30.6525 0.
-31.3953 -143.549 0.
-30.7806 -56.0005 0.
-779.997 -1670.2 0.
54.1083 140.645 0.
-984.541 -1982.59 0.
-394.135 -935.47 0.
-132.097 -323.882 0.
-1316.67 -2993.01 0.
-0.497997 -17.6763 0.
-6.92081 -17.8408 0.
23.6164 64.1304 0.
-1.7148 -45.581 0.
10.861 30.0067 0.
-142.133 -369.377 0.
-0.473974 -63.0876 0.
-249.544 -631.521 0.
-846.709 -2117.52 0.
7.57536 20.0443 0.
-289.49 -712.445 0.
-0.010619 -24.7077 0.
-0.344681 -15.7686 0.
-788.665 -1491.81 0.
-44.0486 -92.9955 0.
-201.602 -547.337 0.
1.10662 2.76008 0.
0.00837645 0.192235 0.
-0.432862 -4.0878 0.
1.54083 4.10725 0.
-18.8416 -51.7181 0.
0.380265 0.957109 0.
-16.5459 -25.0394 0.
-0.1274 -0.165272 0.
-0.213077 -0.301973 0.
0.35518 0.0382386 0.
8.66387e-05 0.306938 0.
0.00463496 0.234143 0.
-3.73367 -10.1295 0.
0.00663302 0.030205 0.
0.0360141 0.167054 0.
0.0178802 0.0116444 0.
0.0120647 0.0533466 0.
-28.3504 -52.386 0.
-9.73797 -13.9836 0.
-6.94107 -7.2386 0.
-133.576 -341.983 0.
-18.8682 -19.2746 0.
-15.724 -11.5765 0.
-147.783 -355.583 0.
-107.957 -252.645 0.
-28.3984 -34.6237 0.
-80.547 -118.297 0.
-142.259 -294.188 0.
-19.4448 -38.0108 0.
-20.436 -40.8955 0.
-81.167 -205.665 0.
-7.54002 -17.9493 0.
-9.55044 -22.7666 0.
-21.318 -55.0342 0.
-14.5559 -31.186 0.
-15.2124 -32.944 0.
-49.3289 -108.239 0.
-5.25768 -6.16041 0.
-0.0898237 -0.107034 0.
-10.7138 -7.2705 0.
-1.89213 -0.990221 0.
-5.55237 -2.45003 0.
0.344429 0.0497336 0.
0.342551 0.000984058 0.
0.396446 0.0066333 0.
-0.00811295 -0.889464 0.
-78.8569 -206.309 0.
2.70676 5.2486 0.
-0.938063 -2.41246 0.
-0.0088789 -0.447416 0.
-31.676 -86.6283 0.
-0.68203 -17.1339 0.
-1178.56 -2781.57 0.
9.06506 24.4325 0.
-26.3093 -69.9111 0.
5.109 13.7117 0.
-488.988 -1300.19 0.
-186.309 -495.016 0.
-1.67951 -4.64247 0.
-3.9623 -10.9299 0.
16.8758 46.0206 0.
18.5292 50.8857 0.
5.0485 13.1387 0.
16.1916 40.7792 0.
-9.99449 -24.8214 0.
-3.84615 -9.70607 0.
-1.67625 -4.18286 0.
-15.3609 -36.7343 0.
-472.541 -1192.68 0.
4.22235 8.90184 0.
-9.34577 -64.67 0.
-226.042 -478.471 0.
25.5051 45.3273 0.
44.3246 93.2636 0.
6.32249 12.802 0.
-501.659 -691.154 0.
23.9932 44.207 0.
56.5858 100.709 0.
-495.036 -993.794 0.
20.709 48.1887 0.
-13.5191 -29.449 0.
16.5292 39.7601 0.
-966.363 -2367.98 0.
-0.528602 -1.35315 0.
0.0429394 3.41489 0.
-4.94328 -12.4968 0.
3.20135 8.55531 0.
-63.5482 -157.49 0.
-0.143609 -35.6166 0.
14.7832 38.7319 0.
-0.248942 -24.5551 0.
-432.492 -1093.17 0.
12.9988 34.7858 0.
5.94822 15.836 0.
-426.261 -1062.85 0.
4.94568e-05 2.18246 0.
-849.049 -2011.11 0.
0.0108903 3.87144 0.
-0.536113 -6.32965 0.
-0.0828913 -2.86636 0.
-0.0468378 -1.28005 0.
-0.0689529 -2.27621 0.
-705.453 -1868.41 0.
-0.0325019 -0.956755 0.
-888.098 -1953.55 0.
-3.54606 -9.44329 0.
-1133.54 -2205.79 0.
-10.1151 -21.5693 0.
-0.0950531 -0.778167 0.
-1387.82 -3660.17 0.
-2.08476 -4.46828 0.
-3.75563 -7.94194 0.
-1278.9 -2988.25 0.
-9.44879 -19.5151 0.
-1022.59 -2374.98 0.
-288.124 -630.265 0.
-16.4223 -30.1115 0.
-986.227 -2576.11 0.
-224.821 -569.709 0.
-13.5309 -26.5918 0.
-702.612 -1888.78 0.
-335.972 -911.999 0.
-16.8971 -27.0191 0.
-492.692 -1318.09 0.
-411.876 -1112.36 0.
-52.4291 -108.966 0.
-366.409 -954.964 0.
-585.156 -1555.01 0.
-18.8826 -36.7975 0.
-287.168 -761.318 0.
-796.487 -2096.68 0.
-11.4056 -23.6487 0.
-176.499 -468.525 0.
-1096.62 -2940.11 0.
-19.4196 -45.8045 0.
-233.854 -467.309 0.
-1031.01 -2230.9 0.
-8.60907 -15.9116 0.
-1295.18 -3181.43 0.
-38.0123 -71.9678 0.
-20.9994 -28.8481 0.
-1055.39 -2310.52 0.
-0.389382 -0.514462 0.
-1552.76 -3503.1 0.
2.03807 0.112933 0.
-0.578317 -1.35649 0.
-1115.91 -2616.85 0.
2.31965 5.24841 0.
-0.0457567 -0.160875 0.
4.66256 11.4033 0.
-3.58235 -9.91032 0.
-0.417178 -15.4705 0.
-82.6967 -203.001 0.
3.60929 9.99671 0.
-495.851 -1336.32 0.
-0.482497 -35.3194 0.
-180.996 -488.362 0.
-342.765 -912.151 0.
5.05229 13.8714 0.
-0.0160191 -60.4405 0.
-858.61 -2311.59 0.
-3.69382 -10.0762 0.
7.08392 18.1859 0.
-0.643661 -48.7137 0.
-976.644 -2392.28 0.
-1.87558 -43.5851 0.
23.2267 57.4097 0.
-98.0659 -234.709 0.
-561.141 -1401.14 0.
-378.682 -796.934 0.
-209.351 -465.348 0.
-820.651 -1743.17 0.
1.98266 3.46978 0.
-14.6782 -106.384 0.
-365.734 -726.993 0.
-177.307 -361.243 0.
-26.1323 -112.642 0.
41.3899 72.0912 0.
-92.5624 -185.134 0.
3.47199 8.10194 0.
-12.8917 -108.235 0.
-6.44715 -98.0318 0.
21.0006 54.416 0.
13.191 33.3415 0.
-0.366961 -20.6584 0.
-13.8063 -34.285 0.
-0.940495 -42.3674 0.
-1076.45 -2612.8 0.
0.00300744 6.35811 0.
22.9667 59.7981 0.
-147.245 -389.501 0.
12.1618 32.5179 0.
-0.666615 -41.9043 0.
-5.75106 -15.3781 0.
-0.0576344 -15.7221 0.
10.9095 30.1862 0.
-97.192 -235.51 0.
-0.0435457 -18.572 0.
0.951315 2.32326 0.
-0.10093 -8.42467 0.
-456.027 -1011.44 0.
1.58222 4.34641 0.
-38.5481 -105.146 0.
1.06022 2.9099 0.
0.897271 2.095 0.
0.0683798 0.177911 0.
0.226365 0.620587 0.
-2.17046 -5.37749 0.
0.109294 0.284649 0.
-39.0616 -78.359 0.
-12.7924 -23.9888 0.
-5.33074 -10.5995 0.
-2.4789 -5.50468 0.
-2.79757 -6.30864 0.
-46.0257 -99.514 0.
-11.7304 -24.1071 0.
-6.5605 -13.2011 0.
-175.878 -449.369 0.
-12.0027 -22.9966 0.
-4.94087 -11.1346 0.
-270.547 -734.804 0.
-13.3674 -32.6904 0.
-5.18001 -11.3212 0.
-222.509 -585.212 0.
-144.204 -376.817 0.
-30.96 -70.7236 0.
-58.7012 -135.593 0.
-227.47 -612.883 0.
-21.9188 -48.201 0.
-17.3885 -34.7445 0.
-164.832 -414.022 0.
-14.0541 -27.7348 0.
-20.5921 -41.3992 0.
-162.169 -428.963 0.
-16.8283 -37.3318 0.
-10.7354 -20.101 0.
-11.8095 -18.6437 0.
0.00661135 0.0162149 0.
-20.11 -48.324 0.
-10.4545 -20.2156 0.
-0.37785 -0.629223 0.
-0.590665 -0.893549 0.
0.225143 0.294164 0.
-0.434354 -0.587561 0.
0.000710159 1.29728 0.
0.00721823 0.408553 0.
-21.8375 -53.7057 0.
1.28527 3.29089 0.
-915.373 -2163.37 0.
-1.03373 -2.85911 0.
0.556156 1.51526 0.
-0.334835 -17.5828 0.
-112.046 -280.654 0.
-7.15583 -19.8192 0.
12.3538 33.4905 0.
-3.16553 -8.48389 0.
-217.738 -583.474 0.
15.1042 41.5507 0.
-3.98279 -10.8236 0.
-0.00287171 -27.1119 0.
-3.91636 -10.5631 0.
4.19967 11.3628 0.
20.779 52.7319 0.
-1.32259 -74.8456 0.
-17.2061 -43.6676 0.
4.73238 11.8572 0.
-535.176 -1315.21 0.
-450.574 -1082.99 0.
-519.998 -1287.13 0.
-1622.88 -3422.09 0.
-137.514 -304.748 0.
-764.906 -1636.99 0.
-27.6065 -47.5163 0.
50.0998 105.833 0.
-1.65127 -29.3032 0.
-417.971 -730.399 0.
66.1327 119.878 0.
48.5645 82.8808 0.
-96.7258 -193.057 0.
-9.55764 -120.724 0.
-13.3032 -112.203 0.
-12.3938 -29.6801 0.
3.56982 9.20236 0.
-44.5489 -111.441 0.
-1.90125 -84.1172 0.
-22.91 -55.9838 0.
16.7153 43.3461 0.
-3.15748 -77.1091 0.
-4.844 -12.7726 0.
-302.272 -782.905 0.
-844.974 -2235.66 0.
14.7073 39.3613 0.
-113.312 -301.472 0.
-559.585 -1501.97 0.
-0.482415 -1.3259 0.
-3.46373 -9.37389 0.
-0.0538693 -34.6032 0.
-0.0240478 -8.63247 0.
1.51045 3.80854 0.
-592.984 -1378.06 0.
1.96318 4.3885 0.
1.28079 3.48925 0.
-131.656 -364.658 0.
0.927951 2.55472 0.
-0.0197856 -0.231407 0.
1.10689 2.82675 0.
0.459827 1.24451 0.
-1145.96 -3117.6 0.
0.464972 1.28136 0.
-777.648 -1605.69 0.
-13.2515 -29.3044 0.
-28.1521 -77.9086 0.
-1057.17 -2739.69 0.
-0.34518 -0.935178 0.
-906.879 -1985.99 0.
-167.736 -378.815 0.
-8.07586 -20.4342 0.
-1035.03 -2792.7 0.
-77.882 -201.753 0.
-6.30768 -14.4975 0.
-815.53 -2159.76 0.
-269.099 -732.229 0.
-8.76478 -24.1054 0.
-556.898 -1488.86 0.
-470.835 -1285.42 0.
-27.1425 -61.0454 0.
-354.154 -963.858 0.
-689.079 -1875.67 0.
-19.3406 -44.054 0.
-202.659 -547.203 0.
-914.83 -2444.94 0.
-13.3799 -27.0694 0.
-9.27407 -18.504 0.
-941.376 -2416.11 0.
-4.39742 -10.6915 0.
-1232.93 -2684.96 0.
-9.72471 -26.3649 0.
-8.97281 -23.8732 0.
-1047.61 -2712.76 0.
-2.20726 -5.29092 0.
0.101661 0.250724 0.
-942.261 -2188.08 0.
-304.65 -684.323 0.
0.118172 0.135867 0.
0.0896977 1.5401 0.
0.812653 2.24528 0.
-0.0148863 -0.837309 0.
3.27852 8.88848 0.
2.33775 5.98732 0.
-0.00959346 -15.9638 0.
-849.301 -2083.71 0.
-0.142271 -9.50838 0.
10.0636 26.8256 0.
-68.7756 -190.401 0.
-323.278 -853.778 0.
-3.70342 -9.91379 0.
-357.579 -949.996 0.
-0.0252021 -57.5734 0.
-800.979 -2152.99 0.
23.874 65.9343 0.
6.67822 17.9688 0.
-271.744 -724.025 0.
-121.121 -304.473 0.
8.54803 22.4965 0.
3.1929 8.01197 0.
8.92388 23.8272 0.
-8.94003 -22.5301 0.
-915.64 -2213.03 0.
-10.9485 -25.9276 0.
34.3913 75.389 0.
-112.925 -249.589 0.
-421.029 -909.34 0.
-18.4102 -31.148 0.
38.8508 82.4892 0.
9.52289 18.0619 0.
-548.897 -863.298 0.
81.2725 146.068 0.
19.2449 32.21 0.
36.9204 73.5683 0.
57.3243 133.96 0.
-367.284 -800.827 0.
-328.508 -786.408 0.
-2.06746 -62.1511 0.
-86.8009 -215.283 0.
23.8542 62.138 0.
-839.72 -2026.22 0.
0.271001 0.709838 0.
-2.93034 -75.5744 0.
-4.81252 -12.7366 0.
-842.337 -2172.38 0.
0.8049 2.17217 0.
-0.902036 -63.1809 0.
-507.676 -1366.08 0.
19.9503 54.2084 0.
18.7202 51.473 0.
-790.535 -2142.26 0.
-0.0360032 -26.5519 0.
-0.0904867 -20.9576 0.
2.99913 7.93633 0.
-25.2486 -64.6411 0.
3.27686 7.45612 0.
3.99416 10.7948 0.
-232.782 -636 0.
-0.90118 -2.3248 0.
-788.414 -1981.89 0.
0.337035 0.878031 0.
-0.163116 -0.449727 0.
-51.9148 -143.681 0.
0.147803 0.400208 0.
0.0997747 0.222291 0.
-0.572948 -1.37774 0.
-18.7133 -50.6866 0.
0.155214 0.348928 0.
-0.135563 -0.334646 0.
-7.63636 -20.1713 0.
-9.52729 -24.4304 0.
-12.1733 -30.1618 0.
-151.042 -402.804 0.
-8.80933 -23.4597 0.
-2.32679 -6.3776 0.
-76.2504 -206.502 0.
-6.38226 -16.681 0.
-5.34453 -14.7614 0.
-86.8533 -226.947 0.
-17.8956 -40.0438 0.
-21.2064 -53.285 0.
-13.7117 -33.0521 0.
-62.073 -167.162 0.
-14.3983 -36.7967 0.
-13.454 -33.1471 0.
-26.7249 -65.1306 0.
-10.0106 -19.6078 0.
-7.36822 -12.7448 0.
-7.20888 -11.8708 0.
-3.46722 -9.37703 0.
-166.527 -432.175 0.
-5.61108 -15.4808 0.
-4.84094 -13.2271 0.
-7.19009 -19.4367 0.
-6.46066 -14.1834 0.
-1.71106 -3.83176 0.
-8.96478 -20.7659 0.
0.123782 0.32902 0.
-673.826 -1572.38 0.
-0.0577856 -5.24206 0.
-940.04 -1995.57 0.
-0.18807 -5.23276 0.
-0.00398693 -4.02289 0.
-0.0477232 -5.72277 0.
7.15702 19.6423 0.
-0.363167 -22.6578 0.
-362.955 -867.202 0.
5.40676 14.566 0.
-432.105 -1195.2 0.
-105.895 -277.487 0.
-0.000766476 -19.286 0.
-535.698 -1409.73 0.
0.373076 1.02222 0.
-0.139392 -44.8864 0.
-84.8712 -230.582 0.
-13.0768 -35.1053 0.
7.96041 21.2237 0.
-871.335 -2238.31 0.
-17.2191 -43.9845 0.
-18.7231 -46.5124 0.
-1.51283 -83.3181 0.
11.0189 27.732 0.
-5.31998 -14.0666 0.
12.1182 28.866 0.
-9.27172 -20.3826 0.
-135.842 -299.501 0.
18.9299 41.2866 0.
23.3711 38.8426 0.
-14.1808 -109.012 0.
9.78265 16.7149 0.
19.4676 29.9297 0.
48.1067 85.6803 0.
23.2519 38.2217 0.
28.5766 56.9213 0.
12.2946 28.6758 0.
-562.354 -1233.94 0.
-669.986 -1606.75 0.
-2.12508 -5.44025 0.
-168.765 -416.089 0.
-1072.04 -2664.26 0.
8.50199 21.4245 0.
18.1367 47.6572 0.
-72.8226 -185.591 0.
-17.473 -46.406 0.
10.3851 27.6737 0.
-0.863512 -2.33162 0.
-0.893104 -2.39349 0.
-12.1387 -33.3112 0.
5.3275 14.463 0.
-8.01566 -22.0444 0.
-7.04812 -19.5168 0.
10.9251 30.1599 0.
-443.829 -1186.31 0.
11.0834 29.5458 0.
-44.2702 -116.74 0.
13.5214 35.9268 0.
-469.171 -1109.16 0.
-560.875 -1261.9 0.
1.68868 4.43554 0.
-0.0118752 -9.35577 0.
-0.0672992 -4.03918 0.
1.1014 3.04709 0.
-22.6556 -60.8574 0.
0.28647 0.720351 0.
0.207025 0.516204 0.
0.000777514 0.0402034 0.
-8.87044 -24.4167 0.
0.0894067 0.172406 0.
-0.157072 -0.345472 0.
-3.82266 -9.06671 0.
-13.6363 -33.6642 0.
-17.62 -41.4269 0.
-19.1478 -52.5628 0.
-7.11481 -19.7035 0.
-1.52642 -4.11103 0.
-8.02609 -20.2258 0.
-3.32412 -9.06613 0.
-1.91498 -5.20757 0.
-21.1523 -53.2933 0.
-12.4452 -28.041 0.
-14.7473 -40.403 0.
-10.256 -28.325 0.
-9.57059 -26.4841 0.
-16.3436 -44.3088 0.
-12.496 -34.5865 0.
-12.7609 -35.2694 0.
-14.98 -32.5517 0.
-10.975 -21.1222 0.
-10.1872 -17.8305 0.
-7.308 -20.224 0.
-31.281 -86.5761 0.
-1.82311 -5.04431 0.
-2.02628 -5.60761 0.
-5.00192 -13.768 0.
-12.8503 -25.468 0.
-6.9375 -13.8156 0.
-4.70164 -9.42497 0.
-0.000352759 -1.50527 0.
-8.66099 -22.8858 0.
-0.00565819 -0.964611 0.
3.01872 7.25781 0.
-0.0508644 -4.22359 0.
-915.023 -2244.3 0.
7.41111 19.7631 0.
-0.0121833 -1.36234 0.
-0.163213 -17.2804 0.
-615.495 -1517.7 0.
11.534 31.6258 0.
15.3082 42.0018 0.
-85.4056 -222.052 0.
0.954963 2.59859 0.
12.5744 34.6655 0.
20.6698 56.7307 0.
5.39595 14.847 0.
-346.69 -948.74 0.
-133.542 -357.88 0.
12.8368 34.2708 0.
18.183 46.9412 0.
-678.335 -1733.58 0.
-385.794 -951.357 0.
-19.1153 -48.1565 0.
12.3308 31.0519 0.
-11.9248 -31.3782 0.
-20.1915 -48.3965 0.
18.8143 41.5642 0.
-272.264 -599.107 0.
-681.91 -1285.08 0.
-139.283 -227.45 0.
-23.4799 -129.565 0.
15.7268 24.5704 0.
-15.7935 -40.2923 0.
33.2144 58.6182 0.
-592.404 -958.407 0.
14.792 32.2863 0.
30.5802 71.021 0.
-198.987 -441.641 0.
-594.06 -1429.51 0.
-345.781 -844.018 0.
-171.744 -422.25 0.
-16.675 -44.058 0.
6.48891 16.4052 0.
29.1328 76.7751 0.
-271.759 -696.191 0.
-98.2049 -261.709 0.
30.0353 80.3034 0.
-20.3198 -54.8996 0.
-39.7837 -106.689 0.
-1.68259 -4.61428 0.
8.82696 23.9431 0.
-387.817 -1072.62 0.
10.2671 28.4343 0.
16.3564 45.1402 0.
-12.1039 -33.5098 0.
18.8956 50.6915 0.
-410.509 -1094.28 0.
10.4979 29.0146 0.
-128.993 -320.249 0.
0.0289896 8.08835 0.
3.78236 10.015 0.
-0.00941185 -12.035 0.
0.870122 2.34808 0.
-0.293551 -0.757838 0.
-716.391 -1965.66 0.
0.757875 2.04606 0.
-742.329 -1542.69 0.
-15.8613 -42.7206 0.
-3.00848 -8.33297 0.
-940.701 -2537.55 0.
-9.36594 -25.2016 0.
-5.79923 -15.7067 0.
-1210.87 -2615.35 0.
-12.8646 -35.6323 0.
-804.488 -2127.72 0.
-7.23743 -19.0509 0.
-7.09044 -19.4665 0.
-863.647 -2317.07 0.
-97.6123 -265.65 0.
-2.90933 -7.67066 0.
-584.502 -1566.55 0.
-428.887 -1187.81 0.
-32.534 -87.3053 0.
-203.749 -562.253 0.
-774.644 -2129.43 0.
-24.5367 -65.278 0.
-25.0571 -65.4 0.
-940.297 -2452.99 0.
-8.43777 -20.3267 0.
-8.1716 -19.1687 0.
-1066.9 -2210.8 0.
-1.11515 -3.08349 0.
-1052.56 -2584.73 0.
-0.00995621 -0.508417 0.
-0.00184864 -0.190129 0.
-997.821 -2447.86 0.
-16.4892 -31.7967 0.
-19.6066 -37.2241 0.
-979.991 -1995.72 0.
1.01836 2.81812 0.
-693.224 -1690.88 0.
4.07984 11.194 0.
-0.293106 -6.36325 0.
-0.00477642 -1.34504 0.
4.42677 11.3829 0.
5.10663 13.671 0.
-813.621 -2074.05 0.
10.5665 28.7826 0.
0.963525 2.66593 0.
-0.192607 -0.527429 0.
10.4365 28.4797 0.
-489.109 -1262.66 0.
3.79918 10.3561 0.
-1.66299 -4.58988 0.
-119.111 -327.412 0.
-1.35543 -3.73211 0.
-155.868 -426.514 0.
-403.984 -1081.87 0.
-12.7954 -34.207 0.
31.0772 80.3391 0.
11.1734 29.6282 0.
-732.414 -1797.29 0.
-9.22857 -23.306 0.
22.2974 56.2891 0.
27.6706 72.5607 0.
22.6835 54.6884 0.
-29.6537 -66.0503 0.
-404.223 -888.285 0.
42.6943 91.4022 0.
-146.608 -235.553 0.
-135.337 -256.048 0.
-18.2674 -26.381 0.
-22.4788 -55.5696 0.
44.0791 77.0899 0.
-4.89213 -8.38407 0.
3.92182 8.47368 0.
22.6628 51.2002 0.
-22.4696 -58.2411 0.
-219.932 -531.602 0.
-563.533 -1375.39 0.
-71.743 -175.692 0.
12.8313 34.0242 0.
-3.4185 -88.3397 0.
-29.617 -78.2704 0.
-499.695 -1286.97 0.
-172.585 -459.394 0.
-2.32718 -6.2419 0.
-52.1621 -141.016 0.
15.7741 42.842 0.
8.36894 22.9358 0.
-170.496 -461.951 0.
-15.1636 -41.7879 0.
-10.1707 -28.1696 0.
-2.50071 -6.89891 0.
-9.41669 -26.0523 0.
-8.74608 -23.5916 0.
16.3912 44.1396 0.
1.24564 3.44378 0.
-344.951 -879.518 0.
9.22065 25.4559 0.
-0.111418 -5.92389 0.
2.60864 6.85275 0.
-794.578 -1957.02 0.
1.15843 3.0914 0.
-14.7529 -40.859 0.
-0.0228946 -0.843489 0.
-0.0739335 -0.809787 0.
-0.00707021 -0.231846 0.
-0.00540512 -1.3525 0.
-13.6925 -37.6001 0.
-10.1836 -28.0769 0.
-6.61278 -18.3037 0.
-17.6543 -46.9118 0.
-14.6714 -39.4646 0.
-38.419 -98.8324 0.
-12.1281 -32.3752 0.
-11.2241 -30.9782 0.
-12.434 -32.4242 0.
-9.86627 -25.2218 0.
-8.48537 -21.5506 0.
-13.3651 -33.5884 0.
-6.6978 -17.1861 0.
-26.9969 -74.2507 0.
-22.0427 -60.3836 0.
-22.9013 -62.5792 0.
-23.106 -63.3703 0.
-16.2502 -44.9641 0.
-13.6397 -37.7423 0.
-10.1983 -28.1032 0.
-7.86093 -20.6696 0.
-8.70507 -22.4811 0.
-0.000252486 -0.000695127 0.
-9.04031 -23.9054 0.
0.000733804 0.0154339 0.
0.117818 0.306109 0.
-2.63087 -7.04605 0.
-6.73845 -15.0134 0.
-10.1395 -21.7894 0.
0.0340454 2.23614 0.
1.72374 4.77412 0.
-0.0278417 -1.80078 0.
4.32601 11.845 0.
-665.026 -1664.62 0.
8.56286 23.6613 0.
-3.76616 -9.91507 0.
-0.269099 -19.9051 0.
-0.0312503 -36.6783 0.
14.441 39.3716 0.
3.65839 10.1161 0.
-610.034 -1668.19 0.
2.15379 5.83745 0.
7.12961 19.5583 0.
-279.237 -762.217 0.
-2.68517 -7.41784 0.
-208.84 -578.168 0.
0.260825 0.718644 0.
-140.293 -384.015 0.
-65.1101 -174.037 0.
-190.224 -509.426 0.
4.61567 11.9494 0.
26.8685 71.3783 0.
-54.9715 -139.412 0.
-166.934 -422.655 0.
-233.098 -591.061 0.
-32.1647 -82.7934 0.
36.2422 87.9105 0.
-491.339 -1138.53 0.
-678.129 -1489.27 0.
56.0671 142.214 0.
4.68286 9.13604 0.
-1179.49 -2130.32 0.
-1.11823 -49.2181 0.
-1.09197 -1.61155 0.
-8.07916 -127.287 0.
4.12744 7.27263 0.
10.039 21.4475 0.
53.4129 119.954 0.
19.3251 50.2172 0.
7.12463 17.3175 0.
-71.6766 -178.598 0.
-27.6507 -67.7352 0.
12.154 32.3333 0.
18.3039 46.5939 0.
-42.0445 -111.394 0.
-172.161 -451.204 0.
-147.837 -393.709 0.
7.0057 18.8472 0.
-318.548 -871.117 0.
-5.34066 -14.5127 0.
-17.0916 -46.8109 0.
6.28224 17.3112 0.
-78.3197 -215.703 0.
-3.27398 -9.06829 0.
-3.66427 -10.1444 0.
-5.96483 -16.4859 0.
-213.317 -578.176 0.
4.73936 12.8719 0.
8.489 23.4714 0.
-0.0715381 -46.6034 0.
11.7887 32.5574 0.
-637.957 -1474.21 0.
5.10319 13.5346 0.
0.160207 0.404335 0.
4.47827 12.1481 0.
0.580427 1.59521 0.
1.33707 3.38202 0.
0.315731 2.27969 0.
0.597142 1.5144 0.
-0.0883791 -1.93094 0.
-489.55 -1323.1 0.
-15.3497 -41.3714 0.
0.0066214 0.126471 0.
-735.425 -1993.68 0.
-1.13938 -1.57936 0.
-835.944 -1805.99 0.
-3.44129 -8.20889 0.
-9.7436 -21.8347 0.
-808.934 -2150.82 0.
-5.84156 -16.0279 0.
-9.23378 -25.0119 0.
-518.794 -1419.22 0.
-357.343 -988.777 0.
-49.0313 -128.399 0.
-101.775 -279.031 0.
-717.471 -1965.84 0.
-13.0929 -35.7615 0.
-7.88464 -21.735 0.
-879.448 -2217.17 0.
-7.3654 -20.0852 0.
-5.00446 -13.7682 0.
-862.378 -1686.53 0.
-1.24725 -3.41199 0.
-701.818 -1921.05 0.
-7.12656e-05 -0.73919 0.
-232.876 -599.635 0.
-0.0155657 -0.470569 0.
0.00888685 0.0224445 0.
-2.45898 -5.90292 0.
2.62787 7.04732 0.
-3.04127e-05 -1.97558 0.
1.07373 2.89851 0.
-0.00528174 -6.68831 0.
-0.00535132 -1.84265 0.
-60.8344 -165.325 0.
-0.0349268 -22.1182 0.
11.0457 29.6491 0.
15.7271 43.4915 0.
-398.828 -1089.54 0.
-0.0372891 -34.8724 0.
19.2608 52.5315 0.
7.66972 20.7696 0.
-0.2271 -64.3991 0.
15.6983 43.4804 0.
7.18092 19.8518 0.
-15.0841 -41.7453 0.
-210.025 -579.191 0.
-156.704 -429.089 0.
-89.0959 -238.466 0.
-317.583 -854.73 0.
-18.1113 -46.96 0.
-0.71115 -1.89257 0.
8.21952 20.8975 0.
-438.234 -1112.52 0.
-384.578 -980.359 0.
13.3348 34.2656 0.
11.1121 27.1251 0.
-283.283 -704.117 0.
-969.423 -2128.36 0.
-3.1424 -70.9666 0.
-3.70795 -7.33403 0.
-15.3801 -52.093 0.
-3.85687 -59.2942 0.
-1.66996 -17.8821 0.
-1.27384 -14.4769 0.
2.07876 3.76325 0.
6.687 14.115 0.
-768.322 -1712.5 0.
18.1641 47.3103 0.
6.48437 15.8695 0.
-4.94121 -108.128 0.
-72.623 -177.939 0.
-18.5796 -49.5761 0.
-0.0986879 -0.25211 0.
-305.212 -810.901 0.
-237.597 -624.572 0.
-77.5888 -206.734 0.
-281.963 -760.774 0.
-13.6835 -37.4546 0.
10.89 29.6087 0.
-325.206 -890.117 0.
-0.164415 -70.2657 0.
-218.558 -601.562 0.
15.2846 42.2977 0.
3.37134 9.33234 0.
-8.36598 -23.0922 0.
15.1208 41.8806 0.
18.9204 51.2393 0.
-461.693 -1276.63 0.
14.6542 40.4617 0.
1.2149 3.24594 0.
-0.106378 -30.8089 0.
-0.168305 -9.81868 0.
4.08201 10.5158 0.
-0.00167516 -0.302506 0.
-442.279 -939.44 0.
-0.11289 -5.24684 0.
2.98145 8.15235 0.
-830.58 -2138.59 0.
1.0848 2.97708 0.
-24.9954 -68.8651 0.
-0.758059 -2.0136 0.
0.12016 0.435174 0.
-3.91806 -5.5782 0.
-0.785753 -1.26954 0.
-8.36727 -14.8361 0.
-7.14911 -14.1384 0.
-8.32151 -17.4852 0.
-2.41197 -6.63788 0.
-2.9725 -8.16197 0.
-6.58213 -17.9149 0.
-3.70714 -10.1843 0.
-0.601804 -1.66371 0.
-19.0981 -52.8284 0.
-9.03608 -24.9795 0.
-5.35885 -14.8253 0.
-11.7295 -32.0859 0.
-7.50334 -20.0808 0.
-8.72373 -23.432 0.
-5.99304 -16.4968 0.
-3.48462 -9.60456 0.
-7.52595 -20.826 0.
0.0212557 0.0587877 0.
-0.00781529 -0.350081 0.
-0.00267588 -0.515584 0.
-0.00787708 -0.196459 0.
-400.163 -1027 0.
-0.0859173 -0.673612 0.
-876.371 -1660.45 0.
3.79067e-08 3.25252 0.
-641.588 -1562.36 0.
-0.81683 -30.6074 0.
8.45703e-06 0.708133 0.
11.8937 32.6592 0.
1.42621 3.89423 0.
9.73049 26.0953 0.
-0.491369 -35.8488 0.
-2.20171 -6.08926 0.
-4.66951 -12.9006 0.
15.9506 44.0174 0.
0.269025 0.73625 0.
-410.685 -1116.54 0.
-12.426 -34.1632 0.
-18.8309 -52.1583 0.
-193.597 -535.524 0.
-5.59171 -15.4691 0.
-32.1745 -88.1591 0.
-196.405 -537.997 0.
-141.349 -378.83 0.
-0.891066 -78.206 0.
-32.8934 -85.4276 0.
26.3692 70.2979 0.
8.92787 22.7573 0.
-7.59476 -20.0273 0.
-338.006 -866.637 0.
-14.3937 -36.9124 0.
-379.066 -931.887 0.
-111.114 -275.586 0.
-611.273 -1340.78 0.
-6.2336 -122.819 0.
-154.938 -311.076 0.
23.0338 37.6381 0.
1.35776 10.8894 0.
-6.42349 -50.1545 0.
38.2744 83.243 0.
-21.6499 -99.1678 0.
-370.654 -771.601 0.
-193.365 -427.619 0.
10.6779 27.8648 0.
45.9422 116.8 0.
11.6683 29.2258 0.
-60.9708 -149.441 0.
14.1431 37.8396 0.
-86.0965 -231.394 0.
-195.418 -526.838 0.
-12.3358 -32.9892 0.
-62.6977 -167.162 0.
-14.1902 -37.9781 0.
9.23651 25.2996 0.
-17.8308 -48.5069 0.
21.4403 58.9585 0.
16.0326 44.1387 0.
-313.549 -862.505 0.
7.48328 20.7028 0.
-91.4145 -253.016 0.
-361.94 -997.583 0.
19.8375 54.9432 0.
-58.0448 -156.696 0.
-6.70463 -18.4055 0.
-0.662349 -1.83003 0.
-623.497 -1679.35 0.
-0.0736307 -39.4658 0.
11.8863 31.5822 0.
12.7097 34.34 0.
-599.746 -1493.02 0.
6.49705e-05 0.0115787 0.
2.65435 6.99306 0.
3.8117 10.5284 0.
0.643621 1.74265 0.
-0.000659819 -0.877409 0.
-11.8073 -32.1775 0.
-0.00707993 -0.130566 0.
-0.0849132 -0.523896 0.
-40.8365 -100.85 0.
-0.483531 -1.04511 0.
-23.3271 -30.8529 0.
-18.1523 -26.0036 0.
-19.586 -31.818 0.
-3.68333 -9.89268 0.
-5.92743 -15.8635 0.
-11.4511 -30.6742 0.
-1.93973 -5.30219 0.
-1.21622 -3.36118 0.
-14.4926 -39.9403 0.
-9.46446 -26.1547 0.
-6.27906 -17.3565 0.
-11.3963 -30.7154 0.
-9.9647 -25.7553 0.
-10.667 -27.4397 0.
-4.68389 -12.9276 0.
-2.03365 -5.60564 0.
-7.24901 -20.0693 0.
-1.53458e-05 -0.184683 0.
0.17906 0.478421 0.
-0.0195365 -1.24159 0.
0.528087 1.29691 0.
-0.00966789 -0.0656434 0.
-0.103078 -2.37469 0.
-20.8813 -49.4198 0.
0.00571474 2.90122 0.
-1.60107 -4.15211 0.
-0.0442135 -21.3695 0.
-510.023 -1326.39 0.
-0.0677494 -21.4536 0.
-382.952 -1047.96 0.
15.5523 41.602 0.
8.20538 22.6793 0.
-0.0227707 -35.1016 0.
11.2244 30.9944 0.
-8.1472 -22.454 0.
8.97331 24.6228 0.
-94.0981 -260.49 0.
-423.491 -1165.48 0.
-92.0412 -254.937 0.
-108.742 -300.807 0.
-17.1691 -47.4758 0.
-23.8935 -65.4931 0.
-15.6025 -42.3508 0.
-172.921 -464.113 0.
-5.65748 -15.2843 0.
-146.45 -399.823 0.
-75.2515 -200.949 0.
28.955 78.0068 0.
19.8978 52.6624 0.
-172.51 -436.667 0.
4.80964 12.3067 0.
-254.391 -629.176 0.
-50.5781 -125.176 0.
-19.653 -43.0629 0.
-7.18665 -121.344 0.
-406.05 -829.068 0.
-31.5816 -90.1998 0.
-12.9213 -64.6854 0.
9.51266 19.0487 0.
-13.7106 -87.9621 0.
48.1654 92.5464 0.
-643.906 -1319.24 0.
-18.3201 -46.052 0.
-16.4884 -43.0852 0.
5.46783 14.5393 0.
-21.8548 -54.8074 0.
-15.9525 -42.1409 0.
17.6314 47.28 0.
-122.83 -330.216 0.
-111.707 -301.176 0.
-33.0185 -88.3914 0.
-106.264 -283.517 0.
22.566 61.4327 0.
20.5305 56.2714 0.
-65.8463 -180.971 0.
16.9575 46.6437 0.
21.1865 58.6426 0.
-9.65444 -26.7067 0.
14.166 39.1782 0.
-301.074 -833.208 0.
-2.05144e-05 -59.5433 0.
2.68416 7.42637 0.
-402.569 -1083.09 0.
2.19614 6.01538 0.
10.8751 30.1138 0.
-0.0100832 -50.4647 0.
-0.0949175 -0.262199 0.
-388.361 -1039.26 0.
5.05012 13.7259 0.
2.73765 7.11256 0.
8.55178 23.6652 0.
4.9121 12.9152 0.
-0.000377686 -12.0977 0.
-0.00663339 -4.22327 0.
1.91725 5.19228 0.
-595.389 -1519.23 0.
-14.193 -38.3498 0.
0.455154 1.17161 0.
-491.968 -1248.62 0.
-2.38716 -6.47575 0.
-641.799 -1484.48 0.
-8.01128 -19.3895 0.
-11.6517 -26.5393 0.
-680.769 -1782.41 0.
-8.13109 -19.2065 0.
-11.5464 -27.4989 0.
-413.502 -1141.15 0.
-329.224 -911.375 0.
-63.1565 -174.634 0.
-51.8221 -143.53 0.
-599.468 -1574.83 0.
-19.7788 -54.5015 0.
-9.96053 -25.3824 0.
-744.975 -1938.05 0.
-6.49723 -17.418 0.
-3.75798 -10.1307 0.
-668.69 -1221.07 0.
0.253542 0.664774 0.
-734.122 -1894.7 0.
-0.000900293 -1.03379 0.
-0.614958 -1.57084 0.
-519.809 -1256.85 0.
-0.0136116 -1.10077 0.
-0.0202812 -0.458325 0.
0.0122597 3.04927 0.
0.283364 0.757878 0.
3.6502 10.0788 0.
-11.8404 -31.1383 0.
-0.0236747 -12.4328 0.
0.056903 0.156717 0.
-27.3366 -72.8915 0.
15.4965 42.6061 0.
6.74067 18.6385 0.
-12.0294 -33.2041 0.
-129.613 -358.983 0.
-221.569 -609.363 0.
-64.3709 -178.17 0.
15.6575 43.3514 0.
-160.818 -445.426 0.
-6.65734 -18.4071 0.
-187.497 -518.216 0.
-1.70486 -4.68382 0.
-12.4899 -33.8986 0.
-290.456 -786.335 0.
-46.3406 -125.445 0.
-119.609 -326.482 0.
-415.849 -1112.4 0.
-8.29485 -22.3619 0.
-13.4408 -35.6867 0.
-20.1184 -53.6908 0.
1.24123 3.16756 0.
-13.9115 -34.993 0.
-74.3021 -183.485 0.
-9.99612 -25.2095 0.
38.3954 91.1735 0.
12.2246 24.9052 0.
-36.7903 -96.4138 0.
-21.1979 -73.7405 0.
32.5205 60.7666 0.
-20.8053 -103.289 0.
36.9187 73.4219 0.
-422.891 -979.608 0.
13.404 33.3708 0.
-296.234 -774.705 0.
27.4757 72.7479 0.
-25.0342 -62.812 0.
-27.8989 -73.7227 0.
-257.344 -691.33 0.
-18.3214 -49.9825 0.
-98.9548 -266.848 0.
-23.167 -62.081 0.
-26.7149 -71.3244 0.
-0.516568 -73.4329 0.
-97.6505 -267.819 0.
-4.93139 -13.6096 0.
17.971 49.4448 0.
-67.7286 -187.484 0.
-16.8439 -46.6008 0.
1.07791 2.98012 0.
15.6085 43.0612 0.
12.3771 34.2817 0.
11.7493 32.524 0.
5.59248 15.4845 0.
13.3702 36.5314 0.
-276.429 -765.314 0.
-0.00581645 -44.9767 0.
3.31093 9.15377 0.
10.3434 28.5339 0.
3.23328 8.82522 0.
-0.42406 -1.12685 0.
-7.62649e-05 -1.94028 0.
-556.774 -1419.95 0.
2.723 7.26197 0.
-383.99 -969.733 0.
-2.726e-05 -0.0658653 0.
-34.8698 -94.701 0.
-4.70647 -12.2446 0.
0.464296 1.13749 0.
-8.22394 -22.5673 0.
-0.0163909 -0.0452683 0.
-26.377 -69.1437 0.
-3.08482 -8.51006 0.
-5.97378 -15.906 0.
-11.2324 -24.9354 0.
-9.76621 -22.0947 0.
-15.2239 -35.7021 0.
-5.87687 -14.4038 0.
-1.82729 -4.54856 0.
-21.572 -55.4271 0.
-9.38756 -23.8885 0.
-8.57787 -22.9235 0.
-22.3836 -61.3205 0.
-10.5309 -27.2101 0.
-12.7194 -32.7346 0.
-6.4524 -16.8706 0.
-4.90965 -12.6257 0.
-7.72338 -20.4734 0.
0.319433 0.808184 0.
0.27728 0.721387 0.
-0.00593253 -0.423341 0.
-0.00931806 -1.80085 0.
-0.0161118 -8.13 0.
0.472943 1.04252 0.
-274.41 -481.726 0.
-242.298 -631.969 0.
0.00918357 0.913126 0.
-0.038566 -37.023 0.
3.62156 10.0274 0.
-2.07187 -5.70044 0.
-0.103669 -29.6354 0.
-521.077 -1385.4 0.
-87.4474 -240.522 0.
-7.22295 -19.6443 0.
-267.229 -737.295 0.
-138.123 -382.519 0.
16.7365 46.3473 0.
-129.785 -359.165 0.
-24.9131 -68.9687 0.
-296.524 -821.267 0.
14.4501 40.0121 0.
-5.52168 -15.1877 0.
23.8444 65.5501 0.
-7.21183 -19.572 0.
-14.2553 -38.9694 0.
-119.143 -323.155 0.
-103.136 -281.463 0.
-441.619 -1190.17 0.
17.9816 48.5047 0.
-117.971 -314.062 0.
11.2326 29.9567 0.
-225.415 -573.3 0.
-1.79543 -4.50505 0.
-135.825 -334.622 0.
5.03189 12.6335 0.
21.0123 48.442 0.
-329.427 -670.235 0.
-13.1118 -45.6036 0.
61.3993 97.2799 0.
-433.543 -756.718 0.
-29.855 -53.0586 0.
-0.0085301 -0.0178081 0.
11.5634 29.7124 0.
38.3214 94.4397 0.
-227.84 -596.563 0.
34.0754 89.7763 0.
-73.7599 -185.05 0.
32.741 86.5529 0.
-75.8074 -204.05 0.
-38.3909 -104.732 0.
33.1234 89.3361 0.
-147.925 -396.764 0.
-17.4067 -46.5263 0.
-13.0953 -35.6874 0.
-262.542 -720.533 0.
-9.26184 -25.5742 0.
0.782681 2.15403 0.
-29.1607 -80.7603 0.
-16.0855 -44.508 0.
5.34011 14.7755 0.
-5.26345 -14.5385 0.
21.8051 60.3936 0.
-192.27 -531.534 0.
19.6767 54.4959 0.
15.0623 41.0475 0.
-0.127228 -49.177 0.
2.8204 7.81072 0.
3.64382 10.0788 0.
15.2667 42.0844 0.
9.29166 25.4385 0.
-0.0330447 -34.4621 0.
11.2938 31.1549 0.
-0.0351486 -3.78125 0.
2.032 5.48363 0.
-0.153771 -7.25901 0.
4.08844 11.3142 0.
0.0586735 1.16714 0.
-0.0559557 -0.140135 0.
0.510491 1.1941 0.
-130.148 -358.346 0.
-42.4886 -117.662 0.
-437.478 -1107.04 0.
-4.96627 -12.8496 0.
-0.00218492 -0.0226628 0.
-496.432 -1338.2 0.
-2.54242 -3.22442 0.
-13.6322 -29.5557 0.
-237.267 -657.179 0.
-327.704 -907.676 0.
-52.0611 -144.056 0.
-34.8515 -96.2415 0.
-458.571 -1222.54 0.
-81.4779 -175.096 0.
-9.91795 -27.0646 0.
-349.16 -670.983 0.
-8.2704 -22.3545 0.
-611.81 -1643.58 0.
-0.0278137 -0.291341 0.
-4.48583 -12.4043 0.
-0.0245354 -0.597152 0.
1.3899 3.62535 0.
0.917426 2.54111 0.
4.55477 12.586 0.
3.77146 8.97825 0.
9.08457 24.9633 0.
-1.50486 -4.05532 0.
-0.09579 -33.2693 0.
14.0114 38.6964 0.
-1.95762 -5.42062 0.
-386.316 -1062.99 0.
-13.0523 -35.7803 0.
-7.48376 -20.7008 0.
-253.562 -697.65 0.
19.518 53.0942 0.
-94.1721 -260.712 0.
-103.475 -286.526 0.
1.60738 4.45079 0.
-287.011 -794.114 0.
8.66667 23.9494 0.
19.1127 52.9166 0.
3.14918 8.72055 0.
25.6916 70.7085 0.
18.8977 51.5664 0.
-6.97561 -18.9297 0.
-13.6917 -37.4728 0.
-195.793 -532.053 0.
-94.8553 -258.812 0.
-0.187184 -0.504658 0.
-3.72898 -10.0652 0.
-469.632 -1253.32 0.
14.3015 38.1087 0.
12.9221 32.7697 0.
-22.8453 -57.1577 0.
-181.494 -445.994 0.
10.4028 25.9862 0.
-3.63769 -94.7911 0.
-1291.12 -2618.98 0.
-13.0051 -51.3563 0.
-27.2835 -70.3425 0.
6.06389 11.7776 0.
-23.9008 -103.163 0.
-187.344 -419.395 0.
-11.0433 -28.1296 0.
-292.757 -714.279 0.
-0.928391 -74.9185 0.
-57.5197 -150.711 0.
34.4872 91.5563 0.
-75.9999 -200.98 0.
-18.6195 -51.0672 0.
-96.7895 -264.035 0.
21.7952 59.6358 0.
-159.507 -433.605 0.
-27.1397 -72.6242 0.
-35.9289 -97.9641 0.
-206.728 -562.06 0.
-65.2782 -180.337 0.
-79.5863 -219.098 0.
4.4779 12.4018 0.
11.2885 31.2388 0.
18.2979 50.6743 0.
0.943816 2.60955 0.
-15.384 -42.6071 0.
-39.7731 -109.899 0.
8.85801 24.5351 0.
-154.798 -426.899 0.
3.7336 10.2943 0.
7.4308 20.5806 0.
-1.09204 -3.00499 0.
9.22938 25.4289 0.
-7.70931 -21.1506 0.
-9.6119 -26.3042 0.
2.5318 6.99086 0.
14.4951 39.2996 0.
1.79789 4.88842 0.
-0.000630903 -5.79579 0.
-233.812 -628.666 0.
0.000393556 6.30782 0.
-428.531 -938.632 0.
-0.01438 -1.69688 0.
-273.214 -743.989 0.
0.0623088 0.170646 0.
-20.6621 -51.059 0.
-2.81669 -6.14347 0.
0.0022211 0.00697337 0.
-12.1876 -15.9519 0.
-8.76048 -12.5533 0.
-20.5167 -51.257 0.
-5.02678 -11.5115 0.
-4.2102 -10.466 0.
-19.8544 -52.2712 0.
-6.35483 -16.4353 0.
-3.61073 -9.19524 0.
-9.8043 -27.1515 0.
-7.25923 -19.1354 0.
-11.9582 -33.0876 0.
0.0753741 0.159436 0.
-15.6927 -40.5957 0.
-0.127814 -1.46155 0.
-0.0036614 -0.865326 0.
-359.684 -896.018 0.
1.85959 5.09528 0.
-401.277 -926.655 0.
4.74134 12.2903 0.
-0.591682 -11.4246 0.
-0.250863 -36.1699 0.
-137.076 -374.623 0.
-1.32697 -3.65151 0.
-279.759 -762.84 0.
9.37784 25.9712 0.
8.83377 24.3629 0.
-25.6709 -70.5264 0.
-10.617 -29.3689 0.
-7.55837 -20.8827 0.
-58.412 -161.558 0.
-3.37692 -9.34678 0.
-89.0875 -246.644 0.
-0.0111071 -65.1981 0.
16.583 45.8039 0.
4.22464 11.6763 0.
-7.76769 -21.5078 0.
-123.755 -342.715 0.
-33.8937 -93.3319 0.
-13.6072 -37.1709 0.
-18.9477 -51.4149 0.
15.0866 41.3376 0.
-25.475 -69.4457 0.
-65.9862 -180.005 0.
-0.864464 -2.36992 0.
-129.72 -350.404 0.
24.3878 66.8143 0.
-17.7697 -47.3059 0.
2.16533 5.83268 0.
-246.293 -614.263 0.
-1.15374 -2.91893 0.
-216.432 -537.773 0.
5.97643 15.1042 0.
-4.48095 -9.74818 0.
-22.5801 -100.813 0.
-29.346 -68.44 0.
25.3777 57.674 0.
-5.28913 -11.6379 0.
-39.2623 -88.5138 0.
-19.4648 -49.0873 0.
-403.453 -972.732 0.
8.72538 23.3396 0.
-476.575 -1240.53 0.
-102.413 -271.254 0.
-246.451 -652.022 0.
-14.6295 -39.4777 0.
-127.095 -346.677 0.
-0.421912 -89.5343 0.
13.1798 35.8796 0.
1.13293 3.09607 0.
-122.454 -334.05 0.
-18.7885 -51.1122 0.
-75.1816 -207.784 0.
-240.188 -662.469 0.
-20.0794 -55.6129 0.
-1.35531 -3.75095 0.
1.28545 3.5603 0.
-1.45556 -4.02753 0.
-27.6992 -76.716 0.
-30.3464 -83.8046 0.
-95.6985 -265.051 0.
-3.57472 -9.85838 0.
-6.49213 -17.924 0.
11.5236 31.8169 0.
7.93483 21.8471 0.
-26.569 -73.1757 0.
-6.74771 -18.3131 0.
12.0604 32.9806 0.
-210.295 -580.768 0.
9.90354 26.9418 0.
8.81081 24.0424 0.
5.71719 15.4274 0.
-42.394 -116.652 0.
-0.074882 -13.6554 0.
-0.321355 -4.83685 0.
0.00447588 1.84309 0.
-0.106915 -0.295759 0.
0.246859 0.662642 0.
0.00873978 0.111042 0.
-1.22921 -2.26292 0.
-0.0408362 -0.0863721 0.
-23.8291 -46.0201 0.
-26.1988 -52.9417 0.
-35.8301 -79.4761 0.
-7.22182 -16.2555 0.
-5.73869 -14.2233 0.
-15.8 -38.954 0.
-6.12515 -15.1406 0.
-3.50265 -8.49236 0.
-11.9008 -32.3573 0.
-9.59232 -25.9904 0.
-12.7247 -34.5463 0.
-1.80804 -3.14421 0.
-6.65325 -12.168 0.
-0.110965 -1.32558 0.
-0.0154483 -1.30687 0.
-0.00239013 -1.46808 0.
0.00245476 2.3249 0.
2.9164 7.31952 0.
-0.352108 -23.0201 0.
-252.317 -616.307 0.
-0.300011 -39.3718 0.
5.60374 15.5039 0.
1.25073 3.44229 0.
7.4092 20.4716 0.
11.2911 31.2736 0.
-3.77982 -10.4383 0.
-244.555 -676.428 0.
18.7586 51.891 0.
12.4428 34.3913 0.
-145.674 -403.023 0.
1.23704 3.42303 0.
-0.0445018 -53.1326 0.
-5.73563 -15.869 0.
16.7167 46.1813 0.
-152.487 -421.539 0.
-14.2344 -39.4158 0.
-18.1076 -50.1019 0.
-124.748 -343.685 0.
-12.167 -33.2733 0.
-2.79054 -7.64615 0.
4.58202 12.5686 0.
9.68876 26.6128 0.
-238.552 -650.582 0.
-8.01234 -21.9745 0.
-58.2215 -159.153 0.
20.0388 54.9069 0.
-405.355 -1077.94 0.
-0.556552 -1.46637 0.
-374.799 -931.547 0.
24.0364 60.7557 0.
-402.208 -993.634 0.
-341.872 -859.522 0.
26.1302 56.4132 0.
15.7835 34.2323 0.
-48.2968 -91.3571 0.
-23.0182 -50.9025 0.
50.1618 107.293 0.
42.1892 95.7922 0.
-142.739 -355.674 0.
39.1569 98.3997 0.
-8.43546 -22.4122 0.
-1.34939 -92.3627 0.
-228.596 -603.9 0.
5.776 15.7655 0.
11.3942 30.7016 0.
-150.32 -409.971 0.
25.2186 69.1308 0.
-93.8168 -255.707 0.
5.28655 14.469 0.
25.6968 70.3948 0.
4.35816 11.991 0.
-97.8674 -270.586 0.
-79.9331 -220.642 0.
-43.085 -119.333 0.
-377.85 -1046.41 0.
-9.95239 -27.5663 0.
-24.982 -69.1626 0.
-0.951527 -2.63543 0.
-9.51489 -26.2601 0.
-42.7671 -118.096 0.
-3.76501 -10.383 0.
-70.7056 -195.417 0.
-10.5984 -29.3549 0.
13.2008 36.366 0.
-64.1827 -176.416 0.
-2.08804 -5.76344 0.
-4.63545 -12.6649 0.
10.6934 29.5404 0.
-0.0878805 -15.4143 0.
-197.954 -495.84 0.
1.30464 3.49652 0.
-76.1481 -210.846 0.
8.79972 23.6181 0.
2.37757 5.97177 0.
-0.0013817 -1.29587 0.
-281.839 -762.869 0.
0.210018 0.577575 0.
0.0498207 0.931055 0.
-427.27 -1116.56 0.
-0.522716 -1.14923 0.
-201.759 -491.754 0.
-25.4569 -54.7315 0.
-83.834 -213.895 0.
-96.7913 -258.161 0.
-294.949 -815.603 0.
-13.1381 -30.3016 0.
-14.2151 -33.8219 0.
-357.152 -972.447 0.
-21.2171 -45.1224 0.
-12.9944 -33.1233 0.
-300.387 -677.951 0.
0.0870232 0.135961 0.
-286.907 -651.37 0.
0.0669424 1.91602 0.
-252.588 -610.298 0.
0.244868 0.678243 0.
0.000952422 3.44591 0.
-0.108855 -3.69063 0.
-0.253589 -27.7249 0.
-0.0724724 -3.60474 0.
10.7892 29.7689 0.
9.1695 25.3693 0.
2.23368 6.14767 0.
8.05798 22.2402 0.
15.1484 41.9443 0.
7.33672 20.2812 0.
-49.2252 -136.149 0.
-90.266 -249.603 0.
0.438995 1.2138 0.
-8.97147 -24.5751 0.
13.856 38.3298 0.
-3.27743 -9.0588 0.
9.11367 25.2135 0.
-0.795685 -2.19853 0.
1.651 4.57289 0.
3.01871 8.35945 0.
-35.2584 -97.5733 0.
-62.8178 -173.162 0.
-0.363906 -74.4302 0.
25.0355 68.9684 0.
-119.164 -327.229 0.
9.96962 27.3924 0.
-271.029 -738.954 0.
22.1901 60.8806 0.
-211.316 -577.783 0.
-11.4309 -31.325 0.
-75.1279 -199.556 0.
10.5893 27.9111 0.
-19.6308 -51.8203 0.
32.1278 81.1113 0.
16.5753 42.16 0.
-330.671 -826.886 0.
-22.4912 -56.9276 0.
-11.2453 -95.1746 0.
-10.9582 -66.6011 0.
-296.48 -639.809 0.
-28.5179 -59.2776 0.
-14.8998 -34.0762 0.
-15.6249 -40.4666 0.
-22.417 -56.1435 0.
29.6967 78.2718 0.
30.9512 82.5185 0.
-610.08 -1607.51 0.
12.4668 33.9752 0.
-19.5231 -52.5193 0.
-0.0921847 -82.265 0.
-38.0885 -104.865 0.
-76.9481 -209.989 0.
-23.875 -65.4395 0.
-9.721 -26.668 0.
-14.4244 -39.7048 0.
8.17829 22.521 0.
-50.7066 -140.434 0.
-40.033 -110.882 0.
21.3635 59.1573 0.
3.17409 8.79158 0.
-174.839 -484.268 0.
-26.4392 -73.2301 0.
-52.1897 -143.943 0.
19.0096 52.1803 0.
-37.4375 -103.244 0.
-1.51168 -4.16091 0.
-23.2121 -64.2916 0.
-16.0751 -44.3076 0.
5.30214 14.5827 0.
-43.4124 -119.845 0.
-144.864 -398.562 0.
-2.41869 -6.67792 0.
-1.37964 -3.78899 0.
4.63013 12.5181 0.
-0.371536 -21.6627 0.
-0.0207775 -12.3946 0.
-0.0584912 -3.2085 0.
-207.661 -545.432 0.
2.83682 7.84855 0.
-2.45608 -6.79726 0.
0.930041 2.51533 0.
-0.16691 -2.66027 0.
-2.71257 -6.10197 0.
-0.497838 -1.05985 0.
-17.8332 -31.958 0.
-5.62513 -10.4312 0.
-5.07971 -9.54119 0.
-2.62004 -6.17747 0.
-1.84626 -4.31996 0.
-21.8237 -52.6396 0.
-13.0158 -32.352 0.
-14.7891 -37.6795 0.
-20.6109 -40.6058 0.
-13.9572 -27.3146 0.
-14.157 -26.9135 0.
0.0146807 0.120821 0.
0.0107503 0.215931 0.
-0.0829111 -2.85863 0.
-0.0338347 -3.72531 0.
6.72831 18.3325 0.
-261.432 -704.877 0.
1.03981 2.87166 0.
-0.0318414 -5.0119 0.
5.83404 15.4078 0.
-146.748 -404.512 0.
-79.7208 -220.448 0.
-5.04404 -13.839 0.
6.46336 17.8188 0.
-6.51242 -18.0311 0.
-33.277 -92.0594 0.
-17.2606 -47.7368 0.
-0.438921 -57.3674 0.
17.6881 48.9223 0.
-0.56745 -1.55735 0.
4.30289 11.8613 0.
-5.23021 -14.4549 0.
-9.19064 -25.1133 0.
2.47767 6.84702 0.
5.74416 15.9063 0.
-74.5848 -206.18 0.
-40.5944 -112.357 0.
18.2467 50.4404 0.
-22.133 -60.6544 0.
23.8013 65.5469 0.
-102.999 -283.125 0.
13.6246 37.4456 0.
-23.2169 -63.5681 0.
22.7025 62.3092 0.
20.6724 57.159 0.
-236.446 -648.026 0.
-16.6839 -45.122 0.
-241.831 -637.865 0.
24.5688 64.8745 0.
-275.254 -693.955 0.
-71.5494 -179.262 0.
34.8624 90.4022 0.
-90.4251 -227.552 0.
38.9486 83.9941 0.
-9.07977 -53.9361 0.
-13.7829 -28.4592 0.
28.0969 63.6048 0.
-223.238 -567.317 0.
1.19022 3.03966 0.
-123.85 -309.116 0.
11.6803 31.6903 0.
-20.2574 -53.8055 0.
-19.8047 -52.008 0.
9.52019 25.9049 0.
-152.497 -409.603 0.
-0.853163 -2.35647 0.
-80.8954 -222.701 0.
4.91991 13.5869 0.
5.19289 14.2682 0.
26.4416 72.6339 0.
-0.178792 -74.4552 0.
20.1422 55.4901 0.
-67.2341 -186.198 0.
0.576088 1.59544 0.
17.3113 47.9388 0.
-19.7328 -54.6527 0.
-6.47092 -17.9233 0.
-24.9232 -69.0321 0.
-3.84244 -10.6421 0.
12.7821 35.0762 0.
-33.1531 -91.4271 0.
6.93563 19.0899 0.
-19.0036 -52.6353 0.
3.85353 10.6729 0.
0.0149298 0.0410854 0.
-66.0544 -182.373 0.
17.846 49.1066 0.
1.19127 3.28706 0.
-111.866 -305.884 0.
-0.465688 -33.9692 0.
10.4491 27.5846 0.
3.59428 9.87963 0.
3.21467 8.88061 0.
5.79252 14.7283 0.
-0.000522979 -3.38966 0.
0.102595 2.86346 0.
1.25972 3.35245 0.
-0.0419029 -0.608852 0.
-4.55814 -9.85739 0.
-0.353587 -0.732479 0.
-102.871 -261.463 0.
-17.6492 -37.5489 0.
-31.8091 -76.235 0.
-32.5069 -78.2137 0.
-144.973 -400.126 0.
-11.4345 -30.7486 0.
-5.41528 -14.7012 0.
-131.661 -362.513 0.
-13.3593 -15.6611 0.
-111.005 -273.329 0.
-20.5447 -34.5461 0.
0.00256176 0.111846 0.
0.0696716 0.226956 0.
0.144153 5.31754 0.
-0.00054205 -0.243288 0.
-0.0206202 -1.35902 0.
-0.0497459 -17.6543 0.
6.09072 16.8471 0.
-145.16 -393.102 0.
-0.472152 -24.0317 0.
-7.27056 -20.1331 0.
2.68243 7.41424 0.
17.6847 48.4318 0.
-144.35 -397.474 0.
-9.57389 -26.5059 0.
-7.98294 -22.0816 0.
5.88681 16.2798 0.
-11.1232 -30.1814 0.
-27.1007 -74.9769 0.
19.5731 53.8109 0.
-2.3601 -6.52772 0.
-0.0583698 -61.186 0.
-1.09179 -2.97491 0.
-228.335 -632.384 0.
9.80379 27.1344 0.
-16.5625 -45.8582 0.
-35.7216 -98.8843 0.
3.1446 8.6967 0.
-258.495 -709.144 0.
11.0133 30.3182 0.
-101.145 -277.148 0.
-47.6343 -130.956 0.
-16.5981 -45.8444 0.
-206.811 -567.853 0.
8.09534 22.3817 0.
-41.6428 -114.147 0.
-11.1416 -30.1266 0.
-75.6272 -199.538 0.
-38.8883 -102.732 0.
-7.03553 -18.5963 0.
-114.664 -282.781 0.
-2.95743 -81.3875 0.
-314.106 -785.129 0.
16.9672 36.2377 0.
-247.404 -493.045 0.
13.4695 26.9398 0.
23.3024 53.1699 0.
23.3981 60.9369 0.
29.3746 73.934 0.
-50.5275 -125.757 0.
9.89046 26.7527 0.
-436.078 -1154.33 0.
-9.09811 -24.6173 0.
-0.622753 -77.4146 0.
9.11999 24.9632 0.
23.7565 65.6124 0.
-12.358 -34.0197 0.
24.2563 67.0005 0.
-142.601 -391.925 0.
25.287 70.0283 0.
-44.3784 -122.316 0.
15.1143 41.656 0.
-68.3885 -189.383 0.
9.37736 25.9715 0.
-1.58194 -4.38094 0.
-188.608 -522.395 0.
24.1252 66.7403 0.
-12.1851 -33.7505 0.
20.2133 55.9846 0.
7.33397 20.1203 0.
-55.6538 -153.142 0.
15.7239 43.2778 0.
-47.0314 -130.266 0.
-15.6399 -43.317 0.
13.6245 37.5278 0.
-21.8872 -60.6056 0.
16.7025 45.9672 0.
2.54223 7.03469 0.
-2.44013 -6.74745 0.
13.0807 34.8167 0.
-0.639586 -26.5294 0.
7.49626 20.0964 0.
10.5386 29.1049 0.
12.7373 32.6572 0.
7.1597 19.7756 0.
-0.0375104 -9.06317 0.
-122.641 -332.406 0.
-0.0593054 -5.1182 0.
-130.716 -356.867 0.
-0.0311698 -0.910782 0.
-29.7975 -74.4381 0.
-1.77907 -4.64856 0.
-3.55863 -9.62533 0.
-28.6771 -64.5718 0.
-6.69583 -10.0532 0.
-13.742 -36.5845 0.
-4.17766 -11.5244 0.
-2.9264 -8.05694 0.
-8.84517 -12.1005 0.
-2.4225 -2.46479 0.
-71.7776 -186.672 0.
1.7729e-05 0.00232225 0.
-161.748 -381.907 0.
-0.00237313 -1.93436 0.
0.000377379 0.760446 0.
-0.390568 -18.6993 0.
4.59834 12.727 0.
9.46365 26.1961 0.
5.69732 14.7555 0.
-1.55856 -4.13345 0.
-2.95768 -8.18881 0.
7.73223 21.3624 0.
-7.81065 -21.3109 0.
-23.6813 -65.5471 0.
-3.75435 -10.3935 0.
-10.5327 -28.9679 0.
8.28461 22.9094 0.
-11.4208 -30.9122 0.
-15.0646 -41.2735 0.
-8.10814 -22.3252 0.
8.89939 24.5897 0.
-96.2123 -265.138 0.
20.4682 55.5962 0.
-92.6577 -256.644 0.
-22.1002 -61.1218 0.
16.9581 46.9473 0.
-120.071 -329.914 0.
-0.0307645 -65.4284 0.
-89.1978 -243.586 0.
9.08404 24.9967 0.
2.39198 6.6068 0.
-136.548 -375.522 0.
5.88826 16.263 0.
-59.1157 -162.383 0.
-9.39008 -25.9604 0.
-17.9307 -49.1639 0.
-1.77439 -4.79814 0.
24.6762 66.3922 0.
-110.66 -292.489 0.
9.20204 24.1726 0.
-185.32 -475.28 0.
6.89157 17.2588 0.
-2.06338 -72.5753 0.
-250.923 -530.234 0.
-109.419 -216.562 0.
-475.014 -920.028 0.
-1.53902 -3.77352 0.
25.9052 66.4492 0.
19.6573 49.4634 0.
-2.00554 -76.8279 0.
-8.02836 -21.6615 0.
-6.66726 -18.09 0.
25.2282 68.0963 0.
-532.028 -1430.18 0.
12.8254 35.1831 0.
9.73159 26.6465 0.
11.8645 32.8431 0.
17.0414 47.0818 0.
-69.7908 -191.892 0.
-0.0027642 -68.4569 0.
-15.9837 -44.0717 0.
25.788 71.1029 0.
15.6346 43.0073 0.
-0.00131514 -65.9357 0.
-2.38769 -6.61267 0.
-0.843188 -2.33546 0.
-11.9975 -33.1761 0.
-19.1417 -53.0189 0.
1.03479 2.86611 0.
-5.65157 -15.5012 0.
0.431138 1.18614 0.
12.9231 35.1106 0.
-14.7045 -40.2539 0.
-46.4966 -128.78 0.
14.6428 40.2587 0.
-69.8495 -193.326 0.
7.60106 20.9217 0.
-92.6012 -256.156 0.
-4.95883 -13.7061 0.
-2.58787 -6.83894 0.
-1.06663 -2.83009 0.
-19.3625 -52.0493 0.
-117.002 -323.143 0.
-0.392859 -13.2522 0.
-64.9279 -179.081 0.
-0.185765 -23.9442 0.
-0.0081114 -6.63417 0.
-0.0818673 -3.77709 0.
-0.00043227 -0.774051 0.
-0.0320676 -0.792922 0.
-15.5278 -31.0483 0.
-1.24975 -2.56733 0.
-3.64681 -8.93091 0.
-32.3823 -70.6283 0.
-12.3566 -22.1061 0.
-18.7655 -48.9272 0.
-4.5593 -12.4692 0.
-3.29406 -9.08173 0.
-7.511 -14.4187 0.
-2.95507 -4.31136 0.
-5.89101 -13.203 0.
0.000163079 0.415106 0.
-0.0368124 -0.834454 0.
3.88944 10.6513 0.
-71.1481 -190.321 0.
9.11264 24.8716 0.
-0.0933227 -17.9746 0.
1.07406 2.97414 0.
5.43015 13.8681 0.
-1.43818 -3.67595 0.
1.51681 4.19869 0.
12.3714 33.777 0.
5.84226 15.905 0.
-152.493 -422.051 0.
-23.2279 -64.2993 0.
-9.86936 -27.1233 0.
-27.5642 -75.2934 0.
-7.88214 -21.2805 0.
12.5847 34.7485 0.
-137.065 -377.889 0.
5.67586 15.6634 0.
-297.862 -819.623 0.
-0.670135 -1.81419 0.
-7.99271 -21.7742 0.
13.9857 38.7212 0.
-14.9819 -41.4702 0.
-130.65 -359.23 0.
2.65918 7.35936 0.
2.17946 5.94671 0.
21.9235 60.2936 0.
11.6984 32.3537 0.
-281.285 -774.831 0.
24.0632 66.4588 0.
-1.46865 -4.06759 0.
-61.2146 -169.238 0.
15.1074 41.3076 0.
-22.0416 -59.6232 0.
-16.3261 -43.8044 0.
-12.1209 -32.0534 0.
-24.1269 -62.9914 0.
-1.04854 -2.77997 0.
-84.8638 -208.619 0.
-2.93054 -78.2525 0.
24.6404 65.8096 0.
-79.9936 -198.163 0.
32.6095 84.6896 0.
34.7879 81.9237 0.
-250.86 -634.016 0.
5.55629 14.7901 0.
29.6473 76.3894 0.
-1.03362 -87.2338 0.
-8.02122 -21.7295 0.
-0.780747 -65.0342 0.
-3.93056 -10.7841 0.
-37.384 -102.768 0.
-11.0654 -30.3715 0.
-0.0140405 -70.2492 0.
-23.7219 -65.3125 0.
24.7784 68.1496 0.
9.8301 27.2261 0.
21.5769 59.5067 0.
-0.000213299 -46.887 0.
-13.8181 -37.9932 0.
-14.8412 -41.1063 0.
-0.126654 -66.9836 0.
-8.20131 -22.7162 0.
-8.2213 -22.7252 0.
-30.2521 -83.7892 0.
-16.8863 -46.6561 0.
16.1593 44.6247 0.
-2.92059 -8.03424 0.
-6.0759 -16.486 0.
20.0782 54.9152 0.
-21.3247 -59.0625 0.
-0.0233002 -40.2679 0.
-0.522495 -1.44521 0.
-11.2718 -31.027 0.
6.54708 17.5786 0.
12.6404 34.9207 0.
-3.25252 -8.53438 0.
-0.87232 -38.4921 0.
-33.732 -90.8989 0.
-0.162352 -39.1317 0.
6.62072 17.0239 0.
-2.81482 -7.78838 0.
9.17215 24.7725 0.
2.63876 7.30819 0.
4.02777 10.4412 0.
-0.000212302 -0.370089 0.
-0.0041334 -1.24118 0.
-30.3394 -56.0572 0.
-8.07882 -9.04964 0.
-3.5141 -6.92576 0.
-26.1976 -57.6534 0.
-13.3967 -21.5645 0.
-16.4153 -45.0816 0.
-5.70932 -15.1885 0.
-30.4182 -76.0618 0.
-9.88725 -22.8523 0.
-12.1543 -26.9236 0.
-20.1883 -42.516 0.
0.000181619 0.784791 0.
-0.0128476 -0.538221 0.
5.34792 14.5415 0.
-2.27339 -34.7175 0.
-1.11007 -2.99148 0.
6.91081 18.8779 0.
4.37594 12.1192 0.
5.09715 12.8399 0.
15.0082 37.8961 0.
14.9373 41.3398 0.
4.20793 11.4631 0.
-12.4755 -33.8846 0.
-8.537 -23.6254 0.
-9.10251 -25.1175 0.
-11.337 -31.1348 0.
-25.2655 -68.9032 0.
6.02041 16.2149 0.
-5.27667 -14.5526 0.
-74.6819 -206.678 0.
1.61516 4.45112 0.
-2.22804 -6.05064 0.
19.3006 52.4179 0.
6.18453 16.855 0.
16.5462 45.8043 0.
1.44529 3.99996 0.
8.84307 24.3248 0.
-0.017142 -63.8704 0.
-0.0312546 -60.7926 0.
14.0612 38.8762 0.
-3.21874 -8.90992 0.
-64.3979 -177.405 0.
-16.234 -44.8327 0.
8.65619 23.9706 0.
-114.363 -316.176 0.
-15.5658 -42.4141 0.
-38.8643 -105.183 0.
23.3649 62.5107 0.
10.1031 27.361 0.
-37.0663 -96.1843 0.
-1.67401 -78.1456 0.
-7.15391 -18.5874 0.
-319.704 -797.144 0.
5.42895 14.2632 0.
31.5961 77.164 0.
11.4812 28.8554 0.
-297.948 -672.974 0.
27.7881 74.2055 0.
3.34003 8.79122 0.
-1.28534 -3.27098 0.
22.2723 61.5107 0.
24.5762 66.4938 0.
23.5535 63.2338 0.
-3.01367 -8.23156 0.
-119.618 -329.475 0.
-40.1053 -110.323 0.
12.7831 35.3985 0.
-26.6732 -73.3149 0.
-0.476296 -1.31914 0.
12.4746 34.5517 0.
-13.461 -37.1194 0.
-4.62096 -12.7914 0.
14.484 39.7727 0.
10.1898 27.9822 0.
-8.90801 -24.5191 0.
-2.39325 -6.62883 0.
21.5684 59.4542 0.
-56.1744 -155.579 0.
-116.674 -322.176 0.
2.0955 5.78294 0.
-9.57854 -26.3497 0.
16.6868 45.3438 0.
-38.1427 -104.252 0.
16.9089 46.772 0.
-0.0248167 -42.4451 0.
-40.0014 -110.571 0.
-0.850976 -40.5696 0.
-5.97075 -16.0656 0.
-17.6895 -48.8415 0.
4.1059 10.5592 0.
-0.992309 -36.7345 0.
-55.6559 -150.363 0.
-4.52145 -12.4157 0.
-30.4074 -76.7733 0.
17.7062 42.2955 0.
-0.171312 -12.784 0.
1.04686 2.88986 0.
0.825991 2.22817 0.
-13.5242 -34.1291 0.
-0.00115618 -0.705354 0.
-15.0275 -18.7136 0.
-6.16156 -6.56139 0.
-5.27664 -5.96102 0.
-11.595 -16.2585 0.
-10.3857 -13.8224 0.
-9.47464 -18.0597 0.
-4.8198 -13.166 0.
-6.78076 -14.4041 0.
-6.51585 -17.3559 0.
-8.56506 -22.3531 0.
-0.199102 -2.99942 0.
-7.20561 -18.2401 0.
-0.00109306 -12.4293 0.
-0.224789 -20.1977 0.
0.0122565 0.160907 0.
-23.8055 -63.3 0.
-13.8145 -37.4088 0.
-4.14254 -10.8814 0.
-6.89002 -17.1163 0.
13.5627 36.7739 0.
-41.3291 -112.692 0.
-46.5032 -126.389 0.
-16.0615 -43.5226 0.
-4.33618 -11.9816 0.
-26.204 -72.286 0.
14.8973 40.8896 0.
13.6936 36.5041 0.
-9.60854 -26.5508 0.
17.9579 49.464 0.
22.6123 60.4836 0.
-5.38128 -14.8094 0.
-5.34575 -14.46 0.
-2.99112 -8.1264 0.
-0.312914 -46.8268 0.
-6.79082 -18.796 0.
11.9233 32.9929 0.
-0.929984 -2.57145 0.
-0.00650057 -71.5505 0.
-8.84656 -24.4808 0.
-0.021283 -64.7918 0.
12.7846 35.4069 0.
3.51832 9.73934 0.
21.8643 60.3733 0.
-9.67047 -26.7772 0.
19.9235 55.0783 0.
-82.7037 -224.156 0.
-0.00544369 -56.7465 0.
-68.9549 -183.893 0.
-1.26556 -3.32386 0.
0.759666 2.03274 0.
-346.261 -851.205 0.
-36.1734 -93.6015 0.
-12.1766 -32.7134 0.
28.8716 74.6062 0.
14.4832 35.1091 0.
