# vtk DataFile Version 2.0
test grain
ASCII
DATASET UNSTRUCTURED_GRID
POINTS 5000 float
0.498591 0.000761144 0.
0.501033 0.000848228 0.
0.503376 0.000906154 0.
0.505688 0.000960464 0.
0.507762 0.000966709 0.
0.509836 0.000972995 0.
0.511893 0.000978621 0.
0.513925 0.000983207 0.
0.515957 0.000987815 0.
0.517974 0.000991071 0.
0.519982 0.000993628 0.
0.521991 0.000996193 0.
0.523993 0.000996908 0.
0.525995 0.000997386 0.
0.527996 0.000997835 0.
0.529997 0.000998039 0.
0.531998 0.000998243 0.
0.533998 0.000998461 0.
0.535999 0.000998708 0.
0.537999 0.000998955 0.
0.539999 0.000999095 0.
0.542 0.000999151 0.
0.544 0.000999206 0.
0.546 0.000999206 0.
0.548 0.000999189 0.
0.55 0.000999172 0.
0.552 0.000999163 0.
0.554 0.000999153 0.
0.556 0.000999154 0.
0.558 0.000999191 0.
0.56 0.000999228 0.
0.562 0.000999261 0.
0.564 0.000999289 0.
0.566 0.000999316 0.
0.568 0.000999313 0.
0.57 0.000999293 0.
0.572 0.000999274 0.
0.574 0.000999265 0.
0.576 0.000999257 0.
0.578 0.000999255 0.
0.58 0.000999302 0.
0.582 0.00099935 0.
0.584 0.000999383 0.
0.586 0.000999388 0.
0.588 0.000999393 0.
0.59 0.000999395 0.
0.592 0.000999395 0.
0.594 0.000999395 0.
0.596 0.00099937 0.
0.598 0.000999339 0.
0.6 0.000999308 0.
0.602 0.000999336 0.
0.604 0.000999365 0.
0.606 0.000999387 0.
0.608 0.000999387 0.
0.61 0.000999388 0.
0.612 0.000999382 0.
0.614 0.000999367 0.
0.616 0.000999352 0.
0.618 0.000999334 0.
0.62 0.000999315 0.
0.622 0.000999296 0.
0.624 0.000999284 0.
0.626 0.000999273 0.
0.628 0.000999265 0.
0.63 0.000999284 0.
0.632 0.000999303 0.
0.634 0.00099931 0.
0.636 0.000999292 0.
0.638 0.000999274 0.
0.64 0.00099924 0.
0.642 0.000999194 0.
0.644 0.000999147 0.
0.646 0.000999138 0.
0.648 0.000999139 0.
0.65 0.00099914 0.
0.652 0.000999177 0.
0.654 0.000999213 0.
0.656 0.000999218 0.
0.658001 0.000999115 0.
0.660001 0.000999011 0.
0.662001 0.000998774 0.
0.664002 0.000998369 0.
0.666002 0.000997964 0.
0.668003 0.000997696 0.
0.670005 0.000997496 0.
0.672006 0.000997296 0.
0.674008 0.000996938 0.
0.67601 0.000996563 0.
0.678014 0.000995721 0.
0.680029 0.000991313 0.
0.682043 0.000986924 0.
0.68407 0.000982429 0.
0.68612 0.000977631 0.
0.688169 0.000972856 0.
0.690265 0.000960417 0.
0.692391 0.000943751 0.
0.694516 0.000927342 0.
0.696971 0.000864667 0.
0.699446 0.000802525 0.
0.497743 0.00220698 0.
0.500326 0.00252022 0.
0.502776 0.00269567 0.
0.505229 0.00287451 0.
0.50742 0.00289857 0.
0.509601 0.00291785 0.
0.511742 0.00293539 0.
0.51381 0.00294926 0.
0.515879 0.0029632 0.
0.51792 0.00297311 0.
0.519947 0.00298081 0.
0.521973 0.00298853 0.
0.52398 0.00299072 0.
0.525984 0.00299215 0.
0.527987 0.0029935 0.
0.52999 0.00299412 0.
0.531993 0.00299473 0.
0.533995 0.00299538 0.
0.535996 0.00299612 0.
0.537998 0.00299686 0.
0.539998 0.00299729 0.
0.541999 0.00299745 0.
0.543999 0.00299762 0.
0.545999 0.00299762 0.
0.547999 0.00299757 0.
0.55 0.00299752 0.
0.551999 0.00299749 0.
0.553999 0.00299746 0.
0.555999 0.00299746 0.
0.557999 0.00299757 0.
0.559999 0.00299769 0.
0.562 0.00299778 0.
0.564 0.00299787 0.
0.566 0.00299795 0.
0.568 0.00299794 0.
0.57 0.00299788 0.
0.572 0.00299782 0.
0.574 0.00299779 0.
0.576 0.00299777 0.
0.578 0.00299777 0.
0.58 0.00299791 0.
0.582 0.00299805 0.
0.584 0.00299815 0.
0.586 0.00299816 0.
0.588 0.00299818 0.
0.59 0.00299819 0.
0.592 0.00299819 0.
0.594 0.00299818 0.
0.596 0.00299811 0.
0.598 0.00299802 0.
0.6 0.00299792 0.
0.602 0.00299801 0.
0.604 0.00299809 0.
0.606 0.00299816 0.
0.608 0.00299816 0.
0.61 0.00299816 0.
0.612 0.00299814 0.
0.614 0.0029981 0.
0.616 0.00299806 0.
0.618 0.002998 0.
0.62 0.00299795 0.
0.622 0.00299789 0.
0.624 0.00299785 0.
0.626 0.00299782 0.
0.628 0.0029978 0.
0.63 0.00299785 0.
0.632 0.00299791 0.
0.634 0.00299793 0.
0.636 0.00299788 0.
0.638001 0.00299782 0.
0.640001 0.00299772 0.
0.642001 0.00299758 0.
0.644001 0.00299744 0.
0.646001 0.00299741 0.
0.648001 0.00299742 0.
0.650001 0.00299742 0.
0.652001 0.00299753 0.
0.654001 0.00299764 0.
0.656001 0.00299765 0.
0.658002 0.00299734 0.
0.660002 0.00299703 0.
0.662003 0.00299632 0.
0.664005 0.0029951 0.
0.666007 0.00299389 0.
0.66801 0.00299309 0.
0.670015 0.00299249 0.
0.67202 0.00299189 0.
0.674025 0.00299081 0.
0.676031 0.00298968 0.
0.678041 0.00298704 0.
0.680083 0.00297373 0.
0.682124 0.00296047 0.
0.684185 0.00294703 0.
0.686281 0.00293252 0.
0.688376 0.00291809 0.
0.690586 0.00287631 0.
0.692846 0.00282463 0.
0.695137 0.00276172 0.
0.697689 0.0025643 0.
0.700237 0.00237589 0.
0.496864 0.00355283 0.
0.49957 0.00414071 0.
0.502139 0.00445396 0.
0.50472 0.00476292 0.
0.507058 0.00482826 0.
0.509351 0.00486113 0.
0.511589 0.00489152 0.
0.513694 0.00491484 0.
0.5158 0.00493826 0.
0.517866 0.00495502 0.
0.51991 0.0049679 0.
0.521955 0.00498081 0.
0.523966 0.00498451 0.
0.525973 0.00498691 0.
0.527979 0.00498917 0.
0.529984 0.00499019 0.
0.531988 0.00499121 0.
0.533992 0.0049923 0.
0.535994 0.00499354 0.
0.537996 0.00499477 0.
0.539997 0.00499548 0.
0.541998 0.00499575 0.
0.543998 0.00499603 0.
0.545999 0.00499603 0.
0.547999 0.00499594 0.
0.549999 0.00499586 0.
0.551999 0.00499581 0.
0.553999 0.00499577 0.
0.555999 0.00499577 0.
0.557999 0.00499596 0.
0.559999 0.00499614 0.
0.561999 0.00499631 0.
0.563999 0.00499644 0.
0.566 0.00499658 0.
0.568 0.00499656 0.
0.57 0.00499647 0.
0.572 0.00499637 0.
0.574 0.00499632 0.
0.576 0.00499628 0.
0.577999 0.00499628 0.
0.58 0.00499651 0.
0.582 0.00499675 0.
0.584 0.00499691 0.
0.586 0.00499694 0.
0.588 0.00499697 0.
0.59 0.00499698 0.
0.592 0.00499698 0.
0.594 0.00499697 0.
0.596 0.00499685 0.
0.598 0.0049967 0.
0.6 0.00499654 0.
0.602 0.00499668 0.
0.604 0.00499682 0.
0.606 0.00499693 0.
0.608 0.00499694 0.
0.61 0.00499694 0.
0.612 0.00499691 0.
0.614 0.00499683 0.
0.616 0.00499676 0.
0.618 0.00499667 0.
0.620001 0.00499658 0.
0.622001 0.00499648 0.
0.624001 0.00499642 0.
0.626 0.00499637 0.
0.628 0.00499633 0.
0.63 0.00499642 0.
0.632001 0.00499652 0.
0.634001 0.00499655 0.
0.636001 0.00499646 0.
0.638001 0.00499637 0.
0.640001 0.0049962 0.
0.642001 0.00499597 0.
0.644002 0.00499574 0.
0.646002 0.00499569 0.
0.648001 0.00499569 0.
0.650001 0.0049957 0.
0.652002 0.00499588 0.
0.654002 0.00499606 0.
0.656002 0.00499609 0.
0.658003 0.00499557 0.
0.660004 0.00499506 0.
0.662006 0.00499386 0.
0.664009 0.00499184 0.
0.666011 0.00498981 0.
0.668017 0.00498848 0.
0.670025 0.00498748 0.
0.672033 0.00498648 0.
0.674042 0.00498468 0.
0.676052 0.00498279 0.
0.678069 0.00497821 0.
0.680137 0.00495586 0.
0.682205 0.0049336 0.
0.684303 0.00491127 0.
0.686446 0.00488692 0.
0.688588 0.00486268 0.
0.690933 0.00478517 0.
0.693336 0.0046961 0.
0.695797 0.00455791 0.
0.698434 0.0042237 0.
0.701066 0.00388429 0.
0.496043 0.00482466 0.
0.498809 0.00554925 0.
0.501442 0.00598608 0.
0.504039 0.00634831 0.
0.506479 0.00651988 0.
0.508841 0.0066242 0.
0.511172 0.00672278 0.
0.513345 0.00676897 0.
0.51552 0.00681583 0.
0.517649 0.00685523 0.
0.519741 0.0068892 0.
0.521833 0.00692357 0.
0.523874 0.0069415 0.
0.525906 0.00695663 0.
0.527936 0.00697077 0.
0.529949 0.00697339 0.
0.531961 0.00697601 0.
0.533972 0.00697902 0.
0.535979 0.00698286 0.
0.537986 0.00698671 0.
0.539991 0.0069892 0.
0.541993 0.00699057 0.
0.543995 0.00699194 0.
0.545996 0.00699253 0.
0.547997 0.00699291 0.
0.549998 0.00699328 0.
0.551998 0.00699323 0.
0.553998 0.00699318 0.
0.555998 0.0069932 0.
0.557998 0.00699351 0.
0.559998 0.00699382 0.
0.561999 0.00699406 0.
0.563999 0.00699422 0.
0.565999 0.00699439 0.
0.567999 0.00699436 0.
0.569999 0.00699424 0.
0.572 0.00699412 0.
0.574 0.00699413 0.
0.575999 0.00699414 0.
0.577999 0.00699419 0.
0.579999 0.00699445 0.
0.581999 0.00699472 0.
0.584 0.00699492 0.
0.586 0.00699502 0.
0.588 0.00699512 0.
0.59 0.00699514 0.
0.592 0.0069951 0.
0.594 0.00699506 0.
0.596 0.00699491 0.
0.598 0.00699473 0.
0.6 0.00699455 0.
0.602 0.00699472 0.
0.604 0.0069949 0.
0.606 0.00699504 0.
0.608 0.00699507 0.
0.61 0.0069951 0.
0.612001 0.00699506 0.
0.614001 0.00699493 0.
0.616001 0.00699481 0.
0.618001 0.00699465 0.
0.620001 0.00699447 0.
0.622001 0.0069943 0.
0.624001 0.00699423 0.
0.626001 0.00699418 0.
0.628001 0.00699415 0.
0.630001 0.00699425 0.
0.632001 0.00699435 0.
0.634001 0.00699438 0.
0.636002 0.00699427 0.
0.638002 0.00699415 0.
0.640002 0.00699389 0.
0.642002 0.00699349 0.
0.644003 0.0069931 0.
0.646003 0.00699298 0.
0.648003 0.00699294 0.
0.650003 0.00699289 0.
0.652004 0.00699245 0.
0.654005 0.00699202 0.
0.656007 0.0069912 0.
0.65801 0.0069891 0.
0.660013 0.006987 0.
0.662019 0.00698338 0.
0.664029 0.0069779 0.
0.666039 0.00697244 0.
0.668054 0.00696915 0.
0.670071 0.00696685 0.
0.672088 0.00696456 0.
0.674133 0.00694661 0.
0.67618 0.00692752 0.
0.678238 0.00690396 0.
0.680359 0.00685737 0.
0.682478 0.00681133 0.
0.684648 0.0067566 0.
0.686871 0.0066932 0.
0.689094 0.0066298 0.
0.691521 0.00647609 0.
0.693973 0.0063191 0.
0.696513 0.00608363 0.
0.699167 0.00570577 0.
0.701838 0.00527806 0.
0.495328 0.00612241 0.
0.498069 0.00687522 0.
0.500725 0.00744668 0.
0.503336 0.00788437 0.
0.505865 0.0081763 0.
0.5083 0.0083591 0.
0.510721 0.00854229 0.
0.512974 0.00861622 0.
0.515225 0.00868825 0.
0.517424 0.00875204 0.
0.519565 0.00880805 0.
0.521709 0.00886471 0.
0.523781 0.0088976 0.
0.525838 0.0089257 0.
0.527893 0.00895229 0.
0.529914 0.00895652 0.
0.531934 0.00896075 0.
0.533952 0.00896568 0.
0.535965 0.00897215 0.
0.537977 0.00897863 0.
0.539984 0.0089829 0.
0.541988 0.00898537 0.
0.543992 0.00898783 0.
0.545994 0.00898903 0.
0.547996 0.00898986 0.
0.549997 0.00899069 0.
0.551997 0.00899064 0.
0.553997 0.00899059 0.
0.555997 0.00899064 0.
0.557997 0.00899106 0.
0.559998 0.00899149 0.
0.561998 0.00899181 0.
0.563998 0.008992 0.
0.565998 0.00899219 0.
0.567999 0.00899216 0.
0.569999 0.00899202 0.
0.571999 0.00899187 0.
0.573999 0.00899193 0.
0.575999 0.008992 0.
0.577999 0.0089921 0.
0.579999 0.00899239 0.
0.581999 0.00899268 0.
0.583999 0.00899293 0.
0.586 0.0089931 0.
0.588 0.00899327 0.
0.59 0.0089933 0.
0.592 0.00899322 0.
0.594 0.00899314 0.
0.596 0.00899296 0.
0.598 0.00899276 0.
0.6 0.00899256 0.
0.602 0.00899276 0.
0.604 0.00899297 0.
0.606 0.00899314 0.
0.608 0.0089932 0.
0.610001 0.00899325 0.
0.612001 0.0089932 0.
0.614001 0.00899303 0.
0.616001 0.00899285 0.
0.618001 0.00899262 0.
0.620001 0.00899237 0.
0.622002 0.00899212 0.
0.624001 0.00899205 0.
0.626001 0.008992 0.
0.628001 0.00899197 0.
0.630001 0.00899208 0.
0.632002 0.00899218 0.
0.634002 0.00899221 0.
0.636002 0.00899207 0.
0.638003 0.00899194 0.
0.640003 0.00899157 0.
0.642003 0.00899102 0.
0.644004 0.00899047 0.
0.646004 0.00899027 0.
0.648004 0.00899017 0.
0.650004 0.00899008 0.
0.652006 0.00898902 0.
0.654008 0.00898796 0.
0.656011 0.00898631 0.
0.658017 0.00898261 0.
0.660022 0.00897892 0.
0.662033 0.00897285 0.
0.66405 0.0089639 0.
0.666067 0.00895497 0.
0.668091 0.00894976 0.
0.670118 0.00894617 0.
0.672145 0.00894257 0.
0.674227 0.00890739 0.
0.676311 0.00887065 0.
0.678414 0.00882736 0.
0.680589 0.00875545 0.
0.682762 0.00868444 0.
0.685018 0.0085901 0.
0.687329 0.00848346 0.
0.689652 0.00836741 0.
0.692139 0.00813143 0.
0.694638 0.00789802 0.
0.697239 0.007557 0.
0.699898 0.00712373 0.
0.702582 0.0066291 0.
0.494667 0.00743038 0.
0.497384 0.00820281 0.
0.500054 0.00888545 0.
0.502689 0.00939224 0.
0.505291 0.00979801 0.
0.507796 0.0100517 0.
0.510288 0.0103038 0.
0.512618 0.010418 0.
0.51493 0.0105208 0.
0.517191 0.0106158 0.
0.519373 0.0106948 0.
0.521557 0.0107749 0.
0.523664 0.0108291 0.
0.52575 0.010878 0.
0.527834 0.0109254 0.
0.529865 0.0109317 0.
0.531896 0.010938 0.
0.533923 0.0109454 0.
0.535941 0.0109558 0.
0.53796 0.0109661 0.
0.539973 0.0109732 0.
0.54198 0.0109776 0.
0.543987 0.0109819 0.
0.54599 0.0109843 0.
0.547992 0.0109859 0.
0.549995 0.0109876 0.
0.551995 0.0109878 0.
0.553995 0.0109879 0.
0.555995 0.0109882 0.
0.557996 0.0109888 0.
0.559997 0.0109894 0.
0.561997 0.0109898 0.
0.563997 0.01099 0.
0.565998 0.0109902 0.
0.567998 0.0109902 0.
0.569999 0.0109901 0.
0.571999 0.01099 0.
0.573999 0.0109901 0.
0.575999 0.0109902 0.
0.577998 0.0109903 0.
0.579999 0.0109906 0.
0.581999 0.0109909 0.
0.583999 0.0109912 0.
0.585999 0.0109914 0.
0.588 0.0109916 0.
0.59 0.0109916 0.
0.592 0.0109916 0.
0.594 0.0109915 0.
0.596 0.0109913 0.
0.598 0.0109912 0.
0.6 0.010991 0.
0.602 0.0109912 0.
0.604 0.0109914 0.
0.606 0.0109915 0.
0.608001 0.0109916 0.
0.610001 0.0109916 0.
0.612001 0.0109916 0.
0.614001 0.0109914 0.
0.616001 0.0109912 0.
0.618002 0.0109909 0.
0.620002 0.0109906 0.
0.622002 0.0109903 0.
0.624002 0.0109902 0.
0.626002 0.0109901 0.
0.628001 0.0109901 0.
0.630002 0.0109902 0.
0.632002 0.0109902 0.
0.634003 0.0109902 0.
0.636003 0.0109901 0.
0.638003 0.0109899 0.
0.640004 0.0109894 0.
0.642005 0.0109886 0.
0.644006 0.0109878 0.
0.646006 0.0109873 0.
0.648007 0.010987 0.
0.650007 0.0109866 0.
0.652011 0.0109843 0.
0.654014 0.0109821 0.
0.656019 0.0109789 0.
0.658029 0.0109727 0.
0.660039 0.0109665 0.
0.662056 0.0109568 0.
0.664081 0.0109429 0.
0.666107 0.0109291 0.
0.668143 0.0109205 0.
0.670183 0.0109139 0.
0.672223 0.0109073 0.
0.674342 0.0108453 0.
0.676462 0.0107826 0.
0.678606 0.0107139 0.
0.680827 0.0106179 0.
0.683045 0.0105231 0.
0.685376 0.0103815 0.
0.687758 0.0102295 0.
0.690166 0.0100577 0.
0.692711 0.0097549 0.
0.695269 0.0094441 0.
0.697912 0.00901327 0.
0.700585 0.00852065 0.
0.703285 0.00798543 0.
0.494214 0.00880956 0.
0.496928 0.00958267 0.
0.499623 0.0103162 0.
0.502288 0.0108644 0.
0.504906 0.011323 0.
0.507425 0.0116413 0.
0.509926 0.0119548 0.
0.512298 0.0121315 0.
0.514644 0.0122871 0.
0.516948 0.0124338 0.
0.519159 0.0125398 0.
0.521373 0.0126472 0.
0.523517 0.0127308 0.
0.525638 0.0128105 0.
0.527758 0.0128895 0.
0.529801 0.0128983 0.
0.531844 0.0129071 0.
0.533883 0.0129178 0.
0.53591 0.0129334 0.
0.537936 0.012949 0.
0.539955 0.01296 0.
0.541966 0.0129671 0.
0.543978 0.0129742 0.
0.545983 0.0129781 0.
0.547987 0.0129811 0.
0.549991 0.0129841 0.
0.551992 0.0129846 0.
0.553993 0.0129852 0.
0.555994 0.0129858 0.
0.557995 0.0129866 0.
0.559996 0.0129874 0.
0.561996 0.012988 0.
0.563997 0.0129882 0.
0.565997 0.0129884 0.
0.567998 0.0129885 0.
0.569998 0.0129884 0.
0.571999 0.0129884 0.
0.573998 0.0129885 0.
0.575998 0.0129887 0.
0.577998 0.0129888 0.
0.579998 0.0129892 0.
0.581999 0.0129895 0.
0.583999 0.0129898 0.
0.585999 0.0129899 0.
0.587999 0.0129901 0.
0.59 0.0129901 0.
0.592 0.0129901 0.
0.594 0.0129901 0.
0.596 0.01299 0.
0.598 0.0129899 0.
0.6 0.0129898 0.
0.602 0.0129899 0.
0.604 0.0129901 0.
0.606 0.0129902 0.
0.608001 0.0129902 0.
0.610001 0.0129902 0.
0.612001 0.0129901 0.
0.614001 0.0129899 0.
0.616002 0.0129897 0.
0.618002 0.0129895 0.
0.620002 0.0129892 0.
0.622003 0.0129889 0.
0.624002 0.0129887 0.
0.626002 0.0129886 0.
0.628002 0.0129884 0.
0.630002 0.0129885 0.
0.632003 0.0129885 0.
0.634003 0.0129885 0.
0.636004 0.0129882 0.
0.638004 0.0129879 0.
0.640005 0.0129872 0.
0.642006 0.0129862 0.
0.644008 0.0129851 0.
0.646009 0.0129842 0.
0.648011 0.0129833 0.
0.650012 0.0129823 0.
0.652018 0.0129783 0.
0.654023 0.0129743 0.
0.656031 0.0129689 0.
0.658047 0.0129592 0.
0.660063 0.0129495 0.
0.662088 0.0129349 0.
0.664123 0.0129146 0.
0.666159 0.0128943 0.
0.668211 0.0128803 0.
0.670269 0.0128687 0.
0.672329 0.0128559 0.
0.674482 0.0127554 0.
0.676636 0.0126553 0.
0.67882 0.012553 0.
0.681074 0.0124296 0.
0.683325 0.0123079 0.
0.685691 0.0120992 0.
0.688092 0.0118846 0.
0.690529 0.0116489 0.
0.693083 0.0112984 0.
0.695661 0.0109335 0.
0.698324 0.0104624 0.
0.701031 0.00993402 0.
0.703769 0.00938838 0.
0.493877 0.010253 0.
0.49658 0.0109991 0.
0.499256 0.0117365 0.
0.50191 0.0123238 0.
0.504522 0.0128337 0.
0.507052 0.0132208 0.
0.509562 0.0135957 0.
0.511972 0.0138357 0.
0.514352 0.0140448 0.
0.516701 0.0142492 0.
0.518941 0.0143824 0.
0.521185 0.0145175 0.
0.523367 0.0146299 0.
0.525524 0.0147409 0.
0.52768 0.0148522 0.
0.529737 0.0148649 0.
0.531793 0.0148762 0.
0.533842 0.0148901 0.
0.535877 0.0149109 0.
0.537913 0.0149318 0.
0.539937 0.0149467 0.
0.541953 0.0149566 0.
0.543969 0.0149665 0.
0.545977 0.014972 0.
0.547982 0.0149763 0.
0.549987 0.0149805 0.
0.551989 0.0149815 0.
0.553991 0.0149824 0.
0.555992 0.0149834 0.
0.557994 0.0149844 0.
0.559995 0.0149855 0.
0.561995 0.0149862 0.
0.563996 0.0149864 0.
0.565997 0.0149866 0.
0.567997 0.0149867 0.
0.569998 0.0149868 0.
0.571998 0.0149868 0.
0.573998 0.014987 0.
0.575998 0.0149872 0.
0.577998 0.0149874 0.
0.579998 0.0149877 0.
0.581998 0.0149881 0.
0.583999 0.0149883 0.
0.585999 0.0149885 0.
0.587999 0.0149886 0.
0.59 0.0149887 0.
0.592 0.0149887 0.
0.594 0.0149888 0.
0.596 0.0149888 0.
0.598 0.0149887 0.
0.6 0.0149886 0.
0.602 0.0149887 0.
0.604 0.0149888 0.
0.606001 0.0149889 0.
0.608001 0.0149888 0.
0.610001 0.0149888 0.
0.612001 0.0149886 0.
0.614002 0.0149885 0.
0.616002 0.0149883 0.
0.618002 0.0149881 0.
0.620003 0.0149878 0.
0.622003 0.0149875 0.
0.624003 0.0149872 0.
0.626003 0.014987 0.
0.628002 0.0149868 0.
0.630003 0.0149868 0.
0.632003 0.0149868 0.
0.634004 0.0149867 0.
0.636005 0.0149864 0.
0.638005 0.014986 0.
0.640007 0.0149851 0.
0.642008 0.0149838 0.
0.64401 0.0149825 0.
0.646012 0.014981 0.
0.648014 0.0149796 0.
0.650017 0.0149781 0.
0.652024 0.0149723 0.
0.654032 0.0149665 0.
0.656043 0.0149589 0.
0.658065 0.0149457 0.
0.660087 0.0149325 0.
0.66212 0.0149129 0.
0.664165 0.0148861 0.
0.666211 0.0148593 0.
0.66828 0.01484 0.
0.670357 0.0148232 0.
0.672437 0.0148023 0.
0.674625 0.0146627 0.
0.676813 0.0145246 0.
0.679038 0.0143897 0.
0.681327 0.0142387 0.
0.683614 0.0140859 0.
0.68601 0.0138059 0.
0.688429 0.0135285 0.
0.690894 0.0132328 0.
0.693454 0.0128331 0.
0.69604 0.0124104 0.
0.698693 0.0119033 0.
0.701386 0.0113557 0.
0.704115 0.0108211 0.
0.493638 0.0117635 0.
0.496298 0.0124582 0.
0.498941 0.0131818 0.
0.50157 0.0137991 0.
0.504169 0.0143469 0.
0.506702 0.0147874 0.
0.509212 0.0152044 0.
0.511644 0.0154988 0.
0.514037 0.0157495 0.
0.516408 0.0159985 0.
0.518669 0.016155 0.
0.520931 0.0163128 0.
0.523142 0.0164538 0.
0.525324 0.016594 0.
0.527508 0.0167352 0.
0.529599 0.0167728 0.
0.531686 0.0168055 0.
0.533764 0.0168373 0.
0.53581 0.0168639 0.
0.537857 0.0168906 0.
0.539893 0.0169121 0.
0.541918 0.0169291 0.
0.543944 0.0169461 0.
0.545958 0.016956 0.
0.547967 0.0169636 0.
0.549977 0.0169712 0.
0.551981 0.0169736 0.
0.553984 0.016976 0.
0.555988 0.0169782 0.
0.55799 0.01698 0.
0.559992 0.0169817 0.
0.561993 0.016983 0.
0.563995 0.0169835 0.
0.565996 0.016984 0.
0.567996 0.0169842 0.
0.569997 0.0169844 0.
0.571998 0.0169845 0.
0.573997 0.0169847 0.
0.575997 0.016985 0.
0.577997 0.0169852 0.
0.579997 0.0169856 0.
0.581998 0.016986 0.
0.583998 0.0169863 0.
0.585999 0.0169865 0.
0.587999 0.0169867 0.
0.59 0.0169868 0.
0.592 0.0169869 0.
0.594 0.016987 0.
0.596 0.016987 0.
0.598 0.0169869 0.
0.6 0.0169869 0.
0.602001 0.016987 0.
0.604001 0.016987 0.
0.606001 0.0169871 0.
0.608001 0.016987 0.
0.610001 0.0169869 0.
0.612002 0.0169867 0.
0.614002 0.0169865 0.
0.616002 0.0169863 0.
0.618003 0.016986 0.
0.620003 0.0169857 0.
0.622004 0.0169853 0.
0.624003 0.016985 0.
0.626003 0.0169848 0.
0.628003 0.0169845 0.
0.630004 0.0169843 0.
0.632005 0.0169842 0.
0.634006 0.0169838 0.
0.636007 0.0169831 0.
0.638008 0.0169824 0.
0.64001 0.0169808 0.
0.642013 0.0169784 0.
0.644016 0.0169761 0.
0.646021 0.0169731 0.
0.648025 0.01697 0.
0.650031 0.0169667 0.
0.652044 0.0169564 0.
0.654057 0.0169461 0.
0.656076 0.0169329 0.
0.65811 0.0169107 0.
0.660145 0.0168886 0.
0.662191 0.0168612 0.
0.66425 0.016828 0.
0.666308 0.0167948 0.
0.66841 0.0167529 0.
0.670522 0.0167097 0.
0.672642 0.0166579 0.
0.674853 0.01649 0.
0.677062 0.0163234 0.
0.679316 0.016157 0.
0.681622 0.0159798 0.
0.683931 0.0157929 0.
0.686338 0.015471 0.
0.688763 0.015148 0.
0.691244 0.0148036 0.
0.693798 0.0143671 0.
0.696379 0.0138993 0.
0.699011 0.0133671 0.
0.701679 0.0128091 0.
0.704379 0.012292 0.
0.49346 0.0133152 0.
0.496075 0.0139608 0.
0.498678 0.0146636 0.
0.501274 0.0152964 0.
0.503847 0.0158636 0.
0.50637 0.0163408 0.
0.50887 0.0167886 0.
0.511313 0.0171326 0.
0.51371 0.0174224 0.
0.516091 0.0177139 0.
0.518378 0.0179048 0.
0.52066 0.0180919 0.
0.522903 0.018266 0.
0.525114 0.0184376 0.
0.527327 0.0186108 0.
0.529455 0.0186757 0.
0.531575 0.0187315 0.
0.533683 0.0187835 0.
0.535741 0.0188161 0.
0.5378 0.0188489 0.
0.539847 0.018877 0.
0.541883 0.0189012 0.
0.543919 0.0189255 0.
0.545939 0.0189398 0.
0.547953 0.0189508 0.
0.549967 0.0189618 0.
0.551973 0.0189657 0.
0.553978 0.0189694 0.
0.555983 0.018973 0.
0.557986 0.0189755 0.
0.559989 0.018978 0.
0.561992 0.0189798 0.
0.563993 0.0189805 0.
0.565994 0.0189813 0.
0.567995 0.0189817 0.
0.569996 0.0189819 0.
0.571997 0.0189821 0.
0.573997 0.0189824 0.
0.575997 0.0189827 0.
0.577996 0.0189831 0.
0.579997 0.0189835 0.
0.581998 0.0189838 0.
0.583998 0.0189842 0.
0.585999 0.0189845 0.
0.587999 0.0189848 0.
0.589999 0.018985 0.
0.592 0.0189851 0.
0.594 0.0189851 0.
0.596 0.0189852 0.
0.598 0.0189852 0.
0.6 0.0189852 0.
0.602001 0.0189852 0.
0.604001 0.0189853 0.
0.606001 0.0189853 0.
0.608001 0.0189851 0.
0.610001 0.018985 0.
0.612002 0.0189848 0.
0.614002 0.0189846 0.
0.616003 0.0189844 0.
0.618003 0.018984 0.
0.620004 0.0189835 0.
0.622004 0.0189831 0.
0.624004 0.0189828 0.
0.626004 0.0189825 0.
0.628004 0.0189823 0.
0.630005 0.0189819 0.
0.632006 0.0189815 0.
0.634007 0.0189809 0.
0.636009 0.0189798 0.
0.638011 0.0189788 0.
0.640014 0.0189764 0.
0.642018 0.0189731 0.
0.644023 0.0189697 0.
0.646029 0.0189652 0.
0.648037 0.0189603 0.
0.650044 0.0189553 0.
0.652063 0.0189404 0.
0.654083 0.0189255 0.
0.656109 0.0189064 0.
0.658157 0.018875 0.
0.660205 0.0188438 0.
0.662265 0.0188085 0.
0.664337 0.0187686 0.
0.666409 0.0187288 0.
0.668546 0.0186609 0.
0.670697 0.0185889 0.
0.672857 0.0185041 0.
0.675094 0.0183057 0.
0.677328 0.0181091 0.
0.679612 0.0179034 0.
0.681936 0.0176897 0.
0.684266 0.0174577 0.
0.686677 0.0171035 0.
0.689101 0.0167504 0.
0.691584 0.0163662 0.
0.694118 0.0159029 0.
0.69668 0.0154035 0.
0.699284 0.0148568 0.
0.701913 0.014298 0.
0.704569 0.0138002 0.
0.493314 0.0149021 0.
0.495884 0.0155012 0.
0.498446 0.0161766 0.
0.501 0.0168078 0.
0.503541 0.017385 0.
0.50605 0.0178931 0.
0.508542 0.0183705 0.
0.510995 0.0187621 0.
0.513396 0.0190909 0.
0.515786 0.019423 0.
0.518099 0.0196473 0.
0.520404 0.0198612 0.
0.522678 0.0200667 0.
0.524914 0.0202642 0.
0.52715 0.0204626 0.
0.529309 0.0205575 0.
0.531458 0.0206418 0.
0.533593 0.0207204 0.
0.535663 0.0207585 0.
0.537734 0.0207968 0.
0.539793 0.0208318 0.
0.541839 0.0208647 0.
0.543886 0.0208978 0.
0.545913 0.0209179 0.
0.547933 0.0209336 0.
0.549953 0.0209493 0.
0.551961 0.0209552 0.
0.553969 0.0209609 0.
0.555976 0.0209662 0.
0.55798 0.0209698 0.
0.559985 0.0209734 0.
0.561988 0.0209759 0.
0.563991 0.0209771 0.
0.565993 0.0209784 0.
0.567994 0.0209791 0.
0.569995 0.0209795 0.
0.571996 0.0209799 0.
0.573996 0.0209803 0.
0.575996 0.0209807 0.
0.577996 0.0209811 0.
0.579996 0.0209815 0.
0.581997 0.0209819 0.
0.583998 0.0209823 0.
0.585998 0.0209827 0.
0.587999 0.020983 0.
0.589999 0.0209833 0.
0.592 0.0209834 0.
0.594 0.0209836 0.
0.596 0.0209836 0.
0.598 0.0209837 0.
0.6 0.0209838 0.
0.602001 0.0209837 0.
0.604001 0.0209837 0.
0.606001 0.0209837 0.
0.608001 0.0209835 0.
0.610002 0.0209833 0.
0.612002 0.0209831 0.
0.614003 0.0209828 0.
0.616003 0.0209826 0.
0.618004 0.0209821 0.
0.620004 0.0209816 0.
0.622005 0.0209811 0.
0.624005 0.0209807 0.
0.626005 0.0209804 0.
0.628005 0.02098 0.
0.630006 0.0209793 0.
0.632008 0.0209786 0.
0.634009 0.0209775 0.
0.636012 0.0209758 0.
0.638015 0.0209742 0.
0.640019 0.0209708 0.
0.642025 0.0209661 0.
0.644032 0.0209615 0.
0.646041 0.0209546 0.
0.648052 0.0209472 0.
0.650063 0.0209395 0.
0.65209 0.0209188 0.
0.654116 0.0208981 0.
0.656152 0.0208717 0.
0.658212 0.0208295 0.
0.660272 0.0207877 0.
0.662346 0.0207444 0.
0.664432 0.0206984 0.
0.666518 0.0206525 0.
0.668685 0.0205522 0.
0.670867 0.0204467 0.
0.67306 0.0203281 0.
0.675321 0.0201071 0.
0.67758 0.0198871 0.
0.679894 0.0196412 0.
0.682236 0.0193923 0.
0.684588 0.0191199 0.
0.687003 0.0187346 0.
0.68943 0.0183512 0.
0.69191 0.0179275 0.
0.694423 0.0174381 0.
0.696961 0.0169142 0.
0.69953 0.0163648 0.
0.702117 0.0158154 0.
0.70473 0.0153377 0.
0.493198 0.0165317 0.
0.495728 0.0170801 0.
0.498259 0.0177241 0.
0.500785 0.0183501 0.
0.503303 0.0189343 0.
0.505802 0.0194648 0.
0.508294 0.0199655 0.
0.510753 0.0203884 0.
0.51316 0.020744 0.
0.515557 0.0210991 0.
0.517886 0.0213554 0.
0.520204 0.0215973 0.
0.522494 0.0218341 0.
0.524738 0.0220524 0.
0.526983 0.022272 0.
0.529163 0.0224039 0.
0.531332 0.022528 0.
0.53349 0.0226446 0.
0.535573 0.0226882 0.
0.537657 0.0227318 0.
0.539728 0.0227744 0.
0.541786 0.0228182 0.
0.543844 0.0228622 0.
0.54588 0.0228899 0.
0.547907 0.0229116 0.
0.549934 0.0229333 0.
0.551946 0.0229419 0.
0.553957 0.0229502 0.
0.555967 0.0229578 0.
0.557973 0.0229628 0.
0.55998 0.0229677 0.
0.561984 0.0229714 0.
0.563987 0.0229732 0.
0.56599 0.022975 0.
0.567992 0.0229762 0.
0.569993 0.0229771 0.
0.571995 0.0229779 0.
0.573995 0.0229784 0.
0.575995 0.0229788 0.
0.577995 0.0229793 0.
0.579996 0.0229797 0.
0.581997 0.0229802 0.
0.583997 0.0229806 0.
0.585998 0.022981 0.
0.587999 0.0229814 0.
0.589999 0.0229817 0.
0.592 0.022982 0.
0.594 0.0229822 0.
0.596 0.0229824 0.
0.598 0.0229825 0.
0.6 0.0229826 0.
0.602001 0.0229825 0.
0.604001 0.0229824 0.
0.606001 0.0229823 0.
0.608001 0.0229821 0.
0.610002 0.0229818 0.
0.612002 0.0229815 0.
0.614003 0.0229812 0.
0.616004 0.0229809 0.
0.618004 0.0229804 0.
0.620005 0.0229799 0.
0.622006 0.0229794 0.
0.624006 0.0229788 0.
0.626006 0.0229783 0.
0.628007 0.0229777 0.
0.630008 0.0229766 0.
0.63201 0.0229754 0.
0.634012 0.0229737 0.
0.636016 0.0229711 0.
0.63802 0.0229685 0.
0.640027 0.0229638 0.
0.642035 0.0229575 0.
0.644043 0.0229513 0.
0.646057 0.0229413 0.
0.648072 0.0229304 0.
0.650088 0.022919 0.
0.652124 0.0228909 0.
0.654159 0.022863 0.
0.656205 0.0228273 0.
0.658277 0.0227721 0.
0.660349 0.0227173 0.
0.662438 0.0226652 0.
0.66454 0.022613 0.
0.666642 0.0225608 0.
0.668828 0.0224156 0.
0.671024 0.0222651 0.
0.673235 0.0221066 0.
0.675508 0.0218662 0.
0.677778 0.0216275 0.
0.680106 0.0213491 0.
0.68246 0.0210698 0.
0.684824 0.0207641 0.
0.687244 0.0203619 0.
0.689677 0.0199582 0.
0.692156 0.0195065 0.
0.69466 0.0189954 0.
0.697183 0.0184536 0.
0.699729 0.0179005 0.
0.702286 0.0173616 0.
0.704864 0.0169052 0.
0.49313 0.0181961 0.
0.495623 0.0186945 0.
0.498123 0.0193036 0.
0.500625 0.0199201 0.
0.503127 0.0205092 0.
0.505611 0.0210523 0.
0.508083 0.0215628 0.
0.510528 0.0220053 0.
0.512935 0.0223889 0.
0.515332 0.0227702 0.
0.517673 0.0230591 0.
0.520003 0.0233296 0.
0.522309 0.0236 0.
0.524561 0.0238393 0.
0.526814 0.0240802 0.
0.529014 0.0242469 0.
0.531205 0.0244111 0.
0.533386 0.0245688 0.
0.535482 0.0246177 0.
0.537579 0.0246668 0.
0.539663 0.0247167 0.
0.541732 0.0247713 0.
0.543802 0.0248263 0.
0.545847 0.0248617 0.
0.547881 0.0248894 0.
0.549915 0.0249173 0.
0.55193 0.0249286 0.
0.553945 0.0249394 0.
0.555958 0.0249494 0.
0.557966 0.0249557 0.
0.559974 0.0249621 0.
0.56198 0.0249668 0.
0.563984 0.0249692 0.
0.565988 0.0249717 0.
0.56799 0.0249734 0.
0.569992 0.0249747 0.
0.571994 0.024976 0.
0.573994 0.0249765 0.
0.575994 0.024977 0.
0.577995 0.0249774 0.
0.579995 0.0249779 0.
0.581996 0.0249784 0.
0.583997 0.0249789 0.
0.585998 0.0249793 0.
0.587998 0.0249798 0.
0.589999 0.0249802 0.
0.592 0.0249805 0.
0.594 0.0249809 0.
0.596 0.0249811 0.
0.598 0.0249813 0.
0.6 0.0249814 0.
0.602001 0.0249813 0.
0.604001 0.0249812 0.
0.606001 0.024981 0.
0.608002 0.0249806 0.
0.610002 0.0249803 0.
0.612003 0.0249799 0.
0.614003 0.0249795 0.
0.616004 0.0249792 0.
0.618005 0.0249787 0.
0.620006 0.0249781 0.
0.622007 0.0249776 0.
0.624007 0.0249769 0.
0.626008 0.0249762 0.
0.628008 0.0249754 0.
0.63001 0.0249738 0.
0.632012 0.0249722 0.
0.634015 0.0249699 0.
0.63602 0.0249664 0.
0.638026 0.0249629 0.
0.640034 0.0249569 0.
0.642045 0.0249489 0.
0.644055 0.024941 0.
0.646073 0.0249279 0.
0.648093 0.0249135 0.
0.650113 0.0248983 0.
0.652158 0.0248629 0.
0.654202 0.0248276 0.
0.656258 0.0247825 0.
0.658342 0.0247142 0.
0.660426 0.0246464 0.
0.66253 0.0245858 0.
0.66465 0.0245273 0.
0.666768 0.0244681 0.
0.668972 0.0242753 0.
0.671182 0.0240795 0.
0.673412 0.0238836 0.
0.675696 0.0236239 0.
0.677977 0.0233649 0.
0.680317 0.0230515 0.
0.682678 0.0227417 0.
0.685049 0.0224054 0.
0.687466 0.0219859 0.
0.689895 0.0215632 0.
0.692356 0.0210951 0.
0.694839 0.0205747 0.
0.697344 0.0200244 0.
0.699869 0.0194687 0.
0.702398 0.0189394 0.
0.704941 0.0185015 0.
0.493136 0.0199129 0.
0.49559 0.020359 0.
0.498057 0.0209262 0.
0.500526 0.0215241 0.
0.502995 0.0221076 0.
0.505451 0.0226552 0.
0.507896 0.0231716 0.
0.510323 0.0236304 0.
0.512724 0.0240375 0.
0.515117 0.0244407 0.
0.517464 0.0247599 0.
0.519801 0.0250569 0.
0.522115 0.025355 0.
0.52437 0.0256067 0.
0.526625 0.0258599 0.
0.528838 0.0260547 0.
0.531039 0.0262504 0.
0.533235 0.0264415 0.
0.53535 0.0265046 0.
0.537466 0.0265676 0.
0.539568 0.0266306 0.
0.54165 0.0266964 0.
0.543732 0.0267625 0.
0.545788 0.0268085 0.
0.547833 0.026846 0.
0.549879 0.0268837 0.
0.5519 0.0269011 0.
0.55392 0.0269177 0.
0.555939 0.0269329 0.
0.557951 0.0269417 0.
0.559963 0.0269506 0.
0.561972 0.0269574 0.
0.563977 0.0269614 0.
0.565983 0.0269655 0.
0.567986 0.0269683 0.
0.569989 0.0269704 0.
0.571991 0.0269724 0.
0.573992 0.0269733 0.
0.575993 0.026974 0.
0.577993 0.0269747 0.
0.579994 0.0269754 0.
0.581995 0.026976 0.
0.583996 0.0269766 0.
0.585997 0.0269771 0.
0.587998 0.0269777 0.
0.589999 0.0269781 0.
0.591999 0.0269786 0.
0.594 0.026979 0.
0.596 0.0269793 0.
0.598 0.0269795 0.
0.6 0.0269797 0.
0.602001 0.0269796 0.
0.604001 0.0269794 0.
0.606001 0.0269792 0.
0.608002 0.0269787 0.
0.610002 0.0269783 0.
0.612003 0.0269778 0.
0.614004 0.0269773 0.
0.616005 0.0269769 0.
0.618006 0.0269762 0.
0.620007 0.0269755 0.
0.622008 0.0269748 0.
0.624009 0.0269737 0.
0.62601 0.0269727 0.
0.628011 0.0269714 0.
0.630014 0.0269687 0.
0.632017 0.026966 0.
0.634022 0.0269623 0.
0.636029 0.0269568 0.
0.638037 0.0269512 0.
0.640049 0.0269425 0.
0.642064 0.0269314 0.
0.644079 0.0269203 0.
0.646103 0.0269009 0.
0.64813 0.0268796 0.
0.650158 0.0268571 0.
0.652216 0.0268103 0.
0.654273 0.0267639 0.
0.656342 0.0267069 0.
0.658438 0.0266271 0.
0.660533 0.0265477 0.
0.662656 0.0264717 0.
0.664795 0.0263962 0.
0.666934 0.0263173 0.
0.669148 0.0260942 0.
0.671367 0.0258674 0.
0.673608 0.025642 0.
0.675894 0.0253678 0.
0.678181 0.0250932 0.
0.680525 0.0247532 0.
0.682887 0.0244151 0.
0.68526 0.0240521 0.
0.687669 0.0236185 0.
0.690088 0.0231793 0.
0.692527 0.0226986 0.
0.69498 0.0221746 0.
0.697451 0.0216262 0.
0.699939 0.0210785 0.
0.702427 0.0205715 0.
0.704925 0.0201603 0.
0.493194 0.0216714 0.
0.495597 0.0220668 0.
0.498018 0.0225858 0.
0.500446 0.023157 0.
0.502881 0.0237295 0.
0.505312 0.0242784 0.
0.507733 0.0247988 0.
0.510144 0.0252691 0.
0.512535 0.0256916 0.
0.514916 0.0261071 0.
0.51726 0.0264495 0.
0.51959 0.0267686 0.
0.521905 0.0270909 0.
0.524165 0.0273601 0.
0.526424 0.0276284 0.
0.52865 0.0278499 0.
0.530863 0.0280758 0.
0.533071 0.028299 0.
0.535209 0.0283827 0.
0.537347 0.0284628 0.
0.53947 0.0285415 0.
0.541564 0.0286189 0.
0.543659 0.0286966 0.
0.545728 0.0287537 0.
0.547784 0.0288014 0.
0.549841 0.0288494 0.
0.551869 0.0288731 0.
0.553896 0.0288957 0.
0.55592 0.0289162 0.
0.557936 0.0289275 0.
0.559951 0.0289389 0.
0.561963 0.0289478 0.
0.563971 0.0289536 0.
0.565978 0.0289593 0.
0.567983 0.0289632 0.
0.569986 0.028966 0.
0.571989 0.0289689 0.
0.57399 0.0289701 0.
0.575991 0.0289711 0.
0.577992 0.028972 0.
0.579994 0.0289728 0.
0.581995 0.0289736 0.
0.583996 0.0289743 0.
0.585997 0.0289749 0.
0.587998 0.0289755 0.
0.589998 0.0289761 0.
0.591999 0.0289766 0.
0.594 0.0289772 0.
0.596 0.0289775 0.
0.598 0.0289778 0.
0.6 0.028978 0.
0.602001 0.0289778 0.
0.604001 0.0289776 0.
0.606002 0.0289774 0.
0.608002 0.0289768 0.
0.610003 0.0289762 0.
0.612004 0.0289757 0.
0.614005 0.0289751 0.
0.616006 0.0289746 0.
0.618007 0.0289738 0.
0.620008 0.0289728 0.
0.62201 0.0289719 0.
0.624011 0.0289705 0.
0.626012 0.0289691 0.
0.628014 0.0289674 0.
0.630018 0.0289636 0.
0.632022 0.0289598 0.
0.634029 0.0289547 0.
0.636038 0.0289471 0.
0.638048 0.0289394 0.
0.640063 0.028928 0.
0.642083 0.0289137 0.
0.644103 0.0288994 0.
0.646134 0.0288735 0.
0.648168 0.0288451 0.
0.650204 0.0288148 0.
0.652275 0.0287562 0.
0.654346 0.0286979 0.
0.656429 0.0286285 0.
0.658537 0.0285367 0.
0.660645 0.0284455 0.
0.662789 0.0283503 0.
0.664949 0.0282534 0.
0.667111 0.0281484 0.
0.669338 0.0278979 0.
0.671567 0.0276446 0.
0.67382 0.0273903 0.
0.676106 0.027095 0.
0.678395 0.0267966 0.
0.680735 0.0264403 0.
0.683088 0.0260863 0.
0.685453 0.0257049 0.
0.687849 0.0252637 0.
0.690254 0.0248136 0.
0.69267 0.0243244 0.
0.695095 0.0237989 0.
0.697533 0.0232546 0.
0.699977 0.0227236 0.
0.702412 0.0222527 0.
0.704847 0.0218838 0.
0.49326 0.0234518 0.
0.495611 0.023801 0.
0.497988 0.0242732 0.
0.500381 0.0248151 0.
0.502787 0.0253741 0.
0.505192 0.0259196 0.
0.50759 0.02644 0.
0.509982 0.0269174 0.
0.512356 0.02735 0.
0.514723 0.0277751 0.
0.517061 0.0281387 0.
0.519387 0.0284801 0.
0.521701 0.0288261 0.
0.523967 0.0291129 0.
0.526232 0.0293951 0.
0.528471 0.0296414 0.
0.530693 0.0298957 0.
0.532915 0.0301464 0.
0.535074 0.0302514 0.
0.537232 0.0303494 0.
0.539373 0.030445 0.
0.541478 0.0305332 0.
0.543584 0.030622 0.
0.545664 0.0306904 0.
0.547731 0.0307492 0.
0.549799 0.0308084 0.
0.551834 0.0308395 0.
0.553867 0.0308689 0.
0.555898 0.0308955 0.
0.557917 0.03091 0.
0.559937 0.0309245 0.
0.561952 0.0309361 0.
0.563962 0.0309439 0.
0.565971 0.0309516 0.
0.567977 0.0309568 0.
0.569982 0.0309608 0.
0.571986 0.0309647 0.
0.573988 0.0309664 0.
0.575989 0.0309678 0.
0.577991 0.0309692 0.
0.579992 0.0309702 0.
0.581994 0.0309712 0.
0.583995 0.0309722 0.
0.585996 0.0309728 0.
0.587997 0.0309735 0.
0.589998 0.0309742 0.
0.591999 0.0309748 0.
0.594 0.0309755 0.
0.596 0.0309759 0.
0.598 0.0309762 0.
0.6 0.0309765 0.
0.602001 0.0309763 0.
0.604001 0.0309761 0.
0.606002 0.0309757 0.
0.608003 0.030975 0.
0.610003 0.0309743 0.
0.612004 0.0309736 0.
0.614005 0.0309729 0.
0.616007 0.0309722 0.
0.618008 0.0309712 0.
0.62001 0.03097 0.
0.622012 0.0309688 0.
0.624014 0.0309669 0.
0.626016 0.0309649 0.
0.628018 0.0309626 0.
0.630024 0.0309573 0.
0.632029 0.0309521 0.
0.634037 0.0309452 0.
0.63605 0.030935 0.
0.638063 0.0309248 0.
0.640082 0.03091 0.
0.642107 0.030892 0.
0.644132 0.030874 0.
0.64617 0.0308407 0.
0.648211 0.0308044 0.
0.650255 0.0307653 0.
0.652339 0.0306936 0.
0.654422 0.0306225 0.
0.656517 0.0305408 0.
0.658636 0.0304386 0.
0.660754 0.0303369 0.
0.662917 0.0302213 0.
0.665097 0.0301027 0.
0.66728 0.0299726 0.
0.66952 0.0296979 0.
0.67176 0.0294198 0.
0.674023 0.0291368 0.
0.676312 0.0288212 0.
0.678603 0.0285008 0.
0.680937 0.028128 0.
0.683282 0.0277586 0.
0.685637 0.0273614 0.
0.688013 0.0269151 0.
0.690398 0.0264592 0.
0.692794 0.0259664 0.
0.695194 0.025443 0.
0.697602 0.0249075 0.
0.700007 0.0243979 0.
0.702391 0.0239665 0.
0.704766 0.0236417 0.
0.493313 0.0252615 0.
0.495622 0.0255683 0.
0.497963 0.0259957 0.
0.500325 0.0265045 0.
0.502704 0.0270425 0.
0.50509 0.0275799 0.
0.50747 0.0280986 0.
0.509845 0.0285813 0.
0.512207 0.0290216 0.
0.514563 0.0294546 0.
0.516897 0.0298356 0.
0.519222 0.030194 0.
0.521536 0.0305548 0.
0.523812 0.0308562 0.
0.526085 0.0311507 0.
0.528333 0.0314167 0.
0.530562 0.0316914 0.
0.53279 0.0319633 0.
0.534959 0.0320944 0.
0.537125 0.0322161 0.
0.539277 0.0323336 0.
0.541389 0.0324333 0.
0.543503 0.0325337 0.
0.545593 0.0326149 0.
0.547671 0.0326868 0.
0.54975 0.0327592 0.
0.551793 0.0327991 0.
0.553833 0.0328363 0.
0.55587 0.0328702 0.
0.557894 0.0328886 0.
0.559919 0.0329071 0.
0.561938 0.032922 0.
0.56395 0.032932 0.
0.565962 0.0329421 0.
0.56797 0.0329492 0.
0.569976 0.0329546 0.
0.571982 0.03296 0.
0.573984 0.0329623 0.
0.575987 0.0329643 0.
0.577989 0.0329662 0.
0.579991 0.0329675 0.
0.581993 0.0329689 0.
0.583994 0.03297 0.
0.585995 0.0329708 0.
0.587997 0.0329716 0.
0.589998 0.0329724 0.
0.591998 0.0329732 0.
0.593999 0.032974 0.
0.596 0.0329745 0.
0.598 0.0329749 0.
0.6 0.0329753 0.
0.602001 0.0329749 0.
0.604002 0.0329746 0.
0.606002 0.0329742 0.
0.608003 0.0329733 0.
0.610004 0.0329725 0.
0.612005 0.0329716 0.
0.614006 0.0329707 0.
0.616008 0.0329699 0.
0.61801 0.0329686 0.
0.620012 0.032967 0.
0.622014 0.0329655 0.
0.624017 0.0329628 0.
0.62602 0.0329601 0.
0.628023 0.0329568 0.
0.630031 0.0329498 0.
0.632038 0.0329428 0.
0.634048 0.0329336 0.
0.636065 0.0329203 0.
0.638081 0.0329069 0.
0.640105 0.0328882 0.
0.642135 0.0328657 0.
0.644165 0.0328432 0.
0.646211 0.0328013 0.
0.648259 0.0327556 0.
0.650312 0.032706 0.
0.652407 0.0326187 0.
0.654502 0.0325322 0.
0.656608 0.0324371 0.
0.658734 0.0323251 0.
0.66086 0.0322137 0.
0.663033 0.032072 0.
0.66522 0.0319253 0.
0.667413 0.0317664 0.
0.669659 0.0314747 0.
0.671906 0.0311803 0.
0.674177 0.0308765 0.
0.67647 0.0305454 0.
0.678769 0.0302081 0.
0.681101 0.0298242 0.
0.68344 0.029443 0.
0.685788 0.0290331 0.
0.688152 0.028582 0.
0.690522 0.0281213 0.
0.6929 0.0276273 0.
0.695281 0.0271105 0.
0.697664 0.0265919 0.
0.700036 0.0261102 0.
0.702383 0.0257161 0.
0.70471 0.0254296 0.
0.493381 0.027097 0.
0.495653 0.0273641 0.
0.49796 0.0277446 0.
0.500295 0.0282178 0.
0.50265 0.0287333 0.
0.505014 0.0292602 0.
0.507376 0.0297756 0.
0.509735 0.0302612 0.
0.512085 0.0307077 0.
0.514429 0.0311461 0.
0.516757 0.0315384 0.
0.519073 0.031907 0.
0.521382 0.0322786 0.
0.523663 0.0325958 0.
0.525941 0.0329039 0.
0.528196 0.0331902 0.
0.530431 0.0334858 0.
0.532664 0.0337791 0.
0.534844 0.0339356 0.
0.537019 0.0340811 0.
0.53918 0.0342217 0.
0.5413 0.0343329 0.
0.543421 0.0344449 0.
0.545522 0.034539 0.
0.547611 0.034624 0.
0.549701 0.0347096 0.
0.551752 0.0347584 0.
0.553799 0.0348035 0.
0.555843 0.0348449 0.
0.557872 0.0348672 0.
0.559901 0.0348896 0.
0.561924 0.0349078 0.
0.563939 0.0349202 0.
0.565954 0.0349327 0.
0.567964 0.0349415 0.
0.569971 0.0349483 0.
0.571978 0.0349552 0.
0.573981 0.0349583 0.
0.575984 0.0349608 0.
0.577987 0.0349633 0.
0.579989 0.0349649 0.
0.581991 0.0349665 0.
0.583993 0.0349679 0.
0.585995 0.0349688 0.
0.587996 0.0349697 0.
0.589997 0.0349706 0.
0.591998 0.0349715 0.
0.593999 0.0349724 0.
0.596 0.034973 0.
0.598 0.0349735 0.
0.6 0.034974 0.
0.602001 0.0349736 0.
0.604002 0.0349732 0.
0.606002 0.0349727 0.
0.608003 0.0349717 0.
0.610004 0.0349706 0.
0.612006 0.0349696 0.
0.614007 0.0349686 0.
0.616009 0.0349675 0.
0.618011 0.0349659 0.
0.620014 0.034964 0.
0.622016 0.0349621 0.
0.62402 0.0349587 0.
0.626024 0.0349552 0.
0.628029 0.034951 0.
0.630038 0.0349423 0.
0.632047 0.0349335 0.
0.634059 0.034922 0.
0.636079 0.0349055 0.
0.638099 0.034889 0.
0.640128 0.0348663 0.
0.642163 0.0348393 0.
0.644199 0.0348124 0.
0.646252 0.0347617 0.
0.648308 0.0347067 0.
0.65037 0.0346462 0.
0.652477 0.0345433 0.
0.654583 0.0344412 0.
0.656699 0.0343329 0.
0.658834 0.0342112 0.
0.660967 0.03409 0.
0.663149 0.0339207 0.
0.665344 0.0337457 0.
0.667545 0.0335593 0.
0.669797 0.0332496 0.
0.672049 0.0329375 0.
0.674324 0.0326131 0.
0.676618 0.0322689 0.
0.678915 0.0319179 0.
0.681238 0.031526 0.
0.683566 0.0311374 0.
0.685905 0.0307207 0.
0.688257 0.0302661 0.
0.690615 0.0298009 0.
0.692978 0.029308 0.
0.69534 0.0288006 0.
0.697699 0.0283009 0.
0.700044 0.0278475 0.
0.702359 0.0274902 0.
0.704647 0.0272409 0.
0.493482 0.0289484 0.
0.495722 0.0291841 0.
0.497997 0.0295262 0.
0.500303 0.0299654 0.
0.502632 0.0304554 0.
0.504972 0.0309672 0.
0.507312 0.0314744 0.
0.509652 0.031957 0.
0.511985 0.0324055 0.
0.514314 0.0328472 0.
0.516631 0.033249 0.
0.518939 0.0336269 0.
0.521241 0.034008 0.
0.523522 0.0343392 0.
0.525802 0.0346596 0.
0.528059 0.0349627 0.
0.530295 0.0352732 0.
0.532529 0.0355806 0.
0.534717 0.0357618 0.
0.536899 0.0359316 0.
0.53907 0.0360962 0.
0.541197 0.0362147 0.
0.543325 0.0363336 0.
0.545435 0.0364387 0.
0.547534 0.0365373 0.
0.549634 0.0366367 0.
0.551694 0.0366974 0.
0.553749 0.0367533 0.
0.555801 0.0368049 0.
0.557836 0.0368321 0.
0.559871 0.0368594 0.
0.5619 0.0368825 0.
0.563919 0.0368993 0.
0.565939 0.0369163 0.
0.567952 0.0369281 0.
0.569961 0.0369372 0.
0.571971 0.0369463 0.
0.573976 0.0369508 0.
0.57598 0.0369547 0.
0.577984 0.0369584 0.
0.579987 0.0369606 0.
0.581989 0.0369628 0.
0.583992 0.0369647 0.
0.585993 0.0369659 0.
0.587995 0.0369671 0.
0.589996 0.0369683 0.
0.591998 0.0369693 0.
0.593999 0.0369704 0.
0.595999 0.0369711 0.
0.598 0.0369716 0.
0.6 0.0369722 0.
0.602001 0.0369717 0.
0.604002 0.0369712 0.
0.606003 0.0369706 0.
0.608004 0.0369693 0.
0.610005 0.0369681 0.
0.612007 0.0369668 0.
0.614009 0.0369653 0.
0.616011 0.0369639 0.
0.618014 0.0369616 0.
0.620017 0.036959 0.
0.622021 0.0369563 0.
0.624026 0.0369515 0.
0.626031 0.0369464 0.
0.628037 0.0369406 0.
0.630049 0.0369289 0.
0.632061 0.0369172 0.
0.634078 0.0369018 0.
0.636104 0.0368798 0.
0.638129 0.0368578 0.
0.640164 0.03683 0.
0.642205 0.0367981 0.
0.644246 0.0367663 0.
0.64631 0.0367035 0.
0.648376 0.036636 0.
0.650449 0.0365616 0.
0.652564 0.0364434 0.
0.654679 0.0363263 0.
0.656804 0.0362075 0.
0.658946 0.0360801 0.
0.661086 0.0359531 0.
0.663276 0.0357568 0.
0.665475 0.0355552 0.
0.667683 0.0353434 0.
0.669935 0.0350216 0.
0.672189 0.034697 0.
0.674463 0.0343548 0.
0.676754 0.0339981 0.
0.679048 0.0336351 0.
0.681358 0.033236 0.
0.683674 0.0328404 0.
0.686 0.032419 0.
0.688335 0.0319644 0.
0.690675 0.0315001 0.
0.693017 0.0310136 0.
0.695358 0.0305187 0.
0.697693 0.0300404 0.
0.70001 0.0296156 0.
0.702294 0.0292918 0.
0.704549 0.029074 0.
0.493612 0.0308147 0.
0.495821 0.0310274 0.
0.498065 0.0313387 0.
0.50034 0.031745 0.
0.502638 0.0322046 0.
0.50495 0.0326962 0.
0.507269 0.0331919 0.
0.509588 0.0336694 0.
0.511906 0.0341189 0.
0.51422 0.0345634 0.
0.516526 0.0349717 0.
0.518824 0.0353545 0.
0.521118 0.0357402 0.
0.523393 0.0360833 0.
0.525665 0.0364144 0.
0.527919 0.0367313 0.
0.530152 0.0370533 0.
0.532384 0.0373725 0.
0.53458 0.0375786 0.
0.536771 0.0377745 0.
0.538953 0.0379657 0.
0.541088 0.0380912 0.
0.543224 0.0382171 0.
0.545344 0.0383334 0.
0.547453 0.0384466 0.
0.549563 0.0385608 0.
0.551633 0.0386341 0.
0.553697 0.0387014 0.
0.555758 0.038764 0.
0.557799 0.0387963 0.
0.55984 0.0388287 0.
0.561875 0.0388567 0.
0.5639 0.0388781 0.
0.565924 0.0388996 0.
0.567941 0.0389146 0.
0.569952 0.038926 0.
0.571964 0.0389373 0.
0.57397 0.0389433 0.
0.575975 0.0389486 0.
0.57798 0.0389536 0.
0.579984 0.0389563 0.
0.581987 0.0389591 0.
0.58399 0.0389614 0.
0.585992 0.038963 0.
0.587994 0.0389646 0.
0.589996 0.0389659 0.
0.591997 0.0389671 0.
0.593998 0.0389683 0.
0.595999 0.0389691 0.
0.598 0.0389697 0.
0.6 0.0389703 0.
0.602001 0.0389698 0.
0.604002 0.0389692 0.
0.606003 0.0389685 0.
0.608005 0.038967 0.
0.610006 0.0389655 0.
0.612008 0.0389639 0.
0.61401 0.0389621 0.
0.616013 0.0389603 0.
0.618016 0.0389574 0.
0.620021 0.0389539 0.
0.622025 0.0389505 0.
0.624032 0.0389442 0.
0.626038 0.0389376 0.
0.628046 0.03893 0.
0.630061 0.0389153 0.
0.632076 0.0389007 0.
0.634097 0.0388813 0.
0.636128 0.0388536 0.
0.638159 0.038826 0.
0.6402 0.0387928 0.
0.642248 0.0387558 0.
0.644295 0.038719 0.
0.64637 0.0386432 0.
0.648447 0.0385624 0.
0.650532 0.0384729 0.
0.652656 0.0383384 0.
0.65478 0.0382051 0.
0.656914 0.0380756 0.
0.659064 0.0379425 0.
0.661212 0.0378091 0.
0.663409 0.0375848 0.
0.665614 0.0373568 0.
0.667827 0.0371206 0.
0.670074 0.0367866 0.
0.672322 0.0364508 0.
0.674592 0.0360977 0.
0.676875 0.035733 0.
0.679161 0.0353605 0.
0.681461 0.0349571 0.
0.683764 0.034557 0.
0.686077 0.0341334 0.
0.688394 0.0336799 0.
0.690714 0.033218 0.
0.693033 0.0327406 0.
0.695349 0.0322616 0.
0.697656 0.0318096 0.
0.699943 0.0314171 0.
0.702198 0.0311216 0.
0.704423 0.0309283 0.
0.493736 0.0326908 0.
0.49592 0.0328826 0.
0.498134 0.0331649 0.
0.500379 0.0335404 0.
0.502649 0.0339718 0.
0.504937 0.0344426 0.
0.507237 0.0349257 0.
0.50954 0.0353973 0.
0.511841 0.0358461 0.
0.514139 0.0362901 0.
0.516432 0.036701 0.
0.518719 0.0370861 0.
0.521002 0.0374746 0.
0.523269 0.0378284 0.
0.525533 0.0381701 0.
0.527784 0.038501 0.
0.530015 0.0388341 0.
0.532244 0.0391645 0.
0.534449 0.0393936 0.
0.536648 0.0396154 0.
0.538841 0.0398342 0.
0.540984 0.0399659 0.
0.543128 0.0400976 0.
0.545257 0.0402241 0.
0.547375 0.0403511 0.
0.549493 0.0404791 0.
0.551572 0.0405654 0.
0.553644 0.0406445 0.
0.555714 0.0407186 0.
0.55776 0.0407559 0.
0.559807 0.0407933 0.
0.561847 0.0408264 0.
0.563877 0.040853 0.
0.565907 0.0408798 0.
0.567927 0.0408985 0.
0.569941 0.0409127 0.
0.571955 0.0409269 0.
0.573963 0.0409346 0.
0.575969 0.0409415 0.
0.577976 0.0409479 0.
0.57998 0.0409514 0.
0.581984 0.0409549 0.
0.583988 0.0409578 0.
0.58599 0.0409598 0.
0.587993 0.0409618 0.
0.589995 0.0409634 0.
0.591996 0.0409648 0.
0.593998 0.0409662 0.
0.595999 0.0409671 0.
0.598 0.0409678 0.
0.6 0.0409686 0.
0.602002 0.0409679 0.
0.604003 0.0409672 0.
0.606004 0.0409663 0.
0.608005 0.0409645 0.
0.610007 0.0409628 0.
0.612009 0.0409608 0.
0.614012 0.0409584 0.
0.616015 0.0409561 0.
0.61802 0.0409524 0.
0.620025 0.040948 0.
0.62203 0.0409437 0.
0.624039 0.0409356 0.
0.626047 0.0409271 0.
0.628057 0.0409173 0.
0.630076 0.0408991 0.
0.632094 0.040881 0.
0.634119 0.040857 0.
0.636156 0.040823 0.
0.638193 0.0407892 0.
0.640239 0.0407508 0.
0.642292 0.0407093 0.
0.644344 0.0406679 0.
0.646429 0.0405775 0.
0.648517 0.0404824 0.
0.650612 0.0403779 0.
0.652744 0.040229 0.
0.654876 0.0400809 0.
0.65702 0.039942 0.
0.659177 0.0398039 0.
0.661334 0.039663 0.
0.663538 0.0394111 0.
0.665748 0.039157 0.
0.667966 0.0388979 0.
0.670208 0.0385524 0.
0.672452 0.0382046 0.
0.674717 0.0378414 0.
0.67699 0.03747 0.
0.679267 0.037091 0.
0.681555 0.0366863 0.
0.683846 0.036285 0.
0.686144 0.0358609 0.
0.688444 0.0354097 0.
0.690744 0.0349514 0.
0.693042 0.0344842 0.
0.695336 0.0340217 0.
0.697616 0.0335954 0.
0.699876 0.0332329 0.
0.702104 0.0329635 0.
0.704302 0.0327916 0.
0.493834 0.0345784 0.
0.495998 0.0347518 0.
0.498191 0.0350088 0.
0.500413 0.0353568 0.
0.502661 0.0357613 0.
0.50493 0.036211 0.
0.507211 0.0366789 0.
0.509496 0.0371409 0.
0.511783 0.0375863 0.
0.514068 0.0380286 0.
0.51635 0.0384415 0.
0.518629 0.0388289 0.
0.520904 0.0392199 0.
0.523166 0.0395831 0.
0.525426 0.0399344 0.
0.527676 0.0402758 0.
0.529907 0.0406155 0.
0.532137 0.0409524 0.
0.534344 0.0411991 0.
0.536546 0.0414392 0.
0.538742 0.041675 0.
0.540892 0.0418191 0.
0.543042 0.041963 0.
0.545178 0.0421032 0.
0.5473 0.0422441 0.
0.549423 0.0423861 0.
0.551509 0.0424869 0.
0.553589 0.0425793 0.
0.555666 0.0426666 0.
0.557718 0.0427091 0.
0.55977 0.0427516 0.
0.561816 0.0427903 0.
0.563851 0.0428231 0.
0.565886 0.042856 0.
0.56791 0.0428793 0.
0.569927 0.042897 0.
0.571945 0.0429147 0.
0.573954 0.0429245 0.
0.575962 0.0429332 0.
0.57797 0.0429414 0.
0.579976 0.0429457 0.
0.581981 0.0429501 0.
0.583985 0.0429538 0.
0.585988 0.0429562 0.
0.587991 0.0429587 0.
0.589993 0.0429607 0.
0.591995 0.0429624 0.
0.593997 0.0429641 0.
0.595998 0.0429651 0.
0.597999 0.042966 0.
0.6 0.0429669 0.
0.602002 0.042966 0.
0.604003 0.0429651 0.
0.606005 0.042964 0.
0.608007 0.0429619 0.
0.610009 0.0429598 0.
0.612011 0.0429573 0.
0.614015 0.0429543 0.
0.616019 0.0429513 0.
0.618024 0.0429466 0.
0.620031 0.0429411 0.
0.622037 0.0429357 0.
0.624048 0.0429254 0.
0.626058 0.0429146 0.
0.62807 0.0429023 0.
0.630093 0.0428799 0.
0.632115 0.0428575 0.
0.634145 0.042828 0.
0.636187 0.0427869 0.
0.638229 0.0427459 0.
0.640281 0.0427023 0.
0.642338 0.0426565 0.
0.644395 0.0426109 0.
0.646489 0.0425022 0.
0.648584 0.0423888 0.
0.650687 0.042267 0.
0.652822 0.0421071 0.
0.654957 0.041948 0.
0.657109 0.0417954 0.
0.659274 0.0416433 0.
0.661439 0.0414875 0.
0.663645 0.0412222 0.
0.665856 0.0409526 0.
0.668075 0.0406771 0.
0.670316 0.0403231 0.
0.672558 0.0399665 0.
0.67482 0.0395959 0.
0.677088 0.0392182 0.
0.679358 0.0388331 0.
0.681637 0.0384272 0.
0.683919 0.0380248 0.
0.686204 0.0376014 0.
0.688489 0.0371546 0.
0.690773 0.0367034 0.
0.693051 0.0362504 0.
0.695324 0.0358066 0.
0.697582 0.0354037 0.
0.699818 0.0350674 0.
0.702024 0.0348196 0.
0.704202 0.0346651 0.
0.493934 0.0364751 0.
0.496084 0.0366319 0.
0.498259 0.036868 0.
0.500462 0.0371914 0.
0.502688 0.0375694 0.
0.504938 0.0379956 0.
0.507201 0.0384464 0.
0.50947 0.0388981 0.
0.511743 0.0393401 0.
0.514017 0.039781 0.
0.516288 0.040195 0.
0.518557 0.0405837 0.
0.520823 0.0409756 0.
0.523078 0.0413441 0.
0.525331 0.0417009 0.
0.527577 0.0420499 0.
0.529805 0.0423964 0.
0.532033 0.0427403 0.
0.53424 0.0430029 0.
0.536444 0.0432603 0.
0.538641 0.0435137 0.
0.540798 0.0436716 0.
0.542956 0.0438278 0.
0.545099 0.0439817 0.
0.547225 0.0441366 0.
0.549352 0.0442927 0.
0.551446 0.0444079 0.
0.553533 0.0445138 0.
0.555618 0.0446145 0.
0.557675 0.0446622 0.
0.559733 0.0447099 0.
0.561784 0.0447541 0.
0.563825 0.0447931 0.
0.565865 0.0448321 0.
0.567893 0.0448601 0.
0.569913 0.0448813 0.
0.571934 0.0449026 0.
0.573945 0.0449145 0.
0.575955 0.0449249 0.
0.577965 0.0449349 0.
0.579971 0.0449401 0.
0.581977 0.0449453 0.
0.583982 0.0449498 0.
0.585986 0.0449527 0.
0.587989 0.0449556 0.
0.589992 0.044958 0.
0.591994 0.04496 0.
0.593996 0.0449619 0.
0.595998 0.0449631 0.
0.597999 0.0449641 0.
0.600001 0.0449651 0.
0.602002 0.0449641 0.
0.604004 0.0449631 0.
0.606005 0.0449617 0.
0.608008 0.0449593 0.
0.61001 0.0449569 0.
0.612013 0.0449539 0.
0.614018 0.0449502 0.
0.616022 0.0449465 0.
0.618029 0.0449408 0.
0.620036 0.0449343 0.
0.622044 0.0449277 0.
0.624056 0.0449153 0.
0.626069 0.0449022 0.
0.628084 0.0448873 0.
0.63011 0.0448606 0.
0.632136 0.044834 0.
0.63417 0.044799 0.
0.636218 0.0447506 0.
0.638266 0.0447024 0.
0.640323 0.0446537 0.
0.642385 0.0446037 0.
0.644447 0.0445538 0.
0.646548 0.0444263 0.
0.648652 0.0442945 0.
0.650762 0.0441558 0.
0.652901 0.0439848 0.
0.655039 0.0438146 0.
0.657198 0.0436479 0.
0.659371 0.043481 0.
0.661543 0.0433084 0.
0.663751 0.0430296 0.
0.665963 0.0427468 0.
0.668182 0.042457 0.
0.670418 0.0420947 0.
0.672657 0.0417298 0.
0.67491 0.0413555 0.
0.67717 0.0409756 0.
0.679432 0.0405872 0.
0.681701 0.040181 0.
0.683973 0.039778 0.
0.686245 0.0393558 0.
0.688516 0.0389137 0.
0.690786 0.0384698 0.
0.693047 0.0380314 0.
0.6953 0.0376076 0.
0.697535 0.0372296 0.
0.699749 0.036919 0.
0.701935 0.0366903 0.
0.704097 0.0365495 0.
0.494052 0.0383781 0.
0.496189 0.0385211 0.
0.498348 0.0387394 0.
0.500534 0.0390417 0.
0.502741 0.0393958 0.
0.504972 0.0398001 0.
0.507216 0.0402346 0.
0.509469 0.0406758 0.
0.511728 0.0411128 0.
0.513987 0.0415487 0.
0.516245 0.0419599 0.
0.518501 0.0423478 0.
0.520755 0.0427389 0.
0.523003 0.0431115 0.
0.525247 0.0434736 0.
0.527487 0.0438295 0.
0.529712 0.0441816 0.
0.531935 0.0445311 0.
0.534141 0.0448079 0.
0.536344 0.0450805 0.
0.538542 0.0453483 0.
0.540704 0.0455193 0.
0.542864 0.0456872 0.
0.545012 0.0458531 0.
0.547141 0.0460174 0.
0.54927 0.0461824 0.
0.551372 0.046312 0.
0.553467 0.0464331 0.
0.555561 0.0465497 0.
0.557623 0.0466017 0.
0.559686 0.0466538 0.
0.561743 0.0467034 0.
0.563788 0.0467496 0.
0.565834 0.046796 0.
0.567867 0.0468301 0.
0.569892 0.0468565 0.
0.571918 0.046883 0.
0.573932 0.0468982 0.
0.575944 0.0469117 0.
0.577956 0.0469245 0.
0.579964 0.046931 0.
0.581971 0.0469375 0.
0.583978 0.0469432 0.
0.585982 0.046947 0.
0.587987 0.0469508 0.
0.58999 0.0469539 0.
0.591993 0.0469563 0.
0.593995 0.0469587 0.
0.595997 0.0469601 0.
0.597999 0.0469613 0.
0.6 0.0469624 0.
0.602002 0.0469611 0.
0.604004 0.0469599 0.
0.606006 0.0469582 0.
0.608009 0.0469551 0.
0.610012 0.0469521 0.
0.612016 0.0469482 0.
0.614022 0.0469434 0.
0.616027 0.0469385 0.
0.618036 0.0469314 0.
0.620045 0.0469232 0.
0.622055 0.046915 0.
0.62407 0.046899 0.
0.626086 0.0468823 0.
0.628104 0.0468632 0.
0.630135 0.0468305 0.
0.632167 0.046798 0.
0.634206 0.0467564 0.
0.636259 0.0467012 0.
0.638312 0.0466462 0.
0.640376 0.0465901 0.
0.642445 0.0465328 0.
0.644514 0.0464753 0.
0.646623 0.0463325 0.
0.648733 0.0461855 0.
0.650849 0.0460329 0.
0.652989 0.0458542 0.
0.655129 0.0456762 0.
0.657291 0.0454966 0.
0.659467 0.0453162 0.
0.661645 0.0451284 0.
0.663852 0.0448382 0.
0.666062 0.0445436 0.
0.668281 0.0442406 0.
0.670512 0.0438712 0.
0.672745 0.0434992 0.
0.67499 0.0431222 0.
0.677239 0.0427408 0.
0.67949 0.042351 0.
0.681745 0.0419467 0.
0.684003 0.0415459 0.
0.686261 0.0411282 0.
0.688517 0.0406933 0.
0.690771 0.0402578 0.
0.693016 0.0398329 0.
0.69525 0.0394274 0.
0.697466 0.0390718 0.
0.699658 0.038784 0.
0.701827 0.038572 0.
0.703972 0.0384429 0.
0.494185 0.0402853 0.
0.496311 0.0404185 0.
0.498457 0.0406235 0.
0.500626 0.0409079 0.
0.502815 0.0412408 0.
0.505027 0.0416248 0.
0.507253 0.0420428 0.
0.509487 0.042471 0.
0.511728 0.0429001 0.
0.513971 0.043329 0.
0.516214 0.0437368 0.
0.518458 0.0441232 0.
0.520701 0.0445131 0.
0.52294 0.0448889 0.
0.525177 0.045255 0.
0.527409 0.0456153 0.
0.529628 0.0459723 0.
0.531846 0.0463267 0.
0.534049 0.0466145 0.
0.536248 0.0468978 0.
0.538443 0.0471766 0.
0.540606 0.0473617 0.
0.542767 0.0475422 0.
0.544918 0.0477204 0.
0.54705 0.0478929 0.
0.549183 0.048066 0.
0.551293 0.0482109 0.
0.553398 0.0483487 0.
0.555502 0.0484825 0.
0.55757 0.0485393 0.
0.559638 0.048596 0.
0.5617 0.0486511 0.
0.563751 0.048705 0.
0.565803 0.048759 0.
0.567841 0.0487996 0.
0.569871 0.0488312 0.
0.571901 0.048863 0.
0.573918 0.0488817 0.
0.575933 0.0488983 0.
0.577947 0.048914 0.
0.579956 0.0489219 0.
0.581966 0.0489297 0.
0.583974 0.0489365 0.
0.585979 0.0489412 0.
0.587984 0.048946 0.
0.589988 0.0489497 0.
0.591991 0.0489526 0.
0.593994 0.0489555 0.
0.595997 0.0489571 0.
0.597998 0.0489584 0.
0.6 0.0489596 0.
0.602003 0.0489582 0.
0.604005 0.0489567 0.
0.606007 0.0489547 0.
0.608011 0.0489509 0.
0.610014 0.0489472 0.
0.612019 0.0489425 0.
0.614026 0.0489365 0.
0.616033 0.0489305 0.
0.618043 0.0489219 0.
0.620054 0.0489121 0.
0.622066 0.0489022 0.
0.624084 0.0488826 0.
0.626103 0.048862 0.
0.628125 0.0488387 0.
0.630162 0.0487998 0.
0.632198 0.048761 0.
0.634243 0.0487127 0.
0.636302 0.0486505 0.
0.638359 0.0485885 0.
0.640431 0.0485241 0.
0.642508 0.0484581 0.
0.644586 0.0483914 0.
0.646702 0.0482333 0.
0.64882 0.0480715 0.
0.650942 0.0479055 0.
0.653085 0.0477194 0.
0.655227 0.047534 0.
0.65739 0.0473413 0.
0.659564 0.047147 0.
0.661741 0.0469443 0.
0.663945 0.0466451 0.
0.666153 0.0463422 0.
0.668368 0.0460298 0.
0.670593 0.0456557 0.
0.67282 0.0452786 0.
0.675057 0.0448998 0.
0.677295 0.0445174 0.
0.679535 0.0441267 0.
0.681777 0.0437248 0.
0.68402 0.0433266 0.
0.686262 0.0429142 0.
0.688501 0.0424885 0.
0.690737 0.0420642 0.
0.692963 0.0416551 0.
0.695178 0.0412671 0.
0.697376 0.0409308 0.
0.69955 0.0406626 0.
0.701704 0.040466 0.
0.703837 0.0403473 0.
0.49431 0.0421953 0.
0.496428 0.0423196 0.
0.498563 0.042513 0.
0.500719 0.0427808 0.
0.502892 0.043094 0.
0.505087 0.0434595 0.
0.507293 0.0438624 0.
0.509509 0.0442781 0.
0.511735 0.0446988 0.
0.513962 0.0451211 0.
0.516193 0.0455254 0.
0.518426 0.0459095 0.
0.520658 0.046297 0.
0.522887 0.0466735 0.
0.525113 0.0470406 0.
0.527336 0.0474033 0.
0.529549 0.0477647 0.
0.53176 0.0481235 0.
0.533961 0.0484218 0.
0.536156 0.0487158 0.
0.538347 0.0490057 0.
0.540511 0.0492041 0.
0.542674 0.0493972 0.
0.544827 0.0495878 0.
0.546963 0.049768 0.
0.5491 0.0499486 0.
0.551218 0.0501072 0.
0.553332 0.0502607 0.
0.555444 0.0504103 0.
0.557517 0.0504727 0.
0.55959 0.0505347 0.
0.561657 0.0505959 0.
0.563713 0.050657 0.
0.56577 0.0507182 0.
0.567813 0.0507652 0.
0.569847 0.0508027 0.
0.571882 0.0508403 0.
0.573902 0.0508629 0.
0.575919 0.0508829 0.
0.577936 0.050902 0.
0.579947 0.0509113 0.
0.581958 0.0509206 0.
0.583968 0.0509288 0.
0.585974 0.0509346 0.
0.587981 0.0509404 0.
0.589986 0.0509449 0.
0.591989 0.0509484 0.
0.593993 0.0509519 0.
0.595996 0.0509538 0.
0.597998 0.0509552 0.
0.6 0.0509567 0.
0.602003 0.0509549 0.
0.604006 0.0509531 0.
0.606009 0.0509507 0.
0.608013 0.0509461 0.
0.610017 0.0509416 0.
0.612024 0.0509358 0.
0.614032 0.0509285 0.
0.61604 0.0509211 0.
0.618052 0.0509108 0.
0.620066 0.0508992 0.
0.622079 0.0508876 0.
0.624101 0.0508638 0.
0.626123 0.050839 0.
0.628148 0.050811 0.
0.63019 0.0507655 0.
0.632232 0.0507202 0.
0.634282 0.0506652 0.
0.636345 0.0505963 0.
0.638407 0.0505278 0.
0.640485 0.0504548 0.
0.64257 0.05038 0.
0.644655 0.0503036 0.
0.646778 0.0501314 0.
0.648903 0.0499558 0.
0.651031 0.0497775 0.
0.653177 0.0495846 0.
0.655322 0.0493923 0.
0.657486 0.0491861 0.
0.659659 0.048978 0.
0.661834 0.0487611 0.
0.664036 0.048453 0.
0.666241 0.0481414 0.
0.66845 0.0478203 0.
0.670667 0.0474436 0.
0.672887 0.0470643 0.
0.675113 0.0466851 0.
0.677341 0.0463031 0.
0.679569 0.0459131 0.
0.681799 0.0455146 0.
0.68403 0.0451197 0.
0.686257 0.0447125 0.
0.68848 0.0442955 0.
0.690698 0.0438818 0.
0.692905 0.0434875 0.
0.695102 0.0431161 0.
0.697283 0.0427978 0.
0.699442 0.0425481 0.
0.701584 0.042366 0.
0.703708 0.042257 0.
0.494417 0.0441079 0.
0.496528 0.0442249 0.
0.498654 0.0444082 0.
0.5008 0.0446623 0.
0.502959 0.0449597 0.
0.505138 0.04531 0.
0.50733 0.0456979 0.
0.509531 0.0461002 0.
0.511744 0.046512 0.
0.513958 0.0469261 0.
0.516177 0.0473252 0.
0.518399 0.0477062 0.
0.520622 0.0480909 0.
0.522842 0.048468 0.
0.525059 0.0488365 0.
0.527275 0.0492013 0.
0.529484 0.0495668 0.
0.531691 0.0499303 0.
0.533889 0.050237 0.
0.53608 0.0505383 0.
0.538269 0.0508353 0.
0.540434 0.0510448 0.
0.542597 0.0512479 0.
0.544752 0.0514481 0.
0.546892 0.0516338 0.
0.549033 0.0518201 0.
0.551155 0.0519915 0.
0.553271 0.0521599 0.
0.555387 0.0523247 0.
0.557465 0.0523963 0.
0.559542 0.0524667 0.
0.561614 0.052536 0.
0.563674 0.0526037 0.
0.565733 0.0526717 0.
0.567781 0.0527256 0.
0.56982 0.0527697 0.
0.57186 0.0528139 0.
0.573883 0.0528411 0.
0.575904 0.0528652 0.
0.577924 0.0528881 0.
0.579937 0.0528991 0.
0.58195 0.0529101 0.
0.583961 0.0529198 0.
0.585969 0.0529269 0.
0.587976 0.052934 0.
0.589982 0.0529395 0.
0.591987 0.0529436 0.
0.593991 0.0529478 0.
0.595995 0.05295 0.
0.597998 0.0529517 0.
0.600001 0.0529534 0.
0.602004 0.0529512 0.
0.604007 0.0529491 0.
0.606011 0.0529462 0.
0.608016 0.0529407 0.
0.610022 0.0529352 0.
0.612029 0.0529281 0.
0.614039 0.0529191 0.
0.616049 0.0529101 0.
0.618063 0.0528979 0.
0.620079 0.0528843 0.
0.622095 0.0528707 0.
0.62412 0.0528422 0.
0.626145 0.0528125 0.
0.628174 0.052779 0.
0.630221 0.0527262 0.
0.632268 0.0526736 0.
0.634323 0.0526114 0.
0.63639 0.0525362 0.
0.638456 0.0524612 0.
0.640538 0.0523784 0.
0.642626 0.0522931 0.
0.644715 0.0522052 0.
0.646841 0.0520184 0.
0.648969 0.0518282 0.
0.651101 0.0516391 0.
0.65325 0.0514425 0.
0.655397 0.0512462 0.
0.657562 0.0510295 0.
0.659735 0.0508102 0.
0.661911 0.0505814 0.
0.66411 0.0502672 0.
0.666312 0.0499495 0.
0.668517 0.0496212 0.
0.670728 0.0492414 0.
0.672941 0.0488599 0.
0.67516 0.0484807 0.
0.677379 0.0480988 0.
0.679598 0.04771 0.
0.681817 0.0473162 0.
0.684036 0.0469261 0.
0.68625 0.0465255 0.
0.688459 0.0461176 0.
0.690664 0.0457144 0.
0.692856 0.0453345 0.
0.695037 0.0449787 0.
0.697204 0.0446753 0.
0.69935 0.0444405 0.
0.701482 0.0442702 0.
0.703597 0.04417 0.
0.494524 0.046024 0.
0.49663 0.0461342 0.
0.498749 0.0463094 0.
0.500884 0.0465525 0.
0.503032 0.0468365 0.
0.505198 0.0471721 0.
0.507377 0.0475446 0.
0.509566 0.0479336 0.
0.511766 0.0483363 0.
0.513969 0.0487425 0.
0.516177 0.0491365 0.
0.51839 0.0495146 0.
0.520602 0.0498968 0.
0.522814 0.0502738 0.
0.525023 0.0506424 0.
0.527231 0.0510076 0.
0.529433 0.0513762 0.
0.531632 0.0517428 0.
0.533823 0.0520558 0.
0.53601 0.0523628 0.
0.538193 0.0526659 0.
0.540358 0.0528853 0.
0.542522 0.0530975 0.
0.544677 0.0533073 0.
0.546821 0.0534991 0.
0.548965 0.0536915 0.
0.551091 0.0538753 0.
0.553211 0.0540587 0.
0.55533 0.0542386 0.
0.557412 0.0543196 0.
0.559494 0.0543984 0.
0.561571 0.054476 0.
0.563634 0.0545504 0.
0.565697 0.0546251 0.
0.567749 0.0546859 0.
0.569793 0.0547366 0.
0.571838 0.0547874 0.
0.573865 0.0548192 0.
0.575888 0.0548474 0.
0.577911 0.0548742 0.
0.579926 0.0548868 0.
0.581941 0.0548995 0.
0.583954 0.0549108 0.
0.585963 0.0549192 0.
0.587972 0.0549276 0.
0.589979 0.0549341 0.
0.591984 0.0549389 0.
0.593989 0.0549437 0.
0.595993 0.0549463 0.
0.597997 0.0549482 0.
0.600001 0.0549501 0.
0.602005 0.0549476 0.
0.604008 0.0549451 0.
0.606013 0.0549416 0.
0.608019 0.0549352 0.
0.610026 0.0549287 0.
0.612034 0.0549203 0.
0.614046 0.0549097 0.
0.616057 0.054899 0.
0.618074 0.054885 0.
0.620092 0.0548694 0.
0.622111 0.0548538 0.
0.624139 0.0548206 0.
0.626168 0.0547859 0.
0.6282 0.0547469 0.
0.630252 0.0546867 0.
0.632304 0.0546268 0.
0.634364 0.0545575 0.
0.636435 0.0544758 0.
0.638505 0.0543944 0.
0.64059 0.0543017 0.
0.642682 0.0542059 0.
0.644774 0.0541064 0.
0.646904 0.0539049 0.
0.649034 0.0537002 0.
0.65117 0.0535002 0.
0.653322 0.0532995 0.
0.655472 0.0530992 0.
0.657637 0.0528723 0.
0.659809 0.0526431 0.
0.661983 0.0524042 0.
0.664175 0.0520849 0.
0.66637 0.0517626 0.
0.668568 0.0514296 0.
0.670772 0.0510486 0.
0.672977 0.0506656 0.
0.675189 0.0502868 0.
0.677399 0.0499057 0.
0.67961 0.0495187 0.
0.681819 0.0491292 0.
0.684028 0.0487441 0.
0.68623 0.0483499 0.
0.688426 0.0479512 0.
0.690618 0.0475587 0.
0.692797 0.0471928 0.
0.694966 0.0468523 0.
0.69712 0.0465621 0.
0.699256 0.0463395 0.
0.701379 0.0461784 0.
0.703489 0.0460848 0.
0.494644 0.0479435 0.
0.496745 0.0480469 0.
0.498859 0.0482153 0.
0.500985 0.0484492 0.
0.503122 0.0487217 0.
0.505277 0.0490453 0.
0.507444 0.0494046 0.
0.50962 0.0497819 0.
0.511809 0.0501756 0.
0.514001 0.050573 0.
0.516199 0.0509609 0.
0.518399 0.0513355 0.
0.5206 0.051714 0.
0.5228 0.0520889 0.
0.524999 0.0524561 0.
0.527198 0.0528205 0.
0.52939 0.0531912 0.
0.531581 0.0535602 0.
0.533766 0.0538789 0.
0.535946 0.0541909 0.
0.538125 0.0544995 0.
0.540289 0.054728 0.
0.54245 0.0549491 0.
0.544605 0.0551674 0.
0.54675 0.0553641 0.
0.548895 0.0555613 0.
0.551023 0.055755 0.
0.553143 0.0559501 0.
0.555262 0.0561414 0.
0.55735 0.056233 0.
0.559436 0.0563216 0.
0.561517 0.0564079 0.
0.563584 0.056487 0.
0.56565 0.0565662 0.
0.567707 0.0566333 0.
0.569756 0.0566914 0.
0.571806 0.0567498 0.
0.573837 0.0567877 0.
0.575865 0.0568215 0.
0.577892 0.0568538 0.
0.57991 0.0568685 0.
0.581927 0.0568833 0.
0.583943 0.0568967 0.
0.585954 0.0569071 0.
0.587965 0.0569175 0.
0.589974 0.0569254 0.
0.59198 0.0569313 0.
0.593987 0.0569372 0.
0.595992 0.0569402 0.
0.597996 0.0569424 0.
0.6 0.0569445 0.
0.602006 0.0569414 0.
0.604011 0.0569382 0.
0.606016 0.0569339 0.
0.608025 0.056926 0.
0.610033 0.0569182 0.
0.612043 0.0569079 0.
0.614058 0.0568948 0.
0.616072 0.0568817 0.
0.618091 0.0568654 0.
0.620112 0.0568476 0.
0.622133 0.0568297 0.
0.624166 0.05679 0.
0.6262 0.0567486 0.
0.628237 0.0567025 0.
0.630295 0.0566347 0.
0.632352 0.0565672 0.
0.634416 0.0564917 0.
0.63649 0.0564056 0.
0.638563 0.0563198 0.
0.640653 0.0562175 0.
0.642747 0.0561111 0.
0.644843 0.0559999 0.
0.646973 0.055787 0.
0.649103 0.0555705 0.
0.65124 0.0553616 0.
0.653391 0.0551577 0.
0.655543 0.0549542 0.
0.657707 0.0547177 0.
0.659876 0.0544789 0.
0.662047 0.0542305 0.
0.664232 0.0539069 0.
0.66642 0.0535806 0.
0.668611 0.0532436 0.
0.670805 0.0528622 0.
0.673001 0.0524792 0.
0.675201 0.0521026 0.
0.677401 0.0517239 0.
0.679601 0.0513398 0.
0.681799 0.0509552 0.
0.683997 0.0505746 0.
0.686188 0.0501879 0.
0.688372 0.0497989 0.
0.690553 0.049417 0.
0.692721 0.0490631 0.
0.694877 0.0487355 0.
0.697021 0.0484557 0.
0.699148 0.0482429 0.
0.701263 0.0480888 0.
0.703367 0.0480001 0.
0.494778 0.0498657 0.
0.496876 0.0499631 0.
0.498984 0.0501264 0.
0.501103 0.0503535 0.
0.503231 0.0506175 0.
0.505376 0.0509316 0.
0.50753 0.0512791 0.
0.509692 0.0516452 0.
0.511868 0.0520285 0.
0.514046 0.0524158 0.
0.51623 0.0527963 0.
0.518417 0.0531669 0.
0.520605 0.0535419 0.
0.522794 0.0539148 0.
0.524983 0.0542807 0.
0.527172 0.0546442 0.
0.529357 0.0550166 0.
0.531539 0.0553876 0.
0.533718 0.0557107 0.
0.535893 0.0560265 0.
0.538066 0.0563389 0.
0.540226 0.0565741 0.
0.542384 0.056801 0.
0.544537 0.0570259 0.
0.546679 0.0572273 0.
0.548821 0.0574292 0.
0.550948 0.0576318 0.
0.55307 0.0578375 0.
0.55519 0.0580395 0.
0.557283 0.0581427 0.
0.559375 0.0582419 0.
0.561461 0.0583378 0.
0.563531 0.0584215 0.
0.565601 0.0585053 0.
0.567663 0.0585789 0.
0.569718 0.0586448 0.
0.571773 0.058711 0.
0.573809 0.0587554 0.
0.575841 0.058795 0.
0.577872 0.0588331 0.
0.579893 0.0588499 0.
0.581913 0.0588668 0.
0.583931 0.0588823 0.
0.585945 0.0588948 0.
0.587958 0.0589072 0.
0.589968 0.0589167 0.
0.591976 0.0589237 0.
0.593984 0.0589307 0.
0.59599 0.0589342 0.
0.597995 0.0589365 0.
0.6 0.0589389 0.
0.602007 0.0589351 0.
0.604013 0.0589312 0.
0.60602 0.0589261 0.
0.60803 0.0589168 0.
0.61004 0.0589075 0.
0.612053 0.0588953 0.
0.614069 0.0588797 0.
0.616086 0.0588642 0.
0.618108 0.0588455 0.
0.620132 0.0588254 0.
0.622156 0.0588053 0.
0.624194 0.0587586 0.
0.626233 0.0587102 0.
0.628276 0.0586566 0.
0.630339 0.0585807 0.
0.632401 0.0585052 0.
0.63447 0.0584232 0.
0.636548 0.0583329 0.
0.638625 0.0582428 0.
0.640718 0.0581304 0.
0.642817 0.0580132 0.
0.644918 0.0578901 0.
0.647046 0.0576667 0.
0.649176 0.0574398 0.
0.651311 0.0572227 0.
0.653458 0.0570143 0.
0.655606 0.0568064 0.
0.657767 0.0565633 0.
0.659933 0.0563186 0.
0.662101 0.0560638 0.
0.66428 0.0557376 0.
0.66646 0.0554085 0.
0.668644 0.0550685 0.
0.67083 0.0546864 0.
0.673017 0.0543033 0.
0.675207 0.053929 0.
0.677395 0.0535528 0.
0.679583 0.0531721 0.
0.681768 0.0527925 0.
0.683952 0.0524171 0.
0.68613 0.0520388 0.
0.688301 0.0516607 0.
0.690469 0.0512897 0.
0.692624 0.0509464 0.
0.694769 0.0506296 0.
0.696902 0.0503574 0.
0.699022 0.0501519 0.
0.701131 0.050003 0.
0.703232 0.0499178 0.
0.494912 0.0517896 0.
0.497006 0.0518816 0.
0.49911 0.0520406 0.
0.501222 0.0522618 0.
0.503341 0.0525184 0.
0.505474 0.0528238 0.
0.507615 0.0531605 0.
0.509763 0.0535165 0.
0.511926 0.0538898 0.
0.514091 0.0542671 0.
0.516263 0.0546408 0.
0.518439 0.0550082 0.
0.520615 0.05538 0.
0.522794 0.0557507 0.
0.524972 0.056115 0.
0.527151 0.056477 0.
0.529327 0.056849 0.
0.531501 0.0572195 0.
0.533673 0.0575454 0.
0.535842 0.0578641 0.
0.53801 0.0581798 0.
0.540166 0.0584211 0.
0.54232 0.0586538 0.
0.54447 0.0588854 0.
0.54661 0.0590914 0.
0.548749 0.059298 0.
0.550877 0.059509 0.
0.552999 0.0597251 0.
0.555121 0.0599372 0.
0.557219 0.0600516 0.
0.559315 0.0601612 0.
0.561406 0.0602666 0.
0.563479 0.0603543 0.
0.565553 0.0604421 0.
0.567619 0.0605216 0.
0.569678 0.0605949 0.
0.571738 0.0606684 0.
0.573779 0.0607197 0.
0.575816 0.0607658 0.
0.577852 0.0608103 0.
0.579874 0.0608293 0.
0.581897 0.0608483 0.
0.583918 0.0608659 0.
0.585933 0.0608806 0.
0.587949 0.0608953 0.
0.589962 0.0609065 0.
0.591971 0.0609148 0.
0.59398 0.0609231 0.
0.595987 0.060927 0.
0.597994 0.0609296 0.
0.600001 0.0609322 0.
0.602008 0.0609275 0.
0.604016 0.0609229 0.
0.606025 0.0609168 0.
0.608037 0.0609059 0.
0.610049 0.0608949 0.
0.612064 0.0608807 0.
0.614083 0.0608624 0.
0.616103 0.0608443 0.
0.618127 0.0608233 0.
0.620154 0.0608011 0.
0.622181 0.0607789 0.
0.624224 0.0607245 0.
0.626267 0.0606684 0.
0.628315 0.060607 0.
0.630383 0.0605237 0.
0.63245 0.0604407 0.
0.634523 0.060353 0.
0.636604 0.0602589 0.
0.638684 0.0601651 0.
0.640782 0.0600427 0.
0.642885 0.059915 0.
0.64499 0.0597802 0.
0.647118 0.0595467 0.
0.649246 0.0593097 0.
0.651379 0.0590848 0.
0.653523 0.0588719 0.
0.655667 0.0586594 0.
0.657826 0.0584098 0.
0.659989 0.0581592 0.
0.662153 0.0578987 0.
0.664325 0.0575709 0.
0.666498 0.0572405 0.
0.668674 0.0568994 0.
0.67085 0.0565191 0.
0.673028 0.0561375 0.
0.675207 0.0557659 0.
0.677383 0.055392 0.
0.67956 0.0550143 0.
0.681733 0.054639 0.
0.683906 0.0542683 0.
0.686072 0.0538976 0.
0.688231 0.0535301 0.
0.690387 0.0531698 0.
0.692528 0.0528363 0.
0.694661 0.052529 0.
0.696785 0.0522634 0.
0.698896 0.0520645 0.
0.701 0.0519206 0.
0.703097 0.0518382 0.
0.495031 0.0537158 0.
0.497122 0.0538028 0.
0.49922 0.0539582 0.
0.501325 0.0541741 0.
0.503437 0.0544244 0.
0.505561 0.0547231 0.
0.507691 0.0550512 0.
0.509829 0.0553987 0.
0.511981 0.0557627 0.
0.514134 0.0561308 0.
0.516295 0.0564981 0.
0.51846 0.056861 0.
0.520626 0.0572284 0.
0.522795 0.0575962 0.
0.524963 0.0579588 0.
0.527134 0.0583186 0.
0.529303 0.0586898 0.
0.53147 0.0590599 0.
0.533636 0.0593884 0.
0.535799 0.0597094 0.
0.537961 0.0600276 0.
0.540114 0.0602744 0.
0.542266 0.060512 0.
0.544415 0.0607487 0.
0.546553 0.0609581 0.
0.548691 0.0611679 0.
0.550818 0.0613854 0.
0.552942 0.0616094 0.
0.555065 0.0618294 0.
0.557164 0.061955 0.
0.559261 0.0620754 0.
0.561354 0.0621908 0.
0.563429 0.062282 0.
0.565504 0.0623734 0.
0.567573 0.0624585 0.
0.569636 0.0625388 0.
0.571699 0.0626195 0.
0.573745 0.0626787 0.
0.575787 0.0627328 0.
0.577829 0.062785 0.
0.579854 0.062806 0.
0.581879 0.0628271 0.
0.583902 0.062847 0.
0.58592 0.0628642 0.
0.587938 0.0628815 0.
0.589953 0.0628947 0.
0.591964 0.0629044 0.
0.593976 0.0629142 0.
0.595985 0.0629186 0.
0.597993 0.0629214 0.
0.600001 0.0629242 0.
0.602011 0.0629186 0.
0.60402 0.0629129 0.
0.606031 0.0629056 0.
0.608046 0.0628929 0.
0.61006 0.0628802 0.
0.612078 0.0628635 0.
0.6141 0.0628424 0.
0.616122 0.0628213 0.
0.618149 0.0627981 0.
0.620178 0.0627739 0.
0.622207 0.0627498 0.
0.624256 0.0626861 0.
0.626305 0.0626207 0.
0.628358 0.0625504 0.
0.630428 0.0624601 0.
0.632498 0.0623701 0.
0.634574 0.0622773 0.
0.636655 0.0621802 0.
0.638737 0.0620832 0.
0.640836 0.0619497 0.
0.642941 0.06181 0.
0.645048 0.0616638 0.
0.647176 0.0614248 0.
0.649304 0.0611817 0.
0.651437 0.0609507 0.
0.653578 0.0607338 0.
0.65572 0.0605171 0.
0.657876 0.0602624 0.
0.660036 0.0600068 0.
0.662197 0.0597413 0.
0.664362 0.0594121 0.
0.666529 0.0590806 0.
0.668697 0.0587387 0.
0.670866 0.0583603 0.
0.673035 0.0579808 0.
0.675205 0.0576129 0.
0.677371 0.0572423 0.
0.679538 0.0568683 0.
0.6817 0.0564976 0.
0.683862 0.0561315 0.
0.686017 0.0557679 0.
0.688165 0.0554099 0.
0.690311 0.0550592 0.
0.692442 0.0547334 0.
0.694566 0.0544336 0.
0.696682 0.0541735 0.
0.698787 0.053981 0.
0.700886 0.0538426 0.
0.702978 0.0537631 0.
0.495149 0.0556448 0.
0.497235 0.0557278 0.
0.499329 0.05588 0.
0.501429 0.0560915 0.
0.503534 0.056337 0.
0.50565 0.0566305 0.
0.507772 0.0569508 0.
0.509902 0.0572904 0.
0.512044 0.0576451 0.
0.514187 0.0580042 0.
0.516337 0.0583647 0.
0.518492 0.0587231 0.
0.520649 0.059086 0.
0.522808 0.0594511 0.
0.524967 0.0598122 0.
0.527129 0.06017 0.
0.529289 0.0605404 0.
0.531449 0.0609096 0.
0.533607 0.0612393 0.
0.535764 0.0615607 0.
0.537919 0.0618793 0.
0.540068 0.0621298 0.
0.542217 0.0623712 0.
0.544363 0.0626121 0.
0.546498 0.0628247 0.
0.548634 0.0630375 0.
0.550761 0.0632614 0.
0.552885 0.0634934 0.
0.555008 0.0637215 0.
0.557109 0.0638581 0.
0.559208 0.0639893 0.
0.561302 0.0641149 0.
0.563379 0.0642097 0.
0.565455 0.0643046 0.
0.567527 0.0643952 0.
0.569594 0.0644827 0.
0.571661 0.0645706 0.
0.573712 0.0646376 0.
0.575759 0.0646995 0.
0.577806 0.0647596 0.
0.579833 0.0647828 0.
0.58186 0.0648059 0.
0.583886 0.064828 0.
0.585907 0.0648478 0.
0.587928 0.0648676 0.
0.589944 0.0648828 0.
0.591958 0.064894 0.
0.593971 0.0649053 0.
0.595982 0.0649102 0.
0.597992 0.0649132 0.
0.600002 0.0649162 0.
0.602013 0.0649096 0.
0.604025 0.064903 0.
0.606038 0.0648945 0.
0.608055 0.0648799 0.
0.610072 0.0648654 0.
0.612092 0.0648464 0.
0.614117 0.0648223 0.
0.616142 0.0647983 0.
0.618171 0.064773 0.
0.620203 0.0647468 0.
0.622234 0.0647206 0.
0.624288 0.0646475 0.
0.626342 0.0645729 0.
0.6284 0.0644936 0.
0.630474 0.0643963 0.
0.632547 0.0642993 0.
0.634624 0.0642015 0.
0.636707 0.0641014 0.
0.638789 0.0640014 0.
0.640891 0.0638563 0.
0.642997 0.0637047 0.
0.645106 0.063547 0.
0.647233 0.0633025 0.
0.649361 0.0630537 0.
0.651493 0.0628172 0.
0.653632 0.0625961 0.
0.655772 0.062375 0.
0.657923 0.0621169 0.
0.660077 0.0618584 0.
0.662232 0.0615901 0.
0.664391 0.061261 0.
0.666552 0.0609296 0.
0.668713 0.0605878 0.
0.670873 0.0602115 0.
0.673033 0.0598341 0.
0.675193 0.0594698 0.
0.677349 0.059102 0.
0.679505 0.0587312 0.
0.681657 0.0583651 0.
0.683809 0.0580038 0.
0.685955 0.0576475 0.
0.688093 0.0572989 0.
0.690229 0.0569573 0.
0.692353 0.0566383 0.
0.694469 0.0563446 0.
0.696579 0.0560884 0.
0.698679 0.0559016 0.
0.700772 0.0557686 0.
0.702859 0.0556924 0.
0.495281 0.0575762 0.
0.497363 0.0576559 0.
0.499452 0.0578059 0.
0.501546 0.058014 0.
0.503646 0.0582557 0.
0.505755 0.0585454 0.
0.507869 0.058859 0.
0.50999 0.0591916 0.
0.512122 0.0595379 0.
0.514255 0.0598892 0.
0.516394 0.0602443 0.
0.51854 0.0605982 0.
0.520685 0.0609565 0.
0.522835 0.0613181 0.
0.524983 0.0616763 0.
0.527135 0.0620303 0.
0.529286 0.0623983 0.
0.531435 0.0627654 0.
0.533585 0.0630954 0.
0.535734 0.0634167 0.
0.537882 0.0637353 0.
0.540027 0.0639892 0.
0.542172 0.0642342 0.
0.544315 0.0644791 0.
0.546447 0.0646949 0.
0.548579 0.0649107 0.
0.550704 0.06514 0.
0.552826 0.0653785 0.
0.554947 0.0656126 0.
0.557048 0.0657596 0.
0.559147 0.0659012 0.
0.561242 0.0660366 0.
0.56332 0.0661335 0.
0.565398 0.0662304 0.
0.567471 0.0663244 0.
0.569541 0.0664165 0.
0.571611 0.0665089 0.
0.573667 0.0665841 0.
0.57572 0.066655 0.
0.577772 0.0667243 0.
0.579803 0.0667505 0.
0.581834 0.0667767 0.
0.583863 0.0668017 0.
0.585887 0.066824 0.
0.587911 0.0668464 0.
0.58993 0.0668638 0.
0.591947 0.066877 0.
0.593964 0.0668902 0.
0.595977 0.0668957 0.
0.59799 0.0668989 0.
0.600003 0.0669022 0.
0.602018 0.0668942 0.
0.604033 0.0668862 0.
0.606049 0.0668762 0.
0.608069 0.0668594 0.
0.610089 0.0668426 0.
0.612113 0.0668212 0.
0.614141 0.0667947 0.
0.616168 0.0667683 0.
0.618202 0.0667389 0.
0.620238 0.0667083 0.
0.622275 0.0666777 0.
0.624333 0.066596 0.
0.626392 0.0665129 0.
0.628454 0.0664261 0.
0.630529 0.0663247 0.
0.632604 0.0662236 0.
0.634682 0.0661225 0.
0.636765 0.0660202 0.
0.638848 0.065918 0.
0.640951 0.0657619 0.
0.643057 0.065599 0.
0.645166 0.0654309 0.
0.647291 0.0651822 0.
0.649416 0.064929 0.
0.651546 0.0646873 0.
0.653683 0.0644622 0.
0.65582 0.0642367 0.
0.657965 0.0639755 0.
0.660113 0.0637144 0.
0.662262 0.0634435 0.
0.664414 0.0631149 0.
0.666566 0.0627843 0.
0.668718 0.0624438 0.
0.670869 0.0620711 0.
0.67302 0.0616976 0.
0.675169 0.0613381 0.
0.677315 0.0609741 0.
0.67946 0.060607 0.
0.681601 0.0602455 0.
0.683742 0.0598885 0.
0.685877 0.059538 0.
0.688006 0.0591971 0.
0.690132 0.0588634 0.
0.692248 0.0585502 0.
0.694357 0.0582619 0.
0.696461 0.0580086 0.
0.698556 0.0578264 0.
0.700645 0.0576983 0.
0.702728 0.0576245 0.
0.495429 0.05951 0.
0.497508 0.0595873 0.
0.499594 0.0597372 0.
0.501682 0.0599428 0.
0.503775 0.060182 0.
0.505876 0.0604691 0.
0.507982 0.0607769 0.
0.510094 0.0611028 0.
0.512214 0.0614418 0.
0.514335 0.0617866 0.
0.516463 0.0621361 0.
0.518597 0.0624844 0.
0.52073 0.0628373 0.
0.522868 0.063195 0.
0.525006 0.0635501 0.
0.527147 0.0639003 0.
0.529288 0.0642662 0.
0.531428 0.0646316 0.
0.533571 0.0649616 0.
0.535713 0.0652821 0.
0.537855 0.0656001 0.
0.539994 0.0658564 0.
0.542133 0.0661036 0.
0.54427 0.0663507 0.
0.546398 0.0665691 0.
0.548525 0.0667874 0.
0.550646 0.0670207 0.
0.552764 0.0672638 0.
0.554881 0.0675024 0.
0.556983 0.0676594 0.
0.559083 0.0678113 0.
0.561179 0.067957 0.
0.563258 0.0680556 0.
0.565338 0.0681542 0.
0.567413 0.0682513 0.
0.569486 0.0683478 0.
0.57156 0.0684446 0.
0.573621 0.0685283 0.
0.575679 0.0686087 0.
0.577737 0.0686877 0.
0.579772 0.0687173 0.
0.581807 0.0687468 0.
0.583839 0.0687749 0.
0.585866 0.0687998 0.
0.587893 0.0688248 0.
0.589916 0.0688445 0.
0.591936 0.0688596 0.
0.593956 0.0688748 0.
0.595973 0.0688809 0.
0.597989 0.0688844 0.
0.600005 0.0688878 0.
0.602023 0.0688785 0.
0.604041 0.0688692 0.
0.60606 0.0688576 0.
0.608084 0.0688385 0.
0.610107 0.0688194 0.
0.612134 0.0687956 0.
0.614165 0.0687666 0.
0.616196 0.0687376 0.
0.618235 0.0687039 0.
0.620276 0.0686684 0.
0.622317 0.0686326 0.
0.62438 0.0685422 0.
0.626444 0.0684504 0.
0.62851 0.068356 0.
0.630587 0.0682509 0.
0.632663 0.068146 0.
0.634743 0.0680422 0.
0.636826 0.0679379 0.
0.63891 0.0678336 0.
0.641013 0.0676662 0.
0.64312 0.0674923 0.
0.645228 0.0673145 0.
0.647349 0.0670626 0.
0.649472 0.0668062 0.
0.651597 0.0665612 0.
0.653729 0.0663335 0.
0.655861 0.0661049 0.
0.658 0.0658419 0.
0.660141 0.0655791 0.
0.662283 0.0653064 0.
0.664428 0.0649788 0.
0.666573 0.0646493 0.
0.668717 0.0643105 0.
0.670858 0.0639411 0.
0.672999 0.063571 0.
0.675137 0.0632163 0.
0.677272 0.0628562 0.
0.679405 0.0624935 0.
0.681534 0.0621376 0.
0.683664 0.0617864 0.
0.685787 0.0614414 0.
0.687904 0.0611067 0.
0.69002 0.0607796 0.
0.692127 0.0604713 0.
0.694229 0.0601874 0.
0.696326 0.0599352 0.
0.698415 0.0597558 0.
0.700499 0.059631 0.
0.702578 0.0595579 0.
0.495577 0.0614462 0.
0.497652 0.0615221 0.
0.499733 0.0616727 0.
0.501815 0.0618762 0.
0.503902 0.0621138 0.
0.505995 0.0623982 0.
0.508091 0.0627001 0.
0.510194 0.0630196 0.
0.512304 0.0633517 0.
0.514415 0.0636904 0.
0.516532 0.0640352 0.
0.518654 0.0643785 0.
0.520776 0.0647269 0.
0.522904 0.0650814 0.
0.525031 0.0654337 0.
0.527161 0.0657802 0.
0.529294 0.066143 0.
0.531425 0.0665047 0.
0.53356 0.0668326 0.
0.535695 0.0671516 0.
0.537829 0.0674683 0.
0.539963 0.0677261 0.
0.542095 0.0679746 0.
0.544225 0.0682235 0.
0.546348 0.0684445 0.
0.548472 0.0686653 0.
0.550589 0.0689025 0.
0.552703 0.06915 0.
0.554817 0.069393 0.
0.556919 0.0695596 0.
0.55902 0.0697218 0.
0.561118 0.0698778 0.
0.563198 0.0699778 0.
0.565279 0.0700779 0.
0.567357 0.0701775 0.
0.569433 0.0702778 0.
0.571509 0.0703781 0.
0.573575 0.0704696 0.
0.575637 0.0705592 0.
0.5777 0.0706474 0.
0.579739 0.0706809 0.
0.581778 0.0707142 0.
0.583815 0.0707459 0.
0.585845 0.0707732 0.
0.587874 0.0708006 0.
0.589901 0.0708225 0.
0.591924 0.0708395 0.
0.593947 0.0708565 0.
0.595968 0.0708633 0.
0.597987 0.070867 0.
0.600007 0.0708706 0.
0.602029 0.0708599 0.
0.60405 0.0708492 0.
0.606073 0.070836 0.
0.6081 0.0708148 0.
0.610127 0.0707935 0.
0.612157 0.0707674 0.
0.614191 0.0707361 0.
0.616225 0.0707048 0.
0.618268 0.0706663 0.
0.620314 0.0706254 0.
0.62236 0.0705838 0.
0.624427 0.0704855 0.
0.626495 0.0703858 0.
0.628564 0.0702846 0.
0.630642 0.0701765 0.
0.632721 0.0700684 0.
0.634802 0.069962 0.
0.636886 0.0698558 0.
0.63897 0.0697495 0.
0.641075 0.0695709 0.
0.643181 0.0693862 0.
0.645289 0.069199 0.
0.647407 0.0689441 0.
0.649526 0.0686846 0.
0.651647 0.0684363 0.
0.653774 0.0682063 0.
0.655901 0.0679749 0.
0.658033 0.067711 0.
0.660168 0.0674477 0.
0.662303 0.0671744 0.
0.664439 0.0668488 0.
0.666576 0.0665214 0.
0.668711 0.0661855 0.
0.670842 0.0658204 0.
0.672974 0.0654544 0.
0.675102 0.0651042 0.
0.677227 0.0647477 0.
0.67935 0.0643885 0.
0.681468 0.0640373 0.
0.683586 0.063691 0.
0.685698 0.0633508 0.
0.687804 0.0630222 0.
0.689909 0.0627015 0.
0.692008 0.0623981 0.
0.694101 0.0621185 0.
0.696192 0.0618668 0.
0.698275 0.0616888 0.
0.700354 0.0615663 0.
0.70243 0.0614928 0.
0.495709 0.0633851 0.
0.49778 0.0634599 0.
0.499856 0.0636117 0.
0.501933 0.0638138 0.
0.504013 0.0640503 0.
0.506099 0.0643325 0.
0.508188 0.0646294 0.
0.510283 0.0649433 0.
0.512384 0.0652699 0.
0.514487 0.0656032 0.
0.516595 0.0659437 0.
0.518707 0.0662829 0.
0.520819 0.0666274 0.
0.522936 0.0669781 0.
0.525054 0.0673267 0.
0.527175 0.0676686 0.
0.5293 0.0680273 0.
0.531423 0.0683851 0.
0.533551 0.0687113 0.
0.535679 0.069029 0.
0.537807 0.0693448 0.
0.539933 0.069604 0.
0.542059 0.0698536 0.
0.544183 0.070104 0.
0.546303 0.0703274 0.
0.548422 0.0705501 0.
0.550537 0.0707901 0.
0.55265 0.0710401 0.
0.554761 0.0712854 0.
0.556864 0.0714591 0.
0.558964 0.0716287 0.
0.561063 0.0717923 0.
0.563145 0.0718953 0.
0.565228 0.0719984 0.
0.567307 0.072101 0.
0.569384 0.0722034 0.
0.57146 0.072306 0.
0.573528 0.0724046 0.
0.575594 0.0725033 0.
0.57766 0.0726006 0.
0.579704 0.0726393 0.
0.581748 0.0726776 0.
0.583789 0.0727135 0.
0.585821 0.0727432 0.
0.587854 0.0727729 0.
0.589883 0.0727969 0.
0.59191 0.0728158 0.
0.593937 0.0728348 0.
0.595962 0.0728422 0.
0.597986 0.072846 0.
0.60001 0.0728498 0.
0.602035 0.0728377 0.
0.604061 0.0728255 0.
0.606088 0.0728107 0.
0.608118 0.0727874 0.
0.610149 0.0727641 0.
0.612182 0.0727357 0.
0.614219 0.0727021 0.
0.616256 0.0726685 0.
0.618303 0.0726242 0.
0.620354 0.0725766 0.
0.622404 0.0725282 0.
0.624473 0.0724228 0.
0.626543 0.0723161 0.
0.628614 0.0722094 0.
0.630693 0.0720994 0.
0.632771 0.0719895 0.
0.634855 0.0718793 0.
0.636941 0.0717689 0.
0.639027 0.071658 0.
0.641131 0.0714727 0.
0.643236 0.0712812 0.
0.645343 0.0710879 0.
0.647459 0.0708312 0.
0.649575 0.0705697 0.
0.651693 0.0703189 0.
0.653815 0.070087 0.
0.655938 0.0698532 0.
0.658064 0.0695884 0.
0.660192 0.0693245 0.
0.66232 0.0690506 0.
0.664449 0.0687266 0.
0.666578 0.0684011 0.
0.668705 0.0680682 0.
0.670827 0.0677079 0.
0.672951 0.0673466 0.
0.67507 0.0670012 0.
0.677184 0.0666484 0.
0.679298 0.0662935 0.
0.681407 0.065947 0.
0.683515 0.0656052 0.
0.685618 0.065269 0.
0.687715 0.064945 0.
0.689812 0.0646291 0.
0.691903 0.06433 0.
0.693989 0.0640542 0.
0.696072 0.063803 0.
0.69815 0.0636259 0.
0.700224 0.0635052 0.
0.702296 0.063431 0.
0.49584 0.065327 0.
0.497907 0.065402 0.
0.499977 0.0655561 0.
0.502049 0.0657568 0.
0.504124 0.0659925 0.
0.506204 0.0662725 0.
0.508286 0.0665654 0.
0.510373 0.0668748 0.
0.512468 0.0671959 0.
0.514562 0.0675241 0.
0.516662 0.0678599 0.
0.518765 0.0681949 0.
0.520869 0.0685355 0.
0.522977 0.068883 0.
0.525084 0.0692288 0.
0.527196 0.0695665 0.
0.529312 0.0699213 0.
0.531427 0.0702752 0.
0.533547 0.0705993 0.
0.535667 0.0709157 0.
0.537787 0.07123 0.
0.539907 0.0714892 0.
0.542026 0.0717383 0.
0.544144 0.0719884 0.
0.54626 0.0722129 0.
0.548375 0.0724366 0.
0.550487 0.0726784 0.
0.552597 0.0729304 0.
0.554706 0.0731776 0.
0.556808 0.0733579 0.
0.558909 0.073535 0.
0.561008 0.0737063 0.
0.563092 0.0738126 0.
0.565176 0.0739188 0.
0.567257 0.0740244 0.
0.569334 0.074129 0.
0.571412 0.0742338 0.
0.573482 0.0743395 0.
0.575551 0.0744471 0.
0.577619 0.0745536 0.
0.579668 0.0745977 0.
0.581717 0.0746408 0.
0.583763 0.0746812 0.
0.585798 0.0747132 0.
0.587833 0.0747452 0.
0.589866 0.0747714 0.
0.591897 0.0747922 0.
0.593927 0.074813 0.
0.595956 0.074821 0.
0.597984 0.074825 0.
0.600012 0.074829 0.
0.602042 0.0748154 0.
0.604072 0.0748018 0.
0.606103 0.0747854 0.
0.608137 0.07476 0.
0.610171 0.0747346 0.
0.612208 0.074704 0.
0.614248 0.0746681 0.
0.616288 0.0746322 0.
0.618339 0.074582 0.
0.620393 0.0745277 0.
0.622448 0.0744724 0.
0.624519 0.07436 0.
0.626591 0.0742463 0.
0.628664 0.0741341 0.
0.630743 0.0740223 0.
0.632822 0.0739105 0.
0.634907 0.0737965 0.
0.636996 0.0736816 0.
0.639084 0.0735657 0.
0.641187 0.0733736 0.
0.643291 0.0731757 0.
0.645397 0.072977 0.
0.647509 0.0727189 0.
0.649622 0.0724561 0.
0.651736 0.072204 0.
0.653853 0.0719715 0.
0.655971 0.071737 0.
0.658091 0.071473 0.
0.660211 0.0712101 0.
0.662332 0.0709367 0.
0.664452 0.0706145 0.
0.666572 0.0702908 0.
0.668691 0.0699605 0.
0.670804 0.0696047 0.
0.672919 0.0692479 0.
0.675029 0.0689069 0.
0.677135 0.0685572 0.
0.67924 0.0682059 0.
0.68134 0.0678641 0.
0.68344 0.0675274 0.
0.685536 0.0671952 0.
0.687625 0.0668755 0.
0.689715 0.066564 0.
0.691799 0.0662687 0.
0.693878 0.065996 0.
0.695955 0.065745 0.
0.698027 0.0655682 0.
0.700096 0.0654492 0.
0.702164 0.0653736 0.
0.495985 0.067272 0.
0.498048 0.0673486 0.
0.500113 0.0675063 0.
0.50218 0.0677057 0.
0.50425 0.0679408 0.
0.506323 0.0682191 0.
0.508398 0.0685086 0.
0.510478 0.0688141 0.
0.512564 0.0691304 0.
0.514649 0.0694541 0.
0.516741 0.0697865 0.
0.518834 0.0701183 0.
0.520927 0.0704558 0.
0.523025 0.0708002 0.
0.525123 0.0711424 0.
0.527225 0.0714751 0.
0.529332 0.0718248 0.
0.531438 0.0721733 0.
0.533548 0.072494 0.
0.53566 0.0728079 0.
0.537771 0.07312 0.
0.539883 0.0733787 0.
0.541995 0.0736272 0.
0.544107 0.0738769 0.
0.546219 0.0741024 0.
0.548329 0.0743271 0.
0.550438 0.0745705 0.
0.552544 0.074824 0.
0.554649 0.0750726 0.
0.55675 0.0752584 0.
0.55885 0.0754416 0.
0.560948 0.0756189 0.
0.563033 0.0757287 0.
0.565118 0.0758379 0.
0.567199 0.0759463 0.
0.569277 0.0760522 0.
0.571355 0.0761582 0.
0.573428 0.0762681 0.
0.575498 0.076381 0.
0.577569 0.0764925 0.
0.579624 0.076544 0.
0.581678 0.0765944 0.
0.583728 0.076641 0.
0.585768 0.0766745 0.
0.587807 0.076708 0.
0.589845 0.0767356 0.
0.59188 0.0767576 0.
0.593915 0.0767796 0.
0.595949 0.0767879 0.
0.597982 0.0767919 0.
0.600015 0.0767959 0.
0.60205 0.0767813 0.
0.604085 0.0767668 0.
0.60612 0.0767492 0.
0.608159 0.0767223 0.
0.610198 0.0766954 0.
0.612239 0.0766631 0.
0.614284 0.0766252 0.
0.616328 0.0765874 0.
0.618383 0.0765309 0.
0.620442 0.0764695 0.
0.622501 0.076407 0.
0.624574 0.0762902 0.
0.626648 0.076172 0.
0.628722 0.0760563 0.
0.630802 0.0759435 0.
0.632881 0.0758308 0.
0.634967 0.0757132 0.
0.637056 0.075594 0.
0.639145 0.0754731 0.
0.641246 0.0752757 0.
0.643348 0.0750725 0.
0.645451 0.0748692 0.
0.647559 0.0746102 0.
0.649668 0.0743465 0.
0.651777 0.0740933 0.
0.653889 0.0738603 0.
0.656002 0.0736251 0.
0.658115 0.073362 0.
0.660228 0.0731005 0.
0.66234 0.0728285 0.
0.66445 0.0725094 0.
0.666561 0.0721889 0.
0.66867 0.0718629 0.
0.670774 0.0715125 0.
0.672878 0.0711607 0.
0.674979 0.0708244 0.
0.677075 0.0704778 0.
0.679171 0.0701298 0.
0.681262 0.0697917 0.
0.683353 0.0694591 0.
0.68544 0.0691299 0.
0.687522 0.0688136 0.
0.689604 0.0685059 0.
0.691681 0.0682138 0.
0.693753 0.067944 0.
0.695825 0.0676929 0.
0.697892 0.0675154 0.
0.699955 0.0673976 0.
0.702018 0.0673187 0.
0.496144 0.0692208 0.
0.498203 0.0692998 0.
0.500264 0.0694621 0.
0.502326 0.0696608 0.
0.50439 0.0698961 0.
0.506457 0.070174 0.
0.508524 0.0704613 0.
0.510595 0.0707638 0.
0.512671 0.0710758 0.
0.514747 0.0713956 0.
0.516828 0.0717244 0.
0.51891 0.0720528 0.
0.520993 0.0723869 0.
0.523079 0.0727274 0.
0.525166 0.0730656 0.
0.527257 0.0733932 0.
0.529353 0.073738 0.
0.531448 0.0740817 0.
0.53355 0.0743987 0.
0.535653 0.0747094 0.
0.537755 0.0750186 0.
0.539861 0.0752766 0.
0.541967 0.0755237 0.
0.544073 0.0757724 0.
0.546179 0.0759986 0.
0.548285 0.0762235 0.
0.550388 0.0764672 0.
0.552491 0.0767211 0.
0.554593 0.0769703 0.
0.556691 0.0771597 0.
0.558788 0.077347 0.
0.560884 0.0775289 0.
0.56297 0.0776429 0.
0.565056 0.0777557 0.
0.567139 0.0778671 0.
0.569218 0.0779743 0.
0.571296 0.0780815 0.
0.573371 0.0781949 0.
0.575444 0.0783124 0.
0.577518 0.0784285 0.
0.579577 0.078488 0.
0.581637 0.0785464 0.
0.583693 0.0785997 0.
0.585737 0.0786348 0.
0.587781 0.0786698 0.
0.589823 0.0786989 0.
0.591863 0.0787221 0.
0.593903 0.0787453 0.
0.595942 0.078754 0.
0.59798 0.078758 0.
0.600018 0.0787619 0.
0.602058 0.0787464 0.
0.604098 0.0787308 0.
0.606139 0.078712 0.
0.608182 0.0786835 0.
0.610226 0.0786551 0.
0.612272 0.0786209 0.
0.614321 0.0785811 0.
0.616369 0.0785413 0.
0.618429 0.078478 0.
0.620492 0.0784092 0.
0.622556 0.0783393 0.
0.624632 0.0782184 0.
0.626707 0.0780962 0.
0.628784 0.0779774 0.
0.630864 0.0778638 0.
0.632944 0.0777502 0.
0.63503 0.0776287 0.
0.637118 0.0775049 0.
0.639207 0.0773788 0.
0.641305 0.0771778 0.
0.643405 0.0769716 0.
0.645505 0.0767659 0.
0.647608 0.0765069 0.
0.649712 0.0762431 0.
0.651817 0.0759896 0.
0.653923 0.0757563 0.
0.65603 0.0755207 0.
0.658136 0.0752594 0.
0.660243 0.0749996 0.
0.662348 0.0747291 0.
0.664449 0.0744135 0.
0.66655 0.074097 0.
0.668649 0.0737754 0.
0.670741 0.07343 0.
0.672834 0.0730832 0.
0.674923 0.0727517 0.
0.677009 0.0724087 0.
0.679094 0.0720644 0.
0.681175 0.0717299 0.
0.683255 0.0714009 0.
0.685333 0.0710749 0.
0.687407 0.0707618 0.
0.68948 0.0704573 0.
0.691549 0.0701674 0.
0.693615 0.0698993 0.
0.695681 0.069647 0.
0.697743 0.069468 0.
0.699801 0.0693511 0.
0.70186 0.0692683 0.
0.496303 0.0711747 0.
0.498357 0.0712562 0.
0.500413 0.0714228 0.
0.502469 0.0716212 0.
0.504527 0.0718571 0.
0.506587 0.0721342 0.
0.508646 0.0724192 0.
0.510709 0.0727189 0.
0.512775 0.0730272 0.
0.51484 0.0733436 0.
0.51691 0.0736693 0.
0.518981 0.0739943 0.
0.521052 0.0743253 0.
0.523129 0.0746626 0.
0.525205 0.0749972 0.
0.527286 0.0753198 0.
0.529372 0.0756599 0.
0.531458 0.0759989 0.
0.533551 0.0763116 0.
0.535645 0.076618 0.
0.53774 0.0769229 0.
0.53984 0.077179 0.
0.54194 0.0774239 0.
0.544039 0.0776709 0.
0.54614 0.0778968 0.
0.54824 0.0781215 0.
0.550339 0.078365 0.
0.552438 0.0786193 0.
0.554537 0.0788689 0.
0.556632 0.0790617 0.
0.558727 0.0792531 0.
0.560821 0.0794394 0.
0.562908 0.0795574 0.
0.564995 0.0796737 0.
0.56708 0.0797882 0.
0.569159 0.0798964 0.
0.571239 0.0800046 0.
0.573316 0.080121 0.
0.575392 0.0802423 0.
0.577468 0.0803621 0.
0.579532 0.0804293 0.
0.581596 0.0804954 0.
0.583657 0.0805555 0.
0.585706 0.080592 0.
0.587754 0.0806285 0.
0.589801 0.0806588 0.
0.591846 0.080683 0.
0.593891 0.0807073 0.
0.595935 0.0807162 0.
0.597978 0.0807202 0.
0.600022 0.0807242 0.
0.602066 0.0807077 0.
0.604111 0.0806912 0.
0.606157 0.0806713 0.
0.608205 0.0806414 0.
0.610254 0.0806115 0.
0.612305 0.0805757 0.
0.614358 0.0805342 0.
0.616411 0.0804927 0.
0.618475 0.0804229 0.
0.620541 0.0803467 0.
0.622609 0.0802698 0.
0.624687 0.0801456 0.
0.626765 0.08002 0.
0.628844 0.0798987 0.
0.630925 0.0797843 0.
0.633005 0.07967 0.
0.635091 0.0795446 0.
0.63718 0.0794163 0.
0.639269 0.0792851 0.
0.641364 0.0790808 0.
0.643461 0.0788716 0.
0.645558 0.0786637 0.
0.647657 0.0784048 0.
0.649757 0.0781413 0.
0.651857 0.0778879 0.
0.653957 0.0776548 0.
0.656058 0.0774195 0.
0.658158 0.077161 0.
0.660257 0.0769046 0.
0.662356 0.0766371 0.
0.664448 0.0763265 0.
0.66654 0.0760147 0.
0.668629 0.0756973 0.
0.670712 0.0753561 0.
0.672794 0.0750138 0.
0.674873 0.0746868 0.
0.676948 0.074347 0.
0.679023 0.0740057 0.
0.681093 0.0736745 0.
0.683163 0.0733491 0.
0.685231 0.0730261 0.
0.687295 0.0727158 0.
0.689359 0.0724143 0.
0.69142 0.0721263 0.
0.69348 0.0718597 0.
0.695539 0.0716065 0.
0.697595 0.0714259 0.
0.699649 0.0713101 0.
0.701702 0.0712239 0.
0.496448 0.0731332 0.
0.498497 0.0732176 0.
0.500547 0.0733883 0.
0.502597 0.0735868 0.
0.504648 0.0738235 0.
0.5067 0.0741004 0.
0.508752 0.0743841 0.
0.510806 0.0746818 0.
0.512863 0.0749873 0.
0.514918 0.0753011 0.
0.516978 0.0756239 0.
0.51904 0.0759458 0.
0.521102 0.0762733 0.
0.523169 0.0766067 0.
0.525237 0.0769371 0.
0.527308 0.0772543 0.
0.529386 0.0775895 0.
0.531463 0.0779237 0.
0.533548 0.0782317 0.
0.535635 0.0785338 0.
0.537723 0.0788346 0.
0.539816 0.0790886 0.
0.54191 0.0793311 0.
0.544003 0.0795763 0.
0.546099 0.0798021 0.
0.548195 0.0800264 0.
0.55029 0.0802694 0.
0.552387 0.0805235 0.
0.554483 0.0807731 0.
0.556577 0.0809674 0.
0.558671 0.0811604 0.
0.560764 0.0813486 0.
0.562852 0.0814701 0.
0.56494 0.0815891 0.
0.567025 0.0817063 0.
0.569107 0.081816 0.
0.571188 0.0819257 0.
0.573267 0.0820443 0.
0.575344 0.0821678 0.
0.577422 0.0822898 0.
0.579489 0.0823646 0.
0.581556 0.0824386 0.
0.58362 0.0825058 0.
0.585674 0.0825436 0.
0.587727 0.0825815 0.
0.589779 0.0826132 0.
0.59183 0.0826384 0.
0.59388 0.0826636 0.
0.595929 0.0826729 0.
0.597977 0.0826769 0.
0.600025 0.0826808 0.
0.602075 0.0826634 0.
0.604124 0.082646 0.
0.606175 0.0826249 0.
0.608228 0.0825936 0.
0.610282 0.0825622 0.
0.612337 0.0825248 0.
0.614395 0.0824818 0.
0.616452 0.0824388 0.
0.618519 0.0823624 0.
0.620588 0.0822792 0.
0.622657 0.0821955 0.
0.624737 0.0820688 0.
0.626816 0.0819408 0.
0.628896 0.0818176 0.
0.630979 0.0817023 0.
0.633062 0.0815871 0.
0.635149 0.0814588 0.
0.637238 0.0813275 0.
0.639327 0.0811925 0.
0.641421 0.0809868 0.
0.643516 0.0807764 0.
0.645611 0.0805675 0.
0.647706 0.0803094 0.
0.649802 0.0800467 0.
0.651898 0.0797938 0.
0.653993 0.0795608 0.
0.656089 0.0793256 0.
0.658182 0.0790698 0.
0.660275 0.0788167 0.
0.662366 0.0785523 0.
0.664451 0.0782467 0.
0.666535 0.0779404 0.
0.668616 0.0776274 0.
0.67069 0.0772901 0.
0.672763 0.0769519 0.
0.674833 0.0766305 0.
0.676898 0.0762948 0.
0.678964 0.0759569 0.
0.681024 0.0756288 0.
0.683084 0.0753062 0.
0.685143 0.0749855 0.
0.687198 0.0746774 0.
0.689254 0.0743783 0.
0.691307 0.0740916 0.
0.693359 0.0738259 0.
0.695411 0.0735717 0.
0.697461 0.0733889 0.
0.699509 0.0732735 0.
0.701557 0.0731838 0.
0.496592 0.0750976 0.
0.498635 0.0751858 0.
0.500679 0.0753608 0.
0.502723 0.0755597 0.
0.504766 0.0757979 0.
0.506811 0.0760749 0.
0.508855 0.0763576 0.
0.510901 0.0766533 0.
0.512949 0.0769561 0.
0.514996 0.0772673 0.
0.517048 0.0775869 0.
0.519101 0.0779047 0.
0.521154 0.0782285 0.
0.523213 0.0785579 0.
0.525273 0.0788845 0.
0.527336 0.0791969 0.
0.529405 0.0795278 0.
0.531473 0.0798579 0.
0.533549 0.0801616 0.
0.535628 0.0804593 0.
0.537708 0.080756 0.
0.539794 0.081007 0.
0.541882 0.0812457 0.
0.543969 0.0814875 0.
0.546061 0.0817119 0.
0.548152 0.0819345 0.
0.550244 0.0821758 0.
0.552337 0.0824293 0.
0.55443 0.0826783 0.
0.556522 0.0828736 0.
0.558615 0.0830677 0.
0.560707 0.0832575 0.
0.562795 0.0833823 0.
0.564884 0.0835041 0.
0.566971 0.0836242 0.
0.569054 0.0837354 0.
0.571137 0.0838468 0.
0.573218 0.0839675 0.
0.575297 0.0840932 0.
0.577376 0.0842176 0.
0.579446 0.0842997 0.
0.581515 0.0843817 0.
0.583583 0.084456 0.
0.585641 0.0844953 0.
0.5877 0.0845346 0.
0.589758 0.0845675 0.
0.591813 0.0845938 0.
0.593868 0.08462 0.
0.595922 0.0846296 0.
0.597976 0.0846336 0.
0.600029 0.0846375 0.
0.602083 0.0846192 0.
0.604138 0.0846008 0.
0.606193 0.0845786 0.
0.608252 0.0845457 0.
0.61031 0.0845128 0.
0.61237 0.0844738 0.
0.614432 0.0844294 0.
0.616494 0.0843849 0.
0.618563 0.0843018 0.
0.620634 0.0842115 0.
0.622706 0.0841211 0.
0.624787 0.083992 0.
0.626867 0.0838615 0.
0.628949 0.0837364 0.
0.631033 0.0836201 0.
0.633118 0.0835038 0.
0.635206 0.0833726 0.
0.637295 0.0832385 0.
0.639385 0.0831002 0.
0.641477 0.0828932 0.
0.64357 0.0826822 0.
0.645663 0.0824729 0.
0.647755 0.0822159 0.
0.649847 0.0819544 0.
0.651938 0.0817038 0.
0.654028 0.0814728 0.
0.656118 0.0812392 0.
0.658204 0.0809871 0.
0.66029 0.0807381 0.
0.662374 0.0804772 0.
0.664449 0.0801766 0.
0.666525 0.0798758 0.
0.668598 0.079567 0.
0.670662 0.0792328 0.
0.672727 0.0788979 0.
0.674789 0.0785813 0.
0.676847 0.0782499 0.
0.678904 0.0779161 0.
0.680955 0.0775913 0.
0.683006 0.0772724 0.
0.685057 0.0769543 0.
0.687103 0.0766478 0.
0.68915 0.0763505 0.
0.691196 0.076065 0.
0.69324 0.0757997 0.
0.695285 0.0755441 0.
0.697328 0.0753586 0.
0.69937 0.0752432 0.
0.701411 0.0751498 0.
0.496751 0.0770687 0.
0.498789 0.0771618 0.
0.500826 0.0773417 0.
0.502862 0.0775414 0.
0.504897 0.0777814 0.
0.506934 0.0780583 0.
0.50897 0.07834 0.
0.511007 0.0786338 0.
0.513045 0.0789344 0.
0.515083 0.0792438 0.
0.517126 0.0795608 0.
0.519169 0.0798754 0.
0.521213 0.080196 0.
0.523263 0.0805216 0.
0.525313 0.0808438 0.
0.527367 0.0811507 0.
0.529426 0.0814765 0.
0.531484 0.0818012 0.
0.533551 0.0820991 0.
0.535622 0.0823915 0.
0.537693 0.0826832 0.
0.539772 0.0829304 0.
0.541852 0.0831646 0.
0.543933 0.0834026 0.
0.54602 0.0836254 0.
0.548106 0.0838462 0.
0.550194 0.0840851 0.
0.552284 0.0843369 0.
0.554374 0.0845845 0.
0.556465 0.0847807 0.
0.558556 0.0849756 0.
0.560647 0.0851666 0.
0.562736 0.0852945 0.
0.564825 0.0854187 0.
0.566912 0.0855411 0.
0.568996 0.0856535 0.
0.571081 0.0857659 0.
0.573163 0.085888 0.
0.575243 0.0860153 0.
0.577323 0.0861412 0.
0.579397 0.0862283 0.
0.58147 0.0863155 0.
0.583541 0.0863948 0.
0.585605 0.086435 0.
0.58767 0.0864752 0.
0.589733 0.0865092 0.
0.591794 0.0865363 0.
0.593855 0.0865635 0.
0.595915 0.0865734 0.
0.597974 0.0865776 0.
0.600033 0.0865815 0.
0.602093 0.0865625 0.
0.604153 0.0865436 0.
0.606214 0.0865205 0.
0.608278 0.0864864 0.
0.610341 0.0864525 0.
0.612406 0.0864124 0.
0.614472 0.086367 0.
0.616539 0.0863217 0.
0.618612 0.0862338 0.
0.620686 0.0861385 0.
0.622761 0.0860436 0.
0.624842 0.0859127 0.
0.626923 0.0857805 0.
0.629006 0.0856541 0.
0.631092 0.085537 0.
0.633177 0.08542 0.
0.635265 0.0852863 0.
0.637355 0.0851498 0.
0.639444 0.0850084 0.
0.641535 0.0848007 0.
0.643626 0.0845892 0.
0.645716 0.0843797 0.
0.647805 0.0841246 0.
0.649894 0.0838652 0.
0.65198 0.0836177 0.
0.654064 0.0833889 0.
0.656148 0.0831574 0.
0.658227 0.0829098 0.
0.660304 0.0826658 0.
0.66238 0.0824091 0.
0.664448 0.0821138 0.
0.666515 0.0818186 0.
0.668578 0.0815159 0.
0.670633 0.0811865 0.
0.672688 0.080856 0.
0.67474 0.0805447 0.
0.676788 0.0802175 0.
0.678836 0.0798873 0.
0.680877 0.0795653 0.
0.682918 0.0792491 0.
0.684959 0.0789328 0.
0.686997 0.0786273 0.
0.689035 0.0783312 0.
0.691073 0.0780469 0.
0.693109 0.0777821 0.
0.695146 0.0775255 0.
0.697182 0.0773364 0.
0.699217 0.0772204 0.
0.701252 0.0771226 0.
0.496926 0.0790466 0.
0.498957 0.0791464 0.
0.500986 0.0793321 0.
0.503014 0.0795333 0.
0.505041 0.0797757 0.
0.507068 0.0800527 0.
0.509095 0.0803338 0.
0.511123 0.0806262 0.
0.513151 0.0809249 0.
0.515179 0.0812326 0.
0.517211 0.0815468 0.
0.519243 0.0818585 0.
0.521275 0.0821758 0.
0.523313 0.0824966 0.
0.525351 0.0828138 0.
0.527393 0.0831145 0.
0.52944 0.0834347 0.
0.531488 0.0837536 0.
0.533546 0.0840451 0.
0.535608 0.0843313 0.
0.53767 0.0846172 0.
0.539743 0.0848605 0.
0.541818 0.0850898 0.
0.543893 0.0853234 0.
0.545975 0.0855442 0.
0.548057 0.0857628 0.
0.550142 0.0859982 0.
0.552229 0.0862479 0.
0.554317 0.0864934 0.
0.556407 0.0866897 0.
0.558497 0.0868848 0.
0.560588 0.0870763 0.
0.562676 0.0872065 0.
0.564765 0.0873323 0.
0.566852 0.0874565 0.
0.568937 0.0875699 0.
0.571022 0.0876834 0.
0.573105 0.0878069 0.
0.575187 0.0879359 0.
0.577268 0.0880637 0.
0.579346 0.088155 0.
0.581422 0.0882468 0.
0.583498 0.0883308 0.
0.585568 0.0883721 0.
0.587638 0.0884134 0.
0.589707 0.0884485 0.
0.591774 0.0884767 0.
0.593842 0.0885049 0.
0.595907 0.0885153 0.
0.597973 0.0885195 0.
0.600038 0.0885236 0.
0.602104 0.0885039 0.
0.60417 0.0884843 0.
0.606236 0.0884603 0.
0.608305 0.088425 0.
0.610373 0.0883897 0.
0.612443 0.0883485 0.
0.614514 0.0883021 0.
0.616585 0.0882558 0.
0.618662 0.0881635 0.
0.620739 0.088064 0.
0.622817 0.0879651 0.
0.6249 0.0878323 0.
0.626982 0.0876984 0.
0.629066 0.0875707 0.
0.631152 0.0874525 0.
0.633237 0.0873344 0.
0.635325 0.087199 0.
0.637414 0.0870612 0.
0.639503 0.0869179 0.
0.641592 0.08671 0.
0.643682 0.0864989 0.
0.645771 0.0862899 0.
0.647858 0.0860372 0.
0.649944 0.0857805 0.
0.652027 0.085537 0.
0.654106 0.0853108 0.
0.656185 0.0850816 0.
0.658256 0.084839 0.
0.660326 0.0846006 0.
0.662395 0.0843484 0.
0.664453 0.084059 0.
0.666511 0.0837699 0.
0.668565 0.0834738 0.
0.670608 0.0831499 0.
0.672652 0.0828248 0.
0.67469 0.0825193 0.
0.676726 0.0821968 0.
0.678761 0.081871 0.
0.680792 0.0815516 0.
0.682822 0.0812377 0.
0.684853 0.0809234 0.
0.686881 0.0806188 0.
0.688909 0.0803237 0.
0.690938 0.0800395 0.
0.692966 0.0797747 0.
0.694995 0.0795166 0.
0.697023 0.0793228 0.
0.699051 0.0792053 0.
0.70108 0.0791024 0.
0.4971 0.0810327 0.
0.499123 0.08114 0.
0.501144 0.0813309 0.
0.503163 0.0815332 0.
0.505181 0.0817777 0.
0.507199 0.0820547 0.
0.509215 0.0823353 0.
0.511232 0.0826263 0.
0.51325 0.0829228 0.
0.515267 0.0832285 0.
0.517287 0.0835399 0.
0.519307 0.0838486 0.
0.521327 0.0841624 0.
0.523352 0.0844787 0.
0.525378 0.0847912 0.
0.527408 0.0850862 0.
0.529446 0.0854007 0.
0.531483 0.0857137 0.
0.533533 0.085998 0.
0.535588 0.0862771 0.
0.537644 0.0865563 0.
0.539712 0.0867947 0.
0.541782 0.0870185 0.
0.543852 0.0872473 0.
0.54593 0.0874655 0.
0.548008 0.0876813 0.
0.55009 0.0879127 0.
0.552176 0.0881597 0.
0.554261 0.0884029 0.
0.55635 0.0885991 0.
0.55844 0.0887943 0.
0.560529 0.0889863 0.
0.562617 0.0891186 0.
0.564706 0.089246 0.
0.566794 0.089372 0.
0.568879 0.0894863 0.
0.570964 0.0896007 0.
0.573049 0.0897255 0.
0.575132 0.089856 0.
0.577215 0.0899853 0.
0.579297 0.0900803 0.
0.581377 0.0901761 0.
0.583458 0.0902642 0.
0.585533 0.0903064 0.
0.587609 0.0903485 0.
0.589683 0.0903847 0.
0.591756 0.0904139 0.
0.593829 0.0904431 0.
0.595901 0.0904539 0.
0.597972 0.0904584 0.
0.600043 0.0904626 0.
0.602114 0.0904423 0.
0.604185 0.090422 0.
0.606257 0.0903972 0.
0.60833 0.0903609 0.
0.610403 0.0903246 0.
0.612478 0.0902824 0.
0.614554 0.0902351 0.
0.616629 0.0901879 0.
0.61871 0.0900916 0.
0.620791 0.0899884 0.
0.622872 0.0898861 0.
0.624956 0.0897517 0.
0.627039 0.0896162 0.
0.629124 0.0894872 0.
0.63121 0.0893681 0.
0.633296 0.089249 0.
0.635384 0.089112 0.
0.637472 0.088973 0.
0.63956 0.0888277 0.
0.641649 0.0886199 0.
0.643737 0.0884092 0.
0.645826 0.0882008 0.
0.647909 0.087951 0.
0.649993 0.0876974 0.
0.652073 0.0874587 0.
0.654148 0.0872358 0.
0.656223 0.0870097 0.
0.658289 0.0867724 0.
0.660354 0.08654 0.
0.662417 0.0862931 0.
0.664468 0.0860107 0.
0.666518 0.0857288 0.
0.668562 0.0854398 0.
0.670595 0.0851215 0.
0.672628 0.0848018 0.
0.674654 0.0845016 0.
0.676676 0.0841834 0.
0.678698 0.0838618 0.
0.680716 0.0835451 0.
0.682735 0.0832335 0.
0.684754 0.0829211 0.
0.686771 0.0826179 0.
0.688789 0.0823245 0.
0.690807 0.0820406 0.
0.692826 0.0817755 0.
0.694846 0.081516 0.
0.696866 0.0813173 0.
0.698886 0.081198 0.
0.700908 0.0810905 0.
0.497253 0.0830267 0.
0.499268 0.0831417 0.
0.501279 0.0833372 0.
0.503289 0.0835411 0.
0.505297 0.0837877 0.
0.507304 0.084065 0.
0.509309 0.0843456 0.
0.511314 0.0846355 0.
0.51332 0.0849302 0.
0.515324 0.0852342 0.
0.517333 0.0855424 0.
0.519342 0.0858472 0.
0.521352 0.0861564 0.
0.523367 0.0864685 0.
0.525383 0.0867767 0.
0.527405 0.0870657 0.
0.529435 0.0873733 0.
0.531465 0.0876795 0.
0.533509 0.0879562 0.
0.535559 0.0882277 0.
0.537611 0.0884995 0.
0.539675 0.088733 0.
0.541741 0.088951 0.
0.543809 0.0891752 0.
0.545884 0.0893911 0.
0.547959 0.0896044 0.
0.550039 0.0898311 0.
0.552124 0.0900747 0.
0.554208 0.0903146 0.
0.556297 0.0905105 0.
0.558386 0.0907053 0.
0.560475 0.0908971 0.
0.562564 0.091031 0.
0.564653 0.0911593 0.
0.566741 0.0912864 0.
0.568828 0.0914012 0.
0.570914 0.091516 0.
0.573 0.0916413 0.
0.575085 0.0917727 0.
0.577171 0.0919029 0.
0.579255 0.0920004 0.
0.581338 0.0920991 0.
0.583422 0.0921906 0.
0.585502 0.0922335 0.
0.587583 0.0922764 0.
0.589662 0.0923136 0.
0.59174 0.0923439 0.
0.593818 0.0923742 0.
0.595895 0.0923854 0.
0.597971 0.0923901 0.
0.600047 0.0923945 0.
0.602123 0.0923737 0.
0.604199 0.0923529 0.
0.606275 0.0923273 0.
0.608353 0.0922903 0.
0.61043 0.0922533 0.
0.612509 0.0922102 0.
0.614588 0.0921621 0.
0.616668 0.0921141 0.
0.618751 0.0920142 0.
0.620834 0.091908 0.
0.622918 0.0918032 0.
0.625004 0.0916681 0.
0.627089 0.0915319 0.
0.629175 0.0914025 0.
0.631262 0.0912827 0.
0.633349 0.0911631 0.
0.635437 0.0910249 0.
0.637525 0.0908854 0.
0.639614 0.0907387 0.
0.641702 0.0905318 0.
0.64379 0.0903222 0.
0.645878 0.0901148 0.
0.64796 0.0898683 0.
0.650043 0.0896183 0.
0.65212 0.0893849 0.
0.654192 0.0891652 0.
0.656264 0.0889419 0.
0.658327 0.0887098 0.
0.660389 0.0884836 0.
0.662448 0.0882423 0.
0.664493 0.0879676 0.
0.666537 0.0876937 0.
0.668575 0.0874125 0.
0.670599 0.0871007 0.
0.672624 0.0867876 0.
0.674641 0.0864933 0.
0.676652 0.0861791 0.
0.678664 0.0858613 0.
0.680671 0.0855477 0.
0.682678 0.0852387 0.
0.684685 0.0849284 0.
0.686689 0.0846262 0.
0.688695 0.0843341 0.
0.690702 0.0840505 0.
0.69271 0.0837848 0.
0.694719 0.0835239 0.
0.696729 0.0833205 0.
0.698741 0.083199 0.
0.700754 0.0830869 0.
0.497387 0.085029 0.
0.499392 0.0851526 0.
0.501393 0.0853527 0.
0.503393 0.0855588 0.
0.505389 0.0858073 0.
0.507384 0.0860847 0.
0.509378 0.0863651 0.
0.511372 0.0866534 0.
0.513367 0.0869453 0.
0.515361 0.0872465 0.
0.51736 0.0875506 0.
0.519362 0.0878512 0.
0.521364 0.0881556 0.
0.523372 0.0884635 0.
0.525381 0.0887674 0.
0.527397 0.0890502 0.
0.529422 0.0893513 0.
0.531446 0.0896514 0.
0.533485 0.0899204 0.
0.535531 0.0901837 0.
0.537579 0.0904476 0.
0.53964 0.0906761 0.
0.541703 0.0908886 0.
0.543767 0.0911082 0.
0.545839 0.0913209 0.
0.547911 0.0915303 0.
0.54999 0.0917509 0.
0.552074 0.0919908 0.
0.554157 0.0922272 0.
0.556246 0.0924224 0.
0.558334 0.0926167 0.
0.560423 0.0928082 0.
0.562512 0.0929434 0.
0.564601 0.0930725 0.
0.56669 0.0932007 0.
0.568777 0.0933159 0.
0.570865 0.093431 0.
0.572952 0.0935569 0.
0.575039 0.0936892 0.
0.577126 0.0938205 0.
0.579213 0.0939204 0.
0.581299 0.0940221 0.
0.583386 0.0941169 0.
0.585471 0.0941606 0.
0.587557 0.0942043 0.
0.589642 0.0942425 0.
0.591725 0.0942738 0.
0.593808 0.0943052 0.
0.59589 0.0943169 0.
0.597971 0.0943218 0.
0.600052 0.0943265 0.
0.602132 0.0943051 0.
0.604212 0.0942837 0.
0.606293 0.0942575 0.
0.608375 0.0942197 0.
0.610458 0.094182 0.
0.61254 0.094138 0.
0.614623 0.0940891 0.
0.616706 0.0940402 0.
0.618792 0.0939368 0.
0.620878 0.0938274 0.
0.622964 0.0937202 0.
0.625051 0.0935843 0.
0.627138 0.0934475 0.
0.629225 0.0933175 0.
0.631312 0.0931972 0.
0.6334 0.0930769 0.
0.635488 0.0929379 0.
0.637577 0.0927978 0.
0.639666 0.09265 0.
0.641753 0.0924442 0.
0.643841 0.0922359 0.
0.645928 0.0920299 0.
0.648009 0.0917871 0.
0.650089 0.0915409 0.
0.652165 0.0913141 0.
0.654235 0.091099 0.
0.656303 0.0908796 0.
0.658363 0.0906526 0.
0.660421 0.0904324 0.
0.662476 0.0901964 0.
0.664518 0.0899298 0.
0.666558 0.0896643 0.
0.66859 0.0893907 0.
0.670608 0.0890853 0.
0.672626 0.0887789 0.
0.674637 0.0884905 0.
0.676641 0.0881806 0.
0.678644 0.0878666 0.
0.680643 0.0875565 0.
0.68264 0.0872503 0.
0.684638 0.0869428 0.
0.686632 0.0866426 0.
0.688626 0.0863525 0.
0.690621 0.0860697 0.
0.692617 0.0858035 0.
0.694615 0.0855416 0.
0.696614 0.0853337 0.
0.698616 0.0852092 0.
0.700619 0.0850923 0.
0.497499 0.0870395 0.
0.499494 0.0871713 0.
0.501486 0.0873747 0.
0.503476 0.0875825 0.
0.505461 0.087832 0.
0.507446 0.0881091 0.
0.50943 0.0883892 0.
0.511414 0.0886757 0.
0.513399 0.088965 0.
0.515384 0.0892637 0.
0.517376 0.0895641 0.
0.51937 0.0898605 0.
0.521366 0.0901604 0.
0.523369 0.0904636 0.
0.525373 0.0907623 0.
0.527385 0.0910381 0.
0.529405 0.0913326 0.
0.531425 0.0916262 0.
0.533461 0.0918873 0.
0.535504 0.0921423 0.
0.537548 0.0923983 0.
0.539605 0.0926219 0.
0.541664 0.0928286 0.
0.543725 0.0930432 0.
0.545795 0.0932522 0.
0.547865 0.0934575 0.
0.549942 0.0936719 0.
0.552025 0.0939078 0.
0.554108 0.0941407 0.
0.556196 0.094335 0.
0.558285 0.0945284 0.
0.560374 0.0947193 0.
0.562463 0.0948559 0.
0.564552 0.0949857 0.
0.566642 0.0951149 0.
0.56873 0.0952301 0.
0.570818 0.0953454 0.
0.572907 0.0954712 0.
0.574996 0.0956037 0.
0.577084 0.0957351 0.
0.579174 0.0958358 0.
0.581263 0.0959383 0.
0.583353 0.0960345 0.
0.585443 0.0960785 0.
0.587532 0.0961225 0.
0.589621 0.0961613 0.
0.59171 0.0961935 0.
0.593798 0.0962256 0.
0.595884 0.096238 0.
0.59797 0.0962434 0.
0.600056 0.0962484 0.
0.602141 0.0962269 0.
0.604226 0.0962055 0.
0.606311 0.096179 0.
0.608397 0.0961408 0.
0.610482 0.0961027 0.
0.612568 0.0960583 0.
0.614655 0.0960089 0.
0.616741 0.0959594 0.
0.618829 0.095854 0.
0.620917 0.0957431 0.
0.623006 0.0956347 0.
0.625094 0.0954988 0.
0.627183 0.0953619 0.
0.629272 0.0952319 0.
0.63136 0.0951114 0.
0.633448 0.0949907 0.
0.635537 0.0948509 0.
0.637626 0.0947105 0.
0.639715 0.0945616 0.
0.641803 0.0943572 0.
0.64389 0.0941506 0.
0.645976 0.0939461 0.
0.648056 0.0937069 0.
0.650135 0.0934646 0.
0.652209 0.0932448 0.
0.654277 0.0930347 0.
0.656343 0.0928195 0.
0.658398 0.0925981 0.
0.660452 0.0923842 0.
0.662504 0.0921538 0.
0.664542 0.0918951 0.
0.666578 0.091638 0.
0.668607 0.0913726 0.
0.670621 0.0910736 0.
0.672635 0.0907736 0.
0.674641 0.0904919 0.
0.676639 0.0901867 0.
0.678636 0.0898769 0.
0.680626 0.0895703 0.
0.682616 0.089267 0.
0.684605 0.0889621 0.
0.68659 0.0886637 0.
0.688575 0.0883755 0.
0.69056 0.0880939 0.
0.692545 0.0878276 0.
0.694532 0.0875654 0.
0.69652 0.0873541 0.
0.698513 0.0872266 0.
0.700507 0.0871053 0.
0.497584 0.0890552 0.
0.49957 0.0891944 0.
0.501552 0.0894011 0.
0.503532 0.0896109 0.
0.505509 0.0898614 0.
0.507485 0.0901388 0.
0.50946 0.0904184 0.
0.511438 0.0907027 0.
0.513416 0.0909897 0.
0.515396 0.091286 0.
0.517382 0.0915827 0.
0.519371 0.0918748 0.
0.521361 0.0921696 0.
0.523359 0.0924682 0.
0.525359 0.0927621 0.
0.527369 0.0930305 0.
0.529386 0.0933181 0.
0.531404 0.0936047 0.
0.533437 0.0938578 0.
0.535477 0.0941048 0.
0.537519 0.0943527 0.
0.539573 0.0945713 0.
0.541631 0.0947724 0.
0.54369 0.0949815 0.
0.545759 0.0951868 0.
0.547829 0.0953878 0.
0.549905 0.0955957 0.
0.551987 0.095828 0.
0.554068 0.0960572 0.
0.556155 0.0962502 0.
0.558243 0.096442 0.
0.560332 0.0966315 0.
0.562421 0.0967688 0.
0.564511 0.0968988 0.
0.5666 0.0970284 0.
0.568688 0.0971437 0.
0.570777 0.0972591 0.
0.572866 0.0973847 0.
0.574955 0.0975171 0.
0.577044 0.0976486 0.
0.579137 0.0977491 0.
0.581229 0.0978515 0.
0.583322 0.0979483 0.
0.585415 0.0979927 0.
0.587508 0.0980371 0.
0.589602 0.0980767 0.
0.591695 0.0981098 0.
0.593788 0.0981429 0.
0.595879 0.098156 0.
0.597969 0.0981618 0.
0.600059 0.0981674 0.
0.602149 0.0981458 0.
0.604239 0.0981242 0.
0.606328 0.0980974 0.
0.608417 0.098059 0.
0.610505 0.0980205 0.
0.612595 0.0979755 0.
0.614684 0.0979258 0.
0.616774 0.0978756 0.
0.618865 0.097769 0.
0.620955 0.0976572 0.
0.623046 0.0975482 0.
0.625135 0.0974122 0.
0.627224 0.0972754 0.
0.629313 0.0971456 0.
0.631402 0.0970251 0.
0.63349 0.0969042 0.
0.635579 0.0967643 0.
0.637667 0.096624 0.
0.639756 0.0964747 0.
0.641843 0.0962724 0.
0.64393 0.0960681 0.
0.646015 0.0958658 0.
0.648093 0.0956302 0.
0.650171 0.0953916 0.
0.652244 0.095179 0.
0.654311 0.0949739 0.
0.656376 0.0947631 0.
0.65843 0.0945475 0.
0.660481 0.0943395 0.
0.662529 0.0941145 0.
0.664565 0.0938639 0.
0.666598 0.0936148 0.
0.668625 0.0933577 0.
0.670637 0.0930657 0.
0.672648 0.0927726 0.
0.674651 0.0924981 0.
0.676645 0.0921976 0.
0.678637 0.0918921 0.
0.680622 0.0915894 0.
0.682606 0.0912893 0.
0.684589 0.0909873 0.
0.686566 0.0906904 0.
0.688544 0.0904036 0.
0.690522 0.0901233 0.
0.692498 0.0898568 0.
0.694475 0.089594 0.
0.696454 0.0893795 0.
0.698438 0.0892485 0.
0.700423 0.0891229 0.
CELLS 5000 10000
1 0
1 1
1 2
1 3
1 4
1 5
1 6
1 7
1 8
1 9
1 10
1 11
1 12
1 13
1 14
1 15
1 16
1 17
1 18
1 19
1 20
1 21
1 22
1 23
1 24
1 25
1 26
1 27
1 28
1 29
1 30
1 31
1 32
1 33
1 34
1 35
1 36
1 37
1 38
1 39
1 40
1 41
1 42
1 43
1 44
1 45
1 46
1 47
1 48
1 49
1 50
1 51
1 52
1 53
1 54
1 55
1 56
1 57
1 58
1 59
1 60
1 61
1 62
1 63
1 64
1 65
1 66
1 67
1 68
1 69
1 70
1 71
1 72
1 73
1 74
1 75
1 76
1 77
1 78
1 79
1 80
1 81
1 82
1 83
1 84
1 85
1 86
1 87
1 88
1 89
1 90
1 91
1 92
1 93
1 94
1 95
1 96
1 97
1 98
1 99
1 100
1 101
1 102
1 103
1 104
1 105
1 106
1 107
1 108
1 109
1 110
1 111
1 112
1 113
1 114
1 115
1 116
1 117
1 118
1 119
1 120
1 121
1 122
1 123
1 124
1 125
1 126
1 127
1 128
1 129
1 130
1 131
1 132
1 133
1 134
1 135
1 136
1 137
1 138
1 139
1 140
1 141
1 142
1 143
1 144
1 145
1 146
1 147
1 148
1 149
1 150
1 151
1 152
1 153
1 154
1 155
1 156
1 157
1 158
1 159
1 160
1 161
1 162
1 163
1 164
1 165
1 166
1 167
1 168
1 169
1 170
1 171
1 172
1 173
1 174
1 175
1 176
1 177
1 178
1 179
1 180
1 181
1 182
1 183
1 184
1 185
1 186
1 187
1 188
1 189
1 190
1 191
1 192
1 193
1 194
1 195
1 196
1 197
1 198
1 199
1 200
1 201
1 202
1 203
1 204
1 205
1 206
1 207
1 208
1 209
1 210
1 211
1 212
1 213
1 214
1 215
1 216
1 217
1 218
1 219
1 220
1 221
1 222
1 223
1 224
1 225
1 226
1 227
1 228
1 229
1 230
1 231
1 232
1 233
1 234
1 235
1 236
1 237
1 238
1 239
1 240
1 241
1 242
1 243
1 244
1 245
1 246
1 247
1 248
1 249
1 250
1 251
1 252
1 253
1 254
1 255
1 256
1 257
1 258
1 259
1 260
1 261
1 262
1 263
1 264
1 265
1 266
1 267
1 268
1 269
1 270
1 271
1 272
1 273
1 274
1 275
1 276
1 277
1 278
1 279
1 280
1 281
1 282
1 283
1 284
1 285
1 286
1 287
1 288
1 289
1 290
1 291
1 292
1 293
1 294
1 295
1 296
1 297
1 298
1 299
1 300
1 301
1 302
1 303
1 304
1 305
1 306
1 307
1 308
1 309
1 310
1 311
1 312
1 313
1 314
1 315
1 316
1 317
1 318
1 319
1 320
1 321
1 322
1 323
1 324
1 325
1 326
1 327
1 328
1 329
1 330
1 331
1 332
1 333
1 334
1 335
1 336
1 337
1 338
1 339
1 340
1 341
1 342
1 343
1 344
1 345
1 346
1 347
1 348
1 349
1 350
1 351
1 352
1 353
1 354
1 355
1 356
1 357
1 358
1 359
1 360
1 361
1 362
1 363
1 364
1 365
1 366
1 367
1 368
1 369
1 370
1 371
1 372
1 373
1 374
1 375
1 376
1 377
1 378
1 379
1 380
1 381
1 382
1 383
1 384
1 385
1 386
1 387
1 388
1 389
1 390
1 391
1 392
1 393
1 394
1 395
1 396
1 397
1 398
1 399
1 400
1 401
1 402
1 403
1 404
1 405
1 406
1 407
1 408
1 409
1 410
1 411
1 412
1 413
1 414
1 415
1 416
1 417
1 418
1 419
1 420
1 421
1 422
1 423
1 424
1 425
1 426
1 427
1 428
1 429
1 430
1 431
1 432
1 433
1 434
1 435
1 436
1 437
1 438
1 439
1 440
1 441
1 442
1 443
1 444
1 445
1 446
1 447
1 448
1 449
1 450
1 451
1 452
1 453
1 454
1 455
1 456
1 457
1 458
1 459
1 460
1 461
1 462
1 463
1 464
1 465
1 466
1 467
1 468
1 469
1 470
1 471
1 472
1 473
1 474
1 475
1 476
1 477
1 478
1 479
1 480
1 481
1 482
1 483
1 484
1 485
1 486
1 487
1 488
1 489
1 490
1 491
1 492
1 493
1 494
1 495
1 496
1 497
1 498
1 499
1 500
1 501
1 502
1 503
1 504
1 505
1 506
1 507
1 508
1 509
1 510
1 511
1 512
1 513
1 514
1 515
1 516
1 517
1 518
1 519
1 520
1 521
1 522
1 523
1 524
1 525
1 526
1 527
1 528
1 529
1 530
1 531
1 532
1 533
1 534
1 535
1 536
1 537
1 538
1 539
1 540
1 541
1 542
1 543
1 544
1 545
1 546
1 547
1 548
1 549
1 550
1 551
1 552
1 553
1 554
1 555
1 556
1 557
1 558
1 559
1 560
1 561
1 562
1 563
1 564
1 565
1 566
1 567
1 568
1 569
1 570
1 571
1 572
1 573
1 574
1 575
1 576
1 577
1 578
1 579
1 580
1 581
1 582
1 583
1 584
1 585
1 586
1 587
1 588
1 589
1 590
1 591
1 592
1 593
1 594
1 595
1 596
1 597
1 598
1 599
1 600
1 601
1 602
1 603
1 604
1 605
1 606
1 607
1 608
1 609
1 610
1 611
1 612
1 613
1 614
1 615
1 616
1 617
1 618
1 619
1 620
1 621
1 622
1 623
1 624
1 625
1 626
1 627
1 628
1 629
1 630
1 631
1 632
1 633
1 634
1 635
1 636
1 637
1 638
1 639
1 640
1 641
1 642
1 643
1 644
1 645
1 646
1 647
1 648
1 649
1 650
1 651
1 652
1 653
1 654
1 655
1 656
1 657
1 658
1 659
1 660
1 661
1 662
1 663
1 664
1 665
1 666
1 667
1 668
1 669
1 670
1 671
1 672
1 673
1 674
1 675
1 676
1 677
1 678
1 679
1 680
1 681
1 682
1 683
1 684
1 685
1 686
1 687
1 688
1 689
1 690
1 691
1 692
1 693
1 694
1 695
1 696
1 697
1 698
1 699
1 700
1 701
1 702
1 703
1 704
1 705
1 706
1 707
1 708
1 709
1 710
1 711
1 712
1 713
1 714
1 715
1 716
1 717
1 718
1 719
1 720
1 721
1 722
1 723
1 724
1 725
1 726
1 727
1 728
1 729
1 730
1 731
1 732
1 733
1 734
1 735
1 736
1 737
1 738
1 739
1 740
1 741
1 742
1 743
1 744
1 745
1 746
1 747
1 748
1 749
1 750
1 751
1 752
1 753
1 754
1 755
1 756
1 757
1 758
1 759
1 760
1 761
1 762
1 763
1 764
1 765
1 766
1 767
1 768
1 769
1 770
1 771
1 772
1 773
1 774
1 775
1 776
1 777
1 778
1 779
1 780
1 781
1 782
1 783
1 784
1 785
1 786
1 787
1 788
1 789
1 790
1 791
1 792
1 793
1 794
1 795
1 796
1 797
1 798
1 799
1 800
1 801
1 802
1 803
1 804
1 805
1 806
1 807
1 808
1 809
1 810
1 811
1 812
1 813
1 814
1 815
1 816
1 817
1 818
1 819
1 820
1 821
1 822
1 823
1 824
1 825
1 826
1 827
1 828
1 829
1 830
1 831
1 832
1 833
1 834
1 835
1 836
1 837
1 838
1 839
1 840
1 841
1 842
1 843
1 844
1 845
1 846
1 847
1 848
1 849
1 850
1 851
1 852
1 853
1 854
1 855
1 856
1 857
1 858
1 859
1 860
1 861
1 862
1 863
1 864
1 865
1 866
1 867
1 868
1 869
1 870
1 871
1 872
1 873
1 874
1 875
1 876
1 877
1 878
1 879
1 880
1 881
1 882
1 883
1 884
1 885
1 886
1 887
1 888
1 889
1 890
1 891
1 892
1 893
1 894
1 895
1 896
1 897
1 898
1 899
1 900
1 901
1 902
1 903
1 904
1 905
1 906
1 907
1 908
1 909
1 910
1 911
1 912
1 913
1 914
1 915
1 916
1 917
1 918
1 919
1 920
1 921
1 922
1 923
1 924
1 925
1 926
1 927
1 928
1 929
1 930
1 931
1 932
1 933
1 934
1 935
1 936
1 937
1 938
1 939
1 940
1 941
1 942
1 943
1 944
1 945
1 946
1 947
1 948
1 949
1 950
1 951
1 952
1 953
1 954
1 955
1 956
1 957
1 958
1 959
1 960
1 961
1 962
1 963
1 964
1 965
1 966
1 967
1 968
1 969
1 970
1 971
1 972
1 973
1 974
1 975
1 976
1 977
1 978
1 979
1 980
1 981
1 982
1 983
1 984
1 985
1 986
1 987
1 988
1 989
1 990
1 991
1 992
1 993
1 994
1 995
1 996
1 997
1 998
1 999
1 1000
1 1001
1 1002
1 1003
1 1004
1 1005
1 1006
1 1007
1 1008
1 1009
1 1010
1 1011
1 1012
1 1013
1 1014
1 1015
1 1016
1 1017
1 1018
1 1019
1 1020
1 1021
1 1022
1 1023
1 1024
1 1025
1 1026
1 1027
1 1028
1 1029
1 1030
1 1031
1 1032
1 1033
1 1034
1 1035
1 1036
1 1037
1 1038
1 1039
1 1040
1 1041
1 1042
1 1043
1 1044
1 1045
1 1046
1 1047
1 1048
1 1049
1 1050
1 1051
1 1052
1 1053
1 1054
1 1055
1 1056
1 1057
1 1058
1 1059
1 1060
1 1061
1 1062
1 1063
1 1064
1 1065
1 1066
1 1067
1 1068
1 1069
1 1070
1 1071
1 1072
1 1073
1 1074
1 1075
1 1076
1 1077
1 1078
1 1079
1 1080
1 1081
1 1082
1 1083
1 1084
1 1085
1 1086
1 1087
1 1088
1 1089
1 1090
1 1091
1 1092
1 1093
1 1094
1 1095
1 1096
1 1097
1 1098
1 1099
1 1100
1 1101
1 1102
1 1103
1 1104
1 1105
1 1106
1 1107
1 1108
1 1109
1 1110
1 1111
1 1112
1 1113
1 1114
1 1115
1 1116
1 1117
1 1118
1 1119
1 1120
1 1121
1 1122
1 1123
1 1124
1 1125
1 1126
1 1127
1 1128
1 1129
1 1130
1 1131
1 1132
1 1133
1 1134
1 1135
1 1136
1 1137
1 1138
1 1139
1 1140
1 1141
1 1142
1 1143
1 1144
1 1145
1 1146
1 1147
1 1148
1 1149
1 1150
1 1151
1 1152
1 1153
1 1154
1 1155
1 1156
1 1157
1 1158
1 1159
1 1160
1 1161
1 1162
1 1163
1 1164
1 1165
1 1166
1 1167
1 1168
1 1169
1 1170
1 1171
1 1172
1 1173
1 1174
1 1175
1 1176
1 1177
1 1178
1 1179
1 1180
1 1181
1 1182
1 1183
1 1184
1 1185
1 1186
1 1187
1 1188
1 1189
1 1190
1 1191
1 1192
1 1193
1 1194
1 1195
1 1196
1 1197
1 1198
1 1199
1 1200
1 1201
1 1202
1 1203
1 1204
1 1205
1 1206
1 1207
1 1208
1 1209
1 1210
1 1211
1 1212
1 1213
1 1214
1 1215
1 1216
1 1217
1 1218
1 1219
1 1220
1 1221
1 1222
1 1223
1 1224
1 1225
1 1226
1 1227
1 1228
1 1229
1 1230
1 1231
1 1232
1 1233
1 1234
1 1235
1 1236
1 1237
1 1238
1 1239
1 1240
1 1241
1 1242
1 1243
1 1244
1 1245
1 1246
1 1247
1 1248
1 1249
1 1250
1 1251
1 1252
1 1253
1 1254
1 1255
1 1256
1 1257
1 1258
1 1259
1 1260
1 1261
1 1262
1 1263
1 1264
1 1265
1 1266
1 1267
1 1268
1 1269
1 1270
1 1271
1 1272
1 1273
1 1274
1 1275
1 1276
1 1277
1 1278
1 1279
1 1280
1 1281
1 1282
1 1283
1 1284
1 1285
1 1286
1 1287
1 1288
1 1289
1 1290
1 1291
1 1292
1 1293
1 1294
1 1295
1 1296
1 1297
1 1298
1 1299
1 1300
1 1301
1 1302
1 1303
1 1304
1 1305
1 1306
1 1307
1 1308
1 1309
1 1310
1 1311
1 1312
1 1313
1 1314
1 1315
1 1316
1 1317
1 1318
1 1319
1 1320
1 1321
1 1322
1 1323
1 1324
1 1325
1 1326
1 1327
1 1328
1 1329
1 1330
1 1331
1 1332
1 1333
1 1334
1 1335
1 1336
1 1337
1 1338
1 1339
1 1340
1 1341
1 1342
1 1343
1 1344
1 1345
1 1346
1 1347
1 1348
1 1349
1 1350
1 1351
1 1352
1 1353
1 1354
1 1355
1 1356
1 1357
1 1358
1 1359
1 1360
1 1361
1 1362
1 1363
1 1364
1 1365
1 1366
1 1367
1 1368
1 1369
1 1370
1 1371
1 1372
1 1373
1 1374
1 1375
1 1376
1 1377
1 1378
1 1379
1 1380
1 1381
1 1382
1 1383
1 1384
1 1385
1 1386
1 1387
1 1388
1 1389
1 1390
1 1391
1 1392
1 1393
1 1394
1 1395
1 1396
1 1397
1 1398
1 1399
1 1400
1 1401
1 1402
1 1403
1 1404
1 1405
1 1406
1 1407
1 1408
1 1409
1 1410
1 1411
1 1412
1 1413
1 1414
1 1415
1 1416
1 1417
1 1418
1 1419
1 1420
1 1421
1 1422
1 1423
1 1424
1 1425
1 1426
1 1427
1 1428
1 1429
1 1430
1 1431
1 1432
1 1433
1 1434
1 1435
1 1436
1 1437
1 1438
1 1439
1 1440
1 1441
1 1442
1 1443
1 1444
1 1445
1 1446
1 1447
1 1448
1 1449
1 1450
1 1451
1 1452
1 1453
1 1454
1 1455
1 1456
1 1457
1 1458
1 1459
1 1460
1 1461
1 1462
1 1463
1 1464
1 1465
1 1466
1 1467
1 1468
1 1469
1 1470
1 1471
1 1472
1 1473
1 1474
1 1475
1 1476
1 1477
1 1478
1 1479
1 1480
1 1481
1 1482
1 1483
1 1484
1 1485
1 1486
1 1487
1 1488
1 1489
1 1490
1 1491
1 1492
1 1493
1 1494
1 1495
1 1496
1 1497
1 1498
1 1499
1 1500
1 1501
1 1502
1 1503
1 1504
1 1505
1 1506
1 1507
1 1508
1 1509
1 1510
1 1511
1 1512
1 1513
1 1514
1 1515
1 1516
1 1517
1 1518
1 1519
1 1520
1 1521
1 1522
1 1523
1 1524
1 1525
1 1526
1 1527
1 1528
1 1529
1 1530
1 1531
1 1532
1 1533
1 1534
1 1535
1 1536
1 1537
1 1538
1 1539
1 1540
1 1541
1 1542
1 1543
1 1544
1 1545
1 1546
1 1547
1 1548
1 1549
1 1550
1 1551
1 1552
1 1553
1 1554
1 1555
1 1556
1 1557
1 1558
1 1559
1 1560
1 1561
1 1562
1 1563
1 1564
1 1565
1 1566
1 1567
1 1568
1 1569
1 1570
1 1571
1 1572
1 1573
1 1574
1 1575
1 1576
1 1577
1 1578
1 1579
1 1580
1 1581
1 1582
1 1583
1 1584
1 1585
1 1586
1 1587
1 1588
1 1589
1 1590
1 1591
1 1592
1 1593
1 1594
1 1595
1 1596
1 1597
1 1598
1 1599
1 1600
1 1601
1 1602
1 1603
1 1604
1 1605
1 1606
1 1607
1 1608
1 1609
1 1610
1 1611
1 1612
1 1613
1 1614
1 1615
1 1616
1 1617
1 1618
1 1619
1 1620
1 1621
1 1622
1 1623
1 1624
1 1625
1 1626
1 1627
1 1628
1 1629
1 1630
1 1631
1 1632
1 1633
1 1634
1 1635
1 1636
1 1637
1 1638
1 1639
1 1640
1 1641
1 1642
1 1643
1 1644
1 1645
1 1646
1 1647
1 1648
1 1649
1 1650
1 1651
1 1652
1 1653
1 1654
1 1655
1 1656
1 1657
1 1658
1 1659
1 1660
1 1661
1 1662
1 1663
1 1664
1 1665
1 1666
1 1667
1 1668
1 1669
1 1670
1 1671
1 1672
1 1673
1 1674
1 1675
1 1676
1 1677
1 1678
1 1679
1 1680
1 1681
1 1682
1 1683
1 1684
1 1685
1 1686
1 1687
1 1688
1 1689
1 1690
1 1691
1 1692
1 1693
1 1694
1 1695
1 1696
1 1697
1 1698
1 1699
1 1700
1 1701
1 1702
1 1703
1 1704
1 1705
1 1706
1 1707
1 1708
1 1709
1 1710
1 1711
1 1712
1 1713
1 1714
1 1715
1 1716
1 1717
1 1718
1 1719
1 1720
1 1721
1 1722
1 1723
1 1724
1 1725
1 1726
1 1727
1 1728
1 1729
1 1730
1 1731
1 1732
1 1733
1 1734
1 1735
1 1736
1 1737
1 1738
1 1739
1 1740
1 1741
1 1742
1 1743
1 1744
1 1745
1 1746
1 1747
1 1748
1 1749
1 1750
1 1751
1 1752
1 1753
1 1754
1 1755
1 1756
1 1757
1 1758
1 1759
1 1760
1 1761
1 1762
1 1763
1 1764
1 1765
1 1766
1 1767
1 1768
1 1769
1 1770
1 1771
1 1772
1 1773
1 1774
1 1775
1 1776
1 1777
1 1778
1 1779
1 1780
1 1781
1 1782
1 1783
1 1784
1 1785
1 1786
1 1787
1 1788
1 1789
1 1790
1 1791
1 1792
1 1793
1 1794
1 1795
1 1796
1 1797
1 1798
1 1799
1 1800
1 1801
1 1802
1 1803
1 1804
1 1805
1 1806
1 1807
1 1808
1 1809
1 1810
1 1811
1 1812
1 1813
1 1814
1 1815
1 1816
1 1817
1 1818
1 1819
1 1820
1 1821
1 1822
1 1823
1 1824
1 1825
1 1826
1 1827
1 1828
1 1829
1 1830
1 1831
1 1832
1 1833
1 1834
1 1835
1 1836
1 1837
1 1838
1 1839
1 1840
1 1841
1 1842
1 1843
1 1844
1 1845
1 1846
1 1847
1 1848
1 1849
1 1850
1 1851
1 1852
1 1853
1 1854
1 1855
1 1856
1 1857
1 1858
1 1859
1 1860
1 1861
1 1862
1 1863
1 1864
1 1865
1 1866
1 1867
1 1868
1 1869
1 1870
1 1871
1 1872
1 1873
1 1874
1 1875
1 1876
1 1877
1 1878
1 1879
1 1880
1 1881
1 1882
1 1883
1 1884
1 1885
1 1886
1 1887
1 1888
1 1889
1 1890
1 1891
1 1892
1 1893
1 1894
1 1895
1 1896
1 1897
1 1898
1 1899
1 1900
1 1901
1 1902
1 1903
1 1904
1 1905
1 1906
1 1907
1 1908
1 1909
1 1910
1 1911
1 1912
1 1913
1 1914
1 1915
1 1916
1 1917
1 1918
1 1919
1 1920
1 1921
1 1922
1 1923
1 1924
1 1925
1 1926
1 1927
1 1928
1 1929
1 1930
1 1931
1 1932
1 1933
1 1934
1 1935
1 1936
1 1937
1 1938
1 1939
1 1940
1 1941
1 1942
1 1943
1 1944
1 1945
1 1946
1 1947
1 1948
1 1949
1 1950
1 1951
1 1952
1 1953
1 1954
1 1955
1 1956
1 1957
1 1958
1 1959
1 1960
1 1961
1 1962
1 1963
1 1964
1 1965
1 1966
1 1967
1 1968
1 1969
1 1970
1 1971
1 1972
1 1973
1 1974
1 1975
1 1976
1 1977
1 1978
1 1979
1 1980
1 1981
1 1982
1 1983
1 1984
1 1985
1 1986
1 1987
1 1988
1 1989
1 1990
1 1991
1 1992
1 1993
1 1994
1 1995
1 1996
1 1997
1 1998
1 1999
1 2000
1 2001
1 2002
1 2003
1 2004
1 2005
1 2006
1 2007
1 2008
1 2009
1 2010
1 2011
1 2012
1 2013
1 2014
1 2015
1 2016
1 2017
1 2018
1 2019
1 2020
1 2021
1 2022
1 2023
1 2024
1 2025
1 2026
1 2027
1 2028
1 2029
1 2030
1 2031
1 2032
1 2033
1 2034
1 2035
1 2036
1 2037
1 2038
1 2039
1 2040
1 2041
1 2042
1 2043
1 2044
1 2045
1 2046
1 2047
1 2048
1 2049
1 2050
1 2051
1 2052
1 2053
1 2054
1 2055
1 2056
1 2057
1 2058
1 2059
1 2060
1 2061
1 2062
1 2063
1 2064
1 2065
1 2066
1 2067
1 2068
1 2069
1 2070
1 2071
1 2072
1 2073
1 2074
1 2075
1 2076
1 2077
1 2078
1 2079
1 2080
1 2081
1 2082
1 2083
1 2084
1 2085
1 2086
1 2087
1 2088
1 2089
1 2090
1 2091
1 2092
1 2093
1 2094
1 2095
1 2096
1 2097
1 2098
1 2099
1 2100
1 2101
1 2102
1 2103
1 2104
1 2105
1 2106
1 2107
1 2108
1 2109
1 2110
1 2111
1 2112
1 2113
1 2114
1 2115
1 2116
1 2117
1 2118
1 2119
1 2120
1 2121
1 2122
1 2123
1 2124
1 2125
1 2126
1 2127
1 2128
1 2129
1 2130
1 2131
1 2132
1 2133
1 2134
1 2135
1 2136
1 2137
1 2138
1 2139
1 2140
1 2141
1 2142
1 2143
1 2144
1 2145
1 2146
1 2147
1 2148
1 2149
1 2150
1 2151
1 2152
1 2153
1 2154
1 2155
1 2156
1 2157
1 2158
1 2159
1 2160
1 2161
1 2162
1 2163
1 2164
1 2165
1 2166
1 2167
1 2168
1 2169
1 2170
1 2171
1 2172
1 2173
1 2174
1 2175
1 2176
1 2177
1 2178
1 2179
1 2180
1 2181
1 2182
1 2183
1 2184
1 2185
1 2186
1 2187
1 2188
1 2189
1 2190
1 2191
1 2192
1 2193
1 2194
1 2195
1 2196
1 2197
1 2198
1 2199
1 2200
1 2201
1 2202
1 2203
1 2204
1 2205
1 2206
1 2207
1 2208
1 2209
1 2210
1 2211
1 2212
1 2213
1 2214
1 2215
1 2216
1 2217
1 2218
1 2219
1 2220
1 2221
1 2222
1 2223
1 2224
1 2225
1 2226
1 2227
1 2228
1 2229
1 2230
1 2231
1 2232
1 2233
1 2234
1 2235
1 2236
1 2237
1 2238
1 2239
1 2240
1 2241
1 2242
1 2243
1 2244
1 2245
1 2246
1 2247
1 2248
1 2249
1 2250
1 2251
1 2252
1 2253
1 2254
1 2255
1 2256
1 2257
1 2258
1 2259
1 2260
1 2261
1 2262
1 2263
1 2264
1 2265
1 2266
1 2267
1 2268
1 2269
1 2270
1 2271
1 2272
1 2273
1 2274
1 2275
1 2276
1 2277
1 2278
1 2279
1 2280
1 2281
1 2282
1 2283
1 2284
1 2285
1 2286
1 2287
1 2288
1 2289
1 2290
1 2291
1 2292
1 2293
1 2294
1 2295
1 2296
1 2297
1 2298
1 2299
1 2300
1 2301
1 2302
1 2303
1 2304
1 2305
1 2306
1 2307
1 2308
1 2309
1 2310
1 2311
1 2312
1 2313
1 2314
1 2315
1 2316
1 2317
1 2318
1 2319
1 2320
1 2321
1 2322
1 2323
1 2324
1 2325
1 2326
1 2327
1 2328
1 2329
1 2330
1 2331
1 2332
1 2333
1 2334
1 2335
1 2336
1 2337
1 2338
1 2339
1 2340
1 2341
1 2342
1 2343
1 2344
1 2345
1 2346
1 2347
1 2348
1 2349
1 2350
1 2351
1 2352
1 2353
1 2354
1 2355
1 2356
1 2357
1 2358
1 2359
1 2360
1 2361
1 2362
1 2363
1 2364
1 2365
1 2366
1 2367
1 2368
1 2369
1 2370
1 2371
1 2372
1 2373
1 2374
1 2375
1 2376
1 2377
1 2378
1 2379
1 2380
1 2381
1 2382
1 2383
1 2384
1 2385
1 2386
1 2387
1 2388
1 2389
1 2390
1 2391
1 2392
1 2393
1 2394
1 2395
1 2396
1 2397
1 2398
1 2399
1 2400
1 2401
1 2402
1 2403
1 2404
1 2405
1 2406
1 2407
1 2408
1 2409
1 2410
1 2411
1 2412
1 2413
1 2414
1 2415
1 2416
1 2417
1 2418
1 2419
1 2420
1 2421
1 2422
1 2423
1 2424
1 2425
1 2426
1 2427
1 2428
1 2429
1 2430
1 2431
1 2432
1 2433
1 2434
1 2435
1 2436
1 2437
1 2438
1 2439
1 2440
1 2441
1 2442
1 2443
1 2444
1 2445
1 2446
1 2447
1 2448
1 2449
1 2450
1 2451
1 2452
1 2453
1 2454
1 2455
1 2456
1 2457
1 2458
1 2459
1 2460
1 2461
1 2462
1 2463
1 2464
1 2465
1 2466
1 2467
1 2468
1 2469
1 2470
1 2471
1 2472
1 2473
1 2474
1 2475
1 2476
1 2477
1 2478
1 2479
1 2480
1 2481
1 2482
1 2483
1 2484
1 2485
1 2486
1 2487
1 2488
1 2489
1 2490
1 2491
1 2492
1 2493
1 2494
1 2495
1 2496
1 2497
1 2498
1 2499
1 2500
1 2501
1 2502
1 2503
1 2504
1 2505
1 2506
1 2507
1 2508
1 2509
1 2510
1 2511
1 2512
1 2513
1 2514
1 2515
1 2516
1 2517
1 2518
1 2519
1 2520
1 2521
1 2522
1 2523
1 2524
1 2525
1 2526
1 2527
1 2528
1 2529
1 2530
1 2531
1 2532
1 2533
1 2534
1 2535
1 2536
1 2537
1 2538
1 2539
1 2540
1 2541
1 2542
1 2543
1 2544
1 2545
1 2546
1 2547
1 2548
1 2549
1 2550
1 2551
1 2552
1 2553
1 2554
1 2555
1 2556
1 2557
1 2558
1 2559
1 2560
1 2561
1 2562
1 2563
1 2564
1 2565
1 2566
1 2567
1 2568
1 2569
1 2570
1 2571
1 2572
1 2573
1 2574
1 2575
1 2576
1 2577
1 2578
1 2579
1 2580
1 2581
1 2582
1 2583
1 2584
1 2585
1 2586
1 2587
1 2588
1 2589
1 2590
1 2591
1 2592
1 2593
1 2594
1 2595
1 2596
1 2597
1 2598
1 2599
1 2600
1 2601
1 2602
1 2603
1 2604
1 2605
1 2606
1 2607
1 2608
1 2609
1 2610
1 2611
1 2612
1 2613
1 2614
1 2615
1 2616
1 2617
1 2618
1 2619
1 2620
1 2621
1 2622
1 2623
1 2624
1 2625
1 2626
1 2627
1 2628
1 2629
1 2630
1 2631
1 2632
1 2633
1 2634
1 2635
1 2636
1 2637
1 2638
1 2639
1 2640
1 2641
1 2642
1 2643
1 2644
1 2645
1 2646
1 2647
1 2648
1 2649
1 2650
1 2651
1 2652
1 2653
1 2654
1 2655
1 2656
1 2657
1 2658
1 2659
1 2660
1 2661
1 2662
1 2663
1 2664
1 2665
1 2666
1 2667
1 2668
1 2669
1 2670
1 2671
1 2672
1 2673
1 2674
1 2675
1 2676
1 2677
1 2678
1 2679
1 2680
1 2681
1 2682
1 2683
1 2684
1 2685
1 2686
1 2687
1 2688
1 2689
1 2690
1 2691
1 2692
1 2693
1 2694
1 2695
1 2696
1 2697
1 2698
1 2699
1 2700
1 2701
1 2702
1 2703
1 2704
1 2705
1 2706
1 2707
1 2708
1 2709
1 2710
1 2711
1 2712
1 2713
1 2714
1 2715
1 2716
1 2717
1 2718
1 2719
1 2720
1 2721
1 2722
1 2723
1 2724
1 2725
1 2726
1 2727
1 2728
1 2729
1 2730
1 2731
1 2732
1 2733
1 2734
1 2735
1 2736
1 2737
1 2738
1 2739
1 2740
1 2741
1 2742
1 2743
1 2744
1 2745
1 2746
1 2747
1 2748
1 2749
1 2750
1 2751
1 2752
1 2753
1 2754
1 2755
1 2756
1 2757
1 2758
1 2759
1 2760
1 2761
1 2762
1 2763
1 2764
1 2765
1 2766
1 2767
1 2768
1 2769
1 2770
1 2771
1 2772
1 2773
1 2774
1 2775
1 2776
1 2777
1 2778
1 2779
1 2780
1 2781
1 2782
1 2783
1 2784
1 2785
1 2786
1 2787
1 2788
1 2789
1 2790
1 2791
1 2792
1 2793
1 2794
1 2795
1 2796
1 2797
1 2798
1 2799
1 2800
1 2801
1 2802
1 2803
1 2804
1 2805
1 2806
1 2807
1 2808
1 2809
1 2810
1 2811
1 2812
1 2813
1 2814
1 2815
1 2816
1 2817
1 2818
1 2819
1 2820
1 2821
1 2822
1 2823
1 2824
1 2825
1 2826
1 2827
1 2828
1 2829
1 2830
1 2831
1 2832
1 2833
1 2834
1 2835
1 2836
1 2837
1 2838
1 2839
1 2840
1 2841
1 2842
1 2843
1 2844
1 2845
1 2846
1 2847
1 2848
1 2849
1 2850
1 2851
1 2852
1 2853
1 2854
1 2855
1 2856
1 2857
1 2858
1 2859
1 2860
1 2861
1 2862
1 2863
1 2864
1 2865
1 2866
1 2867
1 2868
1 2869
1 2870
1 2871
1 2872
1 2873
1 2874
1 2875
1 2876
1 2877
1 2878
1 2879
1 2880
1 2881
1 2882
1 2883
1 2884
1 2885
1 2886
1 2887
1 2888
1 2889
1 2890
1 2891
1 2892
1 2893
1 2894
1 2895
1 2896
1 2897
1 2898
1 2899
1 2900
1 2901
1 2902
1 2903
1 2904
1 2905
1 2906
1 2907
1 2908
1 2909
1 2910
1 2911
1 2912
1 2913
1 2914
1 2915
1 2916
1 2917
1 2918
1 2919
1 2920
1 2921
1 2922
1 2923
1 2924
1 2925
1 2926
1 2927
1 2928
1 2929
1 2930
1 2931
1 2932
1 2933
1 2934
1 2935
1 2936
1 2937
1 2938
1 2939
1 2940
1 2941
1 2942
1 2943
1 2944
1 2945
1 2946
1 2947
1 2948
1 2949
1 2950
1 2951
1 2952
1 2953
1 2954
1 2955
1 2956
1 2957
1 2958
1 2959
1 2960
1 2961
1 2962
1 2963
1 2964
1 2965
1 2966
1 2967
1 2968
1 2969
1 2970
1 2971
1 2972
1 2973
1 2974
1 2975
1 2976
1 2977
1 2978
1 2979
1 2980
1 2981
1 2982
1 2983
1 2984
1 2985
1 2986
1 2987
1 2988
1 2989
1 2990
1 2991
1 2992
1 2993
1 2994
1 2995
1 2996
1 2997
1 2998
1 2999
1 3000
1 3001
1 3002
1 3003
1 3004
1 3005
1 3006
1 3007
1 3008
1 3009
1 3010
1 3011
1 3012
1 3013
1 3014
1 3015
1 3016
1 3017
1 3018
1 3019
1 3020
1 3021
1 3022
1 3023
1 3024
1 3025
1 3026
1 3027
1 3028
1 3029
1 3030
1 3031
1 3032
1 3033
1 3034
1 3035
1 3036
1 3037
1 3038
1 3039
1 3040
1 3041
1 3042
1 3043
1 3044
1 3045
1 3046
1 3047
1 3048
1 3049
1 3050
1 3051
1 3052
1 3053
1 3054
1 3055
1 3056
1 3057
1 3058
1 3059
1 3060
1 3061
1 3062
1 3063
1 3064
1 3065
1 3066
1 3067
1 3068
1 3069
1 3070
1 3071
1 3072
1 3073
1 3074
1 3075
1 3076
1 3077
1 3078
1 3079
1 3080
1 3081
1 3082
1 3083
1 3084
1 3085
1 3086
1 3087
1 3088
1 3089
1 3090
1 3091
1 3092
1 3093
1 3094
1 3095
1 3096
1 3097
1 3098
1 3099
1 3100
1 3101
1 3102
1 3103
1 3104
1 3105
1 3106
1 3107
1 3108
1 3109
1 3110
1 3111
1 3112
1 3113
1 3114
1 3115
1 3116
1 3117
1 3118
1 3119
1 3120
1 3121
1 3122
1 3123
1 3124
1 3125
1 3126
1 3127
1 3128
1 3129
1 3130
1 3131
1 3132
1 3133
1 3134
1 3135
1 3136
1 3137
1 3138
1 3139
1 3140
1 3141
1 3142
1 3143
1 3144
1 3145
1 3146
1 3147
1 3148
1 3149
1 3150
1 3151
1 3152
1 3153
1 3154
1 3155
1 3156
1 3157
1 3158
1 3159
1 3160
1 3161
1 3162
1 3163
1 3164
1 3165
1 3166
1 3167
1 3168
1 3169
1 3170
1 3171
1 3172
1 3173
1 3174
1 3175
1 3176
1 3177
1 3178
1 3179
1 3180
1 3181
1 3182
1 3183
1 3184
1 3185
1 3186
1 3187
1 3188
1 3189
1 3190
1 3191
1 3192
1 3193
1 3194
1 3195
1 3196
1 3197
1 3198
1 3199
1 3200
1 3201
1 3202
1 3203
1 3204
1 3205
1 3206
1 3207
1 3208
1 3209
1 3210
1 3211
1 3212
1 3213
1 3214
1 3215
1 3216
1 3217
1 3218
1 3219
1 3220
1 3221
1 3222
1 3223
1 3224
1 3225
1 3226
1 3227
1 3228
1 3229
1 3230
1 3231
1 3232
1 3233
1 3234
1 3235
1 3236
1 3237
1 3238
1 3239
1 3240
1 3241
1 3242
1 3243
1 3244
1 3245
1 3246
1 3247
1 3248
1 3249
1 3250
1 3251
1 3252
1 3253
1 3254
1 3255
1 3256
1 3257
1 3258
1 3259
1 3260
1 3261
1 3262
1 3263
1 3264
1 3265
1 3266
1 3267
1 3268
1 3269
1 3270
1 3271
1 3272
1 3273
1 3274
1 3275
1 3276
1 3277
1 3278
1 3279
1 3280
1 3281
1 3282
1 3283
1 3284
1 3285
1 3286
1 3287
1 3288
1 3289
1 3290
1 3291
1 3292
1 3293
1 3294
1 3295
1 3296
1 3297
1 3298
1 3299
1 3300
1 3301
1 3302
1 3303
1 3304
1 3305
1 3306
1 3307
1 3308
1 3309
1 3310
1 3311
1 3312
1 3313
1 3314
1 3315
1 3316
1 3317
1 3318
1 3319
1 3320
1 3321
1 3322
1 3323
1 3324
1 3325
1 3326
1 3327
1 3328
1 3329
1 3330
1 3331
1 3332
1 3333
1 3334
1 3335
1 3336
1 3337
1 3338
1 3339
1 3340
1 3341
1 3342
1 3343
1 3344
1 3345
1 3346
1 3347
1 3348
1 3349
1 3350
1 3351
1 3352
1 3353
1 3354
1 3355
1 3356
1 3357
1 3358
1 3359
1 3360
1 3361
1 3362
1 3363
1 3364
1 3365
1 3366
1 3367
1 3368
1 3369
1 3370
1 3371
1 3372
1 3373
1 3374
1 3375
1 3376
1 3377
1 3378
1 3379
1 3380
1 3381
1 3382
1 3383
1 3384
1 3385
1 3386
1 3387
1 3388
1 3389
1 3390
1 3391
1 3392
1 3393
1 3394
1 3395
1 3396
1 3397
1 3398
1 3399
1 3400
1 3401
1 3402
1 3403
1 3404
1 3405
1 3406
1 3407
1 3408
1 3409
1 3410
1 3411
1 3412
1 3413
1 3414
1 3415
1 3416
1 3417
1 3418
1 3419
1 3420
1 3421
1 3422
1 3423
1 3424
1 3425
1 3426
1 3427
1 3428
1 3429
1 3430
1 3431
1 3432
1 3433
1 3434
1 3435
1 3436
1 3437
1 3438
1 3439
1 3440
1 3441
1 3442
1 3443
1 3444
1 3445
1 3446
1 3447
1 3448
1 3449
1 3450
1 3451
1 3452
1 3453
1 3454
1 3455
1 3456
1 3457
1 3458
1 3459
1 3460
1 3461
1 3462
1 3463
1 3464
1 3465
1 3466
1 3467
1 3468
1 3469
1 3470
1 3471
1 3472
1 3473
1 3474
1 3475
1 3476
1 3477
1 3478
1 3479
1 3480
1 3481
1 3482
1 3483
1 3484
1 3485
1 3486
1 3487
1 3488
1 3489
1 3490
1 3491
1 3492
1 3493
1 3494
1 3495
1 3496
1 3497
1 3498
1 3499
1 3500
1 3501
1 3502
1 3503
1 3504
1 3505
1 3506
1 3507
1 3508
1 3509
1 3510
1 3511
1 3512
1 3513
1 3514
1 3515
1 3516
1 3517
1 3518
1 3519
1 3520
1 3521
1 3522
1 3523
1 3524
1 3525
1 3526
1 3527
1 3528
1 3529
1 3530
1 3531
1 3532
1 3533
1 3534
1 3535
1 3536
1 3537
1 3538
1 3539
1 3540
1 3541
1 3542
1 3543
1 3544
1 3545
1 3546
1 3547
1 3548
1 3549
1 3550
1 3551
1 3552
1 3553
1 3554
1 3555
1 3556
1 3557
1 3558
1 3559
1 3560
1 3561
1 3562
1 3563
1 3564
1 3565
1 3566
1 3567
1 3568
1 3569
1 3570
1 3571
1 3572
1 3573
1 3574
1 3575
1 3576
1 3577
1 3578
1 3579
1 3580
1 3581
1 3582
1 3583
1 3584
1 3585
1 3586
1 3587
1 3588
1 3589
1 3590
1 3591
1 3592
1 3593
1 3594
1 3595
1 3596
1 3597
1 3598
1 3599
1 3600
1 3601
1 3602
1 3603
1 3604
1 3605
1 3606
1 3607
1 3608
1 3609
1 3610
1 3611
1 3612
1 3613
1 3614
1 3615
1 3616
1 3617
1 3618
1 3619
1 3620
1 3621
1 3622
1 3623
1 3624
1 3625
1 3626
1 3627
1 3628
1 3629
1 3630
1 3631
1 3632
1 3633
1 3634
1 3635
1 3636
1 3637
1 3638
1 3639
1 3640
1 3641
1 3642
1 3643
1 3644
1 3645
1 3646
1 3647
1 3648
1 3649
1 3650
1 3651
1 3652
1 3653
1 3654
1 3655
1 3656
1 3657
1 3658
1 3659
1 3660
1 3661
1 3662
1 3663
1 3664
1 3665
1 3666
1 3667
1 3668
1 3669
1 3670
1 3671
1 3672
1 3673
1 3674
1 3675
1 3676
1 3677
1 3678
1 3679
1 3680
1 3681
1 3682
1 3683
1 3684
1 3685
1 3686
1 3687
1 3688
1 3689
1 3690
1 3691
1 3692
1 3693
1 3694
1 3695
1 3696
1 3697
1 3698
1 3699
1 3700
1 3701
1 3702
1 3703
1 3704
1 3705
1 3706
1 3707
1 3708
1 3709
1 3710
1 3711
1 3712
1 3713
1 3714
1 3715
1 3716
1 3717
1 3718
1 3719
1 3720
1 3721
1 3722
1 3723
1 3724
1 3725
1 3726
1 3727
1 3728
1 3729
1 3730
1 3731
1 3732
1 3733
1 3734
1 3735
1 3736
1 3737
1 3738
1 3739
1 3740
1 3741
1 3742
1 3743
1 3744
1 3745
1 3746
1 3747
1 3748
1 3749
1 3750
1 3751
1 3752
1 3753
1 3754
1 3755
1 3756
1 3757
1 3758
1 3759
1 3760
1 3761
1 3762
1 3763
1 3764
1 3765
1 3766
1 3767
1 3768
1 3769
1 3770
1 3771
1 3772
1 3773
1 3774
1 3775
1 3776
1 3777
1 3778
1 3779
1 3780
1 3781
1 3782
1 3783
1 3784
1 3785
1 3786
1 3787
1 3788
1 3789
1 3790
1 3791
1 3792
1 3793
1 3794
1 3795
1 3796
1 3797
1 3798
1 3799
1 3800
1 3801
1 3802
1 3803
1 3804
1 3805
1 3806
1 3807
1 3808
1 3809
1 3810
1 3811
1 3812
1 3813
1 3814
1 3815
1 3816
1 3817
1 3818
1 3819
1 3820
1 3821
1 3822
1 3823
1 3824
1 3825
1 3826
1 3827
1 3828
1 3829
1 3830
1 3831
1 3832
1 3833
1 3834
1 3835
1 3836
1 3837
1 3838
1 3839
1 3840
1 3841
1 3842
1 3843
1 3844
1 3845
1 3846
1 3847
1 3848
1 3849
1 3850
1 3851
1 3852
1 3853
1 3854
1 3855
1 3856
1 3857
1 3858
1 3859
1 3860
1 3861
1 3862
1 3863
1 3864
1 3865
1 3866
1 3867
1 3868
1 3869
1 3870
1 3871
1 3872
1 3873
1 3874
1 3875
1 3876
1 3877
1 3878
1 3879
1 3880
1 3881
1 3882
1 3883
1 3884
1 3885
1 3886
1 3887
1 3888
1 3889
1 3890
1 3891
1 3892
1 3893
1 3894
1 3895
1 3896
1 3897
1 3898
1 3899
1 3900
1 3901
1 3902
1 3903
1 3904
1 3905
1 3906
1 3907
1 3908
1 3909
1 3910
1 3911
1 3912
1 3913
1 3914
1 3915
1 3916
1 3917
1 3918
1 3919
1 3920
1 3921
1 3922
1 3923
1 3924
1 3925
1 3926
1 3927
1 3928
1 3929
1 3930
1 3931
1 3932
1 3933
1 3934
1 3935
1 3936
1 3937
1 3938
1 3939
1 3940
1 3941
1 3942
1 3943
1 3944
1 3945
1 3946
1 3947
1 3948
1 3949
1 3950
1 3951
1 3952
1 3953
1 3954
1 3955
1 3956
1 3957
1 3958
1 3959
1 3960
1 3961
1 3962
1 3963
1 3964
1 3965
1 3966
1 3967
1 3968
1 3969
1 3970
1 3971
1 3972
1 3973
1 3974
1 3975
1 3976
1 3977
1 3978
1 3979
1 3980
1 3981
1 3982
1 3983
1 3984
1 3985
1 3986
1 3987
1 3988
1 3989
1 3990
1 3991
1 3992
1 3993
1 3994
1 3995
1 3996
1 3997
1 3998
1 3999
1 4000
1 4001
1 4002
1 4003
1 4004
1 4005
1 4006
1 4007
1 4008
1 4009
1 4010
1 4011
1 4012
1 4013
1 4014
1 4015
1 4016
1 4017
1 4018
1 4019
1 4020
1 4021
1 4022
1 4023
1 4024
1 4025
1 4026
1 4027
1 4028
1 4029
1 4030
1 4031
1 4032
1 4033
1 4034
1 4035
1 4036
1 4037
1 4038
1 4039
1 4040
1 4041
1 4042
1 4043
1 4044
1 4045
1 4046
1 4047
1 4048
1 4049
1 4050
1 4051
1 4052
1 4053
1 4054
1 4055
1 4056
1 4057
1 4058
1 4059
1 4060
1 4061
1 4062
1 4063
1 4064
1 4065
1 4066
1 4067
1 4068
1 4069
1 4070
1 4071
1 4072
1 4073
1 4074
1 4075
1 4076
1 4077
1 4078
1 4079
1 4080
1 4081
1 4082
1 4083
1 4084
1 4085
1 4086
1 4087
1 4088
1 4089
1 4090
1 4091
1 4092
1 4093
1 4094
1 4095
1 4096
1 4097
1 4098
1 4099
1 4100
1 4101
1 4102
1 4103
1 4104
1 4105
1 4106
1 4107
1 4108
1 4109
1 4110
1 4111
1 4112
1 4113
1 4114
1 4115
1 4116
1 4117
1 4118
1 4119
1 4120
1 4121
1 4122
1 4123
1 4124
1 4125
1 4126
1 4127
1 4128
1 4129
1 4130
1 4131
1 4132
1 4133
1 4134
1 4135
1 4136
1 4137
1 4138
1 4139
1 4140
1 4141
1 4142
1 4143
1 4144
1 4145
1 4146
1 4147
1 4148
1 4149
1 4150
1 4151
1 4152
1 4153
1 4154
1 4155
1 4156
1 4157
1 4158
1 4159
1 4160
1 4161
1 4162
1 4163
1 4164
1 4165
1 4166
1 4167
1 4168
1 4169
1 4170
1 4171
1 4172
1 4173
1 4174
1 4175
1 4176
1 4177
1 4178
1 4179
1 4180
1 4181
1 4182
1 4183
1 4184
1 4185
1 4186
1 4187
1 4188
1 4189
1 4190
1 4191
1 4192
1 4193
1 4194
1 4195
1 4196
1 4197
1 4198
1 4199
1 4200
1 4201
1 4202
1 4203
1 4204
1 4205
1 4206
1 4207
1 4208
1 4209
1 4210
1 4211
1 4212
1 4213
1 4214
1 4215
1 4216
1 4217
1 4218
1 4219
1 4220
1 4221
1 4222
1 4223
1 4224
1 4225
1 4226
1 4227
1 4228
1 4229
1 4230
1 4231
1 4232
1 4233
1 4234
1 4235
1 4236
1 4237
1 4238
1 4239
1 4240
1 4241
1 4242
1 4243
1 4244
1 4245
1 4246
1 4247
1 4248
1 4249
1 4250
1 4251
1 4252
1 4253
1 4254
1 4255
1 4256
1 4257
1 4258
1 4259
1 4260
1 4261
1 4262
1 4263
1 4264
1 4265
1 4266
1 4267
1 4268
1 4269
1 4270
1 4271
1 4272
1 4273
1 4274
1 4275
1 4276
1 4277
1 4278
1 4279
1 4280
1 4281
1 4282
1 4283
1 4284
1 4285
1 4286
1 4287
1 4288
1 4289
1 4290
1 4291
1 4292
1 4293
1 4294
1 4295
1 4296
1 4297
1 4298
1 4299
1 4300
1 4301
1 4302
1 4303
1 4304
1 4305
1 4306
1 4307
1 4308
1 4309
1 4310
1 4311
1 4312
1 4313
1 4314
1 4315
1 4316
1 4317
1 4318
1 4319
1 4320
1 4321
1 4322
1 4323
1 4324
1 4325
1 4326
1 4327
1 4328
1 4329
1 4330
1 4331
1 4332
1 4333
1 4334
1 4335
1 4336
1 4337
1 4338
1 4339
1 4340
1 4341
1 4342
1 4343
1 4344
1 4345
1 4346
1 4347
1 4348
1 4349
1 4350
1 4351
1 4352
1 4353
1 4354
1 4355
1 4356
1 4357
1 4358
1 4359
1 4360
1 4361
1 4362
1 4363
1 4364
1 4365
1 4366
1 4367
1 4368
1 4369
1 4370
1 4371
1 4372
1 4373
1 4374
1 4375
1 4376
1 4377
1 4378
1 4379
1 4380
1 4381
1 4382
1 4383
1 4384
1 4385
1 4386
1 4387
1 4388
1 4389
1 4390
1 4391
1 4392
1 4393
1 4394
1 4395
1 4396
1 4397
1 4398
1 4399
1 4400
1 4401
1 4402
1 4403
1 4404
1 4405
1 4406
1 4407
1 4408
1 4409
1 4410
1 4411
1 4412
1 4413
1 4414
1 4415
1 4416
1 4417
1 4418
1 4419
1 4420
1 4421
1 4422
1 4423
1 4424
1 4425
1 4426
1 4427
1 4428
1 4429
1 4430
1 4431
1 4432
1 4433
1 4434
1 4435
1 4436
1 4437
1 4438
1 4439
1 4440
1 4441
1 4442
1 4443
1 4444
1 4445
1 4446
1 4447
1 4448
1 4449
1 4450
1 4451
1 4452
1 4453
1 4454
1 4455
1 4456
1 4457
1 4458
1 4459
1 4460
1 4461
1 4462
1 4463
1 4464
1 4465
1 4466
1 4467
1 4468
1 4469
1 4470
1 4471
1 4472
1 4473
1 4474
1 4475
1 4476
1 4477
1 4478
1 4479
1 4480
1 4481
1 4482
1 4483
1 4484
1 4485
1 4486
1 4487
1 4488
1 4489
1 4490
1 4491
1 4492
1 4493
1 4494
1 4495
1 4496
1 4497
1 4498
1 4499
1 4500
1 4501
1 4502
1 4503
1 4504
1 4505
1 4506
1 4507
1 4508
1 4509
1 4510
1 4511
1 4512
1 4513
1 4514
1 4515
1 4516
1 4517
1 4518
1 4519
1 4520
1 4521
1 4522
1 4523
1 4524
1 4525
1 4526
1 4527
1 4528
1 4529
1 4530
1 4531
1 4532
1 4533
1 4534
1 4535
1 4536
1 4537
1 4538
1 4539
1 4540
1 4541
1 4542
1 4543
1 4544
1 4545
1 4546
1 4547
1 4548
1 4549
1 4550
1 4551
1 4552
1 4553
1 4554
1 4555
1 4556
1 4557
1 4558
1 4559
1 4560
1 4561
1 4562
1 4563
1 4564
1 4565
1 4566
1 4567
1 4568
1 4569
1 4570
1 4571
1 4572
1 4573
1 4574
1 4575
1 4576
1 4577
1 4578
1 4579
1 4580
1 4581
1 4582
1 4583
1 4584
1 4585
1 4586
1 4587
1 4588
1 4589
1 4590
1 4591
1 4592
1 4593
1 4594
1 4595
1 4596
1 4597
1 4598
1 4599
1 4600
1 4601
1 4602
1 4603
1 4604
1 4605
1 4606
1 4607
1 4608
1 4609
1 4610
1 4611
1 4612
1 4613
1 4614
1 4615
1 4616
1 4617
1 4618
1 4619
1 4620
1 4621
1 4622
1 4623
1 4624
1 4625
1 4626
1 4627
1 4628
1 4629
1 4630
1 4631
1 4632
1 4633
1 4634
1 4635
1 4636
1 4637
1 4638
1 4639
1 4640
1 4641
1 4642
1 4643
1 4644
1 4645
1 4646
1 4647
1 4648
1 4649
1 4650
1 4651
1 4652
1 4653
1 4654
1 4655
1 4656
1 4657
1 4658
1 4659
1 4660
1 4661
1 4662
1 4663
1 4664
1 4665
1 4666
1 4667
1 4668
1 4669
1 4670
1 4671
1 4672
1 4673
1 4674
1 4675
1 4676
1 4677
1 4678
1 4679
1 4680
1 4681
1 4682
1 4683
1 4684
1 4685
1 4686
1 4687
1 4688
1 4689
1 4690
1 4691
1 4692
1 4693
1 4694
1 4695
1 4696
1 4697
1 4698
1 4699
1 4700
1 4701
1 4702
1 4703
1 4704
1 4705
1 4706
1 4707
1 4708
1 4709
1 4710
1 4711
1 4712
1 4713
1 4714
1 4715
1 4716
1 4717
1 4718
1 4719
1 4720
1 4721
1 4722
1 4723
1 4724
1 4725
1 4726
1 4727
1 4728
1 4729
1 4730
1 4731
1 4732
1 4733
1 4734
1 4735
1 4736
1 4737
1 4738
1 4739
1 4740
1 4741
1 4742
1 4743
1 4744
1 4745
1 4746
1 4747
1 4748
1 4749
1 4750
1 4751
1 4752
1 4753
1 4754
1 4755
1 4756
1 4757
1 4758
1 4759
1 4760
1 4761
1 4762
1 4763
1 4764
1 4765
1 4766
1 4767
1 4768
1 4769
1 4770
1 4771
1 4772
1 4773
1 4774
1 4775
1 4776
1 4777
1 4778
1 4779
1 4780
1 4781
1 4782
1 4783
1 4784
1 4785
1 4786
1 4787
1 4788
1 4789
1 4790
1 4791
1 4792
1 4793
1 4794
1 4795
1 4796
1 4797
1 4798
1 4799
1 4800
1 4801
1 4802
1 4803
1 4804
1 4805
1 4806
1 4807
1 4808
1 4809
1 4810
1 4811
1 4812
1 4813
1 4814
1 4815
1 4816
1 4817
1 4818
1 4819
1 4820
1 4821
1 4822
1 4823
1 4824
1 4825
1 4826
1 4827
1 4828
1 4829
1 4830
1 4831
1 4832
1 4833
1 4834
1 4835
1 4836
1 4837
1 4838
1 4839
1 4840
1 4841
1 4842
1 4843
1 4844
1 4845
1 4846
1 4847
1 4848
1 4849
1 4850
1 4851
1 4852
1 4853
1 4854
1 4855
1 4856
1 4857
1 4858
1 4859
1 4860
1 4861
1 4862
1 4863
1 4864
1 4865
1 4866
1 4867
1 4868
1 4869
1 4870
1 4871
1 4872
1 4873
1 4874
1 4875
1 4876
1 4877
1 4878
1 4879
1 4880
1 4881
1 4882
1 4883
1 4884
1 4885
1 4886
1 4887
1 4888
1 4889
1 4890
1 4891
1 4892
1 4893
1 4894
1 4895
1 4896
1 4897
1 4898
1 4899
1 4900
1 4901
1 4902
1 4903
1 4904
1 4905
1 4906
1 4907
1 4908
1 4909
1 4910
1 4911
1 4912
1 4913
1 4914
1 4915
1 4916
1 4917
1 4918
1 4919
1 4920
1 4921
1 4922
1 4923
1 4924
1 4925
1 4926
1 4927
1 4928
1 4929
1 4930
1 4931
1 4932
1 4933
1 4934
1 4935
1 4936
1 4937
1 4938
1 4939
1 4940
1 4941
1 4942
1 4943
1 4944
1 4945
1 4946
1 4947
1 4948
1 4949
1 4950
1 4951
1 4952
1 4953
1 4954
1 4955
1 4956
1 4957
1 4958
1 4959
1 4960
1 4961
1 4962
1 4963
1 4964
1 4965
1 4966
1 4967
1 4968
1 4969
1 4970
1 4971
1 4972
1 4973
1 4974
1 4975
1 4976
1 4977
1 4978
1 4979
1 4980
1 4981
1 4982
1 4983
1 4984
1 4985
1 4986
1 4987
1 4988
1 4989
1 4990
1 4991
1 4992
1 4993
1 4994
1 4995
1 4996
1 4997
1 4998
1 4999
CELL_TYPES 5000
1 
1 
1 
1 
1 
1 
1 
1 
1 
1 
1 
1 
1 
1 
1 
1 
1 
1 
1 
1 
1 
1 
1 
1 
1 
1 
1 
1 
1 
1 
1 
1 
1 
1 
1 
1 
1 
1 
1 
1 
1 
1 
1 
1 
1 
1 
1 
1 
1 
1 
1 
1 
1 
1 
1 
1 
1 
1 
1 
1 
1 
1 
1 
1 
1 
1 
1 
1 
1 
1 
1 
1 
1 
1 
1 
1 
1 
1 
1 
1 
1 
1 
1 
1 
1 
1 
1 
1 
1 
1 
1 
1 
1 
1 
1 
1 
1 
1 
1 
1 
1 
1 
1 
1 
1 
1 
1 
1 
1 
1 
1 
1 
1 
1 
1 
1 
1 
1 
1 
1 
1 
1 
1 
1 
1 
1 
1 
1 
1 
1 
1 
1 
1 
1 
1 
1 
1 
1 
1 
1 
1 
1 
1 
1 
1 
1 
1 
1 
1 
1 
1 
1 
1 
1 
1 
1 
1 
1 
1 
1 
1 
1 
1 
1 
1 
1 
1 
1 
1 
1 
1 
1 
1 
1 
1 
1 
1 
1 
1 
1 
1 
1 
1 
1 
1 
1 
1 
1 
1 
1 
1 
1 
1 
1 
1 
1 
1 
1 
1 
1 
1 
1 
1 
1 
1 
1 
1 
1 
1 
1 
1 
1 
1 
1 
1 
1 
1 
1 
1 
1 
1 
1 
1 
1 
1 
1 
1 
1 
1 
1 
1 
1 
1 
1 
1 
1 
1 
1 
1 
1 
1 
1 
1 
1 
1 
1 
1 
1 
1 
1 
1 
1 
1 
1 
1 
1 
1 
1 
1 
1 
1 
1 
1 
1 
1 
1 
1 
1 
1 
1 
1 
1 
1 
1 
1 
1 
1 
1 
1 
1 
1 
1 
1 
1 
1 
1 
1 
1 
1 
1 
1 
1 
1 
1 
1 
1 
1 
1 
1 
1 
1 
1 
1 
1 
1 
1 
1 
1 
1 
1 
1 
1 
1 
1 
1 
1 
1 
1 
1 
1 
1 
1 
1 
1 
1 
1 
1 
1 
1 
1 
1 
1 
1 
1 
1 
1 
1 
1 
1 
1 
1 
1 
1 
1 
1 
1 
1 
1 
1 
1 
1 
1 
1 
1 
1 
1 
1 
1 
1 
1 
1 
1 
1 
1 
1 
1 
1 
1 
1 
1 
1 
1 
1 
1 
1 
1 
1 
1 
1 
1 
1 
1 
1 
1 
1 
1 
1 
1 
1 
1 
1 
1 
1 
1 
1 
1 
1 
1 
1 
1 
1 
1 
1 
1 
1 
1 
1 
1 
1 
1 
1 
1 
1 
1 
1 
1 
1 
1 
1 
1 
1 
1 
1 
1 
1 
1 
1 
1 
1 
1 
1 
1 
1 
1 
1 
1 
1 
1 
1 
1 
1 
1 
1 
1 
1 
1 
1 
1 
1 
1 
1 
1 
1 
1 
1 
1 
1 
1 
1 
1 
1 
1 
1 
1 
1 
1 
1 
1 
1 
1 
1 
1 
1 
1 
1 
1 
1 
1 
1 
1 
1 
1 
1 
1 
1 
1 
1 
1 
1 
1 
1 
1 
1 
1 
1 
1 
1 
1 
1 
1 
1 
1 
1 
1 
1 
1 
1 
1 
1 
1 
1 
1 
1 
1 
1 
1 
1 
1 
1 
1 
1 
1 
1 
1 
1 
1 
1 
1 
1 
1 
1 
1 
1 
1 
1 
1 
1 
1 
1 
1 
1 
1 
1 
1 
1 
1 
1 
1 
1 
1 
1 
1 
1 
1 
1 
1 
1 
1 
1 
1 
1 
1 
1 
1 
1 
1 
1 
1 
1 
1 
1 
1 
1 
1 
1 
1 
1 
1 
1 
1 
1 
1 
1 
1 
1 
1 
1 
1 
1 
1 
1 
1 
1 
1 
1 
1 
1 
1 
1 
1 
1 
1 
1 
1 
1 
1 
1 
1 
1 
1 
1 
1 
1 
1 
1 
1 
1 
1 
1 
1 
1 
1 
1 
1 
1 
1 
1 
1 
1 
1 
1 
1 
1 
1 
1 
1 
1 
1 
1 
1 
1 
1 
1 
1 
1 
1 
1 
1 
1 
1 
1 
1 
1 
1 
1 
1 
1 
1 
1 
1 
1 
1 
1 
1 
1 
1 
1 
1 
1 
1 
1 
1 
1 
1 
1 
1 
1 
1 
1 
1 
1 
1 
1 
1 
1 
1 
1 
1 
1 
1 
1 
1 
1 
1 
1 
1 
1 
1 
1 
1 
1 
1 
1 
1 
1 
1 
1 
1 
1 
1 
1 
1 
1 
1 
1 
1 
1 
1 
1 
1 
1 
1 
1 
1 
1 
1 
1 
1 
1 
1 
1 
1 
1 
1 
1 
1 
1 
1 
1 
1 
1 
1 
1 
1 
1 
1 
1 
1 
1 
1 
1 
1 
1 
1 
1 
1 
1 
1 
1 
1 
1 
1 
1 
1 
1 
1 
1 
1 
1 
1 
1 
1 
1 
1 
1 
1 
1 
1 
1 
1 
1 
1 
1 
1 
1 
1 
1 
1 
1 
1 
1 
1 
1 
1 
1 
1 
1 
1 
1 
1 
1 
1 
1 
1 
1 
1 
1 
1 
1 
1 
1 
1 
1 
1 
1 
1 
1 
1 
1 
1 
1 
1 
1 
1 
1 
1 
1 
1 
1 
1 
1 
1 
1 
1 
1 
1 
1 
1 
1 
1 
1 
1 
1 
1 
1 
1 
1 
1 
1 
1 
1 
1 
1 
1 
1 
1 
1 
1 
1 
1 
1 
1 
1 
1 
1 
1 
1 
1 
1 
1 
1 
1 
1 
1 
1 
1 
1 
1 
1 
1 
1 
1 
1 
1 
1 
1 
1 
1 
1 
1 
1 
1 
1 
1 
1 
1 
1 
1 
1 
1 
1 
1 
1 
1 
1 
1 
1 
1 
1 
1 
1 
1 
1 
1 
1 
1 
1 
1 
1 
1 
1 
1 
1 
1 
1 
1 
1 
1 
1 
1 
1 
1 
1 
1 
1 
1 
1 
1 
1 
1 
1 
1 
1 
1 
1 
1 
1 
1 
1 
1 
1 
1 
1 
1 
1 
1 
1 
1 
1 
1 
1 
1 
1 
1 
1 
1 
1 
1 
1 
1 
1 
1 
1 
1 
1 
1 
1 
1 
1 
1 
1 
1 
1 
1 
1 
1 
1 
1 
1 
1 
1 
1 
1 
1 
1 
1 
1 
1 
1 
1 
1 
1 
1 
1 
1 
1 
1 
1 
1 
1 
1 
1 
1 
1 
1 
1 
1 
1 
1 
1 
1 
1 
1 
1 
1 
1 
1 
1 
1 
1 
1 
1 
1 
1 
1 
1 
1 
1 
1 
1 
1 
1 
1 
1 
1 
1 
1 
1 
1 
1 
1 
1 
1 
1 
1 
1 
1 
1 
1 
1 
1 
1 
1 
1 
1 
1 
1 
1 
1 
1 
1 
1 
1 
1 
1 
1 
1 
1 
1 
1 
1 
1 
1 
1 
1 
1 
1 
1 
1 
1 
1 
1 
1 
1 
1 
1 
1 
1 
1 
1 
1 
1 
1 
1 
1 
1 
1 
1 
1 
1 
1 
1 
1 
1 
1 
1 
1 
1 
1 
1 
1 
1 
1 
1 
1 
1 
1 
1 
1 
1 
1 
1 
1 
1 
1 
1 
1 
1 
1 
1 
1 
1 
1 
1 
1 
1 
1 
1 
1 
1 
1 
1 
1 
1 
1 
1 
1 
1 
1 
1 
1 
1 
1 
1 
1 
1 
1 
1 
1 
1 
1 
1 
1 
1 
1 
1 
1 
1 
1 
1 
1 
1 
1 
1 
1 
1 
1 
1 
1 
1 
1 
1 
1 
1 
1 
1 
1 
1 
1 
1 
1 
1 
1 
1 
1 
1 
1 
1 
1 
1 
1 
1 
1 
1 
1 
1 
1 
1 
1 
1 
1 
1 
1 
1 
1 
1 
1 
1 
1 
1 
1 
1 
1 
1 
1 
1 
1 
1 
1 
1 
1 
1 
1 
1 
1 
1 
1 
1 
1 
1 
1 
1 
1 
1 
1 
1 
1 
1 
1 
1 
1 
1 
1 
1 
1 
1 
1 
1 
1 
1 
1 
1 
1 
1 
1 
1 
1 
1 
1 
1 
1 
1 
1 
1 
1 
1 
1 
1 
1 
1 
1 
1 
1 
1 
1 
1 
1 
1 
1 
1 
1 
1 
1 
1 
1 
1 
1 
1 
1 
1 
1 
1 
1 
1 
1 
1 
1 
1 
1 
1 
1 
1 
1 
1 
1 
1 
1 
1 
1 
1 
1 
1 
1 
1 
1 
1 
1 
1 
1 
1 
1 
1 
1 
1 
1 
1 
1 
1 
1 
1 
1 
1 
1 
1 
1 
1 
1 
1 
1 
1 
1 
1 
1 
1 
1 
1 
1 
1 
1 
1 
1 
1 
1 
1 
1 
1 
1 
1 
1 
1 
1 
1 
1 
1 
1 
1 
1 
1 
1 
1 
1 
1 
1 
1 
1 
1 
1 
1 
1 
1 
1 
1 
1 
1 
1 
1 
1 
1 
1 
1 
1 
1 
1 
1 
1 
1 
1 
1 
1 
1 
1 
1 
1 
1 
1 
1 
1 
1 
1 
1 
1 
1 
1 
1 
1 
1 
1 
1 
1 
1 
1 
1 
1 
1 
1 
1 
1 
1 
1 
1 
1 
1 
1 
1 
1 
1 
1 
1 
1 
1 
1 
1 
1 
1 
1 
1 
1 
1 
1 
1 
1 
1 
1 
1 
1 
1 
1 
1 
1 
1 
1 
1 
1 
1 
1 
1 
1 
1 
1 
1 
1 
1 
1 
1 
1 
1 
1 
1 
1 
1 
1 
1 
1 
1 
1 
1 
1 
1 
1 
1 
1 
1 
1 
1 
1 
1 
1 
1 
1 
1 
1 
1 
1 
1 
1 
1 
1 
1 
1 
1 
1 
1 
1 
1 
1 
1 
1 
1 
1 
1 
1 
1 
1 
1 
1 
1 
1 
1 
1 
1 
1 
1 
1 
1 
1 
1 
1 
1 
1 
1 
1 
1 
1 
1 
1 
1 
1 
1 
1 
1 
1 
1 
1 
1 
1 
1 
1 
1 
1 
1 
1 
1 
1 
1 
1 
1 
1 
1 
1 
1 
1 
1 
1 
1 
1 
1 
1 
1 
1 
1 
1 
1 
1 
1 
1 
1 
1 
1 
1 
1 
1 
1 
1 
1 
1 
1 
1 
1 
1 
1 
1 
1 
1 
1 
1 
1 
1 
1 
1 
1 
1 
1 
1 
1 
1 
1 
1 
1 
1 
1 
1 
1 
1 
1 
1 
1 
1 
1 
1 
1 
1 
1 
1 
1 
1 
1 
1 
1 
1 
1 
1 
1 
1 
1 
1 
1 
1 
1 
1 
1 
1 
1 
1 
1 
1 
1 
1 
1 
1 
1 
1 
1 
1 
1 
1 
1 
1 
1 
1 
1 
1 
1 
1 
1 
1 
1 
1 
1 
1 
1 
1 
1 
1 
1 
1 
1 
1 
1 
1 
1 
1 
1 
1 
1 
1 
1 
1 
1 
1 
1 
1 
1 
1 
1 
1 
1 
1 
1 
1 
1 
1 
1 
1 
1 
1 
1 
1 
1 
1 
1 
1 
1 
1 
1 
1 
1 
1 
1 
1 
1 
1 
1 
1 
1 
1 
1 
1 
1 
1 
1 
1 
1 
1 
1 
1 
1 
1 
1 
1 
1 
1 
1 
1 
1 
1 
1 
1 
1 
1 
1 
1 
1 
1 
1 
1 
1 
1 
1 
1 
1 
1 
1 
1 
1 
1 
1 
1 
1 
1 
1 
1 
1 
1 
1 
1 
1 
1 
1 
1 
1 
1 
1 
1 
1 
1 
1 
1 
1 
1 
1 
1 
1 
1 
1 
1 
1 
1 
1 
1 
1 
1 
1 
1 
1 
1 
1 
1 
1 
1 
1 
1 
1 
1 
1 
1 
1 
1 
1 
1 
1 
1 
1 
1 
1 
1 
1 
1 
1 
1 
1 
1 
1 
1 
1 
1 
1 
1 
1 
1 
1 
1 
1 
1 
1 
1 
1 
1 
1 
1 
1 
1 
1 
1 
1 
1 
1 
1 
1 
1 
1 
1 
1 
1 
1 
1 
1 
1 
1 
1 
1 
1 
1 
1 
1 
1 
1 
1 
1 
1 
1 
1 
1 
1 
1 
1 
1 
1 
1 
1 
1 
1 
1 
1 
1 
1 
1 
1 
1 
1 
1 
1 
1 
1 
1 
1 
1 
1 
1 
1 
1 
1 
1 
1 
1 
1 
1 
1 
1 
1 
1 
1 
1 
1 
1 
1 
1 
1 
1 
1 
1 
1 
1 
1 
1 
1 
1 
1 
1 
1 
1 
1 
1 
1 
1 
1 
1 
1 
1 
1 
1 
1 
1 
1 
1 
1 
1 
1 
1 
1 
1 
1 
1 
1 
1 
1 
1 
1 
1 
1 
1 
1 
1 
1 
1 
1 
1 
1 
1 
1 
1 
1 
1 
1 
1 
1 
1 
1 
1 
1 
1 
1 
1 
1 
1 
1 
1 
1 
1 
1 
1 
1 
1 
1 
1 
1 
1 
1 
1 
1 
1 
1 
1 
1 
1 
1 
1 
1 
1 
1 
1 
1 
1 
1 
1 
1 
1 
1 
1 
1 
1 
1 
1 
1 
1 
1 
1 
1 
1 
1 
1 
1 
1 
1 
1 
1 
1 
1 
1 
1 
1 
1 
1 
1 
1 
1 
1 
1 
1 
1 
1 
1 
1 
1 
1 
1 
1 
1 
1 
1 
1 
1 
1 
1 
1 
1 
1 
1 
1 
1 
1 
1 
1 
1 
1 
1 
1 
1 
1 
1 
1 
1 
1 
1 
1 
1 
1 
1 
1 
1 
1 
1 
1 
1 
1 
1 
1 
1 
1 
1 
1 
1 
1 
1 
1 
1 
1 
1 
1 
1 
1 
1 
1 
1 
1 
1 
1 
1 
1 
1 
1 
1 
1 
1 
1 
1 
1 
1 
1 
1 
1 
1 
1 
1 
1 
1 
1 
1 
1 
1 
1 
1 
1 
1 
1 
1 
1 
1 
1 
1 
1 
1 
1 
1 
1 
1 
1 
1 
1 
1 
1 
1 
1 
1 
1 
1 
1 
1 
1 
1 
1 
1 
1 
1 
1 
1 
1 
1 
1 
1 
1 
1 
1 
1 
1 
1 
1 
1 
1 
1 
1 
1 
1 
1 
1 
1 
1 
1 
1 
1 
1 
1 
1 
1 
1 
1 
1 
1 
1 
1 
1 
1 
1 
1 
1 
1 
1 
1 
1 
1 
1 
1 
1 
1 
1 
1 
1 
1 
1 
1 
1 
1 
1 
1 
1 
1 
1 
1 
1 
1 
1 
1 
1 
1 
1 
1 
1 
1 
1 
1 
1 
1 
1 
1 
1 
1 
1 
1 
1 
1 
1 
1 
1 
1 
1 
1 
1 
1 
1 
1 
1 
1 
1 
1 
1 
1 
1 
1 
1 
1 
1 
1 
1 
1 
1 
1 
1 
1 
1 
1 
1 
1 
1 
1 
1 
1 
1 
1 
1 
1 
1 
1 
1 
1 
1 
1 
1 
1 
1 
1 
1 
1 
1 
1 
1 
1 
1 
1 
1 
1 
1 
1 
1 
1 
1 
1 
1 
1 
1 
1 
1 
1 
1 
1 
1 
1 
1 
1 
1 
1 
1 
1 
1 
1 
1 
1 
1 
1 
1 
1 
1 
1 
1 
1 
1 
1 
1 
1 
1 
1 
1 
1 
1 
1 
1 
1 
1 
1 
1 
1 
1 
1 
1 
1 
1 
1 
1 
1 
1 
1 
1 
1 
1 
1 
1 
1 
1 
1 
1 
1 
1 
1 
1 
1 
1 
1 
1 
1 
1 
1 
1 
1 
1 
1 
1 
1 
1 
1 
1 
1 
1 
1 
1 
1 
1 
1 
1 
1 
1 
1 
1 
1 
1 
1 
1 
1 
1 
1 
1 
1 
1 
1 
1 
1 
1 
1 
1 
1 
1 
1 
1 
1 
1 
1 
1 
1 
1 
1 
1 
1 
1 
1 
1 
1 
1 
1 
1 
1 
1 
1 
1 
1 
1 
1 
1 
1 
1 
1 
1 
1 
1 
1 
1 
1 
1 
1 
1 
1 
1 
1 
1 
1 
1 
1 
1 
1 
1 
1 
1 
1 
1 
1 
1 
1 
1 
1 
1 
1 
1 
1 
1 
1 
1 
1 
1 
1 
1 
1 
1 
1 
1 
1 
1 
1 
1 
1 
1 
1 
1 
1 
1 
1 
1 
1 
1 
1 
1 
1 
1 
1 
1 
1 
1 
1 
1 
1 
1 
1 
1 
1 
1 
1 
1 
1 
1 
1 
1 
1 
1 
1 
1 
1 
1 
1 
1 
1 
1 
1 
1 
1 
1 
1 
1 
1 
1 
1 
1 
1 
1 
1 
1 
1 
1 
1 
1 
1 
1 
1 
1 
1 
1 
1 
1 
1 
1 
1 
1 
1 
1 
1 
1 
1 
1 
1 
1 
1 
1 
1 
1 
1 
1 
1 
1 
1 
1 
1 
1 
1 
1 
1 
1 
1 
1 
1 
1 
1 
1 
1 
1 
1 
1 
1 
1 
1 
1 
1 
1 
1 
1 
1 
1 
1 
1 
1 
1 
1 
1 
1 
1 
1 
1 
1 
1 
1 
1 
1 
1 
1 
1 
1 
1 
1 
1 
1 
1 
1 
1 
1 
1 
1 
1 
1 
1 
1 
1 
1 
1 
1 
1 
1 
1 
1 
1 
1 
1 
1 
1 
1 
1 
1 
1 
1 
1 
1 
1 
1 
1 
1 
1 
1 
1 
1 
1 
1 
1 
1 
1 
1 
1 
1 
1 
1 
1 
1 
1 
1 
1 
1 
1 
1 
1 
1 
1 
1 
1 
1 
1 
1 
1 
1 
1 
1 
1 
1 
1 
1 
1 
1 
1 
1 
1 
1 
1 
1 
1 
1 
1 
1 
1 
1 
1 
1 
1 
1 
1 
1 
1 
1 
1 
1 
1 
1 
1 
1 
1 
1 
1 
1 
1 
1 
1 
1 
1 
1 
1 
1 
1 
1 
1 
1 
1 
1 
1 
1 
1 
1 
1 
1 
1 
1 
1 
1 
1 
1 
1 
1 
1 
1 
1 
1 
1 
1 
1 
1 
1 
1 
1 
1 
1 
1 
1 
1 
1 
1 
1 
1 
1 
1 
1 
1 
1 
1 
1 
1 
1 
1 
1 
1 
1 
1 
1 
1 
1 
1 
1 
1 
1 
1 
1 
1 
1 
1 
1 
1 
1 
1 
1 
1 
1 
1 
1 
1 
1 
1 
1 
1 
1 
1 
1 
1 
1 
1 
1 
1 
1 
1 
1 
1 
1 
1 
1 
1 
1 
1 
1 
1 
1 
1 
1 
1 
1 
1 
1 
1 
1 
1 
1 
1 
1 
1 
1 
1 
1 
1 
1 
1 
1 
1 
1 
1 
1 
1 
1 
1 
1 
1 
1 
1 
1 
1 
1 
1 
1 
1 
1 
1 
1 
1 
1 
1 
1 
1 
1 
1 
1 
1 
1 
1 
1 
1 
1 
1 
1 
1 
1 
1 
1 
1 
1 
1 
1 
1 
1 
1 
1 
1 
1 
1 
1 
1 
1 
1 
1 
1 
1 
1 
1 
1 
1 
1 
1 
1 
1 
1 
1 
1 
1 
1 
1 
1 
1 
1 
1 
1 
1 
1 
1 
1 
1 
1 
1 
1 
1 
1 
1 
1 
1 
1 
1 
1 
1 
1 
1 
1 
1 
1 
1 
1 
1 
1 
1 
1 
1 
1 
1 
1 
1 
1 
1 
1 
1 
1 
1 
1 
1 
1 
1 
1 
1 
1 
1 
1 
1 
1 
1 
1 
1 
1 
1 
1 
1 
1 
1 
1 
1 
1 
1 
1 
1 
1 
1 
1 
1 
1 
1 
1 
1 
1 
1 
1 
1 
1 
1 
1 
1 
1 
1 
1 
1 
1 
1 
1 
1 
1 
1 
1 
1 
1 
1 
1 
1 
1 
1 
1 
1 
1 
1 
1 
1 
1 
1 
1 
1 
1 
1 
1 
1 
1 
1 
1 
1 
1 
1 
1 
1 
1 
1 
1 
1 
1 
1 
1 
1 
1 
1 
1 
1 
1 
1 
1 
1 
1 
1 
1 
1 
1 
1 
1 
1 
1 
1 
1 
1 
1 
1 
1 
1 
1 
1 
1 
1 
1 
1 
1 
1 
1 
1 
1 
1 
1 
1 
1 
1 
1 
1 
1 
1 
1 
1 
1 
1 
1 
1 
1 
1 
1 
1 
1 
1 
1 
1 
1 
1 
1 
1 
1 
1 
1 
1 
1 
1 
1 
1 
1 
1 
1 
1 
1 
1 
1 
1 
1 
1 
1 
1 
1 
1 
1 
1 
1 
1 
1 
1 
1 
1 
1 
1 
1 
1 
1 
1 
1 
1 
1 
1 
1 
1 
1 
1 
1 
1 
1 
1 
1 
1 
1 
1 
1 
1 
1 
1 
1 
1 
1 
1 
1 
1 
1 
1 
1 
1 
1 
1 
1 
1 
1 
1 
1 
1 
1 
1 
1 
1 
1 
1 
1 
1 
1 
1 
1 
1 
1 
1 
1 
1 
1 
1 
1 
1 
1 
1 
1 
1 
1 
1 
1 
1 
1 
1 
1 
1 
1 
1 
1 
1 
1 
1 
1 
1 
1 
1 
1 
1 
1 
1 
1 
1 
1 
1 
1 
1 
1 
1 
1 
1 
1 
1 
1 
1 
1 
1 
1 
1 
1 
1 
1 
1 
1 
1 
1 
1 
1 
1 
1 
1 
1 
1 
1 
1 
1 
1 
1 
1 
1 
1 
1 
1 
1 
1 
1 
1 
1 
1 
1 
1 
1 
1 
1 
1 
1 
1 
1 
1 
1 
1 
1 
1 
1 
1 
1 
1 
1 
1 
1 
1 
1 
1 
1 
1 
1 
1 
1 
1 
1 
1 
1 
1 
1 
1 
1 
1 
1 
1 
1 
1 
1 
1 
1 
1 
1 
1 
1 
1 
1 
1 
1 
1 
1 
1 
1 
1 
1 
1 
1 
1 
1 
1 
1 
1 
1 
1 
1 
1 
1 
1 
1 
1 
1 
1 
1 
1 
1 
1 
1 
1 
1 
1 
1 
1 
1 
1 
1 
1 
1 
1 
1 
1 
1 
1 
1 
1 
1 
1 
1 
1 
1 
1 
1 
1 
1 
1 
1 
1 
1 
1 
1 
1 
1 
1 
1 
1 
1 
1 
1 
1 
1 
1 
1 
1 
1 
1 
1 
1 
1 
1 
1 
1 
1 
1 
1 
1 
1 
1 
1 
1 
1 
1 
1 
1 
1 
1 
1 
1 
1 
1 
1 
1 
1 
1 
1 
1 
1 
1 
1 
1 
1 
1 
1 
1 
1 
1 
1 
1 
1 
1 
1 
1 
1 
1 
1 
1 
1 
1 
1 
1 
1 
1 
1 
1 
1 
1 
1 
1 
1 
1 
1 
1 
1 
1 
1 
1 
1 
1 
1 
1 
1 
1 
1 
1 
1 
1 
1 
1 
1 
1 
1 
1 
1 
1 
1 
1 
1 
1 
1 
1 
1 
1 
1 
1 
1 
1 
1 
1 
1 
1 
1 
1 
1 
1 
1 
1 
1 
1 
1 
1 
1 
1 
1 
1 
1 
1 
1 
1 
1 
1 
1 
1 
1 
1 
1 
1 
1 
1 
1 
1 
1 
1 
1 
1 
1 
1 
1 
1 
1 
1 
1 
1 
1 
1 
1 
1 
1 
1 
1 
1 
1 
1 
1 
1 
1 
1 
1 
1 
1 
1 
1 
1 
1 
1 
1 
1 
1 
1 
1 
1 
1 
1 
1 
1 
1 
1 
1 
1 
1 
1 
1 
1 
1 
1 
1 
1 
1 
1 
1 
1 
1 
1 
1 
1 
1 
1 
1 
1 
1 
1 
1 
1 
1 
1 
1 
1 
1 
1 
1 
1 
1 
1 
1 
1 
1 
1 
1 
1 
1 
1 
1 
1 
1 
1 
1 
1 
1 
1 
1 
1 
1 
1 
1 
1 
1 
1 
1 
1 
1 
1 
1 
1 
1 
1 
1 
1 
1 
1 
1 
1 
1 
1 
1 
1 
1 
1 
1 
1 
1 
1 
1 
1 
1 
1 
1 
1 
1 
1 
1 
1 
1 
1 
1 
1 
1 
1 
1 
1 
1 
1 
1 
1 
1 
1 
1 
1 
1 
1 
1 
1 
1 
1 
1 
1 
1 
1 
1 
1 
1 
1 
1 
1 
1 
1 
1 
1 
1 
1 
1 
1 
1 
1 
1 
1 
1 
1 
1 
1 
1 
1 
1 
1 
1 
1 
1 
1 
1 
1 
1 
1 
1 
1 
1 
1 
1 
1 
1 
1 
1 
1 
1 
1 
1 
1 
1 
1 
1 
1 
1 
1 
1 
1 
1 
1 
1 
1 
1 
1 
1 
1 
1 
1 
1 
1 
1 
1 
1 
1 
1 
1 
1 
1 
1 
1 
1 
1 
1 
1 
1 
1 
1 
1 
1 
1 
1 
1 
1 
1 
1 
1 
1 
1 
1 
1 
1 
1 
1 
1 
1 
1 
1 
1 
1 
1 
1 
1 
1 
1 
1 
1 
1 
1 
1 
1 
1 
1 
1 
1 
1 
1 
1 
1 
1 
1 
1 
1 
1 
1 
1 
1 
1 
1 
1 
1 
1 
1 
1 
1 
1 
1 
1 
1 
1 
1 
1 
1 
1 
1 
1 
1 
1 
1 
1 
1 
1 
1 
1 
1 
1 
1 
1 
1 
1 
1 
1 
1 
1 
1 
1 
1 
1 
1 
1 
1 
1 
1 
1 
1 
1 
1 
1 
1 
1 
1 
1 
1 
1 
1 
1 
1 
1 
1 
1 
1 
1 
1 
1 
1 
1 
1 
1 
1 
1 
1 
1 
1 
1 
1 
1 
1 
1 
1 
1 
1 
1 
1 
1 
1 
1 
1 
1 
1 
1 
1 
1 
1 
1 
1 
1 
1 
1 
1 
1 
1 
1 
1 
1 
1 
1 
1 
1 
1 
1 
1 
1 
1 
1 
1 
1 
1 
1 
1 
1 
1 
1 
1 
1 
1 
1 
1 
1 
1 
1 
1 
1 
1 
1 
1 
1 
1 
1 
1 
1 
1 
1 
1 
1 
1 
1 
1 
1 
1 
1 
1 
1 
1 
1 
1 
1 
1 
1 
1 
1 
1 
1 
1 
1 
1 
1 
1 
1 
1 
1 
1 
1 
1 
1 
1 
1 
1 
1 
1 
1 
1 
1 
1 
1 
1 
1 
1 
1 
1 
1 
1 
1 
1 
1 
1 
1 
1 
1 
1 
1 
1 
1 
1 
1 
1 
1 
1 
1 
1 
1 
1 
1 
1 
1 
1 
1 
1 
1 
1 
1 
1 
1 
1 
1 
1 
1 
1 
1 
1 
1 
1 
1 
1 
1 
1 
1 
1 
1 
1 
1 
1 
1 
1 
1 
1 
1 
1 
1 
1 
1 
1 
1 
1 
1 
1 
1 
1 
1 
1 
1 
1 
1 
1 
1 
1 
1 
1 
1 
1 
1 
1 
1 
1 
1 
1 
1 
1 
1 
1 
1 
1 
1 
1 
1 
1 
1 
1 
1 
1 
1 
1 
1 
1 
1 
1 
1 
1 
1 
1 
1 
1 
1 
1 
1 
1 
1 
1 
1 
1 
1 
1 
1 
1 
1 
1 
1 
1 
1 
1 
1 
1 
1 
1 
1 
1 
1 
1 
1 
1 
1 
1 
1 
1 
1 
1 
1 
1 
1 
1 
1 
1 
1 
1 
1 
1 
1 
1 
1 
1 
1 
1 
1 
1 
1 
1 
1 
1 
1 
1 
1 
1 
1 
1 
1 
1 
1 
1 
1 
1 
1 
1 
1 
1 
1 
1 
1 
1 
1 
1 
1 
1 
1 
1 
1 
1 
1 
1 
1 
1 
1 
1 
1 
1 
1 
1 
1 
1 
1 
1 
1 
1 
1 
1 
1 
1 
1 
1 
1 
1 
1 
1 
1 
1 
1 
1 
1 
1 
1 
1 
1 
1 
1 
1 
1 
1 
1 
1 
1 
1 
1 
1 
1 
1 
1 
1 
1 
1 
1 
1 
1 
1 
1 
1 
1 
1 
1 
1 
1 
1 
1 
1 
1 
1 
1 
1 
1 
1 
1 
1 
1 
1 
1 
1 
1 
1 
1 
1 
1 
1 
1 
1 
1 
1 
1 
1 
1 
1 
1 
1 
1 
1 
1 
1 
1 
1 
1 
1 
1 
1 
1 
1 
1 
1 
1 
1 
1 
1 
1 
1 
1 
1 
1 
1 
1 
1 
1 
1 
1 
1 
1 
1 
1 
1 
1 
1 
1 
1 
1 
1 
1 
1 
1 
1 
1 
1 
1 
1 
1 
1 
1 
1 
1 
1 
1 
1 
1 
1 
1 
1 
1 
1 
1 
1 
1 
1 
1 
1 
1 
1 
1 
1 
1 
1 
1 
1 
1 
1 
1 
1 
1 
1 
1 
1 
1 
1 
1 
1 
1 
1 
1 
1 
1 
1 
1 
1 
1 
1 
1 
1 
1 
1 
1 
1 
1 
1 
1 
1 
1 
1 
1 
1 
1 
1 
1 
1 
1 
1 
1 
1 
1 
1 
1 
1 
1 
1 
1 
1 
1 
1 
1 
1 
1 
1 
1 
1 
1 
1 
1 
1 
1 
1 
1 
1 
1 
1 
1 
1 
1 
1 
1 
1 
1 
1 
1 
1 
1 
1 
1 
1 
1 
1 
1 
1 
1 
1 
1 
1 
1 
1 
1 
1 
1 
1 
1 
1 
1 
1 
1 
1 
1 
1 
1 
1 
1 
1 
1 
1 
1 
1 
1 
1 
1 
1 
1 
1 
1 
1 
1 
1 
1 
1 
1 
1 
1 
1 
1 
1 
1 
1 
1 
1 
1 
1 
1 
1 
1 
1 
1 
1 
1 
1 
1 
1 
1 
1 
1 
1 
1 
1 
1 
1 
1 
1 
1 
1 
1 
1 
1 
1 
1 
1 
1 
1 
1 
1 
1 
1 
1 
1 
1 
1 
1 
1 
1 
1 
1 
1 
1 
1 
1 
1 
1 
1 
1 
1 
1 
1 
1 
1 
1 
1 
1 
1 
1 
1 
1 
1 
1 
1 
1 
1 
1 
1 
1 
1 
1 
1 
1 
1 
1 
1 
1 
1 
1 
1 
1 
1 
1 
1 
1 
1 
1 
1 
1 
1 
1 
1 
1 
1 
1 
1 
1 
1 
1 
1 
1 
1 
1 
1 
1 
1 
1 
1 
1 
1 
1 
1 
1 
1 
1 
1 
1 
1 
1 
1 
1 
1 
1 
1 
1 
1 
1 
1 
1 
1 
1 
1 
1 
1 
1 
1 
1 
1 
1 
1 
1 
1 
1 
1 
1 
1 
1 
1 
1 
1 
1 
1 
1 
1 
1 
1 
1 
1 
1 
1 
1 
1 
1 
1 
1 
1 
1 
1 
1 
1 
1 
1 
1 
1 
1 
1 
1 
1 
1 
1 
1 
1 
1 
1 
1 
1 
1 
1 
1 
1 
1 
1 
1 
1 
1 
1 
1 
1 
1 
1 
1 
1 
1 
1 
1 
1 
1 
1 
1 
1 
1 
1 
1 
1 
1 
1 
1 
1 
1 
1 
1 
1 
1 
1 
1 
1 
1 
1 
1 
1 
1 
1 
1 
1 
1 
1 
1 
1 
1 
1 
1 
1 
1 
1 
1 
1 
1 
1 
1 
1 
1 
1 
1 
1 
1 
1 
1 
1 
1 
1 
1 
1 
1 
1 
1 
1 
1 
1 
1 
1 
1 
1 
1 
1 
1 
1 
1 
1 
1 
1 
1 
1 
1 
1 
1 
1 
1 
1 
1 
1 
1 
1 
1 
1 
1 
1 
1 
1 
1 
1 
1 
1 
1 
1 
1 
1 
1 
1 
1 
1 
1 
1 
1 
1 
1 
1 
1 
1 
1 
1 
1 
1 
1 
1 
1 
1 
1 
1 
1 
1 
1 
1 
1 
1 
1 
1 
1 
1 
1 
1 
1 
1 
1 
1 
1 
1 
1 
1 
1 
1 
1 
1 
1 
1 
1 
1 
1 
1 
1 
1 
1 
1 
1 
1 
1 
1 
1 
1 
1 
1 
1 
1 
1 
1 
1 
1 
1 
1 
POINT_DATA 5000
VECTORS Stress float
-372.02 -771.26 0.
-2020.92 -2845.08 0.
11.2679 14.233 0.
-3341.76 -4076.9 0.
-12.4217 -14.1567 0.
1.94499 2.55135 0.
-4369.2 -6464.94 0.
-682.168 -1127.68 0.
-48.1065 -127.835 0.
-3570.53 -5287.65 0.
-1454.91 -2426.81 0.
-6.65342 -12.4584 0.
-1776.39 -2903.92 0.
-1428.67 -2335.5 0.
-1303.85 -1987.95 0.
-1084.38 -1808.75 0.
-858.23 -1636.23 0.
-830.188 -1748.3 0.
-651.885 -1456.84 0.
-476.912 -1162.06 0.
-541.427 -1108.37 0.
-499.972 -1039.99 0.
-458.524 -971.605 0.
-478.788 -988.25 0.
-471.946 -1026.35 0.
-468.081 -1061.48 0.
-535.823 -1134.25 0.
-547.133 -1143.9 0.
-498.844 -1076.69 0.
-468.952 -1032.2 0.
-439.721 -987.052 0.
-435.694 -968.689 0.
-417.09 -935.073 0.
-398.635 -901.308 0.
-389.752 -895.459 0.
-393.704 -930.04 0.
-403.78 -958.498 0.
-462.471 -1009.38 0.
-467.044 -1020.04 0.
-422.34 -985.295 0.
-390.874 -925.949 0.
-365.185 -860.824 0.
-356.986 -831.242 0.
-351.997 -824.671 0.
-347.922 -817.186 0.
-346.692 -813.513 0.
-346.495 -813.054 0.
-346.298 -812.595 0.
-336.411 -836.777 0.
-355.645 -881.655 0.
-374.877 -926.531 0.
-408.236 -908.325 0.
-391.173 -868.511 0.
-340.112 -821.019 0.
-339.347 -819.235 0.
-338.583 -817.451 0.
-356.141 -831.982 0.
-366.353 -852.541 0.
-378.146 -871.518 0.
-374.762 -875.143 0.
-384.1 -904.693 0.
-399.006 -928.676 0.
-448.947 -982.784 0.
-453.833 -994.188 0.
-408.495 -962.896 0.
-402.386 -934.536 0.
-400.975 -901.479 0.
-413.546 -907.641 0.
-425.581 -933.513 0.
-440.163 -956.837 0.
-433.817 -969.76 0.
-467.153 -1023.49 0.
-501.223 -1076.48 0.
-547.611 -1153.82 0.
-541.062 -1155.77 0.
-525.947 -1153.36 0.
-487.818 -1031.1 0.
-484.338 -965.471 0.
-433.507 -929.209 0.
-501.857 -1060.5 0.
-570.26 -1191.74 0.
-525.075 -1277.05 0.
-807.108 -1779.77 0.
-1098.7 -2272.93 0.
-1033.3 -1959.38 0.
-1295.9 -2072.68 0.
-1544.59 -2199.89 0.
-1748.04 -2307.27 0.
-2103.31 -2691.36 0.
0.99021 0.515825 0.
-837.03 -1680.14 0.
-3976.94 -7087.68 0.
-181.54 -375.813 0.
-240.427 -393.26 0.
-2419.55 -3330.44 0.
8.27254 18.063 0.
-3153.56 -5930.1 0.
-4.07222 -36.7339 0.
21.9954 46.4588 0.
-1348.07 -2759.21 0.
-401.362 -1009.11 0.
21.0874 31.237 0.
-0.254327 -0.82239 0.
0.334191 2.33776 0.
-5.3176 -11.7095 0.
-0.100622 -0.35812 0.
-0.338097 -2.82854 0.
-0.00738054 -0.160804 0.
-0.000215556 -4.53104 0.
-130.658 -237.743 0.
-24.787 -30.9398 0.
-10.314 -14.4325 0.
-723.1 -1418.63 0.
-424.493 -799.886 0.
-569.858 -943.166 0.
-394.929 -719.05 0.
-233.636 -481.299 0.
-530.54 -1288.35 0.
-377.175 -971.772 0.
-241.798 -637.201 0.
-428.107 -1018.72 0.
-386.541 -950.438 0.
-345.012 -882.119 0.
-442.564 -900.252 0.
-434.591 -939.488 0.
-427.505 -977.832 0.
-602.688 -1180.22 0.
-608.974 -1194.89 0.
-463.397 -996.337 0.
-430.908 -954.443 0.
-400.351 -910.617 0.
-422.851 -944.804 0.
-403.845 -911.588 0.
-393.04 -870.172 0.
-367.769 -843.223 0.
-369.748 -879.779 0.
-375.416 -912.646 0.
-532.799 -1039.49 0.
-537.376 -1050.15 0.
-412.863 -929.248 0.
-380.187 -871.109 0.
-350.422 -810.058 0.
-356.506 -825.744 0.
-350.293 -820.398 0.
-344.35 -814.781 0.
-347.644 -805.598 0.
-344.101 -808.485 0.
-341.446 -810.484 0.
-318.709 -775.834 0.
-334.053 -824.604 0.
-351.296 -871.467 0.
-456.222 -928.857 0.
-439.159 -889.045 0.
-318.843 -800.153 0.
-321.582 -794.866 0.
-325.134 -788.764 0.
-354.769 -830.492 0.
-367.039 -848.993 0.
-379.609 -867.193 0.
-356.749 -818.64 0.
-368.339 -845.94 0.
-386.261 -866.909 0.
-515.915 -1011.45 0.
-520.798 -1022.86 0.
-382.255 -914.329 0.
-377.705 -884.41 0.
-377.878 -849.767 0.
-418.664 -878.113 0.
-424.429 -910.255 0.
-435.925 -936.666 0.
-385.646 -881.608 0.
-422.023 -932.301 0.
-459.313 -982.081 0.
-584.646 -1199.6 0.
-582.889 -1196.76 0.
-482.053 -1047.83 0.
-445.98 -937.111 0.
-443.457 -870.519 0.
-310.838 -769.394 0.
-372.111 -907.792 0.
-438.746 -1040.83 0.
-187.455 -482.762 0.
-402.146 -1053.28 0.
-645.611 -1595.03 0.
-30.5075 -84.4502 0.
-171.158 -320.267 0.
-336.462 -531.429 0.
-191.295 -147.917 0.
-647.536 -432.477 0.
0.243002 1.96096 0.
0.569563 0.668261 0.
-91.343 -248.983 0.
2.42747 6.04309 0.
1.62536 3.31055 0.
0.923461 1.63361 0.
-1.34055 -32.8902 0.
-1.89804 -21.0975 0.
-0.487751 -6.98017 0.
4.34334 9.80705 0.
12.9438 32.6376 0.
-807.604 -2182.11 0.
-0.415733 -70.0625 0.
0.868861 4.6265 0.
1.15344 17.9113 0.
-2.92993 -9.44787 0.
1.34803 7.50673 0.
-0.463783 -7.94098 0.
0.0303745 2.07579 0.
-0.0120355 -9.09162 0.
-106.372 -150.682 0.
-30.8443 -34.1617 0.
-14.5205 -16.8438 0.
-300.621 -377.543 0.
-204.803 -103.048 0.
-67.2118 -118.076 0.
-47.5305 -72.8618 0.
-24.5043 -31.2915 0.
-299.108 -760.191 0.
-171.847 -417.318 0.
-54.2813 -64.7495 0.
-364.769 -879.083 0.
-328.823 -805.17 0.
-295.745 -728.387 0.
-412.301 -806.292 0.
-404.344 -845.515 0.
-396.834 -884.281 0.
-681.678 -1214.07 0.
-687.963 -1228.74 0.
-446.804 -897.135 0.
-415.412 -854.138 0.
-384.936 -810.226 0.
-414.391 -916.536 0.
-401.563 -877.141 0.
-390.578 -835.903 0.
-353.328 -783.445 0.
-354.462 -820.848 0.
-356.475 -857.373 0.
-603.128 -1069.6 0.
-607.707 -1080.26 0.
-410.576 -866.011 0.
-378.321 -807.448 0.
-347.157 -747.793 0.
-369.727 -806.546 0.
-363.522 -801.192 0.
-357.584 -795.571 0.
-363.082 -783.196 0.
-359.234 -786.388 0.
-355.831 -789.137 0.
-308.194 -707.703 0.
-323.931 -756.084 0.
-634.693 -966.801 0.
-504.208 -949.388 0.
-487.145 -909.579 0.
-321.781 -755.082 0.
-324.341 -749.972 0.
-327.756 -744.007 0.
-373.033 -809.365 0.
-384.34 -828.829 0.
-396.659 -847.28 0.
-352.273 -748.6 0.
-366.268 -773.498 0.
-382.828 -795.83 0.
-582.882 -1040.12 0.
-587.762 -1051.53 0.
-369.981 -851.797 0.
-370.201 -817.106 0.
-371.47 -781.365 0.
-427.109 -845.258 0.
-433.645 -876.629 0.
-439.708 -908.474 0.
-359.636 -771.296 0.
-394.766 -823.241 0.
-430.808 -874.275 0.
-642.742 -1224.32 0.
-640.863 -1221.61 0.
-367.433 -842.398 0.
-408.307 -838.957 0.
-404.794 -773.35 0.
-256.297 -541.45 0.
-305.544 -691.905 0.
-361.789 -835.362 0.
-0.230928 -0.00216646 0.
-101.016 -222.964 0.
-311.036 -798.618 0.
-6.18794 -12.6145 0.
-0.147347 -1.35904 0.
-0.924256 -2.46015 0.
-479.999 -299.05 0.
-150.834 -85.6426 0.
0.546161 0.968301 0.
0.57876 1.75263 0.
0.00293133 0.343548 0.
0.041734 2.38446 0.
5.32739 12.4442 0.
-0.462867 -3.01391 0.
18.2408 48.8347 0.
-1.83482 -37.3778 0.
-2.45787 -54.2676 0.
1.36298 3.23035 0.
-0.796579 -71.5405 0.
-749.674 -2068.43 0.
-1.54251 -104.803 0.
-553.433 -1310.84 0.
20.066 47.7587 0.
-1984.47 -3893.85 0.
9.54461 19.3369 0.
-2875.09 -5221.6 0.
1.54416 3.06827 0.
-0.184428 -1.68376 0.
-3891.18 -7209.37 0.
-0.79845 -1.38203 0.
2.45815 4.49981 0.
-3771.28 -7887.54 0.
-0.182766 -1.30524 0.
-2156.43 -3513.39 0.
-1511.94 -2605.84 0.
-901.964 -1663.78 0.
-1943.56 -4134.54 0.
-1062.43 -2466.18 0.
-275.957 -703.159 0.
-1136.67 -2721.03 0.
-787.118 -2021.37 0.
-478.049 -1281.24 0.
-747.444 -1846.78 0.
-601.66 -1552.1 0.
-469.084 -1244.22 0.
-892.097 -1806.87 0.
-892.703 -1808.31 0.
-646.708 -1473.54 0.
-610.506 -1395.48 0.
-574.371 -1317.36 0.
-637.727 -1363.75 0.
-617.164 -1358.73 0.
-597.774 -1352.54 0.
-584.709 -1289.3 0.
-578.91 -1317.58 0.
-573.964 -1345 0.
-810.967 -1557.2 0.
-792.905 -1515.08 0.
-550.341 -1250.79 0.
-540.931 -1237.77 0.
-531.714 -1224.56 0.
-573.578 -1268.25 0.
-547.037 -1226.79 0.
-521.624 -1184.19 0.
-528.481 -1167.71 0.
-535.435 -1202.39 0.
-543.567 -1235.89 0.
-530.756 -1194.91 0.
-533.109 -1206.5 0.
-924.085 -1427.53 0.
-644.465 -1351.2 0.
-636.934 -1333.63 0.
-523.146 -1197.43 0.
-519.629 -1177.91 0.
-517.743 -1156.76 0.
-530.491 -1187.76 0.
-548.535 -1213.29 0.
-567.58 -1237.82 0.
-528.74 -1206.56 0.
-552.747 -1255.74 0.
-576.92 -1304.75 0.
-805.843 -1546.9 0.
-807.796 -1551.45 0.
-570.259 -1302.64 0.
-581.507 -1280.38 0.
-593.952 -1256.93 0.
-593.443 -1325.24 0.
-609.742 -1326.13 0.
-626.813 -1326.24 0.
-542.537 -1266.6 0.
-594.102 -1374.28 0.
-645.766 -1481.86 0.
-828.63 -1848.86 0.
-843.733 -1884.13 0.
-423.905 -1138.82 0.
-623.366 -1599.16 0.
-815.531 -2001.12 0.
-454.843 -1154.71 0.
-895.389 -2247.45 0.
-1395.87 -3280.27 0.
-195.414 -369.111 0.
-1192.05 -2717.44 0.
-2358.51 -4895.93 0.
-866.35 -1331.89 0.
-1408.99 -2082.54 0.
-2005.01 -2779.8 0.
1.17249 2.54716 0.
-3325.5 -6276.18 0.
1.53884 3.46408 0.
-9.5083 -19.4007 0.
-2672.35 -4828.15 0.
1.88191 4.14954 0.
-2972.09 -5926.13 0.
14.6307 36.2326 0.
-1.87276 -36.1134 0.
-1337.63 -3270.43 0.
-2.90902 -7.59602 0.
26.2821 68.6485 0.
-13.6144 -37.6347 0.
16.57 43.0105 0.
8.8682 23.7193 0.
-439.447 -1085.8 0.
22.6686 56.8228 0.
-11.0326 -23.6773 0.
9.01871 20.5799 0.
18.1615 45.0865 0.
-0.788562 -6.54713 0.
0.231238 3.36685 0.
-1.03285 -6.70961 0.
1.4735 3.2733 0.
-0.233254 -5.79259 0.
0.160684 0.936799 0.
0.0767698 1.14958 0.
-49.283 -136.09 0.
-21.1749 -58.2484 0.
-1.55205 -1.75933 0.
-361.937 -840.79 0.
-6.22294 -12.9155 0.
-14.0622 -35.9368 0.
-598.344 -1575.02 0.
-307.973 -815.263 0.
-35.2392 -37.871 0.
-585.891 -1540.79 0.
-464.259 -1221.86 0.
-350.05 -895.504 0.
-838.426 -1783.9 0.
-839.031 -1785.34 0.
-627.748 -1431.78 0.
-589.271 -1356 0.
-551.06 -1279.95 0.
-637.545 -1287.25 0.
-617.172 -1282.04 0.
-597.681 -1275.96 0.
-584.556 -1228.14 0.
-577.957 -1257.22 0.
-572.188 -1285.47 0.
-809.491 -1556.54 0.
-791.427 -1514.42 0.
-545.647 -1217.38 0.
-537.278 -1203.32 0.
-529.117 -1189.05 0.
-577.411 -1203.55 0.
-551.508 -1161.45 0.
-526.72 -1118.23 0.
-528.377 -1105.8 0.
-534.853 -1140.96 0.
-542.578 -1174.87 0.
-573.907 -1195.17 0.
-576.173 -1206.84 0.
-1128.73 -1508.72 0.
-605.235 -1334.36 0.
-597.706 -1316.78 0.
-553.429 -1160.81 0.
-550.162 -1141.05 0.
-547.596 -1120.58 0.
-528.88 -1121.66 0.
-546.853 -1147.27 0.
-565.796 -1171.9 0.
-539.493 -1174.22 0.
-563.394 -1223.51 0.
-587.46 -1272.63 0.
-812.849 -1549.87 0.
-814.803 -1554.43 0.
-581.502 -1238.62 0.
-593.907 -1215.21 0.
-607.331 -1190.78 0.
-567.451 -1237.76 0.
-582.398 -1240 0.
-600.518 -1239.07 0.
-515.807 -1222.64 0.
-567.741 -1329.96 0.
-619.973 -1436.97 0.
-761.445 -1773.46 0.
-791.58 -1793.7 0.
-247.349 -657.015 0.
-394.893 -1075.83 0.
-561.493 -1503.58 0.
-82.6568 -125.712 0.
-228.217 -522.558 0.
-640.624 -1645.35 0.
-123.026 -98.2128 0.
-117.503 -79.0062 0.
-247.661 -304.934 0.
-602.159 -323.176 0.
-260.329 -99.1639 0.
-51.6234 -35.9265 0.
3.70667 9.86994 0.
3.50378 8.15314 0.
2.39493 5.97897 0.
4.80897 10.9747 0.
2.79961 5.9255 0.
4.77413 11.622 0.
-2.27603 -22.5825 0.
-0.701716 -19.5369 0.
-1.99125 -50.7923 0.
-0.963704 -62.9984 0.
7.56357 20.1764 0.
-660.078 -1757.17 0.
14.0317 38.7321 0.
-0.405856 -14.2514 0.
5.6169 15.0275 0.
-207.336 -529.482 0.
-1.84284 -68.6941 0.
23.0043 61.1394 0.
-645.781 -1724.88 0.
16.143 43.4213 0.
-1829.66 -4419.27 0.
-1.14756 -21.3176 0.
-2074.37 -4367.5 0.
-12.2044 -28.5081 0.
2.22104 5.78729 0.
-3259.76 -8284.5 0.
-0.0331085 -1.40006 0.
-2091.24 -3184.18 0.
-1046.37 -1714.85 0.
-68.658 -178.316 0.
-2650.51 -5935.3 0.
-1063.66 -2461.31 0.
-21.4066 -47.9571 0.
-1817.63 -4140 0.
-950.707 -2350.11 0.
-174.14 -469.85 0.
-1114.91 -2555.53 0.
-716.101 -1722.01 0.
-344.096 -861.688 0.
-896.966 -1860.62 0.
-752.827 -1623.61 0.
-529.472 -1215.82 0.
-455.869 -1073.55 0.
-383.128 -930.424 0.
-471.898 -918.355 0.
-463.781 -919.135 0.
-456.153 -919.426 0.
-432.453 -878.78 0.
-403.693 -822.033 0.
-375.089 -765.129 0.
-613.045 -1103.96 0.
-607.452 -1090.92 0.
-401.033 -768.928 0.
-391.186 -754.513 0.
-381.476 -739.962 0.
-413.48 -758.763 0.
-422.656 -787.693 0.
-432.445 -816.009 0.
-441.785 -809.04 0.
-420.677 -759.126 0.
-399.833 -708.948 0.
-405.349 -747.427 0.
-375.579 -731.517 0.
-956.325 -986.423 0.
-373.459 -839.965 0.
-385.011 -866.913 0.
-398.155 -723.955 0.
-414.027 -760.062 0.
-441.989 -784.078 0.
-418.73 -773.535 0.
-417.888 -766.398 0.
-417.257 -759.048 0.
-388.568 -735.131 0.
-388.519 -728.956 0.
-388.494 -722.758 0.
-616.919 -1081.51 0.
-639.439 -1134.03 0.
-420.052 -797.972 0.
-433.121 -818.212 0.
-446.32 -838.322 0.
-417.289 -858.416 0.
-450.328 -914.617 0.
-483.547 -970.637 0.
-391.778 -958.405 0.
-474.821 -1130.76 0.
-562.274 -1298.71 0.
-737.222 -1707.18 0.
-929.645 -2038.17 0.
-228.6 -615.453 0.
-735.298 -1854.61 0.
-1275 -3028.92 0.
-63.6442 -84.3546 0.
-989.118 -2425.53 0.
-2084.51 -4705.87 0.
-39.3677 -14.2605 0.
-892.924 -2017.44 0.
-2857.7 -6351.95 0.
-512.498 -665.623 0.
-2071.35 -2940.46 0.
-902.202 -2068.22 0.
-0.211212 -5.19355 0.
-2205.33 -5726.2 0.
-7.55603 -20.1523 0.
-26.8955 -64.8464 0.
-2138.44 -4865.09 0.
6.16189 16.3779 0.
-882.474 -2339.26 0.
-5.18808 -14.3018 0.
19.6198 50.822 0.
-0.477193 -62.5287 0.
25.6229 69.4424 0.
10.2566 28.1686 0.
-76.4927 -210.775 0.
-602.269 -1668.15 0.
-1.35406 -99.6897 0.
-2.19481 -71.5115 0.
16.0227 44.3694 0.
-0.00128936 -67.1369 0.
-479.685 -1303.97 0.
-0.169373 -33.2348 0.
-2.73776 -7.04737 0.
-0.280062 -12.0298 0.
7.35583 16.6457 0.
6.23372 15.4252 0.
-0.161109 -11.1779 0.
0.316865 0.855916 0.
6.81621e-06 0.677253 0.
0.134282 4.58643 0.
0.379001 0.671627 0.
-0.441101 -1.01991 0.
-258.921 -598.026 0.
-0.188148 -0.506086 0.
0.00123869 0.236459 0.
-522.261 -1296.27 0.
-13.0473 -16.2905 0.
-1.80403 -0.929931 0.
-640.81 -1574.17 0.
-308.868 -672.851 0.
-0.0257266 -0.0537118 0.
-618.341 -1412.74 0.
-493.478 -1156.31 0.
-439.022 -1081.2 0.
-376.806 -927.521 0.
-317.149 -771.286 0.
-406.667 -838.83 0.
-400.856 -837.304 0.
-393.236 -837.587 0.
-436.435 -840.342 0.
-405.489 -785.781 0.
-376.773 -728.99 0.
-608.862 -1102.13 0.
-603.269 -1089.09 0.
-407.152 -748.527 0.
-397.216 -734.204 0.
-387.434 -719.726 0.
-394.067 -693.647 0.
-403.722 -722.102 0.
-414.018 -749.916 0.
-440.208 -784.91 0.
-419.371 -734.726 0.
-398.723 -684.353 0.
-400.356 -748.404 0.
-373.262 -729.818 0.
-877.413 -947.509 0.
-364.999 -836.307 0.
-376.551 -863.256 0.
-386.987 -680.482 0.
-402.484 -716.965 0.
-418.393 -753.037 0.
-404.325 -725.322 0.
-403.706 -717.961 0.
-404.257 -709.43 0.
-375.604 -722.527 0.
-376.136 -715.77 0.
-376.794 -708.888 0.
-622.076 -1083.69 0.
-644.596 -1136.22 0.
-393.121 -749.61 0.
-406.117 -769.922 0.
-424.532 -784.816 0.
-358.501 -762.935 0.
-391.468 -819.213 0.
-424.179 -875.746 0.
-270.326 -702.684 0.
-338.197 -890.264 0.
-414.715 -1069.2 0.
-448.909 -1114.81 0.
-617.154 -1470.22 0.
-7.17775 -3.64139 0.
-166.867 -432.483 0.
-628.051 -1687.09 0.
-55.6074 -86.8659 0.
-31.6159 -29.3152 0.
-306.43 -735.704 0.
-1.16429 -1.19318e-07 0.
-0.632001 -0.00169275 0.
-1.67716 -0.0155015 0.
0.00550652 3.76597 0.
-53.4041 -132.111 0.
2.5663 6.72516 0.
0.921672 2.43795 0.
-48.2073 -128.35 0.
-0.0475072 -3.29458 0.
7.78338 19.2347 0.
5.97676 13.3286 0.
-0.0932131 -31.3508 0.
-220.325 -602.279 0.
11.5794 32.025 0.
-848.824 -2341.51 0.
19.086 52.8165 0.
19.4997 53.9763 0.
22.196 60.7733 0.
-85.5326 -235.131 0.
-21.7047 -57.9696 0.
35.1055 87.1985 0.
-6.97334 -17.994 0.
-9.09025 -25.1737 0.
8.44517 23.3568 0.
-295.629 -812.693 0.
14.2786 39.4373 0.
-6.09146 -16.2996 0.
3.18912 8.68509 0.
-1.39594 -20.0539 0.
-0.781063 -22.9408 0.
-0.183854 -21.5887 0.
2.19338 6.07385 0.
0.0540024 5.73294 0.
-0.990857 -15.1732 0.
0.523276 0.896587 0.
-0.230497 -0.490116 0.
-1.80606 -4.9969 0.
-0.0693671 -0.191787 0.
0.388722 1.04961 0.
-57.1604 -68.3182 0.
-36.0123 -29.9129 0.
-8.9269 -3.37772 0.
-276.354 -483.172 0.
-12.2911 -9.36416 0.
-21.6525 -14.3188 0.
-388.099 -916.478 0.
-280.561 -642.572 0.
-377.832 -917.319 0.
-321.426 -757.81 0.
-267.487 -595.832 0.
-347.067 -753.672 0.
-339.021 -754.383 0.
-331.644 -754.423 0.
-448.464 -793.857 0.
-417.096 -739.718 0.
-385.969 -685.337 0.
-604.679 -1100.3 0.
-599.086 -1087.26 0.
-413.916 -727.483 0.
-403.882 -713.259 0.
-394.008 -698.876 0.
-375.391 -627.794 0.
-385.598 -655.702 0.
-396.12 -683.294 0.
-443.636 -755.775 0.
-422.851 -705.54 0.
-402.154 -655.217 0.
-390.96 -753.785 0.
-370.698 -728.367 0.
-928.287 -981.818 0.
-362.397 -826.792 0.
-374.134 -853.555 0.
-376.084 -636.745 0.
-391.387 -673.424 0.
-406.875 -709.917 0.
-396.114 -670.916 0.
-395.44 -663.608 0.
-395.221 -655.846 0.
-375.582 -696.981 0.
-376.239 -690.098 0.
-377.051 -683.061 0.
-627.233 -1085.88 0.
-649.752 -1138.4 0.
-374.844 -692.594 0.
-393.066 -707.68 0.
-411.421 -722.633 0.
-312.704 -654.463 0.
-346.631 -709.786 0.
-379.488 -766.179 0.
-173.557 -422.28 0.
-236.745 -614.593 0.
-303.32 -803.519 0.
-219.749 -463.293 0.
-365.838 -841.091 0.
-9.07568 -4.44286 0.
-5.40513 -2.06039 0.
-99.6003 -226.769 0.
-51.0708 -91.1363 0.
-25.0942 -29.4025 0.
0.929294 0.233586 0.
-0.207596 -0.0012104 0.
0.272637 0.00393794 0.
0.236521 0.00556402 0.
-0.122205 -7.19437 0.
0.0104094 4.46985 0.
-0.0795386 -12.3119 0.
0.921065 2.51461 0.
-76.1985 -208.248 0.
-0.0963005 -7.3162 0.
6.54402 16.4557 0.
16.383 44.9683 0.
5.10066 14.1198 0.
-13.4766 -37.3046 0.
-0.00211243 -51.3725 0.
-282.193 -780.602 0.
15.8023 43.6565 0.
1.51336 4.18342 0.
8.89843 23.1681 0.
12.8351 32.8168 0.
-16.4624 -44.0888 0.
20.5333 50.9637 0.
-4.31933 -11.1527 0.
-465.27 -1286.31 0.
6.13598 16.9144 0.
-12.7387 -35.2253 0.
20.6834 57.2815 0.
-967.96 -2644.32 0.
6.72008 18.5156 0.
-0.00744962 -24.2067 0.
-1978.5 -5001.18 0.
5.68684 14.3136 0.
-1562.79 -3681.84 0.
4.4021 10.7695 0.
-0.891516 -2.29969 0.
-3140.6 -7592.22 0.
-0.312171 -5.45126 0.
-2397.59 -4801.12 0.
-443.821 -800.635 0.
-176.478 -352.261 0.
-2604.74 -6527.14 0.
-564.302 -1510.52 0.
0.0340297 0.040296 0.
-1818.35 -4366.66 0.
-825.88 -2060.92 0.
0.285303 0.128182 0.
-1244.14 -2989.07 0.
-826.431 -2034.42 0.
-869.517 -2148.84 0.
-645.242 -1661.59 0.
-450.342 -1144.97 0.
-629.088 -1475.22 0.
-532.699 -1297.57 0.
-437.117 -1119.12 0.
-601.752 -1216.19 0.
-573.219 -1185.87 0.
-545.558 -1154.68 0.
-819.012 -1617.51 0.
-794.47 -1560.26 0.
-528.634 -1113.42 0.
-522.018 -1106.52 0.
-516.002 -1099.03 0.
-519.957 -1064.6 0.
-492.129 -1003.82 0.
-464.625 -942.715 0.
-512.185 -974.738 0.
-506.318 -975.517 0.
-505.927 -970.821 0.
-532.893 -1098.04 0.
-509.92 -1073.82 0.
-1033.59 -1314.98 0.
-477.41 -1163.08 0.
-490.72 -1194.14 0.
-485.115 -975.207 0.
-492.708 -990.904 0.
-510.509 -996.392 0.
-485.599 -972.122 0.
-494.62 -990.032 0.
-503.778 -1007.81 0.
-494.469 -1061.07 0.
-522.575 -1118.93 0.
-552.536 -1174.94 0.
-798.859 -1567.15 0.
-801.888 -1574.21 0.
-468.062 -1007.42 0.
-537.988 -1131.75 0.
-609.138 -1254.85 0.
-448.873 -1116.57 0.
-549.9 -1349.59 0.
-655.692 -1577.84 0.
-384.342 -1027.15 0.
-660.672 -1738.34 0.
-966.351 -2420.19 0.
-825.698 -2095.95 0.
-1330.59 -3227.47 0.
-0.920668 -0.420172 0.
-710.789 -1867.37 0.
-2019.14 -4994.69 0.
0.745322 2.05624 0.
-260.203 -645.311 0.
-2853.66 -7028.41 0.
-108.462 -216.089 0.
-370.006 -692.708 0.
-2514.98 -5169.73 0.
-0.0237019 -4.01715 0.
-2781.99 -6891.99 0.
-1.56596 -4.13308 0.
-96.4459 -244.127 0.
-1402.69 -3422.56 0.
-0.901069 -28.4462 0.
-1876.13 -4792.63 0.
-8.96604 -24.7727 0.
-6.77292 -18.6978 0.
-858.755 -2369.39 0.
7.3025 20.2207 0.
-46.4174 -128.556 0.
17.1856 47.3596 0.
-517.167 -1426.5 0.
24.0611 62.6195 0.
20.1622 51.5136 0.
-42.6757 -114.628 0.
25.7606 63.9565 0.
-461.912 -1193.31 0.
23.8061 63.8689 0.
19.8434 53.7191 0.
-284.227 -786.791 0.
-6.34149 -17.5211 0.
-581.623 -1597.99 0.
7.91552 21.8739 0.
-1.81958 -5.03989 0.
-401.644 -1061.25 0.
-0.425428 -20.2023 0.
4.292 10.0753 0.
-0.981411 -19.6745 0.
0.211932 0.550319 0.
-15.9828 -42.3913 0.
-0.000175452 -2.38695 0.
1.88172 2.98404 0.
-0.557278 -2.67344 0.
-0.206228 -1.97182 0.
0.319506 0.848021 0.
0.756838 1.59115 0.
0.214143 0.462945 0.
-547.719 -1321.93 0.
-3.99611 -1.45087 0.
-3.76985 -1.52789 0.
-750.25 -1797.17 0.
-381.253 -792.6 0.
-565.633 -1434.82 0.
-378.867 -909.681 0.
-207.598 -369.05 0.
-500.636 -1256.13 0.
-415.89 -1066.8 0.
-335.659 -872.946 0.
-544.075 -1104.25 0.
-516.302 -1073.16 0.
-489.303 -1041.31 0.
-809.874 -1613.58 0.
-785.332 -1556.33 0.
-488.846 -1026.62 0.
-482.409 -1019.55 0.
-476.538 -1011.91 0.
-526.17 -1027.55 0.
-497.894 -967.218 0.
-469.932 -906.572 0.
-497.447 -937.116 0.
-497.065 -932.413 0.
-496.874 -927.518 0.
-540.143 -1092.05 0.
-510.772 -1074.23 0.
-1012.05 -1303.22 0.
-471.488 -1132.3 0.
-486.709 -1161.44 0.
-486.179 -929.829 0.
-493.557 -945.739 0.
-501.337 -961.249 0.
-480.779 -933.863 0.
-488.451 -953.124 0.
-497.326 -971.182 0.
-485.394 -975.457 0.
-514.239 -1032.58 0.
-543.961 -1088.83 0.
-758.469 -1546.35 0.
-765.731 -1549.17 0.
-405.862 -867.438 0.
-474.793 -992.781 0.
-544.896 -1116.95 0.
-295.663 -744.694 0.
-376.789 -997.701 0.
-468.5 -1240.12 0.
-62.2239 -30.5553 0.
-315.543 -765.436 0.
-582.966 -1486.21 0.
-154.266 -375.715 0.
-599.741 -1568.69 0.
-3.84046 -1.9436 0.
-14.0283 -8.66092 0.
-414.15 -993.691 0.
0.0140242 0.930901 0.
1.2805 3.53703 0.
1.06841 2.81997 0.
-0.871727 -2.02126 0.
0.20372 0.418168 0.
-5.42823 -10.0842 0.
-0.000298297 -4.24735 0.
-0.0976879 -16.7266 0.
-0.12003 -13.8349 0.
-0.383163 -16.9764 0.
-58.6561 -148.787 0.
0.967261 2.58387 0.
-164.896 -435.865 0.
-0.0834625 -42.2854 0.
3.94485 10.8644 0.
-0.132122 -47.7519 0.
-0.184787 -56.5972 0.
-277.331 -761.493 0.
11.2879 30.2201 0.
-14.9483 -41.1187 0.
14.8302 38.5953 0.
-2.547 -71.8314 0.
-62.4403 -168.221 0.
19.3174 43.9519 0.
18.6572 44.6852 0.
4.52852 12.0695 0.
25.1373 67.6501 0.
-579.939 -1600.77 0.
-4.83109 -13.283 0.
1.50546 4.11351 0.
-0.0110071 -41.0117 0.
16.0465 44.4284 0.
-30.8975 -84.2299 0.
-1.49964 -4.08311 0.
-1499.1 -4110.42 0.
5.63899 15.4209 0.
-0.103719 -21.8182 0.
-2249.98 -6220.54 0.
-0.448617 -1.24202 0.
-2024.56 -3883.41 0.
-199.479 -405.075 0.
-447.856 -972.575 0.
-2912.04 -7708.74 0.
-0.337214 -0.931963 0.
0.12622 0.341733 0.
-2184.31 -5538.02 0.
-514.064 -1336.44 0.
1.26565 0.468332 0.
-1537.52 -3777.97 0.
-825.238 -2017.51 0.
-1067.55 -2629.26 0.
-666.857 -1678.88 0.
-293.813 -700.846 0.
-734.07 -1704.99 0.
-543.592 -1311.98 0.
-363.688 -908.395 0.
-573.658 -1165.62 0.
-440.146 -882.096 0.
-301.56 -603.648 0.
-647.386 -1293.5 0.
-633.5 -1274.19 0.
-401.713 -726.456 0.
-388.55 -702.295 0.
-375.598 -677.924 0.
-415.681 -715.003 0.
-404.675 -687.979 0.
-394.106 -660.518 0.
-426.283 -683.657 0.
-396.508 -607.297 0.
-366.988 -530.681 0.
-405.356 -719.545 0.
-394.166 -685.701 0.
-834.543 -905.467 0.
-340.696 -732.643 0.
-354.695 -766.495 0.
-360.566 -539.913 0.
-383.046 -601.026 0.
-405.593 -662.071 0.
-381.837 -650.486 0.
-398.536 -691.383 0.
-416.943 -730.573 0.
-392.722 -673.957 0.
-397.984 -681.983 0.
-403.707 -689.548 0.
-594.769 -1272.25 0.
-651.925 -1369.94 0.
-307.95 -655.689 0.
-454.901 -959.523 0.
-599.619 -1265.59 0.
-297.205 -784.935 0.
-549.968 -1409.95 0.
-830.913 -2006.79 0.
-254.584 -590.809 0.
-691.716 -1732.64 0.
-1164.41 -2838.9 0.
-690.713 -1786.81 0.
-1690.08 -4174.82 0.
-0.049579 -0.000258155 0.
-362.417 -919.364 0.
-2406.58 -5992.1 0.
0.0102004 3.27401 0.
2.20518 5.69592 0.
-2812.02 -7601.1 0.
1.89214 4.39343 0.
-130.838 -274.687 0.
-2171.84 -4640.89 0.
0.460939 1.27634 0.
-1700.07 -4708.9 0.
0.723242 2.00325 0.
-824.446 -2264.21 0.
-0.49425 -20.1339 0.
1.46846 4.01332 0.
1.4805 4.00835 0.
-4.46795 -12.2805 0.
-289.909 -795.899 0.
12.706 34.8102 0.
-11.8529 -32.4347 0.
-789.907 -2159.47 0.
-2.75207 -7.30593 0.
-6.39769 -16.933 0.
-17.3262 -42.4111 0.
-3.75887 -53.0698 0.
-1.69272 -44.4401 0.
-4.53164 -50.0725 0.
1.54304 3.719 0.
-189.542 -501.47 0.
-0.936205 -62.213 0.
11.842 32.5367 0.
4.64275 12.6733 0.
-0.636089 -51.8693 0.
-698.531 -1933.77 0.
8.87812 24.5236 0.
-955.613 -2646.39 0.
9.0792 24.8049 0.
-2.01154 -5.51054 0.
1.22161 3.35087 0.
-0.0497633 -14.1322 0.
-6.55527 -18.0276 0.
1.98339 5.42417 0.
-10.416 -22.4097 0.
2.80869 6.36878 0.
-0.196402 -3.18836 0.
-12.2954 -33.8338 0.
0.0623257 0.17202 0.
0.578995 1.52254 0.
-250.123 -676.09 0.
-0.272631 -0.256415 0.
-0.554933 -0.134844 0.
-609.011 -1594.44 0.
-0.0567643 -0.00750724 0.
-540.814 -1438.99 0.
-186.723 -440.801 0.
0.402604 0.00653519 0.
-430.754 -1137.84 0.
-262.118 -722.725 0.
-124.185 -276.906 0.
-454.599 -984.237 0.
-325.281 -696.456 0.
-210.168 -405.721 0.
-568.946 -1197.57 0.
-546.632 -1186.69 0.
-398.402 -685.769 0.
-385.376 -661.471 0.
-372.436 -637.087 0.
-361.782 -647.689 0.
-351.376 -620.064 0.
-341.595 -591.813 0.
-407.2 -667.662 0.
-377.309 -591.416 0.
-347.605 -514.983 0.
-398.156 -716.903 0.
-386.744 -683.281 0.
-651.311 -822.433 0.
-329.439 -711.415 0.
-343.302 -745.404 0.
-346.661 -519.049 0.
-369.126 -580.179 0.
-391.752 -641.148 0.
-342.16 -583.001 0.
-357.935 -624.826 0.
-374.785 -665.578 0.
-344.232 -598.268 0.
-349.342 -606.446 0.
-354.896 -614.18 0.
-510.566 -1157.39 0.
-571.456 -1251.37 0.
-178.702 -375.741 0.
-301.953 -702.212 0.
-434.646 -1020.4 0.
-8.53722 -3.47317 0.
-229.875 -603.62 0.
-471.361 -1240.43 0.
-20.5076 -14.2181 0.
-65.1981 -130.892 0.
-493.114 -1283.76 0.
0.648344 0.396161 0.
-470.697 -1253.29 0.
0.645382 0.390696 0.
0.520826 0.411335 0.
0.141943 0.0549401 0.
0.0586952 3.19497 0.
0.00379766 2.73691 0.
-123.734 -335.241 0.
-0.404353 -10.3551 0.
4.6013 10.6786 0.
0.201729 0.432651 0.
-0.0930545 -10.9283 0.
-3.41713 -9.32691 0.
5.90098 16.3447 0.
6.32897 17.4337 0.
-861.318 -2332.04 0.
5.77059 15.9595 0.
-1014.59 -2809.47 0.
-32.1529 -85.6466 0.
-161.64 -431.946 0.
8.47122 23.0842 0.
-83.6673 -227.729 0.
11.308 29.8231 0.
8.02283 21.096 0.
-50.1204 -131.445 0.
-41.112 -101.15 0.
-13.522 -32.2823 0.
6.51546 16.8801 0.
-4.46676 -51.451 0.
-487.534 -1184.64 0.
-102.511 -269.011 0.
4.58613 11.4152 0.
-3.86535 -10.0813 0.
19.7269 52.1233 0.
3.21421 8.59846 0.
-540.534 -1493.74 0.
8.75733 24.1126 0.
-126.724 -348.915 0.
3.37958 9.0742 0.
-106.417 -292.499 0.
-2.21181 -6.08279 0.
-0.0486186 -19.5068 0.
3.75615 10.146 0.
-0.206921 -12.5881 0.
3.31046 7.70986 0.
3.56259 8.72785 0.
4.19032 10.8418 0.
0.134933 0.373712 0.
1.08954 2.96503 0.
-0.121473 -3.63849 0.
-0.0238066 -0.0575806 0.
1.11598 1.61422 0.
-1.34478 -1.0156 0.
-0.924752 -0.0698143 0.
-0.951835 -0.153027 0.
-95.6903 -167.117 0.
0.470711 0.0105239 0.
0.0928468 0.704027 0.
-185.433 -512.696 0.
-39.9956 -74.1182 0.
-0.108678 -0.1415 0.
-349.684 -788.711 0.
-234.889 -486.344 0.
-154.737 -264.833 0.
-499.328 -1092.82 0.
-478.122 -1080.83 0.
-393.057 -647.115 0.
-381.965 -620.884 0.
-369.89 -595.636 0.
-310.071 -578.187 0.
-300.96 -549.265 0.
-292.317 -519.875 0.
-390.245 -649.537 0.
-360.494 -573.152 0.
-330.781 -496.727 0.
-398.862 -706.356 0.
-387.408 -672.775 0.
-682.713 -834.324 0.
-320.611 -687.758 0.
-334.182 -722.038 0.
-333.701 -497.241 0.
-356.229 -558.309 0.
-378.643 -619.492 0.
-311.189 -506.811 0.
-325.67 -549.935 0.
-340.454 -592.756 0.
-296.292 -522.028 0.
-301.044 -530.565 0.
-304.553 -540.343 0.
-437.841 -1031.06 0.
-496.661 -1127.13 0.
-108.655 -160.544 0.
-191.64 -402.265 0.
-312.802 -732.081 0.
0.17904 0.00367759 0.
-14.3082 -5.20168 0.
-178.433 -407.445 0.
0.695371 0.480376 0.
0.375224 0.235367 0.
0.971008 0.562377 0.
0.40501 0.71093 0.
1.2567 0.0735195 0.
1.59712 2.38729e-05 0.
0.245814 0.718776 0.
0.0954057 1.13552 0.
0.0751516 2.81376 0.
-0.0136461 -2.6171 0.
2.16635 5.99793 0.
0.00484893 0.256093 0.
-0.610178 -12.4417 0.
5.16195 12.9577 0.
-0.499472 -1.29422 0.
-21.3972 -56.5082 0.
5.07299 14.0511 0.
0.853965 2.35303 0.
4.60222 12.5358 0.
-1.59045 -4.36018 0.
-159.469 -439.074 0.
-23.4746 -62.5786 0.
-249.239 -666.365 0.
8.03865 21.2983 0.
-0.928444 -49.6662 0.
23.9649 61.0579 0.
19.8167 49.6801 0.
-173.786 -451.264 0.
-354.363 -877.632 0.
-0.567621 -1.36346 0.
17.9302 47.4291 0.
17.6772 37.9534 0.
-5.06001 -52.8809 0.
18.7971 45.8102 0.
-2.81492 -55.5719 0.
-55.4603 -139.2 0.
8.16204 21.4043 0.
-163.768 -435.459 0.
-675.488 -1861.21 0.
11.4897 31.5046 0.
-4.27902 -11.6544 0.
13.5483 37.2317 0.
-178.457 -491.034 0.
-1113.4 -2933.25 0.
-0.314277 -0.854683 0.
-1226.81 -3372.31 0.
-64.8067 -176.347 0.
-28.7116 -77.3134 0.
-2452.99 -6209.04 0.
4.72191 12.603 0.
-2010.83 -5438.94 0.
0.00471425 0.194518 0.
1.34988 3.62517 0.
-2527.3 -6813.74 0.
0.695003 1.8695 0.
0.622549 1.67872 0.
-2008.23 -5285.13 0.
-406.461 -1118.72 0.
-1366 -3409.71 0.
-647.858 -1697.67 0.
0.203845 0.514804 0.
-1044.18 -2739.84 0.
-584.674 -1600.6 0.
-161.951 -424.573 0.
-728.06 -1848.53 0.
-504.993 -1315.7 0.
-307.547 -757.25 0.
-723.14 -1798.72 0.
-642.616 -1627.42 0.
-524.414 -1151.83 0.
-479.421 -1046.32 0.
-435.084 -940.155 0.
-446.146 -939.755 0.
-423.3 -887.377 0.
-402.227 -833.227 0.
-465.668 -937.175 0.
-442.971 -875.107 0.
-420.594 -812.721 0.
-539.39 -1047.56 0.
-526.427 -1012.7 0.
-753.487 -1168.21 0.
-398.705 -1029.29 0.
-406.29 -1047.83 0.
-415.379 -774.923 0.
-444.949 -855.982 0.
-475.362 -936.198 0.
-397.231 -826.66 0.
-418.622 -881.862 0.
-442.044 -935.032 0.
-381.092 -893.655 0.
-437.678 -1028.02 0.
-496.525 -1160.12 0.
-615.427 -1638.64 0.
-731.71 -1885.12 0.
-258.372 -595.338 0.
-520.625 -1374.1 0.
-819.072 -2116.67 0.
-97.7526 -169.265 0.
-623.197 -1650.94 0.
-1191.5 -3089.75 0.
-0.232482 -0.1531 0.
-677.667 -1727.72 0.
-1594.95 -3915.15 0.
-225.778 -599.517 0.
-2132.97 -5628.88 0.
-0.00307488 -0.610598 0.
-0.216195 -2.88241 0.
-2334.32 -6204.23 0.
-0.00602087 -1.12094 0.
1.19707 3.23618 0.
-1947.04 -5217.52 0.
3.4295 9.23242 0.
-2403.92 -6322.83 0.
3.57473 9.62543 0.
0.430305 1.17265 0.
-1350.44 -3723.38 0.
-0.0427488 -15.6982 0.
-615.877 -1696.73 0.
12.8603 34.3699 0.
-0.309764 -28.194 0.
-33.6932 -91.7089 0.
11.6539 31.0912 0.
-414.175 -1107.57 0.
-7.91475 -20.7504 0.
-57.8488 -151.819 0.
-11.6284 -29.4921 0.
14.8057 36.9308 0.
-9.96054 -24.4249 0.
26.521 60.5634 0.
5.90766 12.5107 0.
16.5072 41.62 0.
1.79154 3.90549 0.
19.2802 44.3319 0.
-10.032 -24.2762 0.
-68.5184 -168.318 0.
-312.932 -780.253 0.
-352.976 -919.068 0.
-2.22784 -43.3533 0.
8.0008 21.3994 0.
10.0732 27.2367 0.
-238.217 -652.139 0.
-0.551 -1.50939 0.
0.680909 1.86677 0.
-549.384 -1487.37 0.
-1.67824 -4.62792 0.
-57.8193 -157.877 0.
-22.4349 -60.7037 0.
-1.48352 -3.96655 0.
-35.2155 -96.9374 0.
-0.000279865 -4.28567 0.
-0.0487598 -1.86473 0.
0.00831503 0.526556 0.
1.6986 4.62094 0.
-0.0465802 -1.12255 0.
1.37719 3.77525 0.
-0.0332546 -4.10171 0.
-365.695 -1011.25 0.
0.0107588 0.845353 0.
-369.408 -915.621 0.
0.0123934 1.20388 0.
0.549164 0.898703 0.
-563.018 -1506.53 0.
-140.989 -328.385 0.
-0.299153 -0.0950016 0.
-487.434 -1326.66 0.
-302.459 -755.443 0.
-113.671 -207.208 0.
-608.365 -1555.37 0.
-530.821 -1381.04 0.
-432.743 -1017.7 0.
-388.256 -911.67 0.
-344.351 -805.054 0.
-445.165 -894.647 0.
-423.405 -841.181 0.
-403.201 -786.161 0.
-431.094 -869.165 0.
-408.634 -806.857 0.
-386.497 -744.224 0.
-552.337 -1004.57 0.
-539.628 -969.457 0.
-669.132 -1129.6 0.
-378.473 -984.102 0.
-385.059 -1003.65 0.
-391.19 -707.701 0.
-419.867 -789.659 0.
-449.47 -870.691 0.
-361.662 -739.407 0.
-381.674 -795.993 0.
-403.074 -851.191 0.
-316.486 -720.99 0.
-368.091 -860.36 0.
-422.538 -996.888 0.
-473.977 -1309.5 0.
-570.396 -1575.93 0.
-78.3814 -48.5769 0.
-266.526 -619.871 0.
-522.642 -1405.32 0.
-4.70758 -7.00438 0.
-21.6461 -15.3623 0.
-561.225 -1485.23 0.
-0.544871 -0.483993 0.
0.0551976 0.0714693 0.
-332.832 -814.83 0.
-0.0617904 -0.603899 0.
-268.178 -717.355 0.
-0.000203118 -3.35838 0.
-0.098372 -4.17167 0.
1.99918 4.72521 0.
-0.00271548 -8.71462 0.
2.62296 7.22017 0.
-0.0782823 -0.213745 0.
-0.0109857 -18.8828 0.
4.53365 12.3872 0.
4.03718 10.9232 0.
5.68813 15.5527 0.
5.97639 16.4672 0.
5.75305 15.9349 0.
-519.819 -1439.77 0.
-4.84335 -12.8824 0.
9.57827 25.4613 0.
-96.9103 -257.561 0.
6.41118 16.7084 0.
-102.601 -268.102 0.
-1.38872 -48.2631 0.
-875.192 -2262.37 0.
-75.639 -190.914 0.
-7.65123 -18.9843 0.
24.8628 60.6135 0.
11.2904 26.2366 0.
6.41318 13.8064 0.
-0.989981 -30.162 0.
15.4727 34.3108 0.
-342.321 -799.243 0.
-17.9444 -43.098 0.
0.515113 1.19559 0.
-6.50861 -15.3917 0.
15.5485 37.8979 0.
-4.87881 -11.9508 0.
-232.936 -617.518 0.
7.63288 20.4856 0.
-776.965 -2117.79 0.
-6.49311 -17.72 0.
-0.19834 -33.6922 0.
-26.2845 -72.1848 0.
-0.000617116 -19.7469 0.
-56.0284 -152.263 0.
-5.24857 -14.1135 0.
-178.151 -466.102 0.
-1456.55 -4006.69 0.
-0.281369 -0.760197 0.
-1970.37 -5320.48 0.
-42.3553 -116.806 0.
0.509141 1.40783 0.
-2219.79 -6121.8 0.
-0.0247963 -5.01315 0.
-0.00177908 -6.35202 0.
-1928.5 -5243.36 0.
-0.0217968 -1.25165 0.
-1590.57 -4015.81 0.
-507.312 -1292.79 0.
0.43252 0.810437 0.
-1213.68 -3183.92 0.
-571.426 -1543.24 0.
-22.0831 -26.3739 0.
-894.844 -2339.9 0.
-496.218 -1344.77 0.
-135.81 -311.422 0.
-694.872 -1748.24 0.
-523.878 -1359.3 0.
-427.451 -998.048 0.
-341.538 -801.482 0.
-259.373 -601.169 0.
-378.176 -714.958 0.
-347.235 -635.804 0.
-317.834 -555.111 0.
-343.186 -622.853 0.
-308.505 -531.487 0.
-237.783 -476.162 0.
-450.614 -688.002 0.
-430.061 -632.029 0.
-535.19 -795.653 0.
-257.617 -653.462 0.
-277.685 -710.447 0.
-256.592 -478.131 0.
-330.672 -550.291 0.
-370.085 -657.118 0.
-284.001 -527.976 0.
-333.286 -656.8 0.
-384.16 -784.035 0.
-279.891 -630.044 0.
-376.308 -866.659 0.
-477.741 -1098.26 0.
-520.825 -1414.58 0.
-743.599 -1933.8 0.
-69.8689 -99.8306 0.
-510.959 -1377.75 0.
-988.379 -2619.34 0.
-32.8525 -67.4965 0.
-547.919 -1490.3 0.
-1403.08 -3676.93 0.
-1.54591 -3.11291 0.
-443.545 -1131.94 0.
-1679.72 -4251.75 0.
0.622102 1.60494 0.
-2059.22 -5533.32 0.
-0.000273153 -2.7663 0.
0.0917508 0.249906 0.
-2065.82 -5660.1 0.
-26.7787 -73.7054 0.
-81.3242 -221.536 0.
-1835.57 -4982.05 0.
-0.0573834 -20.5393 0.
-1441.73 -3986.94 0.
4.94394 13.4303 0.
8.12838 22.2849 0.
-0.0346002 -22.2323 0.
-0.0718657 -30.191 0.
-466.543 -1287.13 0.
10.1836 26.9445 0.
-59.3262 -156.933 0.
-943.55 -2498.71 0.
-20.5289 -53.2485 0.
-135.813 -353.242 0.
-4.13478 -10.2788 0.
-5.30965 -13.132 0.
-11.9503 -28.6102 0.
-25.2514 -62.299 0.
-327.52 -805.928 0.
-10.514 -24.9254 0.
5.5618 12.2075 0.
4.21885 10.16 0.
8.40686 17.2164 0.
-4.65677 -43.1818 0.
-1.43044 -3.25492 0.
8.02259 18.6143 0.
6.9779 16.5003 0.
-374.09 -905.144 0.
-431.057 -1048 0.
-450.038 -1181.93 0.
-128.846 -342.876 0.
-355.076 -963.309 0.
-16.4366 -41.826 0.
-13.0846 -33.3605 0.
-1133.47 -3116.89 0.
9.92662 27.4022 0.
-1077.82 -2975.9 0.
-32.2997 -87.9433 0.
0.408233 1.07884 0.
-52.0651 -139.786 0.
-0.41654 -17.4494 0.
-136.526 -377.755 0.
-30.2739 -83.8295 0.
0.330832 0.916293 0.
-0.0218784 -6.34927 0.
1.83474 5.07961 0.
0.00236971 1.50943 0.
-186.781 -514.965 0.
0.926931 2.3486 0.
-336.724 -842.744 0.
0.0226501 0.104528 0.
-0.149805 -0.469174 0.
-490.791 -1333.83 0.
0.279524 0.378866 0.
-0.0502051 -0.131409 0.
-524.878 -1403.44 0.
-165.626 -367.991 0.
-0.337676 -0.000388286 0.
-463.981 -1230.86 0.
-315.577 -819.115 0.
-339.036 -805.379 0.
-255.734 -606.161 0.
-176.732 -402.642 0.
-295.144 -618.652 0.
-264.242 -539.45 0.
-233.374 -460.213 0.
-308.736 -579.875 0.
-274.501 -488.058 0.
-209.843 -426.664 0.
-407.397 -641.816 0.
-386.585 -586.098 0.
-361.896 -669.461 0.
-218.336 -586.564 0.
-238.105 -643.854 0.
-208.594 -420.941 0.
-275.798 -499.986 0.
-318.334 -603.699 0.
-194.223 -420.024 0.
-244.549 -547.826 0.
-294.15 -676.353 0.
-131.777 -350.678 0.
-222.633 -592.929 0.
-317.619 -831.051 0.
-268.267 -742.969 0.
-469.855 -1283.74 0.
-2.63639 -5.87225 0.
-94.0112 -168.762 0.
-528.594 -1454.64 0.
-5.36369 -13.8478 0.
-3.39539 -7.64964 0.
-446.463 -1214.46 0.
0.25597 0.537658 0.
-0.0159483 -0.0305492 0.
-260.014 -672.965 0.
0.654929 1.81391 0.
-115.443 -316.878 0.
-0.0249379 -5.38326 0.
-0.00204316 -5.23831 0.
-0.0644339 -8.10467 0.
0.044236 0.121293 0.
-0.0847766 -8.49346 0.
-1.16736 -3.09688 0.
-0.322261 -17.9381 0.
-150.67 -404.377 0.
-74.73 -196.209 0.
-37.686 -99.3581 0.
-1224.11 -3253.59 0.
-5.00714 -13.1348 0.
-380.448 -1022.3 0.
-7.5249 -19.5972 0.
-120.893 -318.056 0.
11.7625 30.2658 0.
-70.0684 -180.832 0.
-622.555 -1608.58 0.
-80.6841 -198.575 0.
0.460708 1.12831 0.
1.08545 2.58935 0.
17.8514 41.3955 0.
-42.8542 -103.708 0.
-4.21327 -42.5508 0.
5.98327 12.3125 0.
9.91495 24.3707 0.
22.9354 47.8679 0.
3.75877 8.5078 0.
21.7665 49.5074 0.
13.5829 31.5114 0.
-352.541 -834.26 0.
-216.335 -518.391 0.
16.6197 38.2954 0.
-53.1039 -132.792 0.
-9.76895 -24.4599 0.
-301.471 -758.433 0.
-33.4159 -84.3611 0.
-28.3455 -71.6871 0.
-236.873 -644.363 0.
0.888866 2.4213 0.
-196.691 -544.158 0.
-0.135819 -24.28 0.
-0.354366 -21.8528 0.
-2.99503 -7.83662 0.
-0.730455 -18.2313 0.
-82.5142 -228.52 0.
-32.8116 -90.8042 0.
-1.34234 -3.7072 0.
0.658574 1.82344 0.
2.27786 6.29235 0.
0.00366209 0.494882 0.
0.796791 2.17427 0.
-0.114645 -2.28893 0.
-0.053268 -0.22104 0.
-0.135648 -0.343787 0.
0.0155241 0.0210863 0.
0.517539 0.801837 0.
-0.124021 -0.451651 0.
-0.0150019 -0.0942368 0.
-196.439 -425.462 0.
-16.4805 -9.03272 0.
0.355764 0.135042 0.
-268.827 -677.75 0.
-156.513 -345.142 0.
-257.352 -605.979 0.
-178.653 -402.116 0.
-128.123 -259.146 0.
-224.171 -510.287 0.
-195.301 -429.042 0.
-166.892 -347.337 0.
-277.928 -533.254 0.
-220.385 -464.74 0.
-187.182 -371.886 0.
-368.51 -591.3 0.
-348.905 -534.372 0.
-287.156 -624.924 0.
-186.209 -512.513 0.
-207.257 -568.528 0.
-192.033 -378.242 0.
-217.48 -453.127 0.
-274.033 -542.831 0.
-145.523 -296.658 0.
-184.438 -410.226 0.
-232.472 -540.338 0.
-47.7279 -122.529 0.
-104.312 -286.501 0.
-192.097 -529.242 0.
-67.5981 -151.842 0.
-222.048 -607.735 0.
-4.48961 -8.95246 0.
-6.3962 -14.3681 0.
-119.213 -239.547 0.
1.01172e-05 0.242929 0.
-0.0208132 -0.960128 0.
-0.029213 -0.596849 0.
0.145956 0.31731 0.
-0.147522 -0.877518 0.
-0.192199 -0.864294 0.
-0.00560925 -0.288025 0.
0.798007 2.19393 0.
-0.140952 -11.8641 0.
-0.00617108 -7.61162 0.
-0.649283 -1.79214 0.
-0.0553621 -9.59658 0.
0.947867 2.55322 0.
-0.174546 -8.48694 0.
-0.629319 -1.5757 0.
1.54214 3.95316 0.
-54.8954 -145.58 0.
-29.0072 -77.2398 0.
-112.228 -300.105 0.
2.5373 6.50951 0.
-237.465 -627.586 0.
-17.7847 -46.1834 0.
-56.7715 -146.361 0.
-1.4137 -3.52146 0.
-0.83911 -2.07712 0.
4.17393 10.2717 0.
-54.9672 -133.884 0.
-259.911 -630.05 0.
-382.76 -910.694 0.
11.1688 25.7825 0.
-80.6017 -201.089 0.
6.53518 15.2204 0.
1.6776 3.57125 0.
5.36227 13.4904 0.
-4.94736 -38.5113 0.
-429.467 -996.556 0.
11.538 26.242 0.
-2.91942 -6.36413 0.
17.6775 39.5985 0.
1.35026 3.06177 0.
18.2524 41.8898 0.
-429.349 -1069.06 0.
5.97322 14.9072 0.
-531.247 -1323.62 0.
-59.9693 -150.128 0.
-34.3647 -86.1792 0.
10.3913 27.667 0.
10.8386 28.8309 0.
-0.00589256 -24.7601 0.
-29.7878 -80.919 0.
-2.20612 -5.97819 0.
-1445.11 -3792.66 0.
-0.941354 -20.343 0.
-1378.51 -3550.25 0.
-130.8 -362.212 0.
-119.088 -328.702 0.
-1765.07 -4837.3 0.
0.377319 1.03171 0.
1.84775 4.99308 0.
-2084.66 -5698.14 0.
0.89185 2.46675 0.
-1705.42 -4322.08 0.
-307.806 -733.507 0.
-13.8605 -32.7778 0.
-1606.97 -4252.01 0.
-381.572 -1025.46 0.
0.0291044 0.314088 0.
-1085.17 -2965.37 0.
-494.402 -1358.39 0.
-9.42005 -14.774 0.
-870.065 -2313.55 0.
-515.392 -1362.81 0.
-564.753 -1487.79 0.
-405.672 -1096.06 0.
-263.181 -687.744 0.
-398.649 -1088.56 0.
-311.179 -860.522 0.
-227.94 -628.252 0.
-352.903 -852.898 0.
-315.907 -752.556 0.
-265.465 -665.661 0.
-454.895 -898.325 0.
-436.115 -845.322 0.
-375.402 -895.275 0.
-302.389 -823.384 0.
-322.198 -881.607 0.
-247.851 -616.785 0.
-305.872 -772.642 0.
-364.162 -928.228 0.
-226.702 -625.306 0.
-326.482 -904.143 0.
-430.364 -1178.88 0.
-208.611 -577.238 0.
-411.452 -1126.18 0.
-628.166 -1661.25 0.
-484.6 -1331.11 0.
-897.786 -2410.43 0.
-1.86815 -2.59679 0.
-415.636 -1150.51 0.
-1195.85 -3236.64 0.
0.245224 0.921338 0.
-220.361 -598.836 0.
-1715.81 -4631.01 0.
-11.5742 -28.0671 0.
-327.215 -825.339 0.
-1714.19 -4397.14 0.
-0.00107224 -1.27133 0.
-1877.96 -5061.01 0.
4.63967 12.8329 0.
0.430245 1.19136 0.
-1937.2 -5364.88 0.
-32.6407 -89.462 0.
-125.218 -337.871 0.
-1370.53 -3653.68 0.
-1.02212 -20.1816 0.
-1102.92 -2816.24 0.
0.267875 0.726205 0.
-389.376 -1067.19 0.
-5.66188 -15.2688 0.
6.836 17.1439 0.
-55.5784 -144.188 0.
-128.172 -331.477 0.
-640.058 -1635.74 0.
-469.425 -1155.12 0.
6.58032 16.1253 0.
8.78494 21.4034 0.
2.56222 5.82641 0.
2.49831 5.55505 0.
19.2546 41.719 0.
23.373 48.8577 0.
-22.9053 -59.0298 0.
0.103574 0.250937 0.
4.52895 10.0554 0.
-1.26381 -16.9227 0.
-6.07595 -36.6153 0.
8.37912 18.3609 0.
-5.54078 -11.7601 0.
-8.11752 -17.7275 0.
-24.3347 -54.6404 0.
-67.5983 -152.749 0.
-505.417 -1160.99 0.
-448.536 -1111.34 0.
-23.4388 -58.2903 0.
-7.86743 -19.5946 0.
-15.7945 -38.9402 0.
-6.2664 -15.418 0.
-19.8004 -51.1913 0.
9.30413 23.8296 0.
-766.311 -2081.61 0.
-29.3986 -79.8169 0.
-0.256195 -27.128 0.
-24.804 -62.0719 0.
-0.0492678 -0.115953 0.
-0.0293418 -7.6174 0.
-0.685886 -1.89708 0.
-2.14128 -5.9293 0.
1.77489 4.77751 0.
2.26348 5.99183 0.
-0.027002 -0.856085 0.
1.98908 5.50376 0.
1 2.76206 0.
-68.0102 -163.774 0.
-9.40915 -24.3951 0.
0.428375 1.1627 0.
-327.078 -883.534 0.
0.00264575 1.03449 0.
0.21798 1.04774 0.
-489.089 -1347.04 0.
-0.194538 -0.128007 0.
-10.2798 -11.0002 0.
-587.515 -1550.44 0.
-245.734 -586.101 0.
-372.857 -1024.56 0.
-232.831 -613.594 0.
-114.955 -239.222 0.
-314.28 -869.979 0.
-231.694 -637.007 0.
-148.539 -404.604 0.
-298.46 -755.798 0.
-261.565 -655.345 0.
-234.56 -575.282 0.
-406.628 -815.565 0.
-387.047 -763.358 0.
-356.34 -843.976 0.
-279.321 -737.925 0.
-299.74 -795.541 0.
-192.706 -500.114 0.
-238.861 -628.007 0.
-296.856 -783.911 0.
-132.114 -359.259 0.
-226.795 -623.653 0.
-326.355 -902.787 0.
-41.0601 -74.1397 0.
-185.767 -514.49 0.
-388.788 -1063.58 0.
-116.131 -307.373 0.
-513.03 -1404.06 0.
-0.764646 -1.03234 0.
0.314263 0.315848 0.
-410.985 -1133.1 0.
0.41583 0.963949 0.
2.10875 0.00221088 0.
-249.875 -687.025 0.
0.0480243 0.131128 0.
-15.5435 -41.8893 0.
-111.46 -281.717 0.
3.42789 9.40812 0.
1.1437 3.14415 0.
-0.108405 -11.3537 0.
-0.0688172 -12.6112 0.
2.43639 6.69799 0.
0.0540459 0.14841 0.
-0.124572 -13.3229 0.
8.32085 19.6491 0.
-1.34566 -21.2708 0.
-198.173 -488.147 0.
8.82343 23.5848 0.
-347.472 -942.196 0.
-628.772 -1579.62 0.
-1.79137 -4.44897 0.
3.33258 8.20954 0.
-136.439 -336.519 0.
-195.736 -500.285 0.
-153.279 -373.698 0.
-108.401 -262.708 0.
-235.377 -567 0.
-529.729 -1203.73 0.
17.5 38.7931 0.
-8.13962 -17.8552 0.
18.7654 39.7142 0.
14.6086 29.7677 0.
0.765604 1.77236 0.
9.97351 21.745 0.
3.65341 8.66482 0.
-1.29196 -2.63571 0.
-332.329 -742.25 0.
11.0535 23.4961 0.
-10.2175 -22.3578 0.
-579.724 -1305.56 0.
16.4462 36.9702 0.
-4.76153 -41.3619 0.
1.5267 3.6817 0.
-1.92287 -33.2164 0.
6.71771 16.5412 0.
-130.328 -320.211 0.
-179.821 -441.03 0.
-646.309 -1671.1 0.
4.4171 11.2352 0.
-471.187 -1279 0.
-170.809 -463.252 0.
-103.665 -280.541 0.
6.5671 15.6952 0.
-1.84252 -17.5745 0.
-1.03619 -6.36781 0.
-361.21 -993.913 0.
-310.778 -853.656 0.
-1300.19 -3537.41 0.
-39.7239 -102.462 0.
-0.325829 -6.82326 0.
-1716.48 -4753.34 0.
-0.000698943 -0.671665 0.
-1545.49 -3913.86 0.
-99.6808 -241.401 0.
0.765221 2.04582 0.
-1669.4 -4562.74 0.
-61.6917 -168.8 0.
0.0853856 0.235924 0.
-1278.22 -3473.6 0.
-355.299 -977.969 0.
-6.45734 -8.48919 0.
-916.66 -2412.12 0.
-434.774 -1136.73 0.
-621.532 -1592.11 0.
-373.033 -993.877 0.
-141.701 -378.475 0.
-427.805 -1137.89 0.
-294.904 -804.74 0.
-168.265 -465.329 0.
-323.168 -849.663 0.
-250.811 -656.793 0.
-179.525 -462.851 0.
-349.784 -686.868 0.
-315.681 -592.02 0.
-218.923 -447.2 0.
-231.402 -588.658 0.
-277.051 -713.144 0.
-153.097 -412.103 0.
-242.227 -659.039 0.
-332.016 -905.317 0.
-147.484 -407.572 0.
-320.886 -877.737 0.
-505.604 -1336.59 0.
-101.104 -278.683 0.
-391.955 -1051.06 0.
-697.551 -1808.68 0.
-400.242 -1075.35 0.
-1007.27 -2673.27 0.
0.0788108 0.0905202 0.
-240.49 -639.791 0.
-1353.32 -3651.68 0.
0.000752404 0.50959 0.
-0.0001434 -1.04676 0.
-1746.28 -4821.12 0.
-122.485 -307.805 0.
-173.392 -373.128 0.
-1377.91 -3301.36 0.
-0.0070448 -0.752846 0.
-1710.84 -4674.62 0.
-1.26965 -3.22485 0.
-13.8174 -35.6401 0.
-1054.44 -2730.1 0.
2.01102 5.53077 0.
1.13603 3.08763 0.
7.78128 17.8429 0.
-0.145244 -0.341056 0.
-4.47885 -10.7319 0.
9.32554 24.5332 0.
-441.535 -1181.21 0.
5.43827 13.4393 0.
-3.79803 -9.30719 0.
-426.821 -1038.33 0.
-108.47 -266.143 0.
-151.211 -373.577 0.
-11.3895 -27.1115 0.
11.0833 25.9841 0.
15.0083 34.648 0.
-60.4772 -136.844 0.
7.35653 16.2561 0.
-303.772 -675.44 0.
1.5584 3.34224 0.
-4.45151 -29.7862 0.
-6.48472 -15.1189 0.
1.98766 4.34892 0.
3.50999 8.38046 0.
-3.51798 -23.9965 0.
-2.8335 -18.8606 0.
11.3181 21.6482 0.
-6.25699 -38.1296 0.
9.39215 19.9532 0.
-4.91488 -37.947 0.
-4.99297 -10.9014 0.
-82.7725 -197.661 0.
-203.964 -491.375 0.
-59.0952 -144.128 0.
-560.534 -1371.94 0.
-345.182 -845.001 0.
4.12824 10.5289 0.
12.9447 32.6869 0.
-133.752 -337.12 0.
-160.425 -434.495 0.
-0.200358 -22.2562 0.
-536.87 -1298.66 0.
0.917448 2.22259 0.
-388.911 -948.064 0.
-1189.84 -3252.54 0.
0.776119 2.14964 0.
-268.374 -709.556 0.
3.12347 7.9404 0.
3.41712 8.42566 0.
-7.09722 -19.3638 0.
-0.00854495 -0.761651 0.
-120.125 -288.618 0.
-0.0536044 -1.20062 0.
-0.0339618 -2.2469 0.
-324.11 -891.579 0.
0.46615 1.28883 0.
-0.000267408 -1.15156 0.
-485.836 -1344.39 0.
-6.57163 -14.3947 0.
-0.0175332 -0.0404022 0.
-472.032 -1271.16 0.
-43.8613 -86.986 0.
-347.026 -920.69 0.
-115.82 -304.746 0.
0.0352457 0.0519538 0.
-290.52 -791.701 0.
-163.707 -452.347 0.
-76.9487 -184.041 0.
-241.293 -651.171 0.
-169.538 -457.659 0.
-107.884 -290.778 0.
-271.02 -515.607 0.
-252.055 -466.861 0.
-138.742 -382.92 0.
-175.574 -482.722 0.
-197.666 -543.779 0.
-124.865 -289.939 0.
-169.771 -418.533 0.
-258.407 -666.02 0.
-24.9381 -68.5478 0.
-139.813 -386.66 0.
-314.32 -855.945 0.
-0.503555 -1.15535 0.
-74.39 -199.125 0.
-363.61 -973.774 0.
-14.0852 -25.1595 0.
-465.086 -1253.93 0.
0.242951 0.326157 0.
0.391182 0.503514 0.
-372.926 -1000.6 0.
-0.000223764 -0.461236 0.
0.0234639 1.25105 0.
-353.053 -976.027 0.
0.0710013 2.11098 0.
0.00624713 0.295725 0.
-104.94 -229.468 0.
4.17076 10.4578 0.
-20.4936 -53.4878 0.
3.06048 7.69002 0.
-0.0806293 -0.205934 0.
-179.025 -463.063 0.
-1.99615 -5.51921 0.
-1635.37 -4528.61 0.
-6.58499 -15.3707 0.
-31.1461 -74.2846 0.
-662.209 -1610.13 0.
4.36453 11.3664 0.
-290.808 -762.507 0.
-18.1963 -44.3196 0.
-112.986 -272.923 0.
-198.77 -476.344 0.
-358.266 -873.227 0.
-497.333 -1219.99 0.
-227.904 -541.418 0.
4.84983 11.3381 0.
15.3258 35.2702 0.
3.47921 7.51506 0.
-0.519667 -1.08639 0.
0.172263 0.363531 0.
11.4764 22.9688 0.
21.4241 40.5758 0.
-161.464 -379.694 0.
-5.19768 -11.4112 0.
-14.9132 -36.4088 0.
-1.26641 -2.50387 0.
-3.08776 -21.0054 0.
6.88999 13.1644 0.
6.91531 13.9708 0.
-494.092 -1054.2 0.
8.69946 18.5187 0.
-482.171 -1051.16 0.
-137.339 -324.786 0.
-62.2062 -148.731 0.
-5.32296 -12.1693 0.
-28.5928 -66.5251 0.
0.0824719 0.19332 0.
-116.403 -287.97 0.
-3.70548 -9.22622 0.
-13.326 -33.4039 0.
-356.257 -947.387 0.
4.30611 11.4584 0.
-208.968 -501.833 0.
-26.4394 -63.3749 0.
-271.658 -655.498 0.
-160.651 -444.151 0.
-0.0445479 -14.8883 0.
-39.1707 -101.412 0.
3.4331 8.64963 0.
-0.57892 -10.2596 0.
0.420199 1.11232 0.
-0.0895271 -2.98356 0.
0.710237 1.67303 0.
1.58117 4.0023 0.
1.17342 3.13598 0.
0.781133 2.16053 0.
-0.0409816 -0.113471 0.
-0.00656226 -2.16531 0.
-7.54161 -19.1802 0.
-0.49251 -1.31969 0.
-0.000308927 -0.481712 0.
-48.7391 -108.876 0.
0.0325408 0.453969 0.
-92.071 -229.718 0.
0.114517 0.0508791 0.
-0.0334142 -1.61387e-05 0.
-170.014 -428.735 0.
-76.5979 -136.331 0.
-26.6163 -68.2769 0.
-179.467 -478.253 0.
-127.797 -335.624 0.
-81.6145 -191.812 0.
-245.671 -465.538 0.
-232.818 -432.924 0.
-137.026 -377.025 0.
-175.899 -484.858 0.
-183.05 -503.984 0.
-124.801 -198.315 0.
-146.774 -263.793 0.
-217.406 -459.42 0.
-4.27711 -8.60386 0.
-10.5027 -16.9316 0.
-133.043 -365.296 0.
-8.41136 -12.1113 0.
0.185819 0.492076 0.
-50.1385 -118.399 0.
-17.2379 -27.3028 0.
-16.8295 -26.4051 0.
0.584223 0.896812 0.
0.00612873 0.0137204 0.
-7.292 -11.6157 0.
-0.000108319 -1.65546 0.
0.0213893 1.16143 0.
0.000567851 1.67637 0.
0.00729498 1.41815 0.
0.004573 1.10049 0.
-0.36114 -2.24633 0.
-0.599496 -6.37089 0.
-52.951 -128.7 0.
2.93051 7.28513 0.
3.89163 9.84053 0.
-9.04127 -23.2055 0.
-0.0364795 -14.1522 0.
-170.795 -472.866 0.
4.85124 11.3685 0.
4.85867 11.6233 0.
-452.288 -1101.17 0.
10.5931 27.0829 0.
-461.174 -1188.4 0.
-10.146 -24.3568 0.
-0.799844 -1.90434 0.
10.9538 25.859 0.
12.4243 29.2304 0.
-6.2055 -14.3253 0.
-122.081 -289.299 0.
-179.144 -417.861 0.
-17.7595 -40.744 0.
-547.34 -1180.93 0.
-5.12199 -10.6829 0.
-0.781475 -1.66581 0.
6.94712 14.0173 0.
16.7547 31.9154 0.
0.147812 0.312945 0.
0.92712 1.86263 0.
-113.225 -278.892 0.
7.6874 15.2596 0.
-201.144 -420.436 0.
-4.33281 -21.6117 0.
3.68277 7.45858 0.
-265.557 -569.526 0.
7.45721 14.9603 0.
-10.1807 -21.0274 0.
3.09109 6.91266 0.
-10.6061 -23.946 0.
-11.7949 -26.8859 0.
-30.9842 -71.6354 0.
-391.444 -909.072 0.
-563.054 -1384.58 0.
-44.0237 -109.05 0.
-30.878 -77.0128 0.
-606.04 -1577.04 0.
7.39469 19.2073 0.
-102.948 -244.762 0.
-93.5869 -211.05 0.
-77.3434 -172.552 0.
-621.237 -1705.19 0.
7.47749 20.5968 0.
-1157.49 -3205.63 0.
-3.31548 -9.17517 0.
0.269123 0.742665 0.
-1497.82 -4148.51 0.
-1.0043 -2.75273 0.
-1403.95 -3556.93 0.
-105.574 -278.348 0.
0.993162 2.67594 0.
-1696.31 -4698.1 0.
0.777368 2.15315 0.
-0.00415214 -0.801237 0.
-1460.18 -3949.23 0.
-60.0055 -160.521 0.
-0.000311143 -0.693727 0.
-1083.9 -2876.33 0.
-271.246 -701.776 0.
-752.263 -1912.33 0.
-390.009 -996.358 0.
-81.4494 -159.956 0.
-600.243 -1603.66 0.
-361.142 -978.008 0.
-131.155 -347.075 0.
-423.118 -1148.62 0.
-300.15 -812.216 0.
-180.408 -472.586 0.
-389.432 -885.74 0.
-356.766 -788.835 0.
-231.446 -517.896 0.
-297.748 -809.866 0.
-355.843 -972.964 0.
-168.012 -371.495 0.
-332.437 -833.46 0.
-496.887 -1295.4 0.
-66.3274 -183.712 0.
-353.079 -973.497 0.
-657.942 -1781.48 0.
-75.7594 -184.941 0.
-388.417 -1020.62 0.
-841.119 -2169.37 0.
-187.914 -451.275 0.
-1195.07 -3149.33 0.
0.000693951 1.0257 0.
-0.0929795 -0.244789 0.
-1532.83 -4098 0.
-3.63201 -9.95861 0.
-17.4984 -47.1141 0.
-1304.49 -3612.72 0.
-2.40018 -6.52881 0.
-1680.99 -4271.06 0.
-180.468 -465.082 0.
-73.6217 -192.693 0.
-1044.84 -2792.89 0.
1.19069 3.21386 0.
1.28284 3.47128 0.
-897.017 -2458.53 0.
3.79697 10.5071 0.
-225.716 -625.075 0.
-206.863 -498.633 0.
0.865413 2.07644 0.
6.92797 16.9441 0.
-1.30688 -29.425 0.
-657.571 -1663.08 0.
-254.987 -613.805 0.
-30.0037 -71.6338 0.
-219.179 -518.227 0.
-103.039 -238.282 0.
-1.90018 -4.31235 0.
16.168 35.246 0.
16.5669 35.74 0.
8.09722 17.2878 0.
5.45931 10.9259 0.
-49.358 -102.725 0.
-234.838 -506.687 0.
-4.88564 -30.9794 0.
1.16871 2.24212 0.
-3.10482 -6.65603 0.
-2.49157 -15.5707 0.
-116.39 -282.479 0.
-3.11712 -15.8089 0.
-3.47299 -6.93522 0.
7.44175 13.5929 0.
-6.81513 -13.0945 0.
14.5884 29.4716 0.
-2.80523 -5.64434 0.
-256.329 -531.195 0.
-13.9157 -31.0214 0.
-245.591 -552.612 0.
-498.405 -1131.07 0.
-156.778 -359.921 0.
-108.34 -250.533 0.
-37.4477 -91.6335 0.
-0.493215 -1.16265 0.
-1.31421 -3.13988 0.
-397.537 -988.054 0.
7.62383 18.8096 0.
-221.565 -508.146 0.
-60.376 -136.68 0.
-42.9296 -96.182 0.
-355.747 -962.011 0.
0.985925 2.67466 0.
-318.306 -881.248 0.
2.79146 7.72094 0.
1.73725 4.78967 0.
-1.89067 -5.2188 0.
-0.0629402 -5.12466 0.
-0.123826 -3.17623 0.
1.11973 3.03645 0.
-0.0120834 -5.1278 0.
-296.202 -816.031 0.
-0.0054492 -2.75364 0.
1.36539 3.67335 0.
-244.762 -658.777 0.
-8.66085e-05 -0.876646 0.
0.0410108 0.112243 0.
-431.626 -1153.78 0.
0.0449407 0.118953 0.
-348.138 -856.697 0.
-4.18456 -5.61276 0.
-17.2322 -28.239 0.
-345.579 -940.627 0.
-112.47 -308.571 0.
-1.2543 -3.29379 0.
-305.489 -791.367 0.
-189.874 -473.526 0.
-112.317 -258.284 0.
-321.894 -696.729 0.
-288.338 -595.536 0.
-200.161 -339.65 0.
-231.673 -627.578 0.
-286.554 -777.545 0.
-89.4004 -128.833 0.
-173.596 -381.532 0.
-336.981 -844.737 0.
-4.17231 -7.47736 0.
-46.7507 -125.134 0.
-341.569 -936.451 0.
-9.93716 -26.3889 0.
-23.6626 -47.6392 0.
-324.682 -838.636 0.
0.103161 0.0383038 0.
-373.553 -968.293 0.
-0.0392236 -0.74389 0.
0.685768 1.89268 0.
-141.856 -366.684 0.
1.05502 2.92044 0.
-6.05558 -16.7153 0.
-42.5687 -116.093 0.
1.84444 5.08983 0.
-23.5707 -63.6484 0.
-0.509655 -10.7601 0.
-9.98677 -25.4218 0.
-63.6819 -164.983 0.
-0.313085 -0.851141 0.
-2.5715 -7.0069 0.
-325.481 -889.209 0.
-0.0955805 -20.2738 0.
-304.911 -838.179 0.
-61.0322 -147.472 0.
-107.578 -260.288 0.
-402.483 -975.491 0.
6.71563 16.0391 0.
-1.9907 -28.4949 0.
11.7664 26.6472 0.
-78.2235 -187.293 0.
-336.377 -797.416 0.
-260.986 -592.448 0.
-281.142 -625.924 0.
-577.043 -1256.39 0.
-114.563 -246.482 0.
-2.90752 -6.1887 0.
-14.4092 -29.0814 0.
-5.67798 -29.9058 0.
8.94228 17.9675 0.
-5.84914 -29.4217 0.
-7.42713 -31.8287 0.
6.99407 14.503 0.
-1.03576 -2.08963 0.
3.29 8.05843 0.
2.82966 5.4785 0.
-46.6102 -94.018 0.
17.2668 31.5379 0.
3.64885 7.02869 0.
-493.73 -999.17 0.
-8.81144 -17.7864 0.
-326.041 -678.01 0.
-183.202 -406.999 0.
17.454 36.8414 0.
-4.19144 -33.2905 0.
-7.23582 -15.6135 0.
-3.1094 -6.73327 0.
-278.224 -648.418 0.
-5.05975 -11.9388 0.
-111.135 -266.073 0.
-752.581 -1849.73 0.
-1.37306 -3.33239 0.
-629.271 -1451.01 0.
-255.848 -582.91 0.
-158.741 -357.691 0.
-190.209 -502.503 0.
0.747601 1.97722 0.
0.162612 0.450287 0.
2.87362 7.94316 0.
1.85624 5.11281 0.
-1002.34 -2689.94 0.
-0.511578 -1.35292 0.
-0.296444 -11.499 0.
-1261.38 -3446.47 0.
2.36071 6.50707 0.
-1046.04 -2897.34 0.
1.10494 3.05922 0.
-0.000623905 -0.369362 0.
-1358.84 -3696.91 0.
-0.00637893 -1.20372 0.
-0.00648523 -0.625424 0.
-1116.31 -2992.62 0.
-91.1954 -190.216 0.
-823.873 -2024.85 0.
-363.321 -869.825 0.
-55.348 -83.4861 0.
-678.239 -1806.22 0.
-327.669 -892.735 0.
-62.4794 -172.959 0.
-482.154 -1230.66 0.
-303.691 -760.492 0.
-130.115 -285.434 0.
-386.412 -910.124 0.
-325.901 -736.824 0.
-166.65 -405.737 0.
-273.534 -754.5 0.
-371.116 -1018.62 0.
-52.9466 -67.7541 0.
-301.805 -751.048 0.
-556.635 -1433.63 0.
-7.79206 -18.7181 0.
-333.767 -894.64 0.
-775.267 -2049.26 0.
-57.6988 -106.371 0.
-337.044 -795.768 0.
-885.513 -2169.58 0.
-0.197913 -0.39059 0.
-1156.4 -3100.26 0.
-0.00204558 -1.40808 0.
0.0105443 1.91791 0.
-1300.1 -3536.22 0.
0.000551193 0.997905 0.
-77.8322 -210.7 0.
-1222.27 -3292.17 0.
3.43235 9.49776 0.
-972.486 -2683.71 0.
-16.0614 -37.1131 0.
-77.7361 -184.271 0.
-417.589 -1072.51 0.
-2.81998 -7.71164 0.
-0.695401 -1.90556 0.
-72.173 -198.075 0.
-0.802542 -2.15398 0.
-423.507 -1144.09 0.
-63.0936 -152.793 0.
-229.773 -557.158 0.
-593.711 -1440.97 0.
4.38377 10.2742 0.
-599.088 -1401.1 0.
-107.619 -242.421 0.
13.6656 30.4948 0.
-3.25374 -29.8017 0.
7.99405 17.0423 0.
-6.63721 -14.0983 0.
-3.62131 -26.6557 0.
-3.4643 -7.42852 0.
15.3299 32.5245 0.
-415.822 -845.602 0.
-8.60436 -16.8272 0.
-280.216 -562.292 0.
5.14352 9.80836 0.
1.64278 2.97723 0.
-0.82695 -1.73019 0.
-2.68103 -16.9065 0.
-3.71258 -9.2422 0.
-6.87872 -13.4421 0.
-149 -303.591 0.
-1.76376 -3.22018 0.
11.298 21.8175 0.
7.88003 14.5225 0.
-4.34422 -8.05275 0.
-4.47906 -8.60499 0.
16.3569 33.6314 0.
0.674501 1.41037 0.
-72.6536 -154.545 0.
-69.7148 -149.124 0.
-453.719 -976.541 0.
-474.463 -1107.41 0.
-181.385 -428.892 0.
-110.104 -263.913 0.
-122.513 -294.198 0.
7.66174 18.2709 0.
10.9701 24.6678 0.
1.93258 4.36663 0.
1.38345 3.14149 0.
-514.947 -1337.49 0.
-3.42647 -8.87011 0.
-1025.98 -2819.55 0.
-150.938 -411.772 0.
-20.1692 -54.2981 0.
-276.822 -724.149 0.
1.23513 3.18123 0.
0.506799 1.281 0.
-369.931 -1023.68 0.
-0.00559081 -2.84439 0.
-207.657 -575.073 0.
-0.000352956 -0.301019 0.
0.0142545 1.86889 0.
-117.718 -318.021 0.
0.00106518 0.669491 0.
0.0107442 1.36688 0.
-348.051 -917.718 0.
-11.1466 -21.4233 0.
-298.849 -663.637 0.
0.448068 0.617251 0.
-0.336688 -0.514913 0.
-326.042 -887.953 0.
-37.6045 -103.526 0.
-1.04659 -2.05093 0.
-295.315 -701.307 0.
-132.857 -264.77 0.
-25.2931 -13.1671 0.
-223.867 -503.935 0.
-176.376 -362.468 0.
-26.3019 -42.3865 0.
-139.419 -334.219 0.
-205.844 -526.352 0.
0.102274 0.0191753 0.
-77.4218 -160.693 0.
-294.111 -756.103 0.
-24.3216 -31.7767 0.
-21.1395 -31.4262 0.
-341.825 -867.114 0.
-9.67226 -19.1247 0.
-2.72978 -5.03073 0.
-262.294 -555.25 0.
-0.0241562 -0.565429 0.
-294.057 -777.692 0.
0.00795957 3.25704 0.
0.00131932 0.643896 0.
-30.6851 -81.4121 0.
-0.00236052 -1.90547 0.
-0.00184972 -4.33806 0.
-214.607 -587.045 0.
-0.0305809 -2.37851 0.
-313.288 -852.235 0.
2.15174 5.08796 0.
-1.21694 -2.94102 0.
-707.4 -1787.44 0.
-261.831 -707.101 0.
-153.244 -413.076 0.
-740.47 -1985.86 0.
-0.823283 -21.722 0.
-344.344 -889.842 0.
-2.03934 -24.9076 0.
-0.909562 -2.11335 0.
-44.9799 -109.434 0.
-83.5311 -192.114 0.
-370.146 -850.602 0.
-326.151 -730.965 0.
-217.176 -481.949 0.
-352.156 -774.11 0.
-403.945 -865.365 0.
1.74024 3.71041 0.
16.1689 33.8383 0.
8.72895 17.6076 0.
6.13911 11.945 0.
5.13624 9.70626 0.
-4.99206 -22.3857 0.
12.2752 24.5838 0.
6.78879 12.8838 0.
0.17931 0.322448 0.
-13.8281 -29.2028 0.
-2.03724 -13.3094 0.
6.58364 12.6527 0.
5.77656 11.2676 0.
4.467 8.84294 0.
11.0614 19.228 0.
-5.25083 -21.2192 0.
-67.6035 -124.618 0.
-5.54145 -10.247 0.
-555.798 -1064.08 0.
7.39994 15.0612 0.
-33.1755 -68.6914 0.
-412.901 -870.841 0.
-89.6672 -190.145 0.
-16.2059 -34.4719 0.
-93.9497 -211.895 0.
-10.2382 -23.1634 0.
-8.85904 -20.1143 0.
-52.1576 -117.206 0.
-13.1451 -29.7606 0.
-471.55 -1046.31 0.
1.9969 4.4571 0.
-6.58136 -14.7584 0.
-657.137 -1678.14 0.
-0.726212 -19.4011 0.
-131.695 -362.965 0.
2.74241 7.4944 0.
2.43607 6.57218 0.
-66.3807 -169.201 0.
1.17573 2.93987 0.
1.79262 4.37684 0.
1.97141 5.41925 0.
-0.0291036 -2.17751 0.
1.58011 4.36671 0.
1.7692 4.8332 0.
-0.0849339 -5.11007 0.
0.0150226 1.1231 0.
-0.000468251 -2.79041 0.
1.4068 3.81504 0.
-14.2844 -24.9164 0.
-13.3606 -24.0464 0.
-6.30625 -10.2919 0.
-0.428335 -0.64815 0.
-0.175524 -0.335093 0.
-23.499 -55.1443 0.
-7.81332 -16.6696 0.
-0.235082 -0.569611 0.
-157.072 -264.218 0.
-27.0043 -16.6084 0.
-30.8029 -14.9739 0.
-146.036 -322.877 0.
-110.121 -215.559 0.
-56.3435 -58.0227 0.
-79.1448 -105.458 0.
-111.256 -195.783 0.
0.0307051 0.0119054 0.
-0.568406 -0.276447 0.
-112.478 -270.16 0.
-44.5993 -40.8342 0.
-40.8132 -40.9585 0.
-32.1187 -46.9892 0.
-11.3176 -19.3815 0.
-3.21156 -5.11559 0.
-0.320877 -0.45233 0.
0.540384 1.44475 0.
0.0178229 0.241212 0.
-0.0105082 -3.33198 0.
0.00203421 3.53116 0.
0.000840025 0.0838897 0.
-0.0153734 -2.23076 0.
-0.00327435 -4.27651 0.
-0.00041358 -1.23324 0.
3.55151 9.00657 0.
-6.38319 -16.7293 0.
-2.01109 -4.85098 0.
2.30605 5.67833 0.
-289.885 -732.318 0.
-145.609 -391.84 0.
-87.725 -235.573 0.
-125.707 -336.372 0.
7.32662 18.0573 0.
-585.379 -1483.81 0.
-2.01489 -22.7707 0.
-4.39331 -10.0838 0.
-113.084 -259.102 0.
10.2813 22.4946 0.
-27.7973 -61.0226 0.
10.0875 21.851 0.
2.41277 5.12574 0.
-47.7921 -104.445 0.
-128.226 -275.447 0.
-123.125 -263.549 0.
-604.01 -1252.6 0.
2.03974 4.06853 0.
12.2798 23.5893 0.
-357.779 -675.355 0.
16.9496 31.283 0.
1.41255 2.70043 0.
0.152173 0.278439 0.
9.53528 16.6877 0.
-2.12925 -14.4409 0.
3.56992 7.08622 0.
-5.59344 -10.7389 0.
1.43217 2.79202 0.
-126.917 -250.483 0.
1.42123 2.46817 0.
-60.2426 -107.821 0.
-219.774 -405.482 0.
7.66421 14.142 0.
-207.628 -397.45 0.
5.28499 10.1308 0.
12.5053 24.3751 0.
-2.9081 -5.766 0.
0.680541 1.36292 0.
-76.0702 -154.398 0.
-137.807 -310.494 0.
-230.92 -522.227 0.
-178.85 -405.7 0.
-892.488 -1977.18 0.
-137.919 -307.149 0.
-462.783 -1012.19 0.
-54.478 -119.979 0.
9.70037 21.4784 0.
3.5787 9.06677 0.
-0.852798 -18.4729 0.
-73.163 -193.36 0.
-2.66396 -7.12885 0.
5.79561 15.677 0.
-806.493 -2079.16 0.
0.285719 0.722215 0.
-0.303295 -6.38433 0.
-1191.34 -3297.95 0.
-0.000322674 -7.39381 0.
-1019.13 -2744.68 0.
-53.6697 -143.482 0.
-1.19081 -3.23335 0.
-1297.71 -3572.85 0.
1.64706 4.50057 0.
-0.00619804 -4.545 0.
-1213.07 -3221 0.
-0.17709 -0.431988 0.
-921.501 -2173.75 0.
-337.952 -674.122 0.
-24.3525 -26.5615 0.
-821.121 -2197.53 0.
-280.847 -766.487 0.
0.00426091 0.10057 0.
-633.65 -1603.49 0.
-341.787 -821.128 0.
-89.5313 -107.336 0.
-436.589 -1111.34 0.
-381.111 -957.078 0.
-124.625 -320.035 0.
-340.187 -834.893 0.
-509.182 -1296.25 0.
-34.4348 -23.9484 0.
-322.523 -819.644 0.
-701.2 -1836.49 0.
-0.0114365 -0.0153825 0.
-254.925 -669.428 0.
-912.359 -2414.7 0.
-59.263 -104.925 0.
-312.317 -671.551 0.
-939.284 -2262.72 0.
0.241912 0.64709 0.
-1244.98 -3363.6 0.
1.98514 5.44392 0.
1.92139 5.16787 0.
-1308.61 -3552.79 0.
-10.6066 -28.9865 0.
-65.3704 -176.51 0.
-980.157 -2631.38 0.
0.44357 1.19125 0.
-1102.69 -3013.42 0.
1.62676 4.13488 0.
2.29691 5.8033 0.
-255.936 -639.862 0.
-65.3085 -173.107 0.
-187.228 -502.206 0.
-177.765 -472.749 0.
-1.0882 -15.9923 0.
2.35288 5.78536 0.
-58.663 -132.795 0.
-87.5488 -198.177 0.
-557.701 -1254.54 0.
-281.13 -609.078 0.
-737.61 -1603.19 0.
-135.569 -291.669 0.
-43.7641 -92.3013 0.
-45.8933 -94.9183 0.
5.7836 11.5815 0.
5.35581 10.5319 0.
-30.1803 -56.7086 0.
2.06519 3.80296 0.
-33.6512 -63.761 0.
-217.595 -409.958 0.
11.9319 21.971 0.
-283.616 -546.268 0.
-5.08805 -22.3357 0.
-5.3102 -20.1872 0.
-92.9745 -195.536 0.
-1.32561 -2.66339 0.
-5.1519 -9.88506 0.
-8.18041 -15.9384 0.
-0.86442 -1.60747 0.
-4.93165 -8.20214 0.
3.05939 5.25943 0.
6.60898 11.746 0.
-6.95018 -27.183 0.
-127.777 -233.497 0.
3.52411 6.71582 0.
-163.763 -317.709 0.
-159.949 -315.735 0.
-203.537 -403.291 0.
-584.4 -1178.04 0.
-189.658 -426.994 0.
-124.022 -279.99 0.
2.96472 6.70946 0.
-1.70742 -3.6397 0.
3.45803 7.35443 0.
3.6975 7.77665 0.
4.66334 9.94359 0.
-39.2616 -84.7533 0.
-286.332 -681.166 0.
9.58958 22.0717 0.
-635.933 -1676.72 0.
0.796086 2.12232 0.
3.0769 8.29898 0.
-554.579 -1385.67 0.
-2.68427 -6.5683 0.
4.38301 10.5146 0.
-7.13472 -19.7572 0.
-0.00952852 -10.2418 0.
-25.4397 -67.0023 0.
2.44205 6.55846 0.
1.3613 3.70755 0.
-0.0132998 -4.6973 0.
-0.00110367 -1.85407 0.
2.26888 6.01729 0.
-74.3734 -197.94 0.
-0.0353567 -0.86368 0.
-204.832 -301.705 0.
-23.1072 -22.4738 0.
-35.15 -31.2912 0.
-249.687 -686.578 0.
0.189092 0.107295 0.
0.0192653 0.0196877 0.
-300.879 -700.891 0.
-79.4199 -94.9587 0.
-30.6163 -14.8103 0.
-217.623 -493.345 0.
-160.238 -340.899 0.
-40.7699 -41.6107 0.
-89.0192 -140.077 0.
-210.837 -475.693 0.
-21.0094 -18.5447 0.
-18.2631 -10.7806 0.
-273.202 -612.185 0.
0.0326365 0.00734463 0.
0.151247 0.00026706 0.
-209.061 -552.665 0.
-0.0539466 -0.851878 0.
-8.831 -21.0663 0.
-165.046 -365.618 0.
1.11891 3.0988 0.
0.55701 1.5132 0.
-0.000723107 -2.55617 0.
-0.0231084 -5.55922 0.
0.0374426 0.101062 0.
1.69139 4.64696 0.
-3.96635 -10.7906 0.
-83.9653 -225.359 0.
-0.870105 -2.30081 0.
-87.626 -234.073 0.
-0.364369 -0.915949 0.
-0.869326 -2.17217 0.
-495.754 -1217 0.
-44.2809 -114.359 0.
-225.611 -591.899 0.
-459.888 -1118.58 0.
6.16865 14.9008 0.
-249.219 -603.297 0.
-30.4191 -67.41 0.
-33.4485 -73.7326 0.
-47.4645 -104.067 0.
-2.04199 -4.23539 0.
-32.0349 -69.3907 0.
-301.009 -642.081 0.
-349.16 -730.57 0.
-225.571 -462.987 0.
-605.258 -1208.8 0.
-52.6694 -102.584 0.
-80.1087 -150.67 0.
-98.7442 -181.964 0.
-6.51977 -11.766 0.
-2.00978 -3.59456 0.
-2.16526 -3.76845 0.
-9.01556 -16.3086 0.
1.81522 3.189 0.
-6.21476 -21.7608 0.
-1.92031 -13.22 0.
-1.83817 -11.6277 0.
3.18896 5.77935 0.
8.65283 15.9318 0.
-35.9136 -67.1844 0.
11.0059 18.2844 0.
-308.135 -531.609 0.
-56.8268 -101.18 0.
-24.1859 -42.7657 0.
-518.245 -944.003 0.
13.0491 24.7128 0.
-16.3276 -31.4655 0.
-146.758 -288.076 0.
13.6265 25.4363 0.
11.8559 22.5375 0.
10.4117 22.36 0.
3.11914 6.78781 0.
-2.59964 -23.6281 0.
-126.036 -265.92 0.
7.56336 15.9543 0.
-425.577 -897.415 0.
-119.281 -256.475 0.
-52.8554 -115.255 0.
-623.027 -1456.55 0.
0.0106072 0.0239693 0.
-384.215 -1007.55 0.
-66.493 -176.523 0.
-28.0402 -75.3852 0.
-38.5853 -93.0326 0.
1.44821 3.42362 0.
0.852141 1.96583 0.
-682.684 -1864.21 0.
-0.0876285 -10.2124 0.
-697.907 -1912.47 0.
-0.0885397 -6.55935 0.
-0.62138 -1.66246 0.
-996.393 -2757.18 0.
-0.0265311 -7.49047 0.
2.3833 6.56829 0.
-1119.38 -2947.25 0.
-0.00628079 -0.466384 0.
-743.597 -1856.4 0.
-196.517 -365.915 0.
-54.9495 -66.6407 0.
-833.967 -2282.93 0.
-171.278 -470.204 0.
-0.102027 -0.109985 0.
-693.615 -1786.02 0.
-306.387 -749.169 0.
-19.9821 -27.3184 0.
-501.371 -1260.52 0.
-442.023 -1105.24 0.
-97.7424 -162.666 0.
-342.292 -840.468 0.
-602.091 -1547.19 0.
-17.5919 -11.1264 0.
-320.316 -760.599 0.
-801.13 -2035.51 0.
-10.2161 -27.6477 0.
-155.168 -409.891 0.
-914.316 -2474.13 0.
-114.295 -272.989 0.
-197.179 -433.265 0.
-794.895 -1759.46 0.
-0.00203035 -4.482 0.
-1055.7 -2914.32 0.
-0.00440873 -6.27385 0.
-0.41231 -1.13906 0.
-935.046 -2589.62 0.
-3.14039 -8.69785 0.
-10.0561 -27.8532 0.
-588.546 -1629.16 0.
0.415389 1.02905 0.
-72.3653 -190.255 0.
-1.20972 -3.00474 0.
3.67843 9.0833 0.
-33.5701 -82.3388 0.
-257.184 -641.977 0.
-429.633 -1096.22 0.
4.70236 11.2785 0.
5.02607 12.0223 0.
-449.124 -1079.92 0.
-96.5727 -214.951 0.
-182.002 -402.935 0.
-384.077 -846.134 0.
-6.85122 -14.0664 0.
-6.00341 -12.1907 0.
4.7381 9.4217 0.
1.47111 2.91873 0.
6.74345 13.3521 0.
-8.23872 -15.7055 0.
-245.695 -474.458 0.
-352.72 -666.062 0.
-1.31817 -2.42815 0.
-9.66617 -17.4422 0.
-410.051 -730.185 0.
5.50049 9.52086 0.
-125.419 -228.052 0.
-85.1984 -150.298 0.
-3.00231 -5.13806 0.
-1.80323 -12.8069 0.
4.64157 9.50394 0.
2.77697 5.06112 0.
-7.9659 -14.7524 0.
-170.34 -320.86 0.
6.24699 10.366 0.
-87.7607 -151.013 0.
-1.97626 -3.37215 0.
7.29037 12.2223 0.
-4.80847 -8.13673 0.
4.65727 8.10962 0.
0.212051 0.380247 0.
7.19493 13.2971 0.
7.58875 14.1835 0.
-442.59 -842.961 0.
-8.44925 -17.7678 0.
-102.038 -217.14 0.
-242.469 -521.595 0.
-583.804 -1211.71 0.
-145.163 -302.694 0.
-104.936 -225.071 0.
3.34215 7.27403 0.
-3.11636 -21.964 0.
-1.99943 -20.1895 0.
-2.09075 -22.8464 0.
-215.002 -496.701 0.
-122.186 -328.767 0.
3.15275 8.39317 0.
-530.797 -1254.24 0.
-0.0330638 -0.0774909 0.
-1.1848 -2.76821 0.
-336.762 -898.683 0.
-0.417368 -1.09056 0.
-304.265 -825.398 0.
-0.0833505 -5.24311 0.
-0.1142 -6.69354 0.
-80.6639 -222.851 0.
-0.00196012 -5.69881 0.
3.0303 8.39336 0.
2.13382 5.65687 0.
2.15972 5.98103 0.
-181.691 -326.874 0.
-17.9804 -27.077 0.
-50.0092 -80.4349 0.
-183.942 -474.134 0.
-3.64884 -5.18777 0.
-1.91314 -1.5469 0.
-168.029 -407.554 0.
-0.0366702 -0.0954605 0.
-6.91701 -16.9443 0.
-134.143 -214.139 0.
-85.5766 -74.1549 0.
-28.4983 -21.5791 0.
-22.4518 -10.0012 0.
-121.93 -233.912 0.
0.648645 0.438168 0.
-0.158548 -0.165358 0.
-119.031 -297.145 0.
-1.32295 -3.33676 0.
-7.52291 -20.8077 0.
-237.484 -646.832 0.
0.507349 1.37521 0.
-4.4915 -11.7852 0.
-83.0411 -202.844 0.
-7.32151e-05 -0.0575178 0.
1.01603 2.80537 0.
-0.00161155 -7.88134 0.
-0.000165666 -7.66197 0.
-221.44 -613.347 0.
-1.47898 -4.09628 0.
-0.730564 -2.02352 0.
-340.943 -944.04 0.
1.94748 4.6761 0.
-753.705 -1867.6 0.
-140.777 -340.067 0.
-65.5425 -161.964 0.
-215.31 -539.899 0.
-29.6927 -75.6089 0.
-364.013 -938.141 0.
-1.30703 -19.2091 0.
9.29544 21.6666 0.
6.80078 15.4782 0.
-80.6226 -180.285 0.
-62.3068 -138.636 0.
-257.272 -568.893 0.
-345.538 -701.872 0.
-504.58 -1011.35 0.
-489.621 -958.543 0.
-17.7529 -34.7948 0.
-8.92669 -17.4637 0.
-215.614 -406.608 0.
4.96825 9.12108 0.
5.00195 8.95898 0.
-6.47395 -24.5651 0.
-0.85356 -1.46602 0.
3.53012 5.968 0.
10.1729 17.5028 0.
-104.346 -190.63 0.
-33.5717 -59.4546 0.
-5.13817 -8.82093 0.
-56.2861 -118.788 0.
2.03836 4.20382 0.
6.75154 11.5239 0.
9.21737 16.1522 0.
8.9625 16.117 0.
11.716 18.6753 0.
-24.6328 -40.6643 0.
7.12608 11.6973 0.
-9.42037 -15.6035 0.
-254.801 -425.194 0.
-5.25335 -9.03686 0.
-243.741 -433.004 0.
-370.28 -679.879 0.
-8.09293 -15.1471 0.
-282.282 -538.187 0.
-307.274 -629.591 0.
-56.1357 -116.782 0.
1.5513 3.07305 0.
-3.91095 -7.67268 0.
3.92085 7.75223 0.
5.67222 11.6329 0.
4.813 9.93774 0.
-99.1193 -205.915 0.
-267.008 -595.921 0.
4.01299 9.07903 0.
-346.167 -792.175 0.
-307.3 -810.946 0.
4.29041 11.1713 0.
-396.543 -942.22 0.
-1.07296 -14.6392 0.
-1.05166 -14.0416 0.
2.00679 5.14163 0.
2.26272 5.62933 0.
1.9558 5.20115 0.
-0.859055 -2.27793 0.
1.85661 4.91 0.
1.16706 3.23251 0.
2.00753 5.5553 0.
-0.00222986 -1.34461 0.
2.1787 5.99617 0.
-0.0375257 -7.26532 0.
-4.44883 -6.81919 0.
-64.3558 -105.729 0.
-134.945 -199.041 0.
-53.0661 -63.6415 0.
-14.4567 -13.4934 0.
-7.38231 -3.86084 0.
0.0176334 0.164246 0.
-0.0128343 -0.161073 0.
-1.66791 -4.24922 0.
-31.6973 -28.8096 0.
-34.3643 -27.3322 0.
-41.3758 -27.0551 0.
-35.86 -14.7361 0.
-23.7594 -9.06526 0.
0.732521 0.576255 0.
-0.106251 -0.118072 0.
-2.00749 -3.03905 0.
0.231536 0.571366 0.
0.283136 0.769068 0.
-5.42149 -15.0036 0.
0.532905 1.47128 0.
0.315443 0.855654 0.
-0.035847 -1.47393 0.
-0.0413618 -6.89645 0.
1.99944 5.53666 0.
-0.0203778 -7.06359 0.
-0.275876 -0.761037 0.
2.80396 7.74945 0.
1.18586 3.28443 0.
1.93799 5.36785 0.
-93.4543 -258.828 0.
3.94022 9.17422 0.
-233.377 -562.445 0.
-111.238 -266.891 0.
-35.2281 -86.4188 0.
-359.501 -892.481 0.
4.6536 11.7865 0.
-455.501 -1170.04 0.
-42.5296 -100.126 0.
4.08264 9.35892 0.
-47.782 -106.933 0.
-5.92004 -12.4574 0.
9.32703 19.6965 0.
-8.20768 -17.3857 0.
-6.49885 -12.6281 0.
2.23027 4.26616 0.
-21.3212 -41.3555 0.
-124.625 -241.139 0.
-26.0113 -50.2703 0.
-358.962 -668.529 0.
-105.112 -190.754 0.
-335.153 -597.313 0.
-113.752 -198.329 0.
9.3262 15.91 0.
-197.575 -331.399 0.
9.81508 16.1278 0.
2.31611 4.07578 0.
0.301855 0.513378 0.
6.05102 9.94562 0.
6.69197 13.1725 0.
-2.99774 -5.77531 0.
-3.85386 -13.8177 0.
-1.83937 -3.24956 0.
-108.259 -196.304 0.
-3.23763 -5.09665 0.
-337.984 -550.921 0.
0.776457 1.25898 0.
12.2538 20.0514 0.
-180.999 -298.666 0.
7.04886 11.9672 0.
-38.374 -67.2347 0.
5.54364 9.32774 0.
-2.64932 -4.66787 0.
-1.62967 -2.94947 0.
7.32083 14.0717 0.
2.25243 4.35661 0.
-1.37584 -2.67888 0.
-371.854 -728.511 0.
-269.29 -531.661 0.
-274.634 -558.605 0.
-299.834 -613.532 0.
-395.259 -813.087 0.
-10.4768 -23.1443 0.
0.08461 0.189624 0.
1.14581 2.60577 0.
-341.042 -880.628 0.
-19.7859 -50.264 0.
-0.743803 -10.8642 0.
0.159973 0.389217 0.
-62.6477 -154.987 0.
-456.929 -1166.22 0.
-2.02801 -4.93084 0.
-488.621 -1335.86 0.
-67.9425 -185.206 0.
-48.0577 -131.291 0.
-821.029 -2271.58 0.
-3.86363 -10.6033 0.
-28.8418 -79.2655 0.
-756.834 -2083.32 0.
1.50187 4.07141 0.
-272.226 -733.738 0.
-736.891 -1591.05 0.
-99.9312 -234.464 0.
-785.794 -2113.57 0.
-110.265 -268.737 0.
-27.2436 -71.2619 0.
-753.287 -2023.26 0.
-232.205 -636.576 0.
0.451791 0.000363168 0.
-502.125 -1293.82 0.
-441.245 -1143.73 0.
-16.4578 -19.6115 0.
-274.937 -721.952 0.
-630.703 -1671.22 0.
-1.76109 -4.68093 0.
-191.119 -501.993 0.
-800.72 -2132.54 0.
0.574144 1.59024 0.
-135.199 -357.48 0.
-804.354 -2131.18 0.
-0.0581055 -2.21578 0.
-1098.51 -2681.51 0.
2.54447 7.04609 0.
-0.00271735 -3.54959 0.
-889.973 -2463.18 0.
-0.10942 -0.302823 0.
1.14312 3.16529 0.
-663.227 -1833.58 0.
-17.8725 -49.3641 0.
-116.77 -322.185 0.
-525.535 -1449.33 0.
4.10134 9.88352 0.
-210.167 -512.201 0.
-165.604 -406.126 0.
-161.095 -398.893 0.
-30.3259 -75.334 0.
2.30117 5.79528 0.
-267.054 -683.181 0.
-102.794 -237.935 0.
-179.621 -404.998 0.
-388.683 -854.901 0.
-337.331 -697.653 0.
-253.184 -525.81 0.
-231.307 -482.156 0.
-325.689 -634.68 0.
-43.1237 -82.7005 0.
4.53957 8.33144 0.
-5.94644 -23.5359 0.
-5.72713 -9.8688 0.
3.84337 6.42784 0.
-1.2749 -2.11756 0.
-70.7553 -125.254 0.
-94.4685 -163.595 0.
15.8287 26.8157 0.
-199.741 -332.288 0.
9.06114 14.7621 0.
15.4123 24.5983 0.
-361.041 -613.359 0.
-4.03896 -6.63091 0.
-2.10135 -11.8623 0.
4.43533 8.57772 0.
3.63853 6.31021 0.
-3.57095 -14.238 0.
-31.0546 -56.857 0.
-36.6264 -56.8823 0.
4.19088 6.34801 0.
1.4016 2.08205 0.
15.6437 23.6126 0.
1.77347 2.72146 0.
-7.31417 -11.6069 0.
-171.538 -278.977 0.
3.0503 5.08501 0.
-0.774673 -1.36177 0.
-535.534 -965.82 0.
-29.5829 -55.8721 0.
-237.721 -451.205 0.
-488.16 -932.841 0.
-150.725 -295.988 0.
5.18295 10.2706 0.
-5.58202 -11.3176 0.
5.8797 11.5549 0.
-2.96718 -17.041 0.
8.39453 17.979 0.
8.71731 18.9908 0.
2.3133 5.12588 0.
-317.398 -801.352 0.
-0.646454 -1.59192 0.
-259.632 -633.185 0.
-5.20798 -12.9442 0.
-76.9528 -194.232 0.
-269.587 -665.039 0.
-0.783259 -10.0833 0.
-130.521 -354.46 0.
-39.2859 -107.038 0.
-51.3723 -140.244 0.
-48.2718 -131.959 0.
-2.20352 -6.02816 0.
-5.84004 -15.9994 0.
-43.9926 -120.966 0.
-9.5138 -25.9924 0.
-0.0528416 -5.39572 0.
-158.137 -410.683 0.
1.20849 3.28982 0.
-19.3856 -43.5575 0.
0.188366 0.487384 0.
-2.38615 -6.60757 0.
-3.83209 -10.1675 0.
0.100702 0.557527 0.
0.0184065 0.553318 0.
0.0895546 0.0550446 0.
-8.99497 -7.79468 0.
-4.69268 -10.1302 0.
-6.7935 -18.3597 0.
-10.4362 -27.917 0.
0.0823348 0.226894 0.
0.0364276 0.100112 0.
0.160988 0.409393 0.
-0.00579937 -0.447354 0.
-5.35482e-06 -0.700968 0.
-18.6145 -50.6971 0.
-0.0185651 -3.23686 0.
0.668018 1.7556 0.
-0.000859654 -1.08851 0.
-0.000155805 -2.50806 0.
-0.547426 -1.51595 0.
-0.0165175 -8.18139 0.
-1.20163 -3.31767 0.
-236.759 -653.405 0.
-9.6761 -26.7746 0.
-17.4412 -48.2028 0.
-188.645 -428.831 0.
0.315612 0.740371 0.
-213.499 -508.334 0.
-94.8916 -232.257 0.
-36.323 -89.798 0.
-277.541 -690.132 0.
-3.74024 -9.17764 0.
-168.593 -406.053 0.
0.478652 0.999374 0.
-48.9369 -103.453 0.
-106.707 -228.399 0.
1.64748 3.33912 0.
-4.60168 -9.41926 0.
-103.371 -212.434 0.
-220.267 -430.394 0.
-165.692 -318.599 0.
-654.27 -1204.09 0.
-135.907 -240.844 0.
-1.62328 -2.78371 0.
-473.721 -787.392 0.
-5.97944 -9.87777 0.
-1.33532 -2.20208 0.
-7.04239 -20.6958 0.
2.05465 3.19652 0.
2.20669 3.35527 0.
0.0774895 0.116797 0.
16.4385 24.5682 0.
-15.0708 -25.6458 0.
4.5036 7.38723 0.
-4.46084 -8.86217 0.
-1.89692 -3.6847 0.
-1.34221 -2.33656 0.
-0.513556 -0.929047 0.
-61.0784 -114.712 0.
-29.2393 -43.9343 0.
-175.843 -264.366 0.
-9.13072 -13.3285 0.
15.0178 22.2746 0.
-453.923 -683.206 0.
-0.794366 -1.24675 0.
-143.286 -230.538 0.
-105.686 -174.414 0.
-74.6078 -130.802 0.
-88.9669 -160.464 0.
4.01824 6.94663 0.
7.64822 13.4185 0.
10.2368 18.225 0.
7.84335 14.4774 0.
-49.2667 -91.888 0.
-3.95659 -19.8936 0.
-27.8882 -53.9215 0.
-248.592 -486.517 0.
-309.788 -662.107 0.
-3.61449 -7.8461 0.
-272.359 -602.55 0.
-592.434 -1468.13 0.
-130.383 -314.03 0.
-201.987 -504.143 0.
-48.3042 -122.608 0.
-105.51 -271.528 0.
0.447185 1.06696 0.
-1.47262 -3.3377 0.
-27.3636 -74.3449 0.
-272.551 -737.489 0.
-199.071 -537.796 0.
-359.655 -974.295 0.
1.76275 4.75617 0.
-43.1856 -117.308 0.
-518.28 -1430.53 0.
-12.8685 -35.4599 0.
-0.018223 -4.74861 0.
-720.645 -1957.52 0.
1.33873 3.68074 0.
-765.608 -1912.35 0.
-132.82 -279.298 0.
-0.421378 -1.06703 0.
-640.706 -1722.82 0.
-140.779 -380.689 0.
-8.27127 -22.7038 0.
-448.401 -1197.22 0.
-388.969 -1077.2 0.
0.0801027 0.218423 0.
-232.495 -640.356 0.
-617.061 -1662.41 0.
0.645422 1.38073 0.
-143.736 -357.256 0.
-694.999 -1814.32 0.
0.217793 0.588666 0.
-99.269 -261.946 0.
-732.401 -1884.57 0.
0.0297088 0.0810704 0.
-763.693 -2070.91 0.
-0.397151 -1.09253 0.
-0.0179336 -7.73767 0.
-598.649 -1644.65 0.
-36.221 -98.066 0.
-15.529 -41.9893 0.
-331.167 -896.5 0.
-34.4225 -95.3358 0.
-71.661 -198.363 0.
6.6023 14.6648 0.
-3.7375 -8.53576 0.
-25.8926 -60.5588 0.
-32.7457 -79.9875 0.
-10.7848 -26.5788 0.
-138.888 -344.535 0.
-32.1569 -78.4213 0.
-560.879 -1342.5 0.
-263.474 -548.616 0.
-6.45377 -13.6065 0.
-210.025 -448.411 0.
2.04888 4.09742 0.
0.645949 1.26532 0.
-2.75379 -5.28728 0.
9.7623 17.8678 0.
-5.64725 -23.427 0.
-2.03811 -3.51166 0.
11.8342 19.913 0.
1.41227 2.40926 0.
-91.9393 -152.077 0.
12.4478 20.4501 0.
-308.238 -501.461 0.
-238.845 -377.084 0.
11.6646 17.913 0.
-287.298 -428.775 0.
-8.04849 -19.4595 0.
-8.02662 -11.808 0.
-61.2113 -97.8595 0.
-4.9336 -7.78011 0.
-31.6932 -63.1424 0.
1.97776 3.86156 0.
-3.32734 -12.8429 0.
-0.282191 -0.517756 0.
-80.1236 -152.828 0.
-61.2433 -91.4469 0.
-38.6345 -57.7973 0.
4.72755 6.77523 0.
6.82674 9.9393 0.
-25.6924 -38.0227 0.
15.003 22.2496 0.
15.1719 22.7765 0.
12.9251 19.6473 0.
-2.82434 -4.53253 0.
-77.2489 -126.926 0.
0.0592695 0.102584 0.
-89.542 -157.231 0.
-212.044 -377.902 0.
-182.037 -330.742 0.
-601.826 -1108.81 0.
-248.115 -468.05 0.
-81.9046 -155.793 0.
-126.881 -244.043 0.
-170.189 -360.991 0.
-151.43 -326.99 0.
5.95643 12.369 0.
-1.23667 -16.7251 0.
4.34546 10.4123 0.
-96.484 -249.681 0.
-35.8972 -92.1278 0.
-0.759935 -1.93424 0.
-318.718 -756.84 0.
-2.12686 -5.17402 0.
-302.641 -746.578 0.
-344.901 -944.544 0.
-0.554788 -1.53661 0.
-121.229 -332.628 0.
1.30805 3.60088 0.
-40.4208 -111.543 0.
-74.5048 -202.307 0.
-10.9103 -29.3804 0.
2.49896 6.64057 0.
1.83945 5.09343 0.
1.51712 4.20187 0.
-41.7584 -98.7104 0.
0.199288 0.510306 0.
-0.00999247 -1.39626 0.
-1.10044 -2.72272 0.
-1.56515 -4.11796 0.
-3.31877 -9.07658 0.
-5.33814 -14.1354 0.
0.104475 0.28698 0.
0.000253673 0.0102397 0.
-0.107618 -0.77885 0.
0.153851 0.579122 0.
0.00233849 1.34787 0.
-0.0149479 -0.855104 0.
-9.74 -25.1277 0.
-0.0118441 -2.12565 0.
-0.102298 -0.274209 0.
0.149909 0.392106 0.
0.882555 2.44362 0.
-0.00754612 -5.40658 0.
-0.0297541 -5.52538 0.
-0.0337151 -7.44021 0.
-64.5585 -177.181 0.
-6.12255 -16.6264 0.
0.606168 1.64369 0.
-168.375 -456.018 0.
-0.0235273 -7.27139 0.
-601.07 -1663.86 0.
-122.868 -278.732 0.
2.26353 5.22699 0.
-184.207 -432.239 0.
-3.1603 -7.7097 0.
4.42036 10.6285 0.
-3.0292 -7.17507 0.
0.40883 0.953767 0.
3.98186 9.24307 0.
7.25526 15.0803 0.
-64.1553 -134.955 0.
-151.87 -323.306 0.
-189.787 -374.289 0.
-207.062 -399.811 0.
-254.789 -482.023 0.
-662.401 -1197.16 0.
-26.3006 -46.8401 0.
-173.829 -300.222 0.
-37.7746 -63.6834 0.
-3.40247 -5.59838 0.
-2.74762 -4.28293 0.
13.0429 19.8612 0.
2.43553 3.60659 0.
-7.22294 -10.5934 0.
-2.50927 -3.7985 0.
-47.8439 -70.3676 0.
-8.33496 -19.3528 0.
4.6976 6.79988 0.
-115.27 -181.36 0.
-56.0576 -87.0305 0.
-15.0141 -30.2328 0.
0.0267288 0.0527637 0.
3.62837 6.14 0.
2.47737 4.26649 0.
-1.866 -3.27046 0.
-7.55227 -15.5491 0.
-4.2896 -5.9596 0.
13.9096 18.75 0.
-1.37154 -1.89294 0.
5.59078 7.90422 0.
8.3407 12.2714 0.
-362.312 -539.528 0.
-4.52765 -6.8287 0.
7.00569 10.96 0.
-438.235 -700.873 0.
-9.89504 -17.148 0.
-168.754 -296.759 0.
-154.416 -275.739 0.
-36.549 -65.3576 0.
10.5783 18.6739 0.
-5.35611 -9.726 0.
8.25178 15.1422 0.
-0.540695 -1.00281 0.
7.66966 15.6036 0.
-3.22441 -6.59 0.
-108.34 -222.473 0.
-182.896 -431.324 0.
-2.26898 -5.42523 0.
-426.246 -1090.25 0.
-79.594 -202.835 0.
-112.153 -282.921 0.
-152.721 -361.653 0.
-21.2179 -51.3791 0.
-56.2293 -138.647 0.
-44.365 -122.868 0.
0.883429 2.41197 0.
0.121335 0.336075 0.
2.02249 5.60145 0.
-45.5315 -126.058 0.
-73.5823 -193.974 0.
-8.29838 -21.5365 0.
2.56187 6.48694 0.
0.587763 1.62367 0.
-0.00432555 -2.28967 0.
0.590913 1.52043 0.
-0.0217183 -1.905 0.
-0.000572413 -2.86485 0.
0.495592 1.24149 0.
-0.073307 -0.193367 0.
0.326926 0.892364 0.
-0.0836343 -0.230939 0.
0.215384 0.540892 0.
-0.00170279 -0.164533 0.
0.0817376 0.568542 0.
-0.192376 -1.28462 0.
-0.0116429 -0.539231 0.
0.357539 0.989249 0.
0.458613 1.26237 0.
1.11254 3.06156 0.
0.880418 2.38891 0.
0.558955 1.48741 0.
-0.0090648 -4.04638 0.
1.08222 2.99553 0.
-0.047529 -5.48836 0.
1.58141 4.30356 0.
-3.61132 -9.85224 0.
-0.790749 -2.15237 0.
0.457324 1.24298 0.
-16.4477 -44.6274 0.
-0.14452 -0.392924 0.
-120.187 -330.856 0.
1.83275 4.14374 0.
-2.36101 -5.43078 0.
-353.641 -828.442 0.
-175.833 -425.427 0.
-1.65905 -3.95922 0.
-275.25 -645.115 0.
5.98486 13.9591 0.
-119.427 -276.678 0.
-1.17206 -2.34996 0.
-1.93018 -3.85773 0.
6.92231 13.7957 0.
5.609 10.4416 0.
11.4207 21.3144 0.
2.53396 4.74009 0.
-38.073 -67.7911 0.
-82.7578 -145.312 0.
-239.525 -414.633 0.
-145.567 -245.939 0.
13.5784 22.3749 0.
-511.386 -785.296 0.
13.3206 19.9595 0.
-5.5655 -8.20401 0.
-271.349 -396.17 0.
13.1499 19.0157 0.
13.3585 18.7133 0.
14.6195 20.0917 0.
11.1858 15.0903 0.
5.65332 8.16295 0.
11.7957 16.9265 0.
-1.10248 -2.07622 0.
2.41645 4.51238 0.
-3.4683 -5.75716 0.
6.14576 10.3812 0.
-7.54857 -10.2997 0.
-7.97571 -15.8117 0.
-236.751 -323.512 0.
15.3751 20.5695 0.
8.73986 11.9775 0.
-372.272 -523.13 0.
-180.389 -263.136 0.
-44.758 -66.1114 0.
-59.1896 -88.1292 0.
-0.48538 -0.70323 0.
14.3663 20.9063 0.
-5.12405 -14.8459 0.
5.26454 8.66797 0.
7.83303 13.3528 0.
6.74706 11.6467 0.
-383.844 -673.108 0.
4.37009 7.8836 0.
-124.475 -226.98 0.
-398.039 -734.583 0.
-67.2873 -135.293 0.
-226.133 -456.866 0.
-529.322 -1077.52 0.
-298.962 -702.096 0.
-42.5748 -101.576 0.
-64.3731 -164.357 0.
-15.0094 -38.0239 0.
0.212102 0.531371 0.
-99.9501 -231.699 0.
-45.1942 -102.903 0.
1.14227 2.55256 0.
-439.247 -1205.65 0.
-0.0552413 -13.3252 0.
-346.407 -920.844 0.
-59.0671 -156.433 0.
-0.128072 -8.02459 0.
-525.313 -1420.56 0.
1.49198 4.02556 0.
-0.784544 -2.0991 0.
-567.514 -1571.64 0.
1.77891 4.90869 0.
-573.437 -1456.74 0.
-136.634 -353.107 0.
1.25717 3.31046 0.
-523.749 -1365.26 0.
-192.543 -502.253 0.
-17.8627 -47.9545 0.
-358.738 -979.272 0.
-353.836 -980.064 0.
-10.1036 -27.7963 0.
-202.926 -561.06 0.
-467.4 -1273.31 0.
-1.06775 -2.94778 0.
-125.544 -340.811 0.
-552.523 -1464.1 0.
-0.0549726 -3.53803 0.
-65.8666 -174.225 0.
-605.481 -1587.24 0.
-0.278524 -0.76906 0.
-513.618 -1419 0.
-1.03927 -2.87142 0.
-5.37693 -14.8834 0.
-467.4 -1294.6 0.
-63.2031 -175.044 0.
-94.3607 -261.255 0.
-284.781 -787.889 0.
4.13197 11.3527 0.
-224.632 -617.805 0.
-3.75187 -8.4664 0.
-2.93717 -6.58232 0.
-39.7882 -88.6482 0.
-32.9457 -79.2247 0.
-6.56737 -15.5475 0.
-3.68353 -8.5833 0.
-116.968 -272.237 0.
-332.755 -770.402 0.
-372.578 -729.037 0.
-29.1524 -57.1655 0.
7.89054 15.4423 0.
-453.795 -832.943 0.
-6.09811 -11.3073 0.
1.51044 2.80796 0.
-266.361 -456.444 0.
-5.81028 -18.1266 0.
5.24855 8.30932 0.
13.5219 21.1193 0.
10.4473 16.1089 0.
4.77821 6.84783 0.
-129.316 -190.502 0.
-47.7 -69.9833 0.
-79.5984 -115.658 0.
-118.068 -169.934 0.
-444.178 -613.733 0.
11.7984 15.9717 0.
6.96488 9.25431 0.
-104.812 -148.838 0.
-4.94155 -6.97967 0.
-6.33643 -8.89423 0.
-2.29788 -10.0305 0.
-35.2083 -57.2819 0.
-24.7092 -40.9016 0.
-30.5651 -41.0378 0.
-66.7856 -89.7228 0.
-1.73567 -2.33299 0.
0.690185 0.907112 0.
1.66438 2.19204 0.
0.722766 0.953859 0.
-8.49497 -16.6499 0.
0.764983 1.05917 0.
-1.36566 -1.96082 0.
7.93944 11.4493 0.
-402.823 -583.424 0.
-4.31902 -6.765 0.
-47.2531 -76.6043 0.
-672.764 -1132.26 0.
-3.09635 -5.30732 0.
-194.538 -338.738 0.
-105.044 -188.231 0.
-61.0411 -110.554 0.
4.25982 7.56494 0.
-2.48202 -4.85639 0.
-1.99924 -3.95991 0.
5.2271 10.4849 0.
1.65158 3.85004 0.
-15.5138 -36.2438 0.
6.09323 15.1019 0.
-2.84753 -7.0747 0.
1.99616 4.97209 0.
-217.729 -500.954 0.
-31.8067 -71.8891 0.
4.50413 9.99593 0.
-160.048 -435.431 0.
3.22049 8.77555 0.
-140.225 -375.999 0.
-1.1487 -3.09737 0.
-0.0752314 -7.99974 0.
-0.0433661 -7.33388 0.
2.28002 6.1861 0.
0.563951 1.51878 0.
2.46818 6.76088 0.
2.24158 6.07537 0.
-0.065528 -0.168267 0.
0.67276 1.76223 0.
-0.0525939 -3.2964 0.
-0.239854 -0.610952 0.
-0.0460016 -3.01908 0.
-0.00301138 -2.87406 0.
0.759329 2.0687 0.
-0.000382098 -1.4414 0.
-0.0161178 -1.70857 0.
-7.55671e-05 -1.35482 0.
0.0848605 0.230401 0.
0.0117012 0.0323821 0.
0.683171 1.86946 0.
-0.767503 -2.05564 0.
-0.03934 -4.37151 0.
0.225624 0.605657 0.
-0.856137 -2.27424 0.
-0.356673 -0.969192 0.
-1.86817 -5.1316 0.
1.16908 3.23377 0.
2.91525 8.07337 0.
-0.329522 -0.912594 0.
-0.33263 -0.921326 0.
-0.244216 -0.676393 0.
-116.085 -321.399 0.
-0.0986859 -12.4353 0.
-181.648 -494.704 0.
-1.67728 -3.76919 0.
-0.741531 -1.65476 0.
-189.939 -422.561 0.
-44.2365 -101.236 0.
-2.91528 -6.62311 0.
1.56003 3.52069 0.
-0.454328 -1.02808 0.
-39.7669 -89.8217 0.
-3.35319 -16.2282 0.
4.48993 8.40432 0.
9.59279 17.7487 0.
-10.3243 -18.9727 0.
-87.3086 -160.636 0.
-17.7274 -32.741 0.
-408.736 -690.985 0.
-53.59 -86.5165 0.
-520.402 -810.813 0.
-6.65979 -10.2373 0.
1.32953 2.01788 0.
-326.67 -466.508 0.
11.3783 16.0234 0.
14.1948 19.7617 0.
-5.96498 -8.23461 0.
-4.40673 -5.97207 0.
-2.44545 -3.14681 0.
-3.86474 -4.9594 0.
-1.04049 -1.36072 0.
-19.3671 -27.07 0.
-36.8582 -51.2201 0.
-22.6495 -31.2901 0.
-54.4179 -97.957 0.
4.38289 6.74731 0.
-1.17107 -1.81697 0.
9.65204 12.4383 0.
10.6185 13.8685 0.
-11.562 -15.3052 0.
-2.7017 -3.50869 0.
-96.7322 -125.869 0.
-195.046 -254.334 0.
-131.637 -173.179 0.
-453.826 -607.91 0.
0.902752 1.29004 0.
-124.063 -178.011 0.
-59.8463 -86.246 0.
-18.2613 -28.0861 0.
-0.322697 -0.514272 0.
6.2918 9.69884 0.
-5.4343 -8.60658 0.
8.21755 13.2401 0.
7.86837 13.107 0.
-5.58842 -9.55171 0.
-133.939 -235.23 0.
5.96762 11.5336 0.
-135.242 -264.56 0.
-219.394 -434.243 0.
-235.628 -548.311 0.
-295.516 -690.077 0.
-238.463 -587.185 0.
-113.694 -280.828 0.
-110.098 -272.671 0.
-213.287 -486.883 0.
-13.383 -30.0408 0.
-1.49854 -13.5402 0.
-0.100176 -8.87771 0.
4.75103 12.8408 0.
-30.1844 -82.0034 0.
3.03698 8.28641 0.
-99.8731 -276.106 0.
-269.472 -722.184 0.
-4.95604 -13.2993 0.
-51.4386 -137.136 0.
-393.548 -1046.79 0.
-0.174092 -7.00651 0.
-435.445 -1163.24 0.
-64.5138 -173.87 0.
1.45491 3.94197 0.
-415.588 -1108.78 0.
-136.212 -370.27 0.
-8.5705 -23.6685 0.
-288.58 -793.156 0.
-281.2 -778.863 0.
-24.8651 -67.9841 0.
-155.547 -430.825 0.
-400.413 -1097.93 0.
-0.0423261 -0.117229 0.
-76.9589 -212.127 0.
-465.418 -1269.75 0.
0.686171 1.87447 0.
-26.9373 -72.999 0.
-427.596 -1156.25 0.
-0.113767 -5.63295 0.
-409.335 -1090.44 0.
3.33488 9.17975 0.
2.64728 7.2906 0.
-338.783 -932.216 0.
0.636814 1.76364 0.
1.15989 3.21267 0.
0.436974 1.21029 0.
4.63501 12.4104 0.
-117.313 -315.207 0.
3.9807 8.90791 0.
-29.2505 -64.9937 0.
-237.887 -526.242 0.
-185.173 -426.871 0.
-115.939 -264.637 0.
-90.8304 -205.636 0.
-206.576 -465.097 0.
-217.859 -491.042 0.
-174.235 -331.882 0.
6.3446 11.9023 0.
5.36974 9.95719 0.
4.6044 7.74768 0.
-4.61229 -14.3626 0.
9.41858 15.0096 0.
-6.36087 -9.65568 0.
-6.25621 -15.7503 0.
-5.87002 -8.77096 0.
-127.049 -192.031 0.
-52.8815 -78.9423 0.
-130.087 -184.434 0.
-13.8064 -19.3284 0.
-5.40231 -7.47612 0.
-488.354 -659.231 0.
-33.1547 -43.9018 0.
-56.0237 -71.1188 0.
-82.9429 -105.036 0.
-3.16347 -3.99344 0.
-3.4949 -4.7086 0.
6.28586 8.41248 0.
-0.583285 -0.775281 0.
5.69153 9.62844 0.
1.39036 2.07773 0.
-4.81697 -7.24779 0.
-110.924 -141.777 0.
-103.609 -134.22 0.
-83.1663 -109.213 0.
-9.56605 -12.2734 0.
4.23076 5.43759 0.
-21.9839 -28.3041 0.
-13.0578 -16.5987 0.
-10.0996 -14.8507 0.
-8.97705 -15.4906 0.
-5.98443 -7.89265 0.
11.0974 15.0413 0.
9.52442 14.0648 0.
-93.2512 -140.469 0.
-73.3951 -112.651 0.
1.20129 1.87273 0.
-531.674 -843.739 0.
2.06534 3.39201 0.
-194.75 -328.638 0.
-321.941 -557.753 0.
-0.987641 -1.8844 0.
-19.681 -38.0195 0.
-104.279 -203.98 0.
-97.049 -226.975 0.
-3.31473 -7.69404 0.
-4.17675 -10.1614 0.
0.836286 2.0369 0.
1.63672 3.99133 0.
-33.8617 -76.935 0.
-12.2258 -27.7216 0.
-14.5809 -32.9789 0.
-273.679 -736.308 0.
1.81192 4.86588 0.
-386.932 -1064.67 0.
-0.748374 -2.06816 0.
-0.339453 -0.940181 0.
-1.97199 -5.33761 0.
-1.84375 -4.9673 0.
-0.982081 -2.63292 0.
0.800473 2.06398 0.
-0.218699 -5.42949 0.
-0.0377436 -4.30706 0.
-0.221508 -0.603265 0.
-0.233006 -0.637031 0.
1.45341 3.84506 0.
1.10523 3.00073 0.
0.696564 1.92019 0.
-2.44844 -6.70228 0.
-2.23726 -6.1931 0.
0.80545 2.21664 0.
0.808651 2.23981 0.
0.713842 1.96399 0.
1.54917 4.2893 0.
-0.252847 -0.698165 0.
0.801692 2.18455 0.
1.09729 3.01675 0.
0.985003 2.68922 0.
-0.349023 -0.944939 0.
1.74433 4.47931 0.
-1.25407 -3.26827 0.
-1.11407 -3.05408 0.
0.23373 0.641244 0.
-67.0201 -183.965 0.
-14.2563 -39.1384 0.
-78.7934 -217.407 0.
-331.236 -916.517 0.
3.89269 10.2092 0.
-217.55 -576.652 0.
-3.20358 -7.20976 0.
-1.62054 -3.61476 0.
3.93191 8.69324 0.
-13.5973 -31.6113 0.
-39.2716 -91.5095 0.
-78.8877 -184.418 0.
-0.141696 -0.317026 0.
-16.3487 -36.5028 0.
-328.508 -628.765 0.
-39.684 -74.656 0.
4.72788 8.78636 0.
-506.566 -824.309 0.
-60.7988 -96.1838 0.
5.02993 7.75846 0.
-332.869 -505.324 0.
-3.30092 -4.9734 0.
-91.3979 -134.709 0.
5.89949 8.46813 0.
4.11594 5.76136 0.
-9.04234 -16.4259 0.
-0.749266 -0.973206 0.
-6.3478 -8.14897 0.
3.44425 4.52827 0.
-235.774 -304.647 0.
-159.998 -200.368 0.
-67.4225 -84.1794 0.
-8.6476 -10.7669 0.
-185.707 -246.583 0.
-96.0478 -126.587 0.
-10.912 -14.2769 0.
-18.2955 -29.6483 0.
1.22933 1.62326 0.
-4.46908 -5.90391 0.
5.65032 6.7205 0.
-8.22969 -11.8256 0.
12.7663 15.0289 0.
-1.03805 -1.21899 0.
9.86331 11.7684 0.
8.00211 9.70661 0.
-20.378 -24.1239 0.
-164.099 -194.284 0.
-4.34429 -5.41153 0.
-4.40282 -5.62298 0.
-583.075 -766.098 0.
-3.59714 -5.2825 0.
1.57814 2.36209 0.
-304.72 -465.861 0.
-115.64 -177.3 0.
-111.107 -173.355 0.
-0.555982 -0.897121 0.
-6.19059 -9.99292 0.
4.05139 6.542 0.
2.37383 4.2017 0.
-2.64973 -4.85302 0.
-29.627 -56.1314 0.
4.67193 10.7899 0.
-188.499 -438.419 0.
-14.4681 -34.7546 0.
-1.75859 -4.22843 0.
-109.444 -263.247 0.
-270.699 -614.585 0.
-1.01502 -2.30534 0.
-14.3506 -32.5075 0.
-155.5 -414.084 0.
1.95463 5.19247 0.
-0.630296 -1.74012 0.
1.04668 2.89798 0.
3.36768 9.32414 0.
1.91613 5.20302 0.
-0.740144 -2.00108 0.
0.384007 1.03346 0.
0.938118 2.3442 0.
1.18198 2.88045 0.
1.44356 3.94705 0.
-0.0175213 -4.34975 0.
0.594406 1.6356 0.
2.09466 5.54007 0.
1.70982 4.63345 0.
1.99268 5.48297 0.
1.53032 4.19703 0.
-0.762565 -2.11105 0.
0.765996 2.11608 0.
2.0334 5.62965 0.
1.99623 5.47666 0.
-0.00185412 -5.18378 0.
0.567782 1.57015 0.
-0.0143711 -2.99196 0.
1.92609 5.3173 0.
1.06969 2.93831 0.
-0.0258335 -4.11217 0.
1.18834 2.95564 0.
-0.680915 -1.72646 0.
1.21222 3.30639 0.
1.18965 3.24846 0.
1.98521 5.42632 0.
1.37834 3.792 0.
-1.61502 -4.46159 0.
1.9956 5.52544 0.
5.08011 13.0979 0.
-146.616 -383.191 0.
-45.1793 -101.18 0.
-32.9725 -73.1852 0.
-179.081 -393.048 0.
-144.188 -337.02 0.
-21.0781 -49.2604 0.
-55.2791 -129.541 0.
-27.1774 -62.0424 0.
3.51843 7.87766 0.
-4.25142 -7.83449 0.
-0.28478 -0.512843 0.
0.488682 0.860739 0.
-23.2075 -35.5101 0.
5.11015 7.74641 0.
-123.079 -183.079 0.
-33.0876 -50.1553 0.
-224.759 -338.708 0.
-412.166 -600.015 0.
10.0417 14.1945 0.
-2.83537 -3.90696 0.
-391.704 -500.639 0.
-1.46801 -1.85512 0.
-1.52044 -1.90028 0.
1.22414 1.48288 0.
3.82605 4.61784 0.
-1.02408 -1.21739 0.
2.26906 2.66617 0.
16.0994 18.7043 0.
11.7053 14.0359 0.
-7.7225 -11.3223 0.
10.8064 12.8573 0.
4.41251 5.94397 0.
2.29039 2.96406 0.
-4.79953 -8.40371 0.
1.54092 1.78665 0.
-9.40472 -12.7639 0.
1.24524 1.42683 0.
-5.29959 -6.12374 0.
-158.153 -185.777 0.
-249.429 -298.087 0.
-201.477 -236.081 0.
-49.8855 -58.3464 0.
-49.3782 -59.4579 0.
-130.878 -161.496 0.
-2.75799 -3.28433 0.
12.5838 17.0256 0.
8.20736 11.3718 0.
-1.37815 -1.96051 0.
6.54054 9.57779 0.
-139.266 -211.116 0.
-15.4334 -24.8687 0.
-13.7455 -22.1568 0.
-251.27 -405.403 0.
4.54467 8.01977 0.
-29.1817 -53.3531 0.
-448.68 -848.882 0.
-0.993566 -2.30626 0.
-211.499 -494.041 0.
-90.5074 -214.363 0.
-59.2005 -140.348 0.
-14.8889 -35.3336 0.
-23.0884 -52.6303 0.
-1.83796 -4.18033 0.
-2.84075 -6.44715 0.
-80.8074 -212.47 0.
0.373465 0.977905 0.
-169.307 -468.937 0.
-0.473109 -1.31023 0.
1.85981 5.15072 0.
-290.566 -802.833 0.
-0.933295 -2.57355 0.
1.47405 4.05384 0.
-292.273 -749.226 0.
1.9271 4.79432 0.
-297.886 -805.559 0.
-6.09769 -16.6847 0.
-11.0957 -30.6035 0.
-318.124 -865.427 0.
-69.4019 -190.311 0.
-36.0546 -99.5315 0.
-249.289 -687.93 0.
-205 -567.812 0.
-10.1898 -28.2189 0.
-115.809 -320.185 0.
-289.133 -793.194 0.
-13.7829 -38.1757 0.
-17.8554 -49.3726 0.
-340.58 -937.568 0.
0.441659 1.21934 0.
0.347357 0.951677 0.
-253.148 -688.56 0.
-0.433566 -1.09481 0.
-277.535 -718.572 0.
1.95116 5.3775 0.
2.75146 7.59172 0.
-242.696 -669.29 0.
0.738261 2.04426 0.
0.0257887 0.0713941 0.
-125.836 -348.315 0.
4.72727 11.9056 0.
-37.095 -93.566 0.
-38.9259 -83.8626 0.
-44.8457 -99.0331 0.
-59.6436 -130.472 0.
-6.82369 -15.9731 0.
-68.5257 -160.835 0.
-60.5967 -142.482 0.
-196.66 -453.225 0.
3.3653 7.58164 0.
-499.556 -905.229 0.
9.22591 16.323 0.
-3.64426 -6.30471 0.
-216.218 -329.955 0.
-2.72614 -4.12589 0.
-7.35194 -11.0202 0.
-1.37989 -2.02808 0.
1.40475 2.01435 0.
7.01368 9.55694 0.
2.39455 3.17565 0.
-3.00781 -3.88701 0.
-50.5559 -62.7522 0.
-117.797 -144.59 0.
4.71647 5.73283 0.
-100.027 -118.153 0.
-245.366 -288.943 0.
-280.188 -327.66 0.
-201.232 -232.504 0.
13.6505 15.5906 0.
9.00174 10.5769 0.
3.26453 3.82371 0.
3.68773 4.30328 0.
3.37712 4.44892 0.
-18.6976 -23.7109 0.
6.04216 7.65673 0.
-78.9837 -89.2423 0.
-58.8344 -66.0693 0.
0.487676 0.543817 0.
-12.0034 -14.1189 0.
4.84256 5.26585 0.
16.3265 17.6404 0.
7.74987 8.39581 0.
-7.86117 -8.53902 0.
12.4943 14.1048 0.
-5.67899 -6.54847 0.
-3.67502 -4.33207 0.
-1.27328 -1.66256 0.
-55.8602 -74.6466 0.
-368.647 -506.659 0.
-16.1937 -23.3432 0.
-310.967 -465.466 0.
-61.1873 -98.4733 0.
-61.6441 -99.243 0.
-61.3778 -98.8484 0.
-47.4729 -83.4693 0.
-0.604593 -1.09507 0.
-44.1095 -80.3719 0.
4.95221 11.2662 0.
0.76698 1.78036 0.
-16.9139 -39.4435 0.
-6.48896 -15.1047 0.
-4.29787 -9.985 0.
-2.33421 -5.24432 0.
-4.1449 -9.36217 0.
-6.32992 -14.3731 0.
-75.5397 -196.686 0.
-2.52117 -6.5326 0.
-70.3082 -194.693 0.
-0.561619 -1.55525 0.
-0.00114762 -9.89754 0.
3.26525 9.01366 0.
1.50066 4.13314 0.
0.935347 2.56866 0.
1.16201 2.92429 0.
-0.235315 -0.576263 0.
-0.617806 -1.66378 0.
0.463641 1.2649 0.
0.73552 2.02434 0.
-0.348821 -0.949237 0.
-0.794044 -2.18046 0.
0.453505 1.25277 0.
-0.0093339 -6.02582 0.
1.75504 4.86116 0.
0.727331 2.01434 0.
-0.532028 -1.47121 0.
-0.988574 -2.71522 0.
-0.0116454 -0.0322556 0.
0.268998 0.743546 0.
1.55366 4.26964 0.
1.4793 4.08119 0.
2.51999 6.89912 0.
-0.000973296 -0.00263353 0.
0.516727 1.29245 0.
3.19392 8.17454 0.
-0.034911 -6.79577 0.
-1.60137 -4.39088 0.
-26.2318 -72.0467 0.
1.23729 3.42332 0.
-0.725731 -2.0072 0.
-88.9753 -246.019 0.
0.903737 2.26069 0.
-47.4005 -118.733 0.
-26.0348 -56.114 0.
-10.0168 -21.6456 0.
-4.85461 -10.516 0.
-0.173568 -0.401511 0.
-2.8193 -6.4933 0.
-1.34289 -3.07961 0.
-5.65872 -12.935 0.
-0.0348044 -0.0788984 0.
-8.57827 -15.3871 0.
-61.2552 -106.371 0.
-2.55738 -4.33964 0.
-80.3043 -122.499 0.
-70.86 -107.046 0.
-100.578 -150.445 0.
-384.574 -548.902 0.
-13.942 -19.3811 0.
-209.693 -281.884 0.
-44.9585 -58.7618 0.
11.1061 14.135 0.
-18.7583 -21.6739 0.
8.56702 9.73795 0.
9.52817 10.6648 0.
8.39312 9.12462 0.
8.11453 8.82467 0.
-3.21118 -3.48184 0.
0.0116865 0.012624 0.
-42.6082 -47.8156 0.
-66.0053 -75.9624 0.
-56.2788 -64.5975 0.
-57.1931 -65.4306 0.
-12.1951 -15.7109 0.
-3.52646 -3.98979 0.
8.83035 9.84846 0.
3.78025 3.92098 0.
-5.87241 -6.06437 0.
-5.9332 -6.09487 0.
11.8707 12.5672 0.
4.68608 4.99734 0.
0.38555 0.406473 0.
-9.05101 -9.56069 0.
-231.213 -244.584 0.
13.4504 15.0112 0.
-139.023 -158.431 0.
-242.839 -282.895 0.
-2.17715 -2.73575 0.
-133.031 -170.882 0.
-10.9598 -13.9887 0.
-5.67287 -7.79984 0.
3.73044 5.27617 0.
8.41849 12.8446 0.
7.07261 11.0676 0.
0.839591 1.34884 0.
0.0402997 0.073372 0.
-3.83906 -7.03429 0.
-30.5423 -56.3059 0.
5.1517 11.8145 0.
-219.107 -511.133 0.
-18.9792 -44.1829 0.
-29.3108 -68.0959 0.
-180.446 -418.062 0.
-123.647 -277.73 0.
-66.9135 -151.171 0.
-51.1712 -116.239 0.
-79.8791 -205.852 0.
4.79645 12.2897 0.
-49.0401 -135.605 0.
2.65618 7.34458 0.
-1.02976 -2.84652 0.
1.69268 4.66781 0.
0.411105 1.13083 0.
1.89451 5.19497 0.
-168.19 -411.548 0.
-0.858253 -2.03974 0.
-163.757 -450.899 0.
-9.25502 -25.6013 0.
-9.65885 -26.7531 0.
-201.351 -556.688 0.
-22.0729 -61.1372 0.
-23.4256 -64.8361 0.
-147.076 -407.365 0.
-96.6353 -267.395 0.
-28.5807 -79.1636 0.
-64.3174 -178.021 0.
-166.015 -458.452 0.
-18.9373 -52.3671 0.
-0.50355 -1.39427 0.
-192.327 -532.693 0.
-1.12606 -3.11668 0.
-10.7786 -29.8545 0.
-185.988 -514.486 0.
-3.84776 -9.39891 0.
-58.8978 -149.225 0.
3.30537 8.95135 0.
2.7835 7.56491 0.
-0.929354 -2.5332 0.
-1.96856 -5.43918 0.
-4.71475 -13.0205 0.
-33.5691 -92.6622 0.
0.129468 0.321606 0.
-78.8242 -195.974 0.
-35.998 -77.5895 0.
-83.807 -180.952 0.
-55.246 -119.577 0.
-139.145 -319.346 0.
2.07735 4.75184 0.
-6.02242 -13.7172 0.
-179.777 -417.655 0.
3.64988 8.4181 0.
-22.003 -39.5524 0.
-3.81292 -6.70775 0.
2.6433 4.54919 0.
-6.78021 -10.2289 0.
6.37019 9.36815 0.
-5.58996 -12.455 0.
-15.5984 -20.8329 0.
-4.47754 -5.83125 0.
-188.263 -248.971 0.
-113.151 -145.516 0.
9.30461 11.65 0.
-340.292 -384.433 0.
-112.948 -125.42 0.
6.99359 7.64656 0.
-158.848 -169.012 0.
3.71055 3.95181 0.
2.75348 2.93447 0.
-0.797701 -0.843619 0.
15.0772 15.8938 0.
4.93706 5.24313 0.
-1.46924 -1.56603 0.
-9.23132 -10.6268 0.
-2.60266 -3.04082 0.
-48.7055 -53.0704 0.
-5.81203 -6.73722 0.
-48.1933 -48.6956 0.
-47.2787 -47.5232 0.
-39.2042 -39.1657 0.
-60.1736 -62.4649 0.
-181.847 -190.085 0.
-126.77 -130.325 0.
-44.477 -45.7778 0.
3.00401 2.98347 0.
-8.05634 -9.14242 0.
7.67946 8.18469 0.
8.9082 9.53848 0.
9.45164 11.0483 0.
-3.08759 -3.76534 0.
-40.2763 -51.2811 0.
3.79473 5.1983 0.
-184.497 -259.289 0.
-1.11546 -1.67084 0.
2.7745 4.26469 0.
-195.375 -307.914 0.
0.215228 0.39654 0.
4.9034 9.09013 0.
-216.774 -404.442 0.
5.18214 11.9845 0.
-23.166 -54.6626 0.
-34.2006 -79.4632 0.
-4.09958 -9.33685 0.
-4.15071 -9.48742 0.
-14.1651 -31.4601 0.
-12.8306 -28.5087 0.
-3.40229 -7.5635 0.
-24.1531 -60.5317 0.
2.17695 5.43787 0.
-133.826 -368.095 0.
-44.8977 -123.437 0.
3.20511 8.80698 0.
-169.859 -465.285 0.
-12.5353 -34.1664 0.
-11.383 -30.8388 0.
-30.2448 -72.5069 0.
2.10481 4.90182 0.
-1.38747 -3.82252 0.
1.18775 3.28568 0.
2.30829 6.39353 0.
1.67844 4.64181 0.
-1.08588 -3.00746 0.
1.42178 3.93635 0.
-0.745125 -2.06382 0.
0.0451675 0.125042 0.
-2.28208e-05 -8.00121 0.
1.78109 4.92971 0.
0.84091 2.323 0.
2.36175 6.53248 0.
-1.79241 -4.9635 0.
2.47664 6.85956 0.
1.33192 3.68443 0.
2.79031 7.72831 0.
0.738138 1.73214 0.
1.98084 4.717 0.
-45.7734 -111.489 0.
-33.7376 -90.1457 0.
-41.4656 -111.239 0.
-138.331 -372.779 0.
-1.44343 -3.94882 0.
-4.49596 -12.3242 0.
-112.579 -274.497 0.
-0.670212 -11.7727 0.
-28.6229 -69.948 0.
6.79644 14.4481 0.
4.23054 9.01304 0.
-16.7998 -35.8715 0.
-0.289978 -0.650507 0.
-4.53589 -10.3028 0.
-58.9277 -140.104 0.
-60.5325 -142.952 0.
-1.8206 -4.27086 0.
-186.202 -334.98 0.
-8.70838 -15.3479 0.
-1.15986 -1.9988 0.
-235.484 -349.102 0.
0.764818 1.10632 0.
-1.15311 -1.6266 0.
-144.23 -191.954 0.
6.62439 8.59899 0.
-5.43668 -6.83446 0.
2.8862 3.48921 0.
7.53357 8.77762 0.
0.381114 0.395282 0.
6.31718 6.52423 0.
-4.98405 -5.12639 0.
-27.3469 -28.4766 0.
-50.9885 -53.1546 0.
-112.561 -117.404 0.
-50.777 -52.5301 0.
-69.5333 -71.7301 0.
-91.6063 -93.7488 0.
-7.44456 -7.66601 0.
-57.5926 -59.4861 0.
2.71697 3.03608 0.
4.29767 3.97099 0.
8.68106 7.58349 0.
-4.07888 -3.67816 0.
1.78398 1.61941 0.
6.89131 6.29601 0.
10.7828 10.2976 0.
-1.35047 -1.29057 0.
-4.65508 -4.49277 0.
-4.43562 -4.33323 0.
-1.35779 -1.34285 0.
-1.91799 -1.97876 0.
8.89887 9.21391 0.
-215.462 -223.835 0.
0.719521 0.835641 0.
-0.2941 -0.357026 0.
-295.144 -373.986 0.
-1.49573 -2.04051 0.
-22.8055 -32.0381 0.
1.71705 2.52204 0.
-6.22744 -8.98866 0.
-9.23968 -13.4219 0.
4.88015 8.19829 0.
-3.51638 -6.04041 0.
-2.98132 -11.4027 0.
5.5027 12.46 0.
0.800282 1.8625 0.
-1.94528 -4.64069 0.
4.59739 10.5055 0.
-103.853 -238.168 0.
-21.2111 -47.1244 0.
-17.4811 -38.8554 0.
-22.1918 -49.3444 0.
-57.4461 -142.687 0.
-3.07853 -7.61751 0.
0.201982 0.555395 0.
1.52129 4.17969 0.
0.155794 0.427662 0.
-1.57195 -4.31004 0.
1.34253 3.6631 0.
-2.32056 -6.29549 0.
-4.63326 -10.899 0.
-1.02296 -2.33696 0.
-0.0177152 -8.29443 0.
2.34813 6.49563 0.
2.35002 6.50915 0.
1.24192 3.43322 0.
2.41452 6.68637 0.
2.6755 7.40912 0.
0.189925 0.526004 0.
1.07513 2.97712 0.
-0.320388 -0.887391 0.
-1.28796 -3.56437 0.
3.12728 8.63777 0.
2.76287 7.6438 0.
-0.867633 -2.40282 0.
2.83914 7.86329 0.
-0.00620363 -7.75739 0.
1.00558 2.78461 0.
-0.809642 -8.29098 0.
-2.71189 -6.29743 0.
-30.2462 -71.9786 0.
-18.1682 -49.026 0.
-3.53816 -9.58318 0.
-0.378875 -1.03002 0.
-1.8203 -4.96535 0.
2.09956 5.7401 0.
-0.320095 -0.775333 0.
4.26904 10.358 0.
-47.5036 -115.356 0.
-17.8059 -37.7837 0.
1.06042 2.25552 0.
-16.3466 -34.8457 0.
-91.848 -205.687 0.
-3.79106 -8.40549 0.
4.0687 9.57567 0.
2.67968 6.15331 0.
0.831221 1.85757 0.
1.12278 1.85035 0.
3.47038 5.56105 0.
3.15392 4.91634 0.
-9.85963 -13.4742 0.
-41.1022 -58.4038 0.
-10.517 -14.5691 0.
-89.0415 -118.146 0.
-17.1454 -22.1747 0.
-329.27 -405.707 0.
-3.58829 -4.25374 0.
-6.54388 -8.68568 0.
-64.826 -65.8988 0.
-9.3595 -9.61459 0.
-6.90506 -6.96698 0.
7.54607 7.44102 0.
-8.67313 -8.54196 0.
10.8504 10.6719 0.
-1.88273 -1.78993 0.
-10.8199 -9.43093 0.
-8.56219 -6.50019 0.
11.0102 9.80414 0.
-2.67567 -2.40851 0.
0.332147 0.29868 0.
3.73532 3.26893 0.
-6.67115 -4.4418 0.
2.2691 2.00608 0.
11.575 10.296 0.
10.2635 9.18431 0.
-18.5206 -16.9618 0.
-154.23 -141.031 0.
-8.50487 -8.17069 0.
-11.7578 -11.4345 0.
-198.992 -195.829 0.
0.397816 0.398806 0.
-32.3568 -32.5224 0.
-1.87724 -1.86227 0.
9.31811 10.5917 0.
1.85225 2.16998 0.
4.64134 5.60465 0.
5.36831 7.10439 0.
-58.7822 -81.0936 0.
-2.85116 -4.10625 0.
3.0777 4.46111 0.
-2.05314 -2.99507 0.
2.29853 3.79144 0.
5.89614 9.94915 0.
-72.8523 -125.781 0.
1.17613 2.70619 0.
-43.7236 -103.393 0.
-75.0533 -181.9 0.
-0.841168 -1.92848 0.
-2.71993 -6.25793 0.
-40.5341 -90.069 0.
-19.0895 -42.446 0.
-8.39639 -18.68 0.
-26.1864 -64.4121 0.
-3.14293 -7.70112 0.
-3.66832 -8.70794 0.
-9.79257 -26.4748 0.
3.54071 9.56219 0.
-2.70398 -7.32568 0.
0.350832 0.951169 0.
2.19559 5.95689 0.
-55.1837 -129.774 0.
0.540408 1.24909 0.
-35.7909 -98.8488 0.
1.58914 4.39893 0.
0.906165 2.50987 0.
-41.6909 -115.244 0.
-1.20222 -3.32899 0.
0.165367 0.457988 0.
-47.717 -132.146 0.
-31.3971 -86.9567 0.
-20.8154 -57.6426 0.
-14.1552 -39.1543 0.
-19.7051 -54.3828 0.
-38.9999 -107.916 0.
-21.0275 -58.2313 0.
-17.8799 -49.5236 0.
-0.834734 -2.30544 0.
-51.9314 -143.73 0.
2.44499 5.57139 0.
-2.92258 -6.7284 0.
-52.4704 -122.058 0.
2.18765 5.91223 0.
-0.246885 -0.666227 0.
-1.54456 -4.16199 0.
-5.52864 -14.7714 0.
-20.8238 -55.7992 0.
-0.428935 -1.03223 0.
0.427446 1.03044 0.
-13.2854 -32.0766 0.
3.20632 6.79389 0.
5.82208 12.3639 0.
-9.50796 -20.2345 0.
-32.8626 -73.5212 0.
-7.25092 -16.0532 0.
-79.4474 -189.954 0.
2.84463 6.64121 0.
1.44899 3.29354 0.
-17.691 -28.9037 0.
1.9246 3.05522 0.
-2.64587 -4.08236 0.
-6.82301 -9.33426 0.
-5.03397 -6.89261 0.
-10.1626 -13.9268 0.
-89.3801 -118.132 0.
4.3653 5.50264 0.
-4.57035 -5.23542 0.
7.92153 8.75886 0.
8.43839 9.01915 0.
-50.2675 -50.0658 0.
-82.1205 -81.5097 0.
-16.428 -16.2534 0.
-182.571 -177.227 0.
-7.23219 -7.01267 0.
-9.28201 -8.99104 0.
-139.883 -128.973 0.
-7.71583 -7.02123 0.
-2.95327 -2.51748 0.
1.58763 1.37158 0.
5.87305 5.13231 0.
-0.879948 -0.75555 0.
-6.86794 -4.64662 0.
-7.61677 -4.56884 0.
8.99466 7.79208 0.
-39.3756 -34.3185 0.
-4.95556 -4.34195 0.
22.0769 13.8581 0.
4.24817 2.92062 0.
6.03019 5.02746 0.
4.71062 4.12115 0.
11.6188 10.6838 0.
5.07406 4.79033 0.
-1.51979 -1.45617 0.
-77.8732 -75.7427 0.
-2.94124 -3.35157 0.
4.85048 5.70209 0.
-3.08639 -3.74325 0.
5.7797 7.75986 0.
-60.9532 -85.4275 0.
-20.4829 -29.6267 0.
-25.0974 -36.5318 0.
-21.0037 -30.7667 0.
-0.0377406 -0.0610546 0.
-8.21809 -13.6039 0.
-12.6287 -21.4111 0.
-1.16504 -4.05366 0.
-1.35423 -6.68224 0.
2.9635 6.2292 0.
3.94879 8.0405 0.
-1.74624 -12.748 0.
-2.57869 -5.36073 0.
-1.82724 -3.83276 0.
1.39178 2.94576 0.
3.48743 8.20658 0.
0.886302 2.0913 0.
1.54697 3.66017 0.
-3.90215 -10.5198 0.
3.23905 8.7215 0.
-14.6329 -39.5853 0.
-2.67106 -7.23113 0.
3.88056 10.5131 0.
3.10933 7.31225 0.
-0.742972 -1.71807 0.
-2.00318 -4.5521 0.
-2.12903 -5.89544 0.
2.89569 8.0194 0.
2.44955 6.76946 0.
2.10291 5.82216 0.
-1.13535 -3.14462 0.
2.27775 6.30665 0.
-2.70367 -7.48863 0.
-0.852038 -2.35818 0.
0.856445 2.36634 0.
3.11847 8.59227 0.
-1.84782 -5.11179 0.
0.982983 2.72183 0.
0.0335604 0.0929565 0.
1.80017 4.96624 0.
1.99342 5.51339 0.
-2.13198 -4.87739 0.
3.08323 7.12454 0.
5.08639 11.8708 0.
4.14705 11.1477 0.
-0.143677 -10.7772 0.
-3.25864 -8.73356 0.
0.0832758 0.222762 0.
-10.8192 -29.0235 0.
0.651721 1.50509 0.
4.59812 10.5865 0.
4.27101 9.80437 0.
0.393619 0.793795 0.
0.148209 0.295289 0.
-0.35338 -0.695618 0.
1.68749 3.37965 0.
4.80048 9.12104 0.
-0.268548 -0.533756 0.
-1.0517 -3.98119 0.
-0.346276 -0.801294 0.
-130.993 -211.687 0.
-6.84607 -10.7584 0.
6.47502 9.88322 0.
-38.1414 -52.2317 0.
-10.5988 -14.5275 0.
-9.8356 -13.493 0.
-33.2481 -45.1743 0.
1.37538 1.77905 0.
-3.62127 -4.10345 0.
7.24676 7.91598 0.
-1.17295 -1.23712 0.
-26.4026 -24.7891 0.
7.5518 6.9682 0.
12.4725 11.3134 0.
-1.99551 -1.69092 0.
-10.5631 -6.5781 0.
-6.02044 -3.35601 0.
16.0689 10.302 0.
-74.5951 -65.7892 0.
-20.0804 -16.609 0.
-28.4261 -23.8472 0.
-37.5989 -31.9299 0.
6.29821 5.1707 0.
