# vtk DataFile Version 2.0
test grain
ASCII
DATASET UNSTRUCTURED_GRID
POINTS 5000 float
0.497912 0.00064032 0.
0.500653 0.000804486 0.
0.503111 0.000872113 0.
0.505545 0.000937641 0.
0.507659 0.000950622 0.
0.509775 0.000963782 0.
0.511861 0.000974156 0.
0.513904 0.000979799 0.
0.515947 0.000985475 0.
0.517969 0.000989552 0.
0.519979 0.000992792 0.
0.52199 0.000996042 0.
0.523992 0.000996743 0.
0.525994 0.000997115 0.
0.527995 0.000997482 0.
0.529996 0.000997802 0.
0.531998 0.000998123 0.
0.533998 0.000998423 0.
0.535999 0.000998685 0.
0.537999 0.000998946 0.
0.539999 0.000999093 0.
0.541999 0.000999149 0.
0.544 0.000999205 0.
0.546 0.000999201 0.
0.548 0.00099918 0.
0.55 0.000999159 0.
0.552 0.000999145 0.
0.554 0.000999132 0.
0.556 0.000999132 0.
0.558 0.000999182 0.
0.56 0.000999232 0.
0.562 0.000999264 0.
0.564 0.000999275 0.
0.566 0.000999286 0.
0.568 0.000999273 0.
0.57 0.00099925 0.
0.572 0.000999226 0.
0.574 0.000999229 0.
0.576 0.000999236 0.
0.578 0.000999245 0.
0.58 0.000999273 0.
0.582 0.000999301 0.
0.584 0.000999325 0.
0.586 0.00099934 0.
0.588 0.000999356 0.
0.59 0.000999368 0.
0.592 0.000999378 0.
0.594 0.000999388 0.
0.596 0.000999363 0.
0.598 0.000999328 0.
0.6 0.000999293 0.
0.602 0.000999317 0.
0.604 0.000999341 0.
0.606 0.000999358 0.
0.608 0.000999347 0.
0.61 0.000999337 0.
0.612 0.000999333 0.
0.614 0.000999337 0.
0.616 0.000999342 0.
0.618 0.000999322 0.
0.62 0.000999291 0.
0.622 0.00099926 0.
0.624 0.000999257 0.
0.626 0.000999256 0.
0.628 0.00099926 0.
0.63 0.000999288 0.
0.632 0.000999317 0.
0.634 0.000999328 0.
0.636 0.000999304 0.
0.638 0.000999281 0.
0.64 0.000999235 0.
0.642 0.000999172 0.
0.644 0.000999109 0.
0.646 0.00099912 0.
0.648 0.000999154 0.
0.65 0.000999187 0.
0.652 0.00099921 0.
0.654 0.000999232 0.
0.656001 0.000999224 0.
0.658001 0.000999111 0.
0.660001 0.000998997 0.
0.662001 0.000998731 0.
0.664002 0.000998274 0.
0.666003 0.000997817 0.
0.668004 0.000997688 0.
0.670005 0.000997721 0.
0.672007 0.000997755 0.
0.674009 0.000996594 0.
0.676011 0.00099529 0.
0.678016 0.000993601 0.
0.680036 0.000988932 0.
0.682055 0.000984284 0.
0.684089 0.000979204 0.
0.686148 0.00097325 0.
0.688208 0.000967332 0.
0.690362 0.000942129 0.
0.692569 0.000907532 0.
0.69479 0.000872821 0.
0.697522 0.000783328 0.
0.700262 0.000696989 0.
0.496161 0.00170881 0.
0.499342 0.00235038 0.
0.502085 0.00258205 0.
0.504825 0.00279719 0.
0.507159 0.00284617 0.
0.509443 0.0028874 0.
0.511666 0.0029217 0.
0.513759 0.00293882 0.
0.515853 0.00295604 0.
0.517907 0.0029685 0.
0.519938 0.00297827 0.
0.521969 0.00298806 0.
0.523977 0.00299022 0.
0.525982 0.00299134 0.
0.527986 0.00299244 0.
0.529989 0.0029934 0.
0.531993 0.00299437 0.
0.533995 0.00299527 0.
0.535996 0.00299605 0.
0.537997 0.00299684 0.
0.539998 0.00299728 0.
0.541998 0.00299745 0.
0.543999 0.00299761 0.
0.545999 0.0029976 0.
0.547999 0.00299754 0.
0.549999 0.00299748 0.
0.551999 0.00299744 0.
0.553999 0.0029974 0.
0.555999 0.0029974 0.
0.557999 0.00299755 0.
0.559999 0.0029977 0.
0.561999 0.00299779 0.
0.563999 0.00299782 0.
0.565999 0.00299786 0.
0.567999 0.00299782 0.
0.57 0.00299775 0.
0.572 0.00299768 0.
0.574 0.00299769 0.
0.575999 0.00299771 0.
0.577999 0.00299774 0.
0.579999 0.00299782 0.
0.581999 0.0029979 0.
0.584 0.00299797 0.
0.586 0.00299802 0.
0.588 0.00299807 0.
0.59 0.00299811 0.
0.592 0.00299813 0.
0.594 0.00299816 0.
0.596 0.00299809 0.
0.598 0.00299798 0.
0.6 0.00299788 0.
0.602 0.00299795 0.
0.604 0.00299802 0.
0.606 0.00299807 0.
0.608 0.00299804 0.
0.61 0.00299801 0.
0.612 0.002998 0.
0.614 0.00299801 0.
0.616 0.00299803 0.
0.618 0.00299797 0.
0.620001 0.00299787 0.
0.622001 0.00299778 0.
0.624001 0.00299777 0.
0.626 0.00299777 0.
0.628 0.00299778 0.
0.63 0.00299786 0.
0.632 0.00299795 0.
0.634 0.00299798 0.
0.636001 0.00299791 0.
0.638001 0.00299784 0.
0.640001 0.0029977 0.
0.642001 0.00299752 0.
0.644001 0.00299733 0.
0.646001 0.00299736 0.
0.648001 0.00299746 0.
0.650001 0.00299756 0.
0.652001 0.00299763 0.
0.654001 0.0029977 0.
0.656002 0.00299767 0.
0.658002 0.00299733 0.
0.660002 0.00299699 0.
0.662004 0.00299619 0.
0.664006 0.00299482 0.
0.666008 0.00299345 0.
0.668011 0.00299307 0.
0.670016 0.00299317 0.
0.67202 0.00299327 0.
0.674027 0.00298975 0.
0.676034 0.00298583 0.
0.678048 0.00298067 0.
0.680103 0.00296656 0.
0.682158 0.00295252 0.
0.684239 0.00293714 0.
0.686366 0.00291907 0.
0.688491 0.00290112 0.
0.69086 0.00281091 0.
0.693306 0.00270147 0.
0.695908 0.00256597 0.
0.698918 0.00228746 0.
0.701992 0.00185681 0.
0.494212 0.00251494 0.
0.497617 0.00359202 0.
0.500912 0.00424377 0.
0.503958 0.00461627 0.
0.506615 0.00473353 0.
0.509081 0.00480532 0.
0.511465 0.00486821 0.
0.51361 0.00489705 0.
0.515756 0.00492607 0.
0.517844 0.00494724 0.
0.519896 0.00496359 0.
0.521949 0.00498 0.
0.523962 0.0049837 0.
0.52597 0.00498556 0.
0.527977 0.0049874 0.
0.529982 0.004989 0.
0.531988 0.00499061 0.
0.533992 0.00499211 0.
0.535994 0.00499342 0.
0.537996 0.00499473 0.
0.539997 0.00499546 0.
0.541997 0.00499574 0.
0.543998 0.00499602 0.
0.545998 0.004996 0.
0.547999 0.0049959 0.
0.549999 0.00499579 0.
0.551999 0.00499573 0.
0.553998 0.00499566 0.
0.555998 0.00499566 0.
0.557998 0.00499591 0.
0.559998 0.00499616 0.
0.561999 0.00499632 0.
0.563999 0.00499637 0.
0.565999 0.00499643 0.
0.567999 0.00499637 0.
0.569999 0.00499625 0.
0.572 0.00499613 0.
0.573999 0.00499615 0.
0.575999 0.00499618 0.
0.577999 0.00499623 0.
0.579999 0.00499637 0.
0.581999 0.0049965 0.
0.583999 0.00499662 0.
0.585999 0.0049967 0.
0.587999 0.00499678 0.
0.589999 0.00499684 0.
0.591999 0.00499689 0.
0.593999 0.00499694 0.
0.596 0.00499681 0.
0.598 0.00499664 0.
0.6 0.00499646 0.
0.602 0.00499659 0.
0.604 0.00499671 0.
0.606 0.00499679 0.
0.608 0.00499674 0.
0.61 0.00499668 0.
0.612 0.00499666 0.
0.614 0.00499669 0.
0.616 0.00499671 0.
0.618001 0.00499661 0.
0.620001 0.00499646 0.
0.622001 0.0049963 0.
0.624001 0.00499628 0.
0.626001 0.00499628 0.
0.628 0.0049963 0.
0.630001 0.00499644 0.
0.632001 0.00499659 0.
0.634001 0.00499664 0.
0.636001 0.00499652 0.
0.638001 0.0049964 0.
0.640001 0.00499617 0.
0.642002 0.00499586 0.
0.644002 0.00499554 0.
0.646002 0.0049956 0.
0.648002 0.00499577 0.
0.650001 0.00499593 0.
0.652002 0.00499605 0.
0.654002 0.00499616 0.
0.656003 0.00499612 0.
0.658003 0.00499555 0.
0.660004 0.00499498 0.
0.662006 0.00499365 0.
0.66401 0.00499136 0.
0.666013 0.00498908 0.
0.668019 0.00498845 0.
0.670026 0.00498862 0.
0.672033 0.00498879 0.
0.674045 0.00498287 0.
0.676058 0.00497633 0.
0.678081 0.00496757 0.
0.680172 0.00494388 0.
0.682262 0.0049203 0.
0.684395 0.00489442 0.
0.68659 0.00486398 0.
0.688784 0.00483373 0.
0.691426 0.00465689 0.
0.694134 0.0044646 0.
0.697223 0.00417434 0.
0.700517 0.00368999 0.
0.704009 0.00266889 0.
0.491992 0.00296485 0.
0.495757 0.00443218 0.
0.499502 0.00549906 0.
0.502617 0.00595209 0.
0.505565 0.00625843 0.
0.508164 0.00641356 0.
0.510743 0.00656584 0.
0.513028 0.00665437 0.
0.515313 0.00674713 0.
0.517521 0.00681773 0.
0.51965 0.00686029 0.
0.52178 0.00690349 0.
0.523839 0.00692695 0.
0.525883 0.00694691 0.
0.527926 0.0069657 0.
0.529941 0.00696948 0.
0.531956 0.00697326 0.
0.533969 0.00697722 0.
0.535977 0.00698156 0.
0.537985 0.00698591 0.
0.53999 0.00698873 0.
0.541992 0.00699031 0.
0.543995 0.00699189 0.
0.545996 0.00699249 0.
0.547997 0.00699282 0.
0.549998 0.00699314 0.
0.551997 0.00699309 0.
0.553997 0.00699305 0.
0.555997 0.00699309 0.
0.557997 0.00699344 0.
0.559997 0.00699379 0.
0.561998 0.00699404 0.
0.563998 0.00699415 0.
0.565998 0.00699427 0.
0.567998 0.00699422 0.
0.569999 0.00699409 0.
0.571999 0.00699396 0.
0.573999 0.00699395 0.
0.575998 0.00699395 0.
0.577998 0.00699398 0.
0.579998 0.00699418 0.
0.581998 0.00699438 0.
0.583999 0.00699456 0.
0.585999 0.00699468 0.
0.587999 0.0069948 0.
0.589999 0.0069949 0.
0.591999 0.00699498 0.
0.593999 0.00699506 0.
0.595999 0.00699491 0.
0.598 0.0069947 0.
0.6 0.00699449 0.
0.602 0.00699461 0.
0.604 0.00699474 0.
0.606001 0.00699483 0.
0.608001 0.00699482 0.
0.610001 0.00699481 0.
0.612001 0.00699479 0.
0.614001 0.00699476 0.
0.616001 0.00699472 0.
0.618001 0.00699456 0.
0.620001 0.00699433 0.
0.622002 0.0069941 0.
0.624001 0.0069941 0.
0.626001 0.00699412 0.
0.628001 0.00699416 0.
0.630001 0.0069943 0.
0.632001 0.00699444 0.
0.634002 0.00699448 0.
0.636002 0.00699432 0.
0.638002 0.00699416 0.
0.640002 0.00699384 0.
0.642003 0.0069934 0.
0.644003 0.00699296 0.
0.646003 0.00699291 0.
0.648003 0.00699298 0.
0.650003 0.00699304 0.
0.652004 0.00699245 0.
0.654005 0.00699186 0.
0.656007 0.00699088 0.
0.658011 0.00698853 0.
0.660015 0.00698618 0.
0.662022 0.00698208 0.
0.664034 0.00697583 0.
0.666045 0.0069696 0.
0.668063 0.00696629 0.
0.670084 0.0069643 0.
0.672105 0.00696231 0.
0.674173 0.00692981 0.
0.676243 0.00689547 0.
0.678332 0.00685824 0.
0.680509 0.00680244 0.
0.682682 0.00674767 0.
0.68497 0.00666168 0.
0.687339 0.0065572 0.
0.689756 0.006422 0.
0.69256 0.00609657 0.
0.695426 0.00578112 0.
0.698742 0.00535995 0.
0.702386 0.00461621 0.
0.706092 0.00319013 0.
0.489835 0.00324214 0.
0.494026 0.00504102 0.
0.497781 0.00635232 0.
0.501129 0.00711973 0.
0.504307 0.00767002 0.
0.507137 0.00797057 0.
0.509896 0.00822656 0.
0.512382 0.00838123 0.
0.514823 0.00854576 0.
0.517181 0.00868271 0.
0.51939 0.00875301 0.
0.521603 0.00882438 0.
0.523712 0.00886862 0.
0.525795 0.00890714 0.
0.527874 0.00894387 0.
0.529899 0.00894985 0.
0.531924 0.00895584 0.
0.533946 0.00896226 0.
0.53596 0.00896965 0.
0.537974 0.00897705 0.
0.539983 0.00898197 0.
0.541987 0.00898485 0.
0.543991 0.00898774 0.
0.545993 0.00898898 0.
0.547995 0.00898973 0.
0.549996 0.00899049 0.
0.551996 0.00899046 0.
0.553996 0.00899043 0.
0.555996 0.00899051 0.
0.557996 0.00899096 0.
0.559996 0.00899142 0.
0.561997 0.00899175 0.
0.563997 0.00899193 0.
0.565997 0.0089921 0.
0.567998 0.00899207 0.
0.569998 0.00899193 0.
0.571998 0.00899179 0.
0.573998 0.00899175 0.
0.575998 0.00899173 0.
0.577997 0.00899173 0.
0.579998 0.008992 0.
0.581998 0.00899226 0.
0.583998 0.00899249 0.
0.585998 0.00899265 0.
0.587998 0.00899281 0.
0.589998 0.00899295 0.
0.591999 0.00899306 0.
0.593999 0.00899318 0.
0.595999 0.00899301 0.
0.598 0.00899276 0.
0.6 0.00899251 0.
0.602001 0.00899264 0.
0.604001 0.00899277 0.
0.606001 0.00899288 0.
0.608001 0.00899291 0.
0.610001 0.00899294 0.
0.612001 0.00899291 0.
0.614001 0.00899283 0.
0.616001 0.00899274 0.
0.618002 0.00899251 0.
0.620002 0.0089922 0.
0.622002 0.0089919 0.
0.624002 0.00899191 0.
0.626001 0.00899196 0.
0.628001 0.00899202 0.
0.630002 0.00899216 0.
0.632002 0.00899229 0.
0.634002 0.00899231 0.
0.636003 0.00899211 0.
0.638003 0.00899191 0.
0.640003 0.0089915 0.
0.642004 0.00899094 0.
0.644004 0.00899038 0.
0.646005 0.00899022 0.
0.648005 0.00899018 0.
0.650005 0.00899014 0.
0.652007 0.00898885 0.
0.654009 0.00898755 0.
0.656012 0.00898562 0.
0.658019 0.00898148 0.
0.660026 0.00897735 0.
0.662039 0.00897045 0.
0.664058 0.00896022 0.
0.666077 0.00895001 0.
0.668107 0.00894402 0.
0.670143 0.00893984 0.
0.672178 0.00893566 0.
0.674305 0.00887433 0.
0.676435 0.00881116 0.
0.678598 0.00874429 0.
0.680866 0.00865416 0.
0.68313 0.00856573 0.
0.685627 0.00839615 0.
0.688194 0.0082067 0.
0.690906 0.00789745 0.
0.693851 0.00740947 0.
0.696992 0.0069104 0.
0.700407 0.00631741 0.
0.704254 0.00513591 0.
0.708426 0.0033913 0.
0.487901 0.00348835 0.
0.492248 0.00549229 0.
0.496091 0.00703201 0.
0.499645 0.00818387 0.
0.502966 0.00894613 0.
0.506108 0.00947783 0.
0.509034 0.00981748 0.
0.511727 0.0100349 0.
0.514303 0.0102735 0.
0.516808 0.0104958 0.
0.519092 0.0105972 0.
0.521383 0.0107019 0.
0.523551 0.0107764 0.
0.525675 0.0108437 0.
0.527797 0.01091 0.
0.529837 0.0109194 0.
0.531877 0.0109289 0.
0.533911 0.0109391 0.
0.535933 0.0109511 0.
0.537955 0.0109631 0.
0.539969 0.0109713 0.
0.541977 0.0109764 0.
0.543985 0.0109816 0.
0.545989 0.010984 0.
0.547991 0.0109857 0.
0.549993 0.0109874 0.
0.551994 0.0109876 0.
0.553994 0.0109877 0.
0.555994 0.010988 0.
0.557995 0.0109886 0.
0.559995 0.0109893 0.
0.561996 0.0109897 0.
0.563996 0.0109899 0.
0.565996 0.0109902 0.
0.567997 0.0109902 0.
0.569997 0.01099 0.
0.571997 0.0109899 0.
0.573997 0.0109899 0.
0.575997 0.0109899 0.
0.577997 0.0109899 0.
0.579997 0.0109901 0.
0.581997 0.0109904 0.
0.583997 0.0109907 0.
0.585998 0.0109909 0.
0.587998 0.010991 0.
0.589998 0.0109912 0.
0.591998 0.0109913 0.
0.593998 0.0109915 0.
0.595999 0.0109913 0.
0.598 0.0109911 0.
0.6 0.0109908 0.
0.602001 0.010991 0.
0.604001 0.0109911 0.
0.606001 0.0109912 0.
0.608001 0.0109912 0.
0.610001 0.0109913 0.
0.612001 0.0109912 0.
0.614001 0.0109911 0.
0.616002 0.010991 0.
0.618002 0.0109907 0.
0.620002 0.0109904 0.
0.622002 0.0109901 0.
0.624002 0.0109901 0.
0.626002 0.0109901 0.
0.628002 0.0109902 0.
0.630002 0.0109902 0.
0.632003 0.0109903 0.
0.634003 0.0109903 0.
0.636003 0.0109901 0.
0.638004 0.0109898 0.
0.640004 0.0109893 0.
0.642005 0.0109885 0.
0.644006 0.0109877 0.
0.646007 0.0109872 0.
0.648007 0.0109868 0.
0.650008 0.0109865 0.
0.652012 0.0109839 0.
0.654015 0.0109813 0.
0.656021 0.0109776 0.
0.658033 0.0109702 0.
0.660046 0.0109627 0.
0.662066 0.0109519 0.
0.664095 0.0109372 0.
0.666124 0.0109224 0.
0.668174 0.0109081 0.
0.670233 0.0108943 0.
0.672292 0.0108802 0.
0.674479 0.0107803 0.
0.676665 0.0106809 0.
0.678907 0.0105768 0.
0.681264 0.0104493 0.
0.683619 0.0103242 0.
0.686316 0.0100581 0.
0.689068 0.00979035 0.
0.692061 0.00927542 0.
0.695161 0.00863686 0.
0.698553 0.00794942 0.
0.702136 0.00707668 0.
0.705989 0.00559479 0.
0.710466 0.00356236 0.
0.486105 0.00374387 0.
0.490825 0.00595179 0.
0.49479 0.00772669 0.
0.498449 0.00914234 0.
0.50194 0.010034 0.
0.505258 0.0107362 0.
0.508258 0.0111782 0.
0.511105 0.011522 0.
0.513756 0.0118669 0.
0.516372 0.0122136 0.
0.518737 0.0123678 0.
0.521106 0.0125207 0.
0.523347 0.0126411 0.
0.525518 0.0127512 0.
0.52769 0.0128619 0.
0.529751 0.0128771 0.
0.531811 0.0128916 0.
0.533864 0.0129073 0.
0.535895 0.0129254 0.
0.537927 0.0129437 0.
0.539949 0.0129566 0.
0.541962 0.0129649 0.
0.543975 0.0129733 0.
0.545982 0.0129776 0.
0.547986 0.0129807 0.
0.54999 0.0129838 0.
0.551991 0.0129844 0.
0.553992 0.012985 0.
0.555993 0.0129856 0.
0.557993 0.0129865 0.
0.559994 0.0129873 0.
0.561995 0.0129879 0.
0.563995 0.0129882 0.
0.565996 0.0129884 0.
0.567996 0.0129885 0.
0.569996 0.0129884 0.
0.571997 0.0129883 0.
0.573997 0.0129883 0.
0.575996 0.0129884 0.
0.577996 0.0129884 0.
0.579996 0.0129886 0.
0.581997 0.0129889 0.
0.583997 0.0129891 0.
0.585997 0.0129893 0.
0.587997 0.0129895 0.
0.589998 0.0129897 0.
0.591998 0.0129898 0.
0.593998 0.0129899 0.
0.595999 0.0129898 0.
0.598 0.0129896 0.
0.6 0.0129894 0.
0.602001 0.0129896 0.
0.604001 0.0129897 0.
0.606001 0.0129898 0.
0.608001 0.0129898 0.
0.610001 0.0129898 0.
0.612001 0.0129897 0.
0.614002 0.0129896 0.
0.616002 0.0129895 0.
0.618002 0.0129892 0.
0.620003 0.012989 0.
0.622003 0.0129887 0.
0.624003 0.0129886 0.
0.626002 0.0129886 0.
0.628002 0.0129885 0.
0.630003 0.0129886 0.
0.632003 0.0129886 0.
0.634004 0.0129885 0.
0.636004 0.0129882 0.
0.638005 0.0129879 0.
0.640006 0.0129871 0.
0.642007 0.012986 0.
0.644008 0.0129848 0.
0.64601 0.0129839 0.
0.648012 0.0129829 0.
0.650013 0.012982 0.
0.652019 0.0129775 0.
0.654025 0.012973 0.
0.656034 0.0129667 0.
0.658054 0.0129544 0.
0.660074 0.012942 0.
0.662104 0.0129262 0.
0.664145 0.0129062 0.
0.666186 0.0128863 0.
0.668267 0.0128565 0.
0.67036 0.0128242 0.
0.672459 0.0127884 0.
0.674704 0.0126377 0.
0.676947 0.012489 0.
0.679287 0.0123284 0.
0.681748 0.0121425 0.
0.684237 0.0119307 0.
0.687009 0.0115009 0.
0.689845 0.011074 0.
0.692943 0.0104598 0.
0.696212 0.00974235 0.
0.699758 0.00893292 0.
0.70348 0.00778184 0.
0.707395 0.00609758 0.
0.712053 0.00390567 0.
0.484774 0.00413628 0.
0.489655 0.00647069 0.
0.493678 0.00841148 0.
0.497365 0.00993735 0.
0.500935 0.0109856 0.
0.504322 0.0118682 0.
0.507439 0.0124882 0.
0.510441 0.0129751 0.
0.513188 0.0134318 0.
0.5159 0.0139009 0.
0.518366 0.0141308 0.
0.520816 0.0143331 0.
0.523138 0.0145012 0.
0.525358 0.0146552 0.
0.527579 0.0148112 0.
0.529664 0.0148346 0.
0.531746 0.0148542 0.
0.533817 0.0148752 0.
0.535858 0.0148997 0.
0.537899 0.0149242 0.
0.539928 0.0149418 0.
0.541947 0.0149534 0.
0.543966 0.014965 0.
0.545975 0.0149711 0.
0.54798 0.0149756 0.
0.549986 0.0149802 0.
0.551988 0.0149812 0.
0.553989 0.0149822 0.
0.555991 0.0149833 0.
0.557992 0.0149843 0.
0.559993 0.0149853 0.
0.561994 0.014986 0.
0.563994 0.0149864 0.
0.565995 0.0149867 0.
0.567995 0.0149868 0.
0.569996 0.0149868 0.
0.571996 0.0149867 0.
0.573996 0.0149868 0.
0.575996 0.0149869 0.
0.577995 0.0149869 0.
0.579996 0.0149871 0.
0.581996 0.0149873 0.
0.583996 0.0149875 0.
0.585997 0.0149877 0.
0.587997 0.0149879 0.
0.589997 0.0149881 0.
0.591998 0.0149882 0.
0.593998 0.0149883 0.
0.595999 0.0149883 0.
0.598 0.0149882 0.
0.6 0.014988 0.
0.602001 0.0149882 0.
0.604001 0.0149883 0.
0.606001 0.0149884 0.
0.608001 0.0149883 0.
0.610001 0.0149883 0.
0.612002 0.0149882 0.
0.614002 0.0149881 0.
0.616002 0.0149879 0.
0.618003 0.0149877 0.
0.620003 0.0149875 0.
0.622003 0.0149873 0.
0.624003 0.0149871 0.
0.626003 0.014987 0.
0.628003 0.0149869 0.
0.630003 0.0149869 0.
0.632004 0.0149869 0.
0.634004 0.0149867 0.
0.636005 0.0149863 0.
0.638006 0.014986 0.
0.640007 0.014985 0.
0.642009 0.0149835 0.
0.64401 0.014982 0.
0.646013 0.0149805 0.
0.648016 0.014979 0.
0.650018 0.0149775 0.
0.652027 0.0149711 0.
0.654035 0.0149648 0.
0.656048 0.0149558 0.
0.658075 0.0149385 0.
0.660103 0.0149213 0.
0.662143 0.0149004 0.
0.664196 0.0148752 0.
0.66625 0.01485 0.
0.668361 0.0148036 0.
0.670489 0.0147524 0.
0.67263 0.0146929 0.
0.674936 0.0144902 0.
0.677236 0.0142912 0.
0.679691 0.0140691 0.
0.682259 0.013823 0.
0.684886 0.0134875 0.
0.687719 0.0128962 0.
0.690657 0.0122906 0.
0.693824 0.011566 0.
0.697187 0.0107372 0.
0.700816 0.00983561 0.
0.704609 0.00845944 0.
0.708582 0.0066095 0.
0.713314 0.00440714 0.
0.483841 0.00469404 0.
0.48866 0.00706217 0.
0.492644 0.00907575 0.
0.49635 0.0106839 0.
0.499958 0.0119077 0.
0.50338 0.0129355 0.
0.506607 0.013736 0.
0.509725 0.0143554 0.
0.51257 0.0149038 0.
0.515315 0.0154358 0.
0.517859 0.0157551 0.
0.520356 0.0160148 0.
0.522758 0.0162474 0.
0.52503 0.0164387 0.
0.52731 0.0166332 0.
0.529457 0.0167001 0.
0.531592 0.0167574 0.
0.53371 0.0168104 0.
0.535768 0.0168417 0.
0.537827 0.0168732 0.
0.539872 0.0168992 0.
0.541904 0.0169204 0.
0.543937 0.0169417 0.
0.545953 0.0169533 0.
0.547964 0.0169619 0.
0.549975 0.0169704 0.
0.551979 0.016973 0.
0.553982 0.0169756 0.
0.555986 0.0169779 0.
0.557988 0.0169798 0.
0.55999 0.0169816 0.
0.561992 0.0169829 0.
0.563993 0.0169835 0.
0.565994 0.0169841 0.
0.567994 0.0169843 0.
0.569995 0.0169844 0.
0.571995 0.0169845 0.
0.573995 0.0169845 0.
0.575995 0.0169846 0.
0.577995 0.0169846 0.
0.579995 0.0169849 0.
0.581996 0.0169852 0.
0.583996 0.0169854 0.
0.585996 0.0169856 0.
0.587997 0.0169858 0.
0.589997 0.016986 0.
0.591997 0.0169861 0.
0.593998 0.0169862 0.
0.595999 0.0169862 0.
0.598 0.0169861 0.
0.6 0.016986 0.
0.602001 0.0169861 0.
0.604001 0.0169863 0.
0.606001 0.0169864 0.
0.608001 0.0169863 0.
0.610002 0.0169863 0.
0.612002 0.0169862 0.
0.614002 0.016986 0.
0.616003 0.0169859 0.
0.618003 0.0169856 0.
0.620004 0.0169853 0.
0.622004 0.016985 0.
0.624004 0.0169849 0.
0.626004 0.0169847 0.
0.628003 0.0169846 0.
0.630004 0.0169844 0.
0.632005 0.0169842 0.
0.634006 0.0169838 0.
0.636007 0.016983 0.
0.638009 0.0169822 0.
0.640011 0.0169804 0.
0.642014 0.0169779 0.
0.644017 0.0169753 0.
0.646022 0.0169719 0.
0.648028 0.0169683 0.
0.650034 0.0169646 0.
0.65205 0.0169526 0.
0.654066 0.0169406 0.
0.656089 0.0169244 0.
0.658134 0.0168952 0.
0.660178 0.0168662 0.
0.66224 0.0168352 0.
0.664318 0.0168013 0.
0.666396 0.0167676 0.
0.668569 0.0166731 0.
0.670761 0.01657 0.
0.672975 0.0164556 0.
0.675324 0.0162171 0.
0.677665 0.0159832 0.
0.680217 0.0156856 0.
0.68285 0.0153801 0.
0.685578 0.0149133 0.
0.688451 0.0142142 0.
0.691485 0.0134584 0.
0.694702 0.0126414 0.
0.698132 0.0117 0.
0.701774 0.0106466 0.
0.70558 0.00916112 0.
0.709546 0.00720717 0.
0.714146 0.00510409 0.
0.483141 0.00543493 0.
0.487774 0.00769483 0.
0.491713 0.00973859 0.
0.495398 0.0114328 0.
0.499011 0.0128016 0.
0.502468 0.0139416 0.
0.505764 0.0148927 0.
0.50891 0.0155967 0.
0.511833 0.0162258 0.
0.514623 0.0168405 0.
0.517268 0.017292 0.
0.519824 0.0176386 0.
0.522326 0.0179675 0.
0.524666 0.0182019 0.
0.527017 0.0184407 0.
0.529235 0.0185549 0.
0.531427 0.0186536 0.
0.5336 0.018744 0.
0.535676 0.0187825 0.
0.537753 0.0188212 0.
0.539814 0.0188557 0.
0.541861 0.0188868 0.
0.543907 0.018918 0.
0.545931 0.0189353 0.
0.547948 0.018948 0.
0.549964 0.0189606 0.
0.55197 0.0189648 0.
0.553975 0.0189688 0.
0.55598 0.0189726 0.
0.557984 0.0189752 0.
0.559987 0.0189778 0.
0.561989 0.0189797 0.
0.563991 0.0189806 0.
0.565992 0.0189814 0.
0.567993 0.0189818 0.
0.569994 0.018982 0.
0.571994 0.0189822 0.
0.573994 0.0189822 0.
0.575994 0.0189822 0.
0.577994 0.0189823 0.
0.579994 0.0189827 0.
0.581995 0.0189831 0.
0.583995 0.0189834 0.
0.585996 0.0189835 0.
0.587996 0.0189837 0.
0.589997 0.0189839 0.
0.591997 0.018984 0.
0.593998 0.0189841 0.
0.595998 0.018984 0.
0.597999 0.018984 0.
0.6 0.0189839 0.
0.602001 0.018984 0.
0.604001 0.0189842 0.
0.606001 0.0189843 0.
0.608001 0.0189843 0.
0.610002 0.0189843 0.
0.612002 0.0189842 0.
0.614002 0.018984 0.
0.616003 0.0189838 0.
0.618003 0.0189835 0.
0.620004 0.0189831 0.
0.622005 0.0189827 0.
0.624005 0.0189826 0.
0.626004 0.0189825 0.
0.628004 0.0189823 0.
0.630005 0.0189819 0.
0.632006 0.0189815 0.
0.634007 0.0189808 0.
0.636009 0.0189796 0.
0.638011 0.0189784 0.
0.640015 0.0189759 0.
0.642019 0.0189722 0.
0.644024 0.0189686 0.
0.646032 0.0189633 0.
0.64804 0.0189575 0.
0.650049 0.0189515 0.
0.652073 0.0189338 0.
0.654097 0.0189161 0.
0.656131 0.0188923 0.
0.658194 0.0188508 0.
0.660256 0.0188097 0.
0.662341 0.0187683 0.
0.664446 0.018725 0.
0.666549 0.0186821 0.
0.668794 0.0185301 0.
0.671055 0.0183694 0.
0.673349 0.0181973 0.
0.675756 0.0179146 0.
0.678162 0.0176316 0.
0.680813 0.0172212 0.
0.6835 0.0168176 0.
0.686319 0.0161834 0.
0.689217 0.0154185 0.
0.69233 0.0145715 0.
0.695595 0.0136734 0.
0.69904 0.0126399 0.
0.702674 0.0114415 0.
0.706441 0.0098788 0.
0.710367 0.00789501 0.
0.714735 0.00592814 0.
0.482591 0.00631916 0.
0.486982 0.00838464 0.
0.490878 0.0104355 0.
0.494535 0.012205 0.
0.498117 0.0136673 0.
0.501596 0.0148853 0.
0.504929 0.0159643 0.
0.508086 0.0167788 0.
0.511093 0.0175246 0.
0.513927 0.0182205 0.
0.516677 0.0188022 0.
0.519295 0.0192341 0.
0.521889 0.0196689 0.
0.524305 0.019941 0.
0.526719 0.0202125 0.
0.529004 0.0203774 0.
0.531246 0.0205242 0.
0.533471 0.0206628 0.
0.535568 0.020709 0.
0.537666 0.0207555 0.
0.539746 0.0207996 0.
0.541806 0.0208423 0.
0.543867 0.0208854 0.
0.5459 0.0209102 0.
0.547924 0.0209286 0.
0.549948 0.0209469 0.
0.551957 0.0209535 0.
0.553965 0.0209598 0.
0.555973 0.0209657 0.
0.557978 0.0209694 0.
0.559983 0.0209731 0.
0.561986 0.0209758 0.
0.563988 0.0209771 0.
0.56599 0.0209784 0.
0.567991 0.0209792 0.
0.569992 0.0209796 0.
0.571993 0.02098 0.
0.573993 0.0209801 0.
0.575993 0.0209802 0.
0.577993 0.0209803 0.
0.579994 0.0209807 0.
0.581994 0.0209811 0.
0.583995 0.0209815 0.
0.585995 0.0209816 0.
0.587996 0.0209818 0.
0.589997 0.0209819 0.
0.591997 0.0209821 0.
0.593997 0.0209822 0.
0.595998 0.0209822 0.
0.597999 0.0209821 0.
0.6 0.0209821 0.
0.602 0.0209823 0.
0.604001 0.0209825 0.
0.606001 0.0209826 0.
0.608001 0.0209825 0.
0.610002 0.0209825 0.
0.612002 0.0209823 0.
0.614003 0.0209821 0.
0.616003 0.0209819 0.
0.618004 0.0209815 0.
0.620005 0.0209811 0.
0.622005 0.0209807 0.
0.624005 0.0209805 0.
0.626005 0.0209803 0.
0.628005 0.02098 0.
0.630007 0.0209793 0.
0.632008 0.0209785 0.
0.63401 0.0209774 0.
0.636013 0.0209755 0.
0.638015 0.0209736 0.
0.64002 0.0209699 0.
0.642027 0.0209648 0.
0.644034 0.0209598 0.
0.646045 0.0209516 0.
0.648057 0.0209426 0.
0.65007 0.0209333 0.
0.652105 0.0209077 0.
0.65414 0.0208824 0.
0.656186 0.020849 0.
0.658266 0.0207943 0.
0.660346 0.02074 0.
0.662457 0.0206842 0.
0.664592 0.0206266 0.
0.666725 0.0205699 0.
0.669032 0.0203547 0.
0.671352 0.0201362 0.
0.673717 0.0199118 0.
0.676181 0.0195947 0.
0.678675 0.01925 0.
0.681405 0.018727 0.
0.684166 0.0181976 0.
0.687061 0.0174267 0.
0.690019 0.0165662 0.
0.693159 0.015635 0.
0.696446 0.0146594 0.
0.699894 0.0135579 0.
0.703499 0.0122357 0.
0.707205 0.0106165 0.
0.711092 0.00865839 0.
0.715249 0.00683578 0.
0.482174 0.00732811 0.
0.486342 0.00920457 0.
0.490179 0.0112148 0.
0.493794 0.0130283 0.
0.497364 0.0145508 0.
0.500846 0.0158361 0.
0.504184 0.0170197 0.
0.507362 0.0179448 0.
0.510432 0.0187882 0.
0.513326 0.0195633 0.
0.516152 0.0202318 0.
0.518826 0.0207196 0.
0.521477 0.0212104 0.
0.523949 0.0215522 0.
0.526407 0.0218932 0.
0.528752 0.0221364 0.
0.531037 0.0223505 0.
0.533312 0.0225591 0.
0.535436 0.0226154 0.
0.537562 0.022672 0.
0.539665 0.0227278 0.
0.541739 0.0227849 0.
0.543814 0.0228425 0.
0.545859 0.0228772 0.
0.547893 0.022903 0.
0.549927 0.022929 0.
0.55194 0.0229389 0.
0.553952 0.0229484 0.
0.555963 0.022957 0.
0.55797 0.0229622 0.
0.559977 0.0229674 0.
0.561982 0.0229711 0.
0.563985 0.0229731 0.
0.565988 0.0229751 0.
0.567989 0.0229763 0.
0.569991 0.0229771 0.
0.571992 0.0229779 0.
0.573992 0.0229782 0.
0.575992 0.0229783 0.
0.577992 0.0229785 0.
0.579993 0.0229789 0.
0.581994 0.0229793 0.
0.583995 0.0229797 0.
0.585995 0.0229799 0.
0.587996 0.0229801 0.
0.589996 0.0229802 0.
0.591997 0.0229804 0.
0.593997 0.0229805 0.
0.595998 0.0229806 0.
0.597999 0.0229806 0.
0.6 0.0229806 0.
0.602 0.0229808 0.
0.604 0.022981 0.
0.606001 0.0229811 0.
0.608001 0.0229809 0.
0.610002 0.0229808 0.
0.612002 0.0229806 0.
0.614003 0.0229803 0.
0.616004 0.0229801 0.
0.618004 0.0229797 0.
0.620005 0.0229793 0.
0.622006 0.0229789 0.
0.624006 0.0229785 0.
0.626006 0.0229782 0.
0.628007 0.0229777 0.
0.630009 0.0229765 0.
0.63201 0.0229752 0.
0.634013 0.0229734 0.
0.636017 0.0229705 0.
0.638021 0.0229676 0.
0.640028 0.0229625 0.
0.642037 0.0229556 0.
0.644047 0.0229487 0.
0.646063 0.0229366 0.
0.64808 0.0229232 0.
0.650099 0.0229092 0.
0.652147 0.0228733 0.
0.654195 0.0228377 0.
0.656258 0.0227923 0.
0.658355 0.0227226 0.
0.660452 0.0226534 0.
0.662597 0.0225743 0.
0.664771 0.0224901 0.
0.666949 0.0224009 0.
0.669295 0.0221124 0.
0.671647 0.0218247 0.
0.674077 0.0215257 0.
0.676593 0.0211543 0.
0.679159 0.0207345 0.
0.681922 0.0201552 0.
0.684744 0.019523 0.
0.687698 0.0186529 0.
0.690726 0.017705 0.
0.693886 0.0166993 0.
0.697179 0.0156426 0.
0.70062 0.0144929 0.
0.704198 0.0130794 0.
0.707852 0.0114187 0.
0.711676 0.00951149 0.
0.715686 0.00785053 0.
0.481941 0.00848722 0.
0.485875 0.0101671 0.
0.489599 0.0120763 0.
0.493173 0.0138982 0.
0.496735 0.0154633 0.
0.500187 0.0168087 0.
0.503501 0.0180574 0.
0.506702 0.019079 0.
0.509801 0.0199987 0.
0.512733 0.020832 0.
0.515596 0.0215788 0.
0.518336 0.0221548 0.
0.521044 0.0227227 0.
0.523583 0.0231505 0.
0.526087 0.0235619 0.
0.528494 0.0238871 0.
0.530821 0.0241694 0.
0.533146 0.0244516 0.
0.535302 0.0245212 0.
0.537456 0.0245879 0.
0.539583 0.0246554 0.
0.541671 0.024727 0.
0.54376 0.0247991 0.
0.545817 0.0248439 0.
0.547861 0.0248774 0.
0.549906 0.024911 0.
0.551923 0.0249243 0.
0.553939 0.0249369 0.
0.555953 0.0249484 0.
0.557962 0.024955 0.
0.559971 0.0249616 0.
0.561977 0.0249665 0.
0.563981 0.0249691 0.
0.565985 0.0249717 0.
0.567988 0.0249734 0.
0.569989 0.0249747 0.
0.571991 0.0249759 0.
0.573991 0.0249762 0.
0.575992 0.0249764 0.
0.577992 0.0249767 0.
0.579993 0.0249771 0.
0.581993 0.0249775 0.
0.583994 0.0249779 0.
0.585995 0.0249781 0.
0.587996 0.0249783 0.
0.589996 0.0249785 0.
0.591997 0.0249787 0.
0.593998 0.0249789 0.
0.595998 0.024979 0.
0.597999 0.0249791 0.
0.6 0.0249792 0.
0.602 0.0249793 0.
0.604 0.0249795 0.
0.606001 0.0249795 0.
0.608001 0.0249793 0.
0.610002 0.0249791 0.
0.612003 0.0249788 0.
0.614003 0.0249786 0.
0.616004 0.0249783 0.
0.618005 0.024978 0.
0.620006 0.0249775 0.
0.622007 0.0249771 0.
0.624007 0.0249766 0.
0.626008 0.0249761 0.
0.628008 0.0249755 0.
0.630011 0.0249737 0.
0.632013 0.0249719 0.
0.634016 0.0249695 0.
0.636021 0.0249656 0.
0.638027 0.0249617 0.
0.640036 0.0249551 0.
0.642048 0.0249463 0.
0.64406 0.0249375 0.
0.646081 0.0249215 0.
0.648103 0.0249038 0.
0.650128 0.0248849 0.
0.65219 0.0248387 0.
0.654251 0.0247928 0.
0.65633 0.0247351 0.
0.658445 0.0246503 0.
0.66056 0.0245662 0.
0.662741 0.0244618 0.
0.664955 0.0243504 0.
0.667179 0.0242242 0.
0.669563 0.0238616 0.
0.671948 0.0235042 0.
0.674452 0.0231275 0.
0.677027 0.0226923 0.
0.679672 0.0221649 0.
0.682466 0.0214981 0.
0.68533 0.0207604 0.
0.688301 0.0198421 0.
0.691371 0.0188283 0.
0.694547 0.0177589 0.
0.697842 0.0166379 0.
0.701243 0.0154419 0.
0.704774 0.0139802 0.
0.70838 0.0122989 0.
0.712102 0.0104745 0.
0.715978 0.00894699 0.
0.481871 0.00980306 0.
0.485577 0.0112587 0.
0.489171 0.0130423 0.
0.492702 0.01484 0.
0.496194 0.0164194 0.
0.499599 0.0178094 0.
0.502894 0.0190983 0.
0.506087 0.020191 0.
0.509185 0.0211705 0.
0.512145 0.0220793 0.
0.515036 0.0229039 0.
0.517834 0.0235725 0.
0.520589 0.0242062 0.
0.52319 0.0247124 0.
0.525719 0.0251778 0.
0.528173 0.0255752 0.
0.530525 0.0259027 0.
0.53288 0.0262321 0.
0.535084 0.0263454 0.
0.537279 0.0264477 0.
0.539446 0.0265456 0.
0.541553 0.0266305 0.
0.543663 0.0267161 0.
0.545739 0.0267755 0.
0.5478 0.0268235 0.
0.549862 0.0268719 0.
0.551887 0.0268928 0.
0.553911 0.0269125 0.
0.555932 0.0269303 0.
0.557945 0.0269397 0.
0.559958 0.0269492 0.
0.561968 0.0269564 0.
0.563974 0.0269608 0.
0.56598 0.0269652 0.
0.567983 0.0269681 0.
0.569986 0.0269702 0.
0.571989 0.0269723 0.
0.573989 0.026973 0.
0.57599 0.0269735 0.
0.577991 0.026974 0.
0.579992 0.0269745 0.
0.581993 0.026975 0.
0.583994 0.0269754 0.
0.585994 0.0269758 0.
0.587995 0.0269761 0.
0.589996 0.0269764 0.
0.591997 0.0269766 0.
0.593997 0.0269769 0.
0.595998 0.026977 0.
0.597999 0.0269771 0.
0.6 0.0269773 0.
0.602 0.0269774 0.
0.604 0.0269774 0.
0.606001 0.0269775 0.
0.608001 0.0269772 0.
0.610002 0.0269769 0.
0.612003 0.0269766 0.
0.614004 0.0269763 0.
0.616005 0.0269759 0.
0.618006 0.0269754 0.
0.620007 0.0269748 0.
0.622008 0.0269741 0.
0.624009 0.0269732 0.
0.62601 0.0269724 0.
0.628011 0.0269712 0.
0.630015 0.0269683 0.
0.632018 0.0269653 0.
0.634023 0.0269613 0.
0.636031 0.0269551 0.
0.638039 0.0269489 0.
0.640053 0.026939 0.
0.642071 0.0269265 0.
0.644088 0.026914 0.
0.646118 0.0268895 0.
0.648151 0.0268624 0.
0.650186 0.0268331 0.
0.65227 0.0267685 0.
0.654353 0.0267046 0.
0.656455 0.0266292 0.
0.658597 0.0265293 0.
0.660736 0.0264303 0.
0.662957 0.0262854 0.
0.665209 0.026131 0.
0.667483 0.0259483 0.
0.669892 0.0255395 0.
0.672294 0.0251376 0.
0.674863 0.0246955 0.
0.677486 0.024206 0.
0.680196 0.0235682 0.
0.683012 0.0228227 0.
0.68591 0.0219797 0.
0.688882 0.0210058 0.
0.69197 0.0199407 0.
0.695146 0.0188251 0.
0.698417 0.0176585 0.
0.701781 0.0164248 0.
0.705243 0.0149507 0.
0.708761 0.0132832 0.
0.71236 0.0115661 0.
0.716055 0.0101879 0.
0.48192 0.0111977 0.
0.485385 0.0124575 0.
0.48884 0.0141025 0.
0.492304 0.0158399 0.
0.495726 0.0174168 0.
0.499078 0.0188357 0.
0.502339 0.0201489 0.
0.50551 0.0213096 0.
0.508594 0.0223406 0.
0.511576 0.0233113 0.
0.514482 0.024191 0.
0.517314 0.0249334 0.
0.520084 0.0256141 0.
0.52273 0.0262015 0.
0.525287 0.0267318 0.
0.5278 0.0272181 0.
0.530186 0.0275937 0.
0.532577 0.0279739 0.
0.534842 0.0281452 0.
0.537085 0.028293 0.
0.539298 0.0284307 0.
0.541428 0.0285298 0.
0.54356 0.0286295 0.
0.545657 0.0287045 0.
0.547737 0.0287678 0.
0.549817 0.0288317 0.
0.551851 0.0288608 0.
0.553882 0.0288877 0.
0.55591 0.028912 0.
0.557928 0.0289243 0.
0.559945 0.0289366 0.
0.561958 0.0289463 0.
0.563966 0.0289524 0.
0.565974 0.0289586 0.
0.567979 0.0289627 0.
0.569983 0.0289657 0.
0.571986 0.0289686 0.
0.573987 0.0289697 0.
0.575988 0.0289705 0.
0.577989 0.0289712 0.
0.579991 0.0289718 0.
0.581992 0.0289725 0.
0.583993 0.028973 0.
0.585994 0.0289734 0.
0.587995 0.0289738 0.
0.589996 0.0289742 0.
0.591996 0.0289745 0.
0.593997 0.0289748 0.
0.595998 0.028975 0.
0.597999 0.0289752 0.
0.599999 0.0289754 0.
0.602 0.0289754 0.
0.604 0.0289754 0.
0.606 0.0289754 0.
0.608001 0.028975 0.
0.610002 0.0289747 0.
0.612003 0.0289743 0.
0.614004 0.0289739 0.
0.616005 0.0289735 0.
0.618006 0.0289728 0.
0.620008 0.028972 0.
0.622009 0.0289711 0.
0.624011 0.0289699 0.
0.626012 0.0289686 0.
0.628014 0.028967 0.
0.630019 0.0289628 0.
0.632023 0.0289587 0.
0.63403 0.028953 0.
0.636041 0.0289444 0.
0.638052 0.0289359 0.
0.64007 0.0289228 0.
0.642094 0.0289064 0.
0.644117 0.0288901 0.
0.646156 0.0288568 0.
0.648199 0.02882 0.
0.650247 0.0287795 0.
0.652353 0.0286952 0.
0.654459 0.0286119 0.
0.656589 0.0285174 0.
0.658761 0.0284003 0.
0.660929 0.0282843 0.
0.663197 0.0280878 0.
0.66549 0.0278812 0.
0.667822 0.0276296 0.
0.670271 0.0271681 0.
0.672722 0.0267122 0.
0.675335 0.0261846 0.
0.677977 0.0256396 0.
0.68073 0.0249168 0.
0.683564 0.0241121 0.
0.686481 0.0231856 0.
0.689446 0.0221682 0.
0.692522 0.0210545 0.
0.695688 0.0199059 0.
0.698934 0.0187125 0.
0.70224 0.0174491 0.
0.70562 0.0159852 0.
0.709049 0.014361 0.
0.712501 0.0127646 0.
0.71599 0.011554 0.
0.482007 0.0126616 0.
0.485256 0.0137482 0.
0.488593 0.0152446 0.
0.49197 0.0168942 0.
0.495315 0.0184581 0.
0.498612 0.0198897 0.
0.501833 0.0212212 0.
0.504975 0.0224395 0.
0.508037 0.0235075 0.
0.511032 0.0245209 0.
0.513946 0.0254368 0.
0.516796 0.0262543 0.
0.519575 0.0269962 0.
0.522266 0.0276733 0.
0.524856 0.0282706 0.
0.527424 0.0288486 0.
0.52985 0.0292753 0.
0.532279 0.029702 0.
0.534602 0.0299296 0.
0.536889 0.030122 0.
0.539148 0.0303048 0.
0.541299 0.0304166 0.
0.543452 0.0305294 0.
0.545569 0.0306205 0.
0.547666 0.0307011 0.
0.549762 0.0307827 0.
0.551807 0.0308216 0.
0.553847 0.0308569 0.
0.555884 0.0308889 0.
0.557906 0.0309048 0.
0.559928 0.0309207 0.
0.561946 0.0309335 0.
0.563956 0.030942 0.
0.565967 0.0309505 0.
0.567974 0.0309561 0.
0.569978 0.0309602 0.
0.571983 0.0309644 0.
0.573985 0.0309659 0.
0.575986 0.0309672 0.
0.577988 0.0309683 0.
0.579989 0.0309691 0.
0.581991 0.03097 0.
0.583992 0.0309707 0.
0.585993 0.0309712 0.
0.587994 0.0309717 0.
0.589995 0.0309721 0.
0.591996 0.0309726 0.
0.593997 0.030973 0.
0.595998 0.0309733 0.
0.597998 0.0309735 0.
0.599999 0.0309737 0.
0.602 0.0309737 0.
0.604 0.0309736 0.
0.606 0.0309735 0.
0.608001 0.030973 0.
0.610002 0.0309726 0.
0.612003 0.0309721 0.
0.614004 0.0309716 0.
0.616006 0.0309711 0.
0.618007 0.0309701 0.
0.620009 0.030969 0.
0.622011 0.0309678 0.
0.624013 0.030966 0.
0.626016 0.0309641 0.
0.628019 0.0309618 0.
0.630025 0.0309561 0.
0.632031 0.0309504 0.
0.63404 0.0309427 0.
0.636054 0.030931 0.
0.638069 0.0309194 0.
0.640092 0.0309023 0.
0.642122 0.0308813 0.
0.644152 0.0308603 0.
0.646202 0.0308168 0.
0.648256 0.0307689 0.
0.650318 0.0307153 0.
0.652444 0.0306097 0.
0.654569 0.0305056 0.
0.656727 0.0303913 0.
0.658926 0.0302581 0.
0.661122 0.0301274 0.
0.663434 0.0298767 0.
0.665767 0.0296183 0.
0.668158 0.029299 0.
0.670649 0.0287874 0.
0.673155 0.02827 0.
0.675807 0.027651 0.
0.678481 0.0270158 0.
0.681256 0.0262124 0.
0.684094 0.0253603 0.
0.687026 0.0243824 0.
0.689998 0.0233246 0.
0.693043 0.0221732 0.
0.696168 0.0209996 0.
0.699385 0.0197948 0.
0.702651 0.0185116 0.
0.705949 0.0170639 0.
0.709273 0.015515 0.
0.712593 0.0140417 0.
0.71588 0.0129798 0.
0.482092 0.0141858 0.
0.485176 0.0151181 0.
0.488396 0.0164598 0.
0.491685 0.0180142 0.
0.494966 0.0195547 0.
0.498218 0.0209848 0.
0.501394 0.0223286 0.
0.504493 0.02359 0.
0.507546 0.0246886 0.
0.51055 0.0257281 0.
0.513458 0.026686 0.
0.51632 0.0275708 0.
0.519113 0.0283691 0.
0.521847 0.0291254 0.
0.524476 0.0297841 0.
0.527078 0.0304144 0.
0.529542 0.0308808 0.
0.532002 0.0313407 0.
0.534365 0.0316365 0.
0.536686 0.0318973 0.
0.538986 0.0321491 0.
0.541158 0.0322766 0.
0.543333 0.0324052 0.
0.545471 0.0325159 0.
0.547583 0.0326184 0.
0.549696 0.0327223 0.
0.551753 0.0327734 0.
0.553804 0.0328189 0.
0.555851 0.0328602 0.
0.557879 0.0328806 0.
0.559907 0.0329011 0.
0.561929 0.0329177 0.
0.563944 0.0329291 0.
0.565958 0.0329406 0.
0.567966 0.0329482 0.
0.569972 0.0329538 0.
0.571978 0.0329595 0.
0.573981 0.0329617 0.
0.575984 0.0329635 0.
0.577986 0.0329653 0.
0.579988 0.0329663 0.
0.58199 0.0329674 0.
0.583991 0.0329684 0.
0.585993 0.032969 0.
0.587994 0.0329696 0.
0.589995 0.0329702 0.
0.591996 0.0329708 0.
0.593997 0.0329714 0.
0.595998 0.0329717 0.
0.597998 0.032972 0.
0.599999 0.0329723 0.
0.601999 0.0329721 0.
0.604 0.032972 0.
0.606001 0.0329718 0.
0.608001 0.0329712 0.
0.610002 0.0329706 0.
0.612004 0.0329699 0.
0.614005 0.0329692 0.
0.616007 0.0329685 0.
0.618009 0.0329673 0.
0.620011 0.0329657 0.
0.622013 0.0329642 0.
0.624017 0.0329616 0.
0.62602 0.0329588 0.
0.628024 0.0329555 0.
0.630032 0.032948 0.
0.63204 0.0329404 0.
0.634052 0.03293 0.
0.636072 0.0329144 0.
0.638091 0.0328989 0.
0.64012 0.0328768 0.
0.642157 0.0328501 0.
0.644194 0.0328235 0.
0.646258 0.0327674 0.
0.648326 0.0327063 0.
0.650403 0.0326363 0.
0.652546 0.0325047 0.
0.654687 0.032375 0.
0.65687 0.032234 0.
0.659094 0.0320761 0.
0.661318 0.031918 0.
0.663674 0.0316009 0.
0.66604 0.0312823 0.
0.668472 0.0308937 0.
0.670989 0.0303491 0.
0.673539 0.0297869 0.
0.676221 0.0291012 0.
0.678933 0.0283777 0.
0.681732 0.0275097 0.
0.684581 0.0266006 0.
0.687504 0.0255852 0.
0.690476 0.0244972 0.
0.693515 0.0233171 0.
0.696608 0.0221246 0.
0.699767 0.0209204 0.
0.702987 0.0196282 0.
0.706233 0.0182019 0.
0.709461 0.016732 0.
0.712665 0.0153993 0.
0.715785 0.0144699 0.
0.482226 0.0157645 0.
0.485179 0.0165656 0.
0.488287 0.0177586 0.
0.491492 0.0192167 0.
0.494702 0.0207108 0.
0.497884 0.0221232 0.
0.501009 0.0234741 0.
0.504084 0.0247591 0.
0.507118 0.0258834 0.
0.510108 0.0269465 0.
0.513015 0.0279414 0.
0.515882 0.0288779 0.
0.518684 0.0297272 0.
0.521435 0.0305207 0.
0.524084 0.0312271 0.
0.526707 0.0319219 0.
0.529217 0.0324571 0.
0.531714 0.0329674 0.
0.534124 0.0333347 0.
0.536478 0.0336646 0.
0.538822 0.033992 0.
0.541015 0.0341355 0.
0.543211 0.03428 0.
0.545371 0.0344101 0.
0.547499 0.0345347 0.
0.549629 0.0346609 0.
0.551699 0.034725 0.
0.553761 0.0347806 0.
0.555819 0.0348315 0.
0.557853 0.0348564 0.
0.559886 0.0348814 0.
0.561913 0.0349019 0.
0.563931 0.0349163 0.
0.565948 0.0349307 0.
0.567959 0.0349403 0.
0.569966 0.0349474 0.
0.571974 0.0349545 0.
0.573978 0.0349575 0.
0.575981 0.0349599 0.
0.577984 0.0349622 0.
0.579987 0.0349635 0.
0.581989 0.0349649 0.
0.583991 0.0349661 0.
0.585992 0.0349669 0.
0.587993 0.0349676 0.
0.589995 0.0349683 0.
0.591996 0.034969 0.
0.593997 0.0349697 0.
0.595997 0.0349701 0.
0.597998 0.0349705 0.
0.599999 0.0349708 0.
0.601999 0.0349706 0.
0.604 0.0349704 0.
0.606001 0.0349701 0.
0.608002 0.0349694 0.
0.610003 0.0349686 0.
0.612004 0.0349677 0.
0.614006 0.0349669 0.
0.616007 0.034966 0.
0.61801 0.0349644 0.
0.620013 0.0349625 0.
0.622016 0.0349605 0.
0.62402 0.0349571 0.
0.626025 0.0349536 0.
0.62803 0.0349493 0.
0.63004 0.0349398 0.
0.63205 0.0349303 0.
0.634065 0.0349173 0.
0.636089 0.0348978 0.
0.638113 0.0348783 0.
0.640149 0.0348512 0.
0.642193 0.0348188 0.
0.644237 0.0347865 0.
0.646314 0.0347176 0.
0.648396 0.0346431 0.
0.650489 0.0345561 0.
0.652649 0.0343983 0.
0.654807 0.0342428 0.
0.657015 0.0340745 0.
0.659265 0.0338917 0.
0.661519 0.0337027 0.
0.66392 0.0333165 0.
0.666323 0.0329334 0.
0.668802 0.0324663 0.
0.671348 0.0318682 0.
0.673938 0.0312355 0.
0.676628 0.0304993 0.
0.679357 0.0297165 0.
0.682165 0.0288081 0.
0.685022 0.0278503 0.
0.687934 0.0268045 0.
0.69089 0.0256891 0.
0.693907 0.0244915 0.
0.696974 0.0232869 0.
0.700094 0.0220862 0.
0.703247 0.0208048 0.
0.706431 0.0194132 0.
0.709579 0.018026 0.
0.712671 0.0168236 0.
0.715653 0.0160244 0.
0.482442 0.0173905 0.
0.48528 0.0180847 0.
0.48828 0.0191489 0.
0.491389 0.0205032 0.
0.494509 0.0219278 0.
0.497625 0.0233155 0.
0.50071 0.0246651 0.
0.503753 0.0259575 0.
0.506755 0.0271043 0.
0.509723 0.0281873 0.
0.512624 0.0292101 0.
0.51548 0.0301826 0.
0.518272 0.0310627 0.
0.521024 0.0318929 0.
0.523693 0.0326613 0.
0.526332 0.0334175 0.
0.528883 0.0340197 0.
0.531409 0.0345725 0.
0.533858 0.0350059 0.
0.536236 0.0353918 0.
0.538607 0.0357773 0.
0.540827 0.0359462 0.
0.543046 0.0361137 0.
0.545231 0.0362687 0.
0.547377 0.0364127 0.
0.549525 0.0365583 0.
0.551614 0.0366424 0.
0.553693 0.0367166 0.
0.555768 0.0367854 0.
0.557809 0.0368156 0.
0.55985 0.0368459 0.
0.561884 0.036872 0.
0.563907 0.0368921 0.
0.565931 0.0369123 0.
0.567946 0.0369258 0.
0.569956 0.0369355 0.
0.571966 0.0369452 0.
0.573972 0.0369497 0.
0.575976 0.0369534 0.
0.577981 0.036957 0.
0.579984 0.036959 0.
0.581986 0.036961 0.
0.583989 0.0369627 0.
0.585991 0.0369638 0.
0.587992 0.0369649 0.
0.589994 0.0369658 0.
0.591995 0.0369667 0.
0.593996 0.0369675 0.
0.595997 0.0369681 0.
0.597998 0.0369685 0.
0.599999 0.036969 0.
0.601999 0.0369686 0.
0.604 0.0369683 0.
0.606001 0.0369678 0.
0.608002 0.0369668 0.
0.610003 0.0369658 0.
0.612005 0.0369646 0.
0.614007 0.0369633 0.
0.616009 0.0369619 0.
0.618013 0.0369596 0.
0.620017 0.0369569 0.
0.62202 0.0369541 0.
0.624026 0.0369491 0.
0.626033 0.0369438 0.
0.62804 0.0369376 0.
0.630053 0.0369245 0.
0.632067 0.0369114 0.
0.634088 0.0368933 0.
0.63612 0.0368663 0.
0.638151 0.0368394 0.
0.640196 0.0368057 0.
0.642248 0.0367674 0.
0.6443 0.0367292 0.
0.6464 0.0366371 0.
0.648504 0.0365393 0.
0.650619 0.0364282 0.
0.652795 0.0362512 0.
0.654968 0.036076 0.
0.657205 0.0358754 0.
0.659478 0.0356625 0.
0.661763 0.0354359 0.
0.664188 0.0350007 0.
0.666622 0.0345663 0.
0.669143 0.0340225 0.
0.671712 0.0333769 0.
0.674335 0.0326761 0.
0.677029 0.0318838 0.
0.679766 0.0310387 0.
0.682571 0.0301041 0.
0.685415 0.0291147 0.
0.688305 0.0280484 0.
0.691242 0.0269108 0.
0.694227 0.0257072 0.
0.697258 0.0244975 0.
0.700332 0.0233004 0.
0.703428 0.022039 0.
0.706536 0.0207017 0.
0.709602 0.0194036 0.
0.712593 0.018316 0.
0.715455 0.0176196 0.
0.482713 0.0190588 0.
0.485456 0.0196683 0.
0.48835 0.0206235 0.
0.491349 0.0218636 0.
0.494384 0.0232105 0.
0.497438 0.0245654 0.
0.500474 0.0259002 0.
0.503476 0.0271896 0.
0.50645 0.0283538 0.
0.509393 0.0294501 0.
0.512269 0.0304936 0.
0.515102 0.0314893 0.
0.517883 0.0324007 0.
0.520628 0.0332634 0.
0.523306 0.0340779 0.
0.525956 0.0348736 0.
0.528533 0.0355365 0.
0.53107 0.0361325 0.
0.533552 0.0366327 0.
0.535952 0.0370698 0.
0.538349 0.0375115 0.
0.540609 0.0377261 0.
0.542859 0.0379292 0.
0.545076 0.0381179 0.
0.547244 0.0382824 0.
0.549414 0.0384487 0.
0.551524 0.0385547 0.
0.553622 0.0386495 0.
0.555715 0.0387381 0.
0.557764 0.0387738 0.
0.559812 0.0388096 0.
0.561853 0.0388414 0.
0.563883 0.0388675 0.
0.565914 0.0388937 0.
0.567933 0.0389111 0.
0.569946 0.0389234 0.
0.571959 0.0389357 0.
0.573965 0.0389418 0.
0.575971 0.0389469 0.
0.577977 0.0389517 0.
0.57998 0.0389544 0.
0.581984 0.038957 0.
0.583987 0.0389593 0.
0.585989 0.0389607 0.
0.587991 0.0389621 0.
0.589993 0.0389633 0.
0.591994 0.0389643 0.
0.593996 0.0389654 0.
0.595997 0.038966 0.
0.597998 0.0389666 0.
0.599998 0.0389671 0.
0.601999 0.0389666 0.
0.604 0.0389661 0.
0.606001 0.0389655 0.
0.608002 0.0389642 0.
0.610004 0.0389629 0.
0.612006 0.0389614 0.
0.614008 0.0389596 0.
0.616011 0.0389578 0.
0.618015 0.0389548 0.
0.62002 0.0389513 0.
0.622025 0.0389477 0.
0.624033 0.038941 0.
0.626041 0.038934 0.
0.62805 0.0389257 0.
0.630067 0.0389089 0.
0.632085 0.0388922 0.
0.634111 0.0388688 0.
0.636151 0.0388341 0.
0.638191 0.0387995 0.
0.640245 0.0387589 0.
0.642306 0.0387145 0.
0.644366 0.0386702 0.
0.646491 0.0385517 0.
0.648619 0.0384276 0.
0.650761 0.0382896 0.
0.652958 0.0380918 0.
0.655151 0.0378962 0.
0.657426 0.0376518 0.
0.659733 0.0373942 0.
0.66206 0.0371075 0.
0.664503 0.0366122 0.
0.666949 0.0361269 0.
0.669493 0.0355357 0.
0.672074 0.0348623 0.
0.67472 0.0340972 0.
0.677418 0.0332606 0.
0.680156 0.0323658 0.
0.682946 0.0314092 0.
0.685776 0.0303968 0.
0.688643 0.0293168 0.
0.691542 0.0281638 0.
0.694486 0.0269599 0.
0.697474 0.0257585 0.
0.700503 0.0245659 0.
0.703538 0.0233294 0.
0.706572 0.022054 0.
0.709548 0.0208611 0.
0.712441 0.0198783 0.
0.715203 0.0192633 0.
0.483003 0.0207534 0.
0.485654 0.0212898 0.
0.488444 0.0221458 0.
0.491343 0.0232792 0.
0.494301 0.0245488 0.
0.497293 0.0258605 0.
0.500281 0.0271699 0.
0.503249 0.028452 0.
0.506186 0.0296291 0.
0.509088 0.030736 0.
0.511934 0.0317908 0.
0.514746 0.0328046 0.
0.517515 0.033743 0.
0.520252 0.0346298 0.
0.522941 0.0354782 0.
0.525594 0.0363046 0.
0.528186 0.0370343 0.
0.530734 0.0376814 0.
0.533248 0.0382531 0.
0.535671 0.0387419 0.
0.538093 0.0392383 0.
0.540392 0.0395 0.
0.542673 0.0397379 0.
0.544924 0.0399622 0.
0.547111 0.0401437 0.
0.549301 0.0403278 0.
0.551431 0.0404563 0.
0.553547 0.0405737 0.
0.555659 0.0406854 0.
0.557714 0.0407263 0.
0.55977 0.0407673 0.
0.561819 0.0408049 0.
0.563855 0.0408379 0.
0.565892 0.0408711 0.
0.567916 0.0408932 0.
0.569932 0.0409088 0.
0.571949 0.0409244 0.
0.573957 0.0409323 0.
0.575965 0.0409391 0.
0.577972 0.0409456 0.
0.579977 0.0409491 0.
0.581981 0.0409525 0.
0.583985 0.0409555 0.
0.585988 0.0409573 0.
0.58799 0.0409591 0.
0.589992 0.0409607 0.
0.591994 0.0409619 0.
0.593995 0.0409632 0.
0.595996 0.040964 0.
0.597997 0.0409647 0.
0.599998 0.0409653 0.
0.601999 0.0409647 0.
0.604 0.040964 0.
0.606001 0.0409631 0.
0.608003 0.0409615 0.
0.610005 0.0409599 0.
0.612007 0.0409579 0.
0.61401 0.0409555 0.
0.616014 0.0409531 0.
0.618019 0.0409492 0.
0.620025 0.0409446 0.
0.622031 0.04094 0.
0.624041 0.0409313 0.
0.626051 0.040922 0.
0.628062 0.0409112 0.
0.630085 0.04089 0.
0.632107 0.0408688 0.
0.634139 0.0408393 0.
0.636187 0.0407959 0.
0.638235 0.0407528 0.
0.640297 0.0407055 0.
0.642367 0.0406553 0.
0.644437 0.0406052 0.
0.646584 0.0404564 0.
0.648734 0.0403044 0.
0.650901 0.0401409 0.
0.653118 0.0399267 0.
0.655331 0.039713 0.
0.657645 0.0394212 0.
0.659987 0.0391191 0.
0.662354 0.0387708 0.
0.664814 0.0382158 0.
0.667282 0.037668 0.
0.669843 0.0370228 0.
0.672427 0.0363112 0.
0.675079 0.0355023 0.
0.677779 0.0346347 0.
0.680521 0.0336999 0.
0.683298 0.0327243 0.
0.686109 0.0316934 0.
0.688949 0.0306063 0.
0.691823 0.0294439 0.
0.694719 0.0282395 0.
0.697655 0.0270484 0.
0.700628 0.0258739 0.
0.703608 0.0246686 0.
0.706577 0.0234542 0.
0.709475 0.0223615 0.
0.712274 0.0214849 0.
0.714948 0.0209391 0.
0.483267 0.022462 0.
0.48584 0.0229338 0.
0.488542 0.0237038 0.
0.491357 0.0247445 0.
0.494249 0.0259358 0.
0.49718 0.0271966 0.
0.500119 0.0284778 0.
0.503047 0.0297513 0.
0.505946 0.030935 0.
0.508809 0.0320458 0.
0.511631 0.0331107 0.
0.514425 0.0341389 0.
0.517188 0.0351011 0.
0.519921 0.0360089 0.
0.52261 0.0368854 0.
0.525264 0.0377414 0.
0.527872 0.0385294 0.
0.530432 0.0392232 0.
0.532969 0.0398524 0.
0.535406 0.0403734 0.
0.53784 0.0408992 0.
0.540172 0.0412139 0.
0.542482 0.0414951 0.
0.544763 0.0417636 0.
0.546969 0.0419684 0.
0.549178 0.0421764 0.
0.55133 0.0423346 0.
0.553464 0.0424822 0.
0.555595 0.0426246 0.
0.557659 0.0426706 0.
0.559722 0.0427168 0.
0.561778 0.0427607 0.
0.563822 0.042802 0.
0.565866 0.0428435 0.
0.567895 0.0428714 0.
0.569916 0.0428911 0.
0.571937 0.0429109 0.
0.573948 0.0429212 0.
0.575957 0.04293 0.
0.577966 0.0429384 0.
0.579972 0.0429429 0.
0.581977 0.0429474 0.
0.583982 0.0429512 0.
0.585985 0.0429535 0.
0.587988 0.0429559 0.
0.589991 0.0429578 0.
0.591993 0.0429594 0.
0.593994 0.042961 0.
0.595996 0.0429619 0.
0.597997 0.0429627 0.
0.599998 0.0429635 0.
0.601999 0.0429627 0.
0.604001 0.0429619 0.
0.606002 0.0429608 0.
0.608004 0.0429587 0.
0.610006 0.0429566 0.
0.612009 0.042954 0.
0.614013 0.0429508 0.
0.616017 0.0429476 0.
0.618024 0.0429426 0.
0.620031 0.0429368 0.
0.622039 0.042931 0.
0.624051 0.0429196 0.
0.626064 0.0429076 0.
0.628078 0.0428936 0.
0.630106 0.0428669 0.
0.632134 0.0428403 0.
0.634173 0.0428033 0.
0.636229 0.0427499 0.
0.638285 0.0426968 0.
0.640357 0.0426422 0.
0.642438 0.042586 0.
0.644519 0.042529 0.
0.646682 0.0423402 0.
0.648846 0.0421497 0.
0.651037 0.0419514 0.
0.653283 0.0417138 0.
0.655523 0.0414799 0.
0.657866 0.0411395 0.
0.660231 0.0407938 0.
0.662626 0.0403892 0.
0.665097 0.0397979 0.
0.667583 0.0392019 0.
0.670159 0.0385118 0.
0.672753 0.0377585 0.
0.675405 0.0369082 0.
0.678096 0.0360147 0.
0.680837 0.0350533 0.
0.683611 0.034062 0.
0.686407 0.0330144 0.
0.689222 0.03192 0.
0.692065 0.0307549 0.
0.694931 0.0295523 0.
0.697823 0.0283729 0.
0.700736 0.0272175 0.
0.703653 0.026057 0.
0.706558 0.024907 0.
0.709389 0.0239006 0.
0.712113 0.0231138 0.
0.714713 0.0226304 0.
0.483539 0.0241881 0.
0.48605 0.024609 0.
0.488682 0.0253134 0.
0.491424 0.026266 0.
0.494245 0.0273734 0.
0.497116 0.0285819 0.
0.500006 0.0298329 0.
0.502889 0.0310899 0.
0.505745 0.0322704 0.
0.508572 0.0333841 0.
0.511367 0.0344561 0.
0.51415 0.0354936 0.
0.516898 0.0364725 0.
0.519615 0.0373977 0.
0.522298 0.0382966 0.
0.52495 0.039178 0.
0.52757 0.0400131 0.
0.530132 0.0407367 0.
0.532671 0.0414016 0.
0.535126 0.0419714 0.
0.537576 0.0425406 0.
0.539944 0.0429156 0.
0.542285 0.0432445 0.
0.544601 0.0435632 0.
0.546825 0.0437916 0.
0.549053 0.0440235 0.
0.551227 0.0442112 0.
0.55338 0.0443891 0.
0.555531 0.0445635 0.
0.557603 0.0446148 0.
0.559674 0.0446662 0.
0.561738 0.0447163 0.
0.563789 0.0447659 0.
0.56584 0.0448158 0.
0.567875 0.0448496 0.
0.5699 0.0448735 0.
0.571925 0.0448974 0.
0.573938 0.04491 0.
0.575949 0.0449209 0.
0.57796 0.0449312 0.
0.579967 0.0449367 0.
0.581974 0.0449422 0.
0.583979 0.0449469 0.
0.585983 0.0449498 0.
0.587987 0.0449527 0.
0.589989 0.044955 0.
0.591992 0.0449569 0.
0.593994 0.0449587 0.
0.595995 0.0449599 0.
0.597997 0.0449608 0.
0.599998 0.0449618 0.
0.602 0.0449608 0.
0.604001 0.0449598 0.
0.606003 0.0449584 0.
0.608005 0.0449559 0.
0.610008 0.0449534 0.
0.612011 0.0449502 0.
0.614016 0.0449461 0.
0.616021 0.0449421 0.
0.618029 0.044936 0.
0.620038 0.044929 0.
0.622047 0.0449219 0.
0.624061 0.0449079 0.
0.626076 0.0448932 0.
0.628094 0.044876 0.
0.630128 0.0448438 0.
0.632162 0.0448117 0.
0.634207 0.0447672 0.
0.636271 0.0447037 0.
0.638335 0.0446405 0.
0.640417 0.0445787 0.
0.642508 0.0445165 0.
0.644601 0.0444508 0.
0.64678 0.0442218 0.
0.648959 0.0439925 0.
0.651175 0.0437603 0.
0.653452 0.0434988 0.
0.655723 0.0432393 0.
0.658095 0.0428424 0.
0.660484 0.0424462 0.
0.662906 0.0419802 0.
0.665387 0.0413507 0.
0.667885 0.0407124 0.
0.670461 0.0399922 0.
0.673058 0.0392046 0.
0.675711 0.0383173 0.
0.678392 0.0373995 0.
0.681116 0.0364189 0.
0.68387 0.0354171 0.
0.686654 0.0343615 0.
0.689452 0.0332626 0.
0.692264 0.0320972 0.
0.695091 0.0309054 0.
0.697944 0.0297417 0.
0.700807 0.028607 0.
0.703661 0.0274905 0.
0.706498 0.0264118 0.
0.709259 0.025488 0.
0.711917 0.0247737 0.
0.714458 0.0243366 0.
0.483835 0.0259393 0.
0.486297 0.0263198 0.
0.488868 0.0269641 0.
0.491541 0.0278323 0.
0.494297 0.0288649 0.
0.497112 0.0300238 0.
0.499945 0.0312374 0.
0.502777 0.0324687 0.
0.505591 0.0336438 0.
0.508387 0.0347574 0.
0.511164 0.0358318 0.
0.513918 0.0368706 0.
0.516641 0.037862 0.
0.51934 0.0388023 0.
0.522018 0.0397171 0.
0.524664 0.0406155 0.
0.527275 0.0414795 0.
0.529835 0.0422404 0.
0.532377 0.0429464 0.
0.534848 0.0435641 0.
0.537311 0.044173 0.
0.53971 0.0446062 0.
0.542076 0.0449797 0.
0.544418 0.0453446 0.
0.546655 0.0455897 0.
0.548897 0.0458398 0.
0.551089 0.0460541 0.
0.553255 0.0462581 0.
0.555422 0.0464596 0.
0.557512 0.0465262 0.
0.559601 0.0465914 0.
0.561681 0.0466542 0.
0.56374 0.0467124 0.
0.565799 0.0467708 0.
0.567841 0.0468125 0.
0.569873 0.0468432 0.
0.571905 0.0468742 0.
0.573922 0.0468911 0.
0.575936 0.0469058 0.
0.57795 0.0469198 0.
0.579959 0.0469267 0.
0.581967 0.0469337 0.
0.583975 0.0469396 0.
0.585979 0.0469436 0.
0.587984 0.0469476 0.
0.589988 0.0469506 0.
0.59199 0.046953 0.
0.593993 0.0469554 0.
0.595995 0.0469567 0.
0.597996 0.0469578 0.
0.599998 0.0469589 0.
0.602 0.0469576 0.
0.604002 0.0469564 0.
0.606004 0.0469546 0.
0.608007 0.0469513 0.
0.61001 0.046948 0.
0.612015 0.0469437 0.
0.614021 0.0469382 0.
0.616028 0.0469327 0.
0.618037 0.0469249 0.
0.620049 0.046916 0.
0.62206 0.0469072 0.
0.624079 0.0468885 0.
0.626098 0.0468689 0.
0.628121 0.0468461 0.
0.630163 0.046805 0.
0.632206 0.0467642 0.
0.63426 0.0467106 0.
0.636332 0.0466384 0.
0.638403 0.0465666 0.
0.640505 0.0464883 0.
0.642618 0.046408 0.
0.644734 0.0463206 0.
0.646924 0.0460656 0.
0.649112 0.0458087 0.
0.651348 0.0455452 0.
0.653642 0.045262 0.
0.655938 0.0449806 0.
0.658331 0.044535 0.
0.660739 0.0440902 0.
0.663184 0.0435661 0.
0.665673 0.0429002 0.
0.668182 0.0422194 0.
0.670753 0.0414668 0.
0.673344 0.0406481 0.
0.675983 0.039736 0.
0.678653 0.0387987 0.
0.681362 0.0378033 0.
0.684091 0.0367935 0.
0.686846 0.0357367 0.
0.689622 0.0346387 0.
0.692407 0.0334787 0.
0.695202 0.0322987 0.
0.698006 0.0311575 0.
0.700818 0.0300508 0.
0.703615 0.0289775 0.
0.706387 0.0279621 0.
0.709078 0.0271144 0.
0.711673 0.0264679 0.
0.714163 0.0260695 0.
0.484148 0.0277009 0.
0.486569 0.0280495 0.
0.48909 0.0286445 0.
0.491703 0.0294414 0.
0.494402 0.0304124 0.
0.497155 0.0315177 0.
0.49993 0.0326888 0.
0.502712 0.0338932 0.
0.505488 0.0350571 0.
0.508252 0.0361632 0.
0.510995 0.0372334 0.
0.513717 0.0382718 0.
0.516417 0.0392725 0.
0.519104 0.0402229 0.
0.521766 0.0411473 0.
0.524395 0.042058 0.
0.526996 0.0429494 0.
0.529555 0.0437459 0.
0.532097 0.0444824 0.
0.53458 0.0451355 0.
0.537051 0.0457689 0.
0.539464 0.0462536 0.
0.541839 0.0466716 0.
0.544198 0.0470892 0.
0.546456 0.0473615 0.
0.548717 0.0476367 0.
0.550933 0.0478816 0.
0.553116 0.0481136 0.
0.555299 0.0483439 0.
0.557412 0.0484304 0.
0.559523 0.0485124 0.
0.561622 0.0485901 0.
0.563689 0.048657 0.
0.565756 0.0487244 0.
0.567806 0.0487742 0.
0.569845 0.0488122 0.
0.571884 0.0488505 0.
0.573905 0.0488719 0.
0.575923 0.0488905 0.
0.57794 0.0489082 0.
0.57995 0.0489166 0.
0.581961 0.048925 0.
0.58397 0.0489324 0.
0.585975 0.0489374 0.
0.587981 0.0489424 0.
0.589986 0.0489462 0.
0.591989 0.0489491 0.
0.593992 0.048952 0.
0.595994 0.0489536 0.
0.597996 0.0489548 0.
0.599998 0.048956 0.
0.602 0.0489545 0.
0.604002 0.0489529 0.
0.606005 0.0489508 0.
0.608009 0.0489467 0.
0.610013 0.0489425 0.
0.612018 0.0489371 0.
0.614026 0.0489302 0.
0.616034 0.0489233 0.
0.618046 0.0489137 0.
0.62006 0.0489029 0.
0.622074 0.0488922 0.
0.624096 0.0488687 0.
0.62612 0.0488441 0.
0.628148 0.0488155 0.
0.6302 0.0487651 0.
0.632252 0.048715 0.
0.634315 0.0486519 0.
0.636395 0.0485708 0.
0.638474 0.04849 0.
0.6406 0.0483915 0.
0.64274 0.0482883 0.
0.644884 0.0481735 0.
0.647092 0.0478924 0.
0.649299 0.0476101 0.
0.651556 0.0473058 0.
0.653861 0.0469806 0.
0.656172 0.0466525 0.
0.658576 0.0461787 0.
0.66099 0.045705 0.
0.66345 0.0451344 0.
0.665949 0.0444416 0.
0.668465 0.0437245 0.
0.671029 0.0429459 0.
0.673612 0.0420987 0.
0.676237 0.041167 0.
0.678887 0.0402151 0.
0.681572 0.0392103 0.
0.684281 0.0381942 0.
0.687009 0.0371382 0.
0.689751 0.0360468 0.
0.692503 0.034899 0.
0.695262 0.0337351 0.
0.698022 0.0326161 0.
0.700778 0.031542 0.
0.703516 0.0305159 0.
0.706231 0.029557 0.
0.708861 0.0287715 0.
0.7114 0.0281871 0.
0.713848 0.0278248 0.
0.484451 0.0294696 0.
0.486841 0.0297923 0.
0.489323 0.0303444 0.
0.491887 0.0310809 0.
0.49453 0.0319935 0.
0.497223 0.0330467 0.
0.499942 0.0341786 0.
0.502679 0.0353529 0.
0.505413 0.0364968 0.
0.508137 0.0375925 0.
0.510851 0.0386593 0.
0.51355 0.0396972 0.
0.516232 0.0407038 0.
0.518895 0.0416596 0.
0.521537 0.0425906 0.
0.524152 0.0435131 0.
0.52674 0.044423 0.
0.529292 0.0452444 0.
0.531829 0.046004 0.
0.534318 0.046691 0.
0.536792 0.0473545 0.
0.53922 0.0478934 0.
0.541604 0.0483588 0.
0.543979 0.0488287 0.
0.546259 0.0491306 0.
0.548539 0.0494301 0.
0.550779 0.0497055 0.
0.552979 0.0499638 0.
0.555179 0.0502186 0.
0.557313 0.0503258 0.
0.559443 0.0504259 0.
0.561559 0.0505206 0.
0.563634 0.0505961 0.
0.565709 0.050672 0.
0.567767 0.0507303 0.
0.569814 0.0507764 0.
0.57186 0.0508228 0.
0.573886 0.0508495 0.
0.575907 0.0508727 0.
0.577928 0.0508947 0.
0.57994 0.0509048 0.
0.581953 0.0509149 0.
0.583963 0.0509238 0.
0.585971 0.0509301 0.
0.587978 0.0509364 0.
0.589983 0.0509412 0.
0.591987 0.0509447 0.
0.59399 0.0509483 0.
0.595993 0.0509501 0.
0.597996 0.0509515 0.
0.599998 0.0509529 0.
0.602001 0.050951 0.
0.604003 0.0509491 0.
0.606007 0.0509464 0.
0.608011 0.0509413 0.
0.610016 0.0509362 0.
0.612023 0.0509295 0.
0.614033 0.0509208 0.
0.616043 0.050912 0.
0.618057 0.0509005 0.
0.620074 0.0508877 0.
0.62209 0.0508749 0.
0.624118 0.0508458 0.
0.626146 0.0508154 0.
0.628179 0.05078 0.
0.630241 0.0507192 0.
0.632302 0.0506589 0.
0.634374 0.0505866 0.
0.636462 0.0504976 0.
0.638549 0.0504089 0.
0.640697 0.0502873 0.
0.642861 0.0501601 0.
0.64503 0.0500192 0.
0.647258 0.0497155 0.
0.649483 0.0494089 0.
0.651761 0.0490608 0.
0.654078 0.0486939 0.
0.656405 0.048322 0.
0.658818 0.0478151 0.
0.661238 0.04731 0.
0.663706 0.0466923 0.
0.666206 0.0459736 0.
0.66873 0.0452285 0.
0.671289 0.0444268 0.
0.673863 0.0435568 0.
0.67647 0.0426114 0.
0.679101 0.0416486 0.
0.681762 0.0406393 0.
0.684443 0.0396179 0.
0.687146 0.0385642 0.
0.689859 0.0374795 0.
0.692574 0.0363486 0.
0.695292 0.0352074 0.
0.698008 0.034111 0.
0.700714 0.0330672 0.
0.703395 0.0320861 0.
0.706051 0.0311834 0.
0.708631 0.0304524 0.
0.711128 0.0299203 0.
0.713543 0.029589 0.
0.484731 0.0312469 0.
0.487099 0.0315441 0.
0.489549 0.0320554 0.
0.492068 0.032739 0.
0.494658 0.0336023 0.
0.497297 0.0346102 0.
0.499969 0.0357034 0.
0.502662 0.0368425 0.
0.505357 0.0379664 0.
0.508051 0.0390521 0.
0.51074 0.0401138 0.
0.513416 0.0411493 0.
0.516075 0.0421581 0.
0.518716 0.0431178 0.
0.521339 0.0440535 0.
0.523935 0.0449844 0.
0.526509 0.0459076 0.
0.529052 0.0467516 0.
0.531582 0.0475329 0.
0.534075 0.0482502 0.
0.536553 0.0489411 0.
0.538993 0.0495293 0.
0.541386 0.0500309 0.
0.54377 0.0505323 0.
0.546071 0.0508621 0.
0.54837 0.0511847 0.
0.55063 0.0514906 0.
0.552847 0.0517738 0.
0.555069 0.0520568 0.
0.557217 0.0521936 0.
0.559358 0.0523213 0.
0.561486 0.0524408 0.
0.56357 0.0525253 0.
0.565654 0.0526102 0.
0.567721 0.0526781 0.
0.569776 0.0527338 0.
0.571832 0.0527899 0.
0.573862 0.052823 0.
0.575888 0.0528516 0.
0.577913 0.052879 0.
0.579928 0.052891 0.
0.581943 0.052903 0.
0.583955 0.0529137 0.
0.585964 0.0529216 0.
0.587973 0.0529295 0.
0.589979 0.0529354 0.
0.591984 0.0529398 0.
0.593989 0.0529441 0.
0.595992 0.0529463 0.
0.597995 0.0529479 0.
0.599998 0.0529495 0.
0.602002 0.052947 0.
0.604005 0.0529446 0.
0.606009 0.0529414 0.
0.608015 0.0529351 0.
0.610021 0.0529289 0.
0.61203 0.0529206 0.
0.614042 0.0529096 0.
0.616054 0.0528987 0.
0.618071 0.0528849 0.
0.620091 0.0528698 0.
0.62211 0.0528548 0.
0.624143 0.0528189 0.
0.626176 0.0527815 0.
0.628217 0.0527376 0.
0.630289 0.0526643 0.
0.63236 0.0525915 0.
0.634443 0.0525091 0.
0.63654 0.0524131 0.
0.638637 0.0523174 0.
0.640797 0.0521608 0.
0.642972 0.0519956 0.
0.645157 0.051818 0.
0.647407 0.0514959 0.
0.649651 0.0511728 0.
0.651948 0.0507879 0.
0.654278 0.0503868 0.
0.65662 0.0499788 0.
0.659039 0.0494482 0.
0.661466 0.0489133 0.
0.663942 0.0482539 0.
0.666443 0.0475103 0.
0.668968 0.0467399 0.
0.67152 0.0459204 0.
0.674086 0.045031 0.
0.67668 0.0440738 0.
0.679291 0.0431021 0.
0.681928 0.0420907 0.
0.684583 0.0410704 0.
0.687256 0.0400204 0.
0.689942 0.038942 0.
0.692626 0.037827 0.
0.695308 0.0367096 0.
0.69798 0.0356407 0.
0.700641 0.0346259 0.
0.703273 0.0336846 0.
0.705876 0.0328315 0.
0.708409 0.0321495 0.
0.710869 0.0316654 0.
0.71326 0.0313631 0.
0.485012 0.0330259 0.
0.487363 0.0333012 0.
0.489785 0.03378 0.
0.492265 0.0344219 0.
0.49481 0.0352471 0.
0.497403 0.0362122 0.
0.50003 0.0372646 0.
0.502683 0.0383704 0.
0.505344 0.0394737 0.
0.50801 0.0405462 0.
0.510669 0.0415978 0.
0.513316 0.0426285 0.
0.515953 0.0436372 0.
0.518569 0.0445987 0.
0.521165 0.0455391 0.
0.523742 0.0464741 0.
0.5263 0.0474051 0.
0.528833 0.0482677 0.
0.531355 0.0490669 0.
0.533847 0.0498116 0.
0.536321 0.0505239 0.
0.538767 0.0511447 0.
0.541163 0.0516744 0.
0.543553 0.0522087 0.
0.545877 0.0525761 0.
0.548193 0.0529291 0.
0.550475 0.0532711 0.
0.552713 0.0535821 0.
0.554956 0.0538935 0.
0.557121 0.0540598 0.
0.559273 0.0542152 0.
0.561413 0.0543608 0.
0.563505 0.0544542 0.
0.565598 0.0545481 0.
0.567675 0.0546257 0.
0.569738 0.0546911 0.
0.571803 0.0547568 0.
0.573839 0.0547964 0.
0.575868 0.0548305 0.
0.577898 0.0548632 0.
0.579915 0.0548771 0.
0.581932 0.054891 0.
0.583948 0.0549035 0.
0.585958 0.054913 0.
0.587968 0.0549225 0.
0.589976 0.0549296 0.
0.591981 0.0549348 0.
0.593987 0.05494 0.
0.595991 0.0549425 0.
0.597995 0.0549443 0.
0.599998 0.054946 0.
0.602002 0.0549431 0.
0.604007 0.0549402 0.
0.606011 0.0549363 0.
0.608019 0.054929 0.
0.610026 0.0549216 0.
0.612036 0.0549117 0.
0.614051 0.0548985 0.
0.616065 0.0548854 0.
0.618085 0.0548693 0.
0.620108 0.054852 0.
0.62213 0.0548346 0.
0.624168 0.0547919 0.
0.626207 0.0547474 0.
0.628254 0.054695 0.
0.630337 0.054609 0.
0.632419 0.0545237 0.
0.634512 0.0544315 0.
0.636619 0.0543284 0.
0.638725 0.0542257 0.
0.640899 0.0540319 0.
0.643085 0.0538285 0.
0.645286 0.0536157 0.
0.647557 0.0532723 0.
0.649822 0.0529281 0.
0.652142 0.0525016 0.
0.654487 0.0520667 0.
0.656847 0.0516215 0.
0.659264 0.0510636 0.
0.661691 0.0505019 0.
0.664164 0.0498184 0.
0.666661 0.0490534 0.
0.669183 0.0482601 0.
0.671724 0.0474252 0.
0.674278 0.0465222 0.
0.676856 0.0455594 0.
0.679452 0.0445798 0.
0.682063 0.0435666 0.
0.684691 0.0425484 0.
0.687333 0.0415081 0.
0.689986 0.0404412 0.
0.692638 0.0393427 0.
0.695287 0.0382481 0.
0.69792 0.0372042 0.
0.700538 0.036221 0.
0.703124 0.0353171 0.
0.705683 0.0345049 0.
0.708179 0.0338615 0.
0.710608 0.0334154 0.
0.712978 0.0331359 0.
0.485312 0.0348095 0.
0.487649 0.0350683 0.
0.490048 0.035523 0.
0.492494 0.0361329 0.
0.495 0.0369245 0.
0.497549 0.0378505 0.
0.500135 0.0388658 0.
0.502751 0.0399394 0.
0.505379 0.0410186 0.
0.508009 0.0420729 0.
0.510636 0.043112 0.
0.513255 0.0441373 0.
0.51586 0.0451438 0.
0.518448 0.0461067 0.
0.52102 0.047047 0.
0.523577 0.047983 0.
0.526116 0.0489194 0.
0.528638 0.0497967 0.
0.531151 0.0506079 0.
0.533635 0.0513721 0.
0.5361 0.052103 0.
0.538544 0.0527552 0.
0.540944 0.0533175 0.
0.543338 0.0538831 0.
0.545681 0.0542862 0.
0.548011 0.054668 0.
0.550307 0.0550436 0.
0.552558 0.0553751 0.
0.55481 0.0557077 0.
0.55699 0.0559037 0.
0.559154 0.0560873 0.
0.561308 0.0562609 0.
0.563411 0.056361 0.
0.565515 0.0564617 0.
0.567604 0.0565493 0.
0.56968 0.0566273 0.
0.571756 0.056706 0.
0.5738 0.0567554 0.
0.575837 0.0567982 0.
0.577874 0.0568393 0.
0.579894 0.0568556 0.
0.581915 0.0568719 0.
0.583934 0.0568869 0.
0.585947 0.056899 0.
0.58796 0.0569112 0.
0.58997 0.0569202 0.
0.591977 0.0569266 0.
0.593984 0.0569331 0.
0.595989 0.0569361 0.
0.597994 0.0569381 0.
0.599998 0.0569401 0.
0.602004 0.0569363 0.
0.604009 0.0569326 0.
0.606016 0.0569276 0.
0.608025 0.0569184 0.
0.610035 0.0569092 0.
0.612048 0.0568967 0.
0.614066 0.0568802 0.
0.616084 0.0568637 0.
0.618107 0.0568449 0.
0.620134 0.056825 0.
0.62216 0.0568052 0.
0.624209 0.0567508 0.
0.626258 0.0566947 0.
0.628316 0.0566298 0.
0.630409 0.0565303 0.
0.632501 0.0564317 0.
0.634608 0.0563302 0.
0.636728 0.0562218 0.
0.638847 0.0561138 0.
0.641033 0.0558827 0.
0.643226 0.0556438 0.
0.64544 0.0553979 0.
0.64772 0.0550391 0.
0.65 0.0546798 0.
0.652336 0.0542115 0.
0.654695 0.0537439 0.
0.65707 0.0532636 0.
0.659486 0.0526769 0.
0.661911 0.0520809 0.
0.664377 0.0513757 0.
0.666859 0.0505994 0.
0.669372 0.0497918 0.
0.671905 0.0489445 0.
0.674443 0.048031 0.
0.676998 0.0470664 0.
0.679571 0.0460864 0.
0.68216 0.0450747 0.
0.684762 0.0440581 0.
0.687372 0.0430263 0.
0.689991 0.0419729 0.
0.692607 0.0408976 0.
0.69522 0.0398271 0.
0.697817 0.0388065 0.
0.700394 0.0378508 0.
0.702938 0.0369832 0.
0.705455 0.0362095 0.
0.707919 0.0355933 0.
0.710321 0.0351743 0.
0.712674 0.0349119 0.
0.485637 0.0365985 0.
0.48796 0.036844 0.
0.490336 0.037279 0.
0.492753 0.0378666 0.
0.495224 0.0386325 0.
0.497735 0.0395233 0.
0.500284 0.0405066 0.
0.502859 0.0415467 0.
0.505446 0.0425977 0.
0.508039 0.043633 0.
0.510629 0.0446595 0.
0.513214 0.0456771 0.
0.515788 0.0466766 0.
0.518347 0.0476368 0.
0.520895 0.0485758 0.
0.523432 0.0495132 0.
0.525958 0.0504544 0.
0.528466 0.0513394 0.
0.530963 0.0521584 0.
0.533437 0.0529403 0.
0.535893 0.0536897 0.
0.538334 0.0543659 0.
0.540736 0.0549506 0.
0.543129 0.0555326 0.
0.545477 0.05597 0.
0.547811 0.0563797 0.
0.550119 0.0567899 0.
0.552376 0.0571463 0.
0.554635 0.057504 0.
0.556834 0.057733 0.
0.559016 0.0579476 0.
0.561191 0.0581536 0.
0.563308 0.0582613 0.
0.565426 0.0583696 0.
0.567529 0.0584682 0.
0.569618 0.0585602 0.
0.571707 0.058653 0.
0.573761 0.058713 0.
0.575805 0.0587649 0.
0.577849 0.0588149 0.
0.579873 0.0588337 0.
0.581898 0.0588524 0.
0.583919 0.0588699 0.
0.585936 0.0588848 0.
0.587952 0.0588996 0.
0.589964 0.0589106 0.
0.591972 0.0589184 0.
0.593981 0.0589262 0.
0.595987 0.0589297 0.
0.597993 0.0589319 0.
0.599999 0.0589341 0.
0.602005 0.0589295 0.
0.604012 0.0589249 0.
0.60602 0.0589188 0.
0.608032 0.0589077 0.
0.610044 0.0588966 0.
0.61206 0.0588814 0.
0.614082 0.0588615 0.
0.616103 0.0588415 0.
0.618131 0.05882 0.
0.620161 0.0587976 0.
0.622191 0.0587752 0.
0.624251 0.0587083 0.
0.626312 0.0586396 0.
0.628382 0.058561 0.
0.630486 0.0584469 0.
0.632588 0.0583338 0.
0.634712 0.058222 0.
0.636851 0.0581065 0.
0.638988 0.0579901 0.
0.641191 0.0577192 0.
0.643399 0.0574438 0.
0.64563 0.0571607 0.
0.647915 0.0567722 0.
0.650199 0.056386 0.
0.652539 0.0558936 0.
0.654899 0.0554052 0.
0.657278 0.0548965 0.
0.659692 0.0542886 0.
0.662118 0.0536653 0.
0.664576 0.0529419 0.
0.667046 0.0521529 0.
0.669542 0.0513352 0.
0.672058 0.0504812 0.
0.674583 0.0495606 0.
0.677121 0.048595 0.
0.679671 0.047616 0.
0.682229 0.0466108 0.
0.684801 0.0456017 0.
0.68738 0.0445794 0.
0.689964 0.0435388 0.
0.692544 0.0424856 0.
0.695117 0.0414436 0.
0.697674 0.040449 0.
0.700212 0.0395159 0.
0.702718 0.0386761 0.
0.705196 0.037936 0.
0.70763 0.0373423 0.
0.710009 0.036942 0.
0.712345 0.0366913 0.
0.485963 0.0383881 0.
0.488274 0.0386246 0.
0.490628 0.039046 0.
0.493019 0.0396165 0.
0.495459 0.0403599 0.
0.497933 0.04122 0.
0.500443 0.0421722 0.
0.502977 0.0431799 0.
0.505525 0.044205 0.
0.508081 0.0452222 0.
0.510637 0.0462341 0.
0.513188 0.0472392 0.
0.515729 0.0482296 0.
0.518264 0.0491872 0.
0.520791 0.0501254 0.
0.52331 0.0510616 0.
0.525814 0.0520021 0.
0.528304 0.0528927 0.
0.530786 0.05372 0.
0.533251 0.0545171 0.
0.535697 0.0552782 0.
0.538128 0.0559664 0.
0.540527 0.0565732 0.
0.542918 0.0571745 0.
0.545272 0.0576476 0.
0.547612 0.0580874 0.
0.549933 0.0585348 0.
0.552196 0.0589159 0.
0.554462 0.0592983 0.
0.556679 0.0595593 0.
0.558879 0.0598047 0.
0.561075 0.0600435 0.
0.563204 0.0601573 0.
0.565336 0.0602722 0.
0.567452 0.0603811 0.
0.569552 0.0604866 0.
0.571651 0.060593 0.
0.573715 0.0606647 0.
0.575768 0.0607271 0.
0.577822 0.0607878 0.
0.579849 0.0608089 0.
0.581877 0.06083 0.
0.583902 0.0608501 0.
0.585922 0.060868 0.
0.587941 0.060886 0.
0.589956 0.0608993 0.
0.591966 0.0609086 0.
0.593977 0.0609179 0.
0.595985 0.060922 0.
0.597992 0.0609244 0.
0.599999 0.0609269 0.
0.602008 0.0609212 0.
0.604016 0.0609155 0.
0.606026 0.0609081 0.
0.608041 0.0608947 0.
0.610056 0.0608814 0.
0.612075 0.0608634 0.
0.614101 0.0608399 0.
0.616126 0.0608165 0.
0.618158 0.0607914 0.
0.620192 0.0607656 0.
0.622227 0.0607398 0.
0.624299 0.060659 0.
0.626371 0.060577 0.
0.628452 0.0604847 0.
0.630565 0.0603578 0.
0.632677 0.0602316 0.
0.634816 0.0601096 0.
0.636972 0.0599886 0.
0.639129 0.059862 0.
0.641348 0.0595525 0.
0.64357 0.0592409 0.
0.645817 0.0589209 0.
0.648109 0.058503 0.
0.650399 0.0580846 0.
0.652744 0.0575656 0.
0.655104 0.057057 0.
0.657483 0.0565231 0.
0.659892 0.0558991 0.
0.662313 0.0552532 0.
0.664762 0.0545157 0.
0.667221 0.0537166 0.
0.669701 0.0528897 0.
0.672198 0.052031 0.
0.674703 0.0511083 0.
0.677221 0.0501452 0.
0.67975 0.0491676 0.
0.682283 0.0481681 0.
0.684824 0.0471674 0.
0.687367 0.0461598 0.
0.689918 0.0451349 0.
0.692465 0.0441008 0.
0.695003 0.0430839 0.
0.697521 0.0421166 0.
0.700018 0.0412093 0.
0.70249 0.0403905 0.
0.704934 0.0396759 0.
0.707338 0.0391031 0.
0.709695 0.0387195 0.
0.712015 0.0384797 0.
0.486276 0.0401895 0.
0.488572 0.0404173 0.
0.490905 0.040824 0.
0.493271 0.041377 0.
0.495682 0.0420992 0.
0.498125 0.0429337 0.
0.500602 0.0438587 0.
0.5031 0.0448389 0.
0.505614 0.0458418 0.
0.508132 0.0468392 0.
0.510652 0.0478334 0.
0.513171 0.0488261 0.
0.515688 0.0498078 0.
0.5182 0.0507621 0.
0.520705 0.0516962 0.
0.523202 0.0526294 0.
0.525689 0.0535698 0.
0.528162 0.0544661 0.
0.530628 0.0552985 0.
0.533078 0.056103 0.
0.53551 0.0568723 0.
0.537931 0.0575729 0.
0.540329 0.0582007 0.
0.542719 0.0588199 0.
0.545078 0.0593261 0.
0.547425 0.0597936 0.
0.549753 0.0602681 0.
0.552021 0.0606646 0.
0.554292 0.0610602 0.
0.556524 0.06135 0.
0.558739 0.061627 0.
0.560951 0.0619003 0.
0.563096 0.0620285 0.
0.565242 0.0621557 0.
0.567371 0.0622787 0.
0.569476 0.0623988 0.
0.571583 0.0625199 0.
0.573658 0.0626063 0.
0.575724 0.0626824 0.
0.57779 0.0627569 0.
0.579822 0.0627804 0.
0.581853 0.0628039 0.
0.583882 0.0628267 0.
0.585905 0.0628482 0.
0.587927 0.0628697 0.
0.589945 0.0628857 0.
0.591958 0.0628969 0.
0.593972 0.0629082 0.
0.595982 0.0629128 0.
0.597991 0.0629156 0.
0.6 0.0629183 0.
0.602011 0.0629112 0.
0.604022 0.0629042 0.
0.606035 0.062895 0.
0.608053 0.0628791 0.
0.610071 0.0628631 0.
0.612094 0.0628419 0.
0.614123 0.0628148 0.
0.616152 0.0627877 0.
0.61819 0.0627579 0.
0.620231 0.062727 0.
0.622273 0.0626958 0.
0.624357 0.0625983 0.
0.626441 0.0624998 0.
0.628533 0.0623919 0.
0.630653 0.0622539 0.
0.632772 0.0621167 0.
0.634926 0.0619716 0.
0.637098 0.0618233 0.
0.639272 0.0616689 0.
0.641507 0.0613429 0.
0.643742 0.0610111 0.
0.646 0.0606626 0.
0.648295 0.0602239 0.
0.650591 0.0597805 0.
0.652938 0.059241 0.
0.655299 0.0587129 0.
0.657678 0.0581542 0.
0.660082 0.0575145 0.
0.662496 0.0568501 0.
0.664933 0.0561033 0.
0.667378 0.0552961 0.
0.669842 0.0544616 0.
0.67232 0.0536002 0.
0.674806 0.052676 0.
0.677303 0.051717 0.
0.679809 0.0507455 0.
0.682319 0.0497518 0.
0.684834 0.0487586 0.
0.687348 0.0477632 0.
0.689864 0.0467554 0.
0.692376 0.0457456 0.
0.69488 0.0447505 0.
0.697366 0.0438049 0.
0.699829 0.042921 0.
0.702269 0.0421213 0.
0.704683 0.0414273 0.
0.707064 0.0408729 0.
0.709401 0.0405072 0.
0.711704 0.0402813 0.
0.486585 0.0420015 0.
0.488866 0.0422209 0.
0.49118 0.0426109 0.
0.493527 0.0431498 0.
0.495914 0.0438563 0.
0.498331 0.0446693 0.
0.500779 0.0455724 0.
0.503244 0.0465292 0.
0.505722 0.0475091 0.
0.508205 0.0484862 0.
0.510693 0.0494643 0.
0.513185 0.0504448 0.
0.515675 0.0514141 0.
0.518162 0.0523601 0.
0.520643 0.0532895 0.
0.523118 0.0542203 0.
0.525584 0.0551602 0.
0.528037 0.0560574 0.
0.530484 0.0568898 0.
0.532918 0.0576992 0.
0.535338 0.0584758 0.
0.537749 0.0591865 0.
0.540141 0.0598327 0.
0.542524 0.0604645 0.
0.544882 0.0609944 0.
0.547226 0.0614805 0.
0.549556 0.0619789 0.
0.551835 0.0623972 0.
0.554116 0.062812 0.
0.556365 0.0631339 0.
0.558596 0.0634455 0.
0.560827 0.0637548 0.
0.562987 0.0638988 0.
0.565146 0.0640385 0.
0.567289 0.0641757 0.
0.569401 0.0643104 0.
0.571514 0.0644463 0.
0.5736 0.0645474 0.
0.57568 0.0646374 0.
0.577758 0.0647259 0.
0.579794 0.0647518 0.
0.581829 0.0647778 0.
0.583862 0.0648033 0.
0.585888 0.0648283 0.
0.587914 0.0648534 0.
0.589934 0.0648721 0.
0.59195 0.0648852 0.
0.593967 0.0648984 0.
0.595979 0.0649037 0.
0.59799 0.0649067 0.
0.600001 0.0649097 0.
0.602014 0.0649012 0.
0.604028 0.0648928 0.
0.606043 0.064882 0.
0.608065 0.0648634 0.
0.610086 0.0648448 0.
0.612113 0.0648204 0.
0.614146 0.0647896 0.
0.616179 0.0647589 0.
0.618223 0.0647243 0.
0.62027 0.0646882 0.
0.622319 0.0646514 0.
0.624415 0.0645371 0.
0.626511 0.0644219 0.
0.628615 0.0642987 0.
0.630742 0.0641497 0.
0.632867 0.0640015 0.
0.635038 0.0638313 0.
0.637226 0.0636557 0.
0.639417 0.0634724 0.
0.641669 0.0631249 0.
0.643921 0.0627721 0.
0.646192 0.0623938 0.
0.648491 0.0619315 0.
0.650792 0.0614614 0.
0.653135 0.0609078 0.
0.655491 0.0603677 0.
0.657868 0.0597889 0.
0.660264 0.0591358 0.
0.662668 0.0584557 0.
0.66509 0.0577019 0.
0.66752 0.0568904 0.
0.669965 0.0560526 0.
0.672423 0.0551893 0.
0.67489 0.0542652 0.
0.677364 0.0533108 0.
0.679845 0.0523463 0.
0.682327 0.0513631 0.
0.684815 0.0503803 0.
0.687301 0.0493976 0.
0.689788 0.0484048 0.
0.692268 0.0474174 0.
0.694738 0.0464483 0.
0.697193 0.0455225 0.
0.699627 0.0446542 0.
0.702039 0.0438692 0.
0.704429 0.0431923 0.
0.706789 0.0426524 0.
0.709108 0.042302 0.
0.711395 0.0420914 0.
0.486912 0.0438181 0.
0.489179 0.044032 0.
0.491479 0.0444109 0.
0.493809 0.0449441 0.
0.496175 0.0456371 0.
0.498566 0.0464314 0.
0.500984 0.047315 0.
0.503416 0.0482505 0.
0.50586 0.0492078 0.
0.50831 0.0501676 0.
0.510767 0.0511297 0.
0.513229 0.052093 0.
0.515691 0.0530472 0.
0.518152 0.0539856 0.
0.520606 0.05491 0.
0.523057 0.0558359 0.
0.525499 0.0567702 0.
0.52793 0.0576654 0.
0.530357 0.0584978 0.
0.532775 0.0593104 0.
0.53518 0.0600924 0.
0.537577 0.0608118 0.
0.539959 0.0614692 0.
0.542333 0.0621095 0.
0.544688 0.0626619 0.
0.547029 0.0631684 0.
0.549358 0.0636901 0.
0.551646 0.0641286 0.
0.553934 0.0645603 0.
0.556196 0.0649107 0.
0.558437 0.065249 0.
0.560677 0.0655836 0.
0.562851 0.0657478 0.
0.565022 0.0659046 0.
0.567178 0.0660587 0.
0.569297 0.0662011 0.
0.571417 0.0663439 0.
0.573516 0.0664591 0.
0.575607 0.0665652 0.
0.577699 0.0666705 0.
0.579744 0.0667046 0.
0.581789 0.0667383 0.
0.583831 0.0667705 0.
0.585861 0.0667989 0.
0.587891 0.0668273 0.
0.589916 0.066849 0.
0.591937 0.0668649 0.
0.593957 0.0668808 0.
0.595974 0.0668871 0.
0.597989 0.0668904 0.
0.600004 0.0668936 0.
0.602021 0.0668831 0.
0.604039 0.0668726 0.
0.606059 0.0668593 0.
0.608086 0.0668371 0.
0.610112 0.066815 0.
0.612144 0.066787 0.
0.614183 0.0667525 0.
0.61622 0.0667181 0.
0.618275 0.0666746 0.
0.620334 0.0666282 0.
0.622395 0.0665801 0.
0.624504 0.0664487 0.
0.626612 0.0663171 0.
0.628726 0.066181 0.
0.630858 0.0660272 0.
0.63299 0.0658737 0.
0.635174 0.0656773 0.
0.637374 0.0654737 0.
0.63958 0.0652627 0.
0.641842 0.0649003 0.
0.644106 0.0645308 0.
0.646387 0.0641228 0.
0.648688 0.0636386 0.
0.650992 0.0631445 0.
0.653329 0.0625762 0.
0.655679 0.0620232 0.
0.658048 0.0614282 0.
0.660432 0.060767 0.
0.662826 0.0600751 0.
0.665233 0.0593145 0.
0.667647 0.0584999 0.
0.670073 0.0576606 0.
0.672508 0.0567992 0.
0.67495 0.055879 0.
0.677402 0.0549299 0.
0.679859 0.0539729 0.
0.682313 0.0530001 0.
0.684771 0.0520299 0.
0.687227 0.0510646 0.
0.689683 0.0500898 0.
0.692132 0.0491205 0.
0.694568 0.0481735 0.
0.69699 0.0472681 0.
0.699395 0.0464151 0.
0.701782 0.0456397 0.
0.704148 0.0449757 0.
0.706489 0.0444484 0.
0.708794 0.0441078 0.
0.711067 0.0439088 0.
0.487261 0.0456383 0.
0.489518 0.0458519 0.
0.491804 0.0462265 0.
0.494117 0.0467562 0.
0.496461 0.0474363 0.
0.498827 0.0482174 0.
0.501215 0.0490849 0.
0.503614 0.0500007 0.
0.506026 0.0509396 0.
0.508441 0.0518814 0.
0.510866 0.0528248 0.
0.513299 0.0537713 0.
0.515731 0.0547125 0.
0.518162 0.0556414 0.
0.520587 0.0565559 0.
0.523011 0.0574728 0.
0.525427 0.0584006 0.
0.527837 0.0592937 0.
0.530246 0.0601259 0.
0.532646 0.0609407 0.
0.535034 0.0617246 0.
0.537415 0.0624476 0.
0.539786 0.0631139 0.
0.542149 0.0637621 0.
0.544498 0.0643345 0.
0.546834 0.0648555 0.
0.549159 0.06539 0.
0.55145 0.0658451 0.
0.553738 0.0662887 0.
0.556005 0.0666596 0.
0.558252 0.0670207 0.
0.560499 0.0673794 0.
0.562691 0.0675745 0.
0.564878 0.0677575 0.
0.567051 0.067935 0.
0.569181 0.0680838 0.
0.571312 0.0682332 0.
0.573424 0.0683634 0.
0.575529 0.0684875 0.
0.577635 0.0686111 0.
0.579692 0.0686549 0.
0.581748 0.0686974 0.
0.583799 0.0687371 0.
0.585833 0.0687688 0.
0.587868 0.0688005 0.
0.589898 0.0688254 0.
0.591923 0.0688441 0.
0.593948 0.0688629 0.
0.595968 0.0688701 0.
0.597987 0.0688737 0.
0.600006 0.0688773 0.
0.602028 0.0688646 0.
0.60405 0.0688519 0.
0.606075 0.068836 0.
0.608107 0.0688103 0.
0.610139 0.0687846 0.
0.612177 0.0687527 0.
0.61422 0.0687144 0.
0.616264 0.0686761 0.
0.61833 0.0686226 0.
0.620402 0.0685648 0.
0.622477 0.0685036 0.
0.6246 0.0683536 0.
0.626722 0.0682037 0.
0.628849 0.0680542 0.
0.630991 0.0678955 0.
0.633131 0.0677372 0.
0.63533 0.0675087 0.
0.637542 0.0672722 0.
0.639761 0.067029 0.
0.642029 0.0666479 0.
0.644297 0.0662632 0.
0.646582 0.0658363 0.
0.648883 0.0653395 0.
0.651187 0.0648264 0.
0.653518 0.0642485 0.
0.655859 0.0636853 0.
0.658218 0.0630761 0.
0.66059 0.0624078 0.
0.662969 0.0617088 0.
0.665359 0.0609466 0.
0.667756 0.06013 0.
0.670164 0.0592891 0.
0.672579 0.0584297 0.
0.674997 0.0575148 0.
0.677421 0.0565748 0.
0.67985 0.0556286 0.
0.682278 0.0546676 0.
0.684708 0.0537104 0.
0.687131 0.0527608 0.
0.689554 0.0518063 0.
0.691969 0.0508585 0.
0.694372 0.0499291 0.
0.696763 0.0490388 0.
0.699137 0.0482007 0.
0.701499 0.047433 0.
0.703844 0.0467765 0.
0.706165 0.0462588 0.
0.708453 0.0459246 0.
0.710713 0.0457339 0.
0.487612 0.0474665 0.
0.489858 0.0476796 0.
0.492128 0.0480503 0.
0.494424 0.0485788 0.
0.496747 0.0492499 0.
0.499089 0.050021 0.
0.501448 0.0508733 0.
0.503818 0.0517722 0.
0.506199 0.0526927 0.
0.508584 0.0536163 0.
0.510979 0.054544 0.
0.51338 0.0554766 0.
0.515779 0.056403 0.
0.518179 0.0573183 0.
0.520575 0.0582222 0.
0.522973 0.0591304 0.
0.525367 0.0600516 0.
0.527756 0.0609405 0.
0.530144 0.0617697 0.
0.532524 0.0625836 0.
0.534895 0.063368 0.
0.537262 0.0640948 0.
0.539622 0.0647698 0.
0.541976 0.0654241 0.
0.544318 0.0660079 0.
0.546645 0.0665381 0.
0.548962 0.0670842 0.
0.551253 0.0675576 0.
0.553541 0.0680147 0.
0.555814 0.0684072 0.
0.558068 0.0687914 0.
0.560322 0.0691737 0.
0.562531 0.0693986 0.
0.564734 0.0696078 0.
0.566925 0.0698104 0.
0.569066 0.0699645 0.
0.571207 0.0701185 0.
0.573332 0.0702618 0.
0.575449 0.0704027 0.
0.577567 0.0705433 0.
0.579636 0.0705984 0.
0.581702 0.0706513 0.
0.583763 0.0707 0.
0.585802 0.0707349 0.
0.587842 0.0707698 0.
0.589876 0.0707978 0.
0.591906 0.0708195 0.
0.593936 0.0708411 0.
0.595962 0.0708493 0.
0.597986 0.0708533 0.
0.60001 0.0708572 0.
0.602037 0.0708421 0.
0.604064 0.0708271 0.
0.606094 0.0708086 0.
0.608132 0.0707791 0.
0.61017 0.0707497 0.
0.612213 0.0707141 0.
0.614263 0.0706722 0.
0.616312 0.0706303 0.
0.618389 0.0705649 0.
0.620473 0.070494 0.
0.622561 0.0704182 0.
0.624696 0.0702521 0.
0.626831 0.0700858 0.
0.628971 0.0699253 0.
0.631122 0.0697629 0.
0.633271 0.0696005 0.
0.635486 0.069337 0.
0.63771 0.0690676 0.
0.639942 0.0687948 0.
0.642215 0.068395 0.
0.644487 0.0679922 0.
0.646776 0.0675448 0.
0.649075 0.0670378 0.
0.651379 0.06651 0.
0.653701 0.0659236 0.
0.656032 0.0653525 0.
0.65838 0.0647346 0.
0.660737 0.0640596 0.
0.663101 0.063354 0.
0.665474 0.0625914 0.
0.667852 0.0617765 0.
0.670241 0.060937 0.
0.672635 0.0600801 0.
0.675031 0.0591706 0.
0.677432 0.0582396 0.
0.679833 0.0573057 0.
0.682232 0.0563598 0.
0.684631 0.055417 0.
0.687024 0.0544824 0.
0.689415 0.0535446 0.
0.691797 0.0526165 0.
0.694168 0.0517073 0.
0.69653 0.0508302 0.
0.698878 0.050003 0.
0.701215 0.0492436 0.
0.703537 0.0485908 0.
0.70584 0.0480788 0.
0.708113 0.0477477 0.
0.710358 0.0475641 0.
0.487948 0.0493049 0.
0.49018 0.049516 0.
0.492436 0.049883 0.
0.494716 0.0504122 0.
0.497019 0.0510751 0.
0.499337 0.0518365 0.
0.501672 0.0526757 0.
0.504016 0.0535603 0.
0.506371 0.0544643 0.
0.508728 0.0553735 0.
0.511093 0.056288 0.
0.513462 0.0572043 0.
0.515829 0.0581155 0.
0.518199 0.0590192 0.
0.52057 0.0599143 0.
0.522944 0.0608135 0.
0.525315 0.0617236 0.
0.527683 0.0626042 0.
0.530052 0.0634296 0.
0.532414 0.0642427 0.
0.534769 0.0650285 0.
0.537123 0.0657571 0.
0.53947 0.0664357 0.
0.541809 0.0670928 0.
0.544141 0.0676864 0.
0.546461 0.0682271 0.
0.548771 0.0687836 0.
0.551063 0.0692733 0.
0.553351 0.0697417 0.
0.555625 0.0701505 0.
0.557883 0.0705478 0.
0.560141 0.0709402 0.
0.562362 0.0711917 0.
0.564578 0.0714271 0.
0.566785 0.0716567 0.
0.568939 0.0718194 0.
0.571096 0.0719833 0.
0.573235 0.072142 0.
0.575363 0.0723003 0.
0.577492 0.0724586 0.
0.579572 0.0725293 0.
0.581649 0.0725964 0.
0.583719 0.0726575 0.
0.585765 0.0726956 0.
0.587811 0.0727337 0.
0.589851 0.0727649 0.
0.591887 0.0727896 0.
0.593923 0.0728144 0.
0.595955 0.0728236 0.
0.597985 0.072828 0.
0.600015 0.0728323 0.
0.602048 0.0728147 0.
0.604081 0.0727971 0.
0.606117 0.0727755 0.
0.608161 0.072742 0.
0.610206 0.0727085 0.
0.612257 0.0726691 0.
0.614314 0.0726235 0.
0.616371 0.072578 0.
0.618457 0.0724964 0.
0.62055 0.0724071 0.
0.622648 0.072312 0.
0.624792 0.0721304 0.
0.626935 0.0719487 0.
0.629091 0.071773 0.
0.631261 0.0715992 0.
0.633428 0.0714266 0.
0.635654 0.0711368 0.
0.637887 0.0708422 0.
0.640127 0.0705457 0.
0.642399 0.0701357 0.
0.644672 0.0697207 0.
0.646962 0.069258 0.
0.649261 0.0687417 0.
0.651564 0.0682 0.
0.653879 0.0676054 0.
0.656201 0.0670261 0.
0.658537 0.0664031 0.
0.660879 0.0657257 0.
0.663226 0.0650162 0.
0.665581 0.0642535 0.
0.66794 0.0634395 0.
0.670308 0.0626024 0.
0.672681 0.0617506 0.
0.675055 0.0608506 0.
0.677431 0.0599293 0.
0.679808 0.0590068 0.
0.68218 0.0580736 0.
0.684551 0.0571457 0.
0.686913 0.0562287 0.
0.689273 0.0553078 0.
0.691626 0.0543941 0.
0.693969 0.0535007 0.
0.696305 0.052636 0.
0.698629 0.0518186 0.
0.700944 0.0510662 0.
0.703245 0.0504175 0.
0.705528 0.0499101 0.
0.707786 0.0495782 0.
0.710019 0.049399 0.
0.488281 0.0511504 0.
0.490503 0.0513608 0.
0.492747 0.0517274 0.
0.495011 0.0522576 0.
0.497294 0.0529133 0.
0.499591 0.0536691 0.
0.501904 0.0544989 0.
0.504224 0.0553707 0.
0.506554 0.0562608 0.
0.508884 0.0571561 0.
0.511219 0.0580563 0.
0.513558 0.0589583 0.
0.515896 0.0598575 0.
0.51824 0.0607501 0.
0.520583 0.0616337 0.
0.522931 0.0625192 0.
0.525278 0.0634161 0.
0.527624 0.064288 0.
0.529972 0.065109 0.
0.532315 0.0659194 0.
0.534654 0.0667029 0.
0.536991 0.0674296 0.
0.539321 0.0681106 0.
0.541647 0.0687705 0.
0.543969 0.0693714 0.
0.546279 0.0699193 0.
0.548581 0.0704812 0.
0.55087 0.0709848 0.
0.553154 0.0714629 0.
0.555431 0.0718862 0.
0.557692 0.0722939 0.
0.559953 0.0726971 0.
0.562188 0.0729753 0.
0.564418 0.0732398 0.
0.566641 0.0735008 0.
0.568811 0.0736734 0.
0.570984 0.0738474 0.
0.573138 0.0740213 0.
0.575276 0.0741972 0.
0.577416 0.0743732 0.
0.579508 0.0744596 0.
0.581595 0.0745411 0.
0.583676 0.0746148 0.
0.585727 0.0746562 0.
0.587779 0.0746976 0.
0.589826 0.074732 0.
0.591868 0.0747598 0.
0.59391 0.0747876 0.
0.595947 0.074798 0.
0.597983 0.0748028 0.
0.600019 0.0748075 0.
0.602059 0.0747873 0.
0.604098 0.0747671 0.
0.606141 0.0747424 0.
0.608191 0.0747048 0.
0.610242 0.0746672 0.
0.6123 0.0746239 0.
0.614365 0.0745747 0.
0.616429 0.0745256 0.
0.618525 0.074427 0.
0.620628 0.0743194 0.
0.622736 0.0742052 0.
0.624888 0.074008 0.
0.627039 0.0738109 0.
0.629212 0.0736195 0.
0.631404 0.0734321 0.
0.633593 0.0732431 0.
0.635831 0.0729267 0.
0.638073 0.0726077 0.
0.640323 0.0722891 0.
0.642594 0.0718665 0.
0.644866 0.0714374 0.
0.647153 0.0709668 0.
0.649446 0.0704458 0.
0.651744 0.0698933 0.
0.654051 0.0692931 0.
0.656364 0.0687077 0.
0.658688 0.068081 0.
0.661015 0.0674029 0.
0.663345 0.0666932 0.
0.66568 0.0659344 0.
0.668018 0.0651232 0.
0.670362 0.0642881 0.
0.672712 0.0634416 0.
0.675063 0.0625528 0.
0.677414 0.061646 0.
0.679764 0.0607378 0.
0.682109 0.0598178 0.
0.684453 0.0589022 0.
0.686787 0.0579986 0.
0.689118 0.0570943 0.
0.691443 0.0561972 0.
0.69376 0.0553171 0.
0.696073 0.0544613 0.
0.698375 0.0536518 0.
0.70067 0.0529042 0.
0.702952 0.052257 0.
0.705216 0.0517541 0.
0.707458 0.0514202 0.
0.709678 0.0512426 0.
0.488637 0.0530053 0.
0.490847 0.0532177 0.
0.493078 0.0535878 0.
0.495327 0.0541207 0.
0.497592 0.0547743 0.
0.499871 0.0555288 0.
0.502158 0.0563476 0.
0.504452 0.0572062 0.
0.506755 0.0580826 0.
0.509056 0.0589641 0.
0.511364 0.0598535 0.
0.513673 0.0607437 0.
0.515982 0.0616282 0.
0.518297 0.0625068 0.
0.52061 0.063378 0.
0.52293 0.0642501 0.
0.525251 0.065134 0.
0.527573 0.0659944 0.
0.529898 0.0668064 0.
0.53222 0.0676103 0.
0.534539 0.0683897 0.
0.536858 0.0691144 0.
0.539173 0.0697974 0.
0.541484 0.0704581 0.
0.543793 0.0710623 0.
0.546095 0.071615 0.
0.54839 0.072181 0.
0.550675 0.0726975 0.
0.552955 0.0731852 0.
0.555233 0.0736222 0.
0.557496 0.0740395 0.
0.559759 0.0744511 0.
0.562005 0.0747531 0.
0.564245 0.0750441 0.
0.56648 0.0753307 0.
0.568662 0.0755133 0.
0.570846 0.0756964 0.
0.573012 0.0758828 0.
0.575157 0.0760698 0.
0.577304 0.0762565 0.
0.579412 0.0763627 0.
0.581516 0.0764637 0.
0.583612 0.0765554 0.
0.585672 0.0765999 0.
0.587733 0.0766445 0.
0.589789 0.076682 0.
0.591839 0.0767122 0.
0.59389 0.0767425 0.
0.595936 0.0767538 0.
0.597981 0.0767587 0.
0.600027 0.0767636 0.
0.602075 0.0767412 0.
0.604124 0.0767188 0.
0.606175 0.0766914 0.
0.608235 0.0766496 0.
0.610295 0.076608 0.
0.612362 0.0765607 0.
0.614436 0.0765077 0.
0.616509 0.0764548 0.
0.618621 0.0763361 0.
0.620739 0.076208 0.
0.622862 0.076074 0.
0.625018 0.0758673 0.
0.627173 0.0756601 0.
0.629359 0.0754542 0.
0.631564 0.0752539 0.
0.633771 0.0750489 0.
0.636016 0.0747116 0.
0.638266 0.0743698 0.
0.640522 0.0740309 0.
0.642791 0.0735971 0.
0.645063 0.0731545 0.
0.647346 0.0726761 0.
0.649633 0.072151 0.
0.651924 0.07159 0.
0.654222 0.0709879 0.
0.656526 0.0703992 0.
0.658837 0.0697702 0.
0.661148 0.0690924 0.
0.663461 0.0683829 0.
0.665776 0.0676292 0.
0.668092 0.0668244 0.
0.670413 0.0659962 0.
0.672736 0.0651578 0.
0.675059 0.0642804 0.
0.677382 0.063388 0.
0.679704 0.0624955 0.
0.682019 0.0615912 0.
0.684333 0.0606901 0.
0.68664 0.0597991 0.
0.688945 0.0589074 0.
0.691242 0.058024 0.
0.693532 0.0571584 0.
0.69582 0.0563125 0.
0.6981 0.0555096 0.
0.700373 0.0547662 0.
0.702638 0.0541158 0.
0.704886 0.0536124 0.
0.707112 0.0532739 0.
0.709319 0.053094 0.
0.489018 0.0548723 0.
0.491216 0.0550874 0.
0.493434 0.0554647 0.
0.495667 0.0560036 0.
0.497913 0.0566581 0.
0.500169 0.0574106 0.
0.502432 0.0582202 0.
0.504699 0.059068 0.
0.506973 0.0599315 0.
0.509244 0.0608013 0.
0.511523 0.0616798 0.
0.513803 0.0625553 0.
0.516081 0.0634252 0.
0.518364 0.0642915 0.
0.520646 0.0651516 0.
0.522936 0.0660097 0.
0.525229 0.0668758 0.
0.527525 0.0677209 0.
0.529825 0.0685225 0.
0.532125 0.069319 0.
0.534425 0.0700938 0.
0.536726 0.0708143 0.
0.539025 0.0714951 0.
0.541323 0.072154 0.
0.543621 0.0727602 0.
0.545914 0.0733168 0.
0.548202 0.073886 0.
0.550484 0.0744141 0.
0.552762 0.074909 0.
0.555038 0.0753536 0.
0.557301 0.0757756 0.
0.559564 0.0761913 0.
0.561813 0.0765107 0.
0.564056 0.0768209 0.
0.566295 0.0771282 0.
0.56849 0.0773302 0.
0.570685 0.0775297 0.
0.572865 0.0777328 0.
0.575022 0.0779312 0.
0.57718 0.0781293 0.
0.579307 0.0782572 0.
0.581429 0.0783804 0.
0.583544 0.0784928 0.
0.585614 0.0785409 0.
0.587684 0.0785892 0.
0.589749 0.0786299 0.
0.591809 0.0786628 0.
0.593869 0.0786958 0.
0.595925 0.0787079 0.
0.59798 0.0787131 0.
0.600035 0.078718 0.
0.602093 0.0786934 0.
0.604151 0.0786687 0.
0.606212 0.0786382 0.
0.608281 0.0785921 0.
0.61035 0.0785461 0.
0.612428 0.0784943 0.
0.614511 0.0784369 0.
0.616594 0.0783796 0.
0.618727 0.0782378 0.
0.620864 0.0780869 0.
0.623006 0.0779318 0.
0.625172 0.0777152 0.
0.627337 0.0774983 0.
0.629533 0.0772721 0.
0.631745 0.0770504 0.
0.633959 0.0768204 0.
0.636207 0.0764707 0.
0.638459 0.0761173 0.
0.640717 0.0757654 0.
0.642986 0.0753251 0.
0.645257 0.0748733 0.
0.647537 0.0743908 0.
0.649818 0.0738625 0.
0.652102 0.0732935 0.
0.65439 0.0726902 0.
0.656683 0.0721002 0.
0.658981 0.0714714 0.
0.661278 0.0707958 0.
0.663576 0.0700889 0.
0.665872 0.0693408 0.
0.668166 0.0685429 0.
0.670461 0.0677239 0.
0.672757 0.0668972 0.
0.675051 0.066035 0.
0.677344 0.0651588 0.
0.679635 0.0642812 0.
0.681918 0.0633904 0.
0.684201 0.0625036 0.
0.686476 0.0616278 0.
0.688751 0.0607497 0.
0.691024 0.0598768 0.
0.693288 0.0590234 0.
0.69555 0.0581876 0.
0.697806 0.0573901 0.
0.700057 0.0566498 0.
0.702302 0.0559951 0.
0.704533 0.0554876 0.
0.706745 0.0551418 0.
0.70894 0.0549556 0.
0.489402 0.0567488 0.
0.491588 0.0569675 0.
0.493791 0.057355 0.
0.496007 0.0578998 0.
0.498231 0.0585562 0.
0.500465 0.0593086 0.
0.502702 0.0601121 0.
0.504944 0.0609492 0.
0.507188 0.0618005 0.
0.509432 0.0626591 0.
0.511681 0.0635258 0.
0.513929 0.064388 0.
0.516176 0.0652458 0.
0.518428 0.066101 0.
0.520679 0.0669464 0.
0.522941 0.0677869 0.
0.525206 0.0686355 0.
0.527476 0.0694665 0.
0.529753 0.0702586 0.
0.532032 0.0710465 0.
0.534311 0.0718125 0.
0.536594 0.0725244 0.
0.538879 0.0732014 0.
0.541164 0.0738579 0.
0.543451 0.0744647 0.
0.545738 0.0750245 0.
0.54802 0.0755958 0.
0.550297 0.0761314 0.
0.55257 0.0766295 0.
0.554844 0.0770803 0.
0.557106 0.0775091 0.
0.559369 0.0779305 0.
0.561621 0.0782666 0.
0.563867 0.0785963 0.
0.566111 0.0789243 0.
0.568318 0.0791453 0.
0.570524 0.0793611 0.
0.572719 0.0795815 0.
0.574887 0.0797902 0.
0.577058 0.0799977 0.
0.579202 0.0801453 0.
0.581341 0.0802905 0.
0.583474 0.0804252 0.
0.585554 0.0804766 0.
0.587633 0.0805281 0.
0.589709 0.0805718 0.
0.591777 0.080607 0.
0.593847 0.0806423 0.
0.595913 0.0806552 0.
0.597978 0.0806604 0.
0.600043 0.0806654 0.
0.602111 0.0806388 0.
0.604179 0.0806122 0.
0.60625 0.080579 0.
0.608329 0.0805288 0.
0.610407 0.0804788 0.
0.612495 0.0804226 0.
0.614588 0.0803608 0.
0.616681 0.0802993 0.
0.618833 0.0801338 0.
0.620989 0.0799612 0.
0.623148 0.0797869 0.
0.625324 0.0795615 0.
0.627499 0.0793356 0.
0.629706 0.0790877 0.
0.631925 0.0788445 0.
0.634146 0.0785913 0.
0.636397 0.0782288 0.
0.63865 0.0778632 0.
0.64091 0.0774989 0.
0.643177 0.0770525 0.
0.645445 0.0765926 0.
0.647721 0.0761067 0.
0.649997 0.0755776 0.
0.652276 0.0750032 0.
0.654556 0.0743994 0.
0.656839 0.0738085 0.
0.659123 0.0731812 0.
0.661405 0.0725095 0.
0.663687 0.0718084 0.
0.665966 0.0710701 0.
0.668239 0.0702813 0.
0.670511 0.0694717 0.
0.672781 0.0686562 0.
0.675045 0.067809 0.
0.677307 0.0669498 0.
0.679568 0.0660898 0.
0.68182 0.0652137 0.
0.684073 0.0643385 0.
0.686317 0.0634752 0.
0.688562 0.0626112 0.
0.690805 0.0617506 0.
0.693044 0.0609071 0.
0.695282 0.0600799 0.
0.697515 0.0592873 0.
0.699744 0.0585486 0.
0.701968 0.0578881 0.
0.70418 0.0573755 0.
0.706377 0.0570229 0.
0.70856 0.0568281 0.
0.489773 0.0586341 0.
0.491945 0.0588585 0.
0.494133 0.0592591 0.
0.496329 0.0598099 0.
0.498533 0.0604706 0.
0.500744 0.0612228 0.
0.502957 0.0620183 0.
0.505173 0.062846 0.
0.50739 0.0636884 0.
0.509605 0.0645372 0.
0.511825 0.0653935 0.
0.514043 0.0662439 0.
0.51626 0.0670883 0.
0.518482 0.0679303 0.
0.520704 0.0687616 0.
0.522938 0.0695853 0.
0.525178 0.0704178 0.
0.527423 0.0712347 0.
0.529677 0.0720149 0.
0.531933 0.0727904 0.
0.534193 0.0735459 0.
0.53646 0.0742482 0.
0.538731 0.0749198 0.
0.541006 0.0755725 0.
0.543285 0.0761785 0.
0.545563 0.0767396 0.
0.547838 0.0773113 0.
0.550112 0.0778538 0.
0.552381 0.0783551 0.
0.554653 0.0788106 0.
0.556916 0.0792444 0.
0.559178 0.0796697 0.
0.561433 0.0800189 0.
0.563681 0.0803618 0.
0.565927 0.0807015 0.
0.568145 0.0809391 0.
0.570362 0.081169 0.
0.572568 0.0814036 0.
0.574751 0.0816187 0.
0.576937 0.0818338 0.
0.579097 0.0820062 0.
0.58125 0.0821809 0.
0.583398 0.0823453 0.
0.585488 0.0824003 0.
0.587578 0.0824554 0.
0.589664 0.0825024 0.
0.591743 0.0825399 0.
0.593822 0.0825775 0.
0.5959 0.0825911 0.
0.597976 0.0825962 0.
0.600053 0.082601 0.
0.602132 0.0825727 0.
0.604211 0.0825444 0.
0.606292 0.0825086 0.
0.608379 0.0824544 0.
0.610466 0.0824004 0.
0.612565 0.0823384 0.
0.61467 0.0822701 0.
0.616776 0.0822009 0.
0.61894 0.0820043 0.
0.621106 0.0818018 0.
0.623279 0.0816071 0.
0.62547 0.0813799 0.
0.627659 0.0811518 0.
0.629876 0.0808865 0.
0.632103 0.0806256 0.
0.634332 0.0803529 0.
0.636584 0.0799825 0.
0.638838 0.0796086 0.
0.641099 0.079234 0.
0.643365 0.0787827 0.
0.645632 0.0783165 0.
0.647904 0.0778284 0.
0.650174 0.0772983 0.
0.652446 0.0767201 0.
0.654719 0.0761177 0.
0.656994 0.0755275 0.
0.659266 0.074903 0.
0.661535 0.0742371 0.
0.663803 0.0735435 0.
0.666064 0.0728154 0.
0.668317 0.0720382 0.
0.670565 0.0712425 0.
0.672812 0.0704393 0.
0.675049 0.0696051 0.
0.677282 0.0687599 0.
0.679513 0.0679165 0.
0.681735 0.0670566 0.
0.683958 0.066196 0.
0.686173 0.0653447 0.
0.688387 0.0644911 0.
0.690603 0.0636407 0.
0.692816 0.0628063 0.
0.695029 0.0619867 0.
0.697239 0.0611988 0.
0.699446 0.0604622 0.
0.701651 0.0597956 0.
0.703844 0.0592759 0.
0.706024 0.0589168 0.
0.708193 0.0587111 0.
0.490146 0.0605328 0.
0.492304 0.0607674 0.
0.494474 0.0611842 0.
0.49665 0.0617398 0.
0.498833 0.0624044 0.
0.501023 0.0631556 0.
0.503213 0.0639466 0.
0.505403 0.0647681 0.
0.507593 0.0656024 0.
0.509779 0.066441 0.
0.51197 0.0672851 0.
0.514158 0.0681229 0.
0.516344 0.0689552 0.
0.518536 0.0697851 0.
0.520732 0.0706025 0.
0.522941 0.0714086 0.
0.525154 0.0722226 0.
0.527372 0.0730228 0.
0.529602 0.0737899 0.
0.531836 0.0745526 0.
0.534077 0.075297 0.
0.536329 0.0759872 0.
0.538588 0.0766499 0.
0.540851 0.0772963 0.
0.54312 0.0778992 0.
0.545391 0.0784599 0.
0.547659 0.0790307 0.
0.549927 0.0795791 0.
0.552193 0.0800815 0.
0.554462 0.0805384 0.
0.556724 0.0809781 0.
0.558985 0.0814089 0.
0.561242 0.0817686 0.
0.563492 0.0821203 0.
0.56574 0.0824695 0.
0.567968 0.0827241 0.
0.570195 0.0829694 0.
0.572413 0.0832211 0.
0.574612 0.0834452 0.
0.576815 0.0836692 0.
0.578991 0.0838653 0.
0.581158 0.0840696 0.
0.583322 0.0842653 0.
0.585422 0.0843239 0.
0.587523 0.0843827 0.
0.58962 0.0844329 0.
0.591709 0.0844728 0.
0.593798 0.0845127 0.
0.595886 0.084527 0.
0.597975 0.084532 0.
0.600063 0.0845365 0.
0.602153 0.0845066 0.
0.604243 0.0844766 0.
0.606335 0.0844381 0.
0.60843 0.08438 0.
0.610525 0.084322 0.
0.612636 0.084254 0.
0.614753 0.0841791 0.
0.616873 0.0841007 0.
0.619048 0.0838729 0.
0.621224 0.0836404 0.
0.623411 0.0834258 0.
0.625619 0.0831944 0.
0.627824 0.082962 0.
0.630052 0.0826774 0.
0.632285 0.0823996 0.
0.634522 0.0821094 0.
0.636775 0.0817311 0.
0.639029 0.0813504 0.
0.64129 0.0809688 0.
0.643553 0.0805137 0.
0.645817 0.0800417 0.
0.648085 0.0795531 0.
0.650349 0.0790226 0.
0.652615 0.0784416 0.
0.65488 0.0778426 0.
0.657146 0.0772552 0.
0.659407 0.0766362 0.
0.661662 0.0759785 0.
0.663914 0.0752952 0.
0.666159 0.0745787 0.
0.668391 0.0738139 0.
0.670616 0.0730332 0.
0.672838 0.0722448 0.
0.67505 0.0714271 0.
0.677255 0.0705971 0.
0.679456 0.0697686 0.
0.681651 0.0689227 0.
0.683845 0.0680758 0.
0.68603 0.0672378 0.
0.688215 0.0663968 0.
0.690402 0.0655556 0.
0.692587 0.064728 0.
0.694775 0.063915 0.
0.696962 0.06313 0.
0.699149 0.0623946 0.
0.701334 0.0617231 0.
0.703509 0.0611955 0.
0.70567 0.0608305 0.
0.707822 0.0606091 0.
0.490546 0.062449 0.
0.492686 0.0626988 0.
0.494837 0.0631341 0.
0.496994 0.0636957 0.
0.499156 0.0643663 0.
0.501322 0.0651186 0.
0.503486 0.0659072 0.
0.505648 0.0667215 0.
0.507806 0.0675453 0.
0.509962 0.0683748 0.
0.51212 0.0692072 0.
0.514276 0.0700325 0.
0.516432 0.0708528 0.
0.518596 0.0716676 0.
0.520764 0.0724675 0.
0.522943 0.0732538 0.
0.525127 0.0740482 0.
0.527318 0.0748309 0.
0.529524 0.0755836 0.
0.531737 0.0763311 0.
0.533961 0.0770613 0.
0.536197 0.0777372 0.
0.538442 0.0783891 0.
0.540694 0.0790281 0.
0.542953 0.0796272 0.
0.545216 0.0801866 0.
0.547478 0.0807547 0.
0.549742 0.0813054 0.
0.552003 0.0818073 0.
0.554268 0.0822654 0.
0.556529 0.0827112 0.
0.558789 0.0831474 0.
0.561048 0.0835174 0.
0.563299 0.0838772 0.
0.565548 0.0842348 0.
0.567785 0.0845048 0.
0.57002 0.0847649 0.
0.572247 0.0850325 0.
0.574458 0.0852617 0.
0.57667 0.085491 0.
0.578858 0.0857037 0.
0.581033 0.0859303 0.
0.583209 0.0861496 0.
0.58533 0.0862175 0.
0.587451 0.0862841 0.
0.589566 0.0863405 0.
0.591667 0.0863814 0.
0.593769 0.0864223 0.
0.595871 0.0864365 0.
0.597972 0.0864408 0.
0.600073 0.0864446 0.
0.602177 0.0864138 0.
0.604281 0.0863831 0.
0.606385 0.0863433 0.
0.608492 0.0862836 0.
0.610599 0.086224 0.
0.612726 0.0861467 0.
0.614861 0.0860606 0.
0.616997 0.0859678 0.
0.619181 0.0857193 0.
0.621363 0.0854653 0.
0.623561 0.0852368 0.
0.625779 0.0850026 0.
0.627998 0.084767 0.
0.630233 0.0844646 0.
0.632473 0.0841702 0.
0.634716 0.083864 0.
0.636968 0.0834788 0.
0.639223 0.0830918 0.
0.641484 0.0827032 0.
0.643743 0.082245 0.
0.646004 0.0817683 0.
0.648267 0.0812798 0.
0.650526 0.0807505 0.
0.652786 0.0801691 0.
0.655043 0.0795751 0.
0.657299 0.0789916 0.
0.65955 0.0783793 0.
0.661791 0.0777312 0.
0.664027 0.0770605 0.
0.666252 0.0763584 0.
0.668465 0.0756071 0.
0.670669 0.0748414 0.
0.672866 0.0740694 0.
0.675052 0.0732697 0.
0.677229 0.072458 0.
0.679401 0.0716489 0.
0.681563 0.0708199 0.
0.683726 0.0699865 0.
0.68588 0.0691598 0.
0.688033 0.068331 0.
0.69019 0.0675005 0.
0.692346 0.0666803 0.
0.694505 0.0658741 0.
0.696667 0.0650916 0.
0.69883 0.0643557 0.
0.700994 0.0636775 0.
0.703149 0.063139 0.
0.705292 0.0627667 0.
0.707428 0.0625262 0.
0.490972 0.0643856 0.
0.493094 0.0646555 0.
0.495224 0.065111 0.
0.497359 0.0656814 0.
0.499497 0.0663589 0.
0.501635 0.067111 0.
0.503768 0.0678955 0.
0.505898 0.0687042 0.
0.508023 0.0695196 0.
0.510144 0.0703384 0.
0.51227 0.0711579 0.
0.514392 0.0719703 0.
0.516515 0.0727763 0.
0.518648 0.0735742 0.
0.520785 0.0743561 0.
0.522933 0.0751211 0.
0.525088 0.0758948 0.
0.527254 0.0766589 0.
0.529437 0.0773923 0.
0.53163 0.0781214 0.
0.533836 0.0788361 0.
0.536059 0.0794972 0.
0.538294 0.0801373 0.
0.540534 0.0807682 0.
0.542785 0.0813625 0.
0.54504 0.0819188 0.
0.547296 0.0824824 0.
0.549556 0.0830344 0.
0.551814 0.0835362 0.
0.554078 0.0839949 0.
0.556339 0.084446 0.
0.558599 0.0848866 0.
0.560859 0.0852636 0.
0.563111 0.0856276 0.
0.565362 0.08599 0.
0.567602 0.0862726 0.
0.569839 0.0865428 0.
0.572071 0.0868219 0.
0.574284 0.0870594 0.
0.576499 0.0872963 0.
0.578697 0.0875243 0.
0.580886 0.087773 0.
0.583075 0.0880159 0.
0.585224 0.0880988 0.
0.587371 0.088177 0.
0.589509 0.0882421 0.
0.591624 0.0882841 0.
0.593739 0.088326 0.
0.595854 0.0883402 0.
0.597969 0.0883436 0.
0.600084 0.0883465 0.
0.602202 0.0883148 0.
0.60432 0.0882831 0.
0.606438 0.0882419 0.
0.608559 0.0881808 0.
0.61068 0.0881198 0.
0.612827 0.0880297 0.
0.614982 0.0879281 0.
0.617141 0.0878154 0.
0.619337 0.0875491 0.
0.62153 0.0872782 0.
0.623737 0.0870364 0.
0.625958 0.0867906 0.
0.628178 0.0865417 0.
0.630417 0.0862327 0.
0.632659 0.0859311 0.
0.634904 0.0856137 0.
0.637157 0.0852236 0.
0.639411 0.0848329 0.
0.641672 0.0844397 0.
0.643929 0.083979 0.
0.646189 0.083498 0.
0.64845 0.0830102 0.
0.650705 0.0824822 0.
0.652959 0.0819016 0.
0.655209 0.081314 0.
0.657456 0.0807363 0.
0.659697 0.0801315 0.
0.661926 0.0794934 0.
0.664146 0.0788367 0.
0.666355 0.0781497 0.
0.668548 0.0774136 0.
0.670731 0.0766658 0.
0.672906 0.075913 0.
0.675064 0.0751333 0.
0.677213 0.0743416 0.
0.679353 0.0735534 0.
0.681482 0.0727432 0.
0.683611 0.0719273 0.
0.685732 0.071113 0.
0.687851 0.0702946 0.
0.689975 0.0694745 0.
0.692099 0.0686626 0.
0.694225 0.0678629 0.
0.696357 0.0670831 0.
0.698493 0.0663471 0.
0.700632 0.0656623 0.
0.702766 0.0651098 0.
0.704888 0.0647266 0.
0.707007 0.0644653 0.
0.491401 0.0663453 0.
0.493502 0.0666373 0.
0.49561 0.0671108 0.
0.497719 0.0676893 0.
0.499827 0.068373 0.
0.501933 0.0691251 0.
0.504031 0.0699069 0.
0.506125 0.0707085 0.
0.508215 0.071513 0.
0.510303 0.0723198 0.
0.512393 0.0731259 0.
0.514481 0.0739234 0.
0.516573 0.0747142 0.
0.518673 0.0754944 0.
0.520778 0.0762572 0.
0.5229 0.0770011 0.
0.525032 0.0777548 0.
0.527175 0.0784985 0.
0.529339 0.0792123 0.
0.531515 0.079923 0.
0.533707 0.0806209 0.
0.53592 0.0812664 0.
0.538145 0.0818935 0.
0.540377 0.0825144 0.
0.542619 0.0831029 0.
0.544868 0.0836557 0.
0.54712 0.0842145 0.
0.549376 0.0847666 0.
0.551632 0.085268 0.
0.553895 0.085727 0.
0.556154 0.0861818 0.
0.558413 0.0866253 0.
0.560672 0.0870082 0.
0.562925 0.0873771 0.
0.565177 0.0877447 0.
0.56742 0.088039 0.
0.56966 0.0883193 0.
0.571895 0.0886094 0.
0.574112 0.0888559 0.
0.576329 0.0891001 0.
0.578539 0.089342 0.
0.58074 0.0896122 0.
0.582944 0.0898771 0.
0.585119 0.0899753 0.
0.587293 0.0900645 0.
0.589453 0.0901392 0.
0.591581 0.0901818 0.
0.59371 0.0902244 0.
0.595838 0.0902383 0.
0.597967 0.090241 0.
0.600095 0.090243 0.
0.602227 0.0902105 0.
0.604358 0.0901781 0.
0.60649 0.0901358 0.
0.608625 0.0900739 0.
0.610759 0.0900121 0.
0.612926 0.0899087 0.
0.615103 0.0897918 0.
0.617283 0.0896596 0.
0.619491 0.0893763 0.
0.621696 0.0890889 0.
0.623911 0.0888343 0.
0.626134 0.0885771 0.
0.628357 0.0883145 0.
0.630599 0.0879984 0.
0.632844 0.0876906 0.
0.635091 0.0873636 0.
0.637343 0.0869687 0.
0.639597 0.0865743 0.
0.641856 0.0861775 0.
0.644112 0.0857155 0.
0.646369 0.0852313 0.
0.648628 0.0847443 0.
0.65088 0.0842178 0.
0.653129 0.0836393 0.
0.655374 0.0830584 0.
0.657613 0.0824872 0.
0.659844 0.0818918 0.
0.662063 0.0812659 0.
0.664273 0.0806222 0.
0.666469 0.0799505 0.
0.668646 0.0792308 0.
0.67081 0.078501 0.
0.672964 0.0777677 0.
0.675097 0.0770092 0.
0.677221 0.0762396 0.
0.679333 0.0754735 0.
0.68143 0.0746823 0.
0.683522 0.0738834 0.
0.685608 0.0730822 0.
0.687694 0.0722763 0.
0.689783 0.0714678 0.
0.691872 0.070666 0.
0.693964 0.0698742 0.
0.696062 0.0690971 0.
0.698166 0.0683606 0.
0.700275 0.067671 0.
0.702382 0.0671045 0.
0.704481 0.0667098 0.
0.706579 0.0664299 0.
0.491802 0.0683286 0.
0.493879 0.0686437 0.
0.495959 0.0691319 0.
0.498036 0.0697183 0.
0.50011 0.0704081 0.
0.50218 0.071159 0.
0.504242 0.0719353 0.
0.506299 0.0727271 0.
0.508353 0.0735195 0.
0.510405 0.0743137 0.
0.512461 0.0751056 0.
0.514518 0.0758869 0.
0.51658 0.0766609 0.
0.518653 0.0774224 0.
0.520734 0.0781673 0.
0.522835 0.078891 0.
0.524947 0.0796249 0.
0.527072 0.0803501 0.
0.529222 0.0810444 0.
0.531388 0.0817346 0.
0.53357 0.0824148 0.
0.535775 0.0830453 0.
0.537994 0.0836581 0.
0.54022 0.0842696 0.
0.542456 0.0848535 0.
0.544699 0.0854017 0.
0.546948 0.0859534 0.
0.549201 0.0865031 0.
0.551455 0.087003 0.
0.553716 0.0874616 0.
0.555975 0.0879192 0.
0.558232 0.0883653 0.
0.560493 0.0887535 0.
0.562747 0.0891266 0.
0.565002 0.0894986 0.
0.567249 0.0898033 0.
0.569493 0.0900924 0.
0.571735 0.0903908 0.
0.573959 0.0906434 0.
0.576184 0.0908913 0.
0.578405 0.0911385 0.
0.58062 0.0914151 0.
0.582838 0.0916851 0.
0.585031 0.0918075 0.
0.587221 0.0919224 0.
0.589398 0.0920174 0.
0.59154 0.0920608 0.
0.593683 0.0921043 0.
0.595824 0.0921181 0.
0.597966 0.0921201 0.
0.600107 0.0921214 0.
0.60225 0.0920877 0.
0.604393 0.0920541 0.
0.606537 0.0920104 0.
0.608683 0.0919474 0.
0.610829 0.0918843 0.
0.613015 0.091758 0.
0.61521 0.0916157 0.
0.617408 0.0914608 0.
0.619626 0.0911746 0.
0.621843 0.0908825 0.
0.624067 0.0906222 0.
0.626295 0.090358 0.
0.628524 0.0900853 0.
0.63077 0.0897632 0.
0.633018 0.0894499 0.
0.635268 0.0891136 0.
0.637522 0.0887144 0.
0.639777 0.0883171 0.
0.642035 0.0879171 0.
0.64429 0.0874548 0.
0.646545 0.0869686 0.
0.648801 0.0864834 0.
0.65105 0.0859594 0.
0.653297 0.0853846 0.
0.655538 0.0848117 0.
0.657771 0.084248 0.
0.659995 0.0836607 0.
0.662207 0.0830462 0.
0.664409 0.0824161 0.
0.666597 0.0817588 0.
0.668762 0.0810573 0.
0.670913 0.0803481 0.
0.67305 0.0796342 0.
0.675164 0.0788954 0.
0.677264 0.0781474 0.
0.679352 0.0774032 0.
0.681424 0.0766319 0.
0.683487 0.0758504 0.
0.685539 0.0750629 0.
0.687589 0.07427 0.
0.689642 0.0734735 0.
0.691697 0.0726834 0.
0.693754 0.0719024 0.
0.695815 0.0711323 0.
0.697882 0.0703964 0.
0.699956 0.0697031 0.
0.702032 0.0691228 0.
0.704103 0.0687165 0.
0.706176 0.0684201 0.
0.492164 0.0703371 0.
0.494213 0.0706765 0.
0.49626 0.0711755 0.
0.498303 0.0717688 0.
0.50034 0.0724609 0.
0.50237 0.0732077 0.
0.504394 0.0739761 0.
0.506414 0.0747575 0.
0.508432 0.0755378 0.
0.510451 0.0763174 0.
0.512479 0.077094 0.
0.514512 0.0778588 0.
0.516552 0.078616 0.
0.518605 0.0793598 0.
0.520669 0.0800884 0.
0.522754 0.0807923 0.
0.524852 0.0815066 0.
0.526964 0.0822135 0.
0.529106 0.0828873 0.
0.531264 0.0835568 0.
0.533439 0.0842193 0.
0.535638 0.0848352 0.
0.537851 0.0854358 0.
0.54007 0.0860373 0.
0.542299 0.0866134 0.
0.544537 0.0871541 0.
0.546782 0.0876975 0.
0.549033 0.0882438 0.
0.551287 0.0887419 0.
0.553547 0.0891997 0.
0.555807 0.0896599 0.
0.558066 0.0901077 0.
0.560328 0.0904996 0.
0.562585 0.0908765 0.
0.56484 0.0912521 0.
0.567089 0.0915653 0.
0.569335 0.0918615 0.
0.57158 0.0921673 0.
0.573811 0.0924261 0.
0.576042 0.0926782 0.
0.578273 0.0929303 0.
0.580501 0.0932139 0.
0.582732 0.0934916 0.
0.584942 0.0936381 0.
0.587149 0.093779 0.
0.589343 0.0938957 0.
0.591499 0.0939399 0.
0.593655 0.0939841 0.
0.59581 0.093998 0.
0.597965 0.0939992 0.
0.600119 0.0939998 0.
0.602274 0.0939649 0.
0.604429 0.0939301 0.
0.606584 0.093885 0.
0.608742 0.0938207 0.
0.610899 0.0937565 0.
0.613105 0.0936054 0.
0.615318 0.0934362 0.
0.617533 0.0932583 0.
0.619762 0.0929669 0.
0.621989 0.0926701 0.
0.62422 0.0924052 0.
0.626452 0.092136 0.
0.628685 0.0918561 0.
0.630931 0.091528 0.
0.633179 0.0912088 0.
0.63543 0.0908649 0.
0.637686 0.0904626 0.
0.639942 0.090063 0.
0.642201 0.0896604 0.
0.644456 0.089198 0.
0.646712 0.0887099 0.
0.648966 0.0882268 0.
0.651213 0.0877055 0.
0.653456 0.0871356 0.
0.655693 0.0865723 0.
0.657921 0.086019 0.
0.660138 0.0854419 0.
0.662343 0.084838 0.
0.664539 0.0842206 0.
0.66672 0.0835775 0.
0.668877 0.0828941 0.
0.671019 0.0822062 0.
0.673145 0.0815137 0.
0.675244 0.080793 0.
0.677328 0.0800657 0.
0.679399 0.0793427 0.
0.681451 0.0785902 0.
0.683491 0.0778259 0.
0.685519 0.0770528 0.
0.687541 0.0762735 0.
0.689563 0.0754898 0.
0.691581 0.0747126 0.
0.693601 0.0739426 0.
0.695625 0.0731812 0.
0.697653 0.0724494 0.
0.699689 0.0717565 0.
0.701729 0.0711658 0.
0.703768 0.070747 0.
0.70581 0.0704359 0.
0.492469 0.0723665 0.
0.494487 0.0727282 0.
0.4965 0.0732353 0.
0.498505 0.0738342 0.
0.500503 0.0745256 0.
0.502494 0.0752668 0.
0.504482 0.0760271 0.
0.506472 0.0767963 0.
0.508463 0.077562 0.
0.510458 0.0783271 0.
0.512463 0.0790893 0.
0.514476 0.0798379 0.
0.5165 0.0805785 0.
0.51854 0.0813052 0.
0.520593 0.0820167 0.
0.522669 0.0827001 0.
0.524758 0.0833963 0.
0.526864 0.0840856 0.
0.529002 0.0847394 0.
0.531156 0.0853888 0.
0.533326 0.0860332 0.
0.535518 0.0866359 0.
0.537722 0.0872234 0.
0.539934 0.0878134 0.
0.542157 0.0883811 0.
0.54439 0.0889141 0.
0.546633 0.0894491 0.
0.548884 0.0899913 0.
0.551136 0.0904871 0.
0.553395 0.0909431 0.
0.555654 0.0914036 0.
0.557911 0.0918514 0.
0.560172 0.0922461 0.
0.562428 0.0926266 0.
0.564684 0.0930055 0.
0.566934 0.0933266 0.
0.569181 0.0936297 0.
0.571429 0.0939421 0.
0.573667 0.0942062 0.
0.575904 0.0944614 0.
0.578144 0.0947164 0.
0.580385 0.0950029 0.
0.582628 0.0952834 0.
0.584854 0.0954507 0.
0.587076 0.0956157 0.
0.589287 0.0957535 0.
0.591457 0.0957981 0.
0.593628 0.0958427 0.
0.595796 0.0958569 0.
0.597963 0.0958581 0.
0.60013 0.0958587 0.
0.602297 0.0958233 0.
0.604464 0.095788 0.
0.606631 0.0957422 0.
0.6088 0.0956774 0.
0.610969 0.0956127 0.
0.613192 0.0954376 0.
0.615421 0.0952438 0.
0.617653 0.0950467 0.
0.619893 0.0947531 0.
0.622131 0.094454 0.
0.624368 0.0941853 0.
0.626604 0.0939119 0.
0.628841 0.0936258 0.
0.631088 0.0932921 0.
0.633336 0.0929673 0.
0.635586 0.0926163 0.
0.63784 0.092212 0.
0.640095 0.0918113 0.
0.642352 0.0914071 0.
0.644605 0.0909458 0.
0.646859 0.0904577 0.
0.649113 0.089977 0.
0.651358 0.0894586 0.
0.6536 0.0888938 0.
0.655834 0.0883403 0.
0.658057 0.0877977 0.
0.66027 0.0872319 0.
0.662467 0.0866408 0.
0.664653 0.0860369 0.
0.666827 0.0854073 0.
0.66898 0.0847414 0.
0.671116 0.0840735 0.
0.673236 0.0834015 0.
0.675327 0.0826987 0.
0.677402 0.0819901 0.
0.679462 0.0812887 0.
0.6815 0.0805566 0.
0.683525 0.0798092 0.
0.685534 0.0790504 0.
0.687534 0.0782847 0.
0.689531 0.0775131 0.
0.691523 0.0767492 0.
0.693512 0.0759918 0.
0.695502 0.0752405 0.
0.697493 0.0745133 0.
0.699489 0.0738222 0.
0.701491 0.0732255 0.
0.703497 0.072796 0.
0.705507 0.0724727 0.
0.492696 0.074407 0.
0.494682 0.0747897 0.
0.496659 0.0753076 0.
0.498629 0.0759128 0.
0.500593 0.0766034 0.
0.502555 0.077339 0.
0.504516 0.0780901 0.
0.506483 0.0788486 0.
0.508455 0.0796018 0.
0.510432 0.080353 0.
0.512423 0.0810997 0.
0.514425 0.0818291 0.
0.516439 0.0825529 0.
0.518473 0.0832631 0.
0.52052 0.0839579 0.
0.522592 0.084624 0.
0.524679 0.0853039 0.
0.526782 0.0859725 0.
0.528915 0.0866033 0.
0.531065 0.0872307 0.
0.53323 0.087859 0.
0.535417 0.0884487 0.
0.537615 0.0890225 0.
0.539824 0.0896039 0.
0.542046 0.0901637 0.
0.544274 0.0906851 0.
0.546514 0.0912117 0.
0.548759 0.0917488 0.
0.551007 0.0922409 0.
0.553262 0.0926935 0.
0.555521 0.0931542 0.
0.557779 0.0936024 0.
0.560039 0.0939991 0.
0.562298 0.0943843 0.
0.564554 0.0947671 0.
0.566808 0.0950932 0.
0.569057 0.0954001 0.
0.571303 0.0957137 0.
0.573545 0.0959801 0.
0.575787 0.0962355 0.
0.578032 0.0964889 0.
0.580279 0.0967768 0.
0.582527 0.0970597 0.
0.584765 0.0972465 0.
0.587002 0.0974357 0.
0.589229 0.0975959 0.
0.591414 0.0976418 0.
0.593599 0.0976878 0.
0.595781 0.097703 0.
0.597961 0.0977048 0.
0.600141 0.0977059 0.
0.60232 0.0976699 0.
0.604499 0.097634 0.
0.606679 0.0975873 0.
0.60886 0.0975215 0.
0.61104 0.0974558 0.
0.613275 0.0972557 0.
0.615516 0.0970379 0.
0.617757 0.0968238 0.
0.620001 0.0965287 0.
0.622245 0.0962289 0.
0.624487 0.0959611 0.
0.626726 0.0956865 0.
0.628967 0.0953977 0.
0.631215 0.0950622 0.
0.633466 0.0947319 0.
0.635718 0.0943762 0.
0.637971 0.0939693 0.
0.640226 0.0935664 0.
0.642481 0.0931615 0.
0.644734 0.0927011 0.
0.646986 0.0922136 0.
0.649235 0.091737 0.
0.651475 0.091224 0.
0.653712 0.0906657 0.
0.655945 0.0901206 0.
0.658166 0.0895901 0.
0.660377 0.0890359 0.
0.662571 0.0884549 0.
0.664751 0.0878658 0.
0.666919 0.0872503 0.
0.669066 0.0866015 0.
0.671197 0.0859541 0.
0.673314 0.0853041 0.
0.675401 0.0846196 0.
0.677474 0.0839271 0.
0.679529 0.0832438 0.
0.681561 0.0825331 0.
0.683577 0.0818045 0.
0.685573 0.0810628 0.
0.687559 0.0803128 0.
0.689539 0.0795522 0.
0.691511 0.0788001 0.
0.693477 0.0780537 0.
0.695442 0.0773118 0.
0.697404 0.0765907 0.
0.699368 0.0759005 0.
0.701336 0.075298 0.
0.70331 0.0748567 0.
0.705289 0.0745208 0.
CELLS 5000 10000
1 0
1 1
1 2
1 3
1 4
1 5
1 6
1 7
1 8
1 9
1 10
1 11
1 12
1 13
1 14
1 15
1 16
1 17
1 18
1 19
1 20
1 21
1 22
1 23
1 24
1 25
1 26
1 27
1 28
1 29
1 30
1 31
1 32
1 33
1 34
1 35
1 36
1 37
1 38
1 39
1 40
1 41
1 42
1 43
1 44
1 45
1 46
1 47
1 48
1 49
1 50
1 51
1 52
1 53
1 54
1 55
1 56
1 57
1 58
1 59
1 60
1 61
1 62
1 63
1 64
1 65
1 66
1 67
1 68
1 69
1 70
1 71
1 72
1 73
1 74
1 75
1 76
1 77
1 78
1 79
1 80
1 81
1 82
1 83
1 84
1 85
1 86
1 87
1 88
1 89
1 90
1 91
1 92
1 93
1 94
1 95
1 96
1 97
1 98
1 99
1 100
1 101
1 102
1 103
1 104
1 105
1 106
1 107
1 108
1 109
1 110
1 111
1 112
1 113
1 114
1 115
1 116
1 117
1 118
1 119
1 120
1 121
1 122
1 123
1 124
1 125
1 126
1 127
1 128
1 129
1 130
1 131
1 132
1 133
1 134
1 135
1 136
1 137
1 138
1 139
1 140
1 141
1 142
1 143
1 144
1 145
1 146
1 147
1 148
1 149
1 150
1 151
1 152
1 153
1 154
1 155
1 156
1 157
1 158
1 159
1 160
1 161
1 162
1 163
1 164
1 165
1 166
1 167
1 168
1 169
1 170
1 171
1 172
1 173
1 174
1 175
1 176
1 177
1 178
1 179
1 180
1 181
1 182
1 183
1 184
1 185
1 186
1 187
1 188
1 189
1 190
1 191
1 192
1 193
1 194
1 195
1 196
1 197
1 198
1 199
1 200
1 201
1 202
1 203
1 204
1 205
1 206
1 207
1 208
1 209
1 210
1 211
1 212
1 213
1 214
1 215
1 216
1 217
1 218
1 219
1 220
1 221
1 222
1 223
1 224
1 225
1 226
1 227
1 228
1 229
1 230
1 231
1 232
1 233
1 234
1 235
1 236
1 237
1 238
1 239
1 240
1 241
1 242
1 243
1 244
1 245
1 246
1 247
1 248
1 249
1 250
1 251
1 252
1 253
1 254
1 255
1 256
1 257
1 258
1 259
1 260
1 261
1 262
1 263
1 264
1 265
1 266
1 267
1 268
1 269
1 270
1 271
1 272
1 273
1 274
1 275
1 276
1 277
1 278
1 279
1 280
1 281
1 282
1 283
1 284
1 285
1 286
1 287
1 288
1 289
1 290
1 291
1 292
1 293
1 294
1 295
1 296
1 297
1 298
1 299
1 300
1 301
1 302
1 303
1 304
1 305
1 306
1 307
1 308
1 309
1 310
1 311
1 312
1 313
1 314
1 315
1 316
1 317
1 318
1 319
1 320
1 321
1 322
1 323
1 324
1 325
1 326
1 327
1 328
1 329
1 330
1 331
1 332
1 333
1 334
1 335
1 336
1 337
1 338
1 339
1 340
1 341
1 342
1 343
1 344
1 345
1 346
1 347
1 348
1 349
1 350
1 351
1 352
1 353
1 354
1 355
1 356
1 357
1 358
1 359
1 360
1 361
1 362
1 363
1 364
1 365
1 366
1 367
1 368
1 369
1 370
1 371
1 372
1 373
1 374
1 375
1 376
1 377
1 378
1 379
1 380
1 381
1 382
1 383
1 384
1 385
1 386
1 387
1 388
1 389
1 390
1 391
1 392
1 393
1 394
1 395
1 396
1 397
1 398
1 399
1 400
1 401
1 402
1 403
1 404
1 405
1 406
1 407
1 408
1 409
1 410
1 411
1 412
1 413
1 414
1 415
1 416
1 417
1 418
1 419
1 420
1 421
1 422
1 423
1 424
1 425
1 426
1 427
1 428
1 429
1 430
1 431
1 432
1 433
1 434
1 435
1 436
1 437
1 438
1 439
1 440
1 441
1 442
1 443
1 444
1 445
1 446
1 447
1 448
1 449
1 450
1 451
1 452
1 453
1 454
1 455
1 456
1 457
1 458
1 459
1 460
1 461
1 462
1 463
1 464
1 465
1 466
1 467
1 468
1 469
1 470
1 471
1 472
1 473
1 474
1 475
1 476
1 477
1 478
1 479
1 480
1 481
1 482
1 483
1 484
1 485
1 486
1 487
1 488
1 489
1 490
1 491
1 492
1 493
1 494
1 495
1 496
1 497
1 498
1 499
1 500
1 501
1 502
1 503
1 504
1 505
1 506
1 507
1 508
1 509
1 510
1 511
1 512
1 513
1 514
1 515
1 516
1 517
1 518
1 519
1 520
1 521
1 522
1 523
1 524
1 525
1 526
1 527
1 528
1 529
1 530
1 531
1 532
1 533
1 534
1 535
1 536
1 537
1 538
1 539
1 540
1 541
1 542
1 543
1 544
1 545
1 546
1 547
1 548
1 549
1 550
1 551
1 552
1 553
1 554
1 555
1 556
1 557
1 558
1 559
1 560
1 561
1 562
1 563
1 564
1 565
1 566
1 567
1 568
1 569
1 570
1 571
1 572
1 573
1 574
1 575
1 576
1 577
1 578
1 579
1 580
1 581
1 582
1 583
1 584
1 585
1 586
1 587
1 588
1 589
1 590
1 591
1 592
1 593
1 594
1 595
1 596
1 597
1 598
1 599
1 600
1 601
1 602
1 603
1 604
1 605
1 606
1 607
1 608
1 609
1 610
1 611
1 612
1 613
1 614
1 615
1 616
1 617
1 618
1 619
1 620
1 621
1 622
1 623
1 624
1 625
1 626
1 627
1 628
1 629
1 630
1 631
1 632
1 633
1 634
1 635
1 636
1 637
1 638
1 639
1 640
1 641
1 642
1 643
1 644
1 645
1 646
1 647
1 648
1 649
1 650
1 651
1 652
1 653
1 654
1 655
1 656
1 657
1 658
1 659
1 660
1 661
1 662
1 663
1 664
1 665
1 666
1 667
1 668
1 669
1 670
1 671
1 672
1 673
1 674
1 675
1 676
1 677
1 678
1 679
1 680
1 681
1 682
1 683
1 684
1 685
1 686
1 687
1 688
1 689
1 690
1 691
1 692
1 693
1 694
1 695
1 696
1 697
1 698
1 699
1 700
1 701
1 702
1 703
1 704
1 705
1 706
1 707
1 708
1 709
1 710
1 711
1 712
1 713
1 714
1 715
1 716
1 717
1 718
1 719
1 720
1 721
1 722
1 723
1 724
1 725
1 726
1 727
1 728
1 729
1 730
1 731
1 732
1 733
1 734
1 735
1 736
1 737
1 738
1 739
1 740
1 741
1 742
1 743
1 744
1 745
1 746
1 747
1 748
1 749
1 750
1 751
1 752
1 753
1 754
1 755
1 756
1 757
1 758
1 759
1 760
1 761
1 762
1 763
1 764
1 765
1 766
1 767
1 768
1 769
1 770
1 771
1 772
1 773
1 774
1 775
1 776
1 777
1 778
1 779
1 780
1 781
1 782
1 783
1 784
1 785
1 786
1 787
1 788
1 789
1 790
1 791
1 792
1 793
1 794
1 795
1 796
1 797
1 798
1 799
1 800
1 801
1 802
1 803
1 804
1 805
1 806
1 807
1 808
1 809
1 810
1 811
1 812
1 813
1 814
1 815
1 816
1 817
1 818
1 819
1 820
1 821
1 822
1 823
1 824
1 825
1 826
1 827
1 828
1 829
1 830
1 831
1 832
1 833
1 834
1 835
1 836
1 837
1 838
1 839
1 840
1 841
1 842
1 843
1 844
1 845
1 846
1 847
1 848
1 849
1 850
1 851
1 852
1 853
1 854
1 855
1 856
1 857
1 858
1 859
1 860
1 861
1 862
1 863
1 864
1 865
1 866
1 867
1 868
1 869
1 870
1 871
1 872
1 873
1 874
1 875
1 876
1 877
1 878
1 879
1 880
1 881
1 882
1 883
1 884
1 885
1 886
1 887
1 888
1 889
1 890
1 891
1 892
1 893
1 894
1 895
1 896
1 897
1 898
1 899
1 900
1 901
1 902
1 903
1 904
1 905
1 906
1 907
1 908
1 909
1 910
1 911
1 912
1 913
1 914
1 915
1 916
1 917
1 918
1 919
1 920
1 921
1 922
1 923
1 924
1 925
1 926
1 927
1 928
1 929
1 930
1 931
1 932
1 933
1 934
1 935
1 936
1 937
1 938
1 939
1 940
1 941
1 942
1 943
1 944
1 945
1 946
1 947
1 948
1 949
1 950
1 951
1 952
1 953
1 954
1 955
1 956
1 957
1 958
1 959
1 960
1 961
1 962
1 963
1 964
1 965
1 966
1 967
1 968
1 969
1 970
1 971
1 972
1 973
1 974
1 975
1 976
1 977
1 978
1 979
1 980
1 981
1 982
1 983
1 984
1 985
1 986
1 987
1 988
1 989
1 990
1 991
1 992
1 993
1 994
1 995
1 996
1 997
1 998
1 999
1 1000
1 1001
1 1002
1 1003
1 1004
1 1005
1 1006
1 1007
1 1008
1 1009
1 1010
1 1011
1 1012
1 1013
1 1014
1 1015
1 1016
1 1017
1 1018
1 1019
1 1020
1 1021
1 1022
1 1023
1 1024
1 1025
1 1026
1 1027
1 1028
1 1029
1 1030
1 1031
1 1032
1 1033
1 1034
1 1035
1 1036
1 1037
1 1038
1 1039
1 1040
1 1041
1 1042
1 1043
1 1044
1 1045
1 1046
1 1047
1 1048
1 1049
1 1050
1 1051
1 1052
1 1053
1 1054
1 1055
1 1056
1 1057
1 1058
1 1059
1 1060
1 1061
1 1062
1 1063
1 1064
1 1065
1 1066
1 1067
1 1068
1 1069
1 1070
1 1071
1 1072
1 1073
1 1074
1 1075
1 1076
1 1077
1 1078
1 1079
1 1080
1 1081
1 1082
1 1083
1 1084
1 1085
1 1086
1 1087
1 1088
1 1089
1 1090
1 1091
1 1092
1 1093
1 1094
1 1095
1 1096
1 1097
1 1098
1 1099
1 1100
1 1101
1 1102
1 1103
1 1104
1 1105
1 1106
1 1107
1 1108
1 1109
1 1110
1 1111
1 1112
1 1113
1 1114
1 1115
1 1116
1 1117
1 1118
1 1119
1 1120
1 1121
1 1122
1 1123
1 1124
1 1125
1 1126
1 1127
1 1128
1 1129
1 1130
1 1131
1 1132
1 1133
1 1134
1 1135
1 1136
1 1137
1 1138
1 1139
1 1140
1 1141
1 1142
1 1143
1 1144
1 1145
1 1146
1 1147
1 1148
1 1149
1 1150
1 1151
1 1152
1 1153
1 1154
1 1155
1 1156
1 1157
1 1158
1 1159
1 1160
1 1161
1 1162
1 1163
1 1164
1 1165
1 1166
1 1167
1 1168
1 1169
1 1170
1 1171
1 1172
1 1173
1 1174
1 1175
1 1176
1 1177
1 1178
1 1179
1 1180
1 1181
1 1182
1 1183
1 1184
1 1185
1 1186
1 1187
1 1188
1 1189
1 1190
1 1191
1 1192
1 1193
1 1194
1 1195
1 1196
1 1197
1 1198
1 1199
1 1200
1 1201
1 1202
1 1203
1 1204
1 1205
1 1206
1 1207
1 1208
1 1209
1 1210
1 1211
1 1212
1 1213
1 1214
1 1215
1 1216
1 1217
1 1218
1 1219
1 1220
1 1221
1 1222
1 1223
1 1224
1 1225
1 1226
1 1227
1 1228
1 1229
1 1230
1 1231
1 1232
1 1233
1 1234
1 1235
1 1236
1 1237
1 1238
1 1239
1 1240
1 1241
1 1242
1 1243
1 1244
1 1245
1 1246
1 1247
1 1248
1 1249
1 1250
1 1251
1 1252
1 1253
1 1254
1 1255
1 1256
1 1257
1 1258
1 1259
1 1260
1 1261
1 1262
1 1263
1 1264
1 1265
1 1266
1 1267
1 1268
1 1269
1 1270
1 1271
1 1272
1 1273
1 1274
1 1275
1 1276
1 1277
1 1278
1 1279
1 1280
1 1281
1 1282
1 1283
1 1284
1 1285
1 1286
1 1287
1 1288
1 1289
1 1290
1 1291
1 1292
1 1293
1 1294
1 1295
1 1296
1 1297
1 1298
1 1299
1 1300
1 1301
1 1302
1 1303
1 1304
1 1305
1 1306
1 1307
1 1308
1 1309
1 1310
1 1311
1 1312
1 1313
1 1314
1 1315
1 1316
1 1317
1 1318
1 1319
1 1320
1 1321
1 1322
1 1323
1 1324
1 1325
1 1326
1 1327
1 1328
1 1329
1 1330
1 1331
1 1332
1 1333
1 1334
1 1335
1 1336
1 1337
1 1338
1 1339
1 1340
1 1341
1 1342
1 1343
1 1344
1 1345
1 1346
1 1347
1 1348
1 1349
1 1350
1 1351
1 1352
1 1353
1 1354
1 1355
1 1356
1 1357
1 1358
1 1359
1 1360
1 1361
1 1362
1 1363
1 1364
1 1365
1 1366
1 1367
1 1368
1 1369
1 1370
1 1371
1 1372
1 1373
1 1374
1 1375
1 1376
1 1377
1 1378
1 1379
1 1380
1 1381
1 1382
1 1383
1 1384
1 1385
1 1386
1 1387
1 1388
1 1389
1 1390
1 1391
1 1392
1 1393
1 1394
1 1395
1 1396
1 1397
1 1398
1 1399
1 1400
1 1401
1 1402
1 1403
1 1404
1 1405
1 1406
1 1407
1 1408
1 1409
1 1410
1 1411
1 1412
1 1413
1 1414
1 1415
1 1416
1 1417
1 1418
1 1419
1 1420
1 1421
1 1422
1 1423
1 1424
1 1425
1 1426
1 1427
1 1428
1 1429
1 1430
1 1431
1 1432
1 1433
1 1434
1 1435
1 1436
1 1437
1 1438
1 1439
1 1440
1 1441
1 1442
1 1443
1 1444
1 1445
1 1446
1 1447
1 1448
1 1449
1 1450
1 1451
1 1452
1 1453
1 1454
1 1455
1 1456
1 1457
1 1458
1 1459
1 1460
1 1461
1 1462
1 1463
1 1464
1 1465
1 1466
1 1467
1 1468
1 1469
1 1470
1 1471
1 1472
1 1473
1 1474
1 1475
1 1476
1 1477
1 1478
1 1479
1 1480
1 1481
1 1482
1 1483
1 1484
1 1485
1 1486
1 1487
1 1488
1 1489
1 1490
1 1491
1 1492
1 1493
1 1494
1 1495
1 1496
1 1497
1 1498
1 1499
1 1500
1 1501
1 1502
1 1503
1 1504
1 1505
1 1506
1 1507
1 1508
1 1509
1 1510
1 1511
1 1512
1 1513
1 1514
1 1515
1 1516
1 1517
1 1518
1 1519
1 1520
1 1521
1 1522
1 1523
1 1524
1 1525
1 1526
1 1527
1 1528
1 1529
1 1530
1 1531
1 1532
1 1533
1 1534
1 1535
1 1536
1 1537
1 1538
1 1539
1 1540
1 1541
1 1542
1 1543
1 1544
1 1545
1 1546
1 1547
1 1548
1 1549
1 1550
1 1551
1 1552
1 1553
1 1554
1 1555
1 1556
1 1557
1 1558
1 1559
1 1560
1 1561
1 1562
1 1563
1 1564
1 1565
1 1566
1 1567
1 1568
1 1569
1 1570
1 1571
1 1572
1 1573
1 1574
1 1575
1 1576
1 1577
1 1578
1 1579
1 1580
1 1581
1 1582
1 1583
1 1584
1 1585
1 1586
1 1587
1 1588
1 1589
1 1590
1 1591
1 1592
1 1593
1 1594
1 1595
1 1596
1 1597
1 1598
1 1599
1 1600
1 1601
1 1602
1 1603
1 1604
1 1605
1 1606
1 1607
1 1608
1 1609
1 1610
1 1611
1 1612
1 1613
1 1614
1 1615
1 1616
1 1617
1 1618
1 1619
1 1620
1 1621
1 1622
1 1623
1 1624
1 1625
1 1626
1 1627
1 1628
1 1629
1 1630
1 1631
1 1632
1 1633
1 1634
1 1635
1 1636
1 1637
1 1638
1 1639
1 1640
1 1641
1 1642
1 1643
1 1644
1 1645
1 1646
1 1647
1 1648
1 1649
1 1650
1 1651
1 1652
1 1653
1 1654
1 1655
1 1656
1 1657
1 1658
1 1659
1 1660
1 1661
1 1662
1 1663
1 1664
1 1665
1 1666
1 1667
1 1668
1 1669
1 1670
1 1671
1 1672
1 1673
1 1674
1 1675
1 1676
1 1677
1 1678
1 1679
1 1680
1 1681
1 1682
1 1683
1 1684
1 1685
1 1686
1 1687
1 1688
1 1689
1 1690
1 1691
1 1692
1 1693
1 1694
1 1695
1 1696
1 1697
1 1698
1 1699
1 1700
1 1701
1 1702
1 1703
1 1704
1 1705
1 1706
1 1707
1 1708
1 1709
1 1710
1 1711
1 1712
1 1713
1 1714
1 1715
1 1716
1 1717
1 1718
1 1719
1 1720
1 1721
1 1722
1 1723
1 1724
1 1725
1 1726
1 1727
1 1728
1 1729
1 1730
1 1731
1 1732
1 1733
1 1734
1 1735
1 1736
1 1737
1 1738
1 1739
1 1740
1 1741
1 1742
1 1743
1 1744
1 1745
1 1746
1 1747
1 1748
1 1749
1 1750
1 1751
1 1752
1 1753
1 1754
1 1755
1 1756
1 1757
1 1758
1 1759
1 1760
1 1761
1 1762
1 1763
1 1764
1 1765
1 1766
1 1767
1 1768
1 1769
1 1770
1 1771
1 1772
1 1773
1 1774
1 1775
1 1776
1 1777
1 1778
1 1779
1 1780
1 1781
1 1782
1 1783
1 1784
1 1785
1 1786
1 1787
1 1788
1 1789
1 1790
1 1791
1 1792
1 1793
1 1794
1 1795
1 1796
1 1797
1 1798
1 1799
1 1800
1 1801
1 1802
1 1803
1 1804
1 1805
1 1806
1 1807
1 1808
1 1809
1 1810
1 1811
1 1812
1 1813
1 1814
1 1815
1 1816
1 1817
1 1818
1 1819
1 1820
1 1821
1 1822
1 1823
1 1824
1 1825
1 1826
1 1827
1 1828
1 1829
1 1830
1 1831
1 1832
1 1833
1 1834
1 1835
1 1836
1 1837
1 1838
1 1839
1 1840
1 1841
1 1842
1 1843
1 1844
1 1845
1 1846
1 1847
1 1848
1 1849
1 1850
1 1851
1 1852
1 1853
1 1854
1 1855
1 1856
1 1857
1 1858
1 1859
1 1860
1 1861
1 1862
1 1863
1 1864
1 1865
1 1866
1 1867
1 1868
1 1869
1 1870
1 1871
1 1872
1 1873
1 1874
1 1875
1 1876
1 1877
1 1878
1 1879
1 1880
1 1881
1 1882
1 1883
1 1884
1 1885
1 1886
1 1887
1 1888
1 1889
1 1890
1 1891
1 1892
1 1893
1 1894
1 1895
1 1896
1 1897
1 1898
1 1899
1 1900
1 1901
1 1902
1 1903
1 1904
1 1905
1 1906
1 1907
1 1908
1 1909
1 1910
1 1911
1 1912
1 1913
1 1914
1 1915
1 1916
1 1917
1 1918
1 1919
1 1920
1 1921
1 1922
1 1923
1 1924
1 1925
1 1926
1 1927
1 1928
1 1929
1 1930
1 1931
1 1932
1 1933
1 1934
1 1935
1 1936
1 1937
1 1938
1 1939
1 1940
1 1941
1 1942
1 1943
1 1944
1 1945
1 1946
1 1947
1 1948
1 1949
1 1950
1 1951
1 1952
1 1953
1 1954
1 1955
1 1956
1 1957
1 1958
1 1959
1 1960
1 1961
1 1962
1 1963
1 1964
1 1965
1 1966
1 1967
1 1968
1 1969
1 1970
1 1971
1 1972
1 1973
1 1974
1 1975
1 1976
1 1977
1 1978
1 1979
1 1980
1 1981
1 1982
1 1983
1 1984
1 1985
1 1986
1 1987
1 1988
1 1989
1 1990
1 1991
1 1992
1 1993
1 1994
1 1995
1 1996
1 1997
1 1998
1 1999
1 2000
1 2001
1 2002
1 2003
1 2004
1 2005
1 2006
1 2007
1 2008
1 2009
1 2010
1 2011
1 2012
1 2013
1 2014
1 2015
1 2016
1 2017
1 2018
1 2019
1 2020
1 2021
1 2022
1 2023
1 2024
1 2025
1 2026
1 2027
1 2028
1 2029
1 2030
1 2031
1 2032
1 2033
1 2034
1 2035
1 2036
1 2037
1 2038
1 2039
1 2040
1 2041
1 2042
1 2043
1 2044
1 2045
1 2046
1 2047
1 2048
1 2049
1 2050
1 2051
1 2052
1 2053
1 2054
1 2055
1 2056
1 2057
1 2058
1 2059
1 2060
1 2061
1 2062
1 2063
1 2064
1 2065
1 2066
1 2067
1 2068
1 2069
1 2070
1 2071
1 2072
1 2073
1 2074
1 2075
1 2076
1 2077
1 2078
1 2079
1 2080
1 2081
1 2082
1 2083
1 2084
1 2085
1 2086
1 2087
1 2088
1 2089
1 2090
1 2091
1 2092
1 2093
1 2094
1 2095
1 2096
1 2097
1 2098
1 2099
1 2100
1 2101
1 2102
1 2103
1 2104
1 2105
1 2106
1 2107
1 2108
1 2109
1 2110
1 2111
1 2112
1 2113
1 2114
1 2115
1 2116
1 2117
1 2118
1 2119
1 2120
1 2121
1 2122
1 2123
1 2124
1 2125
1 2126
1 2127
1 2128
1 2129
1 2130
1 2131
1 2132
1 2133
1 2134
1 2135
1 2136
1 2137
1 2138
1 2139
1 2140
1 2141
1 2142
1 2143
1 2144
1 2145
1 2146
1 2147
1 2148
1 2149
1 2150
1 2151
1 2152
1 2153
1 2154
1 2155
1 2156
1 2157
1 2158
1 2159
1 2160
1 2161
1 2162
1 2163
1 2164
1 2165
1 2166
1 2167
1 2168
1 2169
1 2170
1 2171
1 2172
1 2173
1 2174
1 2175
1 2176
1 2177
1 2178
1 2179
1 2180
1 2181
1 2182
1 2183
1 2184
1 2185
1 2186
1 2187
1 2188
1 2189
1 2190
1 2191
1 2192
1 2193
1 2194
1 2195
1 2196
1 2197
1 2198
1 2199
1 2200
1 2201
1 2202
1 2203
1 2204
1 2205
1 2206
1 2207
1 2208
1 2209
1 2210
1 2211
1 2212
1 2213
1 2214
1 2215
1 2216
1 2217
1 2218
1 2219
1 2220
1 2221
1 2222
1 2223
1 2224
1 2225
1 2226
1 2227
1 2228
1 2229
1 2230
1 2231
1 2232
1 2233
1 2234
1 2235
1 2236
1 2237
1 2238
1 2239
1 2240
1 2241
1 2242
1 2243
1 2244
1 2245
1 2246
1 2247
1 2248
1 2249
1 2250
1 2251
1 2252
1 2253
1 2254
1 2255
1 2256
1 2257
1 2258
1 2259
1 2260
1 2261
1 2262
1 2263
1 2264
1 2265
1 2266
1 2267
1 2268
1 2269
1 2270
1 2271
1 2272
1 2273
1 2274
1 2275
1 2276
1 2277
1 2278
1 2279
1 2280
1 2281
1 2282
1 2283
1 2284
1 2285
1 2286
1 2287
1 2288
1 2289
1 2290
1 2291
1 2292
1 2293
1 2294
1 2295
1 2296
1 2297
1 2298
1 2299
1 2300
1 2301
1 2302
1 2303
1 2304
1 2305
1 2306
1 2307
1 2308
1 2309
1 2310
1 2311
1 2312
1 2313
1 2314
1 2315
1 2316
1 2317
1 2318
1 2319
1 2320
1 2321
1 2322
1 2323
1 2324
1 2325
1 2326
1 2327
1 2328
1 2329
1 2330
1 2331
1 2332
1 2333
1 2334
1 2335
1 2336
1 2337
1 2338
1 2339
1 2340
1 2341
1 2342
1 2343
1 2344
1 2345
1 2346
1 2347
1 2348
1 2349
1 2350
1 2351
1 2352
1 2353
1 2354
1 2355
1 2356
1 2357
1 2358
1 2359
1 2360
1 2361
1 2362
1 2363
1 2364
1 2365
1 2366
1 2367
1 2368
1 2369
1 2370
1 2371
1 2372
1 2373
1 2374
1 2375
1 2376
1 2377
1 2378
1 2379
1 2380
1 2381
1 2382
1 2383
1 2384
1 2385
1 2386
1 2387
1 2388
1 2389
1 2390
1 2391
1 2392
1 2393
1 2394
1 2395
1 2396
1 2397
1 2398
1 2399
1 2400
1 2401
1 2402
1 2403
1 2404
1 2405
1 2406
1 2407
1 2408
1 2409
1 2410
1 2411
1 2412
1 2413
1 2414
1 2415
1 2416
1 2417
1 2418
1 2419
1 2420
1 2421
1 2422
1 2423
1 2424
1 2425
1 2426
1 2427
1 2428
1 2429
1 2430
1 2431
1 2432
1 2433
1 2434
1 2435
1 2436
1 2437
1 2438
1 2439
1 2440
1 2441
1 2442
1 2443
1 2444
1 2445
1 2446
1 2447
1 2448
1 2449
1 2450
1 2451
1 2452
1 2453
1 2454
1 2455
1 2456
1 2457
1 2458
1 2459
1 2460
1 2461
1 2462
1 2463
1 2464
1 2465
1 2466
1 2467
1 2468
1 2469
1 2470
1 2471
1 2472
1 2473
1 2474
1 2475
1 2476
1 2477
1 2478
1 2479
1 2480
1 2481
1 2482
1 2483
1 2484
1 2485
1 2486
1 2487
1 2488
1 2489
1 2490
1 2491
1 2492
1 2493
1 2494
1 2495
1 2496
1 2497
1 2498
1 2499
1 2500
1 2501
1 2502
1 2503
1 2504
1 2505
1 2506
1 2507
1 2508
1 2509
1 2510
1 2511
1 2512
1 2513
1 2514
1 2515
1 2516
1 2517
1 2518
1 2519
1 2520
1 2521
1 2522
1 2523
1 2524
1 2525
1 2526
1 2527
1 2528
1 2529
1 2530
1 2531
1 2532
1 2533
1 2534
1 2535
1 2536
1 2537
1 2538
1 2539
1 2540
1 2541
1 2542
1 2543
1 2544
1 2545
1 2546
1 2547
1 2548
1 2549
1 2550
1 2551
1 2552
1 2553
1 2554
1 2555
1 2556
1 2557
1 2558
1 2559
1 2560
1 2561
1 2562
1 2563
1 2564
1 2565
1 2566
1 2567
1 2568
1 2569
1 2570
1 2571
1 2572
1 2573
1 2574
1 2575
1 2576
1 2577
1 2578
1 2579
1 2580
1 2581
1 2582
1 2583
1 2584
1 2585
1 2586
1 2587
1 2588
1 2589
1 2590
1 2591
1 2592
1 2593
1 2594
1 2595
1 2596
1 2597
1 2598
1 2599
1 2600
1 2601
1 2602
1 2603
1 2604
1 2605
1 2606
1 2607
1 2608
1 2609
1 2610
1 2611
1 2612
1 2613
1 2614
1 2615
1 2616
1 2617
1 2618
1 2619
1 2620
1 2621
1 2622
1 2623
1 2624
1 2625
1 2626
1 2627
1 2628
1 2629
1 2630
1 2631
1 2632
1 2633
1 2634
1 2635
1 2636
1 2637
1 2638
1 2639
1 2640
1 2641
1 2642
1 2643
1 2644
1 2645
1 2646
1 2647
1 2648
1 2649
1 2650
1 2651
1 2652
1 2653
1 2654
1 2655
1 2656
1 2657
1 2658
1 2659
1 2660
1 2661
1 2662
1 2663
1 2664
1 2665
1 2666
1 2667
1 2668
1 2669
1 2670
1 2671
1 2672
1 2673
1 2674
1 2675
1 2676
1 2677
1 2678
1 2679
1 2680
1 2681
1 2682
1 2683
1 2684
1 2685
1 2686
1 2687
1 2688
1 2689
1 2690
1 2691
1 2692
1 2693
1 2694
1 2695
1 2696
1 2697
1 2698
1 2699
1 2700
1 2701
1 2702
1 2703
1 2704
1 2705
1 2706
1 2707
1 2708
1 2709
1 2710
1 2711
1 2712
1 2713
1 2714
1 2715
1 2716
1 2717
1 2718
1 2719
1 2720
1 2721
1 2722
1 2723
1 2724
1 2725
1 2726
1 2727
1 2728
1 2729
1 2730
1 2731
1 2732
1 2733
1 2734
1 2735
1 2736
1 2737
1 2738
1 2739
1 2740
1 2741
1 2742
1 2743
1 2744
1 2745
1 2746
1 2747
1 2748
1 2749
1 2750
1 2751
1 2752
1 2753
1 2754
1 2755
1 2756
1 2757
1 2758
1 2759
1 2760
1 2761
1 2762
1 2763
1 2764
1 2765
1 2766
1 2767
1 2768
1 2769
1 2770
1 2771
1 2772
1 2773
1 2774
1 2775
1 2776
1 2777
1 2778
1 2779
1 2780
1 2781
1 2782
1 2783
1 2784
1 2785
1 2786
1 2787
1 2788
1 2789
1 2790
1 2791
1 2792
1 2793
1 2794
1 2795
1 2796
1 2797
1 2798
1 2799
1 2800
1 2801
1 2802
1 2803
1 2804
1 2805
1 2806
1 2807
1 2808
1 2809
1 2810
1 2811
1 2812
1 2813
1 2814
1 2815
1 2816
1 2817
1 2818
1 2819
1 2820
1 2821
1 2822
1 2823
1 2824
1 2825
1 2826
1 2827
1 2828
1 2829
1 2830
1 2831
1 2832
1 2833
1 2834
1 2835
1 2836
1 2837
1 2838
1 2839
1 2840
1 2841
1 2842
1 2843
1 2844
1 2845
1 2846
1 2847
1 2848
1 2849
1 2850
1 2851
1 2852
1 2853
1 2854
1 2855
1 2856
1 2857
1 2858
1 2859
1 2860
1 2861
1 2862
1 2863
1 2864
1 2865
1 2866
1 2867
1 2868
1 2869
1 2870
1 2871
1 2872
1 2873
1 2874
1 2875
1 2876
1 2877
1 2878
1 2879
1 2880
1 2881
1 2882
1 2883
1 2884
1 2885
1 2886
1 2887
1 2888
1 2889
1 2890
1 2891
1 2892
1 2893
1 2894
1 2895
1 2896
1 2897
1 2898
1 2899
1 2900
1 2901
1 2902
1 2903
1 2904
1 2905
1 2906
1 2907
1 2908
1 2909
1 2910
1 2911
1 2912
1 2913
1 2914
1 2915
1 2916
1 2917
1 2918
1 2919
1 2920
1 2921
1 2922
1 2923
1 2924
1 2925
1 2926
1 2927
1 2928
1 2929
1 2930
1 2931
1 2932
1 2933
1 2934
1 2935
1 2936
1 2937
1 2938
1 2939
1 2940
1 2941
1 2942
1 2943
1 2944
1 2945
1 2946
1 2947
1 2948
1 2949
1 2950
1 2951
1 2952
1 2953
1 2954
1 2955
1 2956
1 2957
1 2958
1 2959
1 2960
1 2961
1 2962
1 2963
1 2964
1 2965
1 2966
1 2967
1 2968
1 2969
1 2970
1 2971
1 2972
1 2973
1 2974
1 2975
1 2976
1 2977
1 2978
1 2979
1 2980
1 2981
1 2982
1 2983
1 2984
1 2985
1 2986
1 2987
1 2988
1 2989
1 2990
1 2991
1 2992
1 2993
1 2994
1 2995
1 2996
1 2997
1 2998
1 2999
1 3000
1 3001
1 3002
1 3003
1 3004
1 3005
1 3006
1 3007
1 3008
1 3009
1 3010
1 3011
1 3012
1 3013
1 3014
1 3015
1 3016
1 3017
1 3018
1 3019
1 3020
1 3021
1 3022
1 3023
1 3024
1 3025
1 3026
1 3027
1 3028
1 3029
1 3030
1 3031
1 3032
1 3033
1 3034
1 3035
1 3036
1 3037
1 3038
1 3039
1 3040
1 3041
1 3042
1 3043
1 3044
1 3045
1 3046
1 3047
1 3048
1 3049
1 3050
1 3051
1 3052
1 3053
1 3054
1 3055
1 3056
1 3057
1 3058
1 3059
1 3060
1 3061
1 3062
1 3063
1 3064
1 3065
1 3066
1 3067
1 3068
1 3069
1 3070
1 3071
1 3072
1 3073
1 3074
1 3075
1 3076
1 3077
1 3078
1 3079
1 3080
1 3081
1 3082
1 3083
1 3084
1 3085
1 3086
1 3087
1 3088
1 3089
1 3090
1 3091
1 3092
1 3093
1 3094
1 3095
1 3096
1 3097
1 3098
1 3099
1 3100
1 3101
1 3102
1 3103
1 3104
1 3105
1 3106
1 3107
1 3108
1 3109
1 3110
1 3111
1 3112
1 3113
1 3114
1 3115
1 3116
1 3117
1 3118
1 3119
1 3120
1 3121
1 3122
1 3123
1 3124
1 3125
1 3126
1 3127
1 3128
1 3129
1 3130
1 3131
1 3132
1 3133
1 3134
1 3135
1 3136
1 3137
1 3138
1 3139
1 3140
1 3141
1 3142
1 3143
1 3144
1 3145
1 3146
1 3147
1 3148
1 3149
1 3150
1 3151
1 3152
1 3153
1 3154
1 3155
1 3156
1 3157
1 3158
1 3159
1 3160
1 3161
1 3162
1 3163
1 3164
1 3165
1 3166
1 3167
1 3168
1 3169
1 3170
1 3171
1 3172
1 3173
1 3174
1 3175
1 3176
1 3177
1 3178
1 3179
1 3180
1 3181
1 3182
1 3183
1 3184
1 3185
1 3186
1 3187
1 3188
1 3189
1 3190
1 3191
1 3192
1 3193
1 3194
1 3195
1 3196
1 3197
1 3198
1 3199
1 3200
1 3201
1 3202
1 3203
1 3204
1 3205
1 3206
1 3207
1 3208
1 3209
1 3210
1 3211
1 3212
1 3213
1 3214
1 3215
1 3216
1 3217
1 3218
1 3219
1 3220
1 3221
1 3222
1 3223
1 3224
1 3225
1 3226
1 3227
1 3228
1 3229
1 3230
1 3231
1 3232
1 3233
1 3234
1 3235
1 3236
1 3237
1 3238
1 3239
1 3240
1 3241
1 3242
1 3243
1 3244
1 3245
1 3246
1 3247
1 3248
1 3249
1 3250
1 3251
1 3252
1 3253
1 3254
1 3255
1 3256
1 3257
1 3258
1 3259
1 3260
1 3261
1 3262
1 3263
1 3264
1 3265
1 3266
1 3267
1 3268
1 3269
1 3270
1 3271
1 3272
1 3273
1 3274
1 3275
1 3276
1 3277
1 3278
1 3279
1 3280
1 3281
1 3282
1 3283
1 3284
1 3285
1 3286
1 3287
1 3288
1 3289
1 3290
1 3291
1 3292
1 3293
1 3294
1 3295
1 3296
1 3297
1 3298
1 3299
1 3300
1 3301
1 3302
1 3303
1 3304
1 3305
1 3306
1 3307
1 3308
1 3309
1 3310
1 3311
1 3312
1 3313
1 3314
1 3315
1 3316
1 3317
1 3318
1 3319
1 3320
1 3321
1 3322
1 3323
1 3324
1 3325
1 3326
1 3327
1 3328
1 3329
1 3330
1 3331
1 3332
1 3333
1 3334
1 3335
1 3336
1 3337
1 3338
1 3339
1 3340
1 3341
1 3342
1 3343
1 3344
1 3345
1 3346
1 3347
1 3348
1 3349
1 3350
1 3351
1 3352
1 3353
1 3354
1 3355
1 3356
1 3357
1 3358
1 3359
1 3360
1 3361
1 3362
1 3363
1 3364
1 3365
1 3366
1 3367
1 3368
1 3369
1 3370
1 3371
1 3372
1 3373
1 3374
1 3375
1 3376
1 3377
1 3378
1 3379
1 3380
1 3381
1 3382
1 3383
1 3384
1 3385
1 3386
1 3387
1 3388
1 3389
1 3390
1 3391
1 3392
1 3393
1 3394
1 3395
1 3396
1 3397
1 3398
1 3399
1 3400
1 3401
1 3402
1 3403
1 3404
1 3405
1 3406
1 3407
1 3408
1 3409
1 3410
1 3411
1 3412
1 3413
1 3414
1 3415
1 3416
1 3417
1 3418
1 3419
1 3420
1 3421
1 3422
1 3423
1 3424
1 3425
1 3426
1 3427
1 3428
1 3429
1 3430
1 3431
1 3432
1 3433
1 3434
1 3435
1 3436
1 3437
1 3438
1 3439
1 3440
1 3441
1 3442
1 3443
1 3444
1 3445
1 3446
1 3447
1 3448
1 3449
1 3450
1 3451
1 3452
1 3453
1 3454
1 3455
1 3456
1 3457
1 3458
1 3459
1 3460
1 3461
1 3462
1 3463
1 3464
1 3465
1 3466
1 3467
1 3468
1 3469
1 3470
1 3471
1 3472
1 3473
1 3474
1 3475
1 3476
1 3477
1 3478
1 3479
1 3480
1 3481
1 3482
1 3483
1 3484
1 3485
1 3486
1 3487
1 3488
1 3489
1 3490
1 3491
1 3492
1 3493
1 3494
1 3495
1 3496
1 3497
1 3498
1 3499
1 3500
1 3501
1 3502
1 3503
1 3504
1 3505
1 3506
1 3507
1 3508
1 3509
1 3510
1 3511
1 3512
1 3513
1 3514
1 3515
1 3516
1 3517
1 3518
1 3519
1 3520
1 3521
1 3522
1 3523
1 3524
1 3525
1 3526
1 3527
1 3528
1 3529
1 3530
1 3531
1 3532
1 3533
1 3534
1 3535
1 3536
1 3537
1 3538
1 3539
1 3540
1 3541
1 3542
1 3543
1 3544
1 3545
1 3546
1 3547
1 3548
1 3549
1 3550
1 3551
1 3552
1 3553
1 3554
1 3555
1 3556
1 3557
1 3558
1 3559
1 3560
1 3561
1 3562
1 3563
1 3564
1 3565
1 3566
1 3567
1 3568
1 3569
1 3570
1 3571
1 3572
1 3573
1 3574
1 3575
1 3576
1 3577
1 3578
1 3579
1 3580
1 3581
1 3582
1 3583
1 3584
1 3585
1 3586
1 3587
1 3588
1 3589
1 3590
1 3591
1 3592
1 3593
1 3594
1 3595
1 3596
1 3597
1 3598
1 3599
1 3600
1 3601
1 3602
1 3603
1 3604
1 3605
1 3606
1 3607
1 3608
1 3609
1 3610
1 3611
1 3612
1 3613
1 3614
1 3615
1 3616
1 3617
1 3618
1 3619
1 3620
1 3621
1 3622
1 3623
1 3624
1 3625
1 3626
1 3627
1 3628
1 3629
1 3630
1 3631
1 3632
1 3633
1 3634
1 3635
1 3636
1 3637
1 3638
1 3639
1 3640
1 3641
1 3642
1 3643
1 3644
1 3645
1 3646
1 3647
1 3648
1 3649
1 3650
1 3651
1 3652
1 3653
1 3654
1 3655
1 3656
1 3657
1 3658
1 3659
1 3660
1 3661
1 3662
1 3663
1 3664
1 3665
1 3666
1 3667
1 3668
1 3669
1 3670
1 3671
1 3672
1 3673
1 3674
1 3675
1 3676
1 3677
1 3678
1 3679
1 3680
1 3681
1 3682
1 3683
1 3684
1 3685
1 3686
1 3687
1 3688
1 3689
1 3690
1 3691
1 3692
1 3693
1 3694
1 3695
1 3696
1 3697
1 3698
1 3699
1 3700
1 3701
1 3702
1 3703
1 3704
1 3705
1 3706
1 3707
1 3708
1 3709
1 3710
1 3711
1 3712
1 3713
1 3714
1 3715
1 3716
1 3717
1 3718
1 3719
1 3720
1 3721
1 3722
1 3723
1 3724
1 3725
1 3726
1 3727
1 3728
1 3729
1 3730
1 3731
1 3732
1 3733
1 3734
1 3735
1 3736
1 3737
1 3738
1 3739
1 3740
1 3741
1 3742
1 3743
1 3744
1 3745
1 3746
1 3747
1 3748
1 3749
1 3750
1 3751
1 3752
1 3753
1 3754
1 3755
1 3756
1 3757
1 3758
1 3759
1 3760
1 3761
1 3762
1 3763
1 3764
1 3765
1 3766
1 3767
1 3768
1 3769
1 3770
1 3771
1 3772
1 3773
1 3774
1 3775
1 3776
1 3777
1 3778
1 3779
1 3780
1 3781
1 3782
1 3783
1 3784
1 3785
1 3786
1 3787
1 3788
1 3789
1 3790
1 3791
1 3792
1 3793
1 3794
1 3795
1 3796
1 3797
1 3798
1 3799
1 3800
1 3801
1 3802
1 3803
1 3804
1 3805
1 3806
1 3807
1 3808
1 3809
1 3810
1 3811
1 3812
1 3813
1 3814
1 3815
1 3816
1 3817
1 3818
1 3819
1 3820
1 3821
1 3822
1 3823
1 3824
1 3825
1 3826
1 3827
1 3828
1 3829
1 3830
1 3831
1 3832
1 3833
1 3834
1 3835
1 3836
1 3837
1 3838
1 3839
1 3840
1 3841
1 3842
1 3843
1 3844
1 3845
1 3846
1 3847
1 3848
1 3849
1 3850
1 3851
1 3852
1 3853
1 3854
1 3855
1 3856
1 3857
1 3858
1 3859
1 3860
1 3861
1 3862
1 3863
1 3864
1 3865
1 3866
1 3867
1 3868
1 3869
1 3870
1 3871
1 3872
1 3873
1 3874
1 3875
1 3876
1 3877
1 3878
1 3879
1 3880
1 3881
1 3882
1 3883
1 3884
1 3885
1 3886
1 3887
1 3888
1 3889
1 3890
1 3891
1 3892
1 3893
1 3894
1 3895
1 3896
1 3897
1 3898
1 3899
1 3900
1 3901
1 3902
1 3903
1 3904
1 3905
1 3906
1 3907
1 3908
1 3909
1 3910
1 3911
1 3912
1 3913
1 3914
1 3915
1 3916
1 3917
1 3918
1 3919
1 3920
1 3921
1 3922
1 3923
1 3924
1 3925
1 3926
1 3927
1 3928
1 3929
1 3930
1 3931
1 3932
1 3933
1 3934
1 3935
1 3936
1 3937
1 3938
1 3939
1 3940
1 3941
1 3942
1 3943
1 3944
1 3945
1 3946
1 3947
1 3948
1 3949
1 3950
1 3951
1 3952
1 3953
1 3954
1 3955
1 3956
1 3957
1 3958
1 3959
1 3960
1 3961
1 3962
1 3963
1 3964
1 3965
1 3966
1 3967
1 3968
1 3969
1 3970
1 3971
1 3972
1 3973
1 3974
1 3975
1 3976
1 3977
1 3978
1 3979
1 3980
1 3981
1 3982
1 3983
1 3984
1 3985
1 3986
1 3987
1 3988
1 3989
1 3990
1 3991
1 3992
1 3993
1 3994
1 3995
1 3996
1 3997
1 3998
1 3999
1 4000
1 4001
1 4002
1 4003
1 4004
1 4005
1 4006
1 4007
1 4008
1 4009
1 4010
1 4011
1 4012
1 4013
1 4014
1 4015
1 4016
1 4017
1 4018
1 4019
1 4020
1 4021
1 4022
1 4023
1 4024
1 4025
1 4026
1 4027
1 4028
1 4029
1 4030
1 4031
1 4032
1 4033
1 4034
1 4035
1 4036
1 4037
1 4038
1 4039
1 4040
1 4041
1 4042
1 4043
1 4044
1 4045
1 4046
1 4047
1 4048
1 4049
1 4050
1 4051
1 4052
1 4053
1 4054
1 4055
1 4056
1 4057
1 4058
1 4059
1 4060
1 4061
1 4062
1 4063
1 4064
1 4065
1 4066
1 4067
1 4068
1 4069
1 4070
1 4071
1 4072
1 4073
1 4074
1 4075
1 4076
1 4077
1 4078
1 4079
1 4080
1 4081
1 4082
1 4083
1 4084
1 4085
1 4086
1 4087
1 4088
1 4089
1 4090
1 4091
1 4092
1 4093
1 4094
1 4095
1 4096
1 4097
1 4098
1 4099
1 4100
1 4101
1 4102
1 4103
1 4104
1 4105
1 4106
1 4107
1 4108
1 4109
1 4110
1 4111
1 4112
1 4113
1 4114
1 4115
1 4116
1 4117
1 4118
1 4119
1 4120
1 4121
1 4122
1 4123
1 4124
1 4125
1 4126
1 4127
1 4128
1 4129
1 4130
1 4131
1 4132
1 4133
1 4134
1 4135
1 4136
1 4137
1 4138
1 4139
1 4140
1 4141
1 4142
1 4143
1 4144
1 4145
1 4146
1 4147
1 4148
1 4149
1 4150
1 4151
1 4152
1 4153
1 4154
1 4155
1 4156
1 4157
1 4158
1 4159
1 4160
1 4161
1 4162
1 4163
1 4164
1 4165
1 4166
1 4167
1 4168
1 4169
1 4170
1 4171
1 4172
1 4173
1 4174
1 4175
1 4176
1 4177
1 4178
1 4179
1 4180
1 4181
1 4182
1 4183
1 4184
1 4185
1 4186
1 4187
1 4188
1 4189
1 4190
1 4191
1 4192
1 4193
1 4194
1 4195
1 4196
1 4197
1 4198
1 4199
1 4200
1 4201
1 4202
1 4203
1 4204
1 4205
1 4206
1 4207
1 4208
1 4209
1 4210
1 4211
1 4212
1 4213
1 4214
1 4215
1 4216
1 4217
1 4218
1 4219
1 4220
1 4221
1 4222
1 4223
1 4224
1 4225
1 4226
1 4227
1 4228
1 4229
1 4230
1 4231
1 4232
1 4233
1 4234
1 4235
1 4236
1 4237
1 4238
1 4239
1 4240
1 4241
1 4242
1 4243
1 4244
1 4245
1 4246
1 4247
1 4248
1 4249
1 4250
1 4251
1 4252
1 4253
1 4254
1 4255
1 4256
1 4257
1 4258
1 4259
1 4260
1 4261
1 4262
1 4263
1 4264
1 4265
1 4266
1 4267
1 4268
1 4269
1 4270
1 4271
1 4272
1 4273
1 4274
1 4275
1 4276
1 4277
1 4278
1 4279
1 4280
1 4281
1 4282
1 4283
1 4284
1 4285
1 4286
1 4287
1 4288
1 4289
1 4290
1 4291
1 4292
1 4293
1 4294
1 4295
1 4296
1 4297
1 4298
1 4299
1 4300
1 4301
1 4302
1 4303
1 4304
1 4305
1 4306
1 4307
1 4308
1 4309
1 4310
1 4311
1 4312
1 4313
1 4314
1 4315
1 4316
1 4317
1 4318
1 4319
1 4320
1 4321
1 4322
1 4323
1 4324
1 4325
1 4326
1 4327
1 4328
1 4329
1 4330
1 4331
1 4332
1 4333
1 4334
1 4335
1 4336
1 4337
1 4338
1 4339
1 4340
1 4341
1 4342
1 4343
1 4344
1 4345
1 4346
1 4347
1 4348
1 4349
1 4350
1 4351
1 4352
1 4353
1 4354
1 4355
1 4356
1 4357
1 4358
1 4359
1 4360
1 4361
1 4362
1 4363
1 4364
1 4365
1 4366
1 4367
1 4368
1 4369
1 4370
1 4371
1 4372
1 4373
1 4374
1 4375
1 4376
1 4377
1 4378
1 4379
1 4380
1 4381
1 4382
1 4383
1 4384
1 4385
1 4386
1 4387
1 4388
1 4389
1 4390
1 4391
1 4392
1 4393
1 4394
1 4395
1 4396
1 4397
1 4398
1 4399
1 4400
1 4401
1 4402
1 4403
1 4404
1 4405
1 4406
1 4407
1 4408
1 4409
1 4410
1 4411
1 4412
1 4413
1 4414
1 4415
1 4416
1 4417
1 4418
1 4419
1 4420
1 4421
1 4422
1 4423
1 4424
1 4425
1 4426
1 4427
1 4428
1 4429
1 4430
1 4431
1 4432
1 4433
1 4434
1 4435
1 4436
1 4437
1 4438
1 4439
1 4440
1 4441
1 4442
1 4443
1 4444
1 4445
1 4446
1 4447
1 4448
1 4449
1 4450
1 4451
1 4452
1 4453
1 4454
1 4455
1 4456
1 4457
1 4458
1 4459
1 4460
1 4461
1 4462
1 4463
1 4464
1 4465
1 4466
1 4467
1 4468
1 4469
1 4470
1 4471
1 4472
1 4473
1 4474
1 4475
1 4476
1 4477
1 4478
1 4479
1 4480
1 4481
1 4482
1 4483
1 4484
1 4485
1 4486
1 4487
1 4488
1 4489
1 4490
1 4491
1 4492
1 4493
1 4494
1 4495
1 4496
1 4497
1 4498
1 4499
1 4500
1 4501
1 4502
1 4503
1 4504
1 4505
1 4506
1 4507
1 4508
1 4509
1 4510
1 4511
1 4512
1 4513
1 4514
1 4515
1 4516
1 4517
1 4518
1 4519
1 4520
1 4521
1 4522
1 4523
1 4524
1 4525
1 4526
1 4527
1 4528
1 4529
1 4530
1 4531
1 4532
1 4533
1 4534
1 4535
1 4536
1 4537
1 4538
1 4539
1 4540
1 4541
1 4542
1 4543
1 4544
1 4545
1 4546
1 4547
1 4548
1 4549
1 4550
1 4551
1 4552
1 4553
1 4554
1 4555
1 4556
1 4557
1 4558
1 4559
1 4560
1 4561
1 4562
1 4563
1 4564
1 4565
1 4566
1 4567
1 4568
1 4569
1 4570
1 4571
1 4572
1 4573
1 4574
1 4575
1 4576
1 4577
1 4578
1 4579
1 4580
1 4581
1 4582
1 4583
1 4584
1 4585
1 4586
1 4587
1 4588
1 4589
1 4590
1 4591
1 4592
1 4593
1 4594
1 4595
1 4596
1 4597
1 4598
1 4599
1 4600
1 4601
1 4602
1 4603
1 4604
1 4605
1 4606
1 4607
1 4608
1 4609
1 4610
1 4611
1 4612
1 4613
1 4614
1 4615
1 4616
1 4617
1 4618
1 4619
1 4620
1 4621
1 4622
1 4623
1 4624
1 4625
1 4626
1 4627
1 4628
1 4629
1 4630
1 4631
1 4632
1 4633
1 4634
1 4635
1 4636
1 4637
1 4638
1 4639
1 4640
1 4641
1 4642
1 4643
1 4644
1 4645
1 4646
1 4647
1 4648
1 4649
1 4650
1 4651
1 4652
1 4653
1 4654
1 4655
1 4656
1 4657
1 4658
1 4659
1 4660
1 4661
1 4662
1 4663
1 4664
1 4665
1 4666
1 4667
1 4668
1 4669
1 4670
1 4671
1 4672
1 4673
1 4674
1 4675
1 4676
1 4677
1 4678
1 4679
1 4680
1 4681
1 4682
1 4683
1 4684
1 4685
1 4686
1 4687
1 4688
1 4689
1 4690
1 4691
1 4692
1 4693
1 4694
1 4695
1 4696
1 4697
1 4698
1 4699
1 4700
1 4701
1 4702
1 4703
1 4704
1 4705
1 4706
1 4707
1 4708
1 4709
1 4710
1 4711
1 4712
1 4713
1 4714
1 4715
1 4716
1 4717
1 4718
1 4719
1 4720
1 4721
1 4722
1 4723
1 4724
1 4725
1 4726
1 4727
1 4728
1 4729
1 4730
1 4731
1 4732
1 4733
1 4734
1 4735
1 4736
1 4737
1 4738
1 4739
1 4740
1 4741
1 4742
1 4743
1 4744
1 4745
1 4746
1 4747
1 4748
1 4749
1 4750
1 4751
1 4752
1 4753
1 4754
1 4755
1 4756
1 4757
1 4758
1 4759
1 4760
1 4761
1 4762
1 4763
1 4764
1 4765
1 4766
1 4767
1 4768
1 4769
1 4770
1 4771
1 4772
1 4773
1 4774
1 4775
1 4776
1 4777
1 4778
1 4779
1 4780
1 4781
1 4782
1 4783
1 4784
1 4785
1 4786
1 4787
1 4788
1 4789
1 4790
1 4791
1 4792
1 4793
1 4794
1 4795
1 4796
1 4797
1 4798
1 4799
1 4800
1 4801
1 4802
1 4803
1 4804
1 4805
1 4806
1 4807
1 4808
1 4809
1 4810
1 4811
1 4812
1 4813
1 4814
1 4815
1 4816
1 4817
1 4818
1 4819
1 4820
1 4821
1 4822
1 4823
1 4824
1 4825
1 4826
1 4827
1 4828
1 4829
1 4830
1 4831
1 4832
1 4833
1 4834
1 4835
1 4836
1 4837
1 4838
1 4839
1 4840
1 4841
1 4842
1 4843
1 4844
1 4845
1 4846
1 4847
1 4848
1 4849
1 4850
1 4851
1 4852
1 4853
1 4854
1 4855
1 4856
1 4857
1 4858
1 4859
1 4860
1 4861
1 4862
1 4863
1 4864
1 4865
1 4866
1 4867
1 4868
1 4869
1 4870
1 4871
1 4872
1 4873
1 4874
1 4875
1 4876
1 4877
1 4878
1 4879
1 4880
1 4881
1 4882
1 4883
1 4884
1 4885
1 4886
1 4887
1 4888
1 4889
1 4890
1 4891
1 4892
1 4893
1 4894
1 4895
1 4896
1 4897
1 4898
1 4899
1 4900
1 4901
1 4902
1 4903
1 4904
1 4905
1 4906
1 4907
1 4908
1 4909
1 4910
1 4911
1 4912
1 4913
1 4914
1 4915
1 4916
1 4917
1 4918
1 4919
1 4920
1 4921
1 4922
1 4923
1 4924
1 4925
1 4926
1 4927
1 4928
1 4929
1 4930
1 4931
1 4932
1 4933
1 4934
1 4935
1 4936
1 4937
1 4938
1 4939
1 4940
1 4941
1 4942
1 4943
1 4944
1 4945
1 4946
1 4947
1 4948
1 4949
1 4950
1 4951
1 4952
1 4953
1 4954
1 4955
1 4956
1 4957
1 4958
1 4959
1 4960
1 4961
1 4962
1 4963
1 4964
1 4965
1 4966
1 4967
1 4968
1 4969
1 4970
1 4971
1 4972
1 4973
1 4974
1 4975
1 4976
1 4977
1 4978
1 4979
1 4980
1 4981
1 4982
1 4983
1 4984
1 4985
1 4986
1 4987
1 4988
1 4989
1 4990
1 4991
1 4992
1 4993
1 4994
1 4995
1 4996
1 4997
1 4998
1 4999
CELL_TYPES 5000
1 
1 
1 
1 
1 
1 
1 
1 
1 
1 
1 
1 
1 
1 
1 
1 
1 
1 
1 
1 
1 
1 
1 
1 
1 
1 
1 
1 
1 
1 
1 
1 
1 
1 
1 
1 
1 
1 
1 
1 
1 
1 
1 
1 
1 
1 
1 
1 
1 
1 
1 
1 
1 
1 
1 
1 
1 
1 
1 
1 
1 
1 
1 
1 
1 
1 
1 
1 
1 
1 
1 
1 
1 
1 
1 
1 
1 
1 
1 
1 
1 
1 
1 
1 
1 
1 
1 
1 
1 
1 
1 
1 
1 
1 
1 
1 
1 
1 
1 
1 
1 
1 
1 
1 
1 
1 
1 
1 
1 
1 
1 
1 
1 
1 
1 
1 
1 
1 
1 
1 
1 
1 
1 
1 
1 
1 
1 
1 
1 
1 
1 
1 
1 
1 
1 
1 
1 
1 
1 
1 
1 
1 
1 
1 
1 
1 
1 
1 
1 
1 
1 
1 
1 
1 
1 
1 
1 
1 
1 
1 
1 
1 
1 
1 
1 
1 
1 
1 
1 
1 
1 
1 
1 
1 
1 
1 
1 
1 
1 
1 
1 
1 
1 
1 
1 
1 
1 
1 
1 
1 
1 
1 
1 
1 
1 
1 
1 
1 
1 
1 
1 
1 
1 
1 
1 
1 
1 
1 
1 
1 
1 
1 
1 
1 
1 
1 
1 
1 
1 
1 
1 
1 
1 
1 
1 
1 
1 
1 
1 
1 
1 
1 
1 
1 
1 
1 
1 
1 
1 
1 
1 
1 
1 
1 
1 
1 
1 
1 
1 
1 
1 
1 
1 
1 
1 
1 
1 
1 
1 
1 
1 
1 
1 
1 
1 
1 
1 
1 
1 
1 
1 
1 
1 
1 
1 
1 
1 
1 
1 
1 
1 
1 
1 
1 
1 
1 
1 
1 
1 
1 
1 
1 
1 
1 
1 
1 
1 
1 
1 
1 
1 
1 
1 
1 
1 
1 
1 
1 
1 
1 
1 
1 
1 
1 
1 
1 
1 
1 
1 
1 
1 
1 
1 
1 
1 
1 
1 
1 
1 
1 
1 
1 
1 
1 
1 
1 
1 
1 
1 
1 
1 
1 
1 
1 
1 
1 
1 
1 
1 
1 
1 
1 
1 
1 
1 
1 
1 
1 
1 
1 
1 
1 
1 
1 
1 
1 
1 
1 
1 
1 
1 
1 
1 
1 
1 
1 
1 
1 
1 
1 
1 
1 
1 
1 
1 
1 
1 
1 
1 
1 
1 
1 
1 
1 
1 
1 
1 
1 
1 
1 
1 
1 
1 
1 
1 
1 
1 
1 
1 
1 
1 
1 
1 
1 
1 
1 
1 
1 
1 
1 
1 
1 
1 
1 
1 
1 
1 
1 
1 
1 
1 
1 
1 
1 
1 
1 
1 
1 
1 
1 
1 
1 
1 
1 
1 
1 
1 
1 
1 
1 
1 
1 
1 
1 
1 
1 
1 
1 
1 
1 
1 
1 
1 
1 
1 
1 
1 
1 
1 
1 
1 
1 
1 
1 
1 
1 
1 
1 
1 
1 
1 
1 
1 
1 
1 
1 
1 
1 
1 
1 
1 
1 
1 
1 
1 
1 
1 
1 
1 
1 
1 
1 
1 
1 
1 
1 
1 
1 
1 
1 
1 
1 
1 
1 
1 
1 
1 
1 
1 
1 
1 
1 
1 
1 
1 
1 
1 
1 
1 
1 
1 
1 
1 
1 
1 
1 
1 
1 
1 
1 
1 
1 
1 
1 
1 
1 
1 
1 
1 
1 
1 
1 
1 
1 
1 
1 
1 
1 
1 
1 
1 
1 
1 
1 
1 
1 
1 
1 
1 
1 
1 
1 
1 
1 
1 
1 
1 
1 
1 
1 
1 
1 
1 
1 
1 
1 
1 
1 
1 
1 
1 
1 
1 
1 
1 
1 
1 
1 
1 
1 
1 
1 
1 
1 
1 
1 
1 
1 
1 
1 
1 
1 
1 
1 
1 
1 
1 
1 
1 
1 
1 
1 
1 
1 
1 
1 
1 
1 
1 
1 
1 
1 
1 
1 
1 
1 
1 
1 
1 
1 
1 
1 
1 
1 
1 
1 
1 
1 
1 
1 
1 
1 
1 
1 
1 
1 
1 
1 
1 
1 
1 
1 
1 
1 
1 
1 
1 
1 
1 
1 
1 
1 
1 
1 
1 
1 
1 
1 
1 
1 
1 
1 
1 
1 
1 
1 
1 
1 
1 
1 
1 
1 
1 
1 
1 
1 
1 
1 
1 
1 
1 
1 
1 
1 
1 
1 
1 
1 
1 
1 
1 
1 
1 
1 
1 
1 
1 
1 
1 
1 
1 
1 
1 
1 
1 
1 
1 
1 
1 
1 
1 
1 
1 
1 
1 
1 
1 
1 
1 
1 
1 
1 
1 
1 
1 
1 
1 
1 
1 
1 
1 
1 
1 
1 
1 
1 
1 
1 
1 
1 
1 
1 
1 
1 
1 
1 
1 
1 
1 
1 
1 
1 
1 
1 
1 
1 
1 
1 
1 
1 
1 
1 
1 
1 
1 
1 
1 
1 
1 
1 
1 
1 
1 
1 
1 
1 
1 
1 
1 
1 
1 
1 
1 
1 
1 
1 
1 
1 
1 
1 
1 
1 
1 
1 
1 
1 
1 
1 
1 
1 
1 
1 
1 
1 
1 
1 
1 
1 
1 
1 
1 
1 
1 
1 
1 
1 
1 
1 
1 
1 
1 
1 
1 
1 
1 
1 
1 
1 
1 
1 
1 
1 
1 
1 
1 
1 
1 
1 
1 
1 
1 
1 
1 
1 
1 
1 
1 
1 
1 
1 
1 
1 
1 
1 
1 
1 
1 
1 
1 
1 
1 
1 
1 
1 
1 
1 
1 
1 
1 
1 
1 
1 
1 
1 
1 
1 
1 
1 
1 
1 
1 
1 
1 
1 
1 
1 
1 
1 
1 
1 
1 
1 
1 
1 
1 
1 
1 
1 
1 
1 
1 
1 
1 
1 
1 
1 
1 
1 
1 
1 
1 
1 
1 
1 
1 
1 
1 
1 
1 
1 
1 
1 
1 
1 
1 
1 
1 
1 
1 
1 
1 
1 
1 
1 
1 
1 
1 
1 
1 
1 
1 
1 
1 
1 
1 
1 
1 
1 
1 
1 
1 
1 
1 
1 
1 
1 
1 
1 
1 
1 
1 
1 
1 
1 
1 
1 
1 
1 
1 
1 
1 
1 
1 
1 
1 
1 
1 
1 
1 
1 
1 
1 
1 
1 
1 
1 
1 
1 
1 
1 
1 
1 
1 
1 
1 
1 
1 
1 
1 
1 
1 
1 
1 
1 
1 
1 
1 
1 
1 
1 
1 
1 
1 
1 
1 
1 
1 
1 
1 
1 
1 
1 
1 
1 
1 
1 
1 
1 
1 
1 
1 
1 
1 
1 
1 
1 
1 
1 
1 
1 
1 
1 
1 
1 
1 
1 
1 
1 
1 
1 
1 
1 
1 
1 
1 
1 
1 
1 
1 
1 
1 
1 
1 
1 
1 
1 
1 
1 
1 
1 
1 
1 
1 
1 
1 
1 
1 
1 
1 
1 
1 
1 
1 
1 
1 
1 
1 
1 
1 
1 
1 
1 
1 
1 
1 
1 
1 
1 
1 
1 
1 
1 
1 
1 
1 
1 
1 
1 
1 
1 
1 
1 
1 
1 
1 
1 
1 
1 
1 
1 
1 
1 
1 
1 
1 
1 
1 
1 
1 
1 
1 
1 
1 
1 
1 
1 
1 
1 
1 
1 
1 
1 
1 
1 
1 
1 
1 
1 
1 
1 
1 
1 
1 
1 
1 
1 
1 
1 
1 
1 
1 
1 
1 
1 
1 
1 
1 
1 
1 
1 
1 
1 
1 
1 
1 
1 
1 
1 
1 
1 
1 
1 
1 
1 
1 
1 
1 
1 
1 
1 
1 
1 
1 
1 
1 
1 
1 
1 
1 
1 
1 
1 
1 
1 
1 
1 
1 
1 
1 
1 
1 
1 
1 
1 
1 
1 
1 
1 
1 
1 
1 
1 
1 
1 
1 
1 
1 
1 
1 
1 
1 
1 
1 
1 
1 
1 
1 
1 
1 
1 
1 
1 
1 
1 
1 
1 
1 
1 
1 
1 
1 
1 
1 
1 
1 
1 
1 
1 
1 
1 
1 
1 
1 
1 
1 
1 
1 
1 
1 
1 
1 
1 
1 
1 
1 
1 
1 
1 
1 
1 
1 
1 
1 
1 
1 
1 
1 
1 
1 
1 
1 
1 
1 
1 
1 
1 
1 
1 
1 
1 
1 
1 
1 
1 
1 
1 
1 
1 
1 
1 
1 
1 
1 
1 
1 
1 
1 
1 
1 
1 
1 
1 
1 
1 
1 
1 
1 
1 
1 
1 
1 
1 
1 
1 
1 
1 
1 
1 
1 
1 
1 
1 
1 
1 
1 
1 
1 
1 
1 
1 
1 
1 
1 
1 
1 
1 
1 
1 
1 
1 
1 
1 
1 
1 
1 
1 
1 
1 
1 
1 
1 
1 
1 
1 
1 
1 
1 
1 
1 
1 
1 
1 
1 
1 
1 
1 
1 
1 
1 
1 
1 
1 
1 
1 
1 
1 
1 
1 
1 
1 
1 
1 
1 
1 
1 
1 
1 
1 
1 
1 
1 
1 
1 
1 
1 
1 
1 
1 
1 
1 
1 
1 
1 
1 
1 
1 
1 
1 
1 
1 
1 
1 
1 
1 
1 
1 
1 
1 
1 
1 
1 
1 
1 
1 
1 
1 
1 
1 
1 
1 
1 
1 
1 
1 
1 
1 
1 
1 
1 
1 
1 
1 
1 
1 
1 
1 
1 
1 
1 
1 
1 
1 
1 
1 
1 
1 
1 
1 
1 
1 
1 
1 
1 
1 
1 
1 
1 
1 
1 
1 
1 
1 
1 
1 
1 
1 
1 
1 
1 
1 
1 
1 
1 
1 
1 
1 
1 
1 
1 
1 
1 
1 
1 
1 
1 
1 
1 
1 
1 
1 
1 
1 
1 
1 
1 
1 
1 
1 
1 
1 
1 
1 
1 
1 
1 
1 
1 
1 
1 
1 
1 
1 
1 
1 
1 
1 
1 
1 
1 
1 
1 
1 
1 
1 
1 
1 
1 
1 
1 
1 
1 
1 
1 
1 
1 
1 
1 
1 
1 
1 
1 
1 
1 
1 
1 
1 
1 
1 
1 
1 
1 
1 
1 
1 
1 
1 
1 
1 
1 
1 
1 
1 
1 
1 
1 
1 
1 
1 
1 
1 
1 
1 
1 
1 
1 
1 
1 
1 
1 
1 
1 
1 
1 
1 
1 
1 
1 
1 
1 
1 
1 
1 
1 
1 
1 
1 
1 
1 
1 
1 
1 
1 
1 
1 
1 
1 
1 
1 
1 
1 
1 
1 
1 
1 
1 
1 
1 
1 
1 
1 
1 
1 
1 
1 
1 
1 
1 
1 
1 
1 
1 
1 
1 
1 
1 
1 
1 
1 
1 
1 
1 
1 
1 
1 
1 
1 
1 
1 
1 
1 
1 
1 
1 
1 
1 
1 
1 
1 
1 
1 
1 
1 
1 
1 
1 
1 
1 
1 
1 
1 
1 
1 
1 
1 
1 
1 
1 
1 
1 
1 
1 
1 
1 
1 
1 
1 
1 
1 
1 
1 
1 
1 
1 
1 
1 
1 
1 
1 
1 
1 
1 
1 
1 
1 
1 
1 
1 
1 
1 
1 
1 
1 
1 
1 
1 
1 
1 
1 
1 
1 
1 
1 
1 
1 
1 
1 
1 
1 
1 
1 
1 
1 
1 
1 
1 
1 
1 
1 
1 
1 
1 
1 
1 
1 
1 
1 
1 
1 
1 
1 
1 
1 
1 
1 
1 
1 
1 
1 
1 
1 
1 
1 
1 
1 
1 
1 
1 
1 
1 
1 
1 
1 
1 
1 
1 
1 
1 
1 
1 
1 
1 
1 
1 
1 
1 
1 
1 
1 
1 
1 
1 
1 
1 
1 
1 
1 
1 
1 
1 
1 
1 
1 
1 
1 
1 
1 
1 
1 
1 
1 
1 
1 
1 
1 
1 
1 
1 
1 
1 
1 
1 
1 
1 
1 
1 
1 
1 
1 
1 
1 
1 
1 
1 
1 
1 
1 
1 
1 
1 
1 
1 
1 
1 
1 
1 
1 
1 
1 
1 
1 
1 
1 
1 
1 
1 
1 
1 
1 
1 
1 
1 
1 
1 
1 
1 
1 
1 
1 
1 
1 
1 
1 
1 
1 
1 
1 
1 
1 
1 
1 
1 
1 
1 
1 
1 
1 
1 
1 
1 
1 
1 
1 
1 
1 
1 
1 
1 
1 
1 
1 
1 
1 
1 
1 
1 
1 
1 
1 
1 
1 
1 
1 
1 
1 
1 
1 
1 
1 
1 
1 
1 
1 
1 
1 
1 
1 
1 
1 
1 
1 
1 
1 
1 
1 
1 
1 
1 
1 
1 
1 
1 
1 
1 
1 
1 
1 
1 
1 
1 
1 
1 
1 
1 
1 
1 
1 
1 
1 
1 
1 
1 
1 
1 
1 
1 
1 
1 
1 
1 
1 
1 
1 
1 
1 
1 
1 
1 
1 
1 
1 
1 
1 
1 
1 
1 
1 
1 
1 
1 
1 
1 
1 
1 
1 
1 
1 
1 
1 
1 
1 
1 
1 
1 
1 
1 
1 
1 
1 
1 
1 
1 
1 
1 
1 
1 
1 
1 
1 
1 
1 
1 
1 
1 
1 
1 
1 
1 
1 
1 
1 
1 
1 
1 
1 
1 
1 
1 
1 
1 
1 
1 
1 
1 
1 
1 
1 
1 
1 
1 
1 
1 
1 
1 
1 
1 
1 
1 
1 
1 
1 
1 
1 
1 
1 
1 
1 
1 
1 
1 
1 
1 
1 
1 
1 
1 
1 
1 
1 
1 
1 
1 
1 
1 
1 
1 
1 
1 
1 
1 
1 
1 
1 
1 
1 
1 
1 
1 
1 
1 
1 
1 
1 
1 
1 
1 
1 
1 
1 
1 
1 
1 
1 
1 
1 
1 
1 
1 
1 
1 
1 
1 
1 
1 
1 
1 
1 
1 
1 
1 
1 
1 
1 
1 
1 
1 
1 
1 
1 
1 
1 
1 
1 
1 
1 
1 
1 
1 
1 
1 
1 
1 
1 
1 
1 
1 
1 
1 
1 
1 
1 
1 
1 
1 
1 
1 
1 
1 
1 
1 
1 
1 
1 
1 
1 
1 
1 
1 
1 
1 
1 
1 
1 
1 
1 
1 
1 
1 
1 
1 
1 
1 
1 
1 
1 
1 
1 
1 
1 
1 
1 
1 
1 
1 
1 
1 
1 
1 
1 
1 
1 
1 
1 
1 
1 
1 
1 
1 
1 
1 
1 
1 
1 
1 
1 
1 
1 
1 
1 
1 
1 
1 
1 
1 
1 
1 
1 
1 
1 
1 
1 
1 
1 
1 
1 
1 
1 
1 
1 
1 
1 
1 
1 
1 
1 
1 
1 
1 
1 
1 
1 
1 
1 
1 
1 
1 
1 
1 
1 
1 
1 
1 
1 
1 
1 
1 
1 
1 
1 
1 
1 
1 
1 
1 
1 
1 
1 
1 
1 
1 
1 
1 
1 
1 
1 
1 
1 
1 
1 
1 
1 
1 
1 
1 
1 
1 
1 
1 
1 
1 
1 
1 
1 
1 
1 
1 
1 
1 
1 
1 
1 
1 
1 
1 
1 
1 
1 
1 
1 
1 
1 
1 
1 
1 
1 
1 
1 
1 
1 
1 
1 
1 
1 
1 
1 
1 
1 
1 
1 
1 
1 
1 
1 
1 
1 
1 
1 
1 
1 
1 
1 
1 
1 
1 
1 
1 
1 
1 
1 
1 
1 
1 
1 
1 
1 
1 
1 
1 
1 
1 
1 
1 
1 
1 
1 
1 
1 
1 
1 
1 
1 
1 
1 
1 
1 
1 
1 
1 
1 
1 
1 
1 
1 
1 
1 
1 
1 
1 
1 
1 
1 
1 
1 
1 
1 
1 
1 
1 
1 
1 
1 
1 
1 
1 
1 
1 
1 
1 
1 
1 
1 
1 
1 
1 
1 
1 
1 
1 
1 
1 
1 
1 
1 
1 
1 
1 
1 
1 
1 
1 
1 
1 
1 
1 
1 
1 
1 
1 
1 
1 
1 
1 
1 
1 
1 
1 
1 
1 
1 
1 
1 
1 
1 
1 
1 
1 
1 
1 
1 
1 
1 
1 
1 
1 
1 
1 
1 
1 
1 
1 
1 
1 
1 
1 
1 
1 
1 
1 
1 
1 
1 
1 
1 
1 
1 
1 
1 
1 
1 
1 
1 
1 
1 
1 
1 
1 
1 
1 
1 
1 
1 
1 
1 
1 
1 
1 
1 
1 
1 
1 
1 
1 
1 
1 
1 
1 
1 
1 
1 
1 
1 
1 
1 
1 
1 
1 
1 
1 
1 
1 
1 
1 
1 
1 
1 
1 
1 
1 
1 
1 
1 
1 
1 
1 
1 
1 
1 
1 
1 
1 
1 
1 
1 
1 
1 
1 
1 
1 
1 
1 
1 
1 
1 
1 
1 
1 
1 
1 
1 
1 
1 
1 
1 
1 
1 
1 
1 
1 
1 
1 
1 
1 
1 
1 
1 
1 
1 
1 
1 
1 
1 
1 
1 
1 
1 
1 
1 
1 
1 
1 
1 
1 
1 
1 
1 
1 
1 
1 
1 
1 
1 
1 
1 
1 
1 
1 
1 
1 
1 
1 
1 
1 
1 
1 
1 
1 
1 
1 
1 
1 
1 
1 
1 
1 
1 
1 
1 
1 
1 
1 
1 
1 
1 
1 
1 
1 
1 
1 
1 
1 
1 
1 
1 
1 
1 
1 
1 
1 
1 
1 
1 
1 
1 
1 
1 
1 
1 
1 
1 
1 
1 
1 
1 
1 
1 
1 
1 
1 
1 
1 
1 
1 
1 
1 
1 
1 
1 
1 
1 
1 
1 
1 
1 
1 
1 
1 
1 
1 
1 
1 
1 
1 
1 
1 
1 
1 
1 
1 
1 
1 
1 
1 
1 
1 
1 
1 
1 
1 
1 
1 
1 
1 
1 
1 
1 
1 
1 
1 
1 
1 
1 
1 
1 
1 
1 
1 
1 
1 
1 
1 
1 
1 
1 
1 
1 
1 
1 
1 
1 
1 
1 
1 
1 
1 
1 
1 
1 
1 
1 
1 
1 
1 
1 
1 
1 
1 
1 
1 
1 
1 
1 
1 
1 
1 
1 
1 
1 
1 
1 
1 
1 
1 
1 
1 
1 
1 
1 
1 
1 
1 
1 
1 
1 
1 
1 
1 
1 
1 
1 
1 
1 
1 
1 
1 
1 
1 
1 
1 
1 
1 
1 
1 
1 
1 
1 
1 
1 
1 
1 
1 
1 
1 
1 
1 
1 
1 
1 
1 
1 
1 
1 
1 
1 
1 
1 
1 
1 
1 
1 
1 
1 
1 
1 
1 
1 
1 
1 
1 
1 
1 
1 
1 
1 
1 
1 
1 
1 
1 
1 
1 
1 
1 
1 
1 
1 
1 
1 
1 
1 
1 
1 
1 
1 
1 
1 
1 
1 
1 
1 
1 
1 
1 
1 
1 
1 
1 
1 
1 
1 
1 
1 
1 
1 
1 
1 
1 
1 
1 
1 
1 
1 
1 
1 
1 
1 
1 
1 
1 
1 
1 
1 
1 
1 
1 
1 
1 
1 
1 
1 
1 
1 
1 
1 
1 
1 
1 
1 
1 
1 
1 
1 
1 
1 
1 
1 
1 
1 
1 
1 
1 
1 
1 
1 
1 
1 
1 
1 
1 
1 
1 
1 
1 
1 
1 
1 
1 
1 
1 
1 
1 
1 
1 
1 
1 
1 
1 
1 
1 
1 
1 
1 
1 
1 
1 
1 
1 
1 
1 
1 
1 
1 
1 
1 
1 
1 
1 
1 
1 
1 
1 
1 
1 
1 
1 
1 
1 
1 
1 
1 
1 
1 
1 
1 
1 
1 
1 
1 
1 
1 
1 
1 
1 
1 
1 
1 
1 
1 
1 
1 
1 
1 
1 
1 
1 
1 
1 
1 
1 
1 
1 
1 
1 
1 
1 
1 
1 
1 
1 
1 
1 
1 
1 
1 
1 
1 
1 
1 
1 
1 
1 
1 
1 
1 
1 
1 
1 
1 
1 
1 
1 
1 
1 
1 
1 
1 
1 
1 
1 
1 
1 
1 
1 
1 
1 
1 
1 
1 
1 
1 
1 
1 
1 
1 
1 
1 
1 
1 
1 
1 
1 
1 
1 
1 
1 
1 
1 
1 
1 
1 
1 
1 
1 
1 
1 
1 
1 
1 
1 
1 
1 
1 
1 
1 
1 
1 
1 
1 
1 
1 
1 
1 
1 
1 
1 
1 
1 
1 
1 
1 
1 
1 
1 
1 
1 
1 
1 
1 
1 
1 
1 
1 
1 
1 
1 
1 
1 
1 
1 
1 
1 
1 
1 
1 
1 
1 
1 
1 
1 
1 
1 
1 
1 
1 
1 
1 
1 
1 
1 
1 
1 
1 
1 
1 
1 
1 
1 
1 
1 
1 
1 
1 
1 
1 
1 
1 
1 
1 
1 
1 
1 
1 
1 
1 
1 
1 
1 
1 
1 
1 
1 
1 
1 
1 
1 
1 
1 
1 
1 
1 
1 
1 
1 
1 
1 
1 
1 
1 
1 
1 
1 
1 
1 
1 
1 
1 
1 
1 
1 
1 
1 
1 
1 
1 
1 
1 
1 
1 
1 
1 
1 
1 
1 
1 
1 
1 
1 
1 
1 
1 
1 
1 
1 
1 
1 
1 
1 
1 
1 
1 
1 
1 
1 
1 
1 
1 
1 
1 
1 
1 
1 
1 
1 
1 
1 
1 
1 
1 
1 
1 
1 
1 
1 
1 
1 
1 
1 
1 
1 
1 
1 
1 
1 
1 
1 
1 
1 
1 
1 
1 
1 
1 
1 
1 
1 
1 
1 
1 
1 
1 
1 
1 
1 
1 
1 
1 
1 
1 
1 
1 
1 
1 
1 
1 
1 
1 
1 
1 
1 
1 
1 
1 
1 
1 
1 
1 
1 
1 
1 
1 
1 
1 
1 
1 
1 
1 
1 
1 
1 
1 
1 
1 
1 
1 
1 
1 
1 
1 
1 
1 
1 
1 
1 
1 
1 
1 
1 
1 
1 
1 
1 
1 
1 
1 
1 
1 
1 
1 
1 
1 
1 
1 
1 
1 
1 
1 
1 
1 
1 
1 
1 
1 
1 
1 
1 
1 
1 
1 
1 
1 
1 
1 
1 
1 
1 
1 
1 
1 
1 
1 
1 
1 
1 
1 
1 
1 
1 
1 
1 
1 
1 
1 
1 
1 
1 
1 
1 
1 
1 
1 
1 
1 
1 
1 
1 
1 
1 
1 
1 
1 
1 
1 
1 
1 
1 
1 
1 
1 
1 
1 
1 
1 
1 
1 
1 
1 
1 
1 
1 
1 
1 
1 
1 
1 
1 
1 
1 
1 
1 
1 
1 
1 
1 
1 
1 
1 
1 
1 
1 
1 
1 
1 
1 
1 
1 
1 
1 
1 
1 
1 
1 
1 
1 
1 
1 
1 
1 
1 
1 
1 
1 
1 
1 
1 
1 
1 
1 
1 
1 
1 
1 
1 
1 
1 
1 
1 
1 
1 
1 
1 
1 
1 
1 
1 
1 
1 
1 
1 
1 
1 
1 
1 
1 
1 
1 
1 
1 
1 
1 
1 
1 
1 
1 
1 
1 
1 
1 
1 
1 
1 
1 
1 
1 
1 
1 
1 
1 
1 
1 
1 
1 
1 
1 
1 
1 
1 
1 
1 
1 
1 
1 
1 
1 
1 
1 
1 
1 
1 
1 
1 
1 
1 
1 
1 
1 
1 
1 
1 
1 
1 
1 
1 
1 
1 
1 
1 
1 
1 
1 
1 
1 
1 
1 
1 
1 
1 
1 
1 
1 
1 
1 
1 
1 
1 
1 
1 
1 
1 
1 
1 
1 
1 
1 
1 
1 
1 
1 
1 
1 
1 
1 
1 
1 
1 
1 
1 
1 
1 
1 
1 
1 
1 
1 
1 
1 
1 
1 
1 
1 
1 
1 
1 
1 
1 
1 
1 
1 
1 
1 
1 
1 
1 
1 
1 
1 
1 
1 
1 
1 
1 
1 
1 
1 
1 
1 
1 
1 
1 
1 
1 
1 
1 
1 
1 
1 
1 
1 
1 
1 
1 
1 
1 
1 
1 
1 
1 
1 
1 
1 
1 
1 
1 
1 
1 
1 
1 
1 
1 
1 
1 
1 
1 
1 
1 
1 
1 
1 
1 
1 
1 
1 
1 
1 
1 
1 
1 
1 
1 
1 
1 
1 
1 
1 
1 
1 
1 
1 
1 
1 
1 
1 
1 
1 
1 
1 
1 
1 
1 
1 
1 
1 
1 
1 
1 
1 
1 
1 
1 
1 
1 
1 
1 
1 
1 
1 
1 
1 
1 
1 
1 
1 
1 
1 
1 
1 
1 
1 
1 
1 
1 
1 
1 
1 
1 
1 
1 
1 
1 
1 
1 
1 
1 
1 
1 
1 
1 
1 
1 
1 
1 
1 
1 
1 
1 
1 
1 
1 
1 
1 
1 
1 
1 
1 
1 
1 
1 
1 
1 
1 
1 
1 
1 
1 
1 
1 
1 
1 
1 
1 
1 
1 
1 
1 
1 
1 
1 
1 
1 
1 
1 
1 
1 
1 
1 
1 
1 
1 
1 
1 
1 
1 
1 
1 
1 
1 
1 
1 
1 
1 
1 
1 
1 
1 
1 
1 
1 
1 
1 
1 
1 
1 
1 
1 
1 
1 
1 
1 
1 
1 
1 
1 
1 
1 
1 
1 
1 
1 
1 
1 
1 
1 
1 
1 
1 
1 
1 
1 
1 
1 
1 
1 
1 
1 
1 
1 
1 
1 
1 
1 
1 
1 
1 
1 
1 
1 
1 
1 
1 
1 
1 
1 
1 
1 
1 
1 
1 
1 
1 
1 
1 
1 
1 
1 
1 
1 
1 
1 
1 
1 
1 
1 
1 
1 
1 
1 
1 
1 
1 
1 
1 
1 
1 
1 
1 
1 
1 
1 
1 
1 
1 
1 
1 
1 
1 
1 
1 
1 
1 
1 
1 
1 
1 
1 
1 
1 
1 
1 
1 
1 
1 
1 
1 
1 
1 
1 
1 
1 
1 
1 
1 
1 
1 
1 
1 
1 
1 
1 
1 
1 
1 
1 
1 
1 
1 
1 
1 
1 
1 
1 
1 
1 
1 
1 
1 
1 
1 
1 
1 
1 
1 
1 
1 
1 
1 
1 
1 
1 
1 
1 
1 
1 
1 
1 
1 
1 
1 
1 
1 
1 
1 
1 
1 
1 
1 
1 
1 
1 
1 
1 
1 
1 
1 
1 
1 
1 
1 
1 
1 
1 
1 
1 
1 
1 
1 
1 
1 
1 
1 
1 
1 
1 
1 
1 
1 
1 
1 
1 
1 
1 
1 
1 
1 
1 
1 
1 
1 
1 
1 
1 
1 
1 
1 
1 
1 
1 
1 
1 
1 
1 
1 
1 
1 
1 
1 
1 
1 
1 
1 
1 
1 
1 
1 
1 
1 
1 
1 
1 
1 
1 
1 
1 
1 
1 
1 
1 
1 
1 
1 
1 
1 
1 
1 
1 
1 
1 
1 
1 
1 
1 
1 
1 
1 
1 
1 
1 
1 
1 
1 
1 
1 
1 
1 
1 
1 
1 
1 
1 
1 
1 
1 
1 
1 
1 
1 
1 
1 
1 
1 
1 
1 
1 
1 
1 
1 
1 
1 
1 
1 
1 
1 
1 
1 
1 
1 
1 
1 
1 
1 
1 
1 
1 
1 
1 
1 
1 
1 
1 
1 
1 
1 
1 
1 
1 
1 
1 
1 
1 
1 
1 
1 
1 
1 
1 
1 
1 
1 
1 
1 
1 
1 
1 
1 
1 
1 
1 
1 
1 
1 
1 
1 
1 
1 
1 
1 
1 
1 
1 
1 
1 
1 
1 
1 
1 
1 
1 
1 
1 
1 
1 
1 
1 
1 
1 
1 
1 
1 
1 
1 
1 
1 
1 
1 
1 
1 
1 
1 
1 
1 
1 
1 
1 
1 
1 
1 
1 
1 
1 
1 
1 
1 
1 
1 
1 
1 
1 
1 
1 
1 
1 
1 
1 
1 
1 
1 
1 
1 
1 
1 
1 
1 
1 
1 
1 
1 
1 
1 
1 
1 
1 
1 
1 
1 
1 
1 
1 
1 
1 
1 
1 
1 
1 
1 
1 
1 
1 
1 
1 
1 
1 
1 
1 
1 
1 
1 
1 
1 
1 
1 
1 
1 
1 
1 
1 
1 
1 
1 
1 
1 
1 
1 
1 
1 
1 
1 
1 
1 
1 
1 
1 
1 
1 
1 
1 
1 
1 
1 
1 
1 
1 
1 
1 
1 
1 
1 
1 
1 
1 
1 
1 
1 
1 
1 
1 
1 
1 
1 
1 
1 
1 
1 
1 
1 
1 
1 
1 
1 
1 
1 
1 
1 
1 
1 
1 
1 
1 
1 
1 
1 
1 
1 
1 
1 
1 
1 
1 
1 
1 
1 
1 
1 
1 
1 
1 
1 
1 
1 
1 
1 
1 
1 
1 
1 
1 
1 
1 
1 
1 
1 
1 
1 
1 
1 
1 
1 
1 
1 
1 
1 
1 
1 
1 
1 
1 
1 
1 
1 
1 
1 
1 
1 
1 
1 
1 
1 
1 
1 
1 
1 
1 
1 
1 
1 
1 
1 
1 
1 
1 
1 
1 
1 
1 
1 
1 
1 
1 
1 
1 
1 
1 
1 
1 
1 
1 
1 
1 
1 
1 
1 
1 
1 
1 
1 
1 
1 
1 
1 
1 
1 
1 
1 
1 
1 
1 
1 
1 
1 
1 
1 
1 
1 
1 
1 
1 
1 
1 
1 
1 
1 
1 
1 
1 
1 
1 
1 
1 
1 
1 
1 
1 
1 
1 
1 
1 
1 
1 
1 
1 
1 
1 
1 
1 
1 
1 
1 
1 
1 
1 
1 
1 
1 
1 
1 
1 
1 
1 
1 
1 
1 
1 
1 
1 
1 
1 
1 
1 
1 
1 
1 
1 
1 
1 
1 
1 
1 
1 
1 
1 
1 
1 
1 
1 
1 
1 
1 
1 
1 
1 
1 
1 
1 
1 
1 
1 
1 
1 
1 
1 
1 
1 
1 
1 
1 
1 
1 
1 
1 
1 
1 
1 
1 
1 
1 
1 
1 
1 
1 
1 
1 
1 
1 
1 
1 
1 
1 
1 
1 
1 
1 
1 
1 
1 
1 
1 
1 
1 
1 
1 
1 
1 
1 
1 
1 
1 
1 
1 
1 
1 
1 
1 
1 
1 
1 
1 
1 
1 
1 
1 
1 
1 
1 
1 
1 
1 
1 
1 
1 
1 
1 
1 
1 
1 
1 
1 
1 
1 
1 
1 
1 
1 
1 
1 
1 
1 
1 
1 
1 
1 
1 
1 
1 
1 
1 
1 
1 
1 
1 
1 
1 
1 
1 
1 
1 
1 
1 
1 
1 
1 
1 
1 
1 
1 
1 
1 
1 
1 
1 
1 
1 
1 
1 
1 
1 
1 
1 
1 
1 
1 
1 
1 
1 
1 
1 
1 
1 
1 
1 
1 
1 
1 
1 
1 
1 
1 
1 
1 
1 
1 
1 
1 
1 
1 
1 
1 
1 
1 
1 
1 
1 
1 
1 
1 
1 
1 
1 
1 
1 
1 
1 
1 
1 
1 
1 
1 
1 
1 
1 
1 
1 
1 
1 
1 
1 
1 
1 
1 
1 
1 
1 
1 
1 
1 
1 
1 
1 
1 
1 
1 
1 
1 
1 
1 
1 
1 
1 
1 
1 
1 
1 
1 
1 
1 
1 
1 
1 
1 
1 
1 
1 
1 
1 
1 
1 
1 
1 
1 
1 
1 
1 
1 
1 
1 
1 
1 
1 
1 
1 
1 
1 
1 
1 
1 
1 
1 
1 
1 
1 
1 
1 
1 
1 
1 
1 
1 
1 
1 
1 
1 
1 
1 
1 
1 
1 
1 
1 
1 
1 
1 
1 
1 
1 
1 
1 
1 
1 
1 
1 
1 
1 
1 
1 
1 
1 
1 
1 
1 
1 
1 
1 
1 
1 
1 
1 
1 
1 
1 
1 
1 
1 
1 
1 
1 
1 
1 
1 
1 
1 
1 
1 
1 
1 
1 
1 
1 
1 
1 
1 
1 
1 
1 
1 
1 
1 
POINT_DATA 5000
VECTORS Stress float
-2759.57 -5187.04 0.
-2126.75 -2733.63 0.
-666.123 -992.532 0.
-465.887 -1083.9 0.
-2063.25 -3219.86 0.
-1059.94 -1752.33 0.
-3833.04 -5612.49 0.
-99.5926 -256.807 0.
-1.74629 -4.55404 0.
-3973.85 -6108.78 0.
-1429.37 -2345.69 0.
-56.9666 -89.6845 0.
-1911.94 -2896.59 0.
-1576.23 -2521.43 0.
-1438.69 -2409.79 0.
-1155.33 -2075.36 0.
-872.533 -1740.38 0.
-865.138 -1791.17 0.
-674.987 -1476.66 0.
-487.479 -1159.5 0.
-536.553 -1105.15 0.
-495.82 -1038.46 0.
-455.095 -971.755 0.
-486.258 -997.962 0.
-482.51 -1043.29 0.
-481.741 -1085.63 0.
-557.143 -1163.69 0.
-569.504 -1175.79 0.
-517.555 -1106.2 0.
-482.062 -1048.65 0.
-447.23 -990.433 0.
-432.151 -968.523 0.
-421.953 -954.524 0.
-411.906 -940.375 0.
-411.697 -947.328 0.
-418.599 -988.792 0.
-431.625 -1024.13 0.
-487.362 -1059.99 0.
-483.447 -1050.85 0.
-424.254 -997.797 0.
-403.575 -963.622 0.
-388.674 -923.67 0.
-389.295 -908.248 0.
-379.087 -889.497 0.
-369.793 -869.833 0.
-365.778 -854.585 0.
-359.945 -840.971 0.
-354.111 -827.357 0.
-315.05 -837.841 0.
-335.055 -887.47 0.
-355.945 -936.211 0.
-406.45 -929.143 0.
-391.376 -893.97 0.
-364.934 -863.13 0.
-371.629 -878.754 0.
-378.324 -894.377 0.
-381.281 -900.437 0.
-379.558 -893.149 0.
-379.416 -884.279 0.
-376.54 -888.078 0.
-391.817 -931.483 0.
-412.661 -969.321 0.
-468.898 -1020.67 0.
-469.819 -1022.82 0.
-424.398 -983.272 0.
-411.144 -938.24 0.
-402.587 -888.512 0.
-393.248 -878.047 0.
-408.174 -910.663 0.
-425.647 -940.731 0.
-439.194 -975.493 0.
-482.795 -1053.17 0.
-527.13 -1130.12 0.
-561.189 -1180.45 0.
-537.059 -1141.37 0.
-504.366 -1097.95 0.
-469.093 -989.738 0.
-472.344 -939.813 0.
-425.178 -917.86 0.
-500.067 -1064.41 0.
-575.008 -1210.91 0.
-513.373 -1255.31 0.
-828.201 -1818.51 0.
-1150 -2374.74 0.
-1168.35 -1943.22 0.
-1310.09 -1740.07 0.
-1428.74 -1559.99 0.
-1621.82 -2536.81 0.
-2504.29 -4166.6 0.
-107.137 -176.225 0.
-947.24 -1537.39 0.
-4640.27 -6948.45 0.
-318.057 -342.833 0.
-546.537 -576.285 0.
-3325.96 -3980.35 0.
-161.177 -418.419 0.
-3925.18 -6818.19 0.
-326.525 -776.917 0.
-2964.52 -4851.7 0.
-2765.6 -4734.9 0.
-1222.76 -2706.06 0.
-0.860582 -32.0295 0.
-1.63758 -5.66827 0.
4.24086 10.0001 0.
-338.612 -776.353 0.
-112.017 -277.966 0.
-158.229 -429.923 0.
-49.6916 -133.172 0.
-0.0410564 -0.111947 0.
-20.3861 -26.9421 0.
-33.9617 -50.9482 0.
-226.74 -153.158 0.
-750.827 -1153.16 0.
-472.957 -719.078 0.
-590.889 -1243.48 0.
-370.708 -845.229 0.
-178.659 -418.845 0.
-564.341 -1325.59 0.
-400.564 -984.501 0.
-260.591 -619.605 0.
-417.453 -1013.02 0.
-376.611 -946.423 0.
-337.389 -878.208 0.
-454.588 -911.914 0.
-449.71 -958.372 0.
-445.719 -1003.94 0.
-647.371 -1219.68 0.
-654.706 -1236.8 0.
-495.624 -1031.64 0.
-457.533 -976.682 0.
-421.373 -919.79 0.
-411.342 -941.221 0.
-400.744 -927.622 0.
-398.345 -905.824 0.
-385.677 -893.359 0.
-390.608 -936.796 0.
-399.228 -976.544 0.
-567.898 -1094.48 0.
-563.987 -1085.34 0.
-412.622 -940.823 0.
-390.734 -907.857 0.
-371.757 -871.979 0.
-377.977 -898.104 0.
-366.546 -880.579 0.
-355.384 -862.783 0.
-374.56 -850.027 0.
-365.381 -839.759 0.
-357.091 -828.601 0.
-282.375 -707.9 0.
-293.773 -766.143 0.
-310.537 -819.01 0.
-432.078 -940.092 0.
-417.002 -904.922 0.
-355.573 -847.367 0.
-365.771 -859.487 0.
-376.782 -870.794 0.
-372.709 -895.86 0.
-373.043 -886.513 0.
-373.678 -876.866 0.
-346.11 -826.252 0.
-363.64 -867.408 0.
-387.502 -902.232 0.
-546.64 -1053.96 0.
-547.559 -1056.12 0.
-412.541 -940.867 0.
-400.844 -894.277 0.
-393.872 -842.962 0.
-385.056 -842.811 0.
-393.712 -881.698 0.
-408.099 -914.854 0.
-395.32 -889.191 0.
-441.962 -963.837 0.
-489.516 -1037.57 0.
-602.87 -1228.21 0.
-583.533 -1184.35 0.
-414.536 -972.749 0.
-429 -896.5 0.
-433.208 -845.614 0.
-291.864 -748.973 0.
-367.248 -895.064 0.
-445.938 -1037.85 0.
-115.128 -304.311 0.
-352.7 -945.382 0.
-623.992 -1552.73 0.
-262.364 -153.966 0.
-243.691 -106.431 0.
-208.783 -79.8363 0.
-4.33809 -6.37566 0.
-546.859 -1342.84 0.
-164.685 -211.889 0.
-160.19 -221.685 0.
-159.279 -245.446 0.
-199.376 -240.467 0.
-176.835 -174.032 0.
-196.995 -171.281 0.
0.901756 3.22565 0.
-412 -1139.86 0.
1.8997 4.62851 0.
-4.22369 -8.00288 0.
2.66988 5.49573 0.
7.05121 16.9257 0.
-0.308727 -20.8182 0.
-3.27049 -11.7656 0.
0.174306 1.87397 0.
-117.732 -325.927 0.
-27.6765 -68.3267 0.
-116.139 -315.121 0.
-4.83723 -12.5934 0.
-0.00317725 -1.3533 0.
-27.2087 -30.3507 0.
-41.9344 -54.3157 0.
-495.795 -287.945 0.
-191.714 -122.345 0.
-203.116 -101.074 0.
-102.984 -168.329 0.
-42.5195 -41.9767 0.
-74.7518 -82.5739 0.
-344.845 -778.712 0.
-212.715 -405.772 0.
-62.3657 -53.5151 0.
-348.904 -870.338 0.
-314.439 -797.354 0.
-282.726 -721.617 0.
-428.879 -819.904 0.
-424.018 -866.348 0.
-419.604 -912.336 0.
-749.723 -1263.54 0.
-757.057 -1280.66 0.
-492.546 -938.229 0.
-455.551 -882.168 0.
-419.472 -825.191 0.
-394.917 -909.535 0.
-390.496 -889.758 0.
-387.918 -868.138 0.
-367.199 -831.847 0.
-371.286 -876.13 0.
-376.252 -919.535 0.
-648.433 -1128.98 0.
-644.528 -1119.82 0.
-408.18 -876.66 0.
-386.714 -843.27 0.
-366.338 -808.789 0.
-380.361 -874.26 0.
-368.938 -856.727 0.
-357.781 -838.928 0.
-397.827 -830.984 0.
-388.345 -821.019 0.
-379.307 -810.61 0.
-251.176 -576.485 0.
-260.739 -636.569 0.
-958.609 -1123.42 0.
-457.705 -951.042 0.
-442.629 -915.873 0.
-370.418 -807.397 0.
-380.437 -819.696 0.
-391.31 -831.14 0.
-383.773 -871.645 0.
-383.143 -863.262 0.
-383.526 -853.866 0.
-329.218 -750.89 0.
-349.153 -789.644 0.
-371.653 -825.833 0.
-624.382 -1087.25 0.
-625.298 -1089.41 0.
-414.649 -884.498 0.
-407.723 -833.136 0.
-401.846 -780.724 0.
-380.191 -804.248 0.
-389.619 -842.365 0.
-398.573 -880.956 0.
-373.608 -780.727 0.
-419.002 -856.628 0.
-465.308 -931.616 0.
-665.611 -1254.91 0.
-646.154 -1211.17 0.
-345.463 -786.831 0.
-393.07 -799.098 0.
-396.29 -749.198 0.
-240.617 -498.021 0.
-285.689 -674.459 0.
-344.546 -837.112 0.
-0.0462627 -0.0580022 0.
0.160665 0.118849 0.
-231.046 -597.662 0.
-383.42 -219.233 0.
-95.4475 -35.673 0.
-10.6122 -7.1941 0.
-4.30152 -6.07246 0.
-54.0932 -64.2141 0.
-231.15 -240.708 0.
-227.799 -249.187 0.
-221.252 -273.659 0.
-282.526 -290.525 0.
-237.111 -200.637 0.
-261.515 -239.629 0.
3.08107 5.949 0.
-169.81 -458.935 0.
11.0344 26.8667 0.
26.432 70.8061 0.
-1419.23 -2906.77 0.
30.6443 63.7064 0.
-0.677948 -40.9466 0.
-91.6881 -231.955 0.
-2560.75 -5232.47 0.
-1233.18 -1753.51 0.
-757.684 -1289.58 0.
-942.63 -2024 0.
-3834.71 -8000.49 0.
-58.3096 -132.176 0.
-3114.09 -4091.6 0.
-60.4631 -140.974 0.
-43.3413 -119.971 0.
-4357.62 -8569.88 0.
-0.496074 -0.328416 0.
-2377.62 -4169.92 0.
-1535.89 -2876.53 0.
-749.667 -1527.61 0.
-2176.73 -4477.88 0.
-1142.58 -2562.66 0.
-232.197 -523.679 0.
-1225.82 -2945.64 0.
-818.323 -2097.85 0.
-451.021 -1209.88 0.
-758.678 -1847.64 0.
-626.097 -1564.72 0.
-499.681 -1275.63 0.
-954.309 -1857.94 0.
-948.723 -1844.92 0.
-682.08 -1493.71 0.
-649.717 -1424.6 0.
-617.422 -1355.42 0.
-625.094 -1374.27 0.
-595.375 -1347.9 0.
-566.831 -1320.35 0.
-585.321 -1259.11 0.
-575.027 -1276.91 0.
-565.586 -1293.85 0.
-838.48 -1565.81 0.
-847.195 -1586.18 0.
-598.659 -1362.38 0.
-578.09 -1323.33 0.
-557.714 -1284.09 0.
-574.994 -1308.54 0.
-557.055 -1287.15 0.
-540.245 -1264.64 0.
-573.178 -1242.71 0.
-557.512 -1224.62 0.
-543.023 -1205.36 0.
-393.739 -922.822 0.
-398.088 -953.513 0.
-1353.75 -1605.27 0.
-570.56 -1328.57 0.
-571.136 -1329.91 0.
-572.839 -1252.6 0.
-563.11 -1218.59 0.
-555.012 -1182.94 0.
-518.412 -1188.89 0.
-539.602 -1221.76 0.
-561.794 -1253.63 0.
-519.571 -1222.04 0.
-542.882 -1269.6 0.
-566.359 -1316.99 0.
-832.63 -1557.45 0.
-824.238 -1537.86 0.
-561.471 -1262.11 0.
-579.286 -1255.18 0.
-598.299 -1247.05 0.
-568.387 -1314.26 0.
-589.637 -1326.69 0.
-611.659 -1338.36 0.
-547.071 -1280.69 0.
-588.6 -1364.95 0.
-630.227 -1449.11 0.
-844.897 -1845.48 0.
-873.427 -1912.08 0.
-415.036 -1137.56 0.
-640.006 -1660.67 0.
-859.806 -2123.28 0.
-353.97 -965.931 0.
-869.397 -2165.56 0.
-1452.29 -3297.72 0.
-124.495 -166.706 0.
-1279.81 -2874.1 0.
-2574.67 -5441.92 0.
-508.304 -692.937 0.
-1380.55 -1947.2 0.
-2296.07 -3158.17 0.
-218.678 -265.673 0.
-4463.39 -8095.39 0.
0.182019 0.977298 0.
-84.4398 -233.421 0.
-3831.95 -6564.32 0.
-269.846 -553.146 0.
-3829.17 -5475.37 0.
0.374113 0.923128 0.
-3521.08 -6542.02 0.
3.79076 7.72264 0.
-4337.9 -8223.24 0.
-1.02264 -29.4972 0.
-5.78705 -49.584 0.
-2039.12 -3808.63 0.
3.96801 9.49921 0.
-65.9004 -163.041 0.
-1485.5 -3303.84 0.
-1.11274 -16.2644 0.
-3.93619 -13.7176 0.
-0.730165 -8.25082 0.
-317.575 -771.771 0.
1.14775 2.80594 0.
-0.0963158 -1.92878 0.
-5.01607e-05 -4.37239 0.
0.397293 2.82007 0.
-24.0592 -19.7271 0.
-0.346 -0.252571 0.
-97.3861 -36.0629 0.
-13.7151 -6.94724 0.
-25.6426 -11.8888 0.
-252.048 -581.635 0.
-38.5913 -79.0976 0.
-11.5312 -12.7386 0.
-661.152 -1710.56 0.
-317.417 -797.839 0.
-40.5109 -49.8343 0.
-601.567 -1517.05 0.
-488.998 -1214.01 0.
-384.618 -902.785 0.
-892.59 -1831.52 0.
-887 -1818.5 0.
-661.379 -1451.2 0.
-626.741 -1384.36 0.
-592.369 -1317.25 0.
-624.1 -1297.44 0.
-594.575 -1270.87 0.
-565.929 -1243.42 0.
-610.224 -1208.68 0.
-599.132 -1227.28 0.
-588.87 -1245.05 0.
-841.825 -1567.2 0.
-850.539 -1587.58 0.
-603.103 -1332.88 0.
-583.572 -1292.79 0.
-564.249 -1252.49 0.
-581.948 -1245.17 0.
-564.649 -1223.15 0.
-548.465 -1200.01 0.
-570.95 -1179.89 0.
-554.808 -1162.28 0.
-539.916 -1143.42 0.
-386.592 -825.857 0.
-391.547 -855.945 0.
-1769.24 -1776.82 0.
-562.362 -1250.95 0.
-568.586 -1246.64 0.
-602.901 -1215.89 0.
-593.423 -1181.63 0.
-584.644 -1146.66 0.
-520.978 -1124.57 0.
-542.095 -1157.51 0.
-564.183 -1189.49 0.
-540.441 -1194.04 0.
-563.645 -1241.7 0.
-587.013 -1289.2 0.
-840.795 -1560.91 0.
-832.4 -1541.33 0.
-545.608 -1186.46 0.
-564.579 -1178.38 0.
-584.569 -1169.28 0.
-553.45 -1231.52 0.
-573.347 -1245.31 0.
-596.417 -1255.92 0.
-506.285 -1230.69 0.
-548.182 -1314.59 0.
-590.377 -1398.18 0.
-787.474 -1774.28 0.
-831.038 -1825.86 0.
-223.81 -585.452 0.
-388.767 -1075.21 0.
-577.451 -1569.23 0.
-0.579921 -0.0339305 0.
-20.9684 -20.5359 0.
-506.37 -1252.86 0.
-3.24353 -2.19119 0.
-3.58412 -1.66528 0.
-204.663 -345.758 0.
0.842317 1.04934 0.
0.380415 0.708812 0.
-57.9564 -159.865 0.
-303.016 -301.727 0.
-162.532 -111.121 0.
1.98856 3.28595 0.
-62.0238 -149.346 0.
-332.178 -919.952 0.
-0.625275 -9.33395 0.
0.302511 0.617664 0.
9.87008 24.4967 0.
-647.791 -1323.58 0.
9.13017 19.3281 0.
-1.48447 -50.6047 0.
-1495.24 -3754.45 0.
67.5937 130.274 0.
-1.18759 -210.582 0.
5.80146 14.1507 0.
-131.681 -318.8 0.
-0.828861 -82.0914 0.
-0.953023 -27.6678 0.
13.0147 22.9878 0.
-2.22248 -22.8786 0.
-2023.01 -4226.55 0.
-28.0521 -58.4712 0.
-2812.08 -5391.63 0.
-104.911 -226.034 0.
0.806507 1.97965 0.
-3173.04 -7961.29 0.
-15.5473 -29.9551 0.
-2791.12 -4765.46 0.
-946.342 -1681.55 0.
-37.093 -30.3671 0.
-2998 -6639.58 0.
-1080.24 -2492 0.
0.428429 0.0684694 0.
-2045.14 -4549.49 0.
-1015.15 -2459.28 0.
-117.782 -236.439 0.
-1186.59 -2714.67 0.
-753.43 -1785.79 0.
-347.399 -829.769 0.
-948.84 -1902.51 0.
-800.948 -1648.08 0.
-550.121 -1225.01 0.
-480.205 -1091.36 0.
-411.151 -956.854 0.
-473.532 -927.678 0.
-453.903 -901.592 0.
-434.762 -875.019 0.
-462.194 -863.284 0.
-444.746 -832.94 0.
-427.454 -802.441 0.
-657.24 -1130.35 0.
-645.844 -1103.75 0.
-405.462 -761.765 0.
-416.591 -796.286 0.
-427.857 -830.67 0.
-454.187 -862.595 0.
-445.854 -850.67 0.
-438.135 -838.132 0.
-462.014 -848.286 0.
-465.227 -855.139 0.
-468.707 -861.727 0.
-278.016 -488.608 0.
-260.543 -446.218 0.
-1638.5 -1389.81 0.
-420.728 -790.955 0.
-419.727 -792.19 0.
-455.724 -796.459 0.
-465.791 -819.025 0.
-487.948 -829.499 0.
-425.073 -801.169 0.
-430.504 -808.666 0.
-436.147 -815.951 0.
-411.3 -784.866 0.
-401.193 -755.222 0.
-391.11 -725.554 0.
-633.721 -1084.18 0.
-653.816 -1131.04 0.
-390.741 -773.897 0.
-411.937 -813.102 0.
-433.263 -852.176 0.
-420.423 -885.047 0.
-446.492 -924.991 0.
-472.743 -964.755 0.
-374.29 -952.524 0.
-481.047 -1166.42 0.
-587.883 -1380.24 0.
-813.369 -1792.96 0.
-1012.14 -2139.88 0.
-203.087 -555.873 0.
-742.025 -1865.64 0.
-1318.38 -3106.16 0.
-5.00387 -7.08554 0.
-935.549 -2403.26 0.
-2412.42 -5675.9 0.
-195.871 -292.509 0.
-735.865 -1166.58 0.
-2560.89 -4423.62 0.
0.459385 0.275589 0.
-3627.38 -7725.05 0.
2.7899 0.779205 0.
-146.987 -101.83 0.
-2830.68 -5073.96 0.
-78.5133 -199.916 0.
-2799.01 -6004.76 0.
8.03142 17.7902 0.
-2355.24 -4864.09 0.
-0.0581972 -44.2446 0.
13.4171 33.2789 0.
21.7448 51.6462 0.
12.0309 26.0851 0.
29.4006 77.156 0.
-2.96709 -143.26 0.
-3033.35 -5472.19 0.
-0.292107 -126.943 0.
-381.032 -943 0.
-1379.18 -3322.17 0.
10.771 28.8991 0.
-442.535 -1161.54 0.
5.65511 15.4654 0.
-2987.94 -6973.43 0.
9.88076 25.3574 0.
1.77914 4.16558 0.
3.80007 9.9729 0.
-0.42858 -5.86188 0.
1.98289 5.06059 0.
-11.1712 -26.4386 0.
-0.194533 -0.521701 0.
0.100556 1.24091 0.
0.331685 0.509468 0.
-0.0441809 -0.589814 0.
-158.504 -343.266 0.
-35.7368 -28.8017 0.
-0.033391 -8.00312e-06 0.
-425.939 -1027.12 0.
-0.512203 -0.0342005 0.
-12.9971 -6.39936 0.
-663.464 -1673.52 0.
-293.19 -680.638 0.
-46.3105 -38.3037 0.
-676.704 -1458.12 0.
-545.491 -1186.86 0.
-454.572 -1067.51 0.
-394.399 -924.089 0.
-337.158 -777.741 0.
-447.323 -864.889 0.
-430.003 -836.497 0.
-410.874 -809.913 0.
-446.522 -816.417 0.
-426.892 -788.258 0.
-409.491 -757.869 0.
-660.792 -1131.84 0.
-649.395 -1105.25 0.
-401.212 -736.903 0.
-412.249 -771.519 0.
-423.44 -805.981 0.
-455.074 -806.178 0.
-447.22 -793.78 0.
-440.007 -780.742 0.
-444.24 -817.21 0.
-447.731 -823.792 0.
-451.41 -830.186 0.
-266.675 -433.01 0.
-249.7 -390.12 0.
-1313.2 -1245.3 0.
-431.346 -766.838 0.
-430.035 -768.386 0.
-446.304 -753.734 0.
-455.997 -776.675 0.
-466.101 -799.205 0.
-415.415 -754.993 0.
-421.069 -762.267 0.
-427.893 -768.37 0.
-410.178 -777.333 0.
-400.652 -747.107 0.
-391.251 -716.756 0.
-618.976 -1077.84 0.
-639.069 -1124.7 0.
-377.939 -731.59 0.
-399.059 -770.869 0.
-425.599 -804.729 0.
-357.908 -787.963 0.
-383.903 -827.984 0.
-409.643 -868.26 0.
-257.761 -662.65 0.
-341.489 -899.644 0.
-432.227 -1129.63 0.
-428.951 -1142.71 0.
-606.036 -1511.61 0.
-3.27663 -5.19824 0.
-108.96 -293.422 0.
-607.643 -1613.69 0.
-1.34116 -2.30301 0.
-9.49321 -18.0837 0.
-241.894 -647.693 0.
-58.6648 -71.048 0.
-43.3846 -49.9805 0.
-30.6083 -34.322 0.
0.486347 0.301951 0.
-1.49282 -0.00225226 0.
5.26169 0.0225941 0.
0.944473 2.47576 0.
-138.834 -251.641 0.
-0.0438302 -5.06596 0.
-9.15043 -22.0341 0.
5.46409 13.2071 0.
-630.717 -1396.14 0.
5.07158 13.739 0.
-1659.72 -4405.38 0.
22.1962 53.7524 0.
4.63459 10.263 0.
29.6268 78.5298 0.
55.6808 148.363 0.
-10.9333 -293.28 0.
91.6502 253.486 0.
-1924.42 -4830.13 0.
-3.21652 -129.529 0.
9.96077 26.5306 0.
-525.259 -1386.54 0.
2.2738 6.23716 0.
-131.434 -336.952 0.
-0.15681 -16.3246 0.
6.63214 16.6248 0.
5.31255 14.4899 0.
3.94478 9.66091 0.
-0.197122 -8.04087 0.
0.465045 1.24032 0.
0.478345 1.32173 0.
0.131255 1.65516 0.
-0.122427 -0.778054 0.
0.0274146 0.948642 0.
-83.1951 -97.5256 0.
-4.43304 -2.4842 0.
0.808261 0.322167 0.
-0.405356 -0.0312212 0.
-0.0305252 -0.0140859 0.
-11.4535 -6.25044 0.
-246.857 -525.85 0.
-46.3255 -23.5883 0.
-58.4175 -41.0728 0.
-453.433 -964.865 0.
-339.546 -676.131 0.
-382.935 -886.087 0.
-328.952 -736.455 0.
-276.387 -585.406 0.
-426.748 -796.468 0.
-407.194 -770.31 0.
-388.311 -743.482 0.
-438.897 -761.504 0.
-418.849 -733.764 0.
-399.042 -705.783 0.
-664.343 -1133.33 0.
-652.946 -1106.75 0.
-397.606 -711.397 0.
-408.542 -746.116 0.
-419.638 -780.677 0.
-456.698 -749.023 0.
-449.395 -736.081 0.
-442.408 -722.823 0.
-431.471 -781.13 0.
-435.019 -787.661 0.
-438.654 -794.104 0.
-255.673 -377.073 0.
-239.038 -333.841 0.
-1410.12 -1299.35 0.
-448.973 -735.713 0.
-447.316 -737.608 0.
-437.15 -710.744 0.
-446.648 -733.882 0.
-456.332 -756.834 0.
-411.951 -702.624 0.
-417.551 -709.951 0.
-423.605 -716.825 0.
-421.998 -756.858 0.
-412.597 -726.506 0.
-403.349 -696.001 0.
-604.232 -1071.49 0.
-624.322 -1118.35 0.
-373.79 -680.629 0.
-400.135 -714.683 0.
-426.611 -748.605 0.
-308.384 -677.888 0.
-335.337 -716.954 0.
-361.22 -757.088 0.
-161.274 -352.734 0.
-239.775 -595.024 0.
-321.362 -834.227 0.
-142.446 -394.55 0.
-292.648 -790.623 0.
-22.117 -32.1338 0.
-6.80725 -10.8634 0.
-35.1665 -36.2 0.
0.117675 0.249275 0.
-4.7029 -10.5078 0.
-14.7898 -34.3576 0.
-52.6325 -64.1269 0.
-37.4658 -43.814 0.
-27.4979 -31.4091 0.
-10.1222 -6.03899 0.
1.98386 0.805844 0.
3.63831e-05 6.97539 0.
0.00205629 0.417631 0.
0.0717466 1.64197 0.
0.00266379 2.21903 0.
-0.150952 -4.68676 0.
-0.227494 -6.46751 0.
-247.254 -584.59 0.
-0.102118 -22.7376 0.
-795.193 -2129.72 0.
-929.348 -2430.26 0.
-0.471439 -104.872 0.
-1.41619 -92.3707 0.
53.2252 142.897 0.
-0.585784 -31.7808 0.
-1329.07 -3681.27 0.
-0.116108 -214.059 0.
-1.6199 -4.28229 0.
6.53503 17.9882 0.
-433.203 -1191.48 0.
15.0801 41.4399 0.
-46.9513 -124.345 0.
10.2339 28.2228 0.
9.03519 23.5037 0.
-0.736987 -24.7522 0.
-2413.79 -5668.19 0.
5.04721 12.491 0.
-1885.96 -4603.93 0.
-192.822 -456.192 0.
-0.758613 -1.9697 0.
-3527.85 -8220.87 0.
0.0826506 0.182108 0.
-2712.02 -5490.62 0.
-331.967 -698.869 0.
-13.447 -19.783 0.
-3135.89 -7614.88 0.
-313.228 -748.402 0.
-0.513289 -0.0510119 0.
-1957.05 -4831.61 0.
-774.153 -2046.38 0.
-21.7368 -13.2922 0.
-1310.29 -3122.19 0.
-856.503 -2113.75 0.
-907.873 -2172.62 0.
-665.205 -1642.97 0.
-439.815 -1096.05 0.
-673.525 -1475.07 0.
-582.719 -1310.47 0.
-492.719 -1145.06 0.
-621.13 -1217.35 0.
-582.452 -1163.36 0.
-544.646 -1108.5 0.
-859.435 -1634.52 0.
-863.082 -1643.06 0.
-595.716 -1238.24 0.
-564.169 -1173.16 0.
-533.222 -1107.47 0.
-529.263 -1059.84 0.
-536.051 -1079.83 0.
-543.165 -1099.49 0.
-563.5 -1152.2 0.
-560.488 -1159.64 0.
-562.951 -1161.6 0.
-349.818 -788.08 0.
-344.545 -772.146 0.
-1399.75 -1680.73 0.
-681.878 -1181.11 0.
-677.664 -1167.99 0.
-547.482 -1109.25 0.
-546.706 -1105.42 0.
-556.14 -1091.38 0.
-512.986 -1048.66 0.
-519.9 -1061.66 0.
-526.952 -1074.52 0.
-509.489 -1119.73 0.
-535.055 -1171.65 0.
-562.474 -1221.72 0.
-813.32 -1608.81 0.
-812.491 -1606.87 0.
-481.829 -1034.73 0.
-550.816 -1156.86 0.
-621.028 -1277.76 0.
-435.55 -1132.34 0.
-557.478 -1399.19 0.
-684.396 -1661.05 0.
-382.378 -1031.82 0.
-665.248 -1785.83 0.
-979.61 -2508.33 0.
-793.836 -2122.79 0.
-1431.06 -3561.27 0.
0.00211653 0.300858 0.
-692.239 -1816.61 0.
-2350.58 -5705.21 0.
-58.8788 -95.1769 0.
-21.3868 -21.6603 0.
-3338.75 -8250.2 0.
0.280075 0.491621 0.
-0.632387 -0.933961 0.
-3123.25 -5318.13 0.
-51.4682 -66.0416 0.
-2880.89 -7104.65 0.
-8.29897 -20.8363 0.
-23.9032 -59.787 0.
-2107.3 -5415.97 0.
-1.53057 -3.85401 0.
-1980.32 -4403.79 0.
-0.539395 -24.5099 0.
-15.5842 -38.5751 0.
-0.0606201 -31.7256 0.
7.8673 21.6411 0.
-695.648 -1831.42 0.
-16.5961 -45.7921 0.
-0.0425049 -17.6368 0.
-21.9046 -59.2254 0.
-2.32532 -261.233 0.
-160.802 -408.285 0.
-0.395299 -191.84 0.
17.4307 46.4936 0.
32.336 89.1655 0.
13.0321 35.9283 0.
23.775 65.4123 0.
-36.0791 -97.3108 0.
0.555844 1.5073 0.
-2537.09 -6122.22 0.
-0.537921 -23.5294 0.
-217.116 -539.046 0.
3.82526 10.0483 0.
-131.889 -299.764 0.
-0.279475 -5.47198 0.
2.42115 6.39818 0.
1.4502 3.53855 0.
-0.139642 -5.07073 0.
-22.3698 -43.1298 0.
0.4835 0.87319 0.
0.62704 0.359023 0.
-4.12968 -4.55936 0.
0.691561 0.450562 0.
0.211305 0.661907 0.
-453.071 -1207.66 0.
0.116354 0.0653902 0.
-6.99089 -5.16733 0.
-726.098 -1853.69 0.
-323.994 -792.158 0.
-580.964 -1456.86 0.
-369.504 -895.591 0.
-174.635 -317.732 0.
-524.009 -1246.94 0.
-445.452 -1070.04 0.
-377.439 -882.596 0.
-581.547 -1113.18 0.
-543.636 -1058.42 0.
-506.5 -1002.89 0.
-834.955 -1623.99 0.
-838.601 -1632.52 0.
-584.356 -1163.64 0.
-552.987 -1098.38 0.
-522.184 -1032.55 0.
-513.166 -1013.21 0.
-519.507 -1033.65 0.
-526.162 -1053.78 0.
-546.745 -1113.71 0.
-549.22 -1115.67 0.
-551.888 -1117.43 0.
-316.067 -751.182 0.
-311.328 -734.715 0.
-1293.44 -1632.64 0.
-754.126 -1151.97 0.
-749.076 -1139.68 0.
-518.445 -1050.97 0.
-517.456 -1047.35 0.
-516.868 -1043.34 0.
-498.689 -1006.34 0.
-504.255 -1020.68 0.
-511.023 -1033.83 0.
-462.293 -1017.78 0.
-488.599 -1068.97 0.
-515.783 -1119.28 0.
-789.653 -1595.17 0.
-793.054 -1589 0.
-417.066 -893.649 0.
-485.054 -1016.79 0.
-554.214 -1138.77 0.
-292.102 -730.737 0.
-385.451 -1026.28 0.
-491.87 -1308.75 0.
-3.33463 -2.2394 0.
-287.243 -745.356 0.
-553.726 -1516.51 0.
-66.1271 -123.269 0.
-619.97 -1648.08 0.
0.228546 1.15852 0.
0.0193716 0.552919 0.
-135.999 -334.583 0.
-110.986 -133.816 0.
-28.8718 -18.2482 0.
-28.8514 -12.592 0.
0.060645 0.306315 0.
-0.201421 -0.592162 0.
-1.23721 -2.81739 0.
-1.28181 -2.19479 0.
-143.471 -264.882 0.
-66.8421 -176.194 0.
-45.3721 -118.415 0.
5.7625 15.8886 0.
5.33713 13.6135 0.
-0.0283206 -4.51554 0.
-1389.18 -3609.42 0.
-260.104 -711.447 0.
3.72894 10.3127 0.
31.304 86.2064 0.
-434.225 -1149.71 0.
13.3849 36.9628 0.
29.5575 81.6541 0.
7.86521 21.4037 0.
7.26481 19.5078 0.
-679.683 -1750.94 0.
-0.817397 -185.602 0.
39.6618 109.44 0.
-934.392 -2580.22 0.
-6.72519 -18.572 0.
0.624674 1.72007 0.
12.6892 35.1317 0.
20.116 55.2176 0.
18.8507 52.075 0.
2.81163 7.46074 0.
-8.67359 -22.5755 0.
-0.142784 -15.8972 0.
8.55106e-06 2.33238 0.
-0.138651 -3.41761 0.
-632.462 -1696.21 0.
-1781 -4668.47 0.
0.0890328 2.76854 0.
-2515.58 -5607.56 0.
0.0727217 0.203991 0.
0.217488 0.521418 0.
-3076.73 -8212.85 0.
-0.147419 -1.01967 0.
0.439135 0.869193 0.
-2604.94 -6257.42 0.
-416.663 -1059.16 0.
-3.37566 -2.80179 0.
-1710.16 -4239.68 0.
-807.986 -2096.54 0.
-1110.43 -2655.53 0.
-685.403 -1691.52 0.
-291.546 -696.328 0.
-777.765 -1767.01 0.
-570.791 -1348.95 0.
-379.641 -915.064 0.
-617.244 -1197.46 0.
-490.285 -929.242 0.
-358.253 -666.1 0.
-676.324 -1325.44 0.
-650.589 -1278.47 0.
-435.844 -720.786 0.
-436.52 -728.922 0.
-437.407 -736.848 0.
-428.721 -771.509 0.
-419.093 -747.704 0.
-409.902 -723.462 0.
-429.055 -767.64 0.
-423.357 -747.48 0.
-417.916 -727.064 0.
-176.729 -407.206 0.
-161.292 -367.755 0.
-958.62 -1127.77 0.
-614.45 -721.309 0.
-613.453 -725.798 0.
-366.829 -641.032 0.
-388.626 -700.545 0.
-410.49 -759.991 0.
-404.059 -745.888 0.
-409.893 -761.437 0.
-417.436 -775.278 0.
-356.942 -691.1 0.
-358.148 -689.683 0.
-359.815 -687.804 0.
-607.39 -1292.2 0.
-663.567 -1387.6 0.
-301.311 -665.526 0.
-456.021 -987.446 0.
-608.498 -1311.6 0.
-292.51 -780.85 0.
-575.978 -1457.54 0.
-881.075 -2112.61 0.
-212.111 -560.288 0.
-716.56 -1844.2 0.
-1272.9 -3076.22 0.
-661.975 -1802.01 0.
-1887.62 -4810.04 0.
0.193695 0.534188 0.
0.287465 0.79174 0.
-2761.6 -6994.94 0.
-51.5684 -85.431 0.
-8.42309 -8.34376 0.
-2407.21 -5036.69 0.
-0.0627213 -0.637446 0.
-3049.06 -7046.88 0.
-1.25091 -3.19179 0.
-61.551 -170.486 0.
-1791.01 -4959.91 0.
-149.845 -404.261 0.
-111.927 -300.396 0.
-0.0654778 -25.4673 0.
-0.39802 -12.2365 0.
8.42711 23.3411 0.
-893.737 -2412.87 0.
-211.051 -577.357 0.
-731.15 -1977.65 0.
-0.0878293 -42.6181 0.
-663.827 -1765.52 0.
16.4244 45.3914 0.
-0.0235577 -93.9904 0.
-1074.27 -2941.83 0.
-2.52846 -137.614 0.
6.67366 17.6491 0.
11.2884 30.7645 0.
50.2408 138.345 0.
-0.233605 -123.474 0.
3.88931 10.7541 0.
-602.523 -1668.41 0.
18.3223 50.7495 0.
-112.355 -310.435 0.
-0.0409216 -10.8281 0.
5.83618 15.617 0.
-11.0144 -29.8489 0.
-2117.97 -5633.21 0.
7.23777 19.8902 0.
-1750.89 -4522.63 0.
3.38897 9.3523 0.
-14.6184 -39.2491 0.
3.03374 8.3253 0.
9.51846 0.000166269 0.
2.20759 3.89129 0.
0.0514908 0.622792 0.
-53.7577 -134.368 0.
-0.0620898 -1.06931 0.
-0.00686638 -0.128637 0.
0.524379 0.635967 0.
0.34934 0.435875 0.
0.0565136 0.099907 0.
-608.318 -1661.77 0.
-20.3224 -47.0108 0.
-545.105 -1376.29 0.
-165.146 -365.875 0.
-22.8554 -37.5639 0.
-461.16 -1147.15 0.
-284.06 -698.908 0.
-134.855 -222.775 0.
-470.098 -1004.04 0.
-347.332 -731.558 0.
-238.77 -456.127 0.
-600.381 -1230.59 0.
-566.217 -1192.04 0.
-402.487 -667.211 0.
-403.301 -675.213 0.
-404.201 -683.13 0.
-387.119 -709.463 0.
-378.092 -685.058 0.
-369.691 -660.028 0.
-394.978 -745.217 0.
-389.167 -725.17 0.
-383.544 -704.936 0.
-184.961 -507.972 0.
-171.317 -466.731 0.
-633.021 -983.724 0.
-556.273 -689.247 0.
-554.607 -694.405 0.
-340.641 -614.901 0.
-362.423 -674.432 0.
-384.367 -733.801 0.
-360.438 -676.708 0.
-365.349 -693.182 0.
-371.334 -708.583 0.
-343.201 -630.304 0.
-344.257 -629.035 0.
-345.756 -627.323 0.
-490.388 -1163.29 0.
-550.3 -1254.98 0.
-158.518 -364.362 0.
-283.991 -714.469 0.
-424.171 -1051.03 0.
-0.000866771 -0.261777 0.
-224.854 -575.443 0.
-481.562 -1279.51 0.
0.100035 0.15566 0.
-12.6046 -18.0435 0.
-508.007 -1304.86 0.
0.0572001 0.624085 0.
-461.58 -1272.4 0.
-0.167099 -0.453357 0.
-0.148045 -0.401495 0.
-109.314 -293.865 0.
-12.3113 -25.003 0.
-0.295476 -0.38899 0.
-1.4237 -1.07899 0.
0.000714977 0.971417 0.
-0.481219 -1.29212 0.
0.657929 1.69116 0.
1.51303 4.18815 0.
-113.888 -309.484 0.
-87.4085 -236.281 0.
-2465.47 -5682.48 0.
-0.139633 -21.6871 0.
-2135.38 -5764.82 0.
-0.207612 -57.2031 0.
-325.792 -896.09 0.
-116.084 -317.694 0.
-579.243 -1566.64 0.
13.2871 36.5865 0.
-5.97038 -16.5162 0.
25.8137 71.3976 0.
44.2146 122.133 0.
8.16195 22.4956 0.
-4.17718 -169.514 0.
26.7978 72.5585 0.
69.3241 174.016 0.
13.2827 36.4844 0.
-5.27699 -14.5128 0.
10.6347 29.2372 0.
-710.156 -1964.74 0.
-91.3986 -253.078 0.
-1072.38 -2970.28 0.
-0.0942308 -13.5137 0.
-1061.09 -2865.25 0.
16.5459 45.1847 0.
-273.011 -742.894 0.
5.32936 14.7606 0.
-7.62928 -20.7011 0.
-0.000603462 -0.522038 0.
-0.0120831 -7.88015 0.
-0.00297203 -3.45265 0.
0.67572 4.49053 0.
0.530989 2.4388 0.
0.188297 2.08018 0.
-0.0297209 -1.40806 0.
-0.00402804 -0.314891 0.
-0.00239631 -0.621895 0.
0.0568051 0.145287 0.
-0.264052 -0.894884 0.
0.535444 1.07205 0.
-21.507 -40.6908 0.
-11.7969 -28.6548 0.
-36.2318 -68.0661 0.
-23.9266 -35.26 0.
-27.1484 -53.3396 0.
-200.617 -471.221 0.
-26.0332 -20.1638 0.
-38.1509 -49.829 0.
-337.098 -796.468 0.
-228.851 -509.403 0.
-155.248 -303.193 0.
-533.259 -1126.92 0.
-500.202 -1087.26 0.
-367.096 -615.67 0.
-369.844 -621.741 0.
-371.609 -628.797 0.
-347.704 -645.23 0.
-339.975 -619.529 0.
-332.712 -593.361 0.
-363.03 -720.665 0.
-357.362 -700.476 0.
-351.732 -680.249 0.
-214.038 -587.894 0.
-200.111 -546.938 0.
-684.579 -1004.26 0.
-509.742 -645.54 0.
-507.898 -650.875 0.
-315.398 -587.826 0.
-337.244 -647.295 0.
-358.975 -706.879 0.
-325.522 -598.822 0.
-329.139 -616.593 0.
-333.059 -634.061 0.
-330.011 -568.958 0.
-330.709 -568.045 0.
-330.166 -568.373 0.
-384.864 -1022.91 0.
-442.706 -1116.68 0.
-86.4515 -116.423 0.
-175.288 -378.167 0.
-294.291 -736.016 0.
0.0457349 0.117097 0.
0.0222083 0.0576225 0.
-156.964 -371.498 0.
0.285547 0.184227 0.
-10.5092 -14.2057 0.
-55.947 -83.015 0.
-0.141604 -0.592619 0.
-0.0330812 -0.0802707 0.
0.144418 0.381048 0.
-0.757962 -2.00455 0.
-1.40016 -3.71079 0.
-0.979863 -1.92457 0.
-0.447889 -1.00511 0.
-2.04725 -2.28405 0.
-0.328716 -1.10732 0.
-165.133 -348.471 0.
2.84291 7.34093 0.
2.1053 5.80933 0.
-122.213 -336.861 0.
-0.0943725 -9.86554 0.
4.28946 10.6341 0.
-0.000355616 -31.6569 0.
-369.53 -1014.42 0.
12.8364 34.815 0.
-184.597 -511.05 0.
-57.157 -156.533 0.
15.224 42.132 0.
18.4945 51.0685 0.
20.3782 55.6744 0.
-950.009 -2629.72 0.
-0.369744 -144.71 0.
33.0439 84.8735 0.
-36.058 -92.9251 0.
-0.0881024 -45.0994 0.
55.9984 139.948 0.
-247.275 -677.127 0.
44.6241 122.367 0.
-15.8872 -43.5648 0.
17.7644 48.5538 0.
-431.729 -1194.22 0.
-591.851 -1604.34 0.
24.4648 66.0826 0.
-754.399 -2050.95 0.
3.34442 9.18465 0.
-166.853 -459.609 0.
10.221 28.226 0.
4.74216 13.083 0.
8.35596 23.1417 0.
-1912.97 -5212.08 0.
0.599076 1.64724 0.
-0.434737 -1.20178 0.
-3020.39 -7859.21 0.
-0.138377 -2.67178 0.
-2115.29 -4724.87 0.
-0.200823 -1.34059 0.
1.03632 2.10924 0.
-2651.71 -6945.5 0.
0.736197 1.26694 0.
0.692572 1.4276 0.
-2276.17 -5959.8 0.
-319.135 -856.851 0.
-1569.87 -3652.46 0.
-718.47 -1724.35 0.
-13.0078 -31.7848 0.
-1138.37 -2895.68 0.
-636.541 -1672.31 0.
-169.91 -413.732 0.
-767.199 -1988.46 0.
-524.583 -1387.74 0.
-304.868 -764.117 0.
-750.033 -1838.19 0.
-662.596 -1650.77 0.
-508.332 -1150.7 0.
-476.953 -1076.95 0.
-446.229 -1002.54 0.
-468.364 -1025.34 0.
-447.22 -976.931 0.
-427.848 -926.749 0.
-465.975 -1021.81 0.
-443.781 -960.923 0.
-421.908 -899.712 0.
-305.14 -844.467 0.
-295.639 -817.144 0.
-704.638 -1251.37 0.
-619.979 -980.613 0.
-637.604 -1023.06 0.
-421.089 -929.888 0.
-437.797 -980.938 0.
-455.348 -1031.14 0.
-408.282 -915.184 0.
-422.4 -953.418 0.
-438.549 -989.621 0.
-396.745 -959.049 0.
-458.976 -1106.57 0.
-523.469 -1251.83 0.
-605.832 -1645.18 0.
-727.604 -1900.68 0.
-252.071 -611.748 0.
-550.139 -1467.42 0.
-883.753 -2287.54 0.
-27.4867 -43.0776 0.
-640.237 -1722.32 0.
-1298.57 -3355.98 0.
-3.32638 -8.62747 0.
-671.574 -1711.02 0.
-1801.11 -4297.93 0.
-7.40896e-06 -0.012377 0.
-2621.67 -6843.58 0.
0.23602 0.747248 0.
1.51211 0.750075 0.
-2727.16 -7280.41 0.
-7.12276 -12.1135 0.
-56.005 -124.119 0.
-2244.86 -5388.86 0.
-193.482 -530.271 0.
-1856.49 -4847.5 0.
-0.184029 -8.40839 0.
-1416.6 -3824.01 0.
-0.30806 -22.5122 0.
0.00964015 0.980244 0.
-0.229872 -5.19901 0.
-0.0535837 -15.7988 0.
-418.598 -1159.05 0.
-8.03876 -21.7774 0.
-1333.05 -3653.74 0.
-269.198 -737.747 0.
14.6091 40.4635 0.
-116.549 -322.45 0.
37.681 102.827 0.
28.8271 79.8321 0.
-0.540215 -122.495 0.
25.9128 67.0103 0.
-15.4879 -156.635 0.
8.25821 21.8017 0.
-5.26378 -113.126 0.
-932.35 -2526.76 0.
-2.36889 -100.864 0.
12.3505 33.7638 0.
28.3895 77.3008 0.
-13.7102 -37.2502 0.
-240.699 -648.257 0.
13.7731 36.9571 0.
-734.909 -2009.32 0.
-1.26885 -3.49799 0.
-92.8815 -257.078 0.
-1.37243 -3.77312 0.
-1790.99 -4916.87 0.
7.98246 22.0164 0.
-1.21524 -3.28591 0.
0.838404 2.31632 0.
-0.0143519 -7.38978 0.
-4.60814 -12.2513 0.
0.299415 0.808769 0.
-0.145079 -1.6182 0.
-0.0263724 -0.315814 0.
0.0834521 1.12086 0.
-0.0190578 -0.0688031 0.
0.207441 1.13916 0.
-0.226432 -2.37387 0.
-292.273 -791.584 0.
0.38626 0.879616 0.
-314.017 -708.409 0.
-1.92081 -5.32004 0.
-3.96529 -10.0601 0.
-579.452 -1513.26 0.
-118.631 -247.137 0.
-45.2576 -57.426 0.
-523.352 -1422.62 0.
-307.813 -794.463 0.
-97.1849 -180.572 0.
-623.66 -1589.88 0.
-540.437 -1398.19 0.
-413.127 -1015.04 0.
-382.255 -940.774 0.
-351.964 -865.923 0.
-438.335 -967.783 0.
-418.277 -918.285 0.
-399.773 -867.233 0.
-458.453 -965.395 0.
-436.494 -904.265 0.
-414.86 -842.812 0.
-302.508 -837.484 0.
-293.318 -809.85 0.
-620.995 -1213.07 0.
-613.457 -984.183 0.
-631.146 -1026.57 0.
-392.567 -860.806 0.
-408.383 -912.753 0.
-425.126 -963.774 0.
-370.534 -826.992 0.
-383.274 -866.609 0.
-397.401 -904.839 0.
-299.584 -772.442 0.
-356.838 -924.97 0.
-416.934 -1074.66 0.
-458.322 -1250.11 0.
-567.07 -1518.74 0.
-18.0393 -21.3042 0.
-261.238 -650.381 0.
-556.154 -1509.87 0.
0.0165624 0.0246788 0.
-1.65727 -2.57015 0.
-529.245 -1440.7 0.
-3.28882 -9.08711 0.
-5.95409 -16.3275 0.
-164.564 -435.447 0.
0.538023 1.34016 0.
-4.54468 -10.6742 0.
0.0110242 1.57186 0.
1.25243 0.0388645 0.
-38.9949 -76.6011 0.
-20.9714 -42.8671 0.
-66.0877 -159.763 0.
-111.409 -285.033 0.
0.0177019 3.36424 0.
-47.9251 -124.335 0.
-0.017687 -6.87722 0.
-420.182 -1150.79 0.
0.353439 0.969763 0.
-1298.85 -3456.18 0.
-0.134381 -41.6382 0.
4.17826 11.2678 0.
15.2283 40.5409 0.
18.0529 48.8562 0.
27.197 74.8246 0.
-512.766 -1420.11 0.
-0.0117591 -92.3123 0.
-1557.69 -4314.51 0.
-22.3677 -60.9888 0.
-13.1383 -34.5631 0.
-663.877 -1809.35 0.
42.76 111.867 0.
-1.27393 -14.0971 0.
-87.8753 -234.091 0.
26.7916 66.8537 0.
17.9142 44.6437 0.
21.909 57.0747 0.
-1070.03 -2917.28 0.
18.9978 51.5077 0.
-8.63875 -23.4337 0.
0.707666 1.90212 0.
-16.5428 -44.0745 0.
-374.135 -990.305 0.
-173.094 -479.377 0.
-1595.85 -4418.49 0.
-0.149153 -30.0065 0.
-23.8384 -66.0251 0.
-0.139363 -28.0606 0.
-0.562623 -24.9407 0.
-0.609535 -1.68748 0.
-0.0431135 -13.2148 0.
-1.68622 -4.64454 0.
-139.829 -377.246 0.
-2040 -5217.4 0.
-0.0172663 -2.21419 0.
-0.186274 -2.07806 0.
-2389.84 -6612 0.
0.990369 2.46822 0.
0.437512 1.01521 0.
-2266.38 -5610.75 0.
0.443776 1.05353 0.
-1811.43 -4411.36 0.
-525.333 -1301.75 0.
-11.4767 -31.5642 0.
-1395.99 -3529.06 0.
-579.268 -1508.5 0.
-19.909 -20.6332 0.
-908.143 -2351.58 0.
-497.524 -1333.36 0.
-112.508 -289.524 0.
-727.536 -1795.26 0.
-548.555 -1404.57 0.
-425.878 -1063.87 0.
-344.663 -878.283 0.
-267.196 -688.952 0.
-372.327 -798.802 0.
-334.935 -704.591 0.
-299.082 -608.841 0.
-363.077 -691.368 0.
-331.909 -608.195 0.
-264.702 -561.063 0.
-204.243 -565.712 0.
-187.43 -515.331 0.
-546.456 -890.141 0.
-472.798 -648.295 0.
-493.052 -703.632 0.
-226.453 -552.283 0.
-299.915 -623.007 0.
-338.709 -728.399 0.
-281.609 -613.314 0.
-333.589 -748.41 0.
-387.158 -881.918 0.
-259.013 -716.322 0.
-370.302 -976.335 0.
-493.795 -1224.14 0.
-542.401 -1427.78 0.
-786.853 -1998.72 0.
-62.8403 -147.42 0.
-548.528 -1495.21 0.
-1063.5 -2813.72 0.
0.165415 0.17687 0.
-505.613 -1372.55 0.
-1589.69 -4073.87 0.
-0.0562544 -0.0608412 0.
-413.024 -1061.01 0.
-2034.53 -4996.81 0.
-0.0760282 -2.0239 0.
-2321.86 -5998.18 0.
1.09389 1.4065 0.
-0.0788238 -0.111286 0.
-1790.25 -4951.52 0.
-136.377 -212.071 0.
-1510.89 -2555.91 0.
-1013.27 -2796.13 0.
6.77707 18.5753 0.
-0.100982 -7.43891 0.
5.32626 14.7205 0.
-3.35574 -9.26918 0.
2.12655 5.88449 0.
-637.424 -1731.44 0.
-0.176109 -41.1423 0.
-957.498 -2651.26 0.
-30.3114 -83.3111 0.
-3.3496 -9.05454 0.
15.395 42.2438 0.
-470.092 -1301.08 0.
-0.708005 -89.2093 0.
-619.404 -1715.33 0.
-420.364 -1145.91 0.
-11.6296 -30.4259 0.
17.3885 43.9518 0.
27.5164 73.0387 0.
-5.88584 -74.5052 0.
-517.347 -1391.04 0.
-7.79057 -102.079 0.
2.44748 6.21077 0.
14.8075 38.3029 0.
-437.41 -1187.27 0.
20.8545 54.996 0.
-90.6453 -245.43 0.
20.1077 53.9338 0.
23.8183 62.9633 0.
-290.417 -763.085 0.
-142.889 -395.526 0.
21.4405 58.8531 0.
6.1644 16.7874 0.
-0.69835 -33.6597 0.
10.3828 28.1483 0.
-0.0645945 -20.2034 0.
-1891.83 -5176.8 0.
-0.00846752 -15.674 0.
-1672.46 -4389.8 0.
4.04122 11.1887 0.
0.69908 1.92942 0.
-0.00624863 -0.585567 0.
1.56896 3.73655 0.
-82.4205 -219.016 0.
-0.0710929 -0.160137 0.
-0.00727097 -0.0151434 0.
0.356078 0.883081 0.
0.0937777 0.242541 0.
-231.846 -593.095 0.
-14.0954 -38.765 0.
-13.0861 -35.9564 0.
-472.935 -1243 0.
-4.62595 -11.0992 0.
-1.05841 -1.13828 0.
-495.736 -1367.07 0.
-115.283 -317.64 0.
-9.6808 -26.8121 0.
-460.054 -1220.19 0.
-297.042 -813.285 0.
-326.363 -846.932 0.
-248.129 -658.325 0.
-178.464 -461.148 0.
-310.829 -711.734 0.
-273.477 -617.472 0.
-236.16 -523.176 0.
-311.246 -640.939 0.
-280.52 -557.318 0.
-219.372 -504.119 0.
-217.127 -585.899 0.
-201.487 -534.347 0.
-308.202 -736.1 0.
-410.189 -612.078 0.
-429.728 -668.137 0.
-192.552 -495.859 0.
-255.444 -577.162 0.
-297.361 -679.44 0.
-176.103 -487.328 0.
-225.618 -624.912 0.
-276.822 -760.807 0.
-129.22 -335.936 0.
-221.971 -614.584 0.
-330.676 -877.278 0.
-256.954 -703.455 0.
-480.642 -1295.58 0.
-7.19716 -16.2608 0.
-50.0595 -118.283 0.
-533.293 -1470.31 0.
0.305041 0.000288532 0.
0.24181 0.0707967 0.
-334.739 -907.939 0.
0.129592 0.166443 0.
-0.019685 -0.0350352 0.
-83.0476 -227.516 0.
-0.00519377 -0.0691691 0.
0.116681 0.714262 0.
0.102642 0.260576 0.
0.243979 0.695254 0.
0.0660694 1.31311 0.
0.00196317 0.823141 0.
-379.71 -997.564 0.
5.27207 14.602 0.
-49.8763 -138.128 0.
-1248.87 -3448.39 0.
-1.3892 -3.81482 0.
-1771.18 -4897.99 0.
5.66218 15.675 0.
8.41884 23.1205 0.
1.1103 3.03549 0.
-830.137 -2296.76 0.
-6.65258 -18.2136 0.
-430.657 -1179.65 0.
-6.31428 -17.2716 0.
-1417.22 -3916.18 0.
13.0356 35.2485 0.
-1.45892 -85.1947 0.
-140.589 -383.028 0.
-25.2896 -65.7842 0.
-3.55658 -81.5152 0.
18.0585 46.0508 0.
49.923 119.712 0.
9.13421 25.0073 0.
-2.74435 -45.2856 0.
-10.1258 -26.2186 0.
-394.917 -1013.65 0.
-2.62383 -77.2105 0.
9.50769 24.9809 0.
-1159.08 -3131.42 0.
-1.22373 -83.6319 0.
-60.5944 -158.196 0.
-64.433 -169.033 0.
-203.104 -560.537 0.
-0.0145013 -0.0394689 0.
0.695735 1.88452 0.
-8.26812 -22.5304 0.
-1265.26 -3495.77 0.
-1.50078 -4.07593 0.
-35.7984 -98.5994 0.
-0.0269376 -19.1403 0.
-0.0609621 -7.58745 0.
0.00343444 4.33041 0.
6.17136 16.0685 0.
0.0136114 1.09985 0.
-0.384641 -6.6412 0.
-45.2193 -106.309 0.
-4.55281 -8.6215 0.
-20.5203 -35.7778 0.
0.601179 1.5766 0.
0.836807 2.26478 0.
-35.7837 -97.2546 0.
-19.8999 -55.034 0.
-15.2766 -41.8683 0.
-14.3397 -38.1459 0.
-7.9752 -17.4343 0.
-1.60627 -2.21769 0.
-125.573 -340.322 0.
-18.7127 -38.7105 0.
-24.1105 -57.2999 0.
-229.068 -608.631 0.
-106.883 -276.094 0.
-255.489 -601.359 0.
-180.909 -409.052 0.
-141.557 -270.58 0.
-261.39 -612.607 0.
-226.073 -516.3 0.
-191.217 -419.533 0.
-263.057 -586.868 0.
-217.353 -518.218 0.
-186.178 -435.038 0.
-251.618 -584.478 0.
-233.524 -535.382 0.
-299.572 -686.266 0.
-358.148 -565.294 0.
-377.551 -621.494 0.
-186.445 -457.569 0.
-213.043 -529.247 0.
-263.462 -623.031 0.
-121.607 -335.995 0.
-164.493 -454.567 0.
-213.869 -592.314 0.
-29.0186 -41.2381 0.
-98.8433 -230.285 0.
-193.078 -504.892 0.
-42.3137 -40.6912 0.
-222.554 -544.322 0.
-7.59597 -15.9687 0.
-6.87332 -4.86074 0.
-45.539 -84.4668 0.
-0.267105 -0.0144396 0.
-0.034725 -0.000706718 0.
0.0722574 0.000114424 0.
-0.0443507 -0.0673565 0.
0.583426 0.801607 0.
-8.14152 -14.7999 0.
-0.177068 -1.13886 0.
0.126193 0.474214 0.
-0.167644 -0.68367 0.
0.701745 0.767365 0.
1.29047 0.527068 0.
-0.0512093 -1.44488 0.
-0.00193025 -9.16658 0.
0.306342 0.843535 0.
-23.9723 -66.2293 0.
-119.97 -332.107 0.
3.19812 8.83284 0.
-0.0289584 -20.969 0.
8.79764 24.1329 0.
-650.17 -1799.76 0.
-0.356489 -53.6993 0.
-594.001 -1641.55 0.
-1.2335 -3.36143 0.
-283.89 -774.517 0.
17.7744 48.0319 0.
-360.971 -996.048 0.
19.6033 52.709 0.
-2.74926 -85.0139 0.
0.73753 1.87953 0.
-416.425 -1076.68 0.
-19.641 -48.966 0.
34.0094 87.963 0.
19.863 47.2588 0.
-0.0760731 -51.0341 0.
12.9235 32.3967 0.
-378.097 -999.25 0.
-3.40389 -53.8811 0.
-9.76777 -24.9342 0.
17.1668 44.9498 0.
-164.105 -442.379 0.
-1.89819 -73.625 0.
-181.599 -473.573 0.
-174.968 -458.469 0.
-782.68 -2148.63 0.
4.12104 11.1394 0.
-1003.79 -2746.92 0.
17.6928 48.0154 0.
-369.462 -1014.89 0.
6.73769 18.0393 0.
-3.2368 -8.96525 0.
-0.0896419 -12.823 0.
-1605.89 -4412.85 0.
6.04233 16.7352 0.
6.19794 16.8065 0.
-2551.13 -6790.82 0.
-0.000497169 -3.64533 0.
-1503.8 -3295.56 0.
-255.627 -620.889 0.
-35.1891 -94.7868 0.
-2214.09 -6015 0.
0.815239 2.20982 0.
-1900.08 -4489 0.
-317.218 -680.92 0.
-30.51 -83.4735 0.
-1864.66 -4894.79 0.
-251.633 -658.729 0.
-0.0700855 -0.226448 0.
-1210.8 -3186.02 0.
-502.717 -1348.63 0.
-27.6119 -47.5847 0.
-882.049 -2308.6 0.
-509.466 -1358.26 0.
-616.95 -1590.46 0.
-433.038 -1152.77 0.
-266.1 -698.111 0.
-458.279 -1175.65 0.
-370.907 -951.231 0.
-286.947 -723.402 0.
-369.904 -952.339 0.
-322.733 -827.891 0.
-279.69 -699.316 0.
-337.342 -849.359 0.
-312.597 -779.456 0.
-363.425 -902.449 0.
-449.367 -852.895 0.
-491.062 -958.08 0.
-291.888 -748.393 0.
-352.128 -928.954 0.
-416.857 -1105.03 0.
-255.09 -692.682 0.
-370.826 -1026.45 0.
-492.122 -1354.66 0.
-245.261 -645.935 0.
-457.53 -1221.36 0.
-683.866 -1782.73 0.
-507.697 -1336.78 0.
-980.118 -2549.77 0.
-0.00292238 -0.332173 0.
-450.498 -1238.99 0.
-1440.23 -3804.36 0.
-3.5828 -7.27561 0.
-80.4541 -214.508 0.
-2168.37 -5711.58 0.
-0.102811 -0.507194 0.
-218.685 -599.563 0.
-2000.8 -4900.87 0.
0.0421818 0.780123 0.
-2144.25 -5655.12 0.
-0.047611 -2.37267 0.
-17.8118 -38.1656 0.
-1944.25 -4680.34 0.
4.41718 12.2321 0.
-1383.1 -3823.75 0.
5.0334 13.8128 0.
-988.399 -2736.63 0.
-117.82 -324.587 0.
4.17208 11.5513 0.
6.386 17.5615 0.
6.71513 18.0254 0.
-366.729 -1007.89 0.
-2.85526 -7.53287 0.
-169.963 -451.156 0.
-14.8932 -40.3667 0.
-915.38 -2486.15 0.
-13.8922 -37.3163 0.
-11.7283 -31.0415 0.
-140.539 -375.65 0.
-160.049 -409.828 0.
0.909132 2.30605 0.
22.8066 54.8759 0.
-93.0567 -230.429 0.
-601.325 -1583.86 0.
-2.80974 -48.0194 0.
3.36664 9.32495 0.
-1.57698 -4.09113 0.
-1.93948 -86.704 0.
-4.07628 -70.9416 0.
-566.534 -1440.18 0.
-79.7424 -208.127 0.
27.1901 69.6257 0.
29.3411 76.3885 0.
-504.597 -1314.41 0.
-294.449 -770.589 0.
7.94571 21.4698 0.
8.65013 23.2818 0.
-693.01 -1890.44 0.
5.70744 15.42 0.
-5.77263 -15.7329 0.
-0.777344 -37.2635 0.
-1576.4 -4341.79 0.
6.68325 18.1174 0.
0.864589 2.39476 0.
-0.0341621 -7.44584 0.
0.0263418 1.01727 0.
2.87003 7.86253 0.
-0.000465692 -3.09051 0.
-76.7619 -197.025 0.
-20.3687 -55.1461 0.
-0.000200242 -0.0841876 0.
-4.52135 -11.8653 0.
0.717038 1.93007 0.
-21.0774 -50.3881 0.
-19.3549 -50.4888 0.
-32.7012 -86.79 0.
-174.199 -464.819 0.
-5.89361 -12.3108 0.
0.0691531 0.38925 0.
-488.167 -1255.28 0.
-32.3033 -45.4702 0.
-37.4206 -59.4573 0.
-543.932 -1450.11 0.
-187.886 -482.409 0.
-400.446 -1069.96 0.
-230.087 -618.479 0.
-84.2306 -201.247 0.
-373.702 -943.739 0.
-288.737 -716.864 0.
-206.734 -487.026 0.
-336.199 -856.652 0.
-290.462 -730.76 0.
-253.837 -626.034 0.
-308.994 -773.386 0.
-282.293 -705.437 0.
-323.437 -842.172 0.
-426.672 -784.101 0.
-469.196 -888.465 0.
-256.847 -647.433 0.
-307.448 -797.803 0.
-373.512 -972.564 0.
-137.491 -361.016 0.
-248.661 -679.843 0.
-365.642 -1012.48 0.
-49.4977 -65.5572 0.
-209.636 -526.449 0.
-422.352 -1101.82 0.
-65.5996 -136.382 0.
-514.181 -1374.66 0.
0.285153 0.74492 0.
0.248373 0.638447 0.
-409.02 -1125.02 0.
-1.98153 -3.94701 0.
-4.7174 -10.8127 0.
-32.0398 -80.7439 0.
-0.185814 -0.451367 0.
-0.0499762 -0.0606768 0.
0.926985 0.213862 0.
1.54682e-05 0.259576 0.
-0.0662907 -2.00716 0.
-0.0270128 -7.99378 0.
1.72004 4.24541 0.
0.396089 0.858365 0.
-0.0157956 -4.86955 0.
-0.00370484 -9.69948 0.
-0.366408 -0.98769 0.
-215.539 -592.41 0.
2.30978 6.36891 0.
-1392.31 -3852.44 0.
-0.0174762 -3.65887 0.
-0.857375 -33.949 0.
-295.132 -799.763 0.
1.74927 4.5764 0.
-386.046 -1017.14 0.
-6.2516 -15.7435 0.
-320.146 -864.622 0.
-33.2402 -88.6896 0.
-110.59 -281.751 0.
6.99249 17.7731 0.
-734.276 -1872.05 0.
-66.7775 -168.591 0.
-0.0504238 -0.123193 0.
43.4852 98.6063 0.
-412.897 -1107.43 0.
10.3817 25.9815 0.
6.42779 17.3644 0.
15.7821 39.0791 0.
-1.30396 -68.1323 0.
-554.963 -1369.84 0.
-617.298 -1584.12 0.
27.1717 66.4305 0.
-195.727 -500.205 0.
25.0067 64.9677 0.
-135.801 -353.286 0.
-2.20505 -5.56468 0.
-32.5048 -87.4695 0.
21.4049 57.3472 0.
-355.78 -966.896 0.
-7.05402 -18.9689 0.
-545.766 -1448.37 0.
11.6968 30.139 0.
-93.3685 -255.8 0.
2.62902 7.06095 0.
-0.483486 -17.6788 0.
1.05138 2.81702 0.
0.0288252 0.64671 0.
2.6421 7.25511 0.
-0.00119086 -7.77197 0.
-25.6772 -69.7027 0.
-616.522 -1633.99 0.
-0.287229 -0.791542 0.
-1757.8 -4866.66 0.
-1.5049e-05 -1.24334 0.
-1742 -3814.76 0.
-139.024 -211.404 0.
-13.387 -33.0413 0.
-1981.02 -5368.82 0.
-10.9917 -28.9297 0.
-6.06965 -15.8009 0.
-1449.15 -3696.8 0.
-323.544 -814.127 0.
-8.64568 -10.4898 0.
-1020.9 -2620.25 0.
-471.705 -1198.28 0.
-691.065 -1762.65 0.
-409.095 -1073.5 0.
-140.544 -370.933 0.
-503.2 -1246.03 0.
-354.407 -871.74 0.
-210.754 -492.315 0.
-362.559 -903.067 0.
-286.129 -700.421 0.
-210.943 -496.531 0.
-280.76 -669.876 0.
-245.247 -570.394 0.
-241.504 -483.889 0.
-361.771 -630.562 0.
-407.304 -754.969 0.
-185.793 -441.348 0.
-296.019 -759.694 0.
-412.086 -1072.2 0.
-146.201 -404.931 0.
-357.039 -978.917 0.
-580.062 -1540.72 0.
-151.135 -345.511 0.
-482.54 -1200.97 0.
-830.101 -2040.28 0.
-441.479 -1159.03 0.
-1185.25 -3079.46 0.
0.0114336 0.107873 0.
-187.962 -497.88 0.
-1684.63 -4324.19 0.
-2.77055 -7.59954 0.
0.265518 0.0733716 0.
-2129 -5788.5 0.
0.00109974 0.901177 0.
-39.8485 -59.758 0.
-2016.91 -4091.66 0.
0.541831 1.49437 0.
-1799.67 -4964.77 0.
-0.0040783 -1.63495 0.
0.0922578 3.96971 0.
3.80738 9.05549 0.
-0.0150446 -1.12355 0.
4.12265 11.2806 0.
3.13874 8.26942 0.
-56.5987 -153.271 0.
-0.167516 -33.2079 0.
-665.065 -1841.36 0.
-6.43904 -16.2594 0.
-152.87 -396.616 0.
-450.786 -1196.56 0.
-0.451316 -1.17021 0.
-599.909 -1568.73 0.
9.65251 24.2843 0.
-109.898 -275.184 0.
-333.314 -882.306 0.
-453.951 -1155.14 0.
-14.0545 -35.6412 0.
-9.52461 -23.515 0.
-63.2112 -158.783 0.
-750.305 -1861.71 0.
-5.1319 -11.8742 0.
11.7305 30.0241 0.
9.55409 22.7517 0.
4.5827 12.526 0.
9.75756 24.3516 0.
-381.792 -1020.88 0.
-108.205 -270.807 0.
-13.2102 -32.6381 0.
5.67539 13.7751 0.
-841.122 -2144.73 0.
-229.458 -594.749 0.
-6.71636 -16.661 0.
17.3735 43.7677 0.
-761.704 -2039.98 0.
3.81227 10.1633 0.
-27.6188 -71.6081 0.
2.87961 7.46112 0.
-595.138 -1563.56 0.
0.904921 2.30289 0.
-49.136 -133.743 0.
2.51355 6.68432 0.
11.6834 29.9936 0.
-1107.82 -3059.39 0.
3.70141 10.1307 0.
-1639.19 -4324.81 0.
5.36704 14.6581 0.
-1077.98 -2820.67 0.
-0.0721552 -5.22814 0.
-5.472e-07 -4.42116 0.
-151.816 -350.065 0.
-0.204918 -1.25487 0.
-0.540067 -0.0309884 0.
0.182713 0.0448521 0.
-1.73281 -2.90049 0.
-220.604 -593.074 0.
-7.23611 -18.97 0.
-2.20955 -5.78319 0.
-279.436 -685.214 0.
-9.02998 -24.5116 0.
-0.534344 -1.46984 0.
-522.145 -1336.44 0.
-24.9226 -39.5624 0.
-393.682 -1027.52 0.
-127.697 -321.864 0.
-15.9018 -30.4056 0.
-336.086 -865.039 0.
-193.6 -484.297 0.
-86.8752 -178.898 0.
-271.775 -695.875 0.
-196.155 -492.376 0.
-130.651 -315.492 0.
-240.174 -523.229 0.
-220.442 -469.209 0.
-188.715 -402.525 0.
-300.197 -521.346 0.
-322.719 -581.78 0.
-126.135 -279.67 0.
-196.372 -475.47 0.
-308.966 -791.536 0.
-14.6408 -12.7033 0.
-171.472 -430.19 0.
-383.753 -1003.03 0.
-8.96025 -14.692 0.
-88.8728 -183.921 0.
-426.165 -1034.36 0.
-12.8583 -21.7111 0.
-494.339 -1320.15 0.
-0.0145205 -0.131782 0.
0.0131624 0.316334 0.
-163.128 -438.759 0.
-12.4023 -24.6573 0.
0.275829 0.170848 0.
-194.798 -538.546 0.
0.381048 0.698315 0.
0.07815 0.800603 0.
-0.151114 -2.55143 0.
0.169886 0.436949 0.
-280.239 -762.353 0.
3.73832 10.3057 0.
3.26023 8.94312 0.
-1722.67 -4223.52 0.
3.3168 8.7405 0.
-1286.55 -3493.68 0.
5.02093 13.6484 0.
-19.3426 -51.4844 0.
5.13119 13.9072 0.
-5.08308 -14.0072 0.
-6.20612 -15.5622 0.
-230.546 -594.386 0.
-1.96892 -56.1686 0.
20.7649 52.9528 0.
-311.676 -789.476 0.
-160.998 -404.747 0.
-166.613 -414.995 0.
-54.1127 -135.905 0.
-901.897 -2293.17 0.
-297.661 -753.456 0.
-6.46167 -16.0737 0.
9.99696 23.6557 0.
-197.817 -500.65 0.
29.7867 70.5025 0.
-8.0981 -21.0475 0.
10.768 26.0713 0.
25.9507 59.6862 0.
8.811 22.2115 0.
-8.08642 -20.1348 0.
30.4773 71.9105 0.
-157.555 -392.424 0.
-590.804 -1423.92 0.
-204.769 -520.798 0.
26.0702 64.1898 0.
-3.12954 -62.5079 0.
-442.257 -1112.35 0.
-545.374 -1453.13 0.
7.57532 19.0015 0.
-591.766 -1522.2 0.
8.68656 22.2918 0.
-436.172 -1134.09 0.
-3.01614 -7.58139 0.
-6.16517 -15.7428 0.
-874.089 -2394.9 0.
4.68928 12.6551 0.
2.18931 6.01922 0.
0.686253 1.85236 0.
-1.51857 -4.10469 0.
6.51212 18.026 0.
-0.132377 -5.22801 0.
-0.0273138 -5.20756 0.
-0.00715205 -8.31632 0.
-176.756 -354.41 0.
0.0620078 0.181642 0.
-0.983497 -0.973754 0.
-0.533981 -0.293004 0.
-0.127234 -0.220201 0.
-22.571 -57.3985 0.
-3.50402 -9.21792 0.
0.233074 0.610198 0.
-16.6854 -46.1357 0.
-4.09392 -11.3367 0.
-0.018634 -0.0515419 0.
-42.9606 -33.0697 0.
-38.5155 -45.2224 0.
-121.79 -266.895 0.
-23.6006 -33.113 0.
-28.6562 -36.319 0.
-189.659 -463.366 0.
-75.3502 -134.762 0.
-35.8421 -49.5074 0.
-198.891 -516.406 0.
-143.5 -363.642 0.
-90.3578 -212.932 0.
-248.193 -502.583 0.
-233.704 -465.568 0.
-186.969 -350.776 0.
-290.837 -524.141 0.
-298.854 -542.21 0.
-86.1259 -157.051 0.
-132.425 -290.771 0.
-226.214 -555.81 0.
-36.7012 -21.231 0.
-38.1577 -19.7287 0.
-207.436 -445.357 0.
-10.8057 -17.7831 0.
-22.0515 -31.4195 0.
-35.6953 -48.7373 0.
-10.3912 -11.677 0.
-8.6645 -7.26374 0.
-0.140598 -1.23821 0.
-0.0128859 -0.24192 0.
-0.0184706 -0.990069 0.
-36.0197 -54.8452 0.
-0.465303 -0.327968 0.
1.29823 0.726535 0.
0.815755 0.535514 0.
0.000104716 1.47405 0.
0.165802 0.932956 0.
1.18786 2.69486 0.
-193.441 -498.874 0.
-0.029588 -17.6282 0.
0.0115278 4.13492 0.
-1.56908 -18.6843 0.
0.92169 2.34218 0.
-11.5859 -31.0105 0.
-2.08604 -5.65634 0.
-1326.79 -3668.14 0.
9.53043 26.3099 0.
-184.683 -506.723 0.
-5.87401 -14.6281 0.
-360.35 -923.488 0.
-8.74996 -22.2931 0.
18.981 48.2374 0.
13.1156 32.6037 0.
-338.337 -849.797 0.
-605.252 -1500.24 0.
-113.154 -282.638 0.
-3.93525 -9.68896 0.
-75.0089 -189.313 0.
-687.772 -1723.69 0.
-3.42806 -8.18896 0.
17.9223 42.0079 0.
-3.3328 -29.8152 0.
-31.9548 -84.4885 0.
-2.58005 -6.37122 0.
0.540873 1.18619 0.
14.1008 33.2489 0.
-10.9437 -27.5564 0.
-95.5471 -227.857 0.
-402.651 -1012.85 0.
-14.9845 -33.6032 0.
-25.9107 -60.0039 0.
-0.384067 -0.93709 0.
-435.607 -1076.75 0.
-312.565 -785.14 0.
1.22886 3.05905 0.
-7.70333 -19.2656 0.
-492.215 -1237.84 0.
-16.1388 -40.9947 0.
9.06218 22.9713 0.
-1.91184 -46.8044 0.
-1.71484 -42.4511 0.
-415.763 -1130.06 0.
10.6417 28.3958 0.
-0.116665 -0.317692 0.
3.38693 8.99381 0.
1.30397 3.58638 0.
-0.0176937 -21.8434 0.
-97.5716 -270.251 0.
-1581.76 -3792.05 0.
0.0858194 3.60624 0.
-1135.84 -3132.82 0.
0.0805053 0.681883 0.
-102.854 -284.624 0.
-2136.29 -4821.5 0.
0.412429 1.01333 0.
-1526.97 -4072.3 0.
-0.0280992 -0.570358 0.
-10.1307 -26.3807 0.
-1723.78 -4487.15 0.
-25.6365 -56.4083 0.
-21.9718 -48.3029 0.
-1304.75 -3348.28 0.
-249.216 -603.51 0.
-848.785 -2124.02 0.
-440.072 -1097.45 0.
-86.4167 -149.076 0.
-677.316 -1792.51 0.
-393.76 -1060.38 0.
-121.66 -320.63 0.
-486.766 -1267.51 0.
-354.235 -896.819 0.
-223.004 -524.825 0.
-410.001 -965.983 0.
-377.416 -869.259 0.
-250.335 -561.615 0.
-403.264 -877.495 0.
-467.961 -1063.88 0.
-166.579 -391.15 0.
-378.061 -979.58 0.
-590.42 -1567.13 0.
-102.868 -158.719 0.
-460.344 -1163.35 0.
-844.143 -2177.96 0.
-85.8934 -170.91 0.
-481.122 -1154.37 0.
-1011.44 -2455.86 0.
-124.262 -334.975 0.
-1461.42 -3867.89 0.
-0.0482869 -0.981578 0.
-0.0275153 -0.466095 0.
-1850.43 -4841.51 0.
-26.1465 -55.2144 0.
-2.73751 -4.72753 0.
-1530.38 -3917.41 0.
-0.000369945 -1.84165 0.
-2279.17 -5757.64 0.
0.503292 1.38166 0.
0.253112 0.684964 0.
-1484.26 -3737.23 0.
-0.0333817 -5.11143 0.
-1464.2 -4003.9 0.
-1.67584 -15.9374 0.
7.51038 18.4309 0.
-0.385586 -1.00697 0.
0.709221 1.9191 0.
-66.065 -182.667 0.
14.2858 38.9981 0.
-379.692 -1045.96 0.
13.7835 35.0878 0.
-560.625 -1428.62 0.
-137.073 -348.068 0.
17.5129 44.3502 0.
-198.021 -487.376 0.
14.736 36.2622 0.
-341.203 -840.726 0.
-525.151 -1304.14 0.
11.0943 27.3315 0.
9.53608 22.7506 0.
20.2601 47.708 0.
-4.11653 -66.2403 0.
-227.42 -539.149 0.
23.6182 52.5802 0.
-4.73826 -11.8702 0.
8.91291 20.9831 0.
-3.68866 -33.881 0.
-44.161 -105.469 0.
15.3352 34.8984 0.
-246.471 -595.524 0.
-4.31989 -63.4109 0.
-7.81683 -17.5268 0.
-79.2034 -183.449 0.
-367.425 -887.793 0.
19.5308 44.6356 0.
-4.70211 -58.3816 0.
-540.32 -1271.51 0.
-339.198 -845.244 0.
-256.63 -642.916 0.
7.88478 19.6654 0.
6.65144 16.5259 0.
-55.0646 -137.647 0.
-7.35793 -18.3973 0.
-260.822 -702.615 0.
-1.35672 -3.5763 0.
-1216.18 -3273.99 0.
-0.760394 -29.6615 0.
-713.754 -1976.51 0.
-1.62372 -4.49565 0.
-19.4558 -53.8078 0.
-488.078 -1350.35 0.
0.00601786 0.316192 0.
3.12046 1.5957 0.
0.631182 3.18941 0.
-4.38413 -11.0618 0.
-0.0761767 -2.35682 0.
-0.00294846 -3.34316 0.
-0.0155383 -0.410666 0.
0.12102 0.33197 0.
-9.2906 -25.6993 0.
-62.2997 -109.355 0.
-48.9811 -72.877 0.
-51.3838 -56.9944 0.
-402.751 -1016.15 0.
-33.2703 -26.644 0.
-372.393 -905.98 0.
-14.4345 -7.27872 0.
-36.7077 -35.7002 0.
-376.576 -1029.31 0.
-104.108 -285.527 0.
-5.33775 -11.89 0.
-379.887 -915.445 0.
-256.207 -561.809 0.
-171.224 -310.135 0.
-351.027 -780.647 0.
-317.552 -679.635 0.
-140.185 -257.36 0.
-315.148 -644.226 0.
-376.349 -817.78 0.
-80.0486 -92.3966 0.
-207.98 -474.965 0.
-414.815 -1068.32 0.
-42.7703 -45.429 0.
-76.8206 -93.5399 0.
-440.371 -1122.08 0.
-29.1393 -41.6901 0.
-25.6302 -32.3017 0.
-347.884 -791.189 0.
-13.5157 -15.8272 0.
-345.035 -945.205 0.
0.429534 1.10001 0.
0.387815 0.97734 0.
0.00661659 0.129177 0.
-25.0914 -54.2679 0.
0.0273318 0.053944 0.
0.345313 0.620205 0.
-0.00221937 -0.333891 0.
-0.00244538 -0.553962 0.
-0.0118256 -2.54179 0.
-0.0146904 -4.01584 0.
0.0730342 0.188255 0.
3.42402 9.47971 0.
-377.915 -1046.72 0.
-4.01022 -10.1418 0.
6.42539 16.6304 0.
-1288.15 -3454.32 0.
-2.09447 -5.60473 0.
-0.209732 -0.579115 0.
2.2218 5.95952 0.
-756.055 -2059.71 0.
4.14798 10.522 0.
-8.73103 -21.9519 0.
-0.776793 -1.89949 0.
-763.642 -1928.32 0.
-199.223 -485.829 0.
-146.219 -356.365 0.
10.0501 24.0561 0.
-22.8103 -56.3157 0.
-603.658 -1488.19 0.
20.4842 48.9102 0.
-11.4364 -27.0201 0.
16.7125 38.0958 0.
-584.404 -1404.69 0.
-4.55796 -46.7979 0.
-0.418621 -1.06793 0.
11.3898 27.3305 0.
4.88134 10.9074 0.
-180.146 -436.636 0.
11.3725 23.9222 0.
20.5197 46.3264 0.
-17.4421 -37.8493 0.
-548.142 -1228.32 0.
-581.628 -1348.8 0.
9.094 20.3654 0.
-2.65585 -6.02549 0.
-4.77266 -59.5959 0.
-342.547 -807.02 0.
-366.532 -910.684 0.
-6.36329 -15.7787 0.
-17.0837 -42.4977 0.
5.87741 14.564 0.
-982.499 -2433.84 0.
-112.594 -278.374 0.
-204.018 -532.642 0.
2.94269 7.55126 0.
-246.175 -655.17 0.
4.11034 10.6871 0.
-3.17159 -8.77351 0.
1.94633 5.37346 0.
-214.949 -593.355 0.
-0.247842 -13.006 0.
0.222368 2.38125 0.
1.30935 4.2538 0.
-0.372942 -1.63608 0.
-244.922 -654.506 0.
-1379.49 -3796.16 0.
-0.00307277 -1.35888 0.
-1551.91 -3694.61 0.
-21.8245 -42.3485 0.
-3.20434 -5.38598 0.
-1596.93 -4175.94 0.
-31.925 -32.6622 0.
-18.1588 -19.272 0.
-1332.72 -3515.22 0.
-4.36191 -8.84113 0.
-975.353 -2304.83 0.
-426.218 -994.23 0.
-38.9423 -43.0341 0.
-781.827 -2084.64 0.
-357.173 -973.636 0.
-22.8991 -51.3373 0.
-572.815 -1411.59 0.
-358.704 -843.931 0.
-153.32 -267.547 0.
-386.86 -949.102 0.
-338.74 -804.761 0.
-192.814 -358.815 0.
-370.241 -821.652 0.
-504.027 -1178.65 0.
-84.7333 -147.91 0.
-364.238 -929.292 0.
-651.675 -1708 0.
-7.11512 -3.48926 0.
-381.213 -991.867 0.
-972.612 -2538 0.
-38.5868 -39.6904 0.
-391.7 -877.287 0.
-1056.56 -2428.14 0.
-36.3602 -72.6563 0.
-1537.78 -4093.18 0.
-0.0353615 -1.01183 0.
-0.00313261 -0.315929 0.
-1772.66 -4718.38 0.
-130.843 -250.276 0.
-0.0568866 -0.0995817 0.
-1676.51 -3002.77 0.
-0.0545914 -5.52895 0.
-1542.99 -4267.18 0.
-189.886 -510.068 0.
-0.0103358 -7.96796 0.
2.05141 5.44036 0.
6.63032 17.9003 0.
-2.39371 -6.55181 0.
3.89804 10.0351 0.
4.08763 10.7446 0.
9.31633 23.4856 0.
0.107802 0.282046 0.
-857.409 -2292.89 0.
-9.00312 -22.8537 0.
-283.735 -761.41 0.
-92.0181 -232.548 0.
-855.985 -2145.73 0.
1.99201 4.8452 0.
11.6676 28.0853 0.
-347.217 -837.54 0.
-372.668 -898.448 0.
-196.518 -467.145 0.
8.51795 19.9656 0.
-12.5857 -29.2564 0.
-77.9738 -186.425 0.
-495.165 -1173.4 0.
-5.22654 -57.9356 0.
-43.2705 -98.77 0.
-4.59773 -35.0788 0.
-26.6574 -68.9535 0.
-9.77573 -23.9568 0.
-1.28415 -2.77686 0.
3.20778 7.27509 0.
-7.9624 -59.7822 0.
-179.915 -410.521 0.
-14.0672 -30.5217 0.
-460.638 -1031.93 0.
-20.05 -43.4783 0.
22.4794 49.9596 0.
-374.131 -842.428 0.
-103.531 -241.8 0.
-14.0583 -32.198 0.
3.71006 9.00424 0.
6.0767 14.9205 0.
-540.125 -1339.32 0.
-447.757 -1107.72 0.
-38.1411 -93.2458 0.
-13.0478 -31.0752 0.
-369.252 -952.794 0.
14.0456 35.5798 0.
-0.144423 -0.382723 0.
-3.9692 -10.2797 0.
-63.2785 -174.5 0.
-394.727 -1093.32 0.
-1.30665 -3.59993 0.
-716.726 -1925.86 0.
-4.50627 -12.1316 0.
-1642.14 -3823.95 0.
-0.280922 -0.755718 0.
1.50853 4.16387 0.
-0.492047 -1.29559 0.
0.452832 1.17735 0.
-30.5601 -72.8506 0.
-4.61608 -10.7338 0.
0.0404772 0.88741 0.
-11.6735 -30.3848 0.
0.217637 0.418121 0.
-0.00509113 -0.0102721 0.
-258.702 -594.232 0.
-23.8982 -20.033 0.
-275.782 -604.491 0.
-27.5771 -23.8058 0.
-22.62 -14.8604 0.
-363.143 -992.709 0.
-7.70398 -17.1919 0.
-11.5493 -31.5442 0.
-345.907 -827.946 0.
-152.001 -289.635 0.
-11.7495 -4.559 0.
-203.857 -515.272 0.
-164.3 -407.226 0.
-12.3123 -9.79255 0.
-205.97 -384.423 0.
-308.818 -669.267 0.
-20.1581 -55.7664 0.
-84.2083 -186.452 0.
-330.899 -880.773 0.
-4.91895 -3.38022 0.
-4.97158 -3.41921 0.
-381.091 -1002.37 0.
-28.4942 -26.179 0.
-28.8497 -23.6128 0.
-179.582 -351.415 0.
-12.1416 -21.4449 0.
-161.919 -438.854 0.
-0.00573792 -0.48254 0.
-0.000109166 -0.285004 0.
-2.83294 -7.8014 0.
-0.102413 -0.826826 0.
-0.139694 -0.666867 0.
-0.101311 -0.329345 0.
-0.21229 -4.60314 0.
-60.0741 -158.138 0.
2.75349 7.48675 0.
1.80797 5.00357 0.
-1356.11 -3667.82 0.
-0.179599 -16.6995 0.
-1116.86 -3084.95 0.
9.58417 25.0381 0.
5.26237 14.0041 0.
-1.36202 -23.7076 0.
-0.417295 -1.0644 0.
-204.791 -538.91 0.
-6.70726 -16.8797 0.
-388.942 -993.864 0.
13.5693 32.5258 0.
-51.7257 -129.075 0.
-87.4578 -211.671 0.
-138.446 -331.708 0.
-46.189 -105.808 0.
-14.1743 -32.1382 0.
-472.145 -1113.37 0.
-41.8963 -97.5174 0.
-11.0285 -25.6836 0.
-5.48702 -56.2358 0.
-485.486 -1154.94 0.
25.024 57.4961 0.
-339.319 -785.774 0.
-4.09024 -32.9111 0.
14.7259 29.3986 0.
8.41295 19.5013 0.
7.58365 16.8254 0.
-174.912 -406.596 0.
21.6441 46.3422 0.
-476.669 -1101.66 0.
-7.64274 -41.9043 0.
10.5622 21.8705 0.
3.64863 7.94591 0.
-365.145 -804.202 0.
-290.149 -647.968 0.
25.1605 56.353 0.
-8.59349 -19.6448 0.
-276.948 -664.48 0.
-401.103 -971.752 0.
-419.395 -1037.16 0.
19.0943 45.9059 0.
-7.39426 -17.5914 0.
-12.874 -30.5411 0.
-554.813 -1414.38 0.
-4.25045 -10.6229 0.
-5.11818 -13.5112 0.
-25.517 -66.9617 0.
-155.126 -407.228 0.
-287.395 -789.393 0.
-0.172074 -15.827 0.
-0.177818 -0.484471 0.
1.88387 5.09017 0.
-15.7737 -42.1139 0.
4.18283 11.567 0.
0.0223273 1.89186 0.
-3.36573 -8.22674 0.
-0.143803 -1.83072 0.
-17.2192 -45.1891 0.
0.340451 0.916883 0.
0.0398375 0.187559 0.
0.14523 0.360829 0.
0.00594928 0.227623 0.
-0.00758809 -0.159535 0.
-28.4073 -19.9857 0.
-46.1385 -29.184 0.
-27.5675 -21.8677 0.
-22.2369 -13.1304 0.
-17.2793 -6.43406 0.
-16.5955 -16.402 0.
-17.7027 -27.7869 0.
-22.9941 -41.1476 0.
-165.12 -339.046 0.
-41.3445 -15.4755 0.
-9.95234 -3.59479 0.
-117.496 -294.644 0.
-88.3627 -221.907 0.
-7.40691 -3.25979 0.
-121.072 -133.18 0.
-188.208 -317.671 0.
-19.3942 -51.6488 0.
-3.81599 -5.20622 0.
-99.7986 -236.346 0.
-10.2568 -5.36363 0.
-14.8641 -7.34848 0.
-28.9578 -19.5524 0.
-19.0518 -15.9596 0.
-34.6679 -24.8417 0.
-45.14 -46.7777 0.
-44.5989 -54.3032 0.
-64.338 -87.6745 0.
-1.28105e-05 -0.175188 0.
0.182746 0.497356 0.
-5.1049 -13.522 0.
0.00860341 0.0796562 0.
-0.316997 -1.77986 0.
0.105708 0.416663 0.
2.10778 4.79124 0.
-92.0599 -226.195 0.
-0.0894134 -15.9317 0.
2.7257 7.54432 0.
-0.0501223 -3.98103 0.
-0.517649 -20.997 0.
-23.9821 -65.2556 0.
8.24234 22.3775 0.
-752.918 -2062.58 0.
6.95321 17.4775 0.
-1.5392 -31.5647 0.
-229.085 -590.019 0.
16.8063 41.9258 0.
-799.308 -2025.41 0.
17.4124 41.735 0.
-0.729275 -1.7261 0.
-303.848 -731.927 0.
-774.369 -1849.55 0.
-160.158 -367.26 0.
12.8564 29.1811 0.
2.56544 5.66732 0.
-436.391 -1008.16 0.
-702.057 -1638.42 0.
8.5032 19.236 0.
11.3579 25.6885 0.
-4.56705 -37.6359 0.
-203.426 -478.674 0.
-58.2929 -127.259 0.
-5.02896 -30.5685 0.
8.69984 20.3406 0.
10.4579 23.8509 0.
-2.93701 -29.0088 0.
13.1863 26.4158 0.
2.00353 4.25467 0.
-8.06727 -45.3164 0.
-639.626 -1328.36 0.
-178.63 -385.4 0.
5.15472 11.2722 0.
-49.2754 -103.773 0.
-34.8643 -77.962 0.
-394.389 -900.925 0.
-495.592 -1174.49 0.
10.8242 24.4458 0.
-3.3288 -44.5137 0.
-7.55783 -18.1057 0.
-852.49 -2020.81 0.
-10.2628 -24.2491 0.
-55.3746 -139.614 0.
1.33224 3.25914 0.
-636.483 -1657.04 0.
-66.2036 -172.911 0.
-15.784 -41.2753 0.
-181.551 -489.025 0.
-0.458361 -18.9354 0.
5.17543 14.1359 0.
-1.79582 -4.86858 0.
-886.331 -2438.45 0.
5.75951 15.9238 0.
5.64428 15.6248 0.
-1667.45 -4514.08 0.
-1.93281e-05 -3.72249 0.
-1437.54 -2784.41 0.
-81.6967 -188.043 0.
-14.9019 -36.8328 0.
-1536.67 -4133.44 0.
-24.8195 -67.5267 0.
0.390337 1.0467 0.
-1389.29 -3660.47 0.
-31.275 -56.2149 0.
-1047.51 -2453.67 0.
-337.339 -787.209 0.
-12.9784 -4.72949 0.
-994.288 -2623.77 0.
-270.907 -712.716 0.
-2.46356 -1.74963 0.
-703.422 -1835.99 0.
-364.007 -903.835 0.
-54.3907 -55.4162 0.
-460.705 -1230.41 0.
-399.716 -1072.01 0.
-77.6997 -157.823 0.
-384.505 -941.188 0.
-602.77 -1548.06 0.
-0.150041 -0.0523254 0.
-302.429 -831.857 0.
-805.796 -2166.1 0.
-38.965 -55.4161 0.
-274.408 -674.425 0.
-1180.46 -3116.44 0.
-37.9889 -70.9777 0.
-344.93 -754.29 0.
-1086.99 -2509.44 0.
0.00793461 0.299246 0.
-1531.88 -4036.42 0.
-0.011325 -0.187444 0.
-52.1182 -142.679 0.
-1613.78 -4299.3 0.
-6.46245 -13.932 0.
-143.453 -291.837 0.
-1270.49 -2423.32 0.
0.75999 2.09977 0.
-1272.84 -3492.69 0.
2.59314 7.03524 0.
-1031.74 -2797.2 0.
3.43102 9.28244 0.
3.01853 7.63201 0.
-1.41298 -3.76151 0.
-0.297995 -25.7804 0.
-339.244 -923.456 0.
-5.02805 -12.5172 0.
-241.035 -617.912 0.
1.95067 4.92589 0.
5.20488 12.8669 0.
-182.518 -458.674 0.
-124.208 -297.872 0.
-259.394 -613.989 0.
-6.28932 -14.2778 0.
2.30051 5.22307 0.
-807.094 -1856.04 0.
-120.247 -273.156 0.
-6.00939 -52.7748 0.
-5.9851 -46.9807 0.
-350.14 -819.527 0.
-200.064 -453.779 0.
-319.052 -726.644 0.
15.9899 34.7965 0.
-8.16385 -56.1093 0.
2.24573 4.60149 0.
-7.28343 -36.6285 0.
-4.75147 -11.2169 0.
-4.31818 -9.44605 0.
-42.5566 -96.4952 0.
3.11167 6.24285 0.
-212.289 -452.965 0.
-7.63084 -44.1761 0.
-359.457 -754.919 0.
8.26946 16.3156 0.
7.10637 14.4961 0.
-171.813 -362.379 0.
-303.839 -678.668 0.
-370.111 -843.871 0.
-3.42214 -7.61311 0.
-11.4426 -25.5831 0.
-571.986 -1343.7 0.
-94.4976 -225.535 0.
-199.561 -471.118 0.
-5.44179 -12.4028 0.
-139.301 -343.832 0.
-0.642584 -1.56756 0.
-457.373 -1184.74 0.
-161.949 -420.574 0.
-22.5067 -58.5716 0.
-332.801 -872.393 0.
-2.03717 -5.30333 0.
-1116.72 -3071.73 0.
-1.44453 -3.87875 0.
-0.0028208 -18.858 0.
5.97218 16.5419 0.
-0.00133514 -6.14718 0.
-33.1964 -91.4353 0.
-0.0355477 -5.16297 0.
-2.51911 -5.57743 0.
0.819596 1.93339 0.
-0.0689535 -1.59107 0.
-64.9107 -178.303 0.
0.309411 0.852603 0.
-0.0542829 -1.05049 0.
-11.8478 -30.4283 0.
-0.00479275 -0.415337 0.
-76.5987 -131.891 0.
-21.8212 -10.4051 0.
-27.6916 -12.1999 0.
-208.73 -547.14 0.
-2.2454 -1.35544 0.
-5.61837 -3.82896 0.
-306.988 -743.36 0.
-37.3162 -35.8132 0.
-43.8843 -50.8095 0.
-225.794 -540.135 0.
-164.352 -382.081 0.
-35.5659 -21.9916 0.
-75.2836 -131.365 0.
-246.047 -613.006 0.
0.191798 0.078072 0.
-0.0811349 -4.50328e-05 0.
-196.941 -530.095 0.
-45.4803 -55.0375 0.
-59.8117 -47.4317 0.
-245.791 -568.064 0.
-50.8403 -114.437 0.
-32.1846 -59.3239 0.
-48.5316 -99.6568 0.
0.00101423 0.242912 0.
0.00104799 0.870063 0.
0.0685861 0.635828 0.
0.581689 1.55809 0.
-133.63 -369.418 0.
0.21453 0.510595 0.
0.88092 1.99073 0.
-0.259107 -9.42773 0.
3.34439 9.1988 0.
2.53361 6.97663 0.
-8.41782e-06 -13.242 0.
-277.002 -766.073 0.
-283.003 -737.527 0.
-8.88453 -23.2383 0.
-853.83 -2246.92 0.
-3.35241 -8.9639 0.
-94.0894 -254.351 0.
4.74193 11.6958 0.
-480.901 -1220.57 0.
-15.5349 -38.8721 0.
5.32655 13.1334 0.
11.4615 27.8578 0.
-290.761 -698.156 0.
-82.1275 -194.453 0.
-127.759 -287.015 0.
2.22307 4.99764 0.
7.73197 16.9181 0.
-111.067 -252.685 0.
-619.988 -1343.28 0.
18.9278 40.1919 0.
-45.7174 -99.5797 0.
7.34077 15.6965 0.
-407.443 -936.332 0.
-361.945 -793.563 0.
14.8431 31.0217 0.
-5.13433 -34.9562 0.
6.38104 12.3244 0.
-65.4256 -144.561 0.
5.45376 12.0609 0.
-262.273 -602.329 0.
14.1841 28.5058 0.
-323.133 -692.513 0.
6.89296 12.6786 0.
5.51369 10.6669 0.
22.6794 44.7899 0.
-736.08 -1502.81 0.
-61.7006 -130.387 0.
3.10174 6.56927 0.
-6.14299 -49.7199 0.
-10.7776 -23.7323 0.
-484.177 -1071.36 0.
-458.541 -1071.99 0.
-2.99871 -6.74599 0.
20.0832 44.9095 0.
0.682265 1.5488 0.
-533.95 -1314.28 0.
-7.08448 -17.2338 0.
-105.768 -254.231 0.
-124.86 -322.191 0.
-3.61998 -9.14367 0.
-404.636 -1052.38 0.
8.87705 22.8359 0.
-104.383 -286.124 0.
2.02555 5.40507 0.
-0.44684 -12.5051 0.
-0.00384385 -5.20954 0.
-0.00914323 -4.79388 0.
2.34878 6.4996 0.
3.3077 8.79466 0.
-119.444 -330.722 0.
-1144.65 -2730.9 0.
-1.38669 -3.50004 0.
-1047.53 -2834.84 0.
-17.7894 -49.2543 0.
-23.0383 -63.7318 0.
-1194.09 -3157.18 0.
0.261742 0.70591 0.
-970.634 -2211.41 0.
-254.991 -571.587 0.
-39.7127 -28.0998 0.
-1061.31 -2871.37 0.
-136.903 -329.495 0.
-14.1782 -9.86061 0.
-809.766 -2102.66 0.
-304.521 -772.009 0.
-8.88808 -6.06796 0.
-555.942 -1421.83 0.
-483.912 -1242.04 0.
-65.0309 -34.9457 0.
-352.76 -947.58 0.
-710.079 -1902.67 0.
-1.96323 -1.11563 0.
-255.111 -697.994 0.
-962.717 -2570.55 0.
-68.4106 -111.687 0.
-34.8576 -26.8548 0.
-1011.11 -2614.43 0.
-167.113 -362.648 0.
-1189.72 -2620.24 0.
0.234959 1.50954 0.
0.588217 1.43849 0.
-1374.89 -3759.15 0.
-63.586 -164.306 0.
0.792914 2.092 0.
-888.393 -2374.19 0.
-318.01 -756.347 0.
-23.1377 -55.7236 0.
-0.324329 -11.9477 0.
3.78804 10.3726 0.
-0.00234579 -5.0812 0.
2.46439 6.70463 0.
1.49709 4.13135 0.
6.88222 17.9253 0.
5.94613 15.5683 0.
-56.0241 -147.444 0.
7.96579 21.168 0.
-343.419 -931.804 0.
15.804 39.0986 0.
-275.492 -693.604 0.
-319.324 -790.784 0.
-85.9015 -209.592 0.
-164.165 -394.566 0.
-2.73164 -6.3273 0.
1.86659 4.26386 0.
-207.528 -461.053 0.
-459.359 -1021.7 0.
-214.132 -466.376 0.
17.8798 38.0679 0.
-22.5205 -45.2207 0.
-149.151 -313.593 0.
-557.015 -1205.7 0.
12.1224 25.8152 0.
11.8432 25.773 0.
24.2563 50.2909 0.
-0.65267 -1.37293 0.
-231.786 -487.629 0.
6.44279 12.566 0.
-211.763 -471.881 0.
8.59274 19.2939 0.
0.600488 1.39837 0.
-1.92316 -3.7215 0.
-5.11852 -10.1532 0.
-9.19802 -40.9279 0.
-709.018 -1377.72 0.
-6.86526 -13.5718 0.
-162.065 -331.53 0.
25.0815 51.7906 0.
5.8183 12.2191 0.
-86.7516 -185.463 0.
-547.831 -1193.31 0.
-195.078 -426.896 0.
7.32576 16.1454 0.
18.5763 41.4634 0.
-343.36 -765.038 0.
-310.041 -700.906 0.
-2.46043 -6.0392 0.
-9.64019 -23.175 0.
-31.0034 -75.3598 0.
-247.393 -624.913 0.
7.11543 17.5449 0.
-307.344 -790.915 0.
0.477668 1.21349 0.
-0.114099 -18.2939 0.
6.59301 17.4919 0.
-85.3356 -230.732 0.
-1091.45 -3022.76 0.
0.179253 0.4965 0.
-798.171 -2158.5 0.
2.16762 5.98862 0.
0.520492 1.435 0.
-155.351 -398.724 0.
-0.0113635 -4.13495 0.
-21.0104 -58.144 0.
-0.00248424 -1.53877 0.
0.219179 0.602871 0.
-5.19968 -14.2002 0.
0.196215 0.540357 0.
-39.426 -31.6239 0.
-29.762 -18.4456 0.
-31.2761 -21.3312 0.
-224.067 -528.55 0.
-22.7306 -18.2379 0.
-22.4995 -16.384 0.
-96.1758 -215.659 0.
-1.16757 -0.826122 0.
-0.20954 -0.101943 0.
-100.706 -167.185 0.
-32.9578 -12.5511 0.
-28.1864 -10.4566 0.
0.00027848 0.208804 0.
-100.379 -270.678 0.
-1.68533 -1.19514 0.
-11.1488 -12.5559 0.
-82.0085 -206.093 0.
-24.1715 -32.3882 0.
-11.1972 -4.51861 0.
-0.0268984 -0.0426677 0.
0.429733 0.00835548 0.
-276.075 -750.555 0.
0.00882339 1.88271 0.
-0.0543606 -0.8319 0.
-71.6161 -191.762 0.
0.225752 0.586336 0.
0.620713 1.65913 0.
-0.00449187 -0.78364 0.
-0.00235078 -0.809184 0.
-1205.14 -3145.77 0.
-24.7519 -68.512 0.
-97.396 -267.345 0.
-1081.88 -2942.37 0.
-2.65511 -7.30738 0.
-777.939 -2145.41 0.
-24.1392 -62.9488 0.
-3.94945 -10.3511 0.
-57.5948 -151.711 0.
8.32895 21.8814 0.
-669.591 -1802.04 0.
-6.35014 -15.6827 0.
11.0416 26.8238 0.
-3.3406 -7.63898 0.
-553.264 -1333.97 0.
-407.985 -956.169 0.
-186.769 -431.384 0.
17.8752 40.6968 0.
11.5661 24.3905 0.
-155.106 -341.331 0.
-651.428 -1410.52 0.
-111.253 -235.618 0.
-131.258 -262.534 0.
-9.7777 -19.2808 0.
-264.708 -571.446 0.
-380.775 -805.24 0.
15.9357 33.1596 0.
-9.52011 -19.5692 0.
8.9475 17.5153 0.
-27.3411 -55.3007 0.
0.436533 0.853123 0.
-52.4615 -124.109 0.
1.23064 2.7919 0.
6.38145 15.0215 0.
4.42694 8.58073 0.
-416.664 -829.628 0.
6.36853 11.799 0.
-418.422 -818.795 0.
-2.27455 -4.19446 0.
5.29339 10.1511 0.
-2.38711 -4.88496 0.
-234.084 -487.131 0.
-587.307 -1244.88 0.
7.63105 15.4613 0.
-4.2927 -8.8304 0.
-91.6164 -200.221 0.
-502.93 -1112.42 0.
-228.437 -506.644 0.
12.1379 26.2006 0.
-2.89488 -40.2471 0.
-2.93829 -7.04115 0.
10.1224 24.5272 0.
-793.678 -1956.72 0.
5.63618 13.5505 0.
-4.63461 -11.7395 0.
-37.5458 -94.2239 0.
-432.81 -1162.09 0.
-0.253534 -0.683886 0.
-53.9685 -145.832 0.
-64.0995 -176.927 0.
1.56608 4.29327 0.
4.02472 10.9887 0.
3.20708 8.87966 0.
4.4784 12.3082 0.
2.45842 6.70557 0.
1.9083 5.27058 0.
-3.20198 -8.82539 0.
-0.145775 -0.400325 0.
0.0194985 0.0532933 0.
-0.000874584 -1.44117 0.
0.00253949 0.126779 0.
-0.0413432 -0.47306 0.
-31.4644 -19.1198 0.
-32.9615 -22.0157 0.
-32.3388 -25.5413 0.
-31.9591 -23.7463 0.
-35.4086 -24.7732 0.
-0.495855 -0.207633 0.
-0.234525 -0.117686 0.
-0.242716 -0.140961 0.
-36.054 -13.6828 0.
-34.1645 -12.8783 0.
0.0840985 0.0350669 0.
-0.0761554 -0.00118267 0.
0.275228 0.119959 0.
-1.27277 -1.06914 0.
-11.521 -13.1166 0.
-23.0194 -35.1195 0.
-15.1875 -25.4438 0.
-2.19895 -1.66599 0.
-0.0239175 -0.0358837 0.
0.388173 0.15948 0.
-15.1407 -41.5908 0.
0.117478 1.9033 0.
0.190474 1.18301 0.
-9.40773 -22.7824 0.
1.14422 3.01401 0.
-0.0194266 -1.73049 0.
-0.0107411 -2.92376 0.
0.00935306 3.51718 0.
-0.0347834 -7.46874 0.
-1.72349e-06 -14.0654 0.
-1.03498 -2.85311 0.
-1.20367 -3.27622 0.
0.604747 1.64727 0.
-177.638 -486.994 0.
-0.161277 -0.431853 0.
-99.4581 -268.641 0.
-528.882 -1439.99 0.
4.09863 10.6433 0.
-223.666 -595.671 0.
-5.76156 -14.2051 0.
-495.219 -1199.56 0.
-2.98805 -6.81336 0.
15.7174 35.7568 0.
-1.75518 -3.94924 0.
-133.226 -306.698 0.
-214.781 -487.426 0.
-375.394 -784.091 0.
-9.93399 -20.6061 0.
17.7308 36.1878 0.
-392.671 -826.879 0.
-731.758 -1460.58 0.
-58.2123 -114.295 0.
-49.24 -100.788 0.
-7.08045 -39.0222 0.
-15.3218 -31.7218 0.
-458.953 -934.129 0.
23.818 46.0563 0.
-203.4 -421.795 0.
5.31683 10.6692 0.
-8.59403 -21.3305 0.
-157.976 -362.39 0.
2.55666 4.84036 0.
5.65609 10.9849 0.
5.66615 11.2897 0.
13.9731 25.156 0.
-61.8667 -114.073 0.
19.7974 36.3478 0.
-786.693 -1499 0.
-38.4316 -77.9062 0.
-7.85245 -38.7241 0.
6.80025 13.3605 0.
-14.9842 -30.1821 0.
-537.575 -1098.7 0.
-410.071 -887.847 0.
-143.64 -315.251 0.
-11.353 -24.0083 0.
-8.77852 -18.9666 0.
-132.158 -312.091 0.
-222.449 -531.303 0.
-207.771 -501.943 0.
-129.033 -313.521 0.
-50.8665 -123.429 0.
-183.621 -469.841 0.
2.53191 6.31392 0.
-286.427 -769.554 0.
6.28449 16.9353 0.
-63.8478 -172.381 0.
-35.2231 -95.6385 0.
7.50958 20.0241 0.
-0.0435434 -13.2791 0.
-176.608 -487.01 0.
-0.0134499 -0.0372387 0.
-1098.81 -2982.86 0.
2.20138 6.05797 0.
-922.601 -2269.62 0.
-98.7853 -238.48 0.
-57.0376 -146.997 0.
-1037.68 -2814.47 0.
0.481183 1.33274 0.
-0.0767327 -1.8606 0.
-1302.69 -3304.62 0.
-15.4249 -20.6484 0.
-860.262 -2248.63 0.
-25.6278 -19.9296 0.
-8.99739 -5.2934 0.
-866.6 -2326.13 0.
-113.23 -299.952 0.
-0.109936 -0.0459192 0.
-584.275 -1404.94 0.
-496.607 -1182.85 0.
0.100627 0.0373365 0.
-250.268 -674.753 0.
-812.827 -2227.21 0.
-3.40623 -4.10414 0.
-72.058 -195.36 0.
-1040.66 -2758.56 0.
-8.93222 -18.0622 0.
-46.7141 -97.6665 0.
-1244.36 -2706.98 0.
-5.68344 -13.9815 0.
-1186.51 -3002.23 0.
0.993868 2.69003 0.
0.116774 0.323108 0.
-1189.79 -3246.51 0.
-36.2597 -96.1186 0.
-155.18 -367.275 0.
-1176.52 -2455.15 0.
0.882918 2.44471 0.
-1008.33 -2792.68 0.
-21.5187 -59.3993 0.
-0.0140734 -17.9018 0.
0.530443 1.45324 0.
4.91295 13.194 0.
-33.427 -90.7387 0.
-3.8315 -10.2445 0.
-107.55 -290.049 0.
2.35411 6.08974 0.
-0.944803 -29.999 0.
-4.75457 -12.213 0.
6.36742 15.0261 0.
-47.696 -115.395 0.
-302.093 -686.316 0.
-130.761 -296.506 0.
-0.746949 -1.66079 0.
9.53427 21.0219 0.
11.1153 25.1374 0.
-305.836 -634.792 0.
17.9916 37.0634 0.
-182.959 -370.687 0.
3.47632 6.92657 0.
-5.681 -10.6984 0.
-207.656 -406.048 0.
-214.076 -436.551 0.
-119.383 -233.21 0.
18.0007 33.7481 0.
19.0891 35.2655 0.
-18.3276 -34.9673 0.
-69.0005 -146.88 0.
1.78099 3.67372 0.
0.659304 1.31593 0.
-0.987134 -2.13049 0.
19.404 34.7654 0.
0.797159 1.5016 0.
-127.822 -253.061 0.
-14.9716 -27.0448 0.
-364.279 -673.916 0.
-198.932 -363.309 0.
0.349896 0.608647 0.
12.9766 23.8828 0.
-10.6029 -20.1373 0.
-276.127 -542.016 0.
-243.043 -486.448 0.
-153.364 -311.75 0.
-5.53794 -37.3888 0.
-13.3676 -27.9134 0.
-8.93425 -18.9116 0.
-549.217 -1185.7 0.
-195.271 -459.4 0.
14.6462 34.0242 0.
1.6229 3.83445 0.
-77.6509 -189.002 0.
9.51677 23.1348 0.
-327.234 -832.648 0.
5.65328 14.0152 0.
7.61782 20.4645 0.
-7.40557 -19.9357 0.
7.69374 20.9732 0.
-534.018 -1453.31 0.
-6.91876 -18.8044 0.
-739.516 -2037.5 0.
3.39324 9.39859 0.
3.80425 10.4587 0.
0.419125 1.15747 0.
4.21018 11.6442 0.
-3.65888 -8.56158 0.
0.562729 1.40254 0.
-0.0556792 -2.61491 0.
-0.000367636 -1.65659 0.
0.00571878 0.54892 0.
0.153573 2.29901 0.
0.0330384 0.0486 0.
-0.313846 -0.625292 0.
-19.7799 -29.2487 0.
-9.32306 -10.036 0.
-1.80962 -1.48037 0.
-5.25621 -1.90194 0.
-1.97321 -0.728758 0.
-0.576455 -0.218896 0.
0.376793 0.216018 0.
-2.04241 -1.00104 0.
-0.637861 -0.231314 0.
-2.4278 -0.995293 0.
-27.138 -28.5902 0.
-0.411339 -0.513203 0.
-0.0237754 -0.0219431 0.
0.00368951 0.00189536 0.
0.068677 0.163393 0.
0.0224928 0.0968825 0.
-17.6083 -46.5639 0.
0.00274381 0.785986 0.
0.295972 0.758968 0.
-0.0509207 -2.48562 0.
0.490123 1.34206 0.
-71.4764 -197.81 0.
1.9125 5.19572 0.
2.70788 6.87107 0.
-0.572748 -7.00797 0.
5.40038 14.5778 0.
-12.8053 -35.0473 0.
-4.6745 -12.91 0.
6.87677 19.0417 0.
-983.946 -2722.2 0.
-1.98275 -5.21891 0.
-646.448 -1731.58 0.
-0.374558 -23.9757 0.
-236.687 -637.153 0.
10.9079 27.7812 0.
-5.63036 -14.2935 0.
-525.602 -1334.62 0.
10.5404 24.7281 0.
12.911 29.9 0.
-2.63219 -5.73287 0.
-476.778 -1077.11 0.
-416.477 -913.426 0.
-97.3817 -212.103 0.
-3.75791 -8.12392 0.
-6.94747 -38.4909 0.
-71.1283 -145.378 0.
-536.686 -1078.21 0.
-6.2341 -12.3455 0.
-2.11762 -3.96774 0.
22.3101 40.7755 0.
-38.1596 -73.2471 0.
-685.559 -1333.94 0.
-6.69114 -12.4549 0.
-234.303 -433.668 0.
12.928 23.2487 0.
-37.9935 -79.3632 0.
6.57403 13.1404 0.
16.4597 31.4499 0.
-3.49104 -7.60876 0.
-8.3695 -15.1528 0.
-272.184 -518.612 0.
-46.3582 -93.0131 0.
-47.0816 -85.3535 0.
-10.261 -37.596 0.
-13.6629 -22.9938 0.
-23.4063 -40.3544 0.
-8.08336 -14.8345 0.
-575.843 -1092.79 0.
-257.035 -504.029 0.
-7.68659 -14.6093 0.
14.8347 28.6948 0.
-12.1303 -24.9363 0.
-755.768 -1566.86 0.
0.728773 1.54436 0.
-2.38004 -4.97767 0.
-0.737588 -1.56795 0.
7.32112 16.7662 0.
-15.157 -35.3087 0.
-525.534 -1281.12 0.
-151.656 -369.208 0.
-24.0076 -60.6403 0.
1.08569 2.73838 0.
-163.984 -416.846 0.
-147.525 -403.231 0.
-2.21885 -6.01379 0.
-18.046 -48.9713 0.
-10.4127 -28.219 0.
-19.8271 -54.8934 0.
-0.452848 -1.25071 0.
2.57167 6.98304 0.
4.52716 12.5243 0.
-0.0272377 -3.69118 0.
-0.0289494 -0.0701301 0.
0.0137575 0.0351545 0.
-207.834 -568.703 0.
-789.697 -2133.44 0.
-0.00502226 -0.596675 0.
-0.0361825 -4.14718 0.
-847.645 -2169.63 0.
-0.0461398 -0.218284 0.
-880.734 -2192.36 0.
0.366191 0.237204 0.
-0.0400801 -0.0143723 0.
-825.864 -2232.54 0.
-30.9661 -25.6097 0.
-18.8122 -12.2898 0.
-546.284 -1368.69 0.
-438.754 -1064.03 0.
-12.4281 -11.3041 0.
-146.502 -376.76 0.
-819.46 -2210.99 0.
-0.138664 -0.118109 0.
-10.2658 -14.4302 0.
-999.637 -2605.81 0.
-18.0586 -42.8747 0.
-9.82496 -23.6382 0.
-951.986 -2066.03 0.
0.449797 1.23436 0.
-953.455 -2550.57 0.
0.675321 1.83932 0.
1.35316 3.73746 0.
-751.142 -2054.95 0.
-0.0343399 -8.426 0.
3.21018 8.4064 0.
-0.42143 -7.53555 0.
2.40619 6.15131 0.
-21.0418 -55.6745 0.
7.81797 21.6015 0.
2.06856 5.72842 0.
0.434129 1.11059 0.
-0.544163 -22.4999 0.
-18.9044 -50.4673 0.
-0.487151 -25.944 0.
-325.983 -868.337 0.
-11.1177 -27.6396 0.
-7.12548 -17.7916 0.
-262.786 -655.919 0.
-429.203 -1000.3 0.
-214.781 -494.004 0.
3.53393 7.66484 0.
-0.560978 -1.21408 0.
-3.40544 -7.08225 0.
-208.526 -448.046 0.
-81.7711 -174.548 0.
-449.045 -880.941 0.
7.95747 15.1568 0.
14.6725 27.2262 0.
-177.956 -349.797 0.
-655.071 -1213.71 0.
1.59141 2.89164 0.
23.0195 40.8264 0.
23.2913 41.6806 0.
19.6288 33.8917 0.
-254.317 -470.674 0.
-62.8187 -112.947 0.
-164.3 -348.397 0.
13.123 26.5643 0.
-5.04775 -26.2435 0.
-36.0038 -79.2782 0.
15.9716 29.2407 0.
-103.799 -200.414 0.
-2.49889 -4.15776 0.
4.46011 7.52506 0.
-74.5377 -127.483 0.
13.5715 22.621 0.
-301.513 -514.208 0.
19.7336 36.1018 0.
9.17985 16.3226 0.
-4.73612 -8.76164 0.
14.845 27.8701 0.
-598.773 -1142.96 0.
-150.436 -307.181 0.
-21.1826 -43.6439 0.
10.7102 22.0232 0.
-6.87834 -14.3776 0.
-44.2778 -94.093 0.
-313.656 -706.676 0.
-297.601 -682.362 0.
7.94527 18.3004 0.
-3.12091 -7.31545 0.
-17.5723 -43.7436 0.
2.77584 6.96688 0.
-8.77564 -22.2086 0.
-262.631 -714.093 0.
-3.20851 -8.64146 0.
-110.842 -300.086 0.
-8.56299 -23.135 0.
-586.228 -1616.84 0.
5.62684 15.5083 0.
-0.0388999 -16.8705 0.
-924.645 -2559.55 0.
-0.0080672 -8.10008 0.
-729.169 -1710.78 0.
-0.138134 -4.14078 0.
-0.0111732 -5.09072 0.
-25.6289 -67.0962 0.
0.843253 2.20176 0.
-0.0522408 -1.75123 0.
-0.0280718 -0.295714 0.
-0.0335027 -1.4934 0.
-0.0932639 -0.0338424 0.
-0.076536 -0.0260847 0.
-0.224164 -0.0718518 0.
-2.33316 -1.01074 0.
-12.8829 -5.46515 0.
-21.5909 -14.7067 0.
0.120598 0.237077 0.
0.00360829 0.0178944 0.
-9.18553 -9.41768 0.
-5.20243 -3.70551 0.
-3.34946 -2.04261 0.
0.0938835 0.110619 0.
-2.35562 -4.17586 0.
-26.7284 -65.6951 0.
-14.0745 -34.4244 0.
-0.477005 -1.20697 0.
-3.2135 -8.32368 0.
-7.20325e-05 -0.222053 0.
0.165145 0.454557 0.
1.37913 3.78144 0.
-0.00330558 -2.96597 0.
0.734408 1.95145 0.
-0.000532023 -0.138868 0.
-1173.85 -3098.27 0.
4.08708 10.8209 0.
4.04933 10.9815 0.
-647.78 -1784.89 0.
3.03595 8.32289 0.
-306.898 -840.258 0.
2.41851 6.15671 0.
3.86913 10.0812 0.
8.36289 22.2198 0.
7.18714 18.8934 0.
-303.352 -802.469 0.
-16.6333 -41.2442 0.
-19.0727 -46.8974 0.
-20.3839 -49.7019 0.
6.92189 15.9511 0.
-65.4577 -149.61 0.
-237.417 -512.226 0.
-171.478 -369.411 0.
-76.9641 -159.38 0.
-2.10939 -4.29099 0.
-93.4598 -196.78 0.
-311.967 -609.33 0.
12.9936 24.6334 0.
-253.142 -463.25 0.
5.34511 9.65038 0.
12.6555 21.6803 0.
-150.95 -272.146 0.
-2.34752 -4.13564 0.
-75.3231 -133.653 0.
1.48016 2.53231 0.
6.17669 10.6555 0.
12.31 20.8613 0.
-28.3731 -49.5634 0.
-54.0187 -110.908 0.
-4.89828 -26.5915 0.
-1.52652 -3.40702 0.
-6.77186 -12.0713 0.
-120.165 -221.499 0.
-3.94089 -6.47124 0.
-61.1089 -101.712 0.
-340.303 -573.088 0.
-117.414 -193.518 0.
2.5041 3.96183 0.
-11.0272 -18.7053 0.
-48.8493 -86.1303 0.
5.03962 9.18634 0.
-252.134 -466.77 0.
-223.665 -421.365 0.
10.9721 20.8879 0.
-8.41538 -16.3953 0.
9.08911 18.6783 0.
-210.466 -439.853 0.
-455.494 -969.658 0.
-38.9208 -81.6451 0.
-164.989 -348.375 0.
10.4652 23.9157 0.
-227.742 -528.804 0.
-256.967 -635.756 0.
-28.7609 -71.8015 0.
-14.1361 -35.5926 0.
-247.339 -668.69 0.
6.21703 16.5275 0.
-274.823 -742.673 0.
-23.9756 -64.275 0.
1.94431 5.17346 0.
2.55181 7.01577 0.
6.59499 18.1172 0.
3.19063 8.79922 0.
5.72575 15.5154 0.
-0.24738 -8.81321 0.
3.63734 9.67762 0.
0.000929031 3.08726 0.
-73.2204 -181.189 0.
0.226399 0.559442 0.
-0.0413247 -0.65915 0.
0.922911 2.39934 0.
-0.000712392 -2.86022 0.
-0.190547 -0.0608821 0.
-0.15809 -0.0477159 0.
-0.118671 -0.0339431 0.
-3.78598 -1.74487 0.
-15.9725 -7.59208 0.
-25.7346 -16.7856 0.
0.00257202 0.00761292 0.
-0.0732007 -0.454225 0.
-6.33082 -7.17454 0.
-2.7602 -2.3657 0.
-0.333697 -0.241863 0.
0.00800497 0.291431 0.
-0.0257948 -0.244295 0.
-20.0843 -54.1549 0.
-20.3741 -50.049 0.
-3.61593 -9.7588 0.
-3.60437 -9.77907 0.
-0.0178655 -2.86581 0.
1.35525 3.75306 0.
-0.00294907 -1.115 0.
0.000276753 0.256486 0.
1.49107 3.99612 0.
0.000418327 0.587659 0.
3.97299 10.9394 0.
-0.193064 -8.67429 0.
1.27813 3.44605 0.
4.24713 11.6397 0.
5.59548 15.4458 0.
-209.803 -578.398 0.
-295.477 -791.485 0.
-92.2983 -247.037 0.
-76.2661 -204.079 0.
8.94713 23.3134 0.
-137.47 -360.868 0.
-33.7131 -83.3615 0.
-37.7101 -92.4584 0.
-161.207 -391.976 0.
10.9856 25.2299 0.
-2.81401 -30.9811 0.
-2.38795 -5.11601 0.
-307.842 -660.074 0.
-546.87 -1128.45 0.
-18.1597 -36.7762 0.
6.12488 12.1858 0.
14.0389 25.7722 0.
-46.0781 -86.9497 0.
-369.952 -667.248 0.
17.0155 30.2834 0.
-295.239 -503.687 0.
5.36177 8.77719 0.
-6.0836 -9.56515 0.
-371.418 -652.505 0.
-246.044 -416.477 0.
-224.022 -386.292 0.
5.66007 9.58212 0.
-9.40225 -15.6357 0.
4.99998 9.90933 0.
2.00046 3.7591 0.
3.73353 8.5019 0.
-4.41859 -8.02811 0.
-298.569 -559.35 0.
-6.0236 -9.7557 0.
12.5581 20.6213 0.
19.0475 30.3345 0.
6.80605 10.5722 0.
-155.22 -244.409 0.
-28.5933 -47.9921 0.
-631.332 -1109.84 0.
-141.48 -254.18 0.
17.038 28.7107 0.
-48.6373 -84.9262 0.
-2.44045 -4.57513 0.
-411.169 -786.444 0.
6.2148 12.7646 0.
-3.74228 -7.46991 0.
-10.5306 -21.518 0.
-72.1222 -151.135 0.
-343.943 -726.229 0.
-14.1351 -32.0266 0.
-252.399 -580.744 0.
-68.1434 -167.736 0.
2.41356 5.8526 0.
-8.74494 -21.1987 0.
-239.045 -631.748 0.
10.268 27.0422 0.
-253.131 -684.155 0.
2.08031 5.58111 0.
4.41347 11.7566 0.
3.93624 10.7903 0.
-2.89785 -7.93523 0.
2.66473 7.23207 0.
-197.877 -535.283 0.
1.01873 2.73719 0.
-711.086 -1886.34 0.
-0.096003 -8.13678 0.
-582.617 -1535.2 0.
-0.0112347 -4.1942 0.
1.42104 3.89715 0.
-614.219 -1674.94 0.
-0.000178824 -0.949545 0.
-735.225 -1826.19 0.
-0.0234043 -0.0284892 0.
-0.199772 -0.06576 0.
-676.666 -1832.67 0.
-0.181681 -0.0255788 0.
-0.0268254 -0.010315 0.
-389.484 -1076.89 0.
-348.617 -925.12 0.
-21.1588 -54.7888 0.
-84.4894 -225.779 0.
-708.702 -1857.26 0.
-19.1478 -49.2383 0.
-20.5678 -52.6587 0.
-846.553 -2218.04 0.
-2.43177 -5.97907 0.
-29.5787 -59.3174 0.
-795.939 -1632.54 0.
-0.0425048 -3.79242 0.
-771.363 -2054.47 0.
-0.0221704 -1.60361 0.
0.524621 1.33017 0.
-830.573 -2009.17 0.
-0.0057411 -8.54011 0.
-461.096 -1270.66 0.
-162.192 -436.92 0.
-0.277223 -20.0789 0.
-0.107536 -17.2151 0.
0.307123 0.850467 0.
-113.554 -314.256 0.
-59.2221 -158.667 0.
-34.12 -91.3901 0.
-320.575 -859.615 0.
-2.8254 -7.29974 0.
4.84285 12.4379 0.
-27.1999 -65.3529 0.
-136.385 -333.172 0.
-355.995 -819.168 0.
-580.8 -1326.68 0.
5.33895 12.1605 0.
8.19543 17.3846 0.
10.0303 20.9141 0.
4.97968 9.82915 0.
-74.3253 -149.837 0.
-3.89959 -7.72119 0.
-341.025 -619.864 0.
17.3473 30.7072 0.
16.1838 27.1827 0.
-137.158 -240.436 0.
-187.266 -318.671 0.
-633.244 -1029.22 0.
-1.91418 -2.99239 0.
14.9546 23.3441 0.
-13.52 -21.2667 0.
7.68578 13.2382 0.
9.6881 16.3862 0.
13.4169 22.286 0.
-147.91 -299.023 0.
-3.13021 -15.6938 0.
-4.00408 -7.16591 0.
11.2647 19.3026 0.
-4.4963 -16.859 0.
22.3881 33.4732 0.
-16.0431 -24.6519 0.
7.12068 10.861 0.
-96.9147 -149.785 0.
-411.865 -644.775 0.
-25.7299 -42.681 0.
14.2573 22.366 0.
-2.50316 -4.06689 0.
-9.78464 -33.0556 0.
-715.82 -1247.75 0.
-173.094 -318.789 0.
-4.43116 -7.90924 0.
-4.82991 -26.0716 0.
-6.13189 -12.2671 0.
-1.33442 -2.73317 0.
-323.5 -677.638 0.
-245.091 -517.378 0.
-2.64709 -5.95292 0.
9.76211 22.2527 0.
4.09907 9.95008 0.
-52.2672 -126.846 0.
-21.2579 -51.5737 0.
-400.009 -1047.76 0.
-2.80361 -7.30859 0.
-17.8543 -48.2444 0.
-4.19151 -11.2547 0.
-15.9393 -42.7557 0.
-521.164 -1425.49 0.
3.97457 10.8422 0.
-274.487 -746.627 0.
-0.193863 -19.3979 0.
2.7418 7.37079 0.
0.496782 1.36969 0.
5.27356 14.6061 0.
0.170397 0.450914 0.
1.54166 4.25041 0.
-0.0141081 -5.02227 0.
-0.000340621 -4.57266 0.
0.000822394 0.0842067 0.
-12.1956 -30.1637 0.
-0.00343845 -0.0276277 0.
0.273151 0.0403194 0.
-0.441636 -0.196864 0.
0.0226704 0.0145486 0.
0.0263213 0.0375582 0.
0.0885406 0.34535 0.
-0.00183187 -0.0510533 0.
-5.54623 -15.1887 0.
-2.02829 -5.55673 0.
-12.5539 -32.5762 0.
-16.6317 -44.4558 0.
-18.1294 -48.216 0.
-52.3657 -139.244 0.
0.0453345 0.114743 0.
1.04149 2.31197 0.
-15.447 -29.6421 0.
-0.00466932 -3.88421 0.
2.26149 6.10687 0.
3.5572 9.74529 0.
-0.141279 -6.92979 0.
-0.362816 -8.66649 0.
0.247065 0.681144 0.
-10.3001 -28.5194 0.
-6.31359 -17.014 0.
2.57708 6.94318 0.
-283.867 -763.68 0.
-0.0387513 -20.5307 0.
-366.427 -1012.08 0.
-24.5245 -65.7597 0.
-13.6108 -36.4883 0.
-35.8672 -96.1483 0.
5.86878 15.0633 0.
-272.895 -697.397 0.
-36.2488 -87.4053 0.
4.36798 10.5102 0.
1.83259 4.14225 0.
6.95477 15.5368 0.
-82.1241 -186.342 0.
-283.312 -594.383 0.
-41.0422 -84.6509 0.
-41.0867 -81.3611 0.
5.53177 10.5771 0.
-6.5473 -12.0865 0.
-391.964 -704.586 0.
-55.1902 -96.6333 0.
-240.027 -399.335 0.
14.9821 24.3138 0.
10.695 16.9432 0.
-94.1469 -152.632 0.
-12.3016 -33.429 0.
-33.6179 -51.4919 0.
-0.181161 -0.279758 0.
9.50159 15.845 0.
-0.727033 -1.18029 0.
1.52146 2.40514 0.
2.52069 4.89581 0.
-3.30934 -17.8287 0.
7.46838 12.4124 0.
0.580786 0.983945 0.
-101.686 -175.387 0.
-24.1356 -35.7539 0.
-499.148 -760.195 0.
-199.176 -302.115 0.
5.36011 7.71206 0.
-9.76297 -14.1126 0.
15.0839 22.8513 0.
-41.8119 -64.8247 0.
-9.94724 -30.3191 0.
-77.1271 -129.821 0.
-4.29279 -7.11695 0.
-5.59656 -9.6733 0.
-40.8017 -72.1073 0.
-7.59525 -14.8684 0.
-1.5652 -3.13848 0.
-136.039 -279.49 0.
7.52199 15.616 0.
-8.11616 -17.0205 0.
-0.848954 -1.90663 0.
-133.876 -303.888 0.
-245.34 -571.84 0.
-111.403 -270.67 0.
-20.8858 -50.7107 0.
8.83099 22.7007 0.
7.40599 19.0417 0.
-235.712 -636.298 0.
-7.9046 -21.2761 0.
2.0159 5.41269 0.
-117.048 -318.663 0.
2.21852 6.0163 0.
-78.2017 -212.722 0.
1.57357 4.25793 0.
1.00703 2.70858 0.
-0.0133537 -13.5246 0.
-0.0794656 -11.2313 0.
2.89668 7.74891 0.
1.54413 4.26194 0.
-0.0157678 -7.70724 0.
-469.646 -1299.04 0.
2.29837 6.1578 0.
-525.302 -1280.12 0.
-4.42716 -11.4488 0.
0.142992 0.278553 0.
-589.269 -1630.98 0.
-0.00894043 -0.162042 0.
-3.15999 -6.79416 0.
-287.426 -795.948 0.
-317.663 -866.627 0.
-24.247 -66.8956 0.
-57.6571 -150.58 0.
-528.877 -1361.64 0.
-64.3363 -150.365 0.
-57.7629 -110.123 0.
-497.068 -1224.51 0.
-0.178399 -2.37001 0.
-621.11 -1461.8 0.
0.831422 2.29411 0.
-56.0808 -153.926 0.
3.01536 8.30378 0.
0.00351305 4.0331 0.
5.26397 14.2376 0.
-0.320577 -12.5392 0.
3.10031 8.361 0.
2.43549 6.67408 0.
-5.51517 -14.859 0.
5.5375 14.9159 0.
-4.76271 -12.8247 0.
3.05625 8.41119 0.
-181.575 -500.758 0.
1.34684 3.5367 0.
1.3093 3.43128 0.
-54.2678 -141.956 0.
8.97984 22.3673 0.
-241.039 -611.44 0.
-244.061 -591 0.
-168.885 -407.449 0.
-120.805 -271.727 0.
1.96984 4.38499 0.
-2.71218 -24.2577 0.
-3.80476 -7.60475 0.
-175.252 -357.262 0.
-518.141 -1030.61 0.
-7.68156 -14.7274 0.
13.4401 24.8598 0.
1.75459 2.91773 0.
2.05365 3.34056 0.
-313.258 -515.957 0.
-23.7872 -38.2123 0.
12.4964 19.5942 0.
-7.71708 -11.5886 0.
-11.311 -16.5908 0.
-1.58516 -2.2713 0.
-20.0368 -30.3653 0.
-131.932 -201.529 0.
-261.582 -423.396 0.
-10.9053 -17.1682 0.
-5.08602 -9.86575 0.
4.83639 9.07242 0.
7.62901 12.5254 0.
-5.49875 -18.2546 0.
-147.086 -250.851 0.
-49.4798 -72.5511 0.
-13.1247 -18.6743 0.
-5.52912 -7.752 0.
16.4091 23.0981 0.
-420.069 -594.295 0.
-242.436 -363.399 0.
-312.524 -478.707 0.
-9.94243 -25.7695 0.
-10.3051 -16.213 0.
-16.7865 -27.316 0.
-15.65 -26.7582 0.
-501.304 -874.151 0.
1.59112 3.12123 0.
2.2838 4.41347 0.
10.2945 20.916 0.
-8.53702 -17.6189 0.
-182.657 -380.228 0.
-3.99938 -8.96827 0.
-51.4403 -116.816 0.
-47.0479 -108.316 0.
5.04969 11.9979 0.
8.47832 20.2949 0.
-67.7061 -173.012 0.
9.68863 24.7516 0.
-218.276 -589.643 0.
1.045 2.8153 0.
-4.36339 -11.7274 0.
-0.873013 -2.36255 0.
-1.02375 -2.75785 0.
-209.566 -573.224 0.
-51.7876 -141.477 0.
-1.64699 -4.49449 0.
-446.033 -1233.35 0.
5.13012 14.1651 0.
-447.293 -1153.51 0.
1.16676 3.16265 0.
-0.879242 -2.43534 0.
0.762915 2.05035 0.
-0.24571 -5.17334 0.
-0.673797 -1.86006 0.
-0.0299757 -0.782822 0.
0.491067 1.02111 0.
0.000210421 0.109549 0.
0.176065 0.453209 0.
0.117392 0.271314 0.
0.106348 0.292795 0.
-6.366 -17.5743 0.
-12.8371 -34.5938 0.
-1.09545 -2.78025 0.
-0.0718048 -0.807158 0.
0.518773 1.37358 0.
0.0139753 0.183286 0.
-0.153572 -1.01567 0.
0.000832331 0.0753518 0.
-172.136 -453.735 0.
-0.0627566 -4.96557 0.
-0.0010661 -8.18861 0.
-551.319 -1517.6 0.
-2.02736 -5.51315 0.
-8.85803 -23.7249 0.
-599.192 -1573.14 0.
-0.368154 -0.996326 0.
-392.935 -1069.4 0.
7.13124 19.2847 0.
-50.9114 -137.066 0.
1.14436 3.08083 0.
2.57627 7.07509 0.
-59.6101 -164.113 0.
-9.5831 -25.1063 0.
-49.0863 -128.344 0.
-146.089 -362.121 0.
-0.315177 -0.782529 0.
-12.9619 -32.218 0.
5.09047 12.1597 0.
10.733 26.0053 0.
-215.541 -482.684 0.
7.91413 17.5535 0.
7.56677 16.5841 0.
-145.591 -291.117 0.
9.44516 18.3502 0.
-1.35052 -2.55619 0.
-18.1467 -34.8892 0.
3.19613 5.92343 0.
-293.854 -483.776 0.
2.34795 3.78496 0.
-4.01536 -6.15134 0.
7.49481 11.0344 0.
-4.7054 -7.29465 0.
-603.969 -895.893 0.
9.82264 14.2342 0.
16.0285 22.6018 0.
-1.35395 -1.89783 0.
17.8515 24.864 0.
-62.7809 -101.129 0.
-7.96712 -12.4828 0.
-55.8308 -108.121 0.
3.19264 5.97206 0.
-8.36638 -21.7158 0.
-4.75836 -7.53849 0.
10.2768 14.2477 0.
0.333126 0.465109 0.
-74.9742 -105.339 0.
-0.838685 -1.15003 0.
-243.066 -334.431 0.
-258.309 -356.7 0.
10.456 14.8648 0.
-11.4172 -16.274 0.
-10.0238 -14.9688 0.
-183.124 -281.984 0.
-263.175 -419.158 0.
-148.893 -251.404 0.
7.41076 11.7901 0.
-4.76191 -20.9899 0.
6.52108 12.6495 0.
-351.607 -720.077 0.
-87.3387 -179.107 0.
2.38439 4.94108 0.
3.45906 7.63835 0.
-0.961651 -2.14037 0.
-67.2224 -150.713 0.
1.48056 3.52074 0.
-160.554 -384.967 0.
-240.185 -610.073 0.
-2.05402 -5.21266 0.
-2.12185 -5.38485 0.
-62.0149 -166.223 0.
5.7125 15.2954 0.
-111.742 -301.482 0.
-1.2564 -3.3883 0.
-71.3825 -195.048 0.
1.22757 3.35035 0.
4.35013 11.8589 0.
-12.8455 -35.2651 0.
6.35136 17.3505 0.
2.36097 6.18844 0.
1.44164 3.93961 0.
-0.000418602 -5.53836 0.
-0.448127 -1.14924 0.
-0.15101 -1.85076 0.
-1.37696 -7.78518 0.
0.333716 0.834925 0.
0.759548 1.63248 0.
-9.89898e-05 -0.0773665 0.
0.00569248 0.288452 0.
-0.0404903 -0.710154 0.
-0.0038663 -0.464771 0.
-5.40928 -14.8232 0.
-2.60976 -6.76906 0.
0.303889 0.737497 0.
-0.0212533 -0.189116 0.
0.00223398 0.244094 0.
-0.0322842 -0.70958 0.
0.822516 1.8561 0.
0.000237162 0.203411 0.
0.10108 0.279388 0.
3.14133 8.18777 0.
4.64416 12.7205 0.
-1.25628 -3.47932 0.
-0.0699918 -13.2956 0.
-0.143707 -13.4966 0.
2.3963 6.37381 0.
6.99031 18.7355 0.
-6.39677 -17.2549 0.
7.86269 21.2144 0.
-102.454 -277.382 0.
-65.5093 -180.168 0.
-0.515853 -1.41737 0.
-0.08948 -23.5202 0.
-9.9847 -25.9671 0.
-139.232 -363.121 0.
6.95183 17.1851 0.
-42.8411 -106 0.
-94.5645 -234.254 0.
-276.833 -662.96 0.
10.9669 26.0283 0.
9.81252 21.4146 0.
10.4655 22.5227 0.
13.2401 28.9043 0.
-385.517 -770.258 0.
-0.293732 -0.57121 0.
-2.54831 -4.8299 0.
14.6322 26.8554 0.
-4.54499 -17.9764 0.
-203.652 -332.224 0.
-19.8781 -31.7325 0.
-412.636 -626.124 0.
17.3406 25.2772 0.
24.2299 33.9924 0.
22.1703 29.4013 0.
-128.453 -183.742 0.
-279.407 -388.461 0.
-99.1545 -136.844 0.
6.8256 9.35898 0.
1.13052 1.66083 0.
10.0676 14.5497 0.
1.90001 3.33401 0.
-5.43363 -9.50653 0.
14.8302 22.5022 0.
-20.5639 -32.4259 0.
-103.04 -141.053 0.
-231.101 -318.306 0.
-330.693 -458.046 0.
22.4269 28.5438 0.
-4.79097 -6.22863 0.
-15.339 -21.3192 0.
-13.0517 -18.171 0.
-215.712 -300.875 0.
-4.04723 -5.90313 0.
-8.15876 -11.4545 0.
-7.09842 -10.2499 0.
-8.65622 -13.3765 0.
-118.341 -186.475 0.
11.603 21.3955 0.
-4.43277 -8.63478 0.
-222.971 -458.911 0.
2.59489 5.09819 0.
7.30538 14.7927 0.
-5.77655 -12.8335 0.
0.463028 1.03676 0.
-339.221 -765.586 0.
-100.003 -238.039 0.
-93.8733 -225.121 0.
-27.3978 -68.4444 0.
-8.55639 -21.3942 0.
-3.03418 -7.59381 0.
-97.3954 -260.025 0.
7.43269 19.8205 0.
-104.305 -281.024 0.
4.2535 11.4568 0.
-12.5652 -33.8451 0.
-14.8503 -40.4892 0.
-1.97816 -5.38688 0.
-15.2098 -41.2219 0.
0.134603 0.361514 0.
-228.723 -622.67 0.
-0.11548 -13.8902 0.
-0.0758125 -8.43637 0.
-435.859 -1207.17 0.
3.58386 9.78552 0.
-0.161709 -5.55519 0.
-515.046 -1278.12 0.
-2.17579e-05 -2.46643 0.
-257.174 -619.292 0.
-20.1617 -55.6148 0.
-70.5927 -190.361 0.
-102.194 -283.038 0.
-306.469 -841.455 0.
0.307506 0.741787 0.
-95.8239 -230.744 0.
-384.2 -936.953 0.
-11.8737 -29.2518 0.
-55.3757 -128.128 0.
-396.951 -872.075 0.
-0.0136436 -4.86409 0.
-537.012 -1421.24 0.
1.86383 5.15433 0.
4.03125 11.1658 0.
-216.417 -599.049 0.
5.08543 13.9151 0.
-244.844 -669.256 0.
5.2569 13.8107 0.
-0.349266 -18.7265 0.
-7.85161 -20.9838 0.
6.125 16.4877 0.
-136.975 -370.012 0.
8.32376 22.8634 0.
2.49457 6.84388 0.
-174.159 -477.11 0.
5.38972 13.9519 0.
-93.8095 -243.31 0.
-5.43048 -13.4242 0.
-5.06557 -12.4967 0.
-64.8484 -160.097 0.
-127.897 -306.23 0.
-7.01767 -16.6711 0.
-242.797 -531.756 0.
12.4432 26.8402 0.
0.0635742 0.135183 0.
-3.32452 -6.52588 0.
8.24452 16.0525 0.
-347.649 -660.401 0.
9.63916 17.7052 0.
-4.65528 -18.4182 0.
10.0881 15.3374 0.
4.406 6.5405 0.
3.29775 4.95898 0.
-56.4606 -81.38 0.
5.54744 7.68895 0.
-3.69776 -4.75551 0.
12.424 15.8993 0.
0.355558 0.44693 0.
2.81728 3.54558 0.
-23.0613 -31.1101 0.
-174.313 -253.575 0.
-6.02904 -8.62498 0.
1.31078 1.84401 0.
-0.732765 -1.25685 0.
-33.9143 -51.1557 0.
-118.034 -185.271 0.
1.44079 1.82382 0.
5.02971 6.3669 0.
-8.85755 -11.1955 0.
-19.0313 -23.777 0.
-358.552 -457.338 0.
-76.432 -104.009 0.
-137.799 -187.689 0.
1.00452 1.28902 0.
-6.90199 -9.33616 0.
15.0003 20.8474 0.
-54.2628 -77.5584 0.
-8.72807 -22.8186 0.
12.8355 20.0483 0.
-4.38624 -20.7795 0.
5.00858 9.59608 0.
-3.51982 -6.87167 0.
-4.01084 -22.4392 0.
-290.859 -590.608 0.
9.00706 20.1363 0.
-4.6331 -10.4365 0.
2.87065 6.4834 0.
7.1072 16.8721 0.
-8.82138 -21.0349 0.
-34.8982 -87.0623 0.
-69.8899 -174.52 0.
-0.028789 -0.0719539 0.
-193.42 -514.225 0.
5.18547 13.7689 0.
-69.5912 -187.231 0.
-6.32126 -17.0053 0.
-25.233 -67.7904 0.
-119.155 -323.308 0.
3.92477 10.618 0.
-208.667 -559.662 0.
4.19596 11.1747 0.
6.76093 17.864 0.
-1.68653 -4.62602 0.
6.20854 17.0214 0.
-0.0214301 -10.325 0.
1.53336 4.11208 0.
-0.614757 -15.0688 0.
1.25223 3.37598 0.
-0.00334308 -0.888758 0.
0.458269 1.26759 0.
-0.00606486 -1.32914 0.
0.0377069 0.0982544 0.
-0.462053 -1.22913 0.
0.262279 0.669809 0.
-0.0191291 -1.81195 0.
-0.0302535 -1.10342 0.
-25.3441 -63.9668 0.
0.616449 1.53937 0.
-0.238788 -3.11385 0.
0.996115 2.1882 0.
2.10441 5.78522 0.
-8.11576 -22.386 0.
4.86851 13.379 0.
2.86913 7.92812 0.
0.185558 0.513869 0.
0.395984 1.08978 0.
-45.7504 -125.746 0.
-82.2978 -216.336 0.
-63.8862 -168.948 0.
-184.081 -490.087 0.
-1.33283 -3.56582 0.
-145.392 -390.024 0.
-27.7446 -76.0794 0.
-68.2081 -186.785 0.
-99.5967 -272.403 0.
-32.6595 -84.1411 0.
-161.435 -416.79 0.
-2.89956 -7.16784 0.
-42.4131 -104.613 0.
-2.55254 -6.28432 0.
7.18551 17.1384 0.
-1.82036 -23.9894 0.
-187.486 -411.611 0.
12.0146 25.976 0.
-0.161815 -0.344867 0.
-210.98 -416.407 0.
8.24163 15.8725 0.
6.41885 12.0424 0.
0.704504 1.27812 0.
14.0261 24.936 0.
-321.886 -480.551 0.
13.4774 19.6706 0.
0.84615 1.16502 0.
0.937366 1.26515 0.
-9.25098 -17.1004 0.
-138.735 -172.542 0.
-105.692 -131.026 0.
-3.99405 -4.93742 0.
-2.55498 -3.1443 0.
18.016 22.2016 0.
14.4131 19.0465 0.
1.08964 1.43393 0.
0.363393 0.505814 0.
-41.0083 -68.9092 0.
0.169144 0.236014 0.
-8.14762 -11.4302 0.
11.8998 14.678 0.
-123.136 -151.731 0.
-154.427 -189.842 0.
-322.696 -395.089 0.
-152.354 -190.283 0.
-13.1882 -20.8017 0.
-3.01405 -3.76526 0.
1.48111 1.8729 0.
11.4461 15.3035 0.
-255.019 -349.638 0.
-170.107 -240.097 0.
4.95903 7.55663 0.
1.42603 2.26629 0.
-5.13206 -9.60443 0.
2.05802 3.92414 0.
-299.254 -581.837 0.
-4.26087 -8.43473 0.
-8.16096 -16.6689 0.
3.64792 8.05658 0.
6.11855 13.6688 0.
-64.9613 -146.819 0.
1.04769 2.49636 0.
-141.522 -338.724 0.
-139.547 -347.682 0.
-66.074 -164.755 0.
-34.5172 -86.1479 0.
-43.7614 -115.479 0.
8.57539 22.5649 0.
3.50926 9.40097 0.
-5.11113 -13.7221 0.
-16.55 -44.5231 0.
-78.6413 -212.283 0.
5.49496 14.781 0.
-4.01826 -10.7593 0.
-4.77812 -12.7023 0.
4.01074 10.5781 0.
0.375957 1.03798 0.
5.12742 14.1577 0.
-0.079552 -12.2499 0.
4.98309 13.1149 0.
6.18078 15.2802 0.
2.3247 6.41125 0.
-0.000145474 -5.87606 0.
-185.654 -450.21 0.
-39.8298 -105.667 0.
-70.7236 -195.478 0.
-28.5703 -79.126 0.
-212.833 -586.092 0.
-0.163128 -0.436901 0.
0.827399 2.12567 0.
-239.415 -590.004 0.
-0.207372 -0.497648 0.
-0.48269 -1.16498 0.
-216.23 -532.494 0.
4.14317 11.0401 0.
1.69499 4.68305 0.
1.49964 4.08037 0.
-0.0368774 -10.4677 0.
5.32107 14.6942 0.
0.895064 2.4729 0.
2.26825 6.26018 0.
3.83177 10.1004 0.
-4.32461 -11.4652 0.
-50.4202 -134.448 0.
-4.36106 -11.6039 0.
-73.7163 -196.785 0.
6.73782 18.3917 0.
4.34493 11.8477 0.
0.328119 0.893783 0.
-1.46206 -3.71826 0.
-16.8655 -43.3326 0.
-15.5859 -38.5272 0.
-26.1908 -64.6071 0.
-57.4387 -141.38 0.
-123.101 -295.626 0.
8.36193 19.7994 0.
5.88396 12.6243 0.
-0.990784 -2.10072 0.
-6.36302 -13.5924 0.
-107.682 -214.505 0.
7.48184 14.5231 0.
-154.058 -289.885 0.
5.90443 10.7284 0.
-5.15409 -19.6384 0.
4.50606 6.5448 0.
4.51241 6.46272 0.
-98.6791 -132.545 0.
-186.687 -245.939 0.
-10.4073 -18.2601 0.
-4.94573 -5.89181 0.
0.131409 0.154261 0.
14.4431 17.301 0.
-188.848 -226.875 0.
-19.4744 -23.4656 0.
12.2869 15.7837 0.
-3.28549 -4.20853 0.
2.57355 3.27975 0.
9.1835 13.8791 0.
-86.005 -116.694 0.
-72.3846 -98.5859 0.
-193.987 -232.883 0.
-194.803 -233.425 0.
-10.8787 -12.1532 0.
-11.2245 -12.5874 0.
-15.7593 -17.7354 0.
8.47908 10.3126 0.
1.56463 1.92437 0.
-163.177 -203.088 0.
3.29674 4.3983 0.
-3.17657 -4.30743 0.
14.7122 20.2951 0.
11.173 17.139 0.
-87.966 -140.921 0.
11.2182 20.8778 0.
-7.16465 -13.5883 0.
2.74212 5.21325 0.
-3.80172 -21.177 0.
-47.3094 -96.2588 0.
8.30563 18.3471 0.
4.77647 10.6743 0.
-173.911 -393.615 0.
5.00122 11.9611 0.
-17.3122 -41.585 0.
2.69169 6.62718 0.
-0.165281 -0.40858 0.
0.534165 1.32579 0.
-64.2416 -168.905 0.
-0.538146 -22.7737 0.
-119.744 -321.182 0.
-0.661585 -1.77863 0.
-9.15953 -24.6741 0.
-48.7918 -130.965 0.
6.38809 17.0769 0.
-0.67521 -1.80483 0.
-18.4411 -48.6305 0.
-4.54941 -11.9869 0.
-104.462 -289.288 0.
0.147616 0.408824 0.
-88.7776 -243.033 0.
5.17472 14.0857 0.
4.83365 13.0727 0.
-238.184 -659.326 0.
3.38819 9.03885 0.
-0.113796 -2.84074 0.
0.870166 2.34345 0.
0.423804 1.17348 0.
0.260559 0.72106 0.
-0.52284 -1.38685 0.
-0.0225233 -2.90031 0.
0.687065 1.81104 0.
1.12128 2.84418 0.
0.100533 0.253107 0.
-0.919294 -2.31578 0.
-23.0398 -58.1622 0.
5.11325 13.3588 0.
-211.768 -580.02 0.
-8.81309 -24.2348 0.
-0.324553 -0.894317 0.
-79.415 -219.226 0.
-0.768086 -2.12573 0.
-43.6341 -120.692 0.
7.85173 20.7809 0.
-0.754753 -2.0064 0.
-4.32918 -11.5701 0.
-4.61735 -12.2152 0.
-52.3378 -138.97 0.
-2.6703 -7.28321 0.
4.00378 10.9088 0.
-40.1213 -109.201 0.
-3.69928 -9.42118 0.
-2.25156 -5.71364 0.
2.56598 6.19635 0.
-3.53037 -8.47821 0.
-44.9754 -110.713 0.
-12.488 -30.1922 0.
-0.747411 -1.78225 0.
-171.511 -366.109 0.
-2.1822 -4.60236 0.
-2.18338 -4.55101 0.
-7.54497 -14.9358 0.
0.756098 1.45691 0.
-7.13081 -13.4382 0.
8.15869 14.8414 0.
-4.03783 -7.0922 0.
-117.299 -170.133 0.
4.72366 6.66924 0.
-17.5983 -23.0598 0.
-6.71311 -8.52693 0.
10.8959 13.7583 0.
-136.583 -160.874 0.
-3.27305 -3.80062 0.
21.7059 24.8547 0.
-0.531362 -0.597771 0.
-16.1669 -20.2683 0.
-66.8583 -78.8762 0.
-105.699 -131.62 0.
-2.59999 -3.22392 0.
-1.89671 -2.85628 0.
2.58191 3.17648 0.
6.90664 8.32625 0.
6.86344 7.49401 0.
0.349457 0.380676 0.
11.2769 12.2602 0.
-6.69834 -7.29937 0.
-182.587 -199.033 0.
-8.9881 -10.7516 0.
9.33318 11.149 0.
-2.08259 -2.57591 0.
-7.28195 -9.67066 0.
-80.034 -107.917 0.
-0.767198 -1.05362 0.
8.87282 13.7015 0.
3.01867 4.6556 0.
-2.60802 -4.65611 0.
-0.120804 -0.221911 0.
-3.38937 -6.41127 0.
4.35509 8.70194 0.
-71.4356 -147.433 0.
-6.92819 -15.3107 0.
3.61688 8.08616 0.
10.2806 21.7382 0.
-1.98791 -22.1971 0.
2.03209 4.76957 0.
9.93484 24.4237 0.
-0.0891289 -0.22001 0.
-17.8779 -44.3099 0.
-138.13 -361.696 0.
8.97126 23.4341 0.
6.13983 16.4942 0.
5.05366 13.2999 0.
6.32158 16.6751 0.
6.45889 16.9054 0.
2.7323 7.14861 0.
-24.4558 -64.5077 0.
-12.4069 -32.6977 0.
0.503131 1.32483 0.
-2.74008 -7.5884 0.
1.93551 5.35972 0.
1.92945 5.29581 0.
-2.34951 -6.41649 0.
-1.05824 -2.87325 0.
2.54962 6.8984 0.
2.88266 7.22237 0.
-0.0754067 -2.53819 0.
0.931492 2.52836 0.
-6.68865e-05 -0.856699 0.
-0.000126636 -1.3295 0.
0.289457 0.779993 0.
-0.00550871 -1.38969 0.
-0.0156326 -1.14216 0.
0.249018 0.647573 0.
-0.10568 -4.33761 0.
1.47212 3.84168 0.
-10.1233 -26.3777 0.
-0.487548 -11.0678 0.
-1.72334 -4.60667 0.
-2.0906 -5.74963 0.
-0.596205 -1.64304 0.
-1.18864 -3.28128 0.
5.23851 14.5098 0.
-53.1564 -147.221 0.
0.00828662 0.0219193 0.
0.780512 2.05572 0.
-3.54409 -9.2931 0.
4.65327 11.8985 0.
1.12669 2.86554 0.
1.83737 4.86344 0.
2.0711 5.63838 0.
-110.324 -283.537 0.
-9.82909 -25.068 0.
-67.8725 -172.463 0.
-20.9006 -50.2524 0.
-1.42532 -3.40797 0.
9.53723 22.6845 0.
0.866269 2.02819 0.
7.66021 17.6444 0.
-72.5126 -153.931 0.
-49.4841 -103.79 0.
-77.9853 -160.652 0.
-119.293 -239.539 0.
-5.76626 -11.2681 0.
-5.18712 -9.57591 0.
11.9913 21.5159 0.
9.52413 16.6289 0.
-20.0846 -29.086 0.
-8.32373 -17.7455 0.
-76.0138 -99.8474 0.
2.23973 2.85039 0.
1.55143 1.91383 0.
8.7998 9.91657 0.
-12.8643 -14.7592 0.
17.7308 20.0655 0.
-98.8352 -108.867 0.
20.9556 22.8328 0.
2.47713 2.66874 0.
0.0912431 0.100176 0.
-8.60982 -10.5174 0.
-2.20212 -4.61034 0.
-7.61924 -11.0056 0.
-9.23863 -9.726 0.
-16.482 -17.3104 0.
-59.6324 -62.3111 0.
-20.5144 -21.6521 0.
0.919756 0.900509 0.
-11.0757 -11.0691 0.
-4.50541 -5.13313 0.
4.48254 5.28092 0.
7.50752 9.16613 0.
-2.62873 -3.47457 0.
0.402873 0.541459 0.
8.41725 10.894 0.
-6.53674 -15.6083 0.
-1.10922 -1.72072 0.
-1.39714 -2.47622 0.
-4.39699 -18.8787 0.
-129.279 -243.214 0.
-4.66001 -9.45398 0.
4.49442 8.56523 0.
-2.33864 -4.61902 0.
9.72929 20.1772 0.
0.283744 0.597596 0.
4.8009 11.0488 0.
-86.4462 -203.913 0.
-142.296 -343.539 0.
-19.9427 -49.158 0.
2.57181 6.36523 0.
-4.37161 -10.9233 0.
5.16766 12.9736 0.
-15.2219 -39.8233 0.
-6.98108 -18.3038 0.
-3.24259 -8.52167 0.
-14.067 -36.6765 0.
7.53163 19.6279 0.
-74.0779 -195.27 0.
-6.11966 -16.118 0.
-4.10427 -10.8002 0.
-54.3271 -150.266 0.
-1.97828 -5.46999 0.
4.49818 12.3731 0.
-0.18413 -0.494056 0.
-24.5351 -65.8602 0.
-0.494018 -17.5873 0.
-0.375507 -6.86349 0.
-37.9237 -92.2006 0.
1.409 3.63421 0.
0.823486 2.23435 0.
-60.5134 -165.194 0.
-15.5787 -43.1463 0.
1.60901 4.45668 0.
-11.4349 -31.4736 0.
-62.8751 -170.312 0.
-0.459314 -1.23769 0.
1.40066 3.68294 0.
-42.4988 -109.112 0.
3.53942 8.46587 0.
0.0641399 0.161795 0.
-22.5184 -60.4845 0.
0.920164 2.53605 0.
2.67073 7.37308 0.
5.98876 16.5747 0.
-94.0636 -260.455 0.
-15.549 -41.1044 0.
-15.0185 -39.5305 0.
-56.4449 -146.074 0.
-9.08555 -23.1887 0.
-14.4373 -36.6466 0.
-0.44903 -21.8463 0.
-5.16899 -13.6419 0.
-5.07874 -12.4163 0.
-5.16867 -12.5742 0.
-6.08998 -15.4993 0.
-63.0512 -150.938 0.
2.56037 6.09448 0.
-68.2471 -162.653 0.
4.47312 10.4935 0.
6.36548 14.6874 0.
4.49562 9.05169 0.
6.8831 13.3987 0.
0.700946 1.32569 0.
1.65997 3.38112 0.
11.25 22.3105 0.
-64.6253 -118.464 0.
6.88475 12.2464 0.
3.87044 6.69382 0.
5.00794 7.1705 0.
-9.4016 -17.8651 0.
-78.1348 -102.855 0.
9.52418 12.1398 0.
-10.21 -16.0904 0.
-66.5728 -74.2667 0.
-5.23829 -5.63649 0.
-2.97294 -3.09196 0.
11.7483 11.4418 0.
-134.785 -143.606 0.
7.90494 8.33978 0.
17.2813 18.0795 0.
-11.3573 -12.5892 0.
17.7196 18.6065 0.
-32.4124 -37.1054 0.
-132.861 -134.497 0.
-6.1492 -3.59348 0.
-14.8556 -10.1797 0.
-14.9159 -13.2128 0.
-2.43678 -2.34693 0.
-0.453882 -0.446216 0.
-5.70148 -6.38755 0.
-2.66836 -3.09332 0.
-8.91761 -7.2924 0.
1.90417 2.14052 0.
-2.98706 -3.61836 0.
7.81742 10.2332 0.
0.919752 1.36355 0.
-1.62431 -2.5362 0.
6.07533 10.6837 0.
-2.16924 -3.98045 0.
11.509 18.4339 0.
0.811174 1.49167 0.
-6.62184 -12.6386 0.
-95.1382 -188.448 0.
-3.1888 -21.3412 0.
5.42455 11.3779 0.
0.34792 0.804793 0.
-4.41434 -19.4242 0.
5.8517 12.3878 0.
8.98847 20.0965 0.
-8.92066 -20.6994 0.
-2.97379 -7.39582 0.
2.73953 6.84577 0.
-29.3785 -73.7517 0.
-19.2351 -50.2378 0.
-5.95048 -15.5779 0.
-69.4771 -180.424 0.
-12.1753 -31.6015 0.
-0.59498 -3.1502 0.
-1.51303 -12.9822 0.
-2.80047 -6.7359 0.
1.04187 2.80727 0.
-23.7259 -64.1138 0.
-2.09147 -5.62157 0.
2.88293 7.7515 0.
-28.2962 -76.1128 0.
4.76743 11.8339 0.
-0.569274 -6.74987 0.
1.43727 3.61987 0.
-0.0964098 -4.96494 0.
-0.0184253 -4.44594 0.
0.360373 0.983254 0.
0.0890765 0.246719 0.
-7.42148e-05 -5.24617 0.
1.14316 3.15109 0.
-0.029044 -3.39744 0.
-0.0422076 -5.71717 0.
1.44616 3.85973 0.
1.42248 3.70827 0.
-1.67445 -17.2897 0.
-0.0428293 -0.103201 0.
-10.593 -28.464 0.
-13.7163 -36.8848 0.
-9.19134 -24.8861 0.
7.1679 19.1654 0.
4.20481 11.0661 0.
-1.21944 -11.1005 0.
10.31 19.1091 0.
-25.4271 -65.134 0.
-29.3495 -74.7656 0.
-47.9639 -121.506 0.
-12.8057 -33.7199 0.
-30.4052 -80.0377 0.
-10.5761 -25.7494 0.
-15.8146 -38.3123 0.
-39.2596 -94.6399 0.
9.5812 20.9193 0.
11.7817 23.0344 0.
10.1534 17.569 0.
4.09375 9.62517 0.
-1.81091 -21.3724 0.
-54.1111 -109.219 0.
-2.29379 -4.47434 0.
-2.39453 -4.57024 0.
9.14034 16.4504 0.
2.82109 4.78446 0.
5.81925 7.81761 0.
0.994704 1.75304 0.
9.27054 15.8682 0.
2.41115 3.52075 0.
-6.54629 -12.9074 0.
-1.98655 -2.37278 0.
4.87278 5.12038 0.
-8.0198 -7.01214 0.
-109.357 -120.498 0.
11.2301 11.926 0.
13.937 14.2949 0.
10.4886 9.88141 0.
21.2746 19.564 0.
8.44652 7.5961 0.
-5.93593 -3.40981 0.
-11.6497 -11.6632 0.
7.65492 7.68773 0.
