# vtk DataFile Version 2.0
test grain
ASCII
DATASET UNSTRUCTURED_GRID
POINTS 5000 float
0.499906 0.00098569 0.
0.501928 0.000988581 0.
0.503949 0.000991483 0.
0.505967 0.000993989 0.
0.507975 0.000995008 0.
0.509984 0.000996028 0.
0.51199 0.000996856 0.
0.513992 0.000997442 0.
0.515995 0.000998027 0.
0.517996 0.000998391 0.
0.519997 0.000998642 0.
0.521998 0.000998893 0.
0.523998 0.000998962 0.
0.525998 0.000999007 0.
0.527999 0.00099906 0.
0.529999 0.000999166 0.
0.531999 0.000999272 0.
0.533999 0.000999354 0.
0.535999 0.00099939 0.
0.537999 0.000999426 0.
0.539999 0.000999456 0.
0.542 0.000999481 0.
0.544 0.000999506 0.
0.546 0.000999509 0.
0.548 0.000999504 0.
0.55 0.0009995 0.
0.552 0.000999492 0.
0.554 0.000999485 0.
0.556 0.000999485 0.
0.558 0.000999513 0.
0.56 0.000999541 0.
0.562 0.000999556 0.
0.564 0.000999555 0.
0.566 0.000999554 0.
0.568 0.000999533 0.
0.57 0.000999501 0.
0.572 0.00099947 0.
0.574 0.000999433 0.
0.576 0.000999394 0.
0.578 0.000999362 0.
0.58 0.000999378 0.
0.582 0.000999394 0.
0.584 0.000999404 0.
0.586 0.0009994 0.
0.588 0.000999396 0.
0.59 0.000999385 0.
0.592 0.00099937 0.
0.594 0.000999354 0.
0.596 0.000999329 0.
0.598 0.000999301 0.
0.6 0.000999273 0.
0.602 0.000999295 0.
0.604 0.000999317 0.
0.606 0.000999339 0.
0.608 0.000999363 0.
0.61 0.000999387 0.
0.612 0.000999401 0.
0.614 0.000999404 0.
0.616 0.000999406 0.
0.618 0.000999395 0.
0.62 0.000999376 0.
0.622 0.000999357 0.
0.624 0.000999398 0.
0.626 0.000999446 0.
0.628 0.000999492 0.
0.63 0.000999521 0.
0.632 0.00099955 0.
0.634 0.000999568 0.
0.636 0.000999563 0.
0.638 0.000999558 0.
0.64 0.000999541 0.
0.642 0.000999513 0.
0.644 0.000999485 0.
0.646 0.000999486 0.
0.648 0.000999494 0.
0.65 0.000999503 0.
0.652 0.000999502 0.
0.654 0.000999502 0.
0.656 0.000999494 0.
0.658001 0.00099946 0.
0.660001 0.000999426 0.
0.662001 0.000999386 0.
0.664001 0.000999339 0.
0.666001 0.000999293 0.
0.668001 0.00099919 0.
0.670002 0.000999059 0.
0.672002 0.000998929 0.
0.674002 0.000998851 0.
0.676003 0.00099878 0.
0.678003 0.000998675 0.
0.680004 0.000998302 0.
0.682006 0.00099793 0.
0.684008 0.000997423 0.
0.686012 0.000996651 0.
0.688017 0.000995879 0.
0.690026 0.0009948 0.
0.692038 0.00099348 0.
0.69405 0.000992161 0.
0.696072 0.000989991 0.
0.698096 0.000987605 0.
0.49986 0.00295696 0.
0.501885 0.00296565 0.
0.503909 0.00297436 0.
0.505931 0.00298194 0.
0.507945 0.002985 0.
0.509959 0.00298806 0.
0.51197 0.00299056 0.
0.513977 0.00299232 0.
0.515984 0.00299408 0.
0.517988 0.00299517 0.
0.51999 0.00299592 0.
0.521993 0.00299668 0.
0.523994 0.00299688 0.
0.525995 0.00299702 0.
0.527996 0.00299718 0.
0.529996 0.0029975 0.
0.531997 0.00299781 0.
0.533998 0.00299806 0.
0.535998 0.00299817 0.
0.537998 0.00299828 0.
0.539998 0.00299837 0.
0.541999 0.00299844 0.
0.543999 0.00299852 0.
0.545999 0.00299853 0.
0.547999 0.00299851 0.
0.549999 0.0029985 0.
0.551999 0.00299848 0.
0.553999 0.00299845 0.
0.555999 0.00299846 0.
0.557999 0.00299854 0.
0.559999 0.00299862 0.
0.561999 0.00299867 0.
0.563999 0.00299866 0.
0.565999 0.00299866 0.
0.567999 0.0029986 0.
0.569999 0.0029985 0.
0.571999 0.00299841 0.
0.573999 0.0029983 0.
0.575999 0.00299818 0.
0.577999 0.00299809 0.
0.579999 0.00299813 0.
0.581999 0.00299818 0.
0.583999 0.00299821 0.
0.585999 0.0029982 0.
0.588 0.00299819 0.
0.59 0.00299816 0.
0.592 0.00299811 0.
0.594 0.00299806 0.
0.596 0.00299799 0.
0.598 0.0029979 0.
0.6 0.00299782 0.
0.602 0.00299788 0.
0.604 0.00299795 0.
0.606 0.00299802 0.
0.608 0.00299809 0.
0.61 0.00299816 0.
0.612 0.0029982 0.
0.614001 0.00299821 0.
0.616001 0.00299822 0.
0.618001 0.00299818 0.
0.620001 0.00299813 0.
0.622001 0.00299807 0.
0.624001 0.00299819 0.
0.626001 0.00299834 0.
0.628001 0.00299848 0.
0.630001 0.00299856 0.
0.632001 0.00299865 0.
0.634001 0.0029987 0.
0.636001 0.00299869 0.
0.638001 0.00299867 0.
0.640001 0.00299862 0.
0.642001 0.00299854 0.
0.644001 0.00299846 0.
0.646001 0.00299846 0.
0.648001 0.00299848 0.
0.650001 0.00299851 0.
0.652001 0.00299851 0.
0.654001 0.00299851 0.
0.656001 0.00299848 0.
0.658002 0.00299838 0.
0.660002 0.00299828 0.
0.662002 0.00299816 0.
0.664002 0.00299802 0.
0.666003 0.00299788 0.
0.668004 0.00299757 0.
0.670005 0.00299718 0.
0.672006 0.00299679 0.
0.674007 0.00299655 0.
0.676008 0.00299634 0.
0.678009 0.00299602 0.
0.680013 0.0029949 0.
0.682017 0.00299379 0.
0.684023 0.00299226 0.
0.686032 0.00298994 0.
0.688042 0.00298762 0.
0.690056 0.00298437 0.
0.692073 0.0029804 0.
0.694091 0.00297644 0.
0.696115 0.00296989 0.
0.69814 0.00296273 0.
0.499814 0.00492809 0.
0.501841 0.00494258 0.
0.503869 0.00495711 0.
0.505894 0.00496985 0.
0.507914 0.00497496 0.
0.509933 0.00498007 0.
0.511949 0.00498425 0.
0.513961 0.00498718 0.
0.515973 0.00499012 0.
0.51798 0.00499195 0.
0.519984 0.0049932 0.
0.521988 0.00499446 0.
0.52399 0.00499481 0.
0.525991 0.00499504 0.
0.527993 0.0049953 0.
0.529994 0.00499583 0.
0.531995 0.00499636 0.
0.533996 0.00499677 0.
0.535997 0.00499695 0.
0.537997 0.00499713 0.
0.539997 0.00499728 0.
0.541998 0.0049974 0.
0.543998 0.00499753 0.
0.545998 0.00499754 0.
0.547998 0.00499752 0.
0.549999 0.0049975 0.
0.551998 0.00499746 0.
0.553998 0.00499742 0.
0.555998 0.00499743 0.
0.557998 0.00499757 0.
0.559998 0.00499771 0.
0.561998 0.00499778 0.
0.563998 0.00499777 0.
0.565998 0.00499777 0.
0.567998 0.00499766 0.
0.569999 0.00499751 0.
0.571999 0.00499735 0.
0.573999 0.00499716 0.
0.575998 0.00499697 0.
0.577998 0.00499681 0.
0.579999 0.00499689 0.
0.581999 0.00499697 0.
0.583999 0.00499702 0.
0.585999 0.004997 0.
0.587999 0.00499698 0.
0.589999 0.00499693 0.
0.592 0.00499685 0.
0.594 0.00499677 0.
0.596 0.00499665 0.
0.598 0.00499651 0.
0.6 0.00499636 0.
0.602 0.00499647 0.
0.604 0.00499658 0.
0.606 0.0049967 0.
0.608 0.00499682 0.
0.610001 0.00499694 0.
0.612001 0.00499701 0.
0.614001 0.00499702 0.
0.616001 0.00499703 0.
0.618001 0.00499697 0.
0.620002 0.00499688 0.
0.622002 0.00499679 0.
0.624002 0.00499699 0.
0.626002 0.00499723 0.
0.628001 0.00499746 0.
0.630002 0.0049976 0.
0.632002 0.00499775 0.
0.634002 0.00499784 0.
0.636002 0.00499782 0.
0.638002 0.00499779 0.
0.640002 0.0049977 0.
0.642002 0.00499756 0.
0.644002 0.00499743 0.
0.646002 0.00499743 0.
0.648002 0.00499747 0.
0.650002 0.00499751 0.
0.652002 0.00499751 0.
0.654002 0.00499751 0.
0.656002 0.00499747 0.
0.658003 0.0049973 0.
0.660003 0.00499713 0.
0.662003 0.00499693 0.
0.664004 0.0049967 0.
0.666005 0.00499646 0.
0.668006 0.00499595 0.
0.670008 0.0049953 0.
0.672009 0.00499464 0.
0.674011 0.00499425 0.
0.676013 0.0049939 0.
0.678016 0.00499337 0.
0.680022 0.0049915 0.
0.682029 0.00498964 0.
0.684038 0.00498709 0.
0.686052 0.00498321 0.
0.688067 0.00497934 0.
0.690086 0.0049739 0.
0.692109 0.00496728 0.
0.694131 0.00496067 0.
0.696158 0.00494967 0.
0.698185 0.00493772 0.
0.499781 0.00689867 0.
0.501809 0.00691532 0.
0.503836 0.00693216 0.
0.505861 0.00694717 0.
0.507882 0.0069541 0.
0.509903 0.00696103 0.
0.511921 0.00696713 0.
0.513935 0.00697212 0.
0.51595 0.00697711 0.
0.517959 0.00698085 0.
0.519967 0.00698395 0.
0.521974 0.00698704 0.
0.523978 0.00698841 0.
0.525981 0.00698954 0.
0.527985 0.00699067 0.
0.529987 0.00699174 0.
0.53199 0.00699281 0.
0.533992 0.00699369 0.
0.535993 0.0069942 0.
0.537994 0.0069947 0.
0.539995 0.00699509 0.
0.541995 0.00699539 0.
0.543996 0.00699569 0.
0.545996 0.00699582 0.
0.547997 0.0069959 0.
0.549997 0.00699598 0.
0.551997 0.00699599 0.
0.553997 0.00699599 0.
0.555996 0.00699603 0.
0.557997 0.0069962 0.
0.559997 0.00699637 0.
0.561997 0.00699645 0.
0.563997 0.00699643 0.
0.565997 0.0069964 0.
0.567997 0.00699623 0.
0.569998 0.006996 0.
0.571998 0.00699577 0.
0.573998 0.0069955 0.
0.575998 0.00699522 0.
0.577998 0.00699499 0.
0.579998 0.00699506 0.
0.581998 0.00699513 0.
0.583998 0.00699518 0.
0.585999 0.00699516 0.
0.587999 0.00699514 0.
0.589999 0.00699506 0.
0.591999 0.00699494 0.
0.594 0.00699482 0.
0.596 0.00699466 0.
0.598 0.00699448 0.
0.6 0.0069943 0.
0.602 0.00699445 0.
0.604 0.0069946 0.
0.606 0.00699475 0.
0.608001 0.0069949 0.
0.610001 0.00699506 0.
0.612001 0.00699516 0.
0.614001 0.00699518 0.
0.616002 0.0069952 0.
0.618002 0.00699516 0.
0.620002 0.00699508 0.
0.622003 0.00699501 0.
0.624002 0.00699527 0.
0.626002 0.00699557 0.
0.628002 0.00699587 0.
0.630002 0.00699611 0.
0.632003 0.00699634 0.
0.634003 0.00699649 0.
0.636003 0.0069965 0.
0.638003 0.0069965 0.
0.640003 0.00699639 0.
0.642004 0.0069962 0.
0.644004 0.00699602 0.
0.646004 0.00699597 0.
0.648003 0.00699596 0.
0.650003 0.00699595 0.
0.652004 0.0069958 0.
0.654004 0.00699564 0.
0.656005 0.00699544 0.
0.658005 0.00699506 0.
0.660006 0.00699469 0.
0.662007 0.00699419 0.
0.664009 0.00699355 0.
0.66601 0.00699291 0.
0.668013 0.00699183 0.
0.670016 0.00699055 0.
0.672019 0.00698927 0.
0.674023 0.0069877 0.
0.676027 0.00698611 0.
0.678032 0.00698426 0.
0.680042 0.0069805 0.
0.682052 0.00697675 0.
0.684064 0.00697219 0.
0.68608 0.00696613 0.
0.688097 0.00696007 0.
0.690117 0.00695267 0.
0.692141 0.00694431 0.
0.694164 0.00693595 0.
0.696191 0.00692359 0.
0.698218 0.00691041 0.
0.499749 0.00886923 0.
0.501776 0.00888794 0.
0.503803 0.00890706 0.
0.505828 0.00892437 0.
0.507851 0.00893312 0.
0.509873 0.00894189 0.
0.511893 0.00894993 0.
0.51391 0.00895698 0.
0.515926 0.00896404 0.
0.517939 0.00896972 0.
0.51995 0.00897466 0.
0.52196 0.0089796 0.
0.523966 0.00898199 0.
0.525972 0.00898403 0.
0.527977 0.00898602 0.
0.529981 0.00898764 0.
0.531984 0.00898926 0.
0.533987 0.00899061 0.
0.535989 0.00899145 0.
0.537991 0.00899228 0.
0.539992 0.00899291 0.
0.541993 0.00899338 0.
0.543994 0.00899385 0.
0.545995 0.0089941 0.
0.547995 0.00899428 0.
0.549996 0.00899447 0.
0.551996 0.00899451 0.
0.553995 0.00899455 0.
0.555995 0.00899463 0.
0.557995 0.00899483 0.
0.559996 0.00899503 0.
0.561996 0.00899512 0.
0.563996 0.00899508 0.
0.565996 0.00899503 0.
0.567996 0.00899481 0.
0.569997 0.00899449 0.
0.571997 0.00899418 0.
0.573997 0.00899383 0.
0.575997 0.00899347 0.
0.577997 0.00899316 0.
0.579997 0.00899323 0.
0.581998 0.0089933 0.
0.583998 0.00899334 0.
0.585998 0.00899332 0.
0.587999 0.0089933 0.
0.589999 0.0089932 0.
0.591999 0.00899304 0.
0.594 0.00899288 0.
0.596 0.00899267 0.
0.598 0.00899246 0.
0.6 0.00899224 0.
0.602 0.00899243 0.
0.604 0.00899262 0.
0.606001 0.0089928 0.
0.608001 0.00899299 0.
0.610001 0.00899318 0.
0.612002 0.0089933 0.
0.614002 0.00899334 0.
0.616002 0.00899337 0.
0.618003 0.00899334 0.
0.620003 0.00899328 0.
0.622003 0.00899322 0.
0.624003 0.00899355 0.
0.626003 0.00899392 0.
0.628003 0.00899429 0.
0.630003 0.00899461 0.
0.632004 0.00899493 0.
0.634004 0.00899515 0.
0.636004 0.00899517 0.
0.638004 0.0089952 0.
0.640005 0.00899508 0.
0.642005 0.00899484 0.
0.644005 0.00899461 0.
0.646005 0.00899451 0.
0.648005 0.00899445 0.
0.650004 0.00899438 0.
0.652005 0.00899408 0.
0.654006 0.00899377 0.
0.656007 0.0089934 0.
0.658008 0.00899283 0.
0.660009 0.00899225 0.
0.662011 0.00899146 0.
0.664013 0.0089904 0.
0.666016 0.00898935 0.
0.668019 0.00898771 0.
0.670024 0.0089858 0.
0.672028 0.00898388 0.
0.674035 0.00898113 0.
0.676042 0.00897829 0.
0.678049 0.00897511 0.
0.680062 0.00896946 0.
0.682075 0.0089638 0.
0.684089 0.00895722 0.
0.686108 0.00894895 0.
0.688127 0.00894069 0.
0.690149 0.00893134 0.
0.692173 0.00892121 0.
0.694197 0.00891109 0.
0.696224 0.00889741 0.
0.698251 0.00888305 0.
0.499725 0.0108415 0.
0.501752 0.0108617 0.
0.503778 0.0108824 0.
0.505803 0.0109014 0.
0.507826 0.0109118 0.
0.509849 0.0109221 0.
0.51187 0.0109318 0.
0.513888 0.0109405 0.
0.515906 0.0109493 0.
0.517921 0.0109567 0.
0.519933 0.0109635 0.
0.521946 0.0109702 0.
0.523954 0.0109739 0.
0.525961 0.0109772 0.
0.527968 0.0109803 0.
0.529973 0.0109826 0.
0.531977 0.0109848 0.
0.533981 0.0109867 0.
0.535984 0.010988 0.
0.537987 0.0109893 0.
0.539989 0.0109903 0.
0.54199 0.010991 0.
0.543992 0.0109917 0.
0.545993 0.0109922 0.
0.547994 0.0109926 0.
0.549994 0.010993 0.
0.551994 0.0109931 0.
0.553994 0.0109932 0.
0.555994 0.0109934 0.
0.557994 0.0109936 0.
0.559994 0.0109938 0.
0.561995 0.0109939 0.
0.563995 0.0109938 0.
0.565995 0.0109937 0.
0.567996 0.0109935 0.
0.569996 0.0109931 0.
0.571996 0.0109928 0.
0.573996 0.0109924 0.
0.575996 0.010992 0.
0.577996 0.0109916 0.
0.579997 0.0109916 0.
0.581997 0.0109917 0.
0.583997 0.0109917 0.
0.585998 0.0109917 0.
0.587998 0.0109916 0.
0.589999 0.0109915 0.
0.591999 0.0109913 0.
0.594 0.0109911 0.
0.596 0.0109909 0.
0.598 0.0109907 0.
0.6 0.0109905 0.
0.602001 0.0109907 0.
0.604001 0.0109909 0.
0.606001 0.0109911 0.
0.608001 0.0109913 0.
0.610002 0.0109915 0.
0.612002 0.0109916 0.
0.614002 0.0109917 0.
0.616003 0.0109917 0.
0.618003 0.0109918 0.
0.620004 0.0109917 0.
0.622004 0.0109917 0.
0.624004 0.0109921 0.
0.626004 0.0109925 0.
0.628004 0.0109929 0.
0.630004 0.0109932 0.
0.632005 0.0109936 0.
0.634005 0.0109939 0.
0.636005 0.0109939 0.
0.638006 0.010994 0.
0.640006 0.0109939 0.
0.642006 0.0109936 0.
0.644007 0.0109933 0.
0.646007 0.0109931 0.
0.648006 0.010993 0.
0.650006 0.0109928 0.
0.652007 0.0109922 0.
0.654008 0.0109917 0.
0.656009 0.010991 0.
0.658011 0.0109901 0.
0.660013 0.0109892 0.
0.662015 0.010988 0.
0.664019 0.0109864 0.
0.666022 0.0109848 0.
0.668027 0.0109825 0.
0.670033 0.0109799 0.
0.672038 0.0109773 0.
0.674047 0.0109731 0.
0.676056 0.0109688 0.
0.678065 0.0109641 0.
0.68008 0.0109566 0.
0.682094 0.0109491 0.
0.684111 0.0109408 0.
0.686131 0.0109307 0.
0.68815 0.0109207 0.
0.690173 0.0109097 0.
0.692197 0.0108981 0.
0.694222 0.0108865 0.
0.696248 0.0108717 0.
0.698275 0.0108564 0.
0.499711 0.0128158 0.
0.501737 0.0128366 0.
0.503762 0.0128583 0.
0.505787 0.0128783 0.
0.50781 0.01289 0.
0.509832 0.0129016 0.
0.511853 0.0129126 0.
0.513872 0.0129227 0.
0.51589 0.0129328 0.
0.517905 0.0129419 0.
0.519919 0.0129503 0.
0.521932 0.0129587 0.
0.523942 0.012964 0.
0.52595 0.0129689 0.
0.527958 0.0129735 0.
0.529964 0.0129765 0.
0.53197 0.0129795 0.
0.533975 0.012982 0.
0.535978 0.0129839 0.
0.537982 0.0129857 0.
0.539985 0.0129871 0.
0.541987 0.0129882 0.
0.543989 0.0129893 0.
0.54599 0.0129901 0.
0.547991 0.0129908 0.
0.549993 0.0129914 0.
0.551993 0.0129918 0.
0.553993 0.0129921 0.
0.555993 0.0129924 0.
0.557993 0.0129926 0.
0.559994 0.0129927 0.
0.561994 0.0129928 0.
0.563994 0.0129927 0.
0.565995 0.0129926 0.
0.567995 0.0129923 0.
0.569996 0.0129919 0.
0.571996 0.0129916 0.
0.573996 0.0129912 0.
0.575996 0.0129907 0.
0.577996 0.0129903 0.
0.579996 0.0129903 0.
0.581997 0.0129903 0.
0.583997 0.0129903 0.
0.585998 0.0129902 0.
0.587998 0.0129901 0.
0.589999 0.01299 0.
0.591999 0.0129898 0.
0.594 0.0129896 0.
0.596 0.0129895 0.
0.598 0.0129893 0.
0.6 0.0129892 0.
0.602001 0.0129894 0.
0.604001 0.0129895 0.
0.606001 0.0129897 0.
0.608001 0.0129899 0.
0.610002 0.01299 0.
0.612002 0.0129902 0.
0.614003 0.0129902 0.
0.616003 0.0129903 0.
0.618004 0.0129904 0.
0.620004 0.0129904 0.
0.622004 0.0129905 0.
0.624004 0.0129908 0.
0.626004 0.0129913 0.
0.628004 0.0129917 0.
0.630005 0.012992 0.
0.632005 0.0129923 0.
0.634006 0.0129926 0.
0.636006 0.0129927 0.
0.638006 0.0129928 0.
0.640007 0.0129927 0.
0.642007 0.0129925 0.
0.644008 0.0129922 0.
0.646008 0.0129918 0.
0.648008 0.0129915 0.
0.650009 0.0129911 0.
0.65201 0.0129902 0.
0.654011 0.0129894 0.
0.656013 0.0129884 0.
0.658015 0.012987 0.
0.660018 0.0129855 0.
0.662021 0.0129838 0.
0.664026 0.0129816 0.
0.66603 0.0129794 0.
0.668036 0.0129763 0.
0.670043 0.0129728 0.
0.67205 0.0129693 0.
0.674059 0.0129636 0.
0.676069 0.0129575 0.
0.67808 0.0129511 0.
0.680095 0.0129419 0.
0.68211 0.0129327 0.
0.684127 0.0129227 0.
0.686147 0.0129114 0.
0.688167 0.0129001 0.
0.690189 0.0128878 0.
0.692213 0.012875 0.
0.694237 0.0128621 0.
0.696263 0.0128465 0.
0.69829 0.0128304 0.
0.499698 0.0147901 0.
0.501723 0.0148116 0.
0.503747 0.0148342 0.
0.505771 0.0148552 0.
0.507793 0.0148681 0.
0.509816 0.014881 0.
0.511836 0.0148934 0.
0.513855 0.0149048 0.
0.515873 0.0149163 0.
0.517889 0.0149269 0.
0.519904 0.0149371 0.
0.521918 0.0149473 0.
0.523929 0.0149542 0.
0.525939 0.0149606 0.
0.527948 0.0149667 0.
0.529955 0.0149704 0.
0.531962 0.0149741 0.
0.533968 0.0149774 0.
0.535973 0.0149797 0.
0.537977 0.0149821 0.
0.539981 0.014984 0.
0.541983 0.0149854 0.
0.543986 0.0149869 0.
0.545988 0.014988 0.
0.547989 0.014989 0.
0.549991 0.0149899 0.
0.551991 0.0149904 0.
0.553991 0.0149909 0.
0.555992 0.0149913 0.
0.557992 0.0149915 0.
0.559993 0.0149917 0.
0.561993 0.0149917 0.
0.563994 0.0149915 0.
0.565994 0.0149914 0.
0.567995 0.0149911 0.
0.569995 0.0149907 0.
0.571996 0.0149904 0.
0.573996 0.0149899 0.
0.575996 0.0149895 0.
0.577996 0.0149891 0.
0.579996 0.014989 0.
0.581996 0.0149889 0.
0.583997 0.0149888 0.
0.585997 0.0149887 0.
0.587998 0.0149886 0.
0.589998 0.0149885 0.
0.591999 0.0149883 0.
0.594 0.0149881 0.
0.596 0.014988 0.
0.598 0.0149879 0.
0.6 0.0149879 0.
0.602001 0.014988 0.
0.604001 0.0149881 0.
0.606001 0.0149882 0.
0.608001 0.0149884 0.
0.610002 0.0149885 0.
0.612002 0.0149887 0.
0.614003 0.0149888 0.
0.616003 0.0149889 0.
0.618004 0.014989 0.
0.620004 0.0149891 0.
0.622005 0.0149892 0.
0.624005 0.0149896 0.
0.626005 0.01499 0.
0.628005 0.0149904 0.
0.630005 0.0149908 0.
0.632006 0.0149911 0.
0.634006 0.0149914 0.
0.636007 0.0149915 0.
0.638007 0.0149917 0.
0.640008 0.0149916 0.
0.642009 0.0149913 0.
0.644009 0.014991 0.
0.64601 0.0149906 0.
0.64801 0.01499 0.
0.650011 0.0149895 0.
0.652012 0.0149882 0.
0.654014 0.014987 0.
0.656016 0.0149857 0.
0.658019 0.0149838 0.
0.660023 0.0149819 0.
0.662027 0.0149796 0.
0.664032 0.0149767 0.
0.666038 0.0149739 0.
0.668045 0.0149701 0.
0.670053 0.0149657 0.
0.672061 0.0149614 0.
0.674072 0.014954 0.
0.676083 0.0149462 0.
0.678094 0.0149381 0.
0.680111 0.0149271 0.
0.682127 0.0149162 0.
0.684144 0.0149046 0.
0.686164 0.014892 0.
0.688184 0.0148794 0.
0.690206 0.0148659 0.
0.69223 0.0148518 0.
0.694253 0.0148377 0.
0.696279 0.0148213 0.
0.698305 0.0148044 0.
0.499698 0.0167715 0.
0.501721 0.0167924 0.
0.503742 0.0168144 0.
0.505764 0.0168351 0.
0.507785 0.0168486 0.
0.509806 0.0168621 0.
0.511825 0.0168752 0.
0.513843 0.0168875 0.
0.51586 0.0168998 0.
0.517876 0.0169113 0.
0.519891 0.0169223 0.
0.521905 0.0169334 0.
0.523916 0.0169416 0.
0.525927 0.0169495 0.
0.527937 0.016957 0.
0.529945 0.0169615 0.
0.531952 0.0169659 0.
0.533959 0.01697 0.
0.535965 0.016973 0.
0.53797 0.0169761 0.
0.539975 0.0169787 0.
0.541978 0.0169808 0.
0.543981 0.0169829 0.
0.545984 0.0169845 0.
0.547986 0.016986 0.
0.549987 0.0169875 0.
0.551988 0.0169882 0.
0.553989 0.0169888 0.
0.55599 0.0169894 0.
0.55799 0.0169896 0.
0.559991 0.0169899 0.
0.561992 0.0169899 0.
0.563993 0.0169898 0.
0.565993 0.0169896 0.
0.567994 0.0169893 0.
0.569994 0.016989 0.
0.571995 0.0169886 0.
0.573995 0.0169882 0.
0.575995 0.0169877 0.
0.577995 0.0169872 0.
0.579995 0.0169871 0.
0.581996 0.016987 0.
0.583997 0.0169868 0.
0.585997 0.0169867 0.
0.587998 0.0169866 0.
0.589998 0.0169864 0.
0.591999 0.0169863 0.
0.594 0.0169861 0.
0.596 0.016986 0.
0.598 0.0169859 0.
0.6 0.0169859 0.
0.602001 0.016986 0.
0.604001 0.0169861 0.
0.606001 0.0169862 0.
0.608002 0.0169864 0.
0.610002 0.0169865 0.
0.612003 0.0169867 0.
0.614003 0.0169868 0.
0.616004 0.016987 0.
0.618004 0.0169871 0.
0.620005 0.0169873 0.
0.622005 0.0169874 0.
0.624005 0.0169878 0.
0.626005 0.0169883 0.
0.628005 0.0169887 0.
0.630006 0.016989 0.
0.632007 0.0169893 0.
0.634007 0.0169895 0.
0.636008 0.0169897 0.
0.638009 0.0169898 0.
0.64001 0.0169896 0.
0.642011 0.0169893 0.
0.644012 0.0169889 0.
0.646013 0.0169883 0.
0.648013 0.0169875 0.
0.650014 0.0169867 0.
0.652017 0.016985 0.
0.654019 0.0169832 0.
0.656021 0.0169812 0.
0.658025 0.0169786 0.
0.660029 0.0169759 0.
0.662034 0.0169728 0.
0.664041 0.0169692 0.
0.666047 0.0169655 0.
0.668055 0.0169609 0.
0.670064 0.0169558 0.
0.672073 0.0169507 0.
0.674084 0.0169419 0.
0.676096 0.0169328 0.
0.678108 0.0169233 0.
0.680124 0.0169114 0.
0.68214 0.0168995 0.
0.684156 0.0168871 0.
0.686175 0.0168737 0.
0.688194 0.0168604 0.
0.690215 0.0168464 0.
0.692236 0.0168319 0.
0.694258 0.0168175 0.
0.696281 0.0168013 0.
0.698303 0.0167849 0.
0.4997 0.0187534 0.
0.501719 0.0187735 0.
0.503738 0.0187949 0.
0.505757 0.0188151 0.
0.507776 0.0188292 0.
0.509796 0.0188432 0.
0.511814 0.018857 0.
0.513831 0.0188701 0.
0.515847 0.0188833 0.
0.517863 0.0188956 0.
0.519877 0.0189075 0.
0.521892 0.0189194 0.
0.523903 0.0189291 0.
0.525914 0.0189383 0.
0.527925 0.0189472 0.
0.529934 0.0189525 0.
0.531943 0.0189577 0.
0.533951 0.0189625 0.
0.535957 0.0189663 0.
0.537964 0.0189701 0.
0.539969 0.0189734 0.
0.541973 0.0189762 0.
0.543977 0.0189789 0.
0.54598 0.0189811 0.
0.547982 0.0189831 0.
0.549984 0.018985 0.
0.551985 0.0189859 0.
0.553986 0.0189867 0.
0.555987 0.0189875 0.
0.557989 0.0189878 0.
0.55999 0.0189881 0.
0.561991 0.0189882 0.
0.563992 0.018988 0.
0.565992 0.0189879 0.
0.567993 0.0189876 0.
0.569994 0.0189873 0.
0.571994 0.0189869 0.
0.573994 0.0189864 0.
0.575994 0.0189859 0.
0.577994 0.0189854 0.
0.579995 0.0189852 0.
0.581996 0.0189851 0.
0.583996 0.0189849 0.
0.585997 0.0189847 0.
0.587998 0.0189845 0.
0.589998 0.0189844 0.
0.591999 0.0189842 0.
0.593999 0.0189841 0.
0.596 0.018984 0.
0.598 0.0189839 0.
0.6 0.0189838 0.
0.602001 0.018984 0.
0.604001 0.0189841 0.
0.606001 0.0189842 0.
0.608002 0.0189844 0.
0.610002 0.0189845 0.
0.612003 0.0189847 0.
0.614004 0.0189849 0.
0.616004 0.0189851 0.
0.618005 0.0189852 0.
0.620005 0.0189854 0.
0.622006 0.0189856 0.
0.624006 0.0189861 0.
0.626006 0.0189865 0.
0.628006 0.018987 0.
0.630007 0.0189873 0.
0.632007 0.0189875 0.
0.634008 0.0189877 0.
0.636009 0.0189878 0.
0.63801 0.0189879 0.
0.640011 0.0189877 0.
0.642013 0.0189872 0.
0.644014 0.0189868 0.
0.646015 0.018986 0.
0.648017 0.018985 0.
0.650018 0.018984 0.
0.652021 0.0189816 0.
0.654023 0.0189793 0.
0.656027 0.0189767 0.
0.658031 0.0189734 0.
0.660036 0.01897 0.
0.662042 0.0189661 0.
0.664049 0.0189616 0.
0.666057 0.0189571 0.
0.668066 0.0189516 0.
0.670075 0.0189457 0.
0.672085 0.0189398 0.
0.674097 0.0189297 0.
0.676109 0.0189193 0.
0.678122 0.0189085 0.
0.680137 0.0188956 0.
0.682153 0.0188828 0.
0.684169 0.0188696 0.
0.686187 0.0188555 0.
0.688204 0.0188414 0.
0.690223 0.0188269 0.
0.692243 0.0188122 0.
0.694262 0.0187974 0.
0.696282 0.0187816 0.
0.698301 0.0187657 0.
0.499701 0.0207379 0.
0.501718 0.0207571 0.
0.503735 0.0207774 0.
0.505752 0.0207969 0.
0.50777 0.0208113 0.
0.509788 0.0208257 0.
0.511805 0.0208399 0.
0.513821 0.0208537 0.
0.515837 0.0208675 0.
0.517852 0.0208805 0.
0.519866 0.0208932 0.
0.521881 0.0209058 0.
0.523892 0.0209165 0.
0.525904 0.020927 0.
0.527915 0.0209371 0.
0.529925 0.020943 0.
0.531934 0.020949 0.
0.533943 0.0209545 0.
0.53595 0.0209591 0.
0.537957 0.0209636 0.
0.539963 0.0209676 0.
0.541967 0.0209711 0.
0.543972 0.0209745 0.
0.545975 0.0209773 0.
0.547978 0.0209798 0.
0.549981 0.0209822 0.
0.551982 0.0209833 0.
0.553984 0.0209844 0.
0.555985 0.0209853 0.
0.557987 0.0209857 0.
0.559988 0.0209861 0.
0.561989 0.0209863 0.
0.56399 0.0209862 0.
0.565992 0.0209861 0.
0.567992 0.0209859 0.
0.569993 0.0209856 0.
0.571994 0.0209853 0.
0.573994 0.0209848 0.
0.575994 0.0209843 0.
0.577994 0.0209838 0.
0.579995 0.0209836 0.
0.581995 0.0209833 0.
0.583996 0.0209831 0.
0.585997 0.0209829 0.
0.587997 0.0209827 0.
0.589998 0.0209826 0.
0.591999 0.0209824 0.
0.593999 0.0209823 0.
0.596 0.0209822 0.
0.598 0.0209822 0.
0.6 0.0209821 0.
0.602001 0.0209822 0.
0.604001 0.0209823 0.
0.606001 0.0209824 0.
0.608002 0.0209826 0.
0.610003 0.0209827 0.
0.612003 0.0209829 0.
0.614004 0.0209831 0.
0.616004 0.0209833 0.
0.618005 0.0209836 0.
0.620006 0.0209838 0.
0.622006 0.020984 0.
0.624006 0.0209845 0.
0.626007 0.020985 0.
0.628007 0.0209854 0.
0.630008 0.0209856 0.
0.632008 0.0209858 0.
0.634009 0.0209859 0.
0.636011 0.0209859 0.
0.638012 0.0209858 0.
0.640013 0.0209855 0.
0.642015 0.020985 0.
0.644017 0.0209845 0.
0.646018 0.0209834 0.
0.64802 0.0209821 0.
0.650022 0.0209809 0.
0.652025 0.0209779 0.
0.654028 0.020975 0.
0.656032 0.0209718 0.
0.658037 0.0209677 0.
0.660043 0.0209635 0.
0.662049 0.0209588 0.
0.664057 0.0209535 0.
0.666065 0.0209482 0.
0.668075 0.020942 0.
0.670085 0.0209354 0.
0.672096 0.0209287 0.
0.674108 0.0209175 0.
0.67612 0.0209059 0.
0.678133 0.020894 0.
0.680148 0.0208805 0.
0.682163 0.020867 0.
0.684178 0.020853 0.
0.686195 0.0208384 0.
0.688212 0.0208238 0.
0.69023 0.020809 0.
0.692248 0.0207941 0.
0.694266 0.0207793 0.
0.696283 0.0207641 0.
0.6983 0.0207491 0.
0.499702 0.0227259 0.
0.501718 0.0227437 0.
0.503733 0.0227626 0.
0.505749 0.0227808 0.
0.507766 0.0227953 0.
0.509783 0.0228098 0.
0.511799 0.0228242 0.
0.513814 0.0228384 0.
0.51583 0.0228525 0.
0.517844 0.0228661 0.
0.519858 0.0228793 0.
0.521872 0.0228924 0.
0.523884 0.0229041 0.
0.525896 0.0229154 0.
0.527907 0.0229264 0.
0.529917 0.0229331 0.
0.531926 0.0229397 0.
0.533935 0.0229459 0.
0.535943 0.0229513 0.
0.53795 0.0229566 0.
0.539956 0.0229613 0.
0.541962 0.0229655 0.
0.543967 0.0229697 0.
0.545971 0.022973 0.
0.547974 0.022976 0.
0.549977 0.0229791 0.
0.551979 0.0229805 0.
0.553981 0.0229818 0.
0.555983 0.022983 0.
0.557985 0.0229835 0.
0.559987 0.022984 0.
0.561988 0.0229843 0.
0.563989 0.0229843 0.
0.565991 0.0229843 0.
0.567992 0.0229842 0.
0.569993 0.0229841 0.
0.571993 0.0229839 0.
0.573994 0.0229834 0.
0.575994 0.0229829 0.
0.577994 0.0229824 0.
0.579995 0.0229821 0.
0.581995 0.0229818 0.
0.583996 0.0229815 0.
0.585997 0.0229813 0.
0.587997 0.0229811 0.
0.589998 0.022981 0.
0.591999 0.0229809 0.
0.593999 0.0229808 0.
0.596 0.0229807 0.
0.598 0.0229808 0.
0.6 0.0229808 0.
0.602001 0.0229808 0.
0.604001 0.0229808 0.
0.606001 0.0229809 0.
0.608002 0.022981 0.
0.610003 0.0229812 0.
0.612003 0.0229813 0.
0.614004 0.0229816 0.
0.616005 0.0229818 0.
0.618005 0.0229821 0.
0.620006 0.0229823 0.
0.622007 0.0229826 0.
0.624007 0.0229831 0.
0.626007 0.0229835 0.
0.628007 0.0229839 0.
0.630008 0.022984 0.
0.632009 0.022984 0.
0.63401 0.022984 0.
0.636012 0.0229838 0.
0.638013 0.0229837 0.
0.640015 0.0229832 0.
0.642017 0.0229826 0.
0.644019 0.0229819 0.
0.646021 0.0229805 0.
0.648024 0.022979 0.
0.650026 0.0229774 0.
0.65203 0.0229738 0.
0.654034 0.0229703 0.
0.656038 0.0229664 0.
0.658044 0.0229615 0.
0.66005 0.0229566 0.
0.662057 0.0229511 0.
0.664065 0.0229449 0.
0.666073 0.0229388 0.
0.668083 0.0229318 0.
0.670094 0.0229246 0.
0.672104 0.0229173 0.
0.674116 0.0229052 0.
0.676129 0.0228927 0.
0.678141 0.02288 0.
0.680156 0.022866 0.
0.68217 0.022852 0.
0.684185 0.0228376 0.
0.686201 0.0228227 0.
0.688217 0.0228078 0.
0.690234 0.022793 0.
0.692251 0.0227782 0.
0.694267 0.0227634 0.
0.696283 0.0227495 0.
0.698299 0.0227358 0.
0.499703 0.024714 0.
0.501717 0.0247303 0.
0.503731 0.0247477 0.
0.505746 0.0247648 0.
0.507762 0.0247793 0.
0.509777 0.0247939 0.
0.511793 0.0248084 0.
0.513808 0.024823 0.
0.515823 0.0248376 0.
0.517837 0.0248516 0.
0.51985 0.0248653 0.
0.521864 0.0248791 0.
0.523875 0.0248916 0.
0.525887 0.0249039 0.
0.527898 0.0249158 0.
0.529908 0.0249231 0.
0.531918 0.0249304 0.
0.533928 0.0249373 0.
0.535936 0.0249435 0.
0.537944 0.0249496 0.
0.53995 0.0249551 0.
0.541956 0.02496 0.
0.543962 0.0249649 0.
0.545966 0.0249688 0.
0.54797 0.0249723 0.
0.549973 0.0249759 0.
0.551976 0.0249776 0.
0.553978 0.0249792 0.
0.555981 0.0249807 0.
0.557983 0.0249813 0.
0.559985 0.0249819 0.
0.561987 0.0249823 0.
0.563988 0.0249824 0.
0.56599 0.0249826 0.
0.567991 0.0249826 0.
0.569992 0.0249826 0.
0.571993 0.0249825 0.
0.573993 0.024982 0.
0.575994 0.0249815 0.
0.577994 0.024981 0.
0.579995 0.0249806 0.
0.581995 0.0249803 0.
0.583996 0.02498 0.
0.585997 0.0249798 0.
0.587997 0.0249796 0.
0.589998 0.0249794 0.
0.591999 0.0249793 0.
0.593999 0.0249792 0.
0.596 0.0249792 0.
0.598 0.0249793 0.
0.6 0.0249794 0.
0.602001 0.0249794 0.
0.604001 0.0249794 0.
0.606001 0.0249794 0.
0.608002 0.0249795 0.
0.610003 0.0249796 0.
0.612003 0.0249797 0.
0.614004 0.02498 0.
0.616005 0.0249803 0.
0.618005 0.0249806 0.
0.620006 0.0249809 0.
0.622007 0.0249812 0.
0.624007 0.0249816 0.
0.626007 0.0249821 0.
0.628008 0.0249825 0.
0.630009 0.0249824 0.
0.63201 0.0249822 0.
0.634011 0.0249821 0.
0.636013 0.0249818 0.
0.638015 0.0249815 0.
0.640017 0.0249809 0.
0.642019 0.0249801 0.
0.644022 0.0249793 0.
0.646024 0.0249777 0.
0.648027 0.0249758 0.
0.65003 0.0249739 0.
0.652034 0.0249697 0.
0.654039 0.0249655 0.
0.656044 0.024961 0.
0.65805 0.0249553 0.
0.660056 0.0249496 0.
0.662064 0.0249433 0.
0.664072 0.0249363 0.
0.666081 0.0249293 0.
0.668091 0.0249217 0.
0.670102 0.0249138 0.
0.672113 0.0249058 0.
0.674125 0.0248929 0.
0.676137 0.0248795 0.
0.678149 0.024866 0.
0.680164 0.0248515 0.
0.682178 0.024837 0.
0.684192 0.0248223 0.
0.686207 0.024807 0.
0.688222 0.0247918 0.
0.690238 0.0247769 0.
0.692254 0.0247622 0.
0.694269 0.0247475 0.
0.696284 0.0247348 0.
0.698298 0.0247226 0.
0.49971 0.0267049 0.
0.501723 0.02672 0.
0.503735 0.0267361 0.
0.505748 0.0267519 0.
0.507763 0.0267663 0.
0.509777 0.0267806 0.
0.511791 0.0267951 0.
0.513805 0.0268097 0.
0.515819 0.0268244 0.
0.517832 0.0268386 0.
0.519845 0.0268526 0.
0.521857 0.0268667 0.
0.523869 0.0268796 0.
0.52588 0.0268924 0.
0.527891 0.0269047 0.
0.529901 0.0269126 0.
0.531911 0.0269204 0.
0.533921 0.0269279 0.
0.535929 0.0269347 0.
0.537937 0.0269415 0.
0.539944 0.0269477 0.
0.54195 0.0269532 0.
0.543956 0.0269587 0.
0.545961 0.0269631 0.
0.547965 0.0269672 0.
0.54997 0.0269713 0.
0.551973 0.0269734 0.
0.553975 0.0269755 0.
0.555978 0.0269773 0.
0.557981 0.0269781 0.
0.559983 0.026979 0.
0.561985 0.0269796 0.
0.563987 0.0269799 0.
0.565989 0.0269802 0.
0.56799 0.0269804 0.
0.569991 0.0269805 0.
0.571992 0.0269805 0.
0.573993 0.0269801 0.
0.575993 0.0269796 0.
0.577994 0.0269791 0.
0.579994 0.0269787 0.
0.581995 0.0269784 0.
0.583996 0.0269781 0.
0.585996 0.0269779 0.
0.587997 0.0269776 0.
0.589998 0.0269775 0.
0.591999 0.0269774 0.
0.593999 0.0269773 0.
0.596 0.0269773 0.
0.598 0.0269774 0.
0.6 0.0269775 0.
0.602001 0.0269775 0.
0.604001 0.0269774 0.
0.606001 0.0269774 0.
0.608002 0.0269776 0.
0.610003 0.0269777 0.
0.612003 0.0269778 0.
0.614004 0.0269781 0.
0.616005 0.0269784 0.
0.618006 0.0269787 0.
0.620006 0.026979 0.
0.622007 0.0269793 0.
0.624008 0.0269797 0.
0.626008 0.0269801 0.
0.628009 0.0269804 0.
0.63001 0.0269802 0.
0.632011 0.0269799 0.
0.634013 0.0269795 0.
0.636015 0.0269791 0.
0.638017 0.0269786 0.
0.640019 0.0269778 0.
0.642022 0.0269767 0.
0.644024 0.0269756 0.
0.646028 0.0269735 0.
0.648031 0.0269712 0.
0.650034 0.0269688 0.
0.652039 0.026964 0.
0.654044 0.0269593 0.
0.656049 0.0269542 0.
0.658056 0.0269478 0.
0.660063 0.0269415 0.
0.662071 0.0269346 0.
0.664079 0.026927 0.
0.666088 0.0269193 0.
0.668098 0.0269111 0.
0.670109 0.0269027 0.
0.67212 0.0268942 0.
0.674131 0.0268809 0.
0.676143 0.0268671 0.
0.678155 0.0268533 0.
0.680169 0.0268386 0.
0.682182 0.0268238 0.
0.684195 0.026809 0.
0.686209 0.0267938 0.
0.688223 0.0267787 0.
0.690237 0.026764 0.
0.692251 0.0267495 0.
0.694265 0.0267351 0.
0.696278 0.0267237 0.
0.698291 0.0267131 0.
0.499718 0.0286961 0.
0.501729 0.0287099 0.
0.50374 0.0287246 0.
0.505751 0.0287392 0.
0.507764 0.0287534 0.
0.509776 0.0287675 0.
0.511789 0.0287819 0.
0.513802 0.0287966 0.
0.515815 0.0288112 0.
0.517827 0.0288257 0.
0.519839 0.02884 0.
0.521851 0.0288543 0.
0.523862 0.0288677 0.
0.525873 0.0288809 0.
0.527884 0.0288937 0.
0.529894 0.028902 0.
0.531904 0.0289104 0.
0.533914 0.0289184 0.
0.535922 0.0289259 0.
0.537931 0.0289334 0.
0.539938 0.0289402 0.
0.541944 0.0289464 0.
0.543951 0.0289526 0.
0.545956 0.0289575 0.
0.547961 0.0289621 0.
0.549966 0.0289667 0.
0.551969 0.0289692 0.
0.553972 0.0289717 0.
0.555976 0.0289739 0.
0.557978 0.028975 0.
0.559981 0.0289761 0.
0.561983 0.0289769 0.
0.563985 0.0289774 0.
0.565987 0.0289779 0.
0.567989 0.0289781 0.
0.56999 0.0289784 0.
0.571992 0.0289786 0.
0.573992 0.0289781 0.
0.575993 0.0289776 0.
0.577993 0.0289772 0.
0.579994 0.0289768 0.
0.581995 0.0289765 0.
0.583996 0.0289762 0.
0.585996 0.0289759 0.
0.587997 0.0289757 0.
0.589998 0.0289756 0.
0.591999 0.0289755 0.
0.593999 0.0289754 0.
0.596 0.0289754 0.
0.598 0.0289755 0.
0.6 0.0289755 0.
0.602001 0.0289755 0.
0.604001 0.0289755 0.
0.606002 0.0289755 0.
0.608002 0.0289756 0.
0.610003 0.0289757 0.
0.612004 0.0289759 0.
0.614004 0.0289762 0.
0.616005 0.0289765 0.
0.618006 0.0289768 0.
0.620007 0.028977 0.
0.622008 0.0289773 0.
0.624008 0.0289777 0.
0.626009 0.0289781 0.
0.62801 0.0289784 0.
0.630011 0.0289779 0.
0.632013 0.0289775 0.
0.634014 0.028977 0.
0.636017 0.0289764 0.
0.638019 0.0289757 0.
0.640021 0.0289746 0.
0.642024 0.0289733 0.
0.644027 0.0289719 0.
0.646031 0.0289694 0.
0.648035 0.0289665 0.
0.650039 0.0289636 0.
0.652044 0.0289583 0.
0.654049 0.028953 0.
0.656055 0.0289473 0.
0.658062 0.0289404 0.
0.66007 0.0289334 0.
0.662078 0.0289258 0.
0.664086 0.0289176 0.
0.666095 0.0289093 0.
0.668105 0.0289006 0.
0.670116 0.0288916 0.
0.672127 0.0288826 0.
0.674138 0.0288689 0.
0.67615 0.0288548 0.
0.678161 0.0288406 0.
0.680173 0.0288257 0.
0.682186 0.0288107 0.
0.684198 0.0287958 0.
0.686211 0.0287808 0.
0.688224 0.0287658 0.
0.690236 0.0287512 0.
0.692248 0.0287371 0.
0.694261 0.0287229 0.
0.696272 0.0287129 0.
0.698282 0.0287038 0.
0.499724 0.0306882 0.
0.501734 0.0307009 0.
0.503744 0.0307142 0.
0.505754 0.0307277 0.
0.507765 0.0307417 0.
0.509776 0.0307556 0.
0.511788 0.0307698 0.
0.5138 0.0307844 0.
0.515812 0.030799 0.
0.517823 0.0308136 0.
0.519835 0.0308282 0.
0.521846 0.0308427 0.
0.523857 0.0308563 0.
0.525868 0.0308699 0.
0.527878 0.030883 0.
0.529888 0.0308918 0.
0.531898 0.0309006 0.
0.533908 0.0309092 0.
0.535916 0.0309172 0.
0.537925 0.0309253 0.
0.539932 0.0309326 0.
0.541939 0.0309394 0.
0.543946 0.0309461 0.
0.545952 0.0309516 0.
0.547957 0.0309567 0.
0.549962 0.0309617 0.
0.551966 0.0309647 0.
0.55397 0.0309677 0.
0.555973 0.0309703 0.
0.557976 0.0309717 0.
0.559979 0.030973 0.
0.561982 0.0309741 0.
0.563984 0.0309748 0.
0.565986 0.0309754 0.
0.567988 0.0309759 0.
0.569989 0.0309762 0.
0.571991 0.0309766 0.
0.573992 0.0309762 0.
0.575992 0.0309758 0.
0.577993 0.0309754 0.
0.579994 0.0309751 0.
0.581995 0.0309748 0.
0.583996 0.0309745 0.
0.585996 0.0309742 0.
0.587997 0.030974 0.
0.589998 0.0309739 0.
0.591998 0.0309738 0.
0.593999 0.0309738 0.
0.596 0.0309738 0.
0.598 0.0309738 0.
0.6 0.0309739 0.
0.602001 0.0309739 0.
0.604001 0.0309738 0.
0.606002 0.0309739 0.
0.608002 0.0309739 0.
0.610003 0.030974 0.
0.612004 0.0309742 0.
0.614004 0.0309745 0.
0.616005 0.0309748 0.
0.618006 0.030975 0.
0.620007 0.0309753 0.
0.622008 0.0309755 0.
0.624009 0.0309758 0.
0.62601 0.0309761 0.
0.62801 0.0309763 0.
0.630012 0.0309757 0.
0.632014 0.0309751 0.
0.634016 0.0309744 0.
0.636018 0.0309735 0.
0.638021 0.0309727 0.
0.640023 0.0309713 0.
0.642027 0.0309697 0.
0.64403 0.030968 0.
0.646034 0.030965 0.
0.648038 0.0309616 0.
0.650042 0.0309581 0.
0.652048 0.0309523 0.
0.654054 0.0309465 0.
0.65606 0.0309403 0.
0.658068 0.0309327 0.
0.660075 0.0309252 0.
0.662083 0.0309171 0.
0.664092 0.0309083 0.
0.666101 0.0308996 0.
0.668111 0.0308903 0.
0.670122 0.0308809 0.
0.672132 0.0308715 0.
0.674143 0.0308575 0.
0.676154 0.0308432 0.
0.678165 0.0308288 0.
0.680177 0.0308137 0.
0.682189 0.0307986 0.
0.6842 0.0307836 0.
0.686212 0.0307688 0.
0.688224 0.030754 0.
0.690235 0.0307397 0.
0.692246 0.0307259 0.
0.694257 0.030712 0.
0.696266 0.0307032 0.
0.698276 0.0306954 0.
0.499728 0.0326818 0.
0.501737 0.0326932 0.
0.503746 0.0327054 0.
0.505756 0.0327179 0.
0.507766 0.0327315 0.
0.509777 0.0327451 0.
0.511788 0.032759 0.
0.513799 0.0327735 0.
0.51581 0.032788 0.
0.517821 0.0328025 0.
0.519832 0.0328172 0.
0.521843 0.0328319 0.
0.523854 0.0328457 0.
0.525864 0.0328594 0.
0.527874 0.0328727 0.
0.529884 0.0328819 0.
0.531894 0.0328911 0.
0.533903 0.0329001 0.
0.535912 0.0329086 0.
0.53792 0.032917 0.
0.539928 0.0329249 0.
0.541935 0.0329321 0.
0.543942 0.0329394 0.
0.545948 0.0329453 0.
0.547953 0.0329509 0.
0.549959 0.0329564 0.
0.551963 0.0329599 0.
0.553967 0.0329634 0.
0.555971 0.0329664 0.
0.557974 0.0329681 0.
0.559977 0.0329698 0.
0.56198 0.0329711 0.
0.563983 0.032972 0.
0.565985 0.0329729 0.
0.567987 0.0329736 0.
0.569989 0.0329741 0.
0.57199 0.0329746 0.
0.573991 0.0329744 0.
0.575992 0.0329741 0.
0.577993 0.0329738 0.
0.579994 0.0329735 0.
0.581995 0.0329732 0.
0.583996 0.032973 0.
0.585996 0.0329727 0.
0.587997 0.0329725 0.
0.589998 0.0329724 0.
0.591998 0.0329724 0.
0.593999 0.0329723 0.
0.596 0.0329724 0.
0.598 0.0329725 0.
0.6 0.0329725 0.
0.602001 0.0329725 0.
0.604001 0.0329724 0.
0.606002 0.0329724 0.
0.608002 0.0329725 0.
0.610003 0.0329726 0.
0.612004 0.0329727 0.
0.614004 0.032973 0.
0.616005 0.0329732 0.
0.618006 0.0329734 0.
0.620007 0.0329736 0.
0.622008 0.0329739 0.
0.624009 0.032974 0.
0.62601 0.0329741 0.
0.628011 0.0329741 0.
0.630013 0.0329734 0.
0.632015 0.0329726 0.
0.634017 0.0329718 0.
0.63602 0.0329706 0.
0.638022 0.0329695 0.
0.640025 0.0329678 0.
0.642029 0.0329658 0.
0.644033 0.0329638 0.
0.646037 0.0329603 0.
0.648041 0.0329563 0.
0.650046 0.0329523 0.
0.652052 0.032946 0.
0.654058 0.0329396 0.
0.656065 0.0329329 0.
0.658072 0.0329249 0.
0.66008 0.0329169 0.
0.662088 0.0329084 0.
0.664097 0.0328992 0.
0.666106 0.0328901 0.
0.668116 0.0328805 0.
0.670126 0.0328706 0.
0.672136 0.0328608 0.
0.674147 0.0328467 0.
0.676157 0.0328323 0.
0.678168 0.0328178 0.
0.680179 0.0328027 0.
0.68219 0.0327876 0.
0.684201 0.0327727 0.
0.686212 0.0327582 0.
0.688223 0.0327436 0.
0.690234 0.0327297 0.
0.692244 0.0327163 0.
0.694254 0.0327029 0.
0.696263 0.032695 0.
0.698272 0.0326882 0.
0.499732 0.0346753 0.
0.501741 0.0346856 0.
0.503749 0.0346966 0.
0.505758 0.034708 0.
0.507768 0.0347213 0.
0.509778 0.0347346 0.
0.511788 0.0347483 0.
0.513798 0.0347626 0.
0.515809 0.0347769 0.
0.51782 0.0347915 0.
0.51983 0.0348062 0.
0.521841 0.034821 0.
0.523851 0.034835 0.
0.52586 0.0348489 0.
0.52787 0.0348624 0.
0.52988 0.034872 0.
0.531889 0.0348816 0.
0.533898 0.034891 0.
0.535907 0.0348999 0.
0.537915 0.0349088 0.
0.539923 0.0349171 0.
0.54193 0.0349249 0.
0.543938 0.0349326 0.
0.545944 0.0349391 0.
0.54795 0.0349451 0.
0.549956 0.0349511 0.
0.55196 0.0349551 0.
0.553964 0.0349591 0.
0.555969 0.0349626 0.
0.557972 0.0349646 0.
0.559976 0.0349665 0.
0.561979 0.0349681 0.
0.563981 0.0349693 0.
0.565984 0.0349704 0.
0.567986 0.0349713 0.
0.569988 0.0349719 0.
0.57199 0.0349726 0.
0.573991 0.0349725 0.
0.575992 0.0349724 0.
0.577993 0.0349722 0.
0.579994 0.034972 0.
0.581995 0.0349717 0.
0.583996 0.0349714 0.
0.585996 0.0349712 0.
0.587997 0.034971 0.
0.589998 0.0349709 0.
0.591998 0.0349709 0.
0.593999 0.0349709 0.
0.596 0.034971 0.
0.598 0.0349711 0.
0.6 0.0349712 0.
0.602001 0.0349711 0.
0.604001 0.034971 0.
0.606002 0.034971 0.
0.608002 0.034971 0.
0.610003 0.0349711 0.
0.612004 0.0349712 0.
0.614004 0.0349714 0.
0.616005 0.0349716 0.
0.618006 0.0349718 0.
0.620007 0.034972 0.
0.622008 0.0349722 0.
0.62401 0.0349722 0.
0.626011 0.0349721 0.
0.628012 0.034972 0.
0.630014 0.0349711 0.
0.632016 0.0349702 0.
0.634019 0.0349691 0.
0.636021 0.0349677 0.
0.638024 0.0349662 0.
0.640027 0.0349643 0.
0.642031 0.034962 0.
0.644035 0.0349597 0.
0.64604 0.0349556 0.
0.648045 0.034951 0.
0.65005 0.0349465 0.
0.652056 0.0349396 0.
0.654062 0.0349327 0.
0.656069 0.0349255 0.
0.658077 0.034917 0.
0.660085 0.0349086 0.
0.662093 0.0348996 0.
0.664102 0.0348901 0.
0.666111 0.0348806 0.
0.66812 0.0348706 0.
0.67013 0.0348604 0.
0.67214 0.0348502 0.
0.67415 0.034836 0.
0.67616 0.0348215 0.
0.67817 0.0348069 0.
0.680181 0.0347917 0.
0.682191 0.0347766 0.
0.684202 0.0347618 0.
0.686212 0.0347475 0.
0.688222 0.0347333 0.
0.690232 0.0347198 0.
0.692242 0.0347068 0.
0.694251 0.0346938 0.
0.696259 0.0346868 0.
0.698267 0.034681 0.
0.49974 0.0366699 0.
0.501747 0.0366794 0.
0.503755 0.0366894 0.
0.505763 0.0367 0.
0.507772 0.0367128 0.
0.509781 0.0367257 0.
0.511791 0.0367391 0.
0.5138 0.0367531 0.
0.51581 0.0367672 0.
0.51782 0.0367817 0.
0.51983 0.0367965 0.
0.52184 0.0368114 0.
0.523849 0.0368254 0.
0.525859 0.0368393 0.
0.527868 0.0368529 0.
0.529877 0.0368627 0.
0.531886 0.0368725 0.
0.533895 0.036882 0.
0.535904 0.0368912 0.
0.537912 0.0369004 0.
0.53992 0.0369089 0.
0.541927 0.0369171 0.
0.543934 0.0369252 0.
0.545941 0.0369321 0.
0.547947 0.0369385 0.
0.549953 0.036945 0.
0.551958 0.0369495 0.
0.553962 0.036954 0.
0.555967 0.036958 0.
0.55797 0.0369603 0.
0.559974 0.0369626 0.
0.561977 0.0369645 0.
0.56398 0.036966 0.
0.565983 0.0369674 0.
0.567985 0.0369684 0.
0.569987 0.0369692 0.
0.571989 0.0369701 0.
0.573991 0.0369702 0.
0.575992 0.0369702 0.
0.577993 0.0369702 0.
0.579994 0.03697 0.
0.581995 0.0369698 0.
0.583996 0.0369696 0.
0.585996 0.0369695 0.
0.587997 0.0369693 0.
0.589998 0.0369692 0.
0.591998 0.0369692 0.
0.593999 0.0369692 0.
0.596 0.0369693 0.
0.598 0.0369693 0.
0.6 0.0369694 0.
0.602001 0.0369693 0.
0.604001 0.0369693 0.
0.606002 0.0369692 0.
0.608002 0.0369693 0.
0.610003 0.0369693 0.
0.612004 0.0369694 0.
0.614004 0.0369696 0.
0.616005 0.0369698 0.
0.618006 0.0369699 0.
0.620007 0.03697 0.
0.622009 0.0369701 0.
0.62401 0.0369699 0.
0.626011 0.0369697 0.
0.628013 0.0369694 0.
0.630015 0.0369683 0.
0.632017 0.0369672 0.
0.63402 0.0369659 0.
0.636023 0.0369641 0.
0.638026 0.0369624 0.
0.640029 0.0369601 0.
0.642033 0.0369574 0.
0.644037 0.0369547 0.
0.646042 0.0369501 0.
0.648047 0.036945 0.
0.650052 0.0369398 0.
0.652059 0.0369325 0.
0.654066 0.0369252 0.
0.656072 0.0369176 0.
0.65808 0.0369088 0.
0.660088 0.0369 0.
0.662096 0.0368908 0.
0.664105 0.0368811 0.
0.666114 0.0368714 0.
0.668123 0.0368612 0.
0.670132 0.0368509 0.
0.672142 0.0368405 0.
0.674151 0.0368263 0.
0.676161 0.0368118 0.
0.67817 0.0367973 0.
0.68018 0.0367822 0.
0.68219 0.036767 0.
0.6842 0.0367524 0.
0.686209 0.0367384 0.
0.688219 0.0367244 0.
0.690228 0.0367114 0.
0.692236 0.0366989 0.
0.694245 0.0366865 0.
0.696252 0.0366802 0.
0.69826 0.036675 0.
0.499748 0.0386646 0.
0.501755 0.0386733 0.
0.503761 0.0386825 0.
0.505768 0.0386922 0.
0.507777 0.0387046 0.
0.509785 0.038717 0.
0.511793 0.03873 0.
0.513803 0.0387438 0.
0.515812 0.0387575 0.
0.517821 0.038772 0.
0.51983 0.0387869 0.
0.521839 0.0388018 0.
0.523848 0.0388159 0.
0.525857 0.0388298 0.
0.527866 0.0388435 0.
0.529875 0.0388534 0.
0.531883 0.0388634 0.
0.533892 0.0388731 0.
0.5359 0.0388825 0.
0.537908 0.0388919 0.
0.539916 0.0389008 0.
0.541924 0.0389093 0.
0.543931 0.0389178 0.
0.545938 0.038925 0.
0.547944 0.038932 0.
0.549951 0.0389389 0.
0.551955 0.0389439 0.
0.55396 0.0389489 0.
0.555965 0.0389534 0.
0.557969 0.0389561 0.
0.559973 0.0389587 0.
0.561976 0.0389609 0.
0.563979 0.0389626 0.
0.565982 0.0389643 0.
0.567984 0.0389655 0.
0.569987 0.0389666 0.
0.571989 0.0389676 0.
0.57399 0.0389678 0.
0.575991 0.038968 0.
0.577993 0.0389682 0.
0.579994 0.0389681 0.
0.581995 0.038968 0.
0.583996 0.0389678 0.
0.585996 0.0389677 0.
0.587997 0.0389675 0.
0.589998 0.0389675 0.
0.591998 0.0389675 0.
0.593999 0.0389675 0.
0.596 0.0389675 0.
0.598 0.0389676 0.
0.6 0.0389676 0.
0.602001 0.0389676 0.
0.604001 0.0389675 0.
0.606002 0.0389675 0.
0.608002 0.0389675 0.
0.610003 0.0389676 0.
0.612004 0.0389676 0.
0.614005 0.0389678 0.
0.616005 0.0389679 0.
0.618006 0.0389679 0.
0.620008 0.0389679 0.
0.622009 0.0389679 0.
0.62401 0.0389676 0.
0.626012 0.0389672 0.
0.628013 0.0389667 0.
0.630016 0.0389654 0.
0.632018 0.0389642 0.
0.634021 0.0389627 0.
0.636024 0.0389606 0.
0.638027 0.0389586 0.
0.640031 0.038956 0.
0.642035 0.0389529 0.
0.644039 0.0389498 0.
0.646044 0.0389446 0.
0.64805 0.0389389 0.
0.650055 0.0389332 0.
0.652062 0.0389255 0.
0.654069 0.0389177 0.
0.656076 0.0389097 0.
0.658084 0.0389006 0.
0.660091 0.0388915 0.
0.6621 0.038882 0.
0.664108 0.0388721 0.
0.666117 0.0388622 0.
0.668126 0.0388519 0.
0.670135 0.0388414 0.
0.672144 0.0388309 0.
0.674152 0.0388167 0.
0.676161 0.0388023 0.
0.67817 0.0387878 0.
0.680179 0.0387727 0.
0.682188 0.0387576 0.
0.684197 0.038743 0.
0.686206 0.0387294 0.
0.688215 0.0387157 0.
0.690223 0.0387031 0.
0.692231 0.0386912 0.
0.694239 0.0386793 0.
0.696245 0.0386736 0.
0.698252 0.0386692 0.
0.499755 0.0406596 0.
0.501761 0.0406676 0.
0.503767 0.040676 0.
0.505774 0.040685 0.
0.507781 0.040697 0.
0.509789 0.040709 0.
0.511796 0.0407216 0.
0.513805 0.0407351 0.
0.515813 0.0407486 0.
0.517822 0.040763 0.
0.519831 0.040778 0.
0.521839 0.0407929 0.
0.523848 0.040807 0.
0.525856 0.0408209 0.
0.527864 0.0408346 0.
0.529873 0.0408446 0.
0.531881 0.0408546 0.
0.53389 0.0408645 0.
0.535898 0.0408741 0.
0.537906 0.0408836 0.
0.539914 0.0408928 0.
0.541921 0.0409016 0.
0.543929 0.0409104 0.
0.545936 0.0409181 0.
0.547942 0.0409254 0.
0.549949 0.0409328 0.
0.551953 0.0409383 0.
0.553958 0.0409438 0.
0.555963 0.0409488 0.
0.557967 0.0409518 0.
0.559971 0.0409547 0.
0.561975 0.0409572 0.
0.563978 0.0409592 0.
0.565981 0.0409612 0.
0.567984 0.0409627 0.
0.569986 0.0409639 0.
0.571988 0.0409651 0.
0.57399 0.0409655 0.
0.575991 0.0409659 0.
0.577993 0.0409663 0.
0.579994 0.0409663 0.
0.581995 0.0409662 0.
0.583996 0.0409662 0.
0.585996 0.0409661 0.
0.587997 0.040966 0.
0.589998 0.040966 0.
0.591998 0.040966 0.
0.593999 0.040966 0.
0.596 0.040966 0.
0.598 0.0409661 0.
0.6 0.0409661 0.
0.602001 0.0409661 0.
0.604001 0.040966 0.
0.606002 0.040966 0.
0.608002 0.040966 0.
0.610003 0.040966 0.
0.612004 0.040966 0.
0.614005 0.0409661 0.
0.616005 0.0409662 0.
0.618006 0.0409661 0.
0.620008 0.040966 0.
0.622009 0.0409659 0.
0.624011 0.0409653 0.
0.626012 0.0409648 0.
0.628014 0.0409641 0.
0.630016 0.0409626 0.
0.632019 0.0409611 0.
0.634022 0.0409594 0.
0.636025 0.040957 0.
0.638028 0.0409546 0.
0.640032 0.0409517 0.
0.642037 0.0409482 0.
0.644041 0.0409448 0.
0.646046 0.0409392 0.
0.648052 0.0409329 0.
0.650057 0.0409266 0.
0.652064 0.0409185 0.
0.654071 0.0409103 0.
0.656078 0.0409019 0.
0.658086 0.0408925 0.
0.660094 0.0408832 0.
0.662102 0.0408735 0.
0.66411 0.0408634 0.
0.666119 0.0408533 0.
0.668127 0.0408429 0.
0.670136 0.0408324 0.
0.672145 0.0408218 0.
0.674153 0.0408078 0.
0.676161 0.0407935 0.
0.67817 0.0407791 0.
0.680178 0.040764 0.
0.682187 0.0407489 0.
0.684195 0.0407344 0.
0.686203 0.0407211 0.
0.688211 0.0407077 0.
0.690219 0.0406955 0.
0.692226 0.0406842 0.
0.694233 0.0406728 0.
0.696239 0.0406676 0.
0.698245 0.0406637 0.
0.49976 0.0426551 0.
0.501766 0.0426625 0.
0.503772 0.0426703 0.
0.505778 0.0426787 0.
0.507785 0.0426903 0.
0.509792 0.0427019 0.
0.5118 0.0427141 0.
0.513808 0.0427274 0.
0.515816 0.0427406 0.
0.517824 0.042755 0.
0.519832 0.0427699 0.
0.52184 0.0427849 0.
0.523848 0.0427989 0.
0.525856 0.0428127 0.
0.527864 0.0428262 0.
0.529872 0.0428362 0.
0.531881 0.0428463 0.
0.533889 0.0428562 0.
0.535897 0.0428659 0.
0.537905 0.0428755 0.
0.539913 0.0428849 0.
0.54192 0.0428939 0.
0.543928 0.042903 0.
0.545934 0.0429111 0.
0.547941 0.0429189 0.
0.549947 0.0429267 0.
0.551952 0.0429327 0.
0.553957 0.0429387 0.
0.555962 0.0429441 0.
0.557966 0.0429473 0.
0.55997 0.0429506 0.
0.561974 0.0429534 0.
0.563977 0.0429557 0.
0.56598 0.042958 0.
0.567983 0.0429597 0.
0.569986 0.0429611 0.
0.571988 0.0429625 0.
0.57399 0.0429633 0.
0.575991 0.0429639 0.
0.577992 0.0429645 0.
0.579994 0.0429646 0.
0.581995 0.0429647 0.
0.583996 0.0429647 0.
0.585996 0.0429647 0.
0.587997 0.0429647 0.
0.589998 0.0429647 0.
0.591998 0.0429647 0.
0.593999 0.0429647 0.
0.596 0.0429648 0.
0.598 0.0429648 0.
0.6 0.0429649 0.
0.602001 0.0429648 0.
0.604001 0.0429648 0.
0.606002 0.0429647 0.
0.608002 0.0429647 0.
0.610003 0.0429647 0.
0.612004 0.0429646 0.
0.614005 0.0429646 0.
0.616005 0.0429646 0.
0.618007 0.0429644 0.
0.620008 0.0429642 0.
0.622009 0.042964 0.
0.624011 0.0429632 0.
0.626013 0.0429623 0.
0.628014 0.0429614 0.
0.630017 0.0429597 0.
0.63202 0.042958 0.
0.634022 0.042956 0.
0.636026 0.0429533 0.
0.638029 0.0429506 0.
0.640033 0.0429473 0.
0.642038 0.0429435 0.
0.644042 0.0429398 0.
0.646048 0.0429336 0.
0.648053 0.0429269 0.
0.650059 0.0429201 0.
0.652065 0.0429115 0.
0.654072 0.0429029 0.
0.656079 0.0428941 0.
0.658087 0.0428845 0.
0.660095 0.042875 0.
0.662103 0.0428651 0.
0.664111 0.0428549 0.
0.666119 0.0428448 0.
0.668128 0.0428344 0.
0.670136 0.0428239 0.
0.672144 0.0428134 0.
0.674152 0.0427996 0.
0.67616 0.0427855 0.
0.678168 0.0427713 0.
0.680176 0.0427562 0.
0.682184 0.0427411 0.
0.684192 0.0427268 0.
0.6862 0.0427137 0.
0.688208 0.0427006 0.
0.690215 0.0426889 0.
0.692221 0.042678 0.
0.694228 0.0426672 0.
0.696234 0.0426623 0.
0.698239 0.0426587 0.
0.499766 0.0446505 0.
0.501771 0.0446573 0.
0.503777 0.0446646 0.
0.505783 0.0446725 0.
0.507789 0.0446836 0.
0.509796 0.0446947 0.
0.511803 0.0447066 0.
0.513811 0.0447196 0.
0.515818 0.0447326 0.
0.517826 0.0447469 0.
0.519833 0.0447619 0.
0.521841 0.0447769 0.
0.523849 0.0447907 0.
0.525856 0.0448044 0.
0.527864 0.0448178 0.
0.529872 0.0448278 0.
0.53188 0.0448379 0.
0.533888 0.0448479 0.
0.535896 0.0448576 0.
0.537904 0.0448674 0.
0.539911 0.0448769 0.
0.541919 0.0448863 0.
0.543926 0.0448956 0.
0.545933 0.0449041 0.
0.547939 0.0449123 0.
0.549946 0.0449206 0.
0.551951 0.0449271 0.
0.553956 0.0449335 0.
0.555961 0.0449393 0.
0.557965 0.0449429 0.
0.559969 0.0449465 0.
0.561973 0.0449496 0.
0.563976 0.0449522 0.
0.56598 0.0449548 0.
0.567983 0.0449567 0.
0.569985 0.0449584 0.
0.571988 0.04496 0.
0.573989 0.044961 0.
0.575991 0.044962 0.
0.577992 0.0449628 0.
0.579994 0.044963 0.
0.581995 0.0449631 0.
0.583996 0.0449633 0.
0.585996 0.0449633 0.
0.587997 0.0449633 0.
0.589998 0.0449633 0.
0.591998 0.0449634 0.
0.593999 0.0449634 0.
0.596 0.0449635 0.
0.598 0.0449636 0.
0.6 0.0449637 0.
0.602001 0.0449636 0.
0.604001 0.0449635 0.
0.606002 0.0449635 0.
0.608002 0.0449634 0.
0.610003 0.0449633 0.
0.612004 0.0449632 0.
0.614005 0.0449631 0.
0.616005 0.044963 0.
0.618007 0.0449627 0.
0.620008 0.0449624 0.
0.622009 0.0449621 0.
0.624011 0.044961 0.
0.626013 0.0449599 0.
0.628015 0.0449587 0.
0.630018 0.0449568 0.
0.63202 0.0449548 0.
0.634023 0.0449525 0.
0.636027 0.0449495 0.
0.63803 0.0449465 0.
0.640035 0.0449429 0.
0.642039 0.0449388 0.
0.644044 0.0449347 0.
0.646049 0.0449281 0.
0.648055 0.0449209 0.
0.65006 0.0449136 0.
0.652067 0.0449046 0.
0.654074 0.0448955 0.
0.656081 0.0448863 0.
0.658088 0.0448765 0.
0.660096 0.0448667 0.
0.662104 0.0448568 0.
0.664112 0.0448465 0.
0.66612 0.0448363 0.
0.668128 0.0448259 0.
0.670136 0.0448154 0.
0.672144 0.044805 0.
0.674152 0.0447914 0.
0.676159 0.0447775 0.
0.678167 0.0447635 0.
0.680174 0.0447484 0.
0.682182 0.0447333 0.
0.684189 0.0447191 0.
0.686197 0.0447063 0.
0.688204 0.0446935 0.
0.69021 0.0446822 0.
0.692217 0.0446719 0.
0.694223 0.0446615 0.
0.696228 0.044657 0.
0.698234 0.0446537 0.
0.499773 0.0466463 0.
0.501779 0.0466527 0.
0.503784 0.0466595 0.
0.505789 0.046667 0.
0.507795 0.0466778 0.
0.509802 0.0466885 0.
0.511808 0.0467001 0.
0.513815 0.0467129 0.
0.515822 0.0467256 0.
0.517829 0.0467398 0.
0.519837 0.0467548 0.
0.521844 0.0467698 0.
0.523851 0.0467835 0.
0.525858 0.046797 0.
0.527865 0.0468102 0.
0.529873 0.0468202 0.
0.531881 0.0468301 0.
0.533888 0.0468401 0.
0.535896 0.0468499 0.
0.537903 0.0468597 0.
0.539911 0.0468693 0.
0.541918 0.0468788 0.
0.543925 0.0468883 0.
0.545932 0.0468971 0.
0.547938 0.0469058 0.
0.549945 0.0469144 0.
0.55195 0.0469213 0.
0.553955 0.0469281 0.
0.55596 0.0469343 0.
0.557964 0.0469382 0.
0.559969 0.046942 0.
0.561972 0.0469455 0.
0.563976 0.0469484 0.
0.565979 0.0469512 0.
0.567982 0.0469535 0.
0.569985 0.0469554 0.
0.571987 0.0469573 0.
0.573989 0.0469585 0.
0.575991 0.0469597 0.
0.577992 0.0469607 0.
0.579993 0.046961 0.
0.581995 0.0469614 0.
0.583996 0.0469616 0.
0.585996 0.0469617 0.
0.587997 0.0469618 0.
0.589998 0.0469618 0.
0.591998 0.0469619 0.
0.593999 0.0469619 0.
0.596 0.046962 0.
0.598 0.0469621 0.
0.6 0.0469622 0.
0.602001 0.0469621 0.
0.604001 0.046962 0.
0.606002 0.046962 0.
0.608002 0.0469618 0.
0.610003 0.0469617 0.
0.612004 0.0469616 0.
0.614005 0.0469614 0.
0.616005 0.0469612 0.
0.618007 0.0469608 0.
0.620008 0.0469603 0.
0.62201 0.0469598 0.
0.624011 0.0469586 0.
0.626013 0.0469572 0.
0.628015 0.0469558 0.
0.630018 0.0469536 0.
0.632021 0.0469514 0.
0.634024 0.0469488 0.
0.636027 0.0469454 0.
0.638031 0.0469421 0.
0.640035 0.0469381 0.
0.64204 0.0469338 0.
0.644045 0.0469294 0.
0.64605 0.0469224 0.
0.648055 0.0469147 0.
0.650061 0.0469071 0.
0.652068 0.0468977 0.
0.654074 0.0468883 0.
0.656081 0.0468788 0.
0.658089 0.0468689 0.
0.660096 0.0468589 0.
0.662104 0.0468489 0.
0.664112 0.0468386 0.
0.666119 0.0468284 0.
0.668127 0.0468181 0.
0.670135 0.0468077 0.
0.672142 0.0467974 0.
0.67415 0.0467841 0.
0.676157 0.0467705 0.
0.678164 0.0467567 0.
0.680171 0.0467416 0.
0.682178 0.0467265 0.
0.684185 0.0467124 0.
0.686191 0.0466999 0.
0.688198 0.0466873 0.
0.690204 0.0466763 0.
0.69221 0.0466664 0.
0.694216 0.0466565 0.
0.696221 0.0466523 0.
0.698226 0.0466493 0.
0.499781 0.0486421 0.
0.501786 0.0486482 0.
0.503791 0.0486546 0.
0.505796 0.0486616 0.
0.507802 0.048672 0.
0.509807 0.0486824 0.
0.511813 0.0486937 0.
0.51382 0.0487062 0.
0.515826 0.0487187 0.
0.517833 0.0487327 0.
0.51984 0.0487478 0.
0.521847 0.0487628 0.
0.523853 0.0487763 0.
0.52586 0.0487896 0.
0.527867 0.0488027 0.
0.529874 0.0488125 0.
0.531881 0.0488224 0.
0.533889 0.0488323 0.
0.535896 0.0488421 0.
0.537903 0.048852 0.
0.53991 0.0488617 0.
0.541918 0.0488714 0.
0.543925 0.048881 0.
0.545931 0.0488902 0.
0.547937 0.0488992 0.
0.549944 0.0489082 0.
0.551949 0.0489154 0.
0.553954 0.0489227 0.
0.555959 0.0489293 0.
0.557963 0.0489334 0.
0.559968 0.0489376 0.
0.561972 0.0489413 0.
0.563975 0.0489445 0.
0.565979 0.0489477 0.
0.567982 0.0489502 0.
0.569984 0.0489524 0.
0.571987 0.0489545 0.
0.573989 0.048956 0.
0.57599 0.0489574 0.
0.577992 0.0489587 0.
0.579993 0.0489591 0.
0.581995 0.0489596 0.
0.583996 0.0489599 0.
0.585996 0.0489601 0.
0.587997 0.0489602 0.
0.589998 0.0489603 0.
0.591999 0.0489604 0.
0.593999 0.0489604 0.
0.596 0.0489605 0.
0.598 0.0489606 0.
0.6 0.0489606 0.
0.602001 0.0489606 0.
0.604001 0.0489605 0.
0.606002 0.0489605 0.
0.608002 0.0489603 0.
0.610003 0.0489602 0.
0.612004 0.04896 0.
0.614005 0.0489597 0.
0.616006 0.0489594 0.
0.618007 0.0489589 0.
0.620008 0.0489583 0.
0.62201 0.0489576 0.
0.624011 0.0489561 0.
0.626013 0.0489545 0.
0.628015 0.0489529 0.
0.630018 0.0489504 0.
0.632021 0.0489479 0.
0.634024 0.048945 0.
0.636028 0.0489413 0.
0.638032 0.0489376 0.
0.640036 0.0489334 0.
0.642041 0.0489287 0.
0.644046 0.048924 0.
0.646051 0.0489167 0.
0.648056 0.0489086 0.
0.650062 0.0489006 0.
0.652068 0.0488908 0.
0.654075 0.0488811 0.
0.656082 0.0488713 0.
0.658089 0.0488612 0.
0.660096 0.0488512 0.
0.662104 0.048841 0.
0.664111 0.0488307 0.
0.666119 0.0488205 0.
0.668126 0.0488103 0.
0.670133 0.0488001 0.
0.672141 0.0487899 0.
0.674147 0.0487768 0.
0.676154 0.0487635 0.
0.678161 0.0487499 0.
0.680167 0.0487349 0.
0.682173 0.0487198 0.
0.68418 0.0487058 0.
0.686186 0.0486935 0.
0.688192 0.0486812 0.
0.690198 0.0486705 0.
0.692204 0.048661 0.
0.694209 0.0486515 0.
0.696214 0.0486476 0.
0.698218 0.0486449 0.
0.499789 0.0506381 0.
0.501793 0.0506439 0.
0.503797 0.0506499 0.
0.505802 0.0506566 0.
0.507807 0.0506667 0.
0.509813 0.0506767 0.
0.511818 0.0506877 0.
0.513825 0.0507 0.
0.515831 0.0507122 0.
0.517837 0.0507262 0.
0.519843 0.0507412 0.
0.521849 0.0507562 0.
0.523856 0.0507696 0.
0.525862 0.0507828 0.
0.527869 0.0507957 0.
0.529876 0.0508054 0.
0.531882 0.0508152 0.
0.533889 0.050825 0.
0.535896 0.0508348 0.
0.537904 0.0508446 0.
0.539911 0.0508544 0.
0.541917 0.0508642 0.
0.543924 0.050874 0.
0.545931 0.0508835 0.
0.547937 0.0508928 0.
0.549943 0.0509022 0.
0.551948 0.0509098 0.
0.553953 0.0509175 0.
0.555958 0.0509244 0.
0.557963 0.0509288 0.
0.559967 0.0509332 0.
0.561971 0.0509372 0.
0.563975 0.0509407 0.
0.565978 0.0509442 0.
0.567981 0.050947 0.
0.569984 0.0509494 0.
0.571987 0.0509519 0.
0.573989 0.0509536 0.
0.57599 0.0509552 0.
0.577992 0.0509567 0.
0.579993 0.0509573 0.
0.581994 0.0509579 0.
0.583996 0.0509584 0.
0.585996 0.0509586 0.
0.587997 0.0509588 0.
0.589998 0.050959 0.
0.591999 0.050959 0.
0.593999 0.0509591 0.
0.596 0.0509592 0.
0.598 0.0509593 0.
0.6 0.0509594 0.
0.602001 0.0509593 0.
0.604001 0.0509593 0.
0.606002 0.0509592 0.
0.608002 0.050959 0.
0.610003 0.0509588 0.
0.612004 0.0509585 0.
0.614005 0.0509581 0.
0.616006 0.0509577 0.
0.618007 0.0509571 0.
0.620008 0.0509563 0.
0.62201 0.0509555 0.
0.624012 0.0509538 0.
0.626014 0.050952 0.
0.628016 0.05095 0.
0.630019 0.0509472 0.
0.632021 0.0509444 0.
0.634025 0.0509412 0.
0.636029 0.0509372 0.
0.638032 0.0509332 0.
0.640037 0.0509287 0.
0.642042 0.0509238 0.
0.644046 0.0509188 0.
0.646052 0.0509111 0.
0.648057 0.0509027 0.
0.650062 0.0508943 0.
0.652069 0.0508842 0.
0.654075 0.0508742 0.
0.656082 0.0508641 0.
0.658089 0.0508539 0.
0.660096 0.0508437 0.
0.662103 0.0508335 0.
0.66411 0.0508233 0.
0.666118 0.0508131 0.
0.668125 0.050803 0.
0.670131 0.050793 0.
0.672138 0.050783 0.
0.674145 0.0507701 0.
0.676151 0.0507569 0.
0.678157 0.0507436 0.
0.680163 0.0507286 0.
0.682169 0.0507136 0.
0.684175 0.0506996 0.
0.686181 0.0506876 0.
0.688187 0.0506755 0.
0.690192 0.0506652 0.
0.692197 0.050656 0.
0.694202 0.0506469 0.
0.696207 0.0506432 0.
0.698211 0.0506407 0.
0.499794 0.0526343 0.
0.501799 0.0526398 0.
0.503803 0.0526457 0.
0.505807 0.0526521 0.
0.507813 0.0526619 0.
0.509818 0.0526717 0.
0.511823 0.0526824 0.
0.513829 0.0526944 0.
0.515835 0.0527064 0.
0.517841 0.0527202 0.
0.519847 0.0527352 0.
0.521853 0.0527502 0.
0.523859 0.0527635 0.
0.525865 0.0527765 0.
0.527871 0.0527892 0.
0.529878 0.0527988 0.
0.531884 0.0528084 0.
0.533891 0.0528181 0.
0.535898 0.0528279 0.
0.537905 0.0528377 0.
0.539911 0.0528475 0.
0.541918 0.0528574 0.
0.543925 0.0528672 0.
0.545931 0.052877 0.
0.547937 0.0528868 0.
0.549943 0.0528965 0.
0.551948 0.0529044 0.
0.553953 0.0529123 0.
0.555958 0.0529196 0.
0.557962 0.0529242 0.
0.559967 0.0529288 0.
0.561971 0.0529331 0.
0.563974 0.0529369 0.
0.565978 0.0529407 0.
0.567981 0.0529438 0.
0.569984 0.0529466 0.
0.571986 0.0529493 0.
0.573988 0.0529513 0.
0.57599 0.0529531 0.
0.577992 0.0529549 0.
0.579993 0.0529556 0.
0.581994 0.0529564 0.
0.583995 0.052957 0.
0.585996 0.0529573 0.
0.587997 0.0529576 0.
0.589998 0.0529578 0.
0.591998 0.0529579 0.
0.593999 0.052958 0.
0.596 0.0529582 0.
0.598 0.0529583 0.
0.6 0.0529584 0.
0.602001 0.0529583 0.
0.604001 0.0529582 0.
0.606002 0.0529581 0.
0.608002 0.0529578 0.
0.610003 0.0529576 0.
0.612004 0.0529572 0.
0.614005 0.0529567 0.
0.616006 0.0529562 0.
0.618007 0.0529554 0.
0.620009 0.0529545 0.
0.62201 0.0529536 0.
0.624012 0.0529516 0.
0.626014 0.0529495 0.
0.628016 0.0529473 0.
0.630019 0.0529442 0.
0.632022 0.052941 0.
0.634025 0.0529375 0.
0.636029 0.0529332 0.
0.638033 0.0529288 0.
0.640037 0.052924 0.
0.642042 0.0529189 0.
0.644047 0.0529137 0.
0.646052 0.0529058 0.
0.648057 0.0528971 0.
0.650062 0.0528883 0.
0.652069 0.0528779 0.
0.654075 0.0528675 0.
0.656081 0.0528572 0.
0.658088 0.0528469 0.
0.660095 0.0528367 0.
0.662102 0.0528265 0.
0.664109 0.0528164 0.
0.666116 0.0528062 0.
0.668122 0.0527963 0.
0.670129 0.0527864 0.
0.672136 0.0527766 0.
0.674142 0.0527639 0.
0.676148 0.052751 0.
0.678154 0.0527377 0.
0.680159 0.0527228 0.
0.682165 0.0527078 0.
0.684171 0.0526941 0.
0.686177 0.0526823 0.
0.688182 0.0526704 0.
0.690187 0.0526604 0.
0.692192 0.0526515 0.
0.694197 0.0526426 0.
0.696201 0.0526391 0.
0.698205 0.0526367 0.
0.4998 0.0546305 0.
0.501804 0.0546358 0.
0.503809 0.0546414 0.
0.505813 0.0546477 0.
0.507818 0.0546571 0.
0.509822 0.0546666 0.
0.511828 0.054677 0.
0.513833 0.0546888 0.
0.515839 0.0547005 0.
0.517844 0.0547142 0.
0.51985 0.0547292 0.
0.521856 0.0547441 0.
0.523862 0.0547573 0.
0.525867 0.0547702 0.
0.527873 0.0547828 0.
0.52988 0.0547923 0.
0.531886 0.0548017 0.
0.533892 0.0548112 0.
0.535899 0.054821 0.
0.537905 0.0548307 0.
0.539912 0.0548405 0.
0.541919 0.0548505 0.
0.543925 0.0548605 0.
0.545931 0.0548705 0.
0.547937 0.0548807 0.
0.549943 0.0548908 0.
0.551948 0.054899 0.
0.553953 0.0549072 0.
0.555958 0.0549147 0.
0.557962 0.0549196 0.
0.559966 0.0549245 0.
0.56197 0.054929 0.
0.563974 0.0549331 0.
0.565978 0.0549373 0.
0.56798 0.0549407 0.
0.569983 0.0549437 0.
0.571986 0.0549467 0.
0.573988 0.0549489 0.
0.57599 0.0549511 0.
0.577991 0.0549531 0.
0.579993 0.054954 0.
0.581994 0.0549548 0.
0.583995 0.0549555 0.
0.585996 0.054956 0.
0.587997 0.0549564 0.
0.589998 0.0549566 0.
0.591998 0.0549568 0.
0.593999 0.054957 0.
0.596 0.0549571 0.
0.598 0.0549572 0.
0.6 0.0549574 0.
0.602001 0.0549572 0.
0.604001 0.0549571 0.
0.606002 0.054957 0.
0.608003 0.0549567 0.
0.610003 0.0549563 0.
0.612004 0.0549559 0.
0.614005 0.0549553 0.
0.616006 0.0549547 0.
0.618007 0.0549537 0.
0.620009 0.0549527 0.
0.62201 0.0549516 0.
0.624012 0.0549494 0.
0.626014 0.054947 0.
0.628016 0.0549445 0.
0.630019 0.0549411 0.
0.632022 0.0549376 0.
0.634026 0.0549338 0.
0.636029 0.0549291 0.
0.638033 0.0549245 0.
0.640038 0.0549194 0.
0.642042 0.054914 0.
0.644047 0.0549086 0.
0.646052 0.0549004 0.
0.648057 0.0548914 0.
0.650062 0.0548824 0.
0.652069 0.0548716 0.
0.654075 0.0548609 0.
0.656081 0.0548503 0.
0.658087 0.05484 0.
0.660094 0.0548297 0.
0.662101 0.0548195 0.
0.664107 0.0548094 0.
0.666114 0.0547993 0.
0.66812 0.0547896 0.
0.670127 0.0547799 0.
0.672133 0.0547703 0.
0.674139 0.0547577 0.
0.676144 0.054745 0.
0.67815 0.0547319 0.
0.680156 0.054717 0.
0.682161 0.0547021 0.
0.684167 0.0546885 0.
0.686172 0.0546769 0.
0.688177 0.0546654 0.
0.690182 0.0546556 0.
0.692187 0.054647 0.
0.694191 0.0546384 0.
0.696195 0.0546349 0.
0.698199 0.0546326 0.
0.499808 0.0566269 0.
0.501812 0.0566321 0.
0.503815 0.0566375 0.
0.505819 0.0566436 0.
0.507824 0.0566529 0.
0.509829 0.0566621 0.
0.511833 0.0566723 0.
0.513838 0.0566838 0.
0.515844 0.0566953 0.
0.517849 0.0567089 0.
0.519854 0.0567238 0.
0.52186 0.0567387 0.
0.523865 0.0567518 0.
0.525871 0.0567646 0.
0.527876 0.0567772 0.
0.529882 0.0567864 0.
0.531888 0.0567957 0.
0.533894 0.056805 0.
0.535901 0.0568147 0.
0.537907 0.0568243 0.
0.539913 0.0568341 0.
0.541919 0.0568441 0.
0.543926 0.0568541 0.
0.545931 0.0568644 0.
0.547937 0.0568749 0.
0.549943 0.0568853 0.
0.551948 0.0568938 0.
0.553953 0.0569023 0.
0.555957 0.0569101 0.
0.557962 0.0569151 0.
0.559966 0.0569202 0.
0.56197 0.0569249 0.
0.563973 0.0569293 0.
0.565977 0.0569337 0.
0.56798 0.0569374 0.
0.569983 0.0569407 0.
0.571985 0.0569441 0.
0.573987 0.0569465 0.
0.575989 0.0569489 0.
0.577991 0.0569511 0.
0.579992 0.0569521 0.
0.581994 0.0569531 0.
0.583995 0.056954 0.
0.585996 0.0569545 0.
0.587997 0.056955 0.
0.589998 0.0569553 0.
0.591998 0.0569555 0.
0.593999 0.0569558 0.
0.596 0.0569559 0.
0.598 0.056956 0.
0.6 0.0569562 0.
0.602001 0.0569561 0.
0.604001 0.0569559 0.
0.606002 0.0569558 0.
0.608003 0.0569554 0.
0.610003 0.056955 0.
0.612004 0.0569545 0.
0.614005 0.0569537 0.
0.616006 0.056953 0.
0.618008 0.0569519 0.
0.620009 0.0569507 0.
0.622011 0.0569495 0.
0.624013 0.056947 0.
0.626015 0.0569444 0.
0.628017 0.0569417 0.
0.63002 0.0569379 0.
0.632023 0.0569341 0.
0.634026 0.0569299 0.
0.63603 0.056925 0.
0.638034 0.0569201 0.
0.640038 0.0569148 0.
0.642043 0.0569093 0.
0.644047 0.0569037 0.
0.646052 0.0568952 0.
0.648057 0.056886 0.
0.650062 0.0568767 0.
0.652068 0.0568657 0.
0.654074 0.0568547 0.
0.65608 0.0568439 0.
0.658086 0.0568336 0.
0.660093 0.0568233 0.
0.662099 0.0568131 0.
0.664105 0.0568031 0.
0.666112 0.0567932 0.
0.668118 0.0567836 0.
0.670124 0.0567741 0.
0.672129 0.0567647 0.
0.674135 0.0567523 0.
0.67614 0.0567396 0.
0.678146 0.0567267 0.
0.680151 0.0567119 0.
0.682156 0.056697 0.
0.684161 0.0566835 0.
0.686166 0.0566722 0.
0.688171 0.0566609 0.
0.690176 0.0566513 0.
0.69218 0.0566429 0.
0.694184 0.0566345 0.
0.696188 0.0566312 0.
0.698192 0.056629 0.
0.499815 0.0586234 0.
0.501819 0.0586284 0.
0.503823 0.0586337 0.
0.505826 0.0586396 0.
0.507831 0.0586486 0.
0.509835 0.0586576 0.
0.511839 0.0586676 0.
0.513844 0.0586789 0.
0.515849 0.0586902 0.
0.517854 0.0587037 0.
0.519859 0.0587186 0.
0.521864 0.0587334 0.
0.523869 0.0587464 0.
0.525874 0.0587591 0.
0.52788 0.0587715 0.
0.529885 0.0587806 0.
0.531891 0.0587897 0.
0.533896 0.0587989 0.
0.535902 0.0588084 0.
0.537908 0.058818 0.
0.539914 0.0588278 0.
0.54192 0.0588378 0.
0.543926 0.0588478 0.
0.545932 0.0588584 0.
0.547937 0.0588691 0.
0.549943 0.0588798 0.
0.551948 0.0588886 0.
0.553952 0.0588974 0.
0.555957 0.0589055 0.
0.557961 0.0589107 0.
0.559965 0.0589159 0.
0.561969 0.0589209 0.
0.563973 0.0589255 0.
0.565977 0.0589302 0.
0.56798 0.0589341 0.
0.569982 0.0589378 0.
0.571985 0.0589414 0.
0.573987 0.0589441 0.
0.575989 0.0589467 0.
0.577991 0.0589491 0.
0.579992 0.0589503 0.
0.581994 0.0589514 0.
0.583995 0.0589524 0.
0.585996 0.058953 0.
0.587997 0.0589536 0.
0.589998 0.058954 0.
0.591998 0.0589543 0.
0.593999 0.0589545 0.
0.596 0.0589547 0.
0.598 0.0589549 0.
0.6 0.058955 0.
0.602001 0.0589549 0.
0.604001 0.0589547 0.
0.606002 0.0589545 0.
0.608003 0.0589541 0.
0.610003 0.0589537 0.
0.612004 0.058953 0.
0.614005 0.0589522 0.
0.616007 0.0589513 0.
0.618008 0.0589502 0.
0.62001 0.0589488 0.
0.622011 0.0589474 0.
0.624013 0.0589447 0.
0.626015 0.0589419 0.
0.628017 0.0589389 0.
0.63002 0.0589347 0.
0.632023 0.0589306 0.
0.634026 0.0589261 0.
0.63603 0.0589209 0.
0.638034 0.0589158 0.
0.640038 0.0589103 0.
0.642043 0.0589046 0.
0.644047 0.0588988 0.
0.646052 0.0588901 0.
0.648057 0.0588805 0.
0.650062 0.058871 0.
0.652068 0.0588598 0.
0.654074 0.0588486 0.
0.656079 0.0588376 0.
0.658085 0.0588272 0.
0.660091 0.0588169 0.
0.662097 0.0588068 0.
0.664103 0.0587969 0.
0.666109 0.0587871 0.
0.668115 0.0587776 0.
0.67012 0.0587684 0.
0.672126 0.0587591 0.
0.674131 0.0587469 0.
0.676136 0.0587343 0.
0.678141 0.0587215 0.
0.680146 0.0587067 0.
0.682151 0.058692 0.
0.684156 0.0586786 0.
0.68616 0.0586675 0.
0.688165 0.0586564 0.
0.690169 0.0586471 0.
0.692173 0.0586389 0.
0.694177 0.0586307 0.
0.696181 0.0586275 0.
0.698185 0.0586254 0.
0.499822 0.06062 0.
0.501825 0.0606249 0.
0.503829 0.0606301 0.
0.505833 0.0606358 0.
0.507837 0.0606446 0.
0.50984 0.0606534 0.
0.511845 0.0606632 0.
0.513849 0.0606743 0.
0.515854 0.0606853 0.
0.517859 0.0606988 0.
0.519863 0.0607136 0.
0.521868 0.0607284 0.
0.523873 0.0607414 0.
0.525878 0.060754 0.
0.527883 0.0607664 0.
0.529888 0.0607752 0.
0.531893 0.0607841 0.
0.533898 0.0607932 0.
0.535904 0.0608027 0.
0.53791 0.0608121 0.
0.539915 0.0608219 0.
0.541921 0.0608319 0.
0.543927 0.0608419 0.
0.545932 0.0608526 0.
0.547938 0.0608636 0.
0.549943 0.0608746 0.
0.551948 0.0608837 0.
0.553952 0.0608928 0.
0.555957 0.0609011 0.
0.557961 0.0609064 0.
0.559965 0.0609118 0.
0.561969 0.060917 0.
0.563972 0.0609218 0.
0.565976 0.0609267 0.
0.567979 0.060931 0.
0.569982 0.0609349 0.
0.571984 0.0609389 0.
0.573986 0.0609418 0.
0.575988 0.0609446 0.
0.57799 0.0609472 0.
0.579992 0.0609485 0.
0.581993 0.0609498 0.
0.583995 0.0609509 0.
0.585996 0.0609516 0.
0.587997 0.0609523 0.
0.589998 0.0609528 0.
0.591998 0.0609531 0.
0.593999 0.0609534 0.
0.596 0.0609537 0.
0.598 0.0609538 0.
0.6 0.060954 0.
0.602001 0.0609538 0.
0.604002 0.0609537 0.
0.606002 0.0609534 0.
0.608003 0.0609529 0.
0.610004 0.0609524 0.
0.612005 0.0609517 0.
0.614006 0.0609507 0.
0.616007 0.0609497 0.
0.618008 0.0609484 0.
0.62001 0.0609469 0.
0.622012 0.0609454 0.
0.624014 0.0609425 0.
0.626016 0.0609394 0.
0.628018 0.0609362 0.
0.630021 0.0609317 0.
0.632024 0.0609272 0.
0.634027 0.0609224 0.
0.636031 0.060917 0.
0.638035 0.0609116 0.
0.640039 0.0609059 0.
0.642043 0.0609001 0.
0.644048 0.0608942 0.
0.646052 0.0608852 0.
0.648057 0.0608754 0.
0.650062 0.0608656 0.
0.652067 0.0608542 0.
0.654073 0.0608428 0.
0.656078 0.0608316 0.
0.658084 0.0608213 0.
0.66009 0.060811 0.
0.662096 0.0608009 0.
0.664101 0.0607912 0.
0.666107 0.0607814 0.
0.668112 0.0607721 0.
0.670117 0.0607631 0.
0.672122 0.0607541 0.
0.674127 0.0607419 0.
0.676132 0.0607294 0.
0.678137 0.0607167 0.
0.680141 0.060702 0.
0.682146 0.0606872 0.
0.68415 0.0606739 0.
0.686155 0.0606631 0.
0.688159 0.0606522 0.
0.690163 0.0606431 0.
0.692167 0.0606351 0.
0.694171 0.0606271 0.
0.696175 0.060624 0.
0.698178 0.0606219 0.
0.499828 0.0626167 0.
0.501831 0.0626216 0.
0.503834 0.0626267 0.
0.505838 0.0626324 0.
0.507842 0.062641 0.
0.509846 0.0626496 0.
0.51185 0.0626592 0.
0.513854 0.06267 0.
0.515858 0.0626809 0.
0.517863 0.0626943 0.
0.519867 0.0627091 0.
0.521872 0.0627239 0.
0.523877 0.0627368 0.
0.525881 0.0627494 0.
0.527886 0.0627617 0.
0.529891 0.0627704 0.
0.531896 0.0627791 0.
0.533901 0.062788 0.
0.535906 0.0627974 0.
0.537911 0.0628067 0.
0.539917 0.0628164 0.
0.541922 0.0628264 0.
0.543928 0.0628363 0.
0.545933 0.0628472 0.
0.547938 0.0628585 0.
0.549943 0.0628697 0.
0.551948 0.062879 0.
0.553952 0.0628884 0.
0.555957 0.0628969 0.
0.557961 0.0629024 0.
0.559965 0.0629079 0.
0.561968 0.0629132 0.
0.563972 0.0629183 0.
0.565975 0.0629234 0.
0.567978 0.0629279 0.
0.569981 0.0629322 0.
0.571984 0.0629365 0.
0.573986 0.0629396 0.
0.575988 0.0629425 0.
0.57799 0.0629453 0.
0.579991 0.0629467 0.
0.581993 0.0629481 0.
0.583994 0.0629493 0.
0.585995 0.0629502 0.
0.587996 0.062951 0.
0.589997 0.0629516 0.
0.591998 0.062952 0.
0.593999 0.0629524 0.
0.595999 0.0629527 0.
0.598 0.062953 0.
0.6 0.0629532 0.
0.602001 0.0629529 0.
0.604002 0.0629527 0.
0.606002 0.0629524 0.
0.608003 0.0629518 0.
0.610004 0.0629512 0.
0.612005 0.0629503 0.
0.614006 0.0629493 0.
0.616007 0.0629482 0.
0.618009 0.0629467 0.
0.620011 0.0629451 0.
0.622012 0.0629435 0.
0.624014 0.0629403 0.
0.626016 0.0629371 0.
0.628018 0.0629336 0.
0.630021 0.0629287 0.
0.632024 0.0629239 0.
0.634027 0.0629187 0.
0.636031 0.0629131 0.
0.638035 0.0629075 0.
0.640039 0.0629017 0.
0.642043 0.0628958 0.
0.644048 0.0628898 0.
0.646052 0.0628806 0.
0.648057 0.0628706 0.
0.650061 0.0628605 0.
0.652067 0.0628489 0.
0.654072 0.0628373 0.
0.656077 0.0628261 0.
0.658083 0.0628158 0.
0.660088 0.0628055 0.
0.662094 0.0627956 0.
0.664099 0.0627859 0.
0.666104 0.0627763 0.
0.668109 0.0627672 0.
0.670114 0.0627584 0.
0.672119 0.0627495 0.
0.674123 0.0627374 0.
0.676128 0.062725 0.
0.678132 0.0627123 0.
0.680137 0.0626976 0.
0.682141 0.0626829 0.
0.684146 0.0626696 0.
0.68615 0.062659 0.
0.688154 0.0626484 0.
0.690158 0.0626394 0.
0.692162 0.0626315 0.
0.694166 0.0626237 0.
0.696169 0.0626206 0.
0.698172 0.0626186 0.
0.499833 0.0646134 0.
0.501837 0.0646182 0.
0.50384 0.0646233 0.
0.505843 0.0646289 0.
0.507847 0.0646374 0.
0.509851 0.0646458 0.
0.511854 0.0646552 0.
0.513859 0.0646658 0.
0.515863 0.0646765 0.
0.517867 0.0646898 0.
0.519872 0.0647046 0.
0.521876 0.0647193 0.
0.52388 0.0647322 0.
0.525885 0.0647448 0.
0.527889 0.0647571 0.
0.529894 0.0647656 0.
0.531898 0.0647741 0.
0.533903 0.0647829 0.
0.535908 0.0647921 0.
0.537913 0.0648013 0.
0.539918 0.0648109 0.
0.541924 0.0648209 0.
0.543929 0.0648308 0.
0.545934 0.0648419 0.
0.547939 0.0648533 0.
0.549944 0.0648648 0.
0.551948 0.0648744 0.
0.553952 0.064884 0.
0.555956 0.0648928 0.
0.55796 0.0648984 0.
0.559964 0.064904 0.
0.561968 0.0649094 0.
0.563971 0.0649147 0.
0.565975 0.06492 0.
0.567978 0.0649248 0.
0.56998 0.0649294 0.
0.571983 0.064934 0.
0.573985 0.0649373 0.
0.575987 0.0649405 0.
0.577989 0.0649435 0.
0.579991 0.064945 0.
0.581992 0.0649465 0.
0.583994 0.0649478 0.
0.585995 0.0649488 0.
0.587996 0.0649497 0.
0.589997 0.0649504 0.
0.591998 0.0649509 0.
0.593999 0.0649514 0.
0.595999 0.0649518 0.
0.598 0.0649521 0.
0.6 0.0649524 0.
0.602001 0.064952 0.
0.604002 0.0649517 0.
0.606002 0.0649513 0.
0.608003 0.0649506 0.
0.610004 0.0649499 0.
0.612005 0.064949 0.
0.614007 0.0649478 0.
0.616008 0.0649466 0.
0.618009 0.0649451 0.
0.620011 0.0649433 0.
0.622013 0.0649415 0.
0.624015 0.0649382 0.
0.626017 0.0649347 0.
0.628019 0.064931 0.
0.630022 0.0649258 0.
0.632025 0.0649205 0.
0.634028 0.0649151 0.
0.636032 0.0649093 0.
0.638035 0.0649035 0.
0.640039 0.0648975 0.
0.642043 0.0648915 0.
0.644048 0.0648854 0.
0.646052 0.064876 0.
0.648056 0.0648657 0.
0.650061 0.0648554 0.
0.652066 0.0648437 0.
0.654071 0.0648319 0.
0.656076 0.0648205 0.
0.658081 0.0648103 0.
0.660087 0.0648001 0.
0.662092 0.0647902 0.
0.664097 0.0647807 0.
0.666102 0.0647712 0.
0.668106 0.0647623 0.
0.670111 0.0647536 0.
0.672115 0.064745 0.
0.67412 0.0647329 0.
0.676124 0.0647205 0.
0.678128 0.0647078 0.
0.680133 0.0646932 0.
0.682137 0.0646785 0.
0.684141 0.0646654 0.
0.686145 0.0646549 0.
0.688149 0.0646445 0.
0.690153 0.0646357 0.
0.692157 0.064628 0.
0.69416 0.0646203 0.
0.696163 0.0646173 0.
0.698167 0.0646154 0.
0.49984 0.0666103 0.
0.501843 0.0666152 0.
0.503847 0.0666202 0.
0.50585 0.0666258 0.
0.507853 0.0666341 0.
0.509857 0.0666424 0.
0.51186 0.0666516 0.
0.513864 0.0666621 0.
0.515868 0.0666726 0.
0.517872 0.0666859 0.
0.519876 0.0667006 0.
0.52188 0.0667154 0.
0.523884 0.0667282 0.
0.525889 0.0667408 0.
0.527893 0.0667531 0.
0.529897 0.0667614 0.
0.531901 0.0667698 0.
0.533906 0.0667784 0.
0.53591 0.0667874 0.
0.537915 0.0667965 0.
0.53992 0.0668061 0.
0.541925 0.0668159 0.
0.54393 0.0668258 0.
0.545935 0.066837 0.
0.547939 0.0668486 0.
0.549944 0.0668602 0.
0.551948 0.0668701 0.
0.553952 0.06688 0.
0.555956 0.066889 0.
0.55796 0.0668947 0.
0.559964 0.0669003 0.
0.561967 0.0669059 0.
0.563971 0.0669113 0.
0.565974 0.0669167 0.
0.567977 0.0669218 0.
0.569979 0.0669267 0.
0.571982 0.0669315 0.
0.573984 0.066935 0.
0.575986 0.0669383 0.
0.577988 0.0669415 0.
0.57999 0.0669431 0.
0.581992 0.0669447 0.
0.583993 0.0669462 0.
0.585994 0.0669472 0.
0.587996 0.0669483 0.
0.589997 0.0669491 0.
0.591998 0.0669497 0.
0.593999 0.0669503 0.
0.595999 0.0669507 0.
0.598 0.066951 0.
0.6 0.0669513 0.
0.602001 0.066951 0.
0.604002 0.0669506 0.
0.606003 0.0669502 0.
0.608004 0.0669494 0.
0.610005 0.0669486 0.
0.612006 0.0669475 0.
0.614007 0.0669462 0.
0.616009 0.0669449 0.
0.61801 0.0669433 0.
0.620012 0.0669414 0.
0.622014 0.0669395 0.
0.624016 0.066936 0.
0.626018 0.0669322 0.
0.62802 0.0669283 0.
0.630023 0.0669228 0.
0.632026 0.0669172 0.
0.634029 0.0669116 0.
0.636032 0.0669056 0.
0.638036 0.0668997 0.
0.64004 0.0668936 0.
0.642044 0.0668875 0.
0.644048 0.0668814 0.
0.646052 0.0668718 0.
0.648056 0.0668613 0.
0.65006 0.0668507 0.
0.652065 0.0668389 0.
0.65407 0.066827 0.
0.656075 0.0668156 0.
0.65808 0.0668054 0.
0.660085 0.0667953 0.
0.662089 0.0667855 0.
0.664094 0.0667761 0.
0.666099 0.0667667 0.
0.668103 0.066758 0.
0.670107 0.0667495 0.
0.672112 0.066741 0.
0.674116 0.066729 0.
0.67612 0.0667166 0.
0.678123 0.066704 0.
0.680127 0.0666893 0.
0.682132 0.0666747 0.
0.684135 0.0666616 0.
0.686139 0.0666513 0.
0.688143 0.066641 0.
0.690147 0.0666323 0.
0.69215 0.0666248 0.
0.694153 0.0666172 0.
0.696157 0.0666142 0.
0.69816 0.0666123 0.
0.499847 0.0686073 0.
0.50185 0.0686121 0.
0.503853 0.0686171 0.
0.505856 0.0686227 0.
0.50786 0.0686308 0.
0.509863 0.068639 0.
0.511866 0.0686481 0.
0.51387 0.0686584 0.
0.515874 0.0686688 0.
0.517877 0.068682 0.
0.519881 0.0686967 0.
0.521885 0.0687114 0.
0.523889 0.0687243 0.
0.525892 0.0687369 0.
0.527896 0.0687491 0.
0.5299 0.0687573 0.
0.531904 0.0687655 0.
0.533908 0.0687739 0.
0.535913 0.0687829 0.
0.537917 0.0687918 0.
0.539922 0.0688012 0.
0.541926 0.068811 0.
0.543931 0.0688209 0.
0.545935 0.0688322 0.
0.54794 0.0688439 0.
0.549944 0.0688557 0.
0.551948 0.0688658 0.
0.553952 0.068876 0.
0.555956 0.0688853 0.
0.55796 0.068891 0.
0.559963 0.0688967 0.
0.561967 0.0689024 0.
0.56397 0.0689079 0.
0.565973 0.0689135 0.
0.567976 0.0689187 0.
0.569979 0.0689239 0.
0.571981 0.068929 0.
0.573983 0.0689327 0.
0.575986 0.0689362 0.
0.577988 0.0689395 0.
0.579989 0.0689412 0.
0.581991 0.068943 0.
0.583993 0.0689445 0.
0.585994 0.0689457 0.
0.587995 0.0689468 0.
0.589996 0.0689477 0.
0.591997 0.0689484 0.
0.593998 0.0689492 0.
0.595999 0.0689496 0.
0.598 0.0689499 0.
0.6 0.0689503 0.
0.602001 0.0689499 0.
0.604002 0.0689495 0.
0.606003 0.068949 0.
0.608004 0.0689481 0.
0.610005 0.0689472 0.
0.612006 0.0689461 0.
0.614008 0.0689447 0.
0.616009 0.0689433 0.
0.618011 0.0689415 0.
0.620013 0.0689395 0.
0.622014 0.0689375 0.
0.624016 0.0689337 0.
0.626019 0.0689298 0.
0.628021 0.0689256 0.
0.630024 0.0689198 0.
0.632027 0.068914 0.
0.63403 0.0689081 0.
0.636033 0.068902 0.
0.638037 0.0688959 0.
0.64004 0.0688898 0.
0.642044 0.0688837 0.
0.644048 0.0688775 0.
0.646052 0.0688677 0.
0.648056 0.0688568 0.
0.65006 0.068846 0.
0.652064 0.0688341 0.
0.654069 0.0688222 0.
0.656073 0.0688107 0.
0.658078 0.0688006 0.
0.660083 0.0687905 0.
0.662087 0.0687808 0.
0.664091 0.0687716 0.
0.666096 0.0687623 0.
0.6681 0.0687537 0.
0.670104 0.0687454 0.
0.672108 0.0687371 0.
0.674111 0.0687251 0.
0.676115 0.0687128 0.
0.678119 0.0687001 0.
0.680122 0.0686855 0.
0.682126 0.0686709 0.
0.68413 0.0686579 0.
0.686133 0.0686477 0.
0.688137 0.0686375 0.
0.69014 0.068629 0.
0.692143 0.0686216 0.
0.694147 0.0686141 0.
0.69615 0.0686112 0.
0.698153 0.0686093 0.
0.499854 0.0706043 0.
0.501857 0.0706092 0.
0.50386 0.0706142 0.
0.505863 0.0706198 0.
0.507866 0.0706278 0.
0.509869 0.0706358 0.
0.511872 0.0706448 0.
0.513875 0.070655 0.
0.515879 0.0706653 0.
0.517882 0.0706784 0.
0.519886 0.0706931 0.
0.521889 0.0707078 0.
0.523893 0.0707207 0.
0.525896 0.0707333 0.
0.5279 0.0707455 0.
0.529903 0.0707535 0.
0.531907 0.0707616 0.
0.533911 0.0707698 0.
0.535915 0.0707787 0.
0.537919 0.0707875 0.
0.539923 0.0707968 0.
0.541928 0.0708066 0.
0.543932 0.0708163 0.
0.545936 0.0708277 0.
0.54794 0.0708396 0.
0.549945 0.0708515 0.
0.551948 0.0708619 0.
0.553952 0.0708723 0.
0.555956 0.0708818 0.
0.557959 0.0708876 0.
0.559963 0.0708933 0.
0.561966 0.0708991 0.
0.563969 0.0709047 0.
0.565972 0.0709103 0.
0.567975 0.0709158 0.
0.569978 0.0709212 0.
0.57198 0.0709266 0.
0.573983 0.0709304 0.
0.575985 0.0709341 0.
0.577987 0.0709375 0.
0.579989 0.0709394 0.
0.58199 0.0709412 0.
0.583992 0.0709428 0.
0.585993 0.0709441 0.
0.587995 0.0709454 0.
0.589996 0.0709464 0.
0.591997 0.0709472 0.
0.593998 0.070948 0.
0.595999 0.0709485 0.
0.598 0.0709489 0.
0.600001 0.0709493 0.
0.602001 0.0709488 0.
0.604002 0.0709483 0.
0.606003 0.0709478 0.
0.608004 0.0709468 0.
0.610006 0.0709458 0.
0.612007 0.0709446 0.
0.614008 0.0709431 0.
0.61601 0.0709416 0.
0.618011 0.0709397 0.
0.620013 0.0709376 0.
0.622015 0.0709355 0.
0.624017 0.0709315 0.
0.626019 0.0709274 0.
0.628022 0.070923 0.
0.630025 0.0709169 0.
0.632028 0.0709108 0.
0.634031 0.0709047 0.
0.636034 0.0708985 0.
0.638037 0.0708924 0.
0.640041 0.0708862 0.
0.642044 0.07088 0.
0.644048 0.0708738 0.
0.646052 0.0708638 0.
0.648055 0.0708527 0.
0.650059 0.0708417 0.
0.652064 0.0708297 0.
0.654068 0.0708177 0.
0.656072 0.0708062 0.
0.658076 0.0707962 0.
0.660081 0.0707862 0.
0.662085 0.0707766 0.
0.664089 0.0707674 0.
0.666093 0.0707583 0.
0.668097 0.0707499 0.
0.6701 0.0707418 0.
0.672104 0.0707336 0.
0.674107 0.0707216 0.
0.676111 0.0707093 0.
0.678114 0.0706966 0.
0.680118 0.070682 0.
0.682121 0.0706674 0.
0.684124 0.0706544 0.
0.686128 0.0706444 0.
0.688131 0.0706343 0.
0.690134 0.0706258 0.
0.692137 0.0706185 0.
0.69414 0.0706112 0.
0.696143 0.0706083 0.
0.698146 0.0706064 0.
0.499859 0.0726014 0.
0.501862 0.0726064 0.
0.503865 0.0726114 0.
0.505868 0.072617 0.
0.507871 0.072625 0.
0.509874 0.0726329 0.
0.511877 0.0726418 0.
0.51388 0.0726519 0.
0.515883 0.0726621 0.
0.517887 0.0726752 0.
0.51989 0.0726899 0.
0.521893 0.0727046 0.
0.523896 0.0727175 0.
0.5259 0.0727302 0.
0.527903 0.0727424 0.
0.529906 0.0727503 0.
0.53191 0.0727582 0.
0.533913 0.0727663 0.
0.535917 0.072775 0.
0.537921 0.0727837 0.
0.539925 0.0727929 0.
0.541929 0.0728026 0.
0.543933 0.0728122 0.
0.545937 0.0728236 0.
0.547941 0.0728356 0.
0.549945 0.0728476 0.
0.551949 0.0728583 0.
0.553952 0.0728689 0.
0.555956 0.0728785 0.
0.557959 0.0728844 0.
0.559962 0.0728902 0.
0.561965 0.0728959 0.
0.563968 0.0729016 0.
0.565971 0.0729073 0.
0.567974 0.0729129 0.
0.569977 0.0729185 0.
0.571979 0.0729241 0.
0.573982 0.0729281 0.
0.575984 0.0729319 0.
0.577986 0.0729355 0.
0.579988 0.0729375 0.
0.58199 0.0729394 0.
0.583991 0.0729411 0.
0.585993 0.0729425 0.
0.587994 0.0729439 0.
0.589996 0.072945 0.
0.591997 0.0729459 0.
0.593998 0.0729468 0.
0.595999 0.0729474 0.
0.598 0.0729478 0.
0.600001 0.0729483 0.
0.602002 0.0729477 0.
0.604003 0.0729471 0.
0.606004 0.0729465 0.
0.608005 0.0729454 0.
0.610006 0.0729444 0.
0.612008 0.0729431 0.
0.614009 0.0729415 0.
0.616011 0.0729399 0.
0.618012 0.0729379 0.
0.620014 0.0729357 0.
0.622016 0.0729335 0.
0.624018 0.0729293 0.
0.62602 0.072925 0.
0.628023 0.0729203 0.
0.630026 0.072914 0.
0.632028 0.0729077 0.
0.634031 0.0729015 0.
0.636035 0.0728953 0.
0.638038 0.0728891 0.
0.640041 0.0728829 0.
0.642045 0.0728767 0.
0.644048 0.0728705 0.
0.646052 0.0728603 0.
0.648055 0.072849 0.
0.650059 0.0728377 0.
0.652063 0.0728257 0.
0.654067 0.0728137 0.
0.656071 0.0728022 0.
0.658075 0.0727923 0.
0.660079 0.0727823 0.
0.662083 0.0727728 0.
0.664087 0.0727638 0.
0.66609 0.0727548 0.
0.668094 0.0727465 0.
0.670097 0.0727386 0.
0.6721 0.0727306 0.
0.674104 0.0727186 0.
0.676107 0.0727061 0.
0.67811 0.0726934 0.
0.680113 0.0726788 0.
0.682117 0.0726642 0.
0.68412 0.0726513 0.
0.686123 0.0726413 0.
0.688126 0.0726314 0.
0.690129 0.072623 0.
0.692132 0.0726157 0.
0.694135 0.0726084 0.
0.696138 0.0726055 0.
0.698141 0.0726036 0.
0.499865 0.0745986 0.
0.501868 0.0746035 0.
0.503871 0.0746087 0.
0.505873 0.0746143 0.
0.507876 0.0746222 0.
0.509879 0.0746301 0.
0.511882 0.0746388 0.
0.513885 0.0746489 0.
0.515888 0.0746589 0.
0.517891 0.074672 0.
0.519894 0.0746867 0.
0.521897 0.0747014 0.
0.5239 0.0747144 0.
0.525903 0.074727 0.
0.527906 0.0747393 0.
0.529909 0.074747 0.
0.531912 0.0747548 0.
0.533916 0.0747628 0.
0.535919 0.0747714 0.
0.537923 0.0747799 0.
0.539926 0.074789 0.
0.54193 0.0747986 0.
0.543934 0.0748081 0.
0.545938 0.0748196 0.
0.547942 0.0748317 0.
0.549945 0.0748438 0.
0.551949 0.0748547 0.
0.553952 0.0748655 0.
0.555955 0.0748753 0.
0.557958 0.0748811 0.
0.559961 0.074887 0.
0.561964 0.0748928 0.
0.563967 0.0748986 0.
0.56597 0.0749043 0.
0.567973 0.0749101 0.
0.569976 0.0749159 0.
0.571978 0.0749216 0.
0.573981 0.0749258 0.
0.575983 0.0749298 0.
0.577985 0.0749335 0.
0.579987 0.0749356 0.
0.581989 0.0749376 0.
0.58399 0.0749394 0.
0.585992 0.0749409 0.
0.587994 0.0749424 0.
0.589995 0.0749436 0.
0.591996 0.0749446 0.
0.593997 0.0749456 0.
0.595999 0.0749462 0.
0.598 0.0749467 0.
0.600001 0.0749473 0.
0.602002 0.0749466 0.
0.604003 0.0749459 0.
0.606004 0.0749452 0.
0.608005 0.074944 0.
0.610007 0.0749429 0.
0.612008 0.0749415 0.
0.61401 0.0749398 0.
0.616011 0.0749381 0.
0.618013 0.0749361 0.
0.620015 0.0749338 0.
0.622017 0.0749315 0.
0.624019 0.0749271 0.
0.626021 0.0749225 0.
0.628024 0.0749177 0.
0.630027 0.0749112 0.
0.632029 0.0749047 0.
0.634032 0.0748982 0.
0.636035 0.074892 0.
0.638039 0.0748857 0.
0.640042 0.0748795 0.
0.642045 0.0748733 0.
0.644048 0.0748672 0.
0.646051 0.0748568 0.
0.648055 0.0748453 0.
0.650058 0.0748338 0.
0.652062 0.0748218 0.
0.654066 0.0748097 0.
0.65607 0.0747982 0.
0.658073 0.0747884 0.
0.660077 0.0747785 0.
0.662081 0.0747691 0.
0.664084 0.0747602 0.
0.666088 0.0747514 0.
0.668091 0.0747432 0.
0.670094 0.0747354 0.
0.672097 0.0747276 0.
0.6741 0.0747155 0.
0.676103 0.074703 0.
0.678106 0.0746903 0.
0.680109 0.0746757 0.
0.682112 0.0746611 0.
0.684115 0.0746482 0.
0.686118 0.0746383 0.
0.688121 0.0746284 0.
0.690124 0.0746201 0.
0.692127 0.0746129 0.
0.69413 0.0746056 0.
0.696132 0.0746027 0.
0.698135 0.0746009 0.
0.499872 0.0765959 0.
0.501875 0.076601 0.
0.503877 0.0766063 0.
0.50588 0.076612 0.
0.507882 0.0766199 0.
0.509885 0.0766277 0.
0.511888 0.0766364 0.
0.51389 0.0766463 0.
0.515893 0.0766563 0.
0.517896 0.0766693 0.
0.519899 0.0766841 0.
0.521902 0.0766988 0.
0.523904 0.0767118 0.
0.525907 0.0767245 0.
0.52791 0.0767367 0.
0.529912 0.0767444 0.
0.531915 0.076752 0.
0.533918 0.0767599 0.
0.535921 0.0767683 0.
0.537924 0.0767768 0.
0.539928 0.0767857 0.
0.541931 0.0767952 0.
0.543935 0.0768046 0.
0.545938 0.0768161 0.
0.547942 0.0768283 0.
0.549945 0.0768404 0.
0.551949 0.0768515 0.
0.553952 0.0768625 0.
0.555955 0.0768724 0.
0.557958 0.0768783 0.
0.559961 0.0768841 0.
0.561963 0.0768899 0.
0.563966 0.0768957 0.
0.565969 0.0769015 0.
0.567972 0.0769073 0.
0.569975 0.0769132 0.
0.571977 0.0769191 0.
0.57398 0.0769234 0.
0.575982 0.0769275 0.
0.577984 0.0769314 0.
0.579986 0.0769335 0.
0.581988 0.0769357 0.
0.58399 0.0769376 0.
0.585991 0.0769391 0.
0.587993 0.0769407 0.
0.589994 0.076942 0.
0.591996 0.0769431 0.
0.593997 0.0769442 0.
0.595998 0.0769448 0.
0.597999 0.0769453 0.
0.600001 0.0769458 0.
0.602002 0.0769451 0.
0.604003 0.0769444 0.
0.606004 0.0769436 0.
0.608006 0.0769424 0.
0.610007 0.0769413 0.
0.612009 0.0769398 0.
0.614011 0.0769381 0.
0.616012 0.0769363 0.
0.618014 0.0769342 0.
0.620016 0.0769318 0.
0.622018 0.0769294 0.
0.62402 0.0769248 0.
0.626023 0.07692 0.
0.628025 0.076915 0.
0.630028 0.0769084 0.
0.632031 0.0769017 0.
0.634033 0.0768952 0.
0.636036 0.0768889 0.
0.638039 0.0768827 0.
0.640042 0.0768765 0.
0.642045 0.0768704 0.
0.644048 0.0768642 0.
0.646052 0.0768537 0.
0.648055 0.076842 0.
0.650058 0.0768303 0.
0.652062 0.0768183 0.
0.654065 0.0768063 0.
0.656069 0.0767949 0.
0.658072 0.0767851 0.
0.660075 0.0767753 0.
0.662079 0.076766 0.
0.664082 0.0767572 0.
0.666085 0.0767485 0.
0.668088 0.0767405 0.
0.67009 0.0767328 0.
0.672093 0.0767251 0.
0.674096 0.076713 0.
0.676098 0.0767005 0.
0.678101 0.0766877 0.
0.680104 0.0766731 0.
0.682107 0.0766584 0.
0.684109 0.0766455 0.
0.686112 0.0766358 0.
0.688115 0.076626 0.
0.690118 0.0766177 0.
0.69212 0.0766105 0.
0.694123 0.0766033 0.
0.696125 0.0766003 0.
0.698128 0.0765984 0.
0.49988 0.0785933 0.
0.501882 0.0785986 0.
0.503884 0.078604 0.
0.505887 0.0786098 0.
0.507889 0.0786176 0.
0.509891 0.0786254 0.
0.511894 0.078634 0.
0.513896 0.0786439 0.
0.515899 0.0786537 0.
0.517901 0.0786667 0.
0.519903 0.0786815 0.
0.521906 0.0786963 0.
0.523908 0.0787093 0.
0.525911 0.078722 0.
0.527913 0.0787342 0.
0.529915 0.0787417 0.
0.531918 0.0787492 0.
0.533921 0.078757 0.
0.535923 0.0787653 0.
0.537926 0.0787736 0.
0.539929 0.0787825 0.
0.541932 0.0787918 0.
0.543936 0.0788011 0.
0.545939 0.0788126 0.
0.547942 0.0788249 0.
0.549945 0.0788371 0.
0.551948 0.0788483 0.
0.553951 0.0788595 0.
0.555954 0.0788696 0.
0.557957 0.0788754 0.
0.55996 0.0788812 0.
0.561963 0.078887 0.
0.563965 0.0788928 0.
0.565968 0.0788986 0.
0.567971 0.0789045 0.
0.569973 0.0789106 0.
0.571976 0.0789166 0.
0.573978 0.078921 0.
0.575981 0.0789253 0.
0.577983 0.0789294 0.
0.579985 0.0789315 0.
0.581987 0.0789337 0.
0.583989 0.0789357 0.
0.58599 0.0789374 0.
0.587992 0.0789391 0.
0.589994 0.0789404 0.
0.591995 0.0789416 0.
0.593997 0.0789427 0.
0.595998 0.0789434 0.
0.597999 0.0789438 0.
0.600001 0.0789443 0.
0.602002 0.0789436 0.
0.604003 0.0789429 0.
0.606005 0.0789421 0.
0.608006 0.0789408 0.
0.610008 0.0789396 0.
0.61201 0.0789381 0.
0.614011 0.0789363 0.
0.616013 0.0789345 0.
0.618015 0.0789323 0.
0.620017 0.0789298 0.
0.622019 0.0789273 0.
0.624021 0.0789225 0.
0.626024 0.0789175 0.
0.628026 0.0789123 0.
0.630029 0.0789055 0.
0.632032 0.0788988 0.
0.634035 0.0788922 0.
0.636037 0.0788859 0.
0.63804 0.0788797 0.
0.640043 0.0788735 0.
0.642046 0.0788674 0.
0.644049 0.0788613 0.
0.646052 0.0788506 0.
0.648055 0.0788388 0.
0.650058 0.0788269 0.
0.652061 0.078815 0.
0.654064 0.078803 0.
0.656067 0.0787915 0.
0.658071 0.0787818 0.
0.660074 0.0787721 0.
0.662077 0.0787629 0.
0.664079 0.0787543 0.
0.666082 0.0787457 0.
0.668085 0.0787378 0.
0.670087 0.0787302 0.
0.672089 0.0787226 0.
0.674092 0.0787105 0.
0.676094 0.078698 0.
0.678096 0.0786852 0.
0.680099 0.0786705 0.
0.682101 0.0786559 0.
0.684104 0.078643 0.
0.686106 0.0786333 0.
0.688109 0.0786236 0.
0.690111 0.0786154 0.
0.692113 0.0786082 0.
0.694116 0.0786009 0.
0.696118 0.0785979 0.
0.698121 0.0785959 0.
0.499886 0.0805908 0.
0.501889 0.0805963 0.
0.503891 0.0806018 0.
0.505893 0.0806078 0.
0.507895 0.0806156 0.
0.509897 0.0806233 0.
0.511899 0.0806319 0.
0.513901 0.0806417 0.
0.515903 0.0806514 0.
0.517906 0.0806645 0.
0.519908 0.0806793 0.
0.52191 0.0806942 0.
0.523912 0.0807071 0.
0.525914 0.0807199 0.
0.527916 0.0807321 0.
0.529918 0.0807395 0.
0.53192 0.0807469 0.
0.533923 0.0807545 0.
0.535925 0.0807627 0.
0.537928 0.0807709 0.
0.539931 0.0807796 0.
0.541933 0.0807888 0.
0.543936 0.080798 0.
0.545939 0.0808095 0.
0.547942 0.0808218 0.
0.549945 0.0808341 0.
0.551948 0.0808454 0.
0.553951 0.0808568 0.
0.555954 0.0808669 0.
0.557956 0.0808727 0.
0.559959 0.0808785 0.
0.561962 0.0808843 0.
0.563964 0.0808901 0.
0.565967 0.0808958 0.
0.56797 0.0809018 0.
0.569972 0.0809079 0.
0.571975 0.080914 0.
0.573977 0.0809187 0.
0.57598 0.0809231 0.
0.577982 0.0809273 0.
0.579984 0.0809295 0.
0.581986 0.0809318 0.
0.583988 0.0809339 0.
0.58599 0.0809356 0.
0.587991 0.0809373 0.
0.589993 0.0809388 0.
0.591995 0.08094 0.
0.593996 0.0809412 0.
0.595998 0.0809418 0.
0.597999 0.0809423 0.
0.600001 0.0809428 0.
0.602002 0.0809421 0.
0.604004 0.0809413 0.
0.606005 0.0809405 0.
0.608007 0.0809392 0.
0.610009 0.0809379 0.
0.61201 0.0809363 0.
0.614012 0.0809345 0.
0.616014 0.0809326 0.
0.618016 0.0809303 0.
0.620018 0.0809277 0.
0.62202 0.0809252 0.
0.624023 0.0809202 0.
0.626025 0.080915 0.
0.628027 0.0809096 0.
0.63003 0.0809028 0.
0.632033 0.0808959 0.
0.634036 0.0808893 0.
0.636039 0.0808831 0.
0.638041 0.0808768 0.
0.640044 0.0808707 0.
0.642047 0.0808646 0.
0.644049 0.0808586 0.
0.646052 0.0808478 0.
0.648055 0.0808359 0.
0.650058 0.0808239 0.
0.652061 0.0808119 0.
0.654064 0.0808 0.
0.656066 0.0807886 0.
0.658069 0.080779 0.
0.660072 0.0807694 0.
0.662075 0.0807603 0.
0.664077 0.0807518 0.
0.66608 0.0807433 0.
0.668082 0.0807355 0.
0.670084 0.080728 0.
0.672086 0.0807205 0.
0.674088 0.0807084 0.
0.67609 0.0806959 0.
0.678092 0.0806831 0.
0.680094 0.0806684 0.
0.682096 0.0806536 0.
0.684099 0.0806407 0.
0.686101 0.0806311 0.
0.688103 0.0806214 0.
0.690105 0.0806132 0.
0.692107 0.080606 0.
0.694109 0.0805988 0.
0.696112 0.0805957 0.
0.698114 0.0805936 0.
0.499892 0.0825886 0.
0.501894 0.0825942 0.
0.503896 0.0825999 0.
0.505898 0.082606 0.
0.5079 0.0826138 0.
0.509902 0.0826216 0.
0.511904 0.0826302 0.
0.513906 0.0826399 0.
0.515908 0.0826496 0.
0.517909 0.0826627 0.
0.519911 0.0826776 0.
0.521913 0.0826925 0.
0.523915 0.0827055 0.
0.525917 0.0827182 0.
0.527919 0.0827304 0.
0.529921 0.0827377 0.
0.531922 0.082745 0.
0.533925 0.0827525 0.
0.535927 0.0827606 0.
0.537929 0.0827687 0.
0.539932 0.0827773 0.
0.541934 0.0827863 0.
0.543937 0.0827954 0.
0.54594 0.0828069 0.
0.547942 0.0828192 0.
0.549945 0.0828314 0.
0.551948 0.0828429 0.
0.55395 0.0828543 0.
0.555953 0.0828645 0.
0.557955 0.0828702 0.
0.559958 0.082876 0.
0.561961 0.0828817 0.
0.563963 0.0828874 0.
0.565966 0.0828931 0.
0.567968 0.0828992 0.
0.569971 0.0829053 0.
0.571974 0.0829115 0.
0.573976 0.0829162 0.
0.575978 0.0829208 0.
0.577981 0.0829251 0.
0.579983 0.0829274 0.
0.581985 0.0829297 0.
0.583987 0.0829319 0.
0.585989 0.0829337 0.
0.587991 0.0829355 0.
0.589992 0.082937 0.
0.591994 0.0829382 0.
0.593996 0.0829395 0.
0.595997 0.0829402 0.
0.597999 0.0829407 0.
0.600001 0.0829412 0.
0.602002 0.0829404 0.
0.604004 0.0829396 0.
0.606006 0.0829387 0.
0.608007 0.0829373 0.
0.610009 0.082936 0.
0.612011 0.0829344 0.
0.614013 0.0829325 0.
0.616015 0.0829306 0.
0.618017 0.0829282 0.
0.620019 0.0829256 0.
0.622021 0.082923 0.
0.624024 0.0829179 0.
0.626026 0.0829125 0.
0.628029 0.0829069 0.
0.630031 0.0829 0.
0.632034 0.0828931 0.
0.634037 0.0828865 0.
0.63604 0.0828803 0.
0.638042 0.0828742 0.
0.640045 0.0828681 0.
0.642047 0.0828621 0.
0.64405 0.0828561 0.
0.646053 0.0828453 0.
0.648055 0.0828333 0.
0.650058 0.0828213 0.
0.65206 0.0828093 0.
0.654063 0.0827974 0.
0.656066 0.0827861 0.
0.658068 0.0827766 0.
0.660071 0.0827671 0.
0.662073 0.0827581 0.
0.664075 0.0827497 0.
0.666078 0.0827413 0.
0.66808 0.0827336 0.
0.670081 0.0827263 0.
0.672083 0.0827189 0.
0.674085 0.0827068 0.
0.676087 0.0826942 0.
0.678089 0.0826814 0.
0.68009 0.0826666 0.
0.682092 0.0826518 0.
0.684094 0.0826389 0.
0.686096 0.0826293 0.
0.688098 0.0826196 0.
0.6901 0.0826114 0.
0.692102 0.0826042 0.
0.694104 0.0825969 0.
0.696106 0.0825937 0.
0.698109 0.0825915 0.
0.499897 0.0845863 0.
0.501899 0.0845921 0.
0.503901 0.084598 0.
0.505903 0.0846043 0.
0.507905 0.0846121 0.
0.509907 0.0846198 0.
0.511908 0.0846284 0.
0.51391 0.0846381 0.
0.515912 0.0846478 0.
0.517913 0.0846609 0.
0.519915 0.0846759 0.
0.521917 0.0846908 0.
0.523918 0.0847038 0.
0.52592 0.0847166 0.
0.527921 0.0847287 0.
0.529923 0.0847359 0.
0.531925 0.084743 0.
0.533926 0.0847505 0.
0.535928 0.0847584 0.
0.53793 0.0847664 0.
0.539933 0.0847749 0.
0.541935 0.0847838 0.
0.543937 0.0847927 0.
0.54594 0.0848042 0.
0.547942 0.0848165 0.
0.549945 0.0848288 0.
0.551947 0.0848403 0.
0.55395 0.0848518 0.
0.555952 0.084862 0.
0.557955 0.0848677 0.
0.559957 0.0848734 0.
0.56196 0.0848791 0.
0.563962 0.0848848 0.
0.565965 0.0848905 0.
0.567967 0.0848965 0.
0.56997 0.0849027 0.
0.571973 0.0849089 0.
0.573975 0.0849138 0.
0.575977 0.0849185 0.
0.57798 0.084923 0.
0.579982 0.0849253 0.
0.581984 0.0849277 0.
0.583986 0.0849299 0.
0.585988 0.0849318 0.
0.58799 0.0849336 0.
0.589992 0.0849352 0.
0.591994 0.0849365 0.
0.593995 0.0849378 0.
0.595997 0.0849385 0.
0.597999 0.084939 0.
0.600001 0.0849395 0.
0.602002 0.0849387 0.
0.604004 0.0849378 0.
0.606006 0.0849369 0.
0.608008 0.0849355 0.
0.61001 0.0849341 0.
0.612012 0.0849325 0.
0.614014 0.0849305 0.
0.616016 0.0849286 0.
0.618018 0.0849261 0.
0.62002 0.0849235 0.
0.622023 0.0849208 0.
0.624025 0.0849155 0.
0.626027 0.0849099 0.
0.62803 0.0849042 0.
0.630033 0.0848973 0.
0.632035 0.0848903 0.
0.634038 0.0848837 0.
0.636041 0.0848776 0.
0.638043 0.0848715 0.
0.640046 0.0848655 0.
0.642048 0.0848595 0.
0.644051 0.0848536 0.
0.646053 0.0848428 0.
0.648055 0.0848307 0.
0.650058 0.0848187 0.
0.65206 0.0848068 0.
0.654063 0.0847949 0.
0.656065 0.0847836 0.
0.658067 0.0847742 0.
0.66007 0.0847648 0.
0.662072 0.0847559 0.
0.664074 0.0847476 0.
0.666076 0.0847394 0.
0.668077 0.0847318 0.
0.670079 0.0847245 0.
0.67208 0.0847173 0.
0.674082 0.0847052 0.
0.676083 0.0846926 0.
0.678085 0.0846797 0.
0.680087 0.0846649 0.
0.682088 0.0846501 0.
0.68409 0.0846371 0.
0.686092 0.0846274 0.
0.688094 0.0846178 0.
0.690095 0.0846096 0.
0.692097 0.0846023 0.
0.694099 0.084595 0.
0.696101 0.0845917 0.
0.698103 0.0845895 0.
0.499905 0.0865845 0.
0.501907 0.0865905 0.
0.503908 0.0865967 0.
0.50591 0.0866032 0.
0.507911 0.0866111 0.
0.509913 0.0866189 0.
0.511914 0.0866275 0.
0.513915 0.0866372 0.
0.515916 0.0866468 0.
0.517918 0.08666 0.
0.519919 0.086675 0.
0.52192 0.0866901 0.
0.523921 0.086703 0.
0.525922 0.0867156 0.
0.527923 0.0867277 0.
0.529925 0.0867347 0.
0.531926 0.0867417 0.
0.533928 0.086749 0.
0.535929 0.0867568 0.
0.537931 0.0867647 0.
0.539933 0.086773 0.
0.541935 0.0867818 0.
0.543937 0.0867906 0.
0.54594 0.086802 0.
0.547942 0.0868143 0.
0.549944 0.0868265 0.
0.551946 0.086838 0.
0.553949 0.0868495 0.
0.555951 0.0868597 0.
0.557953 0.0868653 0.
0.559956 0.086871 0.
0.561958 0.0868766 0.
0.563961 0.0868822 0.
0.565963 0.0868878 0.
0.567966 0.0868939 0.
0.569969 0.0869001 0.
0.571971 0.0869063 0.
0.573974 0.0869113 0.
0.575976 0.0869161 0.
0.577978 0.0869207 0.
0.579981 0.0869231 0.
0.581983 0.0869255 0.
0.583985 0.0869277 0.
0.585987 0.0869296 0.
0.587989 0.0869315 0.
0.589991 0.086933 0.
0.591993 0.0869344 0.
0.593995 0.0869358 0.
0.595997 0.0869365 0.
0.597999 0.086937 0.
0.600001 0.0869375 0.
0.602002 0.0869366 0.
0.604004 0.0869358 0.
0.606006 0.0869348 0.
0.608008 0.0869334 0.
0.61001 0.086932 0.
0.612013 0.0869303 0.
0.614015 0.0869283 0.
0.616017 0.0869263 0.
0.618019 0.0869238 0.
0.620022 0.0869211 0.
0.622024 0.0869184 0.
0.624026 0.086913 0.
0.626029 0.0869074 0.
0.628031 0.0869015 0.
0.630034 0.0868946 0.
0.632037 0.0868877 0.
0.634039 0.0868811 0.
0.636042 0.086875 0.
0.638044 0.086869 0.
0.640047 0.0868631 0.
0.642049 0.0868572 0.
0.644052 0.0868513 0.
0.646054 0.0868406 0.
0.648056 0.0868285 0.
0.650058 0.0868165 0.
0.65206 0.0868047 0.
0.654063 0.0867928 0.
0.656065 0.0867816 0.
0.658067 0.0867723 0.
0.660069 0.086763 0.
0.662071 0.0867543 0.
0.664072 0.0867462 0.
0.666074 0.086738 0.
0.668075 0.0867306 0.
0.670077 0.0867234 0.
0.672078 0.0867162 0.
0.674079 0.0867042 0.
0.67608 0.0866917 0.
0.678081 0.0866789 0.
0.680082 0.086664 0.
0.682084 0.0866491 0.
0.684085 0.086636 0.
0.686086 0.0866264 0.
0.688088 0.0866168 0.
0.690089 0.0866085 0.
0.692091 0.0866011 0.
0.694092 0.0865937 0.
0.696094 0.0865903 0.
0.698096 0.0865879 0.
0.499913 0.0885826 0.
0.501914 0.088589 0.
0.503916 0.0885955 0.
0.505917 0.0886023 0.
0.507918 0.0886102 0.
0.509919 0.088618 0.
0.51192 0.0886267 0.
0.51392 0.0886363 0.
0.515921 0.0886459 0.
0.517922 0.0886591 0.
0.519923 0.0886743 0.
0.521924 0.0886894 0.
0.523924 0.0887022 0.
0.525925 0.0887147 0.
0.527926 0.0887266 0.
0.529927 0.0887335 0.
0.531928 0.0887404 0.
0.533929 0.0887476 0.
0.53593 0.0887553 0.
0.537932 0.088763 0.
0.539933 0.0887712 0.
0.541935 0.0887798 0.
0.543937 0.0887885 0.
0.545939 0.0887998 0.
0.547941 0.0888121 0.
0.549943 0.0888243 0.
0.551945 0.0888358 0.
0.553948 0.0888472 0.
0.55595 0.0888574 0.
0.557952 0.088863 0.
0.559955 0.0888685 0.
0.561957 0.0888741 0.
0.56396 0.0888797 0.
0.565962 0.0888852 0.
0.567965 0.0888912 0.
0.569967 0.0888975 0.
0.57197 0.0889037 0.
0.573972 0.0889088 0.
0.575975 0.0889138 0.
0.577977 0.0889185 0.
0.579979 0.0889209 0.
0.581982 0.0889233 0.
0.583984 0.0889255 0.
0.585986 0.0889274 0.
0.587988 0.0889293 0.
0.58999 0.0889309 0.
0.591993 0.0889323 0.
0.593995 0.0889337 0.
0.595997 0.0889344 0.
0.597999 0.0889349 0.
0.600001 0.0889354 0.
0.602003 0.0889346 0.
0.604005 0.0889337 0.
0.606007 0.0889328 0.
0.608009 0.0889313 0.
0.610011 0.0889298 0.
0.612013 0.0889281 0.
0.614016 0.088926 0.
0.616018 0.088924 0.
0.61802 0.0889215 0.
0.620023 0.0889188 0.
0.622025 0.088916 0.
0.624028 0.0889106 0.
0.62603 0.0889048 0.
0.628033 0.0888989 0.
0.630035 0.088892 0.
0.632038 0.088885 0.
0.634041 0.0888784 0.
0.636043 0.0888725 0.
0.638046 0.0888665 0.
0.640048 0.0888607 0.
0.64205 0.0888548 0.
0.644053 0.088849 0.
0.646055 0.0888383 0.
0.648057 0.0888263 0.
0.650059 0.0888143 0.
0.652061 0.0888026 0.
0.654063 0.0887908 0.
0.656065 0.0887797 0.
0.658066 0.0887705 0.
0.660068 0.0887613 0.
0.66207 0.0887527 0.
0.664071 0.0887447 0.
0.666072 0.0887367 0.
0.668073 0.0887294 0.
0.670074 0.0887223 0.
0.672075 0.0887153 0.
0.674076 0.0887034 0.
0.676077 0.088691 0.
0.678077 0.0886782 0.
0.680078 0.0886632 0.
0.682079 0.0886482 0.
0.68408 0.0886351 0.
0.68608 0.0886255 0.
0.688081 0.0886158 0.
0.690082 0.0886075 0.
0.692084 0.0886 0.
0.694085 0.0885926 0.
0.696086 0.088589 0.
0.698088 0.0885863 0.
0.49992 0.0905812 0.
0.501921 0.0905879 0.
0.503922 0.0905947 0.
0.505923 0.0906017 0.
0.507923 0.0906096 0.
0.509924 0.0906176 0.
0.511924 0.0906262 0.
0.513925 0.0906359 0.
0.515925 0.0906455 0.
0.517926 0.0906587 0.
0.519926 0.0906739 0.
0.521926 0.0906891 0.
0.523927 0.0907018 0.
0.525927 0.0907141 0.
0.527927 0.0907259 0.
0.529928 0.0907327 0.
0.531929 0.0907394 0.
0.53393 0.0907465 0.
0.535931 0.090754 0.
0.537932 0.0907616 0.
0.539934 0.0907697 0.
0.541935 0.0907782 0.
0.543937 0.0907866 0.
0.545939 0.0907979 0.
0.547941 0.0908101 0.
0.549942 0.0908223 0.
0.551945 0.0908337 0.
0.553947 0.090845 0.
0.555949 0.0908552 0.
0.557951 0.0908607 0.
0.559953 0.0908662 0.
0.561956 0.0908717 0.
0.563958 0.0908772 0.
0.565961 0.0908826 0.
0.567963 0.0908886 0.
0.569966 0.0908949 0.
0.571969 0.0909011 0.
0.573971 0.0909063 0.
0.575974 0.0909114 0.
0.577976 0.0909162 0.
0.579978 0.0909186 0.
0.581981 0.090921 0.
0.583983 0.0909233 0.
0.585985 0.0909252 0.
0.587987 0.0909271 0.
0.58999 0.0909287 0.
0.591992 0.0909301 0.
0.593994 0.0909316 0.
0.595996 0.0909323 0.
0.597998 0.0909328 0.
0.600001 0.0909333 0.
0.602003 0.0909325 0.
0.604005 0.0909316 0.
0.606007 0.0909306 0.
0.608009 0.0909291 0.
0.610012 0.0909275 0.
0.612014 0.0909258 0.
0.614016 0.0909237 0.
0.616019 0.0909216 0.
0.618021 0.0909191 0.
0.620024 0.0909163 0.
0.622026 0.0909136 0.
0.624029 0.090908 0.
0.626031 0.0909022 0.
0.628034 0.0908962 0.
0.630037 0.0908893 0.
0.632039 0.0908824 0.
0.634042 0.0908759 0.
0.636044 0.09087 0.
0.638047 0.0908641 0.
0.640049 0.0908583 0.
0.642051 0.0908526 0.
0.644054 0.0908469 0.
0.646056 0.0908362 0.
0.648058 0.0908243 0.
0.65006 0.0908124 0.
0.652061 0.0908007 0.
0.654063 0.0907891 0.
0.656065 0.090778 0.
0.658066 0.090769 0.
0.660068 0.0907599 0.
0.662069 0.0907514 0.
0.66407 0.0907436 0.
0.666071 0.0907357 0.
0.668072 0.0907285 0.
0.670073 0.0907216 0.
0.672073 0.0907146 0.
0.674074 0.0907029 0.
0.676074 0.0906906 0.
0.678074 0.090678 0.
0.680074 0.0906629 0.
0.682075 0.0906478 0.
0.684075 0.0906346 0.
0.686076 0.0906249 0.
0.688076 0.0906153 0.
0.690077 0.0906068 0.
0.692078 0.0905993 0.
0.694078 0.0905917 0.
0.69608 0.090588 0.
0.698081 0.0905852 0.
0.499924 0.0925804 0.
0.501925 0.0925874 0.
0.503926 0.0925944 0.
0.505927 0.0926017 0.
0.507927 0.0926097 0.
0.509927 0.0926177 0.
0.511927 0.0926264 0.
0.513928 0.092636 0.
0.515928 0.0926456 0.
0.517928 0.0926589 0.
0.519928 0.0926742 0.
0.521928 0.0926894 0.
0.523928 0.0927019 0.
0.525928 0.092714 0.
0.527928 0.0927256 0.
0.529929 0.0927322 0.
0.531929 0.0927388 0.
0.53393 0.0927457 0.
0.535931 0.0927531 0.
0.537932 0.0927606 0.
0.539933 0.0927685 0.
0.541935 0.0927768 0.
0.543936 0.0927851 0.
0.545938 0.0927963 0.
0.54794 0.0928084 0.
0.549942 0.0928205 0.
0.551944 0.0928318 0.
0.553946 0.092843 0.
0.555948 0.092853 0.
0.55795 0.0928584 0.
0.559952 0.0928638 0.
0.561955 0.0928693 0.
0.563957 0.0928747 0.
0.56596 0.0928801 0.
0.567962 0.092886 0.
0.569965 0.0928923 0.
0.571967 0.0928985 0.
0.57397 0.0929038 0.
0.575972 0.092909 0.
0.577975 0.0929139 0.
0.579977 0.0929163 0.
0.58198 0.0929187 0.
0.583982 0.0929209 0.
0.585984 0.0929228 0.
0.587987 0.0929247 0.
0.589989 0.0929263 0.
0.591991 0.0929278 0.
0.593994 0.0929292 0.
0.595996 0.09293 0.
0.597998 0.0929305 0.
0.600001 0.0929311 0.
0.602003 0.0929302 0.
0.604005 0.0929293 0.
0.606007 0.0929283 0.
0.60801 0.0929267 0.
0.610012 0.0929252 0.
0.612015 0.0929233 0.
0.614017 0.0929212 0.
0.61602 0.0929191 0.
0.618022 0.0929166 0.
0.620025 0.0929138 0.
0.622027 0.092911 0.
0.62403 0.0929055 0.
0.626033 0.0928996 0.
0.628035 0.0928936 0.
0.630038 0.0928867 0.
0.632041 0.0928799 0.
0.634043 0.0928734 0.
0.636046 0.0928676 0.
0.638048 0.0928618 0.
0.64005 0.0928561 0.
0.642052 0.0928504 0.
0.644055 0.0928447 0.
0.646057 0.0928343 0.
0.648059 0.0928225 0.
0.65006 0.0928108 0.
0.652062 0.0927992 0.
0.654064 0.0927876 0.
0.656065 0.0927767 0.
0.658066 0.0927678 0.
0.660068 0.0927589 0.
0.662069 0.0927505 0.
0.66407 0.0927428 0.
0.666071 0.0927351 0.
0.668071 0.092728 0.
0.670072 0.0927212 0.
0.672072 0.0927144 0.
0.674072 0.0927028 0.
0.676072 0.0926908 0.
0.678072 0.0926783 0.
0.680072 0.0926631 0.
0.682072 0.092648 0.
0.684072 0.0926347 0.
0.686073 0.092625 0.
0.688073 0.0926153 0.
0.690073 0.0926067 0.
0.692074 0.0925991 0.
0.694074 0.0925914 0.
0.696075 0.0925875 0.
0.698076 0.0925845 0.
0.499929 0.0945796 0.
0.50193 0.0945868 0.
0.50393 0.0945942 0.
0.505931 0.0946017 0.
0.507931 0.0946097 0.
0.509931 0.0946178 0.
0.51193 0.0946265 0.
0.51393 0.0946361 0.
0.51593 0.0946458 0.
0.51793 0.0946591 0.
0.51993 0.0946744 0.
0.521929 0.0946897 0.
0.523929 0.094702 0.
0.525929 0.0947139 0.
0.527929 0.0947252 0.
0.529929 0.0947317 0.
0.53193 0.0947382 0.
0.53393 0.094745 0.
0.535931 0.0947523 0.
0.537932 0.0947596 0.
0.539933 0.0947673 0.
0.541935 0.0947755 0.
0.543936 0.0947836 0.
0.545937 0.0947947 0.
0.547939 0.0948068 0.
0.549941 0.0948188 0.
0.551943 0.0948298 0.
0.553945 0.0948409 0.
0.555947 0.0948508 0.
0.557949 0.0948561 0.
0.559951 0.0948615 0.
0.561953 0.0948669 0.
0.563956 0.0948722 0.
0.565958 0.0948775 0.
0.567961 0.0948835 0.
0.569964 0.0948897 0.
0.571966 0.0948959 0.
0.573969 0.0949012 0.
0.575971 0.0949065 0.
0.577974 0.0949115 0.
0.579976 0.0949139 0.
0.581979 0.0949163 0.
0.583981 0.0949186 0.
0.585984 0.0949205 0.
0.587986 0.0949223 0.
0.589989 0.094924 0.
0.591991 0.0949255 0.
0.593993 0.0949269 0.
0.595996 0.0949277 0.
0.597998 0.0949283 0.
0.600001 0.0949289 0.
0.602003 0.094928 0.
0.604005 0.0949271 0.
0.606008 0.094926 0.
0.60801 0.0949244 0.
0.610013 0.0949228 0.
0.612015 0.0949209 0.
0.614018 0.0949188 0.
0.61602 0.0949166 0.
0.618023 0.094914 0.
0.620026 0.0949112 0.
0.622029 0.0949084 0.
0.624031 0.0949029 0.
0.626034 0.094897 0.
0.628037 0.094891 0.
0.630039 0.0948841 0.
0.632042 0.0948773 0.
0.634044 0.0948709 0.
0.636047 0.0948652 0.
0.638049 0.0948595 0.
0.640051 0.0948538 0.
0.642053 0.0948482 0.
0.644056 0.0948426 0.
0.646058 0.0948323 0.
0.648059 0.0948207 0.
0.650061 0.0948092 0.
0.652063 0.0947977 0.
0.654064 0.0947862 0.
0.656065 0.0947754 0.
0.658066 0.0947666 0.
0.660068 0.0947579 0.
0.662069 0.0947497 0.
0.664069 0.0947421 0.
0.66607 0.0947345 0.
0.66807 0.0947275 0.
0.670071 0.0947208 0.
0.672071 0.0947141 0.
0.674071 0.0947028 0.
0.676071 0.0946909 0.
0.67807 0.0946787 0.
0.68007 0.0946634 0.
0.68207 0.0946481 0.
0.68407 0.0946348 0.
0.68607 0.094625 0.
0.68807 0.0946153 0.
0.69007 0.0946066 0.
0.69207 0.0945989 0.
0.69407 0.0945911 0.
0.696071 0.094587 0.
0.698071 0.0945838 0.
0.499932 0.0965794 0.
0.501932 0.0965869 0.
0.503933 0.0965944 0.
0.505933 0.0966021 0.
0.507932 0.0966102 0.
0.509932 0.0966183 0.
0.511932 0.096627 0.
0.513931 0.0966367 0.
0.515931 0.0966464 0.
0.517931 0.0966597 0.
0.51993 0.0966751 0.
0.521929 0.0966904 0.
0.523929 0.0967025 0.
0.525929 0.0967141 0.
0.527929 0.0967253 0.
0.529929 0.0967316 0.
0.531929 0.0967379 0.
0.53393 0.0967445 0.
0.535931 0.0967516 0.
0.537931 0.0967588 0.
0.539932 0.0967664 0.
0.541934 0.0967744 0.
0.543935 0.0967824 0.
0.545936 0.0967934 0.
0.547938 0.0968053 0.
0.549939 0.0968172 0.
0.551941 0.0968281 0.
0.553943 0.0968389 0.
0.555945 0.0968486 0.
0.557948 0.0968539 0.
0.55995 0.0968592 0.
0.561952 0.0968645 0.
0.563955 0.0968698 0.
0.565957 0.096875 0.
0.56796 0.0968809 0.
0.569962 0.0968871 0.
0.571965 0.0968932 0.
0.573968 0.0968987 0.
0.57597 0.096904 0.
0.577973 0.096909 0.
0.579975 0.0969114 0.
0.581978 0.0969138 0.
0.58398 0.096916 0.
0.585983 0.0969179 0.
0.587985 0.0969198 0.
0.589988 0.0969214 0.
0.591991 0.0969229 0.
0.593993 0.0969243 0.
0.595996 0.0969251 0.
0.597998 0.0969258 0.
0.600001 0.0969264 0.
0.602003 0.0969255 0.
0.604006 0.0969246 0.
0.606008 0.0969235 0.
0.608011 0.0969218 0.
0.610013 0.0969202 0.
0.612016 0.0969182 0.
0.614019 0.096916 0.
0.616021 0.0969139 0.
0.618024 0.0969113 0.
0.620027 0.0969085 0.
0.62203 0.0969057 0.
0.624032 0.0969001 0.
0.626035 0.0968943 0.
0.628038 0.0968883 0.
0.63004 0.0968816 0.
0.632043 0.0968748 0.
0.634045 0.0968684 0.
0.636048 0.0968628 0.
0.63805 0.0968572 0.
0.640053 0.0968516 0.
0.642055 0.0968461 0.
0.644057 0.0968406 0.
0.646059 0.0968304 0.
0.648061 0.0968191 0.
0.650062 0.0968078 0.
0.652064 0.0967964 0.
0.654065 0.096785 0.
0.656066 0.0967743 0.
0.658067 0.0967657 0.
0.660068 0.0967571 0.
0.662069 0.096749 0.
0.66407 0.0967416 0.
0.66607 0.0967342 0.
0.668071 0.0967274 0.
0.670071 0.0967208 0.
0.672071 0.0967142 0.
0.674071 0.0967031 0.
0.67607 0.0966915 0.
0.67807 0.0966794 0.
0.68007 0.0966641 0.
0.682069 0.0966488 0.
0.684069 0.0966354 0.
0.686068 0.0966256 0.
0.688068 0.0966158 0.
0.690068 0.0966071 0.
0.692068 0.0965992 0.
0.694068 0.0965914 0.
0.696068 0.0965871 0.
0.698068 0.0965837 0.
0.499935 0.0985794 0.
0.501935 0.098587 0.
0.503935 0.0985948 0.
0.505935 0.0986026 0.
0.507934 0.0986107 0.
0.509934 0.0986188 0.
0.511933 0.0986276 0.
0.513932 0.0986373 0.
0.515932 0.098647 0.
0.517931 0.0986604 0.
0.51993 0.0986758 0.
0.52193 0.0986912 0.
0.523929 0.0987031 0.
0.525929 0.0987145 0.
0.527928 0.0987253 0.
0.529929 0.0987315 0.
0.531929 0.0987376 0.
0.533929 0.098744 0.
0.53593 0.098751 0.
0.53793 0.098758 0.
0.539931 0.0987655 0.
0.541933 0.0987733 0.
0.543934 0.0987812 0.
0.545935 0.098792 0.
0.547937 0.0988039 0.
0.549938 0.0988157 0.
0.55194 0.0988263 0.
0.553942 0.0988369 0.
0.555944 0.0988464 0.
0.557946 0.0988516 0.
0.559949 0.0988569 0.
0.561951 0.0988621 0.
0.563954 0.0988673 0.
0.565956 0.0988725 0.
0.567959 0.0988783 0.
0.569961 0.0988844 0.
0.571964 0.0988906 0.
0.573967 0.098896 0.
0.575969 0.0989014 0.
0.577972 0.0989065 0.
0.579974 0.0989089 0.
0.581977 0.0989113 0.
0.58398 0.0989135 0.
0.585982 0.0989153 0.
0.587985 0.0989171 0.
0.589987 0.0989188 0.
0.59199 0.0989202 0.
0.593993 0.0989217 0.
0.595995 0.0989226 0.
0.597998 0.0989232 0.
0.600001 0.0989239 0.
0.602003 0.098923 0.
0.604006 0.0989221 0.
0.606008 0.098921 0.
0.608011 0.0989193 0.
0.610014 0.0989175 0.
0.612016 0.0989155 0.
0.614019 0.0989133 0.
0.616022 0.0989111 0.
0.618025 0.0989085 0.
0.620028 0.0989057 0.
0.622031 0.0989029 0.
0.624033 0.0988974 0.
0.626036 0.0988916 0.
0.628039 0.0988856 0.
0.630041 0.098879 0.
0.632044 0.0988723 0.
0.634047 0.098866 0.
0.636049 0.0988605 0.
0.638051 0.0988549 0.
0.640054 0.0988494 0.
0.642056 0.098844 0.
0.644058 0.0988385 0.
0.64606 0.0988286 0.
0.648062 0.0988175 0.
0.650064 0.0988064 0.
0.652065 0.0987951 0.
0.654066 0.0987839 0.
0.656067 0.0987733 0.
0.658068 0.0987648 0.
0.660069 0.0987564 0.
0.66207 0.0987485 0.
0.664071 0.0987412 0.
0.666071 0.0987339 0.
0.668071 0.0987272 0.
0.670071 0.0987208 0.
0.672071 0.0987143 0.
0.674071 0.0987034 0.
0.67607 0.0986921 0.
0.67807 0.0986802 0.
0.680069 0.0986648 0.
0.682068 0.0986494 0.
0.684068 0.098636 0.
0.686067 0.0986261 0.
0.688067 0.0986163 0.
0.690066 0.0986075 0.
0.692066 0.0985996 0.
0.694065 0.0985916 0.
0.696065 0.0985872 0.
0.698065 0.0985837 0.
CELLS 5000 10000
1 0
1 1
1 2
1 3
1 4
1 5
1 6
1 7
1 8
1 9
1 10
1 11
1 12
1 13
1 14
1 15
1 16
1 17
1 18
1 19
1 20
1 21
1 22
1 23
1 24
1 25
1 26
1 27
1 28
1 29
1 30
1 31
1 32
1 33
1 34
1 35
1 36
1 37
1 38
1 39
1 40
1 41
1 42
1 43
1 44
1 45
1 46
1 47
1 48
1 49
1 50
1 51
1 52
1 53
1 54
1 55
1 56
1 57
1 58
1 59
1 60
1 61
1 62
1 63
1 64
1 65
1 66
1 67
1 68
1 69
1 70
1 71
1 72
1 73
1 74
1 75
1 76
1 77
1 78
1 79
1 80
1 81
1 82
1 83
1 84
1 85
1 86
1 87
1 88
1 89
1 90
1 91
1 92
1 93
1 94
1 95
1 96
1 97
1 98
1 99
1 100
1 101
1 102
1 103
1 104
1 105
1 106
1 107
1 108
1 109
1 110
1 111
1 112
1 113
1 114
1 115
1 116
1 117
1 118
1 119
1 120
1 121
1 122
1 123
1 124
1 125
1 126
1 127
1 128
1 129
1 130
1 131
1 132
1 133
1 134
1 135
1 136
1 137
1 138
1 139
1 140
1 141
1 142
1 143
1 144
1 145
1 146
1 147
1 148
1 149
1 150
1 151
1 152
1 153
1 154
1 155
1 156
1 157
1 158
1 159
1 160
1 161
1 162
1 163
1 164
1 165
1 166
1 167
1 168
1 169
1 170
1 171
1 172
1 173
1 174
1 175
1 176
1 177
1 178
1 179
1 180
1 181
1 182
1 183
1 184
1 185
1 186
1 187
1 188
1 189
1 190
1 191
1 192
1 193
1 194
1 195
1 196
1 197
1 198
1 199
1 200
1 201
1 202
1 203
1 204
1 205
1 206
1 207
1 208
1 209
1 210
1 211
1 212
1 213
1 214
1 215
1 216
1 217
1 218
1 219
1 220
1 221
1 222
1 223
1 224
1 225
1 226
1 227
1 228
1 229
1 230
1 231
1 232
1 233
1 234
1 235
1 236
1 237
1 238
1 239
1 240
1 241
1 242
1 243
1 244
1 245
1 246
1 247
1 248
1 249
1 250
1 251
1 252
1 253
1 254
1 255
1 256
1 257
1 258
1 259
1 260
1 261
1 262
1 263
1 264
1 265
1 266
1 267
1 268
1 269
1 270
1 271
1 272
1 273
1 274
1 275
1 276
1 277
1 278
1 279
1 280
1 281
1 282
1 283
1 284
1 285
1 286
1 287
1 288
1 289
1 290
1 291
1 292
1 293
1 294
1 295
1 296
1 297
1 298
1 299
1 300
1 301
1 302
1 303
1 304
1 305
1 306
1 307
1 308
1 309
1 310
1 311
1 312
1 313
1 314
1 315
1 316
1 317
1 318
1 319
1 320
1 321
1 322
1 323
1 324
1 325
1 326
1 327
1 328
1 329
1 330
1 331
1 332
1 333
1 334
1 335
1 336
1 337
1 338
1 339
1 340
1 341
1 342
1 343
1 344
1 345
1 346
1 347
1 348
1 349
1 350
1 351
1 352
1 353
1 354
1 355
1 356
1 357
1 358
1 359
1 360
1 361
1 362
1 363
1 364
1 365
1 366
1 367
1 368
1 369
1 370
1 371
1 372
1 373
1 374
1 375
1 376
1 377
1 378
1 379
1 380
1 381
1 382
1 383
1 384
1 385
1 386
1 387
1 388
1 389
1 390
1 391
1 392
1 393
1 394
1 395
1 396
1 397
1 398
1 399
1 400
1 401
1 402
1 403
1 404
1 405
1 406
1 407
1 408
1 409
1 410
1 411
1 412
1 413
1 414
1 415
1 416
1 417
1 418
1 419
1 420
1 421
1 422
1 423
1 424
1 425
1 426
1 427
1 428
1 429
1 430
1 431
1 432
1 433
1 434
1 435
1 436
1 437
1 438
1 439
1 440
1 441
1 442
1 443
1 444
1 445
1 446
1 447
1 448
1 449
1 450
1 451
1 452
1 453
1 454
1 455
1 456
1 457
1 458
1 459
1 460
1 461
1 462
1 463
1 464
1 465
1 466
1 467
1 468
1 469
1 470
1 471
1 472
1 473
1 474
1 475
1 476
1 477
1 478
1 479
1 480
1 481
1 482
1 483
1 484
1 485
1 486
1 487
1 488
1 489
1 490
1 491
1 492
1 493
1 494
1 495
1 496
1 497
1 498
1 499
1 500
1 501
1 502
1 503
1 504
1 505
1 506
1 507
1 508
1 509
1 510
1 511
1 512
1 513
1 514
1 515
1 516
1 517
1 518
1 519
1 520
1 521
1 522
1 523
1 524
1 525
1 526
1 527
1 528
1 529
1 530
1 531
1 532
1 533
1 534
1 535
1 536
1 537
1 538
1 539
1 540
1 541
1 542
1 543
1 544
1 545
1 546
1 547
1 548
1 549
1 550
1 551
1 552
1 553
1 554
1 555
1 556
1 557
1 558
1 559
1 560
1 561
1 562
1 563
1 564
1 565
1 566
1 567
1 568
1 569
1 570
1 571
1 572
1 573
1 574
1 575
1 576
1 577
1 578
1 579
1 580
1 581
1 582
1 583
1 584
1 585
1 586
1 587
1 588
1 589
1 590
1 591
1 592
1 593
1 594
1 595
1 596
1 597
1 598
1 599
1 600
1 601
1 602
1 603
1 604
1 605
1 606
1 607
1 608
1 609
1 610
1 611
1 612
1 613
1 614
1 615
1 616
1 617
1 618
1 619
1 620
1 621
1 622
1 623
1 624
1 625
1 626
1 627
1 628
1 629
1 630
1 631
1 632
1 633
1 634
1 635
1 636
1 637
1 638
1 639
1 640
1 641
1 642
1 643
1 644
1 645
1 646
1 647
1 648
1 649
1 650
1 651
1 652
1 653
1 654
1 655
1 656
1 657
1 658
1 659
1 660
1 661
1 662
1 663
1 664
1 665
1 666
1 667
1 668
1 669
1 670
1 671
1 672
1 673
1 674
1 675
1 676
1 677
1 678
1 679
1 680
1 681
1 682
1 683
1 684
1 685
1 686
1 687
1 688
1 689
1 690
1 691
1 692
1 693
1 694
1 695
1 696
1 697
1 698
1 699
1 700
1 701
1 702
1 703
1 704
1 705
1 706
1 707
1 708
1 709
1 710
1 711
1 712
1 713
1 714
1 715
1 716
1 717
1 718
1 719
1 720
1 721
1 722
1 723
1 724
1 725
1 726
1 727
1 728
1 729
1 730
1 731
1 732
1 733
1 734
1 735
1 736
1 737
1 738
1 739
1 740
1 741
1 742
1 743
1 744
1 745
1 746
1 747
1 748
1 749
1 750
1 751
1 752
1 753
1 754
1 755
1 756
1 757
1 758
1 759
1 760
1 761
1 762
1 763
1 764
1 765
1 766
1 767
1 768
1 769
1 770
1 771
1 772
1 773
1 774
1 775
1 776
1 777
1 778
1 779
1 780
1 781
1 782
1 783
1 784
1 785
1 786
1 787
1 788
1 789
1 790
1 791
1 792
1 793
1 794
1 795
1 796
1 797
1 798
1 799
1 800
1 801
1 802
1 803
1 804
1 805
1 806
1 807
1 808
1 809
1 810
1 811
1 812
1 813
1 814
1 815
1 816
1 817
1 818
1 819
1 820
1 821
1 822
1 823
1 824
1 825
1 826
1 827
1 828
1 829
1 830
1 831
1 832
1 833
1 834
1 835
1 836
1 837
1 838
1 839
1 840
1 841
1 842
1 843
1 844
1 845
1 846
1 847
1 848
1 849
1 850
1 851
1 852
1 853
1 854
1 855
1 856
1 857
1 858
1 859
1 860
1 861
1 862
1 863
1 864
1 865
1 866
1 867
1 868
1 869
1 870
1 871
1 872
1 873
1 874
1 875
1 876
1 877
1 878
1 879
1 880
1 881
1 882
1 883
1 884
1 885
1 886
1 887
1 888
1 889
1 890
1 891
1 892
1 893
1 894
1 895
1 896
1 897
1 898
1 899
1 900
1 901
1 902
1 903
1 904
1 905
1 906
1 907
1 908
1 909
1 910
1 911
1 912
1 913
1 914
1 915
1 916
1 917
1 918
1 919
1 920
1 921
1 922
1 923
1 924
1 925
1 926
1 927
1 928
1 929
1 930
1 931
1 932
1 933
1 934
1 935
1 936
1 937
1 938
1 939
1 940
1 941
1 942
1 943
1 944
1 945
1 946
1 947
1 948
1 949
1 950
1 951
1 952
1 953
1 954
1 955
1 956
1 957
1 958
1 959
1 960
1 961
1 962
1 963
1 964
1 965
1 966
1 967
1 968
1 969
1 970
1 971
1 972
1 973
1 974
1 975
1 976
1 977
1 978
1 979
1 980
1 981
1 982
1 983
1 984
1 985
1 986
1 987
1 988
1 989
1 990
1 991
1 992
1 993
1 994
1 995
1 996
1 997
1 998
1 999
1 1000
1 1001
1 1002
1 1003
1 1004
1 1005
1 1006
1 1007
1 1008
1 1009
1 1010
1 1011
1 1012
1 1013
1 1014
1 1015
1 1016
1 1017
1 1018
1 1019
1 1020
1 1021
1 1022
1 1023
1 1024
1 1025
1 1026
1 1027
1 1028
1 1029
1 1030
1 1031
1 1032
1 1033
1 1034
1 1035
1 1036
1 1037
1 1038
1 1039
1 1040
1 1041
1 1042
1 1043
1 1044
1 1045
1 1046
1 1047
1 1048
1 1049
1 1050
1 1051
1 1052
1 1053
1 1054
1 1055
1 1056
1 1057
1 1058
1 1059
1 1060
1 1061
1 1062
1 1063
1 1064
1 1065
1 1066
1 1067
1 1068
1 1069
1 1070
1 1071
1 1072
1 1073
1 1074
1 1075
1 1076
1 1077
1 1078
1 1079
1 1080
1 1081
1 1082
1 1083
1 1084
1 1085
1 1086
1 1087
1 1088
1 1089
1 1090
1 1091
1 1092
1 1093
1 1094
1 1095
1 1096
1 1097
1 1098
1 1099
1 1100
1 1101
1 1102
1 1103
1 1104
1 1105
1 1106
1 1107
1 1108
1 1109
1 1110
1 1111
1 1112
1 1113
1 1114
1 1115
1 1116
1 1117
1 1118
1 1119
1 1120
1 1121
1 1122
1 1123
1 1124
1 1125
1 1126
1 1127
1 1128
1 1129
1 1130
1 1131
1 1132
1 1133
1 1134
1 1135
1 1136
1 1137
1 1138
1 1139
1 1140
1 1141
1 1142
1 1143
1 1144
1 1145
1 1146
1 1147
1 1148
1 1149
1 1150
1 1151
1 1152
1 1153
1 1154
1 1155
1 1156
1 1157
1 1158
1 1159
1 1160
1 1161
1 1162
1 1163
1 1164
1 1165
1 1166
1 1167
1 1168
1 1169
1 1170
1 1171
1 1172
1 1173
1 1174
1 1175
1 1176
1 1177
1 1178
1 1179
1 1180
1 1181
1 1182
1 1183
1 1184
1 1185
1 1186
1 1187
1 1188
1 1189
1 1190
1 1191
1 1192
1 1193
1 1194
1 1195
1 1196
1 1197
1 1198
1 1199
1 1200
1 1201
1 1202
1 1203
1 1204
1 1205
1 1206
1 1207
1 1208
1 1209
1 1210
1 1211
1 1212
1 1213
1 1214
1 1215
1 1216
1 1217
1 1218
1 1219
1 1220
1 1221
1 1222
1 1223
1 1224
1 1225
1 1226
1 1227
1 1228
1 1229
1 1230
1 1231
1 1232
1 1233
1 1234
1 1235
1 1236
1 1237
1 1238
1 1239
1 1240
1 1241
1 1242
1 1243
1 1244
1 1245
1 1246
1 1247
1 1248
1 1249
1 1250
1 1251
1 1252
1 1253
1 1254
1 1255
1 1256
1 1257
1 1258
1 1259
1 1260
1 1261
1 1262
1 1263
1 1264
1 1265
1 1266
1 1267
1 1268
1 1269
1 1270
1 1271
1 1272
1 1273
1 1274
1 1275
1 1276
1 1277
1 1278
1 1279
1 1280
1 1281
1 1282
1 1283
1 1284
1 1285
1 1286
1 1287
1 1288
1 1289
1 1290
1 1291
1 1292
1 1293
1 1294
1 1295
1 1296
1 1297
1 1298
1 1299
1 1300
1 1301
1 1302
1 1303
1 1304
1 1305
1 1306
1 1307
1 1308
1 1309
1 1310
1 1311
1 1312
1 1313
1 1314
1 1315
1 1316
1 1317
1 1318
1 1319
1 1320
1 1321
1 1322
1 1323
1 1324
1 1325
1 1326
1 1327
1 1328
1 1329
1 1330
1 1331
1 1332
1 1333
1 1334
1 1335
1 1336
1 1337
1 1338
1 1339
1 1340
1 1341
1 1342
1 1343
1 1344
1 1345
1 1346
1 1347
1 1348
1 1349
1 1350
1 1351
1 1352
1 1353
1 1354
1 1355
1 1356
1 1357
1 1358
1 1359
1 1360
1 1361
1 1362
1 1363
1 1364
1 1365
1 1366
1 1367
1 1368
1 1369
1 1370
1 1371
1 1372
1 1373
1 1374
1 1375
1 1376
1 1377
1 1378
1 1379
1 1380
1 1381
1 1382
1 1383
1 1384
1 1385
1 1386
1 1387
1 1388
1 1389
1 1390
1 1391
1 1392
1 1393
1 1394
1 1395
1 1396
1 1397
1 1398
1 1399
1 1400
1 1401
1 1402
1 1403
1 1404
1 1405
1 1406
1 1407
1 1408
1 1409
1 1410
1 1411
1 1412
1 1413
1 1414
1 1415
1 1416
1 1417
1 1418
1 1419
1 1420
1 1421
1 1422
1 1423
1 1424
1 1425
1 1426
1 1427
1 1428
1 1429
1 1430
1 1431
1 1432
1 1433
1 1434
1 1435
1 1436
1 1437
1 1438
1 1439
1 1440
1 1441
1 1442
1 1443
1 1444
1 1445
1 1446
1 1447
1 1448
1 1449
1 1450
1 1451
1 1452
1 1453
1 1454
1 1455
1 1456
1 1457
1 1458
1 1459
1 1460
1 1461
1 1462
1 1463
1 1464
1 1465
1 1466
1 1467
1 1468
1 1469
1 1470
1 1471
1 1472
1 1473
1 1474
1 1475
1 1476
1 1477
1 1478
1 1479
1 1480
1 1481
1 1482
1 1483
1 1484
1 1485
1 1486
1 1487
1 1488
1 1489
1 1490
1 1491
1 1492
1 1493
1 1494
1 1495
1 1496
1 1497
1 1498
1 1499
1 1500
1 1501
1 1502
1 1503
1 1504
1 1505
1 1506
1 1507
1 1508
1 1509
1 1510
1 1511
1 1512
1 1513
1 1514
1 1515
1 1516
1 1517
1 1518
1 1519
1 1520
1 1521
1 1522
1 1523
1 1524
1 1525
1 1526
1 1527
1 1528
1 1529
1 1530
1 1531
1 1532
1 1533
1 1534
1 1535
1 1536
1 1537
1 1538
1 1539
1 1540
1 1541
1 1542
1 1543
1 1544
1 1545
1 1546
1 1547
1 1548
1 1549
1 1550
1 1551
1 1552
1 1553
1 1554
1 1555
1 1556
1 1557
1 1558
1 1559
1 1560
1 1561
1 1562
1 1563
1 1564
1 1565
1 1566
1 1567
1 1568
1 1569
1 1570
1 1571
1 1572
1 1573
1 1574
1 1575
1 1576
1 1577
1 1578
1 1579
1 1580
1 1581
1 1582
1 1583
1 1584
1 1585
1 1586
1 1587
1 1588
1 1589
1 1590
1 1591
1 1592
1 1593
1 1594
1 1595
1 1596
1 1597
1 1598
1 1599
1 1600
1 1601
1 1602
1 1603
1 1604
1 1605
1 1606
1 1607
1 1608
1 1609
1 1610
1 1611
1 1612
1 1613
1 1614
1 1615
1 1616
1 1617
1 1618
1 1619
1 1620
1 1621
1 1622
1 1623
1 1624
1 1625
1 1626
1 1627
1 1628
1 1629
1 1630
1 1631
1 1632
1 1633
1 1634
1 1635
1 1636
1 1637
1 1638
1 1639
1 1640
1 1641
1 1642
1 1643
1 1644
1 1645
1 1646
1 1647
1 1648
1 1649
1 1650
1 1651
1 1652
1 1653
1 1654
1 1655
1 1656
1 1657
1 1658
1 1659
1 1660
1 1661
1 1662
1 1663
1 1664
1 1665
1 1666
1 1667
1 1668
1 1669
1 1670
1 1671
1 1672
1 1673
1 1674
1 1675
1 1676
1 1677
1 1678
1 1679
1 1680
1 1681
1 1682
1 1683
1 1684
1 1685
1 1686
1 1687
1 1688
1 1689
1 1690
1 1691
1 1692
1 1693
1 1694
1 1695
1 1696
1 1697
1 1698
1 1699
1 1700
1 1701
1 1702
1 1703
1 1704
1 1705
1 1706
1 1707
1 1708
1 1709
1 1710
1 1711
1 1712
1 1713
1 1714
1 1715
1 1716
1 1717
1 1718
1 1719
1 1720
1 1721
1 1722
1 1723
1 1724
1 1725
1 1726
1 1727
1 1728
1 1729
1 1730
1 1731
1 1732
1 1733
1 1734
1 1735
1 1736
1 1737
1 1738
1 1739
1 1740
1 1741
1 1742
1 1743
1 1744
1 1745
1 1746
1 1747
1 1748
1 1749
1 1750
1 1751
1 1752
1 1753
1 1754
1 1755
1 1756
1 1757
1 1758
1 1759
1 1760
1 1761
1 1762
1 1763
1 1764
1 1765
1 1766
1 1767
1 1768
1 1769
1 1770
1 1771
1 1772
1 1773
1 1774
1 1775
1 1776
1 1777
1 1778
1 1779
1 1780
1 1781
1 1782
1 1783
1 1784
1 1785
1 1786
1 1787
1 1788
1 1789
1 1790
1 1791
1 1792
1 1793
1 1794
1 1795
1 1796
1 1797
1 1798
1 1799
1 1800
1 1801
1 1802
1 1803
1 1804
1 1805
1 1806
1 1807
1 1808
1 1809
1 1810
1 1811
1 1812
1 1813
1 1814
1 1815
1 1816
1 1817
1 1818
1 1819
1 1820
1 1821
1 1822
1 1823
1 1824
1 1825
1 1826
1 1827
1 1828
1 1829
1 1830
1 1831
1 1832
1 1833
1 1834
1 1835
1 1836
1 1837
1 1838
1 1839
1 1840
1 1841
1 1842
1 1843
1 1844
1 1845
1 1846
1 1847
1 1848
1 1849
1 1850
1 1851
1 1852
1 1853
1 1854
1 1855
1 1856
1 1857
1 1858
1 1859
1 1860
1 1861
1 1862
1 1863
1 1864
1 1865
1 1866
1 1867
1 1868
1 1869
1 1870
1 1871
1 1872
1 1873
1 1874
1 1875
1 1876
1 1877
1 1878
1 1879
1 1880
1 1881
1 1882
1 1883
1 1884
1 1885
1 1886
1 1887
1 1888
1 1889
1 1890
1 1891
1 1892
1 1893
1 1894
1 1895
1 1896
1 1897
1 1898
1 1899
1 1900
1 1901
1 1902
1 1903
1 1904
1 1905
1 1906
1 1907
1 1908
1 1909
1 1910
1 1911
1 1912
1 1913
1 1914
1 1915
1 1916
1 1917
1 1918
1 1919
1 1920
1 1921
1 1922
1 1923
1 1924
1 1925
1 1926
1 1927
1 1928
1 1929
1 1930
1 1931
1 1932
1 1933
1 1934
1 1935
1 1936
1 1937
1 1938
1 1939
1 1940
1 1941
1 1942
1 1943
1 1944
1 1945
1 1946
1 1947
1 1948
1 1949
1 1950
1 1951
1 1952
1 1953
1 1954
1 1955
1 1956
1 1957
1 1958
1 1959
1 1960
1 1961
1 1962
1 1963
1 1964
1 1965
1 1966
1 1967
1 1968
1 1969
1 1970
1 1971
1 1972
1 1973
1 1974
1 1975
1 1976
1 1977
1 1978
1 1979
1 1980
1 1981
1 1982
1 1983
1 1984
1 1985
1 1986
1 1987
1 1988
1 1989
1 1990
1 1991
1 1992
1 1993
1 1994
1 1995
1 1996
1 1997
1 1998
1 1999
1 2000
1 2001
1 2002
1 2003
1 2004
1 2005
1 2006
1 2007
1 2008
1 2009
1 2010
1 2011
1 2012
1 2013
1 2014
1 2015
1 2016
1 2017
1 2018
1 2019
1 2020
1 2021
1 2022
1 2023
1 2024
1 2025
1 2026
1 2027
1 2028
1 2029
1 2030
1 2031
1 2032
1 2033
1 2034
1 2035
1 2036
1 2037
1 2038
1 2039
1 2040
1 2041
1 2042
1 2043
1 2044
1 2045
1 2046
1 2047
1 2048
1 2049
1 2050
1 2051
1 2052
1 2053
1 2054
1 2055
1 2056
1 2057
1 2058
1 2059
1 2060
1 2061
1 2062
1 2063
1 2064
1 2065
1 2066
1 2067
1 2068
1 2069
1 2070
1 2071
1 2072
1 2073
1 2074
1 2075
1 2076
1 2077
1 2078
1 2079
1 2080
1 2081
1 2082
1 2083
1 2084
1 2085
1 2086
1 2087
1 2088
1 2089
1 2090
1 2091
1 2092
1 2093
1 2094
1 2095
1 2096
1 2097
1 2098
1 2099
1 2100
1 2101
1 2102
1 2103
1 2104
1 2105
1 2106
1 2107
1 2108
1 2109
1 2110
1 2111
1 2112
1 2113
1 2114
1 2115
1 2116
1 2117
1 2118
1 2119
1 2120
1 2121
1 2122
1 2123
1 2124
1 2125
1 2126
1 2127
1 2128
1 2129
1 2130
1 2131
1 2132
1 2133
1 2134
1 2135
1 2136
1 2137
1 2138
1 2139
1 2140
1 2141
1 2142
1 2143
1 2144
1 2145
1 2146
1 2147
1 2148
1 2149
1 2150
1 2151
1 2152
1 2153
1 2154
1 2155
1 2156
1 2157
1 2158
1 2159
1 2160
1 2161
1 2162
1 2163
1 2164
1 2165
1 2166
1 2167
1 2168
1 2169
1 2170
1 2171
1 2172
1 2173
1 2174
1 2175
1 2176
1 2177
1 2178
1 2179
1 2180
1 2181
1 2182
1 2183
1 2184
1 2185
1 2186
1 2187
1 2188
1 2189
1 2190
1 2191
1 2192
1 2193
1 2194
1 2195
1 2196
1 2197
1 2198
1 2199
1 2200
1 2201
1 2202
1 2203
1 2204
1 2205
1 2206
1 2207
1 2208
1 2209
1 2210
1 2211
1 2212
1 2213
1 2214
1 2215
1 2216
1 2217
1 2218
1 2219
1 2220
1 2221
1 2222
1 2223
1 2224
1 2225
1 2226
1 2227
1 2228
1 2229
1 2230
1 2231
1 2232
1 2233
1 2234
1 2235
1 2236
1 2237
1 2238
1 2239
1 2240
1 2241
1 2242
1 2243
1 2244
1 2245
1 2246
1 2247
1 2248
1 2249
1 2250
1 2251
1 2252
1 2253
1 2254
1 2255
1 2256
1 2257
1 2258
1 2259
1 2260
1 2261
1 2262
1 2263
1 2264
1 2265
1 2266
1 2267
1 2268
1 2269
1 2270
1 2271
1 2272
1 2273
1 2274
1 2275
1 2276
1 2277
1 2278
1 2279
1 2280
1 2281
1 2282
1 2283
1 2284
1 2285
1 2286
1 2287
1 2288
1 2289
1 2290
1 2291
1 2292
1 2293
1 2294
1 2295
1 2296
1 2297
1 2298
1 2299
1 2300
1 2301
1 2302
1 2303
1 2304
1 2305
1 2306
1 2307
1 2308
1 2309
1 2310
1 2311
1 2312
1 2313
1 2314
1 2315
1 2316
1 2317
1 2318
1 2319
1 2320
1 2321
1 2322
1 2323
1 2324
1 2325
1 2326
1 2327
1 2328
1 2329
1 2330
1 2331
1 2332
1 2333
1 2334
1 2335
1 2336
1 2337
1 2338
1 2339
1 2340
1 2341
1 2342
1 2343
1 2344
1 2345
1 2346
1 2347
1 2348
1 2349
1 2350
1 2351
1 2352
1 2353
1 2354
1 2355
1 2356
1 2357
1 2358
1 2359
1 2360
1 2361
1 2362
1 2363
1 2364
1 2365
1 2366
1 2367
1 2368
1 2369
1 2370
1 2371
1 2372
1 2373
1 2374
1 2375
1 2376
1 2377
1 2378
1 2379
1 2380
1 2381
1 2382
1 2383
1 2384
1 2385
1 2386
1 2387
1 2388
1 2389
1 2390
1 2391
1 2392
1 2393
1 2394
1 2395
1 2396
1 2397
1 2398
1 2399
1 2400
1 2401
1 2402
1 2403
1 2404
1 2405
1 2406
1 2407
1 2408
1 2409
1 2410
1 2411
1 2412
1 2413
1 2414
1 2415
1 2416
1 2417
1 2418
1 2419
1 2420
1 2421
1 2422
1 2423
1 2424
1 2425
1 2426
1 2427
1 2428
1 2429
1 2430
1 2431
1 2432
1 2433
1 2434
1 2435
1 2436
1 2437
1 2438
1 2439
1 2440
1 2441
1 2442
1 2443
1 2444
1 2445
1 2446
1 2447
1 2448
1 2449
1 2450
1 2451
1 2452
1 2453
1 2454
1 2455
1 2456
1 2457
1 2458
1 2459
1 2460
1 2461
1 2462
1 2463
1 2464
1 2465
1 2466
1 2467
1 2468
1 2469
1 2470
1 2471
1 2472
1 2473
1 2474
1 2475
1 2476
1 2477
1 2478
1 2479
1 2480
1 2481
1 2482
1 2483
1 2484
1 2485
1 2486
1 2487
1 2488
1 2489
1 2490
1 2491
1 2492
1 2493
1 2494
1 2495
1 2496
1 2497
1 2498
1 2499
1 2500
1 2501
1 2502
1 2503
1 2504
1 2505
1 2506
1 2507
1 2508
1 2509
1 2510
1 2511
1 2512
1 2513
1 2514
1 2515
1 2516
1 2517
1 2518
1 2519
1 2520
1 2521
1 2522
1 2523
1 2524
1 2525
1 2526
1 2527
1 2528
1 2529
1 2530
1 2531
1 2532
1 2533
1 2534
1 2535
1 2536
1 2537
1 2538
1 2539
1 2540
1 2541
1 2542
1 2543
1 2544
1 2545
1 2546
1 2547
1 2548
1 2549
1 2550
1 2551
1 2552
1 2553
1 2554
1 2555
1 2556
1 2557
1 2558
1 2559
1 2560
1 2561
1 2562
1 2563
1 2564
1 2565
1 2566
1 2567
1 2568
1 2569
1 2570
1 2571
1 2572
1 2573
1 2574
1 2575
1 2576
1 2577
1 2578
1 2579
1 2580
1 2581
1 2582
1 2583
1 2584
1 2585
1 2586
1 2587
1 2588
1 2589
1 2590
1 2591
1 2592
1 2593
1 2594
1 2595
1 2596
1 2597
1 2598
1 2599
1 2600
1 2601
1 2602
1 2603
1 2604
1 2605
1 2606
1 2607
1 2608
1 2609
1 2610
1 2611
1 2612
1 2613
1 2614
1 2615
1 2616
1 2617
1 2618
1 2619
1 2620
1 2621
1 2622
1 2623
1 2624
1 2625
1 2626
1 2627
1 2628
1 2629
1 2630
1 2631
1 2632
1 2633
1 2634
1 2635
1 2636
1 2637
1 2638
1 2639
1 2640
1 2641
1 2642
1 2643
1 2644
1 2645
1 2646
1 2647
1 2648
1 2649
1 2650
1 2651
1 2652
1 2653
1 2654
1 2655
1 2656
1 2657
1 2658
1 2659
1 2660
1 2661
1 2662
1 2663
1 2664
1 2665
1 2666
1 2667
1 2668
1 2669
1 2670
1 2671
1 2672
1 2673
1 2674
1 2675
1 2676
1 2677
1 2678
1 2679
1 2680
1 2681
1 2682
1 2683
1 2684
1 2685
1 2686
1 2687
1 2688
1 2689
1 2690
1 2691
1 2692
1 2693
1 2694
1 2695
1 2696
1 2697
1 2698
1 2699
1 2700
1 2701
1 2702
1 2703
1 2704
1 2705
1 2706
1 2707
1 2708
1 2709
1 2710
1 2711
1 2712
1 2713
1 2714
1 2715
1 2716
1 2717
1 2718
1 2719
1 2720
1 2721
1 2722
1 2723
1 2724
1 2725
1 2726
1 2727
1 2728
1 2729
1 2730
1 2731
1 2732
1 2733
1 2734
1 2735
1 2736
1 2737
1 2738
1 2739
1 2740
1 2741
1 2742
1 2743
1 2744
1 2745
1 2746
1 2747
1 2748
1 2749
1 2750
1 2751
1 2752
1 2753
1 2754
1 2755
1 2756
1 2757
1 2758
1 2759
1 2760
1 2761
1 2762
1 2763
1 2764
1 2765
1 2766
1 2767
1 2768
1 2769
1 2770
1 2771
1 2772
1 2773
1 2774
1 2775
1 2776
1 2777
1 2778
1 2779
1 2780
1 2781
1 2782
1 2783
1 2784
1 2785
1 2786
1 2787
1 2788
1 2789
1 2790
1 2791
1 2792
1 2793
1 2794
1 2795
1 2796
1 2797
1 2798
1 2799
1 2800
1 2801
1 2802
1 2803
1 2804
1 2805
1 2806
1 2807
1 2808
1 2809
1 2810
1 2811
1 2812
1 2813
1 2814
1 2815
1 2816
1 2817
1 2818
1 2819
1 2820
1 2821
1 2822
1 2823
1 2824
1 2825
1 2826
1 2827
1 2828
1 2829
1 2830
1 2831
1 2832
1 2833
1 2834
1 2835
1 2836
1 2837
1 2838
1 2839
1 2840
1 2841
1 2842
1 2843
1 2844
1 2845
1 2846
1 2847
1 2848
1 2849
1 2850
1 2851
1 2852
1 2853
1 2854
1 2855
1 2856
1 2857
1 2858
1 2859
1 2860
1 2861
1 2862
1 2863
1 2864
1 2865
1 2866
1 2867
1 2868
1 2869
1 2870
1 2871
1 2872
1 2873
1 2874
1 2875
1 2876
1 2877
1 2878
1 2879
1 2880
1 2881
1 2882
1 2883
1 2884
1 2885
1 2886
1 2887
1 2888
1 2889
1 2890
1 2891
1 2892
1 2893
1 2894
1 2895
1 2896
1 2897
1 2898
1 2899
1 2900
1 2901
1 2902
1 2903
1 2904
1 2905
1 2906
1 2907
1 2908
1 2909
1 2910
1 2911
1 2912
1 2913
1 2914
1 2915
1 2916
1 2917
1 2918
1 2919
1 2920
1 2921
1 2922
1 2923
1 2924
1 2925
1 2926
1 2927
1 2928
1 2929
1 2930
1 2931
1 2932
1 2933
1 2934
1 2935
1 2936
1 2937
1 2938
1 2939
1 2940
1 2941
1 2942
1 2943
1 2944
1 2945
1 2946
1 2947
1 2948
1 2949
1 2950
1 2951
1 2952
1 2953
1 2954
1 2955
1 2956
1 2957
1 2958
1 2959
1 2960
1 2961
1 2962
1 2963
1 2964
1 2965
1 2966
1 2967
1 2968
1 2969
1 2970
1 2971
1 2972
1 2973
1 2974
1 2975
1 2976
1 2977
1 2978
1 2979
1 2980
1 2981
1 2982
1 2983
1 2984
1 2985
1 2986
1 2987
1 2988
1 2989
1 2990
1 2991
1 2992
1 2993
1 2994
1 2995
1 2996
1 2997
1 2998
1 2999
1 3000
1 3001
1 3002
1 3003
1 3004
1 3005
1 3006
1 3007
1 3008
1 3009
1 3010
1 3011
1 3012
1 3013
1 3014
1 3015
1 3016
1 3017
1 3018
1 3019
1 3020
1 3021
1 3022
1 3023
1 3024
1 3025
1 3026
1 3027
1 3028
1 3029
1 3030
1 3031
1 3032
1 3033
1 3034
1 3035
1 3036
1 3037
1 3038
1 3039
1 3040
1 3041
1 3042
1 3043
1 3044
1 3045
1 3046
1 3047
1 3048
1 3049
1 3050
1 3051
1 3052
1 3053
1 3054
1 3055
1 3056
1 3057
1 3058
1 3059
1 3060
1 3061
1 3062
1 3063
1 3064
1 3065
1 3066
1 3067
1 3068
1 3069
1 3070
1 3071
1 3072
1 3073
1 3074
1 3075
1 3076
1 3077
1 3078
1 3079
1 3080
1 3081
1 3082
1 3083
1 3084
1 3085
1 3086
1 3087
1 3088
1 3089
1 3090
1 3091
1 3092
1 3093
1 3094
1 3095
1 3096
1 3097
1 3098
1 3099
1 3100
1 3101
1 3102
1 3103
1 3104
1 3105
1 3106
1 3107
1 3108
1 3109
1 3110
1 3111
1 3112
1 3113
1 3114
1 3115
1 3116
1 3117
1 3118
1 3119
1 3120
1 3121
1 3122
1 3123
1 3124
1 3125
1 3126
1 3127
1 3128
1 3129
1 3130
1 3131
1 3132
1 3133
1 3134
1 3135
1 3136
1 3137
1 3138
1 3139
1 3140
1 3141
1 3142
1 3143
1 3144
1 3145
1 3146
1 3147
1 3148
1 3149
1 3150
1 3151
1 3152
1 3153
1 3154
1 3155
1 3156
1 3157
1 3158
1 3159
1 3160
1 3161
1 3162
1 3163
1 3164
1 3165
1 3166
1 3167
1 3168
1 3169
1 3170
1 3171
1 3172
1 3173
1 3174
1 3175
1 3176
1 3177
1 3178
1 3179
1 3180
1 3181
1 3182
1 3183
1 3184
1 3185
1 3186
1 3187
1 3188
1 3189
1 3190
1 3191
1 3192
1 3193
1 3194
1 3195
1 3196
1 3197
1 3198
1 3199
1 3200
1 3201
1 3202
1 3203
1 3204
1 3205
1 3206
1 3207
1 3208
1 3209
1 3210
1 3211
1 3212
1 3213
1 3214
1 3215
1 3216
1 3217
1 3218
1 3219
1 3220
1 3221
1 3222
1 3223
1 3224
1 3225
1 3226
1 3227
1 3228
1 3229
1 3230
1 3231
1 3232
1 3233
1 3234
1 3235
1 3236
1 3237
1 3238
1 3239
1 3240
1 3241
1 3242
1 3243
1 3244
1 3245
1 3246
1 3247
1 3248
1 3249
1 3250
1 3251
1 3252
1 3253
1 3254
1 3255
1 3256
1 3257
1 3258
1 3259
1 3260
1 3261
1 3262
1 3263
1 3264
1 3265
1 3266
1 3267
1 3268
1 3269
1 3270
1 3271
1 3272
1 3273
1 3274
1 3275
1 3276
1 3277
1 3278
1 3279
1 3280
1 3281
1 3282
1 3283
1 3284
1 3285
1 3286
1 3287
1 3288
1 3289
1 3290
1 3291
1 3292
1 3293
1 3294
1 3295
1 3296
1 3297
1 3298
1 3299
1 3300
1 3301
1 3302
1 3303
1 3304
1 3305
1 3306
1 3307
1 3308
1 3309
1 3310
1 3311
1 3312
1 3313
1 3314
1 3315
1 3316
1 3317
1 3318
1 3319
1 3320
1 3321
1 3322
1 3323
1 3324
1 3325
1 3326
1 3327
1 3328
1 3329
1 3330
1 3331
1 3332
1 3333
1 3334
1 3335
1 3336
1 3337
1 3338
1 3339
1 3340
1 3341
1 3342
1 3343
1 3344
1 3345
1 3346
1 3347
1 3348
1 3349
1 3350
1 3351
1 3352
1 3353
1 3354
1 3355
1 3356
1 3357
1 3358
1 3359
1 3360
1 3361
1 3362
1 3363
1 3364
1 3365
1 3366
1 3367
1 3368
1 3369
1 3370
1 3371
1 3372
1 3373
1 3374
1 3375
1 3376
1 3377
1 3378
1 3379
1 3380
1 3381
1 3382
1 3383
1 3384
1 3385
1 3386
1 3387
1 3388
1 3389
1 3390
1 3391
1 3392
1 3393
1 3394
1 3395
1 3396
1 3397
1 3398
1 3399
1 3400
1 3401
1 3402
1 3403
1 3404
1 3405
1 3406
1 3407
1 3408
1 3409
1 3410
1 3411
1 3412
1 3413
1 3414
1 3415
1 3416
1 3417
1 3418
1 3419
1 3420
1 3421
1 3422
1 3423
1 3424
1 3425
1 3426
1 3427
1 3428
1 3429
1 3430
1 3431
1 3432
1 3433
1 3434
1 3435
1 3436
1 3437
1 3438
1 3439
1 3440
1 3441
1 3442
1 3443
1 3444
1 3445
1 3446
1 3447
1 3448
1 3449
1 3450
1 3451
1 3452
1 3453
1 3454
1 3455
1 3456
1 3457
1 3458
1 3459
1 3460
1 3461
1 3462
1 3463
1 3464
1 3465
1 3466
1 3467
1 3468
1 3469
1 3470
1 3471
1 3472
1 3473
1 3474
1 3475
1 3476
1 3477
1 3478
1 3479
1 3480
1 3481
1 3482
1 3483
1 3484
1 3485
1 3486
1 3487
1 3488
1 3489
1 3490
1 3491
1 3492
1 3493
1 3494
1 3495
1 3496
1 3497
1 3498
1 3499
1 3500
1 3501
1 3502
1 3503
1 3504
1 3505
1 3506
1 3507
1 3508
1 3509
1 3510
1 3511
1 3512
1 3513
1 3514
1 3515
1 3516
1 3517
1 3518
1 3519
1 3520
1 3521
1 3522
1 3523
1 3524
1 3525
1 3526
1 3527
1 3528
1 3529
1 3530
1 3531
1 3532
1 3533
1 3534
1 3535
1 3536
1 3537
1 3538
1 3539
1 3540
1 3541
1 3542
1 3543
1 3544
1 3545
1 3546
1 3547
1 3548
1 3549
1 3550
1 3551
1 3552
1 3553
1 3554
1 3555
1 3556
1 3557
1 3558
1 3559
1 3560
1 3561
1 3562
1 3563
1 3564
1 3565
1 3566
1 3567
1 3568
1 3569
1 3570
1 3571
1 3572
1 3573
1 3574
1 3575
1 3576
1 3577
1 3578
1 3579
1 3580
1 3581
1 3582
1 3583
1 3584
1 3585
1 3586
1 3587
1 3588
1 3589
1 3590
1 3591
1 3592
1 3593
1 3594
1 3595
1 3596
1 3597
1 3598
1 3599
1 3600
1 3601
1 3602
1 3603
1 3604
1 3605
1 3606
1 3607
1 3608
1 3609
1 3610
1 3611
1 3612
1 3613
1 3614
1 3615
1 3616
1 3617
1 3618
1 3619
1 3620
1 3621
1 3622
1 3623
1 3624
1 3625
1 3626
1 3627
1 3628
1 3629
1 3630
1 3631
1 3632
1 3633
1 3634
1 3635
1 3636
1 3637
1 3638
1 3639
1 3640
1 3641
1 3642
1 3643
1 3644
1 3645
1 3646
1 3647
1 3648
1 3649
1 3650
1 3651
1 3652
1 3653
1 3654
1 3655
1 3656
1 3657
1 3658
1 3659
1 3660
1 3661
1 3662
1 3663
1 3664
1 3665
1 3666
1 3667
1 3668
1 3669
1 3670
1 3671
1 3672
1 3673
1 3674
1 3675
1 3676
1 3677
1 3678
1 3679
1 3680
1 3681
1 3682
1 3683
1 3684
1 3685
1 3686
1 3687
1 3688
1 3689
1 3690
1 3691
1 3692
1 3693
1 3694
1 3695
1 3696
1 3697
1 3698
1 3699
1 3700
1 3701
1 3702
1 3703
1 3704
1 3705
1 3706
1 3707
1 3708
1 3709
1 3710
1 3711
1 3712
1 3713
1 3714
1 3715
1 3716
1 3717
1 3718
1 3719
1 3720
1 3721
1 3722
1 3723
1 3724
1 3725
1 3726
1 3727
1 3728
1 3729
1 3730
1 3731
1 3732
1 3733
1 3734
1 3735
1 3736
1 3737
1 3738
1 3739
1 3740
1 3741
1 3742
1 3743
1 3744
1 3745
1 3746
1 3747
1 3748
1 3749
1 3750
1 3751
1 3752
1 3753
1 3754
1 3755
1 3756
1 3757
1 3758
1 3759
1 3760
1 3761
1 3762
1 3763
1 3764
1 3765
1 3766
1 3767
1 3768
1 3769
1 3770
1 3771
1 3772
1 3773
1 3774
1 3775
1 3776
1 3777
1 3778
1 3779
1 3780
1 3781
1 3782
1 3783
1 3784
1 3785
1 3786
1 3787
1 3788
1 3789
1 3790
1 3791
1 3792
1 3793
1 3794
1 3795
1 3796
1 3797
1 3798
1 3799
1 3800
1 3801
1 3802
1 3803
1 3804
1 3805
1 3806
1 3807
1 3808
1 3809
1 3810
1 3811
1 3812
1 3813
1 3814
1 3815
1 3816
1 3817
1 3818
1 3819
1 3820
1 3821
1 3822
1 3823
1 3824
1 3825
1 3826
1 3827
1 3828
1 3829
1 3830
1 3831
1 3832
1 3833
1 3834
1 3835
1 3836
1 3837
1 3838
1 3839
1 3840
1 3841
1 3842
1 3843
1 3844
1 3845
1 3846
1 3847
1 3848
1 3849
1 3850
1 3851
1 3852
1 3853
1 3854
1 3855
1 3856
1 3857
1 3858
1 3859
1 3860
1 3861
1 3862
1 3863
1 3864
1 3865
1 3866
1 3867
1 3868
1 3869
1 3870
1 3871
1 3872
1 3873
1 3874
1 3875
1 3876
1 3877
1 3878
1 3879
1 3880
1 3881
1 3882
1 3883
1 3884
1 3885
1 3886
1 3887
1 3888
1 3889
1 3890
1 3891
1 3892
1 3893
1 3894
1 3895
1 3896
1 3897
1 3898
1 3899
1 3900
1 3901
1 3902
1 3903
1 3904
1 3905
1 3906
1 3907
1 3908
1 3909
1 3910
1 3911
1 3912
1 3913
1 3914
1 3915
1 3916
1 3917
1 3918
1 3919
1 3920
1 3921
1 3922
1 3923
1 3924
1 3925
1 3926
1 3927
1 3928
1 3929
1 3930
1 3931
1 3932
1 3933
1 3934
1 3935
1 3936
1 3937
1 3938
1 3939
1 3940
1 3941
1 3942
1 3943
1 3944
1 3945
1 3946
1 3947
1 3948
1 3949
1 3950
1 3951
1 3952
1 3953
1 3954
1 3955
1 3956
1 3957
1 3958
1 3959
1 3960
1 3961
1 3962
1 3963
1 3964
1 3965
1 3966
1 3967
1 3968
1 3969
1 3970
1 3971
1 3972
1 3973
1 3974
1 3975
1 3976
1 3977
1 3978
1 3979
1 3980
1 3981
1 3982
1 3983
1 3984
1 3985
1 3986
1 3987
1 3988
1 3989
1 3990
1 3991
1 3992
1 3993
1 3994
1 3995
1 3996
1 3997
1 3998
1 3999
1 4000
1 4001
1 4002
1 4003
1 4004
1 4005
1 4006
1 4007
1 4008
1 4009
1 4010
1 4011
1 4012
1 4013
1 4014
1 4015
1 4016
1 4017
1 4018
1 4019
1 4020
1 4021
1 4022
1 4023
1 4024
1 4025
1 4026
1 4027
1 4028
1 4029
1 4030
1 4031
1 4032
1 4033
1 4034
1 4035
1 4036
1 4037
1 4038
1 4039
1 4040
1 4041
1 4042
1 4043
1 4044
1 4045
1 4046
1 4047
1 4048
1 4049
1 4050
1 4051
1 4052
1 4053
1 4054
1 4055
1 4056
1 4057
1 4058
1 4059
1 4060
1 4061
1 4062
1 4063
1 4064
1 4065
1 4066
1 4067
1 4068
1 4069
1 4070
1 4071
1 4072
1 4073
1 4074
1 4075
1 4076
1 4077
1 4078
1 4079
1 4080
1 4081
1 4082
1 4083
1 4084
1 4085
1 4086
1 4087
1 4088
1 4089
1 4090
1 4091
1 4092
1 4093
1 4094
1 4095
1 4096
1 4097
1 4098
1 4099
1 4100
1 4101
1 4102
1 4103
1 4104
1 4105
1 4106
1 4107
1 4108
1 4109
1 4110
1 4111
1 4112
1 4113
1 4114
1 4115
1 4116
1 4117
1 4118
1 4119
1 4120
1 4121
1 4122
1 4123
1 4124
1 4125
1 4126
1 4127
1 4128
1 4129
1 4130
1 4131
1 4132
1 4133
1 4134
1 4135
1 4136
1 4137
1 4138
1 4139
1 4140
1 4141
1 4142
1 4143
1 4144
1 4145
1 4146
1 4147
1 4148
1 4149
1 4150
1 4151
1 4152
1 4153
1 4154
1 4155
1 4156
1 4157
1 4158
1 4159
1 4160
1 4161
1 4162
1 4163
1 4164
1 4165
1 4166
1 4167
1 4168
1 4169
1 4170
1 4171
1 4172
1 4173
1 4174
1 4175
1 4176
1 4177
1 4178
1 4179
1 4180
1 4181
1 4182
1 4183
1 4184
1 4185
1 4186
1 4187
1 4188
1 4189
1 4190
1 4191
1 4192
1 4193
1 4194
1 4195
1 4196
1 4197
1 4198
1 4199
1 4200
1 4201
1 4202
1 4203
1 4204
1 4205
1 4206
1 4207
1 4208
1 4209
1 4210
1 4211
1 4212
1 4213
1 4214
1 4215
1 4216
1 4217
1 4218
1 4219
1 4220
1 4221
1 4222
1 4223
1 4224
1 4225
1 4226
1 4227
1 4228
1 4229
1 4230
1 4231
1 4232
1 4233
1 4234
1 4235
1 4236
1 4237
1 4238
1 4239
1 4240
1 4241
1 4242
1 4243
1 4244
1 4245
1 4246
1 4247
1 4248
1 4249
1 4250
1 4251
1 4252
1 4253
1 4254
1 4255
1 4256
1 4257
1 4258
1 4259
1 4260
1 4261
1 4262
1 4263
1 4264
1 4265
1 4266
1 4267
1 4268
1 4269
1 4270
1 4271
1 4272
1 4273
1 4274
1 4275
1 4276
1 4277
1 4278
1 4279
1 4280
1 4281
1 4282
1 4283
1 4284
1 4285
1 4286
1 4287
1 4288
1 4289
1 4290
1 4291
1 4292
1 4293
1 4294
1 4295
1 4296
1 4297
1 4298
1 4299
1 4300
1 4301
1 4302
1 4303
1 4304
1 4305
1 4306
1 4307
1 4308
1 4309
1 4310
1 4311
1 4312
1 4313
1 4314
1 4315
1 4316
1 4317
1 4318
1 4319
1 4320
1 4321
1 4322
1 4323
1 4324
1 4325
1 4326
1 4327
1 4328
1 4329
1 4330
1 4331
1 4332
1 4333
1 4334
1 4335
1 4336
1 4337
1 4338
1 4339
1 4340
1 4341
1 4342
1 4343
1 4344
1 4345
1 4346
1 4347
1 4348
1 4349
1 4350
1 4351
1 4352
1 4353
1 4354
1 4355
1 4356
1 4357
1 4358
1 4359
1 4360
1 4361
1 4362
1 4363
1 4364
1 4365
1 4366
1 4367
1 4368
1 4369
1 4370
1 4371
1 4372
1 4373
1 4374
1 4375
1 4376
1 4377
1 4378
1 4379
1 4380
1 4381
1 4382
1 4383
1 4384
1 4385
1 4386
1 4387
1 4388
1 4389
1 4390
1 4391
1 4392
1 4393
1 4394
1 4395
1 4396
1 4397
1 4398
1 4399
1 4400
1 4401
1 4402
1 4403
1 4404
1 4405
1 4406
1 4407
1 4408
1 4409
1 4410
1 4411
1 4412
1 4413
1 4414
1 4415
1 4416
1 4417
1 4418
1 4419
1 4420
1 4421
1 4422
1 4423
1 4424
1 4425
1 4426
1 4427
1 4428
1 4429
1 4430
1 4431
1 4432
1 4433
1 4434
1 4435
1 4436
1 4437
1 4438
1 4439
1 4440
1 4441
1 4442
1 4443
1 4444
1 4445
1 4446
1 4447
1 4448
1 4449
1 4450
1 4451
1 4452
1 4453
1 4454
1 4455
1 4456
1 4457
1 4458
1 4459
1 4460
1 4461
1 4462
1 4463
1 4464
1 4465
1 4466
1 4467
1 4468
1 4469
1 4470
1 4471
1 4472
1 4473
1 4474
1 4475
1 4476
1 4477
1 4478
1 4479
1 4480
1 4481
1 4482
1 4483
1 4484
1 4485
1 4486
1 4487
1 4488
1 4489
1 4490
1 4491
1 4492
1 4493
1 4494
1 4495
1 4496
1 4497
1 4498
1 4499
1 4500
1 4501
1 4502
1 4503
1 4504
1 4505
1 4506
1 4507
1 4508
1 4509
1 4510
1 4511
1 4512
1 4513
1 4514
1 4515
1 4516
1 4517
1 4518
1 4519
1 4520
1 4521
1 4522
1 4523
1 4524
1 4525
1 4526
1 4527
1 4528
1 4529
1 4530
1 4531
1 4532
1 4533
1 4534
1 4535
1 4536
1 4537
1 4538
1 4539
1 4540
1 4541
1 4542
1 4543
1 4544
1 4545
1 4546
1 4547
1 4548
1 4549
1 4550
1 4551
1 4552
1 4553
1 4554
1 4555
1 4556
1 4557
1 4558
1 4559
1 4560
1 4561
1 4562
1 4563
1 4564
1 4565
1 4566
1 4567
1 4568
1 4569
1 4570
1 4571
1 4572
1 4573
1 4574
1 4575
1 4576
1 4577
1 4578
1 4579
1 4580
1 4581
1 4582
1 4583
1 4584
1 4585
1 4586
1 4587
1 4588
1 4589
1 4590
1 4591
1 4592
1 4593
1 4594
1 4595
1 4596
1 4597
1 4598
1 4599
1 4600
1 4601
1 4602
1 4603
1 4604
1 4605
1 4606
1 4607
1 4608
1 4609
1 4610
1 4611
1 4612
1 4613
1 4614
1 4615
1 4616
1 4617
1 4618
1 4619
1 4620
1 4621
1 4622
1 4623
1 4624
1 4625
1 4626
1 4627
1 4628
1 4629
1 4630
1 4631
1 4632
1 4633
1 4634
1 4635
1 4636
1 4637
1 4638
1 4639
1 4640
1 4641
1 4642
1 4643
1 4644
1 4645
1 4646
1 4647
1 4648
1 4649
1 4650
1 4651
1 4652
1 4653
1 4654
1 4655
1 4656
1 4657
1 4658
1 4659
1 4660
1 4661
1 4662
1 4663
1 4664
1 4665
1 4666
1 4667
1 4668
1 4669
1 4670
1 4671
1 4672
1 4673
1 4674
1 4675
1 4676
1 4677
1 4678
1 4679
1 4680
1 4681
1 4682
1 4683
1 4684
1 4685
1 4686
1 4687
1 4688
1 4689
1 4690
1 4691
1 4692
1 4693
1 4694
1 4695
1 4696
1 4697
1 4698
1 4699
1 4700
1 4701
1 4702
1 4703
1 4704
1 4705
1 4706
1 4707
1 4708
1 4709
1 4710
1 4711
1 4712
1 4713
1 4714
1 4715
1 4716
1 4717
1 4718
1 4719
1 4720
1 4721
1 4722
1 4723
1 4724
1 4725
1 4726
1 4727
1 4728
1 4729
1 4730
1 4731
1 4732
1 4733
1 4734
1 4735
1 4736
1 4737
1 4738
1 4739
1 4740
1 4741
1 4742
1 4743
1 4744
1 4745
1 4746
1 4747
1 4748
1 4749
1 4750
1 4751
1 4752
1 4753
1 4754
1 4755
1 4756
1 4757
1 4758
1 4759
1 4760
1 4761
1 4762
1 4763
1 4764
1 4765
1 4766
1 4767
1 4768
1 4769
1 4770
1 4771
1 4772
1 4773
1 4774
1 4775
1 4776
1 4777
1 4778
1 4779
1 4780
1 4781
1 4782
1 4783
1 4784
1 4785
1 4786
1 4787
1 4788
1 4789
1 4790
1 4791
1 4792
1 4793
1 4794
1 4795
1 4796
1 4797
1 4798
1 4799
1 4800
1 4801
1 4802
1 4803
1 4804
1 4805
1 4806
1 4807
1 4808
1 4809
1 4810
1 4811
1 4812
1 4813
1 4814
1 4815
1 4816
1 4817
1 4818
1 4819
1 4820
1 4821
1 4822
1 4823
1 4824
1 4825
1 4826
1 4827
1 4828
1 4829
1 4830
1 4831
1 4832
1 4833
1 4834
1 4835
1 4836
1 4837
1 4838
1 4839
1 4840
1 4841
1 4842
1 4843
1 4844
1 4845
1 4846
1 4847
1 4848
1 4849
1 4850
1 4851
1 4852
1 4853
1 4854
1 4855
1 4856
1 4857
1 4858
1 4859
1 4860
1 4861
1 4862
1 4863
1 4864
1 4865
1 4866
1 4867
1 4868
1 4869
1 4870
1 4871
1 4872
1 4873
1 4874
1 4875
1 4876
1 4877
1 4878
1 4879
1 4880
1 4881
1 4882
1 4883
1 4884
1 4885
1 4886
1 4887
1 4888
1 4889
1 4890
1 4891
1 4892
1 4893
1 4894
1 4895
1 4896
1 4897
1 4898
1 4899
1 4900
1 4901
1 4902
1 4903
1 4904
1 4905
1 4906
1 4907
1 4908
1 4909
1 4910
1 4911
1 4912
1 4913
1 4914
1 4915
1 4916
1 4917
1 4918
1 4919
1 4920
1 4921
1 4922
1 4923
1 4924
1 4925
1 4926
1 4927
1 4928
1 4929
1 4930
1 4931
1 4932
1 4933
1 4934
1 4935
1 4936
1 4937
1 4938
1 4939
1 4940
1 4941
1 4942
1 4943
1 4944
1 4945
1 4946
1 4947
1 4948
1 4949
1 4950
1 4951
1 4952
1 4953
1 4954
1 4955
1 4956
1 4957
1 4958
1 4959
1 4960
1 4961
1 4962
1 4963
1 4964
1 4965
1 4966
1 4967
1 4968
1 4969
1 4970
1 4971
1 4972
1 4973
1 4974
1 4975
1 4976
1 4977
1 4978
1 4979
1 4980
1 4981
1 4982
1 4983
1 4984
1 4985
1 4986
1 4987
1 4988
1 4989
1 4990
1 4991
1 4992
1 4993
1 4994
1 4995
1 4996
1 4997
1 4998
1 4999
CELL_TYPES 5000
1 
1 
1 
1 
1 
1 
1 
1 
1 
1 
1 
1 
1 
1 
1 
1 
1 
1 
1 
1 
1 
1 
1 
1 
1 
1 
1 
1 
1 
1 
1 
1 
1 
1 
1 
1 
1 
1 
1 
1 
1 
1 
1 
1 
1 
1 
1 
1 
1 
1 
1 
1 
1 
1 
1 
1 
1 
1 
1 
1 
1 
1 
1 
1 
1 
1 
1 
1 
1 
1 
1 
1 
1 
1 
1 
1 
1 
1 
1 
1 
1 
1 
1 
1 
1 
1 
1 
1 
1 
1 
1 
1 
1 
1 
1 
1 
1 
1 
1 
1 
1 
1 
1 
1 
1 
1 
1 
1 
1 
1 
1 
1 
1 
1 
1 
1 
1 
1 
1 
1 
1 
1 
1 
1 
1 
1 
1 
1 
1 
1 
1 
1 
1 
1 
1 
1 
1 
1 
1 
1 
1 
1 
1 
1 
1 
1 
1 
1 
1 
1 
1 
1 
1 
1 
1 
1 
1 
1 
1 
1 
1 
1 
1 
1 
1 
1 
1 
1 
1 
1 
1 
1 
1 
1 
1 
1 
1 
1 
1 
1 
1 
1 
1 
1 
1 
1 
1 
1 
1 
1 
1 
1 
1 
1 
1 
1 
1 
1 
1 
1 
1 
1 
1 
1 
1 
1 
1 
1 
1 
1 
1 
1 
1 
1 
1 
1 
1 
1 
1 
1 
1 
1 
1 
1 
1 
1 
1 
1 
1 
1 
1 
1 
1 
1 
1 
1 
1 
1 
1 
1 
1 
1 
1 
1 
1 
1 
1 
1 
1 
1 
1 
1 
1 
1 
1 
1 
1 
1 
1 
1 
1 
1 
1 
1 
1 
1 
1 
1 
1 
1 
1 
1 
1 
1 
1 
1 
1 
1 
1 
1 
1 
1 
1 
1 
1 
1 
1 
1 
1 
1 
1 
1 
1 
1 
1 
1 
1 
1 
1 
1 
1 
1 
1 
1 
1 
1 
1 
1 
1 
1 
1 
1 
1 
1 
1 
1 
1 
1 
1 
1 
1 
1 
1 
1 
1 
1 
1 
1 
1 
1 
1 
1 
1 
1 
1 
1 
1 
1 
1 
1 
1 
1 
1 
1 
1 
1 
1 
1 
1 
1 
1 
1 
1 
1 
1 
1 
1 
1 
1 
1 
1 
1 
1 
1 
1 
1 
1 
1 
1 
1 
1 
1 
1 
1 
1 
1 
1 
1 
1 
1 
1 
1 
1 
1 
1 
1 
1 
1 
1 
1 
1 
1 
1 
1 
1 
1 
1 
1 
1 
1 
1 
1 
1 
1 
1 
1 
1 
1 
1 
1 
1 
1 
1 
1 
1 
1 
1 
1 
1 
1 
1 
1 
1 
1 
1 
1 
1 
1 
1 
1 
1 
1 
1 
1 
1 
1 
1 
1 
1 
1 
1 
1 
1 
1 
1 
1 
1 
1 
1 
1 
1 
1 
1 
1 
1 
1 
1 
1 
1 
1 
1 
1 
1 
1 
1 
1 
1 
1 
1 
1 
1 
1 
1 
1 
1 
1 
1 
1 
1 
1 
1 
1 
1 
1 
1 
1 
1 
1 
1 
1 
1 
1 
1 
1 
1 
1 
1 
1 
1 
1 
1 
1 
1 
1 
1 
1 
1 
1 
1 
1 
1 
1 
1 
1 
1 
1 
1 
1 
1 
1 
1 
1 
1 
1 
1 
1 
1 
1 
1 
1 
1 
1 
1 
1 
1 
1 
1 
1 
1 
1 
1 
1 
1 
1 
1 
1 
1 
1 
1 
1 
1 
1 
1 
1 
1 
1 
1 
1 
1 
1 
1 
1 
1 
1 
1 
1 
1 
1 
1 
1 
1 
1 
1 
1 
1 
1 
1 
1 
1 
1 
1 
1 
1 
1 
1 
1 
1 
1 
1 
1 
1 
1 
1 
1 
1 
1 
1 
1 
1 
1 
1 
1 
1 
1 
1 
1 
1 
1 
1 
1 
1 
1 
1 
1 
1 
1 
1 
1 
1 
1 
1 
1 
1 
1 
1 
1 
1 
1 
1 
1 
1 
1 
1 
1 
1 
1 
1 
1 
1 
1 
1 
1 
1 
1 
1 
1 
1 
1 
1 
1 
1 
1 
1 
1 
1 
1 
1 
1 
1 
1 
1 
1 
1 
1 
1 
1 
1 
1 
1 
1 
1 
1 
1 
1 
1 
1 
1 
1 
1 
1 
1 
1 
1 
1 
1 
1 
1 
1 
1 
1 
1 
1 
1 
1 
1 
1 
1 
1 
1 
1 
1 
1 
1 
1 
1 
1 
1 
1 
1 
1 
1 
1 
1 
1 
1 
1 
1 
1 
1 
1 
1 
1 
1 
1 
1 
1 
1 
1 
1 
1 
1 
1 
1 
1 
1 
1 
1 
1 
1 
1 
1 
1 
1 
1 
1 
1 
1 
1 
1 
1 
1 
1 
1 
1 
1 
1 
1 
1 
1 
1 
1 
1 
1 
1 
1 
1 
1 
1 
1 
1 
1 
1 
1 
1 
1 
1 
1 
1 
1 
1 
1 
1 
1 
1 
1 
1 
1 
1 
1 
1 
1 
1 
1 
1 
1 
1 
1 
1 
1 
1 
1 
1 
1 
1 
1 
1 
1 
1 
1 
1 
1 
1 
1 
1 
1 
1 
1 
1 
1 
1 
1 
1 
1 
1 
1 
1 
1 
1 
1 
1 
1 
1 
1 
1 
1 
1 
1 
1 
1 
1 
1 
1 
1 
1 
1 
1 
1 
1 
1 
1 
1 
1 
1 
1 
1 
1 
1 
1 
1 
1 
1 
1 
1 
1 
1 
1 
1 
1 
1 
1 
1 
1 
1 
1 
1 
1 
1 
1 
1 
1 
1 
1 
1 
1 
1 
1 
1 
1 
1 
1 
1 
1 
1 
1 
1 
1 
1 
1 
1 
1 
1 
1 
1 
1 
1 
1 
1 
1 
1 
1 
1 
1 
1 
1 
1 
1 
1 
1 
1 
1 
1 
1 
1 
1 
1 
1 
1 
1 
1 
1 
1 
1 
1 
1 
1 
1 
1 
1 
1 
1 
1 
1 
1 
1 
1 
1 
1 
1 
1 
1 
1 
1 
1 
1 
1 
1 
1 
1 
1 
1 
1 
1 
1 
1 
1 
1 
1 
1 
1 
1 
1 
1 
1 
1 
1 
1 
1 
1 
1 
1 
1 
1 
1 
1 
1 
1 
1 
1 
1 
1 
1 
1 
1 
1 
1 
1 
1 
1 
1 
1 
1 
1 
1 
1 
1 
1 
1 
1 
1 
1 
1 
1 
1 
1 
1 
1 
1 
1 
1 
1 
1 
1 
1 
1 
1 
1 
1 
1 
1 
1 
1 
1 
1 
1 
1 
1 
1 
1 
1 
1 
1 
1 
1 
1 
1 
1 
1 
1 
1 
1 
1 
1 
1 
1 
1 
1 
1 
1 
1 
1 
1 
1 
1 
1 
1 
1 
1 
1 
1 
1 
1 
1 
1 
1 
1 
1 
1 
1 
1 
1 
1 
1 
1 
1 
1 
1 
1 
1 
1 
1 
1 
1 
1 
1 
1 
1 
1 
1 
1 
1 
1 
1 
1 
1 
1 
1 
1 
1 
1 
1 
1 
1 
1 
1 
1 
1 
1 
1 
1 
1 
1 
1 
1 
1 
1 
1 
1 
1 
1 
1 
1 
1 
1 
1 
1 
1 
1 
1 
1 
1 
1 
1 
1 
1 
1 
1 
1 
1 
1 
1 
1 
1 
1 
1 
1 
1 
1 
1 
1 
1 
1 
1 
1 
1 
1 
1 
1 
1 
1 
1 
1 
1 
1 
1 
1 
1 
1 
1 
1 
1 
1 
1 
1 
1 
1 
1 
1 
1 
1 
1 
1 
1 
1 
1 
1 
1 
1 
1 
1 
1 
1 
1 
1 
1 
1 
1 
1 
1 
1 
1 
1 
1 
1 
1 
1 
1 
1 
1 
1 
1 
1 
1 
1 
1 
1 
1 
1 
1 
1 
1 
1 
1 
1 
1 
1 
1 
1 
1 
1 
1 
1 
1 
1 
1 
1 
1 
1 
1 
1 
1 
1 
1 
1 
1 
1 
1 
1 
1 
1 
1 
1 
1 
1 
1 
1 
1 
1 
1 
1 
1 
1 
1 
1 
1 
1 
1 
1 
1 
1 
1 
1 
1 
1 
1 
1 
1 
1 
1 
1 
1 
1 
1 
1 
1 
1 
1 
1 
1 
1 
1 
1 
1 
1 
1 
1 
1 
1 
1 
1 
1 
1 
1 
1 
1 
1 
1 
1 
1 
1 
1 
1 
1 
1 
1 
1 
1 
1 
1 
1 
1 
1 
1 
1 
1 
1 
1 
1 
1 
1 
1 
1 
1 
1 
1 
1 
1 
1 
1 
1 
1 
1 
1 
1 
1 
1 
1 
1 
1 
1 
1 
1 
1 
1 
1 
1 
1 
1 
1 
1 
1 
1 
1 
1 
1 
1 
1 
1 
1 
1 
1 
1 
1 
1 
1 
1 
1 
1 
1 
1 
1 
1 
1 
1 
1 
1 
1 
1 
1 
1 
1 
1 
1 
1 
1 
1 
1 
1 
1 
1 
1 
1 
1 
1 
1 
1 
1 
1 
1 
1 
1 
1 
1 
1 
1 
1 
1 
1 
1 
1 
1 
1 
1 
1 
1 
1 
1 
1 
1 
1 
1 
1 
1 
1 
1 
1 
1 
1 
1 
1 
1 
1 
1 
1 
1 
1 
1 
1 
1 
1 
1 
1 
1 
1 
1 
1 
1 
1 
1 
1 
1 
1 
1 
1 
1 
1 
1 
1 
1 
1 
1 
1 
1 
1 
1 
1 
1 
1 
1 
1 
1 
1 
1 
1 
1 
1 
1 
1 
1 
1 
1 
1 
1 
1 
1 
1 
1 
1 
1 
1 
1 
1 
1 
1 
1 
1 
1 
1 
1 
1 
1 
1 
1 
1 
1 
1 
1 
1 
1 
1 
1 
1 
1 
1 
1 
1 
1 
1 
1 
1 
1 
1 
1 
1 
1 
1 
1 
1 
1 
1 
1 
1 
1 
1 
1 
1 
1 
1 
1 
1 
1 
1 
1 
1 
1 
1 
1 
1 
1 
1 
1 
1 
1 
1 
1 
1 
1 
1 
1 
1 
1 
1 
1 
1 
1 
1 
1 
1 
1 
1 
1 
1 
1 
1 
1 
1 
1 
1 
1 
1 
1 
1 
1 
1 
1 
1 
1 
1 
1 
1 
1 
1 
1 
1 
1 
1 
1 
1 
1 
1 
1 
1 
1 
1 
1 
1 
1 
1 
1 
1 
1 
1 
1 
1 
1 
1 
1 
1 
1 
1 
1 
1 
1 
1 
1 
1 
1 
1 
1 
1 
1 
1 
1 
1 
1 
1 
1 
1 
1 
1 
1 
1 
1 
1 
1 
1 
1 
1 
1 
1 
1 
1 
1 
1 
1 
1 
1 
1 
1 
1 
1 
1 
1 
1 
1 
1 
1 
1 
1 
1 
1 
1 
1 
1 
1 
1 
1 
1 
1 
1 
1 
1 
1 
1 
1 
1 
1 
1 
1 
1 
1 
1 
1 
1 
1 
1 
1 
1 
1 
1 
1 
1 
1 
1 
1 
1 
1 
1 
1 
1 
1 
1 
1 
1 
1 
1 
1 
1 
1 
1 
1 
1 
1 
1 
1 
1 
1 
1 
1 
1 
1 
1 
1 
1 
1 
1 
1 
1 
1 
1 
1 
1 
1 
1 
1 
1 
1 
1 
1 
1 
1 
1 
1 
1 
1 
1 
1 
1 
1 
1 
1 
1 
1 
1 
1 
1 
1 
1 
1 
1 
1 
1 
1 
1 
1 
1 
1 
1 
1 
1 
1 
1 
1 
1 
1 
1 
1 
1 
1 
1 
1 
1 
1 
1 
1 
1 
1 
1 
1 
1 
1 
1 
1 
1 
1 
1 
1 
1 
1 
1 
1 
1 
1 
1 
1 
1 
1 
1 
1 
1 
1 
1 
1 
1 
1 
1 
1 
1 
1 
1 
1 
1 
1 
1 
1 
1 
1 
1 
1 
1 
1 
1 
1 
1 
1 
1 
1 
1 
1 
1 
1 
1 
1 
1 
1 
1 
1 
1 
1 
1 
1 
1 
1 
1 
1 
1 
1 
1 
1 
1 
1 
1 
1 
1 
1 
1 
1 
1 
1 
1 
1 
1 
1 
1 
1 
1 
1 
1 
1 
1 
1 
1 
1 
1 
1 
1 
1 
1 
1 
1 
1 
1 
1 
1 
1 
1 
1 
1 
1 
1 
1 
1 
1 
1 
1 
1 
1 
1 
1 
1 
1 
1 
1 
1 
1 
1 
1 
1 
1 
1 
1 
1 
1 
1 
1 
1 
1 
1 
1 
1 
1 
1 
1 
1 
1 
1 
1 
1 
1 
1 
1 
1 
1 
1 
1 
1 
1 
1 
1 
1 
1 
1 
1 
1 
1 
1 
1 
1 
1 
1 
1 
1 
1 
1 
1 
1 
1 
1 
1 
1 
1 
1 
1 
1 
1 
1 
1 
1 
1 
1 
1 
1 
1 
1 
1 
1 
1 
1 
1 
1 
1 
1 
1 
1 
1 
1 
1 
1 
1 
1 
1 
1 
1 
1 
1 
1 
1 
1 
1 
1 
1 
1 
1 
1 
1 
1 
1 
1 
1 
1 
1 
1 
1 
1 
1 
1 
1 
1 
1 
1 
1 
1 
1 
1 
1 
1 
1 
1 
1 
1 
1 
1 
1 
1 
1 
1 
1 
1 
1 
1 
1 
1 
1 
1 
1 
1 
1 
1 
1 
1 
1 
1 
1 
1 
1 
1 
1 
1 
1 
1 
1 
1 
1 
1 
1 
1 
1 
1 
1 
1 
1 
1 
1 
1 
1 
1 
1 
1 
1 
1 
1 
1 
1 
1 
1 
1 
1 
1 
1 
1 
1 
1 
1 
1 
1 
1 
1 
1 
1 
1 
1 
1 
1 
1 
1 
1 
1 
1 
1 
1 
1 
1 
1 
1 
1 
1 
1 
1 
1 
1 
1 
1 
1 
1 
1 
1 
1 
1 
1 
1 
1 
1 
1 
1 
1 
1 
1 
1 
1 
1 
1 
1 
1 
1 
1 
1 
1 
1 
1 
1 
1 
1 
1 
1 
1 
1 
1 
1 
1 
1 
1 
1 
1 
1 
1 
1 
1 
1 
1 
1 
1 
1 
1 
1 
1 
1 
1 
1 
1 
1 
1 
1 
1 
1 
1 
1 
1 
1 
1 
1 
1 
1 
1 
1 
1 
1 
1 
1 
1 
1 
1 
1 
1 
1 
1 
1 
1 
1 
1 
1 
1 
1 
1 
1 
1 
1 
1 
1 
1 
1 
1 
1 
1 
1 
1 
1 
1 
1 
1 
1 
1 
1 
1 
1 
1 
1 
1 
1 
1 
1 
1 
1 
1 
1 
1 
1 
1 
1 
1 
1 
1 
1 
1 
1 
1 
1 
1 
1 
1 
1 
1 
1 
1 
1 
1 
1 
1 
1 
1 
1 
1 
1 
1 
1 
1 
1 
1 
1 
1 
1 
1 
1 
1 
1 
1 
1 
1 
1 
1 
1 
1 
1 
1 
1 
1 
1 
1 
1 
1 
1 
1 
1 
1 
1 
1 
1 
1 
1 
1 
1 
1 
1 
1 
1 
1 
1 
1 
1 
1 
1 
1 
1 
1 
1 
1 
1 
1 
1 
1 
1 
1 
1 
1 
1 
1 
1 
1 
1 
1 
1 
1 
1 
1 
1 
1 
1 
1 
1 
1 
1 
1 
1 
1 
1 
1 
1 
1 
1 
1 
1 
1 
1 
1 
1 
1 
1 
1 
1 
1 
1 
1 
1 
1 
1 
1 
1 
1 
1 
1 
1 
1 
1 
1 
1 
1 
1 
1 
1 
1 
1 
1 
1 
1 
1 
1 
1 
1 
1 
1 
1 
1 
1 
1 
1 
1 
1 
1 
1 
1 
1 
1 
1 
1 
1 
1 
1 
1 
1 
1 
1 
1 
1 
1 
1 
1 
1 
1 
1 
1 
1 
1 
1 
1 
1 
1 
1 
1 
1 
1 
1 
1 
1 
1 
1 
1 
1 
1 
1 
1 
1 
1 
1 
1 
1 
1 
1 
1 
1 
1 
1 
1 
1 
1 
1 
1 
1 
1 
1 
1 
1 
1 
1 
1 
1 
1 
1 
1 
1 
1 
1 
1 
1 
1 
1 
1 
1 
1 
1 
1 
1 
1 
1 
1 
1 
1 
1 
1 
1 
1 
1 
1 
1 
1 
1 
1 
1 
1 
1 
1 
1 
1 
1 
1 
1 
1 
1 
1 
1 
1 
1 
1 
1 
1 
1 
1 
1 
1 
1 
1 
1 
1 
1 
1 
1 
1 
1 
1 
1 
1 
1 
1 
1 
1 
1 
1 
1 
1 
1 
1 
1 
1 
1 
1 
1 
1 
1 
1 
1 
1 
1 
1 
1 
1 
1 
1 
1 
1 
1 
1 
1 
1 
1 
1 
1 
1 
1 
1 
1 
1 
1 
1 
1 
1 
1 
1 
1 
1 
1 
1 
1 
1 
1 
1 
1 
1 
1 
1 
1 
1 
1 
1 
1 
1 
1 
1 
1 
1 
1 
1 
1 
1 
1 
1 
1 
1 
1 
1 
1 
1 
1 
1 
1 
1 
1 
1 
1 
1 
1 
1 
1 
1 
1 
1 
1 
1 
1 
1 
1 
1 
1 
1 
1 
1 
1 
1 
1 
1 
1 
1 
1 
1 
1 
1 
1 
1 
1 
1 
1 
1 
1 
1 
1 
1 
1 
1 
1 
1 
1 
1 
1 
1 
1 
1 
1 
1 
1 
1 
1 
1 
1 
1 
1 
1 
1 
1 
1 
1 
1 
1 
1 
1 
1 
1 
1 
1 
1 
1 
1 
1 
1 
1 
1 
1 
1 
1 
1 
1 
1 
1 
1 
1 
1 
1 
1 
1 
1 
1 
1 
1 
1 
1 
1 
1 
1 
1 
1 
1 
1 
1 
1 
1 
1 
1 
1 
1 
1 
1 
1 
1 
1 
1 
1 
1 
1 
1 
1 
1 
1 
1 
1 
1 
1 
1 
1 
1 
1 
1 
1 
1 
1 
1 
1 
1 
1 
1 
1 
1 
1 
1 
1 
1 
1 
1 
1 
1 
1 
1 
1 
1 
1 
1 
1 
1 
1 
1 
1 
1 
1 
1 
1 
1 
1 
1 
1 
1 
1 
1 
1 
1 
1 
1 
1 
1 
1 
1 
1 
1 
1 
1 
1 
1 
1 
1 
1 
1 
1 
1 
1 
1 
1 
1 
1 
1 
1 
1 
1 
1 
1 
1 
1 
1 
1 
1 
1 
1 
1 
1 
1 
1 
1 
1 
1 
1 
1 
1 
1 
1 
1 
1 
1 
1 
1 
1 
1 
1 
1 
1 
1 
1 
1 
1 
1 
1 
1 
1 
1 
1 
1 
1 
1 
1 
1 
1 
1 
1 
1 
1 
1 
1 
1 
1 
1 
1 
1 
1 
1 
1 
1 
1 
1 
1 
1 
1 
1 
1 
1 
1 
1 
1 
1 
1 
1 
1 
1 
1 
1 
1 
1 
1 
1 
1 
1 
1 
1 
1 
1 
1 
1 
1 
1 
1 
1 
1 
1 
1 
1 
1 
1 
1 
1 
1 
1 
1 
1 
1 
1 
1 
1 
1 
1 
1 
1 
1 
1 
1 
1 
1 
1 
1 
1 
1 
1 
1 
1 
1 
1 
1 
1 
1 
1 
1 
1 
1 
1 
1 
1 
1 
1 
1 
1 
1 
1 
1 
1 
1 
1 
1 
1 
1 
1 
1 
1 
1 
1 
1 
1 
1 
1 
1 
1 
1 
1 
1 
1 
1 
1 
1 
1 
1 
1 
1 
1 
1 
1 
1 
1 
1 
1 
1 
1 
1 
1 
1 
1 
1 
1 
1 
1 
1 
1 
1 
1 
1 
1 
1 
1 
1 
1 
1 
1 
1 
1 
1 
1 
1 
1 
1 
1 
1 
1 
1 
1 
1 
1 
1 
1 
1 
1 
1 
1 
1 
1 
1 
1 
1 
1 
1 
1 
1 
1 
1 
1 
1 
1 
1 
1 
1 
1 
1 
1 
1 
1 
1 
1 
1 
1 
1 
1 
1 
1 
1 
1 
1 
1 
1 
1 
1 
1 
1 
1 
1 
1 
1 
1 
1 
1 
1 
1 
1 
1 
1 
1 
1 
1 
1 
1 
1 
1 
1 
1 
1 
1 
1 
1 
1 
1 
1 
1 
1 
1 
1 
1 
1 
1 
1 
1 
1 
1 
1 
1 
1 
1 
1 
1 
1 
1 
1 
1 
1 
1 
1 
1 
1 
1 
1 
1 
1 
1 
1 
1 
1 
1 
1 
1 
1 
1 
1 
1 
1 
1 
1 
1 
1 
1 
1 
1 
1 
1 
1 
1 
1 
1 
1 
1 
1 
1 
1 
1 
1 
1 
1 
1 
1 
1 
1 
1 
1 
1 
1 
1 
1 
1 
1 
1 
1 
1 
1 
1 
1 
1 
1 
1 
1 
1 
1 
1 
1 
1 
1 
1 
1 
1 
1 
1 
1 
1 
1 
1 
1 
1 
1 
1 
1 
1 
1 
1 
1 
1 
1 
1 
1 
1 
1 
1 
1 
1 
1 
1 
1 
1 
1 
1 
1 
1 
1 
1 
1 
1 
1 
1 
1 
1 
1 
1 
1 
1 
1 
1 
1 
1 
1 
1 
1 
1 
1 
1 
1 
1 
1 
1 
1 
1 
1 
1 
1 
1 
1 
1 
1 
1 
1 
1 
1 
1 
1 
1 
1 
1 
1 
1 
1 
1 
1 
1 
1 
1 
1 
1 
1 
1 
1 
1 
1 
1 
1 
1 
1 
1 
1 
1 
1 
1 
1 
1 
1 
1 
1 
1 
1 
1 
1 
1 
1 
1 
1 
1 
1 
1 
1 
1 
1 
1 
1 
1 
1 
1 
1 
1 
1 
1 
1 
1 
1 
1 
1 
1 
1 
1 
1 
1 
1 
1 
1 
1 
1 
1 
1 
1 
1 
1 
1 
1 
1 
1 
1 
1 
1 
1 
1 
1 
1 
1 
1 
1 
1 
1 
1 
1 
1 
1 
1 
1 
1 
1 
1 
1 
1 
1 
1 
1 
1 
1 
1 
1 
1 
1 
1 
1 
1 
1 
1 
1 
1 
1 
1 
1 
1 
1 
1 
1 
1 
1 
1 
1 
1 
1 
1 
1 
1 
1 
1 
1 
1 
1 
1 
1 
1 
1 
1 
1 
1 
1 
1 
1 
1 
1 
1 
1 
1 
1 
1 
1 
1 
1 
1 
1 
1 
1 
1 
1 
1 
1 
1 
1 
1 
1 
1 
1 
1 
1 
1 
1 
1 
1 
1 
1 
1 
1 
1 
1 
1 
1 
1 
1 
1 
1 
1 
1 
1 
1 
1 
1 
1 
1 
1 
1 
1 
1 
1 
1 
1 
1 
1 
1 
1 
1 
1 
1 
1 
1 
1 
1 
1 
1 
1 
1 
1 
1 
1 
1 
1 
1 
1 
1 
1 
1 
1 
1 
1 
1 
1 
1 
1 
1 
1 
1 
1 
1 
1 
1 
1 
1 
1 
1 
1 
1 
1 
1 
1 
1 
1 
1 
1 
1 
1 
1 
1 
1 
1 
1 
1 
1 
1 
1 
1 
1 
1 
1 
1 
1 
1 
1 
1 
1 
1 
1 
1 
1 
1 
1 
1 
1 
1 
1 
1 
1 
1 
1 
1 
1 
1 
1 
1 
1 
1 
1 
1 
1 
1 
1 
1 
1 
1 
1 
1 
1 
1 
1 
1 
1 
1 
1 
1 
1 
1 
1 
1 
1 
1 
1 
1 
1 
1 
1 
1 
1 
1 
1 
1 
1 
1 
1 
1 
1 
1 
1 
1 
1 
1 
1 
1 
1 
1 
1 
1 
1 
1 
1 
1 
1 
1 
1 
1 
1 
1 
1 
1 
1 
1 
1 
1 
1 
1 
1 
1 
1 
1 
1 
1 
1 
1 
1 
1 
1 
1 
1 
1 
1 
1 
1 
1 
1 
1 
1 
1 
1 
1 
1 
1 
1 
1 
1 
1 
1 
1 
1 
1 
1 
1 
1 
1 
1 
1 
1 
1 
1 
1 
1 
1 
1 
1 
1 
1 
1 
1 
1 
1 
1 
1 
1 
1 
1 
1 
1 
1 
1 
1 
1 
1 
1 
1 
1 
1 
1 
1 
1 
1 
1 
1 
1 
1 
1 
1 
1 
1 
1 
1 
1 
1 
1 
1 
1 
1 
1 
1 
1 
1 
1 
1 
1 
1 
1 
1 
1 
1 
1 
1 
1 
1 
1 
1 
1 
1 
1 
1 
1 
1 
1 
1 
1 
1 
1 
1 
1 
1 
1 
1 
1 
1 
1 
1 
1 
1 
1 
1 
1 
1 
1 
1 
1 
1 
1 
1 
1 
1 
1 
1 
1 
1 
1 
1 
1 
1 
1 
1 
1 
1 
1 
1 
1 
1 
1 
1 
1 
1 
1 
1 
1 
1 
1 
1 
1 
1 
1 
1 
1 
1 
1 
1 
1 
1 
1 
1 
1 
1 
1 
1 
1 
1 
1 
1 
1 
1 
1 
1 
1 
1 
1 
1 
1 
1 
1 
1 
1 
1 
1 
1 
1 
1 
1 
1 
1 
1 
1 
1 
1 
1 
1 
1 
1 
1 
1 
1 
1 
1 
1 
1 
1 
1 
1 
1 
1 
1 
1 
1 
1 
1 
1 
1 
1 
1 
1 
1 
1 
1 
1 
1 
1 
1 
1 
1 
1 
1 
1 
1 
1 
1 
1 
1 
1 
1 
1 
1 
1 
1 
1 
1 
1 
1 
1 
1 
1 
1 
1 
1 
1 
1 
1 
1 
1 
1 
1 
1 
1 
1 
1 
1 
1 
1 
1 
1 
1 
1 
1 
1 
1 
1 
1 
1 
1 
1 
1 
1 
1 
1 
1 
1 
1 
1 
1 
1 
1 
1 
1 
1 
1 
1 
1 
1 
1 
1 
1 
1 
1 
1 
1 
1 
1 
1 
1 
1 
1 
1 
1 
1 
1 
1 
1 
1 
1 
1 
1 
1 
1 
1 
1 
1 
1 
1 
1 
1 
1 
1 
1 
1 
1 
1 
1 
1 
1 
1 
1 
1 
1 
1 
1 
1 
1 
1 
1 
1 
1 
1 
1 
1 
1 
1 
1 
1 
1 
1 
1 
1 
1 
1 
1 
1 
1 
1 
1 
1 
1 
1 
1 
1 
1 
1 
1 
1 
1 
1 
1 
1 
1 
1 
1 
1 
1 
1 
1 
1 
1 
1 
1 
1 
1 
1 
1 
1 
1 
1 
1 
1 
1 
1 
1 
1 
1 
1 
1 
1 
1 
1 
1 
1 
1 
1 
1 
1 
1 
1 
1 
1 
1 
1 
1 
1 
1 
1 
1 
1 
1 
1 
1 
1 
1 
1 
1 
1 
1 
1 
1 
1 
1 
1 
1 
1 
1 
1 
1 
1 
1 
1 
1 
1 
1 
1 
1 
1 
1 
1 
1 
1 
1 
1 
1 
1 
1 
1 
1 
1 
1 
1 
1 
1 
1 
1 
1 
1 
1 
1 
1 
1 
1 
1 
1 
1 
1 
1 
1 
1 
1 
1 
1 
1 
1 
1 
1 
1 
1 
1 
1 
1 
1 
1 
1 
1 
1 
1 
1 
1 
1 
1 
1 
1 
1 
1 
1 
1 
1 
1 
1 
1 
1 
1 
1 
1 
1 
1 
1 
1 
1 
1 
1 
1 
1 
1 
1 
1 
1 
1 
1 
1 
1 
1 
1 
1 
1 
1 
1 
1 
1 
1 
1 
1 
1 
1 
1 
1 
1 
1 
1 
1 
1 
1 
1 
1 
1 
1 
1 
1 
1 
1 
1 
1 
1 
1 
1 
1 
1 
1 
1 
1 
1 
1 
1 
1 
1 
1 
1 
1 
1 
1 
1 
1 
1 
1 
1 
1 
1 
1 
1 
1 
1 
1 
1 
1 
1 
1 
1 
1 
1 
1 
1 
1 
1 
1 
1 
1 
1 
1 
1 
1 
1 
1 
1 
1 
1 
1 
1 
1 
1 
1 
1 
1 
1 
1 
1 
1 
1 
1 
1 
1 
1 
1 
1 
1 
1 
1 
1 
1 
1 
1 
1 
1 
1 
1 
1 
1 
1 
1 
1 
1 
1 
1 
1 
1 
1 
1 
1 
1 
1 
1 
1 
1 
1 
1 
1 
1 
1 
1 
1 
1 
1 
1 
1 
1 
1 
1 
1 
1 
1 
1 
1 
1 
1 
1 
1 
1 
1 
1 
1 
1 
1 
1 
1 
1 
1 
1 
1 
1 
1 
1 
1 
1 
1 
1 
1 
1 
1 
1 
1 
1 
1 
1 
1 
1 
1 
1 
1 
1 
1 
1 
1 
1 
1 
1 
1 
1 
1 
1 
1 
1 
1 
1 
1 
1 
1 
1 
1 
1 
1 
1 
1 
1 
1 
1 
1 
1 
1 
1 
1 
1 
1 
1 
1 
1 
1 
1 
1 
1 
1 
1 
1 
1 
1 
1 
1 
1 
1 
1 
1 
1 
1 
1 
1 
1 
1 
1 
1 
1 
1 
1 
1 
1 
1 
1 
1 
1 
1 
1 
1 
1 
1 
1 
1 
1 
1 
1 
1 
1 
1 
1 
1 
1 
1 
1 
1 
1 
1 
1 
1 
1 
1 
1 
1 
1 
1 
1 
1 
1 
1 
1 
1 
1 
1 
1 
1 
1 
1 
1 
1 
1 
1 
1 
1 
1 
1 
1 
1 
1 
1 
1 
1 
1 
1 
1 
1 
1 
1 
1 
1 
1 
1 
1 
1 
1 
1 
1 
1 
1 
1 
1 
1 
1 
1 
1 
1 
1 
1 
1 
1 
1 
1 
1 
1 
1 
1 
1 
1 
1 
1 
1 
1 
1 
1 
1 
1 
1 
1 
1 
1 
1 
1 
1 
1 
1 
1 
1 
1 
1 
1 
1 
1 
1 
1 
1 
1 
1 
1 
1 
1 
1 
1 
1 
1 
1 
1 
1 
1 
1 
1 
1 
1 
1 
1 
1 
1 
1 
1 
1 
1 
1 
1 
1 
1 
1 
1 
1 
1 
1 
1 
1 
1 
1 
1 
1 
1 
1 
1 
1 
1 
1 
1 
1 
1 
1 
1 
1 
1 
1 
1 
1 
1 
1 
1 
1 
1 
1 
1 
1 
1 
1 
1 
1 
1 
1 
1 
1 
1 
1 
1 
1 
1 
1 
1 
1 
1 
1 
1 
1 
1 
1 
1 
1 
1 
1 
1 
1 
1 
1 
1 
1 
1 
1 
1 
1 
1 
1 
1 
1 
1 
1 
1 
1 
1 
1 
1 
1 
1 
1 
1 
1 
1 
1 
1 
1 
1 
1 
1 
1 
1 
1 
1 
1 
1 
1 
1 
1 
1 
1 
1 
1 
1 
1 
1 
1 
1 
1 
1 
1 
1 
1 
1 
1 
1 
1 
1 
1 
1 
1 
1 
1 
1 
1 
1 
1 
1 
1 
1 
1 
1 
1 
1 
1 
1 
1 
1 
1 
1 
1 
1 
1 
1 
1 
1 
1 
1 
1 
1 
1 
1 
1 
1 
1 
1 
1 
1 
1 
1 
1 
1 
1 
1 
1 
1 
1 
1 
1 
1 
1 
1 
1 
1 
1 
1 
1 
1 
1 
1 
1 
1 
1 
1 
1 
1 
1 
1 
1 
1 
1 
1 
1 
1 
1 
1 
1 
1 
1 
1 
1 
1 
1 
1 
1 
1 
1 
1 
1 
1 
1 
1 
1 
1 
1 
1 
1 
1 
1 
1 
1 
1 
1 
1 
1 
1 
1 
1 
1 
1 
1 
1 
1 
1 
1 
1 
1 
1 
1 
1 
1 
1 
1 
1 
1 
1 
1 
1 
1 
1 
1 
1 
1 
1 
1 
1 
1 
1 
1 
1 
1 
1 
1 
1 
1 
1 
1 
1 
1 
1 
1 
1 
1 
1 
1 
1 
1 
1 
1 
1 
1 
1 
1 
1 
1 
1 
1 
1 
1 
1 
1 
1 
1 
1 
1 
1 
1 
1 
1 
1 
1 
1 
1 
1 
1 
1 
1 
1 
1 
1 
1 
1 
1 
1 
1 
1 
1 
1 
1 
1 
1 
1 
1 
1 
1 
1 
1 
1 
1 
1 
1 
1 
1 
1 
1 
1 
1 
1 
1 
1 
1 
POINT_DATA 5000
VECTORS Stress float
-140.088 -308.448 0.
-667.355 -1364.39 0.
-1.90579 -10.9529 0.
-1326.76 -2097.84 0.
-547.056 -906.449 0.
-0.52383 -0.938535 0.
-1486.42 -2178.91 0.
-990.326 -1547.96 0.
-499.808 -911.415 0.
-955.375 -1364.14 0.
-744.633 -1089.35 0.
-534.572 -813.879 0.
-725.965 -1016.52 0.
-671.489 -984.421 0.
-627.839 -950.646 0.
-539.072 -835.088 0.
-449.573 -720.264 0.
-437.298 -711.647 0.
-404.548 -675.796 0.
-371.366 -640.378 0.
-366.255 -635.118 0.
-343.235 -609.752 0.
-320.223 -584.378 0.
-322.541 -590.912 0.
-308.795 -612.909 0.
-298.029 -631.927 0.
-349.229 -694.435 0.
-358.869 -700.183 0.
-323.098 -638.345 0.
-299.076 -607.556 0.
-275.716 -576.107 0.
-276.664 -580.189 0.
-274.717 -585.44 0.
-272.898 -590.563 0.
-273.079 -609.159 0.
-282.625 -660.513 0.
-292.884 -711.153 0.
-349.723 -779.377 0.
-371.499 -830.185 0.
-343.447 -841.405 0.
-328.055 -826.596 0.
-317.123 -807.328 0.
-332.504 -803.79 0.
-334.665 -808.832 0.
-336.826 -813.874 0.
-341.881 -827.144 0.
-350.645 -847.595 0.
-359.41 -868.047 0.
-350.011 -892.204 0.
-366.53 -930.748 0.
-383.049 -969.29 0.
-423.217 -961.781 0.
-410.237 -931.496 0.
-359.002 -884.493 0.
-345.258 -852.423 0.
-331.514 -820.354 0.
-331.239 -804.819 0.
-330.205 -802.407 0.
-329.171 -799.995 0.
-316.741 -807.534 0.
-331.367 -828.414 0.
-348.398 -846.889 0.
-369.789 -825.605 0.
-341.746 -760.172 0.
-283.223 -674.727 0.
-275.016 -628.335 0.
-267.633 -581.118 0.
-268.763 -569.68 0.
-274.277 -572.275 0.
-279.92 -574.742 0.
-276.711 -570.651 0.
-299.848 -600.583 0.
-323.72 -629.782 0.
-358.736 -692.771 0.
-348.706 -686.603 0.
-341.86 -681.108 0.
-319.658 -605.443 0.
-337.052 -588.519 0.
-332.499 -586.075 0.
-360.839 -624.014 0.
-389.231 -661.9 0.
-392.138 -670.474 0.
-433.234 -718.002 0.
-474.015 -765.844 0.
-482.381 -774.779 0.
-591.908 -916.278 0.
-700.198 -1059.01 0.
-736.784 -1092.41 0.
-813.776 -1151.69 0.
-477.936 -844.546 0.
-797.365 -1243.46 0.
-1114.83 -1644.33 0.
-251.104 -492.369 0.
-830.299 -1402.15 0.
-1439.75 -2281.67 0.
-1.0755 -4.50728 0.
-243.474 -424.653 0.
-1189 -2034.49 0.
5.75102 12.1503 0.
-385.985 -842.12 0.
-1.46386 -17.3673 0.
2.60808 5.86781 0.
-1.27681 -12.646 0.
-1.25111 -5.24675 0.
1.9966 3.94138 0.
2.20974 4.91272 0.
0.372674 0.785818 0.
-0.203442 -4.032 0.
-0.000322786 -0.828388 0.
-238.724 -495.258 0.
-66.4133 -181.635 0.
-0.204246 -0.446537 0.
-477.24 -746.639 0.
-427.162 -710.12 0.
-419.463 -685.67 0.
-334.721 -566.037 0.
-250.282 -446.102 0.
-348.62 -605.03 0.
-317.109 -567.933 0.
-285.229 -531.205 0.
-323.701 -575.748 0.
-300.577 -550.485 0.
-277.488 -525.186 0.
-316.941 -516.028 0.
-302.065 -539.156 0.
-288.077 -561.394 0.
-422.797 -743.273 0.
-427.413 -754.044 0.
-315.001 -569.711 0.
-288.384 -541.516 0.
-263.699 -511.389 0.
-284.046 -564.965 0.
-281.699 -570.616 0.
-279.489 -576.13 0.
-265.473 -561.591 0.
-274.162 -613.803 0.
-283.702 -665.165 0.
-388.244 -795.85 0.
-410.021 -846.655 0.
-310.579 -771.606 0.
-295.985 -755.997 0.
-282.238 -739.542 0.
-302.718 -790.992 0.
-304.879 -796.035 0.
-307.04 -801.077 0.
-310.705 -813.751 0.
-319.47 -834.203 0.
-328.235 -854.654 0.
-300.204 -827.324 0.
-313.718 -868.877 0.
-328.877 -908.778 0.
-450.684 -973.52 0.
-437.704 -943.236 0.
-313.562 -857.844 0.
-302.933 -822.657 0.
-293.195 -786.58 0.
-296.893 -790.068 0.
-297.041 -786.475 0.
-298.872 -781.199 0.
-286.692 -733.498 0.
-302.844 -752.853 0.
-319.971 -771.234 0.
-410.275 -842.913 0.
-382.231 -777.483 0.
-271.544 -629.525 0.
-264.193 -582.276 0.
-258.059 -533.808 0.
-275.733 -555.069 0.
-281.515 -557.396 0.
-287.424 -559.597 0.
-260.829 -496.331 0.
-287.006 -523.227 0.
-314.095 -549.21 0.
-417.199 -747.724 0.
-411.96 -736.768 0.
-325.532 -614.386 0.
-313.178 -526.604 0.
-331.531 -508.721 0.
-279.5 -518.992 0.
-309.573 -555.202 0.
-339.872 -591.185 0.
-278.144 -533.863 0.
-317.989 -582.654 0.
-357.566 -631.711 0.
-213.575 -429.224 0.
-315.65 -578.256 0.
-418.28 -726.732 0.
-371.046 -680.523 0.
-440.138 -747.755 0.
-0.0161132 -1.30102 0.
0.371518 0.996188 0.
-94.4336 -214.738 0.
1.82726 4.58906 0.
1.66226 3.56023 0.
0.29568 0.560936 0.
-0.351721 -2.73588 0.
-1.07486 -6.42934 0.
3.56056 6.82182 0.
-1.30192 -13.7316 0.
2.85111 6.61385 0.
-3.44598 -8.35193 0.
2.74446 6.72307 0.
4.68195 11.5986 0.
-0.575385 -3.81781 0.
0.0632594 0.631433 0.
5.75863 14.2889 0.
2.74666 6.69575 0.
0.037025 3.1308 0.
-0.0289304 -7.1096 0.
0.137892 0.381027 0.
0.104231 0.27321 0.
-0.0156992 -0.229962 0.
-253.975 -451.299 0.
-212.668 -405.985 0.
-222.333 -409.447 0.
-142.326 -285.029 0.
-64.8726 -158.058 0.
-262.032 -496.323 0.
-232.004 -457.736 0.
-201.743 -419.382 0.
-284.915 -512.611 0.
-261.305 -487.83 0.
-238.139 -462.606 0.
-317.303 -435.182 0.
-302.443 -458.295 0.
-288.032 -480.956 0.
-508.49 -779.985 0.
-513.106 -790.756 0.
-325.758 -482.223 0.
-300.24 -452.927 0.
-275.637 -422.715 0.
-295.811 -545.357 0.
-292.827 -551.645 0.
-290.021 -557.756 0.
-264.366 -507.524 0.
-272.21 -560.583 0.
-280.933 -612.763 0.
-426.765 -812.323 0.
-448.542 -863.125 0.
-283.781 -695.737 0.
-269.709 -679.605 0.
-256.576 -662.534 0.
-289.84 -761.288 0.
-289.5 -768.831 0.
-289.629 -775.906 0.
-293.581 -786.306 0.
-299.368 -809.736 0.
-305.485 -832.837 0.
-270.795 -742.048 0.
-283.607 -784.305 0.
-314.918 -870.619 0.
-478.151 -985.26 0.
-465.171 -954.977 0.
-298.735 -800.581 0.
-288.315 -765.184 0.
-278.749 -728.932 0.
-283.403 -754.463 0.
-284.445 -749.975 0.
-285.864 -745.11 0.
-264.136 -651.968 0.
-279.478 -672.135 0.
-295.835 -691.287 0.
-450.76 -860.221 0.
-422.715 -794.795 0.
-275.782 -568.407 0.
-269.961 -519.624 0.
-265.19 -469.793 0.
-286.926 -536.235 0.
-293.138 -538.132 0.
-299.499 -539.881 0.
-267.108 -399.85 0.
-292.036 -427.997 0.
-317.876 -455.233 0.
-496.215 -782.124 0.
-491.361 -770.784 0.
-267.056 -406.015 0.
-310.861 -443.6 0.
-328.227 -426.705 0.
-235.554 -442.856 0.
-265.497 -479.2 0.
-295.248 -515.735 0.
-169.762 -391.64 0.
-207.725 -442.324 0.
-245.669 -493.026 0.
-13.2934 -15.1448 0.
-74.1809 -205.444 0.
-156.865 -373.946 0.
-77.2076 -196.739 0.
-122.319 -288.006 0.
0.01129 0.888546 0.
-6.44639e-05 -0.029211 0.
-0.037751 -1.15882 0.
0.0714996 5.34782 0.
-0.489856 -8.21711 0.
-0.307781 -2.65663 0.
5.97354 14.2677 0.
-0.0791257 -0.778005 0.
-1.80748 -13.6882 0.
5.48044 13.2937 0.
5.588 13.7283 0.
-65.0453 -166.774 0.
-89.5746 -234.534 0.
-0.587591 -1.53614 0.
-600.417 -1394.4 0.
-66.6796 -155.047 0.
-1.07531 -13.2503 0.
-911.426 -1963.11 0.
-278.155 -605.178 0.
-0.900334 -8.2465 0.
-1250.11 -2374.07 0.
-612.08 -1230.65 0.
-18.5285 -42.7367 0.
-1011.97 -1898.56 0.
-677.2 -1362.78 0.
-761.115 -1414.47 0.
-553.56 -1096.91 0.
-350.542 -774.82 0.
-620.589 -1177.95 0.
-494.263 -991.067 0.
-368.896 -803.224 0.
-535.507 -981.16 0.
-462.227 -889.502 0.
-388.194 -798.597 0.
-487.68 -789.445 0.
-436.183 -740.533 0.
-384.822 -691.485 0.
-644.533 -1088.13 0.
-633.837 -1063.17 0.
-419.751 -736.145 0.
-409.394 -718.381 0.
-399.104 -700.55 0.
-418.713 -767.134 0.
-411.76 -793.874 0.
-405.982 -819.44 0.
-390.154 -782.683 0.
-399.33 -845.894 0.
-409.358 -908.253 0.
-560.699 -1159.28 0.
-585.396 -1216.9 0.
-408.487 -1054.94 0.
-407.531 -1061.64 0.
-406.768 -1068.15 0.
-430.087 -1131.07 0.
-424.162 -1135.01 0.
-419.281 -1137.9 0.
-424.081 -1152.82 0.
-432.268 -1187.24 0.
-441.663 -1220.45 0.
-434.871 -1200.32 0.
-444.067 -1225.73 0.
-470.482 -1301.49 0.
-619.721 -1381.11 0.
-608.77 -1355.56 0.
-434.934 -1187.37 0.
-428.571 -1161.22 0.
-422.904 -1134.38 0.
-424.006 -1141.76 0.
-425.205 -1127.99 0.
-427.4 -1113.23 0.
-405.886 -1046.8 0.
-403.213 -1034.92 0.
-400.771 -1022.81 0.
-584.973 -1202.47 0.
-566.072 -1158.37 0.
-408.231 -903.551 0.
-396.584 -827.884 0.
-386.134 -751.02 0.
-404.307 -790.953 0.
-409.067 -764.916 0.
-414.598 -738.108 0.
-377.079 -652.916 0.
-394.893 -681.843 0.
-412.806 -710.671 0.
-616.332 -1070.52 0.
-630.202 -1102.9 0.
-372.772 -674.108 0.
-448.781 -767.14 0.
-513.718 -849.265 0.
-397.524 -828.098 0.
-481.929 -937.64 0.
-565.974 -1047.54 0.
-353.827 -802.907 0.
-507.11 -1047.05 0.
-663.02 -1288.57 0.
-337.7 -756.283 0.
-570.307 -1134.69 0.
-810.606 -1505.4 0.
-662.538 -1377.78 0.
-1097.99 -2137.02 0.
-0.331667 -0.745532 0.
-475.089 -1007.66 0.
-1091.37 -2223.19 0.
1.32155 3.00785 0.
-164.108 -370.682 0.
-821.063 -1842.8 0.
-0.899136 -14.175 0.
-1.81727 -4.36496 0.
-454.377 -1088.55 0.
5.06824 13.051 0.
-75.9899 -196.251 0.
-76.9434 -196.905 0.
-177.962 -472.306 0.
-2.30873 -6.11711 0.
-185.569 -443.36 0.
-0.633 -1.51607 0.
2.18795 5.25545 0.
-188.071 -431.255 0.
2.03091 4.75153 0.
-0.598271 -8.81802 0.
-162.023 -344.457 0.
1.0556 2.46775 0.
2.12234 5.49701 0.
-279.983 -669.188 0.
-20.6333 -57.1009 0.
-330.17 -740.22 0.
-152.821 -392.157 0.
-5.41419 -14.1517 0.
-344.15 -781.936 0.
-230.802 -581.964 0.
-132.511 -366.936 0.
-407.781 -778.38 0.
-339.172 -682.021 0.
-270.361 -585.865 0.
-432.173 -663.667 0.
-382.995 -612.427 0.
-333.581 -561.422 0.
-649.318 -1090.2 0.
-638.621 -1065.25 0.
-440.361 -711.304 0.
-427.731 -695.812 0.
-415.368 -680.054 0.
-413.824 -688.609 0.
-407.064 -715.158 0.
-401.183 -740.827 0.
-381.764 -717.986 0.
-390.139 -782.001 0.
-399.346 -845.184 0.
-542.571 -1151.46 0.
-567.27 -1209.09 0.
-397.252 -1020.98 0.
-396.352 -1027.62 0.
-395.669 -1034.05 0.
-399.567 -1049.42 0.
-393.87 -1053.12 0.
-389.189 -1055.81 0.
-396.736 -1070.01 0.
-404.387 -1104.98 0.
-413.301 -1138.67 0.
-435.885 -1201.13 0.
-445.079 -1226.53 0.
-475.597 -1315.6 0.
-585.271 -1366.32 0.
-574.32 -1340.77 0.
-414.549 -1129.04 0.
-408.437 -1102.64 0.
-403.025 -1075.54 0.
-397.094 -1064.82 0.
-398.221 -1051.12 0.
-400.32 -1036.45 0.
-397.811 -1014.68 0.
-395.101 -1002.84 0.
-392.75 -990.634 0.
-569.658 -1195.87 0.
-550.756 -1151.77 0.
-397.086 -829.931 0.
-386.595 -753.104 0.
-377.121 -675.259 0.
-396.656 -715.198 0.
-402.539 -688.037 0.
-409.355 -659.942 0.
-388.169 -625.117 0.
-406.348 -653.679 0.
-424.826 -681.942 0.
-611.777 -1068.6 0.
-625.646 -1100.98 0.
-311.221 -560.754 0.
-371.302 -619.758 0.
-433.814 -704.326 0.
-237.979 -559.045 0.
-313.936 -677.079 0.
-391.23 -793.775 0.
-84.9264 -227.295 0.
-195.113 -514.712 0.
-328.148 -779.282 0.
0.363337 0.990321 0.
-104.552 -266.424 0.
-306.166 -676.245 0.
-0.0245034 -2.09049 0.
-265.877 -634.46 0.
-0.291974 -5.79873 0.
2.82809 6.59139 0.
-104.025 -229.725 0.
-0.420195 -6.69733 0.
0.582426 1.387 0.
-210.636 -497.121 0.
-1.17091 -2.88377 0.
-1.9374 -4.75264 0.
-234.759 -573.907 0.
-1.93213 -5.0132 0.
-108.123 -281.256 0.
-3.75584 -10.347 0.
-0.909766 -2.51262 0.
-1.8156 -5.01589 0.
-98.9394 -268.282 0.
-0.488706 -1.3222 0.
1.09471 2.95509 0.
-341.589 -911.952 0.
-9.92671 -26.7136 0.
3.35175 9.06148 0.
-588.082 -1499.04 0.
-120.925 -307.513 0.
-0.437882 -1.1145 0.
-771.022 -1845.44 0.
-318.008 -788.557 0.
-656.385 -1416.44 0.
-427.405 -952.662 0.
-205.679 -481.63 0.
-622.966 -1285.43 0.
-436.035 -941.614 0.
-253.693 -593.214 0.
-559.958 -1080.02 0.
-435.645 -854.866 0.
-312.665 -628.382 0.
-460.303 -764.89 0.
-362.217 -580.756 0.
-264.058 -396.697 0.
-546.212 -937.525 0.
-475.401 -844.539 0.
-321.807 -437.06 0.
-323.979 -451.706 0.
-326.169 -466.335 0.
-309.41 -484.642 0.
-318.845 -516.448 0.
-328.618 -547.917 0.
-282.99 -536.29 0.
-279.059 -543.397 0.
-275.467 -550.165 0.
-406.892 -855.546 0.
-412.734 -869.184 0.
-243.383 -616.486 0.
-256.996 -656.559 0.
-270.7 -696.541 0.
-263.902 -706.965 0.
-270.139 -732.944 0.
-276.915 -758.382 0.
-288.312 -761.384 0.
-286.926 -761.092 0.
-285.81 -760.53 0.
-303.486 -834.564 0.
-287.202 -788.441 0.
-292.091 -805.658 0.
-370.698 -914.83 0.
-380.737 -938.258 0.
-266 -719.594 0.
-273.428 -733.502 0.
-281.1 -747.165 0.
-280.166 -741.064 0.
-274.35 -719.591 0.
-268.998 -697.653 0.
-275.402 -684.686 0.
-260.057 -639.945 0.
-244.771 -595.145 0.
-416.18 -859.383 0.
-413.748 -853.701 0.
-283.695 -512.761 0.
-292.257 -522.481 0.
-300.948 -532.07 0.
-335.562 -585.091 0.
-323.261 -546.667 0.
-318.308 -500.895 0.
-306.063 -459.014 0.
-310.925 -460.969 0.
-323.723 -454.988 0.
-483.427 -866.154 0.
-561.311 -965.824 0.
-251.244 -373.294 0.
-362.026 -612.902 0.
-471.258 -822.223 0.
-274.809 -598.679 0.
-429.853 -912.389 0.
-586.715 -1224.28 0.
-240.216 -594.147 0.
-437.274 -998.411 0.
-642.357 -1394.65 0.
-165.621 -400.089 0.
-414.924 -954.736 0.
-673.29 -1500.32 0.
-220.879 -572.66 0.
-693.77 -1753.64 0.
0.129042 0.337409 0.
-47.7485 -124.048 0.
-519.124 -1337.44 0.
-1.0019 -2.70788 0.
-2.18047 -5.8971 0.
-240.395 -650.834 0.
4.19769 11.4746 0.
4.84483 13.2424 0.
-37.1585 -101.556 0.
4.10518 11.3655 0.
-8.04245 -22.2657 0.
-0.155638 -0.427841 0.
-3.3269 -9.15529 0.
4.28366 11.792 0.
-182.991 -498.68 0.
-2.29042 -6.22851 0.
-0.101993 -11.9508 0.
-272.849 -734.757 0.
-2.42004 -6.56109 0.
2.56522 6.98264 0.
-340.526 -892.947 0.
-0.443398 -1.16464 0.
-0.12637 -5.88301 0.
-375.078 -955.738 0.
1.794 4.73089 0.
-312.322 -730.647 0.
-101.202 -248.637 0.
-0.0857562 -3.38264 0.
-309.334 -728.486 0.
-141.557 -365.28 0.
0.538105 1.43667 0.
-317.709 -719.368 0.
-202.035 -485.469 0.
-91.0538 -246.877 0.
-343.068 -585.201 0.
-248.322 -397.684 0.
-153.819 -209.925 0.
-423.915 -787.187 0.
-354.89 -692.392 0.
-269.841 -392.012 0.
-261.765 -416.909 0.
-260.929 -434.564 0.
-277.442 -419.704 0.
-276.515 -461.875 0.
-285.914 -493.719 0.
-274.033 -485.656 0.
-269.718 -493.146 0.
-265.756 -500.285 0.
-403.592 -854.097 0.
-409.434 -867.735 0.
-243.973 -603.991 0.
-257.382 -644.268 0.
-270.901 -684.435 0.
-248.987 -658.953 0.
-254.936 -685.219 0.
-261.46 -710.911 0.
-268.508 -720.369 0.
-266.986 -720.212 0.
-265.767 -719.752 0.
-305.391 -843.386 0.
-288.979 -797.392 0.
-288.383 -794.739 0.
-353.954 -907.623 0.
-363.994 -931.051 0.
-251.646 -682.618 0.
-258.969 -696.631 0.
-266.542 -710.394 0.
-268.695 -699.129 0.
-262.737 -677.796 0.
-257.229 -656.015 0.
-274.753 -674.131 0.
-259.54 -629.258 0.
-244.394 -584.317 0.
-409.027 -856.284 0.
-406.595 -850.602 0.
-267.26 -469.439 0.
-275.947 -479.034 0.
-290.036 -483.227 0.
-281.354 -513.613 0.
-279.015 -465.223 0.
-284.134 -409.375 0.
-235.85 -410.157 0.
-251.744 -401.08 0.
-268.247 -391.395 0.
-347.172 -678.19 0.
-422.171 -780.775 0.
-133.536 -211.498 0.
-229.778 -401.654 0.
-335.16 -614.884 0.
-55.3973 -129.63 0.
-176.826 -477.123 0.
-318.84 -804.03 0.
0.22816 0.631121 0.
-130.365 -342.034 0.
-312.94 -761.082 0.
1.21558 3.15525 0.
-75.4071 -186.938 0.
-315.651 -751.107 0.
-0.0767645 -5.98575 0.
-358.061 -944.787 0.
-0.111204 -7.03384 0.
-1.17692 -3.12336 0.
-319.292 -841.137 0.
3.00994 8.20271 0.
0.660343 1.80004 0.
-228.758 -623.798 0.
-2.09197 -5.74256 0.
-0.100428 -0.275629 0.
-142.455 -390.936 0.
-0.00128408 -14.8239 0.
-4.09593 -11.3425 0.
-60.6157 -166.209 0.
-172.557 -472.298 0.
-1.43425 -3.92779 0.
-266.496 -729.624 0.
2.49203 6.80771 0.
-0.865101 -2.35961 0.
-205.136 -556.537 0.
-0.0719836 -11.2385 0.
2.11004 5.77549 0.
-103.145 -276.683 0.
3.33661 8.98121 0.
2.78033 7.5136 0.
-12.3175 -32.8612 0.
-0.041162 -5.01901 0.
-3.71912 -9.396 0.
-0.0402712 -1.74842 0.
-0.00615966 -0.75879 0.
-45.4246 -121.825 0.
0.56822 1.57343 0.
0.972413 2.57431 0.
-116.103 -318.077 0.
-34.7769 -49.7196 0.
-0.181083 -0.197788 0.
-229.201 -402.144 0.
-138.109 -210.929 0.
-39.0368 -27.6953 0.
-314.497 -623.969 0.
-249.494 -525.129 0.
-230.298 -334.543 0.
-220.699 -360.963 0.
-211.204 -387.279 0.
-251.746 -348.495 0.
-248.389 -393.097 0.
-246.216 -436.516 0.
-267.955 -432.141 0.
-262.846 -440.427 0.
-258.771 -447.678 0.
-400.293 -852.648 0.
-406.135 -866.286 0.
-245.035 -591.024 0.
-258.272 -631.474 0.
-271.63 -671.801 0.
-234.974 -610.037 0.
-240.654 -636.575 0.
-246.925 -662.521 0.
-250.575 -677.482 0.
-248.388 -677.99 0.
-246.629 -678.071 0.
-308.569 -850.935 0.
-291.44 -805.658 0.
-294.114 -806.463 0.
-337.21 -900.415 0.
-347.25 -923.844 0.
-238.634 -644.301 0.
-245.118 -659.153 0.
-252.086 -673.522 0.
-258.14 -656.278 0.
-252.043 -635.084 0.
-246.373 -613.463 0.
-274.496 -663.184 0.
-259.406 -618.187 0.
-244.395 -573.11 0.
-401.875 -853.185 0.
-399.443 -847.504 0.
-260.273 -416.67 0.
-273.953 -421.273 0.
-287.802 -425.707 0.
-242.075 -427.204 0.
-245.625 -372.922 0.
-247.785 -320.03 0.
-186.395 -340.541 0.
-201.702 -332.053 0.
-216.976 -323.597 0.
-230.583 -470.56 0.
-299.947 -578.81 0.
-21.2795 -17.9311 0.
-107.741 -180.196 0.
-207.496 -399.109 0.
-0.105365 -0.173196 0.
-0.216941 -0.681394 0.
-118.574 -316.172 0.
0.855141 2.32929 0.
-0.000667591 -2.9045 0.
-30.0555 -80.9825 0.
1.164 3.13197 0.
-0.0824615 -3.09348 0.
-0.173503 -4.04138 0.
-0.0222511 -5.17126 0.
-42.5703 -115.714 0.
-0.0600194 -6.58863 0.
-0.45082 -1.21574 0.
-126.111 -338.184 0.
-0.677626 -1.85895 0.
3.02369 8.29479 0.
-217.443 -596.442 0.
-0.0285264 -12.2247 0.
-2.95368 -8.13374 0.
-247.217 -680.849 0.
-3.09565 -8.5739 0.
-83.8971 -232.363 0.
-0.0819185 -9.24167 0.
2.06738 5.09672 0.
0.582213 1.47768 0.
-0.1881 -0.519262 0.
3.92724 10.8693 0.
-0.331025 -0.916869 0.
-152.16 -420.634 0.
0.836933 2.31098 0.
1.54568 4.26129 0.
-308.362 -839.508 0.
-84.4152 -228.639 0.
-1.3964 -3.76076 0.
-550 -1451.86 0.
-168.854 -449.989 0.
-557.985 -1358.05 0.
-333.567 -826.932 0.
-114.823 -290.135 0.
-553.859 -1347.69 0.
-347.548 -867.77 0.
-148.032 -381.059 0.
-537.856 -1308.28 0.
-346.415 -865.345 0.
-158.966 -418.413 0.
-471.154 -1032.76 0.
-325.709 -696.763 0.
-180.892 -360.138 0.
-484.619 -1018.79 0.
-419.336 -911.33 0.
-412.141 -702.629 0.
-369.39 -685.719 0.
-326.566 -668.882 0.
-371.358 -685.064 0.
-349.02 -695.735 0.
-327.221 -705.867 0.
-390.547 -745.915 0.
-380.751 -755.215 0.
-371.557 -763.912 0.
-537.038 -1204.6 0.
-546.809 -1227.4 0.
-368.25 -931.644 0.
-377.644 -967.873 0.
-387.56 -1003.58 0.
-359.719 -958.114 0.
-366.588 -983.583 0.
-373.704 -1008.8 0.
-375.78 -1024.49 0.
-371.73 -1016.94 0.
-367.795 -1009.28 0.
-443.406 -1226 0.
-442.828 -1225.3 0.
-458.579 -1268.27 0.
-492.502 -1324.61 0.
-492.817 -1325.34 0.
-377.279 -1023.55 0.
-377.48 -1020.91 0.
-377.969 -1017.99 0.
-378.186 -990.993 0.
-370.302 -962.437 0.
-362.659 -933.639 0.
-384.879 -974.074 0.
-377.801 -943.832 0.
-371.575 -912.738 0.
-537.331 -1210.87 0.
-529.617 -1192.87 0.
-371.052 -708.973 0.
-384.379 -717.895 0.
-398.051 -726.471 0.
-317.547 -670.26 0.
-350.546 -686.943 0.
-383.64 -703.532 0.
-325.265 -671.579 0.
-369.796 -691.891 0.
-414.42 -712.111 0.
-418.298 -900.605 0.
-493.107 -1036.65 0.
-177.729 -384.683 0.
-330.793 -731.043 0.
-495.961 -1107.73 0.
-129.675 -351.565 0.
-335.065 -860.473 0.
-546.676 -1363.16 0.
-111.75 -288.476 0.
-341.461 -862.753 0.
-576.879 -1431.32 0.
-98.2458 -250.372 0.
-315.165 -795.711 0.
-535.303 -1337.83 0.
-132.819 -360.175 0.
-493.662 -1328.59 0.
-0.222429 -0.605332 0.
-22.3931 -61.2243 0.
-259.927 -713.028 0.
1.72241 4.76716 0.
2.93329 8.12265 0.
-60.6091 -167.873 0.
3.21185 8.87647 0.
-2.26358 -6.21742 0.
4.79779 13.0537 0.
3.10963 8.16072 0.
4.69019 12.0499 0.
-68.6696 -186.968 0.
-0.571977 -1.40233 0.
-150.74 -381.904 0.
-268.876 -739.998 0.
-122.069 -337.336 0.
3.1202 8.64071 0.
-366.436 -1013.82 0.
-150.81 -416.741 0.
-0.0164023 -10.4026 0.
-323.899 -887.807 0.
-100.986 -275.931 0.
-1.66851 -4.54142 0.
-372.226 -999.506 0.
-0.0696376 -6.50115 0.
-281.747 -707.714 0.
-65.6713 -167.885 0.
1.58256 4.10102 0.
-284.975 -733.441 0.
-91.0901 -240.782 0.
0.769111 2.08691 0.
-320.15 -855.12 0.
-143.738 -396.931 0.
0.0943989 1.21526 0.
-306.695 -773.964 0.
-166.149 -432.962 0.
-31.2108 -86.3521 0.
-361.405 -819.322 0.
-297.377 -710.583 0.
-298.968 -509.558 0.
-261.014 -487.842 0.
-223.416 -465.769 0.
-306.623 -569.796 0.
-286.964 -577.787 0.
-267.797 -585.285 0.
-379.021 -684.171 0.
-368.782 -693.914 0.
-359.13 -703.069 0.
-519.512 -1197.05 0.
-529.282 -1219.85 0.
-348.939 -876.977 0.
-358.363 -913.177 0.
-368.472 -948.693 0.
-353.651 -921.442 0.
-360.158 -947.272 0.
-366.977 -972.79 0.
-365.377 -996.767 0.
-361.362 -989.179 0.
-357.463 -981.477 0.
-436.343 -1206.54 0.
-435.773 -1205.84 0.
-450.069 -1246.56 0.
-470.804 -1299.55 0.
-471.874 -1299.53 0.
-372.475 -983.364 0.
-372.614 -980.789 0.
-373.084 -977.883 0.
-371.274 -954.649 0.
-363.518 -925.964 0.
-356.019 -897.023 0.
-372.336 -915.289 0.
-365.077 -885.228 0.
-358.53 -854.453 0.
-517.639 -1198.92 0.
-514.158 -1176.69 0.
-343.787 -647.459 0.
-357.542 -655.953 0.
-371.712 -664.032 0.
-240.799 -528.777 0.
-269.964 -549.301 0.
-299.344 -569.61 0.
-208.125 -443.498 0.
-246.158 -470.32 0.
-285.026 -496.308 0.
-289.112 -679.217 0.
-363.011 -816.215 0.
-19.9434 -50.5357 0.
-160.15 -416.038 0.
-317.195 -800.98 0.
0.00185127 0.208135 0.
-125.234 -345.58 0.
-321.583 -863.799 0.
1.62542 4.39673 0.
-74.7299 -198.25 0.
-298.836 -778.524 0.
-0.144768 -5.75031 0.
-70.0247 -181.299 0.
-284.844 -729.078 0.
-2.73137 -7.44178 0.
-360.731 -979.035 0.
-0.35929 -0.987188 0.
-118.01 -325.048 0.
-354.35 -977.879 0.
3.4938 9.67399 0.
-141.429 -391.707 0.
-331.557 -918.345 0.
-13.4535 -37.119 0.
-88.9659 -243.487 0.
-165.81 -448.525 0.
-120.839 -316.354 0.
-0.818736 -2.09505 0.
3.0218 8.27602 0.
-0.696176 -9.32626 0.
-1.54013 -3.72139 0.
-0.862639 -2.31495 0.
2.98963 8.06765 0.
2.02108 5.48174 0.
0.493962 1.35285 0.
-1.76322 -4.84443 0.
0.169606 0.467276 0.
-71.7865 -197.962 0.
-0.600567 -1.65603 0.
1.25686 3.46585 0.
-250.37 -693.425 0.
-11.9425 -33.0751 0.
-330.276 -891.294 0.
-157.397 -423.338 0.
0.134651 0.360825 0.
-402.951 -1075.99 0.
-194.924 -518.413 0.
1.22917 3.27658 0.
-416.152 -1089.96 0.
-226.282 -596.929 0.
-38.1045 -102.204 0.
-402.999 -987.076 0.
-247.159 -624.993 0.
-97.2117 -257.018 0.
-406.237 -956.055 0.
-310.983 -772.822 0.
-302.963 -592.622 0.
-257.141 -524.654 0.
-212.149 -455.857 0.
-296.563 -584.543 0.
-254.035 -527.92 0.
-212.342 -470.461 0.
-312.075 -575.737 0.
-270.001 -495.584 0.
-228.996 -414.363 0.
-388.312 -914.694 0.
-381.683 -923.111 0.
-226.47 -534.276 0.
-240.42 -577.556 0.
-254.516 -620.688 0.
-244.87 -608.99 0.
-247.664 -618.228 0.
-250.549 -627.377 0.
-246.231 -650.02 0.
-240.989 -632.731 0.
-235.77 -615.419 0.
-294.092 -813.521 0.
-279.959 -774.873 0.
-277.699 -769.031 0.
-311.436 -860.2 0.
-325.579 -898.385 0.
-249.76 -612.786 0.
-254.427 -626.532 0.
-259.136 -640.238 0.
-259.705 -626.329 0.
-255.022 -613.116 0.
-250.405 -599.835 0.
-261.479 -603.79 0.
-250.596 -568.611 0.
-239.863 -533.282 0.
-381.681 -913.181 0.
-395.541 -916.339 0.
-215.587 -400.382 0.
-264.485 -496.428 0.
-314.242 -591.614 0.
-198.781 -435.854 0.
-245.381 -512.04 0.
-292.827 -587.377 0.
-204.073 -438.467 0.
-251.479 -525.625 0.
-299.82 -611.848 0.
-308.116 -765.883 0.
-409.812 -968.606 0.
-82.0622 -215.348 0.
-237.174 -610.603 0.
-413.541 -1036.19 0.
-14.8754 -40.1213 0.
-217.783 -583.289 0.
-422.714 -1124.43 0.
1.60168 4.31066 0.
-161.742 -436.83 0.
-376.192 -1020.3 0.
1.60538 4.35019 0.
-126.588 -343.789 0.
-296.552 -806.842 0.
0.819607 2.26702 0.
-212.57 -587.93 0.
1.10011 3.0124 0.
-0.416675 -1.14083 0.
-20.9207 -57.2794 0.
4.02282 11.0094 0.
2.74361 7.47885 0.
1.98757 5.39422 0.
2.54389 6.82443 0.
-1.55937 -4.15547 0.
0.960315 2.54045 0.
1.84826 4.73775 0.
-0.460806 -10.4643 0.
-0.674848 -1.85229 0.
-0.686245 -9.87469 0.
-2.12327 -5.1829 0.
3.03275 8.12676 0.
0.407705 1.09886 0.
-1.16762 -3.16374 0.
-79.3686 -216.653 0.
2.7156 7.44149 0.
1.91839 5.2739 0.
-164.899 -453.438 0.
-21.5724 -59.3036 0.
-1.58128 -4.34655 0.
-249.428 -690.139 0.
-10.8296 -29.9571 0.
-257.064 -698.854 0.
-84.8698 -230.124 0.
-0.902533 -2.44088 0.
-283.851 -771.687 0.
-77.9984 -211.769 0.
1.51984 4.1303 0.
-281.467 -762.644 0.
-96.8503 -264.195 0.
0.310053 0.853438 0.
-250.279 -652.666 0.
-104.686 -280.205 0.
-0.0524499 -0.264136 0.
-253.71 -616.962 0.
-165.795 -426.319 0.
-197.794 -403.611 0.
-156.248 -331.349 0.
-115.955 -257.835 0.
-212.934 -436.408 0.
-174.006 -376.173 0.
-136.352 -314.663 0.
-254.214 -505.785 0.
-212.452 -425.312 0.
-170.923 -344.606 0.
-361.105 -858.774 0.
-355.017 -866.651 0.
-224.933 -513.941 0.
-238.614 -557.489 0.
-252.464 -600.869 0.
-247.109 -592.695 0.
-249.894 -601.943 0.
-252.768 -611.101 0.
-248.873 -651.111 0.
-243.688 -633.765 0.
-238.522 -616.4 0.
-288.838 -799.946 0.
-274.818 -761.184 0.
-268.773 -744.413 0.
-305.352 -844.987 0.
-319.344 -883.324 0.
-249.161 -609.703 0.
-253.755 -623.524 0.
-258.43 -637.263 0.
-256.323 -607.535 0.
-251.643 -594.319 0.
-247.035 -581.029 0.
-251.493 -580.357 0.
-240.725 -545.063 0.
-230.13 -509.595 0.
-344.031 -837.767 0.
-356.911 -841.905 0.
-148.469 -315.497 0.
-197.736 -411.186 0.
-247.008 -506.868 0.
-117.824 -272.392 0.
-160.57 -352.447 0.
-204.62 -431.196 0.
-106.264 -236.314 0.
-149.823 -327.342 0.
-194.453 -417.297 0.
-154.402 -395.967 0.
-249.012 -605.859 0.
-0.101944 -2.00698 0.
-82.5647 -219.662 0.
-248.525 -655.823 0.
-0.0053125 -1.48339 0.
-88.4778 -241.23 0.
-289.129 -786.838 0.
-0.0596671 -0.16319 0.
-68.946 -188.79 0.
-281.958 -773.838 0.
-1.00578 -2.74414 0.
-79.1223 -216.339 0.
-248.492 -680.045 0.
-9.76984 -26.9339 0.
-233.762 -644.684 0.
-2.29438 -6.2612 0.
-12.5328 -34.2009 0.
-137.059 -374.27 0.
2.66726 7.28325 0.
-0.0759238 -9.70716 0.
-7.25451 -19.6295 0.
-2.07144 -5.56225 0.
-0.171238 -10.6572 0.
0.31967 0.84633 0.
2.95287 7.59105 0.
-0.367057 -0.922518 0.
-65.7524 -180.884 0.
-2.02035 -4.86274 0.
-136.419 -336.784 0.
-121.776 -325.939 0.
-104.716 -281.966 0.
-87.8359 -237.811 0.
-236.359 -642.742 0.
-135.746 -370.653 0.
-35.7347 -97.963 0.
-258.512 -708.413 0.
-114.868 -314.694 0.
2.35017 6.43369 0.
-248.679 -686.659 0.
-9.72416 -26.8316 0.
-184.787 -505.478 0.
-13.1963 -36.0562 0.
1.93569 5.27716 0.
-168.512 -463.626 0.
0.520203 1.43143 0.
0.13492 0.371346 0.
-155.037 -427.074 0.
0.514082 1.41994 0.
-5.25251e-05 -0.629563 0.
-112.245 -303.571 0.
-0.0156676 -0.540658 0.
0.00165826 0.533951 0.
-109.702 -269.35 0.
-27.9412 -72.4821 0.
-96.9475 -210.276 0.
-59.3684 -134.03 0.
-23.443 -56.1308 0.
-132.313 -285.266 0.
-97.2193 -221.184 0.
-63.9268 -155.301 0.
-198.697 -433.489 0.
-157.678 -352.265 0.
-117.058 -270.642 0.
-334.796 -801.957 0.
-329.203 -809.338 0.
-223.863 -493.138 0.
-237.261 -536.97 0.
-250.851 -580.611 0.
-249.38 -576.367 0.
-252.161 -585.62 0.
-255.029 -594.785 0.
-251.839 -651.878 0.
-246.696 -634.489 0.
-241.562 -617.093 0.
-283.92 -786.034 0.
-270.015 -747.157 0.
-265.741 -734.143 0.
-299.8 -829.243 0.
-313.633 -867.738 0.
-248.646 -606.538 0.
-253.191 -620.407 0.
-257.778 -634.235 0.
-253.322 -588.36 0.
-248.66 -575.125 0.
-244.078 -561.81 0.
-242.13 -556.303 0.
-231.482 -520.888 0.
-221.033 -485.273 0.
-308.222 -760.512 0.
-320.224 -765.529 0.
-89.6832 -222.28 0.
-136.732 -320.197 0.
-184.692 -417.204 0.
-41.7946 -104.002 0.
-80.2012 -188.411 0.
-120.516 -270.913 0.
-11.8368 -30.7809 0.
-52.099 -125.125 0.
-93.6258 -218.205 0.
-7.54787 -19.1924 0.
-96.1311 -235.194 0.
0.0049927 1.6138 0.
0.000240195 0.0155442 0.
-96.8363 -262.133 0.
-0.000819332 -2.42705 0.
-0.0124055 -3.88673 0.
-161.346 -443.44 0.
0.945537 2.61139 0.
0.2718 0.75077 0.
-189.987 -525.114 0.
0.533118 1.46306 0.
-32.1454 -88.4009 0.
-200.975 -552.705 0.
-30.6412 -84.0424 0.
-255.325 -701.068 0.
-4.16233 -11.3147 0.
-128.995 -350.972 0.
-253.745 -690.712 0.
-65.8549 -179.318 0.
-143.648 -389.094 0.
-222.109 -598.204 0.
-110.609 -297.313 0.
-91.5354 -244.379 0.
-72.307 -191.599 0.
-117.78 -303.843 0.
-3.9502 -9.95081 0.
2.22388 5.3342 0.
-1.15441 -2.3713 0.
4.49111 9.68742 0.
-0.0123832 -0.0301872 0.
-1.43759 -3.58356 0.
3.69025 9.39384 0.
3.45373 8.93913 0.
-1.72008 -4.51806 0.
0.940552 2.50345 0.
-47.6004 -126.499 0.
-2.11482 -5.64116 0.
-1.01109 -2.70672 0.
-174.728 -474.433 0.
-61.2121 -166.877 0.
-272.51 -751.082 0.
-141.83 -389.506 0.
-10.4603 -28.6211 0.
-332.194 -915.875 0.
-158.193 -434.715 0.
1.40352 3.84061 0.
-352.523 -969.791 0.
-188.051 -518.68 0.
-24.2831 -66.8634 0.
-334.423 -917.357 0.
-204.684 -566.123 0.
-76.8888 -212.946 0.
-343.224 -899.854 0.
-229.333 -612.219 0.
-298.369 -710.784 0.
-225.261 -546.004 0.
-153.472 -379.904 0.
-269.704 -626.474 0.
-219.759 -517.665 0.
-170.564 -408.106 0.
-298.837 -704.012 0.
-257.859 -630.206 0.
-217.979 -555.303 0.
-450.399 -1102.79 0.
-436.766 -1094.77 0.
-327.012 -815.429 0.
-323.081 -819.599 0.
-319.501 -823.417 0.
-318.469 -824.296 0.
-320.568 -828.994 0.
-322.711 -833.65 0.
-326.791 -893.114 0.
-324.347 -884.872 0.
-321.912 -876.621 0.
-387.161 -1072.17 0.
-389.807 -1079.31 0.
-398.96 -1104.88 0.
-418.333 -1158.69 0.
-418.017 -1157.57 0.
-331.698 -881.261 0.
-331.19 -880.822 0.
-330.689 -880.378 0.
-322.809 -826.079 0.
-320.395 -819.441 0.
-318.018 -812.766 0.
-311.204 -793.601 0.
-320.444 -800.006 0.
-330.174 -805.922 0.
-418.687 -1047.67 0.
-436.461 -1065.48 0.
-193.914 -504.071 0.
-240.645 -601.078 0.
-288.682 -696.778 0.
-154.574 -382.306 0.
-208.637 -509.652 0.
-263.48 -636.217 0.
-145.26 -370.313 0.
-225.4 -561.588 0.
-306.872 -751.53 0.
-224.443 -598.504 0.
-358.196 -939.445 0.
-62.1682 -171.892 0.
-201.963 -558.1 0.
-343.454 -944.415 0.
-18.9489 -52.1222 0.
-182.016 -502.061 0.
-345.39 -951.692 0.
-1.54625 -4.25755 0.
-146.004 -403.009 0.
-309.044 -854.892 0.
1.69308 4.66338 0.
-120.897 -333.817 0.
-254.608 -704.378 0.
-43.1953 -115.992 0.
-135.634 -362.627 0.
-1.35158 -3.5733 0.
-1.16394 -3.0642 0.
-1.05121 -2.75552 0.
2.59235 6.79294 0.
1.49898 3.8549 0.
-0.519205 -1.30799 0.
-1.05074 -2.60018 0.
-1.12013 -2.69882 0.
-1.49064 -3.49293 0.
0.553974 1.23571 0.
4.22679 8.87395 0.
-54.3867 -128.56 0.
1.1866 2.42753 0.
-141.1 -304.177 0.
-45.5917 -110.162 0.
-101.719 -251.718 0.
-156.095 -395.025 0.
-142.603 -367.431 0.
-130.472 -341.415 0.
-118.713 -315.026 0.
-241.75 -639.591 0.
-163.903 -435.623 0.
-86.6057 -231.107 0.
-244.513 -657.429 0.
-129.922 -351.005 0.
-257.492 -712.012 0.
-126.952 -350.283 0.
0.445461 1.22566 0.
-276.47 -765.156 0.
-102.751 -283.642 0.
-1.03832 -2.8544 0.
-247.073 -682.548 0.
-83.4377 -230.473 0.
0.888874 2.45652 0.
-205.738 -567.389 0.
-77.5439 -214.492 0.
0.181116 0.50158 0.
-227.487 -611.716 0.
-117.262 -320.331 0.
-197.684 -490.78 0.
-127.165 -323.37 0.
-58.4019 -154.206 0.
-202.937 -493.45 0.
-154.798 -382.819 0.
-107.564 -271.281 0.
-237.912 -590.451 0.
-199.414 -514.154 0.
-162.651 -436.123 0.
-412.849 -1016.31 0.
-399.889 -1007.62 0.
-310.898 -767.565 0.
-306.864 -771.838 0.
-303.169 -775.772 0.
-308.972 -815.703 0.
-310.703 -820.769 0.
-312.508 -825.763 0.
-321.705 -885.304 0.
-319.28 -877.043 0.
-316.903 -868.734 0.
-383.269 -1061.48 0.
-385.903 -1068.63 0.
-393.665 -1090.28 0.
-411.007 -1138.39 0.
-410.696 -1137.27 0.
-322.318 -872.952 0.
-321.807 -872.518 0.
-321.325 -872.054 0.
-311.806 -814.506 0.
-309.442 -807.818 0.
-307.103 -801.105 0.
-287.795 -730.978 0.
-296.983 -737.437 0.
-306.618 -743.448 0.
-376.503 -948.176 0.
-393.458 -966.815 0.
-136.313 -373.897 0.
-178.932 -475.03 0.
-223.866 -573.848 0.
-93.1773 -245.633 0.
-145.183 -375.054 0.
-198.185 -503.48 0.
-47.8283 -131.208 0.
-123.816 -326.682 0.
-202.243 -519.717 0.
-100.392 -273.459 0.
-229.982 -618.674 0.
-0.0003246 -2.13078 0.
-67.9839 -187.739 0.
-208.548 -575.12 0.
-0.00461917 -4.08013 0.
-79.8605 -220.485 0.
-242.819 -670.653 0.
-2.86021 -7.877 0.
-118.654 -327.901 0.
-281.614 -779.897 0.
-1.85749 -5.13057 0.
-135.686 -375.558 0.
-269.378 -746.124 0.
-144.644 -383.885 0.
-238.28 -629.258 0.
-98.7086 -260.157 0.
-157.359 -412.893 0.
-216.46 -565.178 0.
-151.733 -394.908 0.
-119.553 -304.96 0.
-86.5027 -215.883 0.
-145.608 -356.666 0.
-70.9892 -168.945 0.
0.0124214 0.0286983 0.
-74.2161 -167.023 0.
-0.9687 -7.12066 0.
1.76807 4.41063 0.
1.41648 2.92268 0.
3.34653 7.22592 0.
-0.262925 -0.623319 0.
-0.514076 -1.23752 0.
0.892396 2.18084 0.
-0.666461 -1.65341 0.
-1.65186 -4.15367 0.
0.170747 0.434893 0.
-0.308843 -7.78331 0.
-1.49216 -3.81845 0.
-1.3981 -3.61543 0.
-1.76666 -4.53571 0.
-0.405732 -1.04387 0.
-91.441 -251.59 0.
0.801582 2.20974 0.
-0.496725 -1.37101 0.
-162.075 -442.057 0.
-51.862 -141.922 0.
-0.0189183 -4.23028 0.
-254.017 -693.349 0.
-121.95 -333.539 0.
1.35884 3.73501 0.
-262.586 -722.085 0.
-139.291 -382.288 0.
-15.6046 -42.8832 0.
-273.96 -757.308 0.
-144.346 -399.435 0.
-221.245 -590.207 0.
-146.532 -393.458 0.
-72.4676 -196.061 0.
-217.992 -571.437 0.
-152.99 -402.363 0.
-88.6402 -232.637 0.
-205.034 -539.049 0.
-159.316 -430.483 0.
-115.754 -319.762 0.
-332.023 -838.591 0.
-288.073 -748.688 0.
-203.466 -511.656 0.
-194.471 -494.742 0.
-185.578 -477.727 0.
-203.555 -529.665 0.
-200.721 -520.275 0.
-197.979 -510.795 0.
-209.45 -555.889 0.
-203.721 -540.243 0.
-198.026 -524.562 0.
-249.759 -691.649 0.
-245.118 -678.543 0.
-245.442 -679.542 0.
-268.534 -743.736 0.
-274.144 -759.294 0.
-196.19 -520.183 0.
-202.275 -537.903 0.
-208.407 -555.578 0.
-204.556 -510.726 0.
-212.188 -531.339 0.
-219.82 -551.952 0.
-180.443 -467.353 0.
-191.829 -486.058 0.
-203.546 -504.432 0.
-273.552 -714.251 0.
-323.352 -820.929 0.
-106.273 -293.92 0.
-150.523 -413.72 0.
-197.486 -530.807 0.
-80.2265 -215.404 0.
-148.509 -398.111 0.
-217.386 -580.225 0.
-60.312 -165.402 0.
-145.692 -395.687 0.
-231.822 -625.222 0.
-127.543 -352.188 0.
-274.36 -758.23 0.
0.732736 2.01853 0.
-127.312 -350.538 0.
-260.115 -715.673 0.
1.27892 3.51873 0.
-107.745 -294.799 0.
-230.166 -626.457 0.
0.264306 0.722554 0.
-49.2031 -134.408 0.
-145.951 -397.623 0.
0.61326 1.68464 0.
1.93932 5.32378 0.
-64.264 -176.243 0.
-0.67744 -1.7031 0.
2.59572 6.50647 0.
0.7176 1.83415 0.
0.471499 1.18819 0.
-0.141074 -0.350361 0.
2.61913 6.50059 0.
1.05783 2.58204 0.
-1.52602 -3.65945 0.
-1.34371 -3.17982 0.
-1.14256 -2.65433 0.
1.54916 3.53167 0.
-1.56955 -3.70458 0.
2.9138 6.63257 0.
-2.2616 -5.68397 0.
0.254214 0.534644 0.
2.55707 5.63441 0.
2.18942 5.14479 0.
0.592659 1.41509 0.
-1.85896 -4.50921 0.
0.803271 1.98712 0.
1.59113 3.9917 0.
-0.331728 -0.843351 0.
-35.1292 -88.4745 0.
-4.75346 -12.112 0.
0.79071 2.03711 0.
-105.904 -266.26 0.
-57.4251 -144.636 0.
-156.235 -426.863 0.
-53.4378 -146.614 0.
-0.377138 -1.0377 0.
-172.916 -470.845 0.
-62.5221 -170.9 0.
0.187741 0.513882 0.
-198.225 -540.811 0.
-66.0958 -181.009 0.
0.0356531 0.0978788 0.
-178.317 -489.248 0.
-54.6967 -149.701 0.
1.46407 3.97867 0.
-183.822 -509.139 0.
-54.4821 -150.905 0.
-153.539 -417.92 0.
-80.215 -219.748 0.
-7.56574 -20.9008 0.
-163.344 -441.194 0.
-99.6371 -270.803 0.
-36.5009 -99.8414 0.
-157.917 -426.076 0.
-114.437 -315.26 0.
-73.2768 -202.124 0.
-271.506 -703.485 0.
-229.782 -611.343 0.
-191.459 -491.274 0.
-182.721 -474.103 0.
-174.103 -456.812 0.
-206.376 -544.435 0.
-203.629 -534.96 0.
-200.945 -525.42 0.
-212.65 -569.229 0.
-206.875 -553.629 0.
-201.143 -537.985 0.
-245.656 -680.141 0.
-241.035 -667.014 0.
-240.225 -664.755 0.
-267.507 -740.725 0.
-273.111 -756.289 0.
-194.693 -532.375 0.
-200.845 -550.029 0.
-207.03 -567.65 0.
-198.943 -507.687 0.
-206.547 -528.329 0.
-214.156 -548.964 0.
-162.235 -427.883 0.
-173.069 -447.14 0.
-184.283 -466.018 0.
-210.468 -564.359 0.
-257.708 -673.613 0.
-61.7909 -167.309 0.
-104.293 -288.871 0.
-149.026 -408.203 0.
-29.9665 -82.9279 0.
-97.0421 -266.866 0.
-164.666 -450.257 0.
0.720642 1.9956 0.
-77.0441 -212.786 0.
-161.633 -443.903 0.
-38.0991 -105.471 0.
-184.774 -511.752 0.
-0.268489 -0.733576 0.
-49.4428 -135.714 0.
-182.407 -500.763 0.
1.0345 2.84485 0.
-66.7337 -182.823 0.
-188.993 -514.678 0.
0.469252 1.27965 0.
-67.3134 -183.432 0.
-164.182 -446.515 0.
0.743783 2.03689 0.
-42.718 -116.817 0.
-141.275 -385.074 0.
-53.1211 -131.132 0.
-79.5198 -195.852 0.
-0.308201 -0.781609 0.
1.35519 3.38546 0.
-0.395702 -7.41987 0.
-4.36649 -10.8462 0.
-1.16429 -2.84276 0.
0.989907 2.37318 0.
-0.541904 -7.12246 0.
1.22012 2.8133 0.
-1.43131 -3.2364 0.
-0.223092 -0.535017 0.
2.26782 5.24313 0.
-29.6385 -75.0499 0.
1.71119 3.67677 0.
-125.389 -282.144 0.
0.742565 1.72834 0.
-78.7817 -186.532 0.
-166.467 -400.585 0.
-71.3797 -175.759 0.
-113.653 -283.616 0.
-155.187 -392.213 0.
-162.338 -406.216 0.
-130.755 -331.086 0.
-99.707 -255.421 0.
-213.272 -524.755 0.
-164.019 -403.936 0.
-222.282 -600.883 0.
-118.386 -321.781 0.
-15.2947 -41.8738 0.
-183.824 -499.568 0.
-73.2003 -199.86 0.
0.0957028 0.261665 0.
-142.288 -388.418 0.
-10.3511 -28.3703 0.
1.61229 4.42095 0.
-93.9059 -256.554 0.
0.117203 0.318242 0.
-0.0576324 -3.78706 0.
-94.1317 -260.522 0.
0.728383 2.01652 0.
-88.2102 -243.255 0.
-15.9051 -44.03 0.
0.687095 1.90194 0.
-111.61 -308.038 0.
-49.2145 -136.313 0.
0.0215428 0.37367 0.
-113.216 -310.688 0.
-71.5238 -198.071 0.
-31.5785 -83.7072 0.
-213.631 -565.738 0.
-173.972 -471.516 0.
-180.142 -470.201 0.
-171.653 -452.781 0.
-163.302 -435.223 0.
-211.195 -557.207 0.
-208.563 -547.617 0.
-205.977 -537.979 0.
-215.881 -582.538 0.
-210.077 -566.966 0.
-204.305 -551.362 0.
-241.559 -668.626 0.
-236.955 -655.482 0.
-235.631 -651.965 0.
-266.508 -737.686 0.
-272.106 -753.256 0.
-196.312 -541.45 0.
-202.511 -559.058 0.
-208.723 -576.651 0.
-193.4 -504.578 0.
-200.974 -525.25 0.
-208.561 -545.908 0.
-144.806 -387.633 0.
-155.107 -407.424 0.
-165.825 -426.799 0.
-150.32 -411.529 0.
-195.139 -523.223 0.
-16.196 -41.81 0.
-59.1528 -162.933 0.
-102.573 -283.591 0.
0.496813 1.19552 0.
-48.1998 -132.997 0.
-114.674 -317.561 0.
0.726521 1.99768 0.
-10.1665 -28.1135 0.
-93.9325 -260.095 0.
0.161639 0.447246 0.
-95.6761 -264.787 0.
1.41376 3.82232 0.
0.993955 2.71182 0.
-104.564 -285.988 0.
0.723011 1.98721 0.
-25.8044 -70.7639 0.
-147.806 -402.913 0.
1.57825 4.29262 0.
-85.4685 -232.411 0.
-182.461 -495.357 0.
-21.1105 -57.5616 0.
-119.959 -325.472 0.
-219.493 -592.699 0.
-181.075 -437.718 0.
-208.016 -501.875 0.
-125.12 -314.375 0.
-135.15 -334.295 0.
-145.411 -353.984 0.
-184.805 -459.103 0.
-109.266 -266.862 0.
-31.8958 -76.4515 0.
-161.102 -377.089 0.
-32.9429 -75.415 0.
-0.264926 -0.59368 0.
-72.4794 -176.931 0.
1.6091 3.78433 0.
-3.47186 -7.33737 0.
-0.0169839 -0.0320186 0.
0.740038 1.46239 0.
1.47481 3.00915 0.
2.36074 4.9841 0.
0.260062 0.567786 0.
-0.040091 -0.0902085 0.
2.53217 5.78437 0.
-0.719881 -1.66959 0.
-0.562725 -6.04282 0.
2.0718 4.78626 0.
1.26925 2.97762 0.
-44.5485 -98.5465 0.
-34.009 -76.4756 0.
-94.3738 -248.619 0.
-49.5286 -131.597 0.
-5.23608 -14.0221 0.
-158.129 -422.186 0.
-96.7283 -258.976 0.
-35.567 -95.527 0.
-210.935 -561.979 0.
-116.861 -312.473 0.
-23.2723 -62.4821 0.
-239.219 -638.291 0.
-124.064 -330.49 0.
-8.66361 -22.9343 0.
-254.931 -694.893 0.
-118.966 -324.379 0.
-231.535 -641.309 0.
-143.7 -397.967 0.
-55.8359 -154.655 0.
-220.788 -611.202 0.
-152.897 -420.62 0.
-85.3428 -229.702 0.
-211.989 -586.028 0.
-170.741 -466.535 0.
-130.662 -345.873 0.
-314.495 -861.103 0.
-271.814 -747.005 0.
-280.768 -747.334 0.
-257.928 -691.675 0.
-235.284 -635.821 0.
-283.39 -773.872 0.
-275.633 -753.067 0.
-267.874 -732.263 0.
-282.515 -782.225 0.
-281.471 -779.324 0.
-280.426 -776.424 0.
-327.53 -906.563 0.
-331.413 -917.226 0.
-334.427 -926.031 0.
-360.854 -999.221 0.
-359.281 -995.008 0.
-280.473 -774.746 0.
-282.043 -779.255 0.
-283.615 -783.762 0.
-256.273 -697.739 0.
-266.799 -725.009 0.
-277.338 -752.266 0.
-214.434 -583.76 0.
-242.768 -655.494 0.
-271.405 -726.926 0.
-249.842 -690.684 0.
-292.813 -806.404 0.
-112.09 -288.319 0.
-153.116 -412.254 0.
-194.904 -535.426 0.
-72.1974 -188.723 0.
-150.301 -409.713 0.
-228.398 -630.711 0.
-45.0231 -124.601 0.
-141.908 -392.459 0.
-238.64 -660.471 0.
-104.381 -284.525 0.
-254.558 -692.336 0.
1.35197 3.60731 0.
-113.96 -304.674 0.
-228.198 -609.318 0.
-25.0194 -67.3122 0.
-105.861 -283.267 0.
-187.261 -498.663 0.
-31.8944 -85.1478 0.
-85.7852 -228.315 0.
-139.829 -371.33 0.
0.497812 1.31899 0.
-34.1974 -90.1582 0.
-69.1749 -181.353 0.
-29.0492 -63.8963 0.
-12.6564 -27.3881 0.
0.0229397 0.0525074 0.
-0.661286 -6.48221 0.
1.8063 3.95578 0.
2.96453 6.63765 0.
-1.80154 -3.94704 0.
-0.784597 -6.20006 0.
2.03057 4.20996 0.
2.17687 4.35684 0.
-0.995547 -5.1661 0.
-0.275785 -0.579417 0.
-0.740996 -4.35596 0.
-11.8822 -24.9231 0.
0.142259 0.267872 0.
-97.8546 -193.022 0.
0.243577 0.491116 0.
-33.4378 -69.8871 0.
-170.03 -367.628 0.
-17.2722 -38.2965 0.
-96.8778 -217.974 0.
-174.772 -399.362 0.
-163.26 -363.179 0.
-142.919 -322.815 0.
-122.93 -282.098 0.
-209.462 -449.312 0.
-196.889 -429.284 0.
-191.88 -499.73 0.
-145.966 -383.806 0.
-100.752 -267.184 0.
-176.667 -470.349 0.
-115.109 -307.304 0.
-53.7735 -144.037 0.
-177.707 -473.254 0.
-83.7037 -223.655 0.
0.427997 1.14786 0.
-184.823 -492.963 0.
-69.6684 -185.118 0.
-0.0648576 -2.94471 0.
-205.254 -550.133 0.
-67.7248 -181.131 0.
-178.036 -492.195 0.
-90.0961 -248.924 0.
-2.07201 -5.73729 0.
-176.863 -485.94 0.
-109.319 -294.989 0.
-40.9278 -104.885 0.
-174.174 -476.994 0.
-133.553 -356.861 0.
-93.4571 -236.204 0.
-288.86 -797.206 0.
-246.745 -682.535 0.
-262.151 -705.117 0.
-239.653 -649.114 0.
-217.382 -592.884 0.
-281.607 -771.719 0.
-273.867 -750.897 0.
-266.127 -730.076 0.
-283.56 -785.141 0.
-282.515 -782.241 0.
-281.471 -779.34 0.
-326.983 -905.291 0.
-330.861 -915.959 0.
-334.624 -926.679 0.
-358.703 -993.326 0.
-357.136 -989.108 0.
-281.898 -778.968 0.
-283.471 -783.474 0.
-285.046 -787.978 0.
-251.441 -687.808 0.
-261.903 -715.143 0.
-272.383 -742.459 0.
-193.116 -530.838 0.
-220.901 -603.126 0.
-249.038 -675.062 0.
-220.574 -610.89 0.
-262.798 -727.366 0.
-73.0181 -176.564 0.
-114.829 -299.727 0.
-156.427 -423.103 0.
-23.2744 -56.7781 0.
-104 -275.176 0.
-182.106 -496.193 0.
0.806826 2.23383 0.
-86.9791 -239.801 0.
-184.037 -507.526 0.
-55.6484 -148.371 0.
-207.677 -554.383 0.
0.965843 2.55751 0.
-68.0257 -181.237 0.
-182.108 -486.073 0.
-6.16974 -16.5297 0.
-87.1815 -232.325 0.
-168.629 -447.684 0.
-62.3743 -166.115 0.
-116.45 -309.086 0.
-170.675 -451.908 0.
-116.345 -304.854 0.
-151.881 -395.462 0.
-187.857 -485.631 0.
-225.055 -480.175 0.
-210.774 -441.572 0.
-130.334 -293.953 0.
-127.808 -281.849 0.
-125.156 -269.87 0.
-174.073 -384.317 0.
-83.2241 -179.632 0.
0.0261884 0.0552344 0.
-174.207 -358.925 0.
-1.01869 -2.01564 0.
3.33159 6.34945 0.
-65.3649 -137.929 0.
-0.698684 -1.39642 0.
-0.599793 -1.37951 0.
0.582378 1.12773 0.
-0.754822 -4.56875 0.
1.54713 3.05473 0.
0.671928 1.3529 0.
-1.39098 -2.85647 0.
-1.10408 -2.2875 0.
-0.738216 -5.45286 0.
-0.99444 -2.14374 0.
-0.769813 -5.43642 0.
2.89872 6.18372 0.
-0.614171 -5.21524 0.
-1.35923 -2.71078 0.
-3.6282 -7.27079 0.
-4.00001 -9.81707 0.
-4.43571 -10.8409 0.
-1.50015 -3.65193 0.
-50.3186 -122.729 0.
-20.513 -50.2979 0.
-0.242761 -4.61954 0.
-115.105 -281.681 0.
-40.7939 -100.881 0.
1.13945 2.83691 0.
-156.38 -386.913 0.
-32.0208 -79.5592 0.
0.811184 2.01484 0.
-183.237 -448.771 0.
-53.2595 -130.258 0.
-175.679 -459.727 0.
-95.256 -248.394 0.
-14.3263 -37.5682 0.
-200.426 -517.59 0.
-121.548 -302.842 0.
-39.0139 -91.7493 0.
-170.53 -447.026 0.
-114.318 -290.381 0.
-56.0156 -135.827 0.
-233.888 -646.993 0.
-168.397 -463.463 0.
-171.271 -467.931 0.
-145.1 -398.041 0.
-119.06 -328.022 0.
-190.133 -521.433 0.
-175.102 -480.052 0.
-160.066 -438.674 0.
-176.151 -487.844 0.
-171.827 -475.764 0.
-167.517 -463.67 0.
-203.947 -564.425 0.
-200.618 -555.119 0.
-200.255 -554.349 0.
-224.481 -621.372 0.
-226.177 -625.941 0.
-157.26 -435.331 0.
-168.756 -467.217 0.
-180.252 -499.102 0.
-149.812 -411.367 0.
-172.393 -471.976 0.
-195.019 -532.541 0.
-110.042 -304.748 0.
-138.41 -382.113 0.
-167.129 -459.127 0.
-153.397 -419.055 0.
-219.824 -605.293 0.
-45.9289 -110.001 0.
-107.798 -268.45 0.
-167.07 -429.497 0.
-30.6051 -70.3947 0.
-121.48 -295.819 0.
-207.307 -526.293 0.
-2.61321 -6.92979 0.
-90.6233 -235.341 0.
-178.994 -463.392 0.
-35.1486 -85.4153 0.
-174.747 -424.102 0.
-0.47321 -1.17687 0.
-17.5223 -43.474 0.
-138.827 -343.231 0.
1.41101 3.5041 0.
-30.6912 -75.7248 0.
-92.5763 -226.548 0.
-0.909058 -2.23836 0.
-7.70844 -18.9642 0.
-29.3408 -72.0138 0.
-0.380475 -0.923407 0.
-1.23211 -2.99172 0.
-2.50493 -6.08493 0.
-9.45718 -18.6022 0.
1.74435 3.39161 0.
1.12663 2.39167 0.
0.906675 1.88731 0.
2.00878 4.10251 0.
0.291527 0.611382 0.
-0.798227 -5.22709 0.
-0.903885 -5.46058 0.
-0.0927682 -0.184772 0.
2.51136 4.85086 0.
2.53821 4.75256 0.
0.284051 0.63207 0.
-0.356203 -2.97125 0.
-1.76482 -4.10842 0.
0.810721 1.59489 0.
0.747736 1.53121 0.
-0.865665 -1.68943 0.
1.40225 2.79213 0.
-15.2985 -31.0903 0.
-0.859764 -5.43823 0.
-0.31686 -0.658404 0.
-14.294 -30.335 0.
1.58021 3.23863 0.
1.06065 2.21865 0.
1.21963 2.60562 0.
-45.1022 -90.1518 0.
-87.208 -175.096 0.
-55.1204 -134.705 0.
-52.2192 -127.063 0.
-49.3007 -119.439 0.
-89.9189 -217.581 0.
-59.8282 -145.442 0.
-29.9271 -73.1132 0.
-137.221 -334.534 0.
-62.4866 -154.168 0.
0.792339 1.97626 0.
-161.014 -392.418 0.
-35.316 -86.4062 0.
1.677 4.10034 0.
-170.603 -408.278 0.
-38.6897 -91.6893 0.
-150.252 -387.537 0.
-68.8477 -177.171 0.
-0.0641055 -2.04639 0.
-168.213 -424.959 0.
-87.0548 -212.472 0.
-1.74758 -4.13324 0.
-147.308 -379.429 0.
-90.0037 -223.867 0.
-30.0792 -70.9242 0.
-206.041 -564.172 0.
-140.924 -380.254 0.
-161.666 -446.414 0.
-135.911 -376.108 0.
-110.339 -305.617 0.
-188.123 -518.955 0.
-173.101 -477.563 0.
-158.077 -436.174 0.
-179.338 -496.733 0.
-174.996 -484.671 0.
-170.668 -472.595 0.
-203.106 -561.982 0.
-199.778 -552.676 0.
-197.926 -547.765 0.
-225.53 -624.246 0.
-227.228 -628.812 0.
-158.704 -439.577 0.
-170.213 -471.448 0.
-181.724 -503.319 0.
-142.399 -394.083 0.
-164.688 -454.987 0.
-187.069 -515.797 0.
-98.4558 -271.417 0.
-126.182 -349.426 0.
-154.287 -427.057 0.
-128.716 -341.931 0.
-195.092 -528.235 0.
-18.414 -43.4428 0.
-81.6129 -200.573 0.
-142.188 -360.327 0.
0.356158 0.837687 0.
-80.7046 -194.69 0.
-169.235 -422.482 0.
0.152804 0.396977 0.
-66.7234 -171.242 0.
-156.113 -398.288 0.
-28.0617 -65.5628 0.
-170.006 -401.911 0.
-0.780824 -1.91059 0.
-35.1692 -85.8306 0.
-158.11 -383.938 0.
-0.442535 -1.1051 0.
-61.6875 -152.556 0.
-123.774 -303.166 0.
-33.2948 -80.9424 0.
-55.1218 -133.791 0.
-76.998 -186.59 0.
-56.7306 -136.441 0.
-43.9091 -105.791 0.
-31.123 -75.1053 0.
-91.7219 -182.073 0.
-19.4119 -38.1875 0.
1.37041 2.8547 0.
-1.52191 -3.107 0.
-0.295968 -0.592582 0.
-2.33636 -4.80969 0.
2.54818 5.13373 0.
0.839031 1.65573 0.
-3.34357 -6.63101 0.
-0.88222 -4.48822 0.
1.33632 2.48452 0.
0.375476 0.843206 0.
-0.381657 -3.32056 0.
-12.6337 -29.7725 0.
-0.462826 -0.926404 0.
-72.8588 -151.537 0.
-1.86477 -3.59437 0.
-9.29557 -18.2936 0.
-143.861 -289.981 0.
0.161286 0.322373 0.
-78.0408 -159.878 0.
-158.151 -332.544 0.
-142.513 -284.672 0.
-131.726 -268.903 0.
-121.137 -252.937 0.
-166.295 -332.591 0.
-208.106 -417.807 0.
-119.711 -291.154 0.
-117.025 -283.298 0.
-114.323 -275.458 0.
-129.829 -312.123 0.
-99.5306 -240.199 0.
-69.377 -168.13 0.
-159.518 -387.207 0.
-84.3145 -207.32 0.
-10.4586 -26.0852 0.
-165.803 -397.77 0.
-38.6999 -93.1643 0.
1.35096 3.24881 0.
-157.689 -368.067 0.
-23.5178 -53.7227 0.
-124.257 -315.915 0.
-41.9328 -106.454 0.
-0.107363 -2.53418 0.
-134.532 -333.796 0.
-50.9933 -123.67 0.
-0.114421 -1.75652 0.
-123.445 -312.474 0.
-64.9235 -158.118 0.
-3.11689 -7.04765 0.
-179 -480.545 0.
-113.622 -296.873 0.
-153.047 -423.911 0.
-127.66 -353.234 0.
-102.466 -282.366 0.
-186.485 -516.103 0.
-171.49 -474.685 0.
-156.498 -433.263 0.
-182.549 -505.599 0.
-178.19 -493.554 0.
-173.843 -481.497 0.
-202.267 -559.538 0.
-198.939 -550.231 0.
-195.626 -540.894 0.
-226.583 -627.117 0.
-228.284 -631.681 0.
-160.32 -443.649 0.
-171.841 -475.51 0.
-183.363 -507.369 0.
-135.854 -375.932 0.
-157.828 -437.151 0.
-179.937 -498.234 0.
-87.4672 -237.488 0.
-114.782 -315.912 0.
-142.411 -394.02 0.
-104.103 -264.739 0.
-171.063 -450.472 0.
-0.116563 -1.37103 0.
-54.8043 -133.32 0.
-116.578 -291.886 0.
-0.136542 -2.05479 0.
-38.8834 -94.605 0.
-129.532 -320.303 0.
0.409077 1.03753 0.
-42.4158 -107.551 0.
-132.712 -333.705 0.
-20.6014 -46.0838 0.
-165.227 -379.757 0.
-0.0997236 -0.239818 0.
-53.2965 -127.707 0.
-178.014 -424.025 0.
-31.231 -78.1564 0.
-92.6837 -229.388 0.
-155.107 -379.649 0.
-81.259 -195.225 0.
-103.276 -247.877 0.
-125.33 -300.492 0.
-127.795 -305.323 0.
-114.814 -274.837 0.
-101.882 -244.304 0.
-216.54 -432.459 0.
-145.196 -287.649 0.
-119.533 -243.573 0.
-118.682 -236.701 0.
-117.7 -229.959 0.
-149.279 -303.575 0.
-59.7527 -118.228 0.
-0.153046 -0.295691 0.
-127.709 -251.835 0.
-0.281397 -0.537125 0.
1.19285 2.20078 0.
-36.8849 -83.6003 0.
0.697903 1.54124 0.
-0.326984 -0.633281 0.
1.63313 2.82443 0.
1.10339 1.97056 0.
-1.52055 -4.94081 0.
2.82566 4.83747 0.
-0.439349 -0.775365 0.
-0.435608 -0.765477 0.
2.68904 4.80718 0.
1.63721 2.9801 0.
1.5084 2.64958 0.
1.6731 2.96037 0.
1.61655 2.88184 0.
0.28635 0.507464 0.
-61.0201 -110.993 0.
-0.194219 -0.435772 0.
-15.243 -34.3677 0.
-42.0216 -95.1487 0.
-51.7722 -118.024 0.
-42.2957 -96.9422 0.
-32.8873 -75.7922 0.
-112.097 -260.477 0.
-65.4589 -153.252 0.
-19.3002 -45.5487 0.
-182.96 -420.86 0.
-71.2734 -165.542 0.
-0.82363 -1.92037 0.
-209.335 -458.431 0.
-91.7432 -193.394 0.
-191.984 -463.822 0.
-113.115 -270.744 0.
-33.0272 -78.8854 0.
-215.03 -508.713 0.
-129.574 -297.645 0.
-40.0967 -90.5985 0.
-204.339 -496.157 0.
-133.919 -314.792 0.
-60.5964 -136.33 0.
-239.86 -631.332 0.
-182.009 -468.642 0.
-223.215 -617.711 0.
-187.736 -518.644 0.
-152.345 -419.491 0.
-233.824 -647.308 0.
-219.479 -607.895 0.
-205.236 -568.38 0.
-238.107 -659.133 0.
-234.429 -648.888 0.
-230.752 -638.643 0.
-266.929 -738.048 0.
-269.141 -744.464 0.
-264.728 -732.254 0.
-292.704 -810.589 0.
-290.078 -803.412 0.
-221.786 -614.075 0.
-230.596 -638.416 0.
-239.408 -662.756 0.
-184.679 -510.3 0.
-205.975 -570.019 0.
-227.364 -629.646 0.
-138.979 -375.428 0.
-176.842 -482.058 0.
-214.712 -588.681 0.
-172.495 -428.051 0.
-230.381 -590.634 0.
-41.8506 -92.966 0.
-123.87 -286.682 0.
-202.512 -483.775 0.
-24.7103 -56.5184 0.
-121.954 -280.352 0.
-215.582 -507.802 0.
-32.7008 -79.367 0.
-114.674 -274.145 0.
-196.276 -469.293 0.
-82.3959 -171.556 0.
-203.187 -437.415 0.
-1.00013 -2.31705 0.
-65.5941 -151.218 0.
-168.789 -385.558 0.
-14.6279 -34.8184 0.
-51.9847 -122.908 0.
-89.6944 -210.645 0.
-27.867 -64.1775 0.
-30.7124 -70.1671 0.
-33.5887 -76.1258 0.
-38.6062 -86.3567 0.
2.32888 5.16871 0.
1.19913 2.63568 0.
-57.5417 -104.015 0.
2.42833 4.27647 0.
0.799809 1.3933 0.
-0.0229496 -0.0395631 0.
-0.757225 -1.29217 0.
0.876235 1.52383 0.
2.0523 3.5064 0.
2.03966 3.42585 0.
2.20529 3.7849 0.
-1.07927 -1.80035 0.
-0.600701 -0.97412 0.
0.682862 1.32264 0.
0.212269 0.398964 0.
0.911918 1.76122 0.
1.78123 3.06803 0.
-80.2652 -143.11 0.
1.96485 3.22552 0.
-15.9165 -26.9794 0.
-143.386 -252.43 0.
-2.96284 -5.09998 0.
-80.4736 -141.35 0.
-166.151 -298.032 0.
-131.587 -226.66 0.
-131.283 -227.571 0.
-130.964 -228.499 0.
-151.926 -266.027 0.
-210.954 -379.768 0.
-106.11 -233.931 0.
-133.008 -294.576 0.
-159.692 -355.433 0.
-133.276 -300.425 0.
-123.427 -279.72 0.
-113.643 -258.949 0.
-151.83 -348.87 0.
-104.729 -242.119 0.
-58.0367 -134.96 0.
-204.287 -466.472 0.
-91.6348 -212.133 0.
0.713488 1.66174 0.
-205.275 -433.356 0.
-84.772 -171.225 0.
-170.912 -409.533 0.
-91.2134 -217.274 0.
-10.7931 -25.7369 0.
-192.235 -446.095 0.
-104.633 -237.16 0.
-13.9082 -31.3476 0.
-196.254 -460.169 0.
-123.97 -280.664 0.
-48.2768 -104.566 0.
-233.213 -598.488 0.
-174.979 -436.177 0.
-213.782 -588.65 0.
-178.525 -489.36 0.
-143.317 -390.02 0.
-227.804 -630.976 0.
-213.6 -591.421 0.
-199.504 -551.759 0.
-238.28 -659.367 0.
-234.607 -649.118 0.
-230.934 -638.868 0.
-270.389 -747.804 0.
-272.606 -754.214 0.
-265.867 -735.699 0.
-290.622 -804.91 0.
-288.007 -797.722 0.
-223.549 -618.16 0.
-232.373 -642.488 0.
-241.197 -666.814 0.
-181.416 -498.061 0.
-202.493 -558 0.
-223.682 -617.826 0.
-133.033 -351.429 0.
-170.844 -458.114 0.
-208.58 -564.873 0.
-164.993 -395.895 0.
-223.566 -557.795 0.
-26.9385 -57.3361 0.
-111.487 -248.53 0.
-192.26 -443.5 0.
1.16777 2.67546 0.
-91.4777 -208.683 0.
-187.052 -434.204 0.
-10.2501 -25.0491 0.
-91.8556 -220.206 0.
-174.012 -414.811 0.
-81.0878 -162.723 0.
-204.597 -425.866 0.
1.07758 2.49118 0.
-98.4165 -226.13 0.
-202.574 -459.489 0.
-69.0003 -160.849 0.
-107.058 -248.226 0.
-145.431 -335.287 0.
-123.277 -280.338 0.
-126.668 -285.781 0.
-130.086 -291.196 0.
-164.891 -365.276 0.
-124.403 -273.331 0.
-83.464 -181.837 0.
-215.419 -383.683 0.
-128.244 -222.177 0.
-122.646 -209.235 0.
-112.226 -189.889 0.
-101.694 -170.656 0.
-153.652 -263.861 0.
-70.856 -119.223 0.
-7.09959 -11.7123 0.
-140.029 -240.314 0.
2.18695 3.60094 0.
-0.552657 -0.884027 0.
-31.4367 -60.9678 0.
-0.789077 -1.4812 0.
-1.1209 -2.46409 0.
-0.722488 -3.16422 0.
0.722188 1.35511 0.
-0.752469 -1.24679 0.
2.04338 3.43186 0.
-1.30174 -2.21737 0.
2.42189 3.99802 0.
-1.24091 -4.13445 0.
2.07244 3.5268 0.
0.273571 0.453341 0.
0.601957 1.00864 0.
0.640832 1.08596 0.
-0.0189648 -0.0320261 0.
-5.14095 -8.78515 0.
-0.336622 -0.684907 0.
-0.719623 -4.70008 0.
0.247811 0.512878 0.
-0.792386 -1.66046 0.
0.445322 0.934547 0.
1.08778 2.28599 0.
-8.15347 -17.2591 0.
0.0706753 0.149902 0.
-1.1118 -2.36195 0.
-93.9729 -195.914 0.
-0.709667 -1.48148 0.
-0.0849249 -0.177125 0.
-105.268 -192.613 0.
-1.81433 -3.22317 0.
-114.713 -247.615 0.
-44.2985 -94.5847 0.
1.03569 2.17574 0.
-160.889 -341.934 0.
-64.7208 -134.391 0.
0.909038 1.86165 0.
-161.978 -354.319 0.
-78.2042 -165.221 0.
-0.421286 -2.57762 0.
-174.133 -427.414 0.
-104.723 -246.427 0.
-140.59 -384.677 0.
-106.042 -286.596 0.
-71.4172 -188.593 0.
-154.837 -428.779 0.
-129.936 -359.854 0.
-105.183 -290.78 0.
-143.203 -396.635 0.
-134.393 -372.187 0.
-125.592 -347.73 0.
-158.895 -439.466 0.
-152.034 -420.292 0.
-141.226 -390.499 0.
-166.052 -459.935 0.
-173.4 -480.258 0.
-119.57 -329.442 0.
-134.149 -370.993 0.
-148.9 -412.372 0.
-92.3126 -252.798 0.
-121.701 -335.515 0.
-151.194 -418.127 0.
-60.5003 -152.144 0.
-97.122 -254.609 0.
-133.307 -357.51 0.
-92.3481 -208.42 0.
-165.99 -392.75 0.
0.820386 1.65305 0.
-69.2535 -143.235 0.
-165.561 -352.953 0.
1.12909 2.28151 0.
-52.3721 -106.434 0.
-154 -318.532 0.
-0.348941 -0.731798 0.
-38.8608 -82.3411 0.
-109.145 -232.718 0.
-1.01489 -3.9018 0.
-89.5696 -161.263 0.
0.329529 0.680054 0.
0.113843 0.235037 0.
-72.7291 -149.962 0.
1.22681 2.58578 0.
-0.614169 -1.29453 0.
0.902241 1.9016 0.
1.99474 4.20731 0.
1.19031 2.508 0.
0.286324 0.602663 0.
2.12605 4.42865 0.
1.12541 2.31643 0.
-1.45345 -2.95568 0.
-6.226 -10.649 0.
-1.42085 -4.76631 0.
0.804227 1.33423 0.
1.16728 1.91588 0.
1.17596 1.90999 0.
0.63215 1.04252 0.
2.82989 4.60419 0.
1.63808 2.62848 0.
-0.17122 -0.286795 0.
-0.199926 -0.329467 0.
1.94715 3.15653 0.
0.207779 0.439549 0.
-0.479641 -0.99593 0.
-1.89339 -4.1584 0.
0.669247 1.21405 0.
1.84753 3.42612 0.
0.77963 1.27517 0.
-0.275924 -0.457581 0.
-7.40246 -12.4545 0.
2.3279 3.87058 0.
-0.669371 -1.13047 0.
-42.7284 -73.3587 0.
0.244492 0.401172 0.
-0.387831 -0.6435 0.
-11.7486 -19.7099 0.
-21.3612 -36.1643 0.
-66.5845 -113.904 0.
1.64873 3.34423 0.
-10.3236 -21.1011 0.
-61.3663 -125.912 0.
-15.7623 -32.8676 0.
-32.5431 -67.8785 0.
-49.3037 -102.91 0.
-70.9167 -149.513 0.
-41.5823 -88.0063 0.
-12.4112 -26.3362 0.
-143.361 -291.074 0.
-26.4037 -53.819 0.
-0.704482 -4.43682 0.
-142.236 -257.903 0.
-38.9255 -68.3857 0.
-131.098 -278.126 0.
-59.9032 -125.882 0.
0.954937 1.9765 0.
-155.453 -324.376 0.
-57.8396 -118.273 0.
1.64936 3.3209 0.
-160.043 -342.604 0.
-74.6704 -155.103 0.
0.7741 1.55394 0.
-160.522 -381.881 0.
-89.2816 -202.716 0.
-131.012 -352.684 0.
-96.4051 -254.659 0.
-61.335 -157.098 0.
-144.844 -400.545 0.
-120.246 -331.315 0.
-95.7901 -261.942 0.
-141.097 -390.398 0.
-132.326 -365.911 0.
-123.566 -341.412 0.
-157.49 -434.841 0.
-150.65 -415.647 0.
-140.134 -386.914 0.
-160.777 -445.193 0.
-168.09 -465.551 0.
-113.623 -310.919 0.
-128.027 -352.647 0.
-142.604 -394.201 0.
-85.3725 -228.761 0.
-114.599 -311.642 0.
-143.854 -394.494 0.
-53.7661 -130.849 0.
-91.1835 -232.52 0.
-127.694 -335.097 0.
-82.8019 -179.367 0.
-158.365 -361.781 0.
-0.498097 -3.03858 0.
-66.8802 -136.629 0.
-165.062 -344.475 0.
1.64233 3.25249 0.
-44.9238 -90.0063 0.
-147.636 -301.024 0.
1.04992 2.15518 0.
-55.7988 -115.66 0.
-126.794 -265.319 0.
-32.722 -57.0146 0.
-133.437 -238.412 0.
1.75799 3.55983 0.
-26.2593 -53.1655 0.
-130.66 -263.078 0.
-11.8955 -25.0367 0.
-36.0737 -75.9413 0.
-60.2706 -126.827 0.
-54.2381 -113.046 0.
-27.2904 -56.8642 0.
-0.332302 -0.69274 0.
-55.4569 -115.1 0.
2.32934 4.79078 0.
2.48423 5.04695 0.
-72.1724 -123.672 0.
-10.6824 -18.0271 0.
-18.0797 -29.6338 0.
-1.02952 -1.66986 0.
-0.693381 -1.11289 0.
-31.8963 -53.0434 0.
0.152185 0.249539 0.
0.297933 0.48175 0.
0.445751 0.741613 0.
-0.496086 -0.811814 0.
-1.02453 -1.64934 0.
0.0965826 0.201901 0.
0.37092 0.760489 0.
-5.66554 -12.4295 0.
-0.372307 -0.666513 0.
-52.7385 -96.2831 0.
1.53983 2.48497 0.
0.685332 1.12147 0.
-102.209 -170.748 0.
0.467826 0.783665 0.
-56.0354 -95.4356 0.
-145.387 -251.552 0.
-84.8459 -137.505 0.
-95.8386 -156.936 0.
-106.686 -176.512 0.
-122.122 -206.939 0.
-166.762 -285.245 0.
-51.8076 -104.271 0.
-103.281 -208.628 0.
-154.489 -313.251 0.
-92.4021 -191.013 0.
-109.183 -226.017 0.
-125.904 -261.082 0.
-134.128 -281.319 0.
-104.437 -220.178 0.
-74.9899 -158.793 0.
-194.529 -384.454 0.
-75.2902 -149.507 0.
0.445405 0.883106 0.
-179.522 -322.875 0.
-76.4129 -133.172 0.
-147.88 -308.24 0.
-75.8752 -156.811 0.
-3.04369 -6.20904 0.
-149.73 -307.103 0.
-50.7904 -102.324 0.
-0.445335 -2.52887 0.
-157.914 -331.083 0.
-70.999 -145.122 0.
0.232601 0.464044 0.
-146.212 -337.046 0.
-72.9379 -159.907 0.
-121.518 -320.606 0.
-86.5566 -222.933 0.
-50.6895 -126.166 0.
-135.429 -371.734 0.
-111.09 -302.242 0.
-86.8479 -232.654 0.
-139.14 -384.012 0.
-130.413 -359.48 0.
-121.7 -334.935 0.
-156.161 -430.14 0.
-149.343 -410.924 0.
-135.1 -372.225 0.
-155.559 -430.394 0.
-162.842 -450.783 0.
-107.802 -292.272 0.
-122.064 -334.141 0.
-136.493 -375.844 0.
-78.6608 -204.496 0.
-107.922 -287.343 0.
-137.057 -370.317 0.
-46.5065 -110.08 0.
-84.9122 -210.764 0.
-121.983 -312.784 0.
-72.6251 -150.944 0.
-150.324 -331.227 0.
-0.367493 -2.2566 0.
-64.421 -130.11 0.
-164.44 -336.12 0.
1.76669 3.42924 0.
-37.3502 -73.704 0.
-141.066 -283.722 0.
-0.354528 -0.712207 0.
-73.1449 -148.571 0.
-144.779 -297.586 0.
-77.1922 -133.579 0.
-177.557 -315.309 0.
-0.763412 -4.38554 0.
-84.1921 -166.308 0.
-190.634 -374.152 0.
-81.5961 -171.34 0.
-105.924 -222.086 0.
-130.336 -272.749 0.
-137.738 -284.057 0.
-110.717 -227.959 0.
-83.5978 -171.959 0.
-154.7 -317.225 0.
-96.7921 -197.484 0.
-38.544 -78.0823 0.
-171.041 -292.762 0.
-110.346 -186.344 0.
-109.88 -177.681 0.
-87.786 -140.43 0.
-65.3752 -103.496 0.
-128.302 -215.216 0.
-33.2954 -55.0617 0.
-0.693814 -1.13079 0.
-82.7944 -137.419 0.
1.76501 2.86671 0.
-0.767426 -1.22599 0.
-35.7164 -73.7194 0.
-11.179 -22.6241 0.
-0.86748 -1.60983 0.
-0.214162 -0.33933 0.
1.67067 2.69363 0.
0.274418 0.405675 0.
-1.6813 -2.5238 0.
2.20099 3.35349 0.
0.97114 1.49867 0.
-0.514762 -0.804673 0.
-6.89585 -10.9216 0.
0.765707 1.14894 0.
2.47705 3.72809 0.
3.59373 5.42533 0.
-1.05669 -1.62518 0.
-16.2404 -25.3798 0.
-0.0654863 -0.121361 0.
-1.12267 -2.11961 0.
-36.0642 -69.2727 0.
-0.11113 -0.216516 0.
-0.237552 -0.468297 0.
-26.768 -53.3933 0.
-28.6099 -57.8595 0.
-22.3897 -45.6156 0.
-16.2273 -33.3141 0.
-124.783 -241.085 0.
-28.0371 -54.7701 0.
-1.12412 -2.21093 0.
-133.384 -229.758 0.
-29.6395 -49.372 0.
-114.75 -229.469 0.
-57.9195 -116.908 0.
-1.77765 -3.65961 0.
-147.09 -300.731 0.
-68.3019 -140.278 0.
1.14116 2.39836 0.
-188.11 -392.953 0.
-89.6688 -180.837 0.
-0.226561 -1.44401 0.
-160.046 -360.716 0.
-101.955 -216.917 0.
-153.036 -403.886 0.
-116.731 -302.291 0.
-79.7748 -201.348 0.
-161.548 -445.091 0.
-139.017 -380.193 0.
-116.728 -315.052 0.
-169.969 -469.221 0.
-156.133 -428.721 0.
-142.598 -387.921 0.
-190.001 -522.643 0.
-188.277 -517.989 0.
-157.024 -433.135 0.
-186.389 -515.588 0.
-188.325 -521.404 0.
-129.102 -347.9 0.
-145.454 -396.376 0.
-162 -444.66 0.
-104.442 -268.32 0.
-132.073 -349.912 0.
-159.849 -431.358 0.
-74.9985 -179.932 0.
-113.875 -281.144 0.
-151.748 -383.359 0.
-101.051 -202.185 0.
-169.296 -362.503 0.
0.776051 1.56786 0.
-86.2286 -170.844 0.
-198.826 -404.292 0.
-0.3392 -2.08637 0.
-58.6789 -118.398 0.
-138.41 -279.798 0.
0.641689 1.30592 0.
-51.8977 -103.342 0.
-105.215 -207.213 0.
-23.8497 -39.2456 0.
-120.861 -204.341 0.
-1.13914 -2.22072 0.
-23.8357 -45.9731 0.
-104.609 -198.629 0.
-6.39966 -12.7572 0.
-6.84129 -13.5928 0.
-7.28397 -14.4272 0.
-20.6207 -40.2117 0.
1.66925 3.2111 0.
0.574828 1.0895 0.
-32.0533 -61.0472 0.
2.49098 4.66278 0.
-0.865661 -3.79856 0.
-17.6751 -27.5278 0.
-1.76764 -4.65238 0.
1.13764 1.68401 0.
2.61364 3.85816 0.
-2.22973 -3.28203 0.
-5.58191 -8.65742 0.
-0.0777256 -0.118869 0.
2.64576 3.99069 0.
-1.72591 -2.61664 0.
-0.906847 -1.35673 0.
-0.398243 -0.587915 0.
-0.576085 -1.02177 0.
0.437779 0.764767 0.
-0.304559 -0.56196 0.
-2.42286 -3.8071 0.
-61.9778 -99.3273 0.
2.05583 3.03269 0.
-20.2084 -30.3073 0.
-108.222 -165.143 0.
-1.67561 -2.55729 0.
-47.6101 -73.5898 0.
-130.885 -204.493 0.
-75.8145 -112.68 0.
-93.8915 -139.893 0.
-111.906 -167.168 0.
-114.067 -172.724 0.
-147.111 -226.476 0.
-35.3245 -65.2605 0.
-98.0235 -183.991 0.
-159.548 -303.895 0.
-86.66 -166.667 0.
-113.002 -219.767 0.
-138.931 -273.28 0.
-115.093 -227.849 0.
-108.34 -216.141 0.
-101.629 -204.391 0.
-179.37 -339.791 0.
-80.9092 -155.213 0.
-0.791796 -1.54004 0.
-161.601 -272.959 0.
-57.1402 -93.2995 0.
-141.692 -279.23 0.
-84.3816 -167.157 0.
-27.2879 -54.867 0.
-152.22 -308.476 0.
-72.8859 -148.571 0.
0.0440102 0.09199 0.
-187.919 -379.622 0.
-86.5783 -170.403 0.
0.71833 1.45354 0.
-153.535 -336.493 0.
-94.0971 -194.038 0.
-142.428 -369.208 0.
-105.733 -268 0.
-68.1127 -167.717 0.
-149.43 -408.284 0.
-127.139 -343.144 0.
-105.034 -277.817 0.
-160.889 -441.437 0.
-147.346 -400.643 0.
-134.112 -359.54 0.
-191.797 -527.162 0.
-190.07 -522.511 0.
-154.777 -427.792 0.
-180.007 -497.799 0.
-181.932 -503.626 0.
-122.845 -324.458 0.
-138.96 -373.174 0.
-155.261 -421.703 0.
-96.3319 -238.554 0.
-124.061 -320.05 0.
-151.727 -401.609 0.
-69.4529 -162.712 0.
-109.022 -263.232 0.
-147.401 -364.943 0.
-97.1796 -188.953 0.
-166.96 -347.738 0.
-0.356968 -2.10875 0.
-78.989 -153.785 0.
-194.531 -384.292 0.
1.24302 2.48016 0.
-63.1123 -126.025 0.
-143.295 -286.972 0.
-27.2269 -54.0642 0.
-80.7125 -157.759 0.
-134.485 -261.167 0.
-58.2681 -94.1201 0.
-155.753 -258.73 0.
-12.9025 -24.9247 0.
-87.1404 -165.375 0.
-169.341 -316.58 0.
-105.94 -206.249 0.
-106.623 -206.843 0.
-107.287 -207.456 0.
-143.879 -275.597 0.
-113.217 -214.21 0.
-82.0476 -153.329 0.
-162.13 -304.899 0.
-94.5651 -175.441 0.
-25.809 -47.1746 0.
-148.895 -227.914 0.
-103.374 -155.708 0.
-108.368 -158.457 0.
-87.0808 -127.036 0.
-65.7308 -95.6776 0.
-120.644 -185.799 0.
-31.5164 -47.8667 0.
2.98192 4.46393 0.
-84.3741 -128.416 0.
-0.320623 -0.479979 0.
0.444356 0.656257 0.
-22.7699 -40.1292 0.
1.23224 2.14004 0.
-0.0540594 -0.114044 0.
-0.754096 -2.40607 0.
0.238434 0.395775 0.
1.72937 2.57532 0.
-0.15555 -0.233687 0.
0.280649 0.425352 0.
0.308136 0.463099 0.
-0.342807 -0.521926 0.
-1.31631 -2.02995 0.
-1.81615 -4.26368 0.
1.99362 2.94184 0.
-0.569089 -0.845238 0.
-2.3863 -3.53948 0.
1.18456 1.7667 0.
0.765495 1.35444 0.
0.608394 1.09077 0.
-1.05183 -1.91128 0.
0.752363 1.36305 0.
-0.939463 -4.06004 0.
-0.578806 -1.06812 0.
-0.956122 -4.21726 0.
0.487632 0.90261 0.
-1.26554 -2.35584 0.
-8.13225 -14.3415 0.
2.41411 4.23782 0.
-0.976055 -3.64596 0.
-14.2908 -21.8968 0.
3.0509 4.62957 0.
-24.6795 -44.9753 0.
1.78773 3.24706 0.
-0.539966 -2.22916 0.
-73.2236 -135.051 0.
-2.60554 -4.79915 0.
-0.30682 -1.34634 0.
-130.204 -241.301 0.
-25.6327 -46.6065 0.
-0.320825 -1.35835 0.
-99.4697 -204.744 0.
-40.8935 -80.3074 0.
-98.0308 -252.691 0.
-67.6623 -170.807 0.
-36.3871 -89.8289 0.
-118.401 -324.674 0.
-86.1199 -232.977 0.
-53.6822 -141.438 0.
-108.63 -300.048 0.
-89.3778 -245.54 0.
-70.284 -190.873 0.
-122.928 -339.421 0.
-108.793 -298.021 0.
-83.6374 -228.73 0.
-96.2861 -266.352 0.
-114.629 -317.5 0.
-66.9592 -175.756 0.
-87.8738 -238.492 0.
-109.218 -300.798 0.
-49.5059 -125.786 0.
-79.4432 -207.752 0.
-108.702 -290.395 0.
-26.957 -62.9337 0.
-63.6551 -154.198 0.
-98.948 -246.867 0.
-37.4961 -70.5148 0.
-106.198 -207.914 0.
-0.212204 -0.86863 0.
-9.67016 -17.5725 0.
-131.837 -239.902 0.
0.427501 0.764881 0.
-0.024389 -0.0435284 0.
-66.304 -119.543 0.
1.46013 2.60365 0.
-0.63244 -2.58132 0.
-13.4059 -24.1814 0.
0.633103 0.952984 0.
-5.66592 -8.59559 0.
1.83679 3.20909 0.
2.60895 4.59514 0.
1.93994 3.44232 0.
0.0238322 0.0436267 0.
-0.229283 -0.416434 0.
-0.479068 -0.863338 0.
-0.988304 -1.78805 0.
2.37752 4.26733 0.
2.48443 4.42214 0.
0.628646 1.13851 0.
-0.736206 -1.31627 0.
-1.12793 -1.99211 0.
-2.16843 -3.24674 0.
-1.67885 -2.49759 0.
2.67286 3.89545 0.
1.76788 2.55988 0.
0.451504 0.649608 0.
-1.82569 -2.7948 0.
1.66273 2.51605 0.
2.31259 3.45911 0.
0.723883 1.1145 0.
1.58655 2.42155 0.
1.70652 2.58208 0.
-0.644394 -1.2277 0.
-0.304475 -0.574607 0.
-0.249209 -1.81623 0.
0.239371 0.394101 0.
-0.778941 -2.50913 0.
1.53992 2.29385 0.
0.730608 1.09803 0.
-13.0787 -19.8355 0.
2.42252 3.65061 0.
2.00864 3.06693 0.
-34.3607 -53.119 0.
1.30365 1.89754 0.
-1.15741 -1.69552 0.
2.48356 3.66338 0.
0.645526 0.960666 0.
-8.80882 -13.1746 0.
0.541546 0.943319 0.
0.974806 1.72074 0.
-33.625 -59.9551 0.
0.295857 0.533057 0.
-1.2895 -2.34469 0.
-35.1172 -64.1645 0.
-1.35897 -2.4861 0.
-8.96101 -16.4764 0.
-20.7874 -38.4005 0.
-80.2604 -136.672 0.
2.638 4.51291 0.
-0.417488 -0.708506 0.
-86.4476 -132.888 0.
1.59081 2.41448 0.
-69.1078 -124.355 0.
-28.795 -51.5221 0.
1.41513 2.51842 0.
-97.1695 -175.777 0.
-25.7631 -46.3211 0.
0.638859 1.14543 0.
-134.279 -244.509 0.
-28.3993 -51.1248 0.
1.2122 2.18886 0.
-87.8252 -178.274 0.
-28.2517 -54.8316 0.
-85.3705 -213.922 0.
-54.309 -132.727 0.
-22.0816 -52.6989 0.
-101.526 -272.751 0.
-69.2288 -181.066 0.
-36.1283 -90.1847 0.
-99.6131 -271.878 0.
-80.6371 -217.092 0.
-61.7725 -162.196 0.
-111.063 -304.342 0.
-97.2166 -262.653 0.
-70.6522 -190.557 0.
-81.1608 -222.952 0.
-99.2636 -274.342 0.
-52.0608 -130.703 0.
-73.0268 -193.39 0.
-94.1285 -255.941 0.
-33.1954 -81.9459 0.
-64.0118 -163.035 0.
-93.7486 -245.205 0.
-16.518 -37.0628 0.
-54.4573 -127.088 0.
-90.6198 -218.891 0.
-30.247 -56.8465 0.
-99.5155 -193.681 0.
1.76048 3.10577 0.
-17.9935 -31.9414 0.
-142.284 -252.143 0.
1.16053 2.03434 0.
-21.5785 -37.8316 0.
-95.6887 -169.73 0.
0.351244 0.620293 0.
-29.7378 -52.74 0.
-63.1805 -112.456 0.
1.51042 2.27238 0.
-79.2216 -120.582 0.
0.405433 0.69211 0.
-9.06732 -15.5929 0.
-66.4137 -114.257 0.
-18.0045 -32.7729 0.
-3.98427 -7.2004 0.
0.810579 1.45376 0.
-37.117 -66.5307 0.
0.412413 0.736556 0.
0.446696 0.791065 0.
-34.8975 -61.6269 0.
-0.972508 -3.68193 0.
1.46893 2.54264 0.
-9.1477 -13.7471 0.
-1.67781 -2.50602 0.
2.72565 3.94892 0.
2.71097 3.90235 0.
2.36251 3.37909 0.
-27.8213 -42.5961 0.
1.69753 2.5687 0.
0.156954 0.23473 0.
0.217184 0.334744 0.
-0.37781 -0.577253 0.
2.08342 3.15528 0.
-0.275258 -0.525372 0.
0.419798 0.793602 0.
0.958801 2.01643 0.
-4.10696 -6.74506 0.
-24.2062 -39.9912 0.
1.03332 1.53966 0.
-4.05762 -6.10084 0.
-72.0678 -109.539 0.
0.0820955 0.124049 0.
-31.5339 -48.2554 0.
-107.756 -166.645 0.
-52.4307 -75.5399 0.
-61.0116 -88.3386 0.
-69.5522 -101.178 0.
-95.4699 -142.052 0.
-104.666 -156.443 0.
-9.23916 -15.8215 0.
-71.9815 -124.148 0.
-134.065 -233.133 0.
-43.5785 -77.573 0.
-86.6564 -154.897 0.
-129.34 -232.615 0.
-79.7855 -144.079 0.
-91.5166 -166.094 0.
-103.162 -188.196 0.
-155.226 -256.166 0.
-70.7206 -116.61 0.
-0.841272 -1.39006 0.
-158.238 -244.244 0.
-59.7368 -90.8475 0.
-113.9 -203.371 0.
-73.6472 -130.485 0.
-33.0026 -57.9915 0.
-121.575 -216.045 0.
-49.5797 -87.1839 0.
-0.499534 -1.88289 0.
-138.358 -247.713 0.
-31.202 -55.607 0.
1.20174 2.15904 0.
-75.8682 -152.118 0.
-15.3999 -29.566 0.
-72.3406 -175.522 0.
-40.3749 -95.2288 0.
-7.0615 -16.2834 0.
-84.8664 -220.612 0.
-52.0188 -129.474 0.
-17.2181 -40.2882 0.
-91.0976 -243.207 0.
-72.2838 -188.258 0.
-53.4103 -133.369 0.
-99.4277 -269.036 0.
-85.7934 -227.133 0.
-45.653 -125.344 0.
-66.2367 -179.35 0.
-84.1957 -230.887 0.
-36.5063 -86.3057 0.
-58.0546 -148.413 0.
-79.199 -210.924 0.
-16.1382 -38.852 0.
-47.9901 -118.91 0.
-78.4602 -200.349 0.
-5.45986 -11.811 0.
-44.7457 -100.492 0.
-81.9624 -191.243 0.
-22.9819 -43.1942 0.
-92.7032 -179.578 0.
1.5082 2.61512 0.
-26.5692 -46.0579 0.
-152.959 -264.156 0.
-0.109356 -0.187747 0.
-51.0535 -87.9364 0.
-125.684 -219.306 0.
-46.3699 -81.0119 0.
-79.9965 -140.537 0.
-113.413 -200.271 0.
-60.5617 -91.4368 0.
-152.26 -233.086 0.
2.01132 3.35715 0.
-89.1188 -147.995 0.
-147.437 -245.67 0.
-106.697 -192.104 0.
-92.9724 -166.24 0.
-79.1249 -140.5 0.
-134.828 -238.22 0.
-88.0248 -154.68 0.
-40.8295 -71.5328 0.
-138.717 -236.944 0.
-72.1676 -122.622 0.
-5.16723 -8.75038 0.
-99.7717 -149.999 0.
-86.8946 -129.914 0.
-71.39 -102.237 0.
-59.5848 -84.9318 0.
-47.7222 -67.6842 0.
-93.5413 -143.139 0.
-14.254 -21.5692 0.
0.772847 1.15564 0.
-47.9349 -73.9561 0.
-1.05102 -1.60747 0.
-1.17048 -1.77439 0.
-13.0862 -25.0147 0.
0.530136 1.00392 0.
-0.146829 -0.254464 0.
-0.364069 -0.53472 0.
0.658221 0.974035 0.
-1.31438 -1.8234 0.
0.992455 1.3919 0.
-0.335755 -0.476149 0.
1.68869 2.37824 0.
1.09002 1.54032 0.
1.90034 2.69496 0.
-1.00206 -1.34151 0.
2.48318 3.32447 0.
-1.53208 -2.05041 0.
1.14867 1.5631 0.
-0.00922247 -0.0126974 0.
-0.432111 -0.676374 0.
0.127098 0.20239 0.
-11.0646 -17.9345 0.
-0.905185 -1.50464 0.
1.45074 2.44982 0.
-10.2516 -17.5749 0.
0.160403 0.27465 0.
1.3074 2.26414 0.
1.21463 2.12834 0.
-45.3045 -72.0295 0.
2.55426 4.08229 0.
-0.915656 -1.46182 0.
-68.0926 -101.355 0.
1.63896 2.41063 0.
-28.2306 -49.2329 0.
-2.65153 -4.68091 0.
0.109165 0.194107 0.
-65.8637 -118.382 0.
-24.5412 -44.6067 0.
1.14948 2.10819 0.
-127.823 -231.67 0.
-32.1143 -58.6764 0.
0.728481 1.36261 0.
-79.8203 -161.896 0.
-27.8018 -52.9983 0.
-88.8613 -218.92 0.
-61.6251 -147.646 0.
-33.4763 -77.2855 0.
-104.003 -279.286 0.
-78.6668 -206.326 0.
-52.9863 -133.71 0.
-116.582 -318.589 0.
-91.2702 -240.999 0.
-66.6944 -162.673 0.
-130.203 -352.973 0.
-124.062 -331.338 0.
-56.261 -154.351 0.
-91.4762 -249.139 0.
-100.772 -278.316 0.
-50.9416 -127.67 0.
-74.4961 -196.535 0.
-97.9478 -265.503 0.
-40.5518 -97.7605 0.
-69.216 -173.956 0.
-96.9229 -251.11 0.
-28.9888 -61.9644 0.
-61.1751 -136.43 0.
-91.9006 -212.356 0.
-31.6624 -57.819 0.
-101.339 -198.282 0.
1.79241 3.27517 0.
-35.7862 -63.8571 0.
-142.589 -250.281 0.
1.5346 2.71675 0.
-21.8201 -38.4362 0.
-61.8955 -108.516 0.
1.40164 2.47755 0.
-0.530764 -0.928543 0.
-19.5264 -33.661 0.
-0.103119 -0.149559 0.
-59.2571 -86.9676 0.
1.17617 1.88551 0.
-3.42178 -5.47362 0.
-31.567 -50.2901 0.
-0.212943 -0.360641 0.
-0.805314 -1.3516 0.
2.35305 3.91554 0.
-8.66506 -14.5355 0.
0.494595 0.816463 0.
-0.570866 -0.927237 0.
-20.9265 -32.9506 0.
2.47918 3.85023 0.
-1.42519 -3.73986 0.
2.53626 3.49395 0.
-0.78268 -1.0633 0.
0.172003 0.225794 0.
-2.22766 -4.05005 0.
1.7996 2.37193 0.
2.46139 3.441 0.
1.55156 2.16172 0.
0.101348 0.140745 0.
2.60522 3.72502 0.
-0.523429 -0.742252 0.
1.85577 2.60979 0.
0.210742 0.348847 0.
0.221503 0.364224 0.
-0.609803 -2.20671 0.
-19.3031 -28.2217 0.
-22.389 -32.9824 0.
-1.08637 -1.49858 0.
-13.1434 -18.3346 0.
-72.3619 -102.054 0.
-0.774764 -1.074 0.
-30.3732 -42.19 0.
-88.8747 -123.488 0.
-49.4799 -65.5929 0.
-60.3156 -79.9124 0.
-71.1545 -94.2288 0.
-89.0809 -119.334 0.
-90.1185 -122.072 0.
-3.06885 -4.73664 0.
-68.0646 -106.876 0.
-131.68 -210.395 0.
-42.6026 -69.559 0.
-87.3297 -144.169 0.
-131.451 -219.385 0.
-62.5816 -104.586 0.
-85.1057 -143.317 0.
-107.421 -182.256 0.
-136.114 -209.86 0.
-77.3218 -119.844 0.
-18.8858 -29.4714 0.
-127.104 -186.268 0.
-20.2664 -29.3715 0.
-85.4891 -146.238 0.
-59.2691 -102.332 0.
-33.3206 -58.1553 0.
-99.6001 -177.431 0.
-57.948 -103.99 0.
-16.6402 -30.2057 0.
-128.186 -228.434 0.
-31.3435 -56.5739 0.
-0.214382 -0.967789 0.
-65.2521 -129.523 0.
-11.8137 -22.0413 0.
-77.8089 -186.763 0.
-50.0339 -116.026 0.
-21.044 -46.504 0.
-86.2963 -226.04 0.
-60.7093 -153.327 0.
-34.2551 -81.4819 0.
-92.2033 -246.621 0.
-66.9013 -169.015 0.
-41.0742 -91.9352 0.
-120.662 -325.683 0.
-114.509 -304.06 0.
-32.9572 -87.7886 0.
-69.8274 -188.383 0.
-79.0793 -217.606 0.
-32.5224 -78.2011 0.
-57.035 -146.111 0.
-80.7679 -214.801 0.
-23.8948 -54.9746 0.
-53.8 -129.933 0.
-82.1788 -206.417 0.
-17.006 -35.5498 0.
-50.0755 -109.134 0.
-81.4856 -184.378 0.
-14.7145 -26.113 0.
-86.4129 -164.559 0.
1.7366 3.14567 0.
-38.0444 -67.0992 0.
-145.896 -252.474 0.
-23.7903 -41.7576 0.
-63.9179 -111.778 0.
-104.243 -181.602 0.
-46.8214 -80.8109 0.
-66.3624 -112.993 0.
-86.1815 -144.897 0.
-23.5124 -33.6267 0.
-127.275 -184.321 0.
-22.4962 -35.2387 0.
-99.3352 -154.097 0.
-128.134 -198.25 0.
-114.534 -188.802 0.
-91.5921 -149.911 0.
-68.4359 -111.235 0.
-131.403 -215.952 0.
-89.1403 -144.68 0.
-46.2355 -74.0513 0.
-144.615 -223.871 0.
-73.5368 -112.061 0.
-1.08231 -1.62733 0.
-89.3382 -121.21 0.
-85.8618 -114.849 0.
-60.7783 -79.1899 0.
-49.2117 -64.2724 0.
-37.6763 -49.3237 0.
-77.0765 -105.908 0.
-25.4983 -34.9976 0.
-1.89596 -3.77751 0.
-65.7194 -93.6675 0.
-15.214 -21.4701 0.
0.997715 1.39584 0.
-4.14797 -6.85632 0.
-0.73674 -2.31508 0.
1.00316 1.98488 0.
-0.667842 -1.0397 0.
1.68592 2.61513 0.
-1.36798 -2.90771 0.
1.3826 1.95643 0.
-0.0796674 -0.113395 0.
1.33864 1.84361 0.
-1.47403 -3.00098 0.
1.34302 1.86111 0.
2.80204 3.70136 0.
2.64805 3.4945 0.
-1.04703 -1.38007 0.
-0.397297 -0.517867 0.
0.765491 0.991416 0.
-0.187314 -0.270286 0.
-0.382285 -0.558423 0.
-0.794493 -1.90777 0.
2.09504 3.1667 0.
0.333371 0.509739 0.
-0.912758 -2.4594 0.
1.57882 2.41893 0.
1.58756 2.45337 0.
-1.01004 -2.77055 0.
-0.61224 -0.86943 0.
-1.72003 -3.64911 0.
0.725407 1.00809 0.
-1.30442 -2.50411 0.
-1.14194 -2.18635 0.
-0.852792 -2.30575 0.
-0.968514 -2.68524 0.
-0.513739 -1.46 0.
-4.14379 -6.77457 0.
-0.0248446 -0.0407078 0.
-0.0875303 -0.143771 0.
-66.0007 -110.575 0.
-0.525194 -1.86358 0.
1.64109 2.8062 0.
-53.386 -103.935 0.
-1.86428 -3.4994 0.
-67.3382 -166.712 0.
-42.1571 -101.329 0.
-15.9675 -36.9557 0.
-76.3417 -200.18 0.
-49.0732 -123.517 0.
-20.7126 -47.9449 0.
-77.5386 -210.588 0.
-53.8134 -143.413 0.
-29.7761 -76.5498 0.
-104.995 -289.506 0.
-90.0973 -243.282 0.
-47.6462 -131.865 0.
-51.1669 -138.59 0.
-76.8839 -210.944 0.
-42.0308 -106.251 0.
-59.8327 -157.692 0.
-77.3126 -209.455 0.
-20.8456 -49.9395 0.
-46.4081 -114.215 0.
-70.9915 -179.47 0.
-7.30933 -15.6686 0.
-34.3705 -76.2602 0.
-60.3091 -137.974 0.
-0.33811 -1.26099 0.
-68.0956 -125.018 0.
0.458591 0.788711 0.
0.529914 0.906784 0.
-75.1951 -124.708 0.
0.94888 1.52886 0.
-0.638035 -1.8503 0.
1.44383 2.27442 0.
0.137293 0.214194 0.
1.93372 2.98809 0.
-1.00922 -2.63852 0.
0.696495 0.927647 0.
-1.65651 -3.13846 0.
2.49663 3.54987 0.
-1.25849 -2.81309 0.
-1.07556 -2.46195 0.
-1.23741 -3.29138 0.
0.0602523 0.091972 0.
1.68736 2.55371 0.
1.38635 2.143 0.
-1.21441 -3.1444 0.
-0.0596195 -0.0896529 0.
0.73067 1.05449 0.
1.18575 1.6921 0.
1.27195 1.79512 0.
0.684128 0.893575 0.
-1.93132 -3.52337 0.
1.65331 2.17683 0.
2.52174 3.31901 0.
2.29603 3.02072 0.
2.39986 3.31248 0.
-0.399836 -0.548738 0.
1.76921 2.41458 0.
0.615234 0.883925 0.
1.84066 2.62346 0.
0.921787 1.30362 0.
0.0678877 0.119799 0.
-0.475091 -0.832276 0.
-0.686489 -1.35254 0.
-2.5271 -3.90592 0.
-0.294313 -0.453236 0.
-0.939086 -1.3095 0.
-0.904146 -1.26796 0.
-1.35575 -2.89889 0.
1.68758 2.30363 0.
-0.495406 -0.678254 0.
-4.09565 -5.6239 0.
-1.04562 -1.36608 0.
3.14096 4.09971 0.
0.739492 0.964011 0.
-0.432785 -0.559953 0.
0.0602791 0.0774894 0.
0.959131 1.36616 0.
0.75607 1.09026 0.
-5.07806 -7.41225 0.
-0.133096 -0.197598 0.
1.19596 1.79688 0.
-8.69962 -13.2098 0.
1.15945 1.75197 0.
1.16139 1.76991 0.
-8.72457 -13.3885 0.
-11.3231 -15.825 0.
1.9818 2.74441 0.
-1.53766 -3.06788 0.
-35.2986 -47.61 0.
-1.20479 -2.3039 0.
-10.4526 -16.2794 0.
-3.40438 -5.34815 0.
0.0700849 0.111125 0.
-34.6397 -56.9759 0.
-9.19286 -15.1045 0.
1.85736 3.0582 0.
-73.3822 -120.69 0.
-3.49577 -5.81501 0.
1.07535 1.79011 0.
-45.7031 -87.3105 0.
-0.662353 -2.96706 0.
-53.7559 -127.887 0.
-27.6107 -63.4661 0.
-0.158616 -0.352231 0.
-57.7086 -145.583 0.
-29.5312 -69.8242 0.
-0.0136779 -0.103842 0.
-61.7877 -165.599 0.
-37.739 -98.7442 0.
-12.9928 -32.5873 0.
-69.4623 -191.448 0.
-53.9049 -145.878 0.
-20.719 -57.0856 0.
-24.0064 -64.6494 0.
-50.1573 -136.575 0.
-11.7772 -29.885 0.
-30.55 -80.359 0.
-48.6641 -131.492 0.
0.666157 1.59356 0.
-25.6407 -61.9413 0.
-51.0295 -126.394 0.
-0.0588795 -0.428947 0.
-21.9812 -47.571 0.
-48.6395 -108.567 0.
-0.541015 -1.91079 0.
-62.9542 -112.025 0.
0.274058 0.461372 0.
-10.1176 -16.866 0.
-86.8887 -141.432 0.
0.997458 1.62324 0.
-12.3834 -19.9776 0.
-33.0327 -52.9706 0.
-4.00502 -6.27112 0.
-2.8679 -4.44763 0.
-1.71732 -2.6376 0.
0.513203 0.680436 0.
-30.8495 -41.171 0.
1.33614 1.86281 0.
-0.0496538 -0.0699435 0.
0.766456 1.09074 0.
-4.45287 -6.78965 0.
-0.90067 -2.28863 0.
0.683592 1.02492 0.
-8.09666 -12.2354 0.
2.00174 2.98829 0.
0.78697 1.15925 0.
-10.1321 -14.4678 0.
1.60234 2.26424 0.
-1.16529 -2.43836 0.
3.00352 3.88859 0.
-0.353787 -0.461923 0.
2.81414 3.67531 0.
3.1896 4.16432 0.
-2.19028 -3.91079 0.
1.50734 2.0727 0.
-0.0246258 -0.0336685 0.
2.69855 3.66902 0.
-1.16113 -1.64942 0.
0.897397 1.26465 0.
-1.22837 -1.71784 0.
0.708803 1.24941 0.
0.33238 0.581533 0.
0.588564 1.15444 0.
-26.4237 -40.5396 0.
-8.3158 -12.7127 0.
1.67378 2.31264 0.
-22.2422 -30.9205 0.
-50.5535 -70.7033 0.
2.00196 2.70844 0.
-33.6348 -45.592 0.
-79.5478 -107.944 0.
-53.2015 -68.5976 0.
-48.835 -62.8792 0.
-44.4613 -57.168 0.
-79.9114 -102.539 0.
-66.3162 -84.5372 0.
-10.2 -14.3239 0.
-63.1399 -89.3241 0.
-115.587 -164.817 0.
-14.9236 -21.7151 0.
-66.6844 -97.5826 0.
-117.863 -174.032 0.
-36.4495 -53.9781 0.
-74.9045 -111.465 0.
-112.93 -169.381 0.
-103.304 -141.7 0.
-61.3785 -83.3918 0.
-18.9801 -25.556 0.
-124.274 -168.587 0.
-34.6888 -46.7314 0.
-68.8301 -108.257 0.
-61.5198 -97.5896 0.
-54.2828 -86.8485 0.
-64.9356 -107.377 0.
-39.6073 -65.3901 0.
-14.2155 -23.4665 0.
-80.8794 -130.688 0.
-10.242 -16.5662 0.
-0.831368 -2.52999 0.
-37.8186 -70.8879 0.
-0.287032 -1.24228 0.
-39.3999 -89.8354 0.
-12.0541 -26.6128 0.
-0.0891538 -0.74801 0.
-38.2863 -91.775 0.
-8.17596 -17.9451 0.
-0.0195876 -0.133147 0.
-45.7333 -120.913 0.
-21.1756 -54.5646 0.
-0.0304851 -0.717324 0.
-33.8048 -93.5134 0.
-17.6471 -48.5395 0.
0.428477 1.16856 0.
0.0020963 0.356953 0.
-23.08 -62.5568 0.
-0.0717411 -2.00008 0.
-1.18232 -3.11094 0.
-19.8876 -53.6563 0.
-0.0986309 -1.46803 0.
-4.27207 -10.2685 0.
-30.3968 -73.9889 0.
0.795506 1.65961 0.
-9.13552 -19.3382 0.
-36.5235 -79.6066 0.
-0.699136 -2.33863 0.
-57.5517 -99.293 0.
-0.515355 -1.64234 0.
-21.101 -34.3028 0.
-98.7908 -157.947 0.
-29.3511 -48.5211 0.
-49.7717 -81.7399 0.
-70.3356 -114.815 0.
-69.9063 -110.874 0.
-69.2315 -108.589 0.
-68.5433 -106.316 0.
-42.3181 -55.9524 0.
-130.867 -174.743 0.
-23.2894 -31.7887 0.
-79.2947 -109.077 0.
-89.5958 -124.356 0.
-110.676 -164.58 0.
-78.4113 -116.009 0.
-45.9208 -67.6648 0.
-119.091 -174.289 0.
-70.6436 -102.309 0.
-21.55 -30.9757 0.
-116.546 -163.924 0.
-57.5895 -80.2283 0.
2.0286 2.80621 0.
-65.6369 -83.9041 0.
-87.3556 -112.658 0.
-43.0586 -55.6912 0.
-42.4428 -54.8933 0.
-41.8292 -54.0977 0.
-68.3333 -93.2589 0.
-27.9971 -38.085 0.
2.3421 3.17213 0.
-34.0672 -47.8828 0.
-14.5793 -20.321 0.
0.800094 1.10603 0.
-4.6273 -8.1531 0.
-9.29887 -16.2694 0.
-0.729104 -2.14741 0.
-1.17065 -1.58708 0.
-1.26755 -2.41853 0.
0.79411 0.990189 0.
1.44177 1.79811 0.
1.3366 1.66725 0.
2.09709 2.5686 0.
-2.27838 -3.5143 0.
-0.687508 -0.838892 0.
-0.938541 -1.10247 0.
-2.81893 -3.90745 0.
1.86747 2.15471 0.
-1.93516 -2.62634 0.
-1.77482 -2.43417 0.
0.952824 1.18919 0.
-0.81826 -1.36473 0.
0.492606 0.633572 0.
-1.56827 -2.91794 0.
0.899422 1.21663 0.
-1.08144 -2.18836 0.
2.62205 3.64519 0.
2.29558 3.22572 0.
0.808204 1.14827 0.
-0.240311 -0.314392 0.
2.39162 3.12721 0.
2.04885 2.67684 0.
-13.2501 -17.3755 0.
0.0562752 0.0739466 0.
1.62392 2.61528 0.
-0.250858 -0.785868 0.
-0.444214 -1.45621 0.
0.911039 1.57001 0.
1.26719 2.18316 0.
-0.533075 -1.91997 0.
-51.549 -84.1133 0.
-6.60099 -10.9091 0.
1.65714 2.7587 0.
-46.844 -89.6758 0.
-0.463403 -2.08152 0.
-50.7673 -117.653 0.
-27.7172 -61.0662 0.
-2.99316 -6.15294 0.
-54.6778 -138.956 0.
-32.8596 -79.2067 0.
-9.6142 -20.8851 0.
-67.594 -185.875 0.
-49.3081 -133.573 0.
-30.8031 -81.4909 0.
-77.6286 -214.96 0.
-82.0415 -226.474 0.
-23.5958 -62.9901 0.
-57.2423 -155.272 0.
-60.6067 -166.995 0.
-16.862 -44.9131 0.
-33.302 -90.3528 0.
-49.5242 -136.01 0.
-11.117 -26.835 0.
-24.9914 -61.8944 0.
-38.4099 -97.4097 0.
-0.341282 -2.18264 0.
-22.8988 -48.165 0.
-51.7388 -114.295 0.
7.85297e-05 0.000236594 0.
-69.4957 -119.371 0.
1.53401 2.52134 0.
-16.7924 -27.2608 0.
-62.2754 -99.9018 0.
-4.01704 -6.82434 0.
0.344075 0.586167 0.
1.58495 2.70769 0.
-0.642879 -2.21749 0.
0.76918 1.26956 0.
1.50272 2.41067 0.
0.97249 1.25624 0.
-15.3545 -19.7646 0.
0.468174 0.608762 0.
-0.283213 -0.369 0.
0.344257 0.449419 0.
-0.830586 -1.74283 0.
2.39194 3.31568 0.
2.37831 3.26771 0.
-1.39005 -2.7058 0.
1.8422 2.45552 0.
-1.09833 -1.98524 0.
1.10596 1.39958 0.
1.23172 1.53114 0.
-1.69908 -2.6193 0.
-1.91003 -2.62551 0.
1.8611 2.14831 0.
4.19964 4.83041 0.
-1.29201 -1.49903 0.
-0.663342 -0.776052 0.
0.659691 0.803687 0.
-0.833824 -1.02251 0.
-1.77489 -2.79608 0.
1.69532 2.14891 0.
-1.81446 -3.04897 0.
-0.34604 -0.440658 0.
1.00873 1.51834 0.
-0.62137 -0.940104 0.
-0.81682 -1.29086 0.
-35.5784 -47.5388 0.
-1.43478 -2.6631 0.
2.85262 3.49119 0.
-14.25 -17.4303 0.
-36.9298 -45.1522 0.
-2.04021 -3.05521 0.
-32.0387 -38.5475 0.
-74.6865 -89.723 0.
-57.5941 -66.5038 0.
-45.2333 -51.7788 0.
-32.7641 -37.1623 0.
-97.983 -110.936 0.
-90.6143 -102.989 0.
-12.2259 -14.7819 0.
-66.7735 -82.0158 0.
-120.25 -150.321 0.
-20.589 -26.8022 0.
-72.2334 -95.6332 0.
-122.819 -165.523 0.
-20.8063 -28.415 0.
-67.2795 -92.6546 0.
-113.196 -157.45 0.
-95.3536 -121.708 0.
-70.1495 -89.4266 0.
-44.8902 -57.2006 0.
-89.7836 -115.254 0.
-15.7113 -20.2066 0.
-30.9464 -49.4642 0.
-32.4559 -52.7027 0.
-33.9364 -55.9701 0.
-28.3076 -48.3135 0.
-27.7147 -47.3481 0.
-27.1233 -46.3813 0.
-50.638 -81.7715 0.
-5.42222 -8.83492 0.
-0.253785 -0.794681 0.
-30.9558 -57.7744 0.
0.105332 0.457607 0.
-36.4635 -80.6266 0.
-12.1706 -25.2801 0.
0.216429 1.27675 0.
-37.6288 -92.8153 0.
-14.7887 -34.0857 0.
0.17539 1.32071 0.
-38.6521 -106.794 0.
-19.9808 -54.8739 0.
-1.13801 -3.12531 0.
-42.7454 -117.112 0.
-46.6521 -129.134 0.
0.00774758 0.642524 0.
-17.7999 -48.6832 0.
-21.6684 -59.9027 0.
-0.0278498 -2.41493 0.
-8.244 -22.5665 0.
-24.6623 -68.0309 0.
-0.113154 -2.20587 0.
-4.91388 -12.306 0.
-18.6295 -47.5259 0.
-0.324442 -2.05766 0.
-4.27451 -8.70823 0.
-34.5163 -73.4392 0.
-0.828548 -2.43559 0.
-51.0272 -84.9959 0.
-0.495429 -1.46357 0.
-20.6411 -32.7739 0.
-66.4769 -105.062 0.
-47.0505 -79.2862 0.
-42.6758 -71.8901 0.
-38.2824 -64.5125 0.
-53.4437 -90.5941 0.
-45.1117 -74.5186 0.
-36.5146 -58.7083 0.
-33.3944 -42.3591 0.
-106.044 -134.158 0.
-46.5579 -59.166 0.
-87.1113 -110.933 0.
-79.278 -101.157 0.
-106.59 -144.659 0.
-71.5114 -96.4224 0.
-36.1438 -48.4742 0.
-119.65 -157.566 0.
-68.5912 -89.0303 0.
-16.6702 -21.356 0.
-125.542 -153.673 0.
-73.9495 -89.0887 0.
-21.443 -25.419 0.
-85.9643 -98.3412 0.
-96.182 -109.521 0.
-25.1363 -28.478 0.
-39.795 -45.4862 0.
-54.3483 -62.6495 0.
-66.5452 -79.6877 0.
-29.4071 -35.4317 0.
1.27137 1.54281 0.
-16.6122 -20.7103 0.
-9.4846 -11.8552 0.
-2.39772 -3.00468 0.
-0.453788 -0.667234 0.
-14.1339 -20.8847 0.
0.797544 1.39224 0.
0.109528 0.147821 0.
-0.057641 -0.0758692 0.
-1.58952 -2.24883 0.
2.6157 3.06783 0.
1.83094 2.1426 0.
-2.2067 -3.04155 0.
-0.724903 -0.844625 0.
-0.912014 -1.06594 0.
0.843954 0.947873 0.
1.07817 1.20056 0.
-0.16841 -0.185872 0.
2.96143 3.24342 0.
-0.185673 -0.20333 0.
0.609241 0.697547 0.
0.705529 0.817262 0.
0.306342 0.35913 0.
1.10146 1.36159 0.
-0.744909 -1.19884 0.
2.25399 2.83138 0.
-0.723331 -1.22569 0.
-1.59939 -2.74429 0.
-1.21084 -2.10609 0.
2.30494 2.75191 0.
0.942733 1.11734 0.
0.811301 0.954502 0.
1.09459 1.32945 0.
1.12337 1.38446 0.
1.17585 1.79265 0.
0.475886 0.741879 0.
0.490673 0.781423 0.
-0.761864 -2.39126 0.
-0.664202 -2.16857 0.
-0.700873 -2.38224 0.
-13.4895 -21.7621 0.
0.169237 0.274553 0.
0.276946 0.452646 0.
-38.3712 -72.3436 0.
1.3481 2.51318 0.
-38.1064 -86.6742 0.
-21.4373 -47.194 0.
-3.9963 -8.48568 0.
-49.9389 -127.525 0.
-35.1006 -86.1123 0.
-19.4407 -45.5215 0.
-61.1396 -167.809 0.
-47.0209 -127.256 0.
-32.7307 -86.8744 0.
-62.8409 -173.831 0.
-59.7392 -165.386 0.
-33.73 -92.6135 0.
-33.6851 -92.543 0.
-46.2604 -127.468 0.
-27.5232 -74.1125 0.
-38.0119 -103.235 0.
-48.4161 -132.441 0.
-19.4039 -48.44 0.
-32.9149 -83.3571 0.
-46.1376 -118.563 0.
-5.18263 -11.1146 0.
-23.9841 -52.1754 0.
-42.2574 -93.7643 0.
0.776857 1.27584 0.
-47.7546 -79.7404 0.
-0.75013 -2.06051 0.
-0.219319 -0.341777 0.
-7.19055 -11.1912 0.
-0.657481 -2.00392 0.
1.71873 2.73485 0.
0.921503 1.43717 0.
-0.868374 -2.48663 0.
-0.760552 -2.08443 0.
-0.590176 -1.54842 0.
-1.85023 -2.86245 0.
1.33222 1.60548 0.
-1.40233 -1.98435 0.
2.14473 2.53402 0.
0.990775 1.17656 0.
2.34438 2.94973 0.
-1.38173 -2.2534 0.
2.63953 3.29681 0.
0.58623 0.71637 0.
1.03742 1.25389 0.
-1.10498 -1.62441 0.
-1.22657 -1.60257 0.
-0.868784 -1.09605 0.
2.62305 2.87751 0.
-2.51961 -3.05054 0.
0.665122 0.730716 0.
-1.69027 -2.07272 0.
-0.975912 -1.08655 0.
-0.592174 -0.666725 0.
0.507739 0.593714 0.
2.19735 2.56421 0.
0.406616 0.473649 0.
-0.323078 -0.385658 0.
-0.717293 -0.861273 0.
2.40938 2.90825 0.
-0.726985 -1.73367 0.
-0.55071 -1.36579 0.
-0.450076 -1.60261 0.
1.33919 1.77426 0.
-1.0378 -1.81219 0.
2.48343 2.88102 0.
1.98321 2.29518 0.
0.905272 1.04514 0.
0.323553 0.37056 0.
-1.7905 -2.40758 0.
1.71512 1.9753 0.
-2.36759 -2.92959 0.
3.23251 3.54027 0.
2.29339 2.48901 0.
-1.02619 -1.11639 0.
-2.46578 -2.95193 0.
1.97108 2.22552 0.
-1.42777 -1.8985 0.
1.1211 1.29598 0.
0.459279 0.557672 0.
1.66734 2.04014 0.
-1.25886 -1.9803 0.
-0.816353 -1.33981 0.
1.05428 1.33256 0.
-2.02648 -2.5756 0.
-0.130511 -0.153655 0.
0.0888004 0.103791 0.
-1.28749 -1.77116 0.
-1.68315 -2.04744 0.
1.21954 1.50528 0.
1.32678 2.04843 0.
-0.254014 -0.719039 0.
-15.827 -25.6002 0.
1.72437 2.82696 0.
-1.97234 -3.28436 0.
-15.7344 -26.6657 0.
-18.8213 -29.9699 0.
-1.61352 -2.57809 0.
-0.272715 -0.43881 0.
-34.639 -63.7224 0.
-0.344114 -1.48533 0.
-25.0146 -55.7402 0.
-7.79171 -16.8125 0.
-0.0973714 -0.702172 0.
-22.4342 -56.7562 0.
-6.69059 -16.2462 0.
0.0162677 0.204182 0.
-28.8892 -79.6022 0.
-14.4368 -39.3796 0.
0.232346 0.62607 0.
-26.0306 -71.7643 0.
-22.9404 -63.3068 0.
0.485749 1.32648 0.
-4.25779 -11.6975 0.
-16.8882 -46.5697 0.
-0.0275925 -1.84189 0.
-3.56284 -9.63717 0.
-14.1603 -38.6533 0.
0.551155 1.37303 0.
-3.82522 -9.64372 0.
-17.3955 -44.5042 0.
0.92163 1.99443 0.
-3.40612 -7.4048 0.
-22.0304 -48.6448 0.
-0.845847 -2.57012 0.
-41.7539 -68.5546 0.
1.08248 1.65961 0.
-5.63157 -8.63085 0.
-19.7351 -30.2447 0.
-24.465 -40.0908 0.
-4.32725 -6.92539 0.
-0.806591 -2.23405 0.
-21.4165 -34.2241 0.
-0.698105 -1.92095 0.
-0.601918 -1.58437 0.
2.80888 3.44676 0.
-1.1153 -1.34684 0.
2.73188 3.1789 0.
0.865767 1.01273 0.
0.331397 0.389676 0.
-1.55335 -2.45338 0.
-0.753306 -1.18129 0.
1.023 1.25539 0.
-1.30821 -1.9359 0.
2.42467 2.87768 0.
2.65897 3.12321 0.
-0.194067 -0.217394 0.
2.12311 2.3401 0.
0.703175 0.76259 0.
1.63162 1.77165 0.
0.249317 0.271961 0.
-2.67339 -3.15995 0.
-2.16592 -2.62558 0.
0.120095 0.13295 0.
-1.15016 -1.324 0.
0.981127 1.12735 0.
3.25222 3.73039 0.
2.16045 2.54701 0.
-0.664368 -0.788185 0.
1.36355 1.62666 0.
-0.605393 -1.32267 0.
-0.578576 -0.837872 0.
0.611725 1.03186 0.
-29.6771 -38.6437 0.
0.561552 0.713212 0.
-30.5358 -35.0429 0.
-26.9471 -30.8398 0.
-23.3491 -26.646 0.
-23.0164 -26.023 0.
-36.6599 -41.5829 0.
-50.2601 -57.1861 0.
-74.389 -81.0822 0.
-46.3701 -50.0514 0.
-18.0679 -19.3038 0.
-84.6152 -91.1735 0.
-86.5629 -93.1485 0.
-5.77611 -6.42743 0.
-58.0608 -65.3279 0.
-109.554 -125.02 0.
-7.71531 -9.19177 0.
-59.0615 -70.6556 0.
-109.901 -132.626 0.
-0.708409 -1.12587 0.
-53.6778 -66.7715 0.
-111.163 -139.807 0.
-56.7442 -65.8561 0.
-51.1259 -58.9506 0.
-45.4752 -52.0776 0.
-83.2139 -102.145 0.
-51.2193 -63.6781 0.
-20.9033 -32.7908 0.
-39.7659 -63.9419 0.
-58.0945 -95.627 0.
-9.73318 -15.9879 0.
-23.5338 -39.3295 0.
-37.063 -62.9425 0.
-24.2311 -38.0997 0.
-6.88514 -10.8464 0.
0.842802 1.33379 0.
-30.7776 -55.2304 0.
0.748019 1.34218 0.
-11.5196 -25.2095 0.
-0.0776592 -0.595441 0.
0.788165 1.64753 0.
-0.0440024 -0.990014 0.
-0.00973706 -0.168007 0.
-0.00881431 -0.121509 0.
0.000723621 0.517999 0.
0.00183561 0.427548 0.
0.000350458 0.0410112 0.
1.05387 2.90177 0.
0.000922218 0.451442 0.
0.736524 2.01532 0.
-0.000460375 -0.143013 0.
-0.00315855 -1.88975 0.
-0.0345767 -2.03059 0.
-0.030023 -2.35603 0.
0.00841758 0.890164 0.
-0.103274 -2.27075 0.
-0.0835972 -2.04475 0.
-0.0138238 -0.377979 0.
-0.254443 -2.20921 0.
0.444211 0.974687 0.
-1.66346 -3.66516 0.
-1.00806 -2.96091 0.
-35.5966 -57.5255 0.
-4.04546 -6.09891 0.
-18.2733 -27.5878 0.
-32.4878 -49.0901 0.
-54.3989 -89.799 0.
-34.7612 -56.1357 0.
-14.5875 -23.0085 0.
-70.7928 -114.294 0.
-47.8315 -75.6332 0.
-24.2828 -37.5601 0.
-65.9066 -81.5297 0.
-91.5719 -111.388 0.
-35.1385 -40.4907 0.
-61.5164 -71.3121 0.
-44.699 -52.0114 0.
-104.098 -126.016 0.
-60.8957 -73.3298 0.
-17.4001 -20.936 0.
-115.683 -136.094 0.
-61.4493 -71.3369 0.
-6.41057 -7.38475 0.
-104.212 -115.15 0.
-58.2804 -63.303 0.
-11.496 -12.3088 0.
-77.7754 -83.4804 0.
-85.7953 -92.6421 0.
-19.8676 -21.1399 0.
-47.7084 -51.4103 0.
-75.2014 -82.0364 0.
-36.0327 -40.9289 0.
-33.0965 -37.5251 0.
-30.1609 -34.137 0.
-2.34394 -2.73171 0.
-14.5439 -17.075 0.
-26.6746 -31.5442 0.
-0.222677 -0.306066 0.
-26.2404 -36.8024 0.
-0.741121 -1.30898 0.
2.70023 3.07778 0.
-1.5162 -1.9068 0.
2.72355 2.80461 0.
-0.978378 -1.00567 0.
2.02064 2.07278 0.
-2.13748 -2.27721 0.
-0.190417 -0.195246 0.
3.23401 3.29949 0.
-2.60476 -2.59473 0.
-1.28086 -1.26174 0.
2.14768 2.08622 0.
-2.98719 -2.89326 0.
3.99916 3.97414 0.
-0.892697 -0.896461 0.
-1.04748 -1.09031 0.
2.13181 2.21185 0.
0.240731 0.264772 0.
0.0159755 0.0178736 0.
-0.0139706 -0.0159174 0.
2.37233 2.80741 0.
-0.601288 -0.875895 0.
-0.715007 -1.05844 0.
1.51749 1.73797 0.
-1.76432 -2.41286 0.
0.240088 0.280756 0.
0.860973 1.0884 0.
-1.67236 -2.94234 0.
0.483837 0.87099 0.
0.687101 1.24686 0.
-20.1388 -36.5418 0.
0.25768 0.458251 0.
0.702008 1.24765 0.
-18.4014 -32.6231 0.
-7.04817 -11.1893 0.
-1.43378 -2.26077 0.
0.8642 1.35387 0.
-35.1763 -63.0331 0.
-0.619068 -2.51164 0.
-18.0578 -42.5854 0.
-13.0047 -30.6056 0.
-7.92241 -18.6551 0.
-25.949 -69.1779 0.
-22.0763 -57.9118 0.
-18.1272 -46.7221 0.
-40.5924 -111.872 0.
-31.6175 -85.9066 0.
-22.6312 -59.9529 0.
-55.3164 -152.861 0.
-55.4077 -152.96 0.
-7.81271 -21.1684 0.
-33.4933 -91.869 0.
-34.8835 -96.351 0.
-8.02753 -21.8848 0.
-20.8809 -57.0381 0.
-33.7017 -92.224 0.
-10.5396 -26.9127 0.
-19.7127 -50.9562 0.
-28.7181 -75.1675 0.
-4.29422 -10.104 0.
-13.4703 -32.38 0.
-22.3522 -54.9503 0.
0.482016 0.83242 0.
-31.198 -52.9332 0.
0.255916 0.387213 0.
-0.919305 -2.31586 0.
0.129717 0.194914 0.
-18.7356 -31.318 0.
0.329516 0.553084 0.
-0.643343 -2.14444 0.
-20.3292 -35.4599 0.
-0.202797 -0.734511 0.
-0.189396 -0.658757 0.
0.782349 0.982818 0.
-1.01501 -1.57847 0.
1.64932 1.89774 0.
1.77737 2.03703 0.
1.63402 1.86562 0.
0.668643 0.782277 0.
-0.931339 -1.26052 0.
-1.58476 -2.07923 0.
-0.840994 -0.99889 0.
0.646929 0.687375 0.
0.30902 0.322093 0.
0.335052 0.328424 0.
-0.807037 -0.752611 0.
-0.723717 -0.658495 0.
-2.63368 -2.5628 0.
-3.09131 -3.01945 0.
-2.57185 -2.48341 0.
-0.158014 -0.156963 0.
4.79179 4.80386 0.
-0.90303 -0.914921 0.
-0.866531 -0.886837 0.
-0.219651 -0.226942 0.
0.817642 0.861275 0.
0.314272 0.331732 0.
0.990039 1.04709 0.
-1.26236 -1.62111 0.
-0.336395 -0.383114 0.
0.423062 0.537876 0.
-50.7564 -56.8851 0.
-0.75394 -0.824659 0.
-46.9904 -46.9823 0.
-20.1712 -20.0927 0.
0.653711 0.649137 0.
-10.9276 -10.9549 0.
-27.7222 -27.6404 0.
-44.6119 -44.2306 0.
-65.4352 -63.8296 0.
-26.811 -25.784 0.
3.2619 3.09042 0.
-62.4329 -59.9079 0.
-124.74 -120.735 0.
1.89318 1.84472 0.
-52.7701 -52.5565 0.
-110.858 -112.979 0.
0.282578 0.30142 0.
-55.8342 -60.7762 0.
-115.158 -128.361 0.
2.29254 2.64098 0.
-46.2274 -53.8113 0.
-107.637 -127.225 0.
-34.8325 -39.4675 0.
-50.5492 -57.8503 0.
-66.0954 -76.4034 0.
-29.2198 -36.7109 0.
-38.7103 -49.8519 0.
0.453629 0.816413 0.
-10.0618 -18.1831 0.
-30.8736 -55.9849 0.
-0.179589 -0.699736 0.
-2.59013 -4.5737 0.
-24.6896 -43.5439 0.
-5.26929 -8.27939 0.
0.38829 0.605997 0.
0.047036 0.072938 0.
-24.5818 -43.4513 0.
-0.0631688 -0.251759 0.
0.288359 0.707209 0.
-0.108907 -1.97317 0.
0.682833 1.67184 0.
-1.88224 -5.04377 0.
0.390504 1.03122 0.
0.532361 1.38422 0.
-0.314187 -0.857617 0.
-0.00553603 -0.399893 0.
-0.0431331 -1.6748 0.
-24.0386 -66.2586 0.
-24.1244 -66.3631 0.
-0.00718992 -0.561188 0.
-0.00711416 -1.07925 0.
-0.203677 -0.560751 0.
1.01367 2.76666 0.
-0.00385957 -0.683032 0.
-9.13003 -24.9858 0.
0.944577 2.42353 0.
0.508629 1.31851 0.
-0.0235514 -0.970851 0.
-0.0531911 -0.790159 0.
-0.0613469 -1.06952 0.
-0.0744569 -1.55652 0.
-0.525143 -2.02528 0.
-14.4451 -25.0292 0.
-9.959 -14.9042 0.
-8.41481 -12.556 0.
-6.86486 -10.2135 0.
-37.7057 -62.3856 0.
-13.0339 -21.5522 0.
0.230163 0.381883 0.
-37.3672 -65.562 0.
-11.7456 -20.2525 0.
-0.205534 -0.712592 0.
-53.8971 -66.9556 0.
-37.0288 -45.0303 0.
-66.3506 -75.0197 0.
-73.3755 -82.8375 0.
-43.5155 -48.9553 0.
-105.864 -123.715 0.
-54.2225 -61.7192 0.
-1.09124 -1.21282 0.
-122.382 -131.337 0.
-59.7896 -62.3624 0.
-0.764975 -0.791854 0.
-111.68 -106.752 0.
-60.845 -57.1155 0.
-9.09146 -8.39729 0.
-125.768 -120.256 0.
-77.3918 -74.1159 0.
2.69091 2.5939 0.
-30.8013 -30.0129 0.
-72.7151 -71.5685 0.
-20.4455 -20.1257 0.
-21.5808 -21.473 0.
-22.7099 -22.8266 0.
-2.3145 -2.45229 0.
-4.99309 -5.14423 0.
-50.1329 -51.8157 0.
1.51699 1.67809 0.
-8.8589 -9.92916 0.
0.319015 0.407987 0.
0.327883 0.350339 0.
-0.964959 -1.02984 0.
0.443363 0.401936 0.
1.01147 0.906102 0.
-2.01764 -1.55259 0.
-1.92204 -1.57549 0.
0.914249 0.83311 0.
-2.11857 -1.73638 0.
-1.04236 -0.963843 0.
-0.231573 -0.213389 0.
-1.07201 -0.984325 0.
1.96263 1.82335 0.
1.2831 1.19849 0.
0.29233 0.269456 0.
0.779449 0.726171 0.
2.0782 1.95777 0.
-0.798795 -0.805184 0.
-1.57494 -1.64918 0.
0.508583 0.529367 0.
0.836268 0.927484 0.
0.21678 0.245631 0.
-0.0336074 -0.0389111 0.
-0.461566 -0.522088 0.
-0.242988 -0.275995 0.
-1.91505 -2.53801 0.
-1.96651 -3.16227 0.
0.474271 0.607212 0.
-0.620574 -2.19318 0.
0.509834 0.882534 0.
-8.35395 -14.6498 0.
1.42862 2.45877 0.
0.923435 1.61902 0.
-8.63191 -15.4369 0.
1.08785 1.7629 0.
0.792019 1.28295 0.
-2.79422 -4.52926 0.
-29.8517 -54.8487 0.
0.610905 1.13179 0.
-13.2355 -32.5441 0.
-13.468 -32.9485 0.
-13.7003 -33.3532 0.
-21.2161 -55.7687 0.
-21.5288 -56.3619 0.
-21.8441 -56.9526 0.
-22.1232 -59.852 0.
-18.6106 -49.9095 0.
-15.0789 -39.986 0.
-51.7534 -142.52 0.
-43.0741 -118.954 0.
-8.67665 -23.5826 0.
-19.2609 -52.6618 0.
-24.4708 -67.0985 0.
-12.8315 -34.885 0.
-23.421 -63.821 0.
-33.9705 -92.7972 0.
0.096669 0.246192 0.
-12.8343 -32.8551 0.
-25.6761 -66.0454 0.
-3.60097 -8.51587 0.
-7.2292 -17.337 0.
-10.7897 -26.2258 0.
-3.24097 -5.84271 0.
-13.5041 -23.8894 0.
-9.26872 -14.2459 0.
-0.682538 -1.04729 0.
1.78885 2.74091 0.
-9.03794 -15.1603 0.
0.884434 1.45586 0.
1.52512 2.46433 0.
0.239903 0.402575 0.
0.248559 0.412119 0.
-0.266012 -0.829396 0.
1.08115 1.34588 0.
-1.81983 -2.7661 0.
-0.441866 -0.494461 0.
-1.7287 -2.15776 0.
0.156141 0.171709 0.
0.206891 0.228513 0.
-0.8936 -1.07037 0.
-1.75914 -2.046 0.
0.57341 0.586856 0.
0.883329 0.896187 0.
0.588308 0.591832 0.
0.155505 0.142866 0.
-1.76545 -1.43141 0.
-1.62086 -1.27852 0.
0.832546 0.768535 0.
2.64777 2.4254 0.
-1.22044 -1.12956 0.
2.13801 1.99614 0.
2.06199 1.94171 0.
1.54592 1.41684 0.
0.759937 0.696921 0.
0.995839 0.913754 0.
-1.35285 -1.15801 0.
-0.117346 -0.110684 0.
-2.19436 -1.99417 0.
0.231146 0.240532 0.
1.51112 1.63328 0.
-0.014261 -0.0173246 0.
0.530578 0.552027 0.
-0.302115 -0.303392 0.
-0.131779 -0.117128 0.
-2.01867 -1.52811 0.
1.41721 1.22872 0.
0.517233 0.461963 0.
-1.87579 -1.47101 0.
-1.91052 -1.49664 0.
1.26552 1.15935 0.
-1.54561 -1.41092 0.
-2.9762 -2.4311 0.
0.732423 0.670436 0.
-1.67082 -1.53735 0.
0.531108 0.479818 0.
-0.882348 -0.725922 0.
0.705858 0.651399 0.
1.82012 1.80411 0.
-1.64111 -1.67357 0.
-5.94362 -6.114 0.
-0.0373646 -0.0412225 0.
-1.34088 -1.73336 0.
-15.0269 -17.327 0.
-0.763452 -0.857655 0.
-2.08922 -2.70291 0.
1.74433 1.97579 0.
0.47974 0.600389 0.
-20.78 -26.7812 0.
-0.407728 -1.39898 0.
0.314913 0.539643 0.
-19.3911 -33.7535 0.
1.17403 2.01894 0.
-0.123011 -0.2156 0.
-18.0669 -32.3354 0.
-0.724737 -2.23883 0.
1.12722 1.83785 0.
-5.3145 -8.67578 0.
-15.8808 -29.3968 0.
-0.16166 -0.302193 0.
0.366718 0.913799 0.
0.166508 0.412588 0.
0.0906608 0.22343 0.
0.451927 1.18567 0.
0.326171 0.852169 0.
0.0124441 0.032376 0.
-0.0429921 -2.4917 0.
-0.0573191 -2.54138 0.
-0.0209819 -0.713964 0.
-13.39 -36.9224 0.
-4.80266 -13.2624 0.
-0.0196978 -1.31315 0.
0.344662 0.928422 0.
-3.28595 -8.91042 0.
-0.016072 -2.13184 0.
0.2637 0.718482 0.
-6.69802 -18.2888 0.
0.285316 0.723116 0.
-0.0779424 -2.03922 0.
1.07114 2.72607 0.
1.17362 2.79162 0.
0.0603594 0.14549 0.
0.822179 2.00715 0.
1.20377 2.19056 0.
1.17672 2.09847 0.
-14.1499 -22.0581 0.
0.747673 1.16441 0.
-0.380164 -0.591547 0.
-22.6321 -38.1743 0.
-0.68094 -2.17433 0.
0.331108 0.536449 0.
-14.7517 -24.6576 0.
-0.415522 -1.30053 0.
-0.432277 -1.30993 0.
-26.0406 -32.5778 0.
-0.174265 -0.212462 0.
1.74993 1.94103 0.
-2.02229 -2.47654 0.
-0.458951 -0.500288 0.
-6.73345 -7.32773 0.
1.5644 1.67683 0.
0.559822 0.591878 0.
-11.627 -11.7942 0.
1.96381 1.97247 0.
-0.858197 -0.850369 0.
-0.582779 -0.52653 0.
1.26192 1.12514 0.
-1.00554 -0.765368 0.
-0.782131 -0.711296 0.
2.08417 1.88114 0.
-2.99239 -2.47706 0.
1.27486 1.1772 0.
2.83908 2.6442 0.
1.88677 1.6907 0.
-1.13292 -1.01649 0.
1.99052 1.78752 0.
-2.02888 -1.66015 0.
2.89481 2.6739 0.
-0.12419 -0.116328 0.
1.47178 1.46432 0.
0.700103 0.724024 0.
0.204742 0.236808 0.
-24.7053 -25.0477 0.
1.39359 1.36629 0.
-33.3304 -29.0678 0.
-3.77148 -3.24795 0.
-1.3495 -1.14727 0.
-27.1179 -23.7635 0.
-21.9892 -19.2505 0.
-16.8565 -14.7414 0.
-60.0052 -54.4883 0.
-33.5278 -30.3198 0.
-6.94467 -6.25715 0.
-2.42003 -1.94069 0.
-106.937 -97.1022 0.
-1.26942 -0.977358 0.
-24.449 -21.8987 0.
-93.9048 -85.711 0.
0.790653 0.773536 0.
-19.7358 -19.6961 0.
-86.1078 -88.2164 0.
0.730947 0.801931 0.
-12.5178 -14.046 0.
-84.8839 -97.6444 0.
3.06617 3.42027 0.
-20.4235 -22.8949 0.
-55.2687 -62.3491 0.
1.52937 1.9228 0.
-52.3456 -67.9739 0.
-0.507656 -1.69068 0.
-8.07966 -13.7277 0.
-30.5243 -52.7611 0.
0.882536 1.51635 0.
-1.64464 -2.88131 0.
-27.5092 -49.2267 0.
-0.619848 -1.94959 0.
-1.40104 -2.30075 0.
-7.81392 -12.8432 0.
-2.04321 -3.81164 0.
0.0937861 0.176914 0.
-0.044062 -1.08548 0.
-0.109331 -2.53036 0.
0.0101607 0.0253937 0.
-0.0554149 -2.49591 0.
-0.0652097 -2.7149 0.
0.896715 2.33946 0.
0.957619 2.51522 0.
-0.0607596 -2.09102 0.
-0.011643 -0.316276 0.
-7.01469e-05 -0.0531441 0.
-0.000433784 -0.482715 0.
0.762997 2.01582 0.
0.569829 1.51806 0.
0.590012 1.58279 0.
0.472329 1.28704 0.
0.234131 0.638853 0.
0.316974 0.866017 0.
-0.0922314 -2.21746 0.
0.145871 0.368775 0.
-0.0909712 -2.30811 0.
-0.153656 -2.29827 0.
0.52072 1.2624 0.
0.0583079 0.143128 0.
-0.180889 -0.332534 0.
-0.474573 -1.95288 0.
-18.953 -29.9485 0.
-4.17826 -6.60333 0.
0.578435 0.913786 0.
-36.1086 -61.3061 0.
-4.02137 -6.66444 0.
1.1661 1.8943 0.
-35.4024 -58.9606 0.
-10.6171 -17.3091 0.
0.931109 1.4922 0.
-64.2596 -80.7541 0.
1.5717 1.92349 0.
-63.5457 -70.0471 0.
-41.7304 -45.52 0.
-0.555595 -0.600245 0.
-82.3534 -89.3224 0.
-19.1886 -20.294 0.
-1.63656 -1.78011 0.
-96.2702 -97.3656 0.
-27.8064 -27.7215 0.
1.90759 1.88071 0.
-99.7783 -89.5431 0.
-41.7531 -36.7115 0.
0.120643 0.104439 0.
-111.45 -99.8629 0.
-3.95847 -3.51932 0.
-1.63997 -1.48482 0.
-27.1818 -24.8352 0.
-68.6703 -63.3289 0.
1.53324 1.34346 0.
-18.903 -16.6081 0.
-45.0549 -39.7067 0.
1.24632 1.11174 0.
-1.01255 -0.916637 0.
-48.9367 -44.9541 0.
-0.313046 -0.298976 0.
-5.93677 -5.89603 0.
0.746129 0.81093 0.
-0.420253 -0.40646 0.
-0.654461 -0.610704 0.
-0.219539 -0.183507 0.
1.57852 1.30965 0.
1.79528 1.4782 0.
3.08265 2.64081 0.
0.069989 0.0602469 0.
-1.45315 -1.25705 0.
-2.12778 -1.92376 0.
-2.1491 -1.92856 0.
-2.89641 -2.26076 0.
0.309839 0.273688 0.
0.249045 0.22051 0.
-0.926956 -0.649864 0.
1.07561 0.935897 0.
1.29687 1.16014 0.
0.886497 0.878192 0.
-0.208899 -0.210173 0.
1.36707 1.39795 0.
-0.784016 -1.00601 0.
1.077 1.23875 0.
0.909812 1.07164 0.
0.101325 0.114953 0.
-0.147256 -0.167991 0.
-1.54176 -2.06924 0.
-1.47427 -2.63738 0.
-12.1085 -16.2733 0.
0.0127565 0.0231535 0.
-0.163708 -0.299804 0.
-13.1644 -24.3251 0.
-0.294761 -0.536166 0.
0.300394 0.549827 0.
-13.2078 -24.3179 0.
1.10091 1.87527 0.
-0.279123 -0.478578 0.
-9.99335 -17.2671 0.
-7.60046 -14.9059 0.
0.643334 1.26985 0.
-3.61298 -9.21067 0.
-9.23901 -23.6106 0.
-14.8461 -38.0295 0.
-4.11849 -10.9412 0.
-8.65468 -22.9666 0.
-13.1984 -34.9844 0.
-6.64784 -17.648 0.
-6.04395 -15.9069 0.
-5.43566 -14.1701 0.
-21.2073 -58.7374 0.
-11.7358 -32.5055 0.
-2.42683 -6.44363 0.
-15.1393 -40.4775 0.
-12.1388 -32.5446 0.
0.444346 1.20479 0.
-0.0157989 -1.84163 0.
-19.6938 -53.5857 0.
-0.0697912 -1.94737 0.
-2.90588 -7.48012 0.
-11.3244 -29.4113 0.
-4.03929 -9.97127 0.
-3.88034 -9.63842 0.
-3.72311 -9.30384 0.
-12.8538 -25.3038 0.
0.98879 1.9067 0.
-18.2256 -31.23 0.
0.349957 0.592592 0.
0.713526 1.19427 0.
-8.50608 -15.1181 0.
-0.545453 -2.08173 0.
0.0372326 0.0646302 0.
-10.7981 -18.8695 0.
0.940079 1.62312 0.
1.24401 2.12688 0.
-24.1338 -31.2319 0.
1.3035 1.64492 0.
0.448385 0.500989 0.
1.70843 1.90671 0.
-1.4938 -1.88477 0.
-0.143126 -0.160539 0.
-1.36501 -1.65257 0.
1.88221 2.00844 0.
0.069253 0.0694232 0.
1.30734 1.28821 0.
-1.35445 -1.26811 0.
0.0692035 0.059994 0.
0.81151 0.699108 0.
0.862854 0.73894 0.
1.13593 1.01282 0.
1.60762 1.42345 0.
-1.6667 -1.50567 0.
2.84943 2.5867 0.
-1.35373 -1.23501 0.
1.43235 1.22503 0.
0.504759 0.429545 0.
-1.072 -0.907887 0.
1.9296 1.64132 0.
1.9462 1.68474 0.
1.10183 0.970039 0.
-0.616966 -0.548441 0.
1.64511 1.543 0.
1.05186 1.09176 0.
-12.0021 -11.2398 0.
0.560065 0.506141 0.
-23.4657 -19.3409 0.
-3.11672 -2.54701 0.
-1.60681 -1.30287 0.
-18.136 -15.3104 0.
-10.1045 -8.56314 0.
-2.10131 -1.78762 0.
-37.3319 -33.4051 0.
-15.9381 -14.1522 0.
-1.6908 -1.48991 0.
-2.26893 -1.67845 0.
-48.1411 -41.944 0.
1.02177 0.843106 0.
1.7333 1.46787 0.
-47.442 -41.3797 0.
0.896361 0.868077 0.
1.43067 1.40672 0.
-39.2747 -39.3427 0.
-0.978945 -1.23393 0.
1.31093 1.49626 0.
-35.1283 -41.0702 0.
1.21539 1.37591 0.
2.47983 2.82314 0.
-23.0525 -26.3923 0.
1.34532 1.7762 0.
0.248684 0.33805 0.
-0.275007 -1.21758 0.
-0.195113 -0.362727 0.
-0.00551644 -0.0103402 0.
0.307348 0.563533 0.
0.425089 0.784207 0.
-8.28433 -15.3764 0.
0.739366 1.2759 0.
-0.442382 -0.768228 0.
-7.3606 -12.871 0.
0.221092 0.441937 0.
0.836381 1.68316 0.
-0.0817117 -2.61001 0.
-0.071351 -2.31582 0.
-0.237411 -0.613414 0.
0.471711 1.25548 0.
-0.221064 -0.587447 0.
-0.049182 -2.66332 0.
0.542297 1.43454 0.
1.18225 3.10004 0.
-0.0641108 -2.29886 0.
0.172003 0.476114 0.
-0.110772 -0.306556 0.
0.217271 0.573979 0.
-0.0444378 -2.41856 0.
0.0556895 0.148404 0.
0.474679 1.28175 0.
-0.196774 -0.531984 0.
0.256117 0.693156 0.
0.269171 0.687911 0.
0.237155 0.610663 0.
-0.230712 -0.598412 0.
-0.346549 -0.854468 0.
-0.227874 -0.565344 0.
0.00464702 0.0115986 0.
-1.7172 -3.4384 0.
1.17281 2.30368 0.
-14.0895 -24.7123 0.
1.24031 2.15048 0.
1.26084 2.16236 0.
-2.87681 -5.21762 0.
-0.170594 -0.306008 0.
-0.249408 -0.978628 0.
-0.292807 -1.10538 0.
0.123628 0.214382 0.
1.18421 2.03303 0.
-17.9226 -23.3618 0.
0.0992884 0.126153 0.
-37.7104 -42.1165 0.
2.44088 2.71326 0.
-1.73491 -2.17026 0.
-40.3578 -45.2199 0.
0.17108 0.185546 0.
-0.149194 -0.157787 0.
-51.4168 -50.2317 0.
-1.15073 -1.04699 0.
1.98376 1.8688 0.
-61.6519 -52.3297 0.
0.988719 0.831471 0.
1.43067 1.1967 0.
-64.5175 -56.6849 0.
-0.0758578 -0.0661738 0.
0.993022 0.886438 0.
-7.1278 -6.39653 0.
-29.8859 -26.9653 0.
2.34375 1.97433 0.
1.69058 1.41731 0.
-23.2305 -19.4109 0.
-0.94686 -0.790375 0.
-0.919801 -0.781409 0.
-27.7249 -23.9579 0.
-0.507932 -0.432122 0.
-5.04429 -4.52658 0.
