# vtk DataFile Version 2.0
test grain
ASCII
DATASET UNSTRUCTURED_GRID
POINTS 5000 float
0.49853 0.0007538 0.
0.500991 0.000848592 0.
0.503338 0.000906043 0.
0.505657 0.00096033 0.
0.507735 0.000967024 0.
0.509813 0.000973765 0.
0.511874 0.000979661 0.
0.513908 0.000984121 0.
0.515943 0.000988602 0.
0.517961 0.000991851 0.
0.519972 0.000994451 0.
0.521982 0.000997059 0.
0.523985 0.000997931 0.
0.525987 0.000998572 0.
0.527989 0.000999163 0.
0.52999 0.000999346 0.
0.531992 0.000999528 0.
0.533994 0.000999694 0.
0.535995 0.000999824 0.
0.537996 0.000999954 0.
0.539996 0.00100002 0.
0.541997 0.00100003 0.
0.543997 0.00100004 0.
0.545997 0.00100003 0.
0.547998 0.00100001 0.
0.549998 0.001 0.
0.551998 0.001 0.
0.553998 0.001 0.
0.555998 0.00100001 0.
0.557999 0.00100005 0.
0.559999 0.0010001 0.
0.561999 0.00100013 0.
0.563999 0.00100014 0.
0.565999 0.00100015 0.
0.567999 0.00100015 0.
0.57 0.00100014 0.
0.572 0.00100013 0.
0.574 0.00100014 0.
0.576 0.00100014 0.
0.578 0.00100015 0.
0.58 0.0010002 0.
0.582 0.00100024 0.
0.584 0.00100026 0.
0.586 0.00100027 0.
0.588 0.00100027 0.
0.59 0.00100026 0.
0.592 0.00100024 0.
0.594 0.00100023 0.
0.596 0.0010002 0.
0.598 0.00100016 0.
0.6 0.00100013 0.
0.602 0.00100016 0.
0.604 0.0010002 0.
0.606 0.00100023 0.
0.608 0.00100024 0.
0.61 0.00100025 0.
0.612 0.00100026 0.
0.614 0.00100029 0.
0.616 0.00100031 0.
0.618 0.00100027 0.
0.62 0.0010002 0.
0.622 0.00100013 0.
0.624 0.00100012 0.
0.626 0.00100013 0.
0.628 0.00100013 0.
0.630001 0.00100011 0.
0.632001 0.0010001 0.
0.634001 0.00100009 0.
0.636001 0.0010001 0.
0.638001 0.0010001 0.
0.640001 0.00100009 0.
0.642002 0.00100005 0.
0.644002 0.00100001 0.
0.646002 0.001 0.
0.648002 0.001 0.
0.650002 0.001 0.
0.652003 0.001 0.
0.654003 0.001 0.
0.656004 0.001 0.
0.658004 0.001 0.
0.660005 0.001 0.
0.662006 0.00099989 0.
0.664007 0.000999642 0.
0.666008 0.000999394 0.
0.668009 0.000999147 0.
0.670011 0.0009989 0.
0.672014 0.000998654 0.
0.674016 0.000998045 0.
0.676018 0.000997395 0.
0.678022 0.000996304 0.
0.680039 0.000991974 0.
0.682056 0.000987663 0.
0.684086 0.00098309 0.
0.686139 0.000977969 0.
0.688192 0.000972874 0.
0.690297 0.000959032 0.
0.692434 0.000940678 0.
0.694572 0.000922561 0.
0.697056 0.000859337 0.
0.699559 0.000797017 0.
0.497565 0.00216606 0.
0.500209 0.00251938 0.
0.502684 0.00269386 0.
0.505166 0.00287275 0.
0.50737 0.00289902 0.
0.509558 0.00291977 0.
0.511708 0.00293845 0.
0.513778 0.00295194 0.
0.515849 0.00296549 0.
0.517894 0.0029754 0.
0.519923 0.00298323 0.
0.521953 0.00299109 0.
0.523961 0.00299378 0.
0.525967 0.0029957 0.
0.527972 0.00299749 0.
0.529976 0.00299803 0.
0.53198 0.00299858 0.
0.533984 0.00299908 0.
0.535986 0.00299947 0.
0.537989 0.00299986 0.
0.53999 0.00300005 0.
0.541991 0.00300009 0.
0.543992 0.00300012 0.
0.545993 0.00300009 0.
0.547994 0.00300004 0.
0.549995 0.003 0.
0.551995 0.003 0.
0.553995 0.003 0.
0.555995 0.00300003 0.
0.557996 0.00300016 0.
0.559996 0.00300029 0.
0.561997 0.00300038 0.
0.563998 0.00300042 0.
0.565998 0.00300046 0.
0.567998 0.00300046 0.
0.569999 0.00300043 0.
0.571999 0.0030004 0.
0.573999 0.00300042 0.
0.575999 0.00300043 0.
0.577999 0.00300046 0.
0.579999 0.00300059 0.
0.581999 0.00300071 0.
0.584 0.00300079 0.
0.586 0.0030008 0.
0.588 0.00300081 0.
0.59 0.00300078 0.
0.592 0.00300073 0.
0.594 0.00300069 0.
0.596 0.00300059 0.
0.598 0.00300049 0.
0.6 0.00300038 0.
0.602 0.00300049 0.
0.604 0.00300061 0.
0.606 0.0030007 0.
0.608 0.00300073 0.
0.61 0.00300075 0.
0.612 0.00300079 0.
0.614 0.00300086 0.
0.616001 0.00300092 0.
0.618001 0.0030008 0.
0.620001 0.00300059 0.
0.622001 0.00300039 0.
0.624001 0.00300037 0.
0.626001 0.00300038 0.
0.628001 0.00300038 0.
0.630001 0.00300034 0.
0.632002 0.0030003 0.
0.634002 0.00300028 0.
0.636003 0.0030003 0.
0.638003 0.00300031 0.
0.640004 0.00300026 0.
0.642005 0.00300014 0.
0.644006 0.00300003 0.
0.646006 0.003 0.
0.648006 0.003 0.
0.650006 0.003 0.
0.652007 0.003 0.
0.654008 0.003 0.
0.656009 0.003 0.
0.65801 0.003 0.
0.660012 0.003 0.
0.662014 0.00299967 0.
0.664017 0.00299892 0.
0.66602 0.00299818 0.
0.668025 0.00299744 0.
0.67003 0.0029967 0.
0.672036 0.00299596 0.
0.674042 0.00299412 0.
0.676049 0.00299217 0.
0.678061 0.00298873 0.
0.680105 0.00297565 0.
0.682149 0.00296262 0.
0.684216 0.00294884 0.
0.68632 0.00293334 0.
0.688423 0.00291792 0.
0.690654 0.00287078 0.
0.692933 0.00281367 0.
0.69525 0.00274483 0.
0.69785 0.00254502 0.
0.700451 0.00235067 0.
0.496552 0.00345407 0.
0.499351 0.00411302 0.
0.501983 0.00444834 0.
0.504617 0.00475763 0.
0.506982 0.00482813 0.
0.509287 0.00486364 0.
0.511538 0.00489651 0.
0.513646 0.00491918 0.
0.515754 0.00494196 0.
0.517825 0.00495874 0.
0.519874 0.00497185 0.
0.521923 0.00498499 0.
0.523937 0.0049896 0.
0.525946 0.00499281 0.
0.527955 0.0049958 0.
0.529961 0.00499672 0.
0.531968 0.00499763 0.
0.533974 0.00499846 0.
0.535978 0.00499911 0.
0.537982 0.00499976 0.
0.539984 0.00500009 0.
0.541986 0.00500014 0.
0.543987 0.00500019 0.
0.545989 0.00500015 0.
0.54799 0.00500007 0.
0.549991 0.005 0.
0.551991 0.005 0.
0.553991 0.005 0.
0.555992 0.00500005 0.
0.557993 0.00500027 0.
0.559994 0.00500048 0.
0.561995 0.00500063 0.
0.563996 0.0050007 0.
0.565997 0.00500077 0.
0.567997 0.00500076 0.
0.569998 0.00500072 0.
0.571998 0.00500067 0.
0.573998 0.00500069 0.
0.575998 0.00500072 0.
0.577998 0.00500077 0.
0.579998 0.00500098 0.
0.581999 0.00500118 0.
0.583999 0.00500132 0.
0.585999 0.00500133 0.
0.588 0.00500134 0.
0.59 0.0050013 0.
0.592 0.00500123 0.
0.594 0.00500115 0.
0.596 0.00500099 0.
0.598 0.00500081 0.
0.6 0.00500063 0.
0.602 0.00500082 0.
0.604 0.00500101 0.
0.606 0.00500117 0.
0.608 0.00500121 0.
0.61 0.00500125 0.
0.612001 0.00500132 0.
0.614001 0.00500143 0.
0.616001 0.00500153 0.
0.618001 0.00500133 0.
0.620002 0.00500099 0.
0.622002 0.00500064 0.
0.624002 0.00500062 0.
0.626002 0.00500063 0.
0.628002 0.00500063 0.
0.630003 0.00500057 0.
0.632003 0.0050005 0.
0.634004 0.00500046 0.
0.636005 0.00500049 0.
0.638006 0.00500052 0.
0.640007 0.00500043 0.
0.642008 0.00500024 0.
0.644009 0.00500005 0.
0.64601 0.005 0.
0.64801 0.005 0.
0.650011 0.005 0.
0.652012 0.005 0.
0.654013 0.005 0.
0.656014 0.00500001 0.
0.658017 0.005 0.
0.660019 0.005 0.
0.662022 0.00499944 0.
0.664028 0.0049982 0.
0.666033 0.00499695 0.
0.66804 0.00499572 0.
0.670049 0.00499448 0.
0.672058 0.00499325 0.
0.674069 0.00499017 0.
0.67608 0.00498691 0.
0.6781 0.0049809 0.
0.680172 0.00495894 0.
0.682244 0.00493709 0.
0.684351 0.00491401 0.
0.686507 0.00488794 0.
0.688662 0.00486201 0.
0.69104 0.00477348 0.
0.693471 0.00467475 0.
0.695973 0.00452569 0.
0.698679 0.00418588 0.
0.701393 0.00381608 0.
0.49565 0.00465715 0.
0.498526 0.00546929 0.
0.501241 0.0059594 0.
0.503889 0.00632686 0.
0.506367 0.00650771 0.
0.508749 0.00661738 0.
0.511104 0.0067225 0.
0.513283 0.00676916 0.
0.515464 0.00681657 0.
0.5176 0.00685729 0.
0.519698 0.0068925 0.
0.521797 0.00692814 0.
0.523843 0.00694741 0.
0.525877 0.00696346 0.
0.52791 0.00697859 0.
0.529925 0.0069812 0.
0.53194 0.00698382 0.
0.533953 0.00698691 0.
0.535961 0.00699107 0.
0.53797 0.00699523 0.
0.539976 0.00699773 0.
0.541978 0.00699882 0.
0.543981 0.00699992 0.
0.545983 0.00700021 0.
0.547985 0.00700026 0.
0.549986 0.00700031 0.
0.551987 0.00700034 0.
0.553987 0.00700037 0.
0.555988 0.00700045 0.
0.557989 0.00700068 0.
0.559991 0.00700092 0.
0.561992 0.00700114 0.
0.563993 0.00700132 0.
0.565994 0.00700151 0.
0.567995 0.00700166 0.
0.569996 0.0070018 0.
0.571997 0.00700194 0.
0.573997 0.00700195 0.
0.575997 0.00700193 0.
0.577997 0.00700194 0.
0.579997 0.00700215 0.
0.581998 0.00700235 0.
0.583998 0.00700254 0.
0.585999 0.0070027 0.
0.587999 0.00700286 0.
0.589999 0.00700285 0.
0.592 0.0070027 0.
0.594 0.00700256 0.
0.596 0.00700243 0.
0.598 0.00700231 0.
0.6 0.00700219 0.
0.602 0.00700241 0.
0.604001 0.00700262 0.
0.606001 0.00700279 0.
0.608001 0.0070028 0.
0.610001 0.00700281 0.
0.612001 0.00700281 0.
0.614002 0.00700281 0.
0.616002 0.00700281 0.
0.618003 0.00700254 0.
0.620003 0.00700215 0.
0.622004 0.00700175 0.
0.624004 0.0070017 0.
0.626004 0.00700169 0.
0.628004 0.00700166 0.
0.630005 0.0070015 0.
0.632006 0.00700134 0.
0.634007 0.0070012 0.
0.636008 0.0070011 0.
0.638009 0.007001 0.
0.64001 0.00700077 0.
0.642012 0.00700044 0.
0.644013 0.00700011 0.
0.646014 0.007 0.
0.648015 0.00699994 0.
0.650016 0.00699988 0.
0.652018 0.00699978 0.
0.65402 0.00699967 0.
0.656022 0.00699924 0.
0.658026 0.00699774 0.
0.66003 0.00699624 0.
0.662037 0.00699285 0.
0.664048 0.00698723 0.
0.66606 0.00698162 0.
0.668076 0.006978 0.
0.670094 0.00697527 0.
0.672112 0.00697253 0.
0.674162 0.00695109 0.
0.676214 0.00692853 0.
0.67828 0.00690214 0.
0.680408 0.0068571 0.
0.682534 0.00681258 0.
0.684718 0.00675428 0.
0.686956 0.00668539 0.
0.689196 0.00661498 0.
0.691659 0.00644672 0.
0.694144 0.00627682 0.
0.69673 0.00602768 0.
0.699456 0.00563784 0.
0.702216 0.00515044 0.
0.49489 0.00589643 0.
0.497733 0.00673729 0.
0.500474 0.00738867 0.
0.503135 0.00784182 0.
0.505711 0.00815094 0.
0.508175 0.00834185 0.
0.510628 0.00853374 0.
0.512896 0.00861141 0.
0.515157 0.00868545 0.
0.517368 0.00875236 0.
0.519517 0.00881063 0.
0.521667 0.00886962 0.
0.523746 0.00890441 0.
0.525807 0.00893353 0.
0.527866 0.00896134 0.
0.529889 0.00896566 0.
0.531911 0.00896999 0.
0.533931 0.00897532 0.
0.535945 0.00898299 0.
0.537959 0.00899067 0.
0.539967 0.00899537 0.
0.541971 0.0089975 0.
0.543975 0.00899964 0.
0.545977 0.00900028 0.
0.54798 0.00900045 0.
0.549982 0.00900063 0.
0.551983 0.00900069 0.
0.553983 0.00900074 0.
0.555984 0.00900084 0.
0.557986 0.0090011 0.
0.559987 0.00900136 0.
0.561989 0.00900164 0.
0.56399 0.00900194 0.
0.565991 0.00900224 0.
0.567993 0.00900256 0.
0.569994 0.00900289 0.
0.571995 0.00900322 0.
0.573995 0.0090032 0.
0.575995 0.00900315 0.
0.577995 0.00900312 0.
0.579996 0.00900332 0.
0.581997 0.00900352 0.
0.583997 0.00900376 0.
0.585998 0.00900406 0.
0.587998 0.00900437 0.
0.589999 0.00900439 0.
0.591999 0.00900418 0.
0.594 0.00900397 0.
0.596 0.00900387 0.
0.598 0.00900381 0.
0.6 0.00900374 0.
0.602001 0.00900399 0.
0.604001 0.00900424 0.
0.606001 0.00900442 0.
0.608001 0.00900439 0.
0.610002 0.00900436 0.
0.612002 0.00900429 0.
0.614003 0.00900419 0.
0.616003 0.00900408 0.
0.618004 0.00900375 0.
0.620005 0.0090033 0.
0.622005 0.00900286 0.
0.624006 0.00900278 0.
0.626006 0.00900275 0.
0.628006 0.00900269 0.
0.630007 0.00900244 0.
0.632008 0.00900218 0.
0.63401 0.00900193 0.
0.636011 0.00900171 0.
0.638013 0.00900148 0.
0.640014 0.00900112 0.
0.642016 0.00900065 0.
0.644018 0.00900018 0.
0.646019 0.00899999 0.
0.64802 0.00899988 0.
0.650021 0.00899976 0.
0.652024 0.00899955 0.
0.654026 0.00899934 0.
0.65603 0.00899847 0.
0.658035 0.00899547 0.
0.660041 0.00899247 0.
0.662052 0.00898622 0.
0.664069 0.0089762 0.
0.666087 0.0089662 0.
0.668112 0.00896027 0.
0.67014 0.00895602 0.
0.672168 0.00895179 0.
0.674259 0.00891079 0.
0.676352 0.00886843 0.
0.678466 0.00882118 0.
0.680652 0.00875197 0.
0.682836 0.00868359 0.
0.685111 0.00858117 0.
0.687439 0.00846492 0.
0.689785 0.00833533 0.
0.69231 0.00808224 0.
0.694848 0.00783128 0.
0.697499 0.00747296 0.
0.700229 0.0070157 0.
0.703005 0.00644011 0.
0.494201 0.00716089 0.
0.497004 0.00801684 0.
0.499753 0.00879251 0.
0.50244 0.00932527 0.
0.505091 0.00975539 0.
0.507639 0.0100224 0.
0.510172 0.0102844 0.
0.512524 0.0104055 0.
0.514849 0.0105121 0.
0.517126 0.0106128 0.
0.519316 0.0106951 0.
0.521507 0.0107786 0.
0.523622 0.0108356 0.
0.525714 0.0108859 0.
0.527805 0.0109353 0.
0.529837 0.0109419 0.
0.53187 0.0109484 0.
0.533898 0.0109566 0.
0.535918 0.0109687 0.
0.537938 0.0109809 0.
0.539952 0.0109887 0.
0.541959 0.0109927 0.
0.543966 0.0109967 0.
0.54597 0.0109982 0.
0.547973 0.010999 0.
0.549976 0.0109998 0.
0.551978 0.011 0.
0.553979 0.0110003 0.
0.55598 0.0110005 0.
0.557982 0.0110009 0.
0.559984 0.0110012 0.
0.561985 0.0110015 0.
0.563987 0.0110018 0.
0.565989 0.0110021 0.
0.56799 0.0110025 0.
0.569992 0.0110029 0.
0.571993 0.0110033 0.
0.573993 0.0110034 0.
0.575994 0.0110034 0.
0.577994 0.0110035 0.
0.579995 0.0110037 0.
0.581996 0.0110039 0.
0.583996 0.0110042 0.
0.585997 0.0110046 0.
0.587998 0.011005 0.
0.589998 0.011005 0.
0.591999 0.0110048 0.
0.594 0.0110046 0.
0.596 0.0110046 0.
0.598 0.0110046 0.
0.6 0.0110046 0.
0.602001 0.0110048 0.
0.604001 0.011005 0.
0.606001 0.0110052 0.
0.608002 0.0110051 0.
0.610002 0.0110051 0.
0.612003 0.011005 0.
0.614004 0.0110047 0.
0.616005 0.0110044 0.
0.618005 0.011004 0.
0.620006 0.0110036 0.
0.622007 0.0110032 0.
0.624008 0.011003 0.
0.626008 0.0110028 0.
0.628008 0.0110026 0.
0.63001 0.0110024 0.
0.632012 0.0110021 0.
0.634013 0.0110018 0.
0.636015 0.0110015 0.
0.638017 0.0110012 0.
0.640018 0.0110007 0.
0.64202 0.0110001 0.
0.644022 0.0109995 0.
0.646024 0.0109991 0.
0.648026 0.0109987 0.
0.650028 0.0109983 0.
0.652031 0.0109974 0.
0.654035 0.0109964 0.
0.656041 0.0109943 0.
0.658051 0.0109888 0.
0.66006 0.0109833 0.
0.662077 0.0109734 0.
0.664103 0.0109584 0.
0.666128 0.0109435 0.
0.668166 0.0109321 0.
0.670208 0.0109221 0.
0.672251 0.0109122 0.
0.674381 0.0108434 0.
0.676512 0.0107745 0.
0.678671 0.0107019 0.
0.680905 0.0106095 0.
0.683136 0.0105185 0.
0.685491 0.0103639 0.
0.687893 0.010199 0.
0.690329 0.0100087 0.
0.692912 0.00968482 0.
0.695515 0.00935158 0.
0.69821 0.00889937 0.
0.700958 0.00836255 0.
0.703749 0.00774175 0.
0.493736 0.00851655 0.
0.496518 0.00936439 0.
0.499285 0.0101822 0.
0.502014 0.0107668 0.
0.504686 0.0112513 0.
0.507251 0.0115902 0.
0.509791 0.0119196 0.
0.512188 0.0121068 0.
0.514546 0.012269 0.
0.516868 0.0124252 0.
0.519088 0.0125358 0.
0.52131 0.0126481 0.
0.523466 0.012736 0.
0.525595 0.0128178 0.
0.527724 0.0128996 0.
0.529769 0.0129094 0.
0.531813 0.0129187 0.
0.533853 0.0129304 0.
0.535881 0.012948 0.
0.537909 0.0129657 0.
0.539929 0.0129776 0.
0.541941 0.0129844 0.
0.543953 0.0129911 0.
0.54596 0.0129941 0.
0.547965 0.0129959 0.
0.54997 0.0129978 0.
0.551972 0.0129984 0.
0.553974 0.012999 0.
0.555976 0.0129995 0.
0.557978 0.013 0.
0.55998 0.0130004 0.
0.561982 0.0130007 0.
0.563984 0.0130009 0.
0.565985 0.0130011 0.
0.567987 0.0130014 0.
0.569989 0.0130018 0.
0.57199 0.0130022 0.
0.573991 0.0130025 0.
0.575992 0.0130028 0.
0.577992 0.0130031 0.
0.579993 0.0130034 0.
0.581994 0.0130036 0.
0.583995 0.0130039 0.
0.585996 0.0130043 0.
0.587997 0.0130047 0.
0.589998 0.0130048 0.
0.591999 0.0130047 0.
0.593999 0.0130045 0.
0.596 0.0130045 0.
0.598 0.0130046 0.
0.6 0.0130046 0.
0.602001 0.0130048 0.
0.604001 0.013005 0.
0.606002 0.0130051 0.
0.608002 0.0130051 0.
0.610003 0.0130051 0.
0.612004 0.0130048 0.
0.614005 0.0130043 0.
0.616006 0.0130038 0.
0.618007 0.0130034 0.
0.620008 0.0130031 0.
0.622009 0.0130028 0.
0.62401 0.0130024 0.
0.626011 0.0130019 0.
0.628011 0.0130015 0.
0.630013 0.0130013 0.
0.632015 0.013001 0.
0.634017 0.0130008 0.
0.636018 0.0130005 0.
0.63802 0.0130002 0.
0.640022 0.0129996 0.
0.642025 0.0129989 0.
0.644027 0.0129982 0.
0.64603 0.0129974 0.
0.648032 0.0129965 0.
0.650035 0.0129956 0.
0.652041 0.0129932 0.
0.654047 0.0129907 0.
0.656056 0.0129867 0.
0.658072 0.0129777 0.
0.660088 0.0129688 0.
0.662113 0.0129543 0.
0.664149 0.0129337 0.
0.666184 0.0129131 0.
0.668239 0.0128924 0.
0.670302 0.012872 0.
0.672367 0.0128501 0.
0.674533 0.012744 0.
0.676698 0.0126386 0.
0.678899 0.0125332 0.
0.681168 0.0124138 0.
0.683434 0.0122955 0.
0.685826 0.0120692 0.
0.688248 0.0118393 0.
0.690715 0.0115832 0.
0.693305 0.0112075 0.
0.695928 0.0108137 0.
0.698647 0.0103149 0.
0.701435 0.00973112 0.
0.704264 0.0090976 0.
0.493389 0.00993731 0.
0.496155 0.01075 0.
0.498902 0.0115613 0.
0.501616 0.0121906 0.
0.504284 0.0127308 0.
0.506861 0.0131467 0.
0.509408 0.0135437 0.
0.511845 0.0137981 0.
0.514238 0.0140164 0.
0.516605 0.0142345 0.
0.518856 0.0143738 0.
0.52111 0.0145152 0.
0.523307 0.0146336 0.
0.525474 0.0147475 0.
0.527642 0.0148623 0.
0.529701 0.0148768 0.
0.531757 0.014889 0.
0.533808 0.014904 0.
0.535844 0.0149272 0.
0.53788 0.0149504 0.
0.539907 0.0149665 0.
0.541924 0.014976 0.
0.543941 0.0149855 0.
0.54595 0.01499 0.
0.547957 0.0149929 0.
0.549963 0.0149957 0.
0.551966 0.0149967 0.
0.553969 0.0149977 0.
0.555972 0.0149985 0.
0.557974 0.0149991 0.
0.559976 0.0149996 0.
0.561978 0.0149999 0.
0.56398 0.015 0.
0.565982 0.0150001 0.
0.567984 0.0150004 0.
0.569986 0.0150008 0.
0.571988 0.0150011 0.
0.573989 0.0150016 0.
0.57599 0.0150022 0.
0.577991 0.0150027 0.
0.579992 0.015003 0.
0.581993 0.0150033 0.
0.583994 0.0150036 0.
0.585995 0.015004 0.
0.587997 0.0150044 0.
0.589998 0.0150045 0.
0.591998 0.0150045 0.
0.593999 0.0150044 0.
0.596 0.0150045 0.
0.598 0.0150046 0.
0.6 0.0150047 0.
0.602001 0.0150048 0.
0.604001 0.0150049 0.
0.606002 0.015005 0.
0.608003 0.015005 0.
0.610004 0.015005 0.
0.612005 0.0150047 0.
0.614006 0.0150039 0.
0.616007 0.0150031 0.
0.618009 0.0150027 0.
0.62001 0.0150026 0.
0.622012 0.0150024 0.
0.624012 0.0150017 0.
0.626013 0.015001 0.
0.628014 0.0150003 0.
0.630016 0.0150002 0.
0.632018 0.015 0.
0.63402 0.0149998 0.
0.636022 0.0149995 0.
0.638024 0.0149992 0.
0.640027 0.0149985 0.
0.642029 0.0149977 0.
0.644032 0.0149968 0.
0.646035 0.0149956 0.
0.648039 0.0149943 0.
0.650042 0.0149929 0.
0.65205 0.014989 0.
0.654059 0.0149851 0.
0.65607 0.0149791 0.
0.658093 0.0149666 0.
0.660115 0.0149542 0.
0.662149 0.014935 0.
0.664195 0.0149088 0.
0.66624 0.0148826 0.
0.668314 0.0148522 0.
0.670397 0.0148212 0.
0.672486 0.0147858 0.
0.674687 0.0146418 0.
0.676887 0.0144994 0.
0.679132 0.0143619 0.
0.681437 0.0142151 0.
0.683742 0.0140622 0.
0.686164 0.0137626 0.
0.688607 0.0134673 0.
0.691102 0.0131493 0.
0.693695 0.0127198 0.
0.696324 0.0122618 0.
0.699034 0.01172 0.
0.701808 0.0111091 0.
0.704631 0.0104867 0.
0.493147 0.011425 0.
0.495869 0.012182 0.
0.498579 0.0129729 0.
0.50127 0.0136351 0.
0.503924 0.0142168 0.
0.506502 0.0146927 0.
0.509047 0.0151368 0.
0.511506 0.0154504 0.
0.513914 0.0157125 0.
0.516302 0.0159752 0.
0.518575 0.0161394 0.
0.520848 0.0163041 0.
0.523073 0.0164526 0.
0.525264 0.0165962 0.
0.527457 0.0167413 0.
0.529554 0.0167831 0.
0.531645 0.0168186 0.
0.533727 0.0168532 0.
0.535774 0.0168817 0.
0.537822 0.0169103 0.
0.539859 0.0169328 0.
0.541886 0.0169495 0.
0.543914 0.0169662 0.
0.545929 0.0169752 0.
0.54794 0.0169815 0.
0.549952 0.0169879 0.
0.551956 0.0169903 0.
0.553961 0.0169926 0.
0.555965 0.0169947 0.
0.557968 0.016996 0.
0.559972 0.0169973 0.
0.561975 0.0169982 0.
0.563977 0.0169987 0.
0.565979 0.0169991 0.
0.567982 0.0169996 0.
0.569984 0.017 0.
0.571986 0.0170005 0.
0.573987 0.0170011 0.
0.575988 0.0170018 0.
0.577989 0.0170025 0.
0.57999 0.0170029 0.
0.581992 0.0170033 0.
0.583993 0.0170037 0.
0.585995 0.0170041 0.
0.587996 0.0170045 0.
0.589997 0.0170047 0.
0.591998 0.0170047 0.
0.593999 0.0170047 0.
0.595999 0.0170049 0.
0.598 0.0170052 0.
0.6 0.0170055 0.
0.602001 0.0170055 0.
0.604002 0.0170055 0.
0.606003 0.0170054 0.
0.608004 0.0170052 0.
0.610005 0.017005 0.
0.612006 0.0170046 0.
0.614007 0.0170039 0.
0.616009 0.0170031 0.
0.61801 0.0170026 0.
0.620012 0.0170022 0.
0.622014 0.0170019 0.
0.624015 0.0170011 0.
0.626016 0.0170003 0.
0.628017 0.0169996 0.
0.630019 0.0169991 0.
0.632021 0.0169986 0.
0.634023 0.0169981 0.
0.636026 0.0169974 0.
0.638029 0.0169967 0.
0.640032 0.0169955 0.
0.642036 0.0169938 0.
0.64404 0.0169922 0.
0.646045 0.0169894 0.
0.648051 0.0169864 0.
0.650057 0.0169832 0.
0.652071 0.0169748 0.
0.654085 0.0169663 0.
0.656105 0.0169545 0.
0.658141 0.016933 0.
0.660176 0.0169115 0.
0.662225 0.0168846 0.
0.664285 0.0168519 0.
0.666344 0.0168192 0.
0.668453 0.016762 0.
0.670574 0.0167007 0.
0.672702 0.0166322 0.
0.674924 0.016462 0.
0.677143 0.0162934 0.
0.679417 0.0161234 0.
0.68174 0.0159476 0.
0.684069 0.0157559 0.
0.686501 0.0154144 0.
0.688952 0.0150711 0.
0.691462 0.0147028 0.
0.694045 0.0142348 0.
0.696667 0.0137264 0.
0.699357 0.0131539 0.
0.702104 0.012528 0.
0.704897 0.0119257 0.
0.492972 0.0129581 0.
0.495647 0.0136591 0.
0.498315 0.0144213 0.
0.50097 0.0151005 0.
0.503597 0.0157069 0.
0.506163 0.016226 0.
0.508695 0.0167048 0.
0.511165 0.0170727 0.
0.513578 0.0173749 0.
0.515976 0.0176792 0.
0.518276 0.0178797 0.
0.520569 0.0180749 0.
0.522825 0.0182593 0.
0.525043 0.0184351 0.
0.527263 0.0186132 0.
0.5294 0.0186845 0.
0.531529 0.018745 0.
0.533645 0.0188015 0.
0.535703 0.0188356 0.
0.537763 0.0188697 0.
0.539811 0.0188986 0.
0.541849 0.0189227 0.
0.543887 0.0189468 0.
0.545908 0.0189603 0.
0.547924 0.0189702 0.
0.54994 0.01898 0.
0.551946 0.0189838 0.
0.553952 0.0189876 0.
0.555958 0.0189909 0.
0.557963 0.018993 0.
0.559967 0.018995 0.
0.561971 0.0189965 0.
0.563974 0.0189974 0.
0.565976 0.0189982 0.
0.567979 0.0189988 0.
0.569981 0.0189993 0.
0.571984 0.0189999 0.
0.573985 0.0190006 0.
0.575986 0.0190015 0.
0.577987 0.0190022 0.
0.579989 0.0190027 0.
0.581991 0.0190032 0.
0.583992 0.0190037 0.
0.585994 0.0190042 0.
0.587995 0.0190047 0.
0.589996 0.0190049 0.
0.591997 0.0190049 0.
0.593998 0.019005 0.
0.595999 0.0190054 0.
0.598 0.0190058 0.
0.6 0.0190063 0.
0.602001 0.0190062 0.
0.604002 0.0190061 0.
0.606003 0.0190059 0.
0.608004 0.0190055 0.
0.610006 0.0190051 0.
0.612007 0.0190045 0.
0.614009 0.0190038 0.
0.61601 0.0190031 0.
0.618012 0.0190025 0.
0.620014 0.0190019 0.
0.622016 0.0190013 0.
0.624017 0.0190005 0.
0.626018 0.0189997 0.
0.628019 0.0189989 0.
0.630021 0.0189981 0.
0.632024 0.0189973 0.
0.634027 0.0189964 0.
0.63603 0.0189953 0.
0.638033 0.0189942 0.
0.640038 0.0189924 0.
0.642043 0.01899 0.
0.644048 0.0189876 0.
0.646055 0.0189833 0.
0.648063 0.0189785 0.
0.650071 0.0189734 0.
0.652091 0.0189604 0.
0.654111 0.0189475 0.
0.656139 0.0189297 0.
0.658189 0.0188989 0.
0.660238 0.0188682 0.
0.662301 0.0188334 0.
0.664377 0.0187938 0.
0.666452 0.0187543 0.
0.668599 0.0186668 0.
0.670758 0.018573 0.
0.672929 0.01847 0.
0.675175 0.0182713 0.
0.677417 0.0180745 0.
0.679721 0.017862 0.
0.682062 0.0176451 0.
0.684413 0.0174037 0.
0.686847 0.0170306 0.
0.689296 0.0166569 0.
0.691805 0.0162458 0.
0.694367 0.0157504 0.
0.696972 0.0152074 0.
0.699628 0.0146171 0.
0.702327 0.0139908 0.
0.705067 0.0134138 0.
0.492831 0.0145339 0.
0.495463 0.015179 0.
0.498088 0.0159073 0.
0.500699 0.0165858 0.
0.503289 0.017204 0.
0.505837 0.0177587 0.
0.508356 0.0182705 0.
0.510836 0.0186903 0.
0.513255 0.0190334 0.
0.515663 0.0193775 0.
0.51799 0.0196132 0.
0.520305 0.0198372 0.
0.522591 0.0200556 0.
0.524834 0.0202569 0.
0.527078 0.0204591 0.
0.529248 0.0205624 0.
0.531407 0.0206539 0.
0.533552 0.0207397 0.
0.535623 0.020779 0.
0.537695 0.0208184 0.
0.539755 0.0208541 0.
0.541803 0.020887 0.
0.543852 0.02092 0.
0.545881 0.0209396 0.
0.547902 0.0209541 0.
0.549924 0.0209687 0.
0.551933 0.0209746 0.
0.553942 0.0209803 0.
0.55595 0.0209855 0.
0.557956 0.0209886 0.
0.559962 0.0209916 0.
0.561966 0.0209939 0.
0.56397 0.0209952 0.
0.565973 0.0209964 0.
0.567976 0.0209973 0.
0.569979 0.020998 0.
0.571981 0.0209988 0.
0.573983 0.0209997 0.
0.575984 0.0210006 0.
0.577985 0.0210015 0.
0.579987 0.021002 0.
0.581989 0.0210025 0.
0.583991 0.0210031 0.
0.585993 0.0210036 0.
0.587994 0.0210042 0.
0.589996 0.0210045 0.
0.591997 0.0210046 0.
0.593998 0.0210048 0.
0.595999 0.0210052 0.
0.598 0.0210058 0.
0.6 0.0210063 0.
0.602002 0.0210062 0.
0.604003 0.021006 0.
0.606004 0.0210057 0.
0.608005 0.0210051 0.
0.610007 0.0210044 0.
0.612008 0.0210038 0.
0.61401 0.0210031 0.
0.616012 0.0210025 0.
0.618014 0.0210018 0.
0.620016 0.0210011 0.
0.622018 0.0210004 0.
0.624019 0.0209995 0.
0.62602 0.0209986 0.
0.628021 0.0209976 0.
0.630024 0.0209964 0.
0.632027 0.0209953 0.
0.634031 0.020994 0.
0.636035 0.0209924 0.
0.638039 0.0209909 0.
0.640044 0.0209882 0.
0.642051 0.0209846 0.
0.644058 0.020981 0.
0.646068 0.0209744 0.
0.648079 0.0209671 0.
0.650091 0.0209594 0.
0.652118 0.0209404 0.
0.654146 0.0209215 0.
0.656183 0.0208961 0.
0.658245 0.0208542 0.
0.660307 0.0208127 0.
0.662386 0.0207694 0.
0.664477 0.0207232 0.
0.666568 0.0206772 0.
0.668746 0.0205534 0.
0.670937 0.0204233 0.
0.673141 0.0202862 0.
0.67541 0.0200671 0.
0.677677 0.0198491 0.
0.68001 0.019592 0.
0.682371 0.019335 0.
0.684743 0.0190494 0.
0.687179 0.0186461 0.
0.689628 0.0182414 0.
0.692134 0.0177888 0.
0.694673 0.0172663 0.
0.69725 0.0166969 0.
0.699863 0.0161028 0.
0.702513 0.0154879 0.
0.7052 0.0149362 0.
0.492731 0.0161651 0.
0.495319 0.0167494 0.
0.497907 0.0174365 0.
0.500485 0.0181062 0.
0.503047 0.018733 0.
0.505582 0.0193134 0.
0.508098 0.0198509 0.
0.510583 0.0203041 0.
0.513009 0.0206758 0.
0.515424 0.0210436 0.
0.517768 0.0213133 0.
0.520097 0.0215687 0.
0.522401 0.0218206 0.
0.524654 0.0220395 0.
0.526908 0.0222593 0.
0.529099 0.0224013 0.
0.531277 0.0225365 0.
0.533445 0.0226648 0.
0.53553 0.0227095 0.
0.537616 0.0227543 0.
0.539689 0.0227976 0.
0.541749 0.0228413 0.
0.543809 0.0228852 0.
0.545846 0.0229125 0.
0.547875 0.0229331 0.
0.549904 0.0229538 0.
0.551917 0.0229626 0.
0.553929 0.0229709 0.
0.55594 0.0229784 0.
0.557948 0.0229828 0.
0.559955 0.0229871 0.
0.561961 0.0229903 0.
0.563965 0.0229921 0.
0.565969 0.0229938 0.
0.567973 0.0229951 0.
0.569976 0.0229962 0.
0.571979 0.0229972 0.
0.573981 0.0229982 0.
0.575982 0.0229992 0.
0.577983 0.0230002 0.
0.579985 0.0230007 0.
0.581987 0.0230012 0.
0.583989 0.0230018 0.
0.585991 0.0230024 0.
0.587993 0.023003 0.
0.589995 0.0230035 0.
0.591996 0.0230038 0.
0.593998 0.0230041 0.
0.595999 0.0230045 0.
0.598 0.0230051 0.
0.6 0.0230056 0.
0.602002 0.0230054 0.
0.604003 0.0230052 0.
0.606005 0.0230049 0.
0.608006 0.023004 0.
0.610008 0.0230032 0.
0.612009 0.0230024 0.
0.614011 0.0230018 0.
0.616013 0.0230012 0.
0.618016 0.0230005 0.
0.620018 0.0229998 0.
0.62202 0.0229991 0.
0.624021 0.022998 0.
0.626022 0.0229969 0.
0.628024 0.0229957 0.
0.630027 0.0229942 0.
0.632031 0.0229926 0.
0.634035 0.0229908 0.
0.63604 0.0229887 0.
0.638045 0.0229866 0.
0.640052 0.0229827 0.
0.642061 0.0229775 0.
0.64407 0.0229723 0.
0.646084 0.0229628 0.
0.6481 0.0229522 0.
0.650116 0.0229409 0.
0.652152 0.0229143 0.
0.654188 0.0228878 0.
0.656236 0.0228527 0.
0.658311 0.0227973 0.
0.660385 0.0227423 0.
0.66248 0.0226894 0.
0.66459 0.0226357 0.
0.666698 0.0225822 0.
0.668895 0.022411 0.
0.6711 0.0222352 0.
0.673323 0.0220577 0.
0.675604 0.0218179 0.
0.677883 0.0215804 0.
0.680231 0.0212916 0.
0.682603 0.0210026 0.
0.684986 0.0206825 0.
0.687427 0.0202604 0.
0.68988 0.0198336 0.
0.692382 0.0193521 0.
0.694911 0.0188079 0.
0.697469 0.0182198 0.
0.70005 0.0176228 0.
0.702662 0.0170253 0.
0.705303 0.0165047 0.
0.492691 0.0178331 0.
0.495235 0.0183583 0.
0.497785 0.0190015 0.
0.500331 0.0196575 0.
0.50287 0.0202907 0.
0.505386 0.0208845 0.
0.50788 0.0214317 0.
0.510349 0.0219066 0.
0.512774 0.0223084 0.
0.515189 0.0227039 0.
0.517546 0.0230082 0.
0.519888 0.0232959 0.
0.52221 0.0235845 0.
0.524472 0.023821 0.
0.526737 0.0240585 0.
0.528948 0.0242365 0.
0.531146 0.0244156 0.
0.533337 0.0245896 0.
0.535436 0.0246398 0.
0.537536 0.02469 0.
0.539623 0.0247407 0.
0.541694 0.0247953 0.
0.543766 0.0248502 0.
0.545812 0.0248853 0.
0.547848 0.024912 0.
0.549884 0.0249388 0.
0.5519 0.0249505 0.
0.553916 0.0249614 0.
0.55593 0.0249713 0.
0.557939 0.024977 0.
0.559949 0.0249826 0.
0.561956 0.0249868 0.
0.563961 0.024989 0.
0.565966 0.0249913 0.
0.56797 0.0249929 0.
0.569973 0.0249943 0.
0.571977 0.0249956 0.
0.573979 0.0249967 0.
0.57598 0.0249978 0.
0.577982 0.0249988 0.
0.579984 0.0249994 0.
0.581986 0.025 0.
0.583988 0.0250006 0.
0.58599 0.0250012 0.
0.587992 0.0250019 0.
0.589994 0.0250025 0.
0.591996 0.0250029 0.
0.593997 0.0250034 0.
0.595999 0.0250039 0.
0.598 0.0250043 0.
0.6 0.0250048 0.
0.602002 0.0250046 0.
0.604004 0.0250044 0.
0.606006 0.0250041 0.
0.608007 0.025003 0.
0.610009 0.0250019 0.
0.612011 0.025001 0.
0.614013 0.0250005 0.
0.616015 0.0249999 0.
0.618017 0.0249993 0.
0.62002 0.0249985 0.
0.622022 0.0249978 0.
0.624023 0.0249966 0.
0.626025 0.0249952 0.
0.628027 0.0249939 0.
0.63003 0.0249919 0.
0.632034 0.0249899 0.
0.634039 0.0249877 0.
0.636045 0.024985 0.
0.638051 0.0249824 0.
0.64006 0.0249773 0.
0.642071 0.0249705 0.
0.644082 0.0249637 0.
0.6461 0.0249511 0.
0.64812 0.0249372 0.
0.650141 0.0249223 0.
0.652186 0.0248881 0.
0.654231 0.024854 0.
0.656289 0.0248089 0.
0.658377 0.0247399 0.
0.660464 0.0246714 0.
0.662576 0.024609 0.
0.664703 0.0245479 0.
0.666831 0.0244844 0.
0.669045 0.0242649 0.
0.671264 0.024043 0.
0.673506 0.0238273 0.
0.675799 0.0235669 0.
0.678092 0.0233069 0.
0.68045 0.0229847 0.
0.682827 0.0226648 0.
0.685217 0.0223136 0.
0.687653 0.0218727 0.
0.690101 0.0214252 0.
0.692584 0.0209253 0.
0.695089 0.0203714 0.
0.697624 0.0197748 0.
0.700176 0.019177 0.
0.702753 0.0185981 0.
0.705348 0.0181071 0.
0.49273 0.0195394 0.
0.49523 0.0200124 0.
0.497739 0.0206132 0.
0.500245 0.0212495 0.
0.502744 0.0218768 0.
0.505227 0.0224748 0.
0.507693 0.0230288 0.
0.51014 0.0235208 0.
0.512559 0.0239472 0.
0.514969 0.0243655 0.
0.517334 0.0247016 0.
0.519682 0.0250183 0.
0.522011 0.0253352 0.
0.524278 0.0255841 0.
0.526545 0.025834 0.
0.528769 0.0260395 0.
0.530976 0.0262494 0.
0.533179 0.0264551 0.
0.5353 0.0265229 0.
0.537421 0.0265895 0.
0.539528 0.0266551 0.
0.541611 0.0267208 0.
0.543695 0.0267869 0.
0.545754 0.0268329 0.
0.547801 0.0268696 0.
0.549848 0.0269065 0.
0.551871 0.0269242 0.
0.553892 0.0269408 0.
0.555912 0.0269559 0.
0.557924 0.0269641 0.
0.559937 0.0269722 0.
0.561947 0.0269786 0.
0.563954 0.0269825 0.
0.565961 0.0269864 0.
0.567966 0.026989 0.
0.56997 0.0269911 0.
0.571974 0.0269931 0.
0.573976 0.0269945 0.
0.575978 0.0269958 0.
0.57798 0.026997 0.
0.579982 0.0269977 0.
0.581984 0.0269984 0.
0.583987 0.0269992 0.
0.585989 0.027 0.
0.587991 0.0270008 0.
0.589993 0.0270015 0.
0.591995 0.0270021 0.
0.593997 0.0270027 0.
0.595998 0.0270033 0.
0.597999 0.0270039 0.
0.6 0.0270045 0.
0.602002 0.027004 0.
0.604004 0.0270035 0.
0.606006 0.0270029 0.
0.608008 0.0270019 0.
0.61001 0.0270008 0.
0.612012 0.0269999 0.
0.614014 0.0269991 0.
0.616016 0.0269983 0.
0.618019 0.0269975 0.
0.620021 0.0269967 0.
0.622024 0.0269959 0.
0.624026 0.0269943 0.
0.626028 0.0269925 0.
0.62803 0.0269907 0.
0.630034 0.0269879 0.
0.632039 0.0269851 0.
0.634045 0.0269817 0.
0.636053 0.0269768 0.
0.638061 0.026972 0.
0.640074 0.0269644 0.
0.642089 0.0269547 0.
0.644105 0.0269451 0.
0.64613 0.0269263 0.
0.648156 0.0269056 0.
0.650185 0.0268832 0.
0.652244 0.0268365 0.
0.654303 0.0267902 0.
0.656375 0.0267324 0.
0.658475 0.0266518 0.
0.660574 0.0265716 0.
0.662705 0.026491 0.
0.664854 0.0264098 0.
0.667003 0.0263222 0.
0.669227 0.026076 0.
0.671453 0.0258259 0.
0.673706 0.0255821 0.
0.676002 0.0253047 0.
0.6783 0.0250262 0.
0.680661 0.0246777 0.
0.683038 0.0243299 0.
0.685428 0.0239521 0.
0.687855 0.0234969 0.
0.690292 0.0230319 0.
0.692751 0.0225179 0.
0.695224 0.0219598 0.
0.697721 0.0213657 0.
0.700233 0.0207766 0.
0.702764 0.0202245 0.
0.705307 0.0197666 0.
0.492829 0.0212947 0.
0.495271 0.0217191 0.
0.497726 0.0222685 0.
0.500183 0.0228743 0.
0.502642 0.023489 0.
0.505093 0.0240881 0.
0.507532 0.024646 0.
0.509961 0.025149 0.
0.512368 0.025592 0.
0.514765 0.0260244 0.
0.517125 0.0263832 0.
0.519466 0.0267204 0.
0.521794 0.0270598 0.
0.524067 0.0273303 0.
0.52634 0.0275986 0.
0.528577 0.027831 0.
0.530794 0.0280694 0.
0.533009 0.0283049 0.
0.535155 0.0283967 0.
0.5373 0.0284832 0.
0.539429 0.0285668 0.
0.541526 0.0286441 0.
0.543623 0.0287219 0.
0.545694 0.0287792 0.
0.547752 0.0288262 0.
0.549811 0.0288736 0.
0.55184 0.0288976 0.
0.553868 0.02892 0.
0.555893 0.0289404 0.
0.557909 0.0289511 0.
0.559926 0.0289618 0.
0.561939 0.0289703 0.
0.563947 0.0289759 0.
0.565956 0.0289814 0.
0.567962 0.0289851 0.
0.569967 0.0289879 0.
0.571971 0.0289906 0.
0.573974 0.0289922 0.
0.575976 0.0289937 0.
0.577978 0.0289951 0.
0.57998 0.028996 0.
0.581983 0.0289969 0.
0.583986 0.0289978 0.
0.585988 0.0289988 0.
0.587991 0.0289997 0.
0.589993 0.0290006 0.
0.591995 0.0290013 0.
0.593997 0.0290019 0.
0.595998 0.0290027 0.
0.597999 0.0290034 0.
0.6 0.0290042 0.
0.602002 0.0290034 0.
0.604004 0.0290026 0.
0.606006 0.0290018 0.
0.608009 0.0290008 0.
0.610011 0.0289998 0.
0.612013 0.0289988 0.
0.614015 0.0289977 0.
0.616018 0.0289967 0.
0.61802 0.0289957 0.
0.620023 0.0289948 0.
0.622026 0.028994 0.
0.624028 0.0289919 0.
0.62603 0.0289898 0.
0.628033 0.0289875 0.
0.630038 0.0289839 0.
0.632044 0.0289803 0.
0.634051 0.0289756 0.
0.636062 0.0289686 0.
0.638072 0.0289616 0.
0.640088 0.0289514 0.
0.642108 0.0289389 0.
0.644128 0.0289264 0.
0.64616 0.0289013 0.
0.648193 0.0288735 0.
0.65023 0.0288432 0.
0.652303 0.0287836 0.
0.654376 0.0287244 0.
0.656463 0.0286534 0.
0.658576 0.0285606 0.
0.660688 0.0284683 0.
0.662842 0.0283654 0.
0.665014 0.0282593 0.
0.667188 0.0281418 0.
0.669422 0.0278709 0.
0.671659 0.0275969 0.
0.673921 0.0273265 0.
0.676216 0.0270276 0.
0.678516 0.0267252 0.
0.680869 0.0263583 0.
0.683236 0.0259931 0.
0.685617 0.0255967 0.
0.688029 0.0251346 0.
0.69045 0.0246591 0.
0.692884 0.0241366 0.
0.695328 0.0235765 0.
0.697788 0.0229873 0.
0.700254 0.022417 0.
0.70273 0.0219064 0.
0.705207 0.0214992 0.
0.492934 0.0230771 0.
0.495316 0.0234572 0.
0.497719 0.0239562 0.
0.500134 0.0245281 0.
0.502558 0.0251264 0.
0.504981 0.0257206 0.
0.507395 0.0262782 0.
0.509802 0.0267875 0.
0.51219 0.0272418 0.
0.514569 0.0276854 0.
0.516922 0.0280651 0.
0.519258 0.0284229 0.
0.521584 0.0287844 0.
0.523864 0.0290755 0.
0.526143 0.0293612 0.
0.528393 0.029619 0.
0.530621 0.0298838 0.
0.532848 0.0301444 0.
0.535017 0.0302603 0.
0.537183 0.0303676 0.
0.539331 0.0304706 0.
0.541439 0.0305588 0.
0.543547 0.0306475 0.
0.54563 0.0307163 0.
0.5477 0.0307748 0.
0.54977 0.0308338 0.
0.551806 0.0308652 0.
0.553839 0.0308945 0.
0.555871 0.0309211 0.
0.557891 0.0309348 0.
0.559911 0.0309485 0.
0.561928 0.0309597 0.
0.563938 0.0309672 0.
0.565949 0.0309748 0.
0.567957 0.0309799 0.
0.569962 0.0309837 0.
0.571968 0.0309875 0.
0.573971 0.0309895 0.
0.575973 0.0309913 0.
0.577976 0.030993 0.
0.579979 0.030994 0.
0.581982 0.030995 0.
0.583985 0.0309961 0.
0.585987 0.0309973 0.
0.58799 0.0309984 0.
0.589992 0.0309994 0.
0.591994 0.0310002 0.
0.593996 0.031001 0.
0.595998 0.0310018 0.
0.597999 0.0310025 0.
0.6 0.0310032 0.
0.602003 0.0310023 0.
0.604005 0.0310014 0.
0.606007 0.0310005 0.
0.608009 0.0309995 0.
0.610012 0.0309984 0.
0.612014 0.0309974 0.
0.614017 0.0309962 0.
0.616019 0.030995 0.
0.618022 0.0309939 0.
0.620025 0.0309928 0.
0.622028 0.0309916 0.
0.624031 0.0309892 0.
0.626034 0.0309866 0.
0.628037 0.0309837 0.
0.630044 0.0309788 0.
0.63205 0.0309739 0.
0.634059 0.0309674 0.
0.636073 0.030958 0.
0.638086 0.0309485 0.
0.640106 0.0309351 0.
0.642131 0.0309191 0.
0.644156 0.0309031 0.
0.646194 0.0308704 0.
0.648235 0.0308346 0.
0.65028 0.0307954 0.
0.652367 0.0307215 0.
0.654453 0.0306484 0.
0.656552 0.0305645 0.
0.658676 0.030461 0.
0.660799 0.030358 0.
0.662974 0.0302314 0.
0.665166 0.0301001 0.
0.667362 0.0299546 0.
0.669609 0.0296622 0.
0.671856 0.0293661 0.
0.674127 0.0290691 0.
0.676424 0.0287498 0.
0.678725 0.0284249 0.
0.681071 0.0280403 0.
0.683426 0.0276581 0.
0.685796 0.0272451 0.
0.688186 0.0267778 0.
0.690585 0.0262971 0.
0.692996 0.0257722 0.
0.695413 0.0252145 0.
0.697841 0.0246355 0.
0.700265 0.0240902 0.
0.702688 0.0236256 0.
0.7051 0.0232704 0.
0.493022 0.0248975 0.
0.495355 0.0252355 0.
0.497716 0.0256857 0.
0.500095 0.0262202 0.
0.502489 0.0267941 0.
0.504887 0.027377 0.
0.507279 0.0279313 0.
0.509668 0.0284446 0.
0.512042 0.0289074 0.
0.514409 0.0293591 0.
0.516756 0.0297556 0.
0.519091 0.0301284 0.
0.521418 0.0305034 0.
0.523707 0.0308122 0.
0.525993 0.0311131 0.
0.528251 0.0313911 0.
0.530486 0.0316741 0.
0.532719 0.0319544 0.
0.534898 0.0320984 0.
0.537073 0.0322319 0.
0.539232 0.0323592 0.
0.541349 0.0324587 0.
0.543467 0.0325588 0.
0.545561 0.0326407 0.
0.547641 0.032713 0.
0.549723 0.0327858 0.
0.551766 0.0328262 0.
0.553806 0.0328635 0.
0.555844 0.0328975 0.
0.557869 0.0329149 0.
0.559894 0.0329322 0.
0.561914 0.0329465 0.
0.563927 0.0329564 0.
0.565941 0.0329663 0.
0.56795 0.0329732 0.
0.569957 0.0329785 0.
0.571965 0.0329838 0.
0.573968 0.0329864 0.
0.575971 0.0329885 0.
0.577974 0.0329906 0.
0.579977 0.0329918 0.
0.58198 0.032993 0.
0.583983 0.0329942 0.
0.585986 0.0329955 0.
0.587989 0.0329968 0.
0.589991 0.0329979 0.
0.591993 0.0329989 0.
0.593995 0.0329999 0.
0.595997 0.0330006 0.
0.597999 0.0330011 0.
0.6 0.0330017 0.
0.602003 0.0330008 0.
0.604006 0.033 0.
0.606008 0.0329991 0.
0.60801 0.0329979 0.
0.610013 0.0329968 0.
0.612015 0.0329957 0.
0.614018 0.0329945 0.
0.616021 0.0329934 0.
0.618024 0.0329919 0.
0.620027 0.0329904 0.
0.62203 0.0329889 0.
0.624034 0.0329859 0.
0.626038 0.0329828 0.
0.628042 0.0329792 0.
0.63005 0.0329725 0.
0.632058 0.0329659 0.
0.63407 0.0329572 0.
0.636086 0.0329448 0.
0.638103 0.0329324 0.
0.640127 0.0329153 0.
0.642157 0.0328949 0.
0.644187 0.0328745 0.
0.646233 0.032833 0.
0.648282 0.0327877 0.
0.650336 0.0327374 0.
0.652435 0.0326467 0.
0.654533 0.0325569 0.
0.656644 0.0324589 0.
0.658776 0.0323456 0.
0.660907 0.0322327 0.
0.663092 0.0320769 0.
0.665291 0.031915 0.
0.667496 0.0317395 0.
0.669749 0.0314326 0.
0.672003 0.0311225 0.
0.674283 0.0308056 0.
0.676584 0.0304698 0.
0.67889 0.0301268 0.
0.681233 0.0297305 0.
0.683582 0.0293358 0.
0.685944 0.0289098 0.
0.688321 0.0284386 0.
0.690703 0.0279543 0.
0.693094 0.0274299 0.
0.695486 0.02688 0.
0.697882 0.0263208 0.
0.700271 0.0258073 0.
0.702652 0.0253847 0.
0.705012 0.0250744 0.
0.493125 0.0267504 0.
0.495418 0.0270461 0.
0.497738 0.0274451 0.
0.500083 0.0279389 0.
0.502448 0.0284861 0.
0.504821 0.0290549 0.
0.507191 0.0296038 0.
0.509562 0.0301187 0.
0.511924 0.0305876 0.
0.514279 0.0310446 0.
0.516619 0.0314517 0.
0.518946 0.0318338 0.
0.521267 0.032219 0.
0.523558 0.0325455 0.
0.525846 0.0328621 0.
0.528109 0.0331609 0.
0.53035 0.0334633 0.
0.53259 0.0337634 0.
0.53478 0.0339345 0.
0.536963 0.0340945 0.
0.539133 0.0342474 0.
0.541259 0.0343582 0.
0.543386 0.0344696 0.
0.545491 0.0345647 0.
0.547583 0.0346507 0.
0.549675 0.0347373 0.
0.551727 0.034787 0.
0.553773 0.0348323 0.
0.555817 0.0348739 0.
0.557847 0.0348949 0.
0.559876 0.0349159 0.
0.5619 0.0349334 0.
0.563916 0.0349456 0.
0.565933 0.0349578 0.
0.567944 0.0349665 0.
0.569953 0.0349733 0.
0.571961 0.0349801 0.
0.573965 0.0349832 0.
0.575969 0.0349857 0.
0.577973 0.0349881 0.
0.579976 0.0349895 0.
0.581979 0.0349909 0.
0.583982 0.0349923 0.
0.585985 0.0349937 0.
0.587988 0.0349951 0.
0.58999 0.0349964 0.
0.591992 0.0349976 0.
0.593994 0.0349988 0.
0.595996 0.0349993 0.
0.597998 0.0349997 0.
0.6 0.0350001 0.
0.602003 0.0349993 0.
0.604006 0.0349986 0.
0.606009 0.0349977 0.
0.608011 0.0349964 0.
0.610013 0.0349952 0.
0.612016 0.0349939 0.
0.614019 0.0349928 0.
0.616022 0.0349917 0.
0.618025 0.03499 0.
0.620029 0.0349881 0.
0.622032 0.0349862 0.
0.624037 0.0349827 0.
0.626041 0.034979 0.
0.628047 0.0349747 0.
0.630056 0.0349663 0.
0.632066 0.0349578 0.
0.63408 0.0349469 0.
0.6361 0.0349316 0.
0.63812 0.0349164 0.
0.640149 0.0348954 0.
0.642184 0.0348706 0.
0.644219 0.0348459 0.
0.646273 0.0347953 0.
0.648329 0.0347405 0.
0.650393 0.0346789 0.
0.652504 0.0345713 0.
0.654615 0.0344647 0.
0.656736 0.0343531 0.
0.658877 0.0342298 0.
0.661016 0.0341071 0.
0.66321 0.0339201 0.
0.665417 0.0337275 0.
0.66763 0.0335237 0.
0.669889 0.0332011 0.
0.672147 0.0328758 0.
0.674431 0.0325389 0.
0.676732 0.0321889 0.
0.679038 0.0318309 0.
0.681371 0.0314265 0.
0.683709 0.0310234 0.
0.686062 0.0305898 0.
0.688425 0.030116 0.
0.690794 0.0296298 0.
0.693166 0.0291087 0.
0.695535 0.0285695 0.
0.697901 0.0280323 0.
0.700255 0.0275518 0.
0.702596 0.0271694 0.
0.704911 0.0268994 0.
0.49325 0.0286088 0.
0.495508 0.0288734 0.
0.497792 0.0292323 0.
0.500106 0.029689 0.
0.502443 0.0302081 0.
0.50479 0.0307594 0.
0.507138 0.0313001 0.
0.509488 0.0318115 0.
0.511832 0.032282 0.
0.514171 0.0327414 0.
0.516501 0.0331572 0.
0.518819 0.0335485 0.
0.521131 0.0339427 0.
0.523421 0.0342844 0.
0.525706 0.0346149 0.
0.52797 0.0349317 0.
0.530213 0.035248 0.
0.532455 0.0355613 0.
0.534651 0.0357567 0.
0.53684 0.0359413 0.
0.539019 0.0361194 0.
0.541153 0.0362379 0.
0.543288 0.0363568 0.
0.545403 0.0364634 0.
0.547506 0.0365641 0.
0.549609 0.0366657 0.
0.55167 0.0367275 0.
0.553726 0.0367837 0.
0.555778 0.0368356 0.
0.557813 0.0368613 0.
0.559848 0.036887 0.
0.561878 0.0369091 0.
0.563898 0.0369257 0.
0.565919 0.0369423 0.
0.567934 0.0369541 0.
0.569944 0.0369633 0.
0.571955 0.0369725 0.
0.573961 0.0369769 0.
0.575965 0.0369806 0.
0.57797 0.0369841 0.
0.579974 0.0369861 0.
0.581978 0.0369881 0.
0.583981 0.0369899 0.
0.585984 0.0369915 0.
0.587987 0.0369931 0.
0.58999 0.0369945 0.
0.591992 0.0369958 0.
0.593994 0.0369971 0.
0.595997 0.0369976 0.
0.597999 0.036998 0.
0.600001 0.0369983 0.
0.602003 0.0369975 0.
0.604006 0.0369967 0.
0.606009 0.0369958 0.
0.608011 0.0369946 0.
0.610014 0.0369933 0.
0.612017 0.0369919 0.
0.61402 0.0369903 0.
0.616023 0.0369888 0.
0.618027 0.0369865 0.
0.620032 0.0369839 0.
0.622036 0.0369813 0.
0.624042 0.0369765 0.
0.626048 0.0369714 0.
0.628054 0.0369656 0.
0.630067 0.0369543 0.
0.63208 0.036943 0.
0.634097 0.0369283 0.
0.636122 0.0369076 0.
0.638147 0.0368869 0.
0.640182 0.0368609 0.
0.642223 0.0368315 0.
0.644264 0.0368021 0.
0.646329 0.0367384 0.
0.648396 0.0366701 0.
0.650472 0.0365937 0.
0.652592 0.0364701 0.
0.654712 0.0363477 0.
0.656843 0.0362248 0.
0.65899 0.036095 0.
0.661136 0.0359657 0.
0.663337 0.0357503 0.
0.665548 0.0355301 0.
0.667767 0.0353014 0.
0.670025 0.034969 0.
0.672284 0.0346335 0.
0.674567 0.0342792 0.
0.676866 0.0339157 0.
0.679169 0.0335444 0.
0.681489 0.0331329 0.
0.683815 0.0327224 0.
0.686154 0.0322838 0.
0.688499 0.0318106 0.
0.690848 0.0313269 0.
0.693198 0.0308139 0.
0.695543 0.0302882 0.
0.697881 0.0297736 0.
0.700203 0.0293242 0.
0.702509 0.0289775 0.
0.704788 0.028741 0.
0.493393 0.0304876 0.
0.495618 0.0307278 0.
0.49787 0.0310527 0.
0.500154 0.0314731 0.
0.502461 0.0319587 0.
0.504782 0.0324869 0.
0.507108 0.0330159 0.
0.509436 0.0335217 0.
0.511763 0.0339929 0.
0.514087 0.0344543 0.
0.516405 0.0348759 0.
0.518711 0.0352727 0.
0.521013 0.0356712 0.
0.523294 0.0360252 0.
0.525571 0.0363667 0.
0.527833 0.0366974 0.
0.530073 0.0370252 0.
0.532311 0.0373503 0.
0.534514 0.0375696 0.
0.536709 0.0377797 0.
0.538896 0.0379853 0.
0.54104 0.0381116 0.
0.543185 0.0382385 0.
0.545312 0.0383571 0.
0.547426 0.0384737 0.
0.54954 0.0385913 0.
0.551612 0.0386662 0.
0.553677 0.0387337 0.
0.555739 0.0387966 0.
0.557779 0.0388272 0.
0.55982 0.0388578 0.
0.561855 0.0388847 0.
0.56388 0.0389056 0.
0.565906 0.0389267 0.
0.567923 0.0389417 0.
0.569936 0.0389532 0.
0.571949 0.0389648 0.
0.573956 0.0389705 0.
0.575962 0.0389754 0.
0.577967 0.03898 0.
0.579972 0.0389826 0.
0.581976 0.0389853 0.
0.58398 0.0389876 0.
0.585983 0.0389894 0.
0.587986 0.0389911 0.
0.589989 0.0389927 0.
0.591992 0.038994 0.
0.593994 0.0389954 0.
0.595997 0.0389959 0.
0.597999 0.0389962 0.
0.600001 0.0389965 0.
0.602004 0.0389957 0.
0.604006 0.0389949 0.
0.606009 0.0389939 0.
0.608012 0.0389927 0.
0.610015 0.0389914 0.
0.612018 0.0389898 0.
0.614021 0.0389879 0.
0.616025 0.0389859 0.
0.618029 0.038983 0.
0.620034 0.0389797 0.
0.622039 0.0389764 0.
0.624047 0.0389702 0.
0.626054 0.0389638 0.
0.628062 0.0389564 0.
0.630078 0.0389422 0.
0.632093 0.0389281 0.
0.634114 0.0389095 0.
0.636145 0.0388832 0.
0.638175 0.038857 0.
0.640216 0.0388259 0.
0.642263 0.0387916 0.
0.64431 0.0387574 0.
0.646386 0.0386798 0.
0.648466 0.038597 0.
0.650554 0.0385044 0.
0.652684 0.0383638 0.
0.654814 0.0382245 0.
0.656956 0.0380898 0.
0.659111 0.0379523 0.
0.661265 0.0378139 0.
0.663473 0.0375707 0.
0.665687 0.0373247 0.
0.66791 0.0370729 0.
0.670163 0.0367299 0.
0.672418 0.0363842 0.
0.674695 0.0360203 0.
0.676984 0.0356491 0.
0.679277 0.0352681 0.
0.681585 0.034852 0.
0.683897 0.0344363 0.
0.686221 0.0339946 0.
0.688549 0.0335224 0.
0.690879 0.0330423 0.
0.693206 0.032541 0.
0.695526 0.0320338 0.
0.697836 0.0315485 0.
0.700126 0.0311331 0.
0.702401 0.0308152 0.
0.70465 0.0306037 0.
0.493532 0.0323822 0.
0.49573 0.0325982 0.
0.497951 0.0328893 0.
0.500207 0.033274 0.
0.502487 0.0337276 0.
0.504784 0.034233 0.
0.50709 0.0347492 0.
0.5094 0.0352485 0.
0.511709 0.0357181 0.
0.514016 0.0361782 0.
0.516318 0.0366019 0.
0.518611 0.0370017 0.
0.520901 0.0374032 0.
0.523173 0.0377679 0.
0.525442 0.0381197 0.
0.527701 0.0384642 0.
0.529938 0.038803 0.
0.532174 0.0391391 0.
0.534382 0.0393807 0.
0.536584 0.0396163 0.
0.538779 0.0398493 0.
0.540933 0.0399832 0.
0.543088 0.0401166 0.
0.545226 0.0402461 0.
0.547348 0.0403776 0.
0.549471 0.0405102 0.
0.551553 0.0405986 0.
0.553626 0.0406784 0.
0.555697 0.0407532 0.
0.557743 0.0407886 0.
0.559789 0.0408241 0.
0.561829 0.0408558 0.
0.563859 0.0408817 0.
0.56589 0.0409077 0.
0.567911 0.0409264 0.
0.569926 0.0409409 0.
0.571941 0.0409554 0.
0.57395 0.0409628 0.
0.575957 0.0409692 0.
0.577964 0.0409752 0.
0.579969 0.0409785 0.
0.581974 0.0409819 0.
0.583979 0.0409848 0.
0.585982 0.0409868 0.
0.587985 0.0409888 0.
0.589988 0.0409906 0.
0.591991 0.040992 0.
0.593994 0.0409935 0.
0.595997 0.040994 0.
0.597999 0.0409943 0.
0.600001 0.0409946 0.
0.602004 0.0409937 0.
0.604007 0.0409929 0.
0.606009 0.0409919 0.
0.608012 0.0409905 0.
0.610015 0.0409891 0.
0.612019 0.0409873 0.
0.614023 0.0409848 0.
0.616027 0.0409823 0.
0.618032 0.0409787 0.
0.620038 0.0409746 0.
0.622044 0.0409704 0.
0.624053 0.0409627 0.
0.626062 0.0409545 0.
0.628072 0.0409451 0.
0.630091 0.0409275 0.
0.632109 0.04091 0.
0.634134 0.0408869 0.
0.63617 0.0408547 0.
0.638206 0.0408226 0.
0.640252 0.0407863 0.
0.642304 0.0407473 0.
0.644356 0.0407084 0.
0.646444 0.0406149 0.
0.648534 0.0405166 0.
0.650633 0.0404078 0.
0.652772 0.0402523 0.
0.654911 0.0400978 0.
0.657062 0.0399525 0.
0.659225 0.0398085 0.
0.661389 0.0396602 0.
0.663602 0.0393901 0.
0.66582 0.0391182 0.
0.668047 0.0388444 0.
0.670296 0.0384915 0.
0.672547 0.0381352 0.
0.674816 0.0377624 0.
0.677094 0.0373849 0.
0.679376 0.036997 0.
0.68167 0.0365791 0.
0.683969 0.0361613 0.
0.686276 0.0357194 0.
0.688586 0.0352499 0.
0.690897 0.0347742 0.
0.693203 0.0342854 0.
0.695503 0.033798 0.
0.697787 0.0333423 0.
0.700048 0.0329586 0.
0.702293 0.0326662 0.
0.704512 0.032475 0.
0.493652 0.0342851 0.
0.495829 0.0344796 0.
0.498028 0.034742 0.
0.50026 0.0350967 0.
0.502515 0.0355219 0.
0.504791 0.0360046 0.
0.507077 0.0365048 0.
0.509367 0.036993 0.
0.51166 0.0374579 0.
0.513951 0.0379153 0.
0.51624 0.0383404 0.
0.518523 0.0387428 0.
0.520804 0.0391467 0.
0.523073 0.0395208 0.
0.525338 0.0398818 0.
0.527597 0.0402363 0.
0.529833 0.0405819 0.
0.532068 0.0409248 0.
0.53428 0.0411831 0.
0.536486 0.0414357 0.
0.538687 0.041684 0.
0.540846 0.0418318 0.
0.543005 0.0419786 0.
0.545149 0.0421227 0.
0.547276 0.042269 0.
0.549403 0.0424166 0.
0.551492 0.0425206 0.
0.553574 0.0426149 0.
0.555653 0.042704 0.
0.557704 0.0427444 0.
0.559755 0.0427848 0.
0.5618 0.0428218 0.
0.563835 0.0428533 0.
0.56587 0.0428849 0.
0.567895 0.0429081 0.
0.569913 0.0429262 0.
0.571932 0.0429444 0.
0.573942 0.0429538 0.
0.575951 0.0429618 0.
0.577959 0.0429696 0.
0.579965 0.0429737 0.
0.581971 0.0429779 0.
0.583977 0.0429815 0.
0.585981 0.0429839 0.
0.587984 0.0429863 0.
0.589988 0.0429882 0.
0.591991 0.0429898 0.
0.593994 0.0429913 0.
0.595996 0.042992 0.
0.597999 0.0429923 0.
0.600001 0.0429927 0.
0.602004 0.0429917 0.
0.604007 0.0429908 0.
0.60601 0.0429897 0.
0.608013 0.0429881 0.
0.610016 0.0429865 0.
0.61202 0.0429842 0.
0.614024 0.0429812 0.
0.616029 0.0429781 0.
0.618035 0.0429737 0.
0.620043 0.0429686 0.
0.62205 0.0429635 0.
0.624061 0.0429537 0.
0.626072 0.0429434 0.
0.628084 0.0429316 0.
0.630106 0.0429099 0.
0.632128 0.0428883 0.
0.634157 0.04286 0.
0.636199 0.0428211 0.
0.63824 0.0427824 0.
0.640291 0.0427409 0.
0.642348 0.0426972 0.
0.644405 0.0426536 0.
0.646502 0.0425401 0.
0.648602 0.0424219 0.
0.650709 0.0422944 0.
0.652851 0.0421268 0.
0.654992 0.0419603 0.
0.65715 0.0418008 0.
0.65932 0.0416428 0.
0.661492 0.0414793 0.
0.663707 0.0411953 0.
0.665927 0.0409074 0.
0.668155 0.0406176 0.
0.670402 0.0402578 0.
0.672651 0.0398943 0.
0.674917 0.0395151 0.
0.677189 0.0391321 0.
0.679463 0.0387377 0.
0.681748 0.0383183 0.
0.684035 0.037899 0.
0.686327 0.0374588 0.
0.68862 0.0369949 0.
0.690912 0.0365276 0.
0.693198 0.0360549 0.
0.695476 0.0355887 0.
0.697738 0.0351586 0.
0.699975 0.0348014 0.
0.702195 0.0345306 0.
0.704392 0.0343563 0.
0.493778 0.0361929 0.
0.495941 0.0363702 0.
0.498121 0.0366115 0.
0.500332 0.0369414 0.
0.502562 0.0373376 0.
0.504813 0.0377946 0.
0.507078 0.0382761 0.
0.50935 0.038752 0.
0.511627 0.039212 0.
0.513904 0.0396667 0.
0.51618 0.0400924 0.
0.518453 0.0404962 0.
0.520725 0.0409006 0.
0.522987 0.0412796 0.
0.525247 0.0416457 0.
0.5275 0.0420075 0.
0.529733 0.0423602 0.
0.531965 0.04271 0.
0.534179 0.0429837 0.
0.536388 0.0432524 0.
0.538594 0.043517 0.
0.540758 0.0436796 0.
0.542923 0.0438399 0.
0.545072 0.0439988 0.
0.547203 0.0441599 0.
0.549335 0.0443224 0.
0.551432 0.0444421 0.
0.553521 0.044551 0.
0.555608 0.0446548 0.
0.557664 0.0447001 0.
0.55972 0.0447455 0.
0.56177 0.0447877 0.
0.56381 0.0448248 0.
0.565851 0.0448621 0.
0.567879 0.0448898 0.
0.569901 0.0449115 0.
0.571922 0.0449332 0.
0.573934 0.0449447 0.
0.575945 0.0449545 0.
0.577955 0.0449639 0.
0.579962 0.0449689 0.
0.581969 0.0449739 0.
0.583975 0.0449782 0.
0.585979 0.044981 0.
0.587983 0.0449837 0.
0.589987 0.0449859 0.
0.59199 0.0449875 0.
0.593993 0.0449892 0.
0.595996 0.0449899 0.
0.597998 0.0449903 0.
0.600001 0.0449908 0.
0.602004 0.0449897 0.
0.604007 0.0449887 0.
0.60601 0.0449875 0.
0.608014 0.0449856 0.
0.610017 0.0449838 0.
0.612021 0.0449811 0.
0.614026 0.0449775 0.
0.616031 0.0449739 0.
0.618039 0.0449686 0.
0.620047 0.0449626 0.
0.622056 0.0449565 0.
0.624069 0.0449447 0.
0.626082 0.0449323 0.
0.628096 0.0449181 0.
0.630122 0.0448923 0.
0.632147 0.0448665 0.
0.634181 0.044833 0.
0.636227 0.0447875 0.
0.638274 0.0447421 0.
0.64033 0.0446953 0.
0.642392 0.0446469 0.
0.644453 0.0445987 0.
0.646561 0.0444646 0.
0.64867 0.0443265 0.
0.650785 0.0441806 0.
0.652929 0.044001 0.
0.655073 0.0438224 0.
0.657238 0.0436483 0.
0.659416 0.0434757 0.
0.661595 0.0432955 0.
0.663811 0.0429974 0.
0.666032 0.0426953 0.
0.668259 0.0423915 0.
0.670501 0.0420256 0.
0.672745 0.0416563 0.
0.675005 0.0412735 0.
0.677268 0.0408881 0.
0.679535 0.0404905 0.
0.681809 0.040071 0.
0.684084 0.0396512 0.
0.686362 0.0392133 0.
0.688637 0.0387554 0.
0.690911 0.0382971 0.
0.693176 0.0378413 0.
0.695431 0.0373975 0.
0.697668 0.0369938 0.
0.699881 0.0366623 0.
0.702082 0.0364099 0.
0.704261 0.0362488 0.
0.493916 0.0380981 0.
0.496066 0.0382631 0.
0.49823 0.038488 0.
0.50042 0.0387983 0.
0.502627 0.0391703 0.
0.504857 0.039605 0.
0.507101 0.0400695 0.
0.509355 0.0405323 0.
0.511617 0.0409849 0.
0.513878 0.0414338 0.
0.516141 0.0418569 0.
0.518402 0.0422596 0.
0.520662 0.0426627 0.
0.522916 0.0430456 0.
0.525167 0.0434169 0.
0.527413 0.0437856 0.
0.529642 0.0441441 0.
0.53187 0.0444996 0.
0.534084 0.0447867 0.
0.536294 0.0450688 0.
0.5385 0.0453467 0.
0.540667 0.0455234 0.
0.542833 0.0456963 0.
0.544985 0.045868 0.
0.547119 0.0460388 0.
0.549253 0.0462104 0.
0.551358 0.0463453 0.
0.553457 0.0464706 0.
0.555553 0.0465917 0.
0.557615 0.0466415 0.
0.559676 0.0466915 0.
0.561732 0.0467391 0.
0.563777 0.0467833 0.
0.565822 0.0468276 0.
0.567855 0.0468611 0.
0.569881 0.0468877 0.
0.571907 0.0469144 0.
0.573922 0.0469291 0.
0.575935 0.0469419 0.
0.577948 0.0469542 0.
0.579956 0.0469606 0.
0.581964 0.0469671 0.
0.583972 0.0469726 0.
0.585977 0.0469762 0.
0.587982 0.0469799 0.
0.589986 0.0469826 0.
0.591989 0.0469846 0.
0.593993 0.0469866 0.
0.595996 0.0469876 0.
0.597998 0.0469882 0.
0.600001 0.0469888 0.
0.602004 0.0469875 0.
0.604008 0.0469861 0.
0.606011 0.0469846 0.
0.608015 0.0469822 0.
0.610019 0.0469799 0.
0.612023 0.0469765 0.
0.61403 0.0469717 0.
0.616036 0.046967 0.
0.618045 0.0469602 0.
0.620055 0.0469525 0.
0.622066 0.0469447 0.
0.624081 0.0469296 0.
0.626097 0.0469138 0.
0.628115 0.0468958 0.
0.630146 0.0468643 0.
0.632176 0.046833 0.
0.634215 0.0467932 0.
0.636266 0.0467407 0.
0.638317 0.0466884 0.
0.640381 0.0466332 0.
0.642451 0.0465763 0.
0.644521 0.0465191 0.
0.646636 0.0463685 0.
0.648751 0.0462141 0.
0.650873 0.0460537 0.
0.653017 0.045867 0.
0.655162 0.0456808 0.
0.65733 0.0454935 0.
0.659511 0.0453066 0.
0.661694 0.0451104 0.
0.66391 0.0448012 0.
0.666129 0.0444874 0.
0.668354 0.0441715 0.
0.67059 0.0438003 0.
0.672827 0.0434259 0.
0.675079 0.0430403 0.
0.677333 0.0426533 0.
0.679589 0.0422543 0.
0.681849 0.0418373 0.
0.68411 0.0414198 0.
0.686372 0.0409869 0.
0.68863 0.0405371 0.
0.690886 0.0400884 0.
0.693132 0.0396477 0.
0.695365 0.0392235 0.
0.69758 0.0388429 0.
0.699771 0.0385334 0.
0.701954 0.0382964 0.
0.704119 0.0381463 0.
0.494059 0.0400103 0.
0.496198 0.0401658 0.
0.498347 0.0403779 0.
0.50052 0.0406711 0.
0.502707 0.0410223 0.
0.504918 0.0414368 0.
0.507144 0.0418831 0.
0.50938 0.0423298 0.
0.511625 0.0427722 0.
0.513871 0.0432138 0.
0.516119 0.0436339 0.
0.518367 0.0440353 0.
0.520616 0.0444371 0.
0.522861 0.0448231 0.
0.525102 0.0451982 0.
0.527339 0.0455708 0.
0.529562 0.0459329 0.
0.531784 0.0462915 0.
0.533994 0.0465884 0.
0.5362 0.0468815 0.
0.538402 0.0471711 0.
0.54057 0.0473624 0.
0.542736 0.0475485 0.
0.544892 0.0477327 0.
0.547029 0.047912 0.
0.549167 0.048092 0.
0.551281 0.0482431 0.
0.553389 0.0483866 0.
0.555497 0.0485264 0.
0.557564 0.0485814 0.
0.559631 0.0486362 0.
0.561692 0.0486894 0.
0.563743 0.0487409 0.
0.565793 0.0487925 0.
0.567831 0.0488321 0.
0.569862 0.0488636 0.
0.571892 0.0488953 0.
0.57391 0.0489134 0.
0.575925 0.0489293 0.
0.57794 0.0489444 0.
0.57995 0.0489523 0.
0.58196 0.0489602 0.
0.583969 0.048967 0.
0.585974 0.0489715 0.
0.58798 0.048976 0.
0.589985 0.0489793 0.
0.591989 0.0489817 0.
0.593992 0.048984 0.
0.595995 0.0489852 0.
0.597998 0.048986 0.
0.600001 0.0489869 0.
0.602005 0.0489852 0.
0.604008 0.0489836 0.
0.606012 0.0489817 0.
0.608016 0.0489788 0.
0.61002 0.048976 0.
0.612026 0.0489718 0.
0.614033 0.0489659 0.
0.616041 0.0489601 0.
0.618051 0.0489518 0.
0.620063 0.0489423 0.
0.622075 0.0489329 0.
0.624094 0.0489144 0.
0.626113 0.0488952 0.
0.628134 0.0488732 0.
0.630169 0.048836 0.
0.632205 0.0487989 0.
0.634249 0.0487526 0.
0.636306 0.0486929 0.
0.638362 0.0486335 0.
0.640435 0.048569 0.
0.642514 0.0485021 0.
0.644593 0.048434 0.
0.646715 0.0482667 0.
0.648839 0.0480959 0.
0.650966 0.0479216 0.
0.653113 0.0477287 0.
0.655259 0.0475363 0.
0.657428 0.0473353 0.
0.659608 0.0471332 0.
0.661791 0.0469207 0.
0.664001 0.0466037 0.
0.666215 0.0462827 0.
0.668435 0.0459589 0.
0.670664 0.045584 0.
0.672895 0.0452056 0.
0.675137 0.0448182 0.
0.677381 0.0444305 0.
0.679626 0.0440311 0.
0.681871 0.0436168 0.
0.684118 0.0432021 0.
0.686364 0.0427746 0.
0.688605 0.0423341 0.
0.690842 0.0418976 0.
0.693069 0.0414743 0.
0.695284 0.0410684 0.
0.697481 0.0407077 0.
0.699655 0.0404172 0.
0.701824 0.0401947 0.
0.703974 0.0400545 0.
0.494193 0.0419305 0.
0.496323 0.0420757 0.
0.498461 0.0422757 0.
0.50062 0.0425524 0.
0.502791 0.0428844 0.
0.504985 0.0432792 0.
0.507194 0.0437077 0.
0.509413 0.044139 0.
0.511643 0.0445719 0.
0.513875 0.0450063 0.
0.51611 0.0454233 0.
0.518347 0.0458231 0.
0.520583 0.0462228 0.
0.522815 0.046609 0.
0.525043 0.0469847 0.
0.527269 0.0473592 0.
0.529486 0.0477236 0.
0.531701 0.0480846 0.
0.533908 0.048391 0.
0.536109 0.0486953 0.
0.538307 0.0489964 0.
0.540476 0.0492015 0.
0.542643 0.0494004 0.
0.544802 0.0495974 0.
0.546943 0.0497845 0.
0.549085 0.049972 0.
0.551207 0.0501376 0.
0.553325 0.050298 0.
0.555441 0.0504548 0.
0.557513 0.0505163 0.
0.559586 0.0505772 0.
0.561653 0.0506369 0.
0.563707 0.050695 0.
0.565762 0.0507533 0.
0.567805 0.050799 0.
0.56984 0.0508361 0.
0.571874 0.0508733 0.
0.573895 0.0508952 0.
0.575913 0.0509145 0.
0.577931 0.050933 0.
0.579942 0.0509424 0.
0.581954 0.0509519 0.
0.583964 0.0509601 0.
0.585971 0.0509657 0.
0.587978 0.0509713 0.
0.589983 0.0509754 0.
0.591987 0.0509783 0.
0.593992 0.0509811 0.
0.595995 0.0509825 0.
0.597998 0.0509835 0.
0.600001 0.0509844 0.
0.602005 0.0509825 0.
0.604009 0.0509806 0.
0.606013 0.0509784 0.
0.608018 0.0509748 0.
0.610023 0.0509712 0.
0.612029 0.0509659 0.
0.614038 0.0509587 0.
0.616047 0.0509516 0.
0.618059 0.0509416 0.
0.620073 0.0509303 0.
0.622087 0.0509191 0.
0.624109 0.0508968 0.
0.62613 0.0508736 0.
0.628155 0.0508473 0.
0.630195 0.0508038 0.
0.632236 0.0507605 0.
0.634285 0.0507076 0.
0.636346 0.0506413 0.
0.638407 0.0505753 0.
0.640487 0.050501 0.
0.642574 0.0504237 0.
0.644662 0.0503443 0.
0.646791 0.0501618 0.
0.648921 0.0499761 0.
0.651055 0.0497891 0.
0.653204 0.0495905 0.
0.655352 0.0493924 0.
0.657522 0.0491772 0.
0.659702 0.0489601 0.
0.661884 0.0487323 0.
0.66409 0.0484077 0.
0.666298 0.0480793 0.
0.668511 0.0477481 0.
0.670732 0.0473712 0.
0.672954 0.0469912 0.
0.675184 0.0466039 0.
0.677415 0.046217 0.
0.679647 0.0458187 0.
0.681881 0.0454081 0.
0.684115 0.0449967 0.
0.686347 0.0445742 0.
0.688573 0.0441427 0.
0.690794 0.0437182 0.
0.693003 0.0433113 0.
0.695201 0.0429233 0.
0.697382 0.0425815 0.
0.699542 0.0423093 0.
0.701699 0.0421006 0.
0.703839 0.0419693 0.
0.494315 0.0438555 0.
0.496437 0.043991 0.
0.498567 0.04418 0.
0.500713 0.0444432 0.
0.50287 0.0447595 0.
0.505049 0.0451371 0.
0.507244 0.045548 0.
0.509449 0.045964 0.
0.511666 0.0463873 0.
0.513884 0.0468136 0.
0.516106 0.0472256 0.
0.518329 0.0476225 0.
0.520553 0.0480192 0.
0.522774 0.0484054 0.
0.524992 0.048782 0.
0.52721 0.0491581 0.
0.529422 0.0495245 0.
0.531634 0.0498879 0.
0.533838 0.0502017 0.
0.536036 0.0505137 0.
0.538231 0.0508219 0.
0.540402 0.051039 0.
0.54257 0.0512484 0.
0.54473 0.0514554 0.
0.546874 0.0516478 0.
0.549019 0.0518408 0.
0.551145 0.0520194 0.
0.553265 0.0521957 0.
0.555384 0.0523685 0.
0.557462 0.0524408 0.
0.559541 0.0525116 0.
0.561613 0.0525802 0.
0.563671 0.0526444 0.
0.565729 0.0527089 0.
0.567776 0.0527609 0.
0.569815 0.0528042 0.
0.571854 0.0528477 0.
0.573877 0.0528741 0.
0.575898 0.0528974 0.
0.577919 0.0529197 0.
0.579932 0.0529308 0.
0.581946 0.052942 0.
0.583958 0.0529518 0.
0.585966 0.0529587 0.
0.587974 0.0529656 0.
0.589981 0.0529707 0.
0.591986 0.0529743 0.
0.593991 0.0529779 0.
0.595994 0.0529795 0.
0.597998 0.0529805 0.
0.600001 0.0529815 0.
0.602006 0.0529794 0.
0.60401 0.0529773 0.
0.606014 0.0529746 0.
0.60802 0.05297 0.
0.610026 0.0529654 0.
0.612034 0.0529589 0.
0.614044 0.0529501 0.
0.616055 0.0529413 0.
0.618069 0.0529295 0.
0.620086 0.0529163 0.
0.622102 0.0529032 0.
0.624126 0.0528765 0.
0.626151 0.0528487 0.
0.628179 0.0528173 0.
0.630224 0.0527667 0.
0.632269 0.0527164 0.
0.634323 0.0526566 0.
0.636389 0.0525839 0.
0.638454 0.0525116 0.
0.640539 0.0524257 0.
0.642631 0.0523354 0.
0.644723 0.0522423 0.
0.646854 0.0520456 0.
0.648985 0.0518458 0.
0.651122 0.0516485 0.
0.653274 0.0514463 0.
0.655425 0.0512444 0.
0.657597 0.051018 0.
0.659776 0.0507886 0.
0.661958 0.0505479 0.
0.66416 0.0502185 0.
0.666365 0.0498852 0.
0.668575 0.0495483 0.
0.670789 0.0491693 0.
0.673005 0.0487876 0.
0.675225 0.0484005 0.
0.677445 0.0480143 0.
0.679666 0.0476176 0.
0.681888 0.0472117 0.
0.684109 0.0468051 0.
0.686327 0.0463897 0.
0.688539 0.0459676 0.
0.690746 0.045554 0.
0.692941 0.0451629 0.
0.695125 0.0447921 0.
0.697292 0.0444666 0.
0.699438 0.0442088 0.
0.701583 0.0440108 0.
0.703715 0.0438875 0.
0.494446 0.0457826 0.
0.496562 0.04591 0.
0.498684 0.0460911 0.
0.500818 0.0463437 0.
0.502962 0.0466468 0.
0.505127 0.0470075 0.
0.507308 0.0474 0.
0.509498 0.047801 0.
0.511701 0.0482148 0.
0.513905 0.0486336 0.
0.516113 0.0490408 0.
0.518324 0.0494344 0.
0.520535 0.049828 0.
0.522747 0.0502133 0.
0.524958 0.0505889 0.
0.527169 0.0509642 0.
0.529375 0.0513323 0.
0.531579 0.0516972 0.
0.533776 0.0520165 0.
0.535969 0.0523342 0.
0.538159 0.0526483 0.
0.54033 0.052876 0.
0.542498 0.0530953 0.
0.544659 0.0533124 0.
0.546806 0.0535106 0.
0.548953 0.0537094 0.
0.551082 0.0539008 0.
0.553205 0.0540929 0.
0.555327 0.0542819 0.
0.557411 0.054365 0.
0.559495 0.0544456 0.
0.561573 0.0545233 0.
0.563634 0.0545937 0.
0.565696 0.0546643 0.
0.567747 0.0547228 0.
0.56979 0.0547724 0.
0.571833 0.0548221 0.
0.57386 0.054853 0.
0.575884 0.0548803 0.
0.577907 0.0549064 0.
0.579923 0.0549193 0.
0.581938 0.0549321 0.
0.583952 0.0549435 0.
0.585962 0.0549517 0.
0.587971 0.05496 0.
0.589979 0.0549661 0.
0.591984 0.0549704 0.
0.59399 0.0549747 0.
0.595994 0.0549765 0.
0.597998 0.0549775 0.
0.600001 0.0549786 0.
0.602006 0.0549762 0.
0.604011 0.0549739 0.
0.606016 0.0549708 0.
0.608023 0.0549652 0.
0.61003 0.0549596 0.
0.612039 0.0549518 0.
0.614051 0.0549414 0.
0.616063 0.054931 0.
0.618079 0.0549174 0.
0.620098 0.0549023 0.
0.622116 0.0548872 0.
0.624144 0.0548562 0.
0.626171 0.0548238 0.
0.628203 0.0547872 0.
0.630253 0.0547296 0.
0.632302 0.0546722 0.
0.634361 0.0546054 0.
0.636431 0.0545264 0.
0.638502 0.0544477 0.
0.640591 0.0543499 0.
0.642687 0.0542468 0.
0.644785 0.05414 0.
0.646917 0.053929 0.
0.649049 0.0537152 0.
0.651188 0.0535076 0.
0.653343 0.0533015 0.
0.655497 0.0530957 0.
0.657668 0.0528579 0.
0.659846 0.0526174 0.
0.662026 0.0523659 0.
0.664223 0.0520328 0.
0.666422 0.0516961 0.
0.668624 0.0513559 0.
0.670831 0.0509761 0.
0.673039 0.0505935 0.
0.675251 0.0502081 0.
0.677461 0.0498239 0.
0.679672 0.0494292 0.
0.681882 0.0490276 0.
0.684091 0.0486258 0.
0.686295 0.0482179 0.
0.688492 0.0478055 0.
0.690686 0.0474028 0.
0.692866 0.0470264 0.
0.695034 0.0466725 0.
0.697188 0.0463617 0.
0.699322 0.0461157 0.
0.701458 0.0459256 0.
0.703583 0.0458079 0.
0.494587 0.0477024 0.
0.496697 0.0478254 0.
0.498811 0.0480031 0.
0.500936 0.0482493 0.
0.503069 0.0485415 0.
0.505222 0.0488884 0.
0.507389 0.0492649 0.
0.509565 0.0496523 0.
0.511754 0.0500572 0.
0.513944 0.050468 0.
0.516139 0.0508688 0.
0.518337 0.0512586 0.
0.520536 0.0516483 0.
0.522738 0.052031 0.
0.524939 0.0524044 0.
0.527141 0.0527778 0.
0.529338 0.0531466 0.
0.531533 0.0535128 0.
0.533723 0.053837 0.
0.53591 0.0541596 0.
0.538095 0.0544788 0.
0.540263 0.0547165 0.
0.542429 0.0549452 0.
0.544589 0.0551714 0.
0.546736 0.0553743 0.
0.548883 0.0555777 0.
0.551013 0.0557787 0.
0.553136 0.0559822 0.
0.555258 0.0561822 0.
0.557348 0.0562773 0.
0.559438 0.0563691 0.
0.56152 0.0564569 0.
0.563586 0.0565325 0.
0.565652 0.0566083 0.
0.567707 0.056673 0.
0.569755 0.0567293 0.
0.571803 0.0567859 0.
0.573834 0.0568224 0.
0.575862 0.0568551 0.
0.577889 0.0568864 0.
0.579907 0.0569014 0.
0.581925 0.0569165 0.
0.583941 0.05693 0.
0.585953 0.0569404 0.
0.587965 0.0569507 0.
0.589974 0.0569585 0.
0.591981 0.056964 0.
0.593988 0.0569695 0.
0.595993 0.0569717 0.
0.597997 0.0569731 0.
0.600002 0.0569744 0.
0.602007 0.0569713 0.
0.604013 0.0569682 0.
0.606019 0.0569642 0.
0.608027 0.056957 0.
0.610036 0.0569498 0.
0.612047 0.0569401 0.
0.614061 0.0569274 0.
0.616076 0.0569146 0.
0.618095 0.0568988 0.
0.620116 0.0568816 0.
0.622137 0.0568645 0.
0.624168 0.0568272 0.
0.626201 0.0567885 0.
0.628237 0.0567452 0.
0.630293 0.05668 0.
0.632348 0.0566152 0.
0.634412 0.0565417 0.
0.636487 0.0564573 0.
0.638561 0.0563732 0.
0.640655 0.0562643 0.
0.642754 0.056149 0.
0.644856 0.0560292 0.
0.646986 0.0558084 0.
0.649118 0.0555841 0.
0.651256 0.0553682 0.
0.65341 0.0551585 0.
0.655565 0.0549497 0.
0.657734 0.0547013 0.
0.659909 0.0544502 0.
0.662086 0.0541886 0.
0.664276 0.0538523 0.
0.666467 0.0535127 0.
0.668662 0.0531698 0.
0.67086 0.0527904 0.
0.673059 0.0524086 0.
0.67526 0.0520265 0.
0.677459 0.0516458 0.
0.679659 0.0512546 0.
0.681856 0.0508576 0.
0.684052 0.0504605 0.
0.686243 0.0500603 0.
0.688426 0.0496575 0.
0.690606 0.0492649 0.
0.692772 0.0489012 0.
0.694929 0.0485612 0.
0.697072 0.0482619 0.
0.699196 0.0480255 0.
0.701323 0.0478413 0.
0.703443 0.0477269 0.
0.494734 0.0496255 0.
0.496839 0.0497455 0.
0.498946 0.0499213 0.
0.501064 0.0501626 0.
0.503188 0.0504462 0.
0.50533 0.0507816 0.
0.507483 0.0511442 0.
0.509646 0.0515188 0.
0.51182 0.0519132 0.
0.513997 0.0523142 0.
0.516179 0.0527079 0.
0.518366 0.0530941 0.
0.520553 0.0534801 0.
0.522744 0.0538603 0.
0.524935 0.0542316 0.
0.527127 0.0546027 0.
0.529314 0.0549723 0.
0.531499 0.0553399 0.
0.533681 0.0556676 0.
0.53586 0.055993 0.
0.538037 0.0563147 0.
0.540201 0.0565599 0.
0.542364 0.0567956 0.
0.544521 0.0570296 0.
0.546665 0.0572369 0.
0.548808 0.0574447 0.
0.550938 0.0576539 0.
0.553062 0.0578673 0.
0.555186 0.0580773 0.
0.557282 0.0581855 0.
0.559376 0.0582895 0.
0.561465 0.0583883 0.
0.563536 0.0584694 0.
0.565606 0.0585507 0.
0.567667 0.058622 0.
0.56972 0.0586853 0.
0.571773 0.0587489 0.
0.573808 0.0587914 0.
0.57584 0.0588296 0.
0.577871 0.0588663 0.
0.579892 0.0588835 0.
0.581912 0.0589007 0.
0.583931 0.0589164 0.
0.585945 0.0589289 0.
0.587959 0.0589414 0.
0.589969 0.0589508 0.
0.591977 0.0589575 0.
0.593985 0.0589642 0.
0.595991 0.058967 0.
0.597997 0.0589686 0.
0.600002 0.0589702 0.
0.602008 0.0589664 0.
0.604015 0.0589625 0.
0.606022 0.0589575 0.
0.608032 0.0589488 0.
0.610042 0.0589401 0.
0.612055 0.0589284 0.
0.614072 0.0589132 0.
0.616089 0.0588981 0.
0.61811 0.0588801 0.
0.620134 0.0588608 0.
0.622158 0.0588415 0.
0.624194 0.0587978 0.
0.62623 0.0587525 0.
0.628272 0.0587021 0.
0.630334 0.058629 0.
0.632395 0.0585563 0.
0.634465 0.0584756 0.
0.636545 0.0583855 0.
0.638624 0.0582957 0.
0.640722 0.0581751 0.
0.642826 0.0580477 0.
0.644931 0.057915 0.
0.647061 0.0576859 0.
0.649192 0.0574533 0.
0.651329 0.0572297 0.
0.653479 0.0570145 0.
0.65563 0.0568001 0.
0.657795 0.0565451 0.
0.659965 0.0562878 0.
0.662137 0.0560199 0.
0.664318 0.0556819 0.
0.666502 0.0553406 0.
0.668688 0.0549958 0.
0.670875 0.0546165 0.
0.673064 0.0542353 0.
0.675255 0.0538564 0.
0.677443 0.053479 0.
0.679631 0.0530917 0.
0.681815 0.0526993 0.
0.683998 0.0523069 0.
0.686176 0.0519149 0.
0.688347 0.0515232 0.
0.690513 0.0511414 0.
0.692667 0.0507895 0.
0.694811 0.050461 0.
0.696944 0.0501704 0.
0.699062 0.0499412 0.
0.701182 0.049762 0.
0.703296 0.0496495 0.
0.494879 0.0515563 0.
0.496978 0.051672 0.
0.49908 0.0518452 0.
0.50119 0.052081 0.
0.503305 0.0523564 0.
0.505437 0.052681 0.
0.507577 0.0530309 0.
0.509726 0.0533943 0.
0.511889 0.0537788 0.
0.514054 0.0541704 0.
0.516225 0.054558 0.
0.518401 0.0549408 0.
0.520577 0.0553232 0.
0.522756 0.0557001 0.
0.524935 0.0560685 0.
0.527115 0.0564365 0.
0.529292 0.0568054 0.
0.531467 0.0571721 0.
0.533641 0.0575016 0.
0.535812 0.0578286 0.
0.537981 0.0581522 0.
0.540141 0.0584042 0.
0.5423 0.058647 0.
0.544454 0.0588888 0.
0.546595 0.0591005 0.
0.548737 0.0593127 0.
0.550866 0.0595297 0.
0.552991 0.0597526 0.
0.555117 0.0599718 0.
0.557218 0.0600926 0.
0.559318 0.0602084 0.
0.561412 0.0603182 0.
0.563486 0.0604041 0.
0.565561 0.0604903 0.
0.567626 0.0605677 0.
0.569683 0.0606378 0.
0.571741 0.0607082 0.
0.57378 0.0607572 0.
0.575816 0.0608014 0.
0.577851 0.0608441 0.
0.579874 0.0608634 0.
0.581897 0.0608828 0.
0.583918 0.0609007 0.
0.585934 0.0609155 0.
0.58795 0.0609303 0.
0.589963 0.0609414 0.
0.591972 0.0609495 0.
0.593982 0.0609576 0.
0.595989 0.060961 0.
0.597996 0.0609629 0.
0.600002 0.0609648 0.
0.60201 0.0609601 0.
0.604018 0.0609553 0.
0.606027 0.0609493 0.
0.608038 0.0609388 0.
0.61005 0.0609284 0.
0.612066 0.0609146 0.
0.614085 0.0608969 0.
0.616104 0.0608792 0.
0.618128 0.0608591 0.
0.620154 0.0608379 0.
0.62218 0.0608166 0.
0.624221 0.0607654 0.
0.626262 0.0607126 0.
0.628309 0.0606546 0.
0.630375 0.0605741 0.
0.632442 0.0604941 0.
0.634516 0.060407 0.
0.6366 0.0603118 0.
0.638684 0.0602168 0.
0.640786 0.060085 0.
0.642894 0.059946 0.
0.645003 0.0598012 0.
0.647133 0.059564 0.
0.649263 0.0593234 0.
0.651399 0.0590924 0.
0.653546 0.0588717 0.
0.655693 0.0586514 0.
0.657854 0.0583897 0.
0.660019 0.0581266 0.
0.662185 0.0578534 0.
0.664359 0.0575147 0.
0.666533 0.0571731 0.
0.66871 0.0568283 0.
0.670886 0.0564511 0.
0.673064 0.0560719 0.
0.675244 0.0556966 0.
0.67742 0.0553225 0.
0.679596 0.0549389 0.
0.681768 0.054551 0.
0.683941 0.0541629 0.
0.686108 0.0537781 0.
0.688267 0.0533968 0.
0.690423 0.0530254 0.
0.692564 0.0526844 0.
0.694697 0.0523667 0.
0.69682 0.0520842 0.
0.698929 0.0518617 0.
0.701042 0.0516874 0.
0.703151 0.0515769 0.
0.495012 0.0534953 0.
0.497106 0.0536051 0.
0.499203 0.0537744 0.
0.501307 0.0540035 0.
0.503415 0.0542714 0.
0.505537 0.054587 0.
0.507666 0.0549266 0.
0.509806 0.0552813 0.
0.511957 0.0556575 0.
0.514111 0.0560408 0.
0.516269 0.056422 0.
0.518433 0.0567999 0.
0.520597 0.0571772 0.
0.522764 0.0575501 0.
0.524932 0.0579153 0.
0.527102 0.0582797 0.
0.529271 0.0586474 0.
0.531439 0.0590135 0.
0.533606 0.0593444 0.
0.535771 0.0596725 0.
0.537935 0.0599975 0.
0.540092 0.0602554 0.
0.542248 0.060504 0.
0.5444 0.0607519 0.
0.546539 0.0609667 0.
0.548679 0.0611818 0.
0.550809 0.0614045 0.
0.552935 0.0616346 0.
0.55506 0.0618609 0.
0.557164 0.0619937 0.
0.559265 0.0621215 0.
0.56136 0.0622426 0.
0.563437 0.0623331 0.
0.565514 0.062424 0.
0.567583 0.0625074 0.
0.569644 0.0625847 0.
0.571706 0.0626623 0.
0.57375 0.0627186 0.
0.575789 0.0627699 0.
0.577828 0.0628195 0.
0.579853 0.0628409 0.
0.581878 0.0628623 0.
0.583901 0.0628824 0.
0.58592 0.0628997 0.
0.587939 0.062917 0.
0.589954 0.0629302 0.
0.591965 0.06294 0.
0.593977 0.0629497 0.
0.595986 0.0629537 0.
0.597995 0.0629559 0.
0.600003 0.0629581 0.
0.602013 0.0629523 0.
0.604022 0.0629465 0.
0.606033 0.0629393 0.
0.608047 0.0629269 0.
0.610061 0.0629146 0.
0.612079 0.0628985 0.
0.614101 0.0628781 0.
0.616122 0.0628577 0.
0.618148 0.0628355 0.
0.620176 0.0628125 0.
0.622204 0.0627895 0.
0.624251 0.062729 0.
0.626298 0.062667 0.
0.628349 0.0626 0.
0.630419 0.0625123 0.
0.632489 0.062425 0.
0.634566 0.0623319 0.
0.636652 0.0622321 0.
0.638737 0.0621325 0.
0.64084 0.0619896 0.
0.642948 0.0618393 0.
0.645059 0.0616838 0.
0.647189 0.0614411 0.
0.649319 0.0611947 0.
0.651455 0.0609579 0.
0.6536 0.0607329 0.
0.655745 0.0605078 0.
0.657903 0.0602408 0.
0.660064 0.0599728 0.
0.662227 0.059695 0.
0.664394 0.059356 0.
0.666563 0.0590143 0.
0.668731 0.0586697 0.
0.670898 0.0582948 0.
0.673067 0.057918 0.
0.675237 0.0575469 0.
0.677402 0.0571766 0.
0.679566 0.0567978 0.
0.681726 0.0564158 0.
0.683887 0.056033 0.
0.686041 0.0556544 0.
0.68819 0.0552815 0.
0.690336 0.0549188 0.
0.692468 0.0545863 0.
0.69459 0.0542775 0.
0.696704 0.054002 0.
0.698807 0.0537863 0.
0.700914 0.0536178 0.
0.703016 0.0535101 0.
0.495151 0.0554373 0.
0.497239 0.0555424 0.
0.499331 0.0557081 0.
0.501429 0.0559314 0.
0.503531 0.0561929 0.
0.505646 0.056501 0.
0.507765 0.0568316 0.
0.509893 0.0571788 0.
0.512033 0.0575469 0.
0.514173 0.0579219 0.
0.516318 0.0582961 0.
0.51847 0.0586686 0.
0.520622 0.0590407 0.
0.52278 0.0594099 0.
0.524937 0.0597722 0.
0.527098 0.0601329 0.
0.529259 0.0604992 0.
0.531419 0.0608637 0.
0.53358 0.0611951 0.
0.535739 0.0615231 0.
0.537897 0.0618479 0.
0.540049 0.0621097 0.
0.5422 0.0623624 0.
0.544348 0.0626149 0.
0.546485 0.0628327 0.
0.548622 0.0630506 0.
0.550752 0.0632791 0.
0.552878 0.0635163 0.
0.555004 0.0637498 0.
0.557109 0.0638945 0.
0.559211 0.0640344 0.
0.561309 0.0641669 0.
0.563388 0.0642621 0.
0.565467 0.0643575 0.
0.567539 0.0644469 0.
0.569605 0.0645314 0.
0.571671 0.0646163 0.
0.573719 0.0646799 0.
0.575763 0.0647382 0.
0.577806 0.0647949 0.
0.579833 0.0648184 0.
0.58186 0.0648419 0.
0.583885 0.0648642 0.
0.585906 0.0648839 0.
0.587927 0.0649037 0.
0.589945 0.064919 0.
0.591959 0.0649304 0.
0.593973 0.0649418 0.
0.595983 0.0649463 0.
0.597994 0.0649488 0.
0.600004 0.0649513 0.
0.602015 0.0649445 0.
0.604027 0.0649378 0.
0.606039 0.0649293 0.
0.608056 0.064915 0.
0.610072 0.0649008 0.
0.612092 0.0648824 0.
0.614116 0.0648592 0.
0.61614 0.0648361 0.
0.618169 0.0648119 0.
0.620199 0.0647871 0.
0.622229 0.0647623 0.
0.624281 0.0646925 0.
0.626333 0.0646212 0.
0.62839 0.0645452 0.
0.630464 0.0644503 0.
0.632537 0.0643558 0.
0.634617 0.0642567 0.
0.636703 0.0641522 0.
0.63879 0.064048 0.
0.640895 0.0638938 0.
0.643003 0.0637322 0.
0.645114 0.0635661 0.
0.647244 0.0633176 0.
0.649374 0.0630655 0.
0.651509 0.0628233 0.
0.653651 0.0625945 0.
0.655794 0.0623654 0.
0.657947 0.062095 0.
0.660102 0.0618244 0.
0.662259 0.0615441 0.
0.66442 0.0612056 0.
0.666582 0.0608647 0.
0.668744 0.060521 0.
0.670903 0.0601487 0.
0.673064 0.0597744 0.
0.675223 0.0594073 0.
0.677378 0.0590403 0.
0.679532 0.058666 0.
0.68168 0.0582902 0.
0.683828 0.0579133 0.
0.685969 0.0575416 0.
0.688104 0.0571771 0.
0.690238 0.0568223 0.
0.69236 0.0564966 0.
0.694474 0.0561951 0.
0.696582 0.0559252 0.
0.698679 0.0557152 0.
0.70078 0.0555518 0.
0.702877 0.0554465 0.
0.495296 0.0573719 0.
0.49738 0.0574758 0.
0.499468 0.0576419 0.
0.501561 0.0578625 0.
0.503657 0.058119 0.
0.505763 0.0584215 0.
0.507874 0.0587446 0.
0.509992 0.0590851 0.
0.512119 0.0594457 0.
0.514246 0.0598133 0.
0.51638 0.0601821 0.
0.518521 0.0605498 0.
0.520663 0.0609166 0.
0.522809 0.061281 0.
0.524956 0.0616392 0.
0.527107 0.0619951 0.
0.529259 0.0623588 0.
0.531411 0.062721 0.
0.533564 0.0630519 0.
0.535716 0.0633791 0.
0.537867 0.0637036 0.
0.540013 0.0639691 0.
0.542158 0.064226 0.
0.544301 0.0644829 0.
0.546435 0.0647034 0.
0.548569 0.0649239 0.
0.550696 0.065157 0.
0.55282 0.0653999 0.
0.554944 0.0656388 0.
0.557048 0.0657939 0.
0.55915 0.0659443 0.
0.561248 0.0660872 0.
0.563329 0.0661855 0.
0.565409 0.066284 0.
0.567484 0.0663777 0.
0.569553 0.0664676 0.
0.571622 0.0665578 0.
0.573676 0.0666296 0.
0.575725 0.0666966 0.
0.577774 0.0667622 0.
0.579805 0.066788 0.
0.581835 0.0668138 0.
0.583863 0.0668385 0.
0.585887 0.0668608 0.
0.587911 0.0668832 0.
0.589931 0.0669006 0.
0.591948 0.0669138 0.
0.593965 0.066927 0.
0.595979 0.0669323 0.
0.597992 0.0669352 0.
0.600005 0.0669381 0.
0.60202 0.0669301 0.
0.604034 0.0669222 0.
0.60605 0.0669123 0.
0.608069 0.0668959 0.
0.610089 0.0668796 0.
0.612112 0.0668589 0.
0.614138 0.0668333 0.
0.616165 0.0668078 0.
0.618198 0.0667796 0.
0.620232 0.0667501 0.
0.622267 0.0667206 0.
0.624324 0.0666425 0.
0.626381 0.066563 0.
0.628443 0.0664793 0.
0.630519 0.0663795 0.
0.632595 0.06628 0.
0.634676 0.0661769 0.
0.636763 0.0660693 0.
0.63885 0.0659618 0.
0.640955 0.0657972 0.
0.643062 0.0656255 0.
0.645173 0.0654498 0.
0.6473 0.065197 0.
0.649428 0.0649403 0.
0.65156 0.0646933 0.
0.653699 0.064461 0.
0.655838 0.064228 0.
0.657984 0.0639546 0.
0.660133 0.0636815 0.
0.662283 0.0633991 0.
0.664436 0.0630617 0.
0.66659 0.062722 0.
0.668744 0.0623798 0.
0.670894 0.0620112 0.
0.673046 0.061641 0.
0.675195 0.0612792 0.
0.677339 0.0609163 0.
0.679481 0.0605469 0.
0.681618 0.0601767 0.
0.683755 0.0598051 0.
0.685884 0.0594391 0.
0.688007 0.059082 0.
0.690128 0.0587342 0.
0.692242 0.0584141 0.
0.694348 0.0581186 0.
0.69645 0.0578524 0.
0.698543 0.0576466 0.
0.70064 0.0574864 0.
0.702733 0.0573809 0.
0.495448 0.0593086 0.
0.497529 0.0594121 0.
0.499612 0.0595798 0.
0.501699 0.0597987 0.
0.503789 0.0600516 0.
0.505888 0.0603501 0.
0.50799 0.0606671 0.
0.510098 0.0610018 0.
0.512215 0.0613556 0.
0.514332 0.0617169 0.
0.516456 0.0620802 0.
0.518587 0.0624419 0.
0.520717 0.0628026 0.
0.522853 0.0631618 0.
0.52499 0.063516 0.
0.52713 0.0638676 0.
0.529273 0.0642292 0.
0.531415 0.0645893 0.
0.53356 0.0649196 0.
0.535703 0.0652464 0.
0.537845 0.0655706 0.
0.539984 0.065838 0.
0.542123 0.0660964 0.
0.544259 0.0663552 0.
0.546388 0.066578 0.
0.548517 0.0668007 0.
0.55064 0.0670373 0.
0.55276 0.0672843 0.
0.554879 0.0675275 0.
0.556983 0.0676919 0.
0.559085 0.0678522 0.
0.561183 0.0680053 0.
0.563266 0.0681066 0.
0.565349 0.068208 0.
0.567426 0.0683059 0.
0.569499 0.0684013 0.
0.571572 0.0684971 0.
0.573631 0.0685774 0.
0.575687 0.0686538 0.
0.577742 0.0687288 0.
0.579776 0.0687572 0.
0.581809 0.0687854 0.
0.583841 0.0688126 0.
0.585867 0.0688375 0.
0.587894 0.0688624 0.
0.589917 0.0688821 0.
0.591937 0.0688971 0.
0.593957 0.0689122 0.
0.595974 0.0689182 0.
0.59799 0.0689215 0.
0.600007 0.0689248 0.
0.602024 0.0689156 0.
0.604042 0.0689064 0.
0.606061 0.0688951 0.
0.608083 0.0688766 0.
0.610106 0.0688581 0.
0.612132 0.0688352 0.
0.614161 0.0688072 0.
0.616191 0.0687793 0.
0.618228 0.0687466 0.
0.620267 0.068712 0.
0.622307 0.0686772 0.
0.624369 0.0685905 0.
0.626432 0.0685025 0.
0.628498 0.068411 0.
0.630576 0.0683063 0.
0.632655 0.068202 0.
0.634738 0.068095 0.
0.636826 0.0679845 0.
0.638914 0.0678742 0.
0.641018 0.0676993 0.
0.643125 0.0675182 0.
0.645235 0.0673339 0.
0.647358 0.0670774 0.
0.649482 0.0668172 0.
0.651609 0.0665669 0.
0.653742 0.0663325 0.
0.655875 0.0660971 0.
0.658014 0.0658228 0.
0.660155 0.0655492 0.
0.662297 0.0652659 0.
0.66444 0.0649291 0.
0.666584 0.0645901 0.
0.668729 0.0642494 0.
0.670871 0.063884 0.
0.673012 0.0635174 0.
0.675151 0.0631608 0.
0.677285 0.0628022 0.
0.679418 0.0624383 0.
0.681544 0.0620748 0.
0.68367 0.0617099 0.
0.685789 0.0613493 0.
0.687902 0.0609981 0.
0.690013 0.060656 0.
0.692117 0.06034 0.
0.694215 0.0600488 0.
0.696312 0.0597846 0.
0.6984 0.0595821 0.
0.700492 0.0594252 0.
0.70258 0.0593191 0.
0.495597 0.0612523 0.
0.497673 0.0613546 0.
0.499752 0.061523 0.
0.501834 0.0617394 0.
0.503917 0.0619895 0.
0.506009 0.0622842 0.
0.508103 0.062595 0.
0.510204 0.0629241 0.
0.512311 0.0632718 0.
0.514419 0.0636277 0.
0.516534 0.0639862 0.
0.518654 0.0643423 0.
0.520774 0.0646975 0.
0.5229 0.0650524 0.
0.525026 0.0654031 0.
0.527157 0.0657501 0.
0.52929 0.0661082 0.
0.531422 0.0664645 0.
0.533557 0.0667928 0.
0.535691 0.0671183 0.
0.537825 0.0674415 0.
0.539956 0.0677096 0.
0.542087 0.0679686 0.
0.544216 0.0682288 0.
0.546341 0.0684539 0.
0.548465 0.0686787 0.
0.550584 0.0689188 0.
0.5527 0.0691699 0.
0.554816 0.0694171 0.
0.55692 0.0695905 0.
0.559021 0.0697604 0.
0.561121 0.0699236 0.
0.563206 0.0700275 0.
0.56529 0.0701315 0.
0.567371 0.070233 0.
0.569446 0.0703332 0.
0.571522 0.0704335 0.
0.573586 0.0705217 0.
0.575647 0.0706067 0.
0.577708 0.0706905 0.
0.579745 0.0707224 0.
0.581782 0.0707542 0.
0.583817 0.0707845 0.
0.585846 0.0708117 0.
0.587875 0.0708389 0.
0.589902 0.0708607 0.
0.591925 0.0708774 0.
0.593948 0.0708942 0.
0.595969 0.070901 0.
0.597988 0.0709046 0.
0.600008 0.0709083 0.
0.602029 0.070898 0.
0.60405 0.0708876 0.
0.606072 0.0708749 0.
0.608098 0.0708544 0.
0.610124 0.0708339 0.
0.612153 0.0708087 0.
0.614185 0.0707785 0.
0.616217 0.0707482 0.
0.618259 0.0707106 0.
0.620304 0.0706705 0.
0.622348 0.0706299 0.
0.624415 0.0705353 0.
0.626481 0.0704394 0.
0.628551 0.0703408 0.
0.630632 0.070232 0.
0.632713 0.0701234 0.
0.634798 0.070013 0.
0.636886 0.0699 0.
0.638975 0.0697868 0.
0.64108 0.0696021 0.
0.643187 0.0694116 0.
0.645295 0.069219 0.
0.647415 0.0689591 0.
0.649535 0.0686954 0.
0.651657 0.068442 0.
0.653784 0.0682056 0.
0.655911 0.0679679 0.
0.658043 0.0676934 0.
0.660176 0.0674204 0.
0.662309 0.0671377 0.
0.664443 0.066803 0.
0.666578 0.0664658 0.
0.668712 0.0661277 0.
0.670843 0.0657664 0.
0.672975 0.0654037 0.
0.675103 0.0650518 0.
0.677228 0.0646971 0.
0.679351 0.0643381 0.
0.681467 0.0639805 0.
0.683584 0.0636217 0.
0.685694 0.0632658 0.
0.687797 0.06292 0.
0.6899 0.0625831 0.
0.691996 0.062271 0.
0.694088 0.061984 0.
0.696177 0.0617215 0.
0.69826 0.0615219 0.
0.700346 0.0613685 0.
0.70243 0.0612625 0.
0.495737 0.0632033 0.
0.497809 0.063303 0.
0.499883 0.0634708 0.
0.50196 0.063684 0.
0.504038 0.0639319 0.
0.506123 0.0642237 0.
0.508209 0.0645293 0.
0.510302 0.0648539 0.
0.512402 0.0651971 0.
0.514501 0.0655486 0.
0.516606 0.0659028 0.
0.518716 0.0662538 0.
0.520826 0.0666033 0.
0.522941 0.0669532 0.
0.525057 0.0672993 0.
0.527177 0.0676407 0.
0.529301 0.0679948 0.
0.531423 0.0683472 0.
0.533549 0.0686736 0.
0.535676 0.068998 0.
0.537802 0.06932 0.
0.539928 0.0695889 0.
0.542053 0.0698486 0.
0.544177 0.0701101 0.
0.546298 0.0703375 0.
0.548418 0.0705642 0.
0.550534 0.0708068 0.
0.552648 0.0710602 0.
0.554761 0.0713093 0.
0.556865 0.0714889 0.
0.558967 0.0716658 0.
0.561067 0.0718364 0.
0.563152 0.0719439 0.
0.565238 0.0720516 0.
0.567319 0.0721568 0.
0.569396 0.07226 0.
0.571473 0.0723634 0.
0.57354 0.0724586 0.
0.575604 0.0725521 0.
0.577669 0.0726443 0.
0.579711 0.0726819 0.
0.581753 0.0727189 0.
0.583792 0.0727539 0.
0.585824 0.0727831 0.
0.587856 0.0728123 0.
0.589885 0.0728359 0.
0.591912 0.0728544 0.
0.593938 0.0728728 0.
0.595963 0.0728803 0.
0.597986 0.0728843 0.
0.60001 0.0728884 0.
0.602035 0.0728768 0.
0.60406 0.0728653 0.
0.606086 0.0728511 0.
0.608115 0.0728287 0.
0.610144 0.0728062 0.
0.612176 0.0727789 0.
0.614212 0.0727464 0.
0.616247 0.0727139 0.
0.618293 0.0726704 0.
0.620342 0.0726235 0.
0.622391 0.0725759 0.
0.62446 0.072474 0.
0.626529 0.0723708 0.
0.628601 0.0722659 0.
0.630683 0.0721541 0.
0.632765 0.0720425 0.
0.634851 0.0719281 0.
0.63694 0.071811 0.
0.63903 0.0716933 0.
0.641135 0.0715026 0.
0.643241 0.0713061 0.
0.645349 0.0711083 0.
0.647465 0.0708468 0.
0.649582 0.0705812 0.
0.6517 0.0703254 0.
0.653822 0.070087 0.
0.655945 0.069847 0.
0.658071 0.0695722 0.
0.660198 0.0692993 0.
0.662325 0.0690169 0.
0.66445 0.0686841 0.
0.666576 0.0683491 0.
0.668701 0.0680138 0.
0.670822 0.067657 0.
0.672944 0.0672989 0.
0.675062 0.0669523 0.
0.677176 0.066602 0.
0.679289 0.0662481 0.
0.681396 0.0658963 0.
0.683503 0.0655427 0.
0.685605 0.0651909 0.
0.6877 0.0648491 0.
0.689794 0.0645161 0.
0.691884 0.064207 0.
0.693968 0.0639236 0.
0.69605 0.0636625 0.
0.698127 0.0634652 0.
0.700208 0.0633154 0.
0.702287 0.0632099 0.
0.495886 0.0651579 0.
0.497954 0.0652557 0.
0.500023 0.0654242 0.
0.502094 0.0656345 0.
0.504167 0.0658809 0.
0.506245 0.0661704 0.
0.508324 0.0664717 0.
0.510408 0.0667925 0.
0.512498 0.0671312 0.
0.514587 0.0674783 0.
0.516682 0.0678276 0.
0.518781 0.068173 0.
0.520879 0.068517 0.
0.522984 0.0688624 0.
0.52509 0.0692048 0.
0.527201 0.0695417 0.
0.529315 0.0698919 0.
0.531428 0.0702404 0.
0.533546 0.0705642 0.
0.535666 0.0708864 0.
0.537785 0.0712062 0.
0.539905 0.0714748 0.
0.542025 0.0717341 0.
0.544143 0.0719957 0.
0.546259 0.0722242 0.
0.548374 0.0724518 0.
0.550486 0.0726958 0.
0.552597 0.0729507 0.
0.554707 0.0732015 0.
0.55681 0.0733869 0.
0.558912 0.0735707 0.
0.561013 0.0737487 0.
0.563099 0.0738602 0.
0.565185 0.0739717 0.
0.567268 0.0740805 0.
0.569346 0.0741868 0.
0.571424 0.0742932 0.
0.573494 0.0743954 0.
0.575562 0.0744973 0.
0.577629 0.074598 0.
0.579677 0.0746413 0.
0.581724 0.0746836 0.
0.583768 0.0747232 0.
0.585802 0.0747544 0.
0.587836 0.0747857 0.
0.589868 0.0748111 0.
0.591898 0.0748313 0.
0.593929 0.0748514 0.
0.595957 0.0748596 0.
0.597984 0.074864 0.
0.600012 0.0748684 0.
0.602041 0.0748557 0.
0.604069 0.074843 0.
0.606099 0.0748274 0.
0.608131 0.074803 0.
0.610164 0.0747786 0.
0.612199 0.0747491 0.
0.614238 0.0747143 0.
0.616277 0.0746795 0.
0.618327 0.07463 0.
0.62038 0.0745764 0.
0.622434 0.0745218 0.
0.624506 0.0744125 0.
0.626578 0.074302 0.
0.628652 0.074191 0.
0.630734 0.0740762 0.
0.632816 0.0739615 0.
0.634904 0.0738431 0.
0.636994 0.0737217 0.
0.639085 0.0735993 0.
0.641189 0.0734025 0.
0.643295 0.0732003 0.
0.645402 0.0729978 0.
0.647514 0.0727354 0.
0.649626 0.0724688 0.
0.65174 0.072212 0.
0.653856 0.071973 0.
0.655974 0.0717322 0.
0.658093 0.0714579 0.
0.660214 0.0711859 0.
0.662335 0.0709046 0.
0.664453 0.0705747 0.
0.666571 0.0702427 0.
0.668687 0.0699104 0.
0.670798 0.069558 0.
0.67291 0.0692043 0.
0.675018 0.0688621 0.
0.677121 0.0685154 0.
0.679224 0.0681661 0.
0.68132 0.0678199 0.
0.683417 0.0674719 0.
0.685509 0.0671245 0.
0.687595 0.0667866 0.
0.689681 0.0664574 0.
0.691763 0.0661512 0.
0.69384 0.0658708 0.
0.695916 0.0656104 0.
0.697987 0.0654144 0.
0.700062 0.0652678 0.
0.702136 0.0651619 0.
0.496046 0.067107 0.
0.498109 0.0672071 0.
0.500174 0.0673801 0.
0.502239 0.0675899 0.
0.504305 0.0678354 0.
0.506376 0.0681229 0.
0.508447 0.0684206 0.
0.510522 0.0687382 0.
0.512602 0.0690731 0.
0.514681 0.0694166 0.
0.516766 0.0697617 0.
0.518854 0.0701022 0.
0.520943 0.0704416 0.
0.523038 0.0707838 0.
0.525133 0.0711232 0.
0.527233 0.0714549 0.
0.529337 0.0717994 0.
0.531441 0.0721423 0.
0.53355 0.072462 0.
0.535662 0.0727808 0.
0.537773 0.0730977 0.
0.539886 0.0733658 0.
0.541999 0.0736248 0.
0.544112 0.0738865 0.
0.546222 0.074116 0.
0.548331 0.0743444 0.
0.550439 0.0745894 0.
0.552545 0.0748449 0.
0.554651 0.0750964 0.
0.556753 0.0752869 0.
0.558853 0.0754764 0.
0.560953 0.0756605 0.
0.563039 0.0757757 0.
0.565125 0.0758904 0.
0.567208 0.0760023 0.
0.569287 0.0761104 0.
0.571366 0.0762186 0.
0.573439 0.0763251 0.
0.575509 0.0764322 0.
0.577579 0.076538 0.
0.579632 0.0765886 0.
0.581684 0.0766382 0.
0.583733 0.0766839 0.
0.585772 0.0767166 0.
0.587811 0.0767493 0.
0.589848 0.0767762 0.
0.591882 0.0767976 0.
0.593917 0.0768191 0.
0.59595 0.0768277 0.
0.597982 0.0768324 0.
0.600014 0.0768369 0.
0.602047 0.0768232 0.
0.604081 0.0768095 0.
0.606115 0.0767927 0.
0.608152 0.0767668 0.
0.61019 0.0767408 0.
0.61223 0.0767095 0.
0.614273 0.0766727 0.
0.616316 0.0766359 0.
0.618371 0.0765799 0.
0.620429 0.0765187 0.
0.622487 0.0764566 0.
0.624561 0.0763429 0.
0.626635 0.0762278 0.
0.628711 0.076113 0.
0.630793 0.0759965 0.
0.632875 0.07588 0.
0.634962 0.0757581 0.
0.637053 0.075633 0.
0.639144 0.0755063 0.
0.641246 0.0753044 0.
0.64335 0.0750973 0.
0.645455 0.0748905 0.
0.647562 0.0746279 0.
0.649669 0.0743612 0.
0.651778 0.0741037 0.
0.653888 0.0738641 0.
0.655999 0.0736224 0.
0.658111 0.0733489 0.
0.660225 0.0730781 0.
0.662339 0.0727982 0.
0.664449 0.0724722 0.
0.666559 0.0721443 0.
0.668666 0.0718168 0.
0.670766 0.0714703 0.
0.672868 0.0711221 0.
0.674965 0.070785 0.
0.677057 0.0704411 0.
0.679149 0.0700949 0.
0.681235 0.0697531 0.
0.683321 0.0694099 0.
0.685404 0.0690662 0.
0.687481 0.0687315 0.
0.689559 0.0684057 0.
0.691633 0.0681019 0.
0.693703 0.0678243 0.
0.695773 0.0675638 0.
0.697838 0.0673676 0.
0.699906 0.0672224 0.
0.701974 0.0671128 0.
0.496213 0.06906 0.
0.498271 0.0691633 0.
0.50033 0.0693416 0.
0.502389 0.0695516 0.
0.504448 0.0697969 0.
0.506511 0.0700836 0.
0.508575 0.0703788 0.
0.510642 0.070694 0.
0.512712 0.0710255 0.
0.514782 0.0713656 0.
0.516858 0.0717062 0.
0.518937 0.0720418 0.
0.521016 0.0723768 0.
0.523101 0.0727152 0.
0.525186 0.0730511 0.
0.527275 0.0733777 0.
0.529368 0.073717 0.
0.531461 0.0740549 0.
0.533562 0.0743706 0.
0.535664 0.0746859 0.
0.537765 0.0749996 0.
0.53987 0.0752666 0.
0.541975 0.0755242 0.
0.54408 0.0757847 0.
0.546184 0.0760144 0.
0.548288 0.0762427 0.
0.550391 0.0764872 0.
0.552493 0.0767425 0.
0.554595 0.0769939 0.
0.556694 0.077188 0.
0.558792 0.0773816 0.
0.56089 0.0775704 0.
0.562976 0.0776897 0.
0.565062 0.0778078 0.
0.567146 0.0779227 0.
0.569226 0.0780325 0.
0.571306 0.0781424 0.
0.573381 0.0782529 0.
0.575454 0.0783648 0.
0.577528 0.0784754 0.
0.579586 0.078534 0.
0.581643 0.0785914 0.
0.583698 0.0786438 0.
0.585742 0.078678 0.
0.587785 0.0787123 0.
0.589827 0.0787406 0.
0.591866 0.0787634 0.
0.593905 0.0787862 0.
0.595943 0.0787954 0.
0.597979 0.0788003 0.
0.600016 0.0788051 0.
0.602054 0.0787902 0.
0.604092 0.0787754 0.
0.606132 0.0787574 0.
0.608174 0.0787298 0.
0.610216 0.0787023 0.
0.612262 0.078669 0.
0.61431 0.07863 0.
0.616357 0.0785912 0.
0.618417 0.078528 0.
0.620479 0.0784591 0.
0.622542 0.0783893 0.
0.624618 0.0782712 0.
0.626695 0.0781519 0.
0.628773 0.0780337 0.
0.630855 0.0779156 0.
0.632937 0.0777976 0.
0.635024 0.0776723 0.
0.637114 0.0775436 0.
0.639204 0.0774126 0.
0.641303 0.077207 0.
0.643404 0.0769966 0.
0.645505 0.076787 0.
0.647608 0.0765249 0.
0.649712 0.0762587 0.
0.651815 0.0760019 0.
0.653919 0.0757626 0.
0.656024 0.0755209 0.
0.658128 0.0752493 0.
0.660232 0.0749804 0.
0.662337 0.0747022 0.
0.664438 0.0743799 0.
0.666538 0.0740562 0.
0.668636 0.0737333 0.
0.670727 0.0733923 0.
0.672817 0.0730498 0.
0.674903 0.0727179 0.
0.676985 0.0723774 0.
0.679066 0.0720347 0.
0.681143 0.071697 0.
0.683219 0.0713581 0.
0.685293 0.0710182 0.
0.687362 0.0706865 0.
0.689431 0.0703636 0.
0.691496 0.0700614 0.
0.69356 0.0697853 0.
0.695623 0.0695237 0.
0.697682 0.0693264 0.
0.699744 0.0691819 0.
0.701806 0.0690679 0.
0.496375 0.0710213 0.
0.498427 0.0711263 0.
0.50048 0.0713083 0.
0.502534 0.0715179 0.
0.504587 0.0717635 0.
0.506643 0.0720493 0.
0.508699 0.0723422 0.
0.510758 0.0726554 0.
0.512819 0.0729836 0.
0.514881 0.0733207 0.
0.516948 0.0736574 0.
0.519018 0.0739887 0.
0.521088 0.0743195 0.
0.523163 0.0746546 0.
0.525237 0.0749873 0.
0.527315 0.075309 0.
0.529399 0.0756436 0.
0.531481 0.0759767 0.
0.533572 0.0762878 0.
0.535664 0.0765986 0.
0.537756 0.0769077 0.
0.539853 0.0771719 0.
0.54195 0.0774268 0.
0.544047 0.0776852 0.
0.546146 0.0779146 0.
0.548245 0.0781424 0.
0.550343 0.0783862 0.
0.552442 0.0786413 0.
0.55454 0.0788924 0.
0.556637 0.0790898 0.
0.558733 0.0792875 0.
0.560828 0.0794808 0.
0.562914 0.0796039 0.
0.565001 0.0797252 0.
0.567086 0.0798431 0.
0.569167 0.0799544 0.
0.571249 0.0800657 0.
0.573326 0.0801795 0.
0.575402 0.0802955 0.
0.577478 0.0804103 0.
0.579541 0.0804763 0.
0.581603 0.0805413 0.
0.583663 0.0806004 0.
0.585711 0.080636 0.
0.587759 0.0806717 0.
0.589806 0.0807014 0.
0.591849 0.0807255 0.
0.593893 0.0807496 0.
0.595936 0.0807592 0.
0.597977 0.0807642 0.
0.600019 0.0807691 0.
0.602062 0.0807533 0.
0.604105 0.0807374 0.
0.606149 0.0807182 0.
0.608196 0.0806891 0.
0.610243 0.08066 0.
0.612293 0.0806249 0.
0.614346 0.0805842 0.
0.616398 0.0805435 0.
0.618461 0.0804735 0.
0.620527 0.0803971 0.
0.622594 0.08032 0.
0.624673 0.0801983 0.
0.626752 0.0800753 0.
0.628832 0.0799541 0.
0.630915 0.0798348 0.
0.632998 0.0797156 0.
0.635085 0.079587 0.
0.637174 0.0794548 0.
0.639263 0.0793195 0.
0.64136 0.0791103 0.
0.643457 0.0788968 0.
0.645556 0.0786847 0.
0.647655 0.0784234 0.
0.649754 0.0781579 0.
0.651853 0.077902 0.
0.653951 0.0776634 0.
0.65605 0.0774224 0.
0.658146 0.0771541 0.
0.660243 0.076889 0.
0.662338 0.0766143 0.
0.664428 0.0762964 0.
0.666519 0.0759769 0.
0.668607 0.0756588 0.
0.670687 0.0753231 0.
0.672768 0.0749856 0.
0.674843 0.0746585 0.
0.676915 0.0743211 0.
0.678987 0.0739817 0.
0.681054 0.0736478 0.
0.683121 0.0733128 0.
0.685186 0.0729763 0.
0.687246 0.0726471 0.
0.689306 0.072327 0.
0.691364 0.0720258 0.
0.69342 0.0717512 0.
0.695477 0.0714887 0.
0.697531 0.0712903 0.
0.699586 0.0711471 0.
0.701642 0.07103 0.
0.496527 0.0729905 0.
0.498573 0.0730962 0.
0.50062 0.0732806 0.
0.502668 0.0734893 0.
0.504715 0.0737358 0.
0.506764 0.0740211 0.
0.508812 0.0743126 0.
0.510863 0.0746245 0.
0.512916 0.0749504 0.
0.514969 0.0752853 0.
0.517027 0.0756184 0.
0.519087 0.0759457 0.
0.521146 0.0762723 0.
0.523211 0.0766039 0.
0.525276 0.0769328 0.
0.527344 0.0772487 0.
0.529418 0.0775776 0.
0.531491 0.0779053 0.
0.533572 0.0782116 0.
0.535655 0.0785176 0.
0.537739 0.0788224 0.
0.539829 0.0790842 0.
0.54192 0.0793365 0.
0.544011 0.0795928 0.
0.546106 0.0798221 0.
0.5482 0.0800494 0.
0.550295 0.0802918 0.
0.552391 0.0805456 0.
0.554487 0.0807953 0.
0.556582 0.0809946 0.
0.558677 0.0811942 0.
0.560772 0.0813896 0.
0.562859 0.0815162 0.
0.564947 0.0816403 0.
0.567033 0.0817609 0.
0.569115 0.0818735 0.
0.571197 0.0819862 0.
0.573276 0.0821026 0.
0.575354 0.0822217 0.
0.577431 0.0823396 0.
0.579498 0.0824129 0.
0.581564 0.0824855 0.
0.583627 0.0825514 0.
0.58568 0.0825886 0.
0.587733 0.0826258 0.
0.589783 0.0826571 0.
0.591832 0.0826825 0.
0.593881 0.0827078 0.
0.595928 0.0827179 0.
0.597975 0.082723 0.
0.600022 0.082728 0.
0.60207 0.082711 0.
0.604118 0.0826941 0.
0.606167 0.0826736 0.
0.608219 0.0826427 0.
0.610271 0.0826119 0.
0.612325 0.0825751 0.
0.614381 0.0825328 0.
0.616438 0.0824905 0.
0.618504 0.0824138 0.
0.620573 0.0823301 0.
0.622643 0.0822463 0.
0.624723 0.0821216 0.
0.626803 0.0819957 0.
0.628884 0.0818722 0.
0.630968 0.081752 0.
0.633051 0.0816319 0.
0.635139 0.0815008 0.
0.637228 0.0813657 0.
0.639317 0.0812268 0.
0.641413 0.0810161 0.
0.643509 0.080801 0.
0.645605 0.0805876 0.
0.647701 0.080328 0.
0.649798 0.0800643 0.
0.651893 0.0798102 0.
0.653987 0.0795721 0.
0.656081 0.0793312 0.
0.658171 0.0790659 0.
0.66026 0.0788044 0.
0.662348 0.078533 0.
0.664429 0.0782197 0.
0.66651 0.0779051 0.
0.668588 0.0775919 0.
0.670658 0.0772619 0.
0.672728 0.0769305 0.
0.674794 0.0766089 0.
0.676856 0.0762747 0.
0.678918 0.0759383 0.
0.680975 0.075608 0.
0.683033 0.0752765 0.
0.685089 0.0749429 0.
0.68714 0.0746153 0.
0.689192 0.0742969 0.
0.691243 0.0739961 0.
0.693292 0.0737223 0.
0.695341 0.0734591 0.
0.697389 0.0732592 0.
0.699438 0.0731174 0.
0.701488 0.0729984 0.
0.496685 0.0749653 0.
0.498726 0.0750729 0.
0.500767 0.0752604 0.
0.502808 0.0754686 0.
0.504848 0.0757165 0.
0.506889 0.076002 0.
0.508929 0.0762926 0.
0.510971 0.0766032 0.
0.513015 0.0769266 0.
0.515058 0.0772593 0.
0.517106 0.0775883 0.
0.519155 0.0779111 0.
0.521203 0.0782338 0.
0.523258 0.0785617 0.
0.525313 0.078887 0.
0.527372 0.0791975 0.
0.529436 0.0795212 0.
0.531498 0.0798442 0.
0.53357 0.0801459 0.
0.535646 0.0804468 0.
0.537722 0.0807466 0.
0.539806 0.0810049 0.
0.541891 0.0812529 0.
0.543978 0.081505 0.
0.546067 0.0817333 0.
0.548157 0.0819593 0.
0.550249 0.0821993 0.
0.552342 0.0824512 0.
0.554435 0.0826992 0.
0.556529 0.0828996 0.
0.558623 0.0831008 0.
0.560716 0.0832981 0.
0.562805 0.0834282 0.
0.564893 0.0835552 0.
0.56698 0.0836784 0.
0.569063 0.0837925 0.
0.571146 0.0839067 0.
0.573226 0.0840258 0.
0.575306 0.0841479 0.
0.577385 0.0842689 0.
0.579455 0.0843493 0.
0.581524 0.0844295 0.
0.583591 0.0845023 0.
0.585648 0.0845411 0.
0.587706 0.08458 0.
0.589761 0.0846128 0.
0.591815 0.0846394 0.
0.593869 0.0846661 0.
0.595921 0.0846766 0.
0.597973 0.0846818 0.
0.600025 0.0846868 0.
0.602078 0.0846688 0.
0.604131 0.0846508 0.
0.606185 0.084629 0.
0.608242 0.0845964 0.
0.610298 0.0845638 0.
0.612357 0.0845253 0.
0.614417 0.0844813 0.
0.616478 0.0844374 0.
0.618548 0.0843539 0.
0.620619 0.084263 0.
0.622692 0.0841725 0.
0.624773 0.0840448 0.
0.626854 0.083916 0.
0.628936 0.0837903 0.
0.63102 0.0836691 0.
0.633104 0.0835481 0.
0.635192 0.0834144 0.
0.637282 0.0832765 0.
0.639372 0.0831341 0.
0.641465 0.0829221 0.
0.643559 0.0827061 0.
0.645654 0.082492 0.
0.647746 0.0822346 0.
0.649839 0.0819731 0.
0.651931 0.0817219 0.
0.654019 0.0814854 0.
0.656108 0.0812459 0.
0.658192 0.0809855 0.
0.660276 0.0807292 0.
0.662358 0.0804618 0.
0.664429 0.0801534 0.
0.666501 0.0798439 0.
0.66857 0.0795355 0.
0.670629 0.0792103 0.
0.672689 0.0788842 0.
0.674745 0.0785677 0.
0.676797 0.0782368 0.
0.678849 0.0779037 0.
0.680896 0.0775771 0.
0.682943 0.0772495 0.
0.684989 0.0769192 0.
0.687032 0.0765929 0.
0.689075 0.0762758 0.
0.691118 0.0759751 0.
0.693159 0.0757019 0.
0.695201 0.0754375 0.
0.697243 0.0752348 0.
0.699285 0.0750936 0.
0.701329 0.0749719 0.
0.496858 0.0769428 0.
0.498892 0.0770553 0.
0.500925 0.0772476 0.
0.502958 0.0774566 0.
0.50499 0.0777061 0.
0.507022 0.0779916 0.
0.509054 0.078281 0.
0.511086 0.0785903 0.
0.51312 0.0789115 0.
0.515154 0.0792423 0.
0.517191 0.0795683 0.
0.519229 0.0798879 0.
0.521266 0.0802075 0.
0.52331 0.0805319 0.
0.525353 0.0808533 0.
0.527402 0.0811575 0.
0.529455 0.0814755 0.
0.531508 0.0817925 0.
0.533571 0.0820879 0.
0.535639 0.0823825 0.
0.537706 0.0826766 0.
0.539783 0.0829308 0.
0.541863 0.083174 0.
0.543944 0.0834217 0.
0.546028 0.0836488 0.
0.548113 0.0838734 0.
0.5502 0.0841105 0.
0.55229 0.0843597 0.
0.554379 0.0846051 0.
0.556472 0.0848063 0.
0.558564 0.0850083 0.
0.560656 0.0852067 0.
0.562745 0.0853402 0.
0.564833 0.0854697 0.
0.56692 0.0855954 0.
0.569004 0.0857103 0.
0.571088 0.0858252 0.
0.57317 0.0859455 0.
0.57525 0.0860692 0.
0.577331 0.0861916 0.
0.579405 0.0862776 0.
0.581478 0.0863639 0.
0.58355 0.0864424 0.
0.585612 0.0864822 0.
0.587675 0.086522 0.
0.589736 0.0865558 0.
0.591795 0.0865833 0.
0.593855 0.0866108 0.
0.595913 0.0866217 0.
0.597971 0.0866269 0.
0.600028 0.0866319 0.
0.602087 0.0866132 0.
0.604146 0.0865945 0.
0.606206 0.0865718 0.
0.608267 0.0865381 0.
0.610329 0.0865045 0.
0.612393 0.0864649 0.
0.614458 0.0864199 0.
0.616523 0.0863749 0.
0.618596 0.0862858 0.
0.620671 0.0861892 0.
0.622747 0.0860935 0.
0.624829 0.0859644 0.
0.626911 0.0858343 0.
0.628994 0.0857075 0.
0.631079 0.0855859 0.
0.633163 0.0854645 0.
0.635252 0.0853286 0.
0.637341 0.0851885 0.
0.639431 0.085043 0.
0.641522 0.0848304 0.
0.643614 0.084614 0.
0.645706 0.0843994 0.
0.647794 0.0841445 0.
0.649882 0.0838856 0.
0.651969 0.0836376 0.
0.654051 0.0834028 0.
0.656134 0.083165 0.
0.658212 0.0829102 0.
0.66029 0.0826599 0.
0.662364 0.0823976 0.
0.664427 0.0820951 0.
0.66649 0.081792 0.
0.66855 0.0814899 0.
0.670598 0.0811702 0.
0.672648 0.0808493 0.
0.674693 0.0805388 0.
0.676733 0.0802113 0.
0.678774 0.0798813 0.
0.68081 0.079557 0.
0.682846 0.0792321 0.
0.684883 0.078904 0.
0.686917 0.0785788 0.
0.688951 0.078263 0.
0.690985 0.0779627 0.
0.693018 0.0776901 0.
0.695052 0.0774247 0.
0.697085 0.0772184 0.
0.69912 0.0770761 0.
0.701156 0.0769498 0.
0.497042 0.0789283 0.
0.499068 0.0790469 0.
0.501093 0.0792445 0.
0.503117 0.0794549 0.
0.50514 0.0797069 0.
0.507162 0.0799925 0.
0.509184 0.0802814 0.
0.511206 0.0805897 0.
0.51323 0.0809089 0.
0.515253 0.0812376 0.
0.51728 0.0815602 0.
0.519306 0.0818764 0.
0.521333 0.0821923 0.
0.523365 0.0825123 0.
0.525397 0.0828292 0.
0.527434 0.0831269 0.
0.529477 0.0834389 0.
0.53152 0.08375 0.
0.533574 0.084039 0.
0.535632 0.0843271 0.
0.53769 0.0846154 0.
0.53976 0.0848652 0.
0.541833 0.085103 0.
0.543906 0.0853453 0.
0.545986 0.0855704 0.
0.548065 0.0857928 0.
0.550149 0.0860258 0.
0.552236 0.0862716 0.
0.554322 0.0865137 0.
0.556413 0.0867147 0.
0.558503 0.0869165 0.
0.560594 0.0871153 0.
0.562683 0.0872519 0.
0.564771 0.0873838 0.
0.566859 0.0875117 0.
0.568943 0.0876272 0.
0.571027 0.0877426 0.
0.57311 0.0878639 0.
0.575193 0.0879888 0.
0.577276 0.0881127 0.
0.579354 0.0882039 0.
0.581431 0.0882961 0.
0.583507 0.0883803 0.
0.585575 0.0884212 0.
0.587643 0.0884621 0.
0.58971 0.088497 0.
0.591775 0.0885255 0.
0.593841 0.088554 0.
0.595905 0.0885652 0.
0.597969 0.0885705 0.
0.600032 0.0885756 0.
0.602097 0.088556 0.
0.604161 0.0885365 0.
0.606227 0.0885128 0.
0.608294 0.0884781 0.
0.610361 0.0884434 0.
0.612429 0.0884025 0.
0.614499 0.0883563 0.
0.616569 0.0883101 0.
0.618646 0.0882155 0.
0.620725 0.0881135 0.
0.622804 0.088013 0.
0.624888 0.0878828 0.
0.626971 0.0877515 0.
0.629055 0.0876239 0.
0.63114 0.087502 0.
0.633225 0.0873802 0.
0.635313 0.0872424 0.
0.637402 0.0871004 0.
0.639491 0.0869524 0.
0.641581 0.0867402 0.
0.64367 0.0865245 0.
0.64576 0.0863106 0.
0.647844 0.0860586 0.
0.649928 0.0858029 0.
0.65201 0.0855594 0.
0.654087 0.0853274 0.
0.656164 0.0850921 0.
0.658234 0.0848431 0.
0.660303 0.0845991 0.
0.66237 0.0843418 0.
0.664424 0.0840454 0.
0.666477 0.0837487 0.
0.668527 0.0834531 0.
0.670565 0.083139 0.
0.672604 0.0828239 0.
0.674638 0.0825199 0.
0.676667 0.0821968 0.
0.678696 0.0818709 0.
0.680721 0.0815492 0.
0.682746 0.0812268 0.
0.684772 0.080901 0.
0.686796 0.0805769 0.
0.68882 0.0802622 0.
0.690844 0.0799616 0.
0.692867 0.079689 0.
0.694892 0.0794226 0.
0.696917 0.0792118 0.
0.698942 0.0790681 0.
0.700969 0.078937 0.
0.497223 0.0809227 0.
0.49924 0.0810483 0.
0.501256 0.0812505 0.
0.50327 0.0814622 0.
0.505283 0.0817165 0.
0.507295 0.0820019 0.
0.509306 0.0822902 0.
0.511318 0.082597 0.
0.513331 0.0829135 0.
0.515342 0.0832398 0.
0.517358 0.0835588 0.
0.519374 0.0838716 0.
0.52139 0.0841841 0.
0.523411 0.0844999 0.
0.525432 0.0848123 0.
0.527459 0.0851036 0.
0.529492 0.0854097 0.
0.531526 0.0857147 0.
0.533571 0.0859968 0.
0.53562 0.0862784 0.
0.53767 0.0865606 0.
0.539733 0.0868049 0.
0.5418 0.0870357 0.
0.543867 0.0872715 0.
0.545942 0.0874942 0.
0.548017 0.0877139 0.
0.550098 0.0879423 0.
0.552182 0.0881845 0.
0.554265 0.0884232 0.
0.556355 0.0886237 0.
0.558444 0.0888252 0.
0.560533 0.0890239 0.
0.562622 0.0891637 0.
0.564711 0.0892978 0.
0.566798 0.0894281 0.
0.568883 0.089544 0.
0.570968 0.0896599 0.
0.573053 0.0897819 0.
0.575138 0.0899077 0.
0.577223 0.0900324 0.
0.579305 0.0901284 0.
0.581386 0.0902259 0.
0.583467 0.0903155 0.
0.58554 0.0903572 0.
0.587613 0.0903988 0.
0.589685 0.0904347 0.
0.591756 0.0904641 0.
0.593828 0.0904936 0.
0.595897 0.0905051 0.
0.597967 0.0905104 0.
0.600036 0.0905155 0.
0.602106 0.0904953 0.
0.604176 0.0904751 0.
0.606247 0.0904506 0.
0.608319 0.0904149 0.
0.610391 0.0903793 0.
0.612464 0.0903374 0.
0.614539 0.0902903 0.
0.616613 0.0902432 0.
0.618694 0.0901434 0.
0.620776 0.0900363 0.
0.622859 0.0899316 0.
0.624944 0.0898006 0.
0.627029 0.0896686 0.
0.629115 0.0895405 0.
0.6312 0.0894181 0.
0.633285 0.0892958 0.
0.635373 0.0891559 0.
0.637462 0.0890122 0.
0.639551 0.0888615 0.
0.641639 0.0886501 0.
0.643727 0.0884356 0.
0.645814 0.0882228 0.
0.647895 0.0879742 0.
0.649975 0.0877219 0.
0.652053 0.0874836 0.
0.654125 0.0872553 0.
0.656197 0.0870237 0.
0.658261 0.0867814 0.
0.660323 0.0865444 0.
0.662382 0.0862928 0.
0.664428 0.0860026 0.
0.666472 0.0857126 0.
0.668513 0.0854237 0.
0.670541 0.0851155 0.
0.67257 0.0848059 0.
0.674593 0.0845081 0.
0.676611 0.0841891 0.
0.678629 0.083867 0.
0.680642 0.0835481 0.
0.682656 0.0832286 0.
0.684671 0.0829057 0.
0.686683 0.0825833 0.
0.688696 0.0822706 0.
0.690709 0.0819701 0.
0.692723 0.0816971 0.
0.694737 0.0814296 0.
0.696752 0.0812141 0.
0.698767 0.0810695 0.
0.700784 0.0809347 0.
0.497386 0.0829259 0.
0.499394 0.0830584 0.
0.5014 0.0832647 0.
0.503404 0.083478 0.
0.505405 0.0837348 0.
0.507406 0.0840202 0.
0.509405 0.0843084 0.
0.511406 0.0846138 0.
0.513406 0.0849281 0.
0.515405 0.0852523 0.
0.517409 0.0855679 0.
0.519414 0.0858767 0.
0.52142 0.0861849 0.
0.523432 0.0864962 0.
0.525443 0.0868042 0.
0.527462 0.0870881 0.
0.529488 0.0873863 0.
0.531514 0.0876836 0.
0.533553 0.0879589 0.
0.535595 0.0882345 0.
0.537638 0.0885109 0.
0.539696 0.0887493 0.
0.541758 0.0889726 0.
0.543822 0.0892019 0.
0.545894 0.0894226 0.
0.547967 0.08964 0.
0.550046 0.0898634 0.
0.552128 0.0901014 0.
0.554211 0.090336 0.
0.5563 0.090535 0.
0.558389 0.0907352 0.
0.560479 0.0909331 0.
0.562568 0.091075 0.
0.564657 0.0912107 0.
0.566746 0.0913427 0.
0.568832 0.0914588 0.
0.570919 0.091575 0.
0.573005 0.091697 0.
0.575092 0.0918231 0.
0.577178 0.0919483 0.
0.579263 0.092048 0.
0.581347 0.09215 0.
0.58343 0.0922441 0.
0.585508 0.0922864 0.
0.587587 0.0923287 0.
0.589664 0.0923654 0.
0.59174 0.0923958 0.
0.593816 0.0924262 0.
0.595891 0.092438 0.
0.597965 0.0924434 0.
0.60004 0.0924485 0.
0.602115 0.0924277 0.
0.604189 0.092407 0.
0.606264 0.0923818 0.
0.608341 0.0923453 0.
0.610417 0.0923089 0.
0.612494 0.0922662 0.
0.614573 0.0922184 0.
0.616651 0.0921707 0.
0.618735 0.0920662 0.
0.620819 0.0919549 0.
0.622904 0.0918465 0.
0.624991 0.0917154 0.
0.627077 0.0915834 0.
0.629164 0.0914553 0.
0.631251 0.0913326 0.
0.633338 0.0912099 0.
0.635426 0.0910685 0.
0.637516 0.0909236 0.
0.639605 0.090771 0.
0.641693 0.0905615 0.
0.643781 0.0903494 0.
0.645868 0.0901392 0.
0.647947 0.0898945 0.
0.650026 0.0896463 0.
0.652101 0.0894136 0.
0.65417 0.0891884 0.
0.656239 0.08896 0.
0.658298 0.0887245 0.
0.660356 0.088495 0.
0.662409 0.0882491 0.
0.664447 0.087965 0.
0.666484 0.0876814 0.
0.668517 0.0873995 0.
0.670538 0.0870988 0.
0.672559 0.0867968 0.
0.674573 0.0865059 0.
0.676581 0.0861907 0.
0.678589 0.0858724 0.
0.680591 0.0855571 0.
0.682594 0.085241 0.
0.684596 0.084921 0.
0.686595 0.0845997 0.
0.688595 0.0842884 0.
0.690596 0.0839881 0.
0.692598 0.0837141 0.
0.694601 0.0834452 0.
0.696605 0.0832249 0.
0.698611 0.0830791 0.
0.700618 0.0829414 0.
0.497533 0.084938 0.
0.499531 0.0850783 0.
0.501526 0.0852885 0.
0.503519 0.0855038 0.
0.50551 0.0857626 0.
0.507499 0.086048 0.
0.509487 0.0863362 0.
0.511475 0.0866403 0.
0.513464 0.0869521 0.
0.515451 0.0872737 0.
0.517445 0.0875849 0.
0.51944 0.0878891 0.
0.521435 0.0881924 0.
0.523438 0.0884992 0.
0.525441 0.0888026 0.
0.527453 0.0890786 0.
0.529473 0.0893684 0.
0.531493 0.0896577 0.
0.533526 0.0899269 0.
0.535563 0.0901964 0.
0.537602 0.0904666 0.
0.539657 0.0906988 0.
0.541717 0.0909143 0.
0.543778 0.0911367 0.
0.545848 0.0913545 0.
0.547917 0.0915687 0.
0.549995 0.0917861 0.
0.552076 0.0920195 0.
0.554159 0.0922497 0.
0.556247 0.092447 0.
0.558336 0.0926456 0.
0.560425 0.0928424 0.
0.562515 0.0929864 0.
0.564604 0.0931235 0.
0.566694 0.0932571 0.
0.568782 0.0933735 0.
0.57087 0.0934899 0.
0.572958 0.093612 0.
0.575045 0.0937386 0.
0.577133 0.0938641 0.
0.57922 0.0939675 0.
0.581307 0.0940739 0.
0.583394 0.0941727 0.
0.585477 0.0942156 0.
0.58756 0.0942586 0.
0.589643 0.0942961 0.
0.591724 0.0943275 0.
0.593805 0.0943589 0.
0.595885 0.094371 0.
0.597964 0.0943764 0.
0.600044 0.0943815 0.
0.602123 0.0943602 0.
0.604203 0.0943389 0.
0.606282 0.094313 0.
0.608363 0.0942757 0.
0.610443 0.0942385 0.
0.612524 0.094195 0.
0.614607 0.0941466 0.
0.616689 0.0940981 0.
0.618775 0.093989 0.
0.620862 0.0938733 0.
0.622949 0.0937615 0.
0.625037 0.0936302 0.
0.627125 0.093498 0.
0.629213 0.0933701 0.
0.631301 0.0932469 0.
0.633389 0.0931238 0.
0.635479 0.0929809 0.
0.637568 0.0928351 0.
0.639658 0.0926809 0.
0.641746 0.0924733 0.
0.643834 0.0922639 0.
0.64592 0.0920565 0.
0.647998 0.0918164 0.
0.650076 0.091573 0.
0.652149 0.091347 0.
0.654215 0.0911258 0.
0.65628 0.090901 0.
0.658335 0.0906722 0.
0.66039 0.0904505 0.
0.662439 0.0902108 0.
0.664473 0.0899333 0.
0.666505 0.0896563 0.
0.668532 0.0893808 0.
0.670546 0.0890879 0.
0.67256 0.0887941 0.
0.674567 0.0885107 0.
0.676565 0.0881994 0.
0.678563 0.087885 0.
0.680555 0.0875739 0.
0.682547 0.087262 0.
0.684539 0.0869459 0.
0.686525 0.086626 0.
0.688512 0.086316 0.
0.690501 0.0860157 0.
0.692492 0.0857406 0.
0.694484 0.0854702 0.
0.696477 0.0852452 0.
0.698473 0.0850977 0.
0.700469 0.0849568 0.
0.497655 0.0869571 0.
0.499644 0.087105 0.
0.501629 0.0873183 0.
0.503613 0.0875355 0.
0.505592 0.0877958 0.
0.507571 0.0880809 0.
0.509548 0.0883688 0.
0.511525 0.0886714 0.
0.513503 0.0889806 0.
0.515481 0.0892994 0.
0.517465 0.0896065 0.
0.519451 0.0899063 0.
0.521439 0.0902048 0.
0.523434 0.0905068 0.
0.525429 0.0908056 0.
0.527437 0.0910732 0.
0.529452 0.0913549 0.
0.531468 0.0916364 0.
0.533497 0.0918992 0.
0.535531 0.0921619 0.
0.537567 0.0924254 0.
0.539619 0.0926511 0.
0.541676 0.0928583 0.
0.543735 0.0930732 0.
0.545802 0.0932875 0.
0.54787 0.0934982 0.
0.549946 0.0937097 0.
0.552027 0.0939386 0.
0.554108 0.0941645 0.
0.556196 0.0943601 0.
0.558285 0.0945572 0.
0.560374 0.0947528 0.
0.562464 0.0948985 0.
0.564554 0.0950365 0.
0.566645 0.0951715 0.
0.568734 0.0952879 0.
0.570823 0.0954045 0.
0.572913 0.095526 0.
0.575002 0.095652 0.
0.577092 0.0957771 0.
0.579182 0.0958823 0.
0.581271 0.0959908 0.
0.583361 0.0960921 0.
0.585448 0.0961356 0.
0.587536 0.0961791 0.
0.589623 0.0962172 0.
0.591708 0.0962488 0.
0.593794 0.0962805 0.
0.595879 0.0962929 0.
0.597963 0.0962984 0.
0.600048 0.0963037 0.
0.602132 0.0962824 0.
0.604216 0.0962611 0.
0.6063 0.0962352 0.
0.608384 0.0961978 0.
0.610468 0.0961603 0.
0.612552 0.0961163 0.
0.614638 0.0960673 0.
0.616724 0.0960182 0.
0.618812 0.0959063 0.
0.620901 0.0957882 0.
0.62299 0.0956746 0.
0.62508 0.0955437 0.
0.627169 0.095412 0.
0.629259 0.0952845 0.
0.631349 0.0951613 0.
0.633438 0.095038 0.
0.635529 0.0948942 0.
0.637619 0.0947478 0.
0.639709 0.0945922 0.
0.641797 0.0943867 0.
0.643884 0.0941796 0.
0.64597 0.0939747 0.
0.648047 0.093739 0.
0.650124 0.0935002 0.
0.652195 0.0932809 0.
0.654258 0.0930641 0.
0.65632 0.0928436 0.
0.658372 0.0926222 0.
0.660423 0.0924087 0.
0.662469 0.0921755 0.
0.6645 0.0919052 0.
0.666528 0.0916356 0.
0.668551 0.091367 0.
0.67056 0.0910818 0.
0.672569 0.090796 0.
0.67457 0.0905204 0.
0.67656 0.0902131 0.
0.67855 0.0899025 0.
0.680533 0.0895955 0.
0.682516 0.0892874 0.
0.684498 0.0889748 0.
0.686474 0.0886566 0.
0.688451 0.088348 0.
0.690429 0.0880483 0.
0.692409 0.0877727 0.
0.69439 0.0875017 0.
0.696373 0.0872725 0.
0.69836 0.0871228 0.
0.700347 0.0869787 0.
0.497746 0.088981 0.
0.499726 0.089136 0.
0.501701 0.0893525 0.
0.503676 0.089572 0.
0.505646 0.0898338 0.
0.507614 0.0901195 0.
0.509582 0.0904075 0.
0.511551 0.0907078 0.
0.513522 0.0910142 0.
0.515493 0.09133 0.
0.517471 0.0916331 0.
0.519452 0.0919284 0.
0.521434 0.092222 0.
0.523425 0.0925197 0.
0.525417 0.0928141 0.
0.527421 0.0930731 0.
0.529432 0.0933466 0.
0.531444 0.0936201 0.
0.533471 0.0938765 0.
0.535503 0.0941326 0.
0.537538 0.0943887 0.
0.539589 0.0946076 0.
0.541644 0.0948069 0.
0.543702 0.0950142 0.
0.545767 0.0952251 0.
0.547834 0.0954322 0.
0.549908 0.095637 0.
0.551988 0.0958609 0.
0.554068 0.0960819 0.
0.556155 0.0962752 0.
0.558243 0.0964704 0.
0.560331 0.0966644 0.
0.562422 0.0968107 0.
0.564512 0.0969489 0.
0.566602 0.0970844 0.
0.568691 0.0972013 0.
0.570781 0.0973182 0.
0.572871 0.0974393 0.
0.574962 0.0975646 0.
0.577053 0.0976891 0.
0.579145 0.0977951 0.
0.581237 0.0979049 0.
0.58333 0.0980081 0.
0.585421 0.0980523 0.
0.587512 0.0980966 0.
0.589603 0.0981353 0.
0.591693 0.0981673 0.
0.593783 0.0981993 0.
0.595873 0.098212 0.
0.597963 0.0982178 0.
0.600052 0.0982232 0.
0.602141 0.098202 0.
0.604229 0.0981808 0.
0.606317 0.0981548 0.
0.608404 0.0981173 0.
0.610492 0.0980798 0.
0.61258 0.0980352 0.
0.614668 0.0979853 0.
0.616757 0.0979352 0.
0.618848 0.0978212 0.
0.620939 0.0977015 0.
0.62303 0.0975867 0.
0.62512 0.0974564 0.
0.62721 0.0973253 0.
0.629301 0.0971982 0.
0.63139 0.0970747 0.
0.633479 0.096951 0.
0.63557 0.0968071 0.
0.63766 0.0966608 0.
0.63975 0.0965049 0.
0.641837 0.0963017 0.
0.643923 0.0960974 0.
0.646008 0.0958959 0.
0.648085 0.0956657 0.
0.650161 0.0954322 0.
0.65223 0.09522 0.
0.654291 0.095007 0.
0.656351 0.0947902 0.
0.658402 0.0945762 0.
0.66045 0.0943706 0.
0.662494 0.0941443 0.
0.664523 0.0938818 0.
0.66655 0.0936192 0.
0.66857 0.0933575 0.
0.670575 0.0930804 0.
0.672579 0.0928028 0.
0.674576 0.0925353 0.
0.676562 0.0922319 0.
0.678547 0.0919251 0.
0.680526 0.0916224 0.
0.682503 0.0913181 0.
0.684479 0.091009 0.
0.686448 0.0906928 0.
0.688417 0.0903857 0.
0.690386 0.0900868 0.
0.692355 0.0898102 0.
0.694326 0.089538 0.
0.6963 0.0893048 0.
0.698278 0.0891521 0.
0.700256 0.0890047 0.
CELLS 5000 10000
1 0
1 1
1 2
1 3
1 4
1 5
1 6
1 7
1 8
1 9
1 10
1 11
1 12
1 13
1 14
1 15
1 16
1 17
1 18
1 19
1 20
1 21
1 22
1 23
1 24
1 25
1 26
1 27
1 28
1 29
1 30
1 31
1 32
1 33
1 34
1 35
1 36
1 37
1 38
1 39
1 40
1 41
1 42
1 43
1 44
1 45
1 46
1 47
1 48
1 49
1 50
1 51
1 52
1 53
1 54
1 55
1 56
1 57
1 58
1 59
1 60
1 61
1 62
1 63
1 64
1 65
1 66
1 67
1 68
1 69
1 70
1 71
1 72
1 73
1 74
1 75
1 76
1 77
1 78
1 79
1 80
1 81
1 82
1 83
1 84
1 85
1 86
1 87
1 88
1 89
1 90
1 91
1 92
1 93
1 94
1 95
1 96
1 97
1 98
1 99
1 100
1 101
1 102
1 103
1 104
1 105
1 106
1 107
1 108
1 109
1 110
1 111
1 112
1 113
1 114
1 115
1 116
1 117
1 118
1 119
1 120
1 121
1 122
1 123
1 124
1 125
1 126
1 127
1 128
1 129
1 130
1 131
1 132
1 133
1 134
1 135
1 136
1 137
1 138
1 139
1 140
1 141
1 142
1 143
1 144
1 145
1 146
1 147
1 148
1 149
1 150
1 151
1 152
1 153
1 154
1 155
1 156
1 157
1 158
1 159
1 160
1 161
1 162
1 163
1 164
1 165
1 166
1 167
1 168
1 169
1 170
1 171
1 172
1 173
1 174
1 175
1 176
1 177
1 178
1 179
1 180
1 181
1 182
1 183
1 184
1 185
1 186
1 187
1 188
1 189
1 190
1 191
1 192
1 193
1 194
1 195
1 196
1 197
1 198
1 199
1 200
1 201
1 202
1 203
1 204
1 205
1 206
1 207
1 208
1 209
1 210
1 211
1 212
1 213
1 214
1 215
1 216
1 217
1 218
1 219
1 220
1 221
1 222
1 223
1 224
1 225
1 226
1 227
1 228
1 229
1 230
1 231
1 232
1 233
1 234
1 235
1 236
1 237
1 238
1 239
1 240
1 241
1 242
1 243
1 244
1 245
1 246
1 247
1 248
1 249
1 250
1 251
1 252
1 253
1 254
1 255
1 256
1 257
1 258
1 259
1 260
1 261
1 262
1 263
1 264
1 265
1 266
1 267
1 268
1 269
1 270
1 271
1 272
1 273
1 274
1 275
1 276
1 277
1 278
1 279
1 280
1 281
1 282
1 283
1 284
1 285
1 286
1 287
1 288
1 289
1 290
1 291
1 292
1 293
1 294
1 295
1 296
1 297
1 298
1 299
1 300
1 301
1 302
1 303
1 304
1 305
1 306
1 307
1 308
1 309
1 310
1 311
1 312
1 313
1 314
1 315
1 316
1 317
1 318
1 319
1 320
1 321
1 322
1 323
1 324
1 325
1 326
1 327
1 328
1 329
1 330
1 331
1 332
1 333
1 334
1 335
1 336
1 337
1 338
1 339
1 340
1 341
1 342
1 343
1 344
1 345
1 346
1 347
1 348
1 349
1 350
1 351
1 352
1 353
1 354
1 355
1 356
1 357
1 358
1 359
1 360
1 361
1 362
1 363
1 364
1 365
1 366
1 367
1 368
1 369
1 370
1 371
1 372
1 373
1 374
1 375
1 376
1 377
1 378
1 379
1 380
1 381
1 382
1 383
1 384
1 385
1 386
1 387
1 388
1 389
1 390
1 391
1 392
1 393
1 394
1 395
1 396
1 397
1 398
1 399
1 400
1 401
1 402
1 403
1 404
1 405
1 406
1 407
1 408
1 409
1 410
1 411
1 412
1 413
1 414
1 415
1 416
1 417
1 418
1 419
1 420
1 421
1 422
1 423
1 424
1 425
1 426
1 427
1 428
1 429
1 430
1 431
1 432
1 433
1 434
1 435
1 436
1 437
1 438
1 439
1 440
1 441
1 442
1 443
1 444
1 445
1 446
1 447
1 448
1 449
1 450
1 451
1 452
1 453
1 454
1 455
1 456
1 457
1 458
1 459
1 460
1 461
1 462
1 463
1 464
1 465
1 466
1 467
1 468
1 469
1 470
1 471
1 472
1 473
1 474
1 475
1 476
1 477
1 478
1 479
1 480
1 481
1 482
1 483
1 484
1 485
1 486
1 487
1 488
1 489
1 490
1 491
1 492
1 493
1 494
1 495
1 496
1 497
1 498
1 499
1 500
1 501
1 502
1 503
1 504
1 505
1 506
1 507
1 508
1 509
1 510
1 511
1 512
1 513
1 514
1 515
1 516
1 517
1 518
1 519
1 520
1 521
1 522
1 523
1 524
1 525
1 526
1 527
1 528
1 529
1 530
1 531
1 532
1 533
1 534
1 535
1 536
1 537
1 538
1 539
1 540
1 541
1 542
1 543
1 544
1 545
1 546
1 547
1 548
1 549
1 550
1 551
1 552
1 553
1 554
1 555
1 556
1 557
1 558
1 559
1 560
1 561
1 562
1 563
1 564
1 565
1 566
1 567
1 568
1 569
1 570
1 571
1 572
1 573
1 574
1 575
1 576
1 577
1 578
1 579
1 580
1 581
1 582
1 583
1 584
1 585
1 586
1 587
1 588
1 589
1 590
1 591
1 592
1 593
1 594
1 595
1 596
1 597
1 598
1 599
1 600
1 601
1 602
1 603
1 604
1 605
1 606
1 607
1 608
1 609
1 610
1 611
1 612
1 613
1 614
1 615
1 616
1 617
1 618
1 619
1 620
1 621
1 622
1 623
1 624
1 625
1 626
1 627
1 628
1 629
1 630
1 631
1 632
1 633
1 634
1 635
1 636
1 637
1 638
1 639
1 640
1 641
1 642
1 643
1 644
1 645
1 646
1 647
1 648
1 649
1 650
1 651
1 652
1 653
1 654
1 655
1 656
1 657
1 658
1 659
1 660
1 661
1 662
1 663
1 664
1 665
1 666
1 667
1 668
1 669
1 670
1 671
1 672
1 673
1 674
1 675
1 676
1 677
1 678
1 679
1 680
1 681
1 682
1 683
1 684
1 685
1 686
1 687
1 688
1 689
1 690
1 691
1 692
1 693
1 694
1 695
1 696
1 697
1 698
1 699
1 700
1 701
1 702
1 703
1 704
1 705
1 706
1 707
1 708
1 709
1 710
1 711
1 712
1 713
1 714
1 715
1 716
1 717
1 718
1 719
1 720
1 721
1 722
1 723
1 724
1 725
1 726
1 727
1 728
1 729
1 730
1 731
1 732
1 733
1 734
1 735
1 736
1 737
1 738
1 739
1 740
1 741
1 742
1 743
1 744
1 745
1 746
1 747
1 748
1 749
1 750
1 751
1 752
1 753
1 754
1 755
1 756
1 757
1 758
1 759
1 760
1 761
1 762
1 763
1 764
1 765
1 766
1 767
1 768
1 769
1 770
1 771
1 772
1 773
1 774
1 775
1 776
1 777
1 778
1 779
1 780
1 781
1 782
1 783
1 784
1 785
1 786
1 787
1 788
1 789
1 790
1 791
1 792
1 793
1 794
1 795
1 796
1 797
1 798
1 799
1 800
1 801
1 802
1 803
1 804
1 805
1 806
1 807
1 808
1 809
1 810
1 811
1 812
1 813
1 814
1 815
1 816
1 817
1 818
1 819
1 820
1 821
1 822
1 823
1 824
1 825
1 826
1 827
1 828
1 829
1 830
1 831
1 832
1 833
1 834
1 835
1 836
1 837
1 838
1 839
1 840
1 841
1 842
1 843
1 844
1 845
1 846
1 847
1 848
1 849
1 850
1 851
1 852
1 853
1 854
1 855
1 856
1 857
1 858
1 859
1 860
1 861
1 862
1 863
1 864
1 865
1 866
1 867
1 868
1 869
1 870
1 871
1 872
1 873
1 874
1 875
1 876
1 877
1 878
1 879
1 880
1 881
1 882
1 883
1 884
1 885
1 886
1 887
1 888
1 889
1 890
1 891
1 892
1 893
1 894
1 895
1 896
1 897
1 898
1 899
1 900
1 901
1 902
1 903
1 904
1 905
1 906
1 907
1 908
1 909
1 910
1 911
1 912
1 913
1 914
1 915
1 916
1 917
1 918
1 919
1 920
1 921
1 922
1 923
1 924
1 925
1 926
1 927
1 928
1 929
1 930
1 931
1 932
1 933
1 934
1 935
1 936
1 937
1 938
1 939
1 940
1 941
1 942
1 943
1 944
1 945
1 946
1 947
1 948
1 949
1 950
1 951
1 952
1 953
1 954
1 955
1 956
1 957
1 958
1 959
1 960
1 961
1 962
1 963
1 964
1 965
1 966
1 967
1 968
1 969
1 970
1 971
1 972
1 973
1 974
1 975
1 976
1 977
1 978
1 979
1 980
1 981
1 982
1 983
1 984
1 985
1 986
1 987
1 988
1 989
1 990
1 991
1 992
1 993
1 994
1 995
1 996
1 997
1 998
1 999
1 1000
1 1001
1 1002
1 1003
1 1004
1 1005
1 1006
1 1007
1 1008
1 1009
1 1010
1 1011
1 1012
1 1013
1 1014
1 1015
1 1016
1 1017
1 1018
1 1019
1 1020
1 1021
1 1022
1 1023
1 1024
1 1025
1 1026
1 1027
1 1028
1 1029
1 1030
1 1031
1 1032
1 1033
1 1034
1 1035
1 1036
1 1037
1 1038
1 1039
1 1040
1 1041
1 1042
1 1043
1 1044
1 1045
1 1046
1 1047
1 1048
1 1049
1 1050
1 1051
1 1052
1 1053
1 1054
1 1055
1 1056
1 1057
1 1058
1 1059
1 1060
1 1061
1 1062
1 1063
1 1064
1 1065
1 1066
1 1067
1 1068
1 1069
1 1070
1 1071
1 1072
1 1073
1 1074
1 1075
1 1076
1 1077
1 1078
1 1079
1 1080
1 1081
1 1082
1 1083
1 1084
1 1085
1 1086
1 1087
1 1088
1 1089
1 1090
1 1091
1 1092
1 1093
1 1094
1 1095
1 1096
1 1097
1 1098
1 1099
1 1100
1 1101
1 1102
1 1103
1 1104
1 1105
1 1106
1 1107
1 1108
1 1109
1 1110
1 1111
1 1112
1 1113
1 1114
1 1115
1 1116
1 1117
1 1118
1 1119
1 1120
1 1121
1 1122
1 1123
1 1124
1 1125
1 1126
1 1127
1 1128
1 1129
1 1130
1 1131
1 1132
1 1133
1 1134
1 1135
1 1136
1 1137
1 1138
1 1139
1 1140
1 1141
1 1142
1 1143
1 1144
1 1145
1 1146
1 1147
1 1148
1 1149
1 1150
1 1151
1 1152
1 1153
1 1154
1 1155
1 1156
1 1157
1 1158
1 1159
1 1160
1 1161
1 1162
1 1163
1 1164
1 1165
1 1166
1 1167
1 1168
1 1169
1 1170
1 1171
1 1172
1 1173
1 1174
1 1175
1 1176
1 1177
1 1178
1 1179
1 1180
1 1181
1 1182
1 1183
1 1184
1 1185
1 1186
1 1187
1 1188
1 1189
1 1190
1 1191
1 1192
1 1193
1 1194
1 1195
1 1196
1 1197
1 1198
1 1199
1 1200
1 1201
1 1202
1 1203
1 1204
1 1205
1 1206
1 1207
1 1208
1 1209
1 1210
1 1211
1 1212
1 1213
1 1214
1 1215
1 1216
1 1217
1 1218
1 1219
1 1220
1 1221
1 1222
1 1223
1 1224
1 1225
1 1226
1 1227
1 1228
1 1229
1 1230
1 1231
1 1232
1 1233
1 1234
1 1235
1 1236
1 1237
1 1238
1 1239
1 1240
1 1241
1 1242
1 1243
1 1244
1 1245
1 1246
1 1247
1 1248
1 1249
1 1250
1 1251
1 1252
1 1253
1 1254
1 1255
1 1256
1 1257
1 1258
1 1259
1 1260
1 1261
1 1262
1 1263
1 1264
1 1265
1 1266
1 1267
1 1268
1 1269
1 1270
1 1271
1 1272
1 1273
1 1274
1 1275
1 1276
1 1277
1 1278
1 1279
1 1280
1 1281
1 1282
1 1283
1 1284
1 1285
1 1286
1 1287
1 1288
1 1289
1 1290
1 1291
1 1292
1 1293
1 1294
1 1295
1 1296
1 1297
1 1298
1 1299
1 1300
1 1301
1 1302
1 1303
1 1304
1 1305
1 1306
1 1307
1 1308
1 1309
1 1310
1 1311
1 1312
1 1313
1 1314
1 1315
1 1316
1 1317
1 1318
1 1319
1 1320
1 1321
1 1322
1 1323
1 1324
1 1325
1 1326
1 1327
1 1328
1 1329
1 1330
1 1331
1 1332
1 1333
1 1334
1 1335
1 1336
1 1337
1 1338
1 1339
1 1340
1 1341
1 1342
1 1343
1 1344
1 1345
1 1346
1 1347
1 1348
1 1349
1 1350
1 1351
1 1352
1 1353
1 1354
1 1355
1 1356
1 1357
1 1358
1 1359
1 1360
1 1361
1 1362
1 1363
1 1364
1 1365
1 1366
1 1367
1 1368
1 1369
1 1370
1 1371
1 1372
1 1373
1 1374
1 1375
1 1376
1 1377
1 1378
1 1379
1 1380
1 1381
1 1382
1 1383
1 1384
1 1385
1 1386
1 1387
1 1388
1 1389
1 1390
1 1391
1 1392
1 1393
1 1394
1 1395
1 1396
1 1397
1 1398
1 1399
1 1400
1 1401
1 1402
1 1403
1 1404
1 1405
1 1406
1 1407
1 1408
1 1409
1 1410
1 1411
1 1412
1 1413
1 1414
1 1415
1 1416
1 1417
1 1418
1 1419
1 1420
1 1421
1 1422
1 1423
1 1424
1 1425
1 1426
1 1427
1 1428
1 1429
1 1430
1 1431
1 1432
1 1433
1 1434
1 1435
1 1436
1 1437
1 1438
1 1439
1 1440
1 1441
1 1442
1 1443
1 1444
1 1445
1 1446
1 1447
1 1448
1 1449
1 1450
1 1451
1 1452
1 1453
1 1454
1 1455
1 1456
1 1457
1 1458
1 1459
1 1460
1 1461
1 1462
1 1463
1 1464
1 1465
1 1466
1 1467
1 1468
1 1469
1 1470
1 1471
1 1472
1 1473
1 1474
1 1475
1 1476
1 1477
1 1478
1 1479
1 1480
1 1481
1 1482
1 1483
1 1484
1 1485
1 1486
1 1487
1 1488
1 1489
1 1490
1 1491
1 1492
1 1493
1 1494
1 1495
1 1496
1 1497
1 1498
1 1499
1 1500
1 1501
1 1502
1 1503
1 1504
1 1505
1 1506
1 1507
1 1508
1 1509
1 1510
1 1511
1 1512
1 1513
1 1514
1 1515
1 1516
1 1517
1 1518
1 1519
1 1520
1 1521
1 1522
1 1523
1 1524
1 1525
1 1526
1 1527
1 1528
1 1529
1 1530
1 1531
1 1532
1 1533
1 1534
1 1535
1 1536
1 1537
1 1538
1 1539
1 1540
1 1541
1 1542
1 1543
1 1544
1 1545
1 1546
1 1547
1 1548
1 1549
1 1550
1 1551
1 1552
1 1553
1 1554
1 1555
1 1556
1 1557
1 1558
1 1559
1 1560
1 1561
1 1562
1 1563
1 1564
1 1565
1 1566
1 1567
1 1568
1 1569
1 1570
1 1571
1 1572
1 1573
1 1574
1 1575
1 1576
1 1577
1 1578
1 1579
1 1580
1 1581
1 1582
1 1583
1 1584
1 1585
1 1586
1 1587
1 1588
1 1589
1 1590
1 1591
1 1592
1 1593
1 1594
1 1595
1 1596
1 1597
1 1598
1 1599
1 1600
1 1601
1 1602
1 1603
1 1604
1 1605
1 1606
1 1607
1 1608
1 1609
1 1610
1 1611
1 1612
1 1613
1 1614
1 1615
1 1616
1 1617
1 1618
1 1619
1 1620
1 1621
1 1622
1 1623
1 1624
1 1625
1 1626
1 1627
1 1628
1 1629
1 1630
1 1631
1 1632
1 1633
1 1634
1 1635
1 1636
1 1637
1 1638
1 1639
1 1640
1 1641
1 1642
1 1643
1 1644
1 1645
1 1646
1 1647
1 1648
1 1649
1 1650
1 1651
1 1652
1 1653
1 1654
1 1655
1 1656
1 1657
1 1658
1 1659
1 1660
1 1661
1 1662
1 1663
1 1664
1 1665
1 1666
1 1667
1 1668
1 1669
1 1670
1 1671
1 1672
1 1673
1 1674
1 1675
1 1676
1 1677
1 1678
1 1679
1 1680
1 1681
1 1682
1 1683
1 1684
1 1685
1 1686
1 1687
1 1688
1 1689
1 1690
1 1691
1 1692
1 1693
1 1694
1 1695
1 1696
1 1697
1 1698
1 1699
1 1700
1 1701
1 1702
1 1703
1 1704
1 1705
1 1706
1 1707
1 1708
1 1709
1 1710
1 1711
1 1712
1 1713
1 1714
1 1715
1 1716
1 1717
1 1718
1 1719
1 1720
1 1721
1 1722
1 1723
1 1724
1 1725
1 1726
1 1727
1 1728
1 1729
1 1730
1 1731
1 1732
1 1733
1 1734
1 1735
1 1736
1 1737
1 1738
1 1739
1 1740
1 1741
1 1742
1 1743
1 1744
1 1745
1 1746
1 1747
1 1748
1 1749
1 1750
1 1751
1 1752
1 1753
1 1754
1 1755
1 1756
1 1757
1 1758
1 1759
1 1760
1 1761
1 1762
1 1763
1 1764
1 1765
1 1766
1 1767
1 1768
1 1769
1 1770
1 1771
1 1772
1 1773
1 1774
1 1775
1 1776
1 1777
1 1778
1 1779
1 1780
1 1781
1 1782
1 1783
1 1784
1 1785
1 1786
1 1787
1 1788
1 1789
1 1790
1 1791
1 1792
1 1793
1 1794
1 1795
1 1796
1 1797
1 1798
1 1799
1 1800
1 1801
1 1802
1 1803
1 1804
1 1805
1 1806
1 1807
1 1808
1 1809
1 1810
1 1811
1 1812
1 1813
1 1814
1 1815
1 1816
1 1817
1 1818
1 1819
1 1820
1 1821
1 1822
1 1823
1 1824
1 1825
1 1826
1 1827
1 1828
1 1829
1 1830
1 1831
1 1832
1 1833
1 1834
1 1835
1 1836
1 1837
1 1838
1 1839
1 1840
1 1841
1 1842
1 1843
1 1844
1 1845
1 1846
1 1847
1 1848
1 1849
1 1850
1 1851
1 1852
1 1853
1 1854
1 1855
1 1856
1 1857
1 1858
1 1859
1 1860
1 1861
1 1862
1 1863
1 1864
1 1865
1 1866
1 1867
1 1868
1 1869
1 1870
1 1871
1 1872
1 1873
1 1874
1 1875
1 1876
1 1877
1 1878
1 1879
1 1880
1 1881
1 1882
1 1883
1 1884
1 1885
1 1886
1 1887
1 1888
1 1889
1 1890
1 1891
1 1892
1 1893
1 1894
1 1895
1 1896
1 1897
1 1898
1 1899
1 1900
1 1901
1 1902
1 1903
1 1904
1 1905
1 1906
1 1907
1 1908
1 1909
1 1910
1 1911
1 1912
1 1913
1 1914
1 1915
1 1916
1 1917
1 1918
1 1919
1 1920
1 1921
1 1922
1 1923
1 1924
1 1925
1 1926
1 1927
1 1928
1 1929
1 1930
1 1931
1 1932
1 1933
1 1934
1 1935
1 1936
1 1937
1 1938
1 1939
1 1940
1 1941
1 1942
1 1943
1 1944
1 1945
1 1946
1 1947
1 1948
1 1949
1 1950
1 1951
1 1952
1 1953
1 1954
1 1955
1 1956
1 1957
1 1958
1 1959
1 1960
1 1961
1 1962
1 1963
1 1964
1 1965
1 1966
1 1967
1 1968
1 1969
1 1970
1 1971
1 1972
1 1973
1 1974
1 1975
1 1976
1 1977
1 1978
1 1979
1 1980
1 1981
1 1982
1 1983
1 1984
1 1985
1 1986
1 1987
1 1988
1 1989
1 1990
1 1991
1 1992
1 1993
1 1994
1 1995
1 1996
1 1997
1 1998
1 1999
1 2000
1 2001
1 2002
1 2003
1 2004
1 2005
1 2006
1 2007
1 2008
1 2009
1 2010
1 2011
1 2012
1 2013
1 2014
1 2015
1 2016
1 2017
1 2018
1 2019
1 2020
1 2021
1 2022
1 2023
1 2024
1 2025
1 2026
1 2027
1 2028
1 2029
1 2030
1 2031
1 2032
1 2033
1 2034
1 2035
1 2036
1 2037
1 2038
1 2039
1 2040
1 2041
1 2042
1 2043
1 2044
1 2045
1 2046
1 2047
1 2048
1 2049
1 2050
1 2051
1 2052
1 2053
1 2054
1 2055
1 2056
1 2057
1 2058
1 2059
1 2060
1 2061
1 2062
1 2063
1 2064
1 2065
1 2066
1 2067
1 2068
1 2069
1 2070
1 2071
1 2072
1 2073
1 2074
1 2075
1 2076
1 2077
1 2078
1 2079
1 2080
1 2081
1 2082
1 2083
1 2084
1 2085
1 2086
1 2087
1 2088
1 2089
1 2090
1 2091
1 2092
1 2093
1 2094
1 2095
1 2096
1 2097
1 2098
1 2099
1 2100
1 2101
1 2102
1 2103
1 2104
1 2105
1 2106
1 2107
1 2108
1 2109
1 2110
1 2111
1 2112
1 2113
1 2114
1 2115
1 2116
1 2117
1 2118
1 2119
1 2120
1 2121
1 2122
1 2123
1 2124
1 2125
1 2126
1 2127
1 2128
1 2129
1 2130
1 2131
1 2132
1 2133
1 2134
1 2135
1 2136
1 2137
1 2138
1 2139
1 2140
1 2141
1 2142
1 2143
1 2144
1 2145
1 2146
1 2147
1 2148
1 2149
1 2150
1 2151
1 2152
1 2153
1 2154
1 2155
1 2156
1 2157
1 2158
1 2159
1 2160
1 2161
1 2162
1 2163
1 2164
1 2165
1 2166
1 2167
1 2168
1 2169
1 2170
1 2171
1 2172
1 2173
1 2174
1 2175
1 2176
1 2177
1 2178
1 2179
1 2180
1 2181
1 2182
1 2183
1 2184
1 2185
1 2186
1 2187
1 2188
1 2189
1 2190
1 2191
1 2192
1 2193
1 2194
1 2195
1 2196
1 2197
1 2198
1 2199
1 2200
1 2201
1 2202
1 2203
1 2204
1 2205
1 2206
1 2207
1 2208
1 2209
1 2210
1 2211
1 2212
1 2213
1 2214
1 2215
1 2216
1 2217
1 2218
1 2219
1 2220
1 2221
1 2222
1 2223
1 2224
1 2225
1 2226
1 2227
1 2228
1 2229
1 2230
1 2231
1 2232
1 2233
1 2234
1 2235
1 2236
1 2237
1 2238
1 2239
1 2240
1 2241
1 2242
1 2243
1 2244
1 2245
1 2246
1 2247
1 2248
1 2249
1 2250
1 2251
1 2252
1 2253
1 2254
1 2255
1 2256
1 2257
1 2258
1 2259
1 2260
1 2261
1 2262
1 2263
1 2264
1 2265
1 2266
1 2267
1 2268
1 2269
1 2270
1 2271
1 2272
1 2273
1 2274
1 2275
1 2276
1 2277
1 2278
1 2279
1 2280
1 2281
1 2282
1 2283
1 2284
1 2285
1 2286
1 2287
1 2288
1 2289
1 2290
1 2291
1 2292
1 2293
1 2294
1 2295
1 2296
1 2297
1 2298
1 2299
1 2300
1 2301
1 2302
1 2303
1 2304
1 2305
1 2306
1 2307
1 2308
1 2309
1 2310
1 2311
1 2312
1 2313
1 2314
1 2315
1 2316
1 2317
1 2318
1 2319
1 2320
1 2321
1 2322
1 2323
1 2324
1 2325
1 2326
1 2327
1 2328
1 2329
1 2330
1 2331
1 2332
1 2333
1 2334
1 2335
1 2336
1 2337
1 2338
1 2339
1 2340
1 2341
1 2342
1 2343
1 2344
1 2345
1 2346
1 2347
1 2348
1 2349
1 2350
1 2351
1 2352
1 2353
1 2354
1 2355
1 2356
1 2357
1 2358
1 2359
1 2360
1 2361
1 2362
1 2363
1 2364
1 2365
1 2366
1 2367
1 2368
1 2369
1 2370
1 2371
1 2372
1 2373
1 2374
1 2375
1 2376
1 2377
1 2378
1 2379
1 2380
1 2381
1 2382
1 2383
1 2384
1 2385
1 2386
1 2387
1 2388
1 2389
1 2390
1 2391
1 2392
1 2393
1 2394
1 2395
1 2396
1 2397
1 2398
1 2399
1 2400
1 2401
1 2402
1 2403
1 2404
1 2405
1 2406
1 2407
1 2408
1 2409
1 2410
1 2411
1 2412
1 2413
1 2414
1 2415
1 2416
1 2417
1 2418
1 2419
1 2420
1 2421
1 2422
1 2423
1 2424
1 2425
1 2426
1 2427
1 2428
1 2429
1 2430
1 2431
1 2432
1 2433
1 2434
1 2435
1 2436
1 2437
1 2438
1 2439
1 2440
1 2441
1 2442
1 2443
1 2444
1 2445
1 2446
1 2447
1 2448
1 2449
1 2450
1 2451
1 2452
1 2453
1 2454
1 2455
1 2456
1 2457
1 2458
1 2459
1 2460
1 2461
1 2462
1 2463
1 2464
1 2465
1 2466
1 2467
1 2468
1 2469
1 2470
1 2471
1 2472
1 2473
1 2474
1 2475
1 2476
1 2477
1 2478
1 2479
1 2480
1 2481
1 2482
1 2483
1 2484
1 2485
1 2486
1 2487
1 2488
1 2489
1 2490
1 2491
1 2492
1 2493
1 2494
1 2495
1 2496
1 2497
1 2498
1 2499
1 2500
1 2501
1 2502
1 2503
1 2504
1 2505
1 2506
1 2507
1 2508
1 2509
1 2510
1 2511
1 2512
1 2513
1 2514
1 2515
1 2516
1 2517
1 2518
1 2519
1 2520
1 2521
1 2522
1 2523
1 2524
1 2525
1 2526
1 2527
1 2528
1 2529
1 2530
1 2531
1 2532
1 2533
1 2534
1 2535
1 2536
1 2537
1 2538
1 2539
1 2540
1 2541
1 2542
1 2543
1 2544
1 2545
1 2546
1 2547
1 2548
1 2549
1 2550
1 2551
1 2552
1 2553
1 2554
1 2555
1 2556
1 2557
1 2558
1 2559
1 2560
1 2561
1 2562
1 2563
1 2564
1 2565
1 2566
1 2567
1 2568
1 2569
1 2570
1 2571
1 2572
1 2573
1 2574
1 2575
1 2576
1 2577
1 2578
1 2579
1 2580
1 2581
1 2582
1 2583
1 2584
1 2585
1 2586
1 2587
1 2588
1 2589
1 2590
1 2591
1 2592
1 2593
1 2594
1 2595
1 2596
1 2597
1 2598
1 2599
1 2600
1 2601
1 2602
1 2603
1 2604
1 2605
1 2606
1 2607
1 2608
1 2609
1 2610
1 2611
1 2612
1 2613
1 2614
1 2615
1 2616
1 2617
1 2618
1 2619
1 2620
1 2621
1 2622
1 2623
1 2624
1 2625
1 2626
1 2627
1 2628
1 2629
1 2630
1 2631
1 2632
1 2633
1 2634
1 2635
1 2636
1 2637
1 2638
1 2639
1 2640
1 2641
1 2642
1 2643
1 2644
1 2645
1 2646
1 2647
1 2648
1 2649
1 2650
1 2651
1 2652
1 2653
1 2654
1 2655
1 2656
1 2657
1 2658
1 2659
1 2660
1 2661
1 2662
1 2663
1 2664
1 2665
1 2666
1 2667
1 2668
1 2669
1 2670
1 2671
1 2672
1 2673
1 2674
1 2675
1 2676
1 2677
1 2678
1 2679
1 2680
1 2681
1 2682
1 2683
1 2684
1 2685
1 2686
1 2687
1 2688
1 2689
1 2690
1 2691
1 2692
1 2693
1 2694
1 2695
1 2696
1 2697
1 2698
1 2699
1 2700
1 2701
1 2702
1 2703
1 2704
1 2705
1 2706
1 2707
1 2708
1 2709
1 2710
1 2711
1 2712
1 2713
1 2714
1 2715
1 2716
1 2717
1 2718
1 2719
1 2720
1 2721
1 2722
1 2723
1 2724
1 2725
1 2726
1 2727
1 2728
1 2729
1 2730
1 2731
1 2732
1 2733
1 2734
1 2735
1 2736
1 2737
1 2738
1 2739
1 2740
1 2741
1 2742
1 2743
1 2744
1 2745
1 2746
1 2747
1 2748
1 2749
1 2750
1 2751
1 2752
1 2753
1 2754
1 2755
1 2756
1 2757
1 2758
1 2759
1 2760
1 2761
1 2762
1 2763
1 2764
1 2765
1 2766
1 2767
1 2768
1 2769
1 2770
1 2771
1 2772
1 2773
1 2774
1 2775
1 2776
1 2777
1 2778
1 2779
1 2780
1 2781
1 2782
1 2783
1 2784
1 2785
1 2786
1 2787
1 2788
1 2789
1 2790
1 2791
1 2792
1 2793
1 2794
1 2795
1 2796
1 2797
1 2798
1 2799
1 2800
1 2801
1 2802
1 2803
1 2804
1 2805
1 2806
1 2807
1 2808
1 2809
1 2810
1 2811
1 2812
1 2813
1 2814
1 2815
1 2816
1 2817
1 2818
1 2819
1 2820
1 2821
1 2822
1 2823
1 2824
1 2825
1 2826
1 2827
1 2828
1 2829
1 2830
1 2831
1 2832
1 2833
1 2834
1 2835
1 2836
1 2837
1 2838
1 2839
1 2840
1 2841
1 2842
1 2843
1 2844
1 2845
1 2846
1 2847
1 2848
1 2849
1 2850
1 2851
1 2852
1 2853
1 2854
1 2855
1 2856
1 2857
1 2858
1 2859
1 2860
1 2861
1 2862
1 2863
1 2864
1 2865
1 2866
1 2867
1 2868
1 2869
1 2870
1 2871
1 2872
1 2873
1 2874
1 2875
1 2876
1 2877
1 2878
1 2879
1 2880
1 2881
1 2882
1 2883
1 2884
1 2885
1 2886
1 2887
1 2888
1 2889
1 2890
1 2891
1 2892
1 2893
1 2894
1 2895
1 2896
1 2897
1 2898
1 2899
1 2900
1 2901
1 2902
1 2903
1 2904
1 2905
1 2906
1 2907
1 2908
1 2909
1 2910
1 2911
1 2912
1 2913
1 2914
1 2915
1 2916
1 2917
1 2918
1 2919
1 2920
1 2921
1 2922
1 2923
1 2924
1 2925
1 2926
1 2927
1 2928
1 2929
1 2930
1 2931
1 2932
1 2933
1 2934
1 2935
1 2936
1 2937
1 2938
1 2939
1 2940
1 2941
1 2942
1 2943
1 2944
1 2945
1 2946
1 2947
1 2948
1 2949
1 2950
1 2951
1 2952
1 2953
1 2954
1 2955
1 2956
1 2957
1 2958
1 2959
1 2960
1 2961
1 2962
1 2963
1 2964
1 2965
1 2966
1 2967
1 2968
1 2969
1 2970
1 2971
1 2972
1 2973
1 2974
1 2975
1 2976
1 2977
1 2978
1 2979
1 2980
1 2981
1 2982
1 2983
1 2984
1 2985
1 2986
1 2987
1 2988
1 2989
1 2990
1 2991
1 2992
1 2993
1 2994
1 2995
1 2996
1 2997
1 2998
1 2999
1 3000
1 3001
1 3002
1 3003
1 3004
1 3005
1 3006
1 3007
1 3008
1 3009
1 3010
1 3011
1 3012
1 3013
1 3014
1 3015
1 3016
1 3017
1 3018
1 3019
1 3020
1 3021
1 3022
1 3023
1 3024
1 3025
1 3026
1 3027
1 3028
1 3029
1 3030
1 3031
1 3032
1 3033
1 3034
1 3035
1 3036
1 3037
1 3038
1 3039
1 3040
1 3041
1 3042
1 3043
1 3044
1 3045
1 3046
1 3047
1 3048
1 3049
1 3050
1 3051
1 3052
1 3053
1 3054
1 3055
1 3056
1 3057
1 3058
1 3059
1 3060
1 3061
1 3062
1 3063
1 3064
1 3065
1 3066
1 3067
1 3068
1 3069
1 3070
1 3071
1 3072
1 3073
1 3074
1 3075
1 3076
1 3077
1 3078
1 3079
1 3080
1 3081
1 3082
1 3083
1 3084
1 3085
1 3086
1 3087
1 3088
1 3089
1 3090
1 3091
1 3092
1 3093
1 3094
1 3095
1 3096
1 3097
1 3098
1 3099
1 3100
1 3101
1 3102
1 3103
1 3104
1 3105
1 3106
1 3107
1 3108
1 3109
1 3110
1 3111
1 3112
1 3113
1 3114
1 3115
1 3116
1 3117
1 3118
1 3119
1 3120
1 3121
1 3122
1 3123
1 3124
1 3125
1 3126
1 3127
1 3128
1 3129
1 3130
1 3131
1 3132
1 3133
1 3134
1 3135
1 3136
1 3137
1 3138
1 3139
1 3140
1 3141
1 3142
1 3143
1 3144
1 3145
1 3146
1 3147
1 3148
1 3149
1 3150
1 3151
1 3152
1 3153
1 3154
1 3155
1 3156
1 3157
1 3158
1 3159
1 3160
1 3161
1 3162
1 3163
1 3164
1 3165
1 3166
1 3167
1 3168
1 3169
1 3170
1 3171
1 3172
1 3173
1 3174
1 3175
1 3176
1 3177
1 3178
1 3179
1 3180
1 3181
1 3182
1 3183
1 3184
1 3185
1 3186
1 3187
1 3188
1 3189
1 3190
1 3191
1 3192
1 3193
1 3194
1 3195
1 3196
1 3197
1 3198
1 3199
1 3200
1 3201
1 3202
1 3203
1 3204
1 3205
1 3206
1 3207
1 3208
1 3209
1 3210
1 3211
1 3212
1 3213
1 3214
1 3215
1 3216
1 3217
1 3218
1 3219
1 3220
1 3221
1 3222
1 3223
1 3224
1 3225
1 3226
1 3227
1 3228
1 3229
1 3230
1 3231
1 3232
1 3233
1 3234
1 3235
1 3236
1 3237
1 3238
1 3239
1 3240
1 3241
1 3242
1 3243
1 3244
1 3245
1 3246
1 3247
1 3248
1 3249
1 3250
1 3251
1 3252
1 3253
1 3254
1 3255
1 3256
1 3257
1 3258
1 3259
1 3260
1 3261
1 3262
1 3263
1 3264
1 3265
1 3266
1 3267
1 3268
1 3269
1 3270
1 3271
1 3272
1 3273
1 3274
1 3275
1 3276
1 3277
1 3278
1 3279
1 3280
1 3281
1 3282
1 3283
1 3284
1 3285
1 3286
1 3287
1 3288
1 3289
1 3290
1 3291
1 3292
1 3293
1 3294
1 3295
1 3296
1 3297
1 3298
1 3299
1 3300
1 3301
1 3302
1 3303
1 3304
1 3305
1 3306
1 3307
1 3308
1 3309
1 3310
1 3311
1 3312
1 3313
1 3314
1 3315
1 3316
1 3317
1 3318
1 3319
1 3320
1 3321
1 3322
1 3323
1 3324
1 3325
1 3326
1 3327
1 3328
1 3329
1 3330
1 3331
1 3332
1 3333
1 3334
1 3335
1 3336
1 3337
1 3338
1 3339
1 3340
1 3341
1 3342
1 3343
1 3344
1 3345
1 3346
1 3347
1 3348
1 3349
1 3350
1 3351
1 3352
1 3353
1 3354
1 3355
1 3356
1 3357
1 3358
1 3359
1 3360
1 3361
1 3362
1 3363
1 3364
1 3365
1 3366
1 3367
1 3368
1 3369
1 3370
1 3371
1 3372
1 3373
1 3374
1 3375
1 3376
1 3377
1 3378
1 3379
1 3380
1 3381
1 3382
1 3383
1 3384
1 3385
1 3386
1 3387
1 3388
1 3389
1 3390
1 3391
1 3392
1 3393
1 3394
1 3395
1 3396
1 3397
1 3398
1 3399
1 3400
1 3401
1 3402
1 3403
1 3404
1 3405
1 3406
1 3407
1 3408
1 3409
1 3410
1 3411
1 3412
1 3413
1 3414
1 3415
1 3416
1 3417
1 3418
1 3419
1 3420
1 3421
1 3422
1 3423
1 3424
1 3425
1 3426
1 3427
1 3428
1 3429
1 3430
1 3431
1 3432
1 3433
1 3434
1 3435
1 3436
1 3437
1 3438
1 3439
1 3440
1 3441
1 3442
1 3443
1 3444
1 3445
1 3446
1 3447
1 3448
1 3449
1 3450
1 3451
1 3452
1 3453
1 3454
1 3455
1 3456
1 3457
1 3458
1 3459
1 3460
1 3461
1 3462
1 3463
1 3464
1 3465
1 3466
1 3467
1 3468
1 3469
1 3470
1 3471
1 3472
1 3473
1 3474
1 3475
1 3476
1 3477
1 3478
1 3479
1 3480
1 3481
1 3482
1 3483
1 3484
1 3485
1 3486
1 3487
1 3488
1 3489
1 3490
1 3491
1 3492
1 3493
1 3494
1 3495
1 3496
1 3497
1 3498
1 3499
1 3500
1 3501
1 3502
1 3503
1 3504
1 3505
1 3506
1 3507
1 3508
1 3509
1 3510
1 3511
1 3512
1 3513
1 3514
1 3515
1 3516
1 3517
1 3518
1 3519
1 3520
1 3521
1 3522
1 3523
1 3524
1 3525
1 3526
1 3527
1 3528
1 3529
1 3530
1 3531
1 3532
1 3533
1 3534
1 3535
1 3536
1 3537
1 3538
1 3539
1 3540
1 3541
1 3542
1 3543
1 3544
1 3545
1 3546
1 3547
1 3548
1 3549
1 3550
1 3551
1 3552
1 3553
1 3554
1 3555
1 3556
1 3557
1 3558
1 3559
1 3560
1 3561
1 3562
1 3563
1 3564
1 3565
1 3566
1 3567
1 3568
1 3569
1 3570
1 3571
1 3572
1 3573
1 3574
1 3575
1 3576
1 3577
1 3578
1 3579
1 3580
1 3581
1 3582
1 3583
1 3584
1 3585
1 3586
1 3587
1 3588
1 3589
1 3590
1 3591
1 3592
1 3593
1 3594
1 3595
1 3596
1 3597
1 3598
1 3599
1 3600
1 3601
1 3602
1 3603
1 3604
1 3605
1 3606
1 3607
1 3608
1 3609
1 3610
1 3611
1 3612
1 3613
1 3614
1 3615
1 3616
1 3617
1 3618
1 3619
1 3620
1 3621
1 3622
1 3623
1 3624
1 3625
1 3626
1 3627
1 3628
1 3629
1 3630
1 3631
1 3632
1 3633
1 3634
1 3635
1 3636
1 3637
1 3638
1 3639
1 3640
1 3641
1 3642
1 3643
1 3644
1 3645
1 3646
1 3647
1 3648
1 3649
1 3650
1 3651
1 3652
1 3653
1 3654
1 3655
1 3656
1 3657
1 3658
1 3659
1 3660
1 3661
1 3662
1 3663
1 3664
1 3665
1 3666
1 3667
1 3668
1 3669
1 3670
1 3671
1 3672
1 3673
1 3674
1 3675
1 3676
1 3677
1 3678
1 3679
1 3680
1 3681
1 3682
1 3683
1 3684
1 3685
1 3686
1 3687
1 3688
1 3689
1 3690
1 3691
1 3692
1 3693
1 3694
1 3695
1 3696
1 3697
1 3698
1 3699
1 3700
1 3701
1 3702
1 3703
1 3704
1 3705
1 3706
1 3707
1 3708
1 3709
1 3710
1 3711
1 3712
1 3713
1 3714
1 3715
1 3716
1 3717
1 3718
1 3719
1 3720
1 3721
1 3722
1 3723
1 3724
1 3725
1 3726
1 3727
1 3728
1 3729
1 3730
1 3731
1 3732
1 3733
1 3734
1 3735
1 3736
1 3737
1 3738
1 3739
1 3740
1 3741
1 3742
1 3743
1 3744
1 3745
1 3746
1 3747
1 3748
1 3749
1 3750
1 3751
1 3752
1 3753
1 3754
1 3755
1 3756
1 3757
1 3758
1 3759
1 3760
1 3761
1 3762
1 3763
1 3764
1 3765
1 3766
1 3767
1 3768
1 3769
1 3770
1 3771
1 3772
1 3773
1 3774
1 3775
1 3776
1 3777
1 3778
1 3779
1 3780
1 3781
1 3782
1 3783
1 3784
1 3785
1 3786
1 3787
1 3788
1 3789
1 3790
1 3791
1 3792
1 3793
1 3794
1 3795
1 3796
1 3797
1 3798
1 3799
1 3800
1 3801
1 3802
1 3803
1 3804
1 3805
1 3806
1 3807
1 3808
1 3809
1 3810
1 3811
1 3812
1 3813
1 3814
1 3815
1 3816
1 3817
1 3818
1 3819
1 3820
1 3821
1 3822
1 3823
1 3824
1 3825
1 3826
1 3827
1 3828
1 3829
1 3830
1 3831
1 3832
1 3833
1 3834
1 3835
1 3836
1 3837
1 3838
1 3839
1 3840
1 3841
1 3842
1 3843
1 3844
1 3845
1 3846
1 3847
1 3848
1 3849
1 3850
1 3851
1 3852
1 3853
1 3854
1 3855
1 3856
1 3857
1 3858
1 3859
1 3860
1 3861
1 3862
1 3863
1 3864
1 3865
1 3866
1 3867
1 3868
1 3869
1 3870
1 3871
1 3872
1 3873
1 3874
1 3875
1 3876
1 3877
1 3878
1 3879
1 3880
1 3881
1 3882
1 3883
1 3884
1 3885
1 3886
1 3887
1 3888
1 3889
1 3890
1 3891
1 3892
1 3893
1 3894
1 3895
1 3896
1 3897
1 3898
1 3899
1 3900
1 3901
1 3902
1 3903
1 3904
1 3905
1 3906
1 3907
1 3908
1 3909
1 3910
1 3911
1 3912
1 3913
1 3914
1 3915
1 3916
1 3917
1 3918
1 3919
1 3920
1 3921
1 3922
1 3923
1 3924
1 3925
1 3926
1 3927
1 3928
1 3929
1 3930
1 3931
1 3932
1 3933
1 3934
1 3935
1 3936
1 3937
1 3938
1 3939
1 3940
1 3941
1 3942
1 3943
1 3944
1 3945
1 3946
1 3947
1 3948
1 3949
1 3950
1 3951
1 3952
1 3953
1 3954
1 3955
1 3956
1 3957
1 3958
1 3959
1 3960
1 3961
1 3962
1 3963
1 3964
1 3965
1 3966
1 3967
1 3968
1 3969
1 3970
1 3971
1 3972
1 3973
1 3974
1 3975
1 3976
1 3977
1 3978
1 3979
1 3980
1 3981
1 3982
1 3983
1 3984
1 3985
1 3986
1 3987
1 3988
1 3989
1 3990
1 3991
1 3992
1 3993
1 3994
1 3995
1 3996
1 3997
1 3998
1 3999
1 4000
1 4001
1 4002
1 4003
1 4004
1 4005
1 4006
1 4007
1 4008
1 4009
1 4010
1 4011
1 4012
1 4013
1 4014
1 4015
1 4016
1 4017
1 4018
1 4019
1 4020
1 4021
1 4022
1 4023
1 4024
1 4025
1 4026
1 4027
1 4028
1 4029
1 4030
1 4031
1 4032
1 4033
1 4034
1 4035
1 4036
1 4037
1 4038
1 4039
1 4040
1 4041
1 4042
1 4043
1 4044
1 4045
1 4046
1 4047
1 4048
1 4049
1 4050
1 4051
1 4052
1 4053
1 4054
1 4055
1 4056
1 4057
1 4058
1 4059
1 4060
1 4061
1 4062
1 4063
1 4064
1 4065
1 4066
1 4067
1 4068
1 4069
1 4070
1 4071
1 4072
1 4073
1 4074
1 4075
1 4076
1 4077
1 4078
1 4079
1 4080
1 4081
1 4082
1 4083
1 4084
1 4085
1 4086
1 4087
1 4088
1 4089
1 4090
1 4091
1 4092
1 4093
1 4094
1 4095
1 4096
1 4097
1 4098
1 4099
1 4100
1 4101
1 4102
1 4103
1 4104
1 4105
1 4106
1 4107
1 4108
1 4109
1 4110
1 4111
1 4112
1 4113
1 4114
1 4115
1 4116
1 4117
1 4118
1 4119
1 4120
1 4121
1 4122
1 4123
1 4124
1 4125
1 4126
1 4127
1 4128
1 4129
1 4130
1 4131
1 4132
1 4133
1 4134
1 4135
1 4136
1 4137
1 4138
1 4139
1 4140
1 4141
1 4142
1 4143
1 4144
1 4145
1 4146
1 4147
1 4148
1 4149
1 4150
1 4151
1 4152
1 4153
1 4154
1 4155
1 4156
1 4157
1 4158
1 4159
1 4160
1 4161
1 4162
1 4163
1 4164
1 4165
1 4166
1 4167
1 4168
1 4169
1 4170
1 4171
1 4172
1 4173
1 4174
1 4175
1 4176
1 4177
1 4178
1 4179
1 4180
1 4181
1 4182
1 4183
1 4184
1 4185
1 4186
1 4187
1 4188
1 4189
1 4190
1 4191
1 4192
1 4193
1 4194
1 4195
1 4196
1 4197
1 4198
1 4199
1 4200
1 4201
1 4202
1 4203
1 4204
1 4205
1 4206
1 4207
1 4208
1 4209
1 4210
1 4211
1 4212
1 4213
1 4214
1 4215
1 4216
1 4217
1 4218
1 4219
1 4220
1 4221
1 4222
1 4223
1 4224
1 4225
1 4226
1 4227
1 4228
1 4229
1 4230
1 4231
1 4232
1 4233
1 4234
1 4235
1 4236
1 4237
1 4238
1 4239
1 4240
1 4241
1 4242
1 4243
1 4244
1 4245
1 4246
1 4247
1 4248
1 4249
1 4250
1 4251
1 4252
1 4253
1 4254
1 4255
1 4256
1 4257
1 4258
1 4259
1 4260
1 4261
1 4262
1 4263
1 4264
1 4265
1 4266
1 4267
1 4268
1 4269
1 4270
1 4271
1 4272
1 4273
1 4274
1 4275
1 4276
1 4277
1 4278
1 4279
1 4280
1 4281
1 4282
1 4283
1 4284
1 4285
1 4286
1 4287
1 4288
1 4289
1 4290
1 4291
1 4292
1 4293
1 4294
1 4295
1 4296
1 4297
1 4298
1 4299
1 4300
1 4301
1 4302
1 4303
1 4304
1 4305
1 4306
1 4307
1 4308
1 4309
1 4310
1 4311
1 4312
1 4313
1 4314
1 4315
1 4316
1 4317
1 4318
1 4319
1 4320
1 4321
1 4322
1 4323
1 4324
1 4325
1 4326
1 4327
1 4328
1 4329
1 4330
1 4331
1 4332
1 4333
1 4334
1 4335
1 4336
1 4337
1 4338
1 4339
1 4340
1 4341
1 4342
1 4343
1 4344
1 4345
1 4346
1 4347
1 4348
1 4349
1 4350
1 4351
1 4352
1 4353
1 4354
1 4355
1 4356
1 4357
1 4358
1 4359
1 4360
1 4361
1 4362
1 4363
1 4364
1 4365
1 4366
1 4367
1 4368
1 4369
1 4370
1 4371
1 4372
1 4373
1 4374
1 4375
1 4376
1 4377
1 4378
1 4379
1 4380
1 4381
1 4382
1 4383
1 4384
1 4385
1 4386
1 4387
1 4388
1 4389
1 4390
1 4391
1 4392
1 4393
1 4394
1 4395
1 4396
1 4397
1 4398
1 4399
1 4400
1 4401
1 4402
1 4403
1 4404
1 4405
1 4406
1 4407
1 4408
1 4409
1 4410
1 4411
1 4412
1 4413
1 4414
1 4415
1 4416
1 4417
1 4418
1 4419
1 4420
1 4421
1 4422
1 4423
1 4424
1 4425
1 4426
1 4427
1 4428
1 4429
1 4430
1 4431
1 4432
1 4433
1 4434
1 4435
1 4436
1 4437
1 4438
1 4439
1 4440
1 4441
1 4442
1 4443
1 4444
1 4445
1 4446
1 4447
1 4448
1 4449
1 4450
1 4451
1 4452
1 4453
1 4454
1 4455
1 4456
1 4457
1 4458
1 4459
1 4460
1 4461
1 4462
1 4463
1 4464
1 4465
1 4466
1 4467
1 4468
1 4469
1 4470
1 4471
1 4472
1 4473
1 4474
1 4475
1 4476
1 4477
1 4478
1 4479
1 4480
1 4481
1 4482
1 4483
1 4484
1 4485
1 4486
1 4487
1 4488
1 4489
1 4490
1 4491
1 4492
1 4493
1 4494
1 4495
1 4496
1 4497
1 4498
1 4499
1 4500
1 4501
1 4502
1 4503
1 4504
1 4505
1 4506
1 4507
1 4508
1 4509
1 4510
1 4511
1 4512
1 4513
1 4514
1 4515
1 4516
1 4517
1 4518
1 4519
1 4520
1 4521
1 4522
1 4523
1 4524
1 4525
1 4526
1 4527
1 4528
1 4529
1 4530
1 4531
1 4532
1 4533
1 4534
1 4535
1 4536
1 4537
1 4538
1 4539
1 4540
1 4541
1 4542
1 4543
1 4544
1 4545
1 4546
1 4547
1 4548
1 4549
1 4550
1 4551
1 4552
1 4553
1 4554
1 4555
1 4556
1 4557
1 4558
1 4559
1 4560
1 4561
1 4562
1 4563
1 4564
1 4565
1 4566
1 4567
1 4568
1 4569
1 4570
1 4571
1 4572
1 4573
1 4574
1 4575
1 4576
1 4577
1 4578
1 4579
1 4580
1 4581
1 4582
1 4583
1 4584
1 4585
1 4586
1 4587
1 4588
1 4589
1 4590
1 4591
1 4592
1 4593
1 4594
1 4595
1 4596
1 4597
1 4598
1 4599
1 4600
1 4601
1 4602
1 4603
1 4604
1 4605
1 4606
1 4607
1 4608
1 4609
1 4610
1 4611
1 4612
1 4613
1 4614
1 4615
1 4616
1 4617
1 4618
1 4619
1 4620
1 4621
1 4622
1 4623
1 4624
1 4625
1 4626
1 4627
1 4628
1 4629
1 4630
1 4631
1 4632
1 4633
1 4634
1 4635
1 4636
1 4637
1 4638
1 4639
1 4640
1 4641
1 4642
1 4643
1 4644
1 4645
1 4646
1 4647
1 4648
1 4649
1 4650
1 4651
1 4652
1 4653
1 4654
1 4655
1 4656
1 4657
1 4658
1 4659
1 4660
1 4661
1 4662
1 4663
1 4664
1 4665
1 4666
1 4667
1 4668
1 4669
1 4670
1 4671
1 4672
1 4673
1 4674
1 4675
1 4676
1 4677
1 4678
1 4679
1 4680
1 4681
1 4682
1 4683
1 4684
1 4685
1 4686
1 4687
1 4688
1 4689
1 4690
1 4691
1 4692
1 4693
1 4694
1 4695
1 4696
1 4697
1 4698
1 4699
1 4700
1 4701
1 4702
1 4703
1 4704
1 4705
1 4706
1 4707
1 4708
1 4709
1 4710
1 4711
1 4712
1 4713
1 4714
1 4715
1 4716
1 4717
1 4718
1 4719
1 4720
1 4721
1 4722
1 4723
1 4724
1 4725
1 4726
1 4727
1 4728
1 4729
1 4730
1 4731
1 4732
1 4733
1 4734
1 4735
1 4736
1 4737
1 4738
1 4739
1 4740
1 4741
1 4742
1 4743
1 4744
1 4745
1 4746
1 4747
1 4748
1 4749
1 4750
1 4751
1 4752
1 4753
1 4754
1 4755
1 4756
1 4757
1 4758
1 4759
1 4760
1 4761
1 4762
1 4763
1 4764
1 4765
1 4766
1 4767
1 4768
1 4769
1 4770
1 4771
1 4772
1 4773
1 4774
1 4775
1 4776
1 4777
1 4778
1 4779
1 4780
1 4781
1 4782
1 4783
1 4784
1 4785
1 4786
1 4787
1 4788
1 4789
1 4790
1 4791
1 4792
1 4793
1 4794
1 4795
1 4796
1 4797
1 4798
1 4799
1 4800
1 4801
1 4802
1 4803
1 4804
1 4805
1 4806
1 4807
1 4808
1 4809
1 4810
1 4811
1 4812
1 4813
1 4814
1 4815
1 4816
1 4817
1 4818
1 4819
1 4820
1 4821
1 4822
1 4823
1 4824
1 4825
1 4826
1 4827
1 4828
1 4829
1 4830
1 4831
1 4832
1 4833
1 4834
1 4835
1 4836
1 4837
1 4838
1 4839
1 4840
1 4841
1 4842
1 4843
1 4844
1 4845
1 4846
1 4847
1 4848
1 4849
1 4850
1 4851
1 4852
1 4853
1 4854
1 4855
1 4856
1 4857
1 4858
1 4859
1 4860
1 4861
1 4862
1 4863
1 4864
1 4865
1 4866
1 4867
1 4868
1 4869
1 4870
1 4871
1 4872
1 4873
1 4874
1 4875
1 4876
1 4877
1 4878
1 4879
1 4880
1 4881
1 4882
1 4883
1 4884
1 4885
1 4886
1 4887
1 4888
1 4889
1 4890
1 4891
1 4892
1 4893
1 4894
1 4895
1 4896
1 4897
1 4898
1 4899
1 4900
1 4901
1 4902
1 4903
1 4904
1 4905
1 4906
1 4907
1 4908
1 4909
1 4910
1 4911
1 4912
1 4913
1 4914
1 4915
1 4916
1 4917
1 4918
1 4919
1 4920
1 4921
1 4922
1 4923
1 4924
1 4925
1 4926
1 4927
1 4928
1 4929
1 4930
1 4931
1 4932
1 4933
1 4934
1 4935
1 4936
1 4937
1 4938
1 4939
1 4940
1 4941
1 4942
1 4943
1 4944
1 4945
1 4946
1 4947
1 4948
1 4949
1 4950
1 4951
1 4952
1 4953
1 4954
1 4955
1 4956
1 4957
1 4958
1 4959
1 4960
1 4961
1 4962
1 4963
1 4964
1 4965
1 4966
1 4967
1 4968
1 4969
1 4970
1 4971
1 4972
1 4973
1 4974
1 4975
1 4976
1 4977
1 4978
1 4979
1 4980
1 4981
1 4982
1 4983
1 4984
1 4985
1 4986
1 4987
1 4988
1 4989
1 4990
1 4991
1 4992
1 4993
1 4994
1 4995
1 4996
1 4997
1 4998
1 4999
CELL_TYPES 5000
1 
1 
1 
1 
1 
1 
1 
1 
1 
1 
1 
1 
1 
1 
1 
1 
1 
1 
1 
1 
1 
1 
1 
1 
1 
1 
1 
1 
1 
1 
1 
1 
1 
1 
1 
1 
1 
1 
1 
1 
1 
1 
1 
1 
1 
1 
1 
1 
1 
1 
1 
1 
1 
1 
1 
1 
1 
1 
1 
1 
1 
1 
1 
1 
1 
1 
1 
1 
1 
1 
1 
1 
1 
1 
1 
1 
1 
1 
1 
1 
1 
1 
1 
1 
1 
1 
1 
1 
1 
1 
1 
1 
1 
1 
1 
1 
1 
1 
1 
1 
1 
1 
1 
1 
1 
1 
1 
1 
1 
1 
1 
1 
1 
1 
1 
1 
1 
1 
1 
1 
1 
1 
1 
1 
1 
1 
1 
1 
1 
1 
1 
1 
1 
1 
1 
1 
1 
1 
1 
1 
1 
1 
1 
1 
1 
1 
1 
1 
1 
1 
1 
1 
1 
1 
1 
1 
1 
1 
1 
1 
1 
1 
1 
1 
1 
1 
1 
1 
1 
1 
1 
1 
1 
1 
1 
1 
1 
1 
1 
1 
1 
1 
1 
1 
1 
1 
1 
1 
1 
1 
1 
1 
1 
1 
1 
1 
1 
1 
1 
1 
1 
1 
1 
1 
1 
1 
1 
1 
1 
1 
1 
1 
1 
1 
1 
1 
1 
1 
1 
1 
1 
1 
1 
1 
1 
1 
1 
1 
1 
1 
1 
1 
1 
1 
1 
1 
1 
1 
1 
1 
1 
1 
1 
1 
1 
1 
1 
1 
1 
1 
1 
1 
1 
1 
1 
1 
1 
1 
1 
1 
1 
1 
1 
1 
1 
1 
1 
1 
1 
1 
1 
1 
1 
1 
1 
1 
1 
1 
1 
1 
1 
1 
1 
1 
1 
1 
1 
1 
1 
1 
1 
1 
1 
1 
1 
1 
1 
1 
1 
1 
1 
1 
1 
1 
1 
1 
1 
1 
1 
1 
1 
1 
1 
1 
1 
1 
1 
1 
1 
1 
1 
1 
1 
1 
1 
1 
1 
1 
1 
1 
1 
1 
1 
1 
1 
1 
1 
1 
1 
1 
1 
1 
1 
1 
1 
1 
1 
1 
1 
1 
1 
1 
1 
1 
1 
1 
1 
1 
1 
1 
1 
1 
1 
1 
1 
1 
1 
1 
1 
1 
1 
1 
1 
1 
1 
1 
1 
1 
1 
1 
1 
1 
1 
1 
1 
1 
1 
1 
1 
1 
1 
1 
1 
1 
1 
1 
1 
1 
1 
1 
1 
1 
1 
1 
1 
1 
1 
1 
1 
1 
1 
1 
1 
1 
1 
1 
1 
1 
1 
1 
1 
1 
1 
1 
1 
1 
1 
1 
1 
1 
1 
1 
1 
1 
1 
1 
1 
1 
1 
1 
1 
1 
1 
1 
1 
1 
1 
1 
1 
1 
1 
1 
1 
1 
1 
1 
1 
1 
1 
1 
1 
1 
1 
1 
1 
1 
1 
1 
1 
1 
1 
1 
1 
1 
1 
1 
1 
1 
1 
1 
1 
1 
1 
1 
1 
1 
1 
1 
1 
1 
1 
1 
1 
1 
1 
1 
1 
1 
1 
1 
1 
1 
1 
1 
1 
1 
1 
1 
1 
1 
1 
1 
1 
1 
1 
1 
1 
1 
1 
1 
1 
1 
1 
1 
1 
1 
1 
1 
1 
1 
1 
1 
1 
1 
1 
1 
1 
1 
1 
1 
1 
1 
1 
1 
1 
1 
1 
1 
1 
1 
1 
1 
1 
1 
1 
1 
1 
1 
1 
1 
1 
1 
1 
1 
1 
1 
1 
1 
1 
1 
1 
1 
1 
1 
1 
1 
1 
1 
1 
1 
1 
1 
1 
1 
1 
1 
1 
1 
1 
1 
1 
1 
1 
1 
1 
1 
1 
1 
1 
1 
1 
1 
1 
1 
1 
1 
1 
1 
1 
1 
1 
1 
1 
1 
1 
1 
1 
1 
1 
1 
1 
1 
1 
1 
1 
1 
1 
1 
1 
1 
1 
1 
1 
1 
1 
1 
1 
1 
1 
1 
1 
1 
1 
1 
1 
1 
1 
1 
1 
1 
1 
1 
1 
1 
1 
1 
1 
1 
1 
1 
1 
1 
1 
1 
1 
1 
1 
1 
1 
1 
1 
1 
1 
1 
1 
1 
1 
1 
1 
1 
1 
1 
1 
1 
1 
1 
1 
1 
1 
1 
1 
1 
1 
1 
1 
1 
1 
1 
1 
1 
1 
1 
1 
1 
1 
1 
1 
1 
1 
1 
1 
1 
1 
1 
1 
1 
1 
1 
1 
1 
1 
1 
1 
1 
1 
1 
1 
1 
1 
1 
1 
1 
1 
1 
1 
1 
1 
1 
1 
1 
1 
1 
1 
1 
1 
1 
1 
1 
1 
1 
1 
1 
1 
1 
1 
1 
1 
1 
1 
1 
1 
1 
1 
1 
1 
1 
1 
1 
1 
1 
1 
1 
1 
1 
1 
1 
1 
1 
1 
1 
1 
1 
1 
1 
1 
1 
1 
1 
1 
1 
1 
1 
1 
1 
1 
1 
1 
1 
1 
1 
1 
1 
1 
1 
1 
1 
1 
1 
1 
1 
1 
1 
1 
1 
1 
1 
1 
1 
1 
1 
1 
1 
1 
1 
1 
1 
1 
1 
1 
1 
1 
1 
1 
1 
1 
1 
1 
1 
1 
1 
1 
1 
1 
1 
1 
1 
1 
1 
1 
1 
1 
1 
1 
1 
1 
1 
1 
1 
1 
1 
1 
1 
1 
1 
1 
1 
1 
1 
1 
1 
1 
1 
1 
1 
1 
1 
1 
1 
1 
1 
1 
1 
1 
1 
1 
1 
1 
1 
1 
1 
1 
1 
1 
1 
1 
1 
1 
1 
1 
1 
1 
1 
1 
1 
1 
1 
1 
1 
1 
1 
1 
1 
1 
1 
1 
1 
1 
1 
1 
1 
1 
1 
1 
1 
1 
1 
1 
1 
1 
1 
1 
1 
1 
1 
1 
1 
1 
1 
1 
1 
1 
1 
1 
1 
1 
1 
1 
1 
1 
1 
1 
1 
1 
1 
1 
1 
1 
1 
1 
1 
1 
1 
1 
1 
1 
1 
1 
1 
1 
1 
1 
1 
1 
1 
1 
1 
1 
1 
1 
1 
1 
1 
1 
1 
1 
1 
1 
1 
1 
1 
1 
1 
1 
1 
1 
1 
1 
1 
1 
1 
1 
1 
1 
1 
1 
1 
1 
1 
1 
1 
1 
1 
1 
1 
1 
1 
1 
1 
1 
1 
1 
1 
1 
1 
1 
1 
1 
1 
1 
1 
1 
1 
1 
1 
1 
1 
1 
1 
1 
1 
1 
1 
1 
1 
1 
1 
1 
1 
1 
1 
1 
1 
1 
1 
1 
1 
1 
1 
1 
1 
1 
1 
1 
1 
1 
1 
1 
1 
1 
1 
1 
1 
1 
1 
1 
1 
1 
1 
1 
1 
1 
1 
1 
1 
1 
1 
1 
1 
1 
1 
1 
1 
1 
1 
1 
1 
1 
1 
1 
1 
1 
1 
1 
1 
1 
1 
1 
1 
1 
1 
1 
1 
1 
1 
1 
1 
1 
1 
1 
1 
1 
1 
1 
1 
1 
1 
1 
1 
1 
1 
1 
1 
1 
1 
1 
1 
1 
1 
1 
1 
1 
1 
1 
1 
1 
1 
1 
1 
1 
1 
1 
1 
1 
1 
1 
1 
1 
1 
1 
1 
1 
1 
1 
1 
1 
1 
1 
1 
1 
1 
1 
1 
1 
1 
1 
1 
1 
1 
1 
1 
1 
1 
1 
1 
1 
1 
1 
1 
1 
1 
1 
1 
1 
1 
1 
1 
1 
1 
1 
1 
1 
1 
1 
1 
1 
1 
1 
1 
1 
1 
1 
1 
1 
1 
1 
1 
1 
1 
1 
1 
1 
1 
1 
1 
1 
1 
1 
1 
1 
1 
1 
1 
1 
1 
1 
1 
1 
1 
1 
1 
1 
1 
1 
1 
1 
1 
1 
1 
1 
1 
1 
1 
1 
1 
1 
1 
1 
1 
1 
1 
1 
1 
1 
1 
1 
1 
1 
1 
1 
1 
1 
1 
1 
1 
1 
1 
1 
1 
1 
1 
1 
1 
1 
1 
1 
1 
1 
1 
1 
1 
1 
1 
1 
1 
1 
1 
1 
1 
1 
1 
1 
1 
1 
1 
1 
1 
1 
1 
1 
1 
1 
1 
1 
1 
1 
1 
1 
1 
1 
1 
1 
1 
1 
1 
1 
1 
1 
1 
1 
1 
1 
1 
1 
1 
1 
1 
1 
1 
1 
1 
1 
1 
1 
1 
1 
1 
1 
1 
1 
1 
1 
1 
1 
1 
1 
1 
1 
1 
1 
1 
1 
1 
1 
1 
1 
1 
1 
1 
1 
1 
1 
1 
1 
1 
1 
1 
1 
1 
1 
1 
1 
1 
1 
1 
1 
1 
1 
1 
1 
1 
1 
1 
1 
1 
1 
1 
1 
1 
1 
1 
1 
1 
1 
1 
1 
1 
1 
1 
1 
1 
1 
1 
1 
1 
1 
1 
1 
1 
1 
1 
1 
1 
1 
1 
1 
1 
1 
1 
1 
1 
1 
1 
1 
1 
1 
1 
1 
1 
1 
1 
1 
1 
1 
1 
1 
1 
1 
1 
1 
1 
1 
1 
1 
1 
1 
1 
1 
1 
1 
1 
1 
1 
1 
1 
1 
1 
1 
1 
1 
1 
1 
1 
1 
1 
1 
1 
1 
1 
1 
1 
1 
1 
1 
1 
1 
1 
1 
1 
1 
1 
1 
1 
1 
1 
1 
1 
1 
1 
1 
1 
1 
1 
1 
1 
1 
1 
1 
1 
1 
1 
1 
1 
1 
1 
1 
1 
1 
1 
1 
1 
1 
1 
1 
1 
1 
1 
1 
1 
1 
1 
1 
1 
1 
1 
1 
1 
1 
1 
1 
1 
1 
1 
1 
1 
1 
1 
1 
1 
1 
1 
1 
1 
1 
1 
1 
1 
1 
1 
1 
1 
1 
1 
1 
1 
1 
1 
1 
1 
1 
1 
1 
1 
1 
1 
1 
1 
1 
1 
1 
1 
1 
1 
1 
1 
1 
1 
1 
1 
1 
1 
1 
1 
1 
1 
1 
1 
1 
1 
1 
1 
1 
1 
1 
1 
1 
1 
1 
1 
1 
1 
1 
1 
1 
1 
1 
1 
1 
1 
1 
1 
1 
1 
1 
1 
1 
1 
1 
1 
1 
1 
1 
1 
1 
1 
1 
1 
1 
1 
1 
1 
1 
1 
1 
1 
1 
1 
1 
1 
1 
1 
1 
1 
1 
1 
1 
1 
1 
1 
1 
1 
1 
1 
1 
1 
1 
1 
1 
1 
1 
1 
1 
1 
1 
1 
1 
1 
1 
1 
1 
1 
1 
1 
1 
1 
1 
1 
1 
1 
1 
1 
1 
1 
1 
1 
1 
1 
1 
1 
1 
1 
1 
1 
1 
1 
1 
1 
1 
1 
1 
1 
1 
1 
1 
1 
1 
1 
1 
1 
1 
1 
1 
1 
1 
1 
1 
1 
1 
1 
1 
1 
1 
1 
1 
1 
1 
1 
1 
1 
1 
1 
1 
1 
1 
1 
1 
1 
1 
1 
1 
1 
1 
1 
1 
1 
1 
1 
1 
1 
1 
1 
1 
1 
1 
1 
1 
1 
1 
1 
1 
1 
1 
1 
1 
1 
1 
1 
1 
1 
1 
1 
1 
1 
1 
1 
1 
1 
1 
1 
1 
1 
1 
1 
1 
1 
1 
1 
1 
1 
1 
1 
1 
1 
1 
1 
1 
1 
1 
1 
1 
1 
1 
1 
1 
1 
1 
1 
1 
1 
1 
1 
1 
1 
1 
1 
1 
1 
1 
1 
1 
1 
1 
1 
1 
1 
1 
1 
1 
1 
1 
1 
1 
1 
1 
1 
1 
1 
1 
1 
1 
1 
1 
1 
1 
1 
1 
1 
1 
1 
1 
1 
1 
1 
1 
1 
1 
1 
1 
1 
1 
1 
1 
1 
1 
1 
1 
1 
1 
1 
1 
1 
1 
1 
1 
1 
1 
1 
1 
1 
1 
1 
1 
1 
1 
1 
1 
1 
1 
1 
1 
1 
1 
1 
1 
1 
1 
1 
1 
1 
1 
1 
1 
1 
1 
1 
1 
1 
1 
1 
1 
1 
1 
1 
1 
1 
1 
1 
1 
1 
1 
1 
1 
1 
1 
1 
1 
1 
1 
1 
1 
1 
1 
1 
1 
1 
1 
1 
1 
1 
1 
1 
1 
1 
1 
1 
1 
1 
1 
1 
1 
1 
1 
1 
1 
1 
1 
1 
1 
1 
1 
1 
1 
1 
1 
1 
1 
1 
1 
1 
1 
1 
1 
1 
1 
1 
1 
1 
1 
1 
1 
1 
1 
1 
1 
1 
1 
1 
1 
1 
1 
1 
1 
1 
1 
1 
1 
1 
1 
1 
1 
1 
1 
1 
1 
1 
1 
1 
1 
1 
1 
1 
1 
1 
1 
1 
1 
1 
1 
1 
1 
1 
1 
1 
1 
1 
1 
1 
1 
1 
1 
1 
1 
1 
1 
1 
1 
1 
1 
1 
1 
1 
1 
1 
1 
1 
1 
1 
1 
1 
1 
1 
1 
1 
1 
1 
1 
1 
1 
1 
1 
1 
1 
1 
1 
1 
1 
1 
1 
1 
1 
1 
1 
1 
1 
1 
1 
1 
1 
1 
1 
1 
1 
1 
1 
1 
1 
1 
1 
1 
1 
1 
1 
1 
1 
1 
1 
1 
1 
1 
1 
1 
1 
1 
1 
1 
1 
1 
1 
1 
1 
1 
1 
1 
1 
1 
1 
1 
1 
1 
1 
1 
1 
1 
1 
1 
1 
1 
1 
1 
1 
1 
1 
1 
1 
1 
1 
1 
1 
1 
1 
1 
1 
1 
1 
1 
1 
1 
1 
1 
1 
1 
1 
1 
1 
1 
1 
1 
1 
1 
1 
1 
1 
1 
1 
1 
1 
1 
1 
1 
1 
1 
1 
1 
1 
1 
1 
1 
1 
1 
1 
1 
1 
1 
1 
1 
1 
1 
1 
1 
1 
1 
1 
1 
1 
1 
1 
1 
1 
1 
1 
1 
1 
1 
1 
1 
1 
1 
1 
1 
1 
1 
1 
1 
1 
1 
1 
1 
1 
1 
1 
1 
1 
1 
1 
1 
1 
1 
1 
1 
1 
1 
1 
1 
1 
1 
1 
1 
1 
1 
1 
1 
1 
1 
1 
1 
1 
1 
1 
1 
1 
1 
1 
1 
1 
1 
1 
1 
1 
1 
1 
1 
1 
1 
1 
1 
1 
1 
1 
1 
1 
1 
1 
1 
1 
1 
1 
1 
1 
1 
1 
1 
1 
1 
1 
1 
1 
1 
1 
1 
1 
1 
1 
1 
1 
1 
1 
1 
1 
1 
1 
1 
1 
1 
1 
1 
1 
1 
1 
1 
1 
1 
1 
1 
1 
1 
1 
1 
1 
1 
1 
1 
1 
1 
1 
1 
1 
1 
1 
1 
1 
1 
1 
1 
1 
1 
1 
1 
1 
1 
1 
1 
1 
1 
1 
1 
1 
1 
1 
1 
1 
1 
1 
1 
1 
1 
1 
1 
1 
1 
1 
1 
1 
1 
1 
1 
1 
1 
1 
1 
1 
1 
1 
1 
1 
1 
1 
1 
1 
1 
1 
1 
1 
1 
1 
1 
1 
1 
1 
1 
1 
1 
1 
1 
1 
1 
1 
1 
1 
1 
1 
1 
1 
1 
1 
1 
1 
1 
1 
1 
1 
1 
1 
1 
1 
1 
1 
1 
1 
1 
1 
1 
1 
1 
1 
1 
1 
1 
1 
1 
1 
1 
1 
1 
1 
1 
1 
1 
1 
1 
1 
1 
1 
1 
1 
1 
1 
1 
1 
1 
1 
1 
1 
1 
1 
1 
1 
1 
1 
1 
1 
1 
1 
1 
1 
1 
1 
1 
1 
1 
1 
1 
1 
1 
1 
1 
1 
1 
1 
1 
1 
1 
1 
1 
1 
1 
1 
1 
1 
1 
1 
1 
1 
1 
1 
1 
1 
1 
1 
1 
1 
1 
1 
1 
1 
1 
1 
1 
1 
1 
1 
1 
1 
1 
1 
1 
1 
1 
1 
1 
1 
1 
1 
1 
1 
1 
1 
1 
1 
1 
1 
1 
1 
1 
1 
1 
1 
1 
1 
1 
1 
1 
1 
1 
1 
1 
1 
1 
1 
1 
1 
1 
1 
1 
1 
1 
1 
1 
1 
1 
1 
1 
1 
1 
1 
1 
1 
1 
1 
1 
1 
1 
1 
1 
1 
1 
1 
1 
1 
1 
1 
1 
1 
1 
1 
1 
1 
1 
1 
1 
1 
1 
1 
1 
1 
1 
1 
1 
1 
1 
1 
1 
1 
1 
1 
1 
1 
1 
1 
1 
1 
1 
1 
1 
1 
1 
1 
1 
1 
1 
1 
1 
1 
1 
1 
1 
1 
1 
1 
1 
1 
1 
1 
1 
1 
1 
1 
1 
1 
1 
1 
1 
1 
1 
1 
1 
1 
1 
1 
1 
1 
1 
1 
1 
1 
1 
1 
1 
1 
1 
1 
1 
1 
1 
1 
1 
1 
1 
1 
1 
1 
1 
1 
1 
1 
1 
1 
1 
1 
1 
1 
1 
1 
1 
1 
1 
1 
1 
1 
1 
1 
1 
1 
1 
1 
1 
1 
1 
1 
1 
1 
1 
1 
1 
1 
1 
1 
1 
1 
1 
1 
1 
1 
1 
1 
1 
1 
1 
1 
1 
1 
1 
1 
1 
1 
1 
1 
1 
1 
1 
1 
1 
1 
1 
1 
1 
1 
1 
1 
1 
1 
1 
1 
1 
1 
1 
1 
1 
1 
1 
1 
1 
1 
1 
1 
1 
1 
1 
1 
1 
1 
1 
1 
1 
1 
1 
1 
1 
1 
1 
1 
1 
1 
1 
1 
1 
1 
1 
1 
1 
1 
1 
1 
1 
1 
1 
1 
1 
1 
1 
1 
1 
1 
1 
1 
1 
1 
1 
1 
1 
1 
1 
1 
1 
1 
1 
1 
1 
1 
1 
1 
1 
1 
1 
1 
1 
1 
1 
1 
1 
1 
1 
1 
1 
1 
1 
1 
1 
1 
1 
1 
1 
1 
1 
1 
1 
1 
1 
1 
1 
1 
1 
1 
1 
1 
1 
1 
1 
1 
1 
1 
1 
1 
1 
1 
1 
1 
1 
1 
1 
1 
1 
1 
1 
1 
1 
1 
1 
1 
1 
1 
1 
1 
1 
1 
1 
1 
1 
1 
1 
1 
1 
1 
1 
1 
1 
1 
1 
1 
1 
1 
1 
1 
1 
1 
1 
1 
1 
1 
1 
1 
1 
1 
1 
1 
1 
1 
1 
1 
1 
1 
1 
1 
1 
1 
1 
1 
1 
1 
1 
1 
1 
1 
1 
1 
1 
1 
1 
1 
1 
1 
1 
1 
1 
1 
1 
1 
1 
1 
1 
1 
1 
1 
1 
1 
1 
1 
1 
1 
1 
1 
1 
1 
1 
1 
1 
1 
1 
1 
1 
1 
1 
1 
1 
1 
1 
1 
1 
1 
1 
1 
1 
1 
1 
1 
1 
1 
1 
1 
1 
1 
1 
1 
1 
1 
1 
1 
1 
1 
1 
1 
1 
1 
1 
1 
1 
1 
1 
1 
1 
1 
1 
1 
1 
1 
1 
1 
1 
1 
1 
1 
1 
1 
1 
1 
1 
1 
1 
1 
1 
1 
1 
1 
1 
1 
1 
1 
1 
1 
1 
1 
1 
1 
1 
1 
1 
1 
1 
1 
1 
1 
1 
1 
1 
1 
1 
1 
1 
1 
1 
1 
1 
1 
1 
1 
1 
1 
1 
1 
1 
1 
1 
1 
1 
1 
1 
1 
1 
1 
1 
1 
1 
1 
1 
1 
1 
1 
1 
1 
1 
1 
1 
1 
1 
1 
1 
1 
1 
1 
1 
1 
1 
1 
1 
1 
1 
1 
1 
1 
1 
1 
1 
1 
1 
1 
1 
1 
1 
1 
1 
1 
1 
1 
1 
1 
1 
1 
1 
1 
1 
1 
1 
1 
1 
1 
1 
1 
1 
1 
1 
1 
1 
1 
1 
1 
1 
1 
1 
1 
1 
1 
1 
1 
1 
1 
1 
1 
1 
1 
1 
1 
1 
1 
1 
1 
1 
1 
1 
1 
1 
1 
1 
1 
1 
1 
1 
1 
1 
1 
1 
1 
1 
1 
1 
1 
1 
1 
1 
1 
1 
1 
1 
1 
1 
1 
1 
1 
1 
1 
1 
1 
1 
1 
1 
1 
1 
1 
1 
1 
1 
1 
1 
1 
1 
1 
1 
1 
1 
1 
1 
1 
1 
1 
1 
1 
1 
1 
1 
1 
1 
1 
1 
1 
1 
1 
1 
1 
1 
1 
1 
1 
1 
1 
1 
1 
1 
1 
1 
1 
1 
1 
1 
1 
1 
1 
1 
1 
1 
1 
1 
1 
1 
1 
1 
1 
1 
1 
1 
1 
1 
1 
1 
1 
1 
1 
1 
1 
1 
1 
1 
1 
1 
1 
1 
1 
1 
1 
1 
1 
1 
1 
1 
1 
1 
1 
1 
1 
1 
1 
1 
1 
1 
1 
1 
1 
1 
1 
1 
1 
1 
1 
1 
1 
1 
1 
1 
1 
1 
1 
1 
1 
1 
1 
1 
1 
1 
1 
1 
1 
1 
1 
1 
1 
1 
1 
1 
1 
1 
1 
1 
1 
1 
1 
1 
1 
1 
1 
1 
1 
1 
1 
1 
1 
1 
1 
1 
1 
1 
1 
1 
1 
1 
1 
1 
1 
1 
1 
1 
1 
1 
1 
1 
1 
1 
1 
1 
1 
1 
1 
1 
1 
1 
1 
1 
1 
1 
1 
1 
1 
1 
1 
1 
1 
1 
1 
1 
1 
1 
1 
1 
1 
1 
1 
1 
1 
1 
1 
1 
1 
1 
1 
1 
1 
1 
1 
1 
1 
1 
1 
1 
1 
1 
1 
1 
1 
1 
1 
1 
1 
1 
1 
1 
1 
1 
1 
1 
1 
1 
1 
1 
1 
1 
1 
1 
1 
1 
1 
1 
1 
1 
1 
1 
1 
1 
1 
1 
1 
1 
1 
1 
1 
1 
1 
1 
1 
1 
1 
1 
1 
1 
1 
1 
1 
1 
1 
1 
1 
1 
1 
1 
1 
1 
1 
1 
1 
1 
1 
1 
1 
1 
1 
1 
1 
1 
1 
1 
1 
1 
1 
1 
1 
1 
1 
1 
1 
1 
1 
1 
1 
1 
1 
1 
1 
1 
1 
1 
1 
1 
1 
1 
1 
1 
1 
1 
1 
1 
1 
1 
1 
1 
1 
1 
1 
1 
1 
1 
1 
1 
1 
1 
1 
1 
1 
1 
1 
1 
1 
1 
1 
1 
1 
1 
1 
1 
1 
1 
1 
1 
1 
1 
1 
1 
1 
1 
1 
1 
1 
1 
1 
1 
1 
1 
1 
1 
1 
1 
1 
1 
1 
1 
1 
1 
1 
1 
1 
1 
1 
1 
1 
1 
1 
1 
1 
1 
1 
1 
1 
1 
1 
1 
1 
1 
1 
1 
1 
1 
1 
1 
1 
1 
1 
1 
1 
1 
1 
1 
1 
1 
1 
1 
1 
1 
1 
1 
1 
1 
1 
1 
1 
1 
1 
1 
1 
1 
1 
1 
1 
1 
1 
1 
1 
1 
1 
1 
1 
1 
1 
1 
1 
1 
1 
1 
1 
1 
1 
1 
1 
1 
1 
1 
1 
1 
1 
1 
1 
1 
1 
1 
1 
1 
1 
1 
1 
1 
1 
1 
1 
1 
1 
1 
1 
1 
1 
1 
1 
1 
1 
1 
1 
1 
1 
1 
1 
1 
1 
1 
1 
1 
1 
1 
1 
1 
1 
1 
1 
1 
1 
1 
1 
1 
1 
1 
1 
1 
1 
1 
1 
1 
1 
1 
1 
1 
1 
1 
1 
1 
1 
1 
1 
1 
1 
1 
1 
1 
1 
1 
1 
1 
1 
1 
1 
1 
1 
1 
1 
1 
1 
1 
1 
1 
1 
1 
1 
1 
1 
1 
1 
1 
1 
1 
1 
1 
1 
1 
1 
1 
1 
1 
1 
1 
1 
1 
1 
1 
1 
1 
1 
1 
1 
1 
1 
1 
1 
1 
1 
1 
1 
1 
1 
1 
1 
1 
1 
1 
1 
1 
1 
1 
1 
1 
1 
1 
1 
1 
1 
1 
1 
1 
1 
1 
1 
1 
1 
1 
1 
1 
1 
1 
1 
1 
1 
1 
1 
1 
1 
1 
1 
1 
1 
1 
1 
1 
1 
1 
1 
1 
1 
1 
1 
1 
1 
1 
1 
1 
1 
1 
1 
1 
1 
1 
1 
1 
1 
1 
1 
1 
1 
1 
1 
1 
1 
1 
1 
1 
1 
1 
1 
1 
1 
1 
1 
1 
1 
1 
1 
1 
1 
1 
1 
1 
1 
1 
1 
1 
1 
1 
1 
1 
1 
1 
1 
1 
1 
1 
1 
1 
1 
1 
1 
1 
1 
1 
1 
1 
1 
1 
1 
1 
1 
1 
1 
1 
1 
1 
1 
1 
1 
1 
1 
1 
1 
1 
1 
1 
1 
1 
1 
1 
1 
1 
1 
1 
1 
1 
1 
1 
1 
1 
1 
1 
1 
1 
1 
1 
1 
1 
1 
1 
1 
1 
1 
1 
1 
1 
1 
1 
1 
1 
1 
1 
1 
1 
1 
1 
1 
1 
1 
1 
1 
1 
1 
1 
1 
1 
1 
1 
1 
1 
1 
1 
1 
1 
1 
1 
1 
1 
1 
1 
1 
1 
1 
1 
1 
1 
1 
1 
1 
1 
1 
1 
1 
1 
1 
1 
1 
1 
1 
1 
1 
1 
1 
1 
1 
1 
1 
1 
1 
1 
1 
1 
1 
1 
1 
1 
1 
1 
1 
1 
1 
1 
1 
1 
1 
1 
1 
1 
1 
1 
1 
1 
1 
1 
1 
1 
1 
1 
1 
1 
1 
1 
1 
1 
1 
1 
1 
1 
1 
1 
1 
1 
1 
1 
1 
1 
1 
1 
1 
1 
1 
1 
1 
1 
1 
1 
1 
1 
1 
1 
1 
1 
1 
1 
1 
1 
1 
1 
1 
1 
1 
1 
1 
1 
1 
1 
1 
1 
1 
1 
1 
1 
1 
1 
1 
1 
1 
1 
1 
1 
1 
1 
1 
1 
1 
1 
1 
1 
1 
1 
1 
1 
1 
1 
1 
1 
1 
1 
1 
1 
1 
1 
1 
1 
1 
1 
1 
1 
1 
1 
1 
1 
1 
1 
1 
1 
1 
1 
1 
1 
1 
1 
1 
1 
1 
1 
1 
1 
1 
1 
1 
1 
1 
1 
1 
1 
1 
1 
1 
1 
1 
1 
1 
1 
1 
1 
1 
1 
1 
1 
1 
1 
1 
1 
1 
1 
1 
1 
1 
1 
1 
1 
1 
1 
1 
1 
1 
1 
1 
1 
1 
1 
1 
1 
1 
1 
1 
1 
1 
1 
1 
1 
1 
1 
1 
1 
1 
1 
1 
1 
1 
1 
1 
1 
1 
1 
1 
1 
1 
1 
1 
1 
1 
1 
1 
1 
1 
1 
1 
1 
1 
1 
1 
1 
1 
1 
1 
1 
1 
1 
1 
1 
1 
1 
1 
1 
1 
1 
1 
1 
1 
1 
1 
1 
1 
1 
1 
1 
1 
1 
1 
1 
1 
1 
1 
1 
1 
1 
1 
1 
1 
1 
1 
1 
1 
1 
1 
1 
1 
1 
1 
1 
1 
1 
1 
1 
1 
1 
1 
1 
1 
1 
1 
1 
1 
1 
1 
1 
1 
1 
1 
1 
1 
1 
1 
1 
1 
1 
1 
1 
1 
1 
1 
1 
1 
1 
1 
1 
1 
1 
1 
1 
1 
1 
1 
1 
1 
1 
1 
1 
1 
1 
1 
1 
1 
1 
1 
1 
1 
1 
1 
1 
1 
1 
1 
1 
1 
1 
1 
1 
1 
1 
1 
1 
1 
1 
1 
1 
1 
1 
1 
1 
1 
1 
1 
1 
1 
1 
1 
1 
1 
1 
1 
1 
1 
1 
1 
1 
1 
1 
1 
1 
1 
1 
1 
1 
1 
1 
1 
1 
1 
1 
1 
1 
1 
1 
1 
1 
1 
1 
1 
1 
1 
1 
1 
1 
1 
1 
1 
1 
1 
1 
1 
1 
1 
1 
1 
1 
1 
1 
1 
1 
1 
1 
1 
1 
1 
1 
1 
1 
1 
1 
1 
1 
1 
1 
1 
1 
1 
1 
1 
1 
1 
1 
1 
1 
1 
1 
1 
1 
1 
1 
1 
1 
1 
1 
1 
1 
1 
1 
1 
1 
1 
1 
1 
1 
1 
1 
1 
1 
1 
1 
1 
1 
1 
1 
1 
1 
1 
1 
1 
1 
1 
1 
1 
1 
1 
1 
1 
1 
1 
1 
1 
1 
1 
1 
1 
1 
1 
1 
1 
1 
1 
1 
1 
1 
1 
1 
1 
1 
1 
1 
1 
1 
1 
1 
1 
1 
1 
1 
1 
1 
1 
1 
1 
1 
1 
1 
1 
1 
1 
1 
1 
1 
1 
1 
1 
1 
1 
1 
1 
1 
1 
1 
1 
1 
1 
1 
1 
1 
1 
1 
1 
1 
1 
1 
1 
1 
1 
1 
1 
1 
1 
1 
1 
1 
1 
1 
1 
1 
1 
1 
1 
1 
1 
1 
1 
1 
1 
1 
1 
1 
1 
1 
1 
1 
1 
1 
1 
1 
1 
1 
1 
1 
1 
1 
1 
1 
1 
1 
1 
1 
1 
1 
1 
1 
1 
1 
1 
1 
1 
1 
1 
1 
1 
1 
1 
1 
1 
1 
1 
1 
1 
1 
1 
1 
1 
1 
1 
1 
1 
1 
1 
1 
1 
1 
1 
1 
1 
1 
1 
1 
1 
1 
1 
1 
1 
1 
1 
1 
1 
1 
1 
1 
1 
1 
1 
1 
1 
1 
1 
1 
1 
1 
1 
1 
1 
1 
1 
1 
1 
1 
1 
1 
1 
1 
1 
1 
1 
1 
1 
1 
1 
1 
1 
1 
1 
1 
1 
1 
1 
1 
1 
1 
1 
1 
1 
1 
1 
1 
1 
1 
1 
1 
1 
1 
1 
1 
1 
1 
1 
1 
1 
1 
1 
1 
1 
1 
1 
1 
1 
1 
1 
1 
1 
1 
1 
1 
1 
1 
1 
1 
1 
1 
1 
1 
1 
1 
1 
1 
1 
1 
1 
1 
1 
1 
1 
1 
1 
1 
1 
1 
1 
1 
1 
1 
1 
1 
1 
1 
1 
1 
1 
1 
1 
1 
1 
1 
1 
1 
1 
1 
1 
1 
1 
1 
1 
1 
1 
1 
1 
1 
1 
1 
1 
1 
1 
1 
1 
1 
1 
1 
1 
1 
1 
1 
1 
1 
1 
1 
1 
1 
1 
1 
1 
1 
1 
1 
1 
1 
1 
1 
1 
1 
1 
1 
1 
1 
1 
1 
1 
1 
1 
1 
1 
1 
1 
1 
1 
1 
1 
1 
1 
1 
1 
1 
1 
1 
1 
1 
1 
1 
1 
1 
1 
1 
1 
1 
1 
1 
1 
1 
1 
1 
1 
1 
1 
1 
1 
1 
1 
1 
1 
1 
1 
1 
1 
1 
1 
1 
1 
1 
1 
1 
1 
1 
1 
1 
1 
1 
1 
1 
1 
1 
1 
1 
1 
1 
1 
1 
1 
1 
1 
1 
1 
1 
1 
1 
1 
1 
1 
1 
1 
1 
1 
1 
1 
1 
1 
1 
1 
1 
1 
1 
1 
1 
1 
1 
1 
1 
1 
1 
1 
1 
1 
1 
1 
1 
1 
1 
1 
1 
1 
1 
1 
1 
1 
1 
1 
1 
1 
1 
1 
1 
1 
1 
1 
1 
1 
1 
1 
1 
1 
1 
1 
1 
1 
1 
1 
1 
1 
1 
1 
1 
1 
1 
1 
1 
1 
1 
1 
1 
1 
1 
1 
1 
1 
1 
1 
1 
1 
1 
1 
1 
1 
1 
1 
1 
1 
1 
1 
1 
1 
1 
POINT_DATA 5000
VECTORS Stress float
-487.528 -996.159 0.
-1827.25 -2442.22 0.
-9.78047 -19.9095 0.
-2859.56 -4067.14 0.
-5.67354 -5.52779 0.
3.01171 4.26451 0.
-4041.53 -5800.97 0.
-518.108 -590.516 0.
-471.424 -736.981 0.
-3469.72 -5180.29 0.
-1329.49 -2291.19 0.
-147.442 -366.388 0.
-2040.39 -3190.54 0.
-1567.48 -2424.5 0.
-1190.47 -1716.13 0.
-1022.66 -1534.1 0.
-850.334 -1356.59 0.
-995.173 -1587.89 0.
-846.922 -1479.59 0.
-681.447 -1388.52 0.
-872.139 -1617.64 0.
-867.438 -1607.92 0.
-862.158 -1598.78 0.
-883.408 -1634.03 0.
-891.496 -1652.28 0.
-897.135 -1672.98 0.
-1089.23 -1830.13 0.
-1078.22 -1839.76 0.
-896.871 -1776.29 0.
-877.63 -1715.05 0.
-850.668 -1661.53 0.
-866.401 -1668.27 0.
-849.596 -1657.47 0.
-830.58 -1648.87 0.
-868.929 -1693.28 0.
-867.352 -1710.58 0.
-865.722 -1727.93 0.
-950.885 -1768.08 0.
-941.619 -1766.76 0.
-819.752 -1708.49 0.
-793.461 -1660.61 0.
-767.176 -1612.73 0.
-809.66 -1600.93 0.
-806.885 -1594.46 0.
-804.109 -1588 0.
-812.019 -1599.44 0.
-821.85 -1622.38 0.
-831.68 -1645.31 0.
-839.328 -1682.24 0.
-859.223 -1728.67 0.
-879.117 -1775.09 0.
-908.642 -1747.49 0.
-887.52 -1698.19 0.
-820.668 -1635.46 0.
-814.067 -1620.06 0.
-807.465 -1604.67 0.
-797.997 -1583.76 0.
-786.357 -1556.59 0.
-774.716 -1529.42 0.
-754.836 -1565.38 0.
-798.854 -1657.48 0.
-845.452 -1747 0.
-948.459 -1787.87 0.
-951.247 -1778.49 0.
-863.789 -1725.12 0.
-878.953 -1732.4 0.
-893.53 -1740.27 0.
-856.281 -1712.65 0.
-863.307 -1699.49 0.
-868.932 -1687.73 0.
-839.283 -1658.51 0.
-872.445 -1700.05 0.
-902.915 -1744.28 0.
-1075.02 -1802.83 0.
-1080.42 -1796.53 0.
-892.527 -1646.85 0.
-853.111 -1592.31 0.
-854.5 -1591 0.
-835.083 -1591.65 0.
-828.594 -1598.86 0.
-846.686 -1581.5 0.
-713.005 -1386.97 0.
-943.357 -1634.23 0.
-1156.69 -1898.51 0.
-1001.37 -1640.52 0.
-1235.33 -1883.87 0.
-1465.64 -2130.88 0.
-1806.17 -2632.11 0.
-2346.86 -3344.28 0.
-32.6693 -76.0825 0.
-730.276 -1453.33 0.
-3923.32 -6660.91 0.
0.706919 1.29129 0.
-214.601 -329.275 0.
-2329.17 -3224.17 0.
1.42728 2.73153 0.
-2575.57 -4521.61 0.
-6.21909 -48.0904 0.
15.2541 31.8677 0.
-1365.67 -2773.68 0.
19.539 47.5782 0.
-11.1961 -30.9501 0.
-1.03648 -3.98735 0.
-3.09589 -27.1957 0.
-0.626329 -3.17091 0.
3.13656 11.6412 0.
1.79971 0.0389858 0.
-176.536 -68.1167 0.
-679.861 -496.802 0.
-250.032 -652.416 0.
-87.6341 -231.225 0.
0.436812 0.335178 0.
-659.627 -1372.75 0.
-336.753 -708.821 0.
-274.323 -472.5 0.
-133.356 -270.33 0.
-109.829 -228.608 0.
-355.843 -752.966 0.
-256.422 -617.128 0.
-176.264 -479.316 0.
-584.641 -1338.59 0.
-573.464 -1339.75 0.
-567.212 -1336.95 0.
-694.886 -1365.54 0.
-687.963 -1398.8 0.
-677.722 -1435.37 0.
-1028.51 -1712.68 0.
-1019.06 -1720.74 0.
-713.515 -1513.35 0.
-674.065 -1453.24 0.
-646.511 -1395.24 0.
-670.959 -1471.08 0.
-647.274 -1467.15 0.
-649.908 -1436.89 0.
-770.071 -1581.48 0.
-768.76 -1598.51 0.
-767.111 -1615.89 0.
-995.733 -1733.09 0.
-988.716 -1729.51 0.
-678.713 -1588.14 0.
-647.032 -1545.64 0.
-618.885 -1499.62 0.
-769.496 -1522.9 0.
-755.978 -1527.19 0.
-743.375 -1530.55 0.
-756.185 -1544.09 0.
-766.016 -1567.02 0.
-775.847 -1589.95 0.
-776.054 -1615.02 0.
-789.874 -1667.52 0.
-809.76 -1713.94 0.
-930.701 -1725.51 0.
-909.592 -1676.2 0.
-752.494 -1574.81 0.
-745.883 -1559.42 0.
-739.272 -1544.03 0.
-726.581 -1521.7 0.
-722.575 -1486.9 0.
-721.218 -1449.45 0.
-644.37 -1462.86 0.
-695.785 -1547.57 0.
-747.972 -1631.51 0.
-965.993 -1743.99 0.
-965.299 -1738.1 0.
-757.431 -1570.14 0.
-752.922 -1597.1 0.
-769.174 -1603.3 0.
-658.488 -1499.16 0.
-672.42 -1479.1 0.
-687.537 -1457.85 0.
-632.545 -1345.4 0.
-639.188 -1413.48 0.
-673.115 -1454.28 0.
-995.022 -1656.2 0.
-1001.24 -1649.09 0.
-739.21 -1485.03 0.
-682.887 -1360.44 0.
-705.592 -1332.89 0.
-473.719 -1150.74 0.
-497.233 -1143.86 0.
-524.741 -1137.21 0.
-76.2161 -210.837 0.
-182.306 -461.528 0.
-326.867 -751.216 0.
-125.763 -301.72 0.
-129.13 -311.273 0.
-220.839 -454.111 0.
-138.639 -314.01 0.
-484.247 -931.186 0.
-0.0133897 -0.727384 0.
0.686517 1.55982 0.
-221.684 -461.239 0.
-0.449535 -8.92381 0.
-0.143414 -0.927267 0.
1.16814 2.11136 0.
0.0555903 0.860296 0.
-3.36093 -25.8024 0.
-3.73751 -40.571 0.
-3.91306 -8.63739 0.
-1.47664 -3.78568 0.
13.053 34.1578 0.
0.00193604 65.7523 0.
4.16925 25.5821 0.
-3.52054 -62.5661 0.
6.24458 18.4468 0.
3.74265 13.4686 0.
1.8139 0.00671442 0.
-535.11 -237.319 0.
-1049.12 -678.805 0.
-143.381 -363.237 0.
-42.4932 -51.2433 0.
-1.02378 -0.796475 0.
-224.188 -464.911 0.
-117.006 -141.914 0.
-679.993 -1265.12 0.
-202.096 -383.026 0.
-105.268 -185.208 0.
-889.857 -1990.57 0.
-787.702 -1860.29 0.
-693.309 -1687.1 0.
-1351.87 -2725.97 0.
-1018.67 -2053.37 0.
-719.302 -1462.12 0.
-769.171 -1299.22 0.
-844.032 -1539.2 0.
-1110.23 -2124.48 0.
-1377.71 -2426.11 0.
-1351.3 -2371.99 0.
-915.906 -1748.71 0.
-734.9 -1377.11 0.
-652.527 -1229.52 0.
-699.244 -1443.32 0.
-629.773 -1286.69 0.
-639.714 -1323.33 0.
-806.36 -1477.65 0.
-731.611 -1308.37 0.
-779.017 -1429.44 0.
-1042.04 -1672.35 0.
-1100.87 -1821.28 0.
-645.727 -1339.4 0.
-542.806 -1128.02 0.
-523.035 -1097.58 0.
-722.754 -1351.96 0.
-746.455 -1453.15 0.
-687.4 -1379.75 0.
-705.472 -1340.14 0.
-709.735 -1380.7 0.
-721.078 -1433.49 0.
-754.471 -1461.84 0.
-746.332 -1444.31 0.
-1517 -2183.11 0.
-836.126 -1432.14 0.
-830.68 -1419.57 0.
-667.11 -1333.37 0.
-659.563 -1289.89 0.
-655.752 -1287.53 0.
-706.094 -1379.79 0.
-678.772 -1309.33 0.
-693.763 -1299.87 0.
-606.592 -1169.52 0.
-678.247 -1339.99 0.
-729.054 -1425.38 0.
-1120.75 -1942.58 0.
-1118.21 -1926 0.
-800.398 -1417.05 0.
-811.138 -1533.88 0.
-811.499 -1516.78 0.
-656.404 -1389.31 0.
-637.314 -1341.73 0.
-702.331 -1451.19 0.
-599.542 -1207.88 0.
-780.769 -1637.55 0.
-922.358 -1890.18 0.
-1418.94 -2439.94 0.
-1425.77 -2451.76 0.
-1162.93 -2146.77 0.
-956.77 -1666.31 0.
-881.806 -1392.75 0.
-728.507 -1643.38 0.
-1095.32 -2292.24 0.
-1521.48 -3108.49 0.
-409.493 -1111.53 0.
-748.751 -1868.15 0.
-824.545 -1978.57 0.
-128.333 -307.063 0.
-113.694 -282.393 0.
-358.81 -700.578 0.
-34.9407 -88.8352 0.
-43.4562 -107.621 0.
0.782931 2.13228 0.
0.746033 1.85366 0.
-0.200363 -1.83991 0.
-0.217451 -14.8152 0.
-0.881273 -12.1617 0.
3.68828 7.7488 0.
15.8937 41.7099 0.
13.5824 32.253 0.
-1.26518 -19.0349 0.
-3.51474 -40.8537 0.
27.0524 73.676 0.
-1.55267 -4.19516 0.
-0.859526 -108.255 0.
-621.508 -1476.19 0.
8.31747 19.9273 0.
-1487.65 -3226.26 0.
-6.06871 -13.7385 0.
-1176.68 -2829.5 0.
-1302.06 -2042 0.
-582.424 -879.537 0.
-3567.41 -7298.93 0.
-290.775 -618.295 0.
-1.78921 -3.75017 0.
-3643.97 -7713.22 0.
-95.8008 -182.76 0.
-2004.79 -3400.31 0.
-1418.62 -2612.6 0.
-878.851 -1807.37 0.
-1736.08 -4118.16 0.
-683.161 -1783.44 0.
-176.951 -487.111 0.
-709.394 -1769.1 0.
-428.759 -1149.57 0.
-205.27 -568.469 0.
-572.312 -906.585 0.
-526.173 -891.066 0.
-486.828 -886.801 0.
-760.249 -1221.75 0.
-735.652 -1195.06 0.
-491.428 -749.784 0.
-495.684 -785.699 0.
-510.494 -846.519 0.
-494.459 -916.702 0.
-471.017 -909.144 0.
-449.479 -892.359 0.
-444.1 -873.557 0.
-402.483 -776.376 0.
-375.4 -667.873 0.
-670.24 -1036.54 0.
-679.821 -1079.06 0.
-424.628 -794.74 0.
-417.061 -779.904 0.
-410.35 -768.106 0.
-491.835 -973.441 0.
-464.645 -908.446 0.
-430.47 -852.494 0.
-476.418 -858.727 0.
-458.611 -832.773 0.
-450.547 -798.744 0.
-416.472 -818.844 0.
-419.504 -806.879 0.
-949.703 -1075.19 0.
-473.854 -806.729 0.
-422.508 -822.614 0.
-361.181 -766.315 0.
-403.262 -814.473 0.
-444.417 -864.099 0.
-446.081 -830.34 0.
-488.239 -871.554 0.
-514.225 -928.906 0.
-440.395 -826.948 0.
-455.168 -856.938 0.
-470.501 -888.204 0.
-617.238 -1135.78 0.
-635.009 -1137.15 0.
-453.02 -844.162 0.
-449.822 -873.141 0.
-477.37 -945.86 0.
-459.026 -895.588 0.
-473.039 -892.101 0.
-498.178 -879.106 0.
-467.525 -851.508 0.
-467.311 -846.198 0.
-486.43 -892.597 0.
-838.004 -1319.78 0.
-861.132 -1309.36 0.
-494.127 -851.64 0.
-552.108 -895.436 0.
-625.347 -967.932 0.
-85.018 -179.362 0.
-412.206 -1052.86 0.
-788.896 -1932.97 0.
-154.392 -423.381 0.
-773.708 -1982.35 0.
-2060.73 -4859.87 0.
-868.605 -1852.6 0.
-1374.74 -2607.8 0.
-1932.84 -3351.56 0.
-30.8951 -74.4074 0.
-3537.14 -7393.97 0.
-5.83778 -11.8954 0.
-70.0019 -128.342 0.
-2685.75 -4610.01 0.
1.00597 2.27479 0.
-2476.48 -5182.88 0.
-1.61373 -33.6992 0.
-3.12401 -7.70584 0.
-1044.07 -2553.85 0.
-9.60085 -24.7794 0.
-1048.02 -2708.75 0.
-13.8707 -38.0746 0.
-1.93377 -90.8227 0.
-1.32381 -112.681 0.
-431.137 -1061.2 0.
6.76908 16.8966 0.
1.7594 3.95923 0.
6.57536 15.5592 0.
-0.953878 -20.8179 0.
-400.163 -804.052 0.
-1.30467 -12.3472 0.
1.27696 2.13378 0.
-0.680875 -3.55321 0.
2.79079 6.51767 0.
-78.9705 -154.754 0.
-32.8106 -66.3345 0.
-76.7758 -173.957 0.
-93.4305 -218.289 0.
-147.119 -348.447 0.
-379.992 -1014.03 0.
-117.265 -324.137 0.
-110.568 -305.87 0.
-432.978 -1128.79 0.
-190.235 -498.91 0.
-82.8736 -203.803 0.
-512.592 -800.82 0.
-468.64 -780.31 0.
-437.874 -762.792 0.
-789.166 -1233.28 0.
-768.203 -1202.14 0.
-495.955 -729.241 0.
-531.446 -766.701 0.
-544.724 -827.053 0.
-530.479 -838.847 0.
-505.858 -828.561 0.
-478.423 -822.084 0.
-335.339 -776.745 0.
-308.113 -664.977 0.
-286.102 -549.292 0.
-683.592 -1031.86 0.
-705.771 -1076.6 0.
-493.673 -819.575 0.
-487.276 -803.784 0.
-483.303 -790.405 0.
-487.872 -910.781 0.
-462.713 -862.787 0.
-423.29 -843.165 0.
-477.593 -829.61 0.
-469.859 -795.565 0.
-461.481 -761.57 0.
-451.934 -831.355 0.
-451.522 -826.008 0.
-985.92 -1084.91 0.
-423.069 -769.984 0.
-415.292 -742.725 0.
-418.313 -733.96 0.
-447.538 -794.345 0.
-487.612 -844.474 0.
-427.86 -819.124 0.
-454.606 -848.522 0.
-488.102 -897.438 0.
-486.709 -843.285 0.
-510.852 -863.215 0.
-515.883 -904.273 0.
-645.596 -1145.45 0.
-648.503 -1148.75 0.
-398.619 -785.534 0.
-394.805 -814.896 0.
-419.212 -893.146 0.
-503.545 -785.875 0.
-540.389 -757.464 0.
-569.253 -735.756 0.
-484.662 -864.819 0.
-485.931 -862.735 0.
-490.571 -859.623 0.
-821.477 -1295.43 0.
-857.386 -1277.23 0.
-337.206 -653.534 0.
-370.77 -721.891 0.
-441.517 -787.52 0.
-67.3973 -170.603 0.
-136.401 -331.008 0.
-373.92 -910.624 0.
-92.1086 -251.653 0.
-127.081 -338.96 0.
-367.434 -965.105 0.
0.801593 1.95343 0.
-18.5487 -42.3069 0.
-97.5654 -211.541 0.
1.34078 3.55905 0.
-0.372607 -6.48122 0.
-0.930053 -9.33619 0.
-1.93563 -12.2702 0.
0.92711 1.74025 0.
-0.749132 -17.4011 0.
-2.59959 -32.3391 0.
-1.10203 -31.1169 0.
7.90977 19.9912 0.
-0.731659 -35.8594 0.
0.747884 1.97852 0.
1.80127 4.92002 0.
-0.620945 -1.70226 0.
-10.8951 -29.1879 0.
-0.965504 -58.8461 0.
-0.436183 -57.4696 0.
-1.67765 -53.29 0.
-1.25746 -52.8267 0.
-257.68 -691.15 0.
-0.836801 -50.3135 0.
-2536.68 -5887.71 0.
-2.7089 -6.90752 0.
-2327.51 -5185.47 0.
-50.1494 -114.042 0.
-0.907528 -2.2631 0.
-3195.13 -7943.88 0.
-51.1847 -127.267 0.
-2100.07 -3662.14 0.
-1018.51 -1988.66 0.
-285.664 -683.558 0.
-2606.69 -5931.56 0.
-939.654 -2264.13 0.
-86.6961 -234.273 0.
-2090.49 -4416.13 0.
-1162.78 -2724.55 0.
-338.661 -929.784 0.
-1219.58 -2363.06 0.
-868.557 -1724.23 0.
-572.534 -1185.67 0.
-1007.67 -1840.73 0.
-878.696 -1671.07 0.
-741.954 -1256.47 0.
-718.988 -1206.39 0.
-697.169 -1157.01 0.
-693.481 -1191.36 0.
-711.251 -1275.02 0.
-735.447 -1352.25 0.
-687.109 -1491.92 0.
-682.693 -1513.29 0.
-681.283 -1531.65 0.
-1222.15 -2059.78 0.
-1127.04 -1908.5 0.
-782.889 -1423.81 0.
-773.892 -1401.49 0.
-766.171 -1377.49 0.
-735.447 -1500.32 0.
-728.938 -1498.8 0.
-726.333 -1504.68 0.
-798.464 -1545.7 0.
-778.828 -1501.53 0.
-760.346 -1456.19 0.
-821.093 -1595.77 0.
-802.385 -1552.54 0.
-1444.86 -1853.36 0.
-775.088 -1554.33 0.
-799.44 -1606.29 0.
-771.207 -1570.3 0.
-762.31 -1557.2 0.
-753.926 -1543.6 0.
-618.453 -1373.17 0.
-706.472 -1493.51 0.
-769.784 -1657.42 0.
-853.541 -1532.8 0.
-819.486 -1452.83 0.
-787.443 -1370.84 0.
-1053.38 -1829.11 0.
-1145.57 -2003.53 0.
-722.849 -1554.28 0.
-703.617 -1513.01 0.
-693.272 -1470.96 0.
-767.219 -1177.11 0.
-759.899 -1194.4 0.
-754.225 -1210.06 0.
-616.922 -1308.52 0.
-660.864 -1363.68 0.
-708.863 -1416.9 0.
-903.252 -1743.92 0.
-1079.17 -1970.25 0.
-499.494 -1206.33 0.
-891.823 -1983.67 0.
-1366.73 -2882.02 0.
-163.801 -453.072 0.
-1152.05 -2789.08 0.
-2294.08 -5009.89 0.
-114.069 -264.757 0.
-642.59 -1440.28 0.
-2466.68 -5045.45 0.
-328.233 -873.727 0.
-3193 -6970.3 0.
-1.06569 -2.95052 0.
2.91463 7.9381 0.
-2762.56 -6987.56 0.
-0.126411 -2.59609 0.
7.58362 17.1134 0.
-2016.75 -4263.11 0.
-0.196942 -37.3117 0.
-896.552 -2457.05 0.
10.9322 30.2726 0.
-3.38934 -8.74096 0.
-1.50045 -4.0508 0.
-60.8245 -163.913 0.
25.3399 69.0956 0.
-16.4161 -44.9406 0.
-100.724 -272.032 0.
28.8269 75.9976 0.
-3.55392 -90.4835 0.
-30.411 -84.1647 0.
16.4974 45.6949 0.
-158.467 -432.992 0.
-0.200519 -32.5805 0.
-97.7495 -250.446 0.
9.98805 26.683 0.
0.538749 1.23758 0.
-0.687148 -13.235 0.
5.09824 13.5568 0.
-40.0715 -99.3496 0.
1.83049 4.8851 0.
-0.00205351 -4.52237 0.
-45.4738 -125.556 0.
0.514171 1.4097 0.
-234.675 -626.044 0.
-88.7502 -236.278 0.
-46.281 -121.32 0.
-508.301 -1290.68 0.
-74.0447 -202.198 0.
-53.6868 -138.461 0.
-528.163 -1346.57 0.
-260.922 -689.826 0.
-105.235 -278.14 0.
-694.96 -1474.57 0.
-585.311 -1359.13 0.
-598.891 -1105.63 0.
-566.935 -1084.45 0.
-555.731 -1063.71 0.
-644.33 -1052.02 0.
-667.059 -1134.75 0.
-690.098 -1232.11 0.
-684.711 -1334.22 0.
-685.06 -1362.9 0.
-684.718 -1392.58 0.
-1037.24 -1836.67 0.
-950.299 -1702.21 0.
-697.207 -1324.33 0.
-685.911 -1304.42 0.
-674.928 -1284.69 0.
-661.97 -1336.31 0.
-667.551 -1340.44 0.
-652.439 -1388.5 0.
-728.452 -1453.24 0.
-704.54 -1410.06 0.
-683.106 -1368.75 0.
-783.917 -1551.17 0.
-764.798 -1507.87 0.
-1202.84 -1715.69 0.
-775.885 -1463.69 0.
-832.099 -1483.1 0.
-678.181 -1468.03 0.
-642.951 -1416.6 0.
-626.698 -1394.65 0.
-562.045 -1259.5 0.
-606.589 -1387.87 0.
-716.119 -1482.96 0.
-700.723 -1426.98 0.
-663.164 -1339.96 0.
-632.078 -1266.73 0.
-929.992 -1684.75 0.
-1023.12 -1832.57 0.
-710.51 -1456.68 0.
-671.778 -1364.96 0.
-652.359 -1309.81 0.
-675.814 -1086.03 0.
-674.516 -1096.14 0.
-679.583 -1106.6 0.
-489.454 -1103.96 0.
-504.136 -1122.14 0.
-534.826 -1174.07 0.
-621.414 -1356.51 0.
-740.192 -1536.55 0.
-89.7668 -237.953 0.
-249.863 -691.849 0.
-613.356 -1615.25 0.
-49.8877 -138.176 0.
-72.9272 -197.091 0.
-337.612 -846.339 0.
-41.9243 -88.8054 0.
-56.5911 -126.648 0.
-117.107 -279.753 0.
0.923498 2.55369 0.
-111.77 -309.224 0.
-0.00415925 -5.83389 0.
-0.0607389 -7.47432 0.
1.07284 2.81003 0.
10.2294 27.0601 0.
-0.852238 -15.715 0.
0.000587518 5.21012 0.
3.59893 9.96467 0.
-261.582 -724.211 0.
-7.52492 -20.8408 0.
-582.272 -1611.31 0.
-0.403201 -1.11482 0.
-290.312 -803.93 0.
4.62731 12.5915 0.
-82.1448 -224.489 0.
-207.455 -565.476 0.
-9.54183 -23.3615 0.
31.1788 79.1473 0.
-100.661 -278.8 0.
-4.66874 -12.9256 0.
-63.4462 -175.227 0.
-0.0449854 -52.6537 0.
-3.58716 -9.53673 0.
-0.147615 -28.4502 0.
-0.00029123 -16.3238 0.
-0.28941 -10.4344 0.
6.46921 17.68 0.
2.51749 6.62427 0.
-0.0193369 -7.44585 0.
-0.0441369 -7.87931 0.
-6.72379 -18.539 0.
0.401284 1.10848 0.
-111.513 -295.406 0.
-49.0277 -125.607 0.
-23.4396 -59.2748 0.
-74.8067 -205.311 0.
-52.6341 -140.367 0.
-30.3759 -77.3143 0.
-256.768 -708.842 0.
-120.066 -327.729 0.
-81.1363 -222.38 0.
-637.894 -1316.91 0.
-370.473 -826.885 0.
-531.379 -972.557 0.
-535.417 -889.941 0.
-337.366 -408.645 0.
-787.104 -1169 0.
-426.177 -642.018 0.
-231.692 -347.485 0.
-473.952 -706.636 0.
-507.762 -780.244 0.
-546.381 -848.357 0.
-630.898 -1021.54 0.
-713.032 -1152.37 0.
-460.235 -688.311 0.
-468.294 -729.055 0.
-328.248 -484.3 0.
-303.435 -567.475 0.
-265.733 -501.367 0.
-492.953 -1048.71 0.
-457.849 -896.703 0.
-318.516 -559.054 0.
-309.919 -550.669 0.
-454.941 -683.419 0.
-499 -795.952 0.
-1146.7 -1338.85 0.
-570.472 -966.438 0.
-550.273 -911.292 0.
-324.93 -678.671 0.
-309.465 -597.383 0.
-411.857 -805.662 0.
-333.738 -511.411 0.
-464.976 -785.825 0.
-458.445 -663.472 0.
-347.003 -695.23 0.
-333.869 -649.268 0.
-410.042 -612.901 0.
-634.19 -978.909 0.
-781.706 -1322.63 0.
-405.887 -521.381 0.
-570.031 -814.244 0.
-333.836 -473.528 0.
-258.337 -394.61 0.
-272.362 -414.461 0.
-226.771 -401.384 0.
-253.553 -511.104 0.
-477.826 -972.688 0.
-359.51 -743.742 0.
-267.542 -478.158 0.
-647.717 -1352.3 0.
-68.3532 -180.999 0.
-85.7085 -236.153 0.
-169.887 -470.449 0.
0.0621259 0.940526 0.
0.718352 1.60551 0.
-46.6235 -115.171 0.
-0.0426392 -0.450561 0.
-6.68753 -15.8235 0.
-28.4186 -68.5765 0.
-0.0909259 -5.28728 0.
-22.1085 -60.7526 0.
3.73433 10.3108 0.
-0.0185322 -2.04566 0.
-0.0230282 -0.959965 0.
-0.051214 -7.05543 0.
12.0537 31.1386 0.
7.9587 21.8403 0.
2.15942 5.95168 0.
-179.288 -495.164 0.
2.24316 6.20615 0.
-231.764 -641.917 0.
-8.79273 -24.2507 0.
-240.706 -665.788 0.
-2.71882 -7.01352 0.
1.74766 4.41598 0.
-12.4186 -32.7311 0.
-3.23643 -7.94351 0.
-2.42546 -6.17527 0.
-715.527 -1981.39 0.
21.1478 58.4651 0.
-34.0815 -94.3944 0.
8.61381 23.7593 0.
-1297.48 -3540.76 0.
-2.16697 -5.95063 0.
-5.73189 -15.7444 0.
-2158.9 -5668.53 0.
-2.13706 -5.49893 0.
-2142.99 -4683.11 0.
-205.116 -480.2 0.
0.776955 1.98895 0.
-3220.25 -7701.9 0.
1.91262 5.225 0.
-2291.17 -4996.38 0.
-514.399 -1280.82 0.
-196.75 -529.726 0.
-2704.71 -6688.07 0.
-637.638 -1707.8 0.
-97.7863 -258.938 0.
-1863.28 -4474.28 0.
-853.536 -2212.87 0.
-104.586 -278.947 0.
-1376.73 -3101.31 0.
-988.491 -2346.74 0.
-974.091 -2335.18 0.
-754.843 -1874.78 0.
-542.727 -1414.59 0.
-764.712 -1554.67 0.
-670.504 -1355.27 0.
-572.872 -1162.69 0.
-616.578 -1052.63 0.
-582.119 -995.744 0.
-540.57 -947.32 0.
-808.56 -1386.7 0.
-805.802 -1393.82 0.
-486.378 -1030.11 0.
-465.184 -974.995 0.
-457.576 -956.7 0.
-488.06 -1007.07 0.
-475.546 -983.938 0.
-466.06 -968.413 0.
-502.455 -1014.32 0.
-508.953 -1021.33 0.
-529.452 -1039.6 0.
-614.387 -1166.48 0.
-617.808 -1175.43 0.
-724.455 -1266.35 0.
-617.134 -1108.23 0.
-637.623 -1029.24 0.
-456.92 -899.229 0.
-482.543 -950.458 0.
-516.086 -992.221 0.
-523.655 -991.295 0.
-510.167 -949.883 0.
-465.177 -937.406 0.
-475.125 -978.63 0.
-500.595 -1056 0.
-530.398 -1144.46 0.
-886.671 -1505.97 0.
-872.574 -1452.92 0.
-535.778 -1007.14 0.
-633.939 -1208.85 0.
-729.685 -1411.27 0.
-690.651 -1454.77 0.
-788.256 -1647.22 0.
-884.138 -1838.74 0.
-574.846 -1408.77 0.
-815.456 -1932.67 0.
-1067.26 -2447.64 0.
-1033.75 -2434.22 0.
-1534.75 -3385.48 0.
-108.515 -299.982 0.
-845.692 -2226.15 0.
-2151.09 -5255.6 0.
-36.7522 -101.357 0.
-326.801 -887.804 0.
-2981.9 -7189.09 0.
-117.862 -277.257 0.
-443.981 -918.177 0.
-2748.87 -5397.74 0.
-0.0136942 -5.47629 0.
-3024.4 -7796.02 0.
6.24886 16.3677 0.
-165.876 -413.924 0.
-1412.62 -3369.87 0.
-0.303509 -23.3403 0.
-1938.37 -5112.41 0.
-107.597 -297.051 0.
-80.2589 -221.944 0.
-0.00646623 -34.2389 0.
6.55331 18.0947 0.
-7.16347 -19.8361 0.
10.8438 29.8027 0.
-580.668 -1602.8 0.
-13.6384 -35.1447 0.
0.573807 1.44771 0.
24.1712 64.3135 0.
-3.18083 -60.4695 0.
0.960518 2.45515 0.
7.52679 20.4429 0.
11.0958 30.242 0.
-267.318 -737.53 0.
18.7029 51.3748 0.
-341.622 -937.769 0.
-1.97322 -5.42461 0.
-0.112658 -37.6534 0.
-375.544 -1006.34 0.
-0.220684 -21.8889 0.
-2.83583 -6.59071 0.
5.0253 12.5379 0.
-0.0323664 -2.02475 0.
-0.25617 -0.689646 0.
-0.00132948 -3.5716 0.
-244.938 -637.304 0.
-94.6083 -254.872 0.
-47.7859 -131.11 0.
-124.176 -343.225 0.
-63.423 -173.416 0.
-25.5975 -69.29 0.
-557.271 -1480.61 0.
-83.8641 -210.514 0.
-60.7567 -134.008 0.
-868.074 -2045.21 0.
-541.423 -1232.33 0.
-652.006 -1757.43 0.
-463.898 -1268.28 0.
-300.447 -758.331 0.
-639.016 -1329.55 0.
-543.331 -1134.03 0.
-452.933 -933.79 0.
-575.401 -944.388 0.
-541.95 -887.977 0.
-512.306 -852.004 0.
-858.973 -1404.31 0.
-857.327 -1413.17 0.
-482.906 -906.009 0.
-463.359 -848.369 0.
-449.754 -807.143 0.
-523.09 -996.004 0.
-506.337 -957.491 0.
-490.224 -918.017 0.
-524.416 -997.125 0.
-532.805 -1022.77 0.
-546.897 -1046.26 0.
-599.234 -1147.12 0.
-603.108 -1157.49 0.
-713.149 -1137.51 0.
-597.926 -1106.89 0.
-619.372 -1027.27 0.
-533.226 -814.871 0.
-553.162 -871.217 0.
-572.44 -928.422 0.
-538.523 -918.583 0.
-515.406 -883.597 0.
-496.101 -849.911 0.
-493.617 -874.618 0.
-525.72 -947.894 0.
-573.345 -1057.81 0.
-944.76 -1525.82 0.
-930.475 -1472.04 0.
-466.138 -871.605 0.
-562.133 -1076.27 0.
-658.161 -1287.36 0.
-484.747 -1182.79 0.
-571.167 -1383.73 0.
-676.446 -1572.25 0.
-287.003 -681.274 0.
-491.095 -1242.18 0.
-716.108 -1786.32 0.
-423.549 -924.71 0.
-854.504 -1948.26 0.
-73.3931 -187.48 0.
-122.117 -326.843 0.
-489.635 -1348.93 0.
0.219873 0.592491 0.
-0.399232 -1.10404 0.
-114.194 -312.816 0.
0.236804 0.587193 0.
0.541165 1.2122 0.
-0.65702 -3.86442 0.
2.14536 5.90848 0.
-88.4399 -244.499 0.
-0.278587 -22.3595 0.
8.41675 21.7899 0.
8.74436 21.7142 0.
-1.01802 -2.80124 0.
-70.0619 -191.311 0.
-80.648 -222.693 0.
-69.0895 -191.075 0.
14.6423 40.452 0.
-0.135488 -56.6916 0.
-417.4 -1145.62 0.
-7.76076 -20.5626 0.
-172.829 -475.545 0.
19.6336 50.5604 0.
7.94471 20.0281 0.
1.39332 3.74088 0.
11.0342 25.2186 0.
18.7771 44.7366 0.
-12.8628 -34.6009 0.
27.2227 73.4795 0.
-381.813 -1049.86 0.
-0.253152 -44.5245 0.
6.58195 17.8538 0.
14.8913 40.9814 0.
-4.24277 -11.6796 0.
-136.704 -374.846 0.
9.70353 26.8162 0.
-1637.63 -4368.64 0.
-135.331 -365.37 0.
-0.0732664 -18.8461 0.
-2426.77 -6679.4 0.
-0.255903 -0.70794 0.
-2279.45 -4581.25 0.
-426.372 -968.228 0.
-310.222 -785.309 0.
-2890.92 -7587.57 0.
-195.22 -537.253 0.
-81.719 -225.856 0.
-2261.1 -5561.95 0.
-555.844 -1463.7 0.
-68.3665 -173.552 0.
-1690.97 -3927.57 0.
-930.385 -2167.52 0.
-1065.24 -2578.25 0.
-713.047 -1820.68 0.
-390.358 -1048.58 0.
-799.521 -1717.88 0.
-637.978 -1402.82 0.
-479.545 -1084.88 0.
-715.869 -1200.71 0.
-678.156 -1127.38 0.
-641.238 -1058.74 0.
-989.037 -1664.66 0.
-962.413 -1613.29 0.
-613.702 -1082.31 0.
-610.879 -1083.21 0.
-613.844 -1099.25 0.
-736.943 -1276 0.
-683.274 -1273.75 0.
-672.247 -1239.17 0.
-795.504 -1342.39 0.
-757.851 -1240.81 0.
-657.215 -1204.02 0.
-783.422 -1484.23 0.
-803.134 -1526.53 0.
-1274.37 -1717.78 0.
-711.749 -1332.81 0.
-728.155 -1293.36 0.
-668.376 -1175.04 0.
-736.604 -1319.98 0.
-807.345 -1470.02 0.
-728.393 -1284.2 0.
-704.267 -1229.95 0.
-684.199 -1187.83 0.
-640.961 -1069.08 0.
-640.757 -1064.76 0.
-640.614 -1060.57 0.
-994.963 -1654.95 0.
-1039.88 -1767.62 0.
-570.047 -1044.44 0.
-653.847 -1196.76 0.
-746.79 -1366.72 0.
-453.491 -1127.19 0.
-654.611 -1523.64 0.
-862.77 -1917.82 0.
-358.863 -922.751 0.
-772.525 -1906.77 0.
-1215.42 -2872.09 0.
-847.53 -2079.19 0.
-1818.06 -4321.75 0.
-52.5984 -130.674 0.
-433.034 -1169.44 0.
-2528.27 -6218.15 0.
-0.00284793 -2.89003 0.
-187.445 -517.546 0.
-2918.86 -7766.93 0.
-109.482 -272.294 0.
-282.847 -663.527 0.
-2521.84 -5441.02 0.
0.376179 1.03122 0.
-1485.67 -4109.77 0.
-0.117006 -20.6077 0.
-1630.72 -4338.13 0.
-1.83849 -4.712 0.
-0.691188 -1.91443 0.
2.19314 6.06235 0.
-52.3878 -144.678 0.
-377.679 -1044.3 0.
11.1156 30.5842 0.
-69.3753 -190.071 0.
21.7734 57.6916 0.
5.52242 14.5047 0.
-63.3356 -164.93 0.
29.1652 69.0882 0.
-3 -71.6281 0.
-2.4624 -55.6702 0.
10.0098 22.9973 0.
5.40568 12.9516 0.
18.9604 50.4084 0.
9.85699 26.2818 0.
-28.3403 -77.5113 0.
20.399 55.3843 0.
-9.90162 -26.5492 0.
-528.078 -1462.43 0.
13.3205 36.8898 0.
-1208.87 -3346.06 0.
8.17634 22.5487 0.
-59.803 -160.144 0.
6.98408 19.0379 0.
-2.03821 -5.62464 0.
-337.173 -933.203 0.
-0.0445737 -11.7788 0.
-39.2753 -92.2909 0.
-20.2995 -51.3383 0.
-8.0113 -21.5722 0.
-188.894 -521.549 0.
-66.6219 -183.769 0.
-28.6591 -77.0421 0.
-262.338 -726.236 0.
-11.655 -22.591 0.
-1.09779 -1.89802 0.
-696.997 -1699.58 0.
-131.376 -196.015 0.
-560.393 -1468.66 0.
-250.025 -666.551 0.
-86.4019 -207.769 0.
-534.106 -1298.22 0.
-364.632 -959.949 0.
-222.463 -599.811 0.
-541.479 -1055.48 0.
-507.247 -982.05 0.
-473.82 -917.628 0.
-915.637 -1594.5 0.
-891.033 -1545.26 0.
-592.342 -985.551 0.
-599.464 -1005.18 0.
-626.055 -1082.03 0.
-648.432 -1218.75 0.
-638.604 -1188.68 0.
-629.187 -1159.47 0.
-642.742 -1275.16 0.
-611.969 -1180.07 0.
-580.936 -1169.64 0.
-803.377 -1363.13 0.
-815.577 -1394.72 0.
-887.914 -1504.94 0.
-678.995 -1224.9 0.
-672.911 -1206.38 0.
-612.772 -1187.74 0.
-664.054 -1278.13 0.
-739.768 -1399.07 0.
-678.44 -1276.98 0.
-656.475 -1218.62 0.
-632.01 -1163.73 0.
-548.599 -1014.34 0.
-534.304 -971.353 0.
-533.303 -967.795 0.
-905.619 -1575.22 0.
-949.799 -1683.31 0.
-429.835 -811.586 0.
-506.279 -971.015 0.
-585.181 -1129.4 0.
-193.25 -491.267 0.
-357.431 -928.161 0.
-536.384 -1347.55 0.
-77.2666 -207.376 0.
-175.693 -481.369 0.
-580.845 -1484.97 0.
-95.4976 -264.51 0.
-592.848 -1507.61 0.
-0.0698934 -0.275863 0.
-87.3977 -219.046 0.
-185.482 -507.224 0.
0.438338 1.20599 0.
-0.000318073 -3.48531 0.
-253.469 -700.427 0.
-0.0659738 -2.49219 0.
2.60686 6.52019 0.
-0.0551234 -1.44905 0.
-0.118179 -0.317858 0.
5.24609 14.4642 0.
2.65452 7.34797 0.
-484.888 -1332.7 0.
7.07472 19.4002 0.
-0.170945 -37.2059 0.
-891.481 -2444.32 0.
0.962015 2.57398 0.
-63.5407 -171.802 0.
-3.07853 -8.41955 0.
-441.09 -1198.97 0.
-2.16008 -5.66915 0.
-69.9597 -181.956 0.
-200.54 -493.444 0.
12.3767 29.6614 0.
-3.20959 -7.47144 0.
7.04432 17.968 0.
1.56689 3.62448 0.
-20.8286 -50.2562 0.
-279.515 -732.674 0.
15.339 38.8841 0.
8.01698 20.5419 0.
-4.00284 -10.6302 0.
-0.854095 -2.27815 0.
-473.541 -1310.52 0.
1.56087 4.30955 0.
-30.1273 -83.2378 0.
2.88392 7.9124 0.
-0.220268 -0.596664 0.
3.67055 10.0776 0.
-0.00763916 -20.2916 0.
-56.756 -154.897 0.
2.50526 6.66135 0.
-1.23994 -3.07475 0.
-0.620129 -1.62633 0.
1.77588 4.85667 0.
-79.8241 -219.852 0.
-19.5308 -52.6534 0.
-0.102341 -3.50403 0.
-46.5375 -95.3282 0.
-2.9242 -5.47331 0.
-0.216196 -0.364564 0.
-125.041 -256.337 0.
-82.0482 -137.605 0.
-97.4938 -244.919 0.
-74.2395 -177.579 0.
-69.9649 -164.575 0.
-300.326 -713.752 0.
-150.28 -347.803 0.
-83.5787 -183.265 0.
-302.184 -711.443 0.
-236.669 -535.587 0.
-89.3472 -167.549 0.
-505.167 -716.538 0.
-630.641 -1062.96 0.
-289.92 -509.106 0.
-339.123 -619.596 0.
-222.379 -337.602 0.
-216.076 -381.366 0.
-231.693 -413.893 0.
-232.99 -398.311 0.
-194.198 -287.317 0.
-197.438 -292.65 0.
-216.61 -342.047 0.
-453.683 -494.212 0.
-591.896 -849.923 0.
-334.512 -389.898 0.
-329.888 -477.549 0.
-300.832 -362.799 0.
-272.247 -440.218 0.
-228.185 -369.304 0.
-217.294 -360.632 0.
-286.2 -512.198 0.
-310.597 -570.193 0.
-288 -516.81 0.
-162.423 -311.973 0.
-219.579 -453.772 0.
-229.617 -378.12 0.
-556.353 -865.919 0.
-457.093 -598.23 0.
-252.411 -371.022 0.
-366.415 -703.094 0.
-488.09 -1011.11 0.
-119.15 -304.274 0.
-118.461 -304.222 0.
-304.965 -810.835 0.
-52.543 -145.157 0.
-73.5532 -203.588 0.
-97.0795 -268.738 0.
-55.9653 -153.612 0.
-94.8038 -258.168 0.
-0.700927 -2.47834 0.
-34.1364 -72.6102 0.
-128.685 -326.39 0.
1.48727 4.07086 0.
-0.00314693 -3.71528 0.
1.67242 4.63167 0.
-0.0324 -2.52635 0.
-0.101726 -3.78245 0.
-0.424751 -8.37937 0.
-0.174297 -7.98031 0.
1.82682 4.97984 0.
-0.0167593 -12.7928 0.
1.47029 4.0723 0.
-0.19083 -34.8139 0.
-6.09245 -16.6406 0.
-269.403 -735.244 0.
10.801 28.7504 0.
-149.792 -403.273 0.
1.32838 3.51165 0.
-22.7057 -60.2939 0.
10.147 26.0592 0.
-284.105 -730.835 0.
-586.036 -1460.38 0.
-5.90754 -14.3377 0.
14.8478 35.0464 0.
-1.66175 -4.32371 0.
28.9524 62.1647 0.
-4.87361 -52.5079 0.
-2.86444 -61.1613 0.
-9.68476 -24.4109 0.
-9.3662 -23.8674 0.
-60.7754 -160.505 0.
11.2261 29.7737 0.
-500.641 -1379.93 0.
-0.171741 -42.4218 0.
-6.49875 -17.8889 0.
-20.8049 -56.8812 0.
-122.448 -334.943 0.
-1541.99 -4203.88 0.
-0.0576872 -22.6186 0.
-1296.28 -3588.09 0.
-72.5846 -200.867 0.
-9.09876 -25.024 0.
-2990.53 -7561.51 0.
-19.5141 -51.5935 0.
-2178.93 -5545.95 0.
-186.896 -498.205 0.
-107.673 -295.496 0.
-2533.14 -6704.34 0.
-117.278 -320.962 0.
-45.3544 -116.977 0.
-2109.64 -5517.6 0.
-538.153 -1474.14 0.
-1486.05 -3701.91 0.
-774.408 -2011.49 0.
-117.138 -322.233 0.
-1112.82 -2870.34 0.
-700.444 -1895.06 0.
-319.53 -884.907 0.
-780.014 -1985.98 0.
-568.688 -1516.65 0.
-384.948 -1064.2 0.
-903.943 -1986.34 0.
-859.666 -1890.77 0.
-639.497 -1292 0.
-601.384 -1210.55 0.
-580.246 -1162.4 0.
-523.553 -1111.13 0.
-510.028 -1085.29 0.
-499.585 -1059.93 0.
-497.614 -1152.24 0.
-491.827 -1150.48 0.
-493.363 -1147.05 0.
-694.037 -1239.69 0.
-661.208 -1163.03 0.
-503.501 -1028.33 0.
-514.138 -1021.66 0.
-567.759 -1139.29 0.
-588.113 -1244.27 0.
-565.048 -1193.06 0.
-542.845 -1142.51 0.
-495.068 -1082.3 0.
-545.3 -1183.57 0.
-594.34 -1279.6 0.
-580.621 -1266.15 0.
-576.104 -1257.73 0.
-575.223 -1260.56 0.
-873.222 -1950.08 0.
-975.924 -2168.67 0.
-438.036 -1041.92 0.
-679.532 -1664.41 0.
-931.017 -2277.72 0.
-267.969 -716.878 0.
-751.163 -2002.74 0.
-1268.87 -3263.77 0.
-138.23 -381.884 0.
-793.61 -1990.03 0.
-1650.28 -3965.49 0.
-328.042 -874.892 0.
-2229.2 -5745.51 0.
-0.731563 -1.76048 0.
-143.04 -385.765 0.
-2626.33 -6919.64 0.
-49.5376 -133.491 0.
-246.178 -659.021 0.
-1931.08 -5081.74 0.
1.3307 3.42631 0.
-2630.7 -6739.11 0.
7.13564 19.5008 0.
-107.665 -297.816 0.
-1533.05 -4241.29 0.
3.15609 8.73361 0.
-463.953 -1284.23 0.
2.78053 7.57837 0.
-103.367 -281.355 0.
-427.565 -1162.41 0.
15.4118 40.8053 0.
-242.355 -649.717 0.
-12.6434 -33.1248 0.
-34.0686 -89.7292 0.
-12.4812 -32.0075 0.
17.4307 43.7341 0.
-2.11706 -5.16511 0.
-5.89986 -65.875 0.
-2.70621 -40.9619 0.
16.7953 41.3111 0.
-6.33599 -53.6762 0.
-8.54167 -19.721 0.
-2.99438 -60.1265 0.
-2.44553 -54.9422 0.
-219.218 -555.449 0.
-675.955 -1776.78 0.
-6.639 -16.8622 0.
-34.5514 -92.8715 0.
15.9438 42.746 0.
-424.702 -1160.9 0.
-10.8353 -29.5848 0.
-7.41944 -20.262 0.
-699.578 -1935.09 0.
-0.000280502 -16.0049 0.
-73.2928 -202.984 0.
-0.463675 -1.28241 0.
-1.82381 -5.0104 0.
-217.968 -584.623 0.
-0.827867 -2.27486 0.
-70.0344 -187.382 0.
-18.2536 -49.9637 0.
1.17125 3.24278 0.
-202.445 -559.846 0.
-31.6232 -85.7578 0.
-11.3939 -29.0162 0.
-518.872 -1428.15 0.
-78.61 -217.009 0.
-506.148 -1335.4 0.
-87.6218 -241.449 0.
-35.2394 -87.6993 0.
-592.67 -1613.34 0.
-216.385 -599.187 0.
-117.868 -315.044 0.
-594.286 -1599.86 0.
-405.825 -1112.89 0.
-299.744 -825.289 0.
-788.588 -1838.09 0.
-744.236 -1746.98 0.
-578.208 -1187.51 0.
-530.51 -1068.32 0.
-502.066 -999.339 0.
-554.267 -1038.93 0.
-543.599 -1011.68 0.
-533.546 -984.277 0.
-494.118 -1085.69 0.
-495.108 -1079.44 0.
-496.037 -1072.9 0.
-704.932 -1200.48 0.
-670.687 -1129.3 0.
-694.609 -1123.34 0.
-515.566 -977.664 0.
-572.566 -1126.09 0.
-551.29 -1111.57 0.
-527.386 -1065.08 0.
-503.461 -1018.94 0.
-560.242 -959.591 0.
-598.43 -1080.24 0.
-641.098 -1197.73 0.
-506.189 -1175.36 0.
-509.13 -1165.47 0.
-519.546 -1164.11 0.
-747.263 -1754.19 0.
-839.095 -1971.08 0.
-261.323 -638.553 0.
-425.371 -1100.25 0.
-656.882 -1735.27 0.
-99.1621 -226.999 0.
-159.223 -394.979 0.
-635.386 -1693.43 0.
-67.7932 -187.728 0.
-80.2696 -220.935 0.
-383.94 -983.382 0.
-51.3343 -141.97 0.
-348.408 -943.222 0.
1.53425 3.55254 0.
-2.08376 -5.33749 0.
-137.025 -373.031 0.
-1.49667 -4.00077 0.
-42.6861 -111.994 0.
-105.573 -273.323 0.
-0.0277734 -1.98196 0.
6.28666 16.175 0.
3.00549 8.10375 0.
7.51178 20.6216 0.
-144.334 -399.534 0.
3.17993 8.73769 0.
-403.821 -1112.06 0.
-0.698479 -1.89466 0.
-44.3505 -120.071 0.
-315.692 -852.278 0.
-5.6121 -14.5849 0.
6.94661 18.1005 0.
14.6314 37.9702 0.
-785.818 -2046.06 0.
-32.0384 -82.0589 0.
20.8865 52.3131 0.
11.1775 27.8727 0.
-3.4422 -44.9827 0.
-4.11343 -34.9003 0.
2.07184 5.19774 0.
-5.68604 -12.5659 0.
-224.275 -525.655 0.
-106.634 -262.509 0.
8.40735 19.6872 0.
23.1486 55.7328 0.
-6.09504 -15.2945 0.
1.44685 3.65354 0.
-147.356 -392.84 0.
-2.50163 -6.64924 0.
-889.678 -2431.18 0.
-23.7326 -64.7136 0.
-3.7284 -10.1679 0.
2.11189 5.84107 0.
3.86669 10.6338 0.
-36.0013 -99.7167 0.
-0.0170676 -19.0277 0.
-580.198 -1588.04 0.
-1591.47 -4406.18 0.
1.65832 4.58537 0.
-2034.2 -5341.52 0.
-179.426 -483.699 0.
-37.1082 -99.519 0.
-2300.2 -6310.98 0.
-54.8224 -150.404 0.
-0.000715529 -3.88437 0.
-2043.54 -5504.41 0.
-96.5964 -251.928 0.
-1640.16 -4066.62 0.
-616.746 -1587.68 0.
-110.958 -301.646 0.
-1299.41 -3396.11 0.
-647.371 -1748.56 0.
-105.437 -289.662 0.
-953.016 -2469.76 0.
-570.851 -1542.24 0.
-216.722 -588.486 0.
-854.429 -1976.27 0.
-715.524 -1687.55 0.
-542.864 -1163.95 0.
-505.856 -1070.8 0.
-484.851 -1019.64 0.
-597.282 -1084.33 0.
-562.027 -999.843 0.
-526.388 -913.405 0.
-562.134 -999.972 0.
-468.066 -945.662 0.
-432.828 -849.369 0.
-718.385 -1133.93 0.
-788.774 -1222.31 0.
-835.119 -1308.93 0.
-519.448 -1064.13 0.
-499.415 -1022.87 0.
-450.147 -834.765 0.
-476.695 -901.603 0.
-506.326 -977.446 0.
-570.731 -942.758 0.
-569.54 -932.303 0.
-569.198 -921.821 0.
-417.131 -945.826 0.
-512.349 -1157.22 0.
-614.079 -1370.94 0.
-754.851 -1775.88 0.
-913.206 -2092.04 0.
-137.045 -376.78 0.
-567.773 -1534.99 0.
-1026.03 -2674.01 0.
-100.169 -265.876 0.
-648.169 -1736.13 0.
-1482.54 -3844.89 0.
-97.2243 -262.205 0.
-557.663 -1418.51 0.
-1751.9 -4301.49 0.
-183.819 -505.357 0.
-2269.28 -6015.75 0.
-0.655895 -1.70538 0.
-20.8326 -55.9048 0.
-2266.46 -6220.88 0.
-60.4663 -154.572 0.
-101.857 -272.673 0.
-1725.45 -4629.89 0.
-0.0122171 -14.4455 0.
-1300.31 -3601.62 0.
4.50787 11.9699 0.
0.377425 1.02598 0.
-19.743 -54.3781 0.
7.74759 21.0057 0.
-391.357 -1066.89 0.
9.67047 26.0919 0.
-182.576 -491.142 0.
-529.233 -1362.59 0.
4.85139 12.4905 0.
-17.9383 -46.3365 0.
-4.03546 -10.0273 0.
-6.16768 -15.0429 0.
-3.64878 -48.5629 0.
-36.0532 -90.1246 0.
-391.303 -998.123 0.
7.13077 17.2145 0.
-0.324424 -3.21663 0.
-50.8156 -130.35 0.
-9.14044 -52.3902 0.
-3.96549 -31.7465 0.
-4.85333 -50.945 0.
7.01166 16.3757 0.
19.1201 45.9517 0.
-268.574 -670.661 0.
-185.417 -465.715 0.
-795.273 -2097.1 0.
-17.6845 -46.5566 0.
-127.642 -347.595 0.
9.84707 26.0545 0.
-3.87178 -10.2161 0.
-823.23 -2233.57 0.
-0.279682 -32.1164 0.
-1270.39 -3517.8 0.
-240.91 -662.914 0.
5.70314 15.4251 0.
-4.81194 -13.2765 0.
0.761924 2.06664 0.
-168.337 -460.061 0.
-62.0828 -169.474 0.
-14.5915 -39.6115 0.
-155.19 -428.06 0.
2.2023 6.09172 0.
-0.0439028 -6.30569 0.
-360.618 -976.628 0.
-0.0327892 -1.08971 0.
-379.871 -978.465 0.
-35.0104 -96.0769 0.
-27.7346 -76.8178 0.
-573.159 -1562.39 0.
-72.5874 -192.887 0.
-16.6976 -43.6272 0.
-546.951 -1485.47 0.
-196.8 -526.262 0.
-107.765 -245.463 0.
-642.302 -1601.62 0.
-516.745 -1305.82 0.
-493.961 -1063.04 0.
-446.814 -976.95 0.
-416.139 -917.038 0.
-489.828 -1065.09 0.
-453.585 -982.522 0.
-416.182 -896.28 0.
-513.392 -975.931 0.
-452.648 -931.193 0.
-426.358 -862.395 0.
-619.506 -1101.56 0.
-654.471 -1169.34 0.
-493.284 -1139.4 0.
-491.564 -961.8 0.
-470.045 -915.804 0.
-402.058 -871.785 0.
-425.657 -927.462 0.
-453.118 -989.636 0.
-414.353 -932.056 0.
-412.041 -925.25 0.
-411.81 -914.957 0.
-326.888 -728.203 0.
-415.579 -947.123 0.
-516.814 -1162.39 0.
-488.464 -1193.99 0.
-626.961 -1528.68 0.
-98.6905 -261.351 0.
-134.638 -369.926 0.
-561.062 -1536.79 0.
-31.982 -77.9113 0.
-96.7245 -262.967 0.
-577.029 -1572.27 0.
-0.0022447 -0.98081 0.
-68.0762 -188.433 0.
-310.059 -831.546 0.
-0.474715 -1.3038 0.
-270.111 -743.789 0.
0.126127 0.334685 0.
0.326512 0.885798 0.
-69.7807 -193.035 0.
-156.348 -388.002 0.
-67.7804 -177.763 0.
-48.9723 -133.745 0.
-0.146977 -7.81333 0.
-6.7841 -18.6231 0.
-170.06 -451.585 0.
-216.389 -577.782 0.
-1153.66 -3110.85 0.
-1.04306 -31.7087 0.
-617.732 -1608.86 0.
-72.6113 -189.576 0.
-447.35 -1192.98 0.
3.75036 9.52442 0.
-12.1654 -31.0143 0.
-569.322 -1460.62 0.
-23.2697 -57.9592 0.
12.2581 29.9662 0.
-7.87786 -18.5749 0.
20.3482 46.7751 0.
12.0832 29.4241 0.
6.798 15.4399 0.
-8.20585 -58.788 0.
-0.965332 -11.7786 0.
-7.79458 -47.9451 0.
-3.71279 -32.8904 0.
-6.35221 -14.3532 0.
-12.3719 -28.8242 0.
-492.231 -1182.3 0.
-211.659 -525.079 0.
-3.67667 -49.215 0.
-17.6476 -44.4824 0.
-10.891 -27.455 0.
-598.651 -1504.65 0.
-132.515 -346.162 0.
9.44539 24.5923 0.
-330.3 -888.186 0.
-0.363235 -29.1657 0.
-206.727 -570.784 0.
5.71514 15.6069 0.
1.86715 4.99873 0.
-0.150021 -17.2418 0.
2.83616 7.45795 0.
-88.3814 -243.678 0.
-43.7906 -120.53 0.
-0.0238983 -5.05969 0.
2.20909 6.08954 0.
-0.00458934 -4.48649 0.
-0.0240016 -1.52049 0.
-49.3877 -125.038 0.
0.000899577 0.0367895 0.
-25.5128 -70.1967 0.
-17.7084 -49.0399 0.
-11.5576 -31.4767 0.
-81.1001 -208.651 0.
-20.5327 -51.3612 0.
-0.471723 -1.306 0.
-189.503 -499.151 0.
-96.4261 -218.223 0.
-79.5404 -151.55 0.
-272.212 -671.038 0.
-199.431 -488.326 0.
-347.096 -543.157 0.
-278.141 -361.283 0.
-263.301 -308.29 0.
-234.757 -445.434 0.
-289.732 -693.719 0.
-218.85 -468.949 0.
-296.481 -468.086 0.
-246.643 -343.648 0.
-210.588 -257.546 0.
-445.358 -588.844 0.
-481.579 -664.704 0.
-265.735 -508.856 0.
-128.559 -163.168 0.
-185.302 -369.853 0.
-105.796 -63.875 0.
-223.91 -349.882 0.
-227.023 -312.41 0.
-92.8324 -125.607 0.
-176.388 -364.594 0.
-121.199 -238.214 0.
-201.398 -300.801 0.
-272.302 -475.54 0.
-278.848 -488.425 0.
-176.319 -415.536 0.
-336.134 -840.275 0.
-69.9376 -171.582 0.
-81.7241 -205.314 0.
-156.506 -429.161 0.
-19.6937 -38.1431 0.
-36.8926 -91.4601 0.
-96.1084 -259.267 0.
0.142568 0.369959 0.
-11.3374 -30.0293 0.
-56.5474 -153.437 0.
-0.0401867 -4.24021 0.
-9.83409 -27.2276 0.
1.06694 2.87267 0.
-0.0142657 -2.85546 0.
2.46326 6.8117 0.
-270.815 -636.232 0.
-173.759 -436.817 0.
-85.689 -230.452 0.
11.0544 27.5006 0.
-2.05656 -5.45646 0.
-8.18117 -21.9608 0.
-21.3569 -57.5856 0.
-199.811 -541.046 0.
6.6741 16.8421 0.
-261.343 -668.777 0.
-42.5106 -109.937 0.
-175.668 -459.033 0.
-2.02007 -44.5296 0.
5.94074 14.508 0.
4.76522 11.3501 0.
-115.459 -288.375 0.
-194.027 -475.57 0.
-472.852 -1116.55 0.
-9.87957 -22.7381 0.
-1.99771 -38.1971 0.
-4.17396 -46.7682 0.
-2.48891 -18.1529 0.
4.6944 11.1357 0.
21.6002 44.6803 0.
-396.348 -893.657 0.
-152.968 -344.659 0.
-5.1273 -11.0426 0.
-4.89256 -44.8011 0.
9.28595 21.3371 0.
13.3809 31.4344 0.
-249.957 -627.462 0.
3.63093 9.11961 0.
-334.492 -839.024 0.
-401.581 -1034.03 0.
-121.616 -311.894 0.
-389.858 -1038.59 0.
-5.42702 -14.4471 0.
-27.7927 -76.3671 0.
-115.265 -313.654 0.
-66.0668 -180.086 0.
-1433.2 -3894.76 0.
-2.31141 -6.13325 0.
-1240.06 -3063.88 0.
-20.4773 -55.6661 0.
-34.2978 -94.5777 0.
-1964.19 -5430.58 0.
-35.7959 -98.2677 0.
-32.5385 -88.4152 0.
-2137.27 -5840.81 0.
-94.1808 -260.843 0.
-1768.46 -4512.51 0.
-405.904 -1070.06 0.
-104.215 -282.111 0.
-1612.95 -4278.99 0.
-485.632 -1339.2 0.
-92.6864 -245.918 0.
-1181.36 -3216.73 0.
-534.695 -1479.32 0.
-123.929 -332.37 0.
-964.774 -2581.63 0.
-672.931 -1840.99 0.
-718.294 -1701.95 0.
-565.957 -1330.02 0.
-423.691 -965.954 0.
-507.089 -1266.91 0.
-462.842 -1156.41 0.
-426.191 -1043.18 0.
-538.991 -1201.71 0.
-532.025 -1183.88 0.
-527.779 -1166.76 0.
-710.412 -1246.99 0.
-732.199 -1267.99 0.
-417.206 -996.74 0.
-496.369 -1126.96 0.
-496.01 -1106.81 0.
-470.141 -1142.65 0.
-463.756 -1139.15 0.
-460.354 -1140.68 0.
-388.377 -974.23 0.
-484.491 -1225.89 0.
-584.564 -1478.64 0.
-454.961 -1045.26 0.
-623.001 -1483.28 0.
-802.593 -1912.76 0.
-661.633 -1751.48 0.
-1040.38 -2708.43 0.
-126.87 -340.895 0.
-553.61 -1526.46 0.
-1315.08 -3560.7 0.
-52.2151 -136.946 0.
-416.14 -1152.61 0.
-1808.52 -4870.53 0.
-139.551 -383.406 0.
-417.084 -1101.95 0.
-1822.85 -4606.67 0.
-43.2671 -118.734 0.
-2159.65 -5901.32 0.
0.374446 1.03206 0.
-0.00116591 -6.87671 0.
-1784.37 -4937.98 0.
-505.267 -1250.62 0.
-1189.98 -2788.85 0.
-513.849 -1391.13 0.
1.7686 4.71086 0.
-952.749 -2523.08 0.
-89.7534 -242.417 0.
-273.817 -742.768 0.
-2.00502 -34.0606 0.
11.0165 27.2854 0.
-159.951 -402.283 0.
-201.805 -516.28 0.
-633.954 -1638.7 0.
-78.529 -195.722 0.
-10.9201 -26.5476 0.
-5.32067 -12.6033 0.
2.39641 5.58761 0.
-7.5696 -17.4329 0.
4.00742 8.89378 0.
17.533 40.425 0.
-302.919 -758.388 0.
6.16864 14.3156 0.
-5.65436 -42.3238 0.
8.0089 17.7561 0.
2.95485 5.77859 0.
-4.16139 -31.9252 0.
-5.10045 -37.0085 0.
-4.91601 -40.3575 0.
7.00199 15.5434 0.
-146.076 -334.377 0.
-397.698 -930.733 0.
-200.698 -502.153 0.
12.573 31.4574 0.
-5.42467 -13.5733 0.
-126.191 -321.686 0.
-9.38945 -23.7493 0.
-162.601 -425.618 0.
10.2029 26.5449 0.
-980.842 -2655.7 0.
-166.503 -453.481 0.
-70.5578 -192.551 0.
-166.632 -440.378 0.
7.56854 19.101 0.
-2.14291 -5.55301 0.
-7.37556 -19.7533 0.
-19.4522 -53.1525 0.
-58.9447 -162.233 0.
-23.2199 -63.3591 0.
-12.8181 -34.531 0.
-144.755 -397.4 0.
-0.899199 -2.41165 0.
-221.83 -593.28 0.
-56.302 -154.971 0.
-12.0537 -33.2754 0.
-386.185 -1065.58 0.
-42.3927 -115.95 0.
-0.993503 -2.50544 0.
-604.482 -1673.83 0.
-134.476 -354.074 0.
-59.7785 -139.324 0.
-670.294 -1829.99 0.
-385.416 -1054.39 0.
-499.921 -1295.18 0.
-354.616 -919.023 0.
-239.04 -616.22 0.
-495.653 -1128.58 0.
-453.534 -1017.88 0.
-413.441 -905.566 0.
-455.503 -1065.51 0.
-448.54 -1046.53 0.
-442.737 -1026.65 0.
-658.011 -1219.83 0.
-673.986 -1247.13 0.
-342.956 -800.611 0.
-493.292 -1100.55 0.
-495.253 -1080.83 0.
-413.369 -1027.47 0.
-410.268 -1023.3 0.
-409.157 -1026.5 0.
-320.512 -757.376 0.
-417.228 -1009.95 0.
-516.244 -1263.1 0.
-247.667 -542.953 0.
-380.26 -897.452 0.
-548.391 -1340.22 0.
-277.694 -761.726 0.
-655.461 -1778.31 0.
-54.9983 -144.57 0.
-122.202 -318.47 0.
-589.434 -1629.44 0.
-0.0176757 -0.304687 0.
-45.7339 -122.916 0.
-398.86 -1104.76 0.
-30.2009 -83.2751 0.
-118.763 -328.082 0.
-209.751 -569.464 0.
0.663641 1.75061 0.
-119.678 -325.885 0.
-0.00482456 -6.05307 0.
1.16321 3.22181 0.
-16.895 -46.6515 0.
-111.194 -303.359 0.
-463.417 -1184.47 0.
8.56771 22.4788 0.
-3.92345 -10.1772 0.
-129.792 -333.628 0.
-93.6768 -251.519 0.
-522.357 -1405.84 0.
-610.455 -1500.19 0.
-45.3932 -111.317 0.
-8.54802 -20.9593 0.
-6.08693 -14.9468 0.
-137.967 -353.961 0.
-80.1878 -199.096 0.
-137.537 -332.834 0.
-368.703 -869.819 0.
-383.99 -893.023 0.
12.2952 28.2113 0.
2.55411 5.71008 0.
-0.433794 -0.938427 0.
-1.96068 -4.68889 0.
13.0894 29.176 0.
9.71649 19.9574 0.
-1.8908 -18.4266 0.
17.6352 34.9435 0.
-135.665 -294.855 0.
-5.52859 -11.6825 0.
18.0334 39.1608 0.
-525.208 -1172.03 0.
-233.849 -532.731 0.
-4.33101 -42.066 0.
0.912724 2.20045 0.
-3.92921 -9.62351 0.
-4.56664 -11.3651 0.
-262.874 -668.847 0.
4.14223 10.4615 0.
-681.951 -1775.29 0.
10.8928 28.0686 0.
-241.908 -620.782 0.
-396.975 -1079.81 0.
-102.44 -279.822 0.
-84.4804 -214.821 0.
-1.35328 -20.4517 0.
6.19951 13.4944 0.
-674.418 -1790.86 0.
-170.861 -456.427 0.
-1444.52 -3997.42 0.
-5.63634 -15.2639 0.
-0.0723268 -6.50308 0.
-1799.32 -4983.48 0.
-0.468767 -6.24607 0.
-1583.88 -4123.57 0.
-235.085 -644.866 0.
-166.048 -453.724 0.
-1731.86 -4723.52 0.
-204.855 -567.289 0.
-7.98293 -21.0987 0.
-1317.87 -3605.31 0.
-407.988 -1130.01 0.
-32.3369 -77.389 0.
-1003.53 -2659.01 0.
-542.41 -1453.96 0.
-649.582 -1690.31 0.
-412.526 -1112.96 0.
-193.329 -535.478 0.
-542.311 -1203.72 0.
-439.391 -951.405 0.
-342.629 -698.209 0.
-362.472 -913.652 0.
-344.383 -854.008 0.
-329.588 -803.16 0.
-575.547 -1070.41 0.
-553.928 -1022.35 0.
-314.933 -698.416 0.
-399.121 -821.69 0.
-411.59 -857.38 0.
-307.668 -757.549 0.
-362.997 -894.133 0.
-425.34 -1046.75 0.
-307.169 -727.643 0.
-457.097 -1125.47 0.
-617.095 -1521.24 0.
-226.673 -578.103 0.
-481.416 -1240.87 0.
-751.23 -1895.06 0.
-490.511 -1312.53 0.
-1049.35 -2764 0.
-69.4515 -186.757 0.
-373.043 -1029.89 0.
-1431.61 -3860.09 0.
-14.1448 -37.9514 0.
-152.746 -422.796 0.
-1833.37 -5052.47 0.
-197.256 -544.279 0.
-238.279 -647.128 0.
-1464.13 -3737.04 0.
-0.118477 -0.312755 0.
-1891.64 -5197.47 0.
-6.3651e-05 -10.7051 0.
-53.8871 -149.149 0.
-1134.88 -3135.05 0.
2.79598 7.74044 0.
-87.6042 -238.739 0.
-0.822776 -20.6612 0.
-34.4844 -86.4089 0.
-291.011 -723.827 0.
-81.5942 -217.702 0.
-671.535 -1796.75 0.
-68.2602 -167.985 0.
-57.3958 -141.21 0.
-508.895 -1252.93 0.
-5.24718 -12.771 0.
-165.755 -400.564 0.
8.1642 18.8726 0.
-0.354839 -0.808414 0.
12.506 28.062 0.
-123.161 -285.258 0.
-108.094 -247.152 0.
-279.51 -629.649 0.
16.9255 36.896 0.
-15.0215 -36.782 0.
-2.51052 -27.3035 0.
-4.62117 -32.7657 0.
-2.88549 -6.51589 0.
-3.32376 -6.69025 0.
-229.543 -510.976 0.
-0.348406 -0.678589 0.
21.6644 44.0917 0.
11.507 24.4615 0.
9.1824 19.9666 0.
-1.88826 -4.21235 0.
5.02904 11.999 0.
-68.1057 -165.14 0.
-172.702 -425.574 0.
-658.654 -1670.54 0.
-335.246 -844.921 0.
-13.4634 -34.5789 0.
-4.15666 -10.6051 0.
3.59151 9.0213 0.
-566.947 -1504.73 0.
-0.170882 -0.45258 0.
-985.308 -2342.96 0.
-162.88 -395.334 0.
-356.47 -873.613 0.
-1022.19 -2826.27 0.
-65.2643 -180.749 0.
-368.007 -1015.03 0.
-0.0670079 -6.43184 0.
0.0108763 1.03279 0.
-15.8771 -42.4047 0.
-0.221298 -3.62577 0.
-257.24 -671.606 0.
-95.7193 -227.35 0.
-95.3971 -219.103 0.
-466.508 -1292.1 0.
-22.4276 -61.0478 0.
0.325183 0.814777 0.
-534.473 -1480.16 0.
-57.3429 -150.07 0.
-0.104825 -0.852957 0.
-532.24 -1462.08 0.
-131.625 -349.775 0.
-379.585 -1027.1 0.
-151.637 -419.844 0.
-74.4325 -198.728 0.
-380.279 -908.468 0.
-284.632 -653.976 0.
-215.693 -468.031 0.
-313.73 -773.62 0.
-297.782 -730.083 0.
-297.463 -711.036 0.
-514.478 -1052.91 0.
-495.206 -1013.21 0.
-410.411 -966.052 0.
-336.507 -830.955 0.
-339.967 -846.7 0.
-254.784 -641.981 0.
-304.216 -776.744 0.
-362.653 -920.757 0.
-165.963 -414.827 0.
-259.941 -679.973 0.
-408.16 -1082.36 0.
-92.4208 -248.784 0.
-133.716 -370.367 0.
-390.811 -1036.07 0.
-94.641 -262.129 0.
-496.239 -1339.97 0.
-4.51571 -11.3198 0.
-87.287 -235.68 0.
-481.153 -1330.89 0.
0.114501 0.304673 0.
-53.5208 -146.66 0.
-529.365 -1465.14 0.
0.650819 1.76738 0.
-10.6077 -28.1647 0.
-197.365 -528.857 0.
-0.135572 -0.336827 0.
-316.251 -830.901 0.
-0.00709638 -10.3817 0.
-31.3732 -86.8866 0.
-478.252 -1323.23 0.
3.82746 10.489 0.
-1776.65 -4921.01 0.
6.12852 14.305 0.
-52.2447 -123.437 0.
-700.515 -1673.41 0.
7.79319 20.5812 0.
-115.896 -306.957 0.
-42.9306 -105.973 0.
-219.583 -542.449 0.
-203.744 -503.04 0.
-236.568 -570.988 0.
-583.825 -1401.05 0.
-106.597 -247.519 0.
3.65522 8.36186 0.
5.12989 11.558 0.
-6.99505 -15.2832 0.
0.985699 2.10674 0.
18.4857 39.0269 0.
-4.33321 -27.3474 0.
-6.08719 -12.9171 0.
-280.9 -657.03 0.
10.3362 22.1259 0.
-51.372 -115.196 0.
4.70522 9.10569 0.
-7.23865 -14.9065 0.
12.6563 24.5557 0.
16.518 33.549 0.
-258.071 -548.534 0.
2.47269 5.36259 0.
-714.069 -1589.73 0.
-360.575 -850.011 0.
-202.756 -486.022 0.
-28.363 -64.042 0.
6.38672 15.1976 0.
14.2731 34.1247 0.
-23.2595 -57.5197 0.
-12.862 -31.9967 0.
-175.229 -438.938 0.
-558.567 -1440.61 0.
4.43901 11.3143 0.
-74.1401 -180.718 0.
-85.0304 -209.446 0.
-287.455 -715.535 0.
-447.015 -1235.81 0.
0.00554608 0.689143 0.
-87.6801 -239.039 0.
3.49807 9.47426 0.
0.0106426 1.12114 0.
-0.138516 -7.7428 0.
-0.334578 -6.38608 0.
-118.864 -198.179 0.
-127.073 -213.376 0.
-139.9 -240.746 0.
-42.022 -115.167 0.
-1.58647 -4.18644 0.
-0.0332874 -0.584201 0.
-92.7398 -249.715 0.
0.681558 1.65739 0.
0.00880794 0.0785743 0.
-152.747 -400.668 0.
-87.9835 -205.546 0.
-84.932 -229.115 0.
-51.6967 -129.28 0.
-42.74 -100.227 0.
-173.317 -433.737 0.
-116.784 -280.123 0.
-68.2584 -139.945 0.
-189.891 -346.259 0.
-226.808 -430.544 0.
-202.582 -372.523 0.
-285.966 -382.001 0.
-286.617 -424.187 0.
-274.885 -447.635 0.
-123.282 -221.706 0.
-243.627 -555.508 0.
-148.519 -305.896 0.
-234.257 -539.28 0.
-223.358 -503.369 0.
-88.2397 -225.223 0.
-98.2498 -263.705 0.
-180.649 -500.233 0.
-59.382 -160.975 0.
-82.2089 -227.335 0.
-105.504 -291.094 0.
-45.4491 -124.981 0.
-105.126 -290.879 0.
-2.03964 -4.93884 0.
-20.4688 -51.1629 0.
-118.364 -318.795 0.
-0.0369769 -1.84716 0.
0.16082 0.440544 0.
-139.457 -383.566 0.
-0.0379305 -4.79092 0.
-0.0647466 -3.36986 0.
3.70808 7.9374 0.
2.80335 6.52071 0.
-80.1382 -198.119 0.
-1.08776 -2.99306 0.
-35.4426 -97.9237 0.
-178.856 -494.816 0.
-0.0765144 -10.0593 0.
-313.252 -865.058 0.
0.859216 1.99059 0.
-5.13542 -12.0509 0.
-430.054 -1019.71 0.
6.17458 15.9633 0.
-483.864 -1255.15 0.
-50.6296 -123.368 0.
-4.93998 -11.9884 0.
13.748 33.2272 0.
11.3622 26.3097 0.
14.1659 32.0632 0.
-230.259 -537.487 0.
-219.773 -505.384 0.
2.9745 6.73112 0.
-450.245 -971.412 0.
12.5354 26.4899 0.
-9.58488 -20.2136 0.
14.7624 29.974 0.
-5.69944 -30.8488 0.
-2.56914 -23.3682 0.
5.13973 10.7024 0.
-173.779 -393.773 0.
3.14791 6.14175 0.
-121.175 -252.414 0.
18.9189 36.5598 0.
14.9634 30.3345 0.
-171.683 -365.073 0.
15.4547 31.5876 0.
12.0655 25.0789 0.
12.7927 27.8998 0.
4.52079 10.0416 0.
-65.4255 -147.915 0.
-69.3976 -163.054 0.
-457.503 -1079.76 0.
-568.122 -1401.19 0.
-83.4335 -206.737 0.
-60.2283 -150.132 0.
-585.313 -1458.83 0.
-1.18176 -20.3383 0.
9.69516 23.9571 0.
-6.52588 -15.9775 0.
-0.648069 -1.58592 0.
-921.098 -2506.08 0.
0.969386 2.6444 0.
-1296.4 -3590.17 0.
-192.926 -534.015 0.
-30.1799 -83.5926 0.
-1650.36 -4566.35 0.
3.3328 9.18773 0.
-1310.6 -3577.03 0.
-352.953 -887.048 0.
-145.256 -333.643 0.
-1793.69 -4967.35 0.
-103.529 -274.433 0.
-0.139637 -3.77776 0.
-1494.42 -4105.88 0.
-191.047 -520.273 0.
-0.0432483 -0.118811 0.
-1188.91 -3238.56 0.
-390.04 -1079.27 0.
-831.105 -2243.11 0.
-463.761 -1274.35 0.
-199.077 -550.902 0.
-680.225 -1853.67 0.
-451.057 -1246.22 0.
-238.576 -658.968 0.
-524.462 -1283.12 0.
-435.1 -1035.75 0.
-358.438 -822.729 0.
-558.663 -1211.55 0.
-528.689 -1131.9 0.
-355.141 -882.217 0.
-395.785 -989.956 0.
-439.129 -1104.88 0.
-300.175 -768.581 0.
-414.525 -1102.94 0.
-558.546 -1508.48 0.
-165.123 -456.237 0.
-451.272 -1244.3 0.
-745.628 -2023.73 0.
-168.526 -466.646 0.
-470.504 -1269.42 0.
-908.224 -2389.08 0.
-326.261 -903.041 0.
-1270.03 -3427.01 0.
-12.4887 -33.8101 0.
-163.902 -452.978 0.
-1613.83 -4425.84 0.
-32.954 -89.9946 0.
-157.117 -431.269 0.
-1554.62 -4305.48 0.
-68.4441 -189.571 0.
-1865.84 -5048.49 0.
-34.6045 -91.2545 0.
-23.2844 -62.2793 0.
-1259.58 -3397.08 0.
-0.00152465 -12.2671 0.
-88.2062 -243.821 0.
-1006.09 -2786.48 0.
-0.115298 -21.7953 0.
-365.342 -1000.46 0.
-121.097 -274.469 0.
7.64585 17.8142 0.
-37.5658 -88.5688 0.
10.6647 26.9039 0.
-753.268 -1910.76 0.
-275.387 -670.963 0.
-142.906 -346.778 0.
-187.79 -454.072 0.
-179.19 -414.4 0.
8.29394 18.7278 0.
5.28285 11.5791 0.
-8.7429 -19.0473 0.
17.3318 37.5313 0.
9.15776 18.6206 0.
-93.7163 -195.585 0.
-350.391 -736.824 0.
-8.94782 -18.1259 0.
17.2331 33.5569 0.
-129.408 -286.021 0.
0.695933 1.44762 0.
-98.7661 -227.41 0.
-4.23525 -20.7736 0.
7.86 15.536 0.
4.07264 7.35717 0.
-5.5406 -27.6218 0.
-9.82781 -19.8436 0.
3.79635 7.78248 0.
-183.175 -382.018 0.
14.172 30.9411 0.
-341.552 -758.967 0.
-475.848 -1076.74 0.
-310.989 -721.355 0.
-258.169 -601.436 0.
-241.159 -591.044 0.
10.7427 25.7008 0.
5.71477 13.6375 0.
-313.289 -743.399 0.
-67.153 -158.11 0.
-583.171 -1428.68 0.
-37.0673 -90.045 0.
1.44011 3.49391 0.
-535.305 -1440.06 0.
-3.03432 -8.15229 0.
-426.855 -1182.24 0.
-63.725 -176.497 0.
-7.6514 -21.1574 0.
-0.0223846 -13.5105 0.
2.09808 5.75009 0.
5.31224 14.401 0.
-128.703 -342.467 0.
-73.6052 -202.495 0.
-475.528 -1291.72 0.
-20.4162 -53.0126 0.
-0.0841292 -2.47351 0.
-349.651 -956.108 0.
-16.8267 -45.4976 0.
-0.21348 -0.583617 0.
-543.418 -1504.68 0.
-119.817 -321.919 0.
-432.84 -1191.93 0.
-157.186 -434.279 0.
-114.664 -315.634 0.
-440.663 -1219.13 0.
-234.308 -646.312 0.
-134.643 -361.035 0.
-447.183 -1092.43 0.
-383.506 -913.407 0.
-320.766 -737.53 0.
-512.687 -1150.22 0.
-484.769 -1074.69 0.
-276.362 -668.615 0.
-370.099 -923.762 0.
-394.735 -987.114 0.
-203.967 -537.981 0.
-294.087 -803.274 0.
-412.035 -1141.24 0.
-67.5093 -179.656 0.
-164.766 -453.65 0.
-438.357 -1212.04 0.
-75.7443 -208.327 0.
-131.584 -364.42 0.
-413.283 -1123.64 0.
-73.1317 -201.029 0.
-505.472 -1396.59 0.
0.822584 2.22094 0.
-35.9973 -98.545 0.
-324.69 -897.641 0.
-0.075561 -3.90648 0.
-77.7687 -208.381 0.
-234.832 -640.6 0.
-0.396124 -1.08301 0.
-305.32 -845.454 0.
-17.7335 -47.4964 0.
-5.86999 -15.9064 0.
-4.29319 -11.7502 0.
3.61989 9.99829 0.
2.79532 7.74007 0.
-559.032 -1546.16 0.
3.56651 9.65939 0.
-418.694 -1135.65 0.
-80.0105 -182.486 0.
-113.826 -261.504 0.
-341.516 -790.772 0.
-2.73214 -6.59637 0.
-42.4191 -103.272 0.
-3.32209 -7.86805 0.
-15.9817 -38.7425 0.
-128.16 -309.617 0.
-528.251 -1218.49 0.
-543.099 -1223.64 0.
-340.731 -740.196 0.
-79.1677 -170.775 0.
14.3099 30.6762 0.
-19.2098 -39.2748 0.
15.5734 30.6754 0.
-0.23322 -0.457657 0.
14.9956 28.1086 0.
-6.01292 -24.3123 0.
-3.11426 -6.47997 0.
-4.91723 -9.98155 0.
-19.5863 -46.1321 0.
9.88094 19.0662 0.
-1.97161 -3.95893 0.
-5.77779 -23.5095 0.
3.06789 5.83914 0.
-459.248 -929.181 0.
8.00453 16.4602 0.
-342.998 -717.763 0.
-177.15 -387.017 0.
8.61637 18.1574 0.
1.72898 3.71314 0.
-1.2924 -2.85607 0.
2.74085 6.16819 0.
-150.022 -355.831 0.
-9.01109 -21.3228 0.
-124.111 -292.974 0.
-624.87 -1484.67 0.
-85.0442 -199.229 0.
-835.699 -2028.06 0.
-197.195 -475.715 0.
-3.3886 -8.1496 0.
-330.222 -875.973 0.
-0.0631581 -0.166396 0.
-100.671 -278.76 0.
-39.3805 -108.847 0.
-24.0717 -66.2243 0.
-1139 -3058.58 0.
-0.194859 -15.436 0.
5.53695 14.8887 0.
-1690.86 -4622.94 0.
-43.3096 -119.677 0.
-1127.28 -3094.72 0.
-65.9213 -177.412 0.
-15.1983 -41.1543 0.
-1388.89 -3844.88 0.
-120.53 -324.61 0.
0.62724 1.55713 0.
-1185.09 -3240.24 0.
-181.613 -502.155 0.
-896.337 -2368.39 0.
-426.608 -1162.81 0.
-135.961 -376.566 0.
-767.195 -2091.86 0.
-415.456 -1149.84 0.
-121.659 -327.244 0.
-574.039 -1461.95 0.
-382.389 -964.404 0.
-206.528 -487.673 0.
-450.999 -1083.47 0.
-414.764 -987.659 0.
-191.594 -459.068 0.
-354.226 -911.829 0.
-437.925 -1139.89 0.
-141.608 -384.509 0.
-361.958 -1000.75 0.
-618.008 -1681.13 0.
-94.5332 -256.049 0.
-405.964 -1123.64 0.
-828.461 -2253.35 0.
-100.159 -276.483 0.
-401.856 -1087.6 0.
-936.743 -2442.31 0.
-105.98 -293.229 0.
-1240.95 -3407.85 0.
-12.5116 -33.7001 0.
-152.61 -421.972 0.
-1474.35 -4069.19 0.
-66.5134 -181.912 0.
-161.242 -445.869 0.
-1338.28 -3680.98 0.
2.30619 6.15734 0.
-1387.29 -3834.69 0.
2.36036 5.80523 0.
-101.08 -262.22 0.
-415.232 -1133.8 0.
4.32553 11.8158 0.
2.72469 7.50073 0.
-216.943 -597.556 0.
6.86852 18.3627 0.
-557.205 -1492.15 0.
-128.224 -294.526 0.
-248.721 -575.79 0.
-674.113 -1575.29 0.
9.78709 23.1612 0.
-552.163 -1318.89 0.
-45.1232 -106.73 0.
10.2174 23.6746 0.
-7.31865 -16.6098 0.
-6.197 -13.4662 0.
-9.25773 -19.9136 0.
13.0828 28.3304 0.
-104.082 -222.121 0.
-125.175 -265.671 0.
-610.144 -1256.85 0.
10.894 21.5654 0.
-323.591 -635.47 0.
2.6352 4.93284 0.
-5.33208 -21.325 0.
-12.2334 -25.3286 0.
-5.35505 -10.8082 0.
-9.90452 -23.8582 0.
-3.13443 -17.1818 0.
-181.753 -370.629 0.
-7.00261 -27.807 0.
-41.1353 -77.9943 0.
-6.51467 -11.7385 0.
9.89258 18.6544 0.
8.57931 16.7283 0.
10.8821 22.1998 0.
-52.097 -108.21 0.
-5.42381 -11.4887 0.
-143.886 -317.546 0.
-413.326 -929.035 0.
-314.431 -738.207 0.
-262.636 -615.194 0.
-365.294 -854.599 0.
-263.914 -621.031 0.
-61.061 -142.256 0.
-44.9442 -106.081 0.
-7.00184 -16.5031 0.
3.29158 7.74704 0.
-739.573 -1895.6 0.
0.311571 0.794006 0.
-1077.47 -2946.32 0.
-179.298 -486.544 0.
-59.6501 -159.349 0.
-467.901 -1225.67 0.
-0.219814 -8.55245 0.
6.0162 15.6353 0.
-470.77 -1303.93 0.
-15.8268 -43.3109 0.
-287.558 -774.263 0.
-3.41661 -9.26277 0.
-0.378944 -1.0247 0.
-316.525 -854.79 0.
1.08105 2.7284 0.
-0.00211753 -0.0208626 0.
-425.171 -1176.73 0.
-59.3908 -163.555 0.
-340.045 -924.32 0.
-98.0452 -267.918 0.
-63.7696 -176.218 0.
-405.752 -1123.64 0.
-138.907 -370.402 0.
-67.1949 -167.369 0.
-362.186 -975.788 0.
-176.091 -474.06 0.
-92.0575 -231.567 0.
-348.711 -870.709 0.
-312.434 -769.559 0.
-143.98 -364.956 0.
-189.703 -496.036 0.
-271.01 -727.143 0.
-52.4586 -134.785 0.
-125.218 -343.351 0.
-370.643 -1025.73 0.
-41.3589 -114.24 0.
-76.1256 -210.051 0.
-397.958 -1102.01 0.
-51.5742 -142.578 0.
-97.4579 -267.852 0.
-330.202 -898.455 0.
-10.5565 -25.6984 0.
-442.446 -1221.92 0.
-0.125457 -3.59691 0.
-9.37062 -25.4183 0.
-275.768 -763.602 0.
-16.7558 -45.8552 0.
-1.45682 -4.01671 0.
-222.448 -615.712 0.
-0.146414 -6.70611 0.
-422.982 -1133.95 0.
2.68558 6.25292 0.
-105.161 -261.205 0.
-859.458 -2214.54 0.
-321.419 -837.681 0.
-244.162 -639.819 0.
-862.529 -2250.43 0.
7.65775 19.336 0.
-377.463 -973.441 0.
-30.5715 -70.6696 0.
-9.40581 -21.4595 0.
10.8251 25.3356 0.
-139.597 -323.59 0.
-360.763 -845.705 0.
-462.226 -1092.67 0.
-309.276 -715.745 0.
-250.285 -566.768 0.
-432.316 -936.903 0.
-2.16464 -4.64862 0.
15.1545 30.994 0.
17.08 34.0903 0.
-5.25817 -28.1755 0.
7.78669 14.8912 0.
9.12037 16.9852 0.
-139.506 -274.217 0.
10.9826 20.5237 0.
-5.34839 -21.1164 0.
-72.0988 -148.478 0.
-23.8363 -47.8066 0.
7.41202 14.1349 0.
-3.32748 -17.3627 0.
-5.28925 -10.3775 0.
0.404056 0.680286 0.
-4.50833 -7.8764 0.
-69.5696 -126.1 0.
8.05045 15.1691 0.
-491.73 -957.637 0.
-8.66772 -17.4121 0.
-240.051 -490.597 0.
-492.263 -1024.83 0.
-224.346 -494.423 0.
-133.066 -298.903 0.
-8.25126 -17.9756 0.
11.9076 26.2293 0.
-13.6144 -30.3363 0.
-90.2086 -204.932 0.
-9.75797 -22.2266 0.
-544.833 -1266.26 0.
-21.8311 -50.7945 0.
3.93613 9.14194 0.
-671.124 -1692.65 0.
-1.8843 -4.70115 0.
-401.663 -1099.61 0.
-3.90058 -10.5867 0.
3.28912 8.77703 0.
-77.5951 -196.562 0.
-0.420067 -9.64438 0.
-0.241425 -4.97705 0.
-38.9602 -107.873 0.
0.429413 1.1658 0.
-7.63076 -20.6524 0.
-1.2813 -3.45934 0.
-0.856011 -2.30332 0.
-63.1606 -162.385 0.
0.807228 1.90442 0.
1.76586 3.68831 0.
-85.4608 -236.197 0.
-9.06592 -24.8297 0.
-88.2825 -234.308 0.
-39.4748 -105.713 0.
-26.9239 -74.1722 0.
-160.095 -423.061 0.
-80.3984 -198.946 0.
-48.1143 -110.143 0.
-179.772 -494.838 0.
-94.0889 -241.274 0.
-70.1183 -149.969 0.
-179.3 -456.947 0.
-174.12 -441.905 0.
-97.0276 -243.214 0.
-105.128 -269.505 0.
-138.192 -376.908 0.
-16.5121 -35.8189 0.
-54.6356 -144.531 0.
-134.965 -370.294 0.
-13.8679 -37.4105 0.
-27.9553 -76.7611 0.
-80.9069 -224.098 0.
-13.4275 -35.9702 0.
-48.9683 -134.072 0.
-98.1205 -268.346 0.
-0.106425 -0.65951 0.
-96.9029 -254.432 0.
1.61584 3.89651 0.
0.496127 1.29507 0.
-6.31143 -17.15 0.
0.645199 1.76612 0.
-0.0528081 -0.145707 0.
-0.0004805 -4.07655 0.
3.18001 8.23555 0.
-116.78 -301.422 0.
3.25718 7.21009 0.
-115.803 -275.077 0.
-630.512 -1571.12 0.
-111.675 -294.475 0.
0.137502 0.364438 0.
-154.597 -411.594 0.
-1.08671 -2.64712 0.
-648.796 -1616.41 0.
-50.8151 -118.713 0.
-48.9476 -112.914 0.
-371.866 -847.17 0.
6.15537 13.3706 0.
5.01809 10.8335 0.
-5.91948 -12.932 0.
7.06358 15.1432 0.
-74.4126 -167.98 0.
-50.0474 -108.419 0.
-281.849 -604.498 0.
-772.961 -1568.3 0.
-74.9219 -148.085 0.
-10.1103 -19.501 0.
-223.098 -424.06 0.
-8.8364 -16.3411 0.
-58.3361 -108.58 0.
-5.31001 -20.9487 0.
16.9658 28.7236 0.
2.85918 5.49826 0.
0.526345 0.977569 0.
7.90662 14.9655 0.
3.39347 6.51663 0.
-178.514 -347.139 0.
-7.11494 -12.0322 0.
-41.9583 -73.7175 0.
-232.21 -423.56 0.
3.14863 5.9295 0.
-101.95 -198.881 0.
14.8962 27.8349 0.
3.38943 6.38445 0.
-44.6504 -84.798 0.
0.0877864 0.17673 0.
-142.521 -293.995 0.
-3.29267 -27.471 0.
-195.829 -430.765 0.
-205.788 -458.025 0.
-899.967 -2044.62 0.
-301.988 -686.52 0.
-475.082 -1089.75 0.
-158.966 -364.546 0.
-15.5324 -35.577 0.
-115.42 -286.245 0.
0.841313 2.05282 0.
-33.1413 -88.6282 0.
1.25819 3.38237 0.
5.01863 13.5535 0.
-932.947 -2408.36 0.
3.59511 9.20582 0.
-1.13666 -2.89344 0.
-1413.55 -3915.08 0.
-1.53901 -4.23991 0.
-1333.98 -3690.08 0.
-153.508 -424.14 0.
-18.8251 -51.908 0.
-1390.49 -3839.9 0.
-61.9021 -160.324 0.
-0.266885 -4.05944 0.
-1260.67 -3486.3 0.
-98.5481 -272.312 0.
-937.717 -2496 0.
-345.577 -947.581 0.
-106.72 -290.729 0.
-888.646 -2444.07 0.
-341.823 -941.227 0.
-68.3387 -165.077 0.
-656.646 -1812.51 0.
-338.22 -933.999 0.
-96.694 -251.038 0.
-517.787 -1428.14 0.
-453.206 -1253.99 0.
-207.633 -546.5 0.
-355.802 -980.304 0.
-527.535 -1458.87 0.
-95.4955 -252.757 0.
-369.861 -1021.06 0.
-761.344 -2102.71 0.
-67.6617 -183.381 0.
-350.593 -968.867 0.
-965.712 -2652.75 0.
-138.223 -382.216 0.
-356.711 -974.73 0.
-934.958 -2467.01 0.
-57.3031 -154.617 0.
-1398.3 -3869.36 0.
1.50374 4.03624 0.
-33.6607 -91.6838 0.
-1482.72 -4105.99 0.
-17.7798 -49.2358 0.
-134.696 -371.508 0.
-1391.66 -3805.93 0.
-20.5017 -55.4678 0.
-1137.22 -3050.35 0.
-0.566983 -12.1845 0.
4.55768 11.4111 0.
-378.538 -948.669 0.
6.18634 16.5564 0.
-210.541 -572.52 0.
-1.80651 -18.1581 0.
-1.0087 -2.36826 0.
-26.9533 -65.4681 0.
-79.597 -187.866 0.
-253.67 -589.994 0.
-584.12 -1340.85 0.
-241.622 -522.938 0.
-630.352 -1358.8 0.
-84.5706 -182.614 0.
-86.5007 -183.241 0.
-7.00787 -14.5661 0.
-2.41393 -4.81793 0.
-4.32673 -8.57949 0.
-40.1303 -75.5256 0.
8.49207 15.7457 0.
-127.49 -243.144 0.
-212.727 -401.753 0.
6.19373 11.3699 0.
-415.865 -783.661 0.
6.81978 12.2411 0.
-4.19488 -7.16255 0.
-41.4906 -81.0807 0.
2.50358 4.72151 0.
-7.45282 -13.9935 0.
-39.4979 -75.2434 0.
-29.9654 -57.952 0.
-1.14663 -1.88671 0.
4.19015 7.12017 0.
-4.61446 -8.09875 0.
13.2108 23.7306 0.
9.88648 18.301 0.
-3.07977 -5.75314 0.
-255.559 -481.79 0.
-215.098 -408.725 0.
-322.042 -639.559 0.
-583.656 -1187.34 0.
-200.658 -434.688 0.
-231.279 -507.164 0.
-190.996 -423.583 0.
-34.5593 -77.9829 0.
-5.45065 -12.1512 0.
-28.9019 -65.2118 0.
-19.6057 -44.1869 0.
-8.43728 -18.9944 0.
-468.813 -1125.23 0.
-3.43599 -8.03035 0.
-753.582 -1987.52 0.
-4.41409 -11.7651 0.
-2.41519 -6.46909 0.
-709.176 -1788.3 0.
-2.60143 -6.51983 0.
-0.58042 -12.0873 0.
-171.956 -474.709 0.
-0.786455 -2.13459 0.
-128.658 -355.929 0.
-12.4439 -34.3621 0.
1.74826 4.80987 0.
-150.668 -400.039 0.
1.58574 3.96618 0.
0.331868 0.784366 0.
-245.237 -675.61 0.
-0.0505084 -2.07736 0.
-255.891 -704.142 0.
-83.7804 -226.96 0.
-44.766 -118.344 0.
-332.275 -909.96 0.
-79.3292 -191.257 0.
-1.60814 -3.46854 0.
-315.147 -871.42 0.
-85.1585 -228.614 0.
-34.2365 -84.6081 0.
-321.289 -886.738 0.
-275.967 -763.862 0.
-109.749 -287.424 0.
-141.122 -382.24 0.
-281.015 -777.428 0.
-47.6797 -121.842 0.
-100.764 -267.378 0.
-334.149 -920.827 0.
0.410802 1.13594 0.
-61.9865 -169.864 0.
-326.365 -902.033 0.
-79.962 -221.355 0.
-116.256 -320.192 0.
-253.12 -688.455 0.
0.25142 0.656208 0.
-248.824 -673.13 0.
2.03722 5.39197 0.
0.777577 2.09462 0.
-51.8643 -141.765 0.
-0.00074685 -6.15121 0.
-12.302 -34.0069 0.
-124.06 -340.307 0.
0.0495934 0.130035 0.
-212.7 -567.322 0.
-0.519531 -1.27889 0.
2.27484 5.62391 0.
-523.571 -1300.22 0.
-2.79537 -7.34578 0.
-339.519 -909.304 0.
-631.837 -1504.22 0.
-62.2593 -147.323 0.
-260.355 -610.104 0.
-25.2317 -57.0831 0.
8.79023 19.8119 0.
-2.54503 -25.3156 0.
-1.82288 -3.91053 0.
-65.5834 -139.93 0.
-308.525 -658.205 0.
-368.563 -771.268 0.
-180.116 -369.606 0.
-555.876 -1091.8 0.
-8.45284 -16.5289 0.
-212.358 -399 0.
-12.2963 -22.7486 0.
-6.67096 -12.1573 0.
9.39989 16.9446 0.
-6.19009 -22.9914 0.
6.01735 10.808 0.
-5.81206 -10.1106 0.
9.84623 16.9759 0.
2.86709 5.69693 0.
3.3436 6.41044 0.
-2.07509 -3.73517 0.
9.34926 17.1009 0.
0.0307489 0.0571384 0.
11.172 18.3812 0.
-177.986 -302.775 0.
-75.6457 -133.038 0.
11.4472 20.4219 0.
-673.283 -1245.33 0.
-2.51174 -4.69031 0.
-135.775 -255.767 0.
-184.489 -350.443 0.
-79.1601 -154.529 0.
6.42974 12.2279 0.
-4.17973 -26.5012 0.
-3.7028 -26.5977 0.
7.08885 15.3193 0.
-245.639 -536.815 0.
-10.1876 -22.4303 0.
-445.883 -997.238 0.
-152.151 -341.184 0.
-152.593 -341.79 0.
-650.748 -1543.64 0.
9.64989 22.2848 0.
-507.99 -1327.2 0.
-111.965 -295.053 0.
-64.9966 -172.32 0.
-65.9481 -162.866 0.
-2.44544 -5.98844 0.
2.88878 7.00438 0.
-824.427 -2239.27 0.
1.19651 3.19173 0.
-923.487 -2555.22 0.
-111.421 -308.42 0.
-50.7068 -140.372 0.
-1277.46 -3528.57 0.
-53.8799 -145.427 0.
-3.60325 -9.72925 0.
-1062.51 -2938.38 0.
-0.139657 -2.89748 0.
-760.414 -2079.9 0.
-218.787 -604.367 0.
-94.465 -258.783 0.
-881.578 -2430.85 0.
-254.145 -690.009 0.
-26.5808 -61.2757 0.
-728.559 -2007.25 0.
-324.761 -898.552 0.
-72.8865 -201.28 0.
-592.776 -1619.3 0.
-497.172 -1376.6 0.
-149.212 -400.099 0.
-361.125 -997.735 0.
-637.305 -1756.95 0.
-62.7698 -167.606 0.
-336.512 -929.522 0.
-808.299 -2224.11 0.
-24.2564 -67.1229 0.
-243.47 -670.574 0.
-946.475 -2618.97 0.
-150.653 -416.883 0.
-245.962 -674.447 0.
-743.813 -1963.66 0.
-0.0797731 -3.16268 0.
-1378.1 -3786.63 0.
-0.080133 -3.53144 0.
-18.5467 -49.499 0.
-1209.31 -3329.13 0.
-0.0130369 -6.51806 0.
-87.4593 -240.238 0.
-812.639 -2236.39 0.
-37.6492 -91.2957 0.
-367.125 -952.322 0.
-0.78253 -1.89995 0.
-3.3669 -8.21469 0.
-131.235 -321.547 0.
-149.142 -383.904 0.
-595.793 -1561.98 0.
-87.9566 -209.608 0.
-100.939 -238.599 0.
-680.617 -1593.37 0.
-143.857 -322.278 0.
-36.1437 -80.6133 0.
-262.888 -583.406 0.
-61.5901 -126.337 0.
-8.14292 -16.5419 0.
-0.294277 -0.599256 0.
3.14617 6.34779 0.
-3.36751 -6.73197 0.
-27.3183 -52.9646 0.
-285.923 -550.174 0.
-381.189 -715.686 0.
-23.2199 -42.862 0.
13.2905 24.1578 0.
-567.541 -1026.64 0.
13.7578 23.9776 0.
-112.497 -201.477 0.
-5.22552 -19.1413 0.
-0.423939 -0.710846 0.
5.31031 10.4419 0.
-1.19354 -2.27819 0.
-1.42806 -2.56868 0.
-1.68878 -3.0873 0.
-129.413 -240.269 0.
12.2445 20.1398 0.
-84.5434 -143.931 0.
-15.5243 -27.3505 0.
-10.9091 -19.3194 0.
0.454305 0.775897 0.
12.7365 22.2258 0.
-2.17043 -3.88655 0.
9.45665 17.3952 0.
6.49302 12.1365 0.
-355.728 -668.755 0.
11.2517 23.005 0.
-112.198 -236.544 0.
-293.576 -636.864 0.
-535.516 -1153.56 0.
-305.671 -663.383 0.
-243.274 -543.939 0.
-78.9324 -176.587 0.
7.13468 15.9051 0.
6.39114 14.5826 0.
3.4049 7.86994 0.
-175.194 -410.494 0.
-269.513 -712.545 0.
-38.0652 -98.6941 0.
-625.778 -1489.91 0.
-9.32873 -21.8676 0.
-3.8863 -9.02414 0.
-505.515 -1328 0.
3.30846 8.45189 0.
-308.287 -851.259 0.
-7.6111 -21.0388 0.
-7.94324 -22.001 0.
-196.304 -528.721 0.
-18.8649 -50.8858 0.
-3.91483 -10.5823 0.
-46.5963 -125.295 0.
-0.192366 -2.80899 0.
-224.773 -599.769 0.
-75.948 -208.353 0.
-74.922 -178.796 0.
-239.362 -654.298 0.
-18.5062 -44.2669 0.
-6.5307 -16.0374 0.
-215.951 -598.099 0.
-61.673 -170.82 0.
-15.3907 -42.6275 0.
-166.428 -453.677 0.
-114.12 -315.866 0.
-48.0795 -129.529 0.
-77.9154 -213.556 0.
-177.938 -492.065 0.
0.41192 1.13841 0.
-49.2469 -134.652 0.
-227.677 -627.878 0.
-0.55858 -1.5283 0.
-44.6976 -122.684 0.
-316.027 -869.207 0.
-26.3761 -72.662 0.
-33.8908 -91.7006 0.
-186.373 -502.904 0.
0.994708 2.52021 0.
-76.5601 -201.841 0.
1.1431 2.95223 0.
-0.973932 -2.55427 0.
-287.175 -773.104 0.
-4.3207 -11.883 0.
-26.9892 -74.0952 0.
-460.755 -1253.95 0.
2.33245 5.47755 0.
-685.664 -1708.68 0.
-198.502 -482.172 0.
-152.574 -376.296 0.
-430.546 -1077.17 0.
-32.7964 -84.4369 0.
-489.399 -1260.82 0.
2.48948 5.75459 0.
-1.81303 -19.6177 0.
-19.1343 -44.8744 0.
-94.2737 -209.117 0.
-129.749 -286.697 0.
-227.447 -500.753 0.
-516.531 -1051.57 0.
-574.038 -1156.34 0.
-369.052 -749.18 0.
-1.33491 -2.68911 0.
-6.94863 -13.8682 0.
-248.375 -463.369 0.
-6.99392 -12.7803 0.
-10.2357 -18.0702 0.
2.92569 5.05619 0.
17.4122 29.4749 0.
-72.7186 -131.72 0.
-59.9296 -104.566 0.
-125.484 -224.055 0.
-62.7074 -108.166 0.
-4.57836 -7.63324 0.
-46.405 -92.1401 0.
4.95977 9.55263 0.
2.28821 3.83021 0.
-3.89398 -13.6641 0.
-4.33177 -7.54237 0.
9.0862 14.2658 0.
-34.5866 -56.1977 0.
6.9849 11.4016 0.
16.1792 26.8567 0.
-179.423 -303.21 0.
-6.69561 -23.9935 0.
-360.284 -636.104 0.
-461.842 -838.839 0.
-16.5699 -30.6411 0.
-258.329 -480.727 0.
-363.055 -742.963 0.
-155.887 -329.792 0.
2.54715 5.16708 0.
7.00954 13.9128 0.
8.84375 17.7372 0.
0.280713 0.583847 0.
2.16629 4.5336 0.
-8.28282 -17.4421 0.
-398.253 -900.677 0.
6.72501 15.3515 0.
-420.737 -976.898 0.
-353.093 -916.079 0.
-85.13 -215.566 0.
-504.722 -1197.98 0.
2.80587 6.56322 0.
-3.84817 -8.91738 0.
-205.242 -515.799 0.
2.60816 6.32724 0.
-0.0267778 -5.61032 0.
-0.00565763 -3.98874 0.
-0.000255491 -4.66335 0.
-43.6362 -117.354 0.
-13.9974 -37.7839 0.
-4.84416 -13.1071 0.
1.55451 4.05455 0.
-0.571817 -7.06039 0.
-167.233 -166.034 0.
-180.808 -191.227 0.
-205.733 -247.361 0.
-15.2858 -37.9481 0.
-3.70507 -9.24367 0.
-6.36487 -16.0581 0.
-50.6102 -140.127 0.
-4.19061 -11.5214 0.
-1.83881 -4.97761 0.
-71.2806 -193.584 0.
-51.1741 -141.202 0.
-3.85545 -10.518 0.
-29.804 -82.1929 0.
-60.5675 -167.544 0.
0.249738 0.681289 0.
-0.000957653 -0.957718 0.
-55.3047 -152.438 0.
0.0289504 0.0760565 0.
-5.55313 -14.9597 0.
-101.415 -276.252 0.
0.172121 0.469828 0.
0.656182 1.75114 0.
1.71849 3.981 0.
1.7848 4.39251 0.
-0.110771 -3.45016 0.
0.310889 0.788425 0.
1.07271 2.76743 0.
-33.5331 -87.9974 0.
-18.0708 -49.522 0.
-37.3642 -102.164 0.
-87.4418 -237.949 0.
-0.138207 -0.316088 0.
-457.945 -1115.66 0.
-159.057 -382.795 0.
-110.373 -269.806 0.
-457.682 -1134.98 0.
4.19422 10.7613 0.
-387.253 -995.844 0.
-264.046 -599.877 0.
-0.839086 -1.87476 0.
-146.752 -323.157 0.
5.74061 11.9491 0.
-1.58704 -3.308 0.
1.89669 3.95835 0.
-6.67349 -12.9107 0.
3.68551 6.98388 0.
-32.277 -65.5191 0.
-125.937 -253.192 0.
-224.671 -447.573 0.
-563.168 -1036.01 0.
-83.4091 -150.296 0.
-313.668 -548.972 0.
-6.8898 -11.7921 0.
-6.73717 -11.2912 0.
-121.229 -202.019 0.
2.94918 4.81876 0.
-28.4223 -48.5209 0.
4.63349 7.63707 0.
-5.79477 -16.7436 0.
2.80109 5.29185 0.
-0.172628 -0.321467 0.
-5.08406 -8.48273 0.
-0.434621 -0.739915 0.
-20.0638 -34.8513 0.
7.3026 11.4263 0.
-442.902 -719.077 0.
-5.08487 -8.20175 0.
-1.3589 -2.22941 0.
-211.225 -352.795 0.
-34.319 -58.094 0.
-135.992 -236.508 0.
3.86115 6.42881 0.
-7.66829 -13.2336 0.
-4.50889 -7.93288 0.
-8.27756 -15.9958 0.
-43.99 -86.3749 0.
-17.3412 -34.6345 0.
-236.664 -469.623 0.
-182.019 -364.975 0.
-396.529 -818.991 0.
-416.082 -865.509 0.
-437.286 -916.249 0.
-149.293 -332.604 0.
-43.6901 -98.488 0.
-42.6022 -97.3643 0.
-444.601 -1131.44 0.
-2.20215 -5.44315 0.
-16.6229 -41.4182 0.
-26.2973 -65.4151 0.
-49.0862 -121.899 0.
-515.193 -1298.95 0.
3.07096 7.47154 0.
-714.668 -1972.71 0.
-164.95 -456.865 0.
-78.7266 -217.949 0.
-1084.59 -2961.07 0.
-74.279 -195.72 0.
-50.5141 -131.947 0.
-980.564 -2683.53 0.
-0.085903 -5.32536 0.
-559.933 -1543.82 0.
-514.377 -1317.22 0.
-205.034 -488.619 0.
-881.715 -2442.13 0.
-220.042 -601.473 0.
-21.3456 -57.7389 0.
-793.47 -2189.63 0.
-310.894 -857.712 0.
-53.521 -146.299 0.
-611.328 -1680.28 0.
-503.325 -1393.75 0.
-136.086 -362.249 0.
-362.161 -996.832 0.
-681.687 -1883.68 0.
-40.7058 -111.402 0.
-296.478 -816.91 0.
-844.498 -2331.53 0.
-22.0779 -59.6053 0.
-187.672 -513.191 0.
-813.208 -2252.07 0.
-131.476 -364.117 0.
-1209.71 -3280.18 0.
-2.97441 -7.69798 0.
-54.4358 -143.754 0.
-1175.4 -3189.39 0.
1.47934 3.92414 0.
-63.0303 -170.133 0.
-906.994 -2496.35 0.
-72.9214 -201.978 0.
-202.57 -561.02 0.
-655.726 -1816.05 0.
1.71822 4.12633 0.
-371.819 -915.8 0.
-37.8237 -91.6187 0.
-43.1747 -104.755 0.
-145.433 -357.7 0.
5.51189 14.0902 0.
-330.391 -848.117 0.
-187.847 -418.496 0.
-242.858 -532.858 0.
-363.327 -785.337 0.
-288.625 -590.183 0.
-237.889 -487.377 0.
-172.969 -355.001 0.
-306.242 -594.524 0.
-61.317 -116.556 0.
6.31354 11.9463 0.
8.95516 16.6478 0.
11.752 21.4744 0.
-1.24191 -2.10006 0.
-7.36203 -12.2029 0.
-94.0855 -162.968 0.
-152.291 -258.062 0.
5.3286 8.83633 0.
-310.834 -510.032 0.
-73.4829 -118.306 0.
-25.3225 -39.9814 0.
-290.767 -485.481 0.
5.9611 9.57055 0.
-0.764783 -1.45342 0.
4.88441 9.14696 0.
-4.06298 -6.75655 0.
-4.06503 -6.90059 0.
-3.95132 -6.84681 0.
6.79656 10.5964 0.
-6.36621 -16.6717 0.
3.66512 5.47339 0.
12.2085 18.5128 0.
-7.89054 -20.9772 0.
-1.08412 -1.70073 0.
-16.0599 -25.8193 0.
-43.3326 -71.438 0.
-7.3014 -12.6124 0.
-610.186 -1074.85 0.
-75.0135 -142.543 0.
-302.396 -583.13 0.
-476.358 -932.848 0.
-244.283 -484.696 0.
-81.7034 -163.986 0.
-28.9975 -59.6604 0.
1.32177 2.65989 0.
1.12634 2.30286 0.
2.27284 4.95023 0.
-2.95662 -6.49775 0.
-7.19433 -15.9521 0.
-299.545 -749.535 0.
-13.9575 -34.8129 0.
-287.363 -715.096 0.
-42.2884 -105.811 0.
-97.2509 -242.907 0.
-449.559 -1097.99 0.
-1.00497 -2.35783 0.
-212.949 -589.668 0.
-13.8825 -38.4385 0.
1.66115 4.58986 0.
-190.39 -500.56 0.
-51.4048 -134.071 0.
-30.5075 -78.7763 0.
0.968127 2.56536 0.
0.247083 0.655859 0.
0.418957 1.11404 0.
-172.74 -440.362 0.
-90.4088 -242.811 0.
-177.059 -489.455 0.
0.447805 1.239 0.
-12.491 -34.549 0.
-103.974 -287.47 0.
-30.6218 -84.1208 0.
-14.0492 -37.9973 0.
-90.0729 -249.217 0.
-71.2604 -197.231 0.
-7.37817 -18.744 0.
-37.9933 -103.345 0.
-68.1921 -188.744 0.
-0.156068 -0.425091 0.
-25.5756 -70.4849 0.
-100.041 -276.937 0.
-0.0158155 -1.61893 0.
-24.4497 -66.7985 0.
-115.816 -317.77 0.
1.22866 3.3647 0.
-170.914 -472.86 0.
1.56435 4.04554 0.
-0.398684 -1.05383 0.
-61.4787 -164.886 0.
-0.24491 -0.647222 0.
-1.21821 -3.26805 0.
-250.107 -681.923 0.
-50.5759 -139.844 0.
-157.493 -436.079 0.
-1.09921 -11.4685 0.
4.62985 10.8088 0.
-495.136 -1191.06 0.
-90.2509 -219.762 0.
-78.0456 -190.393 0.
-265.336 -647.403 0.
6.17075 15.1764 0.
-199.041 -485.331 0.
-12.305 -25.8758 0.
-12.1805 -25.6079 0.
-33.9755 -71.4309 0.
1.43484 2.83295 0.
-37.0394 -74.4281 0.
-236.186 -475.783 0.
-237.844 -463.281 0.
-280.604 -535.353 0.
-641.074 -1206.59 0.
-201.086 -370.652 0.
2.68964 4.86799 0.
-485.307 -822.625 0.
-8.67589 -14.4522 0.
-64.8164 -103.275 0.
0.621298 0.964523 0.
7.92638 12.0018 0.
14.8454 22.1664 0.
-8.15859 -12.1464 0.
13.8083 20.5065 0.
-63.1084 -106.318 0.
6.45652 10.4689 0.
-34.1411 -65.3275 0.
-2.56566 -4.83421 0.
1.6212 2.62139 0.
-3.56197 -11.9559 0.
-60.7597 -106.108 0.
-1.76771 -2.66329 0.
-85.5592 -130.051 0.
2.81812 4.13124 0.
-9.02584 -13.433 0.
-479.579 -724.177 0.
4.05366 6.28887 0.
-326.159 -517.537 0.
-122.847 -200.323 0.
-64.5334 -111.571 0.
-93.3473 -164.676 0.
-2.38861 -4.22906 0.
-7.78881 -13.8385 0.
6.07739 10.8371 0.
4.29795 7.90912 0.
-82.8741 -156.425 0.
2.59885 5.0826 0.
-9.37001 -18.6122 0.
-117.636 -237.288 0.
-273.52 -596.42 0.
-76.2694 -167.617 0.
-309.975 -688.061 0.
-570.565 -1411.11 0.
-213.294 -522.773 0.
-250.531 -628.556 0.
-107.14 -269.491 0.
-172.914 -434.493 0.
-19.5606 -46.7528 0.
4.15272 9.42486 0.
-92.4796 -256.127 0.
-542.188 -1489.03 0.
-99.4291 -275.378 0.
-563.061 -1527.66 0.
-79.4625 -208.881 0.
-97.3867 -253.131 0.
-787.487 -2108.06 0.
0.441403 1.15386 0.
-0.171888 -6.32757 0.
-1205.47 -3261.83 0.
-85.7993 -237.407 0.
-677.058 -1875.03 0.
-154.726 -427.36 0.
-13.6078 -37.5373 0.
-701.511 -1940.98 0.
-254.367 -700.07 0.
-36.3382 -98.3555 0.
-561.956 -1549.83 0.
-464.291 -1285.18 0.
-106.727 -288.38 0.
-340.344 -937.474 0.
-649.705 -1798.6 0.
-35.5721 -97.7033 0.
-250.963 -691.078 0.
-755.926 -2089.93 0.
-15.2432 -41.9957 0.
-235.464 -650.35 0.
-847.597 -2322.1 0.
1.36265 3.72013 0.
-975.079 -2700.7 0.
0.89565 2.32254 0.
-56.2773 -149.302 0.
-830.076 -2245.71 0.
-52.7142 -140.618 0.
-112.598 -302.546 0.
-404.092 -1090.65 0.
-257.709 -710.1 0.
-318.013 -878.498 0.
-0.950891 -8.45273 0.
-1.29113 -13.6656 0.
-8.18384 -19.1078 0.
-153.928 -376.879 0.
-122.175 -299.678 0.
-298.652 -732.881 0.
-248.673 -597.895 0.
-670.364 -1595.94 0.
-239.265 -503.804 0.
-166.342 -350.424 0.
-139.266 -293.469 0.
-113.235 -221.188 0.
9.84656 18.8415 0.
2.62953 4.93204 0.
10.6535 19.5094 0.
12.5881 22.68 0.
-2.26565 -3.99055 0.
-6.33938 -10.9837 0.
-77.6102 -139.097 0.
-92.5945 -158.142 0.
4.23852 7.0983 0.
-379.385 -593.799 0.
-208.316 -317.488 0.
-7.63275 -18.557 0.
-251.491 -368.918 0.
0.0610655 0.0896372 0.
6.30837 9.23743 0.
-10.412 -16.7669 0.
10.6475 16.8091 0.
-8.88313 -16.9425 0.
-0.64625 -1.20168 0.
-3.24943 -10.2203 0.
-44.518 -76.105 0.
-73.5464 -130.675 0.
-30.6469 -45.8148 0.
-71.1313 -107.27 0.
1.83873 2.64339 0.
-107.284 -156.479 0.
-16.0148 -23.738 0.
-6.44105 -9.4002 0.
-7.2236 -10.6729 0.
-4.2936 -6.42465 0.
-0.674104 -1.07977 0.
-44.1146 -72.6467 0.
4.26118 7.50679 0.
-83.739 -148.08 0.
-245.631 -436.373 0.
-309.767 -563.001 0.
-645.689 -1204.48 0.
-310.743 -599.338 0.
-127.103 -248.864 0.
-231.744 -460.314 0.
-147.171 -320.18 0.
-144.252 -316.674 0.
0.505036 1.04739 0.
0.883635 2.0612 0.
6.54694 15.5072 0.
-107.473 -269.705 0.
-57.1891 -143.034 0.
-62.7814 -156.542 0.
-399.002 -937.36 0.
-22.8476 -53.2404 0.
-358.376 -831.193 0.
-327.515 -907.07 0.
-0.0364513 -7.75899 0.
-208.693 -567.395 0.
-27.2033 -73.1553 0.
-57.7681 -153.771 0.
0.981963 2.49494 0.
-0.206624 -0.520833 0.
2.94145 7.33633 0.
-168.054 -465.058 0.
-0.0264101 -3.26667 0.
-76.0778 -210.541 0.
-11.5134 -31.4947 0.
-10.4758 -28.8794 0.
-44.1003 -121.882 0.
-6.14337 -16.812 0.
-4.62544 -12.4294 0.
-44.5452 -123.126 0.
-18.0516 -49.5714 0.
-4.21313 -11.1608 0.
-7.5479 -20.4719 0.
-36.9585 -101.987 0.
-0.720345 -1.97448 0.
-1.06331 -2.9379 0.
-32.4098 -89.7671 0.
-0.0054055 -2.37215 0.
-2.01905e-05 -2.7548 0.
-16.4335 -45.3673 0.
0.428054 1.14172 0.
-95.903 -260.197 0.
-0.175346 -4.34875 0.
2.39023 6.21879 0.
-138.811 -368.416 0.
-1.80531 -4.80071 0.
-3.10845 -8.33735 0.
-222.658 -599.32 0.
-26.0502 -71.1268 0.
-612.147 -1689.79 0.
-155.851 -362.353 0.
-5.11455 -11.8789 0.
-239.842 -560.863 0.
-11.2606 -27.5812 0.
-7.38941 -18.0625 0.
-4.92993 -12.0264 0.
-7.45185 -17.3114 0.
-4.01516 -9.23387 0.
-14.1981 -29.9276 0.
-152.23 -320.977 0.
-180.935 -381.808 0.
-346.883 -669.734 0.
-218.126 -412.249 0.
-214.358 -396.814 0.
-516.319 -934.571 0.
-41.863 -74.7012 0.
-115.074 -201.55 0.
5.4825 9.44551 0.
2.31137 3.91724 0.
7.4084 11.9001 0.
1.1135 1.75316 0.
-2.19613 -3.20205 0.
13.7754 19.7754 0.
2.90809 4.2405 0.
-39.651 -57.4552 0.
-69.9968 -101.177 0.
-44.7678 -64.5882 0.
-175.196 -278.572 0.
-56.4941 -88.0727 0.
-41.4287 -80.0764 0.
-1.11782 -2.10463 0.
-3.50197 -10.458 0.
8.46519 13.8861 0.
7.60436 10.6213 0.
-4.11737 -5.78903 0.
-7.70328 -16.6058 0.
8.46142 11.4776 0.
4.38232 6.04853 0.
-2.3844 -3.35018 0.
-8.6763 -19.6662 0.
-297.796 -435.81 0.
-0.322902 -0.49464 0.
-8.04194 -12.6521 0.
-679.475 -1103.07 0.
-27.1138 -47.5306 0.
-160.884 -283.347 0.
-45.1284 -79.6817 0.
-119.161 -214.025 0.
8.08822 14.5229 0.
7.15412 13.1231 0.
2.45111 4.51016 0.
3.75992 6.94149 0.
5.28947 10.6555 0.
1.88393 3.82691 0.
-82.1658 -168.279 0.
-220.09 -515.164 0.
1.70412 4.03791 0.
-387.108 -975.04 0.
-90.2758 -226.268 0.
-172.041 -430.044 0.
-297.111 -686.778 0.
-47.6827 -108.953 0.
-7.69521 -17.3395 0.
-149.031 -408.33 0.
-0.0639971 -4.24145 0.
-0.476739 -1.31104 0.
2.46414 6.73092 0.
-25.347 -68.6772 0.
-4.98108 -12.1956 0.
1.08297 2.61525 0.
0.885302 2.10319 0.
1.92941 5.31125 0.
-0.0288649 -2.23631 0.
-8.27 -22.3381 0.
-7.57339 -20.6926 0.
-6.70543 -18.47 0.
-2.89787 -7.98805 0.
-0.191089 -0.520704 0.
0.764346 2.04351 0.
-0.00485066 -2.13647 0.
-0.22492 -0.616946 0.
0.939663 2.49229 0.
-0.0169798 -1.8209 0.
0.26305 0.723002 0.
0.171494 0.469578 0.
0.0480326 0.132597 0.
-0.110647 -0.306448 0.
0.120303 0.330988 0.
1.12608 3.11806 0.
0.856806 2.36844 0.
-0.137423 -4.81276 0.
-0.0372704 -0.0991224 0.
-0.284556 -5.42683 0.
0.11913 0.303137 0.
1.3561 3.53776 0.
-0.156393 -8.34058 0.
1.05648 2.8252 0.
-32.1063 -86.4605 0.
3.05723 8.24229 0.
-293.484 -803.53 0.
-62.0337 -142.26 0.
-109.971 -253.2 0.
-367.25 -851.066 0.
-174.928 -427.677 0.
-71.7972 -175.092 0.
-279.738 -679.413 0.
-58.7005 -136.492 0.
-224.878 -518.184 0.
-4.91609 -10.0018 0.
-2.99004 -17.3914 0.
-3.56657 -6.96797 0.
2.54397 4.57559 0.
-0.525402 -0.945552 0.
-9.20134 -16.5698 0.
-14.4491 -25.9692 0.
-245.023 -432.462 0.
-253.969 -441.881 0.
-220.024 -376.853 0.
6.7275 11.3323 0.
-763.2 -1199.96 0.
-5.86637 -9.06682 0.
-28.9397 -41.9605 0.
-181.258 -258.939 0.
13.4444 18.8948 0.
-30.546 -42.3466 0.
12.4354 16.9281 0.
-3.8514 -5.14998 0.
-5.15973 -7.48609 0.
5.1862 7.50494 0.
-1.77496 -3.24333 0.
2.783 5.05592 0.
-3.69027 -10.6444 0.
6.11998 9.9111 0.
-5.27555 -7.2549 0.
7.05583 9.76569 0.
-232.314 -323.722 0.
-7.04809 -9.45896 0.
-8.63474 -11.7932 0.
-365.476 -509.556 0.
-237.435 -339.624 0.
-174.997 -253.413 0.
-33.0375 -49.6279 0.
9.81074 14.6968 0.
10.6474 16.1463 0.
-3.62182 -5.92321 0.
-4.92488 -8.19791 0.
10.351 17.5565 0.
-4.7358 -8.27025 0.
-402.244 -713.439 0.
1.09558 1.98257 0.
-129.227 -234.083 0.
-468.023 -847.29 0.
-184.061 -365.7 0.
-178.249 -357.137 0.
-433.219 -876.031 0.
-287.049 -672.009 0.
-154.947 -368.073 0.
-84.3358 -212.427 0.
-10.5896 -26.5643 0.
-2.46259 -6.24829 0.
-42.6538 -99.4196 0.
-26.1961 -60.4234 0.
-42.156 -96.1512 0.
-436.715 -1200.34 0.
-0.0912122 -0.249282 0.
-425.933 -1174.99 0.
-117.28 -324.334 0.
-64.7533 -179.352 0.
-613.264 -1635.45 0.
-47.439 -121.978 0.
-0.18386 -0.464707 0.
-891.148 -2465.43 0.
1.14312 3.12531 0.
-637.779 -1718.17 0.
-229.678 -632.203 0.
-4.41271 -12.1168 0.
-575.191 -1586.46 0.
-216.528 -599.183 0.
-24.0266 -65.4803 0.
-427.707 -1182.34 0.
-368.33 -1019.46 0.
-55.2323 -150.558 0.
-269.042 -740.054 0.
-545.316 -1510.35 0.
0.679654 1.86983 0.
-217.294 -601.561 0.
-654.92 -1800.3 0.
0.688721 1.90706 0.
-174.495 -482.262 0.
-755.187 -2045.79 0.
1.29294 3.43814 0.
-768.724 -2095.65 0.
2.37992 6.33952 0.
-74.5973 -201.74 0.
-555.33 -1523.07 0.
-83.7708 -230.33 0.
-150.227 -413.366 0.
-336.57 -927.074 0.
4.52384 12.2364 0.
-269.337 -732.227 0.
-4.58097 -10.3196 0.
-3.69136 -8.27307 0.
-6.88563 -15.3533 0.
-109.781 -267.894 0.
-159.15 -387.451 0.
-102.964 -250.023 0.
-195.355 -454.353 0.
-328.906 -757.395 0.
-467.801 -933.147 0.
-203.013 -397.56 0.
-165.407 -317.636 0.
-486.284 -872.652 0.
-19.4035 -34.7719 0.
-12.0852 -21.6688 0.
-303.999 -526.176 0.
-1.93755 -3.22304 0.
5.52383 8.88324 0.
3.92182 6.23468 0.
1.11017 1.74581 0.
2.17497 3.19542 0.
-186.234 -281.848 0.
-44.9728 -66.8551 0.
-145.529 -206.611 0.
-28.1756 -39.3615 0.
-442.119 -605.354 0.
-32.7937 -44.06 0.
10.4864 13.8387 0.
-79.8012 -113.281 0.
-6.70726 -9.50382 0.
4.7541 6.71937 0.
-0.0562684 -0.0995233 0.
-22.4871 -35.2648 0.
-19.9841 -31.932 0.
-35.6704 -48.2735 0.
-82.3259 -112.101 0.
-72.4645 -99.2983 0.
6.68 8.58972 0.
-9.75823 -16.9415 0.
9.33332 12.0628 0.
-4.233 -5.67424 0.
-28.4409 -39.2387 0.
2.27859 3.37134 0.
-4.99746 -7.48568 0.
-284.318 -430.948 0.
2.24703 3.5895 0.
-53.4128 -86.8426 0.
-683.835 -1135.36 0.
-70.7237 -122.539 0.
-197.977 -349.88 0.
-110.802 -197.427 0.
-101.631 -181.607 0.
2.84752 4.97358 0.
7.46964 14.5641 0.
-2.7428 -5.41225 0.
-0.624871 -1.24817 0.
-3.29536 -7.62496 0.
-1.39993 -3.24752 0.
-18.5023 -45.274 0.
-1.49092 -3.7088 0.
1.1629 2.93971 0.
-203.435 -471.215 0.
-17.351 -39.8028 0.
-25.1581 -57.0735 0.
-253.763 -692.594 0.
0.951852 2.58063 0.
-138.386 -382.697 0.
-1.63778 -4.53635 0.
2.8545 7.89256 0.
-5.70828 -15.0066 0.
1.94046 5.02805 0.
-1.34804 -3.43964 0.
-41.4737 -112.999 0.
2.52217 6.77502 0.
-7.61908 -20.5922 0.
-2.05951 -5.65514 0.
-0.000281739 -2.67402 0.
-0.372435 -1.03091 0.
-0.376177 -1.03527 0.
-0.0177322 -2.2974 0.
-0.177007 -0.489958 0.
-0.149632 -0.414206 0.
-0.476494 -1.30229 0.
-0.648997 -1.78719 0.
0.329536 0.911593 0.
0.818463 2.2456 0.
-0.00197697 -3.14012 0.
0.505548 1.39988 0.
-0.00219785 -3.0942 0.
-0.417532 -1.15623 0.
0.762031 2.10103 0.
-0.635515 -1.63695 0.
-100.284 -267.083 0.
0.305217 0.814419 0.
-0.0853595 -8.89695 0.
-39.3709 -107.788 0.
-2.26102 -6.21115 0.
-20.1242 -55.3433 0.
-233.393 -642.003 0.
-2.08357 -5.542 0.
-296.539 -795.176 0.
-25.6237 -57.5671 0.
-22.78 -50.9134 0.
-68.7661 -152.822 0.
-0.0894567 -0.212996 0.
-0.461914 -1.0883 0.
-1.0091 -2.35192 0.
5.57916 12.3613 0.
-2.99021 -6.55082 0.
-7.21008 -13.5171 0.
2.27948 4.25347 0.
-28.7739 -54.1498 0.
-30.3472 -54.1168 0.
-153.448 -274.024 0.
-75.2145 -134.33 0.
-410.089 -705.312 0.
-25.3636 -41.8288 0.
-586.526 -926.833 0.
-1.8258 -2.84677 0.
-0.22138 -0.341544 0.
-213.742 -310.21 0.
-8.89232 -12.7827 0.
5.36373 7.63168 0.
12.9009 17.2923 0.
0.500302 0.655124 0.
-7.7017 -9.79267 0.
14.3313 18.1888 0.
1.57754 2.05322 0.
-37.4914 -52.061 0.
-27.6143 -38.2931 0.
-34.1038 -47.2007 0.
-71.1376 -122.356 0.
4.82649 7.23317 0.
-0.554736 -0.837241 0.
-1.03933 -1.34552 0.
11.5335 15.0209 0.
-8.38579 -10.9859 0.
-0.657021 -0.834662 0.
-97.4797 -124.161 0.
-97.2341 -124.133 0.
-131.547 -172.281 0.
-427.634 -576.593 0.
-7.5606 -18.1433 0.
-71.0779 -106.451 0.
-174.832 -265.02 0.
-92.8318 -144.64 0.
-14.9311 -23.6632 0.
9.5788 14.7444 0.
-1.21468 -1.95113 0.
0.0731612 0.117585 0.
4.18602 6.77962 0.
1.84386 3.09298 0.
-123.964 -215.387 0.
0.108387 0.209139 0.
-213.451 -416.835 0.
-148.104 -292.752 0.
-268.192 -624.085 0.
-321.572 -751.117 0.
-329.38 -800.747 0.
-171.745 -424.805 0.
-141.78 -356.49 0.
-224.136 -516.586 0.
-113.065 -257.848 0.
-64.3338 -145.125 0.
-98.215 -265.824 0.
1.63148 4.38223 0.
-39.1866 -108.539 0.
-47.7067 -131.945 0.
-107.469 -295.865 0.
-410.826 -1103.31 0.
-104.66 -277.977 0.
-39.213 -103.123 0.
-563.713 -1523.51 0.
-0.506947 -1.34896 0.
-567.911 -1516.7 0.
-131.061 -358.501 0.
-0.592989 -1.63988 0.
-486.383 -1336.97 0.
-159.26 -440.836 0.
1.18866 3.25895 0.
-335.123 -925.718 0.
-322.078 -892.096 0.
-16.3229 -44.7696 0.
-224.431 -619.399 0.
-484.67 -1341.63 0.
0.898015 2.47986 0.
-136.129 -377.022 0.
-580.938 -1593.98 0.
-0.65286 -1.8075 0.
-107.512 -295.838 0.
-557.873 -1514.25 0.
-0.0720058 -0.185408 0.
-524.672 -1389.68 0.
2.88296 7.72291 0.
-64.2637 -172.968 0.
-403.991 -1095.25 0.
2.19634 6.0219 0.
-1.60107 -4.39601 0.
-4.382 -12.0469 0.
-2.06253 -5.37751 0.
-142.819 -376.024 0.
-104.699 -234.259 0.
-154.943 -344.493 0.
-309.865 -683.461 0.
-209.495 -498.313 0.
-176.671 -416.483 0.
-250.019 -583.712 0.
-306.369 -679.557 0.
-221.125 -484.906 0.
-142.295 -267.444 0.
-92.3715 -172.757 0.
0.155204 0.288938 0.
-4.3293 -14.9189 0.
11.4039 18.7311 0.
-4.88842 -14.1794 0.
6.84817 10.7547 0.
7.87057 12.3744 0.
0.956571 1.47754 0.
-143.114 -218.652 0.
-126.403 -191.13 0.
-273.199 -392.115 0.
-55.3787 -78.6961 0.
4.52931 6.37108 0.
-489.58 -643.477 0.
-54.7169 -70.0714 0.
-1.94476 -2.45388 0.
13.4481 16.9392 0.
2.67022 3.35798 0.
-4.55932 -6.05255 0.
-3.03626 -3.98943 0.
5.42154 7.05054 0.
4.52327 7.09621 0.
-29.8894 -43.5203 0.
-37.2898 -54.6268 0.
-91.5816 -116.79 0.
-105.318 -135.065 0.
-136.849 -176.462 0.
-5.93335 -7.44481 0.
-78.0959 -98.2084 0.
-69.9092 -88.0998 0.
-49.7545 -63.5555 0.
1.64351 1.97801 0.
-0.993062 -1.29239 0.
9.36857 12.4929 0.
10.9058 14.9329 0.
7.41646 10.7533 0.
4.02104 6.00534 0.
-71.1651 -109.494 0.
-5.59265 -15.5223 0.
-558.335 -872.618 0.
0.902139 1.44921 0.
-202.913 -337.82 0.
-406.003 -701.137 0.
-15.8338 -30.2204 0.
-92.5136 -178.727 0.
-161.403 -315.631 0.
-84.3964 -196.662 0.
2.7443 6.28615 0.
-8.29801 -19.9167 0.
-5.16304 -12.3539 0.
-27.0783 -64.5774 0.
-40.7432 -88.9328 0.
-10.4844 -23.1891 0.
-28.0668 -62.9042 0.
-426.881 -1137.74 0.
-3.94599 -10.456 0.
-333.69 -922.97 0.
-114.386 -315.667 0.
-0.517646 -1.42206 0.
-71.5065 -191.431 0.
-22.7513 -60.3923 0.
-13.9909 -36.8169 0.
-67.3341 -176.978 0.
-0.428958 -1.09451 0.
1.24768 3.39102 0.
-0.0100594 -3.88605 0.
-0.000395419 -4.15504 0.
-0.147385 -0.407703 0.
0.91738 2.53885 0.
-0.0127332 -3.4726 0.
-0.00193837 -3.13138 0.
0.643733 1.7829 0.
-0.0134833 -3.54718 0.
0.425428 1.17587 0.
1.2853 3.56001 0.
-0.337552 -0.928906 0.
-0.000826002 -4.20224 0.
-1.36882 -3.78727 0.
0.0865967 0.239841 0.
-0.00799983 -4.68916 0.
-0.43302 -1.18298 0.
-0.882543 -2.18867 0.
-130.966 -335.785 0.
-0.254973 -0.682018 0.
-1.00392 -2.69408 0.
-105.978 -285.885 0.
-37.7067 -101.834 0.
-106.148 -289.209 0.
-321.376 -880.987 0.
-0.422346 -11.879 0.
-367.678 -947.315 0.
-6.99197 -15.1641 0.
-4.49509 -9.73808 0.
-1.96613 -4.25491 0.
2.42593 5.68517 0.
0.844857 1.9583 0.
-1.16385 -13.0652 0.
-37.9003 -83.9549 0.
-113.34 -248.24 0.
-294.652 -555.402 0.
-28.3186 -53.0998 0.
-4.72793 -8.82348 0.
-588.174 -976.035 0.
-112.539 -180.376 0.
10.4036 16.1615 0.
-410.899 -634.434 0.
4.57874 7.0831 0.
-45.3667 -68.203 0.
3.96411 5.77992 0.
8.13318 11.5195 0.
-8.2418 -15.2172 0.
9.61103 12.5036 0.
-6.76414 -8.6527 0.
-72.7044 -93.0109 0.
-277.482 -346.992 0.
-114.831 -143.952 0.
-45.2216 -56.5546 0.
8.68762 10.8423 0.
-182.723 -239.08 0.
-48.1947 -62.4166 0.
10.7479 13.7794 0.
-1.76462 -2.68214 0.
-23.9273 -33.7928 0.
5.81707 7.35658 0.
-7.28214 -8.49716 0.
0.179905 0.209057 0.
8.30571 9.60374 0.
-11.7538 -16.1516 0.
-6.43778 -7.63213 0.
-68.4734 -83.06 0.
5.76583 6.92704 0.
-24.6069 -29.3199 0.
13.726 17.2502 0.
-7.83842 -13.5477 0.
-594.819 -785.399 0.
-3.60069 -5.20972 0.
-4.35475 -6.49536 0.
-409.301 -629.227 0.
-158.155 -241.26 0.
-28.8659 -44.021 0.
-5.98834 -9.69462 0.
7.25398 11.7715 0.
4.72337 7.6832 0.
-0.480009 -0.848442 0.
-2.17561 -3.93511 0.
-35.7566 -66.2002 0.
2.68113 6.01566 0.
-259.143 -593.081 0.
-16.981 -40.3876 0.
-68.6143 -162.634 0.
-153.959 -363.987 0.
-250.629 -553.546 0.
-65.953 -147.131 0.
-47.0407 -106.278 0.
-227.083 -599.875 0.
-0.290113 -0.760387 0.
-132.685 -366.754 0.
3.59394 9.90279 0.
0.351076 0.962021 0.
-10.7858 -28.8678 0.
-4.86123 -12.911 0.
-4.87407 -12.8383 0.
-2.08385 -5.27298 0.
-0.457242 -7.85017 0.
-0.0271565 -5.3612 0.
-0.0149082 -0.041176 0.
-5.57484e-05 -3.92322 0.
1.57029 4.34463 0.
0.493766 1.3666 0.
-0.00673525 -2.1169 0.
0.99174 2.74327 0.
-0.168918 -0.467846 0.
-0.00923078 -2.38691 0.
0.920005 2.54194 0.
-1.12222e-05 -3.2079 0.
-0.0143081 -3.25328 0.
-0.00447594 -4.87156 0.
1.03069 2.85474 0.
0.949487 2.62989 0.
1.66878 4.61084 0.
-0.0106913 -0.029317 0.
-0.462548 -6.77675 0.
-13.5759 -33.6285 0.
1.71095 4.56927 0.
-0.143346 -10.1625 0.
-49.7518 -133.86 0.
-1.48086 -4.00317 0.
-17.8924 -48.7783 0.
-112.424 -308.533 0.
-0.443971 -10.7469 0.
-240.717 -612.478 0.
-44.7852 -97.2862 0.
-17.3043 -37.5596 0.
-167.439 -361.606 0.
-100.47 -233.058 0.
-45.2956 -104.015 0.
-8.72493 -19.8274 0.
-164.773 -355.937 0.
4.73162 10.036 0.
1.3308 2.36752 0.
-3.59115 -13.7989 0.
2.98251 5.19907 0.
-21.3719 -33.3175 0.
8.66593 13.388 0.
7.46971 11.2877 0.
-106.257 -161.319 0.
-195.141 -296.888 0.
-466.56 -691.245 0.
-59.695 -85.5896 0.
-3.82684 -5.32552 0.
-478.059 -615.099 0.
14.6311 18.5234 0.
3.52828 4.39482 0.
12.9116 15.2572 0.
-8.43881 -9.89919 0.
15.3285 18.1597 0.
4.91793 5.75749 0.
-2.1693 -2.51042 0.
5.17334 6.06989 0.
7.28559 8.57109 0.
11.8516 13.9676 0.
-1.76521 -2.59762 0.
2.05363 2.5344 0.
9.43459 11.6698 0.
-10.0555 -13.1667 0.
12.1573 13.72 0.
-5.47278 -6.13891 0.
13.02 14.7759 0.
-282.513 -327.532 0.
-130.031 -154.3 0.
-193.793 -230.494 0.
-32.3586 -38.1765 0.
-29.1769 -35.3112 0.
-18.6698 -23.1092 0.
13.0692 15.4194 0.
-5.24262 -9.5295 0.
-1.81129 -2.44604 0.
-1.42775 -1.98501 0.
9.99653 14.3895 0.
-120.077 -179.735 0.
-5.75844 -9.27094 0.
-8.83256 -14.2536 0.
-310.84 -503.106 0.
-4.82907 -8.50933 0.
-56.563 -102.109 0.
-509.916 -946.399 0.
-61.3922 -137.413 0.
-184.694 -421.19 0.
-62.3275 -146.87 0.
-84.1056 -197.584 0.
-75.3791 -176.519 0.
-65.9432 -146.315 0.
-1.75415 -3.86603 0.
-4.34134 -9.63368 0.
-97.8108 -253.045 0.
3.78345 9.79568 0.
-165.263 -456.165 0.
-23.6251 -65.199 0.
-1.80478 -4.97675 0.
-292.01 -798.521 0.
-66.7719 -182.05 0.
-11.3594 -30.8795 0.
-395.004 -1034.49 0.
-0.739301 -1.90154 0.
-372.884 -996.145 0.
-71.9893 -195.234 0.
1.67763 4.60542 0.
-375.057 -1022.08 0.
-105.864 -292.037 0.
0.438375 1.2142 0.
-253.583 -696.378 0.
-240.535 -666.024 0.
-0.592966 -1.63502 0.
-138.471 -383.541 0.
-343.914 -948.008 0.
0.0924657 0.256101 0.
-76.8404 -211.947 0.
-382.729 -1045.91 0.
1.60542 4.41212 0.
-81.1608 -221.65 0.
-387.831 -1051.07 0.
-2.29406 -5.73831 0.
-365.335 -933.586 0.
-0.458997 -1.25356 0.
-48.4742 -132.308 0.
-286.162 -781.013 0.
0.299388 0.816061 0.
-6.50926 -17.7737 0.
-169.436 -463.834 0.
-0.621991 -12.4155 0.
-58.868 -145.774 0.
-21.4151 -45.5511 0.
-64.0927 -139.32 0.
-87.4095 -189.608 0.
-48.0452 -110.567 0.
-49.021 -111.533 0.
-93.2145 -209.562 0.
-247.081 -536.292 0.
6.15559 13.14 0.
-555.656 -968.378 0.
-4.05036 -14.7547 0.
-4.18763 -14.8278 0.
-127.365 -199.774 0.
0.0689422 0.107249 0.
10.8965 16.7956 0.
-5.82409 -13.4326 0.
9.75954 13.6821 0.
-0.9814 -1.29306 0.
-6.26262 -8.09908 0.
7.98099 10.1456 0.
-144.865 -181.125 0.
-130.121 -159.94 0.
-49.7036 -60.1691 0.
-110.287 -129.018 0.
-150.029 -174.276 0.
-158.074 -182.937 0.
-280.418 -320.775 0.
2.93975 3.32578 0.
6.30404 7.2075 0.
7.02652 8.06123 0.
-0.353125 -0.406122 0.
2.65351 3.3733 0.
-86.0533 -103.906 0.
-52.861 -63.9089 0.
-130.88 -144.23 0.
-48.0088 -52.5928 0.
-25.6101 -27.8608 0.
-6.3223 -7.00929 0.
0.370508 0.389714 0.
4.06426 4.37387 0.
-4.07378 -4.40936 0.
10.5946 11.5366 0.
-2.96707 -3.35121 0.
-8.85183 -11.8095 0.
-11.0675 -12.8326 0.
7.92261 10.0729 0.
-14.52 -18.9438 0.
-431.197 -581.51 0.
9.72844 13.8991 0.
-381.541 -568.691 0.
-17.8857 -28.6335 0.
-124.67 -200.067 0.
-121.745 -195.882 0.
-21.7215 -38.1553 0.
4.39931 7.98264 0.
-67.1635 -122.803 0.
2.23758 5.0019 0.
-10.0321 -22.856 0.
-18.5982 -43.2968 0.
-5.25401 -12.1734 0.
-22.0336 -50.8178 0.
-35.606 -77.9147 0.
-0.648751 -1.42949 0.
-27.9361 -61.9777 0.
-95.1952 -245.137 0.
-2.01255 -5.19001 0.
-60.8703 -167.721 0.
2.73863 7.53987 0.
4.00387 11.0109 0.
-67.3342 -183.539 0.
2.4334 6.61348 0.
2.89444 7.84096 0.
0.545453 1.40817 0.
2.86801 7.2479 0.
-0.0809434 -6.39173 0.
-0.891217 -2.43037 0.
-0.597185 -1.6452 0.
-0.0200705 -5.2509 0.
0.523471 1.44733 0.
-0.000398176 -4.73728 0.
-0.6738 -1.85592 0.
-0.531827 -1.47298 0.
-0.460883 -1.26921 0.
-0.0172107 -0.0476643 0.
-0.779003 -2.15215 0.
1.72617 4.78099 0.
0.253134 0.699614 0.
-1.04765 -2.87443 0.
1.6576 4.57531 0.
-1.28423 -3.52901 0.
0.720738 1.96924 0.
0.700415 1.72116 0.
-19.8488 -49.9586 0.
-1.44233 -3.93902 0.
1.17497 3.2061 0.
-66.782 -182.089 0.
2.47746 6.73528 0.
2.8554 7.77705 0.
-102.569 -280.039 0.
-2.84043 -7.02673 0.
-110.802 -274.08 0.
-35.2528 -74.734 0.
-13.0186 -27.5269 0.
-12.5438 -26.4672 0.
-8.88044 -19.969 0.
2.11237 4.73442 0.
0.925738 2.06819 0.
-56.1189 -124.918 0.
-1.12799 -2.49585 0.
-43.3742 -75.9781 0.
-28.5363 -48.4174 0.
7.19822 12.1009 0.
-157.78 -249.058 0.
-141.632 -221.676 0.
6.2512 9.70441 0.
-527.581 -742.876 0.
-0.873729 -1.19132 0.
-288.627 -370.941 0.
6.11373 7.70853 0.
3.34597 4.1484 0.
-1.31676 -1.51569 0.
1.3673 1.54617 0.
0.0257264 0.0286028 0.
-0.282425 -0.303937 0.
-3.5921 -3.85269 0.
12.3608 13.213 0.
1.52953 1.70809 0.
-63.7758 -70.4609 0.
-8.72167 -10.9809 0.
-8.25964 -9.23841 0.
-24.639 -27.6454 0.
-10.1291 -12.4192 0.
1.68302 1.85094 0.
1.78374 1.9221 0.
-11.2221 -11.7269 0.
-4.66754 -4.76625 0.
0.524535 0.535586 0.
-0.163532 -0.169284 0.
-7.96687 -8.22721 0.
8.77107 9.161 0.
3.43455 3.60425 0.
-293.365 -309.12 0.
-0.495167 -0.549461 0.
-55.9435 -62.8603 0.
-237.15 -269.828 0.
2.51578 3.08296 0.
-63.4609 -79.756 0.
5.56564 6.96563 0.
6.75132 9.24506 0.
4.28599 6.06798 0.
4.05879 6.14589 0.
0.931092 1.44948 0.
-1.07544 -1.72288 0.
4.67349 8.43494 0.
6.37782 11.6048 0.
-105.491 -193.463 0.
2.77422 6.28029 0.
-247.315 -569.591 0.
-46.2507 -107.573 0.
-52.0187 -120.431 0.
-171.395 -395.182 0.
-133.83 -292.71 0.
-111.268 -245.038 0.
-48.6126 -107.817 0.
-154.727 -396.305 0.
0.368609 0.946686 0.
-81.1254 -222.895 0.
-7.43314 -20.4027 0.
3.0919 8.47472 0.
-31.9938 -86.9337 0.
0.669612 1.81366 0.
-45.1414 -119.769 0.
-226.62 -563.311 0.
-0.620352 -1.5147 0.
-180.887 -496.848 0.
-32.4845 -89.5919 0.
-25.3526 -70.1373 0.
-207.188 -571.914 0.
-20.566 -56.9528 0.
1.41862 3.92533 0.
-133.574 -369.086 0.
-129.881 -359.739 0.
-8.18917 -22.5932 0.
-63.9932 -177.237 0.
-193.075 -533.747 0.
-26.1683 -72.4703 0.
-43.0185 -119.115 0.
-201.925 -558.318 0.
-47.7509 -132.261 0.
-45.6492 -126.361 0.
-161.613 -446.876 0.
-0.0422824 -0.100479 0.
-231.845 -558.417 0.
-11.8385 -32.3297 0.
-22.9934 -62.7375 0.
-60.7224 -165.524 0.
0.701037 1.90062 0.
-17.6692 -48.0061 0.
-80.8112 -220.058 0.
-5.19178 -12.8279 0.
-185.963 -458.971 0.
-76.1479 -161.05 0.
-102.085 -215.564 0.
-127.542 -268.849 0.
-163.302 -368.481 0.
-32.6102 -73.2947 0.
-21.7175 -48.6517 0.
-201.544 -455.451 0.
3.23557 7.26956 0.
-40.4848 -71.1355 0.
6.31421 10.8336 0.
-0.0272398 -0.0456343 0.
2.75559 4.18494 0.
3.69198 5.47013 0.
3.08325 4.46338 0.
-6.38491 -8.30663 0.
-0.91858 -1.15765 0.
-117.315 -146.64 0.
-115.045 -141.2 0.
9.54887 11.5302 0.
-303.759 -341.833 0.
-116.947 -129.568 0.
0.6796 0.741216 0.
-124.283 -130.048 0.
11.9106 12.428 0.
13.7123 14.2722 0.
9.35925 9.70475 0.
-3.82854 -3.9661 0.
8.79806 9.05045 0.
0.0809396 0.0831124 0.
7.33384 7.50934 0.
-1.72175 -1.8307 0.
-18.1225 -19.0503 0.
6.06805 6.24121 0.
-46.1393 -46.0003 0.
-67.2857 -67.0608 0.
-29.6924 -29.5745 0.
-71.5042 -72.6818 0.
-119.157 -120.791 0.
-83.6697 -84.7003 0.
-33.6594 -34.2041 0.
2.22093 2.16206 0.
-9.30308 -10.1238 0.
2.77886 2.94136 0.
3.70998 3.99875 0.
-5.39369 -7.651 0.
-3.98374 -4.81503 0.
-37.3717 -46.4353 0.
7.07485 9.68705 0.
-244.277 -346.286 0.
-0.231528 -0.344891 0.
-8.4648 -12.9711 0.
-341.077 -536.379 0.
-4.0785 -7.38161 0.
7.59013 13.849 0.
-92.2569 -169.745 0.
4.34059 9.95477 0.
-93.0003 -217.202 0.
-19.7979 -45.9821 0.
-5.64571 -12.6974 0.
-21.3399 -48.2476 0.
-5.31767 -11.4834 0.
-3.88221 -8.38103 0.
-8.10157 -17.4835 0.
-99.2654 -245.912 0.
-1.527 -3.78521 0.
-110.36 -297.912 0.
-46.9092 -126.661 0.
-69.598 -187.88 0.
-114.739 -307.653 0.
-32.0802 -85.6114 0.
3.90962 10.3815 0.
3.3185 8.12953 0.
-0.583852 -8.97382 0.
2.59875 7.13703 0.
2.70985 7.47641 0.
0.865257 2.39407 0.
-0.668343 -1.84646 0.
-0.082046 -0.22724 0.
1.07536 2.97468 0.
0.257592 0.712194 0.
1.44976 4.01535 0.
1.46763 4.04858 0.
0.341206 0.944906 0.
0.0731604 0.202377 0.
0.99867 2.76301 0.
-0.694461 -1.92352 0.
-6.63646 -18.3699 0.
0.854073 2.36563 0.
-1.06051 -2.93582 0.
1.68539 4.65849 0.
-2.50392 -5.88472 0.
-7.50672 -17.9016 0.
-13.6671 -36.6461 0.
-49.8281 -133.95 0.
-139.651 -376.177 0.
-32.2075 -86.2183 0.
-59.1407 -158.199 0.
-141.606 -357.083 0.
-6.29594 -15.1896 0.
-106.207 -257.091 0.
-1.68164 -3.51431 0.
4.06377 8.43219 0.
-28.8334 -59.4702 0.
-29.0672 -64.4853 0.
-28.8137 -64.9279 0.
-27.7783 -64.0557 0.
-57.7204 -132.421 0.
1.1988 2.7343 0.
-208.983 -368.517 0.
-3.2943 -11.8199 0.
1.51328 2.54064 0.
-295.271 -436.282 0.
-3.32778 -4.79838 0.
5.93842 8.36721 0.
-147.364 -193.695 0.
-5.33526 -9.00648 0.
4.30497 5.00906 0.
9.50842 10.7245 0.
-4.08632 -4.47673 0.
12.0057 12.2267 0.
5.84324 5.94626 0.
-9.42624 -9.77214 0.
-34.4184 -34.9709 0.
-84.6576 -85.8827 0.
-82.317 -83.3722 0.
-126.868 -129.179 0.
-86.9849 -88.5518 0.
-104.503 -104.617 0.
-80.1535 -80.1467 0.
-33.6041 -33.521 0.
1.18146 1.23483 0.
-34.0106 -34.2256 0.
2.85042 2.40373 0.
-2.72975 -2.4138 0.
8.4434 7.402 0.
4.44882 3.86215 0.
13.9673 12.7824 0.
-2.35251 -2.16842 0.
-3.88759 -3.69344 0.
-5.85983 -5.6015 0.
9.28638 8.93248 0.
-3.46117 -3.50883 0.
-3.62585 -3.73706 0.
-223.617 -234.91 0.
4.44956 5.18677 0.
-1.47708 -1.76912 0.
-278.683 -343.747 0.
-0.799549 -1.09442 0.
-60.3228 -85.5719 0.
-1.9792 -2.89648 0.
-2.37598 -3.47287 0.
7.85858 11.4368 0.
8.74678 14.4918 0.
4.67662 7.96176 0.
6.52534 11.4183 0.
1.24547 2.80909 0.
-5.86868 -13.4729 0.
-2.90605 -6.77859 0.
-3.01507 -6.76361 0.
-49.5815 -111.797 0.
-21.754 -47.1725 0.
2.52308 5.47039 0.
0.628345 1.36183 0.
-64.5592 -158.867 0.
-1.40009 -3.4447 0.
-24.1586 -64.9678 0.
-9.06785 -24.3829 0.
-1.37522 -3.69739 0.
-35.756 -95.9278 0.
2.43456 6.50238 0.
1.02448 2.72277 0.
3.36163 8.11025 0.
4.63339 10.9515 0.
3.26159 8.96458 0.
-0.010085 -6.92836 0.
0.999544 2.76607 0.
-0.736864 -2.03726 0.
0.540969 1.49839 0.
0.268951 0.743756 0.
-0.00350188 -6.30243 0.
1.69076 4.68257 0.
1.41178 3.8941 0.
-0.415289 -1.14994 0.
-0.00305346 -8.14797 0.
1.90227 5.25394 0.
-0.00189506 -8.40829 0.
-1.02011 -2.82544 0.
-0.858779 -2.37865 0.
-0.635943 -1.76079 0.
3.33694 7.63492 0.
0.647482 1.50533 0.
-0.720012 -1.69908 0.
0.571102 1.52803 0.
-0.852671 -2.28778 0.
-11.4434 -30.7837 0.
2.31452 6.18724 0.
-16.3094 -43.57 0.
0.955989 2.28888 0.
3.08335 7.41543 0.
-45.6581 -110.24 0.
-1.97536 -4.14796 0.
6.98095 14.5549 0.
-25.5908 -53.0195 0.
-93.6288 -207.437 0.
-23.4603 -51.7741 0.
3.1366 7.18501 0.
0.783029 1.75058 0.
5.84897 12.7342 0.
8.32549 13.7071 0.
2.36413 3.77359 0.
3.06402 4.74123 0.
4.47807 6.09969 0.
-14.1268 -19.7819 0.
-63.9223 -87.474 0.
-109.863 -146.164 0.
7.64106 9.83054 0.
-265.859 -301.751 0.
2.75465 3.03277 0.
-7.63326 -8.80647 0.
-177.42 -175.005 0.
-8.78597 -8.5711 0.
2.70432 2.67332 0.
4.25032 4.0518 0.
5.38377 5.14221 0.
-11.0163 -10.0264 0.
-1.22607 -1.15249 0.
-9.21776 -7.71836 0.
-1.54545 -1.29791 0.
1.7068 1.47122 0.
-10.4043 -7.95087 0.
3.95181 4.05965 0.
-2.0745 -1.76372 0.
0.196755 0.159663 0.
14.0415 12.0385 0.
-2.99979 -2.54787 0.
7.83289 6.86599 0.
-1.60453 -1.4136 0.
-147.365 -130.705 0.
-2.51215 -2.35817 0.
-115.892 -109.452 0.
-186.54 -177.227 0.
-5.25435 -5.18173 0.
-18.3918 -18.4306 0.
-3.83188 -3.69164 0.
8.64163 9.49109 0.
4.84197 5.54728 0.
-27.6635 -33.0371 0.
-2.43566 -3.28636 0.
-1.69016 -2.40263 0.
-4.92486 -7.18602 0.
5.84447 8.49154 0.
4.3672 6.31638 0.
-3.22383 -5.29348 0.
-4.14784 -7.0045 0.
-127.251 -221.304 0.
1.11746 2.58229 0.
-80.3701 -188.762 0.
-75.2256 -179.282 0.
-12.5819 -28.1499 0.
-18.1175 -40.7524 0.
-45.2251 -98.4778 0.
-3.29102 -7.16527 0.
3.55999 7.74802 0.
-46.5301 -113.677 0.
1.29652 3.06671 0.
2.22449 5.24854 0.
0.118754 0.309893 0.
1.89293 4.93918 0.
-20.9143 -54.8957 0.
4.18222 10.9972 0.
3.07097 8.08797 0.
-60.1533 -142.617 0.
-0.343882 -0.800496 0.
-47.587 -131.739 0.
-15.3172 -42.426 0.
-20.7644 -57.4787 0.
-40.5835 -112.387 0.
-6.95861 -19.2453 0.
-7.54086 -20.8006 0.
-33.2071 -91.9739 0.
-23.9073 -66.1891 0.
-5.79093 -15.9811 0.
-9.4 -26.0026 0.
-35.6673 -98.7768 0.
-29.3824 -80.7108 0.
-12.9785 -35.7505 0.
-23.1793 -63.9908 0.
-1.52667 -4.20302 0.
-53.2095 -146.958 0.
2.26352 5.1348 0.
0.699996 1.60197 0.
-52.3536 -120.882 0.
0.0257685 0.0677443 0.
-2.15939 -5.66529 0.
-9.87054 -25.8417 0.
-1.57456 -4.09448 0.
-16.9946 -44.3046 0.
-0.87926 -2.0418 0.
1.25814 3.01568 0.
-43.2072 -104.005 0.
-4.4158 -9.31761 0.
-8.4005 -17.604 0.
-28.6485 -59.6351 0.
-62.659 -138.463 0.
-47.5445 -104.716 0.
-69.5973 -161.86 0.
-1.86642 -4.23016 0.
-0.953026 -8.65242 0.
-112.476 -185.073 0.
5.35411 8.52935 0.
0.803198 1.23905 0.
-5.22409 -7.07043 0.
6.04739 8.18792 0.
-11.6882 -15.8287 0.
-4.57591 -6.12835 0.
-3.15698 -4.05477 0.
-15.9264 -17.4832 0.
8.17298 8.68012 0.
7.23564 7.44231 0.
-31.3919 -30.0753 0.
-51.4883 -49.3759 0.
-9.34843 -8.97855 0.
-134.143 -125.611 0.
-48.1796 -45.2263 0.
-2.31954 -2.1818 0.
-140.572 -127.961 0.
8.28881 7.39231 0.
2.2596 1.97711 0.
6.62715 5.49843 0.
-6.79251 -5.7699 0.
2.23444 1.92871 0.
-2.51523 -2.06393 0.
5.17236 4.05639 0.
-40.6633 -33.8279 0.
-77.3136 -63.6851 0.
-59.9135 -50.6124 0.
17.9073 11.003 0.
6.86222 4.60226 0.
0.91423 0.73254 0.
10.2968 8.63354 0.
7.37423 6.49071 0.
-3.36671 -3.14974 0.
-1.76119 -1.66388 0.
-79.9978 -76.327 0.
4.41182 4.89855 0.
-4.77758 -6.56888 0.
3.65972 4.43255 0.
7.49923 10.1694 0.
-39.4346 -56.4774 0.
-20.2807 -29.4032 0.
-23.719 -34.2321 0.
-56.2801 -80.8047 0.
1.79159 2.91375 0.
3.15471 5.2815 0.
-9.46068 -12.5605 0.
7.26769 12.5143 0.
-1.27311 -6.92066 0.
-1.87502 -4.07401 0.
-2.46232 -4.99926 0.
-0.939196 -1.96069 0.
-0.495344 -1.02516 0.
3.70022 7.72668 0.
-11.6865 -24.6223 0.
-8.65526 -20.398 0.
2.33733 5.49459 0.
-1.7133 -4.01701 0.
-11.3016 -29.3242 0.
-1.69185 -4.389 0.
-10.129 -26.6008 0.
0.32918 0.865942 0.
-2.08803 -5.5015 0.
0.260081 0.614618 0.
-0.913228 -11.0349 0.
5.05981 11.5196 0.
2.7221 7.53967 0.
1.34438 3.72217 0.
1.07612 2.98037 0.
-0.559072 -1.54662 0.
-0.0139682 -9.35836 0.
-0.844402 -2.33884 0.
-1.74519 -4.83063 0.
0.748288 2.06503 0.
2.23618 6.18562 0.
2.64377 7.32167 0.
0.553461 1.52405 0.
-2.0426 -5.63724 0.
-0.952739 -2.63406 0.
1.95937 5.37384 0.
-0.381271 -1.05017 0.
0.318971 0.725086 0.
-3.15615 -7.2369 0.
-0.605838 -1.40115 0.
-9.89895 -26.0109 0.
-13.1889 -34.5837 0.
-15.6151 -40.8591 0.
-1.82901 -4.73897 0.
-29.0726 -75.5197 0.
2.54402 5.86486 0.
2.47676 5.69826 0.
1.99113 4.57197 0.
-31.4611 -63.4305 0.
-3.99228 -7.95623 0.
2.06044 4.0585 0.
3.82983 7.71501 0.
-0.814402 -1.5709 0.
4.31131 8.4914 0.
-1.26883 -4.38951 0.
1.17618 2.65111 0.
-134.33 -220.763 0.
6.86822 10.9198 0.
0.0709324 0.109074 0.
-39.3714 -52.9439 0.
6.2725 8.43887 0.
-27.3545 -36.81 0.
-60.6579 -82.2242 0.
3.03457 3.93801 0.
-17.145 -18.7437 0.
1.20187 1.26978 0.
-1.44718 -1.47919 0.
-71.6087 -66.5692 0.
2.86862 2.61126 0.
11.434 10.1909 0.
-4.38011 -3.57933 0.
12.9933 9.89039 0.
-15.626 -7.43537 0.
8.16397 5.0567 0.
-11.1599 -9.6253 0.
2.06032 1.74513 0.
7.0184 5.61633 0.
-32.5225 -26.6586 0.
-1.07293 -0.881978 0.
