# vtk DataFile Version 2.0
test grain
ASCII
DATASET UNSTRUCTURED_GRID
POINTS 5000 float
0.497729 0.000614599 0.
0.500568 0.000797424 0.
0.503049 0.000864293 0.
0.505514 0.000929639 0.
0.507631 0.000946673 0.
0.509749 0.000964084 0.
0.51184 0.000976906 0.
0.513885 0.000981316 0.
0.515931 0.000985745 0.
0.517955 0.000989655 0.
0.519968 0.00099332 0.
0.521981 0.000996998 0.
0.523985 0.000997909 0.
0.525986 0.000998447 0.
0.527988 0.000998955 0.
0.52999 0.000999222 0.
0.531992 0.000999488 0.
0.533994 0.000999714 0.
0.535995 0.000999857 0.
0.537996 0.001 0.
0.539996 0.00100012 0.
0.541997 0.00100023 0.
0.543997 0.00100034 0.
0.545997 0.00100026 0.
0.547998 0.00100014 0.
0.549998 0.00100001 0.
0.551998 0.00100012 0.
0.553998 0.00100023 0.
0.555998 0.00100032 0.
0.557999 0.00100034 0.
0.559999 0.00100036 0.
0.561999 0.00100038 0.
0.563999 0.00100041 0.
0.565999 0.00100044 0.
0.567999 0.00100044 0.
0.569999 0.00100042 0.
0.572 0.0010004 0.
0.573999 0.0010004 0.
0.575999 0.0010004 0.
0.577999 0.00100041 0.
0.579999 0.00100044 0.
0.582 0.00100047 0.
0.584 0.00100048 0.
0.586 0.00100046 0.
0.588 0.00100045 0.
0.59 0.00100048 0.
0.592 0.00100056 0.
0.594 0.00100064 0.
0.596 0.00100054 0.
0.598 0.00100038 0.
0.6 0.00100023 0.
0.602 0.00100039 0.
0.604 0.00100054 0.
0.606 0.00100065 0.
0.608 0.00100058 0.
0.61 0.00100051 0.
0.612 0.00100048 0.
0.614 0.00100051 0.
0.616 0.00100053 0.
0.618 0.0010005 0.
0.620001 0.00100046 0.
0.622001 0.00100041 0.
0.624001 0.00100039 0.
0.626001 0.00100038 0.
0.628001 0.00100038 0.
0.630001 0.0010004 0.
0.632001 0.00100043 0.
0.634001 0.00100044 0.
0.636001 0.00100043 0.
0.638001 0.00100042 0.
0.640001 0.00100037 0.
0.642002 0.00100028 0.
0.644002 0.00100019 0.
0.646002 0.00100013 0.
0.648002 0.00100009 0.
0.650002 0.00100004 0.
0.652003 0.00100012 0.
0.654003 0.0010002 0.
0.656004 0.00100024 0.
0.658004 0.00100012 0.
0.660005 0.001 0.
0.662006 0.000999835 0.
0.664007 0.000999611 0.
0.666008 0.000999386 0.
0.66801 0.000999229 0.
0.670012 0.000999105 0.
0.672014 0.000998981 0.
0.674017 0.000997629 0.
0.67602 0.000996136 0.
0.678026 0.000994252 0.
0.680048 0.000989472 0.
0.68207 0.000984715 0.
0.684107 0.000979624 0.
0.686169 0.000973846 0.
0.688231 0.000968103 0.
0.690399 0.000940557 0.
0.692621 0.000903109 0.
0.694867 0.000864277 0.
0.697656 0.0007662 0.
0.70045 0.00067062 0.
0.495621 0.00158416 0.
0.498989 0.00228982 0.
0.501876 0.00255633 0.
0.504713 0.00277091 0.
0.507091 0.00283073 0.
0.50939 0.00288574 0.
0.511628 0.00293022 0.
0.513723 0.00294355 0.
0.515819 0.00295694 0.
0.517878 0.0029687 0.
0.519914 0.00297976 0.
0.52195 0.00299086 0.
0.52396 0.00299371 0.
0.525965 0.00299533 0.
0.52797 0.00299686 0.
0.529975 0.00299766 0.
0.53198 0.00299846 0.
0.533984 0.00299914 0.
0.535986 0.00299957 0.
0.537989 0.003 0.
0.53999 0.00300037 0.
0.541991 0.0030007 0.
0.543992 0.00300102 0.
0.545993 0.00300079 0.
0.547994 0.00300041 0.
0.549995 0.00300003 0.
0.551995 0.00300036 0.
0.553995 0.00300069 0.
0.555995 0.00300096 0.
0.557996 0.00300102 0.
0.559996 0.00300108 0.
0.561997 0.00300115 0.
0.563997 0.00300123 0.
0.565998 0.00300132 0.
0.567998 0.00300131 0.
0.569998 0.00300125 0.
0.571999 0.0030012 0.
0.573998 0.0030012 0.
0.575998 0.00300121 0.
0.577998 0.00300123 0.
0.579998 0.00300132 0.
0.581999 0.00300141 0.
0.583999 0.00300145 0.
0.585999 0.00300139 0.
0.587999 0.00300134 0.
0.589999 0.00300144 0.
0.591999 0.00300168 0.
0.593999 0.00300191 0.
0.595999 0.00300161 0.
0.598 0.00300115 0.
0.6 0.00300069 0.
0.602001 0.00300116 0.
0.604001 0.00300163 0.
0.606001 0.00300195 0.
0.608001 0.00300174 0.
0.610001 0.00300154 0.
0.612001 0.00300145 0.
0.614001 0.00300152 0.
0.616001 0.00300158 0.
0.618001 0.00300151 0.
0.620002 0.00300137 0.
0.622002 0.00300122 0.
0.624002 0.00300118 0.
0.626002 0.00300115 0.
0.628002 0.00300114 0.
0.630002 0.00300121 0.
0.632002 0.00300128 0.
0.634002 0.00300132 0.
0.636003 0.0030013 0.
0.638003 0.00300127 0.
0.640004 0.00300111 0.
0.642005 0.00300084 0.
0.644005 0.00300057 0.
0.646006 0.0030004 0.
0.648006 0.00300026 0.
0.650006 0.00300012 0.
0.652007 0.00300036 0.
0.654008 0.0030006 0.
0.656009 0.00300071 0.
0.65801 0.00300036 0.
0.660012 0.003 0.
0.662014 0.0029995 0.
0.664018 0.00299883 0.
0.666021 0.00299815 0.
0.668026 0.00299769 0.
0.670031 0.00299731 0.
0.672036 0.00299694 0.
0.674045 0.00299284 0.
0.676055 0.00298835 0.
0.678072 0.00298254 0.
0.68013 0.00296809 0.
0.682188 0.00295371 0.
0.684274 0.00293831 0.
0.686406 0.00292079 0.
0.688536 0.00290338 0.
0.690951 0.00280301 0.
0.69344 0.00268421 0.
0.696165 0.00252338 0.
0.699349 0.00221654 0.
0.702647 0.00171252 0.
0.493163 0.00220348 0.
0.49683 0.00337568 0.
0.500497 0.00419679 0.
0.503716 0.00456885 0.
0.506499 0.00470129 0.
0.508993 0.00479788 0.
0.511411 0.00488287 0.
0.513557 0.00490525 0.
0.515705 0.00492773 0.
0.517799 0.00494738 0.
0.519859 0.00496592 0.
0.521918 0.00498452 0.
0.523934 0.0049895 0.
0.525944 0.0049922 0.
0.527953 0.00499476 0.
0.52996 0.00499609 0.
0.531967 0.00499742 0.
0.533974 0.00499856 0.
0.535978 0.00499928 0.
0.537982 0.005 0.
0.539984 0.00500062 0.
0.541986 0.00500116 0.
0.543987 0.00500169 0.
0.545989 0.00500132 0.
0.54799 0.00500069 0.
0.549991 0.00500005 0.
0.551991 0.00500059 0.
0.553991 0.00500115 0.
0.555992 0.0050016 0.
0.557993 0.0050017 0.
0.559994 0.00500179 0.
0.561995 0.00500191 0.
0.563996 0.00500205 0.
0.565996 0.00500219 0.
0.567997 0.00500218 0.
0.569997 0.00500209 0.
0.571998 0.005002 0.
0.573997 0.00500201 0.
0.575997 0.00500202 0.
0.577997 0.00500206 0.
0.579997 0.00500221 0.
0.581998 0.00500235 0.
0.583998 0.00500242 0.
0.585998 0.00500232 0.
0.587998 0.00500223 0.
0.589998 0.0050024 0.
0.591998 0.0050028 0.
0.593998 0.00500319 0.
0.595999 0.00500268 0.
0.598 0.00500191 0.
0.6 0.00500115 0.
0.602001 0.00500193 0.
0.604002 0.00500271 0.
0.606002 0.00500325 0.
0.608002 0.00500291 0.
0.610002 0.00500256 0.
0.612002 0.00500242 0.
0.614002 0.00500253 0.
0.616002 0.00500264 0.
0.618002 0.00500251 0.
0.620003 0.00500228 0.
0.622003 0.00500204 0.
0.624003 0.00500197 0.
0.626003 0.00500192 0.
0.628003 0.00500189 0.
0.630003 0.00500202 0.
0.632004 0.00500214 0.
0.634004 0.00500221 0.
0.636005 0.00500216 0.
0.638006 0.00500212 0.
0.640007 0.00500185 0.
0.642008 0.0050014 0.
0.644009 0.00500095 0.
0.646009 0.00500067 0.
0.64801 0.00500043 0.
0.65001 0.00500021 0.
0.652011 0.00500061 0.
0.654013 0.00500101 0.
0.656014 0.00500118 0.
0.658016 0.00500059 0.
0.660019 0.005 0.
0.662023 0.00499917 0.
0.664028 0.00499804 0.
0.666034 0.00499692 0.
0.668041 0.00499614 0.
0.67005 0.00499552 0.
0.672058 0.0049949 0.
0.674074 0.00498798 0.
0.676091 0.00498048 0.
0.678119 0.00497054 0.
0.680213 0.00494626 0.
0.682307 0.0049221 0.
0.684448 0.00489624 0.
0.686651 0.00486672 0.
0.688853 0.00483738 0.
0.691588 0.00463783 0.
0.694373 0.00442854 0.
0.697775 0.00407078 0.
0.70147 0.00348193 0.
0.70525 0.00234034 0.
0.490253 0.00237389 0.
0.49456 0.00403697 0.
0.49869 0.00529764 0.
0.502089 0.00582109 0.
0.505264 0.00614769 0.
0.507929 0.00634731 0.
0.510577 0.0065537 0.
0.512899 0.00664958 0.
0.515213 0.00673721 0.
0.517449 0.00680751 0.
0.519589 0.00685423 0.
0.521732 0.00690168 0.
0.523801 0.0069298 0.
0.525854 0.00695402 0.
0.527904 0.00697697 0.
0.52992 0.00697967 0.
0.531936 0.00698238 0.
0.53395 0.00698577 0.
0.53596 0.00699072 0.
0.53797 0.00699568 0.
0.539976 0.00699872 0.
0.541978 0.00700014 0.
0.543981 0.00700156 0.
0.545983 0.00700178 0.
0.547985 0.00700164 0.
0.549986 0.0070015 0.
0.551987 0.00700182 0.
0.553987 0.00700214 0.
0.555988 0.00700241 0.
0.557989 0.00700254 0.
0.55999 0.00700266 0.
0.561992 0.00700282 0.
0.563993 0.00700306 0.
0.565994 0.00700329 0.
0.567995 0.00700343 0.
0.569995 0.00700352 0.
0.571996 0.00700362 0.
0.573996 0.00700362 0.
0.575996 0.00700361 0.
0.577996 0.00700362 0.
0.579996 0.00700377 0.
0.581996 0.00700392 0.
0.583997 0.00700404 0.
0.585997 0.00700411 0.
0.587997 0.00700417 0.
0.589997 0.00700429 0.
0.591997 0.00700445 0.
0.593997 0.00700462 0.
0.595998 0.00700429 0.
0.597999 0.00700381 0.
0.6 0.00700334 0.
0.602001 0.00700392 0.
0.604002 0.0070045 0.
0.606003 0.0070049 0.
0.608003 0.00700467 0.
0.610003 0.00700444 0.
0.612003 0.00700431 0.
0.614003 0.0070043 0.
0.616004 0.0070043 0.
0.618004 0.00700414 0.
0.620004 0.00700391 0.
0.622005 0.00700368 0.
0.624005 0.00700359 0.
0.626005 0.0070035 0.
0.628005 0.00700343 0.
0.630006 0.00700341 0.
0.632006 0.00700339 0.
0.634007 0.00700332 0.
0.636008 0.00700315 0.
0.63801 0.00700299 0.
0.640011 0.00700267 0.
0.642012 0.00700222 0.
0.644013 0.00700177 0.
0.646014 0.00700161 0.
0.648015 0.00700152 0.
0.650016 0.00700144 0.
0.652017 0.00700133 0.
0.654019 0.00700123 0.
0.656021 0.00700066 0.
0.658026 0.00699858 0.
0.660031 0.0069965 0.
0.662039 0.00699235 0.
0.664052 0.00698579 0.
0.666065 0.00697924 0.
0.668085 0.00697505 0.
0.670109 0.0069719 0.
0.672132 0.00696875 0.
0.674206 0.00693394 0.
0.676282 0.00689764 0.
0.678382 0.00685753 0.
0.680573 0.0067989 0.
0.682761 0.00674147 0.
0.68509 0.00664742 0.
0.687499 0.00653541 0.
0.690006 0.00637249 0.
0.692939 0.00600723 0.
0.696011 0.005641 0.
0.699679 0.0051527 0.
0.704005 0.00416261 0.
0.708075 0.00259938 0.
0.487315 0.00238755 0.
0.492071 0.00433039 0.
0.496276 0.00580006 0.
0.500199 0.00685913 0.
0.503646 0.00744401 0.
0.506702 0.00781564 0.
0.509574 0.0081576 0.
0.512156 0.00836149 0.
0.514657 0.00852279 0.
0.517079 0.00866136 0.
0.519305 0.008738 0.
0.521536 0.00881588 0.
0.523663 0.00886818 0.
0.525761 0.00891449 0.
0.527855 0.00895916 0.
0.52988 0.00896324 0.
0.531905 0.00896732 0.
0.533927 0.00897292 0.
0.535942 0.00898211 0.
0.537957 0.00899132 0.
0.539967 0.00899681 0.
0.541971 0.00899912 0.
0.543975 0.00900143 0.
0.545978 0.00900224 0.
0.54798 0.0090026 0.
0.549982 0.00900295 0.
0.551982 0.00900304 0.
0.553983 0.00900313 0.
0.555984 0.00900323 0.
0.557986 0.00900337 0.
0.559987 0.00900352 0.
0.561988 0.00900374 0.
0.56399 0.00900406 0.
0.565991 0.00900438 0.
0.567992 0.00900468 0.
0.569993 0.00900495 0.
0.571994 0.00900523 0.
0.573994 0.00900523 0.
0.575994 0.00900519 0.
0.577994 0.00900517 0.
0.579995 0.00900533 0.
0.581995 0.00900549 0.
0.583996 0.00900567 0.
0.585996 0.00900589 0.
0.587996 0.00900611 0.
0.589996 0.00900617 0.
0.591996 0.00900611 0.
0.593997 0.00900606 0.
0.595998 0.0090059 0.
0.597999 0.00900572 0.
0.6 0.00900553 0.
0.602002 0.00900591 0.
0.604003 0.00900629 0.
0.606004 0.00900655 0.
0.608004 0.00900643 0.
0.610004 0.00900631 0.
0.612004 0.00900619 0.
0.614005 0.00900607 0.
0.616005 0.00900596 0.
0.618006 0.00900577 0.
0.620006 0.00900555 0.
0.622007 0.00900533 0.
0.624007 0.0090052 0.
0.626007 0.00900509 0.
0.628007 0.00900497 0.
0.630008 0.0090048 0.
0.632009 0.00900463 0.
0.63401 0.00900443 0.
0.636012 0.00900414 0.
0.638013 0.00900386 0.
0.640015 0.00900349 0.
0.642016 0.00900305 0.
0.644018 0.0090026 0.
0.646019 0.00900255 0.
0.64802 0.00900262 0.
0.650021 0.00900267 0.
0.652023 0.00900206 0.
0.654026 0.00900145 0.
0.656029 0.00900014 0.
0.658036 0.00899656 0.
0.660042 0.00899298 0.
0.662055 0.00898548 0.
0.664076 0.00897345 0.
0.666096 0.00896145 0.
0.668129 0.00895389 0.
0.670168 0.00894818 0.
0.672207 0.00894248 0.
0.674343 0.00887752 0.
0.67648 0.00881135 0.
0.678661 0.00873917 0.
0.680958 0.00864366 0.
0.683248 0.00855011 0.
0.685842 0.00835902 0.
0.68849 0.00815176 0.
0.691414 0.00776201 0.
0.694548 0.00720845 0.
0.698109 0.00659885 0.
0.702112 0.00579538 0.
0.706547 0.00443184 0.
0.71124 0.00251054 0.
0.484104 0.00228135 0.
0.4892 0.00435401 0.
0.493812 0.00609716 0.
0.497956 0.00755888 0.
0.501881 0.00857662 0.
0.505441 0.00921048 0.
0.508531 0.00967064 0.
0.51139 0.01 0.
0.514056 0.0102306 0.
0.516665 0.0104582 0.
0.518972 0.0105682 0.
0.521286 0.010682 0.
0.523482 0.0107675 0.
0.525627 0.0108447 0.
0.527772 0.0109218 0.
0.529813 0.0109317 0.
0.531854 0.0109418 0.
0.533889 0.010953 0.
0.535912 0.0109668 0.
0.537935 0.0109808 0.
0.53995 0.0109896 0.
0.541958 0.0109941 0.
0.543966 0.0109986 0.
0.54597 0.0110005 0.
0.547973 0.0110017 0.
0.549976 0.0110028 0.
0.551977 0.0110029 0.
0.553979 0.011003 0.
0.55598 0.0110031 0.
0.557982 0.0110033 0.
0.559983 0.0110036 0.
0.561985 0.0110039 0.
0.563986 0.0110043 0.
0.565988 0.0110047 0.
0.567989 0.0110051 0.
0.569991 0.0110054 0.
0.571992 0.0110058 0.
0.573992 0.0110059 0.
0.575992 0.0110059 0.
0.577993 0.011006 0.
0.579993 0.0110062 0.
0.581994 0.0110064 0.
0.583995 0.0110066 0.
0.585995 0.0110069 0.
0.587995 0.0110072 0.
0.589996 0.0110073 0.
0.591996 0.0110071 0.
0.593996 0.0110069 0.
0.595997 0.0110069 0.
0.597999 0.0110068 0.
0.6 0.0110068 0.
0.602002 0.0110071 0.
0.604003 0.0110073 0.
0.606005 0.0110075 0.
0.608005 0.0110075 0.
0.610005 0.0110074 0.
0.612005 0.0110073 0.
0.614006 0.0110071 0.
0.616006 0.0110068 0.
0.618007 0.0110066 0.
0.620008 0.0110064 0.
0.622009 0.0110062 0.
0.624009 0.011006 0.
0.626009 0.0110058 0.
0.628009 0.0110055 0.
0.630011 0.0110052 0.
0.632012 0.0110049 0.
0.634014 0.0110046 0.
0.636015 0.0110042 0.
0.638017 0.0110039 0.
0.640019 0.0110035 0.
0.642021 0.011003 0.
0.644022 0.0110024 0.
0.646024 0.0110023 0.
0.648026 0.0110022 0.
0.650027 0.0110021 0.
0.652031 0.0110005 0.
0.654035 0.0109988 0.
0.656041 0.0109959 0.
0.658053 0.0109891 0.
0.660065 0.0109823 0.
0.662085 0.0109706 0.
0.664115 0.0109532 0.
0.666145 0.0109359 0.
0.668199 0.0109184 0.
0.670263 0.0109012 0.
0.672329 0.0108832 0.
0.674528 0.0107797 0.
0.676724 0.0106772 0.
0.678999 0.0105623 0.
0.681399 0.0104231 0.
0.683813 0.0102836 0.
0.686648 0.00999053 0.
0.689567 0.00967584 0.
0.69289 0.00902627 0.
0.696358 0.00827008 0.
0.700273 0.00743142 0.
0.704745 0.00609865 0.
0.709432 0.00446597 0.
0.714405 0.00233921 0.
0.4809 0.00217608 0.
0.486577 0.00438146 0.
0.491443 0.00627091 0.
0.495886 0.0080507 0.
0.500467 0.00952796 0.
0.504232 0.0103126 0.
0.507513 0.0108845 0.
0.510616 0.0113895 0.
0.513393 0.0117638 0.
0.516134 0.0121411 0.
0.518555 0.0123152 0.
0.520963 0.0124823 0.
0.523245 0.0126175 0.
0.525444 0.0127385 0.
0.527646 0.0128607 0.
0.529714 0.0128835 0.
0.53178 0.0129047 0.
0.533837 0.0129257 0.
0.535869 0.0129448 0.
0.537902 0.0129639 0.
0.539925 0.0129771 0.
0.541939 0.0129851 0.
0.543953 0.0129931 0.
0.54596 0.0129967 0.
0.547965 0.0129989 0.
0.54997 0.0130011 0.
0.551972 0.0130015 0.
0.553974 0.0130018 0.
0.555975 0.0130021 0.
0.557977 0.0130024 0.
0.559979 0.0130028 0.
0.561981 0.0130032 0.
0.563983 0.0130037 0.
0.565985 0.0130042 0.
0.567986 0.0130046 0.
0.569988 0.013005 0.
0.571989 0.0130053 0.
0.57399 0.0130056 0.
0.57599 0.0130059 0.
0.577991 0.0130061 0.
0.579992 0.0130064 0.
0.581993 0.0130066 0.
0.583993 0.0130069 0.
0.585994 0.0130072 0.
0.587995 0.0130075 0.
0.589995 0.0130076 0.
0.591996 0.0130074 0.
0.593996 0.0130072 0.
0.595997 0.0130072 0.
0.597999 0.0130072 0.
0.6 0.0130072 0.
0.602002 0.0130074 0.
0.604003 0.0130076 0.
0.606005 0.0130078 0.
0.608005 0.0130078 0.
0.610005 0.0130079 0.
0.612006 0.0130077 0.
0.614007 0.0130073 0.
0.616008 0.013007 0.
0.618009 0.0130067 0.
0.62001 0.0130065 0.
0.622011 0.0130063 0.
0.624011 0.0130059 0.
0.626012 0.0130055 0.
0.628013 0.0130051 0.
0.630014 0.0130046 0.
0.632016 0.0130042 0.
0.634017 0.0130037 0.
0.636019 0.0130035 0.
0.638021 0.0130032 0.
0.640023 0.0130027 0.
0.642025 0.013002 0.
0.644027 0.0130013 0.
0.64603 0.0130008 0.
0.648032 0.0130003 0.
0.650035 0.0129998 0.
0.652041 0.0129965 0.
0.654048 0.0129933 0.
0.656058 0.012988 0.
0.658078 0.0129762 0.
0.660098 0.0129644 0.
0.662129 0.0129475 0.
0.664171 0.0129249 0.
0.666213 0.0129023 0.
0.668299 0.0128664 0.
0.670399 0.0128274 0.
0.672508 0.0127841 0.
0.674774 0.0126304 0.
0.677034 0.0124793 0.
0.679436 0.0122922 0.
0.681967 0.0120756 0.
0.684578 0.0118102 0.
0.687521 0.0113217 0.
0.690639 0.0108037 0.
0.694108 0.0100738 0.
0.697925 0.00920078 0.
0.702314 0.008006 0.
0.706984 0.00633672 0.
0.71201 0.00450945 0.
0.717625 0.00217914 0.
0.477879 0.0021084 0.
0.483946 0.00441841 0.
0.489191 0.00637576 0.
0.493917 0.00838301 0.
0.498827 0.0101266 0.
0.50274 0.0111625 0.
0.506378 0.012006 0.
0.509724 0.0126961 0.
0.512698 0.0132555 0.
0.515555 0.0137817 0.
0.518117 0.0140525 0.
0.52062 0.0142743 0.
0.523001 0.0144627 0.
0.525257 0.0146284 0.
0.527516 0.0147967 0.
0.529614 0.0148344 0.
0.531705 0.014867 0.
0.533784 0.0148983 0.
0.535826 0.0149226 0.
0.537868 0.014947 0.
0.539899 0.0149646 0.
0.541919 0.014976 0.
0.54394 0.0149875 0.
0.54595 0.0149928 0.
0.547956 0.0149961 0.
0.549963 0.0149994 0.
0.551966 0.015 0.
0.553968 0.0150005 0.
0.555971 0.015001 0.
0.557973 0.0150015 0.
0.559975 0.015002 0.
0.561977 0.0150025 0.
0.563979 0.0150031 0.
0.565981 0.0150036 0.
0.567983 0.0150041 0.
0.569985 0.0150045 0.
0.571987 0.0150049 0.
0.573988 0.0150053 0.
0.575988 0.0150058 0.
0.577989 0.0150063 0.
0.57999 0.0150066 0.
0.581991 0.0150069 0.
0.583992 0.0150072 0.
0.585993 0.0150075 0.
0.587994 0.0150078 0.
0.589995 0.0150078 0.
0.591996 0.0150076 0.
0.593996 0.0150074 0.
0.595997 0.0150075 0.
0.597999 0.0150075 0.
0.6 0.0150076 0.
0.602002 0.0150078 0.
0.604003 0.0150079 0.
0.606005 0.0150081 0.
0.608005 0.0150082 0.
0.610006 0.0150083 0.
0.612007 0.0150081 0.
0.614008 0.0150076 0.
0.616009 0.0150071 0.
0.61801 0.0150068 0.
0.620012 0.0150066 0.
0.622013 0.0150063 0.
0.624014 0.0150058 0.
0.626015 0.0150053 0.
0.628016 0.0150047 0.
0.630017 0.0150041 0.
0.632019 0.0150034 0.
0.634021 0.0150029 0.
0.636023 0.0150027 0.
0.638025 0.0150025 0.
0.640027 0.0150019 0.
0.64203 0.015001 0.
0.644032 0.0150001 0.
0.646036 0.0149992 0.
0.648039 0.0149984 0.
0.650042 0.0149974 0.
0.652052 0.0149926 0.
0.654061 0.0149878 0.
0.656075 0.01498 0.
0.658103 0.0149632 0.
0.660132 0.0149464 0.
0.662173 0.0149244 0.
0.664227 0.0148964 0.
0.666281 0.0148685 0.
0.668401 0.0148129 0.
0.670538 0.0147515 0.
0.672695 0.0146809 0.
0.675028 0.014476 0.
0.677353 0.0142753 0.
0.679909 0.0140038 0.
0.682577 0.013707 0.
0.685397 0.0132641 0.
0.688434 0.0125846 0.
0.691804 0.0118286 0.
0.695437 0.0109524 0.
0.699432 0.00997334 0.
0.704282 0.0083845 0.
0.709202 0.00645988 0.
0.714684 0.00442961 0.
0.720833 0.0021227 0.
0.474969 0.0020454 0.
0.481372 0.00443487 0.
0.486945 0.00642978 0.
0.491841 0.00858884 0.
0.496881 0.0104288 0.
0.501159 0.0118822 0.
0.505171 0.0130388 0.
0.508732 0.013907 0.
0.511952 0.0146492 0.
0.51484 0.0152492 0.
0.517525 0.0156395 0.
0.520094 0.0159216 0.
0.522581 0.016183 0.
0.524889 0.016389 0.
0.527208 0.0166002 0.
0.529378 0.0166873 0.
0.531529 0.0167633 0.
0.533664 0.0168327 0.
0.535726 0.0168643 0.
0.537788 0.016896 0.
0.539837 0.0169224 0.
0.541872 0.0169438 0.
0.543907 0.0169654 0.
0.545926 0.0169766 0.
0.547938 0.0169842 0.
0.549951 0.0169918 0.
0.551955 0.0169941 0.
0.55396 0.0169963 0.
0.555964 0.0169983 0.
0.557967 0.0169995 0.
0.559971 0.0170006 0.
0.561973 0.0170016 0.
0.563976 0.0170023 0.
0.565978 0.017003 0.
0.56798 0.0170036 0.
0.569982 0.0170041 0.
0.571984 0.0170046 0.
0.573985 0.0170052 0.
0.575986 0.0170058 0.
0.577987 0.0170064 0.
0.579989 0.0170068 0.
0.58199 0.0170071 0.
0.583991 0.0170075 0.
0.585992 0.0170079 0.
0.587994 0.0170083 0.
0.589995 0.0170083 0.
0.591995 0.0170081 0.
0.593996 0.0170078 0.
0.595998 0.017008 0.
0.597999 0.0170084 0.
0.6 0.0170087 0.
0.602002 0.0170087 0.
0.604003 0.0170086 0.
0.606005 0.0170086 0.
0.608006 0.0170086 0.
0.610007 0.0170085 0.
0.612008 0.0170083 0.
0.614009 0.0170078 0.
0.61601 0.0170074 0.
0.618012 0.017007 0.
0.620013 0.0170066 0.
0.622015 0.0170063 0.
0.624016 0.0170057 0.
0.626017 0.017005 0.
0.628018 0.0170043 0.
0.63002 0.0170036 0.
0.632022 0.0170028 0.
0.634024 0.0170021 0.
0.636027 0.0170015 0.
0.638029 0.0170008 0.
0.640033 0.0169996 0.
0.642037 0.016998 0.
0.644041 0.0169964 0.
0.646046 0.0169934 0.
0.648053 0.01699 0.
0.650059 0.0169865 0.
0.652076 0.0169759 0.
0.654094 0.0169654 0.
0.656119 0.0169504 0.
0.658164 0.0169224 0.
0.66021 0.0168946 0.
0.662274 0.0168617 0.
0.664355 0.0168235 0.
0.666435 0.0167856 0.
0.668629 0.016676 0.
0.670839 0.0165578 0.
0.673081 0.0164252 0.
0.675467 0.0161763 0.
0.677838 0.0159369 0.
0.680531 0.0155703 0.
0.68328 0.0152055 0.
0.686267 0.0145743 0.
0.689392 0.0137531 0.
0.693011 0.012789 0.
0.696907 0.0117131 0.
0.701113 0.0105011 0.
0.70611 0.00865697 0.
0.711305 0.00656638 0.
0.71713 0.00442386 0.
0.723784 0.00209076 0.
0.471936 0.00196668 0.
0.478664 0.0044454 0.
0.484688 0.00642705 0.
0.489799 0.00867347 0.
0.494962 0.0106535 0.
0.499525 0.0124731 0.
0.503737 0.0138694 0.
0.507558 0.0149314 0.
0.51094 0.0158052 0.
0.513909 0.0165192 0.
0.516805 0.01712 0.
0.519467 0.0174973 0.
0.522101 0.0178693 0.
0.524482 0.0181257 0.
0.526874 0.0183879 0.
0.529125 0.0185287 0.
0.531341 0.0186517 0.
0.533539 0.0187654 0.
0.535622 0.0188047 0.
0.537707 0.0188442 0.
0.539775 0.0188795 0.
0.541825 0.0189111 0.
0.543875 0.018943 0.
0.545902 0.0189602 0.
0.54792 0.0189722 0.
0.549938 0.0189841 0.
0.551945 0.0189882 0.
0.553952 0.0189922 0.
0.555958 0.0189956 0.
0.557962 0.0189974 0.
0.559966 0.0189992 0.
0.561969 0.0190006 0.
0.563972 0.0190015 0.
0.565975 0.0190025 0.
0.567977 0.0190031 0.
0.56998 0.0190037 0.
0.571982 0.0190042 0.
0.573983 0.019005 0.
0.575984 0.0190059 0.
0.577986 0.0190066 0.
0.579987 0.019007 0.
0.581989 0.0190073 0.
0.58399 0.0190078 0.
0.585992 0.0190083 0.
0.587993 0.0190088 0.
0.589994 0.0190088 0.
0.591995 0.0190085 0.
0.593996 0.0190081 0.
0.595998 0.0190086 0.
0.597999 0.0190092 0.
0.6 0.0190098 0.
0.602002 0.0190096 0.
0.604003 0.0190094 0.
0.606005 0.0190092 0.
0.608006 0.019009 0.
0.610007 0.0190088 0.
0.612009 0.0190085 0.
0.61401 0.0190081 0.
0.616012 0.0190076 0.
0.618013 0.0190072 0.
0.620015 0.0190067 0.
0.622017 0.0190063 0.
0.624018 0.0190055 0.
0.626019 0.0190047 0.
0.62802 0.0190039 0.
0.630023 0.0190031 0.
0.632025 0.0190023 0.
0.634028 0.0190013 0.
0.636031 0.0190003 0.
0.638034 0.0189992 0.
0.640038 0.0189974 0.
0.642044 0.018995 0.
0.644049 0.0189926 0.
0.646057 0.0189875 0.
0.648066 0.0189816 0.
0.650076 0.0189754 0.
0.652102 0.0189591 0.
0.654127 0.0189429 0.
0.656163 0.0189203 0.
0.658226 0.0188809 0.
0.660289 0.0188417 0.
0.662378 0.0187975 0.
0.664488 0.0187484 0.
0.666597 0.0186995 0.
0.668876 0.0185257 0.
0.671168 0.0183445 0.
0.673509 0.018141 0.
0.675969 0.0178329 0.
0.678453 0.0175164 0.
0.681278 0.0170226 0.
0.684167 0.0165018 0.
0.687294 0.0156543 0.
0.690518 0.0147564 0.
0.694271 0.013677 0.
0.698473 0.0123596 0.
0.702963 0.0108051 0.
0.708095 0.00883651 0.
0.713466 0.00657696 0.
0.71969 0.00447959 0.
0.726776 0.00203169 0.
0.468471 0.0018017 0.
0.476033 0.00448635 0.
0.482458 0.00644529 0.
0.487837 0.00873013 0.
0.493084 0.0108435 0.
0.49778 0.0128327 0.
0.502146 0.0144861 0.
0.506215 0.0157663 0.
0.509745 0.0168387 0.
0.512926 0.0177282 0.
0.516033 0.0185385 0.
0.518826 0.019042 0.
0.521587 0.0195287 0.
0.524077 0.0198367 0.
0.526534 0.0201363 0.
0.528861 0.0203337 0.
0.531134 0.0205102 0.
0.533393 0.0206804 0.
0.535501 0.0207285 0.
0.537611 0.020777 0.
0.539701 0.0208228 0.
0.541766 0.0208667 0.
0.543831 0.0209109 0.
0.545868 0.0209362 0.
0.547894 0.0209542 0.
0.549921 0.0209722 0.
0.551931 0.0209789 0.
0.55394 0.0209853 0.
0.555949 0.0209909 0.
0.557955 0.0209937 0.
0.55996 0.0209965 0.
0.561965 0.0209986 0.
0.563968 0.0209998 0.
0.565972 0.021001 0.
0.567974 0.0210019 0.
0.569977 0.0210027 0.
0.57198 0.0210034 0.
0.573981 0.0210043 0.
0.575982 0.0210052 0.
0.577984 0.0210061 0.
0.579986 0.0210066 0.
0.581987 0.021007 0.
0.583989 0.0210075 0.
0.585991 0.021008 0.
0.587992 0.0210086 0.
0.589994 0.0210087 0.
0.591995 0.0210084 0.
0.593996 0.0210082 0.
0.595998 0.0210087 0.
0.597999 0.0210094 0.
0.6 0.0210102 0.
0.602002 0.0210098 0.
0.604004 0.0210095 0.
0.606005 0.0210092 0.
0.608007 0.0210089 0.
0.610008 0.0210086 0.
0.61201 0.0210082 0.
0.614011 0.0210077 0.
0.616013 0.0210072 0.
0.618015 0.0210067 0.
0.620017 0.0210062 0.
0.622019 0.0210057 0.
0.62402 0.0210048 0.
0.626021 0.0210039 0.
0.628023 0.0210029 0.
0.630026 0.0210019 0.
0.632028 0.0210008 0.
0.634032 0.0209996 0.
0.636035 0.020998 0.
0.638039 0.0209964 0.
0.640045 0.0209936 0.
0.642053 0.02099 0.
0.64406 0.0209863 0.
0.646072 0.0209782 0.
0.648085 0.020969 0.
0.650099 0.0209592 0.
0.652135 0.0209347 0.
0.654171 0.0209104 0.
0.656221 0.0208782 0.
0.658302 0.0208265 0.
0.660382 0.020775 0.
0.662501 0.0207138 0.
0.664644 0.0206464 0.
0.666789 0.0205791 0.
0.669142 0.0203377 0.
0.671502 0.0200966 0.
0.673935 0.0198252 0.
0.676468 0.0194667 0.
0.679099 0.0190597 0.
0.682039 0.0184402 0.
0.685131 0.0176869 0.
0.688391 0.01665 0.
0.691861 0.0155728 0.
0.695651 0.014423 0.
0.70005 0.0129145 0.
0.704795 0.0110029 0.
0.710073 0.00892891 0.
0.715607 0.00654694 0.
0.722295 0.00452138 0.
0.730331 0.00188989 0.
0.464381 0.00171367 0.
0.473449 0.00450469 0.
0.480263 0.00647401 0.
0.4859 0.00876448 0.
0.491269 0.0110074 0.
0.496112 0.0131166 0.
0.500608 0.01499 0.
0.504912 0.0165239 0.
0.508584 0.0177766 0.
0.512006 0.0188756 0.
0.515269 0.0198301 0.
0.518207 0.0204478 0.
0.521051 0.0209992 0.
0.523645 0.0213994 0.
0.526163 0.0217774 0.
0.528568 0.0220652 0.
0.530893 0.0223168 0.
0.533213 0.0225671 0.
0.535354 0.0226295 0.
0.537496 0.0226903 0.
0.539613 0.0227496 0.
0.541693 0.0228087 0.
0.543774 0.0228682 0.
0.545824 0.022904 0.
0.547861 0.0229298 0.
0.549898 0.0229557 0.
0.551912 0.022966 0.
0.553926 0.0229756 0.
0.555938 0.0229841 0.
0.557946 0.0229882 0.
0.559954 0.0229924 0.
0.56196 0.0229954 0.
0.563964 0.0229971 0.
0.565968 0.0229988 0.
0.567971 0.023 0.
0.569975 0.023001 0.
0.571978 0.023002 0.
0.573979 0.023003 0.
0.57598 0.023004 0.
0.577982 0.023005 0.
0.579984 0.0230055 0.
0.581986 0.0230061 0.
0.583988 0.0230066 0.
0.58599 0.0230072 0.
0.587992 0.0230077 0.
0.589993 0.0230079 0.
0.591995 0.0230079 0.
0.593996 0.0230079 0.
0.595998 0.0230084 0.
0.597999 0.0230091 0.
0.6 0.0230098 0.
0.602002 0.0230095 0.
0.604004 0.0230091 0.
0.606006 0.0230088 0.
0.608007 0.0230083 0.
0.610009 0.0230078 0.
0.612011 0.0230073 0.
0.614013 0.0230067 0.
0.616015 0.0230062 0.
0.618017 0.0230056 0.
0.620019 0.023005 0.
0.622021 0.0230045 0.
0.624022 0.0230035 0.
0.626023 0.0230024 0.
0.628025 0.0230014 0.
0.630028 0.023 0.
0.632032 0.0229986 0.
0.634036 0.0229969 0.
0.636041 0.0229946 0.
0.638046 0.0229923 0.
0.640054 0.0229883 0.
0.642064 0.0229829 0.
0.644074 0.0229775 0.
0.64609 0.0229655 0.
0.648109 0.022952 0.
0.650128 0.0229375 0.
0.652178 0.022902 0.
0.654228 0.0228667 0.
0.656293 0.0228224 0.
0.658394 0.0227567 0.
0.660494 0.0226914 0.
0.662652 0.0226012 0.
0.66484 0.0225 0.
0.667041 0.0223906 0.
0.669444 0.0220669 0.
0.671847 0.0217488 0.
0.674387 0.0213841 0.
0.677001 0.0209601 0.
0.679763 0.0204382 0.
0.682735 0.0197772 0.
0.686037 0.0187925 0.
0.689436 0.0175973 0.
0.693153 0.0163326 0.
0.697126 0.0149803 0.
0.701607 0.0133548 0.
0.706511 0.0111869 0.
0.711927 0.00902685 0.
0.717654 0.0065597 0.
0.72479 0.00457237 0.
0.734365 0.00180607 0.
0.459966 0.00187932 0.
0.471139 0.0045639 0.
0.478218 0.00656047 0.
0.484143 0.00882957 0.
0.489621 0.011166 0.
0.494543 0.01337 0.
0.499138 0.0153997 0.
0.503541 0.0171103 0.
0.50743 0.0186294 0.
0.511054 0.0198882 0.
0.51436 0.020913 0.
0.517495 0.0217422 0.
0.520454 0.0224129 0.
0.523194 0.0229432 0.
0.525777 0.0234027 0.
0.528267 0.0237865 0.
0.530644 0.0241143 0.
0.533022 0.0244463 0.
0.535204 0.0245295 0.
0.537378 0.0246028 0.
0.539524 0.0246757 0.
0.54162 0.0247501 0.
0.543716 0.024825 0.
0.545779 0.0248716 0.
0.547827 0.0249053 0.
0.549875 0.0249392 0.
0.551894 0.024953 0.
0.553912 0.0249659 0.
0.555928 0.0249773 0.
0.557937 0.0249828 0.
0.559947 0.0249882 0.
0.561955 0.0249923 0.
0.56396 0.0249944 0.
0.565964 0.0249966 0.
0.567968 0.0249981 0.
0.569972 0.0249994 0.
0.571975 0.0250006 0.
0.573977 0.0250017 0.
0.575978 0.0250028 0.
0.57798 0.0250038 0.
0.579982 0.0250045 0.
0.581984 0.0250052 0.
0.583987 0.0250058 0.
0.585989 0.0250063 0.
0.587991 0.0250069 0.
0.589993 0.0250072 0.
0.591994 0.0250074 0.
0.593996 0.0250076 0.
0.595997 0.0250082 0.
0.597999 0.0250088 0.
0.6 0.0250094 0.
0.602003 0.0250091 0.
0.604005 0.0250087 0.
0.606007 0.0250083 0.
0.608008 0.0250077 0.
0.61001 0.0250071 0.
0.612012 0.0250064 0.
0.614014 0.0250058 0.
0.616016 0.0250051 0.
0.618018 0.0250045 0.
0.62002 0.0250039 0.
0.622023 0.0250032 0.
0.624024 0.0250021 0.
0.626026 0.025001 0.
0.628027 0.0249998 0.
0.630031 0.0249981 0.
0.632035 0.0249963 0.
0.63404 0.0249942 0.
0.636046 0.0249912 0.
0.638052 0.0249883 0.
0.640062 0.0249829 0.
0.642075 0.0249757 0.
0.644088 0.0249686 0.
0.646109 0.0249527 0.
0.648132 0.024935 0.
0.650158 0.0249156 0.
0.652221 0.024869 0.
0.654285 0.0248227 0.
0.656367 0.0247661 0.
0.658487 0.0246864 0.
0.660607 0.0246073 0.
0.662807 0.0244851 0.
0.665041 0.0243493 0.
0.667301 0.0241919 0.
0.669754 0.0237854 0.
0.6722 0.0233895 0.
0.674871 0.0229224 0.
0.677587 0.0224181 0.
0.680542 0.0216904 0.
0.683598 0.0208866 0.
0.686984 0.0197546 0.
0.690549 0.0184552 0.
0.694412 0.0170435 0.
0.698616 0.0154405 0.
0.703179 0.0136415 0.
0.708225 0.0113439 0.
0.71373 0.00906516 0.
0.719665 0.00663643 0.
0.727146 0.00461417 0.
0.738739 0.00196759 0.
0.456991 0.00223037 0.
0.469017 0.00459234 0.
0.476424 0.00671788 0.
0.482584 0.00897375 0.
0.488075 0.0113283 0.
0.493051 0.0136303 0.
0.497715 0.0157272 0.
0.502178 0.017603 0.
0.506287 0.0193897 0.
0.509985 0.0207686 0.
0.513417 0.0219359 0.
0.516749 0.0230005 0.
0.519812 0.0237795 0.
0.522711 0.0244496 0.
0.525338 0.0249743 0.
0.527891 0.0254393 0.
0.530297 0.0258152 0.
0.532717 0.0261978 0.
0.534962 0.0263364 0.
0.537182 0.0264507 0.
0.539373 0.0265595 0.
0.541491 0.0266487 0.
0.543611 0.0267387 0.
0.545695 0.0268015 0.
0.547762 0.026851 0.
0.54983 0.026901 0.
0.551857 0.0269227 0.
0.553882 0.0269428 0.
0.555906 0.0269607 0.
0.55792 0.026969 0.
0.559934 0.0269773 0.
0.561945 0.0269838 0.
0.563952 0.0269878 0.
0.565959 0.0269919 0.
0.567964 0.0269946 0.
0.569968 0.0269966 0.
0.571973 0.0269987 0.
0.573975 0.0270001 0.
0.575976 0.0270014 0.
0.577978 0.0270026 0.
0.579981 0.0270033 0.
0.581983 0.027004 0.
0.583985 0.0270047 0.
0.585988 0.0270054 0.
0.58799 0.0270061 0.
0.589992 0.0270066 0.
0.591994 0.0270069 0.
0.593996 0.0270073 0.
0.595997 0.0270079 0.
0.597999 0.0270085 0.
0.6 0.0270092 0.
0.602003 0.0270087 0.
0.604005 0.0270082 0.
0.606007 0.0270077 0.
0.608009 0.027007 0.
0.61001 0.0270064 0.
0.612013 0.0270057 0.
0.614015 0.0270049 0.
0.616017 0.0270042 0.
0.61802 0.0270035 0.
0.620022 0.0270027 0.
0.622025 0.027002 0.
0.624027 0.0270005 0.
0.626028 0.026999 0.
0.628031 0.0269973 0.
0.630035 0.0269945 0.
0.63204 0.0269917 0.
0.634047 0.026988 0.
0.636056 0.0269825 0.
0.638065 0.026977 0.
0.640079 0.0269685 0.
0.642098 0.0269578 0.
0.644116 0.0269471 0.
0.646147 0.0269232 0.
0.648181 0.0268966 0.
0.650219 0.026867 0.
0.652304 0.0268008 0.
0.654388 0.0267354 0.
0.656499 0.0266594 0.
0.658652 0.0265618 0.
0.660803 0.0264655 0.
0.663054 0.0262933 0.
0.665335 0.0261075 0.
0.667663 0.0258794 0.
0.670146 0.0254195 0.
0.672618 0.0249757 0.
0.675404 0.0244248 0.
0.678235 0.023824 0.
0.681364 0.0228783 0.
0.684579 0.021873 0.
0.688038 0.0205763 0.
0.691703 0.0192056 0.
0.695683 0.0176645 0.
0.700041 0.015877 0.
0.704666 0.0138772 0.
0.709828 0.0115047 0.
0.715414 0.00911399 0.
0.721487 0.00680737 0.
0.729177 0.0046927 0.
0.741674 0.00229554 0.
0.455479 0.00272289 0.
0.467186 0.0047168 0.
0.474754 0.00693355 0.
0.48103 0.00913398 0.
0.486556 0.0114724 0.
0.491589 0.0138613 0.
0.496306 0.0160177 0.
0.500877 0.0180505 0.
0.505138 0.020049 0.
0.508861 0.0215541 0.
0.512452 0.0228897 0.
0.515934 0.0241502 0.
0.519072 0.0250321 0.
0.522066 0.025825 0.
0.524737 0.0264255 0.
0.527416 0.027025 0.
0.529888 0.0274633 0.
0.532367 0.027905 0.
0.534691 0.0281158 0.
0.536966 0.028282 0.
0.53921 0.0284375 0.
0.541354 0.0285427 0.
0.5435 0.0286488 0.
0.545609 0.028729 0.
0.547695 0.0287951 0.
0.549783 0.0288618 0.
0.55182 0.028892 0.
0.553853 0.0289194 0.
0.555883 0.0289439 0.
0.557902 0.0289551 0.
0.559921 0.0289663 0.
0.561936 0.0289753 0.
0.563945 0.0289812 0.
0.565954 0.0289872 0.
0.56796 0.0289911 0.
0.569965 0.0289939 0.
0.57197 0.0289968 0.
0.573972 0.0289984 0.
0.575974 0.0289999 0.
0.577976 0.0290014 0.
0.579979 0.0290021 0.
0.581982 0.0290028 0.
0.583984 0.0290035 0.
0.585987 0.0290044 0.
0.587989 0.0290053 0.
0.589992 0.0290059 0.
0.591994 0.0290064 0.
0.593996 0.0290069 0.
0.595997 0.0290076 0.
0.597999 0.0290083 0.
0.6 0.029009 0.
0.602003 0.0290084 0.
0.604005 0.0290077 0.
0.606007 0.0290071 0.
0.608009 0.0290064 0.
0.610011 0.0290057 0.
0.612014 0.0290049 0.
0.614016 0.0290041 0.
0.616019 0.0290032 0.
0.618021 0.0290024 0.
0.620024 0.0290016 0.
0.622027 0.0290008 0.
0.624029 0.0289989 0.
0.626031 0.0289969 0.
0.628034 0.0289947 0.
0.630039 0.0289909 0.
0.632045 0.0289871 0.
0.634053 0.0289818 0.
0.636065 0.0289738 0.
0.638077 0.0289657 0.
0.640097 0.028954 0.
0.642121 0.0289397 0.
0.644145 0.0289255 0.
0.646187 0.0288933 0.
0.648231 0.0288575 0.
0.650282 0.0288171 0.
0.65239 0.0287302 0.
0.654496 0.0286443 0.
0.656639 0.0285469 0.
0.658831 0.0284285 0.
0.66102 0.0283117 0.
0.663334 0.028076 0.
0.66567 0.0278298 0.
0.66809 0.0275092 0.
0.670646 0.0269722 0.
0.673237 0.0264279 0.
0.676078 0.0257753 0.
0.679002 0.0250573 0.
0.682223 0.0239803 0.
0.685611 0.0227703 0.
0.689116 0.0213504 0.
0.692907 0.0198628 0.
0.696976 0.0181942 0.
0.701432 0.0162655 0.
0.706098 0.0141065 0.
0.711293 0.0116953 0.
0.716902 0.00924285 0.
0.723105 0.00702338 0.
0.730889 0.00483585 0.
0.743149 0.00278373 0.
0.454736 0.00336338 0.
0.465641 0.00496044 0.
0.473223 0.00718627 0.
0.479547 0.00932395 0.
0.485095 0.0116328 0.
0.490196 0.014084 0.
0.494956 0.0163067 0.
0.499637 0.0184668 0.
0.503899 0.0205273 0.
0.507732 0.0222553 0.
0.511484 0.0237718 0.
0.515003 0.0251011 0.
0.518211 0.0261314 0.
0.521303 0.0270955 0.
0.524112 0.0278438 0.
0.526908 0.0285771 0.
0.529476 0.0290992 0.
0.532017 0.0295959 0.
0.534423 0.0298781 0.
0.536746 0.0300946 0.
0.539042 0.0303026 0.
0.541211 0.0304224 0.
0.543383 0.0305436 0.
0.545515 0.0306418 0.
0.54762 0.0307267 0.
0.549726 0.0308128 0.
0.551774 0.0308535 0.
0.553817 0.0308896 0.
0.555856 0.0309223 0.
0.55788 0.030937 0.
0.559904 0.0309518 0.
0.561923 0.030964 0.
0.563935 0.0309722 0.
0.565947 0.0309805 0.
0.567955 0.030986 0.
0.569961 0.0309901 0.
0.571967 0.0309942 0.
0.57397 0.0309962 0.
0.575972 0.030998 0.
0.577975 0.0309997 0.
0.579977 0.0310005 0.
0.58198 0.0310013 0.
0.583983 0.0310022 0.
0.585986 0.0310032 0.
0.587989 0.0310041 0.
0.589991 0.0310049 0.
0.591993 0.0310055 0.
0.593995 0.0310061 0.
0.595997 0.0310068 0.
0.597999 0.0310076 0.
0.6 0.0310084 0.
0.602003 0.0310076 0.
0.604005 0.0310068 0.
0.606007 0.0310061 0.
0.60801 0.0310053 0.
0.610012 0.0310046 0.
0.612014 0.0310038 0.
0.614017 0.0310029 0.
0.61602 0.031002 0.
0.618023 0.031001 0.
0.620026 0.031 0.
0.622029 0.0309989 0.
0.624032 0.0309966 0.
0.626035 0.0309941 0.
0.628038 0.0309913 0.
0.630045 0.030986 0.
0.632052 0.0309807 0.
0.634062 0.0309732 0.
0.636078 0.0309619 0.
0.638094 0.0309507 0.
0.640119 0.0309352 0.
0.642149 0.0309167 0.
0.644179 0.0308983 0.
0.646233 0.0308552 0.
0.64829 0.0308078 0.
0.650356 0.0307538 0.
0.652484 0.0306458 0.
0.654612 0.0305391 0.
0.656787 0.0304174 0.
0.659015 0.0302769 0.
0.66124 0.0301406 0.
0.663614 0.0298431 0.
0.666003 0.029537 0.
0.668523 0.029119 0.
0.671154 0.0285068 0.
0.673882 0.0278402 0.
0.676806 0.0270546 0.
0.679886 0.0261088 0.
0.68312 0.0249577 0.
0.686644 0.0236046 0.
0.69024 0.0220609 0.
0.694131 0.0204518 0.
0.698281 0.0186449 0.
0.702793 0.0165888 0.
0.707531 0.0143068 0.
0.712713 0.0118725 0.
0.718343 0.00941107 0.
0.724603 0.00728404 0.
0.73232 0.00509386 0.
0.743552 0.00345161 0.
0.454446 0.0041338 0.
0.464399 0.00534838 0.
0.47182 0.00748934 0.
0.478152 0.00956031 0.
0.483737 0.0118361 0.
0.488912 0.0143364 0.
0.49369 0.0166121 0.
0.498396 0.0188538 0.
0.502703 0.0209658 0.
0.506663 0.0229205 0.
0.510511 0.0245794 0.
0.514038 0.0259491 0.
0.51739 0.0271921 0.
0.520563 0.0283092 0.
0.523522 0.0292238 0.
0.526405 0.0300423 0.
0.529057 0.030631 0.
0.531644 0.031169 0.
0.534124 0.0315437 0.
0.536496 0.0318403 0.
0.538857 0.0321332 0.
0.541053 0.0322715 0.
0.543252 0.0324113 0.
0.54541 0.032532 0.
0.547532 0.0326408 0.
0.549656 0.0327513 0.
0.551718 0.0328055 0.
0.553773 0.0328525 0.
0.555824 0.0328953 0.
0.557853 0.0329144 0.
0.559883 0.0329336 0.
0.561907 0.0329495 0.
0.563922 0.0329606 0.
0.565938 0.0329718 0.
0.567948 0.0329794 0.
0.569956 0.0329852 0.
0.571963 0.0329909 0.
0.573967 0.0329934 0.
0.57597 0.0329955 0.
0.577973 0.0329975 0.
0.579976 0.0329986 0.
0.581979 0.0329996 0.
0.583982 0.0330006 0.
0.585985 0.0330016 0.
0.587988 0.0330027 0.
0.58999 0.0330035 0.
0.591992 0.0330043 0.
0.593995 0.033005 0.
0.595997 0.0330058 0.
0.597999 0.0330065 0.
0.600001 0.0330073 0.
0.602003 0.0330064 0.
0.604006 0.0330056 0.
0.606008 0.0330048 0.
0.60801 0.033004 0.
0.610013 0.0330031 0.
0.612015 0.0330023 0.
0.614018 0.0330014 0.
0.616021 0.0330005 0.
0.618024 0.0329992 0.
0.620027 0.0329979 0.
0.622031 0.0329965 0.
0.624035 0.0329936 0.
0.626039 0.0329905 0.
0.628043 0.0329869 0.
0.630052 0.0329796 0.
0.632061 0.0329722 0.
0.634074 0.0329621 0.
0.636095 0.0329468 0.
0.638115 0.0329317 0.
0.640146 0.0329116 0.
0.642183 0.0328882 0.
0.64422 0.0328648 0.
0.646289 0.0328072 0.
0.648361 0.0327443 0.
0.650444 0.0326726 0.
0.652594 0.0325407 0.
0.654742 0.0324105 0.
0.656952 0.0322495 0.
0.659215 0.0320637 0.
0.661483 0.0318781 0.
0.663922 0.0315103 0.
0.666359 0.0311447 0.
0.668964 0.0306294 0.
0.671628 0.0299771 0.
0.674489 0.029199 0.
0.677489 0.0283024 0.
0.680734 0.0271222 0.
0.684061 0.0258489 0.
0.687649 0.0243856 0.
0.691344 0.0227316 0.
0.695288 0.0210092 0.
0.699542 0.019067 0.
0.704133 0.0168754 0.
0.70889 0.0145171 0.
0.714061 0.0120572 0.
0.719717 0.00962295 0.
0.725976 0.00758831 0.
0.733528 0.00546177 0.
0.743579 0.0042729 0.
0.454785 0.00506233 0.
0.463519 0.00589462 0.
0.470632 0.00785885 0.
0.476934 0.00986914 0.
0.482526 0.0121054 0.
0.487702 0.0145995 0.
0.49248 0.0169281 0.
0.497214 0.019219 0.
0.501566 0.0213934 0.
0.505633 0.0235575 0.
0.509478 0.0252886 0.
0.513101 0.0267711 0.
0.516593 0.0282107 0.
0.519819 0.02943 0.
0.522867 0.0304651 0.
0.525789 0.0313652 0.
0.528573 0.0320948 0.
0.531237 0.0327132 0.
0.533813 0.0331966 0.
0.536238 0.0335753 0.
0.538664 0.0339582 0.
0.540893 0.0341192 0.
0.54312 0.0342778 0.
0.545304 0.0344208 0.
0.547444 0.0345539 0.
0.549585 0.0346888 0.
0.551661 0.0347572 0.
0.553728 0.0348151 0.
0.555791 0.0348682 0.
0.557826 0.0348917 0.
0.559862 0.0349153 0.
0.561891 0.034935 0.
0.56391 0.034949 0.
0.565929 0.0349631 0.
0.567941 0.0349728 0.
0.56995 0.0349802 0.
0.571959 0.0349876 0.
0.573964 0.0349906 0.
0.575968 0.034993 0.
0.577971 0.0349954 0.
0.579975 0.0349966 0.
0.581978 0.0349979 0.
0.583981 0.0349991 0.
0.585984 0.0350001 0.
0.587987 0.0350012 0.
0.58999 0.0350022 0.
0.591992 0.035003 0.
0.593994 0.0350039 0.
0.595996 0.0350047 0.
0.597998 0.0350054 0.
0.600001 0.0350061 0.
0.602003 0.0350052 0.
0.604006 0.0350043 0.
0.606009 0.0350034 0.
0.608011 0.0350026 0.
0.610013 0.0350017 0.
0.612016 0.0350008 0.
0.614019 0.0349999 0.
0.616022 0.0349989 0.
0.618025 0.0349975 0.
0.620029 0.0349958 0.
0.622033 0.034994 0.
0.624038 0.0349906 0.
0.626043 0.0349869 0.
0.628049 0.0349825 0.
0.630059 0.0349731 0.
0.63207 0.0349638 0.
0.634086 0.0349509 0.
0.636111 0.0349317 0.
0.638136 0.0349126 0.
0.640173 0.0348879 0.
0.642217 0.0348596 0.
0.644261 0.0348312 0.
0.646345 0.0347586 0.
0.648433 0.0346802 0.
0.650534 0.0345903 0.
0.652705 0.0344345 0.
0.654874 0.0342807 0.
0.65712 0.0340765 0.
0.659419 0.0338447 0.
0.661736 0.0336081 0.
0.664244 0.033165 0.
0.66674 0.0327293 0.
0.669465 0.0320843 0.
0.672205 0.0313453 0.
0.675156 0.0304258 0.
0.678186 0.0294652 0.
0.68157 0.0280898 0.
0.685003 0.0267031 0.
0.68862 0.0251246 0.
0.692402 0.0233699 0.
0.696431 0.0215101 0.
0.700723 0.0194804 0.
0.705361 0.0171785 0.
0.71014 0.0147641 0.
0.715282 0.0122868 0.
0.720914 0.00991606 0.
0.727137 0.0079703 0.
0.734342 0.00596689 0.
0.743125 0.00522468 0.
0.455389 0.00605593 0.
0.462953 0.00656547 0.
0.469699 0.00831324 0.
0.475889 0.0102464 0.
0.48145 0.0124415 0.
0.486618 0.0149046 0.
0.491401 0.0172928 0.
0.496129 0.0196098 0.
0.500515 0.0218385 0.
0.504639 0.0241471 0.
0.508478 0.0259592 0.
0.5122 0.027578 0.
0.515777 0.0291394 0.
0.519031 0.0304328 0.
0.522171 0.0316478 0.
0.52515 0.0326566 0.
0.52807 0.0335376 0.
0.530801 0.0342296 0.
0.533473 0.0348211 0.
0.53593 0.0352566 0.
0.538393 0.0357073 0.
0.540665 0.0359072 0.
0.542924 0.0360945 0.
0.545143 0.036268 0.
0.547305 0.0364228 0.
0.549471 0.0365796 0.
0.55157 0.0366705 0.
0.553657 0.0367495 0.
0.555739 0.036823 0.
0.557782 0.0368515 0.
0.559825 0.0368801 0.
0.561861 0.0369053 0.
0.563887 0.0369255 0.
0.565912 0.0369458 0.
0.567929 0.0369596 0.
0.569941 0.0369696 0.
0.571952 0.0369797 0.
0.573958 0.0369842 0.
0.575963 0.0369879 0.
0.577969 0.0369914 0.
0.579973 0.0369933 0.
0.581977 0.0369953 0.
0.58398 0.0369971 0.
0.585983 0.0369984 0.
0.587986 0.0369998 0.
0.589989 0.0370009 0.
0.591992 0.0370019 0.
0.593994 0.037003 0.
0.595996 0.0370036 0.
0.597998 0.0370041 0.
0.600001 0.0370047 0.
0.602003 0.0370038 0.
0.604006 0.037003 0.
0.606009 0.0370022 0.
0.608011 0.0370012 0.
0.610014 0.0370003 0.
0.612017 0.0369991 0.
0.61402 0.0369977 0.
0.616023 0.0369963 0.
0.618028 0.0369942 0.
0.620032 0.0369916 0.
0.622037 0.0369891 0.
0.624043 0.0369841 0.
0.62605 0.0369788 0.
0.628058 0.0369725 0.
0.630072 0.0369597 0.
0.632087 0.0369469 0.
0.634109 0.0369288 0.
0.636141 0.0369018 0.
0.638174 0.0368749 0.
0.640219 0.0368442 0.
0.642272 0.0368109 0.
0.644324 0.0367776 0.
0.646434 0.0366762 0.
0.648548 0.0365692 0.
0.650677 0.0364525 0.
0.652871 0.0362787 0.
0.655061 0.0361069 0.
0.657352 0.0358518 0.
0.659685 0.0355708 0.
0.662052 0.0352781 0.
0.664591 0.0347871 0.
0.667161 0.0342806 0.
0.669992 0.033513 0.
0.67283 0.0326623 0.
0.675884 0.0315615 0.
0.678989 0.0304387 0.
0.682391 0.029014 0.
0.685927 0.0275159 0.
0.689552 0.0258335 0.
0.693387 0.023994 0.
0.6975 0.0220062 0.
0.701857 0.0198783 0.
0.70647 0.0175192 0.
0.711246 0.0150761 0.
0.716335 0.0126011 0.
0.721914 0.0103054 0.
0.728039 0.00843803 0.
0.73486 0.00659248 0.
0.742556 0.00619007 0.
0.45601 0.00705573 0.
0.462652 0.00730647 0.
0.468991 0.00885368 0.
0.475037 0.0107164 0.
0.480531 0.0128523 0.
0.48567 0.0152798 0.
0.490435 0.0177 0.
0.495141 0.0200396 0.
0.499539 0.022307 0.
0.503647 0.0246593 0.
0.507509 0.0266067 0.
0.511326 0.0283746 0.
0.514921 0.0299704 0.
0.518226 0.0313874 0.
0.521439 0.0327762 0.
0.524493 0.0338898 0.
0.527529 0.0349138 0.
0.530276 0.0356406 0.
0.533018 0.0363207 0.
0.535528 0.0368411 0.
0.538046 0.0373829 0.
0.540388 0.0376555 0.
0.542693 0.0378873 0.
0.544961 0.0381033 0.
0.547153 0.0382818 0.
0.549348 0.0384627 0.
0.551474 0.0385787 0.
0.553582 0.0386809 0.
0.555686 0.0387769 0.
0.557736 0.0388106 0.
0.559787 0.0388443 0.
0.561831 0.0388752 0.
0.563863 0.0389017 0.
0.565896 0.0389284 0.
0.567917 0.0389463 0.
0.569931 0.038959 0.
0.571945 0.0389718 0.
0.573953 0.0389778 0.
0.575959 0.0389827 0.
0.577966 0.0389874 0.
0.57997 0.0389901 0.
0.581975 0.0389927 0.
0.583979 0.0389951 0.
0.585983 0.0389967 0.
0.587986 0.0389983 0.
0.589989 0.0389997 0.
0.591991 0.0390008 0.
0.593994 0.039002 0.
0.595996 0.0390025 0.
0.597999 0.0390029 0.
0.600001 0.0390032 0.
0.602003 0.0390025 0.
0.604006 0.0390017 0.
0.606009 0.0390009 0.
0.608011 0.0389999 0.
0.610014 0.0389988 0.
0.612017 0.0389974 0.
0.614021 0.0389956 0.
0.616025 0.0389937 0.
0.61803 0.0389908 0.
0.620035 0.0389875 0.
0.622041 0.0389841 0.
0.624049 0.0389776 0.
0.626057 0.0389707 0.
0.628067 0.0389626 0.
0.630086 0.0389462 0.
0.632104 0.0389299 0.
0.634131 0.0389065 0.
0.636172 0.0388714 0.
0.638213 0.0388365 0.
0.640266 0.0387996 0.
0.642328 0.0387611 0.
0.644389 0.0387227 0.
0.646529 0.0385889 0.
0.648672 0.0384497 0.
0.650833 0.0383031 0.
0.653057 0.0381077 0.
0.655276 0.0379147 0.
0.657635 0.0375905 0.
0.660029 0.0372443 0.
0.662484 0.0368578 0.
0.665078 0.0362719 0.
0.667702 0.0356763 0.
0.670548 0.0348781 0.
0.67349 0.0338987 0.
0.676619 0.0326451 0.
0.679832 0.0313405 0.
0.683227 0.0298687 0.
0.686798 0.0282974 0.
0.690466 0.0265079 0.
0.694321 0.0246067 0.
0.698494 0.0225069 0.
0.702873 0.0202958 0.
0.707471 0.0179028 0.
0.712227 0.0154472 0.
0.717253 0.0129939 0.
0.722748 0.0107745 0.
0.72874 0.00898186 0.
0.735173 0.00730551 0.
0.741996 0.00717665 0.
0.456538 0.00804176 0.
0.462487 0.00811436 0.
0.468491 0.00947985 0.
0.474339 0.0112642 0.
0.479741 0.0133308 0.
0.484817 0.0157093 0.
0.489569 0.018151 0.
0.494245 0.0205062 0.
0.498586 0.0227841 0.
0.502678 0.0251494 0.
0.506576 0.0272351 0.
0.510457 0.0291318 0.
0.514033 0.0307401 0.
0.517424 0.0323111 0.
0.520693 0.0338264 0.
0.523822 0.0350414 0.
0.526863 0.0361362 0.
0.529703 0.0369864 0.
0.532527 0.0377811 0.
0.53512 0.0384096 0.
0.537693 0.0390417 0.
0.540111 0.0393958 0.
0.542463 0.0396713 0.
0.544782 0.0399324 0.
0.546999 0.0401298 0.
0.549222 0.0403319 0.
0.551374 0.0404741 0.
0.553502 0.040602 0.
0.555627 0.0407247 0.
0.557686 0.0407635 0.
0.559745 0.0408024 0.
0.561796 0.0408391 0.
0.563835 0.0408727 0.
0.565874 0.0409065 0.
0.5679 0.0409293 0.
0.569918 0.0409455 0.
0.571936 0.0409617 0.
0.573946 0.0409696 0.
0.575954 0.0409761 0.
0.577962 0.0409824 0.
0.579967 0.0409858 0.
0.581973 0.0409893 0.
0.583978 0.0409923 0.
0.585981 0.0409943 0.
0.587985 0.0409963 0.
0.589988 0.040998 0.
0.591991 0.0409993 0.
0.593994 0.0410006 0.
0.595996 0.0410011 0.
0.597998 0.0410014 0.
0.600001 0.0410017 0.
0.602004 0.0410009 0.
0.604006 0.0410002 0.
0.606009 0.0409993 0.
0.608012 0.0409981 0.
0.610015 0.0409969 0.
0.612018 0.0409951 0.
0.614023 0.0409927 0.
0.616027 0.0409902 0.
0.618033 0.0409865 0.
0.620039 0.0409822 0.
0.622046 0.0409779 0.
0.624056 0.0409693 0.
0.626067 0.0409603 0.
0.628079 0.0409497 0.
0.630103 0.0409289 0.
0.632126 0.0409081 0.
0.634159 0.0408787 0.
0.636208 0.0408356 0.
0.638256 0.0407926 0.
0.64032 0.040748 0.
0.642392 0.040702 0.
0.644463 0.0406564 0.
0.646629 0.0404878 0.
0.648798 0.0403164 0.
0.65099 0.0401411 0.
0.653241 0.0399298 0.
0.655488 0.0397184 0.
0.657922 0.0393179 0.
0.660377 0.0389066 0.
0.662928 0.0384164 0.
0.665584 0.0377309 0.
0.668311 0.0369942 0.
0.671201 0.0360991 0.
0.67418 0.0350151 0.
0.677341 0.0336815 0.
0.680657 0.0322226 0.
0.684072 0.0306821 0.
0.68765 0.029043 0.
0.691359 0.0271571 0.
0.695248 0.0251755 0.
0.699455 0.0229989 0.
0.703818 0.0207276 0.
0.708388 0.0183213 0.
0.713102 0.0158716 0.
0.71808 0.0134476 0.
0.723443 0.011315 0.
0.729273 0.00958935 0.
0.735367 0.0080768 0.
0.741519 0.00813747 0.
0.457003 0.00908323 0.
0.462468 0.00898597 0.
0.468156 0.0101781 0.
0.473769 0.0118791 0.
0.47906 0.0138678 0.
0.484053 0.0161951 0.
0.488774 0.0186441 0.
0.493387 0.0209946 0.
0.497668 0.0232768 0.
0.501761 0.0256554 0.
0.50569 0.0278523 0.
0.509551 0.0298151 0.
0.51317 0.0315055 0.
0.516667 0.0332255 0.
0.519967 0.0347946 0.
0.523131 0.0361163 0.
0.526213 0.0373293 0.
0.529152 0.0383129 0.
0.532051 0.0392079 0.
0.534728 0.039929 0.
0.537321 0.0406073 0.
0.539803 0.0410505 0.
0.542198 0.0413782 0.
0.54457 0.0416972 0.
0.546822 0.0419275 0.
0.549082 0.0421637 0.
0.551264 0.042343 0.
0.553413 0.0425055 0.
0.555559 0.0426637 0.
0.557627 0.042708 0.
0.559696 0.0427526 0.
0.561756 0.0427956 0.
0.563802 0.0428375 0.
0.565848 0.0428795 0.
0.56788 0.0429083 0.
0.569902 0.0429287 0.
0.571925 0.0429492 0.
0.573936 0.0429594 0.
0.575947 0.042968 0.
0.577957 0.0429762 0.
0.579963 0.0429806 0.
0.58197 0.042985 0.
0.583976 0.0429887 0.
0.58598 0.0429913 0.
0.587984 0.0429938 0.
0.589987 0.0429958 0.
0.59199 0.0429973 0.
0.593993 0.0429987 0.
0.595996 0.0429994 0.
0.597998 0.0429997 0.
0.600001 0.0430001 0.
0.602004 0.0429993 0.
0.604007 0.0429984 0.
0.606009 0.0429974 0.
0.608013 0.0429959 0.
0.610016 0.0429944 0.
0.61202 0.0429921 0.
0.614025 0.042989 0.
0.61603 0.0429858 0.
0.618037 0.0429811 0.
0.620045 0.0429757 0.
0.622053 0.0429703 0.
0.624066 0.0429592 0.
0.626079 0.0429475 0.
0.628094 0.0429337 0.
0.630123 0.0429072 0.
0.632152 0.0428809 0.
0.634192 0.0428447 0.
0.636249 0.0427932 0.
0.638305 0.0427419 0.
0.640382 0.0426862 0.
0.642469 0.042628 0.
0.644556 0.0425686 0.
0.646744 0.0423592 0.
0.648931 0.0421483 0.
0.651167 0.0419244 0.
0.653476 0.041662 0.
0.655774 0.0414075 0.
0.658251 0.0409523 0.
0.660737 0.0404969 0.
0.663359 0.0399194 0.
0.666071 0.0391597 0.
0.668898 0.0382905 0.
0.671833 0.0373038 0.
0.674899 0.0360383 0.
0.678047 0.034664 0.
0.681434 0.0330981 0.
0.684887 0.0315006 0.
0.688475 0.0297786 0.
0.692226 0.0277959 0.
0.69616 0.0257233 0.
0.700358 0.0235068 0.
0.704699 0.02119 0.
0.709241 0.0187741 0.
0.713918 0.0163401 0.
0.718818 0.0139656 0.
0.724035 0.0119255 0.
0.729655 0.0102721 0.
0.735452 0.00891161 0.
0.741101 0.00912023 0.
0.457483 0.0101308 0.
0.462605 0.00990905 0.
0.467997 0.0109614 0.
0.473369 0.0125739 0.
0.478513 0.014481 0.
0.483413 0.016755 0.
0.488068 0.0191841 0.
0.4926 0.0215179 0.
0.496847 0.0238169 0.
0.500919 0.0261977 0.
0.504837 0.0284595 0.
0.508692 0.0304805 0.
0.512366 0.0322685 0.
0.515915 0.034085 0.
0.519225 0.0356925 0.
0.522452 0.0371747 0.
0.525569 0.0384888 0.
0.52859 0.0395871 0.
0.531502 0.0405287 0.
0.534242 0.0413453 0.
0.536892 0.0421126 0.
0.539464 0.0426773 0.
0.541914 0.0430691 0.
0.544352 0.0434581 0.
0.54664 0.0437222 0.
0.548938 0.0439928 0.
0.551153 0.0442099 0.
0.553322 0.0444072 0.
0.555491 0.0446019 0.
0.557568 0.0446525 0.
0.559646 0.0447026 0.
0.561716 0.044752 0.
0.563769 0.0448021 0.
0.565822 0.0448524 0.
0.567859 0.0448872 0.
0.569886 0.0449119 0.
0.571913 0.0449367 0.
0.573927 0.0449493 0.
0.57594 0.0449599 0.
0.577951 0.04497 0.
0.579959 0.0449753 0.
0.581967 0.0449806 0.
0.583974 0.0449852 0.
0.585978 0.0449882 0.
0.587983 0.0449913 0.
0.589987 0.0449936 0.
0.59199 0.0449952 0.
0.593993 0.0449969 0.
0.595996 0.0449976 0.
0.597998 0.0449981 0.
0.600001 0.0449986 0.
0.602004 0.0449976 0.
0.604007 0.0449967 0.
0.60601 0.0449955 0.
0.608013 0.0449937 0.
0.610017 0.0449918 0.
0.612021 0.0449891 0.
0.614027 0.0449853 0.
0.616032 0.0449815 0.
0.618041 0.0449758 0.
0.620051 0.0449692 0.
0.62206 0.0449627 0.
0.624075 0.044949 0.
0.626091 0.0449346 0.
0.628109 0.0449177 0.
0.630144 0.0448856 0.
0.632179 0.0448536 0.
0.634225 0.0448105 0.
0.63629 0.0447507 0.
0.638355 0.0446911 0.
0.640445 0.0446239 0.
0.642547 0.0445535 0.
0.644651 0.0444789 0.
0.646859 0.0442283 0.
0.649067 0.0439777 0.
0.651352 0.043702 0.
0.653723 0.0433861 0.
0.65609 0.04307 0.
0.658616 0.0425476 0.
0.661144 0.0420326 0.
0.66386 0.0413372 0.
0.666594 0.0405173 0.
0.669493 0.0395475 0.
0.672465 0.03848 0.
0.675605 0.0370404 0.
0.678791 0.0355639 0.
0.682183 0.0339611 0.
0.685676 0.0323099 0.
0.689256 0.030501 0.
0.693041 0.028433 0.
0.697004 0.0262927 0.
0.701184 0.0240468 0.
0.705477 0.0217142 0.
0.709978 0.0192921 0.
0.714619 0.0168772 0.
0.719412 0.0145675 0.
0.724488 0.0126153 0.
0.729857 0.0110443 0.
0.735343 0.00981387 0.
0.740631 0.0101383 0.
0.458021 0.0111928 0.
0.462876 0.0108815 0.
0.467969 0.0118221 0.
0.473119 0.0133445 0.
0.478105 0.015176 0.
0.482893 0.0173943 0.
0.487466 0.0197848 0.
0.491908 0.0220986 0.
0.49612 0.0244092 0.
0.500179 0.026792 0.
0.504079 0.0290934 0.
0.507913 0.0311693 0.
0.511607 0.0330361 0.
0.515178 0.0348942 0.
0.518514 0.0365844 0.
0.521791 0.0382088 0.
0.524932 0.0395887 0.
0.527976 0.0407756 0.
0.530908 0.0417999 0.
0.533742 0.0427413 0.
0.536447 0.0435951 0.
0.539113 0.0442901 0.
0.541612 0.0447424 0.
0.544096 0.0451857 0.
0.546415 0.0454767 0.
0.548739 0.0457798 0.
0.550986 0.0460364 0.
0.553172 0.0462609 0.
0.555361 0.0464833 0.
0.557464 0.0465548 0.
0.559567 0.0466242 0.
0.561658 0.0466904 0.
0.563718 0.0467489 0.
0.565779 0.0468076 0.
0.567824 0.0468502 0.
0.569859 0.0468821 0.
0.571893 0.046914 0.
0.573912 0.046931 0.
0.575927 0.0469455 0.
0.577942 0.0469593 0.
0.579952 0.0469662 0.
0.581961 0.0469731 0.
0.58397 0.0469791 0.
0.585975 0.0469832 0.
0.587981 0.0469873 0.
0.589985 0.0469903 0.
0.591989 0.0469925 0.
0.593993 0.0469947 0.
0.595996 0.0469957 0.
0.597998 0.0469964 0.
0.600001 0.046997 0.
0.602004 0.0469957 0.
0.604007 0.0469944 0.
0.606011 0.0469928 0.
0.608015 0.0469903 0.
0.610019 0.0469878 0.
0.612024 0.046984 0.
0.614031 0.0469789 0.
0.616038 0.0469737 0.
0.618049 0.0469663 0.
0.620061 0.0469578 0.
0.622073 0.0469494 0.
0.624092 0.0469313 0.
0.626111 0.0469123 0.
0.628135 0.0468898 0.
0.630179 0.0468483 0.
0.632223 0.0468069 0.
0.63428 0.0467545 0.
0.636354 0.046686 0.
0.638428 0.0466177 0.
0.640547 0.046527 0.
0.642681 0.0464302 0.
0.644819 0.0463262 0.
0.647043 0.0460491 0.
0.649263 0.0457714 0.
0.651586 0.0454425 0.
0.653997 0.0450796 0.
0.656425 0.0447112 0.
0.658993 0.0441312 0.
0.661576 0.043549 0.
0.664374 0.042735 0.
0.667169 0.0418248 0.
0.670121 0.0407228 0.
0.673116 0.0395813 0.
0.676297 0.0380218 0.
0.679513 0.0364578 0.
0.682892 0.0348189 0.
0.686414 0.0331128 0.
0.690008 0.0312201 0.
0.693792 0.0290902 0.
0.697743 0.0269088 0.
0.701895 0.0246432 0.
0.706143 0.0223031 0.
0.710583 0.0198882 0.
0.715173 0.0174985 0.
0.719858 0.015257 0.
0.724789 0.0133816 0.
0.729907 0.0118957 0.
0.735078 0.0107758 0.
0.740087 0.01113 0.
0.458598 0.0122396 0.
0.463211 0.0118885 0.
0.468049 0.0127526 0.
0.472982 0.0141856 0.
0.477813 0.015946 0.
0.482474 0.0181066 0.
0.486973 0.020457 0.
0.491333 0.0227507 0.
0.495514 0.0250654 0.
0.49953 0.0274416 0.
0.503407 0.0297702 0.
0.507205 0.0318889 0.
0.510905 0.0338175 0.
0.514467 0.035687 0.
0.517823 0.0374703 0.
0.521128 0.0391909 0.
0.524271 0.0406283 0.
0.527353 0.0419429 0.
0.530321 0.0430467 0.
0.533242 0.0441045 0.
0.535984 0.0450164 0.
0.538683 0.0457979 0.
0.541211 0.0463 0.
0.543753 0.0468176 0.
0.546129 0.0471719 0.
0.548492 0.0475318 0.
0.550786 0.0478439 0.
0.552999 0.048098 0.
0.555216 0.048351 0.
0.55735 0.0484486 0.
0.559482 0.0485411 0.
0.561597 0.0486272 0.
0.563667 0.0486943 0.
0.565736 0.0487617 0.
0.567789 0.0488125 0.
0.569831 0.0488517 0.
0.571873 0.0488911 0.
0.573896 0.0489126 0.
0.575915 0.048931 0.
0.577933 0.0489485 0.
0.579944 0.0489571 0.
0.581956 0.0489656 0.
0.583966 0.0489731 0.
0.585972 0.0489781 0.
0.587979 0.0489832 0.
0.589984 0.048987 0.
0.591988 0.0489898 0.
0.593992 0.0489925 0.
0.595995 0.0489938 0.
0.597998 0.0489946 0.
0.600001 0.0489955 0.
0.602005 0.0489939 0.
0.604008 0.0489922 0.
0.606011 0.0489902 0.
0.608016 0.0489869 0.
0.610021 0.0489837 0.
0.612027 0.048979 0.
0.614036 0.0489724 0.
0.616044 0.0489658 0.
0.618057 0.0489567 0.
0.620071 0.0489463 0.
0.622085 0.048936 0.
0.624108 0.0489133 0.
0.626132 0.0488897 0.
0.628161 0.0488615 0.
0.630215 0.0488101 0.
0.63227 0.048759 0.
0.634336 0.0486969 0.
0.636421 0.0486189 0.
0.638504 0.0485414 0.
0.640659 0.0484224 0.
0.642833 0.0482938 0.
0.645012 0.0481546 0.
0.647266 0.047848 0.
0.649514 0.0475415 0.
0.651881 0.047135 0.
0.654317 0.0466942 0.
0.656798 0.0462442 0.
0.659411 0.0456276 0.
0.66204 0.0450006 0.
0.664891 0.044104 0.
0.667759 0.043082 0.
0.67076 0.0418589 0.
0.6738 0.040578 0.
0.676967 0.0389898 0.
0.680218 0.0373574 0.
0.683587 0.0356669 0.
0.687098 0.0339104 0.
0.690701 0.0319564 0.
0.694481 0.0297765 0.
0.698389 0.0275742 0.
0.702493 0.0252999 0.
0.7067 0.022959 0.
0.711056 0.020564 0.
0.715586 0.0182037 0.
0.720175 0.0160263 0.
0.724953 0.0142181 0.
0.729861 0.0128115 0.
0.73473 0.0117815 0.
0.739459 0.0121325 0.
0.459184 0.0132897 0.
0.463603 0.0129351 0.
0.468219 0.013735 0.
0.472943 0.0150904 0.
0.477615 0.016782 0.
0.48215 0.0188882 0.
0.486557 0.0211921 0.
0.490853 0.0234639 0.
0.494993 0.0257735 0.
0.498949 0.02814 0.
0.502802 0.0304845 0.
0.506565 0.0326316 0.
0.510251 0.034606 0.
0.513778 0.036492 0.
0.517169 0.0383575 0.
0.520464 0.0401258 0.
0.523619 0.0416496 0.
0.526726 0.043076 0.
0.529734 0.0442647 0.
0.53268 0.0453766 0.
0.535433 0.0463324 0.
0.538183 0.0472306 0.
0.540789 0.0478371 0.
0.543398 0.0484363 0.
0.545842 0.0488578 0.
0.548244 0.0492742 0.
0.550588 0.0496473 0.
0.552828 0.0499287 0.
0.555071 0.0502052 0.
0.557235 0.0503297 0.
0.559392 0.050448 0.
0.56153 0.0505581 0.
0.563608 0.0506332 0.
0.565687 0.0507086 0.
0.567749 0.0507679 0.
0.569799 0.0508156 0.
0.571849 0.0508637 0.
0.573876 0.0508906 0.
0.575899 0.0509136 0.
0.577921 0.0509356 0.
0.579934 0.0509459 0.
0.581948 0.0509562 0.
0.58396 0.0509653 0.
0.585968 0.0509717 0.
0.587976 0.0509781 0.
0.589982 0.0509829 0.
0.591987 0.0509863 0.
0.593991 0.0509898 0.
0.595995 0.0509913 0.
0.597998 0.0509923 0.
0.600001 0.0509933 0.
0.602005 0.0509913 0.
0.604009 0.0509893 0.
0.606013 0.0509869 0.
0.608018 0.0509827 0.
0.610024 0.0509786 0.
0.612031 0.0509725 0.
0.614042 0.0509642 0.
0.616052 0.0509559 0.
0.618067 0.0509448 0.
0.620084 0.0509324 0.
0.622101 0.05092 0.
0.624129 0.050892 0.
0.626157 0.0508628 0.
0.628192 0.0508278 0.
0.630257 0.050765 0.
0.632322 0.0507028 0.
0.634399 0.0506309 0.
0.636493 0.0505449 0.
0.638586 0.0504592 0.
0.640774 0.0503069 0.
0.642984 0.0501448 0.
0.645203 0.0499737 0.
0.647487 0.0496425 0.
0.649764 0.0493086 0.
0.652176 0.0488142 0.
0.654636 0.0482959 0.
0.657187 0.0477618 0.
0.659868 0.0470806 0.
0.662589 0.0463442 0.
0.665445 0.0453857 0.
0.668349 0.0442884 0.
0.671394 0.0429706 0.
0.674479 0.0415521 0.
0.677636 0.039928 0.
0.680887 0.0382561 0.
0.684253 0.0365288 0.
0.687756 0.0347083 0.
0.69134 0.0327109 0.
0.69509 0.0304977 0.
0.698973 0.0282747 0.
0.703014 0.026007 0.
0.70718 0.0236679 0.
0.711447 0.0213025 0.
0.715885 0.018981 0.
0.720387 0.0168625 0.
0.725007 0.0151257 0.
0.729721 0.0137905 0.
0.73436 0.0128364 0.
0.738819 0.0131286 0.
0.459795 0.0143423 0.
0.464034 0.0140109 0.
0.468451 0.0147666 0.
0.472977 0.0160463 0.
0.477482 0.0176788 0.
0.481898 0.0197315 0.
0.486217 0.0219832 0.
0.490451 0.0242333 0.
0.494533 0.0265346 0.
0.49844 0.0288902 0.
0.50225 0.0312357 0.
0.505975 0.0334014 0.
0.509625 0.0354036 0.
0.513144 0.0373178 0.
0.516544 0.0392513 0.
0.519803 0.0410369 0.
0.522983 0.0426651 0.
0.526103 0.0441757 0.
0.529122 0.0454226 0.
0.532082 0.0465881 0.
0.534895 0.0476341 0.
0.537694 0.0486375 0.
0.540374 0.0493539 0.
0.543036 0.0500112 0.
0.545532 0.0504887 0.
0.547957 0.0509485 0.
0.550342 0.0513796 0.
0.552626 0.0516911 0.
0.554927 0.0520068 0.
0.55712 0.0521735 0.
0.55929 0.052332 0.
0.561444 0.0524779 0.
0.563535 0.0525613 0.
0.565627 0.052645 0.
0.567701 0.052714 0.
0.56976 0.0527724 0.
0.57182 0.0528311 0.
0.573852 0.0528646 0.
0.575879 0.0528931 0.
0.577905 0.0529203 0.
0.579921 0.0529325 0.
0.581938 0.0529448 0.
0.583952 0.0529557 0.
0.585962 0.0529637 0.
0.587972 0.0529718 0.
0.589979 0.0529778 0.
0.591984 0.0529821 0.
0.59399 0.0529865 0.
0.595994 0.0529883 0.
0.597998 0.0529893 0.
0.600001 0.0529904 0.
0.602006 0.0529881 0.
0.60401 0.0529859 0.
0.606015 0.0529829 0.
0.608022 0.0529776 0.
0.610028 0.0529723 0.
0.612037 0.0529647 0.
0.61405 0.0529542 0.
0.616062 0.0529438 0.
0.61808 0.0529305 0.
0.6201 0.0529159 0.
0.62212 0.0529013 0.
0.624154 0.0528667 0.
0.626188 0.0528307 0.
0.62823 0.0527873 0.
0.630307 0.0527104 0.
0.632383 0.0526341 0.
0.634473 0.0525513 0.
0.636581 0.0524577 0.
0.638687 0.0523644 0.
0.6409 0.0521595 0.
0.64313 0.0519421 0.
0.645381 0.0517201 0.
0.647709 0.0513655 0.
0.650022 0.0510144 0.
0.652479 0.0504461 0.
0.654944 0.0498695 0.
0.657571 0.0492605 0.
0.660318 0.0485236 0.
0.663126 0.0476679 0.
0.666013 0.0466091 0.
0.668958 0.045407 0.
0.672003 0.0440589 0.
0.675126 0.0425328 0.
0.678284 0.0408607 0.
0.681534 0.0391525 0.
0.684882 0.0374055 0.
0.688364 0.0355294 0.
0.691935 0.0334799 0.
0.695654 0.0312513 0.
0.699504 0.0290161 0.
0.703476 0.0267604 0.
0.707582 0.0244322 0.
0.711783 0.0220955 0.
0.716106 0.0198201 0.
0.720515 0.0177614 0.
0.724994 0.0160871 0.
0.729502 0.0148225 0.
0.733939 0.0139456 0.
0.738182 0.0141578 0.
0.460468 0.0153652 0.
0.464546 0.0151235 0.
0.468781 0.0158498 0.
0.473116 0.0170681 0.
0.477466 0.0186541 0.
0.481766 0.0206563 0.
0.485991 0.0228502 0.
0.490152 0.0250782 0.
0.494151 0.0273599 0.
0.498011 0.0296994 0.
0.50177 0.0320354 0.
0.505452 0.0342144 0.
0.509061 0.0362352 0.
0.512554 0.0381625 0.
0.515934 0.0401333 0.
0.51918 0.041959 0.
0.522372 0.0436764 0.
0.525485 0.0452198 0.
0.528518 0.0465538 0.
0.531487 0.0477887 0.
0.534354 0.0489118 0.
0.53718 0.0499743 0.
0.539899 0.0507755 0.
0.542581 0.0514996 0.
0.545153 0.0520703 0.
0.547627 0.0525902 0.
0.550073 0.0530986 0.
0.552414 0.0534494 0.
0.554776 0.0538056 0.
0.557003 0.0540145 0.
0.559188 0.0542134 0.
0.561358 0.0543976 0.
0.563462 0.0544892 0.
0.565567 0.0545813 0.
0.567653 0.05466 0.
0.569721 0.0547289 0.
0.57179 0.0547983 0.
0.573828 0.0548384 0.
0.575859 0.0548724 0.
0.57789 0.054905 0.
0.579909 0.0549192 0.
0.581928 0.0549333 0.
0.583944 0.0549461 0.
0.585956 0.0549558 0.
0.587967 0.0549655 0.
0.589976 0.0549728 0.
0.591982 0.054978 0.
0.593989 0.0549832 0.
0.595993 0.0549852 0.
0.597997 0.0549864 0.
0.600002 0.0549875 0.
0.602007 0.054985 0.
0.604012 0.0549824 0.
0.606017 0.0549789 0.
0.608025 0.0549725 0.
0.610032 0.054966 0.
0.612043 0.0549568 0.
0.614058 0.0549442 0.
0.616073 0.0549316 0.
0.618093 0.0549161 0.
0.620116 0.0548993 0.
0.622139 0.0548825 0.
0.624179 0.0548413 0.
0.626219 0.0547986 0.
0.628269 0.0547464 0.
0.630357 0.0546554 0.
0.632444 0.0545651 0.
0.634548 0.0544716 0.
0.636669 0.0543703 0.
0.638788 0.0542694 0.
0.641026 0.0540079 0.
0.643277 0.0537349 0.
0.645564 0.0534639 0.
0.647941 0.0530775 0.
0.650308 0.0526872 0.
0.652844 0.0520303 0.
0.65537 0.0513854 0.
0.658044 0.0506921 0.
0.66079 0.0499251 0.
0.663662 0.0489573 0.
0.666574 0.0478174 0.
0.669559 0.0464984 0.
0.6726 0.0451109 0.
0.675731 0.0435151 0.
0.678882 0.0418127 0.
0.682142 0.0400658 0.
0.685466 0.0383008 0.
0.68892 0.0363819 0.
0.692464 0.0342815 0.
0.696144 0.0320541 0.
0.699954 0.0298144 0.
0.703858 0.0275766 0.
0.707884 0.0252712 0.
0.712019 0.0229644 0.
0.716219 0.0207415 0.
0.720528 0.0187375 0.
0.724873 0.0171086 0.
0.729194 0.0159092 0.
0.733443 0.0151074 0.
0.737503 0.0152191 0.
0.461183 0.0164207 0.
0.465116 0.0162703 0.
0.469192 0.0169784 0.
0.473366 0.0181558 0.
0.477565 0.0197064 0.
0.481746 0.0216573 0.
0.485883 0.0237975 0.
0.48995 0.0259973 0.
0.493857 0.0282521 0.
0.497665 0.0305718 0.
0.501369 0.0328904 0.
0.505003 0.0350791 0.
0.508555 0.0371082 0.
0.512014 0.0390446 0.
0.515374 0.0410293 0.
0.518604 0.0428972 0.
0.521784 0.0446788 0.
0.524888 0.04625 0.
0.527937 0.0476843 0.
0.530907 0.0489638 0.
0.533802 0.0501286 0.
0.536637 0.0512374 0.
0.539406 0.0521575 0.
0.542119 0.0529698 0.
0.544764 0.0536417 0.
0.547281 0.0542204 0.
0.549779 0.0548057 0.
0.552166 0.0551784 0.
0.554561 0.0555688 0.
0.556822 0.0558254 0.
0.559024 0.0560613 0.
0.561219 0.056284 0.
0.563344 0.0563855 0.
0.565471 0.056488 0.
0.567576 0.0565794 0.
0.569657 0.0566623 0.
0.571739 0.0567461 0.
0.573787 0.0567967 0.
0.575827 0.0568397 0.
0.577865 0.0568811 0.
0.579888 0.0568976 0.
0.58191 0.0569142 0.
0.58393 0.0569294 0.
0.585944 0.056942 0.
0.587959 0.0569546 0.
0.58997 0.056964 0.
0.591978 0.0569706 0.
0.593986 0.0569772 0.
0.595992 0.0569799 0.
0.597997 0.0569815 0.
0.600002 0.0569831 0.
0.602008 0.0569796 0.
0.604014 0.0569761 0.
0.606021 0.0569715 0.
0.608031 0.0569632 0.
0.610041 0.0569548 0.
0.612054 0.056943 0.
0.614073 0.056927 0.
0.616091 0.0569111 0.
0.618115 0.056893 0.
0.620141 0.0568738 0.
0.622168 0.0568546 0.
0.62422 0.0568004 0.
0.626273 0.0567446 0.
0.628336 0.0566786 0.
0.630438 0.056573 0.
0.632539 0.0564684 0.
0.634667 0.0563593 0.
0.636816 0.0562433 0.
0.638961 0.0561285 0.
0.641221 0.0558161 0.
0.643483 0.0554978 0.
0.645795 0.0551827 0.
0.648192 0.0547763 0.
0.650621 0.0543418 0.
0.653227 0.0536028 0.
0.655816 0.0528878 0.
0.658557 0.0520814 0.
0.661324 0.0512241 0.
0.664205 0.0501787 0.
0.667129 0.0489934 0.
0.670137 0.0475872 0.
0.673179 0.0461435 0.
0.676295 0.0445072 0.
0.679441 0.0427871 0.
0.682673 0.0410133 0.
0.685991 0.0392175 0.
0.689406 0.0372786 0.
0.692924 0.0351339 0.
0.696552 0.0329129 0.
0.700303 0.0306823 0.
0.70416 0.0284556 0.
0.70809 0.0261863 0.
0.712143 0.0239126 0.
0.716237 0.0217415 0.
0.720419 0.0197948 0.
0.724642 0.018198 0.
0.728803 0.0170309 0.
0.732884 0.0163021 0.
0.736798 0.0163036 0.
0.461936 0.0175216 0.
0.465736 0.0174648 0.
0.46967 0.0181574 0.
0.473696 0.0193038 0.
0.477763 0.0208343 0.
0.481829 0.0227284 0.
0.485866 0.0248246 0.
0.489818 0.0269823 0.
0.493647 0.0292126 0.
0.497396 0.0315079 0.
0.501038 0.0338071 0.
0.504615 0.0359983 0.
0.508117 0.0380284 0.
0.511542 0.039974 0.
0.514858 0.041957 0.
0.51806 0.0438533 0.
0.521235 0.0456679 0.
0.524326 0.0472894 0.
0.527373 0.0488041 0.
0.530334 0.0501104 0.
0.533242 0.0513363 0.
0.536095 0.0524929 0.
0.538912 0.0535138 0.
0.541649 0.0543972 0.
0.54434 0.0551609 0.
0.546881 0.0557587 0.
0.549431 0.0563619 0.
0.551854 0.056815 0.
0.554276 0.0572887 0.
0.556587 0.0576159 0.
0.558824 0.0578912 0.
0.561058 0.0581574 0.
0.56321 0.0582723 0.
0.565365 0.0583881 0.
0.567494 0.0584943 0.
0.569589 0.0585926 0.
0.571686 0.0586918 0.
0.573745 0.0587537 0.
0.575793 0.0588062 0.
0.577841 0.0588568 0.
0.579866 0.0588758 0.
0.581892 0.0588948 0.
0.583915 0.0589126 0.
0.585933 0.0589281 0.
0.587951 0.0589436 0.
0.589964 0.0589551 0.
0.591973 0.0589631 0.
0.593983 0.0589712 0.
0.59599 0.0589746 0.
0.597996 0.0589766 0.
0.600002 0.0589787 0.
0.602009 0.0589743 0.
0.604017 0.0589698 0.
0.606025 0.0589641 0.
0.608037 0.0589538 0.
0.610049 0.0589436 0.
0.612066 0.0589291 0.
0.614088 0.0589097 0.
0.616109 0.0588903 0.
0.618137 0.0588695 0.
0.620167 0.0588479 0.
0.622197 0.0588263 0.
0.624263 0.0587581 0.
0.62633 0.0586884 0.
0.628408 0.0586074 0.
0.630525 0.058486 0.
0.632641 0.0583659 0.
0.634802 0.0582365 0.
0.63699 0.0580992 0.
0.639181 0.0579555 0.
0.641475 0.0575912 0.
0.643767 0.0572255 0.
0.646141 0.0568437 0.
0.648582 0.0563702 0.
0.651046 0.0558612 0.
0.653652 0.0551065 0.
0.656285 0.0543533 0.
0.659069 0.0534456 0.
0.661867 0.0524899 0.
0.664765 0.0513509 0.
0.667685 0.0501242 0.
0.670697 0.0486779 0.
0.673737 0.0471834 0.
0.676823 0.0455163 0.
0.679952 0.0437842 0.
0.683164 0.0419917 0.
0.686453 0.0401691 0.
0.689826 0.0382171 0.
0.693304 0.0360473 0.
0.69688 0.0338311 0.
0.700574 0.0316146 0.
0.704375 0.0294014 0.
0.70822 0.0271662 0.
0.712175 0.0249354 0.
0.716177 0.0228097 0.
0.720223 0.0209158 0.
0.724313 0.019355 0.
0.728336 0.0181982 0.
0.732275 0.0175071 0.
0.736063 0.0174379 0.
0.462718 0.0186682 0.
0.46639 0.0187007 0.
0.470188 0.0193818 0.
0.47408 0.0205048 0.
0.478016 0.0220094 0.
0.481975 0.0238607 0.
0.485905 0.0259108 0.
0.489741 0.0280259 0.
0.493501 0.0302292 0.
0.497174 0.032493 0.
0.500763 0.0347792 0.
0.504284 0.0369647 0.
0.507733 0.038991 0.
0.511107 0.0409395 0.
0.514375 0.042913 0.
0.517563 0.044832 0.
0.52071 0.0466668 0.
0.523775 0.0483336 0.
0.526815 0.0499015 0.
0.529764 0.0512457 0.
0.532681 0.0525362 0.
0.53555 0.0537295 0.
0.538399 0.0548258 0.
0.541131 0.055756 0.
0.54385 0.0566042 0.
0.546456 0.0572555 0.
0.549069 0.0579018 0.
0.551541 0.0584376 0.
0.553989 0.0589941 0.
0.55635 0.0594023 0.
0.558622 0.0597163 0.
0.560894 0.0600223 0.
0.563074 0.0601504 0.
0.565255 0.0602797 0.
0.567408 0.060402 0.
0.569515 0.0605147 0.
0.571624 0.0606283 0.
0.573694 0.060703 0.
0.575754 0.0607671 0.
0.577813 0.0608297 0.
0.579842 0.060851 0.
0.581871 0.0608723 0.
0.583897 0.0608927 0.
0.585918 0.0609114 0.
0.587939 0.0609301 0.
0.589955 0.060944 0.
0.591967 0.0609538 0.
0.593978 0.0609637 0.
0.595987 0.0609678 0.
0.597995 0.0609702 0.
0.600002 0.0609727 0.
0.602011 0.0609672 0.
0.60402 0.0609617 0.
0.606031 0.0609546 0.
0.608046 0.0609421 0.
0.610061 0.0609295 0.
0.61208 0.0609122 0.
0.614106 0.0608894 0.
0.616131 0.0608666 0.
0.618163 0.0608422 0.
0.620198 0.0608171 0.
0.622233 0.0607921 0.
0.624314 0.0607075 0.
0.626395 0.0606221 0.
0.628487 0.0605254 0.
0.630617 0.0603905 0.
0.632746 0.0602567 0.
0.63494 0.0601053 0.
0.637166 0.0599489 0.
0.639402 0.0597751 0.
0.64173 0.059361 0.
0.644053 0.058948 0.
0.646496 0.0584929 0.
0.648991 0.0579487 0.
0.651517 0.0573307 0.
0.654148 0.056508 0.
0.656812 0.0556999 0.
0.659595 0.0547659 0.
0.662411 0.0537294 0.
0.665318 0.0525165 0.
0.668247 0.0512237 0.
0.671239 0.0497618 0.
0.674272 0.0482311 0.
0.677343 0.0465379 0.
0.680437 0.0447921 0.
0.683616 0.0429967 0.
0.686874 0.0411523 0.
0.690202 0.0391869 0.
0.693631 0.0370056 0.
0.697157 0.0347948 0.
0.70078 0.0326023 0.
0.704516 0.0304076 0.
0.708298 0.028197 0.
0.712153 0.0260136 0.
0.716059 0.023931 0.
0.71999 0.0220811 0.
0.723929 0.0205573 0.
0.727821 0.019416 0.
0.731634 0.0187399 0.
0.735307 0.0186215 0.
0.463507 0.0198625 0.
0.467058 0.0199678 0.
0.470728 0.0206396 0.
0.474487 0.0217454 0.
0.478319 0.0232337 0.
0.482171 0.0250483 0.
0.485982 0.027048 0.
0.489721 0.0291248 0.
0.493406 0.0312978 0.
0.497001 0.0335318 0.
0.500535 0.0358001 0.
0.503988 0.03797 0.
0.507388 0.0399957 0.
0.510699 0.0419388 0.
0.513926 0.0438998 0.
0.517093 0.0458368 0.
0.520199 0.0476862 0.
0.52325 0.0493912 0.
0.526264 0.0509778 0.
0.529207 0.0523787 0.
0.532128 0.0537267 0.
0.535008 0.0549475 0.
0.537843 0.0560779 0.
0.540603 0.057089 0.
0.543357 0.0580311 0.
0.54603 0.0587489 0.
0.548702 0.0594276 0.
0.551216 0.060023 0.
0.553668 0.0606343 0.
0.556074 0.0611147 0.
0.558386 0.0614628 0.
0.560709 0.0618099 0.
0.562923 0.0619764 0.
0.565131 0.0621407 0.
0.567308 0.0622932 0.
0.569427 0.0624205 0.
0.571547 0.0625489 0.
0.573632 0.06264 0.
0.575706 0.0627202 0.
0.57778 0.0627991 0.
0.579813 0.0628226 0.
0.581846 0.0628462 0.
0.583876 0.0628692 0.
0.5859 0.0628915 0.
0.587924 0.0629138 0.
0.589943 0.0629306 0.
0.591958 0.0629425 0.
0.593972 0.0629544 0.
0.595983 0.0629593 0.
0.597993 0.0629622 0.
0.600003 0.062965 0.
0.602014 0.0629583 0.
0.604026 0.0629516 0.
0.606039 0.062943 0.
0.608057 0.0629277 0.
0.610075 0.0629124 0.
0.612099 0.0628919 0.
0.614128 0.0628655 0.
0.616157 0.0628392 0.
0.618195 0.0628101 0.
0.620236 0.0627798 0.
0.622278 0.0627492 0.
0.624376 0.0626439 0.
0.626474 0.062538 0.
0.628585 0.0624222 0.
0.630728 0.0622737 0.
0.63287 0.0621265 0.
0.635104 0.0619241 0.
0.63737 0.0617086 0.
0.639648 0.0614808 0.
0.642014 0.0610527 0.
0.644365 0.0606213 0.
0.646864 0.060105 0.
0.6494 0.0595085 0.
0.65198 0.0587856 0.
0.654636 0.0579002 0.
0.657343 0.0570165 0.
0.660138 0.0560253 0.
0.662963 0.0549326 0.
0.665858 0.0536817 0.
0.668793 0.0523318 0.
0.67177 0.050845 0.
0.674783 0.0492847 0.
0.677832 0.0475811 0.
0.680913 0.0458209 0.
0.68405 0.0440252 0.
0.68727 0.0421629 0.
0.69055 0.0401854 0.
0.693922 0.0380089 0.
0.697393 0.0358038 0.
0.700948 0.0336346 0.
0.704602 0.0314681 0.
0.70832 0.0292875 0.
0.712085 0.0271426 0.
0.715891 0.0251041 0.
0.719718 0.0232926 0.
0.723527 0.0217966 0.
0.727285 0.0206806 0.
0.730976 0.0200031 0.
0.734539 0.0198462 0.
0.464309 0.0210926 0.
0.467752 0.0212583 0.
0.471306 0.0219336 0.
0.474964 0.0230376 0.
0.478692 0.0245152 0.
0.48243 0.0262946 0.
0.486128 0.0282482 0.
0.489779 0.0302936 0.
0.493368 0.0324267 0.
0.496896 0.034636 0.
0.500361 0.0368768 0.
0.503748 0.039028 0.
0.507085 0.0410467 0.
0.510334 0.0429792 0.
0.513522 0.0449301 0.
0.516652 0.0468752 0.
0.519727 0.0487306 0.
0.522746 0.050459 0.
0.525736 0.0520657 0.
0.528679 0.0535159 0.
0.531592 0.0548963 0.
0.53446 0.0561379 0.
0.537293 0.0573198 0.
0.540072 0.0584041 0.
0.542849 0.0594166 0.
0.545554 0.0601842 0.
0.548227 0.0608976 0.
0.55079 0.0615594 0.
0.553292 0.0622321 0.
0.555772 0.0628036 0.
0.558138 0.0631979 0.
0.560518 0.0635935 0.
0.562769 0.0637988 0.
0.565004 0.0639987 0.
0.567207 0.0641839 0.
0.569337 0.0643258 0.
0.571468 0.0644691 0.
0.573568 0.0645765 0.
0.575658 0.0646729 0.
0.577747 0.0647682 0.
0.579784 0.0647942 0.
0.58182 0.06482 0.
0.583854 0.0648456 0.
0.585881 0.0648715 0.
0.587909 0.0648975 0.
0.589931 0.0649171 0.
0.591949 0.0649311 0.
0.593966 0.0649452 0.
0.59598 0.0649509 0.
0.597992 0.0649541 0.
0.600003 0.0649573 0.
0.602017 0.0649494 0.
0.604031 0.0649415 0.
0.606047 0.0649313 0.
0.608068 0.0649133 0.
0.61009 0.0648953 0.
0.612117 0.0648716 0.
0.61415 0.0648417 0.
0.616183 0.0648118 0.
0.618226 0.0647779 0.
0.620274 0.0647424 0.
0.622323 0.0647057 0.
0.624439 0.0645795 0.
0.626555 0.0644531 0.
0.628683 0.0643184 0.
0.63084 0.0641563 0.
0.632996 0.0639956 0.
0.635272 0.0637367 0.
0.637579 0.063461 0.
0.639905 0.0631779 0.
0.642323 0.062721 0.
0.644727 0.0622592 0.
0.647288 0.0616501 0.
0.649854 0.0609881 0.
0.652472 0.0601874 0.
0.655134 0.0592656 0.
0.657874 0.0583191 0.
0.660676 0.0572781 0.
0.663513 0.0561133 0.
0.666399 0.0548347 0.
0.669316 0.0534509 0.
0.672272 0.051947 0.
0.675266 0.050355 0.
0.67829 0.048647 0.
0.681346 0.0468792 0.
0.684452 0.0450805 0.
0.687633 0.0432102 0.
0.690859 0.0412252 0.
0.694167 0.0390639 0.
0.697569 0.0368712 0.
0.701058 0.0347242 0.
0.704626 0.0325898 0.
0.708259 0.0304466 0.
0.711944 0.0283409 0.
0.715648 0.0263426 0.
0.719371 0.0245597 0.
0.723073 0.0230854 0.
0.726713 0.0219833 0.
0.730288 0.0212966 0.
0.733744 0.0210969 0.
0.465114 0.0223542 0.
0.468468 0.0225775 0.
0.471936 0.0232727 0.
0.475502 0.02438 0.
0.479125 0.0258509 0.
0.482748 0.0275977 0.
0.486347 0.0295176 0.
0.489899 0.0315277 0.
0.493403 0.0336243 0.
0.496862 0.0358092 0.
0.500248 0.0380154 0.
0.503573 0.0401482 0.
0.506837 0.0421501 0.
0.510022 0.0440701 0.
0.513171 0.04601 0.
0.516257 0.0479496 0.
0.51929 0.0498055 0.
0.522281 0.0515554 0.
0.525251 0.0531742 0.
0.528174 0.0546576 0.
0.531068 0.0560542 0.
0.533924 0.0573348 0.
0.53675 0.0585543 0.
0.539535 0.0596778 0.
0.542311 0.0607064 0.
0.545036 0.0615571 0.
0.547727 0.0623439 0.
0.550348 0.0630836 0.
0.552897 0.0638152 0.
0.555449 0.0644815 0.
0.55786 0.0649113 0.
0.560267 0.065334 0.
0.562556 0.0655823 0.
0.564819 0.0658233 0.
0.567058 0.0660498 0.
0.569202 0.0662002 0.
0.571349 0.0663514 0.
0.573467 0.0664759 0.
0.575573 0.0665928 0.
0.57768 0.0667097 0.
0.579729 0.0667451 0.
0.581777 0.0667796 0.
0.583822 0.0668126 0.
0.585853 0.0668418 0.
0.587885 0.066871 0.
0.589911 0.0668937 0.
0.591933 0.0669105 0.
0.593955 0.0669273 0.
0.595973 0.0669341 0.
0.597989 0.066938 0.
0.600005 0.0669418 0.
0.602023 0.0669319 0.
0.604041 0.0669221 0.
0.606062 0.0669095 0.
0.608088 0.0668882 0.
0.610115 0.0668669 0.
0.612147 0.0668397 0.
0.614186 0.066806 0.
0.616224 0.0667724 0.
0.618282 0.0667277 0.
0.620345 0.0666797 0.
0.622412 0.0666285 0.
0.624545 0.0664787 0.
0.626677 0.0663298 0.
0.628825 0.0661779 0.
0.631002 0.0660083 0.
0.633174 0.06584 0.
0.63549 0.0655179 0.
0.637828 0.0651847 0.
0.640195 0.064855 0.
0.642649 0.0643799 0.
0.645115 0.0638833 0.
0.647724 0.0631786 0.
0.650324 0.0624385 0.
0.652987 0.0615469 0.
0.655662 0.0605892 0.
0.658414 0.0595968 0.
0.66121 0.0585226 0.
0.664047 0.0572986 0.
0.666918 0.0559915 0.
0.669826 0.0545797 0.
0.672748 0.053067 0.
0.67571 0.0514545 0.
0.678708 0.0497454 0.
0.681735 0.0479741 0.
0.684805 0.0461737 0.
0.68794 0.0443058 0.
0.69112 0.0423156 0.
0.694357 0.0401766 0.
0.697687 0.0380029 0.
0.701099 0.0358813 0.
0.704582 0.0337786 0.
0.708122 0.0316716 0.
0.711723 0.0296129 0.
0.715335 0.0276469 0.
0.718956 0.025887 0.
0.722563 0.0244243 0.
0.726103 0.0233236 0.
0.729579 0.0226182 0.
0.732942 0.022378 0.
0.465936 0.0236661 0.
0.469212 0.0239371 0.
0.472604 0.0246567 0.
0.476078 0.0257663 0.
0.479593 0.0272302 0.
0.483116 0.0289574 0.
0.486617 0.030847 0.
0.490075 0.0328205 0.
0.493507 0.0348926 0.
0.496886 0.0370459 0.
0.500196 0.0392211 0.
0.503455 0.0413316 0.
0.506642 0.0433128 0.
0.509773 0.0452167 0.
0.512869 0.0471364 0.
0.515903 0.0490648 0.
0.518899 0.0509225 0.
0.521857 0.052681 0.
0.524789 0.0543057 0.
0.527689 0.0558151 0.
0.530559 0.057225 0.
0.533403 0.0585367 0.
0.536212 0.0597739 0.
0.539002 0.0609237 0.
0.541774 0.0619843 0.
0.544516 0.0629122 0.
0.547219 0.063761 0.
0.549883 0.0645749 0.
0.552448 0.0653217 0.
0.555012 0.0660159 0.
0.557458 0.0665051 0.
0.559913 0.0669979 0.
0.56227 0.0673188 0.
0.564584 0.0676175 0.
0.566879 0.0679024 0.
0.569046 0.0680622 0.
0.571217 0.068223 0.
0.573357 0.0683663 0.
0.575482 0.0685066 0.
0.577607 0.0686472 0.
0.579671 0.0686939 0.
0.581733 0.0687379 0.
0.583789 0.0687791 0.
0.585824 0.0688116 0.
0.58786 0.0688441 0.
0.589891 0.0688699 0.
0.591917 0.0688895 0.
0.593944 0.0689092 0.
0.595966 0.0689172 0.
0.597986 0.0689217 0.
0.600006 0.0689261 0.
0.602029 0.0689143 0.
0.604052 0.0689024 0.
0.606077 0.0688875 0.
0.608109 0.0688628 0.
0.610141 0.0688381 0.
0.612179 0.0688072 0.
0.614222 0.0687696 0.
0.616266 0.0687321 0.
0.61834 0.0686754 0.
0.620422 0.0686136 0.
0.622508 0.0685455 0.
0.624662 0.0683692 0.
0.626812 0.0681943 0.
0.628988 0.0680226 0.
0.631196 0.0678425 0.
0.633399 0.067663 0.
0.635765 0.0672568 0.
0.638139 0.0668506 0.
0.640569 0.0664542 0.
0.643063 0.0659419 0.
0.645567 0.0654026 0.
0.64818 0.0646628 0.
0.65081 0.0638555 0.
0.653509 0.0628957 0.
0.656208 0.0618969 0.
0.658967 0.0608542 0.
0.661746 0.0597532 0.
0.664572 0.0584873 0.
0.667423 0.0571571 0.
0.670304 0.0557298 0.
0.673204 0.054209 0.
0.676125 0.052585 0.
0.679082 0.0508786 0.
0.682074 0.0491119 0.
0.685106 0.0473129 0.
0.688191 0.0454517 0.
0.691322 0.0434653 0.
0.694502 0.0413492 0.
0.697749 0.0392014 0.
0.701085 0.0371016 0.
0.704479 0.0350354 0.
0.707932 0.0329608 0.
0.711442 0.0309392 0.
0.714971 0.0290091 0.
0.718493 0.0272658 0.
0.722004 0.0258132 0.
0.725459 0.0247056 0.
0.728849 0.0239782 0.
0.732128 0.0236926 0.
0.466768 0.0250367 0.
0.469964 0.0253368 0.
0.473279 0.0260755 0.
0.47666 0.0271883 0.
0.480083 0.028652 0.
0.483513 0.0303663 0.
0.486917 0.0322214 0.
0.490302 0.0341715 0.
0.49366 0.0362196 0.
0.496952 0.038338 0.
0.50019 0.040487 0.
0.503369 0.0425652 0.
0.506481 0.0445219 0.
0.509554 0.0464019 0.
0.51259 0.0482994 0.
0.515578 0.050216 0.
0.518533 0.0520667 0.
0.521447 0.0538263 0.
0.524345 0.0554589 0.
0.527221 0.0569843 0.
0.530062 0.0584036 0.
0.532888 0.0597368 0.
0.535691 0.0609912 0.
0.538476 0.0621735 0.
0.541241 0.063255 0.
0.543988 0.0642385 0.
0.546687 0.0651304 0.
0.549357 0.0659676 0.
0.551946 0.0667519 0.
0.55454 0.0675023 0.
0.557044 0.0680846 0.
0.559548 0.0686485 0.
0.561978 0.0690467 0.
0.564343 0.0694034 0.
0.5667 0.0697532 0.
0.56889 0.0699208 0.
0.571081 0.0700878 0.
0.573244 0.0702484 0.
0.575385 0.0704102 0.
0.577528 0.0705725 0.
0.579607 0.0706334 0.
0.581683 0.0706898 0.
0.58375 0.0707418 0.
0.585791 0.0707774 0.
0.587832 0.0708131 0.
0.589868 0.0708419 0.
0.591899 0.0708643 0.
0.593931 0.0708868 0.
0.595958 0.0708961 0.
0.597983 0.0709011 0.
0.600008 0.0709062 0.
0.602036 0.0708922 0.
0.604064 0.0708783 0.
0.606095 0.0708609 0.
0.608132 0.0708327 0.
0.61017 0.0708045 0.
0.612214 0.0707699 0.
0.614264 0.0707286 0.
0.616314 0.0706873 0.
0.618404 0.0706153 0.
0.620503 0.0705365 0.
0.622609 0.0704489 0.
0.624781 0.0702501 0.
0.626949 0.0700525 0.
0.629153 0.0698638 0.
0.631391 0.0696746 0.
0.633632 0.069473 0.
0.636043 0.0689844 0.
0.638454 0.0685048 0.
0.640957 0.0680432 0.
0.643507 0.0674782 0.
0.646073 0.066848 0.
0.648702 0.0660489 0.
0.651338 0.065205 0.
0.654043 0.0642303 0.
0.656761 0.0631933 0.
0.659517 0.0621052 0.
0.662285 0.060962 0.
0.665085 0.0596808 0.
0.667915 0.0583332 0.
0.670771 0.0568935 0.
0.673635 0.0553679 0.
0.676528 0.0537394 0.
0.679443 0.052037 0.
0.682388 0.0502796 0.
0.685375 0.0484886 0.
0.68841 0.0466391 0.
0.691486 0.0446638 0.
0.694606 0.0425729 0.
0.69778 0.0404573 0.
0.701028 0.038379 0.
0.704339 0.0363465 0.
0.707698 0.0343083 0.
0.711118 0.0323179 0.
0.714566 0.0304168 0.
0.718011 0.0286876 0.
0.72143 0.0272386 0.
0.724797 0.0261263 0.
0.728105 0.0253878 0.
0.731311 0.0250582 0.
0.467589 0.0264413 0.
0.470709 0.0267643 0.
0.473948 0.0275225 0.
0.477246 0.0286488 0.
0.480588 0.0301143 0.
0.48393 0.0318149 0.
0.487255 0.0336448 0.
0.49057 0.0355771 0.
0.493837 0.0375922 0.
0.497048 0.0396839 0.
0.500203 0.0417999 0.
0.503296 0.0438434 0.
0.506339 0.045772 0.
0.509349 0.047624 0.
0.512328 0.0495011 0.
0.515268 0.0513975 0.
0.518172 0.0532345 0.
0.521049 0.0549932 0.
0.523916 0.0566291 0.
0.526755 0.0581641 0.
0.529576 0.0595943 0.
0.532393 0.0609397 0.
0.535178 0.0622124 0.
0.537948 0.0634203 0.
0.540707 0.0645223 0.
0.543447 0.065535 0.
0.546141 0.0664643 0.
0.548822 0.0673444 0.
0.551444 0.0681743 0.
0.554064 0.0689709 0.
0.556617 0.0696323 0.
0.559148 0.0702372 0.
0.561624 0.0706991 0.
0.564017 0.0710941 0.
0.566411 0.0714884 0.
0.568657 0.0716963 0.
0.570909 0.0719077 0.
0.573118 0.0721063 0.
0.575276 0.0722902 0.
0.577437 0.0724748 0.
0.579533 0.0725564 0.
0.581623 0.0726314 0.
0.583704 0.0726993 0.
0.585751 0.072738 0.
0.587799 0.0727769 0.
0.589841 0.0728088 0.
0.591878 0.0728341 0.
0.593915 0.0728596 0.
0.595948 0.07287 0.
0.597979 0.0728757 0.
0.600011 0.0728814 0.
0.602045 0.0728651 0.
0.604079 0.0728489 0.
0.606116 0.0728288 0.
0.60816 0.0727967 0.
0.610205 0.0727647 0.
0.612256 0.0727261 0.
0.614315 0.0726809 0.
0.616373 0.0726358 0.
0.618479 0.0725408 0.
0.620594 0.0724365 0.
0.62272 0.0723214 0.
0.624913 0.0721013 0.
0.627103 0.0718826 0.
0.629359 0.0716511 0.
0.631653 0.0714156 0.
0.633954 0.071157 0.
0.636389 0.0706333 0.
0.638809 0.0701121 0.
0.641366 0.0696044 0.
0.643961 0.0689993 0.
0.646579 0.0682773 0.
0.649229 0.0674203 0.
0.65189 0.0665143 0.
0.654593 0.065523 0.
0.65731 0.0644727 0.
0.660063 0.063353 0.
0.662824 0.0621722 0.
0.665602 0.060877 0.
0.668399 0.0595184 0.
0.671229 0.0580732 0.
0.674064 0.0565407 0.
0.676918 0.0549144 0.
0.679798 0.0532213 0.
0.682697 0.0514741 0.
0.685631 0.0496958 0.
0.688611 0.0478628 0.
0.691626 0.0459064 0.
0.694688 0.0438413 0.
0.697788 0.0417599 0.
0.700946 0.0397116 0.
0.704171 0.0377056 0.
0.707442 0.0357058 0.
0.710766 0.0337446 0.
0.714128 0.0318684 0.
0.717498 0.0301502 0.
0.720843 0.0286984 0.
0.724133 0.0275756 0.
0.72736 0.0268352 0.
0.730494 0.0264687 0.
0.468417 0.0278646 0.
0.471476 0.0282259 0.
0.474647 0.0290123 0.
0.477873 0.0301608 0.
0.481137 0.0316273 0.
0.484402 0.0333215 0.
0.487652 0.0351334 0.
0.490878 0.0370395 0.
0.494053 0.0390287 0.
0.497181 0.0410946 0.
0.500247 0.0431692 0.
0.503256 0.0451782 0.
0.506224 0.0470703 0.
0.509172 0.048896 0.
0.51209 0.0507466 0.
0.514976 0.0526141 0.
0.517835 0.0544368 0.
0.520677 0.0561874 0.
0.523498 0.0578211 0.
0.526312 0.0593621 0.
0.529112 0.0607986 0.
0.5319 0.0621501 0.
0.534669 0.0634377 0.
0.537427 0.0646664 0.
0.54017 0.0657815 0.
0.542902 0.0668195 0.
0.545594 0.0677886 0.
0.548277 0.068703 0.
0.550919 0.0695629 0.
0.553545 0.0703809 0.
0.556127 0.0711035 0.
0.558682 0.0717594 0.
0.561215 0.0723057 0.
0.563652 0.0727514 0.
0.566096 0.0732003 0.
0.568413 0.0734635 0.
0.570729 0.0737221 0.
0.57299 0.073963 0.
0.575166 0.074169 0.
0.577344 0.0743761 0.
0.579458 0.0744786 0.
0.581563 0.0745723 0.
0.583658 0.0746567 0.
0.585712 0.0746986 0.
0.587765 0.0747406 0.
0.589814 0.0747756 0.
0.591857 0.0748039 0.
0.5939 0.0748323 0.
0.595939 0.074844 0.
0.597976 0.0748503 0.
0.600013 0.0748565 0.
0.602054 0.074838 0.
0.604094 0.0748195 0.
0.606137 0.0747966 0.
0.608188 0.0747606 0.
0.610239 0.0747248 0.
0.612299 0.0746822 0.
0.614366 0.0746331 0.
0.616433 0.0745841 0.
0.618555 0.0744652 0.
0.620686 0.0743351 0.
0.622832 0.0741926 0.
0.625048 0.0739511 0.
0.627259 0.0737113 0.
0.629575 0.0734295 0.
0.631934 0.0731375 0.
0.634313 0.0728036 0.
0.6368 0.072235 0.
0.639274 0.0716723 0.
0.641866 0.0710974 0.
0.644467 0.0704555 0.
0.647108 0.0696649 0.
0.649766 0.0687684 0.
0.652443 0.0678183 0.
0.655143 0.0668065 0.
0.657856 0.0657292 0.
0.660596 0.0645955 0.
0.66335 0.0633899 0.
0.666111 0.0620848 0.
0.66888 0.0607173 0.
0.671674 0.0592703 0.
0.674479 0.0577353 0.
0.677299 0.0561139 0.
0.680136 0.0544345 0.
0.68299 0.0527039 0.
0.685867 0.050944 0.
0.688787 0.0491318 0.
0.691736 0.0471998 0.
0.694726 0.04517 0.
0.697756 0.0431195 0.
0.700828 0.0411056 0.
0.703958 0.0391298 0.
0.707145 0.0371608 0.
0.710373 0.0352314 0.
0.713642 0.0333788 0.
0.716932 0.0316703 0.
0.720208 0.030206 0.
0.723433 0.0290639 0.
0.726588 0.0283173 0.
0.729651 0.027929 0.
0.469262 0.029312 0.
0.472274 0.0297283 0.
0.475381 0.0305431 0.
0.478543 0.0317191 0.
0.481733 0.0331967 0.
0.484924 0.0348874 0.
0.48809 0.0366787 0.
0.491224 0.0385638 0.
0.494314 0.0405347 0.
0.497351 0.0425637 0.
0.500326 0.0446033 0.
0.503252 0.0465725 0.
0.506148 0.0484252 0.
0.509028 0.0502236 0.
0.511882 0.0520402 0.
0.514713 0.053876 0.
0.517525 0.0556782 0.
0.520316 0.057411 0.
0.523101 0.0590383 0.
0.525882 0.0605786 0.
0.528648 0.062018 0.
0.531415 0.0633729 0.
0.534168 0.0646702 0.
0.5369 0.0659104 0.
0.539627 0.0670413 0.
0.542352 0.0680995 0.
0.545044 0.0690976 0.
0.547723 0.070031 0.
0.550372 0.0709189 0.
0.553009 0.0717655 0.
0.555622 0.072554 0.
0.558202 0.0732644 0.
0.560783 0.073897 0.
0.563264 0.0743934 0.
0.56575 0.0748842 0.
0.568127 0.075195 0.
0.57049 0.0754995 0.
0.572798 0.0757884 0.
0.57499 0.076007 0.
0.577188 0.0762263 0.
0.579331 0.0763576 0.
0.581464 0.0764818 0.
0.583588 0.0765952 0.
0.585651 0.0766406 0.
0.587715 0.0766861 0.
0.589773 0.0767244 0.
0.591825 0.0767553 0.
0.593877 0.0767863 0.
0.595925 0.076799 0.
0.597972 0.0768056 0.
0.600018 0.0768121 0.
0.602068 0.0767915 0.
0.604117 0.076771 0.
0.60617 0.0767453 0.
0.608231 0.0767051 0.
0.610292 0.076665 0.
0.612364 0.0766174 0.
0.614444 0.076563 0.
0.616524 0.0765089 0.
0.618675 0.0763562 0.
0.620831 0.0761935 0.
0.623008 0.0760197 0.
0.625246 0.0757641 0.
0.627475 0.0755111 0.
0.629839 0.0751764 0.
0.632244 0.0748356 0.
0.634697 0.0744328 0.
0.637232 0.0738257 0.
0.639764 0.0732194 0.
0.642383 0.0725694 0.
0.644997 0.0718594 0.
0.647651 0.071004 0.
0.650317 0.0700906 0.
0.653002 0.0691128 0.
0.655694 0.0680875 0.
0.6584 0.0669872 0.
0.661126 0.0658399 0.
0.663865 0.0646171 0.
0.666604 0.0633073 0.
0.669352 0.0619317 0.
0.672113 0.0604877 0.
0.674879 0.0589545 0.
0.677661 0.0573436 0.
0.680455 0.0556831 0.
0.683261 0.0539733 0.
0.686082 0.0522361 0.
0.688933 0.0504538 0.
0.691813 0.0485505 0.
0.694726 0.046558 0.
0.697676 0.0445477 0.
0.700669 0.0425611 0.
0.703706 0.0406187 0.
0.706804 0.0386814 0.
0.709945 0.0367759 0.
0.713122 0.0349442 0.
0.716322 0.0332458 0.
0.719526 0.0317643 0.
0.722688 0.0305976 0.
0.725783 0.0298249 0.
0.728781 0.0294195 0.
0.470134 0.0308115 0.
0.473095 0.0312758 0.
0.476145 0.0321175 0.
0.479244 0.0333278 0.
0.482361 0.0348217 0.
0.485475 0.036504 0.
0.488555 0.0382805 0.
0.491604 0.0401532 0.
0.494603 0.0420944 0.
0.497548 0.0440949 0.
0.500434 0.0461006 0.
0.503279 0.048022 0.
0.506105 0.0498383 0.
0.508914 0.051604 0.
0.511702 0.0533843 0.
0.514475 0.0551856 0.
0.517227 0.0569579 0.
0.519971 0.0586671 0.
0.522716 0.060284 0.
0.525459 0.0618173 0.
0.528197 0.0632559 0.
0.530935 0.0646089 0.
0.53366 0.0659107 0.
0.536373 0.0671583 0.
0.539089 0.068305 0.
0.541802 0.0693773 0.
0.544493 0.0704 0.
0.547167 0.0713544 0.
0.549825 0.0722687 0.
0.552472 0.0731386 0.
0.55511 0.0739748 0.
0.557714 0.0747308 0.
0.560315 0.0754051 0.
0.562832 0.0759366 0.
0.565351 0.0764566 0.
0.567783 0.0768427 0.
0.570184 0.0772228 0.
0.572548 0.0775893 0.
0.574773 0.0778232 0.
0.577005 0.0780581 0.
0.579186 0.0782226 0.
0.581354 0.0783829 0.
0.583513 0.0785307 0.
0.585587 0.0785801 0.
0.587662 0.0786297 0.
0.589731 0.0786716 0.
0.591793 0.0787054 0.
0.593854 0.0787392 0.
0.595911 0.0787529 0.
0.597967 0.0787599 0.
0.600023 0.0787666 0.
0.602083 0.0787439 0.
0.604142 0.0787212 0.
0.606204 0.0786925 0.
0.608276 0.0786476 0.
0.610347 0.0786028 0.
0.612433 0.0785495 0.
0.614528 0.0784889 0.
0.616623 0.0784286 0.
0.61881 0.0782354 0.
0.621001 0.0780339 0.
0.623222 0.0778233 0.
0.625502 0.0775471 0.
0.627771 0.0772739 0.
0.630199 0.0768498 0.
0.632641 0.0764304 0.
0.635135 0.0759548 0.
0.637689 0.0753403 0.
0.640258 0.0747177 0.
0.642896 0.0740162 0.
0.645531 0.073237 0.
0.648196 0.0723359 0.
0.650867 0.0713997 0.
0.653554 0.0704058 0.
0.656246 0.0693658 0.
0.658944 0.0682467 0.
0.661654 0.0670896 0.
0.664375 0.0658561 0.
0.667095 0.0645437 0.
0.669812 0.0631648 0.
0.672542 0.0617266 0.
0.675273 0.0602007 0.
0.678011 0.0586053 0.
0.680755 0.0569691 0.
0.683507 0.0552856 0.
0.686273 0.0535751 0.
0.689056 0.0518249 0.
0.691861 0.0499601 0.
0.694696 0.0480049 0.
0.697563 0.0460389 0.
0.700475 0.0440834 0.
0.703424 0.0421649 0.
0.70643 0.0402619 0.
0.709486 0.0383798 0.
0.712576 0.0365642 0.
0.715689 0.0348691 0.
0.718818 0.033371 0.
0.721914 0.0321821 0.
0.72495 0.0313647 0.
0.727893 0.0309338 0.
0.471018 0.0323598 0.
0.473926 0.0328586 0.
0.476917 0.0337368 0.
0.47995 0.0349802 0.
0.482996 0.0364849 0.
0.486033 0.0381626 0.
0.489034 0.0399362 0.
0.491993 0.0417868 0.
0.494903 0.0437053 0.
0.497752 0.0456818 0.
0.500547 0.0476407 0.
0.503318 0.0495174 0.
0.506071 0.0512975 0.
0.508806 0.0530245 0.
0.511526 0.0547661 0.
0.514234 0.0565264 0.
0.516929 0.0582635 0.
0.519625 0.0599471 0.
0.522333 0.0615513 0.
0.525043 0.0630732 0.
0.527746 0.0645087 0.
0.530455 0.0658581 0.
0.533161 0.0671611 0.
0.535855 0.0684118 0.
0.538555 0.0695722 0.
0.541261 0.0706582 0.
0.543949 0.0717022 0.
0.546621 0.0726738 0.
0.549283 0.0736066 0.
0.551942 0.074498 0.
0.554593 0.075352 0.
0.557207 0.0761362 0.
0.559823 0.0768563 0.
0.562384 0.0774546 0.
0.564944 0.0780198 0.
0.567434 0.078475 0.
0.569873 0.078931 0.
0.572297 0.0793876 0.
0.574555 0.0796358 0.
0.576821 0.0798837 0.
0.57904 0.0800769 0.
0.58124 0.0802729 0.
0.583433 0.0804596 0.
0.58552 0.080513 0.
0.587607 0.0805666 0.
0.589687 0.0806121 0.
0.591758 0.0806484 0.
0.593829 0.0806849 0.
0.595897 0.0806994 0.
0.597963 0.0807064 0.
0.600029 0.0807132 0.
0.602099 0.0806886 0.
0.604168 0.080664 0.
0.606241 0.0806325 0.
0.608323 0.0805834 0.
0.610404 0.0805344 0.
0.612504 0.0804741 0.
0.614616 0.0804059 0.
0.616727 0.0803376 0.
0.61895 0.0801037 0.
0.621171 0.0798668 0.
0.623438 0.0796219 0.
0.625761 0.0793262 0.
0.62808 0.0790256 0.
0.630565 0.0785066 0.
0.633047 0.0780065 0.
0.635592 0.0774529 0.
0.638175 0.0768011 0.
0.640773 0.0761345 0.
0.643412 0.0754104 0.
0.646053 0.0745921 0.
0.648728 0.073664 0.
0.65141 0.072706 0.
0.654096 0.0716951 0.
0.656784 0.0706391 0.
0.659481 0.0695093 0.
0.662182 0.0683424 0.
0.664881 0.0671024 0.
0.667575 0.0657914 0.
0.670272 0.0644142 0.
0.672971 0.0629825 0.
0.675664 0.0614681 0.
0.678363 0.0598928 0.
0.681057 0.0582828 0.
0.683751 0.0566303 0.
0.686458 0.0549494 0.
0.689177 0.0532325 0.
0.691909 0.0514109 0.
0.694664 0.0494998 0.
0.697444 0.0475753 0.
0.700266 0.0456609 0.
0.703128 0.0437679 0.
0.706042 0.0418908 0.
0.709012 0.0400319 0.
0.71202 0.0382297 0.
0.715051 0.0365369 0.
0.718106 0.0350178 0.
0.721135 0.0338045 0.
0.724113 0.0329434 0.
0.727008 0.0324723 0.
0.471907 0.0339499 0.
0.474757 0.034481 0.
0.477684 0.0354032 0.
0.480651 0.0366664 0.
0.483632 0.0381882 0.
0.486592 0.0398695 0.
0.489506 0.0416315 0.
0.492375 0.0434633 0.
0.495188 0.0453669 0.
0.497935 0.0473046 0.
0.50065 0.049219 0.
0.503346 0.051053 0.
0.506017 0.0527876 0.
0.508677 0.0544773 0.
0.511326 0.0561783 0.
0.51397 0.0578885 0.
0.516614 0.0595896 0.
0.51927 0.0612486 0.
0.521942 0.0628355 0.
0.524616 0.0643436 0.
0.527289 0.0657744 0.
0.529976 0.0671178 0.
0.53266 0.0684193 0.
0.535341 0.0696741 0.
0.538035 0.0708453 0.
0.54073 0.0719432 0.
0.543413 0.0730026 0.
0.546086 0.0739925 0.
0.548752 0.07494 0.
0.551415 0.0758388 0.
0.55407 0.0767099 0.
0.5567 0.0775306 0.
0.559331 0.078294 0.
0.561931 0.0789559 0.
0.564524 0.0795556 0.
0.567061 0.0800622 0.
0.569521 0.0805687 0.
0.571981 0.0810839 0.
0.574294 0.0813592 0.
0.57662 0.0816368 0.
0.578889 0.0818811 0.
0.581115 0.0821304 0.
0.58334 0.0823735 0.
0.585442 0.0824324 0.
0.587545 0.0824915 0.
0.589639 0.0825416 0.
0.59172 0.0825806 0.
0.593801 0.0826197 0.
0.59588 0.0826349 0.
0.597958 0.0826417 0.
0.600037 0.0826481 0.
0.602118 0.0826218 0.
0.6042 0.0825955 0.
0.606284 0.0825612 0.
0.608374 0.0825078 0.
0.610464 0.0824546 0.
0.612583 0.082382 0.
0.614717 0.0822985 0.
0.616855 0.0822094 0.
0.619126 0.0819146 0.
0.621388 0.0816216 0.
0.623709 0.0813301 0.
0.626079 0.0810123 0.
0.628453 0.0806751 0.
0.630955 0.0801084 0.
0.633463 0.0795531 0.
0.636052 0.0789353 0.
0.638661 0.0782511 0.
0.641286 0.0775412 0.
0.643935 0.0767834 0.
0.646585 0.0759243 0.
0.649255 0.0749821 0.
0.651937 0.0740124 0.
0.654624 0.0729888 0.
0.65731 0.0719156 0.
0.660001 0.0707774 0.
0.662697 0.0696025 0.
0.665389 0.068359 0.
0.668062 0.0670495 0.
0.670735 0.0656789 0.
0.673408 0.0642555 0.
0.676065 0.0627549 0.
0.678723 0.0612022 0.
0.681376 0.0596195 0.
0.684014 0.0579987 0.
0.686658 0.0563528 0.
0.689314 0.0546714 0.
0.691974 0.052892 0.
0.694649 0.0510339 0.
0.697342 0.0491543 0.
0.700071 0.0472774 0.
0.702839 0.0454177 0.
0.705658 0.0435692 0.
0.708536 0.0417283 0.
0.711464 0.039938 0.
0.714419 0.0382466 0.
0.717398 0.0367073 0.
0.720363 0.0354611 0.
0.723283 0.0345655 0.
0.726128 0.0340509 0.
0.472813 0.035582 0.
0.475605 0.036149 0.
0.478472 0.0371171 0.
0.481379 0.038409 0.
0.48429 0.0399547 0.
0.487162 0.0416334 0.
0.489986 0.0433821 0.
0.492756 0.0452057 0.
0.495462 0.0470801 0.
0.498117 0.048977 0.
0.500752 0.050848 0.
0.503362 0.0526282 0.
0.505951 0.0543181 0.
0.508534 0.055971 0.
0.511113 0.0576225 0.
0.513703 0.0592848 0.
0.516302 0.0609493 0.
0.518917 0.0625756 0.
0.521552 0.064142 0.
0.524192 0.0656343 0.
0.526841 0.0670565 0.
0.529504 0.0683936 0.
0.532174 0.069692 0.
0.534847 0.070948 0.
0.537528 0.0721252 0.
0.540212 0.073232 0.
0.542891 0.074303 0.
0.545561 0.075309 0.
0.548226 0.0762639 0.
0.550888 0.0771728 0.
0.553544 0.078061 0.
0.556182 0.0789074 0.
0.558822 0.0796971 0.
0.561438 0.0804092 0.
0.564036 0.0810398 0.
0.56661 0.0815979 0.
0.569111 0.0821543 0.
0.571618 0.0827287 0.
0.574013 0.083064 0.
0.576409 0.0833832 0.
0.578734 0.083681 0.
0.580988 0.0839839 0.
0.583244 0.0842845 0.
0.585364 0.0843515 0.
0.587482 0.0844162 0.
0.589591 0.0844711 0.
0.591682 0.0845127 0.
0.593773 0.0845544 0.
0.595864 0.0845704 0.
0.597954 0.0845769 0.
0.600044 0.0845831 0.
0.602138 0.084555 0.
0.604232 0.0845269 0.
0.606327 0.0844897 0.
0.608426 0.0844321 0.
0.610524 0.0843746 0.
0.612663 0.0842889 0.
0.614819 0.08419 0.
0.616988 0.0840762 0.
0.619307 0.08372 0.
0.621614 0.0833684 0.
0.624003 0.08302 0.
0.626439 0.0826602 0.
0.628887 0.0822504 0.
0.631416 0.081621 0.
0.633948 0.0810152 0.
0.636551 0.0803774 0.
0.63917 0.0796758 0.
0.641809 0.0789286 0.
0.644462 0.0781461 0.
0.647118 0.0772525 0.
0.649785 0.0762944 0.
0.652462 0.0753146 0.
0.655139 0.0742846 0.
0.65782 0.0731988 0.
0.660505 0.0720548 0.
0.66319 0.0708737 0.
0.665872 0.0696304 0.
0.668538 0.0683244 0.
0.671192 0.0669622 0.
0.673836 0.0655513 0.
0.67646 0.0640682 0.
0.679079 0.0625403 0.
0.681691 0.0609881 0.
0.684282 0.0594014 0.
0.686864 0.0577912 0.
0.689453 0.0561506 0.
0.692046 0.0544153 0.
0.694646 0.0526069 0.
0.697249 0.0507819 0.
0.699881 0.0489489 0.
0.702553 0.0471191 0.
0.705269 0.0453036 0.
0.708048 0.0434866 0.
0.710887 0.041706 0.
0.713769 0.0400132 0.
0.716675 0.038457 0.
0.719573 0.0371678 0.
0.722433 0.0362397 0.
0.725227 0.0356826 0.
0.473738 0.0372515 0.
0.476482 0.0378653 0.
0.479298 0.0388881 0.
0.482139 0.0402245 0.
0.484961 0.0417869 0.
0.487742 0.0434598 0.
0.490469 0.0452067 0.
0.493126 0.0470086 0.
0.495729 0.0488468 0.
0.4983 0.0507078 0.
0.500847 0.0525219 0.
0.50337 0.0542462 0.
0.505883 0.0558956 0.
0.50839 0.0575044 0.
0.510905 0.0591073 0.
0.513445 0.0607216 0.
0.515999 0.06234 0.
0.518572 0.0639321 0.
0.52117 0.0654731 0.
0.52378 0.0669462 0.
0.526401 0.0683561 0.
0.529048 0.0696858 0.
0.531703 0.0709776 0.
0.534358 0.0722319 0.
0.537027 0.0734128 0.
0.539702 0.0745267 0.
0.542372 0.0756058 0.
0.545035 0.0766242 0.
0.547695 0.0775846 0.
0.550355 0.0785021 0.
0.553008 0.0794012 0.
0.555653 0.080263 0.
0.558299 0.0810688 0.
0.560925 0.0818311 0.
0.563532 0.0825054 0.
0.566135 0.0831168 0.
0.56868 0.0837242 0.
0.571229 0.084352 0.
0.573698 0.0847473 0.
0.576144 0.0850992 0.
0.578512 0.0854431 0.
0.580783 0.0857845 0.
0.583068 0.0861258 0.
0.585232 0.0862207 0.
0.58739 0.0863058 0.
0.589532 0.0863762 0.
0.591636 0.0864186 0.
0.593741 0.0864611 0.
0.595845 0.0864769 0.
0.597949 0.0864827 0.
0.600054 0.086488 0.
0.602162 0.0864586 0.
0.60427 0.0864293 0.
0.606379 0.0863906 0.
0.608492 0.0863314 0.
0.610605 0.0862722 0.
0.612781 0.0861604 0.
0.614976 0.0860314 0.
0.617195 0.0858763 0.
0.619549 0.0854776 0.
0.621886 0.0850855 0.
0.624333 0.0846896 0.
0.626827 0.0842912 0.
0.629339 0.0838045 0.
0.631892 0.083116 0.
0.634452 0.0824555 0.
0.637069 0.0817892 0.
0.639692 0.0810654 0.
0.642338 0.0802941 0.
0.644999 0.0794917 0.
0.647658 0.0785751 0.
0.650319 0.0776052 0.
0.652991 0.0766169 0.
0.655658 0.0755837 0.
0.658327 0.0744885 0.
0.660998 0.0733424 0.
0.663673 0.0721559 0.
0.66634 0.0709172 0.
0.668991 0.0696179 0.
0.671633 0.0682676 0.
0.674253 0.0668698 0.
0.676845 0.0654075 0.
0.679426 0.0639078 0.
0.681997 0.0623877 0.
0.684544 0.0608386 0.
0.687075 0.0592664 0.
0.689598 0.057667 0.
0.692116 0.0559852 0.
0.694642 0.0542306 0.
0.697165 0.0524549 0.
0.6997 0.0506748 0.
0.70227 0.0488821 0.
0.704886 0.0470928 0.
0.70756 0.0453088 0.
0.710293 0.0435421 0.
0.713089 0.0418453 0.
0.715919 0.0402771 0.
0.718751 0.0389438 0.
0.721543 0.0379706 0.
0.724285 0.037361 0.
0.474702 0.0389678 0.
0.477401 0.0396496 0.
0.480154 0.0407343 0.
0.482911 0.0421122 0.
0.485641 0.0436851 0.
0.488323 0.0453631 0.
0.490934 0.0470925 0.
0.49348 0.0488654 0.
0.49599 0.050673 0.
0.498466 0.05248 0.
0.500925 0.0542319 0.
0.50337 0.0559067 0.
0.505806 0.0575102 0.
0.508246 0.0590748 0.
0.510706 0.0606313 0.
0.513194 0.0621911 0.
0.515702 0.063763 0.
0.518234 0.0653199 0.
0.520794 0.066828 0.
0.523372 0.068278 0.
0.525972 0.0696731 0.
0.528598 0.0709925 0.
0.531234 0.0722745 0.
0.533875 0.0735261 0.
0.536531 0.0747096 0.
0.539194 0.075828 0.
0.541853 0.0769108 0.
0.544509 0.0779416 0.
0.547165 0.0789053 0.
0.549827 0.0798306 0.
0.552483 0.0807414 0.
0.555132 0.0816153 0.
0.557781 0.082434 0.
0.560414 0.0832282 0.
0.563032 0.083946 0.
0.56565 0.0845962 0.
0.568222 0.0852257 0.
0.570784 0.0858577 0.
0.57328 0.0863214 0.
0.575752 0.0867388 0.
0.578181 0.0871579 0.
0.580504 0.0875429 0.
0.582844 0.0879303 0.
0.585072 0.0880677 0.
0.587283 0.0881826 0.
0.589469 0.0882758 0.
0.591588 0.0883192 0.
0.593707 0.0883625 0.
0.595826 0.0883782 0.
0.597945 0.088383 0.
0.600064 0.0883874 0.
0.602187 0.0883565 0.
0.60431 0.0883256 0.
0.606435 0.088285 0.
0.608565 0.0882241 0.
0.610694 0.0881632 0.
0.61292 0.0880141 0.
0.615169 0.087842 0.
0.617459 0.0876279 0.
0.61987 0.0871786 0.
0.62226 0.0867383 0.
0.624757 0.0862796 0.
0.627273 0.0858375 0.
0.629813 0.0852826 0.
0.63238 0.0845683 0.
0.634961 0.0838784 0.
0.637585 0.0831914 0.
0.640213 0.0824441 0.
0.642862 0.0816495 0.
0.645525 0.0808287 0.
0.648187 0.0798984 0.
0.65085 0.0789171 0.
0.653519 0.0779212 0.
0.656178 0.076885 0.
0.658836 0.0757843 0.
0.661493 0.0746381 0.
0.664149 0.0734496 0.
0.666801 0.0722162 0.
0.669435 0.0709275 0.
0.672057 0.0695923 0.
0.674657 0.0682122 0.
0.677221 0.066772 0.
0.679768 0.0653023 0.
0.6823 0.0638176 0.
0.684805 0.0623057 0.
0.687288 0.0607762 0.
0.689753 0.0592191 0.
0.692203 0.0575876 0.
0.69465 0.0558955 0.
0.697095 0.0541721 0.
0.699543 0.052439 0.
0.702013 0.0506974 0.
0.704519 0.0489413 0.
0.707086 0.0471851 0.
0.709707 0.0454492 0.
0.712394 0.0437515 0.
0.715137 0.0421637 0.
0.717893 0.040794 0.
0.720617 0.0397686 0.
0.723298 0.0390933 0.
0.47569 0.0407465 0.
0.478329 0.0415112 0.
0.481 0.0426488 0.
0.483665 0.0440609 0.
0.486292 0.0456458 0.
0.488856 0.0473142 0.
0.491349 0.0490147 0.
0.49379 0.050759 0.
0.496197 0.0525198 0.
0.49858 0.054266 0.
0.500957 0.0559602 0.
0.503327 0.0575829 0.
0.505697 0.0591419 0.
0.508077 0.0606646 0.
0.510484 0.062171 0.
0.512926 0.0636793 0.
0.51539 0.0652084 0.
0.517882 0.0667244 0.
0.520407 0.0681975 0.
0.522961 0.0696255 0.
0.525538 0.0710027 0.
0.528146 0.0723095 0.
0.530769 0.0735812 0.
0.533397 0.0748294 0.
0.536041 0.076014 0.
0.538693 0.0771343 0.
0.541343 0.0782202 0.
0.543993 0.0792626 0.
0.54665 0.0802302 0.
0.549315 0.0811607 0.
0.551968 0.0820815 0.
0.554618 0.0829661 0.
0.557271 0.0837977 0.
0.559912 0.0846127 0.
0.562539 0.0853582 0.
0.565163 0.0860252 0.
0.567752 0.0866794 0.
0.570327 0.0873371 0.
0.572854 0.0878742 0.
0.575356 0.0883606 0.
0.577843 0.0888649 0.
0.58022 0.0892933 0.
0.582616 0.0897252 0.
0.584912 0.0899062 0.
0.587175 0.0900502 0.
0.589407 0.0901699 0.
0.59154 0.0902137 0.
0.593673 0.0902575 0.
0.595807 0.0902728 0.
0.597941 0.0902768 0.
0.600075 0.0902802 0.
0.602213 0.0902479 0.
0.60435 0.0902158 0.
0.606491 0.0901737 0.
0.608636 0.0901116 0.
0.610781 0.0900497 0.
0.613062 0.0898599 0.
0.615365 0.0896443 0.
0.617729 0.0893696 0.
0.620198 0.0888701 0.
0.62265 0.0883762 0.
0.625187 0.0878505 0.
0.627727 0.087351 0.
0.63029 0.0867271 0.
0.632868 0.0859945 0.
0.635465 0.0852875 0.
0.638095 0.0845843 0.
0.640728 0.0838171 0.
0.643382 0.0830043 0.
0.646044 0.0821628 0.
0.648703 0.0812216 0.
0.651364 0.0802318 0.
0.654034 0.0792304 0.
0.65669 0.0781908 0.
0.65934 0.0770861 0.
0.661984 0.0759406 0.
0.664628 0.0747527 0.
0.667262 0.0735252 0.
0.669878 0.072249 0.
0.672482 0.0709316 0.
0.675062 0.0695694 0.
0.677603 0.0681537 0.
0.68012 0.0667144 0.
0.682614 0.0652657 0.
0.685081 0.0637919 0.
0.687523 0.0623015 0.
0.689939 0.060789 0.
0.69233 0.0592044 0.
0.694709 0.0575693 0.
0.697074 0.055907 0.
0.699438 0.0542247 0.
0.701816 0.0525299 0.
0.704214 0.0508234 0.
0.706663 0.049103 0.
0.709169 0.0473957 0.
0.711736 0.0457186 0.
0.714367 0.0441138 0.
0.717036 0.042706 0.
0.719687 0.0416278 0.
0.722302 0.0408915 0.
0.476662 0.0425999 0.
0.479222 0.043439 0.
0.4818 0.044623 0.
0.484357 0.0460634 0.
0.486858 0.0476445 0.
0.489294 0.0492864 0.
0.49167 0.0509551 0.
0.494 0.0526558 0.
0.496306 0.0543596 0.
0.498604 0.056048 0.
0.500907 0.0576861 0.
0.503211 0.0592591 0.
0.50552 0.0607776 0.
0.507852 0.0622565 0.
0.510214 0.0637175 0.
0.512614 0.0651818 0.
0.515039 0.0666651 0.
0.517495 0.0681392 0.
0.519997 0.0695796 0.
0.522533 0.0709853 0.
0.525091 0.0723438 0.
0.527687 0.073638 0.
0.530301 0.0748993 0.
0.53292 0.0761432 0.
0.535554 0.077328 0.
0.538197 0.0784505 0.
0.540843 0.0795387 0.
0.543496 0.0805893 0.
0.546153 0.0815609 0.
0.548818 0.0824956 0.
0.551473 0.0834247 0.
0.554125 0.0843197 0.
0.556782 0.0851616 0.
0.559427 0.0859893 0.
0.56206 0.0867583 0.
0.564692 0.0874488 0.
0.5673 0.0881276 0.
0.569891 0.0888091 0.
0.572448 0.089404 0.
0.574982 0.0899474 0.
0.577506 0.0904992 0.
0.579925 0.0909392 0.
0.582357 0.0913777 0.
0.584715 0.0916279 0.
0.587046 0.0918539 0.
0.589343 0.0920443 0.
0.591492 0.0920887 0.
0.593642 0.092133 0.
0.59579 0.0921483 0.
0.597939 0.0921515 0.
0.600088 0.0921542 0.
0.602239 0.0921202 0.
0.604391 0.0920863 0.
0.606546 0.0920417 0.
0.608706 0.0919768 0.
0.610865 0.0919121 0.
0.61323 0.0916295 0.
0.615608 0.0913277 0.
0.618034 0.0909839 0.
0.620528 0.0904776 0.
0.623025 0.0899654 0.
0.625594 0.0893988 0.
0.628164 0.0888429 0.
0.630748 0.0881689 0.
0.63334 0.0874184 0.
0.635953 0.0866972 0.
0.638586 0.0859735 0.
0.641226 0.0851854 0.
0.643883 0.0843599 0.
0.646547 0.0834994 0.
0.649206 0.0825488 0.
0.651864 0.0815526 0.
0.65453 0.0805487 0.
0.657189 0.0795049 0.
0.659839 0.0783971 0.
0.662477 0.0772509 0.
0.66511 0.0760672 0.
0.667733 0.0748457 0.
0.670333 0.0735811 0.
0.672922 0.0722812 0.
0.675484 0.0709393 0.
0.678004 0.0695473 0.
0.680497 0.0681386 0.
0.68296 0.0667238 0.
0.685392 0.0652893 0.
0.687799 0.0638362 0.
0.690175 0.062363 0.
0.692518 0.0608256 0.
0.694841 0.0592405 0.
0.697138 0.057634 0.
0.699423 0.0560086 0.
0.701713 0.054362 0.
0.704015 0.0527046 0.
0.706348 0.0510357 0.
0.708728 0.0493658 0.
0.711171 0.0477182 0.
0.713675 0.0461195 0.
0.716229 0.0446806 0.
0.718793 0.0435437 0.
0.721339 0.042751 0.
0.477579 0.0445315 0.
0.480047 0.0454285 0.
0.482512 0.046652 0.
0.484937 0.0481005 0.
0.487301 0.0496613 0.
0.489611 0.0512706 0.
0.49187 0.0528943 0.
0.494095 0.0545417 0.
0.496316 0.0561911 0.
0.49854 0.0578231 0.
0.500778 0.0594097 0.
0.503028 0.0609411 0.
0.505292 0.0624156 0.
0.507586 0.0638572 0.
0.509911 0.0652847 0.
0.512277 0.0667065 0.
0.514671 0.0681449 0.
0.517107 0.069578 0.
0.519595 0.0709858 0.
0.522114 0.0723676 0.
0.52466 0.0737076 0.
0.527246 0.0749889 0.
0.529852 0.0762399 0.
0.532463 0.077476 0.
0.535088 0.0786597 0.
0.537725 0.0797834 0.
0.540373 0.0808717 0.
0.543023 0.0819261 0.
0.54568 0.0829021 0.
0.548347 0.0838399 0.
0.551005 0.0847766 0.
0.553658 0.0856799 0.
0.556316 0.0865289 0.
0.558966 0.0873676 0.
0.561606 0.0881577 0.
0.564246 0.0888674 0.
0.56687 0.0895691 0.
0.569472 0.090273 0.
0.572049 0.0909 0.
0.574594 0.0914694 0.
0.577135 0.0920584 0.
0.579605 0.0925433 0.
0.582082 0.0930134 0.
0.584509 0.0933388 0.
0.586911 0.0936508 0.
0.589278 0.0939188 0.
0.591444 0.0939637 0.
0.593609 0.0940086 0.
0.595774 0.0940237 0.
0.597937 0.0940263 0.
0.600101 0.0940282 0.
0.602267 0.0939924 0.
0.604432 0.0939567 0.
0.606602 0.0939096 0.
0.608776 0.0938419 0.
0.610949 0.0937744 0.
0.61341 0.0933865 0.
0.615875 0.0929841 0.
0.618368 0.0925572 0.
0.620892 0.0920154 0.
0.623422 0.0914614 0.
0.625999 0.0908839 0.
0.628582 0.0903043 0.
0.631182 0.0896103 0.
0.633787 0.0888436 0.
0.636413 0.0881067 0.
0.639053 0.0873641 0.
0.641697 0.0865579 0.
0.644355 0.0857226 0.
0.647022 0.0848446 0.
0.649682 0.083886 0.
0.65234 0.0828837 0.
0.655005 0.0818788 0.
0.65766 0.080834 0.
0.660309 0.0797251 0.
0.662949 0.0785783 0.
0.665575 0.0774002 0.
0.668186 0.0761883 0.
0.670774 0.0749377 0.
0.673351 0.0736531 0.
0.6759 0.0723324 0.
0.678403 0.070966 0.
0.680876 0.0695868 0.
0.683318 0.0682032 0.
0.68572 0.0668051 0.
0.688097 0.0653894 0.
0.690445 0.0639507 0.
0.69275 0.0624548 0.
0.695029 0.060919 0.
0.697274 0.0593604 0.
0.699497 0.0577847 0.
0.701711 0.05619 0.
0.703926 0.0545796 0.
0.70616 0.0529607 0.
0.708421 0.0513429 0.
0.710732 0.0497342 0.
0.713103 0.0481574 0.
0.715524 0.0467107 0.
0.717974 0.0455272 0.
0.720431 0.0446726 0.
0.478371 0.0465188 0.
0.480727 0.047457 0.
0.483062 0.0487069 0.
0.485348 0.0501536 0.
0.487581 0.0516835 0.
0.489774 0.053247 0.
0.49193 0.0548211 0.
0.494076 0.0564153 0.
0.496235 0.0580152 0.
0.498404 0.0596008 0.
0.500595 0.0611451 0.
0.502807 0.062631 0.
0.505044 0.0640723 0.
0.507317 0.0654868 0.
0.509612 0.0668814 0.
0.511951 0.068264 0.
0.514329 0.0696622 0.
0.516753 0.0710536 0.
0.519226 0.0724283 0.
0.521734 0.0737867 0.
0.52427 0.0751093 0.
0.526846 0.0763715 0.
0.529442 0.0776087 0.
0.532045 0.0788339 0.
0.534667 0.0800157 0.
0.537299 0.0811392 0.
0.539942 0.082225 0.
0.54259 0.0832795 0.
0.545248 0.0842608 0.
0.547913 0.085202 0.
0.550568 0.0861406 0.
0.553221 0.0870487 0.
0.55588 0.0879036 0.
0.558532 0.0887507 0.
0.561179 0.0895576 0.
0.563828 0.090284 0.
0.566459 0.0910048 0.
0.569065 0.0917271 0.
0.571655 0.0923834 0.
0.574211 0.092983 0.
0.576766 0.093606 0.
0.579285 0.0941327 0.
0.581806 0.0946272 0.
0.584298 0.0950181 0.
0.586771 0.0954129 0.
0.589208 0.0957689 0.
0.591392 0.0958139 0.
0.593576 0.0958589 0.
0.595757 0.0958742 0.
0.597936 0.0958767 0.
0.600116 0.0958784 0.
0.602296 0.0958419 0.
0.604476 0.0958054 0.
0.60666 0.0957565 0.
0.60885 0.0956867 0.
0.611038 0.0956171 0.
0.613592 0.0951139 0.
0.616147 0.0946164 0.
0.618699 0.0941158 0.
0.621252 0.0935412 0.
0.623815 0.092951 0.
0.626401 0.0923542 0.
0.628991 0.0917476 0.
0.631596 0.0910389 0.
0.634209 0.0902679 0.
0.636842 0.0895172 0.
0.639489 0.0887577 0.
0.642137 0.0879384 0.
0.644795 0.0870947 0.
0.64746 0.0862033 0.
0.650119 0.0852397 0.
0.652778 0.0842334 0.
0.655441 0.0832269 0.
0.658094 0.0821811 0.
0.660738 0.0810768 0.
0.663371 0.0799328 0.
0.665995 0.0787605 0.
0.6686 0.0775588 0.
0.671177 0.0763263 0.
0.673742 0.0750636 0.
0.676278 0.073764 0.
0.678771 0.0724235 0.
0.681226 0.071077 0.
0.683652 0.0697213 0.
0.686037 0.0683541 0.
0.688391 0.0669718 0.
0.690713 0.0655695 0.
0.692996 0.0641082 0.
0.695245 0.0626118 0.
0.697455 0.0610993 0.
0.699638 0.059565 0.
0.701799 0.0580137 0.
0.703947 0.0564514 0.
0.706102 0.0548755 0.
0.708269 0.0533057 0.
0.710463 0.0517477 0.
0.712702 0.0502056 0.
0.714986 0.0487642 0.
0.717307 0.0475592 0.
0.719651 0.0466508 0.
0.478971 0.0485238 0.
0.481207 0.0495115 0.
0.483412 0.0507931 0.
0.485576 0.052225 0.
0.487697 0.0537185 0.
0.489794 0.0552378 0.
0.491881 0.0567639 0.
0.493977 0.058315 0.
0.496096 0.0598815 0.
0.498231 0.0614264 0.
0.500394 0.0629235 0.
0.502592 0.0643726 0.
0.504822 0.0657873 0.
0.507076 0.067173 0.
0.509349 0.0685377 0.
0.511676 0.0698844 0.
0.514048 0.0712369 0.
0.516461 0.0725854 0.
0.518925 0.0739335 0.
0.521421 0.0752722 0.
0.523947 0.0765678 0.
0.52651 0.0778025 0.
0.529098 0.0790246 0.
0.531699 0.0802393 0.
0.534314 0.0814105 0.
0.536937 0.0825279 0.
0.539579 0.083616 0.
0.542227 0.084672 0.
0.544879 0.0856511 0.
0.547538 0.0865911 0.
0.550191 0.0875313 0.
0.552843 0.0884413 0.
0.555506 0.0893049 0.
0.558165 0.0901634 0.
0.560808 0.0909722 0.
0.563454 0.09171 0.
0.566085 0.0924461 0.
0.568694 0.0931872 0.
0.571297 0.0938681 0.
0.573873 0.0944942 0.
0.576452 0.0951338 0.
0.579011 0.0956779 0.
0.581564 0.0961765 0.
0.584101 0.0966233 0.
0.586629 0.0971294 0.
0.58913 0.0976004 0.
0.591334 0.097647 0.
0.593539 0.0976936 0.
0.59574 0.0977101 0.
0.597936 0.0977131 0.
0.600133 0.0977152 0.
0.602328 0.0976779 0.
0.604522 0.0976405 0.
0.606724 0.0975891 0.
0.608932 0.0975156 0.
0.611142 0.0974377 0.
0.613749 0.096782 0.
0.616349 0.0961644 0.
0.618947 0.0956318 0.
0.621548 0.0950518 0.
0.624155 0.0944382 0.
0.626757 0.0938279 0.
0.629361 0.0931983 0.
0.631974 0.092477 0.
0.634587 0.0917017 0.
0.637213 0.0909392 0.
0.639859 0.0901706 0.
0.642509 0.0893466 0.
0.64517 0.088491 0.
0.647836 0.0875868 0.
0.650492 0.0866228 0.
0.653147 0.0856159 0.
0.655812 0.0846068 0.
0.658462 0.0835653 0.
0.661103 0.0824666 0.
0.663727 0.0813283 0.
0.66634 0.0801671 0.
0.668941 0.0789791 0.
0.671512 0.0777661 0.
0.674062 0.0765302 0.
0.676585 0.0752631 0.
0.679075 0.0739453 0.
0.68152 0.0726281 0.
0.683933 0.0713044 0.
0.686304 0.0699698 0.
0.688647 0.0686169 0.
0.690952 0.0672462 0.
0.693216 0.0658245 0.
0.695455 0.0643596 0.
0.697648 0.0628821 0.
0.699808 0.0613896 0.
0.70194 0.0598794 0.
0.70405 0.0583538 0.
0.706148 0.0568189 0.
0.708247 0.0552881 0.
0.710352 0.0537721 0.
0.712481 0.0522674 0.
0.714641 0.0508449 0.
0.716837 0.0496187 0.
0.719062 0.0486597 0.
CELLS 5000 10000
1 0
1 1
1 2
1 3
1 4
1 5
1 6
1 7
1 8
1 9
1 10
1 11
1 12
1 13
1 14
1 15
1 16
1 17
1 18
1 19
1 20
1 21
1 22
1 23
1 24
1 25
1 26
1 27
1 28
1 29
1 30
1 31
1 32
1 33
1 34
1 35
1 36
1 37
1 38
1 39
1 40
1 41
1 42
1 43
1 44
1 45
1 46
1 47
1 48
1 49
1 50
1 51
1 52
1 53
1 54
1 55
1 56
1 57
1 58
1 59
1 60
1 61
1 62
1 63
1 64
1 65
1 66
1 67
1 68
1 69
1 70
1 71
1 72
1 73
1 74
1 75
1 76
1 77
1 78
1 79
1 80
1 81
1 82
1 83
1 84
1 85
1 86
1 87
1 88
1 89
1 90
1 91
1 92
1 93
1 94
1 95
1 96
1 97
1 98
1 99
1 100
1 101
1 102
1 103
1 104
1 105
1 106
1 107
1 108
1 109
1 110
1 111
1 112
1 113
1 114
1 115
1 116
1 117
1 118
1 119
1 120
1 121
1 122
1 123
1 124
1 125
1 126
1 127
1 128
1 129
1 130
1 131
1 132
1 133
1 134
1 135
1 136
1 137
1 138
1 139
1 140
1 141
1 142
1 143
1 144
1 145
1 146
1 147
1 148
1 149
1 150
1 151
1 152
1 153
1 154
1 155
1 156
1 157
1 158
1 159
1 160
1 161
1 162
1 163
1 164
1 165
1 166
1 167
1 168
1 169
1 170
1 171
1 172
1 173
1 174
1 175
1 176
1 177
1 178
1 179
1 180
1 181
1 182
1 183
1 184
1 185
1 186
1 187
1 188
1 189
1 190
1 191
1 192
1 193
1 194
1 195
1 196
1 197
1 198
1 199
1 200
1 201
1 202
1 203
1 204
1 205
1 206
1 207
1 208
1 209
1 210
1 211
1 212
1 213
1 214
1 215
1 216
1 217
1 218
1 219
1 220
1 221
1 222
1 223
1 224
1 225
1 226
1 227
1 228
1 229
1 230
1 231
1 232
1 233
1 234
1 235
1 236
1 237
1 238
1 239
1 240
1 241
1 242
1 243
1 244
1 245
1 246
1 247
1 248
1 249
1 250
1 251
1 252
1 253
1 254
1 255
1 256
1 257
1 258
1 259
1 260
1 261
1 262
1 263
1 264
1 265
1 266
1 267
1 268
1 269
1 270
1 271
1 272
1 273
1 274
1 275
1 276
1 277
1 278
1 279
1 280
1 281
1 282
1 283
1 284
1 285
1 286
1 287
1 288
1 289
1 290
1 291
1 292
1 293
1 294
1 295
1 296
1 297
1 298
1 299
1 300
1 301
1 302
1 303
1 304
1 305
1 306
1 307
1 308
1 309
1 310
1 311
1 312
1 313
1 314
1 315
1 316
1 317
1 318
1 319
1 320
1 321
1 322
1 323
1 324
1 325
1 326
1 327
1 328
1 329
1 330
1 331
1 332
1 333
1 334
1 335
1 336
1 337
1 338
1 339
1 340
1 341
1 342
1 343
1 344
1 345
1 346
1 347
1 348
1 349
1 350
1 351
1 352
1 353
1 354
1 355
1 356
1 357
1 358
1 359
1 360
1 361
1 362
1 363
1 364
1 365
1 366
1 367
1 368
1 369
1 370
1 371
1 372
1 373
1 374
1 375
1 376
1 377
1 378
1 379
1 380
1 381
1 382
1 383
1 384
1 385
1 386
1 387
1 388
1 389
1 390
1 391
1 392
1 393
1 394
1 395
1 396
1 397
1 398
1 399
1 400
1 401
1 402
1 403
1 404
1 405
1 406
1 407
1 408
1 409
1 410
1 411
1 412
1 413
1 414
1 415
1 416
1 417
1 418
1 419
1 420
1 421
1 422
1 423
1 424
1 425
1 426
1 427
1 428
1 429
1 430
1 431
1 432
1 433
1 434
1 435
1 436
1 437
1 438
1 439
1 440
1 441
1 442
1 443
1 444
1 445
1 446
1 447
1 448
1 449
1 450
1 451
1 452
1 453
1 454
1 455
1 456
1 457
1 458
1 459
1 460
1 461
1 462
1 463
1 464
1 465
1 466
1 467
1 468
1 469
1 470
1 471
1 472
1 473
1 474
1 475
1 476
1 477
1 478
1 479
1 480
1 481
1 482
1 483
1 484
1 485
1 486
1 487
1 488
1 489
1 490
1 491
1 492
1 493
1 494
1 495
1 496
1 497
1 498
1 499
1 500
1 501
1 502
1 503
1 504
1 505
1 506
1 507
1 508
1 509
1 510
1 511
1 512
1 513
1 514
1 515
1 516
1 517
1 518
1 519
1 520
1 521
1 522
1 523
1 524
1 525
1 526
1 527
1 528
1 529
1 530
1 531
1 532
1 533
1 534
1 535
1 536
1 537
1 538
1 539
1 540
1 541
1 542
1 543
1 544
1 545
1 546
1 547
1 548
1 549
1 550
1 551
1 552
1 553
1 554
1 555
1 556
1 557
1 558
1 559
1 560
1 561
1 562
1 563
1 564
1 565
1 566
1 567
1 568
1 569
1 570
1 571
1 572
1 573
1 574
1 575
1 576
1 577
1 578
1 579
1 580
1 581
1 582
1 583
1 584
1 585
1 586
1 587
1 588
1 589
1 590
1 591
1 592
1 593
1 594
1 595
1 596
1 597
1 598
1 599
1 600
1 601
1 602
1 603
1 604
1 605
1 606
1 607
1 608
1 609
1 610
1 611
1 612
1 613
1 614
1 615
1 616
1 617
1 618
1 619
1 620
1 621
1 622
1 623
1 624
1 625
1 626
1 627
1 628
1 629
1 630
1 631
1 632
1 633
1 634
1 635
1 636
1 637
1 638
1 639
1 640
1 641
1 642
1 643
1 644
1 645
1 646
1 647
1 648
1 649
1 650
1 651
1 652
1 653
1 654
1 655
1 656
1 657
1 658
1 659
1 660
1 661
1 662
1 663
1 664
1 665
1 666
1 667
1 668
1 669
1 670
1 671
1 672
1 673
1 674
1 675
1 676
1 677
1 678
1 679
1 680
1 681
1 682
1 683
1 684
1 685
1 686
1 687
1 688
1 689
1 690
1 691
1 692
1 693
1 694
1 695
1 696
1 697
1 698
1 699
1 700
1 701
1 702
1 703
1 704
1 705
1 706
1 707
1 708
1 709
1 710
1 711
1 712
1 713
1 714
1 715
1 716
1 717
1 718
1 719
1 720
1 721
1 722
1 723
1 724
1 725
1 726
1 727
1 728
1 729
1 730
1 731
1 732
1 733
1 734
1 735
1 736
1 737
1 738
1 739
1 740
1 741
1 742
1 743
1 744
1 745
1 746
1 747
1 748
1 749
1 750
1 751
1 752
1 753
1 754
1 755
1 756
1 757
1 758
1 759
1 760
1 761
1 762
1 763
1 764
1 765
1 766
1 767
1 768
1 769
1 770
1 771
1 772
1 773
1 774
1 775
1 776
1 777
1 778
1 779
1 780
1 781
1 782
1 783
1 784
1 785
1 786
1 787
1 788
1 789
1 790
1 791
1 792
1 793
1 794
1 795
1 796
1 797
1 798
1 799
1 800
1 801
1 802
1 803
1 804
1 805
1 806
1 807
1 808
1 809
1 810
1 811
1 812
1 813
1 814
1 815
1 816
1 817
1 818
1 819
1 820
1 821
1 822
1 823
1 824
1 825
1 826
1 827
1 828
1 829
1 830
1 831
1 832
1 833
1 834
1 835
1 836
1 837
1 838
1 839
1 840
1 841
1 842
1 843
1 844
1 845
1 846
1 847
1 848
1 849
1 850
1 851
1 852
1 853
1 854
1 855
1 856
1 857
1 858
1 859
1 860
1 861
1 862
1 863
1 864
1 865
1 866
1 867
1 868
1 869
1 870
1 871
1 872
1 873
1 874
1 875
1 876
1 877
1 878
1 879
1 880
1 881
1 882
1 883
1 884
1 885
1 886
1 887
1 888
1 889
1 890
1 891
1 892
1 893
1 894
1 895
1 896
1 897
1 898
1 899
1 900
1 901
1 902
1 903
1 904
1 905
1 906
1 907
1 908
1 909
1 910
1 911
1 912
1 913
1 914
1 915
1 916
1 917
1 918
1 919
1 920
1 921
1 922
1 923
1 924
1 925
1 926
1 927
1 928
1 929
1 930
1 931
1 932
1 933
1 934
1 935
1 936
1 937
1 938
1 939
1 940
1 941
1 942
1 943
1 944
1 945
1 946
1 947
1 948
1 949
1 950
1 951
1 952
1 953
1 954
1 955
1 956
1 957
1 958
1 959
1 960
1 961
1 962
1 963
1 964
1 965
1 966
1 967
1 968
1 969
1 970
1 971
1 972
1 973
1 974
1 975
1 976
1 977
1 978
1 979
1 980
1 981
1 982
1 983
1 984
1 985
1 986
1 987
1 988
1 989
1 990
1 991
1 992
1 993
1 994
1 995
1 996
1 997
1 998
1 999
1 1000
1 1001
1 1002
1 1003
1 1004
1 1005
1 1006
1 1007
1 1008
1 1009
1 1010
1 1011
1 1012
1 1013
1 1014
1 1015
1 1016
1 1017
1 1018
1 1019
1 1020
1 1021
1 1022
1 1023
1 1024
1 1025
1 1026
1 1027
1 1028
1 1029
1 1030
1 1031
1 1032
1 1033
1 1034
1 1035
1 1036
1 1037
1 1038
1 1039
1 1040
1 1041
1 1042
1 1043
1 1044
1 1045
1 1046
1 1047
1 1048
1 1049
1 1050
1 1051
1 1052
1 1053
1 1054
1 1055
1 1056
1 1057
1 1058
1 1059
1 1060
1 1061
1 1062
1 1063
1 1064
1 1065
1 1066
1 1067
1 1068
1 1069
1 1070
1 1071
1 1072
1 1073
1 1074
1 1075
1 1076
1 1077
1 1078
1 1079
1 1080
1 1081
1 1082
1 1083
1 1084
1 1085
1 1086
1 1087
1 1088
1 1089
1 1090
1 1091
1 1092
1 1093
1 1094
1 1095
1 1096
1 1097
1 1098
1 1099
1 1100
1 1101
1 1102
1 1103
1 1104
1 1105
1 1106
1 1107
1 1108
1 1109
1 1110
1 1111
1 1112
1 1113
1 1114
1 1115
1 1116
1 1117
1 1118
1 1119
1 1120
1 1121
1 1122
1 1123
1 1124
1 1125
1 1126
1 1127
1 1128
1 1129
1 1130
1 1131
1 1132
1 1133
1 1134
1 1135
1 1136
1 1137
1 1138
1 1139
1 1140
1 1141
1 1142
1 1143
1 1144
1 1145
1 1146
1 1147
1 1148
1 1149
1 1150
1 1151
1 1152
1 1153
1 1154
1 1155
1 1156
1 1157
1 1158
1 1159
1 1160
1 1161
1 1162
1 1163
1 1164
1 1165
1 1166
1 1167
1 1168
1 1169
1 1170
1 1171
1 1172
1 1173
1 1174
1 1175
1 1176
1 1177
1 1178
1 1179
1 1180
1 1181
1 1182
1 1183
1 1184
1 1185
1 1186
1 1187
1 1188
1 1189
1 1190
1 1191
1 1192
1 1193
1 1194
1 1195
1 1196
1 1197
1 1198
1 1199
1 1200
1 1201
1 1202
1 1203
1 1204
1 1205
1 1206
1 1207
1 1208
1 1209
1 1210
1 1211
1 1212
1 1213
1 1214
1 1215
1 1216
1 1217
1 1218
1 1219
1 1220
1 1221
1 1222
1 1223
1 1224
1 1225
1 1226
1 1227
1 1228
1 1229
1 1230
1 1231
1 1232
1 1233
1 1234
1 1235
1 1236
1 1237
1 1238
1 1239
1 1240
1 1241
1 1242
1 1243
1 1244
1 1245
1 1246
1 1247
1 1248
1 1249
1 1250
1 1251
1 1252
1 1253
1 1254
1 1255
1 1256
1 1257
1 1258
1 1259
1 1260
1 1261
1 1262
1 1263
1 1264
1 1265
1 1266
1 1267
1 1268
1 1269
1 1270
1 1271
1 1272
1 1273
1 1274
1 1275
1 1276
1 1277
1 1278
1 1279
1 1280
1 1281
1 1282
1 1283
1 1284
1 1285
1 1286
1 1287
1 1288
1 1289
1 1290
1 1291
1 1292
1 1293
1 1294
1 1295
1 1296
1 1297
1 1298
1 1299
1 1300
1 1301
1 1302
1 1303
1 1304
1 1305
1 1306
1 1307
1 1308
1 1309
1 1310
1 1311
1 1312
1 1313
1 1314
1 1315
1 1316
1 1317
1 1318
1 1319
1 1320
1 1321
1 1322
1 1323
1 1324
1 1325
1 1326
1 1327
1 1328
1 1329
1 1330
1 1331
1 1332
1 1333
1 1334
1 1335
1 1336
1 1337
1 1338
1 1339
1 1340
1 1341
1 1342
1 1343
1 1344
1 1345
1 1346
1 1347
1 1348
1 1349
1 1350
1 1351
1 1352
1 1353
1 1354
1 1355
1 1356
1 1357
1 1358
1 1359
1 1360
1 1361
1 1362
1 1363
1 1364
1 1365
1 1366
1 1367
1 1368
1 1369
1 1370
1 1371
1 1372
1 1373
1 1374
1 1375
1 1376
1 1377
1 1378
1 1379
1 1380
1 1381
1 1382
1 1383
1 1384
1 1385
1 1386
1 1387
1 1388
1 1389
1 1390
1 1391
1 1392
1 1393
1 1394
1 1395
1 1396
1 1397
1 1398
1 1399
1 1400
1 1401
1 1402
1 1403
1 1404
1 1405
1 1406
1 1407
1 1408
1 1409
1 1410
1 1411
1 1412
1 1413
1 1414
1 1415
1 1416
1 1417
1 1418
1 1419
1 1420
1 1421
1 1422
1 1423
1 1424
1 1425
1 1426
1 1427
1 1428
1 1429
1 1430
1 1431
1 1432
1 1433
1 1434
1 1435
1 1436
1 1437
1 1438
1 1439
1 1440
1 1441
1 1442
1 1443
1 1444
1 1445
1 1446
1 1447
1 1448
1 1449
1 1450
1 1451
1 1452
1 1453
1 1454
1 1455
1 1456
1 1457
1 1458
1 1459
1 1460
1 1461
1 1462
1 1463
1 1464
1 1465
1 1466
1 1467
1 1468
1 1469
1 1470
1 1471
1 1472
1 1473
1 1474
1 1475
1 1476
1 1477
1 1478
1 1479
1 1480
1 1481
1 1482
1 1483
1 1484
1 1485
1 1486
1 1487
1 1488
1 1489
1 1490
1 1491
1 1492
1 1493
1 1494
1 1495
1 1496
1 1497
1 1498
1 1499
1 1500
1 1501
1 1502
1 1503
1 1504
1 1505
1 1506
1 1507
1 1508
1 1509
1 1510
1 1511
1 1512
1 1513
1 1514
1 1515
1 1516
1 1517
1 1518
1 1519
1 1520
1 1521
1 1522
1 1523
1 1524
1 1525
1 1526
1 1527
1 1528
1 1529
1 1530
1 1531
1 1532
1 1533
1 1534
1 1535
1 1536
1 1537
1 1538
1 1539
1 1540
1 1541
1 1542
1 1543
1 1544
1 1545
1 1546
1 1547
1 1548
1 1549
1 1550
1 1551
1 1552
1 1553
1 1554
1 1555
1 1556
1 1557
1 1558
1 1559
1 1560
1 1561
1 1562
1 1563
1 1564
1 1565
1 1566
1 1567
1 1568
1 1569
1 1570
1 1571
1 1572
1 1573
1 1574
1 1575
1 1576
1 1577
1 1578
1 1579
1 1580
1 1581
1 1582
1 1583
1 1584
1 1585
1 1586
1 1587
1 1588
1 1589
1 1590
1 1591
1 1592
1 1593
1 1594
1 1595
1 1596
1 1597
1 1598
1 1599
1 1600
1 1601
1 1602
1 1603
1 1604
1 1605
1 1606
1 1607
1 1608
1 1609
1 1610
1 1611
1 1612
1 1613
1 1614
1 1615
1 1616
1 1617
1 1618
1 1619
1 1620
1 1621
1 1622
1 1623
1 1624
1 1625
1 1626
1 1627
1 1628
1 1629
1 1630
1 1631
1 1632
1 1633
1 1634
1 1635
1 1636
1 1637
1 1638
1 1639
1 1640
1 1641
1 1642
1 1643
1 1644
1 1645
1 1646
1 1647
1 1648
1 1649
1 1650
1 1651
1 1652
1 1653
1 1654
1 1655
1 1656
1 1657
1 1658
1 1659
1 1660
1 1661
1 1662
1 1663
1 1664
1 1665
1 1666
1 1667
1 1668
1 1669
1 1670
1 1671
1 1672
1 1673
1 1674
1 1675
1 1676
1 1677
1 1678
1 1679
1 1680
1 1681
1 1682
1 1683
1 1684
1 1685
1 1686
1 1687
1 1688
1 1689
1 1690
1 1691
1 1692
1 1693
1 1694
1 1695
1 1696
1 1697
1 1698
1 1699
1 1700
1 1701
1 1702
1 1703
1 1704
1 1705
1 1706
1 1707
1 1708
1 1709
1 1710
1 1711
1 1712
1 1713
1 1714
1 1715
1 1716
1 1717
1 1718
1 1719
1 1720
1 1721
1 1722
1 1723
1 1724
1 1725
1 1726
1 1727
1 1728
1 1729
1 1730
1 1731
1 1732
1 1733
1 1734
1 1735
1 1736
1 1737
1 1738
1 1739
1 1740
1 1741
1 1742
1 1743
1 1744
1 1745
1 1746
1 1747
1 1748
1 1749
1 1750
1 1751
1 1752
1 1753
1 1754
1 1755
1 1756
1 1757
1 1758
1 1759
1 1760
1 1761
1 1762
1 1763
1 1764
1 1765
1 1766
1 1767
1 1768
1 1769
1 1770
1 1771
1 1772
1 1773
1 1774
1 1775
1 1776
1 1777
1 1778
1 1779
1 1780
1 1781
1 1782
1 1783
1 1784
1 1785
1 1786
1 1787
1 1788
1 1789
1 1790
1 1791
1 1792
1 1793
1 1794
1 1795
1 1796
1 1797
1 1798
1 1799
1 1800
1 1801
1 1802
1 1803
1 1804
1 1805
1 1806
1 1807
1 1808
1 1809
1 1810
1 1811
1 1812
1 1813
1 1814
1 1815
1 1816
1 1817
1 1818
1 1819
1 1820
1 1821
1 1822
1 1823
1 1824
1 1825
1 1826
1 1827
1 1828
1 1829
1 1830
1 1831
1 1832
1 1833
1 1834
1 1835
1 1836
1 1837
1 1838
1 1839
1 1840
1 1841
1 1842
1 1843
1 1844
1 1845
1 1846
1 1847
1 1848
1 1849
1 1850
1 1851
1 1852
1 1853
1 1854
1 1855
1 1856
1 1857
1 1858
1 1859
1 1860
1 1861
1 1862
1 1863
1 1864
1 1865
1 1866
1 1867
1 1868
1 1869
1 1870
1 1871
1 1872
1 1873
1 1874
1 1875
1 1876
1 1877
1 1878
1 1879
1 1880
1 1881
1 1882
1 1883
1 1884
1 1885
1 1886
1 1887
1 1888
1 1889
1 1890
1 1891
1 1892
1 1893
1 1894
1 1895
1 1896
1 1897
1 1898
1 1899
1 1900
1 1901
1 1902
1 1903
1 1904
1 1905
1 1906
1 1907
1 1908
1 1909
1 1910
1 1911
1 1912
1 1913
1 1914
1 1915
1 1916
1 1917
1 1918
1 1919
1 1920
1 1921
1 1922
1 1923
1 1924
1 1925
1 1926
1 1927
1 1928
1 1929
1 1930
1 1931
1 1932
1 1933
1 1934
1 1935
1 1936
1 1937
1 1938
1 1939
1 1940
1 1941
1 1942
1 1943
1 1944
1 1945
1 1946
1 1947
1 1948
1 1949
1 1950
1 1951
1 1952
1 1953
1 1954
1 1955
1 1956
1 1957
1 1958
1 1959
1 1960
1 1961
1 1962
1 1963
1 1964
1 1965
1 1966
1 1967
1 1968
1 1969
1 1970
1 1971
1 1972
1 1973
1 1974
1 1975
1 1976
1 1977
1 1978
1 1979
1 1980
1 1981
1 1982
1 1983
1 1984
1 1985
1 1986
1 1987
1 1988
1 1989
1 1990
1 1991
1 1992
1 1993
1 1994
1 1995
1 1996
1 1997
1 1998
1 1999
1 2000
1 2001
1 2002
1 2003
1 2004
1 2005
1 2006
1 2007
1 2008
1 2009
1 2010
1 2011
1 2012
1 2013
1 2014
1 2015
1 2016
1 2017
1 2018
1 2019
1 2020
1 2021
1 2022
1 2023
1 2024
1 2025
1 2026
1 2027
1 2028
1 2029
1 2030
1 2031
1 2032
1 2033
1 2034
1 2035
1 2036
1 2037
1 2038
1 2039
1 2040
1 2041
1 2042
1 2043
1 2044
1 2045
1 2046
1 2047
1 2048
1 2049
1 2050
1 2051
1 2052
1 2053
1 2054
1 2055
1 2056
1 2057
1 2058
1 2059
1 2060
1 2061
1 2062
1 2063
1 2064
1 2065
1 2066
1 2067
1 2068
1 2069
1 2070
1 2071
1 2072
1 2073
1 2074
1 2075
1 2076
1 2077
1 2078
1 2079
1 2080
1 2081
1 2082
1 2083
1 2084
1 2085
1 2086
1 2087
1 2088
1 2089
1 2090
1 2091
1 2092
1 2093
1 2094
1 2095
1 2096
1 2097
1 2098
1 2099
1 2100
1 2101
1 2102
1 2103
1 2104
1 2105
1 2106
1 2107
1 2108
1 2109
1 2110
1 2111
1 2112
1 2113
1 2114
1 2115
1 2116
1 2117
1 2118
1 2119
1 2120
1 2121
1 2122
1 2123
1 2124
1 2125
1 2126
1 2127
1 2128
1 2129
1 2130
1 2131
1 2132
1 2133
1 2134
1 2135
1 2136
1 2137
1 2138
1 2139
1 2140
1 2141
1 2142
1 2143
1 2144
1 2145
1 2146
1 2147
1 2148
1 2149
1 2150
1 2151
1 2152
1 2153
1 2154
1 2155
1 2156
1 2157
1 2158
1 2159
1 2160
1 2161
1 2162
1 2163
1 2164
1 2165
1 2166
1 2167
1 2168
1 2169
1 2170
1 2171
1 2172
1 2173
1 2174
1 2175
1 2176
1 2177
1 2178
1 2179
1 2180
1 2181
1 2182
1 2183
1 2184
1 2185
1 2186
1 2187
1 2188
1 2189
1 2190
1 2191
1 2192
1 2193
1 2194
1 2195
1 2196
1 2197
1 2198
1 2199
1 2200
1 2201
1 2202
1 2203
1 2204
1 2205
1 2206
1 2207
1 2208
1 2209
1 2210
1 2211
1 2212
1 2213
1 2214
1 2215
1 2216
1 2217
1 2218
1 2219
1 2220
1 2221
1 2222
1 2223
1 2224
1 2225
1 2226
1 2227
1 2228
1 2229
1 2230
1 2231
1 2232
1 2233
1 2234
1 2235
1 2236
1 2237
1 2238
1 2239
1 2240
1 2241
1 2242
1 2243
1 2244
1 2245
1 2246
1 2247
1 2248
1 2249
1 2250
1 2251
1 2252
1 2253
1 2254
1 2255
1 2256
1 2257
1 2258
1 2259
1 2260
1 2261
1 2262
1 2263
1 2264
1 2265
1 2266
1 2267
1 2268
1 2269
1 2270
1 2271
1 2272
1 2273
1 2274
1 2275
1 2276
1 2277
1 2278
1 2279
1 2280
1 2281
1 2282
1 2283
1 2284
1 2285
1 2286
1 2287
1 2288
1 2289
1 2290
1 2291
1 2292
1 2293
1 2294
1 2295
1 2296
1 2297
1 2298
1 2299
1 2300
1 2301
1 2302
1 2303
1 2304
1 2305
1 2306
1 2307
1 2308
1 2309
1 2310
1 2311
1 2312
1 2313
1 2314
1 2315
1 2316
1 2317
1 2318
1 2319
1 2320
1 2321
1 2322
1 2323
1 2324
1 2325
1 2326
1 2327
1 2328
1 2329
1 2330
1 2331
1 2332
1 2333
1 2334
1 2335
1 2336
1 2337
1 2338
1 2339
1 2340
1 2341
1 2342
1 2343
1 2344
1 2345
1 2346
1 2347
1 2348
1 2349
1 2350
1 2351
1 2352
1 2353
1 2354
1 2355
1 2356
1 2357
1 2358
1 2359
1 2360
1 2361
1 2362
1 2363
1 2364
1 2365
1 2366
1 2367
1 2368
1 2369
1 2370
1 2371
1 2372
1 2373
1 2374
1 2375
1 2376
1 2377
1 2378
1 2379
1 2380
1 2381
1 2382
1 2383
1 2384
1 2385
1 2386
1 2387
1 2388
1 2389
1 2390
1 2391
1 2392
1 2393
1 2394
1 2395
1 2396
1 2397
1 2398
1 2399
1 2400
1 2401
1 2402
1 2403
1 2404
1 2405
1 2406
1 2407
1 2408
1 2409
1 2410
1 2411
1 2412
1 2413
1 2414
1 2415
1 2416
1 2417
1 2418
1 2419
1 2420
1 2421
1 2422
1 2423
1 2424
1 2425
1 2426
1 2427
1 2428
1 2429
1 2430
1 2431
1 2432
1 2433
1 2434
1 2435
1 2436
1 2437
1 2438
1 2439
1 2440
1 2441
1 2442
1 2443
1 2444
1 2445
1 2446
1 2447
1 2448
1 2449
1 2450
1 2451
1 2452
1 2453
1 2454
1 2455
1 2456
1 2457
1 2458
1 2459
1 2460
1 2461
1 2462
1 2463
1 2464
1 2465
1 2466
1 2467
1 2468
1 2469
1 2470
1 2471
1 2472
1 2473
1 2474
1 2475
1 2476
1 2477
1 2478
1 2479
1 2480
1 2481
1 2482
1 2483
1 2484
1 2485
1 2486
1 2487
1 2488
1 2489
1 2490
1 2491
1 2492
1 2493
1 2494
1 2495
1 2496
1 2497
1 2498
1 2499
1 2500
1 2501
1 2502
1 2503
1 2504
1 2505
1 2506
1 2507
1 2508
1 2509
1 2510
1 2511
1 2512
1 2513
1 2514
1 2515
1 2516
1 2517
1 2518
1 2519
1 2520
1 2521
1 2522
1 2523
1 2524
1 2525
1 2526
1 2527
1 2528
1 2529
1 2530
1 2531
1 2532
1 2533
1 2534
1 2535
1 2536
1 2537
1 2538
1 2539
1 2540
1 2541
1 2542
1 2543
1 2544
1 2545
1 2546
1 2547
1 2548
1 2549
1 2550
1 2551
1 2552
1 2553
1 2554
1 2555
1 2556
1 2557
1 2558
1 2559
1 2560
1 2561
1 2562
1 2563
1 2564
1 2565
1 2566
1 2567
1 2568
1 2569
1 2570
1 2571
1 2572
1 2573
1 2574
1 2575
1 2576
1 2577
1 2578
1 2579
1 2580
1 2581
1 2582
1 2583
1 2584
1 2585
1 2586
1 2587
1 2588
1 2589
1 2590
1 2591
1 2592
1 2593
1 2594
1 2595
1 2596
1 2597
1 2598
1 2599
1 2600
1 2601
1 2602
1 2603
1 2604
1 2605
1 2606
1 2607
1 2608
1 2609
1 2610
1 2611
1 2612
1 2613
1 2614
1 2615
1 2616
1 2617
1 2618
1 2619
1 2620
1 2621
1 2622
1 2623
1 2624
1 2625
1 2626
1 2627
1 2628
1 2629
1 2630
1 2631
1 2632
1 2633
1 2634
1 2635
1 2636
1 2637
1 2638
1 2639
1 2640
1 2641
1 2642
1 2643
1 2644
1 2645
1 2646
1 2647
1 2648
1 2649
1 2650
1 2651
1 2652
1 2653
1 2654
1 2655
1 2656
1 2657
1 2658
1 2659
1 2660
1 2661
1 2662
1 2663
1 2664
1 2665
1 2666
1 2667
1 2668
1 2669
1 2670
1 2671
1 2672
1 2673
1 2674
1 2675
1 2676
1 2677
1 2678
1 2679
1 2680
1 2681
1 2682
1 2683
1 2684
1 2685
1 2686
1 2687
1 2688
1 2689
1 2690
1 2691
1 2692
1 2693
1 2694
1 2695
1 2696
1 2697
1 2698
1 2699
1 2700
1 2701
1 2702
1 2703
1 2704
1 2705
1 2706
1 2707
1 2708
1 2709
1 2710
1 2711
1 2712
1 2713
1 2714
1 2715
1 2716
1 2717
1 2718
1 2719
1 2720
1 2721
1 2722
1 2723
1 2724
1 2725
1 2726
1 2727
1 2728
1 2729
1 2730
1 2731
1 2732
1 2733
1 2734
1 2735
1 2736
1 2737
1 2738
1 2739
1 2740
1 2741
1 2742
1 2743
1 2744
1 2745
1 2746
1 2747
1 2748
1 2749
1 2750
1 2751
1 2752
1 2753
1 2754
1 2755
1 2756
1 2757
1 2758
1 2759
1 2760
1 2761
1 2762
1 2763
1 2764
1 2765
1 2766
1 2767
1 2768
1 2769
1 2770
1 2771
1 2772
1 2773
1 2774
1 2775
1 2776
1 2777
1 2778
1 2779
1 2780
1 2781
1 2782
1 2783
1 2784
1 2785
1 2786
1 2787
1 2788
1 2789
1 2790
1 2791
1 2792
1 2793
1 2794
1 2795
1 2796
1 2797
1 2798
1 2799
1 2800
1 2801
1 2802
1 2803
1 2804
1 2805
1 2806
1 2807
1 2808
1 2809
1 2810
1 2811
1 2812
1 2813
1 2814
1 2815
1 2816
1 2817
1 2818
1 2819
1 2820
1 2821
1 2822
1 2823
1 2824
1 2825
1 2826
1 2827
1 2828
1 2829
1 2830
1 2831
1 2832
1 2833
1 2834
1 2835
1 2836
1 2837
1 2838
1 2839
1 2840
1 2841
1 2842
1 2843
1 2844
1 2845
1 2846
1 2847
1 2848
1 2849
1 2850
1 2851
1 2852
1 2853
1 2854
1 2855
1 2856
1 2857
1 2858
1 2859
1 2860
1 2861
1 2862
1 2863
1 2864
1 2865
1 2866
1 2867
1 2868
1 2869
1 2870
1 2871
1 2872
1 2873
1 2874
1 2875
1 2876
1 2877
1 2878
1 2879
1 2880
1 2881
1 2882
1 2883
1 2884
1 2885
1 2886
1 2887
1 2888
1 2889
1 2890
1 2891
1 2892
1 2893
1 2894
1 2895
1 2896
1 2897
1 2898
1 2899
1 2900
1 2901
1 2902
1 2903
1 2904
1 2905
1 2906
1 2907
1 2908
1 2909
1 2910
1 2911
1 2912
1 2913
1 2914
1 2915
1 2916
1 2917
1 2918
1 2919
1 2920
1 2921
1 2922
1 2923
1 2924
1 2925
1 2926
1 2927
1 2928
1 2929
1 2930
1 2931
1 2932
1 2933
1 2934
1 2935
1 2936
1 2937
1 2938
1 2939
1 2940
1 2941
1 2942
1 2943
1 2944
1 2945
1 2946
1 2947
1 2948
1 2949
1 2950
1 2951
1 2952
1 2953
1 2954
1 2955
1 2956
1 2957
1 2958
1 2959
1 2960
1 2961
1 2962
1 2963
1 2964
1 2965
1 2966
1 2967
1 2968
1 2969
1 2970
1 2971
1 2972
1 2973
1 2974
1 2975
1 2976
1 2977
1 2978
1 2979
1 2980
1 2981
1 2982
1 2983
1 2984
1 2985
1 2986
1 2987
1 2988
1 2989
1 2990
1 2991
1 2992
1 2993
1 2994
1 2995
1 2996
1 2997
1 2998
1 2999
1 3000
1 3001
1 3002
1 3003
1 3004
1 3005
1 3006
1 3007
1 3008
1 3009
1 3010
1 3011
1 3012
1 3013
1 3014
1 3015
1 3016
1 3017
1 3018
1 3019
1 3020
1 3021
1 3022
1 3023
1 3024
1 3025
1 3026
1 3027
1 3028
1 3029
1 3030
1 3031
1 3032
1 3033
1 3034
1 3035
1 3036
1 3037
1 3038
1 3039
1 3040
1 3041
1 3042
1 3043
1 3044
1 3045
1 3046
1 3047
1 3048
1 3049
1 3050
1 3051
1 3052
1 3053
1 3054
1 3055
1 3056
1 3057
1 3058
1 3059
1 3060
1 3061
1 3062
1 3063
1 3064
1 3065
1 3066
1 3067
1 3068
1 3069
1 3070
1 3071
1 3072
1 3073
1 3074
1 3075
1 3076
1 3077
1 3078
1 3079
1 3080
1 3081
1 3082
1 3083
1 3084
1 3085
1 3086
1 3087
1 3088
1 3089
1 3090
1 3091
1 3092
1 3093
1 3094
1 3095
1 3096
1 3097
1 3098
1 3099
1 3100
1 3101
1 3102
1 3103
1 3104
1 3105
1 3106
1 3107
1 3108
1 3109
1 3110
1 3111
1 3112
1 3113
1 3114
1 3115
1 3116
1 3117
1 3118
1 3119
1 3120
1 3121
1 3122
1 3123
1 3124
1 3125
1 3126
1 3127
1 3128
1 3129
1 3130
1 3131
1 3132
1 3133
1 3134
1 3135
1 3136
1 3137
1 3138
1 3139
1 3140
1 3141
1 3142
1 3143
1 3144
1 3145
1 3146
1 3147
1 3148
1 3149
1 3150
1 3151
1 3152
1 3153
1 3154
1 3155
1 3156
1 3157
1 3158
1 3159
1 3160
1 3161
1 3162
1 3163
1 3164
1 3165
1 3166
1 3167
1 3168
1 3169
1 3170
1 3171
1 3172
1 3173
1 3174
1 3175
1 3176
1 3177
1 3178
1 3179
1 3180
1 3181
1 3182
1 3183
1 3184
1 3185
1 3186
1 3187
1 3188
1 3189
1 3190
1 3191
1 3192
1 3193
1 3194
1 3195
1 3196
1 3197
1 3198
1 3199
1 3200
1 3201
1 3202
1 3203
1 3204
1 3205
1 3206
1 3207
1 3208
1 3209
1 3210
1 3211
1 3212
1 3213
1 3214
1 3215
1 3216
1 3217
1 3218
1 3219
1 3220
1 3221
1 3222
1 3223
1 3224
1 3225
1 3226
1 3227
1 3228
1 3229
1 3230
1 3231
1 3232
1 3233
1 3234
1 3235
1 3236
1 3237
1 3238
1 3239
1 3240
1 3241
1 3242
1 3243
1 3244
1 3245
1 3246
1 3247
1 3248
1 3249
1 3250
1 3251
1 3252
1 3253
1 3254
1 3255
1 3256
1 3257
1 3258
1 3259
1 3260
1 3261
1 3262
1 3263
1 3264
1 3265
1 3266
1 3267
1 3268
1 3269
1 3270
1 3271
1 3272
1 3273
1 3274
1 3275
1 3276
1 3277
1 3278
1 3279
1 3280
1 3281
1 3282
1 3283
1 3284
1 3285
1 3286
1 3287
1 3288
1 3289
1 3290
1 3291
1 3292
1 3293
1 3294
1 3295
1 3296
1 3297
1 3298
1 3299
1 3300
1 3301
1 3302
1 3303
1 3304
1 3305
1 3306
1 3307
1 3308
1 3309
1 3310
1 3311
1 3312
1 3313
1 3314
1 3315
1 3316
1 3317
1 3318
1 3319
1 3320
1 3321
1 3322
1 3323
1 3324
1 3325
1 3326
1 3327
1 3328
1 3329
1 3330
1 3331
1 3332
1 3333
1 3334
1 3335
1 3336
1 3337
1 3338
1 3339
1 3340
1 3341
1 3342
1 3343
1 3344
1 3345
1 3346
1 3347
1 3348
1 3349
1 3350
1 3351
1 3352
1 3353
1 3354
1 3355
1 3356
1 3357
1 3358
1 3359
1 3360
1 3361
1 3362
1 3363
1 3364
1 3365
1 3366
1 3367
1 3368
1 3369
1 3370
1 3371
1 3372
1 3373
1 3374
1 3375
1 3376
1 3377
1 3378
1 3379
1 3380
1 3381
1 3382
1 3383
1 3384
1 3385
1 3386
1 3387
1 3388
1 3389
1 3390
1 3391
1 3392
1 3393
1 3394
1 3395
1 3396
1 3397
1 3398
1 3399
1 3400
1 3401
1 3402
1 3403
1 3404
1 3405
1 3406
1 3407
1 3408
1 3409
1 3410
1 3411
1 3412
1 3413
1 3414
1 3415
1 3416
1 3417
1 3418
1 3419
1 3420
1 3421
1 3422
1 3423
1 3424
1 3425
1 3426
1 3427
1 3428
1 3429
1 3430
1 3431
1 3432
1 3433
1 3434
1 3435
1 3436
1 3437
1 3438
1 3439
1 3440
1 3441
1 3442
1 3443
1 3444
1 3445
1 3446
1 3447
1 3448
1 3449
1 3450
1 3451
1 3452
1 3453
1 3454
1 3455
1 3456
1 3457
1 3458
1 3459
1 3460
1 3461
1 3462
1 3463
1 3464
1 3465
1 3466
1 3467
1 3468
1 3469
1 3470
1 3471
1 3472
1 3473
1 3474
1 3475
1 3476
1 3477
1 3478
1 3479
1 3480
1 3481
1 3482
1 3483
1 3484
1 3485
1 3486
1 3487
1 3488
1 3489
1 3490
1 3491
1 3492
1 3493
1 3494
1 3495
1 3496
1 3497
1 3498
1 3499
1 3500
1 3501
1 3502
1 3503
1 3504
1 3505
1 3506
1 3507
1 3508
1 3509
1 3510
1 3511
1 3512
1 3513
1 3514
1 3515
1 3516
1 3517
1 3518
1 3519
1 3520
1 3521
1 3522
1 3523
1 3524
1 3525
1 3526
1 3527
1 3528
1 3529
1 3530
1 3531
1 3532
1 3533
1 3534
1 3535
1 3536
1 3537
1 3538
1 3539
1 3540
1 3541
1 3542
1 3543
1 3544
1 3545
1 3546
1 3547
1 3548
1 3549
1 3550
1 3551
1 3552
1 3553
1 3554
1 3555
1 3556
1 3557
1 3558
1 3559
1 3560
1 3561
1 3562
1 3563
1 3564
1 3565
1 3566
1 3567
1 3568
1 3569
1 3570
1 3571
1 3572
1 3573
1 3574
1 3575
1 3576
1 3577
1 3578
1 3579
1 3580
1 3581
1 3582
1 3583
1 3584
1 3585
1 3586
1 3587
1 3588
1 3589
1 3590
1 3591
1 3592
1 3593
1 3594
1 3595
1 3596
1 3597
1 3598
1 3599
1 3600
1 3601
1 3602
1 3603
1 3604
1 3605
1 3606
1 3607
1 3608
1 3609
1 3610
1 3611
1 3612
1 3613
1 3614
1 3615
1 3616
1 3617
1 3618
1 3619
1 3620
1 3621
1 3622
1 3623
1 3624
1 3625
1 3626
1 3627
1 3628
1 3629
1 3630
1 3631
1 3632
1 3633
1 3634
1 3635
1 3636
1 3637
1 3638
1 3639
1 3640
1 3641
1 3642
1 3643
1 3644
1 3645
1 3646
1 3647
1 3648
1 3649
1 3650
1 3651
1 3652
1 3653
1 3654
1 3655
1 3656
1 3657
1 3658
1 3659
1 3660
1 3661
1 3662
1 3663
1 3664
1 3665
1 3666
1 3667
1 3668
1 3669
1 3670
1 3671
1 3672
1 3673
1 3674
1 3675
1 3676
1 3677
1 3678
1 3679
1 3680
1 3681
1 3682
1 3683
1 3684
1 3685
1 3686
1 3687
1 3688
1 3689
1 3690
1 3691
1 3692
1 3693
1 3694
1 3695
1 3696
1 3697
1 3698
1 3699
1 3700
1 3701
1 3702
1 3703
1 3704
1 3705
1 3706
1 3707
1 3708
1 3709
1 3710
1 3711
1 3712
1 3713
1 3714
1 3715
1 3716
1 3717
1 3718
1 3719
1 3720
1 3721
1 3722
1 3723
1 3724
1 3725
1 3726
1 3727
1 3728
1 3729
1 3730
1 3731
1 3732
1 3733
1 3734
1 3735
1 3736
1 3737
1 3738
1 3739
1 3740
1 3741
1 3742
1 3743
1 3744
1 3745
1 3746
1 3747
1 3748
1 3749
1 3750
1 3751
1 3752
1 3753
1 3754
1 3755
1 3756
1 3757
1 3758
1 3759
1 3760
1 3761
1 3762
1 3763
1 3764
1 3765
1 3766
1 3767
1 3768
1 3769
1 3770
1 3771
1 3772
1 3773
1 3774
1 3775
1 3776
1 3777
1 3778
1 3779
1 3780
1 3781
1 3782
1 3783
1 3784
1 3785
1 3786
1 3787
1 3788
1 3789
1 3790
1 3791
1 3792
1 3793
1 3794
1 3795
1 3796
1 3797
1 3798
1 3799
1 3800
1 3801
1 3802
1 3803
1 3804
1 3805
1 3806
1 3807
1 3808
1 3809
1 3810
1 3811
1 3812
1 3813
1 3814
1 3815
1 3816
1 3817
1 3818
1 3819
1 3820
1 3821
1 3822
1 3823
1 3824
1 3825
1 3826
1 3827
1 3828
1 3829
1 3830
1 3831
1 3832
1 3833
1 3834
1 3835
1 3836
1 3837
1 3838
1 3839
1 3840
1 3841
1 3842
1 3843
1 3844
1 3845
1 3846
1 3847
1 3848
1 3849
1 3850
1 3851
1 3852
1 3853
1 3854
1 3855
1 3856
1 3857
1 3858
1 3859
1 3860
1 3861
1 3862
1 3863
1 3864
1 3865
1 3866
1 3867
1 3868
1 3869
1 3870
1 3871
1 3872
1 3873
1 3874
1 3875
1 3876
1 3877
1 3878
1 3879
1 3880
1 3881
1 3882
1 3883
1 3884
1 3885
1 3886
1 3887
1 3888
1 3889
1 3890
1 3891
1 3892
1 3893
1 3894
1 3895
1 3896
1 3897
1 3898
1 3899
1 3900
1 3901
1 3902
1 3903
1 3904
1 3905
1 3906
1 3907
1 3908
1 3909
1 3910
1 3911
1 3912
1 3913
1 3914
1 3915
1 3916
1 3917
1 3918
1 3919
1 3920
1 3921
1 3922
1 3923
1 3924
1 3925
1 3926
1 3927
1 3928
1 3929
1 3930
1 3931
1 3932
1 3933
1 3934
1 3935
1 3936
1 3937
1 3938
1 3939
1 3940
1 3941
1 3942
1 3943
1 3944
1 3945
1 3946
1 3947
1 3948
1 3949
1 3950
1 3951
1 3952
1 3953
1 3954
1 3955
1 3956
1 3957
1 3958
1 3959
1 3960
1 3961
1 3962
1 3963
1 3964
1 3965
1 3966
1 3967
1 3968
1 3969
1 3970
1 3971
1 3972
1 3973
1 3974
1 3975
1 3976
1 3977
1 3978
1 3979
1 3980
1 3981
1 3982
1 3983
1 3984
1 3985
1 3986
1 3987
1 3988
1 3989
1 3990
1 3991
1 3992
1 3993
1 3994
1 3995
1 3996
1 3997
1 3998
1 3999
1 4000
1 4001
1 4002
1 4003
1 4004
1 4005
1 4006
1 4007
1 4008
1 4009
1 4010
1 4011
1 4012
1 4013
1 4014
1 4015
1 4016
1 4017
1 4018
1 4019
1 4020
1 4021
1 4022
1 4023
1 4024
1 4025
1 4026
1 4027
1 4028
1 4029
1 4030
1 4031
1 4032
1 4033
1 4034
1 4035
1 4036
1 4037
1 4038
1 4039
1 4040
1 4041
1 4042
1 4043
1 4044
1 4045
1 4046
1 4047
1 4048
1 4049
1 4050
1 4051
1 4052
1 4053
1 4054
1 4055
1 4056
1 4057
1 4058
1 4059
1 4060
1 4061
1 4062
1 4063
1 4064
1 4065
1 4066
1 4067
1 4068
1 4069
1 4070
1 4071
1 4072
1 4073
1 4074
1 4075
1 4076
1 4077
1 4078
1 4079
1 4080
1 4081
1 4082
1 4083
1 4084
1 4085
1 4086
1 4087
1 4088
1 4089
1 4090
1 4091
1 4092
1 4093
1 4094
1 4095
1 4096
1 4097
1 4098
1 4099
1 4100
1 4101
1 4102
1 4103
1 4104
1 4105
1 4106
1 4107
1 4108
1 4109
1 4110
1 4111
1 4112
1 4113
1 4114
1 4115
1 4116
1 4117
1 4118
1 4119
1 4120
1 4121
1 4122
1 4123
1 4124
1 4125
1 4126
1 4127
1 4128
1 4129
1 4130
1 4131
1 4132
1 4133
1 4134
1 4135
1 4136
1 4137
1 4138
1 4139
1 4140
1 4141
1 4142
1 4143
1 4144
1 4145
1 4146
1 4147
1 4148
1 4149
1 4150
1 4151
1 4152
1 4153
1 4154
1 4155
1 4156
1 4157
1 4158
1 4159
1 4160
1 4161
1 4162
1 4163
1 4164
1 4165
1 4166
1 4167
1 4168
1 4169
1 4170
1 4171
1 4172
1 4173
1 4174
1 4175
1 4176
1 4177
1 4178
1 4179
1 4180
1 4181
1 4182
1 4183
1 4184
1 4185
1 4186
1 4187
1 4188
1 4189
1 4190
1 4191
1 4192
1 4193
1 4194
1 4195
1 4196
1 4197
1 4198
1 4199
1 4200
1 4201
1 4202
1 4203
1 4204
1 4205
1 4206
1 4207
1 4208
1 4209
1 4210
1 4211
1 4212
1 4213
1 4214
1 4215
1 4216
1 4217
1 4218
1 4219
1 4220
1 4221
1 4222
1 4223
1 4224
1 4225
1 4226
1 4227
1 4228
1 4229
1 4230
1 4231
1 4232
1 4233
1 4234
1 4235
1 4236
1 4237
1 4238
1 4239
1 4240
1 4241
1 4242
1 4243
1 4244
1 4245
1 4246
1 4247
1 4248
1 4249
1 4250
1 4251
1 4252
1 4253
1 4254
1 4255
1 4256
1 4257
1 4258
1 4259
1 4260
1 4261
1 4262
1 4263
1 4264
1 4265
1 4266
1 4267
1 4268
1 4269
1 4270
1 4271
1 4272
1 4273
1 4274
1 4275
1 4276
1 4277
1 4278
1 4279
1 4280
1 4281
1 4282
1 4283
1 4284
1 4285
1 4286
1 4287
1 4288
1 4289
1 4290
1 4291
1 4292
1 4293
1 4294
1 4295
1 4296
1 4297
1 4298
1 4299
1 4300
1 4301
1 4302
1 4303
1 4304
1 4305
1 4306
1 4307
1 4308
1 4309
1 4310
1 4311
1 4312
1 4313
1 4314
1 4315
1 4316
1 4317
1 4318
1 4319
1 4320
1 4321
1 4322
1 4323
1 4324
1 4325
1 4326
1 4327
1 4328
1 4329
1 4330
1 4331
1 4332
1 4333
1 4334
1 4335
1 4336
1 4337
1 4338
1 4339
1 4340
1 4341
1 4342
1 4343
1 4344
1 4345
1 4346
1 4347
1 4348
1 4349
1 4350
1 4351
1 4352
1 4353
1 4354
1 4355
1 4356
1 4357
1 4358
1 4359
1 4360
1 4361
1 4362
1 4363
1 4364
1 4365
1 4366
1 4367
1 4368
1 4369
1 4370
1 4371
1 4372
1 4373
1 4374
1 4375
1 4376
1 4377
1 4378
1 4379
1 4380
1 4381
1 4382
1 4383
1 4384
1 4385
1 4386
1 4387
1 4388
1 4389
1 4390
1 4391
1 4392
1 4393
1 4394
1 4395
1 4396
1 4397
1 4398
1 4399
1 4400
1 4401
1 4402
1 4403
1 4404
1 4405
1 4406
1 4407
1 4408
1 4409
1 4410
1 4411
1 4412
1 4413
1 4414
1 4415
1 4416
1 4417
1 4418
1 4419
1 4420
1 4421
1 4422
1 4423
1 4424
1 4425
1 4426
1 4427
1 4428
1 4429
1 4430
1 4431
1 4432
1 4433
1 4434
1 4435
1 4436
1 4437
1 4438
1 4439
1 4440
1 4441
1 4442
1 4443
1 4444
1 4445
1 4446
1 4447
1 4448
1 4449
1 4450
1 4451
1 4452
1 4453
1 4454
1 4455
1 4456
1 4457
1 4458
1 4459
1 4460
1 4461
1 4462
1 4463
1 4464
1 4465
1 4466
1 4467
1 4468
1 4469
1 4470
1 4471
1 4472
1 4473
1 4474
1 4475
1 4476
1 4477
1 4478
1 4479
1 4480
1 4481
1 4482
1 4483
1 4484
1 4485
1 4486
1 4487
1 4488
1 4489
1 4490
1 4491
1 4492
1 4493
1 4494
1 4495
1 4496
1 4497
1 4498
1 4499
1 4500
1 4501
1 4502
1 4503
1 4504
1 4505
1 4506
1 4507
1 4508
1 4509
1 4510
1 4511
1 4512
1 4513
1 4514
1 4515
1 4516
1 4517
1 4518
1 4519
1 4520
1 4521
1 4522
1 4523
1 4524
1 4525
1 4526
1 4527
1 4528
1 4529
1 4530
1 4531
1 4532
1 4533
1 4534
1 4535
1 4536
1 4537
1 4538
1 4539
1 4540
1 4541
1 4542
1 4543
1 4544
1 4545
1 4546
1 4547
1 4548
1 4549
1 4550
1 4551
1 4552
1 4553
1 4554
1 4555
1 4556
1 4557
1 4558
1 4559
1 4560
1 4561
1 4562
1 4563
1 4564
1 4565
1 4566
1 4567
1 4568
1 4569
1 4570
1 4571
1 4572
1 4573
1 4574
1 4575
1 4576
1 4577
1 4578
1 4579
1 4580
1 4581
1 4582
1 4583
1 4584
1 4585
1 4586
1 4587
1 4588
1 4589
1 4590
1 4591
1 4592
1 4593
1 4594
1 4595
1 4596
1 4597
1 4598
1 4599
1 4600
1 4601
1 4602
1 4603
1 4604
1 4605
1 4606
1 4607
1 4608
1 4609
1 4610
1 4611
1 4612
1 4613
1 4614
1 4615
1 4616
1 4617
1 4618
1 4619
1 4620
1 4621
1 4622
1 4623
1 4624
1 4625
1 4626
1 4627
1 4628
1 4629
1 4630
1 4631
1 4632
1 4633
1 4634
1 4635
1 4636
1 4637
1 4638
1 4639
1 4640
1 4641
1 4642
1 4643
1 4644
1 4645
1 4646
1 4647
1 4648
1 4649
1 4650
1 4651
1 4652
1 4653
1 4654
1 4655
1 4656
1 4657
1 4658
1 4659
1 4660
1 4661
1 4662
1 4663
1 4664
1 4665
1 4666
1 4667
1 4668
1 4669
1 4670
1 4671
1 4672
1 4673
1 4674
1 4675
1 4676
1 4677
1 4678
1 4679
1 4680
1 4681
1 4682
1 4683
1 4684
1 4685
1 4686
1 4687
1 4688
1 4689
1 4690
1 4691
1 4692
1 4693
1 4694
1 4695
1 4696
1 4697
1 4698
1 4699
1 4700
1 4701
1 4702
1 4703
1 4704
1 4705
1 4706
1 4707
1 4708
1 4709
1 4710
1 4711
1 4712
1 4713
1 4714
1 4715
1 4716
1 4717
1 4718
1 4719
1 4720
1 4721
1 4722
1 4723
1 4724
1 4725
1 4726
1 4727
1 4728
1 4729
1 4730
1 4731
1 4732
1 4733
1 4734
1 4735
1 4736
1 4737
1 4738
1 4739
1 4740
1 4741
1 4742
1 4743
1 4744
1 4745
1 4746
1 4747
1 4748
1 4749
1 4750
1 4751
1 4752
1 4753
1 4754
1 4755
1 4756
1 4757
1 4758
1 4759
1 4760
1 4761
1 4762
1 4763
1 4764
1 4765
1 4766
1 4767
1 4768
1 4769
1 4770
1 4771
1 4772
1 4773
1 4774
1 4775
1 4776
1 4777
1 4778
1 4779
1 4780
1 4781
1 4782
1 4783
1 4784
1 4785
1 4786
1 4787
1 4788
1 4789
1 4790
1 4791
1 4792
1 4793
1 4794
1 4795
1 4796
1 4797
1 4798
1 4799
1 4800
1 4801
1 4802
1 4803
1 4804
1 4805
1 4806
1 4807
1 4808
1 4809
1 4810
1 4811
1 4812
1 4813
1 4814
1 4815
1 4816
1 4817
1 4818
1 4819
1 4820
1 4821
1 4822
1 4823
1 4824
1 4825
1 4826
1 4827
1 4828
1 4829
1 4830
1 4831
1 4832
1 4833
1 4834
1 4835
1 4836
1 4837
1 4838
1 4839
1 4840
1 4841
1 4842
1 4843
1 4844
1 4845
1 4846
1 4847
1 4848
1 4849
1 4850
1 4851
1 4852
1 4853
1 4854
1 4855
1 4856
1 4857
1 4858
1 4859
1 4860
1 4861
1 4862
1 4863
1 4864
1 4865
1 4866
1 4867
1 4868
1 4869
1 4870
1 4871
1 4872
1 4873
1 4874
1 4875
1 4876
1 4877
1 4878
1 4879
1 4880
1 4881
1 4882
1 4883
1 4884
1 4885
1 4886
1 4887
1 4888
1 4889
1 4890
1 4891
1 4892
1 4893
1 4894
1 4895
1 4896
1 4897
1 4898
1 4899
1 4900
1 4901
1 4902
1 4903
1 4904
1 4905
1 4906
1 4907
1 4908
1 4909
1 4910
1 4911
1 4912
1 4913
1 4914
1 4915
1 4916
1 4917
1 4918
1 4919
1 4920
1 4921
1 4922
1 4923
1 4924
1 4925
1 4926
1 4927
1 4928
1 4929
1 4930
1 4931
1 4932
1 4933
1 4934
1 4935
1 4936
1 4937
1 4938
1 4939
1 4940
1 4941
1 4942
1 4943
1 4944
1 4945
1 4946
1 4947
1 4948
1 4949
1 4950
1 4951
1 4952
1 4953
1 4954
1 4955
1 4956
1 4957
1 4958
1 4959
1 4960
1 4961
1 4962
1 4963
1 4964
1 4965
1 4966
1 4967
1 4968
1 4969
1 4970
1 4971
1 4972
1 4973
1 4974
1 4975
1 4976
1 4977
1 4978
1 4979
1 4980
1 4981
1 4982
1 4983
1 4984
1 4985
1 4986
1 4987
1 4988
1 4989
1 4990
1 4991
1 4992
1 4993
1 4994
1 4995
1 4996
1 4997
1 4998
1 4999
CELL_TYPES 5000
1 
1 
1 
1 
1 
1 
1 
1 
1 
1 
1 
1 
1 
1 
1 
1 
1 
1 
1 
1 
1 
1 
1 
1 
1 
1 
1 
1 
1 
1 
1 
1 
1 
1 
1 
1 
1 
1 
1 
1 
1 
1 
1 
1 
1 
1 
1 
1 
1 
1 
1 
1 
1 
1 
1 
1 
1 
1 
1 
1 
1 
1 
1 
1 
1 
1 
1 
1 
1 
1 
1 
1 
1 
1 
1 
1 
1 
1 
1 
1 
1 
1 
1 
1 
1 
1 
1 
1 
1 
1 
1 
1 
1 
1 
1 
1 
1 
1 
1 
1 
1 
1 
1 
1 
1 
1 
1 
1 
1 
1 
1 
1 
1 
1 
1 
1 
1 
1 
1 
1 
1 
1 
1 
1 
1 
1 
1 
1 
1 
1 
1 
1 
1 
1 
1 
1 
1 
1 
1 
1 
1 
1 
1 
1 
1 
1 
1 
1 
1 
1 
1 
1 
1 
1 
1 
1 
1 
1 
1 
1 
1 
1 
1 
1 
1 
1 
1 
1 
1 
1 
1 
1 
1 
1 
1 
1 
1 
1 
1 
1 
1 
1 
1 
1 
1 
1 
1 
1 
1 
1 
1 
1 
1 
1 
1 
1 
1 
1 
1 
1 
1 
1 
1 
1 
1 
1 
1 
1 
1 
1 
1 
1 
1 
1 
1 
1 
1 
1 
1 
1 
1 
1 
1 
1 
1 
1 
1 
1 
1 
1 
1 
1 
1 
1 
1 
1 
1 
1 
1 
1 
1 
1 
1 
1 
1 
1 
1 
1 
1 
1 
1 
1 
1 
1 
1 
1 
1 
1 
1 
1 
1 
1 
1 
1 
1 
1 
1 
1 
1 
1 
1 
1 
1 
1 
1 
1 
1 
1 
1 
1 
1 
1 
1 
1 
1 
1 
1 
1 
1 
1 
1 
1 
1 
1 
1 
1 
1 
1 
1 
1 
1 
1 
1 
1 
1 
1 
1 
1 
1 
1 
1 
1 
1 
1 
1 
1 
1 
1 
1 
1 
1 
1 
1 
1 
1 
1 
1 
1 
1 
1 
1 
1 
1 
1 
1 
1 
1 
1 
1 
1 
1 
1 
1 
1 
1 
1 
1 
1 
1 
1 
1 
1 
1 
1 
1 
1 
1 
1 
1 
1 
1 
1 
1 
1 
1 
1 
1 
1 
1 
1 
1 
1 
1 
1 
1 
1 
1 
1 
1 
1 
1 
1 
1 
1 
1 
1 
1 
1 
1 
1 
1 
1 
1 
1 
1 
1 
1 
1 
1 
1 
1 
1 
1 
1 
1 
1 
1 
1 
1 
1 
1 
1 
1 
1 
1 
1 
1 
1 
1 
1 
1 
1 
1 
1 
1 
1 
1 
1 
1 
1 
1 
1 
1 
1 
1 
1 
1 
1 
1 
1 
1 
1 
1 
1 
1 
1 
1 
1 
1 
1 
1 
1 
1 
1 
1 
1 
1 
1 
1 
1 
1 
1 
1 
1 
1 
1 
1 
1 
1 
1 
1 
1 
1 
1 
1 
1 
1 
1 
1 
1 
1 
1 
1 
1 
1 
1 
1 
1 
1 
1 
1 
1 
1 
1 
1 
1 
1 
1 
1 
1 
1 
1 
1 
1 
1 
1 
1 
1 
1 
1 
1 
1 
1 
1 
1 
1 
1 
1 
1 
1 
1 
1 
1 
1 
1 
1 
1 
1 
1 
1 
1 
1 
1 
1 
1 
1 
1 
1 
1 
1 
1 
1 
1 
1 
1 
1 
1 
1 
1 
1 
1 
1 
1 
1 
1 
1 
1 
1 
1 
1 
1 
1 
1 
1 
1 
1 
1 
1 
1 
1 
1 
1 
1 
1 
1 
1 
1 
1 
1 
1 
1 
1 
1 
1 
1 
1 
1 
1 
1 
1 
1 
1 
1 
1 
1 
1 
1 
1 
1 
1 
1 
1 
1 
1 
1 
1 
1 
1 
1 
1 
1 
1 
1 
1 
1 
1 
1 
1 
1 
1 
1 
1 
1 
1 
1 
1 
1 
1 
1 
1 
1 
1 
1 
1 
1 
1 
1 
1 
1 
1 
1 
1 
1 
1 
1 
1 
1 
1 
1 
1 
1 
1 
1 
1 
1 
1 
1 
1 
1 
1 
1 
1 
1 
1 
1 
1 
1 
1 
1 
1 
1 
1 
1 
1 
1 
1 
1 
1 
1 
1 
1 
1 
1 
1 
1 
1 
1 
1 
1 
1 
1 
1 
1 
1 
1 
1 
1 
1 
1 
1 
1 
1 
1 
1 
1 
1 
1 
1 
1 
1 
1 
1 
1 
1 
1 
1 
1 
1 
1 
1 
1 
1 
1 
1 
1 
1 
1 
1 
1 
1 
1 
1 
1 
1 
1 
1 
1 
1 
1 
1 
1 
1 
1 
1 
1 
1 
1 
1 
1 
1 
1 
1 
1 
1 
1 
1 
1 
1 
1 
1 
1 
1 
1 
1 
1 
1 
1 
1 
1 
1 
1 
1 
1 
1 
1 
1 
1 
1 
1 
1 
1 
1 
1 
1 
1 
1 
1 
1 
1 
1 
1 
1 
1 
1 
1 
1 
1 
1 
1 
1 
1 
1 
1 
1 
1 
1 
1 
1 
1 
1 
1 
1 
1 
1 
1 
1 
1 
1 
1 
1 
1 
1 
1 
1 
1 
1 
1 
1 
1 
1 
1 
1 
1 
1 
1 
1 
1 
1 
1 
1 
1 
1 
1 
1 
1 
1 
1 
1 
1 
1 
1 
1 
1 
1 
1 
1 
1 
1 
1 
1 
1 
1 
1 
1 
1 
1 
1 
1 
1 
1 
1 
1 
1 
1 
1 
1 
1 
1 
1 
1 
1 
1 
1 
1 
1 
1 
1 
1 
1 
1 
1 
1 
1 
1 
1 
1 
1 
1 
1 
1 
1 
1 
1 
1 
1 
1 
1 
1 
1 
1 
1 
1 
1 
1 
1 
1 
1 
1 
1 
1 
1 
1 
1 
1 
1 
1 
1 
1 
1 
1 
1 
1 
1 
1 
1 
1 
1 
1 
1 
1 
1 
1 
1 
1 
1 
1 
1 
1 
1 
1 
1 
1 
1 
1 
1 
1 
1 
1 
1 
1 
1 
1 
1 
1 
1 
1 
1 
1 
1 
1 
1 
1 
1 
1 
1 
1 
1 
1 
1 
1 
1 
1 
1 
1 
1 
1 
1 
1 
1 
1 
1 
1 
1 
1 
1 
1 
1 
1 
1 
1 
1 
1 
1 
1 
1 
1 
1 
1 
1 
1 
1 
1 
1 
1 
1 
1 
1 
1 
1 
1 
1 
1 
1 
1 
1 
1 
1 
1 
1 
1 
1 
1 
1 
1 
1 
1 
1 
1 
1 
1 
1 
1 
1 
1 
1 
1 
1 
1 
1 
1 
1 
1 
1 
1 
1 
1 
1 
1 
1 
1 
1 
1 
1 
1 
1 
1 
1 
1 
1 
1 
1 
1 
1 
1 
1 
1 
1 
1 
1 
1 
1 
1 
1 
1 
1 
1 
1 
1 
1 
1 
1 
1 
1 
1 
1 
1 
1 
1 
1 
1 
1 
1 
1 
1 
1 
1 
1 
1 
1 
1 
1 
1 
1 
1 
1 
1 
1 
1 
1 
1 
1 
1 
1 
1 
1 
1 
1 
1 
1 
1 
1 
1 
1 
1 
1 
1 
1 
1 
1 
1 
1 
1 
1 
1 
1 
1 
1 
1 
1 
1 
1 
1 
1 
1 
1 
1 
1 
1 
1 
1 
1 
1 
1 
1 
1 
1 
1 
1 
1 
1 
1 
1 
1 
1 
1 
1 
1 
1 
1 
1 
1 
1 
1 
1 
1 
1 
1 
1 
1 
1 
1 
1 
1 
1 
1 
1 
1 
1 
1 
1 
1 
1 
1 
1 
1 
1 
1 
1 
1 
1 
1 
1 
1 
1 
1 
1 
1 
1 
1 
1 
1 
1 
1 
1 
1 
1 
1 
1 
1 
1 
1 
1 
1 
1 
1 
1 
1 
1 
1 
1 
1 
1 
1 
1 
1 
1 
1 
1 
1 
1 
1 
1 
1 
1 
1 
1 
1 
1 
1 
1 
1 
1 
1 
1 
1 
1 
1 
1 
1 
1 
1 
1 
1 
1 
1 
1 
1 
1 
1 
1 
1 
1 
1 
1 
1 
1 
1 
1 
1 
1 
1 
1 
1 
1 
1 
1 
1 
1 
1 
1 
1 
1 
1 
1 
1 
1 
1 
1 
1 
1 
1 
1 
1 
1 
1 
1 
1 
1 
1 
1 
1 
1 
1 
1 
1 
1 
1 
1 
1 
1 
1 
1 
1 
1 
1 
1 
1 
1 
1 
1 
1 
1 
1 
1 
1 
1 
1 
1 
1 
1 
1 
1 
1 
1 
1 
1 
1 
1 
1 
1 
1 
1 
1 
1 
1 
1 
1 
1 
1 
1 
1 
1 
1 
1 
1 
1 
1 
1 
1 
1 
1 
1 
1 
1 
1 
1 
1 
1 
1 
1 
1 
1 
1 
1 
1 
1 
1 
1 
1 
1 
1 
1 
1 
1 
1 
1 
1 
1 
1 
1 
1 
1 
1 
1 
1 
1 
1 
1 
1 
1 
1 
1 
1 
1 
1 
1 
1 
1 
1 
1 
1 
1 
1 
1 
1 
1 
1 
1 
1 
1 
1 
1 
1 
1 
1 
1 
1 
1 
1 
1 
1 
1 
1 
1 
1 
1 
1 
1 
1 
1 
1 
1 
1 
1 
1 
1 
1 
1 
1 
1 
1 
1 
1 
1 
1 
1 
1 
1 
1 
1 
1 
1 
1 
1 
1 
1 
1 
1 
1 
1 
1 
1 
1 
1 
1 
1 
1 
1 
1 
1 
1 
1 
1 
1 
1 
1 
1 
1 
1 
1 
1 
1 
1 
1 
1 
1 
1 
1 
1 
1 
1 
1 
1 
1 
1 
1 
1 
1 
1 
1 
1 
1 
1 
1 
1 
1 
1 
1 
1 
1 
1 
1 
1 
1 
1 
1 
1 
1 
1 
1 
1 
1 
1 
1 
1 
1 
1 
1 
1 
1 
1 
1 
1 
1 
1 
1 
1 
1 
1 
1 
1 
1 
1 
1 
1 
1 
1 
1 
1 
1 
1 
1 
1 
1 
1 
1 
1 
1 
1 
1 
1 
1 
1 
1 
1 
1 
1 
1 
1 
1 
1 
1 
1 
1 
1 
1 
1 
1 
1 
1 
1 
1 
1 
1 
1 
1 
1 
1 
1 
1 
1 
1 
1 
1 
1 
1 
1 
1 
1 
1 
1 
1 
1 
1 
1 
1 
1 
1 
1 
1 
1 
1 
1 
1 
1 
1 
1 
1 
1 
1 
1 
1 
1 
1 
1 
1 
1 
1 
1 
1 
1 
1 
1 
1 
1 
1 
1 
1 
1 
1 
1 
1 
1 
1 
1 
1 
1 
1 
1 
1 
1 
1 
1 
1 
1 
1 
1 
1 
1 
1 
1 
1 
1 
1 
1 
1 
1 
1 
1 
1 
1 
1 
1 
1 
1 
1 
1 
1 
1 
1 
1 
1 
1 
1 
1 
1 
1 
1 
1 
1 
1 
1 
1 
1 
1 
1 
1 
1 
1 
1 
1 
1 
1 
1 
1 
1 
1 
1 
1 
1 
1 
1 
1 
1 
1 
1 
1 
1 
1 
1 
1 
1 
1 
1 
1 
1 
1 
1 
1 
1 
1 
1 
1 
1 
1 
1 
1 
1 
1 
1 
1 
1 
1 
1 
1 
1 
1 
1 
1 
1 
1 
1 
1 
1 
1 
1 
1 
1 
1 
1 
1 
1 
1 
1 
1 
1 
1 
1 
1 
1 
1 
1 
1 
1 
1 
1 
1 
1 
1 
1 
1 
1 
1 
1 
1 
1 
1 
1 
1 
1 
1 
1 
1 
1 
1 
1 
1 
1 
1 
1 
1 
1 
1 
1 
1 
1 
1 
1 
1 
1 
1 
1 
1 
1 
1 
1 
1 
1 
1 
1 
1 
1 
1 
1 
1 
1 
1 
1 
1 
1 
1 
1 
1 
1 
1 
1 
1 
1 
1 
1 
1 
1 
1 
1 
1 
1 
1 
1 
1 
1 
1 
1 
1 
1 
1 
1 
1 
1 
1 
1 
1 
1 
1 
1 
1 
1 
1 
1 
1 
1 
1 
1 
1 
1 
1 
1 
1 
1 
1 
1 
1 
1 
1 
1 
1 
1 
1 
1 
1 
1 
1 
1 
1 
1 
1 
1 
1 
1 
1 
1 
1 
1 
1 
1 
1 
1 
1 
1 
1 
1 
1 
1 
1 
1 
1 
1 
1 
1 
1 
1 
1 
1 
1 
1 
1 
1 
1 
1 
1 
1 
1 
1 
1 
1 
1 
1 
1 
1 
1 
1 
1 
1 
1 
1 
1 
1 
1 
1 
1 
1 
1 
1 
1 
1 
1 
1 
1 
1 
1 
1 
1 
1 
1 
1 
1 
1 
1 
1 
1 
1 
1 
1 
1 
1 
1 
1 
1 
1 
1 
1 
1 
1 
1 
1 
1 
1 
1 
1 
1 
1 
1 
1 
1 
1 
1 
1 
1 
1 
1 
1 
1 
1 
1 
1 
1 
1 
1 
1 
1 
1 
1 
1 
1 
1 
1 
1 
1 
1 
1 
1 
1 
1 
1 
1 
1 
1 
1 
1 
1 
1 
1 
1 
1 
1 
1 
1 
1 
1 
1 
1 
1 
1 
1 
1 
1 
1 
1 
1 
1 
1 
1 
1 
1 
1 
1 
1 
1 
1 
1 
1 
1 
1 
1 
1 
1 
1 
1 
1 
1 
1 
1 
1 
1 
1 
1 
1 
1 
1 
1 
1 
1 
1 
1 
1 
1 
1 
1 
1 
1 
1 
1 
1 
1 
1 
1 
1 
1 
1 
1 
1 
1 
1 
1 
1 
1 
1 
1 
1 
1 
1 
1 
1 
1 
1 
1 
1 
1 
1 
1 
1 
1 
1 
1 
1 
1 
1 
1 
1 
1 
1 
1 
1 
1 
1 
1 
1 
1 
1 
1 
1 
1 
1 
1 
1 
1 
1 
1 
1 
1 
1 
1 
1 
1 
1 
1 
1 
1 
1 
1 
1 
1 
1 
1 
1 
1 
1 
1 
1 
1 
1 
1 
1 
1 
1 
1 
1 
1 
1 
1 
1 
1 
1 
1 
1 
1 
1 
1 
1 
1 
1 
1 
1 
1 
1 
1 
1 
1 
1 
1 
1 
1 
1 
1 
1 
1 
1 
1 
1 
1 
1 
1 
1 
1 
1 
1 
1 
1 
1 
1 
1 
1 
1 
1 
1 
1 
1 
1 
1 
1 
1 
1 
1 
1 
1 
1 
1 
1 
1 
1 
1 
1 
1 
1 
1 
1 
1 
1 
1 
1 
1 
1 
1 
1 
1 
1 
1 
1 
1 
1 
1 
1 
1 
1 
1 
1 
1 
1 
1 
1 
1 
1 
1 
1 
1 
1 
1 
1 
1 
1 
1 
1 
1 
1 
1 
1 
1 
1 
1 
1 
1 
1 
1 
1 
1 
1 
1 
1 
1 
1 
1 
1 
1 
1 
1 
1 
1 
1 
1 
1 
1 
1 
1 
1 
1 
1 
1 
1 
1 
1 
1 
1 
1 
1 
1 
1 
1 
1 
1 
1 
1 
1 
1 
1 
1 
1 
1 
1 
1 
1 
1 
1 
1 
1 
1 
1 
1 
1 
1 
1 
1 
1 
1 
1 
1 
1 
1 
1 
1 
1 
1 
1 
1 
1 
1 
1 
1 
1 
1 
1 
1 
1 
1 
1 
1 
1 
1 
1 
1 
1 
1 
1 
1 
1 
1 
1 
1 
1 
1 
1 
1 
1 
1 
1 
1 
1 
1 
1 
1 
1 
1 
1 
1 
1 
1 
1 
1 
1 
1 
1 
1 
1 
1 
1 
1 
1 
1 
1 
1 
1 
1 
1 
1 
1 
1 
1 
1 
1 
1 
1 
1 
1 
1 
1 
1 
1 
1 
1 
1 
1 
1 
1 
1 
1 
1 
1 
1 
1 
1 
1 
1 
1 
1 
1 
1 
1 
1 
1 
1 
1 
1 
1 
1 
1 
1 
1 
1 
1 
1 
1 
1 
1 
1 
1 
1 
1 
1 
1 
1 
1 
1 
1 
1 
1 
1 
1 
1 
1 
1 
1 
1 
1 
1 
1 
1 
1 
1 
1 
1 
1 
1 
1 
1 
1 
1 
1 
1 
1 
1 
1 
1 
1 
1 
1 
1 
1 
1 
1 
1 
1 
1 
1 
1 
1 
1 
1 
1 
1 
1 
1 
1 
1 
1 
1 
1 
1 
1 
1 
1 
1 
1 
1 
1 
1 
1 
1 
1 
1 
1 
1 
1 
1 
1 
1 
1 
1 
1 
1 
1 
1 
1 
1 
1 
1 
1 
1 
1 
1 
1 
1 
1 
1 
1 
1 
1 
1 
1 
1 
1 
1 
1 
1 
1 
1 
1 
1 
1 
1 
1 
1 
1 
1 
1 
1 
1 
1 
1 
1 
1 
1 
1 
1 
1 
1 
1 
1 
1 
1 
1 
1 
1 
1 
1 
1 
1 
1 
1 
1 
1 
1 
1 
1 
1 
1 
1 
1 
1 
1 
1 
1 
1 
1 
1 
1 
1 
1 
1 
1 
1 
1 
1 
1 
1 
1 
1 
1 
1 
1 
1 
1 
1 
1 
1 
1 
1 
1 
1 
1 
1 
1 
1 
1 
1 
1 
1 
1 
1 
1 
1 
1 
1 
1 
1 
1 
1 
1 
1 
1 
1 
1 
1 
1 
1 
1 
1 
1 
1 
1 
1 
1 
1 
1 
1 
1 
1 
1 
1 
1 
1 
1 
1 
1 
1 
1 
1 
1 
1 
1 
1 
1 
1 
1 
1 
1 
1 
1 
1 
1 
1 
1 
1 
1 
1 
1 
1 
1 
1 
1 
1 
1 
1 
1 
1 
1 
1 
1 
1 
1 
1 
1 
1 
1 
1 
1 
1 
1 
1 
1 
1 
1 
1 
1 
1 
1 
1 
1 
1 
1 
1 
1 
1 
1 
1 
1 
1 
1 
1 
1 
1 
1 
1 
1 
1 
1 
1 
1 
1 
1 
1 
1 
1 
1 
1 
1 
1 
1 
1 
1 
1 
1 
1 
1 
1 
1 
1 
1 
1 
1 
1 
1 
1 
1 
1 
1 
1 
1 
1 
1 
1 
1 
1 
1 
1 
1 
1 
1 
1 
1 
1 
1 
1 
1 
1 
1 
1 
1 
1 
1 
1 
1 
1 
1 
1 
1 
1 
1 
1 
1 
1 
1 
1 
1 
1 
1 
1 
1 
1 
1 
1 
1 
1 
1 
1 
1 
1 
1 
1 
1 
1 
1 
1 
1 
1 
1 
1 
1 
1 
1 
1 
1 
1 
1 
1 
1 
1 
1 
1 
1 
1 
1 
1 
1 
1 
1 
1 
1 
1 
1 
1 
1 
1 
1 
1 
1 
1 
1 
1 
1 
1 
1 
1 
1 
1 
1 
1 
1 
1 
1 
1 
1 
1 
1 
1 
1 
1 
1 
1 
1 
1 
1 
1 
1 
1 
1 
1 
1 
1 
1 
1 
1 
1 
1 
1 
1 
1 
1 
1 
1 
1 
1 
1 
1 
1 
1 
1 
1 
1 
1 
1 
1 
1 
1 
1 
1 
1 
1 
1 
1 
1 
1 
1 
1 
1 
1 
1 
1 
1 
1 
1 
1 
1 
1 
1 
1 
1 
1 
1 
1 
1 
1 
1 
1 
1 
1 
1 
1 
1 
1 
1 
1 
1 
1 
1 
1 
1 
1 
1 
1 
1 
1 
1 
1 
1 
1 
1 
1 
1 
1 
1 
1 
1 
1 
1 
1 
1 
1 
1 
1 
1 
1 
1 
1 
1 
1 
1 
1 
1 
1 
1 
1 
1 
1 
1 
1 
1 
1 
1 
1 
1 
1 
1 
1 
1 
1 
1 
1 
1 
1 
1 
1 
1 
1 
1 
1 
1 
1 
1 
1 
1 
1 
1 
1 
1 
1 
1 
1 
1 
1 
1 
1 
1 
1 
1 
1 
1 
1 
1 
1 
1 
1 
1 
1 
1 
1 
1 
1 
1 
1 
1 
1 
1 
1 
1 
1 
1 
1 
1 
1 
1 
1 
1 
1 
1 
1 
1 
1 
1 
1 
1 
1 
1 
1 
1 
1 
1 
1 
1 
1 
1 
1 
1 
1 
1 
1 
1 
1 
1 
1 
1 
1 
1 
1 
1 
1 
1 
1 
1 
1 
1 
1 
1 
1 
1 
1 
1 
1 
1 
1 
1 
1 
1 
1 
1 
1 
1 
1 
1 
1 
1 
1 
1 
1 
1 
1 
1 
1 
1 
1 
1 
1 
1 
1 
1 
1 
1 
1 
1 
1 
1 
1 
1 
1 
1 
1 
1 
1 
1 
1 
1 
1 
1 
1 
1 
1 
1 
1 
1 
1 
1 
1 
1 
1 
1 
1 
1 
1 
1 
1 
1 
1 
1 
1 
1 
1 
1 
1 
1 
1 
1 
1 
1 
1 
1 
1 
1 
1 
1 
1 
1 
1 
1 
1 
1 
1 
1 
1 
1 
1 
1 
1 
1 
1 
1 
1 
1 
1 
1 
1 
1 
1 
1 
1 
1 
1 
1 
1 
1 
1 
1 
1 
1 
1 
1 
1 
1 
1 
1 
1 
1 
1 
1 
1 
1 
1 
1 
1 
1 
1 
1 
1 
1 
1 
1 
1 
1 
1 
1 
1 
1 
1 
1 
1 
1 
1 
1 
1 
1 
1 
1 
1 
1 
1 
1 
1 
1 
1 
1 
1 
1 
1 
1 
1 
1 
1 
1 
1 
1 
1 
1 
1 
1 
1 
1 
1 
1 
1 
1 
1 
1 
1 
1 
1 
1 
1 
1 
1 
1 
1 
1 
1 
1 
1 
1 
1 
1 
1 
1 
1 
1 
1 
1 
1 
1 
1 
1 
1 
1 
1 
1 
1 
1 
1 
1 
1 
1 
1 
1 
1 
1 
1 
1 
1 
1 
1 
1 
1 
1 
1 
1 
1 
1 
1 
1 
1 
1 
1 
1 
1 
1 
1 
1 
1 
1 
1 
1 
1 
1 
1 
1 
1 
1 
1 
1 
1 
1 
1 
1 
1 
1 
1 
1 
1 
1 
1 
1 
1 
1 
1 
1 
1 
1 
1 
1 
1 
1 
1 
1 
1 
1 
1 
1 
1 
1 
1 
1 
1 
1 
1 
1 
1 
1 
1 
1 
1 
1 
1 
1 
1 
1 
1 
1 
1 
1 
1 
1 
1 
1 
1 
1 
1 
1 
1 
1 
1 
1 
1 
1 
1 
1 
1 
1 
1 
1 
1 
1 
1 
1 
1 
1 
1 
1 
1 
1 
1 
1 
1 
1 
1 
1 
1 
1 
1 
1 
1 
1 
1 
1 
1 
1 
1 
1 
1 
1 
1 
1 
1 
1 
1 
1 
1 
1 
1 
1 
1 
1 
1 
1 
1 
1 
1 
1 
1 
1 
1 
1 
1 
1 
1 
1 
1 
1 
1 
1 
1 
1 
1 
1 
1 
1 
1 
1 
1 
1 
1 
1 
1 
1 
1 
1 
1 
1 
1 
1 
1 
1 
1 
1 
1 
1 
1 
1 
1 
1 
1 
1 
1 
1 
1 
1 
1 
1 
1 
1 
1 
1 
1 
1 
1 
1 
1 
1 
1 
1 
1 
1 
1 
1 
1 
1 
1 
1 
1 
1 
1 
1 
1 
1 
1 
1 
1 
1 
1 
1 
1 
1 
1 
1 
1 
1 
1 
1 
1 
1 
1 
1 
1 
1 
1 
1 
1 
1 
1 
1 
1 
1 
1 
1 
1 
1 
1 
1 
1 
1 
1 
1 
1 
1 
1 
1 
1 
1 
1 
1 
1 
1 
1 
1 
1 
1 
1 
1 
1 
1 
1 
1 
1 
1 
1 
1 
1 
1 
1 
1 
1 
1 
1 
1 
1 
1 
1 
1 
1 
1 
1 
1 
1 
1 
1 
1 
1 
1 
1 
1 
1 
1 
1 
1 
1 
1 
1 
1 
1 
1 
1 
1 
1 
1 
1 
1 
1 
1 
1 
1 
1 
1 
1 
1 
1 
1 
1 
1 
1 
1 
1 
1 
1 
1 
1 
1 
1 
1 
1 
1 
1 
1 
1 
1 
1 
1 
1 
1 
1 
1 
1 
1 
1 
1 
1 
1 
1 
1 
1 
1 
1 
1 
1 
1 
1 
1 
1 
1 
1 
1 
1 
1 
1 
1 
1 
1 
1 
1 
1 
1 
1 
1 
1 
1 
1 
1 
1 
1 
1 
1 
1 
1 
1 
1 
1 
1 
1 
1 
1 
1 
1 
1 
1 
1 
1 
1 
1 
1 
1 
1 
1 
1 
1 
1 
1 
1 
1 
1 
1 
1 
1 
1 
1 
1 
1 
1 
1 
1 
1 
1 
1 
1 
1 
1 
1 
1 
1 
1 
1 
1 
1 
1 
1 
1 
1 
1 
1 
1 
1 
1 
1 
1 
1 
1 
1 
1 
1 
1 
1 
1 
1 
1 
1 
1 
1 
1 
1 
1 
1 
1 
1 
1 
1 
1 
1 
1 
1 
1 
1 
1 
1 
1 
1 
1 
1 
1 
1 
1 
1 
1 
1 
1 
1 
1 
1 
1 
1 
1 
1 
1 
1 
1 
1 
1 
1 
1 
1 
1 
1 
1 
1 
1 
1 
1 
1 
1 
1 
1 
1 
1 
1 
1 
1 
1 
1 
1 
1 
1 
1 
1 
1 
1 
1 
1 
1 
1 
1 
1 
1 
1 
1 
1 
1 
1 
1 
1 
1 
1 
1 
1 
1 
1 
1 
1 
1 
1 
1 
1 
1 
1 
1 
1 
1 
1 
1 
1 
1 
1 
1 
1 
1 
1 
1 
1 
1 
1 
1 
1 
1 
1 
1 
1 
1 
1 
1 
1 
1 
1 
1 
1 
1 
1 
1 
1 
1 
1 
1 
1 
1 
1 
1 
1 
1 
1 
1 
1 
1 
1 
1 
1 
1 
1 
1 
1 
1 
1 
1 
1 
1 
1 
1 
1 
1 
1 
1 
1 
1 
1 
1 
1 
1 
1 
1 
1 
1 
1 
1 
1 
1 
1 
1 
1 
1 
1 
1 
1 
1 
1 
1 
1 
1 
1 
1 
1 
1 
1 
1 
1 
1 
1 
1 
1 
1 
1 
1 
1 
1 
1 
1 
1 
1 
1 
1 
1 
1 
1 
1 
1 
1 
1 
1 
1 
1 
1 
1 
1 
1 
1 
1 
1 
1 
1 
1 
1 
1 
1 
1 
1 
1 
1 
1 
1 
1 
1 
1 
1 
1 
1 
1 
1 
1 
1 
1 
1 
1 
1 
1 
1 
1 
1 
1 
1 
1 
1 
1 
1 
1 
1 
1 
1 
1 
1 
1 
1 
1 
1 
1 
1 
1 
1 
1 
1 
1 
1 
1 
1 
1 
1 
1 
1 
1 
1 
1 
1 
1 
1 
1 
1 
1 
1 
1 
1 
1 
1 
1 
1 
1 
1 
1 
1 
1 
1 
1 
1 
1 
1 
1 
1 
1 
1 
1 
1 
1 
1 
1 
1 
1 
1 
1 
1 
1 
1 
1 
1 
1 
1 
1 
1 
1 
1 
1 
1 
1 
1 
1 
1 
1 
1 
1 
1 
1 
1 
1 
1 
1 
1 
1 
1 
1 
1 
1 
1 
1 
1 
1 
1 
1 
1 
1 
1 
1 
1 
1 
1 
1 
1 
1 
1 
1 
1 
1 
1 
1 
1 
1 
1 
1 
1 
1 
1 
1 
1 
1 
1 
1 
1 
1 
1 
1 
1 
1 
1 
1 
1 
1 
1 
1 
1 
1 
1 
1 
1 
1 
1 
1 
1 
1 
1 
1 
1 
1 
1 
1 
1 
1 
1 
1 
1 
1 
1 
1 
1 
1 
1 
1 
1 
1 
1 
1 
1 
1 
1 
1 
1 
1 
1 
1 
1 
1 
1 
1 
1 
1 
1 
1 
1 
1 
1 
1 
1 
1 
1 
1 
1 
1 
1 
1 
1 
1 
1 
1 
1 
1 
1 
1 
1 
1 
1 
1 
1 
1 
1 
1 
1 
1 
1 
1 
1 
1 
1 
1 
1 
1 
1 
1 
1 
1 
1 
1 
1 
1 
1 
1 
1 
1 
1 
1 
1 
1 
1 
1 
1 
1 
1 
1 
1 
1 
1 
1 
1 
1 
1 
1 
1 
1 
1 
1 
1 
1 
1 
1 
1 
1 
1 
1 
1 
1 
1 
1 
1 
1 
1 
1 
1 
1 
1 
1 
1 
1 
1 
1 
1 
1 
1 
1 
1 
1 
1 
1 
1 
1 
1 
1 
1 
1 
1 
1 
1 
1 
1 
1 
1 
1 
1 
1 
1 
1 
1 
1 
1 
1 
1 
1 
1 
1 
1 
1 
1 
1 
1 
1 
1 
1 
1 
1 
1 
1 
1 
1 
1 
1 
1 
1 
1 
1 
1 
1 
1 
1 
1 
1 
1 
1 
1 
1 
1 
1 
1 
1 
1 
1 
1 
1 
1 
1 
1 
1 
1 
1 
1 
1 
1 
1 
1 
1 
1 
1 
1 
1 
1 
1 
1 
1 
1 
1 
1 
1 
1 
1 
1 
1 
1 
1 
1 
1 
1 
1 
1 
1 
1 
1 
1 
1 
1 
1 
1 
1 
1 
1 
1 
1 
1 
1 
1 
1 
1 
1 
1 
1 
1 
1 
1 
1 
1 
1 
1 
1 
1 
1 
1 
1 
1 
1 
1 
1 
1 
1 
1 
1 
1 
1 
1 
1 
1 
1 
1 
1 
1 
1 
1 
1 
1 
1 
1 
1 
1 
1 
1 
1 
1 
1 
1 
1 
1 
1 
1 
1 
1 
1 
1 
1 
1 
1 
1 
1 
1 
1 
1 
1 
1 
1 
1 
1 
1 
1 
1 
1 
1 
1 
1 
1 
1 
1 
1 
1 
1 
1 
1 
1 
1 
1 
1 
1 
1 
1 
1 
1 
1 
1 
1 
1 
1 
1 
1 
1 
1 
1 
1 
1 
1 
1 
1 
1 
1 
1 
1 
1 
1 
1 
1 
1 
1 
1 
1 
1 
1 
1 
1 
1 
1 
1 
1 
1 
1 
1 
1 
1 
1 
1 
1 
1 
1 
1 
1 
1 
1 
1 
1 
1 
1 
1 
1 
1 
1 
1 
1 
1 
1 
1 
1 
1 
1 
1 
1 
1 
1 
1 
1 
1 
1 
1 
1 
1 
1 
1 
1 
1 
1 
1 
1 
1 
1 
1 
1 
1 
1 
1 
1 
1 
1 
1 
1 
1 
1 
1 
1 
1 
1 
1 
1 
1 
1 
1 
1 
1 
1 
1 
1 
1 
1 
1 
1 
1 
1 
1 
1 
1 
1 
1 
1 
1 
1 
1 
1 
1 
1 
1 
1 
1 
1 
1 
1 
1 
1 
1 
1 
1 
1 
1 
1 
1 
1 
1 
1 
1 
1 
1 
1 
1 
1 
1 
1 
1 
1 
1 
1 
1 
1 
1 
1 
1 
1 
1 
1 
1 
1 
1 
1 
1 
1 
1 
1 
1 
1 
1 
1 
1 
1 
1 
1 
1 
1 
1 
1 
1 
1 
1 
1 
1 
1 
1 
1 
1 
1 
1 
1 
1 
1 
1 
1 
1 
1 
1 
1 
1 
1 
1 
1 
1 
1 
1 
1 
1 
1 
1 
1 
1 
1 
1 
1 
1 
1 
1 
1 
1 
1 
1 
1 
1 
1 
1 
1 
1 
1 
1 
1 
1 
1 
1 
1 
1 
1 
1 
1 
1 
1 
1 
1 
1 
1 
1 
1 
1 
1 
1 
1 
1 
1 
1 
1 
1 
1 
1 
1 
1 
1 
1 
1 
1 
1 
1 
1 
1 
1 
1 
1 
1 
1 
1 
1 
1 
1 
1 
1 
1 
1 
1 
1 
1 
1 
1 
1 
1 
1 
1 
1 
1 
1 
1 
1 
1 
1 
1 
1 
1 
1 
1 
1 
1 
1 
1 
1 
1 
1 
1 
1 
1 
1 
1 
1 
1 
1 
1 
1 
1 
1 
1 
1 
1 
1 
1 
1 
1 
1 
1 
1 
1 
1 
1 
1 
1 
1 
1 
1 
1 
1 
1 
1 
1 
1 
1 
1 
1 
1 
1 
1 
1 
1 
POINT_DATA 5000
VECTORS Stress float
-1652 -3113.65 0.
-2925.58 -3618.18 0.
-130.198 -175.12 0.
-364.457 -544.133 0.
-3837.55 -7524.89 0.
-134.293 -197.046 0.
-2398.73 -1997.8 0.
-32.6771 -19.7058 0.
-206.86 -139.262 0.
-3935.11 -6578.88 0.
-1167.36 -2217.8 0.
-138.451 -289.389 0.
-2182.2 -2980.68 0.
-1720.39 -2405.51 0.
-1301.64 -1882.73 0.
-1065.19 -1605.08 0.
-828.868 -1327.31 0.
-966.811 -1541.26 0.
-813.255 -1419.12 0.
-648.118 -1308.56 0.
-819.098 -1482.28 0.
-757.255 -1339.22 0.
-694.832 -1196.73 0.
-748.57 -1318.15 0.
-821.93 -1488.7 0.
-892.841 -1661.7 0.
-1031.29 -1675.13 0.
-956.788 -1536.6 0.
-725.407 -1363.09 0.
-719.469 -1332.89 0.
-705.811 -1310.42 0.
-732.391 -1329.22 0.
-707.699 -1300.01 0.
-680.796 -1273.02 0.
-710.514 -1315.71 0.
-714.458 -1345.9 0.
-718.35 -1376.14 0.
-801.36 -1418.81 0.
-793.445 -1420.65 0.
-705.749 -1380.32 0.
-684.175 -1343.43 0.
-662.605 -1306.54 0.
-692.166 -1304.27 0.
-703.668 -1331.11 0.
-715.17 -1357.96 0.
-697.151 -1311.95 0.
-651.762 -1206.04 0.
-606.373 -1100.13 0.
-559.59 -1191.5 0.
-647.744 -1397.18 0.
-735.894 -1602.85 0.
-686.207 -1409.77 0.
-596.02 -1199.34 0.
-605.166 -1086.18 0.
-644.25 -1177.39 0.
-683.335 -1268.6 0.
-690.081 -1302.59 0.
-677.999 -1274.39 0.
-665.917 -1246.19 0.
-641.341 -1262.36 0.
-671.582 -1322.32 0.
-704.404 -1379.69 0.
-799.34 -1426.88 0.
-809.615 -1434.96 0.
-720.805 -1389.39 0.
-715.727 -1349.44 0.
-710.063 -1310.08 0.
-684.168 -1265.49 0.
-697.224 -1266.39 0.
-708.878 -1268.7 0.
-688.923 -1280.67 0.
-752.243 -1392.58 0.
-812.873 -1507.19 0.
-998.915 -1624.5 0.
-1031.34 -1681.25 0.
-887.327 -1601.69 0.
-801.094 -1437.91 0.
-755.665 -1327.36 0.
-658.924 -1254.72 0.
-730.71 -1411.01 0.
-826.51 -1543.28 0.
-730.4 -1388.66 0.
-953.533 -1596.47 0.
-1161.66 -1819.29 0.
-1050.52 -1474.63 0.
-1216.62 -1547.97 0.
-1372.87 -1631.15 0.
-1609.29 -2630.36 0.
-2712.23 -4409.19 0.
-25.5717 -34.0176 0.
-750.955 -1297.27 0.
-4472.07 -6893.85 0.
-660.861 -1016.38 0.
-592.714 -785.334 0.
-2724.52 -3366.37 0.
-30.3265 -70.1194 0.
-3444.74 -4879.46 0.
-84.9084 -156.789 0.
-3750.84 -5772.78 0.
-1085.07 -1024.23 0.
-2275.16 -4746.57 0.
1.18436 2.34567 0.
-109.654 -54.7067 0.
-2.5123 -3.01698 0.
-8.36791 -5.73154 0.
-194.912 -171.974 0.
-146.355 -251.255 0.
-34.1332 -21.9415 0.
-871.262 -481.153 0.
-86.4512 -49.9074 0.
-3.09576 -5.3224 0.
-43.8079 -76.2394 0.
-873.89 -913.056 0.
-566.563 -435.805 0.
-372.372 -400.86 0.
-164.534 -101.033 0.
-110.819 -75.7177 0.
-322.846 -645.094 0.
-229.018 -484.493 0.
-194.077 -282.297 0.
-571.1 -1189.52 0.
-496.264 -1063.81 0.
-423.81 -936.679 0.
-558.858 -1048.89 0.
-617.22 -1234.48 0.
-672.264 -1423.38 0.
-992.85 -1567.43 0.
-919.904 -1427.33 0.
-556.445 -1106.27 0.
-530.302 -1077.21 0.
-516.056 -1050.26 0.
-568.691 -1145.65 0.
-537.119 -1123.31 0.
-531.867 -1074.65 0.
-607.183 -1201.99 0.
-611.393 -1231.91 0.
-615.264 -1262.18 0.
-850.034 -1385.45 0.
-844.367 -1385.03 0.
-635.687 -1290.37 0.
-608.728 -1258.87 0.
-585.305 -1223.84 0.
-675.832 -1236.47 0.
-676.595 -1274.06 0.
-678.273 -1310.73 0.
-664.728 -1266.65 0.
-619.338 -1160.74 0.
-573.949 -1054.82 0.
-398.341 -970.7 0.
-455.806 -1207.11 0.
-522.821 -1433.93 0.
-527.896 -1310.47 0.
-467.141 -1070.58 0.
-583.317 -1045.4 0.
-622.389 -1136.62 0.
-661.461 -1227.83 0.
-651.631 -1254.66 0.
-647.187 -1218.83 0.
-645.392 -1180.34 0.
-563.361 -1173.77 0.
-601.001 -1226.32 0.
-639.413 -1278.11 0.
-834.41 -1390.53 0.
-841.205 -1402.1 0.
-617.195 -1235.58 0.
-592.443 -1215.3 0.
-588.453 -1174.26 0.
-527.351 -1069.58 0.
-547.313 -1063.58 0.
-568.461 -1056.4 0.
-518.446 -983.168 0.
-555.252 -1121.64 0.
-619.341 -1232.82 0.
-913.779 -1475.76 0.
-947.026 -1531.71 0.
-768.767 -1454.59 0.
-665.621 -1220.74 0.
-641.504 -1083.93 0.
-301.25 -700.154 0.
-385.626 -859.862 0.
-482.001 -1011.8 0.
-89.4553 -81.0098 0.
-190.109 -265.935 0.
-309.71 -533.899 0.
-187.219 -219.638 0.
-101.357 -91.5965 0.
-136.011 -182.01 0.
-42.6427 -39.0532 0.
-346.981 -558.48 0.
-70.4084 -48.9282 0.
-20.0317 -10.4982 0.
-156.53 -160.919 0.
-361.472 -261.319 0.
-194.052 -288.547 0.
-122.454 -319.876 0.
0.690953 1.85416 0.
-12.2202 -28.6222 0.
-2.11761 -4.08477 0.
4.20247 1.97439 0.
-3.2227 -1.56762 0.
-0.476305 -3.20973 0.
-0.0573159 -4.06452 0.
-192.674 -126.75 0.
-0.807972 -0.730865 0.
-42.3138 -19.4384 0.
-249.463 -171.02 0.
-166.745 -244.821 0.
-36.2973 -24.475 0.
-1506.34 -852.638 0.
-23.5792 -8.56512 0.
-1.53315 -0.617391 0.
-18.2298 -37.2969 0.
-387.469 -278.473 0.
-266.52 -152.767 0.
-713.523 -1006.63 0.
-148.043 -89.3356 0.
-145.732 -86.7852 0.
-842.549 -1831.13 0.
-740.22 -1681.83 0.
-837.747 -1976.34 0.
-1285.32 -2429.15 0.
-998.373 -1837.37 0.
-754.232 -1346.77 0.
-655.08 -1035.71 0.
-639.972 -1057.53 0.
-1577.66 -3217.91 0.
-1239.85 -2000.22 0.
-1245.35 -2020.59 0.
-827.752 -1474.95 0.
-648.586 -1107.67 0.
-568.053 -964.39 0.
-659.763 -1204 0.
-595.717 -1060.07 0.
-611.084 -1109.4 0.
-698.948 -1236.03 0.
-626.264 -1071.56 0.
-675.734 -1197.43 0.
-945.168 -1431.37 0.
-996.792 -1563.47 0.
-702.391 -1139 0.
-602.655 -935.104 0.
-586.071 -912.152 0.
-670.762 -1117.23 0.
-688.093 -1203.58 0.
-622.669 -1115.33 0.
-661.93 -1129.95 0.
-713.961 -1281.95 0.
-773.073 -1446.17 0.
-427.098 -1002.76 0.
-341.59 -830.456 0.
-3486.99 -2669.51 0.
-372.473 -845.576 0.
-444.158 -983.189 0.
-775.824 -1364.28 0.
-724.402 -1218.38 0.
-676.715 -1113.6 0.
-667.605 -1135.08 0.
-641.601 -1067.7 0.
-657.911 -1061.33 0.
-565.336 -911.221 0.
-622.557 -1048.06 0.
-658.93 -1099.81 0.
-1007.98 -1599.58 0.
-1007.7 -1588.3 0.
-657.915 -1071.96 0.
-680.145 -1215.61 0.
-691.996 -1225.32 0.
-644.326 -1159.56 0.
-627.012 -1116.11 0.
-693.806 -1229.72 0.
-549.675 -926.702 0.
-690.029 -1260.99 0.
-790.745 -1418.23 0.
-1336.46 -2266.47 0.
-1385.62 -2377.07 0.
-1683.45 -3195.53 0.
-777.619 -1082.52 0.
-812.578 -1065.45 0.
-578.724 -1301.66 0.
-930.256 -1964.76 0.
-2336.59 -5147.59 0.
-436.892 -782.837 0.
-719.745 -1549.16 0.
-790.3 -1618.13 0.
-246.561 -264.307 0.
-124.75 -108.117 0.
-284.379 -373.096 0.
-63.1697 -46.2171 0.
-55.1316 -41.2404 0.
-115.98 -63.3357 0.
-31.3518 -15.7223 0.
-45.7434 -44.5165 0.
-326.682 -210.291 0.
-126.792 -273.437 0.
-117.606 -325.723 0.
-0.000983543 -0.530824 0.
1.99094 5.0269 0.
6.23576 6.0582 0.
1.47199 0.000441214 0.
-1739.02 -2490.54 0.
-2989.09 -5993.14 0.
-88.3863 -224.222 0.
0.29564 13.5843 0.
-3007.58 -4363.32 0.
-294.101 -716.298 0.
-3248.52 -6234.15 0.
-50.5763 -93.8604 0.
-986.408 -1340.24 0.
-29.911 -25.5978 0.
-3704.69 -6427.75 0.
-255.875 -153.132 0.
0.000142439 0.231348 0.
-3785.58 -7779.19 0.
0.183398 0.255246 0.
-1901.25 -2691.4 0.
-1397.95 -2148.54 0.
-968.078 -1561.14 0.
-1956.46 -4295.87 0.
-688.812 -1458.5 0.
-36.6699 -18.5756 0.
-578.086 -1311.22 0.
-352.335 -793.101 0.
-212.166 -284.967 0.
-503.022 -660.431 0.
-349.444 -394.239 0.
-195.233 -146.729 0.
-580.623 -657.341 0.
-629.79 -802.812 0.
-389.606 -470.154 0.
-395.711 -510.38 0.
-412.371 -575.511 0.
-416.825 -661.02 0.
-398.808 -666.152 0.
-382.694 -662.058 0.
-418.474 -666.999 0.
-378.928 -574.629 0.
-353.917 -470.938 0.
-595.961 -805.222 0.
-598.327 -830.92 0.
-450.701 -581.238 0.
-446.317 -573.895 0.
-442.789 -569.59 0.
-511.08 -769.239 0.
-477.519 -689.4 0.
-436.972 -618.604 0.
-472.24 -665.359 0.
-502.195 -750.856 0.
-541.893 -828.278 0.
-73.5562 -158.124 0.
-0.22641 -0.128068 0.
-3269.57 -1711.53 0.
-19.0242 -17.8867 0.
-80.1333 -140.337 0.
-500.566 -810.353 0.
-498.772 -756.088 0.
-496.052 -703.289 0.
-448.426 -603.136 0.
-491.897 -647.436 0.
-519.196 -707.874 0.
-392.426 -565.746 0.
-392.763 -562.096 0.
-393.658 -559.722 0.
-534.964 -805.855 0.
-554.993 -812.52 0.
-359.116 -519.922 0.
-367.411 -575.713 0.
-406.453 -675.244 0.
-383.881 -638.804 0.
-399.674 -639.46 0.
-426.594 -630.609 0.
-421.224 -571.71 0.
-380.135 -471.011 0.
-358.378 -422.022 0.
-631.92 -709.538 0.
-594.019 -560.645 0.
-117.988 -78.2767 0.
-388.096 -301.641 0.
-578.84 -648.327 0.
-37.8092 -42.9433 0.
-243.289 -346.247 0.
-571.57 -1266.43 0.
0.753573 0.0780594 0.
-796.878 -1614.65 0.
-2433.32 -5177.63 0.
-330.267 -653.006 0.
-1165.33 -2099.24 0.
-2114.31 -3472.05 0.
-133.066 -159.812 0.
-4316.97 -8055.99 0.
-24.6541 -52.2299 0.
-13.4322 -17.1449 0.
-3641 -5816.22 0.
-42.9825 -99.1139 0.
-2411.4 -4395.2 0.
-0.364723 -4.90572 0.
-3163.48 -5749.53 0.
-93.9291 -154.627 0.
-1184.54 -1611.49 0.
-0.498091 -0.863712 0.
-1236.14 -2887.65 0.
16.8701 29.6302 0.
-1.12102 -13.4643 0.
-3532.66 -8095.72 0.
-1.15658 -0.0720447 0.
5.43039 2.79471 0.
-216.255 -510.735 0.
-0.000726905 -0.597657 0.
-59.6571 -71.0244 0.
-30.0766 -26.1757 0.
-867.849 -883.319 0.
-404.385 -225.89 0.
-135.529 -97.0989 0.
-0.327317 -0.419527 0.
-0.0605485 -0.0675469 0.
-5.25538 -3.1886 0.
-7.96525 -4.12834 0.
-327.215 -179.222 0.
-486.287 -651.163 0.
-42.8409 -18.6624 0.
-43.1499 -17.0458 0.
-261.859 -513.99 0.
-41.1638 -37.1136 0.
-97.356 -74.1264 0.
-489.359 -574.946 0.
-337.949 -303.719 0.
-169.412 -65.7945 0.
-630.941 -677.73 0.
-683.749 -818.778 0.
-380.465 -443.737 0.
-417.814 -485.506 0.
-432.951 -550.167 0.
-414.693 -566.802 0.
-395.494 -569.202 0.
-373.483 -575.41 0.
-391.5 -605.256 0.
-366.351 -498.299 0.
-346.418 -387.425 0.
-631.908 -810.199 0.
-646.862 -838.13 0.
-489.156 -592.976 0.
-485.938 -584.682 0.
-485.144 -578.8 0.
-578.356 -737.101 0.
-546.823 -674.269 0.
-501.027 -639.807 0.
-512.779 -653.064 0.
-552.799 -730.484 0.
-592.177 -807.952 0.
-19.9197 -42.5484 0.
-0.0472139 -0.0428714 0.
-3896.26 -1974.32 0.
-7.39539 -3.28852 0.
-23.4556 -12.4751 0.
-588.369 -791.127 0.
-573.72 -749.083 0.
-569.918 -696.782 0.
-471.04 -609.429 0.
-499.093 -641.914 0.
-533.896 -693.917 0.
-432.027 -579.177 0.
-441.73 -565.466 0.
-432.321 -572.884 0.
-593.817 -828.593 0.
-598.978 -837.193 0.
-353.294 -482.145 0.
-360.977 -538.314 0.
-396.881 -643.373 0.
-365.333 -502.066 0.
-403.961 -477.798 0.
-434.609 -460.234 0.
-441.927 -586.405 0.
-402.318 -488.928 0.
-366.08 -390.423 0.
-695.939 -715.47 0.
-662.616 -566.967 0.
-37.9137 -39.5342 0.
-224.487 -145.51 0.
-419.188 -479 0.
-67.6087 -60.4171 0.
-0.0963733 -0.00210948 0.
-23.0064 -12.3635 0.
0.730333 0.305535 0.
0.00350358 0.978542 0.
-395.399 -443.864 0.
-0.324767 -0.0299219 0.
-0.340667 -0.0530648 0.
-110.852 -133.686 0.
-25.6504 -41.2151 0.
-37.7311 -83.1036 0.
0.0285309 0.0500625 0.
0.678571 0.996742 0.
0.193676 0.252145 0.
-7.29155 -15.4534 0.
-269.388 -695.901 0.
2.28426 4.8025 0.
-254.087 -452.702 0.
-2.4082 -3.69218 0.
3.02554 6.61703 0.
0.0539507 4.88022 0.
-112.206 -271.348 0.
-2981.89 -4636.27 0.
3.64027 7.24698 0.
-1.43201 -23.216 0.
-0.0227135 -2.14545 0.
-5.64597 -0.721819 0.
-30.8608 -17.9804 0.
-0.0475444 -0.231979 0.
-1807.92 -3739.83 0.
-733.396 -1245.63 0.
-971.077 -2005.25 0.
-1509.91 -2058.06 0.
-6.7168 -17.8629 0.
-3182.53 -5573.39 0.
0.283484 0.283537 0.
-208.587 -94.771 0.
-3385.16 -6438.02 0.
-277.011 -286.975 0.
-2517.3 -4477.04 0.
-867.509 -1080.87 0.
-118.597 -42.825 0.
-2320.53 -4635.76 0.
-1165.63 -2450.18 0.
-152.566 -123.163 0.
-1232.77 -2216.05 0.
-864.306 -1561.07 0.
-557.762 -999.422 0.
-1074.84 -1768.99 0.
-988.178 -1698.04 0.
-771.647 -1307.17 0.
-734.841 -1224.81 0.
-699.183 -1143.14 0.
-648.349 -1100.14 0.
-615.359 -1065.28 0.
-588.795 -1024 0.
-688.216 -1183.6 0.
-675.389 -1185.37 0.
-665.568 -1184.13 0.
-1114.94 -1693.81 0.
-1033.2 -1573.75 0.
-743.185 -1133.16 0.
-725.257 -1089.95 0.
-708.605 -1045.07 0.
-789.88 -1205.4 0.
-784.751 -1207.11 0.
-783.524 -1216.23 0.
-800.397 -1257.03 0.
-801.853 -1262.04 0.
-804.463 -1265.9 0.
-246.943 -683.987 0.
-236.386 -654.719 0.
-4410.42 -2959.17 0.
-262.868 -628.11 0.
-276.272 -667.448 0.
-855.542 -1398.72 0.
-834.695 -1357.77 0.
-814.359 -1316.3 0.
-632.609 -1088.09 0.
-690.741 -1138.68 0.
-724.165 -1232.83 0.
-734.765 -1099.32 0.
-733.118 -1094.96 0.
-733.484 -1088.6 0.
-982.581 -1493.14 0.
-1043.52 -1594.69 0.
-618.547 -1105.72 0.
-662.327 -1211.52 0.
-714.995 -1316.55 0.
-694.358 -1051.1 0.
-671.009 -1031.03 0.
-649.304 -1009.31 0.
-640.721 -1164.8 0.
-698.676 -1252.66 0.
-760.688 -1338.59 0.
-984.696 -1644.79 0.
-1144.25 -1821.18 0.
-482.421 -884.667 0.
-901.108 -1747.34 0.
-1423.64 -2709.77 0.
0.0382227 0.0151361 0.
-1153.67 -2417.53 0.
-2710.34 -5672.77 0.
-214.029 -115.144 0.
-592.037 -621.541 0.
-2371.13 -3956.79 0.
-0.229926 -0.563523 0.
-3886.21 -8605.45 0.
-80.0603 -169.033 0.
-26.1265 -53.3876 0.
-2927.96 -4627.54 0.
-0.168044 -0.658236 0.
-3406.2 -6859.26 0.
-43.2506 -102.522 0.
-488.959 -1334.48 0.
-1.59547 -4.4517 0.
-1.42094 -2.78945 0.
-159.96 -267.896 0.
0.16201 9.14299 0.
-1450.74 -2626.53 0.
-26.5531 -72.2675 0.
-2150.95 -4273.53 0.
-14.1162 -21.5505 0.
-0.74952 -4.50002 0.
-210.31 -462.83 0.
0.0170145 4.13325 0.
6.54721 2.88473 0.
-1413.49 -2386.27 0.
-2553.78 -5419.3 0.
-174.558 -443.047 0.
-205.01 -549.269 0.
-34.2169 -70.4789 0.
-921.283 -1547.76 0.
-22.5095 -58.8426 0.
-17.0728 -23.7275 0.
-0.00857946 -0.00885026 0.
-39.6163 -22.6352 0.
-418.214 -670.104 0.
-42.578 -21.3297 0.
-3.73581 -1.52848 0.
-12.7745 -4.68457 0.
-116.277 -50.4509 0.
-458.299 -782.188 0.
-13.1438 -4.94798 0.
-28.382 -11.49 0.
-567.236 -1078.85 0.
-295.046 -393.363 0.
-77.3977 -41.6918 0.
-784.542 -1412.21 0.
-717.226 -1395.51 0.
-644.799 -1163.34 0.
-599.01 -1109.87 0.
-573.972 -1056.84 0.
-620.589 -970.116 0.
-592.551 -934.332 0.
-564.825 -913.163 0.
-613.357 -994.869 0.
-605.291 -1003.94 0.
-596.534 -1014.02 0.
-923.169 -1467.74 0.
-849.589 -1364.49 0.
-669.266 -1038.74 0.
-649.037 -997.948 0.
-629.122 -957.328 0.
-684.849 -1027.85 0.
-691.805 -1035.22 0.
-678.07 -1086.52 0.
-727.558 -1163.33 0.
-724.746 -1169.34 0.
-724.411 -1177.22 0.
-232.823 -644.457 0.
-222.04 -614.932 0.
-3518.54 -2542.99 0.
-273.436 -585.993 0.
-287.116 -624.362 0.
-762.174 -1296.32 0.
-714.986 -1217.02 0.
-686.775 -1167.21 0.
-543.757 -960.514 0.
-558.401 -1019.11 0.
-638.032 -1044.44 0.
-609.633 -1005.39 0.
-604.476 -994.007 0.
-605.79 -996.418 0.
-802.539 -1324.43 0.
-864.427 -1399.37 0.
-565.825 -990.977 0.
-590.116 -1046.35 0.
-633.72 -1138.29 0.
-660.096 -984.455 0.
-642.764 -957.191 0.
-631.795 -930.284 0.
-530.972 -967.886 0.
-559.67 -1018.78 0.
-604.377 -1103.42 0.
-637.924 -1195.93 0.
-742.349 -1324.01 0.
-66.3224 -48.7001 0.
-193.322 -123.699 0.
-563.85 -1152.19 0.
0.018735 0.008461 0.
-11.2936 -4.44763 0.
-259.16 -157.728 0.
-1.52792 -4.1721 0.
-5.55069e-05 -0.138228 0.
-0.946205 -2.60279 0.
-0.00024431 -0.208121 0.
-282.476 -516.581 0.
0.0249265 0.181864 0.
0.293848 0.1677 0.
-21.7047 -46.3794 0.
1.10325 2.50456 0.
-0.0385696 -0.0868141 0.
-0.0816709 -0.201825 0.
-2436.59 -5245.75 0.
1.8223 2.37612 0.
-1491.61 -2492.64 0.
-152.301 -237.94 0.
0.109452 8.30204 0.
16.2609 35.3237 0.
7.88656 20.0937 0.
-93.0211 -172.304 0.
-1554.69 -2260.18 0.
-1.73453 -6.62942 0.
-2116.37 -4347.31 0.
18.3923 49.2907 0.
-0.518312 -33.7214 0.
-824.983 -1556.97 0.
-244.678 -631.475 0.
-0.0612275 -1.02011 0.
-107.888 -297.201 0.
-6.1102 -16.7945 0.
-619.266 -960.309 0.
-67.9662 -87.7358 0.
-19.7329 -26.2729 0.
-2.17493 -2.27923 0.
-3.39656 -2.72528 0.
-134.325 -54.5761 0.
-84.3712 -36.9151 0.
-13.4379 -5.19859 0.
-20.225 -7.39074 0.
-136.363 -65.9957 0.
-88.4661 -108.047 0.
-12.526 -4.70396 0.
-15.3002 -7.34382 0.
-328.897 -313.215 0.
-63.4956 -27.0374 0.
-92.9954 -54.1502 0.
-755.639 -1252.55 0.
-482.742 -731.158 0.
-465.033 -675.874 0.
-452.661 -616.543 0.
-264.946 -159.384 0.
-678.172 -847.649 0.
-317.786 -321.974 0.
-104.447 -84.9073 0.
-404.393 -509.458 0.
-431.56 -567.586 0.
-463.538 -620.22 0.
-568.904 -787.193 0.
-642.908 -899.043 0.
-465.268 -457.3 0.
-492.596 -543.04 0.
-371.818 -343.281 0.
-386.153 -458.839 0.
-334.162 -359.341 0.
-547.094 -873.294 0.
-514.844 -747.658 0.
-410.82 -492.471 0.
-437.533 -566.549 0.
-1.80032 -4.61013 0.
-1.60988 -3.72129 0.
-3209.95 -2061.31 0.
-150.489 -166.147 0.
-147.513 -165.567 0.
-487.436 -691.448 0.
-450.826 -560.797 0.
-532.073 -719.711 0.
-353.002 -362.033 0.
-486.842 -642.466 0.
-482.914 -526.133 0.
-388.265 -530.13 0.
-346.471 -417.191 0.
-393.985 -313.845 0.
-476.335 -655.442 0.
-648.544 -1056.74 0.
-337.363 -310.433 0.
-437.925 -454.944 0.
-192.463 -96.6917 0.
-279.412 -270.028 0.
-246.269 -179.848 0.
-186.749 -146.418 0.
-234.439 -132.623 0.
-402.281 -529.743 0.
-429.736 -640.97 0.
-230.306 -244.935 0.
-594.502 -1068.75 0.
-40.6314 -37.7395 0.
0.110566 0.0480985 0.
0.0808386 0.00796737 0.
-24.3028 -9.6262 0.
-44.108 -15.9807 0.
-81.661 -33.0927 0.
-2.62846 -6.93049 0.
-0.0329138 -0.0827534 0.
-2.5597 -6.408 0.
-0.00212323 -0.352207 0.
-122.124 -128.001 0.
0.0548032 0.107624 0.
0.16815 0.0840843 0.
-23.5126 -59.6582 0.
0.980057 2.57263 0.
-0.0685634 -1.56984 0.
0.527255 1.31169 0.
-371.412 -735.938 0.
0.102475 7.03021 0.
-386.686 -559.578 0.
-1208.57 -1496.03 0.
-0.494877 -8.05511 0.
-1624.22 -3317.35 0.
-1.75549 -3.96498 0.
-3109.37 -4885.04 0.
-2458.11 -3620.97 0.
-0.494979 -2.52071 0.
-7.21981 -16.4176 0.
-1.23141 -30.4425 0.
-6.1132 -15.5657 0.
-2580.8 -4868.87 0.
-96.3298 -251.245 0.
0.249392 4.21002 0.
-45.6053 -123.869 0.
-2038.56 -4344.63 0.
-1846.22 -2612.8 0.
-220.309 -233.701 0.
-3022.86 -5397.22 0.
-11.1825 -4.98442 0.
-21.3117 -11.441 0.
-3341.78 -7472.38 0.
-10.5973 -6.52633 0.
-3338.3 -4953.44 0.
-224.415 -212.655 0.
-57.0312 -33.8047 0.
-3164.2 -7283.4 0.
-174.021 -366.102 0.
-36.0129 -46.859 0.
-1999.16 -4557.18 0.
-751.276 -1711.49 0.
-40.7113 -17.7146 0.
-1265.04 -2657.32 0.
-792.133 -1671.66 0.
-789.263 -1565.25 0.
-603.038 -1179.75 0.
-423.227 -795.183 0.
-608.383 -1072.23 0.
-571.611 -1006.89 0.
-531.414 -948.36 0.
-534.296 -850.027 0.
-493.191 -777.655 0.
-444.996 -713.747 0.
-716.218 -1139.34 0.
-705.324 -1127.49 0.
-484.824 -796.246 0.
-482.906 -786.132 0.
-494.572 -812.835 0.
-520.608 -876.938 0.
-493.792 -820.413 0.
-470.005 -771.497 0.
-481.479 -831.847 0.
-523.294 -921.324 0.
-579.111 -1022.07 0.
-202.695 -543.243 0.
-179.973 -491.351 0.
-2135.9 -1709.45 0.
-245.282 -456.845 0.
-248.077 -467.322 0.
-527.243 -872.501 0.
-531.731 -874.357 0.
-544.14 -866.747 0.
-525.449 -834.468 0.
-514.56 -799.07 0.
-472.17 -792.606 0.
-470.772 -793.941 0.
-467.565 -804.336 0.
-468.691 -825.825 0.
-717.228 -1177.58 0.
-727.819 -1182.12 0.
-504.321 -811.924 0.
-538.884 -865.269 0.
-571.034 -919.314 0.
-526.166 -888.405 0.
-635.102 -1107.31 0.
-742.314 -1325.28 0.
-430.273 -833.216 0.
-664.037 -1334.51 0.
-912.409 -1823.47 0.
-822.348 -1742.96 0.
-1527.46 -3216.23 0.
-14.2449 -12.153 0.
-741.799 -1555.01 0.
-2436.3 -5369.4 0.
-37.9615 -33.3592 0.
-16.2769 -9.10621 0.
-3101.53 -7019.46 0.
-0.622662 -0.418885 0.
0.652492 0.132096 0.
-3065.71 -5810.9 0.
0.287991 0.884358 0.
-2470.92 -4150.48 0.
-34.0576 -91.5229 0.
-3175.82 -6620.65 0.
-0.000642371 -0.501569 0.
3.68829 0.316341 0.
-2227.2 -4205.05 0.
0.667961 1.65762 0.
0.105308 2.09831 0.
5.77347 7.82279 0.
-550.756 -1102.26 0.
-1.12121 -47.2748 0.
-0.579764 -9.87196 0.
-3.21587 -35.6308 0.
28.7253 64.246 0.
-73.7613 -112.398 0.
-20.2652 -72.0429 0.
5.67345 9.98234 0.
-2211.02 -4946.14 0.
-1.5284 -21.9004 0.
-1809.8 -4444.87 0.
-0.00703426 -56.2171 0.
-87.8054 -225.379 0.
3.33792 8.52429 0.
-0.265363 -0.734712 0.
-424.044 -926.395 0.
-191.966 -319.038 0.
-26.2891 -45.0283 0.
0.000860089 0.877297 0.
-59.6622 -29.1621 0.
-70.992 -38.4217 0.
-1.1487 -0.758056 0.
-0.678448 -0.383166 0.
-32.6001 -22.3243 0.
-27.8083 -18.1277 0.
-22.5362 -13.7509 0.
0.0505411 0.0230012 0.
-13.3759 -8.84941 0.
-22.4942 -32.7391 0.
-346.485 -787.325 0.
0.767754 0.298156 0.
-7.12821 -2.58816 0.
-658.324 -1451.58 0.
-253.433 -400.701 0.
-525.513 -1000.67 0.
-376.243 -580.694 0.
-239.677 -151.864 0.
-509.089 -858.241 0.
-470.865 -796.799 0.
-437.927 -730.638 0.
-480.396 -736.353 0.
-440.296 -664.456 0.
-404.002 -612.997 0.
-736.283 -1143.94 0.
-726.495 -1133.83 0.
-474.767 -669.299 0.
-474.501 -656.658 0.
-480.176 -660.432 0.
-505.468 -844.372 0.
-474.4 -772.468 0.
-443.973 -699.603 0.
-425.469 -781.227 0.
-469.183 -889.35 0.
-518.6 -995.319 0.
-242.6 -639.172 0.
-218.144 -590.917 0.
-1557.34 -1337.5 0.
-293.869 -584.751 0.
-298.879 -593.332 0.
-511.366 -748.637 0.
-510.177 -755.601 0.
-508.33 -763.425 0.
-522.847 -754.309 0.
-502.325 -725.329 0.
-485.617 -697.65 0.
-443.648 -670.341 0.
-447.058 -676.651 0.
-465.988 -719.603 0.
-763.729 -1192.5 0.
-774.128 -1196.32 0.
-471.746 -692.124 0.
-504.13 -748.394 0.
-536.546 -811.098 0.
-324.883 -618.439 0.
-422.638 -845.829 0.
-539.253 -1060.8 0.
-57.9386 -62.9413 0.
-321.177 -535.286 0.
-533.161 -1063.03 0.
-14.7731 -6.59812 0.
-683.115 -1375.52 0.
-35.7288 -29.5579 0.
-19.613 -16.9696 0.
-26.6478 -23.6172 0.
-72.4629 -41.8349 0.
0.20795 0.00546865 0.
-0.0812092 -0.067384 0.
-0.217978 -0.189297 0.
0.822102 0.233295 0.
0.61952 0.209148 0.
0.489987 0.483573 0.
-27.2787 -67.3771 0.
-56.0868 -141.785 0.
-493.05 -959.16 0.
-0.00245481 -0.756905 0.
5.41648 0.00299964 0.
-0.0344734 -3.85165 0.
-1760.85 -3864.5 0.
0.510487 3.26699 0.
2.93756 2.9914 0.
-1246.62 -2807.25 0.
-0.00164527 -0.00427282 0.
-2.50763 -27.8078 0.
-6.79364 -68.0102 0.
61.7897 119.817 0.
-2241.06 -3310.19 0.
-291.085 -474.933 0.
20.1837 36.314 0.
16.9093 39.1849 0.
22.2963 56.645 0.
0.273138 0.677616 0.
-0.308846 -53.7979 0.
-110.494 -276.279 0.
-2492.07 -5589.17 0.
-0.018415 -10.2322 0.
-351.945 -826.999 0.
0.604902 1.42939 0.
-3.43229 -7.89134 0.
0.0429239 1.13248 0.
-109.046 -51.3035 0.
-324.299 -246.855 0.
-1851.11 -4731.26 0.
-0.0227711 -0.0368718 0.
-2610.48 -4696.29 0.
-14.4358 -17.7827 0.
-15.0157 -19.0746 0.
-3033.76 -7531.23 0.
-8.7415 -8.63326 0.
-4.17024 -3.58201 0.
-2537.8 -5688.48 0.
-250.124 -408.818 0.
-10.5591 -25.4939 0.
-1735.3 -3990.73 0.
-785.93 -1822.2 0.
-1146.65 -2343.92 0.
-770.581 -1566.2 0.
-436.663 -761.324 0.
-768.468 -1495.82 0.
-612.611 -1194.04 0.
-459.864 -889.382 0.
-645.302 -1013.11 0.
-628.435 -988.317 0.
-612.363 -968.218 0.
-915.113 -1562.33 0.
-890.107 -1514.73 0.
-659.716 -1030.63 0.
-623.944 -954.696 0.
-593.96 -893.907 0.
-645.406 -1011.04 0.
-612.647 -1057.59 0.
-622.529 -1071.81 0.
-690.76 -1151.02 0.
-635.745 -1008.93 0.
-517.747 -931.633 0.
-338.58 -890.323 0.
-350.95 -928.607 0.
-2108.72 -1837.34 0.
-369.668 -807.655 0.
-373.561 -816.777 0.
-545.777 -931.09 0.
-589.095 -1018 0.
-634.927 -1110.01 0.
-626.147 -961.99 0.
-641.705 -1000.35 0.
-661.319 -1050.83 0.
-627.959 -977.539 0.
-640.633 -1003.26 0.
-653.368 -1029.12 0.
-910.266 -1545.72 0.
-932.656 -1605.76 0.
-573.878 -888.473 0.
-640.714 -1001.15 0.
-716.692 -1131.48 0.
-398.87 -867.136 0.
-625.925 -1323.84 0.
-864.854 -1773.44 0.
-303.851 -474.565 0.
-784.117 -1555.73 0.
-1311.62 -2600.17 0.
-713.512 -1357.84 0.
-1930.12 -4304.79 0.
-19.7804 -13.9539 0.
0.0505487 0.0613702 0.
-2868.48 -6858.42 0.
0.00457068 0.391383 0.
0.462098 0.090387 0.
-2679.78 -3518 0.
-0.993217 -1.85665 0.
-3553.53 -7829.46 0.
-25.0365 -65.6069 0.
-13.5713 -37.5859 0.
-2812.45 -6567.84 0.
-369.227 -549.277 0.
-592.244 -1076.6 0.
0.0624772 3.41695 0.
1.78946 1.79823 0.
-0.0664906 -11.5897 0.
-30.8291 -68.0388 0.
-1951.44 -4221.63 0.
0.00439807 14.5085 0.
6.173 16.7745 0.
-1445.52 -3736.98 0.
8.53751 18.4235 0.
-1816.21 -4044.91 0.
37.6905 68.5255 0.
-1322.71 -2302.58 0.
45.9183 90.1756 0.
1.93076 3.25215 0.
-9.72294 -91.8263 0.
1.4529 3.58828 0.
3.85895 9.66085 0.
14.7245 39.2841 0.
-198.364 -483.889 0.
10.9228 30.0407 0.
2.48448 6.74078 0.
-599.955 -1539.55 0.
-0.132312 -4.89229 0.
-2186.78 -4780.75 0.
-0.804311 -2.25559 0.
-2501.15 -5193.44 0.
-81.8934 -78.0118 0.
-8.31828 -11.691 0.
0.751166 1.10242 0.
-1.19147 -1.75668 0.
0.197704 0.293843 0.
0.189471 0.300705 0.
-10.0701 -12.2684 0.
-4.99475 -5.41208 0.
-1.10084 -1.02714 0.
-5.49702 -9.57593 0.
-0.575952 -1.17117 0.
-2.72755 -7.41359 0.
-541.933 -1307.18 0.
-23.3669 -18.3334 0.
-538.295 -1071.99 0.
-202.043 -251.537 0.
-21.8235 -9.44799 0.
-470.988 -1042.28 0.
-319.633 -704.854 0.
-191.872 -349.269 0.
-522.071 -889.745 0.
-508.691 -864.877 0.
-496.116 -849.016 0.
-825.599 -1485.23 0.
-802.611 -1439.75 0.
-583.405 -910.418 0.
-557.584 -853.205 0.
-551.23 -853.218 0.
-544.903 -948.614 0.
-555.979 -967.348 0.
-567.466 -986.949 0.
-575.309 -1099.78 0.
-527.171 -964.188 0.
-478.773 -913.251 0.
-350.905 -827.768 0.
-355.916 -855.188 0.
-1001.44 -1315.59 0.
-341.269 -755.601 0.
-345.826 -762.502 0.
-520.912 -956.968 0.
-547.291 -989.31 0.
-598.103 -1052.2 0.
-547.405 -942.5 0.
-565.133 -976.737 0.
-580.36 -1014.45 0.
-553.236 -930.414 0.
-551.812 -917.463 0.
-563.682 -943.948 0.
-833.142 -1471.16 0.
-854.779 -1526.63 0.
-367.403 -627.195 0.
-426.891 -746.977 0.
-488.837 -865.713 0.
-132.994 -105.93 0.
-307.862 -618.41 0.
-503.683 -1107.2 0.
-4.08587 -9.39738 0.
-5.26964 -11.4831 0.
-494.812 -811.498 0.
-13.8315 -17.8603 0.
-550.42 -852.882 0.
-23.2211 -18.609 0.
0.214696 0.269882 0.
0.0446401 0.0467569 0.
0.109596 0.231608 0.
0.088233 0.166655 0.
0.222592 0.0570857 0.
-0.00994885 -0.131442 0.
-9.84389 -24.5746 0.
-18.0565 -49.9444 0.
-9.52643 -25.4824 0.
-7.07298 -17.3776 0.
-3.16802 -7.46586 0.
-490.744 -660.649 0.
-2854.41 -6236.18 0.
1.79497 1.97185 0.
0.0121533 2.56255 0.
8.04271 21.8788 0.
-1170.75 -2640.14 0.
0.00759281 6.71416 0.
3.51911 9.5138 0.
-163.762 -428.166 0.
-0.476636 -14.9703 0.
-9.58986 -124.029 0.
-32.6281 -117.498 0.
-18.7387 -33.9288 0.
-48.4224 -106.893 0.
-15.9206 -99.3386 0.
-1445.25 -3108.44 0.
3.74379 9.05501 0.
-2492.28 -6197.58 0.
7.18302 18.6776 0.
-197.78 -545.184 0.
6.62901 18.3566 0.
-0.0335677 -1.65638 0.
-0.0187276 -5.50009 0.
-1020.68 -2321.19 0.
-54.2245 -94.4174 0.
-0.676596 -4.06657 0.
-27.8504 -28.3111 0.
1.40394 2.04716 0.
-0.119459 -0.153831 0.
-0.305794 -0.404172 0.
-3.87142 -5.17839 0.
0.785446 1.33787 0.
0.437671 0.810473 0.
-5.84269 -7.90257 0.
-1.83996 -2.23005 0.
0.237753 0.249531 0.
0.170255 0.255987 0.
0.150353 0.304574 0.
-0.437738 -1.1281 0.
-19.3491 -13.5104 0.
-20.9378 -13.2042 0.
-25.398 -15.0017 0.
-11.7495 -7.43155 0.
-10.0633 -5.29386 0.
-217.036 -412.045 0.
-80.6977 -51.3422 0.
-29.844 -21.8328 0.
-333.936 -567.581 0.
-289.278 -440.303 0.
-24.2736 -19.5126 0.
-308.118 -388.162 0.
-418.264 -698.856 0.
-31.0393 -48.8347 0.
-213.469 -376.729 0.
-50.3518 -100.836 0.
-133.465 -198.126 0.
-150.506 -218.707 0.
-148.636 -195.768 0.
-101.52 -134.594 0.
-83.2887 -131.965 0.
-98.4825 -155.908 0.
-58.2993 -73.7068 0.
-251.732 -469.253 0.
-521.195 -432.586 0.
-98.2721 -107.169 0.
-59.3222 -28.669 0.
-130.233 -120.547 0.
-125.249 -105.56 0.
-149.196 -157.055 0.
-168.509 -263.615 0.
-145.247 -210.45 0.
-160.913 -246.201 0.
-96.347 -73.6474 0.
-173.479 -217.869 0.
-235.389 -263.296 0.
-392.428 -525.195 0.
-309.307 -295.124 0.
-123.716 -158.204 0.
-224.337 -447.056 0.
-327.21 -717.271 0.
-47.1761 -60.3548 0.
-27.1905 -23.9737 0.
-257.552 -454.451 0.
-5.2996 -12.0968 0.
-4.52755 -9.26083 0.
-15.9516 -40.8416 0.
-22.6064 -36.7526 0.
-7.97079 -13.7375 0.
-32.0769 -25.6529 0.
-0.109583 -0.190866 0.
-0.200058 -0.232518 0.
0.217495 0.0873072 0.
0.242121 0.00398019 0.
0.179651 0.135869 0.
-0.00603565 -0.580876 0.
-15.7247 -43.4429 0.
-12.4729 -34.2645 0.
-6.28867 -16.5472 0.
-4.85602 -12.046 0.
-0.411752 -1.0248 0.
-47.1654 -83.0244 0.
-313.764 -854.612 0.
3.10704 8.58855 0.
0.00351994 0.648894 0.
-0.0100305 -1.48903 0.
-480.123 -1119.68 0.
-87.5718 -240.47 0.
-3.37979 -9.07806 0.
-582.443 -1493.59 0.
-3.42682 -80.7346 0.
-1.35189 -3.15824 0.
-16.3904 -27.1649 0.
-525.424 -1018.56 0.
-21.3706 -212.825 0.
18.3394 35.6117 0.
-9.77896 -136.442 0.
0.149263 0.358495 0.
5.61628 15.3687 0.
-8.64556 -21.5594 0.
19.9149 54.6407 0.
-401.917 -1112.13 0.
5.31318 13.5922 0.
-539.505 -1253.33 0.
-403.53 -904.807 0.
2.76567 5.11428 0.
0.280019 2.63658 0.
-0.0952445 -0.131553 0.
-0.750607 -2.49235 0.
-1827.38 -2872.68 0.
-87.7827 -151.142 0.
-30.0184 -58.104 0.
-2866.61 -7090.83 0.
0.612071 0.904644 0.
-2118.8 -4130.37 0.
1.16562 1.30344 0.
0.625781 0.780227 0.
-2524.42 -6024.68 0.
0.372201 0.662837 0.
-4.07638 -8.95502 0.
-2241.57 -5590.27 0.
-230.2 -522.507 0.
-1608.41 -3438.54 0.
-746.93 -1543.6 0.
-28.9673 -30.5173 0.
-1134.58 -2765.98 0.
-647.516 -1640.85 0.
-198.433 -474.335 0.
-725.346 -1743.07 0.
-493.699 -1183.01 0.
-286.259 -643.2 0.
-679.618 -1534.14 0.
-629.508 -1424.95 0.
-438.204 -836.694 0.
-442.635 -854.511 0.
-464.04 -905.623 0.
-410.82 -908.426 0.
-394.126 -875.235 0.
-380.515 -842.523 0.
-394.675 -929.809 0.
-380.049 -907.45 0.
-372.747 -883.425 0.
-407.816 -803.425 0.
-410.392 -803.804 0.
-354.96 -812.223 0.
-329.202 -710.521 0.
-329.125 -711.188 0.
-445.276 -887.28 0.
-450.733 -902.57 0.
-457.053 -918.506 0.
-341.311 -818.231 0.
-343.884 -808.316 0.
-345.266 -793.169 0.
-424.271 -797.672 0.
-425.793 -803.343 0.
-430.953 -820.264 0.
-644.32 -1473.31 0.
-746.265 -1690.11 0.
-230.082 -510.249 0.
-522.015 -1305.71 0.
-837.446 -2078.47 0.
-96.2421 -78.1334 0.
-693.713 -1654.4 0.
-1348.24 -3183.28 0.
-23.5471 -24.5092 0.
-762.327 -1396.39 0.
-1838.04 -3844.99 0.
0.019721 0.0970039 0.
-2364.74 -5260.43 0.
-62.7052 -71.8156 0.
-2.66975 -5.44076 0.
-2727.99 -6632.06 0.
-3.9676 -6.61392 0.
-3.002 -5.19043 0.
-2685.33 -4519.66 0.
-15.138 -38.3021 0.
-2114.85 -4300.31 0.
0.0141097 0.0380432 0.
-1967.73 -4377.4 0.
0.530676 1.46624 0.
-0.00396143 -0.0101251 0.
-0.0845345 -4.98092 0.
-25.6627 -70.4904 0.
-0.0542991 -9.4913 0.
-1801.2 -4108.85 0.
6.15821 16.7447 0.
-5.40412 -14.962 0.
6.07845 16.8317 0.
13.9374 37.196 0.
-1076.12 -2714.57 0.
18.8735 46.6749 0.
-1735.6 -4052.76 0.
120.157 260.504 0.
70.2891 169.169 0.
-22.6185 -225.597 0.
-23.4056 -112.91 0.
-103.176 -243.065 0.
-8.22688 -106.031 0.
19.1734 52.0178 0.
-2.11423 -48.9429 0.
-24.7769 -67.5679 0.
-1351.32 -3730.92 0.
-0.0962013 -54.9658 0.
-325.17 -778.809 0.
-114.884 -261.24 0.
-0.0167851 -1.33324 0.
-1866.29 -4345.06 0.
3.9593 10.4729 0.
-2052.16 -4965.96 0.
-0.0186304 -4.63884 0.
-13.8251 -24.9574 0.
-7.37449 -15.1027 0.
-15.1383 -30.8401 0.
0.640882 0.962645 0.
0.806686 0.931837 0.
1.20087 1.51733 0.
-0.656602 -1.42299 0.
0.358384 0.610064 0.
0.55666 1.08401 0.
-0.0625699 -0.621417 0.
-131.234 -326.782 0.
-37.1242 -68.8562 0.
-269.507 -481.565 0.
-2.34773 -4.47117 0.
-18.5409 -30.7093 0.
-526.81 -1304.99 0.
-90.9898 -125.353 0.
-48.544 -51.7306 0.
-509.864 -1295.84 0.
-299.547 -719.609 0.
-173.93 -340.417 0.
-595.954 -1399.49 0.
-545.785 -1294.75 0.
-395.768 -740.246 0.
-390.631 -720.326 0.
-404.749 -750.616 0.
-406.821 -821.361 0.
-392.983 -786.753 0.
-379.76 -751.997 0.
-335.192 -839.285 0.
-327.338 -812.433 0.
-319.424 -785.295 0.
-461.299 -832.4 0.
-464.495 -836.234 0.
-650.858 -1067.29 0.
-356.413 -746.654 0.
-367.994 -769.816 0.
-381.734 -743.159 0.
-386.366 -763.159 0.
-390.977 -783.512 0.
-370.421 -680.037 0.
-360.95 -689.488 0.
-355.959 -695.775 0.
-336.857 -701.34 0.
-345.839 -705.523 0.
-362.296 -718.244 0.
-528.458 -1255.69 0.
-618.792 -1471.54 0.
-48.5923 -77.6837 0.
-311.736 -663.782 0.
-597.883 -1467.66 0.
-0.110912 -0.305276 0.
-1.40741 -2.98477 0.
-521.409 -1083.91 0.
-78.8791 -75.7512 0.
-17.8643 -6.79497 0.
-168.854 -66.807 0.
0.00314486 0.00832304 0.
-30.4467 -20.9222 0.
-74.0323 -77.3998 0.
-11.7839 -13.7481 0.
-23.1187 -31.0458 0.
-0.709411 -1.31087 0.
-0.423705 -0.820379 0.
0.0793519 0.163246 0.
0.468686 1.23096 0.
-17.5174 -47.4677 0.
-0.000157206 -0.423172 0.
-150.351 -347.697 0.
-0.040271 -4.06748 0.
-2297.8 -3861.61 0.
-525.84 -1300.45 0.
-16.6897 -46.1701 0.
9.51555 25.5704 0.
-0.00605791 -1.55693 0.
-0.335489 -35.635 0.
-14.7217 -40.7752 0.
14.7911 40.9079 0.
-0.218365 -58.4363 0.
40.0378 107.894 0.
-4.67655 -118.569 0.
-75.7902 -179.295 0.
130.931 275.523 0.
-12.1704 -281.221 0.
36.2583 81.9737 0.
-1001.97 -1980.34 0.
-2195.47 -5135.89 0.
51.8627 118.856 0.
5.52175 14.8607 0.
12.6801 32.0795 0.
-1378.91 -3740.06 0.
21.7775 60.0846 0.
19.338 53.0822 0.
-357.729 -870.406 0.
-41.788 -97.524 0.
-289.774 -730.045 0.
-301.35 -715.412 0.
2.48309 6.61183 0.
-42.1561 -111.278 0.
1.81812 5.0178 0.
-0.302681 -0.572679 0.
-0.228473 -0.488147 0.
-56.2107 -131.773 0.
-229.876 -525.678 0.
-1900.68 -4351.75 0.
0.749617 1.62653 0.
-0.185664 -0.435688 0.
-2194.2 -5703.38 0.
0.0808008 0.197648 0.
0.321043 0.742658 0.
-2182.49 -5251.55 0.
-0.682166 -1.30434 0.
-1748.73 -3902.77 0.
-485.002 -936.795 0.
-2.62205 -6.47375 0.
-1401.72 -3411.37 0.
-576.733 -1420.27 0.
-22.1366 -8.01935 0.
-941.002 -2320.69 0.
-516.911 -1284.84 0.
-119.927 -223.688 0.
-736.87 -1740.76 0.
-613.692 -1488.84 0.
-467.936 -1001.23 0.
-416.881 -875.34 0.
-381.829 -791.433 0.
-427.418 -826.334 0.
-419.412 -805.389 0.
-411.02 -782.495 0.
-451.102 -906.476 0.
-368.73 -879.477 0.
-345.187 -810.494 0.
-507.544 -973.569 0.
-528.043 -946.978 0.
-967.619 -1107.93 0.
-372.201 -823.441 0.
-394.245 -880.393 0.
-405.217 -772.924 0.
-414.666 -799.91 0.
-427.198 -835.902 0.
-431.537 -766.878 0.
-441.218 -781.826 0.
-451.747 -796.748 0.
-362.204 -830.608 0.
-439.091 -999.131 0.
-522.489 -1169.98 0.
-639.368 -1535.13 0.
-820.091 -1899.7 0.
-84.4864 -76.4263 0.
-574.89 -1384.93 0.
-1090.87 -2676.19 0.
-2.28755 -2.20408 0.
-537.699 -1133.29 0.
-1647.51 -3977.36 0.
-38.0473 -21.3618 0.
-452.592 -325.836 0.
-1844.48 -3614.84 0.
-38.6224 -27.0387 0.
-2438.96 -6020.34 0.
-74.902 -118.941 0.
-45.5033 -60.8653 0.
-2095.22 -2720.98 0.
0.0603026 0.119258 0.
-2660.95 -6736.73 0.
-3.94059 -9.75205 0.
0.645231 1.69511 0.
0.339851 0.921649 0.
0.504007 1.35066 0.
-52.8076 -110.714 0.
3.71824 10.1255 0.
-0.627096 -3.97447 0.
-333.826 -870.739 0.
-187.457 -519.139 0.
9.37296 24.7414 0.
-0.0153301 -25.7246 0.
-1074.09 -2961.68 0.
-62.9316 -174.306 0.
12.6442 34.7639 0.
5.7141 15.5389 0.
-16.8273 -44.8363 0.
-2.35907 -5.94802 0.
-248.739 -579.944 0.
-0.913778 -199.496 0.
38.0073 95.65 0.
-15.5918 -34.4964 0.
51.1628 136.021 0.
26.5402 65.3662 0.
8.75075 19.6634 0.
-736.245 -1968.41 0.
-166.234 -423.251 0.
-13.5041 -35.9728 0.
19.2678 52.9807 0.
15.187 41.445 0.
-651.238 -1600.65 0.
-0.00303998 -52.6233 0.
-337.283 -869.951 0.
-12.3583 -29.731 0.
-0.165487 -10.961 0.
-12.5229 -34.1686 0.
-96.1932 -255.673 0.
-2199.07 -5187.22 0.
1.23201 2.69447 0.
-1681.4 -4021.66 0.
-18.3371 -38.5041 0.
-26.5735 -68.143 0.
0.0190841 0.043018 0.
0.441728 1.0647 0.
-9.55146 -25.0978 0.
0.117344 0.295451 0.
0.105729 0.25228 0.
-44.0653 -102.529 0.
-0.00650489 -0.400714 0.
-38.3442 -87.2624 0.
-2.88003 -7.50832 0.
-0.0671473 -0.183191 0.
-431.297 -1033.67 0.
-14.8837 -5.40353 0.
-12.5564 -4.54365 0.
-498.787 -1280.19 0.
-108.496 -210.682 0.
-6.03886 -2.6279 0.
-513.591 -1289.22 0.
-397.83 -1036.15 0.
-364.357 -876.919 0.
-303.157 -758.083 0.
-258.429 -665.425 0.
-342.317 -816.648 0.
-333.325 -797.628 0.
-323.174 -774.936 0.
-414.854 -887.778 0.
-365.806 -870.353 0.
-351.212 -828.869 0.
-443.263 -939.847 0.
-424.908 -896.051 0.
-286.377 -691.377 0.
-378.437 -735.748 0.
-399.006 -787.976 0.
-366.86 -814.094 0.
-373.366 -829.913 0.
-383.733 -852.229 0.
-326.43 -778.185 0.
-334.994 -796.773 0.
-345.638 -811.875 0.
-217.196 -548.477 0.
-277.675 -734.411 0.
-353.48 -913.905 0.
-339.264 -845.519 0.
-503.392 -1225.42 0.
-27.5286 -27.3951 0.
-44.4189 -45.676 0.
-532.323 -1361.46 0.
-15.7395 -15.3351 0.
-3.84292 -5.65501 0.
-425.492 -867.264 0.
-84.8313 -58.896 0.
-13.3748 -6.13242 0.
-18.6531 -9.79357 0.
-13.8242 -14.8455 0.
-138.378 -247.808 0.
-25.8139 -45.4801 0.
-18.5606 -27.0907 0.
-12.2489 -15.9783 0.
0.0606754 0.136177 0.
-132.02 -342.371 0.
-0.0211932 -2.29196 0.
-6.74018 -16.7337 0.
-2380.87 -5108.39 0.
-163.815 -307.322 0.
-474.074 -1196.31 0.
-0.0204979 -3.49394 0.
-0.565896 -5.12197 0.
-219.177 -588.292 0.
-0.306933 -16.913 0.
-0.0793292 -2.80221 0.
2.40232 6.65286 0.
8.65753 23.5308 0.
-132.311 -366.421 0.
22.8643 62.3134 0.
-15.6728 -42.2054 0.
37.4212 98.5902 0.
58.4656 146.999 0.
-513.552 -1183.87 0.
-462.552 -1156.87 0.
53.0591 131.299 0.
31.005 84.1391 0.
11.1258 29.523 0.
-9.68816 -24.0406 0.
65.3977 172.981 0.
29.3135 77.6354 0.
-0.00486616 -10.2891 0.
-17.6832 -46.5448 0.
8.12129 22.2387 0.
-118.73 -321.934 0.
-996.382 -2465.44 0.
12.1239 32.9143 0.
-424.782 -1112.73 0.
11.754 32.4918 0.
-0.237896 -16.6373 0.
-1385.7 -3293.4 0.
-0.100871 -8.3225 0.
-58.2669 -133.482 0.
1.73468 4.50022 0.
0.263438 0.502413 0.
-0.223405 -0.985655 0.
-1.02338 -2.35741 0.
-0.147843 -1.75205 0.
-0.0494768 -0.915044 0.
-15.5995 -42.2362 0.
0.00098215 0.00254822 0.
-0.0435157 -0.10753 0.
0.189913 0.511804 0.
0.21069 0.483563 0.
-28.1064 -54.1945 0.
-4.01404 -10.7603 0.
0.0998381 0.247582 0.
-19.305 -8.75071 0.
-12.9013 -4.8269 0.
-11.8128 -4.29423 0.
-112.966 -229.885 0.
-14.416 -9.71682 0.
-16.716 -13.6607 0.
-128.679 -285.411 0.
-71.1625 -139.957 0.
-162.814 -333.637 0.
-64.9397 -133.872 0.
-28.1378 -56.0301 0.
-112.099 -204.042 0.
-131.377 -290.399 0.
-55.8656 -105.306 0.
-124.283 -169.018 0.
-118.148 -146.811 0.
-173.98 -290.229 0.
-218.807 -299.301 0.
-215.442 -285.056 0.
-10.3446 -19.3849 0.
-37.6687 -70.9901 0.
-141.434 -240.256 0.
-29.4118 -70.2999 0.
-170.279 -226.048 0.
-56.922 -85.6354 0.
-29.6819 -56.8729 0.
-139.698 -232.636 0.
-107.853 -155.577 0.
-30.8306 -62.6786 0.
-89.2715 -188.683 0.
-77.8095 -158.38 0.
-51.8844 -42.7788 0.
-198.237 -409.966 0.
-37.4441 -33.6746 0.
-30.3181 -28.0169 0.
-59.5906 -50.7302 0.
-37.0866 -27.8904 0.
-21.4058 -16.1219 0.
-21.6388 -15.0725 0.
-153.664 -105.57 0.
0.159934 0.000624687 0.
-14.2966 -10.1343 0.
-5.8098 -8.80858 0.
-21.0996 -58.1334 0.
-6.25802 -11.2919 0.
-1.02343 -1.60975 0.
0.33137 0.481342 0.
-0.0152208 -0.34593 0.
-39.4483 -99.9343 0.
-8.34462e-05 -0.232098 0.
-0.0543525 -2.66324 0.
-0.109697 -4.12092 0.
-0.731155 -5.30712 0.
-1743.41 -2854.13 0.
-1339.06 -3416.27 0.
-0.253366 -12.8831 0.
-171.481 -467.149 0.
2.65039 7.07798 0.
-885.886 -2351.41 0.
8.77782 24.2333 0.
22.3637 61.8403 0.
-0.0555702 -21.0849 0.
-1146.14 -3095.98 0.
-3.60949 -9.63794 0.
-479.106 -1250.38 0.
46.1712 116.092 0.
-727.573 -1665.9 0.
-599.925 -1475.47 0.
80.503 222.557 0.
-1.27022 -72.1035 0.
-24.7336 -65.199 0.
49.6744 123.944 0.
59.7053 162.745 0.
-31.8624 -84.2809 0.
13.3709 37.0311 0.
-111.731 -292.042 0.
-0.297961 -45.1875 0.
-886.332 -2388.18 0.
-0.0044319 -25.5896 0.
-9.4148 -25.5671 0.
-379.61 -1004.22 0.
11.2355 31.0469 0.
-1103.73 -2818.03 0.
-0.00899482 -1.65304 0.
1.4372 3.8852 0.
0.265299 0.658681 0.
0.0100001 2.0541 0.
0.3685 0.731215 0.
-1494.22 -3254.27 0.
-0.0522925 -0.224205 0.
-2132.32 -4420.2 0.
0.344935 1.63462 0.
-1528.54 -3708.21 0.
-0.207605 -1.05603 0.
-0.175792 -1.24401 0.
-2046.01 -5396.07 0.
0.399548 0.966756 0.
-1892.33 -3730.94 0.
-151.189 -347.889 0.
0.41276 0.362459 0.
-1885.43 -4832.9 0.
-207.071 -546.464 0.
0.16986 0.360635 0.
-1208.87 -3128.26 0.
-453.6 -1182.73 0.
-20.0155 -26.3243 0.
-871.693 -2249.96 0.
-544.656 -1461.52 0.
-580.127 -1504.37 0.
-403.227 -1086.45 0.
-242.257 -670.525 0.
-387.059 -996.706 0.
-314.569 -804.981 0.
-244.835 -615.36 0.
-334.744 -762.092 0.
-316.783 -718.562 0.
-301.542 -675.728 0.
-430.949 -788.761 0.
-493.588 -905.078 0.
-257.854 -692.149 0.
-384.693 -837.592 0.
-353.541 -745.599 0.
-320.251 -742.786 0.
-337.014 -793.308 0.
-356.762 -848.871 0.
-257.026 -667.246 0.
-360.832 -956.278 0.
-475.417 -1239.58 0.
-264.087 -697.557 0.
-465.544 -1215.96 0.
-680.657 -1723.73 0.
-557.532 -1386.11 0.
-1002.29 -2496.7 0.
-2.34607 -4.86579 0.
-417.729 -998.969 0.
-1394 -3471.79 0.
-41.1648 -19.1047 0.
-144.548 -127.885 0.
-2168.36 -5560.86 0.
-37.9696 -18.4862 0.
-52.7423 -63.3815 0.
-1954.4 -3342.39 0.
0.152815 0.249117 0.
-2321.66 -5948.78 0.
0.737469 0.219686 0.
0.00261447 0.480514 0.
-2021.65 -3859.24 0.
0.571916 1.42611 0.
-1815.74 -3820.29 0.
-0.281173 -4.98304 0.
-0.0305377 -3.89114 0.
3.71785 9.94533 0.
1.75652 3.98664 0.
3.43193 9.4641 0.
-261.662 -700.436 0.
-86.4751 -239.009 0.
-162.702 -446.656 0.
11.167 29.9712 0.
-2.90427 -7.96899 0.
-0.126343 -33.0482 0.
20.2916 56.1601 0.
-0.0451681 -60.9488 0.
3.8753 10.7126 0.
3.46783 9.55024 0.
-914.695 -2370.12 0.
-253.73 -674.316 0.
58.5764 149.513 0.
-60.7583 -146.265 0.
75.9871 208.268 0.
-2.81903 -102.583 0.
-3.18112 -122.442 0.
-4.15117 -10.3991 0.
-1.02725 -164.422 0.
-116.439 -308.316 0.
6.75842 18.4634 0.
-252.392 -657.501 0.
-1807.53 -4809.43 0.
32.3512 87.5299 0.
8.09303 22.3787 0.
18.8994 51.3362 0.
-355.124 -946.609 0.
-0.0153115 -19.0372 0.
-586.444 -1525.68 0.
6.7053 18.4543 0.
-0.107675 -11.8894 0.
-0.00067561 -2.31281 0.
-1835.69 -4846.31 0.
-0.000547326 -11.14 0.
-0.724422 -1.59538 0.
-0.0213789 -0.622136 0.
-0.702735 -2.92626 0.
-0.0352945 -0.194461 0.
0.765234 1.44636 0.
0.747395 1.51892 0.
0.0514456 0.450309 0.
-32.0611 -75.6892 0.
0.523583 1.32499 0.
-32.8924 -52.081 0.
-3.93268 -6.95178 0.
-0.276713 -0.116733 0.
-94.9635 -262.892 0.
0.322001 0.493328 0.
0.234245 0.451222 0.
-452.483 -1193.13 0.
-8.98581 -17.0919 0.
-16.4473 -25.9105 0.
-489.895 -1304.78 0.
-174.665 -476.326 0.
-382.832 -1010.06 0.
-215.859 -584.972 0.
-83.1948 -228.658 0.
-363.25 -847.908 0.
-294.426 -654.429 0.
-227.535 -459.425 0.
-293.91 -644.18 0.
-277.387 -598.063 0.
-272.883 -540.186 0.
-405.294 -773.065 0.
-462.123 -895.681 0.
-128.743 -305.401 0.
-382.4 -811.497 0.
-353.574 -719.944 0.
-292.87 -640.226 0.
-312.93 -690.075 0.
-334.978 -747.307 0.
-156.112 -380.351 0.
-256.14 -674.701 0.
-364.378 -963.726 0.
-55.5866 -95.1852 0.
-221.235 -530.519 0.
-421.27 -1055.27 0.
-98.4342 -168.196 0.
-539.596 -1341.43 0.
-2.51244 -5.40805 0.
-0.271474 -0.648444 0.
-316.667 -662.087 0.
-26.0898 -11.4975 0.
-26.359 -10.718 0.
-131.13 -131.15 0.
-6.80047 -7.45185 0.
-21.0555 -40.7462 0.
-69.9862 -87.6271 0.
0.0673146 0.38387 0.
0.753148 0.112317 0.
0.945959 0.0586409 0.
0.0206118 0.498173 0.
-0.000742874 -0.700153 0.
0.0269522 0.694431 0.
-0.472676 -2.41379 0.
-0.0298456 -2.49784 0.
-2174.34 -5205.95 0.
-0.323613 -5.90682 0.
-0.424098 -5.90284 0.
-0.00162858 -8.52545 0.
-237.182 -647.692 0.
-78.0593 -215.848 0.
-706.785 -1942.14 0.
-1.28715 -3.46979 0.
9.09269 25.1232 0.
-221.645 -603.971 0.
-285.939 -787.177 0.
12.0567 33.0092 0.
-15.2797 -42.2335 0.
-24.7947 -68.3632 0.
-2.57042 -119.431 0.
12.7115 33.6455 0.
22.7144 58.518 0.
-16.8658 -39.7162 0.
-1.73858 -135.1 0.
29.7528 74.7501 0.
13.3351 34.2391 0.
40.7148 102.245 0.
37.8134 103.219 0.
-299.746 -795.846 0.
-11.3672 -31.0996 0.
-476.008 -1239.63 0.
-18.0839 -50.0585 0.
20.2926 55.3476 0.
-3.4995 -9.69188 0.
-16.0283 -43.548 0.
11.3985 31.5713 0.
7.39181 20.474 0.
-165.626 -437.072 0.
5.01116 13.8359 0.
-1477.36 -3839.51 0.
4.01884 10.8654 0.
-19.6226 -53.4239 0.
4.97466 13.6792 0.
0.415205 1.04256 0.
-0.000491574 -0.471453 0.
-0.116291 -0.531202 0.
0.310842 1.94168 0.
-0.0654116 -0.364541 0.
-896.9 -2181.24 0.
0.484371 1.24202 0.
-1514.46 -4097.48 0.
-0.0199451 -0.954857 0.
-1709.36 -3412.5 0.
-8.73368 -12.2973 0.
-9.12353 -12.6095 0.
-1907.68 -5149.33 0.
0.0419191 0.170577 0.
-9.53955 -24.8325 0.
-1460.14 -3662.21 0.
-302.67 -767.855 0.
-25.3965 -46.7915 0.
-1011.93 -2627.97 0.
-471.635 -1241.32 0.
-706.498 -1752.02 0.
-444.055 -1114.93 0.
-198.538 -478.638 0.
-545.103 -1291.14 0.
-398.108 -935.62 0.
-260.044 -576.452 0.
-363.552 -805.843 0.
-325.068 -704.938 0.
-290.487 -612.221 0.
-437.941 -834.904 0.
-407.69 -766.703 0.
-408.532 -529.133 0.
-322.299 -592.052 0.
-341.412 -643.269 0.
-268.21 -561.749 0.
-338.435 -752.136 0.
-417.69 -956.542 0.
-198.329 -502.822 0.
-382.051 -986.708 0.
-581.243 -1463.13 0.
-167.897 -343.523 0.
-466.062 -1114.79 0.
-785.866 -1870.9 0.
-444.432 -1090.58 0.
-1162.76 -2944.49 0.
-7.79626 -12.5787 0.
-120.486 -276.167 0.
-1610.45 -4159.9 0.
-43.158 -38.0536 0.
-6.24873 -3.30106 0.
-1436.33 -3487.56 0.
-0.00887076 -0.017961 0.
-1802.26 -3881.11 0.
-39.9014 -100.548 0.
-28.2653 -68.5397 0.
-1237.67 -3031.48 0.
-17.8428 -49.2553 0.
0.0205002 0.258353 0.
-0.0117351 -0.724325 0.
-0.128349 -3.62853 0.
-0.112036 -0.772503 0.
-0.00713391 -5.30996 0.
-0.198777 -5.74183 0.
4.02043 10.2646 0.
-1486.03 -3410.27 0.
-350.677 -947.266 0.
-396.586 -1094.49 0.
-57.0512 -157.811 0.
-605.517 -1656.03 0.
11.7229 31.7183 0.
-0.176436 -0.488567 0.
-7.67878 -21.2608 0.
-1048.31 -2864.58 0.
-0.316119 -86.7623 0.
6.6448 18.3681 0.
-13.6764 -37.744 0.
-28.1042 -74.675 0.
-27.5493 -73.0107 0.
-791.416 -2051.99 0.
-4.45075 -10.2388 0.
27.3597 71.1099 0.
-4.63795 -71.9127 0.
-26.6158 -66.9185 0.
-4.54408 -12.5204 0.
47.5613 129.776 0.
-1042.53 -2779.56 0.
-362.114 -992.045 0.
-580.134 -1581.27 0.
16.9347 46.8902 0.
4.84083 13.2826 0.
-97.5699 -270.243 0.
-1446.55 -3937.58 0.
9.14178 25.3211 0.
0.369516 1.0234 0.
-169.697 -452.09 0.
4.36217 12.0635 0.
-48.7802 -127.02 0.
6.53196 17.6271 0.
-1.72113 -4.74996 0.
4.50672 12.2067 0.
-0.0622367 -4.13823 0.
2.79138 7.67069 0.
-1545.79 -3758.24 0.
-0.165748 -2.99969 0.
-956.901 -2332.7 0.
0.0883707 0.949625 0.
-0.00070152 -0.0290925 0.
-0.00862973 -0.267476 0.
0.0021338 0.065967 0.
-18.7646 -28.4279 0.
-0.166666 -0.429278 0.
-0.0724061 -0.182921 0.
-143.66 -394.542 0.
0.274844 0.0343778 0.
-3.23497 -8.80606 0.
-201.509 -507.246 0.
-16.4173 -39.3268 0.
-14.0015 -38.4688 0.
-461.191 -1232.4 0.
-13.0189 -34.0419 0.
-386.189 -999.811 0.
-134.128 -331.436 0.
-25.7029 -71.0711 0.
-349.94 -913.233 0.
-212.733 -552.969 0.
-104.659 -258.827 0.
-276.546 -661.705 0.
-241.444 -575.658 0.
-220.427 -515.645 0.
-423.72 -817.774 0.
-399.85 -753.895 0.
-300.417 -616.941 0.
-280.304 -610.151 0.
-290.412 -641.42 0.
-181.87 -386.313 0.
-243.622 -577.473 0.
-316.41 -775.85 0.
-50.7181 -95.4549 0.
-174.158 -451.058 0.
-356.116 -939.621 0.
-9.28412 -18.0665 0.
-51.7998 -85.801 0.
-357.856 -854.675 0.
-22.2715 -21.2381 0.
-462.259 -1181.34 0.
-1.89292 -2.94911 0.
-2.29169 -4.63943 0.
-100.251 -240.002 0.
-22.5515 -24.5954 0.
-4.94894 -3.35912 0.
-0.32038 -0.0602685 0.
-0.166134 -0.209929 0.
-511.185 -1343.06 0.
-12.5251 -32.2547 0.
-8.57152 -21.8132 0.
-34.2056 -84.3989 0.
0.355859 0.983682 0.
-2575.4 -5727.47 0.
-0.182357 -2.21916 0.
-0.500994 -3.80687 0.
-1725.33 -4046.07 0.
-0.000663866 -10.2691 0.
3.43029 9.1211 0.
6.82936 17.89 0.
-0.388077 -0.923113 0.
-68.515 -186.404 0.
1.20249 3.24389 0.
-43.4092 -120.1 0.
-481.299 -1323.41 0.
11.1463 30.2582 0.
-144.036 -398.935 0.
11.913 32.9963 0.
-0.282638 -91.5436 0.
2.27575 6.2644 0.
-141.583 -391.462 0.
-28.7399 -79.3806 0.
13.064 34.9762 0.
39.2923 104.197 0.
38.8897 107.712 0.
62.7975 140.954 0.
-4.34771 -82.9178 0.
35.6603 81.3393 0.
-134.704 -329.612 0.
-15.1954 -41.8576 0.
-17.8202 -48.5555 0.
-1184.94 -3174.86 0.
-1077.98 -2957.03 0.
10.2448 27.9603 0.
22.6259 62.6607 0.
-121.559 -335.001 0.
-490.054 -1357.36 0.
3.38783 9.35116 0.
-0.0057537 -62.2227 0.
-423.311 -1171.96 0.
10.0746 26.5413 0.
-423.207 -1152.36 0.
5.31111 13.8228 0.
0.444749 1.19782 0.
5.68905 15.7569 0.
5.12233 14.1727 0.
-1316.82 -3252.83 0.
0.475428 1.31331 0.
-9.83567 -26.2924 0.
0.683186 1.83 0.
-0.055604 -4.69281 0.
0.00632315 0.0919054 0.
1.23231 3.26569 0.
-0.000763095 -0.0164281 0.
0.335157 0.829842 0.
0.000613243 0.0116468 0.
-0.00213989 -0.406665 0.
-0.0139258 -0.570489 0.
0.0204485 0.0625163 0.
0.000567993 0.204987 0.
-3.02734 -8.0549 0.
-18.5909 -41.8131 0.
-18.2846 -40.6974 0.
-24.7554 -46.2037 0.
-31.8363 -65.5629 0.
-21.4584 -40.8129 0.
-53.467 -100.58 0.
-33.3259 -65.8479 0.
-36.6437 -72.8805 0.
-124.165 -341.532 0.
-31.3477 -76.8125 0.
-16.8231 -30.411 0.
-127.564 -217.12 0.
-147.337 -256.874 0.
-105.476 -154.813 0.
-232.731 -156.56 0.
-229.646 -173.704 0.
-85.7777 -83.2576 0.
-46.0119 -51.4237 0.
-214.694 -359.059 0.
-35.4424 -32.9037 0.
-147.139 -273.226 0.
-150.068 -292.222 0.
-28.5249 -49.2853 0.
-20.0559 -31.9617 0.
-126.194 -259.088 0.
-7.99194 -12.3209 0.
-8.95563 -13.0742 0.
-17.7109 -29.5269 0.
-31.2788 -33.8883 0.
-56.3818 -81.0037 0.
-1.74016 -2.69059 0.
-4.10404 -8.86806 0.
-12.2172 -28.2596 0.
-22.9589 -24.3467 0.
-4.74717 -3.63667 0.
0.474109 0.283961 0.
0.335458 0.360614 0.
-17.987 -27.5593 0.
-1.78621 -4.69836 0.
-5.44273 -14.1274 0.
-32.8078 -83.415 0.
-0.0108406 -3.50932 0.
0.382418 1.02142 0.
2.04222 4.90624 0.
-0.247845 -2.27553 0.
0.00250205 4.55385 0.
0.545795 1.46835 0.
-1278.65 -2984.66 0.
3.96942 10.5642 0.
11.8328 32.3738 0.
5.47455 14.9799 0.
-97.6315 -268.599 0.
-35.2379 -97.5063 0.
-321.694 -887.489 0.
-19.1099 -52.6409 0.
-606.144 -1678.11 0.
5.85409 16.2134 0.
-0.173648 -85.7735 0.
-33.7554 -93.1069 0.
-363.556 -1005.65 0.
35.6832 98.6202 0.
-218.483 -588.887 0.
-201.158 -533.259 0.
-0.00693878 -126.107 0.
-6.78826 -14.883 0.
9.70042 39.2154 0.
6.42206 14.203 0.
20.5107 55.1397 0.
1.3837 3.80897 0.
-245.214 -666.403 0.
34.3635 95.1674 0.
-14.2354 -39.0086 0.
-163.824 -447.757 0.
-26.1969 -72.5586 0.
-528.969 -1462.16 0.
-844.408 -2338.66 0.
27.1474 74.8698 0.
16.4576 45.557 0.
-779.977 -2158.08 0.
-0.249773 -11.9074 0.
-443.921 -1216.16 0.
-0.226253 -41.2844 0.
6.46377 17.3782 0.
-901.305 -2404.14 0.
-0.00581231 -19.625 0.
-0.889189 -2.31305 0.
1.74024 4.8158 0.
-17.6744 -48.7544 0.
0.347886 0.96333 0.
-120.376 -322.92 0.
-1289.55 -3140.68 0.
0.0182547 0.515173 0.
-1383.26 -3271.24 0.
-0.00115504 -0.393378 0.
0.0381569 0.614198 0.
-2001.53 -4850.93 0.
0.033796 0.705743 0.
-1314.79 -3414.73 0.
-0.370881 -0.196087 0.
-0.306787 -0.117984 0.
-1601.49 -4158.74 0.
0.450793 0.238592 0.
-13.7886 -20.7605 0.
-1299.33 -3338.59 0.
-234.728 -574.629 0.
-864.591 -2121.78 0.
-427.006 -1037.53 0.
-95.1368 -195.527 0.
-656.451 -1746.47 0.
-387.295 -1050.42 0.
-138.914 -370.487 0.
-486.405 -1209.87 0.
-337.77 -813.242 0.
-205.186 -447.616 0.
-433.073 -906.759 0.
-409.043 -837.621 0.
-264.787 -566.165 0.
-339.683 -768.839 0.
-397.152 -916.721 0.
-194.018 -428.029 0.
-360.192 -901.96 0.
-559.662 -1443.45 0.
-68.6617 -138.715 0.
-423.552 -1103.45 0.
-791.142 -2055.05 0.
-48.8395 -86.803 0.
-433.803 -1014.74 0.
-947.92 -2266.16 0.
-93.719 -194.553 0.
-1359.29 -3595 0.
-0.00034927 -0.000664743 0.
0.016744 0.0173494 0.
-1693.41 -4408.04 0.
0.915835 0.746407 0.
1.1562 0.850041 0.
-1794.21 -3223.82 0.
0.0408586 0.62913 0.
-1779.38 -4525.41 0.
-110.089 -200.225 0.
-70.9963 -106.164 0.
-1795.99 -3226.42 0.
-0.0292563 -2.92309 0.
-1170.91 -3146.62 0.
-0.398818 -7.46908 0.
1.92391 4.39484 0.
-0.0430321 -11.6944 0.
-0.0673647 -14.5275 0.
-0.0173882 -7.14156 0.
-772.061 -2021.4 0.
6.33826 17.3246 0.
6.37345 17.5043 0.
-83.4811 -230.619 0.
-27.7201 -76.7092 0.
-186.433 -515.434 0.
-15.9691 -43.9835 0.
-766.772 -2121.99 0.
19.4695 53.9013 0.
-2.20257 -6.08321 0.
-451.059 -1247.13 0.
-480.632 -1330.27 0.
-9.94518 -27.5 0.
12.3755 34.2745 0.
-682.231 -1806.27 0.
47.4965 131.388 0.
-7.35335 -64.6533 0.
-13.2273 -43.6343 0.
-8.65899 -67.2776 0.
-8.37119 -22.0191 0.
39.9915 109.963 0.
-272.858 -738.764 0.
43.325 119.999 0.
-0.443808 -115.321 0.
-14.1615 -39.0647 0.
-124.339 -344.396 0.
-232.307 -641.808 0.
-19.824 -54.7367 0.
5.79629 15.9683 0.
4.53258 12.5389 0.
5.83997 15.8616 0.
-10.2841 -28.168 0.
-330.731 -909.928 0.
15.6444 42.6605 0.
-990.157 -2491.02 0.
5.23129 14.3084 0.
-0.0028816 -14.5531 0.
4.38873 12.0245 0.
-499.75 -1282.99 0.
-0.136416 -12.4397 0.
-1488.67 -3173.4 0.
-0.000854811 -0.233737 0.
-0.040571 -1.65186 0.
-0.0277619 -2.92094 0.
-0.000709969 -1.17206 0.
0.00963279 0.611997 0.
0.117554 1.30408 0.
0.0691083 1.02838 0.
0.0762619 0.991057 0.
-0.120179 -0.106958 0.
0.0722963 0.0455569 0.
0.264194 0.119185 0.
0.488966 0.0370792 0.
0.0625165 0.387543 0.
0.0979643 0.200451 0.
-402.536 -999.686 0.
-22.4868 -31.8994 0.
-344.859 -790.943 0.
-14.8049 -10.7867 0.
-4.60437 -1.94713 0.
-365.158 -964.081 0.
-121.363 -299.965 0.
-26.5059 -69.7456 0.
-400.469 -932.193 0.
-280.905 -600.473 0.
-163.765 -270.41 0.
-383.553 -813.313 0.
-360.676 -749.186 0.
-77.5134 -80.2837 0.
-317.223 -670.166 0.
-352.363 -770.103 0.
-85.5579 -113.627 0.
-230.334 -515.745 0.
-400.739 -992.732 0.
-9.25758 -7.86319 0.
-51.3917 -79.0122 0.
-394.968 -1013.18 0.
-20.3036 -29.6704 0.
-20.5546 -22.0562 0.
-293.734 -635.999 0.
-17.4185 -26.2557 0.
-277.034 -719.827 0.
-0.0568593 -0.272288 0.
-0.0129222 -0.0226019 0.
-0.194683 -0.176152 0.
0.140956 0.141371 0.
-0.854009 -0.637779 0.
-0.351716 -0.215421 0.
0.243483 0.489446 0.
-76.4544 -205.888 0.
-52.7492 -95.5206 0.
-0.210271 -0.604142 0.
-0.639206 -1.29793 0.
0.0014581 1.42631 0.
-59.5621 -164.976 0.
0.109797 0.289417 0.
-1391.24 -3367.33 0.
5.84344 16.1367 0.
-0.0156092 -12.3133 0.
8.23111 22.7846 0.
-371.422 -995.14 0.
-151.321 -419.13 0.
-3.34258 -9.20339 0.
-100.165 -277.243 0.
21.6222 59.8146 0.
-59.7574 -165.42 0.
-0.197274 -83.6767 0.
-1.30754 -3.6187 0.
24.0269 66.4756 0.
-17.5415 -48.4192 0.
-30.1543 -83.3461 0.
-211.383 -583.647 0.
-510.027 -1410.95 0.
-29.1128 -80.6332 0.
-1502.04 -3968.77 0.
45.3313 125.037 0.
-5.28989 -40.3003 0.
29.6728 43.0936 0.
-13.4365 -88.1092 0.
16.2528 41.66 0.
-348.174 -955.816 0.
-10.0953 -27.9581 0.
29.2332 80.5644 0.
-0.413296 -122.606 0.
-9.42274 -25.9875 0.
-678.169 -1878.3 0.
-361.798 -998.942 0.
29.3451 80.976 0.
-51.1569 -139.667 0.
-78.8644 -217.959 0.
24.6176 66.6869 0.
11.0951 30.3128 0.
-222.013 -612.619 0.
-6.31993 -17.4686 0.
-429.731 -1111.83 0.
-0.0443052 -21.9639 0.
6.26151 17.3376 0.
-149.195 -409.22 0.
-158.552 -426.064 0.
0.000423982 2.06604 0.
4.3743 10.7518 0.
-0.00704475 -3.31829 0.
-0.0289651 -3.27327 0.
0.000823399 1.04835 0.
-0.00810951 -1.02219 0.
-0.0871959 -2.12607 0.
-86.0968 -225.017 0.
-1600.86 -4396.72 0.
-0.000223094 -0.221531 0.
-1582.39 -2708.44 0.
-29.5968 -67.9948 0.
-5.71809 -10.7461 0.
-1555.61 -4152.33 0.
0.0882004 0.212371 0.
0.0125359 0.0869321 0.
-1337.52 -3471.78 0.
-35.7655 -28.1223 0.
-974.977 -2268.05 0.
-414.859 -924.092 0.
-21.4638 -27.7917 0.
-846.352 -2173.73 0.
-398.562 -1010.68 0.
-7.56234 -13.8747 0.
-593.486 -1455.83 0.
-363.539 -845.6 0.
-150.705 -254.86 0.
-444.617 -989.254 0.
-394.429 -871.598 0.
-208.843 -275.063 0.
-380.381 -866.232 0.
-487.842 -1145.63 0.
-102.17 -152.774 0.
-358.265 -865.021 0.
-648.234 -1643.23 0.
-5.72589 -7.48768 0.
-354.197 -903.394 0.
-926.633 -2408.64 0.
-11.574 -12.4781 0.
-368.735 -834.075 0.
-1017.13 -2373.27 0.
-6.21975 -3.57671 0.
-1422.26 -3555.77 0.
0.0466485 0.0656394 0.
0.18046 0.30094 0.
-1642.89 -4426.48 0.
-0.0873621 -0.170193 0.
-20.3164 -41.0619 0.
-1473.43 -2765.97 0.
-0.0721664 -0.465011 0.
-1090.33 -2945.96 0.
-77.5255 -140.121 0.
-1.0346 -3.34406 0.
2.07111 3.01729 0.
-0.0260821 -1.17883 0.
-16.8546 -45.9433 0.
2.04976 5.48892 0.
-0.442477 -9.22167 0.
5.37712 14.8834 0.
-1066.08 -2741.19 0.
7.82075 21.6574 0.
-59.8844 -162.602 0.
-172.262 -476.793 0.
-3.50635 -9.67101 0.
-148.991 -412.669 0.
-2.50352 -6.92985 0.
-52.6642 -145.861 0.
-18.7983 -51.7783 0.
27.2392 74.2136 0.
8.45608 23.3758 0.
34.037 93.9082 0.
-216.972 -599.44 0.
-18.0319 -49.9317 0.
-272.525 -754.103 0.
32.7233 90.6371 0.
10.4354 28.6032 0.
-710.3 -1948.32 0.
0.826782 1.70638 0.
89.3602 160.951 0.
-11.7966 -23.1783 0.
26.3973 65.7545 0.
-10.2585 -28.1016 0.
6.52286 18.0618 0.
-210.27 -578.997 0.
16.0155 44.0411 0.
-7.16448 -19.7562 0.
-711.704 -1970.93 0.
-1134.11 -3128.33 0.
-38.0576 -104.936 0.
-47.7886 -130.408 0.
-698.341 -1926.89 0.
-4.48025 -12.2522 0.
-9.9489 -27.1001 0.
29.139 74.8724 0.
-37.571 -104.043 0.
-149.862 -395.314 0.
6.12411 16.9396 0.
-789.916 -2098.46 0.
-5.66945 -15.5024 0.
-74.6311 -205.164 0.
-0.00270248 -0.967273 0.
3.50984 8.90781 0.
-0.0409659 -3.71605 0.
-1399.28 -3030.78 0.
2.45742 6.58582 0.
-1426.95 -3013.84 0.
0.266701 0.738404 0.
-0.0177823 -1.66433 0.
-87.6694 -241.517 0.
0.713923 1.85466 0.
-23.6181 -59.5024 0.
0.0877707 0.201369 0.
0.00136518 0.00302756 0.
-3.9281 -10.8766 0.
-0.000315005 -0.158175 0.
-3.48223 -9.1651 0.
-214.573 -474.743 0.
-16.081 -13.7047 0.
-228.241 -439.232 0.
-11.3053 -20.6503 0.
-14.7165 -33.3655 0.
-380.41 -924.262 0.
-19.2043 -34.5309 0.
-8.21512 -13.623 0.
-343.088 -838.096 0.
-122.112 -220.142 0.
-44.8144 -32.4061 0.
-326.681 -675.338 0.
-278.103 -550.683 0.
-49.0165 -35.3663 0.
-183.165 -356.722 0.
-288.664 -638.781 0.
-36.9639 -35.5625 0.
-69.7614 -97.4416 0.
-350.285 -876.616 0.
-15.6329 -13.0383 0.
-16.509 -12.5625 0.
-339.918 -852.518 0.
-3.31539 -6.57033 0.
-8.67107 -17.1296 0.
-147.574 -334.774 0.
-0.155068 -0.0820902 0.
0.0468013 0.0270286 0.
-0.161354 -0.145734 0.
-2.65024 -4.47219 0.
-47.341 -130.545 0.
-0.110894 -1.13558 0.
-3.30436 -7.46918 0.
-19.1105 -43.068 0.
-0.0152225 -0.873773 0.
0.529255 1.17617 0.
0.26777 3.93235 0.
-1265.01 -2785.46 0.
-89.4659 -247.495 0.
-492.475 -1268.73 0.
-13.6663 -35.7661 0.
-0.0672357 -6.80702 0.
-0.250709 -0.637718 0.
-0.000442961 -28.067 0.
8.29676 21.794 0.
-353.607 -959.857 0.
-74.1358 -203.071 0.
-206.568 -570.572 0.
-319.046 -871.94 0.
-420.415 -1164.11 0.
17.5145 48.5006 0.
0.54306 1.50356 0.
-26.7439 -73.6757 0.
24.4656 66.4815 0.
-500.603 -1382.83 0.
-0.177841 -96.0401 0.
-456.16 -1259.65 0.
-20.5699 -56.9479 0.
-364.4 -1008.58 0.
-342.282 -948.059 0.
16.3092 44.6839 0.
-472.199 -1284.12 0.
-22.2248 -132.45 0.
88.3241 156.076 0.
-1205.88 -2665.2 0.
7.49138 20.1288 0.
-0.146576 -108.847 0.
0.00287179 0.0079496 0.
-682.755 -1877.2 0.
-11.6446 -32.0734 0.
-443.132 -1221.82 0.
19.2272 52.6046 0.
5.26978 14.4829 0.
-45.4034 -125.086 0.
-96.6462 -263.592 0.
-423.711 -1153.59 0.
-2.1851 -5.96403 0.
-440.947 -1196.55 0.
12.3694 33.3647 0.
-256.365 -709.951 0.
-64.3599 -172.105 0.
-446.262 -1211.44 0.
5.75197 15.1492 0.
5.29681 14.4431 0.
-311.94 -863.732 0.
6.67602 18.0552 0.
-982.107 -2597.91 0.
-0.000639583 -4.91343 0.
-0.0701768 -2.44178 0.
-0.00553694 -0.889023 0.
0.0170624 0.467848 0.
0.804788 2.20913 0.
0.81509 2.24666 0.
-0.201363 -0.513065 0.
-0.0620843 -0.827962 0.
-0.947344 -2.5581 0.
-0.00951956 -0.402808 0.
0.127004 0.317863 0.
-12.6544 -29.576 0.
-0.580402 -1.45114 0.
-10.2441 -26.4732 0.
-12.2736 -6.3246 0.
-19.939 -13.7788 0.
-23.9398 -25.9011 0.
-14.8145 -29.5995 0.
-21.8274 -46.3258 0.
-41.9382 -62.5178 0.
-27.9059 -37.7004 0.
-23.069 -22.1914 0.
-126.967 -220.737 0.
-31.717 -24.1394 0.
-33.0388 -26.413 0.
-140.457 -161.588 0.
-124.657 -121.353 0.
-53.3289 -34.8365 0.
-64.7632 -37.609 0.
-129.67 -188.351 0.
-41.4054 -37.0075 0.
-31.7842 -20.3917 0.
-79.2414 -94.7609 0.
-33.8129 -20.3377 0.
-39.7718 -21.6391 0.
-44.9208 -23.8339 0.
-0.462749 -1.25934 0.
-6.61925 -15.7866 0.
-32.5888 -47.0485 0.
-0.159142 -0.0666425 0.
-0.0182772 -0.00824935 0.
-0.0853875 -0.051989 0.
-12.9772 -18.8508 0.
-38.7676 -86.3986 0.
0.326609 0.826706 0.
0.0399114 0.099284 0.
-24.5086 -59.4605 0.
0.00221915 1.70036 0.
0.84964 1.47521 0.
-4.87057e-06 -7.42551 0.
-413.202 -1096.89 0.
2.9867 8.23031 0.
-0.384034 -9.49635 0.
-378.229 -815.763 0.
-1112.54 -2567.07 0.
0.980563 2.53377 0.
7.21831 19.9923 0.
-0.465151 -27.945 0.
-311.908 -856.419 0.
-76.4768 -209.525 0.
-341.222 -939.603 0.
-252.508 -689.766 0.
-11.3283 -30.8805 0.
-82.9023 -229.617 0.
-61.038 -167.328 0.
-842.124 -2320.69 0.
16.764 45.4278 0.
-97.8992 -270.069 0.
-113.523 -312.832 0.
-2.80097 -7.59023 0.
-15.739 -43.5649 0.
-4.23582 -11.6547 0.
-688.526 -1906.97 0.
25.6564 70.2358 0.
2.38742 6.60839 0.
-12.9331 -80.7143 0.
-6.08825 -14.3463 0.
-1.0867 -45.3077 0.
1.70683 4.44823 0.
-0.0262783 -106.416 0.
-151.328 -418.657 0.
-564.882 -1551.16 0.
8.49788 23.383 0.
-281.359 -775.812 0.
20.1302 54.9594 0.
12.3916 33.9901 0.
-2.11877 -5.75341 0.
-283.89 -773.817 0.
-2.68504 -7.1889 0.
3.86083 10.5163 0.
-479.935 -1296.95 0.
16.5544 44.6231 0.
-333.786 -923.016 0.
4.36848 11.5942 0.
-321.733 -881.817 0.
-2.713 -7.12775 0.
-0.236069 -30.6306 0.
-454.374 -1249.84 0.
-0.667434 -1.84835 0.
-2.98383 -8.15855 0.
-0.0112033 -4.13963 0.
0.010636 0.581085 0.
0.00165979 0.677208 0.
0.00301908 1.25897 0.
-1242.22 -2963.69 0.
0.000311564 0.871077 0.
-1185.14 -2792.38 0.
-0.214138 -1.98331 0.
-1375.51 -2794.42 0.
0.329125 0.735467 0.
0.15563 0.412947 0.
-1547.74 -4140.06 0.
-7.6903 -15.755 0.
-10.8644 -27.2164 0.
-1392.25 -3333.48 0.
-31.7894 -39.0111 0.
-1045.54 -2423.57 0.
-352.057 -754.167 0.
-41.7673 -48.1657 0.
-1044.74 -2652.77 0.
-276.33 -612.593 0.
-27.6165 -37.8331 0.
-719.512 -1877.38 0.
-336.4 -834.562 0.
-31.6774 -42.5717 0.
-557.216 -1314.63 0.
-451.775 -1042.02 0.
-104.826 -172.907 0.
-355.567 -860.535 0.
-569.576 -1451.76 0.
-12.7307 -9.99389 0.
-318.104 -742.919 0.
-817.478 -2058.41 0.
-27.6092 -13.1183 0.
-237.18 -519.535 0.
-1129.46 -2927.3 0.
-0.0517762 -0.281321 0.
-273.591 -609.192 0.
-979.386 -2262.8 0.
-0.00323945 -0.01049 0.
-1342.69 -3502.09 0.
0.00683917 0.246349 0.
0.208319 0.0682763 0.
-1116.89 -2622.43 0.
0.143128 1.02091 0.
-1769.47 -3911.5 0.
-0.03037 -4.11114 0.
-0.00702396 -0.0730043 0.
-1417.32 -3045.22 0.
-116.105 -308.398 0.
0.623219 1.72458 0.
6.05042 16.6099 0.
3.65467 9.28181 0.
7.23978 19.5315 0.
-2.91578 -7.40626 0.
12.7939 35.1656 0.
-562.705 -1542.56 0.
11.3273 31.0341 0.
-206.625 -570.845 0.
6.24044 17.0799 0.
-451.432 -1238.12 0.
-229.016 -625.205 0.
-37.341 -101.687 0.
-574.65 -1591.67 0.
-1.26934 -3.47145 0.
-3.94919 -10.7032 0.
-145.31 -392.716 0.
11.5357 30.9061 0.
-311.617 -858.029 0.
33.9288 91.956 0.
-468.27 -1295.96 0.
26.4586 72.7739 0.
-158.635 -439.261 0.
2.03765 5.57106 0.
-20.8567 -57.4074 0.
-0.0397957 -64.9448 0.
-21.692 -51.2317 0.
-2.35934 -49.7031 0.
1.99796 5.00971 0.
36.8102 101.94 0.
-434.288 -1200.29 0.
32.9481 91.2388 0.
11.9205 32.77 0.
0.327535 0.90316 0.
-0.855679 -2.33092 0.
31.757 86.9237 0.
-47.0343 -127.56 0.
-65.7564 -179.126 0.
-1.22502 -3.27827 0.
-587.848 -1597.02 0.
-6.0759 -16.3499 0.
-16.0134 -43.1426 0.
-432.386 -1192.5 0.
12.1103 33.0309 0.
-219.507 -605.29 0.
8.1256 22.3457 0.
-370.317 -990.32 0.
5.27634 14.4871 0.
-3.13172 -8.67432 0.
-1.39855 -3.86728 0.
10.7166 29.045 0.
4.29002 11.7709 0.
-1199.98 -2731.21 0.
-0.0430811 -7.82046 0.
-0.0458018 -2.7948 0.
-0.0226325 -5.4232 0.
-0.191313 -1.72489 0.
-0.0438001 -0.520003 0.
-0.0977055 -1.49356 0.
-0.175059 -0.988979 0.
0.00935227 0.0221513 0.
-46.6211 -61.3831 0.
-21.1616 -36.5206 0.
-12.9659 -34.7802 0.
-52.0366 -56.5167 0.
-39.3361 -48.3947 0.
-80.3463 -124.129 0.
-34.5912 -46.3929 0.
-35.5634 -45.0319 0.
-215.645 -468.483 0.
-36.5408 -44.0835 0.
-35.1662 -41.2459 0.
-292.586 -703.802 0.
-18.0784 -27.4328 0.
-28.255 -40.8921 0.
-289.014 -584.992 0.
-208.925 -357.466 0.
-25.3431 -26.6331 0.
-76.8248 -85.9547 0.
-256.464 -596.513 0.
-18.9229 -14.7661 0.
-11.9821 -8.24984 0.
-211.305 -395.431 0.
-28.5687 -14.1522 0.
-48.5225 -19.8371 0.
-230.13 -471.333 0.
-0.0334693 -0.0816066 0.
0.0165782 0.0401312 0.
-14.0249 -7.55236 0.
0.031752 0.03686 0.
-0.00631002 -0.00125502 0.
0.0138136 0.461823 0.
0.0326568 0.378534 0.
0.00132546 0.00666435 0.
-0.131374 -1.60153 0.
-0.1765 -1.41794 0.
0.00430232 4.15313 0.
-0.0975145 -2.23081 0.
-0.236189 -2.01444 0.
-0.0102272 -3.63099 0.
-906.045 -2348.25 0.
1.65141 4.4301 0.
-799.388 -2065.54 0.
-0.000889128 -3.89647 0.
8.50237 22.7097 0.
8.49239 23.4225 0.
-317.391 -873.12 0.
14.9684 41.0157 0.
-67.7464 -187.617 0.
8.91693 24.3745 0.
-158.663 -436.34 0.
-182.427 -497.682 0.
-44.8566 -122.04 0.
-7.16362 -19.4901 0.
0.491926 1.34186 0.
2.96332 8.00679 0.
-604.877 -1630.47 0.
-16.8083 -44.9288 0.
-30.5183 -83.9769 0.
-0.853072 -95.2145 0.
-42.3474 -117.188 0.
15.0651 41.4272 0.
33.6318 92.1403 0.
-661.611 -1806.49 0.
-774.161 -2103.03 0.
-0.0501009 -84.121 0.
-7.2724 -17.2273 0.
-1.22988 -16.2226 0.
-84.7356 -203.435 0.
-415.055 -1145.95 0.
20.2348 55.6089 0.
-35.3 -95.9961 0.
-687.363 -1887.17 0.
-16.9695 -45.6153 0.
-197.416 -536.56 0.
5.55566 14.8744 0.
-268.76 -727.839 0.
-62.7825 -170.907 0.
7.64254 20.4446 0.
-244.562 -663.131 0.
12.1987 32.6998 0.
-154.596 -416.354 0.
-115.352 -316.922 0.
-11.3025 -30.776 0.
-130.795 -361.85 0.
5.23914 14.3261 0.
-415.486 -1126.86 0.
4.40603 12.1768 0.
-0.001386 -20.0836 0.
9.56352 26.3586 0.
-670.565 -1839.37 0.
10.3046 28.5289 0.
5.06025 12.5226 0.
9.18971 25.397 0.
-0.0244654 -4.71428 0.
-0.054208 -6.87098 0.
1.13558 2.62783 0.
0.942442 2.27779 0.
-59.3077 -157.54 0.
-1526.62 -3818.13 0.
-0.284443 -0.645125 0.
-941.281 -1927.35 0.
-0.0489487 -0.1688 0.
-46.79 -68.5011 0.
-1271.19 -3231.26 0.
-26.2119 -22.1253 0.
-929.339 -1990.77 0.
-265.948 -449.384 0.
-46.0074 -33.0681 0.
-1063.04 -2791.98 0.
-138.453 -260.948 0.
-30.8558 -32.7415 0.
-853.978 -2167.11 0.
-309.347 -739.6 0.
-17.4927 -18.5573 0.
-629.251 -1512.69 0.
-511.517 -1196.38 0.
-46.474 -24.6357 0.
-371.057 -894.863 0.
-692.044 -1793.72 0.
-6.46369 -4.50641 0.
-241.867 -503.853 0.
-940.19 -2380.77 0.
-21.9701 -9.67038 0.
-17.2447 -9.86594 0.
-977.21 -2455.02 0.
-56.2523 -97.0105 0.
-1188.91 -2648.23 0.
0.350921 0.010874 0.
0.0233906 0.013348 0.
-1207.31 -3234.13 0.
0.133635 0.586831 0.
0.0483787 0.14797 0.
-1117.22 -2560.83 0.
-0.165091 -1.5638 0.
-0.237093 -2.93894 0.
7.06883e-05 5.16132 0.
-0.0577134 -2.64739 0.
0.11058 1.5232 0.
-0.000569488 -3.08177 0.
-0.385045 -1.05618 0.
6.53378 17.8286 0.
-50.7853 -134.648 0.
2.50877 6.94677 0.
3.05761 8.37595 0.
4.83315 13.3613 0.
-85.7186 -236.447 0.
9.72185 26.6141 0.
-37.2745 -103.191 0.
-22.7463 -62.0895 0.
-115.574 -317.537 0.
-255.862 -697.659 0.
-20.722 -56.4844 0.
-3.283 -8.92688 0.
-154.698 -420.704 0.
-2.15766 -5.81126 0.
-176.42 -473.759 0.
-1.25297 -77.8892 0.
-2.23924 -92.6577 0.
-66.5658 -180.606 0.
-17.6515 -47.8087 0.
-449.723 -1236.56 0.
13.0678 35.848 0.
-0.000286944 -86.1296 0.
-352.218 -942.592 0.
-0.35427 -64.4521 0.
5.29158 12.5876 0.
-8.01125 -75.4259 0.
-15.9917 -44.2537 0.
15.5847 43.0789 0.
-0.84766 -2.3369 0.
-89.6195 -243.389 0.
-0.441207 -1.16928 0.
10.4973 28.2063 0.
-627.433 -1701.75 0.
-16.1386 -43.131 0.
-751.534 -2031.98 0.
-3.81016 -10.1121 0.
8.62213 23.0582 0.
-17.3219 -46.8609 0.
-0.875912 -61.5655 0.
-658.678 -1773.77 0.
15.8413 42.7681 0.
-6.14389 -16.6996 0.
-36.091 -99.9638 0.
-0.160245 -54.234 0.
-414.142 -1134.16 0.
-0.307395 -0.851395 0.
2.79022 7.72396 0.
-4.615 -12.6785 0.
-1.62326 -4.48917 0.
7.65037 21.1476 0.
-0.223968 -7.61258 0.
10.7195 29.689 0.
-1093.69 -2625.67 0.
-0.0244007 -1.79891 0.
-1210.46 -2604.48 0.
1.22029 3.06358 0.
0.295395 0.808793 0.
0.477122 1.25213 0.
0.268898 0.614758 0.
-1.10399 -3.01023 0.
0.0860762 0.238106 0.
-36.0694 -61.7089 0.
-35.1906 -62.6476 0.
-19.5966 -15.5943 0.
-22.2617 -15.1338 0.
-39.9169 -24.5482 0.
-60.1138 -39.2744 0.
-208.451 -471.898 0.
-14.2499 -22.3578 0.
-17.5101 -28.6088 0.
-116.968 -177.564 0.
-24.1052 -24.3258 0.
-20.8822 -20.3116 0.
-119.26 -113.453 0.
-41.1323 -20.7232 0.
-9.74855 -7.91619 0.
-3.41451 -2.91334 0.
-83.9425 -108.729 0.
-8.48349 -5.27229 0.
-8.09926 -3.88425 0.
-79.1719 -76.5221 0.
-3.2619 -2.77814 0.
-0.0893705 -0.104527 0.
-1.12209 -1.0752 0.
-0.442218 -0.212623 0.
-242.351 -524.769 0.
0.465746 0.166621 0.
0.0185924 0.519334 0.
0.232141 0.413104 0.
0.138533 0.737255 0.
0.136726 0.50868 0.
-0.370183 -1.04072 0.
1.38872 3.79342 0.
-1368.04 -3423.42 0.
0.263984 0.709279 0.
0.279992 0.732936 0.
-1008 -2530.45 0.
-2.2662 -6.23713 0.
3.24208 8.97467 0.
4.15312 11.4411 0.
-78.4751 -211.595 0.
6.64536 18.3896 0.
-723.205 -1988.75 0.
9.77727 27.0664 0.
-68.2354 -188.608 0.
2.85705 7.81346 0.
-364.542 -1007.73 0.
-168.949 -460.382 0.
6.10244 16.6196 0.
19.6794 53.4099 0.
-9.01846 -24.5687 0.
-187.037 -508.306 0.
3.55592 9.35128 0.
-101.557 -272.554 0.
17.3803 45.17 0.
-410.971 -1094.29 0.
-1.86422 -73.9187 0.
-423.817 -1150.87 0.
3.56687 9.63664 0.
31.6819 84.7327 0.
-274.376 -753.714 0.
27.1933 75.3054 0.
25.4855 70.3517 0.
14.3668 39.6507 0.
37.7548 90.3503 0.
-3.11907 -7.55589 0.
22.6751 62.5704 0.
-349.515 -968.048 0.
-16.5647 -45.7873 0.
-331.67 -899.364 0.
36.3983 97.0351 0.
-429.356 -1154.08 0.
-1.80583 -90.6934 0.
-2.5561 -6.81889 0.
-416.218 -1124.37 0.
21.9554 58.264 0.
-609.22 -1628.48 0.
-12.5463 -33.4308 0.
25.552 68.3898 0.
-127.384 -343.062 0.
-1.35415 -59.5517 0.
-424.923 -1152.99 0.
-28.6463 -78.8769 0.
11.5636 31.7494 0.
-285.199 -785.9 0.
-0.0167612 -47.9593 0.
-482.349 -1317.75 0.
10.7258 29.499 0.
-16.3937 -45.4027 0.
4.55028 12.4765 0.
-714.894 -1937.03 0.
-0.0909311 -29.0207 0.
3.36787 8.63445 0.
0.001857 0.915111 0.
-0.31188 -3.4551 0.
1.70044 4.34784 0.
-0.0102628 -2.25886 0.
0.807309 2.08615 0.
1.31914 3.02975 0.
-0.751495 -1.98354 0.
0.195193 0.415337 0.
-32.2775 -48.3076 0.
-36.3485 -52.9438 0.
-18.2293 -14.3367 0.
-18.6556 -17.4875 0.
-62.1096 -33.4957 0.
-102.495 -59.8704 0.
-15.9719 -23.1327 0.
-20.2449 -22.739 0.
-21.7282 -29.1194 0.
-49.0793 -38.4625 0.
-41.0124 -28.8583 0.
-39.7641 -25.9133 0.
-30.3673 -18.7948 0.
-33.1582 -18.0799 0.
-14.9459 -9.71951 0.
-9.5844 -5.71982 0.
-10.4722 -6.22665 0.
-14.5736 -7.536 0.
-13.7266 -5.92283 0.
-24.8362 -9.04743 0.
-3.72002 -3.68321 0.
0.193996 0.262018 0.
-0.189513 -0.29158 0.
-12.3729 -5.87459 0.
-7.18418 -2.86341 0.
0.290021 0.559899 0.
0.866881 0.473114 0.
0.0594016 0.414391 0.
0.0392255 0.242108 0.
-0.219211 -0.943194 0.
0.0777073 0.25847 0.
-0.0102488 -3.0348 0.
-0.329848 -0.897528 0.
1.80267 4.9324 0.
0.6923 1.85667 0.
1.03045 2.84802 0.
-1.43721 -3.9543 0.
-199.707 -532.984 0.
-563.392 -1511.51 0.
-210.341 -573.623 0.
-0.021578 -30.4735 0.
3.11634 8.59589 0.
-48.6679 -134.708 0.
-329.974 -913.336 0.
0.702254 1.91842 0.
-192.573 -517.941 0.
-11.1381 -30.0093 0.
6.25803 17.0221 0.
1.68876 4.57757 0.
10.5949 28.7131 0.
-255.484 -693.942 0.
-60.7679 -159.596 0.
-501.634 -1340.57 0.
-13.8168 -35.8764 0.
-430.439 -1144.03 0.
31.2546 81.4738 0.
17.1079 43.6386 0.
-259.396 -698.786 0.
2.80926 7.49256 0.
-83.0681 -228.524 0.
-446.93 -1236.93 0.
38.8011 107.254 0.
-10.7496 -29.4601 0.
28.3924 70.791 0.
-162.38 -398.122 0.
25.9696 71.9312 0.
-420.571 -1160.83 0.
-377.058 -1044.02 0.
-0.405197 -1.05856 0.
-486.47 -1304.32 0.
-21.9864 -59.0653 0.
32.6288 86.1191 0.
-353.214 -940.826 0.
0.639275 1.66772 0.
-35.0018 -92.8849 0.
-8.19967 -21.4657 0.
3.33543 8.88183 0.
-411.024 -1099.7 0.
6.82116 17.9247 0.
7.75437 20.3185 0.
-252.702 -684.386 0.
-344.518 -947.062 0.
17.4047 47.6966 0.
-69.5125 -192.229 0.
3.94076 10.9115 0.
-257.744 -704.929 0.
10.9992 30.2813 0.
-90.118 -248.886 0.
-71.5649 -195.247 0.
-38.7216 -106.475 0.
-0.00073134 -16.8036 0.
-0.148416 -9.04259 0.
-2.17362e-06 -15.6553 0.
-0.0483139 -1.91172 0.
-0.0446509 -1.50012 0.
-52.7272 -118.036 0.
-1010.71 -2530.96 0.
1.63089 4.50821 0.
-1082.99 -2040.57 0.
-14.2428 -32.9917 0.
0.197181 0.516775 0.
-1185.73 -3122.49 0.
-20.3699 -24.2205 0.
-18.6938 -20.3444 0.
-1329.98 -2708.14 0.
-47.6816 -42.3141 0.
-891.089 -2264.03 0.
-19.3459 -35.908 0.
-12.6083 -31.0982 0.
-926.369 -2315.63 0.
-164.411 -287.191 0.
-30.6576 -33.2996 0.
-615.041 -1529.16 0.
-436.33 -1091.23 0.
-12.6384 -6.87318 0.
-245.594 -553.923 0.
-774.193 -2013.7 0.
-14.2311 -9.11353 0.
-73.3027 -35.2488 0.
-963.044 -2434.85 0.
-0.201202 -0.217717 0.
-0.144467 -0.20477 0.
-1089.63 -2413.12 0.
-4.06209 -2.57534 0.
-1078.28 -2534.22 0.
0.012704 0.178812 0.
0.0052511 0.0548443 0.
-1151.56 -3001.84 0.
-0.118264 -1.54008 0.
-1.77116 -3.67694 0.
-1258.71 -2438.97 0.
1.20652 3.34083 0.
-564.598 -1550.74 0.
-0.0108838 -8.60153 0.
-0.0575386 -8.47476 0.
1.67548 4.63512 0.
-0.101396 -0.278866 0.
10.5561 29.1512 0.
-219.342 -602.284 0.
13.7421 38.0592 0.
1.90707 5.26917 0.
-0.121185 -25.9812 0.
-29.8305 -82.6219 0.
-237.742 -652.553 0.
8.47649 23.1293 0.
-11.3867 -30.5578 0.
-6.07883 -16.3411 0.
-1.83988 -4.99825 0.
-431.079 -1168.27 0.
5.68577 15.407 0.
-159.899 -434.073 0.
-63.7184 -167.158 0.
-85.5642 -222.833 0.
-71.3014 -184.986 0.
-17.9459 -46.2815 0.
-341.726 -889.229 0.
-19.247 -48.9955 0.
-29.3799 -78.9471 0.
-11.7594 -31.2728 0.
19.9884 53.4676 0.
-567.808 -1569.55 0.
-56.4887 -156.321 0.
6.63268 17.986 0.
27.7016 75.8462 0.
-328.426 -816.621 0.
26.6499 73.5115 0.
-101.799 -280.279 0.
21.8572 60.1046 0.
14.6481 38.6001 0.
-415.527 -1121.16 0.
-11.2983 -29.4171 0.
11.1237 29.31 0.
-69.8965 -185.827 0.
-6.03255 -15.7676 0.
-271.195 -719.714 0.
-11.0605 -28.8718 0.
-217.139 -577.846 0.
-1.43991 -64.0727 0.
16.0998 42.197 0.
-566.636 -1481.06 0.
-3.14057 -8.33922 0.
14.165 37.5361 0.
-89.1458 -243.842 0.
-304.519 -824.386 0.
10.9894 30.373 0.
-269.284 -737.667 0.
13.5624 37.3704 0.
-510.296 -1403.29 0.
-0.656975 -1.79615 0.
-49.4059 -136.737 0.
3.31758 9.16127 0.
-0.376072 -33.0295 0.
-803.309 -2116.44 0.
-0.301812 -23.6288 0.
-914.184 -2051.69 0.
-0.188758 -6.13038 0.
-0.0395477 -4.3444 0.
-0.0478568 -6.5894 0.
-0.0401157 -0.342202 0.
-0.0101034 -0.591457 0.
-0.00428932 -1.39352 0.
-28.5044 -31.2859 0.
-26.8088 -27.2317 0.
-25.0809 -23.2629 0.
-18.8231 -23.7489 0.
-29.5558 -35.1943 0.
-103.454 -137.535 0.
-44.0653 -46.9776 0.
-42.0372 -43.7374 0.
-24.7603 -34.8583 0.
-17.1098 -29.3622 0.
-17.4218 -25.9475 0.
-12.5759 -15.6869 0.
-4.35574 -3.68952 0.
-15.4593 -9.91388 0.
-2.02859 -1.27296 0.
-2.01012 -1.36177 0.
-10.2146 -7.47774 0.
-8.88283 -6.60916 0.
-17.1722 -11.3286 0.
-0.138834 -0.116753 0.
0.0337109 0.0303804 0.
-0.0714076 -0.0745261 0.
-0.00981093 -0.00829546 0.
0.402321 0.317764 0.
-0.0016204 -0.182737 0.
0.651701 1.67749 0.
-0.0667175 -1.28469 0.
1.22657 3.18511 0.
-0.227816 -3.00819 0.
-0.62598 -13.8986 0.
-0.0145668 -2.24506 0.
3.57731 9.90391 0.
5.28891 14.3877 0.
-992.097 -2556.26 0.
-0.0337715 -11.2778 0.
-0.0589898 -18.4471 0.
10.1206 27.5961 0.
9.28083 25.6883 0.
5.5943 15.4951 0.
-324.233 -895.385 0.
-0.253833 -33.7823 0.
-135.189 -373.949 0.
5.4778 15.0202 0.
-103.265 -282.638 0.
-0.750304 -51.7187 0.
-158.39 -424.647 0.
14.2735 38.118 0.
-226.015 -611.317 0.
-7.99963 -21.6773 0.
14.2584 38.3313 0.
-108.424 -284.141 0.
-54.8209 -139.456 0.
-296.358 -767.937 0.
-8.23379 -21.2495 0.
-15.3627 -39.0181 0.
-270.674 -687.736 0.
-35.9489 -91.1029 0.
-60.7907 -161.158 0.
10.814 29.0733 0.
13.9875 36.4689 0.
-309.739 -857.784 0.
-217.968 -582.343 0.
-6.99205 -18.8984 0.
29.1341 80.5327 0.
8.37543 23.1952 0.
-0.904381 -95.1004 0.
18.6264 51.3354 0.
-354.534 -941.78 0.
0.514024 1.29596 0.
32.948 86.216 0.
-261.282 -687.48 0.
-1.24476 -3.14767 0.
-576.96 -1511.18 0.
6.34385 16.2681 0.
-5.83009 -15.1738 0.
-212.95 -566.413 0.
9.56234 25.0917 0.
7.96417 20.8166 0.
-5.0288 -12.8941 0.
-34.395 -91.0865 0.
-38.2992 -101.2 0.
-107.693 -291.566 0.
3.48447 9.41879 0.
-20.0674 -55.2791 0.
4.65689 12.7576 0.
-16.2919 -45.1089 0.
2.33492 6.46238 0.
-2.17545 -5.95877 0.
-0.282738 -37.4732 0.
-337.613 -933.813 0.
-2.53561 -7.02196 0.
-64.3332 -173.672 0.
-0.0531834 -13.9714 0.
3.33213 8.10108 0.
4.9398 13.4033 0.
-0.0122298 -8.91591 0.
0.0174154 1.34025 0.
-0.0015077 -0.0162945 0.
-0.021061 -0.996634 0.
-45.7738 -94.815 0.
-603.271 -1490.65 0.
-41.8275 -58.4074 0.
-35.3189 -62.5637 0.
-909.075 -2407.37 0.
-21.8299 -19.5275 0.
-909.147 -1898.44 0.
-42.8982 -17.4801 0.
-43.7232 -24.3299 0.
-861.347 -2133.46 0.
-43.9886 -28.4213 0.
-25.1386 -19.8489 0.
-548.978 -1387.55 0.
-379.418 -957.923 0.
-43.7129 -19.7149 0.
-165.432 -305.331 0.
-757.662 -1946.19 0.
-6.11195 -2.48919 0.
-0.120401 -0.0120733 0.
-947.867 -2275.19 0.
-0.00854202 -1.69094e-05 0.
-0.229919 -0.00362281 0.
-951.156 -1846.54 0.
-0.00502804 -0.0183639 0.
-884.756 -2382.4 0.
-5.86501e-08 -1.84553 0.
0.268578 0.720547 0.
-648.655 -1653.35 0.
-0.00659417 -0.699872 0.
-0.012534 -0.315911 0.
-0.899433 -14.0915 0.
3.95524 10.5179 0.
2.86094 7.89732 0.
2.07174 5.64703 0.
5.94679 15.772 0.
6.23981 17.2731 0.
-727.199 -1951.91 0.
-0.946664 -2.61987 0.
1.53409 4.24533 0.
-7.32791 -20.2967 0.
-209.528 -579.141 0.
-33.2319 -91.6103 0.
-268.263 -739.976 0.
0.803538 2.20111 0.
-92.7456 -253.576 0.
-47.2861 -124.823 0.
-368.884 -986.251 0.
-8.74227 -23.3353 0.
17.1986 45.7804 0.
-115.162 -312.15 0.
10.9072 29.326 0.
-176.96 -463.321 0.
-111.508 -282.711 0.
-2.9469 -65.0922 0.
-275.809 -712.719 0.
-1.36954 -3.48238 0.
-15.711 -39.8268 0.
7.71691 19.6833 0.
-15.4255 -37.9738 0.
-694.574 -1876.34 0.
33.5925 88.1876 0.
20.5924 56.3548 0.
18.4909 49.9576 0.
-0.244588 -0.670193 0.
-9.76297 -27.0248 0.
14.2249 39.3596 0.
5.90665 16.0575 0.
-249.56 -689.179 0.
25.0931 63.2107 0.
-14.3061 -36.299 0.
-838.348 -2205.97 0.
34.632 84.8191 0.
-97.8122 -247.992 0.
-187.618 -492.633 0.
12.5367 32.0475 0.
-371.184 -963.05 0.
-12.2078 -31.4564 0.
-283.61 -742.78 0.
-213.371 -556.056 0.
16.8993 43.3062 0.
-265.119 -699.943 0.
-31.5253 -83.0548 0.
-97.5379 -263.769 0.
-3.12734 -8.44399 0.
-85.8056 -235.256 0.
-15.8494 -43.2671 0.
-81.6084 -226.041 0.
-0.037515 -39.4031 0.
-6.1465 -16.8642 0.
0.440506 1.21929 0.
-179.083 -495.574 0.
-4.90622 -13.589 0.
-36.1362 -99.086 0.
-0.0088838 -30.7083 0.
-0.493993 -14.8826 0.
4.9126 13.0317 0.
-905.148 -2160.69 0.
2.66063 6.77498 0.
-0.132132 -12.3487 0.
-1160.56 -2732.34 0.
-0.0618499 -4.43004 0.
-11.5083 -18.6896 0.
-6.32882 -12.3093 0.
-1.78392 -4.83245 0.
-36.4788 -55.3303 0.
0.039783 0.0302348 0.
-11.966 -6.02809 0.
-15.3785 -7.91058 0.
-31.3796 -19.7662 0.
-13.5753 -16.4065 0.
-16.3158 -16.9512 0.
-18.6089 -17.8704 0.
-28.7176 -20.0287 0.
-11.354 -9.58923 0.
-25.1689 -12.4363 0.
-6.26639 -3.3954 0.
-3.6882 -1.33323 0.
-7.42902 -3.41038 0.
-0.176389 -0.0198673 0.
-0.0441818 -0.00156795 0.
0.281983 0.102071 0.
-0.103377 -0.000260202 0.
0.00739466 9.35002e-05 0.
0.33402 0.813886 0.
-2.46762 -6.76439 0.
0.610384 1.68107 0.
-0.00669753 -2.20636 0.
-0.0417803 -2.18179 0.
-0.042291 -5.64844 0.
-1061.35 -2643.91 0.
5.52921 15.0465 0.
5.00607 13.8658 0.
-553.702 -1508.98 0.
-0.0911246 -14.7303 0.
-0.271285 -15.9496 0.
-0.00650075 -30.5753 0.
-48.4926 -132.256 0.
-0.0152614 -28.2903 0.
-429.945 -1190.7 0.
12.3636 34.2416 0.
-129.903 -359.293 0.
-7.6947 -21.2068 0.
-144.014 -396.903 0.
-83.624 -228.822 0.
-195.493 -533.89 0.
-60.351 -159.281 0.
14.4663 38.5936 0.
-12.256 -32.6982 0.
5.90481 15.7107 0.
-150.251 -407.337 0.
-121.872 -327.797 0.
-5.47743 -14.0175 0.
-287.076 -725.265 0.
-8.83021 -22.0101 0.
-194.649 -503.476 0.
7.84417 19.973 0.
-3.85126 -68.7018 0.
25.9143 65.1786 0.
25.8095 63.9745 0.
2.2176 5.69167 0.
-10.6543 -28.1673 0.
23.0272 63.4651 0.
8.92525 24.2266 0.
-5.56107 -15.1848 0.
27.0526 74.93 0.
-172.8 -477.215 0.
-322.263 -879.668 0.
32.9975 80.936 0.
32.1459 81.113 0.
-1.91585 -4.89664 0.
22.2336 54.7044 0.
-10.8591 -26.6858 0.
-218.166 -554.826 0.
-4.69021 -11.7132 0.
23.4623 59.7792 0.
1.88892 4.69774 0.
-2.05144 -63.4186 0.
-169.344 -442.689 0.
0.155968 0.39442 0.
-187.112 -479.188 0.
-191.24 -503.45 0.
-48.5166 -125.932 0.
-180.987 -488.903 0.
6.66335 17.9707 0.
-73.8326 -202.471 0.
-12.9168 -35.3148 0.
-278.717 -771.66 0.
11.9757 33.0215 0.
-337.395 -934.336 0.
10.9709 30.3651 0.
-39.2354 -108.618 0.
-6.6963 -18.5475 0.
-46.3222 -128.016 0.
1.2195 3.37704 0.
-572.819 -1519 0.
1.60883 4.36373 0.
3.57724 8.81495 0.
2.29637 6.00279 0.
5.65321 15.4523 0.
1.20442 3.1334 0.
-1.78462e-08 -0.0208276 0.
0.403812 0.863938 0.
-0.0312582 -0.806085 0.
0.376205 1.03665 0.
-14.6722 -30.7642 0.
-0.0199984 -0.0078659 0.
-7.86868 -5.17502 0.
-14.6534 -10.1266 0.
-28.5278 -20.5141 0.
-9.19938 -15.1268 0.
-10.1494 -15.1013 0.
-12.9044 -16.3122 0.
-20.5168 -17.6883 0.
-19.213 -14.0204 0.
-16.6797 -9.14982 0.
-1.05952 -0.700805 0.
0.00800292 0.00638808 0.
-15.2726 -7.02675 0.
0.237224 0.109085 0.
-0.0343121 -0.00173675 0.
0.349337 0.128305 0.
-0.421487 -2.40398e-05 0.
0.471548 0.171495 0.
0.0123873 0.0940323 0.
-0.00709861 -0.567595 0.
0.000579428 0.0836457 0.
0.97854 2.70962 0.
0.252332 0.685741 0.
-0.000471229 -8.84168 0.
2.76036 7.369 0.
-0.037611 -3.95431 0.
-0.00505155 -13.5521 0.
-0.127656 -22.9851 0.
-3.98601 -10.5588 0.
-176.506 -488.719 0.
-0.0353687 -26.1129 0.
5.88546 16.194 0.
-2.45188 -6.77892 0.
0.0765113 0.211876 0.
9.70065 26.829 0.
-38.2332 -105.802 0.
12.1163 33.3851 0.
-175.666 -483.993 0.
16.1898 43.8477 0.
-109 -297.333 0.
-67.9372 -179.279 0.
-8.85969 -23.123 0.
19.4579 51.8892 0.
-55.3459 -147.192 0.
14.1494 37.7711 0.
-186.774 -502.549 0.
-1.9993 -56.1438 0.
17.4489 42.6436 0.
22.9657 57.0563 0.
-3.32393 -65.6437 0.
-295.255 -753.398 0.
5.93055 14.453 0.
-12.0182 -28.7036 0.
-728.714 -1817.09 0.
13.7431 35.3523 0.
8.64567 21.7231 0.
-470.46 -1302.19 0.
-2.89357 -7.93872 0.
16.4252 44.659 0.
-70.1017 -194.092 0.
-58.9657 -157.925 0.
23.2973 61.4421 0.
-5.81853 -14.2986 0.
-725.306 -1832.03 0.
-35.6897 -91.9676 0.
-12.325 -30.196 0.
-379.366 -936.269 0.
14.1868 33.6028 0.
-36.0239 -89.8731 0.
13.6498 34.6582 0.
-0.0291984 -0.0728606 0.
-0.542111 -1.39163 0.
7.51688 19.0668 0.
-1.5528 -3.92561 0.
-213.672 -546.967 0.
-1.73394 -56.4317 0.
-95.0689 -247.057 0.
-225.226 -607.64 0.
0.783302 2.10423 0.
-191.213 -524.954 0.
-4.44008 -12.1564 0.
-46.5236 -128.675 0.
0.647731 1.78996 0.
-202.241 -560.027 0.
12.8158 35.4694 0.
-22.4412 -62.1424 0.
7.25056 20.0693 0.
-444.193 -1229.1 0.
4.13064 11.4319 0.
-0.240714 -22.4603 0.
-0.0597702 -17.9321 0.
-0.000128265 -25.4842 0.
-0.22979 -13.2708 0.
-0.0392481 -13.7356 0.
-436.697 -1183.23 0.
-0.0133251 -5.93879 0.
-862.626 -1621.63 0.
-21.5051 -43.7835 0.
-0.312279 -0.764187 0.
-818.226 -2176.25 0.
-1.20222 -3.11581 0.
-771.237 -1388.61 0.
-28.4623 -22.8811 0.
-35.5588 -27.1328 0.
-740.534 -1806.32 0.
-22.4156 -14.9839 0.
-13.3773 -8.83135 0.
-440.491 -1107.34 0.
-350.294 -882.299 0.
-53.9143 -62.2947 0.
-64.5685 -85.9709 0.
-647.795 -1647.14 0.
-13.1725 -4.75774 0.
-27.4929 -10.0368 0.
-852.331 -2023.21 0.
-0.432601 -0.180252 0.
-16.7824 -21.2133 0.
-781.845 -1404.11 0.
-0.000549388 -0.208173 0.
-696.178 -1884.43 0.
0.61423 1.69368 0.
-0.076099 -2.85347 0.
-698.684 -1649.27 0.
-0.110593 -11.5965 0.
-0.0403832 -8.56722 0.
5.28485 14.2582 0.
-0.0162057 -15.2868 0.
-0.0155098 -20.0093 0.
1.69614 4.59711 0.
-2.15725 -5.96589 0.
-244.119 -676.12 0.
-51.6573 -142.122 0.
10.5107 29.0429 0.
-1.36684 -3.76594 0.
-0.0732906 -44.0622 0.
-435.574 -1186.3 0.
-0.745403 -2.05337 0.
-152.098 -418.939 0.
-1.72511 -4.66259 0.
-0.546621 -41.776 0.
-93.7473 -247.376 0.
-51.1329 -133.456 0.
0.585123 1.50964 0.
-137.472 -365.427 0.
-72.9065 -194.304 0.
8.15197 20.4751 0.
-86.6568 -220.8 0.
-3.32967 -57.4854 0.
-38.68 -95.7465 0.
-24.2922 -59.7958 0.
8.20484 19.9019 0.
-604.24 -1469.13 0.
-4.98165 -71.1545 0.
-89.6433 -225.65 0.
-4.54245 -76.655 0.
-4.8369 -12.1856 0.
12.5609 34.5313 0.
-12.0377 -33.2578 0.
-27.6586 -74.7814 0.
19.7861 54.7798 0.
-1.55516 -58.3838 0.
1.18243 3.14726 0.
18.2386 44.9248 0.
-187.093 -474.173 0.
-9.82352 -23.3877 0.
-322.163 -785.617 0.
30.2875 69.2785 0.
20.0377 48.6731 0.
-590.558 -1470.8 0.
10.2611 25.048 0.
-478.072 -1198.22 0.
-63.6237 -163.027 0.
-1.39054 -3.53318 0.
-146.785 -371.017 0.
-11.3329 -28.1512 0.
-0.5868 -1.51648 0.
-329.139 -856.716 0.
14.0415 37.341 0.
-0.915716 -2.45098 0.
-181.932 -499.989 0.
-1.97342 -5.41009 0.
-117.04 -322.825 0.
2.6771 7.38272 0.
-59.6142 -165.069 0.
13.8179 38.2408 0.
-345.449 -955.237 0.
-1.80851 -4.99677 0.
-0.0519609 -37.8848 0.
-0.0153023 -22.4967 0.
12.2479 33.5754 0.
1.54972 4.28488 0.
6.52004 17.9513 0.
-624.485 -1644.66 0.
1.01158 2.77999 0.
0.664294 1.83462 0.
4.67437 12.8958 0.
0.862572 1.77299 0.
0.178345 0.413123 0.
-0.00918606 -0.412417 0.
-3.7178 -9.95844 0.
-0.00274233 -0.889494 0.
-17.2941 -16.7576 0.
-23.8386 -21.2315 0.
-30.8845 -25.8621 0.
-38.4417 -27.4425 0.
-15.6066 -6.96662 0.
-14.6451 -7.52696 0.
-28.1747 -13.1644 0.
-18.4674 -7.85443 0.
-21.8701 -13.7023 0.
-0.873498 -0.383674 0.
-0.0207817 -0.00755478 0.
-19.9042 -7.26338 0.
-11.9499 -4.33282 0.
-17.4768 -6.34537 0.
0.000306166 0.0657753 0.
-0.0539465 -0.218656 0.
-1.90588 -3.07107 0.
0.47731 1.26412 0.
-0.142994 -0.395761 0.
3.50075e-05 0.636588 0.
-0.0295144 -2.2708 0.
1.35196 3.4154 0.
3.4739 9.60563 0.
-477.315 -1269.58 0.
-0.00156666 -24.5941 0.
-570.216 -1554.4 0.
-0.00142982 -18.324 0.
6.06383 16.6518 0.
10.6287 29.3355 0.
-78.5958 -217.528 0.
-22.575 -62.1157 0.
-171.377 -472.712 0.
12.8321 35.1964 0.
4.60366 12.6539 0.
-19.0459 -51.5836 0.
-14.1492 -38.2877 0.
-98.4115 -267.061 0.
-49.7121 -134.07 0.
-10.7638 -27.8758 0.
16.4191 42.4899 0.
-187.166 -488.521 0.
6.20182 15.9789 0.
1.79926 4.6368 0.
-264.926 -704.702 0.
10.3662 25.99 0.
-13.518 -34.3678 0.
-317.252 -771.31 0.
-10.865 -26.0241 0.
-126.998 -310.982 0.
6.20678 14.9816 0.
7.80054 17.6427 0.
-19.0923 -45.2289 0.
-83.535 -199.529 0.
-78.5125 -192.552 0.
-419.723 -1059.96 0.
-12.0133 -29.6179 0.
-6.63723 -18.1077 0.
-58.6569 -161.278 0.
-69.4877 -192.468 0.
-14.2756 -37.5851 0.
-122.316 -328.431 0.
-33.5783 -82.8462 0.
9.30779 21.8828 0.
-461.053 -1091.19 0.
15.2046 36.5181 0.
29.5676 67.6789 0.
-117.058 -284.011 0.
9.70304 22.9893 0.
-5.21861 -12.7977 0.
-225.128 -566.286 0.
22.6141 56.574 0.
-283.105 -720.29 0.
-12.0168 -30.3701 0.
23.1014 57.4427 0.
-50.6185 -131.001 0.
-43.1241 -112.334 0.
4.32324 11.4496 0.
16.5352 44.0845 0.
-2.66431 -7.15106 0.
-2.73666 -7.41728 0.
-125.094 -340.113 0.
-61.1855 -168.277 0.
6.09296 16.7529 0.
-0.152208 -0.418088 0.
4.8404 13.2846 0.
4.9036 13.5086 0.
5.8488 16.0894 0.
-2.1326 -5.89135 0.
-69.0254 -191.038 0.
-332.594 -913.413 0.
-0.807702 -2.23516 0.
4.98018 13.2579 0.
9.14766 25.2245 0.
3.47183 9.60236 0.
6.1628 16.6098 0.
1.1379 2.55322 0.
-0.0561385 -1.15735 0.
-0.0222695 -2.20044 0.
-297.919 -760.176 0.
-1.04703e-05 -1.16157 0.
-515.073 -1085.4 0.
-9.37011 -13.0437 0.
-25.5655 -28.6477 0.
-578.807 -1455.44 0.
-28.3937 -19.4359 0.
-16.0558 -7.81011 0.
-282.696 -701.249 0.
-346.051 -899.141 0.
-37.3019 -53.3296 0.
-46.44 -75.9515 0.
-513.96 -1329.08 0.
-78.4987 -51.1704 0.
-14.8324 -6.84434 0.
-425.852 -877.416 0.
0.000471109 0.064778 0.
-613.965 -1637.96 0.
0.0108261 0.177207 0.
-20.9926 -56.7478 0.
-0.00563232 -0.829972 0.
1.93682 5.36103 0.
2.46361 6.72455 0.
-0.394353 -16.3951 0.
-0.00945473 -19.5441 0.
-1.1206 -3.05592 0.
2.58836 7.16728 0.
-4.17494 -11.4812 0.
-0.102353 -31.6562 0.
-453.754 -1235.83 0.
9.7962 26.9672 0.
6.00696 16.6038 0.
10.3006 28.3455 0.
-95.9258 -264.591 0.
-4.89856 -13.3676 0.
-9.31553 -25.4828 0.
-17.6134 -47.6355 0.
-18.0916 -48.8855 0.
-8.37015 -22.127 0.
-318.012 -855.763 0.
-103.107 -265.881 0.
-6.16363 -15.8825 0.
-100.511 -261.937 0.
-75.5605 -194.412 0.
-15.2705 -39.3631 0.
-65.3206 -173.448 0.
-285.374 -714.046 0.
-15.0795 -37.4943 0.
-345.406 -837.4 0.
-4.05584 -59.6557 0.
-1.9506 -4.62382 0.
-121.492 -291.645 0.
7.52584 17.277 0.
34.9124 74.8766 0.
-409.587 -983.228 0.
2.75597 6.38732 0.
22.3559 53.1593 0.
3.67363 9.08526 0.
-16.8355 -46.076 0.
-5.20666 -14.0681 0.
-202.685 -560.959 0.
-48.349 -128.619 0.
13.1489 33.8208 0.
-12.4792 -28.4496 0.
-3.73215 -8.58137 0.
-58.8862 -138.529 0.
-13.1578 -29.0753 0.
-559.64 -1279.29 0.
-4.77372 -52.6318 0.
-62.6606 -148.248 0.
13.4109 33.043 0.
11.4065 27.7588 0.
10.7328 26.9077 0.
-154.47 -393.827 0.
-3.09137 -51.6796 0.
-159.745 -397.543 0.
-120.514 -306.969 0.
-0.42094 -1.06188 0.
14.6257 37.2819 0.
-256.801 -681.364 0.
7.64587 19.8482 0.
16.2601 44.0265 0.
-28.4693 -77.3345 0.
-178.907 -490.401 0.
-13.5057 -36.5894 0.
-34.9561 -95.8743 0.
2.01531 5.52225 0.
-1.11526 -3.0602 0.
2.82448 7.73306 0.
-126.578 -350.192 0.
-3.31609 -9.17553 0.
-35.8628 -99.0654 0.
12.9732 35.928 0.
10.4163 27.9926 0.
-0.0171663 -16.0667 0.
-446.517 -1172.43 0.
-1.74606 -4.77157 0.
2.8251 7.82273 0.
-734.409 -1839 0.
-0.00411859 -1.1533 0.
-0.0151223 -1.12721 0.
-0.00521976 -2.82987 0.
-3.50298 -5.99688 0.
-1.32279 -2.09482 0.
-1.17649 -1.64487 0.
-34.2444 -39.9125 0.
-19.284 -15.5989 0.
-6.3486 -4.01695 0.
-21.853 -11.3004 0.
-10.4357 -5.86788 0.
-20.7339 -24.3166 0.
-11.0666 -8.87526 0.
-19.9736 -20.0782 0.
-40.7293 -30.2715 0.
-2.29845 -1.88766 0.
0.019495 0.0187067 0.
-0.00324627 -0.393922 0.
-0.000584691 -0.526788 0.
-0.255345 -4.66143 0.
-4.08094e-06 -1.03948 0.
-367.253 -949.732 0.
0.728799 1.87803 0.
-535.806 -1242.72 0.
1.54419 4.2623 0.
-252.31 -686.594 0.
10.7079 29.0228 0.
10.5584 29.1957 0.
1.75391 4.84262 0.
-1.37866 -3.80126 0.
-117.508 -321.501 0.
3.75979 10.3721 0.
-68.3759 -188.61 0.
3.91028 10.7618 0.
-235.783 -650.438 0.
2.87622 7.8418 0.
-54.1875 -147.808 0.
-46.637 -125.937 0.
-173.09 -466.894 0.
-6.21444 -16.4156 0.
-58.0252 -153.647 0.
-225.019 -577.737 0.
19.1568 49.1416 0.
-13.7266 -35.3423 0.
-32.507 -83.5034 0.
-80.8069 -208.337 0.
5.52972 14.218 0.
-64.8325 -161.919 0.
-15.6343 -38.8 0.
-20.7844 -49.7235 0.
-76.2066 -181.382 0.
-28.9897 -69.3448 0.
4.09114 9.23927 0.
-150.842 -351.757 0.
32.2176 70.2046 0.
-151.642 -365.848 0.
-139.275 -324.308 0.
8.69866 20.9464 0.
-12.5708 -28.9762 0.
-183.782 -504.495 0.
-147.981 -401.508 0.
17.961 44.1488 0.
8.83172 22.3514 0.
27.0314 59.7368 0.
-457.019 -1045.1 0.
-40.0913 -91.504 0.
-0.0425268 -0.0919615 0.
-17.9071 -39.5768 0.
24.962 54.0042 0.
6.59275 15.041 0.
-325.586 -769.256 0.
16.2681 38.2005 0.
-90.4232 -220.896 0.
12.1674 30.5725 0.
-2.83256 -6.90912 0.
-10.5625 -25.6673 0.
-200.236 -498.742 0.
-60.9583 -149.015 0.
19.1306 48.1012 0.
-293.88 -746.57 0.
-14.8003 -38.3852 0.
-23.2371 -60.2806 0.
-140.653 -380.44 0.
-39.2226 -106.444 0.
-76.4158 -207.673 0.
-2.95545 -8.01316 0.
-219.783 -601.749 0.
4.0177 10.9904 0.
-136.67 -374.638 0.
-39.0153 -106.896 0.
-98.2621 -271.773 0.
7.20191 19.9221 0.
10.8241 29.9727 0.
-1.82745 -5.04974 0.
-232.447 -630.45 0.
0.844477 2.29742 0.
-0.117702 -19.3211 0.
4.46868 12.2848 0.
3.9163 10.8321 0.
0.99244 2.66341 0.
0.00479587 3.47548 0.
-0.0107704 -2.69368 0.
-0.0190972 -4.11831 0.
1.52106 3.81604 0.
-1.07749 -1.82435 0.
0.0736482 0.110383 0.
-31.3542 -40.3791 0.
-25.1375 -20.2622 0.
-18.0433 -12.9645 0.
-28.5374 -15.4002 0.
-5.60736 -2.92063 0.
-20.1432 -10.0542 0.
-10.7889 -9.07656 0.
-22.3189 -20.9147 0.
-19.5836 -15.752 0.
0.132635 0.202254 0.
-0.0700871 -0.115203 0.
-0.0211803 -0.585133 0.
0.316971 0.868545 0.
-0.363147 -6.96974 0.
0.00261497 0.972042 0.
0.294294 0.797209 0.
6.04369 16.2495 0.
2.8358 7.01962 0.
-0.018233 -20.6411 0.
-20.9153 -57.8032 0.
-4.32788 -11.9867 0.
-180.081 -498.786 0.
2.84908 7.89141 0.
1.88081 5.19712 0.
13.5588 37.2556 0.
7.02697 19.3159 0.
-107.086 -294.464 0.
8.85157 24.2608 0.
-54.9943 -151.703 0.
-4.9978 -13.6133 0.
-122.454 -333.691 0.
-4.47469 -12.0667 0.
-27.393 -73.7958 0.
-141.416 -373.244 0.
-62.4338 -165.19 0.
8.47296 21.467 0.
-40.6801 -103.868 0.
-52.5764 -135.609 0.
-5.48411 -14.0376 0.
-159.211 -410.602 0.
-0.854548 -2.198 0.
-7.78801 -18.7392 0.
-49.8059 -123.35 0.
-79.7357 -192.959 0.
19.3576 44.7165 0.
24.2592 56.7582 0.
19.1508 43.6665 0.
17.3054 37.1606 0.
-241.516 -535.25 0.
-7.09321 -47.4481 0.
7.65136 16.0113 0.
11.9011 29.4318 0.
-12.5597 -29.3548 0.
17.6417 47.3146 0.
-4.02954 -10.4935 0.
10.4812 26.1157 0.
-2.29161 -5.87208 0.
-147.422 -326.87 0.
-15.6941 -33.4268 0.
9.99395 21.0695 0.
-355.334 -766.418 0.
20.8881 44.3335 0.
13.8996 30.1343 0.
-56.0262 -127.507 0.
20.9014 47.0101 0.
-0.582048 -1.37263 0.
-199.156 -488.516 0.
1.93204 4.6103 0.
8.92363 21.7843 0.
-273.912 -683.984 0.
-13.2365 -32.0097 0.
-92.8399 -227.288 0.
-19.1427 -47.9682 0.
-8.95918 -22.4139 0.
-22.0751 -57.2146 0.
-112.551 -291.744 0.
-16.9216 -45.7215 0.
10.599 28.5752 0.
-42.8165 -116.443 0.
6.56274 17.8071 0.
-171.993 -470.119 0.
-5.92557 -16.2137 0.
-26.9108 -73.8033 0.
-16.1274 -44.2057 0.
-118.593 -327.901 0.
-3.9094 -10.8111 0.
-207.732 -570.233 0.
3.23333 8.87301 0.
12.0473 33.0587 0.
-0.0702575 -22.8383 0.
3.77106 10.4017 0.
8.50448 23.4606 0.
3.40423 9.40306 0.
3.85915 10.6298 0.
-0.0950927 -15.3097 0.
-429.986 -903.108 0.
-0.240198 -4.63202 0.
0.000409253 0.380762 0.
-538.136 -1245.44 0.
-0.0501217 -0.496655 0.
-223.159 -492.025 0.
-30.9712 -27.1461 0.
-113.88 -225.044 0.
-96.8046 -207.454 0.
-328.761 -854.638 0.
-23.6662 -19.1264 0.
-7.14178 -5.41345 0.
-382.425 -1010.28 0.
-21.6999 -12.3703 0.
-14.241 -25.9808 0.
-363.155 -661.135 0.
-0.00673153 -0.661527 0.
-395.418 -1022.32 0.
-0.0162787 -1.61295 0.
-0.0274017 -7.83443 0.
-286.729 -740.516 0.
-0.0687432 -14.1813 0.
1.70663 4.40756 0.
2.46443 6.70971 0.
-25.4151 -70.34 0.
-7.01045 -19.4156 0.
-108.209 -299.72 0.
5.33775 14.7823 0.
-136.882 -379.14 0.
0.222984 0.609519 0.
13.5461 37.0628 0.
10.0197 27.4564 0.
-11.9116 -32.6241 0.
-12.9051 -34.6752 0.
13.8297 37.6342 0.
-106.282 -289.369 0.
-4.90824 -13.2045 0.
-18.472 -49.6996 0.
-10.4925 -27.6719 0.
-39.482 -104.377 0.
-11.0841 -28.1814 0.
17.8426 44.6926 0.
-214.997 -555.543 0.
1.92239 4.93069 0.
15.7709 40.6709 0.
-153.154 -394.005 0.
-80.2533 -192.679 0.
-9.40125 -22.2694 0.
-180.577 -442.391 0.
-4.06678 -52.0293 0.
-4.78044 -45.4962 0.
-137.857 -317.774 0.
-6.77201 -56.3863 0.
5.31642 11.0704 0.
-11.3859 -23.9512 0.
26.3364 54.3311 0.
-9.81108 -20.0896 0.
-211.105 -501.108 0.
-8.4435 -19.1558 0.
8.37634 22.1295 0.
11.814 29.8568 0.
-148.257 -384.932 0.
-10.7823 -22.3771 0.
-15.9086 -34.0863 0.
-177.064 -372.586 0.
3.56041 7.42471 0.
23.2712 49.515 0.
-617.554 -1340.11 0.
12.0236 26.73 0.
-48.2929 -108.975 0.
21.0485 49.8612 0.
-2.50778 -5.92157 0.
19.7405 47.1536 0.
-232.976 -569.492 0.
9.95299 24.4089 0.
-1.83527 -4.44635 0.
-346.478 -849.458 0.
-9.37214 -23.26 0.
-7.6762 -19.1712 0.
-125.439 -324.845 0.
-11.6915 -30.2899 0.
-2.76106 -7.42047 0.
15.3629 41.3345 0.
-144.563 -393.422 0.
7.64149 20.7493 0.
-20.2025 -55.1517 0.
-9.97433 -27.2148 0.
-61.406 -168.475 0.
4.80582 13.1784 0.
-29.2103 -80.0561 0.
12.7579 34.8023 0.
-3.12644 -8.51578 0.
-0.180545 -35.6719 0.
-2.85961 -7.82369 0.
-0.0170675 -25.6201 0.
3.28486 9.09706 0.
-242.416 -669.862 0.
-0.47089 -1.30414 0.
-185.122 -506.336 0.
4.49293 12.4446 0.
-0.665631 -8.62402 0.
-0.000744477 -0.0427566 0.
3.99819 10.9555 0.
0.17512 0.410053 0.
-0.00034532 -0.0257365 0.
-37.1833 -43.8232 0.
-33.1569 -27.357 0.
-38.9275 -39.2431 0.
-32.7234 -29.9789 0.
-19.7178 -13.9862 0.
-25.599 -44.1775 0.
-9.76784 -9.26778 0.
-5.38527 -3.87654 0.
-10.014 -7.96328 0.
-8.88558 -16.6226 0.
-26.2239 -51.6398 0.
0.0219358 1.19756 0.
-0.00306313 -1.18562 0.
-0.169236 -9.67075 0.
1.91541 5.30487 0.
4.74453 13.1387 0.
-0.0661837 -14.6887 0.
-225.701 -603.447 0.
-0.221959 -26.2197 0.
-30.5918 -84.0365 0.
8.3072 23.0058 0.
-37.284 -103.27 0.
-4.06998 -11.268 0.
-49.867 -138.115 0.
-46.3037 -125.138 0.
-11.3674 -30.9255 0.
-6.88681 -18.8574 0.
-0.0910928 -0.249302 0.
7.19206 19.3276 0.
-2.17498 -5.83948 0.
4.23356 11.3603 0.
-28.207 -75.6956 0.
-56.2095 -148.255 0.
-1.09261 -46.3127 0.
-51.0018 -134.718 0.
-116.611 -297.644 0.
13.3786 33.643 0.
-1.78778 -46.8659 0.
-77.5347 -199.281 0.
-7.32483 -18.9188 0.
18.0946 46.1842 0.
-69.4137 -166.283 0.
12.7962 30.2465 0.
8.61368 20.2585 0.
-113.568 -269.762 0.
14.0491 31.7649 0.
-9.5906 -21.5388 0.
-5.07541 -44.5199 0.
-1.41553 -2.95518 0.
29.4348 59.7132 0.
-77.026 -156.29 0.
-2.567 -5.17953 0.
8.51605 18.7245 0.
-14.1195 -32.582 0.
-0.696782 -49.8372 0.
-4.65772 -11.4033 0.
3.49841 7.07643 0.
-36.261 -75.7192 0.
-180.759 -370.99 0.
-8.64749 -51.4329 0.
-2.00606 -4.18044 0.
-63.1741 -134.668 0.
-5.72286 -47.3999 0.
-9.97753 -22.2605 0.
-143.546 -324.861 0.
18.4014 42.887 0.
6.7056 15.8503 0.
-9.39694 -22.4635 0.
14.228 34.0132 0.
-25.9099 -63.8983 0.
-4.24044 -10.2918 0.
5.87239 14.3166 0.
5.49683 13.6179 0.
-31.912 -79.5558 0.
-57.6903 -149.312 0.
-0.741733 -1.89519 0.
-49.3231 -132.279 0.
-4.85715 -13.0407 0.
-8.09345 -22.0401 0.
16.5681 44.6216 0.
-6.37938 -17.2885 0.
9.21264 25.0586 0.
-5.95036 -16.1743 0.
5.32331 14.3065 0.
-15.8395 -42.6174 0.
-9.34533 -25.46 0.
-8.92668 -24.2808 0.
4.11336 11.221 0.
-1.60991 -4.38992 0.
-62.7441 -173.78 0.
5.15572 14.2725 0.
10.0666 27.8632 0.
6.35314 17.5945 0.
-1.20036 -3.32158 0.
-0.0302632 -8.91539 0.
4.14789 10.424 0.
-0.0576601 -9.83644 0.
5.87035 15.989 0.
0.5511 1.42703 0.
-173.026 -404.079 0.
-103.593 -180.754 0.
-8.52518 -4.9255 0.
-40.1752 -30.6184 0.
-82.9381 -171.973 0.
-154.718 -372.503 0.
-4.38673 -3.33543 0.
-4.97497 -4.87877 0.
-188.595 -493.639 0.
-11.3729 -8.86864 0.
-8.86843 -5.1578 0.
-166.33 -380.051 0.
-0.110907 -4.82188 0.
-8.85548e-06 -3.86266 0.
0.0244351 1.04986 0.
4.45993 12.3255 0.
-0.0180623 -6.29675 0.
2.55641 7.07071 0.
-4.2711 -11.6346 0.
-0.258906 -25.6301 0.
-200.674 -549.722 0.
2.8477 7.88569 0.
-13.7575 -38.1056 0.
11.7079 32.3998 0.
-95.5398 -264.56 0.
-41.3035 -111.681 0.
-22.0256 -59.6625 0.
-4.03875 -11.025 0.
-188.626 -515.79 0.
2.37198 6.37538 0.
-20.0284 -53.7818 0.
-0.702269 -1.85268 0.
-38.011 -101.741 0.
-131.021 -345.531 0.
3.18062 8.33828 0.
16.1088 41.0106 0.
-63.1454 -161.754 0.
16.3862 41.3715 0.
-1.74393 -45.3814 0.
-7.84956 -19.7446 0.
-87.8583 -227.275 0.
8.91589 22.796 0.
5.63527 13.1856 0.
19.2033 45.2749 0.
13.8623 32.8359 0.
-3.83197 -43.2554 0.
-4.13285 -46.7299 0.
0.214652 0.47986 0.
-5.03168 -44.8809 0.
-446.959 -933.379 0.
-4.61499 -9.38269 0.
-9.10894 -17.4163 0.
-157.289 -311.966 0.
-21.974 -49.293 0.
9.29508 19.858 0.
-1.4191 -3.68258 0.
-6.64857 -16.3791 0.
-9.38281 -19.0927 0.
-236.034 -495.905 0.
15.7188 30.2803 0.
-1.58556 -3.16919 0.
17.1569 35.9081 0.
19.5145 40.9095 0.
-157.58 -347.333 0.
-2.55567 -5.71965 0.
18.4137 41.0181 0.
-10.2665 -23.9469 0.
-38.6377 -91.3954 0.
4.5297 10.5619 0.
0.224293 0.539214 0.
-174.076 -431.658 0.
8.59675 20.4265 0.
5.67804 13.9656 0.
-10.5172 -26.0045 0.
-59.4789 -147.996 0.
-2.01379 -46.2903 0.
1.0098 2.5819 0.
-118.021 -306.772 0.
-3.72779 -9.98621 0.
-5.40199 -14.1781 0.
-7.0684 -19.0128 0.
-48.5636 -131.47 0.
-50.6478 -137.292 0.
14.0173 36.9819 0.
1.97293 5.30629 0.
3.61418 9.73135 0.
-97.9815 -266.578 0.
4.68073 12.7134 0.
-13.9483 -37.9715 0.
7.11888 19.3483 0.
-36.6586 -101.504 0.
10.6226 29.3878 0.
-0.114128 -0.316104 0.
-3.15362 -8.72526 0.
0.16181 0.447558 0.
8.64715 23.343 0.
9.33082 25.5434 0.
-207.039 -553.496 0.
3.45239 9.52765 0.
-35.3865 -86.5691 0.
-0.0077472 -4.46739 0.
0.0253748 0.0324266 0.
-2.44076 -2.59585 0.
-27.7815 -22.2887 0.
-26.2223 -29.2955 0.
-15.0882 -9.32688 0.
-10.5715 -12.4743 0.
-2.6351 -5.34154 0.
-5.86353 -11.7393 0.
-8.43965 -7.14617 0.
-5.74976 -3.19838 0.
-15.4835 -6.97923 0.
2.29277 6.35007 0.
-137.303 -348.079 0.
-0.0116021 -17.1245 0.
-120.322 -329.667 0.
-0.205861 -26.775 0.
2.86394 7.93025 0.
5.77521 15.2593 0.
0.459135 1.23675 0.
8.62106 23.8511 0.
-4.22405 -11.6916 0.
-164.095 -454.342 0.
12.3615 34.0837 0.
11.6735 32.3142 0.
-35.7036 -96.5852 0.
-24.1059 -65.3275 0.
-0.280072 -0.763248 0.
-1.2963 -3.51923 0.
-15.7631 -42.375 0.
-37.1745 -99.8404 0.
-3.18932 -8.41757 0.
13.0782 34.4795 0.
10.7642 28.3801 0.
14.353 37.6193 0.
9.68241 24.6533 0.
-9.03604 -22.5966 0.
-99.8831 -255.602 0.
12.7056 32.2256 0.
-2.0652 -5.19083 0.
-7.44456 -18.7325 0.
-3.21279 -8.22778 0.
2.53683 5.97833 0.
5.20209 11.7729 0.
-134.692 -321.193 0.
-8.81442 -20.3766 0.
7.68818 17.2033 0.
-153.467 -341.153 0.
9.28987 20.3199 0.
-5.10711 -10.9207 0.
25.8198 52.5743 0.
-13.1111 -24.8183 0.
-7.8561 -14.5011 0.
-133.801 -259.217 0.
6.39301 13.9455 0.
25.2912 52.5095 0.
-84.1831 -208.709 0.
24.1161 44.8266 0.
-7.17761 -14.1439 0.
20.6252 39.5269 0.
-337.475 -670.253 0.
20.4001 41.3312 0.
-4.86409 -10.3814 0.
-267.593 -599.954 0.
-4.32452 -35.2086 0.
-16.4838 -36.974 0.
2.37302 5.53754 0.
4.06063 9.17296 0.
-6.39714 -15.0399 0.
16.6445 40.2329 0.
0.594397 1.41877 0.
-3.12728 -47.7156 0.
-103.377 -256.558 0.
-39.4045 -97.2348 0.
4.77655 11.204 0.
-3.47866 -8.40219 0.
-53.2723 -136.31 0.
-19.5737 -50.9367 0.
10.9051 28.3455 0.
7.00937 18.3859 0.
-50.3898 -135.369 0.
-109.138 -295.142 0.
15.159 39.8398 0.
11.7925 31.1271 0.
-0.107554 -0.289491 0.
-99.9658 -269.37 0.
-17.1243 -46.5243 0.
-0.319025 -37.2829 0.
-10.7748 -29.2773 0.
-7.05678 -19.141 0.
-48.0213 -132.903 0.
-0.924718 -2.55614 0.
-0.470837 -1.30388 0.
-67.8464 -186.652 0.
-3.20098 -8.79588 0.
5.44367 14.8912 0.
-2.25416 -6.1167 0.
-1.25578 -3.44979 0.
-0.00731842 -7.72717 0.
-0.0978971 -6.35033 0.
-0.0175161 -5.30919 0.
-0.0700384 -0.0831982 0.
-0.297116 -0.34763 0.
-35.1304 -31.4855 0.
-40.5453 -84.7612 0.
-30.6725 -52.4125 0.
-18.5528 -21.3533 0.
-23.5608 -35.7978 0.
-29.5679 -52.1807 0.
-8.06162 -13.7689 0.
-11.5949 -8.02488 0.
-25.1514 -24.2933 0.
-0.0714309 -11.2195 0.
-0.133303 -12.5547 0.
1.14256 3.16265 0.
6.9755 19.2799 0.
9.58802 26.4508 0.
-42.8512 -118.619 0.
-2.98956 -7.90726 0.
-3.04625 -8.17246 0.
9.2483 25.5638 0.
9.95545 27.5365 0.
-2.28061 -6.29208 0.
10.5485 29.0577 0.
-0.473011 -1.30072 0.
3.90149 10.5583 0.
-41.3251 -112.042 0.
10.6563 28.9887 0.
13.4231 36.3697 0.
-2.55287 -6.76225 0.
-31.2116 -83.8405 0.
-89.5083 -236.362 0.
11.356 29.9525 0.
-1.33529 -44.7227 0.
-1.92568 -5.04642 0.
-136.905 -348.688 0.
3.35578 8.3914 0.
3.41426 8.42915 0.
-54.7162 -138.679 0.
-8.22391 -20.6547 0.
-7.37183 -18.551 0.
-1.64727 -31.8209 0.
-203.497 -483.104 0.
13.0411 29.7216 0.
-2.59063 -25.9386 0.
-3.50224 -43.0914 0.
3.39234 7.64366 0.
-4.92511 -37.0683 0.
-111.294 -241.765 0.
-174.361 -380.534 0.
-5.36354 -10.9271 0.
20.3349 40.2834 0.
22.6793 41.3582 0.
11.8171 21.0481 0.
-2.49718 -5.18543 0.
-11.9523 -25.352 0.
-11.7551 -46.3687 0.
-8.13987 -38.6386 0.
-184.502 -368.41 0.
15.5582 26.7402 0.
-2.34084 -4.35225 0.
-3.67978 -24.4733 0.
3.92455 8.51781 0.
4.65711 9.96131 0.
-4.44125 -37.2483 0.
-9.89612 -22.3434 0.
16.4867 35.9707 0.
-3.87949 -8.83694 0.
-89.3061 -211.856 0.
1.25735 2.82457 0.
-7.29351 -17.4901 0.
-7.55687 -18.3283 0.
-24.5055 -61.4259 0.
-4.32096 -46.0708 0.
-5.08702 -11.9286 0.
-49.6693 -119.999 0.
6.36454 15.1096 0.
-7.62844 -19.0158 0.
-1.17833 -42.4189 0.
-43.3031 -113.535 0.
-7.39501 -18.9843 0.
-6.57294 -17.0989 0.
1.72939 4.54749 0.
-85.4724 -225.721 0.
-5.141 -13.8481 0.
3.42999 9.0689 0.
-8.1855 -22.1577 0.
-4.46755 -12.1141 0.
-30.507 -82.7305 0.
6.83547 18.5021 0.
-0.0215354 -34.2379 0.
12.4547 33.7714 0.
-0.203971 -32.1532 0.
-32.4028 -89.0637 0.
3.27157 8.98068 0.
-5.40441 -14.669 0.
7.8092 20.9701 0.
4.49014 12.4355 0.
-0.0660747 -9.54532 0.
-28.6337 -79.2815 0.
-0.048125 -3.19476 0.
-56.7382 -51.2904 0.
-10.6742 -11.4073 0.
-24.3697 -29.0846 0.
-24.0669 -41.7118 0.
-19.7168 -30.5002 0.
-17.7203 -8.73412 0.
-19.384 -9.66418 0.
-45.837 -64.71 0.
-20.3536 -16.9261 0.
-4.58581 -4.39733 0.
-45.0445 -64.2165 0.
-0.0468079 -1.76896 0.
-0.00437479 -2.51616 0.
-0.0295271 -10.3785 0.
3.4275 9.49309 0.
-0.116651 -27.0527 0.
-15.8811 -43.8282 0.
-2.12282 -5.61599 0.
-7.51183 -19.8063 0.
-3.13918 -8.50083 0.
-0.0324541 -33.8934 0.
-0.0667493 -33.2944 0.
7.00757 19.2838 0.
-4.53423 -12.0183 0.
7.06099 18.5479 0.
-6.89189 -18.0736 0.
-41.5064 -112.695 0.
-91.941 -248.582 0.
-9.75306 -25.7902 0.
1.48623 3.91563 0.
15.3122 40.4499 0.
15.5878 41.1339 0.
9.40285 24.3219 0.
-1.46488 -38.5121 0.
0.524233 1.24913 0.
-6.22802 -15.5786 0.
8.35621 20.6556 0.
14.3881 34.0077 0.
-96.151 -246.649 0.
5.66372 14.2553 0.
18.6122 45.9275 0.
19.2745 42.3818 0.
7.61986 17.4965 0.
-5.98443 -13.4647 0.
8.28477 17.5486 0.
-8.04204 -18.2398 0.
13.8689 29.9294 0.
-0.665387 -1.34746 0.
-77.3094 -172.021 0.
-0.154884 -0.321436 0.
21.306 41.1652 0.
0.386753 0.622059 0.
-6.01532 -10.5562 0.
-6.24555 -12.7476 0.
-2.43556 -4.79123 0.
23.4907 42.0527 0.
4.96899 9.43307 0.
-7.3188 -21.5752 0.
19.3061 33.3997 0.
11.459 21.517 0.
18.813 34.9229 0.
-6.01947 -36.1099 0.
-3.46816 -29.3721 0.
0.559653 1.22267 0.
14.5046 28.8274 0.
-4.3534 -38.9295 0.
-2.62336 -29.8761 0.
16.5298 33.9952 0.
-2.92148 -6.58251 0.
-127.901 -308.754 0.
1.53116 3.75887 0.
12.215 27.313 0.
-100.321 -238.861 0.
-2.89273 -37.5558 0.
-4.79935 -32.6371 0.
14.105 33.7022 0.
-18.9823 -47.6593 0.
0.439111 1.14032 0.
-2.90183 -6.86059 0.
-1.35598 -37.3547 0.
2.1739 5.61994 0.
9.52332 25.0588 0.
-53.4254 -141.184 0.
-1.19296 -36.2484 0.
-37.8184 -99.8113 0.
-42.8744 -115.947 0.
-3.08958 -8.37006 0.
2.28057 6.18912 0.
-2.70326 -30.7964 0.
4.52516 11.7251 0.
-8.04621 -21.7547 0.
-8.0678 -21.9572 0.
0.417941 1.14766 0.
6.57506 18.0294 0.
-54.9404 -147.75 0.
-1.8065 -18.0263 0.
2.30121 6.12047 0.
8.57342 22.4641 0.
-1.47902 -4.06201 0.
-0.149546 -3.86565 0.
-15.5862 -14.0613 0.
-13.2758 -11.6631 0.
-23.6604 -26.1345 0.
-27.3963 -28.8306 0.
-26.6293 -24.4224 0.
-27.3091 -12.7661 0.
-25.1527 -9.41421 0.
-38.7203 -26.1024 0.
-26.3691 -19.3973 0.
-7.19793 -7.43574 0.
-0.206148 -1.2468 0.
-0.457321 -8.21706 0.
-33.0355 -88.5018 0.
5.21676 13.3482 0.
2.73502 6.93822 0.
-2.99618 -8.14308 0.
-11.5714 -31.7657 0.
-6.24204 -16.5179 0.
8.65886 22.8365 0.
-30.2228 -81.4499 0.
-8.43903 -22.4785 0.
14.5214 37.054 0.
-95.4335 -262.332 0.
-4.85898 -12.8877 0.
1.75537 4.61376 0.
-13.8826 -36.3959 0.
2.39675 6.02563 0.
-0.565348 -1.49801 0.
-3.06788 -8.09864 0.
-9.16734 -24.11 0.
5.02142 12.5691 0.
2.36028 5.74073 0.
0.665068 1.72177 0.
15.989 40.6401 0.
2.03238 4.85247 0.
5.74931 12.7567 0.
-70.7182 -175.287 0.
-2.5662 -35.2633 0.
-1.92939 -22.5983 0.
-10.1964 -25.6829 0.
-2.82051 -6.96236 0.
-4.86574 -10.7076 0.
22.4613 45.3849 0.
-5.28498 -11.907 0.
-5.10948 -37.7202 0.
-4.28716 -24.6199 0.
-7.93995 -17.4416 0.
5.21005 10.7234 0.
-1.04147 -2.0838 0.
10.5793 19.2634 0.
-6.44881 -35.38 0.
-9.46627 -29.3677 0.
-6.58662 -14.9503 0.
-120.258 -239.259 0.
-21.7809 -41.8364 0.
