# vtk DataFile Version 2.0
test grain
ASCII
DATASET UNSTRUCTURED_GRID
POINTS 5000 float
0.499848 0.000980555 0.
0.50188 0.00098512 0.
0.503912 0.000989748 0.
0.50594 0.000993672 0.
0.507952 0.00099472 0.
0.509964 0.00099577 0.
0.511973 0.000996738 0.
0.513977 0.000997595 0.
0.515982 0.000998452 0.
0.517985 0.000998916 0.
0.519987 0.000999178 0.
0.521989 0.00099944 0.
0.52399 0.00099964 0.
0.525991 0.00099983 0.
0.527992 0.001 0.
0.529993 0.001 0.
0.531994 0.001 0.
0.533995 0.001 0.
0.535995 0.001 0.
0.537996 0.001 0.
0.539996 0.001 0.
0.541997 0.001 0.
0.543997 0.001 0.
0.545997 0.001 0.
0.547998 0.001 0.
0.549998 0.001 0.
0.551998 0.001 0.
0.553998 0.001 0.
0.555998 0.001 0.
0.557999 0.001 0.
0.559999 0.001 0.
0.561999 0.001 0.
0.563999 0.001 0.
0.565999 0.001 0.
0.567999 0.001 0.
0.57 0.001 0.
0.572 0.001 0.
0.574 0.001 0.
0.576 0.001 0.
0.578 0.001 0.
0.58 0.001 0.
0.582 0.001 0.
0.584 0.001 0.
0.586 0.001 0.
0.588 0.001 0.
0.59 0.001 0.
0.592 0.001 0.
0.594 0.001 0.
0.596 0.001 0.
0.598 0.001 0.
0.6 0.000999999 0.
0.602 0.00100001 0.
0.604 0.00100001 0.
0.606 0.00100002 0.
0.608 0.00100001 0.
0.61 0.001 0.
0.612 0.001 0.
0.614 0.000999999 0.
0.616 0.000999998 0.
0.618 0.000999999 0.
0.62 0.001 0.
0.622001 0.001 0.
0.624 0.001 0.
0.626 0.001 0.
0.628 0.001 0.
0.630001 0.001 0.
0.632001 0.001 0.
0.634001 0.001 0.
0.636001 0.001 0.
0.638001 0.001 0.
0.640001 0.001 0.
0.642002 0.001 0.
0.644002 0.001 0.
0.646002 0.001 0.
0.648002 0.001 0.
0.650002 0.001 0.
0.652003 0.001 0.
0.654003 0.001 0.
0.656004 0.001 0.
0.658004 0.001 0.
0.660004 0.00100001 0.
0.662005 0.00100001 0.
0.664005 0.001 0.
0.666006 0.001 0.
0.668007 0.001 0.
0.670008 0.000999999 0.
0.672009 0.000999999 0.
0.67401 0.000999753 0.
0.676011 0.000999477 0.
0.678012 0.000999172 0.
0.680015 0.000998647 0.
0.682018 0.000998122 0.
0.684022 0.000997446 0.
0.686029 0.000996478 0.
0.688037 0.000995512 0.
0.69005 0.000994196 0.
0.692068 0.000992625 0.
0.694085 0.000991057 0.
0.69612 0.000988177 0.
0.69816 0.000984996 0.
0.499752 0.0029413 0.
0.501796 0.00295497 0.
0.503839 0.0029689 0.
0.505877 0.00298095 0.
0.507898 0.0029841 0.
0.50992 0.00298725 0.
0.511936 0.00299018 0.
0.513947 0.00299276 0.
0.515958 0.00299533 0.
0.517964 0.00299674 0.
0.519969 0.00299753 0.
0.521974 0.00299831 0.
0.523977 0.00299892 0.
0.525979 0.00299949 0.
0.527981 0.003 0.
0.529983 0.003 0.
0.531986 0.003 0.
0.533987 0.003 0.
0.535988 0.00300001 0.
0.53799 0.00300001 0.
0.53999 0.00300001 0.
0.541991 0.003 0.
0.543992 0.003 0.
0.545993 0.003 0.
0.547994 0.003 0.
0.549995 0.003 0.
0.551995 0.003 0.
0.553995 0.003 0.
0.555995 0.003 0.
0.557996 0.003 0.
0.559996 0.003 0.
0.561997 0.003 0.
0.563997 0.003 0.
0.565998 0.003 0.
0.567998 0.003 0.
0.569999 0.003 0.
0.571999 0.003 0.
0.573999 0.003 0.
0.575999 0.003 0.
0.577999 0.003 0.
0.579999 0.003 0.
0.581999 0.003 0.
0.583999 0.003 0.
0.586 0.003 0.
0.588 0.003 0.
0.59 0.003 0.
0.592 0.003 0.
0.594 0.003 0.
0.596 0.003 0.
0.598 0.003 0.
0.6 0.003 0.
0.602 0.00300002 0.
0.604 0.00300004 0.
0.606 0.00300005 0.
0.608 0.00300003 0.
0.61 0.00300001 0.
0.612 0.003 0.
0.614 0.003 0.
0.616001 0.00299999 0.
0.618001 0.003 0.
0.620001 0.003 0.
0.622001 0.003 0.
0.624001 0.003 0.
0.626001 0.003 0.
0.628001 0.003 0.
0.630002 0.003 0.
0.632002 0.003 0.
0.634002 0.003 0.
0.636003 0.003 0.
0.638003 0.003 0.
0.640004 0.003 0.
0.642004 0.003 0.
0.644005 0.003 0.
0.646005 0.003 0.
0.648006 0.003 0.
0.650006 0.003 0.
0.652007 0.003 0.
0.654008 0.003 0.
0.656009 0.003 0.
0.65801 0.00300001 0.
0.660011 0.00300002 0.
0.662012 0.00300002 0.
0.664013 0.00300001 0.
0.666014 0.003 0.
0.668016 0.003 0.
0.670019 0.003 0.
0.672021 0.003 0.
0.674024 0.00299925 0.
0.676027 0.00299843 0.
0.67803 0.0029975 0.
0.680036 0.00299593 0.
0.682042 0.00299435 0.
0.684052 0.0029923 0.
0.686067 0.0029894 0.
0.688082 0.00298649 0.
0.690104 0.00298249 0.
0.69213 0.00297777 0.
0.694157 0.00297305 0.
0.696204 0.00296425 0.
0.698256 0.00295467 0.
0.499657 0.00490155 0.
0.501711 0.00492428 0.
0.503764 0.00494758 0.
0.505813 0.00496812 0.
0.507844 0.00497339 0.
0.509875 0.00497867 0.
0.5119 0.00498359 0.
0.513916 0.00498789 0.
0.515933 0.00499218 0.
0.517944 0.00499455 0.
0.519951 0.00499586 0.
0.521959 0.00499718 0.
0.523963 0.00499819 0.
0.525967 0.00499914 0.
0.527971 0.005 0.
0.529974 0.005 0.
0.531977 0.005 0.
0.53398 0.00500001 0.
0.535982 0.00500001 0.
0.537983 0.00500001 0.
0.539985 0.00500001 0.
0.541986 0.005 0.
0.543987 0.005 0.
0.545988 0.005 0.
0.54799 0.005 0.
0.549991 0.005 0.
0.551992 0.005 0.
0.553992 0.005 0.
0.555992 0.005 0.
0.557993 0.005 0.
0.559994 0.005 0.
0.561995 0.005 0.
0.563996 0.005 0.
0.565996 0.005 0.
0.567997 0.005 0.
0.569998 0.005 0.
0.571998 0.005 0.
0.573998 0.005 0.
0.575998 0.005 0.
0.577998 0.005 0.
0.579998 0.005 0.
0.581999 0.005 0.
0.583999 0.005 0.
0.585999 0.005 0.
0.588 0.005 0.
0.59 0.005 0.
0.592 0.005 0.
0.594 0.005 0.
0.596 0.005 0.
0.598 0.005 0.
0.6 0.005 0.
0.602 0.00500003 0.
0.604 0.00500007 0.
0.606 0.00500009 0.
0.608 0.00500006 0.
0.61 0.00500002 0.
0.612 0.005 0.
0.614001 0.005 0.
0.616001 0.00499999 0.
0.618001 0.00499999 0.
0.620002 0.005 0.
0.622002 0.00500001 0.
0.624002 0.00500001 0.
0.626002 0.00500001 0.
0.628002 0.00500001 0.
0.630003 0.005 0.
0.632003 0.005 0.
0.634004 0.005 0.
0.636004 0.005 0.
0.638005 0.005 0.
0.640006 0.005 0.
0.642007 0.005 0.
0.644008 0.005 0.
0.646009 0.005 0.
0.64801 0.005 0.
0.65001 0.005 0.
0.652012 0.005 0.
0.654013 0.005 0.
0.656014 0.005 0.
0.658016 0.00500001 0.
0.660017 0.00500003 0.
0.662019 0.00500003 0.
0.664021 0.00500001 0.
0.666023 0.005 0.
0.668026 0.005 0.
0.67003 0.00499999 0.
0.672033 0.00499999 0.
0.674038 0.00499875 0.
0.676043 0.00499737 0.
0.678048 0.00499582 0.
0.680058 0.00499319 0.
0.682067 0.00499056 0.
0.684081 0.00498712 0.
0.686104 0.00498227 0.
0.688127 0.00497741 0.
0.690157 0.00497067 0.
0.692193 0.00496277 0.
0.694228 0.00495488 0.
0.696288 0.00493994 0.
0.698352 0.0049239 0.
0.499615 0.00684968 0.
0.501668 0.00687919 0.
0.503721 0.00691009 0.
0.505769 0.00693776 0.
0.507802 0.00694663 0.
0.509834 0.00695552 0.
0.511861 0.00696357 0.
0.513882 0.00697031 0.
0.515902 0.00697706 0.
0.517917 0.00698175 0.
0.519929 0.00698527 0.
0.521941 0.0069888 0.
0.523948 0.00699143 0.
0.525954 0.0069939 0.
0.52796 0.00699622 0.
0.529964 0.00699705 0.
0.531969 0.00699789 0.
0.533972 0.00699859 0.
0.535975 0.00699901 0.
0.537977 0.00699943 0.
0.539979 0.00699964 0.
0.54198 0.00699966 0.
0.543982 0.00699968 0.
0.545984 0.00699964 0.
0.547985 0.00699958 0.
0.549987 0.00699952 0.
0.551987 0.00699942 0.
0.553988 0.00699931 0.
0.555989 0.00699927 0.
0.55799 0.00699944 0.
0.559991 0.00699962 0.
0.561992 0.00699982 0.
0.563993 0.00700007 0.
0.565994 0.00700032 0.
0.567995 0.00700046 0.
0.569996 0.00700054 0.
0.571996 0.00700063 0.
0.573996 0.00700046 0.
0.575996 0.00700027 0.
0.577996 0.00700009 0.
0.579997 0.00700006 0.
0.581997 0.00700003 0.
0.583998 0.00700003 0.
0.585998 0.00700006 0.
0.587999 0.0070001 0.
0.589999 0.0070001 0.
0.591999 0.00700008 0.
0.594 0.00700005 0.
0.596 0.00700013 0.
0.598 0.00700023 0.
0.6 0.00700033 0.
0.602 0.00700032 0.
0.604 0.00700032 0.
0.606 0.00700031 0.
0.608001 0.00700025 0.
0.610001 0.0070002 0.
0.612001 0.00700015 0.
0.614002 0.00700012 0.
0.616002 0.00700009 0.
0.618003 0.0070001 0.
0.620003 0.00700013 0.
0.622004 0.00700016 0.
0.624004 0.00700031 0.
0.626004 0.00700048 0.
0.628004 0.00700061 0.
0.630005 0.00700049 0.
0.632005 0.00700036 0.
0.634006 0.0070002 0.
0.636007 0.00699995 0.
0.638009 0.0069997 0.
0.64001 0.00699948 0.
0.642011 0.00699928 0.
0.644012 0.00699909 0.
0.646013 0.00699916 0.
0.648014 0.00699931 0.
0.650015 0.00699946 0.
0.652017 0.00699955 0.
0.654018 0.00699964 0.
0.65602 0.0069997 0.
0.658022 0.00699964 0.
0.660024 0.00699959 0.
0.662026 0.00699932 0.
0.664029 0.00699879 0.
0.666032 0.00699826 0.
0.668036 0.00699731 0.
0.670041 0.00699617 0.
0.672046 0.00699503 0.
0.674053 0.00699204 0.
0.67606 0.00698885 0.
0.678069 0.0069854 0.
0.680083 0.00698039 0.
0.682098 0.00697538 0.
0.684116 0.00696925 0.
0.686141 0.00696123 0.
0.688167 0.00695322 0.
0.690199 0.00694307 0.
0.692236 0.00693158 0.
0.694273 0.00692011 0.
0.696332 0.00689927 0.
0.698396 0.00687714 0.
0.499573 0.00879767 0.
0.501625 0.00883379 0.
0.503677 0.00887228 0.
0.505725 0.00890718 0.
0.507759 0.00891968 0.
0.509793 0.00893221 0.
0.511823 0.00894343 0.
0.513847 0.00895264 0.
0.515872 0.00896186 0.
0.517891 0.0089689 0.
0.519907 0.00897464 0.
0.521923 0.00898039 0.
0.523933 0.00898465 0.
0.525941 0.00898865 0.
0.52795 0.00899243 0.
0.529955 0.0089941 0.
0.53196 0.00899577 0.
0.533964 0.00899717 0.
0.535968 0.00899801 0.
0.537971 0.00899886 0.
0.539973 0.00899926 0.
0.541975 0.00899931 0.
0.543977 0.00899936 0.
0.545979 0.00899928 0.
0.54798 0.00899917 0.
0.549982 0.00899905 0.
0.551983 0.00899884 0.
0.553984 0.00899863 0.
0.555985 0.00899854 0.
0.557987 0.00899889 0.
0.559988 0.00899923 0.
0.56199 0.00899964 0.
0.563991 0.00900014 0.
0.565992 0.00900064 0.
0.567993 0.00900092 0.
0.569993 0.00900109 0.
0.571994 0.00900125 0.
0.573994 0.00900092 0.
0.575994 0.00900053 0.
0.577995 0.00900018 0.
0.579995 0.00900012 0.
0.581996 0.00900006 0.
0.583997 0.00900005 0.
0.585997 0.00900012 0.
0.587998 0.00900019 0.
0.589998 0.0090002 0.
0.591999 0.00900015 0.
0.593999 0.0090001 0.
0.596 0.00900025 0.
0.598 0.00900045 0.
0.6 0.00900065 0.
0.602001 0.00900062 0.
0.604001 0.00900058 0.
0.606001 0.00900053 0.
0.608001 0.00900045 0.
0.610002 0.00900037 0.
0.612002 0.0090003 0.
0.614003 0.00900024 0.
0.616004 0.00900018 0.
0.618004 0.0090002 0.
0.620005 0.00900026 0.
0.622006 0.00900031 0.
0.624006 0.00900062 0.
0.626006 0.00900095 0.
0.628006 0.00900122 0.
0.630007 0.00900097 0.
0.632008 0.00900073 0.
0.634009 0.0090004 0.
0.63601 0.0089999 0.
0.638012 0.0089994 0.
0.640013 0.00899896 0.
0.642015 0.00899857 0.
0.644016 0.00899818 0.
0.646018 0.00899833 0.
0.648019 0.00899863 0.
0.65002 0.00899892 0.
0.652022 0.0089991 0.
0.654024 0.00899928 0.
0.656026 0.0089994 0.
0.658028 0.00899927 0.
0.660031 0.00899914 0.
0.662033 0.0089986 0.
0.664037 0.00899755 0.
0.66604 0.00899651 0.
0.668046 0.00899462 0.
0.670052 0.00899234 0.
0.672058 0.00899006 0.
0.674068 0.00898531 0.
0.676078 0.00898031 0.
0.67809 0.00897495 0.
0.680109 0.00896753 0.
0.682128 0.00896013 0.
0.684151 0.00895127 0.
0.686179 0.00894005 0.
0.688207 0.00892886 0.
0.690241 0.00891527 0.
0.692279 0.00890017 0.
0.694317 0.00888509 0.
0.696376 0.00885827 0.
0.69844 0.00883002 0.
0.499546 0.0107573 0.
0.501597 0.0107964 0.
0.503646 0.0108383 0.
0.505692 0.0108768 0.
0.507727 0.010892 0.
0.509761 0.0109073 0.
0.511792 0.0109211 0.
0.513818 0.0109324 0.
0.515844 0.0109438 0.
0.517866 0.0109532 0.
0.519885 0.0109613 0.
0.521904 0.0109695 0.
0.523916 0.0109757 0.
0.525927 0.0109816 0.
0.527937 0.0109872 0.
0.529944 0.0109897 0.
0.53195 0.0109922 0.
0.533956 0.0109943 0.
0.53596 0.0109957 0.
0.537964 0.0109971 0.
0.539967 0.0109979 0.
0.541969 0.0109981 0.
0.543972 0.0109984 0.
0.545974 0.0109984 0.
0.547976 0.0109983 0.
0.549978 0.0109982 0.
0.551979 0.010998 0.
0.55398 0.0109978 0.
0.555982 0.0109978 0.
0.557983 0.0109982 0.
0.559985 0.0109986 0.
0.561987 0.0109991 0.
0.563988 0.0109997 0.
0.565989 0.0110003 0.
0.56799 0.0110007 0.
0.569991 0.0110009 0.
0.571992 0.0110011 0.
0.573993 0.0110008 0.
0.575993 0.0110005 0.
0.577993 0.0110002 0.
0.579994 0.0110001 0.
0.581995 0.0110001 0.
0.583996 0.0110001 0.
0.585997 0.0110002 0.
0.587997 0.0110003 0.
0.589998 0.0110003 0.
0.591999 0.0110002 0.
0.593999 0.0110001 0.
0.596 0.0110003 0.
0.598 0.0110005 0.
0.6 0.0110007 0.
0.602001 0.0110006 0.
0.604001 0.0110006 0.
0.606001 0.0110005 0.
0.608002 0.0110005 0.
0.610002 0.0110004 0.
0.612003 0.0110003 0.
0.614004 0.0110003 0.
0.616005 0.0110002 0.
0.618006 0.0110002 0.
0.620007 0.0110002 0.
0.622007 0.0110003 0.
0.624008 0.0110005 0.
0.626008 0.0110008 0.
0.628008 0.0110011 0.
0.63001 0.0110007 0.
0.632011 0.0110004 0.
0.634012 0.0109999 0.
0.636013 0.0109993 0.
0.638015 0.0109987 0.
0.640017 0.0109982 0.
0.642018 0.0109978 0.
0.64402 0.0109973 0.
0.646022 0.0109974 0.
0.648023 0.0109976 0.
0.650024 0.0109978 0.
0.652027 0.010998 0.
0.654029 0.0109981 0.
0.656032 0.0109982 0.
0.658035 0.0109978 0.
0.660038 0.0109974 0.
0.662041 0.0109964 0.
0.664046 0.0109947 0.
0.66605 0.010993 0.
0.668057 0.0109902 0.
0.670064 0.0109869 0.
0.672072 0.0109836 0.
0.674084 0.0109768 0.
0.676097 0.0109696 0.
0.678111 0.0109619 0.
0.680133 0.010952 0.
0.682155 0.0109421 0.
0.68418 0.0109307 0.
0.686209 0.010917 0.
0.688239 0.0109033 0.
0.690273 0.0108871 0.
0.692311 0.0108694 0.
0.694348 0.0108518 0.
0.696406 0.0108221 0.
0.698468 0.0107912 0.
0.499539 0.0127302 0.
0.501585 0.0127678 0.
0.503629 0.0128086 0.
0.505672 0.0128465 0.
0.507705 0.0128636 0.
0.509738 0.0128807 0.
0.511769 0.0128964 0.
0.513795 0.0129096 0.
0.515821 0.0129228 0.
0.517844 0.0129345 0.
0.519863 0.0129452 0.
0.521883 0.0129559 0.
0.523897 0.0129645 0.
0.525911 0.0129727 0.
0.527923 0.0129805 0.
0.529931 0.0129838 0.
0.531939 0.0129871 0.
0.533945 0.01299 0.
0.53595 0.0129921 0.
0.537956 0.0129942 0.
0.53996 0.0129955 0.
0.541963 0.0129961 0.
0.543967 0.0129967 0.
0.545969 0.0129969 0.
0.547972 0.012997 0.
0.549974 0.0129971 0.
0.551976 0.012997 0.
0.553977 0.0129969 0.
0.555978 0.0129969 0.
0.55798 0.0129973 0.
0.559982 0.0129976 0.
0.561984 0.0129981 0.
0.563985 0.0129987 0.
0.565987 0.0129993 0.
0.567988 0.0129997 0.
0.569989 0.0129999 0.
0.571991 0.0130002 0.
0.573991 0.0130002 0.
0.575992 0.0130001 0.
0.577992 0.0130001 0.
0.579993 0.0130001 0.
0.581994 0.0130002 0.
0.583995 0.0130002 0.
0.585996 0.0130003 0.
0.587997 0.0130003 0.
0.589997 0.0130003 0.
0.591998 0.0130002 0.
0.593999 0.0130001 0.
0.595999 0.0130002 0.
0.598 0.0130003 0.
0.6 0.0130004 0.
0.602001 0.0130004 0.
0.604001 0.0130003 0.
0.606002 0.0130003 0.
0.608002 0.0130003 0.
0.610003 0.0130003 0.
0.612004 0.0130002 0.
0.614005 0.0130002 0.
0.616006 0.0130001 0.
0.618007 0.0130001 0.
0.620008 0.0130001 0.
0.622009 0.0130001 0.
0.624009 0.0130001 0.
0.62601 0.0130001 0.
0.628011 0.0130001 0.
0.630012 0.0129997 0.
0.632013 0.0129993 0.
0.634015 0.0129988 0.
0.636017 0.0129982 0.
0.638018 0.0129977 0.
0.64002 0.0129972 0.
0.642022 0.0129968 0.
0.644024 0.0129965 0.
0.646025 0.0129963 0.
0.648027 0.0129963 0.
0.650028 0.0129962 0.
0.652031 0.0129962 0.
0.654034 0.0129962 0.
0.656038 0.012996 0.
0.658041 0.0129952 0.
0.660045 0.0129944 0.
0.66205 0.0129928 0.
0.664056 0.0129903 0.
0.666062 0.0129877 0.
0.668069 0.0129841 0.
0.670078 0.0129799 0.
0.672087 0.0129758 0.
0.674102 0.0129664 0.
0.676117 0.0129565 0.
0.678133 0.0129462 0.
0.680155 0.0129336 0.
0.682178 0.012921 0.
0.684203 0.0129073 0.
0.686232 0.0128918 0.
0.688261 0.0128764 0.
0.690294 0.0128586 0.
0.69233 0.0128394 0.
0.694366 0.0128202 0.
0.696419 0.0127915 0.
0.698477 0.0127618 0.
0.499531 0.014703 0.
0.501573 0.0147392 0.
0.503613 0.0147789 0.
0.505651 0.0148162 0.
0.507684 0.0148351 0.
0.509716 0.0148541 0.
0.511746 0.0148716 0.
0.513772 0.0148867 0.
0.515798 0.0149018 0.
0.517821 0.0149158 0.
0.519842 0.0149291 0.
0.521863 0.0149424 0.
0.523879 0.0149534 0.
0.525894 0.0149639 0.
0.527909 0.0149739 0.
0.529918 0.014978 0.
0.531927 0.0149821 0.
0.533935 0.0149858 0.
0.535941 0.0149885 0.
0.537948 0.0149913 0.
0.539953 0.0149931 0.
0.541957 0.014994 0.
0.543961 0.014995 0.
0.545965 0.0149954 0.
0.547968 0.0149957 0.
0.549971 0.014996 0.
0.551972 0.014996 0.
0.553974 0.014996 0.
0.555975 0.0149961 0.
0.557977 0.0149964 0.
0.559979 0.0149967 0.
0.561981 0.0149971 0.
0.563982 0.0149977 0.
0.565984 0.0149984 0.
0.567986 0.0149987 0.
0.569987 0.014999 0.
0.571989 0.0149993 0.
0.57399 0.0149995 0.
0.57599 0.0149997 0.
0.577991 0.0149999 0.
0.579992 0.0150001 0.
0.581993 0.0150002 0.
0.583994 0.0150003 0.
0.585995 0.0150004 0.
0.587996 0.0150004 0.
0.589997 0.0150004 0.
0.591998 0.0150003 0.
0.593999 0.0150002 0.
0.595999 0.0150001 0.
0.598 0.0150001 0.
0.6 0.0150001 0.
0.602001 0.0150001 0.
0.604001 0.0150001 0.
0.606002 0.0150001 0.
0.608003 0.0150001 0.
0.610004 0.0150001 0.
0.612005 0.0150001 0.
0.614006 0.0150001 0.
0.616007 0.0150001 0.
0.618008 0.015 0.
0.620009 0.0149999 0.
0.62201 0.0149999 0.
0.624011 0.0149997 0.
0.626012 0.0149995 0.
0.628013 0.0149992 0.
0.630014 0.0149987 0.
0.632016 0.0149982 0.
0.634018 0.0149977 0.
0.63602 0.0149972 0.
0.638022 0.0149966 0.
0.640024 0.0149962 0.
0.642025 0.0149959 0.
0.644027 0.0149956 0.
0.646029 0.0149953 0.
0.648031 0.0149949 0.
0.650033 0.0149946 0.
0.652036 0.0149944 0.
0.65404 0.0149942 0.
0.656043 0.0149938 0.
0.658048 0.0149926 0.
0.660053 0.0149914 0.
0.662059 0.0149892 0.
0.664066 0.0149858 0.
0.666073 0.0149825 0.
0.668082 0.0149779 0.
0.670093 0.0149729 0.
0.672103 0.0149679 0.
0.67412 0.0149559 0.
0.676136 0.0149434 0.
0.678154 0.0149304 0.
0.680178 0.0149152 0.
0.682201 0.0148999 0.
0.684227 0.0148838 0.
0.686255 0.0148666 0.
0.688283 0.0148494 0.
0.690315 0.01483 0.
0.69235 0.0148093 0.
0.694384 0.0147886 0.
0.696433 0.0147608 0.
0.698486 0.0147325 0.
0.499541 0.0166835 0.
0.501578 0.0167181 0.
0.503614 0.0167559 0.
0.505649 0.0167917 0.
0.507678 0.0168117 0.
0.509707 0.0168317 0.
0.511735 0.0168502 0.
0.513759 0.0168662 0.
0.515784 0.0168823 0.
0.517806 0.0168974 0.
0.519826 0.0169118 0.
0.521846 0.0169263 0.
0.523863 0.016939 0.
0.525879 0.0169513 0.
0.527894 0.0169631 0.
0.529905 0.0169682 0.
0.531915 0.0169734 0.
0.533924 0.0169781 0.
0.535932 0.0169817 0.
0.537939 0.0169853 0.
0.539946 0.0169878 0.
0.541951 0.0169893 0.
0.543956 0.0169908 0.
0.54596 0.0169917 0.
0.547963 0.0169923 0.
0.549967 0.016993 0.
0.551969 0.0169933 0.
0.55397 0.0169936 0.
0.555972 0.0169939 0.
0.557974 0.0169943 0.
0.559976 0.0169946 0.
0.561978 0.0169951 0.
0.56398 0.0169958 0.
0.565982 0.0169965 0.
0.567984 0.0169971 0.
0.569986 0.0169977 0.
0.571987 0.0169982 0.
0.573988 0.0169985 0.
0.575989 0.0169988 0.
0.57799 0.016999 0.
0.579991 0.016999 0.
0.581992 0.0169991 0.
0.583993 0.0169992 0.
0.585994 0.0169993 0.
0.587995 0.0169994 0.
0.589996 0.0169994 0.
0.591997 0.0169994 0.
0.593998 0.0169994 0.
0.595999 0.0169996 0.
0.598 0.017 0.
0.6 0.0170003 0.
0.602001 0.0170001 0.
0.604002 0.0169999 0.
0.606003 0.0169997 0.
0.608004 0.0169995 0.
0.610005 0.0169993 0.
0.612006 0.0169992 0.
0.614007 0.016999 0.
0.616008 0.0169989 0.
0.618009 0.0169988 0.
0.62001 0.0169988 0.
0.622012 0.0169987 0.
0.624012 0.0169985 0.
0.626013 0.0169982 0.
0.628014 0.0169979 0.
0.630016 0.0169971 0.
0.632019 0.0169964 0.
0.634021 0.0169957 0.
0.636023 0.0169951 0.
0.638025 0.0169946 0.
0.640027 0.0169941 0.
0.642029 0.0169938 0.
0.644031 0.0169935 0.
0.646033 0.0169928 0.
0.648035 0.016992 0.
0.650037 0.0169912 0.
0.652041 0.0169906 0.
0.654045 0.01699 0.
0.656049 0.0169892 0.
0.658055 0.0169873 0.
0.660061 0.0169854 0.
0.662068 0.0169824 0.
0.664077 0.016978 0.
0.666085 0.0169737 0.
0.668096 0.0169682 0.
0.670107 0.0169621 0.
0.672119 0.0169561 0.
0.674136 0.0169424 0.
0.676153 0.0169282 0.
0.678171 0.0169136 0.
0.680193 0.0168971 0.
0.682215 0.0168806 0.
0.684239 0.0168634 0.
0.686265 0.0168451 0.
0.688292 0.0168269 0.
0.69032 0.0168066 0.
0.692351 0.0167852 0.
0.694382 0.0167637 0.
0.696428 0.0167374 0.
0.698477 0.0167109 0.
0.499551 0.0186649 0.
0.501585 0.0186976 0.
0.503616 0.0187334 0.
0.505647 0.0187675 0.
0.507673 0.0187884 0.
0.509699 0.0188093 0.
0.511724 0.0188287 0.
0.513747 0.0188458 0.
0.51577 0.0188628 0.
0.517791 0.018879 0.
0.51981 0.0188945 0.
0.52183 0.0189102 0.
0.523847 0.0189245 0.
0.525863 0.0189387 0.
0.52788 0.0189522 0.
0.529891 0.0189585 0.
0.531903 0.0189647 0.
0.533914 0.0189704 0.
0.535922 0.0189748 0.
0.537931 0.0189792 0.
0.539938 0.0189824 0.
0.541945 0.0189845 0.
0.543951 0.0189866 0.
0.545955 0.0189879 0.
0.547959 0.0189889 0.
0.549963 0.01899 0.
0.551965 0.0189906 0.
0.553967 0.0189912 0.
0.555968 0.0189918 0.
0.55797 0.0189922 0.
0.559972 0.0189925 0.
0.561975 0.0189931 0.
0.563977 0.0189939 0.
0.56598 0.0189947 0.
0.567982 0.0189955 0.
0.569984 0.0189963 0.
0.571986 0.0189972 0.
0.573987 0.0189975 0.
0.575988 0.0189978 0.
0.577988 0.0189981 0.
0.579989 0.018998 0.
0.581991 0.018998 0.
0.583992 0.018998 0.
0.585993 0.0189982 0.
0.587994 0.0189984 0.
0.589995 0.0189985 0.
0.591996 0.0189985 0.
0.593998 0.0189986 0.
0.595999 0.0189991 0.
0.598 0.0189998 0.
0.6 0.0190004 0.
0.602001 0.0190001 0.
0.604002 0.0189997 0.
0.606003 0.0189993 0.
0.608005 0.0189989 0.
0.610006 0.0189985 0.
0.612007 0.0189982 0.
0.614008 0.0189979 0.
0.616009 0.0189977 0.
0.618011 0.0189976 0.
0.620012 0.0189976 0.
0.622013 0.0189976 0.
0.624014 0.0189973 0.
0.626015 0.018997 0.
0.628016 0.0189965 0.
0.630018 0.0189955 0.
0.632021 0.0189945 0.
0.634023 0.0189936 0.
0.636026 0.0189931 0.
0.638028 0.0189925 0.
0.64003 0.0189921 0.
0.642032 0.0189917 0.
0.644034 0.0189913 0.
0.646036 0.0189902 0.
0.648038 0.018989 0.
0.650041 0.0189877 0.
0.652045 0.0189868 0.
0.65405 0.0189858 0.
0.656055 0.0189845 0.
0.658062 0.0189819 0.
0.660069 0.0189794 0.
0.662077 0.0189755 0.
0.664087 0.0189702 0.
0.666097 0.0189649 0.
0.668109 0.0189584 0.
0.670122 0.0189513 0.
0.672135 0.0189442 0.
0.674152 0.0189289 0.
0.67617 0.0189129 0.
0.678188 0.0188967 0.
0.680209 0.018879 0.
0.68223 0.0188614 0.
0.684252 0.0188431 0.
0.686275 0.0188238 0.
0.688299 0.0188044 0.
0.690325 0.0187834 0.
0.692352 0.0187613 0.
0.694379 0.0187392 0.
0.696421 0.0187145 0.
0.698467 0.0186898 0.
0.499563 0.0206531 0.
0.501593 0.0206832 0.
0.503621 0.0207159 0.
0.505647 0.0207474 0.
0.507671 0.0207684 0.
0.509695 0.0207895 0.
0.511717 0.0208093 0.
0.513738 0.020827 0.
0.515759 0.0208448 0.
0.517779 0.0208618 0.
0.519798 0.0208783 0.
0.521817 0.0208948 0.
0.523834 0.0209106 0.
0.525851 0.0209261 0.
0.527867 0.0209412 0.
0.52988 0.0209482 0.
0.531892 0.0209552 0.
0.533904 0.0209617 0.
0.535914 0.020967 0.
0.537923 0.0209722 0.
0.539931 0.0209762 0.
0.541938 0.020979 0.
0.543945 0.0209819 0.
0.54595 0.0209837 0.
0.547955 0.0209853 0.
0.54996 0.0209868 0.
0.551962 0.0209878 0.
0.553963 0.0209889 0.
0.555965 0.0209898 0.
0.557968 0.0209902 0.
0.55997 0.0209907 0.
0.561972 0.0209913 0.
0.563975 0.020992 0.
0.565977 0.0209928 0.
0.56798 0.0209937 0.
0.569982 0.0209948 0.
0.571984 0.0209958 0.
0.573985 0.0209962 0.
0.575986 0.0209966 0.
0.577987 0.0209969 0.
0.579988 0.0209969 0.
0.581989 0.020997 0.
0.583991 0.0209971 0.
0.585992 0.0209974 0.
0.587993 0.0209976 0.
0.589995 0.0209979 0.
0.591996 0.020998 0.
0.593997 0.0209982 0.
0.595998 0.0209988 0.
0.597999 0.0209995 0.
0.6 0.0210003 0.
0.602002 0.0209999 0.
0.604003 0.0209995 0.
0.606004 0.0209991 0.
0.608005 0.0209985 0.
0.610006 0.020998 0.
0.612008 0.0209975 0.
0.614009 0.0209971 0.
0.616011 0.0209966 0.
0.618012 0.0209965 0.
0.620013 0.0209964 0.
0.622014 0.0209964 0.
0.624015 0.0209959 0.
0.626016 0.0209955 0.
0.628018 0.0209949 0.
0.63002 0.0209938 0.
0.632023 0.0209926 0.
0.634025 0.0209917 0.
0.636028 0.0209912 0.
0.63803 0.0209907 0.
0.640033 0.0209902 0.
0.642035 0.0209896 0.
0.644037 0.0209891 0.
0.64604 0.0209876 0.
0.648042 0.020986 0.
0.650045 0.0209843 0.
0.65205 0.0209827 0.
0.654055 0.0209811 0.
0.656061 0.020979 0.
0.658069 0.0209756 0.
0.660077 0.0209722 0.
0.662086 0.0209676 0.
0.664097 0.0209614 0.
0.666108 0.0209553 0.
0.668121 0.0209479 0.
0.670135 0.02094 0.
0.672148 0.0209321 0.
0.674165 0.0209154 0.
0.676183 0.0208981 0.
0.678201 0.0208807 0.
0.68022 0.0208621 0.
0.68224 0.0208436 0.
0.684261 0.0208245 0.
0.686282 0.0208046 0.
0.688304 0.0207847 0.
0.690327 0.0207634 0.
0.692351 0.0207412 0.
0.694374 0.0207191 0.
0.696413 0.0206962 0.
0.698456 0.0206735 0.
0.499574 0.0226506 0.
0.501601 0.0226765 0.
0.503627 0.0227047 0.
0.505651 0.0227321 0.
0.507673 0.0227524 0.
0.509694 0.0227728 0.
0.511715 0.0227923 0.
0.513734 0.0228104 0.
0.515754 0.0228284 0.
0.517772 0.022846 0.
0.51979 0.0228631 0.
0.521808 0.0228803 0.
0.523825 0.022897 0.
0.525841 0.0229137 0.
0.527857 0.0229297 0.
0.52987 0.0229373 0.
0.531883 0.0229449 0.
0.533895 0.022952 0.
0.535905 0.0229581 0.
0.537915 0.0229641 0.
0.539924 0.022969 0.
0.541932 0.0229728 0.
0.543939 0.0229765 0.
0.545945 0.0229791 0.
0.54795 0.0229812 0.
0.549956 0.0229834 0.
0.551958 0.022985 0.
0.553961 0.0229865 0.
0.555963 0.0229879 0.
0.557966 0.0229885 0.
0.559968 0.0229891 0.
0.561971 0.0229897 0.
0.563973 0.0229903 0.
0.565975 0.0229909 0.
0.567978 0.0229918 0.
0.56998 0.022993 0.
0.571982 0.0229941 0.
0.573984 0.0229946 0.
0.575985 0.0229951 0.
0.577986 0.0229955 0.
0.579987 0.0229958 0.
0.581989 0.022996 0.
0.58399 0.0229963 0.
0.585991 0.0229968 0.
0.587993 0.0229972 0.
0.589994 0.0229976 0.
0.591996 0.0229979 0.
0.593997 0.0229982 0.
0.595998 0.0229987 0.
0.597999 0.0229993 0.
0.6 0.0229998 0.
0.602002 0.0229995 0.
0.604003 0.0229993 0.
0.606004 0.0229989 0.
0.608006 0.0229983 0.
0.610007 0.0229976 0.
0.612008 0.022997 0.
0.61401 0.0229964 0.
0.616011 0.0229958 0.
0.618013 0.0229954 0.
0.620014 0.0229952 0.
0.622016 0.022995 0.
0.624017 0.0229944 0.
0.626018 0.0229938 0.
0.62802 0.0229931 0.
0.630022 0.0229919 0.
0.632025 0.0229908 0.
0.634027 0.0229899 0.
0.63603 0.0229895 0.
0.638032 0.0229891 0.
0.640035 0.0229885 0.
0.642037 0.0229876 0.
0.64404 0.0229867 0.
0.646043 0.022985 0.
0.648046 0.022983 0.
0.650049 0.022981 0.
0.652055 0.0229783 0.
0.654061 0.0229757 0.
0.656067 0.0229726 0.
0.658076 0.0229683 0.
0.660084 0.022964 0.
0.662094 0.0229584 0.
0.664106 0.0229516 0.
0.666117 0.0229447 0.
0.668131 0.0229366 0.
0.670144 0.022928 0.
0.672158 0.0229195 0.
0.674175 0.0229021 0.
0.676192 0.022884 0.
0.678209 0.0228658 0.
0.680228 0.0228466 0.
0.682246 0.0228274 0.
0.684265 0.0228079 0.
0.686285 0.022788 0.
0.688305 0.0227682 0.
0.690326 0.0227473 0.
0.692347 0.0227258 0.
0.694368 0.0227043 0.
0.696405 0.0226837 0.
0.698445 0.0226635 0.
0.499585 0.0246481 0.
0.50161 0.0246698 0.
0.503633 0.0246935 0.
0.505655 0.0247168 0.
0.507674 0.0247364 0.
0.509693 0.0247561 0.
0.511712 0.0247753 0.
0.51373 0.0247937 0.
0.515748 0.0248121 0.
0.517766 0.0248302 0.
0.519783 0.024848 0.
0.5218 0.0248658 0.
0.523816 0.0248835 0.
0.525831 0.0249012 0.
0.527847 0.0249183 0.
0.52986 0.0249264 0.
0.531873 0.0249345 0.
0.533886 0.0249423 0.
0.535897 0.0249492 0.
0.537908 0.0249561 0.
0.539917 0.0249618 0.
0.541925 0.0249665 0.
0.543933 0.0249712 0.
0.54594 0.0249744 0.
0.547946 0.0249772 0.
0.549952 0.02498 0.
0.551955 0.0249821 0.
0.553958 0.0249842 0.
0.555961 0.024986 0.
0.557964 0.0249867 0.
0.559966 0.0249875 0.
0.561969 0.0249881 0.
0.563971 0.0249886 0.
0.565973 0.024989 0.
0.567976 0.02499 0.
0.569978 0.0249912 0.
0.57198 0.0249924 0.
0.573982 0.0249931 0.
0.575983 0.0249936 0.
0.577984 0.0249942 0.
0.579986 0.0249946 0.
0.581988 0.024995 0.
0.583989 0.0249955 0.
0.585991 0.0249962 0.
0.587992 0.0249968 0.
0.589994 0.0249973 0.
0.591995 0.0249978 0.
0.593997 0.0249983 0.
0.595998 0.0249987 0.
0.597999 0.024999 0.
0.6 0.0249994 0.
0.602002 0.0249992 0.
0.604003 0.024999 0.
0.606005 0.0249987 0.
0.608006 0.024998 0.
0.610008 0.0249973 0.
0.612009 0.0249965 0.
0.614011 0.0249957 0.
0.616012 0.024995 0.
0.618014 0.0249944 0.
0.620016 0.024994 0.
0.622017 0.0249935 0.
0.624019 0.0249928 0.
0.62602 0.0249921 0.
0.628022 0.0249913 0.
0.630024 0.0249901 0.
0.632027 0.0249889 0.
0.634029 0.0249881 0.
0.636031 0.0249878 0.
0.638034 0.0249876 0.
0.640036 0.0249868 0.
0.642039 0.0249856 0.
0.644042 0.0249844 0.
0.646046 0.0249823 0.
0.64805 0.02498 0.
0.650053 0.0249776 0.
0.65206 0.0249739 0.
0.654066 0.0249703 0.
0.656073 0.0249662 0.
0.658082 0.0249609 0.
0.660092 0.0249557 0.
0.662102 0.0249493 0.
0.664114 0.0249417 0.
0.666127 0.0249341 0.
0.66814 0.0249253 0.
0.670154 0.0249161 0.
0.672168 0.0249069 0.
0.674185 0.0248887 0.
0.676201 0.0248699 0.
0.678217 0.024851 0.
0.680235 0.0248311 0.
0.682252 0.0248113 0.
0.68427 0.0247914 0.
0.686288 0.0247715 0.
0.688306 0.0247516 0.
0.690325 0.0247312 0.
0.692343 0.0247104 0.
0.694362 0.0246896 0.
0.696396 0.0246713 0.
0.698434 0.0246535 0.
0.499599 0.0266384 0.
0.501622 0.0266592 0.
0.503644 0.0266818 0.
0.505664 0.0267041 0.
0.507681 0.0267237 0.
0.509698 0.0267433 0.
0.511715 0.0267623 0.
0.513731 0.0267806 0.
0.515748 0.0267989 0.
0.517764 0.0268173 0.
0.51978 0.0268356 0.
0.521795 0.0268539 0.
0.523811 0.0268718 0.
0.525826 0.0268896 0.
0.52784 0.0269068 0.
0.529853 0.0269156 0.
0.531866 0.0269243 0.
0.533879 0.0269326 0.
0.53589 0.0269398 0.
0.537901 0.026947 0.
0.539911 0.0269532 0.
0.54192 0.0269584 0.
0.543928 0.0269637 0.
0.545935 0.0269677 0.
0.547942 0.0269713 0.
0.549948 0.026975 0.
0.551952 0.0269776 0.
0.553955 0.0269802 0.
0.555958 0.0269824 0.
0.557961 0.0269835 0.
0.559964 0.0269845 0.
0.561967 0.0269854 0.
0.563969 0.0269861 0.
0.565971 0.0269868 0.
0.567974 0.0269879 0.
0.569976 0.026989 0.
0.571979 0.0269902 0.
0.57398 0.026991 0.
0.575982 0.0269916 0.
0.577983 0.0269922 0.
0.579985 0.0269926 0.
0.581987 0.0269931 0.
0.583989 0.0269936 0.
0.58599 0.0269943 0.
0.587992 0.026995 0.
0.589994 0.0269956 0.
0.591995 0.0269961 0.
0.593996 0.0269966 0.
0.595998 0.026997 0.
0.597999 0.0269975 0.
0.6 0.0269979 0.
0.602002 0.0269976 0.
0.604004 0.0269973 0.
0.606005 0.0269969 0.
0.608007 0.0269962 0.
0.610008 0.0269955 0.
0.61201 0.0269947 0.
0.614011 0.0269939 0.
0.616013 0.0269931 0.
0.618015 0.0269925 0.
0.620017 0.026992 0.
0.622019 0.0269915 0.
0.62402 0.0269907 0.
0.626022 0.0269899 0.
0.628024 0.026989 0.
0.630026 0.0269879 0.
0.632028 0.0269868 0.
0.634031 0.0269858 0.
0.636033 0.0269852 0.
0.638036 0.0269845 0.
0.640039 0.0269835 0.
0.642042 0.0269822 0.
0.644045 0.0269809 0.
0.646049 0.0269781 0.
0.648053 0.026975 0.
0.650057 0.0269719 0.
0.652064 0.0269674 0.
0.654071 0.0269629 0.
0.656079 0.026958 0.
0.658088 0.0269521 0.
0.660098 0.0269463 0.
0.662109 0.0269394 0.
0.664121 0.0269315 0.
0.666133 0.0269235 0.
0.668147 0.0269144 0.
0.67016 0.0269047 0.
0.672174 0.0268951 0.
0.67419 0.0268768 0.
0.676205 0.0268579 0.
0.67822 0.0268388 0.
0.680236 0.0268187 0.
0.682252 0.0267987 0.
0.684269 0.0267786 0.
0.686285 0.0267587 0.
0.688301 0.0267388 0.
0.690318 0.0267186 0.
0.692334 0.0266982 0.
0.694351 0.0266777 0.
0.696384 0.0266606 0.
0.69842 0.0266441 0.
0.499613 0.0286284 0.
0.501635 0.0286485 0.
0.503655 0.0286702 0.
0.505673 0.0286918 0.
0.507688 0.0287112 0.
0.509703 0.0287307 0.
0.511718 0.0287496 0.
0.513733 0.0287678 0.
0.515748 0.0287859 0.
0.517762 0.0288045 0.
0.519777 0.0288233 0.
0.521791 0.0288422 0.
0.523806 0.0288602 0.
0.52582 0.028878 0.
0.527834 0.0288953 0.
0.529847 0.0289047 0.
0.531859 0.0289141 0.
0.533872 0.0289229 0.
0.535883 0.0289304 0.
0.537895 0.0289379 0.
0.539905 0.0289445 0.
0.541914 0.0289503 0.
0.543923 0.0289562 0.
0.545931 0.028961 0.
0.547938 0.0289654 0.
0.549945 0.0289699 0.
0.551948 0.028973 0.
0.553952 0.0289762 0.
0.555956 0.0289789 0.
0.557959 0.0289802 0.
0.559962 0.0289816 0.
0.561965 0.0289828 0.
0.563967 0.0289837 0.
0.56597 0.0289847 0.
0.567972 0.0289857 0.
0.569974 0.0289869 0.
0.571977 0.0289881 0.
0.573978 0.0289888 0.
0.57598 0.0289896 0.
0.577982 0.0289903 0.
0.579984 0.0289907 0.
0.581986 0.0289911 0.
0.583988 0.0289916 0.
0.58599 0.0289924 0.
0.587992 0.0289931 0.
0.589993 0.0289938 0.
0.591995 0.0289944 0.
0.593996 0.0289949 0.
0.595998 0.0289954 0.
0.597999 0.0289959 0.
0.6 0.0289964 0.
0.602002 0.028996 0.
0.604004 0.0289956 0.
0.606005 0.0289952 0.
0.608007 0.0289944 0.
0.610008 0.0289937 0.
0.61201 0.0289929 0.
0.614012 0.0289921 0.
0.616014 0.0289912 0.
0.618016 0.0289906 0.
0.620018 0.02899 0.
0.62202 0.0289894 0.
0.624022 0.0289885 0.
0.626024 0.0289876 0.
0.628025 0.0289867 0.
0.630028 0.0289857 0.
0.63203 0.0289846 0.
0.634032 0.0289835 0.
0.636035 0.0289825 0.
0.638038 0.0289815 0.
0.640041 0.0289802 0.
0.642045 0.0289788 0.
0.644048 0.0289773 0.
0.646052 0.0289739 0.
0.648057 0.0289701 0.
0.650061 0.0289662 0.
0.652069 0.0289608 0.
0.654076 0.0289554 0.
0.656084 0.0289498 0.
0.658094 0.0289433 0.
0.660104 0.0289369 0.
0.662116 0.0289295 0.
0.664128 0.0289212 0.
0.66614 0.0289129 0.
0.668153 0.0289034 0.
0.670167 0.0288933 0.
0.67218 0.0288833 0.
0.674194 0.0288649 0.
0.676209 0.0288459 0.
0.678223 0.0288268 0.
0.680238 0.0288065 0.
0.682252 0.0287862 0.
0.684267 0.028766 0.
0.686281 0.0287461 0.
0.688296 0.0287262 0.
0.69031 0.0287063 0.
0.692325 0.0286863 0.
0.694339 0.0286663 0.
0.696371 0.0286501 0.
0.698406 0.0286348 0.
0.499627 0.0306232 0.
0.501647 0.0306419 0.
0.503666 0.030662 0.
0.505683 0.0306821 0.
0.507696 0.0307009 0.
0.509709 0.0307198 0.
0.511722 0.0307383 0.
0.513736 0.0307562 0.
0.515749 0.0307742 0.
0.517762 0.0307929 0.
0.519776 0.0308121 0.
0.521789 0.0308313 0.
0.523803 0.0308493 0.
0.525816 0.0308671 0.
0.527829 0.0308844 0.
0.529842 0.030894 0.
0.531854 0.0309037 0.
0.533867 0.0309129 0.
0.535878 0.0309208 0.
0.53789 0.0309288 0.
0.5399 0.0309359 0.
0.541909 0.0309423 0.
0.543919 0.0309487 0.
0.545927 0.0309542 0.
0.547934 0.0309594 0.
0.549941 0.0309647 0.
0.551945 0.0309684 0.
0.553949 0.0309722 0.
0.555953 0.0309755 0.
0.557956 0.0309771 0.
0.55996 0.0309788 0.
0.561963 0.0309802 0.
0.563966 0.0309814 0.
0.565968 0.0309826 0.
0.567971 0.0309838 0.
0.569973 0.030985 0.
0.571976 0.0309863 0.
0.573977 0.0309871 0.
0.575979 0.0309878 0.
0.577981 0.0309885 0.
0.579983 0.0309889 0.
0.581985 0.0309893 0.
0.583987 0.0309899 0.
0.585989 0.0309906 0.
0.587991 0.0309914 0.
0.589993 0.0309921 0.
0.591994 0.0309927 0.
0.593996 0.0309933 0.
0.595997 0.0309938 0.
0.597999 0.0309942 0.
0.6 0.0309947 0.
0.602002 0.0309943 0.
0.604004 0.0309939 0.
0.606006 0.0309934 0.
0.608007 0.0309927 0.
0.610009 0.030992 0.
0.612011 0.0309912 0.
0.614013 0.0309904 0.
0.616015 0.0309895 0.
0.618017 0.0309888 0.
0.620019 0.0309882 0.
0.622022 0.0309876 0.
0.624023 0.0309867 0.
0.626025 0.0309857 0.
0.628027 0.0309847 0.
0.630029 0.0309836 0.
0.632031 0.0309825 0.
0.634034 0.0309813 0.
0.636037 0.03098 0.
0.63804 0.0309787 0.
0.640043 0.0309771 0.
0.642047 0.0309754 0.
0.644051 0.0309737 0.
0.646056 0.0309697 0.
0.64806 0.0309651 0.
0.650065 0.0309605 0.
0.652073 0.0309543 0.
0.654081 0.030948 0.
0.656089 0.0309415 0.
0.658099 0.0309345 0.
0.66011 0.0309275 0.
0.662121 0.0309197 0.
0.664133 0.0309109 0.
0.666145 0.0309022 0.
0.668158 0.0308924 0.
0.670171 0.0308822 0.
0.672184 0.030872 0.
0.674197 0.0308536 0.
0.676211 0.0308348 0.
0.678224 0.0308157 0.
0.680238 0.0307952 0.
0.682251 0.0307748 0.
0.684264 0.0307546 0.
0.686277 0.030735 0.
0.68829 0.0307154 0.
0.690303 0.030696 0.
0.692315 0.0306767 0.
0.694328 0.0306573 0.
0.696358 0.0306422 0.
0.698392 0.0306279 0.
0.499639 0.0326237 0.
0.501659 0.0326401 0.
0.503676 0.0326579 0.
0.505692 0.0326757 0.
0.507704 0.0326934 0.
0.509716 0.0327112 0.
0.511728 0.0327289 0.
0.51374 0.0327465 0.
0.515752 0.0327641 0.
0.517765 0.0327828 0.
0.519777 0.0328022 0.
0.52179 0.0328215 0.
0.523802 0.0328394 0.
0.525815 0.032857 0.
0.527827 0.032874 0.
0.52984 0.0328836 0.
0.531852 0.0328933 0.
0.533863 0.0329026 0.
0.535875 0.0329111 0.
0.537886 0.0329196 0.
0.539896 0.0329273 0.
0.541905 0.0329342 0.
0.543915 0.0329411 0.
0.545923 0.0329473 0.
0.54793 0.0329533 0.
0.549937 0.0329593 0.
0.551942 0.0329638 0.
0.553946 0.0329683 0.
0.55595 0.0329722 0.
0.557954 0.0329741 0.
0.559958 0.0329761 0.
0.561961 0.0329778 0.
0.563964 0.0329792 0.
0.565967 0.0329805 0.
0.56797 0.032982 0.
0.569972 0.0329835 0.
0.571975 0.0329849 0.
0.573977 0.0329856 0.
0.575978 0.0329862 0.
0.57798 0.0329868 0.
0.579982 0.0329873 0.
0.581984 0.0329877 0.
0.583986 0.0329883 0.
0.585988 0.032989 0.
0.58799 0.0329897 0.
0.589992 0.0329904 0.
0.591994 0.0329911 0.
0.593996 0.0329917 0.
0.595997 0.0329921 0.
0.597999 0.0329924 0.
0.6 0.0329928 0.
0.602002 0.0329924 0.
0.604004 0.0329921 0.
0.606006 0.0329917 0.
0.608008 0.032991 0.
0.61001 0.0329904 0.
0.612012 0.0329896 0.
0.614014 0.0329888 0.
0.616016 0.0329879 0.
0.618018 0.0329872 0.
0.62002 0.0329866 0.
0.622023 0.032986 0.
0.624024 0.0329851 0.
0.626026 0.0329841 0.
0.628027 0.0329831 0.
0.63003 0.0329817 0.
0.632032 0.0329804 0.
0.634035 0.032979 0.
0.636038 0.0329776 0.
0.638042 0.0329761 0.
0.640045 0.0329743 0.
0.64205 0.0329722 0.
0.644054 0.0329701 0.
0.646059 0.0329655 0.
0.648064 0.0329602 0.
0.650069 0.032955 0.
0.652077 0.0329478 0.
0.654085 0.0329406 0.
0.656093 0.0329333 0.
0.658103 0.0329257 0.
0.660113 0.0329181 0.
0.662124 0.0329098 0.
0.664136 0.0329006 0.
0.666148 0.0328915 0.
0.66816 0.0328816 0.
0.670173 0.0328714 0.
0.672185 0.0328613 0.
0.674198 0.0328432 0.
0.676211 0.0328246 0.
0.678223 0.0328058 0.
0.680236 0.0327853 0.
0.682248 0.0327649 0.
0.68426 0.0327449 0.
0.686272 0.0327259 0.
0.688284 0.0327069 0.
0.690296 0.0326883 0.
0.692307 0.03267 0.
0.694318 0.0326517 0.
0.696346 0.0326376 0.
0.698379 0.0326243 0.
0.499652 0.0346242 0.
0.50167 0.0346384 0.
0.503686 0.0346537 0.
0.505701 0.0346692 0.
0.507712 0.0346859 0.
0.509722 0.0347026 0.
0.511733 0.0347195 0.
0.513744 0.0347368 0.
0.515756 0.0347541 0.
0.517767 0.0347727 0.
0.519779 0.0347922 0.
0.52179 0.0348117 0.
0.523802 0.0348294 0.
0.525814 0.0348468 0.
0.527825 0.0348637 0.
0.529837 0.0348733 0.
0.531849 0.0348828 0.
0.53386 0.0348923 0.
0.535871 0.0349014 0.
0.537882 0.0349105 0.
0.539892 0.0349187 0.
0.541901 0.0349261 0.
0.543911 0.0349336 0.
0.545919 0.0349405 0.
0.547926 0.0349472 0.
0.549934 0.0349539 0.
0.551938 0.0349591 0.
0.553943 0.0349643 0.
0.555947 0.0349689 0.
0.557951 0.0349712 0.
0.559956 0.0349734 0.
0.561959 0.0349753 0.
0.563963 0.0349769 0.
0.565966 0.0349785 0.
0.567969 0.0349802 0.
0.569971 0.0349819 0.
0.571974 0.0349836 0.
0.573976 0.0349842 0.
0.575977 0.0349847 0.
0.577979 0.0349851 0.
0.579981 0.0349856 0.
0.581983 0.0349861 0.
0.583985 0.0349867 0.
0.585987 0.0349874 0.
0.58799 0.0349881 0.
0.589991 0.0349888 0.
0.591993 0.0349894 0.
0.593995 0.0349901 0.
0.595997 0.0349904 0.
0.597999 0.0349907 0.
0.6 0.0349909 0.
0.602003 0.0349906 0.
0.604005 0.0349903 0.
0.606007 0.03499 0.
0.608009 0.0349894 0.
0.610011 0.0349887 0.
0.612013 0.034988 0.
0.614015 0.0349872 0.
0.616017 0.0349863 0.
0.618019 0.0349856 0.
0.620021 0.0349851 0.
0.622023 0.0349845 0.
0.624025 0.0349835 0.
0.626026 0.0349825 0.
0.628028 0.0349814 0.
0.630031 0.0349799 0.
0.632033 0.0349783 0.
0.634036 0.0349767 0.
0.63604 0.0349751 0.
0.638043 0.0349735 0.
0.640048 0.0349714 0.
0.642052 0.034969 0.
0.644057 0.0349665 0.
0.646062 0.0349612 0.
0.648068 0.0349553 0.
0.650073 0.0349494 0.
0.652081 0.0349413 0.
0.654089 0.0349333 0.
0.656097 0.0349251 0.
0.658107 0.034917 0.
0.660117 0.0349088 0.
0.662128 0.0348999 0.
0.664139 0.0348903 0.
0.66615 0.0348808 0.
0.668162 0.0348708 0.
0.670175 0.0348607 0.
0.672187 0.0348506 0.
0.674199 0.0348328 0.
0.67621 0.0348145 0.
0.678222 0.0347959 0.
0.680233 0.0347754 0.
0.682245 0.034755 0.
0.684256 0.0347352 0.
0.686267 0.0347168 0.
0.688278 0.0346983 0.
0.690288 0.0346807 0.
0.692298 0.0346634 0.
0.694308 0.0346461 0.
0.696335 0.034633 0.
0.698366 0.0346206 0.
0.499664 0.0366167 0.
0.501681 0.0366312 0.
0.503697 0.0366468 0.
0.505712 0.0366626 0.
0.507721 0.0366792 0.
0.509731 0.0366958 0.
0.51174 0.0367125 0.
0.513751 0.0367294 0.
0.515761 0.0367462 0.
0.517771 0.0367648 0.
0.519782 0.0367844 0.
0.521793 0.0368041 0.
0.523804 0.0368214 0.
0.525815 0.0368384 0.
0.527826 0.0368548 0.
0.529837 0.0368646 0.
0.531848 0.0368744 0.
0.533859 0.036884 0.
0.53587 0.036893 0.
0.53788 0.0369021 0.
0.53989 0.0369105 0.
0.541899 0.0369185 0.
0.543908 0.0369264 0.
0.545916 0.0369337 0.
0.547923 0.0369408 0.
0.549931 0.0369479 0.
0.551936 0.0369536 0.
0.553941 0.0369592 0.
0.555945 0.0369642 0.
0.55795 0.0369667 0.
0.559954 0.0369692 0.
0.561958 0.0369715 0.
0.563962 0.0369735 0.
0.565965 0.0369755 0.
0.567968 0.0369773 0.
0.569971 0.036979 0.
0.571974 0.0369807 0.
0.573975 0.0369814 0.
0.575977 0.036982 0.
0.577978 0.0369826 0.
0.57998 0.0369833 0.
0.581982 0.036984 0.
0.583984 0.0369847 0.
0.585987 0.0369854 0.
0.587989 0.0369861 0.
0.589991 0.0369868 0.
0.591993 0.0369874 0.
0.593995 0.0369881 0.
0.595997 0.0369884 0.
0.597999 0.0369885 0.
0.6 0.0369887 0.
0.602003 0.0369884 0.
0.604005 0.0369881 0.
0.606007 0.0369878 0.
0.608009 0.0369872 0.
0.610011 0.0369867 0.
0.612013 0.036986 0.
0.614016 0.0369851 0.
0.616018 0.0369842 0.
0.61802 0.0369835 0.
0.620022 0.0369827 0.
0.622024 0.036982 0.
0.624025 0.0369809 0.
0.626027 0.0369798 0.
0.628028 0.0369786 0.
0.630031 0.036977 0.
0.632034 0.0369754 0.
0.634037 0.0369736 0.
0.636041 0.0369715 0.
0.638045 0.0369694 0.
0.640049 0.0369669 0.
0.642054 0.0369642 0.
0.644059 0.0369615 0.
0.646065 0.0369559 0.
0.64807 0.0369496 0.
0.650076 0.0369432 0.
0.652084 0.0369346 0.
0.654092 0.0369261 0.
0.6561 0.0369175 0.
0.65811 0.0369088 0.
0.660119 0.0369001 0.
0.662129 0.0368911 0.
0.66414 0.0368817 0.
0.666151 0.0368723 0.
0.668162 0.0368622 0.
0.670174 0.036852 0.
0.672185 0.0368417 0.
0.674196 0.0368244 0.
0.676207 0.0368066 0.
0.678218 0.0367883 0.
0.680229 0.036768 0.
0.682239 0.0367477 0.
0.68425 0.0367282 0.
0.68626 0.0367099 0.
0.688269 0.0366916 0.
0.690279 0.0366741 0.
0.692288 0.0366571 0.
0.694297 0.0366402 0.
0.696323 0.0366275 0.
0.698353 0.0366156 0.
0.499676 0.0386091 0.
0.501693 0.038624 0.
0.503708 0.03864 0.
0.505722 0.0386561 0.
0.507731 0.0386727 0.
0.509739 0.0386892 0.
0.511748 0.0387057 0.
0.513757 0.0387221 0.
0.515766 0.0387384 0.
0.517776 0.0387569 0.
0.519786 0.0387767 0.
0.521796 0.0387965 0.
0.523806 0.0388135 0.
0.525817 0.03883 0.
0.527827 0.038846 0.
0.529838 0.0388561 0.
0.531848 0.0388661 0.
0.533859 0.0388758 0.
0.535869 0.0388847 0.
0.537879 0.0388936 0.
0.539888 0.0389023 0.
0.541897 0.0389108 0.
0.543905 0.0389192 0.
0.545913 0.0389269 0.
0.547921 0.0389344 0.
0.549928 0.0389419 0.
0.551933 0.038948 0.
0.553938 0.0389541 0.
0.555943 0.0389595 0.
0.557948 0.0389623 0.
0.559953 0.038965 0.
0.561957 0.0389677 0.
0.563961 0.0389701 0.
0.565965 0.0389725 0.
0.567968 0.0389745 0.
0.569971 0.0389762 0.
0.571973 0.0389779 0.
0.573975 0.0389787 0.
0.575976 0.0389794 0.
0.577978 0.0389801 0.
0.57998 0.038981 0.
0.581982 0.0389818 0.
0.583984 0.0389826 0.
0.585986 0.0389834 0.
0.587988 0.0389841 0.
0.589991 0.0389848 0.
0.591993 0.0389855 0.
0.593995 0.0389861 0.
0.595997 0.0389863 0.
0.597999 0.0389864 0.
0.6 0.0389865 0.
0.602003 0.0389862 0.
0.604005 0.0389859 0.
0.606007 0.0389855 0.
0.608009 0.0389851 0.
0.610012 0.0389847 0.
0.612014 0.038984 0.
0.614016 0.0389831 0.
0.616018 0.0389822 0.
0.618021 0.0389813 0.
0.620022 0.0389804 0.
0.622024 0.0389795 0.
0.624026 0.0389783 0.
0.626027 0.0389771 0.
0.628029 0.0389758 0.
0.630032 0.0389741 0.
0.632034 0.0389724 0.
0.634038 0.0389704 0.
0.636042 0.0389678 0.
0.638046 0.0389652 0.
0.640051 0.0389624 0.
0.642056 0.0389595 0.
0.644062 0.0389566 0.
0.646067 0.0389506 0.
0.648073 0.0389438 0.
0.650079 0.0389369 0.
0.652087 0.0389279 0.
0.654095 0.038919 0.
0.656103 0.0389099 0.
0.658112 0.0389007 0.
0.660121 0.0388915 0.
0.662131 0.0388823 0.
0.664141 0.038873 0.
0.666151 0.0388638 0.
0.668162 0.0388537 0.
0.670173 0.0388433 0.
0.672183 0.0388329 0.
0.674194 0.038816 0.
0.676204 0.0387987 0.
0.678214 0.0387809 0.
0.680224 0.0387607 0.
0.682234 0.0387406 0.
0.684243 0.0387212 0.
0.686252 0.0387031 0.
0.688261 0.0386849 0.
0.690269 0.0386677 0.
0.692278 0.0386511 0.
0.694286 0.0386344 0.
0.696312 0.0386221 0.
0.698341 0.0386107 0.
0.499689 0.0406061 0.
0.501705 0.0406205 0.
0.503719 0.0406357 0.
0.505732 0.0406512 0.
0.50774 0.0406673 0.
0.509748 0.0406834 0.
0.511756 0.0406995 0.
0.513764 0.0407155 0.
0.515773 0.0407316 0.
0.517781 0.0407499 0.
0.519791 0.0407697 0.
0.5218 0.0407895 0.
0.52381 0.0408062 0.
0.525819 0.0408223 0.
0.527829 0.0408379 0.
0.529839 0.040848 0.
0.531849 0.0408581 0.
0.533859 0.0408678 0.
0.535868 0.0408768 0.
0.537878 0.0408858 0.
0.539887 0.0408947 0.
0.541895 0.0409035 0.
0.543903 0.0409122 0.
0.545911 0.0409204 0.
0.547919 0.0409282 0.
0.549926 0.0409361 0.
0.551931 0.0409427 0.
0.553936 0.0409493 0.
0.555941 0.0409551 0.
0.557946 0.0409582 0.
0.559951 0.0409612 0.
0.561956 0.0409641 0.
0.56396 0.0409668 0.
0.565964 0.0409695 0.
0.567967 0.0409716 0.
0.56997 0.0409735 0.
0.571973 0.0409753 0.
0.573975 0.0409763 0.
0.575976 0.0409771 0.
0.577977 0.040978 0.
0.579979 0.0409789 0.
0.581981 0.0409798 0.
0.583983 0.0409806 0.
0.585986 0.0409814 0.
0.587988 0.0409821 0.
0.58999 0.0409829 0.
0.591993 0.0409835 0.
0.593995 0.0409842 0.
0.595997 0.0409844 0.
0.597999 0.0409844 0.
0.6 0.0409845 0.
0.602003 0.0409841 0.
0.604005 0.0409838 0.
0.606007 0.0409835 0.
0.608009 0.0409831 0.
0.610012 0.0409827 0.
0.612014 0.0409821 0.
0.614017 0.0409811 0.
0.616019 0.0409802 0.
0.618021 0.0409792 0.
0.620023 0.0409783 0.
0.622025 0.0409774 0.
0.624026 0.040976 0.
0.626027 0.0409747 0.
0.628029 0.0409732 0.
0.630032 0.0409713 0.
0.632035 0.0409694 0.
0.634039 0.0409672 0.
0.636043 0.0409643 0.
0.638048 0.0409614 0.
0.640053 0.0409583 0.
0.642058 0.040955 0.
0.644064 0.0409518 0.
0.646069 0.0409453 0.
0.648075 0.0409381 0.
0.650081 0.0409308 0.
0.652089 0.0409215 0.
0.654096 0.0409121 0.
0.656104 0.0409027 0.
0.658113 0.0408931 0.
0.660122 0.0408835 0.
0.662131 0.0408741 0.
0.664141 0.0408648 0.
0.666151 0.0408555 0.
0.66816 0.0408454 0.
0.670171 0.0408351 0.
0.672181 0.0408247 0.
0.67419 0.0408082 0.
0.6762 0.0407913 0.
0.678209 0.0407739 0.
0.680218 0.0407539 0.
0.682228 0.0407339 0.
0.684236 0.0407148 0.
0.686244 0.040697 0.
0.688252 0.0406792 0.
0.69026 0.0406624 0.
0.692267 0.0406463 0.
0.694275 0.0406302 0.
0.696299 0.0406184 0.
0.698328 0.0406076 0.
0.499701 0.0426084 0.
0.501716 0.042621 0.
0.50373 0.0426344 0.
0.505742 0.0426482 0.
0.507749 0.0426634 0.
0.509757 0.0426787 0.
0.511764 0.0426941 0.
0.513772 0.04271 0.
0.51578 0.0427259 0.
0.517788 0.0427441 0.
0.519796 0.0427637 0.
0.521805 0.0427833 0.
0.523814 0.0427996 0.
0.525823 0.0428154 0.
0.527832 0.0428308 0.
0.529842 0.0428406 0.
0.531851 0.0428504 0.
0.53386 0.0428601 0.
0.535869 0.0428694 0.
0.537878 0.0428786 0.
0.539886 0.0428877 0.
0.541895 0.0428966 0.
0.543903 0.0429055 0.
0.54591 0.042914 0.
0.547917 0.0429223 0.
0.549924 0.0429306 0.
0.551929 0.0429377 0.
0.553935 0.0429447 0.
0.55594 0.042951 0.
0.557945 0.0429544 0.
0.55995 0.0429578 0.
0.561954 0.0429609 0.
0.563959 0.0429636 0.
0.565963 0.0429664 0.
0.567966 0.0429687 0.
0.569969 0.0429709 0.
0.571972 0.0429731 0.
0.573974 0.0429742 0.
0.575976 0.0429753 0.
0.577977 0.0429763 0.
0.579979 0.0429771 0.
0.581981 0.0429779 0.
0.583983 0.0429787 0.
0.585986 0.0429795 0.
0.587988 0.0429802 0.
0.58999 0.0429809 0.
0.591992 0.0429816 0.
0.593995 0.0429824 0.
0.595997 0.0429826 0.
0.597999 0.0429826 0.
0.6 0.0429826 0.
0.602003 0.0429823 0.
0.604005 0.0429819 0.
0.606007 0.0429815 0.
0.60801 0.0429811 0.
0.610012 0.0429808 0.
0.612014 0.0429801 0.
0.614017 0.0429792 0.
0.616019 0.0429783 0.
0.618021 0.0429774 0.
0.620023 0.0429765 0.
0.622025 0.0429756 0.
0.624026 0.0429741 0.
0.626028 0.0429725 0.
0.62803 0.0429708 0.
0.630033 0.0429686 0.
0.632036 0.0429664 0.
0.63404 0.0429639 0.
0.636044 0.0429609 0.
0.638049 0.0429578 0.
0.640054 0.0429544 0.
0.64206 0.0429507 0.
0.644065 0.042947 0.
0.646071 0.0429402 0.
0.648077 0.0429325 0.
0.650083 0.0429249 0.
0.65209 0.0429152 0.
0.654097 0.0429056 0.
0.656105 0.0428959 0.
0.658113 0.0428861 0.
0.660122 0.0428763 0.
0.662131 0.0428666 0.
0.66414 0.0428571 0.
0.666149 0.0428476 0.
0.668158 0.0428376 0.
0.670168 0.0428273 0.
0.672177 0.0428171 0.
0.674186 0.0428011 0.
0.676195 0.0427846 0.
0.678204 0.0427676 0.
0.680212 0.0427478 0.
0.682221 0.0427279 0.
0.684229 0.0427091 0.
0.686236 0.0426918 0.
0.688244 0.0426746 0.
0.690251 0.0426585 0.
0.692258 0.0426431 0.
0.694264 0.0426278 0.
0.696288 0.0426168 0.
0.698315 0.0426068 0.
0.499714 0.0446107 0.
0.501728 0.0446216 0.
0.503741 0.0446331 0.
0.505752 0.0446452 0.
0.507759 0.0446595 0.
0.509765 0.0446739 0.
0.511772 0.0446888 0.
0.513779 0.0447045 0.
0.515787 0.0447202 0.
0.517794 0.0447382 0.
0.519802 0.0447576 0.
0.52181 0.044777 0.
0.523818 0.0447931 0.
0.525827 0.0448086 0.
0.527835 0.0448236 0.
0.529844 0.0448332 0.
0.531853 0.0448428 0.
0.533861 0.0448524 0.
0.535869 0.0448619 0.
0.537878 0.0448715 0.
0.539886 0.0448807 0.
0.541894 0.0448897 0.
0.543902 0.0448988 0.
0.545909 0.0449076 0.
0.547916 0.0449163 0.
0.549923 0.0449251 0.
0.551928 0.0449326 0.
0.553933 0.0449401 0.
0.555938 0.0449468 0.
0.557943 0.0449506 0.
0.559948 0.0449543 0.
0.561953 0.0449576 0.
0.563957 0.0449604 0.
0.565962 0.0449633 0.
0.567965 0.0449659 0.
0.569969 0.0449683 0.
0.571972 0.0449708 0.
0.573974 0.0449722 0.
0.575975 0.0449734 0.
0.577977 0.0449746 0.
0.579979 0.0449753 0.
0.581981 0.0449761 0.
0.583983 0.0449768 0.
0.585985 0.0449775 0.
0.587988 0.0449783 0.
0.58999 0.044979 0.
0.591992 0.0449798 0.
0.593994 0.0449805 0.
0.595996 0.0449807 0.
0.597998 0.0449808 0.
0.6 0.0449808 0.
0.602003 0.0449804 0.
0.604005 0.04498 0.
0.606008 0.0449796 0.
0.60801 0.0449792 0.
0.610012 0.0449788 0.
0.612014 0.0449782 0.
0.614016 0.0449773 0.
0.616019 0.0449764 0.
0.618021 0.0449755 0.
0.620023 0.0449746 0.
0.622025 0.0449737 0.
0.624027 0.0449721 0.
0.626028 0.0449703 0.
0.62803 0.0449684 0.
0.630034 0.0449659 0.
0.632037 0.0449633 0.
0.634041 0.0449606 0.
0.636046 0.0449574 0.
0.638051 0.0449543 0.
0.640056 0.0449506 0.
0.642062 0.0449464 0.
0.644067 0.0449423 0.
0.646073 0.044935 0.
0.648078 0.044927 0.
0.650084 0.0449189 0.
0.652091 0.044909 0.
0.654098 0.044899 0.
0.656105 0.0448891 0.
0.658114 0.0448791 0.
0.660122 0.044869 0.
0.66213 0.0448591 0.
0.664139 0.0448494 0.
0.666147 0.0448396 0.
0.668156 0.0448297 0.
0.670165 0.0448196 0.
0.672174 0.0448096 0.
0.674182 0.044794 0.
0.67619 0.0447779 0.
0.678198 0.0447613 0.
0.680206 0.0447417 0.
0.682214 0.044722 0.
0.684222 0.0447035 0.
0.686228 0.0446867 0.
0.688235 0.04467 0.
0.690242 0.0446546 0.
0.692248 0.04464 0.
0.694254 0.0446254 0.
0.696276 0.0446152 0.
0.698302 0.0446059 0.
0.499724 0.0466041 0.
0.501738 0.0466159 0.
0.50375 0.0466283 0.
0.505762 0.0466411 0.
0.507768 0.0466556 0.
0.509774 0.0466701 0.
0.51178 0.0466849 0.
0.513787 0.0467001 0.
0.515794 0.0467153 0.
0.517801 0.046733 0.
0.519808 0.0467524 0.
0.521816 0.0467718 0.
0.523824 0.0467876 0.
0.525832 0.0468027 0.
0.52784 0.0468175 0.
0.529848 0.0468271 0.
0.531856 0.0468366 0.
0.533863 0.0468462 0.
0.535871 0.0468555 0.
0.537879 0.0468649 0.
0.539887 0.0468743 0.
0.541894 0.0468837 0.
0.543902 0.046893 0.
0.545909 0.0469021 0.
0.547916 0.0469111 0.
0.549922 0.0469201 0.
0.551927 0.0469275 0.
0.553932 0.046935 0.
0.555937 0.0469417 0.
0.557942 0.0469456 0.
0.559947 0.0469496 0.
0.561952 0.0469532 0.
0.563957 0.0469565 0.
0.565961 0.0469597 0.
0.567965 0.0469626 0.
0.569968 0.0469653 0.
0.571972 0.046968 0.
0.573974 0.0469694 0.
0.575975 0.0469707 0.
0.577977 0.046972 0.
0.579979 0.0469728 0.
0.581981 0.0469736 0.
0.583983 0.0469744 0.
0.585985 0.0469751 0.
0.587988 0.0469758 0.
0.58999 0.0469766 0.
0.591992 0.0469773 0.
0.593994 0.0469781 0.
0.595996 0.0469784 0.
0.597998 0.0469786 0.
0.6 0.0469787 0.
0.602003 0.0469782 0.
0.604005 0.0469777 0.
0.606008 0.0469772 0.
0.60801 0.0469768 0.
0.610012 0.0469764 0.
0.612014 0.0469758 0.
0.614016 0.0469749 0.
0.616019 0.046974 0.
0.618021 0.0469731 0.
0.620023 0.0469721 0.
0.622025 0.0469711 0.
0.624027 0.0469694 0.
0.626029 0.0469675 0.
0.628031 0.0469656 0.
0.630034 0.0469628 0.
0.632038 0.04696 0.
0.634042 0.0469569 0.
0.636047 0.0469533 0.
0.638052 0.0469496 0.
0.640057 0.0469456 0.
0.642062 0.0469414 0.
0.644068 0.0469371 0.
0.646073 0.0469297 0.
0.648079 0.0469216 0.
0.650085 0.0469134 0.
0.652091 0.0469033 0.
0.654098 0.0468932 0.
0.656105 0.0468831 0.
0.658113 0.0468728 0.
0.660121 0.0468624 0.
0.662128 0.0468525 0.
0.664136 0.046843 0.
0.666144 0.0468334 0.
0.668153 0.0468235 0.
0.670161 0.0468134 0.
0.672169 0.0468034 0.
0.674177 0.0467882 0.
0.676184 0.0467726 0.
0.678192 0.0467564 0.
0.680199 0.046737 0.
0.682207 0.0467177 0.
0.684214 0.0466994 0.
0.68622 0.0466828 0.
0.688226 0.0466662 0.
0.690232 0.0466508 0.
0.692238 0.0466363 0.
0.694244 0.0466217 0.
0.696266 0.0466116 0.
0.698291 0.0466024 0.
0.499735 0.0485974 0.
0.501748 0.0486101 0.
0.50376 0.0486235 0.
0.505771 0.0486371 0.
0.507777 0.0486518 0.
0.509783 0.0486664 0.
0.511789 0.048681 0.
0.513795 0.0486957 0.
0.515801 0.0487104 0.
0.517807 0.048728 0.
0.519814 0.0487473 0.
0.521821 0.0487665 0.
0.523829 0.0487821 0.
0.525836 0.0487969 0.
0.527844 0.0488114 0.
0.529851 0.0488209 0.
0.531859 0.0488305 0.
0.533866 0.04884 0.
0.535873 0.0488492 0.
0.53788 0.0488584 0.
0.539888 0.0488679 0.
0.541895 0.0488776 0.
0.543902 0.0488873 0.
0.545909 0.0488967 0.
0.547915 0.0489059 0.
0.549922 0.048915 0.
0.551927 0.0489225 0.
0.553932 0.0489298 0.
0.555936 0.0489365 0.
0.557941 0.0489407 0.
0.559946 0.0489448 0.
0.561951 0.0489488 0.
0.563956 0.0489525 0.
0.565961 0.0489562 0.
0.567965 0.0489593 0.
0.569968 0.0489622 0.
0.571972 0.0489651 0.
0.573974 0.0489667 0.
0.575975 0.048968 0.
0.577977 0.0489693 0.
0.579979 0.0489702 0.
0.581981 0.0489711 0.
0.583983 0.048972 0.
0.585985 0.0489727 0.
0.587988 0.0489734 0.
0.58999 0.0489742 0.
0.591992 0.0489749 0.
0.593994 0.0489756 0.
0.595996 0.048976 0.
0.597998 0.0489764 0.
0.6 0.0489767 0.
0.602003 0.048976 0.
0.604005 0.0489754 0.
0.606008 0.0489748 0.
0.60801 0.0489744 0.
0.610012 0.0489739 0.
0.612014 0.0489733 0.
0.614016 0.0489725 0.
0.616018 0.0489716 0.
0.618021 0.0489706 0.
0.620023 0.0489695 0.
0.622025 0.0489685 0.
0.624027 0.0489667 0.
0.626029 0.0489648 0.
0.628031 0.0489628 0.
0.630035 0.0489597 0.
0.632038 0.0489566 0.
0.634043 0.0489532 0.
0.636048 0.048949 0.
0.638053 0.0489449 0.
0.640058 0.0489407 0.
0.642063 0.0489363 0.
0.644069 0.0489319 0.
0.646074 0.0489244 0.
0.64808 0.0489162 0.
0.650085 0.048908 0.
0.652092 0.0488977 0.
0.654098 0.0488874 0.
0.656105 0.0488771 0.
0.658112 0.0488665 0.
0.660119 0.0488559 0.
0.662127 0.0488458 0.
0.664134 0.0488366 0.
0.666141 0.0488273 0.
0.668149 0.0488174 0.
0.670156 0.0488073 0.
0.672164 0.0487972 0.
0.674171 0.0487824 0.
0.676178 0.0487673 0.
0.678186 0.0487516 0.
0.680192 0.0487325 0.
0.682199 0.0487134 0.
0.684206 0.0486953 0.
0.686211 0.0486789 0.
0.688217 0.0486624 0.
0.690223 0.0486471 0.
0.692229 0.0486326 0.
0.694235 0.0486181 0.
0.696256 0.048608 0.
0.69828 0.0485987 0.
0.499746 0.0505954 0.
0.501759 0.0506078 0.
0.50377 0.0506209 0.
0.505781 0.0506342 0.
0.507786 0.0506486 0.
0.509792 0.050663 0.
0.511797 0.0506774 0.
0.513803 0.0506919 0.
0.515809 0.0507063 0.
0.517815 0.0507237 0.
0.519821 0.0507428 0.
0.521827 0.050762 0.
0.523834 0.0507772 0.
0.525841 0.0507917 0.
0.527848 0.0508059 0.
0.529855 0.0508154 0.
0.531862 0.050825 0.
0.533869 0.0508343 0.
0.535876 0.0508434 0.
0.537882 0.0508524 0.
0.539889 0.0508619 0.
0.541896 0.0508718 0.
0.543903 0.0508817 0.
0.545909 0.0508912 0.
0.547916 0.0509007 0.
0.549922 0.0509102 0.
0.551927 0.0509177 0.
0.553931 0.0509251 0.
0.555936 0.0509318 0.
0.557941 0.0509361 0.
0.559946 0.0509405 0.
0.561951 0.0509446 0.
0.563956 0.0509486 0.
0.56596 0.0509525 0.
0.567964 0.050956 0.
0.569968 0.0509592 0.
0.571972 0.0509623 0.
0.573974 0.050964 0.
0.575975 0.0509656 0.
0.577977 0.050967 0.
0.579979 0.0509679 0.
0.581981 0.0509688 0.
0.583984 0.0509696 0.
0.585986 0.0509704 0.
0.587988 0.0509711 0.
0.58999 0.0509719 0.
0.591992 0.0509726 0.
0.593994 0.0509734 0.
0.595996 0.0509738 0.
0.597998 0.0509741 0.
0.6 0.0509745 0.
0.602003 0.0509738 0.
0.604005 0.0509731 0.
0.606008 0.0509725 0.
0.60801 0.0509721 0.
0.610012 0.0509716 0.
0.612014 0.050971 0.
0.614016 0.0509702 0.
0.616018 0.0509693 0.
0.618021 0.0509683 0.
0.620023 0.0509672 0.
0.622025 0.050966 0.
0.624027 0.0509641 0.
0.626029 0.0509621 0.
0.628031 0.05096 0.
0.630035 0.0509566 0.
0.632039 0.0509531 0.
0.634043 0.0509494 0.
0.636048 0.050945 0.
0.638053 0.0509407 0.
0.640058 0.0509362 0.
0.642064 0.0509316 0.
0.644069 0.0509271 0.
0.646074 0.0509195 0.
0.648079 0.0509112 0.
0.650085 0.0509028 0.
0.652091 0.0508924 0.
0.654098 0.0508819 0.
0.656104 0.0508714 0.
0.658111 0.0508607 0.
0.660117 0.05085 0.
0.662124 0.05084 0.
0.664131 0.0508309 0.
0.666138 0.0508217 0.
0.668145 0.0508118 0.
0.670152 0.0508017 0.
0.672159 0.0507915 0.
0.674166 0.0507771 0.
0.676172 0.0507624 0.
0.678179 0.0507471 0.
0.680185 0.0507282 0.
0.682192 0.0507093 0.
0.684198 0.0506915 0.
0.686203 0.0506752 0.
0.688208 0.050659 0.
0.690213 0.050644 0.
0.692219 0.0506299 0.
0.694225 0.0506158 0.
0.696245 0.0506059 0.
0.698269 0.050597 0.
0.499758 0.0525988 0.
0.50177 0.0526096 0.
0.503781 0.0526208 0.
0.505791 0.0526325 0.
0.507796 0.0526463 0.
0.509801 0.0526601 0.
0.511806 0.0526742 0.
0.513812 0.0526887 0.
0.515817 0.0527032 0.
0.517822 0.0527204 0.
0.519828 0.0527393 0.
0.521834 0.0527582 0.
0.52384 0.052773 0.
0.525847 0.0527872 0.
0.527853 0.0528011 0.
0.52986 0.0528106 0.
0.531866 0.0528201 0.
0.533872 0.0528294 0.
0.535879 0.0528383 0.
0.537885 0.0528472 0.
0.539892 0.0528566 0.
0.541898 0.0528664 0.
0.543905 0.0528761 0.
0.545911 0.052886 0.
0.547917 0.0528958 0.
0.549923 0.0529056 0.
0.551927 0.0529132 0.
0.553932 0.0529207 0.
0.555936 0.0529276 0.
0.557941 0.0529321 0.
0.559946 0.0529365 0.
0.561951 0.0529408 0.
0.563955 0.0529448 0.
0.56596 0.0529488 0.
0.567964 0.0529525 0.
0.569968 0.0529561 0.
0.571971 0.0529596 0.
0.573973 0.0529616 0.
0.575975 0.0529633 0.
0.577977 0.052965 0.
0.579979 0.0529658 0.
0.581982 0.0529667 0.
0.583984 0.0529675 0.
0.585986 0.0529682 0.
0.587988 0.0529689 0.
0.58999 0.0529697 0.
0.591992 0.0529705 0.
0.593995 0.0529713 0.
0.595997 0.0529717 0.
0.597999 0.052972 0.
0.6 0.0529722 0.
0.602003 0.0529716 0.
0.604005 0.052971 0.
0.606007 0.0529704 0.
0.608009 0.0529699 0.
0.610011 0.0529694 0.
0.612014 0.0529688 0.
0.614016 0.0529679 0.
0.616018 0.052967 0.
0.61802 0.052966 0.
0.620023 0.0529649 0.
0.622025 0.0529638 0.
0.624027 0.0529618 0.
0.626029 0.0529596 0.
0.628032 0.0529572 0.
0.630036 0.0529534 0.
0.632039 0.0529496 0.
0.634043 0.0529456 0.
0.636048 0.0529412 0.
0.638053 0.0529368 0.
0.640058 0.0529322 0.
0.642064 0.0529275 0.
0.644069 0.0529227 0.
0.646074 0.052915 0.
0.648079 0.0529065 0.
0.650084 0.052898 0.
0.65209 0.0528874 0.
0.654096 0.0528768 0.
0.656102 0.0528662 0.
0.658108 0.0528556 0.
0.660115 0.0528451 0.
0.662121 0.0528351 0.
0.664128 0.052826 0.
0.666134 0.0528168 0.
0.668141 0.0528069 0.
0.670147 0.0527967 0.
0.672154 0.0527865 0.
0.67416 0.0527724 0.
0.676166 0.052758 0.
0.678172 0.0527431 0.
0.680178 0.0527243 0.
0.682184 0.0527056 0.
0.68419 0.052688 0.
0.686195 0.0526721 0.
0.6882 0.0526562 0.
0.690204 0.0526417 0.
0.692209 0.0526282 0.
0.694214 0.0526148 0.
0.696233 0.0526057 0.
0.698256 0.0525977 0.
0.49977 0.0546023 0.
0.501781 0.0546112 0.
0.503792 0.0546207 0.
0.505801 0.0546309 0.
0.507806 0.054644 0.
0.50981 0.0546572 0.
0.511815 0.054671 0.
0.51382 0.0546855 0.
0.515825 0.0547001 0.
0.51783 0.0547171 0.
0.519835 0.0547357 0.
0.521841 0.0547544 0.
0.523846 0.0547689 0.
0.525852 0.0547828 0.
0.527858 0.0547964 0.
0.529864 0.0548058 0.
0.53187 0.0548153 0.
0.533876 0.0548245 0.
0.535882 0.0548333 0.
0.537888 0.054842 0.
0.539894 0.0548512 0.
0.5419 0.0548609 0.
0.543906 0.0548706 0.
0.545912 0.0548807 0.
0.547918 0.0548908 0.
0.549923 0.054901 0.
0.551927 0.0549087 0.
0.553932 0.0549163 0.
0.555936 0.0549234 0.
0.557941 0.054928 0.
0.559946 0.0549326 0.
0.56195 0.054937 0.
0.563955 0.0549411 0.
0.56596 0.0549451 0.
0.567964 0.0549491 0.
0.569967 0.054953 0.
0.571971 0.0549568 0.
0.573973 0.0549591 0.
0.575975 0.0549611 0.
0.577977 0.054963 0.
0.57998 0.0549638 0.
0.581982 0.0549645 0.
0.583984 0.0549653 0.
0.585986 0.054966 0.
0.587988 0.0549667 0.
0.58999 0.0549675 0.
0.591993 0.0549684 0.
0.593995 0.0549692 0.
0.595997 0.0549695 0.
0.597999 0.0549698 0.
0.6 0.05497 0.
0.602003 0.0549694 0.
0.604005 0.0549688 0.
0.606007 0.0549682 0.
0.608009 0.0549677 0.
0.610011 0.0549672 0.
0.612013 0.0549665 0.
0.614016 0.0549656 0.
0.616018 0.0549648 0.
0.61802 0.0549638 0.
0.620023 0.0549627 0.
0.622025 0.0549617 0.
0.624028 0.0549594 0.
0.62603 0.054957 0.
0.628032 0.0549544 0.
0.630036 0.0549503 0.
0.63204 0.0549461 0.
0.634044 0.0549419 0.
0.636049 0.0549374 0.
0.638054 0.0549329 0.
0.640058 0.0549282 0.
0.642063 0.0549233 0.
0.644068 0.0549184 0.
0.646073 0.0549105 0.
0.648078 0.0549018 0.
0.650083 0.0548931 0.
0.652088 0.0548824 0.
0.654094 0.0548716 0.
0.6561 0.0548609 0.
0.658106 0.0548505 0.
0.660112 0.0548401 0.
0.662118 0.0548303 0.
0.664124 0.0548211 0.
0.66613 0.0548119 0.
0.668136 0.054802 0.
0.670142 0.0547917 0.
0.672148 0.0547815 0.
0.674154 0.0547677 0.
0.67616 0.0547537 0.
0.678165 0.054739 0.
0.680171 0.0547205 0.
0.682176 0.0547019 0.
0.684181 0.0546845 0.
0.686186 0.0546689 0.
0.688191 0.0546533 0.
0.690195 0.0546394 0.
0.6922 0.0546266 0.
0.694204 0.0546137 0.
0.696222 0.0546055 0.
0.698243 0.0545984 0.
0.499779 0.0565959 0.
0.50179 0.0566061 0.
0.5038 0.0566168 0.
0.505809 0.056628 0.
0.507814 0.0566414 0.
0.509818 0.0566548 0.
0.511823 0.0566685 0.
0.513827 0.0566827 0.
0.515832 0.0566969 0.
0.517837 0.0567138 0.
0.519842 0.0567323 0.
0.521847 0.0567507 0.
0.523852 0.0567651 0.
0.525858 0.0567789 0.
0.527864 0.0567924 0.
0.529869 0.0568018 0.
0.531874 0.0568111 0.
0.53388 0.0568203 0.
0.535886 0.0568289 0.
0.537891 0.0568375 0.
0.539897 0.0568467 0.
0.541903 0.0568564 0.
0.543908 0.0568661 0.
0.545914 0.0568763 0.
0.547919 0.0568866 0.
0.549925 0.0568969 0.
0.551929 0.0569046 0.
0.553933 0.0569122 0.
0.555937 0.0569192 0.
0.557942 0.0569239 0.
0.559946 0.0569286 0.
0.56195 0.0569331 0.
0.563955 0.0569372 0.
0.56596 0.0569414 0.
0.567964 0.0569456 0.
0.569967 0.0569497 0.
0.571971 0.0569538 0.
0.573973 0.0569561 0.
0.575975 0.0569582 0.
0.577977 0.0569602 0.
0.57998 0.0569611 0.
0.581982 0.0569621 0.
0.583984 0.0569629 0.
0.585986 0.0569637 0.
0.587988 0.0569645 0.
0.589991 0.0569653 0.
0.591993 0.0569661 0.
0.593995 0.0569669 0.
0.595997 0.0569673 0.
0.597999 0.0569676 0.
0.6 0.0569679 0.
0.602003 0.0569673 0.
0.604005 0.0569667 0.
0.606007 0.0569661 0.
0.608009 0.0569655 0.
0.610011 0.0569649 0.
0.612013 0.0569642 0.
0.614016 0.0569632 0.
0.616018 0.0569622 0.
0.61802 0.056961 0.
0.620023 0.0569598 0.
0.622026 0.0569586 0.
0.624028 0.0569564 0.
0.62603 0.0569541 0.
0.628032 0.0569515 0.
0.630036 0.0569471 0.
0.63204 0.0569427 0.
0.634044 0.0569382 0.
0.636049 0.0569336 0.
0.638053 0.056929 0.
0.640058 0.0569242 0.
0.642063 0.0569191 0.
0.644068 0.056914 0.
0.646072 0.0569061 0.
0.648077 0.0568974 0.
0.650081 0.0568886 0.
0.652087 0.0568779 0.
0.654092 0.0568671 0.
0.656098 0.0568564 0.
0.658103 0.056846 0.
0.660109 0.0568356 0.
0.662114 0.0568258 0.
0.66412 0.0568166 0.
0.666126 0.0568075 0.
0.668131 0.0567977 0.
0.670137 0.0567877 0.
0.672142 0.0567776 0.
0.674148 0.056764 0.
0.676153 0.0567501 0.
0.678158 0.0567356 0.
0.680164 0.0567174 0.
0.682169 0.0566991 0.
0.684174 0.0566819 0.
0.686178 0.0566664 0.
0.688183 0.0566509 0.
0.690187 0.0566369 0.
0.692191 0.056624 0.
0.694196 0.056611 0.
0.696213 0.0566026 0.
0.698234 0.0565952 0.
0.499789 0.0585892 0.
0.501799 0.0586008 0.
0.503809 0.0586129 0.
0.505818 0.0586252 0.
0.507822 0.0586388 0.
0.509826 0.0586523 0.
0.511831 0.058666 0.
0.513835 0.0586799 0.
0.515839 0.0586939 0.
0.517844 0.0587105 0.
0.519848 0.0587288 0.
0.521853 0.0587471 0.
0.523859 0.0587614 0.
0.525864 0.0587751 0.
0.527869 0.0587884 0.
0.529874 0.0587977 0.
0.531879 0.058807 0.
0.533884 0.0588161 0.
0.53589 0.0588246 0.
0.537895 0.0588331 0.
0.5399 0.0588422 0.
0.541905 0.0588519 0.
0.543911 0.0588616 0.
0.545916 0.0588719 0.
0.547921 0.0588824 0.
0.549926 0.0588929 0.
0.55193 0.0589005 0.
0.553934 0.0589081 0.
0.555938 0.0589151 0.
0.557942 0.0589198 0.
0.559946 0.0589246 0.
0.561951 0.0589291 0.
0.563955 0.0589334 0.
0.565959 0.0589377 0.
0.567963 0.058942 0.
0.569967 0.0589464 0.
0.571971 0.0589507 0.
0.573973 0.0589531 0.
0.575975 0.0589553 0.
0.577977 0.0589574 0.
0.57998 0.0589585 0.
0.581982 0.0589596 0.
0.583984 0.0589606 0.
0.585986 0.0589614 0.
0.587989 0.0589623 0.
0.589991 0.0589631 0.
0.591993 0.0589639 0.
0.593995 0.0589647 0.
0.595997 0.0589651 0.
0.597999 0.0589654 0.
0.6 0.0589657 0.
0.602003 0.0589651 0.
0.604005 0.0589646 0.
0.606007 0.0589639 0.
0.608009 0.0589633 0.
0.610011 0.0589627 0.
0.612013 0.0589618 0.
0.614016 0.0589607 0.
0.616018 0.0589596 0.
0.61802 0.0589583 0.
0.620023 0.0589569 0.
0.622026 0.0589556 0.
0.624028 0.0589534 0.
0.62603 0.0589512 0.
0.628033 0.0589486 0.
0.630036 0.058944 0.
0.63204 0.0589393 0.
0.634044 0.0589346 0.
0.636049 0.0589299 0.
0.638053 0.0589251 0.
0.640058 0.0589201 0.
0.642062 0.0589149 0.
0.644067 0.0589097 0.
0.646071 0.0589017 0.
0.648075 0.0588929 0.
0.65008 0.0588841 0.
0.652085 0.0588734 0.
0.65409 0.0588626 0.
0.656095 0.058852 0.
0.6581 0.0588415 0.
0.660105 0.0588311 0.
0.662111 0.0588213 0.
0.664116 0.0588122 0.
0.666121 0.0588032 0.
0.668126 0.0587935 0.
0.670131 0.0587836 0.
0.672136 0.0587738 0.
0.674141 0.0587603 0.
0.676146 0.0587466 0.
0.678151 0.0587322 0.
0.680156 0.0587143 0.
0.682162 0.0586963 0.
0.684166 0.0586793 0.
0.68617 0.0586639 0.
0.688174 0.0586485 0.
0.690178 0.0586345 0.
0.692183 0.0586214 0.
0.694188 0.0586083 0.
0.696204 0.0585996 0.
0.698224 0.0585918 0.
0.499799 0.0605878 0.
0.501809 0.0605992 0.
0.503818 0.0606111 0.
0.505827 0.0606233 0.
0.507831 0.0606367 0.
0.509835 0.0606501 0.
0.511839 0.0606637 0.
0.513843 0.0606775 0.
0.515847 0.0606913 0.
0.517851 0.0607078 0.
0.519856 0.0607259 0.
0.52186 0.060744 0.
0.523865 0.0607582 0.
0.52587 0.0607718 0.
0.527875 0.060785 0.
0.529879 0.0607942 0.
0.531884 0.0608034 0.
0.533889 0.0608123 0.
0.535894 0.0608207 0.
0.537899 0.0608292 0.
0.539904 0.0608382 0.
0.541908 0.0608478 0.
0.543913 0.0608574 0.
0.545918 0.0608678 0.
0.547923 0.0608784 0.
0.549928 0.0608891 0.
0.551932 0.0608968 0.
0.553936 0.0609044 0.
0.555939 0.0609115 0.
0.557943 0.0609163 0.
0.559947 0.060921 0.
0.561951 0.0609256 0.
0.563956 0.0609299 0.
0.56596 0.0609343 0.
0.567964 0.0609387 0.
0.569967 0.0609432 0.
0.571971 0.0609477 0.
0.573973 0.0609503 0.
0.575975 0.0609526 0.
0.577977 0.0609548 0.
0.57998 0.060956 0.
0.581982 0.0609572 0.
0.583984 0.0609584 0.
0.585987 0.0609593 0.
0.587989 0.0609602 0.
0.589991 0.060961 0.
0.591993 0.0609618 0.
0.593995 0.0609626 0.
0.595997 0.060963 0.
0.597999 0.0609633 0.
0.6 0.0609636 0.
0.602003 0.0609631 0.
0.604005 0.0609625 0.
0.606007 0.0609619 0.
0.608009 0.0609612 0.
0.610011 0.0609605 0.
0.612013 0.0609596 0.
0.614015 0.0609584 0.
0.616018 0.0609572 0.
0.61802 0.0609558 0.
0.620023 0.0609543 0.
0.622026 0.0609529 0.
0.624028 0.0609507 0.
0.62603 0.0609484 0.
0.628033 0.0609458 0.
0.630036 0.0609409 0.
0.63204 0.0609361 0.
0.634044 0.0609312 0.
0.636048 0.0609263 0.
0.638052 0.0609215 0.
0.640057 0.0609164 0.
0.642061 0.0609111 0.
0.644065 0.0609059 0.
0.646069 0.0608978 0.
0.648073 0.0608889 0.
0.650078 0.06088 0.
0.652082 0.0608692 0.
0.654087 0.0608585 0.
0.656092 0.0608478 0.
0.658097 0.0608375 0.
0.660102 0.0608272 0.
0.662106 0.0608175 0.
0.664111 0.0608085 0.
0.666116 0.0607995 0.
0.668121 0.0607899 0.
0.670125 0.0607801 0.
0.67213 0.0607703 0.
0.674135 0.060757 0.
0.676139 0.0607434 0.
0.678144 0.0607292 0.
0.680149 0.0607114 0.
0.682154 0.0606936 0.
0.684158 0.0606768 0.
0.686162 0.0606615 0.
0.688165 0.0606463 0.
0.69017 0.0606324 0.
0.692174 0.0606196 0.
0.694178 0.0606067 0.
0.696194 0.0605981 0.
0.698213 0.0605906 0.
0.499811 0.0625921 0.
0.50182 0.0626017 0.
0.503829 0.0626117 0.
0.505836 0.0626223 0.
0.50784 0.0626353 0.
0.509844 0.0626482 0.
0.511848 0.0626615 0.
0.513851 0.0626754 0.
0.515855 0.0626893 0.
0.517859 0.0627057 0.
0.519863 0.0627237 0.
0.521868 0.0627416 0.
0.523872 0.0627557 0.
0.525876 0.0627692 0.
0.527881 0.0627823 0.
0.529885 0.0627913 0.
0.531889 0.0628002 0.
0.533894 0.062809 0.
0.535898 0.0628175 0.
0.537903 0.0628259 0.
0.539907 0.0628349 0.
0.541912 0.0628442 0.
0.543917 0.0628535 0.
0.545921 0.0628639 0.
0.547925 0.0628748 0.
0.54993 0.0628856 0.
0.551934 0.0628935 0.
0.553937 0.0629013 0.
0.555941 0.0629085 0.
0.557945 0.0629132 0.
0.559949 0.062918 0.
0.561953 0.0629225 0.
0.563956 0.0629268 0.
0.56596 0.0629312 0.
0.567964 0.0629357 0.
0.569967 0.0629403 0.
0.571971 0.062945 0.
0.573973 0.0629477 0.
0.575975 0.0629502 0.
0.577978 0.0629525 0.
0.57998 0.0629538 0.
0.581982 0.0629551 0.
0.583985 0.0629563 0.
0.585987 0.0629572 0.
0.587989 0.0629582 0.
0.589991 0.0629591 0.
0.591993 0.0629599 0.
0.593995 0.0629607 0.
0.595997 0.0629611 0.
0.597999 0.0629613 0.
0.6 0.0629616 0.
0.602003 0.062961 0.
0.604005 0.0629605 0.
0.606007 0.0629599 0.
0.608009 0.0629592 0.
0.610011 0.0629585 0.
0.612013 0.0629575 0.
0.614015 0.0629562 0.
0.616018 0.0629549 0.
0.61802 0.0629535 0.
0.620023 0.062952 0.
0.622025 0.0629505 0.
0.624028 0.0629482 0.
0.62603 0.0629458 0.
0.628032 0.062943 0.
0.630036 0.062938 0.
0.632039 0.062933 0.
0.634043 0.062928 0.
0.636047 0.0629231 0.
0.638051 0.0629181 0.
0.640055 0.062913 0.
0.642059 0.0629078 0.
0.644063 0.0629025 0.
0.646067 0.0628943 0.
0.648071 0.0628853 0.
0.650075 0.0628763 0.
0.652079 0.0628655 0.
0.654084 0.0628547 0.
0.656089 0.0628441 0.
0.658093 0.062834 0.
0.660098 0.062824 0.
0.662102 0.0628145 0.
0.664106 0.0628056 0.
0.666111 0.0627966 0.
0.668115 0.0627871 0.
0.67012 0.0627772 0.
0.672124 0.0627673 0.
0.674128 0.0627541 0.
0.676133 0.0627407 0.
0.678137 0.0627267 0.
0.680141 0.0627089 0.
0.682145 0.0626912 0.
0.68415 0.0626744 0.
0.686153 0.0626593 0.
0.688157 0.0626442 0.
0.690161 0.0626307 0.
0.692164 0.0626184 0.
0.694168 0.0626062 0.
0.696183 0.0625985 0.
0.6982 0.0625919 0.
0.499823 0.0645965 0.
0.501831 0.0646043 0.
0.503839 0.0646124 0.
0.505846 0.0646213 0.
0.507849 0.0646338 0.
0.509853 0.0646463 0.
0.511856 0.0646594 0.
0.51386 0.0646734 0.
0.515864 0.0646874 0.
0.517868 0.0647037 0.
0.519871 0.0647215 0.
0.521875 0.0647392 0.
0.523879 0.0647532 0.
0.525883 0.0647666 0.
0.527886 0.0647796 0.
0.52989 0.0647883 0.
0.531894 0.064797 0.
0.533899 0.0648057 0.
0.535903 0.0648142 0.
0.537907 0.0648227 0.
0.539911 0.0648315 0.
0.541916 0.0648405 0.
0.54392 0.0648496 0.
0.545924 0.0648601 0.
0.547928 0.0648711 0.
0.549932 0.064882 0.
0.551936 0.0648901 0.
0.553939 0.0648981 0.
0.555943 0.0649055 0.
0.557946 0.0649102 0.
0.55995 0.0649149 0.
0.561954 0.0649194 0.
0.563957 0.0649237 0.
0.565961 0.0649281 0.
0.567964 0.0649327 0.
0.569968 0.0649374 0.
0.571971 0.0649422 0.
0.573973 0.0649451 0.
0.575975 0.0649477 0.
0.577978 0.0649502 0.
0.57998 0.0649515 0.
0.581982 0.0649529 0.
0.583985 0.0649542 0.
0.585987 0.0649552 0.
0.587989 0.0649562 0.
0.589991 0.0649571 0.
0.591993 0.064958 0.
0.593995 0.0649588 0.
0.595997 0.0649591 0.
0.597999 0.0649593 0.
0.6 0.0649595 0.
0.602002 0.064959 0.
0.604004 0.0649585 0.
0.606007 0.0649579 0.
0.608009 0.0649572 0.
0.610011 0.0649564 0.
0.612013 0.0649553 0.
0.614015 0.064954 0.
0.616017 0.0649526 0.
0.61802 0.0649512 0.
0.620022 0.0649497 0.
0.622025 0.0649482 0.
0.624027 0.0649457 0.
0.62603 0.0649432 0.
0.628032 0.0649403 0.
0.630036 0.0649351 0.
0.632039 0.0649299 0.
0.634042 0.0649248 0.
0.636046 0.0649198 0.
0.63805 0.0649148 0.
0.640054 0.0649097 0.
0.642057 0.0649044 0.
0.644061 0.0648991 0.
0.646065 0.0648909 0.
0.648068 0.0648818 0.
0.650072 0.0648726 0.
0.652076 0.0648618 0.
0.654081 0.0648509 0.
0.656085 0.0648404 0.
0.658089 0.0648306 0.
0.660094 0.0648208 0.
0.662098 0.0648114 0.
0.664102 0.0648026 0.
0.666105 0.0647938 0.
0.66811 0.0647842 0.
0.670114 0.0647742 0.
0.672118 0.0647643 0.
0.674122 0.0647513 0.
0.676126 0.064738 0.
0.678129 0.0647242 0.
0.680133 0.0647064 0.
0.682137 0.0646887 0.
0.684141 0.0646721 0.
0.686145 0.0646571 0.
0.688148 0.0646421 0.
0.690152 0.064629 0.
0.692155 0.0646173 0.
0.694158 0.0646056 0.
0.696172 0.0645988 0.
0.698188 0.0645932 0.
0.499832 0.0665908 0.
0.50184 0.0665999 0.
0.503847 0.0666092 0.
0.505853 0.0666192 0.
0.507857 0.0666319 0.
0.50986 0.0666445 0.
0.511863 0.0666576 0.
0.513867 0.0666714 0.
0.51587 0.0666852 0.
0.517874 0.0667014 0.
0.519878 0.066719 0.
0.521881 0.0667366 0.
0.523885 0.0667505 0.
0.525889 0.0667639 0.
0.527892 0.0667769 0.
0.529896 0.0667857 0.
0.5319 0.0667945 0.
0.533904 0.0668032 0.
0.535908 0.0668115 0.
0.537912 0.0668199 0.
0.539916 0.0668286 0.
0.54192 0.0668376 0.
0.543923 0.0668467 0.
0.545927 0.0668572 0.
0.547931 0.0668682 0.
0.549935 0.0668792 0.
0.551938 0.0668872 0.
0.553941 0.0668952 0.
0.555945 0.0669025 0.
0.557948 0.0669072 0.
0.559951 0.0669119 0.
0.561955 0.0669164 0.
0.563958 0.0669208 0.
0.565962 0.0669251 0.
0.567965 0.0669298 0.
0.569968 0.0669346 0.
0.571971 0.0669395 0.
0.573974 0.0669424 0.
0.575976 0.0669451 0.
0.577978 0.0669476 0.
0.57998 0.0669491 0.
0.581983 0.0669505 0.
0.583985 0.0669519 0.
0.585987 0.066953 0.
0.587989 0.0669541 0.
0.589991 0.066955 0.
0.591993 0.0669558 0.
0.593995 0.0669566 0.
0.595997 0.0669569 0.
0.597999 0.0669571 0.
0.6 0.0669573 0.
0.602002 0.0669568 0.
0.604004 0.0669564 0.
0.606006 0.0669558 0.
0.608008 0.066955 0.
0.610011 0.0669541 0.
0.612013 0.066953 0.
0.614015 0.0669516 0.
0.616017 0.0669502 0.
0.61802 0.0669487 0.
0.620022 0.0669471 0.
0.622025 0.0669456 0.
0.624027 0.0669431 0.
0.626029 0.0669405 0.
0.628031 0.0669376 0.
0.630035 0.0669324 0.
0.632038 0.0669271 0.
0.634041 0.0669219 0.
0.636045 0.0669169 0.
0.638048 0.0669119 0.
0.640052 0.0669067 0.
0.642055 0.0669014 0.
0.644059 0.0668961 0.
0.646062 0.0668877 0.
0.648066 0.0668785 0.
0.650069 0.0668693 0.
0.652073 0.0668587 0.
0.654077 0.066848 0.
0.656081 0.0668376 0.
0.658085 0.0668281 0.
0.660089 0.0668185 0.
0.662093 0.0668093 0.
0.664096 0.0668003 0.
0.6661 0.0667913 0.
0.668104 0.0667817 0.
0.670108 0.0667718 0.
0.672112 0.0667618 0.
0.674115 0.0667488 0.
0.676119 0.0667354 0.
0.678122 0.0667216 0.
0.680126 0.0667041 0.
0.68213 0.0666867 0.
0.684134 0.0666702 0.
0.686137 0.0666554 0.
0.688141 0.0666406 0.
0.690144 0.0666275 0.
0.692148 0.0666156 0.
0.694151 0.0666037 0.
0.696164 0.0665964 0.
0.698179 0.0665903 0.
0.49984 0.0685849 0.
0.501848 0.0685953 0.
0.503855 0.068606 0.
0.505861 0.0686172 0.
0.507864 0.0686299 0.
0.509867 0.0686427 0.
0.511871 0.0686559 0.
0.513874 0.0686695 0.
0.515877 0.0686832 0.
0.51788 0.0686992 0.
0.519884 0.0687166 0.
0.521888 0.068734 0.
0.523891 0.0687479 0.
0.525895 0.0687613 0.
0.527898 0.0687743 0.
0.529902 0.0687831 0.
0.531905 0.068792 0.
0.533909 0.0688006 0.
0.535913 0.0688089 0.
0.537916 0.0688171 0.
0.53992 0.0688257 0.
0.541924 0.0688347 0.
0.543927 0.0688437 0.
0.545931 0.0688543 0.
0.547934 0.0688653 0.
0.549938 0.0688763 0.
0.551941 0.0688843 0.
0.553944 0.0688922 0.
0.555947 0.0688994 0.
0.55795 0.0689042 0.
0.559953 0.0689089 0.
0.561956 0.0689135 0.
0.563959 0.0689178 0.
0.565963 0.0689222 0.
0.567966 0.0689269 0.
0.569969 0.0689318 0.
0.571972 0.0689368 0.
0.573974 0.0689397 0.
0.575976 0.0689424 0.
0.577978 0.068945 0.
0.57998 0.0689466 0.
0.581983 0.0689481 0.
0.583985 0.0689496 0.
0.585987 0.0689508 0.
0.587989 0.068952 0.
0.589991 0.0689529 0.
0.591993 0.0689537 0.
0.593995 0.0689544 0.
0.595997 0.0689547 0.
0.597999 0.0689549 0.
0.6 0.0689551 0.
0.602002 0.0689547 0.
0.604004 0.0689542 0.
0.606006 0.0689537 0.
0.608008 0.0689528 0.
0.610011 0.0689519 0.
0.612013 0.0689507 0.
0.614015 0.0689492 0.
0.616017 0.0689478 0.
0.618019 0.0689462 0.
0.620022 0.0689446 0.
0.622024 0.068943 0.
0.624026 0.0689405 0.
0.626028 0.0689379 0.
0.628031 0.068935 0.
0.630034 0.0689296 0.
0.632037 0.0689243 0.
0.63404 0.068919 0.
0.636044 0.068914 0.
0.638047 0.0689089 0.
0.64005 0.0689037 0.
0.642053 0.0688984 0.
0.644057 0.068893 0.
0.64606 0.0688846 0.
0.648063 0.0688753 0.
0.650067 0.068866 0.
0.65207 0.0688555 0.
0.654074 0.0688451 0.
0.656078 0.0688349 0.
0.658081 0.0688256 0.
0.660085 0.0688163 0.
0.662088 0.0688071 0.
0.664091 0.068798 0.
0.666095 0.0687888 0.
0.668098 0.0687792 0.
0.670102 0.0687693 0.
0.672106 0.0687594 0.
0.674109 0.0687463 0.
0.676112 0.0687329 0.
0.678115 0.068719 0.
0.680119 0.0687019 0.
0.682123 0.0686847 0.
0.684127 0.0686684 0.
0.68613 0.0686538 0.
0.688133 0.0686391 0.
0.690136 0.0686259 0.
0.69214 0.0686138 0.
0.694144 0.0686017 0.
0.696156 0.0685939 0.
0.69817 0.0685872 0.
0.49985 0.0705839 0.
0.501857 0.0705941 0.
0.503863 0.0706047 0.
0.505869 0.0706156 0.
0.507872 0.0706284 0.
0.509875 0.0706411 0.
0.511878 0.0706542 0.
0.513881 0.0706678 0.
0.515884 0.0706814 0.
0.517888 0.0706973 0.
0.519891 0.0707145 0.
0.521895 0.0707318 0.
0.523898 0.0707456 0.
0.525901 0.0707589 0.
0.527904 0.0707718 0.
0.529908 0.0707807 0.
0.531911 0.0707896 0.
0.533914 0.0707982 0.
0.535918 0.0708065 0.
0.537921 0.0708147 0.
0.539925 0.0708232 0.
0.541928 0.0708321 0.
0.543931 0.070841 0.
0.545934 0.0708516 0.
0.547937 0.0708627 0.
0.549941 0.0708737 0.
0.551943 0.0708817 0.
0.553946 0.0708896 0.
0.555949 0.0708968 0.
0.557952 0.0709015 0.
0.559955 0.0709062 0.
0.561958 0.0709108 0.
0.563961 0.0709152 0.
0.565964 0.0709195 0.
0.567967 0.0709243 0.
0.56997 0.0709293 0.
0.571972 0.0709342 0.
0.573975 0.0709373 0.
0.575977 0.0709401 0.
0.577979 0.0709428 0.
0.579981 0.0709444 0.
0.581983 0.070946 0.
0.583985 0.0709475 0.
0.585987 0.0709487 0.
0.587989 0.07095 0.
0.589991 0.070951 0.
0.591993 0.0709517 0.
0.593995 0.0709524 0.
0.595997 0.0709527 0.
0.597999 0.0709529 0.
0.6 0.0709531 0.
0.602002 0.0709527 0.
0.604004 0.0709523 0.
0.606006 0.0709517 0.
0.608008 0.0709507 0.
0.61001 0.0709497 0.
0.612013 0.0709485 0.
0.614015 0.0709471 0.
0.616017 0.0709456 0.
0.618019 0.070944 0.
0.620021 0.0709424 0.
0.622024 0.0709408 0.
0.624026 0.0709382 0.
0.626028 0.0709355 0.
0.62803 0.0709325 0.
0.630033 0.0709271 0.
0.632036 0.0709217 0.
0.634039 0.0709164 0.
0.636042 0.0709113 0.
0.638045 0.0709062 0.
0.640048 0.070901 0.
0.642051 0.0708957 0.
0.644054 0.0708903 0.
0.646057 0.0708818 0.
0.64806 0.0708725 0.
0.650063 0.0708631 0.
0.652067 0.0708527 0.
0.65407 0.0708423 0.
0.656074 0.0708323 0.
0.658077 0.0708232 0.
0.66008 0.0708142 0.
0.662083 0.0708051 0.
0.664086 0.0707958 0.
0.666089 0.0707866 0.
0.668092 0.0707769 0.
0.670096 0.070767 0.
0.672099 0.0707571 0.
0.674102 0.070744 0.
0.676105 0.0707307 0.
0.678108 0.0707168 0.
0.680112 0.0706998 0.
0.682116 0.0706827 0.
0.684119 0.0706666 0.
0.686122 0.070652 0.
0.688125 0.0706374 0.
0.690128 0.0706244 0.
0.692132 0.0706125 0.
0.694135 0.0706005 0.
0.696147 0.0705929 0.
0.69816 0.0705863 0.
0.499861 0.0725885 0.
0.501867 0.0725968 0.
0.503873 0.0726054 0.
0.505878 0.0726147 0.
0.507881 0.0726272 0.
0.509884 0.0726397 0.
0.511887 0.0726527 0.
0.51389 0.0726663 0.
0.515893 0.0726799 0.
0.517896 0.0726958 0.
0.519899 0.072713 0.
0.521902 0.0727301 0.
0.523905 0.0727437 0.
0.525908 0.0727569 0.
0.527911 0.0727696 0.
0.529914 0.0727785 0.
0.531917 0.0727873 0.
0.53392 0.072796 0.
0.535923 0.0728044 0.
0.537926 0.0728127 0.
0.539929 0.0728213 0.
0.541932 0.0728299 0.
0.543935 0.0728386 0.
0.545938 0.0728492 0.
0.547941 0.0728603 0.
0.549944 0.0728715 0.
0.551946 0.0728794 0.
0.553949 0.0728873 0.
0.555952 0.0728946 0.
0.557954 0.0728992 0.
0.559957 0.0729038 0.
0.56196 0.0729083 0.
0.563962 0.0729127 0.
0.565965 0.0729172 0.
0.567968 0.0729219 0.
0.56997 0.0729269 0.
0.571973 0.0729319 0.
0.573975 0.0729351 0.
0.575977 0.072938 0.
0.577979 0.0729408 0.
0.579981 0.0729424 0.
0.581983 0.072944 0.
0.583985 0.0729456 0.
0.585987 0.0729469 0.
0.587989 0.0729482 0.
0.589991 0.0729492 0.
0.591993 0.0729499 0.
0.593995 0.0729506 0.
0.595997 0.0729509 0.
0.597999 0.0729511 0.
0.6 0.0729513 0.
0.602002 0.0729509 0.
0.604004 0.0729504 0.
0.606006 0.0729499 0.
0.608008 0.0729488 0.
0.61001 0.0729478 0.
0.612012 0.0729466 0.
0.614014 0.0729451 0.
0.616017 0.0729437 0.
0.618019 0.0729422 0.
0.620021 0.0729406 0.
0.622023 0.072939 0.
0.624025 0.0729363 0.
0.626027 0.0729334 0.
0.628029 0.0729301 0.
0.630032 0.0729247 0.
0.632034 0.0729193 0.
0.634037 0.072914 0.
0.63604 0.0729089 0.
0.638043 0.0729038 0.
0.640046 0.0728986 0.
0.642048 0.0728934 0.
0.644051 0.0728881 0.
0.646054 0.0728796 0.
0.648057 0.0728702 0.
0.65006 0.0728607 0.
0.652063 0.0728503 0.
0.654066 0.0728399 0.
0.656069 0.0728299 0.
0.658072 0.0728211 0.
0.660075 0.0728122 0.
0.662078 0.0728032 0.
0.664081 0.072794 0.
0.666083 0.0727848 0.
0.668086 0.072775 0.
0.67009 0.0727649 0.
0.672093 0.0727548 0.
0.674095 0.0727419 0.
0.676098 0.0727287 0.
0.678101 0.072715 0.
0.680104 0.0726979 0.
0.682108 0.0726808 0.
0.684111 0.0726647 0.
0.686114 0.0726502 0.
0.688117 0.0726357 0.
0.69012 0.0726229 0.
0.692123 0.0726115 0.
0.694126 0.0726001 0.
0.696136 0.0725935 0.
0.698148 0.072588 0.
0.499873 0.0745931 0.
0.501878 0.0745995 0.
0.503883 0.0746061 0.
0.505887 0.0746138 0.
0.50789 0.0746261 0.
0.509893 0.0746383 0.
0.511895 0.0746512 0.
0.513898 0.0746648 0.
0.515901 0.0746785 0.
0.517904 0.0746943 0.
0.519906 0.0747114 0.
0.521909 0.0747284 0.
0.523912 0.0747419 0.
0.525914 0.0747548 0.
0.527917 0.0747674 0.
0.52992 0.0747762 0.
0.531923 0.0747851 0.
0.533925 0.0747938 0.
0.535928 0.0748023 0.
0.537931 0.0748108 0.
0.539933 0.0748193 0.
0.541936 0.0748277 0.
0.543939 0.0748362 0.
0.545942 0.0748468 0.
0.547944 0.074858 0.
0.549947 0.0748692 0.
0.551949 0.0748772 0.
0.553952 0.0748851 0.
0.555954 0.0748924 0.
0.557957 0.0748969 0.
0.559959 0.0749014 0.
0.561962 0.0749059 0.
0.563964 0.0749103 0.
0.565966 0.0749148 0.
0.567969 0.0749196 0.
0.569971 0.0749246 0.
0.571974 0.0749295 0.
0.573976 0.0749329 0.
0.575978 0.0749359 0.
0.57798 0.0749389 0.
0.579982 0.0749405 0.
0.581984 0.0749421 0.
0.583986 0.0749437 0.
0.585988 0.074945 0.
0.58799 0.0749464 0.
0.589992 0.0749474 0.
0.591994 0.0749481 0.
0.593995 0.0749488 0.
0.595997 0.0749491 0.
0.597999 0.0749493 0.
0.6 0.0749495 0.
0.602002 0.0749491 0.
0.604004 0.0749486 0.
0.606006 0.074948 0.
0.608008 0.0749469 0.
0.61001 0.0749458 0.
0.612012 0.0749446 0.
0.614014 0.0749432 0.
0.616016 0.0749418 0.
0.618018 0.0749403 0.
0.62002 0.0749388 0.
0.622022 0.0749373 0.
0.624024 0.0749343 0.
0.626026 0.0749312 0.
0.628028 0.0749278 0.
0.630031 0.0749224 0.
0.632033 0.0749169 0.
0.634036 0.0749116 0.
0.636038 0.0749065 0.
0.638041 0.0749013 0.
0.640043 0.0748962 0.
0.642046 0.0748911 0.
0.644048 0.0748859 0.
0.646051 0.0748773 0.
0.648054 0.0748678 0.
0.650056 0.0748583 0.
0.652059 0.0748479 0.
0.654062 0.0748375 0.
0.656065 0.0748275 0.
0.658068 0.0748189 0.
0.66007 0.0748102 0.
0.662073 0.0748013 0.
0.664076 0.0747921 0.
0.666078 0.0747829 0.
0.668081 0.074773 0.
0.670083 0.0747628 0.
0.672086 0.0747526 0.
0.674089 0.0747398 0.
0.676091 0.0747268 0.
0.678094 0.0747133 0.
0.680097 0.0746961 0.
0.682099 0.074679 0.
0.684102 0.0746628 0.
0.686105 0.0746484 0.
0.688108 0.0746339 0.
0.690111 0.0746215 0.
0.692114 0.0746106 0.
0.694116 0.0745997 0.
0.696125 0.074594 0.
0.698136 0.0745897 0.
0.499881 0.0765886 0.
0.501886 0.0765962 0.
0.50389 0.0766039 0.
0.505895 0.0766125 0.
0.507897 0.0766247 0.
0.5099 0.0766369 0.
0.511902 0.0766497 0.
0.513905 0.0766634 0.
0.515907 0.0766771 0.
0.51791 0.0766929 0.
0.519912 0.0767097 0.
0.521915 0.0767266 0.
0.523917 0.0767402 0.
0.52592 0.0767532 0.
0.527922 0.0767659 0.
0.529925 0.0767747 0.
0.531927 0.0767836 0.
0.53393 0.0767923 0.
0.535933 0.0768007 0.
0.537935 0.0768092 0.
0.539937 0.0768177 0.
0.54194 0.0768262 0.
0.543942 0.0768347 0.
0.545945 0.0768452 0.
0.547948 0.0768563 0.
0.54995 0.0768673 0.
0.551952 0.0768753 0.
0.553954 0.0768831 0.
0.555957 0.0768903 0.
0.557959 0.0768948 0.
0.559961 0.0768994 0.
0.561963 0.0769039 0.
0.563966 0.0769083 0.
0.565968 0.0769128 0.
0.56797 0.0769176 0.
0.569973 0.0769225 0.
0.571975 0.0769275 0.
0.573977 0.0769308 0.
0.575979 0.0769339 0.
0.57798 0.0769368 0.
0.579982 0.0769385 0.
0.581984 0.0769402 0.
0.583986 0.0769417 0.
0.585988 0.0769431 0.
0.58799 0.0769445 0.
0.589992 0.0769455 0.
0.591994 0.0769462 0.
0.593996 0.0769469 0.
0.595997 0.0769472 0.
0.597999 0.0769474 0.
0.6 0.0769477 0.
0.602002 0.0769472 0.
0.604004 0.0769467 0.
0.606006 0.0769461 0.
0.608008 0.076945 0.
0.61001 0.0769439 0.
0.612012 0.0769427 0.
0.614014 0.0769413 0.
0.616016 0.0769399 0.
0.618017 0.0769384 0.
0.620019 0.0769369 0.
0.622021 0.0769353 0.
0.624023 0.0769323 0.
0.626025 0.0769292 0.
0.628027 0.0769258 0.
0.630029 0.0769203 0.
0.632032 0.0769149 0.
0.634034 0.0769096 0.
0.636036 0.0769046 0.
0.638038 0.0768995 0.
0.640041 0.0768944 0.
0.642043 0.0768892 0.
0.644046 0.076884 0.
0.646048 0.0768753 0.
0.64805 0.0768658 0.
0.650053 0.0768562 0.
0.652055 0.0768459 0.
0.654058 0.0768357 0.
0.65606 0.0768258 0.
0.658063 0.0768172 0.
0.660066 0.0768086 0.
0.662068 0.0767998 0.
0.66407 0.0767907 0.
0.666073 0.0767816 0.
0.668075 0.0767717 0.
0.670078 0.0767616 0.
0.67208 0.0767514 0.
0.674083 0.0767385 0.
0.676085 0.0767253 0.
0.678088 0.0767116 0.
0.68009 0.0766946 0.
0.682093 0.0766776 0.
0.684096 0.0766615 0.
0.686098 0.0766471 0.
0.688101 0.0766327 0.
0.690104 0.0766203 0.
0.692106 0.0766092 0.
0.694109 0.0765982 0.
0.696118 0.076592 0.
0.698127 0.076587 0.
0.499889 0.0785839 0.
0.501894 0.0785927 0.
0.503898 0.0786017 0.
0.505902 0.0786113 0.
0.507904 0.0786234 0.
0.509906 0.0786354 0.
0.511909 0.0786482 0.
0.513911 0.078662 0.
0.515913 0.0786757 0.
0.517916 0.0786914 0.
0.519918 0.0787082 0.
0.52192 0.0787249 0.
0.523923 0.0787385 0.
0.525925 0.0787517 0.
0.527928 0.0787644 0.
0.52993 0.0787733 0.
0.531932 0.0787821 0.
0.533935 0.0787907 0.
0.535937 0.0787992 0.
0.537939 0.0788076 0.
0.539942 0.0788161 0.
0.541944 0.0788246 0.
0.543946 0.0788332 0.
0.545948 0.0788436 0.
0.547951 0.0788546 0.
0.549953 0.0788655 0.
0.551955 0.0788734 0.
0.553957 0.0788812 0.
0.555959 0.0788883 0.
0.557961 0.0788928 0.
0.559963 0.0788973 0.
0.561965 0.0789018 0.
0.563967 0.0789063 0.
0.565969 0.0789108 0.
0.567972 0.0789156 0.
0.569974 0.0789205 0.
0.571976 0.0789254 0.
0.573978 0.0789287 0.
0.57598 0.0789318 0.
0.577981 0.0789348 0.
0.579983 0.0789365 0.
0.581985 0.0789382 0.
0.583987 0.0789398 0.
0.585989 0.0789412 0.
0.587991 0.0789427 0.
0.589992 0.0789437 0.
0.591994 0.0789444 0.
0.593996 0.078945 0.
0.595998 0.0789454 0.
0.597999 0.0789456 0.
0.6 0.0789458 0.
0.602002 0.0789453 0.
0.604004 0.0789448 0.
0.606006 0.0789442 0.
0.608008 0.0789431 0.
0.610009 0.078942 0.
0.612011 0.0789408 0.
0.614013 0.0789395 0.
0.616015 0.0789381 0.
0.618017 0.0789366 0.
0.620019 0.078935 0.
0.62202 0.0789333 0.
0.624022 0.0789303 0.
0.626024 0.0789272 0.
0.628025 0.0789238 0.
0.630028 0.0789183 0.
0.63203 0.0789129 0.
0.634032 0.0789076 0.
0.636034 0.0789027 0.
0.638036 0.0788977 0.
0.640038 0.0788926 0.
0.64204 0.0788873 0.
0.644043 0.078882 0.
0.646045 0.0788734 0.
0.648047 0.0788638 0.
0.650049 0.0788542 0.
0.652051 0.078844 0.
0.654054 0.0788338 0.
0.656056 0.078824 0.
0.658058 0.0788155 0.
0.660061 0.078807 0.
0.662063 0.0787983 0.
0.664065 0.0787892 0.
0.666068 0.0787802 0.
0.66807 0.0787705 0.
0.670072 0.0787604 0.
0.672074 0.0787503 0.
0.674077 0.0787372 0.
0.676079 0.0787238 0.
0.678082 0.0787099 0.
0.680084 0.078693 0.
0.682087 0.0786762 0.
0.68409 0.0786602 0.
0.686092 0.0786459 0.
0.688094 0.0786316 0.
0.690097 0.0786191 0.
0.6921 0.0786079 0.
0.694102 0.0785967 0.
0.69611 0.0785899 0.
0.698119 0.0785841 0.
0.499898 0.0805826 0.
0.501902 0.0805915 0.
0.503906 0.0806005 0.
0.50591 0.0806102 0.
0.507912 0.0806221 0.
0.509914 0.0806341 0.
0.511916 0.0806469 0.
0.513918 0.0806607 0.
0.51592 0.0806745 0.
0.517922 0.0806902 0.
0.519924 0.0807068 0.
0.521926 0.0807235 0.
0.523929 0.0807371 0.
0.525931 0.0807503 0.
0.527933 0.0807631 0.
0.529935 0.0807719 0.
0.531937 0.0807806 0.
0.533939 0.0807893 0.
0.535942 0.0807978 0.
0.537944 0.0808062 0.
0.539946 0.0808147 0.
0.541948 0.0808232 0.
0.54395 0.0808317 0.
0.545952 0.080842 0.
0.547954 0.0808529 0.
0.549956 0.0808638 0.
0.551958 0.0808717 0.
0.55396 0.0808795 0.
0.555962 0.0808866 0.
0.557963 0.0808911 0.
0.559965 0.0808955 0.
0.561967 0.0809 0.
0.563969 0.0809045 0.
0.565971 0.080909 0.
0.567973 0.0809137 0.
0.569975 0.0809186 0.
0.571977 0.0809235 0.
0.573979 0.0809268 0.
0.57598 0.08093 0.
0.577982 0.080933 0.
0.579984 0.0809347 0.
0.581986 0.0809364 0.
0.583987 0.0809381 0.
0.585989 0.0809395 0.
0.587991 0.0809409 0.
0.589993 0.080942 0.
0.591994 0.0809426 0.
0.593996 0.0809433 0.
0.595998 0.0809437 0.
0.597999 0.0809439 0.
0.600001 0.0809441 0.
0.602002 0.0809436 0.
0.604004 0.0809431 0.
0.606005 0.0809424 0.
0.608007 0.0809413 0.
0.610009 0.0809403 0.
0.612011 0.0809391 0.
0.614013 0.0809378 0.
0.616014 0.0809365 0.
0.618016 0.0809349 0.
0.620018 0.0809333 0.
0.622019 0.0809317 0.
0.624021 0.0809286 0.
0.626023 0.0809254 0.
0.628024 0.080922 0.
0.630026 0.0809166 0.
0.632028 0.0809112 0.
0.63403 0.0809059 0.
0.636032 0.080901 0.
0.638034 0.0808961 0.
0.640036 0.080891 0.
0.642038 0.0808858 0.
0.64404 0.0808805 0.
0.646042 0.0808718 0.
0.648043 0.0808621 0.
0.650045 0.0808525 0.
0.652047 0.0808423 0.
0.65405 0.0808322 0.
0.656052 0.0808224 0.
0.658054 0.080814 0.
0.660056 0.0808056 0.
0.662058 0.0807969 0.
0.66406 0.0807879 0.
0.666063 0.0807788 0.
0.668065 0.0807691 0.
0.670067 0.0807591 0.
0.672069 0.080749 0.
0.674071 0.0807359 0.
0.676073 0.0807224 0.
0.678075 0.0807085 0.
0.680078 0.0806917 0.
0.68208 0.0806749 0.
0.684083 0.080659 0.
0.686085 0.0806447 0.
0.688087 0.0806304 0.
0.690089 0.0806179 0.
0.692092 0.0806068 0.
0.694095 0.0805957 0.
0.696101 0.0805889 0.
0.698109 0.0805832 0.
0.499908 0.0825851 0.
0.501912 0.0825927 0.
0.503915 0.0826005 0.
0.505918 0.0826091 0.
0.50792 0.0826211 0.
0.509922 0.0826331 0.
0.511924 0.0826459 0.
0.513925 0.0826597 0.
0.515927 0.0826736 0.
0.517929 0.0826892 0.
0.519931 0.0827058 0.
0.521933 0.0827225 0.
0.523935 0.0827361 0.
0.525937 0.0827492 0.
0.527939 0.082762 0.
0.52994 0.0827707 0.
0.531942 0.0827794 0.
0.533944 0.082788 0.
0.535946 0.0827966 0.
0.537948 0.0828051 0.
0.539949 0.0828135 0.
0.541951 0.0828219 0.
0.543953 0.0828302 0.
0.545955 0.0828405 0.
0.547957 0.0828514 0.
0.549959 0.0828623 0.
0.551961 0.0828702 0.
0.553962 0.0828781 0.
0.555964 0.0828853 0.
0.557966 0.0828896 0.
0.559967 0.082894 0.
0.561969 0.0828984 0.
0.563971 0.0829029 0.
0.565973 0.0829073 0.
0.567975 0.082912 0.
0.569976 0.0829169 0.
0.571978 0.0829217 0.
0.57398 0.0829252 0.
0.575981 0.0829284 0.
0.577983 0.0829315 0.
0.579985 0.0829332 0.
0.581986 0.0829349 0.
0.583988 0.0829365 0.
0.58599 0.0829379 0.
0.587991 0.0829394 0.
0.589993 0.0829404 0.
0.591995 0.0829411 0.
0.593996 0.0829418 0.
0.595998 0.0829422 0.
0.597999 0.0829424 0.
0.600001 0.0829427 0.
0.602002 0.0829421 0.
0.604004 0.0829416 0.
0.606005 0.0829409 0.
0.608007 0.0829398 0.
0.610009 0.0829387 0.
0.61201 0.0829375 0.
0.614012 0.0829363 0.
0.616014 0.082935 0.
0.618015 0.0829335 0.
0.620017 0.0829319 0.
0.622019 0.0829303 0.
0.62402 0.0829272 0.
0.626021 0.0829239 0.
0.628023 0.0829204 0.
0.630025 0.0829151 0.
0.632026 0.0829098 0.
0.634028 0.0829046 0.
0.63603 0.0828996 0.
0.638032 0.0828947 0.
0.640034 0.0828896 0.
0.642035 0.0828845 0.
0.644037 0.0828794 0.
0.646039 0.0828707 0.
0.64804 0.0828609 0.
0.650042 0.0828512 0.
0.652044 0.082841 0.
0.654046 0.0828308 0.
0.656048 0.082821 0.
0.65805 0.0828127 0.
0.660052 0.0828045 0.
0.662054 0.0827958 0.
0.664056 0.0827866 0.
0.666057 0.0827774 0.
0.668059 0.0827677 0.
0.670061 0.0827577 0.
0.672063 0.0827477 0.
0.674065 0.0827346 0.
0.676067 0.0827212 0.
0.678069 0.0827074 0.
0.680071 0.0826906 0.
0.682073 0.0826738 0.
0.684075 0.0826578 0.
0.686077 0.0826435 0.
0.688079 0.0826291 0.
0.690081 0.0826168 0.
0.692083 0.0826059 0.
0.694085 0.0825951 0.
0.696091 0.0825891 0.
0.698098 0.0825844 0.
0.499919 0.0845876 0.
0.501921 0.084594 0.
0.503924 0.0846005 0.
0.505926 0.0846081 0.
0.507928 0.08462 0.
0.50993 0.084632 0.
0.511931 0.0846448 0.
0.513933 0.0846587 0.
0.515935 0.0846726 0.
0.517936 0.0846883 0.
0.519938 0.0847048 0.
0.521939 0.0847214 0.
0.523941 0.084735 0.
0.525942 0.0847481 0.
0.527944 0.0847608 0.
0.529946 0.0847695 0.
0.531947 0.0847781 0.
0.533949 0.0847867 0.
0.53595 0.0847953 0.
0.537952 0.084804 0.
0.539953 0.0848124 0.
0.541955 0.0848205 0.
0.543957 0.0848287 0.
0.545958 0.084839 0.
0.54796 0.0848498 0.
0.549962 0.0848607 0.
0.551964 0.0848688 0.
0.553965 0.0848768 0.
0.555967 0.084884 0.
0.557968 0.0848882 0.
0.55997 0.0848925 0.
0.561971 0.0848968 0.
0.563973 0.0849012 0.
0.565974 0.0849057 0.
0.567976 0.0849103 0.
0.569978 0.0849151 0.
0.571979 0.0849199 0.
0.573981 0.0849235 0.
0.575982 0.0849269 0.
0.577984 0.0849301 0.
0.579985 0.0849317 0.
0.581987 0.0849334 0.
0.583988 0.084935 0.
0.58599 0.0849364 0.
0.587992 0.0849378 0.
0.589993 0.0849388 0.
0.591995 0.0849396 0.
0.593997 0.0849403 0.
0.595998 0.0849407 0.
0.597999 0.084941 0.
0.600001 0.0849412 0.
0.602002 0.0849407 0.
0.604004 0.0849401 0.
0.606005 0.0849394 0.
0.608007 0.0849383 0.
0.610008 0.0849371 0.
0.61201 0.084936 0.
0.614012 0.0849348 0.
0.616013 0.0849336 0.
0.618015 0.0849321 0.
0.620016 0.0849306 0.
0.622018 0.084929 0.
0.624019 0.0849258 0.
0.62602 0.0849224 0.
0.628021 0.0849188 0.
0.630023 0.0849136 0.
0.632024 0.0849084 0.
0.634026 0.0849032 0.
0.636028 0.0848982 0.
0.638029 0.0848932 0.
0.640031 0.0848883 0.
0.642033 0.0848833 0.
0.644034 0.0848783 0.
0.646036 0.0848695 0.
0.648037 0.0848597 0.
0.650039 0.0848499 0.
0.65204 0.0848397 0.
0.654042 0.0848294 0.
0.656044 0.0848196 0.
0.658046 0.0848115 0.
0.660048 0.0848033 0.
0.662049 0.0847946 0.
0.664051 0.0847854 0.
0.666052 0.0847761 0.
0.668054 0.0847663 0.
0.670056 0.0847564 0.
0.672057 0.0847464 0.
0.674059 0.0847334 0.
0.67606 0.0847201 0.
0.678062 0.0847063 0.
0.680064 0.0846895 0.
0.682065 0.0846726 0.
0.684067 0.0846567 0.
0.686069 0.0846423 0.
0.688071 0.0846279 0.
0.690072 0.0846157 0.
0.692074 0.0846051 0.
0.694076 0.0845945 0.
0.696081 0.0845894 0.
0.698087 0.0845857 0.
0.499927 0.086586 0.
0.501929 0.0865928 0.
0.503931 0.0865997 0.
0.505933 0.0866076 0.
0.507935 0.0866196 0.
0.509936 0.0866316 0.
0.511937 0.0866444 0.
0.513939 0.0866583 0.
0.51594 0.0866722 0.
0.517941 0.0866877 0.
0.519942 0.0867041 0.
0.521944 0.0867206 0.
0.523945 0.0867341 0.
0.525947 0.0867473 0.
0.527948 0.08676 0.
0.529949 0.0867686 0.
0.531951 0.0867772 0.
0.533952 0.0867857 0.
0.535953 0.0867944 0.
0.537955 0.086803 0.
0.539956 0.0868114 0.
0.541957 0.0868197 0.
0.543959 0.086828 0.
0.545961 0.0868381 0.
0.547962 0.0868488 0.
0.549964 0.0868595 0.
0.551966 0.0868676 0.
0.553967 0.0868756 0.
0.555968 0.0868829 0.
0.55797 0.0868871 0.
0.559971 0.0868913 0.
0.561972 0.0868956 0.
0.563974 0.0869 0.
0.565975 0.0869044 0.
0.567977 0.086909 0.
0.569979 0.0869137 0.
0.57198 0.0869185 0.
0.573982 0.086922 0.
0.575983 0.0869254 0.
0.577984 0.0869286 0.
0.579986 0.0869303 0.
0.581987 0.0869319 0.
0.583989 0.0869335 0.
0.585991 0.0869349 0.
0.587992 0.0869363 0.
0.589994 0.0869373 0.
0.591995 0.0869381 0.
0.593997 0.0869389 0.
0.595998 0.0869393 0.
0.597999 0.0869396 0.
0.600001 0.0869399 0.
0.602002 0.0869393 0.
0.604004 0.0869387 0.
0.606005 0.086938 0.
0.608007 0.0869368 0.
0.610008 0.0869357 0.
0.61201 0.0869345 0.
0.614011 0.0869334 0.
0.616013 0.0869322 0.
0.618014 0.0869307 0.
0.620016 0.0869292 0.
0.622017 0.0869277 0.
0.624018 0.0869245 0.
0.626019 0.0869211 0.
0.628021 0.0869175 0.
0.630022 0.0869125 0.
0.632024 0.0869076 0.
0.634025 0.0869027 0.
0.636027 0.0868979 0.
0.638028 0.0868931 0.
0.64003 0.086888 0.
0.642031 0.0868827 0.
0.644033 0.0868774 0.
0.646034 0.0868685 0.
0.648035 0.0868587 0.
0.650036 0.0868488 0.
0.652038 0.0868385 0.
0.65404 0.0868283 0.
0.656041 0.0868185 0.
0.658043 0.0868104 0.
0.660045 0.0868023 0.
0.662046 0.0867937 0.
0.664047 0.0867845 0.
0.666049 0.0867754 0.
0.66805 0.0867657 0.
0.670051 0.0867558 0.
0.672053 0.0867459 0.
0.674054 0.0867327 0.
0.676056 0.0867192 0.
0.678057 0.0867053 0.
0.680058 0.0866885 0.
0.68206 0.0866718 0.
0.684061 0.0866559 0.
0.686063 0.0866416 0.
0.688064 0.0866272 0.
0.690066 0.0866149 0.
0.692068 0.0866043 0.
0.694069 0.0865937 0.
0.696073 0.0865881 0.
0.698078 0.0865839 0.
0.499935 0.0885842 0.
0.501937 0.0885915 0.
0.503939 0.0885989 0.
0.50594 0.0886073 0.
0.507941 0.0886193 0.
0.509942 0.0886312 0.
0.511943 0.088644 0.
0.513944 0.0886579 0.
0.515945 0.0886717 0.
0.517946 0.0886872 0.
0.519947 0.0887035 0.
0.521948 0.0887197 0.
0.523949 0.0887333 0.
0.525951 0.0887466 0.
0.527952 0.0887593 0.
0.529953 0.0887678 0.
0.531954 0.0887762 0.
0.533955 0.0887848 0.
0.535957 0.0887934 0.
0.537958 0.088802 0.
0.539959 0.0888105 0.
0.54196 0.0888189 0.
0.543961 0.0888273 0.
0.545963 0.0888373 0.
0.547965 0.0888478 0.
0.549966 0.0888583 0.
0.551968 0.0888664 0.
0.553969 0.0888745 0.
0.55597 0.0888818 0.
0.557971 0.088886 0.
0.559972 0.0888902 0.
0.561973 0.0888945 0.
0.563975 0.0888988 0.
0.565976 0.088903 0.
0.567978 0.0889076 0.
0.569979 0.0889123 0.
0.571981 0.088917 0.
0.573982 0.0889206 0.
0.575984 0.0889239 0.
0.577985 0.0889271 0.
0.579986 0.0889288 0.
0.581988 0.0889304 0.
0.583989 0.088932 0.
0.585991 0.0889334 0.
0.587992 0.0889348 0.
0.589994 0.0889359 0.
0.591995 0.0889367 0.
0.593997 0.0889375 0.
0.595998 0.0889379 0.
0.597999 0.0889382 0.
0.600001 0.0889385 0.
0.602002 0.0889379 0.
0.604003 0.0889373 0.
0.606005 0.0889365 0.
0.608006 0.0889354 0.
0.610008 0.0889343 0.
0.612009 0.0889331 0.
0.614011 0.0889319 0.
0.616012 0.0889308 0.
0.618014 0.0889294 0.
0.620015 0.0889279 0.
0.622016 0.0889263 0.
0.624018 0.0889232 0.
0.626019 0.0889198 0.
0.62802 0.0889163 0.
0.630021 0.0889115 0.
0.632023 0.0889068 0.
0.634024 0.0889021 0.
0.636026 0.0888976 0.
0.638027 0.088893 0.
0.640029 0.0888878 0.
0.64203 0.0888822 0.
0.644031 0.0888766 0.
0.646032 0.0888675 0.
0.648033 0.0888576 0.
0.650034 0.0888477 0.
0.652036 0.0888374 0.
0.654037 0.0888272 0.
0.656039 0.0888175 0.
0.65804 0.0888094 0.
0.660041 0.0888014 0.
0.662043 0.0887929 0.
0.664044 0.0887838 0.
0.666045 0.0887747 0.
0.668046 0.0887651 0.
0.670047 0.0887552 0.
0.672048 0.0887453 0.
0.67405 0.088732 0.
0.676051 0.0887183 0.
0.678052 0.0887042 0.
0.680053 0.0886877 0.
0.682054 0.0886711 0.
0.684056 0.0886553 0.
0.686057 0.0886409 0.
0.688058 0.0886265 0.
0.690059 0.0886142 0.
0.692061 0.0886035 0.
0.694062 0.0885929 0.
0.696066 0.0885868 0.
0.698069 0.088582 0.
0.499943 0.0905835 0.
0.501944 0.090591 0.
0.503946 0.0905986 0.
0.505947 0.0906072 0.
0.507948 0.0906191 0.
0.509948 0.090631 0.
0.511949 0.0906438 0.
0.51395 0.0906577 0.
0.51595 0.0906716 0.
0.517951 0.0906869 0.
0.519952 0.0907031 0.
0.521953 0.0907193 0.
0.523953 0.0907328 0.
0.525954 0.090746 0.
0.527955 0.0907587 0.
0.529956 0.0907671 0.
0.531957 0.0907756 0.
0.533958 0.0907841 0.
0.535959 0.0907927 0.
0.53796 0.0908013 0.
0.539961 0.0908098 0.
0.541962 0.0908182 0.
0.543963 0.0908266 0.
0.545965 0.0908366 0.
0.547966 0.090847 0.
0.549968 0.0908575 0.
0.551969 0.0908656 0.
0.55397 0.0908737 0.
0.555971 0.0908809 0.
0.557972 0.090885 0.
0.559973 0.0908891 0.
0.561974 0.0908933 0.
0.563976 0.0908975 0.
0.565977 0.0909018 0.
0.567979 0.0909063 0.
0.56998 0.090911 0.
0.571982 0.0909157 0.
0.573983 0.0909192 0.
0.575984 0.0909226 0.
0.577986 0.0909258 0.
0.579987 0.0909274 0.
0.581988 0.0909291 0.
0.58399 0.0909306 0.
0.585991 0.090932 0.
0.587993 0.0909334 0.
0.589994 0.0909345 0.
0.591996 0.0909353 0.
0.593997 0.0909362 0.
0.595998 0.0909366 0.
0.597999 0.090937 0.
0.600001 0.0909373 0.
0.602002 0.0909366 0.
0.604003 0.090936 0.
0.606005 0.0909352 0.
0.608006 0.0909341 0.
0.610008 0.0909329 0.
0.612009 0.0909318 0.
0.61401 0.0909306 0.
0.616012 0.0909295 0.
0.618013 0.0909281 0.
0.620014 0.0909266 0.
0.622016 0.0909251 0.
0.624017 0.090922 0.
0.626018 0.0909187 0.
0.628019 0.0909152 0.
0.630021 0.0909105 0.
0.632022 0.0909058 0.
0.634023 0.0909012 0.
0.636025 0.0908968 0.
0.638027 0.0908924 0.
0.640028 0.0908873 0.
0.642029 0.0908817 0.
0.64403 0.0908761 0.
0.646031 0.0908671 0.
0.648032 0.0908572 0.
0.650033 0.0908473 0.
0.652034 0.090837 0.
0.654035 0.0908267 0.
0.656036 0.0908169 0.
0.658038 0.0908088 0.
0.660039 0.0908007 0.
0.66204 0.0907922 0.
0.664041 0.0907831 0.
0.666042 0.0907741 0.
0.668043 0.0907645 0.
0.670044 0.0907547 0.
0.672045 0.0907449 0.
0.674046 0.0907315 0.
0.676047 0.0907177 0.
0.678048 0.0907036 0.
0.680048 0.0906872 0.
0.682049 0.0906707 0.
0.68405 0.090655 0.
0.686051 0.0906406 0.
0.688052 0.0906261 0.
0.690053 0.0906138 0.
0.692054 0.0906031 0.
0.694055 0.0905924 0.
0.696058 0.0905861 0.
0.69806 0.0905811 0.
0.499951 0.0925841 0.
0.501952 0.0925915 0.
0.503953 0.092599 0.
0.505953 0.0926075 0.
0.507954 0.0926193 0.
0.509954 0.0926311 0.
0.511955 0.0926439 0.
0.513955 0.0926578 0.
0.515955 0.0926717 0.
0.517955 0.092687 0.
0.519956 0.0927032 0.
0.521956 0.0927193 0.
0.523957 0.0927327 0.
0.525958 0.0927457 0.
0.527958 0.0927583 0.
0.529959 0.0927668 0.
0.53196 0.0927752 0.
0.53396 0.0927837 0.
0.535961 0.0927923 0.
0.537962 0.092801 0.
0.539963 0.0928094 0.
0.541964 0.0928178 0.
0.543964 0.0928261 0.
0.545966 0.0928361 0.
0.547967 0.0928465 0.
0.549969 0.092857 0.
0.55197 0.0928651 0.
0.553971 0.0928731 0.
0.555972 0.0928803 0.
0.557973 0.0928842 0.
0.559974 0.0928881 0.
0.561975 0.0928922 0.
0.563977 0.0928964 0.
0.565978 0.0929006 0.
0.567979 0.0929051 0.
0.569981 0.0929098 0.
0.571982 0.0929144 0.
0.573983 0.092918 0.
0.575985 0.0929215 0.
0.577986 0.0929247 0.
0.579987 0.0929263 0.
0.581989 0.0929279 0.
0.58399 0.0929294 0.
0.585991 0.0929307 0.
0.587993 0.0929321 0.
0.589994 0.0929332 0.
0.591996 0.0929341 0.
0.593997 0.092935 0.
0.595998 0.0929355 0.
0.597999 0.0929358 0.
0.600001 0.0929362 0.
0.602002 0.0929355 0.
0.604003 0.0929348 0.
0.606005 0.092934 0.
0.608006 0.0929328 0.
0.610007 0.0929317 0.
0.612009 0.0929305 0.
0.61401 0.0929294 0.
0.616011 0.0929283 0.
0.618013 0.092927 0.
0.620014 0.0929255 0.
0.622015 0.092924 0.
0.624016 0.092921 0.
0.626017 0.0929177 0.
0.628019 0.0929143 0.
0.63002 0.0929095 0.
0.632021 0.0929047 0.
0.634023 0.0929001 0.
0.636024 0.0928956 0.
0.638026 0.0928912 0.
0.640027 0.0928864 0.
0.642028 0.0928811 0.
0.644029 0.0928759 0.
0.64603 0.0928671 0.
0.648031 0.0928574 0.
0.650032 0.0928476 0.
0.652033 0.0928372 0.
0.654034 0.0928268 0.
0.656035 0.092817 0.
0.658036 0.0928087 0.
0.660037 0.0928004 0.
0.662038 0.0927918 0.
0.664039 0.0927827 0.
0.66604 0.0927737 0.
0.66804 0.0927642 0.
0.670041 0.0927544 0.
0.672041 0.0927447 0.
0.674042 0.0927314 0.
0.676043 0.0927176 0.
0.678043 0.0927036 0.
0.680044 0.0926872 0.
0.682045 0.0926709 0.
0.684045 0.0926552 0.
0.686045 0.0926407 0.
0.688046 0.0926263 0.
0.690046 0.0926139 0.
0.692047 0.092603 0.
0.694048 0.0925922 0.
0.69605 0.0925862 0.
0.698052 0.0925814 0.
0.499959 0.0945847 0.
0.501959 0.094592 0.
0.503959 0.0945994 0.
0.50596 0.0946077 0.
0.50796 0.0946195 0.
0.50996 0.0946312 0.
0.51196 0.0946439 0.
0.51396 0.0946579 0.
0.51596 0.0946718 0.
0.51796 0.0946872 0.
0.51996 0.0947032 0.
0.52196 0.0947193 0.
0.52396 0.0947326 0.
0.525961 0.0947455 0.
0.527961 0.094758 0.
0.529962 0.0947664 0.
0.531962 0.0947749 0.
0.533962 0.0947834 0.
0.535963 0.094792 0.
0.537964 0.0948006 0.
0.539964 0.094809 0.
0.541965 0.0948173 0.
0.543966 0.0948255 0.
0.545967 0.0948355 0.
0.547968 0.094846 0.
0.549969 0.0948566 0.
0.551971 0.0948646 0.
0.553972 0.0948726 0.
0.555973 0.0948797 0.
0.557974 0.0948834 0.
0.559975 0.0948871 0.
0.561976 0.0948911 0.
0.563977 0.0948952 0.
0.565979 0.0948994 0.
0.56798 0.0949039 0.
0.569981 0.0949085 0.
0.571983 0.0949131 0.
0.573984 0.0949168 0.
0.575985 0.0949203 0.
0.577987 0.0949236 0.
0.579988 0.0949251 0.
0.581989 0.0949266 0.
0.58399 0.0949281 0.
0.585992 0.0949295 0.
0.587993 0.0949308 0.
0.589994 0.0949319 0.
0.591996 0.0949329 0.
0.593997 0.0949338 0.
0.595998 0.0949343 0.
0.597999 0.0949347 0.
0.600001 0.0949351 0.
0.602002 0.0949343 0.
0.604003 0.0949336 0.
0.606004 0.0949327 0.
0.608006 0.0949316 0.
0.610007 0.0949304 0.
0.612008 0.0949293 0.
0.61401 0.0949282 0.
0.616011 0.0949271 0.
0.618012 0.0949258 0.
0.620014 0.0949244 0.
0.622015 0.0949229 0.
0.624016 0.0949199 0.
0.626017 0.0949167 0.
0.628018 0.0949133 0.
0.630019 0.0949085 0.
0.63202 0.0949036 0.
0.634022 0.0948989 0.
0.636023 0.0948945 0.
0.638025 0.0948901 0.
0.640026 0.0948855 0.
0.642027 0.0948806 0.
0.644029 0.0948758 0.
0.64603 0.0948672 0.
0.64803 0.0948576 0.
0.650031 0.0948479 0.
0.652032 0.0948375 0.
0.654033 0.094827 0.
0.656034 0.094817 0.
0.658035 0.0948086 0.
0.660035 0.0948001 0.
0.662036 0.0947914 0.
0.664037 0.0947823 0.
0.666037 0.0947733 0.
0.668038 0.0947638 0.
0.670038 0.0947541 0.
0.672038 0.0947445 0.
0.674039 0.0947312 0.
0.676039 0.0947175 0.
0.678039 0.0947035 0.
0.68004 0.0946873 0.
0.68204 0.094671 0.
0.68404 0.0946554 0.
0.68604 0.0946409 0.
0.68804 0.0946264 0.
0.69004 0.0946139 0.
0.69204 0.094603 0.
0.694041 0.0945921 0.
0.696042 0.0945862 0.
0.698043 0.0945818 0.
0.499963 0.0965853 0.
0.501963 0.0965927 0.
0.503963 0.0966002 0.
0.505963 0.0966086 0.
0.507962 0.0966203 0.
0.509962 0.096632 0.
0.511962 0.0966446 0.
0.513962 0.0966585 0.
0.515961 0.0966724 0.
0.517961 0.0966877 0.
0.519961 0.0967037 0.
0.521961 0.0967197 0.
0.523961 0.0967329 0.
0.525962 0.0967457 0.
0.527962 0.096758 0.
0.529962 0.0967664 0.
0.531963 0.0967748 0.
0.533963 0.0967832 0.
0.535963 0.0967918 0.
0.537964 0.0968004 0.
0.539965 0.0968088 0.
0.541965 0.096817 0.
0.543966 0.0968252 0.
0.545967 0.0968351 0.
0.547968 0.0968454 0.
0.549969 0.0968557 0.
0.551971 0.0968637 0.
0.553972 0.0968717 0.
0.555973 0.0968788 0.
0.557974 0.0968825 0.
0.559975 0.0968863 0.
0.561976 0.0968903 0.
0.563977 0.0968945 0.
0.565979 0.0968986 0.
0.56798 0.0969031 0.
0.569981 0.0969077 0.
0.571983 0.0969123 0.
0.573984 0.0969159 0.
0.575985 0.0969194 0.
0.577986 0.0969226 0.
0.579988 0.0969242 0.
0.581989 0.0969258 0.
0.58399 0.0969273 0.
0.585992 0.0969286 0.
0.587993 0.0969299 0.
0.589994 0.096931 0.
0.591996 0.0969319 0.
0.593997 0.0969328 0.
0.595998 0.0969333 0.
0.597999 0.0969336 0.
0.600001 0.096934 0.
0.602002 0.0969332 0.
0.604003 0.0969325 0.
0.606005 0.0969316 0.
0.608006 0.0969305 0.
0.610007 0.0969294 0.
0.612009 0.0969283 0.
0.61401 0.0969273 0.
0.616011 0.0969262 0.
0.618012 0.096925 0.
0.620013 0.0969236 0.
0.622014 0.0969223 0.
0.624016 0.0969192 0.
0.626017 0.096916 0.
0.628018 0.0969126 0.
0.630019 0.0969078 0.
0.632021 0.0969031 0.
0.634022 0.0968985 0.
0.636023 0.0968941 0.
0.638025 0.0968897 0.
0.640026 0.0968849 0.
0.642028 0.09688 0.
0.644029 0.096875 0.
0.64603 0.0968665 0.
0.648031 0.0968569 0.
0.650031 0.0968474 0.
0.652032 0.096837 0.
0.654033 0.0968265 0.
0.656034 0.0968166 0.
0.658034 0.0968082 0.
0.660035 0.0967998 0.
0.662036 0.0967911 0.
0.664036 0.0967821 0.
0.666037 0.0967731 0.
0.668037 0.0967638 0.
0.670037 0.0967542 0.
0.672038 0.0967446 0.
0.674038 0.0967314 0.
0.676038 0.0967178 0.
0.678038 0.0967039 0.
0.680038 0.0966878 0.
0.682038 0.0966716 0.
0.684038 0.096656 0.
0.686038 0.0966415 0.
0.688037 0.0966271 0.
0.690037 0.0966146 0.
0.692037 0.0966035 0.
0.694037 0.0965925 0.
0.696038 0.0965866 0.
0.698038 0.096582 0.
0.499967 0.0985859 0.
0.501966 0.0985934 0.
0.503966 0.098601 0.
0.505965 0.0986094 0.
0.507965 0.0986211 0.
0.509964 0.0986328 0.
0.511964 0.0986454 0.
0.513963 0.0986592 0.
0.515963 0.098673 0.
0.517962 0.0986882 0.
0.519962 0.0987042 0.
0.521962 0.0987201 0.
0.523962 0.0987332 0.
0.525962 0.0987459 0.
0.527962 0.0987581 0.
0.529963 0.0987664 0.
0.531963 0.0987748 0.
0.533963 0.0987831 0.
0.535964 0.0987917 0.
0.537964 0.0988002 0.
0.539965 0.0988085 0.
0.541966 0.0988167 0.
0.543966 0.0988249 0.
0.545967 0.0988346 0.
0.547968 0.0988447 0.
0.549969 0.0988548 0.
0.55197 0.0988628 0.
0.553972 0.0988707 0.
0.555973 0.0988778 0.
0.557974 0.0988817 0.
0.559975 0.0988855 0.
0.561976 0.0988895 0.
0.563977 0.0988937 0.
0.565978 0.0988978 0.
0.56798 0.0989023 0.
0.569981 0.0989068 0.
0.571982 0.0989114 0.
0.573984 0.098915 0.
0.575985 0.0989184 0.
0.577986 0.0989217 0.
0.579988 0.0989233 0.
0.581989 0.0989249 0.
0.58399 0.0989264 0.
0.585992 0.0989278 0.
0.587993 0.0989291 0.
0.589994 0.0989302 0.
0.591995 0.098931 0.
0.593997 0.0989318 0.
0.595998 0.0989322 0.
0.597999 0.0989325 0.
0.600001 0.0989329 0.
0.602002 0.0989321 0.
0.604003 0.0989314 0.
0.606005 0.0989305 0.
0.608006 0.0989294 0.
0.610007 0.0989283 0.
0.612009 0.0989273 0.
0.61401 0.0989263 0.
0.616011 0.0989254 0.
0.618012 0.0989242 0.
0.620013 0.0989229 0.
0.622014 0.0989216 0.
0.624016 0.0989186 0.
0.626017 0.0989153 0.
0.628018 0.0989118 0.
0.63002 0.0989072 0.
0.632021 0.0989027 0.
0.634022 0.0988981 0.
0.636024 0.0988937 0.
0.638025 0.0988892 0.
0.640026 0.0988844 0.
0.642028 0.0988793 0.
0.644029 0.0988742 0.
0.64603 0.0988657 0.
0.648031 0.0988563 0.
0.650032 0.0988469 0.
0.652032 0.0988365 0.
0.654033 0.0988261 0.
0.656034 0.0988162 0.
0.658034 0.0988078 0.
0.660035 0.0987995 0.
0.662035 0.0987909 0.
0.664036 0.0987819 0.
0.666036 0.098773 0.
0.668037 0.0987637 0.
0.670037 0.0987543 0.
0.672037 0.0987448 0.
0.674037 0.0987317 0.
0.676037 0.0987182 0.
0.678037 0.0987044 0.
0.680037 0.0986883 0.
0.682036 0.0986721 0.
0.684036 0.0986566 0.
0.686035 0.0986422 0.
0.688035 0.0986279 0.
0.690035 0.0986153 0.
0.692034 0.0986041 0.
0.694034 0.0985929 0.
0.696034 0.0985869 0.
0.698034 0.0985823 0.
CELLS 5000 10000
1 0
1 1
1 2
1 3
1 4
1 5
1 6
1 7
1 8
1 9
1 10
1 11
1 12
1 13
1 14
1 15
1 16
1 17
1 18
1 19
1 20
1 21
1 22
1 23
1 24
1 25
1 26
1 27
1 28
1 29
1 30
1 31
1 32
1 33
1 34
1 35
1 36
1 37
1 38
1 39
1 40
1 41
1 42
1 43
1 44
1 45
1 46
1 47
1 48
1 49
1 50
1 51
1 52
1 53
1 54
1 55
1 56
1 57
1 58
1 59
1 60
1 61
1 62
1 63
1 64
1 65
1 66
1 67
1 68
1 69
1 70
1 71
1 72
1 73
1 74
1 75
1 76
1 77
1 78
1 79
1 80
1 81
1 82
1 83
1 84
1 85
1 86
1 87
1 88
1 89
1 90
1 91
1 92
1 93
1 94
1 95
1 96
1 97
1 98
1 99
1 100
1 101
1 102
1 103
1 104
1 105
1 106
1 107
1 108
1 109
1 110
1 111
1 112
1 113
1 114
1 115
1 116
1 117
1 118
1 119
1 120
1 121
1 122
1 123
1 124
1 125
1 126
1 127
1 128
1 129
1 130
1 131
1 132
1 133
1 134
1 135
1 136
1 137
1 138
1 139
1 140
1 141
1 142
1 143
1 144
1 145
1 146
1 147
1 148
1 149
1 150
1 151
1 152
1 153
1 154
1 155
1 156
1 157
1 158
1 159
1 160
1 161
1 162
1 163
1 164
1 165
1 166
1 167
1 168
1 169
1 170
1 171
1 172
1 173
1 174
1 175
1 176
1 177
1 178
1 179
1 180
1 181
1 182
1 183
1 184
1 185
1 186
1 187
1 188
1 189
1 190
1 191
1 192
1 193
1 194
1 195
1 196
1 197
1 198
1 199
1 200
1 201
1 202
1 203
1 204
1 205
1 206
1 207
1 208
1 209
1 210
1 211
1 212
1 213
1 214
1 215
1 216
1 217
1 218
1 219
1 220
1 221
1 222
1 223
1 224
1 225
1 226
1 227
1 228
1 229
1 230
1 231
1 232
1 233
1 234
1 235
1 236
1 237
1 238
1 239
1 240
1 241
1 242
1 243
1 244
1 245
1 246
1 247
1 248
1 249
1 250
1 251
1 252
1 253
1 254
1 255
1 256
1 257
1 258
1 259
1 260
1 261
1 262
1 263
1 264
1 265
1 266
1 267
1 268
1 269
1 270
1 271
1 272
1 273
1 274
1 275
1 276
1 277
1 278
1 279
1 280
1 281
1 282
1 283
1 284
1 285
1 286
1 287
1 288
1 289
1 290
1 291
1 292
1 293
1 294
1 295
1 296
1 297
1 298
1 299
1 300
1 301
1 302
1 303
1 304
1 305
1 306
1 307
1 308
1 309
1 310
1 311
1 312
1 313
1 314
1 315
1 316
1 317
1 318
1 319
1 320
1 321
1 322
1 323
1 324
1 325
1 326
1 327
1 328
1 329
1 330
1 331
1 332
1 333
1 334
1 335
1 336
1 337
1 338
1 339
1 340
1 341
1 342
1 343
1 344
1 345
1 346
1 347
1 348
1 349
1 350
1 351
1 352
1 353
1 354
1 355
1 356
1 357
1 358
1 359
1 360
1 361
1 362
1 363
1 364
1 365
1 366
1 367
1 368
1 369
1 370
1 371
1 372
1 373
1 374
1 375
1 376
1 377
1 378
1 379
1 380
1 381
1 382
1 383
1 384
1 385
1 386
1 387
1 388
1 389
1 390
1 391
1 392
1 393
1 394
1 395
1 396
1 397
1 398
1 399
1 400
1 401
1 402
1 403
1 404
1 405
1 406
1 407
1 408
1 409
1 410
1 411
1 412
1 413
1 414
1 415
1 416
1 417
1 418
1 419
1 420
1 421
1 422
1 423
1 424
1 425
1 426
1 427
1 428
1 429
1 430
1 431
1 432
1 433
1 434
1 435
1 436
1 437
1 438
1 439
1 440
1 441
1 442
1 443
1 444
1 445
1 446
1 447
1 448
1 449
1 450
1 451
1 452
1 453
1 454
1 455
1 456
1 457
1 458
1 459
1 460
1 461
1 462
1 463
1 464
1 465
1 466
1 467
1 468
1 469
1 470
1 471
1 472
1 473
1 474
1 475
1 476
1 477
1 478
1 479
1 480
1 481
1 482
1 483
1 484
1 485
1 486
1 487
1 488
1 489
1 490
1 491
1 492
1 493
1 494
1 495
1 496
1 497
1 498
1 499
1 500
1 501
1 502
1 503
1 504
1 505
1 506
1 507
1 508
1 509
1 510
1 511
1 512
1 513
1 514
1 515
1 516
1 517
1 518
1 519
1 520
1 521
1 522
1 523
1 524
1 525
1 526
1 527
1 528
1 529
1 530
1 531
1 532
1 533
1 534
1 535
1 536
1 537
1 538
1 539
1 540
1 541
1 542
1 543
1 544
1 545
1 546
1 547
1 548
1 549
1 550
1 551
1 552
1 553
1 554
1 555
1 556
1 557
1 558
1 559
1 560
1 561
1 562
1 563
1 564
1 565
1 566
1 567
1 568
1 569
1 570
1 571
1 572
1 573
1 574
1 575
1 576
1 577
1 578
1 579
1 580
1 581
1 582
1 583
1 584
1 585
1 586
1 587
1 588
1 589
1 590
1 591
1 592
1 593
1 594
1 595
1 596
1 597
1 598
1 599
1 600
1 601
1 602
1 603
1 604
1 605
1 606
1 607
1 608
1 609
1 610
1 611
1 612
1 613
1 614
1 615
1 616
1 617
1 618
1 619
1 620
1 621
1 622
1 623
1 624
1 625
1 626
1 627
1 628
1 629
1 630
1 631
1 632
1 633
1 634
1 635
1 636
1 637
1 638
1 639
1 640
1 641
1 642
1 643
1 644
1 645
1 646
1 647
1 648
1 649
1 650
1 651
1 652
1 653
1 654
1 655
1 656
1 657
1 658
1 659
1 660
1 661
1 662
1 663
1 664
1 665
1 666
1 667
1 668
1 669
1 670
1 671
1 672
1 673
1 674
1 675
1 676
1 677
1 678
1 679
1 680
1 681
1 682
1 683
1 684
1 685
1 686
1 687
1 688
1 689
1 690
1 691
1 692
1 693
1 694
1 695
1 696
1 697
1 698
1 699
1 700
1 701
1 702
1 703
1 704
1 705
1 706
1 707
1 708
1 709
1 710
1 711
1 712
1 713
1 714
1 715
1 716
1 717
1 718
1 719
1 720
1 721
1 722
1 723
1 724
1 725
1 726
1 727
1 728
1 729
1 730
1 731
1 732
1 733
1 734
1 735
1 736
1 737
1 738
1 739
1 740
1 741
1 742
1 743
1 744
1 745
1 746
1 747
1 748
1 749
1 750
1 751
1 752
1 753
1 754
1 755
1 756
1 757
1 758
1 759
1 760
1 761
1 762
1 763
1 764
1 765
1 766
1 767
1 768
1 769
1 770
1 771
1 772
1 773
1 774
1 775
1 776
1 777
1 778
1 779
1 780
1 781
1 782
1 783
1 784
1 785
1 786
1 787
1 788
1 789
1 790
1 791
1 792
1 793
1 794
1 795
1 796
1 797
1 798
1 799
1 800
1 801
1 802
1 803
1 804
1 805
1 806
1 807
1 808
1 809
1 810
1 811
1 812
1 813
1 814
1 815
1 816
1 817
1 818
1 819
1 820
1 821
1 822
1 823
1 824
1 825
1 826
1 827
1 828
1 829
1 830
1 831
1 832
1 833
1 834
1 835
1 836
1 837
1 838
1 839
1 840
1 841
1 842
1 843
1 844
1 845
1 846
1 847
1 848
1 849
1 850
1 851
1 852
1 853
1 854
1 855
1 856
1 857
1 858
1 859
1 860
1 861
1 862
1 863
1 864
1 865
1 866
1 867
1 868
1 869
1 870
1 871
1 872
1 873
1 874
1 875
1 876
1 877
1 878
1 879
1 880
1 881
1 882
1 883
1 884
1 885
1 886
1 887
1 888
1 889
1 890
1 891
1 892
1 893
1 894
1 895
1 896
1 897
1 898
1 899
1 900
1 901
1 902
1 903
1 904
1 905
1 906
1 907
1 908
1 909
1 910
1 911
1 912
1 913
1 914
1 915
1 916
1 917
1 918
1 919
1 920
1 921
1 922
1 923
1 924
1 925
1 926
1 927
1 928
1 929
1 930
1 931
1 932
1 933
1 934
1 935
1 936
1 937
1 938
1 939
1 940
1 941
1 942
1 943
1 944
1 945
1 946
1 947
1 948
1 949
1 950
1 951
1 952
1 953
1 954
1 955
1 956
1 957
1 958
1 959
1 960
1 961
1 962
1 963
1 964
1 965
1 966
1 967
1 968
1 969
1 970
1 971
1 972
1 973
1 974
1 975
1 976
1 977
1 978
1 979
1 980
1 981
1 982
1 983
1 984
1 985
1 986
1 987
1 988
1 989
1 990
1 991
1 992
1 993
1 994
1 995
1 996
1 997
1 998
1 999
1 1000
1 1001
1 1002
1 1003
1 1004
1 1005
1 1006
1 1007
1 1008
1 1009
1 1010
1 1011
1 1012
1 1013
1 1014
1 1015
1 1016
1 1017
1 1018
1 1019
1 1020
1 1021
1 1022
1 1023
1 1024
1 1025
1 1026
1 1027
1 1028
1 1029
1 1030
1 1031
1 1032
1 1033
1 1034
1 1035
1 1036
1 1037
1 1038
1 1039
1 1040
1 1041
1 1042
1 1043
1 1044
1 1045
1 1046
1 1047
1 1048
1 1049
1 1050
1 1051
1 1052
1 1053
1 1054
1 1055
1 1056
1 1057
1 1058
1 1059
1 1060
1 1061
1 1062
1 1063
1 1064
1 1065
1 1066
1 1067
1 1068
1 1069
1 1070
1 1071
1 1072
1 1073
1 1074
1 1075
1 1076
1 1077
1 1078
1 1079
1 1080
1 1081
1 1082
1 1083
1 1084
1 1085
1 1086
1 1087
1 1088
1 1089
1 1090
1 1091
1 1092
1 1093
1 1094
1 1095
1 1096
1 1097
1 1098
1 1099
1 1100
1 1101
1 1102
1 1103
1 1104
1 1105
1 1106
1 1107
1 1108
1 1109
1 1110
1 1111
1 1112
1 1113
1 1114
1 1115
1 1116
1 1117
1 1118
1 1119
1 1120
1 1121
1 1122
1 1123
1 1124
1 1125
1 1126
1 1127
1 1128
1 1129
1 1130
1 1131
1 1132
1 1133
1 1134
1 1135
1 1136
1 1137
1 1138
1 1139
1 1140
1 1141
1 1142
1 1143
1 1144
1 1145
1 1146
1 1147
1 1148
1 1149
1 1150
1 1151
1 1152
1 1153
1 1154
1 1155
1 1156
1 1157
1 1158
1 1159
1 1160
1 1161
1 1162
1 1163
1 1164
1 1165
1 1166
1 1167
1 1168
1 1169
1 1170
1 1171
1 1172
1 1173
1 1174
1 1175
1 1176
1 1177
1 1178
1 1179
1 1180
1 1181
1 1182
1 1183
1 1184
1 1185
1 1186
1 1187
1 1188
1 1189
1 1190
1 1191
1 1192
1 1193
1 1194
1 1195
1 1196
1 1197
1 1198
1 1199
1 1200
1 1201
1 1202
1 1203
1 1204
1 1205
1 1206
1 1207
1 1208
1 1209
1 1210
1 1211
1 1212
1 1213
1 1214
1 1215
1 1216
1 1217
1 1218
1 1219
1 1220
1 1221
1 1222
1 1223
1 1224
1 1225
1 1226
1 1227
1 1228
1 1229
1 1230
1 1231
1 1232
1 1233
1 1234
1 1235
1 1236
1 1237
1 1238
1 1239
1 1240
1 1241
1 1242
1 1243
1 1244
1 1245
1 1246
1 1247
1 1248
1 1249
1 1250
1 1251
1 1252
1 1253
1 1254
1 1255
1 1256
1 1257
1 1258
1 1259
1 1260
1 1261
1 1262
1 1263
1 1264
1 1265
1 1266
1 1267
1 1268
1 1269
1 1270
1 1271
1 1272
1 1273
1 1274
1 1275
1 1276
1 1277
1 1278
1 1279
1 1280
1 1281
1 1282
1 1283
1 1284
1 1285
1 1286
1 1287
1 1288
1 1289
1 1290
1 1291
1 1292
1 1293
1 1294
1 1295
1 1296
1 1297
1 1298
1 1299
1 1300
1 1301
1 1302
1 1303
1 1304
1 1305
1 1306
1 1307
1 1308
1 1309
1 1310
1 1311
1 1312
1 1313
1 1314
1 1315
1 1316
1 1317
1 1318
1 1319
1 1320
1 1321
1 1322
1 1323
1 1324
1 1325
1 1326
1 1327
1 1328
1 1329
1 1330
1 1331
1 1332
1 1333
1 1334
1 1335
1 1336
1 1337
1 1338
1 1339
1 1340
1 1341
1 1342
1 1343
1 1344
1 1345
1 1346
1 1347
1 1348
1 1349
1 1350
1 1351
1 1352
1 1353
1 1354
1 1355
1 1356
1 1357
1 1358
1 1359
1 1360
1 1361
1 1362
1 1363
1 1364
1 1365
1 1366
1 1367
1 1368
1 1369
1 1370
1 1371
1 1372
1 1373
1 1374
1 1375
1 1376
1 1377
1 1378
1 1379
1 1380
1 1381
1 1382
1 1383
1 1384
1 1385
1 1386
1 1387
1 1388
1 1389
1 1390
1 1391
1 1392
1 1393
1 1394
1 1395
1 1396
1 1397
1 1398
1 1399
1 1400
1 1401
1 1402
1 1403
1 1404
1 1405
1 1406
1 1407
1 1408
1 1409
1 1410
1 1411
1 1412
1 1413
1 1414
1 1415
1 1416
1 1417
1 1418
1 1419
1 1420
1 1421
1 1422
1 1423
1 1424
1 1425
1 1426
1 1427
1 1428
1 1429
1 1430
1 1431
1 1432
1 1433
1 1434
1 1435
1 1436
1 1437
1 1438
1 1439
1 1440
1 1441
1 1442
1 1443
1 1444
1 1445
1 1446
1 1447
1 1448
1 1449
1 1450
1 1451
1 1452
1 1453
1 1454
1 1455
1 1456
1 1457
1 1458
1 1459
1 1460
1 1461
1 1462
1 1463
1 1464
1 1465
1 1466
1 1467
1 1468
1 1469
1 1470
1 1471
1 1472
1 1473
1 1474
1 1475
1 1476
1 1477
1 1478
1 1479
1 1480
1 1481
1 1482
1 1483
1 1484
1 1485
1 1486
1 1487
1 1488
1 1489
1 1490
1 1491
1 1492
1 1493
1 1494
1 1495
1 1496
1 1497
1 1498
1 1499
1 1500
1 1501
1 1502
1 1503
1 1504
1 1505
1 1506
1 1507
1 1508
1 1509
1 1510
1 1511
1 1512
1 1513
1 1514
1 1515
1 1516
1 1517
1 1518
1 1519
1 1520
1 1521
1 1522
1 1523
1 1524
1 1525
1 1526
1 1527
1 1528
1 1529
1 1530
1 1531
1 1532
1 1533
1 1534
1 1535
1 1536
1 1537
1 1538
1 1539
1 1540
1 1541
1 1542
1 1543
1 1544
1 1545
1 1546
1 1547
1 1548
1 1549
1 1550
1 1551
1 1552
1 1553
1 1554
1 1555
1 1556
1 1557
1 1558
1 1559
1 1560
1 1561
1 1562
1 1563
1 1564
1 1565
1 1566
1 1567
1 1568
1 1569
1 1570
1 1571
1 1572
1 1573
1 1574
1 1575
1 1576
1 1577
1 1578
1 1579
1 1580
1 1581
1 1582
1 1583
1 1584
1 1585
1 1586
1 1587
1 1588
1 1589
1 1590
1 1591
1 1592
1 1593
1 1594
1 1595
1 1596
1 1597
1 1598
1 1599
1 1600
1 1601
1 1602
1 1603
1 1604
1 1605
1 1606
1 1607
1 1608
1 1609
1 1610
1 1611
1 1612
1 1613
1 1614
1 1615
1 1616
1 1617
1 1618
1 1619
1 1620
1 1621
1 1622
1 1623
1 1624
1 1625
1 1626
1 1627
1 1628
1 1629
1 1630
1 1631
1 1632
1 1633
1 1634
1 1635
1 1636
1 1637
1 1638
1 1639
1 1640
1 1641
1 1642
1 1643
1 1644
1 1645
1 1646
1 1647
1 1648
1 1649
1 1650
1 1651
1 1652
1 1653
1 1654
1 1655
1 1656
1 1657
1 1658
1 1659
1 1660
1 1661
1 1662
1 1663
1 1664
1 1665
1 1666
1 1667
1 1668
1 1669
1 1670
1 1671
1 1672
1 1673
1 1674
1 1675
1 1676
1 1677
1 1678
1 1679
1 1680
1 1681
1 1682
1 1683
1 1684
1 1685
1 1686
1 1687
1 1688
1 1689
1 1690
1 1691
1 1692
1 1693
1 1694
1 1695
1 1696
1 1697
1 1698
1 1699
1 1700
1 1701
1 1702
1 1703
1 1704
1 1705
1 1706
1 1707
1 1708
1 1709
1 1710
1 1711
1 1712
1 1713
1 1714
1 1715
1 1716
1 1717
1 1718
1 1719
1 1720
1 1721
1 1722
1 1723
1 1724
1 1725
1 1726
1 1727
1 1728
1 1729
1 1730
1 1731
1 1732
1 1733
1 1734
1 1735
1 1736
1 1737
1 1738
1 1739
1 1740
1 1741
1 1742
1 1743
1 1744
1 1745
1 1746
1 1747
1 1748
1 1749
1 1750
1 1751
1 1752
1 1753
1 1754
1 1755
1 1756
1 1757
1 1758
1 1759
1 1760
1 1761
1 1762
1 1763
1 1764
1 1765
1 1766
1 1767
1 1768
1 1769
1 1770
1 1771
1 1772
1 1773
1 1774
1 1775
1 1776
1 1777
1 1778
1 1779
1 1780
1 1781
1 1782
1 1783
1 1784
1 1785
1 1786
1 1787
1 1788
1 1789
1 1790
1 1791
1 1792
1 1793
1 1794
1 1795
1 1796
1 1797
1 1798
1 1799
1 1800
1 1801
1 1802
1 1803
1 1804
1 1805
1 1806
1 1807
1 1808
1 1809
1 1810
1 1811
1 1812
1 1813
1 1814
1 1815
1 1816
1 1817
1 1818
1 1819
1 1820
1 1821
1 1822
1 1823
1 1824
1 1825
1 1826
1 1827
1 1828
1 1829
1 1830
1 1831
1 1832
1 1833
1 1834
1 1835
1 1836
1 1837
1 1838
1 1839
1 1840
1 1841
1 1842
1 1843
1 1844
1 1845
1 1846
1 1847
1 1848
1 1849
1 1850
1 1851
1 1852
1 1853
1 1854
1 1855
1 1856
1 1857
1 1858
1 1859
1 1860
1 1861
1 1862
1 1863
1 1864
1 1865
1 1866
1 1867
1 1868
1 1869
1 1870
1 1871
1 1872
1 1873
1 1874
1 1875
1 1876
1 1877
1 1878
1 1879
1 1880
1 1881
1 1882
1 1883
1 1884
1 1885
1 1886
1 1887
1 1888
1 1889
1 1890
1 1891
1 1892
1 1893
1 1894
1 1895
1 1896
1 1897
1 1898
1 1899
1 1900
1 1901
1 1902
1 1903
1 1904
1 1905
1 1906
1 1907
1 1908
1 1909
1 1910
1 1911
1 1912
1 1913
1 1914
1 1915
1 1916
1 1917
1 1918
1 1919
1 1920
1 1921
1 1922
1 1923
1 1924
1 1925
1 1926
1 1927
1 1928
1 1929
1 1930
1 1931
1 1932
1 1933
1 1934
1 1935
1 1936
1 1937
1 1938
1 1939
1 1940
1 1941
1 1942
1 1943
1 1944
1 1945
1 1946
1 1947
1 1948
1 1949
1 1950
1 1951
1 1952
1 1953
1 1954
1 1955
1 1956
1 1957
1 1958
1 1959
1 1960
1 1961
1 1962
1 1963
1 1964
1 1965
1 1966
1 1967
1 1968
1 1969
1 1970
1 1971
1 1972
1 1973
1 1974
1 1975
1 1976
1 1977
1 1978
1 1979
1 1980
1 1981
1 1982
1 1983
1 1984
1 1985
1 1986
1 1987
1 1988
1 1989
1 1990
1 1991
1 1992
1 1993
1 1994
1 1995
1 1996
1 1997
1 1998
1 1999
1 2000
1 2001
1 2002
1 2003
1 2004
1 2005
1 2006
1 2007
1 2008
1 2009
1 2010
1 2011
1 2012
1 2013
1 2014
1 2015
1 2016
1 2017
1 2018
1 2019
1 2020
1 2021
1 2022
1 2023
1 2024
1 2025
1 2026
1 2027
1 2028
1 2029
1 2030
1 2031
1 2032
1 2033
1 2034
1 2035
1 2036
1 2037
1 2038
1 2039
1 2040
1 2041
1 2042
1 2043
1 2044
1 2045
1 2046
1 2047
1 2048
1 2049
1 2050
1 2051
1 2052
1 2053
1 2054
1 2055
1 2056
1 2057
1 2058
1 2059
1 2060
1 2061
1 2062
1 2063
1 2064
1 2065
1 2066
1 2067
1 2068
1 2069
1 2070
1 2071
1 2072
1 2073
1 2074
1 2075
1 2076
1 2077
1 2078
1 2079
1 2080
1 2081
1 2082
1 2083
1 2084
1 2085
1 2086
1 2087
1 2088
1 2089
1 2090
1 2091
1 2092
1 2093
1 2094
1 2095
1 2096
1 2097
1 2098
1 2099
1 2100
1 2101
1 2102
1 2103
1 2104
1 2105
1 2106
1 2107
1 2108
1 2109
1 2110
1 2111
1 2112
1 2113
1 2114
1 2115
1 2116
1 2117
1 2118
1 2119
1 2120
1 2121
1 2122
1 2123
1 2124
1 2125
1 2126
1 2127
1 2128
1 2129
1 2130
1 2131
1 2132
1 2133
1 2134
1 2135
1 2136
1 2137
1 2138
1 2139
1 2140
1 2141
1 2142
1 2143
1 2144
1 2145
1 2146
1 2147
1 2148
1 2149
1 2150
1 2151
1 2152
1 2153
1 2154
1 2155
1 2156
1 2157
1 2158
1 2159
1 2160
1 2161
1 2162
1 2163
1 2164
1 2165
1 2166
1 2167
1 2168
1 2169
1 2170
1 2171
1 2172
1 2173
1 2174
1 2175
1 2176
1 2177
1 2178
1 2179
1 2180
1 2181
1 2182
1 2183
1 2184
1 2185
1 2186
1 2187
1 2188
1 2189
1 2190
1 2191
1 2192
1 2193
1 2194
1 2195
1 2196
1 2197
1 2198
1 2199
1 2200
1 2201
1 2202
1 2203
1 2204
1 2205
1 2206
1 2207
1 2208
1 2209
1 2210
1 2211
1 2212
1 2213
1 2214
1 2215
1 2216
1 2217
1 2218
1 2219
1 2220
1 2221
1 2222
1 2223
1 2224
1 2225
1 2226
1 2227
1 2228
1 2229
1 2230
1 2231
1 2232
1 2233
1 2234
1 2235
1 2236
1 2237
1 2238
1 2239
1 2240
1 2241
1 2242
1 2243
1 2244
1 2245
1 2246
1 2247
1 2248
1 2249
1 2250
1 2251
1 2252
1 2253
1 2254
1 2255
1 2256
1 2257
1 2258
1 2259
1 2260
1 2261
1 2262
1 2263
1 2264
1 2265
1 2266
1 2267
1 2268
1 2269
1 2270
1 2271
1 2272
1 2273
1 2274
1 2275
1 2276
1 2277
1 2278
1 2279
1 2280
1 2281
1 2282
1 2283
1 2284
1 2285
1 2286
1 2287
1 2288
1 2289
1 2290
1 2291
1 2292
1 2293
1 2294
1 2295
1 2296
1 2297
1 2298
1 2299
1 2300
1 2301
1 2302
1 2303
1 2304
1 2305
1 2306
1 2307
1 2308
1 2309
1 2310
1 2311
1 2312
1 2313
1 2314
1 2315
1 2316
1 2317
1 2318
1 2319
1 2320
1 2321
1 2322
1 2323
1 2324
1 2325
1 2326
1 2327
1 2328
1 2329
1 2330
1 2331
1 2332
1 2333
1 2334
1 2335
1 2336
1 2337
1 2338
1 2339
1 2340
1 2341
1 2342
1 2343
1 2344
1 2345
1 2346
1 2347
1 2348
1 2349
1 2350
1 2351
1 2352
1 2353
1 2354
1 2355
1 2356
1 2357
1 2358
1 2359
1 2360
1 2361
1 2362
1 2363
1 2364
1 2365
1 2366
1 2367
1 2368
1 2369
1 2370
1 2371
1 2372
1 2373
1 2374
1 2375
1 2376
1 2377
1 2378
1 2379
1 2380
1 2381
1 2382
1 2383
1 2384
1 2385
1 2386
1 2387
1 2388
1 2389
1 2390
1 2391
1 2392
1 2393
1 2394
1 2395
1 2396
1 2397
1 2398
1 2399
1 2400
1 2401
1 2402
1 2403
1 2404
1 2405
1 2406
1 2407
1 2408
1 2409
1 2410
1 2411
1 2412
1 2413
1 2414
1 2415
1 2416
1 2417
1 2418
1 2419
1 2420
1 2421
1 2422
1 2423
1 2424
1 2425
1 2426
1 2427
1 2428
1 2429
1 2430
1 2431
1 2432
1 2433
1 2434
1 2435
1 2436
1 2437
1 2438
1 2439
1 2440
1 2441
1 2442
1 2443
1 2444
1 2445
1 2446
1 2447
1 2448
1 2449
1 2450
1 2451
1 2452
1 2453
1 2454
1 2455
1 2456
1 2457
1 2458
1 2459
1 2460
1 2461
1 2462
1 2463
1 2464
1 2465
1 2466
1 2467
1 2468
1 2469
1 2470
1 2471
1 2472
1 2473
1 2474
1 2475
1 2476
1 2477
1 2478
1 2479
1 2480
1 2481
1 2482
1 2483
1 2484
1 2485
1 2486
1 2487
1 2488
1 2489
1 2490
1 2491
1 2492
1 2493
1 2494
1 2495
1 2496
1 2497
1 2498
1 2499
1 2500
1 2501
1 2502
1 2503
1 2504
1 2505
1 2506
1 2507
1 2508
1 2509
1 2510
1 2511
1 2512
1 2513
1 2514
1 2515
1 2516
1 2517
1 2518
1 2519
1 2520
1 2521
1 2522
1 2523
1 2524
1 2525
1 2526
1 2527
1 2528
1 2529
1 2530
1 2531
1 2532
1 2533
1 2534
1 2535
1 2536
1 2537
1 2538
1 2539
1 2540
1 2541
1 2542
1 2543
1 2544
1 2545
1 2546
1 2547
1 2548
1 2549
1 2550
1 2551
1 2552
1 2553
1 2554
1 2555
1 2556
1 2557
1 2558
1 2559
1 2560
1 2561
1 2562
1 2563
1 2564
1 2565
1 2566
1 2567
1 2568
1 2569
1 2570
1 2571
1 2572
1 2573
1 2574
1 2575
1 2576
1 2577
1 2578
1 2579
1 2580
1 2581
1 2582
1 2583
1 2584
1 2585
1 2586
1 2587
1 2588
1 2589
1 2590
1 2591
1 2592
1 2593
1 2594
1 2595
1 2596
1 2597
1 2598
1 2599
1 2600
1 2601
1 2602
1 2603
1 2604
1 2605
1 2606
1 2607
1 2608
1 2609
1 2610
1 2611
1 2612
1 2613
1 2614
1 2615
1 2616
1 2617
1 2618
1 2619
1 2620
1 2621
1 2622
1 2623
1 2624
1 2625
1 2626
1 2627
1 2628
1 2629
1 2630
1 2631
1 2632
1 2633
1 2634
1 2635
1 2636
1 2637
1 2638
1 2639
1 2640
1 2641
1 2642
1 2643
1 2644
1 2645
1 2646
1 2647
1 2648
1 2649
1 2650
1 2651
1 2652
1 2653
1 2654
1 2655
1 2656
1 2657
1 2658
1 2659
1 2660
1 2661
1 2662
1 2663
1 2664
1 2665
1 2666
1 2667
1 2668
1 2669
1 2670
1 2671
1 2672
1 2673
1 2674
1 2675
1 2676
1 2677
1 2678
1 2679
1 2680
1 2681
1 2682
1 2683
1 2684
1 2685
1 2686
1 2687
1 2688
1 2689
1 2690
1 2691
1 2692
1 2693
1 2694
1 2695
1 2696
1 2697
1 2698
1 2699
1 2700
1 2701
1 2702
1 2703
1 2704
1 2705
1 2706
1 2707
1 2708
1 2709
1 2710
1 2711
1 2712
1 2713
1 2714
1 2715
1 2716
1 2717
1 2718
1 2719
1 2720
1 2721
1 2722
1 2723
1 2724
1 2725
1 2726
1 2727
1 2728
1 2729
1 2730
1 2731
1 2732
1 2733
1 2734
1 2735
1 2736
1 2737
1 2738
1 2739
1 2740
1 2741
1 2742
1 2743
1 2744
1 2745
1 2746
1 2747
1 2748
1 2749
1 2750
1 2751
1 2752
1 2753
1 2754
1 2755
1 2756
1 2757
1 2758
1 2759
1 2760
1 2761
1 2762
1 2763
1 2764
1 2765
1 2766
1 2767
1 2768
1 2769
1 2770
1 2771
1 2772
1 2773
1 2774
1 2775
1 2776
1 2777
1 2778
1 2779
1 2780
1 2781
1 2782
1 2783
1 2784
1 2785
1 2786
1 2787
1 2788
1 2789
1 2790
1 2791
1 2792
1 2793
1 2794
1 2795
1 2796
1 2797
1 2798
1 2799
1 2800
1 2801
1 2802
1 2803
1 2804
1 2805
1 2806
1 2807
1 2808
1 2809
1 2810
1 2811
1 2812
1 2813
1 2814
1 2815
1 2816
1 2817
1 2818
1 2819
1 2820
1 2821
1 2822
1 2823
1 2824
1 2825
1 2826
1 2827
1 2828
1 2829
1 2830
1 2831
1 2832
1 2833
1 2834
1 2835
1 2836
1 2837
1 2838
1 2839
1 2840
1 2841
1 2842
1 2843
1 2844
1 2845
1 2846
1 2847
1 2848
1 2849
1 2850
1 2851
1 2852
1 2853
1 2854
1 2855
1 2856
1 2857
1 2858
1 2859
1 2860
1 2861
1 2862
1 2863
1 2864
1 2865
1 2866
1 2867
1 2868
1 2869
1 2870
1 2871
1 2872
1 2873
1 2874
1 2875
1 2876
1 2877
1 2878
1 2879
1 2880
1 2881
1 2882
1 2883
1 2884
1 2885
1 2886
1 2887
1 2888
1 2889
1 2890
1 2891
1 2892
1 2893
1 2894
1 2895
1 2896
1 2897
1 2898
1 2899
1 2900
1 2901
1 2902
1 2903
1 2904
1 2905
1 2906
1 2907
1 2908
1 2909
1 2910
1 2911
1 2912
1 2913
1 2914
1 2915
1 2916
1 2917
1 2918
1 2919
1 2920
1 2921
1 2922
1 2923
1 2924
1 2925
1 2926
1 2927
1 2928
1 2929
1 2930
1 2931
1 2932
1 2933
1 2934
1 2935
1 2936
1 2937
1 2938
1 2939
1 2940
1 2941
1 2942
1 2943
1 2944
1 2945
1 2946
1 2947
1 2948
1 2949
1 2950
1 2951
1 2952
1 2953
1 2954
1 2955
1 2956
1 2957
1 2958
1 2959
1 2960
1 2961
1 2962
1 2963
1 2964
1 2965
1 2966
1 2967
1 2968
1 2969
1 2970
1 2971
1 2972
1 2973
1 2974
1 2975
1 2976
1 2977
1 2978
1 2979
1 2980
1 2981
1 2982
1 2983
1 2984
1 2985
1 2986
1 2987
1 2988
1 2989
1 2990
1 2991
1 2992
1 2993
1 2994
1 2995
1 2996
1 2997
1 2998
1 2999
1 3000
1 3001
1 3002
1 3003
1 3004
1 3005
1 3006
1 3007
1 3008
1 3009
1 3010
1 3011
1 3012
1 3013
1 3014
1 3015
1 3016
1 3017
1 3018
1 3019
1 3020
1 3021
1 3022
1 3023
1 3024
1 3025
1 3026
1 3027
1 3028
1 3029
1 3030
1 3031
1 3032
1 3033
1 3034
1 3035
1 3036
1 3037
1 3038
1 3039
1 3040
1 3041
1 3042
1 3043
1 3044
1 3045
1 3046
1 3047
1 3048
1 3049
1 3050
1 3051
1 3052
1 3053
1 3054
1 3055
1 3056
1 3057
1 3058
1 3059
1 3060
1 3061
1 3062
1 3063
1 3064
1 3065
1 3066
1 3067
1 3068
1 3069
1 3070
1 3071
1 3072
1 3073
1 3074
1 3075
1 3076
1 3077
1 3078
1 3079
1 3080
1 3081
1 3082
1 3083
1 3084
1 3085
1 3086
1 3087
1 3088
1 3089
1 3090
1 3091
1 3092
1 3093
1 3094
1 3095
1 3096
1 3097
1 3098
1 3099
1 3100
1 3101
1 3102
1 3103
1 3104
1 3105
1 3106
1 3107
1 3108
1 3109
1 3110
1 3111
1 3112
1 3113
1 3114
1 3115
1 3116
1 3117
1 3118
1 3119
1 3120
1 3121
1 3122
1 3123
1 3124
1 3125
1 3126
1 3127
1 3128
1 3129
1 3130
1 3131
1 3132
1 3133
1 3134
1 3135
1 3136
1 3137
1 3138
1 3139
1 3140
1 3141
1 3142
1 3143
1 3144
1 3145
1 3146
1 3147
1 3148
1 3149
1 3150
1 3151
1 3152
1 3153
1 3154
1 3155
1 3156
1 3157
1 3158
1 3159
1 3160
1 3161
1 3162
1 3163
1 3164
1 3165
1 3166
1 3167
1 3168
1 3169
1 3170
1 3171
1 3172
1 3173
1 3174
1 3175
1 3176
1 3177
1 3178
1 3179
1 3180
1 3181
1 3182
1 3183
1 3184
1 3185
1 3186
1 3187
1 3188
1 3189
1 3190
1 3191
1 3192
1 3193
1 3194
1 3195
1 3196
1 3197
1 3198
1 3199
1 3200
1 3201
1 3202
1 3203
1 3204
1 3205
1 3206
1 3207
1 3208
1 3209
1 3210
1 3211
1 3212
1 3213
1 3214
1 3215
1 3216
1 3217
1 3218
1 3219
1 3220
1 3221
1 3222
1 3223
1 3224
1 3225
1 3226
1 3227
1 3228
1 3229
1 3230
1 3231
1 3232
1 3233
1 3234
1 3235
1 3236
1 3237
1 3238
1 3239
1 3240
1 3241
1 3242
1 3243
1 3244
1 3245
1 3246
1 3247
1 3248
1 3249
1 3250
1 3251
1 3252
1 3253
1 3254
1 3255
1 3256
1 3257
1 3258
1 3259
1 3260
1 3261
1 3262
1 3263
1 3264
1 3265
1 3266
1 3267
1 3268
1 3269
1 3270
1 3271
1 3272
1 3273
1 3274
1 3275
1 3276
1 3277
1 3278
1 3279
1 3280
1 3281
1 3282
1 3283
1 3284
1 3285
1 3286
1 3287
1 3288
1 3289
1 3290
1 3291
1 3292
1 3293
1 3294
1 3295
1 3296
1 3297
1 3298
1 3299
1 3300
1 3301
1 3302
1 3303
1 3304
1 3305
1 3306
1 3307
1 3308
1 3309
1 3310
1 3311
1 3312
1 3313
1 3314
1 3315
1 3316
1 3317
1 3318
1 3319
1 3320
1 3321
1 3322
1 3323
1 3324
1 3325
1 3326
1 3327
1 3328
1 3329
1 3330
1 3331
1 3332
1 3333
1 3334
1 3335
1 3336
1 3337
1 3338
1 3339
1 3340
1 3341
1 3342
1 3343
1 3344
1 3345
1 3346
1 3347
1 3348
1 3349
1 3350
1 3351
1 3352
1 3353
1 3354
1 3355
1 3356
1 3357
1 3358
1 3359
1 3360
1 3361
1 3362
1 3363
1 3364
1 3365
1 3366
1 3367
1 3368
1 3369
1 3370
1 3371
1 3372
1 3373
1 3374
1 3375
1 3376
1 3377
1 3378
1 3379
1 3380
1 3381
1 3382
1 3383
1 3384
1 3385
1 3386
1 3387
1 3388
1 3389
1 3390
1 3391
1 3392
1 3393
1 3394
1 3395
1 3396
1 3397
1 3398
1 3399
1 3400
1 3401
1 3402
1 3403
1 3404
1 3405
1 3406
1 3407
1 3408
1 3409
1 3410
1 3411
1 3412
1 3413
1 3414
1 3415
1 3416
1 3417
1 3418
1 3419
1 3420
1 3421
1 3422
1 3423
1 3424
1 3425
1 3426
1 3427
1 3428
1 3429
1 3430
1 3431
1 3432
1 3433
1 3434
1 3435
1 3436
1 3437
1 3438
1 3439
1 3440
1 3441
1 3442
1 3443
1 3444
1 3445
1 3446
1 3447
1 3448
1 3449
1 3450
1 3451
1 3452
1 3453
1 3454
1 3455
1 3456
1 3457
1 3458
1 3459
1 3460
1 3461
1 3462
1 3463
1 3464
1 3465
1 3466
1 3467
1 3468
1 3469
1 3470
1 3471
1 3472
1 3473
1 3474
1 3475
1 3476
1 3477
1 3478
1 3479
1 3480
1 3481
1 3482
1 3483
1 3484
1 3485
1 3486
1 3487
1 3488
1 3489
1 3490
1 3491
1 3492
1 3493
1 3494
1 3495
1 3496
1 3497
1 3498
1 3499
1 3500
1 3501
1 3502
1 3503
1 3504
1 3505
1 3506
1 3507
1 3508
1 3509
1 3510
1 3511
1 3512
1 3513
1 3514
1 3515
1 3516
1 3517
1 3518
1 3519
1 3520
1 3521
1 3522
1 3523
1 3524
1 3525
1 3526
1 3527
1 3528
1 3529
1 3530
1 3531
1 3532
1 3533
1 3534
1 3535
1 3536
1 3537
1 3538
1 3539
1 3540
1 3541
1 3542
1 3543
1 3544
1 3545
1 3546
1 3547
1 3548
1 3549
1 3550
1 3551
1 3552
1 3553
1 3554
1 3555
1 3556
1 3557
1 3558
1 3559
1 3560
1 3561
1 3562
1 3563
1 3564
1 3565
1 3566
1 3567
1 3568
1 3569
1 3570
1 3571
1 3572
1 3573
1 3574
1 3575
1 3576
1 3577
1 3578
1 3579
1 3580
1 3581
1 3582
1 3583
1 3584
1 3585
1 3586
1 3587
1 3588
1 3589
1 3590
1 3591
1 3592
1 3593
1 3594
1 3595
1 3596
1 3597
1 3598
1 3599
1 3600
1 3601
1 3602
1 3603
1 3604
1 3605
1 3606
1 3607
1 3608
1 3609
1 3610
1 3611
1 3612
1 3613
1 3614
1 3615
1 3616
1 3617
1 3618
1 3619
1 3620
1 3621
1 3622
1 3623
1 3624
1 3625
1 3626
1 3627
1 3628
1 3629
1 3630
1 3631
1 3632
1 3633
1 3634
1 3635
1 3636
1 3637
1 3638
1 3639
1 3640
1 3641
1 3642
1 3643
1 3644
1 3645
1 3646
1 3647
1 3648
1 3649
1 3650
1 3651
1 3652
1 3653
1 3654
1 3655
1 3656
1 3657
1 3658
1 3659
1 3660
1 3661
1 3662
1 3663
1 3664
1 3665
1 3666
1 3667
1 3668
1 3669
1 3670
1 3671
1 3672
1 3673
1 3674
1 3675
1 3676
1 3677
1 3678
1 3679
1 3680
1 3681
1 3682
1 3683
1 3684
1 3685
1 3686
1 3687
1 3688
1 3689
1 3690
1 3691
1 3692
1 3693
1 3694
1 3695
1 3696
1 3697
1 3698
1 3699
1 3700
1 3701
1 3702
1 3703
1 3704
1 3705
1 3706
1 3707
1 3708
1 3709
1 3710
1 3711
1 3712
1 3713
1 3714
1 3715
1 3716
1 3717
1 3718
1 3719
1 3720
1 3721
1 3722
1 3723
1 3724
1 3725
1 3726
1 3727
1 3728
1 3729
1 3730
1 3731
1 3732
1 3733
1 3734
1 3735
1 3736
1 3737
1 3738
1 3739
1 3740
1 3741
1 3742
1 3743
1 3744
1 3745
1 3746
1 3747
1 3748
1 3749
1 3750
1 3751
1 3752
1 3753
1 3754
1 3755
1 3756
1 3757
1 3758
1 3759
1 3760
1 3761
1 3762
1 3763
1 3764
1 3765
1 3766
1 3767
1 3768
1 3769
1 3770
1 3771
1 3772
1 3773
1 3774
1 3775
1 3776
1 3777
1 3778
1 3779
1 3780
1 3781
1 3782
1 3783
1 3784
1 3785
1 3786
1 3787
1 3788
1 3789
1 3790
1 3791
1 3792
1 3793
1 3794
1 3795
1 3796
1 3797
1 3798
1 3799
1 3800
1 3801
1 3802
1 3803
1 3804
1 3805
1 3806
1 3807
1 3808
1 3809
1 3810
1 3811
1 3812
1 3813
1 3814
1 3815
1 3816
1 3817
1 3818
1 3819
1 3820
1 3821
1 3822
1 3823
1 3824
1 3825
1 3826
1 3827
1 3828
1 3829
1 3830
1 3831
1 3832
1 3833
1 3834
1 3835
1 3836
1 3837
1 3838
1 3839
1 3840
1 3841
1 3842
1 3843
1 3844
1 3845
1 3846
1 3847
1 3848
1 3849
1 3850
1 3851
1 3852
1 3853
1 3854
1 3855
1 3856
1 3857
1 3858
1 3859
1 3860
1 3861
1 3862
1 3863
1 3864
1 3865
1 3866
1 3867
1 3868
1 3869
1 3870
1 3871
1 3872
1 3873
1 3874
1 3875
1 3876
1 3877
1 3878
1 3879
1 3880
1 3881
1 3882
1 3883
1 3884
1 3885
1 3886
1 3887
1 3888
1 3889
1 3890
1 3891
1 3892
1 3893
1 3894
1 3895
1 3896
1 3897
1 3898
1 3899
1 3900
1 3901
1 3902
1 3903
1 3904
1 3905
1 3906
1 3907
1 3908
1 3909
1 3910
1 3911
1 3912
1 3913
1 3914
1 3915
1 3916
1 3917
1 3918
1 3919
1 3920
1 3921
1 3922
1 3923
1 3924
1 3925
1 3926
1 3927
1 3928
1 3929
1 3930
1 3931
1 3932
1 3933
1 3934
1 3935
1 3936
1 3937
1 3938
1 3939
1 3940
1 3941
1 3942
1 3943
1 3944
1 3945
1 3946
1 3947
1 3948
1 3949
1 3950
1 3951
1 3952
1 3953
1 3954
1 3955
1 3956
1 3957
1 3958
1 3959
1 3960
1 3961
1 3962
1 3963
1 3964
1 3965
1 3966
1 3967
1 3968
1 3969
1 3970
1 3971
1 3972
1 3973
1 3974
1 3975
1 3976
1 3977
1 3978
1 3979
1 3980
1 3981
1 3982
1 3983
1 3984
1 3985
1 3986
1 3987
1 3988
1 3989
1 3990
1 3991
1 3992
1 3993
1 3994
1 3995
1 3996
1 3997
1 3998
1 3999
1 4000
1 4001
1 4002
1 4003
1 4004
1 4005
1 4006
1 4007
1 4008
1 4009
1 4010
1 4011
1 4012
1 4013
1 4014
1 4015
1 4016
1 4017
1 4018
1 4019
1 4020
1 4021
1 4022
1 4023
1 4024
1 4025
1 4026
1 4027
1 4028
1 4029
1 4030
1 4031
1 4032
1 4033
1 4034
1 4035
1 4036
1 4037
1 4038
1 4039
1 4040
1 4041
1 4042
1 4043
1 4044
1 4045
1 4046
1 4047
1 4048
1 4049
1 4050
1 4051
1 4052
1 4053
1 4054
1 4055
1 4056
1 4057
1 4058
1 4059
1 4060
1 4061
1 4062
1 4063
1 4064
1 4065
1 4066
1 4067
1 4068
1 4069
1 4070
1 4071
1 4072
1 4073
1 4074
1 4075
1 4076
1 4077
1 4078
1 4079
1 4080
1 4081
1 4082
1 4083
1 4084
1 4085
1 4086
1 4087
1 4088
1 4089
1 4090
1 4091
1 4092
1 4093
1 4094
1 4095
1 4096
1 4097
1 4098
1 4099
1 4100
1 4101
1 4102
1 4103
1 4104
1 4105
1 4106
1 4107
1 4108
1 4109
1 4110
1 4111
1 4112
1 4113
1 4114
1 4115
1 4116
1 4117
1 4118
1 4119
1 4120
1 4121
1 4122
1 4123
1 4124
1 4125
1 4126
1 4127
1 4128
1 4129
1 4130
1 4131
1 4132
1 4133
1 4134
1 4135
1 4136
1 4137
1 4138
1 4139
1 4140
1 4141
1 4142
1 4143
1 4144
1 4145
1 4146
1 4147
1 4148
1 4149
1 4150
1 4151
1 4152
1 4153
1 4154
1 4155
1 4156
1 4157
1 4158
1 4159
1 4160
1 4161
1 4162
1 4163
1 4164
1 4165
1 4166
1 4167
1 4168
1 4169
1 4170
1 4171
1 4172
1 4173
1 4174
1 4175
1 4176
1 4177
1 4178
1 4179
1 4180
1 4181
1 4182
1 4183
1 4184
1 4185
1 4186
1 4187
1 4188
1 4189
1 4190
1 4191
1 4192
1 4193
1 4194
1 4195
1 4196
1 4197
1 4198
1 4199
1 4200
1 4201
1 4202
1 4203
1 4204
1 4205
1 4206
1 4207
1 4208
1 4209
1 4210
1 4211
1 4212
1 4213
1 4214
1 4215
1 4216
1 4217
1 4218
1 4219
1 4220
1 4221
1 4222
1 4223
1 4224
1 4225
1 4226
1 4227
1 4228
1 4229
1 4230
1 4231
1 4232
1 4233
1 4234
1 4235
1 4236
1 4237
1 4238
1 4239
1 4240
1 4241
1 4242
1 4243
1 4244
1 4245
1 4246
1 4247
1 4248
1 4249
1 4250
1 4251
1 4252
1 4253
1 4254
1 4255
1 4256
1 4257
1 4258
1 4259
1 4260
1 4261
1 4262
1 4263
1 4264
1 4265
1 4266
1 4267
1 4268
1 4269
1 4270
1 4271
1 4272
1 4273
1 4274
1 4275
1 4276
1 4277
1 4278
1 4279
1 4280
1 4281
1 4282
1 4283
1 4284
1 4285
1 4286
1 4287
1 4288
1 4289
1 4290
1 4291
1 4292
1 4293
1 4294
1 4295
1 4296
1 4297
1 4298
1 4299
1 4300
1 4301
1 4302
1 4303
1 4304
1 4305
1 4306
1 4307
1 4308
1 4309
1 4310
1 4311
1 4312
1 4313
1 4314
1 4315
1 4316
1 4317
1 4318
1 4319
1 4320
1 4321
1 4322
1 4323
1 4324
1 4325
1 4326
1 4327
1 4328
1 4329
1 4330
1 4331
1 4332
1 4333
1 4334
1 4335
1 4336
1 4337
1 4338
1 4339
1 4340
1 4341
1 4342
1 4343
1 4344
1 4345
1 4346
1 4347
1 4348
1 4349
1 4350
1 4351
1 4352
1 4353
1 4354
1 4355
1 4356
1 4357
1 4358
1 4359
1 4360
1 4361
1 4362
1 4363
1 4364
1 4365
1 4366
1 4367
1 4368
1 4369
1 4370
1 4371
1 4372
1 4373
1 4374
1 4375
1 4376
1 4377
1 4378
1 4379
1 4380
1 4381
1 4382
1 4383
1 4384
1 4385
1 4386
1 4387
1 4388
1 4389
1 4390
1 4391
1 4392
1 4393
1 4394
1 4395
1 4396
1 4397
1 4398
1 4399
1 4400
1 4401
1 4402
1 4403
1 4404
1 4405
1 4406
1 4407
1 4408
1 4409
1 4410
1 4411
1 4412
1 4413
1 4414
1 4415
1 4416
1 4417
1 4418
1 4419
1 4420
1 4421
1 4422
1 4423
1 4424
1 4425
1 4426
1 4427
1 4428
1 4429
1 4430
1 4431
1 4432
1 4433
1 4434
1 4435
1 4436
1 4437
1 4438
1 4439
1 4440
1 4441
1 4442
1 4443
1 4444
1 4445
1 4446
1 4447
1 4448
1 4449
1 4450
1 4451
1 4452
1 4453
1 4454
1 4455
1 4456
1 4457
1 4458
1 4459
1 4460
1 4461
1 4462
1 4463
1 4464
1 4465
1 4466
1 4467
1 4468
1 4469
1 4470
1 4471
1 4472
1 4473
1 4474
1 4475
1 4476
1 4477
1 4478
1 4479
1 4480
1 4481
1 4482
1 4483
1 4484
1 4485
1 4486
1 4487
1 4488
1 4489
1 4490
1 4491
1 4492
1 4493
1 4494
1 4495
1 4496
1 4497
1 4498
1 4499
1 4500
1 4501
1 4502
1 4503
1 4504
1 4505
1 4506
1 4507
1 4508
1 4509
1 4510
1 4511
1 4512
1 4513
1 4514
1 4515
1 4516
1 4517
1 4518
1 4519
1 4520
1 4521
1 4522
1 4523
1 4524
1 4525
1 4526
1 4527
1 4528
1 4529
1 4530
1 4531
1 4532
1 4533
1 4534
1 4535
1 4536
1 4537
1 4538
1 4539
1 4540
1 4541
1 4542
1 4543
1 4544
1 4545
1 4546
1 4547
1 4548
1 4549
1 4550
1 4551
1 4552
1 4553
1 4554
1 4555
1 4556
1 4557
1 4558
1 4559
1 4560
1 4561
1 4562
1 4563
1 4564
1 4565
1 4566
1 4567
1 4568
1 4569
1 4570
1 4571
1 4572
1 4573
1 4574
1 4575
1 4576
1 4577
1 4578
1 4579
1 4580
1 4581
1 4582
1 4583
1 4584
1 4585
1 4586
1 4587
1 4588
1 4589
1 4590
1 4591
1 4592
1 4593
1 4594
1 4595
1 4596
1 4597
1 4598
1 4599
1 4600
1 4601
1 4602
1 4603
1 4604
1 4605
1 4606
1 4607
1 4608
1 4609
1 4610
1 4611
1 4612
1 4613
1 4614
1 4615
1 4616
1 4617
1 4618
1 4619
1 4620
1 4621
1 4622
1 4623
1 4624
1 4625
1 4626
1 4627
1 4628
1 4629
1 4630
1 4631
1 4632
1 4633
1 4634
1 4635
1 4636
1 4637
1 4638
1 4639
1 4640
1 4641
1 4642
1 4643
1 4644
1 4645
1 4646
1 4647
1 4648
1 4649
1 4650
1 4651
1 4652
1 4653
1 4654
1 4655
1 4656
1 4657
1 4658
1 4659
1 4660
1 4661
1 4662
1 4663
1 4664
1 4665
1 4666
1 4667
1 4668
1 4669
1 4670
1 4671
1 4672
1 4673
1 4674
1 4675
1 4676
1 4677
1 4678
1 4679
1 4680
1 4681
1 4682
1 4683
1 4684
1 4685
1 4686
1 4687
1 4688
1 4689
1 4690
1 4691
1 4692
1 4693
1 4694
1 4695
1 4696
1 4697
1 4698
1 4699
1 4700
1 4701
1 4702
1 4703
1 4704
1 4705
1 4706
1 4707
1 4708
1 4709
1 4710
1 4711
1 4712
1 4713
1 4714
1 4715
1 4716
1 4717
1 4718
1 4719
1 4720
1 4721
1 4722
1 4723
1 4724
1 4725
1 4726
1 4727
1 4728
1 4729
1 4730
1 4731
1 4732
1 4733
1 4734
1 4735
1 4736
1 4737
1 4738
1 4739
1 4740
1 4741
1 4742
1 4743
1 4744
1 4745
1 4746
1 4747
1 4748
1 4749
1 4750
1 4751
1 4752
1 4753
1 4754
1 4755
1 4756
1 4757
1 4758
1 4759
1 4760
1 4761
1 4762
1 4763
1 4764
1 4765
1 4766
1 4767
1 4768
1 4769
1 4770
1 4771
1 4772
1 4773
1 4774
1 4775
1 4776
1 4777
1 4778
1 4779
1 4780
1 4781
1 4782
1 4783
1 4784
1 4785
1 4786
1 4787
1 4788
1 4789
1 4790
1 4791
1 4792
1 4793
1 4794
1 4795
1 4796
1 4797
1 4798
1 4799
1 4800
1 4801
1 4802
1 4803
1 4804
1 4805
1 4806
1 4807
1 4808
1 4809
1 4810
1 4811
1 4812
1 4813
1 4814
1 4815
1 4816
1 4817
1 4818
1 4819
1 4820
1 4821
1 4822
1 4823
1 4824
1 4825
1 4826
1 4827
1 4828
1 4829
1 4830
1 4831
1 4832
1 4833
1 4834
1 4835
1 4836
1 4837
1 4838
1 4839
1 4840
1 4841
1 4842
1 4843
1 4844
1 4845
1 4846
1 4847
1 4848
1 4849
1 4850
1 4851
1 4852
1 4853
1 4854
1 4855
1 4856
1 4857
1 4858
1 4859
1 4860
1 4861
1 4862
1 4863
1 4864
1 4865
1 4866
1 4867
1 4868
1 4869
1 4870
1 4871
1 4872
1 4873
1 4874
1 4875
1 4876
1 4877
1 4878
1 4879
1 4880
1 4881
1 4882
1 4883
1 4884
1 4885
1 4886
1 4887
1 4888
1 4889
1 4890
1 4891
1 4892
1 4893
1 4894
1 4895
1 4896
1 4897
1 4898
1 4899
1 4900
1 4901
1 4902
1 4903
1 4904
1 4905
1 4906
1 4907
1 4908
1 4909
1 4910
1 4911
1 4912
1 4913
1 4914
1 4915
1 4916
1 4917
1 4918
1 4919
1 4920
1 4921
1 4922
1 4923
1 4924
1 4925
1 4926
1 4927
1 4928
1 4929
1 4930
1 4931
1 4932
1 4933
1 4934
1 4935
1 4936
1 4937
1 4938
1 4939
1 4940
1 4941
1 4942
1 4943
1 4944
1 4945
1 4946
1 4947
1 4948
1 4949
1 4950
1 4951
1 4952
1 4953
1 4954
1 4955
1 4956
1 4957
1 4958
1 4959
1 4960
1 4961
1 4962
1 4963
1 4964
1 4965
1 4966
1 4967
1 4968
1 4969
1 4970
1 4971
1 4972
1 4973
1 4974
1 4975
1 4976
1 4977
1 4978
1 4979
1 4980
1 4981
1 4982
1 4983
1 4984
1 4985
1 4986
1 4987
1 4988
1 4989
1 4990
1 4991
1 4992
1 4993
1 4994
1 4995
1 4996
1 4997
1 4998
1 4999
CELL_TYPES 5000
1 
1 
1 
1 
1 
1 
1 
1 
1 
1 
1 
1 
1 
1 
1 
1 
1 
1 
1 
1 
1 
1 
1 
1 
1 
1 
1 
1 
1 
1 
1 
1 
1 
1 
1 
1 
1 
1 
1 
1 
1 
1 
1 
1 
1 
1 
1 
1 
1 
1 
1 
1 
1 
1 
1 
1 
1 
1 
1 
1 
1 
1 
1 
1 
1 
1 
1 
1 
1 
1 
1 
1 
1 
1 
1 
1 
1 
1 
1 
1 
1 
1 
1 
1 
1 
1 
1 
1 
1 
1 
1 
1 
1 
1 
1 
1 
1 
1 
1 
1 
1 
1 
1 
1 
1 
1 
1 
1 
1 
1 
1 
1 
1 
1 
1 
1 
1 
1 
1 
1 
1 
1 
1 
1 
1 
1 
1 
1 
1 
1 
1 
1 
1 
1 
1 
1 
1 
1 
1 
1 
1 
1 
1 
1 
1 
1 
1 
1 
1 
1 
1 
1 
1 
1 
1 
1 
1 
1 
1 
1 
1 
1 
1 
1 
1 
1 
1 
1 
1 
1 
1 
1 
1 
1 
1 
1 
1 
1 
1 
1 
1 
1 
1 
1 
1 
1 
1 
1 
1 
1 
1 
1 
1 
1 
1 
1 
1 
1 
1 
1 
1 
1 
1 
1 
1 
1 
1 
1 
1 
1 
1 
1 
1 
1 
1 
1 
1 
1 
1 
1 
1 
1 
1 
1 
1 
1 
1 
1 
1 
1 
1 
1 
1 
1 
1 
1 
1 
1 
1 
1 
1 
1 
1 
1 
1 
1 
1 
1 
1 
1 
1 
1 
1 
1 
1 
1 
1 
1 
1 
1 
1 
1 
1 
1 
1 
1 
1 
1 
1 
1 
1 
1 
1 
1 
1 
1 
1 
1 
1 
1 
1 
1 
1 
1 
1 
1 
1 
1 
1 
1 
1 
1 
1 
1 
1 
1 
1 
1 
1 
1 
1 
1 
1 
1 
1 
1 
1 
1 
1 
1 
1 
1 
1 
1 
1 
1 
1 
1 
1 
1 
1 
1 
1 
1 
1 
1 
1 
1 
1 
1 
1 
1 
1 
1 
1 
1 
1 
1 
1 
1 
1 
1 
1 
1 
1 
1 
1 
1 
1 
1 
1 
1 
1 
1 
1 
1 
1 
1 
1 
1 
1 
1 
1 
1 
1 
1 
1 
1 
1 
1 
1 
1 
1 
1 
1 
1 
1 
1 
1 
1 
1 
1 
1 
1 
1 
1 
1 
1 
1 
1 
1 
1 
1 
1 
1 
1 
1 
1 
1 
1 
1 
1 
1 
1 
1 
1 
1 
1 
1 
1 
1 
1 
1 
1 
1 
1 
1 
1 
1 
1 
1 
1 
1 
1 
1 
1 
1 
1 
1 
1 
1 
1 
1 
1 
1 
1 
1 
1 
1 
1 
1 
1 
1 
1 
1 
1 
1 
1 
1 
1 
1 
1 
1 
1 
1 
1 
1 
1 
1 
1 
1 
1 
1 
1 
1 
1 
1 
1 
1 
1 
1 
1 
1 
1 
1 
1 
1 
1 
1 
1 
1 
1 
1 
1 
1 
1 
1 
1 
1 
1 
1 
1 
1 
1 
1 
1 
1 
1 
1 
1 
1 
1 
1 
1 
1 
1 
1 
1 
1 
1 
1 
1 
1 
1 
1 
1 
1 
1 
1 
1 
1 
1 
1 
1 
1 
1 
1 
1 
1 
1 
1 
1 
1 
1 
1 
1 
1 
1 
1 
1 
1 
1 
1 
1 
1 
1 
1 
1 
1 
1 
1 
1 
1 
1 
1 
1 
1 
1 
1 
1 
1 
1 
1 
1 
1 
1 
1 
1 
1 
1 
1 
1 
1 
1 
1 
1 
1 
1 
1 
1 
1 
1 
1 
1 
1 
1 
1 
1 
1 
1 
1 
1 
1 
1 
1 
1 
1 
1 
1 
1 
1 
1 
1 
1 
1 
1 
1 
1 
1 
1 
1 
1 
1 
1 
1 
1 
1 
1 
1 
1 
1 
1 
1 
1 
1 
1 
1 
1 
1 
1 
1 
1 
1 
1 
1 
1 
1 
1 
1 
1 
1 
1 
1 
1 
1 
1 
1 
1 
1 
1 
1 
1 
1 
1 
1 
1 
1 
1 
1 
1 
1 
1 
1 
1 
1 
1 
1 
1 
1 
1 
1 
1 
1 
1 
1 
1 
1 
1 
1 
1 
1 
1 
1 
1 
1 
1 
1 
1 
1 
1 
1 
1 
1 
1 
1 
1 
1 
1 
1 
1 
1 
1 
1 
1 
1 
1 
1 
1 
1 
1 
1 
1 
1 
1 
1 
1 
1 
1 
1 
1 
1 
1 
1 
1 
1 
1 
1 
1 
1 
1 
1 
1 
1 
1 
1 
1 
1 
1 
1 
1 
1 
1 
1 
1 
1 
1 
1 
1 
1 
1 
1 
1 
1 
1 
1 
1 
1 
1 
1 
1 
1 
1 
1 
1 
1 
1 
1 
1 
1 
1 
1 
1 
1 
1 
1 
1 
1 
1 
1 
1 
1 
1 
1 
1 
1 
1 
1 
1 
1 
1 
1 
1 
1 
1 
1 
1 
1 
1 
1 
1 
1 
1 
1 
1 
1 
1 
1 
1 
1 
1 
1 
1 
1 
1 
1 
1 
1 
1 
1 
1 
1 
1 
1 
1 
1 
1 
1 
1 
1 
1 
1 
1 
1 
1 
1 
1 
1 
1 
1 
1 
1 
1 
1 
1 
1 
1 
1 
1 
1 
1 
1 
1 
1 
1 
1 
1 
1 
1 
1 
1 
1 
1 
1 
1 
1 
1 
1 
1 
1 
1 
1 
1 
1 
1 
1 
1 
1 
1 
1 
1 
1 
1 
1 
1 
1 
1 
1 
1 
1 
1 
1 
1 
1 
1 
1 
1 
1 
1 
1 
1 
1 
1 
1 
1 
1 
1 
1 
1 
1 
1 
1 
1 
1 
1 
1 
1 
1 
1 
1 
1 
1 
1 
1 
1 
1 
1 
1 
1 
1 
1 
1 
1 
1 
1 
1 
1 
1 
1 
1 
1 
1 
1 
1 
1 
1 
1 
1 
1 
1 
1 
1 
1 
1 
1 
1 
1 
1 
1 
1 
1 
1 
1 
1 
1 
1 
1 
1 
1 
1 
1 
1 
1 
1 
1 
1 
1 
1 
1 
1 
1 
1 
1 
1 
1 
1 
1 
1 
1 
1 
1 
1 
1 
1 
1 
1 
1 
1 
1 
1 
1 
1 
1 
1 
1 
1 
1 
1 
1 
1 
1 
1 
1 
1 
1 
1 
1 
1 
1 
1 
1 
1 
1 
1 
1 
1 
1 
1 
1 
1 
1 
1 
1 
1 
1 
1 
1 
1 
1 
1 
1 
1 
1 
1 
1 
1 
1 
1 
1 
1 
1 
1 
1 
1 
1 
1 
1 
1 
1 
1 
1 
1 
1 
1 
1 
1 
1 
1 
1 
1 
1 
1 
1 
1 
1 
1 
1 
1 
1 
1 
1 
1 
1 
1 
1 
1 
1 
1 
1 
1 
1 
1 
1 
1 
1 
1 
1 
1 
1 
1 
1 
1 
1 
1 
1 
1 
1 
1 
1 
1 
1 
1 
1 
1 
1 
1 
1 
1 
1 
1 
1 
1 
1 
1 
1 
1 
1 
1 
1 
1 
1 
1 
1 
1 
1 
1 
1 
1 
1 
1 
1 
1 
1 
1 
1 
1 
1 
1 
1 
1 
1 
1 
1 
1 
1 
1 
1 
1 
1 
1 
1 
1 
1 
1 
1 
1 
1 
1 
1 
1 
1 
1 
1 
1 
1 
1 
1 
1 
1 
1 
1 
1 
1 
1 
1 
1 
1 
1 
1 
1 
1 
1 
1 
1 
1 
1 
1 
1 
1 
1 
1 
1 
1 
1 
1 
1 
1 
1 
1 
1 
1 
1 
1 
1 
1 
1 
1 
1 
1 
1 
1 
1 
1 
1 
1 
1 
1 
1 
1 
1 
1 
1 
1 
1 
1 
1 
1 
1 
1 
1 
1 
1 
1 
1 
1 
1 
1 
1 
1 
1 
1 
1 
1 
1 
1 
1 
1 
1 
1 
1 
1 
1 
1 
1 
1 
1 
1 
1 
1 
1 
1 
1 
1 
1 
1 
1 
1 
1 
1 
1 
1 
1 
1 
1 
1 
1 
1 
1 
1 
1 
1 
1 
1 
1 
1 
1 
1 
1 
1 
1 
1 
1 
1 
1 
1 
1 
1 
1 
1 
1 
1 
1 
1 
1 
1 
1 
1 
1 
1 
1 
1 
1 
1 
1 
1 
1 
1 
1 
1 
1 
1 
1 
1 
1 
1 
1 
1 
1 
1 
1 
1 
1 
1 
1 
1 
1 
1 
1 
1 
1 
1 
1 
1 
1 
1 
1 
1 
1 
1 
1 
1 
1 
1 
1 
1 
1 
1 
1 
1 
1 
1 
1 
1 
1 
1 
1 
1 
1 
1 
1 
1 
1 
1 
1 
1 
1 
1 
1 
1 
1 
1 
1 
1 
1 
1 
1 
1 
1 
1 
1 
1 
1 
1 
1 
1 
1 
1 
1 
1 
1 
1 
1 
1 
1 
1 
1 
1 
1 
1 
1 
1 
1 
1 
1 
1 
1 
1 
1 
1 
1 
1 
1 
1 
1 
1 
1 
1 
1 
1 
1 
1 
1 
1 
1 
1 
1 
1 
1 
1 
1 
1 
1 
1 
1 
1 
1 
1 
1 
1 
1 
1 
1 
1 
1 
1 
1 
1 
1 
1 
1 
1 
1 
1 
1 
1 
1 
1 
1 
1 
1 
1 
1 
1 
1 
1 
1 
1 
1 
1 
1 
1 
1 
1 
1 
1 
1 
1 
1 
1 
1 
1 
1 
1 
1 
1 
1 
1 
1 
1 
1 
1 
1 
1 
1 
1 
1 
1 
1 
1 
1 
1 
1 
1 
1 
1 
1 
1 
1 
1 
1 
1 
1 
1 
1 
1 
1 
1 
1 
1 
1 
1 
1 
1 
1 
1 
1 
1 
1 
1 
1 
1 
1 
1 
1 
1 
1 
1 
1 
1 
1 
1 
1 
1 
1 
1 
1 
1 
1 
1 
1 
1 
1 
1 
1 
1 
1 
1 
1 
1 
1 
1 
1 
1 
1 
1 
1 
1 
1 
1 
1 
1 
1 
1 
1 
1 
1 
1 
1 
1 
1 
1 
1 
1 
1 
1 
1 
1 
1 
1 
1 
1 
1 
1 
1 
1 
1 
1 
1 
1 
1 
1 
1 
1 
1 
1 
1 
1 
1 
1 
1 
1 
1 
1 
1 
1 
1 
1 
1 
1 
1 
1 
1 
1 
1 
1 
1 
1 
1 
1 
1 
1 
1 
1 
1 
1 
1 
1 
1 
1 
1 
1 
1 
1 
1 
1 
1 
1 
1 
1 
1 
1 
1 
1 
1 
1 
1 
1 
1 
1 
1 
1 
1 
1 
1 
1 
1 
1 
1 
1 
1 
1 
1 
1 
1 
1 
1 
1 
1 
1 
1 
1 
1 
1 
1 
1 
1 
1 
1 
1 
1 
1 
1 
1 
1 
1 
1 
1 
1 
1 
1 
1 
1 
1 
1 
1 
1 
1 
1 
1 
1 
1 
1 
1 
1 
1 
1 
1 
1 
1 
1 
1 
1 
1 
1 
1 
1 
1 
1 
1 
1 
1 
1 
1 
1 
1 
1 
1 
1 
1 
1 
1 
1 
1 
1 
1 
1 
1 
1 
1 
1 
1 
1 
1 
1 
1 
1 
1 
1 
1 
1 
1 
1 
1 
1 
1 
1 
1 
1 
1 
1 
1 
1 
1 
1 
1 
1 
1 
1 
1 
1 
1 
1 
1 
1 
1 
1 
1 
1 
1 
1 
1 
1 
1 
1 
1 
1 
1 
1 
1 
1 
1 
1 
1 
1 
1 
1 
1 
1 
1 
1 
1 
1 
1 
1 
1 
1 
1 
1 
1 
1 
1 
1 
1 
1 
1 
1 
1 
1 
1 
1 
1 
1 
1 
1 
1 
1 
1 
1 
1 
1 
1 
1 
1 
1 
1 
1 
1 
1 
1 
1 
1 
1 
1 
1 
1 
1 
1 
1 
1 
1 
1 
1 
1 
1 
1 
1 
1 
1 
1 
1 
1 
1 
1 
1 
1 
1 
1 
1 
1 
1 
1 
1 
1 
1 
1 
1 
1 
1 
1 
1 
1 
1 
1 
1 
1 
1 
1 
1 
1 
1 
1 
1 
1 
1 
1 
1 
1 
1 
1 
1 
1 
1 
1 
1 
1 
1 
1 
1 
1 
1 
1 
1 
1 
1 
1 
1 
1 
1 
1 
1 
1 
1 
1 
1 
1 
1 
1 
1 
1 
1 
1 
1 
1 
1 
1 
1 
1 
1 
1 
1 
1 
1 
1 
1 
1 
1 
1 
1 
1 
1 
1 
1 
1 
1 
1 
1 
1 
1 
1 
1 
1 
1 
1 
1 
1 
1 
1 
1 
1 
1 
1 
1 
1 
1 
1 
1 
1 
1 
1 
1 
1 
1 
1 
1 
1 
1 
1 
1 
1 
1 
1 
1 
1 
1 
1 
1 
1 
1 
1 
1 
1 
1 
1 
1 
1 
1 
1 
1 
1 
1 
1 
1 
1 
1 
1 
1 
1 
1 
1 
1 
1 
1 
1 
1 
1 
1 
1 
1 
1 
1 
1 
1 
1 
1 
1 
1 
1 
1 
1 
1 
1 
1 
1 
1 
1 
1 
1 
1 
1 
1 
1 
1 
1 
1 
1 
1 
1 
1 
1 
1 
1 
1 
1 
1 
1 
1 
1 
1 
1 
1 
1 
1 
1 
1 
1 
1 
1 
1 
1 
1 
1 
1 
1 
1 
1 
1 
1 
1 
1 
1 
1 
1 
1 
1 
1 
1 
1 
1 
1 
1 
1 
1 
1 
1 
1 
1 
1 
1 
1 
1 
1 
1 
1 
1 
1 
1 
1 
1 
1 
1 
1 
1 
1 
1 
1 
1 
1 
1 
1 
1 
1 
1 
1 
1 
1 
1 
1 
1 
1 
1 
1 
1 
1 
1 
1 
1 
1 
1 
1 
1 
1 
1 
1 
1 
1 
1 
1 
1 
1 
1 
1 
1 
1 
1 
1 
1 
1 
1 
1 
1 
1 
1 
1 
1 
1 
1 
1 
1 
1 
1 
1 
1 
1 
1 
1 
1 
1 
1 
1 
1 
1 
1 
1 
1 
1 
1 
1 
1 
1 
1 
1 
1 
1 
1 
1 
1 
1 
1 
1 
1 
1 
1 
1 
1 
1 
1 
1 
1 
1 
1 
1 
1 
1 
1 
1 
1 
1 
1 
1 
1 
1 
1 
1 
1 
1 
1 
1 
1 
1 
1 
1 
1 
1 
1 
1 
1 
1 
1 
1 
1 
1 
1 
1 
1 
1 
1 
1 
1 
1 
1 
1 
1 
1 
1 
1 
1 
1 
1 
1 
1 
1 
1 
1 
1 
1 
1 
1 
1 
1 
1 
1 
1 
1 
1 
1 
1 
1 
1 
1 
1 
1 
1 
1 
1 
1 
1 
1 
1 
1 
1 
1 
1 
1 
1 
1 
1 
1 
1 
1 
1 
1 
1 
1 
1 
1 
1 
1 
1 
1 
1 
1 
1 
1 
1 
1 
1 
1 
1 
1 
1 
1 
1 
1 
1 
1 
1 
1 
1 
1 
1 
1 
1 
1 
1 
1 
1 
1 
1 
1 
1 
1 
1 
1 
1 
1 
1 
1 
1 
1 
1 
1 
1 
1 
1 
1 
1 
1 
1 
1 
1 
1 
1 
1 
1 
1 
1 
1 
1 
1 
1 
1 
1 
1 
1 
1 
1 
1 
1 
1 
1 
1 
1 
1 
1 
1 
1 
1 
1 
1 
1 
1 
1 
1 
1 
1 
1 
1 
1 
1 
1 
1 
1 
1 
1 
1 
1 
1 
1 
1 
1 
1 
1 
1 
1 
1 
1 
1 
1 
1 
1 
1 
1 
1 
1 
1 
1 
1 
1 
1 
1 
1 
1 
1 
1 
1 
1 
1 
1 
1 
1 
1 
1 
1 
1 
1 
1 
1 
1 
1 
1 
1 
1 
1 
1 
1 
1 
1 
1 
1 
1 
1 
1 
1 
1 
1 
1 
1 
1 
1 
1 
1 
1 
1 
1 
1 
1 
1 
1 
1 
1 
1 
1 
1 
1 
1 
1 
1 
1 
1 
1 
1 
1 
1 
1 
1 
1 
1 
1 
1 
1 
1 
1 
1 
1 
1 
1 
1 
1 
1 
1 
1 
1 
1 
1 
1 
1 
1 
1 
1 
1 
1 
1 
1 
1 
1 
1 
1 
1 
1 
1 
1 
1 
1 
1 
1 
1 
1 
1 
1 
1 
1 
1 
1 
1 
1 
1 
1 
1 
1 
1 
1 
1 
1 
1 
1 
1 
1 
1 
1 
1 
1 
1 
1 
1 
1 
1 
1 
1 
1 
1 
1 
1 
1 
1 
1 
1 
1 
1 
1 
1 
1 
1 
1 
1 
1 
1 
1 
1 
1 
1 
1 
1 
1 
1 
1 
1 
1 
1 
1 
1 
1 
1 
1 
1 
1 
1 
1 
1 
1 
1 
1 
1 
1 
1 
1 
1 
1 
1 
1 
1 
1 
1 
1 
1 
1 
1 
1 
1 
1 
1 
1 
1 
1 
1 
1 
1 
1 
1 
1 
1 
1 
1 
1 
1 
1 
1 
1 
1 
1 
1 
1 
1 
1 
1 
1 
1 
1 
1 
1 
1 
1 
1 
1 
1 
1 
1 
1 
1 
1 
1 
1 
1 
1 
1 
1 
1 
1 
1 
1 
1 
1 
1 
1 
1 
1 
1 
1 
1 
1 
1 
1 
1 
1 
1 
1 
1 
1 
1 
1 
1 
1 
1 
1 
1 
1 
1 
1 
1 
1 
1 
1 
1 
1 
1 
1 
1 
1 
1 
1 
1 
1 
1 
1 
1 
1 
1 
1 
1 
1 
1 
1 
1 
1 
1 
1 
1 
1 
1 
1 
1 
1 
1 
1 
1 
1 
1 
1 
1 
1 
1 
1 
1 
1 
1 
1 
1 
1 
1 
1 
1 
1 
1 
1 
1 
1 
1 
1 
1 
1 
1 
1 
1 
1 
1 
1 
1 
1 
1 
1 
1 
1 
1 
1 
1 
1 
1 
1 
1 
1 
1 
1 
1 
1 
1 
1 
1 
1 
1 
1 
1 
1 
1 
1 
1 
1 
1 
1 
1 
1 
1 
1 
1 
1 
1 
1 
1 
1 
1 
1 
1 
1 
1 
1 
1 
1 
1 
1 
1 
1 
1 
1 
1 
1 
1 
1 
1 
1 
1 
1 
1 
1 
1 
1 
1 
1 
1 
1 
1 
1 
1 
1 
1 
1 
1 
1 
1 
1 
1 
1 
1 
1 
1 
1 
1 
1 
1 
1 
1 
1 
1 
1 
1 
1 
1 
1 
1 
1 
1 
1 
1 
1 
1 
1 
1 
1 
1 
1 
1 
1 
1 
1 
1 
1 
1 
1 
1 
1 
1 
1 
1 
1 
1 
1 
1 
1 
1 
1 
1 
1 
1 
1 
1 
1 
1 
1 
1 
1 
1 
1 
1 
1 
1 
1 
1 
1 
1 
1 
1 
1 
1 
1 
1 
1 
1 
1 
1 
1 
1 
1 
1 
1 
1 
1 
1 
1 
1 
1 
1 
1 
1 
1 
1 
1 
1 
1 
1 
1 
1 
1 
1 
1 
1 
1 
1 
1 
1 
1 
1 
1 
1 
1 
1 
1 
1 
1 
1 
1 
1 
1 
1 
1 
1 
1 
1 
1 
1 
1 
1 
1 
1 
1 
1 
1 
1 
1 
1 
1 
1 
1 
1 
1 
1 
1 
1 
1 
1 
1 
1 
1 
1 
1 
1 
1 
1 
1 
1 
1 
1 
1 
1 
1 
1 
1 
1 
1 
1 
1 
1 
1 
1 
1 
1 
1 
1 
1 
1 
1 
1 
1 
1 
1 
1 
1 
1 
1 
1 
1 
1 
1 
1 
1 
1 
1 
1 
1 
1 
1 
1 
1 
1 
1 
1 
1 
1 
1 
1 
1 
1 
1 
1 
1 
1 
1 
1 
1 
1 
1 
1 
1 
1 
1 
1 
1 
1 
1 
1 
1 
1 
1 
1 
1 
1 
1 
1 
1 
1 
1 
1 
1 
1 
1 
1 
1 
1 
1 
1 
1 
1 
1 
1 
1 
1 
1 
1 
1 
1 
1 
1 
1 
1 
1 
1 
1 
1 
1 
1 
1 
1 
1 
1 
1 
1 
1 
1 
1 
1 
1 
1 
1 
1 
1 
1 
1 
1 
1 
1 
1 
1 
1 
1 
1 
1 
1 
1 
1 
1 
1 
1 
1 
1 
1 
1 
1 
1 
1 
1 
1 
1 
1 
1 
1 
1 
1 
1 
1 
1 
1 
1 
1 
1 
1 
1 
1 
1 
1 
1 
1 
1 
1 
1 
1 
1 
1 
1 
1 
1 
1 
1 
1 
1 
1 
1 
1 
1 
1 
1 
1 
1 
1 
1 
1 
1 
1 
1 
1 
1 
1 
1 
1 
1 
1 
1 
1 
1 
1 
1 
1 
1 
1 
1 
1 
1 
1 
1 
1 
1 
1 
1 
1 
1 
1 
1 
1 
1 
1 
1 
1 
1 
1 
1 
1 
1 
1 
1 
1 
1 
1 
1 
1 
1 
1 
1 
1 
1 
1 
1 
1 
1 
1 
1 
1 
1 
1 
1 
1 
1 
1 
1 
1 
1 
1 
1 
1 
1 
1 
1 
1 
1 
1 
1 
1 
1 
1 
1 
1 
1 
1 
1 
1 
1 
1 
1 
1 
1 
1 
1 
1 
1 
1 
1 
1 
1 
1 
1 
1 
1 
1 
1 
1 
1 
1 
1 
1 
1 
1 
1 
1 
1 
1 
1 
1 
1 
1 
1 
1 
1 
1 
1 
1 
1 
1 
1 
1 
1 
1 
1 
1 
1 
1 
1 
1 
1 
1 
1 
1 
1 
1 
1 
1 
1 
1 
1 
1 
1 
1 
1 
1 
1 
1 
1 
1 
1 
1 
1 
1 
1 
1 
1 
1 
1 
1 
1 
1 
1 
1 
1 
1 
1 
1 
1 
1 
1 
1 
1 
1 
1 
1 
1 
1 
1 
1 
1 
1 
1 
1 
1 
1 
1 
1 
1 
1 
1 
1 
1 
1 
1 
1 
1 
1 
1 
1 
1 
1 
1 
1 
1 
1 
1 
1 
1 
1 
1 
1 
1 
1 
1 
1 
1 
1 
1 
1 
1 
1 
1 
1 
1 
1 
1 
1 
1 
1 
1 
1 
1 
1 
1 
1 
1 
1 
1 
1 
1 
1 
1 
1 
1 
1 
1 
1 
1 
1 
1 
1 
1 
1 
1 
1 
1 
1 
1 
1 
1 
1 
1 
1 
1 
1 
1 
1 
1 
1 
1 
1 
1 
1 
1 
1 
1 
1 
1 
1 
1 
1 
1 
1 
1 
1 
1 
1 
1 
1 
1 
1 
1 
1 
1 
1 
1 
1 
1 
1 
1 
1 
1 
1 
1 
1 
1 
1 
1 
1 
1 
1 
1 
1 
1 
1 
1 
1 
1 
1 
1 
1 
1 
1 
1 
1 
1 
1 
1 
1 
1 
1 
1 
1 
1 
1 
1 
1 
1 
1 
1 
1 
1 
1 
1 
1 
1 
1 
1 
1 
1 
1 
1 
1 
1 
1 
1 
1 
1 
1 
1 
1 
1 
1 
1 
1 
1 
1 
1 
1 
1 
1 
1 
1 
1 
1 
1 
1 
1 
1 
1 
1 
1 
1 
1 
1 
1 
1 
1 
1 
1 
1 
1 
1 
1 
1 
1 
1 
1 
1 
1 
1 
1 
1 
1 
1 
1 
1 
1 
1 
1 
1 
1 
1 
1 
1 
1 
1 
1 
1 
1 
1 
1 
1 
1 
1 
1 
1 
1 
1 
1 
1 
1 
1 
1 
1 
1 
1 
1 
1 
1 
1 
1 
1 
1 
1 
1 
1 
1 
1 
1 
1 
1 
1 
1 
1 
1 
1 
1 
1 
1 
1 
1 
1 
1 
1 
1 
1 
1 
1 
1 
1 
1 
1 
1 
1 
1 
1 
1 
1 
1 
1 
1 
1 
1 
1 
1 
1 
1 
1 
1 
1 
1 
1 
1 
1 
1 
1 
1 
1 
1 
1 
1 
1 
1 
1 
1 
1 
1 
1 
1 
1 
1 
1 
1 
1 
1 
1 
1 
1 
1 
1 
1 
1 
1 
1 
1 
1 
1 
1 
1 
1 
1 
1 
1 
1 
1 
1 
1 
1 
1 
1 
1 
1 
1 
1 
1 
1 
1 
1 
1 
1 
1 
1 
1 
1 
1 
1 
1 
1 
1 
1 
1 
1 
1 
1 
1 
1 
1 
1 
1 
1 
1 
1 
1 
1 
1 
1 
1 
1 
1 
1 
1 
1 
1 
1 
1 
1 
1 
1 
1 
1 
1 
1 
1 
1 
1 
1 
1 
1 
1 
1 
1 
1 
1 
1 
1 
1 
1 
1 
1 
1 
1 
1 
1 
1 
1 
1 
1 
1 
1 
1 
1 
1 
1 
1 
1 
1 
1 
1 
1 
1 
1 
1 
1 
1 
1 
1 
1 
1 
1 
1 
1 
1 
1 
1 
1 
1 
1 
1 
1 
1 
1 
1 
1 
1 
1 
1 
1 
1 
1 
1 
1 
1 
1 
1 
1 
1 
1 
1 
1 
1 
1 
1 
1 
1 
1 
1 
1 
1 
1 
1 
1 
1 
1 
1 
1 
1 
1 
1 
1 
1 
1 
1 
1 
1 
1 
1 
1 
1 
1 
1 
1 
1 
1 
1 
1 
1 
1 
1 
1 
1 
1 
1 
1 
1 
1 
1 
1 
1 
1 
1 
1 
1 
1 
1 
1 
1 
1 
1 
1 
1 
1 
1 
1 
1 
1 
1 
1 
1 
1 
1 
1 
1 
1 
1 
1 
1 
1 
1 
1 
1 
1 
1 
1 
1 
1 
1 
1 
1 
1 
1 
1 
1 
1 
1 
1 
1 
1 
1 
1 
1 
1 
1 
1 
1 
1 
1 
1 
1 
1 
1 
1 
1 
1 
1 
1 
1 
1 
1 
1 
1 
1 
1 
1 
1 
1 
1 
1 
1 
1 
1 
1 
1 
1 
1 
1 
1 
1 
1 
1 
1 
1 
1 
1 
1 
1 
1 
1 
1 
1 
1 
1 
1 
1 
1 
1 
1 
1 
1 
1 
1 
1 
1 
1 
1 
1 
1 
1 
1 
1 
1 
1 
1 
1 
1 
1 
1 
1 
1 
1 
1 
1 
1 
1 
1 
1 
1 
1 
1 
1 
1 
1 
1 
1 
1 
1 
1 
1 
1 
1 
1 
1 
1 
1 
1 
1 
1 
1 
1 
1 
1 
1 
1 
1 
1 
1 
1 
1 
1 
1 
1 
1 
1 
1 
1 
1 
1 
1 
1 
1 
1 
1 
1 
1 
1 
1 
1 
1 
1 
1 
1 
1 
1 
1 
1 
1 
1 
1 
1 
1 
1 
1 
1 
1 
1 
1 
1 
1 
1 
1 
1 
1 
1 
1 
1 
1 
1 
1 
1 
1 
1 
1 
1 
1 
1 
1 
1 
1 
1 
1 
1 
1 
1 
1 
1 
1 
1 
1 
1 
1 
1 
1 
1 
1 
1 
1 
1 
1 
1 
1 
1 
1 
1 
1 
1 
1 
1 
1 
1 
1 
1 
1 
1 
1 
1 
1 
1 
1 
1 
1 
1 
1 
1 
1 
1 
1 
1 
1 
1 
1 
1 
1 
1 
1 
1 
1 
1 
1 
1 
1 
1 
1 
1 
1 
1 
1 
1 
1 
1 
1 
1 
1 
1 
1 
1 
1 
1 
1 
1 
1 
1 
1 
1 
1 
1 
1 
1 
1 
1 
1 
1 
1 
1 
1 
1 
1 
1 
1 
1 
1 
1 
1 
1 
1 
1 
1 
1 
1 
1 
1 
1 
1 
1 
1 
1 
1 
1 
1 
1 
1 
1 
1 
1 
1 
1 
1 
1 
1 
1 
1 
1 
1 
1 
1 
1 
1 
1 
1 
1 
1 
1 
1 
1 
1 
1 
1 
1 
1 
1 
1 
1 
1 
1 
1 
1 
1 
1 
1 
1 
1 
1 
1 
1 
1 
1 
1 
1 
1 
1 
1 
1 
1 
1 
1 
1 
1 
1 
1 
1 
1 
1 
1 
1 
1 
1 
1 
1 
1 
1 
1 
1 
1 
1 
1 
1 
1 
1 
1 
1 
1 
1 
1 
1 
1 
1 
1 
1 
1 
1 
1 
1 
1 
1 
1 
1 
1 
1 
1 
1 
1 
1 
1 
1 
1 
1 
1 
1 
1 
1 
1 
1 
1 
1 
1 
1 
1 
1 
1 
1 
1 
1 
1 
1 
1 
1 
1 
1 
1 
1 
1 
1 
1 
1 
1 
1 
1 
1 
1 
1 
1 
1 
1 
1 
1 
1 
1 
1 
1 
1 
1 
1 
1 
1 
1 
1 
1 
1 
1 
1 
1 
1 
1 
1 
1 
1 
1 
1 
1 
1 
1 
1 
1 
1 
1 
1 
1 
1 
1 
1 
1 
1 
1 
1 
1 
1 
1 
1 
1 
1 
1 
1 
1 
1 
1 
1 
1 
1 
1 
1 
1 
1 
1 
1 
1 
1 
1 
1 
1 
1 
1 
1 
1 
1 
1 
1 
1 
1 
1 
1 
1 
1 
1 
1 
1 
1 
1 
1 
1 
1 
1 
1 
1 
1 
1 
1 
1 
1 
1 
1 
1 
1 
1 
1 
1 
1 
1 
1 
1 
1 
1 
1 
1 
1 
1 
1 
1 
1 
1 
1 
1 
1 
1 
1 
1 
1 
1 
1 
1 
1 
1 
1 
1 
1 
1 
1 
1 
1 
1 
1 
1 
1 
1 
1 
1 
1 
1 
1 
1 
1 
1 
1 
1 
1 
1 
1 
1 
1 
1 
1 
1 
1 
1 
1 
1 
1 
1 
1 
1 
1 
1 
1 
1 
1 
1 
1 
1 
1 
1 
1 
1 
1 
1 
1 
1 
1 
1 
1 
1 
1 
1 
1 
1 
1 
1 
1 
1 
1 
1 
1 
1 
1 
1 
1 
1 
1 
1 
1 
1 
1 
1 
1 
1 
1 
1 
1 
1 
1 
1 
1 
1 
1 
1 
1 
1 
1 
1 
1 
1 
1 
1 
1 
1 
1 
1 
1 
1 
1 
1 
1 
1 
1 
1 
1 
1 
1 
1 
1 
1 
1 
1 
1 
1 
1 
1 
1 
1 
1 
1 
1 
1 
1 
1 
1 
1 
1 
1 
1 
1 
1 
1 
1 
1 
1 
1 
1 
1 
1 
1 
1 
1 
1 
1 
1 
1 
1 
1 
1 
1 
1 
1 
1 
1 
1 
1 
1 
1 
1 
1 
1 
1 
1 
1 
1 
1 
1 
1 
1 
1 
1 
1 
1 
1 
1 
1 
1 
1 
1 
1 
1 
1 
1 
1 
1 
1 
1 
1 
1 
1 
1 
1 
1 
1 
1 
1 
1 
1 
1 
1 
1 
1 
1 
1 
1 
1 
1 
1 
1 
1 
1 
1 
1 
1 
1 
1 
1 
1 
1 
1 
1 
1 
1 
1 
1 
1 
1 
1 
1 
1 
1 
1 
1 
1 
1 
1 
1 
1 
1 
1 
1 
1 
1 
1 
1 
1 
1 
1 
1 
1 
1 
1 
1 
1 
1 
1 
1 
1 
1 
1 
1 
1 
1 
1 
1 
1 
1 
1 
1 
1 
1 
1 
1 
1 
1 
1 
1 
1 
1 
1 
1 
1 
1 
1 
1 
1 
1 
1 
1 
1 
1 
1 
1 
1 
1 
1 
1 
1 
1 
1 
1 
1 
1 
1 
1 
1 
1 
1 
1 
1 
1 
1 
1 
1 
1 
1 
1 
1 
1 
1 
1 
1 
1 
1 
1 
1 
1 
1 
1 
1 
1 
1 
1 
1 
1 
1 
1 
1 
1 
1 
1 
1 
1 
1 
1 
1 
1 
1 
1 
1 
1 
1 
1 
1 
1 
1 
1 
1 
1 
1 
1 
1 
1 
1 
1 
1 
1 
1 
1 
1 
1 
1 
1 
1 
1 
1 
1 
1 
1 
1 
1 
1 
1 
1 
1 
1 
1 
1 
1 
1 
1 
POINT_DATA 5000
VECTORS Stress float
7.03083 16.2921 0.
-748.894 -1637.95 0.
-1.2085 -9.35147 0.
-1592.02 -2483.59 0.
-673.629 -1069.22 0.
1.97925 3.14192 0.
-1945.72 -3039.31 0.
-1282.49 -2136.01 0.
-683.79 -1291.93 0.
-1102.2 -1823.81 0.
-900.26 -1521.27 0.
-696.824 -1220.23 0.
-1146.31 -1678.81 0.
-975.411 -1485.74 0.
-745.232 -1225.19 0.
-726.942 -1241.48 0.
-704.907 -1261.51 0.
-930.104 -1495.78 0.
-898.365 -1528.47 0.
-861.208 -1566.57 0.
-930.913 -1667.96 0.
-930.51 -1668.26 0.
-929.528 -1669.15 0.
-855.642 -1652.7 0.
-855.084 -1650.78 0.
-852.077 -1651.31 0.
-1088.47 -1830.94 0.
-1079.32 -1844.9 0.
-935.639 -1810.58 0.
-940.756 -1806.18 0.
-938.153 -1809.51 0.
-957.84 -1849.88 0.
-948.296 -1856.02 0.
-936.542 -1864.38 0.
-942.845 -1892.83 0.
-935.863 -1897.53 0.
-928.829 -1902.29 0.
-1025.89 -1951.85 0.
-1019.88 -1958.11 0.
-919.167 -1919.21 0.
-915.489 -1924.11 0.
-911.816 -1929 0.
-944.913 -1944.19 0.
-945.764 -1946.17 0.
-946.616 -1948.16 0.
-963.801 -1956.83 0.
-964.348 -1958.1 0.
-964.896 -1959.38 0.
-960.353 -1956.66 0.
-959.677 -1955.08 0.
-959.001 -1953.5 0.
-1018.45 -1976.07 0.
-1016.92 -1972.51 0.
-952.18 -1942.57 0.
-952.334 -1942.93 0.
-952.488 -1943.29 0.
-938.139 -1938.11 0.
-939.089 -1940.32 0.
-940.04 -1942.54 0.
-900.005 -1924.66 0.
-902.144 -1919.05 0.
-906.864 -1910.86 0.
-1026.9 -1954.6 0.
-1032.3 -1951.33 0.
-936.498 -1897.68 0.
-946.033 -1891.81 0.
-954.982 -1886.53 0.
-936.857 -1861.11 0.
-945.705 -1852.2 0.
-953.152 -1844.7 0.
-915.073 -1789.35 0.
-925.542 -1777.95 0.
-933.321 -1769.23 0.
-1043.98 -1790.66 0.
-1048.55 -1782.41 0.
-872.889 -1636.39 0.
-834.739 -1584.8 0.
-837.393 -1586.45 0.
-942.308 -1640.88 0.
-930.058 -1643.21 0.
-916.433 -1646.92 0.
-867.496 -1600.55 0.
-909.275 -1567.11 0.
-946.496 -1538.23 0.
-720.654 -1237.54 0.
-763.727 -1195.48 0.
-801.652 -1158.57 0.
-983.721 -1442.64 0.
-1198.91 -1755.48 0.
-619.807 -1153.66 0.
-1025.77 -1759.95 0.
-1435.72 -2362.25 0.
-293.641 -593.496 0.
-1001.23 -1754.46 0.
-1781.48 -2861.52 0.
0.134475 0.251531 0.
-234.37 -414.37 0.
-1482.18 -2548.62 0.
-2.10968 -15.5961 0.
-362.238 -763.35 0.
3.76986 9.22717 0.
4.95417 11.9332 0.
1.11087 2.65444 0.
1.71627 2.9345 0.
1.28377 2.3243 0.
-0.289396 -1.59257 0.
1.34607 2.28091 0.
-0.349258 -1.646 0.
-0.223122 -1.87943 0.
-328.653 -676.836 0.
-112.18 -234.344 0.
-27.4217 -57.8835 0.
-504.04 -920.155 0.
-460.497 -853.726 0.
-407.421 -747.314 0.
-390.644 -769.223 0.
-371.985 -788.184 0.
-664.386 -1163.83 0.
-635.827 -1214.81 0.
-614.189 -1276.17 0.
-710.315 -1434.47 0.
-709.667 -1439.43 0.
-709.907 -1444.46 0.
-552.592 -1384.16 0.
-551.631 -1382.64 0.
-547.221 -1384.57 0.
-1038.38 -1718.01 0.
-1030.78 -1730.41 0.
-724.08 -1648.03 0.
-732.344 -1621.42 0.
-740.508 -1608.92 0.
-781.143 -1678.08 0.
-774.626 -1681.2 0.
-764.068 -1688.35 0.
-810.749 -1766.82 0.
-804.025 -1771.27 0.
-796.962 -1776.05 0.
-1059.11 -1911.83 0.
-1055.35 -1915.84 0.
-803.666 -1813.99 0.
-797.526 -1821.35 0.
-791.986 -1828.1 0.
-881.078 -1856.03 0.
-871.193 -1868.75 0.
-862.224 -1880.56 0.
-908.958 -1901.9 0.
-909.505 -1903.18 0.
-910.052 -1904.46 0.
-896.859 -1889.35 0.
-890.114 -1893.84 0.
-889.439 -1892.26 0.
-1072.62 -1967.86 0.
-1071.1 -1964.3 0.
-882.872 -1881.45 0.
-883.027 -1881.81 0.
-883.181 -1882.17 0.
-844.767 -1866.66 0.
-853.349 -1861.25 0.
-864.579 -1853.19 0.
-767.585 -1812.71 0.
-777.119 -1799.71 0.
-787.424 -1785.93 0.
-1059.8 -1917.27 0.
-1061.72 -1917.49 0.
-811.813 -1766.62 0.
-823.882 -1758.22 0.
-834.515 -1751.25 0.
-726.818 -1676.77 0.
-732.752 -1670.77 0.
-738.1 -1665.36 0.
-698.854 -1578.64 0.
-702.64 -1573.91 0.
-702.755 -1572.86 0.
-910.13 -1620.95 0.
-915.513 -1611.89 0.
-664.72 -1451.07 0.
-587.119 -1351.98 0.
-591.199 -1347.27 0.
-701.646 -1398.39 0.
-699.735 -1406.28 0.
-701.844 -1414.39 0.
-580.291 -1276.19 0.
-566.41 -1177.09 0.
-585.728 -1122.27 0.
-368.095 -725.722 0.
-373.462 -650.954 0.
-372.619 -577.879 0.
-356.28 -647.104 0.
-430.536 -808.444 0.
-8.82225 -19.6134 0.
-66.0627 -133.905 0.
-330.933 -660.31 0.
-0.185672 -1.82669 0.
2.473 5.07224 0.
-1.09536 -2.1006 0.
2.51963 5.45175 0.
-1.2645 -7.88772 0.
-0.51903 -1.0021 0.
7.15287 16.6643 0.
-1.40506 -16.2296 0.
8.9777 22.9849 0.
-1.46551 -3.79318 0.
6.97456 18.1639 0.
-1.78528 -9.36142 0.
5.10256 10.5824 0.
-0.413156 -4.25868 0.
3.49397 6.81446 0.
-0.279081 -2.28617 0.
-0.192357 -3.29592 0.
-94.8878 -207.832 0.
0.686181 1.45122 0.
-0.255933 -0.585457 0.
-637.31 -1241.2 0.
-663.337 -1330.93 0.
-1101.46 -2127.91 0.
-784.917 -1596.6 0.
-564.423 -1192.48 0.
-1060.15 -1803.7 0.
-886.555 -1521.51 0.
-772.051 -1327.37 0.
-843.01 -1467.49 0.
-809.935 -1452.61 0.
-787.9 -1456.1 0.
-556.205 -1324.75 0.
-577.657 -1419.07 0.
-625.549 -1526.28 0.
-1248.81 -2087.37 0.
-1262.14 -2125.97 0.
-900.94 -1928.08 0.
-795.583 -1720.07 0.
-727.87 -1581.47 0.
-759.756 -1700.02 0.
-664.258 -1555.15 0.
-596.105 -1437.94 0.
-685.535 -1520.46 0.
-676.693 -1520.14 0.
-692.269 -1572.77 0.
-1091.55 -1840.93 0.
-1125.88 -1932.78 0.
-767.315 -1769.98 0.
-708.488 -1694.55 0.
-690.598 -1699.69 0.
-867.085 -1806.34 0.
-845.646 -1802.32 0.
-800.911 -1762.45 0.
-850.96 -1750.92 0.
-840.601 -1780.07 0.
-845.362 -1824.03 0.
-885.078 -1759.45 0.
-897.416 -1789.76 0.
-951.558 -1884.75 0.
-1071.18 -1830.63 0.
-1081.93 -1855.7 0.
-827.728 -1767 0.
-807.314 -1702.84 0.
-828.187 -1737.1 0.
-778.094 -1725.15 0.
-801.898 -1762.99 0.
-819.248 -1734.51 0.
-660.365 -1674.27 0.
-716.929 -1754.78 0.
-720.018 -1690.42 0.
-1113.66 -1851.08 0.
-1105.02 -1820.26 0.
-708.377 -1541.06 0.
-707.902 -1541.41 0.
-709.657 -1544.54 0.
-608.084 -1458.95 0.
-649.893 -1567.22 0.
-728.02 -1723.09 0.
-797.13 -1657.85 0.
-850.546 -1796.72 0.
-887.767 -1846.71 0.
-1097.16 -1954.52 0.
-1109.29 -1978.74 0.
-683.912 -1500.12 0.
-687.349 -1507.52 0.
-648.947 -1353.95 0.
-779.8 -1389.7 0.
-809.999 -1397.6 0.
-833.668 -1393.87 0.
-639.672 -1161.17 0.
-813.889 -1442.18 0.
-1007.28 -1764.47 0.
-591.308 -1213.71 0.
-843.966 -1675.97 0.
-1087.99 -2097.3 0.
-486.476 -1007.87 0.
-453.001 -955.523 0.
0.87796 2.18215 0.
-0.226205 -2.43285 0.
-10.0126 -21.0861 0.
0.0682858 1.3281 0.
2.452 5.60737 0.
-0.83267 -6.4366 0.
-0.914761 -13.3917 0.
5.48415 12.2877 0.
1.0022 2.12832 0.
-0.475947 -11.0226 0.
4.90653 12.1077 0.
-7.56264 -19.5895 0.
-94.5054 -252.393 0.
2.80942 7.51946 0.
-729.123 -1653.07 0.
0.538643 1.2333 0.
-2.71223 -6.33078 0.
-1317.84 -2834.21 0.
-508.553 -1127.75 0.
-0.836345 -8.75113 0.
-1586.06 -3239.63 0.
-869.264 -1885.05 0.
-243.597 -565.607 0.
-1242.29 -2728.27 0.
-756.137 -1781.26 0.
-756.921 -1720.72 0.
-585.502 -1385.05 0.
-429.958 -1063.79 0.
-741.424 -1513.59 0.
-590.597 -1246.05 0.
-443.979 -973.861 0.
-578.163 -1090.21 0.
-603.505 -1151.09 0.
-660.336 -1276.06 0.
-576.251 -1334.44 0.
-608.659 -1428.85 0.
-645.014 -1537.36 0.
-1001.48 -1828.6 0.
-1005.64 -1868.27 0.
-675.088 -1624.41 0.
-647.08 -1555.71 0.
-628.908 -1512.63 0.
-666.35 -1556.11 0.
-623.734 -1450.21 0.
-580.143 -1337.96 0.
-576.743 -1341.75 0.
-571.741 -1322.22 0.
-569.375 -1303.26 0.
-840.43 -1563.4 0.
-895.758 -1701.13 0.
-630.38 -1673.65 0.
-628.865 -1685.1 0.
-629.972 -1697.82 0.
-751.491 -1815.52 0.
-736.595 -1825.98 0.
-722.51 -1837.69 0.
-819.358 -1856.5 0.
-790.83 -1791.02 0.
-756.424 -1733.09 0.
-723.389 -1676.02 0.
-709.112 -1638.52 0.
-760.833 -1631.05 0.
-871.672 -1701.75 0.
-865.019 -1729.79 0.
-658.086 -1676.13 0.
-711.455 -1716.56 0.
-739.88 -1782.46 0.
-696.108 -1787.55 0.
-720.29 -1781.99 0.
-738.367 -1782.51 0.
-606.208 -1644.22 0.
-601.23 -1631.01 0.
-597.485 -1618.41 0.
-877.869 -1697.46 0.
-826.832 -1569.16 0.
-612.829 -1289.17 0.
-618.792 -1312.83 0.
-644.558 -1391.17 0.
-535.03 -1343.81 0.
-575.82 -1440.17 0.
-618.006 -1536.76 0.
-688.972 -1549.33 0.
-707.491 -1588.99 0.
-745.503 -1680.2 0.
-1003.09 -1867.41 0.
-959.172 -1741.35 0.
-589.657 -1373.31 0.
-566.436 -1296.06 0.
-559.9 -1246.08 0.
-572.844 -1174.58 0.
-539.823 -1097.58 0.
-507.147 -1021.53 0.
-351.291 -758.621 0.
-496.518 -1035.95 0.
-642.396 -1309.99 0.
-315.073 -801.772 0.
-582.572 -1416.21 0.
-873.398 -2047.84 0.
-816.423 -1932.8 0.
-1360.95 -2955.57 0.
-68.3177 -150.66 0.
-802.751 -1703.5 0.
-1611.34 -3234.82 0.
-0.652106 -1.52694 0.
-141.979 -321.382 0.
-1092.24 -2413.42 0.
-0.610802 -1.44732 0.
-22.6186 -53.0671 0.
-577.177 -1351.4 0.
-0.677267 -1.78257 0.
-73.482 -194.088 0.
-104.556 -270.484 0.
-203.947 -554.556 0.
2.4168 6.58599 0.
-324.788 -763.827 0.
-1.04413 -15.4667 0.
-0.681054 -11.8167 0.
-234.458 -548.162 0.
1.9635 4.71167 0.
-0.470417 -9.61915 0.
-277.438 -611.072 0.
1.67747 3.81148 0.
-0.133536 -2.373 0.
-619.572 -1470.27 0.
-197.823 -492.624 0.
-466.662 -1122.46 0.
-318.299 -775.863 0.
-181.616 -429.98 0.
-518.419 -1220.13 0.
-382.502 -939.545 0.
-251.701 -648.555 0.
-545.874 -1039.06 0.
-581.777 -1117.55 0.
-637.217 -1238.83 0.
-678.55 -1382.34 0.
-710.101 -1474.86 0.
-747.074 -1578.13 0.
-987.833 -1821.55 0.
-995.487 -1856.95 0.
-577.544 -1556.86 0.
-558.922 -1511.54 0.
-540.608 -1466.6 0.
-707.304 -1554.32 0.
-663.653 -1445.56 0.
-620.591 -1337.2 0.
-648.918 -1360.98 0.
-645.928 -1339.27 0.
-643.88 -1317.93 0.
-823.069 -1540.46 0.
-887.512 -1683.93 0.
-634.61 -1694.57 0.
-628.665 -1710.67 0.
-633.182 -1721.13 0.
-714.156 -1804.17 0.
-714.816 -1818.11 0.
-723.613 -1838.03 0.
-786.865 -1842.6 0.
-759.465 -1777.98 0.
-717.464 -1727.37 0.
-719.93 -1672.66 0.
-708.044 -1635.95 0.
-737.01 -1622.76 0.
-805.453 -1676.11 0.
-799.011 -1704.36 0.
-627.54 -1654.72 0.
-671.011 -1704.43 0.
-702.158 -1767.06 0.
-692.737 -1784.46 0.
-693.999 -1774.61 0.
-717.722 -1768.56 0.
-621.959 -1677.6 0.
-618.196 -1662.48 0.
-614.957 -1648.86 0.
-914.458 -1699.51 0.
-854.926 -1566.74 0.
-680.027 -1313.77 0.
-686.146 -1337.03 0.
-712.827 -1416.85 0.
-535.372 -1294.81 0.
-574.353 -1390.9 0.
-613.97 -1485.07 0.
-638.952 -1539.12 0.
-658.39 -1582.58 0.
-678.476 -1627.72 0.
-1057.98 -1896.06 0.
-1016.25 -1772.75 0.
-639.614 -1346.83 0.
-613.74 -1272.32 0.
-600.725 -1219.41 0.
-468.649 -1038.2 0.
-434.799 -960.685 0.
-416.513 -871.495 0.
-191.684 -437.797 0.
-312.49 -737.623 0.
-441.911 -1029.53 0.
-16.6021 -45.6172 0.
-244.653 -654.892 0.
-509.88 -1313.5 0.
-85.7383 -207.087 0.
-549.042 -1277.74 0.
1.27161 3.15687 0.
-0.48797 -6.478 0.
-153.352 -340.31 0.
2.2701 5.73644 0.
2.62691 6.40436 0.
-332.923 -789.79 0.
-0.792716 -15.1194 0.
-1.0031 -17.2506 0.
-318.756 -772.258 0.
-3.26115 -8.76037 0.
-164.752 -443.383 0.
0.497559 1.37789 0.
6.6873 18.019 0.
4.65468 12.5892 0.
-142.063 -386.277 0.
5.06379 13.7738 0.
0.32129 0.874301 0.
-404.777 -1085.27 0.
-38.208 -103.108 0.
-0.0716251 -8.23459 0.
-818.363 -2083.64 0.
-214.445 -550.706 0.
-0.16785 -6.08751 0.
-1175.79 -2879.71 0.
-574.631 -1473.79 0.
-925.69 -2145.33 0.
-681.066 -1614.83 0.
-444.273 -1075.71 0.
-944.175 -1957.82 0.
-706.849 -1554.86 0.
-488.419 -1165.2 0.
-855.303 -1703.53 0.
-716.885 -1521.46 0.
-585.644 -1332.63 0.
-747.957 -1416.27 0.
-674.378 -1325.36 0.
-667.911 -1322.6 0.
-886.742 -1502.45 0.
-861.659 -1500.47 0.
-486.561 -1341.81 0.
-503.596 -1386.74 0.
-520.791 -1433.34 0.
-756.31 -1637.88 0.
-751.152 -1631.81 0.
-743.729 -1628 0.
-868.244 -1759.82 0.
-850.144 -1739.9 0.
-830.613 -1721.42 0.
-1089.09 -1864.31 0.
-984.138 -1690.03 0.
-558.546 -1316.83 0.
-534.891 -1271.7 0.
-507.909 -1229.49 0.
-552.966 -1279.88 0.
-553.521 -1307.1 0.
-558.343 -1341.36 0.
-604.546 -1452.71 0.
-614.794 -1487.94 0.
-624.949 -1523.26 0.
-754.301 -1628.9 0.
-779.484 -1688.11 0.
-896.14 -1847.19 0.
-910.094 -1823.35 0.
-910.949 -1821.49 0.
-681.242 -1687.91 0.
-667.501 -1639.98 0.
-659.4 -1586.42 0.
-572.306 -1390.31 0.
-558.957 -1345.48 0.
-552.748 -1312.36 0.
-511.642 -1289.95 0.
-534.191 -1311.54 0.
-549.909 -1339.97 0.
-1025.26 -1689.76 0.
-1118.25 -1865.94 0.
-821.587 -1692.49 0.
-854.553 -1734.9 0.
-886.681 -1786.26 0.
-626.559 -1597.42 0.
-621.955 -1570.9 0.
-619.313 -1542.42 0.
-551.204 -1479.55 0.
-528.422 -1413.3 0.
-506.477 -1348.35 0.
-890.354 -1497.3 0.
-970.704 -1605.65 0.
-697.699 -1435.55 0.
-675.062 -1408.17 0.
-745.139 -1491.67 0.
-568.252 -1327.81 0.
-720.328 -1535.55 0.
-880.012 -1756.73 0.
-546.893 -1299.28 0.
-817.359 -1808.33 0.
-1095.92 -2308.3 0.
-398.82 -1045.91 0.
-657.288 -1630.18 0.
-930.064 -2204.01 0.
-421.717 -1052.6 0.
-1123.5 -2754.14 0.
-0.0412316 -7.51193 0.
-96.5879 -258.627 0.
-694.492 -1807.73 0.
2.57393 7.01447 0.
-2.99098 -8.12502 0.
-324.208 -879.138 0.
4.15928 11.3916 0.
6.07502 16.6271 0.
-52.5442 -143.761 0.
3.83577 10.515 0.
2.06983 5.64062 0.
1.65436 4.5798 0.
-1.65488 -4.4235 0.
6.15556 16.5214 0.
-197.773 -542.036 0.
-2.71917 -7.45616 0.
5.38439 14.774 0.
-386.39 -1050.91 0.
-0.0634092 -12.3567 0.
0.223236 0.613211 0.
-541.833 -1439.73 0.
-0.358823 -0.968011 0.
-0.00456075 -0.916694 0.
-624.87 -1624.68 0.
-69.4441 -180.749 0.
-531.708 -1340.02 0.
-308.09 -791.222 0.
-90.81 -245.505 0.
-541.234 -1268.67 0.
-368.079 -907.63 0.
-227.411 -582.258 0.
-543.659 -1238.15 0.
-430.924 -1067.63 0.
-332.357 -894.226 0.
-560.828 -1135.43 0.
-517.48 -1081.03 0.
-476.17 -1029.87 0.
-834.557 -1425.59 0.
-838.934 -1467.84 0.
-466.422 -1291.03 0.
-489.048 -1350.32 0.
-517.805 -1424.68 0.
-654.589 -1536.34 0.
-654.503 -1529.23 0.
-659.771 -1531.7 0.
-716.526 -1589.61 0.
-696.872 -1583.32 0.
-663.012 -1591.54 0.
-1009.49 -1686.3 0.
-912.692 -1528.85 0.
-527.705 -1267.15 0.
-511.393 -1214.79 0.
-494.467 -1163.53 0.
-499.578 -1168.67 0.
-501.171 -1212.61 0.
-511.846 -1270.7 0.
-557.201 -1351.38 0.
-566.342 -1384.46 0.
-579.798 -1417.57 0.
-703.075 -1578.29 0.
-727.848 -1637.42 0.
-824.038 -1775.45 0.
-852.404 -1749.52 0.
-853.548 -1746.67 0.
-645.488 -1619.44 0.
-609.791 -1528.83 0.
-603.589 -1457.18 0.
-534.68 -1336.4 0.
-513.591 -1263.86 0.
-508.317 -1207.22 0.
-510.015 -1203.24 0.
-508.013 -1238.88 0.
-512.557 -1288.23 0.
-897.497 -1543.47 0.
-991.441 -1693.05 0.
-664.974 -1576.78 0.
-676.322 -1570.89 0.
-712.534 -1596.01 0.
-583.581 -1518.15 0.
-570.448 -1498.98 0.
-564.358 -1479.5 0.
-578.667 -1467.14 0.
-525.547 -1364.94 0.
-490.213 -1294.72 0.
-817.236 -1448.07 0.
-854.474 -1495.92 0.
-442.891 -1134.16 0.
-478.727 -1164.91 0.
-514.429 -1194.95 0.
-313.004 -804.91 0.
-424.445 -1021.02 0.
-554.402 -1252.06 0.
-180.7 -474.092 0.
-391.736 -984.629 0.
-627.896 -1502.52 0.
-33.6951 -86.8736 0.
-238.377 -617.973 0.
-479.404 -1201.09 0.
-0.0894329 -4.06552 0.
-600.699 -1560.73 0.
0.581007 1.6088 0.
2.07804 5.716 0.
-502.182 -1357.61 0.
3.73081 10.2356 0.
-0.435932 -1.19275 0.
-341.15 -932.054 0.
5.23025 14.392 0.
-3.66479 -10.0779 0.
-91.4759 -251.416 0.
-1.35805 -3.71326 0.
2.13643 5.80278 0.
-58.1593 -160.909 0.
-77.1447 -204.308 0.
-5.40482 -14.3766 0.
-367.262 -1012.31 0.
-2.6325 -7.25968 0.
1.78238 4.9184 0.
-313.931 -862.684 0.
2.11821 5.8437 0.
0.680737 1.8824 0.
-186.001 -508.443 0.
-0.0080433 -7.26482 0.
-0.000858001 -10.2127 0.
-149.898 -390.735 0.
-0.0796447 -2.79868 0.
-198.914 -536.298 0.
-21.0303 -57.8171 0.
-0.658073 -1.82268 0.
-228.673 -552.231 0.
-118.575 -280.551 0.
-14.0066 -29.7938 0.
-330.692 -818.777 0.
-385.556 -993.807 0.
-184.471 -500.338 0.
-584.406 -1200.61 0.
-506.828 -1104.67 0.
-451.477 -1032.52 0.
-906.875 -1539.52 0.
-767.804 -1233.82 0.
-481.236 -1161.42 0.
-596.463 -1469.31 0.
-511.612 -1288.76 0.
-667.337 -1445.76 0.
-589.103 -1269.73 0.
-578.685 -1253.01 0.
-651.254 -1584.69 0.
-657.747 -1607.53 0.
-638.694 -1579.14 0.
-1071.63 -1775.07 0.
-925.59 -1426.52 0.
-562.723 -1146.81 0.
-479.219 -1001.59 0.
-480.364 -1037.12 0.
-443.562 -987.899 0.
-532.702 -1221.84 0.
-591.014 -1381.2 0.
-588.176 -1384.23 0.
-481.967 -1147.82 0.
-407.908 -986.761 0.
-483.425 -1079.88 0.
-532.209 -1159.2 0.
-771.511 -1608.49 0.
-715.676 -1383.24 0.
-713.916 -1362.34 0.
-485.603 -1165.82 0.
-523.89 -1250.28 0.
-570.706 -1355.42 0.
-554.584 -1271.46 0.
-481.713 -1057.66 0.
-435.874 -913.102 0.
-480.12 -962.304 0.
-554.214 -1102.26 0.
-652.245 -1295.16 0.
-932.339 -1613.45 0.
-1040.21 -1868.17 0.
-653.461 -1620.19 0.
-659.796 -1635.54 0.
-487.01 -1204.08 0.
-589.136 -1285.65 0.
-686.761 -1528.95 0.
-558.469 -1093.01 0.
-555.412 -1176.11 0.
-631.149 -1415.16 0.
-462.661 -1034.44 0.
-713.977 -1219.01 0.
-920.398 -1650.77 0.
-336.839 -874.042 0.
-416.049 -1025.13 0.
-486.658 -1127.17 0.
-191.465 -486.412 0.
-265.003 -669.581 0.
-309.16 -752.843 0.
-16.4564 -45.5708 0.
-51.7697 -142.544 0.
-211.288 -561.617 0.
-6.34069 -15.7802 0.
0.3461 0.802995 0.
-69.2697 -155.061 0.
1.86959 5.14199 0.
-140.26 -380.909 0.
-0.018199 -10.8268 0.
2.08115 5.76427 0.
-296.719 -818.455 0.
3.74431 10.3221 0.
2.99159 8.22954 0.
-355.265 -976.262 0.
4.69614 12.9664 0.
1.96592 5.42503 0.
-299.421 -825.614 0.
-101.257 -275.976 0.
-25.4696 -68.9052 0.
0.0268746 0.0696264 0.
-1.49359 -13.6873 0.
7.52694 17.3364 0.
-2.28781 -6.23071 0.
-0.842276 -2.31223 0.
3.05529 8.43454 0.
-116.646 -323.08 0.
4.07476 11.2858 0.
-1.0978 -3.03961 0.
-419.101 -1154.71 0.
-139.461 -384.809 0.
0.891228 2.46313 0.
-805.748 -2139.01 0.
-357.798 -957.504 0.
-918.845 -2245.58 0.
-647.221 -1643.98 0.
-394.749 -1044.12 0.
-940.017 -2349.05 0.
-687.845 -1788.64 0.
-455.46 -1229.08 0.
-843.249 -2109.95 0.
-688.665 -1790.99 0.
-546.165 -1470.38 0.
-863.628 -2174.07 0.
-769.644 -2012.96 0.
-683.506 -1857.55 0.
-1306.33 -2433.36 0.
-1270.8 -2352.72 0.
-880.565 -2100.29 0.
-884.738 -2112.52 0.
-891.974 -2129.05 0.
-787.973 -2102.18 0.
-772.324 -2085.76 0.
-760.616 -2068.8 0.
-753.542 -1915.69 0.
-664.939 -1723.18 0.
-577.627 -1530.77 0.
-1145.72 -1797.15 0.
-1178.11 -1886.28 0.
-830.606 -1805.39 0.
-856.508 -1866.2 0.
-907.043 -1952.79 0.
-867.334 -1941.32 0.
-856.739 -1896.22 0.
-846.539 -1861.37 0.
-733.302 -1775.02 0.
-714.174 -1742.83 0.
-706.006 -1724.96 0.
-689.744 -1662.45 0.
-657.499 -1588.01 0.
-638.403 -1516.85 0.
-753.324 -1558.43 0.
-751.793 -1550.17 0.
-602.326 -1505.09 0.
-634.371 -1579.77 0.
-665.31 -1654.02 0.
-816.973 -1828.56 0.
-852.255 -1900.09 0.
-882.492 -1974.1 0.
-951.693 -2029.22 0.
-912.322 -1926.58 0.
-859.99 -1852.33 0.
-1119.75 -1920.31 0.
-1102.31 -1859.25 0.
-577.158 -1598.15 0.
-645.283 -1785.65 0.
-714.515 -1970.33 0.
-819.456 -2117.42 0.
-802.963 -2078.22 0.
-784.364 -2038.47 0.
-937.089 -2037.81 0.
-956.646 -2054.53 0.
-977.982 -2071.74 0.
-1124.63 -2307.19 0.
-1200.69 -2462.39 0.
-624.501 -1674.53 0.
-717.126 -1858.46 0.
-820.225 -2047.99 0.
-535.562 -1425.56 0.
-712.974 -1812.88 0.
-917.126 -2223.62 0.
-408.519 -1091.39 0.
-664.233 -1707.38 0.
-935.1 -2313.99 0.
-325.053 -834.009 0.
-581.244 -1460.73 0.
-853.316 -2089.63 0.
-282.036 -768.555 0.
-735.498 -1985.02 0.
1.80133 4.98511 0.
-30.6438 -84.7759 0.
-285.938 -790.958 0.
-1.97158 -5.46092 0.
-2.42692 -6.7157 0.
0.254126 0.70152 0.
-0.0841949 -15.0675 0.
0.389338 1.05241 0.
0.860852 2.2955 0.
6.90442 16.3532 0.
-0.227165 -0.513873 0.
1.05705 2.72741 0.
-0.220036 -0.473478 0.
-246.783 -555.329 0.
-293.613 -796.178 0.
-160.368 -439.035 0.
-27.5197 -75.8616 0.
-530.47 -1468.7 0.
-297.344 -823.588 0.
-81.2585 -225.035 0.
-568.428 -1572.43 0.
-289.763 -802.136 0.
-51.0529 -141.406 0.
-593.83 -1619.34 0.
-159.597 -439.338 0.
-541.531 -1367.17 0.
-288.41 -746.347 0.
-50.2931 -129.286 0.
-577.723 -1527.34 0.
-346.342 -943.162 0.
-138.309 -383.093 0.
-618.856 -1587.3 0.
-479.502 -1260.47 0.
-347.96 -929.513 0.
-698.478 -1818.5 0.
-613.368 -1646.26 0.
-538.224 -1477.09 0.
-1351.64 -2441.73 0.
-1319.16 -2362.46 0.
-985.591 -2021.16 0.
-984.504 -2041.48 0.
-987.339 -2061.73 0.
-702.499 -1855.43 0.
-691.436 -1836.94 0.
-683.56 -1815.82 0.
-678.613 -1855.5 0.
-601.766 -1652.74 0.
-535.199 -1463.94 0.
-1243.22 -1834.91 0.
-1276.73 -1925.8 0.
-899.996 -1835.14 0.
-925.231 -1895.75 0.
-957.621 -1959.37 0.
-913.184 -1960.63 0.
-890.424 -1908.09 0.
-867.319 -1855.57 0.
-711.924 -1755.12 0.
-701.976 -1734.3 0.
-692.977 -1716.07 0.
-634.165 -1625.78 0.
-602.365 -1552.76 0.
-609.662 -1489.02 0.
-727.894 -1530.54 0.
-728.033 -1520.93 0.
-599.455 -1503.61 0.
-631.147 -1578.07 0.
-662.78 -1652.79 0.
-861.225 -1822.57 0.
-889.315 -1898.09 0.
-915.16 -1980.97 0.
-1000.39 -2031.16 0.
-952.768 -1939.31 0.
-913.296 -1874.72 0.
-1215.89 -1956.49 0.
-1198.23 -1894.7 0.
-525.108 -1440.95 0.
-590.656 -1631.76 0.
-659.417 -1825.83 0.
-785.673 -1923.85 0.
-770.472 -1880.53 0.
-761.592 -1837.34 0.
-1038.65 -2018.51 0.
-1058.05 -2035.38 0.
-1080.01 -2053.83 0.
-1058.57 -2279.51 0.
-1131.42 -2438.31 0.
-485.025 -1313.56 0.
-564.109 -1490.54 0.
-658.955 -1689.92 0.
-274.352 -732.7 0.
-433.584 -1129.82 0.
-604.475 -1522.46 0.
-65.4488 -180.111 0.
-289.344 -778.127 0.
-541.458 -1411.97 0.
1.94785 5.12748 0.
-239.944 -625.712 0.
-499.049 -1272.89 0.
-184.612 -510.253 0.
-629.704 -1732.5 0.
-84.4157 -233.745 0.
-328.257 -908.726 0.
-588.237 -1628.61 0.
-38.7383 -107.207 0.
-243.689 -672.79 0.
-449.407 -1235.77 0.
-67.9232 -184.963 0.
-149.216 -400.81 0.
-232.918 -615.295 0.
-117.767 -275.428 0.
3.32981 7.40698 0.
-0.573676 -12.9802 0.
-2.62436 -12.9226 0.
5.98568 12.3145 0.
4.93152 12.8336 0.
3.59504 9.44217 0.
3.03509 8.04388 0.
-0.312664 -0.84387 0.
-0.0845389 -10.3467 0.
-0.134685 -0.368053 0.
-33.7027 -92.1494 0.
-9.52047 -25.9899 0.
0.397069 1.08221 0.
-317.341 -874.572 0.
-100.764 -275.817 0.
-486.656 -1303.28 0.
-302.398 -816.086 0.
-164.965 -447.375 0.
-679.593 -1841.23 0.
-466.176 -1283.92 0.
-275.839 -762.565 0.
-752.793 -1987.02 0.
-532.449 -1428.8 0.
-337.434 -917.261 0.
-693.908 -1749.87 0.
-547.65 -1413.89 0.
-407.325 -1077.28 0.
-1206.94 -2167.4 0.
-1057.94 -1830.14 0.
-714.29 -1330.55 0.
-710.901 -1325.97 0.
-711.945 -1331.95 0.
-395.475 -1040.86 0.
-435.446 -1167.45 0.
-483.511 -1286.18 0.
-561.589 -1533.32 0.
-580.269 -1579.87 0.
-600.09 -1630.77 0.
-1248.62 -1832.24 0.
-1212.64 -1759.06 0.
-830.785 -1596.15 0.
-768.33 -1460.9 0.
-713.214 -1339.25 0.
-601.602 -1176.44 0.
-554.979 -1071.63 0.
-511.959 -973.536 0.
-389.204 -965.64 0.
-370.715 -905.82 0.
-352.858 -847.175 0.
-403.349 -1025.54 0.
-454.844 -1142.09 0.
-530.79 -1224.56 0.
-570.201 -1085.07 0.
-546.973 -1013.39 0.
-384.432 -973.359 0.
-391.382 -997.106 0.
-406.503 -1020.3 0.
-523.571 -1004.08 0.
-563.854 -1096.57 0.
-609.678 -1199.7 0.
-714.872 -1356.92 0.
-771.746 -1480.81 0.
-829.707 -1603.81 0.
-1119.88 -1756.22 0.
-1163.72 -1866.48 0.
-542.901 -1463.92 0.
-501.274 -1367.27 0.
-468.083 -1288.96 0.
-539.301 -1228.38 0.
-513.091 -1160.31 0.
-493.136 -1090.75 0.
-766.834 -1364.97 0.
-814.338 -1469.96 0.
-864.854 -1582.46 0.
-856.113 -1786.05 0.
-964.522 -2040.53 0.
-335.544 -892.545 0.
-538.234 -1405.57 0.
-748.055 -1912.86 0.
-299.744 -816.713 0.
-520.928 -1402.24 0.
-784.745 -2081.33 0.
-245.587 -679.575 0.
-411.363 -1128.79 0.
-590.874 -1599.23 0.
-102.601 -283.099 0.
-250.038 -686.542 0.
-420.401 -1148.23 0.
-68.7925 -188.425 0.
-230.882 -635.779 0.
3.41008 9.37024 0.
-0.0518107 -10.8389 0.
0.0346005 0.094387 0.
-1.83276 -4.89474 0.
1.42149 3.76176 0.
-0.262814 -11.0089 0.
-1.76185 -4.58723 0.
-0.326791 -9.85294 0.
-0.590055 -1.49141 0.
2.55457 5.57958 0.
-1.95642 -12.6689 0.
0.0838884 2.30934 0.
4.86931 9.57896 0.
4.96222 10.5931 0.
-5.21873 -13.4193 0.
-3.17046 -8.23371 0.
-2.39661 -6.28566 0.
0.312272 0.836994 0.
2.86214 7.72834 0.
3.39387 9.22689 0.
-197.705 -541.575 0.
-80.635 -220.639 0.
-4.46907 -12.2118 0.
-376.044 -1025.7 0.
-156.345 -422.382 0.
-407.426 -1107.23 0.
-225.598 -618.014 0.
-74.4668 -205.259 0.
-502.071 -1376.81 0.
-308.793 -854.356 0.
-120.869 -334.104 0.
-559.805 -1527.33 0.
-349.553 -962.746 0.
-160.875 -444.697 0.
-502.886 -1321.32 0.
-365.852 -972.894 0.
-254.314 -675.738 0.
-843.936 -1918.31 0.
-700.734 -1598.07 0.
-545.627 -1267.82 0.
-543.622 -1260.2 0.
-545.158 -1262.02 0.
-450.677 -1240.22 0.
-490.921 -1335.59 0.
-534.481 -1433.08 0.
-590.697 -1525.78 0.
-606.601 -1578.58 0.
-626.08 -1637.6 0.
-1099.04 -1729.32 0.
-1065.06 -1658.29 0.
-777.456 -1444.59 0.
-717.983 -1335 0.
-682.092 -1278.53 0.
-604.366 -1137.9 0.
-562.741 -1044.1 0.
-522.073 -950.626 0.
-404.541 -886.468 0.
-392.319 -833.765 0.
-391.198 -854.355 0.
-432.141 -908.253 0.
-476.483 -1013.72 0.
-542.732 -1080.16 0.
-608.142 -1051.25 0.
-578.775 -984.135 0.
-421.358 -932.646 0.
-409.32 -903.865 0.
-411.873 -915.468 0.
-519.386 -992.705 0.
-559.033 -1083.88 0.
-599.261 -1175.46 0.
-656.422 -1284.62 0.
-700.499 -1368.56 0.
-763.759 -1486.04 0.
-979.674 -1654.58 0.
-1022.78 -1760.22 0.
-587.597 -1562.62 0.
-543.293 -1468.28 0.
-504.815 -1369.52 0.
-555.402 -1334.81 0.
-524.677 -1274.49 0.
-494.868 -1210.52 0.
-528.294 -1248.84 0.
-575.715 -1354.76 0.
-624.496 -1467.96 0.
-593.658 -1547.75 0.
-713.839 -1788.67 0.
-163.463 -437.581 0.
-359.556 -962.252 0.
-562.218 -1480.33 0.
-107.544 -296.95 0.
-333.502 -920.186 0.
-595.191 -1625.49 0.
-99.6427 -275.018 0.
-264.039 -725.502 0.
-434.421 -1182.16 0.
-39.949 -110.539 0.
-193.941 -536.846 0.
-379.843 -1047.87 0.
-139.804 -378.857 0.
-303.962 -830.54 0.
-1.56385 -4.28609 0.
-27.6144 -75.4043 0.
-116.403 -316.639 0.
3.7832 10.0665 0.
-2.72742 -7.18745 0.
1.50969 3.93707 0.
-0.370211 -12.9087 0.
5.06575 12.9342 0.
2.89925 7.2829 0.
5.22399 11.7924 0.
-0.0395318 -0.0835708 0.
0.138654 4.87299 0.
3.20939 6.57544 0.
-198.331 -442.226 0.
-142.569 -361.183 0.
-183.396 -469.636 0.
-225.477 -583.903 0.
-314.937 -838.365 0.
-265.916 -713.851 0.
-223.347 -604.238 0.
-402.753 -1103.05 0.
-252.615 -691.995 0.
-162.402 -444.545 0.
-440.471 -1183.84 0.
-201.303 -533.895 0.
-285.154 -784.595 0.
-119.515 -330.945 0.
0.926288 2.5384 0.
-313.802 -863.52 0.
-126.551 -348.197 0.
-14.1488 -38.861 0.
-350.392 -970.008 0.
-151.329 -407.633 0.
-3.3012 -8.26151 0.
-372.332 -981.251 0.
-225.154 -569.946 0.
-101.865 -187.688 0.
-598.69 -1631.32 0.
-468.471 -1295.17 0.
-412.447 -1097.42 0.
-447.577 -1162.97 0.
-415.96 -1071.42 0.
-604.308 -1193.08 0.
-605.556 -1221.39 0.
-602.679 -1220.6 0.
-588.985 -1445.4 0.
-620.684 -1511.98 0.
-509.175 -1241.77 0.
-863.881 -1460.25 0.
-865.452 -1462.64 0.
-621.884 -1100.06 0.
-604.399 -1070.42 0.
-560.552 -1001.67 0.
-481.741 -792.206 0.
-461.798 -742.656 0.
-425.702 -656.64 0.
-354.894 -660.87 0.
-324.665 -579.67 0.
-300.203 -520.682 0.
-338.071 -529.209 0.
-377.382 -619.377 0.
-463.69 -718.022 0.
-486.247 -638.764 0.
-434.925 -516.327 0.
-329.695 -574.062 0.
-367.963 -668.385 0.
-381.466 -707.499 0.
-454.695 -799.359 0.
-481.808 -867.771 0.
-448.97 -787.915 0.
-499.374 -984.128 0.
-535.155 -1023.63 0.
-577.084 -1100.04 0.
-789.396 -1465.68 0.
-841.992 -1594.24 0.
-597.992 -1383.53 0.
-631.139 -1473.96 0.
-534.645 -1243.49 0.
-534.368 -1070.38 0.
-557.836 -1138.9 0.
-577.044 -1194.99 0.
-359.548 -995.381 0.
-414.067 -1136.4 0.
-454.738 -1238.91 0.
-450.033 -1213.09 0.
-512.896 -1360.35 0.
-2.70747 -2.43529 0.
-189.207 -476.744 0.
-366.762 -938.499 0.
-14.3069 -39.6071 0.
-145.465 -401.17 0.
-350.043 -969.54 0.
-0.00797994 -3.85762 0.
-108.49 -296.573 0.
-277.55 -754.695 0.
-0.0326517 -5.06318 0.
-138.509 -382.705 0.
-326.381 -903.987 0.
-214.834 -575.369 0.
-379.54 -1027.14 0.
-197.711 -540.498 0.
-276.733 -753.198 0.
-395.752 -1071.74 0.
-235.594 -625.884 0.
-240.113 -631.023 0.
-243.708 -633.102 0.
-250.035 -642.234 0.
-141.209 -357.136 0.
-52.7761 -131.426 0.
-92.7999 -217.221 0.
-0.797426 -7.02737 0.
6.73513 15.1864 0.
1.62169 2.79855 0.
-1.03042 -1.88453 0.
4.27763 8.97717 0.
-1.06025 -2.32482 0.
-0.10305 -0.235698 0.
4.30192 10.3304 0.
3.85488 9.46945 0.
2.56928 6.45071 0.
-38.971 -101.88 0.
-5.91729 -15.6855 0.
0.345713 0.928206 0.
-286.002 -757.559 0.
-261.297 -694.936 0.
-427.33 -1181.79 0.
-312.419 -864.848 0.
-199.893 -553.668 0.
-516.196 -1413.3 0.
-391.074 -1076.7 0.
-269.873 -745.885 0.
-684.727 -1877.01 0.
-552.86 -1530.22 0.
-436.344 -1203.81 0.
-803.807 -2199.05 0.
-625.86 -1728.94 0.
-451.539 -1249.79 0.
-981.906 -2651.39 0.
-849.385 -2319.43 0.
-805.62 -2097.05 0.
-735.15 -1947.26 0.
-669.622 -1796.33 0.
-970.775 -2009.29 0.
-949.785 -1981.55 0.
-929.848 -1949.36 0.
-797.573 -1884.54 0.
-807.773 -1905.88 0.
-820.528 -1938.17 0.
-1051.56 -1966.47 0.
-1037.97 -1940.51 0.
-799.638 -1739.65 0.
-818.748 -1768.72 0.
-846.359 -1839.56 0.
-911.022 -1793.48 0.
-924.944 -1828.97 0.
-940.108 -1866.78 0.
-910.967 -1839.54 0.
-909.435 -1858.05 0.
-914.424 -1875.7 0.
-887.401 -1715.51 0.
-886.605 -1720.17 0.
-897.796 -1738.44 0.
-984.639 -1742.94 0.
-970.769 -1699.95 0.
-901.03 -1807.7 0.
-906.798 -1808.91 0.
-915.1 -1809.1 0.
-894.214 -1843.43 0.
-883.094 -1813.81 0.
-870.958 -1778.79 0.
-770.289 -1834.43 0.
-764.892 -1799.02 0.
-755.255 -1782.75 0.
-1005.75 -1942.01 0.
-1004.86 -1933.67 0.
-842.754 -1918.86 0.
-854.764 -1943.2 0.
-867.894 -1967.22 0.
-875.402 -1918.94 0.
-901.555 -1965.03 0.
-931.244 -2017.28 0.
-636.923 -1740.51 0.
-690.71 -1861.59 0.
-750.907 -1991.86 0.
-788.075 -2144.81 0.
-970.509 -2609.91 0.
-444.253 -1216.46 0.
-612.121 -1695.44 0.
-789.366 -2170.36 0.
-364.544 -1009.55 0.
-488.819 -1350.81 0.
-622.769 -1707.29 0.
-228.834 -631.47 0.
-351.321 -968.33 0.
-475.033 -1307 0.
-195.957 -541.77 0.
-278.319 -770.661 0.
-360.205 -997.704 0.
-198.331 -524.065 0.
-196.253 -514.715 0.
0.31347 0.821321 0.
0.0641309 0.165209 0.
-1.93808 -4.90471 0.
-1.35949 -3.33383 0.
2.7864 6.62833 0.
1.87457 4.31536 0.
-1.56974 -3.4923 0.
-1.28417 -9.79416 0.
1.75049 3.56454 0.
0.376731 0.723052 0.
-1.93139 -8.56394 0.
5.87649 13.2505 0.
1.29538 2.21047 0.
-308.035 -561.488 0.
-18.1588 -37.5887 0.
-171.83 -372.835 0.
-320.78 -727.549 0.
-244.013 -573.503 0.
-273.983 -658.183 0.
-315.668 -774.896 0.
-361.706 -930.347 0.
-314.7 -823.473 0.
-280.339 -745.19 0.
-472.768 -1251.44 0.
-447.072 -1189.55 0.
-473.678 -1312.01 0.
-361.11 -999.971 0.
-248.579 -687.652 0.
-444.139 -1225.85 0.
-319.095 -883.44 0.
-198.708 -550.063 0.
-547.393 -1506.16 0.
-403.764 -1118.25 0.
-285.733 -787.366 0.
-652.641 -1805.36 0.
-478.719 -1324.73 0.
-307.273 -841.055 0.
-890.529 -2449.87 0.
-764.221 -2114.22 0.
-726.427 -1928.89 0.
-655.338 -1778.23 0.
-592.404 -1621.87 0.
-1014.63 -1875.72 0.
-995.907 -1844.39 0.
-978.821 -1812.45 0.
-808.72 -1863.92 0.
-820.039 -1889.55 0.
-833.474 -1925.28 0.
-996.761 -1930.38 0.
-984.226 -1907.79 0.
-698.878 -1692.33 0.
-698.904 -1693.19 0.
-722.868 -1739.57 0.
-904.514 -1780.45 0.
-918.521 -1817.3 0.
-932.829 -1854.31 0.
-957.442 -1798.77 0.
-957.549 -1817.92 0.
-959.971 -1834.4 0.
-926.698 -1709.49 0.
-925.667 -1718.47 0.
-902.104 -1690.83 0.
-1002.02 -1696.91 0.
-996 -1680.24 0.
-970.196 -1790.9 0.
-976.695 -1795.26 0.
-983.985 -1799.17 0.
-877.133 -1812.6 0.
-867.712 -1788.62 0.
-858.542 -1765.71 0.
-618.827 -1713.75 0.
-610.807 -1686.93 0.
-608.393 -1670.52 0.
-1007.09 -1934.5 0.
-1002.35 -1917.37 0.
-870.754 -1875.62 0.
-885.992 -1892.32 0.
-904.414 -1912.49 0.
-883.356 -1795.35 0.
-906.418 -1840.18 0.
-932.17 -1889.84 0.
-551.615 -1522.2 0.
-602.357 -1648.8 0.
-656.075 -1776.22 0.
-678.15 -1877 0.
-853.798 -2350.74 0.
-292.042 -794.118 0.
-461.698 -1276.28 0.
-635.278 -1757.31 0.
-245.808 -680.358 0.
-371.18 -1027.15 0.
-507.903 -1397.58 0.
-194.995 -539.913 0.
-316.042 -875.36 0.
-439.539 -1216.61 0.
-276.081 -763.303 0.
-357.664 -989.942 0.
-438.108 -1213.22 0.
-429.213 -1125.69 0.
-426.88 -1108.93 0.
-309.967 -800.192 0.
-327.03 -828.394 0.
-358.047 -889.338 0.
-323.772 -787.204 0.
-239.461 -565.585 0.
-174.269 -398.519 0.
-331.677 -720.97 0.
-171.423 -355.288 0.
-11.1427 -22.0385 0.
-80.0159 -151.166 0.
-11.5781 -20.9359 0.
5.02232 12.3355 0.
4.33769 7.60851 0.
-0.806973 -1.49179 0.
0.798317 1.64486 0.
3.61775 7.60702 0.
3.06453 6.57813 0.
0.760977 1.67178 0.
3.30563 7.38126 0.
2.11289 4.79268 0.
-0.115421 -0.271433 0.
0.6072 1.46141 0.
2.89177 7.11334 0.
-43.1101 -107.864 0.
-93.9448 -236.103 0.
-104.096 -281.873 0.
-85.8668 -231.843 0.
-67.6767 -182.069 0.
-260.13 -715.482 0.
-188.235 -516.396 0.
-125.812 -344.168 0.
-413.168 -1144.23 0.
-287.071 -794.87 0.
-173.459 -478.962 0.
-517 -1431.89 0.
-345.884 -954.186 0.
-181.28 -481.521 0.
-754.482 -2061.82 0.
-615.282 -1698.63 0.
-595.862 -1561.63 0.
-512.52 -1369.29 0.
-435.119 -1183.71 0.
-854.374 -1493.18 0.
-784.819 -1338.19 0.
-720.863 -1195.39 0.
-597.742 -1286.06 0.
-571.825 -1235.36 0.
-547.101 -1185.29 0.
-720.706 -1327.74 0.
-740.055 -1368.57 0.
-457.336 -1230.27 0.
-458.392 -1227.67 0.
-475.091 -1267.42 0.
-673.33 -1311.66 0.
-689.262 -1345.23 0.
-704.641 -1377.02 0.
-780.897 -1393.49 0.
-780.982 -1387.97 0.
-785.86 -1394.5 0.
-830.373 -1403.34 0.
-851.754 -1459.42 0.
-912.069 -1483.96 0.
-887.738 -1390.03 0.
-875.347 -1363.81 0.
-813.722 -1429.68 0.
-794.839 -1386.01 0.
-779.501 -1350.88 0.
-654.367 -1363.72 0.
-649.99 -1354.05 0.
-646.049 -1344.78 0.
-443.237 -1197.53 0.
-421.576 -1148.87 0.
-402.932 -1106.03 0.
-774.926 -1397.89 0.
-767.886 -1383.78 0.
-660.07 -1240.46 0.
-681.231 -1277.32 0.
-704.133 -1317.73 0.
-651.258 -1262.87 0.
-707.41 -1378.95 0.
-797.759 -1580.89 0.
-423.22 -1159.71 0.
-483.599 -1302.96 0.
-551.729 -1455.55 0.
-516.503 -1430.58 0.
-685.228 -1889.64 0.
-139.559 -371.482 0.
-319.395 -879.521 0.
-501.592 -1389.14 0.
-141.348 -390.343 0.
-256.122 -708.714 0.
-370.561 -1026.29 0.
-93.7948 -253.407 0.
-144.779 -392.46 0.
-206.982 -562.553 0.
-46.9833 -127.454 0.
-58.7193 -159.651 0.
-70.8828 -193.094 0.
-74.1326 -180.099 0.
0.079042 0.188723 0.
-3.88852 -9.16827 0.
3.57673 8.23905 0.
0.545521 1.22613 0.
0.580246 1.30378 0.
2.49272 5.53196 0.
-1.13236 -2.48215 0.
-0.123188 -0.259744 0.
-0.8599 -1.76275 0.
-1.17108 -6.81095 0.
-0.0696039 -0.134193 0.
4.0046 7.35454 0.
-0.408917 -7.86915 0.
-1.78982 -6.88492 0.
3.59092 6.68972 0.
-0.107455 -0.217505 0.
-1.31084 -2.70894 0.
-0.012337 -0.026046 0.
1.79267 3.91702 0.
3.20276 7.1151 0.
-64.8012 -146.134 0.
-96.9077 -227.659 0.
-79.7872 -191.899 0.
-64.5896 -158.885 0.
-204.072 -505.86 0.
-252.382 -628.231 0.
-197.482 -531.804 0.
-179.64 -482.631 0.
-161.325 -432.198 0.
-311.612 -856.664 0.
-231.464 -635.105 0.
-168.273 -460.98 0.
-417.024 -1154.39 0.
-290.867 -803.155 0.
-163.104 -448.241 0.
-461.753 -1273.66 0.
-294.927 -797.824 0.
-130.025 -321.32 0.
-655.07 -1811.86 0.
-520.831 -1441.73 0.
-516.593 -1392.4 0.
-439.104 -1199.66 0.
-365.893 -1009.22 0.
-651.475 -1344.66 0.
-582.559 -1189.06 0.
-519.132 -1043.94 0.
-540.294 -1203.41 0.
-515.797 -1152.65 0.
-494.275 -1108.74 0.
-754.518 -1329.15 0.
-776.004 -1374.21 0.
-499.397 -1225.38 0.
-490.418 -1229.76 0.
-497.108 -1261.12 0.
-640.432 -1267.48 0.
-649.568 -1308.79 0.
-658.598 -1345.37 0.
-727.756 -1288.45 0.
-738.057 -1315.6 0.
-751.939 -1349.55 0.
-865.095 -1372.29 0.
-872.053 -1386.75 0.
-881.251 -1393.15 0.
-899.944 -1376.7 0.
-885.45 -1346.36 0.
-734.558 -1385.28 0.
-716.194 -1326.99 0.
-704.818 -1272.07 0.
-614.763 -1327.6 0.
-611.261 -1319.61 0.
-616.496 -1301.47 0.
-470.526 -1246.79 0.
-447.233 -1200.72 0.
-427.087 -1160.38 0.
-795.875 -1401.24 0.
-787.362 -1387.07 0.
-556.589 -1145.08 0.
-577.083 -1180.76 0.
-598.175 -1217.63 0.
-455.572 -1058.3 0.
-519.655 -1201.51 0.
-608.867 -1406.97 0.
-339.54 -933.564 0.
-395.661 -1076.82 0.
-459.746 -1232.3 0.
-429.256 -1176.69 0.
-591.495 -1637.11 0.
-110.776 -285.961 0.
-292.861 -795.662 0.
-475.253 -1310.58 0.
-163.787 -451.326 0.
-278.267 -768.488 0.
-392.993 -1087.24 0.
-155.229 -421.3 0.
-208.311 -566.032 0.
-292.802 -796.877 0.
-153.998 -412.62 0.
-166.036 -445.929 0.
-178.971 -481.672 0.
-247.128 -601.525 0.
-163.48 -392.451 0.
-77.9664 -183.235 0.
-51.8994 -118.94 0.
-26.8082 -59.8847 0.
-45.7406 -101.094 0.
-0.228749 -0.499586 0.
-1.47425 -3.18025 0.
-9.05612 -18.9455 0.
3.17793 6.4591 0.
0.867026 1.71051 0.
-1.18737 -6.03662 0.
3.63318 6.62569 0.
0.139148 2.79921 0.
-0.768964 -1.36065 0.
-203.006 -376.531 0.
1.16199 2.30752 0.
-133.355 -270.55 0.
-321.872 -671.484 0.
-115.058 -249.5 0.
-232.951 -515.688 0.
-345.984 -782.489 0.
-307.498 -718.98 0.
-287.046 -687.096 0.
-269.964 -661.192 0.
-366.082 -901.184 0.
-413.024 -1023.9 0.
-290.883 -780.652 0.
-274.383 -735.11 0.
-252.765 -675.753 0.
-332.593 -913.361 0.
-250.563 -687.082 0.
-194.334 -532.369 0.
-395.925 -1093.12 0.
-248.823 -684.248 0.
-127.932 -350.194 0.
-410.275 -1115.39 0.
-238.908 -622.674 0.
-70.9186 -156.07 0.
-553.88 -1531.15 0.
-398.543 -1093.7 0.
-391.899 -1077.37 0.
-343.819 -949.245 0.
-281.802 -778.155 0.
-431.183 -1145.04 0.
-386.054 -1050.14 0.
-334.9 -926.937 0.
-495.108 -1156.16 0.
-472.983 -1089.78 0.
-429.006 -966.134 0.
-786.025 -1285.94 0.
-780.706 -1274.05 0.
-424.35 -975.264 0.
-445.63 -1032.67 0.
-450.259 -1055.1 0.
-483.944 -943.769 0.
-497.073 -981.851 0.
-497.976 -989.566 0.
-580.86 -913.264 0.
-600.228 -972.102 0.
-606.308 -995.246 0.
-748.711 -952.662 0.
-767.661 -1000.98 0.
-760.162 -1014.98 0.
-768.727 -985.286 0.
-753.452 -944.433 0.
-566.18 -1022.49 0.
-551.344 -977.458 0.
-520.604 -892.505 0.
-474.488 -998.68 0.
-493.776 -1039.09 0.
-493.019 -1031.33 0.
-485.135 -1155.67 0.
-480.104 -1135.59 0.
-441.404 -1034.92 0.
-807.564 -1329.36 0.
-789.554 -1291.06 0.
-423.163 -966.521 0.
-484.047 -1122.17 0.
-510.84 -1188.91 0.
-293.642 -811.879 0.
-352.588 -975.528 0.
-414.76 -1135.21 0.
-247.211 -671.246 0.
-294.9 -802.2 0.
-329.13 -889.078 0.
-315.665 -833.249 0.
-499.829 -1363.25 0.
-67.6962 -170.664 0.
-243.259 -647.655 0.
-410.135 -1119.4 0.
-132.366 -364.322 0.
-263.697 -726.67 0.
-402.95 -1112.64 0.
-213.84 -580.89 0.
-269.644 -732.566 0.
-332.685 -904.179 0.
-263.249 -699.254 0.
-275.838 -733.862 0.
-288.289 -768.117 0.
-423.651 -1030.01 0.
-342.688 -822.346 0.
-301.642 -710.686 0.
-280.76 -644.607 0.
-256.1 -572.02 0.
-318.901 -697.443 0.
-191.577 -412.248 0.
-62.5213 -132.583 0.
-330.232 -675.56 0.
-88.9522 -178.005 0.
-12.4845 -24.344 0.
-117.626 -224.867 0.
-10.1585 -18.3832 0.
0.430917 3.57954 0.
-2.59362 -6.34293 0.
-37.4166 -58.3286 0.
-0.376536 -0.623168 0.
0.810949 1.40216 0.
-41.5704 -75.3109 0.
-1.86186 -3.602 0.
-1.87522 -3.73312 0.
-97.184 -199.723 0.
-43.2653 -91.1102 0.
-69.9141 -149.288 0.
-99.3597 -214.912 0.
-189.434 -424.879 0.
-280.953 -646.455 0.
-198.088 -505.404 0.
-209.553 -539.495 0.
-223.035 -579.22 0.
-295.9 -796.839 0.
-264.361 -712.517 0.
-235.462 -635.132 0.
-426.918 -1172.06 0.
-345.012 -945.392 0.
-273.169 -746.301 0.
-546.805 -1507.59 0.
-447.73 -1230.42 0.
-347.993 -951.917 0.
-806.897 -2234.37 0.
-689.753 -1907.96 0.
-669.937 -1824.76 0.
-591.549 -1632.06 0.
-522.347 -1446.38 0.
-697.065 -1877.5 0.
-645.032 -1752.64 0.
-596.921 -1632.57 0.
-809.754 -1952.64 0.
-784.343 -1899.9 0.
-764.774 -1861.68 0.
-1149.58 -2086.42 0.
-1144.51 -2070.67 0.
-783.06 -1766.54 0.
-754.092 -1706.74 0.
-730.018 -1659.97 0.
-686.97 -1497.18 0.
-679.372 -1489.08 0.
-673.646 -1483.97 0.
-747.526 -1381.94 0.
-769.957 -1442.34 0.
-793.457 -1505.1 0.
-1040.97 -1558.16 0.
-1060.49 -1609.67 0.
-1013.93 -1632.07 0.
-1007.44 -1607.72 0.
-998.782 -1580.09 0.
-785.228 -1589.16 0.
-754.749 -1508.05 0.
-726.797 -1432.43 0.
-682.651 -1542.45 0.
-681.141 -1530.08 0.
-681.595 -1520.79 0.
-742.919 -1679.1 0.
-766.475 -1723.33 0.
-791.98 -1768.63 0.
-1144.14 -2070.49 0.
-1177.2 -2151.95 0.
-722.55 -1806.41 0.
-744.873 -1857.46 0.
-775.137 -1930.14 0.
-539.125 -1493.25 0.
-590.552 -1630.43 0.
-649.682 -1777.52 0.
-480.915 -1331.43 0.
-580.848 -1594.09 0.
-683.481 -1848.53 0.
-644.913 -1774.14 0.
-747.041 -2064.93 0.
-317.132 -864.472 0.
-407.351 -1113.92 0.
-497.841 -1364.82 0.
-224.102 -607.921 0.
-300.593 -818.186 0.
-385.259 -1051.08 0.
-220.044 -582.834 0.
-237.198 -626.954 0.
-259.066 -683.385 0.
-200.824 -515.9 0.
-176.962 -449.42 0.
-151.831 -381.123 0.
-248.027 -548.914 0.
-132.659 -286.569 0.
-101.849 -211.064 0.
-53.4293 -108.777 0.
-22.8515 -45.6172 0.
-89.966 -176.629 0.
-2.83269 -5.35598 0.
2.9676 5.43008 0.
-45.3373 -79.0488 0.
-2.09335 -3.49964 0.
0.781834 1.25388 0.
0.283603 0.45076 0.
-0.0851635 -0.13299 0.
5.09118 10.9745 0.
-36.9447 -54.1326 0.
-187.777 -288.552 0.
3.52291 5.73814 0.
-162.37 -279.365 0.
-318.73 -577.157 0.
-130.241 -249.751 0.
-249.897 -493.237 0.
-370.038 -749.724 0.
-265.611 -547.93 0.
-285.868 -596.182 0.
-313.501 -660.846 0.
-360.091 -811.704 0.
-448.441 -1039.14 0.
-349.719 -888.254 0.
-360.552 -924.588 0.
-372.721 -964.744 0.
-401.02 -1072.75 0.
-368.928 -987.954 0.
-340.298 -912.195 0.
-475.592 -1298.84 0.
-391.715 -1067.14 0.
-318.233 -863.82 0.
-536.615 -1474.65 0.
-437.278 -1197.03 0.
-337.493 -919.301 0.
-743.335 -2056.59 0.
-628.319 -1726.15 0.
-572.335 -1574.01 0.
-494.36 -1368.99 0.
-429.48 -1184.42 0.
-610.959 -1677.2 0.
-562.325 -1556.31 0.
-517.232 -1431.88 0.
-786.941 -1856.06 0.
-761.041 -1802.09 0.
-744.324 -1770.09 0.
-1187.37 -2095.8 0.
-1172.86 -2062.1 0.
-794.918 -1744.08 0.
-766.612 -1686.6 0.
-742.941 -1640.76 0.
-639.473 -1429.56 0.
-630.384 -1424.88 0.
-622.885 -1419.01 0.
-680.686 -1299.09 0.
-703.578 -1357.89 0.
-726.591 -1416.83 0.
-1075.32 -1552.05 0.
-1094.55 -1604.35 0.
-986.742 -1616.25 0.
-973.363 -1587.34 0.
-965.876 -1561.3 0.
-723.556 -1498.02 0.
-693.583 -1419 0.
-666.127 -1346.84 0.
-641.191 -1488.72 0.
-641.079 -1474.96 0.
-643.121 -1463.38 0.
-773.14 -1651.43 0.
-797.974 -1697.27 0.
-824.464 -1743.15 0.
-1166.23 -2041.43 0.
-1213.21 -2166.7 0.
-657.713 -1677.4 0.
-680.495 -1733.26 0.
-713.37 -1813.83 0.
-456.747 -1262.15 0.
-503.824 -1395.24 0.
-558.495 -1539.53 0.
-380.543 -1052.3 0.
-476.106 -1316.93 0.
-576.379 -1580.92 0.
-600.303 -1638.74 0.
-700.272 -1926.63 0.
-322.854 -877.561 0.
-413.177 -1126.69 0.
-504.172 -1378.4 0.
-285.219 -766.986 0.
-365.5 -987.241 0.
-452.944 -1227.2 0.
-349.762 -920.549 0.
-367.705 -965.096 0.
-390.679 -1022.69 0.
-367.776 -938.445 0.
-345.991 -871.626 0.
-323.882 -805.096 0.
-445.531 -984.179 0.
-333.339 -714.54 0.
-324.761 -657.226 0.
-282.427 -563.669 0.
-239.273 -470.658 0.
-364.926 -705.292 0.
-206.069 -387.13 0.
-90.1785 -163.562 0.
-325.863 -557.588 0.
-154.83 -253.563 0.
-3.83954 -6.02884 0.
-54.3181 -84.9568 0.
-34.6787 -53.2453 0.
-0.273799 -4.67954 0.
2.70113 4.1957 0.
3.18832 5.05418 0.
-1.80452 -2.95795 0.
2.39478 4.04745 0.
-2.52842 -4.39997 0.
0.0789086 0.143544 0.
3.79491 7.0156 0.
-7.29907 -13.7065 0.
1.2128 2.29251 0.
2.27289 4.33505 0.
-17.9314 -34.5253 0.
-37.3557 -78.141 0.
-111.905 -242.149 0.
-18.0802 -43.3323 0.
-47.9607 -116.164 0.
-84.4392 -206.463 0.
-103.099 -258.494 0.
-88.9626 -223.921 0.
-78.2302 -197.686 0.
-199.011 -527.938 0.
-159.417 -423.79 0.
-120.086 -319.896 0.
-325.601 -878.082 0.
-244.947 -657.474 0.
-165.624 -441.771 0.
-526.693 -1444.94 0.
-446.305 -1217.37 0.
-409.554 -1114.92 0.
-346.082 -950.67 0.
-289.11 -799.287 0.
-506.5 -1351.46 0.
-436.293 -1185.62 0.
-369.289 -1018.61 0.
-634.747 -1435.4 0.
-573.934 -1293.01 0.
-516.662 -1157.07 0.
-925.179 -1556.39 0.
-883.651 -1455.99 0.
-506.339 -1086.99 0.
-521.657 -1129.4 0.
-541.999 -1184.51 0.
-440.267 -976.412 0.
-441.234 -992.065 0.
-444.504 -1010.69 0.
-490.584 -904.551 0.
-483.443 -892.341 0.
-479.805 -888.719 0.
-858.673 -1059.69 0.
-857.756 -1054.41 0.
-736.455 -1034.38 0.
-704.387 -991.605 0.
-705.048 -994.784 0.
-462.28 -926.394 0.
-455.987 -902.383 0.
-456.3 -895.399 0.
-444.646 -1060.86 0.
-441.22 -1041.36 0.
-441.979 -1025.67 0.
-588.107 -1207.31 0.
-579.893 -1175.71 0.
-573.353 -1148.93 0.
-882.509 -1477.79 0.
-931.585 -1596.68 0.
-451.779 -1164.82 0.
-510.821 -1309.26 0.
-574.059 -1461.34 0.
-334.756 -923.689 0.
-407.872 -1114.67 0.
-483.157 -1304.69 0.
-257.986 -714.488 0.
-317.129 -877.853 0.
-379.427 -1047.59 0.
-418.811 -1114.94 0.
-493.273 -1327.39 0.
-140.89 -377.239 0.
-216.328 -578.857 0.
-294.44 -788.39 0.
-89.3618 -232.08 0.
-128.927 -334.136 0.
-168.847 -436.348 0.
-80.2287 -195.236 0.
-80.4367 -195.598 0.
-82.8732 -201.396 0.
-68.8248 -166.583 0.
-29.9961 -71.3777 0.
-14.4675 -33.7944 0.
-99.5274 -202.156 0.
2.11719 4.15429 0.
-2.03499 -3.74784 0.
-2.06383 -3.77111 0.
1.98427 3.59923 0.
-8.77158 -15.9462 0.
-1.66303 -2.97734 0.
2.01241 3.54778 0.
-17.5108 -29.9402 0.
0.923378 1.54801 0.
0.323647 0.530614 0.
2.08271 3.37393 0.
-1.55321 -4.22645 0.
-0.00430626 -0.0706521 0.
1.60196 2.47931 0.
-30.9235 -48.7401 0.
-0.0768549 -0.127132 0.
-0.722455 -1.23311 0.
-102.317 -178.317 0.
2.56809 4.63248 0.
-12.8097 -23.4749 0.
-147.25 -274.094 0.
-39.4061 -73.3072 0.
-88.093 -166.052 0.
-134.595 -257.873 0.
-186.419 -396.742 0.
-255.901 -560.074 0.
-142.794 -339.927 0.
-177.964 -427.778 0.
-212.666 -516.552 0.
-212.369 -530.484 0.
-197.557 -496.031 0.
-185.699 -468.743 0.
-274.966 -723.743 0.
-235.132 -620.089 0.
-194.856 -514.805 0.
-371.227 -996.319 0.
-291.161 -778.535 0.
-209.332 -557.139 0.
-528.292 -1435.42 0.
-445.705 -1199.85 0.
-367.07 -1009.48 0.
-305.334 -844.059 0.
-248.636 -688.678 0.
-438.074 -1185.6 0.
-370.095 -1015.27 0.
-305.162 -844.425 0.
-543.013 -1300.2 0.
-484.047 -1155.21 0.
-430.249 -1019.26 0.
-822.138 -1498.65 0.
-776.11 -1399.4 0.
-504.121 -1055.3 0.
-509.715 -1076.65 0.
-526.586 -1127.45 0.
-455.499 -930.559 0.
-457.218 -950.619 0.
-460.699 -972.725 0.
-498.427 -881.941 0.
-489.831 -870.496 0.
-485.276 -868.38 0.
-818.975 -1027.95 0.
-818.399 -1023.11 0.
-723.639 -969.29 0.
-701.219 -961.769 0.
-701.542 -964.453 0.
-486.144 -940.839 0.
-480.074 -913.218 0.
-480.664 -901.855 0.
-469.599 -1041.76 0.
-460.213 -998.347 0.
-461.436 -976.873 0.
-552.832 -1158.29 0.
-545.241 -1126.6 0.
-538.247 -1098.48 0.
-761.488 -1427.26 0.
-821.031 -1515.48 0.
-365.622 -999.282 0.
-423.413 -1147.32 0.
-485.649 -1299.26 0.
-273.259 -755.713 0.
-344.658 -948.104 0.
-417.731 -1139.47 0.
-230.375 -634.828 0.
-288.339 -797.939 0.
-350.561 -970.953 0.
-423.969 -1114.08 0.
-499.527 -1330.13 0.
-197.119 -526.072 0.
-274.634 -731.719 0.
-356.096 -948.563 0.
-174.168 -449.916 0.
-214.339 -552.128 0.
-253.949 -652.084 0.
-198.308 -482.482 0.
-198.538 -481.653 0.
-202.547 -490.159 0.
-202.727 -485.992 0.
-164.226 -387.818 0.
-126.372 -293.595 0.
-252.952 -524.757 0.
-151.098 -302.28 0.
-127.445 -233.627 0.
-56.6478 -102.369 0.
3.57993 6.41765 0.
-137.167 -244.432 0.
1.7484 3.10183 0.
-0.943067 -1.64627 0.
-98.2614 -166.44 0.
-7.07033 -11.8532 0.
2.88216 4.7281 0.
-3.86017 -6.2634 0.
1.2599 1.95826 0.
2.52908 6.08993 0.
0.846958 1.30583 0.
-159.872 -248.35 0.
-9.5422 -15.9227 0.
-112.768 -191.792 0.
-260.098 -449.711 0.
-35.1345 -62.7648 0.
-170.888 -310.806 0.
-302.875 -563.4 0.
-182.593 -338.179 0.
-231.004 -435.371 0.
-279.008 -535.087 0.
-335.46 -718.42 0.
-401.902 -882.216 0.
-273.161 -645.198 0.
-308.098 -737.082 0.
-341.96 -829.45 0.
-324.397 -808.118 0.
-306.929 -769.119 0.
-293.856 -740.927 0.
-352.69 -921.315 0.
-305.282 -799.053 0.
-246.153 -645.299 0.
-372.034 -992.549 0.
-293.633 -780.976 0.
-210.715 -558.749 0.
-481.827 -1289.12 0.
-409.732 -1080.57 0.
-296.824 -821.221 0.
-232.942 -645.161 0.
-163.679 -451.917 0.
-326.253 -886.544 0.
-277.217 -760.765 0.
-223.072 -615.202 0.
-444.814 -1133.23 0.
-395.616 -993.651 0.
-335.55 -805.479 0.
-684.271 -1355.33 0.
-624.178 -1210.75 0.
-464.393 -880.044 0.
-492.51 -972.184 0.
-503.281 -998.321 0.
-442.961 -827.791 0.
-470.107 -896.496 0.
-472.445 -907.637 0.
-499.44 -815.918 0.
-492.949 -804.48 0.
-474.025 -763.486 0.
-712.723 -813.655 0.
-703.974 -795.543 0.
-585.632 -710.372 0.
-632.706 -756.013 0.
-647.055 -787.246 0.
-466.795 -803.471 0.
-478.951 -827.085 0.
-477.173 -818.438 0.
-468.696 -937.517 0.
-462.424 -918.625 0.
-430.769 -839.399 0.
-470.384 -996.949 0.
-465.255 -976.456 0.
-448.796 -924.018 0.
-599.979 -1271.41 0.
-674.829 -1448.46 0.
-285.358 -753.775 0.
-341.376 -939.511 0.
-404.13 -1108.43 0.
-200.3 -552.372 0.
-261.391 -719.743 0.
-310.297 -849.848 0.
-167.56 -452.338 0.
-241.499 -662.998 0.
-301.238 -832.241 0.
-391.314 -1009.1 0.
-463.063 -1214.91 0.
-209.022 -556.314 0.
-286.412 -759.694 0.
-376.409 -996.931 0.
-256.401 -658.915 0.
-301.698 -772.909 0.
-342.337 -873.923 0.
-314.66 -766.636 0.
-318.779 -772.898 0.
-323.729 -781.278 0.
-338.878 -805.866 0.
-301.464 -705.113 0.
-264.224 -607.809 0.
-404.982 -849.507 0.
-306.807 -624.963 0.
-275.9 -508.694 0.
-205.372 -371.951 0.
-132.231 -235.437 0.
-293.178 -514.956 0.
-157.374 -272.509 0.
-19.0595 -32.8758 0.
-231.533 -387.904 0.
-58.7694 -97.9651 0.
-3.37203 -5.53022 0.
-75.3062 -121.553 0.
-9.16606 -14.2343 0.
-1.32554 -9.18199 0.
-15.6457 -21.2128 0.
-81.9113 -115.547 0.
2.12073 3.18911 0.
-16.4352 -25.2489 0.
-133.994 -210.866 0.
-1.91628 -3.08458 0.
-49.0098 -82.1143 0.
-148.421 -258.012 0.
-8.81918 -15.2564 0.
-72.0715 -125.724 0.
-136.849 -239.822 0.
-184.385 -352.798 0.
-234.115 -454.488 0.
-111.942 -238.259 0.
-158.256 -348.856 0.
-201.763 -460.502 0.
-192.224 -452.859 0.
-213.295 -511.859 0.
-235.223 -574.725 0.
-282.981 -718.124 0.
-260.849 -663 0.
-242.885 -618.421 0.
-380.977 -996.792 0.
-337.067 -884.066 0.
-293.204 -771.177 0.
-603.56 -1621.38 0.
-594.75 -1593.52 0.
-520.81 -1442.5 0.
-467.755 -1294.29 0.
-417.362 -1151.44 0.
-547.906 -1511.18 0.
-476.171 -1317.54 0.
-405.297 -1122.5 0.
-587.408 -1600.44 0.
-530.247 -1456.53 0.
-477.512 -1319.75 0.
-933.838 -1959.03 0.
-908.629 -1895.75 0.
-764.574 -1608.93 0.
-753.818 -1612.22 0.
-750.318 -1611.08 0.
-732.603 -1455.9 0.
-728.914 -1456.67 0.
-727.338 -1461.03 0.
-734.411 -1373.06 0.
-730.935 -1366.9 0.
-727.078 -1358.59 0.
-916.325 -1393.45 0.
-900.291 -1359.26 0.
-787.761 -1259.12 0.
-809.229 -1280.04 0.
-816.956 -1296.1 0.
-703.98 -1316.48 0.
-728.583 -1369.76 0.
-752.282 -1419.94 0.
-751.767 -1564.08 0.
-747.173 -1543.92 0.
-743.84 -1522.2 0.
-733.263 -1607.67 0.
-742.868 -1601.77 0.
-755.084 -1598.16 0.
-841.019 -1920.4 0.
-882.202 -2020.09 0.
-449.526 -1242.01 0.
-515.821 -1417.44 0.
-585.336 -1597.73 0.
-395.475 -1095.35 0.
-459.871 -1272.74 0.
-525.808 -1451.76 0.
-400.647 -1103.69 0.
-438.923 -1212.55 0.
-477.117 -1320.2 0.
-538.582 -1421.25 0.
-547.88 -1445.88 0.
-260.055 -672.593 0.
-306.591 -791.784 0.
-353.507 -911.671 0.
-227.882 -568.832 0.
-238.478 -592.158 0.
-259.875 -642.32 0.
-228.209 -539.461 0.
-196.123 -453.08 0.
-163.336 -368.204 0.
-182.285 -398.444 0.
-137.247 -291.665 0.
-92.4654 -191.858 0.
-220.637 -411.391 0.
-138.898 -254.536 0.
-134.641 -229.153 0.
-64.1884 -108.058 0.
-8.02944 -13.3129 0.
-150.171 -247.161 0.
-36.1582 -57.4925 0.
2.0216 3.09815 0.
-101.651 -150.045 0.
-0.739411 -1.06261 0.
-1.6128 -2.25333 0.
-27.7027 -38.9812 0.
-27.8827 -38.7275 0.
-1.24064 -8.38479 0.
-51.5992 -69.6578 0.
-116.439 -163.762 0.
-11.7985 -17.4527 0.
-131.936 -200.139 0.
-249.608 -387.884 0.
-113.639 -182.385 0.
-211.884 -352.066 0.
-310.829 -533.046 0.
-168.577 -288.875 0.
-234.253 -403.059 0.
-298.014 -515.156 0.
-310.884 -583.088 0.
-361.574 -691.008 0.
-251.914 -539.893 0.
-292.001 -650.674 0.
-332.808 -768.295 0.
-318.416 -753.734 0.
-340.18 -820.521 0.
-365.143 -897.181 0.
-363.745 -913.956 0.
-341.159 -858.722 0.
-325.403 -820.758 0.
-422.494 -1097.3 0.
-377.242 -981.844 0.
-334.126 -871.645 0.
-607.578 -1639.56 0.
-600.496 -1617.23 0.
-514.63 -1424.4 0.
-461.415 -1274.59 0.
-409.217 -1125.85 0.
-505.94 -1401.27 0.
-435.518 -1205.18 0.
-367.515 -1011.52 0.
-534.767 -1470.77 0.
-479.732 -1326.12 0.
-429.598 -1189.91 0.
-913.686 -1925.31 0.
-886.844 -1858.12 0.
-762.915 -1505.81 0.
-757.261 -1524.18 0.
-753.595 -1544.31 0.
-752.754 -1422.93 0.
-747.329 -1425.97 0.
-744.303 -1430.65 0.
-724.944 -1347.78 0.
-721.239 -1338.97 0.
-718.015 -1330.02 0.
-856.814 -1356.99 0.
-839.387 -1319.25 0.
-722.319 -1220.12 0.
-750.479 -1245.98 0.
-759.645 -1267.6 0.
-719.322 -1301.15 0.
-740.438 -1344.19 0.
-765.244 -1396.32 0.
-770.376 -1525.63 0.
-768.228 -1502.07 0.
-768.909 -1476.93 0.
-706.896 -1503.58 0.
-715.961 -1500.2 0.
-725.746 -1494.49 0.
-804.738 -1861.92 0.
-847.112 -1969.73 0.
-396.939 -1099.37 0.
-462.035 -1278.16 0.
-529.687 -1459.69 0.
-359.697 -992.674 0.
-423.396 -1172.21 0.
-488.077 -1351.73 0.
-404.027 -1111.86 0.
-442.616 -1221.56 0.
-481.301 -1330.76 0.
-551.168 -1464.63 0.
-561.157 -1490.61 0.
-311.142 -792.065 0.
-356.249 -906.734 0.
-403.265 -1026.04 0.
-321.641 -797.973 0.
-336.868 -831.13 0.
-369.007 -905.998 0.
-356.686 -853.599 0.
-327.238 -765.939 0.
-296.579 -677.746 0.
-328.518 -718.171 0.
-288.253 -609.434 0.
-247.636 -506.12 0.
-362.572 -665.468 0.
-283.198 -508.612 0.
-299.452 -500.148 0.
-226.686 -375.948 0.
-154.938 -254.863 0.
-296.835 -484.852 0.
-185.907 -293.341 0.
-76.7244 -116.824 0.
-228.641 -333.496 0.
-80.3975 -114.22 0.
3.86995 5.34769 0.
-37.2601 -52.4054 0.
-40.9279 -56.822 0.
0.202238 2.45936 0.
2.42929 3.40815 0.
-25.731 -36.2525 0.
-1.54434 -3.45858 0.
3.03017 4.45535 0.
-16.31 -24.4829 0.
2.11957 3.32928 0.
1.08702 1.7444 0.
-34.8195 -56.9003 0.
-1.79468 -5.32618 0.
0.739984 1.201 0.
-32.698 -53.7417 0.
-57.5113 -102.7 0.
-110.117 -202.623 0.
-24.6302 -51.0634 0.
-52.8771 -112.682 0.
-78.6825 -171.682 0.
-48.3172 -106.282 0.
-74.9075 -166.431 0.
-100.262 -225.17 0.
-113.114 -261.617 0.
-121.822 -285.047 0.
-133.888 -317.06 0.
-220.574 -542.154 0.
-182.266 -449.791 0.
-148.89 -369.347 0.
-382.479 -1000.99 0.
-354.649 -931.569 0.
-249.852 -690.339 0.
-230.406 -635.946 0.
-213.38 -588.066 0.
-327.025 -905.354 0.
-284.567 -788.026 0.
-241.366 -668.515 0.
-410.901 -1096.63 0.
-341.887 -916.507 0.
-275.097 -741.87 0.
-704.681 -1522.42 0.
-659.876 -1419.74 0.
-542.094 -1007.97 0.
-545.923 -1018.95 0.
-552.254 -1037.21 0.
-568.1 -1015.66 0.
-565.035 -1016.06 0.
-561.45 -1014.31 0.
-561.191 -989.082 0.
-550.12 -965.252 0.
-541.987 -949.553 0.
-719.374 -1063.97 0.
-709.333 -1039.39 0.
-566.809 -937.794 0.
-611.391 -985.131 0.
-627.339 -1019.68 0.
-585.187 -1006.45 0.
-583.454 -998.307 0.
-587.611 -1006.31 0.
-559.579 -1055 0.
-567.858 -1064.01 0.
-576.269 -1072.13 0.
-490.724 -1018.69 0.
-492.953 -1024.25 0.
-495.162 -1029.73 0.
-575.59 -1426.43 0.
-621.721 -1535.01 0.
-247.663 -671.156 0.
-316.046 -855.788 0.
-384.688 -1041.03 0.
-220.696 -611.289 0.
-261.02 -722.979 0.
-300.705 -832.896 0.
-200.415 -549.003 0.
-212.472 -583.398 0.
-228.249 -627.883 0.
-317.123 -815.912 0.
-350.33 -896.675 0.
-133.751 -321.418 0.
-157.823 -377.115 0.
-186.825 -444.173 0.
-112.417 -257.646 0.
-97.7524 -221.884 0.
-81.913 -184.474 0.
-91.7275 -204.143 0.
-66.3088 -146.54 0.
-41.1498 -90.2233 0.
-79.1376 -164.913 0.
-44.6866 -90.3401 0.
-19.1597 -37.4339 0.
-104.406 -183.262 0.
-28.888 -48.7684 0.
-37.9841 -59.6626 0.
-0.161863 -0.251747 0.
-0.839092 -1.29422 0.
-34.3913 -53.759 0.
3.18976 4.90926 0.
2.04901 3.09543 0.
-51.7499 -76.0584 0.
-11.1327 -16.1223 0.
2.69972 3.85027 0.
0.713419 1.03771 0.
0.960119 1.35315 0.
3.24215 7.47193 0.
2.05018 2.87094 0.
-32.9022 -46.2698 0.
0.0943761 0.134258 0.
-14.8329 -21.5549 0.
-104.785 -155.001 0.
3.36075 5.29442 0.
-49.0069 -78.5983 0.
-134.508 -220.133 0.
-27.7341 -44.3443 0.
-86.6278 -140.643 0.
-145.308 -240.051 0.
-177.403 -321.424 0.
-227.715 -423.166 0.
-131.183 -272.435 0.
-157.622 -334.061 0.
-183.853 -397.341 0.
-145.832 -318.867 0.
-171.152 -379.001 0.
-196.139 -440.424 0.
-182.122 -422.252 0.
-192.787 -452.711 0.
-201.629 -479.384 0.
-272.414 -664.826 0.
-233.561 -572.409 0.
-198.648 -489.359 0.
-418.266 -1091.61 0.
-389.926 -1021.89 0.
-276.658 -762.321 0.
-258.973 -712.676 0.
-242.656 -666.66 0.
-323.43 -895.599 0.
-281.821 -780.049 0.
-240.226 -664.425 0.
-378.78 -1031.09 0.
-310.896 -850.099 0.
-244.779 -672.695 0.
-593.035 -1418.19 0.
-548.758 -1314.94 0.
-456.082 -961.047 0.
-459.895 -972.054 0.
-466.409 -990.916 0.
-540.551 -988.962 0.
-539.041 -996.872 0.
-539.406 -1008.89 0.
-567.113 -991.469 0.
-556.355 -968.94 0.
-547.918 -952.768 0.
-745.443 -1058.45 0.
-733.993 -1029.9 0.
-590.815 -921.629 0.
-612.507 -958.826 0.
-629.467 -995.771 0.
-576.542 -1016.31 0.
-575.824 -1006.01 0.
-582.783 -1016.36 0.
-519.431 -1027.93 0.
-525.791 -1029.56 0.
-534.978 -1036.67 0.
-396.92 -957.887 0.
-398.622 -962.632 0.
-401.005 -969.303 0.
-485.141 -1315.7 0.
-532.335 -1420.29 0.
-231.493 -637.987 0.
-299.232 -823.165 0.
-367.762 -1010.17 0.
-226.808 -627.318 0.
-266.348 -736.766 0.
-306.081 -846.735 0.
-234.377 -640.301 0.
-247.373 -677.208 0.
-262.814 -720.707 0.
-354.331 -911.263 0.
-388.009 -992.191 0.
-187.18 -448.425 0.
-212.52 -506.236 0.
-241.351 -571.982 0.
-189.077 -434.059 0.
-177.285 -401.872 0.
-163.276 -365.664 0.
-190.592 -416.663 0.
-166.503 -360.444 0.
-140.661 -302.175 0.
-182.756 -380.606 0.
-150.056 -305.069 0.
-119.496 -236.468 0.
-220.967 -395.884 0.
-148.978 -258.67 0.
-142.018 -223.003 0.
-72.5029 -112.062 0.
-3.17587 -4.85589 0.
-127.807 -198.514 0.
-41.4352 -63.3141 0.
3.39377 5.10602 0.
-98.5673 -145.037 0.
-15.3271 -22.1697 0.
0.794154 1.13059 0.
-24.4663 -34.8303 0.
2.94173 4.07047 0.
-0.658009 -7.24783 0.
-5.09527 -7.11746 0.
-107.209 -150.557 0.
-32.2139 -45.1865 0.
-105.76 -151.31 0.
-199.782 -292.516 0.
-66.5554 -104.633 0.
-150.813 -242.465 0.
-235.878 -388.382 0.
-143.372 -229.307 0.
-199.493 -324.205 0.
-258.149 -426.422 0.
-298.168 -542.683 0.
-346.951 -644.718 0.
-239.699 -492.519 0.
-264.281 -553.942 0.
-289.107 -618.442 0.
-242.904 -530.306 0.
-267.305 -592.655 0.
-289.21 -651.569 0.
-254.305 -591.092 0.
-262.898 -619.007 0.
-270.719 -645.491 0.
-325.525 -787.366 0.
-281.09 -682.853 0.
-229.528 -560.666 0.
-419.28 -1090.86 0.
-381.55 -996.673 0.
-254.907 -700.068 0.
-244.42 -670.003 0.
-230.183 -629.478 0.
-279.222 -770.923 0.
-238.234 -656.611 0.
-192.341 -528.655 0.
-303.184 -834.235 0.
-233.322 -644.253 0.
-154.552 -427.858 0.
-452.874 -1140.6 0.
-411.66 -1043.03 0.
-312.177 -756.821 0.
-319.419 -773.922 0.
-320.685 -777.057 0.
-454.275 -789.207 0.
-442.788 -771.791 0.
-431.847 -753 0.
-501.944 -771.899 0.
-486.503 -740.827 0.
-477.601 -726.038 0.
-684.732 -825.665 0.
-688.391 -835.189 0.
-519.364 -718.868 0.
-545.971 -744.39 0.
-550.142 -748.008 0.
-472.588 -735.112 0.
-481.284 -754.112 0.
-488.464 -765.341 0.
-396.168 -750.961 0.
-416.807 -796.406 0.
-436.465 -834.192 0.
-283.347 -748.626 0.
-286.887 -743.058 0.
-282.469 -709.253 0.
-367.736 -994.004 0.
-406.455 -1079.13 0.
-142.493 -394.646 0.
-233.669 -647.016 0.
-304.351 -841.943 0.
-186.627 -513.752 0.
-231.718 -638.436 0.
-273.46 -753.841 0.
-226.832 -617.114 0.
-238.8 -651.294 0.
-250.201 -683.818 0.
-360.968 -926.705 0.
-410.728 -1048.39 0.
-231.655 -552.341 0.
-265.446 -629.301 0.
-297.827 -702.426 0.
-267.879 -617.253 0.
-255.263 -579.899 0.
-242.119 -542.402 0.
-290.901 -630.366 0.
-266.546 -569.51 0.
-243.812 -514.748 0.
-287.382 -595.094 0.
-256.907 -520.003 0.
-228.398 -451.394 0.
-339.217 -611.364 0.
-270.319 -476.045 0.
-247.657 -388.982 0.
-178.079 -274.824 0.
-108.664 -165.127 0.
-225.629 -349.052 0.
-140.042 -212.647 0.
-53.0391 -79.144 0.
-169.856 -251.113 0.
-48.4388 -70.0388 0.
-1.41775 -2.01477 0.
-61.5109 -85.3093 0.
-17.094 -23.1009 0.
-0.478801 -2.99101 0.
-45.5808 -60.2064 0.
-64.7197 -88.0583 0.
-6.41721 -8.92669 0.
-46.8235 -65.9497 0.
-121.126 -172.829 0.
-25.4834 -38.1744 0.
-79.6471 -121.728 0.
-134.819 -210.295 0.
-29.3195 -45.4012 0.
-96.4356 -152.956 0.
-161.98 -262.418 0.
-198.075 -339.878 0.
-233.817 -402.151 0.
-133.336 -252.548 0.
-168.324 -328.429 0.
-202.101 -406.04 0.
-168.984 -350.303 0.
-206.101 -441.418 0.
-242.157 -534.305 0.
-217.057 -493.592 0.
-232.603 -535.82 0.
-251.813 -587.886 0.
-298.965 -697.911 0.
-273.396 -636.908 0.
-250.406 -581.825 0.
-450.247 -1152.62 0.
-443.136 -1143.95 0.
-347.123 -944.805 0.
-331.874 -906.375 0.
-318.157 -871.606 0.
-370.544 -1024.57 0.
-361.732 -1000.75 0.
-352.632 -976.018 0.
-464.192 -1278.35 0.
-423.069 -1164.68 0.
-384.186 -1057.4 0.
-669.48 -1752.86 0.
-635.717 -1666.03 0.
-541.069 -1356.96 0.
-499.013 -1266 0.
-460.362 -1183.25 0.
-580.177 -1206.62 0.
-564.174 -1165.5 0.
-551.264 -1132.87 0.
-611.39 -1134.04 0.
-601.323 -1107.17 0.
-602.27 -1110.09 0.
-798.885 -1203.49 0.
-799.836 -1206.67 0.
-639.122 -1106.14 0.
-652.584 -1117.84 0.
-655.562 -1127.68 0.
-574.029 -1117.04 0.
-577.005 -1126.37 0.
-580.662 -1137.02 0.
-499.76 -1133.83 0.
-525.298 -1193.62 0.
-553.187 -1259.82 0.
-447.757 -1152.34 0.
-492.007 -1256.68 0.
-537.175 -1362.88 0.
-608.22 -1656 0.
-619.951 -1683.39 0.
-352.11 -972.976 0.
-387.801 -1071.78 0.
-425.423 -1176.08 0.
-307.158 -849.363 0.
-319.777 -883.062 0.
-333.257 -918.724 0.
-281.376 -765.045 0.
-292.362 -791.539 0.
-306.05 -824.834 0.
-394.32 -987.158 0.
-412.463 -1023.77 0.
-233.081 -525.706 0.
-248.272 -563.024 0.
-262.395 -598.124 0.
-240.478 -546.944 0.
-218.655 -488.441 0.
-197.873 -433.842 0.
-232.897 -490.31 0.
-194.934 -397.766 0.
-157.611 -310.974 0.
-189.472 -365.195 0.
-153.651 -288.797 0.
-120.078 -220.513 0.
-220.645 -372.51 0.
-169.522 -283.954 0.
-167.729 -257.372 0.
-98.5032 -147.727 0.
-27.7474 -40.6082 0.
-136.828 -200.73 0.
-74.8158 -107.257 0.
-8.91451 -12.5191 0.
-99.233 -136.958 0.
-17.98 -24.4526 0.
-2.04226 -2.73756 0.
-52.1774 -70.5834 0.
-43.8937 -59.1847 0.
-0.580185 -3.45693 0.
-47.896 -62.5775 0.
-66.0483 -88.9243 0.
-13.9452 -19.2474 0.
-87.9428 -123.051 0.
-162.372 -230.823 0.
-113.216 -165.508 0.
-168.24 -250.803 0.
-222.176 -338.24 0.
-134.166 -207.803 0.
-197.661 -312.39 0.
-262.801 -423.32 0.
-279.736 -469.752 0.
-318.487 -536.133 0.
-223.882 -427.103 0.
-255.832 -503.202 0.
-287.119 -581.426 0.
-252.043 -527.662 0.
-286.672 -618.886 0.
-321.377 -713.624 0.
-301.055 -678.817 0.
-314.655 -719.581 0.
-330.006 -765.915 0.
-356.581 -819.206 0.
-330.873 -758.988 0.
-307.508 -704.002 0.
-481.677 -1237.11 0.
-473.37 -1226.45 0.
-387.323 -1050.53 0.
-368.493 -1003.5 0.
-356.449 -974.226 0.
-391.593 -1081.66 0.
-382.667 -1057.8 0.
-373.526 -1033.2 0.
-456.032 -1260.33 0.
-415.378 -1147.92 0.
-374.16 -1033.95 0.
-636.191 -1712.13 0.
-602.901 -1625.2 0.
-504.75 -1282.58 0.
-464.009 -1192.47 0.
-429.924 -1119.88 0.
-553.334 -1193.85 0.
-536.977 -1158.41 0.
-522.136 -1125.5 0.
-567.265 -1116.8 0.
-557.357 -1088.24 0.
-560.206 -1094.23 0.
-736.4 -1168.06 0.
-737.893 -1173 0.
-578.127 -1075.28 0.
-599.907 -1092.76 0.
-602.106 -1101.07 0.
-521.719 -1099.09 0.
-527.189 -1109.81 0.
-533.757 -1119.91 0.
-475.399 -1104.32 0.
-500.857 -1164.75 0.
-529.546 -1233.99 0.
-409.236 -1087.2 0.
-452.159 -1191.25 0.
-496.564 -1298.55 0.
-589.362 -1610.32 0.
-600.386 -1634.7 0.
-350.903 -971.383 0.
-387.406 -1072.49 0.
-424.731 -1175.92 0.
-334.027 -922.491 0.
-347.285 -957.364 0.
-361.534 -994.475 0.
-318.599 -864.565 0.
-331.612 -895.58 0.
-346.964 -932.219 0.
-434.19 -1087.83 0.
-450.308 -1117.79 0.
-302.637 -672.878 0.
-318.669 -711.484 0.
-332.789 -745.93 0.
-329.702 -750.004 0.
-310.802 -694.336 0.
-294.989 -647.155 0.
-323.925 -687.188 0.
-289.606 -596.845 0.
-251.922 -502.98 0.
-283.539 -549.193 0.
-247.915 -467.187 0.
-213.965 -392.491 0.
-308.751 -509.51 0.
-256.384 -420.04 0.
-264.032 -401.557 0.
-195.804 -291.532 0.
-124.019 -180.541 0.
-215.103 -311.557 0.
-154.737 -218.551 0.
-91.6514 -126.458 0.
-151.732 -206.677 0.
-71.0475 -95.5398 0.
-2.80204 -3.71299 0.
-36.3712 -49.4025 0.
-33.8535 -45.7972 0.
-0.585335 -5.5516 0.
-12.8342 -16.8861 0.
-37.2241 -49.3322 0.
-1.40982 -1.86682 0.
-1.5704 -2.12944 0.
-22.8137 -31.7303 0.
-3.47555 -4.93022 0.
-9.01108 -12.8957 0.
-35.327 -50.9139 0.
-0.525569 -0.772012 0.
-0.972412 -1.44366 0.
-42.72 -64.126 0.
-57.1496 -89.3107 0.
-100.768 -160.748 0.
-29.4195 -54.2965 0.
-58.3432 -111.194 0.
-85.5771 -167.823 0.
-59.303 -118.615 0.
-81.3793 -164.775 0.
-104.215 -213.523 0.
-68.2642 -141.526 0.
-93.9144 -196.7 0.
-120.844 -256.848 0.
-140.405 -297.379 0.
-130.179 -278.109 0.
-122.796 -264.617 0.
-278.084 -682.455 0.
-250.142 -618.266 0.
-160.796 -426.216 0.
-164.287 -439.506 0.
-169.488 -457.317 0.
-208.485 -573.571 0.
-195.731 -539.92 0.
-182.564 -504.695 0.
-247.259 -683.693 0.
-219.73 -607.309 0.
-192.816 -532.664 0.
-426.967 -1170.17 0.
-403.933 -1110.13 0.
-322.933 -833.324 0.
-301.025 -777.187 0.
-282.037 -729.753 0.
-398.988 -864.176 0.
-379.329 -818.061 0.
-361.117 -775.852 0.
-417.164 -812.062 0.
-407.502 -788.426 0.
-399.819 -769.95 0.
-573.324 -896.578 0.
-574.619 -899.364 0.
-446.693 -806.502 0.
-458.166 -818.162 0.
-462.498 -829.069 0.
-372.838 -777.235 0.
-383.228 -802.794 0.
-394.335 -830.334 0.
-326.936 -796.538 0.
-351.897 -857.41 0.
-378.11 -921.17 0.
-262.41 -691.769 0.
-272.511 -715.615 0.
-287.714 -754.347 0.
-385.01 -1057.73 0.
-400.051 -1096.6 0.
-174.687 -483.723 0.
-204.016 -565.074 0.
-232.772 -644.72 0.
-160.793 -442.164 0.
-175.04 -479.472 0.
-190.288 -518.97 0.
-146.959 -393.194 0.
-145.756 -386.838 0.
-143.027 -376.506 0.
-225.628 -537.591 0.
-256.466 -606.386 0.
-112.584 -237.061 0.
-113.556 -235.799 0.
-112.765 -230.871 0.
-117.639 -243.909 0.
-88.8784 -182.537 0.
-58.8266 -120.205 0.
-97.4849 -192.227 0.
-73.5473 -143.003 0.
-48.8688 -93.6497 0.
-79.3455 -147.531 0.
-52.4912 -94.544 0.
-25.7749 -44.8188 0.
-98.7224 -154.833 0.
-46.7703 -72.5736 0.
-59.1446 -85.509 0.
-11.0666 -15.8154 0.
1.47727 2.08676 0.
-45.2012 -63.7399 0.
-7.01613 -9.8348 0.
-3.58714 -4.98363 0.
-46.8043 -64.9252 0.
-14.4584 -19.5158 0.
-5.17278 -6.78436 0.
-5.48349 -7.25361 0.
2.07717 2.6553 0.
-0.270145 -2.36264 0.
-6.78564 -9.01274 0.
-35.8283 -48.0048 0.
-12.7017 -16.8865 0.
-44.1312 -60.2563 0.
-85.3386 -119.334 0.
-21.9312 -31.0317 0.
-62.8918 -89.5494 0.
-104.461 -149.482 0.
-42.7902 -61.5716 0.
-86.383 -125.524 0.
-125.39 -184.489 0.
-148.704 -232.407 0.
-193.372 -307.764 0.
-101.71 -190.669 0.
-128.391 -247.422 0.
-156.242 -308.484 0.
-132.105 -260.403 0.
-151.89 -302.867 0.
-173.158 -349.7 0.
-138.615 -282.742 0.
-162.853 -337.832 0.
-187.546 -396.874 0.
-197.845 -419.755 0.
-177.61 -380.156 0.
-169.519 -366.198 0.
-313.882 -762.338 0.
-286.114 -700.605 0.
-201.808 -532.679 0.
-204.993 -546.942 0.
-209.24 -563.769 0.
-234.233 -639.89 0.
-219.643 -602.258 0.
-207.063 -569.647 0.
-258.649 -716.382 0.
-229.423 -635.456 0.
-202.442 -560.728 0.
-407.651 -1119.88 0.
-382.915 -1054.14 0.
-309.828 -820.267 0.
-288.113 -764.523 0.
-269.55 -717.913 0.
-350.547 -852.574 0.
-330.847 -805.66 0.
-317.328 -775.363 0.
-386.155 -794.595 0.
-376.756 -770.239 0.
-368.642 -748.883 0.
-514.306 -863.347 0.
-516.48 -868.631 0.
-421.587 -786.697 0.
-429.662 -799.831 0.
-433.296 -809.948 0.
-334.4 -765.071 0.
-345.894 -793.469 0.
-359.168 -826.747 0.
-292.649 -769.138 0.
-314.063 -814.811 0.
-339.32 -868.998 0.
-256.628 -685.81 0.
-268.846 -716.442 0.
-284.379 -756.605 0.
-368.164 -1012.44 0.
-383.59 -1052.76 0.
-188.815 -522.594 0.
-217.317 -601.178 0.
-245.528 -678.816 0.
-189.862 -518.788 0.
-204.734 -556.656 0.
-220.105 -595.321 0.
-190.58 -507.962 0.
-188.438 -497.375 0.
-187.779 -490.658 0.
-266.024 -629.277 0.
-297.308 -697.035 0.
-174.688 -369.228 0.
-170.353 -354.719 0.
-170.611 -350.035 0.
-187.013 -385.994 0.
-158.669 -322.368 0.
-129.56 -260.104 0.
-172.148 -334.566 0.
-150.093 -287.274 0.
-125.893 -237.531 0.
-148.957 -280.025 0.
-124.248 -227.301 0.
-97.8288 -173.531 0.
-189.45 -293.602 0.
-139.027 -213.22 0.
-125.848 -180.049 0.
-79.7791 -112.461 0.
-31.5138 -43.9065 0.
-97.1618 -135.609 0.
-49.8401 -69.4295 0.
-9.91351 -13.7288 0.
-79.2251 -111.149 0.
-33.7223 -46.1801 0.
-9.89386 -13.1617 0.
-29.2335 -38.0186 0.
0.75865 0.95207 0.
0.105514 0.846637 0.
-2.8921 -3.87637 0.
-85.7699 -116.83 0.
-69.8433 -93.491 0.
-108.652 -148.708 0.
-149.677 -208.596 0.
-92.1635 -129.725 0.
-133.122 -188.403 0.
-172.622 -245.679 0.
-125.362 -176.287 0.
-170.41 -242.667 0.
-212.963 -308.219 0.
-240.829 -374.905 0.
-284.881 -449.957 0.
-175.484 -329.866 0.
-202.83 -390.329 0.
-227.372 -447.382 0.
-205.966 -399.026 0.
-226.442 -444.454 0.
-244.486 -486.917 0.
-208.803 -422.213 0.
-233.249 -481.78 0.
-255.694 -540.177 0.
-248.9 -527.485 0.
-229.45 -491.039 0.
-216.88 -468.681 0.
-349.785 -838.763 0.
-313.364 -758.893 0.
-227.15 -597.815 0.
-231.333 -616.154 0.
-237.685 -639.889 0.
-242.854 -657.829 0.
-220.344 -599.824 0.
-196.507 -537.605 0.
-231.493 -640.702 0.
-201.055 -556.49 0.
-160.189 -443.491 0.
-340.581 -931.593 0.
-315.511 -865.34 0.
-237.881 -626.313 0.
-224.848 -596.179 0.
-212.333 -567.098 0.
-279.177 -689.987 0.
-247.405 -617.848 0.
-215.796 -540.964 0.
-309.685 -639.394 0.
-300.029 -611.424 0.
-289.96 -581.502 0.
-403.758 -690.511 0.
-404.275 -691.686 0.
-298.876 -589.921 0.
-351.05 -631.819 0.
-357.057 -650.523 0.
-249.962 -580.037 0.
-265.201 -619.454 0.
-278.52 -650.354 0.
-204.262 -548.11 0.
-234.069 -617.558 0.
-262.926 -681.943 0.
-199.65 -533.747 0.
-213.843 -569.811 0.
-225.314 -598.072 0.
-303.656 -830.259 0.
-323.613 -883.421 0.
-157.261 -434.474 0.
-192.978 -532.785 0.
-221.656 -611.603 0.
-187.635 -508.942 0.
-212.598 -572.977 0.
-235.602 -630.94 0.
-222.118 -589.745 0.
-222.463 -584.021 0.
-224.232 -581.721 0.
-304.007 -711.54 0.
-339.329 -786.286 0.
-225.233 -476.279 0.
-227.331 -473.695 0.
-227.076 -466.211 0.
-255.789 -528.005 0.
-228.715 -462.994 0.
-201.523 -400.959 0.
-250.224 -479.812 0.
-228.572 -430.878 0.
-206.781 -383.713 0.
-220.214 -413.674 0.
-193.839 -355.778 0.
-171.138 -306.023 0.
-283.727 -433.834 0.
-232.94 -352.621 0.
-194.06 -276.058 0.
-147.15 -205.354 0.
-101.376 -139.3 0.
-157.12 -216.259 0.
-111.126 -153.04 0.
-66.249 -91.0726 0.
-134.176 -188.921 0.
-62.0229 -85.9997 0.
-20.7195 -27.9743 0.
-54.0152 -69.1501 0.
-9.36159 -11.5176 0.
-0.642971 -3.0148 0.
-39.2672 -48.5459 0.
-56.0055 -70.7767 0.
-12.4557 -16.0465 0.
-48.4097 -62.6318 0.
-85.4737 -111.479 0.
-54.8427 -71.911 0.
-90.4091 -121.522 0.
-124.123 -171.262 0.
-74.4614 -102.373 0.
-115.478 -162.031 0.
-147.258 -210.529 0.
-174.181 -257.543 0.
-214.587 -315.885 0.
-121.41 -211.149 0.
-142.704 -252.281 0.
-161.406 -290.401 0.
-147.954 -264.42 0.
-175.284 -326.173 0.
-203.377 -392.317 0.
-180.694 -357.274 0.
-203.336 -414.824 0.
-227.494 -477.445 0.
-210.344 -435.397 0.
-203.022 -422.076 0.
-194.614 -406.738 0.
-323.549 -749.673 0.
-308.459 -720.185 0.
-241.855 -625.553 0.
-242.936 -638.607 0.
-242.985 -648.098 0.
-249.89 -671.623 0.
-256.117 -692.341 0.
-261.676 -711.146 0.
-304.397 -837.608 0.
-296.113 -816.229 0.
-288.379 -796.103 0.
-466.505 -1291.23 0.
-451.165 -1248.04 0.
-376.247 -1016.64 0.
-356.235 -963.719 0.
-336.769 -912.425 0.
-383.195 -1022.3 0.
-359.88 -965.054 0.
-338.802 -913.342 0.
-405.066 -1023.91 0.
-399.925 -1011.07 0.
-395.665 -999.729 0.
-554.28 -1102.04 0.
-549.243 -1090.03 0.
-433.785 -1003.18 0.
-437.303 -1012.28 0.
-441.009 -1021.6 0.
-359.715 -948.576 0.
-378.409 -993.767 0.
-398.019 -1040.54 0.
-347.384 -941.623 0.
-357.319 -962.206 0.
-372.402 -997.033 0.
-322.989 -869.831 0.
-338.166 -913.045 0.
-352.704 -954.4 0.
-424.133 -1172.22 0.
-435.457 -1204.67 0.
-269.272 -741.881 0.
-277.212 -761.566 0.
-285.237 -781.018 0.
-238.61 -642.534 0.
-233.544 -625.104 0.
-229.668 -610.611 0.
-216.642 -569.016 0.
-218.76 -564.957 0.
-221.401 -561.469 0.
-283.048 -636.421 0.
-306.11 -683.648 0.
-200.345 -413.684 0.
-193.868 -397.209 0.
-188.71 -383.792 0.
-217.71 -448.656 0.
-194.66 -387.582 0.
-168.351 -322.746 0.
-195.711 -359.292 0.
-164.578 -293.184 0.
-136.992 -236.221 0.
-153.041 -264.25 0.
-133.656 -226.242 0.
-114.499 -190.468 0.
-210.289 -301.916 0.
-170.349 -244.723 0.
-143.147 -198.226 0.
-103.867 -140.73 0.
-65.7695 -87.0186 0.
-125.759 -167.166 0.
-88.1639 -113.933 0.
-46.8375 -58.9258 0.
-86.0487 -109.177 0.
-31.0786 -39.9826 0.
1.31591 1.71864 0.
-29.7323 -38.635 0.
-16.7126 -21.5107 0.
-0.120301 -0.531759 0.
-27.4044 -33.3565 0.
-49.0169 -60.9201 0.
-20.5581 -26.4004 0.
-57.0095 -73.7184 0.
-94.1712 -123.037 0.
-94.3829 -122.807 0.
-126.585 -169.105 0.
-161.431 -221.494 0.
-125.874 -172.233 0.
-161.142 -224.738 0.
-196.522 -278.899 0.
-222.786 -319.133 0.
-260.737 -372.512 0.
-176.942 -303.409 0.
-199.42 -347.993 0.
-218.717 -388.751 0.
-206.532 -372.909 0.
-232.945 -436.075 0.
-259.185 -501.287 0.
-252.052 -495.983 0.
-271.667 -550.277 0.
-292.676 -609.096 0.
-284.885 -568.684 0.
-274.888 -551.318 0.
-265.639 -535.66 0.
-366.189 -832.483 0.
-349.933 -801.641 0.
-283.421 -726.258 0.
-283.282 -738.712 0.
-282.795 -749.168 0.
-281.806 -752.894 0.
-287.313 -772.667 0.
-292.477 -791.35 0.
-317.783 -871.181 0.
-308.718 -848.21 0.
-301.088 -828.826 0.
-471.07 -1304.66 0.
-454.773 -1259.17 0.
-373.124 -1015.17 0.
-353.267 -962.301 0.
-337.986 -922.577 0.
-367.04 -991.782 0.
-346.257 -941.767 0.
-326.008 -892.194 0.
-359.545 -974.687 0.
-351.516 -963.441 0.
-345.696 -954.464 0.
-520.052 -1079.55 0.
-515.681 -1069.36 0.
-365.913 -969.798 0.
-368.496 -977.431 0.
-371.904 -987.098 0.
-338.71 -920.498 0.
-357.654 -965.724 0.
-377.212 -1011.22 0.
-342.549 -933.629 0.
-350.902 -950.79 0.
-360.708 -971.306 0.
-332.831 -903.232 0.
-344.382 -935.828 0.
-356.327 -969.549 0.
-432.902 -1197.97 0.
-444.406 -1230.5 0.
-284.443 -781.402 0.
-291.857 -799.1 0.
-300.641 -819.939 0.
-267.792 -717.43 0.
-264.035 -702.564 0.
-260.086 -687.05 0.
-259.672 -674.475 0.
-263.996 -672.999 0.
-267.516 -668.638 0.
-327.018 -719.086 0.
-349.778 -764.105 0.
-276.275 -552.191 0.
-268.883 -533.207 0.
-263.856 -519.495 0.
-290.487 -593.081 0.
-267.69 -529.165 0.
-244.901 -467.613 0.
-259.028 -479.013 0.
-230.235 -414.604 0.
-202.679 -354.47 0.
-214.334 -364.601 0.
-195.684 -325.54 0.
-178.125 -290.328 0.
-259.582 -363.565 0.
-218.97 -306.674 0.
-190.743 -263.465 0.
-150.539 -203.862 0.
-116.103 -153.822 0.
-153.422 -204.5 0.
-117.271 -151.824 0.
-77.4296 -97.4071 0.
-104.128 -128.213 0.
-48.7373 -60.6036 0.
-2.77995 -3.5118 0.
-12.6769 -16.6417 0.
-1.50172 -1.95123 0.
-0.605545 -3.57828 0.
-14.9222 -18.8722 0.
-34.8181 -44.3135 0.
0.153642 0.197084 0.
-0.861564 -1.11277 0.
-3.79556 -4.93715 0.
0.918737 1.18019 0.
-5.72178 -7.36806 0.
-30.7442 -39.7018 0.
-2.99688 -3.83632 0.
-25.4416 -32.9473 0.
-44.8847 -58.953 0.
-65.1928 -86.8724 0.
-100.783 -136.717 0.
-35.285 -57.8119 0.
-47.1688 -78.8813 0.
-60.3133 -102.627 0.
-40.6145 -71.2116 0.
-57.291 -100.877 0.
-74.401 -131.622 0.
-57.1465 -101.827 0.
-79.153 -143.892 0.
-102.527 -190.726 0.
-96.3329 -170.422 0.
-97.3524 -175.964 0.
-100.359 -185.205 0.
-199.642 -414.247 0.
-177.406 -370.11 0.
-120.103 -284.547 0.
-130.207 -316.535 0.
-140.035 -348.646 0.
-136.761 -346.702 0.
-138.83 -355.278 0.
-142.341 -367.542 0.
-158.294 -417.22 0.
-144.473 -380.926 0.
-133.308 -351.296 0.
-289.695 -794.695 0.
-273.79 -752.146 0.
-184.405 -509.581 0.
-183.579 -507.516 0.
-184.661 -510.764 0.
-223.165 -614.397 0.
-211.273 -583.666 0.
-200.174 -554.201 0.
-228.942 -626.125 0.
-215.878 -593.814 0.
-203.978 -563.551 0.
-346.685 -735.116 0.
-345.829 -732.828 0.
-217.137 -598.552 0.
-227.077 -623.632 0.
-236.263 -645.979 0.
-206.032 -570.237 0.
-217.751 -599.542 0.
-230.993 -630.488 0.
-195.672 -540.209 0.
-199.956 -550.847 0.
-204.745 -562.611 0.
-175.751 -485.088 0.
-170.445 -470.846 0.
-169.449 -468.575 0.
-251.156 -691.049 0.
-267.866 -734.971 0.
-121.972 -318.416 0.
-135.263 -352.774 0.
-150.072 -390.805 0.
-129.991 -329.655 0.
-128.581 -323.033 0.
-127.03 -316.146 0.
-127.283 -307.25 0.
-117.819 -277.661 0.
-109.069 -250.502 0.
-155.865 -305.779 0.
-182.665 -355.953 0.
-100.255 -182.288 0.
-86.4104 -154.329 0.
-71.7041 -125.876 0.
-102.313 -186.944 0.
-76.5774 -137.72 0.
-49.3909 -87.8618 0.
-65.8636 -113.696 0.
-51.9635 -88.5092 0.
-38.6292 -64.8442 0.
-62.5921 -101.525 0.
-54.7378 -86.9055 0.
-47.9544 -74.407 0.
-101.501 -135.236 0.
-59.3771 -77.7416 0.
-32.9879 -42.2692 0.
-15.194 -19.1706 0.
0.863577 1.07476 0.
-35.8846 -45.5986 0.
-7.80471 -10.0463 0.
-1.71098 -2.2259 0.
-34.0994 -42.8561 0.
-23.5027 -29.0684 0.
-13.4526 -16.345 0.
-1.01774 -1.29609 0.
0.89774 1.11127 0.
-0.222564 -1.2478 0.
-4.13344 -5.30147 0.
-31.1844 -40.254 0.
-21.0979 -26.7805 0.
-36.3378 -46.4093 0.
-54.9588 -70.5263 0.
-30.7346 -39.2983 0.
-55.2868 -70.9235 0.
-74.977 -96.5678 0.
-57.9112 -72.7795 0.
-78.925 -100.701 0.
-100.214 -130.072 0.
-140.982 -188.291 0.
-176.125 -238.65 0.
-99.8733 -161.073 0.
-109.274 -178.251 0.
-119.917 -197.676 0.
-104.354 -175.335 0.
-117.318 -198.291 0.
-132.982 -226.699 0.
-112.51 -196.378 0.
-134.494 -241.142 0.
-154.221 -284.226 0.
-148.73 -263.717 0.
-147.344 -266.949 0.
-148.883 -275.425 0.
-243.87 -487.908 0.
-220.844 -443.394 0.
-159.482 -374.023 0.
-168.558 -406.315 0.
-176.971 -437.536 0.
-166.782 -415.546 0.
-171.05 -430.332 0.
-174.661 -443.73 0.
-179.973 -464.195 0.
-166.771 -429.876 0.
-158.226 -406.992 0.
-293.164 -800.651 0.
-277.914 -760.1 0.
-189.475 -523.799 0.
-188.362 -520.871 0.
-188.944 -522.673 0.
-214.752 -592.836 0.
-203.775 -563.899 0.
-192.064 -531.984 0.
-214.922 -591.4 0.
-203.189 -561.411 0.
-193.557 -536.001 0.
-308.152 -717.215 0.
-306.193 -711.861 0.
-206.654 -571.186 0.
-216.066 -595.569 0.
-225.483 -619.33 0.
-191.14 -529.381 0.
-203.379 -561.415 0.
-216.786 -594.286 0.
-192.511 -532.148 0.
-195.927 -540.625 0.
-201.263 -554.184 0.
-190.169 -525.545 0.
-184.242 -509.544 0.
-183.534 -507.998 0.
-260.207 -712.019 0.
-277.01 -755.441 0.
-149.089 -380.23 0.
-162.998 -415.459 0.
-177.227 -451.377 0.
-166.878 -415.096 0.
-159.992 -394.559 0.
-157.208 -384.051 0.
-164.318 -394.762 0.
-155.902 -365.23 0.
-147.701 -336.787 0.
-205.471 -388.42 0.
-231.954 -436.368 0.
-151.244 -273.176 0.
-139.025 -246.329 0.
-126.829 -220.388 0.
-155.778 -280.372 0.
-130.012 -228.848 0.
-105.114 -181.375 0.
-130.339 -216.684 0.
-116.794 -192 0.
-102.86 -167.413 0.
-119.815 -191.068 0.
-113.209 -177.856 0.
-108.171 -167.254 0.
-166.984 -223.153 0.
-127.686 -167.574 0.
-82.3756 -105.236 0.
-66.1388 -83.0156 0.
-49.0267 -60.5282 0.
-74.0453 -92.1071 0.
-47.2074 -59.4376 0.
-23.3618 -29.7758 0.
-55.8845 -71.0789 0.
-30.8171 -38.6459 0.
-22.3734 -27.5954 0.
-24.0138 -30.2181 0.
2.02824 2.46833 0.
-0.00313193 -0.0166053 0.
-7.60071 -9.88478 0.
-75.1265 -98.3805 0.
-73.2277 -91.6458 0.
-90.6127 -113.691 0.
-110.183 -138.433 0.
-80.6802 -102.817 0.
-101.975 -130.531 0.
-124.682 -160.424 0.
-110.524 -137.036 0.
-134.762 -170.057 0.
-156.637 -201.349 0.
-215.249 -286.53 0.
-250.854 -337.726 0.
-165.943 -258.599 0.
-175.852 -276.366 0.
-184.771 -293.111 0.
-168.786 -273.158 0.
-180.265 -294.765 0.
-195.695 -324.226 0.
-168.484 -291.313 0.
-188.423 -335.367 0.
-209.111 -382.864 0.
-198.887 -352.693 0.
-199.208 -360.631 0.
-197.377 -364.791 0.
-289.986 -558.604 0.
-266.313 -513.681 0.
-192.941 -448.944 0.
-199.282 -477.384 0.
-207.347 -510.027 0.
-190.066 -466.2 0.
-191.672 -475.357 0.
-192.675 -483.196 0.
-197.932 -499.651 0.
-178.773 -451.386 0.
-158.012 -399.042 0.
-275.912 -752.481 0.
-257.894 -704.697 0.
-172.179 -475.28 0.
-172.883 -477.544 0.
-175.407 -484.857 0.
-187.774 -518.991 0.
-176.318 -488.25 0.
-164.018 -454.148 0.
-191.809 -529.936 0.
-175.828 -486.884 0.
-160.297 -443.762 0.
-255.99 -658.757 0.
-255.017 -656.142 0.
-182.412 -502.626 0.
-191.854 -530.224 0.
-204.024 -561.276 0.
-158.141 -437.911 0.
-166.636 -460.84 0.
-175.869 -483.207 0.
-163.567 -452.226 0.
-171.36 -472.954 0.
-179.52 -494.456 0.
-172.822 -477.027 0.
-170.653 -471.609 0.
-170.425 -471.473 0.
-246.243 -671.93 0.
-265.807 -722.339 0.
-154.802 -387.878 0.
-172.633 -432.102 0.
-192.775 -481.583 0.
-181.485 -444.759 0.
-184.205 -446.427 0.
-186.666 -447.487 0.
-200.024 -477.963 0.
-193.808 -451.02 0.
-185.418 -419.603 0.
-256.099 -465.137 0.
-283.74 -514.056 0.
-203.361 -364.999 0.
-192.694 -339.326 0.
-183.698 -317.186 0.
-209.81 -374.403 0.
-187.229 -325.856 0.
-161.521 -274.326 0.
-197.55 -316.382 0.
-184.761 -292.078 0.
-169.669 -265.454 0.
-182.046 -282.255 0.
-174.365 -267.322 0.
-170.599 -258.403 0.
-233.803 -312.445 0.
-195.141 -256.573 0.
-137.554 -175.417 0.
-119.295 -149.284 0.
-103.104 -126.706 0.
-115.952 -141.703 0.
-89.553 -110.515 0.
-66.0894 -82.4814 0.
-88.8763 -114.021 0.
-45.832 -58.2152 0.
-29.2396 -36.5826 0.
-67.0491 -83.0686 0.
-24.3452 -29.242 0.
1.53194 2.60921 0.
-51.7229 -62.2083 0.
-58.5464 -71.804 0.
-35.2868 -42.8136 0.
-37.2824 -45.5921 0.
-69.1062 -85.1967 0.
-63.3924 -78.1694 0.
-63.2892 -79.0454 0.
-68.7556 -86.9829 0.
-45.7331 -55.6396 0.
-64.2607 -77.8957 0.
-84.0614 -101.339 0.
-132.916 -163.068 0.
-170.686 -210.187 0.
-110.461 -154 0.
-129.485 -184.513 0.
-149.124 -217.551 0.
-140.401 -210.148 0.
-151.294 -232.76 0.
-163.744 -258.674 0.
-140.152 -230.771 0.
-154.639 -259.475 0.
-171.879 -293.91 0.
-152.655 -253.314 0.
-161.042 -270.404 0.
-166.997 -284.168 0.
-273.261 -489.753 0.
-265.601 -480.158 0.
-204.346 -453.337 0.
-212.259 -483.06 0.
-219.07 -510.559 0.
-205.538 -475.52 0.
-215.078 -504.782 0.
-223.823 -533.084 0.
-232.936 -551.4 0.
-228.144 -540.017 0.
-223.211 -528.53 0.
-333.586 -874.429 0.
-319.668 -838.155 0.
-226.407 -622.944 0.
-221.692 -610.313 0.
-217.465 -598.968 0.
-223.773 -617.986 0.
-219.657 -606.41 0.
-216.76 -598.148 0.
-243.867 -675.448 0.
-242.492 -671.469 0.
-241.568 -668.039 0.
-342.226 -892.051 0.
-339.269 -884.372 0.
-260.596 -721.781 0.
-261.531 -724.05 0.
-264.736 -731.803 0.
-216.657 -600.075 0.
-221.915 -614.628 0.
-227.495 -629.828 0.
-218.475 -604.141 0.
-216.792 -599.338 0.
-215.971 -596.891 0.
-214.341 -590.067 0.
-215.414 -592.089 0.
-218.241 -598.734 0.
-293.713 -767.712 0.
-309.173 -805.33 0.
-204.664 -472.508 0.
-212.75 -492.108 0.
-219.326 -508.62 0.
-204.265 -473.57 0.
-196.259 -449.533 0.
-188.128 -425.854 0.
-195.438 -442.727 0.
-191.021 -421.663 0.
-187.702 -403.04 0.
-242.479 -416.556 0.
-256.913 -437.684 0.
-165.909 -278.605 0.
-149.29 -246.594 0.
-131.18 -213.554 0.
-166.532 -277.202 0.
-152.098 -248.342 0.
-138.194 -221.218 0.
-164.112 -251.065 0.
-147.857 -220.443 0.
-130.575 -189.541 0.
-137.95 -196.868 0.
-120.59 -168.728 0.
-102.317 -140.735 0.
-160.494 -198.716 0.
-132.428 -163.532 0.
-90.5191 -110.054 0.
-72.3761 -89.119 0.
-48.7694 -60.6544 0.
-75.8478 -95.7907 0.
-73.6358 -90.9269 0.
-68.1625 -82.2768 0.
-75.3256 -92.0445 0.
-42.8646 -51.9986 0.
-10.5771 -12.7773 0.
-27.2777 -33.3227 0.
-5.03926 -6.01541 0.
-0.410466 -1.31948 0.
-27.8611 -32.4949 0.
-43.0122 -51.1406 0.
-38.985 -47.4892 0.
-50.8697 -62.4812 0.
-85.3494 -105.738 0.
-101.449 -122.749 0.
-104.188 -127.396 0.
-104.309 -128.92 0.
-92.1699 -111.131 0.
-110.537 -132.498 0.
-130.152 -154.887 0.
-156.875 -189.679 0.
-195.488 -237.879 0.
-156.311 -216.204 0.
-174.196 -246.843 0.
-193.029 -280.398 0.
-190.739 -282.495 0.
-200.813 -305.046 0.
-212.513 -330.898 0.
-195.253 -315.257 0.
-208.009 -342.314 0.
-223.406 -374.864 0.
-208.288 -337.906 0.
-215.739 -354.916 0.
-221.808 -370.455 0.
-309.382 -543.777 0.
-303.121 -536.604 0.
-234.241 -518.709 0.
-241.161 -547.748 0.
-251.175 -583.742 0.
-238.522 -546.655 0.
-245.885 -572.736 0.
-253.814 -600.889 0.
-254.612 -590.548 0.
-249.61 -579.164 0.
-245.776 -570.702 0.
-342.119 -887.354 0.
-326.835 -848.024 0.
-232.085 -637.884 0.
-227.107 -624.622 0.
-222.361 -611.942 0.
-225.81 -623.394 0.
-221.906 -612.447 0.
-219.001 -604.212 0.
-234.466 -649.389 0.
-232.6 -644.128 0.
-231.412 -640.097 0.
-323.411 -881.933 0.
-320.246 -873.568 0.
-252.019 -697.991 0.
-252.281 -698.507 0.
-254.794 -704.472 0.
-212.103 -587.437 0.
-217.185 -601.553 0.
-223.126 -617.836 0.
-226.25 -625.683 0.
-220.593 -609.906 0.
-220.234 -608.698 0.
-224.256 -617.174 0.
-225.996 -620.881 0.
-228.661 -626.923 0.
-306.489 -791.541 0.
-321.33 -827.141 0.
-230.919 -518.979 0.
-238.822 -537.638 0.
-245.345 -553.613 0.
-242.175 -556.64 0.
-234.776 -532.346 0.
-227.539 -509.148 0.
-234.413 -527.216 0.
-228.815 -501.72 0.
-225.05 -480.184 0.
-282.162 -477.719 0.
-293.439 -493.164 0.
-223.046 -364.909 0.
-209.585 -336.608 0.
-193.599 -305.673 0.
-217.581 -353.302 0.
-202.499 -322.858 0.
-188.159 -294.531 0.
-212.456 -321.557 0.
-195.59 -288.808 0.
-180.291 -259.501 0.
-177.686 -251.648 0.
-161.922 -224.204 0.
-145.745 -197.566 0.
-183.036 -223.924 0.
-157.867 -192.429 0.
-132.944 -158.209 0.
-109.542 -132.318 0.
-89.021 -108.901 0.
-104.722 -131.621 0.
-100.114 -123.122 0.
-95.7105 -115.158 0.
-94.8231 -113.97 0.
-64.3778 -76.7386 0.
-34.1187 -40.4289 0.
-2.35234 -2.93874 0.
0.607799 0.741212 0.
-0.16905 -0.697717 0.
-8.29195 -9.88057 0.
-10.7796 -12.8066 0.
-1.88676 -2.82707 0.
1.82112 2.18098 0.
-1.63047 -2.36136 0.
2.3472 2.67006 0.
-0.44255 -0.505629 0.
-6.89426 -7.91349 0.
-0.956074 -1.07862 0.
-3.02678 -3.41187 0.
-11.4899 -12.9421 0.
-30.2217 -34.8397 0.
-53.9229 -62.9885 0.
-10.7594 -14.3588 0.
-24.7692 -33.0414 0.
-40.2698 -53.7774 0.
-36.0379 -49.2021 0.
-50.3153 -69.5056 0.
-64.6661 -90.915 0.
-47.6431 -69.0638 0.
-67.8424 -102.072 0.
-85.2943 -132.902 0.
-66.234 -99.5995 0.
-69.2024 -107.236 0.
-72.1105 -115.122 0.
-152.661 -251.8 0.
-143.198 -234.526 0.
-95.0791 -195.306 0.
-101.255 -212.623 0.
-106.64 -228.653 0.
-101.045 -210.437 0.
-109.949 -232.393 0.
-120.021 -257.607 0.
-113.83 -233.459 0.
-110.949 -224.447 0.
-107.778 -214.936 0.
-205.351 -491.256 0.
-192.908 -456.417 0.
-107.413 -283.695 0.
-111.521 -295.557 0.
-115.237 -306.41 0.
-121.056 -325.122 0.
-120.055 -321.76 0.
-118.246 -316.139 0.
-125.08 -344.333 0.
-114.788 -315.892 0.
-104.894 -288.559 0.
-192.401 -532.799 0.
-192.795 -533.584 0.
-126.68 -349.075 0.
-133.752 -369.905 0.
-140.547 -389.258 0.
-108.09 -296.58 0.
-110.217 -302.293 0.
-112.841 -309.372 0.
-114.438 -306.987 0.
-112.355 -301.318 0.
-110.897 -297.344 0.
-110.356 -292.135 0.
-104.556 -275.595 0.
-98.8119 -259.354 0.
-171.751 -399.148 0.
-186.227 -436.186 0.
-89.2854 -171.905 0.
-96.9458 -189.829 0.
-105.261 -209.302 0.
-105.949 -219.832 0.
-97.133 -199.366 0.
-90.0226 -182.947 0.
-94.3351 -194.088 0.
-91.055 -183.352 0.
-89.0117 -175.195 0.
-128.645 -199.693 0.
-140.3 -218.083 0.
-77.2397 -117.272 0.
-66.4642 -98.1891 0.
-53.1115 -76.2401 0.
-81.3665 -121.758 0.
-61.0721 -88.398 0.
-42.8734 -60.0572 0.
-58.6282 -81.0159 0.
-40.7275 -55.7287 0.
-27.0656 -36.8322 0.
-30.1415 -39.8773 0.
-22.5523 -29.8215 0.
-15.756 -20.8159 0.
-50.5488 -59.9892 0.
-28.7589 -33.6461 0.
-16.1692 -18.2087 0.
-4.63061 -5.21206 0.
-7.23095 -8.13719 0.
-4.1877 -4.85432 0.
-2.14668 -2.49594 0.
-0.664887 -0.77543 0.
-18.0871 -21.1066 0.
-3.43302 -4.01738 0.
-2.39916 -2.81307 0.
-0.189209 -0.243677 0.
-1.36341 -2.27304 0.
1.13215 2.00818 0.
-6.02958 -7.27228 0.
-7.50541 -9.02489 0.
-6.00828 -7.03462 0.
-19.4124 -22.5294 0.
-34.4212 -39.5879 0.
-39.3251 -44.4954 0.
-42.2556 -48.0818 0.
-44.4444 -50.8656 0.
-41.4418 -46.3688 0.
-55.0323 -61.4797 0.
-63.1552 -70.3974 0.
-94.7682 -108.758 0.
-121.849 -141.313 0.
-61.9022 -79.2626 0.
-75.9808 -97.6376 0.
-90.3384 -116.844 0.
-84.3595 -111.673 0.
-98.0992 -132.68 0.
-110.544 -153.26 0.
-91.7711 -134.741 0.
-108.51 -164.977 0.
-125.809 -197.62 0.
-110.211 -166.226 0.
-111.802 -173.343 0.
-115.129 -183.485 0.
-192.39 -302.595 0.
-183.435 -285.906 0.
-116.74 -241.069 0.
-122.998 -259.704 0.
-130.346 -281.077 0.
-122.483 -254.356 0.
-131.057 -276.63 0.
-139.052 -298.412 0.
-130.553 -265.123 0.
-127.649 -256.07 0.
-124.928 -247.483 0.
-204.922 -484.505 0.
-192.898 -450.727 0.
-114.028 -302.794 0.
-119.534 -318.577 0.
-125.783 -336.451 0.
-121.422 -326.028 0.
-120.066 -321.711 0.
-121.84 -325.973 0.
-126.419 -345.852 0.
-116.591 -318.685 0.
-106.879 -291.844 0.
-187.976 -520.577 0.
-188.487 -521.754 0.
-119.528 -327.796 0.
-126.55 -349 0.
-133.386 -369.005 0.
-110.484 -302.992 0.
-112.687 -308.896 0.
-115.12 -315.424 0.
-117.71 -316.65 0.
-113.731 -305.724 0.
-111.786 -300.38 0.
-124.398 -331.954 0.
-109.978 -291.856 0.
-104.509 -276.141 0.
-182.58 -416.232 0.
-196.635 -452.135 0.
-120.339 -228.488 0.
-115.705 -223.024 0.
-123.562 -241.795 0.
-129.329 -265.499 0.
-122.508 -248.228 0.
-116.086 -232.403 0.
-121.314 -249.475 0.
-119.073 -239.531 0.
-115.981 -228.042 0.
-171.848 -255.839 0.
-186.989 -279.234 0.
-121.57 -184.961 0.
-111.104 -164.845 0.
-101.013 -146.028 0.
-123.968 -186.856 0.
-106.462 -155.412 0.
-88.5492 -124.972 0.
-109.003 -146.601 0.
-93.3876 -123.285 0.
-80.9924 -105.353 0.
-81.1875 -103.982 0.
-75.7524 -96.9367 0.
-68.7424 -87.9372 0.
-117.49 -138.158 0.
-94.2456 -109.599 0.
-63.4858 -70.9242 0.
-51.1878 -57.2074 0.
-39.2263 -43.8417 0.
-38.9027 -44.7812 0.
-35.7899 -41.2702 0.
-32.8639 -37.9702 0.
-28.514 -33.0599 0.
-13.4077 -15.58 0.
-12.254 -14.2655 0.
-1.34454 -1.67628 0.
1.4405 1.76714 0.
-0.559194 -2.09111 0.
-10.1632 -12.3971 0.
-61.7867 -74.7814 0.
-57.5087 -65.2494 0.
-69.3638 -78.0069 0.
-82.9284 -92.4557 0.
-82.8952 -93.7061 0.
-85.6242 -97.4627 0.
-90.483 -103.749 0.
-94.056 -104.154 0.
-108.636 -119.936 0.
-120.356 -132.406 0.
-163.005 -185.562 0.
-188.412 -216.328 0.
-115.606 -143.606 0.
-129.354 -161.943 0.
-143.567 -181.573 0.
-135.265 -176.506 0.
-147.027 -196.915 0.
-157.728 -217.185 0.
-135.185 -199.89 0.
-150.548 -229.833 0.
-168.318 -264.733 0.
-152.383 -228.661 0.
-156.465 -240.788 0.
-158.011 -249.364 0.
-232.524 -350.266 0.
-223.196 -332.754 0.
-144.141 -298.423 0.
-148.775 -314.976 0.
-154.739 -334.622 0.
-143.554 -297.534 0.
-151.179 -318.887 0.
-159.016 -341.432 0.
-146.839 -295.612 0.
-143.833 -286.446 0.
-140.158 -276.01 0.
-202.394 -472.787 0.
-189.161 -436.197 0.
-116.33 -310.338 0.
-119.189 -319.012 0.
-122.43 -328.725 0.
-119.851 -321.598 0.
-117.345 -314.138 0.
-115.674 -308.934 0.
-127.158 -344.93 0.
-116.845 -316.386 0.
-106.554 -287.908 0.
-183.426 -508.015 0.
-184.213 -510.027 0.
-112.124 -305.557 0.
-119.12 -327.121 0.
-125.626 -346.678 0.
-110.19 -301.95 0.
-113.108 -309.824 0.
-115.554 -316.373 0.
-114.493 -308.41 0.
-113.277 -305.062 0.
-111.882 -301.2 0.
-119.136 -319.531 0.
-113.773 -303.881 0.
-109.145 -290.28 0.
-181.439 -404.648 0.
-194.947 -439.249 0.
-127.343 -238.526 0.
-135.771 -258.323 0.
-142.79 -275.599 0.
-155.433 -316.37 0.
-149.066 -298.889 0.
-143.841 -284.413 0.
-149.105 -306.788 0.
-146.61 -294.904 0.
-144.628 -284.165 0.
-220.654 -315.02 0.
-235.59 -338.035 0.
-168.688 -255.617 0.
-157.171 -232.846 0.
-145.446 -210.433 0.
-169.634 -255.75 0.
-153.688 -225.047 0.
-136.22 -193.353 0.
-158.563 -209.546 0.
-146.371 -189.08 0.
-136.423 -172.712 0.
-137.022 -170.964 0.
-129.613 -161.418 0.
-120.985 -150.485 0.
-184.361 -214.036 0.
-162.326 -186.677 0.
-115.514 -127.758 0.
-104.487 -115.72 0.
-92.9978 -103.103 0.
-85.0266 -97.6991 0.
-80.8042 -92.8523 0.
-78.0001 -89.6643 0.
-60.3394 -69.5681 0.
-44.0409 -50.8247 0.
-30.2051 -34.918 0.
-39.0015 -46.7321 0.
-4.91868 -5.83525 0.
1.23201 1.88488 0.
-38.1996 -43.4752 0.
-19.1404 -21.5717 0.
-0.439981 -0.470572 0.
-4.82323 -5.16817 0.
-18.1291 -19.4425 0.
-11.9612 -12.886 0.
-4.00947 -4.3056 0.
-1.24518 -1.33243 0.
-6.77405 -7.0631 0.
-34.941 -35.8327 0.
-60.0899 -60.7214 0.
-94.0487 -99.4488 0.
-126.849 -137.689 0.
-67.4959 -79.5017 0.
-83.249 -101.834 0.
-100.043 -126.574 0.
-86.0541 -112.749 0.
-93.0495 -123.806 0.
-100.493 -135.785 0.
-79.0238 -114.713 0.
-93.5127 -137.634 0.
-110.924 -165.989 0.
-97.9307 -138.46 0.
-106.907 -153.842 0.
-116.186 -170.368 0.
-184.906 -266.547 0.
-187.629 -271.627 0.
-124.591 -248.922 0.
-127.961 -256.863 0.
-130.891 -264.199 0.
-122.587 -238.185 0.
-132.634 -265.548 0.
-143.283 -295.03 0.
-131.541 -251.1 0.
-136.972 -261.22 0.
-141.999 -270.682 0.
-199.725 -451.012 0.
-193.983 -430.765 0.
-129.977 -335.805 0.
-130.32 -335.956 0.
-130.926 -336.793 0.
-128.562 -328.943 0.
-123.269 -315.88 0.
-117.934 -302.677 0.
-131.239 -341.148 0.
-122.301 -318.032 0.
-113.503 -295.279 0.
-184.275 -508.441 0.
-181.626 -501.265 0.
-110.052 -300.144 0.
-116.474 -316.399 0.
-123.305 -333.621 0.
-106.549 -283.119 0.
-112.264 -297.267 0.
-118.175 -311.836 0.
-118.409 -302.776 0.
-117.968 -300.268 0.
-117.534 -297.765 0.
-124.498 -313.775 0.
-123.086 -311.243 0.
-122.213 -310.107 0.
-185.388 -394.854 0.
-191.078 -416.07 0.
-131.366 -239.302 0.
-128.374 -235.271 0.
-126.011 -232.454 0.
-133.32 -263.829 0.
-122.527 -235.486 0.
-111.901 -208.357 0.
-118.941 -227.555 0.
-117.442 -222.168 0.
-120.038 -224.934 0.
-177.233 -241.334 0.
-174.51 -237.851 0.
-112.421 -159.053 0.
-98.2869 -136.437 0.
-85.4698 -116.617 0.
-109.353 -156.971 0.
-93.5969 -133.996 0.
-77.4481 -110.75 0.
-101.849 -137.215 0.
-96.2794 -126.309 0.
-88.8963 -113.546 0.
-95.4178 -118.753 0.
-80.841 -97.8592 0.
-66.773 -78.3993 0.
-117.566 -128.794 0.
-96.8592 -103.646 0.
-59.8172 -61.1032 0.
-32.0543 -33.1795 0.
-17.5494 -18.4264 0.
-1.11115 -1.19963 0.
-1.16153 -1.26532 0.
-17.6732 -19.4077 0.
-10.6545 -11.8238 0.
-9.88707 -10.8523 0.
-8.9472 -9.71486 0.
-25.3855 -28.0249 0.
-3.23406 -3.53408 0.
-0.0226993 -0.0331358 0.
-46.5315 -51.5801 0.
-24.2852 -26.644 0.
-39.0465 -41.3702 0.
-58.4495 -61.9191 0.
-73.7337 -78.0481 0.
-75.0138 -78.8493 0.
-69.3095 -72.5889 0.
-60.5656 -63.1804 0.
-80.8337 -82.3474 0.
-105.823 -106.378 0.
-132.636 -131.829 0.
-127.926 -133.832 0.
-157.934 -169.69 0.
-115.242 -136.144 0.
-131.437 -160.012 0.
-147.035 -183.923 0.
-128.437 -164.81 0.
-133.743 -174.144 0.
-140.132 -185.232 0.
-117.119 -165.62 0.
-132.015 -190.018 0.
-146.907 -215.791 0.
-132.811 -185.322 0.
-141.331 -200.895 0.
-151.156 -219.082 0.
-205.129 -296.293 0.
-209.332 -303.582 0.
-143.786 -285.731 0.
-146.205 -292.242 0.
-153.491 -309.193 0.
-139.257 -275.298 0.
-149.172 -303.615 0.
-159.556 -333.733 0.
-143.345 -272.392 0.
-148.405 -281.883 0.
-154.067 -292.794 0.
-195.902 -439.68 0.
-190.244 -419.848 0.
-131.667 -340.256 0.
-131.667 -339.611 0.
-132.284 -340.614 0.
-132.275 -336.459 0.
-127.093 -323.824 0.
-121.879 -311.08 0.
-136.768 -349.565 0.
-127.789 -326.547 0.
-118.674 -303.135 0.
-184.743 -509.409 0.
-182.528 -503.475 0.
-115.55 -313.047 0.
-121.913 -328.766 0.
-128.815 -345.822 0.
-111.571 -295.616 0.
-117.335 -309.686 0.
-123.644 -325.124 0.
-121.777 -311.661 0.
-121.368 -309.146 0.
-121.066 -306.907 0.
-126.611 -319.239 0.
-125.134 -316.275 0.
-124.582 -315.783 0.
-181.779 -383.59 0.
-185.285 -399.365 0.
-147.526 -266.436 0.
-144.768 -262.889 0.
-142.587 -260.541 0.
-153.181 -308.632 0.
-142.839 -279.852 0.
-132.722 -252.293 0.
-137.137 -262.14 0.
-137.308 -259.375 0.
-141.174 -263.8 0.
-201.49 -274.27 0.
-199.223 -271.344 0.
-153.325 -214.226 0.
-141.921 -194.411 0.
-129.103 -173.599 0.
-149.355 -208.436 0.
-134.017 -186.038 0.
-117.029 -161.983 0.
-143.486 -189.165 0.
-138.654 -178.356 0.
-131.805 -165.449 0.
-146.772 -180.896 0.
-132.774 -160.28 0.
-118.247 -139.451 0.
-157.44 -170.794 0.
-138.273 -146.368 0.
-126.946 -127.708 0.
-98.5358 -100.067 0.
-67.449 -69.3275 0.
-52.4576 -55.1968 0.
-60.5525 -64.3334 0.
-73.6056 -78.9281 0.
-53.3888 -58.5035 0.
-52.501 -57.0193 0.
-49.2328 -52.9955 0.
-24.4154 -26.7754 0.
-13.6172 -14.7981 0.
1.72804 2.26002 0.
1.9666 1.97138 0.
0.195568 0.193859 0.
0.0521841 0.0513011 0.
0.612985 0.602468 0.
-0.0429615 -0.0422144 0.
1.38982 1.33758 0.
2.18497 2.09793 0.
1.30879 1.25403 0.
-1.29531 -1.25402 0.
3.44758 3.33289 0.
-0.33309 -0.32159 0.
-2.14969 -2.1456 0.
-14.8058 -15.0892 0.
1.15634 1.3112 0.
-5.13218 -5.88218 0.
-26.4315 -30.5922 0.
-5.79592 -6.59991 0.
-17.8343 -20.9196 0.
-29.9756 -36.257 0.
-8.17467 -10.7066 0.
-25.2873 -34.5169 0.
-41.4478 -58.8352 0.
-24.0197 -31.7869 0.
-28.1457 -37.2279 0.
-33.8913 -44.785 0.
-68.3624 -91.513 0.
-80.6589 -107.363 0.
-48.7859 -86.0042 0.
-51.7244 -92.3867 0.
-54.9996 -99.4759 0.
-42.8379 -79.6104 0.
-54.6874 -104.848 0.
-66.293 -130.849 0.
-42.9056 -76.6134 0.
-49.2361 -88.5916 0.
-55.3629 -100.385 0.
-99.0671 -204.332 0.
-90.9565 -185.207 0.
-47.173 -121.632 0.
-46.5285 -120.52 0.
-47.3513 -123.185 0.
-49.0973 -126.226 0.
-45.1555 -117.188 0.
-41.3212 -108.273 0.
-56.888 -143.886 0.
-42.7084 -106.916 0.
-28.8278 -71.1877 0.
-90.0334 -249.292 0.
-88.8311 -244.105 0.
-31.6679 -82.2086 0.
-41.4981 -109.274 0.
-51.6197 -137.077 0.
-35.8013 -96.4645 0.
-40.3171 -108.12 0.
-45.0179 -120.147 0.
-40.2101 -104.686 0.
-43.2913 -112.094 0.
-46.732 -120.369 0.
-48.6383 -122.065 0.
-47.1702 -118.032 0.
-47.4636 -118.461 0.
-86.182 -166.078 0.
-95.1296 -186.804 0.
-55.2933 -95.7942 0.
-48.1484 -82.6321 0.
-41.8301 -71.1204 0.
-61.2034 -116.141 0.
-49.7189 -91.4471 0.
-38.7876 -69.1021 0.
-47.5473 -80.4157 0.
-43.5387 -72.1269 0.
-43.3671 -70.6072 0.
-73.7923 -92.2865 0.
-59.5086 -75.0105 0.
-34.0907 -43.0515 0.
-22.0918 -27.6379 0.
-12.1958 -15.111 0.
-38.0094 -49.5284 0.
-23.4268 -29.666 0.
-11.9546 -14.7076 0.
-31.7736 -37.0482 0.
-17.6865 -20.0004 0.
-2.5052 -2.75701 0.
-18.9094 -21.3266 0.
-10.7579 -12.1528 0.
-4.98344 -5.63573 0.
-18.3933 -18.9666 0.
-2.86985 -2.91299 0.
-0.61555 -0.604675 0.
-0.596554 -0.585776 0.
1.8196 1.78583 0.
2.42668 2.36111 0.
0.625432 0.611275 0.
-1.50537 -1.47777 0.
-1.57642 -1.60333 0.
2.24655 2.30644 0.
0.0806578 0.0835596 0.
-0.536811 -0.569528 0.
-0.784528 -0.829941 0.
-0.957703 -1.46761 0.
2.20302 2.15993 0.
0.192091 0.186175 0.
1.03201 0.993386 0.
-1.48708 -1.43043 0.
-0.69616 -0.669134 0.
-13.7439 -13.1081 0.
-2.40755 -2.28681 0.
-0.828281 -0.784676 0.
-12.8106 -12.2732 0.
-26.8943 -25.7296 0.
-49.5746 -47.3537 0.
-30.1762 -29.6706 0.
-72.5389 -72.9787 0.
-23.0727 -25.5183 0.
-42.6486 -47.6471 0.
-63.6976 -72.048 0.
-39.0934 -44.6358 0.
-50.8681 -59.9669 0.
-61.6733 -74.9819 0.
-39.9112 -52.6766 0.
-54.9766 -75.4683 0.
-70.8252 -100.916 0.
-51.1653 -66.2131 0.
-55.0233 -71.0126 0.
-58.7321 -75.5625 0.
-83.5486 -110.682 0.
-94.8141 -125.138 0.
-52.6257 -94.3386 0.
-55.6292 -100.938 0.
-59.2064 -108.703 0.
-49.1308 -92.5645 0.
-59.5403 -115.778 0.
-70.6469 -141.455 0.
-49.6765 -88.6843 0.
-56.2375 -101.26 0.
-62.716 -113.887 0.
-95.4587 -193.008 0.
-86.5407 -172.567 0.
-50.3266 -128.397 0.
-50.289 -128.916 0.
-52.3654 -134.888 0.
-53.4075 -136.801 0.
-49.3191 -127.542 0.
-48.7382 -127.172 0.
-62.2937 -152.835 0.
-48.2266 -116.939 0.
-34.1704 -81.7133 0.
-77.562 -214.759 0.
-76.0931 -209.135 0.
-34.9087 -88.8762 0.
-45.1819 -116.675 0.
-55.1966 -143.819 0.
-41.4966 -110.925 0.
-44.9443 -119.544 0.
-49.7625 -131.68 0.
-43.9777 -113.934 0.
-47.3009 -121.873 0.
-50.7301 -130.032 0.
-53.691 -134.387 0.
-48.2079 -120.128 0.
-48.1423 -119.632 0.
-88.7101 -167.713 0.
-92.9624 -178.175 0.
-59.8039 -103.5 0.
-52.881 -90.5787 0.
-46.4913 -78.815 0.
-67.8468 -129.722 0.
-56.2426 -104.1 0.
-45.5652 -81.5425 0.
-54.0349 -92.754 0.
-52.7469 -88.9829 0.
-52.2661 -86.6919 0.
-95.1322 -117.949 0.
-79.0743 -98.7123 0.
-67.9494 -84.8681 0.
-54.8893 -68.0439 0.
-46.0533 -56.6628 0.
-66.1356 -86.7307 0.
-53.0415 -67.7569 0.
-41.4414 -51.4811 0.
-60.8772 -71.011 0.
-50.0495 -56.4692 0.
-38.7489 -42.3175 0.
-58.0695 -63.6364 0.
-40.5428 -44.5337 0.
-21.5802 -23.7795 0.
-70.7206 -71.4945 0.
-38.7972 -38.5464 0.
-43.4015 -42.3592 0.
-24.827 -24.2025 0.
-13.3559 -13.0096 0.
1.24073 1.18996 0.
-0.340368 -0.327954 0.
-11.5811 -11.223 0.
0.176524 0.174838 0.
-0.272761 -0.27291 0.
-4.88574 -4.93591 0.
-3.29875 -3.38895 0.
0.175994 0.180486 0.
0.0595008 0.0675213 0.
-24.6901 -23.6738 0.
-23.4591 -22.2491 0.
-32.2698 -30.4271 0.
-45.0262 -42.4698 0.
-56.2709 -53.1321 0.
-80.467 -76.5384 0.
-67.6978 -64.1329 0.
-55.932 -52.7758 0.
-66.359 -62.9124 0.
-86.8803 -82.2151 0.
-107.23 -101.271 0.
-89.1513 -86.5398 0.
-131.686 -130.702 0.
-60.7647 -65.589 0.
-81.087 -88.6581 0.
-100.787 -111.895 0.
-71.4804 -82.1506 0.
-83.3521 -98.7627 0.
-93.1508 -113.595 0.
-69.289 -91.6532 0.
-83.994 -115.328 0.
-98.5203 -140.148 0.
-78.3521 -98.8901 0.
-81.5385 -102.501 0.
-87.3184 -109.348 0.
-98.016 -128.655 0.
-109.232 -143.094 0.
-57.609 -105.049 0.
-60.2585 -111.035 0.
-65.0109 -121.191 0.
-55.3424 -105.884 0.
-65.5331 -129.448 0.
-76.1423 -154.848 0.
-56.6782 -101.346 0.
-62.9557 -113.616 0.
-69.6813 -126.916 0.
-91.5161 -181.262 0.
-82.4068 -160.941 0.
-53.6463 -135.34 0.
-53.8446 -136.535 0.
-54.722 -139.482 0.
-58.649 -149.561 0.
-54.0933 -139.272 0.
-49.7178 -129.3 0.
-68.2661 -162.264 0.
-54.0506 -126.772 0.
-39.3816 -91.0163 0.
-65.1378 -180.37 0.
-63.554 -174.767 0.
-38.4376 -95.8473 0.
-48.7121 -123.133 0.
-58.8659 -150.213 0.
-44.6741 -118.388 0.
-49.2862 -129.895 0.
-54.0804 -141.762 0.
-47.972 -123.631 0.
-51.5945 -132.248 0.
-54.8338 -139.836 0.
-48.9487 -121.765 0.
-49.2593 -122.212 0.
-49.0279 -121.283 0.
-75.805 -138.124 0.
-84.8966 -157.726 0.
-65.0259 -112.561 0.
-58.2219 -99.6722 0.
-51.0513 -86.3967 0.
-73.9002 -142.447 0.
-62.7798 -117.042 0.
-52.156 -93.8757 0.
-61.4467 -107.155 0.
-60.2377 -103.308 0.
-60.8162 -102.723 0.
-114.982 -141.475 0.
-100.269 -124.049 0.
-101.494 -124.874 0.
-90.6772 -110.901 0.
-80.4314 -97.7816 0.
-94.5529 -124.214 0.
-84.4995 -108.503 0.
-72.6333 -90.9747 0.
-93.8218 -110.007 0.
-83.3788 -94.4995 0.
-74.3804 -81.5391 0.
-102.707 -109.756 0.
-84.2829 -90.1092 0.
-63.7351 -68.2958 0.
-131.567 -130.586 0.
-100.468 -98.0464 0.
-113.104 -109.68 0.
-84.6046 -81.9253 0.
-60.351 -58.3744 0.
-52.131 -49.6256 0.
-61.1548 -58.5258 0.
-73.187 -70.4185 0.
-41.02 -39.6788 0.
-42.1167 -41.1499 0.
-43.2184 -42.6303 0.
-22.2726 -22.1561 0.
-9.62501 -9.56588 0.
0.710393 0.805534 0.
-1.64843 -1.52212 0.
1.46704 1.32027 0.
-1.17578 -1.06184 0.
1.1109 1.00703 0.
0.090171 0.0820597 0.
-1.66283 -1.51864 0.
2.01288 1.83063 0.
-0.793124 -0.718526 0.
-2.40477 -2.23317 0.
-5.91437 -5.50674 0.
-15.9189 -14.8542 0.
-3.40987 -3.31705 0.
-42.1788 -42.7582 0.
-8.65905 -10.2166 0.
-15.1478 -17.9267 0.
-28.1942 -33.2361 0.
-2.10315 -2.57402 0.
-12.8813 -16.0769 0.
-26.4239 -33.6555 0.
-7.38886 -9.97782 0.
-21.3756 -29.3776 0.
-34.2723 -48.0001 0.
-22.8327 -27.613 0.
-26.7055 -32.1728 0.
-36.9798 -44.393 0.
-35.5588 -46.511 0.
-52.2297 -68.482 0.
-16.962 -30.736 0.
-18.1201 -32.8433 0.
-19.0453 -34.521 0.
-16.6856 -31.6296 0.
-23.716 -45.3508 0.
-30.7211 -59.475 0.
-11.4676 -19.3784 0.
-18.8592 -32.2684 0.
-27.2853 -47.358 0.
-45.4311 -82.0005 0.
-39.0992 -69.4024 0.
-23.1934 -57.7356 0.
-20.4735 -51.1854 0.
-17.7628 -44.6062 0.
-25.3982 -65.1228 0.
-21.9342 -57.2498 0.
-18.6583 -49.4668 0.
-36.0287 -85.3576 0.
-24.9755 -59.7872 0.
-14.2147 -34.5854 0.
-32.0656 -88.8026 0.
-30.9018 -85.4329 0.
-14.9842 -38.574 0.
-21.3412 -54.7182 0.
-28.2404 -72.2746 0.
-15.2148 -40.8628 0.
-18.4245 -49.0212 0.
-21.3482 -56.2226 0.
-14.2188 -36.6302 0.
-18.1675 -46.1875 0.
-22.0439 -55.3036 0.
-12.5894 -30.5334 0.
-17.212 -42.0288 0.
-21.6222 -53.1817 0.
-33.5887 -56.6623 0.
-44.2421 -75.8518 0.
-27.4228 -45.3324 0.
-13.6558 -22.4398 0.
-5.26219 -8.61183 0.
-31.29 -59.0271 0.
-21.6241 -40.4475 0.
-12.7888 -23.7758 0.
-18.6404 -33.1386 0.
-17.1757 -30.191 0.
-15.9185 -27.6357 0.
-48.8657 -60.6571 0.
-35.9418 -43.8344 0.
-37.3749 -42.3594 0.
-24.3986 -27.8562 0.
-15.5004 -17.835 0.
-28.9306 -36.6305 0.
-15.5538 -19.6893 0.
-5.19557 -6.59325 0.
-24.7025 -29.8201 0.
-16.5365 -19.769 0.
-11.2126 -13.2685 0.
-30.6694 -35.5338 0.
-18.9696 -21.8281 0.
-16.9039 -19.2178 0.
-41.9336 -41.8493 0.
-14.1055 -13.6747 0.
-13.4903 -12.9799 0.
-5.02206 -4.79291 0.
-2.26676 -2.1464 0.
-1.56068 -1.42524 0.
0.466718 0.426432 0.
-4.1968 -3.83932 0.
-0.796027 -0.725554 0.
-1.74126 -1.58829 0.
1.78451 1.62879 0.
0.150026 0.131565 0.
-0.560646 -0.496982 0.
1.00066 1.04646 0.
-6.78003 -6.1294 0.
-3.0019 -2.64575 0.
-16.6274 -14.8612 0.
-19.1026 -17.1365 0.
-23.8377 -21.464 0.
-29.2296 -26.3427 0.
-17.5792 -15.7659 0.
-5.24345 -4.67941 0.
-21.1432 -19.3751 0.
-29.1933 -26.8054 0.
-48.3977 -44.4756 0.
-1.85099 -1.80018 0.
-36.768 -37.3568 0.
-18.8142 -21.6368 0.
-31.0633 -35.5841 0.
-45.107 -51.2376 0.
-8.6939 -10.6431 0.
-24.0155 -30.0501 0.
-36.6612 -46.8887 0.
-18.1203 -24.359 0.
-30.5613 -41.8592 0.
-43.1724 -60.3473 0.
-28.9865 -34.7585 0.
-39.1606 -46.7785 0.
-47.7752 -56.8242 0.
-35.5418 -46.6539 0.
-44.603 -58.8084 0.
-15.2926 -28.019 0.
-16.1862 -29.6679 0.
-16.5939 -30.4217 0.
-21.4943 -41.039 0.
-28.249 -54.6411 0.
-34.9051 -68.5608 0.
-18.9338 -31.8018 0.
-26.9562 -45.9497 0.
-34.5896 -59.922 0.
-41.8893 -73.8976 0.
-35.3319 -61.261 0.
-25.2597 -62.6798 0.
-22.1833 -55.2982 0.
-19.5802 -49.0301 0.
-29.4101 -76.1446 0.
-26.0167 -68.5494 0.
-23.9892 -64.1074 0.
-37.1754 -87.719 0.
-25.9809 -62.2989 0.
-15.1674 -37.2097 0.
-20.0568 -55.514 0.
-18.6934 -51.7538 0.
-13.4642 -35.2401 0.
-20.2424 -52.5606 0.
-26.569 -68.588 0.
-20.3341 -54.7232 0.
-22.387 -59.7048 0.
-25.3943 -66.9911 0.
-19.0467 -48.9593 0.
-23.025 -58.3863 0.
-27.0739 -67.7296 0.
-14.4974 -34.941 0.
-17.8002 -43.2515 0.
-22.1458 -54.2417 0.
-30.1179 -49.7629 0.
-40.5066 -68.0073 0.
-33.0595 -54.2199 0.
-20.2045 -32.8472 0.
-9.32909 -15.0837 0.
-31.9307 -60.7874 0.
-22.3464 -42.1051 0.
-12.5239 -23.4452 0.
-13.3651 -24.3915 0.
-11.8589 -21.3897 0.
-10.9409 -19.474 0.
-42.6811 -54.1016 0.
-31.9396 -39.7861 0.
-50.1459 -56.0688 0.
-38.8569 -43.7631 0.
-26.0535 -29.5778 0.
-43.4177 -54.3155 0.
-30.22 -37.7124 0.
-15.1255 -18.8746 0.
-33.3382 -39.7257 0.
-25.4208 -30.0032 0.
-16.7234 -19.5363 0.
-57.6869 -64.448 0.
-35.8536 -40.2729 0.
-23.4585 -26.2119 0.
-44.7773 -44.4468 0.
-14.198 -13.6617 0.
-50.1393 -47.6798 0.
-34.473 -32.5359 0.
-24.7884 -23.2164 0.
-11.7055 -10.5925 0.
-20.2896 -18.3904 0.
-27.2369 -24.7217 0.
-10.2816 -9.29284 0.
-14.9598 -13.5324 0.
-21.8283 -19.7609 0.
-6.11071 -5.24309 0.
-8.65557 -7.50919 0.
