# vtk DataFile Version 2.0
test grain
ASCII
DATASET UNSTRUCTURED_GRID
POINTS 5000 float
0.498969 0.000831119 0.
0.501265 0.00088197 0.
0.503522 0.000927612 0.
0.505752 0.000969153 0.
0.50781 0.000973906 0.
0.509868 0.000978682 0.
0.511913 0.000982939 0.
0.513939 0.00098638 0.
0.515966 0.000989834 0.
0.517979 0.000992509 0.
0.519986 0.000994793 0.
0.521992 0.000997083 0.
0.523994 0.000997538 0.
0.525995 0.000997758 0.
0.527996 0.000997978 0.
0.529997 0.000998197 0.
0.531998 0.000998416 0.
0.533998 0.000998629 0.
0.535999 0.000998833 0.
0.537999 0.000999037 0.
0.539999 0.000999157 0.
0.541999 0.000999211 0.
0.544 0.000999265 0.
0.546 0.000999253 0.
0.548 0.000999223 0.
0.55 0.000999193 0.
0.552 0.000999179 0.
0.554 0.000999165 0.
0.556 0.000999161 0.
0.558 0.000999193 0.
0.56 0.000999224 0.
0.562 0.000999249 0.
0.564 0.000999266 0.
0.566 0.000999282 0.
0.568 0.000999273 0.
0.57 0.00099925 0.
0.572 0.000999228 0.
0.574 0.000999221 0.
0.576 0.000999215 0.
0.578 0.000999214 0.
0.58 0.00099924 0.
0.582 0.000999267 0.
0.584 0.000999286 0.
0.586 0.000999287 0.
0.588 0.000999289 0.
0.59 0.000999285 0.
0.592 0.000999277 0.
0.594 0.000999269 0.
0.596 0.000999248 0.
0.598 0.000999222 0.
0.6 0.000999197 0.
0.602 0.000999218 0.
0.604 0.000999238 0.
0.606 0.000999259 0.
0.608 0.000999279 0.
0.61 0.000999299 0.
0.612 0.000999306 0.
0.614 0.000999296 0.
0.616 0.000999286 0.
0.618 0.000999268 0.
0.62 0.000999245 0.
0.622 0.000999222 0.
0.624 0.00099922 0.
0.626 0.00099922 0.
0.628 0.000999224 0.
0.63 0.000999251 0.
0.632 0.000999279 0.
0.634 0.000999291 0.
0.636 0.000999272 0.
0.638 0.000999252 0.
0.64 0.000999223 0.
0.642 0.000999187 0.
0.644 0.000999151 0.
0.646 0.000999164 0.
0.648 0.000999192 0.
0.65 0.000999219 0.
0.652 0.000999223 0.
0.654 0.000999226 0.
0.656001 0.000999215 0.
0.658001 0.000999153 0.
0.660001 0.00099909 0.
0.662001 0.000998925 0.
0.664002 0.000998631 0.
0.666002 0.000998338 0.
0.668003 0.000998096 0.
0.670004 0.000997881 0.
0.672005 0.000997666 0.
0.674007 0.000997284 0.
0.676008 0.000996881 0.
0.678011 0.000996161 0.
0.680022 0.000992981 0.
0.682034 0.000989812 0.
0.684055 0.000986008 0.
0.686094 0.000980964 0.
0.688134 0.000975945 0.
0.690207 0.000968796 0.
0.692302 0.00096033 0.
0.694397 0.000951939 0.
0.69669 0.000907515 0.
0.699003 0.000861446 0.
0.498424 0.00246627 0.
0.500786 0.00263074 0.
0.503107 0.00276882 0.
0.50542 0.00290529 0.
0.507555 0.0029208 0.
0.509688 0.00293536 0.
0.511792 0.00294857 0.
0.513848 0.00295896 0.
0.515904 0.00296938 0.
0.517937 0.00297745 0.
0.519957 0.00298432 0.
0.521976 0.00299121 0.
0.523982 0.00299261 0.
0.525985 0.00299327 0.
0.527989 0.00299393 0.
0.529991 0.00299459 0.
0.531994 0.00299525 0.
0.533995 0.00299589 0.
0.535996 0.0029965 0.
0.537997 0.00299711 0.
0.539998 0.00299747 0.
0.541998 0.00299763 0.
0.543999 0.00299779 0.
0.545999 0.00299776 0.
0.547999 0.00299767 0.
0.549999 0.00299758 0.
0.551999 0.00299754 0.
0.553999 0.00299749 0.
0.555999 0.00299748 0.
0.557999 0.00299758 0.
0.559999 0.00299767 0.
0.561999 0.00299775 0.
0.563999 0.0029978 0.
0.565999 0.00299785 0.
0.567999 0.00299782 0.
0.57 0.00299775 0.
0.572 0.00299768 0.
0.574 0.00299766 0.
0.575999 0.00299765 0.
0.577999 0.00299764 0.
0.58 0.00299772 0.
0.582 0.0029978 0.
0.584 0.00299786 0.
0.586 0.00299786 0.
0.588 0.00299787 0.
0.59 0.00299786 0.
0.592 0.00299783 0.
0.594 0.00299781 0.
0.596 0.00299774 0.
0.598 0.00299767 0.
0.6 0.00299759 0.
0.602 0.00299765 0.
0.604 0.00299772 0.
0.606 0.00299778 0.
0.608 0.00299784 0.
0.61 0.0029979 0.
0.612 0.00299792 0.
0.614 0.00299789 0.
0.616 0.00299786 0.
0.618 0.0029978 0.
0.620001 0.00299773 0.
0.622001 0.00299767 0.
0.624001 0.00299766 0.
0.626 0.00299766 0.
0.628 0.00299767 0.
0.63 0.00299775 0.
0.632001 0.00299784 0.
0.634001 0.00299787 0.
0.636001 0.00299781 0.
0.638001 0.00299776 0.
0.640001 0.00299767 0.
0.642001 0.00299756 0.
0.644001 0.00299745 0.
0.646001 0.00299749 0.
0.648001 0.00299757 0.
0.650001 0.00299766 0.
0.652001 0.00299767 0.
0.654001 0.00299768 0.
0.656002 0.00299765 0.
0.658002 0.00299746 0.
0.660002 0.00299727 0.
0.662003 0.00299677 0.
0.664005 0.00299589 0.
0.666006 0.00299501 0.
0.668009 0.00299429 0.
0.670012 0.00299364 0.
0.672016 0.002993 0.
0.67402 0.00299184 0.
0.676025 0.00299064 0.
0.678033 0.00298841 0.
0.680067 0.00297883 0.
0.6821 0.00296927 0.
0.684149 0.00295772 0.
0.686226 0.00294247 0.
0.688302 0.00292729 0.
0.690446 0.00290485 0.
0.692624 0.00287903 0.
0.69481 0.00284818 0.
0.697168 0.0027062 0.
0.69953 0.00256735 0.
0.497871 0.00406542 0.
0.500292 0.00435893 0.
0.502677 0.00459095 0.
0.505066 0.00482777 0.
0.507288 0.00486643 0.
0.509499 0.0048911 0.
0.51167 0.00491388 0.
0.513756 0.00493129 0.
0.515842 0.00494877 0.
0.517894 0.00496227 0.
0.519927 0.00497377 0.
0.52196 0.00498529 0.
0.52397 0.00498768 0.
0.525976 0.00498878 0.
0.527981 0.00498989 0.
0.529985 0.00499098 0.
0.531989 0.00499208 0.
0.533992 0.00499314 0.
0.535994 0.00499416 0.
0.537996 0.00499518 0.
0.539997 0.00499579 0.
0.541997 0.00499606 0.
0.543998 0.00499632 0.
0.545998 0.00499627 0.
0.547998 0.00499611 0.
0.549999 0.00499596 0.
0.551998 0.00499589 0.
0.553998 0.00499582 0.
0.555998 0.00499581 0.
0.557998 0.00499596 0.
0.559998 0.00499612 0.
0.561999 0.00499625 0.
0.563999 0.00499633 0.
0.565999 0.00499641 0.
0.567999 0.00499636 0.
0.569999 0.00499625 0.
0.572 0.00499614 0.
0.573999 0.0049961 0.
0.575999 0.00499608 0.
0.577999 0.00499607 0.
0.579999 0.0049962 0.
0.581999 0.00499634 0.
0.584 0.00499643 0.
0.586 0.00499644 0.
0.588 0.00499644 0.
0.59 0.00499643 0.
0.592 0.00499639 0.
0.594 0.00499635 0.
0.596 0.00499624 0.
0.598 0.00499611 0.
0.6 0.00499598 0.
0.602 0.00499609 0.
0.604 0.00499619 0.
0.606 0.0049963 0.
0.608 0.0049964 0.
0.61 0.0049965 0.
0.612 0.00499653 0.
0.614 0.00499648 0.
0.616001 0.00499643 0.
0.618001 0.00499634 0.
0.620001 0.00499622 0.
0.622001 0.00499611 0.
0.624001 0.0049961 0.
0.626001 0.0049961 0.
0.628 0.00499612 0.
0.630001 0.00499626 0.
0.632001 0.0049964 0.
0.634001 0.00499646 0.
0.636001 0.00499636 0.
0.638001 0.00499626 0.
0.640002 0.00499611 0.
0.642002 0.00499593 0.
0.644002 0.00499575 0.
0.646002 0.00499582 0.
0.648002 0.00499596 0.
0.650002 0.0049961 0.
0.652002 0.00499611 0.
0.654002 0.00499613 0.
0.656003 0.00499608 0.
0.658003 0.00499576 0.
0.660004 0.00499545 0.
0.662005 0.00499462 0.
0.664008 0.00499315 0.
0.66601 0.00499168 0.
0.668015 0.00499048 0.
0.67002 0.0049894 0.
0.672026 0.00498833 0.
0.674034 0.0049864 0.
0.676042 0.00498438 0.
0.678056 0.00498057 0.
0.680112 0.00496451 0.
0.682168 0.00494851 0.
0.684246 0.00492903 0.
0.686359 0.0049034 0.
0.688473 0.00487791 0.
0.690696 0.00483876 0.
0.692961 0.00479501 0.
0.695244 0.00472425 0.
0.69766 0.00448279 0.
0.700071 0.00425027 0.
0.497378 0.00563396 0.
0.499819 0.00599177 0.
0.502217 0.00626395 0.
0.504612 0.00653665 0.
0.506891 0.00664147 0.
0.509147 0.00671776 0.
0.511372 0.0067876 0.
0.513501 0.00682046 0.
0.51563 0.00685361 0.
0.517725 0.00688377 0.
0.519795 0.00691334 0.
0.521867 0.0069432 0.
0.523898 0.00695556 0.
0.525922 0.00696486 0.
0.527944 0.00697359 0.
0.529955 0.00697625 0.
0.531966 0.00697891 0.
0.533976 0.00698177 0.
0.535981 0.00698509 0.
0.537987 0.00698841 0.
0.539991 0.0069905 0.
0.541993 0.00699159 0.
0.543995 0.00699267 0.
0.545996 0.00699309 0.
0.547996 0.00699331 0.
0.549997 0.00699353 0.
0.551997 0.00699342 0.
0.553997 0.00699331 0.
0.555997 0.00699328 0.
0.557997 0.00699355 0.
0.559997 0.00699381 0.
0.561998 0.006994 0.
0.563998 0.0069941 0.
0.565998 0.00699419 0.
0.567998 0.00699413 0.
0.569999 0.00699399 0.
0.571999 0.00699386 0.
0.573999 0.00699382 0.
0.575999 0.00699379 0.
0.577998 0.00699378 0.
0.579999 0.00699397 0.
0.581999 0.00699416 0.
0.583999 0.0069943 0.
0.585999 0.00699435 0.
0.587999 0.0069944 0.
0.59 0.00699438 0.
0.592 0.0069943 0.
0.594 0.00699423 0.
0.596 0.00699408 0.
0.598 0.00699392 0.
0.6 0.00699376 0.
0.602 0.00699392 0.
0.604 0.00699407 0.
0.606 0.00699421 0.
0.608 0.00699431 0.
0.610001 0.0069944 0.
0.612001 0.00699443 0.
0.614001 0.00699438 0.
0.616001 0.00699433 0.
0.618001 0.00699419 0.
0.620001 0.00699401 0.
0.622002 0.00699383 0.
0.624002 0.00699382 0.
0.626001 0.00699384 0.
0.628001 0.00699387 0.
0.630001 0.00699402 0.
0.632002 0.00699417 0.
0.634002 0.00699423 0.
0.636002 0.00699411 0.
0.638002 0.006994 0.
0.640003 0.00699378 0.
0.642003 0.00699348 0.
0.644004 0.00699318 0.
0.646004 0.00699321 0.
0.648004 0.00699334 0.
0.650003 0.00699347 0.
0.652004 0.00699302 0.
0.654005 0.00699257 0.
0.656007 0.00699187 0.
0.658009 0.00699031 0.
0.660012 0.00698875 0.
0.662017 0.00698592 0.
0.664025 0.00698153 0.
0.666033 0.00697715 0.
0.668046 0.00697379 0.
0.67006 0.0069709 0.
0.672075 0.00696801 0.
0.674107 0.00695588 0.
0.67614 0.00694297 0.
0.678183 0.00692597 0.
0.680277 0.00688734 0.
0.682371 0.00684918 0.
0.684494 0.00680983 0.
0.686655 0.00676666 0.
0.688815 0.00672393 0.
0.691091 0.00663219 0.
0.693391 0.00653493 0.
0.695721 0.00639803 0.
0.698144 0.00612789 0.
0.700569 0.00585836 0.
0.496912 0.00720337 0.
0.499351 0.00758974 0.
0.501753 0.00790974 0.
0.504152 0.00822439 0.
0.506479 0.00839677 0.
0.508779 0.00852881 0.
0.511061 0.00865702 0.
0.513235 0.00870632 0.
0.51541 0.00875599 0.
0.51755 0.00880288 0.
0.51966 0.00885118 0.
0.521771 0.00889996 0.
0.523825 0.00892299 0.
0.525867 0.0089406 0.
0.527907 0.00895722 0.
0.529925 0.00896146 0.
0.531943 0.00896569 0.
0.533959 0.00897036 0.
0.535969 0.00897599 0.
0.537979 0.00898162 0.
0.539985 0.00898521 0.
0.541988 0.00898711 0.
0.543992 0.00898901 0.
0.545993 0.00898991 0.
0.547995 0.00899051 0.
0.549996 0.0089911 0.
0.551996 0.00899095 0.
0.553996 0.00899079 0.
0.555996 0.00899075 0.
0.557996 0.00899113 0.
0.559996 0.0089915 0.
0.561997 0.00899176 0.
0.563997 0.00899186 0.
0.565997 0.00899197 0.
0.567998 0.00899189 0.
0.569998 0.00899174 0.
0.571998 0.00899158 0.
0.573998 0.00899153 0.
0.575998 0.00899149 0.
0.577998 0.00899149 0.
0.579998 0.00899173 0.
0.581999 0.00899198 0.
0.583999 0.00899217 0.
0.585999 0.00899226 0.
0.587999 0.00899235 0.
0.589999 0.00899233 0.
0.592 0.00899222 0.
0.594 0.00899211 0.
0.596 0.00899193 0.
0.598 0.00899173 0.
0.6 0.00899154 0.
0.602 0.00899174 0.
0.604 0.00899195 0.
0.606 0.00899213 0.
0.608001 0.00899222 0.
0.610001 0.00899231 0.
0.612001 0.00899233 0.
0.614001 0.00899228 0.
0.616001 0.00899223 0.
0.618002 0.00899205 0.
0.620002 0.0089918 0.
0.622002 0.00899155 0.
0.624002 0.00899155 0.
0.626002 0.00899158 0.
0.628002 0.00899162 0.
0.630002 0.00899178 0.
0.632002 0.00899194 0.
0.634003 0.008992 0.
0.636003 0.00899187 0.
0.638004 0.00899173 0.
0.640004 0.00899144 0.
0.642005 0.00899102 0.
0.644005 0.0089906 0.
0.646005 0.0089906 0.
0.648005 0.00899072 0.
0.650005 0.00899084 0.
0.652007 0.00898992 0.
0.654008 0.008989 0.
0.65601 0.00898765 0.
0.658015 0.00898484 0.
0.66002 0.00898204 0.
0.662028 0.00897719 0.
0.664042 0.00896986 0.
0.666056 0.00896255 0.
0.668077 0.00895703 0.
0.670101 0.00895231 0.
0.672125 0.00894759 0.
0.674182 0.00892479 0.
0.676241 0.00890081 0.
0.678314 0.00886952 0.
0.680447 0.00880749 0.
0.682579 0.00874621 0.
0.684753 0.00868674 0.
0.686965 0.00862478 0.
0.689177 0.008561 0.
0.6915 0.00840585 0.
0.693836 0.00824954 0.
0.696203 0.00804643 0.
0.698628 0.00774434 0.
0.701056 0.00744457 0.
0.496484 0.00877718 0.
0.498923 0.0091834 0.
0.501335 0.00954749 0.
0.503747 0.00989691 0.
0.506113 0.0101272 0.
0.508451 0.0103099 0.
0.510775 0.01049 0.
0.512988 0.0105612 0.
0.515199 0.0106296 0.
0.517377 0.0106958 0.
0.519516 0.0107641 0.
0.521656 0.0108331 0.
0.523734 0.010872 0.
0.525798 0.0109037 0.
0.52786 0.0109341 0.
0.529885 0.0109402 0.
0.531911 0.0109463 0.
0.533934 0.0109532 0.
0.535949 0.0109623 0.
0.537965 0.0109713 0.
0.539975 0.0109773 0.
0.541981 0.0109806 0.
0.543986 0.0109839 0.
0.545989 0.0109856 0.
0.547991 0.0109869 0.
0.549993 0.0109882 0.
0.551994 0.0109883 0.
0.553994 0.0109883 0.
0.555994 0.0109884 0.
0.557995 0.0109889 0.
0.559995 0.0109894 0.
0.561996 0.0109897 0.
0.563996 0.0109898 0.
0.565997 0.01099 0.
0.567997 0.0109899 0.
0.569998 0.0109898 0.
0.571998 0.0109896 0.
0.573998 0.0109896 0.
0.575998 0.0109895 0.
0.577997 0.0109896 0.
0.579998 0.0109898 0.
0.581998 0.0109901 0.
0.583998 0.0109903 0.
0.585999 0.0109904 0.
0.587999 0.0109905 0.
0.589999 0.0109905 0.
0.592 0.0109904 0.
0.594 0.0109903 0.
0.596 0.0109901 0.
0.598 0.0109899 0.
0.6 0.0109897 0.
0.602 0.01099 0.
0.604 0.0109902 0.
0.606 0.0109903 0.
0.608001 0.0109904 0.
0.610001 0.0109905 0.
0.612001 0.0109905 0.
0.614002 0.0109904 0.
0.616002 0.0109904 0.
0.618002 0.0109902 0.
0.620002 0.0109899 0.
0.622003 0.0109896 0.
0.624003 0.0109896 0.
0.626002 0.0109896 0.
0.628002 0.0109897 0.
0.630003 0.0109898 0.
0.632003 0.0109899 0.
0.634004 0.01099 0.
0.636004 0.0109898 0.
0.638005 0.0109896 0.
0.640005 0.0109892 0.
0.642006 0.0109886 0.
0.644007 0.010988 0.
0.646007 0.0109878 0.
0.648008 0.0109877 0.
0.650008 0.0109876 0.
0.652011 0.0109858 0.
0.654014 0.0109839 0.
0.656018 0.0109814 0.
0.658025 0.0109766 0.
0.660033 0.0109719 0.
0.662047 0.0109639 0.
0.664068 0.0109523 0.
0.666089 0.0109407 0.
0.668119 0.0109324 0.
0.670152 0.0109255 0.
0.672186 0.0109185 0.
0.67427 0.0108776 0.
0.676355 0.0108356 0.
0.678457 0.0107848 0.
0.680619 0.0107011 0.
0.68278 0.0106181 0.
0.684995 0.010536 0.
0.687246 0.0104523 0.
0.689504 0.0103601 0.
0.691864 0.0101534 0.
0.694236 0.00994467 0.
0.696635 0.00968659 0.
0.699069 0.00935636 0.
0.701504 0.00903471 0.
0.496233 0.0103963 0.
0.498673 0.0107967 0.
0.501091 0.0111796 0.
0.503503 0.0115465 0.
0.505872 0.0118176 0.
0.508212 0.0120394 0.
0.510541 0.0122597 0.
0.512776 0.0123638 0.
0.515006 0.0124609 0.
0.517206 0.0125552 0.
0.519363 0.0126463 0.
0.52152 0.0127384 0.
0.523624 0.0127994 0.
0.525713 0.0128522 0.
0.527801 0.0129038 0.
0.529835 0.012912 0.
0.53187 0.0129203 0.
0.533901 0.0129301 0.
0.535923 0.0129437 0.
0.537945 0.0129574 0.
0.539961 0.0129666 0.
0.54197 0.0129719 0.
0.543979 0.0129772 0.
0.545983 0.0129802 0.
0.547987 0.0129826 0.
0.54999 0.0129849 0.
0.551991 0.0129853 0.
0.553992 0.0129857 0.
0.555993 0.0129862 0.
0.557993 0.0129868 0.
0.559994 0.0129875 0.
0.561995 0.0129879 0.
0.563995 0.0129881 0.
0.565996 0.0129882 0.
0.567997 0.0129882 0.
0.569997 0.0129881 0.
0.571997 0.012988 0.
0.573997 0.0129879 0.
0.575997 0.0129879 0.
0.577997 0.012988 0.
0.579997 0.0129882 0.
0.581998 0.0129884 0.
0.583998 0.0129886 0.
0.585999 0.0129887 0.
0.587999 0.0129889 0.
0.589999 0.0129889 0.
0.592 0.0129888 0.
0.594 0.0129887 0.
0.596 0.0129886 0.
0.598 0.0129885 0.
0.6 0.0129884 0.
0.602 0.0129885 0.
0.604 0.0129887 0.
0.606001 0.0129888 0.
0.608001 0.0129889 0.
0.610001 0.0129889 0.
0.612001 0.0129889 0.
0.614002 0.0129888 0.
0.616002 0.0129887 0.
0.618002 0.0129885 0.
0.620003 0.0129883 0.
0.622003 0.0129881 0.
0.624003 0.012988 0.
0.626003 0.012988 0.
0.628003 0.012988 0.
0.630003 0.012988 0.
0.632004 0.0129881 0.
0.634004 0.0129881 0.
0.636005 0.0129879 0.
0.638006 0.0129876 0.
0.640007 0.0129871 0.
0.642008 0.0129863 0.
0.644009 0.0129855 0.
0.64601 0.0129849 0.
0.648011 0.0129844 0.
0.650013 0.0129839 0.
0.652017 0.0129806 0.
0.654021 0.0129774 0.
0.656028 0.0129731 0.
0.65804 0.0129656 0.
0.660053 0.0129581 0.
0.662073 0.012946 0.
0.664102 0.0129286 0.
0.666132 0.0129112 0.
0.668172 0.0128994 0.
0.670216 0.0128897 0.
0.67226 0.0128798 0.
0.674373 0.0128114 0.
0.676486 0.0127423 0.
0.678615 0.0126657 0.
0.680794 0.0125607 0.
0.682972 0.0124567 0.
0.685206 0.0123402 0.
0.687469 0.0122206 0.
0.689742 0.0120893 0.
0.692105 0.0118491 0.
0.694477 0.0116075 0.
0.696881 0.0113187 0.
0.699321 0.0109792 0.
0.701767 0.0106556 0.
0.496018 0.0120333 0.
0.498444 0.012415 0.
0.500854 0.0128098 0.
0.50326 0.0131938 0.
0.505631 0.0135039 0.
0.507972 0.0137648 0.
0.510305 0.0140254 0.
0.512562 0.0141628 0.
0.514811 0.0142889 0.
0.517034 0.0144129 0.
0.519208 0.014527 0.
0.521383 0.0146423 0.
0.523512 0.0147255 0.
0.525627 0.0147997 0.
0.527742 0.0148733 0.
0.529785 0.0148838 0.
0.531828 0.0148942 0.
0.533867 0.0149068 0.
0.535897 0.0149251 0.
0.537926 0.0149435 0.
0.539946 0.0149559 0.
0.541959 0.0149632 0.
0.543971 0.0149705 0.
0.545977 0.0149748 0.
0.547982 0.0149782 0.
0.549987 0.0149816 0.
0.551988 0.0149824 0.
0.55399 0.0149832 0.
0.555991 0.014984 0.
0.557992 0.0149848 0.
0.559993 0.0149855 0.
0.561994 0.0149861 0.
0.563995 0.0149863 0.
0.565995 0.0149864 0.
0.567996 0.0149865 0.
0.569996 0.0149864 0.
0.571997 0.0149863 0.
0.573997 0.0149863 0.
0.575997 0.0149863 0.
0.577997 0.0149864 0.
0.579997 0.0149866 0.
0.581997 0.0149868 0.
0.583998 0.0149869 0.
0.585998 0.0149871 0.
0.587999 0.0149872 0.
0.589999 0.0149873 0.
0.592 0.0149872 0.
0.594 0.0149872 0.
0.596 0.0149871 0.
0.598 0.0149871 0.
0.6 0.014987 0.
0.602 0.0149871 0.
0.604 0.0149872 0.
0.606001 0.0149873 0.
0.608001 0.0149873 0.
0.610001 0.0149873 0.
0.612002 0.0149873 0.
0.614002 0.0149872 0.
0.616002 0.0149871 0.
0.618003 0.0149869 0.
0.620003 0.0149867 0.
0.622004 0.0149865 0.
0.624004 0.0149864 0.
0.626003 0.0149863 0.
0.628003 0.0149863 0.
0.630004 0.0149863 0.
0.632004 0.0149863 0.
0.634005 0.0149862 0.
0.636006 0.0149859 0.
0.638007 0.0149857 0.
0.640008 0.014985 0.
0.642009 0.014984 0.
0.644011 0.0149829 0.
0.646013 0.014982 0.
0.648015 0.0149811 0.
0.650017 0.0149801 0.
0.652023 0.0149754 0.
0.654029 0.0149708 0.
0.656038 0.0149648 0.
0.658055 0.0149545 0.
0.660072 0.0149443 0.
0.662099 0.0149279 0.
0.664137 0.0149047 0.
0.666175 0.0148816 0.
0.668225 0.0148664 0.
0.67028 0.0148539 0.
0.672336 0.0148401 0.
0.674478 0.0147435 0.
0.67662 0.0146471 0.
0.678775 0.0145454 0.
0.680971 0.014419 0.
0.683166 0.0142938 0.
0.685418 0.0141399 0.
0.687692 0.013984 0.
0.68998 0.0138155 0.
0.692346 0.0135415 0.
0.694718 0.0132662 0.
0.697122 0.0129496 0.
0.699555 0.012602 0.
0.701996 0.0122822 0.
0.495867 0.0137059 0.
0.49827 0.0140646 0.
0.500662 0.014463 0.
0.503052 0.0148589 0.
0.505417 0.0151958 0.
0.507753 0.0154815 0.
0.510082 0.0157652 0.
0.512347 0.0159334 0.
0.514603 0.0160865 0.
0.516837 0.0162373 0.
0.519021 0.0163634 0.
0.521205 0.0164903 0.
0.523352 0.0165937 0.
0.525485 0.0166917 0.
0.527618 0.01679 0.
0.529683 0.0168148 0.
0.531746 0.0168379 0.
0.533803 0.0168615 0.
0.535842 0.0168857 0.
0.537881 0.0169101 0.
0.53991 0.0169283 0.
0.541931 0.0169411 0.
0.543951 0.0169539 0.
0.545962 0.0169615 0.
0.54797 0.0169676 0.
0.549978 0.0169736 0.
0.551981 0.0169756 0.
0.553984 0.0169774 0.
0.555987 0.0169792 0.
0.557989 0.0169806 0.
0.55999 0.016982 0.
0.561992 0.0169829 0.
0.563993 0.0169833 0.
0.565994 0.0169837 0.
0.567995 0.0169838 0.
0.569996 0.0169839 0.
0.571996 0.0169839 0.
0.573996 0.0169839 0.
0.575996 0.0169839 0.
0.577996 0.016984 0.
0.579997 0.0169842 0.
0.581997 0.0169845 0.
0.583998 0.0169847 0.
0.585998 0.0169848 0.
0.587999 0.0169849 0.
0.589999 0.016985 0.
0.592 0.016985 0.
0.594 0.016985 0.
0.596 0.016985 0.
0.598 0.016985 0.
0.6 0.0169849 0.
0.602001 0.016985 0.
0.604001 0.0169851 0.
0.606001 0.0169852 0.
0.608001 0.0169852 0.
0.610002 0.0169851 0.
0.612002 0.016985 0.
0.614002 0.0169849 0.
0.616003 0.0169848 0.
0.618003 0.0169846 0.
0.620004 0.0169844 0.
0.622004 0.0169841 0.
0.624004 0.016984 0.
0.626004 0.0169839 0.
0.628004 0.0169838 0.
0.630005 0.0169836 0.
0.632006 0.0169835 0.
0.634007 0.0169833 0.
0.636008 0.0169827 0.
0.638009 0.0169821 0.
0.640011 0.0169808 0.
0.642014 0.016979 0.
0.644016 0.0169772 0.
0.64602 0.016975 0.
0.648024 0.0169726 0.
0.650029 0.0169702 0.
0.652039 0.0169622 0.
0.65405 0.0169542 0.
0.656065 0.016944 0.
0.658092 0.0169268 0.
0.660118 0.0169097 0.
0.662155 0.0168867 0.
0.664203 0.0168572 0.
0.666251 0.0168279 0.
0.668322 0.0167995 0.
0.670401 0.0167717 0.
0.672483 0.0167395 0.
0.674639 0.0166167 0.
0.676795 0.0164947 0.
0.678966 0.0163732 0.
0.68117 0.0162368 0.
0.683373 0.0161011 0.
0.685633 0.0159169 0.
0.687911 0.015731 0.
0.690205 0.0155309 0.
0.692561 0.0152358 0.
0.694925 0.0149377 0.
0.697317 0.0146045 0.
0.699735 0.0142516 0.
0.702162 0.0139387 0.
0.49577 0.0154114 0.
0.498144 0.0157468 0.
0.500511 0.0161403 0.
0.502874 0.0165368 0.
0.505221 0.0168869 0.
0.507545 0.0171908 0.
0.509862 0.0174927 0.
0.512131 0.0176915 0.
0.51439 0.0178728 0.
0.516633 0.0180533 0.
0.518826 0.0181916 0.
0.521021 0.0183307 0.
0.523186 0.0184545 0.
0.525338 0.018578 0.
0.52749 0.0187021 0.
0.529577 0.0187431 0.
0.531661 0.0187798 0.
0.533737 0.0188154 0.
0.535787 0.0188457 0.
0.537836 0.0188762 0.
0.539874 0.0189004 0.
0.541902 0.0189187 0.
0.54393 0.018937 0.
0.545946 0.0189481 0.
0.547957 0.0189568 0.
0.549969 0.0189656 0.
0.551974 0.0189686 0.
0.553978 0.0189716 0.
0.555982 0.0189744 0.
0.557985 0.0189764 0.
0.559988 0.0189783 0.
0.56199 0.0189797 0.
0.563991 0.0189803 0.
0.565993 0.0189809 0.
0.567994 0.0189812 0.
0.569995 0.0189813 0.
0.571995 0.0189815 0.
0.573995 0.0189815 0.
0.575995 0.0189815 0.
0.577995 0.0189816 0.
0.579996 0.0189819 0.
0.581997 0.0189821 0.
0.583997 0.0189824 0.
0.585998 0.0189825 0.
0.587998 0.0189827 0.
0.589999 0.0189828 0.
0.591999 0.0189828 0.
0.594 0.0189829 0.
0.596 0.0189829 0.
0.598 0.0189829 0.
0.6 0.0189829 0.
0.602001 0.018983 0.
0.604001 0.018983 0.
0.606001 0.0189831 0.
0.608001 0.018983 0.
0.610002 0.0189829 0.
0.612002 0.0189828 0.
0.614003 0.0189827 0.
0.616003 0.0189826 0.
0.618004 0.0189823 0.
0.620005 0.018982 0.
0.622005 0.0189817 0.
0.624005 0.0189815 0.
0.626005 0.0189814 0.
0.628005 0.0189812 0.
0.630006 0.018981 0.
0.632007 0.0189807 0.
0.634008 0.0189803 0.
0.63601 0.0189794 0.
0.638012 0.0189785 0.
0.640015 0.0189767 0.
0.642018 0.018974 0.
0.644022 0.0189714 0.
0.646028 0.0189679 0.
0.648034 0.0189641 0.
0.65004 0.0189602 0.
0.652056 0.0189488 0.
0.654071 0.0189375 0.
0.656092 0.0189229 0.
0.658129 0.0188986 0.
0.660165 0.0188744 0.
0.662212 0.0188447 0.
0.664271 0.0188088 0.
0.666329 0.0187731 0.
0.668423 0.0187301 0.
0.670527 0.0186859 0.
0.672635 0.0186331 0.
0.674806 0.0184825 0.
0.676977 0.0183332 0.
0.679163 0.018192 0.
0.681375 0.0180445 0.
0.683587 0.0178957 0.
0.685852 0.0176826 0.
0.68813 0.0174699 0.
0.690425 0.0172414 0.
0.692763 0.0169295 0.
0.695108 0.016615 0.
0.697478 0.0162776 0.
0.699865 0.0159288 0.
0.702264 0.015626 0.
0.495686 0.0171289 0.
0.498028 0.0174393 0.
0.500366 0.0178238 0.
0.502703 0.0182193 0.
0.505034 0.0185806 0.
0.507347 0.0189018 0.
0.509655 0.0192205 0.
0.511928 0.0194476 0.
0.51419 0.0196568 0.
0.516441 0.0198661 0.
0.518646 0.0200158 0.
0.520852 0.0201646 0.
0.523034 0.0203058 0.
0.5252 0.0204519 0.
0.527366 0.0205983 0.
0.529472 0.0206579 0.
0.531573 0.0207107 0.
0.533666 0.0207609 0.
0.535725 0.0207974 0.
0.537784 0.020834 0.
0.539831 0.0208647 0.
0.541868 0.0208897 0.
0.543904 0.0209148 0.
0.545925 0.0209304 0.
0.547941 0.0209428 0.
0.549957 0.0209552 0.
0.551963 0.0209598 0.
0.55397 0.0209642 0.
0.555976 0.0209684 0.
0.55798 0.0209712 0.
0.559984 0.020974 0.
0.561987 0.020976 0.
0.563989 0.020977 0.
0.565991 0.0209779 0.
0.567992 0.0209785 0.
0.569993 0.0209789 0.
0.571995 0.0209792 0.
0.573995 0.0209793 0.
0.575995 0.0209794 0.
0.577995 0.0209794 0.
0.579995 0.0209797 0.
0.581996 0.02098 0.
0.583997 0.0209803 0.
0.585998 0.0209804 0.
0.587998 0.0209806 0.
0.589999 0.0209808 0.
0.591999 0.0209809 0.
0.594 0.020981 0.
0.596 0.0209811 0.
0.598 0.0209811 0.
0.6 0.0209811 0.
0.602001 0.0209812 0.
0.604001 0.0209812 0.
0.606001 0.0209812 0.
0.608002 0.0209811 0.
0.610002 0.020981 0.
0.612003 0.0209808 0.
0.614003 0.0209807 0.
0.616004 0.0209805 0.
0.618005 0.0209803 0.
0.620005 0.0209799 0.
0.622006 0.0209795 0.
0.624006 0.0209793 0.
0.626006 0.0209791 0.
0.628006 0.0209788 0.
0.630008 0.0209783 0.
0.632009 0.0209778 0.
0.63401 0.020977 0.
0.636013 0.0209756 0.
0.638015 0.0209742 0.
0.640019 0.0209715 0.
0.642025 0.0209678 0.
0.64403 0.0209641 0.
0.646038 0.0209587 0.
0.648047 0.020953 0.
0.650056 0.020947 0.
0.652077 0.0209311 0.
0.654098 0.0209153 0.
0.656126 0.0208952 0.
0.658172 0.0208628 0.
0.660218 0.0208306 0.
0.662275 0.0207939 0.
0.664343 0.0207522 0.
0.666411 0.0207106 0.
0.668524 0.0206492 0.
0.670648 0.020585 0.
0.672777 0.0205096 0.
0.67496 0.0203372 0.
0.677143 0.0201648 0.
0.679344 0.020007 0.
0.681566 0.0198502 0.
0.683789 0.0196878 0.
0.686059 0.0194473 0.
0.688338 0.0192079 0.
0.690632 0.0189529 0.
0.692956 0.0186253 0.
0.695286 0.0182958 0.
0.697633 0.0179558 0.
0.69999 0.0176131 0.
0.702359 0.017323 0.
0.495614 0.0188762 0.
0.497935 0.0191617 0.
0.500261 0.019536 0.
0.502586 0.0199299 0.
0.504908 0.0202978 0.
0.507214 0.0206298 0.
0.509516 0.0209581 0.
0.511788 0.0212046 0.
0.51405 0.0214313 0.
0.516303 0.0216566 0.
0.518513 0.0218205 0.
0.520722 0.0219819 0.
0.522909 0.0221402 0.
0.525079 0.022305 0.
0.527249 0.0224704 0.
0.529368 0.0225522 0.
0.531481 0.0226259 0.
0.533585 0.0226953 0.
0.535654 0.0227385 0.
0.537723 0.0227818 0.
0.539781 0.0228199 0.
0.541826 0.0228532 0.
0.543871 0.0228866 0.
0.545899 0.022908 0.
0.54792 0.0229251 0.
0.549941 0.0229422 0.
0.551951 0.0229488 0.
0.55396 0.0229551 0.
0.555968 0.022961 0.
0.557974 0.0229649 0.
0.559979 0.0229688 0.
0.561984 0.0229717 0.
0.563986 0.0229732 0.
0.565989 0.0229748 0.
0.567991 0.0229757 0.
0.569992 0.0229764 0.
0.571993 0.0229771 0.
0.573994 0.0229773 0.
0.575994 0.0229774 0.
0.577994 0.0229776 0.
0.579995 0.0229778 0.
0.581996 0.0229781 0.
0.583997 0.0229783 0.
0.585997 0.0229785 0.
0.587998 0.0229788 0.
0.589999 0.022979 0.
0.591999 0.0229792 0.
0.594 0.0229794 0.
0.596 0.0229795 0.
0.598 0.0229796 0.
0.6 0.0229797 0.
0.602001 0.0229797 0.
0.604001 0.0229797 0.
0.606001 0.0229796 0.
0.608002 0.0229794 0.
0.610002 0.0229793 0.
0.612003 0.0229791 0.
0.614004 0.0229789 0.
0.616004 0.0229786 0.
0.618005 0.0229783 0.
0.620006 0.022978 0.
0.622007 0.0229776 0.
0.624007 0.0229772 0.
0.626007 0.0229769 0.
0.628008 0.0229765 0.
0.630009 0.0229756 0.
0.632011 0.0229746 0.
0.634013 0.0229733 0.
0.636017 0.0229713 0.
0.63802 0.0229692 0.
0.640025 0.0229654 0.
0.642033 0.0229602 0.
0.64404 0.0229551 0.
0.646051 0.0229473 0.
0.648063 0.0229389 0.
0.650076 0.0229302 0.
0.652104 0.0229087 0.
0.654131 0.0228872 0.
0.656166 0.0228601 0.
0.658222 0.022818 0.
0.660278 0.0227763 0.
0.662345 0.0227321 0.
0.664422 0.0226846 0.
0.666499 0.0226373 0.
0.668625 0.0225506 0.
0.67076 0.0224592 0.
0.6729 0.0223573 0.
0.675085 0.0221707 0.
0.677271 0.0219844 0.
0.679476 0.02181 0.
0.681702 0.0216373 0.
0.683929 0.0214576 0.
0.686201 0.0212047 0.
0.688479 0.0209507 0.
0.690771 0.020679 0.
0.693087 0.0203421 0.
0.695409 0.0200024 0.
0.697746 0.0196603 0.
0.700089 0.0193229 0.
0.70244 0.0190453 0.
0.495586 0.0206518 0.
0.497884 0.0209092 0.
0.500191 0.0212676 0.
0.502498 0.021655 0.
0.504802 0.022024 0.
0.507096 0.0223623 0.
0.509385 0.0226969 0.
0.511653 0.0229602 0.
0.513913 0.0232036 0.
0.516166 0.0234458 0.
0.518379 0.0236241 0.
0.520592 0.0237982 0.
0.522784 0.0239735 0.
0.524959 0.0241571 0.
0.527133 0.0243417 0.
0.529263 0.0244453 0.
0.531387 0.02454 0.
0.533505 0.0246296 0.
0.535584 0.0246794 0.
0.537663 0.0247294 0.
0.53973 0.0247749 0.
0.541784 0.0248165 0.
0.543839 0.0248583 0.
0.545873 0.0248855 0.
0.547899 0.0249073 0.
0.549926 0.0249292 0.
0.551938 0.0249378 0.
0.553949 0.024946 0.
0.55596 0.0249536 0.
0.557967 0.0249586 0.
0.559974 0.0249637 0.
0.56198 0.0249674 0.
0.563983 0.0249695 0.
0.565987 0.0249716 0.
0.567989 0.0249729 0.
0.569991 0.0249739 0.
0.571992 0.0249749 0.
0.573993 0.0249752 0.
0.575993 0.0249755 0.
0.577993 0.0249757 0.
0.579994 0.0249759 0.
0.581995 0.0249762 0.
0.583996 0.0249764 0.
0.585997 0.0249767 0.
0.587998 0.0249769 0.
0.589999 0.0249772 0.
0.591999 0.0249775 0.
0.594 0.0249778 0.
0.596 0.024978 0.
0.598 0.0249781 0.
0.6 0.0249783 0.
0.602001 0.0249782 0.
0.604001 0.0249781 0.
0.606001 0.024978 0.
0.608002 0.0249778 0.
0.610002 0.0249776 0.
0.612003 0.0249773 0.
0.614004 0.024977 0.
0.616005 0.0249767 0.
0.618006 0.0249764 0.
0.620007 0.024976 0.
0.622007 0.0249756 0.
0.624008 0.0249752 0.
0.626008 0.0249747 0.
0.628009 0.0249742 0.
0.630011 0.0249728 0.
0.632013 0.0249715 0.
0.634016 0.0249697 0.
0.63602 0.0249669 0.
0.638025 0.0249642 0.
0.640032 0.0249593 0.
0.642041 0.0249526 0.
0.64405 0.024946 0.
0.646064 0.0249359 0.
0.64808 0.0249249 0.
0.650096 0.0249134 0.
0.65213 0.0248861 0.
0.654164 0.0248589 0.
0.656207 0.0248247 0.
0.658273 0.024773 0.
0.660339 0.0247216 0.
0.662416 0.0246702 0.
0.664502 0.0246169 0.
0.666588 0.0245638 0.
0.668727 0.0244502 0.
0.670873 0.0243316 0.
0.673023 0.0242044 0.
0.675211 0.0240036 0.
0.677399 0.0238033 0.
0.679609 0.0236116 0.
0.681837 0.023423 0.
0.684068 0.0232255 0.
0.686338 0.0229596 0.
0.688613 0.0226927 0.
0.690897 0.0224081 0.
0.693198 0.0220674 0.
0.695503 0.0217253 0.
0.697822 0.0213855 0.
0.700145 0.0210556 0.
0.702475 0.0207897 0.
0.495601 0.0224512 0.
0.497872 0.0226796 0.
0.500154 0.0230202 0.
0.502439 0.0233991 0.
0.504723 0.0237664 0.
0.507001 0.0241083 0.
0.509275 0.0244468 0.
0.511536 0.0247238 0.
0.513791 0.0249806 0.
0.516039 0.0252355 0.
0.518252 0.0254271 0.
0.520462 0.0256132 0.
0.522656 0.0258014 0.
0.524831 0.0259956 0.
0.527006 0.0261899 0.
0.529145 0.0263143 0.
0.531279 0.0264306 0.
0.533407 0.0265417 0.
0.535494 0.0265971 0.
0.537581 0.0266526 0.
0.539657 0.0267054 0.
0.54172 0.0267569 0.
0.543784 0.0268088 0.
0.545827 0.0268443 0.
0.547861 0.0268731 0.
0.549896 0.0269021 0.
0.551913 0.0269153 0.
0.55393 0.0269279 0.
0.555945 0.0269395 0.
0.557955 0.0269466 0.
0.559965 0.0269538 0.
0.561973 0.0269593 0.
0.563977 0.0269626 0.
0.565982 0.0269659 0.
0.567985 0.0269681 0.
0.569988 0.0269698 0.
0.57199 0.0269714 0.
0.573991 0.026972 0.
0.575992 0.0269724 0.
0.577992 0.0269728 0.
0.579993 0.0269732 0.
0.581995 0.0269735 0.
0.583996 0.0269739 0.
0.585997 0.0269742 0.
0.587998 0.0269746 0.
0.589998 0.0269749 0.
0.591999 0.0269753 0.
0.594 0.0269756 0.
0.596 0.0269759 0.
0.598 0.026976 0.
0.6 0.0269762 0.
0.602001 0.0269762 0.
0.604001 0.0269761 0.
0.606001 0.026976 0.
0.608002 0.0269756 0.
0.610003 0.0269752 0.
0.612004 0.0269749 0.
0.614005 0.0269746 0.
0.616006 0.0269742 0.
0.618007 0.0269737 0.
0.620008 0.0269732 0.
0.622009 0.0269726 0.
0.62401 0.0269719 0.
0.626011 0.0269712 0.
0.628012 0.0269703 0.
0.630015 0.0269681 0.
0.632018 0.0269659 0.
0.634022 0.0269629 0.
0.636028 0.0269586 0.
0.638034 0.0269542 0.
0.640044 0.0269472 0.
0.642056 0.026938 0.
0.644069 0.0269288 0.
0.646089 0.0269136 0.
0.64811 0.026897 0.
0.650132 0.0268797 0.
0.652175 0.0268445 0.
0.654218 0.0268094 0.
0.656271 0.0267663 0.
0.658345 0.0267048 0.
0.660419 0.0266437 0.
0.662506 0.0265842 0.
0.664602 0.0265238 0.
0.666698 0.0264636 0.
0.668845 0.0263266 0.
0.670998 0.0261851 0.
0.673155 0.0260369 0.
0.675341 0.0258289 0.
0.677528 0.0256208 0.
0.679738 0.0254152 0.
0.681964 0.0252121 0.
0.684194 0.0249989 0.
0.686457 0.024723 0.
0.688725 0.0244458 0.
0.690998 0.0241505 0.
0.693281 0.0238085 0.
0.695567 0.0234664 0.
0.697862 0.0231318 0.
0.700159 0.0228137 0.
0.702459 0.0225619 0.
0.495651 0.0242832 0.
0.497887 0.024487 0.
0.50014 0.024807 0.
0.502399 0.0251721 0.
0.504661 0.0255311 0.
0.506922 0.0258728 0.
0.509181 0.0262113 0.
0.511431 0.0264961 0.
0.513674 0.0267599 0.
0.515913 0.0270225 0.
0.518122 0.0272276 0.
0.520329 0.0274259 0.
0.522523 0.0276263 0.
0.524699 0.0278291 0.
0.526875 0.0280319 0.
0.529024 0.0281768 0.
0.531167 0.0283156 0.
0.533306 0.0284502 0.
0.535401 0.0285116 0.
0.537496 0.0285731 0.
0.539582 0.0286336 0.
0.541655 0.0286955 0.
0.543728 0.0287579 0.
0.54578 0.0288021 0.
0.547823 0.0288382 0.
0.549866 0.0288745 0.
0.551888 0.0288924 0.
0.55391 0.0289095 0.
0.55593 0.0289252 0.
0.557943 0.0289345 0.
0.559955 0.0289438 0.
0.561965 0.0289511 0.
0.563971 0.0289556 0.
0.565978 0.0289602 0.
0.567982 0.0289633 0.
0.569985 0.0289656 0.
0.571988 0.0289679 0.
0.573989 0.0289687 0.
0.57599 0.0289693 0.
0.577991 0.0289699 0.
0.579993 0.0289704 0.
0.581994 0.0289709 0.
0.583995 0.0289714 0.
0.585996 0.0289718 0.
0.587997 0.0289722 0.
0.589998 0.0289726 0.
0.591999 0.028973 0.
0.594 0.0289734 0.
0.596 0.0289737 0.
0.598 0.028974 0.
0.6 0.0289742 0.
0.602001 0.0289742 0.
0.604001 0.0289741 0.
0.606002 0.0289739 0.
0.608002 0.0289734 0.
0.610003 0.0289729 0.
0.612004 0.0289725 0.
0.614005 0.0289721 0.
0.616006 0.0289717 0.
0.618008 0.028971 0.
0.620009 0.0289703 0.
0.62201 0.0289696 0.
0.624012 0.0289686 0.
0.626013 0.0289676 0.
0.628015 0.0289664 0.
0.630018 0.0289633 0.
0.632022 0.0289602 0.
0.634027 0.0289561 0.
0.636035 0.0289502 0.
0.638043 0.0289442 0.
0.640056 0.0289349 0.
0.642072 0.0289231 0.
0.644089 0.0289114 0.
0.646114 0.028891 0.
0.648141 0.0288687 0.
0.650169 0.0288454 0.
0.652222 0.0288019 0.
0.654275 0.0287586 0.
0.656337 0.0287061 0.
0.658419 0.0286345 0.
0.660502 0.0285632 0.
0.6626 0.0284948 0.
0.664707 0.0284262 0.
0.666814 0.0283565 0.
0.668968 0.0281964 0.
0.671127 0.0280326 0.
0.67329 0.0278655 0.
0.675476 0.027651 0.
0.677662 0.0274365 0.
0.67987 0.0272175 0.
0.682091 0.027001 0.
0.684315 0.0267745 0.
0.686564 0.0264945 0.
0.688818 0.0262131 0.
0.691077 0.0259131 0.
0.693342 0.0255728 0.
0.695609 0.0252334 0.
0.697875 0.0249119 0.
0.700138 0.0246144 0.
0.702399 0.0243819 0.
0.495705 0.0261354 0.
0.497906 0.0263171 0.
0.50013 0.0266143 0.
0.502363 0.026958 0.
0.504603 0.0273032 0.
0.506848 0.0276421 0.
0.50909 0.0279792 0.
0.511329 0.0282709 0.
0.513562 0.0285416 0.
0.515791 0.0288117 0.
0.517998 0.0290293 0.
0.520202 0.0292396 0.
0.522396 0.0294524 0.
0.524574 0.0296628 0.
0.526753 0.029873 0.
0.52891 0.0300362 0.
0.531063 0.0301961 0.
0.533211 0.0303521 0.
0.535313 0.0304206 0.
0.537415 0.0304885 0.
0.539509 0.0305567 0.
0.54159 0.0306284 0.
0.543671 0.0307005 0.
0.545731 0.0307535 0.
0.547782 0.0307973 0.
0.549832 0.0308414 0.
0.55186 0.0308649 0.
0.553887 0.0308874 0.
0.555912 0.0309078 0.
0.557927 0.0309197 0.
0.559943 0.0309317 0.
0.561956 0.0309411 0.
0.563964 0.0309472 0.
0.565972 0.0309533 0.
0.567977 0.0309575 0.
0.569981 0.0309607 0.
0.571985 0.030964 0.
0.573987 0.0309652 0.
0.575988 0.0309661 0.
0.57799 0.030967 0.
0.579992 0.0309677 0.
0.581993 0.0309684 0.
0.583994 0.030969 0.
0.585996 0.0309695 0.
0.587997 0.0309699 0.
0.589998 0.0309705 0.
0.591999 0.030971 0.
0.593999 0.0309715 0.
0.596 0.0309719 0.
0.598 0.0309722 0.
0.6 0.0309725 0.
0.602001 0.0309724 0.
0.604001 0.0309722 0.
0.606002 0.030972 0.
0.608003 0.0309714 0.
0.610004 0.0309708 0.
0.612005 0.0309702 0.
0.614006 0.0309697 0.
0.616007 0.0309692 0.
0.618009 0.0309684 0.
0.62001 0.0309674 0.
0.622012 0.0309664 0.
0.624014 0.030965 0.
0.626016 0.0309636 0.
0.628018 0.0309618 0.
0.630023 0.0309576 0.
0.632028 0.0309534 0.
0.634035 0.0309479 0.
0.636045 0.0309399 0.
0.638055 0.030932 0.
0.640071 0.03092 0.
0.642092 0.0309052 0.
0.644112 0.0308904 0.
0.646142 0.0308642 0.
0.648175 0.0308355 0.
0.650209 0.0308054 0.
0.65227 0.030753 0.
0.654331 0.030701 0.
0.656402 0.0306392 0.
0.658492 0.0305585 0.
0.660581 0.030478 0.
0.662688 0.0304006 0.
0.664805 0.0303233 0.
0.666923 0.0302433 0.
0.669083 0.0300628 0.
0.671248 0.0298784 0.
0.673417 0.0296944 0.
0.675603 0.0294743 0.
0.677789 0.029254 0.
0.679997 0.0290212 0.
0.682213 0.0287914 0.
0.684431 0.0285529 0.
0.686667 0.0282688 0.
0.688906 0.0279838 0.
0.691151 0.0276804 0.
0.693396 0.0273449 0.
0.695643 0.0270122 0.
0.697883 0.0267105 0.
0.700112 0.0264408 0.
0.702335 0.0262329 0.
0.495738 0.0280043 0.
0.497911 0.0281654 0.
0.500112 0.0284399 0.
0.502328 0.028763 0.
0.504553 0.0290934 0.
0.506788 0.0294286 0.
0.50902 0.0297636 0.
0.511251 0.0300602 0.
0.513477 0.0303354 0.
0.5157 0.0306098 0.
0.517905 0.030837 0.
0.520107 0.0310561 0.
0.522301 0.0312772 0.
0.524481 0.0314922 0.
0.526661 0.0317074 0.
0.528821 0.0318852 0.
0.530975 0.0320627 0.
0.533125 0.0322364 0.
0.535234 0.0323161 0.
0.537341 0.0323939 0.
0.53944 0.0324718 0.
0.541526 0.0325527 0.
0.543611 0.0326339 0.
0.545678 0.0326962 0.
0.547737 0.0327488 0.
0.549795 0.0328017 0.
0.551828 0.032832 0.
0.55386 0.0328607 0.
0.55589 0.032887 0.
0.557909 0.032902 0.
0.559929 0.0329171 0.
0.561944 0.0329292 0.
0.563954 0.0329372 0.
0.565965 0.0329452 0.
0.567971 0.0329508 0.
0.569977 0.0329551 0.
0.571982 0.0329594 0.
0.573984 0.0329612 0.
0.575986 0.0329626 0.
0.577989 0.032964 0.
0.57999 0.0329649 0.
0.581992 0.0329658 0.
0.583994 0.0329667 0.
0.585995 0.0329672 0.
0.587996 0.0329678 0.
0.589997 0.0329684 0.
0.591998 0.0329691 0.
0.593999 0.0329698 0.
0.596 0.0329703 0.
0.598 0.0329707 0.
0.6 0.0329711 0.
0.602001 0.0329708 0.
0.604002 0.0329705 0.
0.606002 0.0329702 0.
0.608003 0.0329695 0.
0.610004 0.0329687 0.
0.612005 0.032968 0.
0.614007 0.0329673 0.
0.616008 0.0329667 0.
0.61801 0.0329656 0.
0.620012 0.0329644 0.
0.622014 0.0329632 0.
0.624017 0.0329612 0.
0.62602 0.0329591 0.
0.628023 0.0329566 0.
0.630029 0.032951 0.
0.632035 0.0329453 0.
0.634044 0.032938 0.
0.636057 0.0329276 0.
0.63807 0.0329173 0.
0.64009 0.0329022 0.
0.642114 0.0328837 0.
0.644138 0.0328652 0.
0.646174 0.0328323 0.
0.648213 0.0327963 0.
0.650253 0.0327584 0.
0.652322 0.0326957 0.
0.65439 0.0326334 0.
0.656467 0.0325618 0.
0.658561 0.0324729 0.
0.660655 0.0323843 0.
0.662767 0.0322956 0.
0.664889 0.032206 0.
0.667011 0.0321122 0.
0.669173 0.0319163 0.
0.671338 0.0317167 0.
0.673509 0.0315198 0.
0.675697 0.0312953 0.
0.677884 0.0310709 0.
0.68009 0.0308302 0.
0.682303 0.0305919 0.
0.684518 0.0303448 0.
0.686746 0.030058 0.
0.688977 0.0297704 0.
0.69121 0.0294652 0.
0.693443 0.0291357 0.
0.695676 0.0288108 0.
0.697896 0.0285279 0.
0.700103 0.0282817 0.
0.702297 0.0280957 0.
0.495781 0.0298935 0.
0.497932 0.0300375 0.
0.500115 0.0302892 0.
0.502315 0.0305892 0.
0.504526 0.030902 0.
0.506747 0.0312302 0.
0.508967 0.0315594 0.
0.511186 0.0318571 0.
0.513403 0.0321339 0.
0.515617 0.0324106 0.
0.517818 0.0326453 0.
0.520017 0.0328719 0.
0.522209 0.0331011 0.
0.524389 0.0333213 0.
0.52657 0.0335415 0.
0.528731 0.0337335 0.
0.530887 0.0339285 0.
0.53304 0.0341201 0.
0.535154 0.0342111 0.
0.537267 0.0342989 0.
0.539372 0.0343867 0.
0.541462 0.0344766 0.
0.543552 0.034567 0.
0.545626 0.0346386 0.
0.547691 0.0347001 0.
0.549757 0.0347618 0.
0.551796 0.0347989 0.
0.553833 0.034834 0.
0.555868 0.0348662 0.
0.557891 0.0348843 0.
0.559914 0.0349025 0.
0.561933 0.0349172 0.
0.563945 0.0349271 0.
0.565957 0.0349371 0.
0.567966 0.0349441 0.
0.569972 0.0349495 0.
0.571978 0.0349549 0.
0.573981 0.0349573 0.
0.575984 0.0349592 0.
0.577987 0.0349611 0.
0.579989 0.0349622 0.
0.581991 0.0349633 0.
0.583993 0.0349643 0.
0.585994 0.034965 0.
0.587996 0.0349656 0.
0.589997 0.0349664 0.
0.591998 0.0349673 0.
0.593999 0.0349681 0.
0.596 0.0349687 0.
0.598 0.0349691 0.
0.6 0.0349696 0.
0.602001 0.0349692 0.
0.604002 0.0349689 0.
0.606002 0.0349684 0.
0.608003 0.0349675 0.
0.610005 0.0349667 0.
0.612006 0.0349658 0.
0.614007 0.034965 0.
0.616009 0.0349641 0.
0.618011 0.0349629 0.
0.620014 0.0349614 0.
0.622016 0.0349599 0.
0.62402 0.0349573 0.
0.626023 0.0349546 0.
0.628027 0.0349514 0.
0.630035 0.0349443 0.
0.632043 0.0349373 0.
0.634053 0.0349282 0.
0.636069 0.0349153 0.
0.638085 0.0349025 0.
0.640108 0.0348842 0.
0.642137 0.0348621 0.
0.644165 0.03484 0.
0.646207 0.0348002 0.
0.648251 0.0347569 0.
0.650297 0.0347111 0.
0.652373 0.0346381 0.
0.654448 0.0345656 0.
0.656532 0.0344842 0.
0.658631 0.034387 0.
0.660729 0.0342903 0.
0.662846 0.03419 0.
0.664972 0.0340881 0.
0.6671 0.0339805 0.
0.669263 0.0337691 0.
0.671429 0.0335544 0.
0.6736 0.0333449 0.
0.675788 0.0331152 0.
0.677975 0.0328855 0.
0.680176 0.0326386 0.
0.682382 0.0323949 0.
0.68459 0.0321428 0.
0.686808 0.031855 0.
0.689028 0.0315668 0.
0.691249 0.0312643 0.
0.693468 0.0309454 0.
0.695687 0.0306318 0.
0.69789 0.0303675 0.
0.70008 0.0301431 0.
0.702254 0.0299768 0.
0.49585 0.0317974 0.
0.497982 0.0319263 0.
0.500147 0.0321559 0.
0.502328 0.0324307 0.
0.504521 0.0327236 0.
0.506727 0.0330434 0.
0.508932 0.0333661 0.
0.511139 0.0336636 0.
0.513346 0.0339415 0.
0.515551 0.0342197 0.
0.517746 0.034461 0.
0.51994 0.0346945 0.
0.522128 0.0349305 0.
0.524306 0.0351547 0.
0.526483 0.035379 0.
0.528643 0.0355817 0.
0.530797 0.0357893 0.
0.532949 0.035993 0.
0.535068 0.0360962 0.
0.537186 0.0361945 0.
0.539296 0.036292 0.
0.54139 0.0363879 0.
0.543484 0.0364841 0.
0.545563 0.0365641 0.
0.547635 0.0366348 0.
0.549707 0.0367059 0.
0.551752 0.0367512 0.
0.553795 0.0367941 0.
0.555836 0.0368336 0.
0.557863 0.036856 0.
0.559891 0.0368783 0.
0.561914 0.0368969 0.
0.56393 0.0369101 0.
0.565945 0.0369232 0.
0.567956 0.0369325 0.
0.569964 0.0369397 0.
0.571972 0.036947 0.
0.573977 0.0369505 0.
0.57598 0.0369535 0.
0.577984 0.0369563 0.
0.579987 0.0369579 0.
0.581989 0.0369595 0.
0.583992 0.0369609 0.
0.585993 0.0369619 0.
0.587995 0.0369628 0.
0.589996 0.0369638 0.
0.591998 0.0369648 0.
0.593999 0.0369658 0.
0.595999 0.0369664 0.
0.598 0.036967 0.
0.6 0.0369675 0.
0.602001 0.0369671 0.
0.604002 0.0369666 0.
0.606003 0.036966 0.
0.608004 0.036965 0.
0.610005 0.0369639 0.
0.612007 0.0369628 0.
0.614009 0.0369616 0.
0.616011 0.0369605 0.
0.618013 0.0369587 0.
0.620017 0.0369566 0.
0.62202 0.0369545 0.
0.624024 0.0369507 0.
0.626029 0.0369467 0.
0.628034 0.036942 0.
0.630045 0.0369326 0.
0.632055 0.0369232 0.
0.634068 0.0369112 0.
0.636088 0.0368944 0.
0.638109 0.0368776 0.
0.640137 0.0368551 0.
0.64217 0.0368286 0.
0.644203 0.0368021 0.
0.646251 0.0367541 0.
0.6483 0.0367023 0.
0.650353 0.0366473 0.
0.652435 0.0365644 0.
0.654516 0.036482 0.
0.656605 0.0363925 0.
0.658707 0.0362903 0.
0.660809 0.0361882 0.
0.66293 0.036077 0.
0.665059 0.0359631 0.
0.66719 0.0358419 0.
0.669351 0.03562 0.
0.671515 0.0353946 0.
0.673684 0.0351757 0.
0.675868 0.0349414 0.
0.678052 0.0347071 0.
0.680247 0.0344548 0.
0.682445 0.0342061 0.
0.684645 0.0339495 0.
0.686853 0.0336615 0.
0.689061 0.0333735 0.
0.691269 0.0330752 0.
0.693472 0.0327677 0.
0.695674 0.0324671 0.
0.697859 0.0322233 0.
0.700028 0.032022 0.
0.702184 0.0318734 0.
0.495937 0.0337116 0.
0.498052 0.0338279 0.
0.500199 0.0340392 0.
0.50236 0.0342917 0.
0.504535 0.0345661 0.
0.506725 0.0348761 0.
0.508917 0.0351903 0.
0.511111 0.0354855 0.
0.513306 0.0357631 0.
0.5155 0.0360411 0.
0.517687 0.0362854 0.
0.519873 0.0365219 0.
0.522055 0.0367615 0.
0.524226 0.03699 0.
0.526397 0.0372185 0.
0.528554 0.0374297 0.
0.530706 0.0376472 0.
0.532856 0.0378611 0.
0.53498 0.0379773 0.
0.537102 0.0380869 0.
0.539218 0.0381946 0.
0.541316 0.0382963 0.
0.543414 0.0383983 0.
0.545499 0.0384868 0.
0.547577 0.0385673 0.
0.549656 0.0386482 0.
0.551708 0.0387022 0.
0.553756 0.0387532 0.
0.555802 0.0388004 0.
0.557835 0.0388271 0.
0.559868 0.0388538 0.
0.561895 0.0388764 0.
0.563914 0.0388928 0.
0.565933 0.0389092 0.
0.567947 0.0389209 0.
0.569957 0.0389299 0.
0.571966 0.038939 0.
0.573972 0.0389436 0.
0.575977 0.0389477 0.
0.577981 0.0389516 0.
0.579984 0.0389536 0.
0.581987 0.0389557 0.
0.58399 0.0389575 0.
0.585992 0.0389588 0.
0.587994 0.03896 0.
0.589996 0.0389612 0.
0.591997 0.0389623 0.
0.593998 0.0389634 0.
0.595999 0.0389641 0.
0.598 0.0389648 0.
0.6 0.0389654 0.
0.602001 0.0389649 0.
0.604002 0.0389643 0.
0.606003 0.0389637 0.
0.608005 0.0389624 0.
0.610006 0.0389611 0.
0.612008 0.0389597 0.
0.61401 0.0389582 0.
0.616012 0.0389567 0.
0.618016 0.0389544 0.
0.62002 0.0389517 0.
0.622023 0.038949 0.
0.624029 0.038944 0.
0.626035 0.0389387 0.
0.628042 0.0389326 0.
0.630054 0.0389207 0.
0.632067 0.0389089 0.
0.634084 0.0388939 0.
0.636108 0.0388731 0.
0.638133 0.0388523 0.
0.640165 0.0388254 0.
0.642204 0.0387943 0.
0.644242 0.0387633 0.
0.646296 0.0387068 0.
0.648351 0.0386461 0.
0.650411 0.0385814 0.
0.652498 0.0384881 0.
0.654586 0.0383954 0.
0.65668 0.0382978 0.
0.658786 0.0381906 0.
0.660892 0.0380836 0.
0.663017 0.037961 0.
0.665148 0.0378348 0.
0.667282 0.0376999 0.
0.66944 0.0374694 0.
0.6716 0.0372358 0.
0.673765 0.0370097 0.
0.675941 0.0367717 0.
0.678118 0.0365333 0.
0.680305 0.0362791 0.
0.682495 0.0360288 0.
0.684686 0.0357709 0.
0.68688 0.0354843 0.
0.689076 0.035198 0.
0.691268 0.0349055 0.
0.693456 0.0346098 0.
0.695641 0.0343221 0.
0.697806 0.034096 0.
0.699957 0.0339148 0.
0.702095 0.0337807 0.
0.496018 0.035635 0.
0.49812 0.0357406 0.
0.500251 0.0359348 0.
0.502395 0.0361665 0.
0.504552 0.0364231 0.
0.506729 0.0367204 0.
0.508905 0.0370225 0.
0.511086 0.0373126 0.
0.51327 0.0375885 0.
0.515452 0.0378654 0.
0.517631 0.038112 0.
0.519809 0.0383513 0.
0.521984 0.0385944 0.
0.524149 0.038827 0.
0.526314 0.0390596 0.
0.528469 0.0392789 0.
0.530619 0.0395057 0.
0.532768 0.0397292 0.
0.534897 0.0398578 0.
0.537024 0.0399786 0.
0.539144 0.0400965 0.
0.541246 0.0402033 0.
0.543348 0.0403103 0.
0.545439 0.0404066 0.
0.547522 0.0404964 0.
0.549606 0.0405869 0.
0.551663 0.0406496 0.
0.553717 0.0407087 0.
0.555768 0.0407637 0.
0.557805 0.0407947 0.
0.559842 0.0408258 0.
0.561874 0.0408525 0.
0.563896 0.0408726 0.
0.565919 0.0408928 0.
0.567935 0.0409072 0.
0.569947 0.0409185 0.
0.571959 0.0409297 0.
0.573966 0.0409358 0.
0.575972 0.0409412 0.
0.577977 0.0409463 0.
0.579981 0.0409489 0.
0.581985 0.0409516 0.
0.583988 0.0409539 0.
0.585991 0.0409555 0.
0.587993 0.0409571 0.
0.589995 0.0409585 0.
0.591996 0.0409598 0.
0.593998 0.0409611 0.
0.595999 0.040962 0.
0.598 0.0409627 0.
0.6 0.0409634 0.
0.602002 0.0409628 0.
0.604003 0.0409621 0.
0.606004 0.0409613 0.
0.608005 0.0409598 0.
0.610007 0.0409582 0.
0.612009 0.0409565 0.
0.614012 0.0409546 0.
0.616014 0.0409527 0.
0.618019 0.0409497 0.
0.620023 0.0409463 0.
0.622028 0.0409428 0.
0.624035 0.0409363 0.
0.626042 0.0409294 0.
0.628051 0.0409215 0.
0.630066 0.0409069 0.
0.632081 0.0408923 0.
0.634101 0.0408738 0.
0.63613 0.0408485 0.
0.638158 0.0408232 0.
0.640195 0.0407919 0.
0.642238 0.0407565 0.
0.644281 0.0407212 0.
0.64634 0.040656 0.
0.648401 0.0405863 0.
0.650466 0.0405121 0.
0.652559 0.0404091 0.
0.654651 0.0403067 0.
0.656751 0.0402016 0.
0.658861 0.04009 0.
0.660971 0.0399786 0.
0.663099 0.0398446 0.
0.665233 0.0397064 0.
0.667369 0.0395584 0.
0.669525 0.0393198 0.
0.671681 0.0390783 0.
0.673843 0.0388455 0.
0.676012 0.0386038 0.
0.678182 0.0383616 0.
0.680361 0.0381058 0.
0.682542 0.0378545 0.
0.684723 0.0375962 0.
0.686905 0.0373126 0.
0.689087 0.0370299 0.
0.691265 0.0367456 0.
0.693436 0.0364644 0.
0.695605 0.0361912 0.
0.697754 0.0359816 0.
0.699888 0.0358185 0.
0.702011 0.0356972 0.
0.496078 0.0375637 0.
0.49817 0.0376599 0.
0.500289 0.0378384 0.
0.502418 0.0380514 0.
0.504563 0.0382908 0.
0.506727 0.0385759 0.
0.508892 0.0388667 0.
0.511063 0.0391515 0.
0.513238 0.0394255 0.
0.515413 0.039701 0.
0.517587 0.0399496 0.
0.51976 0.0401913 0.
0.52193 0.0404368 0.
0.524092 0.0406727 0.
0.526254 0.0409083 0.
0.528408 0.0411327 0.
0.530557 0.0413645 0.
0.532706 0.0415927 0.
0.534835 0.0417329 0.
0.536963 0.0418653 0.
0.539084 0.041994 0.
0.541187 0.042105 0.
0.543291 0.0422162 0.
0.545384 0.0423197 0.
0.54747 0.042419 0.
0.549557 0.042519 0.
0.551619 0.042591 0.
0.553677 0.0426588 0.
0.555733 0.0427222 0.
0.557773 0.0427577 0.
0.559814 0.0427932 0.
0.56185 0.0428244 0.
0.563876 0.0428489 0.
0.565903 0.0428735 0.
0.567922 0.0428913 0.
0.569937 0.0429051 0.
0.571951 0.0429191 0.
0.573959 0.0429268 0.
0.575966 0.0429338 0.
0.577973 0.0429403 0.
0.579978 0.0429437 0.
0.581982 0.0429471 0.
0.583986 0.0429501 0.
0.585989 0.0429521 0.
0.587992 0.042954 0.
0.589994 0.0429558 0.
0.591995 0.0429573 0.
0.593997 0.0429589 0.
0.595998 0.0429599 0.
0.597999 0.0429607 0.
0.6 0.0429615 0.
0.602002 0.0429607 0.
0.604003 0.0429599 0.
0.606004 0.0429589 0.
0.608006 0.0429571 0.
0.610008 0.0429553 0.
0.612011 0.0429532 0.
0.614014 0.0429507 0.
0.616017 0.0429483 0.
0.618022 0.0429445 0.
0.620028 0.0429401 0.
0.622034 0.0429357 0.
0.624042 0.0429274 0.
0.626051 0.0429186 0.
0.628061 0.0429086 0.
0.630079 0.0428906 0.
0.632097 0.0428727 0.
0.634121 0.0428501 0.
0.636154 0.0428197 0.
0.638186 0.0427893 0.
0.640228 0.0427533 0.
0.642274 0.0427137 0.
0.64432 0.0426742 0.
0.646384 0.0425996 0.
0.648449 0.0425204 0.
0.650519 0.0424362 0.
0.652613 0.042324 0.
0.654708 0.0422123 0.
0.656809 0.0421003 0.
0.65892 0.0419842 0.
0.661031 0.0418684 0.
0.66316 0.0417237 0.
0.665295 0.0415747 0.
0.667432 0.041416 0.
0.669586 0.0411736 0.
0.671741 0.0409281 0.
0.673901 0.0406908 0.
0.676066 0.0404463 0.
0.678232 0.0402009 0.
0.680405 0.0399439 0.
0.68258 0.0396916 0.
0.684755 0.0394328 0.
0.686928 0.0391525 0.
0.6891 0.0388737 0.
0.691266 0.0385977 0.
0.693425 0.0383298 0.
0.69558 0.0380705 0.
0.697715 0.0378764 0.
0.699836 0.0377285 0.
0.701948 0.0376183 0.
0.496143 0.0394972 0.
0.498228 0.0395848 0.
0.500336 0.0397509 0.
0.502454 0.0399486 0.
0.504586 0.0401739 0.
0.506739 0.040446 0.
0.508893 0.0407235 0.
0.511055 0.041001 0.
0.513222 0.041272 0.
0.515389 0.0415449 0.
0.517555 0.0417937 0.
0.51972 0.0420357 0.
0.521884 0.0422819 0.
0.524042 0.04252 0.
0.526198 0.0427578 0.
0.52835 0.0429867 0.
0.530498 0.043223 0.
0.532644 0.0434559 0.
0.534774 0.0436076 0.
0.536902 0.0437517 0.
0.539024 0.0438913 0.
0.541128 0.0440066 0.
0.543233 0.044122 0.
0.545329 0.0442325 0.
0.547419 0.0443413 0.
0.549509 0.0444508 0.
0.551575 0.0445322 0.
0.553637 0.0446087 0.
0.555697 0.0446807 0.
0.557742 0.0447206 0.
0.559786 0.0447606 0.
0.561826 0.0447963 0.
0.563856 0.0448252 0.
0.565887 0.0448542 0.
0.567909 0.0448753 0.
0.569926 0.0448918 0.
0.571942 0.0449084 0.
0.573952 0.0449179 0.
0.57596 0.0449263 0.
0.577969 0.0449344 0.
0.579974 0.0449385 0.
0.581979 0.0449427 0.
0.583984 0.0449462 0.
0.585987 0.0449486 0.
0.58799 0.044951 0.
0.589993 0.0449531 0.
0.591994 0.0449549 0.
0.593996 0.0449567 0.
0.595998 0.0449578 0.
0.597999 0.0449587 0.
0.6 0.0449597 0.
0.602002 0.0449587 0.
0.604004 0.0449578 0.
0.606005 0.0449565 0.
0.608007 0.0449544 0.
0.61001 0.0449523 0.
0.612012 0.0449498 0.
0.614016 0.0449468 0.
0.61602 0.0449438 0.
0.618026 0.0449393 0.
0.620032 0.044934 0.
0.622039 0.0449286 0.
0.624049 0.0449185 0.
0.62606 0.0449078 0.
0.628072 0.0448957 0.
0.630093 0.0448744 0.
0.632114 0.0448531 0.
0.634141 0.0448265 0.
0.636178 0.0447908 0.
0.638215 0.0447553 0.
0.64026 0.0447147 0.
0.64231 0.0446709 0.
0.64436 0.0446271 0.
0.646428 0.044543 0.
0.648497 0.0444543 0.
0.650571 0.04436 0.
0.652668 0.0442385 0.
0.654765 0.0441177 0.
0.656868 0.0439989 0.
0.658979 0.0438784 0.
0.661091 0.0437581 0.
0.663222 0.0436024 0.
0.665357 0.0434424 0.
0.667494 0.0432732 0.
0.669645 0.0430274 0.
0.671797 0.0427786 0.
0.673953 0.0425379 0.
0.676113 0.0422916 0.
0.678273 0.0420444 0.
0.680439 0.0417882 0.
0.682605 0.0415366 0.
0.684771 0.0412793 0.
0.686935 0.0410037 0.
0.689099 0.04073 0.
0.691257 0.0404631 0.
0.693403 0.0402088 0.
0.695547 0.039963 0.
0.69767 0.0397821 0.
0.699779 0.0396462 0.
0.701881 0.0395439 0.
0.496224 0.0414358 0.
0.498302 0.041517 0.
0.500401 0.0416725 0.
0.502507 0.0418563 0.
0.504627 0.042068 0.
0.506767 0.042326 0.
0.50891 0.0425891 0.
0.511061 0.0428582 0.
0.513219 0.0431258 0.
0.515377 0.0433957 0.
0.517535 0.0436443 0.
0.519693 0.0438866 0.
0.521849 0.0441333 0.
0.524002 0.0443735 0.
0.526153 0.0446135 0.
0.528301 0.0448461 0.
0.530445 0.0450857 0.
0.532589 0.045322 0.
0.534717 0.0454837 0.
0.536844 0.0456382 0.
0.538966 0.0457879 0.
0.54107 0.0459063 0.
0.543175 0.046025 0.
0.545271 0.0461407 0.
0.547363 0.0462566 0.
0.549455 0.0463728 0.
0.551525 0.0464635 0.
0.553592 0.0465494 0.
0.555656 0.0466306 0.
0.557704 0.046674 0.
0.559751 0.0467174 0.
0.561794 0.0467571 0.
0.563829 0.0467912 0.
0.565864 0.0468254 0.
0.56789 0.046851 0.
0.56991 0.0468714 0.
0.57193 0.0468919 0.
0.573942 0.0469041 0.
0.575952 0.046915 0.
0.577962 0.0469253 0.
0.579969 0.0469306 0.
0.581975 0.0469359 0.
0.583981 0.0469404 0.
0.585984 0.0469435 0.
0.587988 0.0469465 0.
0.589991 0.0469491 0.
0.591993 0.0469513 0.
0.593996 0.0469535 0.
0.595997 0.0469547 0.
0.597999 0.0469557 0.
0.6 0.0469567 0.
0.602002 0.0469556 0.
0.604004 0.0469545 0.
0.606006 0.046953 0.
0.608009 0.0469504 0.
0.610011 0.0469478 0.
0.612015 0.0469447 0.
0.61402 0.0469408 0.
0.616024 0.0469369 0.
0.618031 0.0469311 0.
0.620039 0.0469245 0.
0.622048 0.0469178 0.
0.62406 0.0469047 0.
0.626073 0.046891 0.
0.628088 0.0468756 0.
0.630112 0.04685 0.
0.632137 0.0468244 0.
0.634168 0.0467928 0.
0.636209 0.0467516 0.
0.638249 0.0467106 0.
0.640298 0.0466662 0.
0.64235 0.0466193 0.
0.644403 0.0465726 0.
0.646475 0.0464779 0.
0.64855 0.0463788 0.
0.650628 0.0462748 0.
0.652726 0.0461472 0.
0.654824 0.0460199 0.
0.656927 0.0458961 0.
0.659037 0.0457719 0.
0.661148 0.0456479 0.
0.663278 0.0454822 0.
0.665413 0.0453123 0.
0.667549 0.0451342 0.
0.669696 0.0448861 0.
0.671843 0.0446351 0.
0.673994 0.0443914 0.
0.676148 0.0441432 0.
0.678302 0.0438944 0.
0.68046 0.0436391 0.
0.682618 0.0433884 0.
0.684775 0.043133 0.
0.68693 0.0428628 0.
0.689084 0.0425952 0.
0.69123 0.0423381 0.
0.693365 0.0420981 0.
0.695497 0.0418663 0.
0.697607 0.0416973 0.
0.699705 0.0415724 0.
0.701797 0.041477 0.
0.496315 0.0433769 0.
0.498387 0.043453 0.
0.500477 0.0435997 0.
0.502573 0.0437715 0.
0.504681 0.043972 0.
0.50681 0.044218 0.
0.508941 0.0444688 0.
0.511082 0.0447296 0.
0.51323 0.0449928 0.
0.515377 0.0452586 0.
0.517527 0.0455061 0.
0.519676 0.0457477 0.
0.521825 0.0459936 0.
0.523971 0.046235 0.
0.526115 0.0464759 0.
0.528257 0.0467107 0.
0.530396 0.0469521 0.
0.532535 0.0471905 0.
0.534661 0.0473607 0.
0.536786 0.0475245 0.
0.538907 0.0476836 0.
0.541011 0.0478051 0.
0.543115 0.0479267 0.
0.545213 0.0480471 0.
0.547306 0.0481694 0.
0.5494 0.0482922 0.
0.551474 0.0483926 0.
0.553545 0.0484884 0.
0.555615 0.0485795 0.
0.557665 0.0486262 0.
0.559715 0.048673 0.
0.561762 0.0487169 0.
0.563801 0.0487564 0.
0.565841 0.0487959 0.
0.567871 0.0488262 0.
0.569894 0.0488507 0.
0.571918 0.0488752 0.
0.573931 0.0488901 0.
0.575944 0.0489035 0.
0.577955 0.0489162 0.
0.579963 0.0489226 0.
0.581971 0.048929 0.
0.583977 0.0489345 0.
0.585982 0.0489383 0.
0.587986 0.0489421 0.
0.58999 0.0489452 0.
0.591992 0.0489477 0.
0.593995 0.0489502 0.
0.595997 0.0489516 0.
0.597999 0.0489527 0.
0.6 0.0489538 0.
0.602003 0.0489525 0.
0.604005 0.0489512 0.
0.606007 0.0489495 0.
0.60801 0.0489464 0.
0.610013 0.0489433 0.
0.612017 0.0489395 0.
0.614023 0.0489347 0.
0.616028 0.0489299 0.
0.618037 0.0489229 0.
0.620046 0.0489149 0.
0.622056 0.0489068 0.
0.624071 0.0488908 0.
0.626086 0.0488739 0.
0.628104 0.0488552 0.
0.630132 0.0488251 0.
0.632161 0.0487951 0.
0.634195 0.0487584 0.
0.63624 0.0487115 0.
0.638285 0.0486647 0.
0.640336 0.0486165 0.
0.642391 0.0485667 0.
0.644446 0.048517 0.
0.646524 0.048411 0.
0.648604 0.0483007 0.
0.650686 0.0481866 0.
0.652785 0.0480536 0.
0.654884 0.0479209 0.
0.656987 0.0477925 0.
0.659096 0.0476647 0.
0.661205 0.047537 0.
0.663334 0.047362 0.
0.665466 0.0471832 0.
0.667599 0.0469975 0.
0.669741 0.0467489 0.
0.671883 0.0464977 0.
0.674028 0.0462532 0.
0.676174 0.0460048 0.
0.678321 0.0457553 0.
0.68047 0.0455016 0.
0.682619 0.0452524 0.
0.684767 0.0449991 0.
0.686911 0.0447346 0.
0.689054 0.0444733 0.
0.691189 0.0442256 0.
0.693312 0.0439976 0.
0.695433 0.0437774 0.
0.697533 0.0436187 0.
0.699621 0.0435048 0.
0.701705 0.0434164 0.
0.496399 0.0453205 0.
0.498467 0.0453922 0.
0.500551 0.0455314 0.
0.502639 0.0456926 0.
0.504739 0.0458832 0.
0.506857 0.0461181 0.
0.508977 0.0463573 0.
0.511107 0.0466093 0.
0.513243 0.0468666 0.
0.51538 0.047127 0.
0.517521 0.0473723 0.
0.519661 0.0476122 0.
0.521803 0.0478565 0.
0.523941 0.0480986 0.
0.526079 0.0483402 0.
0.528215 0.0485769 0.
0.530349 0.0488199 0.
0.532483 0.0490601 0.
0.534608 0.0492384 0.
0.536732 0.0494116 0.
0.538852 0.0495803 0.
0.540956 0.0497046 0.
0.543059 0.049829 0.
0.545158 0.0499537 0.
0.547253 0.050082 0.
0.549348 0.0502105 0.
0.551427 0.0503201 0.
0.553502 0.0504257 0.
0.555575 0.0505269 0.
0.557628 0.0505766 0.
0.559681 0.0506264 0.
0.56173 0.0506741 0.
0.563773 0.0507189 0.
0.565817 0.0507639 0.
0.56785 0.0507989 0.
0.569877 0.0508276 0.
0.571903 0.0508564 0.
0.573919 0.0508743 0.
0.575934 0.0508905 0.
0.577947 0.0509059 0.
0.579956 0.0509136 0.
0.581965 0.0509213 0.
0.583973 0.0509279 0.
0.585978 0.0509326 0.
0.587984 0.0509372 0.
0.589988 0.0509409 0.
0.591991 0.0509438 0.
0.593994 0.0509467 0.
0.595996 0.0509483 0.
0.597998 0.0509496 0.
0.600001 0.0509508 0.
0.602003 0.0509492 0.
0.604005 0.0509477 0.
0.606008 0.0509457 0.
0.608012 0.050942 0.
0.610015 0.0509384 0.
0.61202 0.0509337 0.
0.614027 0.0509278 0.
0.616034 0.050922 0.
0.618043 0.0509136 0.
0.620055 0.050904 0.
0.622066 0.0508944 0.
0.624083 0.0508751 0.
0.626101 0.0508549 0.
0.628121 0.0508325 0.
0.630153 0.0507978 0.
0.632185 0.0507631 0.
0.634223 0.0507214 0.
0.636271 0.0506692 0.
0.638319 0.0506172 0.
0.640373 0.0505649 0.
0.64243 0.0505119 0.
0.644487 0.0504589 0.
0.64657 0.0503422 0.
0.648654 0.0502214 0.
0.650741 0.0500978 0.
0.652841 0.04996 0.
0.654941 0.0498223 0.
0.657045 0.0496897 0.
0.659152 0.0495585 0.
0.66126 0.0494269 0.
0.663387 0.0492427 0.
0.665517 0.049055 0.
0.667647 0.0488621 0.
0.669785 0.0486132 0.
0.671922 0.0483619 0.
0.67406 0.048117 0.
0.676198 0.047869 0.
0.678337 0.04762 0.
0.680477 0.0473688 0.
0.682616 0.0471223 0.
0.684754 0.0468724 0.
0.686887 0.0466144 0.
0.68902 0.04636 0.
0.691144 0.0461216 0.
0.693256 0.0459052 0.
0.695367 0.0456957 0.
0.697459 0.045546 0.
0.69954 0.0454418 0.
0.701618 0.0453599 0.
0.496467 0.0472657 0.
0.498532 0.047334 0.
0.50061 0.0474665 0.
0.502693 0.0476185 0.
0.504785 0.0477999 0.
0.506895 0.0480246 0.
0.509005 0.0482531 0.
0.511126 0.0484967 0.
0.513254 0.0487485 0.
0.515383 0.049004 0.
0.517517 0.0492474 0.
0.519651 0.0494859 0.
0.521786 0.049729 0.
0.52392 0.0499719 0.
0.526053 0.0502144 0.
0.528184 0.0504523 0.
0.530316 0.0506962 0.
0.532446 0.0509375 0.
0.534569 0.0511215 0.
0.53669 0.0513007 0.
0.538808 0.0514754 0.
0.540912 0.0516029 0.
0.543016 0.0517305 0.
0.545115 0.0518591 0.
0.54721 0.0519914 0.
0.549305 0.052124 0.
0.551386 0.0522428 0.
0.553463 0.0523591 0.
0.55554 0.0524711 0.
0.557594 0.0525235 0.
0.559649 0.052576 0.
0.5617 0.0526272 0.
0.563745 0.0526776 0.
0.565791 0.052728 0.
0.567827 0.0527682 0.
0.569857 0.0528015 0.
0.571887 0.0528348 0.
0.573905 0.0528563 0.
0.575922 0.0528758 0.
0.577938 0.0528943 0.
0.579948 0.0529034 0.
0.581959 0.0529125 0.
0.583968 0.0529205 0.
0.585974 0.0529261 0.
0.58798 0.0529318 0.
0.589985 0.0529362 0.
0.591989 0.0529396 0.
0.593992 0.052943 0.
0.595995 0.0529449 0.
0.597998 0.0529462 0.
0.600001 0.0529476 0.
0.602004 0.0529458 0.
0.604006 0.052944 0.
0.60601 0.0529416 0.
0.608014 0.0529372 0.
0.610019 0.0529328 0.
0.612025 0.0529272 0.
0.614032 0.05292 0.
0.61604 0.0529129 0.
0.618052 0.0529029 0.
0.620065 0.0528915 0.
0.622078 0.0528802 0.
0.624098 0.0528573 0.
0.626118 0.0528334 0.
0.628141 0.052807 0.
0.630176 0.0527671 0.
0.632211 0.0527273 0.
0.634252 0.0526805 0.
0.636301 0.0526235 0.
0.638351 0.0525668 0.
0.640407 0.0525099 0.
0.642466 0.0524523 0.
0.644526 0.0523945 0.
0.64661 0.0522677 0.
0.648695 0.0521368 0.
0.650783 0.0520049 0.
0.652883 0.0518641 0.
0.654983 0.0517233 0.
0.657087 0.0515868 0.
0.659195 0.0514517 0.
0.661304 0.0513161 0.
0.663428 0.0511268 0.
0.665554 0.0509338 0.
0.667682 0.0507359 0.
0.669815 0.0504868 0.
0.671949 0.0502357 0.
0.674083 0.0499908 0.
0.676216 0.049743 0.
0.678349 0.049494 0.
0.680482 0.049245 0.
0.682614 0.0490008 0.
0.684744 0.0487538 0.
0.686869 0.0485017 0.
0.688992 0.0482537 0.
0.691107 0.0480241 0.
0.693211 0.0478183 0.
0.695313 0.0476189 0.
0.697398 0.0474776 0.
0.699474 0.0473818 0.
0.701547 0.0473056 0.
0.496535 0.0492124 0.
0.498597 0.0492774 0.
0.500671 0.0494046 0.
0.502749 0.0495492 0.
0.504836 0.0497233 0.
0.506938 0.0499387 0.
0.509042 0.0501577 0.
0.511156 0.0503938 0.
0.513277 0.0506402 0.
0.515399 0.0508905 0.
0.517526 0.0511315 0.
0.519653 0.0513681 0.
0.521781 0.0516092 0.
0.523908 0.0518513 0.
0.526035 0.0520926 0.
0.528161 0.0523303 0.
0.530287 0.0525745 0.
0.532413 0.0528163 0.
0.534532 0.053005 0.
0.536649 0.0531895 0.
0.538765 0.05337 0.
0.540869 0.053501 0.
0.542973 0.053632 0.
0.545072 0.0537644 0.
0.547167 0.0539008 0.
0.549262 0.0540374 0.
0.551345 0.0541652 0.
0.553425 0.0542922 0.
0.555504 0.054415 0.
0.55756 0.0544703 0.
0.559616 0.0545255 0.
0.561669 0.0545803 0.
0.563717 0.0546361 0.
0.565765 0.0546921 0.
0.567804 0.0547374 0.
0.569837 0.0547753 0.
0.57187 0.0548133 0.
0.573891 0.0548383 0.
0.57591 0.054861 0.
0.577928 0.0548827 0.
0.57994 0.0548932 0.
0.581952 0.0549038 0.
0.583963 0.054913 0.
0.58597 0.0549197 0.
0.587977 0.0549263 0.
0.589983 0.0549315 0.
0.591987 0.0549354 0.
0.593991 0.0549393 0.
0.595994 0.0549414 0.
0.597998 0.0549429 0.
0.600001 0.0549445 0.
0.602004 0.0549424 0.
0.604007 0.0549402 0.
0.606011 0.0549375 0.
0.608016 0.0549324 0.
0.610022 0.0549273 0.
0.612029 0.0549207 0.
0.614038 0.0549123 0.
0.616047 0.0549039 0.
0.61806 0.0548922 0.
0.620075 0.0548791 0.
0.62209 0.054866 0.
0.624112 0.0548395 0.
0.626135 0.0548119 0.
0.62816 0.0547814 0.
0.630198 0.0547363 0.
0.632236 0.0546914 0.
0.63428 0.0546395 0.
0.636331 0.0545778 0.
0.638382 0.0545163 0.
0.640441 0.0544547 0.
0.642503 0.0543926 0.
0.644565 0.0543299 0.
0.64665 0.054193 0.
0.648736 0.0540521 0.
0.650825 0.053912 0.
0.652924 0.0537681 0.
0.655024 0.0536243 0.
0.657128 0.0534837 0.
0.659237 0.0533445 0.
0.661346 0.0532044 0.
0.663466 0.0530108 0.
0.665588 0.0528138 0.
0.667712 0.0526123 0.
0.669839 0.0523637 0.
0.671967 0.0521131 0.
0.674096 0.0518697 0.
0.676222 0.0516237 0.
0.678349 0.0513765 0.
0.680475 0.0511307 0.
0.682599 0.0508894 0.
0.684722 0.0506455 0.
0.686839 0.050399 0.
0.688955 0.0501569 0.
0.691063 0.0499347 0.
0.69316 0.049738 0.
0.695256 0.0495474 0.
0.697337 0.0494127 0.
0.699408 0.0493237 0.
0.701477 0.049252 0.
0.496615 0.0511619 0.
0.498676 0.0512234 0.
0.500746 0.0513461 0.
0.502819 0.0514845 0.
0.5049 0.0516523 0.
0.506996 0.0518592 0.
0.509092 0.0520695 0.
0.511199 0.0522986 0.
0.513312 0.0525386 0.
0.515426 0.0527831 0.
0.517545 0.0530212 0.
0.519664 0.0532557 0.
0.521785 0.0534947 0.
0.523905 0.0537359 0.
0.526026 0.0539764 0.
0.528147 0.0542137 0.
0.530267 0.0544579 0.
0.532387 0.0546999 0.
0.534502 0.0548926 0.
0.536616 0.0550817 0.
0.538728 0.055267 0.
0.540831 0.0554014 0.
0.542934 0.0555356 0.
0.545032 0.0556714 0.
0.547126 0.0558106 0.
0.54922 0.05595 0.
0.551302 0.0560849 0.
0.553383 0.05622 0.
0.555463 0.0563506 0.
0.557521 0.0564106 0.
0.55958 0.0564702 0.
0.561635 0.0565294 0.
0.563684 0.0565888 0.
0.565733 0.0566484 0.
0.567775 0.0566981 0.
0.569811 0.056741 0.
0.571848 0.0567839 0.
0.573871 0.0568133 0.
0.575893 0.0568402 0.
0.577914 0.0568659 0.
0.579928 0.0568783 0.
0.581942 0.0568907 0.
0.583955 0.0569018 0.
0.585963 0.0569099 0.
0.587972 0.0569181 0.
0.589979 0.0569243 0.
0.591984 0.056929 0.
0.593989 0.0569337 0.
0.595993 0.0569361 0.
0.597997 0.0569378 0.
0.600001 0.0569395 0.
0.602005 0.0569369 0.
0.604009 0.0569344 0.
0.606014 0.056931 0.
0.60802 0.0569247 0.
0.610027 0.0569185 0.
0.612035 0.0569104 0.
0.614046 0.0569002 0.
0.616057 0.0568899 0.
0.618073 0.0568763 0.
0.62009 0.0568612 0.
0.622107 0.0568461 0.
0.624132 0.0568153 0.
0.626158 0.0567831 0.
0.628186 0.0567479 0.
0.630227 0.0566979 0.
0.632268 0.056648 0.
0.634313 0.0565918 0.
0.636366 0.0565269 0.
0.638418 0.0564621 0.
0.640479 0.0563954 0.
0.642543 0.0563277 0.
0.644607 0.0562591 0.
0.646692 0.0561149 0.
0.648778 0.0559663 0.
0.650866 0.0558198 0.
0.652964 0.0556736 0.
0.655062 0.0555275 0.
0.657165 0.0553832 0.
0.659273 0.0552401 0.
0.661381 0.0550959 0.
0.663497 0.0548988 0.
0.665615 0.0546984 0.
0.667733 0.054494 0.
0.669855 0.0542458 0.
0.671976 0.053996 0.
0.674099 0.053754 0.
0.676219 0.0535097 0.
0.678339 0.0532642 0.
0.680457 0.0530219 0.
0.682573 0.0527841 0.
0.684689 0.052544 0.
0.686797 0.0523038 0.
0.688905 0.0520685 0.
0.691006 0.0518527 0.
0.693096 0.0516636 0.
0.695184 0.0514801 0.
0.697261 0.0513506 0.
0.69933 0.0512667 0.
0.701396 0.0511984 0.
0.496706 0.0531124 0.
0.498765 0.0531708 0.
0.500832 0.0532899 0.
0.5029 0.0534229 0.
0.504977 0.0535857 0.
0.507065 0.0537858 0.
0.509154 0.0539892 0.
0.511253 0.0542123 0.
0.513357 0.0544463 0.
0.515462 0.0546853 0.
0.517573 0.0549207 0.
0.519684 0.0551533 0.
0.521795 0.0553906 0.
0.523909 0.0556307 0.
0.526022 0.0558698 0.
0.528137 0.0561059 0.
0.530252 0.0563491 0.
0.532366 0.0565901 0.
0.534477 0.056785 0.
0.536588 0.0569768 0.
0.538697 0.0571651 0.
0.540798 0.057303 0.
0.542898 0.0574403 0.
0.544993 0.0575792 0.
0.547085 0.0577207 0.
0.549177 0.0578623 0.
0.551259 0.0580032 0.
0.55334 0.0581455 0.
0.555419 0.0582834 0.
0.557481 0.058349 0.
0.559542 0.0584138 0.
0.5616 0.0584779 0.
0.56365 0.0585407 0.
0.565701 0.0586036 0.
0.567745 0.0586578 0.
0.569784 0.0587058 0.
0.571824 0.058754 0.
0.573851 0.0587879 0.
0.575876 0.058819 0.
0.5779 0.0588488 0.
0.579916 0.0588632 0.
0.581932 0.0588776 0.
0.583946 0.0588904 0.
0.585957 0.0589001 0.
0.587967 0.0589097 0.
0.589975 0.0589171 0.
0.591981 0.0589226 0.
0.593987 0.0589281 0.
0.595992 0.0589308 0.
0.597996 0.0589326 0.
0.600001 0.0589345 0.
0.602005 0.0589315 0.
0.60401 0.0589284 0.
0.606016 0.0589244 0.
0.608024 0.058917 0.
0.610032 0.0589096 0.
0.612042 0.0589 0.
0.614055 0.0588879 0.
0.616068 0.0588757 0.
0.618086 0.0588602 0.
0.620105 0.0588431 0.
0.622125 0.058826 0.
0.624153 0.0587906 0.
0.626181 0.0587537 0.
0.628212 0.0587136 0.
0.630256 0.0586585 0.
0.6323 0.0586035 0.
0.634348 0.058543 0.
0.636402 0.058475 0.
0.638456 0.0584071 0.
0.640518 0.0583349 0.
0.642585 0.0582611 0.
0.644651 0.0581859 0.
0.646736 0.0580351 0.
0.64882 0.0578799 0.
0.650907 0.057728 0.
0.653003 0.0575798 0.
0.655098 0.0574318 0.
0.657199 0.0572842 0.
0.659304 0.0571376 0.
0.661409 0.0569897 0.
0.663521 0.056791 0.
0.665634 0.0565892 0.
0.667749 0.0563834 0.
0.669864 0.0561367 0.
0.671979 0.0558884 0.
0.674095 0.0556484 0.
0.676208 0.055406 0.
0.678321 0.0551625 0.
0.680431 0.0549231 0.
0.682539 0.0546883 0.
0.684645 0.0544517 0.
0.686744 0.0542172 0.
0.688843 0.053988 0.
0.690936 0.0537775 0.
0.693018 0.0535942 0.
0.695101 0.0534163 0.
0.697174 0.0532905 0.
0.699239 0.0532111 0.
0.701303 0.0531454 0.
0.496796 0.0550636 0.
0.498853 0.0551195 0.
0.500916 0.0552358 0.
0.502981 0.0553645 0.
0.505053 0.0555235 0.
0.507134 0.0557179 0.
0.509215 0.0559153 0.
0.511306 0.0561326 0.
0.513401 0.0563606 0.
0.515498 0.0565938 0.
0.517601 0.056826 0.
0.519704 0.0570559 0.
0.521808 0.0572906 0.
0.523914 0.0575287 0.
0.52602 0.0577658 0.
0.528128 0.0580001 0.
0.530237 0.0582419 0.
0.532345 0.0584818 0.
0.534453 0.0586787 0.
0.536561 0.0588731 0.
0.538667 0.0590644 0.
0.540765 0.0592056 0.
0.542863 0.0593461 0.
0.544957 0.0594882 0.
0.547047 0.0596318 0.
0.549136 0.0597755 0.
0.551218 0.059922 0.
0.553299 0.0600712 0.
0.555379 0.0602158 0.
0.557443 0.060287 0.
0.559506 0.0603571 0.
0.561566 0.0604259 0.
0.563618 0.0604917 0.
0.565669 0.0605575 0.
0.567715 0.0606159 0.
0.569758 0.0606689 0.
0.5718 0.0607219 0.
0.57383 0.0607605 0.
0.575857 0.060796 0.
0.577884 0.0608301 0.
0.579902 0.0608464 0.
0.58192 0.0608628 0.
0.583936 0.0608775 0.
0.585948 0.0608888 0.
0.58796 0.0609001 0.
0.58997 0.0609088 0.
0.591977 0.0609152 0.
0.593984 0.0609217 0.
0.59599 0.0609247 0.
0.597995 0.0609268 0.
0.600001 0.0609288 0.
0.602007 0.0609252 0.
0.604013 0.0609215 0.
0.60602 0.0609167 0.
0.608029 0.060908 0.
0.610038 0.0608994 0.
0.61205 0.0608882 0.
0.614066 0.060874 0.
0.616081 0.0608598 0.
0.6181 0.0608423 0.
0.620122 0.0608233 0.
0.622143 0.0608042 0.
0.624174 0.0607641 0.
0.626205 0.0607224 0.
0.628238 0.0606775 0.
0.630285 0.0606175 0.
0.632331 0.0605578 0.
0.634381 0.0604933 0.
0.636436 0.0604225 0.
0.638491 0.0603519 0.
0.640556 0.0602743 0.
0.642624 0.0601943 0.
0.644693 0.0601128 0.
0.646777 0.0599558 0.
0.648861 0.0597943 0.
0.650947 0.0596373 0.
0.65304 0.0594872 0.
0.655134 0.0593372 0.
0.657232 0.0591862 0.
0.659333 0.0590362 0.
0.661435 0.0588847 0.
0.663544 0.0586844 0.
0.665653 0.0584814 0.
0.667763 0.0582746 0.
0.669872 0.0580297 0.
0.671982 0.0577833 0.
0.67409 0.0575459 0.
0.676195 0.0573063 0.
0.6783 0.0570655 0.
0.680402 0.0568295 0.
0.682503 0.0565981 0.
0.684601 0.0563654 0.
0.686693 0.0561371 0.
0.688783 0.0559143 0.
0.690868 0.0557085 0.
0.692944 0.0555297 0.
0.695019 0.0553559 0.
0.697087 0.0552332 0.
0.69915 0.0551579 0.
0.701211 0.0550947 0.
0.496874 0.0570164 0.
0.498928 0.0570701 0.
0.500989 0.0571841 0.
0.50305 0.0573091 0.
0.505117 0.0574647 0.
0.507192 0.0576538 0.
0.509266 0.0578458 0.
0.51135 0.0580578 0.
0.513439 0.0582801 0.
0.515528 0.0585081 0.
0.517625 0.0587377 0.
0.519721 0.0589653 0.
0.52182 0.059198 0.
0.52392 0.0594346 0.
0.52602 0.0596704 0.
0.528124 0.0599029 0.
0.530229 0.0601431 0.
0.532333 0.0603815 0.
0.534437 0.06058 0.
0.536541 0.060776 0.
0.538644 0.060969 0.
0.54074 0.061113 0.
0.542835 0.0612561 0.
0.544927 0.0614005 0.
0.547016 0.0615456 0.
0.549104 0.0616906 0.
0.551186 0.0618415 0.
0.553266 0.0619961 0.
0.555346 0.0621462 0.
0.55741 0.0622232 0.
0.559474 0.0622989 0.
0.561535 0.0623727 0.
0.563587 0.0624408 0.
0.56564 0.0625089 0.
0.567687 0.0625711 0.
0.569732 0.0626288 0.
0.571776 0.0626866 0.
0.573808 0.0627301 0.
0.575837 0.0627705 0.
0.577866 0.0628093 0.
0.579886 0.0628277 0.
0.581906 0.062846 0.
0.583924 0.0628628 0.
0.585938 0.0628759 0.
0.587952 0.0628891 0.
0.589964 0.0628992 0.
0.591972 0.0629068 0.
0.593981 0.0629143 0.
0.595988 0.0629178 0.
0.597994 0.0629201 0.
0.600001 0.0629224 0.
0.602008 0.0629179 0.
0.604016 0.0629135 0.
0.606024 0.0629078 0.
0.608035 0.0628976 0.
0.610047 0.0628875 0.
0.612061 0.0628745 0.
0.614078 0.0628581 0.
0.616095 0.0628418 0.
0.618117 0.0628222 0.
0.62014 0.0628012 0.
0.622163 0.0627803 0.
0.624196 0.0627351 0.
0.626229 0.0626883 0.
0.628265 0.0626382 0.
0.630312 0.0625736 0.
0.63236 0.0625091 0.
0.634411 0.0624411 0.
0.636467 0.0623682 0.
0.638523 0.0622954 0.
0.640588 0.0622122 0.
0.642656 0.0621259 0.
0.644725 0.0620379 0.
0.646809 0.0618764 0.
0.648892 0.0617103 0.
0.650978 0.0615495 0.
0.65307 0.0613981 0.
0.655162 0.0612467 0.
0.657258 0.0610933 0.
0.659356 0.0609407 0.
0.661455 0.0607864 0.
0.66356 0.0605852 0.
0.665665 0.0603814 0.
0.667771 0.060174 0.
0.669876 0.059931 0.
0.671981 0.0596866 0.
0.674084 0.0594517 0.
0.676183 0.0592139 0.
0.678282 0.0589753 0.
0.680378 0.058742 0.
0.682472 0.0585135 0.
0.684564 0.0582844 0.
0.686649 0.0580619 0.
0.688733 0.0578454 0.
0.690812 0.057644 0.
0.692882 0.0574692 0.
0.694951 0.0572991 0.
0.697015 0.0571794 0.
0.699073 0.057108 0.
0.701131 0.0570474 0.
0.49695 0.0589705 0.
0.499002 0.0590227 0.
0.501059 0.0591345 0.
0.503117 0.0592562 0.
0.50518 0.059409 0.
0.50725 0.059594 0.
0.509321 0.059782 0.
0.5114 0.0599899 0.
0.513483 0.0602074 0.
0.515567 0.0604308 0.
0.517657 0.0606575 0.
0.519748 0.0608825 0.
0.521841 0.0611123 0.
0.523935 0.061347 0.
0.52603 0.0615807 0.
0.528128 0.0618107 0.
0.530227 0.0620487 0.
0.532326 0.062285 0.
0.534425 0.0624839 0.
0.536524 0.0626806 0.
0.538622 0.0628745 0.
0.540715 0.063021 0.
0.542808 0.0631664 0.
0.544897 0.0633131 0.
0.546985 0.0634594 0.
0.549073 0.0636058 0.
0.551154 0.0637609 0.
0.553234 0.063921 0.
0.555313 0.0640764 0.
0.557378 0.0641592 0.
0.559442 0.0642406 0.
0.561504 0.0643194 0.
0.563557 0.0643898 0.
0.56561 0.0644603 0.
0.567659 0.0645262 0.
0.569705 0.0645886 0.
0.571751 0.0646512 0.
0.573785 0.0646996 0.
0.575817 0.0647449 0.
0.577848 0.0647885 0.
0.57987 0.0648089 0.
0.581892 0.0648292 0.
0.583912 0.064848 0.
0.585928 0.064863 0.
0.587944 0.0648781 0.
0.589957 0.0648897 0.
0.591967 0.0648983 0.
0.593978 0.064907 0.
0.595986 0.0649109 0.
0.597993 0.0649134 0.
0.600001 0.0649159 0.
0.60201 0.0649107 0.
0.604019 0.0649055 0.
0.606029 0.0648988 0.
0.608042 0.0648872 0.
0.610055 0.0648756 0.
0.612071 0.0648608 0.
0.61409 0.0648422 0.
0.61611 0.0648237 0.
0.618133 0.0648021 0.
0.620158 0.0647792 0.
0.622183 0.0647563 0.
0.624218 0.064706 0.
0.626253 0.064654 0.
0.628291 0.0645988 0.
0.63034 0.0645295 0.
0.632389 0.0644605 0.
0.634442 0.0643888 0.
0.636498 0.0643138 0.
0.638555 0.0642388 0.
0.64062 0.06415 0.
0.642689 0.0640574 0.
0.644758 0.0639629 0.
0.646841 0.0637969 0.
0.648924 0.0636263 0.
0.651009 0.0634618 0.
0.653099 0.063309 0.
0.65519 0.0631563 0.
0.657283 0.0630009 0.
0.659378 0.0628464 0.
0.661473 0.06269 0.
0.663573 0.0624885 0.
0.665673 0.0622848 0.
0.667774 0.0620776 0.
0.669873 0.0618376 0.
0.671972 0.0615963 0.
0.674069 0.0613645 0.
0.676162 0.0611289 0.
0.678255 0.0608925 0.
0.680345 0.0606624 0.
0.682434 0.0604369 0.
0.684521 0.0602111 0.
0.686601 0.0599934 0.
0.68868 0.0597823 0.
0.690754 0.0595844 0.
0.69282 0.0594125 0.
0.694885 0.0592451 0.
0.696945 0.0591278 0.
0.699 0.0590603 0.
0.701054 0.0590024 0.
0.497037 0.0609261 0.
0.499088 0.0609776 0.
0.501142 0.0610879 0.
0.503197 0.0612069 0.
0.505257 0.0613577 0.
0.507322 0.0615396 0.
0.509388 0.0617243 0.
0.511461 0.0619282 0.
0.513538 0.0621406 0.
0.515615 0.0623593 0.
0.517699 0.0625826 0.
0.519784 0.0628042 0.
0.521869 0.0630309 0.
0.523958 0.0632636 0.
0.526047 0.0634956 0.
0.528139 0.0637231 0.
0.530232 0.0639588 0.
0.532325 0.0641931 0.
0.534419 0.0643924 0.
0.536513 0.0645895 0.
0.538606 0.064784 0.
0.540696 0.0649328 0.
0.542785 0.0650804 0.
0.544872 0.0652292 0.
0.546958 0.0653767 0.
0.549043 0.0655243 0.
0.551122 0.0656829 0.
0.553201 0.0658471 0.
0.555278 0.0660066 0.
0.557342 0.0660948 0.
0.559406 0.0661815 0.
0.561468 0.0662648 0.
0.563521 0.0663368 0.
0.565575 0.0664089 0.
0.567625 0.0664774 0.
0.569672 0.0665433 0.
0.57172 0.0666092 0.
0.573756 0.0666627 0.
0.575791 0.0667134 0.
0.577825 0.0667624 0.
0.579849 0.0667845 0.
0.581873 0.0668065 0.
0.583895 0.066827 0.
0.585913 0.0668442 0.
0.587932 0.0668613 0.
0.589947 0.0668747 0.
0.59196 0.066885 0.
0.593972 0.0668952 0.
0.595983 0.0668995 0.
0.597992 0.0669021 0.
0.600002 0.0669047 0.
0.602013 0.0668984 0.
0.604025 0.0668921 0.
0.606037 0.0668842 0.
0.608053 0.0668709 0.
0.610068 0.0668577 0.
0.612086 0.066841 0.
0.614108 0.0668203 0.
0.616129 0.0667997 0.
0.618155 0.0667765 0.
0.620181 0.066752 0.
0.622208 0.0667276 0.
0.624246 0.0666714 0.
0.626284 0.0666136 0.
0.628324 0.0665531 0.
0.630375 0.0664809 0.
0.632425 0.0664088 0.
0.634478 0.0663348 0.
0.636535 0.0662581 0.
0.638591 0.0661815 0.
0.640656 0.0660878 0.
0.642724 0.0659896 0.
0.644792 0.0658893 0.
0.646873 0.0657196 0.
0.648954 0.0655452 0.
0.651036 0.0653777 0.
0.653124 0.0652238 0.
0.655213 0.0650698 0.
0.657302 0.0649125 0.
0.659394 0.0647562 0.
0.661485 0.0645979 0.
0.66358 0.0643963 0.
0.665675 0.0641927 0.
0.66777 0.0639859 0.
0.669863 0.0637487 0.
0.671956 0.0635104 0.
0.674047 0.0632817 0.
0.676133 0.0630484 0.
0.67822 0.0628143 0.
0.680303 0.0625877 0.
0.682385 0.0623659 0.
0.684466 0.0621436 0.
0.68654 0.0619305 0.
0.688613 0.0617242 0.
0.690683 0.0615298 0.
0.692745 0.0613605 0.
0.694806 0.0611954 0.
0.696863 0.0610796 0.
0.698915 0.0610154 0.
0.700966 0.0609596 0.
0.497137 0.0628826 0.
0.499185 0.0629338 0.
0.501237 0.0630435 0.
0.503289 0.0631603 0.
0.505346 0.06331 0.
0.507406 0.0634893 0.
0.509466 0.0636714 0.
0.511533 0.063872 0.
0.513603 0.0640801 0.
0.515673 0.064295 0.
0.517749 0.0645154 0.
0.519827 0.0647341 0.
0.521906 0.0649582 0.
0.523988 0.0651893 0.
0.52607 0.0654197 0.
0.528155 0.0656448 0.
0.530242 0.0658781 0.
0.532329 0.06611 0.
0.534418 0.0663085 0.
0.536507 0.0665048 0.
0.538595 0.0666985 0.
0.540682 0.0668488 0.
0.542767 0.0669977 0.
0.544851 0.0671481 0.
0.546933 0.0672966 0.
0.549015 0.0674452 0.
0.551091 0.0676063 0.
0.553167 0.0677738 0.
0.555241 0.0679365 0.
0.557305 0.0680301 0.
0.559369 0.0681218 0.
0.56143 0.0682096 0.
0.563484 0.0682831 0.
0.565538 0.0683567 0.
0.567589 0.0684277 0.
0.569638 0.0684969 0.
0.571687 0.0685662 0.
0.573727 0.0686249 0.
0.575764 0.0686813 0.
0.577801 0.0687359 0.
0.579827 0.0687597 0.
0.581853 0.0687834 0.
0.583877 0.0688057 0.
0.585898 0.068825 0.
0.587919 0.0688443 0.
0.589937 0.0688596 0.
0.591952 0.0688714 0.
0.593967 0.0688831 0.
0.595979 0.0688879 0.
0.597991 0.0688907 0.
0.600003 0.0688934 0.
0.602017 0.068886 0.
0.60403 0.0688786 0.
0.606045 0.0688694 0.
0.608063 0.0688544 0.
0.610081 0.0688395 0.
0.612102 0.0688208 0.
0.614126 0.0687981 0.
0.61615 0.0687754 0.
0.618177 0.0687504 0.
0.620205 0.0687244 0.
0.622233 0.0686984 0.
0.624274 0.0686361 0.
0.626316 0.0685722 0.
0.628359 0.0685063 0.
0.63041 0.0684313 0.
0.632462 0.0683564 0.
0.634516 0.0682801 0.
0.636572 0.0682019 0.
0.638629 0.0681237 0.
0.640693 0.0680252 0.
0.64276 0.0679218 0.
0.644827 0.0678162 0.
0.646904 0.0676435 0.
0.648982 0.0674661 0.
0.651062 0.0672962 0.
0.653146 0.0671414 0.
0.655231 0.0669866 0.
0.657317 0.0668282 0.
0.659404 0.0666712 0.
0.661492 0.0665121 0.
0.663581 0.0663118 0.
0.665671 0.0661095 0.
0.66776 0.0659039 0.
0.669847 0.0656696 0.
0.671933 0.065434 0.
0.674017 0.065208 0.
0.676096 0.0649765 0.
0.678176 0.0647443 0.
0.680252 0.0645206 0.
0.682327 0.0643019 0.
0.684402 0.0640827 0.
0.686469 0.0638732 0.
0.688536 0.0636709 0.
0.6906 0.0634791 0.
0.692657 0.0633121 0.
0.694715 0.0631488 0.
0.696769 0.0630336 0.
0.698818 0.0629717 0.
0.700867 0.0629168 0.
0.497236 0.0648409 0.
0.499282 0.0648923 0.
0.501331 0.0650015 0.
0.50338 0.0651168 0.
0.505432 0.0652659 0.
0.507487 0.0654432 0.
0.509542 0.0656232 0.
0.511602 0.0658209 0.
0.513666 0.0660249 0.
0.51573 0.0662358 0.
0.5178 0.0664532 0.
0.519871 0.0666691 0.
0.521943 0.0668905 0.
0.524019 0.0671194 0.
0.526093 0.0673476 0.
0.528172 0.0675697 0.
0.530253 0.0678 0.
0.532333 0.0680289 0.
0.534417 0.0682263 0.
0.536501 0.0684215 0.
0.538585 0.0686143 0.
0.540668 0.068766 0.
0.542751 0.0689162 0.
0.544831 0.0690682 0.
0.54691 0.0692177 0.
0.548988 0.0693673 0.
0.551061 0.0695309 0.
0.553134 0.0697015 0.
0.555205 0.0698673 0.
0.557269 0.069966 0.
0.559333 0.0700626 0.
0.561394 0.0701548 0.
0.563448 0.0702296 0.
0.565503 0.0703045 0.
0.567555 0.0703777 0.
0.569605 0.0704497 0.
0.571655 0.0705217 0.
0.573697 0.0705855 0.
0.575737 0.0706476 0.
0.577777 0.070708 0.
0.579805 0.0707333 0.
0.581833 0.0707586 0.
0.583859 0.0707827 0.
0.585882 0.070804 0.
0.587906 0.0708254 0.
0.589926 0.0708424 0.
0.591943 0.0708557 0.
0.593961 0.070869 0.
0.595976 0.0708743 0.
0.59799 0.0708771 0.
0.600005 0.07088 0.
0.602021 0.0708715 0.
0.604037 0.0708629 0.
0.606054 0.0708525 0.
0.608075 0.0708358 0.
0.610096 0.0708192 0.
0.612119 0.0707988 0.
0.614144 0.0707743 0.
0.61617 0.0707497 0.
0.618199 0.0707229 0.
0.620229 0.0706949 0.
0.622259 0.070667 0.
0.624303 0.0705989 0.
0.626347 0.0705294 0.
0.628392 0.0704585 0.
0.630445 0.0703812 0.
0.632497 0.0703039 0.
0.634552 0.0702256 0.
0.636609 0.070146 0.
0.638665 0.0700664 0.
0.640729 0.0699633 0.
0.642795 0.0698549 0.
0.644861 0.0697442 0.
0.646935 0.0695685 0.
0.64901 0.0693881 0.
0.651086 0.069216 0.
0.653167 0.0690602 0.
0.655248 0.0689045 0.
0.657331 0.0687451 0.
0.659415 0.0685874 0.
0.661499 0.0684276 0.
0.663583 0.0682289 0.
0.665667 0.0680284 0.
0.66775 0.0678246 0.
0.66983 0.0675938 0.
0.671909 0.0673619 0.
0.673986 0.0671392 0.
0.676059 0.0669098 0.
0.678132 0.0666798 0.
0.680202 0.0664589 0.
0.68227 0.0662431 0.
0.684338 0.0660268 0.
0.686399 0.0658208 0.
0.68846 0.0656223 0.
0.690519 0.0654327 0.
0.692572 0.0652671 0.
0.694625 0.0651053 0.
0.696675 0.0649898 0.
0.698722 0.0649295 0.
0.700769 0.0648753 0.
0.497321 0.0668015 0.
0.499365 0.0668534 0.
0.501411 0.0669624 0.
0.503457 0.0670765 0.
0.505505 0.0672252 0.
0.507555 0.0674006 0.
0.509605 0.0675788 0.
0.511661 0.0677737 0.
0.513719 0.0679736 0.
0.515778 0.0681807 0.
0.517843 0.0683954 0.
0.519908 0.068609 0.
0.521974 0.0688283 0.
0.524044 0.0690556 0.
0.526113 0.0692822 0.
0.528187 0.0695015 0.
0.530262 0.069729 0.
0.532338 0.0699552 0.
0.534417 0.0701518 0.
0.536497 0.070346 0.
0.538577 0.070538 0.
0.540656 0.0706908 0.
0.542735 0.070842 0.
0.544812 0.0709951 0.
0.546888 0.0711451 0.
0.548963 0.0712951 0.
0.551034 0.0714602 0.
0.553105 0.0716328 0.
0.555175 0.0718004 0.
0.557239 0.0719031 0.
0.559301 0.0720039 0.
0.561362 0.0720998 0.
0.563417 0.0721756 0.
0.565471 0.0722515 0.
0.567524 0.0723262 0.
0.569575 0.0724001 0.
0.571626 0.072474 0.
0.573669 0.072543 0.
0.575712 0.0726113 0.
0.577754 0.0726779 0.
0.579783 0.0727047 0.
0.581813 0.0727316 0.
0.583841 0.0727573 0.
0.585866 0.0727805 0.
0.587891 0.0728038 0.
0.589913 0.0728226 0.
0.591933 0.0728375 0.
0.593954 0.0728523 0.
0.595972 0.0728581 0.
0.597989 0.0728611 0.
0.600007 0.072864 0.
0.602026 0.0728543 0.
0.604045 0.0728446 0.
0.606065 0.0728329 0.
0.608088 0.0728146 0.
0.610111 0.0727963 0.
0.612136 0.0727743 0.
0.614163 0.0727483 0.
0.61619 0.0727223 0.
0.618221 0.072693 0.
0.620254 0.0726623 0.
0.622286 0.0726316 0.
0.624331 0.0725583 0.
0.626376 0.0724835 0.
0.628423 0.0724084 0.
0.630476 0.0723294 0.
0.632529 0.0722505 0.
0.634583 0.0721707 0.
0.63664 0.07209 0.
0.638697 0.0720092 0.
0.64076 0.0719024 0.
0.642825 0.07179 0.
0.64489 0.0716755 0.
0.646963 0.0714982 0.
0.649035 0.071316 0.
0.651109 0.0711423 0.
0.653186 0.0709862 0.
0.655264 0.07083 0.
0.657343 0.0706699 0.
0.659423 0.0705116 0.
0.661503 0.0703512 0.
0.663583 0.0701539 0.
0.665662 0.0699548 0.
0.667741 0.0697525 0.
0.669815 0.0695248 0.
0.671889 0.0692962 0.
0.673961 0.0690763 0.
0.676028 0.0688484 0.
0.678096 0.06862 0.
0.680159 0.0684014 0.
0.682222 0.0681884 0.
0.684284 0.0679748 0.
0.68634 0.0677722 0.
0.688396 0.0675773 0.
0.69045 0.0673899 0.
0.692499 0.0672255 0.
0.694547 0.0670647 0.
0.696594 0.066949 0.
0.698639 0.0668901 0.
0.700683 0.0668364 0.
0.497405 0.0687639 0.
0.499446 0.0688166 0.
0.501488 0.0689257 0.
0.503531 0.0690391 0.
0.505575 0.0691877 0.
0.507622 0.0693617 0.
0.509668 0.0695384 0.
0.51172 0.0697312 0.
0.513775 0.0699279 0.
0.51583 0.070132 0.
0.51789 0.0703443 0.
0.51995 0.0705555 0.
0.522011 0.0707727 0.
0.524075 0.0709985 0.
0.526139 0.0712234 0.
0.528207 0.0714395 0.
0.530277 0.0716636 0.
0.532348 0.0718865 0.
0.534422 0.0720815 0.
0.536497 0.072274 0.
0.538572 0.0724645 0.
0.540646 0.0726176 0.
0.54272 0.0727694 0.
0.544794 0.0729232 0.
0.546866 0.0730734 0.
0.548938 0.0732235 0.
0.551008 0.0733898 0.
0.553077 0.0735641 0.
0.555146 0.0737335 0.
0.557208 0.0738403 0.
0.55927 0.0739451 0.
0.56133 0.0740449 0.
0.563385 0.0741216 0.
0.565439 0.0741984 0.
0.567492 0.0742747 0.
0.569544 0.0743504 0.
0.571596 0.0744263 0.
0.573641 0.0745005 0.
0.575686 0.0745748 0.
0.57773 0.0746477 0.
0.579761 0.0746761 0.
0.581792 0.0747045 0.
0.583822 0.0747318 0.
0.585849 0.074757 0.
0.587875 0.0747823 0.
0.5899 0.0748028 0.
0.591923 0.0748192 0.
0.593946 0.0748357 0.
0.595968 0.0748419 0.
0.597988 0.074845 0.
0.600009 0.0748481 0.
0.602031 0.0748372 0.
0.604053 0.0748263 0.
0.606076 0.0748133 0.
0.608101 0.0747933 0.
0.610127 0.0747733 0.
0.612154 0.0747498 0.
0.614182 0.0747223 0.
0.616211 0.0746948 0.
0.618244 0.0746631 0.
0.620278 0.0746297 0.
0.622312 0.0745961 0.
0.624359 0.0745176 0.
0.626405 0.0744377 0.
0.628453 0.0743582 0.
0.630507 0.0742776 0.
0.63256 0.0741971 0.
0.634615 0.0741158 0.
0.636672 0.0740339 0.
0.638728 0.073952 0.
0.640791 0.0738414 0.
0.642855 0.0737251 0.
0.64492 0.0736069 0.
0.64699 0.073428 0.
0.64906 0.0732443 0.
0.651131 0.0730696 0.
0.653205 0.0729134 0.
0.655278 0.0727572 0.
0.657353 0.0725969 0.
0.659427 0.0724385 0.
0.661503 0.0722783 0.
0.663577 0.072083 0.
0.665651 0.0718862 0.
0.667725 0.071686 0.
0.669793 0.071462 0.
0.671862 0.071237 0.
0.673929 0.0710203 0.
0.675991 0.070794 0.
0.678053 0.0705669 0.
0.680112 0.0703505 0.
0.68217 0.0701397 0.
0.684228 0.0699286 0.
0.68628 0.0697286 0.
0.688332 0.0695366 0.
0.690382 0.0693507 0.
0.692428 0.0691872 0.
0.694473 0.0690272 0.
0.696517 0.0689111 0.
0.698558 0.0688534 0.
0.7006 0.0688002 0.
0.4975 0.0707287 0.
0.499539 0.0707834 0.
0.501578 0.070893 0.
0.503617 0.071006 0.
0.505659 0.071155 0.
0.507701 0.0713277 0.
0.509744 0.0715031 0.
0.511791 0.0716937 0.
0.51384 0.0718872 0.
0.51589 0.0720882 0.
0.517945 0.0722981 0.
0.519999 0.0725071 0.
0.522055 0.0727223 0.
0.524113 0.072946 0.
0.52617 0.0731689 0.
0.528232 0.0733817 0.
0.530297 0.0736026 0.
0.532362 0.0738223 0.
0.534431 0.0740157 0.
0.5365 0.0742062 0.
0.538569 0.074395 0.
0.540639 0.0745486 0.
0.542708 0.0747009 0.
0.544777 0.0748554 0.
0.546846 0.0750057 0.
0.548914 0.075156 0.
0.550981 0.0753232 0.
0.553048 0.0754987 0.
0.555114 0.0756693 0.
0.557175 0.0757794 0.
0.559236 0.0758875 0.
0.561295 0.0759903 0.
0.563349 0.0760677 0.
0.565404 0.0761451 0.
0.567456 0.0762222 0.
0.569508 0.0762991 0.
0.57156 0.076376 0.
0.573607 0.0764536 0.
0.575654 0.0765321 0.
0.577699 0.0766091 0.
0.579733 0.0766407 0.
0.581767 0.076672 0.
0.5838 0.0767019 0.
0.585829 0.076728 0.
0.587858 0.0767541 0.
0.589885 0.0767757 0.
0.591911 0.076793 0.
0.593938 0.0768103 0.
0.595963 0.0768168 0.
0.597987 0.07682 0.
0.600011 0.0768231 0.
0.602037 0.0768114 0.
0.604063 0.0767998 0.
0.606089 0.0767859 0.
0.608117 0.076765 0.
0.610145 0.0767442 0.
0.612175 0.0767197 0.
0.614205 0.0766913 0.
0.616236 0.0766629 0.
0.618271 0.0766285 0.
0.620308 0.0765919 0.
0.622345 0.076555 0.
0.624393 0.0764726 0.
0.626441 0.0763889 0.
0.628489 0.0763063 0.
0.630543 0.0762248 0.
0.632596 0.0761433 0.
0.63465 0.0760611 0.
0.636707 0.0759784 0.
0.638763 0.0758957 0.
0.640824 0.0757819 0.
0.642887 0.0756626 0.
0.64495 0.0755413 0.
0.647017 0.0753614 0.
0.649085 0.0751767 0.
0.651152 0.0750012 0.
0.653222 0.074845 0.
0.655291 0.0746887 0.
0.65736 0.074528 0.
0.65943 0.0743696 0.
0.661499 0.0742094 0.
0.663568 0.0740163 0.
0.665637 0.0738219 0.
0.667705 0.0736241 0.
0.669768 0.0734036 0.
0.67183 0.0731823 0.
0.673891 0.0729688 0.
0.675947 0.0727445 0.
0.678003 0.0725194 0.
0.680057 0.0723048 0.
0.682109 0.0720962 0.
0.684162 0.0718873 0.
0.68621 0.0716898 0.
0.688257 0.0715005 0.
0.690303 0.0713162 0.
0.692345 0.0711534 0.
0.694386 0.0709942 0.
0.696427 0.0708766 0.
0.698466 0.0708192 0.
0.700504 0.0707657 0.
0.497607 0.0726954 0.
0.499643 0.0727527 0.
0.501679 0.0728632 0.
0.503716 0.0729764 0.
0.505753 0.0731262 0.
0.507791 0.0732977 0.
0.50983 0.0734721 0.
0.511872 0.0736607 0.
0.513916 0.0738514 0.
0.51596 0.0740501 0.
0.518008 0.0742582 0.
0.520056 0.0744658 0.
0.522105 0.0746797 0.
0.524156 0.0749017 0.
0.526206 0.075123 0.
0.528261 0.0753332 0.
0.530318 0.0755512 0.
0.532376 0.0757681 0.
0.534438 0.0759589 0.
0.536502 0.0761463 0.
0.538566 0.076332 0.
0.540631 0.0764851 0.
0.542697 0.0766369 0.
0.544762 0.0767913 0.
0.546828 0.0769416 0.
0.548893 0.0770919 0.
0.550956 0.0772594 0.
0.55302 0.0774355 0.
0.555083 0.0776068 0.
0.557142 0.0777195 0.
0.559201 0.0778301 0.
0.561258 0.0779355 0.
0.563312 0.0780135 0.
0.565367 0.0780915 0.
0.56742 0.0781694 0.
0.569472 0.0782471 0.
0.571524 0.0783249 0.
0.573573 0.0784056 0.
0.57562 0.0784881 0.
0.577667 0.0785691 0.
0.579705 0.0786042 0.
0.581742 0.0786389 0.
0.583777 0.0786715 0.
0.585809 0.0786985 0.
0.58784 0.0787255 0.
0.58987 0.0787479 0.
0.591899 0.0787661 0.
0.593929 0.0787844 0.
0.595957 0.0787912 0.
0.597986 0.0787944 0.
0.600014 0.0787976 0.
0.602043 0.0787851 0.
0.604072 0.0787727 0.
0.606102 0.078758 0.
0.608133 0.0787362 0.
0.610164 0.0787144 0.
0.612196 0.078689 0.
0.614229 0.0786598 0.
0.616262 0.0786305 0.
0.6183 0.0785932 0.
0.620339 0.0785533 0.
0.622379 0.0785128 0.
0.624428 0.0784267 0.
0.626477 0.0783393 0.
0.628526 0.0782538 0.
0.63058 0.0781715 0.
0.632633 0.0780892 0.
0.634687 0.0780062 0.
0.636743 0.0779228 0.
0.638798 0.0778393 0.
0.640857 0.0777229 0.
0.642918 0.0776013 0.
0.644978 0.0774778 0.
0.647042 0.0772975 0.
0.649107 0.0771124 0.
0.651171 0.076937 0.
0.653237 0.076781 0.
0.655302 0.0766249 0.
0.657367 0.0764648 0.
0.659432 0.0763072 0.
0.661497 0.0761479 0.
0.66356 0.075958 0.
0.665623 0.075767 0.
0.667685 0.075572 0.
0.66974 0.0753547 0.
0.671795 0.0751364 0.
0.673848 0.0749256 0.
0.675896 0.0747026 0.
0.677945 0.0744789 0.
0.679993 0.0742655 0.
0.682039 0.0740584 0.
0.684086 0.0738511 0.
0.686129 0.0736555 0.
0.688171 0.0734685 0.
0.690212 0.0732855 0.
0.692251 0.0731232 0.
0.694289 0.0729647 0.
0.696326 0.0728447 0.
0.698362 0.0727872 0.
0.700398 0.0727331 0.
0.497712 0.0746649 0.
0.499746 0.0747252 0.
0.501779 0.0748366 0.
0.503812 0.07495 0.
0.505845 0.0751008 0.
0.507879 0.0752715 0.
0.509913 0.0754452 0.
0.51195 0.0756323 0.
0.513988 0.0758208 0.
0.516026 0.0760177 0.
0.518068 0.0762241 0.
0.520109 0.0764299 0.
0.522151 0.0766419 0.
0.524196 0.0768624 0.
0.52624 0.0770822 0.
0.528288 0.0772893 0.
0.530338 0.0775039 0.
0.532388 0.0777173 0.
0.534445 0.0779049 0.
0.536503 0.0780885 0.
0.538561 0.0782705 0.
0.540623 0.0784229 0.
0.542685 0.0785741 0.
0.544747 0.0787283 0.
0.546809 0.0788787 0.
0.548871 0.0790291 0.
0.550932 0.0791969 0.
0.552992 0.0793734 0.
0.555052 0.0795454 0.
0.557109 0.0796604 0.
0.559166 0.0797734 0.
0.561223 0.0798814 0.
0.563277 0.0799598 0.
0.565331 0.0800383 0.
0.567385 0.0801167 0.
0.569437 0.0801952 0.
0.571489 0.0802738 0.
0.573539 0.0803572 0.
0.575588 0.0804431 0.
0.577637 0.0805274 0.
0.579677 0.0805661 0.
0.581717 0.0806042 0.
0.583755 0.0806396 0.
0.585789 0.0806673 0.
0.587822 0.0806949 0.
0.589855 0.080718 0.
0.591888 0.0807369 0.
0.59392 0.0807558 0.
0.595953 0.0807627 0.
0.597984 0.080766 0.
0.600016 0.0807691 0.
0.602049 0.0807561 0.
0.604082 0.0807431 0.
0.606114 0.0807277 0.
0.608148 0.0807053 0.
0.610182 0.0806828 0.
0.612216 0.0806567 0.
0.614252 0.0806268 0.
0.616287 0.0805968 0.
0.618327 0.0805566 0.
0.620369 0.0805132 0.
0.622411 0.0804691 0.
0.624461 0.08038 0.
0.626511 0.0802894 0.
0.628562 0.0802015 0.
0.630615 0.0801185 0.
0.632668 0.0800355 0.
0.634723 0.0799519 0.
0.636778 0.0798678 0.
0.638833 0.0797838 0.
0.64089 0.0796649 0.
0.642948 0.0795409 0.
0.645006 0.0794152 0.
0.647067 0.0792346 0.
0.649129 0.0790494 0.
0.65119 0.078874 0.
0.653252 0.0787182 0.
0.655314 0.0785623 0.
0.657375 0.0784028 0.
0.659436 0.0782463 0.
0.661497 0.0780882 0.
0.663554 0.0779021 0.
0.66561 0.0777152 0.
0.667666 0.0775239 0.
0.669714 0.0773101 0.
0.671762 0.0770954 0.
0.673808 0.0768875 0.
0.67585 0.0766659 0.
0.677893 0.0764435 0.
0.679933 0.0762319 0.
0.681973 0.0760263 0.
0.684013 0.0758204 0.
0.686051 0.0756262 0.
0.688088 0.0754408 0.
0.690125 0.0752587 0.
0.692159 0.0750965 0.
0.694193 0.0749382 0.
0.696227 0.0748158 0.
0.69826 0.0747583 0.
0.700293 0.0747037 0.
0.497805 0.0766383 0.
0.499836 0.0767017 0.
0.501865 0.076814 0.
0.503894 0.0769279 0.
0.505923 0.0770795 0.
0.507953 0.0772496 0.
0.509982 0.0774228 0.
0.512014 0.0776084 0.
0.514046 0.0777949 0.
0.516079 0.0779899 0.
0.518114 0.0781944 0.
0.52015 0.0783983 0.
0.522186 0.0786085 0.
0.524225 0.0788279 0.
0.526264 0.0790465 0.
0.528307 0.0792511 0.
0.530351 0.0794628 0.
0.532395 0.0796734 0.
0.534448 0.0798579 0.
0.536501 0.0800379 0.
0.538555 0.0802167 0.
0.540613 0.0803682 0.
0.542671 0.0805184 0.
0.54473 0.0806721 0.
0.546789 0.0808223 0.
0.548848 0.0809725 0.
0.550906 0.08114 0.
0.552964 0.0813165 0.
0.555022 0.0814884 0.
0.557079 0.0816043 0.
0.559135 0.0817181 0.
0.561191 0.081827 0.
0.563245 0.0819059 0.
0.5653 0.0819849 0.
0.567353 0.082064 0.
0.569406 0.0821431 0.
0.571458 0.0822221 0.
0.573509 0.0823074 0.
0.575559 0.0823956 0.
0.577609 0.0824824 0.
0.579651 0.0825249 0.
0.581693 0.0825667 0.
0.583733 0.0826053 0.
0.58577 0.0826334 0.
0.587806 0.0826615 0.
0.589842 0.082685 0.
0.591877 0.0827042 0.
0.593913 0.0827234 0.
0.595948 0.0827304 0.
0.597983 0.0827336 0.
0.600019 0.0827367 0.
0.602054 0.0827233 0.
0.60409 0.0827099 0.
0.606126 0.0826942 0.
0.608163 0.0826713 0.
0.610199 0.0826484 0.
0.612236 0.0826217 0.
0.614274 0.0825913 0.
0.616312 0.0825609 0.
0.618354 0.0825174 0.
0.620397 0.0824703 0.
0.622441 0.0824223 0.
0.624492 0.0823312 0.
0.626542 0.0822386 0.
0.628594 0.0821491 0.
0.630647 0.0820656 0.
0.6327 0.0819821 0.
0.634754 0.0818978 0.
0.63681 0.0818132 0.
0.638865 0.0817287 0.
0.640921 0.0816088 0.
0.642978 0.0814843 0.
0.645036 0.0813578 0.
0.647094 0.0811776 0.
0.649153 0.0809929 0.
0.651211 0.0808182 0.
0.653269 0.0806627 0.
0.655328 0.0805071 0.
0.657385 0.0803482 0.
0.659442 0.0801928 0.
0.661499 0.0800358 0.
0.663551 0.0798532 0.
0.665603 0.0796702 0.
0.667653 0.0794824 0.
0.669696 0.0792714 0.
0.671738 0.0790595 0.
0.673779 0.078854 0.
0.675816 0.0786335 0.
0.677853 0.0784122 0.
0.679887 0.0782023 0.
0.681921 0.0779986 0.
0.683955 0.0777944 0.
0.685987 0.0776016 0.
0.688019 0.0774178 0.
0.69005 0.0772366 0.
0.69208 0.0770742 0.
0.69411 0.0769159 0.
0.69614 0.0767912 0.
0.69817 0.0767333 0.
0.700199 0.0766781 0.
0.497897 0.078615 0.
0.499923 0.0786818 0.
0.501949 0.0787949 0.
0.503974 0.0789095 0.
0.505999 0.0790622 0.
0.508024 0.0792321 0.
0.510049 0.0794051 0.
0.512075 0.0795895 0.
0.514103 0.0797745 0.
0.51613 0.0799681 0.
0.518161 0.0801709 0.
0.520191 0.0803731 0.
0.522223 0.0805816 0.
0.524258 0.0807997 0.
0.526292 0.0810169 0.
0.52833 0.0812186 0.
0.530369 0.0814274 0.
0.532408 0.081635 0.
0.534455 0.0818162 0.
0.536504 0.0819921 0.
0.538553 0.0821672 0.
0.540606 0.0823168 0.
0.54266 0.0824652 0.
0.544714 0.0826176 0.
0.546769 0.0827673 0.
0.548825 0.0829169 0.
0.55088 0.0830837 0.
0.552936 0.0832599 0.
0.554992 0.0834317 0.
0.557048 0.0835484 0.
0.559103 0.0836627 0.
0.561159 0.0837725 0.
0.563213 0.0838521 0.
0.565268 0.0839316 0.
0.567322 0.0840113 0.
0.569375 0.0840909 0.
0.571427 0.0841705 0.
0.573479 0.0842576 0.
0.57553 0.0843482 0.
0.57758 0.0844373 0.
0.579624 0.0844836 0.
0.581668 0.0845292 0.
0.583711 0.0845709 0.
0.58575 0.0845995 0.
0.587789 0.084628 0.
0.589828 0.0846519 0.
0.591867 0.0846715 0.
0.593905 0.084691 0.
0.595944 0.0846981 0.
0.597982 0.0847012 0.
0.600021 0.0847043 0.
0.60206 0.0846905 0.
0.604099 0.0846768 0.
0.606137 0.0846606 0.
0.608177 0.0846372 0.
0.610216 0.0846139 0.
0.612256 0.0845868 0.
0.614296 0.0845558 0.
0.616336 0.0845249 0.
0.61838 0.0844782 0.
0.620425 0.0844273 0.
0.622471 0.0843755 0.
0.624522 0.0842823 0.
0.626573 0.0841877 0.
0.628625 0.0840967 0.
0.630679 0.0840126 0.
0.632732 0.0839286 0.
0.634786 0.0838438 0.
0.636842 0.0837587 0.
0.638897 0.0836736 0.
0.640953 0.0835528 0.
0.643009 0.0834278 0.
0.645065 0.0833008 0.
0.647121 0.0831214 0.
0.649176 0.0829375 0.
0.651232 0.0827639 0.
0.653286 0.0826092 0.
0.65534 0.0824544 0.
0.657393 0.0822968 0.
0.659445 0.0821432 0.
0.661497 0.0819881 0.
0.663544 0.0818098 0.
0.665591 0.0816314 0.
0.667636 0.0814473 0.
0.669673 0.0812389 0.
0.67171 0.0810295 0.
0.673746 0.0808266 0.
0.675779 0.0806076 0.
0.677812 0.0803876 0.
0.679841 0.080179 0.
0.68187 0.0799767 0.
0.6839 0.0797741 0.
0.685926 0.0795822 0.
0.687952 0.0793995 0.
0.689979 0.079219 0.
0.692004 0.0790562 0.
0.69403 0.0788976 0.
0.696055 0.0787704 0.
0.698081 0.0787118 0.
0.700106 0.0786559 0.
0.498002 0.0805965 0.
0.500024 0.0806675 0.
0.502045 0.0807819 0.
0.504066 0.0808974 0.
0.506086 0.0810516 0.
0.508106 0.0812213 0.
0.510125 0.0813942 0.
0.512146 0.0815773 0.
0.514167 0.0817606 0.
0.516189 0.0819528 0.
0.518214 0.0821537 0.
0.520239 0.0823542 0.
0.522265 0.0825609 0.
0.524294 0.0827768 0.
0.526322 0.0829917 0.
0.528354 0.0831903 0.
0.530388 0.0833961 0.
0.532422 0.0836009 0.
0.534463 0.0837786 0.
0.536506 0.0839504 0.
0.53855 0.0841216 0.
0.540598 0.0842692 0.
0.542647 0.0844158 0.
0.544696 0.084567 0.
0.546748 0.0847161 0.
0.548799 0.0848651 0.
0.550852 0.0850304 0.
0.552906 0.0852054 0.
0.554959 0.085376 0.
0.557014 0.0854932 0.
0.55907 0.0856079 0.
0.561125 0.0857185 0.
0.563179 0.0857983 0.
0.565233 0.0858782 0.
0.567287 0.0859583 0.
0.56934 0.0860382 0.
0.571393 0.0861181 0.
0.573445 0.0862062 0.
0.575497 0.0862982 0.
0.577549 0.0863888 0.
0.579595 0.0864377 0.
0.581641 0.0864858 0.
0.583687 0.0865296 0.
0.585729 0.0865583 0.
0.587772 0.086587 0.
0.589814 0.0866111 0.
0.591856 0.0866309 0.
0.593898 0.0866507 0.
0.59594 0.0866578 0.
0.597982 0.0866609 0.
0.600023 0.0866639 0.
0.602065 0.08665 0.
0.604107 0.0866361 0.
0.606149 0.0866197 0.
0.608191 0.0865962 0.
0.610234 0.0865726 0.
0.612277 0.0865453 0.
0.61432 0.0865142 0.
0.616363 0.0864831 0.
0.618409 0.0864341 0.
0.620456 0.0863805 0.
0.622504 0.086326 0.
0.624556 0.0862315 0.
0.626608 0.0861358 0.
0.62866 0.0860439 0.
0.630713 0.0859596 0.
0.632767 0.0858753 0.
0.634821 0.08579 0.
0.636876 0.0857045 0.
0.638931 0.0856189 0.
0.640986 0.0854977 0.
0.643041 0.0853725 0.
0.645097 0.0852453 0.
0.64715 0.0850674 0.
0.649202 0.0848853 0.
0.651254 0.0847135 0.
0.653304 0.0845595 0.
0.655353 0.0844056 0.
0.657401 0.0842493 0.
0.659448 0.0840975 0.
0.661495 0.0839446 0.
0.663537 0.0837705 0.
0.665578 0.0835967 0.
0.667617 0.0834165 0.
0.669649 0.0832107 0.
0.67168 0.0830041 0.
0.67371 0.0828042 0.
0.675737 0.0825875 0.
0.677764 0.0823697 0.
0.679788 0.0821626 0.
0.681811 0.0819616 0.
0.683835 0.0817602 0.
0.685856 0.0815693 0.
0.687876 0.0813877 0.
0.689897 0.0812078 0.
0.691917 0.0810448 0.
0.693938 0.0808858 0.
0.695958 0.0807556 0.
0.697979 0.0806959 0.
0.7 0.0806389 0.
0.498118 0.0825822 0.
0.500135 0.0826582 0.
0.502152 0.0827738 0.
0.504168 0.0828907 0.
0.506182 0.0830463 0.
0.508196 0.0832159 0.
0.51021 0.0833887 0.
0.512225 0.0835706 0.
0.51424 0.0837525 0.
0.516256 0.0839437 0.
0.518274 0.0841434 0.
0.520292 0.0843429 0.
0.52231 0.0845484 0.
0.524331 0.0847625 0.
0.526351 0.0849757 0.
0.528375 0.0851716 0.
0.530402 0.0853744 0.
0.532428 0.085576 0.
0.534464 0.0857493 0.
0.536501 0.0859158 0.
0.538539 0.0860821 0.
0.540584 0.0862273 0.
0.542629 0.0863714 0.
0.544675 0.0865206 0.
0.546723 0.0866687 0.
0.548771 0.0868168 0.
0.550822 0.08698 0.
0.552874 0.0871527 0.
0.554926 0.0873213 0.
0.556981 0.0874388 0.
0.559036 0.0875534 0.
0.56109 0.0876645 0.
0.563144 0.0877446 0.
0.565199 0.0878248 0.
0.567252 0.0879051 0.
0.569306 0.0879852 0.
0.571359 0.0880654 0.
0.573412 0.0881543 0.
0.575464 0.0882475 0.
0.577516 0.0883395 0.
0.579565 0.0883908 0.
0.581614 0.0884412 0.
0.583662 0.088487 0.
0.585708 0.0885159 0.
0.587755 0.0885448 0.
0.589801 0.0885692 0.
0.591846 0.0885893 0.
0.593891 0.0886095 0.
0.595936 0.0886167 0.
0.597981 0.0886197 0.
0.600026 0.0886227 0.
0.60207 0.0886086 0.
0.604115 0.0885944 0.
0.60616 0.0885779 0.
0.608206 0.0885541 0.
0.610252 0.0885304 0.
0.612298 0.0885028 0.
0.614344 0.0884714 0.
0.61639 0.0884401 0.
0.618439 0.0883889 0.
0.620488 0.0883328 0.
0.622537 0.0882758 0.
0.62459 0.0881803 0.
0.626642 0.0880835 0.
0.628695 0.0879909 0.
0.630749 0.0879065 0.
0.632802 0.087822 0.
0.634856 0.0877363 0.
0.63691 0.0876503 0.
0.638965 0.0875643 0.
0.641019 0.087443 0.
0.643074 0.0873183 0.
0.645128 0.0871913 0.
0.64718 0.0870159 0.
0.649231 0.0868365 0.
0.651281 0.0866673 0.
0.653326 0.0865144 0.
0.655372 0.0863615 0.
0.657416 0.0862075 0.
0.659459 0.0860583 0.
0.661501 0.0859079 0.
0.663537 0.085739 0.
0.665572 0.0855706 0.
0.667605 0.085395 0.
0.669628 0.0851921 0.
0.671652 0.0849881 0.
0.673674 0.0847907 0.
0.675692 0.0845756 0.
0.677711 0.0843595 0.
0.679728 0.0841533 0.
0.681745 0.0839529 0.
0.683762 0.0837523 0.
0.685777 0.0835619 0.
0.687792 0.0833813 0.
0.689807 0.083202 0.
0.691822 0.0830385 0.
0.693837 0.0828792 0.
0.695853 0.0827457 0.
0.697869 0.0826844 0.
0.699886 0.0826259 0.
0.498231 0.0845723 0.
0.500244 0.0846533 0.
0.502255 0.0847704 0.
0.504266 0.0848886 0.
0.506274 0.0850458 0.
0.508282 0.0852157 0.
0.51029 0.0853888 0.
0.512299 0.0855699 0.
0.514307 0.0857507 0.
0.516316 0.0859409 0.
0.518327 0.0861396 0.
0.520337 0.086338 0.
0.522348 0.0865418 0.
0.524361 0.0867539 0.
0.526374 0.0869651 0.
0.528391 0.0871574 0.
0.530411 0.0873564 0.
0.532431 0.0875541 0.
0.534461 0.0877223 0.
0.536493 0.0878832 0.
0.538527 0.0880444 0.
0.540568 0.0881868 0.
0.54261 0.088328 0.
0.544652 0.088475 0.
0.546698 0.0886222 0.
0.548742 0.0887695 0.
0.550792 0.0889303 0.
0.552843 0.0891006 0.
0.554894 0.0892671 0.
0.556948 0.0893847 0.
0.559002 0.0894994 0.
0.561057 0.0896108 0.
0.563111 0.0896911 0.
0.565165 0.0897714 0.
0.567219 0.089852 0.
0.569272 0.0899322 0.
0.571326 0.0900125 0.
0.573379 0.0901021 0.
0.575432 0.0901964 0.
0.577485 0.0902895 0.
0.579536 0.0903427 0.
0.581588 0.0903949 0.
0.583639 0.0904424 0.
0.585688 0.0904714 0.
0.587738 0.0905004 0.
0.589788 0.0905252 0.
0.591836 0.0905458 0.
0.593885 0.0905663 0.
0.595933 0.0905736 0.
0.59798 0.0905767 0.
0.600028 0.0905797 0.
0.602076 0.0905653 0.
0.604123 0.090551 0.
0.606171 0.0905342 0.
0.60822 0.0905103 0.
0.610268 0.0904864 0.
0.612317 0.0904586 0.
0.614367 0.090427 0.
0.616416 0.0903955 0.
0.618467 0.0903423 0.
0.620518 0.0902841 0.
0.622569 0.090225 0.
0.624622 0.0901286 0.
0.626676 0.090031 0.
0.628729 0.089938 0.
0.630782 0.0898535 0.
0.632836 0.0897689 0.
0.63489 0.0896828 0.
0.636944 0.0895965 0.
0.638997 0.08951 0.
0.641052 0.0893888 0.
0.643106 0.0892645 0.
0.645159 0.0891379 0.
0.647209 0.0889651 0.
0.649259 0.0887884 0.
0.651307 0.0886219 0.
0.65335 0.0884702 0.
0.655393 0.0883184 0.
0.657433 0.0881669 0.
0.659472 0.0880208 0.
0.66151 0.0878735 0.
0.663541 0.0877101 0.
0.66557 0.0875475 0.
0.667597 0.087377 0.
0.669614 0.0871778 0.
0.67163 0.0869775 0.
0.673645 0.0867834 0.
0.675655 0.0865699 0.
0.677666 0.0863555 0.
0.679676 0.0861503 0.
0.681685 0.0859506 0.
0.683695 0.0857506 0.
0.685703 0.0855608 0.
0.687712 0.0853809 0.
0.689721 0.0852018 0.
0.69173 0.0850374 0.
0.693739 0.0848773 0.
0.695749 0.0847404 0.
0.697762 0.0846773 0.
0.699774 0.0846172 0.
0.498326 0.0865686 0.
0.500333 0.0866542 0.
0.502339 0.086773 0.
0.504345 0.086893 0.
0.506347 0.0870514 0.
0.50835 0.0872215 0.
0.510352 0.0873948 0.
0.512354 0.0875749 0.
0.514356 0.0877544 0.
0.516357 0.0879435 0.
0.518361 0.0881408 0.
0.520364 0.0883378 0.
0.522369 0.0885396 0.
0.524375 0.0887499 0.
0.52638 0.0889592 0.
0.528392 0.089148 0.
0.530407 0.089343 0.
0.532421 0.0895369 0.
0.534448 0.0897003 0.
0.536477 0.0898555 0.
0.538507 0.0900112 0.
0.540546 0.0901505 0.
0.542586 0.0902886 0.
0.544627 0.0904334 0.
0.546671 0.09058 0.
0.548714 0.0907265 0.
0.550762 0.0908843 0.
0.552813 0.0910513 0.
0.554863 0.0912146 0.
0.556917 0.0913319 0.
0.558971 0.0914461 0.
0.561025 0.0915572 0.
0.56308 0.0916375 0.
0.565134 0.0917178 0.
0.567188 0.0917984 0.
0.569242 0.0918788 0.
0.571297 0.0919593 0.
0.57335 0.0920491 0.
0.575404 0.092144 0.
0.577458 0.0922377 0.
0.579511 0.0922918 0.
0.581565 0.0923448 0.
0.583618 0.0923932 0.
0.585671 0.0924226 0.
0.587724 0.0924519 0.
0.589776 0.0924772 0.
0.591828 0.0924984 0.
0.59388 0.0925197 0.
0.59593 0.0925273 0.
0.59798 0.0925306 0.
0.60003 0.0925337 0.
0.60208 0.092519 0.
0.60413 0.0925042 0.
0.60618 0.092487 0.
0.608232 0.0924629 0.
0.610283 0.0924387 0.
0.612335 0.0924107 0.
0.614386 0.0923788 0.
0.616438 0.0923469 0.
0.618491 0.0922926 0.
0.620544 0.0922334 0.
0.622597 0.0921731 0.
0.624651 0.0920761 0.
0.626705 0.091978 0.
0.628759 0.0918848 0.
0.630813 0.0918001 0.
0.632866 0.0917155 0.
0.634921 0.0916293 0.
0.636975 0.091543 0.
0.639029 0.0914563 0.
0.641083 0.091336 0.
0.643137 0.0912129 0.
0.64519 0.0910871 0.
0.647239 0.0909176 0.
0.649287 0.0907444 0.
0.651334 0.0905811 0.
0.653375 0.0904303 0.
0.655417 0.0902795 0.
0.657455 0.0901304 0.
0.659491 0.0899877 0.
0.661527 0.0898436 0.
0.663554 0.0896859 0.
0.665579 0.0895293 0.
0.667602 0.0893638 0.
0.669613 0.0891681 0.
0.671624 0.0889713 0.
0.673633 0.0887805 0.
0.675636 0.0885687 0.
0.67764 0.088356 0.
0.679643 0.0881522 0.
0.681645 0.0879533 0.
0.683648 0.0877542 0.
0.685649 0.0875653 0.
0.687651 0.0873864 0.
0.689653 0.0872079 0.
0.691656 0.0870428 0.
0.693659 0.0868819 0.
0.695664 0.0867422 0.
0.697672 0.086677 0.
0.699679 0.0866148 0.
0.498409 0.0885684 0.
0.500411 0.0886588 0.
0.502412 0.0887799 0.
0.504412 0.0889021 0.
0.506408 0.0890618 0.
0.508404 0.0892324 0.
0.510398 0.089406 0.
0.512394 0.089585 0.
0.514388 0.0897633 0.
0.516383 0.0899511 0.
0.518381 0.090147 0.
0.520379 0.0903426 0.
0.522378 0.0905426 0.
0.524379 0.0907509 0.
0.526381 0.0909582 0.
0.528389 0.0911433 0.
0.5304 0.0913343 0.
0.532411 0.0915242 0.
0.534435 0.091682 0.
0.536462 0.0918306 0.
0.53849 0.0919801 0.
0.540527 0.0921162 0.
0.542565 0.092251 0.
0.544603 0.0923934 0.
0.546645 0.092539 0.
0.548686 0.0926845 0.
0.550733 0.0928391 0.
0.552783 0.0930025 0.
0.554832 0.0931624 0.
0.556886 0.0932792 0.
0.55894 0.0933927 0.
0.560994 0.0935035 0.
0.563049 0.0935839 0.
0.565104 0.0936641 0.
0.567158 0.0937448 0.
0.569213 0.0938254 0.
0.571267 0.093906 0.
0.573322 0.0939962 0.
0.575376 0.0940916 0.
0.577431 0.0941858 0.
0.579486 0.0942409 0.
0.581542 0.0942948 0.
0.583598 0.0943441 0.
0.585654 0.0943737 0.
0.58771 0.0944033 0.
0.589765 0.0944292 0.
0.59182 0.0944511 0.
0.593874 0.0944731 0.
0.595927 0.094481 0.
0.59798 0.0944845 0.
0.600033 0.0944878 0.
0.602085 0.0944726 0.
0.604137 0.0944574 0.
0.60619 0.0944398 0.
0.608244 0.0944155 0.
0.610298 0.0943911 0.
0.612352 0.0943628 0.
0.614406 0.0943306 0.
0.616461 0.0942984 0.
0.618515 0.0942429 0.
0.62057 0.0941826 0.
0.622625 0.0941212 0.
0.624679 0.0940236 0.
0.626734 0.093925 0.
0.628788 0.0938316 0.
0.630843 0.0937468 0.
0.632897 0.093662 0.
0.634952 0.0935757 0.
0.637006 0.0934894 0.
0.639061 0.0934026 0.
0.641114 0.0932833 0.
0.643168 0.0931616 0.
0.64522 0.0930368 0.
0.647268 0.0928708 0.
0.649315 0.0927013 0.
0.65136 0.0925415 0.
0.653399 0.092392 0.
0.655438 0.0922425 0.
0.657474 0.0920961 0.
0.659508 0.091957 0.
0.661542 0.0918164 0.
0.663566 0.0916648 0.
0.665589 0.0915147 0.
0.667609 0.0913549 0.
0.669617 0.0911632 0.
0.671624 0.0909704 0.
0.67363 0.090783 0.
0.675628 0.0905729 0.
0.677627 0.0903618 0.
0.679624 0.0901595 0.
0.681619 0.0899614 0.
0.683615 0.089763 0.
0.68561 0.0895749 0.
0.687604 0.0893971 0.
0.689599 0.0892193 0.
0.691595 0.0890534 0.
0.693592 0.0888916 0.
0.69559 0.0887492 0.
0.697592 0.0886812 0.
0.699594 0.0886163 0.
0.498477 0.0905735 0.
0.500473 0.0906684 0.
0.502468 0.0907918 0.
0.504463 0.0909161 0.
0.506453 0.0910768 0.
0.508442 0.0912476 0.
0.510432 0.0914214 0.
0.512421 0.0915992 0.
0.514411 0.0917761 0.
0.5164 0.0919626 0.
0.518394 0.0921568 0.
0.520387 0.0923506 0.
0.522382 0.0925482 0.
0.52438 0.0927544 0.
0.526377 0.0929595 0.
0.528383 0.0931403 0.
0.530391 0.0933268 0.
0.532399 0.0935123 0.
0.534421 0.0936646 0.
0.536445 0.0938068 0.
0.538472 0.0939502 0.
0.540507 0.0940832 0.
0.542543 0.0942147 0.
0.54458 0.0943546 0.
0.546619 0.0944991 0.
0.548659 0.0946436 0.
0.550705 0.0947948 0.
0.552754 0.0949545 0.
0.554803 0.095111 0.
0.556856 0.0952271 0.
0.558911 0.0953397 0.
0.560965 0.0954497 0.
0.56302 0.0955302 0.
0.565076 0.0956104 0.
0.567131 0.0956911 0.
0.569185 0.0957717 0.
0.57124 0.0958523 0.
0.573295 0.0959422 0.
0.575351 0.0960374 0.
0.577406 0.0961314 0.
0.579463 0.0961864 0.
0.581521 0.0962399 0.
0.583579 0.0962891 0.
0.585637 0.0963188 0.
0.587695 0.0963485 0.
0.589753 0.0963748 0.
0.591811 0.0963973 0.
0.593868 0.0964199 0.
0.595924 0.0964284 0.
0.597979 0.0964323 0.
0.600035 0.0964361 0.
0.60209 0.0964207 0.
0.604145 0.0964054 0.
0.6062 0.0963875 0.
0.608256 0.0963628 0.
0.610312 0.0963381 0.
0.612368 0.0963095 0.
0.614424 0.0962772 0.
0.616481 0.0962449 0.
0.618537 0.0961891 0.
0.620594 0.0961286 0.
0.62265 0.096067 0.
0.624705 0.0959695 0.
0.62676 0.0958711 0.
0.628816 0.095778 0.
0.63087 0.0956933 0.
0.632925 0.0956085 0.
0.63498 0.0955222 0.
0.637035 0.0954359 0.
0.63909 0.095349 0.
0.641144 0.0952312 0.
0.643197 0.0951112 0.
0.64525 0.0949876 0.
0.647296 0.0948251 0.
0.649342 0.0946593 0.
0.651386 0.094503 0.
0.653423 0.0943549 0.
0.65546 0.0942066 0.
0.657494 0.0940631 0.
0.659526 0.0939275 0.
0.661557 0.0937904 0.
0.66358 0.093645 0.
0.665601 0.0935013 0.
0.667619 0.0933472 0.
0.669624 0.0931598 0.
0.671628 0.0929714 0.
0.67363 0.0927879 0.
0.675624 0.0925796 0.
0.677619 0.0923704 0.
0.679612 0.09217 0.
0.681602 0.0919732 0.
0.683594 0.0917762 0.
0.685583 0.091589 0.
0.687572 0.0914122 0.
0.689561 0.0912353 0.
0.691551 0.0910688 0.
0.693541 0.0909063 0.
0.695532 0.0907616 0.
0.697529 0.0906906 0.
0.699525 0.0906227 0.
0.498529 0.0925816 0.
0.500521 0.0926804 0.
0.502511 0.0928062 0.
0.5045 0.0929328 0.
0.506485 0.0930943 0.
0.50847 0.0932652 0.
0.510454 0.093439 0.
0.51244 0.0936158 0.
0.514426 0.0937916 0.
0.516412 0.0939768 0.
0.518401 0.0941696 0.
0.520391 0.0943618 0.
0.522382 0.0945573 0.
0.524376 0.0947618 0.
0.52637 0.0949653 0.
0.528373 0.0951416 0.
0.53038 0.0953229 0.
0.532386 0.095503 0.
0.534407 0.0956496 0.
0.53643 0.0957853 0.
0.538455 0.0959223 0.
0.540489 0.0960521 0.
0.542523 0.0961803 0.
0.544559 0.0963176 0.
0.546598 0.0964611 0.
0.548637 0.0966044 0.
0.550682 0.0967522 0.
0.55273 0.0969082 0.
0.554777 0.0970612 0.
0.556831 0.097176 0.
0.558885 0.097287 0.
0.560939 0.0973957 0.
0.562994 0.0974764 0.
0.565049 0.0975567 0.
0.567105 0.0976374 0.
0.569159 0.0977179 0.
0.571214 0.0977984 0.
0.57327 0.0978878 0.
0.575326 0.0979826 0.
0.577383 0.0980763 0.
0.579442 0.0981308 0.
0.581501 0.0981837 0.
0.58356 0.0982325 0.
0.585621 0.0982623 0.
0.587681 0.0982922 0.
0.589741 0.0983189 0.
0.591802 0.0983422 0.
0.593862 0.0983656 0.
0.595921 0.0983747 0.
0.597979 0.098379 0.
0.600037 0.0983833 0.
0.602095 0.0983677 0.
0.604152 0.0983522 0.
0.60621 0.0983341 0.
0.608268 0.098309 0.
0.610325 0.0982839 0.
0.612384 0.0982549 0.
0.614442 0.0982224 0.
0.616501 0.0981898 0.
0.618559 0.0981339 0.
0.620616 0.0980737 0.
0.622674 0.0980121 0.
0.62473 0.097915 0.
0.626786 0.0978169 0.
0.628842 0.0977241 0.
0.630896 0.0976395 0.
0.632951 0.0975549 0.
0.635006 0.0974686 0.
0.637061 0.0973826 0.
0.639115 0.0972957 0.
0.641169 0.09718 0.
0.643222 0.0970622 0.
0.645274 0.0969404 0.
0.647319 0.0967813 0.
0.649364 0.096619 0.
0.651407 0.0964663 0.
0.653443 0.0963198 0.
0.655479 0.096173 0.
0.657512 0.0960323 0.
0.659542 0.0959002 0.
0.661572 0.0957666 0.
0.663593 0.0956275 0.
0.665613 0.0954903 0.
0.667629 0.0953421 0.
0.669633 0.0951599 0.
0.671635 0.0949763 0.
0.673635 0.0947968 0.
0.675625 0.0945901 0.
0.677616 0.0943824 0.
0.679604 0.0941836 0.
0.681591 0.0939879 0.
0.683579 0.0937918 0.
0.685564 0.0936056 0.
0.687549 0.0934297 0.
0.689534 0.0932535 0.
0.691518 0.0930866 0.
0.693503 0.0929236 0.
0.69549 0.0927772 0.
0.697481 0.092703 0.
0.699473 0.0926319 0.
CELLS 5000 10000
1 0
1 1
1 2
1 3
1 4
1 5
1 6
1 7
1 8
1 9
1 10
1 11
1 12
1 13
1 14
1 15
1 16
1 17
1 18
1 19
1 20
1 21
1 22
1 23
1 24
1 25
1 26
1 27
1 28
1 29
1 30
1 31
1 32
1 33
1 34
1 35
1 36
1 37
1 38
1 39
1 40
1 41
1 42
1 43
1 44
1 45
1 46
1 47
1 48
1 49
1 50
1 51
1 52
1 53
1 54
1 55
1 56
1 57
1 58
1 59
1 60
1 61
1 62
1 63
1 64
1 65
1 66
1 67
1 68
1 69
1 70
1 71
1 72
1 73
1 74
1 75
1 76
1 77
1 78
1 79
1 80
1 81
1 82
1 83
1 84
1 85
1 86
1 87
1 88
1 89
1 90
1 91
1 92
1 93
1 94
1 95
1 96
1 97
1 98
1 99
1 100
1 101
1 102
1 103
1 104
1 105
1 106
1 107
1 108
1 109
1 110
1 111
1 112
1 113
1 114
1 115
1 116
1 117
1 118
1 119
1 120
1 121
1 122
1 123
1 124
1 125
1 126
1 127
1 128
1 129
1 130
1 131
1 132
1 133
1 134
1 135
1 136
1 137
1 138
1 139
1 140
1 141
1 142
1 143
1 144
1 145
1 146
1 147
1 148
1 149
1 150
1 151
1 152
1 153
1 154
1 155
1 156
1 157
1 158
1 159
1 160
1 161
1 162
1 163
1 164
1 165
1 166
1 167
1 168
1 169
1 170
1 171
1 172
1 173
1 174
1 175
1 176
1 177
1 178
1 179
1 180
1 181
1 182
1 183
1 184
1 185
1 186
1 187
1 188
1 189
1 190
1 191
1 192
1 193
1 194
1 195
1 196
1 197
1 198
1 199
1 200
1 201
1 202
1 203
1 204
1 205
1 206
1 207
1 208
1 209
1 210
1 211
1 212
1 213
1 214
1 215
1 216
1 217
1 218
1 219
1 220
1 221
1 222
1 223
1 224
1 225
1 226
1 227
1 228
1 229
1 230
1 231
1 232
1 233
1 234
1 235
1 236
1 237
1 238
1 239
1 240
1 241
1 242
1 243
1 244
1 245
1 246
1 247
1 248
1 249
1 250
1 251
1 252
1 253
1 254
1 255
1 256
1 257
1 258
1 259
1 260
1 261
1 262
1 263
1 264
1 265
1 266
1 267
1 268
1 269
1 270
1 271
1 272
1 273
1 274
1 275
1 276
1 277
1 278
1 279
1 280
1 281
1 282
1 283
1 284
1 285
1 286
1 287
1 288
1 289
1 290
1 291
1 292
1 293
1 294
1 295
1 296
1 297
1 298
1 299
1 300
1 301
1 302
1 303
1 304
1 305
1 306
1 307
1 308
1 309
1 310
1 311
1 312
1 313
1 314
1 315
1 316
1 317
1 318
1 319
1 320
1 321
1 322
1 323
1 324
1 325
1 326
1 327
1 328
1 329
1 330
1 331
1 332
1 333
1 334
1 335
1 336
1 337
1 338
1 339
1 340
1 341
1 342
1 343
1 344
1 345
1 346
1 347
1 348
1 349
1 350
1 351
1 352
1 353
1 354
1 355
1 356
1 357
1 358
1 359
1 360
1 361
1 362
1 363
1 364
1 365
1 366
1 367
1 368
1 369
1 370
1 371
1 372
1 373
1 374
1 375
1 376
1 377
1 378
1 379
1 380
1 381
1 382
1 383
1 384
1 385
1 386
1 387
1 388
1 389
1 390
1 391
1 392
1 393
1 394
1 395
1 396
1 397
1 398
1 399
1 400
1 401
1 402
1 403
1 404
1 405
1 406
1 407
1 408
1 409
1 410
1 411
1 412
1 413
1 414
1 415
1 416
1 417
1 418
1 419
1 420
1 421
1 422
1 423
1 424
1 425
1 426
1 427
1 428
1 429
1 430
1 431
1 432
1 433
1 434
1 435
1 436
1 437
1 438
1 439
1 440
1 441
1 442
1 443
1 444
1 445
1 446
1 447
1 448
1 449
1 450
1 451
1 452
1 453
1 454
1 455
1 456
1 457
1 458
1 459
1 460
1 461
1 462
1 463
1 464
1 465
1 466
1 467
1 468
1 469
1 470
1 471
1 472
1 473
1 474
1 475
1 476
1 477
1 478
1 479
1 480
1 481
1 482
1 483
1 484
1 485
1 486
1 487
1 488
1 489
1 490
1 491
1 492
1 493
1 494
1 495
1 496
1 497
1 498
1 499
1 500
1 501
1 502
1 503
1 504
1 505
1 506
1 507
1 508
1 509
1 510
1 511
1 512
1 513
1 514
1 515
1 516
1 517
1 518
1 519
1 520
1 521
1 522
1 523
1 524
1 525
1 526
1 527
1 528
1 529
1 530
1 531
1 532
1 533
1 534
1 535
1 536
1 537
1 538
1 539
1 540
1 541
1 542
1 543
1 544
1 545
1 546
1 547
1 548
1 549
1 550
1 551
1 552
1 553
1 554
1 555
1 556
1 557
1 558
1 559
1 560
1 561
1 562
1 563
1 564
1 565
1 566
1 567
1 568
1 569
1 570
1 571
1 572
1 573
1 574
1 575
1 576
1 577
1 578
1 579
1 580
1 581
1 582
1 583
1 584
1 585
1 586
1 587
1 588
1 589
1 590
1 591
1 592
1 593
1 594
1 595
1 596
1 597
1 598
1 599
1 600
1 601
1 602
1 603
1 604
1 605
1 606
1 607
1 608
1 609
1 610
1 611
1 612
1 613
1 614
1 615
1 616
1 617
1 618
1 619
1 620
1 621
1 622
1 623
1 624
1 625
1 626
1 627
1 628
1 629
1 630
1 631
1 632
1 633
1 634
1 635
1 636
1 637
1 638
1 639
1 640
1 641
1 642
1 643
1 644
1 645
1 646
1 647
1 648
1 649
1 650
1 651
1 652
1 653
1 654
1 655
1 656
1 657
1 658
1 659
1 660
1 661
1 662
1 663
1 664
1 665
1 666
1 667
1 668
1 669
1 670
1 671
1 672
1 673
1 674
1 675
1 676
1 677
1 678
1 679
1 680
1 681
1 682
1 683
1 684
1 685
1 686
1 687
1 688
1 689
1 690
1 691
1 692
1 693
1 694
1 695
1 696
1 697
1 698
1 699
1 700
1 701
1 702
1 703
1 704
1 705
1 706
1 707
1 708
1 709
1 710
1 711
1 712
1 713
1 714
1 715
1 716
1 717
1 718
1 719
1 720
1 721
1 722
1 723
1 724
1 725
1 726
1 727
1 728
1 729
1 730
1 731
1 732
1 733
1 734
1 735
1 736
1 737
1 738
1 739
1 740
1 741
1 742
1 743
1 744
1 745
1 746
1 747
1 748
1 749
1 750
1 751
1 752
1 753
1 754
1 755
1 756
1 757
1 758
1 759
1 760
1 761
1 762
1 763
1 764
1 765
1 766
1 767
1 768
1 769
1 770
1 771
1 772
1 773
1 774
1 775
1 776
1 777
1 778
1 779
1 780
1 781
1 782
1 783
1 784
1 785
1 786
1 787
1 788
1 789
1 790
1 791
1 792
1 793
1 794
1 795
1 796
1 797
1 798
1 799
1 800
1 801
1 802
1 803
1 804
1 805
1 806
1 807
1 808
1 809
1 810
1 811
1 812
1 813
1 814
1 815
1 816
1 817
1 818
1 819
1 820
1 821
1 822
1 823
1 824
1 825
1 826
1 827
1 828
1 829
1 830
1 831
1 832
1 833
1 834
1 835
1 836
1 837
1 838
1 839
1 840
1 841
1 842
1 843
1 844
1 845
1 846
1 847
1 848
1 849
1 850
1 851
1 852
1 853
1 854
1 855
1 856
1 857
1 858
1 859
1 860
1 861
1 862
1 863
1 864
1 865
1 866
1 867
1 868
1 869
1 870
1 871
1 872
1 873
1 874
1 875
1 876
1 877
1 878
1 879
1 880
1 881
1 882
1 883
1 884
1 885
1 886
1 887
1 888
1 889
1 890
1 891
1 892
1 893
1 894
1 895
1 896
1 897
1 898
1 899
1 900
1 901
1 902
1 903
1 904
1 905
1 906
1 907
1 908
1 909
1 910
1 911
1 912
1 913
1 914
1 915
1 916
1 917
1 918
1 919
1 920
1 921
1 922
1 923
1 924
1 925
1 926
1 927
1 928
1 929
1 930
1 931
1 932
1 933
1 934
1 935
1 936
1 937
1 938
1 939
1 940
1 941
1 942
1 943
1 944
1 945
1 946
1 947
1 948
1 949
1 950
1 951
1 952
1 953
1 954
1 955
1 956
1 957
1 958
1 959
1 960
1 961
1 962
1 963
1 964
1 965
1 966
1 967
1 968
1 969
1 970
1 971
1 972
1 973
1 974
1 975
1 976
1 977
1 978
1 979
1 980
1 981
1 982
1 983
1 984
1 985
1 986
1 987
1 988
1 989
1 990
1 991
1 992
1 993
1 994
1 995
1 996
1 997
1 998
1 999
1 1000
1 1001
1 1002
1 1003
1 1004
1 1005
1 1006
1 1007
1 1008
1 1009
1 1010
1 1011
1 1012
1 1013
1 1014
1 1015
1 1016
1 1017
1 1018
1 1019
1 1020
1 1021
1 1022
1 1023
1 1024
1 1025
1 1026
1 1027
1 1028
1 1029
1 1030
1 1031
1 1032
1 1033
1 1034
1 1035
1 1036
1 1037
1 1038
1 1039
1 1040
1 1041
1 1042
1 1043
1 1044
1 1045
1 1046
1 1047
1 1048
1 1049
1 1050
1 1051
1 1052
1 1053
1 1054
1 1055
1 1056
1 1057
1 1058
1 1059
1 1060
1 1061
1 1062
1 1063
1 1064
1 1065
1 1066
1 1067
1 1068
1 1069
1 1070
1 1071
1 1072
1 1073
1 1074
1 1075
1 1076
1 1077
1 1078
1 1079
1 1080
1 1081
1 1082
1 1083
1 1084
1 1085
1 1086
1 1087
1 1088
1 1089
1 1090
1 1091
1 1092
1 1093
1 1094
1 1095
1 1096
1 1097
1 1098
1 1099
1 1100
1 1101
1 1102
1 1103
1 1104
1 1105
1 1106
1 1107
1 1108
1 1109
1 1110
1 1111
1 1112
1 1113
1 1114
1 1115
1 1116
1 1117
1 1118
1 1119
1 1120
1 1121
1 1122
1 1123
1 1124
1 1125
1 1126
1 1127
1 1128
1 1129
1 1130
1 1131
1 1132
1 1133
1 1134
1 1135
1 1136
1 1137
1 1138
1 1139
1 1140
1 1141
1 1142
1 1143
1 1144
1 1145
1 1146
1 1147
1 1148
1 1149
1 1150
1 1151
1 1152
1 1153
1 1154
1 1155
1 1156
1 1157
1 1158
1 1159
1 1160
1 1161
1 1162
1 1163
1 1164
1 1165
1 1166
1 1167
1 1168
1 1169
1 1170
1 1171
1 1172
1 1173
1 1174
1 1175
1 1176
1 1177
1 1178
1 1179
1 1180
1 1181
1 1182
1 1183
1 1184
1 1185
1 1186
1 1187
1 1188
1 1189
1 1190
1 1191
1 1192
1 1193
1 1194
1 1195
1 1196
1 1197
1 1198
1 1199
1 1200
1 1201
1 1202
1 1203
1 1204
1 1205
1 1206
1 1207
1 1208
1 1209
1 1210
1 1211
1 1212
1 1213
1 1214
1 1215
1 1216
1 1217
1 1218
1 1219
1 1220
1 1221
1 1222
1 1223
1 1224
1 1225
1 1226
1 1227
1 1228
1 1229
1 1230
1 1231
1 1232
1 1233
1 1234
1 1235
1 1236
1 1237
1 1238
1 1239
1 1240
1 1241
1 1242
1 1243
1 1244
1 1245
1 1246
1 1247
1 1248
1 1249
1 1250
1 1251
1 1252
1 1253
1 1254
1 1255
1 1256
1 1257
1 1258
1 1259
1 1260
1 1261
1 1262
1 1263
1 1264
1 1265
1 1266
1 1267
1 1268
1 1269
1 1270
1 1271
1 1272
1 1273
1 1274
1 1275
1 1276
1 1277
1 1278
1 1279
1 1280
1 1281
1 1282
1 1283
1 1284
1 1285
1 1286
1 1287
1 1288
1 1289
1 1290
1 1291
1 1292
1 1293
1 1294
1 1295
1 1296
1 1297
1 1298
1 1299
1 1300
1 1301
1 1302
1 1303
1 1304
1 1305
1 1306
1 1307
1 1308
1 1309
1 1310
1 1311
1 1312
1 1313
1 1314
1 1315
1 1316
1 1317
1 1318
1 1319
1 1320
1 1321
1 1322
1 1323
1 1324
1 1325
1 1326
1 1327
1 1328
1 1329
1 1330
1 1331
1 1332
1 1333
1 1334
1 1335
1 1336
1 1337
1 1338
1 1339
1 1340
1 1341
1 1342
1 1343
1 1344
1 1345
1 1346
1 1347
1 1348
1 1349
1 1350
1 1351
1 1352
1 1353
1 1354
1 1355
1 1356
1 1357
1 1358
1 1359
1 1360
1 1361
1 1362
1 1363
1 1364
1 1365
1 1366
1 1367
1 1368
1 1369
1 1370
1 1371
1 1372
1 1373
1 1374
1 1375
1 1376
1 1377
1 1378
1 1379
1 1380
1 1381
1 1382
1 1383
1 1384
1 1385
1 1386
1 1387
1 1388
1 1389
1 1390
1 1391
1 1392
1 1393
1 1394
1 1395
1 1396
1 1397
1 1398
1 1399
1 1400
1 1401
1 1402
1 1403
1 1404
1 1405
1 1406
1 1407
1 1408
1 1409
1 1410
1 1411
1 1412
1 1413
1 1414
1 1415
1 1416
1 1417
1 1418
1 1419
1 1420
1 1421
1 1422
1 1423
1 1424
1 1425
1 1426
1 1427
1 1428
1 1429
1 1430
1 1431
1 1432
1 1433
1 1434
1 1435
1 1436
1 1437
1 1438
1 1439
1 1440
1 1441
1 1442
1 1443
1 1444
1 1445
1 1446
1 1447
1 1448
1 1449
1 1450
1 1451
1 1452
1 1453
1 1454
1 1455
1 1456
1 1457
1 1458
1 1459
1 1460
1 1461
1 1462
1 1463
1 1464
1 1465
1 1466
1 1467
1 1468
1 1469
1 1470
1 1471
1 1472
1 1473
1 1474
1 1475
1 1476
1 1477
1 1478
1 1479
1 1480
1 1481
1 1482
1 1483
1 1484
1 1485
1 1486
1 1487
1 1488
1 1489
1 1490
1 1491
1 1492
1 1493
1 1494
1 1495
1 1496
1 1497
1 1498
1 1499
1 1500
1 1501
1 1502
1 1503
1 1504
1 1505
1 1506
1 1507
1 1508
1 1509
1 1510
1 1511
1 1512
1 1513
1 1514
1 1515
1 1516
1 1517
1 1518
1 1519
1 1520
1 1521
1 1522
1 1523
1 1524
1 1525
1 1526
1 1527
1 1528
1 1529
1 1530
1 1531
1 1532
1 1533
1 1534
1 1535
1 1536
1 1537
1 1538
1 1539
1 1540
1 1541
1 1542
1 1543
1 1544
1 1545
1 1546
1 1547
1 1548
1 1549
1 1550
1 1551
1 1552
1 1553
1 1554
1 1555
1 1556
1 1557
1 1558
1 1559
1 1560
1 1561
1 1562
1 1563
1 1564
1 1565
1 1566
1 1567
1 1568
1 1569
1 1570
1 1571
1 1572
1 1573
1 1574
1 1575
1 1576
1 1577
1 1578
1 1579
1 1580
1 1581
1 1582
1 1583
1 1584
1 1585
1 1586
1 1587
1 1588
1 1589
1 1590
1 1591
1 1592
1 1593
1 1594
1 1595
1 1596
1 1597
1 1598
1 1599
1 1600
1 1601
1 1602
1 1603
1 1604
1 1605
1 1606
1 1607
1 1608
1 1609
1 1610
1 1611
1 1612
1 1613
1 1614
1 1615
1 1616
1 1617
1 1618
1 1619
1 1620
1 1621
1 1622
1 1623
1 1624
1 1625
1 1626
1 1627
1 1628
1 1629
1 1630
1 1631
1 1632
1 1633
1 1634
1 1635
1 1636
1 1637
1 1638
1 1639
1 1640
1 1641
1 1642
1 1643
1 1644
1 1645
1 1646
1 1647
1 1648
1 1649
1 1650
1 1651
1 1652
1 1653
1 1654
1 1655
1 1656
1 1657
1 1658
1 1659
1 1660
1 1661
1 1662
1 1663
1 1664
1 1665
1 1666
1 1667
1 1668
1 1669
1 1670
1 1671
1 1672
1 1673
1 1674
1 1675
1 1676
1 1677
1 1678
1 1679
1 1680
1 1681
1 1682
1 1683
1 1684
1 1685
1 1686
1 1687
1 1688
1 1689
1 1690
1 1691
1 1692
1 1693
1 1694
1 1695
1 1696
1 1697
1 1698
1 1699
1 1700
1 1701
1 1702
1 1703
1 1704
1 1705
1 1706
1 1707
1 1708
1 1709
1 1710
1 1711
1 1712
1 1713
1 1714
1 1715
1 1716
1 1717
1 1718
1 1719
1 1720
1 1721
1 1722
1 1723
1 1724
1 1725
1 1726
1 1727
1 1728
1 1729
1 1730
1 1731
1 1732
1 1733
1 1734
1 1735
1 1736
1 1737
1 1738
1 1739
1 1740
1 1741
1 1742
1 1743
1 1744
1 1745
1 1746
1 1747
1 1748
1 1749
1 1750
1 1751
1 1752
1 1753
1 1754
1 1755
1 1756
1 1757
1 1758
1 1759
1 1760
1 1761
1 1762
1 1763
1 1764
1 1765
1 1766
1 1767
1 1768
1 1769
1 1770
1 1771
1 1772
1 1773
1 1774
1 1775
1 1776
1 1777
1 1778
1 1779
1 1780
1 1781
1 1782
1 1783
1 1784
1 1785
1 1786
1 1787
1 1788
1 1789
1 1790
1 1791
1 1792
1 1793
1 1794
1 1795
1 1796
1 1797
1 1798
1 1799
1 1800
1 1801
1 1802
1 1803
1 1804
1 1805
1 1806
1 1807
1 1808
1 1809
1 1810
1 1811
1 1812
1 1813
1 1814
1 1815
1 1816
1 1817
1 1818
1 1819
1 1820
1 1821
1 1822
1 1823
1 1824
1 1825
1 1826
1 1827
1 1828
1 1829
1 1830
1 1831
1 1832
1 1833
1 1834
1 1835
1 1836
1 1837
1 1838
1 1839
1 1840
1 1841
1 1842
1 1843
1 1844
1 1845
1 1846
1 1847
1 1848
1 1849
1 1850
1 1851
1 1852
1 1853
1 1854
1 1855
1 1856
1 1857
1 1858
1 1859
1 1860
1 1861
1 1862
1 1863
1 1864
1 1865
1 1866
1 1867
1 1868
1 1869
1 1870
1 1871
1 1872
1 1873
1 1874
1 1875
1 1876
1 1877
1 1878
1 1879
1 1880
1 1881
1 1882
1 1883
1 1884
1 1885
1 1886
1 1887
1 1888
1 1889
1 1890
1 1891
1 1892
1 1893
1 1894
1 1895
1 1896
1 1897
1 1898
1 1899
1 1900
1 1901
1 1902
1 1903
1 1904
1 1905
1 1906
1 1907
1 1908
1 1909
1 1910
1 1911
1 1912
1 1913
1 1914
1 1915
1 1916
1 1917
1 1918
1 1919
1 1920
1 1921
1 1922
1 1923
1 1924
1 1925
1 1926
1 1927
1 1928
1 1929
1 1930
1 1931
1 1932
1 1933
1 1934
1 1935
1 1936
1 1937
1 1938
1 1939
1 1940
1 1941
1 1942
1 1943
1 1944
1 1945
1 1946
1 1947
1 1948
1 1949
1 1950
1 1951
1 1952
1 1953
1 1954
1 1955
1 1956
1 1957
1 1958
1 1959
1 1960
1 1961
1 1962
1 1963
1 1964
1 1965
1 1966
1 1967
1 1968
1 1969
1 1970
1 1971
1 1972
1 1973
1 1974
1 1975
1 1976
1 1977
1 1978
1 1979
1 1980
1 1981
1 1982
1 1983
1 1984
1 1985
1 1986
1 1987
1 1988
1 1989
1 1990
1 1991
1 1992
1 1993
1 1994
1 1995
1 1996
1 1997
1 1998
1 1999
1 2000
1 2001
1 2002
1 2003
1 2004
1 2005
1 2006
1 2007
1 2008
1 2009
1 2010
1 2011
1 2012
1 2013
1 2014
1 2015
1 2016
1 2017
1 2018
1 2019
1 2020
1 2021
1 2022
1 2023
1 2024
1 2025
1 2026
1 2027
1 2028
1 2029
1 2030
1 2031
1 2032
1 2033
1 2034
1 2035
1 2036
1 2037
1 2038
1 2039
1 2040
1 2041
1 2042
1 2043
1 2044
1 2045
1 2046
1 2047
1 2048
1 2049
1 2050
1 2051
1 2052
1 2053
1 2054
1 2055
1 2056
1 2057
1 2058
1 2059
1 2060
1 2061
1 2062
1 2063
1 2064
1 2065
1 2066
1 2067
1 2068
1 2069
1 2070
1 2071
1 2072
1 2073
1 2074
1 2075
1 2076
1 2077
1 2078
1 2079
1 2080
1 2081
1 2082
1 2083
1 2084
1 2085
1 2086
1 2087
1 2088
1 2089
1 2090
1 2091
1 2092
1 2093
1 2094
1 2095
1 2096
1 2097
1 2098
1 2099
1 2100
1 2101
1 2102
1 2103
1 2104
1 2105
1 2106
1 2107
1 2108
1 2109
1 2110
1 2111
1 2112
1 2113
1 2114
1 2115
1 2116
1 2117
1 2118
1 2119
1 2120
1 2121
1 2122
1 2123
1 2124
1 2125
1 2126
1 2127
1 2128
1 2129
1 2130
1 2131
1 2132
1 2133
1 2134
1 2135
1 2136
1 2137
1 2138
1 2139
1 2140
1 2141
1 2142
1 2143
1 2144
1 2145
1 2146
1 2147
1 2148
1 2149
1 2150
1 2151
1 2152
1 2153
1 2154
1 2155
1 2156
1 2157
1 2158
1 2159
1 2160
1 2161
1 2162
1 2163
1 2164
1 2165
1 2166
1 2167
1 2168
1 2169
1 2170
1 2171
1 2172
1 2173
1 2174
1 2175
1 2176
1 2177
1 2178
1 2179
1 2180
1 2181
1 2182
1 2183
1 2184
1 2185
1 2186
1 2187
1 2188
1 2189
1 2190
1 2191
1 2192
1 2193
1 2194
1 2195
1 2196
1 2197
1 2198
1 2199
1 2200
1 2201
1 2202
1 2203
1 2204
1 2205
1 2206
1 2207
1 2208
1 2209
1 2210
1 2211
1 2212
1 2213
1 2214
1 2215
1 2216
1 2217
1 2218
1 2219
1 2220
1 2221
1 2222
1 2223
1 2224
1 2225
1 2226
1 2227
1 2228
1 2229
1 2230
1 2231
1 2232
1 2233
1 2234
1 2235
1 2236
1 2237
1 2238
1 2239
1 2240
1 2241
1 2242
1 2243
1 2244
1 2245
1 2246
1 2247
1 2248
1 2249
1 2250
1 2251
1 2252
1 2253
1 2254
1 2255
1 2256
1 2257
1 2258
1 2259
1 2260
1 2261
1 2262
1 2263
1 2264
1 2265
1 2266
1 2267
1 2268
1 2269
1 2270
1 2271
1 2272
1 2273
1 2274
1 2275
1 2276
1 2277
1 2278
1 2279
1 2280
1 2281
1 2282
1 2283
1 2284
1 2285
1 2286
1 2287
1 2288
1 2289
1 2290
1 2291
1 2292
1 2293
1 2294
1 2295
1 2296
1 2297
1 2298
1 2299
1 2300
1 2301
1 2302
1 2303
1 2304
1 2305
1 2306
1 2307
1 2308
1 2309
1 2310
1 2311
1 2312
1 2313
1 2314
1 2315
1 2316
1 2317
1 2318
1 2319
1 2320
1 2321
1 2322
1 2323
1 2324
1 2325
1 2326
1 2327
1 2328
1 2329
1 2330
1 2331
1 2332
1 2333
1 2334
1 2335
1 2336
1 2337
1 2338
1 2339
1 2340
1 2341
1 2342
1 2343
1 2344
1 2345
1 2346
1 2347
1 2348
1 2349
1 2350
1 2351
1 2352
1 2353
1 2354
1 2355
1 2356
1 2357
1 2358
1 2359
1 2360
1 2361
1 2362
1 2363
1 2364
1 2365
1 2366
1 2367
1 2368
1 2369
1 2370
1 2371
1 2372
1 2373
1 2374
1 2375
1 2376
1 2377
1 2378
1 2379
1 2380
1 2381
1 2382
1 2383
1 2384
1 2385
1 2386
1 2387
1 2388
1 2389
1 2390
1 2391
1 2392
1 2393
1 2394
1 2395
1 2396
1 2397
1 2398
1 2399
1 2400
1 2401
1 2402
1 2403
1 2404
1 2405
1 2406
1 2407
1 2408
1 2409
1 2410
1 2411
1 2412
1 2413
1 2414
1 2415
1 2416
1 2417
1 2418
1 2419
1 2420
1 2421
1 2422
1 2423
1 2424
1 2425
1 2426
1 2427
1 2428
1 2429
1 2430
1 2431
1 2432
1 2433
1 2434
1 2435
1 2436
1 2437
1 2438
1 2439
1 2440
1 2441
1 2442
1 2443
1 2444
1 2445
1 2446
1 2447
1 2448
1 2449
1 2450
1 2451
1 2452
1 2453
1 2454
1 2455
1 2456
1 2457
1 2458
1 2459
1 2460
1 2461
1 2462
1 2463
1 2464
1 2465
1 2466
1 2467
1 2468
1 2469
1 2470
1 2471
1 2472
1 2473
1 2474
1 2475
1 2476
1 2477
1 2478
1 2479
1 2480
1 2481
1 2482
1 2483
1 2484
1 2485
1 2486
1 2487
1 2488
1 2489
1 2490
1 2491
1 2492
1 2493
1 2494
1 2495
1 2496
1 2497
1 2498
1 2499
1 2500
1 2501
1 2502
1 2503
1 2504
1 2505
1 2506
1 2507
1 2508
1 2509
1 2510
1 2511
1 2512
1 2513
1 2514
1 2515
1 2516
1 2517
1 2518
1 2519
1 2520
1 2521
1 2522
1 2523
1 2524
1 2525
1 2526
1 2527
1 2528
1 2529
1 2530
1 2531
1 2532
1 2533
1 2534
1 2535
1 2536
1 2537
1 2538
1 2539
1 2540
1 2541
1 2542
1 2543
1 2544
1 2545
1 2546
1 2547
1 2548
1 2549
1 2550
1 2551
1 2552
1 2553
1 2554
1 2555
1 2556
1 2557
1 2558
1 2559
1 2560
1 2561
1 2562
1 2563
1 2564
1 2565
1 2566
1 2567
1 2568
1 2569
1 2570
1 2571
1 2572
1 2573
1 2574
1 2575
1 2576
1 2577
1 2578
1 2579
1 2580
1 2581
1 2582
1 2583
1 2584
1 2585
1 2586
1 2587
1 2588
1 2589
1 2590
1 2591
1 2592
1 2593
1 2594
1 2595
1 2596
1 2597
1 2598
1 2599
1 2600
1 2601
1 2602
1 2603
1 2604
1 2605
1 2606
1 2607
1 2608
1 2609
1 2610
1 2611
1 2612
1 2613
1 2614
1 2615
1 2616
1 2617
1 2618
1 2619
1 2620
1 2621
1 2622
1 2623
1 2624
1 2625
1 2626
1 2627
1 2628
1 2629
1 2630
1 2631
1 2632
1 2633
1 2634
1 2635
1 2636
1 2637
1 2638
1 2639
1 2640
1 2641
1 2642
1 2643
1 2644
1 2645
1 2646
1 2647
1 2648
1 2649
1 2650
1 2651
1 2652
1 2653
1 2654
1 2655
1 2656
1 2657
1 2658
1 2659
1 2660
1 2661
1 2662
1 2663
1 2664
1 2665
1 2666
1 2667
1 2668
1 2669
1 2670
1 2671
1 2672
1 2673
1 2674
1 2675
1 2676
1 2677
1 2678
1 2679
1 2680
1 2681
1 2682
1 2683
1 2684
1 2685
1 2686
1 2687
1 2688
1 2689
1 2690
1 2691
1 2692
1 2693
1 2694
1 2695
1 2696
1 2697
1 2698
1 2699
1 2700
1 2701
1 2702
1 2703
1 2704
1 2705
1 2706
1 2707
1 2708
1 2709
1 2710
1 2711
1 2712
1 2713
1 2714
1 2715
1 2716
1 2717
1 2718
1 2719
1 2720
1 2721
1 2722
1 2723
1 2724
1 2725
1 2726
1 2727
1 2728
1 2729
1 2730
1 2731
1 2732
1 2733
1 2734
1 2735
1 2736
1 2737
1 2738
1 2739
1 2740
1 2741
1 2742
1 2743
1 2744
1 2745
1 2746
1 2747
1 2748
1 2749
1 2750
1 2751
1 2752
1 2753
1 2754
1 2755
1 2756
1 2757
1 2758
1 2759
1 2760
1 2761
1 2762
1 2763
1 2764
1 2765
1 2766
1 2767
1 2768
1 2769
1 2770
1 2771
1 2772
1 2773
1 2774
1 2775
1 2776
1 2777
1 2778
1 2779
1 2780
1 2781
1 2782
1 2783
1 2784
1 2785
1 2786
1 2787
1 2788
1 2789
1 2790
1 2791
1 2792
1 2793
1 2794
1 2795
1 2796
1 2797
1 2798
1 2799
1 2800
1 2801
1 2802
1 2803
1 2804
1 2805
1 2806
1 2807
1 2808
1 2809
1 2810
1 2811
1 2812
1 2813
1 2814
1 2815
1 2816
1 2817
1 2818
1 2819
1 2820
1 2821
1 2822
1 2823
1 2824
1 2825
1 2826
1 2827
1 2828
1 2829
1 2830
1 2831
1 2832
1 2833
1 2834
1 2835
1 2836
1 2837
1 2838
1 2839
1 2840
1 2841
1 2842
1 2843
1 2844
1 2845
1 2846
1 2847
1 2848
1 2849
1 2850
1 2851
1 2852
1 2853
1 2854
1 2855
1 2856
1 2857
1 2858
1 2859
1 2860
1 2861
1 2862
1 2863
1 2864
1 2865
1 2866
1 2867
1 2868
1 2869
1 2870
1 2871
1 2872
1 2873
1 2874
1 2875
1 2876
1 2877
1 2878
1 2879
1 2880
1 2881
1 2882
1 2883
1 2884
1 2885
1 2886
1 2887
1 2888
1 2889
1 2890
1 2891
1 2892
1 2893
1 2894
1 2895
1 2896
1 2897
1 2898
1 2899
1 2900
1 2901
1 2902
1 2903
1 2904
1 2905
1 2906
1 2907
1 2908
1 2909
1 2910
1 2911
1 2912
1 2913
1 2914
1 2915
1 2916
1 2917
1 2918
1 2919
1 2920
1 2921
1 2922
1 2923
1 2924
1 2925
1 2926
1 2927
1 2928
1 2929
1 2930
1 2931
1 2932
1 2933
1 2934
1 2935
1 2936
1 2937
1 2938
1 2939
1 2940
1 2941
1 2942
1 2943
1 2944
1 2945
1 2946
1 2947
1 2948
1 2949
1 2950
1 2951
1 2952
1 2953
1 2954
1 2955
1 2956
1 2957
1 2958
1 2959
1 2960
1 2961
1 2962
1 2963
1 2964
1 2965
1 2966
1 2967
1 2968
1 2969
1 2970
1 2971
1 2972
1 2973
1 2974
1 2975
1 2976
1 2977
1 2978
1 2979
1 2980
1 2981
1 2982
1 2983
1 2984
1 2985
1 2986
1 2987
1 2988
1 2989
1 2990
1 2991
1 2992
1 2993
1 2994
1 2995
1 2996
1 2997
1 2998
1 2999
1 3000
1 3001
1 3002
1 3003
1 3004
1 3005
1 3006
1 3007
1 3008
1 3009
1 3010
1 3011
1 3012
1 3013
1 3014
1 3015
1 3016
1 3017
1 3018
1 3019
1 3020
1 3021
1 3022
1 3023
1 3024
1 3025
1 3026
1 3027
1 3028
1 3029
1 3030
1 3031
1 3032
1 3033
1 3034
1 3035
1 3036
1 3037
1 3038
1 3039
1 3040
1 3041
1 3042
1 3043
1 3044
1 3045
1 3046
1 3047
1 3048
1 3049
1 3050
1 3051
1 3052
1 3053
1 3054
1 3055
1 3056
1 3057
1 3058
1 3059
1 3060
1 3061
1 3062
1 3063
1 3064
1 3065
1 3066
1 3067
1 3068
1 3069
1 3070
1 3071
1 3072
1 3073
1 3074
1 3075
1 3076
1 3077
1 3078
1 3079
1 3080
1 3081
1 3082
1 3083
1 3084
1 3085
1 3086
1 3087
1 3088
1 3089
1 3090
1 3091
1 3092
1 3093
1 3094
1 3095
1 3096
1 3097
1 3098
1 3099
1 3100
1 3101
1 3102
1 3103
1 3104
1 3105
1 3106
1 3107
1 3108
1 3109
1 3110
1 3111
1 3112
1 3113
1 3114
1 3115
1 3116
1 3117
1 3118
1 3119
1 3120
1 3121
1 3122
1 3123
1 3124
1 3125
1 3126
1 3127
1 3128
1 3129
1 3130
1 3131
1 3132
1 3133
1 3134
1 3135
1 3136
1 3137
1 3138
1 3139
1 3140
1 3141
1 3142
1 3143
1 3144
1 3145
1 3146
1 3147
1 3148
1 3149
1 3150
1 3151
1 3152
1 3153
1 3154
1 3155
1 3156
1 3157
1 3158
1 3159
1 3160
1 3161
1 3162
1 3163
1 3164
1 3165
1 3166
1 3167
1 3168
1 3169
1 3170
1 3171
1 3172
1 3173
1 3174
1 3175
1 3176
1 3177
1 3178
1 3179
1 3180
1 3181
1 3182
1 3183
1 3184
1 3185
1 3186
1 3187
1 3188
1 3189
1 3190
1 3191
1 3192
1 3193
1 3194
1 3195
1 3196
1 3197
1 3198
1 3199
1 3200
1 3201
1 3202
1 3203
1 3204
1 3205
1 3206
1 3207
1 3208
1 3209
1 3210
1 3211
1 3212
1 3213
1 3214
1 3215
1 3216
1 3217
1 3218
1 3219
1 3220
1 3221
1 3222
1 3223
1 3224
1 3225
1 3226
1 3227
1 3228
1 3229
1 3230
1 3231
1 3232
1 3233
1 3234
1 3235
1 3236
1 3237
1 3238
1 3239
1 3240
1 3241
1 3242
1 3243
1 3244
1 3245
1 3246
1 3247
1 3248
1 3249
1 3250
1 3251
1 3252
1 3253
1 3254
1 3255
1 3256
1 3257
1 3258
1 3259
1 3260
1 3261
1 3262
1 3263
1 3264
1 3265
1 3266
1 3267
1 3268
1 3269
1 3270
1 3271
1 3272
1 3273
1 3274
1 3275
1 3276
1 3277
1 3278
1 3279
1 3280
1 3281
1 3282
1 3283
1 3284
1 3285
1 3286
1 3287
1 3288
1 3289
1 3290
1 3291
1 3292
1 3293
1 3294
1 3295
1 3296
1 3297
1 3298
1 3299
1 3300
1 3301
1 3302
1 3303
1 3304
1 3305
1 3306
1 3307
1 3308
1 3309
1 3310
1 3311
1 3312
1 3313
1 3314
1 3315
1 3316
1 3317
1 3318
1 3319
1 3320
1 3321
1 3322
1 3323
1 3324
1 3325
1 3326
1 3327
1 3328
1 3329
1 3330
1 3331
1 3332
1 3333
1 3334
1 3335
1 3336
1 3337
1 3338
1 3339
1 3340
1 3341
1 3342
1 3343
1 3344
1 3345
1 3346
1 3347
1 3348
1 3349
1 3350
1 3351
1 3352
1 3353
1 3354
1 3355
1 3356
1 3357
1 3358
1 3359
1 3360
1 3361
1 3362
1 3363
1 3364
1 3365
1 3366
1 3367
1 3368
1 3369
1 3370
1 3371
1 3372
1 3373
1 3374
1 3375
1 3376
1 3377
1 3378
1 3379
1 3380
1 3381
1 3382
1 3383
1 3384
1 3385
1 3386
1 3387
1 3388
1 3389
1 3390
1 3391
1 3392
1 3393
1 3394
1 3395
1 3396
1 3397
1 3398
1 3399
1 3400
1 3401
1 3402
1 3403
1 3404
1 3405
1 3406
1 3407
1 3408
1 3409
1 3410
1 3411
1 3412
1 3413
1 3414
1 3415
1 3416
1 3417
1 3418
1 3419
1 3420
1 3421
1 3422
1 3423
1 3424
1 3425
1 3426
1 3427
1 3428
1 3429
1 3430
1 3431
1 3432
1 3433
1 3434
1 3435
1 3436
1 3437
1 3438
1 3439
1 3440
1 3441
1 3442
1 3443
1 3444
1 3445
1 3446
1 3447
1 3448
1 3449
1 3450
1 3451
1 3452
1 3453
1 3454
1 3455
1 3456
1 3457
1 3458
1 3459
1 3460
1 3461
1 3462
1 3463
1 3464
1 3465
1 3466
1 3467
1 3468
1 3469
1 3470
1 3471
1 3472
1 3473
1 3474
1 3475
1 3476
1 3477
1 3478
1 3479
1 3480
1 3481
1 3482
1 3483
1 3484
1 3485
1 3486
1 3487
1 3488
1 3489
1 3490
1 3491
1 3492
1 3493
1 3494
1 3495
1 3496
1 3497
1 3498
1 3499
1 3500
1 3501
1 3502
1 3503
1 3504
1 3505
1 3506
1 3507
1 3508
1 3509
1 3510
1 3511
1 3512
1 3513
1 3514
1 3515
1 3516
1 3517
1 3518
1 3519
1 3520
1 3521
1 3522
1 3523
1 3524
1 3525
1 3526
1 3527
1 3528
1 3529
1 3530
1 3531
1 3532
1 3533
1 3534
1 3535
1 3536
1 3537
1 3538
1 3539
1 3540
1 3541
1 3542
1 3543
1 3544
1 3545
1 3546
1 3547
1 3548
1 3549
1 3550
1 3551
1 3552
1 3553
1 3554
1 3555
1 3556
1 3557
1 3558
1 3559
1 3560
1 3561
1 3562
1 3563
1 3564
1 3565
1 3566
1 3567
1 3568
1 3569
1 3570
1 3571
1 3572
1 3573
1 3574
1 3575
1 3576
1 3577
1 3578
1 3579
1 3580
1 3581
1 3582
1 3583
1 3584
1 3585
1 3586
1 3587
1 3588
1 3589
1 3590
1 3591
1 3592
1 3593
1 3594
1 3595
1 3596
1 3597
1 3598
1 3599
1 3600
1 3601
1 3602
1 3603
1 3604
1 3605
1 3606
1 3607
1 3608
1 3609
1 3610
1 3611
1 3612
1 3613
1 3614
1 3615
1 3616
1 3617
1 3618
1 3619
1 3620
1 3621
1 3622
1 3623
1 3624
1 3625
1 3626
1 3627
1 3628
1 3629
1 3630
1 3631
1 3632
1 3633
1 3634
1 3635
1 3636
1 3637
1 3638
1 3639
1 3640
1 3641
1 3642
1 3643
1 3644
1 3645
1 3646
1 3647
1 3648
1 3649
1 3650
1 3651
1 3652
1 3653
1 3654
1 3655
1 3656
1 3657
1 3658
1 3659
1 3660
1 3661
1 3662
1 3663
1 3664
1 3665
1 3666
1 3667
1 3668
1 3669
1 3670
1 3671
1 3672
1 3673
1 3674
1 3675
1 3676
1 3677
1 3678
1 3679
1 3680
1 3681
1 3682
1 3683
1 3684
1 3685
1 3686
1 3687
1 3688
1 3689
1 3690
1 3691
1 3692
1 3693
1 3694
1 3695
1 3696
1 3697
1 3698
1 3699
1 3700
1 3701
1 3702
1 3703
1 3704
1 3705
1 3706
1 3707
1 3708
1 3709
1 3710
1 3711
1 3712
1 3713
1 3714
1 3715
1 3716
1 3717
1 3718
1 3719
1 3720
1 3721
1 3722
1 3723
1 3724
1 3725
1 3726
1 3727
1 3728
1 3729
1 3730
1 3731
1 3732
1 3733
1 3734
1 3735
1 3736
1 3737
1 3738
1 3739
1 3740
1 3741
1 3742
1 3743
1 3744
1 3745
1 3746
1 3747
1 3748
1 3749
1 3750
1 3751
1 3752
1 3753
1 3754
1 3755
1 3756
1 3757
1 3758
1 3759
1 3760
1 3761
1 3762
1 3763
1 3764
1 3765
1 3766
1 3767
1 3768
1 3769
1 3770
1 3771
1 3772
1 3773
1 3774
1 3775
1 3776
1 3777
1 3778
1 3779
1 3780
1 3781
1 3782
1 3783
1 3784
1 3785
1 3786
1 3787
1 3788
1 3789
1 3790
1 3791
1 3792
1 3793
1 3794
1 3795
1 3796
1 3797
1 3798
1 3799
1 3800
1 3801
1 3802
1 3803
1 3804
1 3805
1 3806
1 3807
1 3808
1 3809
1 3810
1 3811
1 3812
1 3813
1 3814
1 3815
1 3816
1 3817
1 3818
1 3819
1 3820
1 3821
1 3822
1 3823
1 3824
1 3825
1 3826
1 3827
1 3828
1 3829
1 3830
1 3831
1 3832
1 3833
1 3834
1 3835
1 3836
1 3837
1 3838
1 3839
1 3840
1 3841
1 3842
1 3843
1 3844
1 3845
1 3846
1 3847
1 3848
1 3849
1 3850
1 3851
1 3852
1 3853
1 3854
1 3855
1 3856
1 3857
1 3858
1 3859
1 3860
1 3861
1 3862
1 3863
1 3864
1 3865
1 3866
1 3867
1 3868
1 3869
1 3870
1 3871
1 3872
1 3873
1 3874
1 3875
1 3876
1 3877
1 3878
1 3879
1 3880
1 3881
1 3882
1 3883
1 3884
1 3885
1 3886
1 3887
1 3888
1 3889
1 3890
1 3891
1 3892
1 3893
1 3894
1 3895
1 3896
1 3897
1 3898
1 3899
1 3900
1 3901
1 3902
1 3903
1 3904
1 3905
1 3906
1 3907
1 3908
1 3909
1 3910
1 3911
1 3912
1 3913
1 3914
1 3915
1 3916
1 3917
1 3918
1 3919
1 3920
1 3921
1 3922
1 3923
1 3924
1 3925
1 3926
1 3927
1 3928
1 3929
1 3930
1 3931
1 3932
1 3933
1 3934
1 3935
1 3936
1 3937
1 3938
1 3939
1 3940
1 3941
1 3942
1 3943
1 3944
1 3945
1 3946
1 3947
1 3948
1 3949
1 3950
1 3951
1 3952
1 3953
1 3954
1 3955
1 3956
1 3957
1 3958
1 3959
1 3960
1 3961
1 3962
1 3963
1 3964
1 3965
1 3966
1 3967
1 3968
1 3969
1 3970
1 3971
1 3972
1 3973
1 3974
1 3975
1 3976
1 3977
1 3978
1 3979
1 3980
1 3981
1 3982
1 3983
1 3984
1 3985
1 3986
1 3987
1 3988
1 3989
1 3990
1 3991
1 3992
1 3993
1 3994
1 3995
1 3996
1 3997
1 3998
1 3999
1 4000
1 4001
1 4002
1 4003
1 4004
1 4005
1 4006
1 4007
1 4008
1 4009
1 4010
1 4011
1 4012
1 4013
1 4014
1 4015
1 4016
1 4017
1 4018
1 4019
1 4020
1 4021
1 4022
1 4023
1 4024
1 4025
1 4026
1 4027
1 4028
1 4029
1 4030
1 4031
1 4032
1 4033
1 4034
1 4035
1 4036
1 4037
1 4038
1 4039
1 4040
1 4041
1 4042
1 4043
1 4044
1 4045
1 4046
1 4047
1 4048
1 4049
1 4050
1 4051
1 4052
1 4053
1 4054
1 4055
1 4056
1 4057
1 4058
1 4059
1 4060
1 4061
1 4062
1 4063
1 4064
1 4065
1 4066
1 4067
1 4068
1 4069
1 4070
1 4071
1 4072
1 4073
1 4074
1 4075
1 4076
1 4077
1 4078
1 4079
1 4080
1 4081
1 4082
1 4083
1 4084
1 4085
1 4086
1 4087
1 4088
1 4089
1 4090
1 4091
1 4092
1 4093
1 4094
1 4095
1 4096
1 4097
1 4098
1 4099
1 4100
1 4101
1 4102
1 4103
1 4104
1 4105
1 4106
1 4107
1 4108
1 4109
1 4110
1 4111
1 4112
1 4113
1 4114
1 4115
1 4116
1 4117
1 4118
1 4119
1 4120
1 4121
1 4122
1 4123
1 4124
1 4125
1 4126
1 4127
1 4128
1 4129
1 4130
1 4131
1 4132
1 4133
1 4134
1 4135
1 4136
1 4137
1 4138
1 4139
1 4140
1 4141
1 4142
1 4143
1 4144
1 4145
1 4146
1 4147
1 4148
1 4149
1 4150
1 4151
1 4152
1 4153
1 4154
1 4155
1 4156
1 4157
1 4158
1 4159
1 4160
1 4161
1 4162
1 4163
1 4164
1 4165
1 4166
1 4167
1 4168
1 4169
1 4170
1 4171
1 4172
1 4173
1 4174
1 4175
1 4176
1 4177
1 4178
1 4179
1 4180
1 4181
1 4182
1 4183
1 4184
1 4185
1 4186
1 4187
1 4188
1 4189
1 4190
1 4191
1 4192
1 4193
1 4194
1 4195
1 4196
1 4197
1 4198
1 4199
1 4200
1 4201
1 4202
1 4203
1 4204
1 4205
1 4206
1 4207
1 4208
1 4209
1 4210
1 4211
1 4212
1 4213
1 4214
1 4215
1 4216
1 4217
1 4218
1 4219
1 4220
1 4221
1 4222
1 4223
1 4224
1 4225
1 4226
1 4227
1 4228
1 4229
1 4230
1 4231
1 4232
1 4233
1 4234
1 4235
1 4236
1 4237
1 4238
1 4239
1 4240
1 4241
1 4242
1 4243
1 4244
1 4245
1 4246
1 4247
1 4248
1 4249
1 4250
1 4251
1 4252
1 4253
1 4254
1 4255
1 4256
1 4257
1 4258
1 4259
1 4260
1 4261
1 4262
1 4263
1 4264
1 4265
1 4266
1 4267
1 4268
1 4269
1 4270
1 4271
1 4272
1 4273
1 4274
1 4275
1 4276
1 4277
1 4278
1 4279
1 4280
1 4281
1 4282
1 4283
1 4284
1 4285
1 4286
1 4287
1 4288
1 4289
1 4290
1 4291
1 4292
1 4293
1 4294
1 4295
1 4296
1 4297
1 4298
1 4299
1 4300
1 4301
1 4302
1 4303
1 4304
1 4305
1 4306
1 4307
1 4308
1 4309
1 4310
1 4311
1 4312
1 4313
1 4314
1 4315
1 4316
1 4317
1 4318
1 4319
1 4320
1 4321
1 4322
1 4323
1 4324
1 4325
1 4326
1 4327
1 4328
1 4329
1 4330
1 4331
1 4332
1 4333
1 4334
1 4335
1 4336
1 4337
1 4338
1 4339
1 4340
1 4341
1 4342
1 4343
1 4344
1 4345
1 4346
1 4347
1 4348
1 4349
1 4350
1 4351
1 4352
1 4353
1 4354
1 4355
1 4356
1 4357
1 4358
1 4359
1 4360
1 4361
1 4362
1 4363
1 4364
1 4365
1 4366
1 4367
1 4368
1 4369
1 4370
1 4371
1 4372
1 4373
1 4374
1 4375
1 4376
1 4377
1 4378
1 4379
1 4380
1 4381
1 4382
1 4383
1 4384
1 4385
1 4386
1 4387
1 4388
1 4389
1 4390
1 4391
1 4392
1 4393
1 4394
1 4395
1 4396
1 4397
1 4398
1 4399
1 4400
1 4401
1 4402
1 4403
1 4404
1 4405
1 4406
1 4407
1 4408
1 4409
1 4410
1 4411
1 4412
1 4413
1 4414
1 4415
1 4416
1 4417
1 4418
1 4419
1 4420
1 4421
1 4422
1 4423
1 4424
1 4425
1 4426
1 4427
1 4428
1 4429
1 4430
1 4431
1 4432
1 4433
1 4434
1 4435
1 4436
1 4437
1 4438
1 4439
1 4440
1 4441
1 4442
1 4443
1 4444
1 4445
1 4446
1 4447
1 4448
1 4449
1 4450
1 4451
1 4452
1 4453
1 4454
1 4455
1 4456
1 4457
1 4458
1 4459
1 4460
1 4461
1 4462
1 4463
1 4464
1 4465
1 4466
1 4467
1 4468
1 4469
1 4470
1 4471
1 4472
1 4473
1 4474
1 4475
1 4476
1 4477
1 4478
1 4479
1 4480
1 4481
1 4482
1 4483
1 4484
1 4485
1 4486
1 4487
1 4488
1 4489
1 4490
1 4491
1 4492
1 4493
1 4494
1 4495
1 4496
1 4497
1 4498
1 4499
1 4500
1 4501
1 4502
1 4503
1 4504
1 4505
1 4506
1 4507
1 4508
1 4509
1 4510
1 4511
1 4512
1 4513
1 4514
1 4515
1 4516
1 4517
1 4518
1 4519
1 4520
1 4521
1 4522
1 4523
1 4524
1 4525
1 4526
1 4527
1 4528
1 4529
1 4530
1 4531
1 4532
1 4533
1 4534
1 4535
1 4536
1 4537
1 4538
1 4539
1 4540
1 4541
1 4542
1 4543
1 4544
1 4545
1 4546
1 4547
1 4548
1 4549
1 4550
1 4551
1 4552
1 4553
1 4554
1 4555
1 4556
1 4557
1 4558
1 4559
1 4560
1 4561
1 4562
1 4563
1 4564
1 4565
1 4566
1 4567
1 4568
1 4569
1 4570
1 4571
1 4572
1 4573
1 4574
1 4575
1 4576
1 4577
1 4578
1 4579
1 4580
1 4581
1 4582
1 4583
1 4584
1 4585
1 4586
1 4587
1 4588
1 4589
1 4590
1 4591
1 4592
1 4593
1 4594
1 4595
1 4596
1 4597
1 4598
1 4599
1 4600
1 4601
1 4602
1 4603
1 4604
1 4605
1 4606
1 4607
1 4608
1 4609
1 4610
1 4611
1 4612
1 4613
1 4614
1 4615
1 4616
1 4617
1 4618
1 4619
1 4620
1 4621
1 4622
1 4623
1 4624
1 4625
1 4626
1 4627
1 4628
1 4629
1 4630
1 4631
1 4632
1 4633
1 4634
1 4635
1 4636
1 4637
1 4638
1 4639
1 4640
1 4641
1 4642
1 4643
1 4644
1 4645
1 4646
1 4647
1 4648
1 4649
1 4650
1 4651
1 4652
1 4653
1 4654
1 4655
1 4656
1 4657
1 4658
1 4659
1 4660
1 4661
1 4662
1 4663
1 4664
1 4665
1 4666
1 4667
1 4668
1 4669
1 4670
1 4671
1 4672
1 4673
1 4674
1 4675
1 4676
1 4677
1 4678
1 4679
1 4680
1 4681
1 4682
1 4683
1 4684
1 4685
1 4686
1 4687
1 4688
1 4689
1 4690
1 4691
1 4692
1 4693
1 4694
1 4695
1 4696
1 4697
1 4698
1 4699
1 4700
1 4701
1 4702
1 4703
1 4704
1 4705
1 4706
1 4707
1 4708
1 4709
1 4710
1 4711
1 4712
1 4713
1 4714
1 4715
1 4716
1 4717
1 4718
1 4719
1 4720
1 4721
1 4722
1 4723
1 4724
1 4725
1 4726
1 4727
1 4728
1 4729
1 4730
1 4731
1 4732
1 4733
1 4734
1 4735
1 4736
1 4737
1 4738
1 4739
1 4740
1 4741
1 4742
1 4743
1 4744
1 4745
1 4746
1 4747
1 4748
1 4749
1 4750
1 4751
1 4752
1 4753
1 4754
1 4755
1 4756
1 4757
1 4758
1 4759
1 4760
1 4761
1 4762
1 4763
1 4764
1 4765
1 4766
1 4767
1 4768
1 4769
1 4770
1 4771
1 4772
1 4773
1 4774
1 4775
1 4776
1 4777
1 4778
1 4779
1 4780
1 4781
1 4782
1 4783
1 4784
1 4785
1 4786
1 4787
1 4788
1 4789
1 4790
1 4791
1 4792
1 4793
1 4794
1 4795
1 4796
1 4797
1 4798
1 4799
1 4800
1 4801
1 4802
1 4803
1 4804
1 4805
1 4806
1 4807
1 4808
1 4809
1 4810
1 4811
1 4812
1 4813
1 4814
1 4815
1 4816
1 4817
1 4818
1 4819
1 4820
1 4821
1 4822
1 4823
1 4824
1 4825
1 4826
1 4827
1 4828
1 4829
1 4830
1 4831
1 4832
1 4833
1 4834
1 4835
1 4836
1 4837
1 4838
1 4839
1 4840
1 4841
1 4842
1 4843
1 4844
1 4845
1 4846
1 4847
1 4848
1 4849
1 4850
1 4851
1 4852
1 4853
1 4854
1 4855
1 4856
1 4857
1 4858
1 4859
1 4860
1 4861
1 4862
1 4863
1 4864
1 4865
1 4866
1 4867
1 4868
1 4869
1 4870
1 4871
1 4872
1 4873
1 4874
1 4875
1 4876
1 4877
1 4878
1 4879
1 4880
1 4881
1 4882
1 4883
1 4884
1 4885
1 4886
1 4887
1 4888
1 4889
1 4890
1 4891
1 4892
1 4893
1 4894
1 4895
1 4896
1 4897
1 4898
1 4899
1 4900
1 4901
1 4902
1 4903
1 4904
1 4905
1 4906
1 4907
1 4908
1 4909
1 4910
1 4911
1 4912
1 4913
1 4914
1 4915
1 4916
1 4917
1 4918
1 4919
1 4920
1 4921
1 4922
1 4923
1 4924
1 4925
1 4926
1 4927
1 4928
1 4929
1 4930
1 4931
1 4932
1 4933
1 4934
1 4935
1 4936
1 4937
1 4938
1 4939
1 4940
1 4941
1 4942
1 4943
1 4944
1 4945
1 4946
1 4947
1 4948
1 4949
1 4950
1 4951
1 4952
1 4953
1 4954
1 4955
1 4956
1 4957
1 4958
1 4959
1 4960
1 4961
1 4962
1 4963
1 4964
1 4965
1 4966
1 4967
1 4968
1 4969
1 4970
1 4971
1 4972
1 4973
1 4974
1 4975
1 4976
1 4977
1 4978
1 4979
1 4980
1 4981
1 4982
1 4983
1 4984
1 4985
1 4986
1 4987
1 4988
1 4989
1 4990
1 4991
1 4992
1 4993
1 4994
1 4995
1 4996
1 4997
1 4998
1 4999
CELL_TYPES 5000
1 
1 
1 
1 
1 
1 
1 
1 
1 
1 
1 
1 
1 
1 
1 
1 
1 
1 
1 
1 
1 
1 
1 
1 
1 
1 
1 
1 
1 
1 
1 
1 
1 
1 
1 
1 
1 
1 
1 
1 
1 
1 
1 
1 
1 
1 
1 
1 
1 
1 
1 
1 
1 
1 
1 
1 
1 
1 
1 
1 
1 
1 
1 
1 
1 
1 
1 
1 
1 
1 
1 
1 
1 
1 
1 
1 
1 
1 
1 
1 
1 
1 
1 
1 
1 
1 
1 
1 
1 
1 
1 
1 
1 
1 
1 
1 
1 
1 
1 
1 
1 
1 
1 
1 
1 
1 
1 
1 
1 
1 
1 
1 
1 
1 
1 
1 
1 
1 
1 
1 
1 
1 
1 
1 
1 
1 
1 
1 
1 
1 
1 
1 
1 
1 
1 
1 
1 
1 
1 
1 
1 
1 
1 
1 
1 
1 
1 
1 
1 
1 
1 
1 
1 
1 
1 
1 
1 
1 
1 
1 
1 
1 
1 
1 
1 
1 
1 
1 
1 
1 
1 
1 
1 
1 
1 
1 
1 
1 
1 
1 
1 
1 
1 
1 
1 
1 
1 
1 
1 
1 
1 
1 
1 
1 
1 
1 
1 
1 
1 
1 
1 
1 
1 
1 
1 
1 
1 
1 
1 
1 
1 
1 
1 
1 
1 
1 
1 
1 
1 
1 
1 
1 
1 
1 
1 
1 
1 
1 
1 
1 
1 
1 
1 
1 
1 
1 
1 
1 
1 
1 
1 
1 
1 
1 
1 
1 
1 
1 
1 
1 
1 
1 
1 
1 
1 
1 
1 
1 
1 
1 
1 
1 
1 
1 
1 
1 
1 
1 
1 
1 
1 
1 
1 
1 
1 
1 
1 
1 
1 
1 
1 
1 
1 
1 
1 
1 
1 
1 
1 
1 
1 
1 
1 
1 
1 
1 
1 
1 
1 
1 
1 
1 
1 
1 
1 
1 
1 
1 
1 
1 
1 
1 
1 
1 
1 
1 
1 
1 
1 
1 
1 
1 
1 
1 
1 
1 
1 
1 
1 
1 
1 
1 
1 
1 
1 
1 
1 
1 
1 
1 
1 
1 
1 
1 
1 
1 
1 
1 
1 
1 
1 
1 
1 
1 
1 
1 
1 
1 
1 
1 
1 
1 
1 
1 
1 
1 
1 
1 
1 
1 
1 
1 
1 
1 
1 
1 
1 
1 
1 
1 
1 
1 
1 
1 
1 
1 
1 
1 
1 
1 
1 
1 
1 
1 
1 
1 
1 
1 
1 
1 
1 
1 
1 
1 
1 
1 
1 
1 
1 
1 
1 
1 
1 
1 
1 
1 
1 
1 
1 
1 
1 
1 
1 
1 
1 
1 
1 
1 
1 
1 
1 
1 
1 
1 
1 
1 
1 
1 
1 
1 
1 
1 
1 
1 
1 
1 
1 
1 
1 
1 
1 
1 
1 
1 
1 
1 
1 
1 
1 
1 
1 
1 
1 
1 
1 
1 
1 
1 
1 
1 
1 
1 
1 
1 
1 
1 
1 
1 
1 
1 
1 
1 
1 
1 
1 
1 
1 
1 
1 
1 
1 
1 
1 
1 
1 
1 
1 
1 
1 
1 
1 
1 
1 
1 
1 
1 
1 
1 
1 
1 
1 
1 
1 
1 
1 
1 
1 
1 
1 
1 
1 
1 
1 
1 
1 
1 
1 
1 
1 
1 
1 
1 
1 
1 
1 
1 
1 
1 
1 
1 
1 
1 
1 
1 
1 
1 
1 
1 
1 
1 
1 
1 
1 
1 
1 
1 
1 
1 
1 
1 
1 
1 
1 
1 
1 
1 
1 
1 
1 
1 
1 
1 
1 
1 
1 
1 
1 
1 
1 
1 
1 
1 
1 
1 
1 
1 
1 
1 
1 
1 
1 
1 
1 
1 
1 
1 
1 
1 
1 
1 
1 
1 
1 
1 
1 
1 
1 
1 
1 
1 
1 
1 
1 
1 
1 
1 
1 
1 
1 
1 
1 
1 
1 
1 
1 
1 
1 
1 
1 
1 
1 
1 
1 
1 
1 
1 
1 
1 
1 
1 
1 
1 
1 
1 
1 
1 
1 
1 
1 
1 
1 
1 
1 
1 
1 
1 
1 
1 
1 
1 
1 
1 
1 
1 
1 
1 
1 
1 
1 
1 
1 
1 
1 
1 
1 
1 
1 
1 
1 
1 
1 
1 
1 
1 
1 
1 
1 
1 
1 
1 
1 
1 
1 
1 
1 
1 
1 
1 
1 
1 
1 
1 
1 
1 
1 
1 
1 
1 
1 
1 
1 
1 
1 
1 
1 
1 
1 
1 
1 
1 
1 
1 
1 
1 
1 
1 
1 
1 
1 
1 
1 
1 
1 
1 
1 
1 
1 
1 
1 
1 
1 
1 
1 
1 
1 
1 
1 
1 
1 
1 
1 
1 
1 
1 
1 
1 
1 
1 
1 
1 
1 
1 
1 
1 
1 
1 
1 
1 
1 
1 
1 
1 
1 
1 
1 
1 
1 
1 
1 
1 
1 
1 
1 
1 
1 
1 
1 
1 
1 
1 
1 
1 
1 
1 
1 
1 
1 
1 
1 
1 
1 
1 
1 
1 
1 
1 
1 
1 
1 
1 
1 
1 
1 
1 
1 
1 
1 
1 
1 
1 
1 
1 
1 
1 
1 
1 
1 
1 
1 
1 
1 
1 
1 
1 
1 
1 
1 
1 
1 
1 
1 
1 
1 
1 
1 
1 
1 
1 
1 
1 
1 
1 
1 
1 
1 
1 
1 
1 
1 
1 
1 
1 
1 
1 
1 
1 
1 
1 
1 
1 
1 
1 
1 
1 
1 
1 
1 
1 
1 
1 
1 
1 
1 
1 
1 
1 
1 
1 
1 
1 
1 
1 
1 
1 
1 
1 
1 
1 
1 
1 
1 
1 
1 
1 
1 
1 
1 
1 
1 
1 
1 
1 
1 
1 
1 
1 
1 
1 
1 
1 
1 
1 
1 
1 
1 
1 
1 
1 
1 
1 
1 
1 
1 
1 
1 
1 
1 
1 
1 
1 
1 
1 
1 
1 
1 
1 
1 
1 
1 
1 
1 
1 
1 
1 
1 
1 
1 
1 
1 
1 
1 
1 
1 
1 
1 
1 
1 
1 
1 
1 
1 
1 
1 
1 
1 
1 
1 
1 
1 
1 
1 
1 
1 
1 
1 
1 
1 
1 
1 
1 
1 
1 
1 
1 
1 
1 
1 
1 
1 
1 
1 
1 
1 
1 
1 
1 
1 
1 
1 
1 
1 
1 
1 
1 
1 
1 
1 
1 
1 
1 
1 
1 
1 
1 
1 
1 
1 
1 
1 
1 
1 
1 
1 
1 
1 
1 
1 
1 
1 
1 
1 
1 
1 
1 
1 
1 
1 
1 
1 
1 
1 
1 
1 
1 
1 
1 
1 
1 
1 
1 
1 
1 
1 
1 
1 
1 
1 
1 
1 
1 
1 
1 
1 
1 
1 
1 
1 
1 
1 
1 
1 
1 
1 
1 
1 
1 
1 
1 
1 
1 
1 
1 
1 
1 
1 
1 
1 
1 
1 
1 
1 
1 
1 
1 
1 
1 
1 
1 
1 
1 
1 
1 
1 
1 
1 
1 
1 
1 
1 
1 
1 
1 
1 
1 
1 
1 
1 
1 
1 
1 
1 
1 
1 
1 
1 
1 
1 
1 
1 
1 
1 
1 
1 
1 
1 
1 
1 
1 
1 
1 
1 
1 
1 
1 
1 
1 
1 
1 
1 
1 
1 
1 
1 
1 
1 
1 
1 
1 
1 
1 
1 
1 
1 
1 
1 
1 
1 
1 
1 
1 
1 
1 
1 
1 
1 
1 
1 
1 
1 
1 
1 
1 
1 
1 
1 
1 
1 
1 
1 
1 
1 
1 
1 
1 
1 
1 
1 
1 
1 
1 
1 
1 
1 
1 
1 
1 
1 
1 
1 
1 
1 
1 
1 
1 
1 
1 
1 
1 
1 
1 
1 
1 
1 
1 
1 
1 
1 
1 
1 
1 
1 
1 
1 
1 
1 
1 
1 
1 
1 
1 
1 
1 
1 
1 
1 
1 
1 
1 
1 
1 
1 
1 
1 
1 
1 
1 
1 
1 
1 
1 
1 
1 
1 
1 
1 
1 
1 
1 
1 
1 
1 
1 
1 
1 
1 
1 
1 
1 
1 
1 
1 
1 
1 
1 
1 
1 
1 
1 
1 
1 
1 
1 
1 
1 
1 
1 
1 
1 
1 
1 
1 
1 
1 
1 
1 
1 
1 
1 
1 
1 
1 
1 
1 
1 
1 
1 
1 
1 
1 
1 
1 
1 
1 
1 
1 
1 
1 
1 
1 
1 
1 
1 
1 
1 
1 
1 
1 
1 
1 
1 
1 
1 
1 
1 
1 
1 
1 
1 
1 
1 
1 
1 
1 
1 
1 
1 
1 
1 
1 
1 
1 
1 
1 
1 
1 
1 
1 
1 
1 
1 
1 
1 
1 
1 
1 
1 
1 
1 
1 
1 
1 
1 
1 
1 
1 
1 
1 
1 
1 
1 
1 
1 
1 
1 
1 
1 
1 
1 
1 
1 
1 
1 
1 
1 
1 
1 
1 
1 
1 
1 
1 
1 
1 
1 
1 
1 
1 
1 
1 
1 
1 
1 
1 
1 
1 
1 
1 
1 
1 
1 
1 
1 
1 
1 
1 
1 
1 
1 
1 
1 
1 
1 
1 
1 
1 
1 
1 
1 
1 
1 
1 
1 
1 
1 
1 
1 
1 
1 
1 
1 
1 
1 
1 
1 
1 
1 
1 
1 
1 
1 
1 
1 
1 
1 
1 
1 
1 
1 
1 
1 
1 
1 
1 
1 
1 
1 
1 
1 
1 
1 
1 
1 
1 
1 
1 
1 
1 
1 
1 
1 
1 
1 
1 
1 
1 
1 
1 
1 
1 
1 
1 
1 
1 
1 
1 
1 
1 
1 
1 
1 
1 
1 
1 
1 
1 
1 
1 
1 
1 
1 
1 
1 
1 
1 
1 
1 
1 
1 
1 
1 
1 
1 
1 
1 
1 
1 
1 
1 
1 
1 
1 
1 
1 
1 
1 
1 
1 
1 
1 
1 
1 
1 
1 
1 
1 
1 
1 
1 
1 
1 
1 
1 
1 
1 
1 
1 
1 
1 
1 
1 
1 
1 
1 
1 
1 
1 
1 
1 
1 
1 
1 
1 
1 
1 
1 
1 
1 
1 
1 
1 
1 
1 
1 
1 
1 
1 
1 
1 
1 
1 
1 
1 
1 
1 
1 
1 
1 
1 
1 
1 
1 
1 
1 
1 
1 
1 
1 
1 
1 
1 
1 
1 
1 
1 
1 
1 
1 
1 
1 
1 
1 
1 
1 
1 
1 
1 
1 
1 
1 
1 
1 
1 
1 
1 
1 
1 
1 
1 
1 
1 
1 
1 
1 
1 
1 
1 
1 
1 
1 
1 
1 
1 
1 
1 
1 
1 
1 
1 
1 
1 
1 
1 
1 
1 
1 
1 
1 
1 
1 
1 
1 
1 
1 
1 
1 
1 
1 
1 
1 
1 
1 
1 
1 
1 
1 
1 
1 
1 
1 
1 
1 
1 
1 
1 
1 
1 
1 
1 
1 
1 
1 
1 
1 
1 
1 
1 
1 
1 
1 
1 
1 
1 
1 
1 
1 
1 
1 
1 
1 
1 
1 
1 
1 
1 
1 
1 
1 
1 
1 
1 
1 
1 
1 
1 
1 
1 
1 
1 
1 
1 
1 
1 
1 
1 
1 
1 
1 
1 
1 
1 
1 
1 
1 
1 
1 
1 
1 
1 
1 
1 
1 
1 
1 
1 
1 
1 
1 
1 
1 
1 
1 
1 
1 
1 
1 
1 
1 
1 
1 
1 
1 
1 
1 
1 
1 
1 
1 
1 
1 
1 
1 
1 
1 
1 
1 
1 
1 
1 
1 
1 
1 
1 
1 
1 
1 
1 
1 
1 
1 
1 
1 
1 
1 
1 
1 
1 
1 
1 
1 
1 
1 
1 
1 
1 
1 
1 
1 
1 
1 
1 
1 
1 
1 
1 
1 
1 
1 
1 
1 
1 
1 
1 
1 
1 
1 
1 
1 
1 
1 
1 
1 
1 
1 
1 
1 
1 
1 
1 
1 
1 
1 
1 
1 
1 
1 
1 
1 
1 
1 
1 
1 
1 
1 
1 
1 
1 
1 
1 
1 
1 
1 
1 
1 
1 
1 
1 
1 
1 
1 
1 
1 
1 
1 
1 
1 
1 
1 
1 
1 
1 
1 
1 
1 
1 
1 
1 
1 
1 
1 
1 
1 
1 
1 
1 
1 
1 
1 
1 
1 
1 
1 
1 
1 
1 
1 
1 
1 
1 
1 
1 
1 
1 
1 
1 
1 
1 
1 
1 
1 
1 
1 
1 
1 
1 
1 
1 
1 
1 
1 
1 
1 
1 
1 
1 
1 
1 
1 
1 
1 
1 
1 
1 
1 
1 
1 
1 
1 
1 
1 
1 
1 
1 
1 
1 
1 
1 
1 
1 
1 
1 
1 
1 
1 
1 
1 
1 
1 
1 
1 
1 
1 
1 
1 
1 
1 
1 
1 
1 
1 
1 
1 
1 
1 
1 
1 
1 
1 
1 
1 
1 
1 
1 
1 
1 
1 
1 
1 
1 
1 
1 
1 
1 
1 
1 
1 
1 
1 
1 
1 
1 
1 
1 
1 
1 
1 
1 
1 
1 
1 
1 
1 
1 
1 
1 
1 
1 
1 
1 
1 
1 
1 
1 
1 
1 
1 
1 
1 
1 
1 
1 
1 
1 
1 
1 
1 
1 
1 
1 
1 
1 
1 
1 
1 
1 
1 
1 
1 
1 
1 
1 
1 
1 
1 
1 
1 
1 
1 
1 
1 
1 
1 
1 
1 
1 
1 
1 
1 
1 
1 
1 
1 
1 
1 
1 
1 
1 
1 
1 
1 
1 
1 
1 
1 
1 
1 
1 
1 
1 
1 
1 
1 
1 
1 
1 
1 
1 
1 
1 
1 
1 
1 
1 
1 
1 
1 
1 
1 
1 
1 
1 
1 
1 
1 
1 
1 
1 
1 
1 
1 
1 
1 
1 
1 
1 
1 
1 
1 
1 
1 
1 
1 
1 
1 
1 
1 
1 
1 
1 
1 
1 
1 
1 
1 
1 
1 
1 
1 
1 
1 
1 
1 
1 
1 
1 
1 
1 
1 
1 
1 
1 
1 
1 
1 
1 
1 
1 
1 
1 
1 
1 
1 
1 
1 
1 
1 
1 
1 
1 
1 
1 
1 
1 
1 
1 
1 
1 
1 
1 
1 
1 
1 
1 
1 
1 
1 
1 
1 
1 
1 
1 
1 
1 
1 
1 
1 
1 
1 
1 
1 
1 
1 
1 
1 
1 
1 
1 
1 
1 
1 
1 
1 
1 
1 
1 
1 
1 
1 
1 
1 
1 
1 
1 
1 
1 
1 
1 
1 
1 
1 
1 
1 
1 
1 
1 
1 
1 
1 
1 
1 
1 
1 
1 
1 
1 
1 
1 
1 
1 
1 
1 
1 
1 
1 
1 
1 
1 
1 
1 
1 
1 
1 
1 
1 
1 
1 
1 
1 
1 
1 
1 
1 
1 
1 
1 
1 
1 
1 
1 
1 
1 
1 
1 
1 
1 
1 
1 
1 
1 
1 
1 
1 
1 
1 
1 
1 
1 
1 
1 
1 
1 
1 
1 
1 
1 
1 
1 
1 
1 
1 
1 
1 
1 
1 
1 
1 
1 
1 
1 
1 
1 
1 
1 
1 
1 
1 
1 
1 
1 
1 
1 
1 
1 
1 
1 
1 
1 
1 
1 
1 
1 
1 
1 
1 
1 
1 
1 
1 
1 
1 
1 
1 
1 
1 
1 
1 
1 
1 
1 
1 
1 
1 
1 
1 
1 
1 
1 
1 
1 
1 
1 
1 
1 
1 
1 
1 
1 
1 
1 
1 
1 
1 
1 
1 
1 
1 
1 
1 
1 
1 
1 
1 
1 
1 
1 
1 
1 
1 
1 
1 
1 
1 
1 
1 
1 
1 
1 
1 
1 
1 
1 
1 
1 
1 
1 
1 
1 
1 
1 
1 
1 
1 
1 
1 
1 
1 
1 
1 
1 
1 
1 
1 
1 
1 
1 
1 
1 
1 
1 
1 
1 
1 
1 
1 
1 
1 
1 
1 
1 
1 
1 
1 
1 
1 
1 
1 
1 
1 
1 
1 
1 
1 
1 
1 
1 
1 
1 
1 
1 
1 
1 
1 
1 
1 
1 
1 
1 
1 
1 
1 
1 
1 
1 
1 
1 
1 
1 
1 
1 
1 
1 
1 
1 
1 
1 
1 
1 
1 
1 
1 
1 
1 
1 
1 
1 
1 
1 
1 
1 
1 
1 
1 
1 
1 
1 
1 
1 
1 
1 
1 
1 
1 
1 
1 
1 
1 
1 
1 
1 
1 
1 
1 
1 
1 
1 
1 
1 
1 
1 
1 
1 
1 
1 
1 
1 
1 
1 
1 
1 
1 
1 
1 
1 
1 
1 
1 
1 
1 
1 
1 
1 
1 
1 
1 
1 
1 
1 
1 
1 
1 
1 
1 
1 
1 
1 
1 
1 
1 
1 
1 
1 
1 
1 
1 
1 
1 
1 
1 
1 
1 
1 
1 
1 
1 
1 
1 
1 
1 
1 
1 
1 
1 
1 
1 
1 
1 
1 
1 
1 
1 
1 
1 
1 
1 
1 
1 
1 
1 
1 
1 
1 
1 
1 
1 
1 
1 
1 
1 
1 
1 
1 
1 
1 
1 
1 
1 
1 
1 
1 
1 
1 
1 
1 
1 
1 
1 
1 
1 
1 
1 
1 
1 
1 
1 
1 
1 
1 
1 
1 
1 
1 
1 
1 
1 
1 
1 
1 
1 
1 
1 
1 
1 
1 
1 
1 
1 
1 
1 
1 
1 
1 
1 
1 
1 
1 
1 
1 
1 
1 
1 
1 
1 
1 
1 
1 
1 
1 
1 
1 
1 
1 
1 
1 
1 
1 
1 
1 
1 
1 
1 
1 
1 
1 
1 
1 
1 
1 
1 
1 
1 
1 
1 
1 
1 
1 
1 
1 
1 
1 
1 
1 
1 
1 
1 
1 
1 
1 
1 
1 
1 
1 
1 
1 
1 
1 
1 
1 
1 
1 
1 
1 
1 
1 
1 
1 
1 
1 
1 
1 
1 
1 
1 
1 
1 
1 
1 
1 
1 
1 
1 
1 
1 
1 
1 
1 
1 
1 
1 
1 
1 
1 
1 
1 
1 
1 
1 
1 
1 
1 
1 
1 
1 
1 
1 
1 
1 
1 
1 
1 
1 
1 
1 
1 
1 
1 
1 
1 
1 
1 
1 
1 
1 
1 
1 
1 
1 
1 
1 
1 
1 
1 
1 
1 
1 
1 
1 
1 
1 
1 
1 
1 
1 
1 
1 
1 
1 
1 
1 
1 
1 
1 
1 
1 
1 
1 
1 
1 
1 
1 
1 
1 
1 
1 
1 
1 
1 
1 
1 
1 
1 
1 
1 
1 
1 
1 
1 
1 
1 
1 
1 
1 
1 
1 
1 
1 
1 
1 
1 
1 
1 
1 
1 
1 
1 
1 
1 
1 
1 
1 
1 
1 
1 
1 
1 
1 
1 
1 
1 
1 
1 
1 
1 
1 
1 
1 
1 
1 
1 
1 
1 
1 
1 
1 
1 
1 
1 
1 
1 
1 
1 
1 
1 
1 
1 
1 
1 
1 
1 
1 
1 
1 
1 
1 
1 
1 
1 
1 
1 
1 
1 
1 
1 
1 
1 
1 
1 
1 
1 
1 
1 
1 
1 
1 
1 
1 
1 
1 
1 
1 
1 
1 
1 
1 
1 
1 
1 
1 
1 
1 
1 
1 
1 
1 
1 
1 
1 
1 
1 
1 
1 
1 
1 
1 
1 
1 
1 
1 
1 
1 
1 
1 
1 
1 
1 
1 
1 
1 
1 
1 
1 
1 
1 
1 
1 
1 
1 
1 
1 
1 
1 
1 
1 
1 
1 
1 
1 
1 
1 
1 
1 
1 
1 
1 
1 
1 
1 
1 
1 
1 
1 
1 
1 
1 
1 
1 
1 
1 
1 
1 
1 
1 
1 
1 
1 
1 
1 
1 
1 
1 
1 
1 
1 
1 
1 
1 
1 
1 
1 
1 
1 
1 
1 
1 
1 
1 
1 
1 
1 
1 
1 
1 
1 
1 
1 
1 
1 
1 
1 
1 
1 
1 
1 
1 
1 
1 
1 
1 
1 
1 
1 
1 
1 
1 
1 
1 
1 
1 
1 
1 
1 
1 
1 
1 
1 
1 
1 
1 
1 
1 
1 
1 
1 
1 
1 
1 
1 
1 
1 
1 
1 
1 
1 
1 
1 
1 
1 
1 
1 
1 
1 
1 
1 
1 
1 
1 
1 
1 
1 
1 
1 
1 
1 
1 
1 
1 
1 
1 
1 
1 
1 
1 
1 
1 
1 
1 
1 
1 
1 
1 
1 
1 
1 
1 
1 
1 
1 
1 
1 
1 
1 
1 
1 
1 
1 
1 
1 
1 
1 
1 
1 
1 
1 
1 
1 
1 
1 
1 
1 
1 
1 
1 
1 
1 
1 
1 
1 
1 
1 
1 
1 
1 
1 
1 
1 
1 
1 
1 
1 
1 
1 
1 
1 
1 
1 
1 
1 
1 
1 
1 
1 
1 
1 
1 
1 
1 
1 
1 
1 
1 
1 
1 
1 
1 
1 
1 
1 
1 
1 
1 
1 
1 
1 
1 
1 
1 
1 
1 
1 
1 
1 
1 
1 
1 
1 
1 
1 
1 
1 
1 
1 
1 
1 
1 
1 
1 
1 
1 
1 
1 
1 
1 
1 
1 
1 
1 
1 
1 
1 
1 
1 
1 
1 
1 
1 
1 
1 
1 
1 
1 
1 
1 
1 
1 
1 
1 
1 
1 
1 
1 
1 
1 
1 
1 
1 
1 
1 
1 
1 
1 
1 
1 
1 
1 
1 
1 
1 
1 
1 
1 
1 
1 
1 
1 
1 
1 
1 
1 
1 
1 
1 
1 
1 
1 
1 
1 
1 
1 
1 
1 
1 
1 
1 
1 
1 
1 
1 
1 
1 
1 
1 
1 
1 
1 
1 
1 
1 
1 
1 
1 
1 
1 
1 
1 
1 
1 
1 
1 
1 
1 
1 
1 
1 
1 
1 
1 
1 
1 
1 
1 
1 
1 
1 
1 
1 
1 
1 
1 
1 
1 
1 
1 
1 
1 
1 
1 
1 
1 
1 
1 
1 
1 
1 
1 
1 
1 
1 
1 
1 
1 
1 
1 
1 
1 
1 
1 
1 
1 
1 
1 
1 
1 
1 
1 
1 
1 
1 
1 
1 
1 
1 
1 
1 
1 
1 
1 
1 
1 
1 
1 
1 
1 
1 
1 
1 
1 
1 
1 
1 
1 
1 
1 
1 
1 
1 
1 
1 
1 
1 
1 
1 
1 
1 
1 
1 
1 
1 
1 
1 
1 
1 
1 
1 
1 
1 
1 
1 
1 
1 
1 
1 
1 
1 
1 
1 
1 
1 
1 
1 
1 
1 
1 
1 
1 
1 
1 
1 
1 
1 
1 
1 
1 
1 
1 
1 
1 
1 
1 
1 
1 
1 
1 
1 
1 
1 
1 
1 
1 
1 
1 
1 
1 
1 
1 
1 
1 
1 
1 
1 
1 
1 
1 
1 
1 
1 
1 
1 
1 
1 
1 
1 
1 
1 
1 
1 
1 
1 
1 
1 
1 
1 
1 
1 
1 
1 
1 
1 
1 
1 
1 
1 
1 
1 
1 
1 
1 
1 
1 
1 
1 
1 
1 
1 
1 
1 
1 
1 
1 
1 
1 
1 
1 
1 
1 
1 
1 
1 
1 
1 
1 
1 
1 
1 
1 
1 
1 
1 
1 
1 
1 
1 
1 
1 
1 
1 
1 
1 
1 
1 
1 
1 
1 
1 
1 
1 
1 
1 
1 
1 
1 
1 
1 
1 
1 
1 
1 
1 
1 
1 
1 
1 
1 
1 
1 
1 
1 
1 
1 
1 
1 
1 
1 
1 
1 
1 
1 
1 
1 
1 
1 
1 
1 
1 
1 
1 
1 
1 
1 
1 
1 
1 
1 
1 
1 
1 
1 
1 
1 
1 
1 
1 
1 
1 
1 
1 
1 
1 
1 
1 
1 
1 
1 
1 
1 
1 
1 
1 
1 
1 
1 
1 
1 
1 
1 
1 
1 
1 
1 
1 
1 
1 
1 
1 
1 
1 
1 
1 
1 
1 
1 
1 
1 
1 
1 
1 
1 
1 
1 
1 
1 
1 
1 
1 
1 
1 
1 
1 
1 
1 
1 
1 
1 
1 
1 
1 
1 
1 
1 
1 
1 
1 
1 
1 
1 
1 
1 
1 
1 
1 
1 
1 
1 
1 
1 
1 
1 
1 
1 
1 
1 
1 
1 
1 
1 
1 
1 
1 
1 
1 
1 
1 
1 
1 
1 
1 
1 
1 
1 
1 
1 
1 
1 
1 
1 
1 
1 
1 
1 
1 
1 
1 
1 
1 
1 
1 
1 
1 
1 
1 
1 
1 
1 
1 
1 
1 
1 
1 
1 
1 
1 
1 
1 
1 
1 
1 
1 
1 
1 
1 
1 
1 
1 
1 
1 
1 
1 
1 
1 
1 
1 
1 
1 
1 
1 
1 
1 
1 
1 
1 
1 
1 
1 
1 
1 
1 
1 
1 
1 
1 
1 
1 
1 
1 
1 
1 
1 
1 
1 
1 
1 
1 
1 
1 
1 
1 
1 
1 
1 
1 
1 
1 
1 
1 
1 
1 
1 
1 
1 
1 
1 
1 
1 
1 
1 
1 
1 
1 
1 
1 
1 
1 
1 
1 
1 
1 
1 
1 
1 
1 
1 
1 
1 
1 
1 
1 
1 
1 
1 
1 
1 
1 
1 
1 
1 
1 
1 
1 
1 
1 
1 
1 
1 
1 
1 
1 
1 
1 
1 
1 
1 
1 
1 
1 
1 
1 
1 
1 
1 
1 
1 
1 
1 
1 
1 
1 
1 
1 
1 
1 
1 
1 
1 
1 
1 
1 
1 
1 
1 
1 
1 
1 
1 
1 
1 
1 
1 
1 
1 
1 
1 
1 
1 
1 
1 
1 
1 
1 
1 
1 
1 
1 
1 
1 
1 
1 
1 
1 
1 
1 
1 
1 
1 
1 
1 
1 
1 
1 
1 
1 
1 
1 
1 
1 
1 
1 
1 
1 
1 
1 
1 
1 
1 
1 
1 
1 
1 
1 
1 
1 
1 
1 
1 
1 
1 
1 
1 
1 
1 
1 
1 
1 
1 
1 
1 
1 
1 
1 
1 
1 
1 
1 
1 
1 
1 
1 
1 
1 
1 
1 
1 
1 
1 
1 
1 
1 
1 
1 
1 
1 
1 
1 
1 
1 
1 
1 
1 
1 
1 
1 
1 
1 
1 
1 
1 
1 
1 
1 
1 
1 
1 
1 
1 
1 
1 
1 
1 
1 
1 
1 
1 
1 
1 
1 
1 
1 
1 
1 
1 
1 
1 
1 
1 
1 
1 
1 
1 
1 
1 
1 
1 
1 
1 
1 
1 
1 
1 
1 
1 
1 
1 
1 
1 
1 
1 
1 
1 
1 
1 
1 
1 
1 
1 
1 
1 
1 
1 
1 
1 
1 
1 
1 
1 
1 
1 
1 
1 
1 
1 
1 
1 
1 
1 
1 
1 
1 
1 
1 
1 
1 
1 
1 
1 
1 
1 
1 
1 
1 
1 
1 
1 
1 
1 
1 
1 
1 
1 
1 
1 
1 
1 
1 
1 
1 
1 
1 
1 
1 
1 
1 
1 
1 
1 
1 
1 
1 
1 
1 
1 
1 
1 
1 
1 
1 
1 
1 
1 
1 
1 
1 
1 
1 
1 
1 
1 
1 
1 
1 
1 
1 
1 
1 
1 
1 
1 
1 
1 
1 
1 
1 
1 
1 
1 
1 
1 
1 
1 
1 
1 
1 
1 
1 
1 
1 
1 
1 
1 
1 
1 
1 
1 
1 
1 
1 
1 
1 
1 
1 
1 
1 
1 
1 
1 
1 
1 
1 
1 
1 
1 
1 
1 
1 
1 
1 
1 
1 
1 
1 
1 
1 
1 
1 
1 
1 
1 
1 
1 
1 
1 
1 
1 
1 
1 
1 
1 
1 
1 
1 
1 
1 
1 
1 
1 
1 
1 
1 
1 
1 
1 
1 
1 
1 
1 
1 
1 
1 
1 
1 
1 
1 
1 
1 
1 
1 
1 
1 
1 
1 
1 
1 
1 
1 
1 
1 
1 
1 
1 
1 
1 
1 
1 
1 
1 
1 
1 
1 
1 
1 
1 
1 
1 
1 
1 
1 
1 
1 
1 
1 
1 
1 
1 
1 
1 
1 
1 
1 
1 
1 
1 
1 
1 
1 
1 
1 
1 
1 
1 
1 
1 
1 
1 
1 
1 
1 
1 
1 
1 
1 
1 
1 
1 
1 
1 
1 
1 
1 
1 
1 
1 
1 
1 
1 
1 
1 
1 
1 
1 
1 
1 
1 
1 
1 
1 
1 
1 
1 
1 
1 
1 
1 
1 
1 
1 
1 
1 
1 
1 
1 
1 
1 
1 
1 
1 
1 
1 
1 
1 
1 
1 
1 
1 
1 
1 
1 
1 
1 
1 
1 
1 
1 
1 
1 
1 
1 
1 
1 
1 
1 
1 
1 
1 
1 
1 
1 
1 
1 
1 
1 
1 
1 
1 
1 
1 
1 
1 
1 
1 
1 
1 
1 
1 
1 
1 
1 
1 
1 
1 
1 
1 
1 
1 
1 
1 
1 
1 
1 
1 
1 
1 
1 
1 
1 
1 
1 
1 
1 
1 
1 
1 
1 
1 
1 
1 
1 
1 
1 
1 
1 
1 
1 
1 
1 
1 
1 
1 
1 
1 
1 
1 
1 
1 
1 
1 
1 
1 
1 
1 
1 
1 
1 
1 
1 
1 
1 
1 
1 
1 
1 
1 
1 
1 
1 
1 
1 
1 
1 
1 
1 
1 
1 
1 
1 
1 
1 
1 
1 
1 
1 
1 
1 
1 
1 
1 
1 
1 
1 
1 
1 
1 
1 
1 
1 
1 
1 
1 
1 
1 
1 
1 
1 
1 
1 
1 
1 
1 
1 
1 
1 
1 
1 
1 
1 
1 
1 
1 
1 
1 
1 
1 
1 
1 
1 
1 
1 
1 
1 
1 
1 
1 
1 
1 
1 
1 
1 
1 
1 
1 
1 
1 
1 
1 
1 
1 
1 
1 
1 
1 
1 
1 
1 
1 
1 
1 
1 
1 
1 
1 
1 
1 
1 
1 
1 
1 
1 
1 
1 
1 
1 
1 
1 
1 
1 
1 
1 
1 
1 
1 
1 
1 
1 
1 
1 
1 
1 
1 
1 
1 
1 
1 
1 
1 
1 
1 
1 
1 
1 
1 
1 
1 
1 
1 
1 
1 
1 
1 
1 
1 
1 
1 
1 
1 
1 
1 
1 
1 
1 
1 
1 
1 
1 
1 
1 
1 
1 
1 
1 
1 
1 
1 
1 
1 
1 
1 
1 
1 
1 
1 
1 
1 
1 
1 
1 
1 
1 
1 
1 
1 
1 
1 
1 
1 
1 
1 
1 
1 
1 
1 
1 
1 
1 
1 
1 
1 
1 
1 
1 
1 
1 
1 
1 
1 
1 
1 
1 
1 
1 
1 
1 
1 
1 
1 
1 
1 
1 
1 
1 
1 
1 
1 
1 
1 
1 
1 
1 
1 
1 
1 
1 
1 
1 
1 
1 
1 
1 
1 
1 
1 
1 
1 
1 
1 
1 
1 
1 
1 
1 
1 
1 
1 
1 
1 
1 
1 
1 
1 
1 
1 
1 
1 
1 
1 
1 
1 
1 
1 
1 
1 
1 
1 
1 
1 
1 
1 
1 
1 
1 
1 
1 
1 
1 
1 
1 
1 
1 
1 
1 
1 
1 
1 
1 
1 
1 
1 
1 
1 
1 
1 
1 
1 
1 
1 
1 
1 
1 
1 
1 
1 
1 
1 
1 
1 
1 
1 
1 
1 
1 
1 
1 
1 
1 
1 
1 
1 
1 
1 
1 
1 
1 
1 
1 
1 
1 
1 
1 
1 
1 
1 
1 
1 
1 
1 
1 
1 
1 
1 
1 
1 
1 
1 
1 
1 
1 
1 
1 
1 
1 
1 
1 
1 
1 
1 
1 
1 
1 
1 
1 
1 
1 
1 
1 
1 
1 
1 
POINT_DATA 5000
VECTORS Stress float
-4.60687 -57.294 0.
-1549.43 -3050.96 0.
-3.66915 -20.1768 0.
-2144.76 -2963.79 0.
-12.93 -18.0442 0.
1.94636 3.15197 0.
-3136.19 -4665.57 0.
-404.392 -636.1 0.
0.360705 0.541987 0.
-3160.24 -4948.3 0.
-1349.19 -2335.69 0.
-59.9308 -125.309 0.
-1479.99 -2145.96 0.
-1264.01 -1936.5 0.
-1205.06 -1917.09 0.
-993.453 -1709.8 0.
-777.765 -1506.58 0.
-752.741 -1565.96 0.
-602.375 -1320.56 0.
-454.037 -1073.14 0.
-515.347 -1022.9 0.
-476.535 -960.687 0.
-437.731 -898.467 0.
-452.074 -925.53 0.
-453.221 -982.275 0.
-457.346 -1036.04 0.
-531.245 -1114.07 0.
-543.926 -1126.92 0.
-490.709 -1061.4 0.
-465.029 -1026.75 0.
-440.011 -991.428 0.
-439.169 -984.246 0.
-426.893 -965.398 0.
-414.767 -946.401 0.
-408.889 -947.038 0.
-413.769 -983.784 0.
-424.772 -1014.41 0.
-482.181 -1063.14 0.
-485.7 -1071.35 0.
-434.162 -1034.31 0.
-414.175 -1001.76 0.
-399.966 -963.418 0.
-408.309 -957.163 0.
-405.939 -956.702 0.
-404.482 -955.327 0.
-403.879 -958.887 0.
-408.168 -968.894 0.
-412.456 -978.901 0.
-406.712 -1000.89 0.
-421.991 -1036.55 0.
-437.27 -1072.2 0.
-476.056 -1064.63 0.
-463.357 -1035 0.
-408.828 -988.209 0.
-397.94 -962.805 0.
-387.053 -937.401 0.
-393.733 -933.367 0.
-400.173 -945.124 0.
-408.195 -955.301 0.
-404.944 -958.247 0.
-415.591 -990.851 0.
-431.806 -1017.89 0.
-486.459 -1066.16 0.
-486.542 -1066.36 0.
-431.352 -1021.35 0.
-418.822 -978.008 0.
-410.989 -929.968 0.
-409.67 -922.539 0.
-422.513 -950.296 0.
-437.904 -975.506 0.
-442.015 -987.829 0.
-469.903 -1028.85 0.
-498.525 -1069.13 0.
-538.72 -1120.12 0.
-517.742 -1088.4 0.
-488.201 -1052.33 0.
-467.392 -972.632 0.
-482.355 -950.036 0.
-448.875 -938.725 0.
-494.054 -1015.95 0.
-539.286 -1093.13 0.
-491.479 -1138.31 0.
-700.591 -1492.26 0.
-913.363 -1842.55 0.
-900.875 -1659.45 0.
-1149.08 -1828.07 0.
-1389.65 -2004.34 0.
-1505.47 -2199.88 0.
-1825.76 -2656.6 0.
-8.70469 -15.8564 0.
-998.672 -1725.19 0.
-3548.04 -5338.58 0.
2.06249 3.40761 0.
-181.028 -263.306 0.
-3576.04 -5259.57 0.
-2.21616 -6.73309 0.
9.63634 14.0259 0.
-2043.31 -2943.88 0.
6.24023 13.2429 0.
-879.674 -1892.6 0.
-6.30688 -16.3121 0.
-3.96797 -32.9713 0.
9.58262 21.5054 0.
-0.872528 -11.8531 0.
-3.23762 -16.37 0.
0.566394 8.34276 0.
-63.8817 -90.8681 0.
-0.96094 -2.12144 0.
1.07507 1.59165 0.
1.54482 2.9853 0.
-0.0292627 -0.307036 0.
1.0155 2.71878 0.
-565.664 -814.492 0.
-390.338 -563.874 0.
-567.982 -1018.62 0.
-392.92 -774.444 0.
-232.489 -515.636 0.
-485.561 -1186.81 0.
-353.673 -922.806 0.
-244.251 -636.334 0.
-427.062 -943.972 0.
-388.142 -881.858 0.
-349.258 -819.709 0.
-416.529 -837.819 0.
-416.546 -895.698 0.
-417.45 -952.685 0.
-605.47 -1163.19 0.
-613.127 -1181.06 0.
-451.777 -979.557 0.
-423.5 -947.492 0.
-397.155 -913.496 0.
-420.387 -957.815 0.
-407.711 -939.367 0.
-403.234 -912.72 0.
-376.23 -890.227 0.
-379.137 -928.948 0.
-385.734 -963.98 0.
-545.622 -1090.31 0.
-549.144 -1098.51 0.
-405.894 -970.211 0.
-384.696 -938.859 0.
-366.41 -904.596 0.
-398.554 -947.69 0.
-394.96 -948.453 0.
-391.636 -948.947 0.
-394.424 -946.511 0.
-395.367 -959.865 0.
-397.197 -972.33 0.
-388.068 -939.547 0.
-399.458 -979.09 0.
-412.746 -1016.73 0.
-522.475 -1084.49 0.
-509.776 -1054.86 0.
-384.561 -966.059 0.
-377.176 -937.15 0.
-370.606 -907.428 0.
-375.703 -924.739 0.
-384.202 -934.438 0.
-393.001 -943.837 0.
-375.596 -896.887 0.
-388.495 -927.241 0.
-407.727 -951.263 0.
-558.913 -1097.18 0.
-558.992 -1097.38 0.
-395.653 -968.731 0.
-384.68 -923.827 0.
-378.431 -874.199 0.
-394.686 -884.396 0.
-401.26 -918.424 0.
-413.565 -946.721 0.
-392.444 -899.076 0.
-423.373 -937.056 0.
-455.214 -974.123 0.
-586.969 -1170.7 0.
-570.783 -1134.19 0.
-459.286 -953.242 0.
-441.658 -885.556 0.
-457.579 -862.002 0.
-325.391 -816.457 0.
-366.447 -897.824 0.
-411.56 -975.134 0.
-206.125 -538.609 0.
-371.396 -936.658 0.
-557.815 -1313.56 0.
-126.721 -227.856 0.
-290.606 -481.285 0.
-475.432 -713.771 0.
-298.568 -335.739 0.
-571.54 -841.019 0.
-0.0120882 -1.35883 0.
1.34421 3.0488 0.
0.886078 1.76406 0.
3.13215 6.12581 0.
-0.322076 -1.12604 0.
2.35094 3.62414 0.
13.1163 28.0282 0.
14.0549 25.6736 0.
21.476 52.1774 0.
6.33446 15.1385 0.
19.1128 45.2079 0.
-54.895 -149.801 0.
-3.71444 -48.5061 0.
-1.22507 -22.9447 0.
-0.29711 -11.0744 0.
1.07252 11.0571 0.
0.60384 26.4484 0.
1.82028 2.47405 0.
1.49258 2.10368 0.
-0.786485 -1.14692 0.
-0.307194 -2.88797 0.
-0.026936 -0.61126 0.
1.5447 4.23617 0.
-57.5174 -151.852 0.
-154.263 -176.92 0.
-35.4335 -65.4056 0.
-43.145 -80.9978 0.
-56.9009 -109.139 0.
-286.252 -739.794 0.
-188.5 -441.52 0.
-93.2619 -140.731 0.
-358.158 -845.661 0.
-326.047 -776.73 0.
-296.842 -704.893 0.
-386.946 -744.146 0.
-386.98 -802.013 0.
-387.461 -859.424 0.
-691.82 -1200.19 0.
-699.476 -1218.06 0.
-431.698 -878.856 0.
-404.519 -845.69 0.
-378.256 -811.608 0.
-405.99 -927 0.
-399.491 -902.374 0.
-394.835 -875.905 0.
-351.113 -825.874 0.
-353.176 -865.442 0.
-356.116 -904.132 0.
-609.063 -1117.47 0.
-612.589 -1125.67 0.
-384.816 -898.916 0.
-364.038 -867.142 0.
-344.352 -834.276 0.
-402.5 -924.517 0.
-398.914 -925.272 0.
-395.594 -925.761 0.
-399.456 -919.65 0.
-400.093 -933.309 0.
-401.174 -946.524 0.
-376.612 -871.012 0.
-388.393 -910.166 0.
-591.26 -1067.11 0.
-568.894 -1104.35 0.
-556.195 -1074.72 0.
-384.499 -919.702 0.
-376.937 -890.97 0.
-370.229 -861.385 0.
-377.31 -896.475 0.
-384.846 -907.137 0.
-393.395 -916.787 0.
-359.785 -821.99 0.
-375.09 -849.941 0.
-392.959 -875.328 0.
-631.366 -1128.2 0.
-631.443 -1128.4 0.
-373.919 -902.145 0.
-367.717 -852.468 0.
-362.563 -801.743 0.
-383.029 -842.926 0.
-390.375 -876.184 0.
-397.247 -909.914 0.
-365.035 -788.161 0.
-394.716 -827.393 0.
-425.309 -865.714 0.
-656.278 -1200.22 0.
-639.971 -1163.84 0.
-360.769 -754.717 0.
-420.089 -794.317 0.
-435.022 -771.75 0.
-268.208 -627.889 0.
-298.354 -720.182 0.
-334.623 -806.352 0.
-68.4944 -123.849 0.
-140.312 -282.943 0.
-286.126 -700.708 0.
-87.3967 -127.694 0.
-53.4633 -70.031 0.
-15.8539 -19.6302 0.
-98.8312 -136.672 0.
-79.3338 -186.716 0.
-0.000644857 -2.19044 0.
0.0665138 2.8606 0.
-0.198481 -2.63683 0.
3.94621 8.5409 0.
-0.774649 -3.88583 0.
-1.65626 -6.00293 0.
1.47198 23.467 0.
-1.91742 -13.9276 0.
18.9243 50.4708 0.
-1.34859 -45.6796 0.
4.51161 11.9038 0.
8.22792 22.6563 0.
21.6265 59.7856 0.
-58.1462 -152.172 0.
5.17368 13.5578 0.
-1062.15 -2454.07 0.
15.7037 36.3401 0.
-1873.52 -3177.39 0.
-1.89649 -3.52952 0.
-1.70994 -13.1261 0.
-3140.87 -6342.11 0.
1.37431 2.98596 0.
-0.099329 -1.70931 0.
-2986.59 -5313.91 0.
-72.6944 -154.308 0.
-1918.18 -3301.83 0.
-1304.25 -2379.26 0.
-720.523 -1426.48 0.
-1710.21 -3660.45 0.
-948.35 -2200.96 0.
-261.788 -666.164 0.
-991.797 -2303.59 0.
-713.078 -1789.57 0.
-463.353 -1246.54 0.
-699.86 -1647.73 0.
-574.97 -1411.06 0.
-463.288 -1161.19 0.
-865.539 -1732.1 0.
-879.304 -1764.23 0.
-639.98 -1452.82 0.
-606.083 -1380.13 0.
-572.254 -1307.38 0.
-599.868 -1344.41 0.
-583.466 -1349.11 0.
-568.238 -1352.63 0.
-570.187 -1299.59 0.
-565.266 -1329.91 0.
-561.197 -1359.38 0.
-807.723 -1605.73 0.
-807.316 -1604.79 0.
-564.069 -1368.46 0.
-546.741 -1336.96 0.
-529.605 -1305.26 0.
-578.975 -1346.96 0.
-560.07 -1323.31 0.
-542.293 -1298.54 0.
-550.862 -1288.11 0.
-556.734 -1320.27 0.
-563.785 -1351.24 0.
-564.952 -1321.85 0.
-571.389 -1342.96 0.
-823.015 -1512.04 0.
-702.901 -1493.47 0.
-689.804 -1462.9 0.
-548.79 -1310.11 0.
-553.123 -1308.92 0.
-559.088 -1306.09 0.
-546.559 -1323.87 0.
-551.979 -1319.95 0.
-558.401 -1315.02 0.
-538.772 -1280.87 0.
-560.327 -1324.33 0.
-582.047 -1367.61 0.
-819.02 -1601.86 0.
-814.577 -1591.48 0.
-550.105 -1320.69 0.
-563.188 -1302.72 0.
-577.468 -1283.56 0.
-568.604 -1349.97 0.
-583.895 -1348.5 0.
-599.957 -1346.27 0.
-541.358 -1282.9 0.
-579.843 -1360.05 0.
-618.427 -1437.11 0.
-845.877 -1798.23 0.
-847.844 -1802.85 0.
-454.572 -1119 0.
-610.969 -1485.09 0.
-762.097 -1790.76 0.
-419.455 -1129.7 0.
-783.709 -1965.52 0.
-1193.84 -2755.45 0.
-175.82 -467.76 0.
-1055.54 -2422.96 0.
-2041.7 -4271.71 0.
-674.663 -1243.96 0.
-1376.96 -2321.49 0.
-2118.63 -3359.62 0.
-0.0668032 -0.143627 0.
-3032.74 -5426.79 0.
-0.275625 -4.1309 0.
-1.06481 -8.99496 0.
-2997.98 -6305.09 0.
9.02921 19.5343 0.
11.4344 22.3374 0.
-1831.37 -3366.57 0.
2.65756 6.22618 0.
-869.173 -2041.52 0.
-0.837143 -57.3155 0.
-139.795 -371.712 0.
-58.5485 -158.04 0.
-13.2389 -36.4048 0.
-9.1839 -25.3698 0.
-238.644 -637.643 0.
19.4173 52.0364 0.
13.159 32.1906 0.
14.2586 35.2331 0.
15.7586 39.4404 0.
-1.87175 -18.1807 0.
-0.95376 -25.2621 0.
-0.113263 -0.889936 0.
3.6947 8.65267 0.
3.12051 7.98824 0.
1.11858 2.82932 0.
1.0273 2.79207 0.
-81.5044 -144.983 0.
-42.1836 -81.2397 0.
-28.6244 -60.7148 0.
-421.328 -968.535 0.
-44.5142 -120.548 0.
-28.9819 -78.4083 0.
-531.938 -1370.55 0.
-300.825 -808.342 0.
-100.318 -215.527 0.
-566.94 -1376.92 0.
-465.594 -1116.63 0.
-371.459 -849.14 0.
-798.839 -1703.53 0.
-812.604 -1735.67 0.
-632.597 -1416.02 0.
-596.427 -1345.61 0.
-560.523 -1274.93 0.
-579.213 -1259.14 0.
-563.002 -1263.64 0.
-547.671 -1267.27 0.
-571.858 -1239.2 0.
-566.136 -1270.33 0.
-561.245 -1300.62 0.
-794.639 -1600.09 0.
-794.231 -1599.16 0.
-563.307 -1336.73 0.
-547.019 -1304.19 0.
-530.937 -1271.44 0.
-569.882 -1276.71 0.
-551.615 -1252.43 0.
-534.462 -1227.03 0.
-542.051 -1222.47 0.
-547.446 -1255.1 0.
-554.09 -1286.49 0.
-585.247 -1312.3 0.
-591.596 -1333.5 0.
-959.223 -1563.89 0.
-662.682 -1476.2 0.
-649.585 -1445.63 0.
-560.898 -1265.71 0.
-565.483 -1264.27 0.
-570.767 -1262.12 0.
-533.672 -1252.94 0.
-539.021 -1249.08 0.
-545.34 -1244.26 0.
-552.161 -1249.66 0.
-573.608 -1293.22 0.
-595.22 -1336.62 0.
-800.102 -1593.72 0.
-795.659 -1583.34 0.
-548.786 -1251.28 0.
-563.026 -1232.16 0.
-578.284 -1212.02 0.
-552.029 -1266.53 0.
-565.968 -1266.41 0.
-583.079 -1263.12 0.
-506.854 -1235.6 0.
-545.707 -1312.39 0.
-584.858 -1388.88 0.
-797.169 -1730.73 0.
-814.167 -1720.32 0.
-335.154 -726.228 0.
-442.586 -1047.75 0.
-569.386 -1377.9 0.
-52.6532 -138.119 0.
-234.648 -613.484 0.
-582.946 -1466.44 0.
-28.8908 -80.0187 0.
-34.3009 -92.4464 0.
-227.251 -565.447 0.
0.663969 1.33911 0.
-0.232603 -1.24554 0.
0.592043 1.12043 0.
-0.036022 -1.17591 0.
1.65148 3.88475 0.
4.62886 11.8915 0.
0.908212 2.15815 0.
-1.30878 -11.874 0.
13.2679 32.2771 0.
14.8229 32.7042 0.
-0.190555 -4.52887 0.
5.47592 13.6899 0.
-19.3006 -47.9867 0.
-0.543741 -48.3371 0.
-188.942 -506.588 0.
-83.9846 -225.682 0.
-53.0032 -145.533 0.
-18.8722 -52.0894 0.
-457.24 -1241.38 0.
12.9165 35.1794 0.
-422.118 -1165.94 0.
-6.32964 -17.5084 0.
8.89422 24.6265 0.
-1425.47 -3799.93 0.
5.09685 13.5732 0.
-1459.03 -3171.46 0.
-64.8045 -144.01 0.
5.05745 11.9834 0.
-2625.27 -6220.97 0.
-0.0359691 -5.09691 0.
-1637.27 -2889.2 0.
-831.633 -1580.65 0.
-96.0651 -202.001 0.
-2268.85 -5185.89 0.
-872.258 -2093.77 0.
-23.1028 -59.4695 0.
-1491.82 -3296.08 0.
-843.757 -2015.66 0.
-254.691 -676.227 0.
-1009.01 -2244.87 0.
-682.067 -1563.44 0.
-376.487 -860.647 0.
-833.471 -1737.35 0.
-698.985 -1498.36 0.
-495.069 -1094.01 0.
-446.51 -1010.18 0.
-398.812 -925.491 0.
-424.677 -907.294 0.
-409.738 -892.149 0.
-395.288 -876.516 0.
-398.797 -860.77 0.
-383.92 -836.417 0.
-369.198 -811.908 0.
-595.793 -1148.14 0.
-589.793 -1134.15 0.
-383.414 -814.78 0.
-389.245 -836.947 0.
-395.212 -858.978 0.
-424.068 -887.871 0.
-419.883 -885.621 0.
-416.312 -882.758 0.
-426.642 -875.344 0.
-415.406 -848.469 0.
-404.436 -821.328 0.
-408.645 -859.951 0.
-376.539 -838.591 0.
-742.406 -996.96 0.
-422.609 -963.11 0.
-434.089 -989.893 0.
-399.317 -824.237 0.
-410.307 -848.953 0.
-433.387 -861.578 0.
-396.449 -846.982 0.
-403.827 -859.029 0.
-411.419 -870.863 0.
-414.407 -856.826 0.
-407.353 -834.297 0.
-400.321 -811.744 0.
-598.745 -1138.59 0.
-610.896 -1166.92 0.
-380.909 -810.089 0.
-400.069 -844.537 0.
-419.358 -878.854 0.
-413.809 -910.299 0.
-436.767 -942.978 0.
-459.905 -975.476 0.
-379.936 -963.49 0.
-451.679 -1102.25 0.
-523.602 -1240.82 0.
-759.226 -1611.16 0.
-915.63 -1856.43 0.
-306.315 -674.277 0.
-715.165 -1650.1 0.
-1153.63 -2564.46 0.
-105.299 -291.029 0.
-891.526 -2144.87 0.
-1777.21 -3899.25 0.
-12.1402 -32.5444 0.
-820.319 -1959.87 0.
-2573.51 -5812.37 0.
-20.3716 -36.8161 0.
-797.372 -1483.36 0.
-1804.87 -3177.1 0.
-0.124864 -8.22128 0.
-2348.94 -5706.61 0.
-66.1887 -162.555 0.
-100.743 -242.975 0.
-1444.86 -3447.07 0.
-0.197917 -15.6923 0.
-883.811 -2359.31 0.
8.05126 22.2985 0.
-2.48847 -6.89143 0.
-6.46059 -16.7523 0.
7.14154 19.3883 0.
-205.4 -554.745 0.
-104.632 -279.78 0.
-2.24912 -61.5596 0.
7.86023 20.41 0.
-123.513 -339.128 0.
-0.246048 -50.8017 0.
-212.518 -587.836 0.
6.30365 17.4532 0.
-5.8295 -16.1467 0.
-130.162 -357.615 0.
8.9811 24.6805 0.
1.21839 2.72967 0.
-0.995063 -2.3556 0.
-0.559378 -12.9004 0.
-0.0698835 -6.30981 0.
-0.0166415 -8.91898 0.
-1.01487 -2.12084 0.
-1.22532 -2.50967 0.
-28.5096 -55.7509 0.
-252.63 -669.92 0.
-27.4613 -74.3376 0.
-0.641012 -1.74666 0.
-477.635 -1132.95 0.
-29.5999 -78.9419 0.
-26.3767 -69.5287 0.
-570.421 -1422.98 0.
-294.237 -690.133 0.
-74.1801 -132.312 0.
-589.369 -1358.09 0.
-471.772 -1102.08 0.
-392.446 -976.525 0.
-352.263 -884.304 0.
-316.541 -787.62 0.
-389.719 -840.75 0.
-377.086 -823.298 0.
-362.644 -807.656 0.
-379.915 -812.526 0.
-362.849 -790.358 0.
-348.014 -765.962 0.
-596.841 -1148.55 0.
-590.84 -1134.57 0.
-376.199 -788.662 0.
-381.94 -810.92 0.
-387.836 -833.023 0.
-403.366 -822.207 0.
-399.659 -819.48 0.
-396.592 -816.111 0.
-416.071 -847.361 0.
-405.107 -820.214 0.
-394.332 -792.879 0.
-411.906 -864.465 0.
-382.477 -840.43 0.
-707.861 -977.059 0.
-414.513 -959.61 0.
-425.994 -986.393 0.
-395.958 -784.111 0.
-406.574 -809.202 0.
-417.601 -833.881 0.
-387.888 -801.277 0.
-395.49 -813.102 0.
-404.262 -823.756 0.
-382.338 -836.031 0.
-375.862 -812.921 0.
-369.513 -789.686 0.
-602.87 -1140.33 0.
-615.019 -1168.66 0.
-351.474 -760.656 0.
-370.561 -795.178 0.
-395.066 -824.281 0.
-350.484 -812.867 0.
-373.371 -845.62 0.
-396.001 -878.63 0.
-298.785 -744.115 0.
-353.045 -900.387 0.
-414.566 -1049.4 0.
-473.028 -1070.21 0.
-604.107 -1340.97 0.
-89.4195 -129.471 0.
-226.678 -488.573 0.
-591.047 -1478.2 0.
-2.60497 -7.21514 0.
-27.5717 -76.1861 0.
-351.003 -888.593 0.
0.949231 2.54602 0.
-0.0748816 -1.81881 0.
-134.458 -320.51 0.
-1.53084 -2.82213 0.
-0.330105 -1.35976 0.
-0.959377 -18.2255 0.
5.40406 14.9433 0.
-0.595718 -1.61152 0.
-8.53957 -21.2001 0.
-22.9616 -56.0125 0.
-34.8451 -83.5024 0.
-0.0305592 -15.1431 0.
-4.37175 -11.979 0.
1.61568 4.47478 0.
-62.529 -173.191 0.
-511.186 -1399.05 0.
-0.702524 -1.91808 0.
14.1593 38.5395 0.
18.0983 49.7649 0.
9.83545 25.1471 0.
-11.9559 -31.1463 0.
-253.406 -692.428 0.
-9.28665 -25.281 0.
-193.813 -536.582 0.
12.0187 33.2894 0.
11.2929 31.2719 0.
-39.217 -108.624 0.
-0.00392235 -24.1992 0.
-1.34005 -18.1293 0.
2.74514 6.81207 0.
9.05278 23.6 0.
4.3656 12.0789 0.
4.70392 12.6776 0.
-0.407953 -5.65241 0.
-1.64288 -3.35718 0.
-45.4398 -84.0228 0.
-34.0539 -93.9815 0.
0.285779 0.79152 0.
0.0295847 0.0813431 0.
-33.0847 -90.7282 0.
-23.209 -63.1558 0.
-20.8659 -56.1546 0.
-224.231 -508.7 0.
-47.1404 -113.894 0.
-47.6046 -117.521 0.
-391.362 -932.727 0.
-293.383 -656.981 0.
-313.999 -834.86 0.
-283.217 -733.223 0.
-253.359 -630.662 0.
-360.394 -768.572 0.
-345.524 -753.356 0.
-331.325 -737.47 0.
-369.079 -756.234 0.
-351.59 -734.489 0.
-334.343 -712.503 0.
-597.889 -1148.97 0.
-591.887 -1134.98 0.
-369.628 -761.9 0.
-375.272 -784.256 0.
-381.075 -806.453 0.
-383.402 -755.805 0.
-380.244 -752.529 0.
-377.401 -748.936 0.
-410.506 -814.373 0.
-399.593 -787.174 0.
-388.769 -759.888 0.
-410.763 -873.384 0.
-388.167 -842.516 0.
-742.582 -1004.45 0.
-412.276 -950.251 0.
-423.941 -976.85 0.
-392.864 -743.72 0.
-403.286 -769.006 0.
-413.893 -794.106 0.
-385.521 -749.378 0.
-393.068 -761.258 0.
-401.069 -772.684 0.
-363.21 -802.293 0.
-356.859 -779.058 0.
-350.662 -755.669 0.
-606.994 -1142.07 0.
-619.143 -1170.4 0.
-330.693 -702.569 0.
-355.006 -731.866 0.
-379.451 -761.031 0.
-300.151 -702.443 0.
-323.997 -734.24 0.
-346.774 -767.106 0.
-241.606 -500.768 0.
-288.394 -664.544 0.
-339.948 -823.555 0.
-261.07 -455.008 0.
-358.06 -760.037 0.
-70.776 -91.6335 0.
-52.8349 -67.0006 0.
-153.584 -266.819 0.
-0.860562 -2.35722 0.
-3.44565 -9.53762 0.
-47.8288 -131.605 0.
-0.00335062 -0.242816 0.
-0.116474 -3.2086 0.
1.50055 3.57259 0.
0.748788 1.37433 0.
-0.328099 -1.31883 0.
-0.659926 -9.02135 0.
0.0472996 3.92796 0.
7.31544 20.2581 0.
0.0427228 0.107303 0.
7.34007 18.1184 0.
-0.62549 -1.51786 0.
3.33535 9.23311 0.
-19.357 -53.5866 0.
8.98676 24.8722 0.
-131.961 -365.325 0.
12.1009 32.9985 0.
-2.51912 -6.84632 0.
-1.89656 -5.13707 0.
2.24963 6.18914 0.
-7.6747 -19.702 0.
7.24032 18.9337 0.
-12.2158 -33.1923 0.
-0.545821 -53.8652 0.
17.9641 47.7734 0.
-2.22292 -6.14935 0.
-0.0131518 -32.7992 0.
-509.304 -1410.31 0.
2.45148 6.78726 0.
-1247.16 -3039.18 0.
4.20983 10.527 0.
4.63158 11.8575 0.
-1780.22 -4814.49 0.
-0.106435 -14.183 0.
6.33373 17.4171 0.
-2804.38 -6001.57 0.
0.264255 0.606804 0.
-2095.03 -4808.84 0.
-254.84 -644.435 0.
-35.6929 -97.5781 0.
-2234.56 -5358.47 0.
-615.293 -1576.88 0.
-6.07133 -16.8165 0.
-1488.81 -3656.72 0.
-702.925 -1848.75 0.
-35.6052 -87.8488 0.
-1104.32 -2680.72 0.
-777.644 -1934.51 0.
-804.813 -1954.67 0.
-613.723 -1573.1 0.
-434.73 -1179.43 0.
-624.509 -1454.64 0.
-551.045 -1330.49 0.
-478.389 -1205.54 0.
-583.96 -1275.23 0.
-542.193 -1214.02 0.
-501.297 -1151.95 0.
-791.406 -1660.25 0.
-791.22 -1659.83 0.
-544.818 -1261.09 0.
-530.792 -1236.9 0.
-517.365 -1212.11 0.
-515.129 -1181.24 0.
-511.969 -1178.02 0.
-509.133 -1174.47 0.
-545.3 -1207.99 0.
-525.703 -1176.73 0.
-511.582 -1139.99 0.
-578.82 -1289.79 0.
-563.342 -1283.06 0.
-891.722 -1454.79 0.
-563.199 -1386.48 0.
-569.17 -1400.41 0.
-517.229 -1152.56 0.
-529.106 -1178.25 0.
-551.191 -1193.74 0.
-522.234 -1165.79 0.
-523.62 -1165.88 0.
-525.143 -1165.84 0.
-485.237 -1192.04 0.
-506.169 -1233.15 0.
-528.955 -1272.41 0.
-816.763 -1694.61 0.
-827.854 -1720.48 0.
-498.145 -1164.68 0.
-547.55 -1241.14 0.
-598.18 -1316.36 0.
-464.698 -1205.76 0.
-559.488 -1397.71 0.
-663.409 -1580.52 0.
-438.98 -1113.56 0.
-655.244 -1667.35 0.
-902.579 -2190.06 0.
-789.373 -1974.6 0.
-1226.27 -2921.19 0.
-78.0588 -187.297 0.
-680.048 -1716.93 0.
-1680.85 -3985.87 0.
-0.00599997 -0.747916 0.
-398.143 -1069.4 0.
-2428.33 -5909.14 0.
-59.762 -128.149 0.
-187.622 -416.733 0.
-2132.64 -4772.15 0.
-0.152221 -1.97327 0.
-2553.1 -5546.23 0.
4.31753 11.9587 0.
7.71964 21.3246 0.
-1596.18 -4351.04 0.
-229.65 -583.157 0.
-577.388 -1441.06 0.
-271.668 -752.457 0.
-0.00643648 -34.1328 0.
-202.734 -560.488 0.
-3.87421 -10.6567 0.
-53.1582 -146.484 0.
18.3963 49.9128 0.
-8.59288 -23.229 0.
-218.687 -588.859 0.
20.4124 56.1898 0.
-6.62122 -15.9303 0.
-10.979 -27.0648 0.
-1.46231 -52.3031 0.
-5.53963 -14.5323 0.
5.95714 15.7803 0.
-126.131 -347.391 0.
2.26471 6.23855 0.
-244.531 -675.526 0.
-0.038946 -31.8431 0.
-0.0276648 -20.786 0.
6.42294 16.3681 0.
-0.587709 -21.9695 0.
-5.03818 -13.8635 0.
0.406862 1.12572 0.
3.43913e-05 0.0842144 0.
-0.747811 -10.1447 0.
-0.0139871 -0.564515 0.
-3.42212 -8.9835 0.
-0.458324 -1.24572 0.
-0.00019272 -2.50571 0.
-71.6421 -198.392 0.
-23.1197 -61.9649 0.
0.00597246 0.0640166 0.
-505.85 -1331.09 0.
-28.4757 -59.0049 0.
-18.3324 -39.8021 0.
-683.693 -1714.7 0.
-409.319 -915.41 0.
-511.097 -1352.63 0.
-344.96 -945.841 0.
-202.403 -515.47 0.
-484.758 -1241.75 0.
-416.299 -1112.56 0.
-357.294 -973.921 0.
-551.32 -1174.03 0.
-510.312 -1112.06 0.
-470.078 -1049.32 0.
-759.685 -1646.62 0.
-759.499 -1646.2 0.
-519.835 -1180.64 0.
-505.987 -1156.27 0.
-492.704 -1131.34 0.
-511.525 -1139.97 0.
-507.916 -1137.2 0.
-504.621 -1134.11 0.
-520.003 -1165.85 0.
-505.89 -1129.1 0.
-491.968 -1092.17 0.
-580.116 -1281.25 0.
-556.604 -1282.56 0.
-875.835 -1445.45 0.
-548.731 -1352.03 0.
-556.614 -1364.05 0.
-499.966 -1099.33 0.
-511.63 -1125.24 0.
-523.696 -1150.74 0.
-514.734 -1126.38 0.
-514.77 -1127.82 0.
-516.008 -1128.07 0.
-466.6 -1102.33 0.
-488.271 -1142.71 0.
-510.819 -1182.21 0.
-785.75 -1677.82 0.
-801.075 -1699.46 0.
-449.668 -1030.57 0.
-498.076 -1108.03 0.
-547.656 -1184.32 0.
-371.752 -882.852 0.
-438.083 -1103.32 0.
-515.75 -1312.45 0.
-124.963 -272.613 0.
-342.304 -825.788 0.
-552.061 -1386.54 0.
-248.102 -589.913 0.
-624.261 -1598.63 0.
-27.4642 -64.0051 0.
-16.7274 -35.5797 0.
-336.218 -807.04 0.
-3.64092e-05 -0.591978 0.
0.385191 1.02949 0.
-78.259 -209.15 0.
-15.5331 -30.9015 0.
0.593822 1.11976 0.
2.05019 3.65308 0.
0.000416942 0.0476745 0.
1.35283 3.38373 0.
0.00193225 1.23506 0.
4.36348 12.0857 0.
-0.0134203 -17.0434 0.
-86.4824 -229.105 0.
-272.477 -707.35 0.
7.24084 20.0391 0.
-0.0423234 -36.6854 0.
-177.515 -489.022 0.
3.17449 8.69768 0.
-70.9277 -194.793 0.
-11.6056 -31.1548 0.
-5.03258 -13.3998 0.
4.21292 11.1193 0.
9.96394 27.0961 0.
4.20666 10.1707 0.
2.27707 5.64055 0.
18.4452 47.6546 0.
11.5472 30.1496 0.
-93.5462 -246.819 0.
-916.892 -2504.95 0.
1.34648 3.67874 0.
-26.3482 -72.4773 0.
1.1557 3.17674 0.
3.07476 8.4444 0.
-717.497 -1971.3 0.
-1.34733 -3.70062 0.
-961.55 -2647.44 0.
-51.7956 -141.949 0.
4.66563 12.7496 0.
-1620.02 -4386.96 0.
4.39447 11.9265 0.
-2100.23 -4752.81 0.
-111.11 -263.059 0.
-4.0393 -10.508 0.
-2288.74 -6019.98 0.
-51.3966 -139.94 0.
-31.7811 -88.0177 0.
-1784.25 -4526.78 0.
-473.635 -1256.92 0.
-27.298 -62.3634 0.
-1262.34 -3108.91 0.
-708.352 -1847.25 0.
-924.198 -2257.05 0.
-589.276 -1519.53 0.
-277.234 -759.131 0.
-668.845 -1597.29 0.
-495.494 -1240.93 0.
-329.351 -877.373 0.
-543.69 -1121.86 0.
-443.129 -915.229 0.
-337.495 -713.668 0.
-609.273 -1355.68 0.
-581.634 -1304.27 0.
-367.877 -744.436 0.
-371.734 -759.997 0.
-375.801 -775.347 0.
-403.18 -828.786 0.
-392.411 -802.306 0.
-382.08 -775.388 0.
-398.993 -800.741 0.
-377.305 -743.253 0.
-355.874 -685.508 0.
-426.126 -898.392 0.
-409.947 -854.956 0.
-671.881 -975.615 0.
-387.777 -897.557 0.
-404.335 -937.381 0.
-361.821 -688.699 0.
-372.131 -721.419 0.
-382.508 -754.071 0.
-366.329 -736.315 0.
-387.069 -786.639 0.
-409.518 -835.255 0.
-370.384 -770.2 0.
-372.026 -769.798 0.
-374.13 -768.934 0.
-599.547 -1345.95 0.
-645.122 -1416.62 0.
-314.235 -685.001 0.
-445.466 -952.171 0.
-574.465 -1221.58 0.
-354.1 -865.824 0.
-546.341 -1337.2 0.
-759.408 -1787.76 0.
-245.753 -590.8 0.
-632.465 -1594.55 0.
-1048.95 -2568.52 0.
-680.359 -1733.16 0.
-1440.66 -3501.95 0.
-28.3542 -76.0626 0.
-372.369 -966.727 0.
-1953.27 -4931.99 0.
0.456104 1.24116 0.
-0.98904 -2.73004 0.
-2290.43 -6063.55 0.
-29.5058 -71.6581 0.
-22.0852 -52.1586 0.
-1756.12 -4118.7 0.
4.03173 11.074 0.
-1415.78 -3909.3 0.
-103.886 -284.167 0.
-28.6995 -78.5063 0.
-681.639 -1852.26 0.
-19.6311 -54.3686 0.
-135.89 -364.086 0.
5.97804 16.492 0.
-1.32933 -3.65536 0.
-122.22 -334.815 0.
-4.00803 -10.9299 0.
-787.348 -2150.35 0.
-39.3153 -105.191 0.
-52.7938 -140.049 0.
-29.2397 -76.858 0.
-0.406678 -55.7214 0.
-0.552495 -1.34311 0.
-5.00924 -12.4766 0.
-299.908 -771.4 0.
-98.3795 -255.714 0.
-1.95629 -44.7865 0.
14.6279 38.4275 0.
4.65901 12.2802 0.
-155.766 -416.991 0.
-61.7659 -163.761 0.
-34.362 -90.1138 0.
-413.847 -1145.54 0.
-2.12725 -5.88953 0.
-65.8651 -180.697 0.
-3.18474 -8.7127 0.
-0.790559 -2.15639 0.
-2.58006 -7.13052 0.
2.80027 7.74955 0.
-12.9182 -30.9675 0.
-0.0218416 -0.0556224 0.
-0.0379488 -2.90352 0.
-10.2117 -26.5258 0.
-10.7133 -29.1405 0.
-9.92024 -27.4771 0.
-344.954 -935.927 0.
-35.597 -93.1381 0.
-18.8717 -50.6243 0.
-518.606 -1325.67 0.
-37.1007 -86.9215 0.
-473.797 -1247.48 0.
-175.417 -472.602 0.
-45.1832 -118.578 0.
-436.404 -1122.39 0.
-277.455 -751.436 0.
-146.073 -352.918 0.
-427.243 -941.549 0.
-330.882 -730.668 0.
-248.724 -516.833 0.
-553.318 -1269.4 0.
-517.25 -1226.42 0.
-332.968 -690.198 0.
-336.961 -705.623 0.
-341.04 -720.962 0.
-363.371 -767.51 0.
-353.201 -740.429 0.
-343.657 -712.723 0.
-385.952 -787.333 0.
-364.148 -729.96 0.
-342.532 -672.399 0.
-423.736 -894.973 0.
-407.843 -851.25 0.
-562.518 -924.24 0.
-368.842 -873.039 0.
-385.263 -913.001 0.
-357.817 -672.077 0.
-368.112 -704.813 0.
-378.567 -737.388 0.
-320.131 -666.037 0.
-339.947 -717.29 0.
-360.838 -767.468 0.
-355.735 -709.013 0.
-357.226 -708.762 0.
-359.16 -708.068 0.
-511.292 -1229.35 0.
-560.601 -1296.3 0.
-206.411 -434.182 0.
-316.111 -721.799 0.
-436.596 -999.792 0.
-104.175 -224.43 0.
-276.241 -659.5 0.
-452.917 -1146.77 0.
-60.2061 -152.577 0.
-139.412 -293.215 0.
-518.766 -1305.62 0.
-59.9979 -159.563 0.
-465.039 -1177.39 0.
-0.0140196 -0.0384343 0.
-2.7129 -7.27563 0.
-245.345 -631.99 0.
-0.0406123 -2.00089 0.
0.424358 1.152 0.
-6.57131 -18.086 0.
-83.2715 -199.82 0.
-22.931 -53.374 0.
-14.3985 -32.346 0.
-0.526581 -18.1829 0.
-42.9478 -117.406 0.
-118.361 -324.567 0.
-56.5763 -155.102 0.
-56.4851 -154.759 0.
2.97972 8.24617 0.
-954.554 -2637.86 0.
9.30702 24.7971 0.
-0.578395 -37.5061 0.
-172.914 -463.031 0.
-4.1444 -10.902 0.
15.9709 41.5284 0.
-7.28589 -18.0009 0.
-104.047 -274.982 0.
-109.596 -300.938 0.
17.6728 48.16 0.
3.67202 7.84179 0.
1.36392 3.10674 0.
17.0152 40.5767 0.
9.66378 23.6384 0.
2.19673 5.50328 0.
-8.31124 -21.6223 0.
14.9922 39.1347 0.
-435.458 -1166.58 0.
-1.37182 -3.64874 0.
-20.6151 -54.2566 0.
-148.723 -411.295 0.
-0.0296492 -28.9483 0.
-1.94313 -5.32155 0.
1.09587 2.99286 0.
1.03666 2.82227 0.
0.309663 0.853035 0.
-0.0292422 -2.48199 0.
-0.333363 -7.5307 0.
2.27044 5.97207 0.
2.5679 7.00946 0.
-1.38704 -3.67645 0.
0.648062 1.77533 0.
-0.387217 -1.07246 0.
-46.1434 -125.834 0.
-29.2517 -80.7988 0.
-13.3777 -36.8296 0.
-31.1839 -74.2117 0.
-20.2213 -48.3607 0.
-76.3984 -184.907 0.
-23.8235 -62.8411 0.
-29.0297 -77.5435 0.
-240.646 -610.801 0.
-104.562 -216.791 0.
-67.6195 -173.728 0.
-319.435 -752.596 0.
-235.72 -529.022 0.
-189.069 -383.883 0.
-506.185 -1174.3 0.
-471.222 -1130.2 0.
-296.025 -637.993 0.
-301.951 -651.486 0.
-306.895 -665.962 0.
-325.751 -704.046 0.
-316.875 -675.669 0.
-308.466 -646.824 0.
-375.04 -771.796 0.
-353.375 -714.283 0.
-331.749 -656.731 0.
-423.541 -889.36 0.
-407.744 -845.541 0.
-576.809 -928.795 0.
-352.336 -846.092 0.
-368.466 -886.347 0.
-354.758 -654.51 0.
-365.116 -687.184 0.
-375.359 -719.972 0.
-282.638 -587.053 0.
-301.16 -639.605 0.
-319.985 -691.855 0.
-341.637 -647.275 0.
-342.769 -647.383 0.
-342.659 -648.732 0.
-434.516 -1101.27 0.
-481.754 -1170.31 0.
-121.826 -284.076 0.
-221.432 -456.75 0.
-329.06 -747.674 0.
-106.724 -227.634 0.
-78.0103 -183.026 0.
-204.094 -448.119 0.
-59.4243 -146.353 0.
-53.5608 -129.887 0.
-66.7727 -170.505 0.
-49.5213 -113.885 0.
-80.2133 -203.988 0.
0.755248 2.09186 0.
0.658652 1.80993 0.
-2.00337 -5.41764 0.
-0.121775 -3.38135 0.
0.732748 1.94094 0.
0.00767411 0.020803 0.
-158.125 -364.143 0.
-93.3596 -216.417 0.
-34.8369 -78.1469 0.
-0.839145 -13.8773 0.
2.30896 6.07235 0.
-143.954 -395.641 0.
-76.1272 -209.154 0.
-43.7167 -120.062 0.
-2.55862 -7.07248 0.
-439.808 -1217.99 0.
2.79387 7.40157 0.
5.7876 15.3768 0.
-413.248 -1101.03 0.
-5.56736 -14.4668 0.
16.781 43.073 0.
-2.08501 -40.2677 0.
-3.00579 -46.6011 0.
7.89897 20.5575 0.
-2.06786 -47.259 0.
-1.80182 -15.836 0.
4.58718 10.7245 0.
-8.30499 -19.7348 0.
-18.7895 -45.8378 0.
-157.952 -394.941 0.
-393.362 -1011.08 0.
12.4942 32.2634 0.
-120.026 -322.795 0.
0.691081 1.84295 0.
6.90172 18.1879 0.
-344.66 -951.092 0.
-0.766928 -2.11274 0.
-635.835 -1759.41 0.
-94.3253 -260.329 0.
-6.68253 -18.4244 0.
-1343.91 -3701.09 0.
-0.664234 -1.81819 0.
-1698.12 -4072.38 0.
-0.508087 -1.25797 0.
2.5571 6.68843 0.
-2251.5 -6185.29 0.
-36.9549 -99.1259 0.
0.945911 2.61639 0.
-2098.78 -5348.46 0.
-78.5255 -212.295 0.
-0.00437204 -2.15409 0.
-1716.53 -4319.18 0.
-463.915 -1204.27 0.
-1203.38 -3064.11 0.
-598.391 -1574.26 0.
-45.3624 -113.177 0.
-905.578 -2327.07 0.
-552.259 -1489.35 0.
-238.761 -611.814 0.
-672.184 -1736.67 0.
-477.552 -1274.18 0.
-295.402 -799.203 0.
-702.681 -1798.91 0.
-646.42 -1684.22 0.
-485.192 -1232.45 0.
-445.202 -1138.6 0.
-405.866 -1044.09 0.
-450.683 -1064.83 0.
-428.307 -1013.55 0.
-407.703 -960.504 0.
-465.86 -1072.22 0.
-452.281 -1031.42 0.
-439.022 -990.304 0.
-570.036 -1242.58 0.
-530.736 -1229.01 0.
-688.029 -1305.7 0.
-445.752 -1204.19 0.
-447.664 -1209.49 0.
-417.327 -913.497 0.
-452.116 -1006.73 0.
-487.748 -1099.11 0.
-420.374 -993.676 0.
-434.684 -1032.36 0.
-451.025 -1069.02 0.
-418.357 -1031.08 0.
-471.631 -1157.71 0.
-527.168 -1282.07 0.
-635.646 -1701.28 0.
-720.08 -1873.48 0.
-303.31 -719.201 0.
-508.602 -1362.17 0.
-757.323 -1961.71 0.
-178.64 -382.085 0.
-578.496 -1541.37 0.
-1036.21 -2642.79 0.
-93.9133 -223.808 0.
-623.1 -1536.83 0.
-1366.24 -3306.62 0.
-315.506 -841.578 0.
-1887.26 -4848.17 0.
-1.07132e-05 -0.287199 0.
0.247483 0.671626 0.
-2164.15 -5504.92 0.
-0.000290309 -3.4486 0.
0.542025 1.47743 0.
-1742.43 -4749.26 0.
-347.173 -810.091 0.
-1274.66 -2723.3 0.
-270.425 -747.307 0.
-0.0950763 -20.561 0.
-548.539 -1483.94 0.
-101.633 -280.962 0.
1.19586 3.30542 0.
-223.998 -618.772 0.
0.627257 1.72826 0.
-91.1904 -251.604 0.
-0.65077 -33.9499 0.
-0.651491 -32.1232 0.
-3.36832 -8.92489 0.
-1.28372 -37.7078 0.
-389.856 -984.167 0.
-199.359 -492.135 0.
11.3069 27.1482 0.
-0.845719 -35.2706 0.
-1.29109 -3.26069 0.
-3.40117 -35.3709 0.
8.85834 21.3273 0.
-254.818 -603.175 0.
-7.9594 -18.4879 0.
2.19296 5.17539 0.
9.57228 23.0755 0.
-1.02646 -2.48676 0.
8.07333 20.6777 0.
1.49719 3.86666 0.
9.89148 25.7656 0.
-387.832 -1063.26 0.
7.2671 19.8604 0.
-330.971 -915.715 0.
1.68411 4.65222 0.
-0.932087 -2.57338 0.
1.56608 4.23908 0.
-0.235477 -0.627131 0.
3.37571 8.75399 0.
4.82974 12.4541 0.
1.89988 5.10642 0.
-128.24 -349.689 0.
-0.00285505 -3.32577 0.
-0.010898 -2.4585 0.
0.596399 1.59415 0.
-0.00412055 -2.62011 0.
0.990074 2.72552 0.
-360.912 -938.995 0.
-29.3414 -76.2341 0.
-439.786 -1162.3 0.
-65.5079 -176.974 0.
-37.7759 -99.4001 0.
-496.368 -1348.9 0.
-185.029 -468.341 0.
-101.934 -245.083 0.
-469.167 -1287.56 0.
-292.624 -806.759 0.
-132.335 -328.874 0.
-589.693 -1566.69 0.
-539.412 -1445.99 0.
-417.863 -1108.75 0.
-378.379 -1014.38 0.
-339.477 -919.418 0.
-436.182 -1013.92 0.
-414.89 -961.56 0.
-395.153 -907.642 0.
-443.465 -1009.43 0.
-430.124 -968.389 0.
-417.106 -927.028 0.
-544.225 -1230.41 0.
-515.95 -1205.82 0.
-629.085 -1277.98 0.
-435.784 -1163.4 0.
-436.696 -1169.7 0.
-379.271 -840.332 0.
-413.167 -934.463 0.
-447.989 -1027.67 0.
-402.853 -914.154 0.
-415.782 -954.226 0.
-430.099 -992.911 0.
-335.466 -852.623 0.
-385.194 -982.819 0.
-436.33 -1111.61 0.
-518.447 -1395.35 0.
-592.007 -1578.48 0.
-155.984 -348.262 0.
-325.347 -745.387 0.
-529.342 -1390.01 0.
-86.3663 -220.949 0.
-88.0683 -221.982 0.
-510.779 -1359.88 0.
-51.8222 -135.064 0.
-44.2646 -110.975 0.
-366.353 -853.211 0.
-73.6795 -196.925 0.
-360.258 -997.607 0.
0.0425048 2.38987 0.
1.45237 4.01701 0.
-0.482087 -1.32789 0.
-0.00258144 -4.12477 0.
2.64991 7.20022 0.
-0.0477147 -1.91612 0.
3.01005 8.17242 0.
-256.515 -646.941 0.
-5.67105 -15.6212 0.
-8.34013 -22.7045 0.
-55.6479 -148.962 0.
-140.769 -389.057 0.
0.256431 0.708521 0.
-365.581 -1009.65 0.
1.26126 3.44048 0.
-239.883 -656.675 0.
-66.2919 -170.536 0.
13.063 33.1665 0.
-1.68052 -37.5369 0.
10.967 26.4102 0.
-2.40783 -35.5868 0.
-8.35049 -19.8093 0.
-5.7132 -13.6997 0.
-183.469 -484.683 0.
-1.49961 -40.4685 0.
3.67617 8.0923 0.
-2.13276 -29.2249 0.
-3.50002 -7.98965 0.
2.39267 5.55257 0.
3.96931 9.36086 0.
-12.7521 -30.522 0.
11.476 27.6048 0.
-607.107 -1533 0.
-122.858 -312.999 0.
-0.881386 -2.2655 0.
-482.941 -1311.45 0.
-0.303615 -29.3633 0.
-4.60103 -12.7285 0.
-0.00784764 -0.0217007 0.
3.16305 8.74258 0.
-691.891 -1767.29 0.
2.58161 6.5093 0.
3.86194 9.63971 0.
-1264.72 -3446.8 0.
4.84997 13.2725 0.
-1262.83 -3487.37 0.
-64.8223 -178.695 0.
0.71266 1.97334 0.
-1794.93 -4845.18 0.
-49.8848 -137.429 0.
-0.00905623 -2.04663 0.
-1691.63 -4472.7 0.
-38.1321 -102.206 0.
-1372.03 -3441.72 0.
-508.718 -1295.52 0.
-49.2983 -130.271 0.
-1053.65 -2713.16 0.
-517.806 -1382.07 0.
-49.8011 -130.718 0.
-746.628 -1946.57 0.
-441.703 -1203.19 0.
-159.437 -437.149 0.
-650.816 -1678.67 0.
-497.225 -1337.13 0.
-384.002 -981.4 0.
-321.35 -833.272 0.
-260.692 -683.149 0.
-363.026 -819.843 0.
-338.466 -755.568 0.
-315.445 -689.754 0.
-361.839 -761.782 0.
-317.533 -647.954 0.
-237.186 -570.166 0.
-386.177 -844.412 0.
-367.32 -791.054 0.
-503.637 -879.145 0.
-302.885 -787.129 0.
-332.009 -865.244 0.
-248.87 -616.189 0.
-314.564 -668.791 0.
-345.59 -756.06 0.
-304.207 -633.018 0.
-348.522 -750.241 0.
-394.426 -865.876 0.
-269.083 -686.841 0.
-339.43 -865.485 0.
-412.693 -1041.21 0.
-501.592 -1342.08 0.
-684.457 -1767.45 0.
-121.437 -263.919 0.
-481.394 -1273.69 0.
-870.746 -2254.05 0.
-67.0955 -177.56 0.
-496.506 -1289.12 0.
-1175.66 -2968.36 0.
-54.1347 -139.885 0.
-424.188 -1012.41 0.
-1437.23 -3541.69 0.
-102.233 -263.648 0.
-1755.47 -4673.29 0.
1.84918 4.89929 0.
-0.000105378 -4.26483 0.
-1801.92 -4938.6 0.
2.86801 7.75426 0.
-114.582 -303.101 0.
-1376.14 -3711.13 0.
5.86306 16.2251 0.
-1110.93 -3076.99 0.
-62.7008 -148.855 0.
-73.1754 -176.54 0.
-463.596 -1222.54 0.
-167.818 -463.732 0.
-32.4477 -89.6197 0.
7.52932 20.1038 0.
12.112 32.558 0.
-478.401 -1293.35 0.
-332.534 -856.031 0.
-211.31 -536.619 0.
-343.785 -834.754 0.
-4.84798 -11.6398 0.
9.01107 21.4677 0.
6.43515 15.2281 0.
-0.108165 -0.249862 0.
12.8547 33.7106 0.
3.74878 9.38997 0.
-3.06203 -30.4662 0.
-149.399 -361.468 0.
2.75977 6.2918 0.
-4.86883 -11.2874 0.
-128.794 -303.4 0.
-360.229 -855.77 0.
-12.6645 -30.2387 0.
0.392826 0.944895 0.
12.0422 29.292 0.
-8.34207 -20.5132 0.
-229.822 -601.7 0.
-0.454794 -1.1833 0.
-488.764 -1325.16 0.
-12.2917 -33.3079 0.
-6.96411 -18.8521 0.
-319.878 -807.279 0.
0.789585 1.96816 0.
8.27945 20.4133 0.
-425.225 -1175.49 0.
-0.00167876 -10.5843 0.
-142.891 -392.905 0.
2.67058 7.395 0.
2.379 6.55661 0.
-19.1844 -52.9589 0.
1.25667 3.4659 0.
2.29732 6.01545 0.
-328.814 -899.926 0.
-13.7747 -37.2219 0.
-390.401 -991.376 0.
-29.6378 -78.7643 0.
-43.4328 -114.668 0.
-472.912 -1258.39 0.
-35.9073 -97.065 0.
-29.0969 -80.2763 0.
-435.529 -1190.87 0.
-155.542 -421.97 0.
-98.5142 -258.254 0.
-447.428 -1209.11 0.
-309.378 -851.851 0.
-307.526 -817.867 0.
-245.206 -669.38 0.
-187.856 -515.922 0.
-294.343 -729.683 0.
-269.822 -665.362 0.
-245.335 -601.006 0.
-331.967 -720.767 0.
-288.106 -606.487 0.
-213.822 -522.63 0.
-367.909 -807.93 0.
-349.323 -754.3 0.
-385.298 -776.506 0.
-271.813 -723.749 0.
-300.636 -802.169 0.
-220.351 -567.343 0.
-279.165 -626.829 0.
-313.31 -710.983 0.
-210.069 -534.288 0.
-263.188 -642.723 0.
-307.817 -759.65 0.
-165.679 -458.872 0.
-233.013 -640.572 0.
-306.024 -816.594 0.
-284.148 -781.681 0.
-451.702 -1222.61 0.
-86.7245 -214.178 0.
-110.917 -261.599 0.
-466.542 -1276.68 0.
-44.0637 -121.203 0.
-64.1658 -172.664 0.
-421.629 -1069.36 0.
-21.0803 -57.8851 0.
-21.7649 -59.1216 0.
-309.529 -722.428 0.
-57.8505 -143.462 0.
-302.958 -816.844 0.
-0.217606 -4.04547 0.
0.967008 2.60786 0.
-56.9549 -157.525 0.
-0.0158933 -9.60026 0.
-5.53731 -15.0401 0.
-261.723 -700.181 0.
5.57963 15.3599 0.
-293.391 -808.453 0.
-30.6412 -72.7638 0.
-41.604 -100.396 0.
-397.914 -972.845 0.
-17.7015 -47.7977 0.
-447.132 -1215.2 0.
-154.711 -402.078 0.
7.84586 20.2335 0.
-2.11133 -5.40093 0.
-5.48864 -13.2826 0.
14.621 35.0987 0.
-50.2545 -121.239 0.
8.0013 19.1562 0.
-83.9287 -199.212 0.
-234.824 -553.834 0.
-2.9967 -34.4505 0.
-161.375 -426.67 0.
-3.79309 -9.56403 0.
5.93644 13.6607 0.
-2.58037 -23.0164 0.
19.1247 38.0339 0.
0.702734 1.45442 0.
2.17116 4.67214 0.
12.5887 27.6269 0.
-3.52002 -34.887 0.
4.81367 11.5811 0.
0.378624 0.921335 0.
-19.8402 -48.8109 0.
-678.285 -1762.16 0.
-5.83338 -15.0664 0.
-336.73 -868.068 0.
-103.245 -278.385 0.
-3.31034 -8.91296 0.
-352.849 -881.471 0.
5.79324 14.273 0.
-1.35019 -23.18 0.
-4.30179 -11.9014 0.
3.7125 10.2388 0.
-0.00629234 -8.7853 0.
2.47587 6.85101 0.
-0.0596124 -11.1454 0.
-0.00263046 -3.14657 0.
-0.0358535 -3.05499 0.
0.00257233 0.0581256 0.
-25.9644 -70.1702 0.
-9.48059 -25.6706 0.
-12.2552 -33.3121 0.
-24.678 -66.5582 0.
-38.1536 -101.424 0.
-22.9136 -62.0494 0.
-16.4836 -45.1842 0.
-10.2031 -28.0964 0.
-154.811 -404.794 0.
-84.6345 -194.212 0.
-106.23 -252.172 0.
-262.907 -720.684 0.
-162.389 -441.168 0.
-249.247 -636.138 0.
-191.358 -483.192 0.
-158.187 -394.59 0.
-237.719 -627.463 0.
-215.231 -561.102 0.
-193.204 -494.279 0.
-305.737 -676.11 0.
-238.568 -585.132 0.
-195.738 -469.816 0.
-354.653 -766.438 0.
-336.271 -712.601 0.
-351.778 -749.635 0.
-239.605 -661.506 0.
-269.768 -738.591 0.
-212.687 -543.568 0.
-229.075 -599.558 0.
-288.481 -658.457 0.
-158.458 -418.694 0.
-191.085 -521.975 0.
-234.306 -640.325 0.
-112.13 -296.33 0.
-144.934 -399.977 0.
-211.595 -579.737 0.
-131.419 -288.941 0.
-244.362 -652.354 0.
-97.7197 -233.539 0.
-80.9541 -207.658 0.
-103.775 -257.875 0.
-23.1347 -63.8368 0.
-43.1687 -118.438 0.
-65.0529 -175.547 0.
-15.6226 -43.2033 0.
-15.0548 -41.3972 0.
-18.1078 -49.1884 0.
-27.5379 -67.4484 0.
-33.2928 -76.5675 0.
4.48041 10.3882 0.
3.14588 8.11454 0.
0.243975 0.662775 0.
0.458091 1.26861 0.
-0.0230534 -12.5054 0.
-10.4408 -28.429 0.
7.3776 20.1027 0.
6.26422 17.0395 0.
-17.6665 -41.9655 0.
-28.5001 -68.7802 0.
-314.863 -770.83 0.
-3.59041 -9.59871 0.
-425.531 -1145 0.
-0.856144 -27.4339 0.
-3.80979 -9.73996 0.
-417.024 -1057.54 0.
-46.9133 -112.796 0.
-71.5547 -170.664 0.
-3.09699 -33.8314 0.
17.4069 38.9223 0.
3.8847 8.50645 0.
12.9325 27.7606 0.
-4.27606 -28.0767 0.
-0.850805 -2.0545 0.
-32.4382 -82.4536 0.
-2.85634 -19.7044 0.
1.47206 3.24519 0.
-6.08423 -34.6846 0.
9.05797 18.7161 0.
-11.3662 -24.4613 0.
0.819115 1.77952 0.
-402.38 -896.346 0.
-291.104 -701.231 0.
-128.584 -313.074 0.
-108.128 -266.157 0.
-19.1522 -49.4805 0.
-1.03789 -30.7439 0.
10.8306 27.5303 0.
-199.616 -533.271 0.
6.06517 16.0387 0.
-46.2506 -111.702 0.
8.02178 19.5294 0.
5.86175 14.3911 0.
-932.028 -2578.87 0.
2.84699 7.85889 0.
-1152.87 -3168.2 0.
-101.809 -281.217 0.
-25.6246 -70.9656 0.
-1539.44 -4263.15 0.
3.1401 8.67376 0.
1.666 4.49539 0.
-1614.86 -4428.06 0.
-26.1404 -69.4784 0.
-1533.84 -3874.43 0.
-330.046 -823.515 0.
-32.1838 -87.5238 0.
-1300.98 -3331.02 0.
-409.651 -1048.09 0.
-78.1201 -204.968 0.
-962.552 -2584.89 0.
-474.586 -1302.87 0.
-94.5693 -260.344 0.
-788.275 -2118.29 0.
-503.597 -1374.4 0.
-571.394 -1499.73 0.
-436.877 -1176.7 0.
-311.345 -844.687 0.
-436.396 -1197.43 0.
-361.085 -998.005 0.
-287.939 -796.412 0.
-405.108 -1027.23 0.
-370.783 -933.111 0.
-323.01 -852.435 0.
-485.439 -1169.55 0.
-467.061 -1114.54 0.
-445.402 -1085.97 0.
-372.113 -1014.66 0.
-389.207 -1068.89 0.
-299.327 -812.553 0.
-356.32 -956.22 0.
-409.949 -1103.25 0.
-286.402 -792.552 0.
-370.832 -1024.66 0.
-458.03 -1253.99 0.
-280.727 -761.761 0.
-445.562 -1191.66 0.
-622.711 -1609.24 0.
-521.808 -1395.47 0.
-873.7 -2311.31 0.
-122.209 -328.392 0.
-460.622 -1238.62 0.
-1096.59 -2914.15 0.
-72.774 -197.108 0.
-316.991 -817.1 0.
-1411.57 -3640.57 0.
-38.7984 -105.657 0.
-295.307 -703.012 0.
-1571.43 -3865.88 0.
-55.9926 -153.376 0.
-1688.91 -4605.73 0.
-1.9057 -5.1833 0.
-18.1956 -50.184 0.
-1552.37 -4299.33 0.
-4.12094 -11.33 0.
-3.68891 -10.1015 0.
-940.54 -2577.08 0.
1.80047 4.84469 0.
-662.5 -1794.81 0.
-34.822 -85.1558 0.
-80.425 -198.165 0.
-142.615 -354.387 0.
4.12831 10.8819 0.
-275.15 -732.718 0.
8.72168 22.2808 0.
-11.8643 -30.0465 0.
-150.557 -378.052 0.
-362.695 -864.793 0.
-296.785 -702.347 0.
-377.423 -860.99 0.
-130.19 -290.289 0.
9.05991 19.7596 0.
2.94235 6.3653 0.
11.3161 23.4042 0.
-0.744984 -1.79714 0.
4.67729 10.7819 0.
10.4378 21.6908 0.
-160.778 -355.818 0.
10.168 20.0896 0.
1.28786 2.65744 0.
-291.638 -629.46 0.
-119.466 -256.857 0.
10.8155 22.844 0.
0.987604 2.26783 0.
12.6757 29.1818 0.
-3.72921 -8.60765 0.
10.918 26.794 0.
5.49739 13.7192 0.
-74.0874 -187.757 0.
-296.333 -779.605 0.
8.15836 21.2035 0.
-617.532 -1487.12 0.
-2.02569 -4.91719 0.
-1.19425 -21.4876 0.
-112.483 -309.592 0.
3.94712 10.8243 0.
-142.672 -393.063 0.
1.5811 4.37468 0.
1.11629 3.0918 0.
2.37403 6.55262 0.
2.20319 5.9754 0.
3.67861 9.56796 0.
-153.056 -413.664 0.
-3.87357 -10.7206 0.
-243.952 -617.57 0.
-20.0763 -54.7695 0.
-0.000715784 -1.52256 0.
-357.077 -899.477 0.
-45.2957 -117.012 0.
-58.2439 -150.876 0.
-470.405 -1284.19 0.
-76.4854 -211.585 0.
-59.6787 -162.959 0.
-548.008 -1502.26 0.
-280.314 -740.934 0.
-407.99 -1103.02 0.
-281.165 -772.164 0.
-175.96 -478.44 0.
-366.552 -1014.34 0.
-293.474 -812.641 0.
-221.125 -610.214 0.
-364.15 -935.912 0.
-329.926 -841.679 0.
-305.591 -767.836 0.
-463.734 -1077.06 0.
-443.55 -1023.85 0.
-388.658 -1018.52 0.
-340.847 -921.151 0.
-359.256 -974.068 0.
-269.349 -720.013 0.
-306.08 -844.104 0.
-358.344 -992.516 0.
-209.428 -572.38 0.
-286.396 -792.38 0.
-370.796 -1024.57 0.
-144.553 -372.065 0.
-260.137 -684.373 0.
-423.501 -1115.95 0.
-247.986 -539.56 0.
-565.043 -1490.98 0.
-93.709 -258.791 0.
-106.691 -290.673 0.
-455.313 -1210.9 0.
-35.7568 -98.5576 0.
-61.4178 -165.89 0.
-283.386 -736.131 0.
-19.6016 -53.9892 0.
-48.5733 -132.944 0.
-192.398 -490.34 0.
-0.0117843 -4.17981 0.
-166.311 -457.625 0.
4.15997 11.069 0.
-2.17462 -5.92148 0.
-88.5924 -244.363 0.
3.60433 9.88333 0.
1.05405 2.87693 0.
4.98437 13.5284 0.
2.40885 6.32678 0.
-266.118 -703.629 0.
6.51195 16.0494 0.
-65.4273 -162.222 0.
-605.027 -1501.31 0.
6.42263 16.6418 0.
-359.668 -928.251 0.
10.2216 25.0772 0.
7.93855 19.2943 0.
-7.86095 -18.9251 0.
3.18691 7.27408 0.
-9.47132 -21.5275 0.
10.2615 22.6145 0.
-36.0141 -79.9964 0.
7.79299 16.9269 0.
-263.652 -575.44 0.
1.4423 3.00555 0.
10.3051 20.442 0.
-37.7074 -86.5138 0.
7.93508 16.0555 0.
-2.30145 -17.3454 0.
17.3638 32.366 0.
-3.48801 -19.4484 0.
0.55196 1.14741 0.
-4.2491 -29.1247 0.
9.45369 20.0705 0.
12.7733 27.7026 0.
5.01173 11.5073 0.
-316.044 -729.143 0.
-578.094 -1403.23 0.
-99.7883 -247.005 0.
-162.841 -409.645 0.
-392.037 -1014.11 0.
-97.526 -248.769 0.
-198.448 -474.805 0.
-45.1054 -109.073 0.
-5.56205 -13.5769 0.
-177.068 -483.946 0.
-2.47943 -6.73561 0.
-705.233 -1945.51 0.
-5.2587 -14.4877 0.
-1.53206 -4.21875 0.
-1133.37 -3077.2 0.
4.2413 11.3594 0.
-0.125209 -5.79843 0.
-1311.89 -3627.79 0.
-17.6036 -48.6883 0.
-1285.52 -3355.09 0.
-66.9194 -175.009 0.
-30.7397 -83.8291 0.
-1366.09 -3596.36 0.
-194.711 -511.119 0.
-24.4106 -66.1707 0.
-1054.14 -2805.55 0.
-348.763 -935.581 0.
-34.1144 -94.3376 0.
-829.452 -2208 0.
-420.755 -1122.29 0.
-557.56 -1443.19 0.
-352.729 -939.683 0.
-158.195 -425.875 0.
-407.839 -1097.35 0.
-300.161 -818.427 0.
-195.338 -536.646 0.
-340.278 -876.181 0.
-272.432 -697.977 0.
-206.224 -518.133 0.
-364.605 -811.148 0.
-340.908 -735.102 0.
-248.061 -656.736 0.
-252.9 -671.521 0.
-293.272 -783.707 0.
-196.561 -533.817 0.
-269.91 -747.415 0.
-346.107 -958.165 0.
-177.949 -485.848 0.
-315.324 -859.898 0.
-460.171 -1226.48 0.
-136.996 -360.226 0.
-383.887 -1008.13 0.
-642.248 -1644.56 0.
-434.074 -1084.41 0.
-929.915 -2414.38 0.
-32.1273 -86.6968 0.
-270.127 -710.134 0.
-1146.61 -3066.93 0.
-14.9785 -40.2728 0.
-89.6896 -236.165 0.
-1448.93 -3852.3 0.
-62.8089 -167.248 0.
-95.5175 -246.757 0.
-1279.43 -3191.63 0.
-0.149153 -0.400797 0.
-1292.68 -3577.75 0.
-0.651571 -1.70441 0.
3.02087 7.90443 0.
-905.083 -2418.76 0.
-4.60858 -12.7647 0.
-114.964 -318.421 0.
-329.766 -892.082 0.
-2.49533 -6.3619 0.
-24.0108 -61.9373 0.
6.14963 15.2616 0.
-40.8736 -102.006 0.
-261.697 -654.754 0.
-35.2773 -89.6307 0.
-521.411 -1322.58 0.
-193.546 -473.239 0.
-19.2564 -46.6109 0.
-282.014 -675.679 0.
-312.393 -705.343 0.
7.09741 15.9688 0.
-2.63964 -5.87801 0.
-4.61844 -10.0391 0.
6.85895 14.5297 0.
6.14129 13.0165 0.
13.7613 27.3698 0.
3.06473 5.69721 0.
-1.5596 -3.39572 0.
-3.01068 -6.07238 0.
7.53475 15.9892 0.
-2.51603 -4.69046 0.
10.0407 19.8507 0.
-252.914 -529.839 0.
1.50564 3.1424 0.
-392.249 -835.516 0.
-153.515 -334.561 0.
-52.1447 -119.471 0.
-93.0411 -213.842 0.
-90.3554 -217.937 0.
-4.62113 -11.1133 0.
-32.8471 -80.0589 0.
-71.468 -178.323 0.
-0.62937 -1.56171 0.
-116.719 -278.579 0.
-45.7069 -108.09 0.
-80.6557 -188.748 0.
-637.845 -1641.96 0.
2.75299 6.97922 0.
-374.818 -1033.82 0.
-16.5796 -45.6819 0.
-1.08519 -2.98848 0.
-376.287 -1000.68 0.
4.45685 11.6802 0.
2.23851 5.73906 0.
-267.856 -741.51 0.
-0.0368718 -4.16048 0.
-281.67 -714.623 0.
0.122501 0.321668 0.
-0.284348 -0.773149 0.
-371.757 -998.246 0.
-32.996 -91.3569 0.
-0.0128179 -1.33451 0.
-421.126 -1124.46 0.
-46.5054 -125.227 0.
-28.8105 -78.5823 0.
-478.252 -1288.92 0.
-115.442 -302.718 0.
-344.631 -919.793 0.
-150.745 -405.064 0.
-71.2211 -195.818 0.
-307.586 -840.312 0.
-203.518 -557.704 0.
-131.454 -354.197 0.
-265.474 -735.183 0.
-200.179 -554.4 0.
-144.759 -400.473 0.
-313.581 -629.094 0.
-305.709 -598.468 0.
-212.486 -566.836 0.
-215.563 -575.24 0.
-233.589 -622.781 0.
-163.806 -449.831 0.
-197.552 -540.451 0.
-271.994 -752.998 0.
-99.7096 -272.526 0.
-180.761 -492.229 0.
-318.542 -866.007 0.
-91.2698 -250.28 0.
-121.391 -323.928 0.
-371.358 -969.194 0.
-109.702 -272.513 0.
-492.46 -1245.62 0.
-32.5793 -88.2684 0.
-63.8308 -171.598 0.
-403.507 -1081.97 0.
-2.13755 -5.7906 0.
-17.7457 -47.6127 0.
-371.637 -1000.85 0.
-14.0913 -38.3674 0.
-31.8233 -85.5341 0.
-301.132 -745.708 0.
0.59498 1.50151 0.
-279.665 -751.646 0.
-1.54754 -4.07898 0.
-0.232939 -11.0129 0.
-320.008 -854.567 0.
-109.661 -302.679 0.
-159.269 -439.923 0.
-564.918 -1560.91 0.
-4.59999 -11.2275 0.
-671.737 -1679.18 0.
-67.2497 -161.755 0.
-54.6016 -131.759 0.
-56.3622 -136.384 0.
-4.49304 -10.8401 0.
-30.8424 -74.4944 0.
9.11102 21.6784 0.
-79.4268 -191.399 0.
-413.399 -984.944 0.
-137.131 -306.61 0.
-80.8058 -179.885 0.
-128.716 -289.735 0.
-243.391 -535.085 0.
-3.3372 -26.1832 0.
-224.725 -481.752 0.
-3.69156 -21.9365 0.
12.8837 24.0164 0.
-1.59264 -14.7284 0.
-2.53701 -5.09903 0.
-11.844 -25.1353 0.
9.14182 17.0479 0.
3.33784 6.6268 0.
-5.38829 -10.2716 0.
9.8994 19.0677 0.
8.1567 16.2425 0.
6.73136 13.8506 0.
2.75509 5.97802 0.
10.1443 22.3985 0.
-1.88893 -26.7913 0.
-13.6281 -32.8532 0.
-121.712 -297.228 0.
-461.963 -1133.8 0.
0.878572 2.1459 0.
-611.58 -1457.38 0.
-39.7618 -94.5224 0.
-24.1479 -56.8409 0.
-597.804 -1496.98 0.
5.11912 12.5689 0.
-74.7724 -206.154 0.
-28.3799 -78.2029 0.
-2.18775 -6.02531 0.
5.15984 13.4713 0.
-0.3706 -10.6687 0.
0.663747 1.65397 0.
-28.9593 -78.3837 0.
-0.153354 -4.84661 0.
0.757851 1.90174 0.
0.538511 1.41404 0.
-0.0292489 -3.2745 0.
-54.0055 -148.21 0.
-4.65847 -12.413 0.
0.769959 1.93778 0.
-59.8638 -155.707 0.
-37.3633 -97.0951 0.
-32.7686 -86.622 0.
-136.837 -360.059 0.
-91.5772 -249.97 0.
-142.674 -385.419 0.
-77.6443 -214.681 0.
-72.8136 -201.454 0.
-211.268 -579.335 0.
-130.496 -353.825 0.
-115.558 -307.097 0.
-220.368 -610.11 0.
-173.882 -481.497 0.
-128.546 -356.037 0.
-309.189 -575.016 0.
-307.229 -560.726 0.
-198.547 -508.615 0.
-226.265 -595.145 0.
-228.883 -601.216 0.
-148.103 -407.502 0.
-158.828 -435.079 0.
-216.231 -594.787 0.
-98.5125 -268.063 0.
-92.6719 -251.197 0.
-184.062 -498.388 0.
-80.2283 -221.953 0.
-78.9054 -218.336 0.
-105.901 -288.396 0.
-80.0041 -209.482 0.
-71.3374 -184.81 0.
-36.5223 -99.4646 0.
-60.8616 -165.003 0.
-94.7399 -256.892 0.
-0.2946 -0.800035 0.
-1.44868 -3.90789 0.
-22.0659 -59.158 0.
-0.286747 -0.786806 0.
-2.02156 -5.50667 0.
-15.1504 -40.8868 0.
-0.70123 -9.70034 0.
-0.373581 -10.4562 0.
2.93337 7.78531 0.
1.4354 3.81248 0.
-1.1445 -3.04257 0.
-230.308 -629.147 0.
-282.888 -774.281 0.
-403.615 -1106.46 0.
-1.32976 -22.337 0.
-484.582 -1206.43 0.
-22.7272 -54.3623 0.
-48.3225 -115.891 0.
-549.602 -1310.64 0.
-12.0103 -28.6747 0.
-411.115 -982.326 0.
-31.5767 -74.5781 0.
2.47617 5.77862 0.
-1.25789 -2.90006 0.
12.3762 26.3531 0.
-7.20196 -14.9932 0.
-1.0741 -2.25764 0.
-4.86916 -29.9465 0.
-1.79208 -3.48527 0.
-34.4023 -74.7622 0.
8.20663 16.5972 0.
0.337927 0.632028 0.
-1.28517 -13.1412 0.
1.85255 3.48138 0.
-14.2213 -27.8694 0.
2.47681 4.34092 0.
5.69961 10.4541 0.
-8.86077 -16.9918 0.
-8.30074 -15.9573 0.
-224.88 -446.819 0.
-45.8391 -94.3438 0.
-9.71506 -20.7633 0.
-444.73 -970.259 0.
-363.654 -864.458 0.
-111.197 -268.668 0.
-142.437 -348.886 0.
-262.381 -634.412 0.
2.75402 6.61667 0.
-57.0594 -137.623 0.
-0.439715 -1.04669 0.
-118.724 -285.773 0.
-133.292 -332.009 0.
3.92584 9.50445 0.
-442.421 -1219.32 0.
-0.0309543 -13.1649 0.
-0.0338153 -12.45 0.
-725.841 -1899.54 0.
-14.4049 -38.0212 0.
-31.9704 -85.1568 0.
-1219.6 -3346.96 0.
0.299567 0.792709 0.
-1047.54 -2743.76 0.
-123.559 -319.699 0.
-24.86 -65.9479 0.
-1398.74 -3798.51 0.
-73.3286 -202.833 0.
-30.7985 -83.854 0.
-1236.98 -3299.04 0.
-165.932 -450.412 0.
-58.8321 -162.021 0.
-964.341 -2542.26 0.
-307.653 -799.475 0.
-694.818 -1836.15 0.
-390.798 -1042.23 0.
-124.36 -343.991 0.
-554.038 -1505.16 0.
-368.382 -1013.71 0.
-188.347 -520.477 0.
-432.262 -1196.48 0.
-342.464 -946.786 0.
-253.26 -696.5 0.
-468.686 -1017.1 0.
-445.464 -957.962 0.
-254.162 -703.233 0.
-335.217 -926.786 0.
-379.098 -1048.55 0.
-225.771 -618.071 0.
-349.169 -967 0.
-474.432 -1314.07 0.
-156.496 -428.106 0.
-380.327 -1044.66 0.
-619.603 -1682.07 0.
-131.628 -364.303 0.
-381.602 -988.769 0.
-756.794 -1941.14 0.
-250.245 -632.153 0.
-1094.51 -2819.23 0.
-77.484 -212.948 0.
-103.227 -280.174 0.
-1251.69 -3319.06 0.
-1.4092 -3.90231 0.
-98.5143 -270.644 0.
-1358.12 -3738.99 0.
-12.9848 -34.9734 0.
-147.816 -379.405 0.
-975.145 -2469.53 0.
-0.348651 -11.2517 0.
-1086.69 -2883.25 0.
-42.7754 -115.047 0.
-1.40858 -3.83082 0.
-493.929 -1338.14 0.
-104.351 -288.092 0.
-309.982 -857.702 0.
-310.613 -789.251 0.
1.54282 3.8442 0.
-66.3266 -163.209 0.
4.59292 10.6109 0.
9.68376 23.0824 0.
8.85478 21.1738 0.
-26.666 -62.9676 0.
-325.144 -767.656 0.
-261.753 -613.015 0.
-232.297 -537.522 0.
-176.403 -403.308 0.
-556.873 -1186.42 0.
0.201849 0.417898 0.
1.04501 2.18904 0.
-1.06269 -2.13763 0.
2.96813 5.73129 0.
-1.83138 -3.54727 0.
5.31716 9.83709 0.
-1.72832 -3.04627 0.
0.461759 0.96151 0.
6.44749 12.2386 0.
-57.6169 -114.289 0.
-4.61496 -17.6377 0.
8.26825 15.2417 0.
-208.702 -402.973 0.
9.71236 18.6412 0.
-22.5514 -44.8512 0.
-147.292 -303.286 0.
-1.99347 -4.19101 0.
3.69933 7.56358 0.
11.274 25.2291 0.
7.5502 16.8609 0.
-2.21349 -21.1404 0.
3.1333 6.97573 0.
-1.52022 -3.44774 0.
-33.9137 -79.2316 0.
-4.73564 -11.1928 0.
-128.955 -308.559 0.
-380.033 -930.829 0.
-3.25806 -7.72525 0.
-571.053 -1569.12 0.
-13.4531 -36.9282 0.
-0.735839 -2.01736 0.
-276.931 -726.51 0.
-40.8926 -108.27 0.
-67.2519 -179.687 0.
-113.023 -301.291 0.
3.39441 8.55205 0.
-303.537 -792.049 0.
-0.868166 -2.287 0.
1.91444 5.16756 0.
-233.648 -645.277 0.
-14.5811 -40.1339 0.
-2.4398 -6.60921 0.
-366.314 -995.197 0.
-47.764 -131.892 0.
-13.5183 -36.686 0.
-461.183 -1211.73 0.
-91.554 -253.573 0.
-393.95 -1050.27 0.
-114.192 -315.626 0.
-113.252 -313.483 0.
-365.799 -1004.93 0.
-184.071 -509.309 0.
-119.324 -326.838 0.
-348.579 -934.726 0.
-266.667 -703.117 0.
-226.641 -570.28 0.
-407.115 -866.172 0.
-385.125 -800.632 0.
-217.411 -602.082 0.
-269.208 -745.474 0.
-308.776 -855.197 0.
-186.323 -510.123 0.
-234.19 -644.997 0.
-358.555 -993.066 0.
-133.85 -370.152 0.
-152.095 -419.466 0.
-385.707 -1055.56 0.
-113.767 -315.071 0.
-115.08 -317.457 0.
-352.916 -897.205 0.
-97.9649 -271.143 0.
-452.883 -1162.88 0.
-30.6107 -84.7329 0.
-27.61 -76.3428 0.
-262.053 -692.001 0.
0.0657373 0.181147 0.
-18.904 -52.351 0.
-368.779 -1021.41 0.
1.3612 3.74644 0.
1.25029 3.33969 0.
-280.37 -772.194 0.
-0.426237 -10.31 0.
-95.7815 -246.335 0.
-130.918 -344.43 0.
-31.1678 -83.4017 0.
-260.931 -701.543 0.
-34.927 -96.2594 0.
-250.204 -691.519 0.
-45.2822 -113.117 0.
6.91359 16.9933 0.
-331.769 -807.95 0.
-132.01 -302.185 0.
-30.8108 -70.0311 0.
-31.6465 -71.5597 0.
-33.0723 -73.7191 0.
-22.2879 -49.3122 0.
-0.801717 -1.74948 0.
-2.88985 -23.7508 0.
6.42428 13.7684 0.
-0.930891 -1.85513 0.
-197.428 -407.157 0.
-273.467 -572.12 0.
0.658177 1.31656 0.
5.98411 11.4667 0.
-339.366 -666.704 0.
3.56599 6.70593 0.
-1.51067 -2.70211 0.
5.86184 12.1257 0.
-1.79028 -3.48848 0.
0.90061 1.7855 0.
-3.85892 -13.3506 0.
4.58432 8.08498 0.
8.25668 15.1131 0.
-0.0299858 -0.0546687 0.
-8.07841 -15.4218 0.
7.69818 15.3765 0.
13.3441 27.1472 0.
-21.3983 -44.0558 0.
-4.93277 -10.8547 0.
-58.1181 -127.518 0.
-118.238 -258.568 0.
-668.451 -1474.16 0.
-252.403 -568.022 0.
-344.86 -802.436 0.
-87.6968 -205.898 0.
-128.775 -306.19 0.
-217.194 -521.413 0.
0.386259 0.897743 0.
-1.66191 -16.4433 0.
-55.9224 -152.898 0.
-115.916 -316.582 0.
-257.294 -677.24 0.
-36.5387 -92.7498 0.
-67.3004 -169.798 0.
-839.572 -2097.75 0.
4.66341 11.382 0.
-959.892 -2504.56 0.
-252.885 -672.393 0.
-90.8907 -245.74 0.
-1006.28 -2782.31 0.
-24.2138 -67.0248 0.
0.980842 2.71386 0.
-1092.9 -2918.06 0.
-84.413 -233.344 0.
-41.6767 -115.172 0.
-990.886 -2584.21 0.
-133.947 -365.478 0.
-733.602 -1841.62 0.
-335.734 -854.656 0.
-86.7142 -240.11 0.
-572.576 -1524.69 0.
-302.343 -818.131 0.
-112.17 -310.598 0.
-425.04 -1130.58 0.
-295.051 -783.731 0.
-167.769 -434.171 0.
-398.349 -880.167 0.
-359.23 -764.653 0.
-174.633 -483.416 0.
-259.456 -718.613 0.
-335.252 -926.746 0.
-113.671 -314.099 0.
-294.409 -811.95 0.
-479.901 -1310.31 0.
-84.3671 -233.401 0.
-313.997 -837.665 0.
-654.774 -1720.52 0.
-79.3675 -219.825 0.
-302.276 -759.341 0.
-803.998 -1973.59 0.
-108.995 -301.61 0.
-981.042 -2578.54 0.
-26.6022 -73.6773 0.
-84.1511 -229.875 0.
-1054.12 -2839.16 0.
-20.1285 -55.7224 0.
-96.9359 -266.38 0.
-750.341 -2077.97 0.
-130.64 -361.48 0.
-826.342 -2266.71 0.
-80.089 -196.94 0.
-31.3266 -78.5292 0.
-407.382 -1030.04 0.
-80.3336 -206.777 0.
-23.4543 -61.6158 0.
-243.358 -643.925 0.
-16.2796 -44.7599 0.
-229.749 -634.03 0.
-14.6925 -36.1602 0.
-90.286 -218.737 0.
-366.96 -877.509 0.
-278.234 -631.026 0.
-325.864 -734.78 0.
-382.3 -857.034 0.
-248.594 -555.126 0.
-386.823 -857.535 0.
-50.2506 -109.139 0.
11.9976 25.8252 0.
-16.912 -36.0694 0.
2.68819 5.36915 0.
4.49229 8.76465 0.
-16.5278 -32.7393 0.
3.0251 5.74601 0.
-4.84252 -20.6182 0.
4.91145 9.39342 0.
0.480049 0.888993 0.
-1.28741 -2.30891 0.
3.71168 7.7931 0.
1.04414 2.06119 0.
3.97129 7.97532 0.
0.933661 1.58194 0.
-2.65712 -4.68088 0.
-88.5865 -162.215 0.
-4.73019 -8.5951 0.
-400.93 -765.722 0.
-15.2731 -30.9152 0.
-118.542 -242.816 0.
-358.597 -742.551 0.
-162.701 -351.764 0.
-182.778 -393.816 0.
3.9146 8.41026 0.
-26.6685 -58.6121 0.
-141.835 -307.046 0.
0.971947 2.13504 0.
7.67289 16.9537 0.
-5.85609 -13.019 0.
-7.30502 -16.6527 0.
4.41033 10.1555 0.
-311.059 -721.913 0.
-358.06 -967.738 0.
-106.304 -283.842 0.
-271.843 -689.868 0.
-46.9762 -118.841 0.
-78.4793 -197.348 0.
-154.528 -372.345 0.
-1.62695 -3.87765 0.
4.55476 10.6967 0.
-89.5768 -247.34 0.
0.974612 2.69948 0.
-429.845 -1190.57 0.
-0.644653 -1.78538 0.
-0.264424 -0.729451 0.
-266.676 -729.226 0.
-39.1583 -108.461 0.
-13.2483 -36.5134 0.
-389.645 -1046.57 0.
-60.9287 -168.293 0.
-321.428 -824.299 0.
-65.0148 -180.078 0.
-50.9982 -140.491 0.
-318.109 -865.203 0.
-105.768 -292.309 0.
-63.6775 -171.741 0.
-267.749 -735.785 0.
-153.526 -422.908 0.
-89.2681 -247.248 0.
-265.769 -557.34 0.
-237.43 -475.932 0.
-115.768 -320.536 0.
-169.69 -469.009 0.
-217.669 -601.759 0.
-90.3333 -249.494 0.
-137.216 -379.203 0.
-286.002 -788.749 0.
-70.784 -194.284 0.
-90.7635 -250.562 0.
-312.763 -835.511 0.
-55.2373 -152.326 0.
-63.8484 -176.771 0.
-293.17 -750.354 0.
-83.1638 -229.796 0.
-336.306 -902.431 0.
-10.176 -28.1533 0.
-15.8241 -43.7441 0.
-252.388 -684.346 0.
-0.732634 -2.01852 0.
-38.3054 -106.098 0.
-325.084 -900.413 0.
-0.864627 -2.38501 0.
-341.109 -944.113 0.
4.57482 11.206 0.
-20.6259 -51.3983 0.
-144.985 -366.249 0.
-141.141 -361.618 0.
-33.6656 -86.4122 0.
-261.056 -661.1 0.
-33.4512 -88.2767 0.
-628.112 -1657.16 0.
-31.7459 -71.8267 0.
-27.9295 -63.0484 0.
-19.9509 -44.9357 0.
7.89075 16.9557 0.
6.81249 14.6059 0.
5.70616 12.2071 0.
-18.1251 -40.4603 0.
-148.478 -329.258 0.
-121.118 -261.758 0.
-284.901 -609.477 0.
-136.936 -290.469 0.
-467.818 -941.069 0.
-5.15337 -10.074 0.
-116.174 -230.749 0.
-355.511 -677.964 0.
7.89753 14.3415 0.
-24.3111 -46.1649 0.
1.31548 2.41678 0.
4.296 7.6343 0.
1.39873 2.95576 0.
5.62487 11.2535 0.
-45.15 -91.9132 0.
9.334 15.7682 0.
-1.11642 -1.96436 0.
-10.5716 -19.3678 0.
9.50072 17.1998 0.
9.26706 15.8919 0.
7.79496 14.2122 0.
12.0072 22.3682 0.
10.5565 20.1015 0.
9.68218 19.2357 0.
-6.45379 -13.1056 0.
-2.36273 -4.90774 0.
-47.0605 -101.651 0.
-140.628 -306.015 0.
-160.099 -350.246 0.
-74.766 -164.419 0.
-83.3137 -184.303 0.
-630.411 -1425.16 0.
-17.4566 -39.9774 0.
-18.2985 -42.3331 0.
-403.118 -1075.55 0.
-187.011 -491.869 0.
-273.756 -692.992 0.
-52.5157 -132.416 0.
-101.455 -254.317 0.
-12.5228 -29.5624 0.
-1.59803 -3.71751 0.
4.55833 10.4285 0.
0.46902 1.29337 0.
0.715476 1.95038 0.
0.507386 1.4053 0.
-0.158195 -0.437476 0.
1.375 3.7771 0.
-36.3014 -100.396 0.
-10.0398 -27.7808 0.
-4.02574 -11.0477 0.
-80.1598 -220.217 0.
-34.3297 -93.9211 0.
-65.2989 -180.821 0.
-50.3471 -139.133 0.
-35.2841 -96.0424 0.
-101.851 -278.51 0.
-71.5762 -191.677 0.
-54.0693 -143.377 0.
-157.504 -434.8 0.
-92.7863 -257 0.
-82.8874 -228.948 0.
-218.682 -458.865 0.
-205.875 -407.683 0.
-161.349 -419.354 0.
-152.781 -411.91 0.
-163.166 -446.074 0.
-88.0725 -240.903 0.
-99.5401 -273.506 0.
-167.741 -464.029 0.
-59.0282 -159.189 0.
-78.1378 -213.148 0.
-97.6682 -268.718 0.
-33.0969 -91.391 0.
-46.1668 -127.867 0.
-69.1404 -190.592 0.
-62.2273 -167.429 0.
-85.431 -234.635 0.
-2.18169 -6.02698 0.
-3.22176 -8.92117 0.
-7.86109 -21.6224 0.
-0.04311 -4.6512 0.
-0.830458 -2.28732 0.
-66.7558 -184.878 0.
2.62183 7.08606 0.
-23.5977 -64.5697 0.
-88.454 -214.677 0.
-113.709 -280.85 0.
-204.902 -513.286 0.
-207.384 -529.051 0.
-128.358 -327.298 0.
-343.556 -865.153 0.
2.35351 6.08789 0.
-427.103 -1107.37 0.
-58.6329 -132.878 0.
-37.2108 -84.1645 0.
-529.984 -1185.45 0.
9.58628 20.4423 0.
-73.318 -155.988 0.
-54.8318 -116.416 0.
-89.7225 -193.104 0.
1.44639 3.07663 0.
2.09453 4.30806 0.
-1.62609 -3.2897 0.
-3.76837 -21.8267 0.
-4.8578 -22.7431 0.
-4.73049 -8.65197 0.
8.40155 15.4507 0.
-3.88441 -18.9509 0.
2.88135 5.21837 0.
-154.351 -290.476 0.
0.10402 0.189442 0.
8.84419 15.5603 0.
-28.9769 -61.6053 0.
-0.534297 -0.99397 0.
5.66253 10.7833 0.
5.64813 9.06763 0.
4.70801 7.75627 0.
-41.4097 -70.0137 0.
0.746621 1.24179 0.
12.1944 20.94 0.
-5.12189 -9.2339 0.
-2.23555 -4.12004 0.
-342.039 -646.084 0.
-46.3989 -90.4554 0.
-178.95 -356.576 0.
-325.917 -664.072 0.
-280.3 -608.612 0.
-202.874 -443.76 0.
-206.885 -449.824 0.
-91.89 -200.915 0.
-86.458 -190.154 0.
-136.425 -307.138 0.
-1.3433 -2.90711 0.
0.787985 1.7432 0.
-262.795 -691.858 0.
-0.253166 -12.9814 0.
-69.2769 -183.877 0.
-26.918 -71.0455 0.
-0.338269 -0.887403 0.
-325.961 -805.886 0.
-21.517 -52.6948 0.
-98.6333 -239.531 0.
-998.8 -2760.3 0.
-6.12759 -16.891 0.
-652.944 -1808.49 0.
-53.0926 -146.937 0.
-17.626 -48.794 0.
-1058.25 -2884.9 0.
-92.1253 -255.116 0.
-0.632381 -1.71835 0.
-1007.43 -2664.49 0.
-119.607 -330.798 0.
-842.751 -2098.71 0.
-288.342 -766.732 0.
-77.1663 -213.544 0.
-705.775 -1868.25 0.
-300.601 -816.903 0.
-91.9908 -251.995 0.
-535.587 -1460.98 0.
-327.627 -905.615 0.
-153.634 -424.464 0.
-461.044 -1101 0.
-418.747 -976.885 0.
-190.911 -528.518 0.
-335.155 -927.869 0.
-455.552 -1259.03 0.
-105.397 -290.15 0.
-319.858 -880.784 0.
-623.713 -1693.77 0.
-95.0742 -260.954 0.
-300.531 -813.64 0.
-818.781 -2133.75 0.
-100.362 -277.001 0.
-252.025 -671.342 0.
-829.215 -2038.63 0.
-125.309 -341.808 0.
-1016.99 -2737.72 0.
0.573306 1.57956 0.
-69.6282 -192.314 0.
-922.638 -2539.14 0.
-28.8755 -79.9778 0.
-145.639 -401.818 0.
-701.075 -1917.49 0.
-10.9285 -29.8944 0.
-820.691 -2248.59 0.
-51.5314 -130.109 0.
-75.2548 -189.702 0.
-338.305 -846.882 0.
-83.8282 -213.347 0.
-66.5605 -169.487 0.
-84.348 -214.813 0.
-2.31472 -5.82401 0.
-10.6851 -26.7383 0.
6.27332 13.8501 0.
-51.8433 -117.473 0.
-252.319 -568.004 0.
-69.129 -146.234 0.
-175.701 -370.791 0.
-391.906 -825.437 0.
-238.12 -511.958 0.
-142.098 -301.715 0.
-479.608 -977.127 0.
-56.8352 -114.001 0.
-3.28247 -6.47615 0.
-153.351 -283.042 0.
4.22573 7.61535 0.
-27.8114 -51.0898 0.
-10.419 -18.4896 0.
9.41568 16.138 0.
-74.2991 -132.131 0.
-5.52705 -9.50766 0.
-4.65692 -15.1951 0.
-20.9044 -41.0991 0.
4.00039 7.49197 0.
-0.126503 -0.242631 0.
-0.114296 -0.183511 0.
-0.298752 -0.492575 0.
-213.284 -361.514 0.
8.2341 13.7031 0.
-264.777 -455.849 0.
-5.77871 -23.0047 0.
-21.3681 -38.942 0.
-190.301 -355.655 0.
-118.554 -226.289 0.
-31.0168 -57.4707 0.
-105.621 -196.083 0.
6.98762 14.0438 0.
-4.54359 -9.25237 0.
7.55266 15.2127 0.
-1.05875 -2.1396 0.
6.36108 12.8993 0.
-92.2023 -194.695 0.
3.33159 7.20031 0.
-113.939 -251.881 0.
-278.426 -720.16 0.
0.766567 1.9917 0.
-488.713 -1287.22 0.
-23.9861 -63.2631 0.
-20.9527 -54.9343 0.
-375.511 -925.616 0.
-33.1035 -80.7301 0.
-41.725 -100.767 0.
-308.148 -850.35 0.
-0.358305 -0.977907 0.
-349.576 -968.085 0.
-31.692 -87.7009 0.
0.483227 1.32843 0.
-202.516 -560.927 0.
-1.00003 -2.73291 0.
-0.0665405 -3.4529 0.
-233.101 -645.507 0.
-58.6084 -158.325 0.
-239.508 -651.003 0.
-71.8128 -198.557 0.
-42.1743 -115.139 0.
-290.76 -796.012 0.
-92.6783 -254.936 0.
-60.9312 -166.318 0.
-288.168 -794.156 0.
-150.188 -415.975 0.
-90.0124 -241.485 0.
-312.278 -670.386 0.
-267.834 -548.364 0.
-153.131 -365.579 0.
-172.154 -476.491 0.
-246.374 -680.727 0.
-99.7126 -271.737 0.
-125.38 -343.115 0.
-281.023 -772.754 0.
-69.7695 -186.033 0.
-94.4182 -258.549 0.
-272.531 -751.338 0.
-73.6255 -203.353 0.
-77.407 -214.244 0.
-185.402 -505.245 0.
-42.2536 -109.094 0.
-265.638 -733.696 0.
0.530039 1.43689 0.
1.28849 3.56546 0.
-205.27 -567.1 0.
1.29441 3.57864 0.
0.333766 0.92407 0.
-357.514 -982.661 0.
-11.5953 -30.9208 0.
-270.551 -727.644 0.
-14.4269 -36.4546 0.
-37.2063 -93.8859 0.
-529.982 -1324.82 0.
-24.5151 -62.24 0.
-4.38788 -11.1414 0.
-505.207 -1290.96 0.
4.75388 11.7478 0.
-247.547 -609.681 0.
-93.8063 -204.532 0.
1.07301 2.33404 0.
-0.539596 -1.16809 0.
3.09474 6.20291 0.
-0.883933 -1.74744 0.
-4.31111 -8.40876 0.
-1.92999 -3.85244 0.
5.65472 11.2139 0.
-26.2139 -50.1413 0.
-11.956 -23.7723 0.
7.43507 14.5346 0.
-236.37 -428.572 0.
-48.7111 -86.358 0.
-7.16476 -12.3965 0.
-432.954 -763.767 0.
-45.3784 -77.5048 0.
-216.832 -387.558 0.
-28.1685 -48.5815 0.
-4.82945 -8.04543 0.
-31.601 -63.027 0.
0.366226 0.693362 0.
0.111212 0.216089 0.
-4.28359 -12.4718 0.
-3.69442 -6.02911 0.
1.99397 3.32857 0.
-2.13824 -3.45663 0.
-5.11261 -16.2512 0.
10.8481 18.2902 0.
8.52255 14.8257 0.
-4.79635 -19.585 0.
4.31217 8.06514 0.
4.5947 8.61791 0.
-83.7939 -157.429 0.
1.04452 2.0802 0.
-340.872 -687.869 0.
-159.363 -316.661 0.
-252.538 -503.791 0.
-351.091 -703.899 0.
-336.081 -708.269 0.
-158.719 -342.499 0.
-106.969 -236.288 0.
-330.517 -837.704 0.
1.09783 2.79058 0.
-91.5139 -242.416 0.
-69.4442 -182.974 0.
-129.982 -340.257 0.
-110.876 -272.15 0.
-96.4274 -226.935 0.
-90.8233 -212.748 0.
-407.48 -1106.02 0.
-0.0845905 -8.28709 0.
-548.959 -1517.64 0.
-136.009 -376.691 0.
-6.11759 -16.9248 0.
-681.862 -1880.33 0.
-33.2977 -92.0685 0.
0.846705 2.30867 0.
-835.356 -2264.24 0.
-78.9549 -217.865 0.
-720.105 -1826.07 0.
-156.649 -430.091 0.
-59.4366 -164.594 0.
-746.544 -1946.78 0.
-232.924 -639.299 0.
-65.8391 -180.854 0.
-587.67 -1583.99 0.
-290.122 -796.021 0.
-64.4499 -178.504 0.
-466.021 -1158.78 0.
-409.985 -1012.86 0.
-109.668 -303.602 0.
-298.979 -825.951 0.
-507.045 -1373.72 0.
-71.5757 -192.86 0.
-280.37 -766.373 0.
-670.889 -1781.55 0.
-46.8912 -126.517 0.
-184.176 -510.102 0.
-772.793 -2053.98 0.
-96.5784 -263.591 0.
-151.896 -401.647 0.
-699.855 -1727.82 0.
-76.1591 -210.446 0.
-826.463 -2273.89 0.
-0.00751757 -4.10137 0.
-58.9112 -163.166 0.
-677.861 -1875.39 0.
-1.74458 -4.81402 0.
-39.9007 -110.234 0.
-486.762 -1345.48 0.
-42.3382 -106.708 0.
-424.613 -1083.96 0.
-1.25171 -3.08613 0.
-8.15761 -20.5878 0.
-32.6501 -82.3096 0.
-2.98335 -7.54735 0.
5.46854 13.8341 0.
-98.5784 -249.838 0.
-2.87561 -6.96784 0.
-442.871 -1067.97 0.
-172.272 -371.423 0.
-197.6 -423.758 0.
-343.368 -730.856 0.
-279.508 -552.599 0.
-139.838 -273.05 0.
5.11974 9.87487 0.
-355.515 -703.37 0.
9.71838 19.1007 0.
-52.4527 -100.494 0.
9.30478 17.6612 0.
6.75522 12.7056 0.
-93.2283 -162.91 0.
-0.777144 -1.30986 0.
-5.8095 -17.7381 0.
-5.74608 -9.676 0.
-4.46777 -14.3098 0.
-2.70578 -4.81402 0.
-3.32129 -12.2626 0.
1.76099 2.98599 0.
1.6777 3.57242 0.
2.0578 3.94337 0.
5.15952 10.15 0.
3.44489 5.46629 0.
1.34917 2.19085 0.
-3.85626 -6.40941 0.
11.0799 17.6988 0.
-295.029 -481.281 0.
6.59809 10.9594 0.
-4.15051 -7.12055 0.
-387.124 -688.351 0.
-5.07339 -9.59958 0.
-186.246 -352.747 0.
-303.783 -576.821 0.
-60.6238 -119.577 0.
-92.8114 -185.525 0.
-89.2248 -174.958 0.
10.2509 20.1085 0.
6.2032 12.2498 0.
-58.3827 -119.945 0.
-21.7508 -44.2705 0.
2.60812 5.25755 0.
-74.8908 -175.161 0.
0.0973919 0.231383 0.
-116.658 -293.621 0.
-34.7036 -87.2333 0.
-91.7465 -230.327 0.
-273.587 -646.996 0.
-43.2475 -101.642 0.
-19.6735 -46.0359 0.
-276.501 -736.839 0.
0.242997 0.64298 0.
-306.278 -848.317 0.
-17.4261 -48.1984 0.
0.303031 0.83442 0.
-256.701 -710.989 0.
-0.153012 -0.420122 0.
0.811613 2.18018 0.
-258.555 -715.973 0.
-29.9301 -80.1718 0.
-198.669 -541.716 0.
-46.4874 -128.716 0.
-31.7724 -88.0027 0.
-209.731 -576.391 0.
-62.6829 -173.616 0.
-30.6044 -83.8164 0.
-208.247 -573.122 0.
-55.3522 -153.023 0.
-22.042 -60.8209 0.
-183.518 -494.212 0.
-136.325 -365.587 0.
-41.666 -115.365 0.
-66.4306 -183.236 0.
-138.22 -382.843 0.
-37.7494 -99.7005 0.
-67.1278 -184.311 0.
-184.585 -510.661 0.
-21.3246 -56.3318 0.
-58.5625 -157.614 0.
-222.6 -616.266 0.
-41.9228 -116.101 0.
-64.2716 -175.695 0.
-214.238 -561.633 0.
-20.8599 -56.5963 0.
-286.537 -790.819 0.
0.657876 1.78702 0.
1.56126 4.29676 0.
-302.71 -838.199 0.
-1.30362 -3.58191 0.
-15.0141 -41.3376 0.
-303.139 -835.327 0.
-2.48464 -6.18458 0.
-347.422 -877.265 0.
2.83332 6.86372 0.
-11.9837 -28.8859 0.
-301.265 -721.947 0.
-69.9456 -170.582 0.
-22.2077 -53.5039 0.
-89.2216 -212.702 0.
2.84577 6.4099 0.
-30.2911 -69.1333 0.
4.73702 9.84449 0.
-1.12368 -2.31097 0.
-2.84434 -17.989 0.
1.83307 3.46057 0.
-25.2297 -48.7422 0.
-171.071 -325.706 0.
-168.792 -330.45 0.
-65.7616 -128.028 0.
-352.752 -676.858 0.
-44.442 -84.5139 0.
8.8189 16.612 0.
-516.438 -907.412 0.
-2.23703 -3.79009 0.
-5.94224 -18.3323 0.
-165.38 -274.26 0.
4.67284 7.61623 0.
-0.467661 -0.833967 0.
8.11872 14.1287 0.
-4.11658 -6.98703 0.
-2.53469 -5.39062 0.
3.61831 7.02281 0.
-44.5697 -88.8742 0.
3.13476 4.94522 0.
4.22194 6.81977 0.
-146.56 -242.775 0.
-29.4982 -46.5314 0.
-87.9327 -141.528 0.
-5.42127 -16.8254 0.
-7.89215 -12.4082 0.
-6.32468 -18.688 0.
5.81022 10.1666 0.
-3.13063 -5.62979 0.
5.90017 10.9126 0.
0.550889 1.05496 0.
-90.926 -177.598 0.
-3.29833 -6.4064 0.
-8.58653 -16.7891 0.
-60.7163 -119.515 0.
-135.517 -274.453 0.
-1.69084 -3.39318 0.
-136.909 -271.409 0.
-576.872 -1338.86 0.
-28.0542 -66.33 0.
-404.584 -1009.41 0.
-70.0094 -174.068 0.
-139.659 -346.83 0.
-347.457 -820.654 0.
-36.543 -85.8007 0.
-17.0177 -39.7864 0.
-145.114 -377.99 0.
4.01165 10.3363 0.
-64.4282 -178.17 0.
1.06481 2.9323 0.
1.39174 3.80426 0.
0.241527 0.665713 0.
1.99953 5.43248 0.
1.27582 3.37459 0.
-50.8696 -137.657 0.
-5.98476 -15.5667 0.
-34.1473 -94.5663 0.
-22.1448 -61.3275 0.
-10.5566 -29.2029 0.
-60.632 -167.35 0.
-27.8586 -77.1458 0.
0.434999 1.1964 0.
-59.9431 -164.078 0.
-26.3858 -71.6916 0.
-4.55381 -12.4951 0.
-105.161 -291.271 0.
-78.8024 -214.614 0.
-26.1263 -72.2922 0.
-49.5131 -135.788 0.
-74.3989 -202.813 0.
-15.4842 -40.5391 0.
-36.5831 -99.7541 0.
-73.38 -202.983 0.
-6.34962 -16.5533 0.
-30.983 -81.7497 0.
-69.6102 -186.98 0.
-1.67978 -4.63205 0.
-19.6404 -54.3427 0.
-39.7648 -108.619 0.
1.13976 3.01005 0.
-47.8677 -129.935 0.
-0.0917209 -5.23397 0.
-0.0484249 -5.6777 0.
-27.2249 -74.8518 0.
-0.373209 -1.01969 0.
-5.51018 -15.0993 0.
-118.779 -325.917 0.
-2.95006 -7.24371 0.
-269.826 -674.119 0.
0.0939886 0.223393 0.
-65.6877 -155.414 0.
-460.24 -1080.31 0.
-106.117 -260.489 0.
-87.57 -212.534 0.
-491.356 -1188.14 0.
-2.99659 -6.67592 0.
-580.442 -1313.7 0.
1.18117 2.41995 0.
-16.2772 -33 0.
-82.8265 -166.176 0.
-1.74359 -3.28176 0.
1.3914 2.60936 0.
2.74092 5.12163 0.
0.493089 0.930938 0.
-2.7093 -4.97939 0.
7.23617 12.8673 0.
10.994 19.0677 0.
13.0387 22.0798 0.
4.52896 7.16321 0.
-5.24798 -8.93813 0.
4.66261 7.6333 0.
-111.943 -183.208 0.
-54.1831 -86.9848 0.
-209.828 -374.339 0.
5.57065 9.71116 0.
4.11957 7.00104 0.
-0.0202818 -0.0430833 0.
5.34116 9.45132 0.
-1.32496 -2.38233 0.
-5.43884 -12.9041 0.
3.14166 4.70867 0.
2.53923 3.8751 0.
5.2579 7.77501 0.
10.8187 16.292 0.
-3.98632 -6.09239 0.
-4.00959 -6.25381 0.
-148.02 -235.554 0.
6.48235 11.1879 0.
-40.9804 -72.7505 0.
-343.811 -628.087 0.
-123.499 -233.178 0.
-360.195 -694.019 0.
-316.089 -611.504 0.
-244.288 -475.765 0.
-144.154 -282.688 0.
-224.051 -447.444 0.
-80.8574 -159.862 0.
7.38159 14.4516 0.
-204.1 -470.77 0.
-26.5914 -60.6122 0.
0.183632 0.43791 0.
-0.747302 -12.348 0.
-0.719821 -13.6024 0.
-17.9843 -42.734 0.
-1.21961 -2.89404 0.
0.81996 1.94344 0.
-353.407 -923.972 0.
1.13967 2.97788 0.
-416.661 -1152.31 0.
-72.4664 -200.716 0.
-48.679 -134.783 0.
-622.047 -1721.53 0.
-62.5873 -173.355 0.
-3.55005 -9.82237 0.
-846.117 -2339.63 0.
-42.6231 -115.755 0.
-691.515 -1771.92 0.
-217.902 -595.721 0.
-74.0729 -205.148 0.
-766.729 -2041.59 0.
-192.304 -532.12 0.
-43.7067 -121.011 0.
-699.981 -1863.39 0.
-281.713 -770.604 0.
-76.2326 -211.105 0.
-492.264 -1346.81 0.
-456.022 -1261.67 0.
-90.1084 -248.068 0.
-311.579 -863.007 0.
-603.587 -1641.27 0.
-77.413 -214.367 0.
-251.667 -695.014 0.
-713.837 -1895.62 0.
-62.6234 -171.58 0.
-199.782 -553.281 0.
-752.61 -2046.17 0.
-97.4682 -268.484 0.
-260.749 -694.564 0.
-702.849 -1772.96 0.
-68.3739 -187.192 0.
-819.459 -2267.45 0.
2.5978 7.14637 0.
-78.1051 -215.844 0.
-541.58 -1499.86 0.
-59.7937 -164.966 0.
-89.9117 -248.269 0.
-363.069 -1003.12 0.
-0.577695 -10.972 0.
-240.6 -593.722 0.
4.91367 11.2335 0.
-5.62699 -12.8835 0.
-34.2574 -78.5722 0.
1.40284 3.46264 0.
3.35396 8.26387 0.
-1.09565 -2.69514 0.
2.12236 4.67714 0.
-312.535 -699.211 0.
-37.8273 -76.3263 0.
-146.963 -293.254 0.
-322.486 -636.491 0.
-206.754 -387.794 0.
-191.24 -357.547 0.
-176.58 -329.069 0.
-488.656 -918.973 0.
-137.897 -251.573 0.
-174.004 -303.955 0.
7.20351 12.253 0.
3.16068 5.2475 0.
-129.333 -203.174 0.
7.71965 11.8947 0.
12.7693 19.2748 0.
-44.1289 -66.0596 0.
7.18818 10.6759 0.
-25.3037 -41.6341 0.
-4.00473 -11.7146 0.
-3.9434 -10.6832 0.
3.74076 6.82633 0.
4.09619 7.18106 0.
-26.7133 -47.6078 0.
-0.364682 -0.529744 0.
-97.8464 -144.754 0.
-101.881 -153.47 0.
-34.6447 -50.9996 0.
-298.505 -447.514 0.
-7.89469 -11.9616 0.
-77.9285 -120.483 0.
-255.224 -402.212 0.
5.18643 8.82007 0.
-59.8025 -104.736 0.
-35.9878 -64.9281 0.
8.57636 15.1416 0.
-1.62374 -2.87786 0.
4.85163 8.67178 0.
0.733507 1.32669 0.
2.794 5.11458 0.
-1.17383 -2.18088 0.
-3.94676 -7.40294 0.
3.15937 5.98589 0.
-183.172 -412.192 0.
-47.4668 -106.64 0.
-246.816 -592.532 0.
-18.8463 -45.8545 0.
-43.2967 -107.032 0.
-458.414 -1079.42 0.
-5.90827 -13.945 0.
3.0972 7.30136 0.
-403.397 -1037.37 0.
-0.94962 -2.44205 0.
-325.545 -901.034 0.
-12.7831 -35.4047 0.
-6.38607 -17.6724 0.
-224.373 -621.453 0.
-8.76223 -24.2362 0.
-0.125353 -0.34554 0.
-115.406 -317.408 0.
0.479934 1.26308 0.
-136.583 -377.024 0.
-36.3631 -100.399 0.
-19.9116 -54.8105 0.
-120.135 -332.452 0.
-45.7798 -126.795 0.
-8.29559 -22.9632 0.
-112.616 -310.603 0.
-70.8123 -195.924 0.
-53.8016 -148.999 0.
-93.2469 -256.894 0.
-83.9511 -224.306 0.
-42.2385 -116.639 0.
-54.2069 -150.141 0.
-78.4612 -216.625 0.
-28.9926 -79.1664 0.
-60.1797 -166.555 0.
-92.4164 -255.808 0.
-10.4642 -28.6273 0.
-71.4657 -197.059 0.
-192.632 -533.554 0.
-3.92933 -10.8794 0.
-68.4789 -189.153 0.
-0.080167 -0.20549 0.
-9.76746 -26.1434 0.
-127.628 -349.94 0.
-0.173957 -0.476405 0.
-34.1671 -94.072 0.
-240.793 -665.713 0.
-35.225 -96.9649 0.
-61.1979 -168.656 0.
-340.02 -937.881 0.
4.05581 9.89079 0.
-464.244 -1134.04 0.
4.70021 10.6672 0.
-17.4516 -39.6682 0.
-446.32 -1017.04 0.
-7.30433 -17.9268 0.
-11.7428 -28.7716 0.
-215.868 -528.829 0.
-1.61777 -13.9341 0.
-61.8993 -133.217 0.
7.54704 14.1225 0.
7.26689 13.466 0.
-1.08123 -1.98503 0.
-4.62313 -17.6336 0.
-5.01562 -18.6715 0.
12.5555 21.7022 0.
-4.55481 -17.0005 0.
-0.434491 -0.785037 0.
-158.387 -271.061 0.
-71.3186 -118.851 0.
-7.02777 -11.4239 0.
-283.638 -442.391 0.
6.49162 9.94344 0.
2.55363 3.82997 0.
-305.166 -450.396 0.
-22.825 -33.4311 0.
-122.292 -199.895 0.
-47.2651 -75.0632 0.
0.481135 0.741842 0.
-15.7887 -28.6931 0.
-22.8305 -39.6381 0.
-20.4806 -36.1464 0.
-5.60274 -8.02496 0.
-6.8679 -10.0027 0.
-38.4983 -57.0305 0.
3.84665 5.52085 0.
5.63414 8.12522 0.
1.15525 1.67465 0.
6.5962 9.82097 0.
0.143191 0.219002 0.
-3.9207 -6.45587 0.
8.59248 14.5059 0.
-50.0147 -86.6141 0.
-24.5957 -42.9876 0.
-300.319 -525.948 0.
-6.58 -11.6877 0.
-8.63772 -15.5278 0.
-381.792 -694.701 0.
-72.7165 -132.125 0.
-193.655 -355.621 0.
-318.228 -591.64 0.
-413.016 -922.502 0.
-101.115 -224.146 0.
-240.524 -577.945 0.
-108.481 -264.892 0.
-100.058 -248.198 0.
-209.871 -491.812 0.
-72.7057 -170.483 0.
-11.8978 -27.8884 0.
-123.193 -312.15 0.
-22.8171 -55.1472 0.
-220.254 -605.361 0.
-55.3908 -152.095 0.
-1.39243 -3.82142 0.
-409.188 -1129.54 0.
-59.1947 -162.526 0.
-9.02311 -24.6465 0.
-654.625 -1791.22 0.
-6.11075 -16.5011 0.
-555.926 -1492.9 0.
-226.468 -611.455 0.
-64.9742 -179.699 0.
-633.208 -1714.36 0.
-119.572 -329.893 0.
-35.8301 -99.1085 0.
-627.923 -1666.55 0.
-209.898 -576.787 0.
-49.0971 -135.856 0.
-479.529 -1308.93 0.
-441.472 -1222.58 0.
-94.5359 -253.577 0.
-272.053 -750.924 0.
-573.546 -1572.71 0.
-68.6923 -188.598 0.
-180.469 -498.91 0.
-622.023 -1685.32 0.
-76.0062 -210.507 0.
-124.347 -343.275 0.
-507.459 -1383.95 0.
-109.227 -302.287 0.
-655.712 -1769.1 0.
-15.8104 -41.8565 0.
-82.4024 -222.622 0.
-503.911 -1378.4 0.
2.58343 7.08977 0.
-46.7768 -128.426 0.
-311.49 -856.033 0.
-19.6595 -53.6511 0.
-26.4409 -72.2036 0.
-206.579 -564.086 0.
-23.4255 -56.566 0.
-191.843 -464.849 0.
-3.65174 -8.22584 0.
-20.3794 -45.9793 0.
-266.156 -601.657 0.
-79.4647 -194.017 0.
-150.836 -367.797 0.
-317.85 -773.948 0.
-93.0224 -202.092 0.
-354.315 -761.716 0.
-409.847 -753.65 0.
-239.517 -435.92 0.
-99.0659 -178.556 0.
-354.99 -616.512 0.
-1.92681 -3.30911 0.
-1.5401 -2.62436 0.
-186.595 -326.488 0.
3.94442 6.78385 0.
-45.1347 -73.7194 0.
-4.8323 -14.0335 0.
8.62935 13.4295 0.
3.17962 4.74928 0.
-3.61648 -5.33291 0.
-5.74623 -13.2868 0.
4.91676 7.02073 0.
7.52066 10.6201 0.
-57.992 -92.3629 0.
0.35389 0.559096 0.
-5.1502 -7.88448 0.
-30.345 -54.8855 0.
-1.73971 -7.1422 0.
-2.39745 -4.38511 0.
-1.93244 -2.776 0.
-15.1125 -22.0845 0.
-37.9111 -56.3606 0.
9.69 13.7201 0.
-171.428 -243.809 0.
-0.0864816 -0.12469 0.
11.484 17.0196 0.
-434.321 -658.808 0.
9.19417 15.0557 0.
-79.1161 -132.978 0.
-240.344 -414.522 0.
-139.572 -241.111 0.
-248.957 -431.243 0.
-169.71 -299.707 0.
-60.1569 -107.495 0.
-6.31901 -11.4276 0.
-1.36217 -2.38139 0.
-19.5114 -34.1 0.
-48.8142 -85.2945 0.
0.396256 0.823685 0.
-3.69906 -7.72187 0.
-2.45674 -5.67175 0.
3.4714 8.14074 0.
0.00620002 0.0147583 0.
1.26169 2.81773 0.
-1.50039 -3.37805 0.
-21.522 -48.8424 0.
-247.78 -597.415 0.
-19.7543 -46.8352 0.
-183.364 -503.727 0.
-15.2805 -41.9577 0.
-6.81745 -18.7175 0.
-217.7 -599.435 0.
-11.3919 -31.1827 0.
2.86802 7.8125 0.
-99.5013 -266.13 0.
0.0458022 0.120589 0.
0.435295 1.12123 0.
-61.2345 -168.431 0.
-14.9333 -41.3579 0.
-161.051 -444.053 0.
-31.1644 -86.1822 0.
-2.71146 -7.41437 0.
-58.5874 -162.208 0.
-22.3446 -61.7149 0.
-4.33636 -11.8471 0.
-44.7682 -123.948 0.
-59.9285 -165.384 0.
-29.177 -80.0632 0.
-35.7248 -98.8325 0.
-46.2754 -128.041 0.
-2.35585 -6.4233 0.
-34.5457 -95.4615 0.
-97.789 -270.259 0.
-8.36797 -22.9798 0.
-49.2317 -136.344 0.
-110.119 -304.005 0.
-1.66541 -4.58511 0.
-218.184 -604.33 0.
0.600227 1.57326 0.
-13.8923 -37.2182 0.
-148.872 -404.933 0.
-4.70761 -12.887 0.
-32.7898 -89.7843 0.
-200.294 -548.7 0.
-21.7651 -59.3937 0.
-39.2356 -107.127 0.
-193.954 -529.498 0.
-1.70703 -3.96065 0.
-234.259 -549.213 0.
-18.2392 -40.2462 0.
-8.50238 -18.5662 0.
-12.2401 -26.4529 0.
3.67867 8.54153 0.
-1.56029 -3.57192 0.
-0.305067 -0.688373 0.
-3.88477 -7.8317 0.
0.209854 0.420729 0.
-57.6458 -100.075 0.
-9.98222 -17.4448 0.
-73.1999 -129.376 0.
-87.8686 -150.022 0.
-84.8002 -143.553 0.
-130.823 -219.656 0.
-172.89 -303.384 0.
-39.3327 -67.8442 0.
-343.728 -560.767 0.
-108.917 -173.211 0.
11.117 17.2386 0.
-370.551 -540.473 0.
-4.81734 -6.94749 0.
-6.6088 -14.4918 0.
-67.3887 -95.5228 0.
3.82135 5.35623 0.
-59.442 -93.9126 0.
0.709039 1.09516 0.
7.36416 11.1142 0.
-2.24799 -4.17286 0.
-8.57002 -15.2582 0.
-43.1638 -78.2054 0.
-31.0048 -44.6966 0.
-96.1298 -141.137 0.
-43.7326 -60.8221 0.
-54.6919 -76.3813 0.
-20.0619 -28.14 0.
-2.61988 -3.75576 0.
-17.4889 -25.7858 0.
2.76859 3.84949 0.
5.24341 7.70516 0.
3.65894 5.44206 0.
2.99859 4.51661 0.
0.685399 1.06389 0.
-6.30194 -10.1083 0.
-4.8677 -15.9124 0.
7.81839 13.2954 0.
-4.25468 -7.40019 0.
7.77536 13.7512 0.
-33.1909 -58.6747 0.
-75.3375 -133.131 0.
-259.236 -533.18 0.
-103.049 -212.401 0.
-199.027 -457.136 0.
-161.799 -378.187 0.
-206.613 -490.303 0.
-390.78 -855.755 0.
-65.5163 -145.536 0.
-162.027 -362.601 0.
-355.165 -840.559 0.
-11.7142 -27.2586 0.
-162.011 -444.953 0.
-39.8079 -109.345 0.
-20.0762 -55.1425 0.
-29.9116 -82.0528 0.
0.836511 2.28408 0.
0.743374 2.02014 0.
-25.3403 -66.1037 0.
-0.575868 -1.4706 0.
0.898864 2.23147 0.
-9.92847 -27.3397 0.
-3.69007 -10.2173 0.
-31.4464 -86.9867 0.
-3.60985 -9.90612 0.
-0.707648 -1.92088 0.
-14.1183 -38.8579 0.
-0.503383 -1.3701 0.
-0.0276795 -1.94182 0.
-17.8199 -49.291 0.
-21.7484 -60.2309 0.
-10.392 -28.6222 0.
-7.14675 -19.7909 0.
-4.34908 -12.0198 0.
-0.00988025 -1.93921 0.
-0.00146173 -2.1295 0.
-24.0346 -66.5475 0.
-0.0254429 -2.26657 0.
-0.234039 -0.642642 0.
-33.5181 -92.7865 0.
0.0602751 0.162571 0.
-64.4062 -176.581 0.
0.994306 2.58092 0.
0.735207 1.95255 0.
-105.344 -284.456 0.
-6.52146 -17.8013 0.
-44.4514 -121.36 0.
-99.3017 -271.116 0.
-50.5296 -137.841 0.
-65.6229 -179.119 0.
-197.672 -539.512 0.
-0.0860903 -0.195853 0.
-300.69 -692.992 0.
-210.969 -460.197 0.
-68.5461 -148.17 0.
-407.888 -867.542 0.
-164.388 -380.247 0.
-156.427 -356.833 0.
-149.742 -336.769 0.
-147.513 -296.207 0.
-146.225 -291.717 0.
-44.7612 -77.5724 0.
-3.9051 -6.80988 0.
-10.1043 -17.72 0.
2.12044 3.53172 0.
3.94883 6.36183 0.
1.68916 2.63506 0.
3.03928 4.87679 0.
-4.86009 -13.6574 0.
-6.14689 -15.1092 0.
-5.64489 -13.4094 0.
-6.18616 -14.2203 0.
-37.4658 -53.4283 0.
-69.6328 -98.089 0.
-9.99482 -13.9231 0.
-51.1832 -71.9923 0.
-83.7921 -116.563 0.
-79.5883 -124.65 0.
-77.9046 -119.058 0.
-4.91224 -7.33633 0.
2.22384 4.09617 0.
-0.584475 -0.92699 0.
-2.13569 -3.39259 0.
-4.19309 -5.65584 0.
9.23901 12.5251 0.
12.5683 16.1786 0.
0.294047 0.380682 0.
3.15267 4.10646 0.
-3.4038 -4.58952 0.
2.77221 3.78535 0.
-40.7782 -56.4046 0.
5.68827 8.18008 0.
-178.514 -260.104 0.
-4.11276 -6.05823 0.
-90.9565 -138.925 0.
-551.494 -875.461 0.
-129.489 -210.252 0.
-182.335 -302.377 0.
-241.988 -410.333 0.
2.81349 5.03347 0.
-136.868 -244.743 0.
-209.399 -374.258 0.
-227.319 -460.978 0.
-6.2924 -12.8302 0.
-76.1705 -175.489 0.
-37.2704 -88.4802 0.
-35.9097 -85.2009 0.
4.63731 9.92175 0.
3.78385 8.1667 0.
1.06429 2.31718 0.
-19.1996 -44.7507 0.
3.14266 7.31374 0.
-151.12 -417.214 0.
-39.5525 -109.194 0.
-44.025 -121.543 0.
-273.771 -754.876 0.
-81.6043 -224.929 0.
-12.1995 -33.5992 0.
-468.888 -1267.05 0.
-61.4352 -164.751 0.
-7.73185 -20.6479 0.
-716.724 -1955.61 0.
-44.7221 -123.274 0.
-404.138 -1088.6 0.
-180.209 -492.022 0.
-52.9846 -146.487 0.
-475.108 -1279.8 0.
-229.196 -630.179 0.
-94.9007 -262.831 0.
-403.92 -1103.09 0.
-384.636 -1064.72 0.
-115.056 -316.311 0.
-262.558 -727.234 0.
-470.32 -1294.21 0.
-90.0558 -249.102 0.
-234.598 -648.331 0.
-467.969 -1272 0.
-71.4835 -197.582 0.
-230.212 -628.149 0.
-465.159 -1243.76 0.
-51.052 -140.895 0.
-537.318 -1488.23 0.
-29.8939 -80.7249 0.
-57.6525 -155.841 0.
-405.991 -1094.58 0.
-57.4105 -156.586 0.
-67.9077 -185.297 0.
-239.113 -652.995 0.
-41.0502 -111.993 0.
-38.0693 -103.727 0.
-105.486 -287.22 0.
2.8401 6.18548 0.
-1.05482 -2.29705 0.
-20.0225 -41.5722 0.
-17.747 -37.1914 0.
-26.583 -56.2114 0.
-11.9645 -28.0728 0.
-93.0059 -211.627 0.
-142.942 -320.248 0.
-63.2027 -126.067 0.
-279.115 -553.959 0.
-208.804 -360.88 0.
-27.0929 -47.1353 0.
-1.54935 -2.71111 0.
-405.375 -665.773 0.
-186.476 -296.249 0.
10.6244 16.3143 0.
-398.759 -618.646 0.
-3.28038 -4.98873 0.
10.7198 15.8132 0.
-91.4529 -133.106 0.
-0.936379 -1.34413 0.
-16.3252 -22.0086 0.
0.0916033 0.1221 0.
3.89705 5.13588 0.
2.77729 3.67668 0.
-0.414721 -0.545919 0.
1.90313 2.49144 0.
-8.69963 -12.3615 0.
3.93693 5.44911 0.
-4.18563 -6.73351 0.
3.01161 4.73226 0.
1.82326 2.86922 0.
-16.6948 -22.0756 0.
-40.3803 -53.6325 0.
-9.42799 -11.8973 0.
-64.3149 -81.5734 0.
-212.342 -270.745 0.
-1.51641 -2.03303 0.
-7.06883 -13.8203 0.
-271.844 -375.028 0.
-62.0164 -87.1921 0.
-121.424 -172.657 0.
-168.526 -242.539 0.
-102.239 -153.423 0.
-13.9761 -20.8663 0.
-0.326867 -0.486148 0.
8.8547 13.4171 0.
5.96235 9.20541 0.
7.57482 12.6502 0.
-0.483595 -0.824913 0.
-2.43983 -4.25632 0.
-14.5039 -29.5559 0.
-20.2704 -41.9505 0.
-21.3074 -50.1995 0.
-21.0297 -49.5178 0.
-15.1572 -35.6687 0.
-39.748 -84.8015 0.
-9.95229 -21.4258 0.
-26.4952 -57.5543 0.
-365.059 -839.461 0.
-5.12622 -11.8355 0.
-167.765 -463.254 0.
-40.3265 -111.345 0.
-51.2549 -141.525 0.
-200.311 -550.738 0.
-51.4993 -141.429 0.
-30.0885 -82.5982 0.
-115.474 -309.559 0.
-15.9363 -42.4762 0.
2.46057 6.52825 0.
-95.8305 -265.013 0.
-2.92315 -8.09115 0.
-51.23 -139.925 0.
-16.967 -46.806 0.
-5.70071e-05 -3.72287 0.
-31.8427 -88.0077 0.
-12.7343 -35.2668 0.
-3.25976 -8.984 0.
-31.1541 -85.1964 0.
-30.5603 -84.4493 0.
-2.66618 -7.25876 0.
-16.6265 -45.9805 0.
-42.0667 -116.264 0.
-1.13801 -3.13732 0.
-14.6671 -40.6216 0.
-40.1447 -110.505 0.
-4.8089 -13.3064 0.
-18.3301 -50.3897 0.
-45.6158 -123.811 0.
-17.1527 -46.7315 0.
-172.205 -474.18 0.
-21.722 -58.1545 0.
-45.7787 -122.748 0.
-141.124 -378.641 0.
-28.0292 -76.4481 0.
-53.2838 -145.359 0.
-228.689 -624.124 0.
-30.4214 -82.9747 0.
-42.1722 -114.884 0.
-239.202 -652.521 0.
3.91915 8.44738 0.
-320.011 -692.744 0.
-9.21984 -19.059 0.
-15.8121 -32.991 0.
-10.3428 -21.7754 0.
-22.4175 -52.1252 0.
-12.3178 -28.321 0.
-2.8729 -6.53169 0.
-0.761378 -1.51215 0.
2.96745 5.77107 0.
5.43801 9.03688 0.
2.83686 4.62042 0.
5.72086 9.13881 0.
-1.89582 -2.82682 0.
-5.73026 -8.43056 0.
11.5835 16.8195 0.
-106.459 -158.763 0.
-233.744 -342.557 0.
-126.611 -184.598 0.
-102.929 -147.926 0.
2.40246 3.40432 0.
-306.314 -409.615 0.
-24.3739 -32.2942 0.
-8.08509 -10.5917 0.
-193.667 -252.361 0.
-101.733 -131.872 0.
-31.858 -41.0794 0.
-42.9631 -61.0842 0.
6.59266 9.12416 0.
-0.589387 -0.939414 0.
-2.67807 -4.1684 0.
-4.5524 -7.09539 0.
-6.15164 -7.97187 0.
-11.7037 -15.2287 0.
2.83756 3.42045 0.
-5.75271 -7.00686 0.
-6.44459 -7.93263 0.
-4.78515 -6.21366 0.
6.65976 8.67339 0.
-2.0234 -2.6438 0.
-0.389094 -0.525967 0.
-11.483 -16.0306 0.
-138.744 -200.325 0.
-5.08604 -12.4296 0.
-43.7325 -65.4327 0.
8.37488 12.3998 0.
4.11783 6.21308 0.
-11.2136 -17.243 0.
-0.341667 -0.556209 0.
-34.7823 -57.8485 0.
-456.178 -777.519 0.
-163.321 -330.965 0.
-243.515 -501.021 0.
-173.46 -406.608 0.
-127.631 -298.535 0.
-66.5195 -155.293 0.
-257.199 -546.429 0.
-93.2308 -200.198 0.
-64.2013 -139.147 0.
-167.917 -384.394 0.
-11.257 -25.7836 0.
-111.13 -306.917 0.
-82.2452 -227.141 0.
-39.594 -108.775 0.
-191.441 -520.056 0.
-61.9221 -167.785 0.
-12.2675 -33.1972 0.
-308.185 -808.309 0.
-20.5877 -53.8843 0.
-13.1011 -34.204 0.
-441.749 -1222.6 0.
-5.45651 -15.0563 0.
-280.809 -757.929 0.
-174.995 -478.197 0.
-135.635 -373.92 0.
-269.336 -737.722 0.
-178.749 -494.595 0.
-142.851 -394.897 0.
-283.984 -782.91 0.
-292.342 -809.737 0.
-147.188 -405.043 0.
-196.523 -544.315 0.
-285.991 -789.395 0.
-137.17 -379.683 0.
-207.931 -575.465 0.
-319.168 -878.008 0.
-80.9045 -223.435 0.
-176.481 -484.992 0.
-306.788 -838.283 0.
-39.9159 -107.152 0.
-420.522 -1134.71 0.
-15.1928 -39.7409 0.
-31.0184 -81.5332 0.
-282.644 -745.899 0.
-8.26761 -22.4035 0.
-21.7229 -58.754 0.
-149.554 -403.178 0.
-56.7372 -154.758 0.
-25.886 -70.4836 0.
-48.157 -131 0.
-19.114 -40.7665 0.
-238.116 -507.961 0.
-14.3979 -29.6364 0.
-100.653 -209.424 0.
-234.137 -492.091 0.
-145.743 -335.152 0.
-154.515 -351.313 0.
-124.912 -280.943 0.
-357.497 -706.424 0.
-150.29 -290.529 0.
-418.332 -685.238 0.
8.14879 13.0344 0.
1.51301 2.37348 0.
-51.1634 -76.0177 0.
-5.6551 -8.28872 0.
9.29134 13.4379 0.
-13.6762 -19.7488 0.
6.12591 8.79239 0.
-10.8168 -15.4263 0.
-4.06518 -5.62442 0.
-5.78646 -11.0554 0.
5.58194 7.06026 0.
12.2671 15.3452 0.
10.7793 13.3403 0.
5.39036 6.56933 0.
-6.72034 -8.17508 0.
-35.0422 -44.4893 0.
-71.8732 -102.236 0.
-47.87 -66.241 0.
-18.0022 -28.44 0.
-0.799995 -1.20927 0.
0.468258 0.713609 0.
4.80308 5.94121 0.
1.39419 1.72785 0.
1.6784 2.01236 0.
-0.216907 -0.262801 0.
-8.39817 -10.2834 0.
-3.30842 -4.15966 0.
-7.37289 -12.148 0.
-266.787 -337.544 0.
9.68919 12.8392 0.
-356.684 -488.672 0.
-121.169 -171.87 0.
-93.674 -139.961 0.
-138.919 -208.227 0.
-242.174 -355.526 0.
-151.925 -227.632 0.
-134.952 -206.209 0.
-15.7018 -24.8751 0.
9.30962 14.3542 0.
-3.95586 -6.2906 0.
-0.0100005 -0.0190003 0.
-13.6747 -26.0628 0.
-1.81798 -3.9004 0.
0.996435 2.17175 0.
2.01584 4.46182 0.
-9.06473 -18.3631 0.
-3.3537 -6.79998 0.
1.67024 3.38992 0.
-95.0634 -205.557 0.
-10.1537 -22.1301 0.
-180.942 -493.653 0.
-42.5365 -116.188 0.
-12.9905 -35.5651 0.
-114.486 -310.844 0.
-24.9354 -67.6095 0.
-10.3483 -28.0313 0.
-60.6936 -158.887 0.
-17.9248 -46.8272 0.
-8.46331 -22.0525 0.
-74.5399 -204.582 0.
0.328333 0.89451 0.
-15.7907 -42.8699 0.
0.412308 1.13095 0.
0.822867 2.27245 0.
-7.24709 -19.963 0.
-1.86965 -5.17808 0.
-1.96184 -5.41689 0.
-11.2158 -30.9997 0.
-9.50965 -26.3273 0.
0.0556931 0.152692 0.
-10.2314 -28.3066 0.
-43.8933 -121.484 0.
-0.10653 -0.294469 0.
-6.90535 -19.1263 0.
-20.8591 -57.6205 0.
-19.1548 -52.9826 0.
-31.7445 -87.4702 0.
-44.4127 -121.656 0.
-13.0241 -34.3631 0.
-94.8128 -252.551 0.
-11.3304 -29.5362 0.
-25.8913 -67.8399 0.
-116.42 -306.318 0.
-19.5912 -52.977 0.
-24.2575 -65.4755 0.
-113.299 -305.069 0.
-24.5976 -66.084 0.
-32.5508 -86.886 0.
-175.447 -465.978 0.
1.34497 2.77617 0.
-31.8026 -66.2528 0.
0.837291 1.70071 0.
-1.63767 -3.27928 0.
-3.13329 -6.18498 0.
-3.4757 -7.44088 0.
-3.46716 -7.39499 0.
-0.788073 -1.67474 0.
0.319487 0.601169 0.
-4.39252 -8.15873 0.
8.74658 13.693 0.
-134.199 -210.607 0.
-71.9983 -110.766 0.
-135.319 -200.406 0.
-96.1708 -140.417 0.
-146.684 -211.193 0.
-190.812 -274.105 0.
-88.6874 -126.769 0.
-131.764 -183.189 0.
-387.621 -524.218 0.
-6.78753 -12.1804 0.
-97.5806 -121.34 0.
4.57685 5.63021 0.
-4.92755 -5.99784 0.
-6.97689 -8.39867 0.
7.18405 8.63507 0.
6.23623 7.48442 0.
-3.45398 -4.65085 0.
-3.89412 -5.26242 0.
3.37761 5.96198 0.
-2.53567 -6.28965 0.
5.25618 7.94402 0.
-71.9387 -87.2906 0.
-40.6925 -49.4285 0.
-20.3557 -24.2708 0.
-66.0207 -79.5478 0.
-143.539 -174.781 0.
-24.4206 -29.7148 0.
-31.9641 -38.9225 0.
-10.2192 -12.4486 0.
0.0166822 0.0203899 0.
-7.3119 -8.97827 0.
-7.30352 -13.2371 0.
-5.74206 -10.9586 0.
-6.11524 -12.354 0.
-2.33289 -3.19624 0.
-5.1012 -7.04503 0.
7.72315 10.7627 0.
-4.69114 -11.8738 0.
5.48921 8.5692 0.
-40.449 -65.2074 0.
-23.0486 -43.7699 0.
-182.111 -346.317 0.
-2.93822 -6.30693 0.
-4.37105 -9.53496 0.
-218.929 -486.103 0.
-69.4055 -139.173 0.
-117.443 -235.635 0.
-128.699 -258.373 0.
-190.878 -409.138 0.
-69.7215 -150.875 0.
-132.205 -358.852 0.
-35.4089 -96.2912 0.
-18.4277 -50.2471 0.
-42.9028 -116.537 0.
-18.1064 -49.1381 0.
-1.40691 -3.81476 0.
-41.7795 -109.203 0.
-17.8774 -46.6141 0.
-7.61307 -19.7971 0.
-47.0735 -127.295 0.
-1.15939 -3.09832 0.
-0.0384039 -0.104844 0.
-0.012647 -4.7715 0.
0.340013 0.940454 0.
-0.0144706 -0.039943 0.
-0.417449 -1.15626 0.
-0.569921 -1.5725 0.
-0.360401 -0.997533 0.
-0.25557 -0.706926 0.
-0.0291508 -4.60096 0.
-0.00707041 -4.77482 0.
0.46839 1.29736 0.
0.841507 2.32251 0.
0.179106 0.496011 0.
0.0569403 0.157551 0.
-1.24616 -3.44966 0.
-1.12992 -3.11928 0.
-7.89042 -21.6778 0.
-0.29879 -0.77307 0.
-63.0882 -165.263 0.
-5.79621 -15.0565 0.
-19.0466 -49.7421 0.
-70.2149 -184.277 0.
-32.9738 -88.9837 0.
-39.2971 -105.849 0.
-74.2276 -199.552 0.
-48.7448 -130.98 0.
-39.1305 -104.428 0.
-137.277 -285.148 0.
-57.4121 -117.068 0.
-142.493 -292.717 0.
-161.95 -327.891 0.
-105.2 -210.069 0.
-26.1258 -51.4186 0.
-219.228 -466.083 0.
-3.7158 -7.89932 0.
-2.63666 -5.58454 0.
-101.681 -192.004 0.
-0.214319 -0.399651 0.
-110.328 -173.524 0.
-4.76312 -7.26595 0.
3.26262 4.81961 0.
-0.625079 -0.844662 0.
-3.51909 -4.68482 0.
4.80521 6.31179 0.
-6.55238 -11.7157 0.
10.3228 13.2777 0.
5.43027 6.59548 0.
1.26648 1.5237 0.
-9.19056 -11.6751 0.
-130.265 -159.126 0.
-123.682 -149.451 0.
-103.126 -123.322 0.
-39.7753 -47.2961 0.
-55.7611 -66.1996 0.
-43.5181 -51.5848 0.
-63.2328 -82.3978 0.
-85.3644 -111.741 0.
-1.46499 -6.88291 0.
-3.87248 -6.55579 0.
5.69515 6.20076 0.
-4.52863 -4.9774 0.
-4.67968 -5.19384 0.
-0.796318 -0.886583 0.
-7.37306 -8.2161 0.
2.39504 2.67133 0.
12.5384 14.1719 0.
1.52311 1.748 0.
-14.3629 -16.7418 0.
-1.70793 -2.04612 0.
-85.1904 -102.437 0.
2.08272 2.63891 0.
-6.2734 -11.0006 0.
-347.499 -458.97 0.
-48.4936 -64.0089 0.
-137.287 -182.262 0.
-123.791 -165.52 0.
-4.4402 -11.5976 0.
2.34959 3.71674 0.
-278.735 -457.934 0.
-39.0234 -74.0767 0.
-209.503 -398.012 0.
-57.6691 -123.901 0.
-58.5667 -127.892 0.
-40.3507 -89.5185 0.
-57.3668 -116.212 0.
-41.2563 -83.9069 0.
-29.0219 -59.2575 0.
-56.756 -123.942 0.
-48.1849 -104.898 0.
-49.2759 -133.741 0.
-16.9424 -45.9994 0.
-13.8217 -37.5238 0.
-111.491 -302.22 0.
-65.5099 -177.811 0.
-39.5292 -107.42 0.
-194.904 -513.026 0.
-34.8704 -91.3296 0.
-32.9307 -85.9763 0.
-315.383 -841.857 0.
-16.0493 -42.4161 0.
-195.558 -537.217 0.
-136.985 -377.59 0.
-88.9182 -245.729 0.
-187.357 -516.245 0.
-139.176 -385.333 0.
-103.61 -286.641 0.
-220.746 -610.169 0.
-223.852 -619.888 0.
-135.154 -371.7 0.
-157.94 -437.044 0.
-193.486 -535.643 0.
-108.96 -301.749 0.
-146.926 -406.905 0.
-191.783 -530.58 0.
-74.6775 -206.765 0.
-134.913 -372.839 0.
-198.472 -546.624 0.
-35.1569 -89.7819 0.
-297.684 -769.559 0.
-24.0957 -62.6448 0.
-49.4973 -128.976 0.
-189.319 -495.433 0.
-26.7965 -72.047 0.
-22.0058 -59.0001 0.
-68.8459 -184.296 0.
-22.0074 -59.3047 0.
-62.103 -168.599 0.
-17.7676 -37.197 0.
-34.7477 -72.6928 0.
-27.7583 -58.0641 0.
-17.7457 -36.4902 0.
-11.2973 -23.0857 0.
-60.387 -118.445 0.
-100.659 -213.656 0.
-58.8926 -124.616 0.
-39.5246 -83.3512 0.
-242.111 -458.058 0.
5.01522 9.39021 0.
-325.905 -514.807 0.
3.64598 5.59209 0.
8.68723 12.8898 0.
-186.344 -238.818 0.
-69.2592 -87.6951 0.
-70.313 -88.0867 0.
-264.902 -336.874 0.
4.74041 5.93656 0.
-7.33366 -11.5703 0.
-2.92622 -3.4727 0.
-3.24719 -3.81873 0.
-31.374 -36.1073 0.
11.887 13.6104 0.
6.41161 7.30475 0.
-5.90955 -6.62793 0.
-0.731251 -0.816317 0.
13.1209 14.5802 0.
0.0808721 0.0939147 0.
5.93802 6.86365 0.
5.69215 6.55032 0.
-3.91583 -5.96792 0.
5.85213 6.25781 0.
-7.94004 -8.56854 0.
6.65428 7.24843 0.
3.18016 3.44972 0.
-60.5277 -65.6686 0.
-139.734 -151.642 0.
-8.89364 -11.3741 0.
-18.9551 -21.5986 0.
-242.299 -280.67 0.
-125.063 -146.749 0.
-137.313 -161.68 0.
4.43136 5.40268 0.
-123.518 -153.439 0.
-29.2291 -37.1824 0.
2.97288 3.66948 0.
9.21724 11.3191 0.
1.56383 1.91034 0.
7.70757 10.8996 0.
1.19016 1.74808 0.
6.88383 10.5383 0.
-1.84479 -9.51106 0.
2.45235 4.93002 0.
-12.0423 -27.773 0.
-0.0921522 -0.212361 0.
0.945515 2.17679 0.
-12.9886 -26.3741 0.
-4.12278 -8.40487 0.
-0.887125 -1.81559 0.
-13.0373 -28.3953 0.
-48.6796 -105.593 0.
-97.6457 -210.864 0.
-37.7136 -102.097 0.
-21.6708 -58.6633 0.
-41.5053 -112.45 0.
-15.9097 -43.1618 0.
-18.822 -51.1216 0.
-61.9584 -163.467 0.
-18.933 -49.7719 0.
-18.0353 -47.2683 0.
-54.0621 -142.52 0.
1.55755 4.05593 0.
-6.15497 -16.9385 0.
-2.90609 -8.02294 0.
0.192057 0.531376 0.
2.15888 5.95556 0.
0.961208 2.66205 0.
1.9919 5.5072 0.
-0.00330312 -5.63832 0.
-4.60347 -12.7434 0.
1.31511 3.61443 0.
0.357225 0.987939 0.
0.0168876 0.0467722 0.
-10.7034 -29.6396 0.
-13.0828 -36.234 0.
-22.6516 -62.6695 0.
-11.7251 -32.4629 0.
-14.7504 -40.7594 0.
-14.2835 -39.33 0.
-6.12775 -15.4367 0.
-74.31 -189.646 0.
-11.494 -29.8931 0.
-18.8934 -49.2308 0.
-74.4483 -194.469 0.
-42.0063 -113.158 0.
-16.5355 -44.3949 0.
-51.6621 -138.461 0.
-16.6712 -44.6972 0.
-61.3079 -165.72 0.
-96.5405 -200.388 0.
-10.3298 -21.4532 0.
-5.41293 -11.2399 0.
-4.25817 -8.76705 0.
-6.20075 -12.6868 0.
-9.91702 -20.1626 0.
-27.4979 -61.5049 0.
-15.1317 -33.6791 0.
4.14647 9.18362 0.
1.86431 3.57052 0.
3.689 6.72344 0.
2.09788 3.06366 0.
-1.9512 -2.73761 0.
3.75097 5.07178 0.
4.33533 4.95427 0.
6.51549 7.43468 0.
-38.5026 -45.8491 0.
-107.524 -132.861 0.
-107.536 -130.962 0.
2.09911 2.52281 0.
-153.776 -179.87 0.
-153.543 -178.096 0.
-216.563 -246.124 0.
-39.4928 -44.6156 0.
-8.78371 -9.87404 0.
-135.549 -147.944 0.
-55.1149 -59.9309 0.
-44.4749 -48.1867 0.
-7.11194 -8.11161 0.
-0.550583 -0.62526 0.
-4.09196 -4.6279 0.
-1.54748 -1.79827 0.
-25.1491 -26.4015 0.
-13.6629 -14.469 0.
-31.5808 -33.7534 0.
13.4833 13.1563 0.
-2.39311 -2.33613 0.
9.30675 9.08944 0.
12.5132 12.8415 0.
-3.59339 -3.73165 0.
2.68063 2.81946 0.
-5.83759 -6.32075 0.
8.09508 8.97734 0.
1.76595 2.10146 0.
0.196552 0.238763 0.
-27.1971 -33.72 0.
-11.4643 -14.0381 0.
-0.139627 -0.170109 0.
-15.7578 -19.0941 0.
-5.04455 -9.80722 0.
-4.21021 -5.92173 0.
-169.65 -248.595 0.
4.66271 9.19191 0.
-219.714 -449.732 0.
-21.3554 -49.0388 0.
-20.1045 -46.1235 0.
-134.706 -308.758 0.
-5.2696 -10.7231 0.
-5.36295 -10.9558 0.
-78.6887 -161.294 0.
-35.7273 -77.4913 0.
-0.518376 -1.12079 0.
1.15453 2.4877 0.
-68.0726 -183.789 0.
-59.2556 -159.977 0.
-50.5759 -136.928 0.
-30.861 -83.6712 0.
-45.2095 -119.825 0.
-130.798 -335.94 0.
-21.2682 -54.4544 0.
-3.32633 -8.49935 0.
-188.793 -476.312 0.
-10.3271 -25.7243 0.
-150.525 -416.915 0.
-58.8032 -162.58 0.
-45.7217 -125.909 0.
-155.665 -430.52 0.
-37.364 -103.045 0.
-59.5142 -163.546 0.
-154.257 -427.181 0.
-116.484 -322.561 0.
-53.196 -146.168 0.
-77.9112 -214.668 0.
-139.976 -386.607 0.
-63.4603 -174.219 0.
-72.653 -200.47 0.
-147.796 -408.996 0.
-39.6411 -109.606 0.
-64.9693 -179.841 0.
-122.562 -339.453 0.
-28.3009 -68.307 0.
-178.307 -436.512 0.
-14.7581 -37.415 0.
-16.1214 -40.9717 0.
-124.318 -316.395 0.
-58.6395 -158.279 0.
-26.9102 -72.3823 0.
-15.7411 -42.21 0.
-36.3795 -97.1126 0.
-80.4158 -216.474 0.
-1.21988 -2.51361 0.
-49.5871 -102.187 0.
-9.27939 -19.1162 0.
-131.744 -271.33 0.
-12.4484 -25.5019 0.
-19.3535 -39.3956 0.
-218.573 -490.805 0.
-28.9137 -64.6971 0.
-9.59321 -21.3608 0.
-213.567 -413.867 0.
4.04166 7.39746 0.
-153.256 -215.651 0.
-0.429883 -0.581746 0.
-5.53765 -9.86587 0.
6.87321 7.93308 0.
3.03966 3.50359 0.
-28.3238 -32.5991 0.
0.483244 0.56297 0.
-5.31167 -6.0929 0.
1.01009 1.14172 0.
9.19566 9.92579 0.
8.42915 8.96069 0.
5.3126 5.50481 0.
0.290781 0.299544 0.
-4.32898 -4.43448 0.
6.90913 6.7588 0.
1.48567 1.46339 0.
-114.385 -120.726 0.
-69.5604 -77.94 0.
-49.6031 -55.3439 0.
-41.8164 -46.4723 0.
2.05888 2.10537 0.
8.92466 8.62486 0.
8.08837 7.75712 0.
9.71396 9.24126 0.
8.8812 8.48016 0.
-3.17558 -3.03201 0.
-7.03452 -6.71598 0.
10.2608 10.1446 0.
9.35727 9.34831 0.
-105.73 -106.717 0.
8.46184 8.95332 0.
-208.656 -225.879 0.
8.55615 10.1658 0.
4.12196 5.00108 0.
-180.052 -222.766 0.
-86.748 -105.308 0.
-76.4537 -92.3298 0.
-85.1861 -102.31 0.
0.594085 0.767243 0.
-8.70295 -11.6622 0.
-16.7242 -22.1991 0.
-1.93837 -9.23119 0.
-1.61195 -9.17024 0.
1.74093 3.79601 0.
-2.27046 -4.99938 0.
-1.51248 -3.36237 0.
-2.82809 -5.63391 0.
5.2244 10.4239 0.
0.931816 1.86235 0.
-0.814059 -1.7308 0.
-25.456 -54.6042 0.
-57.8492 -125.187 0.
-68.0521 -182.904 0.
-58.131 -155.295 0.
-61.406 -164.156 0.
-24.1549 -64.3678 0.
-28.6475 -76.0858 0.
-39.6187 -101.515 0.
-5.02446 -12.8483 0.
1.3958 3.56308 0.
-22.5637 -56.4021 0.
1.9059 4.69642 0.
-0.465976 -1.29048 0.
0.317553 0.877884 0.
-0.563929 -1.55317 0.
-0.00495361 -6.54679 0.
0.57504 1.5857 0.
0.0211416 0.0580803 0.
-1.33228 -3.68893 0.
0.22142 0.613228 0.
1.26415 3.47986 0.
-1.30714 -3.60629 0.
1.19013 3.28939 0.
-13.7394 -37.7618 0.
-7.57691 -20.9194 0.
-3.42741 -9.48744 0.
1.94352 5.37023 0.
-1.58869 -4.39579 0.
-4.1375 -11.4572 0.
-3.44646 -8.25671 0.
-36.8787 -89.6569 0.
-9.80886 -24.8466 0.
-10.2718 -26.0839 0.
-35.6977 -90.8624 0.
-36.1589 -96.1856 0.
-23.1771 -61.9285 0.
-58.0388 -155.895 0.
-41.9658 -111.334 0.
-85.4105 -227.583 0.
-80.7298 -163.226 0.
4.63214 9.25181 0.
-1.97054 -3.89692 0.
3.25275 6.40109 0.
-2.10887 -4.1376 0.
-1.85068 -10.0532 0.
0.63525 1.37461 0.
-0.216284 -0.462147 0.
3.35359 7.07488 0.
3.96687 7.24629 0.
1.46065 2.68602 0.
-141.608 -191.469 0.
-12.3518 -16.0546 0.
-1.68714 -2.11296 0.
-83.1191 -96.8376 0.
-67.4771 -78.5319 0.
-54.3792 -63.2171 0.
-170.965 -194.827 0.
-5.70774 -6.4062 0.
1.71542 1.89777 0.
-260.871 -270.526 0.
-0.859781 -0.880273 0.
2.97428 2.97726 0.
-0.337926 -0.336698 0.
9.91206 9.83185 0.
-9.05638 -8.2325 0.
0.853273 0.821925 0.
4.6268 4.48844 0.
7.24772 7.26459 0.
-2.24216 -2.28449 0.
1.12983 1.1689 0.
0.606078 0.589054 0.
-58.6439 -55.3375 0.
7.80088 7.29765 0.
0.608854 0.564661 0.
-53.4182 -49.9051 0.
-28.6153 -26.7182 0.
-20.6626 -19.2806 0.
-25.6718 -24.4129 0.
-107.338 -102.892 0.
-28.6476 -27.7418 0.
6.38401 6.21645 0.
4.6419 4.61231 0.
-4.73066 -5.90894 0.
8.87859 10.0598 0.
-3.87362 -4.48557 0.
-4.37608 -4.99723 0.
3.72008 4.23176 0.
-3.17194 -3.59286 0.
2.79599 3.47714 0.
-2.01513 -2.60903 0.
-17.3491 -23.3596 0.
-0.195925 -0.375638 0.
-1.27281 -2.57082 0.
-2.59773 -5.67778 0.
2.78655 6.15054 0.
-52.1543 -116.278 0.
-4.42082 -8.78012 0.
-2.52448 -5.02203 0.
-157.206 -313.82 0.
-8.72597 -18.5129 0.
-14.458 -30.9368 0.
-28.8674 -62.3071 0.
-20.1748 -54.1014 0.
-13.1672 -35.0961 0.
-37.4499 -100.299 0.
-7.82586 -20.8901 0.
-16.8784 -44.9104 0.
-14.4483 -36.9732 0.
-6.40401 -16.3599 0.
-1.97722 -5.04252 0.
-8.29366 -20.5212 0.
-0.78976 -1.92542 0.
1.45962 4.04225 0.
0.404286 1.11773 0.
1.60467 4.42077 0.
1.93049 5.33754 0.
1.32796 3.66234 0.
0.483901 1.32974 0.
-1.15382 -3.19342 0.
1.74604 4.83621 0.
2.4064 6.6356 0.
1.19844 3.31084 0.
1.09067 3.01733 0.
-1.02362 -2.81577 0.
-1.08082 -2.98533 0.
0.748754 2.07288 0.
2.42089 6.68497 0.
-0.919861 -2.544 0.
-1.09647 -3.03545 0.
-0.0690319 -0.164147 0.
-13.9959 -33.7787 0.
-2.63711 -6.67385 0.
-8.17955 -20.7527 0.
-23.7203 -60.3315 0.
-2.60486 -6.94347 0.
2.69604 7.21881 0.
0.617123 1.65976 0.
0.601183 1.59018 0.
-15.6472 -41.5326 0.
-39.2506 -79.3852 0.
-5.67903 -11.3603 0.
-0.517197 -1.02397 0.
-140.311 -274.256 0.
0.228297 0.445033 0.
3.96258 7.70234 0.
-35.7796 -77.4383 0.
4.25846 9.10289 0.
1.73865 3.66833 0.
3.49387 6.53016 0.
-1.6362 -6.31284 0.
-36.295 -47.2249 0.
-3.14616 -3.93979 0.
7.63377 9.19011 0.
-4.48536 -4.94849 0.
9.06639 10.0438 0.
7.6696 8.52941 0.
-3.97916 -4.25184 0.
-1.73245 -1.82184 0.
-1.25439 -1.29912 0.
9.29477 8.86017 0.
-18.8952 -18.6003 0.
-133.191 -128.667 0.
-104.276 -100.407 0.
-3.86669 -3.71133 0.
-46.3917 -43.3555 0.
-47.89 -45.1071 0.
-106.136 -100.673 0.
-2.21527 -2.13446 0.
-5.82041 -5.70877 0.
-31.2009 -31.0994 0.
2.95886 2.49132 0.
5.14658 4.48929 0.
9.03886 7.79233 0.
-5.02117 -4.27559 0.
2.00365 1.76103 0.
3.73159 3.27424 0.
10.126 8.86966 0.
9.09167 8.13411 0.
-1.54458 -1.39253 0.
3.23592 2.94099 0.
-2.50099 -2.39446 0.
9.14009 8.93156 0.
9.14834 9.94211 0.
-2.01123 -2.2316 0.
-63.012 -71.4128 0.
-3.27709 -3.66824 0.
4.64479 5.17692 0.
-71.42 -79.2009 0.
5.38792 6.78678 0.
-3.91443 -5.14074 0.
-96.8531 -132.497 0.
1.45618 2.84679 0.
-109.368 -225.765 0.
-11.9668 -26.2217 0.
-18.5209 -40.9914 0.
-35.5694 -79.5065 0.
-14.5133 -28.737 0.
-14.0575 -27.8815 0.
2.09017 3.98213 0.
-1.51468 -3.05764 0.
1.22096 2.47102 0.
-7.18141 -14.5732 0.
-0.772241 -2.00273 0.
-0.22406 -0.580671 0.
-7.91471 -20.7824 0.
-1.50674 -3.95972 0.
-0.00286087 -0.0075249 0.
-26.0921 -65.9545 0.
-14.8097 -37.3937 0.
-22.144 -55.8351 0.
-34.296 -83.6219 0.
-22.8757 -55.2003 0.
-31.3784 -86.7569 0.
-0.984039 -2.71521 0.
-7.81814 -21.5128 0.
-48.5593 -134.19 0.
-14.9504 -41.2079 0.
-2.6363 -7.24174 0.
-44.1879 -122.363 0.
-28.9347 -80.1442 0.
-18.7982 -51.8371 0.
-23.1772 -64.0399 0.
-39.7473 -109.978 0.
-23.3128 -64.1696 0.
-16.7883 -46.316 0.
-36.3486 -100.463 0.
-4.60827 -12.6709 0.
-18.434 -50.8322 0.
-41.2951 -114.12 0.
-6.44094 -15.1532 0.
-37.9699 -90.0894 0.
-5.77777 -14.3677 0.
-15.3607 -38.3072 0.
-40.244 -100.66 0.
-3.92297 -10.3229 0.
-5.8164 -15.3233 0.
-7.3653 -19.4259 0.
-2.1395 -5.48473 0.
1.38329 3.53396 0.
-7.09227 -13.6338 0.
0.773333 1.48614 0.
3.56862 6.85621 0.
2.17082 4.21644 0.
-14.07 -27.2444 0.
-15.2162 -29.3773 0.
-95.2398 -206.167 0.
-29.2271 -62.4796 0.
-1.15638 -2.44006 0.
-109.492 -210.428 0.
3.02999 5.46891 0.
-120.795 -159.597 0.
-4.22022 -7.07457 0.
1.8583 2.26441 0.
-87.5781 -93.6803 0.
-1.37936 -1.48266 0.
-5.17223 -5.58608 0.
-46.9618 -49.1895 0.
-1.72671 -1.78048 0.
10.022 10.1793 0.
-0.898159 -0.849238 0.
-4.71012 -4.3846 0.
-2.00594 -1.8225 0.
1.1394 1.02696 0.
-3.5979 -3.21751 0.
-2.40883 -2.07652 0.
8.43663 7.28163 0.
-0.715176 -0.617881 0.
3.70883 2.99508 0.
-2.51958 -2.10768 0.
4.26891 3.68996 0.
0.186788 0.150845 0.
4.90638 4.16739 0.
-0.445945 -0.374144 0.
-5.39268 -4.46606 0.
-10.9294 -9.46593 0.
-6.92614 -5.98723 0.
-13.1822 -11.3721 0.
-1.11851 -0.992145 0.
8.03046 7.18041 0.
-65.2974 -58.7571 0.
0.25464 0.239519 0.
-22.5737 -21.6661 0.
5.91443 6.28786 0.
-14.9815 -16.2591 0.
-11.1836 -12.4087 0.
18.4373 13.9403 0.
8.13955 6.85848 0.
-1.68071 -1.59771 0.
7.60669 8.89727 0.
3.01627 3.81369 0.
-31.6732 -43.2047 0.
-1.60047 -8.01512 0.
-1.68114 -3.32671 0.
4.78478 9.78617 0.
3.07725 6.40129 0.
-1.32984 -2.81198 0.
-1.13157 -2.12657 0.
4.62615 8.74243 0.
-14.2673 -27.1085 0.
1.30078 2.61967 0.
-7.02661 -14.1888 0.
-23.9839 -48.5684 0.
-1.54789 -4.02642 0.
2.13495 5.54903 0.
-19.9583 -52.356 0.
-8.20768 -21.5481 0.
-5.77251 -15.168 0.
1.82792 4.63218 0.
-2.152 -5.44604 0.
-6.45201 -16.3062 0.
-12.5046 -30.4383 0.
-0.339175 -0.817274 0.
-1.69005 -4.67404 0.
-1.81197 -5.002 0.
2.86385 7.8858 0.
-1.50189 -4.15163 0.
2.19733 6.06008 0.
-1.12686 -3.0982 0.
-0.79145 -2.19192 0.
-2.13409 -5.91096 0.
-0.0123563 -8.09332 0.
-1.89024 -5.22564 0.
1.12608 3.11688 0.
0.20619 0.567997 0.
-1.06147 -2.93018 0.
-0.0771799 -0.213397 0.
-0.810344 -2.22827 0.
1.60368 4.42207 0.
-0.00789386 -8.05773 0.
-2.38454 -5.60295 0.
-0.299117 -0.708755 0.
0.0959988 0.238206 0.
0.505711 1.25834 0.
-6.87233 -17.1479 0.
1.53807 4.04217 0.
-9.63803 -25.3662 0.
-28.4763 -75.0628 0.
2.0238 5.19724 0.
2.7791 7.11265 0.
-24.5842 -47.3026 0.
1.71783 3.30367 0.
-4.10684 -7.89689 0.
-18.0034 -33.9531 0.
-7.98137 -14.8738 0.
-3.25621 -5.99548 0.
-5.07697 -10.4308 0.
1.77407 3.58139 0.
1.26804 2.5138 0.
0.347639 0.640937 0.
-1.1602 -2.0384 0.
6.43549 8.39696 0.
4.24837 5.04613 0.
-5.55602 -6.51426 0.
-7.21787 -4.96313 0.
-17.3027 -8.00085 0.
-1.88998 -1.98231 0.
-65.7742 -67.4599 0.
-31.5086 -31.8258 0.
-0.294558 -0.29318 0.
-83.2658 -78.0782 0.
3.66416 3.38154 0.
-64.488 -57.8503 0.
10.9733 9.76732 0.
3.78236 3.34077 0.
-21.1733 -17.9996 0.
-7.39973 -6.29964 0.
-36.7341 -31.3064 0.
-1.00232 -0.781434 0.
0.615232 0.496732 0.
-18.4515 -15.395 0.
