# vtk DataFile Version 2.0
test grain
ASCII
DATASET UNSTRUCTURED_GRID
POINTS 5000 float
0.497799 0.00062611 0.
0.5006 0.00079997 0.
0.50307 0.000868076 0.
0.505522 0.000934802 0.
0.507636 0.000948956 0.
0.50975 0.000963314 0.
0.511838 0.000974488 0.
0.513885 0.000979943 0.
0.515931 0.000985429 0.
0.517955 0.0009897 0.
0.519968 0.00099333 0.
0.521981 0.000996973 0.
0.523984 0.00099785 0.
0.525986 0.000998354 0.
0.527988 0.000998834 0.
0.52999 0.000999112 0.
0.531992 0.000999391 0.
0.533994 0.000999638 0.
0.535995 0.000999819 0.
0.537996 0.001 0.
0.539996 0.00100011 0.
0.541997 0.00100017 0.
0.543997 0.00100023 0.
0.545997 0.00100018 0.
0.547998 0.00100009 0.
0.549998 0.001 0.
0.551998 0.00100007 0.
0.553998 0.00100015 0.
0.555998 0.00100022 0.
0.557999 0.00100026 0.
0.559999 0.00100031 0.
0.561999 0.00100035 0.
0.563999 0.00100037 0.
0.565999 0.0010004 0.
0.567999 0.0010004 0.
0.57 0.00100038 0.
0.572 0.00100037 0.
0.574 0.00100037 0.
0.576 0.00100039 0.
0.578 0.0010004 0.
0.58 0.00100044 0.
0.582 0.00100048 0.
0.584 0.00100049 0.
0.586 0.00100047 0.
0.588 0.00100045 0.
0.59 0.00100045 0.
0.592 0.00100047 0.
0.594 0.00100048 0.
0.596 0.00100044 0.
0.598 0.00100038 0.
0.6 0.00100032 0.
0.602 0.00100037 0.
0.604 0.00100043 0.
0.606 0.00100047 0.
0.608 0.00100046 0.
0.61 0.00100045 0.
0.612 0.00100046 0.
0.614 0.00100048 0.
0.616 0.0010005 0.
0.618 0.00100047 0.
0.62 0.00100041 0.
0.622 0.00100036 0.
0.624 0.00100033 0.
0.626 0.00100031 0.
0.628 0.00100029 0.
0.63 0.00100031 0.
0.632001 0.00100033 0.
0.634001 0.00100035 0.
0.636001 0.00100036 0.
0.638001 0.00100038 0.
0.640001 0.00100032 0.
0.642002 0.00100021 0.
0.644002 0.00100011 0.
0.646002 0.00100006 0.
0.648002 0.00100003 0.
0.650002 0.001 0.
0.652003 0.00100006 0.
0.654003 0.00100012 0.
0.656004 0.00100015 0.
0.658004 0.00100008 0.
0.660005 0.001 0.
0.662006 0.000999843 0.
0.664007 0.000999576 0.
0.666008 0.000999309 0.
0.66801 0.000999149 0.
0.670012 0.000999041 0.
0.672014 0.000998933 0.
0.674017 0.000997578 0.
0.67602 0.000996078 0.
0.678026 0.000994187 0.
0.680048 0.000989395 0.
0.68207 0.000984627 0.
0.684106 0.000979571 0.
0.686169 0.000973907 0.
0.688231 0.000968275 0.
0.690393 0.000941335 0.
0.692608 0.00090467 0.
0.694843 0.00086747 0.
0.697599 0.000775393 0.
0.700362 0.000685948 0.
0.495824 0.00163706 0.
0.499114 0.00231194 0.
0.501944 0.00256612 0.
0.504747 0.00278526 0.
0.507107 0.00283986 0.
0.509395 0.002885 0.
0.511624 0.00292264 0.
0.513721 0.00293918 0.
0.515819 0.00295582 0.
0.517878 0.00296884 0.
0.519914 0.00297979 0.
0.521949 0.00299078 0.
0.523959 0.00299354 0.
0.525965 0.00299505 0.
0.52797 0.00299649 0.
0.529975 0.00299733 0.
0.53198 0.00299817 0.
0.533984 0.00299891 0.
0.535986 0.00299946 0.
0.537989 0.003 0.
0.53999 0.00300034 0.
0.541991 0.00300052 0.
0.543992 0.00300069 0.
0.545993 0.00300053 0.
0.547994 0.00300026 0.
0.549995 0.003 0.
0.551995 0.00300022 0.
0.553995 0.00300044 0.
0.555995 0.00300065 0.
0.557996 0.00300079 0.
0.559997 0.00300094 0.
0.561997 0.00300105 0.
0.563998 0.00300112 0.
0.565998 0.00300119 0.
0.567998 0.00300119 0.
0.569999 0.00300114 0.
0.571999 0.0030011 0.
0.573999 0.00300112 0.
0.575999 0.00300116 0.
0.577999 0.0030012 0.
0.579999 0.00300131 0.
0.581999 0.00300143 0.
0.583999 0.00300148 0.
0.585999 0.00300142 0.
0.587999 0.00300135 0.
0.589999 0.00300134 0.
0.591999 0.0030014 0.
0.593999 0.00300145 0.
0.596 0.00300132 0.
0.598 0.00300113 0.
0.6 0.00300095 0.
0.602 0.00300112 0.
0.604 0.00300128 0.
0.606 0.00300141 0.
0.608 0.00300138 0.
0.61 0.00300136 0.
0.612001 0.00300137 0.
0.614001 0.00300143 0.
0.616001 0.00300149 0.
0.618001 0.0030014 0.
0.620001 0.00300123 0.
0.622001 0.00300107 0.
0.624001 0.00300099 0.
0.626001 0.00300092 0.
0.628001 0.00300087 0.
0.630001 0.00300093 0.
0.632002 0.00300099 0.
0.634002 0.00300105 0.
0.636003 0.00300109 0.
0.638003 0.00300113 0.
0.640004 0.00300097 0.
0.642004 0.00300064 0.
0.644005 0.00300032 0.
0.646005 0.00300018 0.
0.648006 0.00300009 0.
0.650006 0.00300001 0.
0.652007 0.00300018 0.
0.654008 0.00300036 0.
0.656009 0.00300045 0.
0.65801 0.00300023 0.
0.660012 0.00300001 0.
0.662014 0.00299952 0.
0.664018 0.00299872 0.
0.666021 0.00299792 0.
0.668026 0.00299745 0.
0.670031 0.00299712 0.
0.672036 0.0029968 0.
0.674046 0.00299268 0.
0.676055 0.00298818 0.
0.678072 0.00298234 0.
0.68013 0.00296786 0.
0.682187 0.00295344 0.
0.684274 0.00293819 0.
0.686405 0.00292101 0.
0.688536 0.00290394 0.
0.690928 0.00280595 0.
0.693394 0.00268973 0.
0.696062 0.00254219 0.
0.699173 0.00225406 0.
0.702364 0.0017843 0.
0.49359 0.00234001 0.
0.497133 0.00345805 0.
0.500631 0.00421017 0.
0.503793 0.00459038 0.
0.50653 0.00472063 0.
0.509004 0.00479951 0.
0.511404 0.00486967 0.
0.513553 0.00489754 0.
0.515704 0.00492556 0.
0.5178 0.00494762 0.
0.519858 0.00496598 0.
0.521917 0.00498441 0.
0.523934 0.00498921 0.
0.525943 0.00499173 0.
0.527952 0.00499414 0.
0.52996 0.00499554 0.
0.531967 0.00499694 0.
0.533974 0.00499818 0.
0.535978 0.00499909 0.
0.537982 0.005 0.
0.539985 0.00500057 0.
0.541986 0.00500086 0.
0.543988 0.00500115 0.
0.545989 0.00500088 0.
0.54799 0.00500044 0.
0.549991 0.005 0.
0.551991 0.00500037 0.
0.553992 0.00500074 0.
0.555992 0.00500108 0.
0.557993 0.00500132 0.
0.559994 0.00500157 0.
0.561995 0.00500175 0.
0.563996 0.00500187 0.
0.565997 0.00500199 0.
0.567997 0.00500198 0.
0.569998 0.00500191 0.
0.571998 0.00500184 0.
0.573998 0.00500187 0.
0.575998 0.00500193 0.
0.577998 0.005002 0.
0.579998 0.00500219 0.
0.581998 0.00500238 0.
0.583999 0.00500247 0.
0.585999 0.00500236 0.
0.587999 0.00500225 0.
0.589999 0.00500224 0.
0.591999 0.00500233 0.
0.593999 0.00500241 0.
0.596 0.00500219 0.
0.598 0.00500189 0.
0.6 0.00500158 0.
0.602 0.00500186 0.
0.604 0.00500214 0.
0.606001 0.00500235 0.
0.608001 0.00500231 0.
0.610001 0.00500226 0.
0.612001 0.00500228 0.
0.614001 0.00500238 0.
0.616001 0.00500248 0.
0.618001 0.00500233 0.
0.620002 0.00500206 0.
0.622002 0.00500179 0.
0.624002 0.00500165 0.
0.626002 0.00500154 0.
0.628002 0.00500145 0.
0.630002 0.00500155 0.
0.632003 0.00500165 0.
0.634003 0.00500175 0.
0.636004 0.00500181 0.
0.638005 0.00500188 0.
0.640006 0.00500161 0.
0.642007 0.00500107 0.
0.644008 0.00500053 0.
0.646009 0.0050003 0.
0.648009 0.00500015 0.
0.65001 0.00500001 0.
0.652011 0.00500031 0.
0.654012 0.00500061 0.
0.656014 0.00500075 0.
0.658016 0.00500038 0.
0.660019 0.00500001 0.
0.662023 0.0049992 0.
0.664028 0.00499786 0.
0.666034 0.00499653 0.
0.668042 0.00499574 0.
0.67005 0.0049952 0.
0.672058 0.00499466 0.
0.674074 0.00498772 0.
0.676091 0.00498019 0.
0.678119 0.00497021 0.
0.680213 0.00494587 0.
0.682307 0.00492166 0.
0.684448 0.00489608 0.
0.68665 0.00486716 0.
0.688851 0.00483841 0.
0.69154 0.00464388 0.
0.694281 0.00443929 0.
0.697545 0.00412003 0.
0.701059 0.0035891 0.
0.704717 0.002492 0.
0.491015 0.00264303 0.
0.495073 0.00419858 0.
0.49901 0.00537448 0.
0.502278 0.00586524 0.
0.505375 0.00620237 0.
0.508007 0.00637614 0.
0.510623 0.00655041 0.
0.512929 0.00664397 0.
0.515229 0.00673714 0.
0.517455 0.00681036 0.
0.519594 0.00685562 0.
0.521735 0.00690155 0.
0.523803 0.00692908 0.
0.525854 0.00695299 0.
0.527904 0.00697567 0.
0.52992 0.00697863 0.
0.531936 0.00698158 0.
0.53395 0.00698518 0.
0.53596 0.00699021 0.
0.53797 0.00699525 0.
0.539976 0.00699828 0.
0.541979 0.00699963 0.
0.543982 0.00700098 0.
0.545984 0.00700125 0.
0.547985 0.00700121 0.
0.549987 0.00700117 0.
0.551987 0.00700134 0.
0.553988 0.00700152 0.
0.555988 0.00700172 0.
0.55799 0.00700197 0.
0.559991 0.00700222 0.
0.561992 0.0070025 0.
0.563993 0.00700281 0.
0.565994 0.00700312 0.
0.567995 0.00700325 0.
0.569996 0.00700329 0.
0.571997 0.00700333 0.
0.573997 0.00700339 0.
0.575997 0.00700344 0.
0.577997 0.00700351 0.
0.579997 0.00700373 0.
0.581997 0.00700395 0.
0.583998 0.0070041 0.
0.585998 0.0070041 0.
0.587998 0.0070041 0.
0.589998 0.0070041 0.
0.591999 0.00700409 0.
0.593999 0.00700409 0.
0.595999 0.00700395 0.
0.598 0.00700378 0.
0.6 0.00700361 0.
0.602001 0.00700379 0.
0.604001 0.00700397 0.
0.606001 0.00700412 0.
0.608001 0.00700412 0.
0.610001 0.00700411 0.
0.612002 0.00700411 0.
0.614002 0.0070041 0.
0.616002 0.0070041 0.
0.618003 0.00700393 0.
0.620003 0.00700368 0.
0.622004 0.00700343 0.
0.624004 0.00700326 0.
0.626004 0.00700311 0.
0.628004 0.00700297 0.
0.630005 0.00700293 0.
0.632005 0.00700289 0.
0.634006 0.00700284 0.
0.636007 0.00700276 0.
0.638009 0.00700269 0.
0.64001 0.00700237 0.
0.642011 0.00700187 0.
0.644013 0.00700137 0.
0.646013 0.00700115 0.
0.648014 0.00700101 0.
0.650015 0.00700087 0.
0.652017 0.00700074 0.
0.654018 0.00700062 0.
0.656021 0.007 0.
0.658026 0.00699774 0.
0.66003 0.00699549 0.
0.662039 0.0069913 0.
0.664052 0.00698483 0.
0.666065 0.00697838 0.
0.668086 0.00697431 0.
0.670109 0.00697128 0.
0.672133 0.00696826 0.
0.674206 0.00693364 0.
0.676282 0.00689752 0.
0.67838 0.00685784 0.
0.680566 0.00680025 0.
0.682749 0.00674378 0.
0.685062 0.00665406 0.
0.687453 0.00654708 0.
0.689918 0.00639527 0.
0.692782 0.00604504 0.
0.695752 0.00570155 0.
0.699272 0.00525056 0.
0.70326 0.00438067 0.
0.707153 0.00287912 0.
0.488523 0.00280303 0.
0.49303 0.00466382 0.
0.496959 0.00604452 0.
0.50055 0.00693549 0.
0.5039 0.00753247 0.
0.506868 0.00788687 0.
0.509692 0.00818025 0.
0.512231 0.00835856 0.
0.5147 0.00852516 0.
0.517091 0.00866734 0.
0.519315 0.00874111 0.
0.521543 0.008816 0.
0.523668 0.00886705 0.
0.525763 0.00891291 0.
0.527855 0.00895717 0.
0.52988 0.00896169 0.
0.531905 0.00896621 0.
0.533927 0.00897212 0.
0.535942 0.00898128 0.
0.537958 0.00899046 0.
0.539967 0.00899599 0.
0.541971 0.00899839 0.
0.543976 0.00900079 0.
0.545978 0.00900163 0.
0.54798 0.00900198 0.
0.549982 0.00900234 0.
0.551983 0.00900232 0.
0.553984 0.00900231 0.
0.555985 0.00900236 0.
0.557986 0.00900262 0.
0.559988 0.00900288 0.
0.561989 0.00900325 0.
0.56399 0.00900375 0.
0.565992 0.00900425 0.
0.567993 0.00900452 0.
0.569994 0.00900468 0.
0.571995 0.00900483 0.
0.573995 0.0090049 0.
0.575995 0.00900495 0.
0.577995 0.00900502 0.
0.579996 0.00900527 0.
0.581996 0.00900552 0.
0.583997 0.00900572 0.
0.585997 0.00900584 0.
0.587998 0.00900595 0.
0.589998 0.00900595 0.
0.591998 0.00900586 0.
0.593999 0.00900576 0.
0.595999 0.00900571 0.
0.598 0.00900567 0.
0.6 0.00900563 0.
0.602001 0.00900572 0.
0.604001 0.00900581 0.
0.606002 0.00900588 0.
0.608002 0.00900593 0.
0.610002 0.00900597 0.
0.612002 0.00900594 0.
0.614003 0.00900583 0.
0.616003 0.00900571 0.
0.618004 0.00900552 0.
0.620005 0.00900529 0.
0.622005 0.00900506 0.
0.624005 0.00900487 0.
0.626005 0.00900468 0.
0.628006 0.0090045 0.
0.630007 0.00900431 0.
0.632008 0.00900412 0.
0.634009 0.00900393 0.
0.636011 0.00900371 0.
0.638012 0.0090035 0.
0.640014 0.00900314 0.
0.642015 0.00900267 0.
0.644017 0.0090022 0.
0.646018 0.009002 0.
0.648019 0.00900187 0.
0.65002 0.00900173 0.
0.652022 0.00900118 0.
0.654025 0.00900062 0.
0.656028 0.00899923 0.
0.658035 0.00899509 0.
0.660042 0.00899095 0.
0.662055 0.00898334 0.
0.664076 0.00897172 0.
0.666097 0.00896013 0.
0.66813 0.00895281 0.
0.670169 0.00894727 0.
0.672208 0.00894173 0.
0.674343 0.0088772 0.
0.67648 0.00881145 0.
0.678657 0.00874041 0.
0.680942 0.00864717 0.
0.683221 0.00855576 0.
0.685771 0.00837596 0.
0.688379 0.00817922 0.
0.691192 0.00782533 0.
0.694228 0.00730008 0.
0.697588 0.00673932 0.
0.701274 0.00606281 0.
0.705436 0.00477353 0.
0.709909 0.00292498 0.
0.485968 0.00287342 0.
0.490714 0.00490318 0.
0.494931 0.0065488 0.
0.498735 0.00783899 0.
0.502309 0.00870173 0.
0.505708 0.00933546 0.
0.508732 0.00973049 0.
0.511521 0.01 0.
0.514134 0.0102392 0.
0.51669 0.0104699 0.
0.518992 0.0105749 0.
0.521301 0.0106832 0.
0.523491 0.0107662 0.
0.525632 0.0108435 0.
0.527773 0.0109207 0.
0.529813 0.0109305 0.
0.531854 0.0109404 0.
0.533889 0.0109515 0.
0.535912 0.0109655 0.
0.537935 0.0109795 0.
0.53995 0.0109885 0.
0.541958 0.0109931 0.
0.543966 0.0109978 0.
0.545971 0.0109997 0.
0.547974 0.0110009 0.
0.549977 0.011002 0.
0.551978 0.0110021 0.
0.553979 0.0110021 0.
0.555981 0.0110022 0.
0.557982 0.0110025 0.
0.559984 0.0110028 0.
0.561986 0.0110032 0.
0.563987 0.0110038 0.
0.565989 0.0110044 0.
0.56799 0.0110048 0.
0.569992 0.011005 0.
0.571993 0.0110053 0.
0.573993 0.0110055 0.
0.575993 0.0110056 0.
0.577994 0.0110058 0.
0.579994 0.0110061 0.
0.581995 0.0110064 0.
0.583996 0.0110066 0.
0.585996 0.0110068 0.
0.587997 0.011007 0.
0.589997 0.011007 0.
0.591998 0.0110069 0.
0.593998 0.0110068 0.
0.595999 0.0110068 0.
0.598 0.0110068 0.
0.6 0.0110069 0.
0.602001 0.0110069 0.
0.604002 0.011007 0.
0.606002 0.011007 0.
0.608002 0.011007 0.
0.610003 0.0110071 0.
0.612003 0.011007 0.
0.614004 0.0110068 0.
0.616005 0.0110065 0.
0.618005 0.0110063 0.
0.620006 0.0110061 0.
0.622007 0.0110058 0.
0.624007 0.0110055 0.
0.626008 0.0110053 0.
0.628008 0.011005 0.
0.63001 0.0110047 0.
0.632011 0.0110043 0.
0.634012 0.011004 0.
0.636014 0.0110037 0.
0.638016 0.0110034 0.
0.640018 0.011003 0.
0.642019 0.0110025 0.
0.644021 0.011002 0.
0.646023 0.0110016 0.
0.648024 0.0110013 0.
0.650026 0.011001 0.
0.65203 0.0109993 0.
0.654034 0.0109977 0.
0.65604 0.0109946 0.
0.658052 0.010987 0.
0.660064 0.0109795 0.
0.662085 0.0109675 0.
0.664115 0.0109507 0.
0.666145 0.0109339 0.
0.6682 0.010917 0.
0.670264 0.0109005 0.
0.67233 0.0108831 0.
0.674526 0.0107801 0.
0.676721 0.010678 0.
0.678985 0.0105665 0.
0.681366 0.0104323 0.
0.683755 0.0102995 0.
0.686523 0.010021 0.
0.689352 0.00973343 0.
0.692501 0.00914612 0.
0.695774 0.0084419 0.
0.699442 0.00766825 0.
0.703392 0.00660285 0.
0.707652 0.00502279 0.
0.71237 0.00297497 0.
0.483584 0.00295346 0.
0.488848 0.00516401 0.
0.493257 0.00704363 0.
0.497177 0.00859718 0.
0.501064 0.00968858 0.
0.504682 0.0104956 0.
0.507836 0.0110157 0.
0.510812 0.0114453 0.
0.513518 0.0118037 0.
0.516197 0.0121677 0.
0.518596 0.0123302 0.
0.520992 0.0124865 0.
0.523263 0.0126162 0.
0.525455 0.0127384 0.
0.527649 0.0128622 0.
0.529716 0.0128836 0.
0.53178 0.0129032 0.
0.533836 0.0129231 0.
0.535869 0.0129427 0.
0.537902 0.0129623 0.
0.539925 0.0129759 0.
0.541939 0.0129839 0.
0.543953 0.0129919 0.
0.54596 0.0129956 0.
0.547965 0.0129979 0.
0.54997 0.0130002 0.
0.551972 0.0130005 0.
0.553974 0.0130008 0.
0.555976 0.0130011 0.
0.557978 0.0130016 0.
0.55998 0.013002 0.
0.561982 0.0130025 0.
0.563984 0.013003 0.
0.565986 0.0130036 0.
0.567987 0.013004 0.
0.569989 0.0130044 0.
0.57199 0.0130048 0.
0.573991 0.0130051 0.
0.575991 0.0130055 0.
0.577992 0.0130059 0.
0.579993 0.0130062 0.
0.581994 0.0130065 0.
0.583995 0.0130068 0.
0.585995 0.013007 0.
0.587996 0.0130073 0.
0.589997 0.0130073 0.
0.591997 0.0130072 0.
0.593998 0.0130072 0.
0.595999 0.0130072 0.
0.598 0.0130073 0.
0.6 0.0130073 0.
0.602001 0.0130074 0.
0.604002 0.0130074 0.
0.606002 0.0130075 0.
0.608003 0.0130075 0.
0.610003 0.0130075 0.
0.612004 0.0130073 0.
0.614005 0.0130069 0.
0.616006 0.0130065 0.
0.618007 0.0130062 0.
0.620008 0.013006 0.
0.622009 0.0130057 0.
0.62401 0.0130053 0.
0.62601 0.0130049 0.
0.628011 0.0130044 0.
0.630013 0.013004 0.
0.632014 0.0130035 0.
0.634016 0.0130031 0.
0.636018 0.0130028 0.
0.63802 0.0130025 0.
0.640022 0.013002 0.
0.642024 0.0130014 0.
0.644026 0.0130008 0.
0.646029 0.0130001 0.
0.648031 0.0129994 0.
0.650034 0.0129986 0.
0.65204 0.0129952 0.
0.654047 0.0129918 0.
0.656057 0.0129861 0.
0.658077 0.0129735 0.
0.660098 0.0129609 0.
0.662129 0.0129437 0.
0.664171 0.0129214 0.
0.666213 0.0128992 0.
0.668299 0.0128648 0.
0.670399 0.0128274 0.
0.672507 0.0127857 0.
0.674766 0.0126325 0.
0.677021 0.0124818 0.
0.679399 0.012305 0.
0.681899 0.0121022 0.
0.684448 0.0118646 0.
0.687298 0.0114125 0.
0.690264 0.0109397 0.
0.693547 0.0102593 0.
0.697072 0.00945288 0.
0.700946 0.00850982 0.
0.705068 0.00709726 0.
0.709547 0.00529393 0.
0.714807 0.00303742 0.
0.481585 0.0030669 0.
0.48722 0.00549661 0.
0.491699 0.00748302 0.
0.495747 0.00921021 0.
0.49983 0.0104922 0.
0.503518 0.0114819 0.
0.506875 0.0122267 0.
0.51003 0.0128271 0.
0.512872 0.013335 0.
0.51566 0.013831 0.
0.518182 0.0140776 0.
0.520666 0.0142829 0.
0.52303 0.0144611 0.
0.525274 0.0146293 0.
0.527522 0.0148005 0.
0.529617 0.014836 0.
0.531705 0.0148655 0.
0.533783 0.0148946 0.
0.535825 0.0149198 0.
0.537868 0.0149451 0.
0.539899 0.0149631 0.
0.541919 0.0149745 0.
0.54394 0.0149859 0.
0.54595 0.0149914 0.
0.547957 0.0149949 0.
0.549964 0.0149984 0.
0.551967 0.014999 0.
0.55397 0.0149996 0.
0.555972 0.0150001 0.
0.557974 0.0150006 0.
0.559976 0.0150011 0.
0.561978 0.0150017 0.
0.56398 0.0150022 0.
0.565982 0.0150027 0.
0.567984 0.0150032 0.
0.569986 0.0150037 0.
0.571988 0.0150042 0.
0.573989 0.0150048 0.
0.575989 0.0150054 0.
0.57799 0.015006 0.
0.579991 0.0150063 0.
0.581992 0.0150066 0.
0.583993 0.0150069 0.
0.585995 0.0150072 0.
0.587996 0.0150075 0.
0.589996 0.0150076 0.
0.591997 0.0150076 0.
0.593998 0.0150075 0.
0.595999 0.0150076 0.
0.598 0.0150077 0.
0.6 0.0150078 0.
0.602001 0.0150079 0.
0.604002 0.0150079 0.
0.606003 0.015008 0.
0.608003 0.0150079 0.
0.610004 0.0150079 0.
0.612005 0.0150076 0.
0.614006 0.015007 0.
0.616007 0.0150065 0.
0.618008 0.0150061 0.
0.62001 0.0150059 0.
0.622011 0.0150056 0.
0.624012 0.0150051 0.
0.626013 0.0150044 0.
0.628014 0.0150039 0.
0.630016 0.0150033 0.
0.632018 0.0150027 0.
0.63402 0.0150022 0.
0.636022 0.0150019 0.
0.638024 0.0150016 0.
0.640026 0.015001 0.
0.642028 0.0150003 0.
0.644031 0.0149996 0.
0.646034 0.0149985 0.
0.648038 0.0149974 0.
0.650041 0.0149962 0.
0.65205 0.014991 0.
0.654059 0.0149858 0.
0.656073 0.0149775 0.
0.658102 0.0149599 0.
0.660131 0.0149422 0.
0.662173 0.0149198 0.
0.664227 0.0148921 0.
0.666281 0.0148644 0.
0.6684 0.0148112 0.
0.670537 0.0147526 0.
0.67269 0.0146842 0.
0.675013 0.0144797 0.
0.67733 0.0142794 0.
0.679844 0.0140286 0.
0.682466 0.0137549 0.
0.685176 0.0133717 0.
0.688097 0.0127489 0.
0.691235 0.0120618 0.
0.694617 0.0112546 0.
0.6983 0.0103137 0.
0.702341 0.00919575 0.
0.706526 0.00755431 0.
0.711173 0.00557942 0.
0.716808 0.00323512 0.
0.479848 0.00323192 0.
0.485743 0.00583968 0.
0.490257 0.00790533 0.
0.494423 0.00976971 0.
0.498571 0.0112066 0.
0.50235 0.0123928 0.
0.505896 0.013364 0.
0.509191 0.0141225 0.
0.512179 0.0147754 0.
0.515006 0.0153351 0.
0.517632 0.0156807 0.
0.520171 0.0159428 0.
0.522625 0.0161871 0.
0.524921 0.0163956 0.
0.527226 0.0166088 0.
0.52939 0.0166927 0.
0.531535 0.0167638 0.
0.533666 0.0168291 0.
0.535727 0.0168615 0.
0.537789 0.016894 0.
0.539838 0.0169207 0.
0.541873 0.016942 0.
0.543908 0.0169634 0.
0.545926 0.0169747 0.
0.547939 0.0169824 0.
0.549952 0.0169903 0.
0.551956 0.0169927 0.
0.553961 0.0169951 0.
0.555965 0.0169972 0.
0.557968 0.0169985 0.
0.559972 0.0169997 0.
0.561975 0.0170007 0.
0.563977 0.0170014 0.
0.565979 0.0170021 0.
0.567981 0.0170027 0.
0.569983 0.0170033 0.
0.571985 0.0170039 0.
0.573986 0.0170046 0.
0.575987 0.0170053 0.
0.577988 0.0170061 0.
0.57999 0.0170064 0.
0.581991 0.0170068 0.
0.583992 0.0170072 0.
0.585994 0.0170076 0.
0.587995 0.017008 0.
0.589996 0.0170081 0.
0.591997 0.0170081 0.
0.593998 0.017008 0.
0.595999 0.0170083 0.
0.598 0.0170086 0.
0.6 0.0170089 0.
0.602001 0.0170088 0.
0.604002 0.0170087 0.
0.606003 0.0170086 0.
0.608004 0.0170084 0.
0.610005 0.0170082 0.
0.612006 0.0170078 0.
0.614007 0.0170072 0.
0.616008 0.0170066 0.
0.61801 0.0170062 0.
0.620011 0.0170058 0.
0.622013 0.0170055 0.
0.624014 0.0170048 0.
0.626015 0.0170041 0.
0.628016 0.0170034 0.
0.630018 0.0170027 0.
0.632021 0.017002 0.
0.634023 0.0170013 0.
0.636025 0.0170006 0.
0.638028 0.0169999 0.
0.640031 0.0169987 0.
0.642035 0.0169971 0.
0.644039 0.0169954 0.
0.646045 0.0169922 0.
0.648051 0.0169886 0.
0.650058 0.0169849 0.
0.652075 0.016974 0.
0.654093 0.0169631 0.
0.656118 0.0169473 0.
0.658164 0.0169178 0.
0.66021 0.0168884 0.
0.662274 0.0168555 0.
0.664354 0.0168185 0.
0.666434 0.0167817 0.
0.66862 0.0166756 0.
0.670824 0.0165611 0.
0.673056 0.0164339 0.
0.675427 0.0161917 0.
0.677786 0.0159564 0.
0.680419 0.015619 0.
0.683115 0.0152811 0.
0.685941 0.014748 0.
0.688908 0.0140049 0.
0.692225 0.0131261 0.
0.695723 0.0121911 0.
0.699501 0.0111126 0.
0.703596 0.00978527 0.
0.707867 0.0080122 0.
0.712539 0.00596214 0.
0.718399 0.00352644 0.
0.47843 0.00353506 0.
0.484409 0.0062083 0.
0.488955 0.00832749 0.
0.493185 0.0102699 0.
0.497328 0.0118552 0.
0.501205 0.0132326 0.
0.50488 0.0143916 0.
0.508224 0.0152468 0.
0.511321 0.0160312 0.
0.514212 0.0166835 0.
0.516983 0.0171845 0.
0.519593 0.0175376 0.
0.522164 0.0178837 0.
0.524529 0.0181397 0.
0.526907 0.018402 0.
0.529147 0.0185384 0.
0.531355 0.0186546 0.
0.533544 0.018762 0.
0.535626 0.0188019 0.
0.537709 0.018842 0.
0.539776 0.0188775 0.
0.541826 0.0189089 0.
0.543876 0.0189405 0.
0.545902 0.0189578 0.
0.547921 0.0189699 0.
0.549939 0.0189821 0.
0.551946 0.0189864 0.
0.553952 0.0189906 0.
0.555959 0.0189944 0.
0.557963 0.0189963 0.
0.559967 0.0189983 0.
0.561971 0.0189998 0.
0.563973 0.0190007 0.
0.565976 0.0190015 0.
0.567979 0.0190022 0.
0.569981 0.0190029 0.
0.571983 0.0190035 0.
0.573984 0.0190044 0.
0.575985 0.0190053 0.
0.577986 0.0190062 0.
0.579988 0.0190066 0.
0.58199 0.019007 0.
0.583991 0.0190074 0.
0.585993 0.0190079 0.
0.587994 0.0190084 0.
0.589995 0.0190086 0.
0.591996 0.0190086 0.
0.593997 0.0190085 0.
0.595998 0.019009 0.
0.597999 0.0190095 0.
0.6 0.0190101 0.
0.602001 0.0190098 0.
0.604002 0.0190095 0.
0.606003 0.0190092 0.
0.608004 0.0190088 0.
0.610005 0.0190084 0.
0.612007 0.019008 0.
0.614008 0.0190074 0.
0.61601 0.0190068 0.
0.618012 0.0190063 0.
0.620013 0.0190058 0.
0.622015 0.0190053 0.
0.624016 0.0190045 0.
0.626017 0.0190037 0.
0.628019 0.0190029 0.
0.630021 0.0190021 0.
0.632023 0.0190012 0.
0.634026 0.0190003 0.
0.636029 0.0189993 0.
0.638032 0.0189983 0.
0.640037 0.0189964 0.
0.642042 0.0189938 0.
0.644047 0.0189912 0.
0.646056 0.0189859 0.
0.648065 0.0189799 0.
0.650074 0.0189735 0.
0.6521 0.0189568 0.
0.654126 0.0189403 0.
0.656163 0.0189167 0.
0.658226 0.018875 0.
0.660289 0.0188335 0.
0.662378 0.0187898 0.
0.664487 0.0187428 0.
0.666594 0.0186961 0.
0.668858 0.018527 0.
0.671136 0.0183505 0.
0.673457 0.0181592 0.
0.675894 0.0178675 0.
0.678343 0.0175697 0.
0.681091 0.017111 0.
0.68387 0.0166559 0.
0.686805 0.0159372 0.
0.689826 0.0151108 0.
0.693245 0.0141241 0.
0.696864 0.0130583 0.
0.70068 0.0118633 0.
0.704786 0.0103355 0.
0.709105 0.00848166 0.
0.713767 0.00641327 0.
0.719666 0.00391902 0.
0.477291 0.00397615 0.
0.483202 0.00662899 0.
0.487756 0.0087901 0.
0.49204 0.0107695 0.
0.496161 0.0124721 0.
0.500108 0.0140049 0.
0.503803 0.0152696 0.
0.50721 0.0162677 0.
0.510426 0.0172299 0.
0.5134 0.0179983 0.
0.51632 0.0186545 0.
0.519013 0.0191034 0.
0.521686 0.0195591 0.
0.524141 0.0198588 0.
0.526582 0.020157 0.
0.528895 0.0203493 0.
0.531156 0.0205168 0.
0.533403 0.0206776 0.
0.535509 0.020726 0.
0.537615 0.0207747 0.
0.539703 0.0208205 0.
0.541768 0.0208641 0.
0.543832 0.0209081 0.
0.545869 0.0209335 0.
0.547895 0.0209515 0.
0.549921 0.0209697 0.
0.551931 0.0209768 0.
0.553941 0.0209835 0.
0.55595 0.0209894 0.
0.557956 0.0209924 0.
0.559961 0.0209954 0.
0.561966 0.0209977 0.
0.563969 0.0209989 0.
0.565973 0.0210001 0.
0.567976 0.021001 0.
0.569978 0.0210018 0.
0.571981 0.0210026 0.
0.573982 0.0210036 0.
0.575983 0.0210047 0.
0.577985 0.0210056 0.
0.579986 0.0210061 0.
0.581988 0.0210066 0.
0.58399 0.0210071 0.
0.585992 0.0210077 0.
0.587993 0.0210083 0.
0.589995 0.0210086 0.
0.591996 0.0210086 0.
0.593997 0.0210086 0.
0.595998 0.0210091 0.
0.597999 0.0210098 0.
0.6 0.0210105 0.
0.602001 0.0210101 0.
0.604003 0.0210098 0.
0.606004 0.0210093 0.
0.608005 0.0210088 0.
0.610006 0.0210082 0.
0.612008 0.0210076 0.
0.61401 0.021007 0.
0.616011 0.0210063 0.
0.618013 0.0210057 0.
0.620015 0.0210051 0.
0.622017 0.0210045 0.
0.624018 0.0210037 0.
0.626019 0.0210028 0.
0.628021 0.0210018 0.
0.630024 0.0210008 0.
0.632027 0.0209997 0.
0.63403 0.0209984 0.
0.636034 0.0209969 0.
0.638038 0.0209953 0.
0.640043 0.0209924 0.
0.642051 0.0209885 0.
0.644058 0.0209846 0.
0.64607 0.0209763 0.
0.648083 0.0209669 0.
0.650097 0.0209569 0.
0.652134 0.020932 0.
0.654171 0.0209073 0.
0.65622 0.020874 0.
0.658301 0.0208194 0.
0.660381 0.0207651 0.
0.662498 0.0207051 0.
0.664639 0.0206411 0.
0.66678 0.0205773 0.
0.669112 0.0203427 0.
0.671451 0.0201065 0.
0.673854 0.019856 0.
0.676356 0.0195242 0.
0.678924 0.0191497 0.
0.681769 0.0185709 0.
0.68466 0.0179541 0.
0.687691 0.017081 0.
0.690847 0.0161076 0.
0.694276 0.0150452 0.
0.697974 0.0138679 0.
0.701836 0.012533 0.
0.705896 0.0108811 0.
0.71023 0.00896678 0.
0.714917 0.00688545 0.
0.720752 0.00442462 0.
0.476414 0.00459782 0.
0.482152 0.00713681 0.
0.486726 0.00932144 0.
0.491025 0.0113165 0.
0.495154 0.0131125 0.
0.499124 0.0147506 0.
0.502812 0.0161149 0.
0.506291 0.01726 0.
0.509585 0.0183521 0.
0.512673 0.0192713 0.
0.515695 0.0200269 0.
0.518478 0.0205477 0.
0.521213 0.0210613 0.
0.523742 0.021438 0.
0.526235 0.021812 0.
0.528616 0.0220916 0.
0.530925 0.0223302 0.
0.533229 0.0225662 0.
0.535366 0.0226275 0.
0.537503 0.022688 0.
0.539617 0.0227469 0.
0.541697 0.0228058 0.
0.543777 0.0228651 0.
0.545826 0.022901 0.
0.547862 0.022927 0.
0.549899 0.0229531 0.
0.551913 0.0229636 0.
0.553927 0.0229736 0.
0.555939 0.0229825 0.
0.557947 0.0229868 0.
0.559955 0.0229912 0.
0.561961 0.0229944 0.
0.563965 0.0229961 0.
0.565969 0.0229978 0.
0.567972 0.0229991 0.
0.569975 0.0230002 0.
0.571979 0.0230013 0.
0.57398 0.0230023 0.
0.575981 0.0230034 0.
0.577983 0.0230044 0.
0.579985 0.023005 0.
0.581987 0.0230056 0.
0.583989 0.0230062 0.
0.58599 0.0230069 0.
0.587992 0.0230075 0.
0.589994 0.0230079 0.
0.591995 0.0230081 0.
0.593997 0.0230082 0.
0.595998 0.0230088 0.
0.597999 0.0230094 0.
0.6 0.0230101 0.
0.602002 0.0230097 0.
0.604003 0.0230094 0.
0.606004 0.023009 0.
0.608006 0.0230082 0.
0.610007 0.0230074 0.
0.612009 0.0230067 0.
0.614011 0.023006 0.
0.616013 0.0230053 0.
0.618015 0.0230046 0.
0.620017 0.0230039 0.
0.622019 0.0230032 0.
0.62402 0.0230022 0.
0.626022 0.0230012 0.
0.628023 0.0230002 0.
0.630027 0.0229988 0.
0.63203 0.0229974 0.
0.634034 0.0229956 0.
0.636039 0.0229933 0.
0.638044 0.022991 0.
0.640052 0.0229868 0.
0.642062 0.0229812 0.
0.644072 0.0229755 0.
0.646089 0.0229633 0.
0.648107 0.0229496 0.
0.650127 0.0229348 0.
0.652177 0.0228988 0.
0.654227 0.0228631 0.
0.656292 0.0228174 0.
0.658392 0.0227486 0.
0.660491 0.0226803 0.
0.662644 0.0225927 0.
0.664827 0.0224965 0.
0.667018 0.0223935 0.
0.669394 0.0220837 0.
0.671771 0.0217769 0.
0.67426 0.0214409 0.
0.67683 0.0210474 0.
0.679496 0.0205813 0.
0.682379 0.0199505 0.
0.685372 0.0191925 0.
0.688484 0.0182007 0.
0.691771 0.0170857 0.
0.695232 0.0159226 0.
0.698971 0.0146616 0.
0.702864 0.013204 0.
0.706889 0.0114617 0.
0.711205 0.00950588 0.
0.715906 0.0074352 0.
0.721576 0.00509085 0.
0.475954 0.00548934 0.
0.481313 0.00776136 0.
0.485873 0.00992368 0.
0.49016 0.0119211 0.
0.494292 0.013783 0.
0.498214 0.0154681 0.
0.501888 0.0169371 0.
0.50543 0.0182104 0.
0.50877 0.0194054 0.
0.511938 0.0204363 0.
0.515005 0.0212724 0.
0.517899 0.0219205 0.
0.520707 0.0225248 0.
0.523328 0.0230007 0.
0.525876 0.0234524 0.
0.528331 0.0238249 0.
0.530688 0.0241354 0.
0.533046 0.0244485 0.
0.535221 0.0245282 0.
0.537389 0.0246005 0.
0.539531 0.0246725 0.
0.541625 0.0247468 0.
0.54372 0.0248216 0.
0.545782 0.0248683 0.
0.547829 0.0249022 0.
0.549876 0.0249363 0.
0.551895 0.0249504 0.
0.553913 0.0249637 0.
0.555929 0.0249755 0.
0.557938 0.0249812 0.
0.559948 0.0249869 0.
0.561956 0.0249911 0.
0.56396 0.0249933 0.
0.565965 0.0249955 0.
0.567969 0.0249972 0.
0.569973 0.0249986 0.
0.571976 0.0249999 0.
0.573978 0.025001 0.
0.575979 0.0250021 0.
0.577981 0.0250032 0.
0.579983 0.0250039 0.
0.581985 0.0250046 0.
0.583987 0.0250053 0.
0.585989 0.025006 0.
0.587991 0.0250067 0.
0.589993 0.0250072 0.
0.591995 0.0250076 0.
0.593996 0.0250079 0.
0.595998 0.0250085 0.
0.597999 0.0250091 0.
0.6 0.0250097 0.
0.602002 0.0250094 0.
0.604003 0.0250091 0.
0.606005 0.0250086 0.
0.608007 0.0250076 0.
0.610008 0.0250066 0.
0.61201 0.0250057 0.
0.614012 0.025005 0.
0.616014 0.0250043 0.
0.618017 0.0250035 0.
0.620019 0.0250027 0.
0.622021 0.0250019 0.
0.624022 0.0250008 0.
0.626024 0.0249997 0.
0.628026 0.0249985 0.
0.63003 0.0249968 0.
0.632034 0.024995 0.
0.634038 0.0249928 0.
0.636044 0.0249898 0.
0.63805 0.0249868 0.
0.64006 0.0249812 0.
0.642073 0.0249738 0.
0.644086 0.0249664 0.
0.646107 0.0249503 0.
0.648131 0.0249322 0.
0.650157 0.0249124 0.
0.652221 0.0248653 0.
0.654284 0.0248186 0.
0.656365 0.0247604 0.
0.658484 0.0246774 0.
0.660601 0.0245949 0.
0.662794 0.024477 0.
0.665019 0.0243479 0.
0.667263 0.0242011 0.
0.669682 0.0238158 0.
0.672098 0.0234378 0.
0.674689 0.0230084 0.
0.677339 0.0225399 0.
0.680118 0.0219372 0.
0.683045 0.0212026 0.
0.686101 0.020312 0.
0.689251 0.0192702 0.
0.692632 0.0180401 0.
0.69614 0.0167721 0.
0.69988 0.0154333 0.
0.703772 0.0138919 0.
0.707762 0.0120915 0.
0.712021 0.0101221 0.
0.716694 0.00809797 0.
0.722099 0.0059237 0.
0.475773 0.00656494 0.
0.480737 0.00854579 0.
0.485231 0.0106252 0.
0.489463 0.0126043 0.
0.493527 0.0144858 0.
0.497388 0.0162079 0.
0.501057 0.017764 0.
0.504597 0.0191242 0.
0.507975 0.0203823 0.
0.511202 0.0215482 0.
0.51431 0.0224858 0.
0.517304 0.0232709 0.
0.520175 0.0239548 0.
0.522886 0.0245271 0.
0.525468 0.0250406 0.
0.527979 0.0254923 0.
0.530364 0.0258479 0.
0.532755 0.0262082 0.
0.534986 0.026339 0.
0.537199 0.0264505 0.
0.539384 0.0265568 0.
0.5415 0.0266457 0.
0.543618 0.0267354 0.
0.5457 0.0267983 0.
0.547766 0.0268481 0.
0.549832 0.0268984 0.
0.551859 0.0269204 0.
0.553884 0.0269406 0.
0.555907 0.0269587 0.
0.557921 0.0269673 0.
0.559935 0.0269759 0.
0.561946 0.0269826 0.
0.563953 0.0269866 0.
0.56596 0.0269907 0.
0.567965 0.0269936 0.
0.569969 0.0269958 0.
0.571973 0.026998 0.
0.573975 0.0269994 0.
0.575977 0.0270007 0.
0.577979 0.027002 0.
0.579981 0.0270027 0.
0.581984 0.0270035 0.
0.583986 0.0270043 0.
0.585988 0.0270052 0.
0.58799 0.027006 0.
0.589992 0.0270066 0.
0.591994 0.0270071 0.
0.593996 0.0270076 0.
0.595997 0.0270082 0.
0.597999 0.0270089 0.
0.6 0.0270095 0.
0.602002 0.027009 0.
0.604004 0.0270085 0.
0.606005 0.0270079 0.
0.608007 0.0270069 0.
0.610009 0.0270059 0.
0.612011 0.027005 0.
0.614013 0.0270041 0.
0.616016 0.0270033 0.
0.618018 0.0270024 0.
0.620021 0.0270015 0.
0.622023 0.0270007 0.
0.624025 0.0269992 0.
0.626027 0.0269976 0.
0.628029 0.0269959 0.
0.630034 0.0269931 0.
0.632038 0.0269903 0.
0.634045 0.0269865 0.
0.636054 0.026981 0.
0.638063 0.0269754 0.
0.640078 0.0269667 0.
0.642096 0.0269556 0.
0.644115 0.0269445 0.
0.646146 0.0269203 0.
0.64818 0.0268934 0.
0.650218 0.0268635 0.
0.652302 0.0267965 0.
0.654386 0.0267303 0.
0.656494 0.0266533 0.
0.658641 0.0265543 0.
0.660786 0.0264564 0.
0.663024 0.0262913 0.
0.665291 0.0261138 0.
0.667595 0.0259031 0.
0.670043 0.0254702 0.
0.672478 0.0250485 0.
0.675158 0.0245422 0.
0.677877 0.0240065 0.
0.680754 0.0232593 0.
0.683719 0.0224231 0.
0.686834 0.0213789 0.
0.690017 0.0202605 0.
0.693429 0.0189804 0.
0.696973 0.0176228 0.
0.700677 0.0162202 0.
0.704549 0.014615 0.
0.708519 0.0127854 0.
0.712666 0.010833 0.
0.717247 0.00888509 0.
0.72231 0.00694501 0.
0.475787 0.00775774 0.
0.480369 0.00947545 0.
0.484714 0.0114169 0.
0.488855 0.0133508 0.
0.492845 0.0152309 0.
0.496639 0.0169767 0.
0.500278 0.0185969 0.
0.503815 0.0200181 0.
0.507209 0.02134 0.
0.510475 0.0226248 0.
0.513614 0.0236511 0.
0.516684 0.0245605 0.
0.519576 0.0252949 0.
0.522353 0.0259694 0.
0.524972 0.0265506 0.
0.527563 0.0271028 0.
0.52999 0.0275119 0.
0.532424 0.0279268 0.
0.534723 0.0281238 0.
0.53699 0.0282847 0.
0.539226 0.0284354 0.
0.541367 0.0285401 0.
0.54351 0.0286456 0.
0.545616 0.0287258 0.
0.547701 0.0287924 0.
0.549786 0.0288596 0.
0.551822 0.0288899 0.
0.553855 0.0289172 0.
0.555885 0.0289418 0.
0.557903 0.0289532 0.
0.559922 0.0289647 0.
0.561937 0.0289739 0.
0.563946 0.0289799 0.
0.565955 0.0289859 0.
0.567961 0.02899 0.
0.569966 0.028993 0.
0.571971 0.028996 0.
0.573973 0.0289977 0.
0.575975 0.0289993 0.
0.577977 0.0290007 0.
0.57998 0.0290016 0.
0.581982 0.0290024 0.
0.583985 0.0290033 0.
0.585987 0.0290043 0.
0.58799 0.0290053 0.
0.589992 0.029006 0.
0.591994 0.0290066 0.
0.593995 0.0290072 0.
0.595997 0.0290079 0.
0.597999 0.0290087 0.
0.6 0.0290094 0.
0.602002 0.0290087 0.
0.604004 0.029008 0.
0.606006 0.0290073 0.
0.608008 0.0290063 0.
0.61001 0.0290053 0.
0.612012 0.0290042 0.
0.614015 0.0290032 0.
0.616017 0.0290022 0.
0.61802 0.0290013 0.
0.620022 0.0290004 0.
0.622025 0.0289995 0.
0.624027 0.0289976 0.
0.62603 0.0289955 0.
0.628032 0.0289932 0.
0.630038 0.0289894 0.
0.632043 0.0289856 0.
0.634051 0.0289802 0.
0.636063 0.0289721 0.
0.638076 0.0289641 0.
0.640095 0.028952 0.
0.642119 0.0289372 0.
0.644144 0.0289224 0.
0.646185 0.0288899 0.
0.64823 0.028854 0.
0.65028 0.0288131 0.
0.652387 0.0287251 0.
0.654493 0.0286381 0.
0.65663 0.0285409 0.
0.65881 0.0284235 0.
0.660988 0.0283074 0.
0.66328 0.0280828 0.
0.665596 0.0278475 0.
0.667977 0.0275565 0.
0.670486 0.0270588 0.
0.673001 0.0265586 0.
0.675721 0.0259579 0.
0.678477 0.025356 0.
0.681402 0.0245237 0.
0.684416 0.0235744 0.
0.687558 0.0224208 0.
0.690772 0.0212197 0.
0.694165 0.0199081 0.
0.697726 0.0184862 0.
0.701408 0.0170241 0.
0.705205 0.0153844 0.
0.709124 0.0135552 0.
0.713176 0.0116327 0.
0.717564 0.00980823 0.
0.722333 0.00812484 0.
0.475911 0.00904148 0.
0.480147 0.0105111 0.
0.484295 0.0122861 0.
0.488326 0.0141612 0.
0.492222 0.0160209 0.
0.495953 0.0177732 0.
0.49957 0.0194471 0.
0.503087 0.0209122 0.
0.506477 0.0222891 0.
0.509758 0.0236459 0.
0.512931 0.0247608 0.
0.516028 0.0257409 0.
0.518948 0.0265691 0.
0.521796 0.0273772 0.
0.524471 0.028043 0.
0.527134 0.0286939 0.
0.529619 0.0291649 0.
0.532098 0.0296301 0.
0.534465 0.0298918 0.
0.536778 0.0301011 0.
0.539064 0.0303014 0.
0.541229 0.0304206 0.
0.543396 0.0305412 0.
0.545524 0.0306393 0.
0.547627 0.0307247 0.
0.54973 0.0308112 0.
0.551777 0.0308517 0.
0.553819 0.0308875 0.
0.555858 0.0309199 0.
0.557881 0.030935 0.
0.559905 0.0309501 0.
0.561924 0.0309625 0.
0.563936 0.0309708 0.
0.565948 0.0309792 0.
0.567956 0.0309849 0.
0.569962 0.0309891 0.
0.571967 0.0309933 0.
0.57397 0.0309955 0.
0.575973 0.0309973 0.
0.577975 0.0309991 0.
0.579978 0.031 0.
0.581981 0.031001 0.
0.583983 0.031002 0.
0.585986 0.0310031 0.
0.587989 0.0310042 0.
0.589991 0.0310051 0.
0.591993 0.0310058 0.
0.593995 0.0310065 0.
0.595997 0.0310073 0.
0.597999 0.031008 0.
0.6 0.0310087 0.
0.602002 0.0310079 0.
0.604004 0.0310071 0.
0.606006 0.0310062 0.
0.608008 0.0310052 0.
0.610011 0.0310042 0.
0.612013 0.0310031 0.
0.614016 0.031002 0.
0.616018 0.031001 0.
0.618021 0.0309999 0.
0.620024 0.0309987 0.
0.622027 0.0309976 0.
0.62403 0.0309952 0.
0.626033 0.0309926 0.
0.628036 0.0309896 0.
0.630043 0.0309843 0.
0.63205 0.030979 0.
0.63406 0.0309715 0.
0.636076 0.0309602 0.
0.638092 0.0309489 0.
0.640117 0.0309329 0.
0.642148 0.0309137 0.
0.644179 0.0308945 0.
0.646232 0.0308515 0.
0.648288 0.0308044 0.
0.650353 0.0307503 0.
0.65248 0.0306406 0.
0.654606 0.0305323 0.
0.656771 0.0304129 0.
0.658983 0.0302765 0.
0.661191 0.0301435 0.
0.663535 0.0298592 0.
0.665897 0.0295668 0.
0.668361 0.029194 0.
0.670932 0.0286336 0.
0.673533 0.028042 0.
0.6763 0.0273324 0.
0.679112 0.0266109 0.
0.682059 0.0257014 0.
0.685097 0.024673 0.
0.68826 0.0234452 0.
0.691509 0.0221715 0.
0.694867 0.0208168 0.
0.698395 0.0193602 0.
0.702063 0.0178506 0.
0.705801 0.0161933 0.
0.70964 0.0143812 0.
0.713586 0.0125091 0.
0.717748 0.0108252 0.
0.722179 0.00940621 0.
0.476062 0.010392 0.
0.479993 0.0116256 0.
0.48395 0.0132357 0.
0.487874 0.015047 0.
0.491673 0.0168702 0.
0.495355 0.0186203 0.
0.498945 0.0203184 0.
0.502416 0.0218306 0.
0.505815 0.0232543 0.
0.509108 0.0246512 0.
0.512289 0.0258399 0.
0.515397 0.0268898 0.
0.518366 0.0278208 0.
0.521273 0.0287467 0.
0.524019 0.0295092 0.
0.526727 0.0302138 0.
0.529263 0.0307315 0.
0.531782 0.0312349 0.
0.534202 0.0315755 0.
0.536553 0.0318579 0.
0.538887 0.032134 0.
0.541077 0.0322718 0.
0.543269 0.0324112 0.
0.545421 0.0325316 0.
0.54754 0.0326404 0.
0.54966 0.0327507 0.
0.551721 0.0328042 0.
0.553775 0.0328505 0.
0.555825 0.0328926 0.
0.557854 0.0329122 0.
0.559884 0.0329318 0.
0.561908 0.032948 0.
0.563923 0.0329593 0.
0.565939 0.0329705 0.
0.567949 0.0329783 0.
0.569956 0.0329841 0.
0.571963 0.0329899 0.
0.573967 0.0329926 0.
0.57597 0.0329948 0.
0.577973 0.0329969 0.
0.579976 0.0329981 0.
0.581979 0.0329993 0.
0.583982 0.0330005 0.
0.585985 0.0330016 0.
0.587988 0.0330028 0.
0.58999 0.0330038 0.
0.591992 0.0330046 0.
0.593994 0.0330055 0.
0.595996 0.0330062 0.
0.597998 0.0330068 0.
0.6 0.0330074 0.
0.602003 0.0330066 0.
0.604005 0.0330057 0.
0.606007 0.0330048 0.
0.608009 0.0330038 0.
0.610012 0.0330027 0.
0.612014 0.0330017 0.
0.614017 0.0330006 0.
0.61602 0.0329994 0.
0.618023 0.0329981 0.
0.620026 0.0329966 0.
0.622029 0.0329951 0.
0.624033 0.0329921 0.
0.626037 0.0329889 0.
0.628042 0.0329852 0.
0.63005 0.0329778 0.
0.632059 0.0329704 0.
0.634072 0.0329602 0.
0.636093 0.0329449 0.
0.638114 0.0329297 0.
0.640144 0.032909 0.
0.642182 0.0328846 0.
0.64422 0.0328602 0.
0.646287 0.0328036 0.
0.648358 0.0327419 0.
0.650439 0.0326706 0.
0.652584 0.0325366 0.
0.654728 0.0324043 0.
0.656923 0.0322516 0.
0.659166 0.0320791 0.
0.66141 0.0319059 0.
0.663807 0.0315529 0.
0.666208 0.0312005 0.
0.668733 0.0307448 0.
0.671342 0.0301468 0.
0.674013 0.029481 0.
0.676821 0.0286852 0.
0.679694 0.0278511 0.
0.682669 0.02687 0.
0.685735 0.025737 0.
0.688899 0.0244703 0.
0.692168 0.0231394 0.
0.695522 0.0217411 0.
0.699014 0.020259 0.
0.702631 0.0187229 0.
0.706319 0.0170573 0.
0.710078 0.0152747 0.
0.71391 0.0134712 0.
0.717877 0.0119248 0.
0.721967 0.0107538 0.
0.476287 0.0118005 0.
0.479955 0.0128346 0.
0.483739 0.0142917 0.
0.487541 0.0160218 0.
0.491234 0.0177875 0.
0.49485 0.0195257 0.
0.498395 0.0212284 0.
0.501839 0.0227764 0.
0.505224 0.0242355 0.
0.50851 0.0256539 0.
0.511695 0.0269237 0.
0.514806 0.0280298 0.
0.517817 0.0290449 0.
0.520753 0.0300376 0.
0.523535 0.0308723 0.
0.526267 0.0316487 0.
0.528873 0.0322567 0.
0.531446 0.0328219 0.
0.533932 0.0332491 0.
0.536322 0.0336058 0.
0.538704 0.033963 0.
0.540922 0.0341215 0.
0.543141 0.0342799 0.
0.545318 0.0344226 0.
0.547453 0.034555 0.
0.54959 0.0346892 0.
0.551665 0.0347565 0.
0.553731 0.0348132 0.
0.555792 0.0348653 0.
0.557828 0.0348893 0.
0.559863 0.0349135 0.
0.561892 0.0349336 0.
0.56391 0.0349477 0.
0.565929 0.0349618 0.
0.567942 0.0349717 0.
0.569951 0.0349791 0.
0.57196 0.0349865 0.
0.573964 0.0349897 0.
0.575968 0.0349923 0.
0.577971 0.0349948 0.
0.579975 0.0349962 0.
0.581978 0.0349976 0.
0.583981 0.034999 0.
0.585984 0.0350002 0.
0.587987 0.0350014 0.
0.589989 0.0350025 0.
0.591991 0.0350035 0.
0.593993 0.0350044 0.
0.595996 0.0350051 0.
0.597998 0.0350056 0.
0.6 0.0350061 0.
0.602003 0.0350052 0.
0.604005 0.0350043 0.
0.606008 0.0350033 0.
0.60801 0.0350023 0.
0.610012 0.0350013 0.
0.612015 0.0350002 0.
0.614018 0.034999 0.
0.616021 0.0349979 0.
0.618024 0.0349963 0.
0.620028 0.0349944 0.
0.622032 0.0349925 0.
0.624036 0.0349889 0.
0.626041 0.0349852 0.
0.628047 0.0349807 0.
0.630058 0.0349713 0.
0.632068 0.0349619 0.
0.634084 0.0349488 0.
0.63611 0.0349296 0.
0.638135 0.0349104 0.
0.640172 0.0348849 0.
0.642216 0.0348554 0.
0.644261 0.0348259 0.
0.646342 0.0347552 0.
0.648428 0.0346789 0.
0.650526 0.0345899 0.
0.65269 0.0344314 0.
0.654852 0.0342749 0.
0.657079 0.0340866 0.
0.659352 0.0338776 0.
0.661637 0.0336616 0.
0.664088 0.0332366 0.
0.666536 0.0328173 0.
0.669129 0.0322579 0.
0.671778 0.0315884 0.
0.674505 0.0308344 0.
0.677331 0.0299818 0.
0.680247 0.029068 0.
0.683238 0.0280365 0.
0.686328 0.0268034 0.
0.689485 0.0254919 0.
0.692764 0.024127 0.
0.6961 0.0226941 0.
0.699549 0.0211947 0.
0.703112 0.0196444 0.
0.706746 0.017987 0.
0.710412 0.0162465 0.
0.714124 0.0145345 0.
0.7179 0.0131084 0.
0.721693 0.0121388 0.
0.476586 0.0132597 0.
0.480044 0.0141416 0.
0.483662 0.0154612 0.
0.48731 0.0170777 0.
0.490902 0.0187812 0.
0.494465 0.0204991 0.
0.497948 0.0221929 0.
0.501355 0.0237615 0.
0.504715 0.0252395 0.
0.507977 0.0266813 0.
0.511162 0.0280239 0.
0.514265 0.0291696 0.
0.517288 0.0302356 0.
0.520227 0.0312742 0.
0.523046 0.0322119 0.
0.525801 0.0330673 0.
0.52847 0.0337674 0.
0.53109 0.0343874 0.
0.533638 0.0348964 0.
0.536051 0.0353073 0.
0.538462 0.0357249 0.
0.540714 0.0359167 0.
0.542958 0.0361032 0.
0.545164 0.0362753 0.
0.547321 0.036428 0.
0.54948 0.0365824 0.
0.551576 0.0366712 0.
0.553661 0.0367482 0.
0.555742 0.0368199 0.
0.557784 0.0368492 0.
0.559827 0.0368786 0.
0.561862 0.0369043 0.
0.563888 0.0369245 0.
0.565913 0.0369447 0.
0.567929 0.0369585 0.
0.569941 0.0369686 0.
0.571952 0.0369787 0.
0.573958 0.0369834 0.
0.575964 0.0369872 0.
0.577969 0.0369909 0.
0.579972 0.036993 0.
0.581976 0.0369951 0.
0.58398 0.036997 0.
0.585983 0.0369985 0.
0.587986 0.037 0.
0.589989 0.0370012 0.
0.591991 0.0370023 0.
0.593993 0.0370034 0.
0.595996 0.037004 0.
0.597998 0.0370044 0.
0.6 0.0370048 0.
0.602003 0.0370039 0.
0.604005 0.037003 0.
0.606008 0.0370021 0.
0.60801 0.0370009 0.
0.610013 0.0369998 0.
0.612016 0.0369984 0.
0.614019 0.0369968 0.
0.616022 0.0369953 0.
0.618026 0.0369929 0.
0.620031 0.0369902 0.
0.622036 0.0369875 0.
0.624042 0.0369824 0.
0.626049 0.0369771 0.
0.628056 0.0369707 0.
0.630071 0.0369577 0.
0.632085 0.0369448 0.
0.634107 0.0369266 0.
0.63614 0.0368996 0.
0.638172 0.0368727 0.
0.640217 0.0368413 0.
0.642269 0.0368068 0.
0.644322 0.0367724 0.
0.646428 0.0366748 0.
0.648538 0.0365716 0.
0.650661 0.0364568 0.
0.652845 0.0362807 0.
0.655025 0.0361064 0.
0.657287 0.0358759 0.
0.65959 0.0356258 0.
0.661914 0.035361 0.
0.664392 0.0348884 0.
0.666882 0.0344127 0.
0.669537 0.0337508 0.
0.67222 0.0330156 0.
0.674997 0.0321714 0.
0.677834 0.0312572 0.
0.68077 0.0302628 0.
0.683775 0.0291919 0.
0.686866 0.0278823 0.
0.690005 0.0265346 0.
0.693265 0.0251485 0.
0.696593 0.0236919 0.
0.699993 0.0221823 0.
0.703485 0.0206289 0.
0.707051 0.0189892 0.
0.710635 0.0173016 0.
0.714213 0.0156954 0.
0.717822 0.0143813 0.
0.721382 0.0135541 0.
0.476943 0.0147702 0.
0.480222 0.015534 0.
0.483664 0.0167173 0.
0.48717 0.0182184 0.
0.490679 0.0198578 0.
0.494166 0.0215374 0.
0.497584 0.0232119 0.
0.500957 0.0247942 0.
0.50428 0.0262759 0.
0.507512 0.0277363 0.
0.510671 0.0291343 0.
0.513763 0.0303155 0.
0.516783 0.0314257 0.
0.519714 0.0325058 0.
0.522558 0.0335286 0.
0.525332 0.0344408 0.
0.528044 0.0352229 0.
0.530686 0.035887 0.
0.53328 0.03647 0.
0.535722 0.0369422 0.
0.538169 0.0374277 0.
0.540469 0.0376775 0.
0.542749 0.0379058 0.
0.544993 0.0381178 0.
0.547176 0.0382922 0.
0.549362 0.0384685 0.
0.551483 0.0385811 0.
0.553589 0.0386803 0.
0.555691 0.0387735 0.
0.55774 0.0388083 0.
0.55979 0.0388432 0.
0.561832 0.0388746 0.
0.563864 0.0389009 0.
0.565896 0.0389274 0.
0.567917 0.0389452 0.
0.569931 0.038958 0.
0.571945 0.0389708 0.
0.573953 0.0389769 0.
0.575959 0.0389821 0.
0.577966 0.038987 0.
0.57997 0.0389898 0.
0.581975 0.0389925 0.
0.583979 0.0389949 0.
0.585982 0.0389967 0.
0.587985 0.0389985 0.
0.589988 0.039 0.
0.591991 0.0390012 0.
0.593993 0.0390024 0.
0.595996 0.0390029 0.
0.597998 0.0390032 0.
0.6 0.0390034 0.
0.602003 0.0390026 0.
0.604005 0.0390018 0.
0.606008 0.0390008 0.
0.608011 0.0389996 0.
0.610013 0.0389983 0.
0.612016 0.0389967 0.
0.61402 0.0389946 0.
0.616024 0.0389926 0.
0.618029 0.0389895 0.
0.620034 0.038986 0.
0.62204 0.0389825 0.
0.624048 0.0389759 0.
0.626056 0.0389689 0.
0.628066 0.0389607 0.
0.630084 0.0389441 0.
0.632103 0.0389276 0.
0.634129 0.0389041 0.
0.63617 0.0388692 0.
0.638211 0.0388344 0.
0.640264 0.0387969 0.
0.642324 0.0387572 0.
0.644384 0.0387177 0.
0.646518 0.0385898 0.
0.648654 0.0384565 0.
0.650806 0.0383132 0.
0.653016 0.0381169 0.
0.655222 0.0379226 0.
0.657534 0.0376353 0.
0.65988 0.0373293 0.
0.662262 0.0369881 0.
0.664771 0.0364393 0.
0.667288 0.0358948 0.
0.669959 0.0351882 0.
0.672666 0.034411 0.
0.675481 0.0334893 0.
0.678332 0.0325187 0.
0.681272 0.0314463 0.
0.684266 0.030322 0.
0.687356 0.0289764 0.
0.690485 0.0276057 0.
0.693696 0.0262046 0.
0.696986 0.0247344 0.
0.700352 0.0232238 0.
0.703777 0.0216722 0.
0.707261 0.0200646 0.
0.710768 0.0184346 0.
0.714223 0.0169355 0.
0.717665 0.0157524 0.
0.721026 0.0150221 0.
0.477317 0.0162971 0.
0.480434 0.0169694 0.
0.48372 0.0180393 0.
0.487104 0.0194327 0.
0.490528 0.0210001 0.
0.493925 0.0226278 0.
0.497293 0.0242826 0.
0.500623 0.0258648 0.
0.503886 0.0273423 0.
0.507077 0.028814 0.
0.510217 0.0302446 0.
0.513286 0.0314649 0.
0.516296 0.0326175 0.
0.519218 0.0337323 0.
0.522088 0.0348234 0.
0.524879 0.0357683 0.
0.52762 0.0366374 0.
0.53028 0.037363 0.
0.532913 0.0380273 0.
0.535394 0.0385676 0.
0.537875 0.0391201 0.
0.540227 0.0394309 0.
0.542542 0.0397002 0.
0.544825 0.0399544 0.
0.547031 0.0401461 0.
0.549242 0.040341 0.
0.551387 0.0404781 0.
0.553512 0.0406025 0.
0.555634 0.0407218 0.
0.557691 0.0407617 0.
0.559748 0.0408017 0.
0.561798 0.0408389 0.
0.563837 0.0408722 0.
0.565875 0.0409056 0.
0.567901 0.0409283 0.
0.569918 0.0409445 0.
0.571936 0.0409607 0.
0.573945 0.0409688 0.
0.575954 0.0409755 0.
0.577962 0.040982 0.
0.579967 0.0409855 0.
0.581972 0.0409891 0.
0.583977 0.0409922 0.
0.585981 0.0409944 0.
0.587984 0.0409965 0.
0.589987 0.0409983 0.
0.59199 0.0409996 0.
0.593993 0.0410009 0.
0.595996 0.0410014 0.
0.597998 0.0410017 0.
0.6 0.0410019 0.
0.602003 0.041001 0.
0.604005 0.0410002 0.
0.606008 0.0409992 0.
0.608011 0.0409978 0.
0.610014 0.0409963 0.
0.612017 0.0409943 0.
0.614022 0.0409917 0.
0.616026 0.0409891 0.
0.618032 0.0409852 0.
0.620038 0.0409807 0.
0.622045 0.0409762 0.
0.624055 0.0409675 0.
0.626066 0.0409585 0.
0.628078 0.0409478 0.
0.630101 0.0409268 0.
0.632124 0.0409058 0.
0.634157 0.0408763 0.
0.636205 0.0408332 0.
0.638253 0.0407902 0.
0.640316 0.0407456 0.
0.642385 0.0406995 0.
0.644454 0.0406537 0.
0.646612 0.0404926 0.
0.648772 0.0403284 0.
0.650952 0.0401578 0.
0.653185 0.0399462 0.
0.655415 0.039735 0.
0.65778 0.0393855 0.
0.660171 0.0390239 0.
0.662611 0.0386022 0.
0.665152 0.0379768 0.
0.667711 0.0373397 0.
0.6704 0.036568 0.
0.673117 0.035741 0.
0.675938 0.0347884 0.
0.67881 0.0337657 0.
0.681752 0.0326302 0.
0.684738 0.031444 0.
0.687802 0.0300816 0.
0.690919 0.0286983 0.
0.694101 0.027287 0.
0.697331 0.0258102 0.
0.700652 0.0243052 0.
0.704009 0.0227653 0.
0.707414 0.0211977 0.
0.710837 0.0196353 0.
0.714194 0.0182371 0.
0.717486 0.0171745 0.
0.720666 0.0165302 0.
0.477678 0.0178515 0.
0.480662 0.0184475 0.
0.48382 0.0194171 0.
0.487096 0.0207113 0.
0.49042 0.022195 0.
0.493736 0.0237722 0.
0.497052 0.0254037 0.
0.500314 0.0269715 0.
0.503525 0.0284448 0.
0.506687 0.0299219 0.
0.509797 0.0313649 0.
0.512842 0.0326286 0.
0.515843 0.0338239 0.
0.518778 0.0349685 0.
0.521659 0.0360919 0.
0.52446 0.0370919 0.
0.527224 0.0380407 0.
0.529908 0.038831 0.
0.532572 0.0395615 0.
0.535086 0.0401487 0.
0.537584 0.0407396 0.
0.539975 0.0411152 0.
0.542323 0.0414329 0.
0.544647 0.0417387 0.
0.546878 0.0419563 0.
0.549114 0.0421778 0.
0.551283 0.0423487 0.
0.553427 0.0425078 0.
0.555568 0.0426626 0.
0.557634 0.0427075 0.
0.5597 0.0427525 0.
0.561759 0.0427958 0.
0.563804 0.0428372 0.
0.565849 0.0428788 0.
0.56788 0.0429074 0.
0.569902 0.0429278 0.
0.571924 0.0429483 0.
0.573936 0.0429587 0.
0.575946 0.0429674 0.
0.577956 0.0429758 0.
0.579963 0.0429803 0.
0.581969 0.0429848 0.
0.583975 0.0429887 0.
0.585979 0.0429913 0.
0.587983 0.042994 0.
0.589987 0.042996 0.
0.59199 0.0429975 0.
0.593993 0.042999 0.
0.595995 0.0429996 0.
0.597998 0.0429999 0.
0.6 0.0430003 0.
0.602003 0.0429993 0.
0.604006 0.0429983 0.
0.606009 0.0429972 0.
0.608012 0.0429955 0.
0.610015 0.0429938 0.
0.612019 0.0429914 0.
0.614024 0.042988 0.
0.616029 0.0429847 0.
0.618036 0.0429797 0.
0.620044 0.0429741 0.
0.622052 0.0429684 0.
0.624065 0.0429573 0.
0.626078 0.0429456 0.
0.628093 0.0429318 0.
0.630122 0.0429053 0.
0.63215 0.0428789 0.
0.63419 0.0428424 0.
0.636246 0.0427904 0.
0.638302 0.0427387 0.
0.640376 0.0426847 0.
0.642459 0.0426292 0.
0.644542 0.0425725 0.
0.646717 0.0423717 0.
0.648892 0.0421691 0.
0.651103 0.0419571 0.
0.653377 0.0417074 0.
0.655641 0.0414648 0.
0.658041 0.0410639 0.
0.660458 0.0406584 0.
0.66294 0.0401679 0.
0.665507 0.0394907 0.
0.668101 0.0387757 0.
0.670806 0.0379465 0.
0.673543 0.0370605 0.
0.676369 0.0360606 0.
0.67924 0.0350056 0.
0.682183 0.0338271 0.
0.68517 0.0325893 0.
0.688215 0.0312126 0.
0.691307 0.0298209 0.
0.694462 0.0284007 0.
0.697648 0.0269194 0.
0.70091 0.0254277 0.
0.704211 0.0239067 0.
0.707533 0.0223847 0.
0.710858 0.0209041 0.
0.714124 0.0195982 0.
0.717296 0.0186318 0.
0.720322 0.0180585 0.
0.478061 0.0194382 0.
0.480945 0.0199733 0.
0.483995 0.0208624 0.
0.487159 0.0220537 0.
0.490378 0.0234551 0.
0.493617 0.0249807 0.
0.496863 0.0265762 0.
0.500055 0.028122 0.
0.503223 0.0295905 0.
0.506344 0.0310639 0.
0.509418 0.0325098 0.
0.512451 0.0338117 0.
0.515447 0.035036 0.
0.518373 0.0362021 0.
0.521251 0.037358 0.
0.524062 0.0384138 0.
0.526842 0.0394245 0.
0.529538 0.0402592 0.
0.532204 0.0410288 0.
0.534749 0.0416821 0.
0.537271 0.0423297 0.
0.539705 0.042782 0.
0.542096 0.0431549 0.
0.544466 0.0435206 0.
0.546722 0.0437646 0.
0.548983 0.0440129 0.
0.551178 0.0442174 0.
0.55334 0.0444114 0.
0.555501 0.0446029 0.
0.557576 0.0446533 0.
0.559652 0.0447033 0.
0.561719 0.0447525 0.
0.563771 0.0448021 0.
0.565823 0.0448519 0.
0.567859 0.0448865 0.
0.569886 0.0449112 0.
0.571913 0.0449359 0.
0.573927 0.0449486 0.
0.575939 0.0449593 0.
0.577951 0.0449696 0.
0.579959 0.044975 0.
0.581966 0.0449805 0.
0.583973 0.0449852 0.
0.585978 0.0449883 0.
0.587982 0.0449914 0.
0.589986 0.0449938 0.
0.591989 0.0449954 0.
0.593992 0.0449971 0.
0.595995 0.0449978 0.
0.597998 0.0449982 0.
0.6 0.0449987 0.
0.602003 0.0449975 0.
0.604006 0.0449964 0.
0.606009 0.0449952 0.
0.608012 0.0449932 0.
0.610016 0.0449913 0.
0.61202 0.0449884 0.
0.614026 0.0449843 0.
0.616032 0.0449802 0.
0.61804 0.0449743 0.
0.62005 0.0449675 0.
0.622059 0.0449606 0.
0.624074 0.044947 0.
0.62609 0.0449327 0.
0.628108 0.0449158 0.
0.630142 0.0448838 0.
0.632176 0.0448519 0.
0.634223 0.0448083 0.
0.636287 0.0447475 0.
0.63835 0.0446869 0.
0.640437 0.0446236 0.
0.642533 0.0445585 0.
0.644632 0.0444895 0.
0.646822 0.0442486 0.
0.649013 0.0440074 0.
0.651258 0.0437529 0.
0.653574 0.0434638 0.
0.655883 0.0431779 0.
0.658318 0.0427178 0.
0.660764 0.0422602 0.
0.663284 0.0416897 0.
0.665866 0.0409623 0.
0.668488 0.0401858 0.
0.671196 0.039314 0.
0.673947 0.038378 0.
0.676777 0.0373354 0.
0.679647 0.0362358 0.
0.682578 0.0350337 0.
0.685549 0.0337577 0.
0.688576 0.0323747 0.
0.691643 0.0309829 0.
0.694763 0.0295547 0.
0.697908 0.028073 0.
0.70111 0.0265981 0.
0.704346 0.0251104 0.
0.707589 0.0236369 0.
0.710817 0.0222367 0.
0.713976 0.0210281 0.
0.717043 0.0201445 0.
0.719958 0.0196216 0.
0.478471 0.0210558 0.
0.481271 0.0215389 0.
0.484222 0.022354 0.
0.48728 0.0234564 0.
0.490406 0.024782 0.
0.493565 0.0262527 0.
0.496726 0.0278022 0.
0.499859 0.0293229 0.
0.502981 0.0307854 0.
0.506062 0.0322465 0.
0.509114 0.0336937 0.
0.512125 0.0350215 0.
0.515097 0.0362628 0.
0.518006 0.0374528 0.
0.520879 0.0386334 0.
0.523692 0.0397314 0.
0.526465 0.0407706 0.
0.529165 0.0416609 0.
0.531837 0.0424866 0.
0.534413 0.0432073 0.
0.536954 0.0439083 0.
0.539428 0.0444372 0.
0.541852 0.0448615 0.
0.544258 0.0452763 0.
0.546532 0.0455413 0.
0.54881 0.0458138 0.
0.551026 0.0460505 0.
0.553204 0.0462719 0.
0.555383 0.0464911 0.
0.55748 0.0465602 0.
0.559576 0.0466273 0.
0.561662 0.0466916 0.
0.563721 0.0467495 0.
0.565781 0.0468077 0.
0.567826 0.0468499 0.
0.569859 0.0468815 0.
0.571893 0.0469133 0.
0.573911 0.0469303 0.
0.575926 0.0469449 0.
0.577941 0.0469588 0.
0.579951 0.0469659 0.
0.581961 0.046973 0.
0.583969 0.0469791 0.
0.585974 0.0469833 0.
0.58798 0.0469874 0.
0.589985 0.0469905 0.
0.591988 0.0469926 0.
0.593992 0.0469948 0.
0.595995 0.0469958 0.
0.597998 0.0469964 0.
0.6 0.0469971 0.
0.602004 0.0469956 0.
0.604007 0.0469941 0.
0.60601 0.0469924 0.
0.608014 0.0469898 0.
0.610018 0.0469871 0.
0.612023 0.0469832 0.
0.61403 0.0469778 0.
0.616038 0.0469724 0.
0.618048 0.0469647 0.
0.62006 0.046956 0.
0.622072 0.0469473 0.
0.624091 0.0469292 0.
0.62611 0.0469102 0.
0.628133 0.0468879 0.
0.630177 0.0468468 0.
0.63222 0.046806 0.
0.634276 0.0467533 0.
0.636348 0.0466835 0.
0.63842 0.046614 0.
0.64053 0.0465311 0.
0.642653 0.0464441 0.
0.644778 0.0463498 0.
0.646982 0.0460825 0.
0.649184 0.045814 0.
0.651453 0.0455184 0.
0.653795 0.0451941 0.
0.656141 0.0448719 0.
0.658602 0.0443624 0.
0.661073 0.0438539 0.
0.663627 0.0432018 0.
0.666223 0.0424224 0.
0.668866 0.0415831 0.
0.671574 0.0406727 0.
0.67433 0.0396923 0.
0.677149 0.0386188 0.
0.680013 0.0374835 0.
0.682928 0.0362628 0.
0.685882 0.0349612 0.
0.688878 0.0335716 0.
0.691911 0.0321826 0.
0.694988 0.0307575 0.
0.698098 0.0292797 0.
0.701244 0.0278216 0.
0.704409 0.0263738 0.
0.707575 0.024958 0.
0.71071 0.0236314 0.
0.713767 0.0225088 0.
0.716732 0.0217019 0.
0.719562 0.0212241 0.
0.478885 0.0226852 0.
0.481618 0.023129 0.
0.484481 0.0238892 0.
0.487446 0.0249152 0.
0.490484 0.0261709 0.
0.493558 0.0275815 0.
0.496649 0.0290855 0.
0.499733 0.0305809 0.
0.502805 0.0320261 0.
0.505848 0.0334722 0.
0.508868 0.0349202 0.
0.511849 0.0362633 0.
0.514789 0.0375149 0.
0.517683 0.0387216 0.
0.520535 0.039917 0.
0.523337 0.0410418 0.
0.526104 0.0421129 0.
0.52881 0.0430593 0.
0.531486 0.0439307 0.
0.534086 0.0447097 0.
0.536637 0.0454436 0.
0.539136 0.0460348 0.
0.541575 0.0465015 0.
0.544004 0.0469708 0.
0.546305 0.0472786 0.
0.548604 0.0475908 0.
0.55085 0.0478685 0.
0.55305 0.0481184 0.
0.555251 0.0483669 0.
0.557375 0.0484597 0.
0.559496 0.0485472 0.
0.561603 0.0486292 0.
0.563671 0.0486956 0.
0.565739 0.0487623 0.
0.567791 0.0488125 0.
0.569832 0.0488514 0.
0.571873 0.0488904 0.
0.573895 0.0489119 0.
0.575914 0.0489303 0.
0.577932 0.048948 0.
0.579943 0.0489567 0.
0.581955 0.0489654 0.
0.583965 0.048973 0.
0.585971 0.0489782 0.
0.587978 0.0489834 0.
0.589983 0.0489872 0.
0.591987 0.0489898 0.
0.593991 0.0489925 0.
0.595994 0.0489938 0.
0.597998 0.0489946 0.
0.600001 0.0489955 0.
0.602004 0.0489937 0.
0.604007 0.0489919 0.
0.606011 0.0489897 0.
0.608015 0.0489863 0.
0.61002 0.0489829 0.
0.612026 0.0489779 0.
0.614035 0.0489712 0.
0.616043 0.0489645 0.
0.618056 0.0489551 0.
0.62007 0.0489445 0.
0.622084 0.0489339 0.
0.624107 0.0489112 0.
0.626131 0.0488874 0.
0.628159 0.0488594 0.
0.630213 0.048809 0.
0.632265 0.0487588 0.
0.63433 0.0486965 0.
0.636412 0.0486173 0.
0.638493 0.0485384 0.
0.640631 0.048432 0.
0.642785 0.0483187 0.
0.644943 0.0481936 0.
0.64717 0.0478981 0.
0.649393 0.0476022 0.
0.651693 0.047252 0.
0.65405 0.0468725 0.
0.656421 0.0464891 0.
0.658901 0.0459444 0.
0.661386 0.0454051 0.
0.663962 0.0446936 0.
0.666569 0.0438721 0.
0.66923 0.0429785 0.
0.671936 0.0420347 0.
0.674686 0.0410132 0.
0.677496 0.0399141 0.
0.680347 0.0387489 0.
0.683235 0.037517 0.
0.686162 0.0362002 0.
0.689131 0.0348094 0.
0.692125 0.0334203 0.
0.695153 0.032003 0.
0.698216 0.0305417 0.
0.70131 0.0291013 0.
0.704413 0.0276913 0.
0.707501 0.026336 0.
0.710552 0.0250828 0.
0.713517 0.0240295 0.
0.71639 0.0232903 0.
0.719145 0.0228506 0.
0.479292 0.024332 0.
0.481969 0.02475 0.
0.48476 0.0254614 0.
0.48764 0.0264175 0.
0.490593 0.027605 0.
0.493593 0.0289596 0.
0.496623 0.0304206 0.
0.499651 0.0318784 0.
0.502674 0.0333013 0.
0.505679 0.0347378 0.
0.508666 0.036182 0.
0.511611 0.0375324 0.
0.514522 0.0387909 0.
0.517385 0.0400091 0.
0.520216 0.0412118 0.
0.523006 0.0423626 0.
0.525764 0.0434576 0.
0.528471 0.0444481 0.
0.531145 0.0453567 0.
0.533758 0.0461836 0.
0.53632 0.0469564 0.
0.538846 0.0476188 0.
0.5413 0.0481352 0.
0.54375 0.0486593 0.
0.546079 0.0490101 0.
0.548401 0.0493616 0.
0.550677 0.0496825 0.
0.552898 0.0499586 0.
0.555121 0.0502308 0.
0.557269 0.050348 0.
0.559412 0.0504582 0.
0.561538 0.0505611 0.
0.563614 0.0506355 0.
0.565691 0.0507102 0.
0.567751 0.0507687 0.
0.5698 0.0508158 0.
0.571849 0.0508631 0.
0.573875 0.0508899 0.
0.575898 0.050913 0.
0.57792 0.050935 0.
0.579933 0.0509455 0.
0.581947 0.050956 0.
0.583959 0.0509652 0.
0.585967 0.0509717 0.
0.587975 0.0509782 0.
0.589981 0.050983 0.
0.591986 0.0509864 0.
0.59399 0.0509897 0.
0.595994 0.0509912 0.
0.597997 0.0509922 0.
0.600001 0.0509932 0.
0.602004 0.0509911 0.
0.604008 0.0509889 0.
0.606012 0.0509863 0.
0.608018 0.0509819 0.
0.610023 0.0509776 0.
0.612031 0.0509714 0.
0.614041 0.0509629 0.
0.616052 0.0509545 0.
0.618066 0.0509432 0.
0.620083 0.0509306 0.
0.6221 0.050918 0.
0.624127 0.0508898 0.
0.626156 0.0508604 0.
0.62819 0.0508257 0.
0.630253 0.0507646 0.
0.632316 0.050704 0.
0.63439 0.0506322 0.
0.636481 0.0505447 0.
0.638571 0.0504576 0.
0.640734 0.050324 0.
0.642915 0.0501825 0.
0.645103 0.0500283 0.
0.647354 0.0497096 0.
0.6496 0.0493877 0.
0.651929 0.0489777 0.
0.654303 0.0485434 0.
0.656701 0.048101 0.
0.659202 0.0475104 0.
0.661709 0.0469179 0.
0.664295 0.0461517 0.
0.666902 0.0453027 0.
0.669578 0.0443716 0.
0.672283 0.0433977 0.
0.675024 0.0423403 0.
0.677811 0.041221 0.
0.680645 0.0400352 0.
0.683516 0.038792 0.
0.686407 0.0374647 0.
0.689336 0.0360794 0.
0.692298 0.0346948 0.
0.69528 0.0332835 0.
0.698297 0.0318424 0.
0.701331 0.0304299 0.
0.704371 0.0290576 0.
0.707391 0.0277587 0.
0.71036 0.0265785 0.
0.713243 0.0255913 0.
0.716041 0.0249001 0.
0.718732 0.0244873 0.
0.479693 0.0260012 0.
0.482322 0.0263943 0.
0.485043 0.0270557 0.
0.487842 0.0279515 0.
0.49072 0.0290822 0.
0.493655 0.0303855 0.
0.496626 0.0317953 0.
0.499605 0.0332134 0.
0.502584 0.0346203 0.
0.505552 0.036043 0.
0.508494 0.0374748 0.
0.511401 0.0388303 0.
0.51428 0.0400959 0.
0.51712 0.0413193 0.
0.519928 0.0425273 0.
0.522698 0.043698 0.
0.525447 0.0448109 0.
0.528154 0.0458402 0.
0.530822 0.0467828 0.
0.533447 0.0476587 0.
0.536023 0.0484689 0.
0.538573 0.0491946 0.
0.541044 0.049755 0.
0.543504 0.0503131 0.
0.545859 0.0507017 0.
0.548201 0.051086 0.
0.550503 0.0514469 0.
0.552746 0.0517492 0.
0.554997 0.0520528 0.
0.557164 0.0522056 0.
0.55932 0.0523498 0.
0.561461 0.0524829 0.
0.563548 0.0525654 0.
0.565635 0.0526482 0.
0.567705 0.0527161 0.
0.569762 0.0527732 0.
0.57182 0.0528307 0.
0.573852 0.0528639 0.
0.575878 0.0528924 0.
0.577904 0.0529197 0.
0.579921 0.0529321 0.
0.581937 0.0529445 0.
0.583951 0.0529556 0.
0.585961 0.0529637 0.
0.587971 0.0529718 0.
0.589978 0.0529779 0.
0.591984 0.0529821 0.
0.593989 0.0529864 0.
0.595993 0.0529882 0.
0.597997 0.0529892 0.
0.600001 0.0529902 0.
0.602005 0.0529878 0.
0.60401 0.0529854 0.
0.606015 0.0529823 0.
0.608021 0.0529767 0.
0.610028 0.0529712 0.
0.612037 0.0529634 0.
0.614049 0.0529528 0.
0.616062 0.0529422 0.
0.61808 0.0529288 0.
0.620099 0.052914 0.
0.622119 0.0528993 0.
0.624152 0.0528645 0.
0.626185 0.0528283 0.
0.628226 0.0527853 0.
0.6303 0.0527112 0.
0.632374 0.0526377 0.
0.63446 0.0525555 0.
0.636561 0.0524607 0.
0.638662 0.0523663 0.
0.640841 0.0521908 0.
0.643036 0.0520044 0.
0.645246 0.0518078 0.
0.647527 0.0514691 0.
0.649799 0.0511306 0.
0.652155 0.0506696 0.
0.654543 0.0501905 0.
0.656964 0.049698 0.
0.659483 0.049071 0.
0.662011 0.048428 0.
0.664606 0.0476109 0.
0.667221 0.0467236 0.
0.669893 0.0457641 0.
0.6726 0.0447703 0.
0.675338 0.043683 0.
0.678104 0.0425436 0.
0.68091 0.0413426 0.
0.683756 0.0400945 0.
0.686626 0.0387592 0.
0.689518 0.0373804 0.
0.692436 0.036007 0.
0.695376 0.0346051 0.
0.698347 0.0331821 0.
0.701327 0.0317977 0.
0.7043 0.0304695 0.
0.707255 0.029223 0.
0.710154 0.0281089 0.
0.712965 0.0271811 0.
0.715696 0.0265339 0.
0.718334 0.0261426 0.
0.480109 0.0276797 0.
0.482691 0.0280526 0.
0.485349 0.0286763 0.
0.488083 0.0295287 0.
0.490899 0.030611 0.
0.493771 0.0318609 0.
0.496684 0.0332175 0.
0.499614 0.0345996 0.
0.502549 0.0359877 0.
0.505468 0.037387 0.
0.508361 0.0388066 0.
0.511232 0.0401643 0.
0.514078 0.0414287 0.
0.516887 0.0426539 0.
0.519665 0.0438663 0.
0.522427 0.045051 0.
0.525161 0.0461773 0.
0.527857 0.0472385 0.
0.530518 0.0482115 0.
0.533148 0.0491322 0.
0.535731 0.0499714 0.
0.538288 0.0507285 0.
0.540766 0.0513312 0.
0.543235 0.0519357 0.
0.545622 0.0523724 0.
0.547989 0.0527954 0.
0.550321 0.0532044 0.
0.552592 0.0535378 0.
0.55487 0.053873 0.
0.557058 0.054061 0.
0.559227 0.0542394 0.
0.561383 0.0544045 0.
0.56348 0.0544951 0.
0.565578 0.054586 0.
0.567659 0.0546633 0.
0.569725 0.0547305 0.
0.571791 0.0547981 0.
0.573828 0.0548379 0.
0.575859 0.0548719 0.
0.577889 0.0549044 0.
0.579908 0.0549187 0.
0.581927 0.0549331 0.
0.583943 0.0549459 0.
0.585955 0.0549557 0.
0.587966 0.0549655 0.
0.589975 0.0549728 0.
0.591981 0.0549779 0.
0.593988 0.0549831 0.
0.595993 0.0549851 0.
0.597997 0.0549862 0.
0.600001 0.0549873 0.
0.602006 0.0549845 0.
0.604011 0.0549818 0.
0.606017 0.0549782 0.
0.608024 0.0549715 0.
0.610032 0.0549649 0.
0.612043 0.0549554 0.
0.614058 0.0549427 0.
0.616072 0.0549299 0.
0.618093 0.0549144 0.
0.620116 0.0548974 0.
0.622139 0.0548805 0.
0.624176 0.0548392 0.
0.626215 0.0547962 0.
0.628262 0.0547448 0.
0.630348 0.0546576 0.
0.632432 0.0545711 0.
0.63453 0.0544787 0.
0.636642 0.0543766 0.
0.638754 0.0542748 0.
0.64095 0.0540547 0.
0.643159 0.053823 0.
0.645392 0.053586 0.
0.647705 0.0532234 0.
0.650007 0.0528615 0.
0.652396 0.0523397 0.
0.654807 0.051813 0.
0.657253 0.051268 0.
0.65977 0.050605 0.
0.662306 0.04992 0.
0.664902 0.0490717 0.
0.667518 0.0481491 0.
0.670183 0.0471622 0.
0.672876 0.0461466 0.
0.675604 0.0450427 0.
0.678362 0.0438878 0.
0.681146 0.0426746 0.
0.683956 0.0414235 0.
0.686795 0.0400899 0.
0.689656 0.0387196 0.
0.692535 0.0373583 0.
0.695426 0.0359764 0.
0.698344 0.0345742 0.
0.701271 0.0332155 0.
0.704182 0.0319293 0.
0.707069 0.0307358 0.
0.709906 0.0296772 0.
0.712658 0.0287987 0.
0.715334 0.0281889 0.
0.717929 0.0278156 0.
0.480536 0.0293638 0.
0.483079 0.0297263 0.
0.485688 0.0303246 0.
0.488372 0.0311431 0.
0.491126 0.0321811 0.
0.49394 0.0333818 0.
0.4968 0.0346907 0.
0.499681 0.0360379 0.
0.502562 0.0373966 0.
0.505428 0.0387749 0.
0.508278 0.0401822 0.
0.511108 0.041533 0.
0.513911 0.0427932 0.
0.516691 0.044021 0.
0.519454 0.0452359 0.
0.522194 0.0464272 0.
0.524903 0.0475618 0.
0.527585 0.0486487 0.
0.530239 0.0496456 0.
0.532864 0.0505899 0.
0.53544 0.05145 0.
0.537998 0.0522458 0.
0.540487 0.0529036 0.
0.542966 0.0535542 0.
0.545381 0.0540385 0.
0.547769 0.0544989 0.
0.550123 0.0549541 0.
0.55241 0.0553064 0.
0.5547 0.0556659 0.
0.556907 0.0558897 0.
0.559091 0.0561012 0.
0.561264 0.0562998 0.
0.563376 0.0563982 0.
0.56549 0.0564972 0.
0.567586 0.0565854 0.
0.569664 0.056666 0.
0.571743 0.0567473 0.
0.573789 0.056797 0.
0.575827 0.0568395 0.
0.577865 0.0568805 0.
0.579887 0.0568972 0.
0.581909 0.0569139 0.
0.583929 0.0569293 0.
0.585944 0.0569419 0.
0.587958 0.0569545 0.
0.589969 0.0569638 0.
0.591977 0.0569704 0.
0.593985 0.0569771 0.
0.595991 0.0569797 0.
0.597996 0.0569812 0.
0.600001 0.0569827 0.
0.602008 0.0569791 0.
0.604014 0.0569754 0.
0.606021 0.0569707 0.
0.608031 0.0569621 0.
0.610041 0.0569536 0.
0.612054 0.0569415 0.
0.614072 0.0569254 0.
0.616091 0.0569093 0.
0.618114 0.0568911 0.
0.620141 0.0568718 0.
0.622167 0.0568525 0.
0.624217 0.0567992 0.
0.626267 0.0567444 0.
0.628327 0.0566801 0.
0.630423 0.0565785 0.
0.632518 0.056478 0.
0.634634 0.0563734 0.
0.636768 0.0562616 0.
0.638899 0.056151 0.
0.641108 0.0558904 0.
0.643323 0.0556203 0.
0.645573 0.055345 0.
0.647899 0.0549662 0.
0.650228 0.0545843 0.
0.652642 0.0540042 0.
0.655073 0.053431 0.
0.65754 0.0528339 0.
0.660058 0.0521292 0.
0.662595 0.0513935 0.
0.665184 0.0505221 0.
0.667791 0.0495782 0.
0.670441 0.0485738 0.
0.673122 0.0475387 0.
0.675829 0.0464223 0.
0.678562 0.0452606 0.
0.681329 0.0440415 0.
0.684113 0.0427877 0.
0.686919 0.0414584 0.
0.689741 0.040101 0.
0.692583 0.0387525 0.
0.695432 0.0373904 0.
0.698289 0.0360197 0.
0.701158 0.0346876 0.
0.70401 0.033438 0.
0.706835 0.0322902 0.
0.709613 0.0312808 0.
0.712318 0.0304427 0.
0.71495 0.0298608 0.
0.717508 0.0295052 0.
0.480974 0.0310702 0.
0.483482 0.0314232 0.
0.48605 0.0319958 0.
0.488688 0.032787 0.
0.491392 0.0337877 0.
0.494156 0.0349465 0.
0.496964 0.036212 0.
0.499788 0.0375198 0.
0.502614 0.0388517 0.
0.505432 0.0402121 0.
0.508236 0.0415997 0.
0.51102 0.042939 0.
0.51379 0.0441958 0.
0.516544 0.0454231 0.
0.519276 0.0466331 0.
0.52199 0.0478262 0.
0.524678 0.0489696 0.
0.527344 0.050073 0.
0.52998 0.0510822 0.
0.53259 0.0520456 0.
0.53516 0.0529333 0.
0.537715 0.0537608 0.
0.540213 0.0544624 0.
0.542695 0.0551423 0.
0.545121 0.0556701 0.
0.547516 0.0561578 0.
0.549887 0.056647 0.
0.552187 0.0570373 0.
0.554492 0.0574354 0.
0.556726 0.0577019 0.
0.558932 0.057949 0.
0.56113 0.058186 0.
0.563261 0.058294 0.
0.565394 0.0584028 0.
0.567508 0.0585034 0.
0.5696 0.0585985 0.
0.571693 0.0586946 0.
0.573749 0.0587551 0.
0.575795 0.0588066 0.
0.577841 0.0588563 0.
0.579866 0.0588754 0.
0.581891 0.0588945 0.
0.583915 0.0589125 0.
0.585932 0.0589279 0.
0.58795 0.0589434 0.
0.589963 0.0589549 0.
0.591973 0.0589629 0.
0.593982 0.058971 0.
0.595989 0.0589743 0.
0.597996 0.0589762 0.
0.600002 0.0589782 0.
0.602009 0.0589736 0.
0.604016 0.058969 0.
0.606025 0.0589631 0.
0.608037 0.0589526 0.
0.610049 0.0589422 0.
0.612066 0.0589275 0.
0.614087 0.058908 0.
0.616109 0.0588885 0.
0.618137 0.0588675 0.
0.620167 0.0588458 0.
0.622196 0.058824 0.
0.624259 0.0587582 0.
0.626322 0.0586908 0.
0.628395 0.0586124 0.
0.630503 0.0584952 0.
0.63261 0.0583791 0.
0.634751 0.0582599 0.
0.636914 0.0581348 0.
0.639075 0.0580082 0.
0.641301 0.0577069 0.
0.643531 0.0573999 0.
0.645805 0.0570759 0.
0.648145 0.0566484 0.
0.650484 0.0562221 0.
0.652904 0.0556249 0.
0.655341 0.0550303 0.
0.657819 0.0543899 0.
0.660335 0.0536504 0.
0.662873 0.0528721 0.
0.665452 0.0519801 0.
0.668046 0.0510168 0.
0.670676 0.0499999 0.
0.673333 0.048952 0.
0.67602 0.0478269 0.
0.678729 0.0466609 0.
0.681466 0.0454416 0.
0.684223 0.0441887 0.
0.686998 0.0428668 0.
0.689782 0.0415241 0.
0.692583 0.040192 0.
0.695392 0.0388472 0.
0.698199 0.0375056 0.
0.701006 0.0362081 0.
0.703799 0.0349922 0.
0.706569 0.0338816 0.
0.709292 0.032911 0.
0.711951 0.032108 0.
0.714546 0.0315484 0.
0.717073 0.0312087 0.
0.481409 0.0327929 0.
0.483886 0.0331346 0.
0.486419 0.0336849 0.
0.489019 0.0344545 0.
0.491677 0.0354218 0.
0.494395 0.0365423 0.
0.497148 0.0377657 0.
0.499916 0.039041 0.
0.50269 0.0403485 0.
0.505458 0.0416853 0.
0.508217 0.0430512 0.
0.510965 0.044379 0.
0.513702 0.0456295 0.
0.516421 0.0468487 0.
0.519123 0.0480524 0.
0.521812 0.0492449 0.
0.524477 0.0503945 0.
0.527117 0.0515069 0.
0.529733 0.0525281 0.
0.532328 0.0535087 0.
0.534889 0.0544164 0.
0.537435 0.0552619 0.
0.539934 0.0560017 0.
0.542416 0.0567128 0.
0.544855 0.0572887 0.
0.547261 0.0578072 0.
0.549649 0.0583333 0.
0.551965 0.0587642 0.
0.554285 0.0592005 0.
0.556546 0.0595107 0.
0.558774 0.0597927 0.
0.560996 0.0600662 0.
0.563146 0.0601833 0.
0.565297 0.0603014 0.
0.567427 0.0604142 0.
0.569531 0.0605234 0.
0.571635 0.0606337 0.
0.573701 0.0607062 0.
0.575757 0.0607685 0.
0.577813 0.0608292 0.
0.579842 0.0608506 0.
0.58187 0.0608721 0.
0.583897 0.0608926 0.
0.585918 0.0609112 0.
0.587939 0.0609299 0.
0.589954 0.0609438 0.
0.591966 0.0609535 0.
0.593978 0.0609633 0.
0.595987 0.0609673 0.
0.597995 0.0609697 0.
0.600002 0.0609721 0.
0.602011 0.0609664 0.
0.60402 0.0609608 0.
0.606031 0.0609535 0.
0.608046 0.0609407 0.
0.610061 0.060928 0.
0.612081 0.0609105 0.
0.614106 0.0608876 0.
0.616131 0.0608646 0.
0.618163 0.0608402 0.
0.620197 0.0608149 0.
0.622232 0.0607897 0.
0.624308 0.0607093 0.
0.626383 0.0606277 0.
0.628469 0.060535 0.
0.630587 0.0604045 0.
0.632704 0.0602748 0.
0.634868 0.0601403 0.
0.637059 0.0600029 0.
0.639249 0.0598599 0.
0.641492 0.0595202 0.
0.643738 0.0591766 0.
0.646036 0.0588009 0.
0.648389 0.0583249 0.
0.650745 0.0578447 0.
0.653171 0.0572216 0.
0.655611 0.0566069 0.
0.658094 0.0559325 0.
0.660606 0.0551681 0.
0.663141 0.0543543 0.
0.665709 0.0534453 0.
0.66829 0.0524658 0.
0.6709 0.05144 0.
0.673534 0.0503828 0.
0.676192 0.0492514 0.
0.678871 0.0480836 0.
0.68158 0.0468671 0.
0.684304 0.0456193 0.
0.687048 0.0443063 0.
0.689798 0.0429786 0.
0.692553 0.0416667 0.
0.695321 0.0403438 0.
0.698086 0.0390263 0.
0.700843 0.0377589 0.
0.703576 0.0365782 0.
0.706289 0.0355025 0.
0.708963 0.0345624 0.
0.711577 0.0337905 0.
0.714137 0.0332489 0.
0.716634 0.0329245 0.
0.481833 0.034535 0.
0.484283 0.034862 0.
0.486786 0.0353921 0.
0.489351 0.0361413 0.
0.49197 0.0370767 0.
0.494644 0.0381637 0.
0.497343 0.0393522 0.
0.50006 0.0405992 0.
0.502783 0.0418792 0.
0.505501 0.043192 0.
0.508219 0.0445372 0.
0.510929 0.04585 0.
0.513628 0.0470885 0.
0.516314 0.048299 0.
0.518989 0.0494968 0.
0.521652 0.0506889 0.
0.52429 0.0518402 0.
0.526907 0.0529597 0.
0.529503 0.0539895 0.
0.532082 0.0549803 0.
0.534631 0.0559058 0.
0.537167 0.0567666 0.
0.539666 0.0575424 0.
0.542149 0.0582847 0.
0.5446 0.0589086 0.
0.547017 0.059455 0.
0.549418 0.0600065 0.
0.551744 0.0604643 0.
0.554072 0.0609235 0.
0.556354 0.0612718 0.
0.558603 0.0615875 0.
0.560853 0.0618989 0.
0.563023 0.062039 0.
0.565192 0.0621769 0.
0.567339 0.0623089 0.
0.569451 0.0624334 0.
0.571563 0.062559 0.
0.573642 0.0626468 0.
0.575712 0.0627233 0.
0.57778 0.0627984 0.
0.579813 0.0628222 0.
0.581846 0.062846 0.
0.583876 0.0628692 0.
0.5859 0.0628914 0.
0.587924 0.0629136 0.
0.589943 0.0629303 0.
0.591957 0.0629421 0.
0.593972 0.0629539 0.
0.595983 0.0629587 0.
0.597993 0.0629615 0.
0.600003 0.0629642 0.
0.602015 0.0629574 0.
0.604026 0.0629505 0.
0.606039 0.0629417 0.
0.608057 0.0629262 0.
0.610076 0.0629108 0.
0.612099 0.0628902 0.
0.614128 0.0628637 0.
0.616157 0.0628373 0.
0.618194 0.062808 0.
0.620235 0.0627776 0.
0.622276 0.0627469 0.
0.624367 0.0626481 0.
0.626457 0.0625484 0.
0.628556 0.0624389 0.
0.630684 0.062297 0.
0.63281 0.0621559 0.
0.634991 0.0619915 0.
0.637197 0.0618187 0.
0.639407 0.0616402 0.
0.641678 0.0612834 0.
0.643945 0.0609205 0.
0.646263 0.0605017 0.
0.648625 0.0599881 0.
0.650993 0.0594648 0.
0.653424 0.0588219 0.
0.65587 0.0581867 0.
0.658356 0.0574772 0.
0.660862 0.0566883 0.
0.663391 0.055846 0.
0.665949 0.0549245 0.
0.668519 0.0539304 0.
0.671111 0.0528964 0.
0.673722 0.051834 0.
0.676354 0.0507011 0.
0.679005 0.0495309 0.
0.681681 0.0483175 0.
0.684372 0.0470766 0.
0.687078 0.045778 0.
0.689796 0.0444656 0.
0.692511 0.043172 0.
0.69523 0.0418748 0.
0.697948 0.0405855 0.
0.700663 0.0393424 0.
0.70335 0.0381895 0.
0.706009 0.0371461 0.
0.708635 0.0362345 0.
0.711208 0.0354897 0.
0.713735 0.0349641 0.
0.716203 0.0346559 0.
0.482268 0.0362882 0.
0.484693 0.0366022 0.
0.487168 0.0371164 0.
0.489706 0.0378479 0.
0.492289 0.0387575 0.
0.494916 0.0398176 0.
0.497566 0.0409766 0.
0.500232 0.0421954 0.
0.502901 0.0434479 0.
0.505575 0.0447395 0.
0.508251 0.0460633 0.
0.510918 0.0473529 0.
0.513579 0.048577 0.
0.516236 0.0497791 0.
0.518881 0.0509717 0.
0.521514 0.0521577 0.
0.524123 0.053309 0.
0.526715 0.0544305 0.
0.529294 0.0554679 0.
0.531855 0.0564676 0.
0.534391 0.0574067 0.
0.536914 0.0582798 0.
0.539407 0.0590858 0.
0.541885 0.0598522 0.
0.544341 0.0605094 0.
0.546758 0.061073 0.
0.549163 0.0616507 0.
0.551506 0.0621409 0.
0.553847 0.0626296 0.
0.556153 0.0630225 0.
0.558428 0.0633769 0.
0.560707 0.0637289 0.
0.562898 0.063893 0.
0.565086 0.064051 0.
0.567251 0.064203 0.
0.569371 0.0643427 0.
0.571491 0.0644838 0.
0.573583 0.064587 0.
0.575666 0.0646778 0.
0.577748 0.0647674 0.
0.579785 0.0647937 0.
0.581821 0.0648199 0.
0.583855 0.0648457 0.
0.585882 0.0648715 0.
0.587909 0.0648974 0.
0.589931 0.0649168 0.
0.591949 0.0649306 0.
0.593966 0.0649445 0.
0.59598 0.0649501 0.
0.597992 0.0649533 0.
0.600004 0.0649564 0.
0.602018 0.0649483 0.
0.604032 0.0649403 0.
0.606047 0.0649299 0.
0.608069 0.0649117 0.
0.61009 0.0648936 0.
0.612117 0.0648698 0.
0.61415 0.0648399 0.
0.616183 0.0648099 0.
0.618226 0.0647758 0.
0.620273 0.0647401 0.
0.622321 0.0647036 0.
0.624427 0.0645863 0.
0.626532 0.0644685 0.
0.628644 0.0643424 0.
0.630781 0.0641891 0.
0.632916 0.0640367 0.
0.635114 0.0638398 0.
0.637337 0.0636314 0.
0.639567 0.0634177 0.
0.641868 0.0630374 0.
0.644163 0.062652 0.
0.646505 0.0621841 0.
0.648875 0.061631 0.
0.651254 0.0610677 0.
0.653683 0.0604091 0.
0.656124 0.0597603 0.
0.658609 0.0590239 0.
0.661108 0.0582137 0.
0.663627 0.0573473 0.
0.666168 0.0564169 0.
0.668722 0.0554145 0.
0.6713 0.0543744 0.
0.673891 0.0533056 0.
0.676496 0.0521732 0.
0.679119 0.0510067 0.
0.681762 0.0497981 0.
0.684416 0.0485643 0.
0.687084 0.0472821 0.
0.68976 0.0459922 0.
0.692437 0.0447179 0.
0.695113 0.0434425 0.
0.697781 0.0421825 0.
0.700446 0.0409688 0.
0.703091 0.039836 0.
0.705706 0.0388161 0.
0.708288 0.0379282 0.
0.710825 0.0372076 0.
0.713322 0.0366924 0.
0.715765 0.0363957 0.
0.482714 0.0380408 0.
0.485119 0.0383485 0.
0.487573 0.038856 0.
0.490082 0.0395761 0.
0.492628 0.0404657 0.
0.495213 0.0415043 0.
0.497815 0.0426372 0.
0.500431 0.0438296 0.
0.503055 0.0450575 0.
0.505683 0.0463304 0.
0.508314 0.0476268 0.
0.510942 0.0488922 0.
0.51357 0.0501035 0.
0.516192 0.051295 0.
0.518803 0.0524768 0.
0.521403 0.0536546 0.
0.523984 0.0548047 0.
0.526553 0.0559271 0.
0.52911 0.0569672 0.
0.53165 0.0579724 0.
0.534169 0.0589225 0.
0.536673 0.0598063 0.
0.539159 0.0606316 0.
0.541628 0.0614108 0.
0.544082 0.0620986 0.
0.5465 0.0626894 0.
0.548907 0.0632949 0.
0.551263 0.0638146 0.
0.553614 0.0643305 0.
0.555939 0.0647652 0.
0.558232 0.0651475 0.
0.560525 0.0655259 0.
0.562737 0.0657184 0.
0.564941 0.0659022 0.
0.567124 0.0660789 0.
0.569254 0.066227 0.
0.571385 0.0663757 0.
0.573491 0.0664941 0.
0.575589 0.0666026 0.
0.577687 0.0667106 0.
0.579734 0.0667456 0.
0.58178 0.0667801 0.
0.583823 0.066813 0.
0.585854 0.0668419 0.
0.587885 0.0668709 0.
0.589912 0.0668933 0.
0.591934 0.0669099 0.
0.593956 0.0669266 0.
0.595973 0.0669333 0.
0.597989 0.066937 0.
0.600005 0.0669406 0.
0.602024 0.0669306 0.
0.604042 0.0669207 0.
0.606062 0.066908 0.
0.608089 0.0668865 0.
0.610116 0.0668651 0.
0.612148 0.0668377 0.
0.614186 0.066804 0.
0.616224 0.0667703 0.
0.618279 0.0667265 0.
0.62034 0.0666797 0.
0.622403 0.0666306 0.
0.624521 0.0664935 0.
0.626638 0.0663567 0.
0.628765 0.0662165 0.
0.630912 0.0660582 0.
0.633057 0.0659003 0.
0.635272 0.0656686 0.
0.637506 0.0654241 0.
0.639753 0.0651772 0.
0.642072 0.0647834 0.
0.644391 0.0643812 0.
0.646751 0.0638617 0.
0.649128 0.0632707 0.
0.651516 0.0626709 0.
0.653943 0.0619925 0.
0.656383 0.0613214 0.
0.658855 0.0605698 0.
0.661339 0.0597488 0.
0.663847 0.0588645 0.
0.66637 0.0579251 0.
0.668903 0.0569178 0.
0.671457 0.0558779 0.
0.674028 0.0548065 0.
0.676608 0.0536738 0.
0.679202 0.0525108 0.
0.681811 0.0513133 0.
0.684429 0.0500902 0.
0.687056 0.0488235 0.
0.689691 0.047555 0.
0.692324 0.046306 0.
0.694957 0.0450531 0.
0.697582 0.0438159 0.
0.700197 0.042631 0.
0.702798 0.0415211 0.
0.705374 0.0405176 0.
0.707922 0.039643 0.
0.710426 0.0389431 0.
0.712898 0.0384349 0.
0.71532 0.0381421 0.
0.483172 0.0398028 0.
0.485559 0.0401074 0.
0.487991 0.0406125 0.
0.490468 0.0413215 0.
0.492979 0.042196 0.
0.495523 0.0432203 0.
0.498081 0.044329 0.
0.500657 0.0455 0.
0.503236 0.0467082 0.
0.505821 0.0479604 0.
0.508412 0.0492306 0.
0.511006 0.0504756 0.
0.513597 0.0516709 0.
0.51618 0.052846 0.
0.518755 0.0540158 0.
0.521321 0.0551855 0.
0.523875 0.0563314 0.
0.526416 0.0574481 0.
0.528947 0.0584893 0.
0.531462 0.059499 0.
0.533962 0.0604564 0.
0.536451 0.0613445 0.
0.538923 0.0621838 0.
0.541381 0.0629757 0.
0.543827 0.06369 0.
0.546243 0.064303 0.
0.548648 0.0649252 0.
0.551009 0.0654683 0.
0.553362 0.0660013 0.
0.555697 0.0664643 0.
0.558 0.0668729 0.
0.560305 0.0672811 0.
0.562543 0.0675148 0.
0.564769 0.0677355 0.
0.566977 0.0679465 0.
0.569122 0.0681024 0.
0.571269 0.068259 0.
0.573393 0.0683939 0.
0.575507 0.0685221 0.
0.577622 0.0686502 0.
0.579681 0.0686956 0.
0.581738 0.0687391 0.
0.58379 0.0687798 0.
0.585826 0.0688119 0.
0.587861 0.0688441 0.
0.589892 0.0688696 0.
0.591918 0.068889 0.
0.593945 0.0689085 0.
0.595966 0.0689163 0.
0.597987 0.0689205 0.
0.600007 0.0689247 0.
0.60203 0.0689128 0.
0.604053 0.0689008 0.
0.606078 0.0688858 0.
0.60811 0.0688609 0.
0.610142 0.0688361 0.
0.612179 0.0688051 0.
0.614223 0.0687673 0.
0.616266 0.0687297 0.
0.618335 0.0686753 0.
0.620411 0.0686162 0.
0.62249 0.0685528 0.
0.624623 0.068394 0.
0.626754 0.0682357 0.
0.628897 0.0680802 0.
0.631061 0.0679159 0.
0.633222 0.0677521 0.
0.635463 0.0674773 0.
0.637718 0.067191 0.
0.639988 0.0669013 0.
0.642316 0.0664778 0.
0.644642 0.0660556 0.
0.647007 0.0655116 0.
0.649384 0.0649007 0.
0.651776 0.0642716 0.
0.654199 0.0635783 0.
0.656633 0.062888 0.
0.659093 0.062121 0.
0.661561 0.0612914 0.
0.664049 0.0603994 0.
0.666551 0.059456 0.
0.669061 0.0584447 0.
0.671588 0.0574055 0.
0.674131 0.0563364 0.
0.676683 0.0552079 0.
0.679252 0.0540499 0.
0.681828 0.0528621 0.
0.684409 0.0516536 0.
0.686997 0.0504097 0.
0.689591 0.0491592 0.
0.692184 0.0479306 0.
0.694773 0.0467031 0.
0.697355 0.0454877 0.
0.699931 0.044322 0.
0.702489 0.0432339 0.
0.705024 0.0422475 0.
0.707541 0.04138 0.
0.710016 0.0406945 0.
0.712462 0.0401945 0.
0.714861 0.0399036 0.
0.483628 0.0415855 0.
0.485994 0.0418812 0.
0.488403 0.0423807 0.
0.490851 0.0430814 0.
0.493329 0.0439508 0.
0.495836 0.0449604 0.
0.498357 0.0460468 0.
0.500895 0.0472004 0.
0.503435 0.0483904 0.
0.50598 0.049623 0.
0.508534 0.0508708 0.
0.511089 0.0520911 0.
0.513638 0.0532669 0.
0.516181 0.0544261 0.
0.518721 0.0555852 0.
0.521253 0.0567417 0.
0.523777 0.0578786 0.
0.526289 0.058989 0.
0.528794 0.0600309 0.
0.531286 0.0610409 0.
0.533765 0.062001 0.
0.536236 0.0628928 0.
0.538696 0.0637454 0.
0.541142 0.0645479 0.
0.543577 0.0652763 0.
0.545985 0.0659068 0.
0.548382 0.0665456 0.
0.550749 0.0671127 0.
0.553108 0.0676646 0.
0.555454 0.0681592 0.
0.557768 0.0685963 0.
0.560086 0.0690338 0.
0.562349 0.0693068 0.
0.564597 0.0695643 0.
0.566831 0.0698126 0.
0.568991 0.0699746 0.
0.571152 0.0701365 0.
0.573292 0.0702859 0.
0.575421 0.0704329 0.
0.57755 0.0705802 0.
0.579622 0.0706379 0.
0.58169 0.0706925 0.
0.583753 0.0707428 0.
0.585793 0.0707779 0.
0.587834 0.0708131 0.
0.589869 0.0708416 0.
0.591901 0.0708638 0.
0.593932 0.0708861 0.
0.595959 0.0708951 0.
0.597984 0.0708999 0.
0.600009 0.0709046 0.
0.602037 0.0708905 0.
0.604065 0.0708765 0.
0.606096 0.0708589 0.
0.608134 0.0708306 0.
0.610171 0.0708023 0.
0.612215 0.0707676 0.
0.614265 0.0707261 0.
0.616314 0.0706848 0.
0.618396 0.0706172 0.
0.620486 0.0705435 0.
0.62258 0.0704637 0.
0.624726 0.0702864 0.
0.62687 0.0701093 0.
0.62903 0.0699411 0.
0.631209 0.0697721 0.
0.633387 0.069603 0.
0.635654 0.0692816 0.
0.63793 0.0689535 0.
0.640223 0.0686224 0.
0.642562 0.0681679 0.
0.6449 0.0677106 0.
0.64727 0.0671423 0.
0.649649 0.0665181 0.
0.65204 0.0658707 0.
0.654452 0.0651655 0.
0.656877 0.0644592 0.
0.659321 0.0636821 0.
0.661773 0.0628444 0.
0.66424 0.0619461 0.
0.66672 0.0610031 0.
0.669206 0.0599916 0.
0.671707 0.0589536 0.
0.674222 0.057886 0.
0.676744 0.056765 0.
0.67928 0.0556177 0.
0.681826 0.054442 0.
0.684373 0.053246 0.
0.686921 0.0520259 0.
0.689473 0.0508021 0.
0.692025 0.0495903 0.
0.694572 0.0483813 0.
0.697112 0.0471895 0.
0.699649 0.0460427 0.
0.702175 0.0449672 0.
0.704675 0.0439973 0.
0.707159 0.0431364 0.
0.709608 0.0424579 0.
0.712029 0.041967 0.
0.714407 0.0416798 0.
0.484075 0.0433799 0.
0.486419 0.0436669 0.
0.488807 0.0441651 0.
0.491228 0.044862 0.
0.493677 0.0457254 0.
0.49615 0.0467189 0.
0.498639 0.0477892 0.
0.501141 0.0489284 0.
0.503641 0.0501016 0.
0.50615 0.0513158 0.
0.508662 0.0525391 0.
0.511174 0.0537348 0.
0.513682 0.0548936 0.
0.516188 0.0560377 0.
0.518691 0.0571808 0.
0.521189 0.0583219 0.
0.523682 0.0594487 0.
0.526167 0.060552 0.
0.528647 0.0615897 0.
0.531115 0.0625972 0.
0.533575 0.0635605 0.
0.536032 0.0644554 0.
0.538477 0.0653145 0.
0.540905 0.0661237 0.
0.543328 0.0668652 0.
0.545731 0.0675156 0.
0.548122 0.0681705 0.
0.550495 0.0687601 0.
0.552858 0.0693284 0.
0.555213 0.0698449 0.
0.557534 0.0702995 0.
0.559856 0.0707496 0.
0.562137 0.0710575 0.
0.564402 0.0713494 0.
0.566658 0.0716346 0.
0.56884 0.0718094 0.
0.571026 0.0719866 0.
0.573186 0.072156 0.
0.575326 0.0723242 0.
0.577466 0.072493 0.
0.579552 0.0725676 0.
0.581634 0.0726372 0.
0.583708 0.0727002 0.
0.585755 0.0727386 0.
0.587802 0.072777 0.
0.589843 0.0728086 0.
0.59188 0.0728337 0.
0.593917 0.0728589 0.
0.59595 0.072869 0.
0.597981 0.0728744 0.
0.600012 0.0728798 0.
0.602047 0.0728633 0.
0.60408 0.0728469 0.
0.606117 0.0728265 0.
0.608162 0.0727943 0.
0.610206 0.0727621 0.
0.612257 0.0727235 0.
0.614315 0.0726784 0.
0.616373 0.0726334 0.
0.618467 0.0725469 0.
0.620569 0.072452 0.
0.622676 0.07235 0.
0.624834 0.0721567 0.
0.62699 0.0719637 0.
0.629174 0.0717724 0.
0.631384 0.0715795 0.
0.633589 0.0713868 0.
0.635871 0.0710385 0.
0.638158 0.0706843 0.
0.640465 0.0703222 0.
0.642806 0.0698482 0.
0.645153 0.0693629 0.
0.647528 0.0687769 0.
0.649909 0.0681407 0.
0.6523 0.0674743 0.
0.654702 0.0667565 0.
0.657116 0.0660365 0.
0.659546 0.0652538 0.
0.661981 0.0644105 0.
0.664428 0.0635079 0.
0.666885 0.0625652 0.
0.669347 0.0615561 0.
0.671821 0.0605234 0.
0.674308 0.0594596 0.
0.676801 0.0583443 0.
0.679305 0.0572085 0.
0.681814 0.0560512 0.
0.684328 0.0548712 0.
0.68684 0.0536693 0.
0.68935 0.0524716 0.
0.691858 0.051284 0.
0.694365 0.0500898 0.
0.696865 0.0489148 0.
0.699363 0.0477866 0.
0.701856 0.0467221 0.
0.704326 0.0457631 0.
0.70678 0.0449102 0.
0.709202 0.0442354 0.
0.7116 0.0437495 0.
0.713959 0.0434628 0.
0.484534 0.045183 0.
0.486861 0.0454685 0.
0.489229 0.0459739 0.
0.491623 0.0466657 0.
0.494044 0.0475218 0.
0.496488 0.0485063 0.
0.498944 0.0495667 0.
0.501406 0.0506898 0.
0.503867 0.0518466 0.
0.506338 0.053042 0.
0.508807 0.054241 0.
0.511277 0.0554158 0.
0.513743 0.0565561 0.
0.516209 0.0576809 0.
0.518675 0.0588072 0.
0.521139 0.0599317 0.
0.523602 0.0610466 0.
0.526057 0.0621375 0.
0.52851 0.0631688 0.
0.530956 0.0641728 0.
0.533396 0.0651357 0.
0.535833 0.0660295 0.
0.53826 0.0668919 0.
0.540673 0.0677085 0.
0.543084 0.06846 0.
0.545479 0.0691264 0.
0.547864 0.0697918 0.
0.550234 0.0703977 0.
0.552595 0.0709751 0.
0.554952 0.0715034 0.
0.557281 0.0719801 0.
0.559611 0.0724498 0.
0.561912 0.072795 0.
0.564198 0.0731245 0.
0.566479 0.0734502 0.
0.568686 0.0736428 0.
0.570897 0.0738354 0.
0.573079 0.0740249 0.
0.57523 0.0742144 0.
0.577382 0.0744048 0.
0.579482 0.0744967 0.
0.581577 0.0745813 0.
0.583664 0.0746576 0.
0.585716 0.0746992 0.
0.587769 0.0747408 0.
0.589817 0.0747755 0.
0.59186 0.0748035 0.
0.593903 0.0748316 0.
0.595941 0.074843 0.
0.597978 0.074849 0.
0.600016 0.0748549 0.
0.602056 0.0748361 0.
0.604096 0.0748172 0.
0.606139 0.074794 0.
0.60819 0.0747579 0.
0.610241 0.0747219 0.
0.6123 0.0746794 0.
0.614366 0.0746306 0.
0.616431 0.0745819 0.
0.618538 0.0744757 0.
0.620652 0.0743594 0.
0.622773 0.0742356 0.
0.624942 0.0740262 0.
0.62711 0.0738172 0.
0.629322 0.0736009 0.
0.631564 0.0733806 0.
0.633803 0.0731554 0.
0.636104 0.0727771 0.
0.638407 0.0723955 0.
0.640727 0.0720025 0.
0.643071 0.071507 0.
0.645419 0.0709955 0.
0.647791 0.0704019 0.
0.650167 0.0697617 0.
0.652554 0.0690804 0.
0.654947 0.068353 0.
0.65735 0.0676223 0.
0.659764 0.066837 0.
0.662182 0.0659911 0.
0.664609 0.0650869 0.
0.667043 0.0641456 0.
0.669482 0.0631402 0.
0.671929 0.0621142 0.
0.674385 0.0610596 0.
0.676845 0.0599548 0.
0.679315 0.0588301 0.
0.681789 0.0576906 0.
0.684265 0.0565329 0.
0.686736 0.0553533 0.
0.689209 0.0541739 0.
0.691674 0.0530083 0.
0.694136 0.0518356 0.
0.696598 0.0506742 0.
0.699059 0.0495599 0.
0.701516 0.0485078 0.
0.703958 0.0475541 0.
0.706385 0.0467038 0.
0.708782 0.0460315 0.
0.711155 0.0455509 0.
0.713497 0.0452607 0.
0.485009 0.0469867 0.
0.487321 0.04728 0.
0.489668 0.0477963 0.
0.49204 0.0484877 0.
0.494436 0.0493458 0.
0.49685 0.0503265 0.
0.499268 0.0513747 0.
0.50169 0.0524827 0.
0.504114 0.0536268 0.
0.506546 0.0548028 0.
0.508973 0.0559813 0.
0.511402 0.057134 0.
0.513827 0.0582536 0.
0.516253 0.059362 0.
0.518681 0.060472 0.
0.521109 0.0615752 0.
0.523537 0.0626732 0.
0.52596 0.0637502 0.
0.528385 0.0647725 0.
0.530804 0.0657693 0.
0.533221 0.0667263 0.
0.535637 0.0676172 0.
0.538045 0.0684817 0.
0.540443 0.0693032 0.
0.542839 0.0700609 0.
0.545226 0.070739 0.
0.547603 0.0714096 0.
0.54997 0.0720305 0.
0.552328 0.0726184 0.
0.554686 0.0731613 0.
0.557023 0.0736584 0.
0.559359 0.0741455 0.
0.561677 0.074525 0.
0.563979 0.0748883 0.
0.566276 0.0752433 0.
0.568503 0.0754546 0.
0.57073 0.0756637 0.
0.572929 0.0758722 0.
0.57509 0.0760738 0.
0.577253 0.0762752 0.
0.579374 0.0763904 0.
0.581489 0.0764986 0.
0.583597 0.076597 0.
0.585659 0.0766418 0.
0.587721 0.0766867 0.
0.589778 0.0767245 0.
0.591829 0.0767552 0.
0.593881 0.0767859 0.
0.595928 0.0767982 0.
0.597975 0.0768045 0.
0.600021 0.0768106 0.
0.60207 0.0767897 0.
0.604119 0.0767688 0.
0.606172 0.0767428 0.
0.608232 0.0767024 0.
0.610293 0.0766621 0.
0.612363 0.0766153 0.
0.61444 0.0765621 0.
0.616516 0.0765091 0.
0.618644 0.0763772 0.
0.620778 0.0762353 0.
0.622918 0.0760881 0.
0.625095 0.0758702 0.
0.62727 0.0756521 0.
0.629502 0.0754105 0.
0.631766 0.0751648 0.
0.634032 0.0749114 0.
0.636347 0.07451 0.
0.638663 0.0741032 0.
0.640995 0.0736801 0.
0.643339 0.0731642 0.
0.645689 0.0726269 0.
0.648058 0.0720233 0.
0.650427 0.0713769 0.
0.652805 0.0706876 0.
0.655189 0.0699572 0.
0.65758 0.0692194 0.
0.659978 0.0684326 0.
0.662378 0.0675855 0.
0.664783 0.0666826 0.
0.667194 0.065746 0.
0.669607 0.0647482 0.
0.672026 0.0637299 0.
0.674449 0.0626866 0.
0.676874 0.0615977 0.
0.679307 0.0604897 0.
0.681742 0.0593678 0.
0.684179 0.0582296 0.
0.68661 0.0570745 0.
0.68904 0.0559187 0.
0.691468 0.0547672 0.
0.693891 0.0536132 0.
0.696312 0.0524689 0.
0.698737 0.0513648 0.
0.701158 0.050323 0.
0.703569 0.0493742 0.
0.70597 0.0485213 0.
0.708345 0.047843 0.
0.710694 0.0473647 0.
0.713016 0.047067 0.
0.4855 0.0488035 0.
0.487795 0.0491088 0.
0.490123 0.0496372 0.
0.492473 0.0503358 0.
0.494842 0.0512006 0.
0.497222 0.0521727 0.
0.499602 0.053211 0.
0.501989 0.0543098 0.
0.504378 0.0554397 0.
0.506769 0.056598 0.
0.509158 0.0577563 0.
0.511548 0.0588875 0.
0.513932 0.0599906 0.
0.516317 0.061083 0.
0.518706 0.062172 0.
0.521096 0.0632533 0.
0.523487 0.064333 0.
0.525875 0.065394 0.
0.528268 0.0664035 0.
0.530659 0.0673869 0.
0.533049 0.0683355 0.
0.535441 0.0692209 0.
0.53783 0.0700832 0.
0.540212 0.070907 0.
0.542595 0.0716681 0.
0.544973 0.0723556 0.
0.547343 0.0730311 0.
0.549708 0.0736662 0.
0.552064 0.0742615 0.
0.554423 0.074812 0.
0.556764 0.0753226 0.
0.559103 0.0758201 0.
0.561427 0.0762226 0.
0.563735 0.0766055 0.
0.56604 0.076984 0.
0.568286 0.0772299 0.
0.570528 0.0774698 0.
0.572749 0.0777065 0.
0.574928 0.0779194 0.
0.577109 0.0781323 0.
0.579255 0.0782736 0.
0.581394 0.0784093 0.
0.583526 0.0785337 0.
0.585598 0.0785822 0.
0.58767 0.0786308 0.
0.589737 0.078672 0.
0.591798 0.0787055 0.
0.593858 0.078739 0.
0.595915 0.0787524 0.
0.597971 0.078759 0.
0.600027 0.0787653 0.
0.602085 0.0787422 0.
0.604144 0.0787191 0.
0.606206 0.0786901 0.
0.608277 0.078645 0.
0.610348 0.0786001 0.
0.612429 0.0785482 0.
0.614518 0.07849 0.
0.616606 0.0784319 0.
0.618761 0.0782701 0.
0.620921 0.0780989 0.
0.623086 0.0779264 0.
0.62528 0.0776988 0.
0.627471 0.077471 0.
0.629722 0.0771917 0.
0.631995 0.0769069 0.
0.634273 0.0766153 0.
0.636595 0.0762038 0.
0.638918 0.0757877 0.
0.641257 0.0753457 0.
0.643606 0.0748167 0.
0.645957 0.074259 0.
0.648321 0.0736485 0.
0.650685 0.0729967 0.
0.653055 0.0722997 0.
0.655428 0.0715689 0.
0.657808 0.0708282 0.
0.66019 0.0700421 0.
0.662571 0.0691951 0.
0.664954 0.0682956 0.
0.667341 0.0673661 0.
0.669726 0.0663797 0.
0.672115 0.0653754 0.
0.674503 0.0643454 0.
0.676889 0.0632724 0.
0.679281 0.0621838 0.
0.681675 0.0610841 0.
0.684071 0.0599649 0.
0.686464 0.0588298 0.
0.688853 0.0576975 0.
0.691242 0.0565637 0.
0.693629 0.0554236 0.
0.696016 0.0542937 0.
0.698402 0.0532005 0.
0.700789 0.0521648 0.
0.703168 0.0512194 0.
0.705539 0.0503671 0.
0.707892 0.0496772 0.
0.710221 0.0491946 0.
0.712524 0.0488874 0.
0.485993 0.0506384 0.
0.48827 0.0509573 0.
0.490578 0.0514971 0.
0.492904 0.052204 0.
0.495243 0.0530719 0.
0.49759 0.0540396 0.
0.49994 0.0550755 0.
0.502293 0.0561628 0.
0.504644 0.0572775 0.
0.506997 0.0584205 0.
0.509346 0.05956 0.
0.511697 0.0606731 0.
0.514039 0.0617586 0.
0.516383 0.0628313 0.
0.518732 0.063899 0.
0.521083 0.0649578 0.
0.523436 0.0660178 0.
0.525788 0.0670593 0.
0.528149 0.0680539 0.
0.530512 0.0690233 0.
0.532876 0.0699605 0.
0.535247 0.0708377 0.
0.537617 0.0716945 0.
0.539984 0.0725179 0.
0.542354 0.0732809 0.
0.544724 0.0739772 0.
0.547089 0.0746566 0.
0.549453 0.0753001 0.
0.551807 0.0758981 0.
0.554164 0.0764559 0.
0.556507 0.0769803 0.
0.558848 0.0774891 0.
0.561178 0.0779153 0.
0.563492 0.0783204 0.
0.565805 0.0787227 0.
0.568069 0.0790005 0.
0.570327 0.0792711 0.
0.57257 0.079539 0.
0.574767 0.0797621 0.
0.576966 0.0799838 0.
0.579135 0.080148 0.
0.581297 0.0803113 0.
0.583452 0.0804644 0.
0.585534 0.0805164 0.
0.587617 0.0805685 0.
0.589694 0.0806129 0.
0.591764 0.0806489 0.
0.593834 0.080685 0.
0.595901 0.0806992 0.
0.597967 0.0807058 0.
0.600033 0.0807122 0.
0.602102 0.0806872 0.
0.604171 0.0806623 0.
0.606243 0.0806304 0.
0.608324 0.0805811 0.
0.610404 0.0805319 0.
0.612498 0.0804746 0.
0.614599 0.0804107 0.
0.616699 0.0803473 0.
0.618879 0.0801548 0.
0.621063 0.0799561 0.
0.623253 0.0797615 0.
0.625464 0.0795255 0.
0.627671 0.0792889 0.
0.62994 0.0789673 0.
0.632222 0.0786435 0.
0.634514 0.0783185 0.
0.636841 0.0778935 0.
0.639168 0.0774634 0.
0.641512 0.0770032 0.
0.643861 0.0764639 0.
0.646213 0.0758911 0.
0.648576 0.0752748 0.
0.650937 0.0746193 0.
0.653301 0.0739178 0.
0.655666 0.0731868 0.
0.658034 0.0724441 0.
0.660401 0.0716604 0.
0.662763 0.0708175 0.
0.665127 0.0699248 0.
0.66749 0.0690036 0.
0.669847 0.0680296 0.
0.672205 0.0670401 0.
0.674559 0.0660296 0.
0.676907 0.0649758 0.
0.679258 0.0639045 0.
0.681608 0.062826 0.
0.683962 0.0617294 0.
0.686314 0.060617 0.
0.688664 0.0595033 0.
0.691014 0.0583863 0.
0.693362 0.0572618 0.
0.695714 0.056144 0.
0.698067 0.0550611 0.
0.70042 0.0540314 0.
0.702769 0.0530834 0.
0.705111 0.0522309 0.
0.707439 0.0515308 0.
0.709745 0.0510403 0.
0.712031 0.0507216 0.
0.486482 0.0524913 0.
0.48874 0.052826 0.
0.491024 0.053375 0.
0.493323 0.0540904 0.
0.495635 0.0549644 0.
0.497952 0.0559318 0.
0.500269 0.0569607 0.
0.502586 0.0580372 0.
0.5049 0.0591423 0.
0.507214 0.06027 0.
0.509523 0.0613903 0.
0.511831 0.0624838 0.
0.51413 0.0635503 0.
0.516432 0.0646056 0.
0.51874 0.0656533 0.
0.52105 0.0666848 0.
0.523368 0.0677224 0.
0.525686 0.0687457 0.
0.528017 0.0697249 0.
0.530354 0.0706771 0.
0.532694 0.0716005 0.
0.535045 0.0724667 0.
0.5374 0.0733163 0.
0.539755 0.0741389 0.
0.542118 0.0749032 0.
0.544482 0.0756059 0.
0.546841 0.0762859 0.
0.549201 0.0769361 0.
0.551553 0.0775382 0.
0.553908 0.0781023 0.
0.556253 0.0786385 0.
0.558596 0.079157 0.
0.560932 0.0796034 0.
0.563252 0.0800239 0.
0.565569 0.0804402 0.
0.567849 0.0807434 0.
0.570122 0.0810376 0.
0.572383 0.0813307 0.
0.574601 0.0815611 0.
0.576826 0.0817923 0.
0.579016 0.0819875 0.
0.581194 0.0821896 0.
0.583368 0.0823824 0.
0.585463 0.0824386 0.
0.587558 0.0824949 0.
0.589647 0.0825429 0.
0.591727 0.0825815 0.
0.593807 0.0826201 0.
0.595885 0.082635 0.
0.597963 0.0826415 0.
0.60004 0.0826476 0.
0.602122 0.0826209 0.
0.604202 0.0825943 0.
0.606286 0.0825596 0.
0.608375 0.0825059 0.
0.610464 0.0824523 0.
0.612571 0.0823869 0.
0.614688 0.0823136 0.
0.616805 0.0822385 0.
0.619002 0.0820063 0.
0.621201 0.0817696 0.
0.623412 0.0815497 0.
0.625647 0.0813085 0.
0.627877 0.0810673 0.
0.630159 0.080715 0.
0.63245 0.0803622 0.
0.634751 0.080012 0.
0.637081 0.0795787 0.
0.639414 0.0791371 0.
0.641762 0.0786612 0.
0.644112 0.0781127 0.
0.646465 0.0775267 0.
0.648824 0.0769062 0.
0.65118 0.076248 0.
0.653539 0.0755433 0.
0.655899 0.0748135 0.
0.658259 0.0740703 0.
0.660615 0.0732894 0.
0.662962 0.0724518 0.
0.665308 0.0715694 0.
0.66765 0.0706601 0.
0.66998 0.0696997 0.
0.672308 0.0687256 0.
0.67463 0.067734 0.
0.676942 0.0667029 0.
0.679252 0.0656533 0.
0.681559 0.064595 0.
0.683869 0.0635179 0.
0.686177 0.0624287 0.
0.688485 0.0613374 0.
0.690795 0.0602351 0.
0.693104 0.0591251 0.
0.69542 0.0580186 0.
0.697739 0.056943 0.
0.700059 0.05592 0.
0.702377 0.0549707 0.
0.704691 0.0541134 0.
0.706994 0.0534015 0.
0.709277 0.0529011 0.
0.711543 0.0525719 0.
0.486983 0.0543635 0.
0.489221 0.0547195 0.
0.49148 0.0552793 0.
0.493754 0.056007 0.
0.496037 0.0568865 0.
0.498322 0.0578533 0.
0.500604 0.0588776 0.
0.502883 0.0599474 0.
0.505157 0.0610413 0.
0.507429 0.0621508 0.
0.509695 0.0632522 0.
0.511958 0.0643255 0.
0.514211 0.0653745 0.
0.516471 0.0664115 0.
0.518739 0.0674338 0.
0.521012 0.0684383 0.
0.523293 0.0694552 0.
0.525578 0.0704575 0.
0.527881 0.0714164 0.
0.530193 0.072349 0.
0.532512 0.073257 0.
0.534848 0.0741112 0.
0.537191 0.0749521 0.
0.539537 0.0757709 0.
0.541889 0.076533 0.
0.544244 0.077239 0.
0.546596 0.0779185 0.
0.548951 0.0785739 0.
0.551299 0.0791784 0.
0.553651 0.0797457 0.
0.555997 0.0802927 0.
0.558339 0.0808187 0.
0.560678 0.0812765 0.
0.563 0.0817124 0.
0.565321 0.0821452 0.
0.567618 0.0824733 0.
0.569907 0.0827916 0.
0.572188 0.0831146 0.
0.574432 0.0833568 0.
0.576682 0.0835999 0.
0.578896 0.0838243 0.
0.58109 0.0840654 0.
0.583283 0.0842997 0.
0.58539 0.0843606 0.
0.587498 0.0844211 0.
0.5896 0.084473 0.
0.59169 0.0845141 0.
0.59378 0.0845553 0.
0.59587 0.0845709 0.
0.597959 0.0845772 0.
0.600048 0.0845831 0.
0.602141 0.0845546 0.
0.604234 0.0845262 0.
0.606329 0.0844887 0.
0.608427 0.0844306 0.
0.610524 0.0843726 0.
0.612646 0.0842987 0.
0.614778 0.0842159 0.
0.616913 0.0841272 0.
0.619126 0.0838552 0.
0.621339 0.0835802 0.
0.623574 0.0833345 0.
0.625836 0.0830832 0.
0.628093 0.0828272 0.
0.63039 0.0824467 0.
0.632691 0.0820709 0.
0.635003 0.0816998 0.
0.637334 0.0812531 0.
0.639667 0.0807989 0.
0.642015 0.0803151 0.
0.644364 0.0797608 0.
0.646715 0.0791633 0.
0.64907 0.0785403 0.
0.65142 0.077881 0.
0.653772 0.0771747 0.
0.656123 0.0764472 0.
0.658473 0.0757067 0.
0.66082 0.0749312 0.
0.663156 0.0741003 0.
0.665487 0.0732301 0.
0.667809 0.0723351 0.
0.670113 0.071393 0.
0.672412 0.0704372 0.
0.674704 0.0694656 0.
0.676981 0.0684572 0.
0.679252 0.0674306 0.
0.681518 0.0663975 0.
0.683785 0.0653409 0.
0.686048 0.0642712 0.
0.688309 0.0632012 0.
0.690577 0.0621164 0.
0.692846 0.0610209 0.
0.69512 0.0599258 0.
0.697403 0.0588567 0.
0.69969 0.0578375 0.
0.701977 0.0568875 0.
0.704262 0.056025 0.
0.706539 0.0552993 0.
0.708797 0.0547845 0.
0.711041 0.0544441 0.
0.487506 0.0562583 0.
0.489722 0.0566394 0.
0.491956 0.0572139 0.
0.494202 0.0579583 0.
0.496452 0.0588431 0.
0.498703 0.0598113 0.
0.500948 0.060834 0.
0.503185 0.0618944 0.
0.505417 0.062974 0.
0.507644 0.064068 0.
0.509864 0.0651502 0.
0.51208 0.0662022 0.
0.514291 0.0672316 0.
0.51651 0.0682468 0.
0.518737 0.0692446 0.
0.520971 0.0702239 0.
0.523218 0.0712165 0.
0.525473 0.0721919 0.
0.527748 0.0731273 0.
0.530037 0.0740393 0.
0.532338 0.07493 0.
0.534658 0.0757708 0.
0.536986 0.0766002 0.
0.539319 0.0774123 0.
0.54166 0.0781708 0.
0.544005 0.0788782 0.
0.54635 0.079556 0.
0.548698 0.0802132 0.
0.551042 0.0808186 0.
0.553392 0.0813878 0.
0.555736 0.0819441 0.
0.558076 0.0824763 0.
0.560417 0.0829458 0.
0.562742 0.0833975 0.
0.565067 0.0838453 0.
0.567376 0.0841963 0.
0.569679 0.084538 0.
0.571975 0.0848874 0.
0.57424 0.0851383 0.
0.576505 0.0853888 0.
0.578735 0.0856349 0.
0.580939 0.0859044 0.
0.583145 0.0861674 0.
0.585281 0.0862441 0.
0.587416 0.0863173 0.
0.589542 0.0863789 0.
0.591645 0.0864209 0.
0.593748 0.0864629 0.
0.595852 0.0864783 0.
0.597955 0.0864837 0.
0.600058 0.0864886 0.
0.602165 0.086459 0.
0.604272 0.0864294 0.
0.606381 0.0863903 0.
0.608492 0.0863306 0.
0.610603 0.086271 0.
0.612747 0.0861825 0.
0.614903 0.0860822 0.
0.617064 0.0859712 0.
0.619289 0.0856732 0.
0.621511 0.085371 0.
0.623761 0.0851067 0.
0.626041 0.0848486 0.
0.628322 0.0845782 0.
0.63063 0.0841729 0.
0.632941 0.0837746 0.
0.635262 0.0833845 0.
0.637594 0.0829249 0.
0.639928 0.0824561 0.
0.642276 0.0819647 0.
0.64462 0.0814071 0.
0.646967 0.0808012 0.
0.649317 0.0801778 0.
0.651661 0.0795187 0.
0.654006 0.0788124 0.
0.656347 0.0780886 0.
0.658686 0.077353 0.
0.661019 0.0765853 0.
0.663342 0.0757644 0.
0.665659 0.0749087 0.
0.667963 0.0740287 0.
0.670244 0.0731053 0.
0.672516 0.0721712 0.
0.674776 0.0712241 0.
0.677022 0.0702411 0.
0.679257 0.0692376 0.
0.681481 0.0682297 0.
0.683702 0.0671978 0.
0.68592 0.0661514 0.
0.688136 0.0651 0.
0.690358 0.0640338 0.
0.692583 0.0629518 0.
0.694818 0.0618682 0.
0.69706 0.0608081 0.
0.699308 0.0597916 0.
0.701562 0.058839 0.
0.703816 0.05797 0.
0.706063 0.0572313 0.
0.708294 0.0566976 0.
0.710512 0.0563426 0.
0.488055 0.0581839 0.
0.490245 0.0585901 0.
0.49245 0.0591843 0.
0.494664 0.0599486 0.
0.49688 0.0608387 0.
0.499092 0.0618093 0.
0.501294 0.0628259 0.
0.503486 0.0638766 0.
0.505672 0.0649455 0.
0.507851 0.0660218 0.
0.510025 0.0670796 0.
0.512198 0.0681097 0.
0.514366 0.0691186 0.
0.516545 0.070111 0.
0.518733 0.0710845 0.
0.52093 0.0720362 0.
0.523143 0.0730013 0.
0.525368 0.0739502 0.
0.527617 0.0748588 0.
0.529885 0.0757481 0.
0.532166 0.0766191 0.
0.534469 0.0774437 0.
0.536781 0.078259 0.
0.5391 0.079063 0.
0.541429 0.0798169 0.
0.543766 0.0805228 0.
0.546104 0.0811978 0.
0.548446 0.0818558 0.
0.550786 0.0824616 0.
0.553134 0.0830318 0.
0.555477 0.083596 0.
0.557816 0.0841331 0.
0.560159 0.0846104 0.
0.562487 0.0850719 0.
0.564814 0.0855289 0.
0.567129 0.0858974 0.
0.569437 0.0862512 0.
0.57174 0.0866108 0.
0.574012 0.0868848 0.
0.576284 0.0871544 0.
0.578531 0.0874245 0.
0.580754 0.0877207 0.
0.58298 0.0880118 0.
0.585153 0.0881122 0.
0.587324 0.0882039 0.
0.58948 0.0882794 0.
0.591598 0.0883224 0.
0.593715 0.0883654 0.
0.595833 0.0883806 0.
0.597951 0.0883849 0.
0.600069 0.0883888 0.
0.602191 0.0883576 0.
0.604312 0.0883264 0.
0.606436 0.0882855 0.
0.608563 0.0882243 0.
0.61069 0.0881631 0.
0.612863 0.0880545 0.
0.615049 0.0879301 0.
0.617243 0.0877892 0.
0.619487 0.0874671 0.
0.621729 0.0871417 0.
0.623995 0.0868563 0.
0.626281 0.0865779 0.
0.628569 0.0862822 0.
0.63088 0.0858711 0.
0.633194 0.085464 0.
0.635519 0.0850611 0.
0.637852 0.0845916 0.
0.640188 0.0841121 0.
0.642535 0.0836149 0.
0.644876 0.0830543 0.
0.64722 0.0824415 0.
0.649565 0.081819 0.
0.651904 0.0811616 0.
0.65424 0.0804569 0.
0.656572 0.0797378 0.
0.6589 0.0790087 0.
0.66122 0.0782498 0.
0.663527 0.0774403 0.
0.665826 0.0766023 0.
0.668112 0.0757415 0.
0.670373 0.0748378 0.
0.672621 0.0739249 0.
0.674853 0.073004 0.
0.677066 0.0720495 0.
0.679268 0.071074 0.
0.681453 0.0700927 0.
0.68363 0.0690841 0.
0.685803 0.0680628 0.
0.687972 0.0670325 0.
0.690149 0.0659852 0.
0.692327 0.0649196 0.
0.694515 0.0638474 0.
0.696713 0.0627951 0.
0.698919 0.0617848 0.
0.701133 0.0608312 0.
0.703352 0.0599528 0.
0.705567 0.0592015 0.
0.707767 0.0586425 0.
0.709957 0.0582677 0.
0.488607 0.0601455 0.
0.490768 0.0605741 0.
0.49294 0.0611892 0.
0.495118 0.0619708 0.
0.497293 0.0628656 0.
0.499461 0.0638357 0.
0.501616 0.0648462 0.
0.503759 0.0658877 0.
0.505896 0.0669409 0.
0.508026 0.0679949 0.
0.510152 0.0690288 0.
0.512282 0.0700353 0.
0.514412 0.071021 0.
0.516554 0.0719888 0.
0.518705 0.0729369 0.
0.520868 0.0738627 0.
0.523051 0.0748024 0.
0.525251 0.0757231 0.
0.527477 0.076604 0.
0.529724 0.0774691 0.
0.531986 0.0783189 0.
0.534273 0.0791269 0.
0.536573 0.0799271 0.
0.538879 0.0807205 0.
0.541199 0.0814684 0.
0.543529 0.0821713 0.
0.545861 0.0828436 0.
0.548198 0.0835014 0.
0.550536 0.0841076 0.
0.552882 0.0846785 0.
0.555224 0.0852482 0.
0.557563 0.0857891 0.
0.559905 0.0862739 0.
0.562236 0.0867443 0.
0.564565 0.0872094 0.
0.566884 0.0875939 0.
0.569197 0.0879597 0.
0.571507 0.0883315 0.
0.573787 0.0886278 0.
0.576065 0.0889162 0.
0.578328 0.0892103 0.
0.58057 0.0895325 0.
0.582816 0.0898498 0.
0.585026 0.0899733 0.
0.587233 0.0900831 0.
0.58942 0.0901744 0.
0.591551 0.0902179 0.
0.593683 0.0902615 0.
0.595815 0.0902763 0.
0.597947 0.0902796 0.
0.60008 0.0902824 0.
0.602216 0.0902499 0.
0.604352 0.0902174 0.
0.606491 0.0901751 0.
0.608633 0.0901129 0.
0.610775 0.0900508 0.
0.612978 0.0899207 0.
0.615194 0.0897724 0.
0.61742 0.0896024 0.
0.619685 0.0892573 0.
0.621946 0.0889092 0.
0.624227 0.088602 0.
0.62652 0.0883034 0.
0.628814 0.0879821 0.
0.63113 0.0875632 0.
0.633447 0.0871489 0.
0.635774 0.086735 0.
0.638107 0.0862573 0.
0.640444 0.0857693 0.
0.642789 0.0852668 0.
0.645128 0.0847031 0.
0.647469 0.0840851 0.
0.649811 0.083464 0.
0.652143 0.0828087 0.
0.654472 0.0821073 0.
0.656796 0.0813942 0.
0.659115 0.0806724 0.
0.661425 0.0799226 0.
0.663718 0.0791261 0.
0.666002 0.0783053 0.
0.66827 0.0774648 0.
0.670512 0.0765837 0.
0.672739 0.0756929 0.
0.674947 0.0747966 0.
0.677132 0.0738708 0.
0.679304 0.0729238 0.
0.681455 0.071971 0.
0.683594 0.0709874 0.
0.685724 0.0699898 0.
0.687845 0.0689827 0.
0.689973 0.0679574 0.
0.692103 0.0669111 0.
0.694241 0.0658548 0.
0.696389 0.064812 0.
0.698547 0.0638061 0.
0.700717 0.0628536 0.
0.702895 0.0619682 0.
0.705073 0.0612055 0.
0.707239 0.0606208 0.
0.709399 0.0602231 0.
0.489139 0.0621407 0.
0.491266 0.0625885 0.
0.4934 0.0632261 0.
0.495535 0.0640217 0.
0.497662 0.0649205 0.
0.499778 0.0658883 0.
0.501881 0.0668894 0.
0.50397 0.0679162 0.
0.506054 0.0689496 0.
0.508133 0.069981 0.
0.510216 0.0709893 0.
0.512308 0.0719692 0.
0.514402 0.0729301 0.
0.51651 0.0738733 0.
0.51863 0.0747988 0.
0.520766 0.0757015 0.
0.522925 0.0766135 0.
0.525103 0.077505 0.
0.527311 0.0783585 0.
0.529543 0.0792001 0.
0.53179 0.0800318 0.
0.534066 0.0808223 0.
0.536357 0.081604 0.
0.538655 0.0823856 0.
0.540969 0.0831289 0.
0.543292 0.0838279 0.
0.545622 0.0844967 0.
0.547957 0.0851528 0.
0.550295 0.0857589 0.
0.552639 0.0863289 0.
0.554981 0.0869021 0.
0.557319 0.0874468 0.
0.559661 0.0879382 0.
0.561995 0.0884163 0.
0.564328 0.0888888 0.
0.566653 0.0892881 0.
0.568973 0.0896642 0.
0.571292 0.0900455 0.
0.573584 0.0903582 0.
0.575872 0.0906589 0.
0.578151 0.0909658 0.
0.580415 0.0912949 0.
0.582684 0.091617 0.
0.584919 0.091776 0.
0.587148 0.0919261 0.
0.589358 0.0920501 0.
0.591505 0.0920943 0.
0.593652 0.0921385 0.
0.595799 0.0921532 0.
0.597946 0.0921556 0.
0.600093 0.0921575 0.
0.602243 0.0921232 0.
0.604393 0.0920889 0.
0.606545 0.0920444 0.
0.608701 0.09198 0.
0.610856 0.0919157 0.
0.613088 0.0917455 0.
0.615332 0.0915551 0.
0.617583 0.0913517 0.
0.619863 0.0910048 0.
0.62214 0.0906518 0.
0.624435 0.0903333 0.
0.626737 0.0900208 0.
0.629041 0.0896797 0.
0.631363 0.0892544 0.
0.633686 0.0888338 0.
0.636017 0.0884083 0.
0.638353 0.0879227 0.
0.640691 0.0874276 0.
0.643035 0.0869207 0.
0.645373 0.0863545 0.
0.647712 0.0857345 0.
0.650051 0.0851161 0.
0.652381 0.0844631 0.
0.654707 0.0837653 0.
0.657026 0.0830589 0.
0.659337 0.0823455 0.
0.661639 0.0816039 0.
0.663922 0.0808216 0.
0.666196 0.0800197 0.
0.668451 0.0791976 0.
0.670676 0.0783372 0.
0.672885 0.0774702 0.
0.675072 0.0765989 0.
0.677235 0.0757012 0.
0.679381 0.0747831 0.
0.681504 0.0738575 0.
0.68361 0.0728985 0.
0.685705 0.0719252 0.
0.687786 0.0709422 0.
0.689866 0.0699423 0.
0.691945 0.0689172 0.
0.69403 0.0678789 0.
0.696124 0.0668514 0.
0.698229 0.0658552 0.
0.700346 0.0649046 0.
0.702476 0.0640127 0.
0.704611 0.0632386 0.
0.70674 0.0626329 0.
0.708866 0.062209 0.
0.489636 0.0641654 0.
0.491723 0.0646348 0.
0.493812 0.0652952 0.
0.495895 0.0661002 0.
0.497967 0.0669983 0.
0.500029 0.0679589 0.
0.502075 0.0689467 0.
0.504107 0.0699562 0.
0.50614 0.0709687 0.
0.508175 0.0719752 0.
0.51022 0.0729566 0.
0.512279 0.0739101 0.
0.514343 0.0748459 0.
0.516424 0.0757659 0.
0.51852 0.0766719 0.
0.520636 0.0775507 0.
0.522777 0.0784355 0.
0.524942 0.0792987 0.
0.52714 0.0801261 0.
0.529361 0.0809464 0.
0.531596 0.0817581 0.
0.533864 0.0825299 0.
0.536149 0.0832951 0.
0.538442 0.0840643 0.
0.54075 0.0848012 0.
0.543069 0.0854946 0.
0.545396 0.0861584 0.
0.547729 0.0868106 0.
0.550064 0.0874149 0.
0.552408 0.0879833 0.
0.554751 0.0885594 0.
0.557091 0.0891074 0.
0.559436 0.0896042 0.
0.561775 0.090089 0.
0.564111 0.0905672 0.
0.566441 0.0909777 0.
0.568765 0.0913642 0.
0.571087 0.0917561 0.
0.573387 0.0920814 0.
0.575684 0.0923918 0.
0.577976 0.0927115 0.
0.580261 0.0930499 0.
0.582551 0.093382 0.
0.58481 0.0935757 0.
0.587062 0.0937666 0.
0.589295 0.0939258 0.
0.591458 0.0939707 0.
0.593621 0.0940155 0.
0.595783 0.0940301 0.
0.597944 0.0940317 0.
0.600106 0.0940326 0.
0.60227 0.0939965 0.
0.604433 0.0939604 0.
0.606599 0.0939137 0.
0.608769 0.093847 0.
0.610938 0.0937805 0.
0.6132 0.0935666 0.
0.615474 0.0933313 0.
0.61775 0.0930936 0.
0.620044 0.09274 0.
0.622335 0.0923806 0.
0.624637 0.0920532 0.
0.626942 0.091733 0.
0.629251 0.0913783 0.
0.631576 0.0909452 0.
0.633903 0.0905177 0.
0.636239 0.090083 0.
0.638578 0.0895906 0.
0.64092 0.0890894 0.
0.643265 0.0885786 0.
0.645604 0.0880098 0.
0.647942 0.0873888 0.
0.65028 0.0867745 0.
0.652606 0.0861264 0.
0.654929 0.0854344 0.
0.657245 0.0847349 0.
0.65955 0.0840296 0.
0.661845 0.0832968 0.
0.664121 0.0825285 0.
0.666387 0.0817463 0.
0.668632 0.0809461 0.
0.670846 0.0801056 0.
0.673042 0.0792593 0.
0.675215 0.0784124 0.
0.677361 0.0775416 0.
0.679488 0.0766525 0.
0.681589 0.0757543 0.
0.68367 0.0748184 0.
0.685735 0.0738686 0.
0.687783 0.072909 0.
0.689827 0.0719347 0.
0.691861 0.0709348 0.
0.693894 0.0699166 0.
0.695932 0.0689046 0.
0.697979 0.0679206 0.
0.700041 0.0669792 0.
0.702117 0.0660867 0.
0.704201 0.0653031 0.
0.706285 0.0646792 0.
0.708372 0.0642266 0.
0.490055 0.0662144 0.
0.492098 0.0667064 0.
0.494137 0.0673849 0.
0.496166 0.0681942 0.
0.49818 0.0690894 0.
0.500183 0.0700403 0.
0.502175 0.0710118 0.
0.504163 0.0719994 0.
0.506158 0.0729895 0.
0.508159 0.0739726 0.
0.510175 0.074929 0.
0.51221 0.0758557 0.
0.514255 0.076767 0.
0.516319 0.0776663 0.
0.518399 0.0785554 0.
0.520503 0.0794123 0.
0.522635 0.0802708 0.
0.524792 0.0811068 0.
0.526982 0.0819082 0.
0.529195 0.0827056 0.
0.531423 0.083498 0.
0.533685 0.0842527 0.
0.535965 0.085002 0.
0.538253 0.0857573 0.
0.540556 0.0864857 0.
0.542867 0.0871712 0.
0.545191 0.0878288 0.
0.547522 0.0884761 0.
0.549857 0.0890784 0.
0.552201 0.0896448 0.
0.554545 0.0902222 0.
0.556885 0.0907723 0.
0.559229 0.0912729 0.
0.561568 0.0917625 0.
0.563904 0.092245 0.
0.566236 0.0926657 0.
0.568561 0.093063 0.
0.570886 0.0934648 0.
0.573195 0.0938015 0.
0.575499 0.0941207 0.
0.577803 0.0944513 0.
0.58011 0.0947941 0.
0.58242 0.0951285 0.
0.584701 0.0953519 0.
0.586974 0.0955824 0.
0.589229 0.0957779 0.
0.591409 0.0958228 0.
0.593589 0.0958677 0.
0.595767 0.0958824 0.
0.597944 0.0958837 0.
0.600121 0.0958844 0.
0.602298 0.0958474 0.
0.604476 0.0958106 0.
0.606656 0.0957624 0.
0.608839 0.0956944 0.
0.611022 0.0956265 0.
0.613312 0.0953689 0.
0.615612 0.0950913 0.
0.617911 0.0948259 0.
0.62022 0.094469 0.
0.622525 0.0941055 0.
0.624833 0.0937706 0.
0.627142 0.0934432 0.
0.629457 0.0930758 0.
0.631783 0.092635 0.
0.63411 0.0922004 0.
0.636446 0.0917581 0.
0.638784 0.0912621 0.
0.641125 0.0907574 0.
0.643471 0.0902435 0.
0.645811 0.0896724 0.
0.64815 0.0890512 0.
0.650486 0.0884406 0.
0.65281 0.087798 0.
0.655129 0.0871136 0.
0.657439 0.0864237 0.
0.659737 0.0857281 0.
0.662027 0.0850039 0.
0.664298 0.0842501 0.
0.666558 0.0834876 0.
0.668796 0.0827087 0.
0.671 0.0818903 0.
0.673187 0.081066 0.
0.67535 0.0802411 0.
0.677487 0.0793947 0.
0.679603 0.0785319 0.
0.681691 0.07766 0.
0.683754 0.0767472 0.
0.685799 0.0758193 0.
0.687825 0.0748812 0.
0.689843 0.0739308 0.
0.691844 0.072956 0.
0.693838 0.0719605 0.
0.695831 0.070966 0.
0.697826 0.0699956 0.
0.699831 0.0690637 0.
0.70185 0.0681747 0.
0.703878 0.0673879 0.
0.705914 0.0667538 0.
0.707957 0.0662744 0.
0.490366 0.0682769 0.
0.492363 0.0687931 0.
0.49435 0.0694908 0.
0.496324 0.0703071 0.
0.498284 0.071198 0.
0.500242 0.0721355 0.
0.502197 0.0730902 0.
0.504153 0.0740587 0.
0.506122 0.0750311 0.
0.508102 0.0759912 0.
0.510102 0.0769181 0.
0.512126 0.0778167 0.
0.514163 0.0787076 0.
0.516219 0.0795917 0.
0.518292 0.080467 0.
0.520389 0.0812984 0.
0.522515 0.0821271 0.
0.524668 0.0829355 0.
0.526854 0.0837118 0.
0.529065 0.0844908 0.
0.531291 0.0852656 0.
0.533545 0.085998 0.
0.535816 0.0867281 0.
0.538098 0.0874693 0.
0.540396 0.0881894 0.
0.542702 0.0888644 0.
0.545025 0.0895179 0.
0.547357 0.0901611 0.
0.549688 0.0907544 0.
0.552027 0.0913174 0.
0.554368 0.0918949 0.
0.556707 0.0924466 0.
0.55905 0.0929496 0.
0.561389 0.0934446 0.
0.563726 0.0939313 0.
0.566061 0.0943594 0.
0.56839 0.094767 0.
0.570716 0.0951763 0.
0.573029 0.0955189 0.
0.575339 0.0958392 0.
0.57765 0.0961675 0.
0.579967 0.0965108 0.
0.582284 0.0968482 0.
0.584584 0.0971015 0.
0.586878 0.0973754 0.
0.589158 0.0976125 0.
0.591356 0.0976586 0.
0.593556 0.0977048 0.
0.595752 0.0977204 0.
0.597945 0.0977223 0.
0.600138 0.0977233 0.
0.60233 0.0976855 0.
0.604521 0.0976477 0.
0.606716 0.0975976 0.
0.608915 0.097527 0.
0.611113 0.0974566 0.
0.613423 0.0971514 0.
0.615739 0.0968305 0.
0.618052 0.0965414 0.
0.620368 0.0961839 0.
0.622683 0.0958197 0.
0.624994 0.0954861 0.
0.627309 0.095156 0.
0.629631 0.0947798 0.
0.63196 0.0943322 0.
0.634289 0.0938902 0.
0.636625 0.0934418 0.
0.638963 0.092942 0.
0.641302 0.0924338 0.
0.643644 0.0919192 0.
0.64598 0.0913482 0.
0.648317 0.0907283 0.
0.650653 0.0901217 0.
0.652976 0.0894885 0.
0.655294 0.088812 0.
0.657601 0.0881292 0.
0.659891 0.0874453 0.
0.662171 0.0867327 0.
0.664434 0.0859953 0.
0.666689 0.0852531 0.
0.668923 0.0844974 0.
0.671125 0.0836994 0.
0.673307 0.0828934 0.
0.675464 0.0820905 0.
0.677594 0.0812698 0.
0.679703 0.0804351 0.
0.681787 0.0795881 0.
0.683843 0.0786946 0.
0.685877 0.0777858 0.
0.687892 0.0768704 0.
0.689896 0.0759458 0.
0.691879 0.0749982 0.
0.693847 0.0740243 0.
0.695809 0.0730451 0.
0.697765 0.0720871 0.
0.699726 0.0711636 0.
0.701693 0.0702781 0.
0.703667 0.0694853 0.
0.705653 0.0688403 0.
0.70765 0.068338 0.
CELLS 5000 10000
1 0
1 1
1 2
1 3
1 4
1 5
1 6
1 7
1 8
1 9
1 10
1 11
1 12
1 13
1 14
1 15
1 16
1 17
1 18
1 19
1 20
1 21
1 22
1 23
1 24
1 25
1 26
1 27
1 28
1 29
1 30
1 31
1 32
1 33
1 34
1 35
1 36
1 37
1 38
1 39
1 40
1 41
1 42
1 43
1 44
1 45
1 46
1 47
1 48
1 49
1 50
1 51
1 52
1 53
1 54
1 55
1 56
1 57
1 58
1 59
1 60
1 61
1 62
1 63
1 64
1 65
1 66
1 67
1 68
1 69
1 70
1 71
1 72
1 73
1 74
1 75
1 76
1 77
1 78
1 79
1 80
1 81
1 82
1 83
1 84
1 85
1 86
1 87
1 88
1 89
1 90
1 91
1 92
1 93
1 94
1 95
1 96
1 97
1 98
1 99
1 100
1 101
1 102
1 103
1 104
1 105
1 106
1 107
1 108
1 109
1 110
1 111
1 112
1 113
1 114
1 115
1 116
1 117
1 118
1 119
1 120
1 121
1 122
1 123
1 124
1 125
1 126
1 127
1 128
1 129
1 130
1 131
1 132
1 133
1 134
1 135
1 136
1 137
1 138
1 139
1 140
1 141
1 142
1 143
1 144
1 145
1 146
1 147
1 148
1 149
1 150
1 151
1 152
1 153
1 154
1 155
1 156
1 157
1 158
1 159
1 160
1 161
1 162
1 163
1 164
1 165
1 166
1 167
1 168
1 169
1 170
1 171
1 172
1 173
1 174
1 175
1 176
1 177
1 178
1 179
1 180
1 181
1 182
1 183
1 184
1 185
1 186
1 187
1 188
1 189
1 190
1 191
1 192
1 193
1 194
1 195
1 196
1 197
1 198
1 199
1 200
1 201
1 202
1 203
1 204
1 205
1 206
1 207
1 208
1 209
1 210
1 211
1 212
1 213
1 214
1 215
1 216
1 217
1 218
1 219
1 220
1 221
1 222
1 223
1 224
1 225
1 226
1 227
1 228
1 229
1 230
1 231
1 232
1 233
1 234
1 235
1 236
1 237
1 238
1 239
1 240
1 241
1 242
1 243
1 244
1 245
1 246
1 247
1 248
1 249
1 250
1 251
1 252
1 253
1 254
1 255
1 256
1 257
1 258
1 259
1 260
1 261
1 262
1 263
1 264
1 265
1 266
1 267
1 268
1 269
1 270
1 271
1 272
1 273
1 274
1 275
1 276
1 277
1 278
1 279
1 280
1 281
1 282
1 283
1 284
1 285
1 286
1 287
1 288
1 289
1 290
1 291
1 292
1 293
1 294
1 295
1 296
1 297
1 298
1 299
1 300
1 301
1 302
1 303
1 304
1 305
1 306
1 307
1 308
1 309
1 310
1 311
1 312
1 313
1 314
1 315
1 316
1 317
1 318
1 319
1 320
1 321
1 322
1 323
1 324
1 325
1 326
1 327
1 328
1 329
1 330
1 331
1 332
1 333
1 334
1 335
1 336
1 337
1 338
1 339
1 340
1 341
1 342
1 343
1 344
1 345
1 346
1 347
1 348
1 349
1 350
1 351
1 352
1 353
1 354
1 355
1 356
1 357
1 358
1 359
1 360
1 361
1 362
1 363
1 364
1 365
1 366
1 367
1 368
1 369
1 370
1 371
1 372
1 373
1 374
1 375
1 376
1 377
1 378
1 379
1 380
1 381
1 382
1 383
1 384
1 385
1 386
1 387
1 388
1 389
1 390
1 391
1 392
1 393
1 394
1 395
1 396
1 397
1 398
1 399
1 400
1 401
1 402
1 403
1 404
1 405
1 406
1 407
1 408
1 409
1 410
1 411
1 412
1 413
1 414
1 415
1 416
1 417
1 418
1 419
1 420
1 421
1 422
1 423
1 424
1 425
1 426
1 427
1 428
1 429
1 430
1 431
1 432
1 433
1 434
1 435
1 436
1 437
1 438
1 439
1 440
1 441
1 442
1 443
1 444
1 445
1 446
1 447
1 448
1 449
1 450
1 451
1 452
1 453
1 454
1 455
1 456
1 457
1 458
1 459
1 460
1 461
1 462
1 463
1 464
1 465
1 466
1 467
1 468
1 469
1 470
1 471
1 472
1 473
1 474
1 475
1 476
1 477
1 478
1 479
1 480
1 481
1 482
1 483
1 484
1 485
1 486
1 487
1 488
1 489
1 490
1 491
1 492
1 493
1 494
1 495
1 496
1 497
1 498
1 499
1 500
1 501
1 502
1 503
1 504
1 505
1 506
1 507
1 508
1 509
1 510
1 511
1 512
1 513
1 514
1 515
1 516
1 517
1 518
1 519
1 520
1 521
1 522
1 523
1 524
1 525
1 526
1 527
1 528
1 529
1 530
1 531
1 532
1 533
1 534
1 535
1 536
1 537
1 538
1 539
1 540
1 541
1 542
1 543
1 544
1 545
1 546
1 547
1 548
1 549
1 550
1 551
1 552
1 553
1 554
1 555
1 556
1 557
1 558
1 559
1 560
1 561
1 562
1 563
1 564
1 565
1 566
1 567
1 568
1 569
1 570
1 571
1 572
1 573
1 574
1 575
1 576
1 577
1 578
1 579
1 580
1 581
1 582
1 583
1 584
1 585
1 586
1 587
1 588
1 589
1 590
1 591
1 592
1 593
1 594
1 595
1 596
1 597
1 598
1 599
1 600
1 601
1 602
1 603
1 604
1 605
1 606
1 607
1 608
1 609
1 610
1 611
1 612
1 613
1 614
1 615
1 616
1 617
1 618
1 619
1 620
1 621
1 622
1 623
1 624
1 625
1 626
1 627
1 628
1 629
1 630
1 631
1 632
1 633
1 634
1 635
1 636
1 637
1 638
1 639
1 640
1 641
1 642
1 643
1 644
1 645
1 646
1 647
1 648
1 649
1 650
1 651
1 652
1 653
1 654
1 655
1 656
1 657
1 658
1 659
1 660
1 661
1 662
1 663
1 664
1 665
1 666
1 667
1 668
1 669
1 670
1 671
1 672
1 673
1 674
1 675
1 676
1 677
1 678
1 679
1 680
1 681
1 682
1 683
1 684
1 685
1 686
1 687
1 688
1 689
1 690
1 691
1 692
1 693
1 694
1 695
1 696
1 697
1 698
1 699
1 700
1 701
1 702
1 703
1 704
1 705
1 706
1 707
1 708
1 709
1 710
1 711
1 712
1 713
1 714
1 715
1 716
1 717
1 718
1 719
1 720
1 721
1 722
1 723
1 724
1 725
1 726
1 727
1 728
1 729
1 730
1 731
1 732
1 733
1 734
1 735
1 736
1 737
1 738
1 739
1 740
1 741
1 742
1 743
1 744
1 745
1 746
1 747
1 748
1 749
1 750
1 751
1 752
1 753
1 754
1 755
1 756
1 757
1 758
1 759
1 760
1 761
1 762
1 763
1 764
1 765
1 766
1 767
1 768
1 769
1 770
1 771
1 772
1 773
1 774
1 775
1 776
1 777
1 778
1 779
1 780
1 781
1 782
1 783
1 784
1 785
1 786
1 787
1 788
1 789
1 790
1 791
1 792
1 793
1 794
1 795
1 796
1 797
1 798
1 799
1 800
1 801
1 802
1 803
1 804
1 805
1 806
1 807
1 808
1 809
1 810
1 811
1 812
1 813
1 814
1 815
1 816
1 817
1 818
1 819
1 820
1 821
1 822
1 823
1 824
1 825
1 826
1 827
1 828
1 829
1 830
1 831
1 832
1 833
1 834
1 835
1 836
1 837
1 838
1 839
1 840
1 841
1 842
1 843
1 844
1 845
1 846
1 847
1 848
1 849
1 850
1 851
1 852
1 853
1 854
1 855
1 856
1 857
1 858
1 859
1 860
1 861
1 862
1 863
1 864
1 865
1 866
1 867
1 868
1 869
1 870
1 871
1 872
1 873
1 874
1 875
1 876
1 877
1 878
1 879
1 880
1 881
1 882
1 883
1 884
1 885
1 886
1 887
1 888
1 889
1 890
1 891
1 892
1 893
1 894
1 895
1 896
1 897
1 898
1 899
1 900
1 901
1 902
1 903
1 904
1 905
1 906
1 907
1 908
1 909
1 910
1 911
1 912
1 913
1 914
1 915
1 916
1 917
1 918
1 919
1 920
1 921
1 922
1 923
1 924
1 925
1 926
1 927
1 928
1 929
1 930
1 931
1 932
1 933
1 934
1 935
1 936
1 937
1 938
1 939
1 940
1 941
1 942
1 943
1 944
1 945
1 946
1 947
1 948
1 949
1 950
1 951
1 952
1 953
1 954
1 955
1 956
1 957
1 958
1 959
1 960
1 961
1 962
1 963
1 964
1 965
1 966
1 967
1 968
1 969
1 970
1 971
1 972
1 973
1 974
1 975
1 976
1 977
1 978
1 979
1 980
1 981
1 982
1 983
1 984
1 985
1 986
1 987
1 988
1 989
1 990
1 991
1 992
1 993
1 994
1 995
1 996
1 997
1 998
1 999
1 1000
1 1001
1 1002
1 1003
1 1004
1 1005
1 1006
1 1007
1 1008
1 1009
1 1010
1 1011
1 1012
1 1013
1 1014
1 1015
1 1016
1 1017
1 1018
1 1019
1 1020
1 1021
1 1022
1 1023
1 1024
1 1025
1 1026
1 1027
1 1028
1 1029
1 1030
1 1031
1 1032
1 1033
1 1034
1 1035
1 1036
1 1037
1 1038
1 1039
1 1040
1 1041
1 1042
1 1043
1 1044
1 1045
1 1046
1 1047
1 1048
1 1049
1 1050
1 1051
1 1052
1 1053
1 1054
1 1055
1 1056
1 1057
1 1058
1 1059
1 1060
1 1061
1 1062
1 1063
1 1064
1 1065
1 1066
1 1067
1 1068
1 1069
1 1070
1 1071
1 1072
1 1073
1 1074
1 1075
1 1076
1 1077
1 1078
1 1079
1 1080
1 1081
1 1082
1 1083
1 1084
1 1085
1 1086
1 1087
1 1088
1 1089
1 1090
1 1091
1 1092
1 1093
1 1094
1 1095
1 1096
1 1097
1 1098
1 1099
1 1100
1 1101
1 1102
1 1103
1 1104
1 1105
1 1106
1 1107
1 1108
1 1109
1 1110
1 1111
1 1112
1 1113
1 1114
1 1115
1 1116
1 1117
1 1118
1 1119
1 1120
1 1121
1 1122
1 1123
1 1124
1 1125
1 1126
1 1127
1 1128
1 1129
1 1130
1 1131
1 1132
1 1133
1 1134
1 1135
1 1136
1 1137
1 1138
1 1139
1 1140
1 1141
1 1142
1 1143
1 1144
1 1145
1 1146
1 1147
1 1148
1 1149
1 1150
1 1151
1 1152
1 1153
1 1154
1 1155
1 1156
1 1157
1 1158
1 1159
1 1160
1 1161
1 1162
1 1163
1 1164
1 1165
1 1166
1 1167
1 1168
1 1169
1 1170
1 1171
1 1172
1 1173
1 1174
1 1175
1 1176
1 1177
1 1178
1 1179
1 1180
1 1181
1 1182
1 1183
1 1184
1 1185
1 1186
1 1187
1 1188
1 1189
1 1190
1 1191
1 1192
1 1193
1 1194
1 1195
1 1196
1 1197
1 1198
1 1199
1 1200
1 1201
1 1202
1 1203
1 1204
1 1205
1 1206
1 1207
1 1208
1 1209
1 1210
1 1211
1 1212
1 1213
1 1214
1 1215
1 1216
1 1217
1 1218
1 1219
1 1220
1 1221
1 1222
1 1223
1 1224
1 1225
1 1226
1 1227
1 1228
1 1229
1 1230
1 1231
1 1232
1 1233
1 1234
1 1235
1 1236
1 1237
1 1238
1 1239
1 1240
1 1241
1 1242
1 1243
1 1244
1 1245
1 1246
1 1247
1 1248
1 1249
1 1250
1 1251
1 1252
1 1253
1 1254
1 1255
1 1256
1 1257
1 1258
1 1259
1 1260
1 1261
1 1262
1 1263
1 1264
1 1265
1 1266
1 1267
1 1268
1 1269
1 1270
1 1271
1 1272
1 1273
1 1274
1 1275
1 1276
1 1277
1 1278
1 1279
1 1280
1 1281
1 1282
1 1283
1 1284
1 1285
1 1286
1 1287
1 1288
1 1289
1 1290
1 1291
1 1292
1 1293
1 1294
1 1295
1 1296
1 1297
1 1298
1 1299
1 1300
1 1301
1 1302
1 1303
1 1304
1 1305
1 1306
1 1307
1 1308
1 1309
1 1310
1 1311
1 1312
1 1313
1 1314
1 1315
1 1316
1 1317
1 1318
1 1319
1 1320
1 1321
1 1322
1 1323
1 1324
1 1325
1 1326
1 1327
1 1328
1 1329
1 1330
1 1331
1 1332
1 1333
1 1334
1 1335
1 1336
1 1337
1 1338
1 1339
1 1340
1 1341
1 1342
1 1343
1 1344
1 1345
1 1346
1 1347
1 1348
1 1349
1 1350
1 1351
1 1352
1 1353
1 1354
1 1355
1 1356
1 1357
1 1358
1 1359
1 1360
1 1361
1 1362
1 1363
1 1364
1 1365
1 1366
1 1367
1 1368
1 1369
1 1370
1 1371
1 1372
1 1373
1 1374
1 1375
1 1376
1 1377
1 1378
1 1379
1 1380
1 1381
1 1382
1 1383
1 1384
1 1385
1 1386
1 1387
1 1388
1 1389
1 1390
1 1391
1 1392
1 1393
1 1394
1 1395
1 1396
1 1397
1 1398
1 1399
1 1400
1 1401
1 1402
1 1403
1 1404
1 1405
1 1406
1 1407
1 1408
1 1409
1 1410
1 1411
1 1412
1 1413
1 1414
1 1415
1 1416
1 1417
1 1418
1 1419
1 1420
1 1421
1 1422
1 1423
1 1424
1 1425
1 1426
1 1427
1 1428
1 1429
1 1430
1 1431
1 1432
1 1433
1 1434
1 1435
1 1436
1 1437
1 1438
1 1439
1 1440
1 1441
1 1442
1 1443
1 1444
1 1445
1 1446
1 1447
1 1448
1 1449
1 1450
1 1451
1 1452
1 1453
1 1454
1 1455
1 1456
1 1457
1 1458
1 1459
1 1460
1 1461
1 1462
1 1463
1 1464
1 1465
1 1466
1 1467
1 1468
1 1469
1 1470
1 1471
1 1472
1 1473
1 1474
1 1475
1 1476
1 1477
1 1478
1 1479
1 1480
1 1481
1 1482
1 1483
1 1484
1 1485
1 1486
1 1487
1 1488
1 1489
1 1490
1 1491
1 1492
1 1493
1 1494
1 1495
1 1496
1 1497
1 1498
1 1499
1 1500
1 1501
1 1502
1 1503
1 1504
1 1505
1 1506
1 1507
1 1508
1 1509
1 1510
1 1511
1 1512
1 1513
1 1514
1 1515
1 1516
1 1517
1 1518
1 1519
1 1520
1 1521
1 1522
1 1523
1 1524
1 1525
1 1526
1 1527
1 1528
1 1529
1 1530
1 1531
1 1532
1 1533
1 1534
1 1535
1 1536
1 1537
1 1538
1 1539
1 1540
1 1541
1 1542
1 1543
1 1544
1 1545
1 1546
1 1547
1 1548
1 1549
1 1550
1 1551
1 1552
1 1553
1 1554
1 1555
1 1556
1 1557
1 1558
1 1559
1 1560
1 1561
1 1562
1 1563
1 1564
1 1565
1 1566
1 1567
1 1568
1 1569
1 1570
1 1571
1 1572
1 1573
1 1574
1 1575
1 1576
1 1577
1 1578
1 1579
1 1580
1 1581
1 1582
1 1583
1 1584
1 1585
1 1586
1 1587
1 1588
1 1589
1 1590
1 1591
1 1592
1 1593
1 1594
1 1595
1 1596
1 1597
1 1598
1 1599
1 1600
1 1601
1 1602
1 1603
1 1604
1 1605
1 1606
1 1607
1 1608
1 1609
1 1610
1 1611
1 1612
1 1613
1 1614
1 1615
1 1616
1 1617
1 1618
1 1619
1 1620
1 1621
1 1622
1 1623
1 1624
1 1625
1 1626
1 1627
1 1628
1 1629
1 1630
1 1631
1 1632
1 1633
1 1634
1 1635
1 1636
1 1637
1 1638
1 1639
1 1640
1 1641
1 1642
1 1643
1 1644
1 1645
1 1646
1 1647
1 1648
1 1649
1 1650
1 1651
1 1652
1 1653
1 1654
1 1655
1 1656
1 1657
1 1658
1 1659
1 1660
1 1661
1 1662
1 1663
1 1664
1 1665
1 1666
1 1667
1 1668
1 1669
1 1670
1 1671
1 1672
1 1673
1 1674
1 1675
1 1676
1 1677
1 1678
1 1679
1 1680
1 1681
1 1682
1 1683
1 1684
1 1685
1 1686
1 1687
1 1688
1 1689
1 1690
1 1691
1 1692
1 1693
1 1694
1 1695
1 1696
1 1697
1 1698
1 1699
1 1700
1 1701
1 1702
1 1703
1 1704
1 1705
1 1706
1 1707
1 1708
1 1709
1 1710
1 1711
1 1712
1 1713
1 1714
1 1715
1 1716
1 1717
1 1718
1 1719
1 1720
1 1721
1 1722
1 1723
1 1724
1 1725
1 1726
1 1727
1 1728
1 1729
1 1730
1 1731
1 1732
1 1733
1 1734
1 1735
1 1736
1 1737
1 1738
1 1739
1 1740
1 1741
1 1742
1 1743
1 1744
1 1745
1 1746
1 1747
1 1748
1 1749
1 1750
1 1751
1 1752
1 1753
1 1754
1 1755
1 1756
1 1757
1 1758
1 1759
1 1760
1 1761
1 1762
1 1763
1 1764
1 1765
1 1766
1 1767
1 1768
1 1769
1 1770
1 1771
1 1772
1 1773
1 1774
1 1775
1 1776
1 1777
1 1778
1 1779
1 1780
1 1781
1 1782
1 1783
1 1784
1 1785
1 1786
1 1787
1 1788
1 1789
1 1790
1 1791
1 1792
1 1793
1 1794
1 1795
1 1796
1 1797
1 1798
1 1799
1 1800
1 1801
1 1802
1 1803
1 1804
1 1805
1 1806
1 1807
1 1808
1 1809
1 1810
1 1811
1 1812
1 1813
1 1814
1 1815
1 1816
1 1817
1 1818
1 1819
1 1820
1 1821
1 1822
1 1823
1 1824
1 1825
1 1826
1 1827
1 1828
1 1829
1 1830
1 1831
1 1832
1 1833
1 1834
1 1835
1 1836
1 1837
1 1838
1 1839
1 1840
1 1841
1 1842
1 1843
1 1844
1 1845
1 1846
1 1847
1 1848
1 1849
1 1850
1 1851
1 1852
1 1853
1 1854
1 1855
1 1856
1 1857
1 1858
1 1859
1 1860
1 1861
1 1862
1 1863
1 1864
1 1865
1 1866
1 1867
1 1868
1 1869
1 1870
1 1871
1 1872
1 1873
1 1874
1 1875
1 1876
1 1877
1 1878
1 1879
1 1880
1 1881
1 1882
1 1883
1 1884
1 1885
1 1886
1 1887
1 1888
1 1889
1 1890
1 1891
1 1892
1 1893
1 1894
1 1895
1 1896
1 1897
1 1898
1 1899
1 1900
1 1901
1 1902
1 1903
1 1904
1 1905
1 1906
1 1907
1 1908
1 1909
1 1910
1 1911
1 1912
1 1913
1 1914
1 1915
1 1916
1 1917
1 1918
1 1919
1 1920
1 1921
1 1922
1 1923
1 1924
1 1925
1 1926
1 1927
1 1928
1 1929
1 1930
1 1931
1 1932
1 1933
1 1934
1 1935
1 1936
1 1937
1 1938
1 1939
1 1940
1 1941
1 1942
1 1943
1 1944
1 1945
1 1946
1 1947
1 1948
1 1949
1 1950
1 1951
1 1952
1 1953
1 1954
1 1955
1 1956
1 1957
1 1958
1 1959
1 1960
1 1961
1 1962
1 1963
1 1964
1 1965
1 1966
1 1967
1 1968
1 1969
1 1970
1 1971
1 1972
1 1973
1 1974
1 1975
1 1976
1 1977
1 1978
1 1979
1 1980
1 1981
1 1982
1 1983
1 1984
1 1985
1 1986
1 1987
1 1988
1 1989
1 1990
1 1991
1 1992
1 1993
1 1994
1 1995
1 1996
1 1997
1 1998
1 1999
1 2000
1 2001
1 2002
1 2003
1 2004
1 2005
1 2006
1 2007
1 2008
1 2009
1 2010
1 2011
1 2012
1 2013
1 2014
1 2015
1 2016
1 2017
1 2018
1 2019
1 2020
1 2021
1 2022
1 2023
1 2024
1 2025
1 2026
1 2027
1 2028
1 2029
1 2030
1 2031
1 2032
1 2033
1 2034
1 2035
1 2036
1 2037
1 2038
1 2039
1 2040
1 2041
1 2042
1 2043
1 2044
1 2045
1 2046
1 2047
1 2048
1 2049
1 2050
1 2051
1 2052
1 2053
1 2054
1 2055
1 2056
1 2057
1 2058
1 2059
1 2060
1 2061
1 2062
1 2063
1 2064
1 2065
1 2066
1 2067
1 2068
1 2069
1 2070
1 2071
1 2072
1 2073
1 2074
1 2075
1 2076
1 2077
1 2078
1 2079
1 2080
1 2081
1 2082
1 2083
1 2084
1 2085
1 2086
1 2087
1 2088
1 2089
1 2090
1 2091
1 2092
1 2093
1 2094
1 2095
1 2096
1 2097
1 2098
1 2099
1 2100
1 2101
1 2102
1 2103
1 2104
1 2105
1 2106
1 2107
1 2108
1 2109
1 2110
1 2111
1 2112
1 2113
1 2114
1 2115
1 2116
1 2117
1 2118
1 2119
1 2120
1 2121
1 2122
1 2123
1 2124
1 2125
1 2126
1 2127
1 2128
1 2129
1 2130
1 2131
1 2132
1 2133
1 2134
1 2135
1 2136
1 2137
1 2138
1 2139
1 2140
1 2141
1 2142
1 2143
1 2144
1 2145
1 2146
1 2147
1 2148
1 2149
1 2150
1 2151
1 2152
1 2153
1 2154
1 2155
1 2156
1 2157
1 2158
1 2159
1 2160
1 2161
1 2162
1 2163
1 2164
1 2165
1 2166
1 2167
1 2168
1 2169
1 2170
1 2171
1 2172
1 2173
1 2174
1 2175
1 2176
1 2177
1 2178
1 2179
1 2180
1 2181
1 2182
1 2183
1 2184
1 2185
1 2186
1 2187
1 2188
1 2189
1 2190
1 2191
1 2192
1 2193
1 2194
1 2195
1 2196
1 2197
1 2198
1 2199
1 2200
1 2201
1 2202
1 2203
1 2204
1 2205
1 2206
1 2207
1 2208
1 2209
1 2210
1 2211
1 2212
1 2213
1 2214
1 2215
1 2216
1 2217
1 2218
1 2219
1 2220
1 2221
1 2222
1 2223
1 2224
1 2225
1 2226
1 2227
1 2228
1 2229
1 2230
1 2231
1 2232
1 2233
1 2234
1 2235
1 2236
1 2237
1 2238
1 2239
1 2240
1 2241
1 2242
1 2243
1 2244
1 2245
1 2246
1 2247
1 2248
1 2249
1 2250
1 2251
1 2252
1 2253
1 2254
1 2255
1 2256
1 2257
1 2258
1 2259
1 2260
1 2261
1 2262
1 2263
1 2264
1 2265
1 2266
1 2267
1 2268
1 2269
1 2270
1 2271
1 2272
1 2273
1 2274
1 2275
1 2276
1 2277
1 2278
1 2279
1 2280
1 2281
1 2282
1 2283
1 2284
1 2285
1 2286
1 2287
1 2288
1 2289
1 2290
1 2291
1 2292
1 2293
1 2294
1 2295
1 2296
1 2297
1 2298
1 2299
1 2300
1 2301
1 2302
1 2303
1 2304
1 2305
1 2306
1 2307
1 2308
1 2309
1 2310
1 2311
1 2312
1 2313
1 2314
1 2315
1 2316
1 2317
1 2318
1 2319
1 2320
1 2321
1 2322
1 2323
1 2324
1 2325
1 2326
1 2327
1 2328
1 2329
1 2330
1 2331
1 2332
1 2333
1 2334
1 2335
1 2336
1 2337
1 2338
1 2339
1 2340
1 2341
1 2342
1 2343
1 2344
1 2345
1 2346
1 2347
1 2348
1 2349
1 2350
1 2351
1 2352
1 2353
1 2354
1 2355
1 2356
1 2357
1 2358
1 2359
1 2360
1 2361
1 2362
1 2363
1 2364
1 2365
1 2366
1 2367
1 2368
1 2369
1 2370
1 2371
1 2372
1 2373
1 2374
1 2375
1 2376
1 2377
1 2378
1 2379
1 2380
1 2381
1 2382
1 2383
1 2384
1 2385
1 2386
1 2387
1 2388
1 2389
1 2390
1 2391
1 2392
1 2393
1 2394
1 2395
1 2396
1 2397
1 2398
1 2399
1 2400
1 2401
1 2402
1 2403
1 2404
1 2405
1 2406
1 2407
1 2408
1 2409
1 2410
1 2411
1 2412
1 2413
1 2414
1 2415
1 2416
1 2417
1 2418
1 2419
1 2420
1 2421
1 2422
1 2423
1 2424
1 2425
1 2426
1 2427
1 2428
1 2429
1 2430
1 2431
1 2432
1 2433
1 2434
1 2435
1 2436
1 2437
1 2438
1 2439
1 2440
1 2441
1 2442
1 2443
1 2444
1 2445
1 2446
1 2447
1 2448
1 2449
1 2450
1 2451
1 2452
1 2453
1 2454
1 2455
1 2456
1 2457
1 2458
1 2459
1 2460
1 2461
1 2462
1 2463
1 2464
1 2465
1 2466
1 2467
1 2468
1 2469
1 2470
1 2471
1 2472
1 2473
1 2474
1 2475
1 2476
1 2477
1 2478
1 2479
1 2480
1 2481
1 2482
1 2483
1 2484
1 2485
1 2486
1 2487
1 2488
1 2489
1 2490
1 2491
1 2492
1 2493
1 2494
1 2495
1 2496
1 2497
1 2498
1 2499
1 2500
1 2501
1 2502
1 2503
1 2504
1 2505
1 2506
1 2507
1 2508
1 2509
1 2510
1 2511
1 2512
1 2513
1 2514
1 2515
1 2516
1 2517
1 2518
1 2519
1 2520
1 2521
1 2522
1 2523
1 2524
1 2525
1 2526
1 2527
1 2528
1 2529
1 2530
1 2531
1 2532
1 2533
1 2534
1 2535
1 2536
1 2537
1 2538
1 2539
1 2540
1 2541
1 2542
1 2543
1 2544
1 2545
1 2546
1 2547
1 2548
1 2549
1 2550
1 2551
1 2552
1 2553
1 2554
1 2555
1 2556
1 2557
1 2558
1 2559
1 2560
1 2561
1 2562
1 2563
1 2564
1 2565
1 2566
1 2567
1 2568
1 2569
1 2570
1 2571
1 2572
1 2573
1 2574
1 2575
1 2576
1 2577
1 2578
1 2579
1 2580
1 2581
1 2582
1 2583
1 2584
1 2585
1 2586
1 2587
1 2588
1 2589
1 2590
1 2591
1 2592
1 2593
1 2594
1 2595
1 2596
1 2597
1 2598
1 2599
1 2600
1 2601
1 2602
1 2603
1 2604
1 2605
1 2606
1 2607
1 2608
1 2609
1 2610
1 2611
1 2612
1 2613
1 2614
1 2615
1 2616
1 2617
1 2618
1 2619
1 2620
1 2621
1 2622
1 2623
1 2624
1 2625
1 2626
1 2627
1 2628
1 2629
1 2630
1 2631
1 2632
1 2633
1 2634
1 2635
1 2636
1 2637
1 2638
1 2639
1 2640
1 2641
1 2642
1 2643
1 2644
1 2645
1 2646
1 2647
1 2648
1 2649
1 2650
1 2651
1 2652
1 2653
1 2654
1 2655
1 2656
1 2657
1 2658
1 2659
1 2660
1 2661
1 2662
1 2663
1 2664
1 2665
1 2666
1 2667
1 2668
1 2669
1 2670
1 2671
1 2672
1 2673
1 2674
1 2675
1 2676
1 2677
1 2678
1 2679
1 2680
1 2681
1 2682
1 2683
1 2684
1 2685
1 2686
1 2687
1 2688
1 2689
1 2690
1 2691
1 2692
1 2693
1 2694
1 2695
1 2696
1 2697
1 2698
1 2699
1 2700
1 2701
1 2702
1 2703
1 2704
1 2705
1 2706
1 2707
1 2708
1 2709
1 2710
1 2711
1 2712
1 2713
1 2714
1 2715
1 2716
1 2717
1 2718
1 2719
1 2720
1 2721
1 2722
1 2723
1 2724
1 2725
1 2726
1 2727
1 2728
1 2729
1 2730
1 2731
1 2732
1 2733
1 2734
1 2735
1 2736
1 2737
1 2738
1 2739
1 2740
1 2741
1 2742
1 2743
1 2744
1 2745
1 2746
1 2747
1 2748
1 2749
1 2750
1 2751
1 2752
1 2753
1 2754
1 2755
1 2756
1 2757
1 2758
1 2759
1 2760
1 2761
1 2762
1 2763
1 2764
1 2765
1 2766
1 2767
1 2768
1 2769
1 2770
1 2771
1 2772
1 2773
1 2774
1 2775
1 2776
1 2777
1 2778
1 2779
1 2780
1 2781
1 2782
1 2783
1 2784
1 2785
1 2786
1 2787
1 2788
1 2789
1 2790
1 2791
1 2792
1 2793
1 2794
1 2795
1 2796
1 2797
1 2798
1 2799
1 2800
1 2801
1 2802
1 2803
1 2804
1 2805
1 2806
1 2807
1 2808
1 2809
1 2810
1 2811
1 2812
1 2813
1 2814
1 2815
1 2816
1 2817
1 2818
1 2819
1 2820
1 2821
1 2822
1 2823
1 2824
1 2825
1 2826
1 2827
1 2828
1 2829
1 2830
1 2831
1 2832
1 2833
1 2834
1 2835
1 2836
1 2837
1 2838
1 2839
1 2840
1 2841
1 2842
1 2843
1 2844
1 2845
1 2846
1 2847
1 2848
1 2849
1 2850
1 2851
1 2852
1 2853
1 2854
1 2855
1 2856
1 2857
1 2858
1 2859
1 2860
1 2861
1 2862
1 2863
1 2864
1 2865
1 2866
1 2867
1 2868
1 2869
1 2870
1 2871
1 2872
1 2873
1 2874
1 2875
1 2876
1 2877
1 2878
1 2879
1 2880
1 2881
1 2882
1 2883
1 2884
1 2885
1 2886
1 2887
1 2888
1 2889
1 2890
1 2891
1 2892
1 2893
1 2894
1 2895
1 2896
1 2897
1 2898
1 2899
1 2900
1 2901
1 2902
1 2903
1 2904
1 2905
1 2906
1 2907
1 2908
1 2909
1 2910
1 2911
1 2912
1 2913
1 2914
1 2915
1 2916
1 2917
1 2918
1 2919
1 2920
1 2921
1 2922
1 2923
1 2924
1 2925
1 2926
1 2927
1 2928
1 2929
1 2930
1 2931
1 2932
1 2933
1 2934
1 2935
1 2936
1 2937
1 2938
1 2939
1 2940
1 2941
1 2942
1 2943
1 2944
1 2945
1 2946
1 2947
1 2948
1 2949
1 2950
1 2951
1 2952
1 2953
1 2954
1 2955
1 2956
1 2957
1 2958
1 2959
1 2960
1 2961
1 2962
1 2963
1 2964
1 2965
1 2966
1 2967
1 2968
1 2969
1 2970
1 2971
1 2972
1 2973
1 2974
1 2975
1 2976
1 2977
1 2978
1 2979
1 2980
1 2981
1 2982
1 2983
1 2984
1 2985
1 2986
1 2987
1 2988
1 2989
1 2990
1 2991
1 2992
1 2993
1 2994
1 2995
1 2996
1 2997
1 2998
1 2999
1 3000
1 3001
1 3002
1 3003
1 3004
1 3005
1 3006
1 3007
1 3008
1 3009
1 3010
1 3011
1 3012
1 3013
1 3014
1 3015
1 3016
1 3017
1 3018
1 3019
1 3020
1 3021
1 3022
1 3023
1 3024
1 3025
1 3026
1 3027
1 3028
1 3029
1 3030
1 3031
1 3032
1 3033
1 3034
1 3035
1 3036
1 3037
1 3038
1 3039
1 3040
1 3041
1 3042
1 3043
1 3044
1 3045
1 3046
1 3047
1 3048
1 3049
1 3050
1 3051
1 3052
1 3053
1 3054
1 3055
1 3056
1 3057
1 3058
1 3059
1 3060
1 3061
1 3062
1 3063
1 3064
1 3065
1 3066
1 3067
1 3068
1 3069
1 3070
1 3071
1 3072
1 3073
1 3074
1 3075
1 3076
1 3077
1 3078
1 3079
1 3080
1 3081
1 3082
1 3083
1 3084
1 3085
1 3086
1 3087
1 3088
1 3089
1 3090
1 3091
1 3092
1 3093
1 3094
1 3095
1 3096
1 3097
1 3098
1 3099
1 3100
1 3101
1 3102
1 3103
1 3104
1 3105
1 3106
1 3107
1 3108
1 3109
1 3110
1 3111
1 3112
1 3113
1 3114
1 3115
1 3116
1 3117
1 3118
1 3119
1 3120
1 3121
1 3122
1 3123
1 3124
1 3125
1 3126
1 3127
1 3128
1 3129
1 3130
1 3131
1 3132
1 3133
1 3134
1 3135
1 3136
1 3137
1 3138
1 3139
1 3140
1 3141
1 3142
1 3143
1 3144
1 3145
1 3146
1 3147
1 3148
1 3149
1 3150
1 3151
1 3152
1 3153
1 3154
1 3155
1 3156
1 3157
1 3158
1 3159
1 3160
1 3161
1 3162
1 3163
1 3164
1 3165
1 3166
1 3167
1 3168
1 3169
1 3170
1 3171
1 3172
1 3173
1 3174
1 3175
1 3176
1 3177
1 3178
1 3179
1 3180
1 3181
1 3182
1 3183
1 3184
1 3185
1 3186
1 3187
1 3188
1 3189
1 3190
1 3191
1 3192
1 3193
1 3194
1 3195
1 3196
1 3197
1 3198
1 3199
1 3200
1 3201
1 3202
1 3203
1 3204
1 3205
1 3206
1 3207
1 3208
1 3209
1 3210
1 3211
1 3212
1 3213
1 3214
1 3215
1 3216
1 3217
1 3218
1 3219
1 3220
1 3221
1 3222
1 3223
1 3224
1 3225
1 3226
1 3227
1 3228
1 3229
1 3230
1 3231
1 3232
1 3233
1 3234
1 3235
1 3236
1 3237
1 3238
1 3239
1 3240
1 3241
1 3242
1 3243
1 3244
1 3245
1 3246
1 3247
1 3248
1 3249
1 3250
1 3251
1 3252
1 3253
1 3254
1 3255
1 3256
1 3257
1 3258
1 3259
1 3260
1 3261
1 3262
1 3263
1 3264
1 3265
1 3266
1 3267
1 3268
1 3269
1 3270
1 3271
1 3272
1 3273
1 3274
1 3275
1 3276
1 3277
1 3278
1 3279
1 3280
1 3281
1 3282
1 3283
1 3284
1 3285
1 3286
1 3287
1 3288
1 3289
1 3290
1 3291
1 3292
1 3293
1 3294
1 3295
1 3296
1 3297
1 3298
1 3299
1 3300
1 3301
1 3302
1 3303
1 3304
1 3305
1 3306
1 3307
1 3308
1 3309
1 3310
1 3311
1 3312
1 3313
1 3314
1 3315
1 3316
1 3317
1 3318
1 3319
1 3320
1 3321
1 3322
1 3323
1 3324
1 3325
1 3326
1 3327
1 3328
1 3329
1 3330
1 3331
1 3332
1 3333
1 3334
1 3335
1 3336
1 3337
1 3338
1 3339
1 3340
1 3341
1 3342
1 3343
1 3344
1 3345
1 3346
1 3347
1 3348
1 3349
1 3350
1 3351
1 3352
1 3353
1 3354
1 3355
1 3356
1 3357
1 3358
1 3359
1 3360
1 3361
1 3362
1 3363
1 3364
1 3365
1 3366
1 3367
1 3368
1 3369
1 3370
1 3371
1 3372
1 3373
1 3374
1 3375
1 3376
1 3377
1 3378
1 3379
1 3380
1 3381
1 3382
1 3383
1 3384
1 3385
1 3386
1 3387
1 3388
1 3389
1 3390
1 3391
1 3392
1 3393
1 3394
1 3395
1 3396
1 3397
1 3398
1 3399
1 3400
1 3401
1 3402
1 3403
1 3404
1 3405
1 3406
1 3407
1 3408
1 3409
1 3410
1 3411
1 3412
1 3413
1 3414
1 3415
1 3416
1 3417
1 3418
1 3419
1 3420
1 3421
1 3422
1 3423
1 3424
1 3425
1 3426
1 3427
1 3428
1 3429
1 3430
1 3431
1 3432
1 3433
1 3434
1 3435
1 3436
1 3437
1 3438
1 3439
1 3440
1 3441
1 3442
1 3443
1 3444
1 3445
1 3446
1 3447
1 3448
1 3449
1 3450
1 3451
1 3452
1 3453
1 3454
1 3455
1 3456
1 3457
1 3458
1 3459
1 3460
1 3461
1 3462
1 3463
1 3464
1 3465
1 3466
1 3467
1 3468
1 3469
1 3470
1 3471
1 3472
1 3473
1 3474
1 3475
1 3476
1 3477
1 3478
1 3479
1 3480
1 3481
1 3482
1 3483
1 3484
1 3485
1 3486
1 3487
1 3488
1 3489
1 3490
1 3491
1 3492
1 3493
1 3494
1 3495
1 3496
1 3497
1 3498
1 3499
1 3500
1 3501
1 3502
1 3503
1 3504
1 3505
1 3506
1 3507
1 3508
1 3509
1 3510
1 3511
1 3512
1 3513
1 3514
1 3515
1 3516
1 3517
1 3518
1 3519
1 3520
1 3521
1 3522
1 3523
1 3524
1 3525
1 3526
1 3527
1 3528
1 3529
1 3530
1 3531
1 3532
1 3533
1 3534
1 3535
1 3536
1 3537
1 3538
1 3539
1 3540
1 3541
1 3542
1 3543
1 3544
1 3545
1 3546
1 3547
1 3548
1 3549
1 3550
1 3551
1 3552
1 3553
1 3554
1 3555
1 3556
1 3557
1 3558
1 3559
1 3560
1 3561
1 3562
1 3563
1 3564
1 3565
1 3566
1 3567
1 3568
1 3569
1 3570
1 3571
1 3572
1 3573
1 3574
1 3575
1 3576
1 3577
1 3578
1 3579
1 3580
1 3581
1 3582
1 3583
1 3584
1 3585
1 3586
1 3587
1 3588
1 3589
1 3590
1 3591
1 3592
1 3593
1 3594
1 3595
1 3596
1 3597
1 3598
1 3599
1 3600
1 3601
1 3602
1 3603
1 3604
1 3605
1 3606
1 3607
1 3608
1 3609
1 3610
1 3611
1 3612
1 3613
1 3614
1 3615
1 3616
1 3617
1 3618
1 3619
1 3620
1 3621
1 3622
1 3623
1 3624
1 3625
1 3626
1 3627
1 3628
1 3629
1 3630
1 3631
1 3632
1 3633
1 3634
1 3635
1 3636
1 3637
1 3638
1 3639
1 3640
1 3641
1 3642
1 3643
1 3644
1 3645
1 3646
1 3647
1 3648
1 3649
1 3650
1 3651
1 3652
1 3653
1 3654
1 3655
1 3656
1 3657
1 3658
1 3659
1 3660
1 3661
1 3662
1 3663
1 3664
1 3665
1 3666
1 3667
1 3668
1 3669
1 3670
1 3671
1 3672
1 3673
1 3674
1 3675
1 3676
1 3677
1 3678
1 3679
1 3680
1 3681
1 3682
1 3683
1 3684
1 3685
1 3686
1 3687
1 3688
1 3689
1 3690
1 3691
1 3692
1 3693
1 3694
1 3695
1 3696
1 3697
1 3698
1 3699
1 3700
1 3701
1 3702
1 3703
1 3704
1 3705
1 3706
1 3707
1 3708
1 3709
1 3710
1 3711
1 3712
1 3713
1 3714
1 3715
1 3716
1 3717
1 3718
1 3719
1 3720
1 3721
1 3722
1 3723
1 3724
1 3725
1 3726
1 3727
1 3728
1 3729
1 3730
1 3731
1 3732
1 3733
1 3734
1 3735
1 3736
1 3737
1 3738
1 3739
1 3740
1 3741
1 3742
1 3743
1 3744
1 3745
1 3746
1 3747
1 3748
1 3749
1 3750
1 3751
1 3752
1 3753
1 3754
1 3755
1 3756
1 3757
1 3758
1 3759
1 3760
1 3761
1 3762
1 3763
1 3764
1 3765
1 3766
1 3767
1 3768
1 3769
1 3770
1 3771
1 3772
1 3773
1 3774
1 3775
1 3776
1 3777
1 3778
1 3779
1 3780
1 3781
1 3782
1 3783
1 3784
1 3785
1 3786
1 3787
1 3788
1 3789
1 3790
1 3791
1 3792
1 3793
1 3794
1 3795
1 3796
1 3797
1 3798
1 3799
1 3800
1 3801
1 3802
1 3803
1 3804
1 3805
1 3806
1 3807
1 3808
1 3809
1 3810
1 3811
1 3812
1 3813
1 3814
1 3815
1 3816
1 3817
1 3818
1 3819
1 3820
1 3821
1 3822
1 3823
1 3824
1 3825
1 3826
1 3827
1 3828
1 3829
1 3830
1 3831
1 3832
1 3833
1 3834
1 3835
1 3836
1 3837
1 3838
1 3839
1 3840
1 3841
1 3842
1 3843
1 3844
1 3845
1 3846
1 3847
1 3848
1 3849
1 3850
1 3851
1 3852
1 3853
1 3854
1 3855
1 3856
1 3857
1 3858
1 3859
1 3860
1 3861
1 3862
1 3863
1 3864
1 3865
1 3866
1 3867
1 3868
1 3869
1 3870
1 3871
1 3872
1 3873
1 3874
1 3875
1 3876
1 3877
1 3878
1 3879
1 3880
1 3881
1 3882
1 3883
1 3884
1 3885
1 3886
1 3887
1 3888
1 3889
1 3890
1 3891
1 3892
1 3893
1 3894
1 3895
1 3896
1 3897
1 3898
1 3899
1 3900
1 3901
1 3902
1 3903
1 3904
1 3905
1 3906
1 3907
1 3908
1 3909
1 3910
1 3911
1 3912
1 3913
1 3914
1 3915
1 3916
1 3917
1 3918
1 3919
1 3920
1 3921
1 3922
1 3923
1 3924
1 3925
1 3926
1 3927
1 3928
1 3929
1 3930
1 3931
1 3932
1 3933
1 3934
1 3935
1 3936
1 3937
1 3938
1 3939
1 3940
1 3941
1 3942
1 3943
1 3944
1 3945
1 3946
1 3947
1 3948
1 3949
1 3950
1 3951
1 3952
1 3953
1 3954
1 3955
1 3956
1 3957
1 3958
1 3959
1 3960
1 3961
1 3962
1 3963
1 3964
1 3965
1 3966
1 3967
1 3968
1 3969
1 3970
1 3971
1 3972
1 3973
1 3974
1 3975
1 3976
1 3977
1 3978
1 3979
1 3980
1 3981
1 3982
1 3983
1 3984
1 3985
1 3986
1 3987
1 3988
1 3989
1 3990
1 3991
1 3992
1 3993
1 3994
1 3995
1 3996
1 3997
1 3998
1 3999
1 4000
1 4001
1 4002
1 4003
1 4004
1 4005
1 4006
1 4007
1 4008
1 4009
1 4010
1 4011
1 4012
1 4013
1 4014
1 4015
1 4016
1 4017
1 4018
1 4019
1 4020
1 4021
1 4022
1 4023
1 4024
1 4025
1 4026
1 4027
1 4028
1 4029
1 4030
1 4031
1 4032
1 4033
1 4034
1 4035
1 4036
1 4037
1 4038
1 4039
1 4040
1 4041
1 4042
1 4043
1 4044
1 4045
1 4046
1 4047
1 4048
1 4049
1 4050
1 4051
1 4052
1 4053
1 4054
1 4055
1 4056
1 4057
1 4058
1 4059
1 4060
1 4061
1 4062
1 4063
1 4064
1 4065
1 4066
1 4067
1 4068
1 4069
1 4070
1 4071
1 4072
1 4073
1 4074
1 4075
1 4076
1 4077
1 4078
1 4079
1 4080
1 4081
1 4082
1 4083
1 4084
1 4085
1 4086
1 4087
1 4088
1 4089
1 4090
1 4091
1 4092
1 4093
1 4094
1 4095
1 4096
1 4097
1 4098
1 4099
1 4100
1 4101
1 4102
1 4103
1 4104
1 4105
1 4106
1 4107
1 4108
1 4109
1 4110
1 4111
1 4112
1 4113
1 4114
1 4115
1 4116
1 4117
1 4118
1 4119
1 4120
1 4121
1 4122
1 4123
1 4124
1 4125
1 4126
1 4127
1 4128
1 4129
1 4130
1 4131
1 4132
1 4133
1 4134
1 4135
1 4136
1 4137
1 4138
1 4139
1 4140
1 4141
1 4142
1 4143
1 4144
1 4145
1 4146
1 4147
1 4148
1 4149
1 4150
1 4151
1 4152
1 4153
1 4154
1 4155
1 4156
1 4157
1 4158
1 4159
1 4160
1 4161
1 4162
1 4163
1 4164
1 4165
1 4166
1 4167
1 4168
1 4169
1 4170
1 4171
1 4172
1 4173
1 4174
1 4175
1 4176
1 4177
1 4178
1 4179
1 4180
1 4181
1 4182
1 4183
1 4184
1 4185
1 4186
1 4187
1 4188
1 4189
1 4190
1 4191
1 4192
1 4193
1 4194
1 4195
1 4196
1 4197
1 4198
1 4199
1 4200
1 4201
1 4202
1 4203
1 4204
1 4205
1 4206
1 4207
1 4208
1 4209
1 4210
1 4211
1 4212
1 4213
1 4214
1 4215
1 4216
1 4217
1 4218
1 4219
1 4220
1 4221
1 4222
1 4223
1 4224
1 4225
1 4226
1 4227
1 4228
1 4229
1 4230
1 4231
1 4232
1 4233
1 4234
1 4235
1 4236
1 4237
1 4238
1 4239
1 4240
1 4241
1 4242
1 4243
1 4244
1 4245
1 4246
1 4247
1 4248
1 4249
1 4250
1 4251
1 4252
1 4253
1 4254
1 4255
1 4256
1 4257
1 4258
1 4259
1 4260
1 4261
1 4262
1 4263
1 4264
1 4265
1 4266
1 4267
1 4268
1 4269
1 4270
1 4271
1 4272
1 4273
1 4274
1 4275
1 4276
1 4277
1 4278
1 4279
1 4280
1 4281
1 4282
1 4283
1 4284
1 4285
1 4286
1 4287
1 4288
1 4289
1 4290
1 4291
1 4292
1 4293
1 4294
1 4295
1 4296
1 4297
1 4298
1 4299
1 4300
1 4301
1 4302
1 4303
1 4304
1 4305
1 4306
1 4307
1 4308
1 4309
1 4310
1 4311
1 4312
1 4313
1 4314
1 4315
1 4316
1 4317
1 4318
1 4319
1 4320
1 4321
1 4322
1 4323
1 4324
1 4325
1 4326
1 4327
1 4328
1 4329
1 4330
1 4331
1 4332
1 4333
1 4334
1 4335
1 4336
1 4337
1 4338
1 4339
1 4340
1 4341
1 4342
1 4343
1 4344
1 4345
1 4346
1 4347
1 4348
1 4349
1 4350
1 4351
1 4352
1 4353
1 4354
1 4355
1 4356
1 4357
1 4358
1 4359
1 4360
1 4361
1 4362
1 4363
1 4364
1 4365
1 4366
1 4367
1 4368
1 4369
1 4370
1 4371
1 4372
1 4373
1 4374
1 4375
1 4376
1 4377
1 4378
1 4379
1 4380
1 4381
1 4382
1 4383
1 4384
1 4385
1 4386
1 4387
1 4388
1 4389
1 4390
1 4391
1 4392
1 4393
1 4394
1 4395
1 4396
1 4397
1 4398
1 4399
1 4400
1 4401
1 4402
1 4403
1 4404
1 4405
1 4406
1 4407
1 4408
1 4409
1 4410
1 4411
1 4412
1 4413
1 4414
1 4415
1 4416
1 4417
1 4418
1 4419
1 4420
1 4421
1 4422
1 4423
1 4424
1 4425
1 4426
1 4427
1 4428
1 4429
1 4430
1 4431
1 4432
1 4433
1 4434
1 4435
1 4436
1 4437
1 4438
1 4439
1 4440
1 4441
1 4442
1 4443
1 4444
1 4445
1 4446
1 4447
1 4448
1 4449
1 4450
1 4451
1 4452
1 4453
1 4454
1 4455
1 4456
1 4457
1 4458
1 4459
1 4460
1 4461
1 4462
1 4463
1 4464
1 4465
1 4466
1 4467
1 4468
1 4469
1 4470
1 4471
1 4472
1 4473
1 4474
1 4475
1 4476
1 4477
1 4478
1 4479
1 4480
1 4481
1 4482
1 4483
1 4484
1 4485
1 4486
1 4487
1 4488
1 4489
1 4490
1 4491
1 4492
1 4493
1 4494
1 4495
1 4496
1 4497
1 4498
1 4499
1 4500
1 4501
1 4502
1 4503
1 4504
1 4505
1 4506
1 4507
1 4508
1 4509
1 4510
1 4511
1 4512
1 4513
1 4514
1 4515
1 4516
1 4517
1 4518
1 4519
1 4520
1 4521
1 4522
1 4523
1 4524
1 4525
1 4526
1 4527
1 4528
1 4529
1 4530
1 4531
1 4532
1 4533
1 4534
1 4535
1 4536
1 4537
1 4538
1 4539
1 4540
1 4541
1 4542
1 4543
1 4544
1 4545
1 4546
1 4547
1 4548
1 4549
1 4550
1 4551
1 4552
1 4553
1 4554
1 4555
1 4556
1 4557
1 4558
1 4559
1 4560
1 4561
1 4562
1 4563
1 4564
1 4565
1 4566
1 4567
1 4568
1 4569
1 4570
1 4571
1 4572
1 4573
1 4574
1 4575
1 4576
1 4577
1 4578
1 4579
1 4580
1 4581
1 4582
1 4583
1 4584
1 4585
1 4586
1 4587
1 4588
1 4589
1 4590
1 4591
1 4592
1 4593
1 4594
1 4595
1 4596
1 4597
1 4598
1 4599
1 4600
1 4601
1 4602
1 4603
1 4604
1 4605
1 4606
1 4607
1 4608
1 4609
1 4610
1 4611
1 4612
1 4613
1 4614
1 4615
1 4616
1 4617
1 4618
1 4619
1 4620
1 4621
1 4622
1 4623
1 4624
1 4625
1 4626
1 4627
1 4628
1 4629
1 4630
1 4631
1 4632
1 4633
1 4634
1 4635
1 4636
1 4637
1 4638
1 4639
1 4640
1 4641
1 4642
1 4643
1 4644
1 4645
1 4646
1 4647
1 4648
1 4649
1 4650
1 4651
1 4652
1 4653
1 4654
1 4655
1 4656
1 4657
1 4658
1 4659
1 4660
1 4661
1 4662
1 4663
1 4664
1 4665
1 4666
1 4667
1 4668
1 4669
1 4670
1 4671
1 4672
1 4673
1 4674
1 4675
1 4676
1 4677
1 4678
1 4679
1 4680
1 4681
1 4682
1 4683
1 4684
1 4685
1 4686
1 4687
1 4688
1 4689
1 4690
1 4691
1 4692
1 4693
1 4694
1 4695
1 4696
1 4697
1 4698
1 4699
1 4700
1 4701
1 4702
1 4703
1 4704
1 4705
1 4706
1 4707
1 4708
1 4709
1 4710
1 4711
1 4712
1 4713
1 4714
1 4715
1 4716
1 4717
1 4718
1 4719
1 4720
1 4721
1 4722
1 4723
1 4724
1 4725
1 4726
1 4727
1 4728
1 4729
1 4730
1 4731
1 4732
1 4733
1 4734
1 4735
1 4736
1 4737
1 4738
1 4739
1 4740
1 4741
1 4742
1 4743
1 4744
1 4745
1 4746
1 4747
1 4748
1 4749
1 4750
1 4751
1 4752
1 4753
1 4754
1 4755
1 4756
1 4757
1 4758
1 4759
1 4760
1 4761
1 4762
1 4763
1 4764
1 4765
1 4766
1 4767
1 4768
1 4769
1 4770
1 4771
1 4772
1 4773
1 4774
1 4775
1 4776
1 4777
1 4778
1 4779
1 4780
1 4781
1 4782
1 4783
1 4784
1 4785
1 4786
1 4787
1 4788
1 4789
1 4790
1 4791
1 4792
1 4793
1 4794
1 4795
1 4796
1 4797
1 4798
1 4799
1 4800
1 4801
1 4802
1 4803
1 4804
1 4805
1 4806
1 4807
1 4808
1 4809
1 4810
1 4811
1 4812
1 4813
1 4814
1 4815
1 4816
1 4817
1 4818
1 4819
1 4820
1 4821
1 4822
1 4823
1 4824
1 4825
1 4826
1 4827
1 4828
1 4829
1 4830
1 4831
1 4832
1 4833
1 4834
1 4835
1 4836
1 4837
1 4838
1 4839
1 4840
1 4841
1 4842
1 4843
1 4844
1 4845
1 4846
1 4847
1 4848
1 4849
1 4850
1 4851
1 4852
1 4853
1 4854
1 4855
1 4856
1 4857
1 4858
1 4859
1 4860
1 4861
1 4862
1 4863
1 4864
1 4865
1 4866
1 4867
1 4868
1 4869
1 4870
1 4871
1 4872
1 4873
1 4874
1 4875
1 4876
1 4877
1 4878
1 4879
1 4880
1 4881
1 4882
1 4883
1 4884
1 4885
1 4886
1 4887
1 4888
1 4889
1 4890
1 4891
1 4892
1 4893
1 4894
1 4895
1 4896
1 4897
1 4898
1 4899
1 4900
1 4901
1 4902
1 4903
1 4904
1 4905
1 4906
1 4907
1 4908
1 4909
1 4910
1 4911
1 4912
1 4913
1 4914
1 4915
1 4916
1 4917
1 4918
1 4919
1 4920
1 4921
1 4922
1 4923
1 4924
1 4925
1 4926
1 4927
1 4928
1 4929
1 4930
1 4931
1 4932
1 4933
1 4934
1 4935
1 4936
1 4937
1 4938
1 4939
1 4940
1 4941
1 4942
1 4943
1 4944
1 4945
1 4946
1 4947
1 4948
1 4949
1 4950
1 4951
1 4952
1 4953
1 4954
1 4955
1 4956
1 4957
1 4958
1 4959
1 4960
1 4961
1 4962
1 4963
1 4964
1 4965
1 4966
1 4967
1 4968
1 4969
1 4970
1 4971
1 4972
1 4973
1 4974
1 4975
1 4976
1 4977
1 4978
1 4979
1 4980
1 4981
1 4982
1 4983
1 4984
1 4985
1 4986
1 4987
1 4988
1 4989
1 4990
1 4991
1 4992
1 4993
1 4994
1 4995
1 4996
1 4997
1 4998
1 4999
CELL_TYPES 5000
1 
1 
1 
1 
1 
1 
1 
1 
1 
1 
1 
1 
1 
1 
1 
1 
1 
1 
1 
1 
1 
1 
1 
1 
1 
1 
1 
1 
1 
1 
1 
1 
1 
1 
1 
1 
1 
1 
1 
1 
1 
1 
1 
1 
1 
1 
1 
1 
1 
1 
1 
1 
1 
1 
1 
1 
1 
1 
1 
1 
1 
1 
1 
1 
1 
1 
1 
1 
1 
1 
1 
1 
1 
1 
1 
1 
1 
1 
1 
1 
1 
1 
1 
1 
1 
1 
1 
1 
1 
1 
1 
1 
1 
1 
1 
1 
1 
1 
1 
1 
1 
1 
1 
1 
1 
1 
1 
1 
1 
1 
1 
1 
1 
1 
1 
1 
1 
1 
1 
1 
1 
1 
1 
1 
1 
1 
1 
1 
1 
1 
1 
1 
1 
1 
1 
1 
1 
1 
1 
1 
1 
1 
1 
1 
1 
1 
1 
1 
1 
1 
1 
1 
1 
1 
1 
1 
1 
1 
1 
1 
1 
1 
1 
1 
1 
1 
1 
1 
1 
1 
1 
1 
1 
1 
1 
1 
1 
1 
1 
1 
1 
1 
1 
1 
1 
1 
1 
1 
1 
1 
1 
1 
1 
1 
1 
1 
1 
1 
1 
1 
1 
1 
1 
1 
1 
1 
1 
1 
1 
1 
1 
1 
1 
1 
1 
1 
1 
1 
1 
1 
1 
1 
1 
1 
1 
1 
1 
1 
1 
1 
1 
1 
1 
1 
1 
1 
1 
1 
1 
1 
1 
1 
1 
1 
1 
1 
1 
1 
1 
1 
1 
1 
1 
1 
1 
1 
1 
1 
1 
1 
1 
1 
1 
1 
1 
1 
1 
1 
1 
1 
1 
1 
1 
1 
1 
1 
1 
1 
1 
1 
1 
1 
1 
1 
1 
1 
1 
1 
1 
1 
1 
1 
1 
1 
1 
1 
1 
1 
1 
1 
1 
1 
1 
1 
1 
1 
1 
1 
1 
1 
1 
1 
1 
1 
1 
1 
1 
1 
1 
1 
1 
1 
1 
1 
1 
1 
1 
1 
1 
1 
1 
1 
1 
1 
1 
1 
1 
1 
1 
1 
1 
1 
1 
1 
1 
1 
1 
1 
1 
1 
1 
1 
1 
1 
1 
1 
1 
1 
1 
1 
1 
1 
1 
1 
1 
1 
1 
1 
1 
1 
1 
1 
1 
1 
1 
1 
1 
1 
1 
1 
1 
1 
1 
1 
1 
1 
1 
1 
1 
1 
1 
1 
1 
1 
1 
1 
1 
1 
1 
1 
1 
1 
1 
1 
1 
1 
1 
1 
1 
1 
1 
1 
1 
1 
1 
1 
1 
1 
1 
1 
1 
1 
1 
1 
1 
1 
1 
1 
1 
1 
1 
1 
1 
1 
1 
1 
1 
1 
1 
1 
1 
1 
1 
1 
1 
1 
1 
1 
1 
1 
1 
1 
1 
1 
1 
1 
1 
1 
1 
1 
1 
1 
1 
1 
1 
1 
1 
1 
1 
1 
1 
1 
1 
1 
1 
1 
1 
1 
1 
1 
1 
1 
1 
1 
1 
1 
1 
1 
1 
1 
1 
1 
1 
1 
1 
1 
1 
1 
1 
1 
1 
1 
1 
1 
1 
1 
1 
1 
1 
1 
1 
1 
1 
1 
1 
1 
1 
1 
1 
1 
1 
1 
1 
1 
1 
1 
1 
1 
1 
1 
1 
1 
1 
1 
1 
1 
1 
1 
1 
1 
1 
1 
1 
1 
1 
1 
1 
1 
1 
1 
1 
1 
1 
1 
1 
1 
1 
1 
1 
1 
1 
1 
1 
1 
1 
1 
1 
1 
1 
1 
1 
1 
1 
1 
1 
1 
1 
1 
1 
1 
1 
1 
1 
1 
1 
1 
1 
1 
1 
1 
1 
1 
1 
1 
1 
1 
1 
1 
1 
1 
1 
1 
1 
1 
1 
1 
1 
1 
1 
1 
1 
1 
1 
1 
1 
1 
1 
1 
1 
1 
1 
1 
1 
1 
1 
1 
1 
1 
1 
1 
1 
1 
1 
1 
1 
1 
1 
1 
1 
1 
1 
1 
1 
1 
1 
1 
1 
1 
1 
1 
1 
1 
1 
1 
1 
1 
1 
1 
1 
1 
1 
1 
1 
1 
1 
1 
1 
1 
1 
1 
1 
1 
1 
1 
1 
1 
1 
1 
1 
1 
1 
1 
1 
1 
1 
1 
1 
1 
1 
1 
1 
1 
1 
1 
1 
1 
1 
1 
1 
1 
1 
1 
1 
1 
1 
1 
1 
1 
1 
1 
1 
1 
1 
1 
1 
1 
1 
1 
1 
1 
1 
1 
1 
1 
1 
1 
1 
1 
1 
1 
1 
1 
1 
1 
1 
1 
1 
1 
1 
1 
1 
1 
1 
1 
1 
1 
1 
1 
1 
1 
1 
1 
1 
1 
1 
1 
1 
1 
1 
1 
1 
1 
1 
1 
1 
1 
1 
1 
1 
1 
1 
1 
1 
1 
1 
1 
1 
1 
1 
1 
1 
1 
1 
1 
1 
1 
1 
1 
1 
1 
1 
1 
1 
1 
1 
1 
1 
1 
1 
1 
1 
1 
1 
1 
1 
1 
1 
1 
1 
1 
1 
1 
1 
1 
1 
1 
1 
1 
1 
1 
1 
1 
1 
1 
1 
1 
1 
1 
1 
1 
1 
1 
1 
1 
1 
1 
1 
1 
1 
1 
1 
1 
1 
1 
1 
1 
1 
1 
1 
1 
1 
1 
1 
1 
1 
1 
1 
1 
1 
1 
1 
1 
1 
1 
1 
1 
1 
1 
1 
1 
1 
1 
1 
1 
1 
1 
1 
1 
1 
1 
1 
1 
1 
1 
1 
1 
1 
1 
1 
1 
1 
1 
1 
1 
1 
1 
1 
1 
1 
1 
1 
1 
1 
1 
1 
1 
1 
1 
1 
1 
1 
1 
1 
1 
1 
1 
1 
1 
1 
1 
1 
1 
1 
1 
1 
1 
1 
1 
1 
1 
1 
1 
1 
1 
1 
1 
1 
1 
1 
1 
1 
1 
1 
1 
1 
1 
1 
1 
1 
1 
1 
1 
1 
1 
1 
1 
1 
1 
1 
1 
1 
1 
1 
1 
1 
1 
1 
1 
1 
1 
1 
1 
1 
1 
1 
1 
1 
1 
1 
1 
1 
1 
1 
1 
1 
1 
1 
1 
1 
1 
1 
1 
1 
1 
1 
1 
1 
1 
1 
1 
1 
1 
1 
1 
1 
1 
1 
1 
1 
1 
1 
1 
1 
1 
1 
1 
1 
1 
1 
1 
1 
1 
1 
1 
1 
1 
1 
1 
1 
1 
1 
1 
1 
1 
1 
1 
1 
1 
1 
1 
1 
1 
1 
1 
1 
1 
1 
1 
1 
1 
1 
1 
1 
1 
1 
1 
1 
1 
1 
1 
1 
1 
1 
1 
1 
1 
1 
1 
1 
1 
1 
1 
1 
1 
1 
1 
1 
1 
1 
1 
1 
1 
1 
1 
1 
1 
1 
1 
1 
1 
1 
1 
1 
1 
1 
1 
1 
1 
1 
1 
1 
1 
1 
1 
1 
1 
1 
1 
1 
1 
1 
1 
1 
1 
1 
1 
1 
1 
1 
1 
1 
1 
1 
1 
1 
1 
1 
1 
1 
1 
1 
1 
1 
1 
1 
1 
1 
1 
1 
1 
1 
1 
1 
1 
1 
1 
1 
1 
1 
1 
1 
1 
1 
1 
1 
1 
1 
1 
1 
1 
1 
1 
1 
1 
1 
1 
1 
1 
1 
1 
1 
1 
1 
1 
1 
1 
1 
1 
1 
1 
1 
1 
1 
1 
1 
1 
1 
1 
1 
1 
1 
1 
1 
1 
1 
1 
1 
1 
1 
1 
1 
1 
1 
1 
1 
1 
1 
1 
1 
1 
1 
1 
1 
1 
1 
1 
1 
1 
1 
1 
1 
1 
1 
1 
1 
1 
1 
1 
1 
1 
1 
1 
1 
1 
1 
1 
1 
1 
1 
1 
1 
1 
1 
1 
1 
1 
1 
1 
1 
1 
1 
1 
1 
1 
1 
1 
1 
1 
1 
1 
1 
1 
1 
1 
1 
1 
1 
1 
1 
1 
1 
1 
1 
1 
1 
1 
1 
1 
1 
1 
1 
1 
1 
1 
1 
1 
1 
1 
1 
1 
1 
1 
1 
1 
1 
1 
1 
1 
1 
1 
1 
1 
1 
1 
1 
1 
1 
1 
1 
1 
1 
1 
1 
1 
1 
1 
1 
1 
1 
1 
1 
1 
1 
1 
1 
1 
1 
1 
1 
1 
1 
1 
1 
1 
1 
1 
1 
1 
1 
1 
1 
1 
1 
1 
1 
1 
1 
1 
1 
1 
1 
1 
1 
1 
1 
1 
1 
1 
1 
1 
1 
1 
1 
1 
1 
1 
1 
1 
1 
1 
1 
1 
1 
1 
1 
1 
1 
1 
1 
1 
1 
1 
1 
1 
1 
1 
1 
1 
1 
1 
1 
1 
1 
1 
1 
1 
1 
1 
1 
1 
1 
1 
1 
1 
1 
1 
1 
1 
1 
1 
1 
1 
1 
1 
1 
1 
1 
1 
1 
1 
1 
1 
1 
1 
1 
1 
1 
1 
1 
1 
1 
1 
1 
1 
1 
1 
1 
1 
1 
1 
1 
1 
1 
1 
1 
1 
1 
1 
1 
1 
1 
1 
1 
1 
1 
1 
1 
1 
1 
1 
1 
1 
1 
1 
1 
1 
1 
1 
1 
1 
1 
1 
1 
1 
1 
1 
1 
1 
1 
1 
1 
1 
1 
1 
1 
1 
1 
1 
1 
1 
1 
1 
1 
1 
1 
1 
1 
1 
1 
1 
1 
1 
1 
1 
1 
1 
1 
1 
1 
1 
1 
1 
1 
1 
1 
1 
1 
1 
1 
1 
1 
1 
1 
1 
1 
1 
1 
1 
1 
1 
1 
1 
1 
1 
1 
1 
1 
1 
1 
1 
1 
1 
1 
1 
1 
1 
1 
1 
1 
1 
1 
1 
1 
1 
1 
1 
1 
1 
1 
1 
1 
1 
1 
1 
1 
1 
1 
1 
1 
1 
1 
1 
1 
1 
1 
1 
1 
1 
1 
1 
1 
1 
1 
1 
1 
1 
1 
1 
1 
1 
1 
1 
1 
1 
1 
1 
1 
1 
1 
1 
1 
1 
1 
1 
1 
1 
1 
1 
1 
1 
1 
1 
1 
1 
1 
1 
1 
1 
1 
1 
1 
1 
1 
1 
1 
1 
1 
1 
1 
1 
1 
1 
1 
1 
1 
1 
1 
1 
1 
1 
1 
1 
1 
1 
1 
1 
1 
1 
1 
1 
1 
1 
1 
1 
1 
1 
1 
1 
1 
1 
1 
1 
1 
1 
1 
1 
1 
1 
1 
1 
1 
1 
1 
1 
1 
1 
1 
1 
1 
1 
1 
1 
1 
1 
1 
1 
1 
1 
1 
1 
1 
1 
1 
1 
1 
1 
1 
1 
1 
1 
1 
1 
1 
1 
1 
1 
1 
1 
1 
1 
1 
1 
1 
1 
1 
1 
1 
1 
1 
1 
1 
1 
1 
1 
1 
1 
1 
1 
1 
1 
1 
1 
1 
1 
1 
1 
1 
1 
1 
1 
1 
1 
1 
1 
1 
1 
1 
1 
1 
1 
1 
1 
1 
1 
1 
1 
1 
1 
1 
1 
1 
1 
1 
1 
1 
1 
1 
1 
1 
1 
1 
1 
1 
1 
1 
1 
1 
1 
1 
1 
1 
1 
1 
1 
1 
1 
1 
1 
1 
1 
1 
1 
1 
1 
1 
1 
1 
1 
1 
1 
1 
1 
1 
1 
1 
1 
1 
1 
1 
1 
1 
1 
1 
1 
1 
1 
1 
1 
1 
1 
1 
1 
1 
1 
1 
1 
1 
1 
1 
1 
1 
1 
1 
1 
1 
1 
1 
1 
1 
1 
1 
1 
1 
1 
1 
1 
1 
1 
1 
1 
1 
1 
1 
1 
1 
1 
1 
1 
1 
1 
1 
1 
1 
1 
1 
1 
1 
1 
1 
1 
1 
1 
1 
1 
1 
1 
1 
1 
1 
1 
1 
1 
1 
1 
1 
1 
1 
1 
1 
1 
1 
1 
1 
1 
1 
1 
1 
1 
1 
1 
1 
1 
1 
1 
1 
1 
1 
1 
1 
1 
1 
1 
1 
1 
1 
1 
1 
1 
1 
1 
1 
1 
1 
1 
1 
1 
1 
1 
1 
1 
1 
1 
1 
1 
1 
1 
1 
1 
1 
1 
1 
1 
1 
1 
1 
1 
1 
1 
1 
1 
1 
1 
1 
1 
1 
1 
1 
1 
1 
1 
1 
1 
1 
1 
1 
1 
1 
1 
1 
1 
1 
1 
1 
1 
1 
1 
1 
1 
1 
1 
1 
1 
1 
1 
1 
1 
1 
1 
1 
1 
1 
1 
1 
1 
1 
1 
1 
1 
1 
1 
1 
1 
1 
1 
1 
1 
1 
1 
1 
1 
1 
1 
1 
1 
1 
1 
1 
1 
1 
1 
1 
1 
1 
1 
1 
1 
1 
1 
1 
1 
1 
1 
1 
1 
1 
1 
1 
1 
1 
1 
1 
1 
1 
1 
1 
1 
1 
1 
1 
1 
1 
1 
1 
1 
1 
1 
1 
1 
1 
1 
1 
1 
1 
1 
1 
1 
1 
1 
1 
1 
1 
1 
1 
1 
1 
1 
1 
1 
1 
1 
1 
1 
1 
1 
1 
1 
1 
1 
1 
1 
1 
1 
1 
1 
1 
1 
1 
1 
1 
1 
1 
1 
1 
1 
1 
1 
1 
1 
1 
1 
1 
1 
1 
1 
1 
1 
1 
1 
1 
1 
1 
1 
1 
1 
1 
1 
1 
1 
1 
1 
1 
1 
1 
1 
1 
1 
1 
1 
1 
1 
1 
1 
1 
1 
1 
1 
1 
1 
1 
1 
1 
1 
1 
1 
1 
1 
1 
1 
1 
1 
1 
1 
1 
1 
1 
1 
1 
1 
1 
1 
1 
1 
1 
1 
1 
1 
1 
1 
1 
1 
1 
1 
1 
1 
1 
1 
1 
1 
1 
1 
1 
1 
1 
1 
1 
1 
1 
1 
1 
1 
1 
1 
1 
1 
1 
1 
1 
1 
1 
1 
1 
1 
1 
1 
1 
1 
1 
1 
1 
1 
1 
1 
1 
1 
1 
1 
1 
1 
1 
1 
1 
1 
1 
1 
1 
1 
1 
1 
1 
1 
1 
1 
1 
1 
1 
1 
1 
1 
1 
1 
1 
1 
1 
1 
1 
1 
1 
1 
1 
1 
1 
1 
1 
1 
1 
1 
1 
1 
1 
1 
1 
1 
1 
1 
1 
1 
1 
1 
1 
1 
1 
1 
1 
1 
1 
1 
1 
1 
1 
1 
1 
1 
1 
1 
1 
1 
1 
1 
1 
1 
1 
1 
1 
1 
1 
1 
1 
1 
1 
1 
1 
1 
1 
1 
1 
1 
1 
1 
1 
1 
1 
1 
1 
1 
1 
1 
1 
1 
1 
1 
1 
1 
1 
1 
1 
1 
1 
1 
1 
1 
1 
1 
1 
1 
1 
1 
1 
1 
1 
1 
1 
1 
1 
1 
1 
1 
1 
1 
1 
1 
1 
1 
1 
1 
1 
1 
1 
1 
1 
1 
1 
1 
1 
1 
1 
1 
1 
1 
1 
1 
1 
1 
1 
1 
1 
1 
1 
1 
1 
1 
1 
1 
1 
1 
1 
1 
1 
1 
1 
1 
1 
1 
1 
1 
1 
1 
1 
1 
1 
1 
1 
1 
1 
1 
1 
1 
1 
1 
1 
1 
1 
1 
1 
1 
1 
1 
1 
1 
1 
1 
1 
1 
1 
1 
1 
1 
1 
1 
1 
1 
1 
1 
1 
1 
1 
1 
1 
1 
1 
1 
1 
1 
1 
1 
1 
1 
1 
1 
1 
1 
1 
1 
1 
1 
1 
1 
1 
1 
1 
1 
1 
1 
1 
1 
1 
1 
1 
1 
1 
1 
1 
1 
1 
1 
1 
1 
1 
1 
1 
1 
1 
1 
1 
1 
1 
1 
1 
1 
1 
1 
1 
1 
1 
1 
1 
1 
1 
1 
1 
1 
1 
1 
1 
1 
1 
1 
1 
1 
1 
1 
1 
1 
1 
1 
1 
1 
1 
1 
1 
1 
1 
1 
1 
1 
1 
1 
1 
1 
1 
1 
1 
1 
1 
1 
1 
1 
1 
1 
1 
1 
1 
1 
1 
1 
1 
1 
1 
1 
1 
1 
1 
1 
1 
1 
1 
1 
1 
1 
1 
1 
1 
1 
1 
1 
1 
1 
1 
1 
1 
1 
1 
1 
1 
1 
1 
1 
1 
1 
1 
1 
1 
1 
1 
1 
1 
1 
1 
1 
1 
1 
1 
1 
1 
1 
1 
1 
1 
1 
1 
1 
1 
1 
1 
1 
1 
1 
1 
1 
1 
1 
1 
1 
1 
1 
1 
1 
1 
1 
1 
1 
1 
1 
1 
1 
1 
1 
1 
1 
1 
1 
1 
1 
1 
1 
1 
1 
1 
1 
1 
1 
1 
1 
1 
1 
1 
1 
1 
1 
1 
1 
1 
1 
1 
1 
1 
1 
1 
1 
1 
1 
1 
1 
1 
1 
1 
1 
1 
1 
1 
1 
1 
1 
1 
1 
1 
1 
1 
1 
1 
1 
1 
1 
1 
1 
1 
1 
1 
1 
1 
1 
1 
1 
1 
1 
1 
1 
1 
1 
1 
1 
1 
1 
1 
1 
1 
1 
1 
1 
1 
1 
1 
1 
1 
1 
1 
1 
1 
1 
1 
1 
1 
1 
1 
1 
1 
1 
1 
1 
1 
1 
1 
1 
1 
1 
1 
1 
1 
1 
1 
1 
1 
1 
1 
1 
1 
1 
1 
1 
1 
1 
1 
1 
1 
1 
1 
1 
1 
1 
1 
1 
1 
1 
1 
1 
1 
1 
1 
1 
1 
1 
1 
1 
1 
1 
1 
1 
1 
1 
1 
1 
1 
1 
1 
1 
1 
1 
1 
1 
1 
1 
1 
1 
1 
1 
1 
1 
1 
1 
1 
1 
1 
1 
1 
1 
1 
1 
1 
1 
1 
1 
1 
1 
1 
1 
1 
1 
1 
1 
1 
1 
1 
1 
1 
1 
1 
1 
1 
1 
1 
1 
1 
1 
1 
1 
1 
1 
1 
1 
1 
1 
1 
1 
1 
1 
1 
1 
1 
1 
1 
1 
1 
1 
1 
1 
1 
1 
1 
1 
1 
1 
1 
1 
1 
1 
1 
1 
1 
1 
1 
1 
1 
1 
1 
1 
1 
1 
1 
1 
1 
1 
1 
1 
1 
1 
1 
1 
1 
1 
1 
1 
1 
1 
1 
1 
1 
1 
1 
1 
1 
1 
1 
1 
1 
1 
1 
1 
1 
1 
1 
1 
1 
1 
1 
1 
1 
1 
1 
1 
1 
1 
1 
1 
1 
1 
1 
1 
1 
1 
1 
1 
1 
1 
1 
1 
1 
1 
1 
1 
1 
1 
1 
1 
1 
1 
1 
1 
1 
1 
1 
1 
1 
1 
1 
1 
1 
1 
1 
1 
1 
1 
1 
1 
1 
1 
1 
1 
1 
1 
1 
1 
1 
1 
1 
1 
1 
1 
1 
1 
1 
1 
1 
1 
1 
1 
1 
1 
1 
1 
1 
1 
1 
1 
1 
1 
1 
1 
1 
1 
1 
1 
1 
1 
1 
1 
1 
1 
1 
1 
1 
1 
1 
1 
1 
1 
1 
1 
1 
1 
1 
1 
1 
1 
1 
1 
1 
1 
1 
1 
1 
1 
1 
1 
1 
1 
1 
1 
1 
1 
1 
1 
1 
1 
1 
1 
1 
1 
1 
1 
1 
1 
1 
1 
1 
1 
1 
1 
1 
1 
1 
1 
1 
1 
1 
1 
1 
1 
1 
1 
1 
1 
1 
1 
1 
1 
1 
1 
1 
1 
1 
1 
1 
1 
1 
1 
1 
1 
1 
1 
1 
1 
1 
1 
1 
1 
1 
1 
1 
1 
1 
1 
1 
1 
1 
1 
1 
1 
1 
1 
1 
1 
1 
1 
1 
1 
1 
1 
1 
1 
1 
1 
1 
1 
1 
1 
1 
1 
1 
1 
1 
1 
1 
1 
1 
1 
1 
1 
1 
1 
1 
1 
1 
1 
1 
1 
1 
1 
1 
1 
1 
1 
1 
1 
1 
1 
1 
1 
1 
1 
1 
1 
1 
1 
1 
1 
1 
1 
1 
1 
1 
1 
1 
1 
1 
1 
1 
1 
1 
1 
1 
1 
1 
1 
1 
1 
1 
1 
1 
1 
1 
1 
1 
1 
1 
1 
1 
1 
1 
1 
1 
1 
1 
1 
1 
1 
1 
1 
1 
1 
1 
1 
1 
1 
1 
1 
1 
1 
1 
1 
1 
1 
1 
1 
1 
1 
1 
1 
1 
1 
1 
1 
1 
1 
1 
1 
1 
1 
1 
1 
1 
1 
1 
1 
1 
1 
1 
1 
1 
1 
1 
1 
1 
1 
1 
1 
1 
1 
1 
1 
1 
1 
1 
1 
1 
1 
1 
1 
1 
1 
1 
1 
1 
1 
1 
1 
1 
1 
1 
1 
1 
1 
1 
1 
1 
1 
1 
1 
1 
1 
1 
1 
1 
1 
1 
1 
1 
1 
1 
1 
1 
1 
1 
1 
1 
1 
1 
1 
1 
1 
1 
1 
1 
1 
1 
1 
1 
1 
1 
1 
1 
1 
1 
1 
1 
1 
1 
1 
1 
1 
1 
1 
1 
1 
1 
1 
1 
1 
1 
1 
1 
1 
1 
1 
1 
1 
1 
1 
1 
1 
1 
1 
1 
1 
1 
1 
1 
1 
1 
1 
1 
1 
1 
1 
1 
1 
1 
1 
1 
1 
1 
1 
1 
1 
1 
1 
1 
1 
1 
1 
1 
1 
1 
1 
1 
1 
1 
1 
1 
1 
1 
1 
1 
1 
1 
1 
1 
1 
1 
1 
1 
1 
1 
1 
1 
1 
1 
1 
1 
1 
1 
1 
1 
1 
1 
1 
1 
1 
1 
1 
1 
1 
1 
1 
1 
1 
1 
1 
1 
1 
1 
1 
1 
1 
1 
1 
1 
1 
1 
1 
1 
1 
1 
1 
1 
1 
1 
1 
1 
1 
1 
1 
1 
1 
1 
1 
1 
1 
1 
1 
1 
1 
1 
1 
1 
1 
1 
1 
1 
1 
1 
1 
1 
1 
1 
1 
1 
1 
1 
1 
1 
1 
1 
1 
1 
1 
1 
1 
1 
1 
1 
1 
1 
1 
1 
1 
1 
1 
1 
1 
1 
1 
1 
1 
1 
1 
1 
1 
1 
1 
1 
1 
1 
1 
1 
1 
1 
1 
1 
1 
1 
1 
1 
1 
1 
1 
1 
1 
1 
1 
1 
1 
1 
1 
1 
1 
1 
1 
1 
1 
1 
1 
1 
1 
1 
1 
1 
1 
1 
1 
1 
1 
1 
1 
1 
1 
1 
1 
1 
1 
1 
1 
1 
1 
1 
1 
1 
1 
1 
1 
1 
1 
1 
1 
1 
1 
1 
1 
1 
1 
1 
1 
1 
1 
1 
1 
1 
1 
1 
1 
1 
1 
1 
1 
1 
1 
1 
1 
1 
1 
1 
1 
1 
1 
1 
1 
1 
1 
1 
1 
1 
1 
1 
1 
1 
1 
1 
1 
1 
1 
1 
1 
1 
1 
1 
1 
1 
1 
1 
1 
1 
1 
1 
1 
1 
1 
1 
1 
1 
1 
1 
1 
1 
1 
1 
1 
1 
1 
1 
1 
1 
1 
1 
1 
1 
1 
1 
1 
1 
1 
1 
1 
1 
1 
1 
1 
1 
1 
1 
1 
1 
1 
1 
1 
1 
1 
1 
1 
1 
1 
1 
1 
1 
1 
1 
1 
1 
1 
1 
1 
1 
1 
1 
1 
1 
1 
1 
1 
1 
1 
1 
1 
1 
1 
1 
1 
1 
1 
1 
1 
1 
1 
1 
1 
1 
1 
1 
1 
1 
1 
1 
1 
1 
1 
1 
1 
1 
1 
1 
1 
1 
1 
1 
1 
1 
1 
1 
1 
1 
1 
1 
1 
1 
1 
1 
1 
1 
1 
1 
1 
1 
1 
1 
1 
1 
1 
1 
1 
1 
1 
1 
1 
1 
1 
1 
1 
1 
1 
1 
1 
1 
1 
1 
1 
1 
1 
1 
1 
1 
1 
1 
1 
1 
1 
1 
1 
1 
1 
1 
1 
1 
1 
1 
1 
1 
1 
1 
1 
1 
1 
1 
1 
1 
1 
1 
1 
1 
1 
1 
1 
1 
1 
1 
1 
1 
1 
1 
1 
1 
1 
1 
1 
1 
1 
1 
1 
1 
1 
1 
1 
1 
1 
1 
1 
1 
1 
1 
1 
1 
1 
1 
1 
1 
1 
1 
1 
1 
1 
1 
1 
1 
1 
1 
1 
1 
1 
1 
1 
1 
1 
1 
1 
1 
1 
1 
1 
1 
1 
1 
1 
1 
1 
1 
1 
1 
1 
1 
1 
1 
1 
1 
1 
1 
1 
1 
1 
1 
1 
1 
1 
1 
1 
1 
1 
1 
1 
1 
1 
1 
1 
1 
1 
1 
1 
1 
1 
1 
1 
1 
1 
1 
1 
1 
1 
1 
1 
1 
1 
1 
1 
1 
1 
1 
1 
1 
1 
1 
1 
1 
1 
1 
1 
1 
1 
1 
1 
1 
1 
1 
1 
1 
1 
1 
1 
1 
1 
1 
1 
1 
1 
1 
1 
1 
1 
1 
1 
1 
1 
1 
1 
1 
1 
1 
1 
1 
1 
1 
1 
1 
1 
1 
1 
1 
1 
1 
1 
1 
1 
1 
1 
1 
1 
1 
1 
1 
1 
1 
1 
1 
1 
1 
1 
1 
1 
1 
1 
1 
1 
1 
1 
1 
1 
1 
1 
1 
1 
1 
1 
1 
1 
1 
1 
1 
1 
1 
1 
1 
1 
1 
1 
1 
1 
1 
1 
1 
1 
1 
1 
1 
1 
1 
1 
1 
1 
1 
1 
1 
1 
1 
1 
1 
1 
1 
1 
1 
1 
1 
1 
1 
1 
1 
1 
1 
1 
1 
1 
1 
1 
1 
1 
1 
1 
1 
1 
1 
1 
1 
1 
1 
1 
1 
1 
1 
1 
1 
1 
1 
1 
1 
1 
1 
1 
1 
1 
1 
1 
1 
1 
1 
1 
1 
1 
1 
1 
1 
1 
1 
1 
1 
1 
1 
1 
1 
1 
1 
1 
1 
1 
1 
1 
1 
1 
1 
1 
1 
1 
1 
1 
1 
1 
1 
1 
1 
1 
1 
1 
1 
1 
1 
1 
1 
1 
1 
1 
1 
1 
1 
1 
1 
1 
1 
1 
1 
1 
1 
1 
1 
1 
1 
1 
1 
1 
1 
1 
1 
1 
1 
1 
1 
1 
1 
1 
1 
1 
1 
1 
1 
1 
1 
1 
1 
1 
1 
1 
1 
1 
1 
1 
1 
1 
1 
1 
1 
1 
1 
1 
1 
1 
1 
1 
1 
1 
1 
1 
1 
1 
1 
1 
1 
1 
1 
1 
1 
1 
1 
1 
1 
1 
1 
1 
1 
1 
1 
1 
1 
1 
1 
1 
1 
1 
1 
1 
1 
1 
1 
1 
1 
1 
1 
1 
1 
1 
1 
1 
1 
1 
1 
1 
1 
1 
1 
1 
1 
1 
1 
1 
1 
1 
1 
1 
1 
1 
1 
1 
1 
1 
1 
1 
1 
1 
1 
1 
1 
1 
1 
1 
1 
1 
1 
1 
1 
1 
1 
1 
1 
1 
1 
1 
1 
1 
1 
1 
1 
1 
1 
1 
1 
1 
1 
1 
1 
1 
1 
1 
1 
1 
1 
1 
1 
1 
1 
1 
1 
1 
1 
1 
1 
1 
1 
1 
1 
1 
1 
1 
1 
1 
1 
1 
1 
1 
1 
1 
1 
1 
1 
1 
1 
1 
1 
1 
1 
1 
1 
1 
1 
1 
1 
1 
1 
1 
1 
1 
1 
1 
1 
1 
1 
1 
1 
1 
1 
1 
1 
1 
1 
1 
1 
1 
1 
1 
1 
1 
1 
1 
1 
1 
1 
1 
1 
1 
1 
1 
1 
1 
1 
1 
1 
1 
1 
1 
1 
1 
1 
1 
1 
1 
1 
1 
1 
1 
1 
1 
1 
1 
1 
1 
1 
1 
1 
1 
1 
1 
1 
1 
1 
1 
1 
1 
1 
1 
1 
1 
1 
1 
1 
1 
1 
1 
1 
1 
1 
1 
1 
1 
1 
1 
1 
1 
1 
1 
1 
1 
1 
1 
1 
1 
1 
1 
1 
1 
1 
1 
1 
1 
1 
1 
1 
1 
1 
1 
1 
1 
1 
1 
1 
1 
1 
1 
1 
1 
1 
1 
1 
1 
1 
1 
1 
1 
1 
1 
1 
1 
1 
1 
1 
1 
1 
1 
1 
1 
1 
1 
1 
1 
1 
1 
1 
1 
1 
1 
1 
1 
1 
1 
1 
1 
1 
1 
1 
1 
1 
1 
1 
1 
1 
1 
1 
1 
1 
1 
1 
1 
1 
1 
1 
1 
1 
1 
1 
1 
1 
1 
1 
1 
1 
1 
1 
1 
1 
1 
1 
1 
1 
1 
1 
1 
1 
1 
1 
1 
1 
1 
1 
1 
1 
1 
1 
1 
1 
1 
1 
1 
1 
1 
1 
1 
1 
1 
1 
1 
1 
1 
1 
1 
1 
1 
1 
1 
1 
1 
1 
1 
1 
1 
1 
1 
1 
1 
1 
1 
1 
1 
1 
1 
1 
1 
1 
1 
1 
1 
1 
1 
1 
1 
1 
1 
1 
1 
1 
1 
1 
1 
1 
1 
1 
1 
1 
1 
1 
1 
1 
1 
1 
1 
1 
1 
1 
1 
1 
1 
1 
1 
1 
1 
1 
1 
1 
1 
1 
1 
1 
1 
1 
1 
1 
1 
1 
1 
1 
1 
1 
1 
1 
1 
1 
1 
1 
1 
1 
1 
1 
1 
1 
1 
1 
1 
1 
1 
1 
1 
1 
1 
1 
1 
1 
1 
1 
1 
1 
1 
1 
1 
1 
1 
1 
1 
1 
1 
1 
1 
1 
1 
1 
1 
1 
1 
1 
1 
1 
1 
1 
1 
1 
1 
1 
1 
1 
1 
1 
1 
1 
1 
1 
1 
1 
1 
1 
1 
1 
1 
1 
1 
1 
1 
1 
1 
1 
1 
1 
1 
1 
1 
1 
1 
1 
1 
1 
1 
1 
1 
1 
1 
1 
1 
1 
1 
1 
1 
1 
1 
1 
1 
1 
1 
1 
1 
1 
1 
1 
1 
1 
1 
1 
1 
1 
1 
1 
1 
1 
1 
1 
1 
1 
1 
1 
1 
1 
1 
1 
1 
1 
1 
1 
1 
1 
1 
1 
1 
1 
1 
1 
1 
1 
1 
1 
1 
1 
1 
1 
1 
1 
1 
1 
1 
1 
1 
1 
1 
1 
1 
1 
1 
1 
1 
1 
1 
1 
1 
1 
1 
1 
1 
1 
1 
1 
1 
1 
1 
1 
1 
1 
1 
1 
1 
1 
1 
1 
1 
1 
1 
1 
1 
1 
1 
1 
1 
1 
1 
1 
1 
1 
1 
1 
1 
1 
1 
1 
1 
1 
1 
1 
1 
1 
1 
1 
1 
1 
1 
1 
1 
1 
1 
1 
1 
1 
1 
1 
1 
1 
1 
1 
1 
1 
1 
1 
1 
1 
1 
1 
1 
1 
1 
1 
1 
1 
1 
1 
1 
1 
1 
1 
1 
1 
1 
1 
1 
1 
1 
1 
1 
1 
1 
1 
1 
1 
1 
1 
1 
1 
1 
1 
1 
1 
1 
1 
1 
1 
1 
1 
1 
1 
1 
1 
1 
1 
1 
1 
1 
1 
1 
1 
1 
1 
1 
1 
1 
1 
1 
1 
1 
1 
1 
1 
1 
1 
1 
1 
1 
1 
1 
1 
1 
1 
1 
1 
1 
1 
1 
1 
1 
1 
1 
1 
1 
1 
1 
1 
1 
1 
1 
1 
1 
1 
1 
1 
1 
1 
1 
1 
1 
1 
1 
1 
1 
1 
1 
1 
1 
1 
1 
1 
1 
POINT_DATA 5000
VECTORS Stress float
-1583.67 -2450.97 0.
-4126.13 -6048.53 0.
-244.002 -343.378 0.
-0.000564038 -1.48079 0.
-3556.72 -6393.67 0.
-1350.52 -2589.5 0.
-3460.73 -5163.79 0.
-182.447 -307.34 0.
-145.198 -299.56 0.
-3968.14 -6559.79 0.
-1228.32 -2228.88 0.
-175.887 -382.099 0.
-2185.4 -3040.32 0.
-1745.26 -2515.74 0.
-1341.02 -2034.61 0.
-1096.89 -1739.03 0.
-852.878 -1443.33 0.
-1012.5 -1650.16 0.
-842.25 -1472.89 0.
-655.566 -1312.05 0.
-821.116 -1495.35 0.
-787.948 -1419.2 0.
-754.201 -1343.63 0.
-812.976 -1443.98 0.
-862.385 -1558.64 0.
-909.345 -1675.76 0.
-1040.42 -1729.55 0.
-988.809 -1644.43 0.
-779.107 -1506.2 0.
-754.257 -1431.88 0.
-721.687 -1365.28 0.
-758.77 -1372.2 0.
-738.372 -1353 0.
-715.763 -1336.02 0.
-727.203 -1370.87 0.
-728.985 -1396.01 0.
-730.715 -1421.2 0.
-802.875 -1451.48 0.
-790.655 -1443.27 0.
-715.59 -1399.92 0.
-688.612 -1350.43 0.
-661.638 -1300.94 0.
-676.044 -1286.94 0.
-690.118 -1319.79 0.
-704.192 -1352.63 0.
-713.446 -1355.85 0.
-701.479 -1327.93 0.
-689.511 -1300 0.
-663.404 -1339.09 0.
-700.75 -1426.23 0.
-738.093 -1513.37 0.
-765.934 -1463.04 0.
-733.251 -1386.77 0.
-692.33 -1322.62 0.
-696.63 -1332.67 0.
-700.93 -1342.72 0.
-695.407 -1335.76 0.
-684.628 -1310.6 0.
-673.85 -1285.44 0.
-668.058 -1314.6 0.
-701.536 -1382.1 0.
-737.595 -1447.03 0.
-828.204 -1507.95 0.
-847.28 -1536.57 0.
-766.493 -1509.67 0.
-762.945 -1473.29 0.
-758.812 -1437.5 0.
-733.83 -1387.48 0.
-734.679 -1359.9 0.
-734.128 -1333.73 0.
-711.295 -1343.66 0.
-783.602 -1476.54 0.
-853.218 -1612.11 0.
-1044.08 -1721.37 0.
-1067.13 -1756.23 0.
-896.605 -1647.5 0.
-822.796 -1512.7 0.
-789.791 -1431.14 0.
-704.105 -1370.83 0.
-750.591 -1468.09 0.
-821.093 -1541.33 0.
-710.239 -1374.09 0.
-957.265 -1637.64 0.
-1189.28 -1916.19 0.
-1099.36 -1582.83 0.
-1255.45 -1632.83 0.
-1401.71 -1692.68 0.
-1633.36 -2697.84 0.
-2742.15 -4490.3 0.
-49.968 -26.1259 0.
-831.527 -1424.54 0.
-4559.38 -7037.1 0.
-744.901 -1119.32 0.
-607.265 -726.678 0.
-2671.22 -3144.5 0.
-24.2455 -66.1369 0.
-4201.58 -7351.99 0.
-157.679 -375.842 0.
-4054.81 -6562.8 0.
-1475.56 -2496.23 0.
-2834.88 -4873.51 0.
-0.0468719 -1.4569 0.
3.58249 5.26314 0.
1.91089 4.68519 0.
-527.316 -1299.65 0.
-19.7496 -54.3315 0.
-147.114 -268.432 0.
-114.813 -200.35 0.
-179.641 -309.719 0.
-114.551 -245.922 0.
-110.656 -181.413 0.
-174.868 -288.374 0.
-814.195 -945.243 0.
-528.54 -518.648 0.
-352.717 -527.577 0.
-173.43 -173.523 0.
-60.2174 -33.4711 0.
-380.823 -762.059 0.
-272.1 -544.475 0.
-209.1 -298.459 0.
-560.46 -1197.01 0.
-514.307 -1138.23 0.
-470.535 -1078.03 0.
-643.952 -1183.67 0.
-678.357 -1313.37 0.
-709.443 -1446.38 0.
-975.38 -1610.38 0.
-925.32 -1523.68 0.
-592.281 -1241.78 0.
-547.219 -1168.59 0.
-514.055 -1097.5 0.
-607.386 -1193.89 0.
-580.111 -1181.57 0.
-579.155 -1142.92 0.
-614.457 -1253.11 0.
-616.507 -1277.99 0.
-618.219 -1303.2 0.
-821.844 -1405.39 0.
-811.873 -1394.93 0.
-640.404 -1307.78 0.
-608.039 -1263.68 0.
-579.208 -1216.04 0.
-641.812 -1211.46 0.
-645.145 -1255.05 0.
-649.394 -1297.73 0.
-680.21 -1310.19 0.
-668.242 -1282.25 0.
-656.273 -1254.32 0.
-519.556 -1237.34 0.
-550.831 -1330.56 0.
-588.171 -1417.69 0.
-744.121 -1422.25 0.
-711.444 -1345.98 0.
-640.07 -1268.8 0.
-644.359 -1278.85 0.
-648.648 -1288.9 0.
-632.487 -1277.35 0.
-629.346 -1244.55 0.
-628.854 -1209.11 0.
-604.777 -1232.3 0.
-645.651 -1292.41 0.
-687.298 -1351.75 0.
-844.743 -1463.67 0.
-860.341 -1495.77 0.
-653.901 -1352.01 0.
-630.679 -1335.3 0.
-628.22 -1297.83 0.
-567.103 -1187.31 0.
-574.858 -1152.82 0.
-583.799 -1117.16 0.
-531.255 -1042.08 0.
-577.049 -1201.52 0.
-650.127 -1333.68 0.
-959.638 -1572.9 0.
-983.504 -1606.96 0.
-758.866 -1492.22 0.
-668.146 -1287.37 0.
-656.455 -1179.55 0.
-335.201 -815.601 0.
-397.258 -913.261 0.
-468.323 -1006.15 0.
-40.7191 -39.3572 0.
-154.788 -290.611 0.
-298.323 -614.386 0.
-238.034 -328.523 0.
-132.233 -187.032 0.
-156.591 -254.352 0.
-110.356 -60.1213 0.
-374.877 -638.918 0.
-0.483974 -0.000135926 0.
-124.056 -122.085 0.
-256.365 -374.343 0.
-532.659 -403.271 0.
-325.732 -230.331 0.
-141.999 -134.223 0.
-4.24041e-05 -2.74171 0.
-136.491 -359.159 0.
-0.0373887 -1.40339 0.
-89.9284 -185.917 0.
4.02808 6.99193 0.
17.8795 41.9579 0.
-0.751359 -13.1989 0.
-2.57306 -6.47032 0.
-0.688435 -6.79914 0.
-123.888 -257.867 0.
-3.42476 -8.01343 0.
-135.573 -204.768 0.
-139.565 -213.428 0.
-219.915 -317.807 0.
-86.3673 -182.652 0.
-70.7227 -144.147 0.
-197.543 -241.883 0.
-246.179 -301.903 0.
-188.939 -184.891 0.
-634.828 -1108.19 0.
-146.721 -65.3202 0.
-100.564 -47.8194 0.
-914.295 -1954.68 0.
-795.737 -1749.68 0.
-733.815 -1666.64 0.
-1366.88 -2675.75 0.
-1028.74 -1964.51 0.
-733.405 -1354.45 0.
-731.186 -1110.25 0.
-745.945 -1210.01 0.
-1493.19 -2917.75 0.
-1239.86 -2134.5 0.
-1228.96 -2116.58 0.
-825.785 -1556.36 0.
-655.474 -1209.7 0.
-583.795 -1087.06 0.
-745.74 -1339.13 0.
-649.598 -1120.33 0.
-632.869 -1094.79 0.
-661.823 -1201.44 0.
-609.465 -1084.44 0.
-679.262 -1257.79 0.
-897.174 -1461.6 0.
-941.49 -1576.65 0.
-705.903 -1163.47 0.
-598.981 -942.752 0.
-575.21 -902.98 0.
-621.514 -1090.8 0.
-651.956 -1207.72 0.
-599.641 -1150.05 0.
-665.628 -1147.58 0.
-680.138 -1212.03 0.
-701.728 -1288.72 0.
-470.259 -1162.45 0.
-433.978 -1080.94 0.
-2331.66 -2253.85 0.
-616.516 -1135.37 0.
-650.865 -1215.59 0.
-664.736 -1253.93 0.
-632.581 -1152.98 0.
-604.161 -1093.15 0.
-623.37 -1145.75 0.
-595.725 -1074.54 0.
-610.393 -1064.35 0.
-608.802 -946.676 0.
-661.698 -1073.41 0.
-693.748 -1115.06 0.
-964.103 -1581.5 0.
-964.584 -1572 0.
-634.696 -1065.68 0.
-657.865 -1211.52 0.
-670.655 -1223.42 0.
-627.796 -1164.76 0.
-616.512 -1135.38 0.
-689.336 -1263.05 0.
-541.006 -953.692 0.
-672.305 -1266.85 0.
-763.966 -1402.96 0.
-1371.02 -2335.95 0.
-1461.95 -2543.99 0.
-1579.47 -3050.23 0.
-812.955 -1262.28 0.
-822.444 -1185.78 0.
-623.899 -1448.92 0.
-1088.53 -2375.91 0.
-2078.24 -4586.62 0.
-338.545 -735.146 0.
-645.371 -1557.35 0.
-739.898 -1682.19 0.
-299.356 -373.879 0.
-157.123 -204.671 0.
-317.108 -435.855 0.
-143 -52.3948 0.
-141.909 -56.231 0.
-20.2473 -7.31521 0.
-115.574 -73.458 0.
-212.49 -273.733 0.
-580.37 -395.134 0.
-338.379 -251.852 0.
-217.849 -167.13 0.
-9.00774e-05 -4.30926 0.
-1.40226 -3.566 0.
4.13267 10.7804 0.
-0.0216543 -0.233407 0.
-2614.23 -4420.43 0.
-3053.07 -6715.34 0.
-1.35378 -16.0929 0.
-1.63219 -3.89854 0.
-3879.22 -6854.8 0.
-402.093 -732.409 0.
-3525.01 -6568.34 0.
-1.461 -4.67898 0.
-3814.59 -5909.45 0.
0.404357 0.909347 0.
-3260.76 -5629.99 0.
-177.431 -438.787 0.
-4.3951 -7.78817 0.
-4004.48 -8961.2 0.
-37.9665 -39.6206 0.
-1991.91 -3152.28 0.
-1440.69 -2475.72 0.
-983.492 -1734 0.
-1978.84 -4418.73 0.
-743.434 -1656.93 0.
-61.9683 -24.1948 0.
-674.644 -1564.67 0.
-397.67 -927.012 0.
-202.198 -303.419 0.
-552.338 -723.329 0.
-431.104 -532.611 0.
-316.665 -353.147 0.
-625.578 -810.943 0.
-658.339 -918.117 0.
-376.41 -546.705 0.
-391.364 -607.565 0.
-416.873 -693.33 0.
-477.978 -785.61 0.
-427.861 -715.859 0.
-379.647 -636.883 0.
-381.958 -632.629 0.
-362.744 -587.732 0.
-358.064 -531.515 0.
-553.177 -837.713 0.
-548.235 -846.364 0.
-428.897 -594.857 0.
-417.32 -570.694 0.
-406.6 -549.57 0.
-444.585 -735.392 0.
-424.132 -686.134 0.
-396.694 -645.92 0.
-442.086 -668.5 0.
-434.519 -666.45 0.
-436.696 -656.326 0.
-180.81 -416.652 0.
-155.876 -340.528 0.
-1849.94 -1182.6 0.
-234.793 -495.96 0.
-259.2 -568.692 0.
-366.037 -689.965 0.
-383.508 -680.654 0.
-400.052 -672.81 0.
-401.317 -612.572 0.
-443.149 -653.044 0.
-468.812 -709.653 0.
-395.892 -584.047 0.
-391.905 -570.297 0.
-388.477 -557.823 0.
-491.053 -787.759 0.
-511.844 -796.21 0.
-335.67 -513.554 0.
-344.901 -571.535 0.
-384.878 -673.257 0.
-378.365 -648.738 0.
-400.188 -663.463 0.
-433.138 -668.68 0.
-415.702 -600.016 0.
-365.556 -478.183 0.
-334.743 -408.059 0.
-643.883 -769.503 0.
-648.929 -716.884 0.
-282.551 -226.622 0.
-432.557 -485.161 0.
-597.823 -772.398 0.
-69.7529 -25.1894 0.
-355.212 -738.568 0.
-796.761 -1922.95 0.
-72.8289 -133.887 0.
-838.194 -2060.53 0.
-2385.77 -5415.62 0.
-407.604 -879.553 0.
-1232.04 -2300.93 0.
-2170.4 -3648.89 0.
-280.02 -226.686 0.
-4376.8 -7978.79 0.
-31.0674 -39.7484 0.
-60.1612 -101.441 0.
-4217.34 -6946.33 0.
-2.67276 -7.25794 0.
-3465.58 -5580.8 0.
3.33776 7.44564 0.
-4140.92 -8022.52 0.
-1.40844 -13.9449 0.
-3640.04 -7012.62 0.
17.5716 36.5081 0.
14.3996 28.4124 0.
-17.1496 -86.4366 0.
-0.895058 -65.7178 0.
-3.15057 -7.18276 0.
-1008.95 -1896.52 0.
-1.844 -3.79187 0.
-63.1457 -124.475 0.
-1.06091 -12.7361 0.
-2.47363 -5.92053 0.
-0.673635 -6.64556 0.
-371.633 -948.637 0.
-102.131 -184.23 0.
-33.9019 -41.9648 0.
-196.352 -205.503 0.
-50.7337 -54.7945 0.
0.26925 0.480566 0.
-198.737 -82.1425 0.
-552.848 -256.316 0.
-435.885 -742.136 0.
-134.77 -48.7257 0.
-101.963 -40.6731 0.
-366.709 -780.998 0.
-147.958 -112.555 0.
-70.0757 -79.9156 0.
-511.886 -626.206 0.
-392.82 -430.464 0.
-286.939 -237.713 0.
-720.839 -850.658 0.
-757.231 -953.403 0.
-356.04 -515.433 0.
-402.233 -577.839 0.
-426.213 -663.137 0.
-451.022 -680.855 0.
-399.72 -608.356 0.
-345.605 -539.667 0.
-355.592 -571.098 0.
-350.781 -511.62 0.
-351.186 -448.224 0.
-594.332 -844.948 0.
-601.98 -855.83 0.
-442.035 -595.744 0.
-431.619 -570.632 0.
-423.627 -547.933 0.
-494.613 -695.846 0.
-476.187 -663.597 0.
-443.497 -659.72 0.
-448.773 -641.718 0.
-451.273 -631.587 0.
-453.129 -621.505 0.
-174.41 -416.774 0.
-151.335 -341.956 0.
-2144.82 -1303.18 0.
-191.896 -417.878 0.
-218.34 -489.015 0.
-430.4 -660.705 0.
-435.013 -663.618 0.
-450.474 -656.275 0.
-421.055 -617.631 0.
-447.475 -646.286 0.
-480.644 -694.459 0.
-395.494 -580.325 0.
-400.874 -556.513 0.
-387.141 -553.83 0.
-549.875 -810.487 0.
-555.797 -820.875 0.
-329.621 -475.68 0.
-338.236 -534.044 0.
-375.072 -641.298 0.
-370.832 -516.729 0.
-415.489 -506.534 0.
-452.166 -503.043 0.
-439.552 -616.027 0.
-390.885 -497.412 0.
-345.589 -377.769 0.
-682.51 -768.716 0.
-700.335 -708.302 0.
-120.786 -81.2968 0.
-284.488 -326.379 0.
-447.287 -606.817 0.
-66.3776 -25.3999 0.
-107.823 -38.9695 0.
-312.631 -540.749 0.
-22.9318 -17.6864 0.
-78.1323 -120.702 0.
-258.231 -641.381 0.
-66.5714 -38.6126 0.
-109.513 -52.513 0.
-193.914 -237.592 0.
-142.786 -66.356 0.
-159.437 -100.971 0.
-0.0452029 -0.070667 0.
-75.6501 -138.913 0.
-227.022 -436.129 0.
2.65454 7.04917 0.
-0.864397 -7.26139 0.
-0.365169 -4.89255 0.
-410.017 -831.119 0.
15.6287 34.8002 0.
31.1342 71.5564 0.
-8.15164 -40.7993 0.
-2798.55 -5153.29 0.
-24.5741 -71.4669 0.
13.2822 33.0053 0.
-2776.17 -5935.14 0.
-0.421636 -16.2489 0.
-14.1888 -31.2506 0.
-1.85357 -15.9005 0.
-0.256768 -6.86201 0.
-3722.83 -7420.63 0.
-333.284 -791.985 0.
-3666.85 -6628.07 0.
-93.2939 -192.059 0.
-102.946 -214.398 0.
-3684.3 -8957.24 0.
-408.735 -949.64 0.
-0.191959 -0.346958 0.
-3170.3 -5848.03 0.
-407.474 -745.124 0.
-2662.9 -5147.35 0.
-900.148 -1488.39 0.
-141.275 -73.4959 0.
-2355.63 -4753.86 0.
-1225.53 -2626.38 0.
-233.544 -361.193 0.
-1287.14 -2407.14 0.
-890.034 -1685.37 0.
-554.852 -1056.95 0.
-1106.83 -1817.41 0.
-1007.74 -1717.41 0.
-721.386 -1280.87 0.
-691.87 -1215.49 0.
-663.501 -1150.79 0.
-654.146 -1158.61 0.
-651.531 -1194.59 0.
-655.341 -1224.15 0.
-744.555 -1361.22 0.
-701.737 -1293 0.
-661.925 -1221.77 0.
-1088.68 -1713.74 0.
-1006.09 -1591.66 0.
-691.517 -1140.73 0.
-681.718 -1116.51 0.
-673.195 -1090.6 0.
-740.08 -1247.92 0.
-723.535 -1222.97 0.
-710.894 -1205.43 0.
-713.722 -1214.71 0.
-700.216 -1184.81 0.
-687.864 -1153.76 0.
-442.86 -1107.38 0.
-437.8 -1102.48 0.
-2593.34 -2159.25 0.
-485.321 -1180.29 0.
-482.039 -1165.96 0.
-681.282 -1205.04 0.
-692.758 -1239.52 0.
-704.747 -1273.48 0.
-596.301 -1117.07 0.
-661.859 -1185 0.
-702.709 -1296.49 0.
-721.598 -1177.44 0.
-724.836 -1184.48 0.
-730.086 -1189.51 0.
-981.089 -1593.81 0.
-1040.83 -1692.55 0.
-647.352 -1212.42 0.
-679.307 -1290.61 0.
-720.149 -1368.03 0.
-718.762 -1106.22 0.
-711.26 -1123.1 0.
-705.402 -1138.34 0.
-673.399 -1278.95 0.
-714.631 -1327.8 0.
-759.921 -1374.71 0.
-955.091 -1657.01 0.
-1111.41 -1825.83 0.
-473.402 -894.854 0.
-948.618 -1889.46 0.
-1527.68 -2983.82 0.
-66.6145 -39.0851 0.
-1162.66 -2758.83 0.
-2730.65 -6040.08 0.
-214.362 -434.668 0.
-573.205 -1113.88 0.
-2398.02 -4557.04 0.
-141.081 -101.872 0.
-3718.54 -8169.42 0.
-206.185 -129.983 0.
-191.802 -100.578 0.
-2729.07 -4879.74 0.
1.14574 2.9035 0.
-3495.35 -6351.43 0.
-0.541813 -5.87242 0.
-3215.14 -7003.79 0.
-0.0575813 -25.9261 0.
-0.16855 -2.60204 0.
20.0082 50.4354 0.
13.35 29.4292 0.
-8.50712 -19.5336 0.
35.3326 90.9809 0.
-18.379 -114.953 0.
-768.77 -1090.3 0.
58.0565 130.455 0.
9.30492 24.3786 0.
15.0516 38.262 0.
-13.7233 -31.4772 0.
-310.977 -767.702 0.
-2848.59 -7412.77 0.
-0.00106052 -20.9592 0.
-0.889179 -2.38088 0.
0.00756893 8.35511 0.
-13.5425 -19.3319 0.
-73.3661 -145.352 0.
-129.561 -334.047 0.
-0.188981 -1.56575 0.
-1.13294 -2.37583 0.
-303.175 -664.684 0.
-34.5502 -20.4793 0.
-63.754 -32.6356 0.
-46.4464 -20.7145 0.
-101.639 -56.3571 0.
-439.933 -876.781 0.
-67.0699 -35.1904 0.
-41.4764 -24.676 0.
-579.701 -1252.25 0.
-278.816 -499.919 0.
-61.2258 -52.6444 0.
-760.904 -1436.85 0.
-681.134 -1391.1 0.
-645.16 -1158.7 0.
-606.66 -1122.21 0.
-588.911 -1086.16 0.
-634.673 -1032.03 0.
-637.009 -1067.09 0.
-639.657 -1116.77 0.
-672.733 -1173.88 0.
-634.673 -1112.95 0.
-595.922 -1053.03 0.
-934.793 -1503.91 0.
-860.362 -1398.65 0.
-626.5 -1050.12 0.
-614.402 -1028.3 0.
-602.618 -1006.66 0.
-647.316 -1075.65 0.
-642.857 -1056.36 0.
-617.706 -1080.99 0.
-651.425 -1125.53 0.
-633.648 -1096.62 0.
-618.35 -1069.59 0.
-421.718 -1006.03 0.
-416.249 -1001.06 0.
-1942.71 -1846.46 0.
-492.686 -1086.13 0.
-509.37 -1051.15 0.
-637.382 -1123.84 0.
-622.528 -1119.98 0.
-626.651 -1145.6 0.
-521.892 -995.685 0.
-543.965 -1071.63 0.
-631.026 -1114.3 0.
-612.487 -1090.39 0.
-612.217 -1090.41 0.
-618.419 -1104.21 0.
-780.486 -1416.29 0.
-841.181 -1488.41 0.
-604.609 -1101.92 0.
-617.07 -1129.68 0.
-648.843 -1194 0.
-677.525 -1036.64 0.
-676.039 -1046.33 0.
-680.918 -1056.39 0.
-557.584 -1079.37 0.
-569.558 -1091.24 0.
-597.54 -1136.86 0.
-624.598 -1215.1 0.
-725.779 -1335.62 0.
-87.5026 -62.6858 0.
-264.405 -276.457 0.
-691.514 -1437.04 0.
-41.4993 -29.3257 0.
-69.9172 -55.3173 0.
-253.499 -469.08 0.
-112.09 -117.471 0.
-63.6818 -73.0669 0.
-106.638 -142.72 0.
-54.9443 -67.8299 0.
-278.517 -279.109 0.
-411.698 -414.015 0.
-111.407 -67.4335 0.
-89.7838 -51.1433 0.
0.0105511 1.74053 0.
2.79342 6.57627 0.
6.5652 16.4125 0.
-395.785 -901.678 0.
0.588785 1.51036 0.
-2469.22 -6087.93 0.
-1.97911 -43.7429 0.
-0.946989 -29.6612 0.
-2255.5 -5195.82 0.
-15.1507 -39.664 0.
-332.532 -699.234 0.
-14.247 -60.1366 0.
-21.2914 -49.4925 0.
3.44148 8.96322 0.
6.22249 15.4708 0.
11.8472 30.7634 0.
-185.139 -460.602 0.
-109.853 -288.869 0.
10.5988 29.3551 0.
0.22427 0.620728 0.
5.0622 13.5315 0.
1.68235 2.59644 0.
-41.2545 -77.6429 0.
-0.121237 -2.93766 0.
0.120715 0.81083 0.
-1.25989 -3.248 0.
-55.5533 -25.1871 0.
-72.2786 -36.6589 0.
-63.6459 -37.1305 0.
-44.9654 -22.573 0.
-77.0694 -43.4612 0.
-135.662 -60.106 0.
-52.2298 -32.4577 0.
-22.3956 -16.3382 0.
-299.46 -468.94 0.
-77.7619 -43.3878 0.
-43.3737 -38.7174 0.
-678.056 -1257.35 0.
-446.094 -831.471 0.
-573.754 -827.664 0.
-540.952 -720.679 0.
-332.807 -215.867 0.
-673.94 -850.946 0.
-313.291 -324.65 0.
-118.85 -67.8 0.
-393.275 -518.198 0.
-428.108 -594.17 0.
-467.752 -664.649 0.
-624.413 -853.893 0.
-697.592 -963.811 0.
-436.593 -484.509 0.
-461.742 -565.136 0.
-338.785 -360.264 0.
-340.444 -464.14 0.
-282.969 -351.841 0.
-490.417 -852.993 0.
-443.544 -700.824 0.
-324.697 -411.037 0.
-336.586 -450.515 0.
-158.335 -229.237 0.
-183.287 -292.769 0.
-1799.38 -1407.65 0.
-373.509 -631.998 0.
-371.728 -633.49 0.
-454.144 -638.325 0.
-429.419 -535.427 0.
-522.552 -722.095 0.
-336.844 -383.053 0.
-481.171 -687.968 0.
-487.729 -596.117 0.
-403.314 -613.067 0.
-363.108 -503.856 0.
-412.208 -404.239 0.
-414.755 -693.936 0.
-576.352 -1070.51 0.
-352.28 -346.74 0.
-466.23 -522.473 0.
-235.378 -194.221 0.
-310.638 -367.725 0.
-257.156 -230.077 0.
-180.935 -145.542 0.
-227.215 -170.359 0.
-456.511 -717.154 0.
-433.88 -711.505 0.
-233.259 -271.069 0.
-594.203 -1087.32 0.
-84.7208 -62.8149 0.
-75.5829 -52.334 0.
-124.396 -70.7329 0.
-20.5157 -20.2593 0.
-50.127 -50.433 0.
-131.541 -132.022 0.
-120.714 -110.736 0.
-49.1273 -71.3503 0.
-90.4591 -76.59 0.
-130.604 -100.819 0.
-156.319 -114.205 0.
-835.317 -637.382 0.
-280.177 -216.206 0.
-81.8095 -68.1147 0.
3.66619 10.1416 0.
3.98053 10.0854 0.
5.24889 13.7293 0.
-230.588 -554.099 0.
-0.941453 -34.9322 0.
-0.0390561 -5.76885 0.
-690.696 -1713.83 0.
37.2259 95.6946 0.
-1.80834 -110.556 0.
-42.2402 -113.396 0.
68.2578 183.309 0.
-26.7044 -122.041 0.
-47.3189 -112.85 0.
40.7395 105.622 0.
-0.135627 -33.4403 0.
-3.28705 -8.69262 0.
-321.103 -800.319 0.
-0.569991 -24.7567 0.
-0.00760547 -25.2932 0.
-1.48678 -4.09222 0.
-1.08083 -2.74251 0.
-3488.56 -7285.64 0.
-132.917 -284.96 0.
-2899.06 -7002.64 0.
-71.1604 -196.32 0.
-0.00175204 -1.66986 0.
-3488.23 -8217.47 0.
-1.99139 -3.29174 0.
-3214.57 -5374.54 0.
-417.378 -474.75 0.
-35.3901 -37.4288 0.
-3197.48 -7524.53 0.
-287.099 -642.056 0.
-2.5231 -2.70735 0.
-2093.44 -4869.06 0.
-847.501 -2027.39 0.
-51.0496 -44.4088 0.
-1285.49 -2886.51 0.
-781.677 -1827.75 0.
-844.642 -1694.3 0.
-637.958 -1261.11 0.
-437.687 -828.861 0.
-606.544 -1076.56 0.
-569.51 -1010.59 0.
-529.052 -951.439 0.
-553.482 -871.729 0.
-520.045 -817.203 0.
-479.518 -771.143 0.
-760.794 -1201.37 0.
-749.074 -1187.58 0.
-477.414 -832.566 0.
-473.313 -817.343 0.
-482.797 -838.936 0.
-496.245 -891.389 0.
-463.946 -822.065 0.
-434.676 -760.349 0.
-447.75 -801.114 0.
-474.74 -855.987 0.
-515.73 -922.13 0.
-336.491 -748.827 0.
-323.064 -706.519 0.
-1096.76 -1214.99 0.
-484.758 -839.96 0.
-497.319 -843.943 0.
-515.449 -828.592 0.
-531.823 -858.205 0.
-556.117 -878.351 0.
-513.542 -857.308 0.
-513.142 -846.392 0.
-481.24 -864.41 0.
-499.471 -882.74 0.
-497.854 -896.861 0.
-500.57 -922.075 0.
-700.316 -1235.19 0.
-700.291 -1215 0.
-499.195 -839.678 0.
-547.148 -924.251 0.
-592.686 -1009.52 0.
-567.673 -990.438 0.
-656.26 -1161.86 0.
-743.123 -1332.35 0.
-424.346 -874.446 0.
-707.508 -1491.01 0.
-1005.28 -2095.24 0.
-919.553 -2018.49 0.
-1613.48 -3465.62 0.
-94.941 -74.755 0.
-773.838 -1757.6 0.
-2467.35 -5568.69 0.
-73.5599 -43.6732 0.
-126.027 -189.17 0.
-3334.22 -8264.62 0.
0.562138 0.998637 0.
-126.662 -180.066 0.
-3122.66 -5960.2 0.
-0.014557 -0.0357892 0.
-3511.4 -7246.19 0.
-89.0028 -192.973 0.
-2135.02 -3904.1 0.
-790.632 -2057.11 0.
-465.727 -1149.1 0.
-1895.8 -4343.88 0.
-0.441569 -28.332 0.
7.794 21.3388 0.
-0.468322 -20.9029 0.
-0.189546 -24.952 0.
-1210.55 -3009.35 0.
-2.95215 -88.8275 0.
34.1526 92.0649 0.
-37.3265 -98.7276 0.
-4.19246 -334.508 0.
-2346.28 -4517.68 0.
-501.381 -1219.74 0.
-14.8429 -38.3727 0.
-10.7864 -29.7538 0.
-145.508 -389.621 0.
-781.392 -1950.71 0.
-0.0777002 -55.2839 0.
-628.012 -1577.83 0.
-1725.41 -4067.67 0.
-0.673936 -19.3163 0.
-148.667 -326.289 0.
-0.295115 -9.10826 0.
-0.0533359 -8.4602 0.
-34.4159 -91.0308 0.
0.32068 0.88694 0.
-8.62269 -23.1251 0.
-0.0117954 -0.852167 0.
0.190257 0.172974 0.
-2.76717 -2.86195 0.
-17.4731 -20.6652 0.
-92.5107 -162.249 0.
-2.28105 -3.36446 0.
-0.295786 -0.339399 0.
-510.799 -1129.18 0.
-68.8941 -38.6066 0.
-67.3604 -56.3249 0.
-682.03 -1682.06 0.
-245.908 -558.303 0.
-527.551 -1106.98 0.
-357.792 -639.286 0.
-200.736 -162.736 0.
-509.642 -863.593 0.
-471.159 -801.528 0.
-437.962 -734.743 0.
-529.887 -771.019 0.
-497.456 -716.97 0.
-468.832 -683.36 0.
-769.926 -1201.3 0.
-759.311 -1189.25 0.
-488.621 -714.73 0.
-486.17 -696.983 0.
-489.66 -695.651 0.
-502.452 -867.974 0.
-465.901 -783.271 0.
-429.992 -697.609 0.
-429.311 -766.595 0.
-458.197 -840.111 0.
-492.785 -911.471 0.
-354.792 -751.243 0.
-339.851 -712.336 0.
-932.115 -1020.43 0.
-547.035 -887.897 0.
-570.591 -881.21 0.
-521.07 -713.943 0.
-531.767 -748.666 0.
-541.806 -784.249 0.
-515.192 -778.969 0.
-505.161 -774.471 0.
-498.943 -771.274 0.
-485.997 -765.001 0.
-490.999 -775.034 0.
-511.523 -821.709 0.
-791.486 -1269.23 0.
-791.265 -1248.33 0.
-446.577 -711.326 0.
-492.352 -798.83 0.
-538.16 -892.767 0.
-376.669 -724.808 0.
-454.066 -904.707 0.
-550.322 -1072.19 0.
-110.434 -50.5421 0.
-367.859 -693.481 0.
-629.274 -1336.57 0.
-102.738 -124.169 0.
-753.601 -1618.12 0.
-36.0057 -42.5507 0.
-57.6113 -44.1072 0.
-70.1214 -70.4914 0.
-70.6687 -60.3633 0.
-62.7778 -29.3424 0.
-152.056 -244.475 0.
0.383684 0.314313 0.
0.110985 0.126138 0.
-75.3044 -120.368 0.
-0.0276129 -3.43831 0.
-0.255831 -2.72864 0.
-4.23316 -11.394 0.
-682.558 -1652.49 0.
-34.7754 -89.4035 0.
-110.963 -273.032 0.
-0.247406 -30.7264 0.
-2322.49 -5992.99 0.
-20.0302 -53.3049 0.
-0.586812 -30.272 0.
-0.487984 -55.3415 0.
-0.364132 -44.8606 0.
-623.371 -1679.06 0.
28.2435 76.7731 0.
-8.26785 -21.5591 0.
-3.5324 -320.878 0.
-16.9472 -184.381 0.
-211.904 -573.484 0.
-5.47543 -173.766 0.
-39.551 -109.126 0.
-821.112 -2218.73 0.
-1235.08 -3086.25 0.
15.0391 40.8802 0.
-921.821 -2396.56 0.
16.5762 44.8035 0.
10.0401 25.7819 0.
-0.00580932 -36.9522 0.
-0.0413304 -3.68862 0.
7.31502 19.7527 0.
-12.6883 -32.9209 0.
-277.533 -703.25 0.
-1994.79 -4985.23 0.
-57.4586 -158.628 0.
-2854.94 -5653.58 0.
-13.4428 -18.6236 0.
-0.12766 -0.0564034 0.
-3228.09 -8400.65 0.
-42.4335 -104.348 0.
0.701646 0.108363 0.
-2634.85 -6066.16 0.
-393.592 -727.072 0.
-49.8609 -39.9935 0.
-1719.03 -4111.86 0.
-775.109 -1930.84 0.
-1137.43 -2448.65 0.
-753.5 -1647.29 0.
-410.156 -820.333 0.
-801.916 -1564.8 0.
-639.458 -1247.62 0.
-480.11 -927.566 0.
-696.671 -1044.96 0.
-667.494 -991.48 0.
-639.112 -942.692 0.
-916.08 -1543.08 0.
-903.118 -1523.57 0.
-685.202 -1065.93 0.
-652.221 -996.492 0.
-625.028 -942.199 0.
-661.681 -1044.94 0.
-610.352 -1048.15 0.
-601.664 -1019.03 0.
-706.775 -1118.22 0.
-670.808 -1020.58 0.
-571.858 -987.727 0.
-472.455 -1067.12 0.
-483.749 -1098.15 0.
-1511.67 -1609.31 0.
-674.958 -1100.27 0.
-687.868 -1052.72 0.
-555.369 -893.457 0.
-612.822 -1013.34 0.
-672.788 -1138.32 0.
-619.991 -978.64 0.
-626.584 -996.086 0.
-637.235 -1025.66 0.
-642.332 -982.787 0.
-670.235 -1044.05 0.
-698.198 -1105.45 0.
-953.272 -1621.11 0.
-973.841 -1676.92 0.
-564.621 -934.505 0.
-629.549 -1042.76 0.
-703.619 -1168.66 0.
-434.872 -937.79 0.
-684.197 -1446.45 0.
-945.397 -1948.01 0.
-364.37 -651.243 0.
-837.974 -1716.9 0.
-1356 -2748.65 0.
-727.699 -1518.63 0.
-1965.04 -4513.63 0.
-49.2833 -71.9569 0.
-38.2512 -47.0587 0.
-2806.43 -7125.07 0.
-135.475 -213.889 0.
-122.067 -163.031 0.
-2478.15 -4639.64 0.
0.122872 0.566406 0.
-3716.26 -9092.09 0.
0.196364 6.08626 0.
-0.0544842 -2.0645 0.
-2503.66 -6310.34 0.
0.848133 2.3487 0.
-158.338 -421.992 0.
-3.02054 -7.82085 0.
-49.4546 -122.506 0.
12.4547 34.2786 0.
-25.6838 -68.2141 0.
16.419 43.7811 0.
-1262.16 -3157.51 0.
-0.866789 -86.4986 0.
36.8941 100.859 0.
-230.6 -638.59 0.
-78.1132 -213.638 0.
15.836 40.7282 0.
57.4429 155.764 0.
44.5562 103.899 0.
-108.242 -292.223 0.
-2.8085 -114.156 0.
-138.16 -381.338 0.
-1504.83 -4095.27 0.
14.1923 39.216 0.
-8.48548 -23.2101 0.
-1390.25 -3699.84 0.
-0.0887002 -24.2691 0.
7.38876 19.0557 0.
-0.406759 -35.6633 0.
-2773.35 -6690.33 0.
-0.354917 -18.9174 0.
-2786.53 -6846.36 0.
-11.5424 -27.8374 0.
-71.8592 -197.266 0.
-13.1598 -35.4582 0.
0.258258 0.573142 0.
0.157143 0.352872 0.
1.06642 0.000704181 0.
-109.525 -299.247 0.
-0.808456 -0.0140636 0.
0.00190456 0.000189811 0.
-26.007 -9.99396 0.
-6.75262 -4.69143 0.
-48.5995 -40.9091 0.
-570.696 -1441.71 0.
-0.912012 -1.52726 0.
-556.237 -1197.6 0.
-211.521 -354.102 0.
-51.1728 -35.7058 0.
-515.767 -1116.14 0.
-357.814 -763.314 0.
-223.456 -392.325 0.
-550.788 -911.93 0.
-525.095 -858.364 0.
-500.207 -813.804 0.
-837.756 -1470.76 0.
-826.814 -1453.37 0.
-626.831 -953.401 0.
-603.801 -902.684 0.
-600.24 -909.194 0.
-576.323 -989.027 0.
-568.831 -964.416 0.
-561.75 -940.673 0.
-602.888 -1071.93 0.
-573.803 -980.787 0.
-544.459 -974.297 0.
-422.25 -976.696 0.
-426.783 -996.265 0.
-763.153 -1241.31 0.
-671.439 -1004.87 0.
-661.869 -978.24 0.
-512.267 -911.526 0.
-552.784 -976.843 0.
-617.735 -1072.7 0.
-549.062 -962.492 0.
-557.827 -975.813 0.
-564.091 -992.61 0.
-579.307 -940.702 0.
-593.114 -963.294 0.
-620.215 -1025.32 0.
-870.444 -1544.12 0.
-890.264 -1595.33 0.
-388.859 -686.379 0.
-446.434 -801.737 0.
-506.465 -916.049 0.
-157.531 -171.761 0.
-354.688 -736.23 0.
-572.797 -1277.01 0.
-73.5221 -117.95 0.
-61.9422 -90.81 0.
-540.409 -974.969 0.
-19.2384 -34.1853 0.
-548.828 -1046.54 0.
-33.6033 -34.0983 0.
-16.9759 -13.9173 0.
-32.008 -28.7238 0.
-48.4195 -28.7686 0.
-33.4283 -16.9438 0.
-66.7047 -65.5385 0.
0.0373933 2.92288 0.
-150.691 -335.242 0.
0.0079198 2.00172 0.
2.6128 7.13878 0.
-41.6563 -114.342 0.
2.88791 7.7614 0.
-2344.58 -6293.19 0.
-1.56989 -4.09848 0.
6.39592 15.9366 0.
-0.0104221 -22.4444 0.
-39.6852 -106.978 0.
8.52695 22.7898 0.
-0.0754422 -42.232 0.
21.4197 57.8508 0.
19.1318 52.5443 0.
-18.4638 -51.1344 0.
-1.64967 -165.025 0.
-139.101 -353.69 0.
-14.7653 -329.124 0.
-0.00823711 -64.9783 0.
-19.8791 -53.5361 0.
62.2106 164.934 0.
-257.488 -711.024 0.
-573.166 -1587.28 0.
-13.1381 -36.3694 0.
-13.2041 -36.2801 0.
9.67385 26.7852 0.
-0.0305426 -35.927 0.
-1681.29 -4507.48 0.
2.68045 7.34106 0.
2.52331 6.45964 0.
-0.0262981 -4.07501 0.
1.45139 3.10066 0.
0.611213 1.52451 0.
-24.149 -66.8676 0.
1.72044 4.56698 0.
1.3221 3.02903 0.
-0.00940364 -1.30808 0.
1.12789 0.261157 0.
0.347802 0.00457003 0.
-1.3431 -0.0616709 0.
0.60986 0.286312 0.
0.494768 0.454817 0.
-0.0281985 -0.0452581 0.
-44.9286 -43.3899 0.
-27.4948 -34.9711 0.
-19.1672 -22.7893 0.
-37.6754 -18.2177 0.
-19.7191 -10.6076 0.
-27.4654 -20.5701 0.
-273.146 -490.797 0.
-140.296 -104.599 0.
-62.192 -55.7273 0.
-340.002 -580.099 0.
-283.027 -424.113 0.
-134.1 -86.0918 0.
-354.352 -431.88 0.
-460.021 -732.126 0.
-74.9504 -83.593 0.
-252.469 -375.233 0.
-79.9114 -67.6151 0.
-137.729 -146.339 0.
-161.142 -181.78 0.
-165.644 -173.701 0.
-149.408 -131.992 0.
-131.919 -131.111 0.
-147.855 -156.8 0.
-74.6078 -63.8894 0.
-243.406 -493.979 0.
-479.173 -382.783 0.
-389.09 -357.405 0.
-294.211 -174.783 0.
-137.331 -146.334 0.
-122.211 -109.882 0.
-131.773 -144.162 0.
-162.821 -251.486 0.
-155.45 -235.422 0.
-187.009 -308.273 0.
-155.295 -138.456 0.
-215.933 -244.192 0.
-261.349 -251.133 0.
-398.968 -537.209 0.
-381.61 -460.609 0.
-175.886 -230.542 0.
-274.587 -514.968 0.
-375.54 -780.755 0.
-76.602 -95.5232 0.
-74.713 -95.0811 0.
-315.237 -619.489 0.
-107.464 -132.904 0.
-92.4441 -100.014 0.
-92.6217 -81.4367 0.
-18.9149 -43.4672 0.
-56.2821 -94.1373 0.
-55.1506 -52.5317 0.
0.449769 0.313078 0.
-0.12995 -0.42194 0.
-33.3367 -24.1191 0.
-18.7945 -11.8981 0.
-15.1363 -8.58046 0.
0.635959 2.02605 0.
0.297276 2.70776 0.
0.143961 5.02952 0.
2.77703 7.69188 0.
-24.5483 -67.9884 0.
-0.0339663 -1.65648 0.
-35.5519 -98.4438 0.
-1.24223 -3.28051 0.
-1748.11 -4347.06 0.
-80.4454 -220.815 0.
9.33885 25.8102 0.
8.42104 22.5586 0.
-0.0666045 -88.8632 0.
-1358.2 -3738.52 0.
-0.185539 -88.6728 0.
-3.54628 -9.82156 0.
-0.713405 -171.508 0.
101.565 280.218 0.
-8.09923 -148.344 0.
-0.0505077 -61.271 0.
-74.4934 -200.132 0.
31.4668 86.8544 0.
-262.521 -725.342 0.
-16.4413 -45.5381 0.
3.15493 8.73581 0.
-575.117 -1585.17 0.
15.3799 42.5986 0.
-373.632 -1034.84 0.
-1053.61 -2857.71 0.
12.2385 33.7842 0.
-0.472223 -22.4448 0.
-0.0350339 -21.264 0.
0.921423 2.06375 0.
-1.39388 -3.10618 0.
-2501.76 -6506.17 0.
1.72079 4.70582 0.
0.223567 1.59048 0.
-3345.43 -8023.7 0.
1.91854 0.26201 0.
-2321.3 -5350.97 0.
-11.018 -16.793 0.
-18.507 -50.8259 0.
-2840.1 -7079.56 0.
-73.9437 -32.2993 0.
-1.22036 -0.00324136 0.
-2249.76 -5660.35 0.
-311.226 -694.629 0.
-1656.93 -3527.91 0.
-796.22 -1645.11 0.
-58.0724 -43.8826 0.
-1199 -2874.75 0.
-706.311 -1733.46 0.
-250.684 -551.692 0.
-755.702 -1802.17 0.
-520.42 -1233.61 0.
-309.344 -685.318 0.
-732.525 -1580.73 0.
-677.937 -1461.09 0.
-499.46 -868.28 0.
-491.54 -857.278 0.
-500.594 -879.571 0.
-430.826 -863.378 0.
-420.507 -845.048 0.
-413.27 -827.196 0.
-457.249 -933.495 0.
-443.369 -912.88 0.
-436.814 -890.6 0.
-347.321 -810.118 0.
-346.816 -806.111 0.
-424.51 -891.414 0.
-608.378 -916.532 0.
-621.874 -940.576 0.
-461.603 -917.011 0.
-457.57 -910.183 0.
-454.401 -904.001 0.
-348.24 -811.52 0.
-366.707 -838.707 0.
-383.982 -860.661 0.
-477.487 -860.007 0.
-462.514 -827.186 0.
-451.178 -805.617 0.
-667.503 -1492.5 0.
-790.248 -1757.86 0.
-297.293 -622.499 0.
-588.432 -1416.09 0.
-903.07 -2186.99 0.
-121.913 -160.459 0.
-707.448 -1708.89 0.
-1350.04 -3209.94 0.
-16.6136 -7.50283 0.
-770.277 -1566.43 0.
-1896.04 -4130.9 0.
-14.3361 -18.2759 0.
-2422.51 -5570.9 0.
-21.3014 -24.8777 0.
-92.4639 -123.393 0.
-2902.77 -7587.53 0.
-8.91215 -18.2855 0.
-5.03956 -7.64139 0.
-2699.72 -5269.18 0.
1.67493 4.12406 0.
-2457.06 -6242.32 0.
-0.0130957 -1.23745 0.
-2138.55 -4938.82 0.
-5.48023e-05 -2.75915 0.
-0.0441762 -1.67551 0.
-0.00257039 -3.79973 0.
9.00434 23.9632 0.
-0.0208416 -11.2165 0.
-218.736 -602.666 0.
6.44428 17.7639 0.
0.427253 1.14727 0.
-0.0116495 -66.3207 0.
-97.7971 -270.219 0.
-457.744 -1264.81 0.
-20.1404 -55.7795 0.
20.7518 57.1675 0.
-0.214407 -143.744 0.
-53.7726 -143.43 0.
25.9216 71.1511 0.
9.32943 25.0021 0.
60.7974 167.971 0.
36.1618 99.1643 0.
43.1849 119.369 0.
-4.80854 -13.3163 0.
-1012.28 -2796.07 0.
-5.98107 -16.5412 0.
-342.534 -948.365 0.
8.11678 22.1803 0.
-0.00515357 -34.4268 0.
0.480492 1.2904 0.
-980.995 -2669.14 0.
-1599.63 -3558.28 0.
-0.54504 -7.57423 0.
7.03891 19.0079 0.
0.0121497 0.695832 0.
0.762614 5.97723 0.
1.73096 0.0831466 0.
0.00336063 1.56341 0.
0.143023 0.210166 0.
0.767778 1.19451 0.
-0.00820914 -0.163265 0.
-136.244 -225.305 0.
-19.5262 -11.6358 0.
-0.365104 -0.0132913 0.
-247.121 -554.31 0.
-0.216803 -0.0191924 0.
-327.964 -577.791 0.
-70.3021 -42.5865 0.
-72.5286 -49.3031 0.
-583.878 -1415.47 0.
-139.262 -222.804 0.
-62.4881 -83.3264 0.
-545.56 -1357.23 0.
-331.607 -772.515 0.
-202.355 -384.835 0.
-655.533 -1448.94 0.
-600.887 -1333.75 0.
-466.932 -776.099 0.
-449.442 -727.356 0.
-451.206 -728.823 0.
-442.57 -783.053 0.
-435.109 -763.306 0.
-428.263 -743.412 0.
-412.45 -849.258 0.
-405.348 -824.148 0.
-398.186 -798.753 0.
-344.386 -817.843 0.
-344.549 -817.24 0.
-677.665 -1046.98 0.
-644.844 -887.544 0.
-661.716 -942.371 0.
-407.288 -776.834 0.
-402.428 -774.714 0.
-397.546 -772.947 0.
-389.966 -678.745 0.
-396.391 -725.298 0.
-407.296 -768.686 0.
-384.341 -761.201 0.
-376.827 -726.888 0.
-376.788 -701.113 0.
-568.283 -1282.05 0.
-679.418 -1546.47 0.
-113.231 -188.907 0.
-375.635 -773.089 0.
-660.992 -1575.11 0.
-53.3601 -33.5042 0.
-28.8744 -12.8957 0.
-527.427 -1112.24 0.
-33.7128 -12.7203 0.
-15.2371 -5.58982 0.
-237.682 -223.021 0.
-14.6625 -11.2378 0.
-112.782 -176.772 0.
-2.59894 -7.03116 0.
-4.09621 -11.0546 0.
-221.313 -490.235 0.
0.0159804 0.227969 0.
-0.252785 -1.25169 0.
0.131114 0.212338 0.
-0.0996899 -4.09932 0.
0.368206 0.950179 0.
6.31188 17.1735 0.
6.51981 15.1482 0.
8.96744 24.8011 0.
-1696.48 -4686.34 0.
-0.122997 -14.4992 0.
13.3562 35.7234 0.
15.7227 43.2334 0.
-383.78 -1060.03 0.
-13.3614 -36.9842 0.
-349.58 -940.949 0.
3.64899 10.1071 0.
-200.608 -553.559 0.
-974.989 -2691.01 0.
-414.457 -1147.81 0.
-4.13357 -11.4216 0.
-0.192636 -71.0996 0.
-419.738 -1102.2 0.
25.3632 68.3004 0.
-0.171381 -40.0501 0.
-0.105398 -140.017 0.
23.8836 65.6056 0.
-9.19297 -25.3997 0.
-191.414 -530.123 0.
-0.295459 -100.073 0.
23.7883 65.7134 0.
-215.588 -596.484 0.
4.71097 12.8351 0.
-2.05821 -5.6998 0.
-45.6128 -126.339 0.
-728.402 -2014.43 0.
11.414 31.0744 0.
-0.739419 -13.8474 0.
8.95438 24.3672 0.
-0.255883 -9.33741 0.
0.0497401 0.42172 0.
2.2028 0.953496 0.
-93.1793 -201.113 0.
-2261.61 -6101.88 0.
3.00564 0.0383048 0.
0.9503 0.338557 0.
-2338.5 -6172.44 0.
-20.1878 -12.9501 0.
-108.726 -271.26 0.
-2306.98 -5352.44 0.
-54.6924 -93.731 0.
-1821.55 -4201.58 0.
-537.461 -1131.13 0.
-40.9199 -19.7144 0.
-1417.6 -3435.03 0.
-603.872 -1437.56 0.
-27.5814 -10.2121 0.
-956.773 -2331.56 0.
-542.886 -1319.52 0.
-156.106 -282.181 0.
-804.284 -1794.91 0.
-668.966 -1514.64 0.
-535.568 -1011.28 0.
-483.476 -882.954 0.
-447.387 -796.616 0.
-479.832 -822.39 0.
-468.342 -793.338 0.
-456.467 -762.338 0.
-510.827 -891.559 0.
-430.458 -869.26 0.
-408.917 -804.976 0.
-425.267 -938.324 0.
-467.42 -960.828 0.
-862.105 -1142.95 0.
-674.146 -1029.58 0.
-694.375 -1082.25 0.
-466.202 -863.397 0.
-461.208 -856.689 0.
-459.297 -858.987 0.
-462.089 -772.103 0.
-469.336 -781.379 0.
-477.432 -790.629 0.
-390.577 -847.409 0.
-485.536 -1058.1 0.
-587.008 -1271.11 0.
-714.613 -1625.09 0.
-884.2 -1963.68 0.
-109.145 -107.463 0.
-609.567 -1439.28 0.
-1135.56 -2753.87 0.
-57.2676 -47.5323 0.
-577.554 -1250.13 0.
-1698.66 -4120.4 0.
-53.8695 -36.1684 0.
-432.853 -597.513 0.
-1858.66 -4062.38 0.
-62.8834 -105.993 0.
-2302.61 -5787.03 0.
-26.1838 -58.8323 0.
-6.67842 -5.9129 0.
-1816.93 -3929.03 0.
0.0851133 1.39108 0.
-2480.7 -6232.37 0.
-122.541 -337.968 0.
0.97401 2.64624 0.
-0.0327463 -2.32244 0.
-0.125883 -20.5765 0.
8.89493 21.6063 0.
-0.0456295 -18.8383 0.
7.94873 22.0157 0.
-0.0406279 -23.9972 0.
-1067.57 -2870.92 0.
16.7724 45.9888 0.
-397.792 -1100.68 0.
10.635 29.4522 0.
-283.579 -781.33 0.
27.2435 75.426 0.
-281.677 -776.059 0.
44.0017 119.315 0.
43.873 121.49 0.
43.9676 121.706 0.
58.2053 158.323 0.
7.77394 144.705 0.
37.3886 101.506 0.
-0.218066 -97.249 0.
-4.80926 -13.3044 0.
22.716 62.87 0.
-0.837504 -2.31297 0.
-664.672 -1840.87 0.
-0.537397 -105.275 0.
-28.3479 -78.1939 0.
-680.91 -1882.44 0.
2.11349 5.73984 0.
-291.998 -808.121 0.
10.3719 28.7281 0.
-326.832 -903.941 0.
14.4107 37.9642 0.
-0.723773 -17.5579 0.
9.56703 25.0217 0.
-2083 -5604.73 0.
-0.00941994 -10.4219 0.
-1658.44 -4144.7 0.
1.94175 5.32629 0.
0.0556417 4.23231 0.
-5.19737 -3.88984 0.
-2.1797 -0.423253 0.
0.367872 0.133502 0.
1.14909 0.309428 0.
-4.36201 -6.59753 0.
-106.408 -293.192 0.
0.114701 0.0040224 0.
-203.185 -350.488 0.
-8.55887 -3.17429 0.
-33.2135 -16.5673 0.
-476.435 -1110.86 0.
-0.642688 -0.243941 0.
-7.65731 -2.77838 0.
-513.34 -1290.47 0.
-133.259 -244.793 0.
-34.5921 -57.1118 0.
-588.633 -1346.67 0.
-460.729 -1065.24 0.
-440.561 -890.63 0.
-378.322 -769.364 0.
-332.554 -674.276 0.
-383.756 -808.006 0.
-371.282 -780.876 0.
-357.649 -750.073 0.
-443.362 -859.483 0.
-396.313 -846.757 0.
-383.719 -809.972 0.
-379.071 -911.73 0.
-381.94 -917.465 0.
-370.171 -842.476 0.
-615.901 -914.255 0.
-634.654 -962.194 0.
-445.749 -912.234 0.
-437.813 -894.357 0.
-433.737 -882.977 0.
-364.571 -786.66 0.
-370.701 -799.577 0.
-378.912 -809.006 0.
-249.646 -567.049 0.
-328.198 -795.159 0.
-421.826 -1017.08 0.
-417.867 -936.879 0.
-562.689 -1298.96 0.
-48.1441 -43.2184 0.
-74.1837 -88.5603 0.
-565.52 -1434.3 0.
-47.3962 -37.8528 0.
-34.6385 -32.5714 0.
-461.783 -1004.15 0.
-106.12 -58.8751 0.
-44.2189 -17.0292 0.
-20.4987 -7.41426 0.
-2.70341 -2.79654 0.
-185.075 -494.071 0.
-0.0825244 -0.185235 0.
0.32002 0.72608 0.
1.59814 0.0308425 0.
0.360261 3.47659 0.
-668.593 -1839.62 0.
1.20501 3.31182 0.
0.300259 0.818263 0.
-2124.23 -5330.88 0.
-0.0161052 -17.4313 0.
-2107.99 -5716.95 0.
0.019604 4.08126 0.
-0.008096 -13.9349 0.
-2.19598e-05 -10.4221 0.
-138.331 -377.413 0.
1.04819 2.88369 0.
-331.904 -905.092 0.
-150.559 -416.036 0.
-266.709 -735.234 0.
-11.403 -31.2915 0.
-424.924 -1168.63 0.
-18.5386 -50.1774 0.
-10.2506 -27.4205 0.
-28.5101 -78.9678 0.
8.6665 23.7302 0.
45.0001 114.498 0.
33.4584 91.9207 0.
5.49869 15.2144 0.
-517.241 -1431.51 0.
40.0191 110.67 0.
-16.4886 -45.5238 0.
-415.743 -1151.4 0.
-15.0537 -41.1408 0.
-461.368 -1270.16 0.
34.2309 92.5859 0.
1.11274 3.0327 0.
-380.928 -1053.97 0.
-0.0900164 -0.249313 0.
-521.486 -1428.9 0.
7.57238 19.8312 0.
-2068.51 -5483.3 0.
3.11018 8.4033 0.
0.997599 2.744 0.
6.33919 17.4953 0.
-1.10711 -2.99739 0.
-0.00623643 -0.70861 0.
2.21656 9.76436 0.
-264.748 -214.261 0.
-74.0704 -31.7413 0.
1.55595 1.01478 0.
0.515977 3.54661 0.
0.186833 0.485199 0.
-29.2302 -58.5448 0.
0.395318 0.00135188 0.
-13.0388 -5.41777 0.
-23.678 -10.9011 0.
-49.4248 -26.6233 0.
-10.8761 -6.39489 0.
-3.07209 -1.18305 0.
-0.112516 -0.0406293 0.
-126.301 -239.575 0.
-43.6345 -26.4499 0.
-53.6014 -65.0931 0.
-211.348 -346.163 0.
-141.687 -172.346 0.
-247.591 -351.015 0.
-148.391 -149.104 0.
-97.8753 -81.5046 0.
-142.563 -190.702 0.
-192.88 -349.522 0.
-109.205 -116.995 0.
-141.378 -189.394 0.
-141.133 -179.771 0.
-206.955 -331.673 0.
-176.038 -287.846 0.
-157.209 -237.534 0.
-74.3747 -56.5132 0.
-148.79 -85.0567 0.
-262.847 -270.384 0.
-81.0146 -83.9734 0.
-238.156 -264.491 0.
-144.286 -132.565 0.
-46.1099 -82.7608 0.
-206.909 -294.495 0.
-148.715 -155.958 0.
-68.6233 -81.7532 0.
-143.872 -251.212 0.
-150.485 -263.098 0.
-101.588 -135.317 0.
-263.252 -482.518 0.
-47.7377 -36.3114 0.
-36.2966 -18.8671 0.
-78.3916 -121.827 0.
-53.7371 -37.4878 0.
-48.2936 -36.1358 0.
-37.0704 -39.9176 0.
-173.834 -85.8112 0.
-93.378 -36.2671 0.
-47.0403 -17.0043 0.
0.462668 0.386453 0.
-79.863 -194.845 0.
-0.31269 -0.587675 0.
-0.0360296 -0.0295061 0.
1.14115 0.317437 0.
-0.0085002 -0.143511 0.
1.3657 3.71652 0.
2.49348 6.84288 0.
-0.0253732 -7.53392 0.
-0.144891 -5.20599 0.
-0.0178905 -10.7824 0.
-132.527 -366.236 0.
-141.433 -388.442 0.
-541.836 -1486.76 0.
-0.0313479 -24.1152 0.
6.05965 16.706 0.
-70.8739 -194.018 0.
-4.67793 -12.6652 0.
-400.501 -1101.83 0.
-213.391 -588.622 0.
-2.64393 -7.26058 0.
-431.693 -1184.78 0.
18.7884 50.7609 0.
10.9783 29.3111 0.
-869.914 -2408.19 0.
31.2708 86.1875 0.
-0.880497 -33.8571 0.
41.9084 116.019 0.
32.8847 91.0275 0.
22.0759 59.6399 0.
-0.123587 -121.504 0.
-774.423 -2137.92 0.
38.5872 103.837 0.
-10.6739 -29.1439 0.
-856.446 -2351.28 0.
18.9359 51.1081 0.
9.76391 26.4737 0.
-474.703 -1313.09 0.
15.3971 42.6408 0.
-596.832 -1596.4 0.
2.26482 5.90442 0.
-236.546 -637.307 0.
6.29095 17.2991 0.
-0.0329219 -19.4156 0.
7.1348 19.6683 0.
1.54302 4.27335 0.
-1232.71 -3200.26 0.
2.87561 7.77483 0.
-1890.15 -5028.79 0.
-196.967 -440.224 0.
-1292.47 -2804.16 0.
-264.266 -587.546 0.
-0.347478 -2.2709 0.
-2002.63 -5339.96 0.
-0.00073141 -0.0254642 0.
-1964.39 -4462.09 0.
-378.192 -671.022 0.
-105.752 -97.2345 0.
-1881.79 -4759.65 0.
-256.707 -587.497 0.
-20.2825 -13.1073 0.
-1236.21 -3136.09 0.
-488.58 -1203.47 0.
-39.3793 -26.2648 0.
-939.295 -2292.8 0.
-606.191 -1481.34 0.
-627.512 -1506.41 0.
-455.025 -1109.29 0.
-297.77 -714.864 0.
-421.805 -1015.24 0.
-348.614 -821.892 0.
-278.18 -630.651 0.
-367.407 -782.3 0.
-354.994 -751.7 0.
-345.301 -721.795 0.
-369.08 -769.117 0.
-416.258 -849.367 0.
-269.284 -670.589 0.
-496.607 -848.598 0.
-473.363 -775.048 0.
-359.42 -752.94 0.
-384.579 -823.045 0.
-412.722 -898.19 0.
-317.346 -726.984 0.
-420.916 -1015.46 0.
-533.806 -1299.66 0.
-292.415 -742.036 0.
-490.687 -1258.13 0.
-704.306 -1761.91 0.
-600.058 -1472.82 0.
-1049.92 -2590.59 0.
-71.2801 -116.793 0.
-479.578 -1174.64 0.
-1462.69 -3696.42 0.
-105.977 -122.584 0.
-143.703 -173.732 0.
-2099.6 -5551.35 0.
-154.577 -142.938 0.
-106.333 -72.5022 0.
-1721 -3669.8 0.
-0.134854 -0.248273 0.
-2130.57 -5733.37 0.
1.0241 1.83814 0.
-99.6817 -173.718 0.
-2139.7 -4140.62 0.
-0.0301007 -2.93317 0.
-1922.99 -5214.62 0.
2.00842 5.38519 0.
-0.000537244 -0.309622 0.
-0.932652 -21.6434 0.
5.14702 13.9347 0.
-119.486 -330.654 0.
-84.2167 -230.48 0.
2.19436 6.02625 0.
-779.23 -2158.29 0.
2.65073 6.90967 0.
-313.843 -853.73 0.
4.29078 11.6294 0.
25.0551 67.3357 0.
-214.85 -593.017 0.
-137.153 -376.87 0.
-8.35318 -22.4524 0.
16.5393 44.6175 0.
-0.927107 -2.4713 0.
35.3547 95.012 0.
-0.0324229 -152.026 0.
51.0245 136.325 0.
17.7666 49.0064 0.
-0.0177099 -77.2374 0.
7.38691 19.9043 0.
-0.116282 -86.1945 0.
3.63743 10.0417 0.
-1.37541 -103.269 0.
-749.254 -2044.09 0.
-434.571 -1189.28 0.
-1.00692 -85.125 0.
-440.332 -1186.3 0.
19.1353 49.5915 0.
-433.466 -1200.47 0.
-436.74 -1163.43 0.
8.68816 22.5491 0.
-127.158 -347.777 0.
-0.00807037 -34.4687 0.
-1150.98 -3163.55 0.
-237.885 -658.022 0.
-141.552 -391.862 0.
-651.487 -1797.87 0.
-0.00155026 -8.39116 0.
0.180884 0.394111 0.
-0.0421928 -2.152 0.
-83.4983 -197.686 0.
0.382116 0.800025 0.
0.772676 1.58721 0.
0.143433 0.396918 0.
-0.0728026 -1.06585 0.
-92.7559 -185.477 0.
-45.3297 -73.6516 0.
0.0728937 0.00270061 0.
-133.069 -272.134 0.
-18.5691 -7.15849 0.
-27.1233 -15.5864 0.
-507.995 -1217.97 0.
-20.1791 -18.0124 0.
-42.8513 -34.8182 0.
-551.887 -1372.03 0.
-228.12 -523.026 0.
-423.727 -993.019 0.
-264.303 -585.595 0.
-137.555 -248.576 0.
-386.523 -861.523 0.
-316.998 -666.421 0.
-249.406 -469.796 0.
-337.355 -669.008 0.
-326.381 -635.822 0.
-327.426 -590.876 0.
-324.327 -745.232 0.
-365.697 -831.782 0.
-162.059 -440.891 0.
-492.724 -821.824 0.
-471.805 -748.715 0.
-311.73 -641.669 0.
-340.183 -711.105 0.
-370.625 -787.925 0.
-209.088 -436.936 0.
-306.489 -733.122 0.
-409.523 -1026.56 0.
-68.7513 -125.205 0.
-228.345 -561.112 0.
-426.756 -1082.01 0.
-152.647 -245.276 0.
-592.621 -1431.99 0.
-25.2645 -39.787 0.
-22.0644 -31.1068 0.
-416.774 -967.446 0.
-35.083 -42.9587 0.
-46.5099 -54.5573 0.
-98.2843 -128.63 0.
-335.787 -349.538 0.
-28.8246 -14.6283 0.
-1.27916 -0.564412 0.
0.127909 0.240318 0.
-330.274 -910.674 0.
0.069282 0.562902 0.
0.0497521 0.277362 0.
-0.262204 -1.20001 0.
-0.0681245 -2.50361 0.
-0.829315 -2.2946 0.
-0.118606 -17.4371 0.
-1897.81 -4834.79 0.
-0.09646 -26.9406 0.
-1093.29 -3026.02 0.
12.2235 31.7864 0.
-31.6846 -86.3899 0.
0.816243 2.23417 0.
-792.044 -2191.86 0.
-11.5082 -30.2676 0.
-677.469 -1828.42 0.
-166.582 -451.957 0.
-52.6562 -141.722 0.
-248.936 -687.564 0.
6.1559 16.4227 0.
5.51646 14.7749 0.
3.65152 9.57848 0.
-135.835 -361.662 0.
7.34049 19.8045 0.
-0.395984 -136.98 0.
-1.81969 -67.5187 0.
-520.191 -1421.17 0.
21.4504 59.4091 0.
40.6365 109.208 0.
-775.18 -2138.69 0.
0.506051 1.32725 0.
29.3692 78.7721 0.
-611.597 -1667.92 0.
16.8035 44.734 0.
-82.4924 -221.676 0.
-1084.58 -2899.04 0.
-4.14763 -10.7417 0.
-321.246 -888.367 0.
15.5031 42.2194 0.
11.1712 28.8661 0.
-2.34758 -51.9067 0.
-1286.43 -3561.33 0.
5.44573 14.944 0.
-28.0865 -77.727 0.
8.99409 24.8898 0.
-395.425 -1090.4 0.
-0.791564 -2.1297 0.
-0.487477 -9.40641 0.
0.00562205 1.99367 0.
0.234386 0.50106 0.
-750.458 -1847.76 0.
-27.2034 -59.832 0.
-1880.11 -5207.52 0.
0.0169457 0.199028 0.
-1727.55 -3139.88 0.
0.125991 0.0715448 0.
-12.8882 -11.9379 0.
-2013.37 -5328.45 0.
-64.6823 -82.07 0.
-55.4538 -66.8058 0.
-1481.45 -3669 0.
-340.564 -781.059 0.
-56.8385 -42.5721 0.
-1059.22 -2661.47 0.
-532.652 -1306.64 0.
-752.084 -1785.33 0.
-482.368 -1131.35 0.
-229.576 -478.168 0.
-559.997 -1279.19 0.
-420.827 -941.903 0.
-290.588 -600.963 0.
-413.05 -850.057 0.
-379.219 -760.037 0.
-349.291 -678.205 0.
-360.373 -844.2 0.
-329.954 -775.612 0.
-313.893 -530.485 0.
-477.188 -707.714 0.
-500.174 -767.967 0.
-297.549 -630.068 0.
-352.396 -784.528 0.
-416.272 -953.007 0.
-212.42 -509.205 0.
-399.92 -1016.49 0.
-603.013 -1516.18 0.
-171.218 -405.875 0.
-476.59 -1205.33 0.
-799.668 -1993.57 0.
-497.953 -1193.78 0.
-1203.81 -2999.28 0.
0.268288 0.122753 0.
-149.004 -363.66 0.
-1603.53 -4157.01 0.
-56.1394 -89.1509 0.
0.508704 0.0012222 0.
-1645.58 -4343.24 0.
-338.594 -426.168 0.
-1514.96 -2682.86 0.
-417.947 -1111.73 0.
-117.602 -325.065 0.
-1013.8 -2641.45 0.
-497.743 -1066.78 0.
-0.305395 -2.85855 0.
1.25458 2.59925 0.
4.9639 12.5131 0.
-0.0299359 -5.35741 0.
8.08753 22.2208 0.
0.111667 0.289921 0.
-0.199947 -19.8661 0.
-528.756 -1455.2 0.
2.86965 7.76438 0.
-2.75407 -7.48014 0.
13.475 36.7528 0.
-739.55 -2042.48 0.
-1.67491 -68.6798 0.
18.6213 48.4384 0.
-371.736 -1009.38 0.
-766.858 -2067.52 0.
29.6701 80.377 0.
-19.6705 -52.2492 0.
-97.5656 -260.276 0.
-6.70089 -17.5712 0.
-38.2278 -101.637 0.
17.9123 48.5329 0.
5.74026 15.8494 0.
29.1486 76.5783 0.
-415.845 -1105.34 0.
-0.0766571 -96.813 0.
-375.467 -1006.54 0.
-1.83586 -96.4511 0.
25.4699 66.7677 0.
-1330.64 -3570.05 0.
-1.86824 -4.91175 0.
-67.7109 -179.827 0.
-656.719 -1759.24 0.
-31.1957 -82.9173 0.
29.9409 77.3015 0.
-342.106 -943.242 0.
14.8596 40.1523 0.
-74.878 -192.61 0.
-40.5274 -107.561 0.
-558.46 -1545.83 0.
-0.279061 -28.4725 0.
-0.379596 -1.05097 0.
6.27563 17.3567 0.
-1272.98 -3485.43 0.
-0.951857 -2.49657 0.
-2081.22 -4941.9 0.
-0.133115 -4.17692 0.
-853.529 -2094.04 0.
-50.2943 -122.699 0.
-0.101014 -4.50037 0.
-135.096 -374.19 0.
0.955554 1.99993 0.
-0.88896 -0.310834 0.
0.187277 0.0995286 0.
0.19806 0.143854 0.
-259.073 -664.116 0.
-37.2774 -54.1958 0.
-39.8756 -61.1584 0.
-241.21 -592.019 0.
-15.0913 -30.5401 0.
-12.0177 -19.9194 0.
-515.879 -1248.64 0.
-75.5282 -60.754 0.
-408.185 -1023.05 0.
-148.836 -337.768 0.
-38.9229 -39.9339 0.
-382.756 -908.951 0.
-253.382 -566.922 0.
-153.141 -291.015 0.
-309.714 -698.916 0.
-279.264 -623.754 0.
-262.899 -574.627 0.
-334.504 -822.076 0.
-310.465 -757.809 0.
-236.474 -631.436 0.
-435.366 -725.886 0.
-449.347 -766.192 0.
-187.001 -444.246 0.
-233.374 -599.478 0.
-290.784 -761.926 0.
-62.2694 -97.1502 0.
-198.441 -467.208 0.
-389.818 -973.538 0.
-29.9153 -50.9531 0.
-89.4649 -199.76 0.
-395.307 -1004.25 0.
-52.648 -90.6368 0.
-509.533 -1215.04 0.
0.355838 0.177415 0.
-0.216335 -0.0360889 0.
-106.574 -264.21 0.
0.588924 0.225274 0.
0.25737 0.092965 0.
-0.815856 -0.023171 0.
0.924348 0.233962 0.
-436.382 -955.281 0.
-37.4276 -103.559 0.
-20.9211 -56.5351 0.
-13.2532 -33.7871 0.
-0.045735 -4.48547 0.
-2279.24 -5860.26 0.
-1.27451 -3.52881 0.
-0.00976682 -12.1461 0.
-1915.67 -5195.25 0.
7.83589 21.3679 0.
1.65538 4.38052 0.
1.23034 3.26175 0.
-28.5312 -77.8195 0.
-1.57677 -4.24168 0.
-1057.21 -2902.08 0.
-0.475801 -48.108 0.
-558.668 -1538.71 0.
-47.1065 -122.691 0.
-24.1293 -62.4516 0.
-296.145 -805.125 0.
-299.704 -808.648 0.
-0.883583 -73.677 0.
4.1876 10.5661 0.
3.86909 10.2785 0.
35.6025 93.34 0.
17.6277 44.9178 0.
22.4829 61.1901 0.
-147.291 -407.774 0.
0.341563 0.906566 0.
-0.0248469 -57.9147 0.
11.1197 30.5978 0.
4.02396 10.3689 0.
30.8387 82.1585 0.
-78.4348 -205.584 0.
-16.1301 -43.2445 0.
27.6564 72.5279 0.
-314.87 -834.114 0.
-431.009 -1152.52 0.
-11.9847 -30.483 0.
-35.0984 -90.3183 0.
-903.889 -2481.7 0.
8.70659 23.5982 0.
-468.438 -1260.92 0.
-32.8735 -87.3532 0.
-9.32582 -25.6882 0.
-0.802885 -47.6389 0.
-1134.71 -3140.92 0.
-0.0157092 -18.0577 0.
-116.47 -311.634 0.
0.151689 0.38138 0.
-0.144709 -2.29984 0.
-0.162545 -4.88213 0.
-77.0467 -194.39 0.
2.5225 6.68984 0.
2.7075 7.49201 0.
-53.1988 -133.835 0.
1.46052 2.88164 0.
-0.455847 -1.13294 0.
-0.808468 -0.41105 0.
-0.63428 -0.439155 0.
-34.1804 -57.5377 0.
-23.837 -46.4417 0.
-24.5574 -55.3369 0.
-28.441 -50.9133 0.
-23.7785 -38.715 0.
-20.877 -30.0148 0.
-93.167 -55.5595 0.
-73.6794 -46.4183 0.
-63.0142 -102.603 0.
-29.8521 -38.2452 0.
-9.7235 -21.1827 0.
-167.036 -352.783 0.
-80.003 -108.361 0.
-37.4527 -73.3658 0.
-144.401 -247.327 0.
-168.826 -297.968 0.
-131.617 -206.792 0.
-131.867 -155.868 0.
-128.612 -172.626 0.
-75.466 -90.4228 0.
-210.396 -158.083 0.
-373.802 -483.906 0.
-29.5018 -67.3146 0.
-112.683 -284.844 0.
-100.235 -267.91 0.
-46.2196 -23.1673 0.
-40.7166 -15.1431 0.
-150.819 -294.885 0.
-36.6127 -57.492 0.
-40.2368 -69.1845 0.
-67.3186 -127.68 0.
-63.3781 -96.8967 0.
-73.654 -129.83 0.
0.0190803 0.00446272 0.
-0.474308 -0.104812 0.
-38.8261 -72.5192 0.
-13.0204 -4.84577 0.
-13.5963 -4.91058 0.
-19.4378 -7.3544 0.
0.424596 1.69796 0.
-58.0999 -151.537 0.
-28.214 -77.636 0.
-12.6789 -34.5121 0.
-5.79545 -15.3031 0.
-0.0206145 -9.1288 0.
1.1186 3.02678 0.
3.16814 8.77507 0.
4.23209 11.6837 0.
0.549313 1.49924 0.
-0.00679587 -13.6041 0.
-1491.78 -4084.51 0.
5.47341 14.4789 0.
-41.0241 -110.424 0.
-0.668182 -44.5048 0.
-815.402 -2228.65 0.
-9.08522 -24.4561 0.
-12.9211 -34.8648 0.
-326.514 -846.417 0.
-447.642 -1152.56 0.
16.4865 43.1324 0.
-58.0344 -155.4 0.
-563.088 -1506.41 0.
-27.6504 -69.6144 0.
-5.15129 -96.4389 0.
-723.491 -1898.26 0.
-7.83669 -19.9822 0.
5.10824 13.3744 0.
-0.234606 -0.636631 0.
-0.861034 -66.2065 0.
15.2481 42.2347 0.
-0.0474807 -59.9501 0.
-1.55781 -56.712 0.
-490.565 -1315.27 0.
8.105 21.255 0.
25.0939 64.1806 0.
-267.454 -699.863 0.
-469.296 -1253.8 0.
-3.4022 -82.0061 0.
-247.706 -627.818 0.
-93.4806 -239.803 0.
-0.961147 -56.9285 0.
-9.13472 -24.6503 0.
-724.803 -1950.89 0.
7.83076 20.8285 0.
2.91478 7.96408 0.
-0.213639 -0.568197 0.
-468.274 -1296.55 0.
0.574622 1.57547 0.
-111.807 -291.123 0.
3.37819 8.14902 0.
4.83 11.6778 0.
3.5044 8.97725 0.
0.761161 2.0277 0.
-1771.07 -4755.13 0.
1.99442 5.48123 0.
-1122.39 -2562.83 0.
-49.9602 -138.311 0.
-64.9106 -179.341 0.
-2111.11 -5163.16 0.
-0.347864 -1.07607 0.
-1382.1 -3610.76 0.
0.711402 0.687406 0.
0.271289 0.305024 0.
-1677.44 -4366.48 0.
-1.51149 -1.21925 0.
-2.15301 -1.73504 0.
-1342.15 -3396.58 0.
-288.67 -652.21 0.
-879.164 -2178.48 0.
-436.666 -1075.71 0.
-97.4501 -217.624 0.
-677.523 -1772.87 0.
-411.422 -1074.18 0.
-165.045 -392.662 0.
-481.154 -1221.4 0.
-343.807 -851.147 0.
-222.512 -511.895 0.
-383.428 -937.37 0.
-352.76 -852.711 0.
-243.274 -602.815 0.
-423.95 -836.969 0.
-484.342 -991.582 0.
-178.809 -467.93 0.
-353.942 -969.078 0.
-562.414 -1537.74 0.
-146.628 -260.325 0.
-484.565 -1197.8 0.
-838.372 -2118.98 0.
-85.1553 -192.556 0.
-454.718 -1117.68 0.
-963.867 -2355.85 0.
-127.553 -275.657 0.
-1418.77 -3735.74 0.
-0.238811 -0.159339 0.
-9.59843 -15.2638 0.
-1703.35 -4463.49 0.
-76.1391 -75.5828 0.
-100.6 -98.6287 0.
-1865.23 -3953.28 0.
0.0377779 0.977282 0.
-1911.9 -4661.64 0.
0.00295332 1.65806 0.
-31.8988 -74.4676 0.
-2145.72 -4806.71 0.
-0.000666737 -4.08234 0.
-1011.25 -2795.82 0.
2.52604 6.99589 0.
0.920457 2.53729 0.
-0.0984993 -13.6301 0.
10.0943 27.9046 0.
-16.6506 -46.0285 0.
0.0137312 0.0363272 0.
-1054.15 -2841.31 0.
-3.31936 -8.82064 0.
-126.74 -343.988 0.
-0.773827 -53.9471 0.
7.08563 19.0292 0.
-113.346 -292.171 0.
-394.461 -1010.48 0.
-9.51457 -24.7989 0.
-3.74161 -9.54976 0.
-546.777 -1451.39 0.
-429.57 -1079.94 0.
36.0832 88.5701 0.
-84.7801 -222.61 0.
13.2797 33.9023 0.
-1.54815 -84.0737 0.
8.33114 22.8237 0.
16.571 44.0897 0.
9.99327 27.6779 0.
27.6475 76.3665 0.
-1.58082 -67.8471 0.
2.26495 6.1123 0.
-10.3321 -25.555 0.
-177.502 -455.858 0.
-626.566 -1636.52 0.
9.41895 23.5854 0.
4.39185 11.0088 0.
-607.565 -1534.56 0.
-72.3781 -185.13 0.
17.9951 47.6388 0.
-7.12428 -19.1328 0.
-510.489 -1374.74 0.
-11.5815 -30.8307 0.
-427.368 -1140.66 0.
10.2111 26.9781 0.
-107.96 -297.959 0.
-1.07715 -2.91837 0.
-109.455 -276.938 0.
-21.0259 -53.4041 0.
-1080.82 -2929.51 0.
-0.266197 -19.3272 0.
-0.161018 -17.0937 0.
-301.454 -830.799 0.
3.09037 8.55342 0.
0.935612 2.57064 0.
-0.556523 -1.54124 0.
-0.00558542 -2.82392 0.
-0.385841 -0.924055 0.
-0.0671249 -1.60712 0.
0.392166 0.406899 0.
0.169356 0.226879 0.
-0.22619 -0.423179 0.
-0.263997 -0.233045 0.
-0.416943 -0.369665 0.
-0.827371 -0.736751 0.
-416.106 -1057.1 0.
-34.7848 -33.1555 0.
-362.117 -864.669 0.
-5.06392 -7.81723 0.
0.0538458 0.0805538 0.
-368.423 -966.757 0.
-124.703 -302.961 0.
-16.885 -9.08155 0.
-377.949 -936.31 0.
-269.67 -630.97 0.
-163.816 -327.286 0.
-380.283 -863.795 0.
-350.771 -784.149 0.
-128.299 -201.528 0.
-339.518 -711.737 0.
-377.591 -818.41 0.
-76.0859 -160.437 0.
-230.615 -588.983 0.
-407.331 -1095.84 0.
-74.5165 -100.317 0.
-114.102 -191.08 0.
-439.422 -1099.26 0.
-17.4766 -39.7754 0.
-13.7815 -27.0772 0.
-312.277 -725.416 0.
-51.6666 -69.13 0.
-337.059 -853.441 0.
-0.00943886 -0.00664084 0.
-0.420932 -0.380766 0.
-100.022 -257.814 0.
-62.6314 -82.7107 0.
-33.4108 -13.804 0.
-20.1799 -8.33119 0.
0.008544 1.77644 0.
0.00831111 0.556724 0.
-0.0358783 -3.43379 0.
-0.0121699 -1.12913 0.
-19.8748 -47.8594 0.
-0.0143932 -1.52724 0.
1.86594 5.16511 0.
-1.43287 -3.96876 0.
-1407.19 -3883.78 0.
-0.128309 -21.2324 0.
11.2069 30.6522 0.
5.03583 13.9439 0.
14.5309 38.4444 0.
-328.402 -885.458 0.
-6.78622 -17.6179 0.
4.20729 11.3562 0.
12.6494 33.6729 0.
-798.833 -2125.37 0.
12.1762 30.0114 0.
-111.24 -289.883 0.
-851.783 -2209.67 0.
15.0028 38.1178 0.
7.47409 18.8364 0.
-538.563 -1352.34 0.
-16.4288 -40.261 0.
-0.804506 -1.95052 0.
-4.00337 -44.6665 0.
-560.732 -1508.31 0.
-2.37868 -61.2684 0.
15.2543 41.2281 0.
18.4629 51.1242 0.
-0.0953828 -58.6671 0.
18.8962 47.1916 0.
-4.85912 -12.5503 0.
-13.9957 -34.7789 0.
-891.062 -2305.14 0.
-16.1668 -39.4609 0.
3.73254 9.34824 0.
-443.29 -1103.49 0.
-262.477 -661.252 0.
-5.98417 -14.2204 0.
-762.572 -2005.68 0.
-9.31551 -24.8854 0.
-201.124 -508.386 0.
-27.568 -69.399 0.
-927.043 -2460.29 0.
-7.66621 -20.1145 0.
-71.2417 -195.331 0.
-0.201555 -36.648 0.
-1487.17 -4093.54 0.
3.71703 9.57876 0.
8.85318 21.2311 0.
-0.144178 -17.7713 0.
3.4846 9.54788 0.
-0.000915761 -12.1096 0.
-0.0110685 -1.89172 0.
0.310881 0.857257 0.
0.719352 1.99241 0.
-108.906 -297.406 0.
-1460.69 -4045.67 0.
-1.67977 -4.65259 0.
-1472.26 -2802.75 0.
-1.91695 -3.74396 0.
-97.4981 -195.216 0.
-1614.11 -4345.89 0.
-12.6121 -13.8044 0.
0.207453 0.347305 0.
-1317.91 -3533.18 0.
-30.0416 -57.4306 0.
-961.623 -2311.17 0.
-414.337 -978.393 0.
-51.9104 -59.1739 0.
-846.094 -2207.6 0.
-403.32 -1048.34 0.
-18.08 -8.90331 0.
-570.15 -1478.38 0.
-333.64 -852.851 0.
-114.244 -246.809 0.
-436.65 -1002.9 0.
-394.802 -904.719 0.
-194.436 -317.733 0.
-372.87 -909.684 0.
-479.2 -1186.43 0.
-91.4644 -208.801 0.
-350.305 -925.408 0.
-643.206 -1707.79 0.
-33.1585 -17.1327 0.
-400.235 -1028.54 0.
-974.841 -2535.56 0.
-26.9964 -47.2792 0.
-403.475 -907.854 0.
-1036.32 -2404.87 0.
-61.5118 -103.649 0.
-1457.56 -3866.53 0.
-13.3161 -32.9407 0.
-27.0945 -63.089 0.
-1485.24 -4066.43 0.
-61.2782 -83.6826 0.
-37.6793 -36.6619 0.
-1229.39 -2671.52 0.
-0.0242574 -1.83723 0.
-1602.36 -4275.8 0.
-225.762 -610.767 0.
-0.00585155 -5.74771 0.
-0.0664841 -2.60998 0.
-0.409038 -15.7034 0.
1.78121 4.86609 0.
0.410621 1.13626 0.
4.61283 12.733 0.
11.5333 31.1037 0.
-1100.54 -3028.56 0.
0.397074 1.04784 0.
-0.800866 -40.737 0.
-1.29388 -35.1024 0.
-6.55059 -16.7589 0.
-661.895 -1660.28 0.
6.9577 17.8035 0.
-180.183 -437.152 0.
-173.285 -423.661 0.
14.9381 37.8945 0.
-240.04 -620.888 0.
-456.762 -1155.33 0.
3.48038 8.73031 0.
27.9995 66.3249 0.
-245.204 -600.145 0.
-382.906 -940.802 0.
-2.39305 -5.56656 0.
16.9135 43.1222 0.
18.9659 49.1271 0.
-346.346 -947.8 0.
8.12821 22.3213 0.
27.9687 77.3873 0.
30.1203 75.7276 0.
-273.497 -711.157 0.
24.5226 61.2469 0.
21.9753 53.3486 0.
20.5733 50.2381 0.
-359.112 -899.814 0.
-436.727 -1080.51 0.
26.0576 61.7885 0.
21.9263 51.774 0.
-853.647 -2227.91 0.
14.3418 35.8222 0.
-355.863 -894.02 0.
-5.46881 -13.6789 0.
-332.461 -875.59 0.
0.665958 1.73456 0.
-574.613 -1568.94 0.
5.072 13.7056 0.
4.33338 11.811 0.
3.54517 9.23154 0.
11.583 28.3286 0.
0.482972 1.32441 0.
-0.188718 -17.2263 0.
-1067.43 -2948.76 0.
5.34785 14.7731 0.
-1476.23 -3589.08 0.
0.916304 2.52687 0.
-0.0416791 -7.17842 0.
-64.2104 -176.099 0.
-1.53537 -4.17483 0.
-1.71973 -3.79926 0.
0.467992 1.07362 0.
-0.110504 -1.80759 0.
-25.872 -59.1003 0.
0.547687 0.114989 0.
0.21334 0.459103 0.
-215.733 -595.63 0.
-6.86927 -13.5267 0.
-218.91 -506.162 0.
-2.02748 -5.56762 0.
-9.78463 -20.1631 0.
-375.676 -970.671 0.
-20.8461 -9.72254 0.
-11.5422 -4.21355 0.
-315.86 -859 0.
-88.3157 -225.736 0.
-0.0930833 -0.0516299 0.
-299.022 -680.536 0.
-258.786 -575.36 0.
-23.6516 -13.2011 0.
-162.964 -394.735 0.
-267.334 -674.135 0.
-41.4502 -57.1297 0.
-76.2766 -156.002 0.
-358.94 -940.14 0.
-4.39896 -1.60807 0.
-16.5659 -20.9211 0.
-368.081 -989.056 0.
-16.4949 -28.1104 0.
-8.77821 -20.4442 0.
-168.18 -351.197 0.
-32.4692 -56.2113 0.
-122.706 -267.312 0.
-5.07957 -13.9608 0.
-33.932 -85.3825 0.
-60.8764 -158.12 0.
-65.8821 -86.3098 0.
-29.9412 -30.4351 0.
-7.7863 -6.51404 0.
-0.00131234 -0.243055 0.
-102.901 -282.854 0.
-3.71685 -10.2159 0.
-120.885 -322.08 0.
-1233.25 -3142.92 0.
3.14182 8.60127 0.
-1266.46 -3507.15 0.
-0.0202525 -13.6349 0.
0.171907 0.475827 0.
13.1956 35.0793 0.
-386.877 -1053.9 0.
13.8825 36.4887 0.
-78.8695 -208.238 0.
12.6741 31.6907 0.
-6.77538 -17.057 0.
-267.819 -663.685 0.
-66.0289 -167.13 0.
-9.94226 -23.2131 0.
-565.317 -1369.83 0.
-122.55 -310.107 0.
7.78592 19.5267 0.
-35.7467 -89.9516 0.
-153.005 -381.987 0.
14.51 34.5061 0.
-14.7156 -33.6892 0.
-628.169 -1566.52 0.
2.75486 6.51583 0.
-7.45843 -19.2511 0.
10.6323 25.951 0.
5.56996 14.9629 0.
0.589121 1.61794 0.
4.6133 12.7668 0.
-0.463376 -1.17381 0.
-347.593 -909.982 0.
31.8971 75.2103 0.
-16.3562 -39.8475 0.
-257.446 -629.245 0.
-301.382 -756.072 0.
11.5706 26.8603 0.
-98.0048 -231.9 0.
-393.361 -923.989 0.
3.70518 9.17487 0.
-55.7583 -138.637 0.
-645.483 -1611.44 0.
-17.256 -42.8737 0.
-53.8676 -138.837 0.
-6.82012 -17.4601 0.
-684.121 -1847.62 0.
-0.447523 -26.9755 0.
3.03896 7.90548 0.
4.18668 10.9897 0.
1.87779 4.98103 0.
-1194.73 -3233.99 0.
-0.0440431 -17.9879 0.
-0.00126165 -15.2661 0.
-0.125559 -17.6255 0.
3.05887 8.01627 0.
-0.000788044 -0.344315 0.
3.40553 9.3669 0.
-83.6427 -221.509 0.
-2.05121 -5.32167 0.
0.32105 0.784776 0.
-0.0668828 -1.8775 0.
0.72425 1.93905 0.
-0.00101178 -0.189109 0.
0.0368386 0.86856 0.
0.0147331 0.87555 0.
-30.7452 -72.5899 0.
0.0155911 0.0602656 0.
-1.18733 -3.28054 0.
-5.87527 -8.76221 0.
-18.7576 -23.7817 0.
-42.682 -38.4603 0.
-33.1291 -15.5512 0.
-25.1548 -10.1967 0.
-95.8464 -239.991 0.
-0.989468 -0.398111 0.
-2.12305 -1.01812 0.
-93.1072 -158.338 0.
-85.6494 -137.585 0.
-13.5477 -9.99466 0.
-40.8226 -61.2328 0.
-95.6526 -218.265 0.
-43.715 -44.5111 0.
-35.7201 -25.5588 0.
-86.7647 -172.062 0.
-2.91074 -8.05504 0.
-11.4371 -31.5626 0.
-22.905 -62.838 0.
-8.54612 -17.4078 0.
-5.46692 -15.0955 0.
-24.3635 -58.1573 0.
-19.032 -48.8024 0.
-22.6758 -57.2802 0.
-14.1751 -38.2421 0.
-40.9723 -111.834 0.
-67.1695 -185.912 0.
-292.201 -341.107 0.
-188.877 -196.931 0.
-79.6647 -72.5293 0.
-0.0385778 -1.07621 0.
0.992035 2.72124 0.
-0.00248229 -5.7475 0.
0.235529 0.640237 0.
-0.230187 -9.6323 0.
2.1284 5.78766 0.
4.06411 11.2375 0.
6.27169 17.369 0.
-871.934 -2405.1 0.
14.8344 38.8369 0.
11.0962 29.883 0.
-7.81329 -20.4545 0.
-236.047 -621.104 0.
-41.4667 -102.534 0.
-185.493 -465.362 0.
-5.0835 -12.4638 0.
-185.761 -464.71 0.
-143.656 -335.765 0.
-7.73701 -17.7107 0.
-299.964 -757.104 0.
-361.306 -904.038 0.
20.4864 49.5954 0.
-254.791 -632.925 0.
-854.496 -2044.44 0.
-5.99647 -68.6696 0.
-4.40043 -10.347 0.
-4.0326 -9.71449 0.
-207.229 -542.148 0.
10.4476 25.8879 0.
-0.460646 -46.4133 0.
-191.329 -525.484 0.
-5.2722 -14.5932 0.
4.00876 9.55462 0.
-38.1475 -96.259 0.
-14.5153 -34.3764 0.
-404.974 -990.743 0.
12.7825 31.2892 0.
4.19488 9.98061 0.
-194.735 -452.449 0.
-703.803 -1669 0.
14.7377 32.9626 0.
-114.507 -270.128 0.
-74.5861 -184.629 0.
-230.805 -572.531 0.
-3.51943 -52.8356 0.
-581.397 -1407.4 0.
11.1927 28.2131 0.
12.2219 30.5059 0.
7.73195 20.2578 0.
-328.529 -849.642 0.
-377.558 -1010.73 0.
-7.21136 -19.0146 0.
-134.45 -370.326 0.
-9.885e-08 -11.1155 0.
6.49147 17.8705 0.
-0.239244 -15.3727 0.
-0.22612 -10.8088 0.
-1176.37 -3147.71 0.
-0.131114 -8.88787 0.
-1204.69 -3119.05 0.
-0.0930001 -2.20296 0.
-1431.69 -2704.57 0.
1.6509 3.61502 0.
1.56826 3.85476 0.
-1555.69 -4226.31 0.
-0.609922 -1.46073 0.
-1.07751 -2.72133 0.
-1360.27 -3592.78 0.
-0.0241373 -0.435628 0.
-1025.59 -2499.92 0.
-336.555 -839.662 0.
-25.5578 -64.6234 0.
-1023.69 -2703.62 0.
-267.01 -686.799 0.
-23.2125 -28.5111 0.
-711.366 -1932.17 0.
-330.715 -883.431 0.
-24.5103 -32.6973 0.
-508.928 -1346.69 0.
-406.156 -1080.34 0.
-91.836 -230.329 0.
-340.26 -919.419 0.
-555.575 -1513.3 0.
-29.5351 -42.437 0.
-323 -842.139 0.
-818.626 -2151.04 0.
-16.5338 -32.9191 0.
-241.046 -661.403 0.
-1131.72 -3072.19 0.
-7.78668 -18.9645 0.
-343.783 -796.759 0.
-1050.49 -2475.41 0.
-25.2595 -35.4445 0.
-1425.73 -3520.69 0.
0.00612742 0.207935 0.
-1.8281 -4.71286 0.
-1496.42 -3918.38 0.
-40.7534 -80.407 0.
-1100.75 -2049.07 0.
-516.143 -1409.68 0.
-27.5895 -74.7497 0.
-607.575 -1643.43 0.
-0.196946 -10.1963 0.
0.822778 2.26073 0.
-0.262145 -9.50497 0.
-0.0801678 -7.50131 0.
4.89076 13.4816 0.
0.16213 0.448492 0.
-189.117 -523.297 0.
8.53993 22.7151 0.
-308.205 -823.379 0.
-2.25096 -5.86801 0.
-1108.15 -2905.42 0.
12.5156 31.0369 0.
-85.7791 -215.755 0.
20.8672 51.5007 0.
-615.295 -1518.12 0.
-443.882 -1038.91 0.
26.7751 61.3914 0.
-0.573036 -1.36257 0.
-195.278 -487.425 0.
20.3116 49.0908 0.
-3.11488 -7.35858 0.
-290.719 -699.191 0.
19.0595 44.1147 0.
28.5491 67.4276 0.
2.15947 4.85304 0.
-10.6965 -26.6022 0.
17.9092 45.1353 0.
-79.5409 -216.694 0.
14.1554 37.8349 0.
17.1731 39.2329 0.
-2.79096 -48.2827 0.
-123.976 -318.942 0.
-546.059 -1299.46 0.
-68.7713 -169.073 0.
-12.6321 -29.1292 0.
3.18189 7.55275 0.
-790.595 -1840.46 0.
1.60678 3.70094 0.
16.0071 35.798 0.
-648.229 -1454.4 0.
-138.537 -341.383 0.
3.27895 7.74587 0.
-6.39142 -15.21 0.
-116.104 -279.3 0.
-269.216 -667.249 0.
-2.07526 -5.03936 0.
-278.906 -725.241 0.
-110.921 -287.098 0.
-420.925 -1119.78 0.
-0.886663 -2.32405 0.
3.86714 10.71 0.
8.35852 23.1037 0.
-887.307 -2441.43 0.
-4.02709 -11.094 0.
-177.411 -488.089 0.
-63.9402 -176.703 0.
-0.0204394 -8.9892 0.
2.57389 5.92927 0.
0.0354858 1.38137 0.
-0.565228 -4.29581 0.
-0.122802 -1.54201 0.
-0.0413835 -1.16877 0.
-39.4005 -90.0444 0.
0.386135 0.931623 0.
0.0758838 0.192033 0.
-0.0138569 -0.0371041 0.
1.5703e-08 0.0679208 0.
-67.374 -180.697 0.
-11.9158 -32.3677 0.
-3.80266 -9.1905 0.
-199.803 -532.395 0.
-14.0615 -22.563 0.
-14.0573 -24.2395 0.
-293.268 -772.385 0.
-26.191 -26.3953 0.
-19.3374 -21.9293 0.
-221.046 -608.615 0.
-143.623 -387.349 0.
-8.45195 -7.94003 0.
-61.4874 -156.435 0.
-245.249 -666.825 0.
-19.5624 -43.5886 0.
-21.7146 -44.0875 0.
-198.457 -503.448 0.
-29.7857 -55.1365 0.
-31.1247 -60.603 0.
-230.441 -619.657 0.
-5.38851 -14.4196 0.
-20.4576 -52.4056 0.
-41.3782 -105.47 0.
-8.20668 -11.5558 0.
-0.457091 -0.712812 0.
0.450621 0.85985 0.
-0.000239006 -0.182521 0.
0.000296881 1.41999 0.
0.0162678 1.31577 0.
-100.85 -243.978 0.
-16.3878 -44.5933 0.
-1.35255 -3.64215 0.
-45.7049 -121.57 0.
4.76586 13.0064 0.
-1377.16 -3634.13 0.
1.61178 4.41941 0.
-0.020904 -23.8259 0.
-1120.05 -3101.64 0.
9.66044 26.5929 0.
-1.07542 -2.9785 0.
-0.724209 -34.3368 0.
-507.293 -1343.93 0.
-1.90635 -4.89963 0.
-8.00906 -20.7185 0.
14.2948 35.5474 0.
-559.61 -1411.78 0.
6.32541 15.5081 0.
17.9777 43.4715 0.
-144.887 -339.928 0.
-109.352 -251.201 0.
10.4607 24.7791 0.
-13.5345 -31.646 0.
-711.729 -1717.97 0.
21.7875 51.3881 0.
9.95095 22.5782 0.
3.13815 7.32118 0.
-535.818 -1272.03 0.
8.99862 20.3099 0.
-112.763 -282.909 0.
-1.15824 -2.81737 0.
-57.1185 -155.926 0.
-0.71071 -50.5469 0.
-2.71745 -35.0569 0.
-354.551 -884.777 0.
-63.1903 -146.2 0.
2.33638 5.16432 0.
-12.4182 -28.8225 0.
-503.204 -1158.08 0.
-78.8241 -186.664 0.
17.9605 39.5498 0.
20.5391 47.223 0.
-297.751 -665.524 0.
-116.042 -260.208 0.
-25.401 -60.0712 0.
-273.155 -643.11 0.
-367.81 -868.662 0.
-10.1523 -24.2825 0.
-189.908 -465.009 0.
8.74683 21.1059 0.
-119.359 -310.41 0.
-50.7829 -131.411 0.
-349.027 -923.192 0.
-101.461 -267.924 0.
-798.12 -2209.79 0.
1.86761 5.11611 0.
3.41376 9.43217 0.
3.18713 8.79406 0.
-177.187 -488.477 0.
-1.00662 -2.75638 0.
-0.436783 -14.2636 0.
-0.105992 -1.74137 0.
-0.102144 -5.79052 0.
-108.144 -299.54 0.
-1152.73 -3027.95 0.
1.09118 2.89646 0.
-1021.36 -2747.76 0.
-20.4447 -48.4348 0.
-7.26659 -17.9918 0.
-1236.31 -3254.94 0.
-0.00196134 -0.265152 0.
-926.507 -2212.57 0.
-243.34 -591.218 0.
-20.5248 -56.7409 0.
-1022.38 -2808.42 0.
-109.72 -303.695 0.
-9.27577 -13.6876 0.
-834.063 -2195.32 0.
-313.874 -816.1 0.
-29.3753 -25.3225 0.
-578.955 -1588.91 0.
-455.782 -1259.88 0.
-47.367 -103.552 0.
-362.171 -990.712 0.
-689.575 -1890.31 0.
-12.4975 -32.191 0.
-231.445 -636.092 0.
-926.393 -2498 0.
-34.4126 -68.1822 0.
-25.9182 -39.0911 0.
-948.088 -2524.39 0.
-108.406 -264.533 0.
-1241.28 -2862.81 0.
-0.000202122 -0.000691846 0.
-53.7563 -97.9683 0.
-1305.83 -3404.14 0.
-76.1415 -184.336 0.
-48.0391 -108.248 0.
-1097.73 -2185.39 0.
1.77896 4.92691 0.
-1218.12 -3373.74 0.
-2.63093 -7.12803 0.
-17.7942 -47.6555 0.
-102.049 -270.136 0.
-0.00825916 -8.68615 0.
-52.9514 -142.911 0.
-0.190584 -24.6596 0.
-1.44122 -3.96608 0.
2.39141 6.54403 0.
-4.19047 -11.4833 0.
-339.648 -932.771 0.
6.34349 16.5698 0.
-326.123 -856.752 0.
14.9693 38.2549 0.
5.9807 15.3879 0.
2.2796 5.53461 0.
-297.771 -752.639 0.
-14.5581 -35.4466 0.
-3.51842 -53.9465 0.
-5.70807 -55.7949 0.
-33.348 -76.7931 0.
-291.798 -688.54 0.
6.32646 14.735 0.
17.4305 39.2162 0.
-257.55 -606.52 0.
-223.975 -509.027 0.
6.77123 14.8098 0.
11.9287 26.6472 0.
-16.2294 -36.8081 0.
-351.176 -889.746 0.
6.79888 16.6903 0.
9.72209 23.1038 0.
-405.157 -1085.31 0.
-2.83216 -44.7357 0.
19.7237 47.2054 0.
9.45561 19.9741 0.
-35.1962 -78.1854 0.
-10.2774 -22.8791 0.
-377.986 -866.711 0.
22.9465 48.2428 0.
20.67 45.3855 0.
-222.325 -509.724 0.
-251.675 -562.366 0.
-7.09072 -15.4299 0.
-84.7242 -199.569 0.
-522.576 -1225.99 0.
-142.289 -334.006 0.
-11.107 -26.5098 0.
-178.175 -433.59 0.
14.9888 35.9363 0.
-539.127 -1403.57 0.
6.77269 17.5149 0.
-73.6087 -195.639 0.
-31.574 -83.5246 0.
-197.512 -544.078 0.
3.28712 8.88181 0.
-2.32502 -6.4305 0.
-3.45989 -9.55912 0.
4.84315 13.413 0.
-658.589 -1798.51 0.
-2.47016 -6.66613 0.
-1071.88 -2747.73 0.
2.94286 8.06654 0.
-0.0238675 -9.64894 0.
-0.033367 -5.23339 0.
1.23231 3.40535 0.
-17.3062 -41.6256 0.
-0.067523 -1.32458 0.
0.723598 1.87536 0.
0.000499815 0.519449 0.
-0.00601552 -0.373192 0.
-0.00387951 -0.0772018 0.
0.0201516 0.0482075 0.
-0.0068132 -0.015952 0.
-194.484 -538.564 0.
0.0672972 0.11174 0.
0.0198087 0.0374877 0.
-79.5249 -218.243 0.
-3.88819 -6.65575 0.
-5.78947 -5.63874 0.
-77.5252 -193.357 0.
-30.3473 -51.5103 0.
-14.9341 -39.778 0.
-13.7282 -36.8825 0.
-76.6195 -206.345 0.
-14.6362 -40.4711 0.
-14.1831 -39.2304 0.
-67.0092 -175.808 0.
-24.8345 -49.4766 0.
-14.5619 -17.2792 0.
-4.09146 -6.27857 0.
0.0257327 0.0321148 0.
-312.086 -842.374 0.
0.00600879 2.3673 0.
-0.0183554 -0.498238 0.
-46.216 -107.591 0.
-41.4652 -102.345 0.
-12.6081 -29.9168 0.
-2.10636 -4.77507 0.
-0.0756288 -7.53592 0.
-1.70741 -4.66595 0.
2.63058 7.21648 0.
-20.4955 -56.6353 0.
-985.191 -2644.5 0.
-0.000284951 -19.8273 0.
-161.971 -444.164 0.
-0.274679 -23.1484 0.
5.97246 16.3338 0.
8.54664 23.1304 0.
10.8846 29.5501 0.
-479.925 -1308.36 0.
-6.69643 -16.9571 0.
-25.0371 -65.241 0.
-10.2327 -25.9925 0.
-725.287 -1853.58 0.
5.59249 13.4567 0.
-1.85086 -4.41167 0.
-321.969 -778.367 0.
-487.061 -1160.94 0.
25.3576 56.0613 0.
17.1876 37.3814 0.
-416.961 -979.956 0.
-177.049 -410.688 0.
-8.81672 -19.8761 0.
-5.84547 -52.0817 0.
-440.438 -1002.66 0.
18.8723 41.3274 0.
-306.437 -696.029 0.
-4.24025 -9.04293 0.
8.91363 21.3358 0.
-30.3782 -75.3026 0.
-10.7981 -25.9138 0.
5.40242 14.4541 0.
20.8172 48.6491 0.
-32.2511 -77.1397 0.
15.9941 33.9306 0.
-858.961 -1917.7 0.
-107.633 -238.771 0.
-10.5103 -22.0462 0.
12.2073 25.5649 0.
-841.768 -1839.89 0.
19.3877 43.2314 0.
16.3619 34.6027 0.
-208.834 -453.887 0.
-350.85 -822.76 0.
-274.95 -642.002 0.
13.9504 32.5417 0.
9.8577 23.2915 0.
-710.684 -1725.16 0.
-149.76 -357.371 0.
-7.38864 -18.9438 0.
-5.1399 -13.1496 0.
-578.083 -1533.83 0.
-0.690977 -36.1351 0.
-9.72508 -26.5467 0.
12.5593 33.3831 0.
-28.9638 -79.1778 0.
-630.778 -1744.05 0.
-0.0264086 -19.8333 0.
4.75874 12.9483 0.
3.7404 10.0186 0.
4.54972 12.2924 0.
0.316809 0.876929 0.
2.02616 5.51029 0.
0.549531 1.52201 0.
2.66636 7.33546 0.
-0.0366487 -0.676098 0.
0.810236 2.0763 0.
-0.0289318 -1.68512 0.
-0.00141737 -0.323362 0.
0.0327026 1.3256 0.
1.3206 3.19321 0.
-0.0106489 -0.126881 0.
-0.0163444 -0.172777 0.
-0.0388514 -0.0920403 0.
-0.0144278 -0.135002 0.
0.00136997 0.00250534 0.
0.094897 0.10776 0.
0.266775 0.0154201 0.
0.120667 0.0158252 0.
-35.3771 -31.8317 0.
-40.5397 -42.9315 0.
-16.8459 -43.408 0.
-14.6622 -37.6235 0.
-14.9365 -38.1828 0.
-18.6471 -51.3048 0.
-19.5914 -54.1191 0.
-23.4148 -64.649 0.
-35.4271 -59.6262 0.
-22.7097 -31.0564 0.
-15.8234 -20.2411 0.
0.0251617 0.0284146 0.
-0.414697 -0.302797 0.
0.197621 3.64342 0.
-8.22835e-07 -0.0848959 0.
1.04192 2.78669 0.
-11.928 -30.7963 0.
1.21165 3.03653 0.
0.190516 0.455558 0.
0.507535 1.28462 0.
-60.9557 -159.419 0.
3.38494 9.28226 0.
-2.39113 -6.61728 0.
-2.91634 -7.88883 0.
6.84108 18.7835 0.
-273.673 -757.186 0.
-122.281 -330.401 0.
-834.956 -2263.55 0.
9.97396 26.6097 0.
11.495 30.8337 0.
-266.872 -719.913 0.
3.21161 8.09065 0.
-436.039 -1103.07 0.
2.91204 7.10789 0.
-107.76 -274.027 0.
-60.3118 -143.777 0.
-290.984 -687.526 0.
2.59421 5.80554 0.
-18.1429 -42.9045 0.
-654.389 -1427.1 0.
13.422 28.8203 0.
21.4526 47.5188 0.
-28.8637 -66.6782 0.
-341.347 -770.564 0.
-4.98407 -10.9832 0.
-9.30531 -19.6861 0.
-55.1372 -120.958 0.
-204.417 -472.897 0.
-233.807 -507.667 0.
29.7976 60.5109 0.
-1.96109 -4.5477 0.
9.19486 20.4302 0.
-71.0241 -191.133 0.
3.25948 7.61032 0.
-475.724 -1135.75 0.
-330.529 -704.809 0.
-9.24707 -19.3087 0.
-7.78957 -48.7016 0.
-564.607 -1182.6 0.
-119.763 -249.818 0.
1.41848 2.8494 0.
-11.3023 -23.2263 0.
-390.327 -823.954 0.
-238.315 -517.876 0.
-7.37056 -16.8167 0.
-12.6812 -29.2471 0.
-35.3683 -81.6034 0.
-451.179 -1052 0.
-29.0929 -69.803 0.
-3.41936 -40.4691 0.
-6.91195 -17.5927 0.
-3.81401 -9.68284 0.
-140.01 -372.827 0.
9.03733 23.9589 0.
-101.952 -275.021 0.
6.07736 16.4934 0.
0.30247 0.825332 0.
-321.11 -889.041 0.
4.8525 13.2682 0.
-0.158477 -15.823 0.
3.19421 8.49145 0.
4.20194 11.5355 0.
-0.012278 -15.4716 0.
5.19809 14.3902 0.
-1063.81 -2944.41 0.
3.49482 8.84771 0.
-873.316 -1922.63 0.
-18.3211 -41.4801 0.
-96.2056 -213.315 0.
-1021.67 -2755.86 0.
-0.000122399 -0.386197 0.
-0.0104654 -1.03333 0.
-1365.31 -3521.86 0.
-0.00492908 -0.124099 0.
-834.311 -2221.39 0.
-8.44068 -23.3247 0.
-6.57657 -16.6728 0.
-880.911 -2384.47 0.
-127.971 -343.702 0.
0.0118197 0.151626 0.
-597.059 -1567.77 0.
-448.241 -1187.01 0.
-4.39187 -6.18585 0.
-249.308 -688.356 0.
-771.568 -2121.66 0.
-6.64008 -14.6725 0.
-77.397 -163.367 0.
-953.749 -2568.75 0.
-15.0273 -38.6865 0.
-32.6148 -77.5176 0.
-1206.36 -2785.44 0.
-0.205911 -0.417542 0.
-1079.99 -2766.3 0.
-0.00470805 -2.9276 0.
0.959643 2.63409 0.
-1123.35 -3023.5 0.
-0.0982443 -0.263946 0.
-60.5041 -149.742 0.
-948.646 -2211.18 0.
3.10296 8.48166 0.
-735.396 -2006.1 0.
-0.251736 -17.0452 0.
5.12568 14.1937 0.
-1.84293 -5.02082 0.
4.58864 12.3448 0.
-291.398 -798.151 0.
-7.81858 -21.2543 0.
-198.238 -541.313 0.
5.57467 14.7131 0.
-103.274 -275.638 0.
13.485 33.6407 0.
-11.1991 -28.0638 0.
-391.316 -985.444 0.
-8.77771 -21.2901 0.
-0.70618 -1.7103 0.
-232.362 -548.499 0.
-582.456 -1362.59 0.
-124.179 -277.642 0.
8.77854 19.3236 0.
-6.4328 -12.9929 0.
-261.45 -553.409 0.
-5.2965 -47.4071 0.
3.95739 8.60977 0.
-12.5326 -26.7744 0.
-336.653 -743.04 0.
-214.463 -454.37 0.
-12.337 -24.8632 0.
11.7865 22.6258 0.
-132.534 -293.629 0.
-2.45116 -5.07064 0.
-46.9427 -109.863 0.
11.1203 24.9058 0.
12.9583 35.0846 0.
6.30595 14.1005 0.
16.9915 39.5738 0.
5.27775 10.7213 0.
-175.009 -362.037 0.
-8.24158 -50.938 0.
-561.789 -1174.7 0.
-3.75935 -7.25864 0.
15.4947 31.1434 0.
0.962493 1.9771 0.
-73.1788 -154.625 0.
-7.81292 -53.5016 0.
-3.7097 -8.38211 0.
-209.607 -478.501 0.
-501.833 -1141.39 0.
-14.7498 -31.5609 0.
20.2659 45.947 0.
13.0707 30.2196 0.
-631.378 -1596.23 0.
-173.209 -436.273 0.
-24.6022 -63.3658 0.
-3.97085 -10.2085 0.
-487.041 -1308.71 0.
-72.0682 -195.118 0.
-66.3257 -180.618 0.
-23.7252 -65.399 0.
-0.187801 -17.2443 0.
-788.33 -2179.6 0.
-0.182599 -20.2823 0.
-636.643 -1752.04 0.
-0.00352776 -15.9699 0.
1.07983 2.98592 0.
-0.047491 -4.55735 0.
-0.707249 -9.68778 0.
-0.642713 -0.120595 0.
-49.9196 -61.2474 0.
-164.79 -271.217 0.
-0.000735019 -1.42041 0.
0.843737 2.29751 0.
-0.0393563 -1.35894 0.
-1.44211 -3.68449 0.
-0.00246209 -0.930448 0.
7.21182e-06 0.198716 0.
-0.00139478 -0.0699527 0.
-0.0319511 -0.410572 0.
-0.0128436 -0.282067 0.
0.0262662 0.136983 0.
0.0125665 0.184572 0.
-27.9726 -23.0605 0.
-19.5582 -7.1366 0.
-11.4501 -21.0976 0.
-6.42844 -11.9251 0.
-15.3779 -27.9031 0.
-7.96804 -4.63287 0.
-10.7029 -12.0749 0.
-17.498 -31.2017 0.
-3.65351e-05 -0.0152302 0.
-14.4612 -39.8472 0.
-39.5115 -107.063 0.
0.225493 0.552038 0.
-0.299697 -0.663264 0.
-4.46564e-05 -1.58865 0.
-0.00106841 -2.78831 0.
-0.22138 -0.610826 0.
1.33805 3.65824 0.
-0.0713373 -2.95973 0.
-89.2248 -220.775 0.
-0.054065 -11.1175 0.
3.94089 10.8654 0.
-0.000362275 -0.330996 0.
-865.044 -2376.87 0.
-54.65 -146.993 0.
-204.593 -556.233 0.
-295.791 -795.918 0.
3.57176 9.7535 0.
-0.116005 -28.0707 0.
2.58001 6.73885 0.
-92.9674 -245.901 0.
-3.28302 -8.32325 0.
-13.5535 -34.2667 0.
-110.032 -275.544 0.
-194.888 -469.51 0.
-322.78 -775.731 0.
6.84251 15.3557 0.
-3.61197 -8.0493 0.
-290.902 -649.908 0.
-144.763 -318.483 0.
3.65461 7.39263 0.
-12.7686 -25.3815 0.
-390.27 -852.444 0.
-60.4456 -130.614 0.
-114.634 -244.287 0.
-10.519 -21.5214 0.
6.11243 13.2091 0.
-521.074 -1049.65 0.
-7.32547 -14.0463 0.
-9.16174 -18.8253 0.
-7.94939 -15.8178 0.
-7.52913 -17.1557 0.
-7.99027 -18.0579 0.
18.8894 40.9515 0.
16.8238 38.0866 0.
-384.736 -907.779 0.
-37.9469 -76.3411 0.
-290.053 -594.057 0.
-13.9725 -28.1981 0.
-9.21456 -17.8453 0.
-12.4979 -24.1274 0.
-731.74 -1465.84 0.
11.8312 24.2966 0.
3.783 7.43755 0.
-27.449 -57.0196 0.
-296.221 -662.098 0.
-462.223 -1043.65 0.
-2.06237 -4.33964 0.
-125.4 -266.184 0.
-272.091 -616.894 0.
-324.52 -749.262 0.
-107.127 -258.163 0.
-53.1181 -128.446 0.
-492.056 -1251.27 0.
-8.74057 -22.1891 0.
-43.2969 -109.615 0.
-310.638 -838.293 0.
7.43567 20.0509 0.
-333.007 -915.382 0.
3.29917 9.06137 0.
-50.1166 -138.103 0.
2.7446 7.38587 0.
-0.795201 -24.8284 0.
-7.58287e-05 -8.05085 0.
1.79968 4.96884 0.
4.88619 12.7012 0.
0.491542 5.13077 0.
-0.605505 -0.123055 0.
-150.186 -135.189 0.
-519.895 -962.6 0.
-799.428 -2206.37 0.
-0.0532229 -1.30591 0.
0.1528 2.31745 0.
-836.512 -2117.56 0.
-0.0106045 -1.38167 0.
-915.669 -2225.37 0.
-35.9951 -99.2832 0.
-8.18436 -20.9435 0.
-811.519 -2203.41 0.
-38.479 -93.7993 0.
-0.0208837 -0.417421 0.
-551.672 -1474.78 0.
-396.426 -1043.61 0.
-7.19241 -6.9725 0.
-162.626 -384.118 0.
-774.033 -2099.47 0.
-0.00474523 -3.42447e-05 0.
-19.6091 -14.3856 0.
-1001.12 -2588.73 0.
-2.20425 -5.66146 0.
-0.0100031 -0.14366 0.
-930.917 -1989.37 0.
0.669657 1.84649 0.
-946.494 -2590.93 0.
-0.27969 -0.769111 0.
-24.4048 -67.5966 0.
-615.759 -1702.59 0.
1.18959 3.27943 0.
-0.0532125 -3.74717 0.
-0.0777933 -2.95449 0.
0.00197385 0.447497 0.
-0.000190963 -0.194211 0.
6.98143 19.2313 0.
-8.2791 -22.9308 0.
4.52374 12.1568 0.
-0.199377 -25.2361 0.
-259.976 -712.881 0.
-2.57315 -7.07378 0.
-149.066 -410.541 0.
-3.87571 -10.0127 0.
-281.097 -735.945 0.
-107.024 -270.984 0.
-76.1189 -192.227 0.
-40.912 -98.8296 0.
4.65218 11.1349 0.
-186.981 -446.75 0.
-171.945 -385.027 0.
4.32707 9.6261 0.
12.8359 27.4353 0.
-15.9406 -35.0083 0.
-875.865 -1772.25 0.
20.5087 40.836 0.
-0.265681 -0.550192 0.
-22.2238 -47.678 0.
-149.81 -318.488 0.
-34.1771 -69.6735 0.
5.78757 11.333 0.
-7.77474 -15.6907 0.
23.8208 45.6244 0.
-196.432 -402.844 0.
4.12549 8.19491 0.
-5.69045 -13.0767 0.
11.6821 26.0289 0.
2.66651 5.85278 0.
-214.716 -492.48 0.
-174.469 -417.29 0.
-99.6324 -198.311 0.
13.9254 26.8993 0.
0.229226 0.432174 0.
-218.846 -418.766 0.
-280.001 -539.676 0.
2.09625 3.80547 0.
-11.429 -52.0401 0.
-359.827 -706.969 0.
-201.629 -441.53 0.
-156.518 -346.027 0.
0.326992 0.687672 0.
-114.2 -238.273 0.
-798.762 -1679.61 0.
-73.2501 -165.86 0.
8.51837 18.8814 0.
-77.9112 -188.155 0.
-124.143 -300.86 0.
-129.855 -326.34 0.
-57.2993 -143.487 0.
-2.81156 -7.18135 0.
-100.514 -270.851 0.
-0.375415 -1.00379 0.
-118.758 -325.939 0.
7.77616 21.3059 0.
8.32711 22.8445 0.
9.65469 25.798 0.
7.40552 18.9339 0.
-466.799 -1263.64 0.
5.1262 14.0361 0.
-506.133 -1399.88 0.
-0.000270138 -16.9245 0.
-224.584 -621.784 0.
-294.216 -629.391 0.
-34.1527 -85.2944 0.
-29.8951 -74.3369 0.
-0.165134 -2.24523 0.
2.30159 5.07465 0.
0.0266586 0.44784 0.
-0.0144606 -0.876931 0.
-19.3445 -53.5785 0.
-0.00518578 -0.821226 0.
0.20902 0.530521 0.
-13.9755 -35.7272 0.
-0.0126292 -0.169757 0.
0.00794943 0.0876684 0.
-16.2327 -25.8713 0.
-5.00247 -4.15065 0.
-9.37353 -8.80127 0.
-1.86014 -0.846899 0.
-0.138217 -0.0519668 0.
0.139351 0.0154728 0.
-11.7684 -8.9601 0.
-34.8169 -55.9881 0.
-9.86368 -23.9247 0.
-7.07195 -13.4702 0.
-16.4855 -29.5746 0.
0.00242773 0.354891 0.
0.516988 1.43036 0.
-0.032436 -2.74077 0.
-9.49866 -26.1598 0.
-38.0447 -105.369 0.
1.00267 2.75845 0.
-980.539 -2537.14 0.
1.0515 2.89903 0.
-3.59917 -9.91413 0.
-618.901 -1703.05 0.
0.17865 0.492617 0.
-25.7635 -70.6569 0.
10.3957 27.8969 0.
-0.178889 -21.0135 0.
-151.608 -415.393 0.
10.8994 29.8098 0.
-283.091 -776.307 0.
-14.2244 -36.6372 0.
-9.07802 -23.514 0.
-367.544 -928.36 0.
-199.795 -503.799 0.
-246.999 -592.967 0.
-18.7975 -45.2561 0.
-18.0645 -43.6679 0.
-48.6649 -108.803 0.
-460.269 -1021.98 0.
-310.506 -661.251 0.
1.10679 2.30543 0.
-99.7003 -202.337 0.
-145.804 -290.827 0.
-12.3707 -25.3974 0.
-8.90051 -17.7179 0.
29.2174 56.5124 0.
-698.623 -1416.94 0.
11.1828 21.7856 0.
-48.8024 -89.4252 0.
-13.0532 -23.1596 0.
2.63373 5.40142 0.
-3.11511 -6.17539 0.
-126.854 -294.189 0.
-8.71509 -19.5875 0.
11.3332 23.9269 0.
-4.5637 -10.0567 0.
10.6202 19.395 0.
7.56138 14.2554 0.
-245.437 -477.727 0.
-111.577 -207.783 0.
-111.917 -211.493 0.
-14.4216 -25.6685 0.
-33.4847 -60.3006 0.
20.4151 37.8192 0.
-514.148 -1009.68 0.
6.33997 12.4625 0.
19.4617 39.4731 0.
12.4159 26.01 0.
-414.882 -857.427 0.
-111.9 -233.882 0.
17.8615 38.9209 0.
-304.693 -676.703 0.
-164.188 -397.464 0.
-53.8478 -130.794 0.
-1.2441 -3.13465 0.
4.1903 10.6174 0.
-12.89 -32.8447 0.
-250.012 -668.119 0.
-4.94181 -13.0908 0.
8.00858 21.9282 0.
-0.151886 -26.7148 0.
-358.395 -975.672 0.
-107.479 -292.813 0.
-119.137 -324.722 0.
-77.3507 -212.275 0.
1.04462 2.88605 0.
3.67864 10.1846 0.
3.59732 9.96389 0.
2.71154 7.50519 0.
-18.0551 -46.6279 0.
3.07784 8.5217 0.
0.130638 0.305315 0.
1.68844 3.7244 0.
-0.586937 -3.69484 0.
0.112705 1.77061 0.
-0.00719036 -0.295603 0.
-5.10099 -14.0961 0.
0.40677 1.09482 0.
0.443194 1.11402 0.
-1.1004 -2.55536 0.
-0.0268715 -0.253474 0.
0.105298 0.228476 0.
-9.47418 -22.1131 0.
-2.10468 -3.00222 0.
-17.372 -17.5385 0.
-8.55219 -5.81815 0.
-1.35912 -0.646504 0.
0.131169 0.0361187 0.
-10.0422 -8.42804 0.
-35.2333 -63.0164 0.
-24.6725 -43.1547 0.
-19.6636 -31.3364 0.
-23.6585 -37.1596 0.
-0.0845505 -3.1423 0.
-0.0108726 -2.93438 0.
-0.0711763 -3.06817 0.
0.621417 1.68728 0.
-25.4871 -70.2635 0.
4.35566 12.0638 0.
0.844579 2.27732 0.
-0.00335226 -11.8293 0.
0.573816 1.58735 0.
-10.2851 -28.4323 0.
-2.93551 -8.07438 0.
-294.818 -816.501 0.
-0.045748 -0.125666 0.
-9.70065 -26.6668 0.
-0.400569 -1.08514 0.
-0.226723 -28.4697 0.
-286.443 -780.815 0.
-9.2231 -23.7249 0.
-13.43 -34.7407 0.
13.7355 34.4981 0.
1.90041 4.78854 0.
-264.18 -629.798 0.
-266.752 -638.321 0.
-45.4501 -109.086 0.
14.2077 31.8055 0.
6.66407 14.7718 0.
-336.369 -712.92 0.
3.60376 7.47209 0.
6.0403 11.487 0.
24.7939 46.1004 0.
-484.744 -989.421 0.
-366.8 -724.03 0.
-4.46201 -8.54214 0.
22.2392 41.1909 0.
16.2603 31.5038 0.
-353.689 -648.008 0.
-13.3029 -23.5829 0.
-159.272 -306.051 0.
-8.71193 -16.2213 0.
-2.67288 -24.886 0.
0.465615 0.985368 0.
4.27392 9.01998 0.
0.49788 1.09908 0.
1.66519 3.06412 0.
-388.232 -737.39 0.
-237.553 -447.923 0.
8.16615 14.0393 0.
8.79512 15.4796 0.
1.50697 2.66079 0.
-462.868 -826.216 0.
-10.2951 -19.0082 0.
20.3725 36.1945 0.
-9.43361 -18.4492 0.
-230.67 -465.946 0.
-405.608 -847.516 0.
-12.0341 -23.4556 0.
-6.06805 -12.0866 0.
-7.68964 -16.7991 0.
-516.168 -1149.43 0.
-41.4632 -100.592 0.
11.4427 27.8984 0.
13.4284 32.8703 0.
-111.17 -280.95 0.
-115.007 -292.291 0.
-181.405 -480.564 0.
-1.32377 -3.42288 0.
-159.011 -431.311 0.
0.292712 0.792849 0.
-47.4821 -128.525 0.
-13.3737 -36.361 0.
-33.8396 -92.0483 0.
-1.88574 -5.21151 0.
8.10225 22.4418 0.
-1.71104 -4.73845 0.
-0.000607204 -14.4403 0.
2.91834 7.98298 0.
-848.286 -2278.75 0.
1.35618 3.74373 0.
-553.099 -1403.43 0.
-7.51352 -20.3478 0.
-12.0211 -33.2719 0.
-736.65 -1874.18 0.
0.292999 0.80922 0.
-759.542 -1886.28 0.
-1.42467 -3.35436 0.
0.444651 1.0263 0.
-750.259 -2011.73 0.
-18.5039 -48.514 0.
-0.00139345 -0.0896546 0.
-416.683 -1150.47 0.
-341.146 -936.841 0.
-54.0662 -126.759 0.
-80.2583 -161.088 0.
-664.674 -1747.25 0.
-17.9995 -32.1884 0.
-3.24824 -5.90945 0.
-820.708 -2200.42 0.
0.0383707 0.106056 0.
-22.9433 -54.2265 0.
-820.609 -1626.52 0.
-0.00545382 -4.19014 0.
-743.823 -2060.12 0.
0.990035 2.73425 0.
0.375469 1.00767 0.
-726.146 -1589.36 0.
-0.00105732 -2.51151 0.
-458.79 -1266.15 0.
0.240044 0.664725 0.
-2.84711 -7.88595 0.
-14.9649 -41.447 0.
-0.069505 -17.3086 0.
-0.425318 -1.17695 0.
-4.47556 -12.2494 0.
-116.724 -319.842 0.
-22.5449 -61.3646 0.
-12.933 -35.201 0.
-72.1703 -195.389 0.
-121.408 -312.066 0.
-300.528 -776.57 0.
6.90305 17.2707 0.
-77.5826 -194.671 0.
-10.3311 -24.4971 0.
-42.953 -101.872 0.
-77.9843 -185.813 0.
-404.012 -908.349 0.
7.08927 15.3446 0.
2.01116 4.07174 0.
-254.787 -525.72 0.
-690.964 -1305.88 0.
11.7441 21.7419 0.
19.9316 36.8004 0.
-42.15 -82.2047 0.
4.38853 8.30801 0.
-94.7472 -172.08 0.
-3.4498 -6.14645 0.
6.16444 10.6498 0.
-82.0215 -145.309 0.
-268.854 -520.538 0.
17.954 33.6408 0.
-7.8304 -14.2159 0.
-2.75423 -23.2876 0.
-4.64068 -9.79269 0.
-206.376 -455.918 0.
-5.06882 -9.40444 0.
17.8002 31.4864 0.
11.5675 19.399 0.
-130.63 -224.088 0.
-166.508 -292.4 0.
-2.06169 -3.60921 0.
-11.2895 -35.733 0.
-9.86687 -34.131 0.
-443.659 -781.488 0.
3.0767 5.98515 0.
-6.44352 -12.9439 0.
-7.87536 -15.404 0.
-8.50786 -16.5245 0.
-574.065 -1136.12 0.
-141.018 -308.868 0.
11.6462 25.8611 0.
-3.60862 -8.68908 0.
-112.311 -271.262 0.
-260.938 -632.638 0.
-394.754 -994.518 0.
10.1334 24.9389 0.
-6.5187 -16.8334 0.
3.56309 9.21208 0.
-270.041 -730.951 0.
-3.35046 -9.0523 0.
6.98795 18.8611 0.
-63.0197 -170.897 0.
-0.0420592 -0.114147 0.
-487.904 -1348.72 0.
4.51689 12.4608 0.
-363.269 -1006.19 0.
-0.0224232 -16.9873 0.
-0.0928979 -17.0663 0.
-0.643826 -1.78327 0.
-0.0188262 -10.0714 0.
2.267 5.84953 0.
0.279655 0.755642 0.
1.58619 4.38305 0.
-0.0178452 -5.63996 0.
-0.0232094 -5.03303 0.
-5.71391 -12.335 0.
0.0793314 0.164477 0.
0.472179 0.919423 0.
-7.53184 -20.6026 0.
0.159555 0.380234 0.
0.0983997 0.245796 0.
0.0912955 0.252872 0.
-0.0249151 -0.287481 0.
-9.2482 -4.60391 0.
-16.5528 -17.437 0.
-24.8292 -37.293 0.
-8.42694 -18.8119 0.
-0.0118409 -0.155938 0.
-36.0344 -99.719 0.
-0.0115973 -1.29449 0.
-0.00650678 -0.701805 0.
-20.4224 -51.3517 0.
0.533474 1.43619 0.
-0.694979 -1.90327 0.
-0.00571622 -10.3066 0.
-0.0123676 -1.31472 0.
1.55728 3.89208 0.
-0.0340445 -7.63143 0.
1.21509 3.35508 0.
-239.001 -658.325 0.
-177.081 -490.365 0.
-197.381 -538.523 0.
9.4113 25.7204 0.
-36.8614 -101.883 0.
4.30545 11.7336 0.
-321.937 -878.564 0.
-45.1635 -122.557 0.
-34.0672 -92.4481 0.
-117.782 -319.568 0.
11.4822 29.6194 0.
7.67331 19.8324 0.
-174.979 -435.906 0.
-223.747 -559.037 0.
3.98013 9.43174 0.
9.77567 22.7236 0.
8.2322 18.7639 0.
-225.726 -510.427 0.
4.66087 10.1391 0.
-206.253 -413.602 0.
12.8304 25.346 0.
7.63058 14.3917 0.
-1.03049 -1.89936 0.
25.9473 46.7843 0.
13.4397 23.5353 0.
-3.12325 -5.26559 0.
-356.914 -633.933 0.
-109.349 -190.803 0.
-75.2263 -130.121 0.
15.4212 26.1724 0.
-8.80164 -14.6619 0.
-8.40017 -15.8489 0.
-7.69069 -33.1195 0.
-11.0954 -24.8571 0.
12.44 24.5571 0.
-36.1119 -73.4207 0.
-11.4557 -19.5277 0.
5.47326 9.55737 0.
26.7865 44.8262 0.
-312.563 -534.508 0.
-10.3383 -16.7135 0.
-11.3287 -33.521 0.
-3.60257 -5.84619 0.
-8.59307 -14.4259 0.
-398.529 -693.687 0.
9.0443 16.2851 0.
-1.77419 -3.32718 0.
-72.3221 -141.465 0.
-19.0036 -36.7684 0.
-58.1502 -114.989 0.
5.35308 11.6471 0.
-143.895 -320.545 0.
-1.91125 -4.55948 0.
-24.2916 -58.1369 0.
-15.6184 -37.5176 0.
-12.5197 -30.8372 0.
8.51784 20.968 0.
-231.851 -598.322 0.
-6.72676 -17.3889 0.
-20.4753 -55.2355 0.
5.82253 15.689 0.
0.76679 2.05553 0.
-125.929 -337.85 0.
3.74402 10.0013 0.
3.75929 10.3517 0.
2.80452 7.691 0.
2.19544 6.08072 0.
-1.31906 -3.64 0.
-0.0857106 -15.1976 0.
-0.479606 -1.31633 0.
3.3184 8.92473 0.
1.69583 4.39262 0.
0.403928 1.09011 0.
-0.0485431 -0.13392 0.
-510.571 -1406.31 0.
2.70484 7.32149 0.
-591.636 -1224.07 0.
-0.00186455 -0.737322 0.
0.164915 0.39903 0.
-614.854 -1646.96 0.
-26.4573 -65.5297 0.
-3.91953 -10.8551 0.
-292.951 -798.433 0.
-343.868 -952.21 0.
-41.708 -92.3884 0.
-34.759 -73.097 0.
-495.673 -1274.84 0.
-30.4082 -82.8749 0.
-27.5274 -65.7288 0.
-466.569 -1124.57 0.
-0.00451062 -0.493936 0.
-580.011 -1589.73 0.
2.46399 6.04252 0.
-122.211 -337.681 0.
-0.446497 -1.19166 0.
5.09462 14.1025 0.
-0.0707029 -9.66966 0.
-0.430216 -12.6691 0.
3.47383 9.15879 0.
4.22169 11.4115 0.
-9.03061 -24.8959 0.
-26.2492 -72.6982 0.
6.23061 16.9194 0.
-3.16347 -8.60402 0.
-258.463 -704.259 0.
-15.8004 -41.9746 0.
-124.712 -333.208 0.
-175.95 -475.932 0.
-129.105 -349.216 0.
-174.015 -447.586 0.
-9.60846 -24.761 0.
10.8278 27.9564 0.
-5.21489 -12.8439 0.
9.68551 24.1263 0.
-116.308 -275.158 0.
-35.5224 -82.4882 0.
6.53364 14.8753 0.
-2.16288 -4.78715 0.
11.0273 24.1191 0.
-462.899 -918.568 0.
17.3097 33.8525 0.
-5.83632 -10.5067 0.
3.41339 5.90305 0.
19.044 34.17 0.
-538.691 -931.582 0.
-12.0486 -39.1632 0.
8.36292 13.1707 0.
20.4189 32.1522 0.
-387.099 -670.416 0.
-189.073 -321.308 0.
-7.96037 -13.2727 0.
1.3825 2.5269 0.
-5.89718 -10.3951 0.
5.42999 12.2639 0.
-2.23561 -4.45674 0.
-77.0527 -158.252 0.
-27.8492 -46.7956 0.
-403.021 -692.286 0.
9.21648 15.3849 0.
17.3765 27.3784 0.
1.72155 2.6963 0.
-206.65 -326.913 0.
-425.649 -680.374 0.
18.3041 28.8863 0.
-0.107798 -0.172672 0.
2.39274 4.29716 0.
-384.062 -719.851 0.
-384.729 -752.657 0.
12.0948 22.8405 0.
-47.9921 -93.5908 0.
10.8392 23.6813 0.
-362.936 -810.422 0.
-51.7884 -122.306 0.
5.65829 13.2307 0.
-7.1018 -16.7137 0.
-11.1433 -27.4538 0.
-183.273 -450.949 0.
-150.574 -388.617 0.
-1.65499 -4.27773 0.
-69.979 -187.068 0.
9.46142 25.3377 0.
10.0681 27.0122 0.
-97.9684 -262.563 0.
6.6786 17.8174 0.
8.03152 21.9799 0.
3.88502 10.5674 0.
5.92876 16.0009 0.
-82.7011 -229.003 0.
4.7987 13.2898 0.
-414.323 -1145.87 0.
5.92161 16.3573 0.
-527.265 -1321.96 0.
-1.44935 -3.91587 0.
2.43834 6.74935 0.
-37.2495 -97.3918 0.
1.60241 4.02181 0.
0.52254 1.36551 0.
-6.23931e-05 -1.14959 0.
0.0368655 0.880944 0.
-12.9061 -33.9896 0.
0.000327862 0.0529775 0.
-2.93137 -8.01974 0.
0.0115767 0.37628 0.
3.13189e-05 0.137602 0.
-5.28251 -12.8737 0.
-5.47711 -15.1699 0.
-14.7495 -39.44 0.
-0.529316 -1.45789 0.
-2.08947 -5.77595 0.
-28.6951 -75.1355 0.
-0.0311782 -1.73045 0.
-0.00304754 -1.45526 0.
0.153887 2.5183 0.
2.73944 7.52062 0.
-259.501 -706.224 0.
2.55754 6.92965 0.
-736.335 -1936.13 0.
-1.49629 -4.06156 0.
-3.64788 -9.96829 0.
-333.622 -916.008 0.
1.90976 5.2829 0.
-0.343357 -0.950985 0.
-3.39007 -9.15066 0.
0.0605014 0.163648 0.
-49.4729 -134.107 0.
-7.63964 -20.2537 0.
-116.856 -311.589 0.
9.7978 26.0953 0.
-20.2988 -54.1046 0.
-4.8884 -12.5593 0.
-36.6448 -94.3312 0.
-73.6544 -189.984 0.
-310.744 -767.237 0.
-3.25205 -7.88055 0.
9.16212 20.6205 0.
-159.851 -370.403 0.
-319.961 -730.924 0.
-340.048 -758.271 0.
-3.61376 -7.86784 0.
-1.07766 -2.0684 0.
-149.844 -289.822 0.
-695.25 -1244.02 0.
-2.51346 -4.31355 0.
-8.49137 -27.1267 0.
-10.1596 -16.0436 0.
-156.917 -256.593 0.
-332.92 -515.545 0.
-4.0692 -6.30979 0.
-7.51274 -12.1535 0.
-27.9281 -47.4956 0.
19.457 32.4689 0.
-421.228 -774.239 0.
5.79461 10.2382 0.
-1.83014 -21.1453 0.
-101.556 -204.561 0.
-25.9795 -41.9606 0.
-8.86691 -13.8509 0.
17.7599 28.1523 0.
-7.16745 -11.0055 0.
-247.037 -382.28 0.
-42.7167 -65.8899 0.
-14.9119 -23.2193 0.
7.78786 11.7848 0.
-11.9868 -32.4845 0.
-418.608 -659.219 0.
19.1799 34.3381 0.
-7.71306 -13.9391 0.
-11.709 -22.1515 0.
7.75272 14.7056 0.
-624.888 -1224.8 0.
-7.35104 -16.1281 0.
-3.43427 -30.3867 0.
4.1455 9.60378 0.
14.2764 33.2855 0.
-306.447 -719.051 0.
-98.8783 -243.586 0.
-1.90951 -4.70263 0.
-10.9566 -27.9146 0.
2.31962 5.89104 0.
-92.9536 -235.205 0.
-68.3646 -183.257 0.
-4.78692 -12.8544 0.
-131.333 -351.559 0.
-0.615308 -1.63942 0.
-88.5777 -242.029 0.
-28.4303 -77.6489 0.
-44.5996 -121.745 0.
-78.1934 -216.519 0.
4.4028 12.1874 0.
-3.42232 -9.47326 0.
-0.227944 -0.624191 0.
5.38528 14.3186 0.
-0.092858 -11.741 0.
-0.00197684 -13.4118 0.
-5.50151 -13.4454 0.
-0.633306 -6.84335 0.
0.546588 3.35647 0.
-0.00100046 -0.773048 0.
0.0202606 0.61591 0.
-0.0154044 -0.299957 0.
-0.00500701 -0.0458282 0.
-2.05479 -5.13814 0.
0.0254209 0.300561 0.
0.00792574 0.336884 0.
-1.43289 -3.63522 0.
-2.13706 -5.87391 0.
-3.94651 -10.7563 0.
0.137152 0.375761 0.
-0.148294 -0.410736 0.
-6.15333 -16.8889 0.
0.0186697 0.722055 0.
0.00244537 0.370081 0.
4.80908 11.5671 0.
-0.0183093 -1.60197 0.
0.963567 2.66695 0.
2.72507 7.52342 0.
-1.98777 -5.40828 0.
1.22609 3.31224 0.
7.54576 20.5392 0.
3.80881 10.4292 0.
-4.29571 -11.896 0.
-208.371 -576.54 0.
1.80999 4.89744 0.
-2.14358 -5.79865 0.
9.75581 26.2933 0.
-7.69204 -20.3508 0.
-121.098 -322.238 0.
2.32491 6.18606 0.
-75.2679 -200.433 0.
11.6673 29.3733 0.
10.4509 26.1304 0.
-6.34669 -16.3521 0.
-101.876 -251.933 0.
-5.63821 -13.6887 0.
-184.926 -414.108 0.
-2.92065 -6.44934 0.
11.014 24.2799 0.
-58.3735 -131.454 0.
13.0618 28.7016 0.
-191.985 -362.169 0.
-0.804776 -1.47872 0.
-1.54007 -2.60276 0.
-77.4699 -131.793 0.
19.6094 32.0735 0.
-13.251 -20.5448 0.
-10.9434 -16.6582 0.
-13.7376 -20.9428 0.
-236.439 -360.45 0.
-57.9813 -88.4927 0.
-13.6281 -21.5788 0.
-7.73479 -12.1599 0.
10.4582 17.9984 0.
-11.2836 -19.9935 0.
-8.07385 -13.769 0.
9.3858 18.4138 0.
11.9121 18.158 0.
8.74439 13.5254 0.
-16.5775 -26.001 0.
-168.957 -254.706 0.
-22.6931 -34.4702 0.
15.2291 21.5926 0.
19.0609 27.6794 0.
-128.404 -191.33 0.
-47.4336 -72.3318 0.
0.74959 1.10731 0.
11.4719 19.6949 0.
-9.98613 -17.927 0.
-120.3 -226.326 0.
10.3465 19.719 0.
8.78947 16.5112 0.
10.0522 21.489 0.
-142.698 -314.634 0.
-27.5371 -62.6006 0.
-127.787 -296.997 0.
7.7934 18.2348 0.
-8.12918 -19.683 0.
-43.2721 -105.089 0.
-17.2711 -43.7262 0.
0.315198 0.795314 0.
9.91287 24.9284 0.
-141.282 -379.036 0.
-3.13738 -8.39324 0.
3.54232 9.43195 0.
-4.7793 -12.7137 0.
-99.3954 -271.476 0.
-18.5428 -50.6211 0.
-28.6913 -78.2833 0.
-101.889 -281.501 0.
0.807638 2.22877 0.
4.2241 11.6387 0.
4.10553 11.1108 0.
-0.292121 -11.4943 0.
-260.5 -684.829 0.
7.08229 18.513 0.
-294.656 -803.859 0.
-0.0135527 -9.00894 0.
3.49879 9.06372 0.
-529.936 -1358.04 0.
-0.0110882 -3.8763 0.
-275.285 -591.261 0.
-29.7217 -71.3508 0.
-73.328 -199.413 0.
-69.662 -189.687 0.
-341.147 -944.91 0.
0.105317 0.238618 0.
-4.4421 -11.9533 0.
-410.493 -1077.5 0.
-0.670988 -1.85679 0.
-0.00569737 -0.631855 0.
-363.09 -825.061 0.
1.14423 3.14622 0.
-456.433 -1226.03 0.
1.15984 3.20568 0.
-0.0101376 -10.1088 0.
-302.45 -824.212 0.
-1.54136 -4.24999 0.
-0.714984 -1.97283 0.
-0.976899 -2.62612 0.
7.94892 21.5467 0.
-4.23422 -11.5545 0.
8.41111 23.2961 0.
-98.078 -271.627 0.
8.90885 24.0146 0.
-13.0822 -35.2583 0.
-88.5206 -233.273 0.
-24.2162 -64.0122 0.
-57.6372 -152.748 0.
-67.9636 -180.656 0.
-246.16 -654.919 0.
-54.3779 -136.489 0.
-87.7856 -218.806 0.
7.57671 18.7515 0.
8.89457 21.2978 0.
6.14383 14.9466 0.
-282.789 -630.439 0.
11.6938 25.7045 0.
0.290252 0.639494 0.
11.66 25.2259 0.
8.70986 18.5018 0.
-231.691 -429.077 0.
-2.0229 -3.64797 0.
-74.1157 -125.742 0.
-1.59886 -2.57528 0.
-12.1133 -31.7231 0.
-323.027 -491.815 0.
-94.3758 -140.945 0.
0.43822 0.627533 0.
8.34528 11.8387 0.
-90.3839 -135.692 0.
-301.477 -470.518 0.
-13.2662 -35.798 0.
-61.4957 -105.563 0.
5.45801 8.93722 0.
-7.65093 -21.1094 0.
-5.91383 -11.7294 0.
6.83732 10.3136 0.
-169.296 -258.76 0.
-13.4659 -19.7755 0.
-16.0339 -31.8434 0.
-13.425 -26.7512 0.
-14.8889 -30.9804 0.
-680.865 -971.85 0.
-22.1876 -32.7839 0.
-2.4916 -3.56054 0.
-64.9519 -95.9121 0.
9.00798 15.3239 0.
-279.021 -496.41 0.
-0.432577 -0.756544 0.
-5.67627 -23.8092 0.
11.8831 22.3614 0.
-3.89787 -31.0171 0.
-23.1268 -51.2726 0.
-178.67 -408.447 0.
12.0084 27.0467 0.
-2.80984 -31.9845 0.
0.378479 0.916154 0.
-177.511 -430.938 0.
-154.194 -387.724 0.
-7.40983 -18.5712 0.
-4.25798 -10.6071 0.
-26.0481 -69.6784 0.
9.4106 25.199 0.
-75.0515 -199.004 0.
-1.43736 -3.80712 0.
-32.9127 -87.0864 0.
-99.9706 -272.801 0.
-69.8464 -190.493 0.
-73.83 -202.06 0.
-3.1119 -8.51344 0.
-167.34 -459.036 0.
-54.7972 -149.933 0.
-93.2316 -254.375 0.
-3.25627 -8.84562 0.
6.04389 16.4606 0.
-0.0104835 -9.00795 0.
3.42522 9.39137 0.
-0.327179 -10.593 0.
0.84528 2.28638 0.
-0.00278532 -4.24198 0.
0.191733 0.463503 0.
-0.00518808 -0.477518 0.
-0.0012349 -0.365801 0.
-0.073724 -0.203013 0.
-0.00340419 -0.49268 0.
-0.0598178 -0.501056 0.
-0.0228754 -0.0575467 0.
-18.2531 -49.3529 0.
0.121884 0.330367 0.
-0.00483527 -0.158189 0.
-0.0137342 -0.168563 0.
0.0304062 1.3098 0.
2.68394 7.43088 0.
-0.0126187 -3.92076 0.
-5.07455e-05 -14.1511 0.
-0.772881 -2.12617 0.
-1.65691 -4.58924 0.
-208.627 -577.208 0.
-106.768 -289.05 0.
-6.2737 -17.0254 0.
-129.966 -353.463 0.
2.09464 5.79164 0.
-38.859 -107.622 0.
1.30662 3.50784 0.
-95.6784 -256.822 0.
-2.8476 -7.48733 0.
-23.1974 -61.1614 0.
-35.6171 -94.1602 0.
-2.13882 -5.64443 0.
10.4004 27.3284 0.
-123.339 -308.613 0.
-67.5859 -167.875 0.
-23.3857 -56.4724 0.
-148.504 -356.069 0.
11.8918 28.32 0.
-85.8588 -188.462 0.
-32.2113 -70.4394 0.
-235.469 -517.416 0.
8.94196 19.3324 0.
-3.83079 -8.13007 0.
-48.4705 -86.7948 0.
-8.12645 -14.0098 0.
-419.537 -713.094 0.
-115.477 -186.359 0.
-8.26533 -21.7092 0.
-9.52968 -13.379 0.
-46.6783 -68.2037 0.
-199.947 -280.466 0.
-350.02 -486.331 0.
26.0946 36.0148 0.
-10.0157 -14.1232 0.
4.99698 7.62542 0.
-10.6522 -18.2492 0.
-16.6506 -27.1486 0.
-6.25585 -9.71828 0.
7.09516 12.3611 0.
-4.80128 -6.42535 0.
5.35563 7.30414 0.
24.9838 33.2159 0.
11.2765 15.0096 0.
-175.769 -234.211 0.
-29.0729 -39.777 0.
8.78808 11.6094 0.
14.1884 19.6105 0.
6.70015 9.56236 0.
-378.198 -557.291 0.
7.90208 13.2088 0.
-5.27546 -9.03838 0.
-42.6361 -74.8855 0.
-4.70288 -8.52663 0.
-332.896 -627.849 0.
8.79168 18.9744 0.
1.73224 3.72382 0.
-6.024 -13.199 0.
12.9514 29.379 0.
-104.244 -241.205 0.
-69.4978 -168.162 0.
-0.313433 -0.760794 0.
-6.88347 -16.4062 0.
-1.63523 -4.05258 0.
7.19841 17.9338 0.
-150.197 -402.11 0.
-6.20049 -16.6186 0.
-48.5136 -128.082 0.
-11.3446 -29.9138 0.
10.6935 27.9411 0.
0.565529 1.53189 0.
-3.53094 -9.54341 0.
-45.6518 -124.651 0.
-0.730271 -1.99302 0.
-5.54559 -15.2311 0.
-4.91657 -13.471 0.
4.10851 11.2275 0.
1.86743 5.16071 0.
1.31714 3.64675 0.
-0.000197484 -11.4288 0.
5.83521 15.8934 0.
-0.480081 -14.9163 0.
2.31441 6.38802 0.
2.69277 7.44986 0.
-162.998 -409.921 0.
-29.3265 -77.1566 0.
-29.1926 -78.4827 0.
-59.1377 -154.536 0.
-171.958 -474.401 0.
-11.0331 -25.0235 0.
-4.46668 -11.7556 0.
-222.982 -610.119 0.
0.478197 0.935594 0.
-6.97533 -13.9384 0.
-216.302 -457.4 0.
-0.0473228 -1.15715 0.
3.67047 10.0763 0.
-0.0530566 -8.52226 0.
1.21818 3.3698 0.
6.4501 17.8348 0.
7.15439 19.7596 0.
-29.9807 -83.008 0.
-33.1271 -89.7145 0.
2.52702 6.85955 0.
-0.0449267 -25.3741 0.
8.97915 24.793 0.
-65.0661 -179.849 0.
-3.56586 -9.49578 0.
-16.2957 -43.471 0.
-6.65724 -17.4564 0.
-7.12486 -18.7372 0.
-117.209 -308.987 0.
-24.4281 -64.4235 0.
-29.0344 -76.2364 0.
-4.6808 -11.5175 0.
9.39521 22.9465 0.
-27.1188 -65.5905 0.
-8.24943 -19.8177 0.
-6.57814 -15.692 0.
-201.444 -445.155 0.
3.45849 7.51225 0.
-6.97816 -15.1686 0.
-3.59066 -7.75555 0.
2.25984 4.79136 0.
-282.331 -514.953 0.
8.39755 14.7614 0.
-31.1354 -52.1076 0.
-10.0246 -16.2221 0.
7.96825 12.2202 0.
-7.33229 -10.0794 0.
-4.56055 -6.27785 0.
3.70748 5.11044 0.
-130.575 -177.912 0.
-53.2746 -72.0581 0.
12.8955 17.6219 0.
20.3112 27.6085 0.
-16.4014 -31.6433 0.
12.0496 17.4588 0.
2.29047 3.23842 0.
-8.63139 -11.072 0.
13.9553 18.2457 0.
-251.547 -335.017 0.
-62.182 -80.4825 0.
7.92647 10.2519 0.
5.65966 7.23249 0.
22.6491 29.0718 0.
-122.009 -155.175 0.
-7.12732 -9.82082 0.
6.81068 9.69507 0.
0.626517 0.922913 0.
0.840012 1.40908 0.
-187.451 -322.44 0.
-102.83 -181.345 0.
-4.2931 -7.78221 0.
10.1856 18.8281 0.
6.93717 14.6501 0.
7.18117 15.4629 0.
-29.4949 -64.7338 0.
-2.59141 -5.92065 0.
-5.69048 -12.8364 0.
8.63678 20.3349 0.
2.44285 5.76768 0.
7.59072 17.9741 0.
-1.47329 -29.6604 0.
-101.636 -253.142 0.
2.9097 7.79809 0.
-1.44242 -3.81012 0.
8.95527 23.2521 0.
4.19205 10.9189 0.
-9.2027 -24.0447 0.
9.24847 25.0058 0.
3.74934 10.114 0.
-23.2213 -63.2458 0.
2.10362 5.726 0.
-4.19444 -11.4115 0.
-2.26142 -6.20379 0.
0.558413 1.51876 0.
-95.4296 -264.021 0.
1.38691 3.83535 0.
-148.252 -409.693 0.
-0.0014335 -15.7535 0.
3.29767 9.08735 0.
-213.614 -589.914 0.
3.91667 10.2191 0.
0.970886 2.47933 0.
0.428852 1.12433 0.
-0.0209876 -1.45938 0.
0.442863 1.2083 0.
0.344879 0.950283 0.
-0.0047129 -0.343057 0.
-0.000272263 -0.660088 0.
-0.00699346 -0.148117 0.
-0.0277753 -1.60704 0.
0.128859 0.32018 0.
-15.1703 -35.9715 0.
5.72051 14.9106 0.
-166.16 -458.552 0.
3.40609 9.43424 0.
-10.3987 -28.7931 0.
-156.949 -434.087 0.
-2.1314 -5.85259 0.
-2.31729 -6.36225 0.
5.64079 15.2798 0.
-4.80803 -13.0546 0.
-3.89277 -10.7148 0.
6.28632 17.3278 0.
-144.392 -398.561 0.
2.64858 7.04126 0.
-10.4117 -27.7297 0.
2.683 6.98591 0.
1.47067 3.80655 0.
-0.575115 -1.49047 0.
-55.1256 -145.277 0.
-82.9104 -217.528 0.
-133.989 -330.818 0.
0.909453 2.22829 0.
-8.21278 -19.4551 0.
1.72 4.06367 0.
7.0664 16.6535 0.
-96.6141 -214.922 0.
4.00596 8.76115 0.
-88.3756 -190.977 0.
13.6507 28.8548 0.
-4.17469 -8.64212 0.
-38.6035 -71.8459 0.
7.46561 13.3872 0.
-213.809 -356.504 0.
16.1245 25.8639 0.
9.60522 14.8559 0.
-24.5586 -33.0177 0.
-20.2848 -27.3298 0.
-6.16471 -8.32319 0.
-12.0412 -15.7713 0.
14.3556 18.4072 0.
-28.6674 -37.8536 0.
-221.944 -292.364 0.
27.9885 36.652 0.
5.67764 8.15771 0.
-10.4793 -22.0842 0.
8.93664 11.1801 0.
-65.4249 -83.3473 0.
9.68305 12.2195 0.
18.9786 23.4456 0.
2.72866 3.39293 0.
12.8072 15.9782 0.
-27.5741 -34.0941 0.
-34.9633 -42.7984 0.
-7.79503 -10.8196 0.
11.4965 16.3763 0.
-229.93 -336.505 0.
-5.66682 -19.0814 0.
6.5015 11.2175 0.
11.5895 19.9889 0.
8.18527 14.5716 0.
-29.4457 -54.6851 0.
11.4157 24.1408 0.
5.54465 11.9579 0.
9.70743 20.0904 0.
-1.37247 -3.02567 0.
-4.48271 -10.1918 0.
-3.77173 -8.82072 0.
-1.47041 -3.44831 0.
-122.637 -288.35 0.
3.73818 9.26527 0.
9.92158 23.7838 0.
2.93117 7.68916 0.
7.47811 19.7274 0.
3.94343 10.2377 0.
-17.7672 -46.2745 0.
-42.1653 -110.163 0.
-131.739 -355.512 0.
7.58537 20.4209 0.
-5.53327 -14.7738 0.
-6.00618 -16.0482 0.
-19.1894 -51.3072 0.
8.6632 23.4572 0.
5.22028 14.1277 0.
-25.0084 -68.9109 0.
5.76131 15.8537 0.
-1.98545 -5.47672 0.
-1.47102 -4.07436 0.
1.57362 4.34795 0.
-2.51743 -6.74674 0.
-0.919531 -15.2948 0.
-0.0913898 -2.65913 0.
-0.014642 -0.622875 0.
-0.0322866 -2.246 0.
-0.000384046 -0.859364 0.
-0.000665087 -0.0847393 0.
0.499164 1.3764 0.
-0.00534054 -0.860268 0.
-0.0431934 -0.812631 0.
0.00117298 0.42304 0.
-0.00616063 -1.11452 0.
0.583661 1.5375 0.
8.14736 20.2157 0.
-0.629133 -1.69738 0.
0.357481 0.990124 0.
5.83102 16.1476 0.
-2.23289 -6.12368 0.
-1.84384 -5.05618 0.
-0.32398 -0.888326 0.
4.98056 13.247 0.
-62.863 -167.897 0.
2.67449 7.26882 0.
8.08976 21.9304 0.
-51.7566 -142.592 0.
-0.290304 -0.77047 0.
-15.3242 -40.7465 0.
-7.07045 -18.3406 0.
-4.54991 -11.7306 0.
-10.9226 -28.3229 0.
1.53579 3.94949 0.
0.693471 1.76776 0.
-41.6172 -103.056 0.
-0.901067 -2.21491 0.
-140.091 -329.634 0.
3.1217 7.32748 0.
-9.2678 -21.697 0.
-3.49509 -7.61709 0.
-4.61447 -9.61589 0.
-214.838 -461.638 0.
-67.7755 -142.214 0.
-4.18474 -27.3973 0.
1.62598 2.97404 0.
5.69093 9.86353 0.
-145.841 -241.853 0.
-30.4562 -48.5322 0.
4.53562 6.96214 0.
-37.6259 -50.8662 0.
13.4133 17.4328 0.
-29.2423 -38.6278 0.
-405.777 -524.316 0.
-13.6936 -22.9411 0.
-1.25046 -1.52662 0.
-14.444 -21.7708 0.
-12.4859 -18.4146 0.
-52.7024 -75.0157 0.
-29.2595 -40.6307 0.
-10.2886 -14.9818 0.
6.22647 7.57236 0.
10.4236 12.9362 0.
2.04659 2.47534 0.
-202.86 -246.526 0.
-10.6929 -13.417 0.
-13.0872 -18.1512 0.
-40.4458 -49.3768 0.
-7.31936 -10.0752 0.
14.5105 20.5047 0.
-22.1569 -32.1873 0.
2.91332 4.74431 0.
-3.15482 -5.28851 0.
6.04051 10.4311 0.
-7.03531 -12.5733 0.
-12.3704 -23.1095 0.
9.28596 18.0241 0.
12.9277 25.8298 0.
6.64742 13.6862 0.
12.7658 28.3752 0.
-121.143 -277.871 0.
-4.68866 -10.8892 0.
11.9592 25.699 0.
3.89688 8.64642 0.
-5.22346 -12.3965 0.
1.56245 3.73598 0.
-6.66481 -17.458 0.
-0.67384 -1.77526 0.
-33.5568 -88.8927 0.
-71.8594 -187.144 0.
10.6249 26.1447 0.
-0.932872 -2.41965 0.
-3.96553 -10.3459 0.
-5.62081 -15.0349 0.
-5.40184 -14.4594 0.
-15.5295 -41.5952 0.
3.47282 9.3539 0.
-0.267594 -22.0168 0.
-43.941 -120.261 0.
-0.681354 -1.85984 0.
0.66932 1.84217 0.
-0.00459703 -20.6069 0.
4.40158 12.1642 0.
4.54138 11.8862 0.
-0.706445 -11.0971 0.
-40.8721 -95.8726 0.
1.20306 2.9617 0.
-0.0563417 -2.03237 0.
-27.6557 -75.9607 0.
-40.9327 -112.994 0.
0.560885 1.55122 0.
-0.198861 -0.541144 0.
-46.0316 -119.182 0.
1.08233 2.99552 0.
-0.0286484 -0.0766602 0.
-76.0376 -191.863 0.
-0.165676 -2.18479 0.
6.74067 17.0134 0.
2.80674 7.77345 0.
2.19237 6.07184 0.
-1.79127 -4.9054 0.
-0.0934611 -19.4864 0.
-76.4373 -209.286 0.
3.66794 9.68702 0.
-4.59759 -12.1978 0.
1.59855 4.33741 0.
-5.33873 -14.4472 0.
-13.7353 -37.0688 0.
-0.857216 -2.16781 0.
-5.44547 -13.65 0.
-89.6795 -231.659 0.
-47.8767 -122.915 0.
-32.8556 -85.248 0.
-6.90933 -17.7785 0.
-7.3016 -18.6221 0.
6.33296 15.0414 0.
1.1314 2.64575 0.
5.63448 12.0512 0.
-3.22507 -7.51935 0.
-11.0601 -25.7203 0.
-3.82085 -8.46099 0.
9.19471 19.4624 0.
13.021 25.2935 0.
-2.9552 -5.496 0.
-50.87 -103.564 0.
-19.3386 -36.071 0.
9.98001 17.6134 0.
-2.65336 -4.10816 0.
15.1338 21.8193 0.
2.65963 4.04502 0.
-204.529 -278.897 0.
16.2114 21.2187 0.
-11.9461 -19.6472 0.
4.63741 5.46976 0.
16.3954 18.7336 0.
2.33603 2.86791 0.
-69.6391 -81.8087 0.
19.0897 22.238 0.
-7.34758 -12.8294 0.
-3.75844 -4.93176 0.
15.9868 18.6969 0.
12.7715 15.2425 0.
-50.803 -61.8072 0.
-5.15317 -4.19532 0.
-15.8098 -15.2217 0.
-12.5131 -16.1122 0.
-8.92459 -10.5357 0.
-128.927 -159.697 0.
-18.1339 -17.3935 0.
-11.3066 -14.6762 0.
14.638 19.6162 0.
-0.0186772 -0.0304091 0.
12.0762 20.2601 0.
11.1385 19.265 0.
4.84104 6.8833 0.
3.35569 5.48223 0.
14.8514 28.6117 0.
-0.910578 -1.80793 0.
-36.7345 -75.26 0.
8.15616 18.3 0.
5.7262 10.6634 0.
-5.18729 -10.739 0.
14.0822 30.142 0.
2.42284 5.36134 0.
6.94248 16.4332 0.
-58.2433 -138.946 0.
-70.8039 -185.184 0.
6.67884 14.3262 0.
2.66466 6.42789 0.
8.00107 19.2708 0.
-46.3118 -114.438 0.
-18.5856 -47.902 0.
9.13916 23.6972 0.
-37.1553 -99.5652 0.
6.0213 16.1457 0.
-22.1675 -59.4789 0.
-67.2074 -179.992 0.
6.90742 14.5968 0.
-0.60769 -10.3479 0.
2.21896 5.6313 0.
-17.3095 -45.3643 0.
-2.22121 -6.14093 0.
-7.66126 -21.1898 0.
6.90265 17.2451 0.
7.05797 15.9777 0.
1.3102 3.2115 0.
-0.109037 -3.25807 0.
-0.0181157 -1.23162 0.
-0.00241629 -2.64244 0.
0.368362 1.01315 0.
0.421922 1.16598 0.
0.579376 1.58903 0.
0.42182 1.10719 0.
-0.000293431 -1.66444 0.
1.3251 3.6178 0.
14.9667 29.1388 0.
10.2957 22.6894 0.
2.76085 6.6218 0.
-32.091 -87.6246 0.
0.719261 1.96672 0.
3.65953 9.56404 0.
-0.68501 -12.781 0.
9.6272 21.7078 0.
4.30421 11.282 0.
8.15908 21.4954 0.
-1.34413 -3.64082 0.
-28.2359 -76.2669 0.
-36.4027 -92.7541 0.
8.52603 21.5286 0.
5.51015 13.7887 0.
-3.25534 -7.63515 0.
4.1358 9.12394 0.
-1.78037 -12.6616 0.
-64.9026 -167.101 0.
-7.91251 -20.1938 0.
-15.9902 -38.038 0.
-1.96878 -25.2088 0.
1.09198 2.35353 0.
-1.23758 -2.45063 0.
-4.81843 -19.9773 0.
-17.4362 -39.3022 0.
13.1104 28.242 0.
-20.6878 -39.7081 0.
0.108347 0.198691 0.
2.14422 3.76757 0.
-8.94956 -22.1627 0.
7.99815 14.4055 0.
-5.01208 -7.87113 0.
-2.87352 -4.18189 0.
13.3845 18.0863 0.
7.8269 8.47292 0.
-15.9201 -12.769 0.
10.4411 13.2138 0.
4.93055 5.65799 0.
-13.4812 -16.9197 0.
-0.763079 -0.824389 0.
-11.5225 -9.032 0.
-64.6694 -73.0383 0.
2.73953 3.35509 0.
8.51975 10.6279 0.
