# vtk DataFile Version 2.0
test grain
ASCII
DATASET UNSTRUCTURED_GRID
POINTS 5000 float
0.497721 0.000613315 0.
0.500566 0.000797696 0.
0.503048 0.000864439 0.
0.505513 0.000929637 0.
0.507631 0.000946809 0.
0.509749 0.000964367 0.
0.51184 0.000977277 0.
0.513885 0.000981658 0.
0.515931 0.000986059 0.
0.517955 0.00098991 0.
0.519968 0.000993498 0.
0.521981 0.000997098 0.
0.523984 0.000998017 0.
0.525986 0.000998573 0.
0.527988 0.000999094 0.
0.52999 0.000999316 0.
0.531992 0.000999538 0.
0.533993 0.000999732 0.
0.535994 0.000999866 0.
0.537995 0.001 0.
0.539996 0.00100013 0.
0.541996 0.00100025 0.
0.543997 0.00100038 0.
0.545997 0.00100032 0.
0.547997 0.0010002 0.
0.549998 0.00100008 0.
0.551998 0.00100017 0.
0.553997 0.00100025 0.
0.555997 0.00100033 0.
0.557998 0.0010004 0.
0.559998 0.00100046 0.
0.561998 0.00100051 0.
0.563998 0.00100053 0.
0.565998 0.00100055 0.
0.567998 0.00100057 0.
0.569998 0.00100057 0.
0.571998 0.00100057 0.
0.573997 0.00100053 0.
0.575997 0.00100048 0.
0.577997 0.00100043 0.
0.579997 0.00100044 0.
0.581997 0.00100045 0.
0.583997 0.00100043 0.
0.585996 0.00100035 0.
0.587996 0.00100027 0.
0.589996 0.00100037 0.
0.591996 0.00100061 0.
0.593996 0.00100085 0.
0.595997 0.00100048 0.
0.597998 0.00099994 0.
0.6 0.0009994 0.
0.602002 0.000999952 0.
0.604003 0.0010005 0.
0.606005 0.00100088 0.
0.608005 0.00100063 0.
0.610004 0.00100038 0.
0.612004 0.00100029 0.
0.614004 0.00100037 0.
0.616004 0.00100045 0.
0.618004 0.00100047 0.
0.620004 0.00100045 0.
0.622004 0.00100043 0.
0.624003 0.00100047 0.
0.626003 0.00100051 0.
0.628002 0.00100055 0.
0.630002 0.00100055 0.
0.632002 0.00100056 0.
0.634002 0.00100055 0.
0.636002 0.00100054 0.
0.638002 0.00100052 0.
0.640003 0.00100046 0.
0.642003 0.00100035 0.
0.644003 0.00100024 0.
0.646003 0.0010002 0.
0.648003 0.00100017 0.
0.650003 0.00100015 0.
0.652003 0.0010002 0.
0.654004 0.00100024 0.
0.656004 0.00100025 0.
0.658005 0.00100013 0.
0.660005 0.001 0.
0.662006 0.000999854 0.
0.664007 0.000999672 0.
0.666008 0.00099949 0.
0.66801 0.000999346 0.
0.670012 0.000999221 0.
0.672014 0.000999096 0.
0.674017 0.000997739 0.
0.67602 0.00099624 0.
0.678026 0.00099437 0.
0.680048 0.000989754 0.
0.68207 0.000985159 0.
0.684107 0.000980107 0.
0.686169 0.000974169 0.
0.688231 0.000968266 0.
0.6904 0.00094032 0.
0.692623 0.000902392 0.
0.69487 0.000863264 0.
0.697665 0.000765638 0.
0.700465 0.000669879 0.
0.495591 0.00157722 0.
0.498975 0.00228817 0.
0.501871 0.00255697 0.
0.504709 0.00277106 0.
0.50709 0.00283103 0.
0.509389 0.00288652 0.
0.511628 0.00293135 0.
0.513723 0.00294459 0.
0.515819 0.00295789 0.
0.517877 0.00296947 0.
0.519913 0.0029803 0.
0.521949 0.00299116 0.
0.523959 0.00299404 0.
0.525964 0.00299571 0.
0.52797 0.00299728 0.
0.529974 0.00299794 0.
0.531978 0.00299861 0.
0.533982 0.00299919 0.
0.535985 0.0029996 0.
0.537988 0.003 0.
0.539989 0.00300039 0.
0.54199 0.00300076 0.
0.543991 0.00300114 0.
0.545992 0.00300095 0.
0.547992 0.00300059 0.
0.549993 0.00300024 0.
0.551993 0.0030005 0.
0.553993 0.00300076 0.
0.555993 0.003001 0.
0.557993 0.00300119 0.
0.559993 0.00300139 0.
0.561994 0.00300152 0.
0.563994 0.00300159 0.
0.565994 0.00300166 0.
0.567994 0.0030017 0.
0.569994 0.00300171 0.
0.571993 0.00300172 0.
0.573993 0.00300159 0.
0.575992 0.00300143 0.
0.577991 0.0030013 0.
0.57999 0.00300132 0.
0.58199 0.00300134 0.
0.58399 0.00300128 0.
0.585989 0.00300104 0.
0.587989 0.00300081 0.
0.589988 0.0030011 0.
0.591988 0.00300182 0.
0.593987 0.00300254 0.
0.595991 0.00300144 0.
0.597995 0.00299982 0.
0.6 0.0029982 0.
0.602005 0.00299986 0.
0.60401 0.00300151 0.
0.606014 0.00300264 0.
0.608014 0.00300189 0.
0.610013 0.00300115 0.
0.612013 0.00300086 0.
0.614012 0.00300111 0.
0.616012 0.00300136 0.
0.618011 0.00300141 0.
0.620011 0.00300135 0.
0.62201 0.00300129 0.
0.624009 0.0030014 0.
0.626008 0.00300153 0.
0.628007 0.00300165 0.
0.630007 0.00300166 0.
0.632007 0.00300167 0.
0.634007 0.00300166 0.
0.636007 0.00300161 0.
0.638007 0.00300156 0.
0.640007 0.00300137 0.
0.642008 0.00300105 0.
0.644008 0.00300073 0.
0.646008 0.0030006 0.
0.648008 0.00300052 0.
0.650008 0.00300045 0.
0.652009 0.00300059 0.
0.654009 0.00300072 0.
0.65601 0.00300075 0.
0.658012 0.00300038 0.
0.660013 0.00300001 0.
0.662016 0.00299956 0.
0.664019 0.00299901 0.
0.666022 0.00299847 0.
0.668027 0.00299804 0.
0.670032 0.00299766 0.
0.672037 0.00299729 0.
0.674046 0.00299317 0.
0.676056 0.00298866 0.
0.678072 0.00298291 0.
0.68013 0.00296895 0.
0.682188 0.00295507 0.
0.684274 0.00293973 0.
0.686406 0.00292171 0.
0.688536 0.0029038 0.
0.690954 0.00280192 0.
0.693447 0.00268155 0.
0.696177 0.00252094 0.
0.699369 0.00221551 0.
0.702683 0.00170453 0.
0.493078 0.00217668 0.
0.496784 0.00336527 0.
0.500487 0.00419824 0.
0.50371 0.00456941 0.
0.506496 0.00470158 0.
0.508992 0.00479903 0.
0.511411 0.00488476 0.
0.513557 0.00490699 0.
0.515704 0.00492932 0.
0.517798 0.00494868 0.
0.519857 0.00496683 0.
0.521916 0.00498504 0.
0.523933 0.00499004 0.
0.525942 0.00499283 0.
0.527951 0.00499545 0.
0.529958 0.00499657 0.
0.531965 0.00499768 0.
0.533971 0.00499865 0.
0.535976 0.00499932 0.
0.53798 0.005 0.
0.539983 0.00500064 0.
0.541984 0.00500127 0.
0.543985 0.0050019 0.
0.545986 0.00500158 0.
0.547987 0.00500099 0.
0.549988 0.0050004 0.
0.551988 0.00500083 0.
0.553988 0.00500126 0.
0.555988 0.00500167 0.
0.557988 0.00500199 0.
0.559989 0.00500231 0.
0.561989 0.00500254 0.
0.56399 0.00500266 0.
0.56599 0.00500277 0.
0.56799 0.00500283 0.
0.569989 0.00500285 0.
0.571989 0.00500287 0.
0.573988 0.00500265 0.
0.575986 0.00500239 0.
0.577985 0.00500217 0.
0.579984 0.0050022 0.
0.581984 0.00500224 0.
0.583983 0.00500214 0.
0.585982 0.00500174 0.
0.587981 0.00500134 0.
0.58998 0.00500183 0.
0.591979 0.00500303 0.
0.593978 0.00500422 0.
0.595984 0.0050024 0.
0.597992 0.0049997 0.
0.6 0.004997 0.
0.602009 0.00499977 0.
0.604018 0.00500253 0.
0.606024 0.00500439 0.
0.608023 0.00500316 0.
0.610022 0.00500192 0.
0.612021 0.00500143 0.
0.61402 0.00500185 0.
0.616019 0.00500227 0.
0.618018 0.00500235 0.
0.620018 0.00500225 0.
0.622017 0.00500216 0.
0.624015 0.00500234 0.
0.626014 0.00500256 0.
0.628012 0.00500275 0.
0.630012 0.00500277 0.
0.632012 0.00500278 0.
0.634012 0.00500276 0.
0.636012 0.00500268 0.
0.638012 0.00500261 0.
0.640012 0.00500227 0.
0.642013 0.00500174 0.
0.644013 0.00500121 0.
0.646014 0.005001 0.
0.648013 0.00500087 0.
0.650013 0.00500075 0.
0.652014 0.00500098 0.
0.654015 0.00500121 0.
0.656016 0.00500124 0.
0.658019 0.00500062 0.
0.660021 0.00500001 0.
0.662025 0.00499926 0.
0.66403 0.00499835 0.
0.666036 0.00499744 0.
0.668043 0.00499672 0.
0.670051 0.0049961 0.
0.672059 0.00499547 0.
0.674075 0.00498852 0.
0.676091 0.004981 0.
0.678119 0.00497117 0.
0.680214 0.00494774 0.
0.682308 0.00492442 0.
0.684449 0.00489853 0.
0.686651 0.00486815 0.
0.688852 0.00483796 0.
0.691595 0.00463532 0.
0.694386 0.00442313 0.
0.697798 0.00406787 0.
0.70152 0.00347226 0.
0.705321 0.00231956 0.
0.490079 0.00231092 0.
0.494473 0.00401452 0.
0.498643 0.00528903 0.
0.502069 0.0058201 0.
0.505252 0.0061468 0.
0.50792 0.00634736 0.
0.510572 0.00655474 0.
0.512896 0.00665127 0.
0.51521 0.00673954 0.
0.517447 0.00681007 0.
0.519586 0.00685619 0.
0.521729 0.00690303 0.
0.523798 0.00693098 0.
0.525851 0.00695515 0.
0.527902 0.00697805 0.
0.529918 0.0069805 0.
0.531934 0.00698295 0.
0.533948 0.00698618 0.
0.535957 0.00699119 0.
0.537967 0.00699621 0.
0.539973 0.00699922 0.
0.541975 0.00700053 0.
0.543978 0.00700184 0.
0.54598 0.00700214 0.
0.547981 0.00700215 0.
0.549983 0.00700215 0.
0.551983 0.00700234 0.
0.553983 0.00700254 0.
0.555983 0.00700277 0.
0.557984 0.00700313 0.
0.559985 0.00700348 0.
0.561985 0.00700382 0.
0.563986 0.00700412 0.
0.565986 0.00700443 0.
0.567987 0.00700465 0.
0.569987 0.00700484 0.
0.571987 0.00700503 0.
0.573985 0.00700484 0.
0.575984 0.0070046 0.
0.577983 0.0070044 0.
0.579982 0.00700442 0.
0.581981 0.00700445 0.
0.583981 0.00700439 0.
0.58598 0.00700413 0.
0.587979 0.00700388 0.
0.589977 0.00700421 0.
0.591976 0.00700501 0.
0.593975 0.00700581 0.
0.595982 0.00700458 0.
0.597991 0.00700277 0.
0.6 0.00700096 0.
0.60201 0.0070029 0.
0.60402 0.00700484 0.
0.606028 0.00700614 0.
0.608026 0.00700526 0.
0.610025 0.00700437 0.
0.612024 0.00700401 0.
0.614023 0.0070043 0.
0.616022 0.00700459 0.
0.618021 0.00700464 0.
0.62002 0.00700458 0.
0.622019 0.00700452 0.
0.624018 0.00700464 0.
0.626017 0.00700479 0.
0.628015 0.0070049 0.
0.630015 0.00700475 0.
0.632015 0.00700459 0.
0.634016 0.00700441 0.
0.636016 0.00700416 0.
0.638017 0.00700391 0.
0.640017 0.00700347 0.
0.642018 0.0070029 0.
0.644019 0.00700232 0.
0.646019 0.00700224 0.
0.64802 0.0070023 0.
0.65002 0.00700236 0.
0.652022 0.00700192 0.
0.654023 0.00700148 0.
0.656025 0.00700077 0.
0.65803 0.00699914 0.
0.660034 0.00699752 0.
0.662042 0.00699362 0.
0.664055 0.00698703 0.
0.666068 0.00698046 0.
0.668088 0.00697634 0.
0.670111 0.00697327 0.
0.672134 0.00697022 0.
0.674208 0.0069357 0.
0.676283 0.00689969 0.
0.678383 0.00685991 0.
0.680576 0.00680173 0.
0.682765 0.00674478 0.
0.685095 0.00664944 0.
0.687504 0.00653559 0.
0.690016 0.00636959 0.
0.692958 0.00599975 0.
0.696039 0.00563364 0.
0.699715 0.0051501 0.
0.70411 0.00413387 0.
0.70825 0.002507 0.
0.487014 0.00229782 0.
0.491851 0.00425315 0.
0.496141 0.00576195 0.
0.500157 0.00685407 0.
0.503615 0.00744035 0.
0.506683 0.00781426 0.
0.509562 0.00815741 0.
0.512148 0.0083626 0.
0.514652 0.00852547 0.
0.517075 0.00866528 0.
0.519301 0.00874108 0.
0.521531 0.00881811 0.
0.523659 0.00887001 0.
0.525757 0.00891615 0.
0.527852 0.00896063 0.
0.529877 0.00896442 0.
0.531902 0.0089682 0.
0.533924 0.00897365 0.
0.535939 0.00898301 0.
0.537954 0.00899238 0.
0.539963 0.00899778 0.
0.541967 0.00899978 0.
0.543971 0.00900178 0.
0.545974 0.0090027 0.
0.547975 0.0090033 0.
0.549977 0.0090039 0.
0.551977 0.00900386 0.
0.553978 0.00900382 0.
0.555978 0.00900387 0.
0.557979 0.00900426 0.
0.55998 0.00900465 0.
0.561981 0.00900509 0.
0.563982 0.00900559 0.
0.565983 0.00900608 0.
0.567983 0.00900648 0.
0.569984 0.00900683 0.
0.571984 0.00900718 0.
0.573983 0.00900703 0.
0.575982 0.00900681 0.
0.57798 0.00900662 0.
0.57998 0.00900664 0.
0.581979 0.00900666 0.
0.583979 0.00900664 0.
0.585977 0.00900653 0.
0.587976 0.00900641 0.
0.589975 0.00900659 0.
0.591973 0.00900699 0.
0.593972 0.00900739 0.
0.595979 0.00900677 0.
0.59799 0.00900584 0.
0.6 0.00900491 0.
0.602012 0.00900603 0.
0.604023 0.00900715 0.
0.606031 0.00900789 0.
0.60803 0.00900736 0.
0.610028 0.00900682 0.
0.612026 0.0090066 0.
0.614025 0.00900675 0.
0.616024 0.00900691 0.
0.618023 0.00900694 0.
0.620023 0.00900691 0.
0.622022 0.00900688 0.
0.624021 0.00900694 0.
0.62602 0.00900702 0.
0.628018 0.00900705 0.
0.630019 0.00900673 0.
0.632019 0.00900641 0.
0.63402 0.00900605 0.
0.636021 0.00900563 0.
0.638021 0.00900521 0.
0.640022 0.00900467 0.
0.642024 0.00900405 0.
0.644025 0.00900343 0.
0.646025 0.00900349 0.
0.648026 0.00900374 0.
0.650027 0.00900397 0.
0.652029 0.00900286 0.
0.654031 0.00900175 0.
0.656034 0.00900029 0.
0.658041 0.00899766 0.
0.660047 0.00899503 0.
0.66206 0.00898791 0.
0.66408 0.00897562 0.
0.6661 0.00896337 0.
0.668133 0.00895588 0.
0.670171 0.00895036 0.
0.672209 0.00894484 0.
0.674345 0.00888055 0.
0.676482 0.00881501 0.
0.678665 0.00874321 0.
0.680963 0.00864772 0.
0.683255 0.00855425 0.
0.685851 0.00836007 0.
0.688501 0.0081498 0.
0.69144 0.00775317 0.
0.694586 0.00719378 0.
0.698154 0.00658982 0.
0.702247 0.00575735 0.
0.706755 0.00434136 0.
0.711534 0.0023443 0.
0.48365 0.00217397 0.
0.48883 0.0042144 0.
0.493529 0.00599937 0.
0.497786 0.00750959 0.
0.501825 0.00856799 0.
0.50541 0.00920738 0.
0.50851 0.00966911 0.
0.511377 0.01 0.
0.514046 0.010233 0.
0.51666 0.0104628 0.
0.518966 0.010572 0.
0.521281 0.0106852 0.
0.523476 0.0107701 0.
0.525622 0.010847 0.
0.527767 0.0109235 0.
0.529808 0.0109333 0.
0.53185 0.0109431 0.
0.533886 0.0109542 0.
0.535908 0.0109682 0.
0.537931 0.0109823 0.
0.539945 0.010991 0.
0.541953 0.0109951 0.
0.543961 0.0109992 0.
0.545965 0.0110011 0.
0.547968 0.0110025 0.
0.549971 0.0110038 0.
0.551972 0.0110039 0.
0.553972 0.0110039 0.
0.555973 0.0110041 0.
0.557975 0.0110046 0.
0.559976 0.0110051 0.
0.561977 0.0110056 0.
0.563978 0.0110063 0.
0.565979 0.0110069 0.
0.56798 0.0110074 0.
0.56998 0.0110079 0.
0.571981 0.0110083 0.
0.57398 0.0110083 0.
0.575979 0.0110082 0.
0.577978 0.0110082 0.
0.579978 0.0110082 0.
0.581977 0.0110083 0.
0.583977 0.0110083 0.
0.585976 0.0110083 0.
0.587975 0.0110082 0.
0.589973 0.0110082 0.
0.591972 0.0110081 0.
0.59397 0.011008 0.
0.595978 0.0110082 0.
0.597989 0.0110086 0.
0.6 0.011009 0.
0.602012 0.0110089 0.
0.604024 0.0110087 0.
0.606033 0.0110086 0.
0.608031 0.0110085 0.
0.610029 0.0110085 0.
0.612028 0.0110085 0.
0.614027 0.0110085 0.
0.616026 0.0110086 0.
0.618025 0.0110085 0.
0.620025 0.0110085 0.
0.622025 0.0110085 0.
0.624024 0.0110084 0.
0.626023 0.0110083 0.
0.628022 0.0110082 0.
0.630022 0.0110077 0.
0.632023 0.0110073 0.
0.634024 0.0110068 0.
0.636025 0.0110062 0.
0.638026 0.0110057 0.
0.640028 0.0110051 0.
0.642029 0.0110043 0.
0.64403 0.0110035 0.
0.646032 0.0110035 0.
0.648033 0.0110036 0.
0.650034 0.0110036 0.
0.652038 0.0110015 0.
0.654042 0.0109993 0.
0.656047 0.0109964 0.
0.658059 0.0109907 0.
0.660071 0.0109851 0.
0.662091 0.0109738 0.
0.66412 0.0109562 0.
0.666149 0.0109386 0.
0.668203 0.0109215 0.
0.670267 0.010905 0.
0.672331 0.0108877 0.
0.674531 0.0107842 0.
0.676728 0.0106819 0.
0.679004 0.0105673 0.
0.681407 0.0104281 0.
0.683825 0.0102875 0.
0.686663 0.00998994 0.
0.689591 0.00966945 0.
0.692936 0.00900955 0.
0.696415 0.00825321 0.
0.700362 0.00741139 0.
0.705032 0.0060054 0.
0.709819 0.00424294 0.
0.714987 0.00212889 0.
0.480127 0.00193847 0.
0.485943 0.00420578 0.
0.490907 0.00605752 0.
0.495563 0.00794678 0.
0.500386 0.00951355 0.
0.504174 0.0103028 0.
0.507468 0.0108769 0.
0.510589 0.0113879 0.
0.513376 0.0117652 0.
0.516124 0.012144 0.
0.518547 0.0123186 0.
0.520955 0.0124862 0.
0.523238 0.0126213 0.
0.525439 0.0127414 0.
0.527641 0.0128627 0.
0.52971 0.0128854 0.
0.531776 0.0129066 0.
0.533832 0.0129276 0.
0.535865 0.0129466 0.
0.537897 0.0129657 0.
0.53992 0.0129788 0.
0.541933 0.0129864 0.
0.543947 0.012994 0.
0.545954 0.0129975 0.
0.547959 0.0129997 0.
0.549963 0.0130019 0.
0.551965 0.0130024 0.
0.553966 0.0130029 0.
0.555968 0.0130034 0.
0.557969 0.0130041 0.
0.559971 0.0130048 0.
0.561972 0.0130055 0.
0.563974 0.0130062 0.
0.565975 0.0130069 0.
0.567976 0.0130075 0.
0.569977 0.013008 0.
0.571978 0.0130085 0.
0.573977 0.0130087 0.
0.575977 0.0130089 0.
0.577976 0.013009 0.
0.579976 0.0130091 0.
0.581976 0.0130093 0.
0.583975 0.0130093 0.
0.585975 0.0130093 0.
0.587974 0.0130093 0.
0.589973 0.0130089 0.
0.591972 0.0130082 0.
0.593971 0.0130075 0.
0.595979 0.013009 0.
0.59799 0.0130112 0.
0.6 0.0130134 0.
0.602012 0.0130114 0.
0.604023 0.0130095 0.
0.606032 0.0130082 0.
0.608031 0.0130088 0.
0.61003 0.0130094 0.
0.612029 0.0130097 0.
0.614028 0.0130096 0.
0.616028 0.0130095 0.
0.618027 0.0130095 0.
0.620027 0.0130094 0.
0.622027 0.0130093 0.
0.624027 0.013009 0.
0.626026 0.0130088 0.
0.628026 0.0130084 0.
0.630027 0.0130078 0.
0.632028 0.0130071 0.
0.634029 0.0130065 0.
0.63603 0.013006 0.
0.638031 0.0130054 0.
0.640033 0.0130046 0.
0.642035 0.0130036 0.
0.644036 0.0130027 0.
0.646038 0.0130022 0.
0.648041 0.0130018 0.
0.650043 0.0130014 0.
0.652049 0.0129978 0.
0.654055 0.0129943 0.
0.656065 0.012989 0.
0.658085 0.0129782 0.
0.660104 0.0129675 0.
0.662135 0.0129511 0.
0.664176 0.0129285 0.
0.666218 0.0129058 0.
0.668303 0.0128713 0.
0.670403 0.0128338 0.
0.672511 0.0127917 0.
0.674778 0.0126364 0.
0.67704 0.0124838 0.
0.679447 0.0122969 0.
0.681983 0.0120811 0.
0.684601 0.0118118 0.
0.687551 0.0113151 0.
0.690687 0.0107874 0.
0.694175 0.0100486 0.
0.697998 0.00918224 0.
0.702623 0.00790544 0.
0.707539 0.00609988 0.
0.712709 0.00418022 0.
0.718547 0.00193224 0.
0.476746 0.00175801 0.
0.483025 0.00420084 0.
0.488403 0.00605495 0.
0.493355 0.0081754 0.
0.498608 0.0100632 0.
0.502635 0.0111392 0.
0.506297 0.0119873 0.
0.509673 0.0126889 0.
0.51267 0.0132562 0.
0.51554 0.0137832 0.
0.518107 0.0140551 0.
0.520611 0.0142785 0.
0.522993 0.0144678 0.
0.52525 0.0146321 0.
0.527511 0.014799 0.
0.52961 0.0148367 0.
0.5317 0.0148695 0.
0.533779 0.0149009 0.
0.535821 0.014925 0.
0.537863 0.0149492 0.
0.539894 0.0149665 0.
0.541914 0.0149776 0.
0.543933 0.0149887 0.
0.545943 0.0149938 0.
0.54795 0.0149969 0.
0.549956 0.015 0.
0.551958 0.015001 0.
0.553961 0.0150019 0.
0.555963 0.0150028 0.
0.557964 0.0150036 0.
0.559966 0.0150045 0.
0.561968 0.0150053 0.
0.563969 0.0150061 0.
0.56597 0.0150069 0.
0.567972 0.0150075 0.
0.569973 0.0150081 0.
0.571974 0.0150086 0.
0.573974 0.0150091 0.
0.575974 0.0150095 0.
0.577974 0.0150099 0.
0.579974 0.0150101 0.
0.581974 0.0150102 0.
0.583974 0.0150104 0.
0.585974 0.0150104 0.
0.587973 0.0150104 0.
0.589973 0.0150097 0.
0.591972 0.0150084 0.
0.593972 0.0150071 0.
0.59598 0.0150098 0.
0.59799 0.0150137 0.
0.6 0.0150176 0.
0.602012 0.015014 0.
0.604023 0.0150103 0.
0.606031 0.0150078 0.
0.608031 0.0150091 0.
0.61003 0.0150104 0.
0.61203 0.015011 0.
0.61403 0.0150108 0.
0.616029 0.0150105 0.
0.618029 0.0150104 0.
0.62003 0.0150103 0.
0.62203 0.0150102 0.
0.62403 0.0150097 0.
0.626029 0.0150092 0.
0.628029 0.0150086 0.
0.630031 0.0150078 0.
0.632032 0.015007 0.
0.634033 0.0150063 0.
0.636035 0.0150057 0.
0.638036 0.0150051 0.
0.640038 0.0150042 0.
0.64204 0.015003 0.
0.644042 0.0150018 0.
0.646045 0.0150008 0.
0.648048 0.015 0.
0.650051 0.0149991 0.
0.65206 0.0149941 0.
0.654069 0.0149892 0.
0.656082 0.0149815 0.
0.65811 0.0149656 0.
0.660138 0.0149499 0.
0.662179 0.0149284 0.
0.664233 0.0149006 0.
0.666287 0.014873 0.
0.668406 0.0148196 0.
0.670542 0.0147608 0.
0.672698 0.0146914 0.
0.675034 0.014483 0.
0.677362 0.0142792 0.
0.679925 0.0140086 0.
0.682601 0.0137133 0.
0.685433 0.0132608 0.
0.688481 0.0125699 0.
0.691886 0.0117988 0.
0.695567 0.0109037 0.
0.699519 0.00995385 0.
0.704836 0.00819363 0.
0.710058 0.00604857 0.
0.715874 0.00401475 0.
0.722229 0.00183541 0.
0.473178 0.00164188 0.
0.479825 0.00395458 0.
0.485697 0.00602921 0.
0.490886 0.0081913 0.
0.496419 0.0102715 0.
0.501007 0.0118449 0.
0.505045 0.0130059 0.
0.508648 0.0138899 0.
0.511912 0.0146495 0.
0.514813 0.0152481 0.
0.517509 0.0156411 0.
0.52008 0.0159254 0.
0.522571 0.0161883 0.
0.52488 0.0163934 0.
0.527201 0.0166038 0.
0.529372 0.0166907 0.
0.531523 0.0167665 0.
0.533658 0.0168359 0.
0.53572 0.0168676 0.
0.537783 0.0168994 0.
0.539831 0.0169255 0.
0.541866 0.0169462 0.
0.543901 0.0169671 0.
0.545919 0.0169781 0.
0.547931 0.0169857 0.
0.549943 0.0169933 0.
0.551947 0.0169959 0.
0.553952 0.0169983 0.
0.555955 0.0170005 0.
0.557958 0.017002 0.
0.559961 0.0170034 0.
0.561963 0.0170047 0.
0.563965 0.0170057 0.
0.565967 0.0170067 0.
0.567969 0.0170075 0.
0.56997 0.0170081 0.
0.571972 0.0170088 0.
0.573972 0.0170094 0.
0.575972 0.01701 0.
0.577972 0.0170106 0.
0.579973 0.0170108 0.
0.581973 0.017011 0.
0.583974 0.0170111 0.
0.585974 0.0170112 0.
0.587974 0.0170112 0.
0.589974 0.0170104 0.
0.591974 0.0170089 0.
0.593974 0.0170074 0.
0.595981 0.0170107 0.
0.597991 0.0170155 0.
0.6 0.0170202 0.
0.602011 0.0170157 0.
0.604021 0.0170112 0.
0.606029 0.0170081 0.
0.608029 0.0170095 0.
0.610029 0.0170109 0.
0.612029 0.0170116 0.
0.61403 0.0170114 0.
0.61603 0.0170113 0.
0.618031 0.0170111 0.
0.620031 0.0170109 0.
0.622032 0.0170107 0.
0.624032 0.0170101 0.
0.626032 0.0170094 0.
0.628032 0.0170087 0.
0.630034 0.0170077 0.
0.632035 0.0170068 0.
0.634037 0.0170059 0.
0.636039 0.0170049 0.
0.638041 0.0170039 0.
0.640044 0.0170023 0.
0.642048 0.0170004 0.
0.644051 0.0169985 0.
0.646057 0.0169955 0.
0.648062 0.0169922 0.
0.650068 0.0169887 0.
0.652085 0.0169781 0.
0.654102 0.0169676 0.
0.656127 0.0169528 0.
0.658172 0.0169257 0.
0.660217 0.0168988 0.
0.662281 0.0168665 0.
0.664363 0.0168286 0.
0.666443 0.0167909 0.
0.668637 0.0166839 0.
0.670847 0.0165686 0.
0.67309 0.0164362 0.
0.675476 0.0161833 0.
0.67785 0.01594 0.
0.680555 0.0155744 0.
0.683314 0.0152121 0.
0.686319 0.0145639 0.
0.689465 0.013727 0.
0.693134 0.0127436 0.
0.697173 0.0116091 0.
0.701512 0.0103582 0.
0.707026 0.00830741 0.
0.712577 0.00598588 0.
0.718957 0.00392494 0.
0.725836 0.001674 0.
0.469404 0.0014925 0.
0.476366 0.00371418 0.
0.482999 0.00595223 0.
0.488468 0.00809607 0.
0.494233 0.0103907 0.
0.499204 0.0123679 0.
0.503559 0.0138213 0.
0.50743 0.0148997 0.
0.510865 0.0157861 0.
0.513852 0.0165032 0.
0.516774 0.017121 0.
0.519443 0.0175002 0.
0.522086 0.0178741 0.
0.52447 0.0181303 0.
0.526864 0.0183926 0.
0.529117 0.0185332 0.
0.531333 0.0186558 0.
0.533532 0.0187692 0.
0.535615 0.0188089 0.
0.5377 0.0188487 0.
0.539768 0.0188838 0.
0.541818 0.0189144 0.
0.543868 0.0189452 0.
0.545894 0.0189623 0.
0.547912 0.0189745 0.
0.54993 0.0189866 0.
0.551937 0.0189908 0.
0.553943 0.0189947 0.
0.555948 0.0189982 0.
0.557952 0.0190003 0.
0.559956 0.0190024 0.
0.561959 0.0190041 0.
0.563961 0.0190054 0.
0.565964 0.0190066 0.
0.567966 0.0190075 0.
0.569967 0.0190082 0.
0.571969 0.0190089 0.
0.57397 0.0190097 0.
0.57597 0.0190105 0.
0.57797 0.0190113 0.
0.579971 0.0190115 0.
0.581972 0.0190117 0.
0.583973 0.0190119 0.
0.585974 0.0190119 0.
0.587975 0.019012 0.
0.589975 0.019011 0.
0.591976 0.0190093 0.
0.593976 0.0190076 0.
0.595983 0.0190116 0.
0.597992 0.0190172 0.
0.6 0.0190228 0.
0.60201 0.0190175 0.
0.604019 0.0190122 0.
0.606027 0.0190084 0.
0.608027 0.0190099 0.
0.610028 0.0190114 0.
0.612029 0.0190122 0.
0.61403 0.0190121 0.
0.616031 0.0190121 0.
0.618032 0.0190118 0.
0.620033 0.0190116 0.
0.622034 0.0190113 0.
0.624034 0.0190105 0.
0.626034 0.0190096 0.
0.628035 0.0190087 0.
0.630037 0.0190077 0.
0.632039 0.0190066 0.
0.634041 0.0190054 0.
0.636044 0.019004 0.
0.638046 0.0190026 0.
0.64005 0.0190005 0.
0.642055 0.0189978 0.
0.64406 0.0189952 0.
0.646068 0.01899 0.
0.648077 0.0189843 0.
0.650086 0.0189782 0.
0.652111 0.018962 0.
0.654136 0.0189459 0.
0.656172 0.0189236 0.
0.658235 0.0188851 0.
0.660297 0.0188468 0.
0.662387 0.0188031 0.
0.664498 0.0187543 0.
0.666607 0.0187057 0.
0.668889 0.0185348 0.
0.671182 0.0183566 0.
0.673524 0.0181521 0.
0.675983 0.0178393 0.
0.678473 0.0175188 0.
0.681318 0.0170234 0.
0.684232 0.0164952 0.
0.687383 0.0156286 0.
0.69063 0.014715 0.
0.69444 0.0136138 0.
0.698935 0.0121721 0.
0.703777 0.0104965 0.
0.709524 0.00823598 0.
0.715372 0.00583057 0.
0.722451 0.00388792 0.
0.729531 0.00150477 0.
0.465048 0.00123603 0.
0.472287 0.00361237 0.
0.480048 0.00566593 0.
0.485829 0.00801789 0.
0.491843 0.0103251 0.
0.497031 0.0125406 0.
0.501915 0.0144226 0.
0.506005 0.0157019 0.
0.509594 0.0167839 0.
0.512832 0.0176883 0.
0.515977 0.0185303 0.
0.51879 0.0190443 0.
0.521567 0.0195326 0.
0.524062 0.0198414 0.
0.526521 0.0201418 0.
0.52885 0.0203394 0.
0.531124 0.0205151 0.
0.533385 0.0206846 0.
0.535493 0.0207335 0.
0.537603 0.0207829 0.
0.539693 0.0208287 0.
0.541758 0.0208711 0.
0.543823 0.020914 0.
0.54586 0.020939 0.
0.547886 0.0209571 0.
0.549912 0.0209754 0.
0.551922 0.020982 0.
0.553931 0.0209883 0.
0.555939 0.020994 0.
0.557944 0.020997 0.
0.55995 0.0210001 0.
0.561954 0.0210024 0.
0.563957 0.021004 0.
0.56596 0.0210055 0.
0.567962 0.0210066 0.
0.569965 0.0210075 0.
0.571967 0.0210084 0.
0.573968 0.0210094 0.
0.575968 0.0210103 0.
0.577969 0.0210112 0.
0.57997 0.0210115 0.
0.581972 0.0210117 0.
0.583973 0.0210119 0.
0.585974 0.0210119 0.
0.587975 0.0210119 0.
0.589977 0.0210109 0.
0.591978 0.0210091 0.
0.593979 0.0210073 0.
0.595985 0.0210112 0.
0.597993 0.0210168 0.
0.6 0.0210224 0.
0.602009 0.0210171 0.
0.604017 0.0210118 0.
0.606024 0.021008 0.
0.608026 0.0210096 0.
0.610027 0.0210111 0.
0.612028 0.0210119 0.
0.61403 0.021012 0.
0.616031 0.021012 0.
0.618033 0.0210118 0.
0.620034 0.0210115 0.
0.622035 0.0210111 0.
0.624036 0.0210102 0.
0.626037 0.0210092 0.
0.628037 0.0210081 0.
0.63004 0.0210068 0.
0.632042 0.0210055 0.
0.634045 0.0210039 0.
0.636049 0.021002 0.
0.638052 0.0210001 0.
0.640058 0.020997 0.
0.642065 0.0209932 0.
0.644072 0.0209893 0.
0.646083 0.0209813 0.
0.648096 0.0209722 0.
0.650109 0.0209626 0.
0.652145 0.0209385 0.
0.654181 0.0209145 0.
0.65623 0.0208828 0.
0.658311 0.0208315 0.
0.660392 0.0207805 0.
0.662511 0.0207199 0.
0.664656 0.0206532 0.
0.666802 0.0205865 0.
0.66916 0.0203478 0.
0.671523 0.0201099 0.
0.673955 0.019836 0.
0.676486 0.0194725 0.
0.679131 0.01906 0.
0.682098 0.0184361 0.
0.685241 0.0176622 0.
0.688537 0.016602 0.
0.692044 0.0155034 0.
0.696047 0.0142634 0.
0.700844 0.0125819 0.
0.706022 0.0105309 0.
0.712021 0.00808615 0.
0.718145 0.00566457 0.
0.726389 0.00364989 0.
0.734242 0.00124654 0.
0.459014 0.000844071 0.
0.467989 0.00344246 0.
0.477114 0.00536941 0.
0.483193 0.00791831 0.
0.48952 0.0102305 0.
0.494926 0.0126314 0.
0.500325 0.0149116 0.
0.504536 0.01639 0.
0.508342 0.0176864 0.
0.51187 0.0188045 0.
0.515181 0.0198038 0.
0.518144 0.0204458 0.
0.52101 0.0209985 0.
0.523621 0.0214017 0.
0.526145 0.0217819 0.
0.528555 0.0220713 0.
0.53088 0.0223221 0.
0.533201 0.0225716 0.
0.535344 0.0226353 0.
0.537486 0.0226977 0.
0.539604 0.0227574 0.
0.541684 0.0228146 0.
0.543765 0.0228724 0.
0.545815 0.0229076 0.
0.547852 0.0229334 0.
0.549889 0.0229593 0.
0.551903 0.0229696 0.
0.553916 0.0229792 0.
0.555928 0.0229878 0.
0.557935 0.0229921 0.
0.559943 0.0229963 0.
0.561948 0.0229996 0.
0.563952 0.0230015 0.
0.565956 0.0230034 0.
0.567959 0.0230049 0.
0.569962 0.0230061 0.
0.571965 0.0230074 0.
0.573966 0.0230084 0.
0.575967 0.0230094 0.
0.577968 0.0230104 0.
0.579969 0.0230107 0.
0.581971 0.023011 0.
0.583973 0.0230112 0.
0.585974 0.0230111 0.
0.587976 0.023011 0.
0.589978 0.02301 0.
0.59198 0.0230081 0.
0.593982 0.0230063 0.
0.595987 0.0230096 0.
0.597994 0.0230144 0.
0.6 0.0230192 0.
0.602008 0.0230146 0.
0.604015 0.0230101 0.
0.606022 0.023007 0.
0.608024 0.0230085 0.
0.610026 0.0230101 0.
0.612028 0.0230109 0.
0.61403 0.023011 0.
0.616031 0.0230111 0.
0.618033 0.023011 0.
0.620035 0.0230106 0.
0.622037 0.0230103 0.
0.624038 0.0230092 0.
0.626039 0.023008 0.
0.62804 0.0230068 0.
0.630043 0.0230051 0.
0.632046 0.0230034 0.
0.63405 0.0230014 0.
0.636054 0.0229989 0.
0.638059 0.0229964 0.
0.640066 0.0229921 0.
0.642076 0.0229864 0.
0.644086 0.0229808 0.
0.646102 0.022969 0.
0.64812 0.0229557 0.
0.650139 0.0229414 0.
0.652189 0.0229068 0.
0.654239 0.0228724 0.
0.656304 0.0228286 0.
0.658405 0.0227625 0.
0.660505 0.0226969 0.
0.662664 0.0226075 0.
0.664854 0.0225076 0.
0.667057 0.0223994 0.
0.669468 0.022077 0.
0.671877 0.0217606 0.
0.674421 0.0213924 0.
0.677035 0.0209637 0.
0.679819 0.0204294 0.
0.682816 0.0197671 0.
0.686203 0.0187467 0.
0.689657 0.0175201 0.
0.693423 0.016226 0.
0.69782 0.0146914 0.
0.702975 0.0127717 0.
0.708368 0.0104236 0.
0.714711 0.00788677 0.
0.721161 0.00553667 0.
0.730509 0.00340165 0.
0.740338 0.000846386 0.
0.449026 0.000566233 0.
0.463734 0.00319817 0.
0.473827 0.00521034 0.
0.480612 0.00770935 0.
0.48729 0.0101588 0.
0.492796 0.0126387 0.
0.498342 0.0150788 0.
0.502877 0.0168394 0.
0.507084 0.0185038 0.
0.510866 0.0197809 0.
0.514182 0.0208373 0.
0.517374 0.0217264 0.
0.520376 0.0224036 0.
0.523158 0.0229423 0.
0.525752 0.0234057 0.
0.528252 0.0237932 0.
0.530629 0.0241201 0.
0.533009 0.0244512 0.
0.535192 0.024536 0.
0.537367 0.0246116 0.
0.539514 0.0246854 0.
0.54161 0.0247576 0.
0.543707 0.0248303 0.
0.54577 0.024876 0.
0.547818 0.0249095 0.
0.549866 0.0249432 0.
0.551884 0.0249571 0.
0.553901 0.02497 0.
0.555917 0.0249815 0.
0.557926 0.0249871 0.
0.559936 0.0249926 0.
0.561943 0.0249968 0.
0.563947 0.0249991 0.
0.565952 0.0250014 0.
0.567956 0.0250032 0.
0.569959 0.0250048 0.
0.571962 0.0250063 0.
0.573964 0.0250074 0.
0.575965 0.0250085 0.
0.577966 0.0250095 0.
0.579968 0.0250099 0.
0.58197 0.0250102 0.
0.583972 0.0250104 0.
0.585975 0.0250103 0.
0.587977 0.0250101 0.
0.589979 0.025009 0.
0.591982 0.0250072 0.
0.593984 0.0250053 0.
0.595989 0.025008 0.
0.597995 0.025012 0.
0.6 0.0250159 0.
0.602007 0.0250122 0.
0.604013 0.0250084 0.
0.606019 0.0250059 0.
0.608021 0.0250074 0.
0.610024 0.025009 0.
0.612027 0.0250099 0.
0.614029 0.0250101 0.
0.616032 0.0250103 0.
0.618034 0.0250101 0.
0.620036 0.0250098 0.
0.622038 0.0250095 0.
0.62404 0.0250082 0.
0.626041 0.0250069 0.
0.628042 0.0250055 0.
0.630046 0.0250034 0.
0.63205 0.0250013 0.
0.634054 0.0249989 0.
0.63606 0.0249958 0.
0.638066 0.0249926 0.
0.640075 0.0249871 0.
0.642088 0.0249797 0.
0.6441 0.0249723 0.
0.646121 0.0249566 0.
0.648144 0.0249391 0.
0.65017 0.02492 0.
0.652233 0.0248749 0.
0.654296 0.0248301 0.
0.656378 0.0247738 0.
0.658499 0.0246929 0.
0.660619 0.0246125 0.
0.662822 0.0244917 0.
0.665058 0.0243579 0.
0.667322 0.0242018 0.
0.669784 0.023795 0.
0.672239 0.0233995 0.
0.674922 0.022928 0.
0.677647 0.0224189 0.
0.680648 0.0216523 0.
0.683743 0.0208355 0.
0.687217 0.0196844 0.
0.69086 0.0183394 0.
0.694829 0.0168634 0.
0.699645 0.0149895 0.
0.705111 0.0128122 0.
0.710715 0.0102715 0.
0.717317 0.00765287 0.
0.724308 0.0054158 0.
0.734993 0.00325509 0.
0.75113 0.000553263 0.
0.434075 0.000516015 0.
0.459635 0.00281081 0.
0.470491 0.00513412 0.
0.47816 0.00744577 0.
0.484874 0.0101077 0.
0.490615 0.012559 0.
0.496282 0.0150994 0.
0.50116 0.0171588 0.
0.505825 0.0192292 0.
0.509601 0.0205793 0.
0.513117 0.0217894 0.
0.516556 0.0229671 0.
0.519686 0.0237588 0.
0.522662 0.0244449 0.
0.525304 0.0249753 0.
0.527867 0.025446 0.
0.530272 0.0258207 0.
0.532696 0.0262023 0.
0.534943 0.0263424 0.
0.537166 0.0264592 0.
0.539359 0.0265693 0.
0.541478 0.0266564 0.
0.543599 0.0267442 0.
0.545684 0.0268063 0.
0.547752 0.0268557 0.
0.549819 0.0269057 0.
0.551847 0.0269275 0.
0.553872 0.0269474 0.
0.555895 0.0269653 0.
0.557908 0.0269738 0.
0.559922 0.0269822 0.
0.561933 0.0269889 0.
0.56394 0.0269931 0.
0.565947 0.0269973 0.
0.567952 0.0270002 0.
0.569956 0.0270025 0.
0.57196 0.0270047 0.
0.573962 0.0270061 0.
0.575963 0.0270073 0.
0.577965 0.0270084 0.
0.579967 0.0270087 0.
0.58197 0.027009 0.
0.583972 0.0270091 0.
0.585975 0.0270089 0.
0.587978 0.0270086 0.
0.589981 0.0270075 0.
0.591983 0.0270057 0.
0.593986 0.0270038 0.
0.595991 0.0270059 0.
0.597996 0.0270091 0.
0.6 0.0270123 0.
0.602006 0.0270092 0.
0.604012 0.0270061 0.
0.606017 0.027004 0.
0.60802 0.0270056 0.
0.610023 0.0270073 0.
0.612026 0.0270083 0.
0.614029 0.0270086 0.
0.616032 0.0270089 0.
0.618035 0.0270089 0.
0.620037 0.0270086 0.
0.62204 0.0270083 0.
0.624042 0.0270068 0.
0.626043 0.0270051 0.
0.628045 0.0270033 0.
0.63005 0.0270003 0.
0.632055 0.0269973 0.
0.634061 0.0269934 0.
0.63607 0.0269876 0.
0.638078 0.0269819 0.
0.640093 0.0269731 0.
0.642111 0.0269623 0.
0.644129 0.0269515 0.
0.64616 0.0269276 0.
0.648194 0.0269009 0.
0.650232 0.0268716 0.
0.652317 0.0268074 0.
0.654401 0.026744 0.
0.656512 0.0266682 0.
0.658668 0.0265684 0.
0.660819 0.0264701 0.
0.663073 0.0262998 0.
0.665355 0.0261166 0.
0.667691 0.025888 0.
0.670187 0.025426 0.
0.672669 0.0249829 0.
0.675477 0.0244276 0.
0.678335 0.0238085 0.
0.681529 0.0227984 0.
0.684836 0.0217648 0.
0.68838 0.0204608 0.
0.692108 0.0190462 0.
0.696594 0.0171875 0.
0.701666 0.0151115 0.
0.707223 0.0128023 0.
0.713015 0.0101153 0.
0.71991 0.00748153 0.
0.727534 0.00518172 0.
0.739102 0.00293189 0.
0.772734 0.000555344 0.
0.410687 0.000978614 0.
0.455594 0.00229245 0.
0.466953 0.00503838 0.
0.475607 0.00718445 0.
0.482477 0.0100262 0.
0.488486 0.0124533 0.
0.494249 0.0150858 0.
0.499415 0.0173867 0.
0.50433 0.0197305 0.
0.508196 0.0212405 0.
0.512009 0.0226565 0.
0.515625 0.0240542 0.
0.518883 0.0249968 0.
0.521957 0.025793 0.
0.524647 0.0264024 0.
0.527358 0.0270257 0.
0.529842 0.0274678 0.
0.532333 0.0279088 0.
0.534665 0.0281209 0.
0.536943 0.0282895 0.
0.539191 0.0284469 0.
0.541338 0.0285503 0.
0.543486 0.0286546 0.
0.545596 0.028734 0.
0.547684 0.0288003 0.
0.549772 0.0288673 0.
0.551809 0.0288974 0.
0.553842 0.0289246 0.
0.555872 0.028949 0.
0.557891 0.0289604 0.
0.559909 0.0289717 0.
0.561924 0.0289809 0.
0.563933 0.028987 0.
0.565942 0.0289931 0.
0.567948 0.0289971 0.
0.569952 0.0290001 0.
0.571957 0.0290031 0.
0.573959 0.0290047 0.
0.575961 0.0290061 0.
0.577963 0.0290074 0.
0.579966 0.0290076 0.
0.581969 0.0290077 0.
0.583972 0.0290078 0.
0.585975 0.0290074 0.
0.587978 0.0290071 0.
0.589982 0.0290059 0.
0.591985 0.0290041 0.
0.593988 0.0290024 0.
0.595992 0.0290039 0.
0.597996 0.0290063 0.
0.6 0.0290088 0.
0.602005 0.0290062 0.
0.60401 0.0290037 0.
0.606015 0.0290022 0.
0.608019 0.0290038 0.
0.610022 0.0290055 0.
0.612026 0.0290066 0.
0.614029 0.0290071 0.
0.616032 0.0290076 0.
0.618035 0.0290076 0.
0.620038 0.0290073 0.
0.622041 0.0290071 0.
0.624044 0.0290053 0.
0.626046 0.0290034 0.
0.628049 0.0290012 0.
0.630054 0.0289972 0.
0.63206 0.0289933 0.
0.634067 0.0289878 0.
0.636079 0.0289794 0.
0.638091 0.028971 0.
0.64011 0.0289591 0.
0.642134 0.0289447 0.
0.644158 0.0289304 0.
0.646199 0.028898 0.
0.648244 0.028862 0.
0.650295 0.0288217 0.
0.652404 0.0287374 0.
0.654511 0.0286541 0.
0.656656 0.0285565 0.
0.658851 0.028435 0.
0.661042 0.0283153 0.
0.663357 0.0280825 0.
0.665694 0.0278392 0.
0.66813 0.0275132 0.
0.670707 0.0269679 0.
0.67333 0.026418 0.
0.676206 0.0257633 0.
0.679157 0.0250066 0.
0.682454 0.0238469 0.
0.686001 0.0226042 0.
0.689649 0.0211458 0.
0.693411 0.0196548 0.
0.698436 0.0173717 0.
0.703802 0.015131 0.
0.709432 0.0126637 0.
0.715402 0.00992381 0.
0.722457 0.00737223 0.
0.730826 0.00498631 0.
0.742838 0.00240062 0.
0.793226 0.00136836 0.
0.399625 0.00180056 0.
0.451651 0.00199044 0.
0.463374 0.00485889 0.
0.472905 0.00696991 0.
0.479984 0.00982915 0.
0.486339 0.0123226 0.
0.49212 0.0150309 0.
0.497459 0.0174382 0.
0.502471 0.0198836 0.
0.506731 0.0217892 0.
0.510878 0.0234374 0.
0.514552 0.0249193 0.
0.517868 0.0260349 0.
0.521069 0.0270115 0.
0.523954 0.0277879 0.
0.526804 0.028563 0.
0.529406 0.0291025 0.
0.531967 0.0295988 0.
0.534389 0.0298822 0.
0.536717 0.0301011 0.
0.53902 0.0303114 0.
0.541191 0.0304296 0.
0.543366 0.0305493 0.
0.5455 0.0306469 0.
0.547606 0.0307322 0.
0.549714 0.0308187 0.
0.551762 0.0308594 0.
0.553805 0.0308954 0.
0.555845 0.030928 0.
0.557868 0.0309428 0.
0.559892 0.0309577 0.
0.561911 0.0309699 0.
0.563922 0.0309784 0.
0.565934 0.0309868 0.
0.567942 0.0309924 0.
0.569948 0.0309966 0.
0.571954 0.0310007 0.
0.573957 0.0310026 0.
0.575959 0.0310041 0.
0.577962 0.0310056 0.
0.579965 0.0310058 0.
0.581969 0.0310059 0.
0.583972 0.0310059 0.
0.585976 0.0310055 0.
0.587979 0.031005 0.
0.589983 0.0310039 0.
0.591986 0.0310023 0.
0.59399 0.0310006 0.
0.595993 0.0310017 0.
0.597997 0.0310035 0.
0.6 0.0310054 0.
0.602005 0.0310033 0.
0.604009 0.0310013 0.
0.606014 0.0310001 0.
0.608017 0.0310017 0.
0.610021 0.0310032 0.
0.612025 0.0310044 0.
0.614029 0.031005 0.
0.616032 0.0310057 0.
0.618036 0.0310057 0.
0.620039 0.0310054 0.
0.622043 0.0310051 0.
0.624046 0.0310029 0.
0.626049 0.0310006 0.
0.628053 0.0309979 0.
0.63006 0.0309926 0.
0.632067 0.0309873 0.
0.634077 0.0309797 0.
0.636093 0.030968 0.
0.638108 0.0309564 0.
0.640133 0.0309407 0.
0.642163 0.0309222 0.
0.644193 0.0309038 0.
0.646247 0.0308602 0.
0.648304 0.0308124 0.
0.65037 0.0307585 0.
0.6525 0.0306535 0.
0.654628 0.0305498 0.
0.656807 0.0304273 0.
0.659039 0.030283 0.
0.661267 0.0301434 0.
0.663641 0.0298495 0.
0.666031 0.0295468 0.
0.668579 0.029116 0.
0.67124 0.0284891 0.
0.674037 0.0278097 0.
0.677023 0.0270167 0.
0.680183 0.025971 0.
0.683423 0.0247618 0.
0.687186 0.0233798 0.
0.691135 0.0216575 0.
0.694915 0.0200809 0.
0.700319 0.0174496 0.
0.705896 0.0150992 0.
0.711633 0.0124725 0.
0.717763 0.00972518 0.
0.725166 0.00722103 0.
0.734433 0.00490087 0.
0.746428 0.00198047 0.
0.801647 0.00174439 0.
0.392308 0.00169391 0.
0.447296 0.00177383 0.
0.459527 0.00457691 0.
0.470014 0.00683969 0.
0.477543 0.00953651 0.
0.484146 0.0122259 0.
0.490011 0.0149126 0.
0.495464 0.0174295 0.
0.500656 0.019978 0.
0.505247 0.0222571 0.
0.509561 0.0240821 0.
0.513332 0.0256105 0.
0.51687 0.027027 0.
0.520181 0.0281653 0.
0.523288 0.0291277 0.
0.526246 0.0300058 0.
0.528945 0.0306241 0.
0.53156 0.0311609 0.
0.534072 0.03154 0.
0.536455 0.0318414 0.
0.538829 0.0321401 0.
0.541029 0.0322774 0.
0.543231 0.0324162 0.
0.545391 0.0325366 0.
0.547516 0.0326461 0.
0.549642 0.0327573 0.
0.551705 0.0328117 0.
0.55376 0.0328588 0.
0.555811 0.0329016 0.
0.557841 0.0329207 0.
0.55987 0.0329399 0.
0.561894 0.0329558 0.
0.56391 0.0329671 0.
0.565925 0.0329784 0.
0.567935 0.032986 0.
0.569943 0.0329917 0.
0.57195 0.0329974 0.
0.573954 0.0329996 0.
0.575958 0.0330014 0.
0.577961 0.0330031 0.
0.579965 0.0330033 0.
0.581968 0.0330035 0.
0.583972 0.0330035 0.
0.585976 0.033003 0.
0.58798 0.0330024 0.
0.589983 0.0330014 0.
0.591987 0.033 0.
0.59399 0.0329986 0.
0.595994 0.0329994 0.
0.597997 0.0330008 0.
0.6 0.0330023 0.
0.602005 0.0330005 0.
0.604009 0.0329987 0.
0.606013 0.0329977 0.
0.608017 0.0329991 0.
0.61002 0.0330005 0.
0.612024 0.0330016 0.
0.614028 0.0330024 0.
0.616032 0.0330031 0.
0.618036 0.0330031 0.
0.62004 0.0330027 0.
0.622045 0.0330022 0.
0.624049 0.0329997 0.
0.626053 0.0329969 0.
0.628058 0.0329935 0.
0.630067 0.0329863 0.
0.632076 0.0329791 0.
0.634089 0.0329689 0.
0.636109 0.0329533 0.
0.63813 0.0329377 0.
0.64016 0.0329176 0.
0.642197 0.0328942 0.
0.644234 0.0328709 0.
0.646303 0.0328125 0.
0.648377 0.0327488 0.
0.650461 0.032677 0.
0.652612 0.0325482 0.
0.654761 0.032421 0.
0.656976 0.032258 0.
0.659247 0.0320675 0.
0.661524 0.0318787 0.
0.663977 0.0315143 0.
0.66642 0.0311523 0.
0.669062 0.0306046 0.
0.671742 0.0299443 0.
0.674718 0.0291453 0.
0.677811 0.0282359 0.
0.681198 0.0268752 0.
0.684628 0.0255274 0.
0.688359 0.024102 0.
0.692711 0.022063 0.
0.696933 0.0200624 0.
0.702327 0.0174632 0.
0.708081 0.0150418 0.
0.71381 0.0122493 0.
0.720135 0.00957545 0.
0.727873 0.00695426 0.
0.738339 0.00476139 0.
0.750319 0.00184908 0.
0.805512 0.00204718 0.
0.391392 0.00194173 0.
0.442749 0.00159507 0.
0.455806 0.0040882 0.
0.46707 0.00671121 0.
0.475176 0.00925131 0.
0.481939 0.012088 0.
0.48798 0.0147896 0.
0.493536 0.0174009 0.
0.49881 0.0200082 0.
0.503498 0.0224687 0.
0.508082 0.0245777 0.
0.5121 0.0262494 0.
0.515845 0.0279337 0.
0.51927 0.0292196 0.
0.52253 0.0303153 0.
0.525514 0.0312743 0.
0.528391 0.0320636 0.
0.531105 0.0326883 0.
0.533741 0.0331838 0.
0.536183 0.0335703 0.
0.538629 0.0339624 0.
0.540864 0.0341238 0.
0.543094 0.0342819 0.
0.545282 0.0344249 0.
0.547425 0.0345589 0.
0.549569 0.0346949 0.
0.551647 0.0347636 0.
0.553715 0.0348219 0.
0.555778 0.0348752 0.
0.557813 0.0348986 0.
0.559849 0.0349219 0.
0.561877 0.0349416 0.
0.563897 0.0349557 0.
0.565916 0.0349699 0.
0.567929 0.0349796 0.
0.569938 0.0349868 0.
0.571947 0.034994 0.
0.573951 0.0349967 0.
0.575956 0.0349987 0.
0.57796 0.0350006 0.
0.579964 0.0350009 0.
0.581968 0.0350011 0.
0.583972 0.0350011 0.
0.585976 0.0350005 0.
0.587981 0.0349999 0.
0.589984 0.0349989 0.
0.591987 0.0349978 0.
0.593991 0.0349966 0.
0.595994 0.0349971 0.
0.597997 0.0349981 0.
0.6 0.0349991 0.
0.602004 0.0349977 0.
0.604008 0.0349962 0.
0.606012 0.0349954 0.
0.608016 0.0349966 0.
0.610019 0.0349978 0.
0.612023 0.0349988 0.
0.614028 0.0349997 0.
0.616032 0.0350006 0.
0.618037 0.0350005 0.
0.620041 0.035 0.
0.622046 0.0349994 0.
0.624052 0.0349964 0.
0.626057 0.0349931 0.
0.628063 0.0349891 0.
0.630074 0.03498 0.
0.632085 0.0349709 0.
0.634101 0.034958 0.
0.636126 0.0349385 0.
0.638151 0.034919 0.
0.640188 0.0348944 0.
0.642232 0.0348662 0.
0.644276 0.034838 0.
0.64636 0.0347643 0.
0.64845 0.0346846 0.
0.650552 0.0345945 0.
0.652725 0.0344417 0.
0.654896 0.0342909 0.
0.65715 0.0340837 0.
0.65946 0.0338462 0.
0.661795 0.0336063 0.
0.664332 0.0331662 0.
0.666854 0.0327292 0.
0.669649 0.0320094 0.
0.672429 0.0312362 0.
0.675513 0.0303277 0.
0.678661 0.0293124 0.
0.682223 0.0277131 0.
0.685964 0.0261842 0.
0.689617 0.024723 0.
0.694326 0.0223846 0.
0.698921 0.0199873 0.
0.704404 0.0174471 0.
0.710235 0.0149018 0.
0.715977 0.012 0.
0.722537 0.00947565 0.
0.730594 0.00668522 0.
0.742198 0.00437475 0.
0.754374 0.001719 0.
0.806322 0.00244806 0.
0.39184 0.00246327 0.
0.438247 0.00159069 0.
0.452359 0.00374893 0.
0.464238 0.00651907 0.
0.472847 0.00903551 0.
0.479766 0.0118994 0.
0.486059 0.0146658 0.
0.491634 0.0173617 0.
0.496929 0.0199911 0.
0.501743 0.0225478 0.
0.50658 0.0249733 0.
0.510849 0.0268366 0.
0.514723 0.0286768 0.
0.518274 0.0301309 0.
0.521652 0.0314141 0.
0.524742 0.0325027 0.
0.527807 0.033479 0.
0.530613 0.0341849 0.
0.533379 0.0347985 0.
0.535855 0.0352427 0.
0.538337 0.0357053 0.
0.540619 0.0359081 0.
0.542885 0.036095 0.
0.545112 0.0362689 0.
0.547279 0.0364252 0.
0.54945 0.0365838 0.
0.551552 0.0366759 0.
0.55364 0.0367559 0.
0.555725 0.0368303 0.
0.557768 0.0368585 0.
0.559811 0.0368869 0.
0.561847 0.036912 0.
0.563873 0.0369322 0.
0.565899 0.0369526 0.
0.567916 0.0369663 0.
0.569928 0.0369761 0.
0.57194 0.0369859 0.
0.573946 0.0369899 0.
0.575952 0.036993 0.
0.577958 0.0369959 0.
0.579963 0.0369967 0.
0.581968 0.0369974 0.
0.583972 0.0369978 0.
0.585977 0.0369975 0.
0.587981 0.0369971 0.
0.589985 0.0369965 0.
0.591988 0.0369958 0.
0.593991 0.0369952 0.
0.595995 0.0369954 0.
0.597998 0.0369959 0.
0.600001 0.0369965 0.
0.602004 0.0369954 0.
0.604008 0.0369943 0.
0.606011 0.0369936 0.
0.608015 0.0369943 0.
0.610019 0.036995 0.
0.612023 0.0369957 0.
0.614028 0.0369961 0.
0.616032 0.0369965 0.
0.618038 0.0369959 0.
0.620044 0.0369948 0.
0.622049 0.0369937 0.
0.624057 0.0369893 0.
0.626064 0.0369846 0.
0.628072 0.0369788 0.
0.630087 0.0369663 0.
0.632102 0.0369538 0.
0.634124 0.0369359 0.
0.636157 0.0369089 0.
0.63819 0.036882 0.
0.640235 0.0368513 0.
0.642288 0.0368178 0.
0.644341 0.0367845 0.
0.646453 0.0366814 0.
0.648568 0.0365726 0.
0.6507 0.0364556 0.
0.652898 0.0362847 0.
0.65509 0.036116 0.
0.657394 0.0358546 0.
0.659742 0.0355664 0.
0.662136 0.0352706 0.
0.664719 0.0347854 0.
0.667344 0.0342528 0.
0.670273 0.0333733 0.
0.673232 0.0324684 0.
0.676472 0.031377 0.
0.679697 0.0301335 0.
0.683251 0.0284896 0.
0.687374 0.0267448 0.
0.691415 0.0249227 0.
0.69603 0.0225542 0.
0.700823 0.019923 0.
0.706455 0.0174103 0.
0.712253 0.0147432 0.
0.718107 0.011812 0.
0.724939 0.00938186 0.
0.733335 0.00649423 0.
0.745649 0.00392096 0.
0.758512 0.00164214 0.
0.806345 0.00294407 0.
0.392355 0.00308422 0.
0.433855 0.00169427 0.
0.448965 0.00359299 0.
0.461443 0.00631203 0.
0.470588 0.00890941 0.
0.477731 0.0117179 0.
0.484127 0.0145744 0.
0.489786 0.0172889 0.
0.495091 0.0199629 0.
0.500023 0.0225522 0.
0.504923 0.0251965 0.
0.50937 0.0272511 0.
0.513527 0.0292951 0.
0.517183 0.0309303 0.
0.52066 0.032415 0.
0.523937 0.0336652 0.
0.52716 0.0348097 0.
0.53 0.0355519 0.
0.532857 0.0362645 0.
0.535404 0.0368052 0.
0.537949 0.0373685 0.
0.540312 0.0376506 0.
0.542635 0.0378826 0.
0.544918 0.0380995 0.
0.547117 0.0382808 0.
0.549321 0.0384647 0.
0.551451 0.0385828 0.
0.553563 0.0386867 0.
0.55567 0.0387844 0.
0.557721 0.0388177 0.
0.559772 0.0388512 0.
0.561816 0.0388819 0.
0.563849 0.0389084 0.
0.565882 0.0389351 0.
0.567903 0.0389528 0.
0.569918 0.0389653 0.
0.571933 0.0389778 0.
0.573941 0.0389831 0.
0.575948 0.0389873 0.
0.577956 0.0389912 0.
0.579961 0.0389924 0.
0.581967 0.0389937 0.
0.583973 0.0389945 0.
0.585977 0.0389944 0.
0.587982 0.0389943 0.
0.589986 0.0389941 0.
0.591989 0.0389939 0.
0.593992 0.0389937 0.
0.595995 0.0389937 0.
0.597998 0.0389938 0.
0.600001 0.0389938 0.
0.602004 0.0389931 0.
0.604007 0.0389923 0.
0.606011 0.0389918 0.
0.608014 0.0389921 0.
0.610018 0.0389923 0.
0.612022 0.0389925 0.
0.614027 0.0389925 0.
0.616033 0.0389925 0.
0.618039 0.0389913 0.
0.620046 0.0389896 0.
0.622053 0.0389879 0.
0.624062 0.0389822 0.
0.626071 0.038976 0.
0.628081 0.0389685 0.
0.630101 0.0389525 0.
0.63212 0.0389365 0.
0.634148 0.0389134 0.
0.636188 0.0388788 0.
0.638229 0.0388442 0.
0.640283 0.0388073 0.
0.642346 0.0387684 0.
0.644407 0.0387296 0.
0.64655 0.0385933 0.
0.648696 0.0384518 0.
0.650862 0.0383048 0.
0.653092 0.0381122 0.
0.655317 0.037922 0.
0.657698 0.037585 0.
0.660113 0.0372262 0.
0.662623 0.0368243 0.
0.665281 0.0362328 0.
0.668003 0.0355792 0.
0.670936 0.0346595 0.
0.67411 0.0336168 0.
0.677473 0.0323708 0.
0.680927 0.0307821 0.
0.68445 0.0291383 0.
0.688803 0.0272293 0.
0.693245 0.0250338 0.
0.697809 0.0225742 0.
0.702729 0.0198933 0.
0.708433 0.0173884 0.
0.71418 0.0145699 0.
0.720213 0.0116844 0.
0.727279 0.00923744 0.
0.73614 0.00639544 0.
0.749074 0.00379684 0.
0.762445 0.00164071 0.
0.806272 0.00351235 0.
0.392466 0.00370012 0.
0.428984 0.00184402 0.
0.445684 0.00333207 0.
0.458695 0.00610238 0.
0.468265 0.00888484 0.
0.475694 0.0115278 0.
0.482189 0.0144832 0.
0.487958 0.0172106 0.
0.493244 0.0199073 0.
0.498257 0.0225302 0.
0.50306 0.0251861 0.
0.507754 0.0275124 0.
0.512242 0.0297943 0.
0.516008 0.0316291 0.
0.519622 0.0333066 0.
0.523106 0.0347397 0.
0.52628 0.0358953 0.
0.529297 0.0368163 0.
0.532273 0.0376745 0.
0.534945 0.0383485 0.
0.537553 0.0390117 0.
0.540003 0.0393849 0.
0.542382 0.0396613 0.
0.544727 0.0399237 0.
0.546954 0.0401247 0.
0.549187 0.0403308 0.
0.551345 0.0404762 0.
0.553479 0.0406067 0.
0.555609 0.0407321 0.
0.557668 0.0407706 0.
0.559728 0.0408094 0.
0.56178 0.0408458 0.
0.56382 0.0408793 0.
0.56586 0.0409129 0.
0.567886 0.0409355 0.
0.569905 0.0409513 0.
0.571924 0.0409672 0.
0.573934 0.0409742 0.
0.575943 0.0409799 0.
0.577952 0.0409853 0.
0.579959 0.0409872 0.
0.581966 0.0409891 0.
0.583972 0.0409905 0.
0.585977 0.0409908 0.
0.587982 0.0409912 0.
0.589986 0.0409914 0.
0.591989 0.0409917 0.
0.593993 0.0409919 0.
0.595996 0.0409918 0.
0.597998 0.0409917 0.
0.600001 0.0409916 0.
0.602004 0.040991 0.
0.604007 0.0409903 0.
0.60601 0.0409897 0.
0.608014 0.0409895 0.
0.610018 0.0409893 0.
0.612022 0.0409888 0.
0.614028 0.0409882 0.
0.616034 0.0409875 0.
0.618041 0.0409856 0.
0.620049 0.0409832 0.
0.622057 0.0409807 0.
0.624069 0.0409731 0.
0.62608 0.040965 0.
0.628093 0.0409551 0.
0.630118 0.0409347 0.
0.632142 0.0409142 0.
0.634176 0.0408854 0.
0.636225 0.0408431 0.
0.638273 0.040801 0.
0.640338 0.0407559 0.
0.642412 0.0407089 0.
0.644484 0.0406624 0.
0.646655 0.040491 0.
0.648827 0.0403168 0.
0.651026 0.0401408 0.
0.653285 0.0399326 0.
0.655541 0.0397238 0.
0.658008 0.0393028 0.
0.660491 0.0388731 0.
0.663133 0.0383498 0.
0.66588 0.037642 0.
0.668811 0.0367845 0.
0.671834 0.0357522 0.
0.67505 0.0346448 0.
0.678512 0.0332801 0.
0.682205 0.0313594 0.
0.685978 0.0295739 0.
0.690436 0.0275169 0.
0.695069 0.0250858 0.
0.699653 0.0224686 0.
0.70472 0.0198482 0.
0.710381 0.0173111 0.
0.716103 0.0143754 0.
0.72227 0.011595 0.
0.729585 0.00901763 0.
0.738998 0.00628213 0.
0.752289 0.00370235 0.
0.76637 0.0017036 0.
0.806342 0.0041022 0.
0.392287 0.00437192 0.
0.423715 0.00203737 0.
0.442491 0.00318153 0.
0.455985 0.00584301 0.
0.465945 0.00884023 0.
0.47366 0.0113358 0.
0.480134 0.0143224 0.
0.486082 0.0171004 0.
0.491346 0.0198164 0.
0.496449 0.0225139 0.
0.501222 0.0251158 0.
0.50607 0.027653 0.
0.510835 0.030164 0.
0.514679 0.032149 0.
0.518585 0.0340933 0.
0.522092 0.0356305 0.
0.525349 0.0369156 0.
0.528601 0.038048 0.
0.53169 0.0390383 0.
0.534501 0.0398401 0.
0.537111 0.0405472 0.
0.539642 0.041018 0.
0.542075 0.0413493 0.
0.54449 0.0416754 0.
0.546758 0.0419124 0.
0.549034 0.0421562 0.
0.551228 0.0423413 0.
0.553384 0.0425079 0.
0.555538 0.0426705 0.
0.557607 0.0427149 0.
0.559677 0.0427594 0.
0.561739 0.0428024 0.
0.563785 0.0428438 0.
0.565832 0.0428855 0.
0.567865 0.0429138 0.
0.569888 0.0429339 0.
0.571912 0.042954 0.
0.573925 0.0429633 0.
0.575937 0.0429709 0.
0.577948 0.0429781 0.
0.579956 0.0429808 0.
0.581964 0.0429834 0.
0.583971 0.0429856 0.
0.585976 0.0429866 0.
0.587981 0.0429877 0.
0.589986 0.0429885 0.
0.591989 0.0429891 0.
0.593993 0.0429898 0.
0.595996 0.0429899 0.
0.597998 0.0429899 0.
0.600001 0.04299 0.
0.602004 0.0429891 0.
0.604007 0.0429883 0.
0.60601 0.0429874 0.
0.608014 0.0429866 0.
0.610018 0.0429858 0.
0.612023 0.0429847 0.
0.61403 0.0429832 0.
0.616036 0.0429816 0.
0.618045 0.0429788 0.
0.620054 0.0429754 0.
0.622064 0.0429719 0.
0.624078 0.042962 0.
0.626092 0.0429513 0.
0.628108 0.0429385 0.
0.630138 0.0429124 0.
0.632168 0.0428864 0.
0.634209 0.0428509 0.
0.636267 0.0428007 0.
0.638324 0.0427507 0.
0.640403 0.0426937 0.
0.642492 0.0426334 0.
0.644582 0.0425719 0.
0.646775 0.0423593 0.
0.648968 0.0421453 0.
0.651224 0.0419145 0.
0.653562 0.0416444 0.
0.655886 0.0413841 0.
0.658404 0.0409134 0.
0.660912 0.0404424 0.
0.663639 0.0398137 0.
0.666469 0.0390143 0.
0.669646 0.0379534 0.
0.672806 0.0368051 0.
0.676206 0.0354822 0.
0.679682 0.0339715 0.
0.683495 0.0318841 0.
0.687617 0.0298956 0.
0.692182 0.0276399 0.
0.696916 0.0250142 0.
0.701519 0.0223533 0.
0.70672 0.0197835 0.
0.71234 0.0171692 0.
0.718052 0.0141937 0.
0.724473 0.0115064 0.
0.731909 0.00876603 0.
0.741885 0.00605579 0.
0.755339 0.00352614 0.
0.770466 0.00184024 0.
0.806487 0.00478165 0.
0.39218 0.00516866 0.
0.419954 0.00240537 0.
0.439399 0.00321748 0.
0.453506 0.00568797 0.
0.463655 0.00869267 0.
0.47168 0.01121 0.
0.478153 0.0141307 0.
0.484228 0.0170081 0.
0.489513 0.0197074 0.
0.494583 0.0224671 0.
0.499401 0.025014 0.
0.504379 0.0277233 0.
0.509076 0.0302401 0.
0.513241 0.0325094 0.
0.517474 0.034758 0.
0.520889 0.036385 0.
0.524368 0.0378744 0.
0.52788 0.0392158 0.
0.530961 0.0402544 0.
0.533848 0.041191 0.
0.536554 0.0419982 0.
0.539234 0.0426124 0.
0.541741 0.0430161 0.
0.544243 0.0434217 0.
0.546556 0.0436965 0.
0.548877 0.0439785 0.
0.551109 0.0442042 0.
0.553287 0.0444073 0.
0.555466 0.0446081 0.
0.557546 0.044659 0.
0.559626 0.0447094 0.
0.561697 0.0447588 0.
0.563751 0.0448082 0.
0.565805 0.0448579 0.
0.567843 0.0448922 0.
0.569872 0.0449164 0.
0.5719 0.0449408 0.
0.573916 0.0449524 0.
0.57593 0.0449619 0.
0.577943 0.0449709 0.
0.579952 0.0449743 0.
0.581961 0.0449778 0.
0.583969 0.0449807 0.
0.585975 0.0449824 0.
0.587981 0.0449842 0.
0.589986 0.0449855 0.
0.591989 0.0449866 0.
0.593993 0.0449876 0.
0.595996 0.044988 0.
0.597998 0.0449881 0.
0.600001 0.0449883 0.
0.602004 0.0449872 0.
0.604007 0.0449862 0.
0.60601 0.0449851 0.
0.608014 0.0449838 0.
0.610019 0.0449824 0.
0.612024 0.0449806 0.
0.614031 0.0449781 0.
0.616038 0.0449757 0.
0.618048 0.0449719 0.
0.620059 0.0449676 0.
0.62207 0.0449632 0.
0.624087 0.0449508 0.
0.626104 0.0449377 0.
0.628123 0.0449218 0.
0.630159 0.0448901 0.
0.632195 0.0448584 0.
0.634243 0.0448163 0.
0.636309 0.0447582 0.
0.638375 0.0447003 0.
0.640468 0.044631 0.
0.642573 0.0445573 0.
0.644681 0.0444794 0.
0.646896 0.0442252 0.
0.64911 0.0439712 0.
0.651432 0.0436804 0.
0.653855 0.0433447 0.
0.656278 0.0430125 0.
0.658877 0.0424756 0.
0.66147 0.0419342 0.
0.664357 0.0411112 0.
0.667191 0.0402528 0.
0.67054 0.0390669 0.
0.673914 0.0377756 0.
0.677429 0.036233 0.
0.681003 0.0344704 0.
0.684956 0.0322798 0.
0.689308 0.0301153 0.
0.69398 0.0276355 0.
0.698744 0.0249111 0.
0.703371 0.0222917 0.
0.708687 0.01972 0.
0.714237 0.0170025 0.
0.720064 0.0140729 0.
0.726654 0.011391 0.
0.734137 0.00857851 0.
0.744603 0.00575342 0.
0.758158 0.00344028 0.
0.774383 0.00208626 0.
0.806483 0.00558698 0.
0.392137 0.0060123 0.
0.417315 0.00290052 0.
0.436531 0.00331396 0.
0.451126 0.00561905 0.
0.461488 0.00853256 0.
0.46967 0.0111598 0.
0.476235 0.0139698 0.
0.482371 0.0169203 0.
0.48769 0.0196176 0.
0.492749 0.0224061 0.
0.497615 0.0249697 0.
0.502667 0.0277338 0.
0.507297 0.0302557 0.
0.511765 0.0327747 0.
0.51609 0.035207 0.
0.519539 0.0369928 0.
0.523345 0.0387501 0.
0.526947 0.040185 0.
0.530032 0.0413246 0.
0.533143 0.0425103 0.
0.535958 0.0434199 0.
0.538808 0.04419 0.
0.541382 0.044663 0.
0.543946 0.0451298 0.
0.546298 0.0454353 0.
0.548652 0.0457534 0.
0.550923 0.0460227 0.
0.55312 0.0462534 0.
0.555321 0.0464825 0.
0.557431 0.0465567 0.
0.55954 0.0466287 0.
0.561636 0.0466967 0.
0.563699 0.0467542 0.
0.565761 0.046812 0.
0.567808 0.0468539 0.
0.569844 0.0468853 0.
0.57188 0.046917 0.
0.5739 0.0469329 0.
0.575917 0.0469462 0.
0.577934 0.0469588 0.
0.579945 0.0469639 0.
0.581956 0.046969 0.
0.583966 0.0469734 0.
0.585972 0.0469764 0.
0.587979 0.0469793 0.
0.589985 0.0469816 0.
0.591989 0.0469834 0.
0.593993 0.0469852 0.
0.595996 0.0469859 0.
0.597998 0.0469863 0.
0.600001 0.0469867 0.
0.602004 0.0469852 0.
0.604008 0.0469838 0.
0.606011 0.0469822 0.
0.608016 0.0469799 0.
0.61002 0.0469777 0.
0.612027 0.0469746 0.
0.614035 0.0469706 0.
0.616044 0.0469665 0.
0.618056 0.046961 0.
0.620069 0.0469547 0.
0.622083 0.0469485 0.
0.624103 0.0469318 0.
0.626124 0.0469142 0.
0.628149 0.046893 0.
0.630195 0.0468517 0.
0.632241 0.0468107 0.
0.6343 0.0467592 0.
0.636376 0.0466923 0.
0.638452 0.0466258 0.
0.640578 0.0465311 0.
0.642719 0.0464289 0.
0.644863 0.0463203 0.
0.647095 0.0460404 0.
0.64932 0.0457598 0.
0.651698 0.0454031 0.
0.654181 0.0450108 0.
0.656699 0.04462 0.
0.659374 0.0440262 0.
0.662097 0.0433648 0.
0.665134 0.0423468 0.
0.668213 0.0412874 0.
0.671576 0.0400287 0.
0.6751 0.0386146 0.
0.678729 0.0368699 0.
0.682428 0.0348299 0.
0.686518 0.0325397 0.
0.691107 0.0301485 0.
0.695785 0.0275652 0.
0.700536 0.0248008 0.
0.705181 0.022255 0.
0.710568 0.0196598 0.
0.716034 0.0168702 0.
0.722002 0.013989 0.
0.728696 0.0112982 0.
0.736388 0.00849438 0.
0.747184 0.00561828 0.
0.76075 0.0034795 0.
0.777696 0.00248742 0.
0.80636 0.00634579 0.
0.392169 0.0068276 0.
0.415254 0.00342468 0.
0.433953 0.00346698 0.
0.448856 0.00558092 0.
0.459443 0.0083919 0.
0.467656 0.0111677 0.
0.474318 0.0138484 0.
0.480517 0.0168042 0.
0.485828 0.0195693 0.
0.490968 0.0223585 0.
0.49582 0.0249647 0.
0.500878 0.0276732 0.
0.505526 0.0302353 0.
0.510235 0.032951 0.
0.514348 0.0353654 0.
0.518092 0.0374778 0.
0.522227 0.039516 0.
0.525686 0.0409394 0.
0.529063 0.0423244 0.
0.532352 0.0437285 0.
0.535323 0.0447751 0.
0.538204 0.0456062 0.
0.540843 0.0461435 0.
0.543496 0.0467104 0.
0.545945 0.0471008 0.
0.548359 0.0474855 0.
0.550697 0.047819 0.
0.552924 0.0480806 0.
0.555157 0.0483414 0.
0.557304 0.0484447 0.
0.559448 0.0485427 0.
0.561573 0.048633 0.
0.563645 0.0486988 0.
0.565716 0.0487648 0.
0.567771 0.0488148 0.
0.569815 0.0488537 0.
0.57186 0.0488928 0.
0.573884 0.0489133 0.
0.575905 0.0489305 0.
0.577925 0.0489468 0.
0.579938 0.0489535 0.
0.58195 0.0489602 0.
0.583962 0.0489661 0.
0.58597 0.0489703 0.
0.587977 0.0489745 0.
0.589983 0.0489778 0.
0.591988 0.0489802 0.
0.593992 0.0489827 0.
0.595995 0.0489838 0.
0.597998 0.0489844 0.
0.600002 0.0489851 0.
0.602005 0.0489832 0.
0.604008 0.0489814 0.
0.606012 0.0489792 0.
0.608017 0.0489761 0.
0.610022 0.0489729 0.
0.61203 0.0489686 0.
0.614039 0.0489629 0.
0.616049 0.0489573 0.
0.618063 0.0489499 0.
0.620079 0.0489418 0.
0.622095 0.0489337 0.
0.62412 0.0489127 0.
0.626145 0.0488906 0.
0.628175 0.0488637 0.
0.630232 0.0488125 0.
0.632289 0.0487616 0.
0.634359 0.0487003 0.
0.636446 0.0486239 0.
0.638533 0.048548 0.
0.640699 0.0484225 0.
0.642885 0.0482861 0.
0.645075 0.0481408 0.
0.647338 0.0478319 0.
0.649594 0.0475229 0.
0.65204 0.0470613 0.
0.654563 0.0465658 0.
0.657208 0.046081 0.
0.659972 0.0454609 0.
0.662788 0.0446942 0.
0.665944 0.0435199 0.
0.66931 0.0422419 0.
0.672783 0.0408343 0.
0.676375 0.0392838 0.
0.680153 0.0373219 0.
0.683965 0.0350837 0.
0.688193 0.0326553 0.
0.692873 0.0301177 0.
0.697532 0.0274885 0.
0.702336 0.0247491 0.
0.706972 0.0222267 0.
0.712373 0.019612 0.
0.717779 0.016774 0.
0.723856 0.0139378 0.
0.730655 0.0111699 0.
0.738534 0.00843795 0.
0.749648 0.00564823 0.
0.763248 0.0035692 0.
0.780148 0.00289571 0.
0.806047 0.00702082 0.
0.392252 0.0075984 0.
0.413892 0.00389563 0.
0.431649 0.00365137 0.
0.446706 0.00544669 0.
0.457488 0.00828753 0.
0.465695 0.0111848 0.
0.472422 0.0137561 0.
0.478725 0.0166978 0.
0.484011 0.0195218 0.
0.489195 0.0223049 0.
0.494014 0.0249611 0.
0.49909 0.0275947 0.
0.503774 0.0302023 0.
0.508571 0.0329842 0.
0.512585 0.035449 0.
0.516568 0.0378571 0.
0.520661 0.039966 0.
0.524314 0.0415835 0.
0.528053 0.0432517 0.
0.531417 0.0447648 0.
0.5344 0.0459009 0.
0.537403 0.0468786 0.
0.540246 0.047579 0.
0.543017 0.0482648 0.
0.545585 0.0487544 0.
0.54806 0.0492057 0.
0.550472 0.0496109 0.
0.55273 0.0499011 0.
0.554992 0.0501855 0.
0.557175 0.0503181 0.
0.559348 0.0504453 0.
0.561501 0.0505627 0.
0.563582 0.0506362 0.
0.565664 0.0507101 0.
0.567729 0.0507685 0.
0.569782 0.0508161 0.
0.571835 0.0508641 0.
0.573864 0.05089 0.
0.575889 0.0509118 0.
0.577912 0.0509325 0.
0.579928 0.050941 0.
0.581943 0.0509495 0.
0.583956 0.0509571 0.
0.585965 0.0509629 0.
0.587974 0.0509687 0.
0.589981 0.0509731 0.
0.591986 0.0509764 0.
0.593991 0.0509797 0.
0.595995 0.0509811 0.
0.597998 0.050982 0.
0.600002 0.0509828 0.
0.602006 0.0509806 0.
0.604009 0.0509784 0.
0.606014 0.0509757 0.
0.60802 0.0509714 0.
0.610026 0.0509672 0.
0.612034 0.0509614 0.
0.614046 0.0509537 0.
0.616057 0.0509461 0.
0.618074 0.0509367 0.
0.620092 0.0509265 0.
0.622111 0.0509164 0.
0.62414 0.05089 0.
0.62617 0.0508625 0.
0.628207 0.0508288 0.
0.630275 0.050766 0.
0.632343 0.0507038 0.
0.634424 0.0506326 0.
0.636523 0.050548 0.
0.638621 0.0504638 0.
0.640825 0.0503021 0.
0.643051 0.0501298 0.
0.645284 0.0499521 0.
0.64758 0.0496191 0.
0.649867 0.0492832 0.
0.652386 0.048699 0.
0.65495 0.0481007 0.
0.657784 0.0475062 0.
0.660729 0.0467963 0.
0.663781 0.0457534 0.
0.666825 0.0445712 0.
0.670458 0.0431193 0.
0.674129 0.0415179 0.
0.677761 0.0398041 0.
0.681688 0.0376023 0.
0.685666 0.0351782 0.
0.689912 0.0326843 0.
0.694655 0.0300468 0.
0.6993 0.0274143 0.
0.704093 0.0247492 0.
0.708759 0.0222033 0.
0.714183 0.0195482 0.
0.719545 0.0166937 0.
0.725702 0.0139004 0.
0.732524 0.011075 0.
0.740601 0.00837144 0.
0.751987 0.00570864 0.
0.765615 0.00372315 0.
0.782335 0.0032516 0.
0.805674 0.00762006 0.
0.392468 0.00830841 0.
0.412756 0.00436819 0.
0.429531 0.0038576 0.
0.44468 0.00533362 0.
0.45549 0.00819264 0.
0.463681 0.0111343 0.
0.470548 0.0137027 0.
0.476978 0.0165942 0.
0.482212 0.0194741 0.
0.487461 0.0222513 0.
0.492194 0.0249206 0.
0.497324 0.0275496 0.
0.501985 0.0301604 0.
0.50678 0.0329041 0.
0.510811 0.035476 0.
0.514898 0.0380186 0.
0.518882 0.0402178 0.
0.522856 0.0421267 0.
0.526887 0.0440096 0.
0.530184 0.0455389 0.
0.533411 0.0469765 0.
0.536553 0.0480995 0.
0.53964 0.0489807 0.
0.542514 0.0497629 0.
0.545182 0.0503397 0.
0.54769 0.0508386 0.
0.550165 0.0513167 0.
0.552481 0.0516382 0.
0.554823 0.0519659 0.
0.557043 0.0521468 0.
0.559233 0.0523206 0.
0.561404 0.0524803 0.
0.563501 0.052562 0.
0.565599 0.052644 0.
0.567678 0.0527123 0.
0.569741 0.0527709 0.
0.571805 0.0528298 0.
0.57384 0.0528624 0.
0.575869 0.0528897 0.
0.577897 0.0529158 0.
0.579914 0.0529263 0.
0.581932 0.0529368 0.
0.583948 0.0529465 0.
0.585959 0.0529541 0.
0.58797 0.0529618 0.
0.589978 0.0529676 0.
0.591984 0.0529719 0.
0.59399 0.0529762 0.
0.595994 0.0529779 0.
0.597998 0.0529789 0.
0.600002 0.0529798 0.
0.602007 0.0529773 0.
0.604011 0.0529747 0.
0.606016 0.0529715 0.
0.608023 0.0529659 0.
0.61003 0.0529604 0.
0.61204 0.0529528 0.
0.614054 0.0529427 0.
0.616068 0.0529327 0.
0.618087 0.0529211 0.
0.620108 0.0529086 0.
0.62213 0.0528962 0.
0.624166 0.0528634 0.
0.626202 0.0528291 0.
0.628247 0.0527869 0.
0.630327 0.0527095 0.
0.632407 0.0526328 0.
0.634503 0.0525502 0.
0.636617 0.0524574 0.
0.638731 0.0523651 0.
0.640967 0.052145 0.
0.643221 0.0519121 0.
0.645507 0.0516762 0.
0.647875 0.0513128 0.
0.650216 0.0509513 0.
0.652784 0.050267 0.
0.655329 0.0496015 0.
0.658398 0.0489029 0.
0.661538 0.0480957 0.
0.664848 0.04671 0.
0.668051 0.0453593 0.
0.671677 0.0438816 0.
0.675569 0.0420737 0.
0.67937 0.0401103 0.
0.68328 0.0377609 0.
0.687408 0.0351956 0.
0.691665 0.0326536 0.
0.696445 0.0299725 0.
0.701083 0.0273466 0.
0.705825 0.0247566 0.
0.710546 0.0221807 0.
0.715964 0.0194608 0.
0.721288 0.0166445 0.
0.72754 0.0138625 0.
0.73433 0.011005 0.
0.742566 0.00827077 0.
0.754177 0.00571552 0.
0.767786 0.0038959 0.
0.783918 0.00358241 0.
0.805319 0.00820324 0.
0.392942 0.00888393 0.
0.412042 0.00481776 0.
0.427827 0.00409015 0.
0.44288 0.00532466 0.
0.453656 0.00816477 0.
0.461801 0.0110722 0.
0.468758 0.013707 0.
0.475258 0.0165349 0.
0.480442 0.0193954 0.
0.485741 0.0222232 0.
0.490434 0.0248831 0.
0.495563 0.0275262 0.
0.500202 0.0300993 0.
0.504966 0.0327827 0.
0.509019 0.0354374 0.
0.513138 0.0380369 0.
0.517091 0.0403957 0.
0.521295 0.0425353 0.
0.525357 0.0444826 0.
0.528849 0.0462164 0.
0.532296 0.0479436 0.
0.535617 0.0492262 0.
0.538897 0.0502473 0.
0.541796 0.0511054 0.
0.544659 0.051839 0.
0.547242 0.0524187 0.
0.549819 0.0530022 0.
0.552216 0.0533695 0.
0.554643 0.0537428 0.
0.55691 0.0539718 0.
0.559116 0.0541927 0.
0.561307 0.0543977 0.
0.56342 0.0544875 0.
0.565534 0.0545778 0.
0.567627 0.0546558 0.
0.5697 0.0547254 0.
0.571775 0.0547954 0.
0.573815 0.0548348 0.
0.575849 0.0548677 0.
0.577881 0.0548991 0.
0.579901 0.0549116 0.
0.581922 0.0549242 0.
0.58394 0.0549358 0.
0.585953 0.0549453 0.
0.587966 0.0549549 0.
0.589975 0.0549621 0.
0.591982 0.0549674 0.
0.593989 0.0549727 0.
0.595994 0.0549747 0.
0.597998 0.0549758 0.
0.600002 0.0549769 0.
0.602008 0.054974 0.
0.604013 0.054971 0.
0.606019 0.0549672 0.
0.608027 0.0549604 0.
0.610035 0.0549536 0.
0.612046 0.0549442 0.
0.614062 0.0549318 0.
0.616078 0.0549193 0.
0.6181 0.0549054 0.
0.620125 0.0548907 0.
0.622149 0.0548761 0.
0.624191 0.0548367 0.
0.626234 0.0547957 0.
0.628287 0.0547446 0.
0.630379 0.0546526 0.
0.632471 0.0545614 0.
0.634582 0.0544677 0.
0.636712 0.0543667 0.
0.638841 0.0542661 0.
0.641111 0.053983 0.
0.643393 0.0536893 0.
0.645744 0.053395 0.
0.648203 0.0529869 0.
0.650671 0.0525448 0.
0.653403 0.0517174 0.
0.656071 0.0509522 0.
0.659236 0.0501568 0.
0.662468 0.0492335 0.
0.665972 0.0475685 0.
0.669456 0.0460357 0.
0.673063 0.0444853 0.
0.677074 0.0425057 0.
0.681033 0.0402886 0.
0.684919 0.0378202 0.
0.689164 0.0351669 0.
0.693463 0.0325865 0.
0.698201 0.0299155 0.
0.702826 0.0273304 0.
0.70756 0.0247396 0.
0.712313 0.0221619 0.
0.71769 0.0194034 0.
0.722975 0.0166315 0.
0.729288 0.0138425 0.
0.7361 0.0109958 0.
0.744369 0.00817497 0.
0.756047 0.00575836 0.
0.769754 0.00411487 0.
0.784938 0.00393555 0.
0.804845 0.00872226 0.
0.393615 0.00934362 0.
0.411689 0.00525424 0.
0.426613 0.00438205 0.
0.441318 0.00544613 0.
0.452015 0.00825015 0.
0.460072 0.0110452 0.
0.4671 0.0137768 0.
0.473605 0.0165265 0.
0.478746 0.0193231 0.
0.484073 0.0222108 0.
0.488758 0.0248686 0.
0.493821 0.0275317 0.
0.498436 0.0300473 0.
0.503176 0.032689 0.
0.507258 0.0353673 0.
0.511298 0.0379655 0.
0.515291 0.0404744 0.
0.519569 0.0427621 0.
0.523606 0.0448018 0.
0.527451 0.0467992 0.
0.531027 0.0486949 0.
0.534482 0.050152 0.
0.537901 0.0513733 0.
0.541013 0.0524029 0.
0.544107 0.0533177 0.
0.54677 0.0539798 0.
0.54943 0.054664 0.
0.551907 0.0550677 0.
0.55438 0.0554777 0.
0.556691 0.0557615 0.
0.558916 0.0560237 0.
0.561137 0.0562728 0.
0.563279 0.0563748 0.
0.565425 0.0564782 0.
0.567544 0.0565708 0.
0.569631 0.0566549 0.
0.571719 0.0567398 0.
0.573771 0.0567903 0.
0.575814 0.0568328 0.
0.577856 0.0568737 0.
0.57988 0.0568887 0.
0.581904 0.0569037 0.
0.583925 0.0569179 0.
0.585941 0.0569305 0.
0.587957 0.0569431 0.
0.589969 0.0569526 0.
0.591977 0.0569594 0.
0.593986 0.0569662 0.
0.595992 0.056969 0.
0.597997 0.0569705 0.
0.600003 0.056972 0.
0.602009 0.0569682 0.
0.604016 0.0569643 0.
0.606023 0.0569593 0.
0.608033 0.0569505 0.
0.610044 0.0569417 0.
0.612058 0.0569296 0.
0.614078 0.0569137 0.
0.616097 0.0568978 0.
0.618122 0.0568812 0.
0.62015 0.056864 0.
0.622178 0.0568468 0.
0.624235 0.0567935 0.
0.626291 0.0567386 0.
0.628359 0.0566729 0.
0.630467 0.0565662 0.
0.632574 0.0564604 0.
0.634713 0.0563491 0.
0.636875 0.0562309 0.
0.639036 0.0561129 0.
0.64134 0.0557728 0.
0.643637 0.0554304 0.
0.646043 0.0550824 0.
0.648561 0.0546447 0.
0.651181 0.0541 0.
0.654073 0.0531336 0.
0.657001 0.0522081 0.
0.66031 0.0511915 0.
0.663649 0.0499844 0.
0.667159 0.0483027 0.
0.670928 0.0466264 0.
0.674676 0.0448734 0.
0.678647 0.0428021 0.
0.68271 0.0403909 0.
0.686608 0.0378107 0.
0.690861 0.0351348 0.
0.695241 0.0325166 0.
0.69992 0.0298902 0.
0.704537 0.0273531 0.
0.709251 0.0247492 0.
0.714014 0.0221645 0.
0.719403 0.0193669 0.
0.724628 0.0166344 0.
0.73093 0.0138344 0.
0.737806 0.0110379 0.
0.745992 0.00816132 0.
0.757612 0.00585725 0.
0.771356 0.00441502 0.
0.785443 0.00432252 0.
0.804116 0.00911901 0.
0.394558 0.0096591 0.
0.411634 0.0056786 0.
0.425704 0.00472285 0.
0.439976 0.00563588 0.
0.450535 0.00838634 0.
0.458475 0.0110535 0.
0.465539 0.0138788 0.
0.472008 0.0165564 0.
0.477124 0.0192847 0.
0.482443 0.0222037 0.
0.487122 0.02486 0.
0.492117 0.0275338 0.
0.496722 0.0300414 0.
0.501411 0.0326441 0.
0.5055 0.0352665 0.
0.509472 0.0378792 0.
0.513516 0.0404525 0.
0.517724 0.0428482 0.
0.521816 0.0450276 0.
0.525855 0.0471431 0.
0.529568 0.0492147 0.
0.533186 0.0509205 0.
0.536748 0.0523549 0.
0.540176 0.0536364 0.
0.543437 0.0547005 0.
0.546166 0.0554046 0.
0.548922 0.0561166 0.
0.551494 0.0566344 0.
0.554006 0.0571518 0.
0.556388 0.0575246 0.
0.55866 0.0578305 0.
0.560934 0.0581287 0.
0.563117 0.0582496 0.
0.565304 0.0583705 0.
0.567456 0.0584807 0.
0.569558 0.0585808 0.
0.571661 0.058682 0.
0.573725 0.0587445 0.
0.575778 0.0587972 0.
0.57783 0.058848 0.
0.579858 0.0588655 0.
0.581885 0.058883 0.
0.583909 0.0588999 0.
0.585928 0.0589156 0.
0.587948 0.0589313 0.
0.589962 0.058943 0.
0.591972 0.0589514 0.
0.593982 0.0589598 0.
0.59599 0.0589632 0.
0.597996 0.0589652 0.
0.600003 0.0589672 0.
0.602011 0.0589624 0.
0.604019 0.0589576 0.
0.606027 0.0589514 0.
0.60804 0.0589406 0.
0.610053 0.0589298 0.
0.612071 0.058915 0.
0.614093 0.0588955 0.
0.616116 0.0588761 0.
0.618145 0.0588566 0.
0.620177 0.0588369 0.
0.622208 0.0588171 0.
0.62428 0.0587488 0.
0.626352 0.058679 0.
0.628436 0.0585974 0.
0.630561 0.0584745 0.
0.632685 0.0583528 0.
0.634863 0.0582183 0.
0.637071 0.0580748 0.
0.639288 0.0579201 0.
0.641649 0.057519 0.
0.643997 0.0571205 0.
0.646556 0.0566563 0.
0.649173 0.0561172 0.
0.651919 0.0554277 0.
0.654818 0.0544582 0.
0.658014 0.0533553 0.
0.661427 0.0521386 0.
0.664969 0.0505766 0.
0.66857 0.0488522 0.
0.672444 0.0471335 0.
0.676363 0.0451579 0.
0.680315 0.0429377 0.
0.684388 0.0404244 0.
0.688329 0.037759 0.
0.692574 0.0350995 0.
0.69696 0.0324835 0.
0.701613 0.0299005 0.
0.706184 0.0273972 0.
0.7109 0.0247857 0.
0.715642 0.0221825 0.
0.721058 0.0193563 0.
0.726237 0.0166687 0.
0.732481 0.0138411 0.
0.73943 0.011108 0.
0.747476 0.00824153 0.
0.758899 0.00601467 0.
0.772536 0.00479609 0.
0.785572 0.00473148 0.
0.803108 0.00936821 0.
0.395843 0.00979849 0.
0.41174 0.00609759 0.
0.425018 0.00513196 0.
0.438852 0.00586946 0.
0.449166 0.00854172 0.
0.456977 0.0110915 0.
0.464009 0.0139636 0.
0.470419 0.0166127 0.
0.47553 0.0192765 0.
0.480812 0.0221757 0.
0.485501 0.0248716 0.
0.49046 0.0275361 0.
0.495047 0.0300553 0.
0.499641 0.0326029 0.
0.503749 0.0351693 0.
0.507694 0.0378048 0.
0.511715 0.0403799 0.
0.515829 0.0428477 0.
0.519974 0.0451197 0.
0.524118 0.0473079 0.
0.527987 0.0495997 0.
0.531722 0.0514953 0.
0.535472 0.0531852 0.
0.539206 0.0547348 0.
0.542353 0.0557952 0.
0.54539 0.0567172 0.
0.548342 0.0575241 0.
0.551075 0.0581797 0.
0.553627 0.0588041 0.
0.556082 0.0592826 0.
0.558401 0.0596317 0.
0.560725 0.0599745 0.
0.562951 0.0601135 0.
0.565177 0.0602522 0.
0.567362 0.060383 0.
0.569477 0.0604978 0.
0.571593 0.0606137 0.
0.57367 0.0606899 0.
0.575736 0.0607554 0.
0.577801 0.0608194 0.
0.579832 0.0608393 0.
0.581862 0.0608591 0.
0.583891 0.0608786 0.
0.585913 0.0608977 0.
0.587935 0.0609168 0.
0.589952 0.0609311 0.
0.591965 0.0609414 0.
0.593978 0.0609516 0.
0.595987 0.0609558 0.
0.597995 0.0609582 0.
0.600004 0.0609606 0.
0.602013 0.0609547 0.
0.604023 0.0609488 0.
0.606034 0.0609413 0.
0.60805 0.0609281 0.
0.610065 0.060915 0.
0.612086 0.0608973 0.
0.614112 0.0608743 0.
0.616138 0.0608514 0.
0.618172 0.0608282 0.
0.620209 0.0608046 0.
0.622245 0.0607811 0.
0.624333 0.0606952 0.
0.626421 0.0606086 0.
0.628522 0.0605105 0.
0.630662 0.0603737 0.
0.632801 0.0602381 0.
0.635018 0.0600778 0.
0.637269 0.0599117 0.
0.639547 0.0597178 0.
0.641965 0.0592574 0.
0.644365 0.058803 0.
0.647109 0.058198 0.
0.64986 0.0575361 0.
0.652858 0.0565871 0.
0.655839 0.0555089 0.
0.659142 0.0542994 0.
0.662649 0.0529128 0.
0.666348 0.0511115 0.
0.670138 0.0493234 0.
0.674094 0.0474668 0.
0.67808 0.0453577 0.
0.682066 0.0429659 0.
0.686097 0.0403682 0.
0.690048 0.037689 0.
0.694293 0.0350573 0.
0.69866 0.0324607 0.
0.703293 0.029925 0.
0.7078 0.0274326 0.
0.712536 0.0248277 0.
0.717211 0.0222091 0.
0.722654 0.0193806 0.
0.727813 0.0167211 0.
0.733971 0.0138787 0.
0.740986 0.0111824 0.
0.748875 0.00837354 0.
0.76 0.00621527 0.
0.773362 0.00526978 0.
0.785586 0.00516717 0.
0.801916 0.00942918 0.
0.3972 0.00981153 0.
0.411908 0.00651689 0.
0.424502 0.00557947 0.
0.437863 0.00613465 0.
0.447915 0.00870053 0.
0.455562 0.0111722 0.
0.462542 0.0140404 0.
0.468848 0.0166861 0.
0.473957 0.0192983 0.
0.479215 0.0221562 0.
0.483889 0.0248824 0.
0.488793 0.027538 0.
0.493374 0.0300793 0.
0.497886 0.0325748 0.
0.502009 0.0351018 0.
0.505921 0.0377195 0.
0.509889 0.040274 0.
0.513958 0.0427834 0.
0.518107 0.0451319 0.
0.522296 0.0473936 0.
0.526292 0.0498098 0.
0.530131 0.0518856 0.
0.534041 0.0538232 0.
0.537811 0.0554619 0.
0.541129 0.0567488 0.
0.54455 0.058004 0.
0.547703 0.0588984 0.
0.550642 0.059681 0.
0.553161 0.0603631 0.
0.555709 0.0609446 0.
0.558088 0.0613251 0.
0.560493 0.0617067 0.
0.562767 0.0619007 0.
0.565028 0.0620925 0.
0.567246 0.0622672 0.
0.569376 0.0623967 0.
0.571507 0.0625272 0.
0.573601 0.0626212 0.
0.575684 0.0627048 0.
0.577767 0.0627872 0.
0.579801 0.0628094 0.
0.581836 0.0628315 0.
0.583868 0.0628537 0.
0.585893 0.0628765 0.
0.587919 0.0628994 0.
0.58994 0.0629167 0.
0.591955 0.0629291 0.
0.593971 0.0629416 0.
0.595983 0.0629466 0.
0.597994 0.0629494 0.
0.600004 0.0629522 0.
0.602017 0.0629451 0.
0.604029 0.062938 0.
0.606043 0.0629288 0.
0.608062 0.0629129 0.
0.610081 0.0628971 0.
0.612105 0.0628762 0.
0.614135 0.0628497 0.
0.616165 0.0628233 0.
0.618205 0.0627949 0.
0.620248 0.0627656 0.
0.622292 0.0627357 0.
0.624399 0.0626275 0.
0.626506 0.0625189 0.
0.628627 0.0624003 0.
0.630784 0.0622489 0.
0.63294 0.0620988 0.
0.63523 0.06187 0.
0.637554 0.0616269 0.
0.639925 0.0613547 0.
0.642413 0.0608676 0.
0.644861 0.0603866 0.
0.647708 0.0596814 0.
0.650601 0.0588909 0.
0.653859 0.0576828 0.
0.657058 0.0564316 0.
0.660485 0.0550524 0.
0.664014 0.0534797 0.
0.667831 0.051562 0.
0.671807 0.0497154 0.
0.675839 0.0476716 0.
0.679823 0.04543 0.
0.683835 0.0429327 0.
0.687819 0.0402726 0.
0.691795 0.0376159 0.
0.696025 0.0349962 0.
0.700378 0.0324369 0.
0.70498 0.0299548 0.
0.709412 0.0274739 0.
0.714163 0.0248676 0.
0.718775 0.0222387 0.
0.724197 0.0194245 0.
0.729351 0.0167836 0.
0.735435 0.0139549 0.
0.742461 0.0112574 0.
0.750189 0.00855171 0.
0.760969 0.00644768 0.
0.774049 0.00579678 0.
0.785591 0.0056373 0.
0.800615 0.00933981 0.
0.398604 0.0097567 0.
0.412161 0.00694399 0.
0.42425 0.00604565 0.
0.437139 0.0064436 0.
0.44685 0.00890635 0.
0.454249 0.0113159 0.
0.461243 0.0141612 0.
0.467337 0.0167954 0.
0.472424 0.0193526 0.
0.477685 0.0221719 0.
0.482314 0.0249045 0.
0.487153 0.0275481 0.
0.491717 0.0300933 0.
0.496164 0.0325834 0.
0.500292 0.0350644 0.
0.504175 0.0376361 0.
0.508095 0.0401924 0.
0.512094 0.0426955 0.
0.516222 0.0450996 0.
0.520444 0.0474201 0.
0.524539 0.0498505 0.
0.52846 0.0521267 0.
0.532466 0.0542822 0.
0.53619 0.0559873 0.
0.539789 0.0575565 0.
0.543529 0.0591444 0.
0.546756 0.0601059 0.
0.549831 0.0610293 0.
0.552495 0.0618174 0.
0.555278 0.0625642 0.
0.557749 0.0629996 0.
0.560247 0.063434 0.
0.562579 0.0636816 0.
0.564875 0.0639273 0.
0.56713 0.0641509 0.
0.569274 0.0642949 0.
0.57142 0.0644402 0.
0.573532 0.0645518 0.
0.575632 0.0646537 0.
0.577732 0.0647547 0.
0.579771 0.0647795 0.
0.581809 0.0648039 0.
0.583845 0.0648287 0.
0.585874 0.0648553 0.
0.587903 0.0648819 0.
0.589927 0.0649022 0.
0.591946 0.0649169 0.
0.593965 0.0649316 0.
0.595979 0.0649375 0.
0.597992 0.0649406 0.
0.600005 0.0649438 0.
0.60202 0.0649355 0.
0.604035 0.0649271 0.
0.606052 0.0649164 0.
0.608074 0.0648977 0.
0.610097 0.0648792 0.
0.612124 0.0648552 0.
0.614158 0.0648251 0.
0.616192 0.0647951 0.
0.618238 0.0647614 0.
0.620288 0.0647263 0.
0.62234 0.0646897 0.
0.624467 0.064559 0.
0.626592 0.0644282 0.
0.628733 0.0642894 0.
0.630908 0.0641233 0.
0.63308 0.0639588 0.
0.635452 0.0636526 0.
0.637855 0.0633291 0.
0.640354 0.0629642 0.
0.642982 0.0624092 0.
0.645646 0.0617922 0.
0.648636 0.0608976 0.
0.651622 0.0599772 0.
0.654962 0.058674 0.
0.658397 0.0572272 0.
0.661941 0.0556922 0.
0.665596 0.0538947 0.
0.669466 0.0519027 0.
0.673553 0.0499795 0.
0.677619 0.0478004 0.
0.681591 0.0454279 0.
0.685593 0.0428541 0.
0.689533 0.0401646 0.
0.693536 0.0375494 0.
0.697745 0.0349513 0.
0.70209 0.0324425 0.
0.706639 0.0299974 0.
0.711019 0.027529 0.
0.715735 0.0249246 0.
0.7203 0.022288 0.
0.725669 0.0195009 0.
0.730814 0.0168706 0.
0.736815 0.0140817 0.
0.743765 0.0113875 0.
0.751298 0.00879161 0.
0.761727 0.00672123 0.
0.774483 0.00633826 0.
0.785406 0.0061386 0.
0.799187 0.00915017 0.
0.400021 0.00971531 0.
0.412535 0.00736803 0.
0.424262 0.00653037 0.
0.436678 0.00679558 0.
0.445908 0.00916228 0.
0.453081 0.0115259 0.
0.460041 0.0143267 0.
0.465886 0.0169428 0.
0.470984 0.0194625 0.
0.476234 0.0222389 0.
0.480787 0.0249477 0.
0.485561 0.0275957 0.
0.490095 0.0301216 0.
0.494474 0.0326182 0.
0.498611 0.0350554 0.
0.502476 0.0375902 0.
0.506336 0.0401224 0.
0.510288 0.0426166 0.
0.514394 0.0450592 0.
0.518596 0.0474189 0.
0.522748 0.0498192 0.
0.526728 0.0522698 0.
0.530705 0.054512 0.
0.534518 0.0564032 0.
0.538332 0.0581696 0.
0.542075 0.0598277 0.
0.545492 0.0610702 0.
0.548795 0.0622615 0.
0.551748 0.0632304 0.
0.554766 0.0641429 0.
0.557371 0.0646513 0.
0.559914 0.0651104 0.
0.562307 0.0654134 0.
0.564642 0.0657178 0.
0.566952 0.0660036 0.
0.569116 0.0661566 0.
0.571284 0.0663109 0.
0.573418 0.0664411 0.
0.575536 0.0665659 0.
0.577656 0.0666909 0.
0.57971 0.0667266 0.
0.581763 0.0667609 0.
0.583811 0.066794 0.
0.585844 0.0668238 0.
0.587877 0.0668538 0.
0.589906 0.0668771 0.
0.591929 0.0668947 0.
0.593953 0.0669122 0.
0.595972 0.0669192 0.
0.597989 0.0669231 0.
0.600007 0.0669269 0.
0.602026 0.0669166 0.
0.604046 0.0669064 0.
0.606067 0.0668934 0.
0.608095 0.0668716 0.
0.610123 0.0668498 0.
0.612156 0.0668223 0.
0.614195 0.0667886 0.
0.616234 0.0667549 0.
0.618296 0.0667093 0.
0.620363 0.0666603 0.
0.622435 0.0666074 0.
0.624584 0.0664499 0.
0.626731 0.066294 0.
0.628897 0.0661364 0.
0.631095 0.0659623 0.
0.633286 0.0657898 0.
0.635743 0.0653901 0.
0.638207 0.064995 0.
0.640844 0.0645406 0.
0.643602 0.0639266 0.
0.646519 0.0631192 0.
0.649652 0.0620219 0.
0.652907 0.0608113 0.
0.656263 0.0594635 0.
0.659857 0.0578856 0.
0.663533 0.0561517 0.
0.667279 0.05422 0.
0.671216 0.0521582 0.
0.675337 0.0501143 0.
0.679426 0.0478417 0.
0.683365 0.0453718 0.
0.687326 0.0427671 0.
0.691234 0.0400889 0.
0.695238 0.0375032 0.
0.699431 0.0349269 0.
0.703762 0.0324852 0.
0.708254 0.0300509 0.
0.712598 0.0276042 0.
0.717241 0.0250055 0.
0.721761 0.0223741 0.
0.727072 0.019621 0.
0.732186 0.0169963 0.
0.73803 0.0142706 0.
0.744909 0.0115844 0.
0.752221 0.00908449 0.
0.76226 0.00703812 0.
0.774658 0.00687142 0.
0.785108 0.00666554 0.
0.797756 0.00899452 0.
0.40144 0.00977126 0.
0.413126 0.00776002 0.
0.424504 0.00702004 0.
0.436366 0.00718336 0.
0.445064 0.00946273 0.
0.452083 0.0117995 0.
0.458873 0.0145303 0.
0.464507 0.0171171 0.
0.469659 0.0196299 0.
0.474847 0.0223534 0.
0.479309 0.025022 0.
0.484019 0.0276759 0.
0.488505 0.0301783 0.
0.492842 0.0326857 0.
0.496965 0.0350976 0.
0.500799 0.0375804 0.
0.504626 0.0400799 0.
0.508529 0.0425734 0.
0.512591 0.0450101 0.
0.516755 0.0473979 0.
0.520939 0.0497614 0.
0.524935 0.0522688 0.
0.528886 0.0546289 0.
0.532815 0.0567306 0.
0.53665 0.0585689 0.
0.54044 0.0602826 0.
0.544138 0.0619061 0.
0.547587 0.063311 0.
0.550875 0.0645296 0.
0.553901 0.0654427 0.
0.556659 0.0660853 0.
0.55933 0.0666543 0.
0.5619 0.0670763 0.
0.564323 0.0674625 0.
0.566736 0.0678376 0.
0.568931 0.0680025 0.
0.571131 0.0681688 0.
0.573294 0.0683202 0.
0.575433 0.0684709 0.
0.577574 0.0686225 0.
0.579645 0.0686712 0.
0.581714 0.0687164 0.
0.583776 0.0687587 0.
0.585813 0.0687919 0.
0.587851 0.0688252 0.
0.589884 0.0688517 0.
0.591912 0.0688722 0.
0.593941 0.0688926 0.
0.595964 0.0689009 0.
0.597986 0.0689053 0.
0.600009 0.0689098 0.
0.602033 0.0688976 0.
0.604057 0.0688855 0.
0.606083 0.0688702 0.
0.608117 0.0688451 0.
0.61015 0.06882 0.
0.612189 0.0687889 0.
0.614234 0.0687513 0.
0.616278 0.0687138 0.
0.618357 0.0686549 0.
0.620444 0.0685904 0.
0.622539 0.0685184 0.
0.624715 0.0683307 0.
0.626888 0.0681451 0.
0.629089 0.0679653 0.
0.631326 0.0677792 0.
0.633568 0.0675852 0.
0.636134 0.0670498 0.
0.638679 0.0665402 0.
0.64152 0.0659461 0.
0.644389 0.0652762 0.
0.647516 0.0642702 0.
0.650761 0.0630176 0.
0.654269 0.0615567 0.
0.65778 0.0600723 0.
0.661441 0.0583969 0.
0.665228 0.0564518 0.
0.669064 0.054403 0.
0.673051 0.0523303 0.
0.677155 0.0501738 0.
0.681227 0.0478243 0.
0.685134 0.0452835 0.
0.689037 0.0426689 0.
0.692914 0.0400409 0.
0.696896 0.0374888 0.
0.70106 0.0349483 0.
0.705397 0.0325639 0.
0.709825 0.030137 0.
0.714155 0.0277019 0.
0.718689 0.0251174 0.
0.72316 0.0224977 0.
0.728413 0.0197805 0.
0.733494 0.0171609 0.
0.739125 0.014509 0.
0.74593 0.011833 0.
0.753005 0.0094257 0.
0.762569 0.0073999 0.
0.774585 0.00739361 0.
0.784792 0.0072118 0.
0.796356 0.0089615 0.
0.402813 0.00998036 0.
0.41381 0.0081439 0.
0.424829 0.00748974 0.
0.436098 0.00760084 0.
0.444297 0.00980184 0.
0.451179 0.0121172 0.
0.457761 0.0147731 0.
0.463206 0.0173306 0.
0.468423 0.0198426 0.
0.4735 0.0225045 0.
0.477884 0.0251287 0.
0.48252 0.0277721 0.
0.486933 0.0302425 0.
0.491227 0.0327438 0.
0.495318 0.035156 0.
0.499138 0.0375907 0.
0.502945 0.040064 0.
0.506775 0.0425368 0.
0.510801 0.044959 0.
0.514934 0.0473623 0.
0.519103 0.0497146 0.
0.523126 0.0521959 0.
0.52707 0.0546772 0.
0.531 0.0568989 0.
0.534873 0.0588619 0.
0.538772 0.0606585 0.
0.542586 0.0624712 0.
0.546207 0.0640976 0.
0.54968 0.0655019 0.
0.552788 0.0665416 0.
0.555852 0.0674633 0.
0.558687 0.0681599 0.
0.561475 0.0687234 0.
0.563989 0.0691927 0.
0.566514 0.069667 0.
0.568744 0.0698446 0.
0.570973 0.0700188 0.
0.573166 0.0701901 0.
0.575324 0.0703645 0.
0.577485 0.0705398 0.
0.579574 0.0706051 0.
0.581659 0.0706647 0.
0.583735 0.0707196 0.
0.585778 0.0707559 0.
0.587821 0.0707923 0.
0.589859 0.0708218 0.
0.591893 0.0708451 0.
0.593927 0.0708684 0.
0.595956 0.0708779 0.
0.597983 0.070883 0.
0.600011 0.0708882 0.
0.60204 0.0708741 0.
0.60407 0.07086 0.
0.606102 0.0708424 0.
0.608141 0.0708138 0.
0.61018 0.0707852 0.
0.612226 0.0707505 0.
0.614277 0.0707093 0.
0.616329 0.0706682 0.
0.618425 0.0705921 0.
0.620531 0.0705087 0.
0.62265 0.0704144 0.
0.624851 0.0702003 0.
0.627046 0.0699893 0.
0.629285 0.0697906 0.
0.63156 0.0695936 0.
0.633877 0.0693522 0.
0.636542 0.0686853 0.
0.639176 0.0680582 0.
0.642279 0.0672896 0.
0.645375 0.0664436 0.
0.648733 0.0651594 0.
0.652092 0.0637739 0.
0.655723 0.0621858 0.
0.659408 0.0605543 0.
0.663144 0.0587409 0.
0.66698 0.0566525 0.
0.670906 0.0545043 0.
0.674929 0.0524122 0.
0.678985 0.0501819 0.
0.683036 0.0477536 0.
0.68689 0.0451847 0.
0.690748 0.0425837 0.
0.694599 0.039998 0.
0.698554 0.037494 0.
0.702665 0.0350129 0.
0.707003 0.0326602 0.
0.711381 0.030243 0.
0.71568 0.0278202 0.
0.720128 0.025243 0.
0.724504 0.0226514 0.
0.729682 0.0199684 0.
0.734735 0.0173726 0.
0.740165 0.0147902 0.
0.746807 0.0121347 0.
0.753742 0.00979755 0.
0.762765 0.007794 0.
0.774322 0.00788939 0.
0.784424 0.00777363 0.
0.795025 0.00910053 0.
0.404152 0.0102882 0.
0.41448 0.00855332 0.
0.425208 0.00793166 0.
0.435866 0.00805268 0.
0.443601 0.0101842 0.
0.450347 0.0124718 0.
0.456718 0.0150577 0.
0.462004 0.0175846 0.
0.467219 0.0200848 0.
0.472165 0.0226792 0.
0.476479 0.0252598 0.
0.481022 0.027868 0.
0.48536 0.0303228 0.
0.489612 0.0327989 0.
0.493671 0.0352236 0.
0.497475 0.0376157 0.
0.501252 0.0400546 0.
0.505037 0.0424995 0.
0.50902 0.044918 0.
0.51311 0.0473081 0.
0.517258 0.0496691 0.
0.521335 0.0520988 0.
0.525254 0.054621 0.
0.529143 0.0569614 0.
0.533062 0.0590914 0.
0.537025 0.0609457 0.
0.540904 0.0628273 0.
0.544695 0.0646885 0.
0.548242 0.0662639 0.
0.551592 0.0675465 0.
0.554954 0.0687578 0.
0.557951 0.0695747 0.
0.5609 0.0702551 0.
0.563444 0.0707622 0.
0.566045 0.0712904 0.
0.568398 0.0715501 0.
0.57074 0.0718001 0.
0.57302 0.072032 0.
0.5752 0.0722304 0.
0.577384 0.0724301 0.
0.579493 0.0725195 0.
0.581594 0.0726013 0.
0.583685 0.0726749 0.
0.585735 0.0727143 0.
0.587785 0.0727538 0.
0.58983 0.0727864 0.
0.59187 0.0728126 0.
0.59391 0.0728388 0.
0.595946 0.0728496 0.
0.59798 0.0728556 0.
0.600014 0.0728615 0.
0.60205 0.0728453 0.
0.604085 0.0728291 0.
0.606124 0.0728089 0.
0.60817 0.0727765 0.
0.610216 0.0727441 0.
0.612269 0.0727055 0.
0.614329 0.0726604 0.
0.616389 0.0726155 0.
0.618505 0.0725138 0.
0.620632 0.0724018 0.
0.622776 0.0722751 0.
0.625008 0.0720311 0.
0.627235 0.0717907 0.
0.629561 0.0715374 0.
0.631926 0.0712839 0.
0.634387 0.0709247 0.
0.637094 0.0701914 0.
0.639794 0.0694822 0.
0.643115 0.0685699 0.
0.646523 0.0674481 0.
0.650063 0.0659235 0.
0.653624 0.0643357 0.
0.65731 0.0627043 0.
0.661083 0.0609293 0.
0.664909 0.0589253 0.
0.668803 0.0567374 0.
0.672787 0.0545695 0.
0.676836 0.0524341 0.
0.680824 0.0501411 0.
0.684822 0.0476525 0.
0.688662 0.0450637 0.
0.692473 0.0425138 0.
0.696294 0.0399626 0.
0.700228 0.0374985 0.
0.704294 0.035083 0.
0.708603 0.0327605 0.
0.712923 0.0303614 0.
0.717179 0.0279464 0.
0.721553 0.025383 0.
0.72584 0.0228232 0.
0.730886 0.0201877 0.
0.735941 0.0176229 0.
0.741162 0.015109 0.
0.747546 0.0124946 0.
0.754387 0.0102026 0.
0.762888 0.00822669 0.
0.773915 0.00833973 0.
0.783957 0.00835248 0.
0.793771 0.0094086 0.
0.405502 0.0106338 0.
0.415208 0.00898931 0.
0.425738 0.00835699 0.
0.435759 0.00855507 0.
0.443066 0.0106372 0.
0.449658 0.0128892 0.
0.455771 0.0154074 0.
0.460923 0.0178966 0.
0.466071 0.02037 0.
0.470869 0.0228964 0.
0.475116 0.025427 0.
0.479541 0.0279822 0.
0.483807 0.030428 0.
0.488021 0.0328746 0.
0.492032 0.0352986 0.
0.495817 0.0376725 0.
0.499571 0.0400701 0.
0.503329 0.0424918 0.
0.507245 0.0448948 0.
0.511307 0.0472615 0.
0.51543 0.0496314 0.
0.519527 0.0520083 0.
0.52343 0.0545131 0.
0.527293 0.05696 0.
0.531217 0.0591967 0.
0.535212 0.0611682 0.
0.539167 0.0630954 0.
0.543045 0.0650935 0.
0.546691 0.0668351 0.
0.550277 0.0684152 0.
0.553758 0.0697667 0.
0.556884 0.070719 0.
0.559989 0.0716034 0.
0.562743 0.0722426 0.
0.565492 0.0728622 0.
0.568021 0.0732353 0.
0.570488 0.073569 0.
0.572871 0.0738724 0.
0.575074 0.0740949 0.
0.577281 0.0743191 0.
0.57941 0.0744329 0.
0.581528 0.0745368 0.
0.583635 0.0746302 0.
0.585692 0.0746727 0.
0.587749 0.0747153 0.
0.589801 0.0747509 0.
0.591848 0.07478 0.
0.593894 0.0748091 0.
0.595936 0.0748214 0.
0.597976 0.0748282 0.
0.600016 0.0748349 0.
0.602059 0.0748165 0.
0.604101 0.0747983 0.
0.606146 0.0747754 0.
0.608199 0.0747391 0.
0.610252 0.074703 0.
0.612313 0.0746604 0.
0.614382 0.0746115 0.
0.61645 0.0745627 0.
0.618587 0.074434 0.
0.620733 0.0742933 0.
0.622905 0.0741336 0.
0.625169 0.0738593 0.
0.627427 0.0735893 0.
0.629861 0.0732692 0.
0.632341 0.072942 0.
0.63503 0.0723932 0.
0.637909 0.0715167 0.
0.640893 0.0706151 0.
0.644198 0.0696613 0.
0.647857 0.0682433 0.
0.651538 0.0665077 0.
0.655269 0.0647802 0.
0.659017 0.0630917 0.
0.662836 0.0611856 0.
0.666694 0.0590257 0.
0.670647 0.0567782 0.
0.674678 0.0546102 0.
0.678711 0.0524235 0.
0.682682 0.0500545 0.
0.686594 0.0475407 0.
0.690409 0.0449598 0.
0.694203 0.0424468 0.
0.69799 0.0399486 0.
0.701892 0.0375346 0.
0.705926 0.0351736 0.
0.71019 0.0328739 0.
0.714441 0.0305043 0.
0.718622 0.0281037 0.
0.722928 0.0255596 0.
0.727148 0.0230323 0.
0.732017 0.0204573 0.
0.737053 0.0179314 0.
0.742082 0.0154766 0.
0.748167 0.0129213 0.
0.754862 0.0106677 0.
0.762853 0.00872218 0.
0.773296 0.00873936 0.
0.783346 0.00894686 0.
0.792462 0.00983898 0.
0.406865 0.0110044 0.
0.416008 0.0094571 0.
0.426418 0.00875051 0.
0.435784 0.00912019 0.
0.442685 0.0111654 0.
0.44911 0.0133678 0.
0.454916 0.0158222 0.
0.459935 0.0182701 0.
0.464992 0.0206963 0.
0.469628 0.0231653 0.
0.473791 0.0256372 0.
0.478088 0.0281297 0.
0.482297 0.0305654 0.
0.486452 0.0329752 0.
0.490424 0.0353789 0.
0.494185 0.0377571 0.
0.497912 0.0401122 0.
0.501622 0.0424983 0.
0.505496 0.0448833 0.
0.509516 0.0472318 0.
0.513612 0.0495897 0.
0.517696 0.0519374 0.
0.52161 0.0543834 0.
0.525434 0.0568797 0.
0.529361 0.0592112 0.
0.533375 0.0613442 0.
0.53737 0.0632871 0.
0.541302 0.0653064 0.
0.545066 0.0672699 0.
0.548781 0.0690839 0.
0.552298 0.0704823 0.
0.555713 0.0717505 0.
0.558958 0.0728421 0.
0.561974 0.0736896 0.
0.564866 0.0743897 0.
0.567585 0.0748717 0.
0.57015 0.0752803 0.
0.572641 0.075675 0.
0.574865 0.0759113 0.
0.577098 0.0761494 0.
0.579264 0.076297 0.
0.581415 0.0764368 0.
0.583557 0.0765647 0.
0.585626 0.0766107 0.
0.587694 0.0766569 0.
0.589757 0.0766959 0.
0.591813 0.0767276 0.
0.593869 0.0767594 0.
0.595921 0.0767729 0.
0.597971 0.0767804 0.
0.600021 0.0767878 0.
0.602073 0.0767677 0.
0.604125 0.0767477 0.
0.60618 0.0767223 0.
0.608243 0.0766819 0.
0.610305 0.0766416 0.
0.612381 0.0765937 0.
0.614465 0.0765389 0.
0.616549 0.0764843 0.
0.618721 0.0763152 0.
0.620899 0.0761364 0.
0.623114 0.0759372 0.
0.625416 0.0756413 0.
0.627698 0.0753518 0.
0.630229 0.0749622 0.
0.6328 0.0745714 0.
0.635756 0.0737961 0.
0.638808 0.0727803 0.
0.642168 0.0715989 0.
0.645634 0.0704155 0.
0.649378 0.0687816 0.
0.653145 0.0669346 0.
0.656984 0.0651505 0.
0.660806 0.0633623 0.
0.664646 0.0612963 0.
0.668516 0.0590433 0.
0.672509 0.0567919 0.
0.676568 0.0546268 0.
0.680564 0.052388 0.
0.684504 0.0499552 0.
0.688372 0.0474215 0.
0.692144 0.0448936 0.
0.695918 0.0424036 0.
0.699688 0.0399591 0.
0.703551 0.0376035 0.
0.70755 0.0352843 0.
0.711749 0.0330129 0.
0.715928 0.0306743 0.
0.720031 0.0282908 0.
0.72424 0.0257818 0.
0.728406 0.0232884 0.
0.733086 0.020774 0.
0.73805 0.0183067 0.
0.742963 0.0158932 0.
0.748712 0.0134002 0.
0.755191 0.0111922 0.
0.762686 0.00928537 0.
0.772444 0.0090838 0.
0.78256 0.00954754 0.
0.791107 0.0103594 0.
0.40825 0.011392 0.
0.416949 0.00993767 0.
0.427253 0.00912805 0.
0.435865 0.00975178 0.
0.442405 0.011749 0.
0.448615 0.0138947 0.
0.454144 0.016297 0.
0.458999 0.018695 0.
0.463955 0.0210625 0.
0.46842 0.0234781 0.
0.472483 0.0258852 0.
0.476687 0.0283174 0.
0.480827 0.0307304 0.
0.484902 0.0331101 0.
0.488846 0.035483 0.
0.492573 0.0378657 0.
0.496251 0.040184 0.
0.499938 0.0425295 0.
0.503761 0.0448881 0.
0.507733 0.0472244 0.
0.511801 0.0495496 0.
0.51586 0.0518804 0.
0.519772 0.0542637 0.
0.523586 0.0567552 0.
0.527516 0.0591824 0.
0.531513 0.0614304 0.
0.535526 0.0634359 0.
0.539515 0.0654558 0.
0.543358 0.0675713 0.
0.547111 0.0694966 0.
0.550777 0.0710925 0.
0.554426 0.072609 0.
0.557824 0.0739121 0.
0.56108 0.0749696 0.
0.564075 0.0756927 0.
0.566996 0.0763234 0.
0.569671 0.0768782 0.
0.572328 0.077443 0.
0.574598 0.0776989 0.
0.576878 0.077957 0.
0.579095 0.0781439 0.
0.581289 0.0783263 0.
0.583475 0.0784958 0.
0.585555 0.078546 0.
0.587637 0.0785964 0.
0.589711 0.0786391 0.
0.591778 0.0786737 0.
0.593844 0.0787084 0.
0.595906 0.0787233 0.
0.597966 0.0787315 0.
0.600026 0.0787395 0.
0.602088 0.0787177 0.
0.60415 0.0786959 0.
0.606215 0.0786677 0.
0.608288 0.0786227 0.
0.610361 0.0785779 0.
0.612453 0.0785237 0.
0.614555 0.0784618 0.
0.616657 0.0784003 0.
0.618875 0.0781816 0.
0.621094 0.077956 0.
0.623379 0.0777074 0.
0.625756 0.0773789 0.
0.62813 0.077049 0.
0.630881 0.0764802 0.
0.633564 0.0759635 0.
0.63668 0.0749636 0.
0.639843 0.0738892 0.
0.643528 0.0724472 0.
0.647219 0.0709487 0.
0.650993 0.0691697 0.
0.654857 0.0672413 0.
0.658763 0.0654514 0.
0.662622 0.0635428 0.
0.666478 0.0613322 0.
0.670369 0.0590271 0.
0.67439 0.0568007 0.
0.678449 0.0546185 0.
0.682415 0.0523181 0.
0.686298 0.049851 0.
0.690133 0.0473216 0.
0.693886 0.0448392 0.
0.697629 0.0423857 0.
0.701374 0.0399991 0.
0.7052 0.0376932 0.
0.709158 0.0354161 0.
0.713287 0.0331781 0.
0.71739 0.0308678 0.
0.721419 0.0285048 0.
0.725506 0.0260448 0.
0.729606 0.0235909 0.
0.734108 0.0211345 0.
0.738959 0.0187395 0.
0.743778 0.0163663 0.
0.749194 0.0139312 0.
0.755428 0.0117696 0.
0.762459 0.00991183 0.
0.77144 0.00939607 0.
0.78152 0.0101504 0.
0.789812 0.0109227 0.
0.409628 0.0118065 0.
0.418038 0.0104095 0.
0.428127 0.0095309 0.
0.435927 0.0104313 0.
0.442199 0.012375 0.
0.448148 0.0144696 0.
0.453399 0.0168164 0.
0.45813 0.0191634 0.
0.462926 0.0214645 0.
0.467208 0.0238187 0.
0.471174 0.0261587 0.
0.475299 0.0285334 0.
0.479365 0.0309098 0.
0.483358 0.0332603 0.
0.487255 0.0355937 0.
0.49094 0.0379578 0.
0.494579 0.0402662 0.
0.498252 0.0425681 0.
0.502041 0.0449082 0.
0.505965 0.0472291 0.
0.50998 0.0495177 0.
0.514013 0.0518328 0.
0.517947 0.0541748 0.
0.521767 0.0566173 0.
0.525676 0.059108 0.
0.529653 0.0614409 0.
0.533668 0.0635683 0.
0.537699 0.0655666 0.
0.541598 0.0677115 0.
0.545412 0.0697877 0.
0.549205 0.0716061 0.
0.552957 0.0732457 0.
0.556536 0.074751 0.
0.559969 0.0760408 0.
0.563186 0.0769185 0.
0.566363 0.077726 0.
0.56916 0.0784358 0.
0.571999 0.0792007 0.
0.574327 0.0794821 0.
0.576655 0.0797576 0.
0.578923 0.0799788 0.
0.581157 0.0802029 0.
0.583387 0.0804196 0.
0.585481 0.080474 0.
0.587576 0.0805287 0.
0.589664 0.0805752 0.
0.59174 0.0806124 0.
0.593816 0.0806497 0.
0.595889 0.0806658 0.
0.59796 0.0806746 0.
0.600031 0.0806831 0.
0.602104 0.0806597 0.
0.604177 0.0806364 0.
0.606253 0.0806058 0.
0.608336 0.0805567 0.
0.61042 0.0805078 0.
0.612528 0.0804456 0.
0.614649 0.0803746 0.
0.616771 0.0803026 0.
0.619035 0.080035 0.
0.621292 0.0797668 0.
0.623654 0.0794702 0.
0.626108 0.0791095 0.
0.62864 0.0787002 0.
0.631598 0.0779463 0.
0.634552 0.0771499 0.
0.637868 0.0758768 0.
0.641247 0.0746166 0.
0.644993 0.0731121 0.
0.64883 0.071357 0.
0.652652 0.0694364 0.
0.656605 0.0675032 0.
0.660559 0.0656747 0.
0.664437 0.0636082 0.
0.668287 0.0613162 0.
0.672231 0.0590015 0.
0.676286 0.0568029 0.
0.680323 0.0545896 0.
0.684245 0.0522276 0.
0.688093 0.0497421 0.
0.691888 0.0472481 0.
0.695623 0.044794 0.
0.699354 0.0423824 0.
0.703081 0.0400562 0.
0.706858 0.0377959 0.
0.71077 0.0355572 0.
0.714837 0.0333522 0.
0.71886 0.0310699 0.
0.722807 0.0287327 0.
0.726772 0.0263304 0.
0.730786 0.0239247 0.
0.735129 0.0215341 0.
0.739826 0.019215 0.
0.744518 0.0168892 0.
0.749665 0.0145026 0.
0.755619 0.0123871 0.
0.762269 0.0105791 0.
0.770429 0.0097301 0.
0.780308 0.0107196 0.
0.788563 0.0114792 0.
0.411014 0.0122229 0.
0.419286 0.0108452 0.
0.428917 0.0100034 0.
0.435985 0.011151 0.
0.442029 0.0130453 0.
0.447708 0.0150919 0.
0.45266 0.017369 0.
0.457278 0.0196607 0.
0.461856 0.021881 0.
0.465957 0.0241645 0.
0.469853 0.0264526 0.
0.473878 0.0287594 0.
0.477866 0.0310835 0.
0.481774 0.0334079 0.
0.485608 0.0356954 0.
0.489263 0.0380228 0.
0.492882 0.0403416 0.
0.496542 0.0426177 0.
0.500316 0.0449341 0.
0.504189 0.0472338 0.
0.508152 0.0495033 0.
0.512164 0.0517838 0.
0.516112 0.0541014 0.
0.519956 0.0565023 0.
0.523857 0.0590119 0.
0.527817 0.0614187 0.
0.531811 0.06365 0.
0.535865 0.0656709 0.
0.539843 0.0677871 0.
0.543709 0.0700005 0.
0.547533 0.0719757 0.
0.551371 0.0737308 0.
0.555143 0.075438 0.
0.558709 0.0769421 0.
0.562221 0.0780798 0.
0.565638 0.0790332 0.
0.568535 0.0798669 0.
0.571403 0.0807246 0.
0.573897 0.0811159 0.
0.576358 0.0814483 0.
0.578734 0.0817465 0.
0.581008 0.0820373 0.
0.583284 0.0823262 0.
0.585396 0.082387 0.
0.587509 0.0824479 0.
0.589612 0.0824995 0.
0.591699 0.0825394 0.
0.593786 0.0825794 0.
0.59587 0.0825966 0.
0.597953 0.0826056 0.
0.600037 0.0826144 0.
0.602123 0.0825897 0.
0.604209 0.082565 0.
0.606297 0.082532 0.
0.60839 0.082479 0.
0.610483 0.0824263 0.
0.612611 0.0823486 0.
0.614756 0.0822581 0.
0.616913 0.0821574 0.
0.619258 0.0818085 0.
0.621582 0.0814687 0.
0.624075 0.081092 0.
0.626628 0.0806897 0.
0.629345 0.0801662 0.
0.632396 0.0793217 0.
0.635661 0.0781672 0.
0.639132 0.0766841 0.
0.642812 0.0751583 0.
0.646604 0.0735564 0.
0.650482 0.0716659 0.
0.65437 0.0696427 0.
0.658375 0.0677571 0.
0.662343 0.0658398 0.
0.666226 0.0636286 0.
0.670098 0.0612769 0.
0.674073 0.0589931 0.
0.67815 0.0568021 0.
0.68219 0.0545342 0.
0.686083 0.0521202 0.
0.689894 0.0496362 0.
0.693666 0.0471796 0.
0.697374 0.0447579 0.
0.701098 0.0423921 0.
0.704822 0.0401118 0.
0.708567 0.0378917 0.
0.712418 0.0356977 0.
0.716418 0.033521 0.
0.720351 0.031267 0.
0.724229 0.0289609 0.
0.728093 0.0266187 0.
0.73199 0.0242731 0.
0.736172 0.0219584 0.
0.740685 0.0197234 0.
0.745221 0.0174527 0.
0.75014 0.0151137 0.
0.755789 0.013046 0.
0.762086 0.0112874 0.
0.769508 0.0101394 0.
0.779011 0.0112323 0.
0.787282 0.0120111 0.
0.412456 0.0126139 0.
0.420727 0.0112353 0.
0.429658 0.0105715 0.
0.43613 0.0119367 0.
0.441925 0.013775 0.
0.447274 0.0157624 0.
0.45198 0.0179754 0.
0.456421 0.0201947 0.
0.460746 0.0223211 0.
0.464711 0.0245347 0.
0.468532 0.0267792 0.
0.47244 0.0290067 0.
0.47634 0.0312622 0.
0.480159 0.0335517 0.
0.483928 0.0358039 0.
0.48758 0.0380965 0.
0.491191 0.0404174 0.
0.494837 0.0426862 0.
0.498587 0.044969 0.
0.502415 0.0472495 0.
0.506347 0.0495085 0.
0.51034 0.0517562 0.
0.5143 0.0540583 0.
0.518175 0.0564278 0.
0.522064 0.0589022 0.
0.526014 0.0613703 0.
0.529983 0.0636762 0.
0.534039 0.0657823 0.
0.538081 0.0678456 0.
0.541984 0.0701075 0.
0.545829 0.072226 0.
0.549709 0.0741034 0.
0.553607 0.0759069 0.
0.557311 0.0776631 0.
0.561077 0.0790995 0.
0.564538 0.0800839 0.
0.567618 0.081045 0.
0.570617 0.0820809 0.
0.573383 0.0826998 0.
0.576022 0.0831188 0.
0.57854 0.0835076 0.
0.580854 0.083866 0.
0.583175 0.0842273 0.
0.58531 0.0842997 0.
0.587441 0.0843669 0.
0.58956 0.0844237 0.
0.591658 0.0844664 0.
0.593755 0.0845091 0.
0.595851 0.0845273 0.
0.597947 0.0845367 0.
0.600043 0.0845458 0.
0.602142 0.0845197 0.
0.604241 0.0844936 0.
0.60634 0.0844581 0.
0.608443 0.0844013 0.
0.610546 0.0843445 0.
0.612696 0.0842504 0.
0.614865 0.08414 0.
0.617064 0.0840045 0.
0.619492 0.0835727 0.
0.621893 0.0831549 0.
0.624583 0.0826629 0.
0.627315 0.082167 0.
0.630345 0.0813808 0.
0.633474 0.0803992 0.
0.636954 0.078938 0.
0.640588 0.0772906 0.
0.644434 0.0756159 0.
0.648289 0.0738509 0.
0.652171 0.0718573 0.
0.656111 0.0698226 0.
0.660139 0.0679584 0.
0.664124 0.0659107 0.
0.667998 0.0636153 0.
0.671889 0.0612619 0.
0.675887 0.0590127 0.
0.67997 0.0568036 0.
0.684004 0.0544732 0.
0.687894 0.0520185 0.
0.691689 0.0495553 0.
0.695434 0.047129 0.
0.699129 0.0447438 0.
0.702838 0.0424307 0.
0.706566 0.0401819 0.
0.710298 0.0379923 0.
0.714094 0.0358477 0.
0.71801 0.0337015 0.
0.72186 0.0314728 0.
0.72567 0.0292008 0.
0.729442 0.0269227 0.
0.733211 0.0246443 0.
0.73722 0.0224164 0.
0.741528 0.0202685 0.
0.745903 0.0180648 0.
0.750565 0.0157884 0.
0.755913 0.0137624 0.
0.761872 0.0120533 0.
0.768624 0.0106621 0.
0.777524 0.0116592 0.
0.785851 0.0124964 0.
0.414045 0.0129642 0.
0.422329 0.0116012 0.
0.430405 0.0112577 0.
0.436356 0.0127928 0.
0.441855 0.0145645 0.
0.446856 0.0164922 0.
0.451311 0.0186304 0.
0.455529 0.0207597 0.
0.459622 0.0227972 0.
0.46348 0.0249413 0.
0.467201 0.0271338 0.
0.470993 0.0292817 0.
0.474812 0.0314691 0.
0.478545 0.0337099 0.
0.482247 0.0359339 0.
0.485903 0.0381867 0.
0.489515 0.0404942 0.
0.493151 0.042778 0.
0.496869 0.0450262 0.
0.500665 0.0472855 0.
0.504565 0.0495321 0.
0.508544 0.051767 0.
0.512508 0.0540391 0.
0.5164 0.0563755 0.
0.520291 0.0588076 0.
0.52422 0.0613034 0.
0.528172 0.0636758 0.
0.532218 0.0658785 0.
0.536295 0.0679146 0.
0.540245 0.0701408 0.
0.544106 0.0723909 0.
0.548003 0.0743944 0.
0.551991 0.0762574 0.
0.55583 0.0781972 0.
0.559679 0.0798576 0.
0.563253 0.0809675 0.
0.566629 0.0821401 0.
0.569753 0.0833462 0.
0.572798 0.0842471 0.
0.575598 0.0847449 0.
0.578257 0.0852216 0.
0.580597 0.0856292 0.
0.582972 0.0860463 0.
0.585164 0.0861566 0.
0.587339 0.0862478 0.
0.589496 0.086323 0.
0.591607 0.0863665 0.
0.593718 0.0864099 0.
0.595829 0.0864281 0.
0.59794 0.086437 0.
0.600051 0.0864455 0.
0.602165 0.0864186 0.
0.604279 0.0863916 0.
0.606394 0.0863547 0.
0.608512 0.0862965 0.
0.61063 0.0862384 0.
0.612827 0.0861122 0.
0.615046 0.0859652 0.
0.61732 0.0857681 0.
0.619813 0.0852703 0.
0.622259 0.0848057 0.
0.625172 0.0841929 0.
0.628085 0.0835973 0.
0.631428 0.0824949 0.
0.63475 0.0812358 0.
0.638381 0.0795042 0.
0.642175 0.0777234 0.
0.646082 0.0759785 0.
0.64998 0.0740747 0.
0.653895 0.0720061 0.
0.65787 0.0700307 0.
0.661899 0.0681187 0.
0.665892 0.0659247 0.
0.669783 0.0635711 0.
0.673678 0.0612576 0.
0.677679 0.0590429 0.
0.68176 0.0568027 0.
0.685783 0.054413 0.
0.689657 0.0519431 0.
0.693459 0.0495061 0.
0.697189 0.0470997 0.
0.700877 0.0447594 0.
0.704566 0.0424933 0.
0.708298 0.0402727 0.
0.712022 0.0381159 0.
0.715791 0.0360077 0.
0.719615 0.0338889 0.
0.723367 0.0316981 0.
0.727106 0.0294715 0.
0.730797 0.0272509 0.
0.734453 0.025039 0.
0.738293 0.0229103 0.
0.74239 0.0208498 0.
0.746569 0.0187213 0.
0.750966 0.0165229 0.
0.755968 0.0145493 0.
0.761588 0.0128834 0.
0.767741 0.0113389 0.
0.775818 0.012 0.
0.784173 0.0129482 0.
0.415864 0.0132611 0.
0.423975 0.0119902 0.
0.431121 0.012078 0.
0.436605 0.0137067 0.
0.441796 0.0154132 0.
0.446419 0.017277 0.
0.450598 0.0193158 0.
0.454593 0.0213536 0.
0.458498 0.0233168 0.
0.462232 0.0253732 0.
0.465847 0.0275059 0.
0.469545 0.0295915 0.
0.473274 0.0317001 0.
0.476934 0.0338872 0.
0.480593 0.036087 0.
0.484245 0.0383023 0.
0.487852 0.0405848 0.
0.491465 0.0428751 0.
0.495155 0.0451064 0.
0.498933 0.0473393 0.
0.502813 0.0495788 0.
0.506766 0.0517993 0.
0.510725 0.054034 0.
0.514635 0.0563467 0.
0.518525 0.0587403 0.
0.522436 0.0612181 0.
0.526386 0.063651 0.
0.530419 0.0659269 0.
0.534504 0.0680068 0.
0.538514 0.0701608 0.
0.542396 0.072485 0.
0.546316 0.0746151 0.
0.55035 0.0765361 0.
0.554293 0.0785696 0.
0.558144 0.0803884 0.
0.561902 0.0817564 0.
0.565526 0.0830709 0.
0.568779 0.084397 0.
0.571999 0.0855441 0.
0.574897 0.0861668 0.
0.577788 0.0868589 0.
0.580225 0.0873312 0.
0.582704 0.0878174 0.
0.584985 0.0879874 0.
0.58722 0.0881141 0.
0.589427 0.0882167 0.
0.591553 0.0882609 0.
0.593679 0.0883051 0.
0.595806 0.0883233 0.
0.597932 0.0883316 0.
0.600059 0.0883394 0.
0.602189 0.0883111 0.
0.604319 0.0882828 0.
0.606451 0.0882442 0.
0.608587 0.0881844 0.
0.610723 0.0881247 0.
0.612988 0.0879526 0.
0.615279 0.0877535 0.
0.617678 0.0874563 0.
0.620294 0.086849 0.
0.622918 0.0862482 0.
0.625977 0.0855015 0.
0.629075 0.0847726 0.
0.632582 0.0834644 0.
0.636148 0.0818182 0.
0.639872 0.0799389 0.
0.643809 0.0780809 0.
0.647747 0.0762581 0.
0.651658 0.074237 0.
0.655599 0.0721502 0.
0.659614 0.0702324 0.
0.663654 0.068211 0.
0.667649 0.0659167 0.
0.671563 0.0635437 0.
0.675475 0.0612728 0.
0.679478 0.0590696 0.
0.683531 0.0567895 0.
0.687526 0.054363 0.
0.691401 0.0519008 0.
0.6952 0.0494814 0.
0.698932 0.0470999 0.
0.702613 0.0448041 0.
0.706292 0.0425755 0.
0.710017 0.0403828 0.
0.713744 0.0382603 0.
0.717492 0.0361802 0.
0.721235 0.0340846 0.
0.7249 0.0319316 0.
0.728558 0.0297659 0.
0.732169 0.0276021 0.
0.735733 0.0254578 0.
0.739425 0.0234263 0.
0.743298 0.0214618 0.
0.747256 0.0194108 0.
0.751401 0.0173057 0.
0.756005 0.0154055 0.
0.761244 0.013782 0.
0.766894 0.0121806 0.
0.774006 0.0123194 0.
0.7822 0.0134002 0.
0.417844 0.013548 0.
0.425472 0.0124821 0.
0.431738 0.0130176 0.
0.436826 0.0146682 0.
0.441628 0.0162995 0.
0.445872 0.018079 0.
0.449801 0.0200117 0.
0.453581 0.0219622 0.
0.457299 0.0238457 0.
0.46091 0.0258043 0.
0.464435 0.0278724 0.
0.468046 0.0299114 0.
0.471691 0.0319405 0.
0.475298 0.0340666 0.
0.478924 0.036242 0.
0.482568 0.0384306 0.
0.486163 0.0406718 0.
0.48975 0.0429523 0.
0.493421 0.0451927 0.
0.497202 0.0474101 0.
0.501066 0.0496391 0.
0.505 0.051848 0.
0.508955 0.0540617 0.
0.512874 0.0563405 0.
0.516772 0.0587011 0.
0.520687 0.0611451 0.
0.524629 0.0636133 0.
0.528648 0.0659613 0.
0.532739 0.0681267 0.
0.536813 0.0702246 0.
0.540719 0.0725366 0.
0.544654 0.0747889 0.
0.5487 0.0767869 0.
0.552726 0.0788149 0.
0.55662 0.0808115 0.
0.560501 0.0824403 0.
0.564259 0.0838369 0.
0.567661 0.0852395 0.
0.571024 0.0866169 0.
0.574137 0.0875102 0.
0.577251 0.0884479 0.
0.579833 0.0890191 0.
0.582421 0.0895742 0.
0.584804 0.089809 0.
0.587099 0.0899705 0.
0.589359 0.0901047 0.
0.5915 0.0901492 0.
0.593642 0.0901938 0.
0.595784 0.0902117 0.
0.597925 0.0902193 0.
0.600068 0.0902264 0.
0.602213 0.0901971 0.
0.604359 0.0901677 0.
0.606508 0.0901278 0.
0.608661 0.090067 0.
0.610814 0.0900064 0.
0.613152 0.0897839 0.
0.615518 0.0895319 0.
0.618061 0.0891182 0.
0.620804 0.0883991 0.
0.623672 0.0876001 0.
0.626882 0.086661 0.
0.630256 0.08562 0.
0.633809 0.084257 0.
0.637588 0.0822626 0.
0.641428 0.0802529 0.
0.645445 0.0783883 0.
0.649399 0.0764858 0.
0.653326 0.074379 0.
0.657299 0.0723354 0.
0.661328 0.0704172 0.
0.665367 0.0682645 0.
0.66938 0.065896 0.
0.673327 0.0635385 0.
0.677259 0.0613057 0.
0.681262 0.0590955 0.
0.685292 0.0567669 0.
0.689258 0.0543166 0.
0.693132 0.051878 0.
0.696939 0.0494701 0.
0.700677 0.0471232 0.
0.704354 0.0448701 0.
0.708036 0.0426664 0.
0.711756 0.0405076 0.
0.715484 0.0384141 0.
0.719215 0.0363521 0.
0.7229 0.0342768 0.
0.726495 0.0321592 0.
0.730074 0.0300531 0.
0.733602 0.0279503 0.
0.73708 0.0258871 0.
0.740651 0.0239433 0.
0.744323 0.02207 0.
0.748052 0.0201074 0.
0.751933 0.0181092 0.
0.75617 0.0162945 0.
0.760968 0.0147277 0.
0.766157 0.0131548 0.
0.772353 0.0127226 0.
0.780054 0.0138173 0.
0.419793 0.0138794 0.
0.426705 0.0131375 0.
0.432202 0.0140411 0.
0.4369 0.015655 0.
0.44123 0.0171942 0.
0.445146 0.0188762 0.
0.448843 0.0206962 0.
0.452408 0.0225496 0.
0.45595 0.0243546 0.
0.459458 0.0262172 0.
0.462921 0.0282136 0.
0.466446 0.0302157 0.
0.470009 0.032177 0.
0.473584 0.0342363 0.
0.477192 0.036386 0.
0.480824 0.0385507 0.
0.484411 0.0407493 0.
0.48799 0.0430106 0.
0.491662 0.0452715 0.
0.495447 0.047491 0.
0.499312 0.0497124 0.
0.50324 0.0519153 0.
0.507193 0.0541148 0.
0.511118 0.056354 0.
0.515034 0.0586917 0.
0.51896 0.0611066 0.
0.522907 0.06358 0.
0.526931 0.0659983 0.
0.53103 0.0682386 0.
0.535138 0.0703377 0.
0.539093 0.0725907 0.
0.543038 0.0749352 0.
0.547087 0.0770236 0.
0.55117 0.0790375 0.
0.55513 0.0811808 0.
0.559036 0.08301 0.
0.562867 0.084477 0.
0.566496 0.0859996 0.
0.569982 0.0875435 0.
0.573359 0.0887708 0.
0.576612 0.0898627 0.
0.579365 0.0905379 0.
0.582037 0.091132 0.
0.584551 0.0914861 0.
0.586939 0.091748 0.
0.589291 0.0919716 0.
0.591448 0.0920167 0.
0.593607 0.0920619 0.
0.595764 0.0920799 0.
0.597921 0.092087 0.
0.600079 0.0920935 0.
0.602239 0.0920624 0.
0.604399 0.0920313 0.
0.606562 0.0919889 0.
0.608731 0.0919254 0.
0.610898 0.091862 0.
0.613381 0.0915099 0.
0.615865 0.0911455 0.
0.618546 0.0905913 0.
0.621341 0.0898396 0.
0.624454 0.0888485 0.
0.627806 0.0877432 0.
0.631462 0.0863769 0.
0.635158 0.0847802 0.
0.639025 0.082616 0.
0.642977 0.0805548 0.
0.647047 0.0786802 0.
0.651011 0.0766813 0.
0.654963 0.0745368 0.
0.658972 0.0725588 0.
0.663006 0.0705741 0.
0.667043 0.0683086 0.
0.671071 0.0659018 0.
0.675063 0.0635724 0.
0.679031 0.0613552 0.
0.683031 0.0591207 0.
0.687042 0.0567514 0.
0.690997 0.0542877 0.
0.694872 0.0518621 0.
0.698691 0.0494702 0.
0.702444 0.0471648 0.
0.706125 0.0449439 0.
0.709819 0.0427558 0.
0.713538 0.0406373 0.
0.717263 0.0385695 0.
0.72098 0.036519 0.
0.72463 0.0344573 0.
0.72818 0.0323745 0.
0.73169 0.030321 0.
0.735149 0.0282757 0.
0.73855 0.0262995 0.
0.742013 0.0244487 0.
0.745534 0.0226449 0.
0.749052 0.0207734 0.
0.752664 0.0189032 0.
0.756553 0.0171884 0.
0.760894 0.015697 0.
0.765616 0.014201 0.
0.771034 0.0133314 0.
0.777936 0.014172 0.
0.421549 0.014324 0.
0.427614 0.0139893 0.
0.432443 0.0151188 0.
0.436671 0.0166452 0.
0.440557 0.0180842 0.
0.444208 0.0196625 0.
0.447675 0.0213561 0.
0.451066 0.0231146 0.
0.454472 0.024852 0.
0.457897 0.0266321 0.
0.461313 0.0285455 0.
0.464758 0.0305139 0.
0.468269 0.0324361 0.
0.471835 0.0344287 0.
0.475425 0.0365451 0.
0.47904 0.0386896 0.
0.48264 0.0408574 0.
0.486232 0.0430896 0.
0.489928 0.0453682 0.
0.493731 0.0476136 0.
0.497604 0.0498283 0.
0.501527 0.0520258 0.
0.505474 0.0542094 0.
0.509407 0.0564253 0.
0.513341 0.0587337 0.
0.51729 0.0611266 0.
0.521255 0.0635832 0.
0.525289 0.0660515 0.
0.529394 0.0683637 0.
0.533513 0.0705136 0.
0.537522 0.0726909 0.
0.541479 0.0750639 0.
0.545545 0.0772571 0.
0.549663 0.0792764 0.
0.553681 0.0814621 0.
0.557588 0.083461 0.
0.561475 0.085065 0.
0.565258 0.0866517 0.
0.568892 0.0883499 0.
0.572481 0.08982 0.
0.575771 0.0909971 0.
0.578788 0.091934 0.
0.581598 0.0926389 0.
0.584279 0.0931464 0.
0.58677 0.0935159 0.
0.589222 0.0938385 0.
0.591396 0.0938843 0.
0.593571 0.0939301 0.
0.595745 0.0939481 0.
0.597917 0.0939546 0.
0.60009 0.0939605 0.
0.602264 0.0939277 0.
0.604439 0.0938949 0.
0.606617 0.09385 0.
0.6088 0.0937837 0.
0.610983 0.0937175 0.
0.613635 0.0932135 0.
0.616268 0.0927095 0.
0.619125 0.0919584 0.
0.622003 0.0911032 0.
0.625325 0.0898791 0.
0.628809 0.0886557 0.
0.632676 0.08706 0.
0.636513 0.0851602 0.
0.640434 0.0829109 0.
0.644473 0.0808629 0.
0.648573 0.0789665 0.
0.652559 0.0768641 0.
0.656545 0.074739 0.
0.660587 0.0727989 0.
0.664618 0.0707153 0.
0.668655 0.0683665 0.
0.672707 0.065953 0.
0.67674 0.0636576 0.
0.680744 0.0614425 0.
0.684739 0.059175 0.
0.688733 0.0567733 0.
0.692686 0.054311 0.
0.696577 0.0518875 0.
0.700418 0.049517 0.
0.704193 0.0472503 0.
0.707887 0.0450526 0.
0.711594 0.0428838 0.
0.715321 0.0407945 0.
0.719042 0.038747 0.
0.722745 0.036707 0.
0.726385 0.0346553 0.
0.729911 0.0326072 0.
0.733369 0.0305956 0.
0.736774 0.0286068 0.
0.740139 0.0267099 0.
0.743518 0.024945 0.
0.746907 0.0231952 0.
0.750267 0.0214092 0.
0.753647 0.0196817 0.
0.757208 0.0180844 0.
0.76112 0.0166745 0.
0.765362 0.0152733 0.
0.770114 0.0141826 0.
0.776094 0.0145883 0.
0.422907 0.0149553 0.
0.428115 0.0149966 0.
0.432308 0.016204 0.
0.436051 0.0176264 0.
0.439591 0.018974 0.
0.443012 0.0204293 0.
0.446301 0.021999 0.
0.449587 0.023676 0.
0.452909 0.0253704 0.
0.45627 0.0270816 0.
0.459649 0.0289107 0.
0.463067 0.0308485 0.
0.466564 0.0327587 0.
0.470135 0.0346987 0.
0.4737 0.0367704 0.
0.477308 0.038895 0.
0.480934 0.0410446 0.
0.484559 0.0432503 0.
0.488285 0.0455305 0.
0.492113 0.0478044 0.
0.495995 0.0500256 0.
0.499913 0.0522074 0.
0.503847 0.0543732 0.
0.507786 0.0565734 0.
0.511745 0.0588506 0.
0.515728 0.0612304 0.
0.519705 0.0636665 0.
0.523757 0.0661509 0.
0.527862 0.0685379 0.
0.531971 0.0707455 0.
0.536013 0.0728645 0.
0.540008 0.0752077 0.
0.544102 0.0775142 0.
0.548222 0.0795656 0.
0.552292 0.0817195 0.
0.556214 0.0838701 0.
0.560126 0.0856171 0.
0.563997 0.0872282 0.
0.567771 0.0890301 0.
0.571512 0.0907193 0.
0.574896 0.0920549 0.
0.578181 0.0932901 0.
0.581132 0.0941018 0.
0.583998 0.0947716 0.
0.586583 0.095239 0.
0.589148 0.0956808 0.
0.59134 0.0957268 0.
0.593534 0.0957728 0.
0.595725 0.095791 0.
0.597914 0.0957976 0.
0.600103 0.0958034 0.
0.602293 0.0957698 0.
0.604482 0.0957363 0.
0.606676 0.0956896 0.
0.608875 0.0956212 0.
0.611073 0.095553 0.
0.613902 0.0948801 0.
0.616692 0.0942399 0.
0.619722 0.093285 0.
0.622714 0.0922899 0.
0.626243 0.0907674 0.
0.629892 0.0893786 0.
0.633885 0.087658 0.
0.637809 0.0854896 0.
0.641787 0.0832116 0.
0.645897 0.0812067 0.
0.650019 0.0792594 0.
0.654028 0.0770909 0.
0.658039 0.0750275 0.
0.662105 0.0730654 0.
0.666145 0.0708744 0.
0.670179 0.0684719 0.
0.674242 0.066081 0.
0.678324 0.0638014 0.
0.682359 0.0615821 0.
0.686333 0.059295 0.
0.690306 0.0568733 0.
0.694279 0.054403 0.
0.698199 0.051985 0.
0.702069 0.0496498 0.
0.705863 0.0474184 0.
0.709569 0.045238 0.
0.71329 0.0430936 0.
0.717031 0.0410247 0.
0.720759 0.0389884 0.
0.724446 0.0369573 0.
0.72808 0.0349166 0.
0.731608 0.032901 0.
0.735039 0.0309217 0.
0.738423 0.0289791 0.
0.741788 0.027158 0.
0.745118 0.025458 0.
0.748416 0.0237486 0.
0.751674 0.0220446 0.
0.754887 0.0204493 0.
0.75819 0.0189751 0.
0.761705 0.0176485 0.
0.765496 0.0163394 0.
0.769666 0.0152028 0.
0.774755 0.015198 0.
0.423744 0.0158002 0.
0.428141 0.0160995 0.
0.431746 0.0172972 0.
0.435095 0.0186256 0.
0.438365 0.0198765 0.
0.44161 0.021208 0.
0.444819 0.0226711 0.
0.448043 0.0242834 0.
0.451306 0.0259474 0.
0.45463 0.0276093 0.
0.458013 0.0293752 0.
0.461466 0.0312791 0.
0.464985 0.0331857 0.
0.468553 0.0350928 0.
0.472094 0.0371107 0.
0.475712 0.0392112 0.
0.479375 0.0413566 0.
0.483039 0.0435381 0.
0.486792 0.0457973 0.
0.490636 0.0480871 0.
0.494534 0.0503234 0.
0.498451 0.0524823 0.
0.50237 0.0546391 0.
0.506321 0.0568239 0.
0.510304 0.0590715 0.
0.514321 0.061437 0.
0.518318 0.0638632 0.
0.522377 0.0663448 0.
0.526471 0.0687877 0.
0.530563 0.0710415 0.
0.534644 0.073151 0.
0.538681 0.0754287 0.
0.542794 0.0778188 0.
0.546925 0.0799379 0.
0.551038 0.0820511 0.
0.55499 0.0843053 0.
0.558895 0.0861665 0.
0.56281 0.0878194 0.
0.566719 0.0896735 0.
0.570535 0.0914939 0.
0.574069 0.093057 0.
0.577626 0.094575 0.
0.580682 0.0954314 0.
0.583639 0.0962514 0.
0.586347 0.096882 0.
0.589064 0.0975042 0.
0.591279 0.0975518 0.
0.593494 0.0975996 0.
0.595704 0.097619 0.
0.597911 0.0976262 0.
0.600118 0.0976324 0.
0.602323 0.0975979 0.
0.604528 0.0975635 0.
0.606741 0.0975142 0.
0.608959 0.0974422 0.
0.611188 0.097359 0.
0.614197 0.0963753 0.
0.617098 0.0955562 0.
0.620215 0.0945591 0.
0.623434 0.0933371 0.
0.627113 0.0916005 0.
0.63092 0.0900177 0.
0.634988 0.0881775 0.
0.638975 0.0858531 0.
0.643007 0.0835797 0.
0.64718 0.0816045 0.
0.651324 0.0795906 0.
0.655353 0.0774016 0.
0.659386 0.075394 0.
0.663469 0.0733725 0.
0.667511 0.0711121 0.
0.671558 0.0686704 0.
0.675633 0.0663088 0.
0.67976 0.0640361 0.
0.683817 0.0618129 0.
0.687768 0.059509 0.
0.69172 0.0570828 0.
0.695707 0.0546059 0.
0.699672 0.052201 0.
0.703574 0.0499068 0.
0.707386 0.0477024 0.
0.711108 0.0455354 0.
0.714844 0.0434166 0.
0.718598 0.0413625 0.
0.722336 0.0393415 0.
0.72602 0.0373162 0.
0.729641 0.0352909 0.
0.733183 0.0333048 0.
0.736635 0.0313476 0.
0.74003 0.0294409 0.
0.74342 0.0276893 0.
0.74675 0.0260405 0.
0.750003 0.0243671 0.
0.753199 0.0227448 0.
0.756309 0.0212554 0.
0.759435 0.0199033 0.
0.762641 0.0186471 0.
0.766027 0.0174014 0.
0.769684 0.0163137 0.
0.773992 0.0160253 0.
CELLS 5000 10000
1 0
1 1
1 2
1 3
1 4
1 5
1 6
1 7
1 8
1 9
1 10
1 11
1 12
1 13
1 14
1 15
1 16
1 17
1 18
1 19
1 20
1 21
1 22
1 23
1 24
1 25
1 26
1 27
1 28
1 29
1 30
1 31
1 32
1 33
1 34
1 35
1 36
1 37
1 38
1 39
1 40
1 41
1 42
1 43
1 44
1 45
1 46
1 47
1 48
1 49
1 50
1 51
1 52
1 53
1 54
1 55
1 56
1 57
1 58
1 59
1 60
1 61
1 62
1 63
1 64
1 65
1 66
1 67
1 68
1 69
1 70
1 71
1 72
1 73
1 74
1 75
1 76
1 77
1 78
1 79
1 80
1 81
1 82
1 83
1 84
1 85
1 86
1 87
1 88
1 89
1 90
1 91
1 92
1 93
1 94
1 95
1 96
1 97
1 98
1 99
1 100
1 101
1 102
1 103
1 104
1 105
1 106
1 107
1 108
1 109
1 110
1 111
1 112
1 113
1 114
1 115
1 116
1 117
1 118
1 119
1 120
1 121
1 122
1 123
1 124
1 125
1 126
1 127
1 128
1 129
1 130
1 131
1 132
1 133
1 134
1 135
1 136
1 137
1 138
1 139
1 140
1 141
1 142
1 143
1 144
1 145
1 146
1 147
1 148
1 149
1 150
1 151
1 152
1 153
1 154
1 155
1 156
1 157
1 158
1 159
1 160
1 161
1 162
1 163
1 164
1 165
1 166
1 167
1 168
1 169
1 170
1 171
1 172
1 173
1 174
1 175
1 176
1 177
1 178
1 179
1 180
1 181
1 182
1 183
1 184
1 185
1 186
1 187
1 188
1 189
1 190
1 191
1 192
1 193
1 194
1 195
1 196
1 197
1 198
1 199
1 200
1 201
1 202
1 203
1 204
1 205
1 206
1 207
1 208
1 209
1 210
1 211
1 212
1 213
1 214
1 215
1 216
1 217
1 218
1 219
1 220
1 221
1 222
1 223
1 224
1 225
1 226
1 227
1 228
1 229
1 230
1 231
1 232
1 233
1 234
1 235
1 236
1 237
1 238
1 239
1 240
1 241
1 242
1 243
1 244
1 245
1 246
1 247
1 248
1 249
1 250
1 251
1 252
1 253
1 254
1 255
1 256
1 257
1 258
1 259
1 260
1 261
1 262
1 263
1 264
1 265
1 266
1 267
1 268
1 269
1 270
1 271
1 272
1 273
1 274
1 275
1 276
1 277
1 278
1 279
1 280
1 281
1 282
1 283
1 284
1 285
1 286
1 287
1 288
1 289
1 290
1 291
1 292
1 293
1 294
1 295
1 296
1 297
1 298
1 299
1 300
1 301
1 302
1 303
1 304
1 305
1 306
1 307
1 308
1 309
1 310
1 311
1 312
1 313
1 314
1 315
1 316
1 317
1 318
1 319
1 320
1 321
1 322
1 323
1 324
1 325
1 326
1 327
1 328
1 329
1 330
1 331
1 332
1 333
1 334
1 335
1 336
1 337
1 338
1 339
1 340
1 341
1 342
1 343
1 344
1 345
1 346
1 347
1 348
1 349
1 350
1 351
1 352
1 353
1 354
1 355
1 356
1 357
1 358
1 359
1 360
1 361
1 362
1 363
1 364
1 365
1 366
1 367
1 368
1 369
1 370
1 371
1 372
1 373
1 374
1 375
1 376
1 377
1 378
1 379
1 380
1 381
1 382
1 383
1 384
1 385
1 386
1 387
1 388
1 389
1 390
1 391
1 392
1 393
1 394
1 395
1 396
1 397
1 398
1 399
1 400
1 401
1 402
1 403
1 404
1 405
1 406
1 407
1 408
1 409
1 410
1 411
1 412
1 413
1 414
1 415
1 416
1 417
1 418
1 419
1 420
1 421
1 422
1 423
1 424
1 425
1 426
1 427
1 428
1 429
1 430
1 431
1 432
1 433
1 434
1 435
1 436
1 437
1 438
1 439
1 440
1 441
1 442
1 443
1 444
1 445
1 446
1 447
1 448
1 449
1 450
1 451
1 452
1 453
1 454
1 455
1 456
1 457
1 458
1 459
1 460
1 461
1 462
1 463
1 464
1 465
1 466
1 467
1 468
1 469
1 470
1 471
1 472
1 473
1 474
1 475
1 476
1 477
1 478
1 479
1 480
1 481
1 482
1 483
1 484
1 485
1 486
1 487
1 488
1 489
1 490
1 491
1 492
1 493
1 494
1 495
1 496
1 497
1 498
1 499
1 500
1 501
1 502
1 503
1 504
1 505
1 506
1 507
1 508
1 509
1 510
1 511
1 512
1 513
1 514
1 515
1 516
1 517
1 518
1 519
1 520
1 521
1 522
1 523
1 524
1 525
1 526
1 527
1 528
1 529
1 530
1 531
1 532
1 533
1 534
1 535
1 536
1 537
1 538
1 539
1 540
1 541
1 542
1 543
1 544
1 545
1 546
1 547
1 548
1 549
1 550
1 551
1 552
1 553
1 554
1 555
1 556
1 557
1 558
1 559
1 560
1 561
1 562
1 563
1 564
1 565
1 566
1 567
1 568
1 569
1 570
1 571
1 572
1 573
1 574
1 575
1 576
1 577
1 578
1 579
1 580
1 581
1 582
1 583
1 584
1 585
1 586
1 587
1 588
1 589
1 590
1 591
1 592
1 593
1 594
1 595
1 596
1 597
1 598
1 599
1 600
1 601
1 602
1 603
1 604
1 605
1 606
1 607
1 608
1 609
1 610
1 611
1 612
1 613
1 614
1 615
1 616
1 617
1 618
1 619
1 620
1 621
1 622
1 623
1 624
1 625
1 626
1 627
1 628
1 629
1 630
1 631
1 632
1 633
1 634
1 635
1 636
1 637
1 638
1 639
1 640
1 641
1 642
1 643
1 644
1 645
1 646
1 647
1 648
1 649
1 650
1 651
1 652
1 653
1 654
1 655
1 656
1 657
1 658
1 659
1 660
1 661
1 662
1 663
1 664
1 665
1 666
1 667
1 668
1 669
1 670
1 671
1 672
1 673
1 674
1 675
1 676
1 677
1 678
1 679
1 680
1 681
1 682
1 683
1 684
1 685
1 686
1 687
1 688
1 689
1 690
1 691
1 692
1 693
1 694
1 695
1 696
1 697
1 698
1 699
1 700
1 701
1 702
1 703
1 704
1 705
1 706
1 707
1 708
1 709
1 710
1 711
1 712
1 713
1 714
1 715
1 716
1 717
1 718
1 719
1 720
1 721
1 722
1 723
1 724
1 725
1 726
1 727
1 728
1 729
1 730
1 731
1 732
1 733
1 734
1 735
1 736
1 737
1 738
1 739
1 740
1 741
1 742
1 743
1 744
1 745
1 746
1 747
1 748
1 749
1 750
1 751
1 752
1 753
1 754
1 755
1 756
1 757
1 758
1 759
1 760
1 761
1 762
1 763
1 764
1 765
1 766
1 767
1 768
1 769
1 770
1 771
1 772
1 773
1 774
1 775
1 776
1 777
1 778
1 779
1 780
1 781
1 782
1 783
1 784
1 785
1 786
1 787
1 788
1 789
1 790
1 791
1 792
1 793
1 794
1 795
1 796
1 797
1 798
1 799
1 800
1 801
1 802
1 803
1 804
1 805
1 806
1 807
1 808
1 809
1 810
1 811
1 812
1 813
1 814
1 815
1 816
1 817
1 818
1 819
1 820
1 821
1 822
1 823
1 824
1 825
1 826
1 827
1 828
1 829
1 830
1 831
1 832
1 833
1 834
1 835
1 836
1 837
1 838
1 839
1 840
1 841
1 842
1 843
1 844
1 845
1 846
1 847
1 848
1 849
1 850
1 851
1 852
1 853
1 854
1 855
1 856
1 857
1 858
1 859
1 860
1 861
1 862
1 863
1 864
1 865
1 866
1 867
1 868
1 869
1 870
1 871
1 872
1 873
1 874
1 875
1 876
1 877
1 878
1 879
1 880
1 881
1 882
1 883
1 884
1 885
1 886
1 887
1 888
1 889
1 890
1 891
1 892
1 893
1 894
1 895
1 896
1 897
1 898
1 899
1 900
1 901
1 902
1 903
1 904
1 905
1 906
1 907
1 908
1 909
1 910
1 911
1 912
1 913
1 914
1 915
1 916
1 917
1 918
1 919
1 920
1 921
1 922
1 923
1 924
1 925
1 926
1 927
1 928
1 929
1 930
1 931
1 932
1 933
1 934
1 935
1 936
1 937
1 938
1 939
1 940
1 941
1 942
1 943
1 944
1 945
1 946
1 947
1 948
1 949
1 950
1 951
1 952
1 953
1 954
1 955
1 956
1 957
1 958
1 959
1 960
1 961
1 962
1 963
1 964
1 965
1 966
1 967
1 968
1 969
1 970
1 971
1 972
1 973
1 974
1 975
1 976
1 977
1 978
1 979
1 980
1 981
1 982
1 983
1 984
1 985
1 986
1 987
1 988
1 989
1 990
1 991
1 992
1 993
1 994
1 995
1 996
1 997
1 998
1 999
1 1000
1 1001
1 1002
1 1003
1 1004
1 1005
1 1006
1 1007
1 1008
1 1009
1 1010
1 1011
1 1012
1 1013
1 1014
1 1015
1 1016
1 1017
1 1018
1 1019
1 1020
1 1021
1 1022
1 1023
1 1024
1 1025
1 1026
1 1027
1 1028
1 1029
1 1030
1 1031
1 1032
1 1033
1 1034
1 1035
1 1036
1 1037
1 1038
1 1039
1 1040
1 1041
1 1042
1 1043
1 1044
1 1045
1 1046
1 1047
1 1048
1 1049
1 1050
1 1051
1 1052
1 1053
1 1054
1 1055
1 1056
1 1057
1 1058
1 1059
1 1060
1 1061
1 1062
1 1063
1 1064
1 1065
1 1066
1 1067
1 1068
1 1069
1 1070
1 1071
1 1072
1 1073
1 1074
1 1075
1 1076
1 1077
1 1078
1 1079
1 1080
1 1081
1 1082
1 1083
1 1084
1 1085
1 1086
1 1087
1 1088
1 1089
1 1090
1 1091
1 1092
1 1093
1 1094
1 1095
1 1096
1 1097
1 1098
1 1099
1 1100
1 1101
1 1102
1 1103
1 1104
1 1105
1 1106
1 1107
1 1108
1 1109
1 1110
1 1111
1 1112
1 1113
1 1114
1 1115
1 1116
1 1117
1 1118
1 1119
1 1120
1 1121
1 1122
1 1123
1 1124
1 1125
1 1126
1 1127
1 1128
1 1129
1 1130
1 1131
1 1132
1 1133
1 1134
1 1135
1 1136
1 1137
1 1138
1 1139
1 1140
1 1141
1 1142
1 1143
1 1144
1 1145
1 1146
1 1147
1 1148
1 1149
1 1150
1 1151
1 1152
1 1153
1 1154
1 1155
1 1156
1 1157
1 1158
1 1159
1 1160
1 1161
1 1162
1 1163
1 1164
1 1165
1 1166
1 1167
1 1168
1 1169
1 1170
1 1171
1 1172
1 1173
1 1174
1 1175
1 1176
1 1177
1 1178
1 1179
1 1180
1 1181
1 1182
1 1183
1 1184
1 1185
1 1186
1 1187
1 1188
1 1189
1 1190
1 1191
1 1192
1 1193
1 1194
1 1195
1 1196
1 1197
1 1198
1 1199
1 1200
1 1201
1 1202
1 1203
1 1204
1 1205
1 1206
1 1207
1 1208
1 1209
1 1210
1 1211
1 1212
1 1213
1 1214
1 1215
1 1216
1 1217
1 1218
1 1219
1 1220
1 1221
1 1222
1 1223
1 1224
1 1225
1 1226
1 1227
1 1228
1 1229
1 1230
1 1231
1 1232
1 1233
1 1234
1 1235
1 1236
1 1237
1 1238
1 1239
1 1240
1 1241
1 1242
1 1243
1 1244
1 1245
1 1246
1 1247
1 1248
1 1249
1 1250
1 1251
1 1252
1 1253
1 1254
1 1255
1 1256
1 1257
1 1258
1 1259
1 1260
1 1261
1 1262
1 1263
1 1264
1 1265
1 1266
1 1267
1 1268
1 1269
1 1270
1 1271
1 1272
1 1273
1 1274
1 1275
1 1276
1 1277
1 1278
1 1279
1 1280
1 1281
1 1282
1 1283
1 1284
1 1285
1 1286
1 1287
1 1288
1 1289
1 1290
1 1291
1 1292
1 1293
1 1294
1 1295
1 1296
1 1297
1 1298
1 1299
1 1300
1 1301
1 1302
1 1303
1 1304
1 1305
1 1306
1 1307
1 1308
1 1309
1 1310
1 1311
1 1312
1 1313
1 1314
1 1315
1 1316
1 1317
1 1318
1 1319
1 1320
1 1321
1 1322
1 1323
1 1324
1 1325
1 1326
1 1327
1 1328
1 1329
1 1330
1 1331
1 1332
1 1333
1 1334
1 1335
1 1336
1 1337
1 1338
1 1339
1 1340
1 1341
1 1342
1 1343
1 1344
1 1345
1 1346
1 1347
1 1348
1 1349
1 1350
1 1351
1 1352
1 1353
1 1354
1 1355
1 1356
1 1357
1 1358
1 1359
1 1360
1 1361
1 1362
1 1363
1 1364
1 1365
1 1366
1 1367
1 1368
1 1369
1 1370
1 1371
1 1372
1 1373
1 1374
1 1375
1 1376
1 1377
1 1378
1 1379
1 1380
1 1381
1 1382
1 1383
1 1384
1 1385
1 1386
1 1387
1 1388
1 1389
1 1390
1 1391
1 1392
1 1393
1 1394
1 1395
1 1396
1 1397
1 1398
1 1399
1 1400
1 1401
1 1402
1 1403
1 1404
1 1405
1 1406
1 1407
1 1408
1 1409
1 1410
1 1411
1 1412
1 1413
1 1414
1 1415
1 1416
1 1417
1 1418
1 1419
1 1420
1 1421
1 1422
1 1423
1 1424
1 1425
1 1426
1 1427
1 1428
1 1429
1 1430
1 1431
1 1432
1 1433
1 1434
1 1435
1 1436
1 1437
1 1438
1 1439
1 1440
1 1441
1 1442
1 1443
1 1444
1 1445
1 1446
1 1447
1 1448
1 1449
1 1450
1 1451
1 1452
1 1453
1 1454
1 1455
1 1456
1 1457
1 1458
1 1459
1 1460
1 1461
1 1462
1 1463
1 1464
1 1465
1 1466
1 1467
1 1468
1 1469
1 1470
1 1471
1 1472
1 1473
1 1474
1 1475
1 1476
1 1477
1 1478
1 1479
1 1480
1 1481
1 1482
1 1483
1 1484
1 1485
1 1486
1 1487
1 1488
1 1489
1 1490
1 1491
1 1492
1 1493
1 1494
1 1495
1 1496
1 1497
1 1498
1 1499
1 1500
1 1501
1 1502
1 1503
1 1504
1 1505
1 1506
1 1507
1 1508
1 1509
1 1510
1 1511
1 1512
1 1513
1 1514
1 1515
1 1516
1 1517
1 1518
1 1519
1 1520
1 1521
1 1522
1 1523
1 1524
1 1525
1 1526
1 1527
1 1528
1 1529
1 1530
1 1531
1 1532
1 1533
1 1534
1 1535
1 1536
1 1537
1 1538
1 1539
1 1540
1 1541
1 1542
1 1543
1 1544
1 1545
1 1546
1 1547
1 1548
1 1549
1 1550
1 1551
1 1552
1 1553
1 1554
1 1555
1 1556
1 1557
1 1558
1 1559
1 1560
1 1561
1 1562
1 1563
1 1564
1 1565
1 1566
1 1567
1 1568
1 1569
1 1570
1 1571
1 1572
1 1573
1 1574
1 1575
1 1576
1 1577
1 1578
1 1579
1 1580
1 1581
1 1582
1 1583
1 1584
1 1585
1 1586
1 1587
1 1588
1 1589
1 1590
1 1591
1 1592
1 1593
1 1594
1 1595
1 1596
1 1597
1 1598
1 1599
1 1600
1 1601
1 1602
1 1603
1 1604
1 1605
1 1606
1 1607
1 1608
1 1609
1 1610
1 1611
1 1612
1 1613
1 1614
1 1615
1 1616
1 1617
1 1618
1 1619
1 1620
1 1621
1 1622
1 1623
1 1624
1 1625
1 1626
1 1627
1 1628
1 1629
1 1630
1 1631
1 1632
1 1633
1 1634
1 1635
1 1636
1 1637
1 1638
1 1639
1 1640
1 1641
1 1642
1 1643
1 1644
1 1645
1 1646
1 1647
1 1648
1 1649
1 1650
1 1651
1 1652
1 1653
1 1654
1 1655
1 1656
1 1657
1 1658
1 1659
1 1660
1 1661
1 1662
1 1663
1 1664
1 1665
1 1666
1 1667
1 1668
1 1669
1 1670
1 1671
1 1672
1 1673
1 1674
1 1675
1 1676
1 1677
1 1678
1 1679
1 1680
1 1681
1 1682
1 1683
1 1684
1 1685
1 1686
1 1687
1 1688
1 1689
1 1690
1 1691
1 1692
1 1693
1 1694
1 1695
1 1696
1 1697
1 1698
1 1699
1 1700
1 1701
1 1702
1 1703
1 1704
1 1705
1 1706
1 1707
1 1708
1 1709
1 1710
1 1711
1 1712
1 1713
1 1714
1 1715
1 1716
1 1717
1 1718
1 1719
1 1720
1 1721
1 1722
1 1723
1 1724
1 1725
1 1726
1 1727
1 1728
1 1729
1 1730
1 1731
1 1732
1 1733
1 1734
1 1735
1 1736
1 1737
1 1738
1 1739
1 1740
1 1741
1 1742
1 1743
1 1744
1 1745
1 1746
1 1747
1 1748
1 1749
1 1750
1 1751
1 1752
1 1753
1 1754
1 1755
1 1756
1 1757
1 1758
1 1759
1 1760
1 1761
1 1762
1 1763
1 1764
1 1765
1 1766
1 1767
1 1768
1 1769
1 1770
1 1771
1 1772
1 1773
1 1774
1 1775
1 1776
1 1777
1 1778
1 1779
1 1780
1 1781
1 1782
1 1783
1 1784
1 1785
1 1786
1 1787
1 1788
1 1789
1 1790
1 1791
1 1792
1 1793
1 1794
1 1795
1 1796
1 1797
1 1798
1 1799
1 1800
1 1801
1 1802
1 1803
1 1804
1 1805
1 1806
1 1807
1 1808
1 1809
1 1810
1 1811
1 1812
1 1813
1 1814
1 1815
1 1816
1 1817
1 1818
1 1819
1 1820
1 1821
1 1822
1 1823
1 1824
1 1825
1 1826
1 1827
1 1828
1 1829
1 1830
1 1831
1 1832
1 1833
1 1834
1 1835
1 1836
1 1837
1 1838
1 1839
1 1840
1 1841
1 1842
1 1843
1 1844
1 1845
1 1846
1 1847
1 1848
1 1849
1 1850
1 1851
1 1852
1 1853
1 1854
1 1855
1 1856
1 1857
1 1858
1 1859
1 1860
1 1861
1 1862
1 1863
1 1864
1 1865
1 1866
1 1867
1 1868
1 1869
1 1870
1 1871
1 1872
1 1873
1 1874
1 1875
1 1876
1 1877
1 1878
1 1879
1 1880
1 1881
1 1882
1 1883
1 1884
1 1885
1 1886
1 1887
1 1888
1 1889
1 1890
1 1891
1 1892
1 1893
1 1894
1 1895
1 1896
1 1897
1 1898
1 1899
1 1900
1 1901
1 1902
1 1903
1 1904
1 1905
1 1906
1 1907
1 1908
1 1909
1 1910
1 1911
1 1912
1 1913
1 1914
1 1915
1 1916
1 1917
1 1918
1 1919
1 1920
1 1921
1 1922
1 1923
1 1924
1 1925
1 1926
1 1927
1 1928
1 1929
1 1930
1 1931
1 1932
1 1933
1 1934
1 1935
1 1936
1 1937
1 1938
1 1939
1 1940
1 1941
1 1942
1 1943
1 1944
1 1945
1 1946
1 1947
1 1948
1 1949
1 1950
1 1951
1 1952
1 1953
1 1954
1 1955
1 1956
1 1957
1 1958
1 1959
1 1960
1 1961
1 1962
1 1963
1 1964
1 1965
1 1966
1 1967
1 1968
1 1969
1 1970
1 1971
1 1972
1 1973
1 1974
1 1975
1 1976
1 1977
1 1978
1 1979
1 1980
1 1981
1 1982
1 1983
1 1984
1 1985
1 1986
1 1987
1 1988
1 1989
1 1990
1 1991
1 1992
1 1993
1 1994
1 1995
1 1996
1 1997
1 1998
1 1999
1 2000
1 2001
1 2002
1 2003
1 2004
1 2005
1 2006
1 2007
1 2008
1 2009
1 2010
1 2011
1 2012
1 2013
1 2014
1 2015
1 2016
1 2017
1 2018
1 2019
1 2020
1 2021
1 2022
1 2023
1 2024
1 2025
1 2026
1 2027
1 2028
1 2029
1 2030
1 2031
1 2032
1 2033
1 2034
1 2035
1 2036
1 2037
1 2038
1 2039
1 2040
1 2041
1 2042
1 2043
1 2044
1 2045
1 2046
1 2047
1 2048
1 2049
1 2050
1 2051
1 2052
1 2053
1 2054
1 2055
1 2056
1 2057
1 2058
1 2059
1 2060
1 2061
1 2062
1 2063
1 2064
1 2065
1 2066
1 2067
1 2068
1 2069
1 2070
1 2071
1 2072
1 2073
1 2074
1 2075
1 2076
1 2077
1 2078
1 2079
1 2080
1 2081
1 2082
1 2083
1 2084
1 2085
1 2086
1 2087
1 2088
1 2089
1 2090
1 2091
1 2092
1 2093
1 2094
1 2095
1 2096
1 2097
1 2098
1 2099
1 2100
1 2101
1 2102
1 2103
1 2104
1 2105
1 2106
1 2107
1 2108
1 2109
1 2110
1 2111
1 2112
1 2113
1 2114
1 2115
1 2116
1 2117
1 2118
1 2119
1 2120
1 2121
1 2122
1 2123
1 2124
1 2125
1 2126
1 2127
1 2128
1 2129
1 2130
1 2131
1 2132
1 2133
1 2134
1 2135
1 2136
1 2137
1 2138
1 2139
1 2140
1 2141
1 2142
1 2143
1 2144
1 2145
1 2146
1 2147
1 2148
1 2149
1 2150
1 2151
1 2152
1 2153
1 2154
1 2155
1 2156
1 2157
1 2158
1 2159
1 2160
1 2161
1 2162
1 2163
1 2164
1 2165
1 2166
1 2167
1 2168
1 2169
1 2170
1 2171
1 2172
1 2173
1 2174
1 2175
1 2176
1 2177
1 2178
1 2179
1 2180
1 2181
1 2182
1 2183
1 2184
1 2185
1 2186
1 2187
1 2188
1 2189
1 2190
1 2191
1 2192
1 2193
1 2194
1 2195
1 2196
1 2197
1 2198
1 2199
1 2200
1 2201
1 2202
1 2203
1 2204
1 2205
1 2206
1 2207
1 2208
1 2209
1 2210
1 2211
1 2212
1 2213
1 2214
1 2215
1 2216
1 2217
1 2218
1 2219
1 2220
1 2221
1 2222
1 2223
1 2224
1 2225
1 2226
1 2227
1 2228
1 2229
1 2230
1 2231
1 2232
1 2233
1 2234
1 2235
1 2236
1 2237
1 2238
1 2239
1 2240
1 2241
1 2242
1 2243
1 2244
1 2245
1 2246
1 2247
1 2248
1 2249
1 2250
1 2251
1 2252
1 2253
1 2254
1 2255
1 2256
1 2257
1 2258
1 2259
1 2260
1 2261
1 2262
1 2263
1 2264
1 2265
1 2266
1 2267
1 2268
1 2269
1 2270
1 2271
1 2272
1 2273
1 2274
1 2275
1 2276
1 2277
1 2278
1 2279
1 2280
1 2281
1 2282
1 2283
1 2284
1 2285
1 2286
1 2287
1 2288
1 2289
1 2290
1 2291
1 2292
1 2293
1 2294
1 2295
1 2296
1 2297
1 2298
1 2299
1 2300
1 2301
1 2302
1 2303
1 2304
1 2305
1 2306
1 2307
1 2308
1 2309
1 2310
1 2311
1 2312
1 2313
1 2314
1 2315
1 2316
1 2317
1 2318
1 2319
1 2320
1 2321
1 2322
1 2323
1 2324
1 2325
1 2326
1 2327
1 2328
1 2329
1 2330
1 2331
1 2332
1 2333
1 2334
1 2335
1 2336
1 2337
1 2338
1 2339
1 2340
1 2341
1 2342
1 2343
1 2344
1 2345
1 2346
1 2347
1 2348
1 2349
1 2350
1 2351
1 2352
1 2353
1 2354
1 2355
1 2356
1 2357
1 2358
1 2359
1 2360
1 2361
1 2362
1 2363
1 2364
1 2365
1 2366
1 2367
1 2368
1 2369
1 2370
1 2371
1 2372
1 2373
1 2374
1 2375
1 2376
1 2377
1 2378
1 2379
1 2380
1 2381
1 2382
1 2383
1 2384
1 2385
1 2386
1 2387
1 2388
1 2389
1 2390
1 2391
1 2392
1 2393
1 2394
1 2395
1 2396
1 2397
1 2398
1 2399
1 2400
1 2401
1 2402
1 2403
1 2404
1 2405
1 2406
1 2407
1 2408
1 2409
1 2410
1 2411
1 2412
1 2413
1 2414
1 2415
1 2416
1 2417
1 2418
1 2419
1 2420
1 2421
1 2422
1 2423
1 2424
1 2425
1 2426
1 2427
1 2428
1 2429
1 2430
1 2431
1 2432
1 2433
1 2434
1 2435
1 2436
1 2437
1 2438
1 2439
1 2440
1 2441
1 2442
1 2443
1 2444
1 2445
1 2446
1 2447
1 2448
1 2449
1 2450
1 2451
1 2452
1 2453
1 2454
1 2455
1 2456
1 2457
1 2458
1 2459
1 2460
1 2461
1 2462
1 2463
1 2464
1 2465
1 2466
1 2467
1 2468
1 2469
1 2470
1 2471
1 2472
1 2473
1 2474
1 2475
1 2476
1 2477
1 2478
1 2479
1 2480
1 2481
1 2482
1 2483
1 2484
1 2485
1 2486
1 2487
1 2488
1 2489
1 2490
1 2491
1 2492
1 2493
1 2494
1 2495
1 2496
1 2497
1 2498
1 2499
1 2500
1 2501
1 2502
1 2503
1 2504
1 2505
1 2506
1 2507
1 2508
1 2509
1 2510
1 2511
1 2512
1 2513
1 2514
1 2515
1 2516
1 2517
1 2518
1 2519
1 2520
1 2521
1 2522
1 2523
1 2524
1 2525
1 2526
1 2527
1 2528
1 2529
1 2530
1 2531
1 2532
1 2533
1 2534
1 2535
1 2536
1 2537
1 2538
1 2539
1 2540
1 2541
1 2542
1 2543
1 2544
1 2545
1 2546
1 2547
1 2548
1 2549
1 2550
1 2551
1 2552
1 2553
1 2554
1 2555
1 2556
1 2557
1 2558
1 2559
1 2560
1 2561
1 2562
1 2563
1 2564
1 2565
1 2566
1 2567
1 2568
1 2569
1 2570
1 2571
1 2572
1 2573
1 2574
1 2575
1 2576
1 2577
1 2578
1 2579
1 2580
1 2581
1 2582
1 2583
1 2584
1 2585
1 2586
1 2587
1 2588
1 2589
1 2590
1 2591
1 2592
1 2593
1 2594
1 2595
1 2596
1 2597
1 2598
1 2599
1 2600
1 2601
1 2602
1 2603
1 2604
1 2605
1 2606
1 2607
1 2608
1 2609
1 2610
1 2611
1 2612
1 2613
1 2614
1 2615
1 2616
1 2617
1 2618
1 2619
1 2620
1 2621
1 2622
1 2623
1 2624
1 2625
1 2626
1 2627
1 2628
1 2629
1 2630
1 2631
1 2632
1 2633
1 2634
1 2635
1 2636
1 2637
1 2638
1 2639
1 2640
1 2641
1 2642
1 2643
1 2644
1 2645
1 2646
1 2647
1 2648
1 2649
1 2650
1 2651
1 2652
1 2653
1 2654
1 2655
1 2656
1 2657
1 2658
1 2659
1 2660
1 2661
1 2662
1 2663
1 2664
1 2665
1 2666
1 2667
1 2668
1 2669
1 2670
1 2671
1 2672
1 2673
1 2674
1 2675
1 2676
1 2677
1 2678
1 2679
1 2680
1 2681
1 2682
1 2683
1 2684
1 2685
1 2686
1 2687
1 2688
1 2689
1 2690
1 2691
1 2692
1 2693
1 2694
1 2695
1 2696
1 2697
1 2698
1 2699
1 2700
1 2701
1 2702
1 2703
1 2704
1 2705
1 2706
1 2707
1 2708
1 2709
1 2710
1 2711
1 2712
1 2713
1 2714
1 2715
1 2716
1 2717
1 2718
1 2719
1 2720
1 2721
1 2722
1 2723
1 2724
1 2725
1 2726
1 2727
1 2728
1 2729
1 2730
1 2731
1 2732
1 2733
1 2734
1 2735
1 2736
1 2737
1 2738
1 2739
1 2740
1 2741
1 2742
1 2743
1 2744
1 2745
1 2746
1 2747
1 2748
1 2749
1 2750
1 2751
1 2752
1 2753
1 2754
1 2755
1 2756
1 2757
1 2758
1 2759
1 2760
1 2761
1 2762
1 2763
1 2764
1 2765
1 2766
1 2767
1 2768
1 2769
1 2770
1 2771
1 2772
1 2773
1 2774
1 2775
1 2776
1 2777
1 2778
1 2779
1 2780
1 2781
1 2782
1 2783
1 2784
1 2785
1 2786
1 2787
1 2788
1 2789
1 2790
1 2791
1 2792
1 2793
1 2794
1 2795
1 2796
1 2797
1 2798
1 2799
1 2800
1 2801
1 2802
1 2803
1 2804
1 2805
1 2806
1 2807
1 2808
1 2809
1 2810
1 2811
1 2812
1 2813
1 2814
1 2815
1 2816
1 2817
1 2818
1 2819
1 2820
1 2821
1 2822
1 2823
1 2824
1 2825
1 2826
1 2827
1 2828
1 2829
1 2830
1 2831
1 2832
1 2833
1 2834
1 2835
1 2836
1 2837
1 2838
1 2839
1 2840
1 2841
1 2842
1 2843
1 2844
1 2845
1 2846
1 2847
1 2848
1 2849
1 2850
1 2851
1 2852
1 2853
1 2854
1 2855
1 2856
1 2857
1 2858
1 2859
1 2860
1 2861
1 2862
1 2863
1 2864
1 2865
1 2866
1 2867
1 2868
1 2869
1 2870
1 2871
1 2872
1 2873
1 2874
1 2875
1 2876
1 2877
1 2878
1 2879
1 2880
1 2881
1 2882
1 2883
1 2884
1 2885
1 2886
1 2887
1 2888
1 2889
1 2890
1 2891
1 2892
1 2893
1 2894
1 2895
1 2896
1 2897
1 2898
1 2899
1 2900
1 2901
1 2902
1 2903
1 2904
1 2905
1 2906
1 2907
1 2908
1 2909
1 2910
1 2911
1 2912
1 2913
1 2914
1 2915
1 2916
1 2917
1 2918
1 2919
1 2920
1 2921
1 2922
1 2923
1 2924
1 2925
1 2926
1 2927
1 2928
1 2929
1 2930
1 2931
1 2932
1 2933
1 2934
1 2935
1 2936
1 2937
1 2938
1 2939
1 2940
1 2941
1 2942
1 2943
1 2944
1 2945
1 2946
1 2947
1 2948
1 2949
1 2950
1 2951
1 2952
1 2953
1 2954
1 2955
1 2956
1 2957
1 2958
1 2959
1 2960
1 2961
1 2962
1 2963
1 2964
1 2965
1 2966
1 2967
1 2968
1 2969
1 2970
1 2971
1 2972
1 2973
1 2974
1 2975
1 2976
1 2977
1 2978
1 2979
1 2980
1 2981
1 2982
1 2983
1 2984
1 2985
1 2986
1 2987
1 2988
1 2989
1 2990
1 2991
1 2992
1 2993
1 2994
1 2995
1 2996
1 2997
1 2998
1 2999
1 3000
1 3001
1 3002
1 3003
1 3004
1 3005
1 3006
1 3007
1 3008
1 3009
1 3010
1 3011
1 3012
1 3013
1 3014
1 3015
1 3016
1 3017
1 3018
1 3019
1 3020
1 3021
1 3022
1 3023
1 3024
1 3025
1 3026
1 3027
1 3028
1 3029
1 3030
1 3031
1 3032
1 3033
1 3034
1 3035
1 3036
1 3037
1 3038
1 3039
1 3040
1 3041
1 3042
1 3043
1 3044
1 3045
1 3046
1 3047
1 3048
1 3049
1 3050
1 3051
1 3052
1 3053
1 3054
1 3055
1 3056
1 3057
1 3058
1 3059
1 3060
1 3061
1 3062
1 3063
1 3064
1 3065
1 3066
1 3067
1 3068
1 3069
1 3070
1 3071
1 3072
1 3073
1 3074
1 3075
1 3076
1 3077
1 3078
1 3079
1 3080
1 3081
1 3082
1 3083
1 3084
1 3085
1 3086
1 3087
1 3088
1 3089
1 3090
1 3091
1 3092
1 3093
1 3094
1 3095
1 3096
1 3097
1 3098
1 3099
1 3100
1 3101
1 3102
1 3103
1 3104
1 3105
1 3106
1 3107
1 3108
1 3109
1 3110
1 3111
1 3112
1 3113
1 3114
1 3115
1 3116
1 3117
1 3118
1 3119
1 3120
1 3121
1 3122
1 3123
1 3124
1 3125
1 3126
1 3127
1 3128
1 3129
1 3130
1 3131
1 3132
1 3133
1 3134
1 3135
1 3136
1 3137
1 3138
1 3139
1 3140
1 3141
1 3142
1 3143
1 3144
1 3145
1 3146
1 3147
1 3148
1 3149
1 3150
1 3151
1 3152
1 3153
1 3154
1 3155
1 3156
1 3157
1 3158
1 3159
1 3160
1 3161
1 3162
1 3163
1 3164
1 3165
1 3166
1 3167
1 3168
1 3169
1 3170
1 3171
1 3172
1 3173
1 3174
1 3175
1 3176
1 3177
1 3178
1 3179
1 3180
1 3181
1 3182
1 3183
1 3184
1 3185
1 3186
1 3187
1 3188
1 3189
1 3190
1 3191
1 3192
1 3193
1 3194
1 3195
1 3196
1 3197
1 3198
1 3199
1 3200
1 3201
1 3202
1 3203
1 3204
1 3205
1 3206
1 3207
1 3208
1 3209
1 3210
1 3211
1 3212
1 3213
1 3214
1 3215
1 3216
1 3217
1 3218
1 3219
1 3220
1 3221
1 3222
1 3223
1 3224
1 3225
1 3226
1 3227
1 3228
1 3229
1 3230
1 3231
1 3232
1 3233
1 3234
1 3235
1 3236
1 3237
1 3238
1 3239
1 3240
1 3241
1 3242
1 3243
1 3244
1 3245
1 3246
1 3247
1 3248
1 3249
1 3250
1 3251
1 3252
1 3253
1 3254
1 3255
1 3256
1 3257
1 3258
1 3259
1 3260
1 3261
1 3262
1 3263
1 3264
1 3265
1 3266
1 3267
1 3268
1 3269
1 3270
1 3271
1 3272
1 3273
1 3274
1 3275
1 3276
1 3277
1 3278
1 3279
1 3280
1 3281
1 3282
1 3283
1 3284
1 3285
1 3286
1 3287
1 3288
1 3289
1 3290
1 3291
1 3292
1 3293
1 3294
1 3295
1 3296
1 3297
1 3298
1 3299
1 3300
1 3301
1 3302
1 3303
1 3304
1 3305
1 3306
1 3307
1 3308
1 3309
1 3310
1 3311
1 3312
1 3313
1 3314
1 3315
1 3316
1 3317
1 3318
1 3319
1 3320
1 3321
1 3322
1 3323
1 3324
1 3325
1 3326
1 3327
1 3328
1 3329
1 3330
1 3331
1 3332
1 3333
1 3334
1 3335
1 3336
1 3337
1 3338
1 3339
1 3340
1 3341
1 3342
1 3343
1 3344
1 3345
1 3346
1 3347
1 3348
1 3349
1 3350
1 3351
1 3352
1 3353
1 3354
1 3355
1 3356
1 3357
1 3358
1 3359
1 3360
1 3361
1 3362
1 3363
1 3364
1 3365
1 3366
1 3367
1 3368
1 3369
1 3370
1 3371
1 3372
1 3373
1 3374
1 3375
1 3376
1 3377
1 3378
1 3379
1 3380
1 3381
1 3382
1 3383
1 3384
1 3385
1 3386
1 3387
1 3388
1 3389
1 3390
1 3391
1 3392
1 3393
1 3394
1 3395
1 3396
1 3397
1 3398
1 3399
1 3400
1 3401
1 3402
1 3403
1 3404
1 3405
1 3406
1 3407
1 3408
1 3409
1 3410
1 3411
1 3412
1 3413
1 3414
1 3415
1 3416
1 3417
1 3418
1 3419
1 3420
1 3421
1 3422
1 3423
1 3424
1 3425
1 3426
1 3427
1 3428
1 3429
1 3430
1 3431
1 3432
1 3433
1 3434
1 3435
1 3436
1 3437
1 3438
1 3439
1 3440
1 3441
1 3442
1 3443
1 3444
1 3445
1 3446
1 3447
1 3448
1 3449
1 3450
1 3451
1 3452
1 3453
1 3454
1 3455
1 3456
1 3457
1 3458
1 3459
1 3460
1 3461
1 3462
1 3463
1 3464
1 3465
1 3466
1 3467
1 3468
1 3469
1 3470
1 3471
1 3472
1 3473
1 3474
1 3475
1 3476
1 3477
1 3478
1 3479
1 3480
1 3481
1 3482
1 3483
1 3484
1 3485
1 3486
1 3487
1 3488
1 3489
1 3490
1 3491
1 3492
1 3493
1 3494
1 3495
1 3496
1 3497
1 3498
1 3499
1 3500
1 3501
1 3502
1 3503
1 3504
1 3505
1 3506
1 3507
1 3508
1 3509
1 3510
1 3511
1 3512
1 3513
1 3514
1 3515
1 3516
1 3517
1 3518
1 3519
1 3520
1 3521
1 3522
1 3523
1 3524
1 3525
1 3526
1 3527
1 3528
1 3529
1 3530
1 3531
1 3532
1 3533
1 3534
1 3535
1 3536
1 3537
1 3538
1 3539
1 3540
1 3541
1 3542
1 3543
1 3544
1 3545
1 3546
1 3547
1 3548
1 3549
1 3550
1 3551
1 3552
1 3553
1 3554
1 3555
1 3556
1 3557
1 3558
1 3559
1 3560
1 3561
1 3562
1 3563
1 3564
1 3565
1 3566
1 3567
1 3568
1 3569
1 3570
1 3571
1 3572
1 3573
1 3574
1 3575
1 3576
1 3577
1 3578
1 3579
1 3580
1 3581
1 3582
1 3583
1 3584
1 3585
1 3586
1 3587
1 3588
1 3589
1 3590
1 3591
1 3592
1 3593
1 3594
1 3595
1 3596
1 3597
1 3598
1 3599
1 3600
1 3601
1 3602
1 3603
1 3604
1 3605
1 3606
1 3607
1 3608
1 3609
1 3610
1 3611
1 3612
1 3613
1 3614
1 3615
1 3616
1 3617
1 3618
1 3619
1 3620
1 3621
1 3622
1 3623
1 3624
1 3625
1 3626
1 3627
1 3628
1 3629
1 3630
1 3631
1 3632
1 3633
1 3634
1 3635
1 3636
1 3637
1 3638
1 3639
1 3640
1 3641
1 3642
1 3643
1 3644
1 3645
1 3646
1 3647
1 3648
1 3649
1 3650
1 3651
1 3652
1 3653
1 3654
1 3655
1 3656
1 3657
1 3658
1 3659
1 3660
1 3661
1 3662
1 3663
1 3664
1 3665
1 3666
1 3667
1 3668
1 3669
1 3670
1 3671
1 3672
1 3673
1 3674
1 3675
1 3676
1 3677
1 3678
1 3679
1 3680
1 3681
1 3682
1 3683
1 3684
1 3685
1 3686
1 3687
1 3688
1 3689
1 3690
1 3691
1 3692
1 3693
1 3694
1 3695
1 3696
1 3697
1 3698
1 3699
1 3700
1 3701
1 3702
1 3703
1 3704
1 3705
1 3706
1 3707
1 3708
1 3709
1 3710
1 3711
1 3712
1 3713
1 3714
1 3715
1 3716
1 3717
1 3718
1 3719
1 3720
1 3721
1 3722
1 3723
1 3724
1 3725
1 3726
1 3727
1 3728
1 3729
1 3730
1 3731
1 3732
1 3733
1 3734
1 3735
1 3736
1 3737
1 3738
1 3739
1 3740
1 3741
1 3742
1 3743
1 3744
1 3745
1 3746
1 3747
1 3748
1 3749
1 3750
1 3751
1 3752
1 3753
1 3754
1 3755
1 3756
1 3757
1 3758
1 3759
1 3760
1 3761
1 3762
1 3763
1 3764
1 3765
1 3766
1 3767
1 3768
1 3769
1 3770
1 3771
1 3772
1 3773
1 3774
1 3775
1 3776
1 3777
1 3778
1 3779
1 3780
1 3781
1 3782
1 3783
1 3784
1 3785
1 3786
1 3787
1 3788
1 3789
1 3790
1 3791
1 3792
1 3793
1 3794
1 3795
1 3796
1 3797
1 3798
1 3799
1 3800
1 3801
1 3802
1 3803
1 3804
1 3805
1 3806
1 3807
1 3808
1 3809
1 3810
1 3811
1 3812
1 3813
1 3814
1 3815
1 3816
1 3817
1 3818
1 3819
1 3820
1 3821
1 3822
1 3823
1 3824
1 3825
1 3826
1 3827
1 3828
1 3829
1 3830
1 3831
1 3832
1 3833
1 3834
1 3835
1 3836
1 3837
1 3838
1 3839
1 3840
1 3841
1 3842
1 3843
1 3844
1 3845
1 3846
1 3847
1 3848
1 3849
1 3850
1 3851
1 3852
1 3853
1 3854
1 3855
1 3856
1 3857
1 3858
1 3859
1 3860
1 3861
1 3862
1 3863
1 3864
1 3865
1 3866
1 3867
1 3868
1 3869
1 3870
1 3871
1 3872
1 3873
1 3874
1 3875
1 3876
1 3877
1 3878
1 3879
1 3880
1 3881
1 3882
1 3883
1 3884
1 3885
1 3886
1 3887
1 3888
1 3889
1 3890
1 3891
1 3892
1 3893
1 3894
1 3895
1 3896
1 3897
1 3898
1 3899
1 3900
1 3901
1 3902
1 3903
1 3904
1 3905
1 3906
1 3907
1 3908
1 3909
1 3910
1 3911
1 3912
1 3913
1 3914
1 3915
1 3916
1 3917
1 3918
1 3919
1 3920
1 3921
1 3922
1 3923
1 3924
1 3925
1 3926
1 3927
1 3928
1 3929
1 3930
1 3931
1 3932
1 3933
1 3934
1 3935
1 3936
1 3937
1 3938
1 3939
1 3940
1 3941
1 3942
1 3943
1 3944
1 3945
1 3946
1 3947
1 3948
1 3949
1 3950
1 3951
1 3952
1 3953
1 3954
1 3955
1 3956
1 3957
1 3958
1 3959
1 3960
1 3961
1 3962
1 3963
1 3964
1 3965
1 3966
1 3967
1 3968
1 3969
1 3970
1 3971
1 3972
1 3973
1 3974
1 3975
1 3976
1 3977
1 3978
1 3979
1 3980
1 3981
1 3982
1 3983
1 3984
1 3985
1 3986
1 3987
1 3988
1 3989
1 3990
1 3991
1 3992
1 3993
1 3994
1 3995
1 3996
1 3997
1 3998
1 3999
1 4000
1 4001
1 4002
1 4003
1 4004
1 4005
1 4006
1 4007
1 4008
1 4009
1 4010
1 4011
1 4012
1 4013
1 4014
1 4015
1 4016
1 4017
1 4018
1 4019
1 4020
1 4021
1 4022
1 4023
1 4024
1 4025
1 4026
1 4027
1 4028
1 4029
1 4030
1 4031
1 4032
1 4033
1 4034
1 4035
1 4036
1 4037
1 4038
1 4039
1 4040
1 4041
1 4042
1 4043
1 4044
1 4045
1 4046
1 4047
1 4048
1 4049
1 4050
1 4051
1 4052
1 4053
1 4054
1 4055
1 4056
1 4057
1 4058
1 4059
1 4060
1 4061
1 4062
1 4063
1 4064
1 4065
1 4066
1 4067
1 4068
1 4069
1 4070
1 4071
1 4072
1 4073
1 4074
1 4075
1 4076
1 4077
1 4078
1 4079
1 4080
1 4081
1 4082
1 4083
1 4084
1 4085
1 4086
1 4087
1 4088
1 4089
1 4090
1 4091
1 4092
1 4093
1 4094
1 4095
1 4096
1 4097
1 4098
1 4099
1 4100
1 4101
1 4102
1 4103
1 4104
1 4105
1 4106
1 4107
1 4108
1 4109
1 4110
1 4111
1 4112
1 4113
1 4114
1 4115
1 4116
1 4117
1 4118
1 4119
1 4120
1 4121
1 4122
1 4123
1 4124
1 4125
1 4126
1 4127
1 4128
1 4129
1 4130
1 4131
1 4132
1 4133
1 4134
1 4135
1 4136
1 4137
1 4138
1 4139
1 4140
1 4141
1 4142
1 4143
1 4144
1 4145
1 4146
1 4147
1 4148
1 4149
1 4150
1 4151
1 4152
1 4153
1 4154
1 4155
1 4156
1 4157
1 4158
1 4159
1 4160
1 4161
1 4162
1 4163
1 4164
1 4165
1 4166
1 4167
1 4168
1 4169
1 4170
1 4171
1 4172
1 4173
1 4174
1 4175
1 4176
1 4177
1 4178
1 4179
1 4180
1 4181
1 4182
1 4183
1 4184
1 4185
1 4186
1 4187
1 4188
1 4189
1 4190
1 4191
1 4192
1 4193
1 4194
1 4195
1 4196
1 4197
1 4198
1 4199
1 4200
1 4201
1 4202
1 4203
1 4204
1 4205
1 4206
1 4207
1 4208
1 4209
1 4210
1 4211
1 4212
1 4213
1 4214
1 4215
1 4216
1 4217
1 4218
1 4219
1 4220
1 4221
1 4222
1 4223
1 4224
1 4225
1 4226
1 4227
1 4228
1 4229
1 4230
1 4231
1 4232
1 4233
1 4234
1 4235
1 4236
1 4237
1 4238
1 4239
1 4240
1 4241
1 4242
1 4243
1 4244
1 4245
1 4246
1 4247
1 4248
1 4249
1 4250
1 4251
1 4252
1 4253
1 4254
1 4255
1 4256
1 4257
1 4258
1 4259
1 4260
1 4261
1 4262
1 4263
1 4264
1 4265
1 4266
1 4267
1 4268
1 4269
1 4270
1 4271
1 4272
1 4273
1 4274
1 4275
1 4276
1 4277
1 4278
1 4279
1 4280
1 4281
1 4282
1 4283
1 4284
1 4285
1 4286
1 4287
1 4288
1 4289
1 4290
1 4291
1 4292
1 4293
1 4294
1 4295
1 4296
1 4297
1 4298
1 4299
1 4300
1 4301
1 4302
1 4303
1 4304
1 4305
1 4306
1 4307
1 4308
1 4309
1 4310
1 4311
1 4312
1 4313
1 4314
1 4315
1 4316
1 4317
1 4318
1 4319
1 4320
1 4321
1 4322
1 4323
1 4324
1 4325
1 4326
1 4327
1 4328
1 4329
1 4330
1 4331
1 4332
1 4333
1 4334
1 4335
1 4336
1 4337
1 4338
1 4339
1 4340
1 4341
1 4342
1 4343
1 4344
1 4345
1 4346
1 4347
1 4348
1 4349
1 4350
1 4351
1 4352
1 4353
1 4354
1 4355
1 4356
1 4357
1 4358
1 4359
1 4360
1 4361
1 4362
1 4363
1 4364
1 4365
1 4366
1 4367
1 4368
1 4369
1 4370
1 4371
1 4372
1 4373
1 4374
1 4375
1 4376
1 4377
1 4378
1 4379
1 4380
1 4381
1 4382
1 4383
1 4384
1 4385
1 4386
1 4387
1 4388
1 4389
1 4390
1 4391
1 4392
1 4393
1 4394
1 4395
1 4396
1 4397
1 4398
1 4399
1 4400
1 4401
1 4402
1 4403
1 4404
1 4405
1 4406
1 4407
1 4408
1 4409
1 4410
1 4411
1 4412
1 4413
1 4414
1 4415
1 4416
1 4417
1 4418
1 4419
1 4420
1 4421
1 4422
1 4423
1 4424
1 4425
1 4426
1 4427
1 4428
1 4429
1 4430
1 4431
1 4432
1 4433
1 4434
1 4435
1 4436
1 4437
1 4438
1 4439
1 4440
1 4441
1 4442
1 4443
1 4444
1 4445
1 4446
1 4447
1 4448
1 4449
1 4450
1 4451
1 4452
1 4453
1 4454
1 4455
1 4456
1 4457
1 4458
1 4459
1 4460
1 4461
1 4462
1 4463
1 4464
1 4465
1 4466
1 4467
1 4468
1 4469
1 4470
1 4471
1 4472
1 4473
1 4474
1 4475
1 4476
1 4477
1 4478
1 4479
1 4480
1 4481
1 4482
1 4483
1 4484
1 4485
1 4486
1 4487
1 4488
1 4489
1 4490
1 4491
1 4492
1 4493
1 4494
1 4495
1 4496
1 4497
1 4498
1 4499
1 4500
1 4501
1 4502
1 4503
1 4504
1 4505
1 4506
1 4507
1 4508
1 4509
1 4510
1 4511
1 4512
1 4513
1 4514
1 4515
1 4516
1 4517
1 4518
1 4519
1 4520
1 4521
1 4522
1 4523
1 4524
1 4525
1 4526
1 4527
1 4528
1 4529
1 4530
1 4531
1 4532
1 4533
1 4534
1 4535
1 4536
1 4537
1 4538
1 4539
1 4540
1 4541
1 4542
1 4543
1 4544
1 4545
1 4546
1 4547
1 4548
1 4549
1 4550
1 4551
1 4552
1 4553
1 4554
1 4555
1 4556
1 4557
1 4558
1 4559
1 4560
1 4561
1 4562
1 4563
1 4564
1 4565
1 4566
1 4567
1 4568
1 4569
1 4570
1 4571
1 4572
1 4573
1 4574
1 4575
1 4576
1 4577
1 4578
1 4579
1 4580
1 4581
1 4582
1 4583
1 4584
1 4585
1 4586
1 4587
1 4588
1 4589
1 4590
1 4591
1 4592
1 4593
1 4594
1 4595
1 4596
1 4597
1 4598
1 4599
1 4600
1 4601
1 4602
1 4603
1 4604
1 4605
1 4606
1 4607
1 4608
1 4609
1 4610
1 4611
1 4612
1 4613
1 4614
1 4615
1 4616
1 4617
1 4618
1 4619
1 4620
1 4621
1 4622
1 4623
1 4624
1 4625
1 4626
1 4627
1 4628
1 4629
1 4630
1 4631
1 4632
1 4633
1 4634
1 4635
1 4636
1 4637
1 4638
1 4639
1 4640
1 4641
1 4642
1 4643
1 4644
1 4645
1 4646
1 4647
1 4648
1 4649
1 4650
1 4651
1 4652
1 4653
1 4654
1 4655
1 4656
1 4657
1 4658
1 4659
1 4660
1 4661
1 4662
1 4663
1 4664
1 4665
1 4666
1 4667
1 4668
1 4669
1 4670
1 4671
1 4672
1 4673
1 4674
1 4675
1 4676
1 4677
1 4678
1 4679
1 4680
1 4681
1 4682
1 4683
1 4684
1 4685
1 4686
1 4687
1 4688
1 4689
1 4690
1 4691
1 4692
1 4693
1 4694
1 4695
1 4696
1 4697
1 4698
1 4699
1 4700
1 4701
1 4702
1 4703
1 4704
1 4705
1 4706
1 4707
1 4708
1 4709
1 4710
1 4711
1 4712
1 4713
1 4714
1 4715
1 4716
1 4717
1 4718
1 4719
1 4720
1 4721
1 4722
1 4723
1 4724
1 4725
1 4726
1 4727
1 4728
1 4729
1 4730
1 4731
1 4732
1 4733
1 4734
1 4735
1 4736
1 4737
1 4738
1 4739
1 4740
1 4741
1 4742
1 4743
1 4744
1 4745
1 4746
1 4747
1 4748
1 4749
1 4750
1 4751
1 4752
1 4753
1 4754
1 4755
1 4756
1 4757
1 4758
1 4759
1 4760
1 4761
1 4762
1 4763
1 4764
1 4765
1 4766
1 4767
1 4768
1 4769
1 4770
1 4771
1 4772
1 4773
1 4774
1 4775
1 4776
1 4777
1 4778
1 4779
1 4780
1 4781
1 4782
1 4783
1 4784
1 4785
1 4786
1 4787
1 4788
1 4789
1 4790
1 4791
1 4792
1 4793
1 4794
1 4795
1 4796
1 4797
1 4798
1 4799
1 4800
1 4801
1 4802
1 4803
1 4804
1 4805
1 4806
1 4807
1 4808
1 4809
1 4810
1 4811
1 4812
1 4813
1 4814
1 4815
1 4816
1 4817
1 4818
1 4819
1 4820
1 4821
1 4822
1 4823
1 4824
1 4825
1 4826
1 4827
1 4828
1 4829
1 4830
1 4831
1 4832
1 4833
1 4834
1 4835
1 4836
1 4837
1 4838
1 4839
1 4840
1 4841
1 4842
1 4843
1 4844
1 4845
1 4846
1 4847
1 4848
1 4849
1 4850
1 4851
1 4852
1 4853
1 4854
1 4855
1 4856
1 4857
1 4858
1 4859
1 4860
1 4861
1 4862
1 4863
1 4864
1 4865
1 4866
1 4867
1 4868
1 4869
1 4870
1 4871
1 4872
1 4873
1 4874
1 4875
1 4876
1 4877
1 4878
1 4879
1 4880
1 4881
1 4882
1 4883
1 4884
1 4885
1 4886
1 4887
1 4888
1 4889
1 4890
1 4891
1 4892
1 4893
1 4894
1 4895
1 4896
1 4897
1 4898
1 4899
1 4900
1 4901
1 4902
1 4903
1 4904
1 4905
1 4906
1 4907
1 4908
1 4909
1 4910
1 4911
1 4912
1 4913
1 4914
1 4915
1 4916
1 4917
1 4918
1 4919
1 4920
1 4921
1 4922
1 4923
1 4924
1 4925
1 4926
1 4927
1 4928
1 4929
1 4930
1 4931
1 4932
1 4933
1 4934
1 4935
1 4936
1 4937
1 4938
1 4939
1 4940
1 4941
1 4942
1 4943
1 4944
1 4945
1 4946
1 4947
1 4948
1 4949
1 4950
1 4951
1 4952
1 4953
1 4954
1 4955
1 4956
1 4957
1 4958
1 4959
1 4960
1 4961
1 4962
1 4963
1 4964
1 4965
1 4966
1 4967
1 4968
1 4969
1 4970
1 4971
1 4972
1 4973
1 4974
1 4975
1 4976
1 4977
1 4978
1 4979
1 4980
1 4981
1 4982
1 4983
1 4984
1 4985
1 4986
1 4987
1 4988
1 4989
1 4990
1 4991
1 4992
1 4993
1 4994
1 4995
1 4996
1 4997
1 4998
1 4999
CELL_TYPES 5000
1 
1 
1 
1 
1 
1 
1 
1 
1 
1 
1 
1 
1 
1 
1 
1 
1 
1 
1 
1 
1 
1 
1 
1 
1 
1 
1 
1 
1 
1 
1 
1 
1 
1 
1 
1 
1 
1 
1 
1 
1 
1 
1 
1 
1 
1 
1 
1 
1 
1 
1 
1 
1 
1 
1 
1 
1 
1 
1 
1 
1 
1 
1 
1 
1 
1 
1 
1 
1 
1 
1 
1 
1 
1 
1 
1 
1 
1 
1 
1 
1 
1 
1 
1 
1 
1 
1 
1 
1 
1 
1 
1 
1 
1 
1 
1 
1 
1 
1 
1 
1 
1 
1 
1 
1 
1 
1 
1 
1 
1 
1 
1 
1 
1 
1 
1 
1 
1 
1 
1 
1 
1 
1 
1 
1 
1 
1 
1 
1 
1 
1 
1 
1 
1 
1 
1 
1 
1 
1 
1 
1 
1 
1 
1 
1 
1 
1 
1 
1 
1 
1 
1 
1 
1 
1 
1 
1 
1 
1 
1 
1 
1 
1 
1 
1 
1 
1 
1 
1 
1 
1 
1 
1 
1 
1 
1 
1 
1 
1 
1 
1 
1 
1 
1 
1 
1 
1 
1 
1 
1 
1 
1 
1 
1 
1 
1 
1 
1 
1 
1 
1 
1 
1 
1 
1 
1 
1 
1 
1 
1 
1 
1 
1 
1 
1 
1 
1 
1 
1 
1 
1 
1 
1 
1 
1 
1 
1 
1 
1 
1 
1 
1 
1 
1 
1 
1 
1 
1 
1 
1 
1 
1 
1 
1 
1 
1 
1 
1 
1 
1 
1 
1 
1 
1 
1 
1 
1 
1 
1 
1 
1 
1 
1 
1 
1 
1 
1 
1 
1 
1 
1 
1 
1 
1 
1 
1 
1 
1 
1 
1 
1 
1 
1 
1 
1 
1 
1 
1 
1 
1 
1 
1 
1 
1 
1 
1 
1 
1 
1 
1 
1 
1 
1 
1 
1 
1 
1 
1 
1 
1 
1 
1 
1 
1 
1 
1 
1 
1 
1 
1 
1 
1 
1 
1 
1 
1 
1 
1 
1 
1 
1 
1 
1 
1 
1 
1 
1 
1 
1 
1 
1 
1 
1 
1 
1 
1 
1 
1 
1 
1 
1 
1 
1 
1 
1 
1 
1 
1 
1 
1 
1 
1 
1 
1 
1 
1 
1 
1 
1 
1 
1 
1 
1 
1 
1 
1 
1 
1 
1 
1 
1 
1 
1 
1 
1 
1 
1 
1 
1 
1 
1 
1 
1 
1 
1 
1 
1 
1 
1 
1 
1 
1 
1 
1 
1 
1 
1 
1 
1 
1 
1 
1 
1 
1 
1 
1 
1 
1 
1 
1 
1 
1 
1 
1 
1 
1 
1 
1 
1 
1 
1 
1 
1 
1 
1 
1 
1 
1 
1 
1 
1 
1 
1 
1 
1 
1 
1 
1 
1 
1 
1 
1 
1 
1 
1 
1 
1 
1 
1 
1 
1 
1 
1 
1 
1 
1 
1 
1 
1 
1 
1 
1 
1 
1 
1 
1 
1 
1 
1 
1 
1 
1 
1 
1 
1 
1 
1 
1 
1 
1 
1 
1 
1 
1 
1 
1 
1 
1 
1 
1 
1 
1 
1 
1 
1 
1 
1 
1 
1 
1 
1 
1 
1 
1 
1 
1 
1 
1 
1 
1 
1 
1 
1 
1 
1 
1 
1 
1 
1 
1 
1 
1 
1 
1 
1 
1 
1 
1 
1 
1 
1 
1 
1 
1 
1 
1 
1 
1 
1 
1 
1 
1 
1 
1 
1 
1 
1 
1 
1 
1 
1 
1 
1 
1 
1 
1 
1 
1 
1 
1 
1 
1 
1 
1 
1 
1 
1 
1 
1 
1 
1 
1 
1 
1 
1 
1 
1 
1 
1 
1 
1 
1 
1 
1 
1 
1 
1 
1 
1 
1 
1 
1 
1 
1 
1 
1 
1 
1 
1 
1 
1 
1 
1 
1 
1 
1 
1 
1 
1 
1 
1 
1 
1 
1 
1 
1 
1 
1 
1 
1 
1 
1 
1 
1 
1 
1 
1 
1 
1 
1 
1 
1 
1 
1 
1 
1 
1 
1 
1 
1 
1 
1 
1 
1 
1 
1 
1 
1 
1 
1 
1 
1 
1 
1 
1 
1 
1 
1 
1 
1 
1 
1 
1 
1 
1 
1 
1 
1 
1 
1 
1 
1 
1 
1 
1 
1 
1 
1 
1 
1 
1 
1 
1 
1 
1 
1 
1 
1 
1 
1 
1 
1 
1 
1 
1 
1 
1 
1 
1 
1 
1 
1 
1 
1 
1 
1 
1 
1 
1 
1 
1 
1 
1 
1 
1 
1 
1 
1 
1 
1 
1 
1 
1 
1 
1 
1 
1 
1 
1 
1 
1 
1 
1 
1 
1 
1 
1 
1 
1 
1 
1 
1 
1 
1 
1 
1 
1 
1 
1 
1 
1 
1 
1 
1 
1 
1 
1 
1 
1 
1 
1 
1 
1 
1 
1 
1 
1 
1 
1 
1 
1 
1 
1 
1 
1 
1 
1 
1 
1 
1 
1 
1 
1 
1 
1 
1 
1 
1 
1 
1 
1 
1 
1 
1 
1 
1 
1 
1 
1 
1 
1 
1 
1 
1 
1 
1 
1 
1 
1 
1 
1 
1 
1 
1 
1 
1 
1 
1 
1 
1 
1 
1 
1 
1 
1 
1 
1 
1 
1 
1 
1 
1 
1 
1 
1 
1 
1 
1 
1 
1 
1 
1 
1 
1 
1 
1 
1 
1 
1 
1 
1 
1 
1 
1 
1 
1 
1 
1 
1 
1 
1 
1 
1 
1 
1 
1 
1 
1 
1 
1 
1 
1 
1 
1 
1 
1 
1 
1 
1 
1 
1 
1 
1 
1 
1 
1 
1 
1 
1 
1 
1 
1 
1 
1 
1 
1 
1 
1 
1 
1 
1 
1 
1 
1 
1 
1 
1 
1 
1 
1 
1 
1 
1 
1 
1 
1 
1 
1 
1 
1 
1 
1 
1 
1 
1 
1 
1 
1 
1 
1 
1 
1 
1 
1 
1 
1 
1 
1 
1 
1 
1 
1 
1 
1 
1 
1 
1 
1 
1 
1 
1 
1 
1 
1 
1 
1 
1 
1 
1 
1 
1 
1 
1 
1 
1 
1 
1 
1 
1 
1 
1 
1 
1 
1 
1 
1 
1 
1 
1 
1 
1 
1 
1 
1 
1 
1 
1 
1 
1 
1 
1 
1 
1 
1 
1 
1 
1 
1 
1 
1 
1 
1 
1 
1 
1 
1 
1 
1 
1 
1 
1 
1 
1 
1 
1 
1 
1 
1 
1 
1 
1 
1 
1 
1 
1 
1 
1 
1 
1 
1 
1 
1 
1 
1 
1 
1 
1 
1 
1 
1 
1 
1 
1 
1 
1 
1 
1 
1 
1 
1 
1 
1 
1 
1 
1 
1 
1 
1 
1 
1 
1 
1 
1 
1 
1 
1 
1 
1 
1 
1 
1 
1 
1 
1 
1 
1 
1 
1 
1 
1 
1 
1 
1 
1 
1 
1 
1 
1 
1 
1 
1 
1 
1 
1 
1 
1 
1 
1 
1 
1 
1 
1 
1 
1 
1 
1 
1 
1 
1 
1 
1 
1 
1 
1 
1 
1 
1 
1 
1 
1 
1 
1 
1 
1 
1 
1 
1 
1 
1 
1 
1 
1 
1 
1 
1 
1 
1 
1 
1 
1 
1 
1 
1 
1 
1 
1 
1 
1 
1 
1 
1 
1 
1 
1 
1 
1 
1 
1 
1 
1 
1 
1 
1 
1 
1 
1 
1 
1 
1 
1 
1 
1 
1 
1 
1 
1 
1 
1 
1 
1 
1 
1 
1 
1 
1 
1 
1 
1 
1 
1 
1 
1 
1 
1 
1 
1 
1 
1 
1 
1 
1 
1 
1 
1 
1 
1 
1 
1 
1 
1 
1 
1 
1 
1 
1 
1 
1 
1 
1 
1 
1 
1 
1 
1 
1 
1 
1 
1 
1 
1 
1 
1 
1 
1 
1 
1 
1 
1 
1 
1 
1 
1 
1 
1 
1 
1 
1 
1 
1 
1 
1 
1 
1 
1 
1 
1 
1 
1 
1 
1 
1 
1 
1 
1 
1 
1 
1 
1 
1 
1 
1 
1 
1 
1 
1 
1 
1 
1 
1 
1 
1 
1 
1 
1 
1 
1 
1 
1 
1 
1 
1 
1 
1 
1 
1 
1 
1 
1 
1 
1 
1 
1 
1 
1 
1 
1 
1 
1 
1 
1 
1 
1 
1 
1 
1 
1 
1 
1 
1 
1 
1 
1 
1 
1 
1 
1 
1 
1 
1 
1 
1 
1 
1 
1 
1 
1 
1 
1 
1 
1 
1 
1 
1 
1 
1 
1 
1 
1 
1 
1 
1 
1 
1 
1 
1 
1 
1 
1 
1 
1 
1 
1 
1 
1 
1 
1 
1 
1 
1 
1 
1 
1 
1 
1 
1 
1 
1 
1 
1 
1 
1 
1 
1 
1 
1 
1 
1 
1 
1 
1 
1 
1 
1 
1 
1 
1 
1 
1 
1 
1 
1 
1 
1 
1 
1 
1 
1 
1 
1 
1 
1 
1 
1 
1 
1 
1 
1 
1 
1 
1 
1 
1 
1 
1 
1 
1 
1 
1 
1 
1 
1 
1 
1 
1 
1 
1 
1 
1 
1 
1 
1 
1 
1 
1 
1 
1 
1 
1 
1 
1 
1 
1 
1 
1 
1 
1 
1 
1 
1 
1 
1 
1 
1 
1 
1 
1 
1 
1 
1 
1 
1 
1 
1 
1 
1 
1 
1 
1 
1 
1 
1 
1 
1 
1 
1 
1 
1 
1 
1 
1 
1 
1 
1 
1 
1 
1 
1 
1 
1 
1 
1 
1 
1 
1 
1 
1 
1 
1 
1 
1 
1 
1 
1 
1 
1 
1 
1 
1 
1 
1 
1 
1 
1 
1 
1 
1 
1 
1 
1 
1 
1 
1 
1 
1 
1 
1 
1 
1 
1 
1 
1 
1 
1 
1 
1 
1 
1 
1 
1 
1 
1 
1 
1 
1 
1 
1 
1 
1 
1 
1 
1 
1 
1 
1 
1 
1 
1 
1 
1 
1 
1 
1 
1 
1 
1 
1 
1 
1 
1 
1 
1 
1 
1 
1 
1 
1 
1 
1 
1 
1 
1 
1 
1 
1 
1 
1 
1 
1 
1 
1 
1 
1 
1 
1 
1 
1 
1 
1 
1 
1 
1 
1 
1 
1 
1 
1 
1 
1 
1 
1 
1 
1 
1 
1 
1 
1 
1 
1 
1 
1 
1 
1 
1 
1 
1 
1 
1 
1 
1 
1 
1 
1 
1 
1 
1 
1 
1 
1 
1 
1 
1 
1 
1 
1 
1 
1 
1 
1 
1 
1 
1 
1 
1 
1 
1 
1 
1 
1 
1 
1 
1 
1 
1 
1 
1 
1 
1 
1 
1 
1 
1 
1 
1 
1 
1 
1 
1 
1 
1 
1 
1 
1 
1 
1 
1 
1 
1 
1 
1 
1 
1 
1 
1 
1 
1 
1 
1 
1 
1 
1 
1 
1 
1 
1 
1 
1 
1 
1 
1 
1 
1 
1 
1 
1 
1 
1 
1 
1 
1 
1 
1 
1 
1 
1 
1 
1 
1 
1 
1 
1 
1 
1 
1 
1 
1 
1 
1 
1 
1 
1 
1 
1 
1 
1 
1 
1 
1 
1 
1 
1 
1 
1 
1 
1 
1 
1 
1 
1 
1 
1 
1 
1 
1 
1 
1 
1 
1 
1 
1 
1 
1 
1 
1 
1 
1 
1 
1 
1 
1 
1 
1 
1 
1 
1 
1 
1 
1 
1 
1 
1 
1 
1 
1 
1 
1 
1 
1 
1 
1 
1 
1 
1 
1 
1 
1 
1 
1 
1 
1 
1 
1 
1 
1 
1 
1 
1 
1 
1 
1 
1 
1 
1 
1 
1 
1 
1 
1 
1 
1 
1 
1 
1 
1 
1 
1 
1 
1 
1 
1 
1 
1 
1 
1 
1 
1 
1 
1 
1 
1 
1 
1 
1 
1 
1 
1 
1 
1 
1 
1 
1 
1 
1 
1 
1 
1 
1 
1 
1 
1 
1 
1 
1 
1 
1 
1 
1 
1 
1 
1 
1 
1 
1 
1 
1 
1 
1 
1 
1 
1 
1 
1 
1 
1 
1 
1 
1 
1 
1 
1 
1 
1 
1 
1 
1 
1 
1 
1 
1 
1 
1 
1 
1 
1 
1 
1 
1 
1 
1 
1 
1 
1 
1 
1 
1 
1 
1 
1 
1 
1 
1 
1 
1 
1 
1 
1 
1 
1 
1 
1 
1 
1 
1 
1 
1 
1 
1 
1 
1 
1 
1 
1 
1 
1 
1 
1 
1 
1 
1 
1 
1 
1 
1 
1 
1 
1 
1 
1 
1 
1 
1 
1 
1 
1 
1 
1 
1 
1 
1 
1 
1 
1 
1 
1 
1 
1 
1 
1 
1 
1 
1 
1 
1 
1 
1 
1 
1 
1 
1 
1 
1 
1 
1 
1 
1 
1 
1 
1 
1 
1 
1 
1 
1 
1 
1 
1 
1 
1 
1 
1 
1 
1 
1 
1 
1 
1 
1 
1 
1 
1 
1 
1 
1 
1 
1 
1 
1 
1 
1 
1 
1 
1 
1 
1 
1 
1 
1 
1 
1 
1 
1 
1 
1 
1 
1 
1 
1 
1 
1 
1 
1 
1 
1 
1 
1 
1 
1 
1 
1 
1 
1 
1 
1 
1 
1 
1 
1 
1 
1 
1 
1 
1 
1 
1 
1 
1 
1 
1 
1 
1 
1 
1 
1 
1 
1 
1 
1 
1 
1 
1 
1 
1 
1 
1 
1 
1 
1 
1 
1 
1 
1 
1 
1 
1 
1 
1 
1 
1 
1 
1 
1 
1 
1 
1 
1 
1 
1 
1 
1 
1 
1 
1 
1 
1 
1 
1 
1 
1 
1 
1 
1 
1 
1 
1 
1 
1 
1 
1 
1 
1 
1 
1 
1 
1 
1 
1 
1 
1 
1 
1 
1 
1 
1 
1 
1 
1 
1 
1 
1 
1 
1 
1 
1 
1 
1 
1 
1 
1 
1 
1 
1 
1 
1 
1 
1 
1 
1 
1 
1 
1 
1 
1 
1 
1 
1 
1 
1 
1 
1 
1 
1 
1 
1 
1 
1 
1 
1 
1 
1 
1 
1 
1 
1 
1 
1 
1 
1 
1 
1 
1 
1 
1 
1 
1 
1 
1 
1 
1 
1 
1 
1 
1 
1 
1 
1 
1 
1 
1 
1 
1 
1 
1 
1 
1 
1 
1 
1 
1 
1 
1 
1 
1 
1 
1 
1 
1 
1 
1 
1 
1 
1 
1 
1 
1 
1 
1 
1 
1 
1 
1 
1 
1 
1 
1 
1 
1 
1 
1 
1 
1 
1 
1 
1 
1 
1 
1 
1 
1 
1 
1 
1 
1 
1 
1 
1 
1 
1 
1 
1 
1 
1 
1 
1 
1 
1 
1 
1 
1 
1 
1 
1 
1 
1 
1 
1 
1 
1 
1 
1 
1 
1 
1 
1 
1 
1 
1 
1 
1 
1 
1 
1 
1 
1 
1 
1 
1 
1 
1 
1 
1 
1 
1 
1 
1 
1 
1 
1 
1 
1 
1 
1 
1 
1 
1 
1 
1 
1 
1 
1 
1 
1 
1 
1 
1 
1 
1 
1 
1 
1 
1 
1 
1 
1 
1 
1 
1 
1 
1 
1 
1 
1 
1 
1 
1 
1 
1 
1 
1 
1 
1 
1 
1 
1 
1 
1 
1 
1 
1 
1 
1 
1 
1 
1 
1 
1 
1 
1 
1 
1 
1 
1 
1 
1 
1 
1 
1 
1 
1 
1 
1 
1 
1 
1 
1 
1 
1 
1 
1 
1 
1 
1 
1 
1 
1 
1 
1 
1 
1 
1 
1 
1 
1 
1 
1 
1 
1 
1 
1 
1 
1 
1 
1 
1 
1 
1 
1 
1 
1 
1 
1 
1 
1 
1 
1 
1 
1 
1 
1 
1 
1 
1 
1 
1 
1 
1 
1 
1 
1 
1 
1 
1 
1 
1 
1 
1 
1 
1 
1 
1 
1 
1 
1 
1 
1 
1 
1 
1 
1 
1 
1 
1 
1 
1 
1 
1 
1 
1 
1 
1 
1 
1 
1 
1 
1 
1 
1 
1 
1 
1 
1 
1 
1 
1 
1 
1 
1 
1 
1 
1 
1 
1 
1 
1 
1 
1 
1 
1 
1 
1 
1 
1 
1 
1 
1 
1 
1 
1 
1 
1 
1 
1 
1 
1 
1 
1 
1 
1 
1 
1 
1 
1 
1 
1 
1 
1 
1 
1 
1 
1 
1 
1 
1 
1 
1 
1 
1 
1 
1 
1 
1 
1 
1 
1 
1 
1 
1 
1 
1 
1 
1 
1 
1 
1 
1 
1 
1 
1 
1 
1 
1 
1 
1 
1 
1 
1 
1 
1 
1 
1 
1 
1 
1 
1 
1 
1 
1 
1 
1 
1 
1 
1 
1 
1 
1 
1 
1 
1 
1 
1 
1 
1 
1 
1 
1 
1 
1 
1 
1 
1 
1 
1 
1 
1 
1 
1 
1 
1 
1 
1 
1 
1 
1 
1 
1 
1 
1 
1 
1 
1 
1 
1 
1 
1 
1 
1 
1 
1 
1 
1 
1 
1 
1 
1 
1 
1 
1 
1 
1 
1 
1 
1 
1 
1 
1 
1 
1 
1 
1 
1 
1 
1 
1 
1 
1 
1 
1 
1 
1 
1 
1 
1 
1 
1 
1 
1 
1 
1 
1 
1 
1 
1 
1 
1 
1 
1 
1 
1 
1 
1 
1 
1 
1 
1 
1 
1 
1 
1 
1 
1 
1 
1 
1 
1 
1 
1 
1 
1 
1 
1 
1 
1 
1 
1 
1 
1 
1 
1 
1 
1 
1 
1 
1 
1 
1 
1 
1 
1 
1 
1 
1 
1 
1 
1 
1 
1 
1 
1 
1 
1 
1 
1 
1 
1 
1 
1 
1 
1 
1 
1 
1 
1 
1 
1 
1 
1 
1 
1 
1 
1 
1 
1 
1 
1 
1 
1 
1 
1 
1 
1 
1 
1 
1 
1 
1 
1 
1 
1 
1 
1 
1 
1 
1 
1 
1 
1 
1 
1 
1 
1 
1 
1 
1 
1 
1 
1 
1 
1 
1 
1 
1 
1 
1 
1 
1 
1 
1 
1 
1 
1 
1 
1 
1 
1 
1 
1 
1 
1 
1 
1 
1 
1 
1 
1 
1 
1 
1 
1 
1 
1 
1 
1 
1 
1 
1 
1 
1 
1 
1 
1 
1 
1 
1 
1 
1 
1 
1 
1 
1 
1 
1 
1 
1 
1 
1 
1 
1 
1 
1 
1 
1 
1 
1 
1 
1 
1 
1 
1 
1 
1 
1 
1 
1 
1 
1 
1 
1 
1 
1 
1 
1 
1 
1 
1 
1 
1 
1 
1 
1 
1 
1 
1 
1 
1 
1 
1 
1 
1 
1 
1 
1 
1 
1 
1 
1 
1 
1 
1 
1 
1 
1 
1 
1 
1 
1 
1 
1 
1 
1 
1 
1 
1 
1 
1 
1 
1 
1 
1 
1 
1 
1 
1 
1 
1 
1 
1 
1 
1 
1 
1 
1 
1 
1 
1 
1 
1 
1 
1 
1 
1 
1 
1 
1 
1 
1 
1 
1 
1 
1 
1 
1 
1 
1 
1 
1 
1 
1 
1 
1 
1 
1 
1 
1 
1 
1 
1 
1 
1 
1 
1 
1 
1 
1 
1 
1 
1 
1 
1 
1 
1 
1 
1 
1 
1 
1 
1 
1 
1 
1 
1 
1 
1 
1 
1 
1 
1 
1 
1 
1 
1 
1 
1 
1 
1 
1 
1 
1 
1 
1 
1 
1 
1 
1 
1 
1 
1 
1 
1 
1 
1 
1 
1 
1 
1 
1 
1 
1 
1 
1 
1 
1 
1 
1 
1 
1 
1 
1 
1 
1 
1 
1 
1 
1 
1 
1 
1 
1 
1 
1 
1 
1 
1 
1 
1 
1 
1 
1 
1 
1 
1 
1 
1 
1 
1 
1 
1 
1 
1 
1 
1 
1 
1 
1 
1 
1 
1 
1 
1 
1 
1 
1 
1 
1 
1 
1 
1 
1 
1 
1 
1 
1 
1 
1 
1 
1 
1 
1 
1 
1 
1 
1 
1 
1 
1 
1 
1 
1 
1 
1 
1 
1 
1 
1 
1 
1 
1 
1 
1 
1 
1 
1 
1 
1 
1 
1 
1 
1 
1 
1 
1 
1 
1 
1 
1 
1 
1 
1 
1 
1 
1 
1 
1 
1 
1 
1 
1 
1 
1 
1 
1 
1 
1 
1 
1 
1 
1 
1 
1 
1 
1 
1 
1 
1 
1 
1 
1 
1 
1 
1 
1 
1 
1 
1 
1 
1 
1 
1 
1 
1 
1 
1 
1 
1 
1 
1 
1 
1 
1 
1 
1 
1 
1 
1 
1 
1 
1 
1 
1 
1 
1 
1 
1 
1 
1 
1 
1 
1 
1 
1 
1 
1 
1 
1 
1 
1 
1 
1 
1 
1 
1 
1 
1 
1 
1 
1 
1 
1 
1 
1 
1 
1 
1 
1 
1 
1 
1 
1 
1 
1 
1 
1 
1 
1 
1 
1 
1 
1 
1 
1 
1 
1 
1 
1 
1 
1 
1 
1 
1 
1 
1 
1 
1 
1 
1 
1 
1 
1 
1 
1 
1 
1 
1 
1 
1 
1 
1 
1 
1 
1 
1 
1 
1 
1 
1 
1 
1 
1 
1 
1 
1 
1 
1 
1 
1 
1 
1 
1 
1 
1 
1 
1 
1 
1 
1 
1 
1 
1 
1 
1 
1 
1 
1 
1 
1 
1 
1 
1 
1 
1 
1 
1 
1 
1 
1 
1 
1 
1 
1 
1 
1 
1 
1 
1 
1 
1 
1 
1 
1 
1 
1 
1 
1 
1 
1 
1 
1 
1 
1 
1 
1 
1 
1 
1 
1 
1 
1 
1 
1 
1 
1 
1 
1 
1 
1 
1 
1 
1 
1 
1 
1 
1 
1 
1 
1 
1 
1 
1 
1 
1 
1 
1 
1 
1 
1 
1 
1 
1 
1 
1 
1 
1 
1 
1 
1 
1 
1 
1 
1 
1 
1 
1 
1 
1 
1 
1 
1 
1 
1 
1 
1 
1 
1 
1 
1 
1 
1 
1 
1 
1 
1 
1 
1 
1 
1 
1 
1 
1 
1 
1 
1 
1 
1 
1 
1 
1 
1 
1 
1 
1 
1 
1 
1 
1 
1 
1 
1 
1 
1 
1 
1 
1 
1 
1 
1 
1 
1 
1 
1 
1 
1 
1 
1 
1 
1 
1 
1 
1 
1 
1 
1 
1 
1 
1 
1 
1 
1 
1 
1 
1 
1 
1 
1 
1 
1 
1 
1 
1 
1 
1 
1 
1 
1 
1 
1 
1 
1 
1 
1 
1 
1 
1 
1 
1 
1 
1 
1 
1 
1 
1 
1 
1 
1 
1 
1 
1 
1 
1 
1 
1 
1 
1 
1 
1 
1 
1 
1 
1 
1 
1 
1 
1 
1 
1 
1 
1 
1 
1 
1 
1 
1 
1 
1 
1 
1 
1 
1 
1 
1 
1 
1 
1 
1 
1 
1 
1 
1 
1 
1 
1 
1 
1 
1 
1 
1 
1 
1 
1 
1 
1 
1 
1 
1 
1 
1 
1 
1 
1 
1 
1 
1 
1 
1 
1 
1 
1 
1 
1 
1 
1 
1 
1 
1 
1 
1 
1 
1 
1 
1 
1 
1 
1 
1 
1 
1 
1 
1 
1 
1 
1 
1 
1 
1 
1 
1 
1 
1 
1 
1 
1 
1 
1 
1 
1 
1 
1 
1 
1 
1 
1 
1 
1 
1 
1 
1 
1 
1 
1 
1 
1 
1 
1 
1 
1 
1 
1 
1 
1 
1 
1 
1 
1 
1 
1 
1 
1 
1 
1 
1 
1 
1 
1 
1 
1 
1 
1 
1 
1 
1 
1 
1 
1 
1 
1 
1 
1 
1 
1 
1 
1 
1 
1 
1 
1 
1 
1 
1 
1 
1 
1 
1 
1 
1 
1 
1 
1 
1 
1 
1 
1 
1 
1 
1 
1 
1 
1 
1 
1 
1 
1 
1 
1 
1 
1 
1 
1 
1 
1 
1 
1 
1 
1 
1 
1 
1 
1 
1 
1 
1 
1 
1 
1 
1 
1 
1 
1 
1 
1 
1 
1 
1 
1 
1 
1 
1 
1 
1 
1 
1 
1 
1 
1 
1 
1 
1 
1 
1 
1 
1 
1 
1 
1 
1 
1 
1 
1 
1 
1 
1 
1 
1 
1 
1 
1 
1 
1 
1 
1 
1 
1 
1 
1 
1 
1 
1 
1 
1 
1 
1 
1 
1 
1 
1 
1 
1 
1 
1 
1 
1 
1 
1 
1 
1 
1 
1 
1 
1 
1 
1 
1 
1 
1 
1 
1 
1 
1 
1 
1 
1 
1 
1 
1 
1 
1 
1 
1 
1 
1 
1 
1 
1 
1 
1 
1 
1 
1 
1 
1 
1 
1 
1 
1 
1 
1 
1 
1 
1 
1 
1 
1 
1 
1 
1 
1 
1 
1 
1 
1 
1 
1 
1 
1 
1 
1 
1 
1 
1 
1 
1 
1 
1 
1 
1 
1 
1 
1 
1 
1 
1 
1 
1 
1 
1 
1 
1 
1 
1 
1 
1 
1 
1 
1 
1 
1 
1 
1 
1 
1 
1 
1 
1 
1 
1 
1 
1 
1 
1 
1 
1 
1 
1 
1 
1 
1 
1 
1 
1 
1 
1 
1 
1 
1 
1 
1 
1 
1 
1 
1 
1 
1 
1 
1 
1 
1 
1 
1 
1 
1 
1 
1 
1 
1 
1 
1 
1 
1 
1 
1 
1 
1 
1 
1 
1 
1 
1 
1 
1 
1 
1 
1 
1 
1 
1 
1 
1 
1 
1 
1 
1 
1 
1 
1 
1 
1 
1 
1 
1 
1 
1 
1 
1 
1 
1 
1 
1 
1 
1 
1 
1 
1 
1 
1 
1 
1 
1 
1 
1 
1 
1 
1 
1 
1 
1 
1 
1 
1 
1 
1 
1 
1 
1 
1 
1 
1 
1 
1 
1 
1 
1 
1 
1 
1 
1 
1 
1 
1 
1 
1 
1 
1 
1 
1 
1 
1 
1 
1 
1 
1 
1 
1 
1 
1 
1 
1 
1 
1 
1 
1 
1 
1 
1 
1 
1 
1 
1 
1 
1 
1 
1 
1 
1 
1 
1 
1 
1 
1 
1 
1 
1 
1 
1 
1 
1 
1 
1 
1 
1 
1 
1 
1 
1 
1 
1 
1 
1 
1 
1 
1 
1 
1 
1 
1 
1 
1 
1 
1 
1 
1 
1 
1 
1 
1 
1 
1 
1 
1 
1 
1 
1 
1 
1 
1 
1 
1 
1 
1 
1 
1 
1 
1 
1 
1 
1 
1 
1 
1 
1 
1 
1 
1 
1 
1 
1 
1 
1 
1 
1 
1 
1 
1 
1 
1 
1 
1 
1 
1 
1 
1 
1 
1 
1 
1 
1 
1 
1 
1 
1 
1 
1 
1 
1 
1 
1 
1 
1 
1 
1 
1 
1 
1 
1 
1 
1 
1 
1 
1 
1 
1 
1 
1 
1 
1 
1 
1 
1 
1 
1 
1 
1 
1 
1 
1 
1 
1 
1 
1 
1 
1 
1 
1 
1 
1 
1 
1 
1 
1 
1 
1 
1 
1 
1 
1 
1 
1 
1 
1 
1 
1 
1 
1 
1 
1 
1 
1 
1 
1 
1 
1 
1 
1 
1 
1 
1 
1 
1 
1 
1 
1 
1 
1 
1 
1 
1 
1 
1 
1 
1 
1 
1 
1 
1 
1 
1 
1 
1 
1 
1 
1 
1 
1 
1 
1 
1 
1 
1 
1 
1 
1 
1 
1 
1 
1 
1 
1 
1 
1 
1 
1 
1 
1 
1 
1 
1 
1 
1 
1 
1 
1 
1 
1 
1 
1 
1 
1 
1 
1 
1 
1 
1 
1 
1 
1 
1 
1 
1 
1 
1 
1 
1 
1 
1 
1 
1 
1 
1 
1 
1 
1 
1 
1 
1 
1 
1 
1 
1 
1 
1 
1 
1 
1 
1 
1 
1 
1 
1 
1 
1 
1 
1 
1 
1 
1 
1 
1 
1 
1 
1 
1 
1 
1 
1 
1 
1 
1 
1 
1 
1 
1 
1 
1 
1 
1 
1 
1 
1 
1 
1 
1 
1 
1 
1 
1 
1 
1 
1 
1 
1 
1 
1 
1 
1 
1 
1 
1 
1 
1 
1 
1 
1 
1 
1 
1 
1 
1 
1 
1 
1 
1 
1 
1 
1 
1 
1 
1 
1 
1 
1 
1 
1 
1 
1 
1 
1 
1 
1 
1 
1 
1 
1 
1 
1 
1 
1 
1 
1 
1 
1 
1 
1 
1 
1 
1 
1 
1 
1 
1 
1 
1 
1 
1 
1 
1 
1 
1 
1 
1 
1 
1 
1 
1 
1 
1 
1 
1 
1 
1 
1 
1 
1 
1 
1 
1 
1 
1 
1 
1 
1 
1 
1 
1 
1 
1 
1 
1 
1 
1 
1 
1 
1 
1 
1 
1 
1 
1 
1 
1 
1 
1 
1 
1 
1 
1 
1 
1 
1 
1 
1 
1 
1 
1 
1 
1 
1 
1 
1 
1 
1 
1 
1 
1 
1 
1 
1 
1 
1 
1 
1 
1 
1 
1 
1 
1 
1 
1 
1 
1 
1 
1 
1 
1 
1 
1 
1 
1 
1 
1 
1 
1 
1 
1 
1 
1 
1 
1 
1 
1 
1 
1 
1 
1 
1 
1 
1 
1 
1 
1 
1 
1 
1 
1 
1 
1 
1 
1 
1 
1 
1 
1 
1 
1 
1 
1 
1 
1 
1 
1 
1 
1 
1 
1 
1 
1 
1 
1 
1 
1 
1 
1 
1 
1 
1 
1 
1 
1 
1 
1 
1 
1 
1 
1 
1 
1 
1 
1 
1 
1 
1 
1 
1 
1 
1 
1 
1 
1 
1 
1 
1 
1 
1 
1 
1 
1 
1 
1 
1 
1 
1 
1 
1 
1 
1 
1 
1 
1 
1 
1 
1 
1 
1 
1 
1 
1 
1 
1 
1 
1 
1 
1 
1 
1 
1 
1 
1 
1 
1 
1 
1 
1 
1 
1 
1 
1 
1 
1 
1 
1 
1 
1 
1 
1 
1 
1 
1 
1 
1 
1 
1 
1 
1 
1 
1 
1 
1 
1 
1 
1 
1 
1 
1 
1 
1 
1 
1 
1 
1 
1 
1 
1 
1 
1 
1 
1 
1 
1 
1 
1 
1 
1 
1 
1 
1 
1 
1 
1 
1 
1 
1 
1 
1 
1 
1 
1 
1 
1 
1 
1 
1 
1 
1 
1 
1 
1 
1 
1 
1 
1 
1 
1 
1 
1 
1 
1 
1 
1 
1 
1 
1 
1 
1 
1 
1 
1 
1 
1 
1 
1 
1 
1 
1 
1 
1 
1 
1 
1 
1 
1 
1 
1 
1 
1 
1 
1 
1 
1 
1 
1 
1 
1 
1 
1 
1 
1 
1 
1 
1 
1 
1 
1 
1 
1 
1 
1 
1 
1 
1 
1 
1 
1 
1 
1 
1 
1 
1 
1 
1 
1 
1 
1 
1 
1 
1 
1 
1 
1 
1 
1 
1 
1 
1 
1 
1 
1 
1 
1 
1 
1 
1 
1 
1 
1 
1 
1 
1 
1 
1 
1 
1 
1 
1 
1 
1 
1 
1 
1 
1 
1 
1 
1 
1 
1 
1 
1 
1 
1 
1 
1 
1 
1 
1 
1 
1 
1 
1 
1 
1 
1 
1 
1 
1 
1 
1 
1 
1 
1 
1 
1 
1 
1 
1 
1 
1 
1 
1 
1 
1 
1 
1 
1 
1 
1 
1 
1 
1 
1 
1 
1 
1 
1 
1 
1 
1 
1 
1 
1 
1 
1 
1 
1 
1 
1 
1 
1 
1 
1 
1 
1 
1 
1 
1 
1 
1 
1 
1 
1 
1 
1 
1 
1 
1 
1 
1 
1 
1 
1 
1 
1 
1 
1 
1 
1 
1 
1 
1 
POINT_DATA 5000
VECTORS Stress float
-1432.6 -1984.52 0.
-2531.67 -2837.14 0.
-26.7327 -18.7356 0.
-154.607 -182.349 0.
-3682.12 -7133.57 0.
-29.1445 -36.4698 0.
-2201.16 -1524.91 0.
-12.9058 -6.07937 0.
0.158903 0.0858982 0.
-3857.37 -6210.57 0.
-1128.2 -1960.8 0.
-141.085 -140.463 0.
-2113.29 -2829.25 0.
-1641.69 -2230.32 0.
-1276.93 -1687.56 0.
-1079.27 -1458.65 0.
-877.779 -1233.56 0.
-990.182 -1451.74 0.
-843.939 -1337.31 0.
-679.365 -1241.22 0.
-843.832 -1485.92 0.
-782.183 -1306.83 0.
-721.805 -1126.46 0.
-778.957 -1216.65 0.
-828.754 -1396.33 0.
-875.623 -1578.94 0.
-1061.02 -1638.21 0.
-1000.33 -1530.94 0.
-818.195 -1324.5 0.
-803.263 -1216.76 0.
-780.998 -1116.36 0.
-822.776 -1105.38 0.
-810.443 -1072.28 0.
-796.157 -1041.13 0.
-834.698 -1069.27 0.
-840.498 -1055.7 0.
-845.815 -1042.61 0.
-1093.82 -1241.76 0.
-1150.45 -1282.33 0.
-962.131 -1143.95 0.
-968.88 -1124.66 0.
-972.759 -1108.24 0.
-1096.08 -1198.1 0.
-1162.68 -1283.84 0.
-1229.12 -1369.75 0.
-1153.38 -1256.27 0.
-962.319 -986.973 0.
-748.802 -740.129 0.
-201.193 -267.608 0.
-508.803 -997.044 0.
-679.012 -1863.83 0.
-497.531 -925.782 0.
-158.49 -203.035 0.
-702.802 -702.732 0.
-930.059 -949.813 0.
-1138.15 -1216.07 0.
-1232.2 -1332.13 0.
-1160.56 -1241.72 0.
-1088.48 -1151.74 0.
-971.032 -1066.93 0.
-979.529 -1095.44 0.
-984.436 -1127.55 0.
-1204.82 -1302.54 0.
-1152.43 -1271.05 0.
-877.224 -1041.76 0.
-871.732 -1042.7 0.
-865.938 -1043.93 0.
-836.491 -1021.29 0.
-843.249 -1043.69 0.
-848.454 -1067.64 0.
-818.626 -1097.61 0.
-870.828 -1249.43 0.
-915.305 -1408.98 0.
-1046.21 -1552.4 0.
-1053.13 -1594.2 0.
-848.37 -1465.59 0.
-790.434 -1341.32 0.
-773.442 -1270.15 0.
-711.219 -1192.04 0.
-802.575 -1336.22 0.
-889.612 -1484.72 0.
-802.889 -1316.24 0.
-995.201 -1474.69 0.
-1173.67 -1646.99 0.
-1041.16 -1308.8 0.
-1193.61 -1397.08 0.
-1341.52 -1489.9 0.
-1584.01 -2483.82 0.
-2678.81 -4282.73 0.
-30.6214 -41.0125 0.
-631.873 -890.397 0.
-4272 -6245.17 0.
-405.206 -380.738 0.
-440.941 -361.731 0.
-2671.27 -3160.12 0.
-40.5519 -93.9822 0.
-3534.85 -5365.88 0.
-57.6688 -118.726 0.
-2525.91 -4146.44 0.
-806.45 -881.7 0.
-1616.48 -2422.01 0.
-0.360252 -0.00911416 0.
-18.0007 -12.8485 0.
-12.7737 -6.47761 0.
-1.0262 -0.451591 0.
-0.602609 -0.0111617 0.
-63.7052 -70.4356 0.
-21.5459 -8.52669 0.
-653.333 -278.909 0.
-1.34248 -1.1405 0.
-4.77066 -5.06866 0.
-44.5799 -36.1261 0.
-791.644 -756.137 0.
-474.214 -255.355 0.
-372.746 -280.541 0.
-117.043 -116.244 0.
-117.239 -124.682 0.
-317.944 -510.317 0.
-227.07 -361.789 0.
-161.119 -205.629 0.
-648.908 -1215.97 0.
-563.325 -1065.16 0.
-491.082 -901.98 0.
-639.923 -957.991 0.
-686.378 -1141.05 0.
-727.128 -1329.81 0.
-1139.55 -1580.59 0.
-1080.14 -1472.03 0.
-714.024 -1159.12 0.
-681.869 -1049.54 0.
-665.212 -938.451 0.
-784.415 -1015.84 0.
-771.518 -983.301 0.
-770.197 -939.181 0.
-877.12 -1071.69 0.
-881.933 -1059.1 0.
-886.567 -1046.7 0.
-1343.2 -1413.59 0.
-1391.82 -1462.14 0.
-1135.05 -1264.26 0.
-1140.77 -1246.01 0.
-1145.03 -1229.22 0.
-1259.28 -1321.13 0.
-1325.71 -1407.02 0.
-1391.28 -1493.77 0.
-1297.62 -1398.11 0.
-1114.7 -1120.74 0.
-905.292 -869.869 0.
-12.398 -22.3354 0.
-18.5314 -42.2399 0.
-25.5589 -64.5376 0.
-2.55742 -1.33953 0.
-2.32088 -0.968745 0.
-872.516 -846.234 0.
-1097.41 -1095.58 0.
-1298.51 -1368.71 0.
-1392.07 -1458.41 0.
-1320.63 -1367.83 0.
-1248.77 -1277.67 0.
-1179.27 -1221.04 0.
-1188.05 -1249.25 0.
-1193.74 -1280.56 0.
-1456.35 -1497.77 0.
-1410.09 -1460.17 0.
-917.198 -1020.47 0.
-903.358 -1029.75 0.
-899.398 -1029.15 0.
-810.34 -934.671 0.
-817.182 -956.991 0.
-823.535 -979.799 0.
-742.834 -921.165 0.
-768.043 -1100.01 0.
-814.508 -1257.59 0.
-1090.11 -1478 0.
-1111.21 -1505.64 0.
-779.279 -1337.67 0.
-695.004 -1152.77 0.
-691.24 -1063.44 0.
-349.632 -664.236 0.
-436.461 -828.951 0.
-526.514 -994.676 0.
-124.275 -110.481 0.
-225.188 -214.873 0.
-345.951 -401.402 0.
-180.375 -143.574 0.
-58.5714 -52.7584 0.
-120.901 -116.78 0.
-46.0304 -36.3294 0.
-365.535 -454.413 0.
-16.4656 -23.3214 0.
-14.2057 -21.9773 0.
-14.6854 -26.8339 0.
-41.6726 -54.1306 0.
-64.2995 -96.5012 0.
-128.418 -227.802 0.
-20.6579 -56.6611 0.
-36.6638 -86.6396 0.
-50.5892 -117.501 0.
-60.2231 -143.608 0.
-71.6512 -152.182 0.
0.751551 0.00521245 0.
-0.122272 -0.00460223 0.
-31.767 -37.6238 0.
-1.25562 -0.044284 0.
-1.38085 -0.0425293 0.
0.718844 0.0510141 0.
-98.7268 -92.9839 0.
-31.4835 -11.3964 0.
-1420.51 -647.952 0.
-2.28619 -1.77184 0.
-7.18629 -6.60897 0.
-71.2732 -51.8117 0.
-273.816 -134.131 0.
-66.109 -64.041 0.
-807.235 -892.911 0.
-167.637 -137.54 0.
-208.899 -179.224 0.
-809.797 -1650.67 0.
-708.799 -1515.07 0.
-1401.38 -3536.82 0.
-1308.67 -2146.81 0.
-1055.21 -1713.89 0.
-868.772 -1357.93 0.
-775.779 -972.377 0.
-744.27 -913.971 0.
-1619.97 -3110.77 0.
-1443.47 -1923.48 0.
-1450.07 -1946.45 0.
-1017.42 -1394.77 0.
-835.26 -1020.51 0.
-751.73 -870.25 0.
-939.01 -1124.42 0.
-847.342 -916.044 0.
-835.087 -900.936 0.
-989.914 -1044.85 0.
-922.147 -891.841 0.
-976.535 -1029.19 0.
-1601.21 -1395.37 0.
-1640.41 -1498.47 0.
-1194.54 -988.397 0.
-1096.66 -788.829 0.
-1081.93 -770.204 0.
-1136.11 -968.175 0.
-1159.23 -1068.08 0.
-1099.6 -993.391 0.
-1155.39 -1070.94 0.
-1255.96 -1335.97 0.
-1363.61 -1613.24 0.
-4.99864 -8.96134 0.
-19.6402 -38.6078 0.
-9077.09 -6324.52 0.
-2.74292 -1.24713 0.
-2.92565 -1.11233 0.
-1380.92 -1568.92 0.
-1260.73 -1262.79 0.
-1144.28 -997.779 0.
-1117.31 -947.483 0.
-1099.45 -892.512 0.
-1121.95 -900.511 0.
-1161.64 -800.149 0.
-1210.28 -916.979 0.
-1238.08 -948.724 0.
-1728.19 -1526.64 0.
-1739.37 -1542.12 0.
-961.24 -863.194 0.
-990.981 -1024.36 0.
-1010.34 -1051.59 0.
-912.156 -982.492 0.
-908.611 -971.165 0.
-989.174 -1116.89 0.
-815.643 -829.418 0.
-971.584 -1200.04 0.
-1087.89 -1393.63 0.
-1608 -2219.78 0.
-1645.4 -2302.92 0.
-1706.06 -3020.46 0.
-868.159 -953.169 0.
-939.594 -1052.67 0.
-638.175 -1251.61 0.
-919.637 -1520.99 0.
-2832.13 -6231.45 0.
-544.441 -803.809 0.
-813.512 -1503.54 0.
-866.545 -1509.65 0.
-317.127 -203.126 0.
-133.24 -110.283 0.
-380.347 -289.058 0.
-64.0183 -47.5459 0.
-63.1498 -53.1394 0.
-21.5425 -34.9952 0.
-10.458 -17.9689 0.
-11.7362 -22.5232 0.
-46.1675 -41.9943 0.
-63.7658 -91.5614 0.
-197.935 -334.235 0.
-12.3901 -34.0222 0.
-22.4984 -53.766 0.
-46.5016 -120.519 0.
-28.5034 -78.8195 0.
-1228.11 -2061.37 0.
-2194.62 -4226.07 0.
0.935619 0.38272 0.
-0.563894 -0.0154957 0.
-2656.79 -3730.33 0.
-96.5415 -161.763 0.
-2751.26 -4684.01 0.
-43.182 -93.7674 0.
-797.146 -997.268 0.
-47.8369 -47.2894 0.
-3614.97 -5476.96 0.
-39.3751 -33.2576 0.
-51.5999 -49.6159 0.
-3601.71 -7161.25 0.
-41.1415 -56.1491 0.
-1900.27 -2391.55 0.
-1404.08 -1868.92 0.
-967.253 -1315.81 0.
-1831.31 -4055.67 0.
-565.029 -1123.78 0.
-34.4131 -86.8372 0.
-606.813 -995.183 0.
-395.688 -654.903 0.
-304.618 -290.138 0.
-588.545 -641.817 0.
-395.934 -318.017 0.
-127.81 -87.7789 0.
-758.467 -583.499 0.
-819.551 -720.758 0.
-570.832 -390.038 0.
-576.511 -420.713 0.
-590.177 -478.863 0.
-704.344 -585.08 0.
-658.7 -525.761 0.
-614.96 -457.216 0.
-721.432 -480.953 0.
-686.802 -400.055 0.
-635.078 -339.465 0.
-1224.65 -757.511 0.
-1214.59 -754.216 0.
-964.404 -450.811 0.
-956.167 -453.504 0.
-942.954 -465.067 0.
-1131.48 -686.617 0.
-1090 -634.066 0.
-1021.45 -610.63 0.
-1247.69 -727.109 0.
-1326.14 -925.614 0.
-1414.33 -1116.04 0.
-1.14522 -2.6002 0.
0.109586 0.269904 0.
-10819.8 -3978.94 0.
-2.97081 -2.53889 0.
-2.91616 -1.89677 0.
-1371.17 -1128.62 0.
-1300.64 -914.157 0.
-1229.19 -701.158 0.
-1030.48 -571.205 0.
-1112.68 -597.305 0.
-1184.81 -633.451 0.
-966.976 -489.87 0.
-954.242 -470.709 0.
-935.963 -458.928 0.
-1218.77 -717.332 0.
-1250.26 -750.759 0.
-647.874 -355.931 0.
-694.64 -398.279 0.
-745.923 -510.595 0.
-637.483 -455.688 0.
-667.048 -488.47 0.
-706.905 -512.579 0.
-622.167 -452.117 0.
-581.576 -402.851 0.
-568.492 -397.121 0.
-819.798 -646.672 0.
-726.07 -514.374 0.
-20.3589 -19.3211 0.
-407.509 -278.724 0.
-705.977 -670.766 0.
-73.9696 -63.3177 0.
-97.5865 -77.1725 0.
-466.413 -492.504 0.
-57.8991 -24.7391 0.
-732.345 -1056.11 0.
-2424.95 -4780.5 0.
-390.224 -285.152 0.
-1197.24 -1666.24 0.
-2118.19 -2973.91 0.
-52.7357 -39.5995 0.
-3994.76 -6775.69 0.
-31.4841 -40.9402 0.
-48.7362 -73.314 0.
-3384.32 -4598.41 0.
-65.8273 -109.545 0.
-2734.07 -4412.5 0.
-23.5782 -64.9958 0.
-2467.2 -4714.64 0.
-238.729 -379.99 0.
-1085.97 -1396.27 0.
-32.6229 -82.5778 0.
-1561.32 -3254.86 0.
-31.5254 -85.998 0.
0.610448 0.355261 0.
-1972.72 -2686.63 0.
-54.292 -90.2159 0.
-55.2483 -74.3471 0.
-98.0991 -104.256 0.
-104.032 -118.123 0.
-83.8185 -99.4467 0.
-57.3638 -58.1902 0.
-386.241 -237.776 0.
-48.1998 -38.5458 0.
-51.5966 -48.295 0.
-27.1727 -34.3616 0.
-43.0138 -53.7035 0.
-71.8344 -104.802 0.
-47.6437 -84.0147 0.
-38.9289 -76.9832 0.
-463.119 -455.284 0.
-58.1399 -127.685 0.
-42.3193 -116.81 0.
-228.994 -231.211 0.
-50.2014 -83.0245 0.
-128.176 -112.854 0.
-581.449 -559.311 0.
-399.578 -221.887 0.
-67.2184 -51.1289 0.
-789.349 -600.443 0.
-858.111 -729.244 0.
-549.37 -367.562 0.
-588.403 -397.672 0.
-604.886 -451.012 0.
-710.485 -494.503 0.
-663.654 -432.442 0.
-605.004 -383.196 0.
-706.448 -424.346 0.
-658.793 -356.287 0.
-604.712 -295.952 0.
-1233.24 -750.777 0.
-1235.78 -749.715 0.
-1032.75 -474.389 0.
-1024.61 -477.206 0.
-1014.76 -486.559 0.
-1353.8 -720.918 0.
-1320.01 -679.728 0.
-1241.33 -697.531 0.
-1570.21 -835.576 0.
-1658.69 -1025.97 0.
-1746.52 -1216.42 0.
-0.041835 -1.58935 0.
-0.0689201 -1.05126 0.
-13876.7 -5283.25 0.
-2.97326 -2.74484 0.
-2.91395 -2.16301 0.
-1724.48 -1223.03 0.
-1641.13 -1020.81 0.
-1568.64 -808.344 0.
-1254.13 -664.468 0.
-1335.26 -664.399 0.
-1401.09 -705.89 0.
-1007.07 -516.252 0.
-1003.56 -487.172 0.
-987.337 -472.818 0.
-1241.22 -724.492 0.
-1257.84 -759.855 0.
-645.356 -345.054 0.
-691.602 -387.689 0.
-757.476 -487.804 0.
-575.018 -342.588 0.
-628.806 -349.065 0.
-671.541 -365.32 0.
-575.94 -446.407 0.
-541.38 -395.819 0.
-504.94 -349.454 0.
-802.925 -633.662 0.
-708.104 -507.41 0.
-34.1063 -25.1962 0.
-257.162 -144.639 0.
-570.847 -512.263 0.
-116.846 -100.836 0.
-42.1536 -29.9153 0.
-31.5568 -19.2811 0.
-80.8098 -35.3369 0.
-72.8727 -28.026 0.
-405.05 -150.321 0.
-41.7951 -15.1974 0.
-81.4867 -54.2525 0.
-111.28 -111.026 0.
-27.5331 -19.181 0.
-46.8423 -30.2819 0.
-0.837562 -0.593101 0.
-18.1814 -19.8567 0.
-35.9588 -55.7485 0.
-50.326 -62.3059 0.
-198.221 -361.208 0.
-10.5135 -28.0128 0.
-525.761 -784.197 0.
-46.4817 -75.6154 0.
-21.8257 -56.6981 0.
-2.02154 -5.09857 0.
-105.743 -214.64 0.
-1105.41 -1682.73 0.
2.96698 0.00235428 0.
0.896126 0.731032 0.
1.18239 0.0303088 0.
-44.3496 -16.3346 0.
-207.266 -237.804 0.
-209.153 -166.816 0.
-2723.26 -5134.05 0.
-17.8506 -7.22652 0.
-295.084 -660.455 0.
-1801.39 -2240.98 0.
-65.0818 -65.0373 0.
-2751.29 -4382.08 0.
-30.6962 -66.7736 0.
-65.7974 -154.264 0.
-3226.97 -6066.07 0.
-5.85112 -12.1874 0.
-2469.75 -4031.46 0.
-843.483 -774.259 0.
-14.0507 -36.7116 0.
-2374.14 -4492.57 0.
-1221.82 -2272.11 0.
-44.6921 -76.7897 0.
-1314.27 -2141.17 0.
-1007.53 -1630.21 0.
-762.724 -1212.59 0.
-1349.89 -1864.6 0.
-1195.12 -1645.49 0.
-919.375 -1150.74 0.
-874.134 -1048.69 0.
-830.04 -947.336 0.
-905.122 -945.317 0.
-867.408 -899.432 0.
-836.12 -847.12 0.
-996.004 -1016.74 0.
-973.024 -994.818 0.
-953.048 -969.894 0.
-1668.95 -1568.64 0.
-1573.55 -1416.7 0.
-1259.42 -942.525 0.
-1241.47 -899.269 0.
-1224.79 -854.327 0.
-1562.63 -1119.49 0.
-1549.47 -1102.48 0.
-1540.22 -1092.87 0.
-1886.53 -1451.15 0.
-2062.88 -1864.26 0.
-2240.39 -2276.21 0.
0.000502369 0.403541 0.
-0.13168 -0.327132 0.
-13824.4 -4994.63 0.
-2.07027 -1.81891 0.
-2.16783 -3.49945 0.
-2250.8 -2361.68 0.
-2058.09 -1919.67 0.
-1865.89 -1477.14 0.
-1482.29 -981.155 0.
-1538.65 -1027.59 0.
-1570.3 -1117.59 0.
-1281.59 -870.46 0.
-1292.3 -894.924 0.
-1305.02 -917.376 0.
-1586.4 -1366.39 0.
-1663.84 -1506.45 0.
-958.805 -924.689 0.
-1000.23 -1024.98 0.
-1050.55 -1124.5 0.
-898.675 -813.469 0.
-896.339 -842.422 0.
-895.648 -869.729 0.
-759.541 -1004.48 0.
-832.774 -1128 0.
-910.063 -1249.58 0.
-1157.53 -1552.34 0.
-1341.28 -1773.94 0.
-659.019 -921.992 0.
-1028.62 -1670.19 0.
-1502.06 -2518.14 0.
-2.89114 -1.30509 0.
-1294.05 -2088.86 0.
-2860.71 -5423.68 0.
-238.559 -94.4099 0.
-646.534 -346.48 0.
-2392.14 -3490.87 0.
-33.7553 -12.3057 0.
-3649.91 -7058.88 0.
-11.1439 -4.30818 0.
-15.0308 -10.6398 0.
-2726.71 -4136.33 0.
-11.4585 -18.3541 0.
-2779.71 -4566.38 0.
-93.8672 -176.394 0.
-48.9129 -55.4315 0.
-2.77965 -6.46815 0.
-7.32394 -18.8935 0.
-417.357 -570.811 0.
-3.07625 -8.09211 0.
-1904.7 -3273.32 0.
-106.602 -262.392 0.
-2277.84 -4024.14 0.
-1966.4 -3159.81 0.
-83.7014 -192.458 0.
-1413.34 -2464.74 0.
-0.274766 -0.169252 0.
-73.1757 -54.4373 0.
-980.482 -1114.96 0.
-2174.78 -3418.16 0.
-20.4658 -18.2752 0.
-12.6005 -5.5044 0.
-31.748 -16.0012 0.
-1050.98 -1828.19 0.
-40.5506 -46.3958 0.
-9.35561 -12.2005 0.
-10.7386 -11.0425 0.
-18.7242 -35.5731 0.
-256.639 -395.349 0.
-9.57707 -13.9303 0.
-11.9483 -27.4946 0.
-13.6906 -33.5351 0.
-24.6971 -48.5916 0.
-594.647 -683.169 0.
-55.6619 -68.1019 0.
-76.5277 -91.1358 0.
-678.086 -1015.94 0.
-467.706 -474.623 0.
-310.51 -268.471 0.
-1048.59 -1530.51 0.
-921.293 -1357.44 0.
-799.191 -1009.8 0.
-744.965 -936.646 0.
-711.489 -863.927 0.
-860.298 -808 0.
-827.533 -761.187 0.
-795.079 -728.988 0.
-877.268 -809.227 0.
-859.044 -794.614 0.
-840.129 -781.006 0.
-1457.65 -1334.23 0.
-1370.4 -1199.11 0.
-1140.94 -829.02 0.
-1120.69 -788.172 0.
-1100.75 -747.496 0.
-1370.86 -904.783 0.
-1369.79 -893.426 0.
-1348.02 -926.001 0.
-1593.45 -1262.98 0.
-1765.6 -1677.16 0.
-1940.23 -2093.21 0.
-0.766125 -0.27667 0.
-1.17417 -0.796554 0.
-10514.9 -3799.33 0.
-0.51161 -0.860619 0.
-0.536712 -1.4866 0.
-1972.9 -2180.22 0.
-1753.78 -1699.77 0.
-1553.63 -1248.8 0.
-1276.09 -803.287 0.
-1288.97 -857.734 0.
-1366.84 -878.911 0.
-1112.13 -757.554 0.
-1119.33 -774.997 0.
-1133 -806.229 0.
-1359.89 -1177.8 0.
-1438.29 -1291.26 0.
-862.326 -791.186 0.
-884.268 -841.055 0.
-925.523 -927.48 0.
-843.727 -738.042 0.
-847.409 -759.803 0.
-857.455 -781.922 0.
-661.244 -812.548 0.
-705.222 -899.097 0.
-765.208 -1019.4 0.
-824.969 -1132.7 0.
-954.266 -1305.35 0.
-222.409 -152.187 0.
-274.273 -138.521 0.
-674.321 -973.688 0.
-14.8658 -7.40355 0.
-47.442 -22.6711 0.
-277.332 -160.124 0.
-64.7772 -24.5381 0.
-42.7827 -15.9428 0.
-45.6532 -17.2854 0.
-38.6744 -14.4613 0.
-63.7962 -23.2379 0.
-6.05487 -2.21783 0.
-11.2361 -9.91564 0.
-34.0682 -32.2863 0.
-0.830104 -0.663676 0.
-28.9623 -76.63 0.
-24.1551 -30.8257 0.
-2669.51 -5150.87 0.
-27.7652 -71.4713 0.
-2132.51 -3898.13 0.
-384.31 -470.814 0.
0.395188 1.09416 0.
0.324724 0.726897 0.
-0.477559 -2.92704 0.
-461.925 -599.588 0.
-0.0342929 -0.151178 0.
1.93875 1.47225 0.
2.43696 3.16146 0.
0.163798 2.14496 0.
-13.227 -30.6382 0.
-103.104 -140.36 0.
-107.906 -90.9313 0.
-0.198647 -0.519162 0.
-10.4341 -4.91541 0.
-28.2756 -14.9389 0.
-622.483 -1316.42 0.
-24.2655 -31.5095 0.
-11.7578 -14.1534 0.
-8.63199 -6.0926 0.
-12.9259 -12.3858 0.
-60.4914 -146.149 0.
-17.9553 -37.1532 0.
-16.6037 -38.1006 0.
-23.6136 -54.6272 0.
-42.0366 -63.3144 0.
-221.522 -139.233 0.
-104.775 -89.0436 0.
-128.852 -114.681 0.
-439.901 -291.498 0.
-220.943 -165.06 0.
-143.955 -76.2208 0.
-931.041 -1149.33 0.
-584.977 -457.217 0.
-624.749 -522.122 0.
-616.642 -472.731 0.
-317.227 -141.475 0.
-930.533 -747.696 0.
-528.404 -236.548 0.
-200.116 -87.2121 0.
-652.93 -371.497 0.
-680.111 -429.665 0.
-712.101 -482.34 0.
-1139.18 -774.812 0.
-1205.82 -869.526 0.
-959.861 -386.37 0.
-989.218 -476.886 0.
-832.365 -320.008 0.
-1069.59 -495.736 0.
-1043.98 -457.838 0.
-1283.29 -1033.39 0.
-1252.55 -967.709 0.
-1183.7 -794.447 0.
-1245.59 -950.45 0.
-5.76936 -2.65713 0.
-3.67236 -1.37439 0.
-9242.85 -3836.45 0.
0.802352 0.00335615 0.
0.850328 0.00282847 0.
-1389.07 -1206.13 0.
-1288.27 -925.829 0.
-1305.32 -935.097 0.
-1097.71 -499.679 0.
-1224.99 -723.008 0.
-1201.99 -562.085 0.
-935.871 -472.487 0.
-887.665 -344.57 0.
-845.785 -309.227 0.
-1032.7 -595.264 0.
-1216.3 -1023.11 0.
-586.723 -220.353 0.
-739.42 -350.242 0.
-381.246 -142.215 0.
-481.962 -195.988 0.
-390.621 -161.804 0.
-319.41 -137.864 0.
-251.139 -106.401 0.
-534.941 -358.237 0.
-549.434 -439.214 0.
-306.965 -174.171 0.
-822.175 -1062.76 0.
-233.766 -165.953 0.
-128.437 -85.9087 0.
-26.2807 -15.7821 0.
-69.664 -36.0121 0.
-111.823 -55.942 0.
-169.091 -85.5185 0.
-53.9026 -20.1072 0.
-29.7098 -10.8939 0.
-30.9801 -11.3965 0.
-44.1375 -17.309 0.
-67.3615 -25.7031 0.
-8.32806 -3.01884 0.
-13.9674 -5.85287 0.
-33.6165 -35.2313 0.
-1.7336 -1.43049 0.
-16.0463 -32.4747 0.
-27.0601 -58.8621 0.
-80.222 -201.71 0.
-34.8557 -74.8288 0.
-468.843 -622.778 0.
-872.335 -1000.72 0.
-10.7017 -28.9087 0.
-1710.15 -3116.57 0.
-1.08095 -3.59754 0.
-782.928 -1202.32 0.
-1380.14 -2205.41 0.
1.99126 2.78516 0.
-2158.26 -3413.05 0.
0.219795 0.351357 0.
-1783.15 -3574.76 0.
-1154.49 -1373.4 0.
-236.808 -336.473 0.
-4.86238 -13.3653 0.
-6.1504 -3.14515 0.
-2195.13 -3917.47 0.
-928.414 -1113.61 0.
-71.5722 -118.34 0.
-2746.68 -4635.89 0.
-11.1664 -8.91638 0.
-6.41345 -4.87433 0.
-3146.06 -6091.58 0.
-36.2514 -83.225 0.
-3273.98 -4384.01 0.
-16.0134 -41.5529 0.
-16.9248 -45.1265 0.
-3148.07 -6418.38 0.
-29.7135 -52.4729 0.
-76.1161 -59.3723 0.
-2050.51 -4277.12 0.
-737.84 -1280.16 0.
-38.8795 -26.8831 0.
-1316.54 -2242.7 0.
-905.814 -1402.13 0.
-945.175 -1409.84 0.
-763.215 -1034.28 0.
-587.669 -659.661 0.
-811.598 -951.254 0.
-766.649 -866.857 0.
-718.275 -789.277 0.
-747.496 -696.919 0.
-706.401 -624.588 0.
-658.217 -560.722 0.
-1203.95 -1091.59 0.
-1185.68 -1062.6 0.
-866.445 -676.9 0.
-866.555 -671.56 0.
-880.251 -703.037 0.
-1015.89 -833.182 0.
-1015.46 -838.264 0.
-1018.05 -850.954 0.
-988.881 -953.212 0.
-1065.9 -1124.64 0.
-1156.92 -1307.33 0.
-3.34397 -1.26054 0.
-2.25132 -0.929516 0.
-6475.76 -2759.01 0.
0.387434 0.337451 0.
0.61699 0.14033 0.
-1178.04 -1279.74 0.
-1118.32 -1131.91 0.
-1066.53 -974.621 0.
-1071.97 -869.291 0.
-1042 -789.293 0.
-980.528 -738.228 0.
-909.936 -689.816 0.
-900.321 -685.233 0.
-895.04 -691.744 0.
-1194.55 -1083.55 0.
-1216.53 -1114.64 0.
-721.334 -649.625 0.
-767.172 -729.221 0.
-810.596 -809.516 0.
-717.802 -771.703 0.
-826.091 -989.059 0.
-932.656 -1205.49 0.
-571.964 -682.291 0.
-796.924 -1163.04 0.
-1036.49 -1631.46 0.
-928.239 -1520.87 0.
-1620.89 -2965.04 0.
-35.7458 -15.9603 0.
-832.516 -1204.88 0.
-2488.82 -4930.5 0.
-1.14688 -0.773426 0.
-1.34981 -0.966008 0.
-3222.57 -6367.79 0.
-13.2831 -6.03616 0.
-13.5195 -6.16845 0.
-3010.13 -4780.23 0.
-1.36876 -3.41959 0.
-2615.34 -2728.2 0.
-14.976 -16.509 0.
-2631.2 -5126.59 0.
-4.30959 -5.56445 0.
-0.345829 -0.115295 0.
-2111.69 -3524.7 0.
-41.5026 -92.9804 0.
-5.87737 -6.32799 0.
-45.96 -89.5473 0.
-297.318 -345.614 0.
0.670815 1.72967 0.
-0.00992733 -0.311847 0.
0.470495 1.05098 0.
-87.9196 -122.118 0.
-882.963 -1175.48 0.
-567.265 -724.097 0.
3.12891 7.2666 0.
-0.893621 -2.3478 0.
0.561295 0.468925 0.
-71.9756 -156.3 0.
-0.0652575 -0.167617 0.
-114.441 -151.611 0.
-12.4398 -32.9543 0.
-224.327 -501.438 0.
-195.136 -345.721 0.
-19.3404 -14.0541 0.
-0.126083 -0.0855511 0.
-68.6139 -120.067 0.
-19.438 -36.2832 0.
-6.64826 -5.01284 0.
-114.751 -174.21 0.
-38.1929 -78.4692 0.
-27.4289 -63.966 0.
-20.6826 -51.1695 0.
-23.3556 -63.4053 0.
-36.0595 -73.7477 0.
-30.5152 -53.9911 0.
-45.6073 -42.9935 0.
-410 -513.941 0.
-46.7094 -28.1091 0.
-34.1477 -22.4893 0.
-721.193 -1041.23 0.
-337.487 -176.652 0.
-677.621 -843.6 0.
-532.616 -433.575 0.
-283.927 -131.082 0.
-663.157 -716.241 0.
-616.751 -635.739 0.
-575.63 -550.518 0.
-658.259 -568.099 0.
-618.166 -496.243 0.
-581.88 -444.826 0.
-1141.47 -1060.82 0.
-1124.3 -1033.57 0.
-743.414 -501.538 0.
-745.178 -493.669 0.
-752.883 -502.215 0.
-812.599 -719.964 0.
-807.916 -709.673 0.
-803.873 -698.421 0.
-702.571 -803.907 0.
-781.508 -993.999 0.
-866.149 -1181.94 0.
-2.01622 -0.963829 0.
-0.931903 -0.501318 0.
-4064.01 -1601.4 0.
0.0586833 0.420608 0.
0.395313 0.20261 0.
-911.323 -1048.43 0.
-845.918 -905.678 0.
-779.856 -763.788 0.
-858.669 -698.822 0.
-819.055 -625.232 0.
-783.255 -552.942 0.
-774.37 -519.734 0.
-771.376 -511.066 0.
-783.904 -539.039 0.
-1162 -1064.61 0.
-1183.8 -1094.99 0.
-615.547 -498.473 0.
-659.211 -581 0.
-702.908 -669.96 0.
-479.012 -485.668 0.
-576.128 -711.515 0.
-692.104 -924.948 0.
-75.8313 -36.1001 0.
-454.291 -363.857 0.
-657.465 -871.041 0.
-5.18604 -2.49075 0.
-764.331 -1118.93 0.
-80.3606 -41.5173 0.
0.0763877 0.00892766 0.
0.0712127 0.030917 0.
-0.119435 -0.0860467 0.
-0.0225346 -0.0173601 0.
-29.6561 -19.7153 0.
-17.3385 -7.47349 0.
-16.311 -7.16463 0.
-60.2709 -24.6412 0.
-0.939871 -2.59118 0.
-32.5271 -21.0464 0.
-191.571 -153.284 0.
-386.119 -385.096 0.
-1.31659 -1.49764 0.
0.329858 0.22216 0.
0.402058 0.197497 0.
-1822.49 -2926.27 0.
-32.7547 -40.6029 0.
-75.8723 -144.577 0.
-238.726 -242.778 0.
-1915.36 -4385.07 0.
1.07717 2.64487 0.
-1252.36 -2368.78 0.
-1.67957 -5.99398 0.
-1241.07 -1543.63 0.
-1331.58 -1901.07 0.
-0.640672 -3.30146 0.
-1404.11 -2211.25 0.
-0.292076 -0.692294 0.
-67.585 -133.887 0.
0.178295 0.418872 0.
-50.9821 -96.2636 0.
-1639.38 -2524.29 0.
-32.7341 -47.9387 0.
-189.313 -463.323 0.
0.575145 0.0227195 0.
0.864386 0.713732 0.
-48.5562 -67.1491 0.
-31.1524 -60.5322 0.
-44.1474 -106.996 0.
-1557.29 -3481.78 0.
-17.0217 -41.8497 0.
-2510.67 -4108.85 0.
-5.5231 -14.0715 0.
-5.26921 -13.2649 0.
-2822.05 -5911.55 0.
-8.99424 -12.0534 0.
-30.2212 -44.6267 0.
-2525.83 -5180.65 0.
-160.87 -177.302 0.
-12.7091 -17.1127 0.
-1893.12 -3808.23 0.
-923.696 -1592.98 0.
-1253.18 -2078.96 0.
-899.605 -1353.73 0.
-588.185 -601.343 0.
-900.382 -1367.59 0.
-763.667 -1110.51 0.
-630.061 -850.544 0.
-842.178 -975.925 0.
-807.162 -908.824 0.
-772.94 -846.416 0.
-1253.28 -1519.12 0.
-1232.23 -1480.86 0.
-880.817 -955.228 0.
-862.895 -920.984 0.
-850.762 -901.883 0.
-862.069 -1037.7 0.
-850.288 -1133.24 0.
-881.148 -1196.46 0.
-807.069 -1309.46 0.
-825.605 -1338.65 0.
-781.157 -1432.62 0.
-5.60056 -5.42429 0.
-13.0205 -17.7525 0.
-4517.14 -4444.69 0.
-0.00297138 -0.0217638 0.
-0.00553463 -0.0443444 0.
-740.633 -1358.06 0.
-733.292 -1327.05 0.
-728.464 -1301.16 0.
-882.632 -1133.77 0.
-855.665 -1072.86 0.
-832.756 -1024.07 0.
-908.635 -946.989 0.
-902.392 -928.514 0.
-896.21 -910.17 0.
-1252.96 -1494.25 0.
-1291.91 -1592.81 0.
-739.301 -822.549 0.
-816.401 -959.168 0.
-902.643 -1113.43 0.
-575.829 -846.267 0.
-785.875 -1263.24 0.
-1007.8 -1673.12 0.
-461.181 -357.376 0.
-934.095 -1417.08 0.
-1460.71 -2433.6 0.
-795.285 -1156.79 0.
-2002.09 -4080.46 0.
-110.805 -91.7441 0.
-0.110302 -0.0297681 0.
-2728.37 -5876.65 0.
0.149551 0.054551 0.
-12.9515 -5.63111 0.
-2716.23 -3405.87 0.
-145.491 -70.271 0.
-3396.68 -6326.9 0.
0.437904 0.304752 0.
-6.00907 -8.02852 0.
-2847.21 -4578.2 0.
-883.014 -525.214 0.
-1171.48 -1156.19 0.
0.330042 0.353502 0.
-0.101509 -0.0473433 0.
0.777703 0.497768 0.
-70.8902 -146.818 0.
-1592.29 -2779.81 0.
-423.103 -503.668 0.
-0.0221422 -4.89328 0.
-42.6162 -104.964 0.
1.569 3.37189 0.
-105.293 -224.514 0.
1.81505 2.66686 0.
-614.137 -837.336 0.
-328.977 -520.038 0.
-2.50106 -4.6535 0.
4.42972 10.6682 0.
1.88464 5.12321 0.
-1558.38 -2750.41 0.
-0.89397 -1.92331 0.
-145.262 -218.49 0.
-22.1658 -54.059 0.
-1.11024 -0.767632 0.
-526.226 -1307.45 0.
0.965243 0.219915 0.
-1576.39 -2272.68 0.
-149.448 -223.01 0.
-1974.64 -3547.19 0.
-9.32898 -17.0278 0.
-152.591 -262.76 0.
-20.4395 -44.1727 0.
-22.0885 -38.6464 0.
-8.08188 -22.0997 0.
0.443013 0.103018 0.
0.111445 0.214141 0.
0.0468399 0.129386 0.
-12.6387 -29.8888 0.
-91.9144 -59.7277 0.
-31.1091 -24.8413 0.
-19.3391 -20.751 0.
-681.232 -1117.08 0.
-55.8764 -29.5315 0.
-650.183 -809.104 0.
-260.916 -116.733 0.
-85.9209 -34.4992 0.
-583.27 -905.539 0.
-451.061 -612.828 0.
-342.446 -301.956 0.
-663.317 -828.777 0.
-631.777 -761.586 0.
-601.042 -703.402 0.
-1040.46 -1389.16 0.
-1021.43 -1353.03 0.
-703.886 -791.867 0.
-695.914 -776.346 0.
-707.411 -818.051 0.
-569.475 -892.931 0.
-601.537 -960.675 0.
-634.008 -1029.29 0.
-407.611 -1106.05 0.
-429.861 -1144.93 0.
-492.832 -1227.47 0.
-5.7529 -4.80807 0.
-13.4028 -16.2701 0.
-1925.56 -3286.82 0.
-0.00264397 -0.0189342 0.
-0.00471208 -0.0373094 0.
-450.568 -1100.59 0.
-395.723 -1045.58 0.
-369.455 -1016.96 0.
-581.793 -1019.09 0.
-556.988 -954.037 0.
-529.683 -892.464 0.
-693.845 -839.814 0.
-673.504 -782.658 0.
-666.456 -764.937 0.
-1038.9 -1361.04 0.
-1077.11 -1455.02 0.
-524.604 -557.771 0.
-594.361 -701.5 0.
-666.575 -844.182 0.
-211.44 -148.996 0.
-443.654 -547.377 0.
-622.466 -996.428 0.
-42.4867 -26.3674 0.
-46.7906 -25.3004 0.
-641.574 -650.087 0.
-29.056 -26.0034 0.
-577.53 -608.483 0.
-52.756 -55.1448 0.
0.0646341 0.00191248 0.
-0.351912 -0.0149794 0.
-0.0984435 -0.00404583 0.
-5.52747 -2.1235 0.
-109.817 -48.5196 0.
-45.7427 -19.8161 0.
-91.5597 -47.3682 0.
-6.79191 -5.17336 0.
-19.1166 -21.4824 0.
-29.2828 -41.5796 0.
-30.3244 -76.4465 0.
-217.753 -338.035 0.
-2665.72 -5745.12 0.
0.0362301 0.0181082 0.
0.284661 1.10425 0.
-50.4402 -139.202 0.
-1383.99 -2559.85 0.
-151.622 -219.077 0.
1.88115 5.17813 0.
-30.2462 -64.472 0.
0.466422 1.02977 0.
-1400.44 -2136.44 0.
5.19697 6.44046 0.
-280.985 -487.55 0.
-176.768 -203.667 0.
7.96647 12.2072 0.
-1482.58 -2921.1 0.
0.240366 0.576397 0.
-55.748 -97.013 0.
-0.431185 -5.83648 0.
-94.1627 -214.692 0.
-300.538 -641.581 0.
1.17375 0.652768 0.
-0.309815 -0.229465 0.
-966.812 -2000.44 0.
-75.1233 -133.472 0.
-44.3746 -70.8853 0.
-68.182 -188.215 0.
-9.97864 -20.3874 0.
-257.396 -448.82 0.
-26.1631 -45.1494 0.
-26.9074 -42.3303 0.
-12.7168 -29.5114 0.
-2.41685 -6.16623 0.
-0.0747218 -0.081421 0.
-0.367481 -0.671168 0.
-3.85684 -9.63803 0.
-64.2301 -50.4838 0.
-40.2278 -29.5126 0.
-32.41 -26.6578 0.
-64.4211 -32.0037 0.
-51.2309 -27.7683 0.
-35.7161 -26.1158 0.
-52.0639 -26.7355 0.
-79.3071 -34.1797 0.
-309.686 -266.803 0.
-103.539 -39.7861 0.
-100.175 -42.6367 0.
-364.722 -354.898 0.
-313.803 -213.072 0.
-71.175 -35.812 0.
-426.23 -301.16 0.
-551.938 -648.262 0.
-74.2987 -28.7883 0.
-311.305 -396.974 0.
-187.965 -176.173 0.
-117.927 -226.464 0.
-210.052 -422.4 0.
-286.813 -571.272 0.
-91.1682 -226.389 0.
-112.509 -280.359 0.
-152.969 -375.206 0.
-16.5622 -15.3706 0.
-25.3231 -42.0561 0.
-750.343 -2069.03 0.
0.0772382 0.173314 0.
-0.056888 -0.384655 0.
-102.278 -272.781 0.
-68.6589 -188.163 0.
-65.4701 -181.287 0.
-287.848 -689.82 0.
-186.896 -472.279 0.
-131.027 -337.499 0.
-239.477 -260.45 0.
-281.844 -318.801 0.
-307.579 -279.768 0.
-524.498 -503.841 0.
-408.361 -196.613 0.
-64.5185 -29.0582 0.
-308.378 -222.598 0.
-434.814 -547.769 0.
-94.7251 -104.264 0.
-62.3151 -48.5084 0.
-352.177 -333.214 0.
-52.115 -30.6741 0.
-47.7291 -27.5867 0.
-52.1988 -30.5437 0.
-24.596 -21.8416 0.
-50.3854 -36.0498 0.
-11.2037 -20.33 0.
0.137508 0.0504084 0.
-0.428853 -0.000207982 0.
0.140197 0.0889326 0.
0.298865 0.00170278 0.
-143.242 -53.3903 0.
-34.8094 -15.1947 0.
-40.3433 -18.0407 0.
-23.8184 -17.4878 0.
-34.8049 -34.13 0.
-1.56975 -2.3766 0.
-30.2375 -71.2915 0.
-57.8934 -155.544 0.
-41.9577 -95.8298 0.
-26.1782 -60.4439 0.
0.22204 0.538598 0.
-52.1305 -144.316 0.
0.00127588 0.0620918 0.
-791.716 -686.934 0.
-18.4728 -49.3215 0.
-1240.73 -2058.54 0.
-199.237 -405.625 0.
-0.237297 -2.5492 0.
-104.853 -142.923 0.
-628.039 -800.226 0.
-78.7469 -124.039 0.
-3.30529 -14.7434 0.
-1.67372 -3.04332 0.
-0.740881 -4.90313 0.
-695.292 -1067.94 0.
2.70915 6.00484 0.
-1123.96 -2186.97 0.
-1013.44 -2274.75 0.
-0.157573 -0.0301561 0.
-504.922 -1114.13 0.
-6.03591 -14.1402 0.
-16.6516 -41.4911 0.
0.145717 0.313798 0.
-66.2988 -183.633 0.
-21.6394 -56.7143 0.
-1506.7 -2162.12 0.
-27.9402 -69.7958 0.
-4.22332 -6.82793 0.
-2723.38 -5641.3 0.
-26.6379 -60.8412 0.
-2221.93 -3425.54 0.
-15.775 -42.9279 0.
-1.36968 -3.1718 0.
-2483.6 -5344.43 0.
-34.0139 -24.2635 0.
-33.7582 -23.8931 0.
-2270.32 -5165.83 0.
-280.398 -182.742 0.
-1696.43 -3212.8 0.
-828.762 -1302.1 0.
-34.5616 -12.7213 0.
-1146.8 -2474.49 0.
-657.775 -1352.44 0.
-208.998 -186.735 0.
-702.985 -1471.44 0.
-495.581 -968.008 0.
-312.383 -484.837 0.
-700.938 -1405.62 0.
-666.383 -1332.84 0.
-408.236 -747.894 0.
-441.117 -832.146 0.
-490.973 -949.694 0.
-302.526 -808.206 0.
-357.484 -953.839 0.
-416.361 -1099.11 0.
-312.542 -850.127 0.
-324.647 -897.211 0.
-342.138 -944.57 0.
-20.3927 -24.5519 0.
-153.223 -341.97 0.
-588.904 -1629.23 0.
-52.0819 -125.288 0.
-0.121984 -0.711606 0.
-337.803 -935.653 0.
-321.428 -887.252 0.
-307.225 -838.187 0.
-396.926 -1072.87 0.
-325.248 -895.104 0.
-260.037 -704.443 0.
-439.114 -927.447 0.
-404.458 -848.645 0.
-373.44 -781.093 0.
-674.497 -1408.21 0.
-743.434 -1547.85 0.
-288.364 -331.01 0.
-547.37 -1049.5 0.
-829.874 -1745.29 0.
-2.67221 -6.26052 0.
-693.853 -1338.98 0.
-1369.52 -2917.1 0.
-45.4555 -22.3787 0.
-869.795 -1142.04 0.
-1931.84 -3558.8 0.
-37.8163 -29.7875 0.
-2397.31 -5035.33 0.
-66.6628 -76.6572 0.
-3.96539 -9.72549 0.
-2643.68 -5306.83 0.
-25.0371 -15.8623 0.
-5.32916 -2.70922 0.
-2433.71 -4088.55 0.
-14.0897 -8.86647 0.
-1882.18 -2679.29 0.
-58.4381 -79.2422 0.
-2063.92 -4242.95 0.
-0.752461 -1.13475 0.
-30.6092 -68.4601 0.
-10.2647 -27.2975 0.
-63.7249 -143.602 0.
-22.2595 -46.7457 0.
-1821.96 -3666.65 0.
-62.9291 -174.111 0.
-7.8933 -19.1805 0.
-774.071 -1643.77 0.
2.39639 5.81981 0.
-193.018 -275.84 0.
2.21632 4.39105 0.
-963.642 -1933.31 0.
9.20844 19.1017 0.
-58.551 -284.782 0.
-28.9102 -32.0836 0.
-185.391 -300.526 0.
-1261.07 -2121.76 0.
-0.625635 -14.8176 0.
-756.251 -1240.43 0.
-50.239 -95.1725 0.
-113.173 -254.688 0.
-0.074809 -5.75637 0.
0.0919848 0.564676 0.
-2.98301 -3.36033 0.
-34.5197 -84.2907 0.
-9.39708 -22.967 0.
-539.961 -984.525 0.
-50.1624 -109.983 0.
-2070.19 -4458.38 0.
0.0556112 0.831786 0.
-27.6736 -65.5586 0.
-0.00646478 -0.0582664 0.
0.00124116 0.00326265 0.
-9.03244 -16.7099 0.
-49.0629 -118.446 0.
-9.2893 -25.6768 0.
-0.00683441 -0.0344672 0.
-52.0396 -37.6279 0.
-28.3748 -19.2999 0.
-26.8336 -17.1241 0.
-42.6591 -20.637 0.
-48.2135 -19.7381 0.
-307.739 -224.646 0.
-4.94011 -2.17131 0.
-9.46855 -4.13487 0.
-525.515 -990.13 0.
-12.1994 -4.83226 0.
-23.0896 -12.9312 0.
-453.322 -1009.46 0.
-267.242 -489.886 0.
-165.863 -167.346 0.
-528.581 -1221.35 0.
-488.889 -1158.1 0.
-266.44 -608.823 0.
-289.761 -655.35 0.
-332.335 -752.088 0.
-216.251 -582.105 0.
-265.826 -734.594 0.
-319.154 -883.798 0.
-208.961 -560.442 0.
-221.515 -609.362 0.
-236.641 -655.364 0.
-180.361 -369.409 0.
-405.219 -944.236 0.
-692.838 -1883.64 0.
-287.3 -698.005 0.
-84.2518 -187.698 0.
-237.577 -657.596 0.
-222.572 -611.694 0.
-208.684 -565.005 0.
-298.764 -826.665 0.
-235.928 -647.335 0.
-176.031 -466.382 0.
-265.125 -732.376 0.
-237.226 -652.773 0.
-219.066 -579.445 0.
-457.865 -1145.73 0.
-517.615 -1281.99 0.
-32.8955 -14.4887 0.
-281.746 -383.722 0.
-534.981 -1110.61 0.
-10.8798 -9.67385 0.
-8.04069 -5.81064 0.
-529.104 -812.175 0.
-43.0933 -21.8696 0.
-22.5306 -15.3498 0.
-31.8101 -22.1369 0.
-24.4966 -15.2192 0.
-65.2908 -51.4747 0.
-18.0119 -31.1296 0.
-2.20284 -6.09306 0.
-1.02135 -2.74896 0.
-28.2499 -20.3797 0.
-6.84228 -4.79883 0.
0.294676 0.00721388 0.
-78.828 -112.279 0.
-76.1135 -134.309 0.
-12.5676 -34.7397 0.
-23.2976 -27.09 0.
0.0046323 0.762749 0.
-1636.7 -2717.16 0.
-1044.93 -2213.7 0.
-327.848 -810.458 0.
-15.8119 -29.2949 0.
1.92816 5.25044 0.
-167.24 -453.746 0.
-587.819 -1270.57 0.
-799.107 -1510.08 0.
-1.00717 -2.2045 0.
-0.229337 -1.77791 0.
0.0082076 2.56259 0.
-5.18294 -9.50574 0.
4.46113 7.99051 0.
-236.5 -221.498 0.
9.02368 38.3196 0.
-1094.16 -1298.64 0.
5.01539 8.42268 0.
0.394637 0.918135 0.
2.33505 5.77297 0.
-17.2534 -28.121 0.
-593.414 -1208.96 0.
-0.242419 -0.613804 0.
-10.6896 -27.424 0.
-802.777 -1870.22 0.
-127.923 -190.235 0.
-4.03668 -9.69655 0.
-1085.54 -1788.37 0.
0.381421 1.00726 0.
-64.5024 -172.785 0.
0.00195572 0.070604 0.
-27.2857 -63.7261 0.
0.280019 0.710314 0.
-2.09666 -3.65932 0.
-168.574 -221.663 0.
-1808.25 -3610.34 0.
-9.23912 -23.762 0.
-9.58655 -22.9524 0.
-2101.24 -4868.28 0.
-32.7882 -17.1939 0.
-23.8184 -16.9164 0.
-2234.93 -4837.35 0.
-23.6927 -15.5023 0.
-1727.77 -3465.42 0.
-498.94 -600.916 0.
-23.3667 -27.097 0.
-1421.16 -3225.88 0.
-600.735 -1245.88 0.
-27.3744 -15.0412 0.
-928.916 -2208.83 0.
-532.944 -1238.74 0.
-164.079 -243.349 0.
-718.967 -1729.54 0.
-616.039 -1563.92 0.
-423.732 -1066.87 0.
-400.718 -1068.16 0.
-411.941 -1093.2 0.
-324.016 -885.581 0.
-352.429 -975.667 0.
-384.192 -1060.07 0.
-307.178 -820.109 0.
-248.306 -650.368 0.
-193.023 -493.882 0.
-235.962 -515.427 0.
-339.249 -807.923 0.
-673.707 -1864.32 0.
-209.503 -519.164 0.
-136.635 -321.164 0.
-203.512 -541.048 0.
-246.875 -662.667 0.
-293.108 -793.506 0.
-382.452 -1058.35 0.
-349.966 -966.977 0.
-321.018 -872.89 0.
-401.937 -1109.06 0.
-419.202 -1141.26 0.
-459.247 -1159.52 0.
-609.982 -1617.27 0.
-760.459 -1876.28 0.
-124.412 -77.9311 0.
-582.498 -1310.67 0.
-1070.19 -2522.15 0.
-24.5433 -23.6623 0.
-546.931 -951.715 0.
-1654.63 -3790 0.
-22.8923 -21.4789 0.
-421.482 -210.241 0.
-1914.73 -3287.67 0.
-9.1954 -3.3992 0.
-2401.54 -5669.58 0.
-16.9326 -17.4397 0.
-17.4221 -21.2239 0.
-1964.52 -2387.81 0.
-42.6646 -51.7881 0.
-2266.62 -4997.09 0.
-908.023 -1091.78 0.
-324.634 -452.036 0.
-66.798 -143.252 0.
-0.0214561 -0.0532545 0.
0.0969314 0.0807255 0.
3.77077e-05 0.0418827 0.
-0.257865 -1.40789 0.
-19.3525 -39.0309 0.
-53.9331 -96.5574 0.
-10.032 -16.0537 0.
2.46737 6.65183 0.
-0.334652 -6.53931 0.
-1.97372 -4.53074 0.
2.99677 5.53728 0.
1.9008 3.47619 0.
-238.714 -446.651 0.
4.04762 10.1411 0.
-143.972 -196.938 0.
-711.102 -994.503 0.
59.5964 84.0875 0.
7.60983 10.8331 0.
31.9732 42.509 0.
-1.37679 -8.81998 0.
-1.48317 -2.92767 0.
-0.0124801 -7.59105 0.
-1.79858 -2.52216 0.
-0.388348 -5.82944 0.
-24.0195 -57.397 0.
-193.86 -533.519 0.
1.29861 12.8417 0.
-159.868 -258.862 0.
-853.739 -1745.38 0.
0.0579957 0.360402 0.
0.624176 1.5675 0.
-124.985 -314.303 0.
-29.1087 -68.2257 0.
-2237.3 -4165.64 0.
-4.93921 -12.8707 0.
-1669.18 -2989.92 0.
-5.30426 -9.13581 0.
-1.39382 -3.54956 0.
-26.3695 -54.1373 0.
-8.49208 -11.6542 0.
-19.3747 -22.7663 0.
-10.0525 -5.75278 0.
-12.6679 -10.2412 0.
-10.9864 -6.05746 0.
-8.06697 -3.9117 0.
-6.52732 -5.74784 0.
-8.24346 -10.8439 0.
-10.1531 -15.757 0.
-392.871 -783.573 0.
-10.181 -9.44165 0.
-7.0654 -4.04519 0.
-449.386 -1147.78 0.
-84.1385 -147.138 0.
-13.6591 -23.9606 0.
-459.463 -1190.76 0.
-376.243 -1011.73 0.
-294.455 -760.681 0.
-278.238 -752.097 0.
-282.247 -765.937 0.
-253.114 -683.97 0.
-281.451 -775.086 0.
-311.045 -860.115 0.
-334.775 -898.996 0.
-288.995 -759.079 0.
-245.486 -627.285 0.
-311.889 -737.188 0.
-393.158 -995.605 0.
-345.043 -951.708 0.
-313.557 -791.514 0.
-246.116 -581.91 0.
-245.763 -653.582 0.
-284.37 -765.833 0.
-325.439 -885.98 0.
-300.569 -832.222 0.
-269.592 -741.842 0.
-239.801 -648.869 0.
-230.997 -639.617 0.
-247.145 -673.911 0.
-274.847 -705.539 0.
-297.375 -797.23 0.
-420.533 -1082.27 0.
-12.5393 -16.6921 0.
-9.33007 -9.49837 0.
-463.618 -1157 0.
-8.77338 -9.09463 0.
-5.49761 -7.71519 0.
-362.528 -637.325 0.
-25.2571 -25.0444 0.
-8.13092 -4.06273 0.
-20.5622 -11.5928 0.
-7.56576 -2.99079 0.
-26.3212 -17.7358 0.
0.219013 0.173628 0.
-14.1678 -15.5052 0.
-43.5088 -66.2745 0.
0.0131723 0.0501205 0.
-0.138535 -0.291972 0.
0.155964 0.061976 0.
-7.7953e-05 -0.00141486 0.
-663.095 -1045.79 0.
-1856.2 -4115.28 0.
0.100003 0.132843 0.
0.138217 1.45076 0.
0.100324 1.19552 0.
-42.1053 -94.1793 0.
-1188.24 -2520.14 0.
-3.29875 -4.5404 0.
0.481554 1.1993 0.
-437.521 -972.299 0.
-1.18634 -2.52284 0.
-1130.06 -2113.73 0.
-1.84487 -2.97547 0.
-5.73342 -11.5528 0.
-0.0976069 -1.41458 0.
-642.535 -1041.45 0.
-12.3451 -17.1377 0.
31.8037 49.6101 0.
-14.9186 -33.9128 0.
-1083.21 -1612.15 0.
9.86237 17.7077 0.
6.37994 11.6859 0.
-0.257337 -13.7335 0.
-0.886327 -19.3257 0.
-14.8182 -27.1106 0.
-0.940054 -14.2002 0.
-893.631 -1659.85 0.
-0.035258 -17.408 0.
-207.299 -410.282 0.
-509.787 -1133.23 0.
-112.933 -304.004 0.
0.0575269 0.795756 0.
-1168.88 -2683.01 0.
-0.0825575 -1.2237 0.
-21.337 -47.8114 0.
-0.157191 -0.34719 0.
-11.5934 -26.8292 0.
-6.28453 -12.9768 0.
-1.75981 -4.20113 0.
-57.9093 -87.2988 0.
-15.992 -11.0777 0.
-15.8148 -12.0624 0.
-0.13097 -0.122238 0.
-5.53587 -1.99876 0.
-6.63558 -3.71563 0.
-1.76295 -1.16227 0.
-7.41283 -7.62164 0.
-9.38243 -10.9391 0.
-13.5917 -21.3125 0.
-2.31464 -2.56874 0.
-0.705726 -0.41038 0.
-1.41927 -0.665372 0.
-44.6782 -58.5029 0.
-1.81312 -3.88447 0.
-6.0897 -15.0825 0.
-48.0949 -89.9527 0.
-26.6633 -25.2177 0.
-31.341 -77.0698 0.
-17.6808 -43.7794 0.
-38.8706 -106.136 0.
-11.6771 -30.1583 0.
-68.3209 -186.078 0.
-9.82006 -23.3512 0.
-85.0475 -219.771 0.
-24.0635 -59.2867 0.
-57.4306 -140.683 0.
-79.6419 -189.436 0.
-141.528 -354.789 0.
-58.5892 -156.898 0.
-56.6183 -144.283 0.
-41.5615 -99.8665 0.
-18.2289 -45.94 0.
-92.1633 -240.004 0.
-39.9035 -102.446 0.
-6.04808 -15.7126 0.
-23.0353 -63.7609 0.
-15.0505 -40.8919 0.
-20.82 -57.3874 0.
0.0187664 0.0264693 0.
-0.0172885 -0.00961599 0.
-9.10593 -14.8564 0.
-69.2572 -169.972 0.
-11.6851 -15.9776 0.
-8.6552 -8.96361 0.
-5.57156 -2.76642 0.
-8.15278 -6.854 0.
-7.94783 -8.7721 0.
-10.5174 -16.3376 0.
-65.4724 -43.3995 0.
-9.18474 -6.47932 0.
-25.2649 -14.3146 0.
-12.4126 -5.91736 0.
-11.749 -6.01052 0.
-3.52768 -2.41385 0.
-17.962 -18.6206 0.
-34.4522 -55.939 0.
-0.114932 -0.625577 0.
-0.251919 -0.744139 0.
-8.78916 -3.91003 0.
-28.0937 -15.9669 0.
0.0552838 0.436704 0.
-9.82236 -26.8934 0.
-62.7659 -152.787 0.
-1464.75 -3051.27 0.
-0.105022 -3.31852 0.
-63.5384 -152.534 0.
-127.377 -194.886 0.
0.21193 8.56831 0.
-1358.87 -2951.09 0.
2.53983 6.64262 0.
-1.4775 -7.99723 0.
2.39049 5.36478 0.
-1311.37 -2044.29 0.
-0.00427419 -4.94923 0.
0.161335 0.300317 0.
7.62322 15.427 0.
-318.617 -429.225 0.
-26.9792 -93.6413 0.
6.41994 8.89839 0.
-170.269 -273.667 0.
-15.2753 -33.6567 0.
0.97563 1.83072 0.
2.52549 6.34166 0.
-197.035 -451.715 0.
0.974825 1.6031 0.
-19.8827 -45.2085 0.
3.09055 8.32438 0.
3.23296 8.09985 0.
-308.887 -660.592 0.
4.96353 13.6098 0.
-140.941 -370.643 0.
-1177.28 -2238.96 0.
0.20776 1.30043 0.
-0.0103335 -0.108912 0.
-22.7334 -40.7272 0.
-6.83598 -9.46638 0.
-12.6968 -33.9585 0.
-1239.8 -2696.52 0.
-17.3406 -31.9657 0.
-2028.25 -2936.66 0.
-12.8739 -22.4662 0.
-1642.74 -3409.91 0.
-13.5467 -14.0909 0.
-0.279243 -0.0211515 0.
-2007.22 -4716.41 0.
-11.058 -17.1931 0.
-1955.84 -3328.66 0.
-98.547 -89.175 0.
-11.1849 -17.2136 0.
-1861.76 -4543.12 0.
-179.598 -326.554 0.
-13.2933 -27.2134 0.
-1190.83 -3007.26 0.
-436.763 -1121.67 0.
-36.3256 -66.841 0.
-829.141 -2151.93 0.
-542.991 -1469.42 0.
-525.235 -1370.21 0.
-405.379 -1099.99 0.
-300.862 -832.358 0.
-375.055 -1014.61 0.
-304.751 -828.78 0.
-236.365 -645.893 0.
-371.59 -996.608 0.
-275.749 -727 0.
-178.802 -461.913 0.
-306.68 -770.113 0.
-411.386 -1098.5 0.
-252.532 -683.877 0.
-335.93 -894.663 0.
-242.035 -604.239 0.
-162.192 -414.245 0.
-278.148 -737.389 0.
-394.34 -1068.32 0.
-239.913 -652.348 0.
-342.073 -925.198 0.
-447.199 -1200.13 0.
-307.484 -840.168 0.
-445.857 -1189.62 0.
-596.177 -1530.16 0.
-515.617 -1399.23 0.
-924.284 -2406.31 0.
-29.0696 -61.0433 0.
-404.027 -947.498 0.
-1393.4 -3367.78 0.
-48.9583 -47.8974 0.
-11.1678 -6.48801 0.
-1978.77 -4949.78 0.
-13.4325 -11.1149 0.
-11.8947 -8.79278 0.
-2029.64 -3057.33 0.
-0.746823 -1.524 0.
-2180.81 -5311.16 0.
-0.273633 -0.438269 0.
-4.70925 -6.44071 0.
-1952.98 -2674.48 0.
0.625892 1.12423 0.
-1769.13 -3595.2 0.
-100.148 -149.362 0.
-83.4751 -41.8215 0.
0.0132053 0.149156 0.
-0.390497 -1.08108 0.
-32.5277 -76.9013 0.
-46.9991 -99.8793 0.
-321.656 -768.734 0.
-88.8627 -223.301 0.
-96.0843 -137.877 0.
-0.00464235 -13.7781 0.
6.77698 17.8937 0.
0.0870606 0.197847 0.
2.86093 6.19191 0.
6.55482 12.6993 0.
-2.14929 -10.6996 0.
0.056078 5.93343 0.
-625.125 -1054.4 0.
24.1908 45.5309 0.
-1435.13 -2067.08 0.
45.5651 74.3302 0.
21.3283 28.1208 0.
78.0337 123.252 0.
32.524 50.7092 0.
-604.687 -988.659 0.
-2.25164 -19.9482 0.
-2.61865 -6.23859 0.
0.176872 0.25955 0.
-999.281 -2134.74 0.
0.162648 0.422385 0.
-625.284 -1437.5 0.
12.7379 31.9045 0.
0.275308 0.734302 0.
-165.571 -433.811 0.
-332.534 -726.675 0.
0.0933886 0.933177 0.
-0.825208 -1.77338 0.
-0.0764126 -0.211628 0.
-1077.91 -1542.24 0.
0.000570235 0.352104 0.
-0.111221 -0.49162 0.
-23.548 -38.1936 0.
0.206619 0.564944 0.
0.164693 0.450646 0.
-28.1521 -51.632 0.
-0.502088 -0.0157382 0.
0.10489 0.0454958 0.
-0.0733721 -0.0425612 0.
-6.96982 -5.40703 0.
-15.0213 -27.2701 0.
-8.99629 -13.9769 0.
-6.23867 -6.7464 0.
-9.01967 -9.91649 0.
-9.14513 -11.6903 0.
-13.0501 -21.2666 0.
-368.288 -907.823 0.
-11.754 -24.7429 0.
-18.3271 -37.8595 0.
-410.669 -1083 0.
-132.447 -364.366 0.
-286.285 -745.216 0.
-175.092 -469.116 0.
-96.2858 -263.71 0.
-312.592 -845.162 0.
-243.75 -659.776 0.
-175.307 -474.4 0.
-368.908 -997.39 0.
-272.871 -726.827 0.
-176.422 -456.937 0.
-362.647 -972.251 0.
-470.146 -1298.26 0.
-152.488 -415.555 0.
-393.96 -1078.24 0.
-300.925 -789.78 0.
-160.477 -427.374 0.
-275.924 -753.654 0.
-393.642 -1087.04 0.
-128.532 -349.287 0.
-230.551 -623.823 0.
-333.938 -899.873 0.
-46.6876 -124.934 0.
-149.529 -390.991 0.
-292.064 -741.158 0.
-16.3987 -45.3113 0.
-424.166 -1112.35 0.
-11.2155 -24.4467 0.
-7.20137 -15.7765 0.
-202.921 -417.716 0.
-38.4024 -37.0782 0.
-18.526 -9.472 0.
-12.9236 -4.86623 0.
-15.2091 -10.4089 0.
-11.0967 -6.25705 0.
-26.3384 -29.493 0.
-0.313697 -0.704864 0.
-0.45826 -0.938207 0.
0.173228 0.393041 0.
-0.0722872 -0.308605 0.
-24.4424 -47.8275 0.
-0.0304827 -0.106436 0.
0.574793 0.952299 0.
-0.00470041 -0.0683176 0.
-1647.89 -3621.44 0.
2.2861 6.23898 0.
0.293029 0.811481 0.
-8.19425 -18.7765 0.
-17.5284 -35.7008 0.
-187.956 -449.638 0.
-229.454 -376.987 0.
-578.819 -1044.68 0.
-1026.77 -2231.36 0.
3.26546 8.17785 0.
3.00782 6.41229 0.
5.57658 12.0856 0.
-1.46954 -5.67425 0.
-1083.97 -1920.67 0.
-0.0313661 -0.890876 0.
-647.259 -1030.76 0.
-14.3694 -37.7384 0.
-8.52198 -12.8529 0.
57.9322 89.6512 0.
-2.99777 -3.80206 0.
-116.692 -170.061 0.
32.751 49.6711 0.
-16.1833 -27.6748 0.
-3.78001 -25.2534 0.
-87.3435 -186.341 0.
0.00282933 17.2291 0.
-0.462169 -1.02466 0.
-0.548012 -13.712 0.
-3.45353 -27.0617 0.
12.8274 30.4356 0.
7.04912 17.3096 0.
-219.619 -573.852 0.
0.00471438 2.48058 0.
1.41684 3.39965 0.
-13.7411 -36.3301 0.
-1404.55 -2762.41 0.
-16.0507 -28.5164 0.
0.000431541 0.984259 0.
-175.516 -332.141 0.
-33.2239 -47.6356 0.
0.325466 0.815453 0.
0.0031083 0.0203503 0.
-15.5382 -9.47058 0.
-981.943 -2148.46 0.
-17.8643 -19.0863 0.
-1426.16 -3275.95 0.
-13.4051 -25.4443 0.
-1675.05 -3028.22 0.
-3.43852 -2.61121 0.
-7.39969 -15.2425 0.
-1833.51 -4651.53 0.
-8.25145 -10.4767 0.
-38.6055 -60.9834 0.
-1429.95 -3497.26 0.
-263.474 -666.503 0.
-14.6257 -36.7171 0.
-988.873 -2547.33 0.
-467.939 -1246.15 0.
-645.985 -1626.25 0.
-414.884 -1075.08 0.
-197.71 -527.701 0.
-501.51 -1299.14 0.
-319.033 -829.587 0.
-139.432 -362.441 0.
-378.842 -985.267 0.
-273.923 -699.327 0.
-171.916 -422.567 0.
-315.853 -868.737 0.
-284.103 -778.971 0.
-226.159 -529.728 0.
-200.863 -541.738 0.
-236.904 -646.023 0.
-133.924 -344.63 0.
-271.721 -712.853 0.
-414.922 -1098.72 0.
-91.1005 -231.333 0.
-330.748 -848.295 0.
-572.428 -1471.23 0.
-174.338 -442.333 0.
-437.732 -1090.28 0.
-712.697 -1733.15 0.
-409.43 -1081.89 0.
-1087.92 -2808.83 0.
-30.7163 -83.0784 0.
-58.1244 -147.396 0.
-1554.97 -4015.59 0.
-81.0978 -89.8764 0.
-11.0147 -6.53388 0.
-1400.02 -2815.93 0.
-0.513564 -0.572419 0.
-1825.11 -3922.6 0.
-21.2028 -32.2235 0.
-24.7322 -31.3115 0.
-1191.99 -2722.94 0.
-235.131 -413.888 0.
-0.0218856 -0.179624 0.
-14.976 -32.2565 0.
0.785385 1.26266 0.
0.773274 1.20748 0.
-0.0434581 -1.80772 0.
0.138965 0.257867 0.
2.93354 8.05357 0.
-1118.03 -2536.74 0.
1.25124 2.78511 0.
-75.5085 -150.829 0.
-846.672 -2004.72 0.
-117.572 -184.191 0.
9.57966 26.5185 0.
12.0645 29.8658 0.
-657.224 -1563.99 0.
-2.37954 -13.6711 0.
-705.111 -1502.29 0.
6.86616 11.1045 0.
16.2168 32.1476 0.
11.5369 27.5249 0.
-225.388 -374.48 0.
28.9622 43.7403 0.
53.0246 81.0239 0.
43.2796 63.4428 0.
2.37392 2.90347 0.
-16.382 -104.892 0.
43.4714 70.4404 0.
-1114.54 -1816.45 0.
-0.853014 -15.3963 0.
-1319.89 -2470.95 0.
9.3323 24.9997 0.
-4.56169 -8.93613 0.
0.971595 2.35119 0.
7.81214 15.6104 0.
-508.957 -1152.58 0.
-859.264 -1943.06 0.
10.9017 26.0278 0.
-0.0987843 -6.49438 0.
0.82418 2.05874 0.
-416.766 -943.049 0.
0.984629 1.95108 0.
0.0806383 0.386859 0.
0.0030763 1.04978 0.
-363.298 -793.533 0.
-322.255 -425.542 0.
-1510.72 -2921.31 0.
0.451211 0.819624 0.
-835.87 -1905.28 0.
-0.0140047 -0.00746757 0.
-0.188586 -0.0414027 0.
-15.9343 -33.1801 0.
0.0786039 0.0350438 0.
-0.0546421 -0.0540773 0.
-0.331285 -0.502402 0.
-4.40283 -7.60709 0.
-9.08577 -15.5395 0.
-4.85679 -4.6059 0.
-15.481 -23.3583 0.
-65.793 -154.12 0.
-3.50555 -7.81639 0.
-5.18357 -12.1126 0.
-382.298 -987.862 0.
-2.26392 -6.26276 0.
-321.704 -803.606 0.
-91.2639 -230.904 0.
-26.9505 -65.9596 0.
-353.904 -941.725 0.
-177.367 -471.263 0.
-26.5348 -70.3516 0.
-321.537 -875.338 0.
-222.644 -601.605 0.
-134.684 -357.057 0.
-354.016 -892.993 0.
-323.229 -812.971 0.
-156.965 -430.234 0.
-233.564 -644.11 0.
-263.95 -725.089 0.
-74.2944 -200.341 0.
-207.408 -565.56 0.
-345.19 -944.364 0.
0.0304608 0.150569 0.
-136.528 -354.769 0.
-372.429 -978.431 0.
-22.2445 -55.9276 0.
-7.75806 -20.2925 0.
-276.808 -667.993 0.
-2.91626 -8.0354 0.
-359.962 -920.346 0.
-6.96669 -18.505 0.
-2.24028 -5.77574 0.
-9.9139 -26.3948 0.
-8.49611 -10.1506 0.
-0.467129 -0.69785 0.
-0.41825 -0.51999 0.
-0.20799 -0.230988 0.
-255.161 -657.425 0.
0.251208 0.297273 0.
-0.0677753 -0.140012 0.
-9.88653 -14.883 0.
0.45311 1.05674 0.
-1909.1 -3978.62 0.
-0.71065 -1.17095 0.
-5.25606 -8.05179 0.
-1418.26 -1988.93 0.
-0.054071 -3.83247 0.
1.41013 2.95195 0.
2.97631 8.18992 0.
-100.517 -193.967 0.
-412.609 -839.59 0.
-71.2671 -139.039 0.
0.0495992 16.7282 0.
-62.5728 -96.6631 0.
-0.139874 -14.215 0.
-889.811 -2153.01 0.
-26.7397 -54.711 0.
-1.13106 -20.3209 0.
-2.48409 -21.8697 0.
13.823 34.4065 0.
20.9525 37.7501 0.
-2.10502 -13.8557 0.
-889.54 -1446.12 0.
32.5978 47.5552 0.
53.4561 65.1051 0.
-1215.58 -1675.78 0.
-21.8884 -28.8794 0.
41.3411 84.7481 0.
-434.718 -698.92 0.
-6.96929 -11.7349 0.
11.6836 25.1084 0.
-8.02179 -36.2365 0.
-0.792354 -21.8592 0.
-1222.36 -2175.23 0.
-1.23958 -14.9348 0.
-814.12 -1519.75 0.
-444.958 -946.337 0.
1.94949 5.01848 0.
4.21665 10.0173 0.
-0.945051 -18.5029 0.
0.512793 1.32186 0.
1.76087 4.16383 0.
-0.593071 -4.81868 0.
-0.112901 -0.686919 0.
-1596.04 -3233.06 0.
-896.195 -1318.64 0.
-0.130121 -0.335531 0.
1.44568 0.515359 0.
1.14948 0.0287945 0.
-0.0653528 -0.0678247 0.
-0.36174 -0.449242 0.
0.546714 0.0404183 0.
-6.5376 -12.6923 0.
0.10942 0.0629191 0.
-0.103898 -0.108898 0.
-0.0817944 -0.219647 0.
-1.28281 -2.2685 0.
-7.6482 -12.0425 0.
-4.49716 -4.13787 0.
-15.2019 -24.2644 0.
-2.15417 -4.5188 0.
-3.94382 -8.72777 0.
-5.62091 -12.9602 0.
-0.00314181 -0.0789848 0.
0.147224 0.018562 0.
-11.1029 -22.9418 0.
-12.7999 -26.8665 0.
-19.3751 -41.6177 0.
-152.621 -413.583 0.
-15.6845 -43.4412 0.
-12.1293 -33.2341 0.
-177.016 -490.199 0.
-126.073 -349.185 0.
-21.6375 -58.2145 0.
-228.663 -259.913 0.
-218.666 -260.915 0.
-55.601 -149.036 0.
-67.8229 -175.8 0.
-254.838 -535.081 0.
-0.832964 -2.30555 0.
-114.132 -315.976 0.
-185.015 -512.451 0.
0.0944122 0.00430836 0.
-3.85221 -9.2177 0.
-135.937 -360.308 0.
-11.9924 -30.7614 0.
-2.96189 -7.75911 0.
-5.69612 -15.5786 0.
-1.37597e-06 -0.0638131 0.
-0.00117117 -0.167552 0.
-2.36057 -6.02956 0.
-0.412562 -0.969058 0.
-0.506341 -1.19021 0.
0.0141192 0.0364492 0.
-0.0291141 -0.179459 0.
-0.0832029 -0.257784 0.
-0.243275 -0.267051 0.
-17.6373 -15.6422 0.
-0.00776422 -0.0204536 0.
-0.0184834 -0.0619788 0.
-0.00196716 -0.00345556 0.
0.00941445 0.307145 0.
-0.0720864 -0.793031 0.
-0.460012 -1.71218 0.
1.30108 2.09936 0.
1.68419e-06 0.191955 0.
-1154.04 -2918.15 0.
2.08558 5.74853 0.
2.4816 6.83147 0.
-52.2512 -99.8263 0.
-880.043 -1846.76 0.
-60.9706 -116.728 0.
-0.149172 -8.76232 0.
-3.90849 -9.71258 0.
9.76844 24.9583 0.
12.1735 31.859 0.
-45.5735 -87.2467 0.
0.161104 0.387588 0.
-5.91906 -11.9959 0.
-2.61933 -27.8731 0.
-1167.23 -1946.75 0.
22.9678 49.2402 0.
19.7872 34.4226 0.
-30.4604 -96.1397 0.
-12.5692 -58.0964 0.
0.138914 0.181919 0.
37.3922 42.7627 0.
23.1624 50.6596 0.
-26.2613 -42.1165 0.
-173.951 -294.325 0.
4.41092 8.53435 0.
25.9271 46.0844 0.
-2.69343 -35.4865 0.
-1.58761 -3.31599 0.
0.158062 3.92786 0.
-6.35636 -33.0953 0.
-0.793595 -8.77339 0.
0.634328 1.5712 0.
-169.323 -400.207 0.
-1075.03 -2473.79 0.
9.95435 24.4537 0.
-117.068 -266.965 0.
-0.579531 -5.82167 0.
-247.953 -559.744 0.
-22.6414 -53.2018 0.
-0.0165532 -7.34479 0.
0.220013 3.71349 0.
3.37843 0.65896 0.
1.29092 0.323504 0.
-81.3191 -127.996 0.
-1394.7 -2708 0.
0.138092 0.329606 0.
-1408.36 -2569.81 0.
-8.68688 -16.3744 0.
-19.9912 -51.0476 0.
-1955.54 -4311.76 0.
-0.104746 -0.191733 0.
-1252.37 -2629.67 0.
-4.63272 -6.6188 0.
-75.0494 -128.369 0.
-1496.84 -3823.16 0.
-19.1354 -52.4401 0.
-19.1375 -52.9851 0.
-1211.89 -3127.29 0.
-157.437 -410.836 0.
-836.897 -2032.73 0.
-394.788 -965.078 0.
-56.7513 -141.32 0.
-682.386 -1806.75 0.
-353.55 -935.453 0.
-34.4681 -91.295 0.
-492.96 -1345.9 0.
-304.758 -832.376 0.
-130.327 -352.137 0.
-439.619 -1006.23 0.
-398.464 -897.119 0.
-180.338 -495.023 0.
-327.293 -830.553 0.
-403.453 -1022.04 0.
-92.5259 -250.25 0.
-313.409 -858.914 0.
-562.568 -1540.16 0.
-1.58597 -4.35145 0.
-364.384 -952.945 0.
-794.22 -2086.47 0.
-20.047 -47.8856 0.
-404.606 -946.22 0.
-928.844 -2163.7 0.
-50.5552 -124.304 0.
-1308.29 -3374.87 0.
-15.1116 -40.9587 0.
-17.7045 -48.8357 0.
-1606.86 -4010.07 0.
-26.501 -60.8334 0.
-8.55314 -22.3567 0.
-1711.18 -2776.49 0.
-16.1653 -34.6723 0.
-1664.42 -3718.91 0.
-84.9521 -166.244 0.
-89.8061 -181.275 0.
-1525.04 -2859.51 0.
-0.000344566 -2.43505 0.
-984.376 -2522.91 0.
-0.576531 -2.4724 0.
-0.137665 -0.232451 0.
2.27097 6.19753 0.
-41.9429 -112.028 0.
-0.0491971 -11.3251 0.
-1177.49 -2843.93 0.
-29.6994 -56.3692 0.
-0.212542 -11.5162 0.
-147.993 -303.525 0.
7.48445 18.3946 0.
19.7458 48.0343 0.
-0.347856 -0.909233 0.
-0.973978 -11.3417 0.
-1142.13 -2101.39 0.
-0.547643 -1.30144 0.
-1296.23 -2510.85 0.
-3.41647 -7.2893 0.
-7.78936 -36.3926 0.
9.51285 18.291 0.
-223.598 -396.462 0.
27.5723 43.9071 0.
-8.45842 -137.6 0.
-10.9362 -14.2287 0.
19.3546 22.2579 0.
-124.197 -205.101 0.
36.6885 58.2584 0.
24.2269 47.7622 0.
-5.82188 -30.782 0.
-843.342 -1455.29 0.
4.08194 8.86376 0.
11.0927 22.3486 0.
-2.5426 -29.8501 0.
-105.83 -198.567 0.
19.718 42.5218 0.
-2.3976 -33.5124 0.
-568.423 -1415.79 0.
-0.817607 -25.2448 0.
-2.56103 -52.234 0.
-1039.2 -2282.8 0.
-0.0896513 -0.204869 0.
-14.7845 -33.4201 0.
-3.00118 -7.38316 0.
4.35749 12.0095 0.
-0.0191066 -2.28313 0.
0.0316326 0.427463 0.
-1506.86 -3081.28 0.
0.269101 0.478899 0.
-19.9161 -46.3207 0.
-0.0385698 -0.717029 0.
-15.9126 -35.0415 0.
0.121661 0.25282 0.
-27.6184 -61.499 0.
-0.205285 -0.289795 0.
-0.0396694 -0.0743052 0.
0.0724594 0.073812 0.
-2.69833 -3.68789 0.
-24.3261 -50.0856 0.
-8.09438 -22.3764 0.
-4.18262 -11.4634 0.
-5.92351 -15.9459 0.
-276.801 -707.59 0.
-3.28064 -9.02974 0.
-282.955 -688.459 0.
-10.9835 -26.5654 0.
-13.2639 -32.2661 0.
-389.682 -1054.28 0.
-81.2563 -219.766 0.
-11.285 -29.8267 0.
-397.638 -1097.47 0.
-236.408 -650.935 0.
-75.7639 -207.896 0.
-404.902 -919.128 0.
-364.899 -815.028 0.
-37.0548 -89.3334 0.
-300.064 -729.843 0.
-353.897 -873.388 0.
-0.0156235 -0.0239536 0.
-193.612 -536.271 0.
-415.6 -1151.14 0.
-0.394297 -1.08562 0.
-0.644282 -1.78266 0.
-404.003 -1086.91 0.
-9.67743 -22.4843 0.
-3.67931 -8.86985 0.
-227.902 -530.163 0.
-5.19557 -12.3196 0.
-204.585 -486.158 0.
-3.09844 -8.58189 0.
-5.09868 -14.1188 0.
-8.71332 -24.1192 0.
-9.69668 -25.7157 0.
-2.76123 -7.42533 0.
-2.27186 -6.10296 0.
0.285028 0.740383 0.
-8.95049 -20.2298 0.
-57.2944 -76.1479 0.
-19.9509 -20.773 0.
-19.7468 -17.3363 0.
-0.0256188 -1.63654 0.
-19.9611 -55.2842 0.
-1.06784 -2.46982 0.
-1010.94 -1933.47 0.
2.15107 5.77822 0.
-98.8579 -270.007 0.
4.9569 13.4883 0.
-82.9372 -179.822 0.
-29.772 -56.3486 0.
10.3907 25.5338 0.
21.2106 51.9001 0.
-996.2 -2279.5 0.
-814.356 -1950.31 0.
1.98664 5.09722 0.
6.47919 14.0623 0.
-4.6203 -37.8106 0.
19.8391 49.1901 0.
17.9877 41.0877 0.
-3.34611 -20.8314 0.
0.590982 1.11457 0.
-5.75904 -10.3042 0.
-802.043 -1450.23 0.
79.0469 118.074 0.
-1262.4 -1778.26 0.
-30.5482 -41.4309 0.
36.7936 42.5757 0.
-28.1838 -42.4487 0.
-127.431 -189.452 0.
-86.3282 -168.596 0.
17.6819 32.9025 0.
22.8606 45.3726 0.
-6.21526 -37.6271 0.
-711.222 -1400.39 0.
8.05511 17.1851 0.
-1127.94 -2096.97 0.
12.0931 27.1265 0.
21.6834 50.7443 0.
-84.747 -208.424 0.
0.407332 1.03727 0.
-71.3378 -178.309 0.
-0.717939 -28.5737 0.
-0.00307578 -3.15397 0.
-21.0873 -46.9109 0.
-1.83289 -4.61361 0.
-0.0103058 -12.3576 0.
-1139.37 -1873.43 0.
-0.126744 -2.27121 0.
-0.480025 -1.61426 0.
1.47802 3.07443 0.
-0.0596027 -0.872173 0.
-0.0187258 -0.432445 0.
-0.0291488 -0.530082 0.
-4.96669 -11.4915 0.
-212.541 -411.347 0.
-1408.48 -3723.82 0.
-0.0361926 -0.29577 0.
-1498.97 -2093.88 0.
-30.6091 -51.6836 0.
-92.6074 -125.27 0.
-1492.96 -3712.38 0.
-0.96254 -2.64856 0.
-19.2946 -53.2579 0.
-1293.89 -3317.35 0.
-9.45289 -23.728 0.
-944.129 -2185.62 0.
-340.778 -788.99 0.
-3.34358 -8.84317 0.
-815.611 -2143.53 0.
-309.493 -810.378 0.
-1.34914 -3.72431 0.
-561.19 -1519.01 0.
-305.844 -842.532 0.
-67.1571 -186.003 0.
-452.519 -1098.97 0.
-387.093 -945.809 0.
-81.2779 -213.062 0.
-350.028 -924.954 0.
-469.765 -1232.94 0.
-11.7432 -32.3548 0.
-309.402 -844.606 0.
-638.694 -1725.05 0.
-0.47147 -1.23126 0.
-266.361 -693.712 0.
-901.594 -2370.85 0.
-8.69542 -21.7028 0.
-303.917 -678.944 0.
-977.776 -2227.95 0.
-14.5553 -36.3473 0.
-1405.09 -3278.73 0.
-15.9406 -41.513 0.
-10.5423 -28.9252 0.
-1528.39 -3917.82 0.
-6.49797 -17.9399 0.
-4.46345 -11.7976 0.
-1326.99 -2363.4 0.
0.265759 0.707036 0.
-972.933 -2401.01 0.
-93.0163 -96.2276 0.
-47.6033 -37.1988 0.
-2.37228 -1.56987 0.
-0.0188001 -0.470172 0.
0.258434 0.707175 0.
3.31523 8.24934 0.
-20.5455 -41.204 0.
-720.486 -1708.18 0.
-9.11497e-05 -3.62465 0.
-0.104678 -9.26003 0.
-3.38097 -7.21915 0.
-107.104 -204.247 0.
-6.53036 -14.9389 0.
-2.52903 -46.7998 0.
-1.3147 -40.5675 0.
-283.98 -677.506 0.
-0.597431 -1.50618 0.
-5.46477 -35.9858 0.
-172.874 -358.084 0.
3.48777 8.12855 0.
2.20621 4.80924 0.
2.08419 3.95805 0.
-903.928 -1718.49 0.
-12.2351 -47.386 0.
-567.799 -1029.05 0.
-422.373 -634.494 0.
-187.235 -259.138 0.
44.7388 52.8107 0.
21.9875 25.6384 0.
66.1915 93.7197 0.
24.5707 36.0889 0.
-883.119 -1710.65 0.
45.2016 81.915 0.
9.9005 19.7002 0.
9.58059 20.0017 0.
19.8715 40.538 0.
7.35457 16.1829 0.
13.2062 28.3992 0.
12.0853 26.001 0.
-9.25926 -21.5308 0.
-124.515 -302.867 0.
-1.93446 -4.86901 0.
-291.919 -759.242 0.
-0.591784 -24.9844 0.
0.073499 0.191562 0.
-1144.39 -2517.22 0.
0.00983827 3.01768 0.
-1.38568 -3.12011 0.
1.05768 1.98648 0.
6.2797 15.5329 0.
-0.602392 -2.71724 0.
0.111739 1.16671 0.
-1345.58 -2969.12 0.
-0.0655841 -0.619176 0.
-1325.4 -2196.01 0.
-0.0690899 -0.710206 0.
-0.0148076 -0.804613 0.
-9.35047 -25.786 0.
0.00175231 0.143716 0.
-11.4694 -26.5254 0.
-2.41966 -1.70926 0.
-1.93871 -1.975 0.
-0.00197571 -0.291879 0.
-1.25602 -3.36947 0.
-9.31764 -25.3578 0.
-111.993 -274.257 0.
-5.90045 -13.8405 0.
-147.332 -351.085 0.
-6.28187 -16.6502 0.
-3.3711 -8.87009 0.
-332.501 -899.865 0.
-2.97698 -7.39339 0.
-1.6269 -4.44939 0.
-316.879 -876.285 0.
-69.7553 -192.787 0.
-8.84804 -24.0572 0.
-282.13 -762.593 0.
-219.795 -600.932 0.
-24.9929 -58.2901 0.
-141.497 -388.073 0.
-255.944 -702.065 0.
-1.19456 -2.92136 0.
-25.448 -68.9443 0.
-344.548 -951.187 0.
-0.797507 -2.18957 0.
-2.12217 -5.87668 0.
-314.502 -849.831 0.
-6.99613 -15.8737 0.
-3.41881 -7.46742 0.
-120.306 -270.074 0.
-0.835078 -1.80607 0.
-5.48083 -14.0754 0.
-8.88349 -23.6271 0.
-9.75944 -26.2771 0.
-17.905 -46.4815 0.
-0.212616 -0.585244 0.
-1.61826 -4.45109 0.
-3.09467 -8.24573 0.
-0.0336208 -0.0795428 0.
-3.72165 -9.52692 0.
-10.6564 -27.8982 0.
-1243.95 -2494.1 0.
0.879982 2.40935 0.
-902.073 -2086 0.
1.21426 3.24246 0.
-0.119379 -3.69645 0.
-0.0263912 -5.58601 0.
-142.658 -349.638 0.
-172.036 -404.999 0.
5.97183 15.9307 0.
-9.01671 -18.785 0.
23.2538 57.9762 0.
-925.124 -1995.71 0.
-692.723 -1704.66 0.
17.3115 43.6758 0.
-0.483289 -42.6721 0.
5.28288 12.8816 0.
14.1202 35.8752 0.
-1341.54 -2693.75 0.
-5.11908 -46.0271 0.
-615.801 -1287.62 0.
10.6293 19.0316 0.
7.12931 14.7479 0.
10.7626 18.6442 0.
-1174.04 -2050.87 0.
57.6557 80.5728 0.
66.9802 105.506 0.
-164.003 -169.689 0.
-11.5619 -13.6287 0.
-17.9779 -36.3721 0.
76.0683 110.66 0.
26.4393 53.551 0.
19.2004 34.7863 0.
-724.076 -1442.4 0.
-7.94626 -47.3117 0.
-8.03609 -52.0686 0.
-1.30826 -2.78904 0.
1.36465 2.91111 0.
21.3398 44.3471 0.
-951.647 -2210.5 0.
-812.995 -1955.03 0.
5.28709 13.2728 0.
-301.381 -775.845 0.
3.36244 8.81919 0.
-583.414 -1527.38 0.
13.2285 35.9856 0.
-0.505479 -32.5998 0.
-1087.13 -2457.26 0.
-0.00522351 -0.353226 0.
-0.572755 -11.1604 0.
-784.958 -1477 0.
-0.637907 -4.70983 0.
-1.83072 -4.15 0.
-0.00552093 -0.190266 0.
0.0236043 1.92936 0.
-0.151516 -1.07369 0.
0.222443 0.555386 0.
-0.00665731 -0.505337 0.
0.374748 0.838714 0.
-9.25842 -18.5655 0.
0.133598 0.0879433 0.
-3.46756 -3.14051 0.
0.0546446 0.14412 0.
-4.08124 -10.3435 0.
-11.2986 -29.2377 0.
-10.8824 -23.6566 0.
-5.53511 -12.3969 0.
-10.7203 -29.3917 0.
-7.37161 -19.2701 0.
-4.10497 -10.5035 0.
-15.4609 -42.3535 0.
-7.00596 -17.9817 0.
-6.11455 -12.7812 0.
-90.8878 -249.894 0.
-8.68648 -23.2979 0.
-9.24188 -22.6343 0.
-76.3337 -193.497 0.
-51.5866 -111.43 0.
-6.9666 -10.8576 0.
-16.7316 -36.6366 0.
-84.2203 -225.698 0.
-3.77758 -7.11826 0.
-7.65116 -13.2204 0.
-64.8406 -174.541 0.
-1.22149 -3.33812 0.
-2.64403 -7.06906 0.
-35.0477 -96.1252 0.
-8.28653 -16.8266 0.
-7.91573 -14.9657 0.
-26.067 -54.3194 0.
-3.40359 -8.94205 0.
-6.33415 -17.396 0.
-9.01398 -22.7788 0.
-11.6304 -30.0214 0.
-20.4578 -50.9554 0.
-0.00647071 -0.462596 0.
-0.219571 -0.607655 0.
-1.02164 -2.80812 0.
-0.11562 -0.733036 0.
-0.115228 -0.451974 0.
-0.0578807 -0.840284 0.
-55.6799 -151.171 0.
-3.80123e-05 -0.274727 0.
-0.247994 -6.44932 0.
0.0161868 1.31891 0.
-960.935 -2255.11 0.
5.95487 16.3018 0.
-63.386 -156.236 0.
-88.1212 -206.24 0.
0.076668 16.0279 0.
-903.085 -1829.7 0.
22.9315 57.6384 0.
10.4132 26.8379 0.
-10.289 -26.2526 0.
4.24317 10.4971 0.
-0.546927 -31.2969 0.
0.151061 0.354523 0.
16.1153 39.094 0.
14.4087 31.0959 0.
20.071 48.6024 0.
32.6729 68.652 0.
-3.38772 -23.3538 0.
7.20167 14.8098 0.
-233.77 -399.413 0.
47.2002 91.3854 0.
51.8563 68.5896 0.
28.8891 46.1111 0.
-363.383 -370.392 0.
27.4181 32.7607 0.
-32.33 -94.6358 0.
53.6345 93.5454 0.
-16.563 -98.8255 0.
24.5462 44.5946 0.
-10.4227 -68.0987 0.
-7.73324 -15.0676 0.
-914.65 -1882.93 0.
-0.883194 -1.8294 0.
-1235.7 -2607.71 0.
31.6237 72.9203 0.
-249.993 -579.799 0.
0.00365746 0.00900094 0.
-3.04866 -62.6236 0.
-337.935 -860.839 0.
-378.017 -992.045 0.
-12.3435 -33.8696 0.
-0.333389 -43.4224 0.
-0.857622 -24.1192 0.
12.1913 33.4267 0.
5.37665 14.296 0.
-918.39 -2123.61 0.
10.1457 27.7615 0.
2.66331 5.91187 0.
2.94514 7.58891 0.
1.28853 3.51255 0.
0.0379752 2.93815 0.
-894.526 -2156.81 0.
0.561751 1.20494 0.
-1048.12 -2194.73 0.
-10.5336 -24.3242 0.
-1203.03 -1956.27 0.
-11.1209 -19.9142 0.
-3.87567 -8.11013 0.
-1460.7 -3604.45 0.
-11.7462 -32.0115 0.
-2.15383 -5.16506 0.
-1322.85 -3075.49 0.
-4.29515 -5.68553 0.
-1016.83 -2327 0.
-282.303 -631.397 0.
-7.16863 -19.6049 0.
-1012.07 -2675.15 0.
-187.846 -501.372 0.
-7.13447 -18.4327 0.
-720.802 -1964.25 0.
-303.648 -837.887 0.
-4.79477 -9.98644 0.
-516.281 -1407.24 0.
-411.121 -1127.55 0.
-81.3925 -216.207 0.
-353.873 -970.364 0.
-578.097 -1583.87 0.
-11.3018 -22.8336 0.
-294.075 -788.689 0.
-817.03 -2161.24 0.
-1.73965 -3.82402 0.
-148.879 -391.359 0.
-1068 -2868.79 0.
-1.47703 -2.7574 0.
-232.868 -493.655 0.
-1027.41 -2223.01 0.
-0.00854489 -0.0194474 0.
-1274.63 -3094.77 0.
-13.0812 -30.1663 0.
-0.185974 -0.425776 0.
-998.888 -2101.4 0.
-0.0585957 -0.60626 0.
-1471.86 -3188.37 0.
-21.5207 -59.4593 0.
-66.3314 -158.692 0.
-1051.21 -2172.31 0.
-330.874 -637.876 0.
-26.4954 -72.3239 0.
0.00203028 2.46899 0.
-0.179665 -3.99624 0.
-0.00196434 -0.645063 0.
-165.028 -412.47 0.
4.16769 11.3292 0.
-0.143034 -15.9648 0.
-900.652 -2088.33 0.
-1.25694 -51.9196 0.
7.10294 18.49 0.
-538.794 -1360.5 0.
-4.08828 -10.5196 0.
-8.75118 -22.2722 0.
1.41342 3.50091 0.
13.948 36.5759 0.
-1167.18 -2652.04 0.
6.09079 14.2071 0.
6.37581 13.5094 0.
9.15765 21.3401 0.
0.00750531 0.0158223 0.
17.9952 37.4363 0.
-351.511 -719.211 0.
-15.5386 -65.7054 0.
28.522 55.892 0.
-50.8572 -85.6663 0.
4.04527 6.3991 0.
-466.988 -467.415 0.
-9.59089 -23.9283 0.
69.4385 111.401 0.
-21.9369 -39.4059 0.
48.1332 95.8392 0.
10.5986 19.3285 0.
32.1756 64.8199 0.
-8.91704 -61.8795 0.
-8.39188 -71.2632 0.
10.3135 22.9769 0.
21.8207 48.8242 0.
-5.45115 -59.5141 0.
-213.729 -488.805 0.
17.2555 42.1051 0.
-2.8971 -54.0065 0.
-388.081 -961.787 0.
-114.277 -296.586 0.
3.59916 9.84696 0.
19.4607 52.8282 0.
2.95775 8.14319 0.
-0.32701 -45.1539 0.
10.3261 27.0775 0.
0.705768 1.92533 0.
0.0207736 3.57174 0.
0.858212 1.96514 0.
-0.122543 -5.03612 0.
-807.039 -1716.62 0.
1.73315 4.72005 0.
-60.2318 -140.376 0.
-0.0527278 -1.51934 0.
-24.2406 -45.1063 0.
-3.35186 -6.20213 0.
-21.7201 -38.9076 0.
0.281762 0.623532 0.
0.0587936 0.150975 0.
-16.8553 -40.5464 0.
-0.653138 -1.26034 0.
-0.0310469 -0.0673721 0.
-7.83307 -10.7036 0.
-9.70662 -14.9643 0.
-33.3714 -87.8506 0.
-13.0693 -32.6421 0.
-8.24448 -19.6386 0.
-159.089 -434.976 0.
-9.35727 -24.2104 0.
-8.21657 -20.4981 0.
-250.524 -690.974 0.
-8.42393 -22.7531 0.
-5.10257 -12.7654 0.
-212.427 -582.624 0.
-130.269 -350.338 0.
-10.2192 -22.8085 0.
-37.2342 -96.4408 0.
-229.549 -626.904 0.
-10.674 -23.8189 0.
-8.68042 -17.4446 0.
-163.784 -439.594 0.
-3.11328 -7.22651 0.
-6.60778 -15.4665 0.
-186.109 -504.151 0.
-1.17986 -2.82063 0.
-7.45193 -20.199 0.
-31.2929 -82.7481 0.
0.0507653 0.125252 0.
0.0136266 0.0317032 0.
-1.15903 -2.43973 0.
-0.115597 -0.217949 0.
-15.4187 -42.2978 0.
0.0695492 0.118583 0.
-43.8662 -89.8567 0.
0.00396106 0.958816 0.
-0.0196954 -0.0514582 0.
-35.0968 -80.7627 0.
1.7553 4.22997 0.
-481.775 -856.907 0.
-743.042 -1755.76 0.
3.73288 9.20401 0.
-0.00570463 -6.45758 0.
-1.27118 -3.44258 0.
-225.287 -536.466 0.
11.3122 30.1244 0.
-0.705314 -33.5887 0.
-354.044 -888.688 0.
-1.25005 -49.6754 0.
-11.573 -30.8316 0.
20.8935 53.6502 0.
-71.4735 -181.434 0.
-83.22 -202.062 0.
28.7161 74.5351 0.
-43.1997 -103.927 0.
19.8349 44.8078 0.
-857.022 -1790.36 0.
32.7145 73.5574 0.
-38.9297 -82.3779 0.
-12.1781 -25.3572 0.
-9.7791 -19.6326 0.
26.1498 48.0427 0.
-5.3698 -10.6173 0.
-4096.84 -5230.16 0.
61.1279 94.0419 0.
-300.669 -295.782 0.
-0.553017 -0.834999 0.
64.8855 103.915 0.
-15.6234 -82.0651 0.
-20.1456 -36.2994 0.
6.13385 12.2493 0.
45.2658 89.7709 0.
12.5711 26.2389 0.
-19.4308 -41.6374 0.
16.3618 36.4119 0.
-2.47782 -5.46987 0.
-2.90681 -30.1727 0.
-221.507 -499.959 0.
-73.2974 -177.513 0.
-11.1833 -27.9308 0.
24.0374 59.7568 0.
-148.28 -381.043 0.
-552.318 -1507.58 0.
11.9386 32.8423 0.
-7.67944 -21.1118 0.
5.84963 15.7546 0.
5.48857 14.1441 0.
0.104952 0.28181 0.
12.6045 34.2386 0.
-0.494143 -6.06749 0.
-552.974 -1212.96 0.
-0.600025 -1.41651 0.
-0.0275496 -9.18757 0.
-9.75463 -24.4669 0.
0.0019828 0.272212 0.
-12.1972 -11.0426 0.
-15.9203 -19.7963 0.
-43.7168 -59.3021 0.
-1119.11 -2809.6 0.
0.487591 1.20259 0.
-857.778 -1804.91 0.
-24.1747 -61.24 0.
-33.3287 -91.7726 0.
-1157.69 -2915.7 0.
-7.06872 -17.4278 0.
-937.366 -1908.33 0.
-201.539 -405.746 0.
-13.4054 -31.5491 0.
-1045.64 -2813.7 0.
-71.388 -194.109 0.
-0.89933 -1.9644 0.
-844.142 -2265.87 0.
-271.751 -749.239 0.
-12.7401 -34.5903 0.
-597.753 -1628.73 0.
-474.496 -1313.97 0.
-44.7419 -119.966 0.
-366.453 -1012.9 0.
-698.945 -1920.09 0.
-15.9571 -35.8499 0.
-204.529 -558.709 0.
-903.195 -2435.83 0.
-6.58415 -16.6184 0.
-6.85138 -17.401 0.
-920.814 -2395.54 0.
-4.58629 -11.0244 0.
-1237.76 -2687.36 0.
-0.000133319 -0.000353229 0.
-0.0474731 -0.126685 0.
-1030.31 -2660.37 0.
-53.0307 -113.905 0.
-33.7692 -46.9239 0.
-884.833 -1892.38 0.
-562.055 -997.561 0.
-70.0053 -116.521 0.
-0.0414137 -3.95655 0.
1.40467 3.83221 0.
-0.483264 -1.20789 0.
-0.0745565 -1.63208 0.
-1.08496 -6.65068 0.
-2.43549 -6.16101 0.
-0.563436 -1.53234 0.
9.43929 26.1057 0.
4.242 11.2917 0.
-480.024 -1112.6 0.
5.40096 14.0656 0.
23.5941 62.2828 0.
9.42637 25.7334 0.
13.3446 34.9357 0.
20.1734 53.589 0.
0.248505 0.637651 0.
-730.926 -1849.82 0.
-963.412 -2300.89 0.
2.43818 6.14723 0.
-22.7497 -53.7455 0.
9.08184 21.0738 0.
-7.39117 -72.7044 0.
-6.01884 -73.0665 0.
-563.569 -1290.1 0.
-7.92416 -63.4121 0.
-44.8255 -88.4326 0.
-231.773 -430.921 0.
-6.91182 -13.7557 0.
-541.845 -934.005 0.
6.65522 9.84589 0.
-3.65666 -3.55148 0.
20.7301 31.7556 0.
66.7222 106.442 0.
55.5278 104.4 0.
25.1634 46.0302 0.
11.4484 22.7601 0.
-512.276 -1003.32 0.
36.358 76.0362 0.
33.0526 69.7763 0.
-13.2157 -29.4103 0.
-182.532 -398.559 0.
-5.71869 -56.7132 0.
1.75689 4.25964 0.
19.6531 46.169 0.
0.906324 2.24491 0.
-4.29071 -10.7235 0.
-124.117 -315.623 0.
9.35764 24.9401 0.
-11.0315 -30.2671 0.
-295.403 -810.816 0.
-567.016 -1509.27 0.
14.1513 39.1312 0.
12.4308 32.6556 0.
-0.457645 -36.2053 0.
6.54685 16.7548 0.
-54.771 -127.463 0.
2.02662 4.96526 0.
3.02536 8.34399 0.
-0.0690402 -2.75549 0.
-889.02 -1847.23 0.
-742.83 -1317.58 0.
-51.7361 -96.4557 0.
-8.71461 -20.2793 0.
-0.0284326 -0.523519 0.
-0.0229405 -0.373911 0.
-15.0435 -37.8969 0.
-9.56804 -25.781 0.
-4.93522 -13.5862 0.
-18.6466 -51.3483 0.
0.00476911 0.0497843 0.
0.0192943 0.0581855 0.
-6.41217 -15.746 0.
-6.92161 -15.5078 0.
-156.344 -427.411 0.
-5.52547 -14.9047 0.
-1.50237 -3.56147 0.
-48.9627 -135.58 0.
-5.02587 -13.8864 0.
-7.15703 -19.7591 0.
-36.2449 -99.4155 0.
-8.12642 -15.9681 0.
-4.85217 -5.42592 0.
-4.47766 -4.71296 0.
-33.308 -89.6798 0.
-2.39984 -3.7525 0.
-5.5488 -8.72816 0.
-28.3119 -77.7353 0.
-8.41601 -21.871 0.
-7.63005 -18.1331 0.
-13.2686 -36.1245 0.
-2.56721 -6.32071 0.
-152.66 -370.636 0.
0.148921 0.401792 0.
0.131741 0.35707 0.
-2.92663 -7.85016 0.
-12.748 -30.6914 0.
0.235305 0.454439 0.
-0.205877 -0.528651 0.
-5.23139 -14.4741 0.
-249.692 -613.231 0.
-0.156851 -5.90551 0.
-1019.81 -2217.62 0.
3.47005 8.80175 0.
-0.351788 -9.12737 0.
-0.0470003 -16.6483 0.
-44.9144 -118.163 0.
2.06528 5.58312 0.
-709.822 -1832.05 0.
3.98366 10.3564 0.
-0.35097 -21.4776 0.
0.977908 2.48517 0.
13.447 35.4433 0.
-0.403055 -1.09987 0.
13.5099 36.3361 0.
-455.089 -1204.32 0.
-7.03987 -18.0159 0.
22.1862 56.4425 0.
13.1349 31.5954 0.
-5.46213 -13.3926 0.
-22.7128 -52.6959 0.
8.13665 18.5369 0.
-18.8781 -42.1833 0.
29.9091 69.2221 0.
-42.3007 -95.6895 0.
-10.221 -21.8789 0.
-60.8152 -118.171 0.
-14.3352 -99.0086 0.
-14.8787 -87.5623 0.
54.2882 94.1841 0.
41.6807 61.8883 0.
4.13613 3.95629 0.
-94.3409 -147.102 0.
-13.144 -20.8295 0.
3.46749 6.3683 0.
-21.916 -40.5181 0.
-12.4962 -71.0604 0.
20.5891 40.2717 0.
12.4401 26.0792 0.
-749.132 -1562.02 0.
7.13911 15.8987 0.
-427.196 -955.199 0.
7.29379 17.4683 0.
18.64 45.2014 0.
13.1127 30.7681 0.
6.87327 16.8883 0.
-324.659 -815.825 0.
-7.55177 -18.8488 0.
-20.1672 -53.5082 0.
12.4109 33.9482 0.
15.4844 42.4219 0.
-11.8211 -32.6387 0.
4.18694 11.5924 0.
-569.88 -1461.63 0.
11.3311 31.385 0.
8.38612 21.3751 0.
-250.363 -589.8 0.
9.86754 27.3269 0.
-209.769 -515.618 0.
-0.0015127 -0.949938 0.
0.944585 2.3777 0.
2.68733 7.44327 0.
-5.75364 -13.3519 0.
0.316475 0.860531 0.
-0.079213 -1.23612 0.
0.446936 1.05916 0.
-6.19475 -16.7298 0.
-1.30221 -3.60443 0.
-0.00122707 -0.0325948 0.
0.00207058 0.0532641 0.
0.0108796 0.090066 0.
0.0460309 0.159528 0.
-8.94576 -13.5811 0.
-15.3661 -23.4878 0.
-17.0132 -39.4518 0.
-9.66292 -20.0316 0.
-3.87894 -7.13194 0.
-5.51314 -11.5472 0.
-7.89107 -16.9389 0.
-9.85743 -23.0021 0.
-11.804 -22.9842 0.
-10.2264 -19.4089 0.
-6.41665 -6.84011 0.
-6.42373 -6.43243 0.
-7.27125 -7.92519 0.
-0.0329883 -0.063596 0.
-0.0400118 -0.0874413 0.
-4.72131 -7.11435 0.
-12.5894 -34.8537 0.
-11.6338 -31.5797 0.
-17.7532 -49.1534 0.
-0.798477 -2.13294 0.
-16.3427 -43.4047 0.
0.111942 0.305924 0.
-0.00155265 -0.355429 0.
-0.00874627 -0.0240095 0.
0.00204414 0.0540171 0.
-0.0571569 -0.432836 0.
0.777118 1.36147 0.
-0.167702 -0.44544 0.
-42.7244 -118.091 0.
0.0291723 1.54924 0.
2.59028 6.10986 0.
-0.0732084 -3.64946 0.
-749.516 -1670.12 0.
-0.0790773 -23.9576 0.
-270.216 -724.664 0.
-0.460144 -33.8066 0.
17.6602 46.3565 0.
-0.807035 -19.1592 0.
-0.633847 -1.6797 0.
-0.269456 -46.0029 0.
-357.989 -941.076 0.
7.47586 20.3887 0.
10.8509 29.0989 0.
-0.4323 -1.11766 0.
-12.4027 -31.657 0.
-9.81452 -24.524 0.
12.1496 29.4448 0.
-15.869 -38.7089 0.
-871.004 -1978.23 0.
31.816 71.3531 0.
9.59011 21.3885 0.
-10.9146 -25.2164 0.
-55.3728 -123.765 0.
14.096 30.0693 0.
-87.3478 -167.863 0.
-17.2913 -111.67 0.
-57.1986 -103.996 0.
46.2584 80.5971 0.
19.1432 28.6882 0.
-6.81849 -36.3288 0.
-301.669 -469.388 0.
-28.9713 -80.3491 0.
45.6373 82.5073 0.
49.3156 91.8114 0.
-7.17275 -14.1716 0.
29.3056 57.4067 0.
7.30674 16.0138 0.
-78.6007 -169.492 0.
17.3769 38.7403 0.
18.7068 41.5457 0.
17.2521 40.7899 0.
-19.416 -47.1098 0.
-609.2 -1422.59 0.
2.41782 5.89465 0.
-2.8099 -7.17878 0.
9.08667 22.7949 0.
-385.774 -1018.4 0.
-0.847939 -62.462 0.
-77.1304 -211.111 0.
21.027 57.9822 0.
-0.979418 -2.69833 0.
1.71397 4.73258 0.
5.85563 16.1092 0.
-622.221 -1577.31 0.
1.90739 5.13273 0.
7.73946 21.252 0.
-262.224 -653.389 0.
8.21918 22.6748 0.
0.662876 1.72912 0.
-0.00764677 -11.7883 0.
0.515215 1.31698 0.
-74.669 -156.664 0.
-745.453 -1738.75 0.
0.581754 1.4125 0.
-813.377 -1801.27 0.
-5.97931 -15.3464 0.
-4.07998 -10.9454 0.
-962.047 -2519.87 0.
-4.12883 -10.9813 0.
-6.07935 -15.6206 0.
-1278.34 -2670.52 0.
-5.1555 -14.1425 0.
-859.426 -2239.86 0.
-19.7485 -54.6691 0.
-6.30229 -17.2685 0.
-879.3 -2349.5 0.
-100.632 -273.065 0.
-13.4638 -26.21 0.
-603.361 -1632.29 0.
-425.293 -1176.54 0.
-56.3811 -148.031 0.
-238.741 -655.905 0.
-746.966 -2049.21 0.
-38.9106 -107.255 0.
-40.613 -112.472 0.
-919.288 -2454.92 0.
-19.5296 -52.5095 0.
-14.5958 -38.7823 0.
-1023.1 -2270.45 0.
-0.377847 -1.04626 0.
-1016.49 -2488.46 0.
-6.16387 -16.5323 0.
-38.3104 -99.4131 0.
-887.394 -2064.15 0.
-24.9046 -61.396 0.
-5.57039 -13.5713 0.
-953.484 -1912.61 0.
-9.98069 -26.5653 0.
-150.041 -415.365 0.
3.12484 8.35691 0.
-0.181746 -3.00355 0.
-0.053147 -3.89132 0.
-66.9267 -156.338 0.
-1.87603 -5.07523 0.
4.98834 13.6905 0.
2.38894 6.34509 0.
7.00761 18.2554 0.
17.9393 49.5394 0.
-934.187 -2459.76 0.
-2.64172 -7.15428 0.
13.9546 38.2679 0.
-411.568 -1128.89 0.
-10.8955 -29.1325 0.
14.7314 38.0408 0.
5.36937 13.9911 0.
-29.3292 -72.0487 0.
-0.609734 -1.48828 0.
-170.053 -419.891 0.
-1.50595 -3.57564 0.
16.8192 41.6476 0.
-322.667 -718.189 0.
30.0131 69.3189 0.
-97.6405 -215.992 0.
33.6688 71.6793 0.
-8.36919 -16.551 0.
30.4612 61.7505 0.
-376.22 -696.263 0.
-21.4437 -82.891 0.
-23.7311 -60.7181 0.
-8.03975 -57.7327 0.
25.5376 37.615 0.
41.3226 63.4611 0.
10.5588 18.9402 0.
39.8306 74.4787 0.
5.18561 10.2226 0.
-32.6752 -64.2176 0.
11.7897 25.5691 0.
-175.468 -375.086 0.
-9.31818 -84.1403 0.
-9.18473 -20.2937 0.
-20.3652 -50.7463 0.
-742.687 -1805.7 0.
-6.21425 -15.6808 0.
-13.7963 -33.3969 0.
-19.2471 -49.0566 0.
8.88694 22.4036 0.
-17.8271 -46.0046 0.
-15.6067 -41.699 0.
-215.693 -589.755 0.
3.05867 8.42227 0.
13.159 36.4235 0.
-9.61649 -26.5414 0.
15.2519 41.2401 0.
-8.16872 -22.1777 0.
9.37958 25.0416 0.
-606.094 -1613.49 0.
12.6695 35.0875 0.
-0.0800532 -26.395 0.
-0.175691 -9.27493 0.
-331.92 -781.992 0.
-668.381 -1228.62 0.
-0.261741 -3.53716 0.
0.826542 1.9423 0.
-0.0350711 -1.96121 0.
-27.2631 -67.8337 0.
-3.9735 -10.5154 0.
-6.10212 -16.6535 0.
-10.7197 -28.3321 0.
-3.18539 -8.22144 0.
-5.60106 -13.8884 0.
-14.1389 -38.5026 0.
-0.109678 -0.245857 0.
-13.4358 -35.6138 0.
-2.9329 -7.7085 0.
-4.77359 -12.7848 0.
-9.97513 -20.1458 0.
-7.72239 -14.0592 0.
-5.38106 -9.70039 0.
-2.19062 -5.49002 0.
-4.71158 -12.1296 0.
-9.1855 -22.0822 0.
-10.3653 -25.8281 0.
-11.7945 -30.4712 0.
-16.606 -44.8343 0.
-8.11141 -21.8264 0.
-6.56546 -17.3525 0.
-5.44478 -14.9773 0.
-1.79479 -4.78834 0.
-0.866389 -2.23899 0.
-0.0100382 -0.0256796 0.
-21.3759 -59.073 0.
-3.07693 -8.49248 0.
-10.3354 -27.9609 0.
-19.3284 -51.2268 0.
-1.47789 -3.5165 0.
-0.086355 -1.19102 0.
3.26354 7.77937 0.
-0.00207941 -0.8519 0.
-740.246 -1762.18 0.
-0.782821 -11.3179 0.
-411.809 -931.819 0.
7.89142 21.217 0.
10.6229 29.2637 0.
-413.48 -1121.91 0.
-91.7839 -237.309 0.
10.5797 28.937 0.
-623.259 -1609.34 0.
5.52209 15.1631 0.
23.7985 64.821 0.
-159.539 -433.386 0.
-16.6978 -45.7637 0.
-18.7816 -51.5044 0.
-105.394 -273.878 0.
-79.2567 -204.501 0.
-17.1624 -44.661 0.
-3.85366 -66.6252 0.
-320.254 -787.389 0.
-313.043 -773.164 0.
20.6285 49.3501 0.
-12.0212 -29.7908 0.
-10.4397 -23.5904 0.
-5.85935 -79.8592 0.
-275.415 -611.423 0.
34.5192 74.8477 0.
-31.8583 -63.1055 0.
-6.80542 -13.7278 0.
-471.557 -885.709 0.
-12.3679 -22.2129 0.
39.391 60.5392 0.
-5.33984 -48.7289 0.
45.941 64.1622 0.
-16.5697 -41.0445 0.
9.09347 16.2407 0.
30.1398 56.5681 0.
8.69513 18.2552 0.
-153.842 -303.668 0.
2.80195 6.0248 0.
-248.453 -527.435 0.
34.3917 75.092 0.
22.8948 50.3546 0.
-203.367 -505.42 0.
-391.306 -977.668 0.
-17.9724 -45.4981 0.
-11.3125 -27.345 0.
-505.847 -1285.09 0.
-2.0405 -67.3105 0.
-101.799 -261.731 0.
20.8899 55.5919 0.
-0.663654 -60.2657 0.
-15.5579 -42.6331 0.
23.9591 66.2691 0.
-343.553 -947.674 0.
17.1213 47.4201 0.
-12.9693 -35.2332 0.
14.2116 37.5843 0.
21.4251 58.9058 0.
-0.00596979 -39.506 0.
-0.0860089 -13.5906 0.
1.74541 4.50367 0.
5.89434 14.8882 0.
-0.177882 -0.356741 0.
-0.0910846 -1.75184 0.
0.92679 2.33442 0.
0.00452575 0.887645 0.
1.78097 4.8019 0.
-6.6962 -17.9946 0.
-300.92 -710.044 0.
-419.419 -1070.65 0.
-15.6203 -36.5777 0.
-19.6538 -50.379 0.
-763.101 -2053.18 0.
-0.00222537 -0.0778179 0.
-859.555 -1899.37 0.
-22.4198 -48.529 0.
-29.839 -67.9167 0.
-810.305 -2125.22 0.
-12.6034 -25.9181 0.
-37.2995 -102.575 0.
-552.082 -1512.34 0.
-338.912 -938.348 0.
-73.3815 -203.076 0.
-137.302 -379.16 0.
-687.977 -1894.25 0.
-39.0848 -107.686 0.
-14.2455 -39.353 0.
-856.994 -2253.06 0.
-27.7717 -67.6585 0.
-20.1392 -53.0549 0.
-831.094 -1790.1 0.
-0.0389782 -0.378669 0.
-726.806 -1890.69 0.
-0.000195121 -0.545921 0.
-180.2 -442.481 0.
-126.274 -339.743 0.
0.51103 1.18737 0.
-0.0869759 -1.033 0.
-0.292457 -6.28777 0.
0.000562399 2.11516 0.
0.0151051 1.15333 0.
0.897707 2.21928 0.
-0.0595564 -25.8469 0.
-775.021 -1944.73 0.
3.60034 9.94815 0.
14.0529 37.7087 0.
-52.8563 -134.489 0.
7.4024 20.0783 0.
8.72423 24.0582 0.
-0.392426 -56.5376 0.
11.4396 31.2416 0.
-67.6251 -186.499 0.
-36.2815 -99.3703 0.
-46.0824 -126.376 0.
-16.5438 -42.9358 0.
-325.035 -858.869 0.
-75.9798 -197.481 0.
-165.347 -419.737 0.
-1.38105 -3.42903 0.
-100.732 -255.582 0.
-219.921 -529.818 0.
-4.16467 -84.5593 0.
-19.7377 -44.5277 0.
-7.30685 -93.5997 0.
5.75608 12.6632 0.
0.320837 0.690059 0.
-104.855 -208.442 0.
-14.8344 -89.4289 0.
-493.804 -940.341 0.
-17.2661 -76.1435 0.
41.6758 64.9396 0.
14.8131 33.7075 0.
-0.0552564 -3.90603 0.
7.41937 10.8562 0.
-20.6146 -82.1964 0.
10.6185 19.9922 0.
-10.7575 -21.3656 0.
-224.284 -444.953 0.
-26.6107 -57.5889 0.
-285.319 -602.627 0.
-22.2146 -49.5525 0.
-376.61 -820.209 0.
-1.82692 -4.50376 0.
-211.679 -527.447 0.
13.8926 35.2754 0.
-397.028 -957.702 0.
-5.76829 -14.7549 0.
15.378 39.6268 0.
-307.253 -786.597 0.
8.09187 20.9444 0.
2.83583 7.62458 0.
4.17123 11.4202 0.
-4.02648 -11.1264 0.
-269.752 -744.072 0.
12.7675 35.3638 0.
-297.066 -807.183 0.
-0.219863 -64.8475 0.
-9.98619 -27.4234 0.
-2.2145 -6.11428 0.
6.08604 16.4052 0.
-2.30193 -5.9123 0.
3.6431 9.39942 0.
-0.0676103 -10.0384 0.
0.0172501 0.393358 0.
4.82255 11.7389 0.
-621.252 -1374.19 0.
-0.154193 -6.19205 0.
-523.295 -1309.23 0.
0.392195 1.01344 0.
0.0243684 0.303189 0.
0.0451287 0.382149 0.
-11.2334 -30.489 0.
-5.3941 -14.5785 0.
0.144539 0.371054 0.
-10.6296 -19.786 0.
-1.4003 -3.21418 0.
-3.37366 -8.92084 0.
-1.6912 -4.53122 0.
-3.24341 -8.40343 0.
-7.14994 -17.8422 0.
-4.42823 -12.1322 0.
-2.15935 -5.95364 0.
-27.2723 -73.5595 0.
-1.3222 -3.52633 0.
-5.29969 -13.3873 0.
-1.0041 -2.58185 0.
-0.954703 -2.48433 0.
-4.16936 -11.5363 0.
-12.2376 -24.2826 0.
-10.7386 -21.1416 0.
-13.3286 -28.4138 0.
0.00363486 0.0440848 0.
0.00229741 0.096288 0.
-0.00851869 -1.18224 0.
0.0935656 0.255297 0.
-449.71 -1158.71 0.
0.436232 0.902238 0.
-809.418 -1550.62 0.
0.000747796 0.531652 0.
-351.409 -939.463 0.
-0.146371 -19.0661 0.
-0.526307 -13.1444 0.
-0.0187415 -7.84944 0.
12.229 33.7434 0.
-0.00246123 -33.5706 0.
-0.898029 -47.8469 0.
-475.661 -1188.38 0.
-0.477402 -1.28094 0.
4.68364 12.9172 0.
-0.200414 -52.1166 0.
8.41354 23.026 0.
-94.3998 -260.191 0.
11.6392 31.9283 0.
-237.725 -651.932 0.
19.8822 51.5376 0.
10.7899 28.3959 0.
-29.0472 -73.7047 0.
-276.816 -701.542 0.
-111.408 -276.751 0.
-84.6581 -215.241 0.
11.6232 28.7864 0.
-16.6879 -41.4291 0.
-6.41753 -14.4542 0.
-13.7224 -31.6713 0.
-25.2081 -55.0208 0.
-36.7956 -77.3924 0.
-229.36 -458.408 0.
39.1284 82.0311 0.
-420.334 -811.315 0.
14.941 28.2038 0.
68.2238 108.043 0.
-27.4427 -45.9436 0.
1.15877 11.7009 0.
-34.7493 -75.7072 0.
7.78329 13.9227 0.
-121.502 -228.961 0.
-0.934151 -1.84553 0.
-344.861 -699.214 0.
-194.543 -423.909 0.
4.88428 10.5306 0.
-6.5005 -90.4994 0.
4.58615 10.0806 0.
23.7336 58.8017 0.
-43.9659 -109.254 0.
-221.995 -565.817 0.
29.805 76.2241 0.
-13.587 -34.6696 0.
-20.9363 -53.8241 0.
-15.3986 -40.4292 0.
19.1704 49.459 0.
9.90981 26.5445 0.
-184.944 -505.834 0.
-11.7987 -32.366 0.
-57.0926 -157.339 0.
21.8117 60.4086 0.
-26.6397 -73.78 0.
9.94017 27.302 0.
-21.8267 -59.8521 0.
-22.2714 -61.1765 0.
-0.195813 -42.5368 0.
-1.75728 -4.47223 0.
-317.459 -822.325 0.
11.4809 31.6382 0.
-576.673 -1293.63 0.
3.24998 8.34613 0.
0.349018 0.791695 0.
-0.174807 -6.99439 0.
-33.1469 -91.5067 0.
-0.121793 -1.49674 0.
0.437522 0.0152075 0.
-1.63296 -4.30924 0.
-16.4025 -45.0963 0.
-3.07864 -8.02701 0.
-0.00499616 -0.137025 0.
-5.98475 -10.6304 0.
-0.434659 -0.972891 0.
-2.11608 -5.31547 0.
-0.68442 -1.89398 0.
-0.887199 -2.45638 0.
-3.86368 -10.3154 0.
-2.60886 -7.1622 0.
-0.335713 -0.919812 0.
-1.54933 -4.00084 0.
-1.52452 -3.87598 0.
-1.71849 -4.29304 0.
-0.746352 -1.97622 0.
-0.716469 -1.91343 0.
-0.725962 -1.9603 0.
-19.6894 -23.3725 0.
-21.06 -27.3151 0.
-22.5498 -31.4142 0.
0.0188046 0.264577 0.
-0.0146804 -0.607689 0.
-0.00994073 -0.508513 0.
0.701576 1.94323 0.
-45.4608 -122.141 0.
0.432515 0.975926 0.
-0.480655 -2.91328 0.
-0.089175 -14.8918 0.
4.0937 11.1618 0.
-319.412 -817.092 0.
-0.576841 -16.1185 0.
4.93763 13.5539 0.
8.70192 24.0556 0.
11.0897 30.7 0.
-1.21508 -47.837 0.
13.9505 37.6862 0.
-0.88602 -2.45265 0.
-2.50951 -6.92117 0.
13.463 37.0101 0.
-23.9965 -66.1328 0.
-169.782 -467.672 0.
-6.83753 -18.7575 0.
-12.8375 -33.4651 0.
-33.7979 -87.5189 0.
-3.82236 -10.0451 0.
-10.2744 -26.0314 0.
-6.15169 -15.6628 0.
-194.916 -484.445 0.
-91.2796 -232.549 0.
-37.0818 -91.9152 0.
-89.4583 -219.283 0.
-431.095 -970.475 0.
-195.366 -452.102 0.
-23.3398 -50.6388 0.
-23.8291 -50.1566 0.
-223.053 -449.239 0.
-20.2884 -42.3043 0.
-129.139 -252.435 0.
-12.1288 -64.8292 0.
-31.1749 -91.9848 0.
-443.731 -635.005 0.
1.21954 19.4664 0.
30.7931 42.4237 0.
-28.9021 -52.1287 0.
-230.156 -433.189 0.
23.7927 46.7032 0.
-190.873 -386.719 0.
19.2616 42.331 0.
2.65008 5.75713 0.
23.7996 56.589 0.
-9.7484 -90.5616 0.
5.79186 14.4191 0.
28.9971 71.8556 0.
26.0805 66.8266 0.
17.1162 43.9035 0.
-77.5931 -197.532 0.
23.4609 60.0404 0.
13.7408 36.1301 0.
-8.19427 -21.0695 0.
5.83342 15.1412 0.
-49.3037 -132.986 0.
17.6033 48.2481 0.
-40.062 -110.287 0.
-71.8274 -198.153 0.
-6.72083 -18.6135 0.
-110.224 -302.572 0.
-341.644 -935.445 0.
-0.829771 -2.29157 0.
-6.50337 -17.8604 0.
-469.739 -1183.58 0.
5.13434 13.8611 0.
4.87752 13.4562 0.
3.6448 8.49581 0.
3.18914 8.3713 0.
2.85241 6.54342 0.
2.01767 5.25755 0.
-6.54938 -17.5992 0.
-0.00359118 -2.3349 0.
-569.429 -1322.69 0.
-36.5986 -67.846 0.
-12.438 -27.4314 0.
-633.223 -1723.19 0.
0.04306 0.119269 0.
-674.133 -1385.42 0.
-26.8936 -55.4218 0.
-42.4158 -95.3767 0.
-713.897 -1795.6 0.
-7.62895 -19.7306 0.
-19.8406 -52.0333 0.
-470.271 -1293.15 0.
-273.342 -756.957 0.
-137.949 -381.049 0.
-63.1681 -172.465 0.
-561.081 -1501.26 0.
-51.6573 -139.35 0.
-23.9724 -64.9593 0.
-752.287 -1993.29 0.
-5.62245 -11.6973 0.
-7.50503 -12.4033 0.
-690.076 -1359.77 0.
0.301099 0.786996 0.
-648.48 -1697.68 0.
-0.000121395 -2.95351 0.
-10.9796 -28.2286 0.
-438.543 -967.775 0.
0.905132 2.15523 0.
-0.195502 -1.54168 0.
3.40077 9.20961 0.
0.150571 0.414371 0.
-21.858 -56.2006 0.
-1.1999 -3.2229 0.
5.9633 16.249 0.
-2.91993 -8.08393 0.
21.6634 58.2132 0.
-5.33149 -13.6835 0.
-0.520656 -56.1746 0.
9.29257 25.7208 0.
-129.479 -357.648 0.
2.9581 8.1428 0.
-7.17773 -19.7694 0.
13.2133 36.2584 0.
0.459959 1.26185 0.
-61.2369 -159.458 0.
-9.7419 -25.8366 0.
-80.8414 -212.172 0.
-111.779 -282.737 0.
24.5749 62.7438 0.
-83.1735 -212.101 0.
-48.5757 -124 0.
-101.421 -251.609 0.
-24.127 -59.189 0.
19.5666 45.5082 0.
-299.722 -695.564 0.
-5.43079 -11.737 0.
-6.38595 -13.4517 0.
-102.307 -207.977 0.
52.7239 109.172 0.
22.3493 44.2844 0.
35.0525 70.7906 0.
-166.909 -269.81 0.
10.2978 17.3109 0.
0.968462 10.554 0.
-1981.45 -2461.76 0.
-11.5708 -21.1173 0.
-346.631 -650.982 0.
26.8116 52.2416 0.
-47.2033 -95.667 0.
-53.1002 -116.798 0.
-27.6727 -60.5677 0.
-12.1657 -29.016 0.
16.8361 37.6217 0.
-158.749 -397.105 0.
-9.18155 -22.641 0.
26.3809 67.6365 0.
17.3135 44.5395 0.
-270.959 -715.619 0.
4.27063 10.9035 0.
-3.0299 -7.97806 0.
-11.0175 -29.0065 0.
-9.13098 -23.6234 0.
-1.83213 -4.93736 0.
11.1198 30.4512 0.
-92.0046 -250.368 0.
6.11437 16.8525 0.
-122.898 -340.366 0.
-4.68622 -12.9782 0.
22.8266 63.2211 0.
16.2738 44.8892 0.
-187.978 -517.204 0.
-6.44995 -17.8188 0.
17.0221 45.4201 0.
-267.793 -738.231 0.
-0.166481 -23.99 0.
8.03134 21.2332 0.
0.00209565 4.51567 0.
-287.823 -685.003 0.
-284.21 -659.825 0.
-0.00653853 -2.04734 0.
-22.2437 -43.9435 0.
-1.3639 -3.08955 0.
-0.0179473 -0.546566 0.
-12.1905 -33.5784 0.
-0.000133384 -0.305509 0.
-7.41565 -16.0475 0.
-9.87909 -22.1164 0.
-13.5777 -31.2244 0.
-1.8766 -5.19351 0.
0.0578504 0.159806 0.
0.0766877 0.209383 0.
0.0664221 0.156064 0.
-2.80025 -6.77577 0.
-5.99528 -15.3812 0.
-2.0064 -5.31128 0.
-2.00321 -5.51105 0.
-13.3143 -36.5887 0.
-3.71429 -10.1941 0.
-8.04259 -22.1537 0.
0.0818035 0.210002 0.
-0.0438478 -0.377643 0.
-0.0759425 -0.144229 0.
0.362842 0.961954 0.
-0.0102194 -0.429534 0.
-0.00160698 -1.20369 0.
-0.0122369 -0.866483 0.
3.52478 9.67729 0.
-464.618 -1083.92 0.
-0.00034994 -22.2122 0.
-0.105578 -11.2637 0.
9.18367 25.3953 0.
-215.025 -551.156 0.
15.5323 41.7283 0.
-0.351526 -40.7236 0.
-43.1875 -119.62 0.
14.5565 39.1752 0.
7.39409 20.2396 0.
-289.691 -786.597 0.
6.52522 18.0587 0.
-9.52094 -26.2863 0.
12.2028 33.6054 0.
-140.972 -388.016 0.
-1.93529 -5.31087 0.
-4.18322 -11.2619 0.
21.8948 56.9464 0.
10.6546 28.2654 0.
6.18166 15.8446 0.
-165.452 -417.817 0.
-16.7503 -42.8857 0.
-56.9214 -145.457 0.
29.8773 76.92 0.
-382.207 -949.064 0.
-17.7965 -43.7033 0.
38.7644 90.4393 0.
44.0559 103.467 0.
13.4624 28.4027 0.
-100.079 -211.007 0.
-4.6002 -9.44948 0.
-23.4744 -48.1904 0.
-18.4554 -37.1469 0.
-626.042 -932.982 0.
-11.7105 -20.9972 0.
-146.955 -196.092 0.
-6.25106 -17.9788 0.
-14.5194 -19.9555 0.
-399.367 -763.135 0.
-528.113 -916.914 0.
42.5701 82.2787 0.
-29.2521 -59.3577 0.
-39.5298 -87.0096 0.
-2.62804 -5.79396 0.
30.0785 71.9651 0.
-301.317 -678.585 0.
-59.9817 -147.794 0.
5.13327 12.7248 0.
-11.2294 -28.8031 0.
-25.8142 -66.5986 0.
12.1554 32.1647 0.
26.1768 66.665 0.
-148.859 -392.491 0.
12.7369 33.5816 0.
8.84833 22.8191 0.
-14.7135 -39.6152 0.
19.0036 51.33 0.
-62.8093 -170.923 0.
17.8162 49.0541 0.
1.21079 3.33595 0.
11.9945 33.2176 0.
-35.6962 -98.8424 0.
2.51452 6.92661 0.
-54.1673 -149.031 0.
-4.21596 -11.6567 0.
0.627441 1.6519 0.
-0.091092 -54.7623 0.
11.5308 31.6058 0.
3.14998 8.30673 0.
-0.435883 -26.7072 0.
-80.2369 -206.238 0.
-0.000959962 -23.943 0.
0.00204751 0.439352 0.
-0.0580447 -2.95882 0.
-0.0676196 -1.30146 0.
-0.00603533 -0.477092 0.
-0.000375423 -0.27529 0.
-31.7322 -87.8204 0.
-439.937 -998.174 0.
-17.2302 -37.6608 0.
-7.5771 -17.8554 0.
-533.827 -1441.64 0.
-13.1886 -36.2133 0.
-15.1572 -41.7289 0.
-344.328 -946.543 0.
-267.551 -740.239 0.
-127.641 -353.354 0.
-34.68 -95.3892 0.
-396.872 -1071.2 0.
-137.197 -360.815 0.
-47.8991 -119.985 0.
-313.496 -742.07 0.
0.221834 0.573647 0.
-583.101 -1549.62 0.
-0.00343164 -1.03012 0.
-69.491 -182.683 0.
0.28814 0.765653 0.
-0.0128565 -4.23665 0.
0.0113369 1.76584 0.
0.000695207 2.81817 0.
-0.949809 -2.41888 0.
-0.00158244 -25.2271 0.
-338.484 -894.219 0.
17.466 48.3464 0.
14.0643 38.4934 0.
-290.721 -780.498 0.
12.3829 33.8938 0.
-4.82549 -13.032 0.
-294.499 -793.523 0.
17.4783 47.9106 0.
22.8013 63.1556 0.
-286.231 -791.369 0.
-66.6369 -183.873 0.
1.97971 5.44837 0.
-6.49625 -17.8727 0.
-15.647 -42.9407 0.
-25.8921 -69.6393 0.
-1.19259 -68.1452 0.
13.0427 34.6116 0.
-15.0218 -38.6541 0.
-15.3457 -39.2768 0.
-311.901 -800.757 0.
-12.2067 -31.2575 0.
-11.4693 -29.5814 0.
-134.272 -330.944 0.
-48.2947 -118.729 0.
40.8215 95.5385 0.
5.48529 12.9413 0.
-181.616 -383.582 0.
-17.0565 -37.4847 0.
-3.34945 -6.95355 0.
7.7657 14.8862 0.
-23.8506 -92.3989 0.
-1401.7 -2084.69 0.
19.8697 36.5773 0.
18.2079 31.269 0.
2.84939 3.70606 0.
-31.1341 -61.7997 0.
-14.2914 -25.0631 0.
-205.427 -358.627 0.
51.2066 98.103 0.
-10.4957 -98.0406 0.
-33.1277 -72.9637 0.
1.27443 2.82999 0.
-107.293 -257.502 0.
33.6948 80.0832 0.
3.5528 8.75023 0.
-46.9431 -116.981 0.
-362.27 -928.842 0.
-27.0668 -69.0185 0.
-9.22183 -24.4403 0.
-26.1661 -66.4748 0.
-19.9705 -52.0848 0.
-49.7427 -131.327 0.
13.041 33.5217 0.
-3.50946 -9.19333 0.
4.48071 12.0916 0.
-57.3563 -156.087 0.
-15.7258 -42.7048 0.
-6.37307 -17.5647 0.
-12.8464 -35.5765 0.
-282.472 -781.868 0.
12.9806 35.9538 0.
-73.0481 -201.006 0.
7.85808 21.7378 0.
-15.2491 -42.0245 0.
16.9802 46.7684 0.
6.17669 17.0214 0.
-0.0302372 -51.6733 0.
13.3865 35.5219 0.
-97.4141 -259.684 0.
0.0282351 11.7571 0.
-0.00504651 -0.714262 0.
-0.0501166 -6.99849 0.
-500.538 -1099.49 0.
0.753243 2.02135 0.
-325.382 -899.927 0.
-0.0863881 -0.236594 0.
-0.00669838 -0.254549 0.
-1.38681 -3.55533 0.
0.155807 0.409866 0.
-2.2721 -5.89376 0.
-2.90376 -7.66501 0.
-9.05149 -24.3945 0.
-5.42123 -13.8733 0.
-0.866623 -2.22044 0.
-0.0256801 -0.31347 0.
-0.03759 -0.0951824 0.
0.0825864 0.222469 0.
-0.611607 -1.62426 0.
0.0732249 0.17021 0.
-0.0398257 -0.215165 0.
0.0961377 0.264024 0.
-18.6853 -50.8544 0.
-0.0112039 -0.49707 0.
-1.07297 -2.95138 0.
-301.19 -779.436 0.
1.46738 3.94721 0.
-305.28 -734.724 0.
4.7739 13.012 0.
-0.431738 -1.13901 0.
1.78463 4.93899 0.
7.01662 19.4258 0.
-0.0835551 -40.9141 0.
4.93003 13.4791 0.
9.6053 26.5754 0.
-2.44089 -6.72175 0.
1.89768 5.13134 0.
-14.4792 -40.1042 0.
-59.4807 -163.209 0.
-1.57853 -4.37224 0.
-14.3838 -39.7288 0.
-16.7845 -46.2357 0.
-61.1889 -168.282 0.
15.7468 43.3224 0.
18.2522 49.2078 0.
-152.421 -409.553 0.
13.0335 34.6584 0.
25.219 64.3737 0.
-152.997 -395.198 0.
-10.9513 -28.1088 0.
27.1009 71.0492 0.
-15.3772 -39.4562 0.
10.8446 28.0199 0.
-20.5395 -50.667 0.
14.3881 36.4465 0.
15.8451 37.2028 0.
1.87958 4.45489 0.
-28.9995 -61.29 0.
-20.1403 -44.1763 0.
-104.038 -210.802 0.
-229.117 -440.203 0.
43.449 75.274 0.
-728.366 -935.079 0.
-15.4258 -29.1586 0.
9.53048 15.19 0.
20.4066 27.9049 0.
34.06 46.3038 0.
-17.3182 -30.0001 0.
-33.9706 -59.7048 0.
-7.53514 -14.2952 0.
-31.2862 -68.7606 0.
-73.4121 -161.752 0.
13.3227 32.3078 0.
-61.6514 -147.394 0.
-164.867 -393.334 0.
-89.2428 -219.726 0.
-121.544 -304.467 0.
12.8925 33.0991 0.
-17.143 -43.7455 0.
-152.277 -404.179 0.
5.76282 15.2747 0.
-20.2963 -52.8847 0.
-210.319 -556.04 0.
-46.1897 -122.095 0.
-2.4639 -6.45619 0.
-56.0852 -151.215 0.
-79.4855 -213.641 0.
3.41281 9.26776 0.
-11.4024 -31.4355 0.
-64.617 -177.825 0.
-6.32339 -17.4629 0.
9.76737 27.0508 0.
-60.0445 -165.246 0.
-85.7007 -235.724 0.
-38.8047 -107.003 0.
-235.38 -646.964 0.
-0.00228316 -44.2276 0.
1.97691 5.46262 0.
0.173374 0.455868 0.
-0.000162894 -6.26325 0.
2.03415 5.49414 0.
-329.029 -827.305 0.
3.17899 8.74363 0.
-0.33858 -0.831272 0.
1.93782 5.3447 0.
-0.763682 -2.1024 0.
-0.0148835 -0.0398051 0.
0.257863 0.644871 0.
-0.00696015 -0.39895 0.
-0.00590082 -0.559556 0.
-0.0373395 -0.0916555 0.
-1.62617 -4.11935 0.
-12.2594 -32.1395 0.
-2.86882 -7.73597 0.
-0.195657 -0.531961 0.
-0.0198402 -0.286999 0.
0.0202001 0.0516694 0.
-0.00229784 -0.195449 0.
0.0195473 0.0516505 0.
0.077441 0.18484 0.
0.0943887 0.197004 0.
-0.00121218 -0.430812 0.
-23.3077 -64.5464 0.
1.21737 3.1016 0.
0.746569 2.06575 0.
-5.32396 -14.3495 0.
-0.00410703 -0.646179 0.
-0.370675 -7.93168 0.
4.83582 13.3374 0.
3.54588 9.7747 0.
1.00341 2.76984 0.
-0.0181013 -37.1122 0.
-242.117 -668.279 0.
7.11525 19.4175 0.
8.07027 22.3251 0.
-3.51236 -9.52891 0.
-115.5 -312.666 0.
-24.4321 -67.6716 0.
6.52435 18.0699 0.
-235.781 -653.07 0.
16.4759 45.485 0.
17.4755 48.1946 0.
8.41101 23.1512 0.
-70.2216 -193.19 0.
-5.8648 -15.7963 0.
-68.5248 -186.231 0.
-113.164 -301.007 0.
25.9902 66.6188 0.
-15.4335 -40.5414 0.
-105.292 -271.019 0.
-42.5996 -111.575 0.
-2.22332 -5.74075 0.
-391.878 -1014.3 0.
-47.0128 -116.092 0.
-14.7836 -37.5043 0.
-135.328 -318.821 0.
-26.276 -62.5637 0.
4.70274 10.9727 0.
-9.4861 -20.7592 0.
-155.436 -314.771 0.
-453.229 -873.818 0.
-153.236 -260.245 0.
-26.7689 -34.3082 0.
8.90244 17.728 0.
-11.0022 -16.5236 0.
27.7809 37.0067 0.
19.4271 29.7939 0.
26.8456 45.8505 0.
13.468 23.8586 0.
-527.768 -990.114 0.
15.3801 33.4407 0.
-95.4514 -210.368 0.
-14.0387 -32.9406 0.
-3.54373 -8.48798 0.
-17.1646 -41.1028 0.
-169.717 -417.727 0.
6.11746 15.1735 0.
-63.6942 -163.22 0.
14.9945 38.2914 0.
-8.82265 -23.0291 0.
20.435 54.2497 0.
-93.4047 -243.19 0.
24.427 63.9009 0.
-90.5769 -242.338 0.
-11.6769 -30.6056 0.
-193.193 -505.675 0.
-12.7296 -34.2227 0.
0.147949 0.401761 0.
15.9684 43.546 0.
-16.8609 -46.4179 0.
16.5975 45.8037 0.
-0.00937264 -60.5389 0.
10.911 30.2206 0.
-77.6749 -213.679 0.
-56.5265 -155.96 0.
-20.8843 -57.4815 0.
6.06318 16.7821 0.
16.8699 46.5777 0.
-318.323 -827.073 0.
9.08323 25.0979 0.
7.35744 19.8611 0.
-0.0527572 -34.5877 0.
-0.0368299 -22.8057 0.
1.63427 4.20587 0.
2.16152 5.98578 0.
-195.612 -386.177 0.
-0.0813433 -1.3334 0.
-0.000547603 -0.328189 0.
-427.77 -1103.8 0.
0.158051 0.424593 0.
-207.499 -513.664 0.
-43.0922 -112.359 0.
-125.554 -340.991 0.
-107.787 -298.429 0.
-281.211 -778.222 0.
-74.9691 -207.289 0.
-20.16 -55.8396 0.
-324.353 -869.504 0.
-59.84 -154.811 0.
-39.1442 -95.5209 0.
-292.133 -711.661 0.
0.168744 0.456619 0.
-253.54 -607.604 0.
-0.00836652 -1.84524 0.
-252.495 -680.401 0.
-0.0527318 -6.50046 0.
-0.00184381 -0.471233 0.
0.153222 8.61792 0.
-0.00719075 -19.7457 0.
-3.31901 -9.173 0.
8.40208 23.0674 0.
-1.92098 -5.31356 0.
14.558 40.3113 0.
-18.6805 -50.8685 0.
-10.572 -29.2418 0.
-8.53101 -23.0098 0.
-0.00029793 -59.8904 0.
-158.758 -439.725 0.
10.4101 28.8322 0.
-5.42109 -14.9974 0.
-92.0378 -253.954 0.
-2.63932 -7.28617 0.
-16.3239 -44.9305 0.
-16.127 -43.7383 0.
-71.429 -192.206 0.
-21.4516 -58.2004 0.
-58.7016 -149.215 0.
-86.9135 -223.673 0.
14.6427 38.3913 0.
-5.60396 -14.7589 0.
-164.806 -431.242 0.
4.98358 12.8923 0.
16.1512 41.7491 0.
-56.4416 -139.523 0.
13.6345 34.6395 0.
-171.77 -430.892 0.
-2.92651 -7.0006 0.
-21.5906 -50.4481 0.
-29.3135 -63.982 0.
-208.885 -422.654 0.
-257.633 -498.785 0.
-775.223 -1289.43 0.
78.0398 99.9881 0.
20.1782 37.2179 0.
-26.8452 -59.5985 0.
-150.318 -196.519 0.
-8.15242 -12.3845 0.
11.8375 19.899 0.
-36.6584 -65.4908 0.
-13.0912 -83.594 0.
-11.8969 -94.7775 0.
-87.7047 -193.355 0.
16.8521 39.366 0.
-27.4692 -65.9087 0.
30.4598 77.0933 0.
-10.5935 -27.1579 0.
30.1357 74.7092 0.
-149.249 -381.806 0.
-2.29493 -5.95979 0.
-2.78449 -7.28198 0.
15.4532 41.0875 0.
18.7328 50.506 0.
13.1888 34.4714 0.
-105.358 -281.29 0.
-14.5714 -39.1143 0.
-99.2452 -259.835 0.
9.67597 26.0192 0.
-108.48 -291.727 0.
21.8442 59.7049 0.
-0.161048 -67.1972 0.
-1.9275 -5.31529 0.
-15.8373 -43.6929 0.
9.84648 27.2709 0.
-86.865 -238.994 0.
-13.4031 -37.0632 0.
-18.1504 -49.9902 0.
17.5661 48.57 0.
-141.371 -390.062 0.
-2.88842 -7.89982 0.
9.12128 24.9351 0.
-184.677 -497.202 0.
-0.0118862 -16.6427 0.
5.92891 16.357 0.
0.399004 1.1043 0.
-246.363 -667.342 0.
0.77687 1.67091 0.
0.966296 2.48453 0.
-0.00191536 -1.57842 0.
-0.251498 -0.674097 0.
-0.0137693 -0.037817 0.
-4.18413 -10.8546 0.
0.0813884 0.213321 0.
-0.0175428 -0.0466958 0.
-0.0635443 -0.168947 0.
-0.906503 -2.47688 0.
-3.89799 -10.6544 0.
0.126109 0.347818 0.
-3.28868e-05 -0.506275 0.
0.0791632 0.211767 0.
0.237568 0.605674 0.
-0.0354186 -0.0853388 0.
0.000105679 0.0373481 0.
0.450976 1.15312 0.
2.06742 5.48782 0.
1.61959 4.4846 0.
3.44745 9.45966 0.
-198.533 -539.974 0.
-0.152336 -8.12042 0.
-107.015 -296.373 0.
11.8254 32.7473 0.
-0.224646 -21.992 0.
4.19743 11.6112 0.
18.6561 51.6625 0.
13.5834 37.5566 0.
-93.1728 -251.182 0.
-0.6102 -55.5561 0.
15.9544 44.1902 0.
-3.30888 -9.10498 0.
-27.2474 -75.4658 0.
18.6868 51.719 0.
-24.2899 -66.957 0.
-81.3219 -224.847 0.
-61.9592 -170.536 0.
-32.7006 -88.7168 0.
-15.6015 -42.3476 0.
16.1595 43.7637 0.
-47.9391 -122.38 0.
-15.1091 -39.9468 0.
-113.74 -297.715 0.
27.4829 72.3146 0.
-16.2376 -42.5939 0.
-20.2192 -52.4058 0.
-74.2369 -191.841 0.
12.1112 30.7937 0.
-10.7988 -27.4768 0.
-16.2922 -40.885 0.
-137.716 -322.47 0.
-26.885 -62.9103 0.
-112.366 -244.624 0.
-287.04 -580.26 0.
4.74519 9.7499 0.
-203.75 -331.631 0.
-40.9502 -52.5951 0.
41.0952 70.7246 0.
14.9385 26.9056 0.
28.7239 37.285 0.
-33.2196 -82.3682 0.
55.6927 91.9953 0.
49.9189 89.9124 0.
27.1575 54.892 0.
37.9574 80.5098 0.
32.2532 70.9067 0.
-25.8421 -60.0797 0.
-25.6858 -61.7485 0.
28.9343 71.366 0.
35.906 91.8743 0.
26.9369 66.746 0.
-17.4968 -44.1357 0.
-7.52823 -19.5082 0.
-85.121 -223.016 0.
-2.06002 -5.4218 0.
18.4046 49.661 0.
-40.42 -105.551 0.
-14.9806 -39.6723 0.
20.3116 54.4101 0.
-44.5414 -116.641 0.
2.16674 5.64492 0.
-58.822 -158.228 0.
22.4713 61.5473 0.
-4.08921 -11.2647 0.
-1.84565 -5.11152 0.
21.6116 59.5745 0.
-8.96698 -24.8239 0.
-143.371 -397.09 0.
-25.2272 -69.7709 0.
-20.022 -55.1797 0.
-10.5603 -29.1575 0.
-11.5658 -32.0063 0.
1.9468 5.32155 0.
-0.192761 -45.7113 0.
18.1005 49.8377 0.
5.8981 16.3341 0.
-121.147 -326.483 0.
2.47948 6.85855 0.
3.51434 9.70324 0.
-0.019881 -0.528104 0.
-0.053256 -2.56056 0.
0.0016994 1.94385 0.
-0.00567035 -0.990588 0.
-0.000255449 -0.964795 0.
-125.655 -347.753 0.
-36.9163 -101.703 0.
-21.9895 -60.786 0.
-98.293 -272.148 0.
-131.667 -363.417 0.
-25.947 -71.4896 0.
-15.6251 -42.9731 0.
-178.544 -489.224 0.
-21.1532 -58.0276 0.
-20.6187 -56.2771 0.
-126.832 -346.605 0.
-0.000947732 -1.62363 0.
0.41071 1.08538 0.
0.0542193 1.73805 0.
-0.283127 -0.781671 0.
-0.0122697 -1.60628 0.
-32.6379 -89.6678 0.
-1.41719 -3.91838 0.
-0.272535 -17.9566 0.
-214.955 -595.208 0.
6.28331 17.2806 0.
-8.27521 -22.9114 0.
-82.2309 -227.729 0.
5.59163 15.4577 0.
6.52637 17.6023 0.
-1.83496 -5.08217 0.
-64.3784 -178.313 0.
8.77132 24.1065 0.
-29.7301 -82.231 0.
17.4426 48.2912 0.
-59.9299 -165.379 0.
16.8834 46.6838 0.
19.3743 52.6669 0.
-14.725 -39.9627 0.
10.0885 27.3362 0.
21.7337 56.7992 0.
-136.168 -349.085 0.
26.4454 69.7881 0.
7.96537 21.2352 0.
-1.42593 -3.74846 0.
19.6239 51.602 0.
22.6777 59.0747 0.
-134.299 -346.942 0.
-3.63551 -9.52269 0.
7.828 19.5465 0.
30.2504 75.9304 0.
10.4338 24.4658 0.
18.493 43.3367 0.
-23.121 -54.5789 0.
-281.371 -568.199 0.
7.83803 15.8781 0.
73.2186 129.085 0.
-6.94324 -10.8807 0.
-461.235 -746.526 0.
-7.24604 -13.5806 0.
18.0371 23.3752 0.
-146.895 -216.098 0.
-267.637 -434.535 0.
-4.74143 -9.21697 0.
-14.9921 -88.0409 0.
41.0311 85.8688 0.
22.9951 50.7056 0.
38.6173 89.3532 0.
-21.1902 -51.0609 0.
4.78743 11.8103 0.
-3.05588 -85.6747 0.
5.68646 14.921 0.
-60.5579 -153.081 0.
16.7626 43.3383 0.
8.72146 23.2623 0.
-1.61564 -76.1721 0.
25.3424 68.4409 0.
-10.6548 -28.5723 0.
-14.842 -39.5064 0.
-20.3584 -54.4214 0.
4.78637 12.8638 0.
-1.75662 -4.57923 0.
-12.6065 -33.9195 0.
20.9056 57.3687 0.
-155.178 -423.84 0.
6.66151 18.4512 0.
12.8616 35.4239 0.
23.8535 65.167 0.
-36.5246 -101.163 0.
-3.39919 -9.40251 0.
-26.4937 -73.0567 0.
12.968 35.6653 0.
14.6112 40.4484 0.
4.45881 12.1832 0.
14.1882 37.6283 0.
-2.79171 -7.70442 0.
4.86084 13.4584 0.
-0.147823 -26.7238 0.
-0.0168637 -16.9206 0.
-1.4158 -3.92149 0.
-0.428627 -9.91002 0.
-133.927 -349.281 0.
0.818671 2.24373 0.
-137.463 -363.281 0.
-0.000978184 -1.65478 0.
-5.33251 -14.7693 0.
-3.13953 -8.69377 0.
-7.28033 -20.1569 0.
-7.77141 -21.4425 0.
-11.0596 -30.631 0.
-1.14429e-05 -0.721979 0.
-1.68097 -4.64942 0.
-9.08887 -24.9902 0.
-4.10674 -11.2975 0.
-0.133904 -0.367239 0.
-0.161677 -0.441934 0.
0.435786 1.20292 0.
-136.359 -372.965 0.
-0.0351423 -5.98782 0.
0.21993 0.602272 0.
-0.0756319 -7.53517 0.
12.8651 33.8747 0.
8.91363 24.6864 0.
12.3177 33.3618 0.
6.0293 16.5355 0.
20.1159 55.2939 0.
-9.42558 -26.0985 0.
-8.40482 -22.6796 0.
-63.0222 -174.193 0.
-18.1166 -48.8937 0.
-11.9745 -33.165 0.
2.61481 7.19262 0.
-8.59689 -23.5967 0.
17.3014 47.876 0.
-8.58854 -23.7611 0.
-95.2764 -263.165 0.
9.23477 25.536 0.
18.3351 49.8573 0.
-4.25348 -11.616 0.
-13.46 -36.4037 0.
-23.8629 -62.2821 0.
-1.17574 -67.6959 0.
-0.545032 -1.43562 0.
12.9643 34.691 0.
25.2939 66.4845 0.
-11.8307 -31.1859 0.
24.8923 64.8066 0.
28.6189 75.0742 0.
7.48922 19.6061 0.
-22.8671 -57.1202 0.
-3.83049 -88.0268 0.
30.1633 70.8384 0.
-8.39432 -19.6837 0.
-15.9701 -37.4776 0.
-301.583 -608.707 0.
20.4164 40.8041 0.
-0.515135 -1.08977 0.
41.3283 63.1024 0.
-172.848 -237.579 0.
-12.1572 -64.9245 0.
11.6014 14.9776 0.
-652.26 -935.176 0.
42.115 71.975 0.
39.5772 76.1173 0.
22.1227 43.5985 0.
-9.31251 -18.6042 0.
-34.1813 -75.5772 0.
16.4263 37.822 0.
-293.723 -667.726 0.
-15.3953 -38.0027 0.
36.7623 93.6441 0.
8.57628 22.5741 0.
-31.5576 -79.9456 0.
26.0722 66.0314 0.
10.9161 29.2091 0.
-78.2803 -206.702 0.
-8.56794 -23.0464 0.
-7.51241 -20.1628 0.
-7.51925 -20.1111 0.
-65.5892 -172.806 0.
13.4649 36.1172 0.
12.8158 33.4276 0.
-7.11597 -18.5301 0.
-9.97274 -27.2535 0.
-68.0185 -186.165 0.
-2.02467 -5.60746 0.
-174.002 -481.189 0.
10.8697 29.6306 0.
-22.8446 -63.2503 0.
-5.55382 -15.3646 0.
-45.0636 -124.638 0.
16.0782 43.58 0.
5.16403 14.2993 0.
-6.92216 -19.1505 0.
18.0268 47.6494 0.
15.9255 44.0118 0.
-21.927 -60.3547 0.
13.5929 36.9858 0.
-0.0347719 -20.7196 0.
-2.78713 -7.71408 0.
1.77746 4.59471 0.
2.04801 5.44638 0.
2.59415 7.16854 0.
0.796283 2.18139 0.
0.83624 2.26843 0.
-2.41943 -6.67689 0.
-3.61305 -9.96223 0.
-9.03912 -24.9322 0.
-0.0193351 -0.0533901 0.
-0.0416006 -0.115224 0.
-0.0329898 -0.0913741 0.
-0.0564828 -0.156271 0.
-4.58365 -12.6292 0.
0.174613 0.482774 0.
-0.0526582 -0.145289 0.
0.124647 0.343086 0.
-0.00180866 -0.30337 0.
0.44876 1.23883 0.
-0.00574551 -0.997559 0.
-38.8046 -105.544 0.
6.27681 16.9745 0.
-0.290659 -18.2674 0.
-4.46776 -12.3709 0.
-0.240373 -36.8476 0.
-9.72848 -26.6652 0.
-17.602 -48.7542 0.
8.15135 22.5718 0.
7.7619 20.9672 0.
-32.7308 -88.2783 0.
-74.3483 -200.788 0.
12.2721 33.9703 0.
-8.12666 -22.3273 0.
-92.542 -256.067 0.
15.7177 43.5088 0.
1.69932 4.70263 0.
-30.5928 -84.5666 0.
-10.765 -29.7686 0.
7.26763 19.7691 0.
14.5037 39.6482 0.
-1.48478 -66.9515 0.
-56.1534 -146.387 0.
3.09252 8.31505 0.
-179.714 -474.933 0.
-1.00316 -76.7065 0.
-2.37647 -6.26256 0.
-80.8773 -213.742 0.
-51.8051 -134.793 0.
30.1658 79.0849 0.
4.59527 11.6812 0.
30.2243 75.5363 0.
28.3281 70.0533 0.
30.506 71.7593 0.
37.4121 87.1794 0.
-201.976 -417.93 0.
-272.489 -550.05 0.
25.0488 49.4375 0.
-19.308 -38.0668 0.
-51.6124 -91.1907 0.
-53.9722 -74.47 0.
-45.4555 -72.975 0.
-30.4643 -40.059 0.
36.0214 57.3604 0.
-17.1805 -56.6583 0.
22.6622 43.0693 0.
-16.2156 -31.4502 0.
21.4901 46.1168 0.
-52.0165 -115.298 0.
-8.52623 -83.5993 0.
20.1297 47.955 0.
21.7932 53.8206 0.
-239.107 -568.266 0.
11.3301 29.9134 0.
-59.0795 -153.438 0.
-81.4564 -206.723 0.
-42.888 -115.107 0.
-4.10125 -10.9412 0.
23.6975 64.1305 0.
16.298 43.7698 0.
-16.1533 -44.1031 0.
-10.0836 -26.6952 0.
17.7051 47.547 0.
8.1214 21.8409 0.
-47.3863 -123.469 0.
0.966516 2.64508 0.
-5.6455 -15.4796 0.
-10.4552 -28.9391 0.
-33.6371 -93.072 0.
22.2991 60.6521 0.
-49.2157 -136.174 0.
21.3852 59.0849 0.
-24.1809 -66.889 0.
-5.53737 -14.9766 0.
15.0304 41.0472 0.
19.1102 52.8895 0.
-1.86533 -4.91463 0.
-6.10545 -16.8886 0.
5.66622 15.4009 0.
-0.930792 -2.5226 0.
-0.0741272 -28.0133 0.
0.343966 0.941807 0.
-0.953078 -2.43969 0.
1.78978 4.82909 0.
-0.000283926 -8.80571 0.
0.460381 1.2746 0.
0.355087 0.983106 0.
-19.4415 -52.7602 0.
-6.97886 -19.1525 0.
-15.5992 -43.1694 0.
-16.7297 -46.3331 0.
-24.7217 -68.4072 0.
-11.011 -30.4858 0.
-8.22134 -22.715 0.
-25.7109 -70.9617 0.
-10.241 -28.3247 0.
-6.25842 -17.2879 0.
-17.9385 -49.3394 0.
-0.014382 -1.30907 0.
0.236861 4.23507 0.
4.28187 11.7061 0.
0.216216 4.43261 0.
-3.26873 -8.90253 0.
-0.345346 -32.3672 0.
4.47679 12.1578 0.
2.48016 6.74546 0.
12.455 34.1181 0.
15.0582 41.6697 0.
-0.434329 -1.16993 0.
-9.14093 -24.7168 0.
-20.1987 -55.5574 0.
-36.1747 -100.194 0.
14.4161 39.864 0.
-21.8433 -59.9383 0.
7.5863 20.9216 0.
-41.7715 -115.515 0.
19.193 53.1256 0.
15.4268 42.6455 0.
-6.41458 -17.6086 0.
-36.0455 -98.086 0.
4.44114 12.1513 0.
-16.8689 -44.3299 0.
1.49416 3.97804 0.
12.6561 34.1662 0.
-22.2014 -58.8819 0.
20.2346 54.5812 0.
-4.08601 -10.7936 0.
5.64632 14.9749 0.
24.8292 65.1872 0.
-11.7851 -30.8781 0.
32.668 83.5419 0.
8.7824 21.9569 0.
31.7133 78.4539 0.
-23.3622 -56.845 0.
-7.58811 -17.5653 0.
32.8178 66.5729 0.
-8.73508 -64.7972 0.
20.0982 39.2225 0.
-319.065 -619.957 0.
-18.8455 -73.7756 0.
-6.84636 -10.3334 0.
19.5415 33.0047 0.
-107.848 -147.641 0.
-13.7892 -47.5063 0.
3.41473 5.57815 0.
-5.89579 -11.0539 0.
-714.606 -1328.38 0.
9.0847 19.47 0.
-156.669 -348.169 0.
-14.1457 -31.7417 0.
10.665 25.3711 0.
-5.53221 -13.3078 0.
-38.8505 -92.1858 0.
-1.66952 -85.9313 0.
28.8436 75.0883 0.
-30.2107 -80.5819 0.
-66.8948 -177.435 0.
-43.2677 -115.779 0.
-6.88941 -18.7352 0.
-125.544 -334.667 0.
-1.25007 -3.42289 0.
-14.6899 -39.0497 0.
-60.8837 -163.575 0.
-6.87551 -18.4987 0.
-4.41619 -11.5115 0.
11.2915 30.9402 0.
4.87644 13.3227 0.
-8.14921 -22.5685 0.
4.94741 13.6938 0.
2.72607 7.39884 0.
-81.4923 -222.239 0.
19.356 53.2925 0.
-55.3031 -152.998 0.
-2.7823 -7.6834 0.
17.4427 47.5783 0.
-7.09471 -19.6408 0.
16.522 43.393 0.
-72.1286 -190.161 0.
-9.73162 -26.1419 0.
-6.47768 -17.4831 0.
6.33896 17.4056 0.
-22.5518 -61.2036 0.
2.03689 5.17497 0.
0.620368 4.21532 0.
1.59546 4.35625 0.
-13.6955 -36.9855 0.
-0.00542579 -0.882254 0.
-0.0126898 -0.0342341 0.
0.062564 0.171375 0.
-1.23524 -3.4127 0.
-0.316717 -0.875125 0.
-1.54657 -4.28129 0.
-7.15084 -19.7721 0.
-4.31376 -11.8882 0.
-2.57693 -7.06321 0.
-5.7875e-07 -0.878105 0.
0.277348 0.767832 0.
-0.804906 -9.33481 0.
-0.865515 -2.36798 0.
-3.80997 -10.5275 0.
2.42278 6.61933 0.
7.16004 17.5453 0.
3.47151 9.401 0.
-53.7251 -145.047 0.
14.6196 39.5675 0.
-1.98136 -5.22341 0.
-0.260473 -52.9256 0.
-0.161269 -0.445287 0.
6.36666 17.1646 0.
-1.90699 -5.16066 0.
-33.5507 -92.1514 0.
-79.9422 -221.413 0.
13.1471 35.6541 0.
-51.1668 -140.229 0.
-5.50071 -15.0937 0.
-23.1911 -64.1488 0.
7.15044 19.8049 0.
0.59734 1.65129 0.
6.19989 17.0596 0.
-54.1815 -147.958 0.
13.0548 35.7463 0.
11.0535 29.0296 0.
-82.38 -220.18 0.
14.2155 38.504 0.
22.8727 60.8325 0.
18.1123 49.0054 0.
-129.621 -340.265 0.
24.3391 64.7363 0.
-6.69651 -18.3134 0.
-18.1132 -47.435 0.
16.5744 42.5909 0.
-4.06858 -83.2449 0.
-4.62278 -91.84 0.
15.6988 38.3933 0.
-13.172 -30.2626 0.
-4.81179 -9.51333 0.
-6.02818 -11.592 0.
-49.0417 -94.6354 0.
11.0365 21.0723 0.
-17.3639 -66.5705 0.
-24.6027 -34.8403 0.
-5.67007 -8.51462 0.
