# vtk DataFile Version 2.0
test grain
ASCII
DATASET UNSTRUCTURED_GRID
POINTS 5000 float
0.497721 0.000613284 0.
0.500566 0.000797661 0.
0.503048 0.000864443 0.
0.505513 0.000929686 0.
0.507631 0.000946841 0.
0.509749 0.00096438 0.
0.51184 0.000977265 0.
0.513885 0.000981611 0.
0.515931 0.000985976 0.
0.517955 0.000989833 0.
0.519968 0.000993451 0.
0.521981 0.000997082 0.
0.523984 0.000998003 0.
0.525986 0.000998558 0.
0.527988 0.000999078 0.
0.52999 0.000999304 0.
0.531992 0.000999529 0.
0.533993 0.000999726 0.
0.535994 0.000999864 0.
0.537995 0.001 0.
0.539996 0.00100013 0.
0.541996 0.00100026 0.
0.543997 0.00100039 0.
0.545997 0.00100032 0.
0.547998 0.00100019 0.
0.549998 0.00100006 0.
0.551998 0.00100015 0.
0.553998 0.00100025 0.
0.555998 0.00100033 0.
0.557998 0.00100038 0.
0.559998 0.00100043 0.
0.561999 0.00100047 0.
0.563999 0.00100049 0.
0.565999 0.00100052 0.
0.567999 0.00100053 0.
0.569999 0.00100053 0.
0.571999 0.00100054 0.
0.573999 0.0010005 0.
0.575998 0.00100046 0.
0.577998 0.00100042 0.
0.579998 0.00100044 0.
0.581998 0.00100045 0.
0.583998 0.00100044 0.
0.585998 0.00100038 0.
0.587998 0.00100032 0.
0.589998 0.00100041 0.
0.591998 0.00100062 0.
0.593998 0.00100084 0.
0.595998 0.00100061 0.
0.597999 0.00100027 0.
0.6 0.000999922 0.
0.602001 0.00100028 0.
0.604002 0.00100065 0.
0.606003 0.00100088 0.
0.608002 0.00100066 0.
0.610002 0.00100044 0.
0.612002 0.00100035 0.
0.614002 0.00100041 0.
0.616002 0.00100047 0.
0.618002 0.00100047 0.
0.620002 0.00100043 0.
0.622002 0.00100039 0.
0.624002 0.00100043 0.
0.626001 0.00100048 0.
0.628001 0.00100053 0.
0.630001 0.00100053 0.
0.632001 0.00100054 0.
0.634001 0.00100054 0.
0.636001 0.00100052 0.
0.638002 0.00100051 0.
0.640002 0.00100044 0.
0.642002 0.00100035 0.
0.644002 0.00100025 0.
0.646002 0.0010002 0.
0.648002 0.00100016 0.
0.650002 0.00100011 0.
0.652003 0.00100019 0.
0.654003 0.00100026 0.
0.656004 0.00100029 0.
0.658004 0.00100015 0.
0.660005 0.001 0.
0.662006 0.000999847 0.
0.664007 0.000999667 0.
0.666008 0.000999488 0.
0.66801 0.000999356 0.
0.670012 0.000999247 0.
0.672014 0.000999139 0.
0.674017 0.000997749 0.
0.67602 0.000996212 0.
0.678026 0.00099431 0.
0.680048 0.000989701 0.
0.68207 0.000985113 0.
0.684106 0.000980079 0.
0.686169 0.000974175 0.
0.688231 0.000968307 0.
0.690399 0.000940338 0.
0.692622 0.000902362 0.
0.69487 0.000863204 0.
0.697664 0.000765621 0.
0.700464 0.00066995 0.
0.495592 0.00157714 0.
0.498976 0.00228804 0.
0.501872 0.00255692 0.
0.50471 0.00277116 0.
0.50709 0.00283114 0.
0.50939 0.00288657 0.
0.511628 0.00293132 0.
0.513723 0.00294445 0.
0.515819 0.00295764 0.
0.517878 0.00296924 0.
0.519913 0.00298015 0.
0.521949 0.00299111 0.
0.523959 0.002994 0.
0.525965 0.00299566 0.
0.52797 0.00299723 0.
0.529974 0.00299791 0.
0.531979 0.00299858 0.
0.533983 0.00299918 0.
0.535986 0.00299959 0.
0.537988 0.003 0.
0.53999 0.0030004 0.
0.541991 0.00300079 0.
0.543992 0.00300118 0.
0.545992 0.00300096 0.
0.547993 0.00300057 0.
0.549994 0.00300017 0.
0.551994 0.00300046 0.
0.553994 0.00300074 0.
0.555994 0.003001 0.
0.557995 0.00300115 0.
0.559995 0.00300129 0.
0.561996 0.0030014 0.
0.563996 0.00300148 0.
0.565996 0.00300155 0.
0.567996 0.00300158 0.
0.569996 0.0030016 0.
0.571996 0.00300161 0.
0.573996 0.0030015 0.
0.575995 0.00300137 0.
0.577995 0.00300126 0.
0.579995 0.00300131 0.
0.581995 0.00300136 0.
0.583994 0.00300133 0.
0.585994 0.00300114 0.
0.587994 0.00300095 0.
0.589994 0.00300122 0.
0.591993 0.00300186 0.
0.593993 0.00300251 0.
0.595995 0.00300184 0.
0.597998 0.0030008 0.
0.6 0.00299977 0.
0.602003 0.00300085 0.
0.604006 0.00300194 0.
0.606008 0.00300264 0.
0.608007 0.00300198 0.
0.610007 0.00300133 0.
0.612007 0.00300105 0.
0.614006 0.00300124 0.
0.616006 0.00300142 0.
0.618006 0.0030014 0.
0.620006 0.00300129 0.
0.622005 0.00300118 0.
0.624005 0.0030013 0.
0.626004 0.00300144 0.
0.628004 0.00300158 0.
0.630004 0.0030016 0.
0.632004 0.00300163 0.
0.634004 0.00300163 0.
0.636004 0.00300157 0.
0.638005 0.00300152 0.
0.640005 0.00300133 0.
0.642006 0.00300104 0.
0.644006 0.00300075 0.
0.646007 0.00300059 0.
0.648007 0.00300047 0.
0.650007 0.00300034 0.
0.652008 0.00300056 0.
0.654008 0.00300078 0.
0.656009 0.00300086 0.
0.658011 0.00300043 0.
0.660012 0.00300001 0.
0.662015 0.00299954 0.
0.664018 0.002999 0.
0.666021 0.00299846 0.
0.668026 0.00299807 0.
0.670031 0.00299774 0.
0.672036 0.00299742 0.
0.674046 0.0029932 0.
0.676055 0.00298858 0.
0.678072 0.00298273 0.
0.68013 0.0029688 0.
0.682188 0.00295493 0.
0.684274 0.00293965 0.
0.686405 0.00292174 0.
0.688536 0.00290394 0.
0.690953 0.00280194 0.
0.693445 0.0026814 0.
0.696176 0.00252082 0.
0.699367 0.00221552 0.
0.70268 0.00170542 0.
0.49308 0.00217714 0.
0.496785 0.0033651 0.
0.500488 0.00419805 0.
0.503711 0.00456949 0.
0.506496 0.00470179 0.
0.508992 0.00479913 0.
0.511411 0.00488473 0.
0.513557 0.00490678 0.
0.515704 0.00492892 0.
0.517799 0.00494829 0.
0.519858 0.00496659 0.
0.521917 0.00498495 0.
0.523933 0.00498997 0.
0.525943 0.00499275 0.
0.527952 0.00499537 0.
0.529959 0.0049965 0.
0.531966 0.00499763 0.
0.533972 0.00499862 0.
0.535977 0.00499931 0.
0.537981 0.005 0.
0.539984 0.00500067 0.
0.541985 0.00500131 0.
0.543986 0.00500196 0.
0.545988 0.0050016 0.
0.547989 0.00500094 0.
0.54999 0.00500028 0.
0.55199 0.00500076 0.
0.55399 0.00500124 0.
0.55599 0.00500166 0.
0.557991 0.00500191 0.
0.559992 0.00500215 0.
0.561993 0.00500234 0.
0.563993 0.00500246 0.
0.565994 0.00500258 0.
0.567994 0.00500264 0.
0.569994 0.00500266 0.
0.571994 0.00500269 0.
0.573993 0.0050025 0.
0.575993 0.00500228 0.
0.577992 0.0050021 0.
0.579991 0.00500219 0.
0.581991 0.00500227 0.
0.583991 0.00500222 0.
0.58599 0.0050019 0.
0.58799 0.00500159 0.
0.589989 0.00500204 0.
0.591989 0.00500311 0.
0.593988 0.00500418 0.
0.595991 0.00500307 0.
0.597996 0.00500134 0.
0.6 0.00499961 0.
0.602005 0.00500142 0.
0.604009 0.00500323 0.
0.606013 0.00500439 0.
0.608012 0.00500331 0.
0.610012 0.00500222 0.
0.612011 0.00500176 0.
0.614011 0.00500206 0.
0.61601 0.00500236 0.
0.61801 0.00500234 0.
0.620009 0.00500215 0.
0.622009 0.00500197 0.
0.624008 0.00500216 0.
0.626007 0.0050024 0.
0.628006 0.00500263 0.
0.630007 0.00500267 0.
0.632007 0.00500271 0.
0.634007 0.00500271 0.
0.636007 0.00500262 0.
0.638008 0.00500253 0.
0.640009 0.00500222 0.
0.64201 0.00500174 0.
0.644011 0.00500125 0.
0.646011 0.00500099 0.
0.648011 0.00500078 0.
0.650012 0.00500057 0.
0.652013 0.00500094 0.
0.654014 0.0050013 0.
0.656015 0.00500142 0.
0.658017 0.00500072 0.
0.66002 0.00500002 0.
0.662024 0.00499923 0.
0.664029 0.00499833 0.
0.666035 0.00499743 0.
0.668042 0.00499677 0.
0.67005 0.00499623 0.
0.672059 0.00499569 0.
0.674074 0.00498857 0.
0.676091 0.00498085 0.
0.678119 0.00497087 0.
0.680213 0.00494747 0.
0.682307 0.00492419 0.
0.684448 0.00489842 0.
0.68665 0.00486822 0.
0.688851 0.00483822 0.
0.691593 0.00463528 0.
0.694384 0.0044228 0.
0.697796 0.00406779 0.
0.701516 0.00347332 0.
0.705315 0.00232194 0.
0.490084 0.00231272 0.
0.494476 0.00401433 0.
0.498646 0.00528882 0.
0.50207 0.00581995 0.
0.505253 0.0061471 0.
0.507921 0.00634757 0.
0.510573 0.00655479 0.
0.512896 0.00665108 0.
0.515211 0.00673907 0.
0.517447 0.00680945 0.
0.519587 0.00685562 0.
0.52173 0.00690251 0.
0.523799 0.00693058 0.
0.525852 0.00695491 0.
0.527903 0.00697795 0.
0.529919 0.00698043 0.
0.531935 0.00698291 0.
0.533949 0.00698616 0.
0.535959 0.00699114 0.
0.537968 0.00699613 0.
0.539974 0.00699915 0.
0.541977 0.00700051 0.
0.54398 0.00700188 0.
0.545982 0.00700213 0.
0.547983 0.00700204 0.
0.549985 0.00700196 0.
0.551985 0.00700219 0.
0.553985 0.00700242 0.
0.555986 0.00700266 0.
0.557987 0.00700292 0.
0.559988 0.00700319 0.
0.561989 0.00700346 0.
0.56399 0.00700375 0.
0.565991 0.00700403 0.
0.567991 0.00700422 0.
0.569991 0.00700438 0.
0.571992 0.00700453 0.
0.573991 0.00700439 0.
0.57599 0.0070042 0.
0.57799 0.00700405 0.
0.579989 0.00700413 0.
0.581989 0.00700422 0.
0.583989 0.00700423 0.
0.585988 0.00700408 0.
0.587988 0.00700394 0.
0.589987 0.00700428 0.
0.591986 0.00700503 0.
0.593985 0.00700577 0.
0.595989 0.00700495 0.
0.597995 0.00700367 0.
0.6 0.00700239 0.
0.602006 0.0070038 0.
0.604012 0.00700521 0.
0.606016 0.00700611 0.
0.608015 0.0070053 0.
0.610014 0.00700448 0.
0.612013 0.0070041 0.
0.614013 0.00700425 0.
0.616012 0.0070044 0.
0.618012 0.00700435 0.
0.620012 0.0070042 0.
0.622011 0.00700405 0.
0.624011 0.00700419 0.
0.62601 0.00700437 0.
0.628009 0.00700451 0.
0.63001 0.00700439 0.
0.63201 0.00700428 0.
0.634011 0.00700413 0.
0.636011 0.00700389 0.
0.638012 0.00700366 0.
0.640013 0.00700327 0.
0.642014 0.00700275 0.
0.644015 0.00700224 0.
0.646016 0.00700209 0.
0.648017 0.00700205 0.
0.650017 0.00700201 0.
0.652019 0.00700177 0.
0.654021 0.00700154 0.
0.656023 0.00700095 0.
0.658028 0.00699916 0.
0.660032 0.00699737 0.
0.662041 0.00699339 0.
0.664053 0.00698684 0.
0.666066 0.00698031 0.
0.668086 0.00697631 0.
0.670109 0.0069734 0.
0.672133 0.0069705 0.
0.674206 0.00693561 0.
0.676282 0.00689921 0.
0.678382 0.00685921 0.
0.680575 0.00680124 0.
0.682763 0.00674449 0.
0.685093 0.00664946 0.
0.687502 0.00653596 0.
0.690013 0.00637004 0.
0.692955 0.00599985 0.
0.696035 0.0056336 0.
0.699711 0.0051502 0.
0.704102 0.00413716 0.
0.708237 0.00251236 0.
0.487023 0.00230038 0.
0.491859 0.00425503 0.
0.496148 0.00576237 0.
0.500158 0.00685347 0.
0.503617 0.00744037 0.
0.506685 0.00781463 0.
0.509563 0.00815756 0.
0.512149 0.00836247 0.
0.514652 0.00852498 0.
0.517076 0.00866446 0.
0.519302 0.00874021 0.
0.521532 0.00881717 0.
0.52366 0.00886927 0.
0.525758 0.00891572 0.
0.527853 0.00896052 0.
0.529878 0.00896434 0.
0.531903 0.00896817 0.
0.533925 0.00897363 0.
0.53594 0.00898292 0.
0.537956 0.00899222 0.
0.539965 0.00899763 0.
0.541969 0.00899971 0.
0.543974 0.00900179 0.
0.545976 0.00900265 0.
0.547978 0.00900314 0.
0.54998 0.00900364 0.
0.55198 0.00900362 0.
0.553981 0.0090036 0.
0.555982 0.00900365 0.
0.557983 0.00900394 0.
0.559984 0.00900423 0.
0.561985 0.00900459 0.
0.563986 0.00900503 0.
0.565987 0.00900547 0.
0.567988 0.00900581 0.
0.569989 0.0090061 0.
0.571989 0.00900638 0.
0.573989 0.00900628 0.
0.575988 0.00900612 0.
0.577988 0.00900599 0.
0.579987 0.00900608 0.
0.581987 0.00900617 0.
0.583987 0.00900623 0.
0.585986 0.00900626 0.
0.587985 0.00900629 0.
0.589985 0.00900653 0.
0.591984 0.00900695 0.
0.593982 0.00900737 0.
0.595987 0.00900682 0.
0.597994 0.009006 0.
0.6 0.00900518 0.
0.602007 0.00900618 0.
0.604014 0.00900719 0.
0.606019 0.00900784 0.
0.608018 0.00900729 0.
0.610017 0.00900674 0.
0.612016 0.00900644 0.
0.614015 0.00900644 0.
0.616014 0.00900644 0.
0.618014 0.00900636 0.
0.620014 0.00900625 0.
0.622014 0.00900614 0.
0.624013 0.00900622 0.
0.626012 0.00900633 0.
0.628012 0.00900639 0.
0.630013 0.00900612 0.
0.632013 0.00900585 0.
0.634014 0.00900554 0.
0.636015 0.00900517 0.
0.638017 0.00900479 0.
0.640018 0.00900432 0.
0.642019 0.00900377 0.
0.64402 0.00900322 0.
0.646021 0.0090032 0.
0.648022 0.00900332 0.
0.650023 0.00900344 0.
0.652025 0.00900261 0.
0.654028 0.00900178 0.
0.656031 0.00900047 0.
0.658038 0.00899759 0.
0.660045 0.00899471 0.
0.662057 0.00898749 0.
0.664078 0.00897527 0.
0.666098 0.00896309 0.
0.668131 0.00895578 0.
0.670169 0.00895048 0.
0.672208 0.00894519 0.
0.674343 0.00888029 0.
0.67648 0.00881415 0.
0.678663 0.00874215 0.
0.680961 0.00864705 0.
0.683252 0.00855396 0.
0.685848 0.00836034 0.
0.688498 0.00815061 0.
0.691435 0.00775387 0.
0.694581 0.00719417 0.
0.698149 0.00659018 0.
0.702235 0.00576099 0.
0.706738 0.00434806 0.
0.711513 0.00235247 0.
0.483664 0.00217683 0.
0.488842 0.00421864 0.
0.493543 0.00600196 0.
0.497795 0.00751038 0.
0.501827 0.00856751 0.
0.505412 0.00920789 0.
0.508511 0.00966941 0.
0.511378 0.00999999 0.
0.514047 0.0102325 0.
0.516661 0.0104619 0.
0.518967 0.0105709 0.
0.521282 0.0106839 0.
0.523478 0.0107691 0.
0.525624 0.0108464 0.
0.527769 0.0109235 0.
0.52981 0.0109332 0.
0.531852 0.010943 0.
0.533887 0.010954 0.
0.53591 0.010968 0.
0.537933 0.010982 0.
0.539948 0.0109907 0.
0.541956 0.0109949 0.
0.543964 0.0109991 0.
0.545968 0.0110011 0.
0.547971 0.0110023 0.
0.549974 0.0110035 0.
0.551975 0.0110036 0.
0.553976 0.0110036 0.
0.555977 0.0110037 0.
0.557979 0.0110041 0.
0.55998 0.0110045 0.
0.561981 0.011005 0.
0.563983 0.0110055 0.
0.565984 0.0110061 0.
0.567985 0.0110065 0.
0.569986 0.0110069 0.
0.571987 0.0110073 0.
0.573986 0.0110073 0.
0.575986 0.0110073 0.
0.577985 0.0110073 0.
0.579985 0.0110074 0.
0.581985 0.0110075 0.
0.583985 0.0110076 0.
0.585985 0.0110077 0.
0.587984 0.0110079 0.
0.589983 0.0110079 0.
0.591982 0.011008 0.
0.593981 0.011008 0.
0.595986 0.011008 0.
0.597993 0.011008 0.
0.6 0.0110079 0.
0.602008 0.0110082 0.
0.604015 0.0110084 0.
0.606021 0.0110086 0.
0.608019 0.0110084 0.
0.610018 0.0110082 0.
0.612017 0.0110081 0.
0.614017 0.0110079 0.
0.616016 0.0110078 0.
0.618016 0.0110077 0.
0.620016 0.0110076 0.
0.622016 0.0110075 0.
0.624016 0.0110074 0.
0.626015 0.0110074 0.
0.628015 0.0110073 0.
0.630016 0.0110069 0.
0.632017 0.0110065 0.
0.634018 0.011006 0.
0.63602 0.0110056 0.
0.638021 0.0110051 0.
0.640022 0.0110046 0.
0.642024 0.0110039 0.
0.644026 0.0110032 0.
0.646027 0.0110031 0.
0.648029 0.0110031 0.
0.65003 0.011003 0.
0.652034 0.0110011 0.
0.654038 0.0109993 0.
0.656044 0.0109964 0.
0.658055 0.0109905 0.
0.660067 0.0109846 0.
0.662088 0.0109732 0.
0.664117 0.0109557 0.
0.666147 0.0109382 0.
0.668201 0.0109213 0.
0.670264 0.0109051 0.
0.672329 0.010888 0.
0.674528 0.0107838 0.
0.676725 0.0106807 0.
0.679001 0.010566 0.
0.681404 0.0104274 0.
0.683821 0.0102874 0.
0.686659 0.00999056 0.
0.689585 0.00967064 0.
0.692929 0.00901058 0.
0.696407 0.008254 0.
0.700352 0.00741301 0.
0.705007 0.00601421 0.
0.70979 0.00425467 0.
0.714948 0.00213984 0.
0.480157 0.00194869 0.
0.485963 0.00421073 0.
0.490931 0.0060646 0.
0.495581 0.00794958 0.
0.500388 0.00951252 0.
0.504176 0.0103029 0.
0.50747 0.0108772 0.
0.510591 0.0113871 0.
0.513378 0.0117641 0.
0.516126 0.0121431 0.
0.518549 0.0123175 0.
0.520957 0.0124848 0.
0.52324 0.0126201 0.
0.525441 0.0127407 0.
0.527643 0.0128626 0.
0.529712 0.0128853 0.
0.531778 0.0129063 0.
0.533835 0.0129271 0.
0.535867 0.0129462 0.
0.5379 0.0129653 0.
0.539922 0.0129784 0.
0.541936 0.0129861 0.
0.54395 0.0129939 0.
0.545957 0.0129974 0.
0.547962 0.0129995 0.
0.549967 0.0130016 0.
0.551969 0.0130021 0.
0.55397 0.0130025 0.
0.555972 0.0130029 0.
0.557974 0.0130035 0.
0.559975 0.013004 0.
0.561977 0.0130046 0.
0.563978 0.0130052 0.
0.56598 0.0130058 0.
0.567981 0.0130063 0.
0.569982 0.0130067 0.
0.571984 0.0130072 0.
0.573984 0.0130074 0.
0.575983 0.0130076 0.
0.577983 0.0130079 0.
0.579983 0.013008 0.
0.581984 0.0130082 0.
0.583984 0.0130084 0.
0.585983 0.0130085 0.
0.587983 0.0130087 0.
0.589983 0.0130085 0.
0.591982 0.0130081 0.
0.593982 0.0130077 0.
0.595987 0.0130084 0.
0.597994 0.0130095 0.
0.6 0.0130106 0.
0.602008 0.0130098 0.
0.604015 0.0130089 0.
0.60602 0.0130083 0.
0.608019 0.0130086 0.
0.610019 0.013009 0.
0.612018 0.013009 0.
0.614018 0.0130088 0.
0.616018 0.0130085 0.
0.618018 0.0130084 0.
0.620019 0.0130082 0.
0.622019 0.013008 0.
0.624019 0.0130078 0.
0.626019 0.0130076 0.
0.628019 0.0130073 0.
0.63002 0.0130067 0.
0.632021 0.0130061 0.
0.634022 0.0130056 0.
0.636024 0.0130051 0.
0.638025 0.0130047 0.
0.640027 0.013004 0.
0.642029 0.0130032 0.
0.644031 0.0130023 0.
0.646033 0.0130018 0.
0.648036 0.0130013 0.
0.650038 0.0130008 0.
0.652044 0.0129974 0.
0.654051 0.012994 0.
0.65606 0.0129887 0.
0.658081 0.0129778 0.
0.660101 0.0129668 0.
0.662131 0.0129504 0.
0.664173 0.0129278 0.
0.666215 0.0129053 0.
0.6683 0.012871 0.
0.6704 0.0128338 0.
0.672508 0.0127919 0.
0.674774 0.0126358 0.
0.677036 0.0124825 0.
0.679442 0.0122959 0.
0.681978 0.0120809 0.
0.684595 0.0118124 0.
0.687544 0.0113165 0.
0.690679 0.0107891 0.
0.694165 0.01005 0.
0.697988 0.0091833 0.
0.702594 0.00791425 0.
0.707494 0.00611571 0.
0.712658 0.00419712 0.
0.718489 0.00194494 0.
0.476799 0.00177424 0.
0.483056 0.00420793 0.
0.488439 0.00606608 0.
0.493386 0.00818282 0.
0.498619 0.010064 0.
0.502638 0.0111387 0.
0.506301 0.0119879 0.
0.509676 0.0126878 0.
0.512673 0.0132543 0.
0.515542 0.0137821 0.
0.51811 0.0140541 0.
0.520614 0.014277 0.
0.522996 0.0144662 0.
0.525253 0.0146313 0.
0.527513 0.0147989 0.
0.529612 0.0148365 0.
0.531703 0.014869 0.
0.533782 0.0149001 0.
0.535824 0.0149243 0.
0.537866 0.0149486 0.
0.539897 0.014966 0.
0.541917 0.0149773 0.
0.543937 0.0149886 0.
0.545947 0.0149936 0.
0.547953 0.0149967 0.
0.54996 0.0149997 0.
0.551962 0.0150005 0.
0.553965 0.0150013 0.
0.555967 0.0150021 0.
0.557969 0.0150028 0.
0.559971 0.0150035 0.
0.561973 0.0150042 0.
0.563974 0.0150049 0.
0.565976 0.0150056 0.
0.567977 0.0150061 0.
0.569979 0.0150066 0.
0.57198 0.0150071 0.
0.573981 0.0150076 0.
0.575981 0.015008 0.
0.577981 0.0150085 0.
0.579982 0.0150087 0.
0.581982 0.0150089 0.
0.583982 0.0150091 0.
0.585982 0.0150093 0.
0.587982 0.0150095 0.
0.589982 0.0150091 0.
0.591982 0.0150082 0.
0.593982 0.0150073 0.
0.595987 0.0150089 0.
0.597994 0.0150111 0.
0.6 0.0150133 0.
0.602007 0.0150113 0.
0.604014 0.0150094 0.
0.60602 0.015008 0.
0.60802 0.0150089 0.
0.610019 0.0150097 0.
0.612019 0.01501 0.
0.61402 0.0150096 0.
0.61602 0.0150093 0.
0.61802 0.015009 0.
0.620021 0.0150088 0.
0.622021 0.0150086 0.
0.624022 0.0150082 0.
0.626022 0.0150077 0.
0.628022 0.0150073 0.
0.630024 0.0150065 0.
0.632025 0.0150058 0.
0.634027 0.0150052 0.
0.636028 0.0150047 0.
0.63803 0.0150042 0.
0.640032 0.0150035 0.
0.642034 0.0150024 0.
0.644036 0.0150014 0.
0.646039 0.0150004 0.
0.648043 0.0149995 0.
0.650046 0.0149985 0.
0.652055 0.0149936 0.
0.654064 0.0149887 0.
0.656077 0.014981 0.
0.658106 0.014965 0.
0.660134 0.014949 0.
0.662175 0.0149274 0.
0.66423 0.0148998 0.
0.666283 0.0148723 0.
0.668402 0.0148191 0.
0.670538 0.0147607 0.
0.672694 0.0146915 0.
0.675029 0.0144823 0.
0.677357 0.0142777 0.
0.679919 0.0140079 0.
0.682594 0.0137136 0.
0.685426 0.0132622 0.
0.688472 0.0125722 0.
0.691875 0.0118012 0.
0.695554 0.0109055 0.
0.699508 0.00995509 0.
0.704787 0.00821036 0.
0.709992 0.0060713 0.
0.715791 0.00403709 0.
0.722146 0.0018497 0.
0.473275 0.00166299 0.
0.47989 0.00397679 0.
0.485756 0.00604403 0.
0.490937 0.00820646 0.
0.496445 0.0102769 0.
0.501011 0.0118434 0.
0.50505 0.0130067 0.
0.508652 0.0138889 0.
0.511916 0.0146465 0.
0.514817 0.0152465 0.
0.517512 0.0156401 0.
0.520083 0.0159239 0.
0.522574 0.0161866 0.
0.524883 0.0163924 0.
0.527203 0.0166037 0.
0.529374 0.0166904 0.
0.531525 0.0167658 0.
0.533661 0.0168348 0.
0.535723 0.0168666 0.
0.537786 0.0168985 0.
0.539835 0.0169248 0.
0.54187 0.0169457 0.
0.543905 0.0169668 0.
0.545923 0.0169778 0.
0.547935 0.0169853 0.
0.549947 0.0169929 0.
0.551952 0.0169953 0.
0.553956 0.0169976 0.
0.55596 0.0169997 0.
0.557963 0.0170011 0.
0.559966 0.0170024 0.
0.561969 0.0170035 0.
0.563971 0.0170044 0.
0.565973 0.0170053 0.
0.567975 0.017006 0.
0.569976 0.0170065 0.
0.571978 0.017007 0.
0.573979 0.0170077 0.
0.575979 0.0170084 0.
0.577979 0.017009 0.
0.57998 0.0170092 0.
0.581981 0.0170095 0.
0.583982 0.0170097 0.
0.585982 0.0170099 0.
0.587983 0.0170101 0.
0.589983 0.0170097 0.
0.591983 0.0170086 0.
0.593984 0.0170076 0.
0.595988 0.0170096 0.
0.597994 0.0170125 0.
0.6 0.0170154 0.
0.602007 0.0170128 0.
0.604013 0.0170102 0.
0.606018 0.0170084 0.
0.608019 0.0170092 0.
0.610019 0.0170101 0.
0.612019 0.0170104 0.
0.61402 0.0170101 0.
0.616021 0.0170098 0.
0.618022 0.0170096 0.
0.620022 0.0170093 0.
0.622023 0.017009 0.
0.624024 0.0170084 0.
0.626024 0.0170078 0.
0.628025 0.0170071 0.
0.630027 0.0170063 0.
0.632028 0.0170054 0.
0.63403 0.0170046 0.
0.636033 0.0170037 0.
0.638035 0.0170029 0.
0.640038 0.0170015 0.
0.642041 0.0169997 0.
0.644045 0.016998 0.
0.646051 0.0169949 0.
0.648057 0.0169915 0.
0.650063 0.016988 0.
0.65208 0.0169774 0.
0.654097 0.0169669 0.
0.656122 0.0169519 0.
0.658167 0.0169247 0.
0.660212 0.0168977 0.
0.662277 0.0168653 0.
0.664359 0.0168276 0.
0.666439 0.01679 0.
0.668633 0.0166834 0.
0.670843 0.0165685 0.
0.673085 0.0164361 0.
0.675472 0.0161823 0.
0.677845 0.0159383 0.
0.680548 0.0155742 0.
0.683306 0.0152132 0.
0.686309 0.0145661 0.
0.689453 0.0137301 0.
0.693118 0.0127466 0.
0.697158 0.0116109 0.
0.701477 0.0103686 0.
0.706945 0.00833388 0.
0.712479 0.00601705 0.
0.718832 0.00395124 0.
0.725722 0.00168982 0.
0.469542 0.00151063 0.
0.476486 0.0037498 0.
0.483081 0.00597188 0.
0.48854 0.00811843 0.
0.494277 0.010402 0.
0.499218 0.0123703 0.
0.503564 0.0138212 0.
0.507436 0.0148996 0.
0.510871 0.0157835 0.
0.513857 0.0165018 0.
0.516778 0.0171201 0.
0.519446 0.0174989 0.
0.52209 0.0178722 0.
0.524473 0.0181293 0.
0.526867 0.0183925 0.
0.52912 0.018533 0.
0.531336 0.0186549 0.
0.533535 0.0187676 0.
0.535619 0.0188075 0.
0.537703 0.0188476 0.
0.539772 0.0188828 0.
0.541822 0.0189137 0.
0.543872 0.0189447 0.
0.545899 0.0189618 0.
0.547917 0.0189739 0.
0.549935 0.018986 0.
0.551941 0.0189901 0.
0.553947 0.0189939 0.
0.555953 0.0189973 0.
0.557957 0.0189993 0.
0.559961 0.0190012 0.
0.561964 0.0190028 0.
0.563967 0.0190039 0.
0.565969 0.019005 0.
0.567972 0.0190058 0.
0.569974 0.0190064 0.
0.571976 0.019007 0.
0.573976 0.0190078 0.
0.575977 0.0190087 0.
0.577978 0.0190095 0.
0.579979 0.0190098 0.
0.58198 0.0190101 0.
0.583981 0.0190103 0.
0.585982 0.0190106 0.
0.587983 0.0190108 0.
0.589984 0.0190103 0.
0.591984 0.0190091 0.
0.593985 0.0190079 0.
0.59599 0.0190104 0.
0.597995 0.0190139 0.
0.6 0.0190175 0.
0.602006 0.0190143 0.
0.604012 0.019011 0.
0.606017 0.0190087 0.
0.608018 0.0190096 0.
0.610019 0.0190105 0.
0.61202 0.0190108 0.
0.614021 0.0190106 0.
0.616022 0.0190104 0.
0.618023 0.0190101 0.
0.620024 0.0190097 0.
0.622025 0.0190094 0.
0.624026 0.0190086 0.
0.626026 0.0190078 0.
0.628027 0.019007 0.
0.630029 0.019006 0.
0.632031 0.0190051 0.
0.634034 0.019004 0.
0.636037 0.0190028 0.
0.63804 0.0190016 0.
0.640044 0.0189996 0.
0.642049 0.0189971 0.
0.644054 0.0189945 0.
0.646062 0.0189894 0.
0.648071 0.0189835 0.
0.65008 0.0189774 0.
0.652105 0.0189611 0.
0.654131 0.0189448 0.
0.656166 0.0189225 0.
0.658229 0.0188838 0.
0.660292 0.0188454 0.
0.662382 0.0188018 0.
0.664493 0.018753 0.
0.666603 0.0187046 0.
0.668884 0.0185342 0.
0.671178 0.0183565 0.
0.673519 0.0181517 0.
0.675978 0.017838 0.
0.678467 0.0175176 0.
0.681309 0.0170242 0.
0.684219 0.0164979 0.
0.687367 0.0156325 0.
0.690615 0.0147188 0.
0.69442 0.0136176 0.
0.698918 0.0121736 0.
0.703704 0.010523 0.
0.709403 0.00827369 0.
0.715232 0.00587076 0.
0.722272 0.00391851 0.
0.729388 0.00152185 0.
0.46522 0.00125783 0.
0.472513 0.00366191 0.
0.480169 0.00570423 0.
0.48595 0.00804918 0.
0.491918 0.0103467 0.
0.497076 0.0125564 0.
0.501921 0.0144212 0.
0.506013 0.0157034 0.
0.509602 0.0167832 0.
0.512838 0.0176874 0.
0.515982 0.0185295 0.
0.518794 0.019043 0.
0.52157 0.0195308 0.
0.524065 0.0198402 0.
0.526525 0.0201415 0.
0.528854 0.0203392 0.
0.531128 0.020514 0.
0.533388 0.0206827 0.
0.535497 0.0207318 0.
0.537607 0.0207814 0.
0.539697 0.0208274 0.
0.541762 0.0208702 0.
0.543828 0.0209133 0.
0.545865 0.0209383 0.
0.547891 0.0209564 0.
0.549917 0.0209746 0.
0.551927 0.0209812 0.
0.553936 0.0209874 0.
0.555944 0.020993 0.
0.55795 0.0209959 0.
0.559955 0.0209988 0.
0.56196 0.021001 0.
0.563963 0.0210024 0.
0.565966 0.0210038 0.
0.567968 0.0210048 0.
0.569971 0.0210056 0.
0.571973 0.0210064 0.
0.573974 0.0210073 0.
0.575975 0.0210083 0.
0.577976 0.0210093 0.
0.579977 0.0210096 0.
0.581979 0.0210099 0.
0.58398 0.0210102 0.
0.585982 0.0210104 0.
0.587983 0.0210107 0.
0.589984 0.0210101 0.
0.591986 0.0210088 0.
0.593987 0.0210076 0.
0.595991 0.0210101 0.
0.597996 0.0210137 0.
0.6 0.0210172 0.
0.602006 0.021014 0.
0.604011 0.0210108 0.
0.606015 0.0210085 0.
0.608017 0.0210093 0.
0.610018 0.0210102 0.
0.612019 0.0210106 0.
0.614021 0.0210104 0.
0.616023 0.0210102 0.
0.618024 0.0210099 0.
0.620026 0.0210095 0.
0.622027 0.0210091 0.
0.624028 0.0210082 0.
0.626029 0.0210073 0.
0.62803 0.0210063 0.
0.630032 0.0210051 0.
0.632035 0.0210039 0.
0.634038 0.0210025 0.
0.636041 0.0210007 0.
0.638045 0.020999 0.
0.640051 0.0209961 0.
0.642058 0.0209923 0.
0.644065 0.0209886 0.
0.646077 0.0209805 0.
0.648089 0.0209714 0.
0.650103 0.0209617 0.
0.652139 0.0209373 0.
0.654175 0.0209131 0.
0.656224 0.0208811 0.
0.658305 0.0208298 0.
0.660386 0.0207789 0.
0.662505 0.0207184 0.
0.66465 0.0206518 0.
0.666796 0.0205854 0.
0.669154 0.0203472 0.
0.671518 0.0201098 0.
0.67395 0.0198354 0.
0.676482 0.019471 0.
0.679124 0.0190594 0.
0.682086 0.0184382 0.
0.685222 0.0176671 0.
0.688514 0.0166084 0.
0.692021 0.0155089 0.
0.696025 0.0142667 0.
0.7008 0.0125958 0.
0.705907 0.0105733 0.
0.711855 0.00813667 0.
0.717962 0.00570967 0.
0.726151 0.0036852 0.
0.734074 0.00126608 0.
0.459295 0.000885941 0.
0.468343 0.0034815 0.
0.477276 0.0054228 0.
0.483359 0.0079582 0.
0.489622 0.0102615 0.
0.495 0.0126609 0.
0.500331 0.0149087 0.
0.504549 0.0163925 0.
0.508352 0.0176871 0.
0.511878 0.0188046 0.
0.515187 0.0198033 0.
0.518149 0.0204447 0.
0.521015 0.020997 0.
0.523626 0.0214006 0.
0.526149 0.0217816 0.
0.528559 0.0220712 0.
0.530885 0.022321 0.
0.533206 0.0225693 0.
0.535348 0.0226332 0.
0.537491 0.0226959 0.
0.539608 0.0227559 0.
0.541689 0.0228135 0.
0.54377 0.0228716 0.
0.54582 0.0229068 0.
0.547857 0.0229326 0.
0.549894 0.0229584 0.
0.551908 0.0229686 0.
0.553921 0.0229781 0.
0.555933 0.0229866 0.
0.557941 0.0229907 0.
0.559948 0.0229949 0.
0.561954 0.0229981 0.
0.563958 0.0229998 0.
0.565962 0.0230016 0.
0.567965 0.023003 0.
0.569968 0.0230041 0.
0.571971 0.0230052 0.
0.573972 0.0230062 0.
0.575973 0.0230073 0.
0.577974 0.0230083 0.
0.579976 0.0230087 0.
0.581978 0.0230091 0.
0.58398 0.0230094 0.
0.585982 0.0230096 0.
0.587984 0.0230098 0.
0.589985 0.0230092 0.
0.591987 0.0230079 0.
0.593989 0.0230067 0.
0.595992 0.0230087 0.
0.597996 0.0230117 0.
0.6 0.0230146 0.
0.602005 0.023012 0.
0.60401 0.0230094 0.
0.606014 0.0230076 0.
0.608016 0.0230084 0.
0.610017 0.0230092 0.
0.612019 0.0230096 0.
0.614021 0.0230094 0.
0.616023 0.0230093 0.
0.618025 0.023009 0.
0.620027 0.0230086 0.
0.622029 0.0230082 0.
0.62403 0.0230072 0.
0.626031 0.023006 0.
0.628032 0.0230049 0.
0.630035 0.0230034 0.
0.632038 0.0230019 0.
0.634042 0.023 0.
0.636047 0.0229976 0.
0.638052 0.0229952 0.
0.640059 0.022991 0.
0.642069 0.0229855 0.
0.644079 0.02298 0.
0.646095 0.0229682 0.
0.648113 0.0229549 0.
0.650133 0.0229406 0.
0.652182 0.0229054 0.
0.654232 0.0228704 0.
0.656297 0.0228262 0.
0.658398 0.0227604 0.
0.660499 0.0226951 0.
0.662658 0.0226059 0.
0.664848 0.0225062 0.
0.667051 0.0223983 0.
0.66946 0.0220765 0.
0.671868 0.0217607 0.
0.674412 0.0213917 0.
0.677027 0.0209621 0.
0.679808 0.0204308 0.
0.682801 0.0197707 0.
0.686175 0.018754 0.
0.689625 0.0175291 0.
0.693391 0.0162339 0.
0.697797 0.0146939 0.
0.702862 0.0128205 0.
0.708196 0.0104782 0.
0.714482 0.00795508 0.
0.720921 0.00558493 0.
0.730181 0.00344202 0.
0.740109 0.00088329 0.
0.449384 0.000607899 0.
0.464187 0.00327246 0.
0.474099 0.00527958 0.
0.480841 0.00777616 0.
0.487442 0.0102017 0.
0.492927 0.0126812 0.
0.498386 0.0150942 0.
0.502898 0.0168439 0.
0.507098 0.0185056 0.
0.510876 0.0197821 0.
0.514191 0.0208379 0.
0.517382 0.0217258 0.
0.520383 0.0224026 0.
0.523165 0.0229414 0.
0.525758 0.0234055 0.
0.528257 0.0237932 0.
0.530634 0.0241189 0.
0.533014 0.0244487 0.
0.535197 0.0245336 0.
0.537372 0.0246095 0.
0.539519 0.0246836 0.
0.541615 0.0247562 0.
0.543712 0.0248294 0.
0.545775 0.0248752 0.
0.547823 0.0249086 0.
0.549871 0.0249421 0.
0.551889 0.0249559 0.
0.553907 0.0249687 0.
0.555922 0.0249801 0.
0.557932 0.0249856 0.
0.559941 0.0249911 0.
0.561949 0.0249951 0.
0.563954 0.0249973 0.
0.565958 0.0249995 0.
0.567962 0.0250012 0.
0.569965 0.0250026 0.
0.571969 0.025004 0.
0.57397 0.0250051 0.
0.575972 0.0250062 0.
0.577973 0.0250073 0.
0.579975 0.0250078 0.
0.581977 0.0250082 0.
0.583979 0.0250086 0.
0.585982 0.0250087 0.
0.587984 0.0250088 0.
0.589986 0.0250082 0.
0.591988 0.0250071 0.
0.59399 0.0250059 0.
0.595993 0.0250074 0.
0.597997 0.0250097 0.
0.6 0.025012 0.
0.602005 0.02501 0.
0.604009 0.025008 0.
0.606013 0.0250067 0.
0.608015 0.0250074 0.
0.610017 0.0250082 0.
0.612019 0.0250086 0.
0.614021 0.0250084 0.
0.616024 0.0250083 0.
0.618026 0.025008 0.
0.620028 0.0250076 0.
0.62203 0.0250073 0.
0.624032 0.0250061 0.
0.626033 0.0250048 0.
0.628034 0.0250035 0.
0.630038 0.0250017 0.
0.632042 0.0249998 0.
0.634047 0.0249975 0.
0.636052 0.0249945 0.
0.638058 0.0249914 0.
0.640068 0.0249859 0.
0.64208 0.0249787 0.
0.644093 0.0249715 0.
0.646114 0.0249559 0.
0.648137 0.0249383 0.
0.650163 0.0249192 0.
0.652226 0.0248732 0.
0.654289 0.0248275 0.
0.656371 0.0247709 0.
0.658493 0.0246904 0.
0.660613 0.0246106 0.
0.662815 0.02449 0.
0.665051 0.0243566 0.
0.667315 0.0242007 0.
0.669775 0.0237946 0.
0.672227 0.0233998 0.
0.674909 0.0229272 0.
0.677633 0.0224172 0.
0.680627 0.0216594 0.
0.683716 0.0208462 0.
0.68718 0.0196945 0.
0.690818 0.0183511 0.
0.69478 0.0168786 0.
0.699621 0.0149909 0.
0.704927 0.0128966 0.
0.710494 0.0103371 0.
0.717033 0.00773374 0.
0.723999 0.00546892 0.
0.734536 0.00331117 0.
0.750661 0.000604802 0.
0.4365 0.000644328 0.
0.460209 0.00293689 0.
0.470898 0.00520625 0.
0.478439 0.00753509 0.
0.485092 0.0101647 0.
0.49081 0.0126134 0.
0.496372 0.015138 0.
0.50119 0.0171664 0.
0.505843 0.019232 0.
0.509615 0.0205819 0.
0.513129 0.0217915 0.
0.516566 0.0229672 0.
0.519695 0.0237584 0.
0.522671 0.0244442 0.
0.525311 0.0249751 0.
0.527873 0.0254463 0.
0.530278 0.0258196 0.
0.532702 0.0261996 0.
0.534949 0.0263397 0.
0.537172 0.0264569 0.
0.539364 0.0265675 0.
0.541483 0.026655 0.
0.543604 0.0267433 0.
0.54569 0.0268053 0.
0.547757 0.0268546 0.
0.549825 0.0269044 0.
0.551852 0.0269261 0.
0.553877 0.026946 0.
0.5559 0.0269638 0.
0.557914 0.0269722 0.
0.559928 0.0269805 0.
0.561939 0.0269871 0.
0.563946 0.0269911 0.
0.565953 0.0269952 0.
0.567958 0.026998 0.
0.569962 0.0270002 0.
0.571966 0.0270023 0.
0.573968 0.0270037 0.
0.57597 0.027005 0.
0.577971 0.0270061 0.
0.579974 0.0270066 0.
0.581976 0.027007 0.
0.583979 0.0270073 0.
0.585981 0.0270075 0.
0.587984 0.0270076 0.
0.589987 0.0270071 0.
0.591989 0.0270061 0.
0.593991 0.0270051 0.
0.595994 0.0270063 0.
0.597997 0.0270082 0.
0.6 0.0270101 0.
0.602004 0.0270084 0.
0.604008 0.0270067 0.
0.606012 0.0270056 0.
0.608014 0.0270063 0.
0.610017 0.027007 0.
0.612019 0.0270074 0.
0.614022 0.0270073 0.
0.616024 0.0270072 0.
0.618027 0.0270069 0.
0.620029 0.0270065 0.
0.622032 0.0270061 0.
0.624034 0.0270046 0.
0.626035 0.027003 0.
0.628038 0.0270013 0.
0.630042 0.0269984 0.
0.632047 0.0269956 0.
0.634053 0.0269918 0.
0.636062 0.0269862 0.
0.638071 0.0269805 0.
0.640085 0.026972 0.
0.642103 0.0269613 0.
0.644121 0.0269506 0.
0.646153 0.0269268 0.
0.648186 0.0269003 0.
0.650224 0.026871 0.
0.652309 0.0268057 0.
0.654394 0.0267411 0.
0.656505 0.026665 0.
0.65866 0.0265658 0.
0.660812 0.0264681 0.
0.663065 0.0262983 0.
0.665347 0.0261154 0.
0.667681 0.0258876 0.
0.670174 0.0254264 0.
0.672654 0.0249832 0.
0.675459 0.0244268 0.
0.678313 0.0238099 0.
0.681496 0.0228136 0.
0.684791 0.0217834 0.
0.688326 0.0204763 0.
0.692058 0.0190605 0.
0.696485 0.0172346 0.
0.70155 0.0151602 0.
0.706948 0.0129066 0.
0.712731 0.0102009 0.
0.71957 0.00756594 0.
0.727167 0.00523747 0.
0.738547 0.00301373 0.
0.768081 0.00075343 0.
0.421216 0.00110897 0.
0.456369 0.00245369 0.
0.467519 0.00509545 0.
0.475974 0.00730191 0.
0.482767 0.0101021 0.
0.488739 0.0125207 0.
0.494388 0.0151468 0.
0.499481 0.0174086 0.
0.50436 0.019738 0.
0.508214 0.0212445 0.
0.512025 0.0226602 0.
0.515639 0.0240557 0.
0.518895 0.0249969 0.
0.521969 0.0257931 0.
0.524657 0.026403 0.
0.527366 0.0270261 0.
0.529849 0.0274668 0.
0.53234 0.0279059 0.
0.534671 0.0281177 0.
0.53695 0.0282872 0.
0.539197 0.0284453 0.
0.541343 0.0285489 0.
0.543492 0.0286535 0.
0.545601 0.0287329 0.
0.547689 0.028799 0.
0.549777 0.0288658 0.
0.551815 0.0288959 0.
0.553848 0.028923 0.
0.555878 0.0289474 0.
0.557897 0.0289587 0.
0.559915 0.0289699 0.
0.56193 0.028979 0.
0.563939 0.0289849 0.
0.565948 0.0289909 0.
0.567954 0.0289949 0.
0.569959 0.0289978 0.
0.571963 0.0290006 0.
0.573966 0.0290022 0.
0.575968 0.0290037 0.
0.57797 0.029005 0.
0.579973 0.0290054 0.
0.581976 0.0290058 0.
0.583978 0.0290061 0.
0.585981 0.0290062 0.
0.587984 0.0290063 0.
0.589987 0.029006 0.
0.59199 0.0290052 0.
0.593992 0.0290044 0.
0.595995 0.0290053 0.
0.597998 0.0290067 0.
0.6 0.0290081 0.
0.602004 0.0290068 0.
0.604007 0.0290055 0.
0.606011 0.0290046 0.
0.608013 0.0290052 0.
0.610016 0.0290059 0.
0.612019 0.0290062 0.
0.614022 0.0290062 0.
0.616025 0.0290061 0.
0.618028 0.0290058 0.
0.620031 0.0290054 0.
0.622033 0.0290049 0.
0.624036 0.0290031 0.
0.626038 0.0290012 0.
0.628041 0.0289991 0.
0.630046 0.0289952 0.
0.632052 0.0289914 0.
0.63406 0.028986 0.
0.636072 0.0289778 0.
0.638084 0.0289696 0.
0.640103 0.0289579 0.
0.642126 0.0289437 0.
0.64415 0.0289296 0.
0.646192 0.0288974 0.
0.648237 0.0288616 0.
0.650287 0.0288213 0.
0.652396 0.0287357 0.
0.654503 0.0286511 0.
0.656647 0.0285531 0.
0.658842 0.0284323 0.
0.661033 0.0283132 0.
0.663348 0.028081 0.
0.665685 0.0278384 0.
0.668117 0.027514 0.
0.670688 0.0269707 0.
0.673305 0.0264212 0.
0.676176 0.0257646 0.
0.679124 0.0250149 0.
0.682409 0.0238723 0.
0.685936 0.0226301 0.
0.689565 0.0211726 0.
0.693352 0.0196719 0.
0.698256 0.0174569 0.
0.703579 0.0152355 0.
0.709063 0.0127804 0.
0.71505 0.0100297 0.
0.722056 0.00746141 0.
0.730339 0.00504693 0.
0.742104 0.00257078 0.
0.782916 0.00153508 0.
0.411813 0.00173488 0.
0.452576 0.00210804 0.
0.464057 0.00497736 0.
0.473376 0.00711602 0.
0.480358 0.00993901 0.
0.486656 0.0124206 0.
0.492358 0.0151071 0.
0.497626 0.0175014 0.
0.502519 0.0198985 0.
0.506753 0.0217947 0.
0.510897 0.0234428 0.
0.514569 0.0249223 0.
0.517885 0.0260369 0.
0.521084 0.0270134 0.
0.523967 0.0277895 0.
0.526814 0.0285638 0.
0.529415 0.0291016 0.
0.531975 0.0295959 0.
0.534396 0.0298786 0.
0.536724 0.0300986 0.
0.539026 0.0303099 0.
0.541197 0.0304283 0.
0.543371 0.0305481 0.
0.545506 0.0306457 0.
0.547612 0.0307307 0.
0.54972 0.030817 0.
0.551768 0.0308576 0.
0.553811 0.0308936 0.
0.555851 0.0309263 0.
0.557874 0.030941 0.
0.559898 0.0309558 0.
0.561917 0.0309679 0.
0.563929 0.0309762 0.
0.565941 0.0309845 0.
0.567949 0.0309901 0.
0.569954 0.0309941 0.
0.57196 0.0309982 0.
0.573963 0.0310001 0.
0.575966 0.0310017 0.
0.577969 0.0310032 0.
0.579972 0.0310037 0.
0.581975 0.0310041 0.
0.583978 0.0310044 0.
0.585981 0.0310046 0.
0.587984 0.0310047 0.
0.589987 0.0310044 0.
0.59199 0.0310038 0.
0.593993 0.0310033 0.
0.595995 0.031004 0.
0.597998 0.0310051 0.
0.6 0.0310062 0.
0.602004 0.0310051 0.
0.604007 0.0310039 0.
0.60601 0.0310032 0.
0.608013 0.0310037 0.
0.610016 0.0310043 0.
0.612019 0.0310046 0.
0.614022 0.0310046 0.
0.616025 0.0310046 0.
0.618029 0.0310042 0.
0.620032 0.0310036 0.
0.622035 0.031003 0.
0.624038 0.0310008 0.
0.626041 0.0309985 0.
0.628045 0.0309958 0.
0.630052 0.0309905 0.
0.632059 0.0309852 0.
0.634069 0.0309777 0.
0.636085 0.0309663 0.
0.6381 0.030955 0.
0.640125 0.0309395 0.
0.642155 0.0309212 0.
0.644185 0.0309029 0.
0.646238 0.0308597 0.
0.648296 0.0308122 0.
0.650362 0.0307583 0.
0.652491 0.0306518 0.
0.654619 0.0305466 0.
0.656797 0.0304238 0.
0.659029 0.0302802 0.
0.661257 0.0301413 0.
0.663631 0.0298483 0.
0.66602 0.0295463 0.
0.668561 0.0291186 0.
0.671213 0.0284947 0.
0.673997 0.0278163 0.
0.676973 0.0270221 0.
0.680124 0.0259945 0.
0.683364 0.0247989 0.
0.687098 0.0234126 0.
0.690996 0.0217071 0.
0.694809 0.020121 0.
0.70006 0.0175755 0.
0.705569 0.0152528 0.
0.711178 0.0126048 0.
0.717343 0.00984641 0.
0.724663 0.00731788 0.
0.733784 0.00497714 0.
0.745539 0.00215854 0.
0.788471 0.0018813 0.
0.406715 0.00184078 0.
0.4485 0.00196771 0.
0.460395 0.00478169 0.
0.470654 0.00699112 0.
0.477992 0.00967878 0.
0.484528 0.0123543 0.
0.490341 0.0149998 0.
0.495733 0.0175347 0.
0.500721 0.0200003 0.
0.50529 0.0222739 0.
0.509584 0.0240892 0.
0.513355 0.0256164 0.
0.516895 0.0270309 0.
0.520203 0.028169 0.
0.523303 0.0291306 0.
0.526259 0.0300073 0.
0.528957 0.0306239 0.
0.531571 0.0311588 0.
0.534082 0.0315369 0.
0.536464 0.0318392 0.
0.538836 0.0321388 0.
0.541035 0.0322762 0.
0.543237 0.032415 0.
0.545397 0.0325353 0.
0.547522 0.0326445 0.
0.549648 0.0327552 0.
0.551711 0.0328096 0.
0.553766 0.0328569 0.
0.555818 0.0328998 0.
0.557847 0.0329188 0.
0.559877 0.0329379 0.
0.5619 0.0329537 0.
0.563916 0.0329648 0.
0.565932 0.032976 0.
0.567942 0.0329836 0.
0.569949 0.0329892 0.
0.571957 0.0329949 0.
0.57396 0.0329972 0.
0.575964 0.0329991 0.
0.577967 0.0330008 0.
0.579971 0.0330014 0.
0.581974 0.033002 0.
0.583978 0.0330024 0.
0.585981 0.0330025 0.
0.587984 0.0330026 0.
0.589987 0.0330025 0.
0.59199 0.0330022 0.
0.593993 0.0330019 0.
0.595995 0.0330025 0.
0.597998 0.0330034 0.
0.6 0.0330043 0.
0.602004 0.0330033 0.
0.604007 0.0330022 0.
0.60601 0.0330015 0.
0.608013 0.0330019 0.
0.610016 0.0330023 0.
0.612019 0.0330025 0.
0.614022 0.0330026 0.
0.616026 0.0330026 0.
0.618029 0.033002 0.
0.620033 0.0330012 0.
0.622037 0.0330004 0.
0.624041 0.0329977 0.
0.626045 0.0329948 0.
0.62805 0.0329914 0.
0.630059 0.0329842 0.
0.632068 0.032977 0.
0.634081 0.0329669 0.
0.636101 0.0329516 0.
0.638121 0.0329363 0.
0.640152 0.0329163 0.
0.642189 0.0328932 0.
0.644226 0.0328701 0.
0.646295 0.032812 0.
0.648368 0.0327487 0.
0.650452 0.0326769 0.
0.652603 0.0325465 0.
0.654752 0.0324179 0.
0.656966 0.0322548 0.
0.659235 0.0320649 0.
0.66151 0.031877 0.
0.66396 0.0315144 0.
0.666403 0.0311538 0.
0.669034 0.0306121 0.
0.671707 0.0299532 0.
0.674661 0.0291557 0.
0.677738 0.0282459 0.
0.681109 0.026917 0.
0.684532 0.0255767 0.
0.688246 0.0241411 0.
0.692498 0.0221431 0.
0.696682 0.0201826 0.
0.70194 0.0176428 0.
0.707617 0.0152115 0.
0.713274 0.0124233 0.
0.719651 0.00970193 0.
0.727286 0.00705538 0.
0.737502 0.0048819 0.
0.749187 0.00199212 0.
0.791027 0.00222292 0.
0.406068 0.00217231 0.
0.444458 0.00193791 0.
0.456955 0.00436581 0.
0.467897 0.00685447 0.
0.475734 0.00943851 0.
0.482433 0.0122629 0.
0.488392 0.0149009 0.
0.493915 0.0175536 0.
0.498981 0.0200721 0.
0.503661 0.0225508 0.
0.508109 0.0245866 0.
0.512129 0.0262584 0.
0.515878 0.0279405 0.
0.519298 0.0292252 0.
0.522549 0.0303202 0.
0.525531 0.0312778 0.
0.528406 0.0320646 0.
0.531119 0.0326873 0.
0.533754 0.0331813 0.
0.536194 0.0335685 0.
0.538636 0.0339612 0.
0.54087 0.0341227 0.
0.543101 0.0342807 0.
0.545288 0.0344236 0.
0.547431 0.0345571 0.
0.549576 0.0346925 0.
0.551653 0.0347614 0.
0.553721 0.0348198 0.
0.555785 0.0348733 0.
0.55782 0.0348966 0.
0.559855 0.0349199 0.
0.561884 0.0349394 0.
0.563903 0.0349535 0.
0.565922 0.0349675 0.
0.567935 0.0349771 0.
0.569944 0.0349843 0.
0.571953 0.0349915 0.
0.573958 0.0349943 0.
0.575962 0.0349964 0.
0.577966 0.0349984 0.
0.57997 0.0349992 0.
0.581974 0.0349999 0.
0.583977 0.0350004 0.
0.585981 0.0350005 0.
0.587984 0.0350006 0.
0.589987 0.0350006 0.
0.59199 0.0350005 0.
0.593993 0.0350004 0.
0.595995 0.035001 0.
0.597998 0.0350017 0.
0.6 0.0350025 0.
0.602004 0.0350015 0.
0.604007 0.0350005 0.
0.60601 0.0349998 0.
0.608013 0.035 0.
0.610016 0.0350003 0.
0.612019 0.0350004 0.
0.614022 0.0350005 0.
0.616026 0.0350006 0.
0.61803 0.0349999 0.
0.620034 0.0349988 0.
0.622038 0.0349977 0.
0.624044 0.0349946 0.
0.626049 0.0349911 0.
0.628055 0.034987 0.
0.630066 0.0349779 0.
0.632076 0.0349688 0.
0.634092 0.034956 0.
0.636118 0.0349368 0.
0.638143 0.0349175 0.
0.640179 0.0348931 0.
0.642223 0.0348651 0.
0.644267 0.0348371 0.
0.646351 0.0347638 0.
0.64844 0.0346847 0.
0.650543 0.0345945 0.
0.652715 0.0344402 0.
0.654886 0.0342878 0.
0.657138 0.0340806 0.
0.659445 0.0338438 0.
0.661777 0.0336052 0.
0.664309 0.033168 0.
0.666825 0.0327342 0.
0.6696 0.0320279 0.
0.672367 0.0312601 0.
0.675429 0.0303454 0.
0.678557 0.029339 0.
0.682102 0.0277761 0.
0.68582 0.0262492 0.
0.689438 0.0247868 0.
0.694026 0.0225009 0.
0.698533 0.0201826 0.
0.703887 0.017681 0.
0.709647 0.015081 0.
0.715367 0.0122101 0.
0.721982 0.00960928 0.
0.729835 0.00683094 0.
0.741051 0.0046391 0.
0.752778 0.00196821 0.
0.791518 0.00267852 0.
0.40655 0.00270173 0.
0.440795 0.00197372 0.
0.453864 0.00398172 0.
0.465267 0.00671851 0.
0.473514 0.00926508 0.
0.480399 0.0121301 0.
0.486534 0.0148223 0.
0.492141 0.0175692 0.
0.497254 0.0201137 0.
0.502032 0.0226999 0.
0.50661 0.0249839 0.
0.510899 0.0268571 0.
0.514762 0.0286869 0.
0.518312 0.0301389 0.
0.52168 0.0314224 0.
0.524765 0.0325088 0.
0.527826 0.0334812 0.
0.530631 0.0341851 0.
0.533395 0.0347966 0.
0.535868 0.0352415 0.
0.538347 0.0357046 0.
0.540628 0.0359073 0.
0.542894 0.0360941 0.
0.545119 0.0362677 0.
0.547286 0.0364234 0.
0.549457 0.0365814 0.
0.551559 0.0366735 0.
0.553647 0.0367537 0.
0.555731 0.0368283 0.
0.557774 0.0368565 0.
0.559817 0.0368848 0.
0.561854 0.0369098 0.
0.563879 0.03693 0.
0.565905 0.0369502 0.
0.567922 0.0369638 0.
0.569934 0.0369736 0.
0.571946 0.0369835 0.
0.573952 0.0369876 0.
0.575958 0.0369909 0.
0.577964 0.036994 0.
0.579968 0.0369953 0.
0.581973 0.0369967 0.
0.583977 0.0369977 0.
0.585981 0.0369981 0.
0.587984 0.0369986 0.
0.589987 0.0369989 0.
0.59199 0.0369991 0.
0.593993 0.0369993 0.
0.595995 0.0369997 0.
0.597998 0.0370002 0.
0.6 0.0370006 0.
0.602004 0.0369999 0.
0.604007 0.0369991 0.
0.60601 0.0369984 0.
0.608012 0.0369984 0.
0.610015 0.0369984 0.
0.612019 0.0369982 0.
0.614023 0.0369978 0.
0.616027 0.0369974 0.
0.618032 0.036996 0.
0.620037 0.0369943 0.
0.622042 0.0369925 0.
0.624049 0.0369878 0.
0.626056 0.0369829 0.
0.628064 0.036977 0.
0.630079 0.0369644 0.
0.632094 0.0369519 0.
0.634115 0.036934 0.
0.636148 0.0369071 0.
0.638181 0.0368804 0.
0.640226 0.0368499 0.
0.642279 0.0368168 0.
0.644331 0.0367837 0.
0.646443 0.0366813 0.
0.648558 0.0365731 0.
0.650689 0.0364561 0.
0.652886 0.0362835 0.
0.655078 0.0361131 0.
0.657379 0.0358524 0.
0.659723 0.035565 0.
0.662112 0.0352712 0.
0.664687 0.0347892 0.
0.667298 0.0342649 0.
0.6702 0.0334054 0.
0.673133 0.0325077 0.
0.676344 0.0314093 0.
0.679557 0.0301835 0.
0.683097 0.0285762 0.
0.687175 0.0268272 0.
0.691095 0.0250455 0.
0.695573 0.0227661 0.
0.700303 0.0201821 0.
0.705802 0.0176966 0.
0.711551 0.0149546 0.
0.717399 0.0120437 0.
0.724247 0.00952702 0.
0.732404 0.00668164 0.
0.744206 0.00428635 0.
0.756289 0.00199604 0.
0.791376 0.00321541 0.
0.407148 0.00331997 0.
0.437468 0.00210861 0.
0.450875 0.00380485 0.
0.462658 0.00659047 0.
0.47142 0.00915676 0.
0.478484 0.0119959 0.
0.484667 0.0147756 0.
0.490412 0.0175471 0.
0.495566 0.0201423 0.
0.500437 0.0227726 0.
0.505072 0.0252741 0.
0.509538 0.0273385 0.
0.513573 0.0293088 0.
0.517235 0.0309437 0.
0.520701 0.0324283 0.
0.523966 0.0336744 0.
0.527183 0.034814 0.
0.530025 0.0355539 0.
0.532878 0.0362657 0.
0.535421 0.0368063 0.
0.537963 0.0373688 0.
0.540325 0.0376502 0.
0.542645 0.0378821 0.
0.544927 0.0380986 0.
0.547126 0.0382792 0.
0.549329 0.0384624 0.
0.551458 0.0385804 0.
0.55357 0.0386846 0.
0.555677 0.0387824 0.
0.557728 0.0388158 0.
0.559779 0.0388492 0.
0.561823 0.0388798 0.
0.563855 0.0389062 0.
0.565888 0.0389327 0.
0.56791 0.0389504 0.
0.569924 0.0389629 0.
0.571939 0.0389754 0.
0.573947 0.0389809 0.
0.575954 0.0389854 0.
0.577961 0.0389896 0.
0.579966 0.0389915 0.
0.581972 0.0389934 0.
0.583976 0.0389949 0.
0.58598 0.0389957 0.
0.587984 0.0389965 0.
0.589988 0.0389972 0.
0.59199 0.0389977 0.
0.593993 0.0389983 0.
0.595996 0.0389985 0.
0.597998 0.0389987 0.
0.6 0.0389988 0.
0.602003 0.0389983 0.
0.604006 0.0389977 0.
0.606009 0.0389971 0.
0.608012 0.0389968 0.
0.610015 0.0389964 0.
0.612019 0.0389959 0.
0.614023 0.038995 0.
0.616028 0.0389941 0.
0.618033 0.0389922 0.
0.620039 0.0389897 0.
0.622045 0.0389872 0.
0.624054 0.0389811 0.
0.626063 0.0389746 0.
0.628073 0.0389669 0.
0.630092 0.0389508 0.
0.632111 0.0389347 0.
0.634138 0.0389117 0.
0.636179 0.038877 0.
0.63822 0.0388425 0.
0.640274 0.0388059 0.
0.642336 0.0387674 0.
0.644397 0.038729 0.
0.64654 0.0385936 0.
0.648685 0.038453 0.
0.650849 0.0383058 0.
0.653078 0.0381114 0.
0.655302 0.0379195 0.
0.657678 0.0375844 0.
0.660088 0.0372275 0.
0.662586 0.0368315 0.
0.66523 0.0362461 0.
0.66793 0.0356064 0.
0.670838 0.034708 0.
0.673968 0.0336715 0.
0.677296 0.0324176 0.
0.680736 0.0308665 0.
0.68424 0.0292456 0.
0.688545 0.0273302 0.
0.692772 0.0252247 0.
0.697188 0.0228943 0.
0.702065 0.0202028 0.
0.707624 0.0177206 0.
0.713382 0.0148396 0.
0.719387 0.0119269 0.
0.72646 0.00939231 0.
0.734956 0.00663219 0.
0.747111 0.00410885 0.
0.759432 0.00206533 0.
0.791124 0.00382428 0.
0.407431 0.0039584 0.
0.434029 0.00237953 0.
0.448067 0.00379204 0.
0.460174 0.0064776 0.
0.469316 0.00913605 0.
0.476603 0.0118563 0.
0.48286 0.0147484 0.
0.488719 0.0175179 0.
0.493871 0.0201645 0.
0.498861 0.0228226 0.
0.503449 0.0253971 0.
0.508078 0.0276881 0.
0.512294 0.0298118 0.
0.516109 0.031671 0.
0.519678 0.0333259 0.
0.523141 0.0347524 0.
0.526329 0.0359103 0.
0.529339 0.0368209 0.
0.532303 0.0376789 0.
0.534966 0.0383522 0.
0.537571 0.0390135 0.
0.540019 0.039385 0.
0.542396 0.0396611 0.
0.544738 0.0399231 0.
0.546963 0.0401233 0.
0.549196 0.0403285 0.
0.551354 0.0404738 0.
0.553487 0.0406046 0.
0.555616 0.0407302 0.
0.557675 0.0407687 0.
0.559735 0.0408073 0.
0.561787 0.0408437 0.
0.563827 0.0408771 0.
0.565866 0.0409106 0.
0.567893 0.0409331 0.
0.569911 0.040949 0.
0.57193 0.040965 0.
0.57394 0.0409723 0.
0.575949 0.0409784 0.
0.577957 0.0409841 0.
0.579964 0.0409867 0.
0.58197 0.0409893 0.
0.583975 0.0409915 0.
0.58598 0.0409928 0.
0.587984 0.040994 0.
0.589987 0.0409951 0.
0.59199 0.0409959 0.
0.593993 0.0409968 0.
0.595996 0.040997 0.
0.597998 0.0409971 0.
0.6 0.0409972 0.
0.602003 0.0409966 0.
0.604006 0.0409961 0.
0.606009 0.0409955 0.
0.608012 0.0409948 0.
0.610015 0.0409941 0.
0.612019 0.040993 0.
0.614024 0.0409915 0.
0.616029 0.04099 0.
0.618036 0.0409873 0.
0.620043 0.0409839 0.
0.62205 0.0409806 0.
0.624061 0.0409726 0.
0.626072 0.040964 0.
0.628085 0.0409538 0.
0.630109 0.0409332 0.
0.632133 0.0409127 0.
0.634166 0.0408838 0.
0.636215 0.0408414 0.
0.638264 0.0407991 0.
0.640328 0.0407544 0.
0.642401 0.0407081 0.
0.644473 0.0406621 0.
0.646643 0.0404918 0.
0.648814 0.0403186 0.
0.651012 0.0401424 0.
0.653269 0.0399323 0.
0.655523 0.0397217 0.
0.657982 0.0393042 0.
0.660459 0.0388776 0.
0.663079 0.0383654 0.
0.665804 0.0376676 0.
0.668691 0.0368361 0.
0.671686 0.035827 0.
0.674859 0.0347142 0.
0.678276 0.0333546 0.
0.681959 0.0314811 0.
0.685697 0.0297036 0.
0.689992 0.02772 0.
0.694434 0.02536 0.
0.698876 0.0228928 0.
0.703907 0.0202096 0.
0.709429 0.0176842 0.
0.715214 0.0146996 0.
0.721331 0.0118491 0.
0.728567 0.00922987 0.
0.737557 0.00656621 0.
0.749799 0.00405227 0.
0.762317 0.00219845 0.
0.790974 0.00446076 0.
0.407484 0.00468047 0.
0.430918 0.00280399 0.
0.445442 0.00385363 0.
0.457737 0.00630808 0.
0.467225 0.00910386 0.
0.474719 0.0117119 0.
0.481019 0.0146749 0.
0.487007 0.0174633 0.
0.492134 0.0201682 0.
0.497261 0.022882 0.
0.501836 0.0254514 0.
0.506565 0.0279273 0.
0.510968 0.0302303 0.
0.514902 0.0322661 0.
0.518659 0.0341192 0.
0.522169 0.035668 0.
0.52544 0.0369524 0.
0.528663 0.038055 0.
0.531732 0.0390455 0.
0.534526 0.0398467 0.
0.537137 0.0405519 0.
0.539665 0.0410204 0.
0.542093 0.0413511 0.
0.544504 0.0416763 0.
0.54677 0.041912 0.
0.549045 0.0421543 0.
0.551237 0.0423389 0.
0.553392 0.0425059 0.
0.555545 0.0426689 0.
0.557614 0.0427131 0.
0.559684 0.0427575 0.
0.561746 0.0428003 0.
0.563792 0.0428417 0.
0.565839 0.0428833 0.
0.567871 0.0429116 0.
0.569895 0.0429318 0.
0.571918 0.042952 0.
0.573931 0.0429617 0.
0.575942 0.0429697 0.
0.577952 0.0429774 0.
0.57996 0.0429809 0.
0.581967 0.0429844 0.
0.583974 0.0429874 0.
0.585978 0.0429892 0.
0.587983 0.0429911 0.
0.589987 0.0429926 0.
0.59199 0.0429938 0.
0.593993 0.0429949 0.
0.595996 0.0429953 0.
0.597998 0.0429955 0.
0.6 0.0429957 0.
0.602003 0.042995 0.
0.604006 0.0429943 0.
0.606009 0.0429935 0.
0.608013 0.0429924 0.
0.610016 0.0429913 0.
0.61202 0.0429896 0.
0.614026 0.0429873 0.
0.616031 0.042985 0.
0.618039 0.0429813 0.
0.620048 0.0429769 0.
0.622057 0.0429726 0.
0.62407 0.042962 0.
0.626084 0.0429509 0.
0.628099 0.0429376 0.
0.630129 0.0429113 0.
0.632159 0.0428852 0.
0.634199 0.0428495 0.
0.636256 0.0427991 0.
0.638313 0.0427488 0.
0.640392 0.0426924 0.
0.64248 0.042633 0.
0.64457 0.0425724 0.
0.646761 0.0423611 0.
0.648953 0.0421484 0.
0.651204 0.0419184 0.
0.653536 0.0416482 0.
0.655855 0.0413877 0.
0.658363 0.0409198 0.
0.660866 0.0404513 0.
0.663564 0.0398391 0.
0.666365 0.0390539 0.
0.669473 0.0380328 0.
0.672589 0.0369093 0.
0.675948 0.0355741 0.
0.679385 0.0340864 0.
0.683187 0.0320472 0.
0.68726 0.0300489 0.
0.691525 0.027967 0.
0.696088 0.0254286 0.
0.700574 0.0228509 0.
0.705745 0.0202081 0.
0.71123 0.017592 0.
0.717026 0.0145568 0.
0.72334 0.0117956 0.
0.730663 0.00906336 0.
0.740114 0.00647778 0.
0.752331 0.00405092 0.
0.765112 0.00246583 0.
0.790858 0.00518955 0.
0.407629 0.00548222 0.
0.428559 0.00327091 0.
0.443163 0.00396663 0.
0.455575 0.00616768 0.
0.465254 0.00905013 0.
0.472894 0.0116334 0.
0.479231 0.0145617 0.
0.485312 0.0174262 0.
0.490453 0.0201478 0.
0.495603 0.0229105 0.
0.500231 0.025464 0.
0.505101 0.0281254 0.
0.509517 0.0304874 0.
0.513627 0.032727 0.
0.517567 0.0347914 0.
0.521079 0.036481 0.
0.524512 0.0379431 0.
0.527966 0.0392248 0.
0.531028 0.0402676 0.
0.533895 0.0412039 0.
0.536598 0.0420082 0.
0.539267 0.0426181 0.
0.541766 0.0430206 0.
0.544261 0.0434243 0.
0.546571 0.0436972 0.
0.548889 0.043977 0.
0.551119 0.0442019 0.
0.553296 0.0444054 0.
0.555473 0.0446067 0.
0.557553 0.0446574 0.
0.559633 0.0447075 0.
0.561704 0.0447567 0.
0.563758 0.0448061 0.
0.565812 0.0448558 0.
0.56785 0.0448901 0.
0.569878 0.0449145 0.
0.571906 0.0449389 0.
0.573922 0.044951 0.
0.575935 0.0449611 0.
0.577947 0.0449707 0.
0.579956 0.0449751 0.
0.581964 0.0449794 0.
0.583972 0.0449832 0.
0.585977 0.0449857 0.
0.587982 0.0449882 0.
0.589986 0.0449901 0.
0.591989 0.0449916 0.
0.593993 0.0449931 0.
0.595995 0.0449936 0.
0.597998 0.0449939 0.
0.6 0.0449942 0.
0.602003 0.0449934 0.
0.604006 0.0449925 0.
0.606009 0.0449916 0.
0.608013 0.04499 0.
0.610017 0.0449885 0.
0.612021 0.0449862 0.
0.614028 0.0449831 0.
0.616034 0.0449799 0.
0.618043 0.0449753 0.
0.620053 0.0449699 0.
0.622064 0.0449646 0.
0.624079 0.0449515 0.
0.626095 0.0449377 0.
0.628114 0.0449213 0.
0.63015 0.0448894 0.
0.632185 0.0448576 0.
0.634232 0.0448152 0.
0.636298 0.0447566 0.
0.638364 0.0446982 0.
0.640456 0.0446298 0.
0.642561 0.0445573 0.
0.644668 0.0444807 0.
0.646881 0.0442281 0.
0.649093 0.0439756 0.
0.651407 0.043687 0.
0.653818 0.0433532 0.
0.656228 0.0430231 0.
0.65881 0.0424893 0.
0.661386 0.0419554 0.
0.664236 0.0411635 0.
0.66704 0.0403196 0.
0.670303 0.0391781 0.
0.673616 0.0379105 0.
0.677093 0.0363542 0.
0.680642 0.03463 0.
0.684482 0.032535 0.
0.688816 0.0303363 0.
0.69311 0.0280874 0.
0.697733 0.0254605 0.
0.70224 0.0228487 0.
0.707537 0.020217 0.
0.712958 0.0174933 0.
0.718838 0.0144597 0.
0.72533 0.011713 0.
0.732665 0.00895309 0.
0.742552 0.0063189 0.
0.754525 0.00413861 0.
0.767608 0.00281697 0.
0.790675 0.00594597 0.
0.407816 0.00627284 0.
0.426837 0.00371558 0.
0.441083 0.00410841 0.
0.453625 0.00606886 0.
0.463376 0.0089809 0.
0.47114 0.0116163 0.
0.477537 0.0144735 0.
0.483637 0.0174121 0.
0.488833 0.0201385 0.
0.493995 0.0229551 0.
0.498696 0.0255119 0.
0.503655 0.0282833 0.
0.508038 0.0306808 0.
0.51234 0.0331097 0.
0.516343 0.0353307 0.
0.519895 0.0371717 0.
0.523551 0.0388601 0.
0.527091 0.0402265 0.
0.530157 0.0413602 0.
0.533222 0.0425318 0.
0.536024 0.0434359 0.
0.538851 0.0441995 0.
0.541415 0.0446703 0.
0.543969 0.0451346 0.
0.546318 0.0454378 0.
0.548667 0.0457531 0.
0.550936 0.0460209 0.
0.553131 0.0462524 0.
0.555331 0.0464823 0.
0.55744 0.0465559 0.
0.559548 0.0466271 0.
0.561644 0.0466945 0.
0.563706 0.0467522 0.
0.565768 0.04681 0.
0.567814 0.0468521 0.
0.56985 0.0468838 0.
0.571886 0.0469156 0.
0.573905 0.0469321 0.
0.575922 0.046946 0.
0.577938 0.0469593 0.
0.579948 0.0469653 0.
0.581959 0.0469713 0.
0.583968 0.0469766 0.
0.585974 0.0469802 0.
0.58798 0.0469839 0.
0.589985 0.0469866 0.
0.591988 0.0469887 0.
0.593992 0.0469908 0.
0.595995 0.0469917 0.
0.597998 0.0469922 0.
0.6 0.0469927 0.
0.602004 0.0469915 0.
0.604007 0.0469903 0.
0.60601 0.0469888 0.
0.608014 0.0469865 0.
0.610018 0.0469842 0.
0.612024 0.0469809 0.
0.614032 0.0469762 0.
0.61604 0.0469716 0.
0.618051 0.0469652 0.
0.620063 0.0469579 0.
0.622076 0.0469507 0.
0.624096 0.0469333 0.
0.626116 0.0469151 0.
0.62814 0.0468932 0.
0.630185 0.0468518 0.
0.63223 0.0468106 0.
0.634288 0.0467588 0.
0.636364 0.0466913 0.
0.638439 0.0466241 0.
0.640563 0.0465308 0.
0.642703 0.0464305 0.
0.644846 0.0463235 0.
0.647076 0.0460452 0.
0.649299 0.045766 0.
0.651664 0.0454135 0.
0.654132 0.0450246 0.
0.656628 0.0446375 0.
0.659278 0.0440474 0.
0.661968 0.0434079 0.
0.664959 0.0424354 0.
0.667975 0.0414083 0.
0.671265 0.0401779 0.
0.674719 0.0387831 0.
0.678272 0.037062 0.
0.682002 0.0350371 0.
0.685851 0.0329067 0.
0.69033 0.0305554 0.
0.694688 0.0281531 0.
0.699345 0.0254746 0.
0.703866 0.022872 0.
0.70925 0.0202252 0.
0.714598 0.0174261 0.
0.720584 0.0143996 0.
0.727172 0.0116634 0.
0.734565 0.00893444 0.
0.744703 0.00622161 0.
0.756368 0.00429841 0.
0.769631 0.00321605 0.
0.790401 0.00666202 0.
0.408065 0.0070408 0.
0.425542 0.00416637 0.
0.439215 0.00429087 0.
0.451798 0.0060388 0.
0.461622 0.00893988 0.
0.469411 0.0116621 0.
0.47588 0.014422 0.
0.48204 0.0174191 0.
0.487259 0.0201675 0.
0.492449 0.0230316 0.
0.497165 0.025605 0.
0.50213 0.0283688 0.
0.506559 0.0308338 0.
0.511051 0.0334392 0.
0.514951 0.0357093 0.
0.518656 0.0377595 0.
0.522507 0.0396763 0.
0.525967 0.0410675 0.
0.529259 0.0423902 0.
0.532486 0.0437697 0.
0.535414 0.0447976 0.
0.538274 0.0456265 0.
0.540896 0.04616 0.
0.543536 0.0467218 0.
0.545975 0.0471071 0.
0.548381 0.0474876 0.
0.550712 0.0478181 0.
0.552938 0.0480807 0.
0.555169 0.0483426 0.
0.557314 0.0484449 0.
0.559456 0.0485414 0.
0.561581 0.0486306 0.
0.563652 0.0486967 0.
0.565723 0.0487631 0.
0.567778 0.0488133 0.
0.569822 0.0488525 0.
0.571866 0.0488919 0.
0.573889 0.048913 0.
0.575909 0.0489308 0.
0.577928 0.0489478 0.
0.579941 0.0489555 0.
0.581953 0.0489632 0.
0.583963 0.04897 0.
0.58597 0.0489747 0.
0.587978 0.0489795 0.
0.589983 0.0489832 0.
0.591987 0.0489858 0.
0.593991 0.0489885 0.
0.595995 0.0489897 0.
0.597998 0.0489905 0.
0.600001 0.0489912 0.
0.602004 0.0489896 0.
0.604007 0.0489881 0.
0.606011 0.0489861 0.
0.608016 0.048983 0.
0.61002 0.0489799 0.
0.612027 0.0489755 0.
0.614036 0.0489694 0.
0.616045 0.0489633 0.
0.618058 0.0489551 0.
0.620073 0.0489459 0.
0.622088 0.0489367 0.
0.624112 0.048915 0.
0.626136 0.0488921 0.
0.628166 0.0488647 0.
0.630222 0.0488134 0.
0.632277 0.0487624 0.
0.634346 0.0487006 0.
0.636432 0.0486235 0.
0.638518 0.0485467 0.
0.640681 0.0484234 0.
0.642865 0.0482896 0.
0.645053 0.0481465 0.
0.647314 0.047839 0.
0.649568 0.0475315 0.
0.651995 0.0470792 0.
0.654499 0.0465919 0.
0.657105 0.0461138 0.
0.659834 0.0454953 0.
0.662609 0.0447674 0.
0.66571 0.0436524 0.
0.668975 0.0424206 0.
0.672363 0.0410438 0.
0.675912 0.0394871 0.
0.679517 0.0376318 0.
0.683383 0.0353958 0.
0.687321 0.0331437 0.
0.691828 0.0306989 0.
0.6962 0.0282221 0.
0.700918 0.0255 0.
0.705441 0.0229305 0.
0.710855 0.0202536 0.
0.716162 0.017394 0.
0.722199 0.0143976 0.
0.728855 0.0116472 0.
0.736363 0.008941 0.
0.746609 0.00625708 0.
0.758094 0.00449133 0.
0.771178 0.00359211 0.
0.789962 0.00731875 0.
0.40835 0.00777683 0.
0.424711 0.00460356 0.
0.437634 0.00452839 0.
0.4501 0.00608873 0.
0.460013 0.00896405 0.
0.467753 0.0117327 0.
0.47424 0.0144004 0.
0.480498 0.0174315 0.
0.48572 0.0201956 0.
0.490908 0.0231013 0.
0.495629 0.025701 0.
0.500605 0.0284289 0.
0.505103 0.0309721 0.
0.509692 0.0336786 0.
0.513527 0.0360134 0.
0.517374 0.0382575 0.
0.521222 0.0402694 0.
0.524774 0.0418238 0.
0.528331 0.0433551 0.
0.531621 0.0448354 0.
0.534562 0.0459478 0.
0.537529 0.0469204 0.
0.540326 0.0476082 0.
0.543076 0.0482845 0.
0.545625 0.048765 0.
0.54809 0.0492105 0.
0.550491 0.0496109 0.
0.552747 0.0499023 0.
0.555007 0.0501881 0.
0.557187 0.0503196 0.
0.559358 0.0504446 0.
0.561509 0.0505603 0.
0.56359 0.0506343 0.
0.565671 0.0507086 0.
0.567736 0.0507674 0.
0.569788 0.0508154 0.
0.571841 0.0508637 0.
0.573869 0.0508902 0.
0.575893 0.0509128 0.
0.577916 0.0509342 0.
0.57993 0.0509437 0.
0.581945 0.0509532 0.
0.583957 0.0509617 0.
0.585966 0.0509679 0.
0.587974 0.0509741 0.
0.589981 0.0509788 0.
0.591986 0.0509822 0.
0.59399 0.0509857 0.
0.595994 0.0509872 0.
0.597997 0.0509881 0.
0.600001 0.050989 0.
0.602004 0.0509871 0.
0.604008 0.0509852 0.
0.606012 0.0509827 0.
0.608018 0.0509787 0.
0.610023 0.0509746 0.
0.612031 0.0509688 0.
0.614042 0.0509608 0.
0.616053 0.0509529 0.
0.618069 0.0509427 0.
0.620086 0.0509315 0.
0.622104 0.0509202 0.
0.624132 0.0508932 0.
0.626162 0.0508649 0.
0.628198 0.0508307 0.
0.630264 0.0507678 0.
0.632331 0.0507055 0.
0.634411 0.0506338 0.
0.636508 0.0505483 0.
0.638604 0.0504632 0.
0.640804 0.0503043 0.
0.643027 0.0501353 0.
0.645257 0.0499602 0.
0.64755 0.0496287 0.
0.649835 0.0492942 0.
0.652328 0.0487259 0.
0.654869 0.0481406 0.
0.657636 0.0475594 0.
0.660523 0.0468567 0.
0.663509 0.045889 0.
0.666527 0.0447541 0.
0.670016 0.0433591 0.
0.673545 0.0418144 0.
0.677215 0.0400436 0.
0.680851 0.0380453 0.
0.684772 0.0356909 0.
0.688801 0.0333226 0.
0.693349 0.030798 0.
0.697729 0.0282952 0.
0.702441 0.0255765 0.
0.706982 0.0230087 0.
0.712402 0.0202822 0.
0.717668 0.0173813 0.
0.723761 0.0144318 0.
0.730449 0.011667 0.
0.738076 0.00895776 0.
0.748361 0.0063846 0.
0.759664 0.00472291 0.
0.772636 0.00395492 0.
0.789476 0.00792252 0.
0.408745 0.00847066 0.
0.424022 0.00507821 0.
0.436304 0.00484158 0.
0.448523 0.00620121 0.
0.458373 0.00900058 0.
0.466133 0.0118098 0.
0.47266 0.0144189 0.
0.478999 0.0174406 0.
0.484216 0.0202486 0.
0.489432 0.0231706 0.
0.494116 0.0257977 0.
0.499121 0.0284954 0.
0.503619 0.0310991 0.
0.508206 0.0338058 0.
0.512082 0.03626 0.
0.516036 0.0386547 0.
0.519806 0.0407156 0.
0.523531 0.0425014 0.
0.527321 0.0442037 0.
0.530521 0.0456739 0.
0.53367 0.0470565 0.
0.536754 0.0481682 0.
0.539748 0.0490245 0.
0.542594 0.0497927 0.
0.545237 0.0503565 0.
0.547733 0.0508493 0.
0.550195 0.05132 0.
0.552506 0.0516427 0.
0.554842 0.0519713 0.
0.557058 0.0521503 0.
0.559245 0.0523211 0.
0.561414 0.052478 0.
0.56351 0.0525603 0.
0.565608 0.0526429 0.
0.567686 0.0527117 0.
0.569748 0.0527707 0.
0.571811 0.0528301 0.
0.573845 0.0528633 0.
0.575873 0.0528914 0.
0.5779 0.0529182 0.
0.579917 0.0529297 0.
0.581934 0.0529412 0.
0.583949 0.0529516 0.
0.58596 0.0529596 0.
0.58797 0.0529676 0.
0.589978 0.0529736 0.
0.591983 0.0529779 0.
0.593989 0.0529823 0.
0.595993 0.052984 0.
0.597997 0.0529851 0.
0.600001 0.0529861 0.
0.602005 0.0529839 0.
0.604009 0.0529816 0.
0.606014 0.0529787 0.
0.608021 0.0529734 0.
0.610028 0.0529682 0.
0.612037 0.0529607 0.
0.61405 0.0529505 0.
0.616063 0.0529404 0.
0.618082 0.0529279 0.
0.620102 0.0529144 0.
0.622123 0.0529009 0.
0.624158 0.0528675 0.
0.626193 0.0528326 0.
0.628237 0.0527899 0.
0.630316 0.0527124 0.
0.632394 0.0526357 0.
0.634488 0.0525527 0.
0.6366 0.052459 0.
0.638711 0.0523657 0.
0.640942 0.0521492 0.
0.64319 0.0519202 0.
0.645469 0.0516886 0.
0.647829 0.0513292 0.
0.650164 0.0509719 0.
0.652707 0.0503067 0.
0.655231 0.0496564 0.
0.658195 0.0489792 0.
0.661244 0.0481985 0.
0.66446 0.0469285 0.
0.667608 0.0456246 0.
0.671122 0.0441845 0.
0.674782 0.0424802 0.
0.678527 0.0405366 0.
0.682231 0.0383439 0.
0.686211 0.0359067 0.
0.690257 0.0334847 0.
0.694851 0.0308911 0.
0.699262 0.0283655 0.
0.703939 0.0256628 0.
0.708522 0.0230883 0.
0.713929 0.0202827 0.
0.719143 0.0174014 0.
0.725317 0.0144651 0.
0.731969 0.0117094 0.
0.739665 0.00900774 0.
0.749977 0.00654981 0.
0.761018 0.00500787 0.
0.773682 0.00433574 0.
0.789005 0.00852257 0.
0.409343 0.00906366 0.
0.423664 0.00556874 0.
0.435349 0.00523312 0.
0.447202 0.00639918 0.
0.456905 0.00906971 0.
0.464634 0.0118813 0.
0.471224 0.0145038 0.
0.477592 0.0174892 0.
0.482771 0.0203331 0.
0.488027 0.0232667 0.
0.492664 0.0259142 0.
0.497648 0.0285852 0.
0.502135 0.031203 0.
0.506692 0.0338856 0.
0.510622 0.0364576 0.
0.514617 0.0389388 0.
0.518368 0.0410933 0.
0.522252 0.0430882 0.
0.526052 0.0448368 0.
0.529353 0.0464389 0.
0.53271 0.0480968 0.
0.535912 0.0493272 0.
0.539043 0.0503091 0.
0.541918 0.0511542 0.
0.544739 0.0518684 0.
0.547307 0.0524389 0.
0.549863 0.0530106 0.
0.552251 0.0533775 0.
0.554668 0.0537511 0.
0.556928 0.0539776 0.
0.559131 0.0541944 0.
0.561319 0.0543955 0.
0.563431 0.0544861 0.
0.565544 0.0545771 0.
0.567635 0.0546557 0.
0.569707 0.0547257 0.
0.57178 0.0547962 0.
0.57382 0.0548363 0.
0.575853 0.05487 0.
0.577884 0.0549022 0.
0.579904 0.0549157 0.
0.581924 0.0549292 0.
0.583941 0.0549416 0.
0.585953 0.0549513 0.
0.587965 0.0549611 0.
0.589974 0.0549684 0.
0.591981 0.0549736 0.
0.593987 0.0549789 0.
0.595992 0.0549809 0.
0.597996 0.0549821 0.
0.600001 0.0549832 0.
0.602006 0.0549806 0.
0.604011 0.0549781 0.
0.606017 0.0549746 0.
0.608024 0.0549682 0.
0.610032 0.0549617 0.
0.612043 0.0549526 0.
0.614059 0.0549402 0.
0.616074 0.0549278 0.
0.618095 0.0549132 0.
0.620118 0.0548974 0.
0.622142 0.0548816 0.
0.624183 0.0548417 0.
0.626225 0.0548001 0.
0.628276 0.0547487 0.
0.630367 0.0546567 0.
0.632457 0.0545655 0.
0.634566 0.0544713 0.
0.636693 0.0543694 0.
0.638819 0.054268 0.
0.641081 0.0539893 0.
0.643355 0.0536999 0.
0.645693 0.0534125 0.
0.648137 0.0530123 0.
0.650583 0.0525833 0.
0.653276 0.0517842 0.
0.655904 0.0510408 0.
0.658952 0.0502661 0.
0.662055 0.049416 0.
0.665454 0.0478832 0.
0.66881 0.0464131 0.
0.672334 0.0448803 0.
0.676055 0.0430384 0.
0.679861 0.0409335 0.
0.683588 0.0386098 0.
0.68767 0.0360732 0.
0.691758 0.0336107 0.
0.696317 0.030998 0.
0.700727 0.0284653 0.
0.70538 0.0257735 0.
0.710022 0.0231761 0.
0.715387 0.0203188 0.
0.720549 0.017466 0.
0.726765 0.0145424 0.
0.733364 0.0118051 0.
0.74112 0.00905898 0.
0.751313 0.00676721 0.
0.762128 0.00536685 0.
0.774287 0.00476669 0.
0.78843 0.00907663 0.
0.410095 0.00957816 0.
0.423595 0.00605712 0.
0.434731 0.0056821 0.
0.446185 0.00666716 0.
0.455669 0.00921867 0.
0.463278 0.0119856 0.
0.469924 0.0146592 0.
0.476274 0.0175904 0.
0.481394 0.0204296 0.
0.486673 0.023378 0.
0.491288 0.0260505 0.
0.496203 0.0287074 0.
0.500674 0.0313051 0.
0.505211 0.0339691 0.
0.509182 0.0366194 0.
0.513111 0.0391354 0.
0.516921 0.0414183 0.
0.520894 0.0435639 0.
0.524617 0.0453547 0.
0.528149 0.0471293 0.
0.53163 0.0489498 0.
0.534901 0.0503002 0.
0.538162 0.0514835 0.
0.541186 0.0524747 0.
0.54422 0.0533628 0.
0.546856 0.0540107 0.
0.549492 0.0546795 0.
0.551953 0.0550798 0.
0.554412 0.0554899 0.
0.556715 0.0557703 0.
0.558937 0.0560278 0.
0.561156 0.0562722 0.
0.563295 0.0563748 0.
0.565438 0.0564788 0.
0.567554 0.0565719 0.
0.56964 0.0566564 0.
0.571726 0.0567418 0.
0.573776 0.0567928 0.
0.575818 0.056836 0.
0.577859 0.0568775 0.
0.579882 0.0568934 0.
0.581905 0.0569094 0.
0.583926 0.0569243 0.
0.585941 0.056937 0.
0.587956 0.0569497 0.
0.589968 0.0569592 0.
0.591976 0.0569659 0.
0.593984 0.0569727 0.
0.59599 0.0569754 0.
0.597995 0.056977 0.
0.600001 0.0569786 0.
0.602007 0.0569751 0.
0.604013 0.0569716 0.
0.60602 0.056967 0.
0.608031 0.0569586 0.
0.610041 0.0569503 0.
0.612055 0.0569385 0.
0.614073 0.0569228 0.
0.616092 0.056907 0.
0.618117 0.0568897 0.
0.620144 0.0568715 0.
0.622171 0.0568533 0.
0.624225 0.0567996 0.
0.626281 0.0567444 0.
0.628347 0.0566785 0.
0.630453 0.0565716 0.
0.632558 0.0564658 0.
0.634694 0.0563545 0.
0.636853 0.056236 0.
0.639009 0.0561181 0.
0.641301 0.0557833 0.
0.643589 0.0554453 0.
0.645977 0.0551066 0.
0.648473 0.0546802 0.
0.651052 0.0541605 0.
0.65389 0.0532319 0.
0.65672 0.0523522 0.
0.659887 0.0513734 0.
0.663097 0.0502722 0.
0.666489 0.0487255 0.
0.670047 0.0471304 0.
0.673628 0.0454448 0.
0.677357 0.0434978 0.
0.68122 0.0412513 0.
0.684969 0.0388346 0.
0.68906 0.0362472 0.
0.69324 0.0337335 0.
0.697744 0.0311387 0.
0.702153 0.0286063 0.
0.706753 0.0259199 0.
0.711413 0.0233087 0.
0.716761 0.0203978 0.
0.721864 0.0175794 0.
0.728062 0.0146817 0.
0.734647 0.0119604 0.
0.742386 0.00917591 0.
0.752332 0.00703896 0.
0.762955 0.00580868 0.
0.774481 0.00523762 0.
0.787641 0.0095332 0.
0.411056 0.00999352 0.
0.423754 0.00654415 0.
0.434332 0.00617294 0.
0.445378 0.00698117 0.
0.454617 0.00943183 0.
0.46207 0.0121415 0.
0.468731 0.0148655 0.
0.475021 0.0177358 0.
0.480089 0.0205568 0.
0.485361 0.023504 0.
0.48997 0.0262106 0.
0.494817 0.0288616 0.
0.499279 0.0314319 0.
0.503767 0.0340949 0.
0.507736 0.036744 0.
0.511619 0.0393042 0.
0.515494 0.0416998 0.
0.519415 0.0439082 0.
0.523163 0.0458137 0.
0.526882 0.0477156 0.
0.530382 0.0495903 0.
0.53378 0.0511598 0.
0.537165 0.0525419 0.
0.540408 0.053734 0.
0.543594 0.0547659 0.
0.546291 0.0554525 0.
0.549013 0.0561499 0.
0.551554 0.0566585 0.
0.55405 0.057171 0.
0.556421 0.0575372 0.
0.558691 0.0578379 0.
0.560961 0.0581309 0.
0.563139 0.0582517 0.
0.565321 0.0583728 0.
0.567468 0.0584833 0.
0.569568 0.0585837 0.
0.571669 0.0586851 0.
0.573731 0.0587481 0.
0.575783 0.0588012 0.
0.577834 0.0588525 0.
0.57986 0.0588709 0.
0.581887 0.0588894 0.
0.583911 0.058907 0.
0.585929 0.0589226 0.
0.587947 0.0589384 0.
0.589961 0.05895 0.
0.591971 0.0589582 0.
0.593981 0.0589665 0.
0.595988 0.0589699 0.
0.597995 0.058972 0.
0.600001 0.058974 0.
0.602008 0.0589696 0.
0.604016 0.0589651 0.
0.606024 0.0589593 0.
0.608037 0.058949 0.
0.610049 0.0589387 0.
0.612066 0.0589243 0.
0.614088 0.0589051 0.
0.61611 0.058886 0.
0.618139 0.0588659 0.
0.620169 0.0588453 0.
0.6222 0.0588247 0.
0.62427 0.0587562 0.
0.62634 0.0586862 0.
0.628422 0.0586045 0.
0.630545 0.0584814 0.
0.632667 0.0583596 0.
0.634841 0.0582257 0.
0.637044 0.058083 0.
0.639255 0.0579302 0.
0.641597 0.0575366 0.
0.64393 0.0571446 0.
0.646444 0.0567002 0.
0.649026 0.0561778 0.
0.65172 0.0555285 0.
0.654571 0.0545921 0.
0.657594 0.0535717 0.
0.660845 0.0524096 0.
0.664225 0.0510092 0.
0.667652 0.0494095 0.
0.671305 0.0477768 0.
0.67496 0.0459362 0.
0.678685 0.043889 0.
0.682583 0.0415167 0.
0.686384 0.039017 0.
0.690453 0.0364205 0.
0.694651 0.0338857 0.
0.699121 0.0313094 0.
0.703514 0.0287747 0.
0.70808 0.0260967 0.
0.712726 0.0234637 0.
0.718059 0.0205186 0.
0.723104 0.0177386 0.
0.729259 0.0148466 0.
0.735846 0.0121498 0.
0.743465 0.0093696 0.
0.753096 0.00736394 0.
0.763512 0.0063224 0.
0.774364 0.00570856 0.
0.786626 0.00987376 0.
0.412237 0.0102909 0.
0.424037 0.00703309 0.
0.434058 0.00669786 0.
0.444746 0.00733039 0.
0.453671 0.00967912 0.
0.460981 0.0123425 0.
0.467597 0.0150961 0.
0.473809 0.0179137 0.
0.478854 0.0207118 0.
0.484069 0.0236408 0.
0.488698 0.0263952 0.
0.493484 0.0290426 0.
0.497924 0.0315801 0.
0.50232 0.0342259 0.
0.506301 0.0368487 0.
0.510173 0.0394671 0.
0.514034 0.0419259 0.
0.517883 0.0441741 0.
0.521698 0.0462137 0.
0.525488 0.0481552 0.
0.52903 0.050112 0.
0.532583 0.0519169 0.
0.536079 0.0534742 0.
0.539505 0.0548611 0.
0.542637 0.0559243 0.
0.545591 0.0567957 0.
0.548478 0.0575809 0.
0.551151 0.0582172 0.
0.553684 0.058832 0.
0.556124 0.059299 0.
0.558441 0.0596426 0.
0.560762 0.0599796 0.
0.56298 0.060118 0.
0.565198 0.0602566 0.
0.567376 0.0603871 0.
0.569488 0.0605022 0.
0.571602 0.0606184 0.
0.573677 0.0606948 0.
0.575741 0.0607604 0.
0.577805 0.0608246 0.
0.579835 0.0608454 0.
0.581865 0.0608662 0.
0.583892 0.0608864 0.
0.585914 0.0609053 0.
0.587935 0.0609244 0.
0.589952 0.0609385 0.
0.591964 0.0609486 0.
0.593976 0.0609586 0.
0.595985 0.0609628 0.
0.597993 0.0609653 0.
0.600001 0.0609678 0.
0.60201 0.0609623 0.
0.60402 0.0609567 0.
0.60603 0.0609496 0.
0.608046 0.060937 0.
0.610061 0.0609244 0.
0.612081 0.0609071 0.
0.614107 0.0608845 0.
0.616132 0.0608619 0.
0.618165 0.0608383 0.
0.620201 0.060814 0.
0.622236 0.0607898 0.
0.624322 0.0607039 0.
0.626407 0.0606174 0.
0.628506 0.0605192 0.
0.630644 0.0603821 0.
0.632781 0.0602463 0.
0.634993 0.0600876 0.
0.637238 0.0599232 0.
0.639505 0.0597334 0.
0.641897 0.0592828 0.
0.644276 0.0588369 0.
0.646942 0.0582659 0.
0.649634 0.05763 0.
0.652538 0.0567646 0.
0.655476 0.055719 0.
0.658566 0.0546019 0.
0.661857 0.0533353 0.
0.665395 0.0516996 0.
0.668927 0.0500369 0.
0.672601 0.0483336 0.
0.676329 0.0463494 0.
0.680098 0.0441779 0.
0.683969 0.041728 0.
0.687797 0.0391748 0.
0.691851 0.0365872 0.
0.696038 0.0340467 0.
0.700467 0.0314926 0.
0.704818 0.0289667 0.
0.709378 0.0262862 0.
0.713984 0.0236283 0.
0.719294 0.0206792 0.
0.724303 0.0179217 0.
0.73039 0.0150428 0.
0.736969 0.0123602 0.
0.74442 0.00960999 0.
0.753702 0.00772399 0.
0.763889 0.00687892 0.
0.774113 0.00620284 0.
0.785492 0.0100572 0.
0.413441 0.0105072 0.
0.424368 0.00752767 0.
0.433912 0.00723644 0.
0.444216 0.00770575 0.
0.452858 0.00997151 0.
0.459988 0.0125931 0.
0.466556 0.0153576 0.
0.472651 0.0181237 0.
0.477676 0.0208929 0.
0.482825 0.0238097 0.
0.487445 0.0265828 0.
0.492147 0.0292262 0.
0.496579 0.0317408 0.
0.500897 0.0343597 0.
0.504891 0.0369579 0.
0.508728 0.0396156 0.
0.512549 0.042106 0.
0.516377 0.0444159 0.
0.520207 0.046536 0.
0.524017 0.0485333 0.
0.527659 0.0505849 0.
0.531292 0.0525229 0.
0.534866 0.054236 0.
0.538357 0.0557339 0.
0.5416 0.0569848 0.
0.544847 0.0581173 0.
0.5479 0.0589821 0.
0.550733 0.0597335 0.
0.553242 0.0604043 0.
0.555771 0.0609671 0.
0.558144 0.0613433 0.
0.560539 0.0617209 0.
0.562803 0.061912 0.
0.565054 0.062101 0.
0.567264 0.0622734 0.
0.56939 0.0624032 0.
0.571518 0.062534 0.
0.57361 0.0626279 0.
0.575691 0.0627111 0.
0.577771 0.0627931 0.
0.579805 0.0628162 0.
0.581838 0.0628393 0.
0.58387 0.0628621 0.
0.585895 0.0628848 0.
0.58792 0.0629075 0.
0.589939 0.0629246 0.
0.591955 0.0629368 0.
0.59397 0.062949 0.
0.595981 0.0629541 0.
0.597991 0.0629569 0.
0.600002 0.0629598 0.
0.602013 0.0629531 0.
0.604025 0.0629463 0.
0.606039 0.0629376 0.
0.608057 0.0629223 0.
0.610076 0.0629069 0.
0.6121 0.0628866 0.
0.614129 0.0628604 0.
0.616158 0.0628344 0.
0.618197 0.0628057 0.
0.620239 0.0627759 0.
0.622282 0.0627456 0.
0.624387 0.0626378 0.
0.626491 0.0625295 0.
0.62861 0.062411 0.
0.630764 0.0622592 0.
0.632916 0.0621089 0.
0.635192 0.061886 0.
0.637502 0.0616489 0.
0.63985 0.0613868 0.
0.642308 0.0609119 0.
0.644725 0.0604431 0.
0.647474 0.0597775 0.
0.65027 0.0590423 0.
0.6534 0.0579565 0.
0.656472 0.0567818 0.
0.659711 0.0554695 0.
0.662991 0.0540686 0.
0.666611 0.0523347 0.
0.670269 0.0506118 0.
0.673977 0.0487952 0.
0.67772 0.0467009 0.
0.681537 0.0444036 0.
0.68537 0.0418977 0.
0.689221 0.0393176 0.
0.69326 0.0367392 0.
0.697439 0.0342082 0.
0.701811 0.0316838 0.
0.706091 0.0291764 0.
0.710644 0.0264919 0.
0.715209 0.0238053 0.
0.720448 0.0208834 0.
0.725446 0.0181382 0.
0.731456 0.0152766 0.
0.738003 0.0126022 0.
0.745278 0.0099006 0.
0.754197 0.00811021 0.
0.764185 0.00746247 0.
0.773834 0.00673766 0.
0.784322 0.0101107 0.
0.414681 0.0106857 0.
0.424772 0.00803895 0.
0.433978 0.00777249 0.
0.443894 0.00812823 0.
0.452237 0.0103421 0.
0.459118 0.0129136 0.
0.465674 0.0156703 0.
0.471578 0.0183867 0.
0.476552 0.0211134 0.
0.481652 0.0240193 0.
0.486231 0.026788 0.
0.49085 0.0294337 0.
0.495264 0.0319328 0.
0.499526 0.0345182 0.
0.503512 0.0370974 0.
0.507308 0.0397504 0.
0.511099 0.0422744 0.
0.514878 0.044637 0.
0.518696 0.0468093 0.
0.522539 0.048882 0.
0.526277 0.0509769 0.
0.529931 0.0529918 0.
0.53356 0.0548648 0.
0.537072 0.0564661 0.
0.540488 0.0579321 0.
0.543993 0.0593445 0.
0.54705 0.0602298 0.
0.54999 0.0611175 0.
0.552633 0.0618853 0.
0.555374 0.0625972 0.
0.557826 0.0630259 0.
0.560305 0.0634572 0.
0.562622 0.0637003 0.
0.564907 0.0639405 0.
0.567151 0.0641592 0.
0.569292 0.0643035 0.
0.571434 0.0644491 0.
0.573542 0.0645603 0.
0.575639 0.0646612 0.
0.577737 0.0647612 0.
0.579775 0.0647869 0.
0.581812 0.0648124 0.
0.583847 0.0648379 0.
0.585875 0.0648642 0.
0.587904 0.0648906 0.
0.589927 0.0649106 0.
0.591945 0.064925 0.
0.593963 0.0649394 0.
0.595977 0.0649453 0.
0.59799 0.0649485 0.
0.600002 0.0649518 0.
0.602016 0.0649438 0.
0.604031 0.0649359 0.
0.606047 0.0649256 0.
0.608069 0.0649075 0.
0.610091 0.0648895 0.
0.612118 0.064866 0.
0.614151 0.0648363 0.
0.616184 0.0648067 0.
0.618229 0.064773 0.
0.620278 0.0647377 0.
0.622329 0.0647009 0.
0.624453 0.0645709 0.
0.626576 0.0644407 0.
0.628714 0.0643021 0.
0.630885 0.0641357 0.
0.633053 0.0639708 0.
0.6354 0.0636757 0.
0.637779 0.0633633 0.
0.640236 0.0630175 0.
0.642817 0.0624838 0.
0.645408 0.0619061 0.
0.648288 0.0610636 0.
0.651151 0.0602261 0.
0.654346 0.0590635 0.
0.657571 0.0577286 0.
0.660915 0.0562709 0.
0.664313 0.0546694 0.
0.667905 0.052906 0.
0.671653 0.0511231 0.
0.675392 0.0491853 0.
0.679127 0.047 0.
0.682964 0.0445988 0.
0.686766 0.0420494 0.
0.690627 0.0394687 0.
0.694644 0.0368984 0.
0.698815 0.0343882 0.
0.703122 0.0318973 0.
0.707344 0.0294048 0.
0.711842 0.0267352 0.
0.716369 0.02402 0.
0.721513 0.0211353 0.
0.726494 0.0184089 0.
0.732396 0.0155723 0.
0.73887 0.0129136 0.
0.745927 0.0102716 0.
0.75452 0.00853119 0.
0.764281 0.00805558 0.
0.773383 0.00731367 0.
0.783106 0.0100709 0.
0.415944 0.0108698 0.
0.425273 0.0085589 0.
0.434254 0.00831786 0.
0.443786 0.00860302 0.
0.45175 0.010781 0.
0.45841 0.0133018 0.
0.464898 0.0160302 0.
0.470581 0.0187052 0.
0.475529 0.0213942 0.
0.480569 0.0242806 0.
0.485079 0.0270301 0.
0.489621 0.0296818 0.
0.494 0.0321705 0.
0.498196 0.0347071 0.
0.502173 0.0372702 0.
0.505943 0.0399038 0.
0.509686 0.0424476 0.
0.513428 0.0448554 0.
0.517239 0.0470769 0.
0.521079 0.0492004 0.
0.524852 0.0512942 0.
0.528536 0.0534024 0.
0.532182 0.0553866 0.
0.535742 0.057095 0.
0.539296 0.0587143 0.
0.542791 0.060188 0.
0.545965 0.0612904 0.
0.549103 0.0624236 0.
0.551955 0.0633322 0.
0.554907 0.0641942 0.
0.557473 0.0646855 0.
0.559989 0.0651432 0.
0.562361 0.0654411 0.
0.564683 0.0657374 0.
0.566979 0.0660149 0.
0.569138 0.0661683 0.
0.571302 0.0663229 0.
0.573432 0.0664524 0.
0.575547 0.0665757 0.
0.577663 0.0666992 0.
0.579716 0.0667355 0.
0.581767 0.0667704 0.
0.583813 0.0668039 0.
0.585846 0.0668335 0.
0.587879 0.0668631 0.
0.589906 0.0668862 0.
0.591929 0.0669035 0.
0.593952 0.0669208 0.
0.59597 0.0669278 0.
0.597987 0.0669317 0.
0.600003 0.0669357 0.
0.602022 0.0669258 0.
0.604041 0.0669159 0.
0.606062 0.0669033 0.
0.608089 0.066882 0.
0.610116 0.0668607 0.
0.612149 0.0668337 0.
0.614187 0.0668004 0.
0.616226 0.0667671 0.
0.618286 0.0667218 0.
0.620352 0.0666729 0.
0.622422 0.0666204 0.
0.624568 0.0664639 0.
0.626711 0.0663089 0.
0.628873 0.0661518 0.
0.631066 0.0659775 0.
0.633253 0.0658047 0.
0.635672 0.0654243 0.
0.638104 0.0650429 0.
0.640677 0.0646188 0.
0.64337 0.0640354 0.
0.646161 0.0633075 0.
0.649167 0.062281 0.
0.652234 0.061226 0.
0.655458 0.0599903 0.
0.658777 0.0585471 0.
0.662195 0.0569692 0.
0.665709 0.0552039 0.
0.6693 0.0534152 0.
0.673056 0.0515698 0.
0.676837 0.0495105 0.
0.680552 0.0472373 0.
0.684354 0.0447895 0.
0.68814 0.0422057 0.
0.691994 0.0396408 0.
0.695987 0.0370808 0.
0.700126 0.0346112 0.
0.70438 0.0321443 0.
0.708559 0.0296596 0.
0.712975 0.0270072 0.
0.717442 0.0242895 0.
0.72249 0.0214417 0.
0.727431 0.0187432 0.
0.733167 0.0159428 0.
0.739572 0.0132998 0.
0.746385 0.0107175 0.
0.754661 0.0089924 0.
0.764167 0.00864442 0.
0.772822 0.00793016 0.
0.781897 0.0100591 0.
0.417242 0.0111141 0.
0.425948 0.00906665 0.
0.434705 0.00886715 0.
0.44381 0.00912111 0.
0.451371 0.0112788 0.
0.457874 0.0137553 0.
0.464188 0.0164359 0.
0.469674 0.0190831 0.
0.474627 0.021742 0.
0.479569 0.0245965 0.
0.483992 0.0273199 0.
0.488468 0.0299758 0.
0.492777 0.0324463 0.
0.49693 0.0349372 0.
0.500886 0.0374845 0.
0.50462 0.040086 0.
0.508319 0.0426421 0.
0.512025 0.0450799 0.
0.515811 0.0473413 0.
0.519623 0.0494958 0.
0.523412 0.0515877 0.
0.527124 0.0537718 0.
0.530763 0.0558141 0.
0.534387 0.0576464 0.
0.537972 0.0593433 0.
0.54146 0.0608656 0.
0.544821 0.0622486 0.
0.548082 0.0635762 0.
0.551162 0.0646731 0.
0.554129 0.0655407 0.
0.556828 0.0661461 0.
0.559456 0.0667088 0.
0.561978 0.0671172 0.
0.56438 0.0674912 0.
0.566769 0.0678529 0.
0.568959 0.0680179 0.
0.571154 0.0681842 0.
0.573312 0.0683346 0.
0.575448 0.0684833 0.
0.577585 0.0686328 0.
0.579653 0.0686816 0.
0.58172 0.0687271 0.
0.583779 0.0687695 0.
0.585816 0.0688024 0.
0.587853 0.0688353 0.
0.589885 0.0688615 0.
0.591912 0.0688817 0.
0.59394 0.0689019 0.
0.595963 0.0689102 0.
0.597984 0.0689148 0.
0.600005 0.0689194 0.
0.602028 0.0689075 0.
0.604052 0.0688957 0.
0.606077 0.0688808 0.
0.60811 0.0688561 0.
0.610142 0.0688315 0.
0.61218 0.0688009 0.
0.614225 0.0687637 0.
0.616269 0.0687266 0.
0.618346 0.0686683 0.
0.620431 0.0686045 0.
0.622524 0.0685333 0.
0.624695 0.068347 0.
0.626864 0.0681626 0.
0.629059 0.0679838 0.
0.631288 0.0677983 0.
0.63352 0.0676078 0.
0.636032 0.0671061 0.
0.638533 0.0666219 0.
0.641285 0.0660672 0.
0.644078 0.065428 0.
0.647024 0.064549 0.
0.650101 0.0634121 0.
0.653366 0.0621583 0.
0.656682 0.0607925 0.
0.660094 0.0592266 0.
0.663574 0.0575202 0.
0.667131 0.0556856 0.
0.670766 0.0538637 0.
0.674497 0.051936 0.
0.678268 0.0498029 0.
0.681975 0.0474407 0.
0.685727 0.0449649 0.
0.689476 0.0423845 0.
0.693312 0.0398478 0.
0.697271 0.0373061 0.
0.701381 0.0348783 0.
0.705571 0.03244 0.
0.709732 0.0299497 0.
0.714038 0.0273171 0.
0.718447 0.0246061 0.
0.723398 0.0218005 0.
0.728286 0.0191339 0.
0.733816 0.0163724 0.
0.740144 0.0137443 0.
0.746705 0.0112262 0.
0.754616 0.00949499 0.
0.763852 0.00923318 0.
0.772228 0.00857913 0.
0.780688 0.0101493 0.
0.418508 0.0114328 0.
0.42672 0.00958014 0.
0.435206 0.00940349 0.
0.443885 0.00967781 0.
0.451077 0.0118273 0.
0.457445 0.0142599 0.
0.46355 0.0168898 0.
0.468862 0.0195221 0.
0.473821 0.0221491 0.
0.478632 0.0249561 0.
0.48297 0.0276578 0.
0.487362 0.0302935 0.
0.491586 0.0327456 0.
0.495694 0.0351978 0.
0.499617 0.0377194 0.
0.50332 0.0402932 0.
0.506988 0.0428492 0.
0.51064 0.045302 0.
0.514395 0.0476014 0.
0.518184 0.0497726 0.
0.521965 0.0518755 0.
0.525689 0.0540734 0.
0.529341 0.05618 0.
0.532982 0.0581413 0.
0.536573 0.0598804 0.
0.540105 0.0614826 0.
0.543587 0.0630571 0.
0.546916 0.0644895 0.
0.550119 0.0657424 0.
0.55317 0.0667343 0.
0.556112 0.0675614 0.
0.558877 0.0682415 0.
0.56158 0.068779 0.
0.564065 0.0692319 0.
0.566555 0.0696874 0.
0.568777 0.0698637 0.
0.571 0.0700376 0.
0.573188 0.0702076 0.
0.575342 0.0703797 0.
0.577499 0.0705528 0.
0.579585 0.0706174 0.
0.581666 0.0706767 0.
0.583739 0.0707311 0.
0.585781 0.0707671 0.
0.587823 0.0708031 0.
0.589861 0.0708324 0.
0.591893 0.0708555 0.
0.593926 0.0708786 0.
0.595954 0.0708881 0.
0.59798 0.0708934 0.
0.600007 0.0708987 0.
0.602035 0.0708848 0.
0.604064 0.070871 0.
0.606095 0.0708536 0.
0.608134 0.0708255 0.
0.610172 0.0707975 0.
0.612216 0.0707632 0.
0.614267 0.0707223 0.
0.616318 0.0706816 0.
0.618412 0.0706066 0.
0.620517 0.0705244 0.
0.622632 0.0704314 0.
0.624827 0.0702192 0.
0.627018 0.0700095 0.
0.629248 0.0698123 0.
0.631513 0.0696166 0.
0.633809 0.0693868 0.
0.636405 0.068768 0.
0.638977 0.0681796 0.
0.641959 0.0674644 0.
0.644918 0.0666955 0.
0.648073 0.065558 0.
0.651192 0.0643627 0.
0.654567 0.0629918 0.
0.657991 0.0614846 0.
0.661468 0.0598171 0.
0.665005 0.0579814 0.
0.668595 0.0561056 0.
0.672251 0.054265 0.
0.675955 0.0522475 0.
0.679709 0.0500409 0.
0.683382 0.0476304 0.
0.687096 0.0451367 0.
0.690809 0.0425734 0.
0.694604 0.0400725 0.
0.698515 0.0375681 0.
0.7026 0.035175 0.
0.706729 0.0327645 0.
0.710845 0.0302811 0.
0.715074 0.0276531 0.
0.719386 0.02497 0.
0.724232 0.0222058 0.
0.729059 0.0195753 0.
0.73439 0.0168573 0.
0.740571 0.014246 0.
0.746965 0.0117792 0.
0.754468 0.0100303 0.
0.763393 0.00980968 0.
0.771576 0.00925792 0.
0.779476 0.0104067 0.
0.41973 0.0117731 0.
0.427524 0.0101206 0.
0.435739 0.00992292 0.
0.444008 0.0102779 0.
0.450866 0.012423 0.
0.4571 0.014812 0.
0.462991 0.017398 0.
0.468159 0.0200176 0.
0.473058 0.0226018 0.
0.477729 0.0253526 0.
0.481978 0.0280273 0.
0.486271 0.030625 0.
0.490414 0.033066 0.
0.494476 0.0354874 0.
0.498357 0.0379706 0.
0.502028 0.040515 0.
0.505658 0.0430548 0.
0.509272 0.0455219 0.
0.512989 0.0478538 0.
0.516747 0.0500402 0.
0.520518 0.0521595 0.
0.524266 0.0543405 0.
0.527912 0.0565011 0.
0.531533 0.0585554 0.
0.535144 0.0603633 0.
0.53872 0.0620429 0.
0.542239 0.063686 0.
0.545645 0.0652288 0.
0.548976 0.0667006 0.
0.552157 0.0678595 0.
0.555343 0.0689237 0.
0.558222 0.0696891 0.
0.561052 0.0703351 0.
0.563564 0.0708267 0.
0.56612 0.0713299 0.
0.568451 0.0715798 0.
0.57078 0.0718253 0.
0.573048 0.0720529 0.
0.575222 0.0722494 0.
0.5774 0.0724471 0.
0.579505 0.072535 0.
0.581603 0.0726151 0.
0.583691 0.0726873 0.
0.58574 0.0727264 0.
0.587789 0.0727656 0.
0.589832 0.0727979 0.
0.591871 0.072824 0.
0.59391 0.0728501 0.
0.595944 0.072861 0.
0.597977 0.0728671 0.
0.600009 0.0728731 0.
0.602044 0.0728571 0.
0.604079 0.072841 0.
0.606116 0.072821 0.
0.608161 0.0727891 0.
0.610207 0.0727571 0.
0.612259 0.0727189 0.
0.614318 0.0726742 0.
0.616377 0.0726296 0.
0.618491 0.0725295 0.
0.620614 0.0724194 0.
0.622754 0.0722952 0.
0.624978 0.0720552 0.
0.627198 0.0718184 0.
0.629508 0.0715686 0.
0.631858 0.0713178 0.
0.634275 0.0709883 0.
0.636907 0.0703111 0.
0.639525 0.0696507 0.
0.6427 0.0688037 0.
0.645868 0.0678427 0.
0.649183 0.0664827 0.
0.65245 0.0651468 0.
0.655839 0.0637278 0.
0.659347 0.0620685 0.
0.662882 0.060296 0.
0.666466 0.058394 0.
0.670092 0.0564964 0.
0.673757 0.0546092 0.
0.677419 0.0525196 0.
0.681137 0.0502422 0.
0.684797 0.0478013 0.
0.688461 0.0453099 0.
0.692143 0.0427768 0.
0.695898 0.0403031 0.
0.699757 0.0378487 0.
0.703796 0.0354965 0.
0.707864 0.033109 0.
0.711918 0.0306413 0.
0.716078 0.028023 0.
0.720292 0.0253709 0.
0.724997 0.0226584 0.
0.729776 0.0200599 0.
0.734902 0.0173924 0.
0.740856 0.0148103 0.
0.747134 0.0123825 0.
0.75426 0.0106034 0.
0.762834 0.010358 0.
0.770823 0.00996829 0.
0.778265 0.0108367 0.
0.420964 0.0121087 0.
0.428396 0.0106911 0.
0.436394 0.0104467 0.
0.444241 0.010933 0.
0.450807 0.0130868 0.
0.456903 0.0154408 0.
0.462539 0.0179841 0.
0.467577 0.0205808 0.
0.472362 0.0231135 0.
0.476883 0.0258031 0.
0.48104 0.0284428 0.
0.485219 0.0309922 0.
0.489281 0.0334236 0.
0.493292 0.035816 0.
0.497116 0.0382511 0.
0.500759 0.0407642 0.
0.504351 0.0432852 0.
0.507935 0.0457583 0.
0.511598 0.0481082 0.
0.515334 0.0503168 0.
0.519085 0.0524486 0.
0.522834 0.054592 0.
0.526472 0.0567925 0.
0.530076 0.0589008 0.
0.533696 0.0608009 0.
0.537298 0.0625548 0.
0.540846 0.0642429 0.
0.544325 0.0658947 0.
0.547728 0.0674834 0.
0.551053 0.0688727 0.
0.554333 0.0700554 0.
0.557292 0.0709046 0.
0.560273 0.0717516 0.
0.56294 0.0723507 0.
0.565616 0.0729298 0.
0.568097 0.0732775 0.
0.570542 0.0736017 0.
0.572905 0.0738967 0.
0.575101 0.0741176 0.
0.5773 0.0743402 0.
0.579425 0.0744515 0.
0.581539 0.0745526 0.
0.583642 0.0746434 0.
0.585698 0.0746856 0.
0.587754 0.0747279 0.
0.589804 0.0747634 0.
0.591849 0.0747924 0.
0.593894 0.0748215 0.
0.595934 0.0748338 0.
0.597973 0.0748407 0.
0.600012 0.0748475 0.
0.602053 0.0748293 0.
0.604094 0.0748111 0.
0.606138 0.0747884 0.
0.60819 0.0747525 0.
0.610241 0.0747167 0.
0.612302 0.0746745 0.
0.61437 0.074626 0.
0.616437 0.0745775 0.
0.61857 0.0744511 0.
0.620713 0.0743129 0.
0.622878 0.0741569 0.
0.625132 0.0738891 0.
0.62738 0.0736248 0.
0.629791 0.0733112 0.
0.632247 0.0729897 0.
0.634849 0.0725047 0.
0.637625 0.0717096 0.
0.640478 0.0708791 0.
0.643672 0.0699604 0.
0.646965 0.0688122 0.
0.650365 0.0673127 0.
0.653782 0.0658473 0.
0.657199 0.064343 0.
0.660746 0.0625792 0.
0.664317 0.0606945 0.
0.667929 0.0587711 0.
0.671588 0.0568691 0.
0.675242 0.0549114 0.
0.678894 0.0527593 0.
0.682551 0.05043 0.
0.68619 0.0479769 0.
0.689818 0.0454925 0.
0.693462 0.0430044 0.
0.697173 0.04056 0.
0.700983 0.0381612 0.
0.704959 0.0358521 0.
0.708957 0.03349 0.
0.712929 0.0310399 0.
0.717018 0.0284463 0.
0.721146 0.0258249 0.
0.725683 0.0231776 0.
0.730394 0.0206123 0.
0.735331 0.0179892 0.
0.741012 0.0154499 0.
0.747149 0.0130551 0.
0.753927 0.0112334 0.
0.762118 0.0108834 0.
0.769956 0.0106902 0.
0.777006 0.0113648 0.
0.422204 0.0124643 0.
0.429349 0.0112904 0.
0.437179 0.0109745 0.
0.444602 0.0116578 0.
0.450899 0.0138286 0.
0.456823 0.0161416 0.
0.462189 0.0186455 0.
0.467082 0.0212109 0.
0.471742 0.0236864 0.
0.476107 0.0263152 0.
0.480156 0.0289138 0.
0.484213 0.0314091 0.
0.488205 0.0338265 0.
0.492145 0.0361837 0.
0.495916 0.038576 0.
0.499527 0.0410529 0.
0.503074 0.0435486 0.
0.506608 0.0460044 0.
0.510235 0.0483723 0.
0.513935 0.0506014 0.
0.51766 0.0527355 0.
0.521393 0.05485 0.
0.525029 0.0570531 0.
0.528605 0.0592008 0.
0.532235 0.0611964 0.
0.535852 0.063023 0.
0.539418 0.0647393 0.
0.542954 0.0664446 0.
0.54641 0.0681418 0.
0.549833 0.0697379 0.
0.553126 0.0709631 0.
0.55629 0.0720326 0.
0.559396 0.0730745 0.
0.562263 0.0738498 0.
0.565053 0.074493 0.
0.567686 0.0749281 0.
0.570224 0.075324 0.
0.572685 0.0757045 0.
0.5749 0.0759393 0.
0.577123 0.0761755 0.
0.579283 0.0763196 0.
0.58143 0.0764553 0.
0.583568 0.0765794 0.
0.585634 0.0766253 0.
0.587701 0.0766713 0.
0.589762 0.0767101 0.
0.591816 0.0767418 0.
0.59387 0.0767736 0.
0.59592 0.0767871 0.
0.597968 0.0767945 0.
0.600016 0.0768018 0.
0.602067 0.0767818 0.
0.604117 0.0767618 0.
0.606171 0.0767365 0.
0.608232 0.0766965 0.
0.610294 0.0766565 0.
0.612368 0.076609 0.
0.614451 0.0765546 0.
0.616533 0.0765005 0.
0.6187 0.076335 0.
0.620873 0.0761597 0.
0.623079 0.0759661 0.
0.625366 0.0756786 0.
0.627637 0.0753965 0.
0.630138 0.0750159 0.
0.632677 0.0746338 0.
0.635489 0.0739706 0.
0.638407 0.0730618 0.
0.64154 0.0720077 0.
0.64483 0.0709191 0.
0.648219 0.0695492 0.
0.651647 0.0680225 0.
0.655158 0.0664806 0.
0.658635 0.0648424 0.
0.662183 0.0630225 0.
0.665776 0.0610568 0.
0.66941 0.0591219 0.
0.673075 0.0572174 0.
0.676707 0.0551931 0.
0.680342 0.0529805 0.
0.683964 0.0506137 0.
0.68756 0.0481728 0.
0.691156 0.0457041 0.
0.694763 0.043261 0.
0.698424 0.0408548 0.
0.702188 0.0385112 0.
0.706084 0.0362476 0.
0.710002 0.0339154 0.
0.713889 0.0314823 0.
0.717885 0.0289303 0.
0.721932 0.0263404 0.
0.7263 0.0237599 0.
0.7309 0.0212402 0.
0.735704 0.0186499 0.
0.741094 0.0161502 0.
0.747026 0.0137966 0.
0.75348 0.0119306 0.
0.761219 0.0113938 0.
0.768984 0.0114111 0.
0.775723 0.0119524 0.
0.423467 0.0128671 0.
0.430406 0.0119039 0.
0.438083 0.01152 0.
0.445051 0.0124574 0.
0.451097 0.014632 0.
0.4568 0.0169022 0.
0.461931 0.0193784 0.
0.46664 0.0219009 0.
0.471173 0.0243168 0.
0.475379 0.0268841 0.
0.479309 0.0294353 0.
0.483267 0.031879 0.
0.487177 0.03427 0.
0.491034 0.0365957 0.
0.494754 0.038946 0.
0.498322 0.0413787 0.
0.501809 0.0438362 0.
0.505309 0.0462705 0.
0.508886 0.0486432 0.
0.512547 0.0508913 0.
0.516245 0.0530294 0.
0.519952 0.0551247 0.
0.523572 0.0572931 0.
0.52714 0.0594769 0.
0.530773 0.0615415 0.
0.534386 0.0634425 0.
0.537973 0.0651999 0.
0.541537 0.0669375 0.
0.545029 0.068706 0.
0.5485 0.0704078 0.
0.551881 0.0717917 0.
0.555239 0.0730647 0.
0.558431 0.0742417 0.
0.561475 0.0751901 0.
0.564359 0.075856 0.
0.56716 0.0764137 0.
0.56979 0.0769461 0.
0.572388 0.0774812 0.
0.574645 0.0777341 0.
0.576912 0.0779888 0.
0.57912 0.078171 0.
0.581309 0.0783481 0.
0.583489 0.0785123 0.
0.585567 0.0785623 0.
0.587645 0.0786125 0.
0.589718 0.0786551 0.
0.591781 0.0786898 0.
0.593845 0.0787245 0.
0.595905 0.0787392 0.
0.597963 0.0787472 0.
0.600021 0.078755 0.
0.602081 0.0787331 0.
0.604141 0.0787112 0.
0.606205 0.0786831 0.
0.608277 0.0786385 0.
0.610349 0.078594 0.
0.612438 0.0785403 0.
0.614538 0.078479 0.
0.616637 0.078418 0.
0.618849 0.0782048 0.
0.621062 0.0779844 0.
0.623331 0.0777441 0.
0.625683 0.0774269 0.
0.628029 0.0771113 0.
0.630714 0.0765796 0.
0.63335 0.0760873 0.
0.636301 0.0752234 0.
0.63926 0.074299 0.
0.64265 0.0730289 0.
0.646069 0.0717268 0.
0.649533 0.0701835 0.
0.653027 0.0686282 0.
0.656567 0.0670435 0.
0.660087 0.0652838 0.
0.66365 0.0633909 0.
0.667249 0.0613988 0.
0.6709 0.0594677 0.
0.674557 0.0575363 0.
0.678168 0.0554565 0.
0.681766 0.0531934 0.
0.685357 0.0508108 0.
0.688922 0.0483841 0.
0.692478 0.0459473 0.
0.696045 0.043547 0.
0.69965 0.0411892 0.
0.703361 0.0389032 0.
0.707177 0.0366784 0.
0.711009 0.0343822 0.
0.714814 0.0319701 0.
0.718693 0.0294718 0.
0.722648 0.0269189 0.
0.726863 0.0243979 0.
0.731328 0.021934 0.
0.735998 0.0193806 0.
0.741113 0.0169107 0.
0.746806 0.0146026 0.
0.752962 0.0126935 0.
0.760206 0.0119133 0.
0.767856 0.0121183 0.
0.774468 0.0125913 0.
0.424756 0.0133398 0.
0.431561 0.0125064 0.
0.439033 0.0121183 0.
0.445535 0.0133192 0.
0.451369 0.0154826 0.
0.456812 0.0177219 0.
0.461718 0.0201679 0.
0.466255 0.0226392 0.
0.470628 0.0249979 0.
0.474662 0.027493 0.
0.478477 0.0299913 0.
0.482346 0.0323864 0.
0.486171 0.034742 0.
0.489936 0.0370353 0.
0.493593 0.039342 0.
0.497106 0.0417181 0.
0.500543 0.0441377 0.
0.504014 0.0465476 0.
0.507554 0.0489213 0.
0.511175 0.0511849 0.
0.514825 0.0533283 0.
0.518505 0.0554136 0.
0.522131 0.0575371 0.
0.525695 0.0597328 0.
0.529313 0.0618522 0.
0.532922 0.063836 0.
0.536519 0.0656515 0.
0.540097 0.0673954 0.
0.543636 0.0692 0.
0.547142 0.0709687 0.
0.550611 0.0725446 0.
0.554058 0.0739349 0.
0.557329 0.0751894 0.
0.560552 0.07639 0.
0.563594 0.0771667 0.
0.566609 0.0778619 0.
0.569332 0.0785325 0.
0.572082 0.0792513 0.
0.574388 0.0795248 0.
0.576699 0.0797954 0.
0.578954 0.0800105 0.
0.581182 0.0802283 0.
0.583404 0.0804381 0.
0.585495 0.0804924 0.
0.587587 0.0805469 0.
0.589671 0.0805933 0.
0.591745 0.0806306 0.
0.593819 0.0806679 0.
0.595889 0.0806837 0.
0.597957 0.080692 0.
0.600026 0.0807001 0.
0.602097 0.0806766 0.
0.604168 0.0806531 0.
0.606242 0.0806225 0.
0.608324 0.0805738 0.
0.610406 0.0805252 0.
0.612511 0.0804636 0.
0.614629 0.0803935 0.
0.616748 0.0803226 0.
0.619004 0.080062 0.
0.621254 0.0798004 0.
0.62359 0.0795153 0.
0.626008 0.079169 0.
0.628483 0.078792 0.
0.631339 0.0781048 0.
0.634167 0.0774037 0.
0.6373 0.0762849 0.
0.640405 0.0752064 0.
0.643833 0.0738934 0.
0.647349 0.0724082 0.
0.650858 0.0707731 0.
0.654432 0.0691852 0.
0.658 0.067524 0.
0.661532 0.0656914 0.
0.6651 0.063725 0.
0.668728 0.0617272 0.
0.672392 0.0598082 0.
0.676034 0.0578369 0.
0.679616 0.0557014 0.
0.683185 0.0533996 0.
0.686741 0.0510171 0.
0.690275 0.0486077 0.
0.693801 0.0462081 0.
0.697334 0.0438506 0.
0.700874 0.0415487 0.
0.704524 0.0393194 0.
0.708266 0.0371325 0.
0.712011 0.0348706 0.
0.71573 0.0324882 0.
0.719483 0.0300499 0.
0.723333 0.0275449 0.
0.727406 0.0250855 0.
0.731716 0.0226794 0.
0.736214 0.0201693 0.
0.741111 0.0177235 0.
0.746532 0.0154583 0.
0.752432 0.0135146 0.
0.759185 0.012476 0.
0.766623 0.0127841 0.
0.773229 0.013249 0.
0.426105 0.0138687 0.
0.432813 0.0130742 0.
0.439951 0.0127957 0.
0.446045 0.0142345 0.
0.451662 0.01638 0.
0.456844 0.0185953 0.
0.461509 0.0209968 0.
0.465882 0.0234132 0.
0.470059 0.0257096 0.
0.47392 0.0281205 0.
0.477645 0.0305706 0.
0.481407 0.0329167 0.
0.485143 0.0352223 0.
0.488812 0.0374869 0.
0.492396 0.0397434 0.
0.495857 0.04206 0.
0.499262 0.0444401 0.
0.502706 0.0468306 0.
0.506222 0.0492001 0.
0.509795 0.0514731 0.
0.513402 0.0536273 0.
0.517059 0.0557072 0.
0.520686 0.057795 0.
0.524258 0.0599829 0.
0.52787 0.0621504 0.
0.531472 0.0641941 0.
0.535063 0.0660725 0.
0.538658 0.0678336 0.
0.542242 0.0696362 0.
0.545778 0.0714655 0.
0.549295 0.0732066 0.
0.552784 0.0746786 0.
0.556169 0.0760429 0.
0.559514 0.0774484 0.
0.562767 0.0784277 0.
0.565992 0.0792394 0.
0.568771 0.079998 0.
0.571545 0.0808094 0.
0.57399 0.0811764 0.
0.576423 0.0815 0.
0.578776 0.0817879 0.
0.58104 0.0820694 0.
0.583306 0.0823477 0.
0.585413 0.0824082 0.
0.587522 0.0824689 0.
0.589621 0.0825202 0.
0.591705 0.0825601 0.
0.593789 0.0826001 0.
0.595871 0.0826168 0.
0.597951 0.0826252 0.
0.600032 0.0826334 0.
0.602116 0.0826084 0.
0.604199 0.0825834 0.
0.606285 0.0825503 0.
0.608376 0.0824976 0.
0.610467 0.0824451 0.
0.612592 0.0823688 0.
0.614734 0.0822799 0.
0.616886 0.0821818 0.
0.619217 0.0818431 0.
0.62153 0.0815123 0.
0.623978 0.0811563 0.
0.626483 0.0807735 0.
0.629107 0.0803087 0.
0.632028 0.0795528 0.
0.635084 0.0785715 0.
0.638353 0.0772584 0.
0.641661 0.0759809 0.
0.645108 0.0746183 0.
0.648675 0.0729971 0.
0.652231 0.0713174 0.
0.655839 0.0697074 0.
0.659426 0.067962 0.
0.662962 0.066069 0.
0.666544 0.0640511 0.
0.670185 0.0620644 0.
0.673858 0.0601444 0.
0.677506 0.0581218 0.
0.68107 0.0559293 0.
0.684605 0.0536068 0.
0.688137 0.0512284 0.
0.691634 0.0488453 0.
0.695134 0.0464813 0.
0.698641 0.0441661 0.
0.702132 0.041922 0.
0.705709 0.039748 0.
0.709376 0.0375979 0.
0.713024 0.0353668 0.
0.716666 0.033023 0.
0.720311 0.0306448 0.
0.72403 0.0281993 0.
0.727954 0.0258058 0.
0.732091 0.0234653 0.
0.736397 0.0210085 0.
0.741099 0.018589 0.
0.746247 0.016357 0.
0.751876 0.014398 0.
0.7582 0.0131145 0.
0.765344 0.0133976 0.
0.771928 0.0139199 0.
0.427557 0.0144251 0.
0.43419 0.0136149 0.
0.440882 0.0135782 0.
0.446664 0.0152332 0.
0.452008 0.0173432 0.
0.456899 0.0195309 0.
0.461347 0.0218868 0.
0.465511 0.0242371 0.
0.46947 0.0264616 0.
0.473191 0.0287901 0.
0.476823 0.0311877 0.
0.480463 0.0334763 0.
0.484098 0.0357224 0.
0.48767 0.0379538 0.
0.491181 0.0401619 0.
0.494608 0.0424287 0.
0.497992 0.0447673 0.
0.501408 0.0471298 0.
0.504892 0.049487 0.
0.508419 0.051764 0.
0.512001 0.053935 0.
0.515636 0.0560172 0.
0.519265 0.0580856 0.
0.522852 0.0602468 0.
0.526447 0.0624375 0.
0.530047 0.0645261 0.
0.533627 0.0664762 0.
0.53723 0.0682723 0.
0.54084 0.0700564 0.
0.544408 0.0719252 0.
0.547945 0.0737559 0.
0.551451 0.0753302 0.
0.55495 0.0768051 0.
0.558361 0.0783468 0.
0.561777 0.0795642 0.
0.565039 0.0803991 0.
0.567968 0.0812585 0.
0.570852 0.082227 0.
0.573519 0.0827847 0.
0.576113 0.0831874 0.
0.578594 0.0835593 0.
0.580895 0.0839051 0.
0.583202 0.0842525 0.
0.585331 0.0843237 0.
0.587456 0.0843905 0.
0.589571 0.0844471 0.
0.591665 0.0844897 0.
0.593759 0.0845323 0.
0.595852 0.0845499 0.
0.597945 0.0845584 0.
0.600038 0.0845666 0.
0.602134 0.0845401 0.
0.60423 0.0845137 0.
0.606327 0.084478 0.
0.608428 0.0844214 0.
0.610528 0.0843649 0.
0.612675 0.0842728 0.
0.614841 0.0841649 0.
0.617033 0.0840338 0.
0.619441 0.0836156 0.
0.621825 0.0832097 0.
0.624438 0.0827554 0.
0.627096 0.0822934 0.
0.629977 0.0816189 0.
0.63297 0.0807307 0.
0.636163 0.0795121 0.
0.63951 0.0781092 0.
0.642965 0.0766959 0.
0.646458 0.0752075 0.
0.650032 0.0735235 0.
0.653625 0.0718342 0.
0.657244 0.070176 0.
0.660846 0.0683681 0.
0.66438 0.0664173 0.
0.667963 0.0643885 0.
0.671611 0.06242 0.
0.675287 0.0604799 0.
0.678934 0.0584052 0.
0.682498 0.0561558 0.
0.686018 0.0538215 0.
0.689517 0.051461 0.
0.692983 0.0491088 0.
0.696455 0.0467832 0.
0.69994 0.0445089 0.
0.703398 0.0423204 0.
0.706904 0.0401998 0.
0.710485 0.0380885 0.
0.714043 0.0358841 0.
0.717607 0.0335847 0.
0.72115 0.0312663 0.
0.724731 0.0288913 0.
0.728491 0.0265677 0.
0.732448 0.0242963 0.
0.736561 0.0219096 0.
0.741022 0.0195299 0.
0.745924 0.0173182 0.
0.751256 0.0153635 0.
0.757191 0.0138633 0.
0.763953 0.0139673 0.
0.770472 0.0145824 0.
0.429163 0.0149678 0.
0.435676 0.0141775 0.
0.441887 0.0144946 0.
0.447356 0.0163134 0.
0.452382 0.0183745 0.
0.45699 0.0205409 0.
0.461193 0.0228376 0.
0.465127 0.0251059 0.
0.46888 0.0272578 0.
0.472484 0.0295125 0.
0.476001 0.0318424 0.
0.479521 0.0340699 0.
0.483061 0.0362579 0.
0.486534 0.0384458 0.
0.489973 0.0406134 0.
0.493376 0.0428314 0.
0.496744 0.0451243 0.
0.500132 0.0474575 0.
0.503578 0.049791 0.
0.507068 0.0520677 0.
0.510621 0.0542534 0.
0.514241 0.0563483 0.
0.517866 0.0584038 0.
0.521455 0.0605222 0.
0.525038 0.0627147 0.
0.528628 0.0648473 0.
0.532201 0.0668603 0.
0.535805 0.0687035 0.
0.539432 0.0704718 0.
0.543025 0.0723394 0.
0.546569 0.0742191 0.
0.550098 0.0759256 0.
0.553666 0.0774738 0.
0.557138 0.0790683 0.
0.56063 0.0805101 0.
0.563963 0.0814512 0.
0.56711 0.082454 0.
0.570099 0.0835718 0.
0.572986 0.0843592 0.
0.575723 0.0848329 0.
0.578326 0.0852851 0.
0.580652 0.085678 0.
0.583007 0.0860789 0.
0.58519 0.0861856 0.
0.587358 0.0862753 0.
0.589509 0.0863494 0.
0.591616 0.0863927 0.
0.593724 0.0864361 0.
0.595832 0.0864537 0.
0.597939 0.0864616 0.
0.600046 0.0864691 0.
0.602157 0.0864417 0.
0.604268 0.0864143 0.
0.60638 0.0863773 0.
0.608495 0.0863193 0.
0.610609 0.0862613 0.
0.612801 0.0861377 0.
0.615015 0.0859939 0.
0.61728 0.0858048 0.
0.619749 0.0853244 0.
0.622173 0.0848728 0.
0.624967 0.0843202 0.
0.627773 0.0837808 0.
0.630916 0.0828473 0.
0.634021 0.0817694 0.
0.637361 0.0802646 0.
0.64078 0.0788176 0.
0.644288 0.0773471 0.
0.647823 0.0757268 0.
0.651415 0.0740122 0.
0.655029 0.0723277 0.
0.65865 0.0706094 0.
0.662258 0.0687487 0.
0.665804 0.0667469 0.
0.669378 0.0647318 0.
0.673014 0.0627887 0.
0.676687 0.0608173 0.
0.680331 0.0586844 0.
0.683881 0.056401 0.
0.687402 0.0540618 0.
0.690878 0.0517182 0.
0.694318 0.0493998 0.
0.697756 0.0471156 0.
0.701218 0.0448873 0.
0.70465 0.0427498 0.
0.708105 0.0406769 0.
0.711596 0.0386021 0.
0.715055 0.0364332 0.
0.718535 0.0341879 0.
0.721984 0.0319228 0.
0.725441 0.0296189 0.
0.729034 0.0273772 0.
0.732804 0.025175 0.
0.736712 0.0228669 0.
0.740902 0.0205443 0.
0.745535 0.0183592 0.
0.75057 0.0164092 0.
0.756112 0.0147564 0.
0.762415 0.0145286 0.
0.768806 0.0152071 0.
0.430946 0.0154744 0.
0.437221 0.0148238 0.
0.442951 0.0155592 0.
0.44805 0.0174644 0.
0.452771 0.0194836 0.
0.457071 0.0216153 0.
0.461 0.0238315 0.
0.464715 0.0260132 0.
0.468299 0.0281027 0.
0.471771 0.0302721 0.
0.475167 0.0325242 0.
0.47859 0.0347008 0.
0.482024 0.0368265 0.
0.485409 0.0389654 0.
0.488793 0.0411011 0.
0.492165 0.0432655 0.
0.495513 0.0455136 0.
0.498864 0.0478099 0.
0.502274 0.0501147 0.
0.505736 0.0523849 0.
0.50927 0.0545857 0.
0.512864 0.0566911 0.
0.516477 0.0587373 0.
0.520069 0.060822 0.
0.523639 0.0629962 0.
0.527214 0.0651597 0.
0.53079 0.0672168 0.
0.534391 0.069119 0.
0.538024 0.0708903 0.
0.541646 0.0727366 0.
0.545207 0.0746519 0.
0.548762 0.0764741 0.
0.552355 0.0780806 0.
0.555888 0.0796949 0.
0.559404 0.0812833 0.
0.562845 0.0824276 0.
0.566194 0.0835349 0.
0.56925 0.0847174 0.
0.572267 0.0857181 0.
0.575089 0.0863069 0.
0.577889 0.0869389 0.
0.580302 0.0873936 0.
0.582752 0.0878604 0.
0.585018 0.0880229 0.
0.587244 0.0881462 0.
0.589443 0.0882461 0.
0.591565 0.0882903 0.
0.593687 0.0883346 0.
0.59581 0.0883521 0.
0.597932 0.0883593 0.
0.600055 0.088366 0.
0.602181 0.0883373 0.
0.604307 0.0883086 0.
0.606435 0.0882698 0.
0.608567 0.0882102 0.
0.610699 0.0881507 0.
0.612956 0.0879819 0.
0.615239 0.0877867 0.
0.617621 0.087505 0.
0.620206 0.0869262 0.
0.622777 0.0863627 0.
0.625691 0.085692 0.
0.628627 0.0850631 0.
0.631914 0.0839461 0.
0.635172 0.0825889 0.
0.63859 0.0809474 0.
0.642089 0.0794684 0.
0.645623 0.0779386 0.
0.649179 0.0762153 0.
0.652784 0.0744937 0.
0.656415 0.0728067 0.
0.660049 0.0710255 0.
0.663663 0.0691073 0.
0.667219 0.0670762 0.
0.670795 0.0650871 0.
0.674421 0.0631563 0.
0.678071 0.0611489 0.
0.681697 0.0589663 0.
0.685244 0.0566627 0.
0.688755 0.0543286 0.
0.692218 0.0520089 0.
0.695635 0.0497194 0.
0.699047 0.047479 0.
0.702474 0.0453039 0.
0.705891 0.0432095 0.
0.709304 0.0411797 0.
0.712715 0.0391353 0.
0.716082 0.0370026 0.
0.719465 0.0348231 0.
0.722824 0.0326125 0.
0.726171 0.0303776 0.
0.729613 0.028217 0.
0.733183 0.0260937 0.
0.736881 0.0238696 0.
0.74081 0.02162 0.
0.745123 0.0194769 0.
0.749833 0.0175408 0.
0.754988 0.0158054 0.
0.760788 0.0151588 0.
0.76695 0.0157816 0.
0.432824 0.0159791 0.
0.438703 0.0156244 0.
0.44397 0.0167489 0.
0.448699 0.0186704 0.
0.453092 0.0206477 0.
0.457055 0.0227162 0.
0.460732 0.0248425 0.
0.464245 0.0269402 0.
0.467661 0.0289591 0.
0.471 0.0310399 0.
0.474291 0.0332123 0.
0.477621 0.0353393 0.
0.480955 0.0374075 0.
0.484269 0.0394964 0.
0.487602 0.0415989 0.
0.490942 0.0437164 0.
0.494264 0.0459178 0.
0.497576 0.0481704 0.
0.500959 0.0504445 0.
0.50441 0.0527128 0.
0.507923 0.0549227 0.
0.5115 0.057041 0.
0.515103 0.059089 0.
0.51869 0.0611459 0.
0.522255 0.0632887 0.
0.525825 0.0654672 0.
0.529402 0.0675611 0.
0.533 0.0695329 0.
0.536642 0.071338 0.
0.540296 0.0731509 0.
0.543874 0.0750777 0.
0.547438 0.0769652 0.
0.551039 0.0786561 0.
0.55464 0.0802741 0.
0.558177 0.0819457 0.
0.561703 0.0833189 0.
0.565154 0.0844837 0.
0.568288 0.0856877 0.
0.571447 0.086929 0.
0.574412 0.0877237 0.
0.577405 0.0885618 0.
0.579937 0.089096 0.
0.582484 0.0896282 0.
0.584845 0.0898512 0.
0.587128 0.0900073 0.
0.589378 0.0901372 0.
0.591515 0.0901819 0.
0.593652 0.0902265 0.
0.595789 0.0902438 0.
0.597927 0.0902502 0.
0.600064 0.0902562 0.
0.602205 0.0902264 0.
0.604346 0.0901967 0.
0.60649 0.0901566 0.
0.608639 0.090096 0.
0.610787 0.0900356 0.
0.613114 0.0898172 0.
0.615468 0.0895698 0.
0.617985 0.0891824 0.
0.62069 0.0885035 0.
0.623456 0.0877841 0.
0.626495 0.0869519 0.
0.629637 0.0860811 0.
0.632968 0.0848891 0.
0.636356 0.083288 0.
0.639838 0.0815809 0.
0.643401 0.0800781 0.
0.646954 0.0784683 0.
0.650523 0.0766937 0.
0.654145 0.0749796 0.
0.657779 0.0732651 0.
0.661412 0.0714381 0.
0.665041 0.0694585 0.
0.668618 0.0674207 0.
0.672196 0.0654603 0.
0.675815 0.0635227 0.
0.679449 0.0614697 0.
0.683052 0.0592445 0.
0.686591 0.0569333 0.
0.690098 0.0546114 0.
0.693551 0.0523186 0.
0.696949 0.0500622 0.
0.700343 0.0478623 0.
0.703738 0.0457424 0.
0.707137 0.04369 0.
0.710519 0.0416942 0.
0.713867 0.0396709 0.
0.717155 0.037576 0.
0.720443 0.0354589 0.
0.723714 0.0333069 0.
0.726957 0.0311462 0.
0.730266 0.0290589 0.
0.733655 0.0270158 0.
0.737141 0.0248922 0.
0.740808 0.0227229 0.
0.744792 0.020641 0.
0.749151 0.0187394 0.
0.753912 0.0169773 0.
0.759219 0.0159379 0.
0.765017 0.0163175 0.
0.434647 0.0165529 0.
0.440038 0.0166151 0.
0.444858 0.0180241 0.
0.449215 0.0199177 0.
0.453223 0.0218247 0.
0.456876 0.0238103 0.
0.460325 0.0258413 0.
0.46364 0.0278465 0.
0.466901 0.0297983 0.
0.470121 0.031792 0.
0.473328 0.0338832 0.
0.476567 0.0359627 0.
0.479808 0.037983 0.
0.483071 0.0400235 0.
0.486363 0.0420944 0.
0.48967 0.044172 0.
0.492963 0.0463203 0.
0.496253 0.0485326 0.
0.499623 0.0507807 0.
0.50307 0.0530466 0.
0.506576 0.0552682 0.
0.510141 0.0573994 0.
0.513737 0.0594574 0.
0.517318 0.0614963 0.
0.520886 0.0636064 0.
0.524456 0.0657813 0.
0.52804 0.0679138 0.
0.531652 0.0699456 0.
0.535306 0.0717996 0.
0.538977 0.073589 0.
0.542581 0.0755049 0.
0.54615 0.077436 0.
0.549761 0.0792103 0.
0.5534 0.0808431 0.
0.556975 0.0825598 0.
0.560545 0.0841462 0.
0.564019 0.0853301 0.
0.567306 0.0866032 0.
0.570573 0.0880024 0.
0.573729 0.0890736 0.
0.576832 0.0900298 0.
0.579502 0.0906381 0.
0.582128 0.0912076 0.
0.584607 0.0915418 0.
0.586977 0.0917938 0.
0.589311 0.0920081 0.
0.591464 0.0920534 0.
0.593618 0.0920987 0.
0.595771 0.0921159 0.
0.597923 0.0921219 0.
0.600076 0.0921272 0.
0.602231 0.0920958 0.
0.604386 0.0920644 0.
0.606544 0.092022 0.
0.608707 0.0919587 0.
0.61087 0.0918956 0.
0.613337 0.0915508 0.
0.615806 0.0911928 0.
0.618445 0.0906788 0.
0.6212 0.0899744 0.
0.624149 0.0891192 0.
0.627305 0.0881506 0.
0.630654 0.0870258 0.
0.634053 0.0856923 0.
0.637536 0.0839068 0.
0.641082 0.0822044 0.
0.644682 0.0806744 0.
0.648253 0.0789686 0.
0.651838 0.0771831 0.
0.655473 0.0754782 0.
0.659111 0.0737254 0.
0.662747 0.0718434 0.
0.666382 0.0698215 0.
0.669989 0.0677934 0.
0.673583 0.065853 0.
0.677196 0.0638929 0.
0.680818 0.0617907 0.
0.684411 0.0595266 0.
0.687944 0.0572131 0.
0.691448 0.0549097 0.
0.694898 0.0526416 0.
0.698281 0.0504208 0.
0.701664 0.0482609 0.
0.705036 0.046192 0.
0.708412 0.0441819 0.
0.711766 0.0422123 0.
0.715067 0.0402051 0.
0.718301 0.0381438 0.
0.721509 0.0360767 0.
0.7247 0.0339803 0.
0.72785 0.031896 0.
0.731031 0.029887 0.
0.734284 0.0279108 0.
0.737572 0.0258902 0.
0.740981 0.0238204 0.
0.744648 0.0218139 0.
0.748645 0.0199675 0.
0.752991 0.0182275 0.
0.757815 0.0169112 0.
0.763158 0.0168985 0.
0.436287 0.0172957 0.
0.441176 0.0177823 0.
0.445537 0.0193498 0.
0.449494 0.0211761 0.
0.453118 0.0229895 0.
0.45651 0.0248882 0.
0.459735 0.0268119 0.
0.462892 0.0287317 0.
0.466029 0.0306236 0.
0.469149 0.0325383 0.
0.472287 0.0345492 0.
0.475444 0.0365888 0.
0.478619 0.0385742 0.
0.481848 0.0405736 0.
0.485102 0.0426126 0.
0.488376 0.0446561 0.
0.491653 0.0467544 0.
0.494942 0.0489345 0.
0.498316 0.0511599 0.
0.501768 0.0534185 0.
0.505273 0.0556518 0.
0.508827 0.0577936 0.
0.512414 0.0598593 0.
0.515989 0.0618911 0.
0.519562 0.0639719 0.
0.523142 0.0661342 0.
0.526739 0.0682943 0.
0.530366 0.0703684 0.
0.53403 0.0722781 0.
0.537707 0.0740716 0.
0.541334 0.0759608 0.
0.54491 0.0779109 0.
0.548541 0.0797547 0.
0.552204 0.0814287 0.
0.555817 0.0831553 0.
0.559392 0.084856 0.
0.56289 0.0861517 0.
0.566301 0.0874652 0.
0.569665 0.0889631 0.
0.572955 0.0902252 0.
0.576088 0.0912599 0.
0.578973 0.0920731 0.
0.581723 0.0927426 0.
0.584353 0.0932174 0.
0.586817 0.0935714 0.
0.589244 0.093879 0.
0.591414 0.0939249 0.
0.593584 0.0939708 0.
0.595752 0.0939881 0.
0.597919 0.0939935 0.
0.600087 0.0939983 0.
0.602256 0.0939652 0.
0.604426 0.0939322 0.
0.606599 0.0938873 0.
0.608776 0.0938213 0.
0.610953 0.0937554 0.
0.613585 0.0932631 0.
0.616198 0.092769 0.
0.618988 0.0920791 0.
0.621812 0.0912812 0.
0.624918 0.0902542 0.
0.628144 0.0892307 0.
0.631665 0.0879083 0.
0.635146 0.0863733 0.
0.638678 0.0845001 0.
0.642283 0.0828302 0.
0.645905 0.0812575 0.
0.649493 0.0794764 0.
0.653103 0.0776999 0.
0.65675 0.0759912 0.
0.660386 0.0742025 0.
0.664027 0.0722627 0.
0.667674 0.0702144 0.
0.671306 0.0682093 0.
0.674916 0.0662799 0.
0.678524 0.0642877 0.
0.682134 0.0621396 0.
0.685721 0.0598486 0.
0.68926 0.057536 0.
0.692765 0.0552533 0.
0.696219 0.0530098 0.
0.699595 0.0508259 0.
0.702968 0.0487051 0.
0.70633 0.0466767 0.
0.70968 0.0447092 0.
0.713011 0.0427533 0.
0.716285 0.0407597 0.
0.719481 0.0387307 0.
0.72263 0.0366978 0.
0.725754 0.0346539 0.
0.728841 0.0326391 0.
0.731918 0.030705 0.
0.735049 0.0287882 0.
0.738189 0.0268522 0.
0.741374 0.0248961 0.
0.74474 0.022983 0.
0.748377 0.0212046 0.
0.752322 0.0195215 0.
0.756661 0.0180702 0.
0.761499 0.017639 0.
0.437606 0.0182447 0.
0.441999 0.0190631 0.
0.445893 0.020678 0.
0.44944 0.0224154 0.
0.452756 0.0241386 0.
0.455919 0.025932 0.
0.458966 0.0277544 0.
0.462024 0.0296089 0.
0.465075 0.031454 0.
0.468125 0.0333088 0.
0.471205 0.0352489 0.
0.474316 0.0372527 0.
0.477462 0.0392199 0.
0.480671 0.0411898 0.
0.483883 0.0431961 0.
0.487132 0.0452083 0.
0.490407 0.0472649 0.
0.493712 0.0494161 0.
0.497093 0.0516185 0.
0.500552 0.053862 0.
0.504058 0.0561045 0.
0.507601 0.0582459 0.
0.511172 0.0603141 0.
0.514743 0.0623469 0.
0.518324 0.0644061 0.
0.521922 0.066551 0.
0.525527 0.0687211 0.
0.529171 0.0708276 0.
0.532841 0.0727984 0.
0.536513 0.0746147 0.
0.540144 0.0764584 0.
0.543744 0.0784107 0.
0.547404 0.0803121 0.
0.551062 0.0820315 0.
0.554713 0.0837486 0.
0.558296 0.0855193 0.
0.561797 0.0869558 0.
0.565282 0.0882735 0.
0.568734 0.0898014 0.
0.572128 0.0912653 0.
0.575321 0.0924302 0.
0.578418 0.0934723 0.
0.581296 0.0942373 0.
0.584091 0.094859 0.
0.586643 0.0953063 0.
0.589172 0.0957254 0.
0.591359 0.0957715 0.
0.593548 0.0958176 0.
0.595733 0.0958352 0.
0.597917 0.0958407 0.
0.600101 0.0958454 0.
0.602285 0.0958117 0.
0.604468 0.095778 0.
0.606657 0.0957314 0.
0.60885 0.0956633 0.
0.611043 0.0955955 0.
0.613844 0.094939 0.
0.616609 0.0943126 0.
0.619542 0.0934437 0.
0.622442 0.0925444 0.
0.625711 0.0912863 0.
0.629034 0.0901453 0.
0.632656 0.088721 0.
0.636199 0.0869946 0.
0.639764 0.0850978 0.
0.643424 0.0834716 0.
0.647062 0.0818359 0.
0.650661 0.0800172 0.
0.65429 0.0782573 0.
0.657945 0.076531 0.
0.661591 0.0747079 0.
0.665231 0.0727166 0.
0.66888 0.0706623 0.
0.672538 0.0686783 0.
0.676164 0.066751 0.
0.679754 0.0647328 0.
0.683351 0.0625456 0.
0.686944 0.0602321 0.
0.6905 0.057929 0.
0.694009 0.0556709 0.
0.697462 0.0534613 0.
0.700834 0.0513134 0.
0.704199 0.0492288 0.
0.707557 0.0472348 0.
0.71089 0.0453016 0.
0.714199 0.0433534 0.
0.717454 0.0413724 0.
0.720631 0.0393701 0.
0.723746 0.0373644 0.
0.726826 0.0353647 0.
0.729883 0.0334087 0.
0.732891 0.0315373 0.
0.735927 0.0296715 0.
0.73897 0.0277973 0.
0.741996 0.0259439 0.
0.745116 0.02413 0.
0.748416 0.0224276 0.
0.751979 0.0208213 0.
0.755868 0.019346 0.
0.760194 0.0185817 0.
0.438528 0.0193644 0.
0.442436 0.0203974 0.
0.445883 0.022002 0.
0.449097 0.0236584 0.
0.452168 0.0252869 0.
0.455145 0.0269702 0.
0.458102 0.0287202 0.
0.461099 0.0305291 0.
0.464088 0.0323458 0.
0.467098 0.0341609 0.
0.470156 0.036049 0.
0.473269 0.0380246 0.
0.476419 0.0399796 0.
0.479599 0.0419239 0.
0.482772 0.0438963 0.
0.486014 0.0458772 0.
0.4893 0.047904 0.
0.492626 0.0500254 0.
0.49601 0.0521993 0.
0.499466 0.0544172 0.
0.502975 0.0566556 0.
0.506512 0.0587928 0.
0.510063 0.060861 0.
0.513635 0.0628946 0.
0.517225 0.0649318 0.
0.520838 0.0670552 0.
0.524461 0.0692362 0.
0.528111 0.0713687 0.
0.531771 0.0733813 0.
0.535436 0.0752313 0.
0.539083 0.0770368 0.
0.542704 0.0789715 0.
0.546384 0.0809223 0.
0.550045 0.0826817 0.
0.553726 0.0844047 0.
0.557327 0.0862087 0.
0.560808 0.0877625 0.
0.56433 0.0891024 0.
0.567864 0.0906074 0.
0.571309 0.0922136 0.
0.574606 0.0935543 0.
0.577918 0.0948062 0.
0.580891 0.0956094 0.
0.583765 0.0963692 0.
0.586428 0.0969692 0.
0.589091 0.0975531 0.
0.5913 0.0976009 0.
0.593509 0.0976488 0.
0.595714 0.0976677 0.
0.597915 0.0976738 0.
0.600116 0.097679 0.
0.602315 0.0976445 0.
0.604514 0.0976099 0.
0.606721 0.0975607 0.
0.608933 0.0974891 0.
0.611154 0.0974075 0.
0.614099 0.0964673 0.
0.616969 0.0956702 0.
0.619991 0.0947561 0.
0.623054 0.0937109 0.
0.626454 0.0922794 0.
0.629873 0.0909987 0.
0.633534 0.0895127 0.
0.637145 0.0876385 0.
0.640739 0.0857541 0.
0.64444 0.084146 0.
0.648095 0.0824567 0.
0.6517 0.0806303 0.
0.655345 0.0788783 0.
0.659006 0.0771294 0.
0.662656 0.0752787 0.
0.666306 0.0732425 0.
0.669958 0.0711907 0.
0.673638 0.0692287 0.
0.677274 0.0673037 0.
0.680844 0.0652604 0.
0.684427 0.0630434 0.
0.688021 0.0607229 0.
0.6916 0.0584411 0.
0.695113 0.0562133 0.
0.698568 0.0540402 0.
0.701943 0.0519174 0.
0.705302 0.0498667 0.
0.708657 0.047906 0.
0.711974 0.0460078 0.
0.71527 0.0440695 0.
0.718512 0.0420939 0.
0.72168 0.0401132 0.
0.724796 0.0381298 0.
0.727858 0.0361636 0.
0.7309 0.0342673 0.
0.733888 0.0324509 0.
0.73686 0.0306251 0.
0.739847 0.0287907 0.
0.742776 0.0270102 0.
0.74572 0.0252935 0.
0.748751 0.0236639 0.
0.751978 0.0221159 0.
0.755451 0.0206794 0.
0.759291 0.0196936 0.
CELLS 5000 10000
1 0
1 1
1 2
1 3
1 4
1 5
1 6
1 7
1 8
1 9
1 10
1 11
1 12
1 13
1 14
1 15
1 16
1 17
1 18
1 19
1 20
1 21
1 22
1 23
1 24
1 25
1 26
1 27
1 28
1 29
1 30
1 31
1 32
1 33
1 34
1 35
1 36
1 37
1 38
1 39
1 40
1 41
1 42
1 43
1 44
1 45
1 46
1 47
1 48
1 49
1 50
1 51
1 52
1 53
1 54
1 55
1 56
1 57
1 58
1 59
1 60
1 61
1 62
1 63
1 64
1 65
1 66
1 67
1 68
1 69
1 70
1 71
1 72
1 73
1 74
1 75
1 76
1 77
1 78
1 79
1 80
1 81
1 82
1 83
1 84
1 85
1 86
1 87
1 88
1 89
1 90
1 91
1 92
1 93
1 94
1 95
1 96
1 97
1 98
1 99
1 100
1 101
1 102
1 103
1 104
1 105
1 106
1 107
1 108
1 109
1 110
1 111
1 112
1 113
1 114
1 115
1 116
1 117
1 118
1 119
1 120
1 121
1 122
1 123
1 124
1 125
1 126
1 127
1 128
1 129
1 130
1 131
1 132
1 133
1 134
1 135
1 136
1 137
1 138
1 139
1 140
1 141
1 142
1 143
1 144
1 145
1 146
1 147
1 148
1 149
1 150
1 151
1 152
1 153
1 154
1 155
1 156
1 157
1 158
1 159
1 160
1 161
1 162
1 163
1 164
1 165
1 166
1 167
1 168
1 169
1 170
1 171
1 172
1 173
1 174
1 175
1 176
1 177
1 178
1 179
1 180
1 181
1 182
1 183
1 184
1 185
1 186
1 187
1 188
1 189
1 190
1 191
1 192
1 193
1 194
1 195
1 196
1 197
1 198
1 199
1 200
1 201
1 202
1 203
1 204
1 205
1 206
1 207
1 208
1 209
1 210
1 211
1 212
1 213
1 214
1 215
1 216
1 217
1 218
1 219
1 220
1 221
1 222
1 223
1 224
1 225
1 226
1 227
1 228
1 229
1 230
1 231
1 232
1 233
1 234
1 235
1 236
1 237
1 238
1 239
1 240
1 241
1 242
1 243
1 244
1 245
1 246
1 247
1 248
1 249
1 250
1 251
1 252
1 253
1 254
1 255
1 256
1 257
1 258
1 259
1 260
1 261
1 262
1 263
1 264
1 265
1 266
1 267
1 268
1 269
1 270
1 271
1 272
1 273
1 274
1 275
1 276
1 277
1 278
1 279
1 280
1 281
1 282
1 283
1 284
1 285
1 286
1 287
1 288
1 289
1 290
1 291
1 292
1 293
1 294
1 295
1 296
1 297
1 298
1 299
1 300
1 301
1 302
1 303
1 304
1 305
1 306
1 307
1 308
1 309
1 310
1 311
1 312
1 313
1 314
1 315
1 316
1 317
1 318
1 319
1 320
1 321
1 322
1 323
1 324
1 325
1 326
1 327
1 328
1 329
1 330
1 331
1 332
1 333
1 334
1 335
1 336
1 337
1 338
1 339
1 340
1 341
1 342
1 343
1 344
1 345
1 346
1 347
1 348
1 349
1 350
1 351
1 352
1 353
1 354
1 355
1 356
1 357
1 358
1 359
1 360
1 361
1 362
1 363
1 364
1 365
1 366
1 367
1 368
1 369
1 370
1 371
1 372
1 373
1 374
1 375
1 376
1 377
1 378
1 379
1 380
1 381
1 382
1 383
1 384
1 385
1 386
1 387
1 388
1 389
1 390
1 391
1 392
1 393
1 394
1 395
1 396
1 397
1 398
1 399
1 400
1 401
1 402
1 403
1 404
1 405
1 406
1 407
1 408
1 409
1 410
1 411
1 412
1 413
1 414
1 415
1 416
1 417
1 418
1 419
1 420
1 421
1 422
1 423
1 424
1 425
1 426
1 427
1 428
1 429
1 430
1 431
1 432
1 433
1 434
1 435
1 436
1 437
1 438
1 439
1 440
1 441
1 442
1 443
1 444
1 445
1 446
1 447
1 448
1 449
1 450
1 451
1 452
1 453
1 454
1 455
1 456
1 457
1 458
1 459
1 460
1 461
1 462
1 463
1 464
1 465
1 466
1 467
1 468
1 469
1 470
1 471
1 472
1 473
1 474
1 475
1 476
1 477
1 478
1 479
1 480
1 481
1 482
1 483
1 484
1 485
1 486
1 487
1 488
1 489
1 490
1 491
1 492
1 493
1 494
1 495
1 496
1 497
1 498
1 499
1 500
1 501
1 502
1 503
1 504
1 505
1 506
1 507
1 508
1 509
1 510
1 511
1 512
1 513
1 514
1 515
1 516
1 517
1 518
1 519
1 520
1 521
1 522
1 523
1 524
1 525
1 526
1 527
1 528
1 529
1 530
1 531
1 532
1 533
1 534
1 535
1 536
1 537
1 538
1 539
1 540
1 541
1 542
1 543
1 544
1 545
1 546
1 547
1 548
1 549
1 550
1 551
1 552
1 553
1 554
1 555
1 556
1 557
1 558
1 559
1 560
1 561
1 562
1 563
1 564
1 565
1 566
1 567
1 568
1 569
1 570
1 571
1 572
1 573
1 574
1 575
1 576
1 577
1 578
1 579
1 580
1 581
1 582
1 583
1 584
1 585
1 586
1 587
1 588
1 589
1 590
1 591
1 592
1 593
1 594
1 595
1 596
1 597
1 598
1 599
1 600
1 601
1 602
1 603
1 604
1 605
1 606
1 607
1 608
1 609
1 610
1 611
1 612
1 613
1 614
1 615
1 616
1 617
1 618
1 619
1 620
1 621
1 622
1 623
1 624
1 625
1 626
1 627
1 628
1 629
1 630
1 631
1 632
1 633
1 634
1 635
1 636
1 637
1 638
1 639
1 640
1 641
1 642
1 643
1 644
1 645
1 646
1 647
1 648
1 649
1 650
1 651
1 652
1 653
1 654
1 655
1 656
1 657
1 658
1 659
1 660
1 661
1 662
1 663
1 664
1 665
1 666
1 667
1 668
1 669
1 670
1 671
1 672
1 673
1 674
1 675
1 676
1 677
1 678
1 679
1 680
1 681
1 682
1 683
1 684
1 685
1 686
1 687
1 688
1 689
1 690
1 691
1 692
1 693
1 694
1 695
1 696
1 697
1 698
1 699
1 700
1 701
1 702
1 703
1 704
1 705
1 706
1 707
1 708
1 709
1 710
1 711
1 712
1 713
1 714
1 715
1 716
1 717
1 718
1 719
1 720
1 721
1 722
1 723
1 724
1 725
1 726
1 727
1 728
1 729
1 730
1 731
1 732
1 733
1 734
1 735
1 736
1 737
1 738
1 739
1 740
1 741
1 742
1 743
1 744
1 745
1 746
1 747
1 748
1 749
1 750
1 751
1 752
1 753
1 754
1 755
1 756
1 757
1 758
1 759
1 760
1 761
1 762
1 763
1 764
1 765
1 766
1 767
1 768
1 769
1 770
1 771
1 772
1 773
1 774
1 775
1 776
1 777
1 778
1 779
1 780
1 781
1 782
1 783
1 784
1 785
1 786
1 787
1 788
1 789
1 790
1 791
1 792
1 793
1 794
1 795
1 796
1 797
1 798
1 799
1 800
1 801
1 802
1 803
1 804
1 805
1 806
1 807
1 808
1 809
1 810
1 811
1 812
1 813
1 814
1 815
1 816
1 817
1 818
1 819
1 820
1 821
1 822
1 823
1 824
1 825
1 826
1 827
1 828
1 829
1 830
1 831
1 832
1 833
1 834
1 835
1 836
1 837
1 838
1 839
1 840
1 841
1 842
1 843
1 844
1 845
1 846
1 847
1 848
1 849
1 850
1 851
1 852
1 853
1 854
1 855
1 856
1 857
1 858
1 859
1 860
1 861
1 862
1 863
1 864
1 865
1 866
1 867
1 868
1 869
1 870
1 871
1 872
1 873
1 874
1 875
1 876
1 877
1 878
1 879
1 880
1 881
1 882
1 883
1 884
1 885
1 886
1 887
1 888
1 889
1 890
1 891
1 892
1 893
1 894
1 895
1 896
1 897
1 898
1 899
1 900
1 901
1 902
1 903
1 904
1 905
1 906
1 907
1 908
1 909
1 910
1 911
1 912
1 913
1 914
1 915
1 916
1 917
1 918
1 919
1 920
1 921
1 922
1 923
1 924
1 925
1 926
1 927
1 928
1 929
1 930
1 931
1 932
1 933
1 934
1 935
1 936
1 937
1 938
1 939
1 940
1 941
1 942
1 943
1 944
1 945
1 946
1 947
1 948
1 949
1 950
1 951
1 952
1 953
1 954
1 955
1 956
1 957
1 958
1 959
1 960
1 961
1 962
1 963
1 964
1 965
1 966
1 967
1 968
1 969
1 970
1 971
1 972
1 973
1 974
1 975
1 976
1 977
1 978
1 979
1 980
1 981
1 982
1 983
1 984
1 985
1 986
1 987
1 988
1 989
1 990
1 991
1 992
1 993
1 994
1 995
1 996
1 997
1 998
1 999
1 1000
1 1001
1 1002
1 1003
1 1004
1 1005
1 1006
1 1007
1 1008
1 1009
1 1010
1 1011
1 1012
1 1013
1 1014
1 1015
1 1016
1 1017
1 1018
1 1019
1 1020
1 1021
1 1022
1 1023
1 1024
1 1025
1 1026
1 1027
1 1028
1 1029
1 1030
1 1031
1 1032
1 1033
1 1034
1 1035
1 1036
1 1037
1 1038
1 1039
1 1040
1 1041
1 1042
1 1043
1 1044
1 1045
1 1046
1 1047
1 1048
1 1049
1 1050
1 1051
1 1052
1 1053
1 1054
1 1055
1 1056
1 1057
1 1058
1 1059
1 1060
1 1061
1 1062
1 1063
1 1064
1 1065
1 1066
1 1067
1 1068
1 1069
1 1070
1 1071
1 1072
1 1073
1 1074
1 1075
1 1076
1 1077
1 1078
1 1079
1 1080
1 1081
1 1082
1 1083
1 1084
1 1085
1 1086
1 1087
1 1088
1 1089
1 1090
1 1091
1 1092
1 1093
1 1094
1 1095
1 1096
1 1097
1 1098
1 1099
1 1100
1 1101
1 1102
1 1103
1 1104
1 1105
1 1106
1 1107
1 1108
1 1109
1 1110
1 1111
1 1112
1 1113
1 1114
1 1115
1 1116
1 1117
1 1118
1 1119
1 1120
1 1121
1 1122
1 1123
1 1124
1 1125
1 1126
1 1127
1 1128
1 1129
1 1130
1 1131
1 1132
1 1133
1 1134
1 1135
1 1136
1 1137
1 1138
1 1139
1 1140
1 1141
1 1142
1 1143
1 1144
1 1145
1 1146
1 1147
1 1148
1 1149
1 1150
1 1151
1 1152
1 1153
1 1154
1 1155
1 1156
1 1157
1 1158
1 1159
1 1160
1 1161
1 1162
1 1163
1 1164
1 1165
1 1166
1 1167
1 1168
1 1169
1 1170
1 1171
1 1172
1 1173
1 1174
1 1175
1 1176
1 1177
1 1178
1 1179
1 1180
1 1181
1 1182
1 1183
1 1184
1 1185
1 1186
1 1187
1 1188
1 1189
1 1190
1 1191
1 1192
1 1193
1 1194
1 1195
1 1196
1 1197
1 1198
1 1199
1 1200
1 1201
1 1202
1 1203
1 1204
1 1205
1 1206
1 1207
1 1208
1 1209
1 1210
1 1211
1 1212
1 1213
1 1214
1 1215
1 1216
1 1217
1 1218
1 1219
1 1220
1 1221
1 1222
1 1223
1 1224
1 1225
1 1226
1 1227
1 1228
1 1229
1 1230
1 1231
1 1232
1 1233
1 1234
1 1235
1 1236
1 1237
1 1238
1 1239
1 1240
1 1241
1 1242
1 1243
1 1244
1 1245
1 1246
1 1247
1 1248
1 1249
1 1250
1 1251
1 1252
1 1253
1 1254
1 1255
1 1256
1 1257
1 1258
1 1259
1 1260
1 1261
1 1262
1 1263
1 1264
1 1265
1 1266
1 1267
1 1268
1 1269
1 1270
1 1271
1 1272
1 1273
1 1274
1 1275
1 1276
1 1277
1 1278
1 1279
1 1280
1 1281
1 1282
1 1283
1 1284
1 1285
1 1286
1 1287
1 1288
1 1289
1 1290
1 1291
1 1292
1 1293
1 1294
1 1295
1 1296
1 1297
1 1298
1 1299
1 1300
1 1301
1 1302
1 1303
1 1304
1 1305
1 1306
1 1307
1 1308
1 1309
1 1310
1 1311
1 1312
1 1313
1 1314
1 1315
1 1316
1 1317
1 1318
1 1319
1 1320
1 1321
1 1322
1 1323
1 1324
1 1325
1 1326
1 1327
1 1328
1 1329
1 1330
1 1331
1 1332
1 1333
1 1334
1 1335
1 1336
1 1337
1 1338
1 1339
1 1340
1 1341
1 1342
1 1343
1 1344
1 1345
1 1346
1 1347
1 1348
1 1349
1 1350
1 1351
1 1352
1 1353
1 1354
1 1355
1 1356
1 1357
1 1358
1 1359
1 1360
1 1361
1 1362
1 1363
1 1364
1 1365
1 1366
1 1367
1 1368
1 1369
1 1370
1 1371
1 1372
1 1373
1 1374
1 1375
1 1376
1 1377
1 1378
1 1379
1 1380
1 1381
1 1382
1 1383
1 1384
1 1385
1 1386
1 1387
1 1388
1 1389
1 1390
1 1391
1 1392
1 1393
1 1394
1 1395
1 1396
1 1397
1 1398
1 1399
1 1400
1 1401
1 1402
1 1403
1 1404
1 1405
1 1406
1 1407
1 1408
1 1409
1 1410
1 1411
1 1412
1 1413
1 1414
1 1415
1 1416
1 1417
1 1418
1 1419
1 1420
1 1421
1 1422
1 1423
1 1424
1 1425
1 1426
1 1427
1 1428
1 1429
1 1430
1 1431
1 1432
1 1433
1 1434
1 1435
1 1436
1 1437
1 1438
1 1439
1 1440
1 1441
1 1442
1 1443
1 1444
1 1445
1 1446
1 1447
1 1448
1 1449
1 1450
1 1451
1 1452
1 1453
1 1454
1 1455
1 1456
1 1457
1 1458
1 1459
1 1460
1 1461
1 1462
1 1463
1 1464
1 1465
1 1466
1 1467
1 1468
1 1469
1 1470
1 1471
1 1472
1 1473
1 1474
1 1475
1 1476
1 1477
1 1478
1 1479
1 1480
1 1481
1 1482
1 1483
1 1484
1 1485
1 1486
1 1487
1 1488
1 1489
1 1490
1 1491
1 1492
1 1493
1 1494
1 1495
1 1496
1 1497
1 1498
1 1499
1 1500
1 1501
1 1502
1 1503
1 1504
1 1505
1 1506
1 1507
1 1508
1 1509
1 1510
1 1511
1 1512
1 1513
1 1514
1 1515
1 1516
1 1517
1 1518
1 1519
1 1520
1 1521
1 1522
1 1523
1 1524
1 1525
1 1526
1 1527
1 1528
1 1529
1 1530
1 1531
1 1532
1 1533
1 1534
1 1535
1 1536
1 1537
1 1538
1 1539
1 1540
1 1541
1 1542
1 1543
1 1544
1 1545
1 1546
1 1547
1 1548
1 1549
1 1550
1 1551
1 1552
1 1553
1 1554
1 1555
1 1556
1 1557
1 1558
1 1559
1 1560
1 1561
1 1562
1 1563
1 1564
1 1565
1 1566
1 1567
1 1568
1 1569
1 1570
1 1571
1 1572
1 1573
1 1574
1 1575
1 1576
1 1577
1 1578
1 1579
1 1580
1 1581
1 1582
1 1583
1 1584
1 1585
1 1586
1 1587
1 1588
1 1589
1 1590
1 1591
1 1592
1 1593
1 1594
1 1595
1 1596
1 1597
1 1598
1 1599
1 1600
1 1601
1 1602
1 1603
1 1604
1 1605
1 1606
1 1607
1 1608
1 1609
1 1610
1 1611
1 1612
1 1613
1 1614
1 1615
1 1616
1 1617
1 1618
1 1619
1 1620
1 1621
1 1622
1 1623
1 1624
1 1625
1 1626
1 1627
1 1628
1 1629
1 1630
1 1631
1 1632
1 1633
1 1634
1 1635
1 1636
1 1637
1 1638
1 1639
1 1640
1 1641
1 1642
1 1643
1 1644
1 1645
1 1646
1 1647
1 1648
1 1649
1 1650
1 1651
1 1652
1 1653
1 1654
1 1655
1 1656
1 1657
1 1658
1 1659
1 1660
1 1661
1 1662
1 1663
1 1664
1 1665
1 1666
1 1667
1 1668
1 1669
1 1670
1 1671
1 1672
1 1673
1 1674
1 1675
1 1676
1 1677
1 1678
1 1679
1 1680
1 1681
1 1682
1 1683
1 1684
1 1685
1 1686
1 1687
1 1688
1 1689
1 1690
1 1691
1 1692
1 1693
1 1694
1 1695
1 1696
1 1697
1 1698
1 1699
1 1700
1 1701
1 1702
1 1703
1 1704
1 1705
1 1706
1 1707
1 1708
1 1709
1 1710
1 1711
1 1712
1 1713
1 1714
1 1715
1 1716
1 1717
1 1718
1 1719
1 1720
1 1721
1 1722
1 1723
1 1724
1 1725
1 1726
1 1727
1 1728
1 1729
1 1730
1 1731
1 1732
1 1733
1 1734
1 1735
1 1736
1 1737
1 1738
1 1739
1 1740
1 1741
1 1742
1 1743
1 1744
1 1745
1 1746
1 1747
1 1748
1 1749
1 1750
1 1751
1 1752
1 1753
1 1754
1 1755
1 1756
1 1757
1 1758
1 1759
1 1760
1 1761
1 1762
1 1763
1 1764
1 1765
1 1766
1 1767
1 1768
1 1769
1 1770
1 1771
1 1772
1 1773
1 1774
1 1775
1 1776
1 1777
1 1778
1 1779
1 1780
1 1781
1 1782
1 1783
1 1784
1 1785
1 1786
1 1787
1 1788
1 1789
1 1790
1 1791
1 1792
1 1793
1 1794
1 1795
1 1796
1 1797
1 1798
1 1799
1 1800
1 1801
1 1802
1 1803
1 1804
1 1805
1 1806
1 1807
1 1808
1 1809
1 1810
1 1811
1 1812
1 1813
1 1814
1 1815
1 1816
1 1817
1 1818
1 1819
1 1820
1 1821
1 1822
1 1823
1 1824
1 1825
1 1826
1 1827
1 1828
1 1829
1 1830
1 1831
1 1832
1 1833
1 1834
1 1835
1 1836
1 1837
1 1838
1 1839
1 1840
1 1841
1 1842
1 1843
1 1844
1 1845
1 1846
1 1847
1 1848
1 1849
1 1850
1 1851
1 1852
1 1853
1 1854
1 1855
1 1856
1 1857
1 1858
1 1859
1 1860
1 1861
1 1862
1 1863
1 1864
1 1865
1 1866
1 1867
1 1868
1 1869
1 1870
1 1871
1 1872
1 1873
1 1874
1 1875
1 1876
1 1877
1 1878
1 1879
1 1880
1 1881
1 1882
1 1883
1 1884
1 1885
1 1886
1 1887
1 1888
1 1889
1 1890
1 1891
1 1892
1 1893
1 1894
1 1895
1 1896
1 1897
1 1898
1 1899
1 1900
1 1901
1 1902
1 1903
1 1904
1 1905
1 1906
1 1907
1 1908
1 1909
1 1910
1 1911
1 1912
1 1913
1 1914
1 1915
1 1916
1 1917
1 1918
1 1919
1 1920
1 1921
1 1922
1 1923
1 1924
1 1925
1 1926
1 1927
1 1928
1 1929
1 1930
1 1931
1 1932
1 1933
1 1934
1 1935
1 1936
1 1937
1 1938
1 1939
1 1940
1 1941
1 1942
1 1943
1 1944
1 1945
1 1946
1 1947
1 1948
1 1949
1 1950
1 1951
1 1952
1 1953
1 1954
1 1955
1 1956
1 1957
1 1958
1 1959
1 1960
1 1961
1 1962
1 1963
1 1964
1 1965
1 1966
1 1967
1 1968
1 1969
1 1970
1 1971
1 1972
1 1973
1 1974
1 1975
1 1976
1 1977
1 1978
1 1979
1 1980
1 1981
1 1982
1 1983
1 1984
1 1985
1 1986
1 1987
1 1988
1 1989
1 1990
1 1991
1 1992
1 1993
1 1994
1 1995
1 1996
1 1997
1 1998
1 1999
1 2000
1 2001
1 2002
1 2003
1 2004
1 2005
1 2006
1 2007
1 2008
1 2009
1 2010
1 2011
1 2012
1 2013
1 2014
1 2015
1 2016
1 2017
1 2018
1 2019
1 2020
1 2021
1 2022
1 2023
1 2024
1 2025
1 2026
1 2027
1 2028
1 2029
1 2030
1 2031
1 2032
1 2033
1 2034
1 2035
1 2036
1 2037
1 2038
1 2039
1 2040
1 2041
1 2042
1 2043
1 2044
1 2045
1 2046
1 2047
1 2048
1 2049
1 2050
1 2051
1 2052
1 2053
1 2054
1 2055
1 2056
1 2057
1 2058
1 2059
1 2060
1 2061
1 2062
1 2063
1 2064
1 2065
1 2066
1 2067
1 2068
1 2069
1 2070
1 2071
1 2072
1 2073
1 2074
1 2075
1 2076
1 2077
1 2078
1 2079
1 2080
1 2081
1 2082
1 2083
1 2084
1 2085
1 2086
1 2087
1 2088
1 2089
1 2090
1 2091
1 2092
1 2093
1 2094
1 2095
1 2096
1 2097
1 2098
1 2099
1 2100
1 2101
1 2102
1 2103
1 2104
1 2105
1 2106
1 2107
1 2108
1 2109
1 2110
1 2111
1 2112
1 2113
1 2114
1 2115
1 2116
1 2117
1 2118
1 2119
1 2120
1 2121
1 2122
1 2123
1 2124
1 2125
1 2126
1 2127
1 2128
1 2129
1 2130
1 2131
1 2132
1 2133
1 2134
1 2135
1 2136
1 2137
1 2138
1 2139
1 2140
1 2141
1 2142
1 2143
1 2144
1 2145
1 2146
1 2147
1 2148
1 2149
1 2150
1 2151
1 2152
1 2153
1 2154
1 2155
1 2156
1 2157
1 2158
1 2159
1 2160
1 2161
1 2162
1 2163
1 2164
1 2165
1 2166
1 2167
1 2168
1 2169
1 2170
1 2171
1 2172
1 2173
1 2174
1 2175
1 2176
1 2177
1 2178
1 2179
1 2180
1 2181
1 2182
1 2183
1 2184
1 2185
1 2186
1 2187
1 2188
1 2189
1 2190
1 2191
1 2192
1 2193
1 2194
1 2195
1 2196
1 2197
1 2198
1 2199
1 2200
1 2201
1 2202
1 2203
1 2204
1 2205
1 2206
1 2207
1 2208
1 2209
1 2210
1 2211
1 2212
1 2213
1 2214
1 2215
1 2216
1 2217
1 2218
1 2219
1 2220
1 2221
1 2222
1 2223
1 2224
1 2225
1 2226
1 2227
1 2228
1 2229
1 2230
1 2231
1 2232
1 2233
1 2234
1 2235
1 2236
1 2237
1 2238
1 2239
1 2240
1 2241
1 2242
1 2243
1 2244
1 2245
1 2246
1 2247
1 2248
1 2249
1 2250
1 2251
1 2252
1 2253
1 2254
1 2255
1 2256
1 2257
1 2258
1 2259
1 2260
1 2261
1 2262
1 2263
1 2264
1 2265
1 2266
1 2267
1 2268
1 2269
1 2270
1 2271
1 2272
1 2273
1 2274
1 2275
1 2276
1 2277
1 2278
1 2279
1 2280
1 2281
1 2282
1 2283
1 2284
1 2285
1 2286
1 2287
1 2288
1 2289
1 2290
1 2291
1 2292
1 2293
1 2294
1 2295
1 2296
1 2297
1 2298
1 2299
1 2300
1 2301
1 2302
1 2303
1 2304
1 2305
1 2306
1 2307
1 2308
1 2309
1 2310
1 2311
1 2312
1 2313
1 2314
1 2315
1 2316
1 2317
1 2318
1 2319
1 2320
1 2321
1 2322
1 2323
1 2324
1 2325
1 2326
1 2327
1 2328
1 2329
1 2330
1 2331
1 2332
1 2333
1 2334
1 2335
1 2336
1 2337
1 2338
1 2339
1 2340
1 2341
1 2342
1 2343
1 2344
1 2345
1 2346
1 2347
1 2348
1 2349
1 2350
1 2351
1 2352
1 2353
1 2354
1 2355
1 2356
1 2357
1 2358
1 2359
1 2360
1 2361
1 2362
1 2363
1 2364
1 2365
1 2366
1 2367
1 2368
1 2369
1 2370
1 2371
1 2372
1 2373
1 2374
1 2375
1 2376
1 2377
1 2378
1 2379
1 2380
1 2381
1 2382
1 2383
1 2384
1 2385
1 2386
1 2387
1 2388
1 2389
1 2390
1 2391
1 2392
1 2393
1 2394
1 2395
1 2396
1 2397
1 2398
1 2399
1 2400
1 2401
1 2402
1 2403
1 2404
1 2405
1 2406
1 2407
1 2408
1 2409
1 2410
1 2411
1 2412
1 2413
1 2414
1 2415
1 2416
1 2417
1 2418
1 2419
1 2420
1 2421
1 2422
1 2423
1 2424
1 2425
1 2426
1 2427
1 2428
1 2429
1 2430
1 2431
1 2432
1 2433
1 2434
1 2435
1 2436
1 2437
1 2438
1 2439
1 2440
1 2441
1 2442
1 2443
1 2444
1 2445
1 2446
1 2447
1 2448
1 2449
1 2450
1 2451
1 2452
1 2453
1 2454
1 2455
1 2456
1 2457
1 2458
1 2459
1 2460
1 2461
1 2462
1 2463
1 2464
1 2465
1 2466
1 2467
1 2468
1 2469
1 2470
1 2471
1 2472
1 2473
1 2474
1 2475
1 2476
1 2477
1 2478
1 2479
1 2480
1 2481
1 2482
1 2483
1 2484
1 2485
1 2486
1 2487
1 2488
1 2489
1 2490
1 2491
1 2492
1 2493
1 2494
1 2495
1 2496
1 2497
1 2498
1 2499
1 2500
1 2501
1 2502
1 2503
1 2504
1 2505
1 2506
1 2507
1 2508
1 2509
1 2510
1 2511
1 2512
1 2513
1 2514
1 2515
1 2516
1 2517
1 2518
1 2519
1 2520
1 2521
1 2522
1 2523
1 2524
1 2525
1 2526
1 2527
1 2528
1 2529
1 2530
1 2531
1 2532
1 2533
1 2534
1 2535
1 2536
1 2537
1 2538
1 2539
1 2540
1 2541
1 2542
1 2543
1 2544
1 2545
1 2546
1 2547
1 2548
1 2549
1 2550
1 2551
1 2552
1 2553
1 2554
1 2555
1 2556
1 2557
1 2558
1 2559
1 2560
1 2561
1 2562
1 2563
1 2564
1 2565
1 2566
1 2567
1 2568
1 2569
1 2570
1 2571
1 2572
1 2573
1 2574
1 2575
1 2576
1 2577
1 2578
1 2579
1 2580
1 2581
1 2582
1 2583
1 2584
1 2585
1 2586
1 2587
1 2588
1 2589
1 2590
1 2591
1 2592
1 2593
1 2594
1 2595
1 2596
1 2597
1 2598
1 2599
1 2600
1 2601
1 2602
1 2603
1 2604
1 2605
1 2606
1 2607
1 2608
1 2609
1 2610
1 2611
1 2612
1 2613
1 2614
1 2615
1 2616
1 2617
1 2618
1 2619
1 2620
1 2621
1 2622
1 2623
1 2624
1 2625
1 2626
1 2627
1 2628
1 2629
1 2630
1 2631
1 2632
1 2633
1 2634
1 2635
1 2636
1 2637
1 2638
1 2639
1 2640
1 2641
1 2642
1 2643
1 2644
1 2645
1 2646
1 2647
1 2648
1 2649
1 2650
1 2651
1 2652
1 2653
1 2654
1 2655
1 2656
1 2657
1 2658
1 2659
1 2660
1 2661
1 2662
1 2663
1 2664
1 2665
1 2666
1 2667
1 2668
1 2669
1 2670
1 2671
1 2672
1 2673
1 2674
1 2675
1 2676
1 2677
1 2678
1 2679
1 2680
1 2681
1 2682
1 2683
1 2684
1 2685
1 2686
1 2687
1 2688
1 2689
1 2690
1 2691
1 2692
1 2693
1 2694
1 2695
1 2696
1 2697
1 2698
1 2699
1 2700
1 2701
1 2702
1 2703
1 2704
1 2705
1 2706
1 2707
1 2708
1 2709
1 2710
1 2711
1 2712
1 2713
1 2714
1 2715
1 2716
1 2717
1 2718
1 2719
1 2720
1 2721
1 2722
1 2723
1 2724
1 2725
1 2726
1 2727
1 2728
1 2729
1 2730
1 2731
1 2732
1 2733
1 2734
1 2735
1 2736
1 2737
1 2738
1 2739
1 2740
1 2741
1 2742
1 2743
1 2744
1 2745
1 2746
1 2747
1 2748
1 2749
1 2750
1 2751
1 2752
1 2753
1 2754
1 2755
1 2756
1 2757
1 2758
1 2759
1 2760
1 2761
1 2762
1 2763
1 2764
1 2765
1 2766
1 2767
1 2768
1 2769
1 2770
1 2771
1 2772
1 2773
1 2774
1 2775
1 2776
1 2777
1 2778
1 2779
1 2780
1 2781
1 2782
1 2783
1 2784
1 2785
1 2786
1 2787
1 2788
1 2789
1 2790
1 2791
1 2792
1 2793
1 2794
1 2795
1 2796
1 2797
1 2798
1 2799
1 2800
1 2801
1 2802
1 2803
1 2804
1 2805
1 2806
1 2807
1 2808
1 2809
1 2810
1 2811
1 2812
1 2813
1 2814
1 2815
1 2816
1 2817
1 2818
1 2819
1 2820
1 2821
1 2822
1 2823
1 2824
1 2825
1 2826
1 2827
1 2828
1 2829
1 2830
1 2831
1 2832
1 2833
1 2834
1 2835
1 2836
1 2837
1 2838
1 2839
1 2840
1 2841
1 2842
1 2843
1 2844
1 2845
1 2846
1 2847
1 2848
1 2849
1 2850
1 2851
1 2852
1 2853
1 2854
1 2855
1 2856
1 2857
1 2858
1 2859
1 2860
1 2861
1 2862
1 2863
1 2864
1 2865
1 2866
1 2867
1 2868
1 2869
1 2870
1 2871
1 2872
1 2873
1 2874
1 2875
1 2876
1 2877
1 2878
1 2879
1 2880
1 2881
1 2882
1 2883
1 2884
1 2885
1 2886
1 2887
1 2888
1 2889
1 2890
1 2891
1 2892
1 2893
1 2894
1 2895
1 2896
1 2897
1 2898
1 2899
1 2900
1 2901
1 2902
1 2903
1 2904
1 2905
1 2906
1 2907
1 2908
1 2909
1 2910
1 2911
1 2912
1 2913
1 2914
1 2915
1 2916
1 2917
1 2918
1 2919
1 2920
1 2921
1 2922
1 2923
1 2924
1 2925
1 2926
1 2927
1 2928
1 2929
1 2930
1 2931
1 2932
1 2933
1 2934
1 2935
1 2936
1 2937
1 2938
1 2939
1 2940
1 2941
1 2942
1 2943
1 2944
1 2945
1 2946
1 2947
1 2948
1 2949
1 2950
1 2951
1 2952
1 2953
1 2954
1 2955
1 2956
1 2957
1 2958
1 2959
1 2960
1 2961
1 2962
1 2963
1 2964
1 2965
1 2966
1 2967
1 2968
1 2969
1 2970
1 2971
1 2972
1 2973
1 2974
1 2975
1 2976
1 2977
1 2978
1 2979
1 2980
1 2981
1 2982
1 2983
1 2984
1 2985
1 2986
1 2987
1 2988
1 2989
1 2990
1 2991
1 2992
1 2993
1 2994
1 2995
1 2996
1 2997
1 2998
1 2999
1 3000
1 3001
1 3002
1 3003
1 3004
1 3005
1 3006
1 3007
1 3008
1 3009
1 3010
1 3011
1 3012
1 3013
1 3014
1 3015
1 3016
1 3017
1 3018
1 3019
1 3020
1 3021
1 3022
1 3023
1 3024
1 3025
1 3026
1 3027
1 3028
1 3029
1 3030
1 3031
1 3032
1 3033
1 3034
1 3035
1 3036
1 3037
1 3038
1 3039
1 3040
1 3041
1 3042
1 3043
1 3044
1 3045
1 3046
1 3047
1 3048
1 3049
1 3050
1 3051
1 3052
1 3053
1 3054
1 3055
1 3056
1 3057
1 3058
1 3059
1 3060
1 3061
1 3062
1 3063
1 3064
1 3065
1 3066
1 3067
1 3068
1 3069
1 3070
1 3071
1 3072
1 3073
1 3074
1 3075
1 3076
1 3077
1 3078
1 3079
1 3080
1 3081
1 3082
1 3083
1 3084
1 3085
1 3086
1 3087
1 3088
1 3089
1 3090
1 3091
1 3092
1 3093
1 3094
1 3095
1 3096
1 3097
1 3098
1 3099
1 3100
1 3101
1 3102
1 3103
1 3104
1 3105
1 3106
1 3107
1 3108
1 3109
1 3110
1 3111
1 3112
1 3113
1 3114
1 3115
1 3116
1 3117
1 3118
1 3119
1 3120
1 3121
1 3122
1 3123
1 3124
1 3125
1 3126
1 3127
1 3128
1 3129
1 3130
1 3131
1 3132
1 3133
1 3134
1 3135
1 3136
1 3137
1 3138
1 3139
1 3140
1 3141
1 3142
1 3143
1 3144
1 3145
1 3146
1 3147
1 3148
1 3149
1 3150
1 3151
1 3152
1 3153
1 3154
1 3155
1 3156
1 3157
1 3158
1 3159
1 3160
1 3161
1 3162
1 3163
1 3164
1 3165
1 3166
1 3167
1 3168
1 3169
1 3170
1 3171
1 3172
1 3173
1 3174
1 3175
1 3176
1 3177
1 3178
1 3179
1 3180
1 3181
1 3182
1 3183
1 3184
1 3185
1 3186
1 3187
1 3188
1 3189
1 3190
1 3191
1 3192
1 3193
1 3194
1 3195
1 3196
1 3197
1 3198
1 3199
1 3200
1 3201
1 3202
1 3203
1 3204
1 3205
1 3206
1 3207
1 3208
1 3209
1 3210
1 3211
1 3212
1 3213
1 3214
1 3215
1 3216
1 3217
1 3218
1 3219
1 3220
1 3221
1 3222
1 3223
1 3224
1 3225
1 3226
1 3227
1 3228
1 3229
1 3230
1 3231
1 3232
1 3233
1 3234
1 3235
1 3236
1 3237
1 3238
1 3239
1 3240
1 3241
1 3242
1 3243
1 3244
1 3245
1 3246
1 3247
1 3248
1 3249
1 3250
1 3251
1 3252
1 3253
1 3254
1 3255
1 3256
1 3257
1 3258
1 3259
1 3260
1 3261
1 3262
1 3263
1 3264
1 3265
1 3266
1 3267
1 3268
1 3269
1 3270
1 3271
1 3272
1 3273
1 3274
1 3275
1 3276
1 3277
1 3278
1 3279
1 3280
1 3281
1 3282
1 3283
1 3284
1 3285
1 3286
1 3287
1 3288
1 3289
1 3290
1 3291
1 3292
1 3293
1 3294
1 3295
1 3296
1 3297
1 3298
1 3299
1 3300
1 3301
1 3302
1 3303
1 3304
1 3305
1 3306
1 3307
1 3308
1 3309
1 3310
1 3311
1 3312
1 3313
1 3314
1 3315
1 3316
1 3317
1 3318
1 3319
1 3320
1 3321
1 3322
1 3323
1 3324
1 3325
1 3326
1 3327
1 3328
1 3329
1 3330
1 3331
1 3332
1 3333
1 3334
1 3335
1 3336
1 3337
1 3338
1 3339
1 3340
1 3341
1 3342
1 3343
1 3344
1 3345
1 3346
1 3347
1 3348
1 3349
1 3350
1 3351
1 3352
1 3353
1 3354
1 3355
1 3356
1 3357
1 3358
1 3359
1 3360
1 3361
1 3362
1 3363
1 3364
1 3365
1 3366
1 3367
1 3368
1 3369
1 3370
1 3371
1 3372
1 3373
1 3374
1 3375
1 3376
1 3377
1 3378
1 3379
1 3380
1 3381
1 3382
1 3383
1 3384
1 3385
1 3386
1 3387
1 3388
1 3389
1 3390
1 3391
1 3392
1 3393
1 3394
1 3395
1 3396
1 3397
1 3398
1 3399
1 3400
1 3401
1 3402
1 3403
1 3404
1 3405
1 3406
1 3407
1 3408
1 3409
1 3410
1 3411
1 3412
1 3413
1 3414
1 3415
1 3416
1 3417
1 3418
1 3419
1 3420
1 3421
1 3422
1 3423
1 3424
1 3425
1 3426
1 3427
1 3428
1 3429
1 3430
1 3431
1 3432
1 3433
1 3434
1 3435
1 3436
1 3437
1 3438
1 3439
1 3440
1 3441
1 3442
1 3443
1 3444
1 3445
1 3446
1 3447
1 3448
1 3449
1 3450
1 3451
1 3452
1 3453
1 3454
1 3455
1 3456
1 3457
1 3458
1 3459
1 3460
1 3461
1 3462
1 3463
1 3464
1 3465
1 3466
1 3467
1 3468
1 3469
1 3470
1 3471
1 3472
1 3473
1 3474
1 3475
1 3476
1 3477
1 3478
1 3479
1 3480
1 3481
1 3482
1 3483
1 3484
1 3485
1 3486
1 3487
1 3488
1 3489
1 3490
1 3491
1 3492
1 3493
1 3494
1 3495
1 3496
1 3497
1 3498
1 3499
1 3500
1 3501
1 3502
1 3503
1 3504
1 3505
1 3506
1 3507
1 3508
1 3509
1 3510
1 3511
1 3512
1 3513
1 3514
1 3515
1 3516
1 3517
1 3518
1 3519
1 3520
1 3521
1 3522
1 3523
1 3524
1 3525
1 3526
1 3527
1 3528
1 3529
1 3530
1 3531
1 3532
1 3533
1 3534
1 3535
1 3536
1 3537
1 3538
1 3539
1 3540
1 3541
1 3542
1 3543
1 3544
1 3545
1 3546
1 3547
1 3548
1 3549
1 3550
1 3551
1 3552
1 3553
1 3554
1 3555
1 3556
1 3557
1 3558
1 3559
1 3560
1 3561
1 3562
1 3563
1 3564
1 3565
1 3566
1 3567
1 3568
1 3569
1 3570
1 3571
1 3572
1 3573
1 3574
1 3575
1 3576
1 3577
1 3578
1 3579
1 3580
1 3581
1 3582
1 3583
1 3584
1 3585
1 3586
1 3587
1 3588
1 3589
1 3590
1 3591
1 3592
1 3593
1 3594
1 3595
1 3596
1 3597
1 3598
1 3599
1 3600
1 3601
1 3602
1 3603
1 3604
1 3605
1 3606
1 3607
1 3608
1 3609
1 3610
1 3611
1 3612
1 3613
1 3614
1 3615
1 3616
1 3617
1 3618
1 3619
1 3620
1 3621
1 3622
1 3623
1 3624
1 3625
1 3626
1 3627
1 3628
1 3629
1 3630
1 3631
1 3632
1 3633
1 3634
1 3635
1 3636
1 3637
1 3638
1 3639
1 3640
1 3641
1 3642
1 3643
1 3644
1 3645
1 3646
1 3647
1 3648
1 3649
1 3650
1 3651
1 3652
1 3653
1 3654
1 3655
1 3656
1 3657
1 3658
1 3659
1 3660
1 3661
1 3662
1 3663
1 3664
1 3665
1 3666
1 3667
1 3668
1 3669
1 3670
1 3671
1 3672
1 3673
1 3674
1 3675
1 3676
1 3677
1 3678
1 3679
1 3680
1 3681
1 3682
1 3683
1 3684
1 3685
1 3686
1 3687
1 3688
1 3689
1 3690
1 3691
1 3692
1 3693
1 3694
1 3695
1 3696
1 3697
1 3698
1 3699
1 3700
1 3701
1 3702
1 3703
1 3704
1 3705
1 3706
1 3707
1 3708
1 3709
1 3710
1 3711
1 3712
1 3713
1 3714
1 3715
1 3716
1 3717
1 3718
1 3719
1 3720
1 3721
1 3722
1 3723
1 3724
1 3725
1 3726
1 3727
1 3728
1 3729
1 3730
1 3731
1 3732
1 3733
1 3734
1 3735
1 3736
1 3737
1 3738
1 3739
1 3740
1 3741
1 3742
1 3743
1 3744
1 3745
1 3746
1 3747
1 3748
1 3749
1 3750
1 3751
1 3752
1 3753
1 3754
1 3755
1 3756
1 3757
1 3758
1 3759
1 3760
1 3761
1 3762
1 3763
1 3764
1 3765
1 3766
1 3767
1 3768
1 3769
1 3770
1 3771
1 3772
1 3773
1 3774
1 3775
1 3776
1 3777
1 3778
1 3779
1 3780
1 3781
1 3782
1 3783
1 3784
1 3785
1 3786
1 3787
1 3788
1 3789
1 3790
1 3791
1 3792
1 3793
1 3794
1 3795
1 3796
1 3797
1 3798
1 3799
1 3800
1 3801
1 3802
1 3803
1 3804
1 3805
1 3806
1 3807
1 3808
1 3809
1 3810
1 3811
1 3812
1 3813
1 3814
1 3815
1 3816
1 3817
1 3818
1 3819
1 3820
1 3821
1 3822
1 3823
1 3824
1 3825
1 3826
1 3827
1 3828
1 3829
1 3830
1 3831
1 3832
1 3833
1 3834
1 3835
1 3836
1 3837
1 3838
1 3839
1 3840
1 3841
1 3842
1 3843
1 3844
1 3845
1 3846
1 3847
1 3848
1 3849
1 3850
1 3851
1 3852
1 3853
1 3854
1 3855
1 3856
1 3857
1 3858
1 3859
1 3860
1 3861
1 3862
1 3863
1 3864
1 3865
1 3866
1 3867
1 3868
1 3869
1 3870
1 3871
1 3872
1 3873
1 3874
1 3875
1 3876
1 3877
1 3878
1 3879
1 3880
1 3881
1 3882
1 3883
1 3884
1 3885
1 3886
1 3887
1 3888
1 3889
1 3890
1 3891
1 3892
1 3893
1 3894
1 3895
1 3896
1 3897
1 3898
1 3899
1 3900
1 3901
1 3902
1 3903
1 3904
1 3905
1 3906
1 3907
1 3908
1 3909
1 3910
1 3911
1 3912
1 3913
1 3914
1 3915
1 3916
1 3917
1 3918
1 3919
1 3920
1 3921
1 3922
1 3923
1 3924
1 3925
1 3926
1 3927
1 3928
1 3929
1 3930
1 3931
1 3932
1 3933
1 3934
1 3935
1 3936
1 3937
1 3938
1 3939
1 3940
1 3941
1 3942
1 3943
1 3944
1 3945
1 3946
1 3947
1 3948
1 3949
1 3950
1 3951
1 3952
1 3953
1 3954
1 3955
1 3956
1 3957
1 3958
1 3959
1 3960
1 3961
1 3962
1 3963
1 3964
1 3965
1 3966
1 3967
1 3968
1 3969
1 3970
1 3971
1 3972
1 3973
1 3974
1 3975
1 3976
1 3977
1 3978
1 3979
1 3980
1 3981
1 3982
1 3983
1 3984
1 3985
1 3986
1 3987
1 3988
1 3989
1 3990
1 3991
1 3992
1 3993
1 3994
1 3995
1 3996
1 3997
1 3998
1 3999
1 4000
1 4001
1 4002
1 4003
1 4004
1 4005
1 4006
1 4007
1 4008
1 4009
1 4010
1 4011
1 4012
1 4013
1 4014
1 4015
1 4016
1 4017
1 4018
1 4019
1 4020
1 4021
1 4022
1 4023
1 4024
1 4025
1 4026
1 4027
1 4028
1 4029
1 4030
1 4031
1 4032
1 4033
1 4034
1 4035
1 4036
1 4037
1 4038
1 4039
1 4040
1 4041
1 4042
1 4043
1 4044
1 4045
1 4046
1 4047
1 4048
1 4049
1 4050
1 4051
1 4052
1 4053
1 4054
1 4055
1 4056
1 4057
1 4058
1 4059
1 4060
1 4061
1 4062
1 4063
1 4064
1 4065
1 4066
1 4067
1 4068
1 4069
1 4070
1 4071
1 4072
1 4073
1 4074
1 4075
1 4076
1 4077
1 4078
1 4079
1 4080
1 4081
1 4082
1 4083
1 4084
1 4085
1 4086
1 4087
1 4088
1 4089
1 4090
1 4091
1 4092
1 4093
1 4094
1 4095
1 4096
1 4097
1 4098
1 4099
1 4100
1 4101
1 4102
1 4103
1 4104
1 4105
1 4106
1 4107
1 4108
1 4109
1 4110
1 4111
1 4112
1 4113
1 4114
1 4115
1 4116
1 4117
1 4118
1 4119
1 4120
1 4121
1 4122
1 4123
1 4124
1 4125
1 4126
1 4127
1 4128
1 4129
1 4130
1 4131
1 4132
1 4133
1 4134
1 4135
1 4136
1 4137
1 4138
1 4139
1 4140
1 4141
1 4142
1 4143
1 4144
1 4145
1 4146
1 4147
1 4148
1 4149
1 4150
1 4151
1 4152
1 4153
1 4154
1 4155
1 4156
1 4157
1 4158
1 4159
1 4160
1 4161
1 4162
1 4163
1 4164
1 4165
1 4166
1 4167
1 4168
1 4169
1 4170
1 4171
1 4172
1 4173
1 4174
1 4175
1 4176
1 4177
1 4178
1 4179
1 4180
1 4181
1 4182
1 4183
1 4184
1 4185
1 4186
1 4187
1 4188
1 4189
1 4190
1 4191
1 4192
1 4193
1 4194
1 4195
1 4196
1 4197
1 4198
1 4199
1 4200
1 4201
1 4202
1 4203
1 4204
1 4205
1 4206
1 4207
1 4208
1 4209
1 4210
1 4211
1 4212
1 4213
1 4214
1 4215
1 4216
1 4217
1 4218
1 4219
1 4220
1 4221
1 4222
1 4223
1 4224
1 4225
1 4226
1 4227
1 4228
1 4229
1 4230
1 4231
1 4232
1 4233
1 4234
1 4235
1 4236
1 4237
1 4238
1 4239
1 4240
1 4241
1 4242
1 4243
1 4244
1 4245
1 4246
1 4247
1 4248
1 4249
1 4250
1 4251
1 4252
1 4253
1 4254
1 4255
1 4256
1 4257
1 4258
1 4259
1 4260
1 4261
1 4262
1 4263
1 4264
1 4265
1 4266
1 4267
1 4268
1 4269
1 4270
1 4271
1 4272
1 4273
1 4274
1 4275
1 4276
1 4277
1 4278
1 4279
1 4280
1 4281
1 4282
1 4283
1 4284
1 4285
1 4286
1 4287
1 4288
1 4289
1 4290
1 4291
1 4292
1 4293
1 4294
1 4295
1 4296
1 4297
1 4298
1 4299
1 4300
1 4301
1 4302
1 4303
1 4304
1 4305
1 4306
1 4307
1 4308
1 4309
1 4310
1 4311
1 4312
1 4313
1 4314
1 4315
1 4316
1 4317
1 4318
1 4319
1 4320
1 4321
1 4322
1 4323
1 4324
1 4325
1 4326
1 4327
1 4328
1 4329
1 4330
1 4331
1 4332
1 4333
1 4334
1 4335
1 4336
1 4337
1 4338
1 4339
1 4340
1 4341
1 4342
1 4343
1 4344
1 4345
1 4346
1 4347
1 4348
1 4349
1 4350
1 4351
1 4352
1 4353
1 4354
1 4355
1 4356
1 4357
1 4358
1 4359
1 4360
1 4361
1 4362
1 4363
1 4364
1 4365
1 4366
1 4367
1 4368
1 4369
1 4370
1 4371
1 4372
1 4373
1 4374
1 4375
1 4376
1 4377
1 4378
1 4379
1 4380
1 4381
1 4382
1 4383
1 4384
1 4385
1 4386
1 4387
1 4388
1 4389
1 4390
1 4391
1 4392
1 4393
1 4394
1 4395
1 4396
1 4397
1 4398
1 4399
1 4400
1 4401
1 4402
1 4403
1 4404
1 4405
1 4406
1 4407
1 4408
1 4409
1 4410
1 4411
1 4412
1 4413
1 4414
1 4415
1 4416
1 4417
1 4418
1 4419
1 4420
1 4421
1 4422
1 4423
1 4424
1 4425
1 4426
1 4427
1 4428
1 4429
1 4430
1 4431
1 4432
1 4433
1 4434
1 4435
1 4436
1 4437
1 4438
1 4439
1 4440
1 4441
1 4442
1 4443
1 4444
1 4445
1 4446
1 4447
1 4448
1 4449
1 4450
1 4451
1 4452
1 4453
1 4454
1 4455
1 4456
1 4457
1 4458
1 4459
1 4460
1 4461
1 4462
1 4463
1 4464
1 4465
1 4466
1 4467
1 4468
1 4469
1 4470
1 4471
1 4472
1 4473
1 4474
1 4475
1 4476
1 4477
1 4478
1 4479
1 4480
1 4481
1 4482
1 4483
1 4484
1 4485
1 4486
1 4487
1 4488
1 4489
1 4490
1 4491
1 4492
1 4493
1 4494
1 4495
1 4496
1 4497
1 4498
1 4499
1 4500
1 4501
1 4502
1 4503
1 4504
1 4505
1 4506
1 4507
1 4508
1 4509
1 4510
1 4511
1 4512
1 4513
1 4514
1 4515
1 4516
1 4517
1 4518
1 4519
1 4520
1 4521
1 4522
1 4523
1 4524
1 4525
1 4526
1 4527
1 4528
1 4529
1 4530
1 4531
1 4532
1 4533
1 4534
1 4535
1 4536
1 4537
1 4538
1 4539
1 4540
1 4541
1 4542
1 4543
1 4544
1 4545
1 4546
1 4547
1 4548
1 4549
1 4550
1 4551
1 4552
1 4553
1 4554
1 4555
1 4556
1 4557
1 4558
1 4559
1 4560
1 4561
1 4562
1 4563
1 4564
1 4565
1 4566
1 4567
1 4568
1 4569
1 4570
1 4571
1 4572
1 4573
1 4574
1 4575
1 4576
1 4577
1 4578
1 4579
1 4580
1 4581
1 4582
1 4583
1 4584
1 4585
1 4586
1 4587
1 4588
1 4589
1 4590
1 4591
1 4592
1 4593
1 4594
1 4595
1 4596
1 4597
1 4598
1 4599
1 4600
1 4601
1 4602
1 4603
1 4604
1 4605
1 4606
1 4607
1 4608
1 4609
1 4610
1 4611
1 4612
1 4613
1 4614
1 4615
1 4616
1 4617
1 4618
1 4619
1 4620
1 4621
1 4622
1 4623
1 4624
1 4625
1 4626
1 4627
1 4628
1 4629
1 4630
1 4631
1 4632
1 4633
1 4634
1 4635
1 4636
1 4637
1 4638
1 4639
1 4640
1 4641
1 4642
1 4643
1 4644
1 4645
1 4646
1 4647
1 4648
1 4649
1 4650
1 4651
1 4652
1 4653
1 4654
1 4655
1 4656
1 4657
1 4658
1 4659
1 4660
1 4661
1 4662
1 4663
1 4664
1 4665
1 4666
1 4667
1 4668
1 4669
1 4670
1 4671
1 4672
1 4673
1 4674
1 4675
1 4676
1 4677
1 4678
1 4679
1 4680
1 4681
1 4682
1 4683
1 4684
1 4685
1 4686
1 4687
1 4688
1 4689
1 4690
1 4691
1 4692
1 4693
1 4694
1 4695
1 4696
1 4697
1 4698
1 4699
1 4700
1 4701
1 4702
1 4703
1 4704
1 4705
1 4706
1 4707
1 4708
1 4709
1 4710
1 4711
1 4712
1 4713
1 4714
1 4715
1 4716
1 4717
1 4718
1 4719
1 4720
1 4721
1 4722
1 4723
1 4724
1 4725
1 4726
1 4727
1 4728
1 4729
1 4730
1 4731
1 4732
1 4733
1 4734
1 4735
1 4736
1 4737
1 4738
1 4739
1 4740
1 4741
1 4742
1 4743
1 4744
1 4745
1 4746
1 4747
1 4748
1 4749
1 4750
1 4751
1 4752
1 4753
1 4754
1 4755
1 4756
1 4757
1 4758
1 4759
1 4760
1 4761
1 4762
1 4763
1 4764
1 4765
1 4766
1 4767
1 4768
1 4769
1 4770
1 4771
1 4772
1 4773
1 4774
1 4775
1 4776
1 4777
1 4778
1 4779
1 4780
1 4781
1 4782
1 4783
1 4784
1 4785
1 4786
1 4787
1 4788
1 4789
1 4790
1 4791
1 4792
1 4793
1 4794
1 4795
1 4796
1 4797
1 4798
1 4799
1 4800
1 4801
1 4802
1 4803
1 4804
1 4805
1 4806
1 4807
1 4808
1 4809
1 4810
1 4811
1 4812
1 4813
1 4814
1 4815
1 4816
1 4817
1 4818
1 4819
1 4820
1 4821
1 4822
1 4823
1 4824
1 4825
1 4826
1 4827
1 4828
1 4829
1 4830
1 4831
1 4832
1 4833
1 4834
1 4835
1 4836
1 4837
1 4838
1 4839
1 4840
1 4841
1 4842
1 4843
1 4844
1 4845
1 4846
1 4847
1 4848
1 4849
1 4850
1 4851
1 4852
1 4853
1 4854
1 4855
1 4856
1 4857
1 4858
1 4859
1 4860
1 4861
1 4862
1 4863
1 4864
1 4865
1 4866
1 4867
1 4868
1 4869
1 4870
1 4871
1 4872
1 4873
1 4874
1 4875
1 4876
1 4877
1 4878
1 4879
1 4880
1 4881
1 4882
1 4883
1 4884
1 4885
1 4886
1 4887
1 4888
1 4889
1 4890
1 4891
1 4892
1 4893
1 4894
1 4895
1 4896
1 4897
1 4898
1 4899
1 4900
1 4901
1 4902
1 4903
1 4904
1 4905
1 4906
1 4907
1 4908
1 4909
1 4910
1 4911
1 4912
1 4913
1 4914
1 4915
1 4916
1 4917
1 4918
1 4919
1 4920
1 4921
1 4922
1 4923
1 4924
1 4925
1 4926
1 4927
1 4928
1 4929
1 4930
1 4931
1 4932
1 4933
1 4934
1 4935
1 4936
1 4937
1 4938
1 4939
1 4940
1 4941
1 4942
1 4943
1 4944
1 4945
1 4946
1 4947
1 4948
1 4949
1 4950
1 4951
1 4952
1 4953
1 4954
1 4955
1 4956
1 4957
1 4958
1 4959
1 4960
1 4961
1 4962
1 4963
1 4964
1 4965
1 4966
1 4967
1 4968
1 4969
1 4970
1 4971
1 4972
1 4973
1 4974
1 4975
1 4976
1 4977
1 4978
1 4979
1 4980
1 4981
1 4982
1 4983
1 4984
1 4985
1 4986
1 4987
1 4988
1 4989
1 4990
1 4991
1 4992
1 4993
1 4994
1 4995
1 4996
1 4997
1 4998
1 4999
CELL_TYPES 5000
1 
1 
1 
1 
1 
1 
1 
1 
1 
1 
1 
1 
1 
1 
1 
1 
1 
1 
1 
1 
1 
1 
1 
1 
1 
1 
1 
1 
1 
1 
1 
1 
1 
1 
1 
1 
1 
1 
1 
1 
1 
1 
1 
1 
1 
1 
1 
1 
1 
1 
1 
1 
1 
1 
1 
1 
1 
1 
1 
1 
1 
1 
1 
1 
1 
1 
1 
1 
1 
1 
1 
1 
1 
1 
1 
1 
1 
1 
1 
1 
1 
1 
1 
1 
1 
1 
1 
1 
1 
1 
1 
1 
1 
1 
1 
1 
1 
1 
1 
1 
1 
1 
1 
1 
1 
1 
1 
1 
1 
1 
1 
1 
1 
1 
1 
1 
1 
1 
1 
1 
1 
1 
1 
1 
1 
1 
1 
1 
1 
1 
1 
1 
1 
1 
1 
1 
1 
1 
1 
1 
1 
1 
1 
1 
1 
1 
1 
1 
1 
1 
1 
1 
1 
1 
1 
1 
1 
1 
1 
1 
1 
1 
1 
1 
1 
1 
1 
1 
1 
1 
1 
1 
1 
1 
1 
1 
1 
1 
1 
1 
1 
1 
1 
1 
1 
1 
1 
1 
1 
1 
1 
1 
1 
1 
1 
1 
1 
1 
1 
1 
1 
1 
1 
1 
1 
1 
1 
1 
1 
1 
1 
1 
1 
1 
1 
1 
1 
1 
1 
1 
1 
1 
1 
1 
1 
1 
1 
1 
1 
1 
1 
1 
1 
1 
1 
1 
1 
1 
1 
1 
1 
1 
1 
1 
1 
1 
1 
1 
1 
1 
1 
1 
1 
1 
1 
1 
1 
1 
1 
1 
1 
1 
1 
1 
1 
1 
1 
1 
1 
1 
1 
1 
1 
1 
1 
1 
1 
1 
1 
1 
1 
1 
1 
1 
1 
1 
1 
1 
1 
1 
1 
1 
1 
1 
1 
1 
1 
1 
1 
1 
1 
1 
1 
1 
1 
1 
1 
1 
1 
1 
1 
1 
1 
1 
1 
1 
1 
1 
1 
1 
1 
1 
1 
1 
1 
1 
1 
1 
1 
1 
1 
1 
1 
1 
1 
1 
1 
1 
1 
1 
1 
1 
1 
1 
1 
1 
1 
1 
1 
1 
1 
1 
1 
1 
1 
1 
1 
1 
1 
1 
1 
1 
1 
1 
1 
1 
1 
1 
1 
1 
1 
1 
1 
1 
1 
1 
1 
1 
1 
1 
1 
1 
1 
1 
1 
1 
1 
1 
1 
1 
1 
1 
1 
1 
1 
1 
1 
1 
1 
1 
1 
1 
1 
1 
1 
1 
1 
1 
1 
1 
1 
1 
1 
1 
1 
1 
1 
1 
1 
1 
1 
1 
1 
1 
1 
1 
1 
1 
1 
1 
1 
1 
1 
1 
1 
1 
1 
1 
1 
1 
1 
1 
1 
1 
1 
1 
1 
1 
1 
1 
1 
1 
1 
1 
1 
1 
1 
1 
1 
1 
1 
1 
1 
1 
1 
1 
1 
1 
1 
1 
1 
1 
1 
1 
1 
1 
1 
1 
1 
1 
1 
1 
1 
1 
1 
1 
1 
1 
1 
1 
1 
1 
1 
1 
1 
1 
1 
1 
1 
1 
1 
1 
1 
1 
1 
1 
1 
1 
1 
1 
1 
1 
1 
1 
1 
1 
1 
1 
1 
1 
1 
1 
1 
1 
1 
1 
1 
1 
1 
1 
1 
1 
1 
1 
1 
1 
1 
1 
1 
1 
1 
1 
1 
1 
1 
1 
1 
1 
1 
1 
1 
1 
1 
1 
1 
1 
1 
1 
1 
1 
1 
1 
1 
1 
1 
1 
1 
1 
1 
1 
1 
1 
1 
1 
1 
1 
1 
1 
1 
1 
1 
1 
1 
1 
1 
1 
1 
1 
1 
1 
1 
1 
1 
1 
1 
1 
1 
1 
1 
1 
1 
1 
1 
1 
1 
1 
1 
1 
1 
1 
1 
1 
1 
1 
1 
1 
1 
1 
1 
1 
1 
1 
1 
1 
1 
1 
1 
1 
1 
1 
1 
1 
1 
1 
1 
1 
1 
1 
1 
1 
1 
1 
1 
1 
1 
1 
1 
1 
1 
1 
1 
1 
1 
1 
1 
1 
1 
1 
1 
1 
1 
1 
1 
1 
1 
1 
1 
1 
1 
1 
1 
1 
1 
1 
1 
1 
1 
1 
1 
1 
1 
1 
1 
1 
1 
1 
1 
1 
1 
1 
1 
1 
1 
1 
1 
1 
1 
1 
1 
1 
1 
1 
1 
1 
1 
1 
1 
1 
1 
1 
1 
1 
1 
1 
1 
1 
1 
1 
1 
1 
1 
1 
1 
1 
1 
1 
1 
1 
1 
1 
1 
1 
1 
1 
1 
1 
1 
1 
1 
1 
1 
1 
1 
1 
1 
1 
1 
1 
1 
1 
1 
1 
1 
1 
1 
1 
1 
1 
1 
1 
1 
1 
1 
1 
1 
1 
1 
1 
1 
1 
1 
1 
1 
1 
1 
1 
1 
1 
1 
1 
1 
1 
1 
1 
1 
1 
1 
1 
1 
1 
1 
1 
1 
1 
1 
1 
1 
1 
1 
1 
1 
1 
1 
1 
1 
1 
1 
1 
1 
1 
1 
1 
1 
1 
1 
1 
1 
1 
1 
1 
1 
1 
1 
1 
1 
1 
1 
1 
1 
1 
1 
1 
1 
1 
1 
1 
1 
1 
1 
1 
1 
1 
1 
1 
1 
1 
1 
1 
1 
1 
1 
1 
1 
1 
1 
1 
1 
1 
1 
1 
1 
1 
1 
1 
1 
1 
1 
1 
1 
1 
1 
1 
1 
1 
1 
1 
1 
1 
1 
1 
1 
1 
1 
1 
1 
1 
1 
1 
1 
1 
1 
1 
1 
1 
1 
1 
1 
1 
1 
1 
1 
1 
1 
1 
1 
1 
1 
1 
1 
1 
1 
1 
1 
1 
1 
1 
1 
1 
1 
1 
1 
1 
1 
1 
1 
1 
1 
1 
1 
1 
1 
1 
1 
1 
1 
1 
1 
1 
1 
1 
1 
1 
1 
1 
1 
1 
1 
1 
1 
1 
1 
1 
1 
1 
1 
1 
1 
1 
1 
1 
1 
1 
1 
1 
1 
1 
1 
1 
1 
1 
1 
1 
1 
1 
1 
1 
1 
1 
1 
1 
1 
1 
1 
1 
1 
1 
1 
1 
1 
1 
1 
1 
1 
1 
1 
1 
1 
1 
1 
1 
1 
1 
1 
1 
1 
1 
1 
1 
1 
1 
1 
1 
1 
1 
1 
1 
1 
1 
1 
1 
1 
1 
1 
1 
1 
1 
1 
1 
1 
1 
1 
1 
1 
1 
1 
1 
1 
1 
1 
1 
1 
1 
1 
1 
1 
1 
1 
1 
1 
1 
1 
1 
1 
1 
1 
1 
1 
1 
1 
1 
1 
1 
1 
1 
1 
1 
1 
1 
1 
1 
1 
1 
1 
1 
1 
1 
1 
1 
1 
1 
1 
1 
1 
1 
1 
1 
1 
1 
1 
1 
1 
1 
1 
1 
1 
1 
1 
1 
1 
1 
1 
1 
1 
1 
1 
1 
1 
1 
1 
1 
1 
1 
1 
1 
1 
1 
1 
1 
1 
1 
1 
1 
1 
1 
1 
1 
1 
1 
1 
1 
1 
1 
1 
1 
1 
1 
1 
1 
1 
1 
1 
1 
1 
1 
1 
1 
1 
1 
1 
1 
1 
1 
1 
1 
1 
1 
1 
1 
1 
1 
1 
1 
1 
1 
1 
1 
1 
1 
1 
1 
1 
1 
1 
1 
1 
1 
1 
1 
1 
1 
1 
1 
1 
1 
1 
1 
1 
1 
1 
1 
1 
1 
1 
1 
1 
1 
1 
1 
1 
1 
1 
1 
1 
1 
1 
1 
1 
1 
1 
1 
1 
1 
1 
1 
1 
1 
1 
1 
1 
1 
1 
1 
1 
1 
1 
1 
1 
1 
1 
1 
1 
1 
1 
1 
1 
1 
1 
1 
1 
1 
1 
1 
1 
1 
1 
1 
1 
1 
1 
1 
1 
1 
1 
1 
1 
1 
1 
1 
1 
1 
1 
1 
1 
1 
1 
1 
1 
1 
1 
1 
1 
1 
1 
1 
1 
1 
1 
1 
1 
1 
1 
1 
1 
1 
1 
1 
1 
1 
1 
1 
1 
1 
1 
1 
1 
1 
1 
1 
1 
1 
1 
1 
1 
1 
1 
1 
1 
1 
1 
1 
1 
1 
1 
1 
1 
1 
1 
1 
1 
1 
1 
1 
1 
1 
1 
1 
1 
1 
1 
1 
1 
1 
1 
1 
1 
1 
1 
1 
1 
1 
1 
1 
1 
1 
1 
1 
1 
1 
1 
1 
1 
1 
1 
1 
1 
1 
1 
1 
1 
1 
1 
1 
1 
1 
1 
1 
1 
1 
1 
1 
1 
1 
1 
1 
1 
1 
1 
1 
1 
1 
1 
1 
1 
1 
1 
1 
1 
1 
1 
1 
1 
1 
1 
1 
1 
1 
1 
1 
1 
1 
1 
1 
1 
1 
1 
1 
1 
1 
1 
1 
1 
1 
1 
1 
1 
1 
1 
1 
1 
1 
1 
1 
1 
1 
1 
1 
1 
1 
1 
1 
1 
1 
1 
1 
1 
1 
1 
1 
1 
1 
1 
1 
1 
1 
1 
1 
1 
1 
1 
1 
1 
1 
1 
1 
1 
1 
1 
1 
1 
1 
1 
1 
1 
1 
1 
1 
1 
1 
1 
1 
1 
1 
1 
1 
1 
1 
1 
1 
1 
1 
1 
1 
1 
1 
1 
1 
1 
1 
1 
1 
1 
1 
1 
1 
1 
1 
1 
1 
1 
1 
1 
1 
1 
1 
1 
1 
1 
1 
1 
1 
1 
1 
1 
1 
1 
1 
1 
1 
1 
1 
1 
1 
1 
1 
1 
1 
1 
1 
1 
1 
1 
1 
1 
1 
1 
1 
1 
1 
1 
1 
1 
1 
1 
1 
1 
1 
1 
1 
1 
1 
1 
1 
1 
1 
1 
1 
1 
1 
1 
1 
1 
1 
1 
1 
1 
1 
1 
1 
1 
1 
1 
1 
1 
1 
1 
1 
1 
1 
1 
1 
1 
1 
1 
1 
1 
1 
1 
1 
1 
1 
1 
1 
1 
1 
1 
1 
1 
1 
1 
1 
1 
1 
1 
1 
1 
1 
1 
1 
1 
1 
1 
1 
1 
1 
1 
1 
1 
1 
1 
1 
1 
1 
1 
1 
1 
1 
1 
1 
1 
1 
1 
1 
1 
1 
1 
1 
1 
1 
1 
1 
1 
1 
1 
1 
1 
1 
1 
1 
1 
1 
1 
1 
1 
1 
1 
1 
1 
1 
1 
1 
1 
1 
1 
1 
1 
1 
1 
1 
1 
1 
1 
1 
1 
1 
1 
1 
1 
1 
1 
1 
1 
1 
1 
1 
1 
1 
1 
1 
1 
1 
1 
1 
1 
1 
1 
1 
1 
1 
1 
1 
1 
1 
1 
1 
1 
1 
1 
1 
1 
1 
1 
1 
1 
1 
1 
1 
1 
1 
1 
1 
1 
1 
1 
1 
1 
1 
1 
1 
1 
1 
1 
1 
1 
1 
1 
1 
1 
1 
1 
1 
1 
1 
1 
1 
1 
1 
1 
1 
1 
1 
1 
1 
1 
1 
1 
1 
1 
1 
1 
1 
1 
1 
1 
1 
1 
1 
1 
1 
1 
1 
1 
1 
1 
1 
1 
1 
1 
1 
1 
1 
1 
1 
1 
1 
1 
1 
1 
1 
1 
1 
1 
1 
1 
1 
1 
1 
1 
1 
1 
1 
1 
1 
1 
1 
1 
1 
1 
1 
1 
1 
1 
1 
1 
1 
1 
1 
1 
1 
1 
1 
1 
1 
1 
1 
1 
1 
1 
1 
1 
1 
1 
1 
1 
1 
1 
1 
1 
1 
1 
1 
1 
1 
1 
1 
1 
1 
1 
1 
1 
1 
1 
1 
1 
1 
1 
1 
1 
1 
1 
1 
1 
1 
1 
1 
1 
1 
1 
1 
1 
1 
1 
1 
1 
1 
1 
1 
1 
1 
1 
1 
1 
1 
1 
1 
1 
1 
1 
1 
1 
1 
1 
1 
1 
1 
1 
1 
1 
1 
1 
1 
1 
1 
1 
1 
1 
1 
1 
1 
1 
1 
1 
1 
1 
1 
1 
1 
1 
1 
1 
1 
1 
1 
1 
1 
1 
1 
1 
1 
1 
1 
1 
1 
1 
1 
1 
1 
1 
1 
1 
1 
1 
1 
1 
1 
1 
1 
1 
1 
1 
1 
1 
1 
1 
1 
1 
1 
1 
1 
1 
1 
1 
1 
1 
1 
1 
1 
1 
1 
1 
1 
1 
1 
1 
1 
1 
1 
1 
1 
1 
1 
1 
1 
1 
1 
1 
1 
1 
1 
1 
1 
1 
1 
1 
1 
1 
1 
1 
1 
1 
1 
1 
1 
1 
1 
1 
1 
1 
1 
1 
1 
1 
1 
1 
1 
1 
1 
1 
1 
1 
1 
1 
1 
1 
1 
1 
1 
1 
1 
1 
1 
1 
1 
1 
1 
1 
1 
1 
1 
1 
1 
1 
1 
1 
1 
1 
1 
1 
1 
1 
1 
1 
1 
1 
1 
1 
1 
1 
1 
1 
1 
1 
1 
1 
1 
1 
1 
1 
1 
1 
1 
1 
1 
1 
1 
1 
1 
1 
1 
1 
1 
1 
1 
1 
1 
1 
1 
1 
1 
1 
1 
1 
1 
1 
1 
1 
1 
1 
1 
1 
1 
1 
1 
1 
1 
1 
1 
1 
1 
1 
1 
1 
1 
1 
1 
1 
1 
1 
1 
1 
1 
1 
1 
1 
1 
1 
1 
1 
1 
1 
1 
1 
1 
1 
1 
1 
1 
1 
1 
1 
1 
1 
1 
1 
1 
1 
1 
1 
1 
1 
1 
1 
1 
1 
1 
1 
1 
1 
1 
1 
1 
1 
1 
1 
1 
1 
1 
1 
1 
1 
1 
1 
1 
1 
1 
1 
1 
1 
1 
1 
1 
1 
1 
1 
1 
1 
1 
1 
1 
1 
1 
1 
1 
1 
1 
1 
1 
1 
1 
1 
1 
1 
1 
1 
1 
1 
1 
1 
1 
1 
1 
1 
1 
1 
1 
1 
1 
1 
1 
1 
1 
1 
1 
1 
1 
1 
1 
1 
1 
1 
1 
1 
1 
1 
1 
1 
1 
1 
1 
1 
1 
1 
1 
1 
1 
1 
1 
1 
1 
1 
1 
1 
1 
1 
1 
1 
1 
1 
1 
1 
1 
1 
1 
1 
1 
1 
1 
1 
1 
1 
1 
1 
1 
1 
1 
1 
1 
1 
1 
1 
1 
1 
1 
1 
1 
1 
1 
1 
1 
1 
1 
1 
1 
1 
1 
1 
1 
1 
1 
1 
1 
1 
1 
1 
1 
1 
1 
1 
1 
1 
1 
1 
1 
1 
1 
1 
1 
1 
1 
1 
1 
1 
1 
1 
1 
1 
1 
1 
1 
1 
1 
1 
1 
1 
1 
1 
1 
1 
1 
1 
1 
1 
1 
1 
1 
1 
1 
1 
1 
1 
1 
1 
1 
1 
1 
1 
1 
1 
1 
1 
1 
1 
1 
1 
1 
1 
1 
1 
1 
1 
1 
1 
1 
1 
1 
1 
1 
1 
1 
1 
1 
1 
1 
1 
1 
1 
1 
1 
1 
1 
1 
1 
1 
1 
1 
1 
1 
1 
1 
1 
1 
1 
1 
1 
1 
1 
1 
1 
1 
1 
1 
1 
1 
1 
1 
1 
1 
1 
1 
1 
1 
1 
1 
1 
1 
1 
1 
1 
1 
1 
1 
1 
1 
1 
1 
1 
1 
1 
1 
1 
1 
1 
1 
1 
1 
1 
1 
1 
1 
1 
1 
1 
1 
1 
1 
1 
1 
1 
1 
1 
1 
1 
1 
1 
1 
1 
1 
1 
1 
1 
1 
1 
1 
1 
1 
1 
1 
1 
1 
1 
1 
1 
1 
1 
1 
1 
1 
1 
1 
1 
1 
1 
1 
1 
1 
1 
1 
1 
1 
1 
1 
1 
1 
1 
1 
1 
1 
1 
1 
1 
1 
1 
1 
1 
1 
1 
1 
1 
1 
1 
1 
1 
1 
1 
1 
1 
1 
1 
1 
1 
1 
1 
1 
1 
1 
1 
1 
1 
1 
1 
1 
1 
1 
1 
1 
1 
1 
1 
1 
1 
1 
1 
1 
1 
1 
1 
1 
1 
1 
1 
1 
1 
1 
1 
1 
1 
1 
1 
1 
1 
1 
1 
1 
1 
1 
1 
1 
1 
1 
1 
1 
1 
1 
1 
1 
1 
1 
1 
1 
1 
1 
1 
1 
1 
1 
1 
1 
1 
1 
1 
1 
1 
1 
1 
1 
1 
1 
1 
1 
1 
1 
1 
1 
1 
1 
1 
1 
1 
1 
1 
1 
1 
1 
1 
1 
1 
1 
1 
1 
1 
1 
1 
1 
1 
1 
1 
1 
1 
1 
1 
1 
1 
1 
1 
1 
1 
1 
1 
1 
1 
1 
1 
1 
1 
1 
1 
1 
1 
1 
1 
1 
1 
1 
1 
1 
1 
1 
1 
1 
1 
1 
1 
1 
1 
1 
1 
1 
1 
1 
1 
1 
1 
1 
1 
1 
1 
1 
1 
1 
1 
1 
1 
1 
1 
1 
1 
1 
1 
1 
1 
1 
1 
1 
1 
1 
1 
1 
1 
1 
1 
1 
1 
1 
1 
1 
1 
1 
1 
1 
1 
1 
1 
1 
1 
1 
1 
1 
1 
1 
1 
1 
1 
1 
1 
1 
1 
1 
1 
1 
1 
1 
1 
1 
1 
1 
1 
1 
1 
1 
1 
1 
1 
1 
1 
1 
1 
1 
1 
1 
1 
1 
1 
1 
1 
1 
1 
1 
1 
1 
1 
1 
1 
1 
1 
1 
1 
1 
1 
1 
1 
1 
1 
1 
1 
1 
1 
1 
1 
1 
1 
1 
1 
1 
1 
1 
1 
1 
1 
1 
1 
1 
1 
1 
1 
1 
1 
1 
1 
1 
1 
1 
1 
1 
1 
1 
1 
1 
1 
1 
1 
1 
1 
1 
1 
1 
1 
1 
1 
1 
1 
1 
1 
1 
1 
1 
1 
1 
1 
1 
1 
1 
1 
1 
1 
1 
1 
1 
1 
1 
1 
1 
1 
1 
1 
1 
1 
1 
1 
1 
1 
1 
1 
1 
1 
1 
1 
1 
1 
1 
1 
1 
1 
1 
1 
1 
1 
1 
1 
1 
1 
1 
1 
1 
1 
1 
1 
1 
1 
1 
1 
1 
1 
1 
1 
1 
1 
1 
1 
1 
1 
1 
1 
1 
1 
1 
1 
1 
1 
1 
1 
1 
1 
1 
1 
1 
1 
1 
1 
1 
1 
1 
1 
1 
1 
1 
1 
1 
1 
1 
1 
1 
1 
1 
1 
1 
1 
1 
1 
1 
1 
1 
1 
1 
1 
1 
1 
1 
1 
1 
1 
1 
1 
1 
1 
1 
1 
1 
1 
1 
1 
1 
1 
1 
1 
1 
1 
1 
1 
1 
1 
1 
1 
1 
1 
1 
1 
1 
1 
1 
1 
1 
1 
1 
1 
1 
1 
1 
1 
1 
1 
1 
1 
1 
1 
1 
1 
1 
1 
1 
1 
1 
1 
1 
1 
1 
1 
1 
1 
1 
1 
1 
1 
1 
1 
1 
1 
1 
1 
1 
1 
1 
1 
1 
1 
1 
1 
1 
1 
1 
1 
1 
1 
1 
1 
1 
1 
1 
1 
1 
1 
1 
1 
1 
1 
1 
1 
1 
1 
1 
1 
1 
1 
1 
1 
1 
1 
1 
1 
1 
1 
1 
1 
1 
1 
1 
1 
1 
1 
1 
1 
1 
1 
1 
1 
1 
1 
1 
1 
1 
1 
1 
1 
1 
1 
1 
1 
1 
1 
1 
1 
1 
1 
1 
1 
1 
1 
1 
1 
1 
1 
1 
1 
1 
1 
1 
1 
1 
1 
1 
1 
1 
1 
1 
1 
1 
1 
1 
1 
1 
1 
1 
1 
1 
1 
1 
1 
1 
1 
1 
1 
1 
1 
1 
1 
1 
1 
1 
1 
1 
1 
1 
1 
1 
1 
1 
1 
1 
1 
1 
1 
1 
1 
1 
1 
1 
1 
1 
1 
1 
1 
1 
1 
1 
1 
1 
1 
1 
1 
1 
1 
1 
1 
1 
1 
1 
1 
1 
1 
1 
1 
1 
1 
1 
1 
1 
1 
1 
1 
1 
1 
1 
1 
1 
1 
1 
1 
1 
1 
1 
1 
1 
1 
1 
1 
1 
1 
1 
1 
1 
1 
1 
1 
1 
1 
1 
1 
1 
1 
1 
1 
1 
1 
1 
1 
1 
1 
1 
1 
1 
1 
1 
1 
1 
1 
1 
1 
1 
1 
1 
1 
1 
1 
1 
1 
1 
1 
1 
1 
1 
1 
1 
1 
1 
1 
1 
1 
1 
1 
1 
1 
1 
1 
1 
1 
1 
1 
1 
1 
1 
1 
1 
1 
1 
1 
1 
1 
1 
1 
1 
1 
1 
1 
1 
1 
1 
1 
1 
1 
1 
1 
1 
1 
1 
1 
1 
1 
1 
1 
1 
1 
1 
1 
1 
1 
1 
1 
1 
1 
1 
1 
1 
1 
1 
1 
1 
1 
1 
1 
1 
1 
1 
1 
1 
1 
1 
1 
1 
1 
1 
1 
1 
1 
1 
1 
1 
1 
1 
1 
1 
1 
1 
1 
1 
1 
1 
1 
1 
1 
1 
1 
1 
1 
1 
1 
1 
1 
1 
1 
1 
1 
1 
1 
1 
1 
1 
1 
1 
1 
1 
1 
1 
1 
1 
1 
1 
1 
1 
1 
1 
1 
1 
1 
1 
1 
1 
1 
1 
1 
1 
1 
1 
1 
1 
1 
1 
1 
1 
1 
1 
1 
1 
1 
1 
1 
1 
1 
1 
1 
1 
1 
1 
1 
1 
1 
1 
1 
1 
1 
1 
1 
1 
1 
1 
1 
1 
1 
1 
1 
1 
1 
1 
1 
1 
1 
1 
1 
1 
1 
1 
1 
1 
1 
1 
1 
1 
1 
1 
1 
1 
1 
1 
1 
1 
1 
1 
1 
1 
1 
1 
1 
1 
1 
1 
1 
1 
1 
1 
1 
1 
1 
1 
1 
1 
1 
1 
1 
1 
1 
1 
1 
1 
1 
1 
1 
1 
1 
1 
1 
1 
1 
1 
1 
1 
1 
1 
1 
1 
1 
1 
1 
1 
1 
1 
1 
1 
1 
1 
1 
1 
1 
1 
1 
1 
1 
1 
1 
1 
1 
1 
1 
1 
1 
1 
1 
1 
1 
1 
1 
1 
1 
1 
1 
1 
1 
1 
1 
1 
1 
1 
1 
1 
1 
1 
1 
1 
1 
1 
1 
1 
1 
1 
1 
1 
1 
1 
1 
1 
1 
1 
1 
1 
1 
1 
1 
1 
1 
1 
1 
1 
1 
1 
1 
1 
1 
1 
1 
1 
1 
1 
1 
1 
1 
1 
1 
1 
1 
1 
1 
1 
1 
1 
1 
1 
1 
1 
1 
1 
1 
1 
1 
1 
1 
1 
1 
1 
1 
1 
1 
1 
1 
1 
1 
1 
1 
1 
1 
1 
1 
1 
1 
1 
1 
1 
1 
1 
1 
1 
1 
1 
1 
1 
1 
1 
1 
1 
1 
1 
1 
1 
1 
1 
1 
1 
1 
1 
1 
1 
1 
1 
1 
1 
1 
1 
1 
1 
1 
1 
1 
1 
1 
1 
1 
1 
1 
1 
1 
1 
1 
1 
1 
1 
1 
1 
1 
1 
1 
1 
1 
1 
1 
1 
1 
1 
1 
1 
1 
1 
1 
1 
1 
1 
1 
1 
1 
1 
1 
1 
1 
1 
1 
1 
1 
1 
1 
1 
1 
1 
1 
1 
1 
1 
1 
1 
1 
1 
1 
1 
1 
1 
1 
1 
1 
1 
1 
1 
1 
1 
1 
1 
1 
1 
1 
1 
1 
1 
1 
1 
1 
1 
1 
1 
1 
1 
1 
1 
1 
1 
1 
1 
1 
1 
1 
1 
1 
1 
1 
1 
1 
1 
1 
1 
1 
1 
1 
1 
1 
1 
1 
1 
1 
1 
1 
1 
1 
1 
1 
1 
1 
1 
1 
1 
1 
1 
1 
1 
1 
1 
1 
1 
1 
1 
1 
1 
1 
1 
1 
1 
1 
1 
1 
1 
1 
1 
1 
1 
1 
1 
1 
1 
1 
1 
1 
1 
1 
1 
1 
1 
1 
1 
1 
1 
1 
1 
1 
1 
1 
1 
1 
1 
1 
1 
1 
1 
1 
1 
1 
1 
1 
1 
1 
1 
1 
1 
1 
1 
1 
1 
1 
1 
1 
1 
1 
1 
1 
1 
1 
1 
1 
1 
1 
1 
1 
1 
1 
1 
1 
1 
1 
1 
1 
1 
1 
1 
1 
1 
1 
1 
1 
1 
1 
1 
1 
1 
1 
1 
1 
1 
1 
1 
1 
1 
1 
1 
1 
1 
1 
1 
1 
1 
1 
1 
1 
1 
1 
1 
1 
1 
1 
1 
1 
1 
1 
1 
1 
1 
1 
1 
1 
1 
1 
1 
1 
1 
1 
1 
1 
1 
1 
1 
1 
1 
1 
1 
1 
1 
1 
1 
1 
1 
1 
1 
1 
1 
1 
1 
1 
1 
1 
1 
1 
1 
1 
1 
1 
1 
1 
1 
1 
1 
1 
1 
1 
1 
1 
1 
1 
1 
1 
1 
1 
1 
1 
1 
1 
1 
1 
1 
1 
1 
1 
1 
1 
1 
1 
1 
1 
1 
1 
1 
1 
1 
1 
1 
1 
1 
1 
1 
1 
1 
1 
1 
1 
1 
1 
1 
1 
1 
1 
1 
1 
1 
1 
1 
1 
1 
1 
1 
1 
1 
1 
1 
1 
1 
1 
1 
1 
1 
1 
1 
1 
1 
1 
1 
1 
1 
1 
1 
1 
1 
1 
1 
1 
1 
1 
1 
1 
1 
1 
1 
1 
1 
1 
1 
1 
1 
1 
1 
1 
1 
1 
1 
1 
1 
1 
1 
1 
1 
1 
1 
1 
1 
1 
1 
1 
1 
1 
1 
1 
1 
1 
1 
1 
1 
1 
1 
1 
1 
1 
1 
1 
1 
1 
1 
1 
1 
1 
1 
1 
1 
1 
1 
1 
1 
1 
1 
1 
1 
1 
1 
1 
1 
1 
1 
1 
1 
1 
1 
1 
1 
1 
1 
1 
1 
1 
1 
1 
1 
1 
1 
1 
1 
1 
1 
1 
1 
1 
1 
1 
1 
1 
1 
1 
1 
1 
1 
1 
1 
1 
1 
1 
1 
1 
1 
1 
1 
1 
1 
1 
1 
1 
1 
1 
1 
1 
1 
1 
1 
1 
1 
1 
1 
1 
1 
1 
1 
1 
1 
1 
1 
1 
1 
1 
1 
1 
1 
1 
1 
1 
1 
1 
1 
1 
1 
1 
1 
1 
1 
1 
1 
1 
1 
1 
1 
1 
1 
1 
1 
1 
1 
1 
1 
1 
1 
1 
1 
1 
1 
1 
1 
1 
1 
1 
1 
1 
1 
1 
1 
1 
1 
1 
1 
1 
1 
1 
1 
1 
1 
1 
1 
1 
1 
1 
1 
1 
1 
1 
1 
1 
1 
1 
1 
1 
1 
1 
1 
1 
1 
1 
1 
1 
1 
1 
1 
1 
1 
1 
1 
1 
1 
1 
1 
1 
1 
1 
1 
1 
1 
1 
1 
1 
1 
1 
1 
1 
1 
1 
1 
1 
1 
1 
1 
1 
1 
1 
1 
1 
1 
1 
1 
1 
1 
1 
1 
1 
1 
1 
1 
1 
1 
1 
1 
1 
1 
1 
1 
1 
1 
1 
1 
1 
1 
1 
1 
1 
1 
1 
1 
1 
1 
1 
1 
1 
1 
1 
1 
1 
1 
1 
1 
1 
1 
1 
1 
1 
1 
1 
1 
1 
1 
1 
1 
1 
1 
1 
1 
1 
1 
1 
1 
1 
1 
1 
1 
1 
1 
1 
1 
1 
1 
1 
1 
1 
1 
1 
1 
1 
1 
1 
1 
1 
1 
1 
1 
1 
1 
1 
1 
1 
1 
1 
1 
1 
1 
1 
1 
1 
1 
1 
1 
1 
1 
1 
1 
1 
1 
1 
1 
1 
1 
1 
1 
1 
1 
1 
1 
1 
1 
1 
1 
1 
1 
1 
1 
1 
1 
1 
1 
1 
1 
1 
1 
1 
1 
1 
1 
1 
1 
1 
1 
1 
1 
1 
1 
1 
1 
1 
1 
1 
1 
1 
1 
1 
1 
1 
1 
1 
1 
1 
1 
1 
1 
1 
1 
1 
1 
1 
1 
1 
1 
1 
1 
1 
1 
1 
1 
1 
1 
1 
1 
1 
1 
1 
1 
1 
1 
1 
1 
1 
1 
1 
1 
1 
1 
1 
1 
1 
1 
1 
1 
1 
1 
1 
1 
1 
1 
1 
1 
1 
1 
1 
1 
1 
1 
1 
1 
1 
1 
1 
1 
1 
1 
1 
1 
1 
1 
1 
1 
1 
1 
1 
1 
1 
1 
1 
1 
1 
1 
1 
1 
1 
1 
1 
1 
1 
1 
1 
1 
1 
1 
1 
1 
1 
1 
1 
1 
1 
1 
1 
1 
1 
1 
1 
1 
1 
1 
1 
1 
1 
1 
1 
1 
1 
1 
1 
1 
1 
1 
1 
1 
1 
1 
1 
1 
1 
1 
1 
1 
1 
1 
1 
1 
1 
1 
1 
1 
1 
1 
1 
1 
1 
1 
1 
1 
1 
1 
1 
1 
1 
1 
1 
1 
1 
1 
1 
1 
1 
1 
1 
1 
1 
1 
1 
1 
1 
1 
1 
1 
1 
1 
1 
1 
1 
1 
1 
1 
1 
1 
1 
1 
1 
1 
1 
1 
1 
1 
1 
1 
1 
1 
1 
1 
1 
1 
1 
1 
1 
1 
1 
1 
1 
1 
1 
1 
1 
1 
1 
1 
1 
1 
1 
1 
1 
1 
1 
1 
1 
1 
1 
1 
1 
1 
1 
1 
1 
1 
1 
1 
1 
1 
1 
1 
1 
1 
1 
1 
1 
1 
1 
1 
1 
1 
1 
1 
1 
1 
1 
1 
1 
1 
1 
1 
1 
1 
1 
1 
1 
1 
1 
1 
1 
1 
1 
1 
1 
1 
1 
1 
1 
1 
1 
1 
1 
1 
1 
1 
1 
1 
1 
1 
1 
1 
1 
1 
1 
1 
1 
1 
1 
1 
1 
1 
1 
1 
1 
1 
1 
1 
1 
1 
1 
1 
1 
1 
1 
1 
1 
1 
1 
1 
1 
1 
1 
1 
1 
1 
1 
1 
1 
1 
1 
1 
1 
1 
1 
1 
1 
1 
1 
1 
1 
1 
1 
1 
1 
1 
1 
1 
1 
1 
1 
1 
1 
1 
1 
1 
1 
1 
1 
1 
1 
1 
1 
1 
1 
1 
1 
1 
1 
1 
1 
1 
1 
1 
1 
1 
1 
1 
1 
1 
1 
1 
1 
1 
1 
1 
1 
1 
1 
1 
1 
1 
1 
1 
1 
1 
1 
1 
1 
1 
1 
1 
1 
1 
1 
1 
1 
1 
1 
1 
1 
1 
1 
1 
1 
1 
1 
1 
1 
1 
1 
1 
1 
1 
1 
1 
1 
1 
1 
1 
1 
1 
1 
1 
1 
1 
1 
1 
1 
1 
1 
1 
1 
1 
1 
1 
1 
1 
1 
1 
1 
1 
1 
1 
1 
1 
1 
1 
1 
1 
1 
1 
1 
1 
1 
1 
1 
1 
1 
1 
1 
1 
1 
1 
1 
1 
1 
1 
1 
1 
1 
1 
1 
1 
1 
1 
1 
1 
1 
1 
1 
1 
1 
1 
1 
1 
1 
1 
1 
1 
1 
1 
1 
1 
1 
1 
1 
1 
1 
1 
1 
1 
1 
1 
1 
1 
1 
1 
1 
1 
1 
1 
1 
1 
1 
1 
1 
1 
1 
1 
1 
1 
1 
1 
1 
1 
1 
1 
1 
1 
1 
1 
1 
1 
1 
1 
1 
1 
1 
1 
1 
1 
POINT_DATA 5000
VECTORS Stress float
-1454.94 -2181.89 0.
-2554.14 -2919.37 0.
-12.2681 -5.08793 0.
-118.905 -125.943 0.
-3660.86 -7128.33 0.
-1.93648 -0.822386 0.
-2211.3 -1539.74 0.
-32.6555 -26.534 0.
-27.8072 -16.7851 0.
-3873.64 -6330.1 0.
-1125.42 -2043.89 0.
-138.948 -167.444 0.
-2104.41 -2841.89 0.
-1631.34 -2240.48 0.
-1263.2 -1708.08 0.
-1060.88 -1482.1 0.
-853.55 -1261.13 0.
-968.338 -1483.9 0.
-814.599 -1369.02 0.
-642.544 -1272.46 0.
-829.427 -1474.75 0.
-755.072 -1302.49 0.
-680.136 -1130.81 0.
-724.062 -1245.99 0.
-799.648 -1421.74 0.
-872.785 -1599.94 0.
-1030.75 -1639.3 0.
-965.476 -1522.31 0.
-734.51 -1355.35 0.
-711.185 -1284.59 0.
-680.14 -1221.54 0.
-719.539 -1229.21 0.
-696.963 -1204.94 0.
-672.176 -1182.87 0.
-705.411 -1211.91 0.
-696.341 -1211.73 0.
-695.76 -1203.06 0.
-837.836 -1309.38 0.
-888.979 -1340.78 0.
-868.854 -1309.66 0.
-874.201 -1272.48 0.
-876.82 -1238.03 0.
-920.56 -1267.24 0.
-967.745 -1342.84 0.
-1014.95 -1418.42 0.
-967.689 -1304.05 0.
-849.27 -1009.44 0.
-700.589 -745.1 0.
-366.067 -516.665 0.
-486.675 -1061.68 0.
-588.606 -1625.33 0.
-505.773 -1031.78 0.
-360.726 -481.382 0.
-666.792 -687.433 0.
-828.363 -943.529 0.
-959.428 -1230.13 0.
-1013.89 -1344.24 0.
-968.718 -1272.91 0.
-923.471 -1201.65 0.
-893.812 -1199.32 0.
-902.273 -1262.64 0.
-908.007 -1328.68 0.
-935.796 -1373.27 0.
-878.286 -1336.96 0.
-707.22 -1193.03 0.
-707.312 -1176.84 0.
-706.998 -1161.06 0.
-677.532 -1127.03 0.
-693.65 -1145.08 0.
-708.678 -1164.22 0.
-675.316 -1191.62 0.
-739.352 -1312.77 0.
-802.963 -1434.33 0.
-981.79 -1545.8 0.
-1011.52 -1596.26 0.
-849.523 -1503.88 0.
-768.192 -1351.53 0.
-727.665 -1252.42 0.
-641.608 -1187.98 0.
-744.519 -1354.51 0.
-842.791 -1525.68 0.
-754.256 -1362.86 0.
-951.78 -1509.91 0.
-1133.76 -1672.5 0.
-1008.37 -1310.58 0.
-1160.28 -1368.68 0.
-1307.71 -1431.26 0.
-1553.66 -2476.56 0.
-2682.22 -4315.2 0.
-18.6893 -25.6542 0.
-632.759 -992.603 0.
-4273.18 -6333.5 0.
-449.042 -412.6 0.
-455.126 -355.936 0.
-2661.31 -3111.18 0.
-61.9022 -99.2181 0.
-3545.8 -5514.77 0.
-26.482 -66.7305 0.
-2497.65 -4318.4 0.
-985.598 -877.443 0.
-1676.26 -2734.56 0.
0.0705915 0.0275 0.
0.0955237 0.0153551 0.
-0.110195 -0.0985246 0.
-0.058724 -0.215014 0.
-0.0310275 -0.0362949 0.
-71.0013 -70.6308 0.
-37.7277 -14.4161 0.
-742.937 -334.791 0.
-28.666 -11.8594 0.
-11.4591 -5.71748 0.
-45.4601 -34.9213 0.
-748.313 -754.041 0.
-429.673 -250.491 0.
-359.759 -267.487 0.
-103.858 -101.656 0.
-100.387 -112.028 0.
-289.338 -545.391 0.
-193.852 -393.522 0.
-135.361 -221.949 0.
-610.432 -1194.5 0.
-523.084 -1039.58 0.
-438.117 -883.244 0.
-558.84 -970.84 0.
-607.967 -1173.09 0.
-665.234 -1367.2 0.
-1033.26 -1549.12 0.
-969.551 -1430.56 0.
-596.638 -1111.92 0.
-553.106 -1042.28 0.
-521.47 -974.751 0.
-627.453 -1076.33 0.
-597.999 -1058.92 0.
-594.864 -1015.2 0.
-700.187 -1140.26 0.
-691.381 -1139.82 0.
-682.235 -1139.71 0.
-1041.85 -1358.65 0.
-1062.76 -1420.26 0.
-908.27 -1328.64 0.
-911.586 -1293.5 0.
-915.363 -1257.9 0.
-1014.59 -1314.69 0.
-1062.38 -1389.68 0.
-1108.29 -1466.54 0.
-1039.01 -1400.29 0.
-932.029 -1094.29 0.
-794.141 -819.2 0.
-2.86558 -5.32259 0.
-2.24502 -3.88031 0.
-109.429 -298.493 0.
-13.1978 -18.7495 0.
-10.7655 -13.3779 0.
-750.41 -758.419 0.
-902.88 -1023.56 0.
-1023.41 -1320.64 0.
-1094.89 -1386.02 0.
-1049.63 -1314.79 0.
-1004.24 -1243.7 0.
-943.731 -1231.02 0.
-953.39 -1293.13 0.
-961.938 -1356.35 0.
-1130.54 -1477.32 0.
-1103.7 -1410.38 0.
-689.023 -1094.62 0.
-670.856 -1096.7 0.
-672.621 -1078.83 0.
-576.024 -973.669 0.
-598.243 -985.62 0.
-625.451 -992.583 0.
-555.39 -919.035 0.
-595.174 -1064.46 0.
-662.24 -1182.61 0.
-935.333 -1413.63 0.
-965.877 -1463.28 0.
-742.085 -1361.57 0.
-643.844 -1139.15 0.
-624.632 -1013.78 0.
-284.599 -642.675 0.
-381.39 -831.355 0.
-490.179 -1012.27 0.
-104.628 -101.4 0.
-198.376 -206.765 0.
-299.218 -407.021 0.
-170.959 -98.6356 0.
-13.9842 -12.2318 0.
-75.1055 -46.7021 0.
-0.045548 -0.048133 0.
-342.747 -476.395 0.
-32.6659 -38.2272 0.
-16.4864 -14.4587 0.
-20.5487 -21.795 0.
-39.1234 -21.5965 0.
-51.2917 -58.2202 0.
-121.604 -203.482 0.
-36.7245 -26.633 0.
-118.133 -199.477 0.
-2.40172 -6.56989 0.
-63.3716 -150.307 0.
-64.2683 -126.642 0.
0.0382735 0.692041 0.
-1.10479 -0.501623 0.
0.85961 0.386218 0.
-0.185303 -0.102573 0.
-0.0484477 -0.289311 0.
-0.0458244 -0.0992207 0.
-101.691 -79.8551 0.
-55.5937 -20.4062 0.
-1488.04 -711.537 0.
-58.0756 -20.9674 0.
-26.6221 -10.6949 0.
-66.7717 -30.8378 0.
-196.31 -117.024 0.
-11.8906 -19.6311 0.
-757.552 -883.726 0.
-134.166 -110.401 0.
-170.629 -155.142 0.
-772.75 -1690.34 0.
-668.73 -1549.8 0.
-1151.26 -2968.39 0.
-1252.47 -2198.06 0.
-1010.6 -1723.96 0.
-815.28 -1347.28 0.
-694.338 -980.187 0.
-667.315 -940.037 0.
-1569.16 -3133.44 0.
-1279.14 -1901.32 0.
-1287.73 -1928.92 0.
-850.129 -1379.88 0.
-672.301 -1015.72 0.
-593.105 -875.57 0.
-779.562 -1140.82 0.
-696.043 -951.464 0.
-691.938 -955.374 0.
-847.286 -1116.78 0.
-789.048 -986.013 0.
-852.965 -1145.6 0.
-1281.22 -1424.07 0.
-1317.09 -1519.39 0.
-977.709 -1048.79 0.
-877.469 -843.72 0.
-860.38 -819.592 0.
-953.68 -1025.58 0.
-967.595 -1103.99 0.
-898.754 -1007.8 0.
-986.5 -1070.15 0.
-1066.98 -1288.37 0.
-1154.53 -1518.83 0.
0.0886467 0.0244699 0.
0.106675 0.439686 0.
-7810.31 -5207.49 0.
-0.334583 -0.135975 0.
-1.48468 -0.549096 0.
-1132.87 -1478.99 0.
-1035.45 -1225.93 0.
-941.776 -1014 0.
-903.435 -984.895 0.
-889.582 -945.824 0.
-918.041 -967.76 0.
-886.713 -838.325 0.
-933.528 -950.883 0.
-959.496 -978.354 0.
-1412.51 -1539.49 0.
-1423.39 -1554.26 0.
-802.116 -941.443 0.
-829.084 -1096.14 0.
-845.674 -1116.9 0.
-729.311 -1030.74 0.
-716.779 -998.451 0.
-788.354 -1123.21 0.
-613.108 -823.894 0.
-765.693 -1186.71 0.
-878.64 -1372.49 0.
-1388.56 -2201.99 0.
-1432.04 -2299.34 0.
-1665.76 -3102.32 0.
-785.99 -1007.43 0.
-839.422 -1055.45 0.
-581.402 -1276.22 0.
-853.41 -1630.8 0.
-2661.76 -5874.63 0.
-496.841 -795.966 0.
-753.717 -1501.7 0.
-798.296 -1510.07 0.
-295.091 -147.464 0.
-87.4146 -47.6083 0.
-315.843 -214.257 0.
0.00582128 0.00604103 0.
-21.6613 -26.0798 0.
-105.168 -63.532 0.
-23.7428 -21.8947 0.
-26.5068 -28.9701 0.
-62.3233 -32.8956 0.
-113.102 -108.884 0.
-234.431 -294.005 0.
-47.8595 -35.1185 0.
-114.514 -101.478 0.
-2.23737 -6.09778 0.
-60.4122 -90.8533 0.
-1250.34 -1577.5 0.
-2261.8 -4307.5 0.
-5.47461 -2.90135 0.
-43.1416 -53.9557 0.
-2721.07 -3958.7 0.
-64.8259 -42.1949 0.
-2835.15 -4766.57 0.
-93.375 -111.516 0.
-783.901 -1033.33 0.
-0.342241 -0.0991284 0.
-3571.27 -5621.66 0.
-23.0285 -18.6358 0.
-52.9536 -77.552 0.
-3592.36 -7400.88 0.
-19.4041 -49.0019 0.
-1857.71 -2401.77 0.
-1354.61 -1867.7 0.
-911.502 -1302.52 0.
-1795.02 -4036.72 0.
-527.089 -1148.21 0.
-17.5895 -26.92 0.
-530.975 -1046.29 0.
-331.201 -665.046 0.
-239.874 -270.921 0.
-519.359 -630.578 0.
-343.814 -312.458 0.
-113.308 -67.3471 0.
-625.187 -559.93 0.
-676.92 -713.16 0.
-430.129 -382.856 0.
-437.574 -426.207 0.
-455.574 -494.463 0.
-552.518 -604.718 0.
-515.026 -564.419 0.
-479.437 -514.894 0.
-573.893 -550.758 0.
-548.794 -492.099 0.
-538.229 -422.119 0.
-932.145 -797.996 0.
-918.755 -786.922 0.
-764.902 -507.703 0.
-760.015 -499.182 0.
-755.984 -493.7 0.
-905.406 -725.336 0.
-868.437 -637.564 0.
-812.572 -570.748 0.
-1006.83 -695.529 0.
-1065.21 -847.232 0.
-1133.32 -990.86 0.
-0.0977898 -0.0631448 0.
0.125971 0.336832 0.
-8830.54 -3772.29 0.
-2.99481 -1.13313 0.
-4.14974 -1.50453 0.
-1066.89 -1014.66 0.
-1019.12 -853.263 0.
-970.433 -693.329 0.
-827.893 -546.439 0.
-905.84 -596.702 0.
-945.277 -685.443 0.
-740.679 -504.349 0.
-730.609 -476.42 0.
-721.098 -449.767 0.
-923.982 -739.135 0.
-955.174 -771.855 0.
-520.645 -396.851 0.
-533.678 -463.691 0.
-577.457 -574.271 0.
-487.491 -517.99 0.
-508.064 -529.799 0.
-539.763 -532.101 0.
-471.875 -463.471 0.
-443.018 -391.309 0.
-433.423 -370.926 0.
-668.752 -633.089 0.
-605.429 -490.681 0.
-30.6202 -19.5598 0.
-371.377 -255.863 0.
-602.33 -645.928 0.
-35.6344 -23.6127 0.
-98.4089 -74.1621 0.
-427.49 -605.091 0.
-7.29265 -10.978 0.
-667.742 -1130.82 0.
-2362.44 -4829.91 0.
-373.803 -322.456 0.
-1159.98 -1654.92 0.
-2060.09 -2913.97 0.
-3.8003 -10.4566 0.
-3970.37 -7129.19 0.
-13.4059 -23.8211 0.
-11.672 -20.2826 0.
-3404.38 -4731.38 0.
-36.6126 -37.6044 0.
-2729.27 -4398.88 0.
-33.8146 -28.0509 0.
-2424.24 -4958.34 0.
-182.97 -250.941 0.
-991.565 -1400.04 0.
-104.808 -185.155 0.
-1603.03 -3874.27 0.
-51.7629 -73.6474 0.
0.00127921 1.88068 0.
-2008.77 -3393.88 0.
-172.202 -217.529 0.
-56.5637 -37.7575 0.
-20.7846 -13.1549 0.
-87.6285 -81.2043 0.
-37.0182 -48.3143 0.
0.664922 0.436073 0.
-396.882 -264.11 0.
-0.672192 -0.556035 0.
-27.3137 -36.703 0.
-23.6498 -62.4442 0.
-18.5975 -51.2997 0.
-52.0416 -109.822 0.
-35.4344 -63.0301 0.
-20.0077 -16.7096 0.
-400.123 -424.612 0.
-47.8425 -40.5173 0.
-43.2961 -35.3784 0.
-196.846 -218.86 0.
-22.5549 -32.2581 0.
-69.8935 -67.3479 0.
-507.538 -546.005 0.
-333.96 -223.035 0.
-50.2259 -26.3987 0.
-679.259 -583.324 0.
-739.333 -727.43 0.
-439.134 -364.211 0.
-477.825 -409.105 0.
-494.304 -476.891 0.
-566.281 -517.375 0.
-527.604 -474.337 0.
-486.115 -435.108 0.
-553.999 -492.02 0.
-543.298 -418.781 0.
-528.036 -351.401 0.
-968.221 -803.049 0.
-967.422 -794.207 0.
-842.239 -536.112 0.
-838.52 -526.64 0.
-837.225 -519.58 0.
-1084.09 -740.951 0.
-1049.16 -670.189 0.
-997.786 -629.979 0.
-1257.39 -773.2 0.
-1325.81 -916.808 0.
-1393.57 -1060.47 0.
-0.212231 -0.182144 0.
0.066401 0.0861423 0.
-10965.8 -4681.61 0.
-5.67197 -2.08339 0.
-6.80619 -2.45735 0.
-1363.97 -1085.04 0.
-1303.37 -935.881 0.
-1253.62 -776.464 0.
-1023.54 -616.822 0.
-1079 -662.321 0.
-1125.93 -742.625 0.
-807.156 -529.28 0.
-806.452 -491.289 0.
-786.634 -474.425 0.
-967.326 -755.247 0.
-983.653 -789.904 0.
-531.743 -366.925 0.
-544.572 -433.735 0.
-585.212 -549.844 0.
-487.568 -389.248 0.
-530.973 -376.135 0.
-566.399 -369.725 0.
-479.796 -472.735 0.
-452.183 -404.034 0.
-424.876 -337.371 0.
-708.784 -635.769 0.
-644.171 -499.615 0.
-18.8551 -13.2674 0.
-221.666 -90.0612 0.
-445.54 -477.992 0.
-54.1707 -39.5966 0.
-14.697 -9.41371 0.
-15.2665 -9.31613 0.
-9.82864 -8.29163 0.
-15.9431 -17.0669 0.
-312.915 -152.484 0.
-38.0787 -38.3815 0.
-40.6743 -44.5495 0.
-45.6183 -56.1914 0.
-3.24089 -8.8317 0.
-2.26842 -5.76096 0.
-14.3496 -36.652 0.
-11.8131 -32.0651 0.
-11.9529 -32.371 0.
-13.8092 -18.5679 0.
-200.377 -436.032 0.
-0.427749 -0.00429002 0.
-530.594 -663.62 0.
-9.10559 -23.4388 0.
-71.0342 -145.462 0.
-157.846 -208.723 0.
0.943241 1.47148 0.
-1176.15 -1904.7 0.
-6.04411 -12.0329 0.
2.9846 4.447 0.
-0.561931 -1.2756 0.
-104.438 -68.2986 0.
-112.895 -49.9346 0.
-100.672 -74.5097 0.
-2416.1 -4686.8 0.
-70.2633 -90.2398 0.
-246.505 -681.331 0.
-1684.59 -2243.98 0.
-64.8042 -90.0373 0.
-2730.91 -4580.14 0.
-7.8087 -21.6231 0.
-52.2126 -104.457 0.
-3201.46 -6093.2 0.
-12.52 -25.4485 0.
-2470.22 -4188.74 0.
-829.006 -886.318 0.
-31.9529 -45.2259 0.
-2299.49 -4534.06 0.
-1138.03 -2298.65 0.
-23.359 -16.8546 0.
-1233.06 -2129.78 0.
-918.852 -1601.39 0.
-666.564 -1166.34 0.
-1218.36 -1858.92 0.
-1081.86 -1684.96 0.
-837.706 -1211.03 0.
-792.28 -1108.55 0.
-748.002 -1006.75 0.
-776.79 -990.118 0.
-745.608 -959.471 0.
-720.853 -922.398 0.
-852.644 -1084.23 0.
-829.655 -1062.28 0.
-809.671 -1037.32 0.
-1416.69 -1595.39 0.
-1324.86 -1451.8 0.
-1076.9 -1012.25 0.
-1059.77 -970.903 0.
-1043.91 -927.87 0.
-1304.38 -1162.59 0.
-1293.9 -1151.81 0.
-1287.32 -1148.43 0.
-1592.01 -1442.51 0.
-1721.5 -1746.26 0.
-1852.13 -2048.84 0.
0.0693397 0.312691 0.
-0.0935234 -0.213636 0.
-10993.5 -4509.21 0.
-10.4953 -4.07871 0.
-11.4335 -4.87268 0.
-1845.58 -2123.28 0.
-1698.5 -1787.74 0.
-1551.93 -1451.68 0.
-1208.81 -1018.04 0.
-1262.48 -1058.2 0.
-1291.45 -1141.92 0.
-1057.28 -918.081 0.
-1069.22 -945.425 0.
-1083.18 -970.758 0.
-1338.11 -1400.28 0.
-1410.64 -1528.88 0.
-792.424 -975.848 0.
-832.737 -1073.55 0.
-881.936 -1170.48 0.
-796.302 -882.312 0.
-787.636 -896.502 0.
-780.616 -909.047 0.
-680.796 -1041.14 0.
-742.008 -1136.62 0.
-807.278 -1230.16 0.
-1016.14 -1530.62 0.
-1193.84 -1738.72 0.
-514.326 -849.784 0.
-913.578 -1667.19 0.
-1416.67 -2584.36 0.
-11.9226 -26.63 0.
-1194.25 -2227.28 0.
-2774.78 -5515.48 0.
-183.915 -76.1225 0.
-561.623 -351.62 0.
-2272.25 -3524.15 0.
-35.4428 -34.1486 0.
-3653.77 -7112.63 0.
-13.2824 -31.1158 0.
-13.6213 -31.7369 0.
-2721.05 -4421.81 0.
-6.18589 -12.9339 0.
-2758.88 -4572.57 0.
-0.404369 -0.256141 0.
-2.99383 -4.23653 0.
-13.3169 -9.26885 0.
-0.845858 -0.00860137 0.
-488.616 -531.555 0.
-51.1816 -122.144 0.
-1951.11 -3087.71 0.
-134.95 -169.578 0.
-2711.43 -4737.85 0.
-2174.77 -3415.02 0.
-25.3305 -45.4229 0.
-1471.17 -2493.07 0.
1.46404 1.88806 0.
-216.116 -191.195 0.
-980.439 -1127.95 0.
-2287.72 -3852.02 0.
0.192377 0.000771304 0.
-0.776319 -0.00453141 0.
0.950715 0.542394 0.
-961.387 -1849.2 0.
-66.302 -98.1468 0.
-7.8295 -19.8601 0.
-5.12457 -14.0609 0.
-29.8087 -56.4169 0.
-209.966 -402.937 0.
-6.20746 -14.9403 0.
-64.9704 -85.7395 0.
-20.4791 -45.9044 0.
-15.1127 -28.1438 0.
-509.878 -712.018 0.
-11.6141 -11.2809 0.
-38.6549 -24.6731 0.
-581.772 -998.156 0.
-363.9 -439.385 0.
-202.698 -212.297 0.
-939.923 -1514.32 0.
-826.742 -1390.58 0.
-728.279 -1074.7 0.
-673.869 -1001.11 0.
-640.21 -927.957 0.
-740.167 -856.288 0.
-713.935 -824.715 0.
-688.016 -807.756 0.
-761.048 -888.35 0.
-742.816 -873.704 0.
-723.893 -860.063 0.
-1235.92 -1374.06 0.
-1152.26 -1247.29 0.
-984.233 -909.803 0.
-964.799 -870.864 0.
-945.68 -832.097 0.
-1159.47 -967.968 0.
-1161.07 -962.838 0.
-1141.98 -1001.64 0.
-1358.34 -1279.82 0.
-1483.59 -1584.61 0.
-1611.32 -1891.26 0.
0.0188592 0.409792 0.
0.0102202 0.0960752 0.
-8693.44 -3489.5 0.
-7.18279 -3.04951 0.
-8.40423 -4.02803 0.
-1618.95 -1963.77 0.
-1445.48 -1589.82 0.
-1290.99 -1245.36 0.
-1041.64 -856.893 0.
-1051.83 -905.065 0.
-1127.01 -919.966 0.
-914.573 -816.64 0.
-923.006 -836.963 0.
-937.911 -871.076 0.
-1149.98 -1228.14 0.
-1223.47 -1330.13 0.
-725.314 -854.928 0.
-746.137 -902.203 0.
-786.273 -986.035 0.
-752.671 -811.707 0.
-750.022 -818.705 0.
-753.739 -826.061 0.
-599.596 -856.475 0.
-631.549 -914.982 0.
-679.511 -1007.24 0.
-693.402 -1115.16 0.
-819.09 -1271.86 0.
-115.266 -62.5789 0.
-218.48 -96.5315 0.
-602.924 -1046.27 0.
-7.28859 -16.4569 0.
-24.0388 -25.8611 0.
-233.775 -150.728 0.
-51.6357 -24.0293 0.
-19.327 -18.3979 0.
-16.5003 -15.0491 0.
-9.99876 -8.31457 0.
-22.7577 -34.3784 0.
-5.34173 -14.3584 0.
-9.39016 -24.6673 0.
-14.5944 -37.6597 0.
0.183268 0.347003 0.
-0.0414686 -0.0701375 0.
0.607929 0.43158 0.
-2676.92 -5285.14 0.
-40.385 -47.8726 0.
-2229.6 -4182.67 0.
-504.186 -511.769 0.
-27.5333 -75.1526 0.
-32.3321 -41.2736 0.
-0.0259798 -2.80834 0.
-41.1611 -69.4124 0.
-17.978 -36.3853 0.
-0.00172599 -0.298475 0.
0.750501 1.1763 0.
-1.60936 -4.78647 0.
-8.62195 -21.5565 0.
-213.669 -244.983 0.
-43.4015 -21.7371 0.
-1.76413 -0.0591217 0.
1.01587 0.030325 0.
1.09021 0.603419 0.
-602.8 -1311.08 0.
-71.8 -108.079 0.
-12.6606 -18.4586 0.
-4.57954 -9.84886 0.
-17.1661 -38.8056 0.
-46.9936 -79.7696 0.
-15.6058 -34.0849 0.
-65.4982 -94.5953 0.
-18.2599 -43.0756 0.
-13.3738 -26.1791 0.
-165.514 -116.559 0.
-49.1611 -41.6562 0.
-64.4671 -51.7442 0.
-357.68 -238.102 0.
-123.865 -101.547 0.
-195.661 -172.328 0.
-858.606 -1200.92 0.
-503.985 -488.839 0.
-543.431 -542.289 0.
-539.567 -502.802 0.
-298.092 -127.754 0.
-806.346 -770.808 0.
-438.461 -227.638 0.
-137.929 -52.7683 0.
-541.519 -410.136 0.
-574.402 -481.598 0.
-612.095 -547.566 0.
-932.459 -791.435 0.
-996.586 -880.276 0.
-801.716 -414.549 0.
-830.289 -503.23 0.
-710.757 -306.412 0.
-869.778 -496.664 0.
-835.445 -438.408 0.
-1066.03 -993.603 0.
-1035.02 -912.364 0.
-958.537 -721.352 0.
-1012.79 -859.605 0.
0.00223001 0.0967765 0.
0.00356674 0.390262 0.
-7558.05 -3378.11 0.
-3.59889 -1.36093 0.
-3.50865 -1.27471 0.
-1109.38 -1065.23 0.
-1031.36 -837.998 0.
-1071.18 -900.335 0.
-882.192 -481.161 0.
-999.929 -723.954 0.
-979.898 -569.98 0.
-743.424 -492.296 0.
-693.18 -359.633 0.
-703.621 -265.186 0.
-836.925 -605.485 0.
-1020.51 -1033.3 0.
-504.877 -220.629 0.
-615.21 -387.916 0.
-302.554 -129.404 0.
-410.961 -206.16 0.
-318.737 -134.351 0.
-229.89 -89.538 0.
-219.079 -84.9339 0.
-482.197 -390.386 0.
-506.572 -494.414 0.
-283.993 -174.293 0.
-712.67 -1032.63 0.
-143.573 -79.545 0.
-86.922 -49.9007 0.
-31.8303 -31.7872 0.
-26.5087 -32.8504 0.
-52.4297 -36.2934 0.
-97.2397 -45.6021 0.
-84.4699 -35.167 0.
-44.8644 -34.1486 0.
-24.2271 -32.5286 0.
-7.47935 -16.8424 0.
-14.8645 -39.6165 0.
-1.60692 -4.29427 0.
-6.16568 -17.0728 0.
-11.7151 -32.0033 0.
0.762259 1.35108 0.
1.24154 1.57591 0.
0.249325 0.16039 0.
-82.1137 -206.354 0.
-12.8242 -12.5099 0.
-278.874 -340.366 0.
-1118.71 -1029.56 0.
-13.5956 -35.96 0.
-2280.35 -3757.27 0.
-99.6822 -264.178 0.
-1419.93 -2084.54 0.
-1706.49 -2707.28 0.
0.785548 1.88783 0.
-2339.7 -3606.18 0.
3.43803 4.81013 0.
-1878.85 -4295.95 0.
-1378.73 -1727.82 0.
-149.605 -123.564 0.
2.97604 0.221554 0.
0.32751 0.0156995 0.
-2119.24 -4004.81 0.
-973.955 -1191.98 0.
-111.458 -216.082 0.
-2800.57 -4867.38 0.
-32.3044 -89.4777 0.
-58.9498 -133.761 0.
-3106.33 -6123.64 0.
-1.83173 -4.97021 0.
-3257.09 -4627.32 0.
-0.0119625 -0.289997 0.
0.0266099 0.0731909 0.
-3073.54 -6571.31 0.
-37.7062 -30.2516 0.
-67.7411 -89.4737 0.
-1999.24 -4351.37 0.
-687.26 -1355.87 0.
-37.591 -42.5585 0.
-1252.15 -2297.83 0.
-832.87 -1437.27 0.
-857.982 -1427.46 0.
-680.265 -1061.81 0.
-508.962 -697.1 0.
-711.181 -984.55 0.
-666.906 -901.705 0.
-619.206 -825.678 0.
-665.142 -747.994 0.
-629.751 -688.959 0.
-587.272 -638.389 0.
-1030.93 -1122.67 0.
-1010.16 -1087.8 0.
-746.105 -721.282 0.
-745.432 -714.107 0.
-758.345 -743.749 0.
-862.846 -854.156 0.
-853.688 -838.876 0.
-847.559 -831.204 0.
-838.014 -926.43 0.
-907.385 -1080.1 0.
-990.758 -1245.03 0.
0.00167394 0.165795 0.
0.00295306 0.427672 0.
-5430.42 -2574.73 0.
-2.91185 -1.09871 0.
-3.1721 -1.1805 0.
-960.995 -1165.64 0.
-924.059 -1070.9 0.
-895.044 -966.697 0.
-908.367 -890.9 0.
-881.369 -817.853 0.
-822.869 -773.74 0.
-773.722 -733.722 0.
-762.068 -724.391 0.
-754.746 -726.153 0.
-1027.89 -1106.25 0.
-1049.86 -1137.31 0.
-631.1 -704.684 0.
-675.438 -780.809 0.
-717.363 -857.633 0.
-643.237 -818.296 0.
-739.962 -1008.69 0.
-834.962 -1198.16 0.
-502.659 -688.583 0.
-737.511 -1192.4 0.
-986.971 -1683.89 0.
-884.199 -1577.07 0.
-1575.29 -3017.68 0.
-17.1004 -12.0849 0.
-793.262 -1309.01 0.
-2475.76 -5095.84 0.
0.102647 5.42163e-08 0.
-0.042966 -0.000531207 0.
-3150.96 -6485.25 0.
-5.30688 -8.25709 0.
-0.822677 -1.59065 0.
-2961.65 -4867.04 0.
0.272789 0.140321 0.
-2692.73 -2821.94 0.
-6.04078 -9.81926 0.
-2696.7 -5440.17 0.
-20.7122 -48.2406 0.
-22.6052 -52.2624 0.
-2168.28 -3244.27 0.
-0.894035 -0.270181 0.
0.718246 0.0768036 0.
-23.4097 -54.1725 0.
-247.554 -350.32 0.
-81.3426 -178.456 0.
1.64295 3.00242 0.
1.69401 3.54055 0.
-1.02368 -5.58719 0.
-1960.27 -2633.08 0.
-1555.71 -2125.74 0.
2.77302 6.45724 0.
-96.4619 -157.072 0.
0.285876 3.82215 0.
-13.952 -29.9733 0.
-0.00366881 -3.66671 0.
-112.734 -114.136 0.
2.09207 0.462697 0.
1.09392 1.13985 0.
-231.31 -268.583 0.
-76.7662 -198.531 0.
-42.5867 -113.79 0.
-50.5424 -114.551 0.
-15.2222 -33.4597 0.
0.108873 0.0492798 0.
-89.8701 -203.737 0.
-4.20347 -9.85048 0.
-47.3114 -22.6081 0.
-6.90282 -3.41101 0.
-0.0431331 -0.117901 0.
-15.6933 -13.0643 0.
-21.6438 -22.4423 0.
-57.2929 -77.3574 0.
-380.845 -597.661 0.
-42.3767 -56.5265 0.
-27.2366 -12.7343 0.
-664.858 -1099.9 0.
-295.004 -192.903 0.
-584.552 -858.672 0.
-443.791 -458.562 0.
-249.973 -115.355 0.
-586.51 -759.721 0.
-540.78 -680.773 0.
-500.336 -597.106 0.
-604.962 -631.61 0.
-570.576 -573.053 0.
-539.996 -534.934 0.
-1002.16 -1106.35 0.
-982.483 -1073.22 0.
-660.88 -562.122 0.
-661.861 -552.418 0.
-668.784 -559.129 0.
-706.319 -760.984 0.
-692.909 -730.326 0.
-680.14 -698.708 0.
-618.364 -805.686 0.
-689.648 -978.015 0.
-766.636 -1148.19 0.
0.00485841 0.233827 0.
0.0142862 0.188854 0.
-3646.48 -1686.18 0.
-4.47345 -2.20266 0.
-2.53838 -0.963578 0.
-756.921 -961.139 0.
-714.304 -871.491 0.
-671.029 -782.702 0.
-759.494 -748.043 0.
-722.856 -681.407 0.
-690.031 -616.071 0.
-694.39 -587.735 0.
-689.353 -574.317 0.
-699.838 -597.541 0.
-1024.47 -1099.8 0.
-1046.24 -1130.15 0.
-557.791 -567.448 0.
-599.953 -646.502 0.
-642.149 -731.99 0.
-427.476 -542.088 0.
-513.019 -740.963 0.
-617.422 -927.424 0.
-28.3406 -11.0937 0.
-388.208 -390.428 0.
-601.283 -920.696 0.
-27.7275 -27.1331 0.
-743.219 -1182.05 0.
-76.5416 -36.4074 0.
-35.9305 -17.2579 0.
-5.3106 -1.99286 0.
-0.004936 -5.19838e-05 0.
0.294559 0.00680734 0.
-35.0902 -29.404 0.
-12.4311 -21.3726 0.
0.0572487 0.130264 0.
-9.54434 -8.01095 0.
-34.5269 -41.5614 0.
-102.323 -109.949 0.
-194.083 -154.653 0.
-426.009 -422.528 0.
-0.0205325 -0.737923 0.
-21.4416 -53.3005 0.
-31.4497 -75.7318 0.
-1612.21 -2957.89 0.
0.501785 0.154232 0.
-37.7723 -102.576 0.
-335.642 -487.454 0.
-2392.95 -4620.65 0.
1.37603 2.12524 0.
-1917.29 -3236.59 0.
5.92272 9.56158 0.
-983.86 -1391.99 0.
-1161.37 -1493.96 0.
5.25727 9.63115 0.
-1583.24 -2511.1 0.
0.103093 0.403558 0.
-77.4869 -138.271 0.
-0.114509 -7.18011 0.
-73.1467 -115.752 0.
-1719.53 -2834.56 0.
0.51361 0.496529 0.
-238.977 -283.23 0.
-80.1457 -115.161 0.
-29.2797 -65.1139 0.
-7.82761 -11.9519 0.
-17.6952 -29.4417 0.
-39.3486 -104.6 0.
-1529.59 -3505.93 0.
-1.96466 -5.17082 0.
-2424.77 -4383.02 0.
-18.7527 -27.0654 0.
-75.0331 -89.807 0.
-2803.71 -6121.99 0.
-24.6497 -13.6566 0.
-33.4992 -24.9549 0.
-2471.49 -5203.5 0.
-120.788 -214.442 0.
-7.66436 -10.4852 0.
-1841.64 -3867.5 0.
-877.697 -1665.04 0.
-1183.5 -2146.77 0.
-823.03 -1405.42 0.
-504.712 -636.919 0.
-836.663 -1403.99 0.
-699.914 -1146.81 0.
-566.274 -886.743 0.
-797.939 -1019.86 0.
-762.437 -951.615 0.
-727.728 -888.058 0.
-1127 -1529.86 0.
-1108.33 -1497.13 0.
-820.615 -1002.27 0.
-799.708 -961.055 0.
-784.589 -934.978 0.
-793.506 -1060.83 0.
-773.393 -1136.91 0.
-795.92 -1180.68 0.
-792.241 -1296.57 0.
-791.389 -1280.69 0.
-727.554 -1329.61 0.
0.0691722 0.144559 0.
0.220769 0.510376 0.
-4206.35 -3971.83 0.
-6.73137 -8.55518 0.
-4.46221 -4.5202 0.
-673.931 -1233.9 0.
-683.35 -1241.79 0.
-695.282 -1254.79 0.
-811.467 -1100.08 0.
-797.95 -1070.55 0.
-788.491 -1053.16 0.
-847.285 -977.549 0.
-841.503 -960.158 0.
-835.78 -942.9 0.
-1132.39 -1497.94 0.
-1169.37 -1591.94 0.
-677.51 -839.983 0.
-736.125 -933.485 0.
-803.883 -1044.63 0.
-484.043 -772.12 0.
-715.507 -1239.1 0.
-958.845 -1698.97 0.
-399.459 -387.518 0.
-865.656 -1431.6 0.
-1385.55 -2432.49 0.
-761.025 -1148.66 0.
-1953.44 -4038.93 0.
-34.6472 -14.5217 0.
0.0822354 0.0720189 0.
-2821.3 -6212.5 0.
0.0631445 0.0370567 0.
-0.0532384 -0.0445437 0.
-2698.05 -3504.18 0.
-92.066 -39.8052 0.
-3292.33 -6306.09 0.
-22.3778 -9.37574 0.
-72.2882 -26.1006 0.
-2612.41 -4786.5 0.
-710.592 -394.122 0.
-974.541 -1132.87 0.
0.425465 1.15005 0.
-21.3237 -55.7069 0.
0.00813244 0.0180177 0.
-15.3581 -23.526 0.
-1335.65 -2135.12 0.
-114.086 -254.588 0.
0.000410241 2.08971 0.
-1.23024 -9.17731 0.
-0.316703 -13.1705 0.
-129.872 -227.792 0.
2.30525 3.24261 0.
-934.249 -1313.12 0.
-972.101 -1468.33 0.
4.60166 6.86137 0.
0.627256 1.10795 0.
-63.2891 -107.831 0.
-1670.26 -2896.17 0.
2.44508 6.04327 0.
-80.4095 -141.882 0.
3.17332 1.85298 0.
2.7398 0.240491 0.
-538.797 -1079.94 0.
-46.0734 -63.425 0.
-1532.66 -2226.45 0.
-149.512 -300.953 0.
-1914.26 -3706.34 0.
-0.869724 -1.86352 0.
-121.6 -302.449 0.
-3.12255 -8.20871 0.
-4.76747 -12.5805 0.
-10.5743 -17.2673 0.
-12.8492 -22.0467 0.
-35.6484 -56.0135 0.
0.405748 0.147458 0.
0.389934 0.141811 0.
-46.8422 -71.1951 0.
-21.8606 -8.48541 0.
-6.09633 -8.60159 0.
-632.873 -1177.6 0.
-70.1707 -45.1982 0.
-588.386 -880.36 0.
-227.839 -136.239 0.
-52.8379 -30.9836 0.
-534.897 -948.518 0.
-402.657 -655.706 0.
-294.011 -344.734 0.
-632.855 -878.621 0.
-600.83 -810.283 0.
-569.611 -750.952 0.
-948.899 -1414.78 0.
-932.249 -1384.17 0.
-674.883 -852.288 0.
-663.926 -829.79 0.
-672.437 -864.519 0.
-565.164 -943.598 0.
-588.889 -991.884 0.
-613.024 -1041.04 0.
-489.613 -1165.12 0.
-495.632 -1155.75 0.
-501.39 -1231.04 0.
-0.661897 -1.24403 0.
-67.826 -135.63 0.
-2044.51 -2998.13 0.
-2.14365 -2.3319 0.
-1.44571 -0.968437 0.
-454.85 -1176.57 0.
-447.337 -1129.89 0.
-464.257 -1113.76 0.
-601.553 -1024.36 0.
-590.203 -990.706 0.
-576.353 -960.528 0.
-661.514 -882.81 0.
-641.633 -826.739 0.
-635.046 -810.104 0.
-963.688 -1384.17 0.
-999.921 -1473.59 0.
-474.695 -580.255 0.
-525.959 -680.852 0.
-579.682 -780.402 0.
-153.297 -63.4671 0.
-388.812 -529.996 0.
-589.049 -1029.07 0.
-29.4424 -27.3055 0.
-20.9465 -16.6505 0.
-580.045 -654.733 0.
-8.63442 -3.90181 0.
-546.084 -574.621 0.
-26.7566 -14.4117 0.
-0.129881 -0.11664 0.
0.121748 0.088921 0.
-0.0951801 -0.0335275 0.
-0.0330536 -0.0150305 0.
-126.969 -60.2048 0.
-1.53254 -4.08053 0.
-20.9133 -10.3633 0.
-6.65345 -2.77685 0.
0.0316331 0.00753494 0.
-24.9865 -9.15027 0.
-0.0341603 -0.0114703 0.
-317.297 -417.141 0.
-2718.2 -5801.63 0.
-21.1755 -57.0443 0.
0.245269 0.548788 0.
-278.769 -261.928 0.
-1137.69 -1724.16 0.
-64.3732 -160.348 0.
0.0123627 0.559293 0.
6.90242 11.6828 0.
-0.916082 -10.9798 0.
-2344.62 -3819.18 0.
7.39946 12.5257 0.
-200.39 -326.22 0.
-213.349 -293.999 0.
1.23216 1.87324 0.
-2002.94 -3500.42 0.
-2.46599 -11.6054 0.
-112.419 -209.456 0.
-1.26648 -13.658 0.
0.903922 4.42971 0.
2.88831 0.0621764 0.
2.17202 0.203494 0.
-0.279672 -0.228196 0.
-1326.09 -2329.87 0.
-120.079 -237.475 0.
-0.00320127 -0.450592 0.
0.233288 0.380385 0.
0.0276535 0.0584751 0.
-212.77 -513.582 0.
-82.5687 -135.592 0.
-52.5996 -53.0697 0.
-13.6175 -18.8725 0.
-15.3295 -22.8501 0.
-17.4256 -32.8151 0.
0.117769 0.00121569 0.
0.0738532 4.73201e-05 0.
-42.1819 -29.6408 0.
-3.68208 -2.08137 0.
-8.91612 -10.1328 0.
-72.7457 -40.2069 0.
-45.0814 -38.4973 0.
-42.2298 -39.6617 0.
-37.4052 -31.8466 0.
-53.3297 -34.8568 0.
-276.66 -316.358 0.
-106.726 -53.0004 0.
-81.5837 -61.5296 0.
-344.786 -403.045 0.
-289.032 -249.916 0.
-56.9615 -45.9627 0.
-356.581 -311.764 0.
-484.359 -663.663 0.
-83.3202 -47.528 0.
-284.643 -403.447 0.
-146.382 -149.615 0.
-117.112 -194.791 0.
-177.079 -330.802 0.
-221.428 -420.002 0.
-80.3074 -171.163 0.
-59.3289 -115.797 0.
-55.5474 -103.231 0.
-0.0525563 -0.280821 0.
-49.1299 -93.1463 0.
-649.25 -1447.92 0.
-0.401682 -0.362507 0.
-0.489735 -0.632789 0.
-29.308 -75.8822 0.
-26.5459 -69.527 0.
-55.4649 -139.664 0.
-200.441 -479.965 0.
-134.864 -342.944 0.
-117.837 -285.218 0.
-161.719 -141.458 0.
-221.33 -240.53 0.
-264.449 -242.077 0.
-464.66 -476.521 0.
-356.863 -188.796 0.
-39.491 -26.8923 0.
-290.26 -296.603 0.
-421.709 -633.498 0.
-50.82 -26.7556 0.
-33.2142 -23.8187 0.
-334.292 -372.648 0.
-53.5106 -36.645 0.
-37.0602 -23.1869 0.
-31.1989 -14.0397 0.
-26.5284 -11.178 0.
-8.81095 -3.66992 0.
-30.8703 -19.4763 0.
0.0896419 0.0805653 0.
-0.223651 -0.178065 0.
-0.107139 -0.01867 0.
-0.121774 -0.0216576 0.
-114.483 -59.5686 0.
-14.798 -12.2704 0.
-5.26555 -3.36026 0.
0.0779897 0.141819 0.
0.0816649 0.0450049 0.
0.0528417 0.0255846 0.
-6.22321 -5.70406 0.
-62.569 -149.405 0.
-94.9875 -248.96 0.
-34.8507 -81.0085 0.
-0.239876 -2.2829 0.
-137.002 -96.9873 0.
1.90947 4.70748 0.
-790.647 -966.749 0.
-0.33833 -5.57922 0.
-1367.01 -2123.83 0.
6.3752 11.6412 0.
2.99767 4.72914 0.
-3.61738 -12.7583 0.
-3.73535 -5.23011 0.
69.7269 121.102 0.
7.38248 13.1356 0.
-680.816 -1188.31 0.
-75.2962 -133.093 0.
-1010.29 -1914.7 0.
2.01452 4.04193 0.
-1622.54 -3378.85 0.
-857.692 -1464.59 0.
5.56613 0.339162 0.
-923.365 -1699.88 0.
-88.8654 -102.102 0.
-15.4153 -15.9017 0.
-0.00177797 -0.139075 0.
0.295633 0.500166 0.
-0.0784359 -0.56612 0.
-1508.93 -2310.72 0.
-1.66317 -1.85388 0.
0.78914 0.00691633 0.
-2739.77 -6100.7 0.
-10.1205 -11.9537 0.
-2171.66 -3420.53 0.
-31.2582 -61.5817 0.
-14.903 -27.6628 0.
-2474.54 -5443.28 0.
-56.3774 -70.101 0.
-0.152969 -0.00658092 0.
-2235.03 -5259.2 0.
-230.978 -242.666 0.
-1651.86 -3253.55 0.
-787.471 -1350.27 0.
-31.7083 -11.4678 0.
-1120.94 -2536.96 0.
-629.493 -1409.25 0.
-178.293 -237.889 0.
-699.766 -1526.77 0.
-487.532 -1012.03 0.
-299.504 -517.559 0.
-664.769 -1430.57 0.
-632.288 -1362.59 0.
-425.362 -800.557 0.
-443.858 -851.234 0.
-479.329 -935.206 0.
-331.106 -856.719 0.
-360.961 -935.352 0.
-392.201 -1016.16 0.
-349.536 -924.64 0.
-323.269 -858.424 0.
-299.337 -795.531 0.
-144.402 -254.628 0.
-271.059 -608.094 0.
-385.076 -1061.21 0.
-192.124 -458.011 0.
-60.4931 -125.969 0.
-299.857 -819.032 0.
-313.386 -849.87 0.
-327.812 -881.319 0.
-351.986 -961.869 0.
-313.112 -867.218 0.
-278.813 -761.568 0.
-419.775 -833.704 0.
-402.505 -795.49 0.
-388.873 -768.527 0.
-647.794 -1395.11 0.
-725.07 -1554.25 0.
-257.841 -352.292 0.
-541.768 -1128.96 0.
-849.195 -1882.94 0.
-0.855489 -0.529377 0.
-706.849 -1431.96 0.
-1354.56 -2944.9 0.
-9.42819 -4.61528 0.
-828.145 -1128.16 0.
-1887.23 -3538.22 0.
-5.33999 -2.57986 0.
-2367.77 -4929.8 0.
-38.3771 -16.5071 0.
-0.150595 -0.13621 0.
-2582.35 -5646.08 0.
-0.178842 -0.206034 0.
-0.23587 -0.26942 0.
-2464.94 -4177.19 0.
-74.0432 -29.5481 0.
-1880.46 -2596.16 0.
0.474531 0.118339 0.
-2134.21 -4715.93 0.
-0.226245 -0.113893 0.
-18.0774 -20.0676 0.
-0.0677176 -1.09183 0.
-71.3283 -194.936 0.
0.0646351 0.143226 0.
-2097.39 -3644.97 0.
-147.883 -87.6186 0.
2.80806 7.76283 0.
-868.012 -1804.73 0.
0.0904324 1.51057 0.
-2.07218 -14.215 0.
3.99085 7.06938 0.
-1288.9 -1740.08 0.
-4.29303 -6.55056 0.
0.317092 0.571278 0.
-515.633 -676.598 0.
-10.1883 -16.2797 0.
-851.121 -1372.51 0.
-3.16444 -5.95239 0.
-578.513 -1163 0.
-12.2661 -22.9975 0.
8.66515 19.1758 0.
0.0103643 12.8795 0.
0.229952 13.1604 0.
-99.616 -171.216 0.
-68.8152 -82.2502 0.
-2.12366 -2.36378 0.
-765.307 -1588.79 0.
0.492851 1.29172 0.
-2321.13 -4882.87 0.
0.182762 0.900695 0.
0.205205 0.742817 0.
0.875174 0.0675073 0.
0.140871 0.0309772 0.
0.169281 0.130921 0.
-51.2814 -124.459 0.
-21.3283 -28.0304 0.
-9.3514 -19.5852 0.
-73.7256 -123.537 0.
-21.2565 -10.4424 0.
0.491377 0.180303 0.
-51.7141 -34.957 0.
-9.69323 -3.51633 0.
-292.74 -277.808 0.
-16.5148 -6.31555 0.
-22.7335 -9.82379 0.
-501.652 -1053.48 0.
-29.5373 -13.6696 0.
-33.1297 -21.0919 0.
-466.82 -1071.98 0.
-275.915 -541.094 0.
-169.71 -207.248 0.
-525.893 -1260.64 0.
-488.278 -1202.19 0.
-312.973 -674.109 0.
-321.905 -687.053 0.
-350.091 -750.209 0.
-270.487 -714.54 0.
-297.873 -797.097 0.
-326.773 -878.607 0.
-287.698 -770.805 0.
-263.451 -704.836 0.
-239.084 -638.64 0.
-288.637 -587.092 0.
-393.03 -966.815 0.
-528.699 -1463.2 0.
-315.27 -792.934 0.
-212.06 -466.679 0.
-231.483 -624.426 0.
-246.071 -658.096 0.
-260.038 -692.717 0.
-299.527 -811.275 0.
-267.366 -717.219 0.
-236.88 -622.805 0.
-261.221 -706.866 0.
-251.412 -667.158 0.
-249.078 -635.989 0.
-464.298 -1146.85 0.
-532.383 -1302.61 0.
-16.3092 -18.116 0.
-288.662 -468.652 0.
-566.823 -1253.75 0.
-0.723358 -0.510869 0.
0.034973 0.0772829 0.
-523.639 -843.703 0.
-34.073 -14.1741 0.
-5.82319 -2.6507 0.
-10.7665 -5.28494 0.
-2.05928 -1.3902 0.
-5.35887 -2.96816 0.
-7.20569 -4.1538 0.
-0.0581252 -0.0479908 0.
-3.07085 -4.79762 0.
-0.0327456 -0.0641934 0.
0.0204457 0.0268521 0.
-50.2471 -55.3195 0.
-192.489 -163.323 0.
-55.7596 -55.084 0.
0.504144 0.166298 0.
-0.00845072 -0.248585 0.
-0.00506897 -0.174978 0.
-1876.85 -2706.28 0.
-1285.27 -2689.08 0.
-210.354 -575.624 0.
-0.406957 -2.93243 0.
3.58553 6.65824 0.
-272.999 -310.035 0.
-983.352 -2582.11 0.
-921.265 -1745.83 0.
-0.246609 -1.71383 0.
-1324.72 -2769.12 0.
3.03258 5.22686 0.
-1257.81 -2125.21 0.
-13.442 -24.1186 0.
57.8264 29.8661 0.
-9.30559 -168.936 0.
-999.157 -1393.62 0.
8.11463 14.1709 0.
1.73797 3.21067 0.
-0.937936 -7.58387 0.
-21.035 -39.7336 0.
6.90059 15.5772 0.
-0.410954 -22.8968 0.
2.74261 9.91162 0.
-1050.65 -1872.59 0.
-336.117 -394.635 0.
-2.22728 -2.71898 0.
-834.156 -1995.15 0.
0.20266 0.485534 0.
-52.6238 -142.808 0.
0.765162 0.890695 0.
1.20188 0.0344386 0.
0.71641 0.361092 0.
-0.187524 -0.0475813 0.
-174.682 -265.584 0.
-1809.44 -3649.24 0.
-50.4489 -105.795 0.
-3.3871 -1.33517 0.
-2089.23 -4932.57 0.
-6.41962 -2.35053 0.
-14.1817 -6.33344 0.
-2212.36 -4997.03 0.
-31.342 -13.6361 0.
-1723.51 -3537 0.
-487.951 -651.59 0.
-42.6311 -19.881 0.
-1390.96 -3239.06 0.
-574.095 -1267.08 0.
-21.1047 -12.6286 0.
-941.709 -2247.31 0.
-538.761 -1260.92 0.
-162.92 -249.226 0.
-718.822 -1714.08 0.
-603.818 -1520.24 0.
-423.719 -1055.3 0.
-380.174 -994.526 0.
-363.993 -964.378 0.
-334.786 -899.761 0.
-341.802 -928.683 0.
-349.931 -954.156 0.
-353.801 -937.898 0.
-295.592 -778.166 0.
-242.31 -630.353 0.
-310.936 -736.21 0.
-349.2 -852.241 0.
-759.691 -1436.33 0.
-251.999 -648.988 0.
-244.289 -602.712 0.
-253.187 -657.153 0.
-282.315 -745.439 0.
-315.132 -842.122 0.
-355.702 -960.248 0.
-346.623 -931.693 0.
-341.541 -899.964 0.
-354.467 -970.811 0.
-405.241 -1084.71 0.
-473.732 -1189.73 0.
-608.845 -1557 0.
-774.779 -1861.85 0.
-116.569 -72.261 0.
-574.248 -1304.29 0.
-1061.54 -2515.05 0.
-7.44839 -9.50533 0.
-544.869 -958.429 0.
-1656.78 -3806.81 0.
-47.2306 -17.2252 0.
-449.93 -202.347 0.
-1915.47 -3307.95 0.
-0.322365 -0.00221042 0.
-2439.78 -5621.3 0.
0.127515 0.161288 0.
-0.0115398 -0.0141372 0.
-1996.47 -2437.08 0.
0.164929 0.165859 0.
-2257.23 -5390.46 0.
-1120.99 -1179.36 0.
-511.11 -447.86 0.
-78.3412 -68.7109 0.
0.369377 0.404789 0.
-4.80502e-06 -0.271003 0.
-0.0738441 -2.19392 0.
-0.572116 -2.1671 0.
1.58888 4.05937 0.
0.889762 2.09251 0.
-0.966546 -5.63056 0.
2.50407 4.80775 0.
-6.12645 -14.1301 0.
10.1367 25.3787 0.
8.33772 18.2021 0.
4.68578 9.55701 0.
-3.31641 -15.3133 0.
-5.49605 -20.5466 0.
0.0234951 0.140449 0.
-615.397 -996.358 0.
-15.2403 -164.191 0.
-1.97085 -70.2362 0.
-1.19986 -1.76363 0.
-1.92745 -10.8356 0.
-3.93828 -20.7393 0.
0.00227386 0.00456649 0.
-94.0538 -179.862 0.
-1067.25 -2524.49 0.
0.228182 0.583215 0.
-1020.12 -2298.12 0.
0.102352 4.74058 0.
-280.695 -289.966 0.
-594.447 -1317.61 0.
-103.856 -193.679 0.
-24.0526 -34.144 0.
-118.066 -304.569 0.
-77.2501 -187.109 0.
-2315.77 -4353.3 0.
-5.01312 -13.7811 0.
-1703.83 -3465.33 0.
-4.61387 -5.93117 0.
-0.282086 -0.214165 0.
-50.5384 -123.362 0.
0.146903 0.0215132 0.
-9.76877 -5.06257 0.
-0.0791882 -0.0316188 0.
-5.63121 -2.79225 0.
-47.3227 -53.6664 0.
-0.311932 -0.755388 0.
-24.8453 -10.5476 0.
-22.4442 -9.45895 0.
-24.357 -10.5294 0.
-398.62 -812.113 0.
-19.9447 -12.0153 0.
-16.2743 -11.9569 0.
-468.951 -1189.21 0.
-96.7278 -172.254 0.
-33.5564 -18.4808 0.
-472.755 -1205.15 0.
-378.367 -996.967 0.
-315.063 -821.288 0.
-279.658 -749.288 0.
-262.837 -701.354 0.
-294.817 -795.178 0.
-303.311 -823.565 0.
-311.605 -847.321 0.
-358.338 -950.945 0.
-312.215 -822.032 0.
-268.906 -700.7 0.
-334.488 -823.525 0.
-355.951 -900.298 0.
-261.82 -723.115 0.
-293.363 -770.979 0.
-287.3 -716.848 0.
-278.175 -728.809 0.
-302.526 -807.754 0.
-329.738 -894.197 0.
-297.889 -819.675 0.
-289.974 -792.476 0.
-284.541 -761.387 0.
-217.924 -601.612 0.
-262.724 -722.483 0.
-318.496 -841.27 0.
-293.268 -785.764 0.
-431.58 -1116.97 0.
-32.5818 -18.2311 0.
-3.88532 -7.4831 0.
-501.36 -1169.79 0.
-18.0989 -13.6395 0.
-5.22547 -5.41122 0.
-389.687 -664.949 0.
-56.8723 -21.8712 0.
0.238135 0.0869236 0.
0.0106304 2.76329e-05 0.
0.263186 0.0969237 0.
-6.07206 -2.49431 0.
-2.20327 -2.52344 0.
-0.0338791 -0.038561 0.
-16.926 -15.6941 0.
-0.0654814 -0.0893324 0.
0.166064 0.0512315 0.
0.494813 0.00403878 0.
-5.38051 -8.08199 0.
-412.952 -648.251 0.
-2078.64 -4637.77 0.
-0.00405806 -0.413123 0.
-0.125002 -3.46906 0.
-0.0869406 -0.414067 0.
-2.91989 -7.66139 0.
-1114.62 -2333.71 0.
3.75169 7.12638 0.
-4.13823 -7.90374 0.
-5.54643 -12.6199 0.
-1.4745 -17.9444 0.
8.64949 19.0635 0.
-1.26808 -2.72667 0.
-3.85366 -16.3114 0.
5.04553 7.77915 0.
-11.6286 -44.6323 0.
-532.029 -736.503 0.
-0.867357 -11.2755 0.
27.6397 75.0644 0.
-523.468 -740.749 0.
-11.2157 -44.1132 0.
14.459 26.0104 0.
0.893808 1.79873 0.
1.05842 2.35758 0.
5.38374 10.3472 0.
-73.2511 -167.518 0.
-18.0897 -49.4636 0.
5.63302 15.5813 0.
-237.409 -245.712 0.
-202.108 -457.305 0.
-348.098 -681.324 0.
-100.585 -134.26 0.
-938.556 -1827.81 0.
-28.9911 -59.5368 0.
-29.0105 -80.3063 0.
-5.06376 -13.9464 0.
-8.18068 -14.3824 0.
-0.00109737 -0.00393969 0.
0.00602671 0.559556 0.
-59.1482 -149.517 0.
-38.2267 -86.2218 0.
-3.1664 -1.16781 0.
0.143522 0.0764908 0.
-2.41832 -1.82696 0.
-30.616 -16.7176 0.
-0.900916 -1.45597 0.
-5.94586 -4.09959 0.
-1.63829 -2.08771 0.
-3.95076 -2.9211 0.
-22.8615 -13.1212 0.
-17.2023 -12.4812 0.
-12.7522 -12.2267 0.
-71.0161 -102.88 0.
-8.24376 -7.60186 0.
-29.7679 -15.5213 0.
-71.5708 -137.43 0.
-35.469 -36.8403 0.
-76.9177 -199.838 0.
-17.5433 -34.2031 0.
-13.0516 -14.665 0.
-43.805 -97.3561 0.
-90.9844 -232.864 0.
-6.92451 -5.69861 0.
-89.8829 -191.322 0.
-36.6967 -46.3698 0.
-60.2506 -111.534 0.
-90.5175 -140.332 0.
-108.619 -193.012 0.
-0.460838 -1.06684 0.
-0.581522 -1.35646 0.
-18.2082 -42.8707 0.
-22.4808 -54.3377 0.
-82.5445 -213.641 0.
-10.963 -28.119 0.
-9.7674 -27.0533 0.
-55.2173 -151.102 0.
-26.2139 -70.6385 0.
-24.3047 -44.4649 0.
-49.7197 -122.747 0.
-17.5393 -32.4137 0.
-3.70462 -10.2064 0.
-90.0347 -240.795 0.
-20.1123 -14.8681 0.
-7.99492 -9.27424 0.
-5.88132 -8.56663 0.
-35.4037 -20.3461 0.
-14.8165 -9.33085 0.
-13.1252 -5.71595 0.
-103.19 -42.4811 0.
-5.07633 -2.04538 0.
-0.964783 -0.37117 0.
-11.4478 -4.43478 0.
-16.5489 -7.53524 0.
-11.9054 -10.183 0.
-6.81628 -6.17385 0.
-29.9478 -23.2764 0.
0.130099 0.0527739 0.
0.0775435 0.273188 0.
0.0353122 0.720417 0.
-0.0333944 -0.527405 0.
-8.95656e-06 -1.31177 0.
-0.0499254 -0.657367 0.
-0.0789587 -1.48159 0.
-1691.43 -3327.52 0.
-0.0496249 -6.07808 0.
-31.9407 -84.97 0.
-1.03241 -2.10522 0.
-0.00578146 -27.6006 0.
-1398.04 -2564.92 0.
-874.265 -1974.34 0.
5.99417 13.0179 0.
-1282.37 -2828.64 0.
-249.105 -554.524 0.
8.33914 14.7726 0.
-4.0922 -20.3264 0.
-3.72991 -7.22928 0.
-343.03 -529.9 0.
-5.04136 -85.5535 0.
-0.12173 -6.04985 0.
-870.349 -1317.69 0.
15.4973 27.6313 0.
15.4875 29.6744 0.
-3.18664 -6.28431 0.
-1.89772 -14.381 0.
3.21074 6.21154 0.
-40.1988 -93.7727 0.
-2.23058 -5.95466 0.
-0.0753419 -21.2217 0.
-298.608 -279.137 0.
9.08738 20.9843 0.
-312.642 -572.087 0.
-1062.26 -2026.88 0.
0.0307317 1.3059 0.
-1.40942 -2.64936 0.
-23.9826 -65.4375 0.
-9.18414 -24.4252 0.
-0.939801 -1.95163 0.
-1427.51 -3221.97 0.
-0.0404077 -0.339497 0.
-2024.51 -3101.43 0.
-15.6319 -32.3348 0.
-1640.74 -3486.1 0.
-30.9957 -33.9871 0.
-0.267735 -0.0486259 0.
-2000.59 -4887.02 0.
-3.84566 -6.12365 0.
-1935.96 -3359.84 0.
-92.4164 -121.643 0.
-15.9654 -8.37143 0.
-1879.07 -4586.46 0.
-202.142 -350.493 0.
-39.0524 -33.7693 0.
-1210.77 -3014.74 0.
-455.047 -1113.82 0.
-41.6453 -54.972 0.
-851.749 -2172.55 0.
-544.976 -1440.96 0.
-557.618 -1439.78 0.
-413.1 -1105.19 0.
-283.522 -773.591 0.
-414.483 -1091.92 0.
-321.253 -847.599 0.
-230.218 -605.945 0.
-333.305 -881.369 0.
-277.341 -709.821 0.
-221.255 -541.81 0.
-321.442 -741.291 0.
-390.922 -939.141 0.
-185.83 -503.139 0.
-301.572 -823.988 0.
-240.991 -644.574 0.
-210.153 -526.928 0.
-278.646 -736.499 0.
-350.505 -950.728 0.
-226.02 -614.064 0.
-336.23 -905.362 0.
-450.616 -1197.54 0.
-273.199 -746.352 0.
-443.996 -1179.92 0.
-628.269 -1603.03 0.
-492.023 -1331.07 0.
-919.266 -2404.92 0.
-21.1932 -20.2554 0.
-403.853 -930.621 0.
-1392.51 -3383.23 0.
-17.9491 -7.20835 0.
-0.177388 -0.00313191 0.
-2070.27 -5064.67 0.
0.317049 0.136639 0.
-0.333702 -0.177876 0.
-2018.51 -3012.06 0.
-7.53242 -3.27391 0.
-2205.99 -5182.45 0.
0.042021 0.0145351 0.
-0.672754 -0.739451 0.
-2006.31 -2796.4 0.
-3.69174 -9.75487 0.
-1798.65 -3970.57 0.
-0.79824 -1.92366 0.
0.0026866 0.277006 0.
-0.00111766 -3.49697 0.
1.62056 3.93683 0.
-0.0288829 -0.60143 0.
3.77995 7.22086 0.
-691.846 -1553.56 0.
-66.6382 -178.595 0.
-19.1647 -39.1138 0.
13.5482 32.5077 0.
-1.32187 -22.5091 0.
7.21543 16.4821 0.
6.24136 14.1102 0.
4.85507 10.2694 0.
14.2902 30.0137 0.
17.8046 35.5529 0.
-25.1016 -49.0548 0.
-15.6629 -30.5409 0.
-50.6725 -83.9243 0.
22.2898 52.2479 0.
16.0668 39.4539 0.
97.7607 168.935 0.
59.2358 92.2826 0.
-1393.46 -2464.84 0.
-5.06106 -42.68 0.
-1286.65 -2551.34 0.
-121.14 -238.049 0.
-5.36848 -12.7266 0.
-673.014 -1714.21 0.
-74.5201 -199.736 0.
-111.88 -288.108 0.
-0.0248604 -10.3643 0.
-250.286 -433.884 0.
-627.555 -1091.98 0.
1.44907 1.23672 0.
-51.248 -73.0339 0.
-60.9303 -106.072 0.
-1379.02 -2510.53 0.
0.136826 1.34707 0.
-35.8497 -96.4659 0.
-0.0243893 -0.0376057 0.
0.0810444 0.127996 0.
0.32407 0.016478 0.
-23.3285 -14.1148 0.
0.442867 0.214392 0.
-0.207383 -0.0376182 0.
-47.5031 -64.6305 0.
0.000589079 0.330884 0.
-11.3132 -22.8476 0.
-5.69185 -10.8743 0.
-1.90869 -3.2178 0.
-6.48931 -7.71715 0.
-0.791576 -1.89177 0.
-5.66236 -15.5655 0.
-402.422 -953.908 0.
-14.0905 -27.2475 0.
-22.4498 -31.0746 0.
-451.76 -1165.53 0.
-153.389 -397.338 0.
-343.142 -882.884 0.
-209.07 -540.622 0.
-106.253 -270.185 0.
-356.278 -935.626 0.
-264.921 -691.333 0.
-174.83 -446.183 0.
-315.202 -866.384 0.
-257.121 -695.803 0.
-201.465 -523.057 0.
-355.16 -796.504 0.
-427.567 -991.898 0.
-45.5161 -119.239 0.
-319.435 -884.759 0.
-258.17 -708.81 0.
-202.4 -499.751 0.
-265.342 -717.504 0.
-338.364 -934.547 0.
-117.706 -319.916 0.
-226.62 -614.058 0.
-337.307 -909.309 0.
-34.4434 -93.6406 0.
-169.48 -444.066 0.
-342.849 -879.961 0.
-33.9063 -85.8812 0.
-457.064 -1222.84 0.
-14.2229 -12.7464 0.
-7.89019 -5.48786 0.
-233.902 -455.204 0.
-30.4807 -14.8763 0.
0.112992 0.041418 0.
-0.384198 -2.71325e-09 0.
0.280912 0.146226 0.
-0.518988 -0.345207 0.
-7.80328 -6.78531 0.
-5.67441 -2.11559 0.
-0.58009 -0.213157 0.
0.227941 0.165739 0.
-1.30563 -1.40939 0.
-40.4066 -67.082 0.
-0.216682 -0.600166 0.
-7.40607 -19.2867 0.
-0.14704 -1.90547 0.
-1730.37 -3616.33 0.
-0.166233 -1.79876 0.
-0.286842 -5.61011 0.
4.57622 11.3798 0.
4.21315 8.29976 0.
-4.02215 -9.43672 0.
0.146071 9.85608 0.
-1204.95 -2491.2 0.
-88.1475 -212.232 0.
2.53317 6.09475 0.
-302.514 -676.117 0.
-3.39459 -36.6354 0.
-4.26118 -9.44741 0.
-5.99988 -30.209 0.
8.35707 15.0682 0.
-1.54607 -3.16739 0.
3.11241 5.22994 0.
-1155.07 -1783.98 0.
9.4049 20.4906 0.
11.4384 26.0562 0.
-14.1009 -25.2936 0.
-27.9989 -81.6572 0.
16.5179 30.1539 0.
11.2425 23.0233 0.
1.19728 2.66859 0.
-0.204142 -3.21121 0.
-1.25795 -3.15641 0.
-351.639 -710.1 0.
0.778373 2.08524 0.
-125.838 -318.051 0.
-0.168886 -19.991 0.
-203.336 -333.775 0.
0.0995624 20.2989 0.
3.00135 0.983599 0.
-152.253 -220.008 0.
-1134.39 -2151.64 0.
0.0470254 0.709862 0.
0.00676316 2.27764 0.
-83.3923 -226.726 0.
-0.654137 -0.460943 0.
0.000872181 0.0567003 0.
0.198118 0.272289 0.
0.476035 0.220997 0.
-954.022 -2179 0.
-0.0121295 -0.00449662 0.
-1448.44 -3579.51 0.
0.0752047 0.347841 0.
-1717.45 -2987.71 0.
-18.265 -7.39199 0.
-6.87511 -4.79302 0.
-1851.01 -4673.37 0.
-3.73532 -3.84138 0.
-40.4612 -61.866 0.
-1458.47 -3539.08 0.
-283.497 -670.781 0.
-17.4856 -12.1188 0.
-1012.66 -2582.93 0.
-468.472 -1210.56 0.
-673.597 -1666.85 0.
-419.22 -1048.88 0.
-178.593 -434.866 0.
-509.527 -1272.71 0.
-342.638 -850.017 0.
-181.712 -426.642 0.
-368.68 -951.841 0.
-290.449 -754.129 0.
-215.755 -564.97 0.
-365.799 -786.055 0.
-332.376 -710.46 0.
-382.838 -488.132 0.
-252.483 -549.8 0.
-280.847 -622.644 0.
-184.649 -489.821 0.
-288.369 -758.287 0.
-398.316 -1043.57 0.
-122.991 -309.683 0.
-341.179 -877.342 0.
-565.792 -1446.58 0.
-146.579 -372.598 0.
-428.644 -1061.69 0.
-723.203 -1744.78 0.
-400.836 -1052.18 0.
-1106.96 -2861.17 0.
-14.3189 -12.0567 0.
-48.2811 -104.806 0.
-1545.73 -4007.38 0.
-54.0695 -24.5463 0.
-0.302156 -0.121585 0.
-1411.21 -3032.06 0.
-1.16495 -0.924149 0.
-1840.73 -3837.76 0.
-78.2741 -38.3503 0.
-14.1375 -6.81193 0.
-1164.04 -2552.67 0.
-158.967 -303.699 0.
-1.4553 -1.56468 0.
-35.9891 -52.0181 0.
0.479198 1.30988 0.
-2.15405 -5.88368 0.
1.45786 3.35374 0.
-0.672595 -2.66599 0.
-0.259805 -4.81757 0.
-1333.44 -2685.09 0.
-0.60519 -11.9156 0.
-0.000537362 -2.90447 0.
-70.4772 -166.916 0.
8.98695 23.1852 0.
4.96557 12.5483 0.
-943.541 -2277.7 0.
3.4767 8.25377 0.
-1453.66 -3151.78 0.
-3.09568 -34.6409 0.
-210.213 -481.047 0.
-1747.89 -3128.81 0.
-4.37531 -33.8075 0.
-352.056 -652.45 0.
27.3642 41.5037 0.
-20.0335 -33.147 0.
0.264173 0.526327 0.
5.22788 11.0418 0.
-906.383 -1553.49 0.
52.1975 80.7231 0.
30.4338 52.7948 0.
2.34608 4.5627 0.
9.28411 19.1565 0.
-1.8018 -21.4938 0.
-2.14787 -4.82733 0.
-890.683 -1739.44 0.
-1.32629 -3.45654 0.
-135.092 -334.663 0.
-885.688 -2267.13 0.
15.7378 41.6811 0.
-0.012409 -0.672793 0.
5.0769 3.15358 0.
-381.789 -958.597 0.
-188.765 -412.467 0.
0.49258 2.65364 0.
5.19128 0.174623 0.
-157.302 -359.725 0.
-248.342 -285.28 0.
-1575.21 -3285.25 0.
0.0756426 0.675997 0.
-824.37 -1893.76 0.
-0.25796 -0.318183 0.
0.159134 0.10058 0.
0.204758 0.138714 0.
0.0247743 0.352703 0.
0.371549 0.0764072 0.
-3.73971 -1.64077 0.
-3.40302 -2.11434 0.
-5.56112 -7.39685 0.
-0.100833 -0.279286 0.
-7.94651 -9.79189 0.
-110.175 -244.459 0.
-8.85743 -5.67499 0.
-0.60621 -1.20067 0.
-428.836 -1095.95 0.
-19.1769 -23.9247 0.
-358.13 -888.526 0.
-103.621 -249.778 0.
-11.5578 -22.4682 0.
-349.764 -916.628 0.
-191.675 -490.173 0.
-58.7628 -133.796 0.
-297.711 -800.53 0.
-226.359 -614.169 0.
-166.339 -456.594 0.
-367.202 -775.625 0.
-340.161 -704.35 0.
-196.243 -440.957 0.
-273.402 -594.866 0.
-292.759 -647.761 0.
-114.966 -315.532 0.
-212.742 -582.251 0.
-317.234 -860.506 0.
-3.50151 -7.91599 0.
-144.021 -375.314 0.
-358.71 -949.407 0.
-4.30367 -11.6913 0.
-7.24201 -18.4759 0.
-297.837 -704.475 0.
-8.07852 -12.5105 0.
-393.496 -1035.24 0.
-17.6064 -13.3514 0.
-0.0530641 -0.0269113 0.
-46.6427 -64.8027 0.
-26.1421 -11.0384 0.
-3.76425 -1.43779 0.
-3.11307 -1.1266 0.
-1.69042 -1.34322 0.
-320.763 -682.723 0.
-32.0347 -27.5186 0.
0.0323538 0.0412204 0.
0.090498 0.0376777 0.
-0.0509187 -0.205112 0.
-2007.35 -4542.87 0.
-0.0247011 -2.78548 0.
-6.39513 -14.7434 0.
-1379.37 -2259.13 0.
0.10178 1.07777 0.
2.88564 5.23827 0.
4.21314 10.773 0.
0.0603885 8.38323 0.
-774.792 -1792.39 0.
0.00846255 5.85753 0.
-890.831 -2082.46 0.
-1.40127 -3.47859 0.
-1.00396 -25.4463 0.
-147.633 -376.061 0.
19.1805 46.2162 0.
-1.68988 -3.75782 0.
-58.6069 -137.933 0.
-1.308 -19.3799 0.
23.4411 44.9843 0.
-4.78148 -37.6625 0.
-12.6303 -69.5563 0.
49.0111 83.6937 0.
-37.3539 -66.734 0.
39.3634 11.7129 0.
28.178 25.6986 0.
0.776573 1.36889 0.
86.9966 141.05 0.
-1300.55 -2173.73 0.
-1.60031 -14.0789 0.
-1393.77 -2725.3 0.
-2.39574 -23.1205 0.
-6.36363 -12.8479 0.
-1426.64 -2728.33 0.
-0.641444 -14.2647 0.
-884.244 -2144.38 0.
-1.95236 -5.06898 0.
-7.90881 -20.973 0.
-0.586097 -19.2402 0.
-0.841077 -0.88164 0.
-0.659155 -1.64222 0.
-16.6766 -40.5207 0.
-0.141391 -2.18952 0.
-1474.46 -2963.4 0.
-1052.51 -1461.89 0.
0.404768 0.584778 0.
0.220221 0.949076 0.
0.684391 0.30199 0.
0.226416 0.516086 0.
0.0628738 0.22445 0.
0.137914 0.388962 0.
0.0171311 0.250699 0.
0.285268 0.0559092 0.
0.365495 0.0116203 0.
-22.5697 -9.00846 0.
-8.86815 -3.98086 0.
-0.0824984 -0.228506 0.
0.0102425 0.0281579 0.
-11.0047 -13.6466 0.
-8.43259 -8.35812 0.
-1.08176 -1.83751 0.
-1.15592 -2.14163 0.
-1.8465 -4.12424 0.
-3.16407 -8.06638 0.
-5.89555 -13.3057 0.
-4.28113 -9.41489 0.
-6.77119 -11.8057 0.
-142.695 -383.444 0.
-22.4403 -59.0847 0.
-6.22933 -11.3855 0.
-136.427 -377.108 0.
-116.018 -320.471 0.
-44.2177 -111.776 0.
-191.836 -121.111 0.
-185.583 -130.86 0.
-48.4088 -37.5761 0.
-88.8093 -76.3198 0.
-279.952 -392.365 0.
-8.49187 -19.6118 0.
-111.643 -300.433 0.
-147.798 -397.796 0.
-6.95045 -15.1835 0.
-8.6804 -20.9877 0.
-119.787 -322.257 0.
-4.32523 -11.5681 0.
0.0601579 0.15541 0.
0.0444638 0.105334 0.
-6.22609 -12.0066 0.
-4.94025 -9.12552 0.
-28.9949 -19.888 0.
-12.4815 -6.02546 0.
-2.82918 -1.19736 0.
-31.4886 -12.885 0.
-10.0269 -3.75628 0.
-8.86331 -3.20546 0.
-2.90429 -2.30347 0.
-9.64086 -8.54478 0.
-5.65378 -10.8927 0.
-0.0667578 -0.182444 0.
-0.276379 -0.251441 0.
-0.340567 -1.51027 0.
-5.92392 -15.3545 0.
-0.0130396 -1.87044 0.
-0.184946 -3.02986 0.
1.68579 4.08162 0.
-1504.05 -3400.16 0.
-0.333868 -12.3335 0.
-0.131981 -5.16774 0.
-0.12451 -23.4005 0.
-663.402 -1577.4 0.
-0.0355988 -7.5664 0.
10.9498 29.1835 0.
-258.418 -647.707 0.
-9.87381 -24.9917 0.
-369.058 -919.661 0.
10.6793 25.3595 0.
15.6877 34.0071 0.
-132.373 -287.209 0.
7.04309 15.6409 0.
25.93 48.5784 0.
18.3807 39.5915 0.
-426.481 -800.259 0.
41.1919 70.9931 0.
-389.85 -685.281 0.
23.4464 19.3637 0.
1.29263 1.27229 0.
41.8875 72.909 0.
23.1474 37.607 0.
42.9996 82.9218 0.
8.65451 17.7711 0.
29.4319 59.6985 0.
18.6275 49.2874 0.
-981.094 -1847.31 0.
-0.778008 -1.74591 0.
5.97258 14.6377 0.
9.14714 20.9557 0.
-4.65334 -11.9074 0.
-4.53072 -12.0285 0.
-734.297 -1852.45 0.
8.75531 22.845 0.
8.23108 20.3364 0.
-0.520192 -1.32048 0.
-769.407 -1847.89 0.
-0.222607 -0.507551 0.
0.00126857 0.910057 0.
-0.984987 -2.5985 0.
4.32798 0.501261 0.
0.101398 1.12385 0.
-0.004773 -0.00836414 0.
-1435.85 -2856.33 0.
0.0945414 0.300842 0.
-1455.1 -2934.99 0.
-3.5936 -5.06106 0.
-1.35683 -2.23706 0.
-1958.52 -4131.98 0.
0.121666 0.24503 0.
-1295.72 -2851.5 0.
-11.2765 -12.0884 0.
-36.0852 -59.2209 0.
-1522.19 -3868.95 0.
-34.0279 -58.8647 0.
-21.1175 -22.5095 0.
-1239.51 -3188.21 0.
-171.467 -424.299 0.
-860.62 -2064.71 0.
-413.222 -971.099 0.
-61.0601 -130.222 0.
-680.318 -1784.4 0.
-377.76 -988.951 0.
-87.7362 -217.862 0.
-479.04 -1289.64 0.
-316.147 -854.127 0.
-167.64 -451.278 0.
-436.498 -933.49 0.
-398.354 -831.406 0.
-199.423 -506.048 0.
-356.301 -767.076 0.
-424.103 -939.014 0.
-141.541 -375.613 0.
-329.476 -894.647 0.
-548.569 -1483.38 0.
-0.0376719 -0.101363 0.
-385.008 -1002.27 0.
-779.108 -2038.48 0.
-6.33124 -15.6785 0.
-411.685 -931.16 0.
-938.647 -2177.66 0.
-49.4439 -110.918 0.
-1294.18 -3394.64 0.
-34.7326 -31.5564 0.
-4.42511 -2.55741 0.
-1569.81 -3981.81 0.
-12.0011 -5.18618 0.
-16.4302 -8.36916 0.
-1710.53 -2998.72 0.
-8.08456 -4.897 0.
-1567.94 -3484.1 0.
-87.2482 -105.141 0.
-36.2163 -56.3759 0.
-1668.33 -2578.76 0.
0.524354 1.24806 0.
-1002.77 -2746.25 0.
-0.0412064 -6.4893 0.
1.65799 4.11837 0.
-0.073964 -2.69502 0.
3.10714 7.30259 0.
1.26927 3.31777 0.
-1003.44 -2393.91 0.
-0.0862047 -16.0378 0.
-4.4705 -12.2063 0.
-388.593 -1004.46 0.
-0.402651 -26.5074 0.
-195.341 -516.511 0.
2.6113 6.91899 0.
-835.379 -2042.2 0.
-3.44706 -44.5635 0.
-105.393 -223.503 0.
-253.569 -509.946 0.
9.34496 19.4542 0.
-1573.13 -2884.41 0.
14.2705 32.249 0.
-30.628 -54.7529 0.
-17.9851 -91.1172 0.
86.6917 147.549 0.
-0.601896 -0.349784 0.
-22.6336 -25.7436 0.
-14.489 -24.4992 0.
68.4902 111.633 0.
34.0619 65.4407 0.
26.4754 51.6668 0.
19.9314 38.7426 0.
-0.94188 -21.3738 0.
12.7252 26.6686 0.
7.43185 16.874 0.
-2.19402 -31.7101 0.
7.66112 17.616 0.
14.1358 35.5764 0.
-539.839 -1434.5 0.
-1.94042 -5.16003 0.
13.8616 36.1905 0.
11.2257 27.3445 0.
-9.25143 -23.9029 0.
5.07509 12.2909 0.
-0.644425 -1.56106 0.
-3.35419e-05 -4.35468 0.
2.73985 4.94349 0.
-0.642201 -5.69447 0.
-1503.01 -3170.99 0.
0.992013 2.08113 0.
-0.0905227 -0.409718 0.
0.153589 0.922136 0.
0.611764 0.717938 0.
-0.302192 -0.605273 0.
-0.0197332 -0.0313541 0.
0.201474 0.474432 0.
-0.00288394 -0.781695 0.
-2.00507 -3.68219 0.
0.0906959 0.00624669 0.
-7.59691 -10.321 0.
-20.865 -28.7754 0.
-0.00295108 -0.0648551 0.
-5.14228 -9.81118 0.
-316.401 -806.936 0.
-18.3186 -20.1166 0.
-318.048 -733.292 0.
-7.83768 -8.50605 0.
-6.17466 -6.23223 0.
-383.236 -1024.63 0.
-102.634 -264.465 0.
-2.94116 -8.13718 0.
-369.735 -1020.67 0.
-235.145 -650.818 0.
-102.462 -283.139 0.
-408.642 -849.332 0.
-371.652 -752.256 0.
-29.0234 -38.3748 0.
-292.381 -650.638 0.
-337.863 -774.637 0.
-36.2354 -71.0779 0.
-197.12 -523.967 0.
-387.25 -1048.11 0.
0.0205514 0.0305335 0.
-10.7994 -24.1447 0.
-387.518 -1036.34 0.
-4.49147 -10.8682 0.
-4.52092 -11.374 0.
-250.589 -561.986 0.
-5.45227 -13.8576 0.
-224.655 -525.816 0.
-28.4501 -26.2127 0.
-3.86138 -2.44072 0.
-0.674396 -0.356906 0.
-7.56732 -3.07804 0.
-11.7939 -6.08665 0.
-14.7176 -9.72033 0.
-9.8381 -5.1033 0.
-14.2804 -6.16542 0.
-119.078 -163.015 0.
-15.761 -37.0879 0.
-39.3161 -97.4673 0.
0.357099 0.875056 0.
-0.637717 -1.7589 0.
-0.16881 -6.33645 0.
-1423.52 -3131.93 0.
4.136 11.1207 0.
-0.502551 -9.58387 0.
-0.291603 -11.8918 0.
12.8407 35.5636 0.
3.96646 10.8065 0.
9.00634 24.5497 0.
-194.943 -528.374 0.
3.46634 9.26091 0.
-391.037 -1020.73 0.
-3.60627 -9.38884 0.
-1.92214 -36.3326 0.
2.39248 5.5487 0.
-1171.38 -2456.95 0.
-1659.91 -3141.95 0.
-6.58496 -37.2802 0.
-6.56888 -13.803 0.
-3.11928 -23.6991 0.
-7.50421 -13.4735 0.
83.6761 153.578 0.
75.4268 124.911 0.
49.2228 43.1567 0.
-23.0161 -29.6625 0.
-38.6845 -128.634 0.
69.9725 121.785 0.
-1336.19 -2566.36 0.
-12.3319 -72.4906 0.
-1491.88 -2797.03 0.
8.72565 20.7785 0.
-206.29 -426.728 0.
18.0826 41.4705 0.
18.0738 42.0295 0.
-668.988 -1562.27 0.
-2.38228 -46.9474 0.
-216.618 -562.658 0.
-1.4923 -3.97274 0.
-4.79019 -12.5081 0.
-719.394 -1726.21 0.
3.60525 9.52112 0.
6.35834 15.2974 0.
1.81867 4.55473 0.
5.45941 15.1215 0.
-1167.02 -2113.99 0.
-0.613509 -8.85293 0.
-0.357277 -2.38175 0.
-0.062022 -0.81171 0.
0.686208 1.43117 0.
0.0350856 0.400855 0.
-0.10611 -0.1495 0.
0.680388 0.921443 0.
-139.423 -266.709 0.
-1425.94 -3726.7 0.
-0.00763201 -0.0205679 0.
-1480.2 -2254.21 0.
-49.6397 -81.801 0.
-64.9916 -109.633 0.
-1527.32 -3903.02 0.
-14.7258 -14.4155 0.
0.401187 0.00988902 0.
-1297.44 -3348.2 0.
-21.6154 -24.0512 0.
-966.381 -2211.97 0.
-374.433 -816.545 0.
-7.92653 -14.2359 0.
-827.975 -2150.2 0.
-353.626 -910.771 0.
0.00658301 0.249801 0.
-564.671 -1503.75 0.
-322.039 -876.566 0.
-98.335 -267.055 0.
-471.929 -1048.69 0.
-413.728 -912.373 0.
-74.4556 -201.126 0.
-351.279 -880.322 0.
-463.615 -1171.09 0.
-59.2903 -125.144 0.
-327.444 -867.553 0.
-632.172 -1673.22 0.
-7.05959 -15.8633 0.
-302.056 -785.717 0.
-894.168 -2342.75 0.
-1.6151 -3.73643 0.
-322.707 -699.184 0.
-986.551 -2267.56 0.
-4.31888 -11.8595 0.
-1389.2 -3210.72 0.
-19.0175 -26.0832 0.
-7.08467 -6.91682 0.
-1548.79 -3954 0.
0.328727 0.12829 0.
-5.21618 -2.22076 0.
-1478.44 -2489.22 0.
-69.0679 -76.8099 0.
-1286.03 -3076.74 0.
-194.662 -293.131 0.
-35.1502 -83.8766 0.
-26.4742 -72.1872 0.
-0.190933 -4.05811 0.
0.73875 2.02975 0.
0.00691233 0.44928 0.
4.1587 9.82846 0.
-601.127 -1513.11 0.
-2.08039 -5.27894 0.
-1.16568 -3.04792 0.
9.82291 27.206 0.
-623.483 -1683.74 0.
-41.2008 -111.917 0.
-7.83057 -21.1426 0.
6.44121 17.1869 0.
-846.912 -2178.82 0.
-1.16223 -32.6234 0.
20.4954 50.7509 0.
5.6212 12.75 0.
-2.99251 -6.59079 0.
-4.16516 -29.7454 0.
6.78468 13.9705 0.
-0.676007 -1.34506 0.
21.2483 42.7806 0.
-368.911 -665.384 0.
50.775 90.4309 0.
-5.49875 -9.77512 0.
-23.1713 -21.5073 0.
17.2246 20.5964 0.
49.8381 89.5124 0.
-35.1477 -136.756 0.
62.085 124.294 0.
-16.0273 -83.7296 0.
20.3151 41.4682 0.
7.73082 17.6411 0.
-1094.44 -2245.54 0.
-565.126 -1317.22 0.
-281.152 -638.87 0.
5.76831 14.4528 0.
16.6369 39.8627 0.
-64.0795 -165.317 0.
-3.17714 -8.46658 0.
-287.08 -748.452 0.
12.2623 32.4575 0.
-0.720132 -45.6175 0.
7.04704 16.7689 0.
14.826 40.9695 0.
-466.684 -1069.77 0.
-0.61624 -1.22256 0.
-0.0293163 -0.573927 0.
0.190144 0.42085 0.
-0.115276 -2.5189 0.
-1369.99 -2942.13 0.
0.718295 1.35068 0.
-1349 -2423.59 0.
-0.431539 -0.748013 0.
-0.327949 -0.69859 0.
0.341383 0.927529 0.
-0.00018767 -1.26081 0.
-8.90753 -21.7113 0.
-2.53708 -6.23221 0.
0.0599354 0.0998627 0.
-7.2598 -15.0668 0.
0.00979329 0.490209 0.
0.295693 0.0446226 0.
-126.884 -300.814 0.
-18.0823 -13.3771 0.
-182.926 -388.992 0.
-6.03923 -10.3734 0.
-8.06049 -14.6943 0.
-339.558 -895.139 0.
0.089845 0.248237 0.
0.0297062 0.159358 0.
-320.469 -875.015 0.
-89.35 -237.548 0.
-12.3047 -19.9044 0.
-312.669 -717.073 0.
-256.075 -573.751 0.
-41.6835 -55.8781 0.
-150.096 -369.116 0.
-260.472 -662.544 0.
-14.7033 -26.2615 0.
-37.6811 -82.0115 0.
-331.167 -890.477 0.
-8.74863 -17.8316 0.
-5.91979 -12.1483 0.
-297.975 -795.417 0.
-3.89215 -8.62975 0.
-8.45646 -21.1418 0.
-130.583 -301.598 0.
-2.84422 -7.87097 0.
-3.75353 -10.3768 0.
-17.2334 -23.3443 0.
-4.84876 -5.11405 0.
0.355658 0.275174 0.
-0.366741 -0.0278342 0.
0.0373299 0.00324049 0.
-27.586 -16.4123 0.
-27.5937 -57.8439 0.
-64.9827 -144.507 0.
-0.234524 -0.530774 0.
-949.077 -1616.8 0.
2.19419 5.84521 0.
-1169.29 -2873.73 0.
0.42178 1.15475 0.
-0.133237 -13.859 0.
-0.0183511 -14.982 0.
-76.6602 -196.809 0.
-32.0791 -81.6117 0.
-0.508656 -19.3089 0.
3.42373 9.48159 0.
-5.28421 -14.6106 0.
-121.333 -328.061 0.
-61.6354 -165.703 0.
-8.34554 -22.2393 0.
7.74964 20.5657 0.
11.1135 27.8196 0.
-6.20087 -15.4379 0.
25.0838 55.8137 0.
-96.7661 -215.235 0.
-8.62842 -58.714 0.
-7.03881 -43.3551 0.
-13.7447 -68.1879 0.
31.3561 71.4809 0.
-774.717 -1403.76 0.
-5.69406 -45.6987 0.
-22.8605 -42.1473 0.
-8.80751 -9.12068 0.
32.7869 42.299 0.
-30.9146 -119.834 0.
-6.68215 -51.6844 0.
20.5344 41.4805 0.
-18.6195 -89.3492 0.
-23.3153 -47.1376 0.
-3.56132 -37.4987 0.
-7.01161 -73.7614 0.
-126.93 -325.548 0.
-5.73164 -13.9263 0.
-147.935 -363.911 0.
-10.3323 -24.8028 0.
-19.8993 -50.9704 0.
5.51044 14.6982 0.
17.5336 45.5584 0.
-5.55224 -14.6938 0.
-0.585193 -46.8433 0.
-523.152 -1223.99 0.
-0.0364303 -41.7443 0.
-20.5197 -48.38 0.
-0.0196899 -35.9827 0.
-0.395384 -8.97662 0.
-947.064 -1840.99 0.
0.138632 0.332115 0.
0.687278 1.37148 0.
0.551142 1.02496 0.
0.998414 1.73014 0.
0.279764 0.538043 0.
-0.113946 -1.27662 0.
-0.00960949 -0.0265792 0.
0.237287 0.652367 0.
-4.88086 -13.3366 0.
0.061003 0.167958 0.
0.0345377 0.273871 0.
-1.74039 -4.60158 0.
0.209274 0.0767677 0.
-0.00058037 -7.76725e-06 0.
-25.9533 -28.37 0.
-10.557 -5.71015 0.
-7.38556 -9.84876 0.
-6.0836 -10.6059 0.
-8.49561 -15.3568 0.
-9.10675 -23.6414 0.
-0.00721903 -0.157931 0.
0.0734776 0.102766 0.
-97.5219 -259.674 0.
-14.1403 -21.5388 0.
-4.2219 -5.93521 0.
-85.1226 -185.622 0.
-61.302 -126.715 0.
-18.937 -31.447 0.
-26.5668 -49.4684 0.
-97.5135 -210.422 0.
-12.0512 -24.3044 0.
-7.73909 -21.3302 0.
-42.6767 -106.882 0.
-10.5149 -19.5133 0.
-7.09318 -13.2584 0.
-8.64355 -16.1776 0.
-7.37834 -13.02 0.
-15.6703 -33.0241 0.
-33.8643 -81.7358 0.
-4.0067 -11.0186 0.
-2.56037 -7.05708 0.
-15.3674 -20.44 0.
-3.24062 -3.55154 0.
0.403137 0.346027 0.
0.0373985 0.00557549 0.
0.111837 0.0166187 0.
-25.2418 -15.6346 0.
-10.1014 -19.7354 0.
-42.1513 -111.716 0.
1.39633 3.45992 0.
-0.75893 -4.09253 0.
2.56693 7.10764 0.
1.5913 4.11824 0.
2.3134 6.00394 0.
-950.799 -2345.48 0.
-0.00196328 -11.0912 0.
-71.7018 -187.034 0.
-3.55609 -8.96001 0.
-0.253684 -28.835 0.
-0.00368598 -18.9675 0.
-0.145852 -35.7651 0.
-0.269807 -45.5328 0.
-501.347 -1342.46 0.
10.1906 26.8686 0.
-8.43015 -22.0965 0.
-0.955085 -2.38618 0.
-765.301 -1910.52 0.
-4.95414 -42.8385 0.
-443.719 -996.881 0.
-10.0188 -65.9845 0.
20.1844 40.2411 0.
-471.999 -962.864 0.
15.7306 34.7329 0.
-11.1643 -21.9739 0.
-363.095 -565.226 0.
15.2634 28.4577 0.
0.45194 2.36296 0.
12.1983 17.061 0.
-31.4907 -115.573 0.
-13.9662 -100.918 0.
14.5164 29.5766 0.
18.3453 34.0943 0.
12.3444 24.7955 0.
-8.44472 -76.2604 0.
15.0253 33.4744 0.
-154.391 -389.654 0.
5.14486 12.5822 0.
-402.038 -971.169 0.
14.0855 33.872 0.
-419.731 -1065.98 0.
0.609885 1.6179 0.
-30.1697 -78.1437 0.
14.0923 37.2763 0.
-462.8 -1251.32 0.
-0.14988 -37.5555 0.
6.25847 16.5477 0.
-566.7 -1341.37 0.
-0.0565683 -27.8333 0.
-712.909 -1662.96 0.
0.0349252 4.49214 0.
-0.295713 -7.00205 0.
4.16679 11.5412 0.
-0.525932 -0.96794 0.
-0.558845 -1.92738 0.
-742.566 -1744.03 0.
1.67897 3.54203 0.
-1058.96 -2125.63 0.
0.0120755 0.403634 0.
-1242.63 -2288.19 0.
-0.124287 -0.700505 0.
0.282053 0.686054 0.
-1429.16 -3736.44 0.
-5.24159 -11.2428 0.
0.046569 0.109983 0.
-1305.07 -3081.05 0.
-18.8645 -31.1872 0.
-1029.53 -2353.4 0.
-311.571 -651.044 0.
-15.8481 -19.2076 0.
-1011.84 -2646.07 0.
-216.114 -549.644 0.
-2.20364 -5.93534 0.
-719.853 -1944.08 0.
-316.141 -861.338 0.
-7.32247 -18.0258 0.
-511.198 -1370.16 0.
-402.174 -1089.93 0.
-69.4211 -185.293 0.
-337.972 -925.256 0.
-554.864 -1527.97 0.
-3.69823 -8.88735 0.
-285.026 -753.884 0.
-793.788 -2087.79 0.
-1.6947 -1.13392 0.
-171.01 -440.484 0.
-1062.98 -2852.45 0.
-4.08918 -4.43191 0.
-248.934 -477.741 0.
-990.495 -2142.33 0.
0.01801 0.0943752 0.
-1287.28 -3162.86 0.
0.375714 0.263533 0.
-37.917 -64.3541 0.
-1113.58 -2261.5 0.
-50.0161 -92.8006 0.
-1640.33 -3252.68 0.
-0.23196 -0.81096 0.
-0.0203828 -1.30943 0.
-1191.39 -2721.83 0.
1.6033 3.8091 0.
1.9407 4.16996 0.
0.0017265 0.644256 0.
-0.111364 -0.300625 0.
7.13279 18.7073 0.
-63.6849 -157.3 0.
-333.748 -859.131 0.
-162.276 -426.909 0.
-156.484 -390.235 0.
-9.0845 -23.7065 0.
-0.011791 -26.0124 0.
-112.11 -303.461 0.
-0.301436 -41.1897 0.
-42.6206 -113.489 0.
-1.15626 -44.1197 0.
-8.22807 -21.3139 0.
9.48637 23.8259 0.
-3.25707 -62.6787 0.
2.66495 6.33557 0.
-349.094 -859.801 0.
-818.793 -1671.29 0.
-4.32527 -76.2147 0.
32.9374 68.352 0.
6.12577 13.2435 0.
38.0985 74.064 0.
-89.8009 -138.373 0.
-24.6977 -88.8212 0.
-19.4921 -76.5165 0.
-239.512 -363.425 0.
-13.1727 -45.7612 0.
0.978948 6.42809 0.
22.3614 45.9418 0.
-3.7186 -30.1299 0.
39.4551 78.9742 0.
-7.45847 -60.4652 0.
-7.48057 -65.9927 0.
-214.419 -533.051 0.
20.4948 50.4204 0.
-640.146 -1520.17 0.
-14.9574 -36.0547 0.
-0.698241 -1.75353 0.
8.95292 23.6047 0.
-53.5128 -138.152 0.
-223.044 -589.008 0.
11.9344 32.6773 0.
9.97074 27.4307 0.
-225.746 -601.097 0.
10.3905 28.5111 0.
-0.120365 -21.1772 0.
-156.546 -371.437 0.
6.11036 16.6337 0.
-0.12466 -4.10853 0.
5.06462 14.0251 0.
-601.24 -1168.97 0.
-0.00323681 -1.61253 0.
-0.0912762 -0.936169 0.
-0.294356 -1.46451 0.
0.851706 2.14626 0.
1.11753 2.99099 0.
9.1328e-05 1.37161 0.
0.000711603 0.0077257 0.
-0.00151856 -0.0681228 0.
-20.9029 -41.4496 0.
-0.0165175 -0.114683 0.
0.006612 0.0159737 0.
-19.0186 -34.166 0.
-7.55742 -9.95428 0.
-45.5405 -73.0499 0.
-7.77578 -12.881 0.
-3.87165 -6.15197 0.
-164.127 -420.267 0.
-0.500969 -1.25761 0.
-2.25009 -5.7914 0.
-262.981 -706.439 0.
-3.86284 -9.60934 0.
-0.61559 -1.2906 0.
-227.661 -602.434 0.
-140.802 -370.458 0.
-19.5317 -38.5892 0.
-46.4301 -113.189 0.
-233.044 -631.177 0.
-6.00278 -11.6976 0.
-3.72799 -7.52962 0.
-159.436 -395.349 0.
-1.60575 -1.28693 0.
-4.46853 -8.77257 0.
-168.437 -438.483 0.
-13.2053 -13.4205 0.
-8.07875 -5.52113 0.
-13.3159 -8.54028 0.
-8.53068 -3.44208 0.
-19.0702 -28.7576 0.
0.240528 0.0519422 0.
-19.5115 -46.2075 0.
-49.7241 -121.735 0.
-12.9063 -24.5725 0.
0.540723 0.761539 0.
0.14745 0.748736 0.
-0.0804789 -2.61574 0.
-18.4988 -50.8787 0.
-0.0385694 -1.44543 0.
-986.47 -2361.66 0.
2.42339 6.47557 0.
3.8688 10.6223 0.
8.67727 22.9051 0.
-4.68537 -11.6601 0.
-102.318 -261.964 0.
11.9339 32.8181 0.
-733.793 -1812.7 0.
-92.4234 -240.645 0.
7.82885 21.6845 0.
-710.183 -1890.47 0.
5.93285 16.0908 0.
-135.542 -356.972 0.
8.28052 22.5186 0.
-738.783 -1897.18 0.
7.59077 19.16 0.
-3.52234 -59.4047 0.
-2.98627 -44.8068 0.
-5.47009 -13.431 0.
30.2888 66.4312 0.
30.9877 73.2292 0.
-14.1903 -102.225 0.
-7.86008 -60.8222 0.
32.3117 62.3455 0.
-72.6446 -110.773 0.
-19.7659 -72.4858 0.
46.303 78.8696 0.
0.175381 0.42757 0.
50.7672 84.7154 0.
-5.68271 -33.215 0.
-18.2824 -37.869 0.
-9.46363 -77.2181 0.
49.5992 102.369 0.
-10.2299 -22.5449 0.
-385.352 -833.773 0.
-275.929 -676.475 0.
-25.6581 -63.4922 0.
9.42455 23.5273 0.
-4.46014 -11.4051 0.
11.9264 29.4156 0.
-1.42675 -59.8136 0.
-58.3758 -150.214 0.
-6.77969 -17.9051 0.
9.66172 26.3463 0.
11.1352 30.6868 0.
10.2544 28.3324 0.
10.4389 28.6927 0.
-699.957 -1872.66 0.
-0.000287702 -19.816 0.
-0.130148 -15.6216 0.
-0.0832878 -3.23844 0.
-506.584 -1206.05 0.
3.23505 7.17359 0.
8.14242e-07 0.176849 0.
-83.4096 -138.479 0.
-115.866 -153.851 0.
0.0150381 0.722076 0.
1.17724 3.21569 0.
0.000205879 0.213808 0.
-1199.34 -3159.15 0.
-0.0878186 -1.44123 0.
-861.434 -1834.86 0.
-46.2666 -94.5471 0.
-23.2728 -51.9141 0.
-1154.59 -2947.72 0.
-3.26373 -5.72344 0.
-940.165 -1953.25 0.
-222.735 -412.934 0.
-20.5901 -33.4134 0.
-1042.1 -2791.32 0.
-89.5578 -216.893 0.
-2.89812 -5.78627 0.
-842.291 -2223.86 0.
-278.455 -745.838 0.
-0.0104135 -0.0236052 0.
-592.913 -1596.68 0.
-464.424 -1280.31 0.
-42.344 -92.9913 0.
-362.719 -981.468 0.
-691.353 -1886.72 0.
-13.0343 -16.4205 0.
-200.253 -528.684 0.
-895.588 -2397.19 0.
-2.85497 -7.72029 0.
0.10208 0.05152 0.
-923.914 -2382.96 0.
-17.8897 -15.7288 0.
-1235.41 -2681.46 0.
-16.1718 -43.2441 0.
-12.6351 -31.0165 0.
-1078.69 -2747.79 0.
-11.5225 -25.6887 0.
-1.6008 -3.15861 0.
-955.717 -2110.81 0.
-413.489 -738.117 0.
-0.511231 -1.24266 0.
-0.0495938 -0.3147 0.
-0.051725 -1.30417 0.
-0.00241896 -2.8339 0.
2.63124 7.11875 0.
-36.9494 -91.7761 0.
-0.454858 -18.6428 0.
-588.03 -1395.74 0.
-0.458199 -23.2276 0.
-0.00557025 -16.515 0.
-34.2822 -87.2365 0.
-0.837795 -44.1431 0.
-0.523359 -35.0175 0.
-175.772 -456.32 0.
4.8697 13.452 0.
-0.685467 -48.1232 0.
-0.402132 -38.0345 0.
-388.901 -1013.26 0.
1.29409 3.49134 0.
4.62788 11.7735 0.
1.79653 4.55589 0.
-3.55251 -8.52142 0.
-2.14746 -5.17636 0.
-98.8724 -242.161 0.
35.8762 78.5343 0.
13.2811 30.0618 0.
-16.7877 -35.6616 0.
52.4718 111.286 0.
-4.49903 -8.64163 0.
-111.732 -168.634 0.
53.72 93.9031 0.
8.8416 38.8811 0.
-24.8353 -50.1199 0.
2.97234 4.86582 0.
-18.4941 -95.2268 0.
-49.0046 -98.4709 0.
18.1769 39.3834 0.
11.6191 24.1969 0.
-202.96 -482.281 0.
-1214.91 -2595.34 0.
-206.612 -512.505 0.
-12.0826 -31.776 0.
-2.91115 -60.2949 0.
14.6776 37.0448 0.
-190.017 -460.675 0.
18.1173 47.1881 0.
21.6211 55.8631 0.
7.93976 20.9045 0.
-40.2293 -109.182 0.
-1.61872 -4.45815 0.
-1.29925 -3.58184 0.
10.2456 28.1838 0.
-94.8957 -262.838 0.
3.76882 10.4381 0.
-0.0877593 -7.83631 0.
8.20537 20.9989 0.
-5.61041 -14.0887 0.
-0.410901 -0.986344 0.
6.31983 17.5011 0.
-286.788 -531.765 0.
-723.278 -1257.42 0.
-802.161 -1861.97 0.
-0.175326 -2.04675 0.
-0.0121054 -0.84781 0.
0.509173 1.2417 0.
0.696111 1.78531 0.
-0.0660011 -0.124539 0.
-0.0715239 -0.476184 0.
0.0622696 0.142367 0.
-5.35776 -13.0564 0.
0.00127431 0.116373 0.
0.0189917 0.259271 0.
-2.1976 -2.28706 0.
-8.29914 -13.734 0.
-163.41 -417.781 0.
-0.0558002 -0.117984 0.
-0.666742 -1.33891 0.
-65.2728 -165.609 0.
-0.0222833 -0.0512871 0.
-0.0316968 -0.0734792 0.
-60.2462 -148.771 0.
-8.36049 -18.9664 0.
-14.4649 -28.1344 0.
-7.84289 -9.15627 0.
-53.0286 -135.698 0.
-11.5474 -16.1418 0.
-7.8748 -11.3798 0.
-31.7203 -71.809 0.
-6.34721 -9.31318 0.
-3.3788 -1.6538 0.
0.258841 0.121263 0.
-4.5682 -5.66289 0.
-196.873 -421.958 0.
-0.00240939 -0.0583284 0.
-1.4292 -3.91528 0.
-7.03051 -18.0362 0.
-19.7251 -34.6922 0.
-4.67436 -6.88922 0.
0.362166 0.358455 0.
1.00917 2.47256 0.
-591.283 -1283.14 0.
-11.0172 -30.273 0.
-1030.08 -2455.94 0.
-0.232043 -15.4369 0.
-0.00386075 -1.12942 0.
8.39272 23.1541 0.
6.53553 16.7668 0.
-0.930123 -23.6688 0.
10.2478 23.9751 0.
-0.0215658 -12.1314 0.
-184.811 -466.21 0.
-0.7331 -48.768 0.
9.18554 24.4955 0.
-719.401 -1861.1 0.
0.380472 1.0427 0.
-1.07328 -53.7387 0.
-0.288817 -65.1654 0.
-808.368 -2083.24 0.
-0.893916 -60.084 0.
23.523 58.6173 0.
-1.04584 -53.3883 0.
-894.815 -2127.21 0.
-61.0856 -148.16 0.
-371.242 -907.652 0.
12.6557 27.6985 0.
16.6958 37.8195 0.
-17.458 -37.4815 0.
11.7031 22.5274 0.
26.6883 51.1336 0.
-84.4158 -126.119 0.
59.6839 105.277 0.
-0.226174 -14.6555 0.
-106.875 -181.216 0.
-32.4719 -96.2176 0.
-4.31606 -19.5254 0.
-100.525 -200.394 0.
54.9115 121.318 0.
15.6182 32.8396 0.
-306.522 -727.182 0.
-8.44901 -18.664 0.
3.12737 7.78312 0.
-9.28147 -24.1618 0.
10.9108 27.0318 0.
12.9845 32.363 0.
-806.463 -1927.59 0.
-1.76313 -68.4888 0.
-2.2587 -70.1273 0.
11.5266 30.2561 0.
-469.597 -1270.48 0.
-9.23445 -25.355 0.
18.7036 51.4145 0.
-222.411 -612.116 0.
-9.17877 -25.4205 0.
11.4167 31.5952 0.
3.94356 10.5359 0.
-4.43993 -11.4131 0.
-2.8548 -7.28668 0.
-0.101283 -36.1216 0.
-602.824 -1435.17 0.
1.34432 3.55405 0.
-327.318 -743.501 0.
0.0011209 3.7048 0.
-0.256554 -2.85668 0.
0.0103379 0.42511 0.
0.846828 2.157 0.
0.674401 1.79333 0.
-0.0909316 -0.582984 0.
-0.0549662 -0.513503 0.
0.182865 0.442427 0.
0.11849 0.32355 0.
0.187927 0.516 0.
-0.000674069 -0.00850205 0.
-0.381259 -0.454834 0.
-7.19781 -10.822 0.
-4.03811 -9.46227 0.
-1.37432 -2.8327 0.
-0.0109994 -0.0639678 0.
-0.0182811 -0.0427633 0.
-0.0329978 -0.0776369 0.
-0.018498 -0.0441345 0.
-4.2603 -11.21 0.
-1.61518 -4.37144 0.
-11.4437 -19.1939 0.
-8.30872 -10.7543 0.
-5.26721 -3.15594 0.
-13.7743 -19.8046 0.
-9.28787 -8.88259 0.
-9.91014 -10.3141 0.
-11.0216 -11.1446 0.
-7.10245 -3.39388 0.
-0.0461488 -0.020522 0.
-0.209869 -0.0690579 0.
-12.7092 -20.9497 0.
0.00567669 0.0656105 0.
-0.00172814 -0.277686 0.
-0.970116 -2.6665 0.
-32.6838 -46.0844 0.
-12.549 -15.013 0.
-0.317186 -0.270803 0.
0.000130378 0.0344249 0.
-12.6262 -32.1543 0.
-0.00443256 -1.72902 0.
2.69988 6.75167 0.
-0.0109684 -3.83458 0.
-798.177 -2100.41 0.
-0.431894 -25.6968 0.
-0.584386 -13.3587 0.
-0.335402 -10.8 0.
-592.847 -1407.16 0.
9.74233 26.6643 0.
18.8803 51.4294 0.
-423.242 -1138.54 0.
-3.5954 -9.55693 0.
3.24031 8.68544 0.
7.4472 20.1665 0.
17.5684 45.8265 0.
-0.464036 -61.8891 0.
10.4706 27.9994 0.
-0.830358 -44.4601 0.
-19.0482 -46.5803 0.
11.4703 30.0055 0.
-13.7311 -34.7884 0.
-302.738 -739.333 0.
-714.222 -1744.53 0.
-141.192 -309.696 0.
-24.5581 -55.6913 0.
-422.845 -917.56 0.
37.5701 77.4651 0.
37.6888 72.2405 0.
-186.134 -275.542 0.
42.8202 76.3987 0.
-1.01144 -12.2898 0.
-210.389 -311.825 0.
-29.8102 -84.0347 0.
-22.7407 -90.5053 0.
-117.395 -232.336 0.
-29.8135 -65.6421 0.
11.7053 24.8628 0.
-191.031 -452.611 0.
30.8152 69.1072 0.
3.37203 8.41785 0.
8.9459 23.0749 0.
-141.486 -349.834 0.
-4.52839 -11.1584 0.
18.1012 45.1026 0.
14.1685 36.4578 0.
-296.144 -758.492 0.
-19.8775 -52.0321 0.
-55.2225 -149.061 0.
0.390199 1.06768 0.
-422.244 -1156.69 0.
11.433 31.5871 0.
6.73299 18.6433 0.
-7.86869 -21.7422 0.
3.03365 8.30095 0.
-32.0571 -82.5037 0.
-284.388 -728.05 0.
4.5747 12.3572 0.
-45.2092 -108.374 0.
6.02149 15.9805 0.
-130.589 -339.171 0.
0.0779495 3.4725 0.
-0.724943 -7.94967 0.
-0.4255 -4.97643 0.
-739.585 -1774.25 0.
0.601724 1.54836 0.
-863.341 -1914.97 0.
-6.39849 -14.7123 0.
-0.677024 -1.5545 0.
-982.171 -2545.26 0.
-0.0827847 -0.198991 0.
-0.0122251 -0.174454 0.
-1284.81 -2738.97 0.
-0.0777097 -0.343684 0.
-858.254 -2193.84 0.
-21.6819 -42.0616 0.
-15.5936 -32.6058 0.
-900.205 -2376.49 0.
-112.982 -290.991 0.
-6.63027 -16.8902 0.
-608.798 -1623.25 0.
-420.691 -1159.54 0.
-38.6919 -102.191 0.
-233.043 -644.484 0.
-751.462 -2074.01 0.
-26.1103 -45.0068 0.
-31.8381 -67.0295 0.
-910.53 -2430.29 0.
-14.5913 -10.3226 0.
-17.5084 -25.8175 0.
-1051.39 -2253.76 0.
-12.4263 -21.2462 0.
-1051.79 -2504.14 0.
-0.00945303 -1.01276 0.
-0.00111578 -0.478718 0.
-991.391 -2374.51 0.
-64.1125 -85.357 0.
-73.3253 -88.4212 0.
-995.925 -1967.45 0.
-0.0954131 -5.46608 0.
-691.313 -1747.25 0.
-0.0219446 -10.0563 0.
2.57014 6.5636 0.
-0.00110646 -20.7783 0.
-179.237 -481.639 0.
10.5157 28.338 0.
-0.615909 -10.8284 0.
-0.143769 -5.32886 0.
-0.00144898 -25.2835 0.
-331.109 -899.827 0.
4.9604 13.5712 0.
2.68139 7.36795 0.
-0.973774 -50.8323 0.
4.6146 12.3391 0.
8.72234 23.9037 0.
-551.392 -1421.97 0.
3.5421 9.56478 0.
24.6149 65.4507 0.
10.4839 27.9597 0.
-154.005 -370.578 0.
9.17165 23.7472 0.
29.0699 72.7846 0.
11.2598 29.1537 0.
22.9566 58.6873 0.
-931.971 -2053.25 0.
-60.1672 -136.646 0.
-170.656 -384.786 0.
42.9614 88.6751 0.
-23.7942 -121.654 0.
-247.08 -362.962 0.
47.6182 86.0636 0.
-0.657111 -3.29899 0.
-5.78775 -42.2663 0.
-128.993 -199.781 0.
15.346 26.2691 0.
-93.5093 -183.798 0.
-13.5713 -119.27 0.
-214.875 -461.304 0.
-176.843 -418.61 0.
4.4204 10.0554 0.
28.6492 71.7567 0.
-8.96288 -22.9358 0.
-518.445 -1281.01 0.
8.73456 23.1485 0.
-3.30691 -69.7926 0.
-2.94987 -77.3994 0.
-811.513 -2070.22 0.
5.71865 15.2344 0.
-91.5028 -246.289 0.
-11.5608 -31.4089 0.
3.3604 9.14244 0.
23.7515 65.4868 0.
-209.868 -580.948 0.
16.2975 45.0793 0.
4.94949 13.5517 0.
-733.268 -1888.39 0.
2.6289 7.13554 0.
-0.327172 -0.887264 0.
-91.2038 -219.022 0.
-0.415192 -21.8902 0.
-39.4795 -107.341 0.
1.6099 4.32255 0.
-841.772 -1994.21 0.
1.26063 3.26248 0.
0.320232 0.781729 0.
1.78915 4.81861 0.
-2.11833 -5.03591 0.
-0.393155 -0.931326 0.
-0.277527 -0.653744 0.
-17.2761 -44.409 0.
-0.0163888 -0.634211 0.
-0.0144064 -0.685347 0.
-0.0560648 -0.297787 0.
-0.0732789 -0.667935 0.
-9.43852 -17.4038 0.
-2.28395 -4.33667 0.
-6.24465 -12.3587 0.
-15.1054 -40.4878 0.
-4.14455 -11.0902 0.
-0.192933 -0.514875 0.
-13.6576 -36.5895 0.
-5.94617 -15.6846 0.
-23.0961 -63.7258 0.
-9.15537 -25.0956 0.
-3.83363 -10.0953 0.
-25.5704 -49.9238 0.
-11.7381 -14.3041 0.
-3.60624 -2.6855 0.
-12.1482 -9.60616 0.
-16.3734 -25.5008 0.
-24.0988 -47.7943 0.
-11.2616 -16.5987 0.
-16.2256 -29.869 0.
-0.00262692 -0.413625 0.
0.000553453 0.393496 0.
-0.0185369 -0.820104 0.
-9.99971 -15.7737 0.
-17.4784 -23.9944 0.
0.0360926 1.22073 0.
1.85818 5.14484 0.
-17.939 -48.1879 0.
-0.0645953 -6.18859 0.
-549.292 -1383.14 0.
-0.00253528 -7.28236 0.
3.65024 10.1098 0.
-7.92749 -21.5193 0.
-54.5756 -148.302 0.
-0.820521 -31.8772 0.
16.7598 46.4212 0.
13.9171 38.4668 0.
11.0959 30.4512 0.
9.17339 25.0826 0.
20.3073 55.5155 0.
22.7758 60.7445 0.
-0.585638 -75.2373 0.
18.4769 48.8395 0.
3.78911 10.1584 0.
-45.7323 -120.991 0.
-1.37032 -62.4027 0.
-722.125 -1782.53 0.
-1.8488 -55.4351 0.
-52.7824 -130.928 0.
23.3312 60.3598 0.
28.7659 73.5642 0.
13.6143 31.406 0.
28.4349 67.1648 0.
-28.7843 -64.8674 0.
-28.6765 -59.2415 0.
-23.6428 -123.659 0.
-394.745 -576.279 0.
-32.3714 -110.711 0.
-0.196267 -0.566369 0.
-4.87703 -23.6632 0.
-1340.77 -2043.52 0.
-763.131 -1260.55 0.
-109.833 -214.377 0.
-3.30273 -7.20558 0.
-1042.97 -2264.44 0.
-154.678 -365.93 0.
13.5573 31.2555 0.
14.3775 36.1362 0.
-17.4598 -44.3695 0.
6.81972 17.1627 0.
-6.76954 -17.7657 0.
-6.64082 -16.5325 0.
-23.6433 -60.6859 0.
-107.277 -274.865 0.
24.1798 64.4205 0.
-165.218 -443.505 0.
-14.8132 -40.3935 0.
-13.7634 -37.4414 0.
4.19914 11.5481 0.
-39.4281 -108.994 0.
-8.46806 -23.4358 0.
15.7426 43.1285 0.
-10.0123 -27.4187 0.
-0.347653 -34.1404 0.
-701.301 -1908.66 0.
-0.00240244 -50.0406 0.
4.08121 10.7334 0.
-298.276 -701.476 0.
-0.41921 -20.6953 0.
3.70464 9.1882 0.
-0.0733964 -7.45295 0.
-0.0864159 -2.50446 0.
-0.0176569 -4.1382 0.
2.70828 7.39078 0.
0.0781194 0.189355 0.
-297.799 -564.097 0.
-495.71 -1339.24 0.
-22.2545 -61.3056 0.
-9.01148 -24.8773 0.
-798.256 -2105.89 0.
0.251928 0.65449 0.
-884.416 -1920.17 0.
-33.3464 -63.1803 0.
-34.4436 -68.8035 0.
-843.923 -2207.83 0.
-19.8472 -52.7873 0.
-3.99685 -11.0114 0.
-558.805 -1512.07 0.
-348.023 -959.939 0.
-55.1762 -149.416 0.
-136.379 -377.041 0.
-704.069 -1943.94 0.
-27.6678 -61.1438 0.
-13.8845 -27.2893 0.
-869.918 -2279.28 0.
-21.9119 -30.1889 0.
-18.462 -21.9106 0.
-867.61 -1716.2 0.
0.00047271 0.000235757 0.
-778.107 -2071.5 0.
0.000476294 0.782398 0.
-0.0018452 -1.72228 0.
-584.505 -1530.07 0.
-0.369563 -1.45516 0.
-0.307491 -0.81466 0.
0.128126 2.16462 0.
-0.0026937 -0.576057 0.
6.11981 16.9497 0.
0.805859 2.18565 0.
-0.0779078 -6.68876 0.
5.86055 16.0837 0.
-0.842242 -2.33283 0.
-44.3768 -120.932 0.
-37.3932 -100.793 0.
10.2069 27.622 0.
-0.21205 -0.587341 0.
-1.05379 -2.90704 0.
3.79871 10.4917 0.
-0.45784 -57.6469 0.
5.50791 15.128 0.
-372.723 -1010.94 0.
20.6444 55.8865 0.
-5.43441 -14.416 0.
-5.7863 -15.553 0.
-48.662 -128.174 0.
-8.47311 -22.0099 0.
21.5263 54.3842 0.
-596.717 -1482.38 0.
-258.571 -636.473 0.
-11.5624 -29.9113 0.
-11.9243 -30.5134 0.
2.97209 6.8672 0.
-24.3628 -57.4823 0.
-337.624 -760.732 0.
-17.5697 -36.328 0.
34.0086 76.5271 0.
-492.587 -715.553 0.
33.4829 56.4224 0.
-16.3207 -31.0723 0.
-7.85804 -28.9432 0.
-1.33902 -2.1531 0.
-194.674 -310.997 0.
45.8801 94.2918 0.
-24.6076 -53.3844 0.
-352.733 -774.647 0.
-121.41 -287.17 0.
-190.493 -475.777 0.
-14.8064 -37.3486 0.
-258.908 -661.25 0.
-4.51305 -11.3768 0.
-1.96564 -90.9647 0.
-180.603 -449.501 0.
-37.288 -96.0705 0.
0.0429125 0.110367 0.
-25.2739 -67.3465 0.
-238.314 -638.015 0.
22.2168 60.6043 0.
3.31389 9.01377 0.
-166.276 -459.89 0.
7.54856 20.873 0.
22.9806 63.6258 0.
-439.44 -1204.48 0.
-11.5255 -31.5818 0.
-37.7486 -103.509 0.
12.0446 33.1415 0.
-0.00208055 -29.1552 0.
-653.823 -1684.84 0.
-0.0675808 -10.0593 0.
-0.521473 -18.606 0.
8.13407 22.3486 0.
5.95019 16.3569 0.
-0.083695 -18.4484 0.
-713.163 -1788.81 0.
2.28778 6.23299 0.
-540.963 -1112.3 0.
0.809784 1.93584 0.
0.213609 0.540505 0.
0.303544 0.820503 0.
-0.503958 -1.39425 0.
-1.07997 -2.94362 0.
0.349671 0.9621 0.
-2.02494 -3.76598 0.
-3.60389 -7.11607 0.
-4.94306 -10.2895 0.
-4.0441 -10.8848 0.
-1.77924 -4.85777 0.
-0.782038 -2.15897 0.
-15.358 -41.7683 0.
-3.85021 -10.5443 0.
-28.5151 -78.7478 0.
-2.34172 -6.36133 0.
-0.000669503 -0.040906 0.
-10.9211 -28.954 0.
-4.94426 -13.6946 0.
-5.78754 -15.3795 0.
-3.54143 -9.73235 0.
-1.11176 -1.79687 0.
-4.77479 -9.98657 0.
-0.063537 -0.045351 0.
-9.42369 -22.034 0.
0.0308655 0.531834 0.
-0.0205393 -0.535689 0.
-42.1057 -114.31 0.
-29.6556 -74.253 0.
-717.767 -1380.28 0.
3.45052 8.93015 0.
-317.899 -873.984 0.
-0.00108911 -20.834 0.
-0.08028 -9.97668 0.
-0.0406264 -3.94708 0.
-209.922 -576.855 0.
-1.96311 -5.2984 0.
-0.0458371 -43.3642 0.
-67.9503 -181.394 0.
10.5268 29.1564 0.
15.5849 43.1673 0.
-13.2583 -36.4825 0.
-0.152367 -58.9337 0.
-503.655 -1358.89 0.
-3.47622 -9.55535 0.
10.9103 29.6655 0.
19.5934 53.1683 0.
-57.7347 -153.664 0.
6.56061 17.636 0.
-142.445 -373.621 0.
-7.91947 -20.5711 0.
-2.98058 -77.7021 0.
-21.4107 -55.8502 0.
-540.941 -1323.44 0.
-46.4098 -115.537 0.
-6.06044 -15.5201 0.
-613.486 -1567.65 0.
28.4695 67.0567 0.
-7.60587 -17.1205 0.
53.5075 110.725 0.
5.23323 11.6627 0.
-463.286 -702.122 0.
24.8642 41.7108 0.
16.4633 18.996 0.
1.7039 2.75633 0.
61.2271 126.092 0.
-5.2521 -8.69094 0.
-4.48986 -9.12664 0.
-91.7612 -197.747 0.
30.1947 72.7385 0.
-51.9969 -123.028 0.
-117.665 -293.524 0.
-147.469 -373.388 0.
11.328 28.9981 0.
-17.3187 -43.7319 0.
-15.0306 -39.7229 0.
-498.691 -1241.27 0.
-11.6716 -30.8259 0.
14.0837 36.3616 0.
-203.327 -541.902 0.
23.3432 62.1497 0.
-12.5697 -34.3016 0.
-210.289 -572.046 0.
-22.7501 -62.7456 0.
-13.7058 -37.9082 0.
5.156 14.2791 0.
-14.1613 -39.1943 0.
18.2206 49.9556 0.
-309.157 -848.602 0.
-8.63537 -23.7825 0.
11.2645 31.1901 0.
-1.91163 -5.26508 0.
8.68997 23.8203 0.
-0.275908 -7.46358 0.
-5.71247 -15.0242 0.
-293.91 -784.821 0.
-0.00691256 -5.95955 0.
-0.468892 -1.24098 0.
2.96117 8.2019 0.
-0.0744366 -0.766341 0.
-0.00176252 -0.0691793 0.
-0.0706699 -1.33777 0.
0.0662008 0.175182 0.
0.433552 1.18783 0.
0.283467 0.785154 0.
-0.000516433 -0.231736 0.
-0.506504 -0.920731 0.
-2.09888 -4.0548 0.
-3.22915 -6.57898 0.
-1.51542 -4.11285 0.
-0.559204 -1.53578 0.
-0.146831 -0.406306 0.
-8.50539 -23.5271 0.
-0.000163082 -0.174043 0.
-13.2232 -36.5998 0.
0.0512723 0.136808 0.
-0.00137394 -0.0745176 0.
-2.75236 -6.97431 0.
-3.21634 -8.87091 0.
-3.89833 -10.629 0.
-0.000163423 -0.158147 0.
0.00260563 0.00622067 0.
0.0477127 0.100792 0.
0.0674088 0.0637577 0.
0.0596987 0.0227818 0.
0.188896 0.640724 0.
0.0225347 0.173405 0.
-25.5767 -63.0683 0.
-0.0180726 -1.42559 0.
-0.0999439 -2.30416 0.
-0.0921835 -3.14474 0.
0.485505 1.34368 0.
-55.8363 -149.304 0.
5.75673 15.6093 0.
12.7773 34.7613 0.
10.063 27.7686 0.
6.42311 17.2053 0.
5.13235 14.1182 0.
-396.355 -1046.5 0.
-11.7714 -32.6047 0.
-0.0288622 -55.703 0.
-488.428 -1339.85 0.
-1.84726 -5.06286 0.
10.0294 27.6854 0.
-51.8371 -142.586 0.
12.0575 32.8577 0.
-74.0871 -202.809 0.
-403.787 -1077.88 0.
-23.8906 -64.2241 0.
-20.5779 -53.8185 0.
-176.451 -458.47 0.
-2.96873 -82.075 0.
12.6415 33.0658 0.
-102.407 -254.964 0.
-150.926 -377.357 0.
31.1646 79.8886 0.
-232.929 -594.863 0.
43.2134 101.542 0.
-14.2002 -34.0116 0.
28.1383 58.2623 0.
-3.87714 -8.54711 0.
-513.693 -820.193 0.
49.0267 78.2518 0.
-7.93056 -69.6976 0.
21.3866 32.6746 0.
38.2038 74.1204 0.
22.3924 38.6661 0.
41.0224 93.6096 0.
-196.031 -419.189 0.
8.52408 20.4965 0.
-241.796 -572.516 0.
-133.493 -332.728 0.
-338.976 -856.872 0.
34.4946 88.5057 0.
-15.4674 -39.1237 0.
8.90415 23.6067 0.
-7.14815 -18.7421 0.
-25.7814 -68.1366 0.
-39.5286 -102.444 0.
-7.23994 -19.2666 0.
-4.03094 -10.7336 0.
5.90361 16.1164 0.
-59.2526 -161.899 0.
-1.01435 -2.7971 0.
6.30314 17.4375 0.
-1.09997 -3.04241 0.
-4.11313 -11.3883 0.
-12.2355 -33.5644 0.
-1.26358 -3.49988 0.
-11.5605 -31.8617 0.
17.7398 49.1038 0.
-0.140751 -55.595 0.
-0.0931517 -27.3625 0.
0.0244666 6.78831 0.
2.44524 6.41455 0.
-219.662 -592.583 0.
8.2761 22.9134 0.
2.44341 6.6498 0.
-0.0106461 -4.94212 0.
-0.00556917 -0.0915523 0.
-0.0491149 -0.678531 0.
-622.298 -1460.95 0.
0.0529193 0.113107 0.
0.586986 1.4059 0.
-657.647 -1744.83 0.
0.425088 1.14683 0.
-693.727 -1449.53 0.
-17.1383 -32.9938 0.
-6.73947 -13.2454 0.
-732.477 -1872.06 0.
-14.6275 -37.4827 0.
-0.107833 -0.280819 0.
-463.069 -1255.91 0.
-304.11 -837.468 0.
-111.493 -302.59 0.
-55.7425 -153.187 0.
-574.502 -1539.35 0.
-39.6138 -105.663 0.
-13.6199 -29.7638 0.
-734.983 -1965.23 0.
-0.0584927 -0.141412 0.
-9.7726 -22.8637 0.
-681.3 -1315.37 0.
-9.88264 -26.7015 0.
-587.803 -1611.83 0.
0.482721 1.33695 0.
-0.0868032 -1.40782 0.
-292.827 -689.925 0.
-431.354 -877.866 0.
0.566039 1.48131 0.
-0.0716661 -2.58746 0.
-0.973356 -2.69603 0.
-36.1286 -97.5284 0.
-0.00362468 -35.2242 0.
15.698 43.047 0.
14.9694 41.1517 0.
-287.189 -761.87 0.
-6.82486 -18.6497 0.
-7.76435 -21.4939 0.
-289.263 -801.195 0.
-9.53722 -26.3432 0.
1.03213 2.83944 0.
-25.9887 -71.4036 0.
1.22945 3.39537 0.
13.1694 36.3757 0.
23.377 63.834 0.
-61.8689 -169.225 0.
-19.2869 -51.7744 0.
-34.7714 -93.4785 0.
20.8908 54.6317 0.
-234.952 -624.114 0.
12.6986 32.5405 0.
2.81104 7.37133 0.
-8.68076 -21.7185 0.
-318.376 -799.334 0.
-9.97591 -25.6062 0.
5.96224 15.2254 0.
-305.462 -715.675 0.
-6.94004 -100.925 0.
-93.0277 -192.703 0.
49.8965 108.665 0.
28.3655 48.0816 0.
62.8124 96.1728 0.
6.33149 29.6518 0.
-9.97787 -15.5013 0.
3.39437 6.18471 0.
-32.7586 -59.2929 0.
18.6578 42.0578 0.
-245.472 -520.437 0.
16.6648 39.9815 0.
-69.4585 -164.675 0.
-189.085 -475.681 0.
-168.238 -424.825 0.
35.2669 90.6885 0.
-220.473 -558.641 0.
-26.7411 -70.2431 0.
-172.506 -453.913 0.
-111.233 -294.181 0.
-63.6374 -165.529 0.
22.8575 60.9937 0.
5.20728 13.8672 0.
4.37566 11.8394 0.
-65.5592 -179.198 0.
5.84764 16.1221 0.
-101.796 -280.995 0.
-2.30415 -6.3685 0.
17.2202 47.691 0.
14.9999 41.5214 0.
6.04627 16.7471 0.
-4.86883 -13.4267 0.
-15.4177 -42.701 0.
19.4711 53.599 0.
8.96975 24.6589 0.
-0.795463 -2.1817 0.
-9.42155 -24.6053 0.
-0.00984979 -23.0337 0.
-0.000186833 -22.4986 0.
-301.756 -773.705 0.
2.52713 6.85835 0.
-479.786 -1116.16 0.
0.0645791 2.21113 0.
-0.422464 -2.59963 0.
0.887918 1.98263 0.
-0.00974445 -0.181013 0.
0.622917 1.64713 0.
-0.00560935 -0.711306 0.
-4.08764 -8.39753 0.
-1.62675 -3.41637 0.
-0.387716 -0.835576 0.
-7.00605 -17.6736 0.
-0.0791606 -0.205052 0.
0.0227504 0.0605377 0.
-14.5323 -39.992 0.
0.081521 0.225611 0.
-32.6126 -88.5701 0.
-2.10006 -5.80679 0.
-0.000751484 -0.0817241 0.
-28.2348 -77.8087 0.
-8.84645 -24.4525 0.
-3.19896 -5.85025 0.
0.309553 0.465305 0.
0.215098 0.392479 0.
-16.1099 -39.0567 0.
-0.452028 -1.24569 0.
-8.94382 -24.1176 0.
0.539035 1.47426 0.
0.0212016 0.289539 0.
-0.0595333 -7.46337 0.
-111.361 -287.738 0.
6.70356 18.1961 0.
-185.837 -508.463 0.
-0.179197 -36.8812 0.
-132.579 -359.12 0.
-5.23627 -14.4979 0.
-52.1059 -144.14 0.
-0.19688 -36.2349 0.
11.3437 30.9865 0.
-204.183 -552.196 0.
-5.3207 -14.7322 0.
-10.2711 -28.3492 0.
-10.7541 -29.6431 0.
-13.4435 -37.0141 0.
-167.185 -462.899 0.
22.2654 61.5142 0.
-8.60143 -23.7652 0.
-287.571 -787.285 0.
-63.7531 -174.234 0.
-23.3481 -62.6802 0.
-61.3247 -164.867 0.
19.1497 50.0816 0.
-92.7201 -246.891 0.
20.7021 53.3007 0.
22.5223 59.198 0.
-15.3529 -38.5942 0.
-1.74629 -4.43502 0.
-215.229 -553.344 0.
12.099 30.9052 0.
-648.668 -1514.04 0.
7.90356 18.7486 0.
-127.896 -265.036 0.
-13.2518 -105.682 0.
-19.1126 -104.387 0.
43.1296 63.1767 0.
-18.5639 -58.6265 0.
-11.8431 -17.9784 0.
35.9757 61.5991 0.
54.51 110.389 0.
-10.4541 -98.7703 0.
0.421239 0.985611 0.
14.7358 35.2632 0.
-11.5458 -29.605 0.
-15.8201 -39.8004 0.
24.9826 62.8429 0.
6.20506 15.9918 0.
-45.6707 -115.934 0.
-74.8303 -196.963 0.
-193.291 -510.375 0.
-191.055 -505.654 0.
-8.12087 -21.4799 0.
-17.6793 -47.3008 0.
-121.78 -324.365 0.
-4.6918 -12.7194 0.
-95.9405 -262.339 0.
-32.062 -88.3803 0.
14.776 40.7801 0.
24.267 67.1314 0.
-153.271 -423.388 0.
-46.834 -129.685 0.
-0.656869 -1.81936 0.
6.67521 18.489 0.
-21.4853 -59.5035 0.
-315.865 -869.477 0.
11.0831 29.98 0.
-1.68821 -4.63316 0.
-426.262 -1106.75 0.
-0.0591177 -39.4281 0.
5.92096 15.733 0.
-0.00303509 -15.7338 0.
3.84032 10.5048 0.
-0.0139522 -8.8893 0.
0.022885 1.78264 0.
0.0631474 9.81704 0.
1.23492 2.84702 0.
-0.138754 -3.09218 0.
-318.574 -869.773 0.
-0.0179151 -1.89988 0.
-465.59 -1095.28 0.
-15.4793 -34.6174 0.
-0.0673507 -0.159904 0.
-546.953 -1465.32 0.
-14.9428 -39.1794 0.
-0.45314 -1.16741 0.
-312.625 -855.257 0.
-299.918 -827.682 0.
-115.103 -304.592 0.
-43.1898 -114.703 0.
-425.526 -1159.48 0.
-108.786 -298.619 0.
-33.8188 -93.5792 0.
-343.116 -722.11 0.
-0.0910728 -0.278006 0.
-577.028 -1598.05 0.
0.393621 0.807505 0.
-4.04352 -10.6779 0.
-2.05289 -5.68612 0.
1.11905 2.99424 0.
1.80374 4.21168 0.
0.152906 4.67304 0.
2.60914 7.17322 0.
10.233 27.8979 0.
8.14108 22.2582 0.
3.01198 8.24049 0.
-382.379 -1035.44 0.
11.8686 32.8598 0.
-0.10792 -45.6932 0.
18.4315 50.0612 0.
-5.68484 -15.5686 0.
-7.73874 -21.3982 0.
5.21632 14.4455 0.
10.1692 28.0974 0.
15.786 43.5423 0.
16.3772 45.1235 0.
-7.72679 -21.3935 0.
-408.914 -1130.18 0.
-7.73042 -21.3643 0.
-32.2992 -88.3498 0.
-67.5009 -184.317 0.
-19.4225 -52.1442 0.
-94.4004 -251.325 0.
-98.9689 -258.95 0.
-47.2791 -126.188 0.
-57.7407 -149.805 0.
5.43105 14.3076 0.
-6.95596 -18.5284 0.
15.4299 39.2689 0.
-18.7408 -47.9893 0.
3.61128 9.22838 0.
35.897 91.076 0.
11.8513 27.953 0.
7.66204 17.0987 0.
-13.159 -27.8764 0.
23.5846 45.2621 0.
-37.7999 -80.5783 0.
-13.7172 -33.0252 0.
-420.263 -620.519 0.
-15.2279 -24.6022 0.
-16.5435 -96.6037 0.
-372.283 -816.18 0.
-21.3453 -49.3934 0.
-312.145 -745.138 0.
7.69054 19.7081 0.
4.92692 12.393 0.
14.1756 36.4059 0.
-9.64329 -24.9094 0.
18.8027 49.8125 0.
-77.2351 -203.707 0.
-58.5215 -159.168 0.
-289.102 -786.968 0.
-74.5098 -197.236 0.
-49.9225 -133.916 0.
-164.117 -439.096 0.
-2.06759 -5.61558 0.
-139.205 -380.781 0.
-43.9475 -121.346 0.
7.9502 21.9379 0.
20.4097 56.4971 0.
18.4134 50.918 0.
12.2778 34.005 0.
-272.471 -754.64 0.
-13.2962 -36.8281 0.
-36.0518 -99.8395 0.
-26.6391 -73.7836 0.
18.665 50.5517 0.
-77.2417 -212.081 0.
-0.0243864 -40.5537 0.
-0.0629258 -18.3692 0.
-311.512 -828.774 0.
5.01447 13.8868 0.
-0.0371769 -10.7573 0.
0.00935302 3.57845 0.
-0.0100582 -1.44838 0.
4.76476 13.1347 0.
-518.763 -1212.82 0.
-0.102429 -4.8659 0.
-0.0116605 -2.17779 0.
-0.00043092 -1.75194 0.
0.85939 2.35621 0.
-0.0698937 -0.857464 0.
0.360451 0.89446 0.
-17.8573 -47.9192 0.
-1.0062 -2.6423 0.
-0.465155 -1.20071 0.
-10.9233 -29.8326 0.
-0.000388266 -0.484715 0.
-21.1416 -56.3665 0.
-1.08738 -3.00928 0.
0.110828 0.304823 0.
-13.7054 -37.8374 0.
-2.13573 -5.7046 0.
-0.00089747 -0.0227087 0.
0.160581 0.230897 0.
-9.93598 -15.2911 0.
0.84182 1.84999 0.
-0.00768417 -0.29414 0.
-329.447 -889.134 0.
0.570977 1.50568 0.
-515.835 -1184.59 0.
5.84027 16.0945 0.
-1.48646 -4.11712 0.
12.3199 33.7598 0.
-92.0688 -251.378 0.
-6.82331 -18.6953 0.
-0.127026 -47.0708 0.
-0.544217 -1.5068 0.
-8.997 -24.7835 0.
-0.0505211 -43.7606 0.
-4.14395 -11.3706 0.
-11.6003 -32.0872 0.
8.45779 23.4246 0.
8.07479 22.3296 0.
-50.4982 -139.71 0.
-289.944 -799.515 0.
-0.0117225 -68.0353 0.
-5.84958 -16.159 0.
-17.123 -47.3343 0.
-4.05019 -11.0693 0.
12.1829 33.0864 0.
-70.2222 -188.542 0.
-28.9139 -77.256 0.
-322.052 -850.325 0.
3.25611 8.71124 0.
-0.0613021 -0.165392 0.
-185.641 -490.186 0.
-25.4007 -67.7976 0.
-84.2338 -214.814 0.
-7.78289 -19.9269 0.
32.81 83.8843 0.
25.9167 65.504 0.
21.6409 50.7239 0.
-23.4828 -52.1371 0.
-209.537 -437.227 0.
21.7416 40.8237 0.
-31.8492 -79.5486 0.
8.82561 13.4425 0.
-336.649 -486.046 0.
-22.9646 -77.2239 0.
17.5159 34.3648 0.
-11.8853 -28.5099 0.
-1.31541 -3.00603 0.
-171.786 -408.74 0.
25.6661 65.7166 0.
-227.78 -573.13 0.
-20.1688 -51.8158 0.
-245.607 -635.993 0.
-17.796 -47.1785 0.
-86.7605 -229.299 0.
-88.081 -239.711 0.
-9.49917 -25.8729 0.
-5.00761 -13.5781 0.
-244.41 -657.307 0.
-200.869 -538.877 0.
-26.5675 -72.2853 0.
23.8806 64.8786 0.
3.33231 9.19996 0.
4.07389 11.2397 0.
-1.64692 -4.55093 0.
-50.8778 -140.798 0.
1.91619 5.28754 0.
-14.9724 -41.3268 0.
-6.05484 -16.7706 0.
-52.2238 -144.616 0.
4.49126 12.4393 0.
-19.3871 -53.3146 0.
-167.296 -460.616 0.
-0.0293334 -50.7919 0.
-7.12703 -19.531 0.
-0.0669737 -48.6584 0.
8.95101 24.7921 0.
4.05537 11.1531 0.
-40.6466 -111.847 0.
-50.1578 -136.04 0.
3.36294 9.31243 0.
1.32262 3.32531 0.
-0.00744982 -1.50562 0.
0.562243 1.55654 0.
-0.00108136 -0.423286 0.
-0.00119737 -0.0645162 0.
0.0942995 0.228599 0.
-0.0132998 -0.379355 0.
-9.98291 -26.8807 0.
-2.20015 -5.79702 0.
-1.43338 -3.70805 0.
-1.32626 -3.65498 0.
-2.9581e-07 -0.459102 0.
-3.62243 -9.9982 0.
-8.21119e-05 -0.161777 0.
-0.00169801 -0.225042 0.
-1.36665 -3.52449 0.
-0.146556 -0.359308 0.
-0.00240292 -0.0205826 0.
-0.582353 -0.751595 0.
-16.128 -22.8989 0.
0.117099 1.26897 0.
0.869193 2.27275 0.
0.743371 2.05756 0.
-0.00804192 -2.49159 0.
-1.40129 -3.4728 0.
1.42269 3.91997 0.
-245.395 -626.352 0.
10.5059 28.9524 0.
-4.30242e-05 -24.6558 0.
12.5252 34.3434 0.
7.87253 21.8041 0.
16.2305 44.8626 0.
-0.114867 -51.3175 0.
6.28578 17.4105 0.
-38.662 -106.246 0.
-19.7195 -54.5625 0.
19.4994 53.9756 0.
-202.77 -561.119 0.
-16.2442 -44.941 0.
15.7216 43.5367 0.
-6.53732 -18.0993 0.
4.68019 12.9323 0.
17.8114 49.1861 0.
-7.24409 -19.7813 0.
15.2829 41.6538 0.
-105.249 -282.61 0.
-23.5691 -63.2019 0.
7.08804 19.2513 0.
-2.51948 -6.75595 0.
-17.4791 -47.1872 0.
-5.32747 -14.2437 0.
-37.2834 -99.7179 0.
-244.768 -625.459 0.
23.0243 58.8208 0.
-20.9216 -53.5208 0.
31.3835 78.9861 0.
-22.0025 -51.2042 0.
44.8648 99.0543 0.
15.5523 35.3828 0.
60.9523 111.735 0.
21.9046 35.2753 0.
62.5164 89.8527 0.
40.2432 63.2695 0.
12.2829 21.8725 0.
-1271.04 -2446.44 0.
-6.37552 -89.6065 0.
-80.4244 -181.285 0.
-14.5297 -36.9696 0.
-101.608 -259.92 0.
-10.1408 -26.4169 0.
10.2495 26.3398 0.
-301.478 -782.446 0.
23.7774 63.0715 0.
-134.219 -355.455 0.
-53.7112 -144.893 0.
-44.3336 -120.824 0.
-3.73281 -10.1314 0.
-5.15519 -14.0038 0.
-61.0157 -165.933 0.
-277.23 -755.669 0.
4.92309 13.3994 0.
-7.69794 -21.25 0.
-49.6455 -136.984 0.
5.16104 14.2655 0.
-113.779 -315.036 0.
-29.7707 -82.4406 0.
-7.76658 -21.4356 0.
-3.01479 -8.35 0.
-59.7206 -165.248 0.
2.68925 7.44805 0.
-52.9134 -145.396 0.
-13.4392 -36.9758 0.
10.0639 27.8346 0.
-111.831 -307.445 0.
14.9118 41.2429 0.
2.85011 7.88755 0.
-0.0106281 -39.9045 0.
-12.1044 -33.2945 0.
-67.4624 -185.251 0.
7.30514 20.1292 0.
3.21929 8.41938 0.
-0.00598389 -7.59954 0.
-310.044 -801.369 0.
0.360822 0.997139 0.
-0.00124301 -0.0767 0.
-414.304 -1073.52 0.
0.44641 1.10542 0.
-215.296 -548.329 0.
-40.6759 -102.89 0.
-110.598 -289.704 0.
-88.3868 -243.358 0.
-282.543 -782.344 0.
-77.3897 -208.632 0.
-16.4476 -45.0349 0.
-309.075 -851.995 0.
-66.8764 -177.28 0.
-29.9184 -82.7949 0.
-260.928 -669.487 0.
-2.78147 -6.10214 0.
-245.578 -652.609 0.
-0.0134634 -0.941076 0.
-229.772 -621.266 0.
0.753337 2.0816 0.
4.03531 11.1729 0.
-0.0336935 -0.0875435 0.
2.46311 6.77873 0.
8.10404 21.9689 0.
-3.11718 -8.634 0.
11.4432 31.695 0.
-176.549 -484.187 0.
-6.00483 -16.6322 0.
10.4834 28.9772 0.
-272.814 -751.661 0.
8.76198 24.2692 0.
15.1034 41.7639 0.
-139.934 -387.296 0.
-10.6163 -29.3977 0.
-86.9651 -240.627 0.
1.79936 4.97805 0.
-0.558475 -1.54652 0.
-6.88622 -19.0735 0.
-24.0203 -66.3901 0.
21.0404 58.1472 0.
-5.88622 -16.0592 0.
6.52253 17.8342 0.
-196.907 -523.815 0.
7.58789 20.4164 0.
13.9188 37.7983 0.
-1.21723 -3.28986 0.
-50.0112 -135.096 0.
9.53216 25.5397 0.
-76.7347 -205.651 0.
-149.112 -381.879 0.
5.95678 15.1794 0.
25.5246 66.5441 0.
24.4211 61.178 0.
-4.00026 -91.2923 0.
11.526 25.2788 0.
-14.3954 -32.2853 0.
-234.802 -419.084 0.
14.4622 25.0926 0.
9.5996 18.6159 0.
-55.0821 -122.848 0.
-16.8511 -81.2112 0.
-29.032 -59.7178 0.
10.47 24.5686 0.
-358.933 -797.244 0.
20.4513 51.6204 0.
-251.568 -624.415 0.
-2.54793 -92.1238 0.
-333.217 -856.346 0.
10.6706 27.9982 0.
-16.1783 -42.9429 0.
-162.981 -432.511 0.
-0.0499085 -0.134589 0.
-51.6885 -140.953 0.
-94.4917 -260.322 0.
13.6738 37.1782 0.
-48.5615 -131.893 0.
22.539 61.4081 0.
-6.55318 -18.0271 0.
-40.4399 -111.618 0.
-26.9129 -74.2488 0.
3.79062 10.4802 0.
-6.33461 -17.4988 0.
-37.6729 -104.328 0.
-7.27579 -20.0794 0.
-6.31258 -17.273 0.
7.70245 21.3123 0.
-11.6892 -32.3726 0.
8.42007 23.2849 0.
-27.0792 -74.4461 0.
8.18079 22.6237 0.
-20.8565 -57.564 0.
16.5728 45.8803 0.
16.335 45.1157 0.
15.4728 42.8399 0.
-15.1256 -41.554 0.
-0.22066 -34.171 0.
-0.0498473 -11.738 0.
-150.452 -393.567 0.
-0.0260664 -8.61197 0.
-0.0444572 -3.38333 0.
-4.52494e-07 -2.49845 0.
-0.0462164 -2.50715 0.
0.144341 0.373433 0.
-0.012914 -0.428704 0.
-3.65613 -8.78153 0.
-3.99322 -10.0798 0.
-5.65606 -14.9154 0.
-6.11215 -16.9087 0.
-1.92232e-07 -0.663209 0.
-14.642 -40.0267 0.
0.153829 0.424516 0.
-0.000224275 -0.59917 0.
-5.89765 -16.3289 0.
-0.00929698 -0.20053 0.
0.0565687 0.124206 0.
0.190063 0.468069 0.
0.149269 0.41201 0.
-0.0794125 -2.40963 0.
0.90586 2.5081 0.
4.38113 11.6471 0.
-221.648 -611.178 0.
9.72039 26.8959 0.
4.13877 11.364 0.
5.79701 15.6553 0.
-195.414 -541.088 0.
15.641 43.3194 0.
0.54285 1.50348 0.
-181.01 -501.25 0.
-6.1772 -17.0746 0.
-6.61535 -18.3228 0.
1.71044 4.73762 0.
4.24188 11.7337 0.
-13.573 -37.5908 0.
4.07628 11.2906 0.
-3.17514 -8.78527 0.
-2.90777 -8.0523 0.
-1.6394 -4.53973 0.
3.39772 9.41107 0.
-126.436 -349.546 0.
12.9492 35.8093 0.
-274.647 -746.715 0.
-8.43834 -23.1384 0.
-32.8601 -89.3814 0.
-33.8141 -91.7602 0.
-44.3133 -120.317 0.
-254.548 -688.42 0.
-144.859 -391.56 0.
-8.09263 -21.7286 0.
-1.38173 -3.67799 0.
26.7678 71.7913 0.
-146.202 -371.517 0.
-2.24314 -81.4172 0.
-177.01 -441.116 0.
31.9866 79.6932 0.
-363.012 -789.829 0.
-25.1132 -56.9135 0.
27.1589 62.8297 0.
35.9895 70.5007 0.
-8.04812 -32.8716 0.
-239.777 -517.855 0.
36.8383 76.806 0.
25.3432 52.1029 0.
-547.624 -1270.01 0.
-19.5757 -45.7518 0.
20.3711 50.9811 0.
-530.27 -1304.55 0.
9.35941 24.2603 0.
-35.8301 -92.1269 0.
4.12858 10.8478 0.
-80.6184 -214.149 0.
-0.780636 -74.0254 0.
7.39888 19.9459 0.
-69.7732 -190.384 0.
27.0206 74.4689 0.
6.62183 18.0209 0.
-6.40663 -17.4978 0.
-4.03828 -10.9885 0.
-7.21989 -19.8569 0.
9.93637 27.1678 0.
-72.2336 -199.25 0.
-15.5224 -42.9263 0.
-54.8092 -151.451 0.
-64.0878 -177.486 0.
-34.4697 -95.1209 0.
20.0528 54.8047 0.
-0.0270769 -61.7926 0.
-98.1984 -271.83 0.
0.478062 1.32305 0.
-82.2181 -225.852 0.
-0.72081 -55.0574 0.
-3.18347 -8.78538 0.
-3.44239 -9.53395 0.
18.617 51.3973 0.
1.06851 2.95883 0.
-220.349 -604.327 0.
1.72379 4.72952 0.
-80.3038 -221.065 0.
8.04871 21.5334 0.
-0.00415116 -11.9974 0.
-0.15452 -9.20562 0.
-0.00214311 -4.80243 0.
-0.074904 -3.78082 0.
-0.0916388 -0.244261 0.
-0.582173 -1.55228 0.
-112.221 -303.869 0.
-23.9262 -65.4163 0.
-10.3677 -28.5126 0.
-79.3461 -219.369 0.
-110.497 -305.209 0.
-43.7005 -121.034 0.
-7.55375 -20.9209 0.
-143.307 -396.935 0.
-47.4614 -122.54 0.
-24.7501 -64.4948 0.
-110.376 -296.975 0.
-0.0204733 -0.704636 0.
-9.61576e-05 -0.353103 0.
-0.0380544 -0.833031 0.
1.66911 4.60444 0.
6.97483 18.2243 0.
-44.9225 -124.42 0.
-0.0230984 -32.2949 0.
4.41749 12.0849 0.
4.70941 12.7015 0.
14.6435 40.3678 0.
-48.3445 -133.617 0.
13.2798 36.7827 0.
9.17943 25.3137 0.
1.24622 3.44471 0.
9.36397 25.9355 0.
12.8948 35.3381 0.
-6.44666 -17.8377 0.
5.50434 15.2455 0.
12.4456 34.4711 0.
-11.3865 -31.5052 0.
20.7348 57.4054 0.
-6.5551 -18.1517 0.
4.44303 12.3061 0.
-117.163 -323.635 0.
2.45217 6.78479 0.
-7.28039 -20.0926 0.
11.8513 32.3277 0.
-14.4383 -39.2305 0.
-29.3571 -79.6533 0.
-60.319 -163.748 0.
-25.2582 -68.352 0.
-19.9639 -54.53 0.
20.3073 55.5396 0.
-160.683 -427.937 0.
30.2879 81.2615 0.
-337.937 -856.363 0.
14.5846 36.5636 0.
30.9923 76.8542 0.
27.5629 68.1639 0.
18.9328 44.1516 0.
27.5946 61.9947 0.
-8.40134 -89.1005 0.
40.9412 80.0729 0.
-20.6282 -92.6133 0.
11.4061 24.5049 0.
-49.0755 -101.241 0.
34.4999 81.1048 0.
-86.11 -197.222 0.
-6.97162 -87.5976 0.
25.1392 62.3599 0.
-18.6872 -47.4331 0.
-25.5004 -65.9638 0.
11.6768 30.0435 0.
14.3622 37.8045 0.
-151.231 -402.074 0.
24.716 66.9779 0.
26.9615 72.663 0.
-0.0823428 -41.4195 0.
7.34348 20.2484 0.
-10.689 -29.116 0.
14.1152 38.6299 0.
19.465 52.8949 0.
23.0445 63.3142 0.
-0.349244 -62.3339 0.
-3.20286 -8.85192 0.
-11.0854 -30.6563 0.
-0.117873 -0.325798 0.
-72.042 -199.521 0.
13.5409 37.5 0.
9.77169 26.6726 0.
2.68374 7.42555 0.
16.4117 45.4299 0.
7.70468 21.3339 0.
-78.4724 -215.384 0.
14.8895 39.8952 0.
-3.37086 -9.30138 0.
-133.786 -369.057 0.
-0.774278 -2.13334 0.
-0.784491 -2.17255 0.
-4.49523 -12.4489 0.
6.22155 17.2323 0.
-14.1765 -39.0343 0.
12.733 34.2965 0.
2.03763 5.64333 0.
-0.00298724 -1.85949 0.
-87.1713 -237.037 0.
-0.0038503 -3.48878 0.
-118.04 -318.098 0.
0.100664 0.278814 0.
-21.2905 -57.6139 0.
-3.88978 -10.6128 0.
-3.56299 -9.75764 0.
-20.6298 -56.4151 0.
0.132265 0.356523 0.
-7.62509 -21.1194 0.
-0.0117758 -0.032554 0.
-4.93822 -13.6056 0.
-10.564 -28.4753 0.
-1.89201 -5.17652 0.
-1.678 -4.61353 0.
0.131049 0.347198 0.
-140.675 -383.509 0.
-0.0182208 -1.28197 0.
0.521428 1.42525 0.
-0.712366 -23.8984 0.
-33.7507 -93.3937 0.
10.7236 29.6395 0.
6.13743 16.0523 0.
16.4959 44.4869 0.
9.98289 27.5189 0.
-6.24546 -17.1717 0.
-2.75784 -7.63767 0.
-7.18889 -19.8442 0.
-25.5075 -70.2942 0.
18.7016 51.7974 0.
2.16273 5.92096 0.
1.23745 3.42485 0.
-36.5622 -101.271 0.
-13.1656 -36.4595 0.
15.4964 42.8765 0.
-0.020062 -58.9213 0.
-210.837 -583.981 0.
-2.553 -7.07084 0.
-82.7802 -228.828 0.
-32.4317 -89.4597 0.
-3.92446 -10.8214 0.
25.8179 70.3504 0.
0.655868 1.78005 0.
-48.1659 -130.667 0.
3.11123 8.50656 0.
10.157 27.9049 0.
-15.8633 -43.3547 0.
-3.14897 -8.61691 0.
-74.5519 -198.715 0.
-45.9864 -119.507 0.
21.8483 55.2619 0.
-16.8053 -42.0205 0.
0.564331 1.44505 0.
-82.8932 -203.44 0.
19.1033 44.3675 0.
42.2724 94.2187 0.
33.9616 75.6872 0.
-7.01781 -13.684 0.
-12.9804 -55.648 0.
30.4572 62.0634 0.
-1.32333 -2.72819 0.
18.2161 42.2405 0.
14.551 34.3083 0.
16.5961 38.7286 0.
35.1364 86.3669 0.
-3.56773 -84.3795 0.
11.9344 30.8181 0.
-55.5823 -146.579 0.
5.46488 14.4154 0.
-14.4945 -38.5659 0.
5.18449 14.0949 0.
25.693 69.2254 0.
10.544 29.1004 0.
-0.129522 -76.8343 0.
-173.463 -471.161 0.
-5.1473 -14.1136 0.
6.2996 17.0951 0.
25.628 70.565 0.
-9.7476 -26.6255 0.
13.0403 35.5609 0.
-0.0479231 -66.0052 0.
23.0814 63.8118 0.
-6.76663 -18.6959 0.
21.0337 58.2524 0.
-0.31201 -47.1899 0.
-88.4025 -243.835 0.
-6.72103 -18.5401 0.
-8.29456 -22.9733 0.
-74.2105 -205.052 0.
-7.22109 -19.3038 0.
-14.7692 -40.7481 0.
-132.267 -364.813 0.
-0.157207 -49.3023 0.
-119.146 -329.985 0.
-0.0781107 -0.216291 0.
7.59212 21.0277 0.
-0.0509528 -40.0857 0.
-0.131236 -14.4908 0.
-64.0388 -174.532 0.
-0.00438501 -2.043 0.
0.411253 1.12986 0.
3.19372 8.77274 0.
-0.251662 -0.694143 0.
0.801011 2.18084 0.
-9.63469 -25.9455 0.
-6.18918 -16.7788 0.
-7.36705 -20.0697 0.
-9.62597 -25.8721 0.
0.17205 0.457742 0.
0.0120763 0.0334262 0.
-0.081018 -0.223633 0.
-5.48794 -15.0466 0.
-10.8345 -29.3289 0.
-1.33044 -3.63315 0.
-1.02658 -2.81807 0.
0.706919 1.8911 0.
-0.00126593 -0.84417 0.
-0.0104526 -0.530743 0.
-79.7415 -220.358 0.
8.4736 22.8233 0.
-0.723155 -37.2402 0.
0.674745 1.86466 0.
-4.70891 -12.2166 0.
-0.507047 -44.9596 0.
-0.524983 -1.44709 0.
-10.4909 -28.8206 0.
6.53767 18.0997 0.
19.4697 53.7903 0.
-2.73151 -7.56576 0.
-43.8928 -121.568 0.
13.7107 37.4978 0.
-60.1138 -165.104 0.
-92.3583 -255.814 0.
21.5719 59.7498 0.
-129.917 -359.378 0.
-1.41979 -3.92769 0.
4.15829 11.5174 0.
-61.5226 -170.374 0.
-3.01202 -8.34248 0.
-18.9622 -52.2582 0.
-14.9913 -41.2962 0.
16.2169 44.1418 0.
-202.394 -548.54 0.
-91.064 -247.005 0.
-14.0739 -38.5275 0.
27.8729 76.6504 0.
-64.6544 -176.807 0.
-37.9289 -101.736 0.
-126.706 -338.034 0.
-53.6993 -139.079 0.
-1.69706 -83.7885 0.
18.6073 46.4325 0.
-8.53264 -21.7943 0.
-19.3518 -47.1375 0.
19.2963 44.6502 0.
16.5603 38.806 0.
-19.0154 -41.6058 0.
-227.444 -441.412 0.
-5.1436 -9.18384 0.
27.3873 52.9374 0.
-14.5303 -29.9448 0.
-5.62299 -86.4136 0.
26.1072 60.2289 0.
-260.314 -607.34 0.
-2.37323 -6.18938 0.
33.4967 83.6598 0.
-9.83674 -25.3679 0.
-29.8657 -78.5627 0.
-17.7228 -46.8566 0.
25.0883 68.2115 0.
20.7655 56.6272 0.
-414.538 -1114.2 0.
20.5982 56.9039 0.
12.7803 35.2644 0.
8.48456 23.3961 0.
10.9449 30.0591 0.
-14.2022 -38.6881 0.
14.4702 39.9093 0.
-4.01355 -10.9541 0.
-27.9109 -76.633 0.
-0.419731 -1.16037 0.
20.7395 57.4437 0.
-4.69152 -12.9704 0.
8.89703 24.6409 0.
19.43 53.328 0.
14.3509 39.578 0.
-0.125505 -56.0439 0.
13.1021 36.1222 0.
-102.055 -282.224 0.
2.91816 7.78337 0.
11.7812 31.6023 0.
11.8204 31.9597 0.
-6.83823 -18.7455 0.
-5.40698 -14.8418 0.
-2.23993 -6.16691 0.
9.99059 27.6694 0.
7.53816 20.8103 0.
6.24877 17.0394 0.
8.88917 22.7846 0.
-0.00878392 -3.65986 0.
0.0713488 0.19703 0.
-0.0530743 -9.08509 0.
0.772126 2.13759 0.
-3.99367e-05 -1.609 0.
-14.9705 -39.8009 0.
-0.453932 -1.20478 0.
-2.83798 -7.48874 0.
-23.0885 -63.5173 0.
-8.40106 -23.0419 0.
-14.9501 -40.7544 0.
-3.01729 -8.23558 0.
-10.0251 -27.066 0.
-23.5147 -63.9796 0.
-7.18023 -19.7346 0.
-10.3847 -28.7638 0.
0.899527 2.42092 0.
0.801043 2.21317 0.
1.57249 4.12505 0.
-2.20638 -22.7655 0.
10.2273 27.2566 0.
4.33041 11.5679 0.
-81.1506 -224.261 0.
-2.70308 -6.95683 0.
2.52608 6.67698 0.
6.21401 17.127 0.
17.1684 47.1262 0.
5.95552 16.3197 0.
-11.5915 -32.0482 0.
-2.17657 -6.02662 0.
19.3365 52.8522 0.
-6.23184 -17.026 0.
13.8433 37.8644 0.
-35.6562 -98.6787 0.
8.02209 22.2186 0.
-11.3281 -31.3397 0.
8.57861 23.4608 0.
9.15678 25.3259 0.
-33.9811 -94.1105 0.
8.76925 24.2873 0.
-11.0264 -30.3571 0.
5.413 14.8353 0.
15.6528 42.5642 0.
-0.599573 -70.2305 0.
-3.9235 -10.8313 0.
1.41939 3.88981 0.
-14.9126 -41.2042 0.
-12.7496 -34.8852 0.
-37.2572 -100.088 0.
-5.72523 -15.7347 0.
-46.3596 -119.624 0.
11.469 30.1942 0.
-15.4224 -38.4175 0.
29.5518 74.0064 0.
5.87809 14.8303 0.
-127.812 -294.781 0.
-6.01146 -75.4337 0.
9.28854 20.8878 0.
-52.8179 -101.924 0.
15.8794 30.5118 0.
-226.582 -415.405 0.
31.321 71.8467 0.
10.8978 25.5301 0.
-27.9612 -63.0484 0.
6.85768 17.6567 0.
22.6456 57.804 0.
-269.36 -666.769 0.
-0.867423 -2.20961 0.
-18.3208 -48.0383 0.
-131.911 -349.527 0.
-0.533785 -1.45583 0.
-18.8125 -51.4322 0.
-31.101 -83.9201 0.
29.3498 81.1383 0.
-0.165951 -60.0185 0.
-5.87429 -16.2279 0.
-101.83 -280.008 0.
-0.00253688 -33.1007 0.
0.72939 2.01392 0.
-7.07267 -19.2955 0.
-91.3705 -252 0.
7.80658 21.5789 0.
-0.00954338 -52.8897 0.
-12.556 -34.7265 0.
-14.5918 -40.4139 0.
10.8801 29.701 0.
8.52658 23.5201 0.
-83.1892 -228.86 0.
-0.876167 -2.41208 0.
-5.33679 -14.7807 0.
8.2033 21.8333 0.
-6.81936 -18.2564 0.
13.3082 35.8661 0.
-26.7207 -73.0309 0.
-9.89299 -27.0747 0.
9.08516 24.9657 0.
-0.145773 -35.8452 0.
2.40646 6.64107 0.
-0.670781 -40.0973 0.
11.4668 28.8708 0.
8.32984 22.9242 0.
1.07424 2.9734 0.
-6.58767 -18.2037 0.
-2.09899 -5.59579 0.
-0.00650483 -1.9808 0.
-5.9636 -15.8675 0.
-2.73679 -7.25324 0.
-3.31197 -8.7248 0.
-10.7561 -29.6681 0.
-2.67592 -7.37629 0.
-6.75115 -18.6332 0.
-3.19907 -8.8225 0.
-0.748587 -2.06248 0.
-0.121354 -0.324679 0.
-0.00373621 -0.713333 0.
0.277289 3.29169 0.
-4.96972 -13.2494 0.
-11.8213 -32.6777 0.
-0.362144 -13.2744 0.
16.9272 37.9899 0.
9.7996 25.8724 0.
6.7971 18.0073 0.
-31.3665 -80.6488 0.
-55.545 -141.821 0.
-0.506916 -1.3215 0.
-32.6456 -89.9607 0.
-0.530468 -1.45495 0.
-5.65181 -15.4473 0.
-9.11904 -25.2285 0.
1.16086 3.21094 0.
-2.76431 -7.17499 0.
21.8851 59.7289 0.
20.1865 54.9793 0.
-14.5414 -40.2606 0.
12.6825 35.1192 0.
21.2746 58.9268 0.
6.84759 18.7414 0.
-9.10297 -25.1798 0.
11.7514 32.5467 0.
-0.0308724 -65.7002 0.
19.0467 52.379 0.
16.7765 46.1654 0.
25.6859 69.7876 0.
22.1481 60.1357 0.
12.7093 35.1846 0.
-1.43536 -3.93695 0.
-11.8878 -32.8933 0.
9.7743 26.827 0.
-34.7547 -93.4232 0.
8.69725 23.1841 0.
7.28776 18.7164 0.
-2.96002 -7.70514 0.
-50.5467 -131.62 0.
-14.7854 -36.7903 0.
12.7618 31.983 0.
32.7289 79.9862 0.
-15.5205 -36.0983 0.
29.6979 64.6303 0.
24.1052 56.511 0.
1.43395 2.74227 0.
