# vtk DataFile Version 2.0
test grain
ASCII
DATASET UNSTRUCTURED_GRID
POINTS 5000 float
0.49775 0.000610636 0.
0.50059 0.000796251 0.
0.503071 0.000863972 0.
0.505532 0.000929725 0.
0.507651 0.000946355 0.
0.509771 0.000963315 0.
0.511861 0.000975889 0.
0.513904 0.000980804 0.
0.515947 0.000985743 0.
0.517969 0.000989563 0.
0.519979 0.000992811 0.
0.52199 0.000996069 0.
0.523993 0.000996892 0.
0.525994 0.000997401 0.
0.527995 0.000997878 0.
0.529996 0.000998093 0.
0.531997 0.000998308 0.
0.533998 0.000998531 0.
0.535999 0.00099877 0.
0.537999 0.00099901 0.
0.539999 0.000999151 0.
0.541999 0.000999214 0.
0.543999 0.000999277 0.
0.545999 0.000999293 0.
0.547999 0.000999296 0.
0.55 0.000999299 0.
0.551999 0.000999256 0.
0.553999 0.000999214 0.
0.555999 0.000999194 0.
0.557999 0.000999252 0.
0.559999 0.000999311 0.
0.561999 0.000999354 0.
0.563999 0.000999379 0.
0.565999 0.000999404 0.
0.567999 0.000999411 0.
0.569999 0.00099941 0.
0.571999 0.000999409 0.
0.573999 0.000999358 0.
0.575999 0.000999302 0.
0.577999 0.000999257 0.
0.579998 0.000999304 0.
0.581998 0.00099935 0.
0.583998 0.00099938 0.
0.585998 0.000999375 0.
0.587998 0.00099937 0.
0.589998 0.000999494 0.
0.591998 0.000999723 0.
0.593997 0.000999951 0.
0.595998 0.00099946 0.
0.597999 0.000998762 0.
0.6 0.000998065 0.
0.602001 0.000998764 0.
0.604002 0.000999464 0.
0.606003 0.000999957 0.
0.608002 0.000999726 0.
0.610002 0.000999496 0.
0.612002 0.000999368 0.
0.614002 0.000999365 0.
0.616002 0.000999363 0.
0.618002 0.000999338 0.
0.620002 0.000999301 0.
0.622001 0.000999264 0.
0.624001 0.000999308 0.
0.626001 0.000999362 0.
0.628001 0.00099941 0.
0.630001 0.00099941 0.
0.632001 0.000999409 0.
0.634001 0.000999402 0.
0.636001 0.000999384 0.
0.638001 0.000999365 0.
0.640001 0.000999323 0.
0.642001 0.000999261 0.
0.644001 0.000999199 0.
0.646001 0.000999214 0.
0.648001 0.000999251 0.
0.650001 0.000999287 0.
0.652001 0.000999292 0.
0.654001 0.000999297 0.
0.656001 0.000999279 0.
0.658001 0.000999183 0.
0.660001 0.000999088 0.
0.662001 0.000998843 0.
0.664002 0.000998412 0.
0.666003 0.000997982 0.
0.668004 0.000997803 0.
0.670005 0.00099775 0.
0.672007 0.000997697 0.
0.674009 0.000996703 0.
0.676012 0.000995596 0.
0.678016 0.000994062 0.
0.680036 0.000989242 0.
0.682056 0.000984445 0.
0.684089 0.000979338 0.
0.686149 0.000973562 0.
0.688209 0.00096782 0.
0.690373 0.00094066 0.
0.692592 0.000903238 0.
0.694833 0.000864437 0.
0.697634 0.000762819 0.
0.700442 0.00066378 0.
0.495701 0.00157797 0.
0.499072 0.00229432 0.
0.50194 0.002557 0.
0.504763 0.00277285 0.
0.507133 0.00283065 0.
0.509431 0.00288416 0.
0.511664 0.00292711 0.
0.513758 0.00294199 0.
0.515852 0.00295694 0.
0.517907 0.00296853 0.
0.519938 0.00297832 0.
0.52197 0.00298814 0.
0.523978 0.00299067 0.
0.525982 0.0029922 0.
0.527986 0.00299363 0.
0.529989 0.00299428 0.
0.531992 0.00299492 0.
0.533995 0.00299559 0.
0.535996 0.00299631 0.
0.537997 0.00299703 0.
0.539998 0.00299745 0.
0.541998 0.00299764 0.
0.543998 0.00299783 0.
0.545998 0.00299788 0.
0.547998 0.00299789 0.
0.549999 0.0029979 0.
0.551998 0.00299777 0.
0.553998 0.00299764 0.
0.555998 0.00299758 0.
0.557998 0.00299776 0.
0.559998 0.00299793 0.
0.561998 0.00299806 0.
0.563998 0.00299814 0.
0.565998 0.00299821 0.
0.567998 0.00299823 0.
0.569997 0.00299823 0.
0.571997 0.00299823 0.
0.573997 0.00299807 0.
0.575996 0.00299791 0.
0.577996 0.00299777 0.
0.579995 0.00299791 0.
0.581995 0.00299805 0.
0.583995 0.00299814 0.
0.585995 0.00299812 0.
0.587994 0.00299811 0.
0.589994 0.00299848 0.
0.591993 0.00299917 0.
0.593992 0.00299985 0.
0.595994 0.00299838 0.
0.597997 0.00299629 0.
0.6 0.0029942 0.
0.602003 0.00299629 0.
0.604006 0.00299839 0.
0.606008 0.00299987 0.
0.608007 0.00299918 0.
0.610007 0.00299849 0.
0.612006 0.0029981 0.
0.614006 0.0029981 0.
0.616005 0.00299809 0.
0.618005 0.00299801 0.
0.620005 0.0029979 0.
0.622004 0.00299779 0.
0.624004 0.00299792 0.
0.626003 0.00299809 0.
0.628003 0.00299823 0.
0.630003 0.00299823 0.
0.632003 0.00299823 0.
0.634002 0.00299821 0.
0.636002 0.00299815 0.
0.638002 0.0029981 0.
0.640002 0.00299797 0.
0.642002 0.00299778 0.
0.644002 0.0029976 0.
0.646002 0.00299764 0.
0.648002 0.00299775 0.
0.650002 0.00299786 0.
0.652002 0.00299788 0.
0.654002 0.00299789 0.
0.656002 0.00299784 0.
0.658003 0.00299755 0.
0.660003 0.00299726 0.
0.662004 0.00299653 0.
0.664006 0.00299524 0.
0.666008 0.00299394 0.
0.668011 0.00299341 0.
0.670016 0.00299325 0.
0.67202 0.00299309 0.
0.674027 0.00299008 0.
0.676035 0.00298676 0.
0.678049 0.00298205 0.
0.680104 0.00296748 0.
0.682159 0.00295298 0.
0.684241 0.00293758 0.
0.686367 0.00292007 0.
0.688492 0.00290266 0.
0.6909 0.00280445 0.
0.693389 0.00268572 0.
0.696107 0.00252291 0.
0.699276 0.00220707 0.
0.702564 0.00169775 0.
0.493308 0.00220228 0.
0.496966 0.00339487 0.
0.500614 0.00420085 0.
0.503807 0.00457467 0.
0.506565 0.00470275 0.
0.509056 0.00479655 0.
0.511462 0.00487759 0.
0.513608 0.00490261 0.
0.515755 0.00492775 0.
0.517844 0.00494729 0.
0.519897 0.00496368 0.
0.521949 0.00498013 0.
0.523963 0.00498443 0.
0.52597 0.00498698 0.
0.527977 0.00498939 0.
0.529982 0.00499046 0.
0.531987 0.00499154 0.
0.533991 0.00499265 0.
0.535993 0.00499385 0.
0.537995 0.00499505 0.
0.539996 0.00499575 0.
0.541997 0.00499607 0.
0.543997 0.00499639 0.
0.545997 0.00499647 0.
0.547997 0.00499648 0.
0.549998 0.00499649 0.
0.551997 0.00499628 0.
0.553997 0.00499607 0.
0.555996 0.00499597 0.
0.557996 0.00499626 0.
0.559997 0.00499655 0.
0.561997 0.00499677 0.
0.563996 0.00499689 0.
0.565996 0.00499702 0.
0.567996 0.00499706 0.
0.569996 0.00499705 0.
0.571996 0.00499704 0.
0.573995 0.00499679 0.
0.575994 0.00499651 0.
0.577993 0.00499628 0.
0.579992 0.00499652 0.
0.581992 0.00499675 0.
0.583991 0.0049969 0.
0.585991 0.00499687 0.
0.58799 0.00499685 0.
0.589989 0.00499747 0.
0.591988 0.00499861 0.
0.593987 0.00499975 0.
0.59599 0.0049973 0.
0.597995 0.00499381 0.
0.6 0.00499033 0.
0.602005 0.00499382 0.
0.60401 0.00499732 0.
0.606014 0.00499978 0.
0.608012 0.00499863 0.
0.610011 0.00499748 0.
0.61201 0.00499684 0.
0.614009 0.00499683 0.
0.616009 0.00499682 0.
0.618008 0.00499669 0.
0.620008 0.00499651 0.
0.622007 0.00499632 0.
0.624006 0.00499654 0.
0.626005 0.00499681 0.
0.628005 0.00499705 0.
0.630004 0.00499705 0.
0.632004 0.00499704 0.
0.634004 0.00499701 0.
0.636004 0.00499692 0.
0.638004 0.00499683 0.
0.640004 0.00499661 0.
0.642004 0.0049963 0.
0.644004 0.004996 0.
0.646004 0.00499607 0.
0.648003 0.00499625 0.
0.650003 0.00499644 0.
0.652003 0.00499646 0.
0.654003 0.00499648 0.
0.656004 0.00499639 0.
0.658004 0.00499592 0.
0.660005 0.00499544 0.
0.662007 0.00499421 0.
0.66401 0.00499206 0.
0.666013 0.0049899 0.
0.668019 0.00498902 0.
0.670026 0.00498876 0.
0.672033 0.00498849 0.
0.674045 0.00498343 0.
0.676058 0.00497788 0.
0.678082 0.00496985 0.
0.680173 0.00494538 0.
0.682264 0.00492103 0.
0.684398 0.00489523 0.
0.686592 0.00486573 0.
0.688785 0.00483641 0.
0.691509 0.00464227 0.
0.694298 0.00443303 0.
0.697679 0.00406843 0.
0.701316 0.00347224 0.
0.705083 0.00232642 0.
0.490369 0.00235401 0.
0.494658 0.00404489 0.
0.498813 0.00531488 0.
0.502191 0.00583238 0.
0.505351 0.00615678 0.
0.508008 0.0063526 0.
0.51065 0.00655304 0.
0.512964 0.0066485 0.
0.515274 0.00673962 0.
0.517501 0.00681053 0.
0.519636 0.00685603 0.
0.521773 0.00690231 0.
0.523835 0.00692765 0.
0.525882 0.00694918 0.
0.527926 0.00696936 0.
0.529941 0.00697218 0.
0.531956 0.006975 0.
0.533968 0.00697827 0.
0.535976 0.00698249 0.
0.537984 0.00698671 0.
0.539989 0.00698948 0.
0.541991 0.00699106 0.
0.543993 0.00699263 0.
0.545994 0.00699333 0.
0.547995 0.00699377 0.
0.549996 0.00699422 0.
0.551995 0.00699405 0.
0.553995 0.00699388 0.
0.555994 0.00699384 0.
0.557994 0.00699425 0.
0.559994 0.00699465 0.
0.561994 0.00699495 0.
0.563994 0.00699512 0.
0.565994 0.00699528 0.
0.567994 0.00699535 0.
0.569994 0.00699538 0.
0.571994 0.0069954 0.
0.573993 0.00699517 0.
0.575992 0.0069949 0.
0.577991 0.0069947 0.
0.57999 0.00699496 0.
0.58199 0.00699522 0.
0.583989 0.00699543 0.
0.585988 0.0069955 0.
0.587987 0.00699558 0.
0.589986 0.00699614 0.
0.591985 0.00699709 0.
0.593984 0.00699804 0.
0.595988 0.00699588 0.
0.597994 0.00699282 0.
0.6 0.00698975 0.
0.602006 0.00699281 0.
0.604012 0.00699586 0.
0.606017 0.00699802 0.
0.608015 0.00699707 0.
0.610014 0.00699613 0.
0.612013 0.00699556 0.
0.614012 0.00699547 0.
0.616011 0.00699537 0.
0.618011 0.00699518 0.
0.62001 0.00699493 0.
0.62201 0.00699468 0.
0.624009 0.00699488 0.
0.626008 0.00699514 0.
0.628007 0.00699537 0.
0.630006 0.00699537 0.
0.632006 0.00699537 0.
0.634006 0.00699531 0.
0.636006 0.00699515 0.
0.638006 0.00699498 0.
0.640006 0.00699465 0.
0.642006 0.00699417 0.
0.644006 0.0069937 0.
0.646006 0.0069937 0.
0.648006 0.00699384 0.
0.650005 0.00699397 0.
0.652006 0.00699327 0.
0.654007 0.00699256 0.
0.656009 0.00699152 0.
0.658013 0.00698931 0.
0.660016 0.00698711 0.
0.662023 0.00698324 0.
0.664034 0.00697732 0.
0.666045 0.00697142 0.
0.668063 0.00696764 0.
0.670084 0.00696483 0.
0.672105 0.00696202 0.
0.674174 0.00693019 0.
0.676246 0.00689662 0.
0.678341 0.00685915 0.
0.680528 0.00680024 0.
0.682711 0.00674252 0.
0.685029 0.00664958 0.
0.687433 0.00653752 0.
0.689925 0.00638014 0.
0.692855 0.00601474 0.
0.695917 0.00564805 0.
0.699561 0.00514969 0.
0.703842 0.00414846 0.
0.707911 0.00258458 0.
0.487347 0.00232165 0.
0.492099 0.00430064 0.
0.496332 0.00580238 0.
0.500305 0.00687393 0.
0.503755 0.00746226 0.
0.506798 0.00782927 0.
0.509667 0.00816428 0.
0.512238 0.00836153 0.
0.514732 0.00852735 0.
0.517137 0.00866706 0.
0.51936 0.00874353 0.
0.521587 0.00882133 0.
0.523704 0.00886918 0.
0.52579 0.00891019 0.
0.527874 0.00894924 0.
0.529899 0.00895382 0.
0.531924 0.0089584 0.
0.533945 0.00896381 0.
0.535959 0.00897107 0.
0.537973 0.00897834 0.
0.539981 0.00898319 0.
0.541985 0.00898603 0.
0.543989 0.00898888 0.
0.545991 0.00899019 0.
0.547992 0.00899106 0.
0.549993 0.00899193 0.
0.551993 0.00899182 0.
0.553992 0.0089917 0.
0.555992 0.00899172 0.
0.557992 0.00899223 0.
0.559992 0.00899275 0.
0.561992 0.00899313 0.
0.563992 0.00899334 0.
0.565992 0.00899355 0.
0.567992 0.00899365 0.
0.569992 0.0089937 0.
0.571992 0.00899375 0.
0.573991 0.00899354 0.
0.575989 0.0089933 0.
0.577988 0.00899311 0.
0.579988 0.0089934 0.
0.581987 0.0089937 0.
0.583986 0.00899395 0.
0.585985 0.00899413 0.
0.587984 0.00899432 0.
0.589983 0.00899482 0.
0.591982 0.00899558 0.
0.593981 0.00899633 0.
0.595986 0.00899446 0.
0.597993 0.00899182 0.
0.6 0.00898919 0.
0.602007 0.00899179 0.
0.604015 0.0089944 0.
0.60602 0.00899625 0.
0.608018 0.00899551 0.
0.610017 0.00899478 0.
0.612016 0.00899429 0.
0.614015 0.00899411 0.
0.616014 0.00899393 0.
0.618013 0.00899366 0.
0.620013 0.00899336 0.
0.622012 0.00899305 0.
0.624011 0.00899323 0.
0.62601 0.00899347 0.
0.628009 0.00899368 0.
0.630008 0.00899368 0.
0.632008 0.00899369 0.
0.634008 0.00899362 0.
0.636008 0.00899338 0.
0.638008 0.00899314 0.
0.640008 0.00899268 0.
0.642008 0.00899204 0.
0.644008 0.00899141 0.
0.646008 0.00899134 0.
0.648008 0.00899142 0.
0.650008 0.0089915 0.
0.65201 0.00899007 0.
0.654011 0.00898863 0.
0.656014 0.00898663 0.
0.658021 0.00898269 0.
0.660028 0.00897876 0.
0.66204 0.00897221 0.
0.664058 0.00896251 0.
0.666077 0.00895283 0.
0.668107 0.00894614 0.
0.670143 0.00894075 0.
0.672178 0.00893536 0.
0.674309 0.0088745 0.
0.676442 0.00881185 0.
0.678616 0.00874319 0.
0.680906 0.00864736 0.
0.683189 0.00855349 0.
0.685772 0.00836447 0.
0.688419 0.00815671 0.
0.691329 0.00777343 0.
0.694455 0.00721746 0.
0.697998 0.00660437 0.
0.702004 0.00577897 0.
0.706395 0.00440349 0.
0.711133 0.00248731 0.
0.484028 0.00218602 0.
0.489138 0.00426577 0.
0.493765 0.00605341 0.
0.498006 0.00756046 0.
0.501991 0.00860039 0.
0.505551 0.00923408 0.
0.508638 0.00968513 0.
0.511489 0.01 0.
0.514143 0.010238 0.
0.516731 0.0104682 0.
0.519037 0.010579 0.
0.521351 0.0106936 0.
0.523534 0.0107745 0.
0.525665 0.010846 0.
0.527795 0.0109166 0.
0.529835 0.0109246 0.
0.531876 0.0109326 0.
0.53391 0.0109417 0.
0.535932 0.0109534 0.
0.537953 0.0109651 0.
0.539967 0.0109731 0.
0.541975 0.0109782 0.
0.543982 0.0109832 0.
0.545986 0.0109857 0.
0.547988 0.0109875 0.
0.54999 0.0109892 0.
0.55199 0.0109893 0.
0.55399 0.0109894 0.
0.55599 0.0109897 0.
0.55799 0.0109904 0.
0.55999 0.010991 0.
0.561991 0.0109915 0.
0.563991 0.0109918 0.
0.565991 0.010992 0.
0.56799 0.0109922 0.
0.56999 0.0109923 0.
0.57199 0.0109924 0.
0.573989 0.0109922 0.
0.575988 0.010992 0.
0.577987 0.0109919 0.
0.579986 0.0109922 0.
0.581985 0.0109925 0.
0.583985 0.0109928 0.
0.585984 0.010993 0.
0.587983 0.0109932 0.
0.589982 0.0109936 0.
0.59198 0.0109941 0.
0.593979 0.0109947 0.
0.595985 0.0109934 0.
0.597993 0.0109916 0.
0.6 0.0109898 0.
0.602008 0.0109916 0.
0.604016 0.0109933 0.
0.606021 0.0109946 0.
0.60802 0.0109941 0.
0.610019 0.0109936 0.
0.612018 0.0109932 0.
0.614017 0.010993 0.
0.616016 0.0109928 0.
0.618015 0.0109925 0.
0.620014 0.0109921 0.
0.622014 0.0109918 0.
0.624013 0.0109919 0.
0.626011 0.0109921 0.
0.62801 0.0109923 0.
0.63001 0.0109922 0.
0.63201 0.0109922 0.
0.63401 0.0109921 0.
0.63601 0.0109917 0.
0.63801 0.0109914 0.
0.64001 0.0109908 0.
0.642011 0.0109899 0.
0.644011 0.0109891 0.
0.646011 0.0109887 0.
0.648012 0.0109884 0.
0.650012 0.0109882 0.
0.652015 0.0109855 0.
0.654019 0.0109829 0.
0.656024 0.0109792 0.
0.658036 0.010972 0.
0.660048 0.0109649 0.
0.662067 0.0109546 0.
0.664095 0.0109406 0.
0.666124 0.0109267 0.
0.668175 0.010911 0.
0.670234 0.0108951 0.
0.672295 0.0108788 0.
0.67449 0.0107788 0.
0.676683 0.0106793 0.
0.678947 0.0105694 0.
0.681339 0.0104315 0.
0.683739 0.0102938 0.
0.68657 0.01 0.
0.689482 0.00968802 0.
0.692799 0.0090388 0.
0.696255 0.00827798 0.
0.700147 0.00743853 0.
0.704725 0.00603703 0.
0.709362 0.00441972 0.
0.714453 0.0022064 0.
0.480605 0.0019951 0.
0.486303 0.00421729 0.
0.491206 0.00613371 0.
0.495806 0.00800834 0.
0.500551 0.00954724 0.
0.504336 0.0103353 0.
0.507607 0.0108994 0.
0.510714 0.0114004 0.
0.513486 0.0117796 0.
0.516224 0.012162 0.
0.518638 0.0123342 0.
0.521046 0.0125017 0.
0.523313 0.0126331 0.
0.525498 0.0127505 0.
0.527685 0.0128689 0.
0.529748 0.0128833 0.
0.53181 0.0128967 0.
0.533863 0.0129113 0.
0.535894 0.012929 0.
0.537925 0.0129466 0.
0.539947 0.0129592 0.
0.54196 0.0129674 0.
0.543972 0.0129755 0.
0.545978 0.0129798 0.
0.547982 0.0129829 0.
0.549986 0.012986 0.
0.551986 0.0129866 0.
0.553987 0.0129871 0.
0.555988 0.0129877 0.
0.557988 0.0129886 0.
0.559989 0.0129895 0.
0.561989 0.0129901 0.
0.563989 0.0129904 0.
0.565989 0.0129908 0.
0.567989 0.012991 0.
0.569989 0.0129911 0.
0.571989 0.0129912 0.
0.573988 0.0129912 0.
0.575987 0.0129911 0.
0.577985 0.012991 0.
0.579985 0.0129913 0.
0.581984 0.0129916 0.
0.583984 0.0129918 0.
0.585983 0.0129921 0.
0.587982 0.0129923 0.
0.589981 0.0129925 0.
0.59198 0.0129928 0.
0.593979 0.012993 0.
0.595985 0.0129927 0.
0.597993 0.0129921 0.
0.6 0.0129916 0.
0.602008 0.0129921 0.
0.604016 0.0129926 0.
0.606021 0.0129929 0.
0.608021 0.0129927 0.
0.61002 0.0129925 0.
0.612019 0.0129923 0.
0.614018 0.0129921 0.
0.616017 0.0129919 0.
0.618016 0.0129916 0.
0.620015 0.0129913 0.
0.622015 0.0129909 0.
0.624014 0.012991 0.
0.626013 0.0129911 0.
0.628011 0.0129911 0.
0.630011 0.012991 0.
0.632011 0.0129909 0.
0.634011 0.0129906 0.
0.636012 0.0129903 0.
0.638012 0.0129899 0.
0.640012 0.012989 0.
0.642013 0.0129879 0.
0.644014 0.0129867 0.
0.646015 0.0129857 0.
0.648017 0.0129849 0.
0.650018 0.012984 0.
0.652024 0.0129796 0.
0.654029 0.0129752 0.
0.656038 0.0129691 0.
0.658058 0.0129571 0.
0.660077 0.0129452 0.
0.662106 0.0129301 0.
0.664147 0.0129113 0.
0.666187 0.0128924 0.
0.668269 0.01286 0.
0.670365 0.0128239 0.
0.672468 0.0127846 0.
0.67473 0.012632 0.
0.676987 0.0124818 0.
0.679376 0.0123036 0.
0.681901 0.0120933 0.
0.684497 0.0118335 0.
0.687436 0.0113348 0.
0.69054 0.0108182 0.
0.694002 0.0100854 0.
0.697817 0.00920401 0.
0.702314 0.00796011 0.
0.707141 0.00621858 0.
0.71211 0.0043964 0.
0.71786 0.00197216 0.
0.477319 0.00186165 0.
0.48339 0.00418047 0.
0.488754 0.00614651 0.
0.49365 0.00825867 0.
0.49882 0.010114 0.
0.502813 0.011174 0.
0.506454 0.0120156 0.
0.509813 0.012713 0.
0.512792 0.0132796 0.
0.515662 0.0138128 0.
0.518219 0.0140802 0.
0.520723 0.0143021 0.
0.523087 0.0144865 0.
0.525327 0.014651 0.
0.52757 0.0148181 0.
0.529659 0.0148418 0.
0.531743 0.0148606 0.
0.533816 0.0148809 0.
0.535856 0.0149045 0.
0.537897 0.0149281 0.
0.539926 0.0149452 0.
0.541944 0.0149565 0.
0.543962 0.0149679 0.
0.545971 0.0149739 0.
0.547976 0.0149784 0.
0.549981 0.0149828 0.
0.551983 0.0149838 0.
0.553984 0.0149848 0.
0.555985 0.0149858 0.
0.557986 0.0149868 0.
0.559987 0.0149879 0.
0.561987 0.0149887 0.
0.563988 0.0149891 0.
0.565988 0.0149895 0.
0.567988 0.0149897 0.
0.569988 0.0149899 0.
0.571988 0.0149901 0.
0.573987 0.0149901 0.
0.575985 0.0149901 0.
0.577984 0.0149901 0.
0.579984 0.0149904 0.
0.581983 0.0149907 0.
0.583982 0.0149909 0.
0.585982 0.0149912 0.
0.587981 0.0149914 0.
0.58998 0.0149915 0.
0.59198 0.0149914 0.
0.593979 0.0149913 0.
0.595985 0.0149919 0.
0.597993 0.0149927 0.
0.6 0.0149934 0.
0.602008 0.0149927 0.
0.604016 0.0149919 0.
0.606022 0.0149913 0.
0.608021 0.0149914 0.
0.61002 0.0149915 0.
0.612019 0.0149914 0.
0.614019 0.0149912 0.
0.616018 0.014991 0.
0.618017 0.0149907 0.
0.620017 0.0149904 0.
0.622016 0.0149901 0.
0.624015 0.01499 0.
0.626014 0.01499 0.
0.628013 0.01499 0.
0.630013 0.0149898 0.
0.632013 0.0149895 0.
0.634013 0.0149892 0.
0.636013 0.0149888 0.
0.638014 0.0149883 0.
0.640014 0.0149873 0.
0.642016 0.0149858 0.
0.644017 0.0149843 0.
0.646019 0.0149828 0.
0.648021 0.0149813 0.
0.650024 0.0149798 0.
0.652032 0.0149737 0.
0.65404 0.0149676 0.
0.656052 0.0149589 0.
0.658079 0.0149422 0.
0.660106 0.0149255 0.
0.662145 0.0149056 0.
0.664198 0.0148819 0.
0.666251 0.0148581 0.
0.668366 0.0148076 0.
0.670498 0.0147509 0.
0.672647 0.0146864 0.
0.674978 0.0144801 0.
0.677301 0.0142779 0.
0.67984 0.0140219 0.
0.682504 0.0137364 0.
0.685308 0.0132971 0.
0.688339 0.0125987 0.
0.691697 0.0118426 0.
0.695348 0.0109525 0.
0.699328 0.00997321 0.
0.704465 0.00825882 0.
0.709633 0.00626365 0.
0.715081 0.0041281 0.
0.721492 0.00187667 0.
0.473896 0.00172272 0.
0.48037 0.00404907 0.
0.486106 0.00609128 0.
0.491201 0.00830358 0.
0.496645 0.0103165 0.
0.501184 0.011874 0.
0.505222 0.0130383 0.
0.508797 0.0139192 0.
0.512034 0.0146748 0.
0.514941 0.0152815 0.
0.517625 0.0156695 0.
0.520196 0.0159548 0.
0.522673 0.0162138 0.
0.524968 0.0164193 0.
0.527274 0.0166293 0.
0.529434 0.0167015 0.
0.531578 0.0167612 0.
0.533705 0.0168162 0.
0.535763 0.0168472 0.
0.537823 0.0168783 0.
0.539868 0.016904 0.
0.5419 0.0169247 0.
0.543933 0.0169455 0.
0.545949 0.0169569 0.
0.547959 0.0169654 0.
0.54997 0.0169739 0.
0.551973 0.0169764 0.
0.553977 0.0169787 0.
0.55598 0.016981 0.
0.557982 0.0169828 0.
0.559983 0.0169846 0.
0.561985 0.016986 0.
0.563985 0.0169866 0.
0.565986 0.0169873 0.
0.567986 0.0169877 0.
0.569986 0.016988 0.
0.571986 0.0169883 0.
0.573985 0.0169884 0.
0.575984 0.0169884 0.
0.577983 0.0169885 0.
0.579983 0.0169888 0.
0.581983 0.0169891 0.
0.583982 0.0169894 0.
0.585982 0.0169895 0.
0.587981 0.0169896 0.
0.589981 0.0169895 0.
0.59198 0.0169891 0.
0.59398 0.0169887 0.
0.595985 0.0169893 0.
0.597993 0.0169903 0.
0.6 0.0169913 0.
0.602008 0.0169903 0.
0.604015 0.0169893 0.
0.606021 0.0169886 0.
0.60802 0.0169891 0.
0.61002 0.0169895 0.
0.612019 0.0169897 0.
0.614019 0.0169896 0.
0.616018 0.0169895 0.
0.618018 0.0169892 0.
0.620017 0.0169888 0.
0.622017 0.0169885 0.
0.624016 0.0169884 0.
0.626015 0.0169882 0.
0.628014 0.0169881 0.
0.630014 0.0169877 0.
0.632015 0.0169873 0.
0.634015 0.0169867 0.
0.636016 0.0169859 0.
0.638017 0.016985 0.
0.640019 0.0169832 0.
0.642022 0.0169808 0.
0.644024 0.0169783 0.
0.646029 0.0169749 0.
0.648034 0.0169713 0.
0.65004 0.0169676 0.
0.652055 0.016956 0.
0.654071 0.0169443 0.
0.656094 0.0169287 0.
0.658138 0.0169011 0.
0.660182 0.0168736 0.
0.662244 0.0168433 0.
0.664323 0.0168094 0.
0.666402 0.0167758 0.
0.668589 0.0166717 0.
0.670796 0.0165582 0.
0.673031 0.0164342 0.
0.675413 0.0161883 0.
0.677781 0.0159491 0.
0.680462 0.0155957 0.
0.68321 0.0152422 0.
0.68618 0.0146063 0.
0.689294 0.0137641 0.
0.692919 0.0127987 0.
0.696947 0.0116518 0.
0.701237 0.0104055 0.
0.706587 0.00841452 0.
0.712103 0.00623718 0.
0.717975 0.00396448 0.
0.725045 0.00171755 0.
0.470291 0.00157695 0.
0.477021 0.00390195 0.
0.483423 0.00596526 0.
0.488787 0.00822378 0.
0.494466 0.0104301 0.
0.499431 0.0124127 0.
0.50375 0.0138553 0.
0.507588 0.0149285 0.
0.510988 0.0158208 0.
0.513977 0.0165414 0.
0.516889 0.0171464 0.
0.519561 0.017533 0.
0.522198 0.0179083 0.
0.524568 0.0181627 0.
0.526951 0.0184234 0.
0.529191 0.0185492 0.
0.5314 0.0186539 0.
0.533589 0.0187498 0.
0.535667 0.0187886 0.
0.537746 0.0188275 0.
0.539809 0.0188619 0.
0.541855 0.0188922 0.
0.543902 0.0189227 0.
0.545926 0.0189398 0.
0.547942 0.0189524 0.
0.549958 0.018965 0.
0.551964 0.0189689 0.
0.553969 0.0189727 0.
0.555974 0.0189762 0.
0.557977 0.0189788 0.
0.55998 0.0189814 0.
0.561982 0.0189832 0.
0.563983 0.0189842 0.
0.565984 0.0189852 0.
0.567984 0.0189858 0.
0.569985 0.0189861 0.
0.571985 0.0189865 0.
0.573984 0.0189867 0.
0.575983 0.0189868 0.
0.577982 0.018987 0.
0.579982 0.0189873 0.
0.581982 0.0189876 0.
0.583982 0.0189878 0.
0.585982 0.0189879 0.
0.587981 0.0189879 0.
0.589981 0.0189875 0.
0.591981 0.0189868 0.
0.593981 0.018986 0.
0.595986 0.0189867 0.
0.597993 0.0189879 0.
0.600001 0.018989 0.
0.602008 0.0189879 0.
0.604015 0.0189867 0.
0.60602 0.0189859 0.
0.60802 0.0189867 0.
0.61002 0.0189875 0.
0.612019 0.018988 0.
0.614019 0.018988 0.
0.616019 0.018988 0.
0.618018 0.0189877 0.
0.620018 0.0189873 0.
0.622018 0.0189869 0.
0.624017 0.0189867 0.
0.626016 0.0189865 0.
0.628016 0.0189863 0.
0.630016 0.0189857 0.
0.632017 0.0189851 0.
0.634017 0.0189843 0.
0.636019 0.018983 0.
0.638021 0.0189817 0.
0.640024 0.0189792 0.
0.642028 0.0189757 0.
0.644032 0.0189723 0.
0.646039 0.018967 0.
0.648047 0.0189613 0.
0.650056 0.0189554 0.
0.652079 0.0189381 0.
0.654103 0.0189208 0.
0.656136 0.0188979 0.
0.658198 0.0188591 0.
0.660259 0.0188205 0.
0.662346 0.0187792 0.
0.664454 0.0187344 0.
0.666561 0.0186899 0.
0.668834 0.0185214 0.
0.671123 0.0183444 0.
0.673455 0.0181562 0.
0.675907 0.0178587 0.
0.678382 0.0175493 0.
0.681209 0.0170581 0.
0.684096 0.0165451 0.
0.687224 0.0156763 0.
0.690427 0.0147648 0.
0.694209 0.0136817 0.
0.698729 0.0121997 0.
0.703433 0.0105623 0.
0.70908 0.00843121 0.
0.714795 0.00596671 0.
0.72151 0.00393919 0.
0.728707 0.00150516 0.
0.466066 0.0013377 0.
0.473078 0.00373968 0.
0.480568 0.00576309 0.
0.486197 0.00811509 0.
0.492094 0.0104074 0.
0.49729 0.0126032 0.
0.502098 0.0144457 0.
0.50617 0.0157326 0.
0.509734 0.0168292 0.
0.512953 0.0177363 0.
0.5161 0.0185608 0.
0.518907 0.0190761 0.
0.521688 0.0195751 0.
0.524168 0.0198804 0.
0.526618 0.0201781 0.
0.528935 0.0203614 0.
0.531203 0.0205183 0.
0.533452 0.0206676 0.
0.535553 0.0207151 0.
0.537655 0.0207629 0.
0.539738 0.0208074 0.
0.541799 0.0208492 0.
0.54386 0.0208914 0.
0.545894 0.0209158 0.
0.547918 0.0209339 0.
0.549942 0.0209521 0.
0.55195 0.0209583 0.
0.553958 0.0209643 0.
0.555966 0.0209699 0.
0.55797 0.0209735 0.
0.559975 0.0209771 0.
0.561978 0.0209798 0.
0.56398 0.0209812 0.
0.565981 0.0209826 0.
0.567982 0.0209835 0.
0.569983 0.0209842 0.
0.571984 0.0209848 0.
0.573983 0.020985 0.
0.575982 0.0209852 0.
0.577982 0.0209855 0.
0.579982 0.0209858 0.
0.581982 0.0209861 0.
0.583982 0.0209863 0.
0.585982 0.0209862 0.
0.587982 0.0209862 0.
0.589982 0.0209856 0.
0.591982 0.0209847 0.
0.593982 0.0209837 0.
0.595987 0.0209845 0.
0.597994 0.0209857 0.
0.6 0.020987 0.
0.602007 0.0209857 0.
0.604014 0.0209843 0.
0.606019 0.0209836 0.
0.608019 0.0209846 0.
0.610019 0.0209857 0.
0.612019 0.0209863 0.
0.614019 0.0209864 0.
0.616019 0.0209864 0.
0.618019 0.0209862 0.
0.620019 0.0209858 0.
0.622019 0.0209854 0.
0.624018 0.0209851 0.
0.626018 0.0209848 0.
0.628017 0.0209844 0.
0.630018 0.0209834 0.
0.632019 0.0209825 0.
0.63402 0.0209812 0.
0.636023 0.0209793 0.
0.638025 0.0209773 0.
0.64003 0.0209737 0.
0.642036 0.020969 0.
0.644043 0.0209642 0.
0.646054 0.0209562 0.
0.648066 0.0209473 0.
0.650078 0.0209381 0.
0.652112 0.020913 0.
0.654146 0.020888 0.
0.656193 0.0208559 0.
0.658272 0.0208046 0.
0.660351 0.0207537 0.
0.662467 0.0206964 0.
0.664608 0.0206346 0.
0.666749 0.0205734 0.
0.669098 0.0203347 0.
0.671457 0.0200956 0.
0.673876 0.0198487 0.
0.676399 0.0195092 0.
0.679022 0.0191073 0.
0.681973 0.0184797 0.
0.685078 0.0177265 0.
0.688354 0.01666 0.
0.691829 0.0155606 0.
0.695759 0.0143543 0.
0.700602 0.0126207 0.
0.705616 0.0106106 0.
0.711574 0.00834606 0.
0.71743 0.00569259 0.
0.725478 0.00369845 0.
0.733536 0.00125286 0.
0.460609 0.00106924 0.
0.468895 0.00348127 0.
0.47767 0.00555891 0.
0.483595 0.00796303 0.
0.48977 0.0103326 0.
0.495209 0.0127086 0.
0.500494 0.0149201 0.
0.504733 0.0164336 0.
0.508498 0.0177366 0.
0.511988 0.0188664 0.
0.515305 0.0198409 0.
0.518257 0.0204715 0.
0.521116 0.0210362 0.
0.523712 0.0214362 0.
0.526241 0.0218199 0.
0.528649 0.0220994 0.
0.530968 0.0223318 0.
0.53328 0.0225607 0.
0.535412 0.0226203 0.
0.537545 0.02268 0.
0.539654 0.0227375 0.
0.541729 0.0227937 0.
0.543805 0.0228502 0.
0.545851 0.0228842 0.
0.547885 0.0229095 0.
0.54992 0.0229349 0.
0.551933 0.0229444 0.
0.553945 0.0229536 0.
0.555956 0.022962 0.
0.557962 0.0229669 0.
0.559968 0.0229718 0.
0.561973 0.0229755 0.
0.563976 0.0229776 0.
0.565979 0.0229797 0.
0.56798 0.0229811 0.
0.569981 0.0229821 0.
0.571982 0.0229831 0.
0.573982 0.0229835 0.
0.575982 0.0229837 0.
0.577981 0.022984 0.
0.579982 0.0229843 0.
0.581982 0.0229846 0.
0.583982 0.0229847 0.
0.585982 0.0229846 0.
0.587983 0.0229846 0.
0.589983 0.0229839 0.
0.591984 0.0229828 0.
0.593984 0.0229817 0.
0.595989 0.0229825 0.
0.597995 0.0229838 0.
0.6 0.0229851 0.
0.602006 0.0229837 0.
0.604012 0.0229823 0.
0.606017 0.0229815 0.
0.608017 0.0229828 0.
0.610018 0.022984 0.
0.612018 0.0229847 0.
0.614018 0.0229848 0.
0.616019 0.0229849 0.
0.618019 0.0229847 0.
0.620019 0.0229843 0.
0.62202 0.0229839 0.
0.624019 0.0229835 0.
0.626019 0.022983 0.
0.628019 0.0229825 0.
0.63002 0.022981 0.
0.632022 0.0229796 0.
0.634024 0.0229777 0.
0.636028 0.0229747 0.
0.638032 0.0229717 0.
0.640038 0.0229668 0.
0.642047 0.0229604 0.
0.644057 0.022954 0.
0.646072 0.0229422 0.
0.648089 0.022929 0.
0.650107 0.0229151 0.
0.652155 0.0228797 0.
0.654203 0.0228446 0.
0.656265 0.0228006 0.
0.658365 0.0227346 0.
0.660463 0.022669 0.
0.662617 0.0225847 0.
0.664804 0.0224916 0.
0.666999 0.0223902 0.
0.6694 0.0220666 0.
0.671802 0.0217479 0.
0.674328 0.0214151 0.
0.676931 0.0210153 0.
0.679692 0.0204895 0.
0.682669 0.0198174 0.
0.686008 0.0188248 0.
0.689432 0.0175929 0.
0.693201 0.0162875 0.
0.697561 0.0147453 0.
0.702626 0.012881 0.
0.707905 0.0105719 0.
0.71416 0.0081113 0.
0.72035 0.00555304 0.
0.729658 0.00342452 0.
0.739553 0.000906369 0.
0.453241 0.000723116 0.
0.464495 0.00326973 0.
0.474476 0.00537692 0.
0.481105 0.00777057 0.
0.487579 0.0102836 0.
0.493153 0.0127341 0.
0.498582 0.0151294 0.
0.503078 0.0168751 0.
0.507258 0.0185568 0.
0.510984 0.0198606 0.
0.514308 0.0208854 0.
0.517484 0.0217466 0.
0.520466 0.0224346 0.
0.523228 0.0229704 0.
0.525842 0.0234437 0.
0.528355 0.0238271 0.
0.530727 0.024136 0.
0.533098 0.0244478 0.
0.535268 0.0245246 0.
0.537433 0.0245964 0.
0.539569 0.024667 0.
0.541659 0.0247375 0.
0.54375 0.0248086 0.
0.545808 0.0248524 0.
0.547853 0.0248849 0.
0.549898 0.0249176 0.
0.551915 0.0249305 0.
0.553931 0.0249429 0.
0.555945 0.0249541 0.
0.557954 0.0249603 0.
0.559962 0.0249664 0.
0.561968 0.0249712 0.
0.563972 0.0249739 0.
0.565976 0.0249767 0.
0.567978 0.0249786 0.
0.569979 0.02498 0.
0.571981 0.0249814 0.
0.573981 0.0249819 0.
0.575981 0.0249823 0.
0.577981 0.0249826 0.
0.579981 0.0249828 0.
0.581982 0.0249831 0.
0.583982 0.0249832 0.
0.585983 0.024983 0.
0.587984 0.0249829 0.
0.589984 0.0249822 0.
0.591985 0.024981 0.
0.593986 0.0249797 0.
0.59599 0.0249805 0.
0.597995 0.0249818 0.
0.6 0.0249832 0.
0.602006 0.0249818 0.
0.604011 0.0249803 0.
0.606015 0.0249795 0.
0.608016 0.0249809 0.
0.610016 0.0249823 0.
0.612017 0.0249831 0.
0.614018 0.0249832 0.
0.616018 0.0249834 0.
0.618019 0.0249832 0.
0.62002 0.0249828 0.
0.62202 0.0249825 0.
0.62402 0.0249819 0.
0.626021 0.0249813 0.
0.628021 0.0249805 0.
0.630023 0.0249786 0.
0.632025 0.0249767 0.
0.634028 0.0249741 0.
0.636033 0.0249701 0.
0.638038 0.0249661 0.
0.640047 0.0249599 0.
0.642058 0.0249518 0.
0.64407 0.0249437 0.
0.646091 0.0249281 0.
0.648113 0.0249106 0.
0.650137 0.024892 0.
0.652199 0.0248463 0.
0.65426 0.0248008 0.
0.656339 0.0247448 0.
0.658458 0.0246639 0.
0.660576 0.0245837 0.
0.662773 0.0244698 0.
0.665004 0.0243446 0.
0.667258 0.0241967 0.
0.669709 0.0237873 0.
0.672155 0.0233883 0.
0.674813 0.0229627 0.
0.677522 0.0224856 0.
0.680502 0.0217309 0.
0.683575 0.0209059 0.
0.686999 0.019774 0.
0.69062 0.0184193 0.
0.69456 0.0169504 0.
0.699426 0.0149999 0.
0.704672 0.0129819 0.
0.710283 0.0104707 0.
0.71669 0.00779492 0.
0.723495 0.00543483 0.
0.734153 0.00327701 0.
0.74999 0.00062825 0.
0.440767 0.000572045 0.
0.460181 0.00302775 0.
0.471274 0.00523027 0.
0.478651 0.00759281 0.
0.485247 0.0102063 0.
0.490981 0.0126681 0.
0.496553 0.0151843 0.
0.501354 0.0171808 0.
0.506014 0.0192798 0.
0.509731 0.0206565 0.
0.513246 0.0218494 0.
0.516665 0.0229824 0.
0.519762 0.0237825 0.
0.522702 0.0244619 0.
0.525379 0.0250061 0.
0.52797 0.0254831 0.
0.530371 0.0258426 0.
0.532791 0.0262089 0.
0.535024 0.0263374 0.
0.537236 0.026449 0.
0.539417 0.0265542 0.
0.541531 0.0266391 0.
0.543646 0.0267247 0.
0.545725 0.0267839 0.
0.547789 0.0268313 0.
0.549852 0.0268791 0.
0.551878 0.0268997 0.
0.553902 0.0269191 0.
0.555923 0.0269365 0.
0.557936 0.0269455 0.
0.559949 0.0269546 0.
0.561959 0.0269617 0.
0.563964 0.0269661 0.
0.56597 0.0269706 0.
0.567974 0.0269736 0.
0.569976 0.0269758 0.
0.571978 0.0269781 0.
0.573979 0.0269789 0.
0.575979 0.0269795 0.
0.57798 0.0269801 0.
0.579981 0.0269804 0.
0.581982 0.0269807 0.
0.583983 0.0269808 0.
0.585984 0.0269805 0.
0.587985 0.0269802 0.
0.589986 0.0269793 0.
0.591987 0.0269779 0.
0.593988 0.0269765 0.
0.595992 0.0269769 0.
0.597996 0.0269778 0.
0.6 0.0269787 0.
0.602005 0.0269777 0.
0.604009 0.0269767 0.
0.606012 0.0269763 0.
0.608014 0.0269778 0.
0.610015 0.0269793 0.
0.612016 0.0269803 0.
0.614017 0.0269806 0.
0.616018 0.0269809 0.
0.618019 0.0269806 0.
0.62002 0.0269802 0.
0.622022 0.0269797 0.
0.624022 0.0269788 0.
0.626023 0.0269779 0.
0.628024 0.0269767 0.
0.630027 0.0269736 0.
0.63203 0.0269705 0.
0.634035 0.0269664 0.
0.636043 0.0269601 0.
0.638051 0.0269538 0.
0.640064 0.0269444 0.
0.642082 0.0269327 0.
0.644099 0.026921 0.
0.646129 0.0268973 0.
0.648162 0.026871 0.
0.650198 0.0268424 0.
0.652282 0.0267778 0.
0.654364 0.0267139 0.
0.656472 0.0266387 0.
0.658625 0.0265395 0.
0.660775 0.0264416 0.
0.663023 0.0262802 0.
0.665302 0.0261067 0.
0.667623 0.0258879 0.
0.670104 0.0254226 0.
0.672572 0.0249776 0.
0.675354 0.0244715 0.
0.67818 0.0239024 0.
0.681371 0.0228964 0.
0.684645 0.0218659 0.
0.688158 0.0205536 0.
0.691885 0.0191204 0.
0.696276 0.0172947 0.
0.701342 0.0151813 0.
0.706674 0.0130092 0.
0.712591 0.0103408 0.
0.719213 0.00758373 0.
0.726771 0.00515141 0.
0.73813 0.00300394 0.
0.768942 0.000573021 0.
0.416838 0.000913393 0.
0.45642 0.0025985 0.
0.467842 0.00500811 0.
0.476118 0.00739658 0.
0.482945 0.0101017 0.
0.48884 0.012565 0.
0.494551 0.015208 0.
0.499635 0.0174121 0.
0.504575 0.0197986 0.
0.508328 0.0213017 0.
0.512148 0.0227303 0.
0.515755 0.0240828 0.
0.518956 0.0250116 0.
0.522007 0.0258014 0.
0.524729 0.0264285 0.
0.527455 0.0270656 0.
0.529934 0.0274942 0.
0.532428 0.027923 0.
0.534748 0.0281214 0.
0.537016 0.0282841 0.
0.539253 0.028435 0.
0.541393 0.0285355 0.
0.543536 0.0286369 0.
0.545639 0.0287125 0.
0.547722 0.0287757 0.
0.549805 0.0288395 0.
0.55184 0.0288682 0.
0.553872 0.0288948 0.
0.555901 0.0289187 0.
0.557918 0.0289306 0.
0.559935 0.0289426 0.
0.561949 0.028952 0.
0.563957 0.0289582 0.
0.565965 0.0289644 0.
0.567969 0.0289686 0.
0.569973 0.0289717 0.
0.571976 0.0289747 0.
0.573977 0.0289759 0.
0.575978 0.0289767 0.
0.577979 0.0289775 0.
0.57998 0.0289779 0.
0.581982 0.0289783 0.
0.583983 0.0289784 0.
0.585984 0.0289779 0.
0.587985 0.0289775 0.
0.589987 0.0289764 0.
0.591989 0.0289748 0.
0.593991 0.0289732 0.
0.595994 0.0289732 0.
0.597997 0.0289737 0.
0.6 0.0289741 0.
0.602004 0.0289736 0.
0.604007 0.0289731 0.
0.60601 0.0289731 0.
0.608012 0.0289748 0.
0.610014 0.0289764 0.
0.612015 0.0289775 0.
0.614017 0.0289779 0.
0.616018 0.0289784 0.
0.61802 0.0289781 0.
0.620021 0.0289775 0.
0.622023 0.0289769 0.
0.624024 0.0289757 0.
0.626026 0.0289744 0.
0.628027 0.0289728 0.
0.630032 0.0289685 0.
0.632036 0.0289643 0.
0.634042 0.0289586 0.
0.636053 0.02895 0.
0.638064 0.0289414 0.
0.640082 0.0289288 0.
0.642105 0.0289133 0.
0.644129 0.0288978 0.
0.646169 0.0288658 0.
0.648213 0.0288304 0.
0.650261 0.028791 0.
0.652368 0.0287063 0.
0.654474 0.0286226 0.
0.656616 0.028526 0.
0.658808 0.0284053 0.
0.660997 0.0282863 0.
0.663309 0.0280637 0.
0.665644 0.0278308 0.
0.668057 0.0275182 0.
0.670609 0.0269747 0.
0.673201 0.0264386 0.
0.676059 0.0258236 0.
0.678995 0.0251129 0.
0.682293 0.0239626 0.
0.685796 0.0227198 0.
0.6894 0.0212529 0.
0.693228 0.0197078 0.
0.698088 0.0174811 0.
0.703403 0.0152831 0.
0.708849 0.0128737 0.
0.714961 0.0101106 0.
0.721774 0.00742939 0.
0.730092 0.00494969 0.
0.741797 0.00258772 0.
0.787944 0.00142058 0.
0.405499 0.00172589 0.
0.452696 0.00223471 0.
0.464251 0.00486669 0.
0.473467 0.00717166 0.
0.48057 0.00994322 0.
0.486692 0.0124866 0.
0.4925 0.0151422 0.
0.497749 0.0175239 0.
0.502695 0.0199236 0.
0.506855 0.0218282 0.
0.511035 0.0235298 0.
0.514696 0.0249674 0.
0.517986 0.0260696 0.
0.521171 0.0270346 0.
0.524056 0.027809 0.
0.526898 0.0286015 0.
0.529488 0.0291331 0.
0.532059 0.0296204 0.
0.534474 0.0298887 0.
0.536793 0.0301008 0.
0.539085 0.0303034 0.
0.54125 0.0304182 0.
0.543418 0.0305344 0.
0.545545 0.0306273 0.
0.547646 0.0307082 0.
0.549748 0.0307902 0.
0.551794 0.0308291 0.
0.553835 0.0308644 0.
0.555874 0.0308963 0.
0.557896 0.0309117 0.
0.559918 0.0309272 0.
0.561936 0.0309397 0.
0.563946 0.0309481 0.
0.565957 0.0309566 0.
0.567964 0.0309623 0.
0.569968 0.0309665 0.
0.571972 0.0309707 0.
0.573974 0.0309723 0.
0.575976 0.0309735 0.
0.577978 0.0309746 0.
0.57998 0.0309751 0.
0.581981 0.0309756 0.
0.583983 0.0309757 0.
0.585985 0.0309751 0.
0.587986 0.0309746 0.
0.589988 0.0309734 0.
0.591991 0.0309718 0.
0.593993 0.0309702 0.
0.595995 0.03097 0.
0.597998 0.0309702 0.
0.6 0.0309705 0.
0.602003 0.0309702 0.
0.604006 0.03097 0.
0.606008 0.0309701 0.
0.60801 0.0309717 0.
0.610012 0.0309733 0.
0.612014 0.0309745 0.
0.614016 0.030975 0.
0.616018 0.0309755 0.
0.61802 0.0309752 0.
0.620022 0.0309744 0.
0.622024 0.0309736 0.
0.624027 0.0309719 0.
0.626029 0.0309701 0.
0.628032 0.0309678 0.
0.630038 0.0309622 0.
0.632044 0.0309565 0.
0.634053 0.0309487 0.
0.636067 0.0309369 0.
0.638082 0.0309251 0.
0.640105 0.0309088 0.
0.642135 0.030889 0.
0.644164 0.0308694 0.
0.646216 0.0308267 0.
0.648272 0.0307797 0.
0.650336 0.0307271 0.
0.652465 0.0306215 0.
0.654592 0.0305173 0.
0.656767 0.0303966 0.
0.658996 0.030254 0.
0.661222 0.0301164 0.
0.663596 0.0298323 0.
0.665986 0.02954 0.
0.668497 0.0291284 0.
0.671123 0.0285087 0.
0.673872 0.0278568 0.
0.676838 0.0270978 0.
0.679992 0.0260984 0.
0.68327 0.024885 0.
0.686964 0.0234999 0.
0.690848 0.021774 0.
0.69472 0.020139 0.
0.699939 0.0175629 0.
0.705447 0.0153133 0.
0.711108 0.0126664 0.
0.717297 0.00983423 0.
0.724458 0.007202 0.
0.733752 0.00490335 0.
0.745298 0.00216959 0.
0.794906 0.0017844 0.
0.397947 0.00162716 0.
0.448518 0.00196567 0.
0.460377 0.00482444 0.
0.470766 0.00696302 0.
0.478142 0.00974089 0.
0.484534 0.0123865 0.
0.490426 0.0150128 0.
0.495819 0.0175715 0.
0.500869 0.0199926 0.
0.505373 0.0222832 0.
0.509719 0.0241803 0.
0.513487 0.025677 0.
0.51703 0.0270881 0.
0.520332 0.0282048 0.
0.523417 0.0291439 0.
0.526341 0.0300399 0.
0.52902 0.0306525 0.
0.531649 0.0311831 0.
0.534157 0.0315491 0.
0.536534 0.0318446 0.
0.538899 0.0321359 0.
0.541091 0.0322696 0.
0.543286 0.0324049 0.
0.545438 0.0325197 0.
0.547557 0.0326232 0.
0.549678 0.0327281 0.
0.551737 0.0327802 0.
0.553791 0.0328266 0.
0.55584 0.0328687 0.
0.557868 0.0328883 0.
0.559896 0.032908 0.
0.561919 0.0329242 0.
0.563933 0.0329355 0.
0.565947 0.032947 0.
0.567956 0.0329546 0.
0.569962 0.0329602 0.
0.571968 0.0329658 0.
0.573971 0.032968 0.
0.575974 0.0329697 0.
0.577976 0.0329713 0.
0.579979 0.032972 0.
0.581981 0.0329726 0.
0.583983 0.0329728 0.
0.585985 0.0329721 0.
0.587987 0.0329714 0.
0.58999 0.0329703 0.
0.591992 0.0329688 0.
0.593994 0.0329673 0.
0.595996 0.0329672 0.
0.597998 0.0329675 0.
0.6 0.0329678 0.
0.602003 0.0329675 0.
0.604005 0.0329672 0.
0.606007 0.0329673 0.
0.608009 0.0329687 0.
0.610011 0.0329702 0.
0.612014 0.0329712 0.
0.614016 0.0329718 0.
0.616018 0.0329723 0.
0.618021 0.0329718 0.
0.620024 0.0329708 0.
0.622026 0.0329698 0.
0.62403 0.0329674 0.
0.626033 0.0329649 0.
0.628038 0.0329617 0.
0.630045 0.0329543 0.
0.632053 0.0329469 0.
0.634065 0.0329365 0.
0.636085 0.0329206 0.
0.638104 0.0329047 0.
0.640134 0.0328837 0.
0.642171 0.032859 0.
0.644207 0.0328344 0.
0.646274 0.0327775 0.
0.648345 0.0327154 0.
0.650427 0.032645 0.
0.652579 0.0325151 0.
0.654728 0.0323869 0.
0.656938 0.0322268 0.
0.659202 0.0320395 0.
0.66147 0.0318544 0.
0.663913 0.031501 0.
0.666355 0.031149 0.
0.668958 0.0306349 0.
0.671608 0.0299761 0.
0.674516 0.0292158 0.
0.677582 0.0283363 0.
0.680976 0.0270252 0.
0.684435 0.0256677 0.
0.68812 0.0242188 0.
0.692375 0.0221809 0.
0.696597 0.0201851 0.
0.701856 0.0176327 0.
0.707526 0.0152658 0.
0.713312 0.0124418 0.
0.719632 0.00965829 0.
0.727233 0.00681094 0.
0.737666 0.00481457 0.
0.749291 0.00200694 0.
0.798146 0.00210984 0.
0.397192 0.00186199 0.
0.444482 0.0018999 0.
0.456625 0.00455738 0.
0.468004 0.00672066 0.
0.475795 0.00952039 0.
0.482424 0.0122556 0.
0.488403 0.0148832 0.
0.493934 0.0175911 0.
0.49907 0.0200447 0.
0.503696 0.0225263 0.
0.508188 0.0246349 0.
0.512253 0.0263231 0.
0.51605 0.0280358 0.
0.519463 0.0292843 0.
0.522673 0.0303298 0.
0.525618 0.031304 0.
0.528468 0.0320838 0.
0.531194 0.0327086 0.
0.533825 0.0331948 0.
0.536265 0.0335766 0.
0.538706 0.0339635 0.
0.540929 0.0341195 0.
0.543151 0.0342741 0.
0.54533 0.0344108 0.
0.547467 0.0345371 0.
0.549606 0.0346651 0.
0.55168 0.0347311 0.
0.553746 0.0347886 0.
0.555807 0.034841 0.
0.557841 0.0348649 0.
0.559874 0.0348887 0.
0.561902 0.0349086 0.
0.56392 0.0349229 0.
0.565938 0.0349373 0.
0.567949 0.0349469 0.
0.569956 0.0349539 0.
0.571964 0.034961 0.
0.573968 0.0349638 0.
0.575971 0.034966 0.
0.577975 0.0349681 0.
0.579978 0.0349688 0.
0.581981 0.0349696 0.
0.583983 0.0349698 0.
0.585986 0.0349691 0.
0.587988 0.0349683 0.
0.589991 0.0349672 0.
0.591993 0.0349659 0.
0.593995 0.0349645 0.
0.595997 0.0349644 0.
0.597999 0.0349648 0.
0.6 0.0349651 0.
0.602002 0.0349648 0.
0.604004 0.0349645 0.
0.606006 0.0349645 0.
0.608008 0.0349658 0.
0.61001 0.034967 0.
0.612013 0.034968 0.
0.614016 0.0349685 0.
0.616019 0.0349691 0.
0.618022 0.0349685 0.
0.620025 0.0349673 0.
0.622029 0.0349661 0.
0.624033 0.034963 0.
0.626038 0.0349597 0.
0.628043 0.0349556 0.
0.630053 0.0349465 0.
0.632063 0.0349373 0.
0.634078 0.0349242 0.
0.636103 0.0349042 0.
0.638127 0.0348841 0.
0.640163 0.0348585 0.
0.642207 0.0348289 0.
0.644251 0.0347994 0.
0.646332 0.0347279 0.
0.648419 0.0346504 0.
0.650519 0.0345618 0.
0.652694 0.0344074 0.
0.654866 0.034255 0.
0.657113 0.0340519 0.
0.659411 0.0338193 0.
0.661729 0.0335851 0.
0.664246 0.033156 0.
0.666752 0.032733 0.
0.669498 0.0320797 0.
0.672246 0.0313281 0.
0.675282 0.0304143 0.
0.678372 0.0294607 0.
0.681971 0.027886 0.
0.685729 0.0263374 0.
0.6893 0.0248571 0.
0.693925 0.0225118 0.
0.698464 0.0201588 0.
0.703857 0.0176996 0.
0.709623 0.0150842 0.
0.715514 0.0121883 0.
0.722012 0.00953017 0.
0.73 0.00654733 0.
0.74143 0.0045542 0.
0.753522 0.00191461 0.
0.799124 0.00249696 0.
0.398136 0.002484 0.
0.440539 0.00187664 0.
0.453306 0.00424758 0.
0.465305 0.00654732 0.
0.473487 0.00930657 0.
0.480355 0.0120979 0.
0.486455 0.0148378 0.
0.492095 0.0175461 0.
0.497247 0.0200914 0.
0.502003 0.022627 0.
0.506617 0.0249764 0.
0.510995 0.0269129 0.
0.514936 0.0287883 0.
0.518471 0.0302132 0.
0.521799 0.0314472 0.
0.524848 0.032532 0.
0.527884 0.0334862 0.
0.5307 0.0341977 0.
0.533463 0.0348092 0.
0.535939 0.0352521 0.
0.538421 0.0357139 0.
0.540691 0.0359089 0.
0.542948 0.0360917 0.
0.545166 0.0362587 0.
0.547326 0.0364065 0.
0.54949 0.0365565 0.
0.551587 0.0366446 0.
0.553671 0.0367228 0.
0.555752 0.0367952 0.
0.557793 0.036824 0.
0.559835 0.0368528 0.
0.56187 0.0368781 0.
0.563895 0.0368984 0.
0.56592 0.0369188 0.
0.567935 0.0369322 0.
0.569946 0.0369419 0.
0.571956 0.0369515 0.
0.573962 0.0369557 0.
0.575967 0.0369591 0.
0.577972 0.0369623 0.
0.579975 0.0369634 0.
0.581979 0.0369646 0.
0.583983 0.0369652 0.
0.585986 0.0369648 0.
0.587989 0.0369643 0.
0.589991 0.0369635 0.
0.591993 0.0369626 0.
0.593996 0.0369617 0.
0.595997 0.0369617 0.
0.597999 0.0369621 0.
0.6 0.0369624 0.
0.602002 0.0369621 0.
0.604004 0.0369618 0.
0.606005 0.0369617 0.
0.608008 0.0369624 0.
0.61001 0.0369631 0.
0.612013 0.0369636 0.
0.614016 0.0369638 0.
0.61602 0.036964 0.
0.618024 0.0369628 0.
0.620028 0.0369611 0.
0.622033 0.0369593 0.
0.624039 0.0369547 0.
0.626046 0.0369498 0.
0.628053 0.0369439 0.
0.630067 0.0369311 0.
0.632081 0.0369184 0.
0.634102 0.0369003 0.
0.636135 0.0368728 0.
0.638167 0.0368455 0.
0.640212 0.0368137 0.
0.642264 0.0367787 0.
0.644316 0.0367439 0.
0.646426 0.0366442 0.
0.64854 0.0365387 0.
0.650669 0.0364233 0.
0.652866 0.0362499 0.
0.655058 0.0360787 0.
0.657352 0.0358245 0.
0.659687 0.0355435 0.
0.662057 0.0352558 0.
0.664609 0.0347784 0.
0.667195 0.0342795 0.
0.670078 0.0334927 0.
0.672984 0.0326197 0.
0.676194 0.0314823 0.
0.679406 0.030282 0.
0.682982 0.0286801 0.
0.687109 0.0269011 0.
0.690989 0.0250856 0.
0.695487 0.0227607 0.
0.700267 0.0201234 0.
0.705848 0.0177251 0.
0.711619 0.0149013 0.
0.717625 0.0119757 0.
0.724338 0.00935641 0.
0.73282 0.00645807 0.
0.744687 0.00417595 0.
0.757612 0.00188931 0.
0.798967 0.00301378 0.
0.3992 0.00323149 0.
0.436738 0.00190688 0.
0.450288 0.00401779 0.
0.462576 0.00645806 0.
0.471315 0.00912856 0.
0.478377 0.0119547 0.
0.484513 0.0147812 0.
0.490271 0.0174671 0.
0.495454 0.020124 0.
0.500326 0.0226428 0.
0.504997 0.0252047 0.
0.509563 0.0273535 0.
0.513706 0.0293879 0.
0.51737 0.0310322 0.
0.520803 0.0324853 0.
0.524039 0.0337009 0.
0.527248 0.03481 0.
0.53009 0.0355573 0.
0.532943 0.0362748 0.
0.535488 0.0368154 0.
0.538038 0.0373824 0.
0.54039 0.0376551 0.
0.542704 0.0378831 0.
0.544979 0.0380931 0.
0.547169 0.0382651 0.
0.549364 0.0384396 0.
0.551487 0.0385525 0.
0.553593 0.0386536 0.
0.555695 0.0387481 0.
0.557745 0.038782 0.
0.559795 0.0388161 0.
0.561838 0.0388469 0.
0.56387 0.0388734 0.
0.565901 0.0388999 0.
0.567921 0.0389174 0.
0.569935 0.0389297 0.
0.571948 0.038942 0.
0.573956 0.0389475 0.
0.575962 0.0389521 0.
0.577969 0.0389564 0.
0.579973 0.038958 0.
0.581978 0.0389596 0.
0.583982 0.0389606 0.
0.585986 0.0389604 0.
0.587989 0.0389602 0.
0.589992 0.0389599 0.
0.591994 0.0389594 0.
0.593996 0.0389589 0.
0.595998 0.038959 0.
0.597999 0.0389594 0.
0.6 0.0389597 0.
0.602002 0.0389594 0.
0.604003 0.0389591 0.
0.606005 0.0389589 0.
0.608007 0.0389591 0.
0.61001 0.0389592 0.
0.612013 0.0389592 0.
0.614017 0.038959 0.
0.616021 0.0389588 0.
0.618026 0.0389571 0.
0.620031 0.0389548 0.
0.622037 0.0389524 0.
0.624045 0.0389463 0.
0.626053 0.0389397 0.
0.628063 0.0389319 0.
0.630082 0.0389156 0.
0.6321 0.0388992 0.
0.634127 0.0388759 0.
0.636168 0.0388407 0.
0.638209 0.0388057 0.
0.640262 0.0387676 0.
0.642323 0.0387271 0.
0.644383 0.0386866 0.
0.646526 0.0385546 0.
0.648671 0.0384171 0.
0.650834 0.0382715 0.
0.65306 0.0380755 0.
0.655282 0.037882 0.
0.657648 0.0375574 0.
0.66005 0.0372105 0.
0.662529 0.0368254 0.
0.665151 0.0362456 0.
0.66782 0.0356472 0.
0.670701 0.0348352 0.
0.673807 0.0338048 0.
0.677143 0.0324779 0.
0.680625 0.0309391 0.
0.684139 0.0293351 0.
0.688519 0.0273836 0.
0.692729 0.0252182 0.
0.697144 0.0228757 0.
0.702102 0.020134 0.
0.707768 0.0177187 0.
0.713556 0.0147319 0.
0.719684 0.0118124 0.
0.726585 0.00906607 0.
0.735616 0.00642909 0.
0.747651 0.00403288 0.
0.761354 0.00187855 0.
0.798666 0.00360291 0.
0.399612 0.00390406 0.
0.432724 0.00194399 0.
0.44745 0.0039064 0.
0.459859 0.00642565 0.
0.469106 0.00901898 0.
0.476401 0.0118045 0.
0.482627 0.01472 0.
0.488483 0.0173801 0.
0.493657 0.0201368 0.
0.498641 0.0226583 0.
0.503287 0.025262 0.
0.508011 0.0276479 0.
0.512359 0.0298442 0.
0.516215 0.0317634 0.
0.51976 0.033401 0.
0.523202 0.0347869 0.
0.526396 0.0359186 0.
0.529398 0.0368191 0.
0.532362 0.0376827 0.
0.535027 0.0383586 0.
0.537645 0.0390301 0.
0.540085 0.0393932 0.
0.542457 0.039666 0.
0.544793 0.0399221 0.
0.547009 0.0401134 0.
0.549233 0.0403096 0.
0.551382 0.0404483 0.
0.553509 0.0405744 0.
0.555632 0.0406947 0.
0.557691 0.0407338 0.
0.55975 0.040773 0.
0.561801 0.0408097 0.
0.56384 0.0408432 0.
0.565878 0.0408768 0.
0.567904 0.040899 0.
0.569921 0.0409146 0.
0.571939 0.0409302 0.
0.573948 0.0409376 0.
0.575956 0.0409437 0.
0.577964 0.0409495 0.
0.57997 0.0409517 0.
0.581976 0.0409539 0.
0.583981 0.0409555 0.
0.585985 0.0409558 0.
0.587989 0.040956 0.
0.589992 0.0409562 0.
0.591994 0.0409562 0.
0.593996 0.0409562 0.
0.595998 0.0409565 0.
0.597999 0.0409569 0.
0.6 0.0409574 0.
0.602002 0.040957 0.
0.604003 0.0409566 0.
0.606005 0.0409562 0.
0.608007 0.0409557 0.
0.61001 0.0409552 0.
0.612013 0.0409546 0.
0.614018 0.0409537 0.
0.616022 0.0409529 0.
0.618029 0.0409505 0.
0.620036 0.0409474 0.
0.622043 0.0409443 0.
0.624053 0.0409362 0.
0.626064 0.0409275 0.
0.628076 0.0409172 0.
0.630099 0.0408963 0.
0.632123 0.0408755 0.
0.634156 0.0408462 0.
0.636206 0.040803 0.
0.638255 0.04076 0.
0.640318 0.0407144 0.
0.642389 0.0406668 0.
0.64446 0.0406196 0.
0.646631 0.0404522 0.
0.648804 0.0402822 0.
0.651001 0.0401079 0.
0.653254 0.0398951 0.
0.655503 0.0396817 0.
0.657951 0.0392788 0.
0.660421 0.0388654 0.
0.663021 0.0383691 0.
0.665727 0.0376794 0.
0.668593 0.0369058 0.
0.671581 0.0359717 0.
0.674701 0.034836 0.
0.678116 0.0333984 0.
0.6819 0.031524 0.
0.685692 0.0297555 0.
0.690011 0.0277471 0.
0.694472 0.0252963 0.
0.698932 0.0228255 0.
0.704071 0.0201412 0.
0.709656 0.0176154 0.
0.715491 0.0145496 0.
0.721715 0.0117069 0.
0.728792 0.00877103 0.
0.738428 0.00638007 0.
0.750502 0.00396124 0.
0.765031 0.00186128 0.
0.798597 0.00420798 0.
0.399495 0.00457901 0.
0.428734 0.00205594 0.
0.444592 0.00388768 0.
0.457102 0.00629849 0.
0.466926 0.00886975 0.
0.474388 0.0116056 0.
0.480717 0.0145992 0.
0.48666 0.0173144 0.
0.491851 0.0200705 0.
0.496932 0.0227106 0.
0.501595 0.0252584 0.
0.506407 0.0278156 0.
0.510958 0.0302059 0.
0.51494 0.0323134 0.
0.518715 0.0341982 0.
0.522217 0.0357094 0.
0.525501 0.0369735 0.
0.528716 0.038048 0.
0.531781 0.0390426 0.
0.53457 0.0398475 0.
0.537194 0.0405648 0.
0.539717 0.0410276 0.
0.542145 0.0413562 0.
0.544553 0.0416774 0.
0.546811 0.0419056 0.
0.549079 0.0421405 0.
0.551264 0.0423173 0.
0.553414 0.0424768 0.
0.555561 0.0426315 0.
0.557629 0.0426763 0.
0.559698 0.0427213 0.
0.561759 0.0427646 0.
0.563804 0.0428064 0.
0.56585 0.0428484 0.
0.567882 0.0428765 0.
0.569904 0.0428962 0.
0.571926 0.0429159 0.
0.573938 0.0429256 0.
0.575949 0.0429338 0.
0.577959 0.0429414 0.
0.579966 0.0429445 0.
0.581973 0.0429475 0.
0.583979 0.0429499 0.
0.585983 0.0429508 0.
0.587988 0.0429517 0.
0.589991 0.0429524 0.
0.591994 0.042953 0.
0.593996 0.0429536 0.
0.595998 0.0429542 0.
0.597999 0.0429548 0.
0.600001 0.0429554 0.
0.602002 0.0429548 0.
0.604004 0.0429542 0.
0.606005 0.0429534 0.
0.608008 0.0429523 0.
0.610011 0.0429511 0.
0.612015 0.0429497 0.
0.61402 0.042948 0.
0.616026 0.0429463 0.
0.618033 0.042943 0.
0.620042 0.0429389 0.
0.62205 0.0429348 0.
0.624063 0.0429241 0.
0.626076 0.0429128 0.
0.628092 0.0428994 0.
0.630121 0.0428727 0.
0.632151 0.0428461 0.
0.634191 0.0428097 0.
0.636249 0.0427577 0.
0.638307 0.042706 0.
0.640384 0.0426501 0.
0.642471 0.0425917 0.
0.644559 0.042532 0.
0.646751 0.0423204 0.
0.648944 0.042108 0.
0.651192 0.0418811 0.
0.653519 0.0416146 0.
0.655831 0.0413573 0.
0.658333 0.0409006 0.
0.660832 0.040444 0.
0.663511 0.0398506 0.
0.666293 0.0390772 0.
0.669392 0.0381266 0.
0.67251 0.0370712 0.
0.67585 0.0356472 0.
0.679251 0.0341062 0.
0.683193 0.0320574 0.
0.68736 0.0300543 0.
0.691577 0.0279625 0.
0.696215 0.0253152 0.
0.700727 0.0227297 0.
0.706052 0.0201299 0.
0.711553 0.0174351 0.
0.717428 0.0143694 0.
0.723799 0.0115853 0.
0.731099 0.0085859 0.
0.741193 0.00625886 0.
0.753214 0.00386878 0.
0.769023 0.00198241 0.
0.798682 0.00486451 0.
0.399498 0.00538804 0.
0.42548 0.00238945 0.
0.441935 0.00387129 0.
0.45459 0.00618286 0.
0.464807 0.0087358 0.
0.472437 0.0114649 0.
0.478862 0.0144632 0.
0.484858 0.0172769 0.
0.490102 0.0199799 0.
0.495192 0.0227472 0.
0.49992 0.0252176 0.
0.504846 0.0279346 0.
0.509388 0.0303773 0.
0.513575 0.0326999 0.
0.517594 0.0348569 0.
0.521096 0.036522 0.
0.524559 0.0379764 0.
0.528011 0.039214 0.
0.531063 0.0402572 0.
0.533926 0.0411959 0.
0.536636 0.0420136 0.
0.539302 0.0426216 0.
0.541806 0.0430241 0.
0.544303 0.0434269 0.
0.546607 0.0436938 0.
0.54892 0.0439681 0.
0.551144 0.0441842 0.
0.553316 0.0443774 0.
0.555488 0.0445678 0.
0.557567 0.0446188 0.
0.559646 0.0446695 0.
0.561716 0.0447193 0.
0.563769 0.0447694 0.
0.565822 0.0448198 0.
0.56786 0.0448539 0.
0.569887 0.0448777 0.
0.571914 0.0449016 0.
0.573929 0.0449137 0.
0.575941 0.0449238 0.
0.577953 0.0449334 0.
0.579961 0.0449372 0.
0.581969 0.0449411 0.
0.583977 0.0449442 0.
0.585982 0.0449458 0.
0.587987 0.0449473 0.
0.58999 0.0449486 0.
0.591993 0.0449498 0.
0.593996 0.0449509 0.
0.595998 0.0449518 0.
0.597999 0.0449527 0.
0.600001 0.0449535 0.
0.602002 0.0449526 0.
0.604004 0.0449517 0.
0.606006 0.0449507 0.
0.608009 0.0449489 0.
0.610012 0.044947 0.
0.612016 0.0449449 0.
0.614023 0.0449423 0.
0.616029 0.0449397 0.
0.618037 0.0449354 0.
0.620047 0.0449303 0.
0.622058 0.0449252 0.
0.624073 0.044912 0.
0.626089 0.044898 0.
0.628108 0.0448814 0.
0.630143 0.044849 0.
0.632179 0.0448166 0.
0.634226 0.0447731 0.
0.636293 0.0447123 0.
0.63836 0.0446518 0.
0.640451 0.0445853 0.
0.642553 0.0445162 0.
0.644659 0.0444421 0.
0.646872 0.0441861 0.
0.649084 0.043931 0.
0.651394 0.0436476 0.
0.653801 0.0433229 0.
0.656205 0.0429995 0.
0.658785 0.0424749 0.
0.661359 0.0419524 0.
0.664205 0.0411785 0.
0.666987 0.0403502 0.
0.670251 0.0392881 0.
0.673585 0.0380514 0.
0.677057 0.0363803 0.
0.680594 0.0346022 0.
0.684584 0.0324979 0.
0.689026 0.0302826 0.
0.69326 0.028016 0.
0.69795 0.0253099 0.
0.702516 0.0226834 0.
0.70797 0.0200959 0.
0.71338 0.0172562 0.
0.719375 0.0142361 0.
0.72584 0.011373 0.
0.733398 0.00852069 0.
0.743847 0.0060643 0.
0.755636 0.00385995 0.
0.772581 0.0023121 0.
0.798699 0.00559683 0.
0.399605 0.00623821 0.
0.423275 0.00286824 0.
0.439593 0.00390197 0.
0.452287 0.00608405 0.
0.462777 0.00866122 0.
0.470585 0.0113995 0.
0.477107 0.0143654 0.
0.483105 0.0172556 0.
0.488401 0.0199108 0.
0.493506 0.0227883 0.
0.498278 0.0252436 0.
0.503292 0.0280154 0.
0.50778 0.0304825 0.
0.512183 0.0329886 0.
0.516291 0.0353457 0.
0.519844 0.0371871 0.
0.523579 0.0389045 0.
0.527112 0.0402187 0.
0.530169 0.0413427 0.
0.533241 0.0425135 0.
0.536045 0.0434322 0.
0.53887 0.0441975 0.
0.541443 0.0446713 0.
0.544005 0.0451387 0.
0.54635 0.0454374 0.
0.548698 0.0457489 0.
0.550962 0.0460078 0.
0.553153 0.0462275 0.
0.555346 0.0464451 0.
0.557453 0.0465176 0.
0.55956 0.0465884 0.
0.561654 0.0466557 0.
0.563716 0.0467141 0.
0.565778 0.0467727 0.
0.567823 0.0468146 0.
0.569858 0.0468458 0.
0.571893 0.0468771 0.
0.573912 0.0468935 0.
0.575928 0.0469075 0.
0.577943 0.0469207 0.
0.579953 0.0469259 0.
0.581963 0.0469312 0.
0.583972 0.0469356 0.
0.585978 0.0469384 0.
0.587984 0.0469412 0.
0.589989 0.0469435 0.
0.591992 0.0469454 0.
0.593995 0.0469474 0.
0.595997 0.0469486 0.
0.597999 0.0469496 0.
0.600001 0.0469506 0.
0.602003 0.0469494 0.
0.604005 0.0469482 0.
0.606007 0.0469467 0.
0.608011 0.0469439 0.
0.610014 0.0469412 0.
0.61202 0.0469378 0.
0.614027 0.0469336 0.
0.616035 0.0469294 0.
0.618046 0.0469234 0.
0.620058 0.0469165 0.
0.622071 0.0469096 0.
0.62409 0.046892 0.
0.62611 0.0468734 0.
0.628135 0.0468512 0.
0.63018 0.0468091 0.
0.632226 0.0467674 0.
0.634284 0.0467144 0.
0.63636 0.0466447 0.
0.638435 0.0465753 0.
0.640559 0.0464856 0.
0.642698 0.0463905 0.
0.64484 0.0462868 0.
0.647067 0.0460035 0.
0.64929 0.0457194 0.
0.651651 0.0453753 0.
0.654114 0.045 0.
0.656608 0.0446206 0.
0.659259 0.0440359 0.
0.66195 0.0434096 0.
0.664955 0.0424543 0.
0.667972 0.0414527 0.
0.671284 0.0402787 0.
0.674763 0.0388768 0.
0.678313 0.0370313 0.
0.682076 0.0349537 0.
0.686067 0.032809 0.
0.690676 0.0304206 0.
0.694987 0.0279833 0.
0.699666 0.0252746 0.
0.704275 0.0226717 0.
0.709791 0.020028 0.
0.715125 0.0171294 0.
0.721225 0.0141374 0.
0.7277 0.0112014 0.
0.735589 0.00850904 0.
0.74622 0.00598051 0.
0.757776 0.00393924 0.
0.77524 0.00271799 0.
0.798584 0.00631776 0.
0.399843 0.00703222 0.
0.421685 0.00334754 0.
0.43758 0.00400537 0.
0.45019 0.00604969 0.
0.46087 0.00866148 0.
0.468779 0.0114009 0.
0.475372 0.014292 0.
0.481395 0.0172177 0.
0.48669 0.0198997 0.
0.491872 0.0228102 0.
0.49661 0.0253162 0.
0.50164 0.0280235 0.
0.506166 0.0305429 0.
0.510777 0.0332158 0.
0.514758 0.0356131 0.
0.518515 0.0377265 0.
0.5225 0.0397271 0.
0.525922 0.0410622 0.
0.529237 0.042367 0.
0.53249 0.043741 0.
0.535422 0.0447833 0.
0.538285 0.0456194 0.
0.540915 0.046156 0.
0.543563 0.0467228 0.
0.546002 0.0471071 0.
0.54841 0.0474862 0.
0.550738 0.0478088 0.
0.552959 0.0480579 0.
0.555183 0.0483057 0.
0.557326 0.0484059 0.
0.559467 0.0485014 0.
0.56159 0.0485899 0.
0.563661 0.0486568 0.
0.565732 0.0487239 0.
0.567786 0.0487741 0.
0.569829 0.048813 0.
0.571872 0.0488521 0.
0.573895 0.0488731 0.
0.575915 0.0488909 0.
0.577933 0.0489078 0.
0.579945 0.0489145 0.
0.581957 0.0489212 0.
0.583968 0.048927 0.
0.585975 0.048931 0.
0.587982 0.048935 0.
0.589987 0.0489383 0.
0.591991 0.048941 0.
0.593994 0.0489438 0.
0.595997 0.0489453 0.
0.597999 0.0489465 0.
0.600001 0.0489476 0.
0.602003 0.0489461 0.
0.604005 0.0489447 0.
0.606008 0.0489427 0.
0.608012 0.048939 0.
0.610017 0.0489353 0.
0.612023 0.0489306 0.
0.614032 0.0489248 0.
0.616041 0.048919 0.
0.618054 0.0489113 0.
0.620069 0.0489026 0.
0.622084 0.0488939 0.
0.624108 0.0488717 0.
0.626132 0.0488482 0.
0.628162 0.0488202 0.
0.630218 0.0487681 0.
0.632275 0.0487163 0.
0.634343 0.0486532 0.
0.63643 0.048574 0.
0.638516 0.0484952 0.
0.64068 0.0483764 0.
0.642864 0.0482489 0.
0.645052 0.0481087 0.
0.64731 0.0477957 0.
0.649561 0.0474828 0.
0.651986 0.0470419 0.
0.654488 0.0465689 0.
0.657093 0.0460969 0.
0.659825 0.0454833 0.
0.662608 0.044771 0.
0.665736 0.0436741 0.
0.669035 0.0424667 0.
0.672461 0.0411331 0.
0.676074 0.0395045 0.
0.67967 0.0375182 0.
0.683595 0.0352387 0.
0.687698 0.0329565 0.
0.692317 0.0304812 0.
0.696663 0.0279594 0.
0.701371 0.0252357 0.
0.706019 0.0226835 0.
0.711514 0.0199698 0.
0.716788 0.0170393 0.
0.722955 0.0141029 0.
0.72943 0.0110851 0.
0.737602 0.00853055 0.
0.748317 0.00604564 0.
0.759876 0.00403703 0.
0.776982 0.0031032 0.
0.798302 0.00700902 0.
0.40014 0.00775929 0.
0.420412 0.00381122 0.
0.435826 0.00417882 0.
0.448212 0.00608632 0.
0.459097 0.00868918 0.
0.467078 0.0114097 0.
0.473641 0.0142143 0.
0.47973 0.0171746 0.
0.484993 0.0198995 0.
0.490221 0.0228007 0.
0.494924 0.025389 0.
0.499987 0.0280112 0.
0.504578 0.0305963 0.
0.509291 0.0333481 0.
0.513201 0.0357994 0.
0.517128 0.0381495 0.
0.521088 0.0402553 0.
0.524635 0.0417997 0.
0.528268 0.0433241 0.
0.531601 0.0447997 0.
0.534544 0.0459228 0.
0.537527 0.0469059 0.
0.540338 0.047598 0.
0.543094 0.0482817 0.
0.545644 0.0487649 0.
0.548115 0.0492118 0.
0.550516 0.0496059 0.
0.552766 0.0498826 0.
0.55502 0.0501536 0.
0.557198 0.0502813 0.
0.559368 0.0504041 0.
0.561517 0.0505182 0.
0.563598 0.050593 0.
0.565679 0.0506682 0.
0.567743 0.050727 0.
0.569795 0.0507747 0.
0.571847 0.0508227 0.
0.573875 0.0508492 0.
0.575898 0.0508717 0.
0.577921 0.050893 0.
0.579935 0.0509013 0.
0.581949 0.0509097 0.
0.583961 0.0509171 0.
0.58597 0.0509226 0.
0.587978 0.0509282 0.
0.589984 0.0509326 0.
0.591989 0.0509362 0.
0.593993 0.0509398 0.
0.595996 0.0509416 0.
0.597998 0.050943 0.
0.600001 0.0509444 0.
0.602003 0.0509425 0.
0.604006 0.0509407 0.
0.60601 0.0509381 0.
0.608015 0.0509334 0.
0.61002 0.0509286 0.
0.612028 0.0509225 0.
0.614038 0.0509148 0.
0.616049 0.050907 0.
0.618065 0.0508973 0.
0.620082 0.0508865 0.
0.6221 0.0508758 0.
0.624129 0.0508482 0.
0.626159 0.0508191 0.
0.628195 0.0507842 0.
0.630262 0.0507204 0.
0.632329 0.0506573 0.
0.634409 0.0505843 0.
0.636506 0.0504968 0.
0.638602 0.0504096 0.
0.640805 0.0502566 0.
0.643032 0.0500954 0.
0.645263 0.049923 0.
0.647552 0.0495838 0.
0.649832 0.0492431 0.
0.652325 0.0486893 0.
0.654866 0.0481189 0.
0.657639 0.0475397 0.
0.660536 0.0468384 0.
0.663547 0.0458851 0.
0.666596 0.0447699 0.
0.670145 0.0433969 0.
0.673755 0.0418542 0.
0.677494 0.0399774 0.
0.681138 0.0378323 0.
0.685134 0.0354383 0.
0.68935 0.033036 0.
0.693993 0.0304905 0.
0.698361 0.0279515 0.
0.703047 0.02524 0.
0.707751 0.0226919 0.
0.713205 0.0198969 0.
0.718464 0.0169616 0.
0.724653 0.0140687 0.
0.731118 0.0110476 0.
0.739485 0.00856255 0.
0.750239 0.00616042 0.
0.761873 0.00414856 0.
0.778442 0.00349197 0.
0.797955 0.00765997 0.
0.400503 0.00843292 0.
0.41931 0.00428355 0.
0.434165 0.00435234 0.
0.446295 0.00619458 0.
0.457334 0.00870391 0.
0.465377 0.0114013 0.
0.471934 0.0141629 0.
0.478083 0.0171308 0.
0.483326 0.0199124 0.
0.488609 0.0227787 0.
0.493275 0.0254448 0.
0.49838 0.0280388 0.
0.502965 0.0306457 0.
0.507681 0.0333832 0.
0.511634 0.0359265 0.
0.515665 0.0384447 0.
0.519511 0.0405945 0.
0.523276 0.0424394 0.
0.527189 0.0441518 0.
0.530432 0.0456191 0.
0.533612 0.047018 0.
0.536725 0.0481435 0.
0.53975 0.0490058 0.
0.542598 0.049782 0.
0.545243 0.0503523 0.
0.547747 0.0508491 0.
0.550214 0.0513176 0.
0.552523 0.0516248 0.
0.554858 0.0519373 0.
0.557071 0.0521113 0.
0.559256 0.0522793 0.
0.561423 0.0524342 0.
0.563518 0.0525174 0.
0.565614 0.052601 0.
0.567692 0.0526699 0.
0.569754 0.0527286 0.
0.571817 0.0527878 0.
0.57385 0.052821 0.
0.575878 0.0528491 0.
0.577905 0.0528758 0.
0.579922 0.0528861 0.
0.581939 0.0528964 0.
0.583953 0.0529057 0.
0.585963 0.0529131 0.
0.587973 0.0529205 0.
0.589981 0.0529263 0.
0.591986 0.0529308 0.
0.593991 0.0529353 0.
0.595994 0.0529376 0.
0.597998 0.0529392 0.
0.600001 0.0529408 0.
0.602004 0.0529385 0.
0.604008 0.0529361 0.
0.606012 0.052933 0.
0.608019 0.052927 0.
0.610025 0.0529211 0.
0.612034 0.0529133 0.
0.614047 0.0529032 0.
0.61606 0.0528931 0.
0.618078 0.0528809 0.
0.620099 0.0528678 0.
0.62212 0.0528548 0.
0.624155 0.0528205 0.
0.626191 0.0527847 0.
0.628235 0.052741 0.
0.630315 0.0526627 0.
0.632394 0.0525851 0.
0.634488 0.0525007 0.
0.636599 0.0524053 0.
0.63871 0.0523103 0.
0.640943 0.052098 0.
0.643194 0.0518753 0.
0.645474 0.0516465 0.
0.647831 0.051284 0.
0.650162 0.0509227 0.
0.652707 0.0502716 0.
0.655236 0.0496358 0.
0.658217 0.0489557 0.
0.661284 0.0481715 0.
0.664545 0.0469128 0.
0.667748 0.0456186 0.
0.671335 0.0441959 0.
0.675104 0.0424314 0.
0.67893 0.0403563 0.
0.682664 0.0380254 0.
0.686722 0.0355505 0.
0.690975 0.0330989 0.
0.695644 0.0304883 0.
0.700056 0.0279437 0.
0.704696 0.025259 0.
0.70946 0.0226817 0.
0.714882 0.0198103 0.
0.720138 0.0169088 0.
0.726332 0.0139964 0.
0.73279 0.0110691 0.
0.741231 0.00857976 0.
0.75206 0.00624706 0.
0.76376 0.00423532 0.
0.779508 0.00390563 0.
0.797614 0.00830266 0.
0.401031 0.00898781 0.
0.418465 0.00472402 0.
0.432699 0.00457099 0.
0.444599 0.00634415 0.
0.455662 0.00871697 0.
0.463726 0.0113945 0.
0.470319 0.0141721 0.
0.476508 0.0171297 0.
0.481713 0.0199258 0.
0.487045 0.0227957 0.
0.491683 0.0254888 0.
0.496776 0.0281061 0.
0.50136 0.0306786 0.
0.506044 0.0333777 0.
0.510053 0.0360049 0.
0.514099 0.0386031 0.
0.517905 0.0408576 0.
0.521864 0.0429644 0.
0.525779 0.0447324 0.
0.529175 0.0463521 0.
0.532588 0.0480354 0.
0.53584 0.0492853 0.
0.539021 0.0502773 0.
0.541895 0.0511292 0.
0.544727 0.0518539 0.
0.547306 0.0524335 0.
0.549874 0.0530097 0.
0.552265 0.0533606 0.
0.554685 0.0537174 0.
0.556942 0.0539379 0.
0.559142 0.0541513 0.
0.561327 0.05435 0.
0.563438 0.0544416 0.
0.565549 0.0545337 0.
0.56764 0.0546125 0.
0.569713 0.0546823 0.
0.571786 0.0547527 0.
0.573826 0.0547928 0.
0.575858 0.0548265 0.
0.57789 0.0548586 0.
0.579909 0.0548709 0.
0.581928 0.0548831 0.
0.583945 0.0548944 0.
0.585957 0.0549036 0.
0.587968 0.0549129 0.
0.589977 0.05492 0.
0.591983 0.0549254 0.
0.593989 0.0549308 0.
0.595993 0.0549335 0.
0.597997 0.0549354 0.
0.600001 0.0549373 0.
0.602005 0.0549345 0.
0.60401 0.0549316 0.
0.606015 0.0549278 0.
0.608022 0.0549207 0.
0.61003 0.0549136 0.
0.612041 0.054904 0.
0.614056 0.0548915 0.
0.616071 0.0548791 0.
0.618092 0.0548646 0.
0.620115 0.0548492 0.
0.622139 0.0548337 0.
0.624181 0.0547928 0.
0.626224 0.0547502 0.
0.628276 0.0546975 0.
0.630368 0.0546045 0.
0.632459 0.0545123 0.
0.634568 0.0544169 0.
0.636694 0.0543136 0.
0.638818 0.0542107 0.
0.641082 0.0539345 0.
0.643359 0.0536497 0.
0.645698 0.0533653 0.
0.648141 0.0529649 0.
0.650585 0.0525361 0.
0.65329 0.051746 0.
0.655928 0.0510145 0.
0.659006 0.0502343 0.
0.662138 0.0493724 0.
0.665596 0.0478513 0.
0.669044 0.046377 0.
0.672651 0.0448428 0.
0.676493 0.0428784 0.
0.680393 0.0406237 0.
0.684173 0.038181 0.
0.688329 0.035618 0.
0.692623 0.0331366 0.
0.697248 0.0305195 0.
0.701672 0.0279731 0.
0.706292 0.0253015 0.
0.711117 0.0226762 0.
0.716493 0.0197708 0.
0.72174 0.0168951 0.
0.727915 0.013955 0.
0.734399 0.0111385 0.
0.742829 0.00862001 0.
0.753658 0.00636735 0.
0.765382 0.00437178 0.
0.780128 0.00433328 0.
0.797105 0.00888253 0.
0.401726 0.00944797 0.
0.417959 0.00512989 0.
0.43156 0.00486231 0.
0.443206 0.0065324 0.
0.45421 0.00879925 0.
0.462204 0.0114433 0.
0.468828 0.0142479 0.
0.47502 0.0171732 0.
0.480154 0.0199493 0.
0.485529 0.0228403 0.
0.490167 0.0255451 0.
0.495199 0.0281969 0.
0.499769 0.0307088 0.
0.504425 0.0333808 0.
0.508477 0.0360508 0.
0.512434 0.0386625 0.
0.516284 0.0410573 0.
0.520331 0.0433124 0.
0.524176 0.0451712 0.
0.527867 0.0470017 0.
0.531411 0.0488434 0.
0.534753 0.0502301 0.
0.538084 0.0514297 0.
0.541134 0.0524337 0.
0.544189 0.0533354 0.
0.546843 0.0539976 0.
0.549496 0.0546786 0.
0.551966 0.0550653 0.
0.554434 0.0554602 0.
0.556734 0.055733 0.
0.558951 0.0559862 0.
0.561165 0.0562273 0.
0.563302 0.0563302 0.
0.565444 0.0564345 0.
0.56756 0.0565274 0.
0.569645 0.0566116 0.
0.571732 0.0566968 0.
0.573782 0.0567481 0.
0.575824 0.0567915 0.
0.577865 0.0568331 0.
0.579887 0.0568478 0.
0.58191 0.0568625 0.
0.58393 0.0568763 0.
0.585945 0.0568885 0.
0.587959 0.0569007 0.
0.58997 0.0569099 0.
0.591978 0.0569167 0.
0.593985 0.0569235 0.
0.595991 0.0569267 0.
0.597996 0.0569289 0.
0.600001 0.0569311 0.
0.602007 0.0569275 0.
0.604012 0.0569238 0.
0.606019 0.056919 0.
0.608029 0.05691 0.
0.610039 0.056901 0.
0.612052 0.0568888 0.
0.614071 0.0568729 0.
0.616089 0.056857 0.
0.618114 0.0568397 0.
0.620142 0.0568216 0.
0.622169 0.0568036 0.
0.624224 0.0567491 0.
0.62628 0.0566929 0.
0.628347 0.0566258 0.
0.630453 0.056518 0.
0.632558 0.0564114 0.
0.63469 0.0563003 0.
0.636843 0.0561827 0.
0.638993 0.0560659 0.
0.641293 0.0557294 0.
0.643586 0.0553924 0.
0.645976 0.0550577 0.
0.648477 0.0546326 0.
0.651058 0.0541144 0.
0.653918 0.0531885 0.
0.656777 0.0523123 0.
0.659992 0.0513201 0.
0.663251 0.0502016 0.
0.666701 0.0486694 0.
0.670395 0.0470471 0.
0.67409 0.0453081 0.
0.677928 0.0432122 0.
0.681883 0.0408064 0.
0.685717 0.0382874 0.
0.689891 0.0356911 0.
0.694239 0.0331797 0.
0.698815 0.0305871 0.
0.703243 0.0280333 0.
0.707842 0.0253677 0.
0.712675 0.0227047 0.
0.718037 0.0197604 0.
0.723249 0.0169314 0.
0.729387 0.0139624 0.
0.735936 0.0112497 0.
0.744243 0.00870164 0.
0.754937 0.00655081 0.
0.766628 0.00461797 0.
0.780297 0.00474541 0.
0.796251 0.00931723 0.
0.402661 0.00978689 0.
0.417925 0.00550953 0.
0.430738 0.00523996 0.
0.442104 0.00674098 0.
0.452931 0.00893591 0.
0.460838 0.0115555 0.
0.467472 0.0143843 0.
0.473602 0.0172531 0.
0.478666 0.0199923 0.
0.484039 0.0229029 0.
0.488693 0.0256159 0.
0.493647 0.0282955 0.
0.498212 0.0307682 0.
0.50282 0.0334183 0.
0.506877 0.0360557 0.
0.510775 0.0386882 0.
0.514677 0.0411928 0.
0.518671 0.0435142 0.
0.522548 0.0455331 0.
0.526438 0.047493 0.
0.530042 0.0494273 0.
0.533538 0.0510434 0.
0.537009 0.0524513 0.
0.540331 0.0536796 0.
0.543551 0.0547265 0.
0.546264 0.0554276 0.
0.54901 0.0561403 0.
0.551564 0.0566412 0.
0.554071 0.0571444 0.
0.55644 0.0575026 0.
0.558703 0.0577973 0.
0.560967 0.0580855 0.
0.563144 0.0582059 0.
0.565326 0.0583266 0.
0.567473 0.0584366 0.
0.569573 0.0585369 0.
0.571674 0.0586383 0.
0.573736 0.0587017 0.
0.575788 0.0587554 0.
0.577839 0.0588071 0.
0.579865 0.0588243 0.
0.581891 0.0588415 0.
0.583915 0.058858 0.
0.585933 0.0588731 0.
0.58795 0.0588883 0.
0.589964 0.0588997 0.
0.591973 0.0589079 0.
0.593982 0.0589161 0.
0.595989 0.0589199 0.
0.597995 0.0589224 0.
0.600001 0.0589249 0.
0.602008 0.0589204 0.
0.604015 0.058916 0.
0.606023 0.0589101 0.
0.608036 0.0588992 0.
0.610048 0.0588883 0.
0.612065 0.0588734 0.
0.614087 0.0588539 0.
0.616109 0.0588345 0.
0.618137 0.0588143 0.
0.620169 0.0587936 0.
0.6222 0.0587729 0.
0.62427 0.0587035 0.
0.62634 0.0586324 0.
0.628423 0.0585494 0.
0.630546 0.0584256 0.
0.632667 0.058303 0.
0.634832 0.0581711 0.
0.637021 0.0580319 0.
0.639219 0.057883 0.
0.64158 0.0574826 0.
0.643927 0.057087 0.
0.646452 0.056645 0.
0.649042 0.0561271 0.
0.651745 0.0554803 0.
0.654616 0.0545419 0.
0.657688 0.0535123 0.
0.660998 0.052331 0.
0.66447 0.0508942 0.
0.667981 0.0493071 0.
0.671784 0.0476263 0.
0.675578 0.0456704 0.
0.679418 0.0434567 0.
0.68339 0.0409326 0.
0.687294 0.0383501 0.
0.691475 0.0357576 0.
0.695809 0.033238 0.
0.70034 0.0306734 0.
0.704763 0.0281107 0.
0.709363 0.0254486 0.
0.714159 0.0227406 0.
0.719531 0.0197874 0.
0.724672 0.0170129 0.
0.730753 0.0140278 0.
0.737375 0.0113943 0.
0.745459 0.00886697 0.
0.755932 0.00679291 0.
0.767447 0.00499686 0.
0.780104 0.00513563 0.
0.795072 0.00954983 0.
0.403894 0.0099645 0.
0.418135 0.00588658 0.
0.430126 0.00567457 0.
0.441234 0.00698414 0.
0.451749 0.0091085 0.
0.459533 0.0116869 0.
0.466158 0.0145374 0.
0.472201 0.0173474 0.
0.477235 0.0200586 0.
0.482562 0.0229679 0.
0.48723 0.0256945 0.
0.492123 0.0283844 0.
0.496669 0.030845 0.
0.501205 0.0334488 0.
0.505281 0.0360432 0.
0.509167 0.0387164 0.
0.513036 0.0412686 0.
0.516961 0.0436314 0.
0.520894 0.0458043 0.
0.524854 0.0478138 0.
0.52855 0.0498829 0.
0.532209 0.0517201 0.
0.535829 0.0533343 0.
0.539403 0.0547946 0.
0.542545 0.0558539 0.
0.545537 0.0567529 0.
0.548461 0.0575586 0.
0.551157 0.058196 0.
0.553703 0.0588074 0.
0.556143 0.0592673 0.
0.558451 0.0596034 0.
0.560764 0.0599361 0.
0.562983 0.060073 0.
0.565202 0.0602098 0.
0.567381 0.0603392 0.
0.569494 0.0604543 0.
0.571607 0.0605704 0.
0.573682 0.0606474 0.
0.575747 0.0607137 0.
0.577811 0.0607784 0.
0.57984 0.060798 0.
0.58187 0.0608177 0.
0.583897 0.0608368 0.
0.585918 0.0608552 0.
0.587939 0.0608736 0.
0.589955 0.0608874 0.
0.591966 0.0608973 0.
0.593978 0.0609073 0.
0.595986 0.0609117 0.
0.597994 0.0609145 0.
0.600001 0.0609173 0.
0.60201 0.0609118 0.
0.604019 0.0609064 0.
0.60603 0.0608992 0.
0.608045 0.0608861 0.
0.61006 0.0608729 0.
0.61208 0.0608552 0.
0.614105 0.0608322 0.
0.616131 0.0608092 0.
0.618164 0.0607852 0.
0.620201 0.0607607 0.
0.622237 0.0607362 0.
0.624322 0.0606499 0.
0.626407 0.0605626 0.
0.628506 0.0604634 0.
0.630643 0.0603256 0.
0.632779 0.060189 0.
0.634977 0.0600349 0.
0.637202 0.0598764 0.
0.639453 0.0596915 0.
0.641874 0.0592284 0.
0.644277 0.0587738 0.
0.646962 0.0582034 0.
0.64967 0.057571 0.
0.652605 0.0566999 0.
0.655566 0.0556471 0.
0.658715 0.0545081 0.
0.662085 0.0532012 0.
0.665745 0.0515291 0.
0.669411 0.0498561 0.
0.673238 0.0480814 0.
0.677098 0.0459401 0.
0.680989 0.0435974 0.
0.684928 0.0410052 0.
0.688863 0.0383957 0.
0.693054 0.0358207 0.
0.697378 0.0333008 0.
0.701861 0.0307633 0.
0.706233 0.028211 0.
0.710855 0.0255375 0.
0.715595 0.0227914 0.
0.720966 0.0198523 0.
0.726051 0.0171133 0.
0.732056 0.0141485 0.
0.738745 0.0115589 0.
0.746608 0.0090889 0.
0.756793 0.00706549 0.
0.768007 0.0054651 0.
0.779802 0.00553583 0.
0.793739 0.0095963 0.
0.405144 0.00999334 0.
0.418351 0.00629228 0.
0.429635 0.00614846 0.
0.440433 0.00725178 0.
0.450633 0.00931106 0.
0.458267 0.0118409 0.
0.464866 0.0146789 0.
0.470824 0.0174571 0.
0.475829 0.0201554 0.
0.481116 0.0230421 0.
0.485782 0.0257687 0.
0.490588 0.0284662 0.
0.495145 0.0309432 0.
0.499628 0.0334925 0.
0.503715 0.0360627 0.
0.507568 0.0387387 0.
0.511381 0.0412994 0.
0.515274 0.0437203 0.
0.519216 0.045973 0.
0.523185 0.0480673 0.
0.527011 0.0502442 0.
0.530765 0.0522195 0.
0.534505 0.0540323 0.
0.538143 0.0555979 0.
0.541425 0.0568618 0.
0.544759 0.0580554 0.
0.547862 0.0589458 0.
0.550734 0.059707 0.
0.553252 0.0603797 0.
0.555784 0.0609406 0.
0.55815 0.0613062 0.
0.56054 0.0616736 0.
0.562804 0.0618634 0.
0.565057 0.062052 0.
0.567269 0.0622242 0.
0.569395 0.0623538 0.
0.571523 0.0624844 0.
0.573615 0.062579 0.
0.575696 0.0626632 0.
0.577777 0.0627459 0.
0.579811 0.0627679 0.
0.581844 0.06279 0.
0.583875 0.0628119 0.
0.585899 0.062834 0.
0.587924 0.0628561 0.
0.589943 0.0628728 0.
0.591957 0.0628848 0.
0.593972 0.0628969 0.
0.595982 0.062902 0.
0.597992 0.0629051 0.
0.600002 0.0629082 0.
0.602013 0.0629015 0.
0.604025 0.0628948 0.
0.606038 0.0628861 0.
0.608056 0.0628703 0.
0.610075 0.0628545 0.
0.612099 0.0628336 0.
0.614128 0.0628069 0.
0.616158 0.0627802 0.
0.618197 0.0627509 0.
0.620241 0.0627205 0.
0.622285 0.0626897 0.
0.624387 0.062582 0.
0.62649 0.0624738 0.
0.628607 0.0623547 0.
0.63076 0.0622023 0.
0.632912 0.0620514 0.
0.635186 0.0618319 0.
0.637489 0.061601 0.
0.639833 0.0613403 0.
0.642306 0.0608517 0.
0.644737 0.0603723 0.
0.647515 0.0597056 0.
0.650335 0.0589729 0.
0.653523 0.0578693 0.
0.656644 0.0566719 0.
0.659945 0.0553244 0.
0.663327 0.0538591 0.
0.667094 0.0520921 0.
0.670932 0.0503268 0.
0.674787 0.0484014 0.
0.678642 0.0461399 0.
0.682563 0.0436843 0.
0.686473 0.0410493 0.
0.690445 0.0384361 0.
0.694629 0.0358793 0.
0.698947 0.0333751 0.
0.703382 0.0308597 0.
0.707689 0.0283221 0.
0.712323 0.0256274 0.
0.716987 0.0228626 0.
0.722334 0.0199506 0.
0.72739 0.0172319 0.
0.733305 0.014312 0.
0.740046 0.0117282 0.
0.747729 0.00934673 0.
0.757588 0.00736086 0.
0.768507 0.00597637 0.
0.779577 0.00596431 0.
0.792396 0.00955185 0.
0.406385 0.00989439 0.
0.418596 0.00672631 0.
0.429287 0.00666011 0.
0.439828 0.00756742 0.
0.449679 0.00957104 0.
0.457087 0.012039 0.
0.463707 0.0148557 0.
0.469509 0.01761 0.
0.474477 0.0202828 0.
0.479737 0.0231565 0.
0.484376 0.0258691 0.
0.48911 0.0285728 0.
0.493668 0.0310715 0.
0.498093 0.0335752 0.
0.502175 0.0361127 0.
0.505995 0.0387544 0.
0.509764 0.0413295 0.
0.513584 0.0437909 0.
0.517515 0.0460895 0.
0.521505 0.0482755 0.
0.52543 0.0504749 0.
0.529242 0.0525736 0.
0.533068 0.0545826 0.
0.536691 0.0562245 0.
0.540206 0.0577396 0.
0.543847 0.0592487 0.
0.54697 0.0601689 0.
0.549959 0.0610735 0.
0.552616 0.0618526 0.
0.555375 0.0625745 0.
0.557825 0.0629888 0.
0.560304 0.0634057 0.
0.562622 0.0636477 0.
0.56491 0.0638889 0.
0.567156 0.0641087 0.
0.569296 0.0642527 0.
0.571438 0.0643978 0.
0.573547 0.0645099 0.
0.575645 0.0646121 0.
0.577743 0.0647132 0.
0.579781 0.0647379 0.
0.581818 0.0647623 0.
0.583853 0.0647869 0.
0.585881 0.0648128 0.
0.587909 0.0648386 0.
0.589931 0.0648582 0.
0.591949 0.0648723 0.
0.593966 0.0648864 0.
0.595979 0.0648923 0.
0.597991 0.0648957 0.
0.600002 0.0648991 0.
0.602016 0.0648912 0.
0.60403 0.0648833 0.
0.606046 0.0648729 0.
0.608068 0.0648544 0.
0.61009 0.064836 0.
0.612118 0.0648119 0.
0.614151 0.0647815 0.
0.616185 0.0647512 0.
0.618231 0.0647165 0.
0.620281 0.0646803 0.
0.622333 0.0646425 0.
0.624453 0.0645134 0.
0.626573 0.0643841 0.
0.628708 0.0642453 0.
0.630878 0.0640784 0.
0.633046 0.0639129 0.
0.635406 0.0636194 0.
0.637796 0.063311 0.
0.640265 0.0629599 0.
0.642853 0.0624079 0.
0.645461 0.0618102 0.
0.648378 0.0609682 0.
0.651275 0.0601336 0.
0.654535 0.0589462 0.
0.657843 0.057565 0.
0.661257 0.0560618 0.
0.664797 0.0543695 0.
0.668562 0.0525717 0.
0.672494 0.0507181 0.
0.676389 0.0486253 0.
0.680226 0.0462726 0.
0.684129 0.0437429 0.
0.688014 0.0410848 0.
0.692023 0.0384857 0.
0.696188 0.0359451 0.
0.700492 0.0334738 0.
0.70486 0.0309768 0.
0.709118 0.0284491 0.
0.713717 0.0257332 0.
0.718324 0.022965 0.
0.723619 0.0201 0.
0.728651 0.0173893 0.
0.734473 0.0145296 0.
0.741196 0.011937 0.
0.748718 0.00965022 0.
0.758264 0.00768477 0.
0.768874 0.00652222 0.
0.779287 0.00640837 0.
0.791053 0.00947197 0.
0.407658 0.00971707 0.
0.41898 0.00718114 0.
0.429144 0.0072133 0.
0.439498 0.00793944 0.
0.448907 0.00989575 0.
0.45608 0.0123022 0.
0.462674 0.0150922 0.
0.468276 0.0178242 0.
0.473235 0.0204634 0.
0.478456 0.0233153 0.
0.483034 0.0260099 0.
0.487704 0.028718 0.
0.492223 0.031215 0.
0.496579 0.0336876 0.
0.500667 0.0361856 0.
0.504466 0.0387934 0.
0.50817 0.0413598 0.
0.511947 0.0438519 0.
0.515864 0.0461902 0.
0.519833 0.0484308 0.
0.523799 0.0506273 0.
0.527671 0.0528638 0.
0.531501 0.0549589 0.
0.53519 0.0567424 0.
0.538889 0.0584357 0.
0.542526 0.0600123 0.
0.545797 0.0611791 0.
0.549011 0.0623496 0.
0.551904 0.0632864 0.
0.554897 0.0641754 0.
0.557467 0.0646511 0.
0.559993 0.0650927 0.
0.562368 0.0653878 0.
0.56469 0.0656861 0.
0.566987 0.0659655 0.
0.569144 0.0661177 0.
0.571306 0.066271 0.
0.573437 0.0664012 0.
0.575553 0.0665259 0.
0.577671 0.0666507 0.
0.579723 0.0666858 0.
0.581774 0.0667198 0.
0.58382 0.0667525 0.
0.585852 0.0667817 0.
0.587885 0.066811 0.
0.589911 0.0668337 0.
0.591933 0.0668507 0.
0.593955 0.0668677 0.
0.595972 0.0668747 0.
0.597988 0.0668786 0.
0.600004 0.0668826 0.
0.602023 0.0668726 0.
0.604041 0.0668626 0.
0.606061 0.0668498 0.
0.608089 0.066828 0.
0.610116 0.0668062 0.
0.612149 0.0667785 0.
0.614188 0.0667444 0.
0.616226 0.0667104 0.
0.618287 0.0666643 0.
0.620353 0.0666148 0.
0.622424 0.0665618 0.
0.624565 0.066408 0.
0.626704 0.0662554 0.
0.628864 0.066098 0.
0.631055 0.0659224 0.
0.63324 0.0657486 0.
0.635684 0.0653656 0.
0.638142 0.0649867 0.
0.640744 0.0645509 0.
0.643446 0.0639429 0.
0.646265 0.0631791 0.
0.649322 0.0621506 0.
0.652462 0.0610801 0.
0.655739 0.0598314 0.
0.659162 0.0583146 0.
0.662685 0.0566416 0.
0.666359 0.0548023 0.
0.670153 0.0529694 0.
0.674083 0.0510085 0.
0.678005 0.0487803 0.
0.681826 0.046341 0.
0.685693 0.0437788 0.
0.689546 0.0411231 0.
0.693565 0.0385564 0.
0.697722 0.0360272 0.
0.702004 0.0336038 0.
0.706304 0.0311178 0.
0.710509 0.0285993 0.
0.715046 0.0258694 0.
0.719598 0.0231202 0.
0.724817 0.0203006 0.
0.729805 0.0176002 0.
0.735487 0.0148183 0.
0.742143 0.0122207 0.
0.749473 0.0100115 0.
0.758729 0.00805688 0.
0.769001 0.00708367 0.
0.778829 0.00685763 0.
0.789698 0.00941831 0.
0.409003 0.00955997 0.
0.419554 0.00765425 0.
0.429229 0.00778471 0.
0.439385 0.0083639 0.
0.448304 0.0102843 0.
0.455276 0.0126398 0.
0.461733 0.0153913 0.
0.467143 0.0181006 0.
0.472124 0.0207109 0.
0.477261 0.0235244 0.
0.481745 0.0261891 0.
0.486347 0.0288862 0.
0.490797 0.0313764 0.
0.495103 0.03383 0.
0.499186 0.0362881 0.
0.502938 0.0388563 0.
0.506607 0.0414043 0.
0.51035 0.0439155 0.
0.514222 0.0462817 0.
0.518165 0.0485567 0.
0.522154 0.0507584 0.
0.526062 0.0530655 0.
0.529882 0.0552264 0.
0.533659 0.0571775 0.
0.537391 0.0589464 0.
0.541036 0.0605686 0.
0.544551 0.0620781 0.
0.547905 0.0634555 0.
0.551069 0.0646079 0.
0.554073 0.0655051 0.
0.556795 0.0661037 0.
0.559448 0.0666527 0.
0.561983 0.067061 0.
0.564386 0.0674387 0.
0.566777 0.0678038 0.
0.568965 0.0679665 0.
0.571157 0.0681303 0.
0.573315 0.0682813 0.
0.575453 0.0684318 0.
0.577591 0.0685829 0.
0.579661 0.0686308 0.
0.581727 0.0686756 0.
0.583786 0.0687174 0.
0.585823 0.06875 0.
0.58786 0.0687827 0.
0.589891 0.0688087 0.
0.591918 0.0688285 0.
0.593944 0.0688485 0.
0.595966 0.0688567 0.
0.597986 0.0688612 0.
0.600006 0.0688658 0.
0.602029 0.0688537 0.
0.604052 0.0688415 0.
0.606077 0.0688263 0.
0.60811 0.0688009 0.
0.610142 0.0687756 0.
0.612181 0.0687442 0.
0.614226 0.0687062 0.
0.61627 0.0686683 0.
0.618347 0.0686093 0.
0.620432 0.0685449 0.
0.622524 0.0684738 0.
0.624691 0.068292 0.
0.626855 0.0681119 0.
0.62905 0.0679323 0.
0.631278 0.067744 0.
0.633507 0.0675517 0.
0.636051 0.0670336 0.
0.638581 0.0665405 0.
0.641361 0.0659776 0.
0.644168 0.065328 0.
0.647173 0.0644002 0.
0.650326 0.0632455 0.
0.653706 0.0619469 0.
0.657107 0.0605407 0.
0.660613 0.0589114 0.
0.664231 0.0570575 0.
0.667969 0.0551597 0.
0.67181 0.0532778 0.
0.675711 0.0512018 0.
0.679623 0.0488915 0.
0.683429 0.0463784 0.
0.68726 0.0437952 0.
0.691091 0.0411683 0.
0.695076 0.038652 0.
0.699219 0.0361436 0.
0.703482 0.0337622 0.
0.707709 0.0312859 0.
0.71188 0.0287694 0.
0.716315 0.026045 0.
0.720801 0.0233274 0.
0.725928 0.0205537 0.
0.730879 0.0178689 0.
0.736362 0.0151688 0.
0.742917 0.0125757 0.
0.750018 0.0104293 0.
0.758931 0.00848361 0.
0.768924 0.00765422 0.
0.778276 0.00732597 0.
0.788341 0.0094344 0.
0.410321 0.00959299 0.
0.420161 0.00815829 0.
0.429422 0.00834185 0.
0.439358 0.00882934 0.
0.447791 0.0107225 0.
0.454583 0.0130304 0.
0.46086 0.0157351 0.
0.466083 0.0184216 0.
0.471091 0.0210004 0.
0.476098 0.023768 0.
0.480505 0.0264036 0.
0.485025 0.0290666 0.
0.489383 0.0315493 0.
0.493644 0.0339946 0.
0.497697 0.0364083 0.
0.501425 0.0389382 0.
0.505082 0.0414643 0.
0.508757 0.0439783 0.
0.512597 0.0463697 0.
0.516519 0.048668 0.
0.520497 0.0508885 0.
0.524429 0.0531944 0.
0.528266 0.0554352 0.
0.532057 0.0575239 0.
0.535798 0.0593554 0.
0.539516 0.0610546 0.
0.543161 0.0627729 0.
0.546621 0.0643022 0.
0.549946 0.0656336 0.
0.553035 0.0666594 0.
0.556036 0.0675031 0.
0.558849 0.0681771 0.
0.561583 0.0687197 0.
0.56407 0.069178 0.
0.566564 0.0696395 0.
0.568783 0.0698126 0.
0.571004 0.0699842 0.
0.573191 0.0701534 0.
0.575348 0.0703274 0.
0.577507 0.0705025 0.
0.579593 0.0705663 0.
0.581674 0.0706248 0.
0.583747 0.0706786 0.
0.585789 0.0707144 0.
0.587831 0.0707503 0.
0.589867 0.0707794 0.
0.591899 0.0708023 0.
0.593931 0.0708252 0.
0.595958 0.0708346 0.
0.597984 0.0708399 0.
0.600009 0.070845 0.
0.602037 0.0708307 0.
0.604065 0.0708164 0.
0.606096 0.0707985 0.
0.608134 0.0707695 0.
0.610173 0.0707406 0.
0.612218 0.0707054 0.
0.614269 0.0706638 0.
0.616319 0.0706222 0.
0.618412 0.0705471 0.
0.620515 0.0704649 0.
0.622629 0.0703728 0.
0.624821 0.070166 0.
0.627006 0.0699627 0.
0.629238 0.0697635 0.
0.631503 0.0695634 0.
0.6338 0.0693289 0.
0.636433 0.0686792 0.
0.639037 0.0680703 0.
0.642054 0.067351 0.
0.645054 0.0665661 0.
0.648294 0.0653713 0.
0.651515 0.0641402 0.
0.655019 0.062709 0.
0.658567 0.0611275 0.
0.662143 0.0593782 0.
0.665852 0.0573762 0.
0.669647 0.0554515 0.
0.673495 0.0535269 0.
0.677352 0.0513341 0.
0.68125 0.0489443 0.
0.685015 0.0464049 0.
0.688813 0.0438188 0.
0.692644 0.0412208 0.
0.696586 0.0387561 0.
0.700679 0.0362912 0.
0.704922 0.0339407 0.
0.709088 0.0314744 0.
0.713227 0.0289523 0.
0.717561 0.0262434 0.
0.721948 0.0235725 0.
0.726976 0.0208455 0.
0.731885 0.0181861 0.
0.737182 0.0155631 0.
0.743559 0.0129847 0.
0.750479 0.0108835 0.
0.758975 0.00895053 0.
0.76867 0.00822385 0.
0.777713 0.00783622 0.
0.787068 0.00959999 0.
0.411562 0.00985713 0.
0.420758 0.00870543 0.
0.42969 0.00887441 0.
0.43935 0.00932555 0.
0.447318 0.0111927 0.
0.453943 0.0134569 0.
0.460043 0.0161214 0.
0.465105 0.0187794 0.
0.470081 0.0213167 0.
0.474947 0.0240335 0.
0.479279 0.0266414 0.
0.483712 0.0292579 0.
0.487982 0.0317363 0.
0.492186 0.03416 0.
0.49621 0.0365489 0.
0.499927 0.0390375 0.
0.503557 0.0415404 0.
0.507191 0.0440448 0.
0.510998 0.0464565 0.
0.514888 0.048771 0.
0.518852 0.051011 0.
0.522815 0.0532939 0.
0.526642 0.0555912 0.
0.5304 0.0577633 0.
0.534169 0.0597032 0.
0.537948 0.061468 0.
0.541635 0.0632519 0.
0.545214 0.0649578 0.
0.548667 0.0665053 0.
0.551932 0.067736 0.
0.55521 0.0688441 0.
0.558159 0.0696168 0.
0.561045 0.0702761 0.
0.563561 0.0707734 0.
0.566129 0.0712877 0.
0.568459 0.0715321 0.
0.570785 0.0717702 0.
0.573052 0.0719955 0.
0.57523 0.0721947 0.
0.577411 0.0723954 0.
0.579515 0.0724828 0.
0.581612 0.0725624 0.
0.583699 0.0726341 0.
0.585747 0.0726732 0.
0.587796 0.0727123 0.
0.589839 0.0727447 0.
0.591878 0.0727706 0.
0.593916 0.0727967 0.
0.595949 0.0728075 0.
0.597981 0.0728134 0.
0.600013 0.0728193 0.
0.602047 0.0728027 0.
0.604081 0.0727861 0.
0.606118 0.0727653 0.
0.608164 0.0727322 0.
0.610209 0.0726991 0.
0.612261 0.07266 0.
0.61432 0.0726145 0.
0.616379 0.0725692 0.
0.61849 0.0724699 0.
0.62061 0.0723609 0.
0.622749 0.0722373 0.
0.624977 0.0719971 0.
0.627199 0.0717612 0.
0.629511 0.0715121 0.
0.631861 0.0712639 0.
0.634285 0.0709271 0.
0.636946 0.0702112 0.
0.639598 0.06952 0.
0.642821 0.0686705 0.
0.64608 0.0676649 0.
0.649502 0.0662343 0.
0.652887 0.0648459 0.
0.65642 0.0633504 0.
0.660082 0.0615971 0.
0.663739 0.0596831 0.
0.667509 0.0576389 0.
0.671357 0.0557049 0.
0.675208 0.0536922 0.
0.678997 0.0514253 0.
0.68285 0.0489722 0.
0.686608 0.0464173 0.
0.69036 0.0438532 0.
0.694179 0.041298 0.
0.6981 0.0388661 0.
0.702139 0.036457 0.
0.706333 0.0341423 0.
0.710434 0.0316826 0.
0.71453 0.0291502 0.
0.718792 0.0264646 0.
0.723078 0.0238449 0.
0.727973 0.0211721 0.
0.732854 0.018543 0.
0.737977 0.0159887 0.
0.744102 0.0134399 0.
0.750877 0.011369 0.
0.758975 0.00945039 0.
0.76834 0.00877537 0.
0.777158 0.00840117 0.
0.785898 0.00991972 0.
0.412811 0.010267 0.
0.421401 0.00928781 0.
0.430098 0.00939342 0.
0.439431 0.00986286 0.
0.446964 0.0117126 0.
0.453428 0.0139459 0.
0.459295 0.0165639 0.
0.464226 0.0191896 0.
0.469122 0.0216787 0.
0.473839 0.0243363 0.
0.478106 0.0269188 0.
0.482427 0.0294817 0.
0.486618 0.0319493 0.
0.49077 0.0343548 0.
0.494748 0.0367207 0.
0.498448 0.0391685 0.
0.502049 0.0416458 0.
0.505666 0.0441335 0.
0.509419 0.0465563 0.
0.513282 0.0488847 0.
0.517223 0.0511331 0.
0.521182 0.0533809 0.
0.524994 0.0556995 0.
0.528736 0.0579328 0.
0.532517 0.0599872 0.
0.536321 0.0618226 0.
0.540061 0.0636484 0.
0.543735 0.0654976 0.
0.547275 0.0671805 0.
0.550736 0.0686888 0.
0.554122 0.0699315 0.
0.557158 0.0707971 0.
0.560216 0.0716744 0.
0.56291 0.0722882 0.
0.565613 0.0728851 0.
0.568104 0.0732308 0.
0.570548 0.0735453 0.
0.572912 0.073836 0.
0.575111 0.0740605 0.
0.577313 0.074287 0.
0.579437 0.0743983 0.
0.581548 0.0744991 0.
0.58365 0.0745896 0.
0.585706 0.0746319 0.
0.587761 0.0746743 0.
0.589811 0.0747098 0.
0.591856 0.0747389 0.
0.5939 0.0747681 0.
0.59594 0.0747803 0.
0.597978 0.074787 0.
0.600016 0.0747936 0.
0.602057 0.0747747 0.
0.604097 0.0747557 0.
0.606141 0.0747321 0.
0.608193 0.0746948 0.
0.610245 0.0746576 0.
0.612305 0.0746144 0.
0.614373 0.0745651 0.
0.61644 0.074516 0.
0.618569 0.0743913 0.
0.620706 0.0742554 0.
0.622872 0.0740994 0.
0.625138 0.0738253 0.
0.627396 0.0735562 0.
0.629812 0.0732446 0.
0.632272 0.07293 0.
0.634899 0.0724252 0.
0.637709 0.0715778 0.
0.640595 0.0707187 0.
0.643826 0.0698155 0.
0.647279 0.0685679 0.
0.650806 0.0669821 0.
0.654365 0.0654433 0.
0.65794 0.0638448 0.
0.661643 0.0619836 0.
0.665361 0.0599025 0.
0.66919 0.0578777 0.
0.673062 0.0559196 0.
0.676891 0.0538089 0.
0.68067 0.0514667 0.
0.684445 0.0489892 0.
0.688177 0.0464414 0.
0.691903 0.0439004 0.
0.695687 0.0414075 0.
0.699585 0.0390117 0.
0.703586 0.0366549 0.
0.707714 0.0343639 0.
0.711739 0.0319235 0.
0.715754 0.029393 0.
0.719955 0.0267413 0.
0.724168 0.0241642 0.
0.728914 0.0215429 0.
0.733745 0.0189565 0.
0.738702 0.0164609 0.
0.744564 0.0139475 0.
0.751155 0.0119025 0.
0.75885 0.0100021 0.
0.767862 0.00930701 0.
0.776529 0.0090081 0.
0.784718 0.01032 0.
0.414117 0.0107596 0.
0.422206 0.00990004 0.
0.430753 0.00988424 0.
0.439659 0.0104647 0.
0.446791 0.0123088 0.
0.453088 0.014514 0.
0.458648 0.0170811 0.
0.463446 0.0196652 0.
0.468235 0.0220996 0.
0.472807 0.0246931 0.
0.47698 0.0272419 0.
0.48118 0.0297459 0.
0.485301 0.0321919 0.
0.489384 0.0345805 0.
0.493309 0.0369239 0.
0.496986 0.0393275 0.
0.500564 0.0417754 0.
0.50414 0.0442299 0.
0.50786 0.0466589 0.
0.511683 0.0489974 0.
0.515592 0.0512476 0.
0.519523 0.0534738 0.
0.523337 0.0557742 0.
0.527059 0.0580536 0.
0.53085 0.0601922 0.
0.534677 0.0621379 0.
0.538456 0.063979 0.
0.542185 0.0658703 0.
0.545818 0.0677208 0.
0.549408 0.0694729 0.
0.552793 0.0707549 0.
0.556071 0.071871 0.
0.559269 0.0729637 0.
0.562201 0.0737764 0.
0.565037 0.0744446 0.
0.567696 0.0748866 0.
0.570235 0.0752701 0.
0.572697 0.0756431 0.
0.574913 0.0758829 0.
0.577138 0.0761245 0.
0.579296 0.0762686 0.
0.581441 0.076403 0.
0.583577 0.0765257 0.
0.585643 0.0765717 0.
0.587709 0.0766177 0.
0.58977 0.0766567 0.
0.591823 0.0766885 0.
0.593877 0.0767204 0.
0.595926 0.0767336 0.
0.597974 0.0767408 0.
0.600022 0.0767478 0.
0.602072 0.0767271 0.
0.604122 0.0767065 0.
0.606176 0.0766803 0.
0.608237 0.0766389 0.
0.610298 0.0765976 0.
0.612371 0.0765492 0.
0.614453 0.0764942 0.
0.616534 0.0764396 0.
0.618696 0.0762783 0.
0.620863 0.0761077 0.
0.623071 0.0759126 0.
0.625376 0.0756119 0.
0.627661 0.0753191 0.
0.630172 0.0749448 0.
0.632724 0.0745711 0.
0.635583 0.0738665 0.
0.63854 0.0728914 0.
0.64174 0.0717905 0.
0.645093 0.0706977 0.
0.648647 0.0692198 0.
0.652234 0.0675877 0.
0.655891 0.0659631 0.
0.659554 0.064214 0.
0.663267 0.0622363 0.
0.667019 0.0600874 0.
0.670884 0.0580939 0.
0.674764 0.0560884 0.
0.678558 0.0538953 0.
0.682317 0.0514893 0.
0.686056 0.0489962 0.
0.68974 0.0464766 0.
0.693441 0.0439698 0.
0.697196 0.041535 0.
0.701051 0.0391856 0.
0.705012 0.03688 0.
0.709063 0.0346096 0.
0.713008 0.0321946 0.
0.716924 0.0296815 0.
0.721045 0.0270819 0.
0.725197 0.0245408 0.
0.729773 0.0219725 0.
0.734514 0.0194484 0.
0.739345 0.0169982 0.
0.744921 0.014519 0.
0.751269 0.0124998 0.
0.75856 0.0106205 0.
0.767139 0.0098245 0.
0.775729 0.00965595 0.
0.783458 0.0107424 0.
0.415503 0.0112761 0.
0.4232 0.010541 0.
0.431663 0.0103574 0.
0.440011 0.0111382 0.
0.446767 0.0129733 0.
0.452853 0.0151503 0.
0.458094 0.0176727 0.
0.462735 0.0201989 0.
0.467413 0.0225792 0.
0.471826 0.0251012 0.
0.475884 0.0276074 0.
0.479983 0.0300547 0.
0.484023 0.0324655 0.
0.488016 0.0348344 0.
0.491882 0.0371426 0.
0.49553 0.0395095 0.
0.499076 0.0419178 0.
0.502628 0.0443438 0.
0.506304 0.0467612 0.
0.510088 0.0491097 0.
0.51396 0.0513642 0.
0.51786 0.0535737 0.
0.521675 0.0558334 0.
0.525399 0.0581435 0.
0.529196 0.0603565 0.
0.533025 0.0624082 0.
0.536828 0.0642779 0.
0.540595 0.0661829 0.
0.544291 0.068158 0.
0.547916 0.0700029 0.
0.551415 0.0714901 0.
0.554916 0.0728328 0.
0.558226 0.0740819 0.
0.561375 0.0750952 0.
0.564306 0.0757875 0.
0.567146 0.0763653 0.
0.569788 0.0768885 0.
0.572398 0.0774172 0.
0.574656 0.0776767 0.
0.576923 0.0779384 0.
0.579131 0.0781212 0.
0.581319 0.0782961 0.
0.583498 0.078458 0.
0.585576 0.0785082 0.
0.587654 0.0785586 0.
0.589726 0.0786013 0.
0.591789 0.078636 0.
0.593852 0.0786708 0.
0.595912 0.0786852 0.
0.59797 0.0786929 0.
0.600028 0.0787003 0.
0.602088 0.0786778 0.
0.604148 0.0786553 0.
0.606212 0.0786264 0.
0.608283 0.0785805 0.
0.610353 0.0785347 0.
0.612442 0.0784802 0.
0.61454 0.0784185 0.
0.616638 0.0783571 0.
0.618844 0.0781505 0.
0.621051 0.0779372 0.
0.623327 0.0776916 0.
0.625702 0.0773524 0.
0.628069 0.0770177 0.
0.630781 0.0764855 0.
0.633438 0.0760011 0.
0.636445 0.0750853 0.
0.63946 0.0740776 0.
0.64295 0.0727452 0.
0.64648 0.0713911 0.
0.650095 0.0697506 0.
0.65377 0.068077 0.
0.657481 0.066386 0.
0.661184 0.0645205 0.
0.664914 0.0624101 0.
0.668695 0.0602783 0.
0.672583 0.0582961 0.
0.676451 0.0562181 0.
0.680224 0.0539463 0.
0.683942 0.0515054 0.
0.687659 0.0490135 0.
0.691316 0.046517 0.
0.694981 0.0440612 0.
0.698701 0.0416831 0.
0.702514 0.039377 0.
0.706432 0.0371259 0.
0.710402 0.0348732 0.
0.714264 0.0324839 0.
0.718081 0.0300048 0.
0.72208 0.0274777 0.
0.726146 0.0249781 0.
0.730553 0.0224631 0.
0.735191 0.0200095 0.
0.739905 0.0176025 0.
0.745159 0.0151619 0.
0.75127 0.0131587 0.
0.758155 0.0113005 0.
0.766219 0.0103345 0.
0.774679 0.0103349 0.
0.782136 0.0111786 0.
0.416897 0.011794 0.
0.424312 0.0111879 0.
0.432681 0.0108492 0.
0.440387 0.0118648 0.
0.446825 0.0136845 0.
0.452627 0.0158366 0.
0.457556 0.0183098 0.
0.462072 0.0207747 0.
0.466616 0.0231039 0.
0.470856 0.0255425 0.
0.474792 0.0279978 0.
0.478797 0.0303914 0.
0.482753 0.0327578 0.
0.486646 0.0350944 0.
0.490443 0.0373732 0.
0.494061 0.0397034 0.
0.49758 0.0420735 0.
0.501118 0.0444708 0.
0.504768 0.0468737 0.
0.508515 0.0492333 0.
0.512333 0.0514877 0.
0.516204 0.0536887 0.
0.520032 0.055912 0.
0.523764 0.05822 0.
0.527556 0.0604925 0.
0.531375 0.0626263 0.
0.535189 0.0645681 0.
0.538976 0.0664545 0.
0.542715 0.0684712 0.
0.546384 0.0704096 0.
0.549993 0.0721416 0.
0.553591 0.0736079 0.
0.557025 0.0749535 0.
0.560369 0.0762404 0.
0.563486 0.0770658 0.
0.566565 0.077804 0.
0.569314 0.0784704 0.
0.572091 0.0791863 0.
0.574394 0.0794666 0.
0.576706 0.0797466 0.
0.578964 0.0799638 0.
0.581192 0.0801776 0.
0.583415 0.080384 0.
0.585506 0.0804386 0.
0.587597 0.0804933 0.
0.589681 0.0805399 0.
0.591754 0.080577 0.
0.593827 0.0806143 0.
0.595897 0.0806297 0.
0.597965 0.0806376 0.
0.600034 0.0806453 0.
0.602105 0.0806213 0.
0.604176 0.0805973 0.
0.60625 0.0805659 0.
0.60833 0.0805161 0.
0.610411 0.0804664 0.
0.612515 0.0804044 0.
0.614631 0.0803343 0.
0.616749 0.0802632 0.
0.618997 0.0800125 0.
0.621242 0.0797593 0.
0.623592 0.0794626 0.
0.626039 0.079085 0.
0.628543 0.0786813 0.
0.631448 0.0779831 0.
0.634337 0.0772618 0.
0.637535 0.0760832 0.
0.640708 0.0749236 0.
0.644254 0.0735319 0.
0.64791 0.0719536 0.
0.65158 0.0702142 0.
0.655343 0.0685081 0.
0.659095 0.0667182 0.
0.662811 0.064742 0.
0.666543 0.0625573 0.
0.670375 0.0604692 0.
0.674278 0.0584699 0.
0.678126 0.056324 0.
0.681868 0.0539833 0.
0.685563 0.0515248 0.
0.689243 0.049049 0.
0.692887 0.0465733 0.
0.696535 0.0441707 0.
0.700221 0.0418483 0.
0.703982 0.0395926 0.
0.70785 0.0373814 0.
0.711742 0.0351483 0.
0.715526 0.0327811 0.
0.719259 0.0303435 0.
0.723111 0.0279005 0.
0.727068 0.0254514 0.
0.73132 0.0229974 0.
0.735818 0.0206191 0.
0.740404 0.0182535 0.
0.745376 0.0158545 0.
0.751206 0.0138688 0.
0.757739 0.012026 0.
0.765259 0.0108672 0.
0.773519 0.0110003 0.
0.780808 0.0116325 0.
0.418246 0.0123398 0.
0.425507 0.0118075 0.
0.433643 0.0114038 0.
0.44074 0.0126251 0.
0.446896 0.0144405 0.
0.452373 0.0165624 0.
0.457006 0.0189739 0.
0.461421 0.0213861 0.
0.465792 0.0236529 0.
0.469855 0.025998 0.
0.473692 0.0284037 0.
0.477586 0.0307447 0.
0.481455 0.0330586 0.
0.485257 0.0353611 0.
0.48898 0.0376144 0.
0.492573 0.0398983 0.
0.49608 0.0422399 0.
0.499608 0.0446108 0.
0.503243 0.0469981 0.
0.506946 0.0493557 0.
0.510719 0.0516167 0.
0.514559 0.0538124 0.
0.518389 0.0560074 0.
0.522144 0.0582948 0.
0.525934 0.0606127 0.
0.529739 0.0628048 0.
0.533546 0.0648296 0.
0.537349 0.0667129 0.
0.541131 0.0687128 0.
0.544841 0.0707498 0.
0.548493 0.0726488 0.
0.552153 0.074243 0.
0.555741 0.0757093 0.
0.559219 0.077215 0.
0.562594 0.0782883 0.
0.565907 0.0791681 0.
0.568727 0.079933 0.
0.571543 0.0807527 0.
0.57399 0.0811193 0.
0.576423 0.0814448 0.
0.578779 0.0817328 0.
0.581048 0.0820144 0.
0.583319 0.0822937 0.
0.585426 0.0823544 0.
0.587534 0.0824154 0.
0.589632 0.0824669 0.
0.591715 0.0825065 0.
0.593799 0.0825462 0.
0.59588 0.0825623 0.
0.59796 0.0825702 0.
0.600041 0.0825777 0.
0.602124 0.0825524 0.
0.604207 0.082527 0.
0.606292 0.0824934 0.
0.608382 0.0824401 0.
0.610472 0.0823869 0.
0.612595 0.0823103 0.
0.614734 0.0822215 0.
0.616885 0.082123 0.
0.619221 0.0817918 0.
0.621536 0.0814699 0.
0.624007 0.0810932 0.
0.62654 0.0806748 0.
0.629201 0.0801809 0.
0.63219 0.0794019 0.
0.635346 0.0783684 0.
0.638695 0.0769864 0.
0.642117 0.0755966 0.
0.645692 0.0741399 0.
0.649403 0.0724049 0.
0.653129 0.070619 0.
0.656935 0.0688868 0.
0.660704 0.0670017 0.
0.664424 0.0649129 0.
0.668174 0.0627147 0.
0.672031 0.0606707 0.
0.675938 0.0586215 0.
0.679787 0.0563993 0.
0.683508 0.0540087 0.
0.687178 0.0515562 0.
0.690832 0.0490937 0.
0.694455 0.0466543 0.
0.698095 0.0442989 0.
0.701762 0.0420205 0.
0.705475 0.0398227 0.
0.70928 0.0376467 0.
0.713098 0.0354266 0.
0.716804 0.0330832 0.
0.720468 0.0306944 0.
0.724196 0.0283292 0.
0.728023 0.0259384 0.
0.732112 0.0235546 0.
0.736437 0.0212619 0.
0.740879 0.0189411 0.
0.745623 0.016586 0.
0.751124 0.0146219 0.
0.757332 0.012792 0.
0.764349 0.0114508 0.
0.772331 0.0116326 0.
0.779497 0.0121505 0.
0.419609 0.0129235 0.
0.426813 0.012369 0.
0.434574 0.0120393 0.
0.441153 0.0134461 0.
0.447007 0.0152566 0.
0.452099 0.0173374 0.
0.456524 0.0196954 0.
0.460782 0.0220445 0.
0.464946 0.0242381 0.
0.468859 0.0264925 0.
0.4726 0.028841 0.
0.47638 0.0311285 0.
0.480153 0.0333838 0.
0.483866 0.035645 0.
0.48752 0.0378774 0.
0.491101 0.040121 0.
0.494606 0.0424359 0.
0.498119 0.0447758 0.
0.501724 0.0471426 0.
0.505386 0.0494852 0.
0.509129 0.0517624 0.
0.512941 0.0539572 0.
0.516772 0.0561322 0.
0.520549 0.0583895 0.
0.524331 0.0607171 0.
0.528127 0.0629613 0.
0.531915 0.0650616 0.
0.535724 0.0669817 0.
0.539537 0.0689336 0.
0.543283 0.0710321 0.
0.546959 0.0730285 0.
0.550649 0.0747776 0.
0.554367 0.0763502 0.
0.557941 0.0780094 0.
0.561529 0.0793748 0.
0.564887 0.0802756 0.
0.567875 0.0811594 0.
0.570815 0.0821598 0.
0.573505 0.0827238 0.
0.576104 0.0831238 0.
0.57859 0.0834952 0.
0.5809 0.0838454 0.
0.583219 0.0841991 0.
0.585346 0.0842699 0.
0.58747 0.0843373 0.
0.589583 0.0843939 0.
0.591677 0.084436 0.
0.59377 0.0844781 0.
0.595863 0.084495 0.
0.597955 0.0845028 0.
0.600048 0.0845102 0.
0.602143 0.0844835 0.
0.604238 0.0844568 0.
0.606335 0.0844208 0.
0.608434 0.084364 0.
0.610533 0.0843073 0.
0.612677 0.0842151 0.
0.614839 0.0841073 0.
0.617031 0.0839752 0.
0.619457 0.0835618 0.
0.621854 0.0831624 0.
0.624511 0.0826702 0.
0.627208 0.0821612 0.
0.630143 0.0814476 0.
0.633196 0.080544 0.
0.636529 0.0792358 0.
0.639983 0.0777396 0.
0.64358 0.0762003 0.
0.647218 0.0745908 0.
0.65094 0.0727847 0.
0.654714 0.0709863 0.
0.658531 0.0691922 0.
0.662313 0.0672305 0.
0.666023 0.0650572 0.
0.66979 0.0629046 0.
0.673656 0.0608775 0.
0.67756 0.0587673 0.
0.681403 0.0564711 0.
0.685125 0.0540406 0.
0.688777 0.0516023 0.
0.6924 0.0491647 0.
0.696008 0.0467688 0.
0.699635 0.0444617 0.
0.703296 0.0422206 0.
0.706972 0.0400718 0.
0.7107 0.0379319 0.
0.714441 0.0357282 0.
0.718082 0.0334109 0.
0.721684 0.031074 0.
0.725312 0.0287758 0.
0.728996 0.0264504 0.
0.732907 0.0241454 0.
0.737044 0.0219438 0.
0.741319 0.0196834 0.
0.745843 0.0173803 0.
0.750999 0.015434 0.
0.756881 0.0136199 0.
0.763431 0.0121152 0.
0.771043 0.0122248 0.
0.778132 0.0127236 0.
0.421123 0.013524 0.
0.428296 0.0128704 0.
0.435569 0.0127841 0.
0.441691 0.0143559 0.
0.44715 0.0161433 0.
0.451864 0.0181913 0.
0.456099 0.0204867 0.
0.460149 0.0227497 0.
0.464102 0.0248683 0.
0.467879 0.0270384 0.
0.471516 0.0293146 0.
0.475183 0.0315473 0.
0.478862 0.0337469 0.
0.482486 0.035958 0.
0.486071 0.0381627 0.
0.489643 0.0403723 0.
0.493146 0.0426524 0.
0.496641 0.0449658 0.
0.500209 0.0472983 0.
0.503838 0.0496225 0.
0.50755 0.0519099 0.
0.511349 0.0541158 0.
0.515172 0.0562788 0.
0.51896 0.0584987 0.
0.522741 0.0608131 0.
0.52652 0.0631041 0.
0.530292 0.0652605 0.
0.534102 0.0672459 0.
0.537937 0.069151 0.
0.541714 0.0712419 0.
0.54541 0.073325 0.
0.549125 0.0752252 0.
0.552917 0.0768834 0.
0.556591 0.078621 0.
0.560274 0.0802309 0.
0.563719 0.0812496 0.
0.566966 0.0823118 0.
0.570022 0.0834843 0.
0.572962 0.0842976 0.
0.57571 0.0847663 0.
0.578322 0.0852156 0.
0.580661 0.085617 0.
0.583031 0.0860298 0.
0.585211 0.0861354 0.
0.587376 0.0862241 0.
0.589523 0.0862973 0.
0.59163 0.0863402 0.
0.593737 0.0863832 0.
0.595843 0.0864002 0.
0.59795 0.0864074 0.
0.600056 0.0864142 0.
0.602166 0.0863865 0.
0.604276 0.0863588 0.
0.606387 0.0863214 0.
0.608501 0.0862631 0.
0.610615 0.0862049 0.
0.612802 0.0860836 0.
0.615007 0.0859429 0.
0.617272 0.0857522 0.
0.619768 0.0852694 0.
0.622219 0.0848225 0.
0.625084 0.0842109 0.
0.627944 0.0836094 0.
0.631153 0.0826302 0.
0.634346 0.0815005 0.
0.637836 0.0799044 0.
0.641396 0.0783283 0.
0.645061 0.0767271 0.
0.648754 0.0749654 0.
0.65251 0.0731285 0.
0.656309 0.0713265 0.
0.660125 0.0694564 0.
0.663914 0.0673983 0.
0.667634 0.065193 0.
0.671406 0.0631029 0.
0.675262 0.0610681 0.
0.679157 0.0589016 0.
0.682989 0.056542 0.
0.686704 0.0541009 0.
0.690356 0.0516717 0.
0.693956 0.0492603 0.
0.69755 0.046913 0.
0.701164 0.0446478 0.
0.704816 0.0424542 0.
0.708458 0.040345 0.
0.712125 0.0382331 0.
0.715783 0.0360439 0.
0.719352 0.0337704 0.
0.722888 0.0314973 0.
0.726421 0.0292587 0.
0.729982 0.0269934 0.
0.733718 0.0247805 0.
0.737647 0.0226709 0.
0.741708 0.0204869 0.
0.746016 0.0182487 0.
0.750809 0.0163227 0.
0.756335 0.0145296 0.
0.762426 0.0128982 0.
0.769551 0.0127769 0.
0.776601 0.0133264 0.
0.42287 0.0141155 0.
0.429924 0.0133665 0.
0.436596 0.0136727 0.
0.442267 0.0153505 0.
0.447288 0.0171031 0.
0.451654 0.0191188 0.
0.455658 0.0213215 0.
0.459495 0.0234925 0.
0.463257 0.0255426 0.
0.466887 0.0276187 0.
0.470425 0.0298164 0.
0.473994 0.0319998 0.
0.477568 0.0341398 0.
0.481104 0.0362962 0.
0.484636 0.0384668 0.
0.488186 0.0406438 0.
0.491677 0.0428799 0.
0.495145 0.0451647 0.
0.498686 0.047463 0.
0.502294 0.049771 0.
0.505991 0.0520633 0.
0.509768 0.0542826 0.
0.51358 0.0564425 0.
0.517381 0.0586307 0.
0.521163 0.060917 0.
0.524921 0.0632312 0.
0.52869 0.0654367 0.
0.532497 0.0674951 0.
0.536341 0.0694004 0.
0.540157 0.0714377 0.
0.543879 0.0735908 0.
0.547623 0.075593 0.
0.551447 0.0773518 0.
0.555213 0.0791316 0.
0.558903 0.0808709 0.
0.562495 0.0821412 0.
0.565982 0.0833331 0.
0.569122 0.0845885 0.
0.57222 0.0856466 0.
0.575065 0.0862309 0.
0.577888 0.086858 0.
0.580315 0.0873273 0.
0.582781 0.0878129 0.
0.585043 0.0879753 0.
0.587265 0.0880965 0.
0.58946 0.0881944 0.
0.591581 0.0882383 0.
0.593702 0.0882822 0.
0.595823 0.0882991 0.
0.597944 0.0883057 0.
0.600065 0.0883118 0.
0.60219 0.0882827 0.
0.604315 0.0882536 0.
0.606442 0.0882144 0.
0.608575 0.0881544 0.
0.610707 0.0880945 0.
0.612957 0.0879308 0.
0.615229 0.0877423 0.
0.617615 0.0874521 0.
0.62023 0.0868511 0.
0.62284 0.0862694 0.
0.625839 0.0855427 0.
0.62885 0.0848536 0.
0.632213 0.0836874 0.
0.635602 0.0822226 0.
0.639176 0.0804832 0.
0.642851 0.0788484 0.
0.646552 0.077173 0.
0.65027 0.0753073 0.
0.654055 0.0734625 0.
0.657883 0.0716377 0.
0.661711 0.0696982 0.
0.665505 0.0675475 0.
0.66924 0.0653633 0.
0.673026 0.0633114 0.
0.676874 0.0612409 0.
0.680738 0.0590133 0.
0.684547 0.0566164 0.
0.68827 0.0541781 0.
0.69192 0.0517594 0.
0.69551 0.0493794 0.
0.699091 0.0470775 0.
0.702693 0.0448533 0.
0.706333 0.0427114 0.
0.70995 0.0406358 0.
0.713561 0.0385439 0.
0.717133 0.0363735 0.
0.720633 0.0341541 0.
0.724095 0.0319572 0.
0.727522 0.0297778 0.
0.730982 0.0275678 0.
0.734566 0.0254514 0.
0.738293 0.0234325 0.
0.742112 0.0213328 0.
0.746187 0.019179 0.
0.750615 0.0172842 0.
0.755695 0.0155265 0.
0.761373 0.0138207 0.
0.76791 0.0133417 0.
0.774836 0.0139234 0.
0.42479 0.0146539 0.
0.431543 0.0139447 0.
0.437564 0.0147014 0.
0.442754 0.0163968 0.
0.447325 0.0181148 0.
0.45137 0.0200677 0.
0.455134 0.0221623 0.
0.458761 0.0242442 0.
0.462338 0.0262223 0.
0.465838 0.0282076 0.
0.46929 0.0303263 0.
0.472763 0.0324557 0.
0.476239 0.0345445 0.
0.479697 0.0366427 0.
0.483183 0.0387738 0.
0.486709 0.0409246 0.
0.49018 0.043114 0.
0.493626 0.0453666 0.
0.497149 0.0476392 0.
0.500759 0.0499385 0.
0.504442 0.0522253 0.
0.508205 0.0544635 0.
0.512011 0.0566274 0.
0.515814 0.0587886 0.
0.519604 0.061045 0.
0.523354 0.0633571 0.
0.527117 0.0656061 0.
0.530918 0.0677289 0.
0.534775 0.0696825 0.
0.538634 0.0716523 0.
0.542378 0.0738203 0.
0.546137 0.0759112 0.
0.549969 0.0777827 0.
0.553807 0.0795641 0.
0.557526 0.0813919 0.
0.561224 0.0829354 0.
0.564838 0.0841978 0.
0.568084 0.0854945 0.
0.571351 0.0868321 0.
0.57437 0.0876357 0.
0.577412 0.0884728 0.
0.579953 0.0890234 0.
0.582518 0.089582 0.
0.584874 0.0898078 0.
0.587153 0.0899611 0.
0.589397 0.0900868 0.
0.591532 0.0901312 0.
0.593668 0.0901756 0.
0.595804 0.0901924 0.
0.597939 0.0901984 0.
0.600074 0.0902038 0.
0.602214 0.0901735 0.
0.604353 0.0901433 0.
0.606497 0.0901026 0.
0.608648 0.0900414 0.
0.610797 0.0899806 0.
0.613116 0.0897703 0.
0.615457 0.0895334 0.
0.617981 0.0891245 0.
0.620721 0.0884027 0.
0.623544 0.0876387 0.
0.626685 0.0867431 0.
0.629928 0.0858103 0.
0.633333 0.0845906 0.
0.636903 0.0828113 0.
0.640561 0.0809806 0.
0.644313 0.079319 0.
0.648035 0.0775581 0.
0.651769 0.0756473 0.
0.655587 0.0738 0.
0.659429 0.0719272 0.
0.663259 0.0699104 0.
0.667067 0.0676969 0.
0.670833 0.0655596 0.
0.67463 0.0635217 0.
0.678463 0.0614088 0.
0.682307 0.059121 0.
0.686094 0.0567003 0.
0.689817 0.054271 0.
0.693475 0.051866 0.
0.697065 0.049523 0.
0.700635 0.0472646 0.
0.704233 0.0450809 0.
0.707864 0.042984 0.
0.711456 0.040936 0.
0.715017 0.0388549 0.
0.718524 0.036705 0.
0.721961 0.0345424 0.
0.72535 0.0324187 0.
0.728675 0.0302987 0.
0.73203 0.0281565 0.
0.735486 0.0261292 0.
0.739042 0.0241933 0.
0.742637 0.0221846 0.
0.746437 0.020133 0.
0.750546 0.0182829 0.
0.755144 0.0165783 0.
0.760353 0.0148743 0.
0.766283 0.0139989 0.
0.772904 0.0144783 0.
0.426721 0.0151528 0.
0.432972 0.0147059 0.
0.438361 0.0158196 0.
0.443024 0.017475 0.
0.447157 0.019135 0.
0.450906 0.0209983 0.
0.454445 0.0229786 0.
0.457872 0.0249686 0.
0.461282 0.0268802 0.
0.464679 0.0287857 0.
0.468066 0.0308187 0.
0.471445 0.0328937 0.
0.474829 0.0349425 0.
0.478228 0.0369893 0.
0.481684 0.039083 0.
0.485186 0.041207 0.
0.48864 0.0433513 0.
0.492082 0.0455716 0.
0.495604 0.0478311 0.
0.499221 0.05012 0.
0.502905 0.0524039 0.
0.506664 0.0546551 0.
0.510463 0.0568306 0.
0.514262 0.0589779 0.
0.51806 0.0612029 0.
0.521813 0.063494 0.
0.525577 0.0657814 0.
0.529386 0.0679618 0.
0.533255 0.069981 0.
0.53714 0.0719112 0.
0.540918 0.0740472 0.
0.544685 0.0762115 0.
0.54852 0.078167 0.
0.5524 0.0799719 0.
0.556169 0.0818593 0.
0.559907 0.0836333 0.
0.563565 0.0849417 0.
0.567005 0.0863291 0.
0.570397 0.0878532 0.
0.573657 0.0889723 0.
0.576832 0.0899382 0.
0.579508 0.0905591 0.
0.582136 0.0911486 0.
0.584618 0.0914904 0.
0.586996 0.091744 0.
0.589335 0.0919589 0.
0.591486 0.0920041 0.
0.593637 0.0920492 0.
0.595786 0.0920661 0.
0.597936 0.0920718 0.
0.600085 0.0920768 0.
0.602238 0.0920447 0.
0.60439 0.0920126 0.
0.60655 0.0919678 0.
0.608719 0.0919008 0.
0.610886 0.0918341 0.
0.613344 0.091507 0.
0.615799 0.091169 0.
0.618462 0.0906132 0.
0.621247 0.0898483 0.
0.624279 0.0889182 0.
0.627553 0.0878784 0.
0.631034 0.0866836 0.
0.634543 0.0852739 0.
0.638217 0.0833041 0.
0.641956 0.0814605 0.
0.645752 0.0797682 0.
0.649487 0.0779132 0.
0.653241 0.0759945 0.
0.657084 0.0741421 0.
0.660937 0.0722205 0.
0.664772 0.0701117 0.
0.668593 0.0678873 0.
0.672394 0.0657889 0.
0.676208 0.0637348 0.
0.680028 0.06157 0.
0.683856 0.0592379 0.
0.687638 0.056803 0.
0.69136 0.0543822 0.
0.695024 0.051996 0.
0.698625 0.0496913 0.
0.702192 0.0474716 0.
0.705793 0.0453319 0.
0.709419 0.0432705 0.
0.712991 0.0412385 0.
0.716508 0.0391605 0.
0.719967 0.0370375 0.
0.723361 0.0349299 0.
0.726693 0.0328634 0.
0.729939 0.0307919 0.
0.733196 0.02873 0.
0.736522 0.0267961 0.
0.739948 0.0249261 0.
0.743359 0.0230017 0.
0.746889 0.0210677 0.
0.75069 0.0192854 0.
0.754854 0.0176444 0.
0.759513 0.0160004 0.
0.764856 0.0148196 0.
0.770961 0.0150318 0.
0.428497 0.0157079 0.
0.4341 0.0156703 0.
0.438859 0.0169797 0.
0.443005 0.0185687 0.
0.446745 0.0201454 0.
0.450234 0.0219017 0.
0.453557 0.0237677 0.
0.456833 0.0256701 0.
0.460115 0.0275249 0.
0.46343 0.0293658 0.
0.466759 0.03131 0.
0.47006 0.0333345 0.
0.47338 0.0353582 0.
0.476748 0.0373674 0.
0.480185 0.0394307 0.
0.483659 0.0415222 0.
0.487111 0.0436324 0.
0.490565 0.0458229 0.
0.494102 0.0480723 0.
0.497734 0.0503554 0.
0.501427 0.0526364 0.
0.505176 0.0548867 0.
0.508962 0.0570775 0.
0.512752 0.0592171 0.
0.516553 0.0614057 0.
0.520321 0.0636769 0.
0.524098 0.0659832 0.
0.52792 0.0682104 0.
0.531801 0.0702968 0.
0.535691 0.0722343 0.
0.539506 0.0743017 0.
0.543279 0.0765071 0.
0.547125 0.0785356 0.
0.551034 0.0803931 0.
0.554854 0.0823006 0.
0.55859 0.0841869 0.
0.562283 0.0856439 0.
0.565877 0.0870877 0.
0.569389 0.0887311 0.
0.572835 0.0900981 0.
0.576049 0.0911497 0.
0.578956 0.09198 0.
0.5817 0.0926641 0.
0.58434 0.0931539 0.
0.586829 0.0935172 0.
0.589273 0.0938309 0.
0.591439 0.0938769 0.
0.593605 0.0939228 0.
0.595769 0.0939399 0.
0.597933 0.0939453 0.
0.600097 0.0939499 0.
0.602263 0.0939159 0.
0.604428 0.0938819 0.
0.606604 0.0938329 0.
0.608791 0.0937598 0.
0.610976 0.0936872 0.
0.6136 0.0932205 0.
0.616202 0.0927543 0.
0.619046 0.0919876 0.
0.621912 0.0911088 0.
0.625108 0.0899923 0.
0.628474 0.0888781 0.
0.632149 0.0874835 0.
0.635774 0.0858062 0.
0.639505 0.083758 0.
0.643315 0.0819375 0.
0.647132 0.0802015 0.
0.650886 0.0782751 0.
0.654667 0.0763651 0.
0.65853 0.0744911 0.
0.662382 0.0725204 0.
0.666225 0.0703335 0.
0.670072 0.06813 0.
0.673902 0.0660582 0.
0.677725 0.0639747 0.
0.681535 0.0617563 0.
0.685352 0.0593916 0.
0.689134 0.056951 0.
0.692867 0.0545419 0.
0.696538 0.0521814 0.
0.700146 0.0499133 0.
0.703718 0.0477351 0.
0.707324 0.0456389 0.
0.710947 0.0435986 0.
0.714499 0.0415752 0.
0.717986 0.0394941 0.
0.721424 0.0374002 0.
0.724791 0.0353458 0.
0.728084 0.0333166 0.
0.73128 0.031284 0.
0.734473 0.0292997 0.
0.737696 0.0274529 0.
0.740984 0.0256403 0.
0.744266 0.0237889 0.
0.747587 0.0219747 0.
0.751085 0.0202804 0.
0.754879 0.0187142 0.
0.759023 0.0171455 0.
0.763739 0.0158168 0.
0.769217 0.0156713 0.
0.42992 0.0164263 0.
0.434829 0.0167767 0.
0.438982 0.0181496 0.
0.442653 0.01966 0.
0.44608 0.021148 0.
0.449348 0.0227873 0.
0.452508 0.024551 0.
0.455681 0.0263721 0.
0.458883 0.0281841 0.
0.462139 0.0299798 0.
0.465411 0.0318428 0.
0.468678 0.0338229 0.
0.47197 0.0358296 0.
0.475323 0.0378158 0.
0.478736 0.0398491 0.
0.482187 0.0419036 0.
0.485652 0.0439902 0.
0.489133 0.0461553 0.
0.49269 0.0483904 0.
0.496338 0.0506689 0.
0.500042 0.0529438 0.
0.503788 0.0551842 0.
0.507547 0.0573803 0.
0.511325 0.0595177 0.
0.515129 0.061678 0.
0.518925 0.0639339 0.
0.522709 0.0662352 0.
0.52655 0.0684993 0.
0.530439 0.0706525 0.
0.53431 0.0726155 0.
0.538147 0.0746018 0.
0.541947 0.0768087 0.
0.545816 0.0789222 0.
0.549725 0.0808323 0.
0.55359 0.0827271 0.
0.55734 0.0846944 0.
0.56104 0.0863244 0.
0.56472 0.0877782 0.
0.56835 0.0894667 0.
0.571943 0.09109 0.
0.575234 0.0922917 0.
0.578378 0.0933654 0.
0.581243 0.0941418 0.
0.584056 0.0947862 0.
0.58665 0.0952503 0.
0.589206 0.0956809 0.
0.591388 0.0957273 0.
0.593571 0.0957739 0.
0.595751 0.0957913 0.
0.59793 0.0957967 0.
0.600108 0.0958012 0.
0.602289 0.0957662 0.
0.604469 0.0957311 0.
0.606662 0.095678 0.
0.608867 0.095599 0.
0.611071 0.0955205 0.
0.613867 0.0949006 0.
0.616622 0.094309 0.
0.619648 0.0933182 0.
0.622616 0.0923021 0.
0.625981 0.0909453 0.
0.629459 0.0897174 0.
0.633244 0.0882077 0.
0.636949 0.0862822 0.
0.640731 0.0842164 0.
0.644606 0.0824308 0.
0.648437 0.0806321 0.
0.652213 0.0786745 0.
0.656017 0.0767736 0.
0.659891 0.0748697 0.
0.66375 0.072834 0.
0.667592 0.0706029 0.
0.671463 0.0684337 0.
0.675324 0.0663706 0.
0.679156 0.0642551 0.
0.682943 0.0620017 0.
0.686747 0.0596161 0.
0.690551 0.0571641 0.
0.694299 0.0547724 0.
0.697978 0.0524465 0.
0.701592 0.0502198 0.
0.705168 0.0480861 0.
0.708771 0.0460256 0.
0.712395 0.0439994 0.
0.715938 0.0419738 0.
0.719403 0.0398955 0.
0.722834 0.0378271 0.
0.726197 0.0358165 0.
0.729468 0.0338132 0.
0.732641 0.031818 0.
0.735797 0.0299122 0.
0.738952 0.0281314 0.
0.742131 0.0263613 0.
0.745318 0.0245746 0.
0.748497 0.0228662 0.
0.751761 0.0212624 0.
0.755231 0.0197759 0.
0.758943 0.0182865 0.
0.763069 0.0169208 0.
0.767887 0.0164618 0.
0.430878 0.017334 0.
0.435124 0.0179624 0.
0.43873 0.0193375 0.
0.442025 0.0207744 0.
0.445201 0.0221662 0.
0.448307 0.0236922 0.
0.451384 0.0253753 0.
0.454486 0.0271256 0.
0.457633 0.0289079 0.
0.460846 0.0306734 0.
0.464095 0.0324817 0.
0.46738 0.0344242 0.
0.470677 0.0364137 0.
0.474013 0.0383781 0.
0.477395 0.0403777 0.
0.480837 0.0423909 0.
0.484327 0.044467 0.
0.48784 0.0466125 0.
0.49141 0.0488215 0.
0.495069 0.0510897 0.
0.498788 0.0533478 0.
0.502539 0.0555751 0.
0.50627 0.0577747 0.
0.510044 0.0599135 0.
0.513853 0.0620496 0.
0.517675 0.0642865 0.
0.521474 0.0665835 0.
0.525323 0.0688746 0.
0.529206 0.0710795 0.
0.53305 0.073072 0.
0.536918 0.0750131 0.
0.540742 0.0771756 0.
0.544634 0.079367 0.
0.548553 0.0813259 0.
0.552452 0.0832264 0.
0.556233 0.0852361 0.
0.559906 0.0869912 0.
0.563635 0.0884842 0.
0.567387 0.0901656 0.
0.571048 0.0919573 0.
0.574479 0.0933887 0.
0.577875 0.0946929 0.
0.580843 0.0955081 0.
0.583743 0.096287 0.
0.586443 0.0969103 0.
0.58913 0.0975127 0.
0.591332 0.0975612 0.
0.593535 0.0976098 0.
0.595732 0.0976283 0.
0.597926 0.0976338 0.
0.600121 0.0976384 0.
0.602317 0.097602 0.
0.604514 0.0975657 0.
0.606727 0.0975069 0.
0.608953 0.0974194 0.
0.611195 0.097316 0.
0.614151 0.0964156 0.
0.617017 0.0956541 0.
0.620136 0.0945974 0.
0.623293 0.093392 0.
0.626792 0.091861 0.
0.630375 0.0904843 0.
0.634217 0.0888892 0.
0.637997 0.0867888 0.
0.641826 0.0847368 0.
0.64576 0.0829651 0.
0.649612 0.0811109 0.
0.653405 0.0791469 0.
0.657239 0.0772386 0.
0.661114 0.0753102 0.
0.664973 0.0732169 0.
0.668827 0.0709656 0.
0.672717 0.0688235 0.
0.6766 0.0667606 0.
0.680438 0.0646187 0.
0.684201 0.0623383 0.
0.68799 0.0599402 0.
0.691821 0.0574867 0.
0.695598 0.0551197 0.
0.699285 0.0528321 0.
0.702904 0.0506403 0.
0.706493 0.0485415 0.
0.710089 0.0465161 0.
0.713704 0.0445072 0.
0.717248 0.0424872 0.
0.72071 0.0404101 0.
0.724135 0.0383614 0.
0.727514 0.0363848 0.
0.730797 0.0344111 0.
0.733964 0.0324506 0.
0.737091 0.0306176 0.
0.74022 0.0288864 0.
0.743338 0.0271464 0.
0.746456 0.0254185 0.
0.749541 0.0237891 0.
0.752657 0.0222663 0.
0.755866 0.020853 0.
0.759243 0.0194294 0.
0.762853 0.0180863 0.
0.767027 0.0174036 0.
CELLS 5000 10000
1 0
1 1
1 2
1 3
1 4
1 5
1 6
1 7
1 8
1 9
1 10
1 11
1 12
1 13
1 14
1 15
1 16
1 17
1 18
1 19
1 20
1 21
1 22
1 23
1 24
1 25
1 26
1 27
1 28
1 29
1 30
1 31
1 32
1 33
1 34
1 35
1 36
1 37
1 38
1 39
1 40
1 41
1 42
1 43
1 44
1 45
1 46
1 47
1 48
1 49
1 50
1 51
1 52
1 53
1 54
1 55
1 56
1 57
1 58
1 59
1 60
1 61
1 62
1 63
1 64
1 65
1 66
1 67
1 68
1 69
1 70
1 71
1 72
1 73
1 74
1 75
1 76
1 77
1 78
1 79
1 80
1 81
1 82
1 83
1 84
1 85
1 86
1 87
1 88
1 89
1 90
1 91
1 92
1 93
1 94
1 95
1 96
1 97
1 98
1 99
1 100
1 101
1 102
1 103
1 104
1 105
1 106
1 107
1 108
1 109
1 110
1 111
1 112
1 113
1 114
1 115
1 116
1 117
1 118
1 119
1 120
1 121
1 122
1 123
1 124
1 125
1 126
1 127
1 128
1 129
1 130
1 131
1 132
1 133
1 134
1 135
1 136
1 137
1 138
1 139
1 140
1 141
1 142
1 143
1 144
1 145
1 146
1 147
1 148
1 149
1 150
1 151
1 152
1 153
1 154
1 155
1 156
1 157
1 158
1 159
1 160
1 161
1 162
1 163
1 164
1 165
1 166
1 167
1 168
1 169
1 170
1 171
1 172
1 173
1 174
1 175
1 176
1 177
1 178
1 179
1 180
1 181
1 182
1 183
1 184
1 185
1 186
1 187
1 188
1 189
1 190
1 191
1 192
1 193
1 194
1 195
1 196
1 197
1 198
1 199
1 200
1 201
1 202
1 203
1 204
1 205
1 206
1 207
1 208
1 209
1 210
1 211
1 212
1 213
1 214
1 215
1 216
1 217
1 218
1 219
1 220
1 221
1 222
1 223
1 224
1 225
1 226
1 227
1 228
1 229
1 230
1 231
1 232
1 233
1 234
1 235
1 236
1 237
1 238
1 239
1 240
1 241
1 242
1 243
1 244
1 245
1 246
1 247
1 248
1 249
1 250
1 251
1 252
1 253
1 254
1 255
1 256
1 257
1 258
1 259
1 260
1 261
1 262
1 263
1 264
1 265
1 266
1 267
1 268
1 269
1 270
1 271
1 272
1 273
1 274
1 275
1 276
1 277
1 278
1 279
1 280
1 281
1 282
1 283
1 284
1 285
1 286
1 287
1 288
1 289
1 290
1 291
1 292
1 293
1 294
1 295
1 296
1 297
1 298
1 299
1 300
1 301
1 302
1 303
1 304
1 305
1 306
1 307
1 308
1 309
1 310
1 311
1 312
1 313
1 314
1 315
1 316
1 317
1 318
1 319
1 320
1 321
1 322
1 323
1 324
1 325
1 326
1 327
1 328
1 329
1 330
1 331
1 332
1 333
1 334
1 335
1 336
1 337
1 338
1 339
1 340
1 341
1 342
1 343
1 344
1 345
1 346
1 347
1 348
1 349
1 350
1 351
1 352
1 353
1 354
1 355
1 356
1 357
1 358
1 359
1 360
1 361
1 362
1 363
1 364
1 365
1 366
1 367
1 368
1 369
1 370
1 371
1 372
1 373
1 374
1 375
1 376
1 377
1 378
1 379
1 380
1 381
1 382
1 383
1 384
1 385
1 386
1 387
1 388
1 389
1 390
1 391
1 392
1 393
1 394
1 395
1 396
1 397
1 398
1 399
1 400
1 401
1 402
1 403
1 404
1 405
1 406
1 407
1 408
1 409
1 410
1 411
1 412
1 413
1 414
1 415
1 416
1 417
1 418
1 419
1 420
1 421
1 422
1 423
1 424
1 425
1 426
1 427
1 428
1 429
1 430
1 431
1 432
1 433
1 434
1 435
1 436
1 437
1 438
1 439
1 440
1 441
1 442
1 443
1 444
1 445
1 446
1 447
1 448
1 449
1 450
1 451
1 452
1 453
1 454
1 455
1 456
1 457
1 458
1 459
1 460
1 461
1 462
1 463
1 464
1 465
1 466
1 467
1 468
1 469
1 470
1 471
1 472
1 473
1 474
1 475
1 476
1 477
1 478
1 479
1 480
1 481
1 482
1 483
1 484
1 485
1 486
1 487
1 488
1 489
1 490
1 491
1 492
1 493
1 494
1 495
1 496
1 497
1 498
1 499
1 500
1 501
1 502
1 503
1 504
1 505
1 506
1 507
1 508
1 509
1 510
1 511
1 512
1 513
1 514
1 515
1 516
1 517
1 518
1 519
1 520
1 521
1 522
1 523
1 524
1 525
1 526
1 527
1 528
1 529
1 530
1 531
1 532
1 533
1 534
1 535
1 536
1 537
1 538
1 539
1 540
1 541
1 542
1 543
1 544
1 545
1 546
1 547
1 548
1 549
1 550
1 551
1 552
1 553
1 554
1 555
1 556
1 557
1 558
1 559
1 560
1 561
1 562
1 563
1 564
1 565
1 566
1 567
1 568
1 569
1 570
1 571
1 572
1 573
1 574
1 575
1 576
1 577
1 578
1 579
1 580
1 581
1 582
1 583
1 584
1 585
1 586
1 587
1 588
1 589
1 590
1 591
1 592
1 593
1 594
1 595
1 596
1 597
1 598
1 599
1 600
1 601
1 602
1 603
1 604
1 605
1 606
1 607
1 608
1 609
1 610
1 611
1 612
1 613
1 614
1 615
1 616
1 617
1 618
1 619
1 620
1 621
1 622
1 623
1 624
1 625
1 626
1 627
1 628
1 629
1 630
1 631
1 632
1 633
1 634
1 635
1 636
1 637
1 638
1 639
1 640
1 641
1 642
1 643
1 644
1 645
1 646
1 647
1 648
1 649
1 650
1 651
1 652
1 653
1 654
1 655
1 656
1 657
1 658
1 659
1 660
1 661
1 662
1 663
1 664
1 665
1 666
1 667
1 668
1 669
1 670
1 671
1 672
1 673
1 674
1 675
1 676
1 677
1 678
1 679
1 680
1 681
1 682
1 683
1 684
1 685
1 686
1 687
1 688
1 689
1 690
1 691
1 692
1 693
1 694
1 695
1 696
1 697
1 698
1 699
1 700
1 701
1 702
1 703
1 704
1 705
1 706
1 707
1 708
1 709
1 710
1 711
1 712
1 713
1 714
1 715
1 716
1 717
1 718
1 719
1 720
1 721
1 722
1 723
1 724
1 725
1 726
1 727
1 728
1 729
1 730
1 731
1 732
1 733
1 734
1 735
1 736
1 737
1 738
1 739
1 740
1 741
1 742
1 743
1 744
1 745
1 746
1 747
1 748
1 749
1 750
1 751
1 752
1 753
1 754
1 755
1 756
1 757
1 758
1 759
1 760
1 761
1 762
1 763
1 764
1 765
1 766
1 767
1 768
1 769
1 770
1 771
1 772
1 773
1 774
1 775
1 776
1 777
1 778
1 779
1 780
1 781
1 782
1 783
1 784
1 785
1 786
1 787
1 788
1 789
1 790
1 791
1 792
1 793
1 794
1 795
1 796
1 797
1 798
1 799
1 800
1 801
1 802
1 803
1 804
1 805
1 806
1 807
1 808
1 809
1 810
1 811
1 812
1 813
1 814
1 815
1 816
1 817
1 818
1 819
1 820
1 821
1 822
1 823
1 824
1 825
1 826
1 827
1 828
1 829
1 830
1 831
1 832
1 833
1 834
1 835
1 836
1 837
1 838
1 839
1 840
1 841
1 842
1 843
1 844
1 845
1 846
1 847
1 848
1 849
1 850
1 851
1 852
1 853
1 854
1 855
1 856
1 857
1 858
1 859
1 860
1 861
1 862
1 863
1 864
1 865
1 866
1 867
1 868
1 869
1 870
1 871
1 872
1 873
1 874
1 875
1 876
1 877
1 878
1 879
1 880
1 881
1 882
1 883
1 884
1 885
1 886
1 887
1 888
1 889
1 890
1 891
1 892
1 893
1 894
1 895
1 896
1 897
1 898
1 899
1 900
1 901
1 902
1 903
1 904
1 905
1 906
1 907
1 908
1 909
1 910
1 911
1 912
1 913
1 914
1 915
1 916
1 917
1 918
1 919
1 920
1 921
1 922
1 923
1 924
1 925
1 926
1 927
1 928
1 929
1 930
1 931
1 932
1 933
1 934
1 935
1 936
1 937
1 938
1 939
1 940
1 941
1 942
1 943
1 944
1 945
1 946
1 947
1 948
1 949
1 950
1 951
1 952
1 953
1 954
1 955
1 956
1 957
1 958
1 959
1 960
1 961
1 962
1 963
1 964
1 965
1 966
1 967
1 968
1 969
1 970
1 971
1 972
1 973
1 974
1 975
1 976
1 977
1 978
1 979
1 980
1 981
1 982
1 983
1 984
1 985
1 986
1 987
1 988
1 989
1 990
1 991
1 992
1 993
1 994
1 995
1 996
1 997
1 998
1 999
1 1000
1 1001
1 1002
1 1003
1 1004
1 1005
1 1006
1 1007
1 1008
1 1009
1 1010
1 1011
1 1012
1 1013
1 1014
1 1015
1 1016
1 1017
1 1018
1 1019
1 1020
1 1021
1 1022
1 1023
1 1024
1 1025
1 1026
1 1027
1 1028
1 1029
1 1030
1 1031
1 1032
1 1033
1 1034
1 1035
1 1036
1 1037
1 1038
1 1039
1 1040
1 1041
1 1042
1 1043
1 1044
1 1045
1 1046
1 1047
1 1048
1 1049
1 1050
1 1051
1 1052
1 1053
1 1054
1 1055
1 1056
1 1057
1 1058
1 1059
1 1060
1 1061
1 1062
1 1063
1 1064
1 1065
1 1066
1 1067
1 1068
1 1069
1 1070
1 1071
1 1072
1 1073
1 1074
1 1075
1 1076
1 1077
1 1078
1 1079
1 1080
1 1081
1 1082
1 1083
1 1084
1 1085
1 1086
1 1087
1 1088
1 1089
1 1090
1 1091
1 1092
1 1093
1 1094
1 1095
1 1096
1 1097
1 1098
1 1099
1 1100
1 1101
1 1102
1 1103
1 1104
1 1105
1 1106
1 1107
1 1108
1 1109
1 1110
1 1111
1 1112
1 1113
1 1114
1 1115
1 1116
1 1117
1 1118
1 1119
1 1120
1 1121
1 1122
1 1123
1 1124
1 1125
1 1126
1 1127
1 1128
1 1129
1 1130
1 1131
1 1132
1 1133
1 1134
1 1135
1 1136
1 1137
1 1138
1 1139
1 1140
1 1141
1 1142
1 1143
1 1144
1 1145
1 1146
1 1147
1 1148
1 1149
1 1150
1 1151
1 1152
1 1153
1 1154
1 1155
1 1156
1 1157
1 1158
1 1159
1 1160
1 1161
1 1162
1 1163
1 1164
1 1165
1 1166
1 1167
1 1168
1 1169
1 1170
1 1171
1 1172
1 1173
1 1174
1 1175
1 1176
1 1177
1 1178
1 1179
1 1180
1 1181
1 1182
1 1183
1 1184
1 1185
1 1186
1 1187
1 1188
1 1189
1 1190
1 1191
1 1192
1 1193
1 1194
1 1195
1 1196
1 1197
1 1198
1 1199
1 1200
1 1201
1 1202
1 1203
1 1204
1 1205
1 1206
1 1207
1 1208
1 1209
1 1210
1 1211
1 1212
1 1213
1 1214
1 1215
1 1216
1 1217
1 1218
1 1219
1 1220
1 1221
1 1222
1 1223
1 1224
1 1225
1 1226
1 1227
1 1228
1 1229
1 1230
1 1231
1 1232
1 1233
1 1234
1 1235
1 1236
1 1237
1 1238
1 1239
1 1240
1 1241
1 1242
1 1243
1 1244
1 1245
1 1246
1 1247
1 1248
1 1249
1 1250
1 1251
1 1252
1 1253
1 1254
1 1255
1 1256
1 1257
1 1258
1 1259
1 1260
1 1261
1 1262
1 1263
1 1264
1 1265
1 1266
1 1267
1 1268
1 1269
1 1270
1 1271
1 1272
1 1273
1 1274
1 1275
1 1276
1 1277
1 1278
1 1279
1 1280
1 1281
1 1282
1 1283
1 1284
1 1285
1 1286
1 1287
1 1288
1 1289
1 1290
1 1291
1 1292
1 1293
1 1294
1 1295
1 1296
1 1297
1 1298
1 1299
1 1300
1 1301
1 1302
1 1303
1 1304
1 1305
1 1306
1 1307
1 1308
1 1309
1 1310
1 1311
1 1312
1 1313
1 1314
1 1315
1 1316
1 1317
1 1318
1 1319
1 1320
1 1321
1 1322
1 1323
1 1324
1 1325
1 1326
1 1327
1 1328
1 1329
1 1330
1 1331
1 1332
1 1333
1 1334
1 1335
1 1336
1 1337
1 1338
1 1339
1 1340
1 1341
1 1342
1 1343
1 1344
1 1345
1 1346
1 1347
1 1348
1 1349
1 1350
1 1351
1 1352
1 1353
1 1354
1 1355
1 1356
1 1357
1 1358
1 1359
1 1360
1 1361
1 1362
1 1363
1 1364
1 1365
1 1366
1 1367
1 1368
1 1369
1 1370
1 1371
1 1372
1 1373
1 1374
1 1375
1 1376
1 1377
1 1378
1 1379
1 1380
1 1381
1 1382
1 1383
1 1384
1 1385
1 1386
1 1387
1 1388
1 1389
1 1390
1 1391
1 1392
1 1393
1 1394
1 1395
1 1396
1 1397
1 1398
1 1399
1 1400
1 1401
1 1402
1 1403
1 1404
1 1405
1 1406
1 1407
1 1408
1 1409
1 1410
1 1411
1 1412
1 1413
1 1414
1 1415
1 1416
1 1417
1 1418
1 1419
1 1420
1 1421
1 1422
1 1423
1 1424
1 1425
1 1426
1 1427
1 1428
1 1429
1 1430
1 1431
1 1432
1 1433
1 1434
1 1435
1 1436
1 1437
1 1438
1 1439
1 1440
1 1441
1 1442
1 1443
1 1444
1 1445
1 1446
1 1447
1 1448
1 1449
1 1450
1 1451
1 1452
1 1453
1 1454
1 1455
1 1456
1 1457
1 1458
1 1459
1 1460
1 1461
1 1462
1 1463
1 1464
1 1465
1 1466
1 1467
1 1468
1 1469
1 1470
1 1471
1 1472
1 1473
1 1474
1 1475
1 1476
1 1477
1 1478
1 1479
1 1480
1 1481
1 1482
1 1483
1 1484
1 1485
1 1486
1 1487
1 1488
1 1489
1 1490
1 1491
1 1492
1 1493
1 1494
1 1495
1 1496
1 1497
1 1498
1 1499
1 1500
1 1501
1 1502
1 1503
1 1504
1 1505
1 1506
1 1507
1 1508
1 1509
1 1510
1 1511
1 1512
1 1513
1 1514
1 1515
1 1516
1 1517
1 1518
1 1519
1 1520
1 1521
1 1522
1 1523
1 1524
1 1525
1 1526
1 1527
1 1528
1 1529
1 1530
1 1531
1 1532
1 1533
1 1534
1 1535
1 1536
1 1537
1 1538
1 1539
1 1540
1 1541
1 1542
1 1543
1 1544
1 1545
1 1546
1 1547
1 1548
1 1549
1 1550
1 1551
1 1552
1 1553
1 1554
1 1555
1 1556
1 1557
1 1558
1 1559
1 1560
1 1561
1 1562
1 1563
1 1564
1 1565
1 1566
1 1567
1 1568
1 1569
1 1570
1 1571
1 1572
1 1573
1 1574
1 1575
1 1576
1 1577
1 1578
1 1579
1 1580
1 1581
1 1582
1 1583
1 1584
1 1585
1 1586
1 1587
1 1588
1 1589
1 1590
1 1591
1 1592
1 1593
1 1594
1 1595
1 1596
1 1597
1 1598
1 1599
1 1600
1 1601
1 1602
1 1603
1 1604
1 1605
1 1606
1 1607
1 1608
1 1609
1 1610
1 1611
1 1612
1 1613
1 1614
1 1615
1 1616
1 1617
1 1618
1 1619
1 1620
1 1621
1 1622
1 1623
1 1624
1 1625
1 1626
1 1627
1 1628
1 1629
1 1630
1 1631
1 1632
1 1633
1 1634
1 1635
1 1636
1 1637
1 1638
1 1639
1 1640
1 1641
1 1642
1 1643
1 1644
1 1645
1 1646
1 1647
1 1648
1 1649
1 1650
1 1651
1 1652
1 1653
1 1654
1 1655
1 1656
1 1657
1 1658
1 1659
1 1660
1 1661
1 1662
1 1663
1 1664
1 1665
1 1666
1 1667
1 1668
1 1669
1 1670
1 1671
1 1672
1 1673
1 1674
1 1675
1 1676
1 1677
1 1678
1 1679
1 1680
1 1681
1 1682
1 1683
1 1684
1 1685
1 1686
1 1687
1 1688
1 1689
1 1690
1 1691
1 1692
1 1693
1 1694
1 1695
1 1696
1 1697
1 1698
1 1699
1 1700
1 1701
1 1702
1 1703
1 1704
1 1705
1 1706
1 1707
1 1708
1 1709
1 1710
1 1711
1 1712
1 1713
1 1714
1 1715
1 1716
1 1717
1 1718
1 1719
1 1720
1 1721
1 1722
1 1723
1 1724
1 1725
1 1726
1 1727
1 1728
1 1729
1 1730
1 1731
1 1732
1 1733
1 1734
1 1735
1 1736
1 1737
1 1738
1 1739
1 1740
1 1741
1 1742
1 1743
1 1744
1 1745
1 1746
1 1747
1 1748
1 1749
1 1750
1 1751
1 1752
1 1753
1 1754
1 1755
1 1756
1 1757
1 1758
1 1759
1 1760
1 1761
1 1762
1 1763
1 1764
1 1765
1 1766
1 1767
1 1768
1 1769
1 1770
1 1771
1 1772
1 1773
1 1774
1 1775
1 1776
1 1777
1 1778
1 1779
1 1780
1 1781
1 1782
1 1783
1 1784
1 1785
1 1786
1 1787
1 1788
1 1789
1 1790
1 1791
1 1792
1 1793
1 1794
1 1795
1 1796
1 1797
1 1798
1 1799
1 1800
1 1801
1 1802
1 1803
1 1804
1 1805
1 1806
1 1807
1 1808
1 1809
1 1810
1 1811
1 1812
1 1813
1 1814
1 1815
1 1816
1 1817
1 1818
1 1819
1 1820
1 1821
1 1822
1 1823
1 1824
1 1825
1 1826
1 1827
1 1828
1 1829
1 1830
1 1831
1 1832
1 1833
1 1834
1 1835
1 1836
1 1837
1 1838
1 1839
1 1840
1 1841
1 1842
1 1843
1 1844
1 1845
1 1846
1 1847
1 1848
1 1849
1 1850
1 1851
1 1852
1 1853
1 1854
1 1855
1 1856
1 1857
1 1858
1 1859
1 1860
1 1861
1 1862
1 1863
1 1864
1 1865
1 1866
1 1867
1 1868
1 1869
1 1870
1 1871
1 1872
1 1873
1 1874
1 1875
1 1876
1 1877
1 1878
1 1879
1 1880
1 1881
1 1882
1 1883
1 1884
1 1885
1 1886
1 1887
1 1888
1 1889
1 1890
1 1891
1 1892
1 1893
1 1894
1 1895
1 1896
1 1897
1 1898
1 1899
1 1900
1 1901
1 1902
1 1903
1 1904
1 1905
1 1906
1 1907
1 1908
1 1909
1 1910
1 1911
1 1912
1 1913
1 1914
1 1915
1 1916
1 1917
1 1918
1 1919
1 1920
1 1921
1 1922
1 1923
1 1924
1 1925
1 1926
1 1927
1 1928
1 1929
1 1930
1 1931
1 1932
1 1933
1 1934
1 1935
1 1936
1 1937
1 1938
1 1939
1 1940
1 1941
1 1942
1 1943
1 1944
1 1945
1 1946
1 1947
1 1948
1 1949
1 1950
1 1951
1 1952
1 1953
1 1954
1 1955
1 1956
1 1957
1 1958
1 1959
1 1960
1 1961
1 1962
1 1963
1 1964
1 1965
1 1966
1 1967
1 1968
1 1969
1 1970
1 1971
1 1972
1 1973
1 1974
1 1975
1 1976
1 1977
1 1978
1 1979
1 1980
1 1981
1 1982
1 1983
1 1984
1 1985
1 1986
1 1987
1 1988
1 1989
1 1990
1 1991
1 1992
1 1993
1 1994
1 1995
1 1996
1 1997
1 1998
1 1999
1 2000
1 2001
1 2002
1 2003
1 2004
1 2005
1 2006
1 2007
1 2008
1 2009
1 2010
1 2011
1 2012
1 2013
1 2014
1 2015
1 2016
1 2017
1 2018
1 2019
1 2020
1 2021
1 2022
1 2023
1 2024
1 2025
1 2026
1 2027
1 2028
1 2029
1 2030
1 2031
1 2032
1 2033
1 2034
1 2035
1 2036
1 2037
1 2038
1 2039
1 2040
1 2041
1 2042
1 2043
1 2044
1 2045
1 2046
1 2047
1 2048
1 2049
1 2050
1 2051
1 2052
1 2053
1 2054
1 2055
1 2056
1 2057
1 2058
1 2059
1 2060
1 2061
1 2062
1 2063
1 2064
1 2065
1 2066
1 2067
1 2068
1 2069
1 2070
1 2071
1 2072
1 2073
1 2074
1 2075
1 2076
1 2077
1 2078
1 2079
1 2080
1 2081
1 2082
1 2083
1 2084
1 2085
1 2086
1 2087
1 2088
1 2089
1 2090
1 2091
1 2092
1 2093
1 2094
1 2095
1 2096
1 2097
1 2098
1 2099
1 2100
1 2101
1 2102
1 2103
1 2104
1 2105
1 2106
1 2107
1 2108
1 2109
1 2110
1 2111
1 2112
1 2113
1 2114
1 2115
1 2116
1 2117
1 2118
1 2119
1 2120
1 2121
1 2122
1 2123
1 2124
1 2125
1 2126
1 2127
1 2128
1 2129
1 2130
1 2131
1 2132
1 2133
1 2134
1 2135
1 2136
1 2137
1 2138
1 2139
1 2140
1 2141
1 2142
1 2143
1 2144
1 2145
1 2146
1 2147
1 2148
1 2149
1 2150
1 2151
1 2152
1 2153
1 2154
1 2155
1 2156
1 2157
1 2158
1 2159
1 2160
1 2161
1 2162
1 2163
1 2164
1 2165
1 2166
1 2167
1 2168
1 2169
1 2170
1 2171
1 2172
1 2173
1 2174
1 2175
1 2176
1 2177
1 2178
1 2179
1 2180
1 2181
1 2182
1 2183
1 2184
1 2185
1 2186
1 2187
1 2188
1 2189
1 2190
1 2191
1 2192
1 2193
1 2194
1 2195
1 2196
1 2197
1 2198
1 2199
1 2200
1 2201
1 2202
1 2203
1 2204
1 2205
1 2206
1 2207
1 2208
1 2209
1 2210
1 2211
1 2212
1 2213
1 2214
1 2215
1 2216
1 2217
1 2218
1 2219
1 2220
1 2221
1 2222
1 2223
1 2224
1 2225
1 2226
1 2227
1 2228
1 2229
1 2230
1 2231
1 2232
1 2233
1 2234
1 2235
1 2236
1 2237
1 2238
1 2239
1 2240
1 2241
1 2242
1 2243
1 2244
1 2245
1 2246
1 2247
1 2248
1 2249
1 2250
1 2251
1 2252
1 2253
1 2254
1 2255
1 2256
1 2257
1 2258
1 2259
1 2260
1 2261
1 2262
1 2263
1 2264
1 2265
1 2266
1 2267
1 2268
1 2269
1 2270
1 2271
1 2272
1 2273
1 2274
1 2275
1 2276
1 2277
1 2278
1 2279
1 2280
1 2281
1 2282
1 2283
1 2284
1 2285
1 2286
1 2287
1 2288
1 2289
1 2290
1 2291
1 2292
1 2293
1 2294
1 2295
1 2296
1 2297
1 2298
1 2299
1 2300
1 2301
1 2302
1 2303
1 2304
1 2305
1 2306
1 2307
1 2308
1 2309
1 2310
1 2311
1 2312
1 2313
1 2314
1 2315
1 2316
1 2317
1 2318
1 2319
1 2320
1 2321
1 2322
1 2323
1 2324
1 2325
1 2326
1 2327
1 2328
1 2329
1 2330
1 2331
1 2332
1 2333
1 2334
1 2335
1 2336
1 2337
1 2338
1 2339
1 2340
1 2341
1 2342
1 2343
1 2344
1 2345
1 2346
1 2347
1 2348
1 2349
1 2350
1 2351
1 2352
1 2353
1 2354
1 2355
1 2356
1 2357
1 2358
1 2359
1 2360
1 2361
1 2362
1 2363
1 2364
1 2365
1 2366
1 2367
1 2368
1 2369
1 2370
1 2371
1 2372
1 2373
1 2374
1 2375
1 2376
1 2377
1 2378
1 2379
1 2380
1 2381
1 2382
1 2383
1 2384
1 2385
1 2386
1 2387
1 2388
1 2389
1 2390
1 2391
1 2392
1 2393
1 2394
1 2395
1 2396
1 2397
1 2398
1 2399
1 2400
1 2401
1 2402
1 2403
1 2404
1 2405
1 2406
1 2407
1 2408
1 2409
1 2410
1 2411
1 2412
1 2413
1 2414
1 2415
1 2416
1 2417
1 2418
1 2419
1 2420
1 2421
1 2422
1 2423
1 2424
1 2425
1 2426
1 2427
1 2428
1 2429
1 2430
1 2431
1 2432
1 2433
1 2434
1 2435
1 2436
1 2437
1 2438
1 2439
1 2440
1 2441
1 2442
1 2443
1 2444
1 2445
1 2446
1 2447
1 2448
1 2449
1 2450
1 2451
1 2452
1 2453
1 2454
1 2455
1 2456
1 2457
1 2458
1 2459
1 2460
1 2461
1 2462
1 2463
1 2464
1 2465
1 2466
1 2467
1 2468
1 2469
1 2470
1 2471
1 2472
1 2473
1 2474
1 2475
1 2476
1 2477
1 2478
1 2479
1 2480
1 2481
1 2482
1 2483
1 2484
1 2485
1 2486
1 2487
1 2488
1 2489
1 2490
1 2491
1 2492
1 2493
1 2494
1 2495
1 2496
1 2497
1 2498
1 2499
1 2500
1 2501
1 2502
1 2503
1 2504
1 2505
1 2506
1 2507
1 2508
1 2509
1 2510
1 2511
1 2512
1 2513
1 2514
1 2515
1 2516
1 2517
1 2518
1 2519
1 2520
1 2521
1 2522
1 2523
1 2524
1 2525
1 2526
1 2527
1 2528
1 2529
1 2530
1 2531
1 2532
1 2533
1 2534
1 2535
1 2536
1 2537
1 2538
1 2539
1 2540
1 2541
1 2542
1 2543
1 2544
1 2545
1 2546
1 2547
1 2548
1 2549
1 2550
1 2551
1 2552
1 2553
1 2554
1 2555
1 2556
1 2557
1 2558
1 2559
1 2560
1 2561
1 2562
1 2563
1 2564
1 2565
1 2566
1 2567
1 2568
1 2569
1 2570
1 2571
1 2572
1 2573
1 2574
1 2575
1 2576
1 2577
1 2578
1 2579
1 2580
1 2581
1 2582
1 2583
1 2584
1 2585
1 2586
1 2587
1 2588
1 2589
1 2590
1 2591
1 2592
1 2593
1 2594
1 2595
1 2596
1 2597
1 2598
1 2599
1 2600
1 2601
1 2602
1 2603
1 2604
1 2605
1 2606
1 2607
1 2608
1 2609
1 2610
1 2611
1 2612
1 2613
1 2614
1 2615
1 2616
1 2617
1 2618
1 2619
1 2620
1 2621
1 2622
1 2623
1 2624
1 2625
1 2626
1 2627
1 2628
1 2629
1 2630
1 2631
1 2632
1 2633
1 2634
1 2635
1 2636
1 2637
1 2638
1 2639
1 2640
1 2641
1 2642
1 2643
1 2644
1 2645
1 2646
1 2647
1 2648
1 2649
1 2650
1 2651
1 2652
1 2653
1 2654
1 2655
1 2656
1 2657
1 2658
1 2659
1 2660
1 2661
1 2662
1 2663
1 2664
1 2665
1 2666
1 2667
1 2668
1 2669
1 2670
1 2671
1 2672
1 2673
1 2674
1 2675
1 2676
1 2677
1 2678
1 2679
1 2680
1 2681
1 2682
1 2683
1 2684
1 2685
1 2686
1 2687
1 2688
1 2689
1 2690
1 2691
1 2692
1 2693
1 2694
1 2695
1 2696
1 2697
1 2698
1 2699
1 2700
1 2701
1 2702
1 2703
1 2704
1 2705
1 2706
1 2707
1 2708
1 2709
1 2710
1 2711
1 2712
1 2713
1 2714
1 2715
1 2716
1 2717
1 2718
1 2719
1 2720
1 2721
1 2722
1 2723
1 2724
1 2725
1 2726
1 2727
1 2728
1 2729
1 2730
1 2731
1 2732
1 2733
1 2734
1 2735
1 2736
1 2737
1 2738
1 2739
1 2740
1 2741
1 2742
1 2743
1 2744
1 2745
1 2746
1 2747
1 2748
1 2749
1 2750
1 2751
1 2752
1 2753
1 2754
1 2755
1 2756
1 2757
1 2758
1 2759
1 2760
1 2761
1 2762
1 2763
1 2764
1 2765
1 2766
1 2767
1 2768
1 2769
1 2770
1 2771
1 2772
1 2773
1 2774
1 2775
1 2776
1 2777
1 2778
1 2779
1 2780
1 2781
1 2782
1 2783
1 2784
1 2785
1 2786
1 2787
1 2788
1 2789
1 2790
1 2791
1 2792
1 2793
1 2794
1 2795
1 2796
1 2797
1 2798
1 2799
1 2800
1 2801
1 2802
1 2803
1 2804
1 2805
1 2806
1 2807
1 2808
1 2809
1 2810
1 2811
1 2812
1 2813
1 2814
1 2815
1 2816
1 2817
1 2818
1 2819
1 2820
1 2821
1 2822
1 2823
1 2824
1 2825
1 2826
1 2827
1 2828
1 2829
1 2830
1 2831
1 2832
1 2833
1 2834
1 2835
1 2836
1 2837
1 2838
1 2839
1 2840
1 2841
1 2842
1 2843
1 2844
1 2845
1 2846
1 2847
1 2848
1 2849
1 2850
1 2851
1 2852
1 2853
1 2854
1 2855
1 2856
1 2857
1 2858
1 2859
1 2860
1 2861
1 2862
1 2863
1 2864
1 2865
1 2866
1 2867
1 2868
1 2869
1 2870
1 2871
1 2872
1 2873
1 2874
1 2875
1 2876
1 2877
1 2878
1 2879
1 2880
1 2881
1 2882
1 2883
1 2884
1 2885
1 2886
1 2887
1 2888
1 2889
1 2890
1 2891
1 2892
1 2893
1 2894
1 2895
1 2896
1 2897
1 2898
1 2899
1 2900
1 2901
1 2902
1 2903
1 2904
1 2905
1 2906
1 2907
1 2908
1 2909
1 2910
1 2911
1 2912
1 2913
1 2914
1 2915
1 2916
1 2917
1 2918
1 2919
1 2920
1 2921
1 2922
1 2923
1 2924
1 2925
1 2926
1 2927
1 2928
1 2929
1 2930
1 2931
1 2932
1 2933
1 2934
1 2935
1 2936
1 2937
1 2938
1 2939
1 2940
1 2941
1 2942
1 2943
1 2944
1 2945
1 2946
1 2947
1 2948
1 2949
1 2950
1 2951
1 2952
1 2953
1 2954
1 2955
1 2956
1 2957
1 2958
1 2959
1 2960
1 2961
1 2962
1 2963
1 2964
1 2965
1 2966
1 2967
1 2968
1 2969
1 2970
1 2971
1 2972
1 2973
1 2974
1 2975
1 2976
1 2977
1 2978
1 2979
1 2980
1 2981
1 2982
1 2983
1 2984
1 2985
1 2986
1 2987
1 2988
1 2989
1 2990
1 2991
1 2992
1 2993
1 2994
1 2995
1 2996
1 2997
1 2998
1 2999
1 3000
1 3001
1 3002
1 3003
1 3004
1 3005
1 3006
1 3007
1 3008
1 3009
1 3010
1 3011
1 3012
1 3013
1 3014
1 3015
1 3016
1 3017
1 3018
1 3019
1 3020
1 3021
1 3022
1 3023
1 3024
1 3025
1 3026
1 3027
1 3028
1 3029
1 3030
1 3031
1 3032
1 3033
1 3034
1 3035
1 3036
1 3037
1 3038
1 3039
1 3040
1 3041
1 3042
1 3043
1 3044
1 3045
1 3046
1 3047
1 3048
1 3049
1 3050
1 3051
1 3052
1 3053
1 3054
1 3055
1 3056
1 3057
1 3058
1 3059
1 3060
1 3061
1 3062
1 3063
1 3064
1 3065
1 3066
1 3067
1 3068
1 3069
1 3070
1 3071
1 3072
1 3073
1 3074
1 3075
1 3076
1 3077
1 3078
1 3079
1 3080
1 3081
1 3082
1 3083
1 3084
1 3085
1 3086
1 3087
1 3088
1 3089
1 3090
1 3091
1 3092
1 3093
1 3094
1 3095
1 3096
1 3097
1 3098
1 3099
1 3100
1 3101
1 3102
1 3103
1 3104
1 3105
1 3106
1 3107
1 3108
1 3109
1 3110
1 3111
1 3112
1 3113
1 3114
1 3115
1 3116
1 3117
1 3118
1 3119
1 3120
1 3121
1 3122
1 3123
1 3124
1 3125
1 3126
1 3127
1 3128
1 3129
1 3130
1 3131
1 3132
1 3133
1 3134
1 3135
1 3136
1 3137
1 3138
1 3139
1 3140
1 3141
1 3142
1 3143
1 3144
1 3145
1 3146
1 3147
1 3148
1 3149
1 3150
1 3151
1 3152
1 3153
1 3154
1 3155
1 3156
1 3157
1 3158
1 3159
1 3160
1 3161
1 3162
1 3163
1 3164
1 3165
1 3166
1 3167
1 3168
1 3169
1 3170
1 3171
1 3172
1 3173
1 3174
1 3175
1 3176
1 3177
1 3178
1 3179
1 3180
1 3181
1 3182
1 3183
1 3184
1 3185
1 3186
1 3187
1 3188
1 3189
1 3190
1 3191
1 3192
1 3193
1 3194
1 3195
1 3196
1 3197
1 3198
1 3199
1 3200
1 3201
1 3202
1 3203
1 3204
1 3205
1 3206
1 3207
1 3208
1 3209
1 3210
1 3211
1 3212
1 3213
1 3214
1 3215
1 3216
1 3217
1 3218
1 3219
1 3220
1 3221
1 3222
1 3223
1 3224
1 3225
1 3226
1 3227
1 3228
1 3229
1 3230
1 3231
1 3232
1 3233
1 3234
1 3235
1 3236
1 3237
1 3238
1 3239
1 3240
1 3241
1 3242
1 3243
1 3244
1 3245
1 3246
1 3247
1 3248
1 3249
1 3250
1 3251
1 3252
1 3253
1 3254
1 3255
1 3256
1 3257
1 3258
1 3259
1 3260
1 3261
1 3262
1 3263
1 3264
1 3265
1 3266
1 3267
1 3268
1 3269
1 3270
1 3271
1 3272
1 3273
1 3274
1 3275
1 3276
1 3277
1 3278
1 3279
1 3280
1 3281
1 3282
1 3283
1 3284
1 3285
1 3286
1 3287
1 3288
1 3289
1 3290
1 3291
1 3292
1 3293
1 3294
1 3295
1 3296
1 3297
1 3298
1 3299
1 3300
1 3301
1 3302
1 3303
1 3304
1 3305
1 3306
1 3307
1 3308
1 3309
1 3310
1 3311
1 3312
1 3313
1 3314
1 3315
1 3316
1 3317
1 3318
1 3319
1 3320
1 3321
1 3322
1 3323
1 3324
1 3325
1 3326
1 3327
1 3328
1 3329
1 3330
1 3331
1 3332
1 3333
1 3334
1 3335
1 3336
1 3337
1 3338
1 3339
1 3340
1 3341
1 3342
1 3343
1 3344
1 3345
1 3346
1 3347
1 3348
1 3349
1 3350
1 3351
1 3352
1 3353
1 3354
1 3355
1 3356
1 3357
1 3358
1 3359
1 3360
1 3361
1 3362
1 3363
1 3364
1 3365
1 3366
1 3367
1 3368
1 3369
1 3370
1 3371
1 3372
1 3373
1 3374
1 3375
1 3376
1 3377
1 3378
1 3379
1 3380
1 3381
1 3382
1 3383
1 3384
1 3385
1 3386
1 3387
1 3388
1 3389
1 3390
1 3391
1 3392
1 3393
1 3394
1 3395
1 3396
1 3397
1 3398
1 3399
1 3400
1 3401
1 3402
1 3403
1 3404
1 3405
1 3406
1 3407
1 3408
1 3409
1 3410
1 3411
1 3412
1 3413
1 3414
1 3415
1 3416
1 3417
1 3418
1 3419
1 3420
1 3421
1 3422
1 3423
1 3424
1 3425
1 3426
1 3427
1 3428
1 3429
1 3430
1 3431
1 3432
1 3433
1 3434
1 3435
1 3436
1 3437
1 3438
1 3439
1 3440
1 3441
1 3442
1 3443
1 3444
1 3445
1 3446
1 3447
1 3448
1 3449
1 3450
1 3451
1 3452
1 3453
1 3454
1 3455
1 3456
1 3457
1 3458
1 3459
1 3460
1 3461
1 3462
1 3463
1 3464
1 3465
1 3466
1 3467
1 3468
1 3469
1 3470
1 3471
1 3472
1 3473
1 3474
1 3475
1 3476
1 3477
1 3478
1 3479
1 3480
1 3481
1 3482
1 3483
1 3484
1 3485
1 3486
1 3487
1 3488
1 3489
1 3490
1 3491
1 3492
1 3493
1 3494
1 3495
1 3496
1 3497
1 3498
1 3499
1 3500
1 3501
1 3502
1 3503
1 3504
1 3505
1 3506
1 3507
1 3508
1 3509
1 3510
1 3511
1 3512
1 3513
1 3514
1 3515
1 3516
1 3517
1 3518
1 3519
1 3520
1 3521
1 3522
1 3523
1 3524
1 3525
1 3526
1 3527
1 3528
1 3529
1 3530
1 3531
1 3532
1 3533
1 3534
1 3535
1 3536
1 3537
1 3538
1 3539
1 3540
1 3541
1 3542
1 3543
1 3544
1 3545
1 3546
1 3547
1 3548
1 3549
1 3550
1 3551
1 3552
1 3553
1 3554
1 3555
1 3556
1 3557
1 3558
1 3559
1 3560
1 3561
1 3562
1 3563
1 3564
1 3565
1 3566
1 3567
1 3568
1 3569
1 3570
1 3571
1 3572
1 3573
1 3574
1 3575
1 3576
1 3577
1 3578
1 3579
1 3580
1 3581
1 3582
1 3583
1 3584
1 3585
1 3586
1 3587
1 3588
1 3589
1 3590
1 3591
1 3592
1 3593
1 3594
1 3595
1 3596
1 3597
1 3598
1 3599
1 3600
1 3601
1 3602
1 3603
1 3604
1 3605
1 3606
1 3607
1 3608
1 3609
1 3610
1 3611
1 3612
1 3613
1 3614
1 3615
1 3616
1 3617
1 3618
1 3619
1 3620
1 3621
1 3622
1 3623
1 3624
1 3625
1 3626
1 3627
1 3628
1 3629
1 3630
1 3631
1 3632
1 3633
1 3634
1 3635
1 3636
1 3637
1 3638
1 3639
1 3640
1 3641
1 3642
1 3643
1 3644
1 3645
1 3646
1 3647
1 3648
1 3649
1 3650
1 3651
1 3652
1 3653
1 3654
1 3655
1 3656
1 3657
1 3658
1 3659
1 3660
1 3661
1 3662
1 3663
1 3664
1 3665
1 3666
1 3667
1 3668
1 3669
1 3670
1 3671
1 3672
1 3673
1 3674
1 3675
1 3676
1 3677
1 3678
1 3679
1 3680
1 3681
1 3682
1 3683
1 3684
1 3685
1 3686
1 3687
1 3688
1 3689
1 3690
1 3691
1 3692
1 3693
1 3694
1 3695
1 3696
1 3697
1 3698
1 3699
1 3700
1 3701
1 3702
1 3703
1 3704
1 3705
1 3706
1 3707
1 3708
1 3709
1 3710
1 3711
1 3712
1 3713
1 3714
1 3715
1 3716
1 3717
1 3718
1 3719
1 3720
1 3721
1 3722
1 3723
1 3724
1 3725
1 3726
1 3727
1 3728
1 3729
1 3730
1 3731
1 3732
1 3733
1 3734
1 3735
1 3736
1 3737
1 3738
1 3739
1 3740
1 3741
1 3742
1 3743
1 3744
1 3745
1 3746
1 3747
1 3748
1 3749
1 3750
1 3751
1 3752
1 3753
1 3754
1 3755
1 3756
1 3757
1 3758
1 3759
1 3760
1 3761
1 3762
1 3763
1 3764
1 3765
1 3766
1 3767
1 3768
1 3769
1 3770
1 3771
1 3772
1 3773
1 3774
1 3775
1 3776
1 3777
1 3778
1 3779
1 3780
1 3781
1 3782
1 3783
1 3784
1 3785
1 3786
1 3787
1 3788
1 3789
1 3790
1 3791
1 3792
1 3793
1 3794
1 3795
1 3796
1 3797
1 3798
1 3799
1 3800
1 3801
1 3802
1 3803
1 3804
1 3805
1 3806
1 3807
1 3808
1 3809
1 3810
1 3811
1 3812
1 3813
1 3814
1 3815
1 3816
1 3817
1 3818
1 3819
1 3820
1 3821
1 3822
1 3823
1 3824
1 3825
1 3826
1 3827
1 3828
1 3829
1 3830
1 3831
1 3832
1 3833
1 3834
1 3835
1 3836
1 3837
1 3838
1 3839
1 3840
1 3841
1 3842
1 3843
1 3844
1 3845
1 3846
1 3847
1 3848
1 3849
1 3850
1 3851
1 3852
1 3853
1 3854
1 3855
1 3856
1 3857
1 3858
1 3859
1 3860
1 3861
1 3862
1 3863
1 3864
1 3865
1 3866
1 3867
1 3868
1 3869
1 3870
1 3871
1 3872
1 3873
1 3874
1 3875
1 3876
1 3877
1 3878
1 3879
1 3880
1 3881
1 3882
1 3883
1 3884
1 3885
1 3886
1 3887
1 3888
1 3889
1 3890
1 3891
1 3892
1 3893
1 3894
1 3895
1 3896
1 3897
1 3898
1 3899
1 3900
1 3901
1 3902
1 3903
1 3904
1 3905
1 3906
1 3907
1 3908
1 3909
1 3910
1 3911
1 3912
1 3913
1 3914
1 3915
1 3916
1 3917
1 3918
1 3919
1 3920
1 3921
1 3922
1 3923
1 3924
1 3925
1 3926
1 3927
1 3928
1 3929
1 3930
1 3931
1 3932
1 3933
1 3934
1 3935
1 3936
1 3937
1 3938
1 3939
1 3940
1 3941
1 3942
1 3943
1 3944
1 3945
1 3946
1 3947
1 3948
1 3949
1 3950
1 3951
1 3952
1 3953
1 3954
1 3955
1 3956
1 3957
1 3958
1 3959
1 3960
1 3961
1 3962
1 3963
1 3964
1 3965
1 3966
1 3967
1 3968
1 3969
1 3970
1 3971
1 3972
1 3973
1 3974
1 3975
1 3976
1 3977
1 3978
1 3979
1 3980
1 3981
1 3982
1 3983
1 3984
1 3985
1 3986
1 3987
1 3988
1 3989
1 3990
1 3991
1 3992
1 3993
1 3994
1 3995
1 3996
1 3997
1 3998
1 3999
1 4000
1 4001
1 4002
1 4003
1 4004
1 4005
1 4006
1 4007
1 4008
1 4009
1 4010
1 4011
1 4012
1 4013
1 4014
1 4015
1 4016
1 4017
1 4018
1 4019
1 4020
1 4021
1 4022
1 4023
1 4024
1 4025
1 4026
1 4027
1 4028
1 4029
1 4030
1 4031
1 4032
1 4033
1 4034
1 4035
1 4036
1 4037
1 4038
1 4039
1 4040
1 4041
1 4042
1 4043
1 4044
1 4045
1 4046
1 4047
1 4048
1 4049
1 4050
1 4051
1 4052
1 4053
1 4054
1 4055
1 4056
1 4057
1 4058
1 4059
1 4060
1 4061
1 4062
1 4063
1 4064
1 4065
1 4066
1 4067
1 4068
1 4069
1 4070
1 4071
1 4072
1 4073
1 4074
1 4075
1 4076
1 4077
1 4078
1 4079
1 4080
1 4081
1 4082
1 4083
1 4084
1 4085
1 4086
1 4087
1 4088
1 4089
1 4090
1 4091
1 4092
1 4093
1 4094
1 4095
1 4096
1 4097
1 4098
1 4099
1 4100
1 4101
1 4102
1 4103
1 4104
1 4105
1 4106
1 4107
1 4108
1 4109
1 4110
1 4111
1 4112
1 4113
1 4114
1 4115
1 4116
1 4117
1 4118
1 4119
1 4120
1 4121
1 4122
1 4123
1 4124
1 4125
1 4126
1 4127
1 4128
1 4129
1 4130
1 4131
1 4132
1 4133
1 4134
1 4135
1 4136
1 4137
1 4138
1 4139
1 4140
1 4141
1 4142
1 4143
1 4144
1 4145
1 4146
1 4147
1 4148
1 4149
1 4150
1 4151
1 4152
1 4153
1 4154
1 4155
1 4156
1 4157
1 4158
1 4159
1 4160
1 4161
1 4162
1 4163
1 4164
1 4165
1 4166
1 4167
1 4168
1 4169
1 4170
1 4171
1 4172
1 4173
1 4174
1 4175
1 4176
1 4177
1 4178
1 4179
1 4180
1 4181
1 4182
1 4183
1 4184
1 4185
1 4186
1 4187
1 4188
1 4189
1 4190
1 4191
1 4192
1 4193
1 4194
1 4195
1 4196
1 4197
1 4198
1 4199
1 4200
1 4201
1 4202
1 4203
1 4204
1 4205
1 4206
1 4207
1 4208
1 4209
1 4210
1 4211
1 4212
1 4213
1 4214
1 4215
1 4216
1 4217
1 4218
1 4219
1 4220
1 4221
1 4222
1 4223
1 4224
1 4225
1 4226
1 4227
1 4228
1 4229
1 4230
1 4231
1 4232
1 4233
1 4234
1 4235
1 4236
1 4237
1 4238
1 4239
1 4240
1 4241
1 4242
1 4243
1 4244
1 4245
1 4246
1 4247
1 4248
1 4249
1 4250
1 4251
1 4252
1 4253
1 4254
1 4255
1 4256
1 4257
1 4258
1 4259
1 4260
1 4261
1 4262
1 4263
1 4264
1 4265
1 4266
1 4267
1 4268
1 4269
1 4270
1 4271
1 4272
1 4273
1 4274
1 4275
1 4276
1 4277
1 4278
1 4279
1 4280
1 4281
1 4282
1 4283
1 4284
1 4285
1 4286
1 4287
1 4288
1 4289
1 4290
1 4291
1 4292
1 4293
1 4294
1 4295
1 4296
1 4297
1 4298
1 4299
1 4300
1 4301
1 4302
1 4303
1 4304
1 4305
1 4306
1 4307
1 4308
1 4309
1 4310
1 4311
1 4312
1 4313
1 4314
1 4315
1 4316
1 4317
1 4318
1 4319
1 4320
1 4321
1 4322
1 4323
1 4324
1 4325
1 4326
1 4327
1 4328
1 4329
1 4330
1 4331
1 4332
1 4333
1 4334
1 4335
1 4336
1 4337
1 4338
1 4339
1 4340
1 4341
1 4342
1 4343
1 4344
1 4345
1 4346
1 4347
1 4348
1 4349
1 4350
1 4351
1 4352
1 4353
1 4354
1 4355
1 4356
1 4357
1 4358
1 4359
1 4360
1 4361
1 4362
1 4363
1 4364
1 4365
1 4366
1 4367
1 4368
1 4369
1 4370
1 4371
1 4372
1 4373
1 4374
1 4375
1 4376
1 4377
1 4378
1 4379
1 4380
1 4381
1 4382
1 4383
1 4384
1 4385
1 4386
1 4387
1 4388
1 4389
1 4390
1 4391
1 4392
1 4393
1 4394
1 4395
1 4396
1 4397
1 4398
1 4399
1 4400
1 4401
1 4402
1 4403
1 4404
1 4405
1 4406
1 4407
1 4408
1 4409
1 4410
1 4411
1 4412
1 4413
1 4414
1 4415
1 4416
1 4417
1 4418
1 4419
1 4420
1 4421
1 4422
1 4423
1 4424
1 4425
1 4426
1 4427
1 4428
1 4429
1 4430
1 4431
1 4432
1 4433
1 4434
1 4435
1 4436
1 4437
1 4438
1 4439
1 4440
1 4441
1 4442
1 4443
1 4444
1 4445
1 4446
1 4447
1 4448
1 4449
1 4450
1 4451
1 4452
1 4453
1 4454
1 4455
1 4456
1 4457
1 4458
1 4459
1 4460
1 4461
1 4462
1 4463
1 4464
1 4465
1 4466
1 4467
1 4468
1 4469
1 4470
1 4471
1 4472
1 4473
1 4474
1 4475
1 4476
1 4477
1 4478
1 4479
1 4480
1 4481
1 4482
1 4483
1 4484
1 4485
1 4486
1 4487
1 4488
1 4489
1 4490
1 4491
1 4492
1 4493
1 4494
1 4495
1 4496
1 4497
1 4498
1 4499
1 4500
1 4501
1 4502
1 4503
1 4504
1 4505
1 4506
1 4507
1 4508
1 4509
1 4510
1 4511
1 4512
1 4513
1 4514
1 4515
1 4516
1 4517
1 4518
1 4519
1 4520
1 4521
1 4522
1 4523
1 4524
1 4525
1 4526
1 4527
1 4528
1 4529
1 4530
1 4531
1 4532
1 4533
1 4534
1 4535
1 4536
1 4537
1 4538
1 4539
1 4540
1 4541
1 4542
1 4543
1 4544
1 4545
1 4546
1 4547
1 4548
1 4549
1 4550
1 4551
1 4552
1 4553
1 4554
1 4555
1 4556
1 4557
1 4558
1 4559
1 4560
1 4561
1 4562
1 4563
1 4564
1 4565
1 4566
1 4567
1 4568
1 4569
1 4570
1 4571
1 4572
1 4573
1 4574
1 4575
1 4576
1 4577
1 4578
1 4579
1 4580
1 4581
1 4582
1 4583
1 4584
1 4585
1 4586
1 4587
1 4588
1 4589
1 4590
1 4591
1 4592
1 4593
1 4594
1 4595
1 4596
1 4597
1 4598
1 4599
1 4600
1 4601
1 4602
1 4603
1 4604
1 4605
1 4606
1 4607
1 4608
1 4609
1 4610
1 4611
1 4612
1 4613
1 4614
1 4615
1 4616
1 4617
1 4618
1 4619
1 4620
1 4621
1 4622
1 4623
1 4624
1 4625
1 4626
1 4627
1 4628
1 4629
1 4630
1 4631
1 4632
1 4633
1 4634
1 4635
1 4636
1 4637
1 4638
1 4639
1 4640
1 4641
1 4642
1 4643
1 4644
1 4645
1 4646
1 4647
1 4648
1 4649
1 4650
1 4651
1 4652
1 4653
1 4654
1 4655
1 4656
1 4657
1 4658
1 4659
1 4660
1 4661
1 4662
1 4663
1 4664
1 4665
1 4666
1 4667
1 4668
1 4669
1 4670
1 4671
1 4672
1 4673
1 4674
1 4675
1 4676
1 4677
1 4678
1 4679
1 4680
1 4681
1 4682
1 4683
1 4684
1 4685
1 4686
1 4687
1 4688
1 4689
1 4690
1 4691
1 4692
1 4693
1 4694
1 4695
1 4696
1 4697
1 4698
1 4699
1 4700
1 4701
1 4702
1 4703
1 4704
1 4705
1 4706
1 4707
1 4708
1 4709
1 4710
1 4711
1 4712
1 4713
1 4714
1 4715
1 4716
1 4717
1 4718
1 4719
1 4720
1 4721
1 4722
1 4723
1 4724
1 4725
1 4726
1 4727
1 4728
1 4729
1 4730
1 4731
1 4732
1 4733
1 4734
1 4735
1 4736
1 4737
1 4738
1 4739
1 4740
1 4741
1 4742
1 4743
1 4744
1 4745
1 4746
1 4747
1 4748
1 4749
1 4750
1 4751
1 4752
1 4753
1 4754
1 4755
1 4756
1 4757
1 4758
1 4759
1 4760
1 4761
1 4762
1 4763
1 4764
1 4765
1 4766
1 4767
1 4768
1 4769
1 4770
1 4771
1 4772
1 4773
1 4774
1 4775
1 4776
1 4777
1 4778
1 4779
1 4780
1 4781
1 4782
1 4783
1 4784
1 4785
1 4786
1 4787
1 4788
1 4789
1 4790
1 4791
1 4792
1 4793
1 4794
1 4795
1 4796
1 4797
1 4798
1 4799
1 4800
1 4801
1 4802
1 4803
1 4804
1 4805
1 4806
1 4807
1 4808
1 4809
1 4810
1 4811
1 4812
1 4813
1 4814
1 4815
1 4816
1 4817
1 4818
1 4819
1 4820
1 4821
1 4822
1 4823
1 4824
1 4825
1 4826
1 4827
1 4828
1 4829
1 4830
1 4831
1 4832
1 4833
1 4834
1 4835
1 4836
1 4837
1 4838
1 4839
1 4840
1 4841
1 4842
1 4843
1 4844
1 4845
1 4846
1 4847
1 4848
1 4849
1 4850
1 4851
1 4852
1 4853
1 4854
1 4855
1 4856
1 4857
1 4858
1 4859
1 4860
1 4861
1 4862
1 4863
1 4864
1 4865
1 4866
1 4867
1 4868
1 4869
1 4870
1 4871
1 4872
1 4873
1 4874
1 4875
1 4876
1 4877
1 4878
1 4879
1 4880
1 4881
1 4882
1 4883
1 4884
1 4885
1 4886
1 4887
1 4888
1 4889
1 4890
1 4891
1 4892
1 4893
1 4894
1 4895
1 4896
1 4897
1 4898
1 4899
1 4900
1 4901
1 4902
1 4903
1 4904
1 4905
1 4906
1 4907
1 4908
1 4909
1 4910
1 4911
1 4912
1 4913
1 4914
1 4915
1 4916
1 4917
1 4918
1 4919
1 4920
1 4921
1 4922
1 4923
1 4924
1 4925
1 4926
1 4927
1 4928
1 4929
1 4930
1 4931
1 4932
1 4933
1 4934
1 4935
1 4936
1 4937
1 4938
1 4939
1 4940
1 4941
1 4942
1 4943
1 4944
1 4945
1 4946
1 4947
1 4948
1 4949
1 4950
1 4951
1 4952
1 4953
1 4954
1 4955
1 4956
1 4957
1 4958
1 4959
1 4960
1 4961
1 4962
1 4963
1 4964
1 4965
1 4966
1 4967
1 4968
1 4969
1 4970
1 4971
1 4972
1 4973
1 4974
1 4975
1 4976
1 4977
1 4978
1 4979
1 4980
1 4981
1 4982
1 4983
1 4984
1 4985
1 4986
1 4987
1 4988
1 4989
1 4990
1 4991
1 4992
1 4993
1 4994
1 4995
1 4996
1 4997
1 4998
1 4999
CELL_TYPES 5000
1 
1 
1 
1 
1 
1 
1 
1 
1 
1 
1 
1 
1 
1 
1 
1 
1 
1 
1 
1 
1 
1 
1 
1 
1 
1 
1 
1 
1 
1 
1 
1 
1 
1 
1 
1 
1 
1 
1 
1 
1 
1 
1 
1 
1 
1 
1 
1 
1 
1 
1 
1 
1 
1 
1 
1 
1 
1 
1 
1 
1 
1 
1 
1 
1 
1 
1 
1 
1 
1 
1 
1 
1 
1 
1 
1 
1 
1 
1 
1 
1 
1 
1 
1 
1 
1 
1 
1 
1 
1 
1 
1 
1 
1 
1 
1 
1 
1 
1 
1 
1 
1 
1 
1 
1 
1 
1 
1 
1 
1 
1 
1 
1 
1 
1 
1 
1 
1 
1 
1 
1 
1 
1 
1 
1 
1 
1 
1 
1 
1 
1 
1 
1 
1 
1 
1 
1 
1 
1 
1 
1 
1 
1 
1 
1 
1 
1 
1 
1 
1 
1 
1 
1 
1 
1 
1 
1 
1 
1 
1 
1 
1 
1 
1 
1 
1 
1 
1 
1 
1 
1 
1 
1 
1 
1 
1 
1 
1 
1 
1 
1 
1 
1 
1 
1 
1 
1 
1 
1 
1 
1 
1 
1 
1 
1 
1 
1 
1 
1 
1 
1 
1 
1 
1 
1 
1 
1 
1 
1 
1 
1 
1 
1 
1 
1 
1 
1 
1 
1 
1 
1 
1 
1 
1 
1 
1 
1 
1 
1 
1 
1 
1 
1 
1 
1 
1 
1 
1 
1 
1 
1 
1 
1 
1 
1 
1 
1 
1 
1 
1 
1 
1 
1 
1 
1 
1 
1 
1 
1 
1 
1 
1 
1 
1 
1 
1 
1 
1 
1 
1 
1 
1 
1 
1 
1 
1 
1 
1 
1 
1 
1 
1 
1 
1 
1 
1 
1 
1 
1 
1 
1 
1 
1 
1 
1 
1 
1 
1 
1 
1 
1 
1 
1 
1 
1 
1 
1 
1 
1 
1 
1 
1 
1 
1 
1 
1 
1 
1 
1 
1 
1 
1 
1 
1 
1 
1 
1 
1 
1 
1 
1 
1 
1 
1 
1 
1 
1 
1 
1 
1 
1 
1 
1 
1 
1 
1 
1 
1 
1 
1 
1 
1 
1 
1 
1 
1 
1 
1 
1 
1 
1 
1 
1 
1 
1 
1 
1 
1 
1 
1 
1 
1 
1 
1 
1 
1 
1 
1 
1 
1 
1 
1 
1 
1 
1 
1 
1 
1 
1 
1 
1 
1 
1 
1 
1 
1 
1 
1 
1 
1 
1 
1 
1 
1 
1 
1 
1 
1 
1 
1 
1 
1 
1 
1 
1 
1 
1 
1 
1 
1 
1 
1 
1 
1 
1 
1 
1 
1 
1 
1 
1 
1 
1 
1 
1 
1 
1 
1 
1 
1 
1 
1 
1 
1 
1 
1 
1 
1 
1 
1 
1 
1 
1 
1 
1 
1 
1 
1 
1 
1 
1 
1 
1 
1 
1 
1 
1 
1 
1 
1 
1 
1 
1 
1 
1 
1 
1 
1 
1 
1 
1 
1 
1 
1 
1 
1 
1 
1 
1 
1 
1 
1 
1 
1 
1 
1 
1 
1 
1 
1 
1 
1 
1 
1 
1 
1 
1 
1 
1 
1 
1 
1 
1 
1 
1 
1 
1 
1 
1 
1 
1 
1 
1 
1 
1 
1 
1 
1 
1 
1 
1 
1 
1 
1 
1 
1 
1 
1 
1 
1 
1 
1 
1 
1 
1 
1 
1 
1 
1 
1 
1 
1 
1 
1 
1 
1 
1 
1 
1 
1 
1 
1 
1 
1 
1 
1 
1 
1 
1 
1 
1 
1 
1 
1 
1 
1 
1 
1 
1 
1 
1 
1 
1 
1 
1 
1 
1 
1 
1 
1 
1 
1 
1 
1 
1 
1 
1 
1 
1 
1 
1 
1 
1 
1 
1 
1 
1 
1 
1 
1 
1 
1 
1 
1 
1 
1 
1 
1 
1 
1 
1 
1 
1 
1 
1 
1 
1 
1 
1 
1 
1 
1 
1 
1 
1 
1 
1 
1 
1 
1 
1 
1 
1 
1 
1 
1 
1 
1 
1 
1 
1 
1 
1 
1 
1 
1 
1 
1 
1 
1 
1 
1 
1 
1 
1 
1 
1 
1 
1 
1 
1 
1 
1 
1 
1 
1 
1 
1 
1 
1 
1 
1 
1 
1 
1 
1 
1 
1 
1 
1 
1 
1 
1 
1 
1 
1 
1 
1 
1 
1 
1 
1 
1 
1 
1 
1 
1 
1 
1 
1 
1 
1 
1 
1 
1 
1 
1 
1 
1 
1 
1 
1 
1 
1 
1 
1 
1 
1 
1 
1 
1 
1 
1 
1 
1 
1 
1 
1 
1 
1 
1 
1 
1 
1 
1 
1 
1 
1 
1 
1 
1 
1 
1 
1 
1 
1 
1 
1 
1 
1 
1 
1 
1 
1 
1 
1 
1 
1 
1 
1 
1 
1 
1 
1 
1 
1 
1 
1 
1 
1 
1 
1 
1 
1 
1 
1 
1 
1 
1 
1 
1 
1 
1 
1 
1 
1 
1 
1 
1 
1 
1 
1 
1 
1 
1 
1 
1 
1 
1 
1 
1 
1 
1 
1 
1 
1 
1 
1 
1 
1 
1 
1 
1 
1 
1 
1 
1 
1 
1 
1 
1 
1 
1 
1 
1 
1 
1 
1 
1 
1 
1 
1 
1 
1 
1 
1 
1 
1 
1 
1 
1 
1 
1 
1 
1 
1 
1 
1 
1 
1 
1 
1 
1 
1 
1 
1 
1 
1 
1 
1 
1 
1 
1 
1 
1 
1 
1 
1 
1 
1 
1 
1 
1 
1 
1 
1 
1 
1 
1 
1 
1 
1 
1 
1 
1 
1 
1 
1 
1 
1 
1 
1 
1 
1 
1 
1 
1 
1 
1 
1 
1 
1 
1 
1 
1 
1 
1 
1 
1 
1 
1 
1 
1 
1 
1 
1 
1 
1 
1 
1 
1 
1 
1 
1 
1 
1 
1 
1 
1 
1 
1 
1 
1 
1 
1 
1 
1 
1 
1 
1 
1 
1 
1 
1 
1 
1 
1 
1 
1 
1 
1 
1 
1 
1 
1 
1 
1 
1 
1 
1 
1 
1 
1 
1 
1 
1 
1 
1 
1 
1 
1 
1 
1 
1 
1 
1 
1 
1 
1 
1 
1 
1 
1 
1 
1 
1 
1 
1 
1 
1 
1 
1 
1 
1 
1 
1 
1 
1 
1 
1 
1 
1 
1 
1 
1 
1 
1 
1 
1 
1 
1 
1 
1 
1 
1 
1 
1 
1 
1 
1 
1 
1 
1 
1 
1 
1 
1 
1 
1 
1 
1 
1 
1 
1 
1 
1 
1 
1 
1 
1 
1 
1 
1 
1 
1 
1 
1 
1 
1 
1 
1 
1 
1 
1 
1 
1 
1 
1 
1 
1 
1 
1 
1 
1 
1 
1 
1 
1 
1 
1 
1 
1 
1 
1 
1 
1 
1 
1 
1 
1 
1 
1 
1 
1 
1 
1 
1 
1 
1 
1 
1 
1 
1 
1 
1 
1 
1 
1 
1 
1 
1 
1 
1 
1 
1 
1 
1 
1 
1 
1 
1 
1 
1 
1 
1 
1 
1 
1 
1 
1 
1 
1 
1 
1 
1 
1 
1 
1 
1 
1 
1 
1 
1 
1 
1 
1 
1 
1 
1 
1 
1 
1 
1 
1 
1 
1 
1 
1 
1 
1 
1 
1 
1 
1 
1 
1 
1 
1 
1 
1 
1 
1 
1 
1 
1 
1 
1 
1 
1 
1 
1 
1 
1 
1 
1 
1 
1 
1 
1 
1 
1 
1 
1 
1 
1 
1 
1 
1 
1 
1 
1 
1 
1 
1 
1 
1 
1 
1 
1 
1 
1 
1 
1 
1 
1 
1 
1 
1 
1 
1 
1 
1 
1 
1 
1 
1 
1 
1 
1 
1 
1 
1 
1 
1 
1 
1 
1 
1 
1 
1 
1 
1 
1 
1 
1 
1 
1 
1 
1 
1 
1 
1 
1 
1 
1 
1 
1 
1 
1 
1 
1 
1 
1 
1 
1 
1 
1 
1 
1 
1 
1 
1 
1 
1 
1 
1 
1 
1 
1 
1 
1 
1 
1 
1 
1 
1 
1 
1 
1 
1 
1 
1 
1 
1 
1 
1 
1 
1 
1 
1 
1 
1 
1 
1 
1 
1 
1 
1 
1 
1 
1 
1 
1 
1 
1 
1 
1 
1 
1 
1 
1 
1 
1 
1 
1 
1 
1 
1 
1 
1 
1 
1 
1 
1 
1 
1 
1 
1 
1 
1 
1 
1 
1 
1 
1 
1 
1 
1 
1 
1 
1 
1 
1 
1 
1 
1 
1 
1 
1 
1 
1 
1 
1 
1 
1 
1 
1 
1 
1 
1 
1 
1 
1 
1 
1 
1 
1 
1 
1 
1 
1 
1 
1 
1 
1 
1 
1 
1 
1 
1 
1 
1 
1 
1 
1 
1 
1 
1 
1 
1 
1 
1 
1 
1 
1 
1 
1 
1 
1 
1 
1 
1 
1 
1 
1 
1 
1 
1 
1 
1 
1 
1 
1 
1 
1 
1 
1 
1 
1 
1 
1 
1 
1 
1 
1 
1 
1 
1 
1 
1 
1 
1 
1 
1 
1 
1 
1 
1 
1 
1 
1 
1 
1 
1 
1 
1 
1 
1 
1 
1 
1 
1 
1 
1 
1 
1 
1 
1 
1 
1 
1 
1 
1 
1 
1 
1 
1 
1 
1 
1 
1 
1 
1 
1 
1 
1 
1 
1 
1 
1 
1 
1 
1 
1 
1 
1 
1 
1 
1 
1 
1 
1 
1 
1 
1 
1 
1 
1 
1 
1 
1 
1 
1 
1 
1 
1 
1 
1 
1 
1 
1 
1 
1 
1 
1 
1 
1 
1 
1 
1 
1 
1 
1 
1 
1 
1 
1 
1 
1 
1 
1 
1 
1 
1 
1 
1 
1 
1 
1 
1 
1 
1 
1 
1 
1 
1 
1 
1 
1 
1 
1 
1 
1 
1 
1 
1 
1 
1 
1 
1 
1 
1 
1 
1 
1 
1 
1 
1 
1 
1 
1 
1 
1 
1 
1 
1 
1 
1 
1 
1 
1 
1 
1 
1 
1 
1 
1 
1 
1 
1 
1 
1 
1 
1 
1 
1 
1 
1 
1 
1 
1 
1 
1 
1 
1 
1 
1 
1 
1 
1 
1 
1 
1 
1 
1 
1 
1 
1 
1 
1 
1 
1 
1 
1 
1 
1 
1 
1 
1 
1 
1 
1 
1 
1 
1 
1 
1 
1 
1 
1 
1 
1 
1 
1 
1 
1 
1 
1 
1 
1 
1 
1 
1 
1 
1 
1 
1 
1 
1 
1 
1 
1 
1 
1 
1 
1 
1 
1 
1 
1 
1 
1 
1 
1 
1 
1 
1 
1 
1 
1 
1 
1 
1 
1 
1 
1 
1 
1 
1 
1 
1 
1 
1 
1 
1 
1 
1 
1 
1 
1 
1 
1 
1 
1 
1 
1 
1 
1 
1 
1 
1 
1 
1 
1 
1 
1 
1 
1 
1 
1 
1 
1 
1 
1 
1 
1 
1 
1 
1 
1 
1 
1 
1 
1 
1 
1 
1 
1 
1 
1 
1 
1 
1 
1 
1 
1 
1 
1 
1 
1 
1 
1 
1 
1 
1 
1 
1 
1 
1 
1 
1 
1 
1 
1 
1 
1 
1 
1 
1 
1 
1 
1 
1 
1 
1 
1 
1 
1 
1 
1 
1 
1 
1 
1 
1 
1 
1 
1 
1 
1 
1 
1 
1 
1 
1 
1 
1 
1 
1 
1 
1 
1 
1 
1 
1 
1 
1 
1 
1 
1 
1 
1 
1 
1 
1 
1 
1 
1 
1 
1 
1 
1 
1 
1 
1 
1 
1 
1 
1 
1 
1 
1 
1 
1 
1 
1 
1 
1 
1 
1 
1 
1 
1 
1 
1 
1 
1 
1 
1 
1 
1 
1 
1 
1 
1 
1 
1 
1 
1 
1 
1 
1 
1 
1 
1 
1 
1 
1 
1 
1 
1 
1 
1 
1 
1 
1 
1 
1 
1 
1 
1 
1 
1 
1 
1 
1 
1 
1 
1 
1 
1 
1 
1 
1 
1 
1 
1 
1 
1 
1 
1 
1 
1 
1 
1 
1 
1 
1 
1 
1 
1 
1 
1 
1 
1 
1 
1 
1 
1 
1 
1 
1 
1 
1 
1 
1 
1 
1 
1 
1 
1 
1 
1 
1 
1 
1 
1 
1 
1 
1 
1 
1 
1 
1 
1 
1 
1 
1 
1 
1 
1 
1 
1 
1 
1 
1 
1 
1 
1 
1 
1 
1 
1 
1 
1 
1 
1 
1 
1 
1 
1 
1 
1 
1 
1 
1 
1 
1 
1 
1 
1 
1 
1 
1 
1 
1 
1 
1 
1 
1 
1 
1 
1 
1 
1 
1 
1 
1 
1 
1 
1 
1 
1 
1 
1 
1 
1 
1 
1 
1 
1 
1 
1 
1 
1 
1 
1 
1 
1 
1 
1 
1 
1 
1 
1 
1 
1 
1 
1 
1 
1 
1 
1 
1 
1 
1 
1 
1 
1 
1 
1 
1 
1 
1 
1 
1 
1 
1 
1 
1 
1 
1 
1 
1 
1 
1 
1 
1 
1 
1 
1 
1 
1 
1 
1 
1 
1 
1 
1 
1 
1 
1 
1 
1 
1 
1 
1 
1 
1 
1 
1 
1 
1 
1 
1 
1 
1 
1 
1 
1 
1 
1 
1 
1 
1 
1 
1 
1 
1 
1 
1 
1 
1 
1 
1 
1 
1 
1 
1 
1 
1 
1 
1 
1 
1 
1 
1 
1 
1 
1 
1 
1 
1 
1 
1 
1 
1 
1 
1 
1 
1 
1 
1 
1 
1 
1 
1 
1 
1 
1 
1 
1 
1 
1 
1 
1 
1 
1 
1 
1 
1 
1 
1 
1 
1 
1 
1 
1 
1 
1 
1 
1 
1 
1 
1 
1 
1 
1 
1 
1 
1 
1 
1 
1 
1 
1 
1 
1 
1 
1 
1 
1 
1 
1 
1 
1 
1 
1 
1 
1 
1 
1 
1 
1 
1 
1 
1 
1 
1 
1 
1 
1 
1 
1 
1 
1 
1 
1 
1 
1 
1 
1 
1 
1 
1 
1 
1 
1 
1 
1 
1 
1 
1 
1 
1 
1 
1 
1 
1 
1 
1 
1 
1 
1 
1 
1 
1 
1 
1 
1 
1 
1 
1 
1 
1 
1 
1 
1 
1 
1 
1 
1 
1 
1 
1 
1 
1 
1 
1 
1 
1 
1 
1 
1 
1 
1 
1 
1 
1 
1 
1 
1 
1 
1 
1 
1 
1 
1 
1 
1 
1 
1 
1 
1 
1 
1 
1 
1 
1 
1 
1 
1 
1 
1 
1 
1 
1 
1 
1 
1 
1 
1 
1 
1 
1 
1 
1 
1 
1 
1 
1 
1 
1 
1 
1 
1 
1 
1 
1 
1 
1 
1 
1 
1 
1 
1 
1 
1 
1 
1 
1 
1 
1 
1 
1 
1 
1 
1 
1 
1 
1 
1 
1 
1 
1 
1 
1 
1 
1 
1 
1 
1 
1 
1 
1 
1 
1 
1 
1 
1 
1 
1 
1 
1 
1 
1 
1 
1 
1 
1 
1 
1 
1 
1 
1 
1 
1 
1 
1 
1 
1 
1 
1 
1 
1 
1 
1 
1 
1 
1 
1 
1 
1 
1 
1 
1 
1 
1 
1 
1 
1 
1 
1 
1 
1 
1 
1 
1 
1 
1 
1 
1 
1 
1 
1 
1 
1 
1 
1 
1 
1 
1 
1 
1 
1 
1 
1 
1 
1 
1 
1 
1 
1 
1 
1 
1 
1 
1 
1 
1 
1 
1 
1 
1 
1 
1 
1 
1 
1 
1 
1 
1 
1 
1 
1 
1 
1 
1 
1 
1 
1 
1 
1 
1 
1 
1 
1 
1 
1 
1 
1 
1 
1 
1 
1 
1 
1 
1 
1 
1 
1 
1 
1 
1 
1 
1 
1 
1 
1 
1 
1 
1 
1 
1 
1 
1 
1 
1 
1 
1 
1 
1 
1 
1 
1 
1 
1 
1 
1 
1 
1 
1 
1 
1 
1 
1 
1 
1 
1 
1 
1 
1 
1 
1 
1 
1 
1 
1 
1 
1 
1 
1 
1 
1 
1 
1 
1 
1 
1 
1 
1 
1 
1 
1 
1 
1 
1 
1 
1 
1 
1 
1 
1 
1 
1 
1 
1 
1 
1 
1 
1 
1 
1 
1 
1 
1 
1 
1 
1 
1 
1 
1 
1 
1 
1 
1 
1 
1 
1 
1 
1 
1 
1 
1 
1 
1 
1 
1 
1 
1 
1 
1 
1 
1 
1 
1 
1 
1 
1 
1 
1 
1 
1 
1 
1 
1 
1 
1 
1 
1 
1 
1 
1 
1 
1 
1 
1 
1 
1 
1 
1 
1 
1 
1 
1 
1 
1 
1 
1 
1 
1 
1 
1 
1 
1 
1 
1 
1 
1 
1 
1 
1 
1 
1 
1 
1 
1 
1 
1 
1 
1 
1 
1 
1 
1 
1 
1 
1 
1 
1 
1 
1 
1 
1 
1 
1 
1 
1 
1 
1 
1 
1 
1 
1 
1 
1 
1 
1 
1 
1 
1 
1 
1 
1 
1 
1 
1 
1 
1 
1 
1 
1 
1 
1 
1 
1 
1 
1 
1 
1 
1 
1 
1 
1 
1 
1 
1 
1 
1 
1 
1 
1 
1 
1 
1 
1 
1 
1 
1 
1 
1 
1 
1 
1 
1 
1 
1 
1 
1 
1 
1 
1 
1 
1 
1 
1 
1 
1 
1 
1 
1 
1 
1 
1 
1 
1 
1 
1 
1 
1 
1 
1 
1 
1 
1 
1 
1 
1 
1 
1 
1 
1 
1 
1 
1 
1 
1 
1 
1 
1 
1 
1 
1 
1 
1 
1 
1 
1 
1 
1 
1 
1 
1 
1 
1 
1 
1 
1 
1 
1 
1 
1 
1 
1 
1 
1 
1 
1 
1 
1 
1 
1 
1 
1 
1 
1 
1 
1 
1 
1 
1 
1 
1 
1 
1 
1 
1 
1 
1 
1 
1 
1 
1 
1 
1 
1 
1 
1 
1 
1 
1 
1 
1 
1 
1 
1 
1 
1 
1 
1 
1 
1 
1 
1 
1 
1 
1 
1 
1 
1 
1 
1 
1 
1 
1 
1 
1 
1 
1 
1 
1 
1 
1 
1 
1 
1 
1 
1 
1 
1 
1 
1 
1 
1 
1 
1 
1 
1 
1 
1 
1 
1 
1 
1 
1 
1 
1 
1 
1 
1 
1 
1 
1 
1 
1 
1 
1 
1 
1 
1 
1 
1 
1 
1 
1 
1 
1 
1 
1 
1 
1 
1 
1 
1 
1 
1 
1 
1 
1 
1 
1 
1 
1 
1 
1 
1 
1 
1 
1 
1 
1 
1 
1 
1 
1 
1 
1 
1 
1 
1 
1 
1 
1 
1 
1 
1 
1 
1 
1 
1 
1 
1 
1 
1 
1 
1 
1 
1 
1 
1 
1 
1 
1 
1 
1 
1 
1 
1 
1 
1 
1 
1 
1 
1 
1 
1 
1 
1 
1 
1 
1 
1 
1 
1 
1 
1 
1 
1 
1 
1 
1 
1 
1 
1 
1 
1 
1 
1 
1 
1 
1 
1 
1 
1 
1 
1 
1 
1 
1 
1 
1 
1 
1 
1 
1 
1 
1 
1 
1 
1 
1 
1 
1 
1 
1 
1 
1 
1 
1 
1 
1 
1 
1 
1 
1 
1 
1 
1 
1 
1 
1 
1 
1 
1 
1 
1 
1 
1 
1 
1 
1 
1 
1 
1 
1 
1 
1 
1 
1 
1 
1 
1 
1 
1 
1 
1 
1 
1 
1 
1 
1 
1 
1 
1 
1 
1 
1 
1 
1 
1 
1 
1 
1 
1 
1 
1 
1 
1 
1 
1 
1 
1 
1 
1 
1 
1 
1 
1 
1 
1 
1 
1 
1 
1 
1 
1 
1 
1 
1 
1 
1 
1 
1 
1 
1 
1 
1 
1 
1 
1 
1 
1 
1 
1 
1 
1 
1 
1 
1 
1 
1 
1 
1 
1 
1 
1 
1 
1 
1 
1 
1 
1 
1 
1 
1 
1 
1 
1 
1 
1 
1 
1 
1 
1 
1 
1 
1 
1 
1 
1 
1 
1 
1 
1 
1 
1 
1 
1 
1 
1 
1 
1 
1 
1 
1 
1 
1 
1 
1 
1 
1 
1 
1 
1 
1 
1 
1 
1 
1 
1 
1 
1 
1 
1 
1 
1 
1 
1 
1 
1 
1 
1 
1 
1 
1 
1 
1 
1 
1 
1 
1 
1 
1 
1 
1 
1 
1 
1 
1 
1 
1 
1 
1 
1 
1 
1 
1 
1 
1 
1 
1 
1 
1 
1 
1 
1 
1 
1 
1 
1 
1 
1 
1 
1 
1 
1 
1 
1 
1 
1 
1 
1 
1 
1 
1 
1 
1 
1 
1 
1 
1 
1 
1 
1 
1 
1 
1 
1 
1 
1 
1 
1 
1 
1 
1 
1 
1 
1 
1 
1 
1 
1 
1 
1 
1 
1 
1 
1 
1 
1 
1 
1 
1 
1 
1 
1 
1 
1 
1 
1 
1 
1 
1 
1 
1 
1 
1 
1 
1 
1 
1 
1 
1 
1 
1 
1 
1 
1 
1 
1 
1 
1 
1 
1 
1 
1 
1 
1 
1 
1 
1 
1 
1 
1 
1 
1 
1 
1 
1 
1 
1 
1 
1 
1 
1 
1 
1 
1 
1 
1 
1 
1 
1 
1 
1 
1 
1 
1 
1 
1 
1 
1 
1 
1 
1 
1 
1 
1 
1 
1 
1 
1 
1 
1 
1 
1 
1 
1 
1 
1 
1 
1 
1 
1 
1 
1 
1 
1 
1 
1 
1 
1 
1 
1 
1 
1 
1 
1 
1 
1 
1 
1 
1 
1 
1 
1 
1 
1 
1 
1 
1 
1 
1 
1 
1 
1 
1 
1 
1 
1 
1 
1 
1 
1 
1 
1 
1 
1 
1 
1 
1 
1 
1 
1 
1 
1 
1 
1 
1 
1 
1 
1 
1 
1 
1 
1 
1 
1 
1 
1 
1 
1 
1 
1 
1 
1 
1 
1 
1 
1 
1 
1 
1 
1 
1 
1 
1 
1 
1 
1 
1 
1 
1 
1 
1 
1 
1 
1 
1 
1 
1 
1 
1 
1 
1 
1 
1 
1 
1 
1 
1 
1 
1 
1 
1 
1 
1 
1 
1 
1 
1 
1 
1 
1 
1 
1 
1 
1 
1 
1 
1 
1 
1 
1 
1 
1 
1 
1 
1 
1 
1 
1 
1 
1 
1 
1 
1 
1 
1 
1 
1 
1 
1 
1 
1 
1 
1 
1 
1 
1 
1 
1 
1 
1 
1 
1 
1 
1 
1 
1 
1 
1 
1 
1 
1 
1 
1 
1 
1 
1 
1 
1 
1 
1 
1 
1 
1 
1 
1 
1 
1 
1 
1 
1 
1 
1 
1 
1 
1 
1 
1 
1 
1 
1 
1 
1 
1 
1 
1 
1 
1 
1 
1 
1 
1 
1 
1 
1 
1 
1 
1 
1 
1 
1 
1 
1 
1 
1 
1 
1 
1 
1 
1 
1 
1 
1 
1 
1 
1 
1 
1 
1 
1 
1 
1 
1 
1 
1 
1 
1 
1 
1 
1 
1 
1 
1 
1 
1 
1 
1 
1 
1 
1 
1 
1 
1 
1 
1 
1 
1 
1 
1 
1 
1 
1 
1 
1 
1 
1 
1 
1 
1 
1 
1 
1 
1 
1 
1 
1 
1 
1 
1 
1 
1 
1 
1 
1 
1 
1 
1 
1 
1 
1 
1 
1 
1 
1 
1 
1 
1 
1 
1 
1 
1 
1 
1 
1 
1 
1 
1 
1 
1 
1 
1 
1 
1 
1 
1 
1 
1 
1 
1 
1 
1 
1 
1 
1 
1 
1 
1 
1 
1 
1 
1 
1 
1 
1 
1 
1 
1 
1 
1 
1 
1 
1 
1 
1 
1 
1 
1 
1 
1 
1 
1 
1 
1 
1 
1 
1 
1 
1 
1 
1 
1 
1 
1 
1 
1 
1 
1 
1 
1 
1 
1 
1 
1 
1 
1 
1 
1 
1 
1 
1 
1 
1 
1 
1 
1 
1 
1 
1 
1 
1 
1 
1 
1 
1 
1 
1 
1 
1 
1 
1 
1 
1 
1 
1 
1 
1 
1 
1 
1 
1 
1 
1 
1 
1 
1 
1 
1 
1 
1 
1 
1 
1 
1 
1 
1 
1 
1 
1 
1 
1 
1 
1 
1 
1 
1 
1 
1 
1 
1 
1 
1 
1 
1 
1 
1 
1 
1 
1 
1 
1 
1 
1 
1 
1 
1 
1 
1 
1 
1 
1 
1 
1 
1 
1 
1 
1 
1 
1 
1 
1 
1 
1 
1 
1 
1 
1 
1 
1 
1 
1 
1 
1 
1 
1 
1 
1 
1 
1 
1 
1 
1 
1 
1 
1 
1 
1 
1 
1 
1 
1 
1 
1 
1 
1 
1 
1 
1 
1 
1 
1 
1 
1 
1 
1 
1 
1 
1 
1 
1 
1 
1 
1 
1 
1 
1 
1 
1 
1 
1 
1 
1 
1 
1 
1 
1 
1 
1 
1 
1 
1 
1 
1 
1 
1 
1 
1 
1 
1 
1 
1 
1 
1 
1 
1 
1 
1 
1 
1 
1 
1 
1 
1 
1 
1 
1 
1 
1 
1 
1 
1 
1 
1 
1 
1 
1 
1 
1 
1 
1 
1 
1 
1 
1 
1 
1 
1 
1 
1 
1 
1 
1 
1 
1 
1 
1 
1 
1 
1 
1 
1 
1 
1 
1 
1 
1 
1 
1 
1 
1 
1 
1 
1 
1 
1 
1 
1 
1 
1 
1 
1 
1 
1 
1 
1 
1 
1 
1 
1 
1 
1 
1 
1 
1 
1 
1 
1 
1 
1 
1 
1 
1 
1 
1 
1 
1 
1 
1 
1 
1 
1 
1 
1 
1 
1 
1 
1 
1 
1 
1 
1 
1 
1 
1 
1 
1 
1 
1 
1 
1 
1 
1 
1 
1 
1 
1 
1 
1 
1 
1 
1 
1 
1 
1 
1 
1 
1 
1 
1 
1 
1 
1 
1 
1 
1 
1 
1 
1 
1 
1 
1 
1 
1 
1 
1 
1 
1 
1 
1 
1 
1 
1 
1 
1 
1 
1 
1 
1 
1 
1 
1 
1 
1 
1 
1 
1 
1 
1 
1 
1 
1 
1 
1 
1 
1 
1 
1 
1 
1 
1 
1 
1 
1 
1 
1 
1 
1 
1 
1 
1 
1 
1 
1 
1 
1 
1 
1 
1 
1 
1 
1 
1 
1 
1 
1 
1 
1 
1 
1 
1 
1 
1 
1 
1 
1 
1 
1 
1 
1 
1 
1 
1 
1 
1 
1 
1 
1 
1 
1 
1 
1 
1 
1 
1 
1 
1 
1 
1 
1 
1 
1 
1 
1 
1 
1 
1 
1 
1 
1 
1 
1 
1 
1 
1 
1 
1 
1 
1 
1 
1 
1 
1 
1 
1 
1 
1 
1 
1 
1 
1 
1 
1 
1 
1 
1 
1 
1 
1 
1 
1 
1 
1 
1 
1 
1 
1 
1 
1 
1 
1 
1 
1 
1 
1 
1 
1 
1 
1 
1 
1 
1 
1 
1 
1 
1 
1 
1 
1 
1 
1 
1 
1 
1 
1 
1 
1 
1 
1 
1 
1 
1 
1 
1 
1 
1 
1 
1 
1 
1 
1 
1 
1 
1 
1 
1 
1 
1 
1 
1 
1 
1 
1 
1 
1 
1 
1 
1 
1 
1 
1 
1 
1 
1 
1 
1 
1 
1 
1 
1 
1 
1 
1 
1 
1 
1 
1 
1 
1 
1 
1 
1 
1 
1 
1 
1 
1 
1 
1 
1 
1 
1 
1 
1 
1 
1 
1 
1 
1 
1 
1 
1 
1 
1 
1 
1 
1 
1 
1 
1 
1 
1 
1 
1 
1 
1 
1 
1 
1 
1 
1 
1 
1 
1 
1 
1 
1 
1 
1 
1 
1 
1 
1 
1 
1 
1 
1 
1 
1 
1 
1 
1 
1 
1 
1 
1 
1 
1 
1 
1 
1 
1 
1 
1 
1 
1 
1 
1 
1 
1 
1 
1 
1 
1 
1 
1 
1 
1 
1 
1 
1 
1 
1 
1 
1 
1 
1 
1 
1 
1 
1 
1 
1 
1 
1 
1 
1 
1 
1 
1 
1 
1 
1 
1 
1 
1 
1 
1 
1 
1 
1 
1 
1 
1 
1 
1 
1 
1 
1 
1 
1 
1 
1 
1 
1 
1 
1 
1 
1 
1 
1 
1 
1 
1 
1 
1 
1 
1 
1 
1 
1 
1 
1 
1 
1 
1 
1 
1 
1 
1 
1 
1 
1 
1 
1 
1 
1 
1 
1 
1 
1 
1 
1 
1 
1 
1 
1 
1 
1 
1 
1 
1 
1 
1 
1 
1 
1 
1 
1 
1 
1 
1 
1 
1 
1 
1 
1 
1 
1 
1 
1 
1 
1 
1 
1 
1 
1 
1 
1 
1 
1 
1 
1 
1 
1 
1 
1 
1 
1 
1 
1 
1 
1 
1 
1 
1 
1 
1 
1 
1 
1 
1 
1 
1 
1 
1 
1 
1 
1 
1 
1 
1 
1 
1 
1 
1 
1 
1 
1 
1 
1 
1 
1 
1 
1 
1 
1 
1 
1 
1 
1 
1 
1 
1 
1 
1 
1 
1 
1 
1 
1 
1 
1 
1 
1 
1 
1 
1 
1 
1 
1 
1 
1 
1 
1 
1 
1 
1 
1 
1 
1 
1 
1 
1 
1 
1 
1 
1 
1 
1 
1 
1 
1 
1 
1 
1 
1 
1 
1 
1 
1 
1 
1 
1 
1 
1 
1 
1 
1 
1 
1 
1 
1 
1 
1 
1 
1 
1 
1 
1 
1 
1 
1 
1 
1 
1 
1 
1 
1 
1 
1 
1 
1 
1 
1 
1 
1 
1 
1 
1 
1 
1 
1 
1 
1 
1 
1 
1 
1 
1 
1 
1 
1 
1 
1 
1 
1 
1 
1 
1 
1 
1 
1 
1 
1 
1 
1 
1 
1 
1 
1 
1 
1 
1 
1 
1 
1 
1 
1 
1 
1 
1 
1 
1 
1 
1 
1 
1 
1 
1 
1 
1 
1 
1 
1 
1 
1 
1 
1 
1 
1 
1 
1 
1 
1 
1 
1 
1 
1 
1 
1 
1 
1 
1 
1 
1 
1 
1 
1 
1 
1 
1 
1 
1 
1 
1 
1 
1 
1 
1 
1 
1 
1 
1 
1 
1 
1 
1 
1 
1 
1 
1 
1 
1 
1 
1 
1 
1 
1 
1 
1 
1 
1 
1 
1 
1 
1 
1 
1 
1 
1 
1 
1 
1 
1 
1 
1 
1 
1 
1 
1 
1 
1 
1 
1 
1 
1 
1 
1 
1 
1 
1 
1 
1 
1 
1 
1 
1 
1 
1 
1 
1 
1 
1 
1 
1 
1 
1 
1 
1 
1 
1 
1 
1 
1 
1 
1 
1 
1 
1 
1 
1 
1 
1 
1 
1 
1 
1 
1 
1 
1 
1 
1 
1 
1 
1 
1 
1 
1 
1 
1 
1 
1 
1 
1 
1 
1 
1 
1 
1 
1 
1 
1 
1 
1 
1 
1 
1 
1 
1 
1 
1 
1 
1 
1 
1 
1 
1 
1 
1 
1 
1 
1 
1 
1 
1 
1 
1 
1 
1 
1 
1 
1 
1 
1 
1 
1 
1 
1 
1 
1 
1 
1 
1 
1 
1 
1 
1 
1 
1 
1 
1 
1 
1 
1 
1 
1 
1 
1 
1 
1 
1 
1 
1 
1 
1 
1 
1 
1 
1 
1 
1 
1 
1 
1 
1 
1 
1 
1 
1 
1 
1 
1 
1 
1 
1 
1 
1 
1 
1 
1 
1 
1 
1 
1 
1 
1 
1 
1 
1 
1 
1 
1 
1 
1 
1 
1 
1 
1 
1 
1 
1 
1 
1 
1 
1 
1 
1 
1 
POINT_DATA 5000
VECTORS Stress float
-1893.44 -3083.51 0.
-2368.36 -1939.21 0.
-24.2832 -34.3216 0.
-493.838 -709.238 0.
-3297.34 -6497.31 0.
-38.293 -82.1242 0.
-2987.35 -2849.99 0.
-23.0464 -27.1296 0.
-22.9581 -22.988 0.
-3921.71 -6054.5 0.
-1369.68 -2287.94 0.
-25.9791 -43.9107 0.
-1852.13 -2711.58 0.
-1435.51 -2147.6 0.
-1290.23 -1855 0.
-1067.19 -1663.72 0.
-836.666 -1479.94 0.
-829.189 -1621.92 0.
-652.456 -1335.66 0.
-476.748 -1048.38 0.
-514.084 -1029.87 0.
-469.948 -955.226 0.
-425.82 -880.576 0.
-449.636 -880.879 0.
-431.496 -892.62 0.
-416.334 -901.382 0.
-509.065 -1019.8 0.
-540.823 -1070.13 0.
-516.388 -1017.03 0.
-482.64 -938.912 0.
-448.977 -860.711 0.
-448.417 -831.84 0.
-441.577 -790.402 0.
-434.501 -749.199 0.
-445.938 -732.631 0.
-453.435 -726.467 0.
-464.173 -717.06 0.
-579.262 -842.003 0.
-637.204 -893.963 0.
-635.657 -875.023 0.
-620.477 -800.007 0.
-603.27 -727.018 0.
-611.366 -706.555 0.
-623.472 -703.877 0.
-634.756 -702.023 0.
-606.328 -607.745 0.
-412.002 -363.199 0.
-181.281 -155.047 0.
-33.2767 -43.9805 0.
-467.214 -952.913 0.
-738.164 -2024.77 0.
-484.727 -966.473 0.
-45.9029 -58.3089 0.
-179.16 -150.887 0.
-412.352 -359.824 0.
-611.296 -603.007 0.
-647.547 -704.343 0.
-639.627 -716.397 0.
-631.19 -728.968 0.
-615.375 -739.153 0.
-627.534 -798.438 0.
-637.728 -859.687 0.
-638.092 -882.337 0.
-581.03 -835.101 0.
-463.74 -710.897 0.
-455.939 -720.196 0.
-450.671 -726.963 0.
-441.407 -744.555 0.
-444.136 -777.533 0.
-446.595 -810.781 0.
-438.751 -835.075 0.
-473.75 -919.351 0.
-508.869 -1003.51 0.
-543.366 -1060.13 0.
-510.856 -1021.64 0.
-462.766 -967.153 0.
-438.961 -885.035 0.
-453.328 -861.047 0.
-410.321 -852.642 0.
-474.504 -972.882 0.
-541.934 -1089.88 0.
-499.15 -1096.17 0.
-801.322 -1624.32 0.
-1106.15 -2149.81 0.
-1109.95 -1773.66 0.
-1289.03 -1697.09 0.
-1455.72 -1632.9 0.
-1547.57 -2349.27 0.
-2316.49 -3715.94 0.
-6.7271 -3.00304 0.
-724.646 -1052.86 0.
-4494.38 -6679.57 0.
-73.2273 -33.9364 0.
-136.27 -53.8516 0.
-2856.91 -3137.77 0.
-5.62147 -2.03089 0.
-3410.66 -4875.57 0.
-9.42765 -6.88078 0.
-3052.36 -5163.71 0.
-202.689 -325.421 0.
-1515.57 -2834.64 0.
-10.6299 -10.339 0.
-1.42767 -1.6294 0.
-25.9239 -65.1122 0.
-41.7222 -42.5988 0.
-50.9678 -75.5031 0.
-40.7928 -47.2496 0.
-16.1545 -17.2649 0.
-323.841 -154.241 0.
-2.41077 -4.67881 0.
-12.2465 -7.79283 0.
-43.1164 -62.8389 0.
-730.043 -986.031 0.
-371.156 -362.858 0.
-524.892 -732.692 0.
-355.036 -487.836 0.
-218.478 -209.682 0.
-522.602 -1169.17 0.
-365.134 -863.463 0.
-231.107 -534.317 0.
-428.529 -936.342 0.
-382.956 -863.133 0.
-340.555 -786.751 0.
-457.113 -811.624 0.
-437.842 -824.494 0.
-419.458 -836.472 0.
-628.41 -1088.27 0.
-653.035 -1145.72 0.
-516.466 -973.445 0.
-477.6 -900.443 0.
-443.468 -822.709 0.
-482.054 -865.519 0.
-474.872 -824.425 0.
-475.27 -775.751 0.
-500.216 -764.289 0.
-504.269 -761.567 0.
-511.279 -755.888 0.
-776.245 -1014.21 0.
-829.211 -1071.12 0.
-716.24 -949.12 0.
-701.754 -873.416 0.
-685.358 -799.622 0.
-732.712 -828.138 0.
-746.001 -824.278 0.
-758.289 -821.419 0.
-849.176 -840.876 0.
-678.986 -572.301 0.
-456.998 -355.523 0.
0.105164 0.0785086 0.
-0.152238 -0.0730266 0.
-229.396 -601.839 0.
-7.81375 -17.4648 0.
-3.51595 -6.09573 0.
-458.629 -355.858 0.
-685.461 -571.041 0.
-862.772 -835.745 0.
-784.938 -832.966 0.
-776.094 -845.945 0.
-766.195 -859.979 0.
-702.391 -810.443 0.
-711.653 -872.619 0.
-722.157 -933.552 0.
-830.938 -1063.06 0.
-778.976 -1010.74 0.
-507.439 -743.271 0.
-501.5 -750.709 0.
-499.1 -754.606 0.
-481.766 -766.393 0.
-476.194 -807.672 0.
-476.435 -843.139 0.
-419.809 -790.085 0.
-457.743 -871.427 0.
-504.695 -943.752 0.
-636.617 -1138.63 0.
-614.945 -1089.3 0.
-330.187 -793.29 0.
-437.221 -808.248 0.
-452.548 -783.302 0.
-311.939 -698.718 0.
-376.217 -818.885 0.
-443.802 -935.744 0.
-178.363 -149.99 0.
-375.213 -784 0.
-621.587 -1368.49 0.
-126.151 -60.4172 0.
-195.319 -89.1889 0.
-225.874 -161.279 0.
-9.71091 -6.01845 0.
-315.781 -824.772 0.
-0.261674 -0.124615 0.
-0.0480744 -0.00105999 0.
0.148509 3.10421e-05 0.
-199.731 -74.604 0.
-13.915 -5.05443 0.
-40.739 -43.8186 0.
0.0237161 0.0181504 0.
-0.209063 -0.276518 0.
-10.4628 -6.67959 0.
-134.546 -286.962 0.
-35.9288 -27.4107 0.
2.22986 1.1109 0.
1.59793 1.22 0.
-2.35762 -2.99127 0.
-9.27005 -11.8346 0.
-56.2424 -35.608 0.
-67.3145 -64.8022 0.
-71.1855 -85.1261 0.
-53.6797 -36.5558 0.
-735.831 -322.99 0.
-14.1898 -8.76046 0.
-17.8718 -8.75883 0.
-197.721 -166.596 0.
-96.9399 -86.1109 0.
-34.9581 -24.5874 0.
-48.4204 -29.4827 0.
-72.7125 -43.9468 0.
-111.069 -84.0756 0.
-299.976 -632.452 0.
-175.684 -293.391 0.
-43.7904 -53.1269 0.
-390.076 -795.713 0.
-349.789 -717.213 0.
-312.36 -635.855 0.
-470.552 -736.407 0.
-451.297 -749.26 0.
-432.489 -761.656 0.
-759.879 -1144.61 0.
-784.503 -1202.06 0.
-550.48 -895.923 0.
-507.837 -826.697 0.
-466.11 -756.555 0.
-542.697 -872.193 0.
-531.058 -835.558 0.
-526.228 -792.115 0.
-578.71 -771.732 0.
-574.612 -777.158 0.
-574.964 -778.135 0.
-1017.51 -1142.12 0.
-1053.84 -1215.65 0.
-816.603 -1003.44 0.
-798.862 -930.993 0.
-782.407 -857.264 0.
-866.684 -937.096 0.
-878.77 -934.439 0.
-890.394 -932.244 0.
-1144.77 -1021.26 0.
-967.513 -759.859 0.
-749.653 -539.061 0.
-0.244459 -0.150338 0.
-0.0367064 -0.025443 0.
-7374.9 -5220.07 0.
-4.6771 -10.1259 0.
-0.534189 -0.00501036 0.
-757.457 -541.471 0.
-984.542 -756.287 0.
-1173.5 -1009.23 0.
-932.377 -951.541 0.
-924.188 -963.866 0.
-916.087 -976.103 0.
-805.953 -865.188 0.
-817.553 -925.02 0.
-829.76 -984.244 0.
-1057.69 -1209.88 0.
-1022.63 -1140.68 0.
-569.601 -757.182 0.
-571.427 -756.854 0.
-575.829 -753.95 0.
-533.085 -777.272 0.
-530.823 -815.241 0.
-536.231 -845.541 0.
-436.359 -709.602 0.
-481.148 -784.091 0.
-526.85 -857.668 0.
-756.968 -1190.02 0.
-735.181 -1140.82 0.
-380.919 -689.089 0.
-439.646 -727.298 0.
-453.986 -703.339 0.
-295.623 -462.728 0.
-329.588 -613.229 0.
-377.338 -749.946 0.
-79.9575 -62.3391 0.
-32.139 -17.871 0.
-310.032 -414.163 0.
-265.492 -105.6 0.
-59.345 -41.3421 0.
-101.526 -80.1504 0.
0.0572123 0.211527 0.
0.163765 0.0198208 0.
-17.9456 -11.641 0.
-0.195838 -0.082227 0.
0.0847452 0.0321899 0.
-583.138 -211.564 0.
-180.685 -69.9598 0.
-213.156 -118.607 0.
-0.083089 -0.0853113 0.
-0.12441 -0.235922 0.
-8.58383 -4.74664 0.
-31.0992 -17.0389 0.
-2115.27 -3545.79 0.
-1826.06 -3932.07 0.
-1.88294 -0.660592 0.
-4.14987 -6.03237 0.
-2480.25 -3080.23 0.
-69.6362 -192.87 0.
-2841.36 -5142.94 0.
-79.2339 -124.278 0.
-1946.09 -2380.33 0.
-49.5521 -70.8952 0.
-3303.81 -5200.75 0.
-30.8028 -38.41 0.
-109.143 -104.914 0.
-3910.04 -7171.89 0.
-30.1694 -17.7444 0.
-2193.02 -2937.64 0.
-1448.69 -1968.65 0.
-748.703 -955.3 0.
-2150.37 -4189.93 0.
-1121.29 -2280.76 0.
-223.435 -240.353 0.
-1221.01 -2660.97 0.
-821.35 -1838.45 0.
-453.332 -984.276 0.
-769.914 -1642.16 0.
-636.54 -1362.5 0.
-510.865 -1075.15 0.
-960.222 -1640.54 0.
-946.926 -1609.55 0.
-689.618 -1249.99 0.
-655.101 -1175.84 0.
-620.651 -1101.63 0.
-723.001 -1162.74 0.
-698 -1147.37 0.
-676.006 -1128.98 0.
-766.488 -1091.5 0.
-746.118 -1085.77 0.
-726.599 -1079.19 0.
-1183.37 -1402.88 0.
-1177.39 -1388.99 0.
-879.516 -1121.1 0.
-868.463 -1104.24 0.
-857.603 -1087.18 0.
-1009.46 -1170.11 0.
-977.863 -1102.4 0.
-957.309 -1023.64 0.
-1284.07 -1207.43 0.
-1333.57 -1341.39 0.
-1384.24 -1474.16 0.
-1.47111 -3.6837 0.
-1.55614 -3.93641 0.
-8626.18 -3948.26 0.
-1.63501 -1.46237 0.
-0.411617 -0.148723 0.
-1424.44 -1508.69 0.
-1368.39 -1366.59 0.
-1313.98 -1222.86 0.
-995.005 -1044.45 0.
-1011.7 -1108.92 0.
-1039.5 -1162.3 0.
-871.299 -1077.36 0.
-891.06 -1116.67 0.
-910.987 -1155.81 0.
-1196.88 -1426.31 0.
-1201.7 -1437.54 0.
-720.82 -1089.58 0.
-733.618 -1070.94 0.
-747.614 -1051.1 0.
-663.65 -1091.73 0.
-692.984 -1132.47 0.
-725.921 -1169.62 0.
-603.472 -1105.88 0.
-654.023 -1211.23 0.
-704.674 -1316.47 0.
-915.837 -1694.05 0.
-935.337 -1722.41 0.
-443.444 -913.946 0.
-675.051 -1452.61 0.
-901.487 -1930.76 0.
-396.839 -777.247 0.
-903.765 -1939.86 0.
-1483.38 -3029.79 0.
-83.3903 -65.6528 0.
-1337.26 -2454.35 0.
-2569.58 -4877.13 0.
-260.89 -143.031 0.
-1251.38 -1673.15 0.
-2285.13 -3159.97 0.
0.72905 0.000100337 0.
-4131.06 -7067.57 0.
-35.4735 -17.2522 0.
-13.8682 -7.93326 0.
-3466.99 -4117.63 0.
-61.8544 -59.8228 0.
-2059.9 -2869.95 0.
-29.9651 -58.5866 0.
-2648.47 -4575.66 0.
-608.217 -795.965 0.
-849.517 -1245.49 0.
-75.6704 -70.6277 0.
-499.332 -1103.43 0.
-536.138 -567.403 0.
1.11321 2.648 0.
-2004.66 -2903.37 0.
-191.625 -394.474 0.
-27.1416 -71.4363 0.
-77.0116 -163.064 0.
-60.8246 -117.128 0.
-125.907 -138.017 0.
-28.2448 -52.4899 0.
-104.799 -120.734 0.
-62.353 -54.3944 0.
-109.599 -82.1423 0.
-55.7088 -28.0221 0.
-30.3015 -16.9791 0.
-56.4116 -32.5946 0.
-55.2794 -28.9538 0.
-63.198 -28.1557 0.
-331.265 -338.84 0.
-95.034 -93.347 0.
-73.1114 -63.0144 0.
-682.379 -1468.42 0.
-348.633 -578.887 0.
-89.2601 -92.1156 0.
-635.308 -1323.39 0.
-523.492 -1022.07 0.
-419.866 -712.571 0.
-945.053 -1634.12 0.
-931.758 -1603.13 0.
-712.977 -1226.35 0.
-676.18 -1154.48 0.
-639.649 -1082.35 0.
-752.28 -1098.89 0.
-727.47 -1083.32 0.
-703.54 -1066.88 0.
-810.528 -1049.29 0.
-789.355 -1044.36 0.
-769.012 -1038.59 0.
-1249.35 -1431.16 0.
-1243.38 -1417.27 0.
-962.152 -1125.08 0.
-952.137 -1107.18 0.
-942.329 -1089.08 0.
-1162.08 -1169.21 0.
-1126.78 -1105.2 0.
-1092.54 -1040.14 0.
-1343.09 -1170.78 0.
-1392.11 -1305.21 0.
-1442.39 -1438.39 0.
-1.43418 -3.68254 0.
-1.57067 -4.08327 0.
-10634.8 -4802.57 0.
-2.96438 -3.64376 0.
-2.40206 -2.12659 0.
-1473.77 -1480.14 0.
-1417.98 -1337.8 0.
-1362.88 -1194.76 0.
-1125.47 -1056.78 0.
-1154.84 -1108.59 0.
-1185.05 -1159.54 0.
-962.549 -1079.53 0.
-982.203 -1118.94 0.
-1002.02 -1158.18 0.
-1260.11 -1453.4 0.
-1264.92 -1464.63 0.
-763.506 -1039.04 0.
-777.464 -1019.24 0.
-792.439 -998.425 0.
-687.202 -1029.57 0.
-718.019 -1068.83 0.
-752.009 -1104.92 0.
-609.334 -1075.9 0.
-660.253 -1180.88 0.
-711.47 -1285.55 0.
-878.75 -1631.55 0.
-908.125 -1650.03 0.
-326.21 -369.989 0.
-481.277 -891.798 0.
-676.584 -1401.36 0.
-69.4795 -71.6834 0.
-62.5538 -61.3778 0.
-585.929 -1028.6 0.
-121.295 -95.5166 0.
-25.9258 -13.7021 0.
-100.387 -82.1723 0.
-7.91986 -4.47439 0.
-0.0264575 -0.0101204 0.
-112.407 -102.107 0.
0.873187 0.0378649 0.
0.606835 0.0379645 0.
-30.8226 -11.5789 0.
-9.72316 -4.95286 0.
-27.8296 -34.8174 0.
-60.7257 -65.1212 0.
-109.715 -147.251 0.
-18.4711 -38.1188 0.
-312.326 -287.713 0.
-55.6636 -21.5227 0.
-0.235522 -0.436638 0.
-40.0896 -73.0902 0.
-12.5038 -34.3564 0.
-484.989 -350.586 0.
-0.0611869 -0.144233 0.
-0.0537318 -3.00001 0.
-0.330551 -1.48225 0.
-18.7981 -41.1319 0.
-41.4739 -114.689 0.
-53.8006 -99.9815 0.
-2597.85 -4083.31 0.
-53.3765 -113.444 0.
-2469.63 -4405.6 0.
-65.3643 -74.9081 0.
-74.4672 -52.4007 0.
-3161.8 -6285.86 0.
-15.3924 -6.16451 0.
-2770.31 -3759.11 0.
-636.822 -607.354 0.
-26.0068 -10.9249 0.
-2878.32 -5714.61 0.
-1041.73 -1767.26 0.
-46.1235 -28.5507 0.
-2022.72 -4101.96 0.
-1013.79 -2071.93 0.
-64.5427 -54.7932 0.
-1190.92 -2414.23 0.
-776.478 -1528.99 0.
-389.165 -616.627 0.
-1024.62 -1698.72 0.
-873.936 -1437.77 0.
-626.236 -1013.98 0.
-561.323 -891.981 0.
-497.272 -769.118 0.
-629.264 -770.322 0.
-603.961 -731.009 0.
-579.148 -691.207 0.
-669.654 -703.136 0.
-652.461 -673.379 0.
-635.424 -643.466 0.
-1113.39 -1055.17 0.
-1088.57 -997.26 0.
-834.259 -624.222 0.
-834.564 -633.467 0.
-835.006 -642.575 0.
-1062.09 -750.414 0.
-1059.63 -752.2 0.
-1057.79 -753.373 0.
-1240.65 -921.855 0.
-1324.91 -1117.89 0.
-1409.45 -1313.65 0.
-0.0910026 -0.0169882 0.
0.657312 0.0371256 0.
-9396.54 -3392.59 0.
-0.0624565 -0.0229078 0.
-0.864729 -0.312692 0.
-1396.82 -1321.44 0.
-1315.09 -1129.77 0.
-1245.45 -926.012 0.
-1081.36 -753.425 0.
-1081.79 -749.256 0.
-1082.43 -744.875 0.
-846.267 -632.338 0.
-845.762 -625.096 0.
-845.281 -617.83 0.
-1084.47 -989.94 0.
-1112.2 -1054.6 0.
-619.839 -613.925 0.
-649.374 -672.584 0.
-679.038 -731.113 0.
-599.311 -747.552 0.
-628.094 -793.826 0.
-657.058 -839.919 0.
-505.011 -798.688 0.
-603.925 -994.298 0.
-702.919 -1189.83 0.
-911.811 -1604.91 0.
-1135.33 -1983.98 0.
-348.963 -465.363 0.
-840.662 -1663.82 0.
-1370.22 -2792.58 0.
-9.535 -8.42428 0.
-971.545 -1918.96 0.
-2413.17 -5101.01 0.
-27.9146 -30.2495 0.
-628.17 -472.326 0.
-2601.15 -3270.02 0.
-2.99633 -1.75361 0.
-3645.75 -7655.22 0.
-0.156922 -0.0497771 0.
0.21916 0.130523 0.
-2782.36 -3864.52 0.
0.636042 0.26945 0.
-3034.84 -4593.91 0.
-0.861499 -0.0122986 0.
-1036.56 -2285.21 0.
-40.7788 -70.8516 0.
-35.3288 -40.0941 0.
-507.22 -425.587 0.
-0.460486 -1.47249 0.
-1697.1 -3302.05 0.
-463.8 -1100.61 0.
-2435.13 -4928.6 0.
-1845.35 -3004.02 0.
2.82622 2.08149 0.
-1578.5 -3687.14 0.
0.503689 0.837056 0.
-27.2756 -69.0464 0.
-261.358 -535.243 0.
-2023.4 -3581.73 0.
-10.4171 -25.2072 0.
-26.4799 -72.0789 0.
-15.7281 -39.0213 0.
-77.7284 -87.2529 0.
-240.155 -150.104 0.
-17.9864 -13.4176 0.
-14.5377 -6.81966 0.
-49.7171 -17.9698 0.
-46.0656 -17.5042 0.
-39.5331 -14.274 0.
-54.983 -27.3546 0.
-41.527 -24.6495 0.
-50.8003 -37.792 0.
-458.195 -594.022 0.
-40.8317 -36.5726 0.
-80.3045 -68.0183 0.
-683.675 -1379.76 0.
-332.15 -430.565 0.
-80.9821 -62.2408 0.
-769.503 -1261.64 0.
-635.501 -983.867 0.
-531.898 -856.981 0.
-476.726 -725.218 0.
-424.487 -590.522 0.
-596.737 -704.836 0.
-573.743 -663.213 0.
-548.941 -623.399 0.
-653.104 -655.9 0.
-633.727 -628.324 0.
-616.58 -598.518 0.
-1108.95 -1053.25 0.
-1084.13 -995.345 0.
-848.453 -607.274 0.
-848.665 -616.613 0.
-849.032 -625.798 0.
-1022 -676.437 0.
-1020.02 -677.75 0.
-1018.68 -678.421 0.
-1089.21 -833.465 0.
-1173.78 -1029.24 0.
-1258.53 -1224.83 0.
-0.644697 -0.276471 0.
0.562542 0.216821 0.
-7125.75 -2572.95 0.
0.817507 0.31538 0.
-0.0654321 -0.0245549 0.
-1265.32 -1226.37 0.
-1183.2 -1035.07 0.
-1101.49 -843.347 0.
-1032.65 -690.524 0.
-1033.3 -686.128 0.
-1035.12 -680.562 0.
-845.666 -625.036 0.
-845.742 -617.21 0.
-845.944 -609.257 0.
-1077.4 -986.907 0.
-1105.12 -1051.57 0.
-588.535 -563.692 0.
-617.996 -622.429 0.
-652.875 -675.747 0.
-538.042 -651.015 0.
-566.751 -697.364 0.
-595.204 -743.97 0.
-408.427 -517.348 0.
-484.311 -736.048 0.
-567.204 -947.739 0.
-569.032 -932.596 0.
-763.697 -1340.84 0.
-87.663 -95.8682 0.
-140.445 -122.183 0.
-636.311 -1286.57 0.
-7.77067 -6.74841 0.
-14.0759 -11.3427 0.
-243.936 -188.104 0.
-2.66178 -2.37174 0.
-1.90751 -1.5572 0.
-18.8498 -16.2525 0.
-1.7021 -0.875755 0.
0.361705 0.171239 0.
-0.0935538 -0.0193569 0.
-0.0966467 -0.00627638 0.
-38.5539 -21.8032 0.
0.334254 0.00400787 0.
-1.58091 -0.00364301 0.
-1.3168 -0.0364867 0.
-1819.34 -3633.64 0.
-78.2335 -77.7548 0.
-2493.62 -3918.87 0.
-394.644 -183.26 0.
0.00953564 1.1773 0.
0.870082 2.36288 0.
-0.138587 -0.373022 0.
-4.94207 -9.97618 0.
0.59202 1.07813 0.
-1.45968 -0.528057 0.
-677.746 -1003.31 0.
-0.00889935 -0.726117 0.
-7.00762 -15.0091 0.
-186.84 -406.211 0.
-53.4915 -132.321 0.
-15.2827 -40.1181 0.
-18.4381 -47.8588 0.
-2.17686 -6.00606 0.
-461.002 -241.643 0.
-546.29 -308.509 0.
-35.3879 -23.7572 0.
-27.8982 -13.3675 0.
-43.7775 -16.1003 0.
-66.4612 -24.512 0.
-55.3265 -21.1887 0.
-53.2343 -24.0443 0.
-56.9698 -29.6833 0.
-68.8155 -41.4547 0.
-62.8143 -51.159 0.
-60.1385 -48.5234 0.
-98.4906 -80.6422 0.
-282.95 -238.777 0.
-58.1698 -45.3331 0.
-79.5749 -62.9459 0.
-563.254 -775.698 0.
-446.579 -480.45 0.
-461.471 -676.068 0.
-412.489 -538.095 0.
-364.924 -398.704 0.
-569.842 -633.717 0.
-544.615 -594.326 0.
-520.059 -554.265 0.
-644.601 -600.616 0.
-624.804 -573.457 0.
-605.249 -546.056 0.
-1104.5 -1051.33 0.
-1079.69 -993.43 0.
-863.291 -589.681 0.
-863.402 -599.123 0.
-863.673 -608.406 0.
-982.646 -601.722 0.
-981.216 -602.489 0.
-980.103 -602.94 0.
-942.783 -740.07 0.
-1027.42 -935.811 0.
-1112.15 -1131.46 0.
-3.03294 -1.32605 0.
-2.08604 -0.789595 0.
-6605.73 -2385.91 0.
-0.493285 -0.0368659 0.
-0.352124 -0.0654119 0.
-1134.08 -1131.04 0.
-1051.75 -939.916 0.
-969.601 -748.605 0.
-990.132 -621.429 0.
-990.731 -617.084 0.
-991.785 -612.284 0.
-858.006 -604.792 0.
-858.208 -596.837 0.
-858.565 -588.727 0.
-1070.34 -983.874 0.
-1098.05 -1048.54 0.
-565.883 -504.806 0.
-600.57 -558.321 0.
-635.389 -611.704 0.
-489.765 -541.485 0.
-519.43 -586.88 0.
-548.026 -633.344 0.
-331.886 -215.965 0.
-402.54 -439.954 0.
-476.281 -660.857 0.
-279.819 -206.714 0.
-461.68 -628.079 0.
-81.0942 -89.1434 0.
-55.9987 -53.8986 0.
-41.531 -35.8858 0.
-25.5273 -21.75 0.
-19.4122 -19.1107 0.
-27.3024 -38.9331 0.
0.300641 0.317494 0.
-0.122667 -0.109405 0.
0.602803 0.526782 0.
-6.46763 -3.01506 0.
-4.30434 -1.88033 0.
-253.896 -138.557 0.
-206.032 -114.332 0.
-454.497 -212.467 0.
-0.643099 -0.00241574 0.
-2.09399 -0.00924064 0.
-2.17408 -0.0986758 0.
-500.947 -1029.51 0.
-0.0799207 -0.121896 0.
-28.3128 -41.3574 0.
-1607.79 -1767.13 0.
-0.0246253 -0.479153 0.
-2024.08 -3455.66 0.
-0.593211 -1.3962 0.
-1620.33 -2487.8 0.
-1295.72 -2052.46 0.
-0.250323 -1.24355 0.
-14.6357 -19.6872 0.
1.76189 4.4928 0.
-43.1901 -84.9841 0.
-1928.19 -3598.61 0.
-43.668 -85.3967 0.
-19.9329 -51.9872 0.
-21.6929 -54.4277 0.
-1950.58 -3522.46 0.
-1450.68 -1505.61 0.
0.113762 0.115776 0.
-2425.09 -4547.54 0.
-29.6818 -14.0253 0.
-95.9848 -80.9831 0.
-3689.06 -6247.04 0.
-43.5631 -19.5407 0.
-2946.33 -4534.25 0.
-20.7157 -11.4344 0.
-28.4084 -17.5346 0.
-3048 -6472.32 0.
-49.128 -26.6075 0.
-71.5382 -50.6043 0.
-1932.73 -4310.38 0.
-733.195 -1554.35 0.
-60.2199 -52.828 0.
-1337.73 -2660.07 0.
-890.062 -1743.19 0.
-977.088 -1890.3 0.
-738.546 -1390.1 0.
-517.408 -872.492 0.
-781.467 -1270.54 0.
-685.038 -1092.81 0.
-589.415 -914.271 0.
-785.031 -1011.01 0.
-745.797 -955.718 0.
-707.435 -899.556 0.
-1207.84 -1462.9 0.
-1186.54 -1413.22 0.
-921.591 -971.656 0.
-912.609 -959.25 0.
-904.227 -946.245 0.
-995.685 -982.059 0.
-1024.48 -1053.41 0.
-1053.61 -1124.43 0.
-1057.5 -1289.78 0.
-1150.63 -1521.51 0.
-1249.23 -1747.76 0.
-3.52238 -1.81581 0.
-2.99502 -1.36762 0.
-6849.81 -4090.81 0.
-0.0093561 -0.0102198 0.
0.166882 0.153465 0.
-1274.49 -1789.79 0.
-1170.04 -1544.07 0.
-1075.8 -1288.14 0.
-1059 -1117.34 0.
-1029.97 -1046.48 0.
-1001.08 -975.484 0.
-889.429 -942.157 0.
-902.791 -965.6 0.
-918.009 -987.188 0.
-1181.96 -1423.86 0.
-1208.48 -1485.72 0.
-669.026 -869.367 0.
-733.763 -981.588 0.
-799.724 -1092.59 0.
-553.359 -916.566 0.
-676.591 -1186.44 0.
-808.996 -1447.15 0.
-495.702 -793.347 0.
-757.908 -1484.52 0.
-1066.95 -2128.87 0.
-875.129 -1709.11 0.
-1501.93 -3130.19 0.
-29.6441 -42.5017 0.
-731.352 -1288.74 0.
-2377.26 -5121.35 0.
-16.6521 -26.8876 0.
-23.506 -32.598 0.
-2985.06 -6130.9 0.
-8.79549 -9.73851 0.
0.1626 0.193132 0.
-3071.98 -4426.04 0.
-19.9577 -10.2359 0.
-2860.58 -4902.79 0.
-2.89022 -1.71961 0.
-1137.42 -897.889 0.
-744.374 -1747.7 0.
0.0336302 0.0294249 0.
-1563.58 -3101.62 0.
1.13013 0.0981607 0.
0.281521 0.680707 0.
0.201524 0.458134 0.
-2.33815 -4.07673 0.
2.23352 4.37355 0.
0.0258103 0.942608 0.
-150.359 -273.686 0.
-0.295271 -3.78741 0.
-559.77 -860.835 0.
-541.274 -751.767 0.
3.52451 7.63298 0.
-1139.26 -1370.36 0.
1.72711 3.57931 0.
-1752.22 -2986.13 0.
-0.042625 -8.07263 0.
-22.0186 -12.2942 0.
-28.537 -74.3113 0.
-233.945 -640.21 0.
-495.878 -1023.65 0.
-144.712 -73.7338 0.
0.441761 0.480238 0.
0.116611 0.12027 0.
-3.48926 -1.95075 0.
-37.1549 -30.1833 0.
-62.7134 -66.6533 0.
-24.5512 -9.69905 0.
-120.827 -52.4155 0.
-15.3367 -9.20006 0.
-19.545 -13.4284 0.
-20.6405 -13.8652 0.
-30.7322 -23.6847 0.
-81.8452 -55.0035 0.
-433.089 -677.658 0.
-42.1512 -34.3676 0.
-42.6938 -36.6949 0.
-733.886 -1339.48 0.
-348.429 -359.017 0.
-644.328 -1188.82 0.
-442.953 -651.057 0.
-225.724 -129.149 0.
-610.799 -1033.36 0.
-526.613 -843.334 0.
-452.972 -642.76 0.
-717.923 -895.053 0.
-679.451 -838.995 0.
-641.754 -782.161 0.
-1117.72 -1424.24 0.
-1096.41 -1374.57 0.
-814.328 -855.935 0.
-805.522 -843.356 0.
-797.282 -830.211 0.
-869.779 -888.36 0.
-898.134 -960.169 0.
-926.804 -1031.66 0.
-925.815 -1202.06 0.
-1024.45 -1428.32 0.
-1123.28 -1654.4 0.
-2.75027 -1.65486 0.
-2.15524 -1.19512 0.
-6068.86 -3753.58 0.
0.143764 0.154614 0.
-0.158013 -0.14496 0.
-1145.83 -1688.86 0.
-1041.14 -1443.33 0.
-936.857 -1197.41 0.
-926.146 -1024.21 0.
-895.763 -954.693 0.
-866.583 -883.975 0.
-786.645 -816.383 0.
-800.751 -839.085 0.
-815.734 -860.91 0.
-1089.56 -1380.78 0.
-1120.32 -1438.42 0.
-592.821 -723.383 0.
-656.56 -836.623 0.
-721.471 -948.691 0.
-376.498 -496.324 0.
-480.58 -785.473 0.
-596.389 -1062.89 0.
-33.4498 -60.5201 0.
-361.561 -437.842 0.
-621.797 -1131.7 0.
-36.7826 -61.099 0.
-698.356 -1256.15 0.
-31.8877 -59.1264 0.
-30.3302 -54.4954 0.
-39.9539 -68.2439 0.
-3.72992 -6.24714 0.
-5.0073 -7.1968 0.
-17.8515 -24.3972 0.
-27.6054 -26.4811 0.
-14.8501 -15.6096 0.
-45.0908 -46.8617 0.
-20.1682 -11.4272 0.
-9.03446 -5.33405 0.
-44.3255 -20.8938 0.
-1240.1 -1301.53 0.
0.274898 0.470333 0.
-0.0012669 -0.0217586 0.
-1.44282 -3.99178 0.
-1276.13 -2282.86 0.
0.923631 0.120655 0.
-0.446497 -1.17214 0.
-3.75126 -6.55486 0.
-2202.77 -4538.44 0.
2.31941 6.30188 0.
-1801.36 -2874.42 0.
-1.00425 -1.97799 0.
-2028.5 -2721.08 0.
-1512.97 -1958.45 0.
0.891068 1.57123 0.
-1378.84 -2302.45 0.
2.84694 5.00009 0.
-7.2524 -14.9236 0.
-0.0399458 -2.75315 0.
-39.1636 -25.9267 0.
-1457.02 -2760.17 0.
-48.5363 -123.8 0.
-224.671 -470.164 0.
0.0102971 0.2306 0.
-6.78557 -6.20543 0.
-0.0057558 -0.00621156 0.
-6.24986 -2.87003 0.
-255.973 -290.077 0.
-1596.24 -3112.68 0.
-45.4513 -47.957 0.
-2531.1 -4302.46 0.
-20.0259 -19.6501 0.
-34.5265 -30.862 0.
-2775.17 -6066.92 0.
-27.7957 -23.1544 0.
-48.91 -33.4119 0.
-2442.72 -5100.44 0.
-258.764 -242.713 0.
-24.4203 -12.6548 0.
-1722.73 -3691.84 0.
-811.669 -1542.31 0.
-1146.84 -2200.94 0.
-746.95 -1353.08 0.
-376.154 -476.125 0.
-891.731 -1599.15 0.
-676.16 -1168.23 0.
-471.988 -725.9 0.
-748.109 -1033.21 0.
-627.567 -779.989 0.
-501.951 -531.839 0.
-957.786 -1249.33 0.
-930.666 -1199.15 0.
-678.36 -624.974 0.
-688.6 -655.44 0.
-699.051 -685.695 0.
-734.377 -765.954 0.
-747.952 -796.285 0.
-761.965 -826.178 0.
-707.295 -904.593 0.
-745.394 -986.546 0.
-783.751 -1068.24 0.
-0.682944 -0.218243 0.
0.250974 0.169887 0.
-5305.36 -3218.99 0.
0.123802 0.153605 0.
-0.948561 -1.02629 0.
-790.305 -1100.24 0.
-743.3 -999.346 0.
-696.362 -898.387 0.
-746.735 -822.117 0.
-736.041 -799.112 0.
-727.055 -774.399 0.
-688.665 -679.824 0.
-682.417 -660.973 0.
-676.631 -641.661 0.
-918.971 -1235.24 0.
-970.957 -1320.86 0.
-473.545 -534.134 0.
-630.071 -860.264 0.
-784.363 -1188.63 0.
-407.735 -620.996 0.
-690.788 -1293.34 0.
-994.503 -1945.03 0.
-317.175 -276.209 0.
-787.924 -1405.49 0.
-1314.64 -2478.8 0.
-727.481 -1251.74 0.
-1933.21 -4191.29 0.
-27.9427 -67.4728 0.
-22.2727 -49.7222 0.
-2876.03 -6235.89 0.
-5.06253 -9.93964 0.
-6.8391 -14.4416 0.
-2789.43 -3241.36 0.
-29.0461 -33.3164 0.
-3447.38 -6438.01 0.
-3.69315 -2.59009 0.
-4.96032 -3.57629 0.
-2576.43 -4540.74 0.
-187.845 -89.0151 0.
-1326.83 -1729.77 0.
0.640825 0.211097 0.
0.180303 0.499404 0.
0.0997987 0.253286 0.
-8.27239 -13.3622 0.
-1492.65 -2922.19 0.
-0.117904 -2.61186 0.
-0.190164 -8.67423 0.
-1.07729 -11.1358 0.
-1.19673 -8.64732 0.
3.44556 4.97383 0.
1.90457 3.51822 0.
-1227.77 -1727.29 0.
-1118.52 -1455.96 0.
1.54201 2.40661 0.
0.719648 1.39325 0.
3.60965 5.78764 0.
-1238.91 -2448.34 0.
2.47523 6.12997 0.
-70.5962 -65.3943 0.
-21.656 -22.5227 0.
-17.5832 -37.6591 0.
-556.289 -1192.03 0.
-22.019 -42.7917 0.
-2248.93 -3487.55 0.
-54.0417 -84.3084 0.
-2139.35 -3782.08 0.
-26.8635 -45.1911 0.
-131.33 -274.371 0.
-31.1621 -39.4615 0.
-66.859 -63.2295 0.
-17.5777 -17.0282 0.
-30.2576 -24.2825 0.
-25.5674 -26.988 0.
-15.1488 -13.1249 0.
-26.7943 -21.4816 0.
-46.5357 -33.004 0.
-12.4384 -9.88996 0.
-15.5312 -11.7465 0.
-648.98 -1114.54 0.
-41.6783 -17.7897 0.
-563.98 -872.986 0.
-127.871 -60.1115 0.
-56.1972 -26.6014 0.
-564.917 -987.513 0.
-378.285 -527.33 0.
-186.067 -72.7334 0.
-558.298 -821.496 0.
-441.941 -564.01 0.
-339.788 -303.57 0.
-814.424 -1125.6 0.
-778.876 -1083.84 0.
-549.194 -530.336 0.
-559.572 -560.671 0.
-570.036 -590.921 0.
-551.989 -643.568 0.
-566.167 -673.306 0.
-580.97 -702.419 0.
-489.073 -803.277 0.
-527.073 -885.348 0.
-565.262 -967.231 0.
0.0741234 0.0379791 0.
-0.213592 -0.116505 0.
-3505.08 -2442.94 0.
-0.0425255 -0.0207877 0.
-0.18373 -0.2177 0.
-549.979 -982.378 0.
-502.946 -881.488 0.
-456.074 -780.436 0.
-552.204 -688.281 0.
-540.587 -666.193 0.
-530.045 -643.031 0.
-547.727 -564.515 0.
-541.327 -545.81 0.
-535.37 -526.662 0.
-734.055 -1077.24 0.
-789.783 -1159.14 0.
-292.325 -216.505 0.
-419.624 -570.83 0.
-561.63 -911.608 0.
-38.4166 -35.3827 0.
-345.366 -427.413 0.
-600.629 -1128.15 0.
-23.843 -40.1036 0.
-22.1778 -43.1134 0.
-533.513 -605.914 0.
-11.6977 -29.5331 0.
-542.258 -650.936 0.
-25.8152 -58.4517 0.
-9.58091 -18.6718 0.
-8.32008 -14.1647 0.
-1.84146 -3.80874 0.
-3.67516 -8.19386 0.
-29.7789 -67.4238 0.
-15.0992 -19.7526 0.
-0.130948 -0.162592 0.
-4.63136 -3.12946 0.
-5.05579 -3.56272 0.
-48.8242 -25.1881 0.
-8.28935 -7.03611 0.
-507.867 -361.237 0.
-2409.1 -5319.13 0.
0.16004 0.435634 0.
-0.118515 -1.39863 0.
-71.324 -163.913 0.
-643.287 -1341.46 0.
-0.11459 -1.37633 0.
-0.0963319 -1.30711 0.
-97.8048 -202.263 0.
-2.47874 -9.48916 0.
-2022.6 -3132.39 0.
5.04047 7.78371 0.
-529.759 -705.488 0.
-777.703 -1086.72 0.
-74.0794 -94.4501 0.
-1331.9 -2599.77 0.
-1.01482 -5.67794 0.
4.81781 8.89643 0.
1.11423 2.62215 0.
8.21824 7.24723 0.
-76.5305 -123.086 0.
-12.8918 -25.686 0.
-9.04187 -22.2805 0.
-1247.62 -2292.07 0.
-87.5635 -109.661 0.
-63.4329 -89.8947 0.
-29.7823 -55.7311 0.
-22.6444 -41.3018 0.
-162.721 -395.896 0.
-112.133 -235.455 0.
-441.89 -346.932 0.
-24.123 -20.8018 0.
-38.5003 -27.5936 0.
-20.6552 -25.8348 0.
-9.68373 -9.35543 0.
-14.8503 -14.071 0.
-42.8689 -24.8093 0.
-12.3795 -7.46698 0.
-39.8531 -23.6155 0.
-61.1612 -24.3892 0.
-56.3456 -22.958 0.
-58.9355 -26.5894 0.
-58.8546 -28.8448 0.
-60.4348 -30.0845 0.
-299.868 -314.107 0.
-42.6814 -17.8849 0.
-63.597 -26.3019 0.
-383.741 -594.525 0.
-280.906 -323.44 0.
-213.586 -132.34 0.
-679.885 -993.044 0.
-645.442 -950.168 0.
-417.994 -437.731 0.
-430.307 -466.14 0.
-441.636 -495.532 0.
-371.789 -518.995 0.
-387.265 -547.444 0.
-403.208 -575.427 0.
-286.212 -686.6 0.
-313.12 -779.782 0.
-349.331 -863.661 0.
-0.212763 -0.0550923 0.
-0.488146 -0.212932 0.
-1976.95 -1786.45 0.
-0.12024 -0.113085 0.
-0.251243 -0.281432 0.
-328.004 -846.167 0.
-286.351 -739.87 0.
-256.943 -621.328 0.
-366.379 -545.738 0.
-353.469 -524.939 0.
-340.862 -503.837 0.
-407.339 -448.655 0.
-400.579 -430.303 0.
-392.577 -413.194 0.
-560.617 -907.759 0.
-614.282 -991.752 0.
-80.8651 -53.0684 0.
-272.503 -218.07 0.
-393.341 -580.144 0.
-49.8557 -40.2047 0.
-35.8182 -36.3349 0.
-296.086 -221.944 0.
-37.9641 -45.4987 0.
-32.3487 -52.5448 0.
-41.4024 -65.9429 0.
-6.80671 -18.716 0.
-15.5513 -42.3924 0.
-28.8918 -61.8707 0.
-4.41232 -8.33977 0.
-0.695822 -1.23232 0.
-4.26824 -9.51025 0.
-6.47421 -15.5994 0.
-44.6598 -112.871 0.
-12.392 -17.0477 0.
0.305464 0.404969 0.
-4.93304 -3.23583 0.
-6.31512 -4.26871 0.
-70.3846 -33.0938 0.
-2.08852 -2.11167 0.
-3.16137 -3.14749 0.
-5.08896 -14.0792 0.
-5.70977 -14.6695 0.
-0.223703 -1.74477 0.
-98.6701 -249.254 0.
0.0540855 4.12715 0.
-996.857 -1758.37 0.
4.95913 10.6011 0.
-1467.02 -2781.64 0.
-1.09538 -3.02017 0.
-2.63083 -10.8527 0.
-6.1015 -18.227 0.
27.0723 37.0077 0.
-359.866 -521.367 0.
-4.83503 -17.005 0.
-26.2266 -50.4591 0.
2.76186 5.08467 0.
-1143.77 -2166.74 0.
-0.99721 -7.70582 0.
0.392052 4.13291 0.
-938.837 -1935.28 0.
-9.68037 -18.2188 0.
-528.147 -1176.24 0.
-65.9591 -126.165 0.
-22.6622 -47.5351 0.
-73.5229 -96.1008 0.
-26.8472 -53.8847 0.
-1750.01 -3114.02 0.
-1489.86 -2134.9 0.
-58.6323 -68.6953 0.
-0.53257 -0.193559 0.
-3327.4 -6673.11 0.
-3.00178 -2.51533 0.
-2371.89 -3260.7 0.
-30.2448 -34.4274 0.
-49.1533 -55.7971 0.
-2517.44 -5435.99 0.
-19.4143 -12.6407 0.
-2.26998 -2.9174 0.
-2268.55 -5215.42 0.
-287.38 -188.007 0.
-1638.75 -3225.4 0.
-779.744 -1271.97 0.
-28.2953 -22.7043 0.
-1152.83 -2540.57 0.
-662.035 -1380.32 0.
-209.37 -181.945 0.
-812.223 -1786.28 0.
-574.023 -1206.37 0.
-354.674 -607.603 0.
-826.305 -1706.81 0.
-748.412 -1548.31 0.
-528.271 -1060.06 0.
-507.518 -1011.12 0.
-487.419 -961.516 0.
-391.858 -989.06 0.
-437.175 -1095.7 0.
-484.264 -1200.56 0.
-408.961 -1123.2 0.
-462.488 -1248.15 0.
-525.854 -1363.27 0.
-0.498105 -0.950199 0.
-1.03815 -2.21929 0.
-1732.21 -3153.9 0.
-2.63023 -4.05201 0.
-0.11961 -0.184158 0.
-492.554 -1289.38 0.
-448.1 -1208.75 0.
-411.446 -1120.32 0.
-466.54 -1213.87 0.
-416.972 -1113.12 0.
-373.813 -1005.97 0.
-453.735 -969.347 0.
-492.24 -1061.47 0.
-533.008 -1151.32 0.
-737.043 -1549.33 0.
-842.002 -1770.59 0.
-333.27 -443.129 0.
-619.839 -1273.19 0.
-940.738 -2068.92 0.
-27.1043 -46.0135 0.
-694.761 -1397.35 0.
-1364.13 -2987.78 0.
-38.9017 -66.5787 0.
-798.03 -1077.04 0.
-1895.76 -3615.67 0.
-17.3945 -48.1459 0.
-2378.87 -5091.8 0.
-34.0796 -78.2828 0.
-21.3163 -52.6242 0.
-2658.15 -5831.76 0.
-13.661 -37.5433 0.
-7.42216 -20.5486 0.
-2616.52 -4152.49 0.
-30.5297 -47.889 0.
-1965.89 -3124.16 0.
-31.6133 -63.8692 0.
-2010.05 -4166.4 0.
0.599228 0.76723 0.
0.384203 0.45288 0.
-0.182185 -1.52574 0.
-10.6556 -29.1966 0.
-0.621397 -1.50371 0.
-2010.78 -3514.69 0.
-253.403 -553.471 0.
4.06974 11.0417 0.
-173.054 -392.497 0.
5.45909 13.2488 0.
6.71485 12.0223 0.
3.31203 5.25976 0.
-2069.24 -3552.89 0.
3.99476 5.58784 0.
34.6559 61.7181 0.
-34.6585 -68.3808 0.
11.6361 17.2256 0.
-1340.68 -2240.11 0.
-1.75659 -14.5372 0.
-586.402 -1354.64 0.
4.048 7.75514 0.
-1371.12 -2692.81 0.
-0.00370127 -3.65179 0.
-0.98103 -1.26447 0.
-140.243 -376.891 0.
-99.4594 -189.868 0.
-33.1964 -61.2909 0.
-1471.03 -2841.58 0.
-225.663 -324.042 0.
-42.2498 -32.7758 0.
-29.2042 -30.5233 0.
-11.6365 -4.41095 0.
-0.0903492 -0.00427181 0.
-0.504879 -0.20696 0.
0.218283 0.185145 0.
-5.30758 -6.71701 0.
0.17581 0.181261 0.
-8.99182 -9.30597 0.
-43.4407 -49.767 0.
-0.0347269 -0.0362204 0.
-0.551274 -0.839431 0.
-45.1007 -19.0151 0.
-15.4649 -7.55423 0.
-347.68 -282.165 0.
-19.4957 -11.5786 0.
-28.1734 -23.0924 0.
-547.549 -1098.77 0.
-31.9002 -24.0041 0.
-29.023 -34.1849 0.
-533.89 -1205.11 0.
-320.112 -600.404 0.
-75.4392 -45.7698 0.
-617.467 -1378.22 0.
-547.485 -1211.75 0.
-366.203 -871.832 0.
-344.451 -823.876 0.
-332.11 -766.507 0.
-287.465 -762.008 0.
-326.854 -874.602 0.
-371.194 -982.245 0.
-259.108 -713.541 0.
-306.57 -844.61 0.
-362.304 -967.407 0.
-114.56 -229.228 0.
-225.19 -549.178 0.
-1054.72 -2807.93 0.
-238.092 -607.306 0.
-117.313 -271.879 0.
-337.383 -910.107 0.
-298.215 -824.164 0.
-266.345 -730.922 0.
-356.148 -943.548 0.
-311.286 -838.07 0.
-271.877 -727.139 0.
-301.149 -705.123 0.
-327.591 -809.331 0.
-362.895 -904.677 0.
-510.575 -1111.38 0.
-599.356 -1348.93 0.
-30.5293 -43.1764 0.
-310.281 -437.016 0.
-595.828 -1268.76 0.
-23.5067 -40.7018 0.
-25.5291 -44.6694 0.
-540.826 -989.642 0.
-60.7681 -89.3891 0.
-40.4694 -62.6317 0.
-49.5817 -88.1439 0.
-16.7659 -44.1881 0.
-25.9226 -71.7038 0.
-28.4638 -68.9791 0.
-28.1464 -70.7613 0.
-35.4915 -91.3839 0.
-20.744 -52.0411 0.
-9.25486 -25.4728 0.
-5.07933 -14.0483 0.
-52.6083 -67.0948 0.
-32.6424 -46.6254 0.
-0.812925 -2.06713 0.
-44.1512 -108.365 0.
-12.2798 -22.0762 0.
-1694.39 -2386.6 0.
-961.799 -1959.24 0.
-18.3157 -48.9679 0.
-0.412179 -4.49242 0.
0.954429 2.11041 0.
-471.973 -876.294 0.
1.63607 4.0819 0.
-182.741 -396.248 0.
5.46339 12.2848 0.
-1233.31 -2171.75 0.
-3.93247 -6.33982 0.
-5.05925 -16.7348 0.
11.8348 19.2105 0.
-71.2204 -67.164 0.
10.5086 123.327 0.
-0.938479 -1.45104 0.
-29.7926 -39.6893 0.
5.71123 11.9056 0.
-1.04081 -8.09788 0.
5.23589 10.048 0.
-350.478 -667.686 0.
0.0422242 4.21116 0.
-0.5711 -0.571766 0.
-1135.27 -2553.3 0.
-53.087 -130.713 0.
-43.8073 -72.1759 0.
-107.597 -114.321 0.
-12.3156 -4.76172 0.
-0.938594 -0.403935 0.
-15.28 -15.9469 0.
-16.4634 -7.45433 0.
-0.0524412 -0.0131421 0.
-0.287407 -0.122999 0.
-103.917 -140.959 0.
-1976.42 -3468.79 0.
-2.56434 -7.10102 0.
-3.06122 -8.33524 0.
-2235.26 -5061.12 0.
-1.7156 -3.0478 0.
-1.20859 -1.76901 0.
-2296.63 -5009.91 0.
-7.006 -14.9322 0.
-1748.86 -3479.2 0.
-528.547 -599.82 0.
-28.2428 -19.0281 0.
-1405.53 -3216.03 0.
-578.777 -1203.99 0.
-25.5702 -15.9051 0.
-930.537 -2205.32 0.
-535.009 -1238.44 0.
-170.971 -240.068 0.
-740.145 -1706.99 0.
-581.996 -1379.2 0.
-427.373 -1072.34 0.
-379.029 -991.806 0.
-342.347 -899.61 0.
-328.734 -869.862 0.
-348.658 -934.992 0.
-375.884 -992.82 0.
-234.038 -634.542 0.
-201.876 -542.622 0.
-169.252 -451.165 0.
-52.1481 -115.991 0.
-38.3411 -86.6492 0.
-779.216 -1674.92 0.
-50.1279 -128.631 0.
-59.3945 -148.882 0.
-155.415 -416.102 0.
-202.397 -544.223 0.
-248.557 -673.166 0.
-359.854 -958.274 0.
-351.236 -944.997 0.
-350.396 -923.942 0.
-346.083 -923.094 0.
-401.489 -1068.84 0.
-476.739 -1194.74 0.
-594.398 -1426.28 0.
-814.954 -1931.9 0.
-112.719 -89.5136 0.
-589.216 -1306.92 0.
-1073.14 -2516.9 0.
-21.7942 -32.0233 0.
-527.869 -1052.61 0.
-1679.12 -3907.18 0.
-85.5213 -114.069 0.
-359.45 -243.008 0.
-1969.02 -3445.8 0.
-13.762 -34.1892 0.
-2449.71 -5567.69 0.
-166.583 -262.712 0.
-14.0074 -38.6909 0.
-2002.3 -2241.91 0.
-15.8023 -40.9295 0.
-2434.05 -6108.56 0.
-305.723 -409.894 0.
-158.715 -151.306 0.
-145.686 -119.631 0.
-0.0475693 -1.29502 0.
-16.4609 -44.6116 0.
1.75167 3.19853 0.
0.431247 0.588326 0.
-66.2767 -171.481 0.
-294.714 -816.082 0.
-0.522814 -4.31193 0.
-1.61913 -3.42193 0.
-1.74489 -24.4949 0.
-1106.76 -2598.24 0.
-1251.7 -2549.9 0.
0.269702 0.564341 0.
-1.62732 -5.77985 0.
11.9563 23.1263 0.
14.9249 27.1824 0.
-896.087 -1469.33 0.
-30.5916 -90.453 0.
14.1941 28.5209 0.
-811.662 -1179.6 0.
-2.33864 -14.8323 0.
2.28781 4.77775 0.
2.05343 4.1025 0.
-94.8806 -187.607 0.
-1281.65 -2294.97 0.
0.227617 6.56953 0.
-426.63 -1017.22 0.
-0.326635 -14.4343 0.
-72.8801 -147.652 0.
-804.758 -1593.36 0.
-139.402 -166.627 0.
-57.8301 -32.7167 0.
0.160727 0.0792846 0.
0.3403 0.325089 0.
-1803.38 -3779.36 0.
-30.1244 -13.9445 0.
-1652.29 -3713.41 0.
-0.0693731 -0.108705 0.
-35.17 -81.0631 0.
-2.96137 -7.98082 0.
-3.79231 -9.77002 0.
-36.1159 -49.6426 0.
-3.83867 -8.71857 0.
-7.26759 -17.4301 0.
-26.4307 -39.859 0.
-7.19489 -17.1548 0.
-14.9816 -20.5613 0.
-14.7291 -14.483 0.
-30.4031 -18.6016 0.
-417.498 -804.702 0.
-16.721 -8.37582 0.
-8.10691 -3.60641 0.
-495.943 -1180.53 0.
-133.445 -179.581 0.
-30.7316 -26.757 0.
-436.003 -1085.79 0.
-296.536 -739.086 0.
-272.828 -702.314 0.
-230.712 -615.518 0.
-199.377 -517.94 0.
-221.654 -570.733 0.
-239.954 -637.507 0.
-263.735 -698.8 0.
-235.796 -625.081 0.
-203.705 -533.089 0.
-171 -441.711 0.
-164.815 -409.304 0.
-147.806 -383.174 0.
-401.22 -1108.42 0.
-152.88 -402.968 0.
-164.464 -420.898 0.
-146.797 -391.719 0.
-194.135 -519.488 0.
-240.57 -648.162 0.
-232.638 -626.369 0.
-227.312 -609.794 0.
-226.05 -589.157 0.
-176.911 -460.798 0.
-229.15 -609.775 0.
-292.339 -747.804 0.
-241.864 -641.636 0.
-446.343 -1163.76 0.
-28.376 -33.3468 0.
-28.25 -33.8281 0.
-507.179 -1130.86 0.
-21.9541 -27.0086 0.
-27.246 -33.9217 0.
-361.458 -669.443 0.
-19.4522 -46.9486 0.
-18.2666 -41.5592 0.
-26.08 -55.8509 0.
-14.7385 -29.7453 0.
-21.3147 -43.5912 0.
-7.77373 -19.9522 0.
-9.57404 -25.1339 0.
-20.7827 -57.5613 0.
-5.98925 -15.5823 0.
-4.89736 -11.5601 0.
-0.0579458 -0.369334 0.
-51.4803 -98.0035 0.
-1341.65 -1718.67 0.
-1499.66 -2873.37 0.
-83.4529 -221.521 0.
2.30937 4.26632 0.
-0.43128 -0.934163 0.
-104.023 -283.354 0.
-780.421 -1835.93 0.
-0.734655 -4.94035 0.
-1.315 -2.6758 0.
5.11675 11.7032 0.
-0.838903 -16.2665 0.
-16.413 -36.3716 0.
2.45395 4.56288 0.
2.4519 4.22398 0.
4.53497 8.30433 0.
22.4203 35.2311 0.
30.5077 44.5771 0.
-6.10309 -30.2431 0.
-27.5132 -66.5323 0.
-827.312 -1116.13 0.
4.56039 7.86735 0.
4.54916 8.55905 0.
3.04481 7.30263 0.
-0.761416 -20.2747 0.
3.73733 7.45431 0.
0.547485 8.26592 0.
-7.37792 -16.4745 0.
-0.138219 -17.9855 0.
-128.647 -250.352 0.
-562.372 -1185.25 0.
-145.501 -393.262 0.
-99.5724 -73.3861 0.
-1162.12 -1817.71 0.
0.214404 0.0700586 0.
-19.6791 -9.24023 0.
-81.1082 -35.2292 0.
-0.740547 -0.965789 0.
0.656995 0.949459 0.
0.462309 0.91576 0.
-4.04887 -8.54992 0.
-6.66165 -14.8971 0.
-29.2763 -46.015 0.
-9.49281 -25.2813 0.
-13.6458 -34.3276 0.
-10.6443 -27.2476 0.
-13.8869 -27.2751 0.
-16.8369 -21.2457 0.
-20.2975 -16.3196 0.
-44.2455 -26.1981 0.
-12.213 -7.12499 0.
-0.0321941 -0.0585082 0.
-3.57492 -1.98416 0.
-107.311 -109.775 0.
-16.4692 -6.5898 0.
-26.7998 -17.6318 0.
-180.709 -415.743 0.
-76.1382 -149.36 0.
-132.766 -317.806 0.
-92.5314 -229.094 0.
-81.0095 -200.73 0.
-115.947 -270.232 0.
-134.88 -336.392 0.
-156.039 -400.328 0.
-238.307 -614.867 0.
-206.217 -522.872 0.
-173.351 -431.654 0.
-275.134 -704.964 0.
-254.318 -682.652 0.
-377.116 -1044.05 0.
-253.227 -679.71 0.
-268.829 -693.619 0.
-151.824 -399.617 0.
-187.097 -493.53 0.
-233.33 -622.41 0.
-115.07 -310.478 0.
-104.127 -273.852 0.
-101.86 -254.214 0.
-45.2763 -87.2698 0.
-66.5283 -143.648 0.
-126.091 -282.713 0.
-18.4255 -27.9154 0.
-135.761 -337.591 0.
-24.6319 -29.1633 0.
-25.4037 -28.9842 0.
-25.8403 -28.6663 0.
-23.1309 -25.1162 0.
-28.9368 -32.0889 0.
-33.8691 -41.7138 0.
-7.01561 -19.3634 0.
-9.57286 -26.4643 0.
-15.6421 -42.8395 0.
-34.6666 -52.4221 0.
-37.5629 -59.0108 0.
-5.78552 -12.2852 0.
-6.22284 -13.3674 0.
-15.8584 -41.4374 0.
-0.0127016 -0.599616 0.
-0.0306683 -0.512456 0.
-0.0114943 -0.961778 0.
-12.1099 -28.6616 0.
-0.00511153 -2.45302 0.
-392.641 -914.423 0.
-6.14749 -12.4328 0.
-1689.73 -3107.67 0.
-0.301445 -3.52182 0.
-149.542 -413.021 0.
0.19508 0.449013 0.
0.00447025 16.1605 0.
-1208.86 -2352.23 0.
-802.461 -1777.81 0.
10.0341 23.7951 0.
-892.365 -1891.76 0.
-297.717 -547.078 0.
-0.824872 -1.43042 0.
-7.23718 -30.6836 0.
-7.97308 -39.6757 0.
-585.875 -786.935 0.
30.7149 61.5966 0.
-0.920232 -4.21505 0.
63.3901 97.5515 0.
27.8252 49.985 0.
-10.2403 -17.4438 0.
1.53217 3.52328 0.
1.67981 3.68121 0.
1.74319 3.48156 0.
-0.26364 -2.44645 0.
-12.4554 -26.009 0.
-0.797363 -16.106 0.
-235.029 -458.703 0.
7.33549 20.2301 0.
-119.883 -331.744 0.
-894.453 -1614.76 0.
-1.45362 -2.68054 0.
-0.528628 -0.0784384 0.
-61.6036 -27.8542 0.
-151.661 -67.9145 0.
1.24813 1.57882 0.
-1536.07 -2972.47 0.
-0.186641 -0.740709 0.
-2208.51 -3197.57 0.
-0.0756029 -0.0020328 0.
-1758.19 -3444.94 0.
-0.306533 -0.00106409 0.
-0.490693 -0.00119352 0.
-2100.9 -4956.37 0.
-0.166305 -0.00167897 0.
-2004.04 -3253.18 0.
-73.6145 -66.5695 0.
-14.8204 -5.99479 0.
-1865.16 -4620.6 0.
-190.167 -266.105 0.
-13.9933 -25.9662 0.
-1196.34 -3029.54 0.
-469.552 -1187.27 0.
-37.4467 -39.1942 0.
-834.656 -2168.81 0.
-506.988 -1349.13 0.
-562.138 -1478.92 0.
-434.511 -1185.32 0.
-320.237 -878.362 0.
-425.484 -1143.35 0.
-350.454 -949.898 0.
-277.596 -754.268 0.
-385.093 -1035.36 0.
-273.48 -718.004 0.
-160.051 -402.461 0.
-306.268 -804.489 0.
-299.911 -817.082 0.
-347.539 -961.932 0.
-290.94 -791.798 0.
-291.571 -776.144 0.
-128.202 -335.2 0.
-272.465 -729.173 0.
-412.831 -1127.04 0.
-256.916 -710.351 0.
-360.826 -991.402 0.
-467.43 -1269.76 0.
-315.974 -842.708 0.
-467.008 -1241.71 0.
-633.673 -1625.09 0.
-479.253 -1307.71 0.
-925.71 -2445.54 0.
-32.8429 -54.9796 0.
-397.218 -924.536 0.
-1399.2 -3437.07 0.
-34.7299 -42.1869 0.
-36.5123 -46.0314 0.
-2056.52 -5103.27 0.
-23.1849 -42.0035 0.
-28.8002 -52.9544 0.
-2141.9 -3214.49 0.
-44.6026 -94.4693 0.
-2210.99 -5219.29 0.
-16.3868 -42.8533 0.
-17.6566 -48.9056 0.
-1763.03 -2856.38 0.
-20.8593 -50.2069 0.
-1725.95 -3966.79 0.
-3.88524 -9.26131 0.
0.0340984 0.0901915 0.
-0.00598281 -1.46438 0.
0.855859 2.28871 0.
-1.0093 -2.07295 0.
-37.42 -67.4722 0.
-527.6 -1252.78 0.
-366.785 -1014.13 0.
-22.385 -50.955 0.
-256.595 -579.549 0.
11.7587 30.0622 0.
-71.0564 -162.572 0.
9.02229 22.1257 0.
-3.13538 -6.03981 0.
-0.902317 -1.8775 0.
9.80167 20.7194 0.
-1425.74 -2339.37 0.
13.5305 24.1581 0.
-1324.18 -1828.37 0.
5.98903 11.5135 0.
-3.13101 -3.12911 0.
49.9012 75.5495 0.
-18.8161 -59.3798 0.
-959.267 -1450.57 0.
-0.263294 -3.29358 0.
-886.106 -1741.46 0.
5.1038 10.1798 0.
6.49155 13.4672 0.
-1028.34 -1984.7 0.
-597.104 -1351.3 0.
5.74082 13.8963 0.
0.0185417 1.17077 0.
-130.694 -361.802 0.
-755.564 -1527.41 0.
-0.312513 -1.19063 0.
-132.924 -69.1398 0.
-531.862 -345.013 0.
-1795.76 -3569.02 0.
-19.6772 -13.2623 0.
-30.5514 -66.177 0.
0.0202102 0.0838956 0.
0.195682 0.00923152 0.
0.303664 0.0360985 0.
-20.8819 -11.7568 0.
0.245962 0.000304949 0.
-0.631288 -0.00220642 0.
-0.610093 -0.0453232 0.
-9.09544 -4.31834 0.
-4.6665 -7.88875 0.
-0.0989946 -0.0922746 0.
-0.0418982 -0.0214466 0.
-7.24303 -5.08463 0.
-7.90232 -8.41756 0.
-12.5115 -21.6907 0.
-390.35 -908.324 0.
-20.3925 -9.4107 0.
-25.2972 -10.7025 0.
-445.467 -1176.09 0.
-129.058 -344.334 0.
-313.521 -812.954 0.
-193.023 -512.024 0.
-94.9007 -247.469 0.
-310.207 -839.216 0.
-236.584 -644.294 0.
-164.221 -448.113 0.
-381.479 -1038.19 0.
-269.746 -720.947 0.
-165.464 -426.538 0.
-357.175 -952.261 0.
-350.177 -965.495 0.
-358.831 -993.491 0.
-333.729 -911.141 0.
-335.371 -894.479 0.
-130.117 -346.847 0.
-262.136 -713.221 0.
-402.798 -1110.8 0.
-122.096 -337.701 0.
-220.414 -604.831 0.
-325.311 -885.001 0.
-59.3946 -135.077 0.
-163.718 -414.062 0.
-322.345 -805.797 0.
-23.9458 -38.06 0.
-446.931 -1179.82 0.
-24.1697 -39.273 0.
-22.4023 -29.7173 0.
-240.036 -475.176 0.
-33.0974 -35.7298 0.
-31.6869 -27.2606 0.
-37.9788 -33.6449 0.
-30.8996 -33.3449 0.
-35.2613 -43.1423 0.
-68.0873 -141.616 0.
-23.6267 -50.8771 0.
-40.8796 -99.5568 0.
-0.0756553 -0.112937 0.
-6.36056 -13.8088 0.
-32.0191 -87.3115 0.
-0.00460186 -1.16952 0.
-20.8048 -52.4131 0.
0.32498 0.809812 0.
-1862.47 -3832.37 0.
-0.182302 -4.87698 0.
-0.0610487 -6.5934 0.
2.93243 6.0704 0.
-6.2527 -11.4192 0.
-115.812 -250.027 0.
-0.000634141 -21.9335 0.
-912.598 -2042.1 0.
-496.872 -1106.73 0.
3.38949 8.43788 0.
-99.834 -223.2 0.
-1.77857 -23.9458 0.
-1.55056 -2.99461 0.
10.7597 20.3173 0.
4.25379 8.56885 0.
-3.66814 -6.10705 0.
27.7695 45.2704 0.
-35.382 -107.173 0.
10.975 19.7776 0.
-13.3144 -5.16296 0.
-18.0509 -31.6986 0.
-22.4301 -69.5932 0.
-13.0295 -52.5293 0.
-2.80184 -22.8288 0.
13.6072 26.8954 0.
0.0620264 17.0338 0.
12.7657 29.0209 0.
-5.03787 -10.0249 0.
-2.39072 -32.8134 0.
-48.649 -115.562 0.
4.79088 11.7973 0.
-230.583 -629.759 0.
0.248171 11.7207 0.
0.0275395 0.244335 0.
-305.57 -136.198 0.
-442.734 -670.5 0.
0.192807 0.221837 0.
0.000569849 0.320599 0.
-35.7772 -89.805 0.
0.00138292 0.00644475 0.
0.0687729 0.0203236 0.
0.150794 0.0448505 0.
-16.3459 -6.68338 0.
-1042.33 -2184.43 0.
-3.0977 -1.41401 0.
-1519.64 -3358.09 0.
-15.2461 -12.1472 0.
-1736.16 -2978.29 0.
-5.5139 -9.98618 0.
-1.812 -4.00045 0.
-1854.51 -4692.85 0.
-5.74755 -4.95284 0.
-34.6857 -67.9494 0.
-1451.01 -3522.39 0.
-285.64 -657.865 0.
-36.4438 -41.6554 0.
-998.633 -2587.17 0.
-449.855 -1202.45 0.
-632.014 -1610.72 0.
-401.529 -1048.1 0.
-180.389 -476.125 0.
-469.114 -1226.96 0.
-293.796 -772.038 0.
-119.495 -316.098 0.
-383.289 -1005.92 0.
-237.896 -609.661 0.
-89.2615 -216.644 0.
-272.755 -753.902 0.
-220.795 -611.539 0.
-216.672 -564.068 0.
-207.461 -564.343 0.
-269.599 -730.91 0.
-69.7957 -179.312 0.
-246.854 -642.021 0.
-418.205 -1110.44 0.
-70.7282 -189.696 0.
-308.093 -810.286 0.
-546.042 -1430.29 0.
-149.918 -390.503 0.
-424.273 -1077.93 0.
-711.135 -1752.86 0.
-400.028 -1049.73 0.
-1124.9 -2899.18 0.
-20.8598 -27.9734 0.
-35.5392 -81.2264 0.
-1607.63 -4121.74 0.
-33.5305 -33.8472 0.
-16.1945 -17.3101 0.
-1542.86 -3377.81 0.
-28.4885 -39.2155 0.
-1810.25 -3174.22 0.
-206.235 -541.005 0.
-24.6441 -62.3973 0.
-1050.38 -2566 0.
-110.108 -235.367 0.
-0.0819782 -0.242909 0.
-28.4817 -71.5852 0.
0.649194 1.79141 0.
-0.0455433 -0.123824 0.
-0.0539026 -1.46328 0.
1.87693 4.03701 0.
1.57948 4.09393 0.
-1234.89 -2830.09 0.
-0.798851 -5.44332 0.
6.32834 17.504 0.
-121.517 -253.497 0.
9.18026 25.1057 0.
2.95554 7.37555 0.
-594.519 -1486.03 0.
-1.46952 -23.346 0.
-1120.42 -2426.66 0.
14.3472 32.5599 0.
-77.0641 -148.344 0.
-1881.66 -3281.32 0.
20.4727 46.3074 0.
-514.796 -818.514 0.
15.8924 24.4568 0.
-824.163 -1349.48 0.
2.74805 4.68943 0.
4.24521 2.01625 0.
-1024.65 -1947.19 0.
1.55631 2.37221 0.
-1514.52 -2643.44 0.
1.55732 3.13529 0.
-1.49397 -2.78849 0.
-0.749227 -23.5526 0.
6.99583 14.3981 0.
-1076.96 -2093.27 0.
5.21597 11.7107 0.
-832.641 -1934.25 0.
-962.263 -2188.52 0.
2.04411 5.07119 0.
-0.000589819 -0.631721 0.
0.0713955 1.69895 0.
-443.431 -1123.66 0.
-110.806 -229.932 0.
0.824113 1.62487 0.
0.0252435 1.75273 0.
-48.268 -106.396 0.
-60.6135 -76.7113 0.
-1541.07 -3179.06 0.
0.33182 0.390775 0.
-817.692 -1700.27 0.
-0.0595659 -0.0183053 0.
0.272781 0.164736 0.
-0.032633 -0.0269723 0.
-0.285313 -0.220264 0.
-22.305 -51.1119 0.
-6.07714 -10.8295 0.
-5.554 -13.0013 0.
-6.67771 -11.9175 0.
-1.41889 -0.74415 0.
-12.452 -16.7026 0.
-90.8304 -217.474 0.
-0.0289507 -0.0178992 0.
-8.65793 -5.2884 0.
-432.386 -1124.49 0.
-12.2154 -32.0249 0.
-316.847 -806.406 0.
-91.4244 -238.259 0.
-34.5922 -89.6234 0.
-321.501 -848.309 0.
-148.5 -390.897 0.
-6.60112 -13.4867 0.
-318.742 -862.232 0.
-174.331 -464.933 0.
-36.7913 -97.494 0.
-253.62 -670.77 0.
-217.805 -573.506 0.
-88.4702 -229.431 0.
-198.766 -532.406 0.
-237.769 -635.116 0.
-34.4948 -92.5596 0.
-165.562 -438.737 0.
-335.046 -909.12 0.
0.0300166 0.0826905 0.
-112.579 -298.218 0.
-347.226 -921.843 0.
-33.3342 -85.485 0.
-8.71368 -16.0855 0.
-288.163 -699.159 0.
-25.7963 -51.9038 0.
-400.863 -1032.36 0.
-10.9473 -9.27367 0.
-14.9887 -9.59974 0.
-36.1869 -81.8266 0.
-6.41742 -3.71142 0.
-8.69434 -14.1573 0.
-18.6788 -37.5007 0.
-15.1883 -34.2695 0.
-317.854 -847.612 0.
-1.90957 -5.05225 0.
-19.9808 -55.2833 0.
-55.5894 -153.971 0.
-0.0805112 -1.50404 0.
-1806.79 -3752.35 0.
0.0373839 2.99433 0.
0.0982528 0.533737 0.
-1458.29 -2316.45 0.
-0.180845 -5.86456 0.
-0.389299 -3.78108 0.
-0.21886 -9.19235 0.
1.60081 3.49795 0.
-1053.38 -1987.36 0.
-0.0431136 -5.0212 0.
-762.174 -1654.17 0.
-786.674 -2006.23 0.
1.27858 3.14058 0.
-125.306 -306.128 0.
-1.25488 -19.9721 0.
19.3209 43.5502 0.
-139.125 -286.173 0.
15.9864 38.0013 0.
-1.64603 -3.04401 0.
-2.63427 -16.1888 0.
-14.5056 -27.1707 0.
-12.1839 -18.0422 0.
-403.927 -681.15 0.
-195.847 -316.126 0.
9.47303 4.46429 0.
-180.067 -348.609 0.
63.5362 108.091 0.
35.4716 64.8528 0.
10.7565 21.4521 0.
-1200.73 -2172.94 0.
17.77 42.0863 0.
-1231.86 -2428.8 0.
-2.195 -27.0813 0.
-1.24279 -2.65176 0.
7.62591 17.4441 0.
8.56314 22.1206 0.
1.35523 3.34849 0.
1.56225 4.15524 0.
0.00677225 0.731796 0.
-0.325209 -0.818104 0.
0.262245 0.625775 0.
-1.39725 -3.24486 0.
-1213.15 -2163.66 0.
-1229.94 -1859.61 0.
-0.0403318 -0.15 0.
-0.319661 -0.138312 0.
0.802854 0.1057 0.
0.632476 0.13216 0.
0.0675629 0.0366266 0.
-0.0923492 -0.0636687 0.
-0.278672 -0.263497 0.
-0.0892334 -0.0802848 0.
-0.0948752 -0.0802076 0.
-10.7715 -17.5838 0.
-13.4499 -18.489 0.
-9.36086 -12.8138 0.
-4.30426 -1.5923 0.
-14.2554 -9.89425 0.
-0.0822462 -0.0513406 0.
-0.145273 -0.118623 0.
-0.8667 -2.0206 0.
0.225475 0.123075 0.
-3.27093 -1.62856 0.
-1.75147 -2.02085 0.
-0.278451 -0.00811715 0.
-18.2603 -48.7526 0.
-179.455 -464.092 0.
-29.2718 -64.1542 0.
-7.63143 -3.30026 0.
-270.905 -747.458 0.
-146.163 -401.438 0.
-21.6226 -59.5201 0.
-309.307 -687.422 0.
-277.036 -608.863 0.
-33.9177 -70.0599 0.
-233.662 -621.103 0.
-258.508 -681.092 0.
-17.1115 -46.599 0.
-122.268 -332.679 0.
-272.942 -752.052 0.
0.00279877 0.0625646 0.
0.0465282 0.108075 0.
-153.85 -407.953 0.
-17.4135 -44.6336 0.
-0.216246 -0.58793 0.
0.044836 0.000226167 0.
-17.7271 -34.3626 0.
-10.1598 -15.2415 0.
-13.6088 -11.185 0.
-5.88548 -3.7243 0.
-12.4119 -4.48179 0.
-1.94143 -1.47543 0.
-5.34931 -8.96142 0.
-13.0638 -34.7915 0.
-22.8913 -36.1742 0.
-49.1476 -82.1653 0.
0.162109 0.407021 0.
-23.8206 -62.2739 0.
-60.673 -161.297 0.
1.50103 3.66944 0.
-0.862805 -3.12043 0.
0.985523 2.66063 0.
0.0480331 0.560397 0.
-0.122962 -6.56288 0.
-1347.51 -3247 0.
4.75714 12.9419 0.
-0.0653961 -3.06033 0.
6.23236 14.1441 0.
-695.717 -1357.23 0.
-0.375147 -14.6508 0.
-0.0452245 -5.50128 0.
-231.92 -616.799 0.
-125.716 -302.856 0.
16.1977 38.8253 0.
5.65337 13.3297 0.
-72.5471 -158.135 0.
-714.626 -1415.11 0.
2.62782 5.75167 0.
-4.57661 -7.92871 0.
-7.55122 -35.6272 0.
-974.087 -1822.95 0.
42.7149 69.1232 0.
-33.3586 -60.3841 0.
-17.6049 -20.8137 0.
-16.6656 -4.50998 0.
25.5146 51.0737 0.
47.7803 80.0017 0.
43.8764 77.802 0.
11.0439 20.0555 0.
17.269 32.251 0.
-2.45633 -25.6487 0.
18.038 40.4989 0.
-1.15276 -52.884 0.
-3.2079 -36.9899 0.
-5.5064 -12.3636 0.
18.803 47.8186 0.
-33.9719 -83.5164 0.
-1203.21 -3064.23 0.
-1.40751 -48.354 0.
1.84423 4.50094 0.
2.10594 5.31856 0.
-431.282 -1039.3 0.
-32.8656 -62.4701 0.
4.3521 10.3304 0.
2.59055 5.54699 0.
0.863867 3.16202 0.
0.243165 0.839152 0.
0.0616759 0.107867 0.
-1450.99 -2663.4 0.
-0.0867951 -0.051104 0.
-1496.19 -2601.42 0.
-0.0409567 -0.0617369 0.
-35.9173 -55.323 0.
-2012.94 -4221.99 0.
-0.00672161 -0.0908806 0.
-1329.67 -2781.66 0.
-17.0933 -17.8941 0.
-53.4052 -105.878 0.
-1537 -3929.27 0.
-18.8306 -52.106 0.
-10.4534 -28.9504 0.
-1228.6 -3190.26 0.
-166.843 -441.056 0.
-813.459 -1993.2 0.
-409.143 -1018.14 0.
-49.3887 -131.785 0.
-689.398 -1811.11 0.
-363.086 -943.763 0.
-37.6111 -79.4057 0.
-513.133 -1410.2 0.
-310.924 -851.417 0.
-108.449 -292.9 0.
-426.721 -1043.88 0.
-382.091 -919.047 0.
-206.916 -537.734 0.
-332.84 -886.577 0.
-412.767 -1106.32 0.
-84.6851 -217.573 0.
-327.671 -895.317 0.
-571.768 -1571.95 0.
0.0337478 0.109245 0.
-346.827 -916.972 0.
-768.755 -2042.33 0.
-26.9883 -70.8545 0.
-398.888 -960.798 0.
-929.073 -2201.4 0.
-33.6452 -90.0706 0.
-1328.84 -3470.34 0.
-28.0308 -42.6555 0.
-21.6587 -24.3347 0.
-1605.15 -4050.93 0.
-12.6114 -11.9726 0.
-6.4986 -5.28147 0.
-1700.29 -3019.78 0.
0.0263734 0.0480363 0.
-1520 -3499.44 0.
-16.8985 -44.1132 0.
-12.5693 -32.566 0.
-1431.58 -2502.58 0.
-0.0223779 -1.12232 0.
-990.068 -2525.04 0.
0.0889848 3.57269 0.
-0.15919 -4.64323 0.
-0.0131334 -9.15723 0.
-20.4993 -54.3739 0.
5.67815 15.3063 0.
-820.313 -2062.39 0.
6.35541 14.7219 0.
5.40179 14.9328 0.
6.67189 16.5502 0.
-0.124347 -15.7429 0.
-244.601 -639.438 0.
14.6919 36.6942 0.
-412.24 -975.931 0.
2.36411 5.46208 0.
-1537.01 -3238.55 0.
-1208.69 -2329.51 0.
-0.39966 -0.816809 0.
-1974.75 -3268.3 0.
-8.11209 -33.2664 0.
51.2202 90.65 0.
-16.6994 -26.0466 0.
61.2768 108.896 0.
-6.29599 -5.89648 0.
14.8622 10.1646 0.
-189.754 -387.832 0.
66.2253 101.179 0.
-1223.14 -2128.84 0.
27.6145 57.2552 0.
19.4681 35.0348 0.
3.18553 6.87253 0.
6.65238 14.6648 0.
18.9208 46.6121 0.
12.719 28.7749 0.
13.8589 30.562 0.
-5.33937 -13.3447 0.
-524.161 -1281.79 0.
-1.23079 -45.7726 0.
-6.16448 -16.0863 0.
4.71403 11.1491 0.
-40.8896 -105.491 0.
-3.2631 -7.9299 0.
2.11858 4.32799 0.
-0.38558 -8.50005 0.
-0.0685145 -0.927786 0.
1.16038 2.78067 0.
-1407.04 -2981.34 0.
1.268 3.07343 0.
-0.388867 -0.633898 0.
0.469464 0.244366 0.
-1.02272 -0.858482 0.
-0.453441 -0.748198 0.
-1.82932 -3.13929 0.
-0.236288 -0.578448 0.
0.0293507 0.124286 0.
0.0177351 0.00647895 0.
-14.9031 -7.83482 0.
-28.5313 -39.2537 0.
-8.26294 -20.5084 0.
0.0351953 0.078065 0.
0.186334 0.000129045 0.
-296.502 -763.936 0.
0.0189852 0.0246656 0.
-288.937 -700.497 0.
-6.01653 -14.9909 0.
-18.5116 -49.6474 0.
-407.679 -1078.99 0.
-85.1968 -207.18 0.
-17.6814 -22.2654 0.
-400.325 -1108.79 0.
-205.31 -568.672 0.
-47.6494 -131.86 0.
-368.214 -858.757 0.
-322.691 -729.635 0.
-70.1062 -124.524 0.
-255.058 -665.17 0.
-330.667 -872.905 0.
-6.21212 -14.9879 0.
-169.581 -466.524 0.
-413.094 -1144.02 0.
0.0863311 0.103483 0.
-4.62602 -12.8095 0.
-389.806 -1052.41 0.
-24.53 -61.1081 0.
-11.5199 -28.7746 0.
-221.105 -529.141 0.
-20.6989 -57.3173 0.
-194.194 -490.591 0.
-13.9677 -25.364 0.
-17.151 -31.3065 0.
-27.3497 -46.6214 0.
-16.4302 -19.3748 0.
-11.1489 -11.1092 0.
-9.8803 -10.9561 0.
0.00429477 0.16916 0.
0.0291202 0.14358 0.
-75.1256 -171.747 0.
-34.8295 -88.5831 0.
-63.9407 -167.685 0.
1.10988 3.03734 0.
-89.943 -241.869 0.
2.61215 7.04891 0.
-1152.72 -2479.83 0.
1.48896 4.11623 0.
-29.8443 -81.2781 0.
6.23425 16.6231 0.
-0.512285 -24.2129 0.
-1.28129 -16.0378 0.
14.0106 38.4072 0.
-1.71583 -4.6315 0.
12.4679 33.8258 0.
-281.284 -721.775 0.
15.5792 38.3313 0.
20.65 48.6616 0.
20.1817 46.792 0.
15.6538 35.5889 0.
2.25948 5.13029 0.
-4.8155 -34.7534 0.
-8.6533 -49.0434 0.
30.6383 53.2849 0.
-24.2841 -41.7987 0.
-32.0248 -48.6372 0.
62.0865 108.177 0.
-7.54363 -5.89329 0.
7.85555 95.0697 0.
-17.1991 -107.079 0.
-180.893 -277.543 0.
-21.0111 -39.0775 0.
-9.71407 -59.4721 0.
-1137 -1984.57 0.
23.6826 48.8731 0.
2.02907 4.40298 0.
-2.45865 -29.1462 0.
-417.889 -927.977 0.
-893.346 -1946 0.
-4.18674 -9.84415 0.
-136.436 -350.229 0.
3.21576 8.32324 0.
10.2732 26.9506 0.
-1222.84 -2808.65 0.
-1.56112 -46.238 0.
1.85957 4.50361 0.
0.672358 1.4342 0.
4.59392 11.6999 0.
-1046.46 -1923.49 0.
-0.503725 -10.8568 0.
-0.410229 -3.72022 0.
1.54144 4.09775 0.
0.0281998 0.0815071 0.
0.706487 0.0919589 0.
-0.805294 -0.813483 0.
-0.549003 -0.959635 0.
-205.318 -298.539 0.
-1400.93 -3690.51 0.
0.0221663 0.159926 0.
-1554.34 -2215.56 0.
-29.9825 -42.1656 0.
-40.3342 -68.6114 0.
-1531.32 -3897.23 0.
-5.29326 -7.07538 0.
-10.1832 -16.8896 0.
-1310 -3390.59 0.
-16.6616 -46.1488 0.
-926.069 -2132.82 0.
-351.618 -811.525 0.
-9.18164 -20.3865 0.
-794.476 -2071.17 0.
-300.171 -771.961 0.
-8.01767 -7.45865 0.
-541.098 -1464.51 0.
-297.8 -815.729 0.
-58.9224 -162.526 0.
-425.314 -1100.59 0.
-363.168 -923.555 0.
-92.1603 -218.312 0.
-316.9 -848.953 0.
-440.586 -1180.65 0.
-0.0537372 -0.0739529 0.
-301.914 -821.386 0.
-611.873 -1651.48 0.
-3.85984 -10.6657 0.
-256.057 -667.049 0.
-883.46 -2329.45 0.
-10.209 -23.1065 0.
-281.411 -652.442 0.
-975.785 -2250.4 0.
-17.3419 -48.0341 0.
-1389.7 -3236.47 0.
-10.4077 -10.5885 0.
-14.9396 -18.9925 0.
-1557.5 -4017.83 0.
-26.5106 -49.8864 0.
-29.3619 -56.0046 0.
-1421.58 -2497.16 0.
-1.64505 -4.42891 0.
-1278.5 -3171.28 0.
-233.882 -429.324 0.
-83.4315 -202.168 0.
-103.217 -267.699 0.
-0.000138657 -0.651926 0.
-75.6188 -207.96 0.
-0.3233 -10.1784 0.
-0.0744756 -0.333648 0.
-415.905 -1082.08 0.
-50.2119 -138.302 0.
3.80073 10.0129 0.
-0.485153 -25.2471 0.
7.76379 18.1022 0.
-2.42887 -6.56008 0.
-8.11489 -21.8008 0.
2.84775 7.71664 0.
-478.732 -1204.73 0.
-2.71276 -44.6023 0.
-3.52132 -43.7036 0.
7.82338 17.662 0.
0.842628 1.86377 0.
-2.99549 -6.59529 0.
20.96 41.8472 0.
21.089 42.4026 0.
-9.3106 -60.6804 0.
-505.731 -885.127 0.
-37.3073 -149.597 0.
25.3586 42.5079 0.
-5.53419 -3.77325 0.
16.0523 114.873 0.
-16.987 -102.768 0.
-1491.3 -2310.45 0.
-22.0701 -101.192 0.
1.13465 2.24302 0.
39.0373 77.0497 0.
12.6908 26.903 0.
-934.949 -1999.12 0.
21.6973 52.7216 0.
5.41233 12.6024 0.
-103.521 -251.182 0.
8.91274 20.6041 0.
-197.052 -503.942 0.
8.77677 22.5567 0.
-324.296 -854.333 0.
16.1578 43.5706 0.
2.03736 5.24873 0.
-713.469 -1719.24 0.
-0.0630038 -13.747 0.
-667.623 -1330.02 0.
3.222 6.52326 0.
-0.351681 -9.06214 0.
0.622617 1.48742 0.
1.91232 5.22184 0.
-1254.85 -2626.41 0.
-1.4368 -2.43224 0.
-1348.99 -2205.28 0.
-0.585099 -2.06014 0.
0.103616 0.538713 0.
-11.7249 -29.6805 0.
0.0342917 0.254905 0.
-14.9437 -9.14288 0.
-5.67855 -3.15318 0.
-15.2856 -8.10918 0.
0.0130365 0.0860473 0.
0.0551774 0.00176659 0.
-3.43827 -8.39108 0.
-126.266 -334.869 0.
-5.17547 -14.2586 0.
-173.964 -396.7 0.
0.0439046 0.0585785 0.
-5.39338 -8.77559 0.
-361.304 -969.155 0.
-1.81654 -4.72751 0.
-2.60011 -6.42638 0.
-314.291 -869.675 0.
-90.6334 -250.75 0.
-0.973031 -2.40591 0.
-233.354 -637.289 0.
-180.092 -496.213 0.
-32.0575 -88.2338 0.
-142.88 -392.173 0.
-235.57 -651.773 0.
-0.0308514 -0.02908 0.
-39.7333 -106.472 0.
-309.898 -851.248 0.
-5.56239 -15.1933 0.
-3.63211 -10.0598 0.
-310.582 -840.134 0.
-11.1772 -25.3015 0.
-7.94497 -16.6458 0.
-109.777 -258.224 0.
-11.6587 -31.5346 0.
-8.33175 -21.3171 0.
-5.56973 -3.7671 0.
-10.8418 -10.8755 0.
-20.5241 -35.2424 0.
-1.70678 -1.32314 0.
-10.7019 -19.8241 0.
-20.8243 -42.8524 0.
0.00259053 0.00716657 0.
-0.795168 -2.10438 0.
0.984339 2.69158 0.
-1015.2 -1959.49 0.
0.824848 1.77016 0.
-1100.69 -2752.35 0.
-66.1639 -183.226 0.
6.01983 14.8838 0.
-0.291705 -7.97408 0.
-100.45 -270.463 0.
-263.265 -650.469 0.
-0.390783 -13.974 0.
-179.081 -472.705 0.
-78.5195 -214.553 0.
-531.633 -1412.48 0.
-9.11344 -24.3516 0.
9.88114 26.4229 0.
14.4147 36.2966 0.
7.53001 18.2421 0.
-1223.52 -2825.74 0.
-3.26965 -29.1849 0.
-3.32329 -7.17324 0.
11.8535 25.4007 0.
4.53412 8.6365 0.
-766.775 -1564.32 0.
23.9207 48.8264 0.
-156.609 -267.84 0.
-1.34482 -2.40372 0.
19.3552 32.5945 0.
9.28506 7.37267 0.
-52.2422 -192.539 0.
12.4602 24.9431 0.
-25.4989 -109.287 0.
-1091.79 -2036.98 0.
-14.1712 -75.1791 0.
38.6432 75.8642 0.
5.63842 11.5148 0.
-14.4406 -30.5681 0.
-4.59723 -67.2645 0.
-1.33847 -3.09419 0.
-328.581 -795.55 0.
-5.21384 -55.754 0.
-385.071 -981.009 0.
-5.71947 -14.5923 0.
-156.806 -406.555 0.
-0.417069 -39.9485 0.
-163.614 -422.968 0.
9.38193 25.0436 0.
17.7746 49.2225 0.
-29.0436 -60.8199 0.
9.59626 23.4697 0.
8.784 22.3427 0.
-820.219 -1538.45 0.
-0.594392 -6.97848 0.
0.925296 1.53227 0.
-0.0873065 -0.166456 0.
0.876993 2.01142 0.
-0.375895 -2.08189 0.
0.0225293 0.221801 0.
-0.0391067 -0.54354 0.
-0.0224542 -0.174057 0.
-9.69944 -5.57556 0.
-7.94874 -4.23715 0.
-31.6746 -18.5137 0.
0.0201092 0.0795517 0.
0.0386517 0.0398149 0.
0.0135728 0.0347249 0.
-19.6776 -42.4195 0.
-5.6952 -10.204 0.
0.18113 0.171526 0.
-0.0575793 -0.0750174 0.
-2.34281 -3.7828 0.
-23.7848 -64.8352 0.
-0.0449101 -0.0982651 0.
-1.91903 -4.99956 0.
-134.894 -368.289 0.
-2.0909 -5.35999 0.
-0.601639 -1.62338 0.
-145.503 -379.728 0.
-105.793 -270.813 0.
-10.3363 -28.6275 0.
-45.0482 -124.565 0.
-102.513 -283.32 0.
-0.366163 -0.15774 0.
-15.4763 -39.4879 0.
-89.1171 -242.294 0.
-7.67277 -19.5165 0.
-10.7195 -27.3345 0.
-35.6952 -97.0657 0.
-21.9201 -48.368 0.
-16.4267 -34.572 0.
-43.5201 -95.1875 0.
-7.70897 -19.2575 0.
-2.20136 -3.81698 0.
-3.59077 -1.85676 0.
-6.66065 -2.88806 0.
-21.9938 -32.6405 0.
-0.0163777 -0.0395861 0.
-5.57751 -15.434 0.
-14.4469 -38.613 0.
0.214825 0.593495 0.
0.0715438 0.195549 0.
2.1739 6.02082 0.
0.244734 0.603504 0.
0.843807 1.70389 0.
0.608174 1.34377 0.
-0.0579472 -11.5396 0.
-986.7 -2409.22 0.
-0.829102 -22.9558 0.
-229.137 -625.777 0.
-58.903 -144.197 0.
0.0566445 7.41907 0.
-960.696 -2525.79 0.
7.12432 19.4421 0.
5.71431 15.5351 0.
-270.772 -720.033 0.
3.14914 8.29397 0.
-264.365 -660.557 0.
-3.0281 -45.8918 0.
-9.37228 -21.6029 0.
14.4313 33.174 0.
-64.6037 -136.697 0.
-1309.31 -2738.24 0.
-4.81727 -35.2196 0.
-12.3309 -24.8947 0.
-0.00919569 -0.0187134 0.
-520.081 -876.635 0.
-41.3261 -167.081 0.
-215.165 -358.355 0.
14.6442 11.3064 0.
4.84559 11.4862 0.
63.1766 109.122 0.
-22.288 -41.7862 0.
50.9775 103.862 0.
20.241 39.2783 0.
-1377.4 -2696.52 0.
6.8642 13.6121 0.
-5.04976 -10.4458 0.
24.9784 58.683 0.
-6.18921 -14.2173 0.
-543.051 -1311.75 0.
25.4753 57.0427 0.
1.03239 2.48665 0.
-8.59931 -22.094 0.
-317.303 -816.115 0.
5.31473 14.3748 0.
-184.737 -506.11 0.
5.4036 14.4462 0.
18.0711 49.1185 0.
-371.206 -783.776 0.
5.72573 14.119 0.
-347.01 -883.238 0.
-0.00769493 -29.7949 0.
-0.22824 -3.33126 0.
0.0213141 0.876161 0.
-0.231232 -1.56185 0.
0.0563387 0.943561 0.
-976.582 -2043.54 0.
-0.363755 -3.66637 0.
-999.373 -2250.5 0.
-7.79457 -15.8842 0.
-1268.2 -2171.8 0.
-12.394 -16.3199 0.
-0.126325 -0.149441 0.
-1450.43 -3754.58 0.
-0.119734 -0.19145 0.
0.0525974 0.0937438 0.
-1315.99 -3096.47 0.
-6.08822 -15.2552 0.
-1027.66 -2343.47 0.
-285.696 -626.408 0.
-18.9616 -41.4339 0.
-989.919 -2610.58 0.
-195.821 -518.517 0.
0.0600029 0.124707 0.
-690.079 -1879.72 0.
-321.656 -889.009 0.
-4.10757 -11.3529 0.
-497.552 -1348.97 0.
-412.566 -1134.41 0.
-32.3877 -89.193 0.
-349.036 -960.93 0.
-557.056 -1539.62 0.
-7.83945 -17.1452 0.
-275.49 -736.146 0.
-784.187 -2074.49 0.
0.00972785 0.0999161 0.
-150.42 -396.268 0.
-1078.52 -2900.13 0.
-4.41959 -9.15084 0.
-208.045 -444.358 0.
-1024.25 -2238.53 0.
-10.1655 -19.8948 0.
-1287.6 -3169.16 0.
-16.4004 -25.943 0.
-13.9769 -19.6722 0.
-1046.1 -2251.42 0.
-3.93949 -10.5234 0.
-1578.25 -3538.16 0.
-0.00271253 -1.81579 0.
-0.182558 -1.87033 0.
-1135.98 -2394.88 0.
-0.0116643 -3.20741 0.
-0.143901 -5.82808 0.
-7.73671 -14.5702 0.
1.44928 3.01847 0.
9.37506 25.9349 0.
0.927166 2.3483 0.
-6.96125 -19.1679 0.
0.000453436 0.121408 0.
-32.8118 -79.491 0.
8.53202 22.3914 0.
-4.47102 -12.3074 0.
-18.0086 -49.0867 0.
9.57258 25.9116 0.
-2.3371 -6.15726 0.
9.69716 25.1427 0.
-769.429 -1909.89 0.
-3.61789 -51.0783 0.
-2.88217 -6.6063 0.
14.5267 32.5525 0.
29.1447 69.462 0.
-9.08344 -19.4628 0.
7.61731 16.2482 0.
1.3362 2.65414 0.
-19.6496 -39.9517 0.
-576.365 -963.632 0.
-2.2027 -3.97108 0.
-939.335 -1523.35 0.
-12.2528 -9.5253 0.
-29.7481 -52.6489 0.
-15.1189 -51.3747 0.
39.4137 78.8629 0.
-17.0361 -35.0344 0.
-12.8662 -24.6327 0.
38.1752 81.569 0.
12.4859 24.2129 0.
-16.4887 -33.4642 0.
-151.457 -351.282 0.
-395.005 -901.475 0.
-3.39763 -58.4521 0.
-0.885251 -2.20905 0.
-46.9415 -112.749 0.
6.4626 16.5442 0.
-553.839 -1412.34 0.
-1.98706 -5.17897 0.
-197.9 -541.031 0.
-7.00772 -18.7281 0.
-348.22 -947.481 0.
-0.00295627 -11.1589 0.
2.30869 5.66357 0.
-364.239 -942.188 0.
12.8431 35.5665 0.
3.89029 9.47244 0.
-0.152602 -8.30846 0.
-696.303 -1369.98 0.
1.4759 3.84337 0.
-76.6672 -187.987 0.
0.687946 1.68423 0.
-39.6145 -91.4829 0.
-1.64013 -3.63672 0.
-0.084509 -0.947483 0.
0.279997 0.496544 0.
-0.049651 -0.260825 0.
-14.4771 -36.0418 0.
0.383575 0.510117 0.
0.127613 0.220835 0.
-0.153931 -0.327985 0.
-1.47479 -3.58207 0.
-40.3455 -85.2897 0.
-14.4965 -33.5112 0.
-14.3788 -25.8562 0.
-177.609 -484.65 0.
0.00288965 0.0160614 0.
-0.0337963 -0.0817161 0.
-258.882 -713.099 0.
-2.70104 -7.29833 0.
-4.83243 -12.8636 0.
-214.83 -583.771 0.
-132.608 -366.285 0.
-11.8745 -32.5206 0.
-44.3087 -122.582 0.
-207.133 -573.716 0.
-14.0897 -30.7045 0.
-10.9022 -24.8497 0.
-155.715 -402.505 0.
-2.27287 -6.29341 0.
-11.5714 -32.0508 0.
-161.806 -446.007 0.
-0.0120493 -0.127016 0.
-3.7347 -8.16194 0.
-17.6391 -36.8323 0.
-0.153889 -0.268355 0.
0.0343356 0.049569 0.
-2.08819 -2.01026 0.
-10.1773 -22.1456 0.
-32.0304 -66.5866 0.
0.159497 0.435056 0.
-34.6265 -93.9691 0.
-0.0106851 -2.75107 0.
-0.0378468 -0.542085 0.
1.43949 2.75298 0.
-0.000616113 -10.5127 0.
-1024.59 -2706.73 0.
-402.578 -928.074 0.
-22.62 -45.3642 0.
10.9313 30.2776 0.
0.908334 2.35945 0.
0.35969 0.978 0.
-0.084887 -10.0196 0.
-667.09 -1596.07 0.
7.88665 20.6436 0.
-0.152972 -51.5223 0.
-257.577 -703.295 0.
-5.46171 -14.7131 0.
-228.996 -599.608 0.
-2.26113 -5.82189 0.
-3.41857 -8.5515 0.
9.16216 21.5658 0.
-280.636 -640.525 0.
-241.441 -530.563 0.
11.2702 26.2668 0.
-10.3303 -76.9863 0.
-6.81005 -55.2943 0.
-114.409 -224.37 0.
-12.8915 -70.5155 0.
13.6602 24.1969 0.
-1500.99 -2069.7 0.
-23.7105 -31.7951 0.
-42.431 -34.1786 0.
-66.2981 -99.8362 0.
-5.96723 -19.1234 0.
-20.2667 -107.739 0.
-0.0123214 -0.0255212 0.
-16.0492 -77.7099 0.
-16.8637 -35.8646 0.
-1.68796 -18.3406 0.
-188.266 -396.014 0.
-1.16929 -2.81054 0.
-5.59443 -13.6873 0.
-5.10421 -12.468 0.
-2.12895 -44.8097 0.
-286.687 -686.899 0.
-12.5854 -32.0981 0.
-2.35117 -5.95402 0.
1.92857 4.98826 0.
-276.784 -754.869 0.
-67.1135 -179.153 0.
-13.3572 -36.8053 0.
-0.00150736 -44.8442 0.
0.0239269 0.0580924 0.
4.00186 10.9272 0.
-0.0061638 -35.9806 0.
4.24233 10.4483 0.
-515.626 -1189.08 0.
4.4156 9.23053 0.
3.73402 9.75171 0.
-24.3973 -64.1135 0.
-0.0722594 -3.11826 0.
-66.471 -166.772 0.
0.0850641 0.204023 0.
-0.0277714 -0.631964 0.
-1092.98 -2819.93 0.
0.000511497 0.00141212 0.
-864.817 -1854.46 0.
-66.8547 -137.14 0.
-28.0792 -64.3151 0.
-1129.21 -2864.75 0.
0.49677 0.0116582 0.
-969.027 -1988.77 0.
-194.727 -389.073 0.
-11.7991 -26.2847 0.
-1048 -2826.23 0.
-68.9117 -189.167 0.
-6.73484 -18.6474 0.
-830.229 -2208.23 0.
-271.729 -742.513 0.
-1.45373 -2.56281 0.
-554.662 -1498.81 0.
-468.122 -1294.25 0.
-19.7949 -54.1493 0.
-354.831 -976.43 0.
-673.348 -1851.46 0.
-16.1992 -42.7039 0.
-191.842 -526.663 0.
-896.224 -2405.33 0.
-0.049061 -0.135549 0.
0.0212599 0.0587873 0.
-917.124 -2361.07 0.
0.0390977 0.0963881 0.
-1229.16 -2674.14 0.
-5.52734 -14.6539 0.
-11.7742 -30.4405 0.
-1069.47 -2768.12 0.
-48.1363 -125.217 0.
-2.59549 -3.27932 0.
-909.058 -1843.73 0.
-464.59 -980.991 0.
-0.00898377 -0.455464 0.
-0.0236615 -4.22166 0.
1.97577 4.84812 0.
-0.39239 -2.57449 0.
-0.0310342 -9.43024 0.
0.899117 2.48317 0.
-225.15 -554.412 0.
-0.139614 -22.9499 0.
-1.26668e-06 -6.53726 0.
-0.0194612 -24.1691 0.
-503.88 -1345.87 0.
10.9108 29.1525 0.
12.2003 32.9392 0.
-500.254 -1302.56 0.
12.967 35.6198 0.
-67.4114 -182.58 0.
16.5684 44.405 0.
-662.638 -1722.95 0.
20.7313 53.003 0.
14.9588 37.1116 0.
-3.10381 -7.50846 0.
-1186.42 -2702.51 0.
-1281.26 -2789.03 0.
-6.1309 -67.5887 0.
34.1331 71.5084 0.
-7.24547 -61.9916 0.
-881.579 -1709.34 0.
55.8172 107.955 0.
-11.496 -20.5958 0.
-24.4563 -33.358 0.
-39.4071 -78.7972 0.
-19.6225 -47.8079 0.
-52.8287 -74.326 0.
35.045 56.6726 0.
-17.6078 -83.2 0.
35.1965 73.3816 0.
12.0597 22.6401 0.
-19.6227 -41.5672 0.
16.911 38.2478 0.
-2.87147 -6.02197 0.
18.7207 44.87 0.
8.24606 20.2407 0.
-40.0879 -98.1721 0.
-11.6861 -29.0383 0.
-950.456 -2273.18 0.
16.1809 40.0717 0.
5.47401 13.8641 0.
16.4524 42.2158 0.
-494.959 -1346.03 0.
-5.0003 -13.6917 0.
-7.41476 -20.3817 0.
6.60525 18.2941 0.
-113.92 -315.259 0.
-94.8867 -256.306 0.
5.116 14.1459 0.
7.38395 19.0207 0.
-3.78898 -9.24651 0.
-1.34032 -10.8083 0.
3.24354 8.46114 0.
-45.1292 -122.161 0.
-644.168 -1300.23 0.
-792.345 -1429.27 0.
0.159202 0.323793 0.
0.333229 0.794298 0.
0.255238 0.689272 0.
-0.0138151 -1.99871 0.
-11.7452 -32.5262 0.
-8.485 -22.8553 0.
-10.3826 -24.889 0.
0.0324725 0.0128329 0.
0.483268 0.0181175 0.
0.409019 0.363893 0.
0.061882 0.16212 0.
-0.0184564 -0.298217 0.
-154.407 -422.665 0.
-6.4875 -17.9467 0.
-8.72658 -24.1559 0.
-78.0421 -213.84 0.
0.00715779 0.0535812 0.
-0.69287 -1.77563 0.
-75.2515 -205.93 0.
-11.4 -27.71 0.
-22.6052 -62.5633 0.
-9.06897 -24.8751 0.
-43.3334 -119.845 0.
-10.0768 -27.7639 0.
-4.13261 -11.3364 0.
-6.9274 -17.776 0.
-3.23554 -8.28111 0.
-0.00244954 -0.0967617 0.
0.00127541 0.0284978 0.
0.0152193 0.0114579 0.
-167.264 -424.152 0.
0.00235542 0.0085126 0.
0.0837215 0.224682 0.
-5.52456 -15.04 0.
-6.80507 -16.9219 0.
-0.146861 -0.488298 0.
0.124023 0.167404 0.
0.492908 1.33686 0.
-486.704 -1231.57 0.
-0.0655626 -4.75834 0.
-901.863 -2178.56 0.
2.26761 6.2793 0.
-0.0872525 -10.2721 0.
6.73481 18.3787 0.
-130.484 -335.561 0.
-0.15472 -26.342 0.
-434.021 -1139.66 0.
9.22851 25.5552 0.
-0.0742863 -12.4802 0.
-384.083 -1013.78 0.
-6.61733 -17.8026 0.
9.04391 24.3076 0.
17.6561 48.4359 0.
-70.9908 -190.417 0.
4.11335 11.0363 0.
-7.36318 -18.9409 0.
19.2556 48.8948 0.
-5.2857 -13.0141 0.
24.2398 58.3054 0.
10.4421 26.0224 0.
22.5924 52.266 0.
-5.71268 -63.0668 0.
-783.827 -1625.34 0.
-7.331 -66.0903 0.
-17.864 -38.9151 0.
-12.4679 -62.4576 0.
-11.9794 -21.6896 0.
-27.5775 -56.5978 0.
11.6666 16.3126 0.
42.3974 65.0896 0.
-639.547 -686.471 0.
-20.046 -56.9577 0.
-19.4937 -81.2862 0.
38.1265 79.8708 0.
-10.2166 -59.9302 0.
19.5975 41.4027 0.
23.0613 51.9104 0.
-26.3559 -55.1522 0.
-28.8962 -69.0793 0.
-57.8611 -142.449 0.
-129.301 -317.469 0.
8.21909 20.3877 0.
-1.9877 -65.6915 0.
-4.39506 -10.8515 0.
-132.289 -335.176 0.
1.53231 3.90002 0.
3.23906 8.48928 0.
-4.20322 -11.484 0.
-392.421 -1075.81 0.
-0.644044 -1.78056 0.
-77.8099 -215.255 0.
-584.137 -1556.31 0.
19.337 52.8581 0.
-6.30969 -16.2336 0.
-33.6193 -83.5545 0.
0.0375563 6.38797 0.
-753.332 -1700.76 0.
-0.104521 -6.28919 0.
1.27601 3.06142 0.
-0.0298478 -8.80448 0.
-0.37315 -2.35331 0.
0.734774 1.7234 0.
0.680795 1.87642 0.
-0.0192039 -1.71147 0.
-12.8637 -31.9597 0.
-6.48051 -14.8732 0.
-4.20034 -11.1077 0.
0.171861 0.0905486 0.
0.293294 0.521563 0.
0.378481 0.030262 0.
-0.0120457 -0.0210315 0.
0.171565 0.325458 0.
-19.0178 -52.6523 0.
-8.24378 -22.8327 0.
-10.7281 -29.5182 0.
-1.15365 -3.10997 0.
0.00862832 0.181132 0.
-0.277079 -0.75549 0.
-0.930043 -2.57356 0.
-4.06575 -11.1352 0.
-20.3322 -49.2169 0.
-6.04961 -13.1503 0.
-2.79803 -6.25418 0.
-10.199 -28.2363 0.
-1.40654 -3.86594 0.
-0.17282 -0.477785 0.
-16.9304 -23.403 0.
-11.5112 -14.084 0.
-9.80926 -12.404 0.
-1.75321 -0.668284 0.
-34.7679 -85.809 0.
-0.0110097 -0.0422842 0.
0.000983811 0.0161094 0.
-0.00124778 -0.230662 0.
-0.0366113 -0.611042 0.
-0.0412638 -0.161822 0.
0.205696 0.298169 0.
-0.0160675 -1.96085 0.
-83.2908 -229.036 0.
-0.00240902 -0.938776 0.
-0.218948 -5.90648 0.
3.387 9.36973 0.
-479.187 -1293.41 0.
-385.398 -1019.26 0.
-85.4963 -224.586 0.
-1.8782 -5.12421 0.
7.05441 19.5149 0.
-0.0909095 -33.5087 0.
-0.124817 -24.109 0.
-171.42 -472.336 0.
13.1286 35.1714 0.
8.47176 22.7625 0.
0.798915 2.1798 0.
-582.149 -1543.87 0.
-0.84645 -54.1018 0.
-19.6327 -50.1764 0.
1.274 3.27405 0.
-471.853 -1156.1 0.
-8.08809 -19.359 0.
2.64475 6.6005 0.
-6.08289 -75.2511 0.
-80.9988 -187.754 0.
35.556 80.2561 0.
14.5731 32.434 0.
-29.3257 -63.1618 0.
12.6045 23.945 0.
-27.8721 -50.9351 0.
47.6144 67.0714 0.
-37.1314 -81.9949 0.
-23.8771 -67.3264 0.
-174.259 -182.996 0.
17.9477 27.7774 0.
9.29769 16.1232 0.
-30.9359 -64.9549 0.
7.00758 14.0618 0.
-43.9243 -92.7414 0.
-100.172 -226.126 0.
-228.753 -478.655 0.
-422.739 -1008.54 0.
-151.414 -373.864 0.
-34.3461 -88.431 0.
-11.4414 -29.0064 0.
14.7324 37.6073 0.
1.19103 2.93313 0.
-520.199 -1318.97 0.
-3.59129 -9.29994 0.
5.47591 14.385 0.
3.27926 8.93909 0.
-136.507 -376.17 0.
18.1992 50.235 0.
-61.5737 -170.27 0.
-34.7049 -96.0674 0.
-0.0295721 -49.8958 0.
-0.17422 -0.44691 0.
-492.507 -1226.71 0.
-0.0708998 -35.3294 0.
-80.3996 -192.123 0.
8.27535 22.4917 0.
-0.180304 -5.17722 0.
3.46321 9.59209 0.
-0.0593447 -0.37106 0.
-92.5141 -205.461 0.
-830.66 -2019.56 0.
0.000296331 0.176121 0.
-712.307 -1632.67 0.
-1.34113 -2.20022 0.
-17.6843 -40.7534 0.
-912.911 -2292.86 0.
-0.0870786 -0.24068 0.
-0.0262965 -0.640892 0.
-1255.95 -2812.91 0.
-0.000172193 -0.0290071 0.
-817.643 -2143.52 0.
-9.25174 -24.5487 0.
-6.25812 -16.2797 0.
-875.254 -2343.41 0.
-92.6868 -254.004 0.
-0.0687871 -0.179209 0.
-586.828 -1571.04 0.
-418.503 -1156.19 0.
-42.4914 -117.526 0.
-198.564 -548.955 0.
-753.416 -2073.51 0.
-23.7745 -61.4497 0.
-17.8464 -44.0999 0.
-911.767 -2429.09 0.
-10.2808 -16.6819 0.
-13.4326 -30.3582 0.
-1056.22 -2223.07 0.
-6.40865 -17.5224 0.
-1036.04 -2478.17 0.
-3.26147 -8.2664 0.
-0.0736696 -0.185145 0.
-957.662 -2439.32 0.
-0.0572914 -0.835227 0.
-35.6666 -81.8287 0.
-998.291 -2142.58 0.
-23.8931 -63.7816 0.
-17.496 -48.3936 0.
-0.000714269 -5.84061 0.
3.72065 9.82619 0.
3.72225 10.2695 0.
-2.59624 -7.05905 0.
0.768054 2.03256 0.
11.4456 31.6964 0.
-0.192146 -25.8678 0.
17.3923 48.0615 0.
-0.122044 -14.1538 0.
-0.240989 -48.5815 0.
-73.0285 -200.903 0.
20.4744 55.4811 0.
17.9578 48.2258 0.
9.722 26.32 0.
-0.99219 -63.0654 0.
-83.8773 -222.899 0.
-2.52491 -6.4121 0.
-11.3362 -28.922 0.
17.9757 45.3958 0.
5.26092 12.5397 0.
2.0151 5.03763 0.
-173.911 -408.12 0.
-151.33 -352.195 0.
-21.3974 -47.8574 0.
44.069 97.3617 0.
-14.1478 -30.2902 0.
-11.4921 -23.117 0.
-70.9232 -130.535 0.
3.84337 5.52191 0.
-32.0732 -75.6811 0.
44.5467 71.5394 0.
57.5212 58.9092 0.
3.68468 5.59788 0.
-17.2872 -56.9999 0.
-10.0594 -21.1273 0.
2.74417 5.91764 0.
6.37478 13.2016 0.
-151.183 -342.98 0.
-1020.93 -2142.47 0.
-302.516 -749.995 0.
21.5825 52.6764 0.
-43.865 -111.458 0.
-12.0249 -30.5483 0.
-9.0282 -22.7626 0.
-102.247 -251.28 0.
-26.1765 -65.2074 0.
3.95595 10.2426 0.
-96.2944 -253.546 0.
20.5341 54.6786 0.
-109.886 -302.09 0.
0.548535 1.5111 0.
-92.6741 -253.593 0.
-18.2162 -50.4105 0.
-10.9936 -29.9101 0.
-543.715 -1391.5 0.
13.8117 36.8274 0.
14.2888 39.367 0.
-152.224 -371.922 0.
10.7309 29.2897 0.
2.69981 7.104 0.
-202.747 -468.76 0.
-503.203 -1068.38 0.
0.856888 2.12225 0.
-27.1125 -75.0831 0.
-0.0424787 -4.20981 0.
-8.75937 -8.05416 0.
0.0538632 0.0766014 0.
-30.1077 -55.64 0.
-0.901137 -2.48423 0.
0.363258 0.99021 0.
0.473972 1.1271 0.
-15.898 -40.4965 0.
-5.81999 -15.9046 0.
-33.4598 -88.0637 0.
-3.9455 -3.26336 0.
-0.531785 -0.84528 0.
-0.0621126 -0.167736 0.
-0.0584768 -0.152697 0.
-0.0765674 -0.192715 0.
-0.00302643 -0.0298016 0.
0.0089433 0.124464 0.
-31.2929 -86.1896 0.
-10.5862 -29.3113 0.
-0.355977 -0.95043 0.
-17.6035 -45.295 0.
-5.21975 -9.19709 0.
-5.02498 -6.67235 0.
-7.73691 -14.4933 0.
-5.189 -7.83231 0.
-11.024 -20.3061 0.
-0.634438 -1.64833 0.
-4.18618 -11.5735 0.
-5.73083 -13.4083 0.
-0.376108 -0.872928 0.
0.0815295 0.182598 0.
-0.0152717 -0.498484 0.
-0.0367087 -0.932934 0.
0.212572 3.51621 0.
-0.00601596 -4.8576 0.
-719.588 -1753.12 0.
-0.264807 -12.7304 0.
-530.157 -1302.92 0.
-0.0344893 -16.5628 0.
-0.000863495 -8.56301 0.
-1.56498 -4.09332 0.
9.55637 25.2466 0.
7.54255 20.438 0.
-6.71219 -18.5073 0.
-1.34621 -3.71722 0.
12.003 32.8411 0.
-137.113 -376.449 0.
6.16055 16.6849 0.
-48.9333 -131.247 0.
3.70353 9.93431 0.
14.0586 37.358 0.
-10.7456 -27.7991 0.
-271.55 -684.976 0.
5.9111 14.9809 0.
8.49746 21.2526 0.
13.5358 35.0616 0.
-542.229 -1359.08 0.
-370.69 -876.507 0.
-304.733 -712.245 0.
-81.3253 -180.695 0.
-33.1684 -70.9335 0.
-43.4957 -92.9781 0.
-282.826 -596.909 0.
-126.569 -233.986 0.
-28.0707 -66.6011 0.
3.0332 4.59404 0.
-350.936 -516.681 0.
-63.5946 -68.5104 0.
48.3226 72.0667 0.
31.2605 50.4059 0.
-14.9778 -107.526 0.
32.6521 70.1718 0.
50.0813 104.322 0.
-15.2833 -35.331 0.
-94.0347 -210.249 0.
8.38704 20.7872 0.
-19.9466 -48.6015 0.
-43.2603 -108.513 0.
18.6254 47.4141 0.
-178.976 -445.591 0.
21.8948 56.8462 0.
-23.65 -58.5607 0.
-91.2625 -236.277 0.
-14.1985 -37.8187 0.
24.4187 65.137 0.
-78.6254 -215.545 0.
-12.2736 -33.8377 0.
25.112 68.8329 0.
-34.8087 -96.2953 0.
-292.658 -797.864 0.
6.22644 17.0742 0.
-5.53222 -14.6731 0.
-280.1 -771.091 0.
7.48006 20.6188 0.
8.89137 24.1868 0.
-0.589933 -35.6642 0.
-113.088 -273.432 0.
0.0151995 0.0335485 0.
3.05748 7.99843 0.
-0.000156326 -0.0833347 0.
0.0361744 1.78552 0.
-0.385561 -5.33711 0.
-44.4172 -56.5281 0.
-67.6049 -103.479 0.
-596.305 -1592.53 0.
-0.0131015 -0.792214 0.
0.00826979 1.11202 0.
-830.572 -2190.85 0.
-0.0119593 -0.0187755 0.
-856.321 -1878.02 0.
-31.0301 -61.363 0.
-30.8702 -69.7892 0.
-824.29 -2180.71 0.
-8.85136 -24.0376 0.
-8.61398 -23.1002 0.
-546.038 -1487.22 0.
-347.462 -960.978 0.
-60.8628 -166.874 0.
-102.196 -282.16 0.
-704.519 -1935.58 0.
-28.3808 -67.8213 0.
-14.3074 -29.9568 0.
-850.594 -2227.96 0.
-1.35732 -2.43032 0.
-4.36047 -8.01645 0.
-821.344 -1739.06 0.
0.045908 0.179456 0.
-641.402 -1687.68 0.
0.0452471 0.355417 0.
-265.72 -659.823 0.
-0.0328087 -0.0659041 0.
-0.00481914 -0.499949 0.
-0.0137214 -0.773083 0.
-0.0594594 -1.15823 0.
1.79583 4.97276 0.
-3.36665e-07 -1.42569 0.
-0.082349 -6.50502 0.
-0.0534002 -27.8393 0.
-179.304 -468.202 0.
-0.00420733 -9.2723 0.
-279.942 -720.12 0.
-3.56295 -9.38398 0.
-0.0430546 -25.495 0.
-464.44 -1276.79 0.
-11.7396 -32.4043 0.
-3.95243 -10.9048 0.
-204.365 -559.805 0.
-0.769503 -2.08273 0.
-12.5844 -33.6702 0.
-11.4255 -30.3308 0.
1.12315 2.97093 0.
-5.55899 -14.2982 0.
13.2256 34.0962 0.
2.96764 7.47577 0.
-212.036 -525.551 0.
21.8169 56.5521 0.
-9.40435 -24.064 0.
-580.045 -1381.86 0.
-451.01 -1058.52 0.
-282.527 -624.956 0.
42.5926 91.4882 0.
35.794 76.6201 0.
-4.51996 -9.53586 0.
-300.668 -557.478 0.
16.1723 24.42 0.
-32.1569 -48.1907 0.
53.2546 73.8086 0.
-1098.5 -981.279 0.
68.0106 99.4875 0.
33.9905 53.2185 0.
-484.353 -1015.45 0.
-36.5905 -78.3409 0.
-108.222 -226.765 0.
-11.9649 -27.659 0.
-156.44 -351.714 0.
-4.31004 -87.4983 0.
-4.91581 -83.6742 0.
-90.5232 -224.155 0.
-69.8183 -178.067 0.
-10.5044 -26.9502 0.
7.72324 19.8311 0.
-77.8536 -191.659 0.
22.1001 55.9165 0.
-31.8281 -84.1204 0.
13.8404 36.9787 0.
-319.427 -863.468 0.
-0.630527 -1.73453 0.
15.8486 43.5109 0.
-19.5093 -53.9498 0.
-39.0029 -107.907 0.
6.91989 19.0058 0.
-10.6128 -27.9842 0.
-5.2959 -14.6059 0.
-0.0297455 -29.4246 0.
2.82882 7.63904 0.
-0.388966 -37.5384 0.
-144.918 -358.187 0.
-0.0675359 -25.7316 0.
4.33697 11.5725 0.
6.89167 18.2113 0.
-625.855 -1618.51 0.
-0.000624345 -0.764461 0.
-736.905 -1344.89 0.
0.00344228 0.00724783 0.
-27.8354 -73.6379 0.
0.00904412 0.940814 0.
0.00393705 1.13008 0.
-0.0388739 -0.218061 0.
-0.0118951 -0.291656 0.
-1.98311 -1.45508 0.
-3.10884 -3.10147 0.
-6.34387 -11.6482 0.
-1.72095 -4.76622 0.
-1.94137 -5.34143 0.
-2.27098 -6.11565 0.
-10.0911 -27.1143 0.
-0.916802 -1.99001 0.
-24.3601 -66.7767 0.
-1.98818 -4.37207 0.
0.0139725 0.0244751 0.
-19.9377 -47.5333 0.
-7.24853 -11.2298 0.
-3.92788 -8.24524 0.
-2.02092 -3.81918 0.
-5.79034 -7.30481 0.
-16.2411 -35.1311 0.
0.0156492 0.350032 0.
0.265723 0.44665 0.
0.0171118 0.606582 0.
0.302458 0.790622 0.
-441.754 -1097.1 0.
0.0293104 0.0715143 0.
-776.381 -1746.17 0.
2.97228 8.17384 0.
-332.314 -866.651 0.
0.00248783 5.31272 0.
-0.0978711 -11.9227 0.
5.56927 15.4135 0.
-441.649 -1147.01 0.
-0.0557867 -17.7443 0.
-0.31351 -49.8064 0.
-414.853 -1087.76 0.
-1.2037 -3.33047 0.
-6.84667 -18.9244 0.
-359.602 -992.292 0.
21.901 60.3268 0.
-45.1587 -123.984 0.
2.09471 5.66572 0.
16.293 43.4846 0.
-0.88818 -68.0234 0.
-275.813 -726.247 0.
11.9919 30.6647 0.
-0.651044 -1.66532 0.
17.0583 44.5151 0.
-877.162 -2155.43 0.
12.3663 32.0828 0.
30.4724 77.4549 0.
-1.87937 -4.43652 0.
-337.157 -857.294 0.
-441.425 -973.552 0.
18.7143 40.3664 0.
-8.20669 -17.6308 0.
33.1237 69.6293 0.
-203.289 -377.88 0.
18.4677 28.64 0.
21.3332 31.2643 0.
52.277 68.2395 0.
-9.29208 -8.07628 0.
-1062.13 -1531.69 0.
-531.439 -810.601 0.
-154.784 -324.054 0.
-15.0986 -116.193 0.
-169.012 -356.256 0.
-0.342468 -0.791487 0.
-195.724 -442.277 0.
19.7788 49.1308 0.
4.79819 11.6583 0.
-653.669 -1599.24 0.
-7.73214 -20.0393 0.
24.3421 62.2251 0.
9.77204 24.8119 0.
-713.43 -1746.63 0.
-2.45743 -6.18298 0.
15.7378 41.2523 0.
-58.1493 -155.604 0.
10.76 29.0529 0.
12.5949 34.5588 0.
-159.707 -439.126 0.
-14.9708 -41.0709 0.
-16.6646 -46.093 0.
-74.1853 -203.988 0.
4.43225 12.238 0.
-8.10001 -22.2865 0.
11.9841 33.1665 0.
-4.49023 -12.4319 0.
-5.96609 -16.2125 0.
-312.959 -781.004 0.
11.2333 30.8465 0.
-110.027 -269.597 0.
1.01436 2.72125 0.
-1.31427 -3.5379 0.
3.73935 10.3402 0.
0.145116 0.322409 0.
-0.0234937 -0.594322 0.
-0.022923 -1.96582 0.
0.000842411 0.151671 0.
0.735954 2.0313 0.
0.363417 0.863692 0.
-0.000480512 -0.0702351 0.
-0.617584 -0.475416 0.
-2.91662 -2.78628 0.
-6.7157 -9.62296 0.
-1.32322 -3.66466 0.
-1.49644 -4.10555 0.
-1.95982 -5.2556 0.
-5.49157 -10.6825 0.
-1.58799 -3.55471 0.
-11.743 -30.8032 0.
-1.02126 -2.67948 0.
-0.0516361 -0.105572 0.
-15.5103 -26.564 0.
-5.00002 -6.62129 0.
-4.91398 -8.95304 0.
-3.28201 -4.7773 0.
-9.83468 -7.96075 0.
-20.6239 -36.7118 0.
0.244651 0.122399 0.
0.0615464 0.122375 0.
0.0782625 0.872449 0.
-9.92827e-06 -0.171437 0.
-1.46829 -3.83865 0.
0.687716 1.79768 0.
1.18325 2.79946 0.
-0.0457844 -7.7521 0.
-1.14917 -3.09416 0.
-240.621 -634.384 0.
-0.0993863 -14.6678 0.
14.7993 40.9772 0.
-0.0784494 -16.8013 0.
-361.898 -968.81 0.
-0.413645 -50.9607 0.
6.33476 17.5296 0.
10.014 27.737 0.
13.8706 38.3258 0.
10.3618 28.6083 0.
-23.9914 -65.9607 0.
-75.0912 -205.376 0.
21.3858 57.8784 0.
-542.889 -1444.96 0.
19.8629 53.1301 0.
9.38069 24.0791 0.
-5.14506 -13.0808 0.
19.723 50.0859 0.
22.2387 57.5689 0.
15.3816 40.0078 0.
19.5338 50.7444 0.
-104.579 -264.211 0.
3.82999 9.07661 0.
-3.37439 -90.6948 0.
-10.4764 -22.4593 0.
-314.274 -680.325 0.
30.8355 59.9356 0.
11.2779 23.6031 0.
2.94718 6.25232 0.
15.2238 24.2977 0.
-21.1303 -30.1911 0.
-262.132 -518.235 0.
-37.4551 -35.1796 0.
7.81241 11.1016 0.
-641.322 -965.09 0.
-15.5234 -104.043 0.
-1.79202 -3.80312 0.
-382.392 -810.874 0.
-30.3915 -70.2059 0.
-318.773 -723.638 0.
-14.5626 -36.2366 0.
16.4506 39.9354 0.
17.8749 43.0929 0.
-2.9748 -87.8873 0.
-116.774 -297.644 0.
-3.4116 -78.3476 0.
22.1455 57.3555 0.
1.18084 2.95497 0.
-576.234 -1496.84 0.
-1.36284 -72.5459 0.
8.00348 21.5772 0.
6.92952 18.9575 0.
7.97104 21.9329 0.
2.71887 7.47041 0.
8.05498 22.2732 0.
-22.3266 -61.7619 0.
-54.3154 -150.43 0.
-236.532 -648.948 0.
-9.18066 -25.402 0.
15.2105 42.1169 0.
-533.558 -1453.72 0.
-0.0116277 -13.6721 0.
-78.6601 -204.849 0.
-264.642 -658.705 0.
3.3004 8.90646 0.
-0.0443916 -9.08359 0.
-0.048144 -14.3251 0.
0.696754 1.70536 0.
0.749482 1.79516 0.
-651.861 -1470.06 0.
0.153262 0.396271 0.
-0.000761535 -2.70319 0.
-656.366 -1751.04 0.
-0.0221474 -0.330743 0.
-715.128 -1476.27 0.
-14.0007 -24.1701 0.
-2.63224 -4.46743 0.
-745.647 -1905.23 0.
-11.5076 -26.0853 0.
-0.015632 -0.0474775 0.
-438.012 -1194.44 0.
-308.305 -852.34 0.
-111.131 -305.047 0.
-59.2499 -164.054 0.
-561.719 -1490.1 0.
-25.822 -69.2765 0.
-10.6215 -29.1511 0.
-725.219 -1945.85 0.
-0.874686 -1.0641 0.
-11.1985 -18.2395 0.
-667.544 -1282.95 0.
-0.000663029 -0.521098 0.
-641.739 -1717.03 0.
-0.00394462 -0.639299 0.
-0.121999 -1.72331 0.
-401.25 -826.431 0.
-0.0455373 -3.96489 0.
-0.158882 -3.44644 0.
-0.151701 -21.0567 0.
6.22863 16.9792 0.
10.0361 26.6685 0.
3.50193 9.56814 0.
-0.0595531 -26.7641 0.
-0.194551 -49.2029 0.
-0.138071 -54.7061 0.
14.7305 39.7939 0.
-5.1295 -14.1942 0.
-6.49409 -17.8639 0.
4.2451 11.7254 0.
-5.39458 -14.8903 0.
23.162 63.7666 0.
-452.441 -1231.79 0.
1.87561 5.06422 0.
-4.10379 -11.0365 0.
-8.0669 -21.4895 0.
-35.1132 -90.1015 0.
-5.77975 -15.2077 0.
-704.908 -1778.11 0.
30.0972 77.3383 0.
31.8863 82.9708 0.
14.8184 38.7569 0.
-244.941 -615.691 0.
-83.2506 -198.119 0.
18.8068 47.9669 0.
46.6506 100.465 0.
-2.5335 -5.99352 0.
-396.631 -771.543 0.
-20.345 -42.3516 0.
9.57672 20.2242 0.
-17.1313 -54.7805 0.
-554.223 -767.209 0.
-76.1282 -126.957 0.
8.22098 8.61883 0.
26.9865 47.6972 0.
-409.37 -696.423 0.
57.413 117.678 0.
-27.4689 -57.9926 0.
-2.71836 -6.11651 0.
38.625 89.1477 0.
-233.33 -583.797 0.
1.51061 3.76619 0.
14.6088 36.7117 0.
-5.87652 -14.2375 0.
-16.6185 -42.7063 0.
-580.835 -1478.05 0.
30.1223 79.3534 0.
20.4606 53.1188 0.
22.685 56.4682 0.
25.4641 64.9723 0.
27.6621 72.7588 0.
-289.14 -778.081 0.
-9.54658 -25.9558 0.
-51.3526 -141.233 0.
-40.2534 -110.756 0.
-86.4646 -237.17 0.
-3.75077 -10.3729 0.
-98.9951 -274.191 0.
-19.6605 -54.4231 0.
-5.016 -13.8593 0.
9.41149 26.0623 0.
-0.0200964 -60.4808 0.
-1.86327 -5.13148 0.
-110.897 -288.415 0.
4.00968 11.0462 0.
-0.256988 -23.9461 0.
-364.014 -942.325 0.
3.8305 10.4908 0.
-481.088 -1074.7 0.
3.34627 8.57563 0.
0.855924 2.18924 0.
0.723042 1.96665 0.
8.08169e-05 0.0313998 0.
0.208383 0.484174 0.
-0.00620652 -0.0917871 0.
-2.63237 -5.42791 0.
-0.0581423 -0.128273 0.
-0.00169834 -0.0340665 0.
0.0127853 0.0758463 0.
0.0905989 0.164728 0.
0.000775172 0.00218436 0.
0.0040651 0.0323871 0.
-0.00647347 -0.214858 0.
-32.8279 -90.5355 0.
-5.53857 -15.1264 0.
-4.59987 -12.594 0.
-24.9386 -67.2126 0.
-7.97149 -21.7766 0.
-5.58833 -15.4343 0.
-0.0224387 -0.0361759 0.
-0.17483 -0.277398 0.
-1.5808 -2.53447 0.
0.0556078 0.151149 0.
-2.28769 -6.32122 0.
1.13207 3.11897 0.
1.25133 3.15895 0.
3.73449 10.3433 0.
-416.657 -997.44 0.
6.52508 18.0004 0.
-347.466 -905.658 0.
0.0154346 3.95177 0.
-0.507124 -29.2421 0.
-0.223396 -43.5526 0.
15.4522 42.7994 0.
-0.158725 -42.4419 0.
4.17977 11.5059 0.
8.97275 24.8497 0.
-3.3855 -9.3674 0.
14.8895 40.9957 0.
-12.904 -35.6616 0.
-83.3061 -229.879 0.
14.2833 39.2 0.
22.8701 62.3464 0.
17.1046 46.0759 0.
3.77765 10.1774 0.
12.143 31.8176 0.
-152.948 -392.409 0.
4.88483 12.7656 0.
30.6499 80.2382 0.
26.6837 68.0935 0.
-29.4272 -76.6113 0.
-6.23856 -16.1313 0.
-437.838 -1095.85 0.
-118.061 -282.109 0.
-3.16342 -90.0979 0.
-294.218 -714.078 0.
42.0931 99.3896 0.
12.1184 25.8761 0.
56.9049 117.728 0.
37.3829 78.5625 0.
31.6098 58.1642 0.
43.7569 66.3783 0.
-4.32637 -21.3541 0.
40.1597 46.5389 0.
-7.0702 -24.4012 0.
-606.938 -1069.44 0.
29.792 60.5714 0.
-127.292 -267.235 0.
9.24344 20.7664 0.
-29.0294 -66.9446 0.
-234.007 -584.503 0.
-73.8973 -186.209 0.
33.5728 84.8188 0.
-31.7059 -77.1947 0.
22.7253 58.6957 0.
-2.87346 -85.7912 0.
-56.6874 -152.272 0.
-87.8403 -228.602 0.
2.81019 7.37435 0.
-2.54863 -75.8309 0.
26.6114 69.4186 0.
14.9426 39.7313 0.
18.869 51.2322 0.
-144.221 -396.455 0.
-11.6742 -32.1411 0.
-7.29649 -20.0217 0.
-7.7558 -21.4427 0.
-7.7488 -21.46 0.
1.69142 4.68301 0.
15.8861 43.8103 0.
-131.279 -363.565 0.
-7.51806 -20.8102 0.
-10.662 -29.3099 0.
-127.406 -352.595 0.
11.7488 32.2661 0.
-0.132764 -10.4986 0.
8.00945 22.1452 0.
5.56791 15.2802 0.
0.00192294 0.913366 0.
2.77907 7.36152 0.
-0.00401765 -7.10006 0.
1.35867 3.75522 0.
1.82303 4.94867 0.
0.268697 0.624137 0.
-124.127 -297.952 0.
-441.772 -1085.14 0.
-0.00451943 -0.639466 0.
0.184535 0.50562 0.
-510.704 -1375.87 0.
-9.51728 -25.1187 0.
-8.50105 -22.8098 0.
-292.116 -798.183 0.
-304.573 -840.185 0.
-100.95 -273.751 0.
-38.5852 -106.453 0.
-413.969 -1116.47 0.
-113.167 -312.363 0.
-36.1679 -96.1825 0.
-335.271 -706.65 0.
-1.68928 -4.36713 0.
-567.774 -1565.67 0.
0.297308 0.699992 0.
-32.0008 -87.7566 0.
0.153091 0.421908 0.
-0.00352996 -3.9667 0.
1.24216 3.23889 0.
-0.0525336 -17.494 0.
-0.260468 -0.669351 0.
-0.0112173 -16.0795 0.
-52.104 -137.269 0.
-0.0129464 -14.9706 0.
-230.169 -609.651 0.
6.47005 17.7116 0.
7.72342 21.2943 0.
-0.180589 -0.495761 0.
20.0589 55.2049 0.
-0.00218344 -59.8578 0.
-221.892 -613.913 0.
-13.6381 -37.5821 0.
3.60998 9.97433 0.
7.2119 19.9348 0.
19.3075 52.7957 0.
-0.398143 -67.8659 0.
1.99074 5.35468 0.
0.521158 1.40646 0.
12.3691 32.379 0.
14.645 38.7763 0.
15.0317 39.0229 0.
25.8332 67.9332 0.
-224.385 -605.658 0.
-119.232 -310.596 0.
25.878 67.0528 0.
22.5338 55.8045 0.
-377.855 -915.526 0.
-19.6816 -50.4402 0.
-106.193 -257.732 0.
-21.3514 -50.2872 0.
-13.0493 -101.44 0.
6.78266 13.9361 0.
-4.6758 -9.77486 0.
19.2906 35.3274 0.
-22.1567 -33.2508 0.
-14.2517 -56.0475 0.
36.6527 41.2747 0.
-11.552 -36.085 0.
-4.74794 -40.9831 0.
7.82786 15.7781 0.
-792.384 -1652.97 0.
28.7361 64.4528 0.
-316.657 -729.731 0.
-120.846 -301.402 0.
-177.949 -447.507 0.
26.8452 68.1929 0.
-161.404 -394.98 0.
-19.0701 -49.0746 0.
15.6261 40.3189 0.
-41.1096 -110.435 0.
-379.888 -991.229 0.
-20.0335 -52.6728 0.
9.78108 25.2085 0.
-13.7869 -35.5482 0.
16.3738 43.6077 0.
-10.3805 -28.1453 0.
10.1045 27.6823 0.
8.33788 22.945 0.
-60.6827 -166.578 0.
-56.5658 -155.283 0.
17.1185 47.4021 0.
13.564 37.5601 0.
-115.582 -317.998 0.
11.6422 32.2135 0.
8.80778 24.3838 0.
-183.393 -502.976 0.
5.73801 15.8781 0.
11.2854 30.8396 0.
-210.911 -563.45 0.
5.53375 15.3151 0.
6.83064 18.7588 0.
0.0163123 7.43656 0.
-0.0986957 -7.72881 0.
5.33488 14.4604 0.
-434.657 -1056.44 0.
-0.0375645 -0.098769 0.
-262.898 -644.657 0.
0.223091 0.60209 0.
-7.04886e-06 -0.000290327 0.
-0.00225943 -0.601836 0.
-0.000588264 -0.303175 0.
-12.9452 -31.0217 0.
-1.4661 -3.57216 0.
-10.2883 -26.1591 0.
-5.62336 -15.1921 0.
0.0492369 0.134645 0.
-9.48081 -23.4207 0.
-0.496105 -1.31144 0.
-1.66235 -4.5434 0.
-9.61706e-05 -0.15297 0.
-0.00326565 -0.00895676 0.
-0.0363345 -0.098427 0.
-1.40892 -3.86114 0.
-3.18336 -8.6987 0.
-0.0378315 -0.643899 0.
-0.00082873 -2.03242 0.
-331.974 -852.32 0.
-0.0770974 -3.33671 0.
-449.38 -1024.49 0.
4.47446 12.3104 0.
-0.123253 -6.76533 0.
-0.0139912 -27.0121 0.
-105.836 -280.038 0.
11.6017 31.9812 0.
18.4274 50.9615 0.
-446.668 -1222.73 0.
10.3523 28.5426 0.
-0.45575 -1.258 0.
-296.139 -814.748 0.
-0.000956831 -51.6609 0.
17.2396 47.5071 0.
-129.049 -355.893 0.
-1.12492 -3.10742 0.
21.7199 60.0278 0.
-13.0502 -35.6805 0.
17.0509 46.6535 0.
5.42353 14.6145 0.
-98.8427 -266.118 0.
1.16027 3.03484 0.
19.2382 51.024 0.
-2.49147 -80.241 0.
-23.9158 -63.1627 0.
-38.4546 -103.655 0.
-404.841 -1048.9 0.
-14.5606 -37.8087 0.
-6.16991 -15.3312 0.
-25.1691 -64.6659 0.
37.0209 95.1048 0.
-29.1504 -70.7468 0.
-51.0734 -119.934 0.
16.0726 34.3837 0.
4.60802 9.39837 0.
41.9834 87.2878 0.
-34.0525 -62.0419 0.
-26.2458 -38.9696 0.
33.2224 55.18 0.
28.9805 31.8176 0.
30.2764 48.1406 0.
13.209 27.8378 0.
-13.4506 -26.8767 0.
-2.91122 -6.33968 0.
-5.2991 -11.8652 0.
-338.709 -779.602 0.
-8.56653 -21.2109 0.
-8.73614 -21.9258 0.
-14.445 -36.8935 0.
-368.633 -906.895 0.
-40.1851 -103.518 0.
-20.861 -54.1286 0.
5.86595 15.7588 0.
-110.028 -295.091 0.
29.6864 79.9898 0.
-389.794 -1009.11 0.
-16.5328 -42.8336 0.
20.508 54.7047 0.
-0.616747 -1.63911 0.
-4.33513 -11.8746 0.
-26.7044 -73.4541 0.
-59.2402 -162.679 0.
-62.8219 -172.519 0.
17.1756 47.5509 0.
20.9718 58.0801 0.
13.0937 36.0984 0.
-6.15311 -17.0313 0.
5.06242 14.0168 0.
16.104 44.6017 0.
6.66365 18.422 0.
-0.356956 -42.5822 0.
-0.0143235 -37.8779 0.
-0.0110291 -30.0291 0.
-0.0220175 -5.39955 0.
-72.7927 -196.942 0.
-179.752 -466.496 0.
-0.0130426 -6.25259 0.
-0.113205 -0.281924 0.
-0.0328397 -2.20835 0.
-0.29538 -0.7809 0.
-3.88075e-06 -0.944466 0.
-0.0340753 -0.805169 0.
0.140933 0.389002 0.
0.249137 0.689356 0.
-15.4624 -34.1115 0.
-8.19572 -18.3661 0.
-14.2808 -33.3951 0.
-0.211671 -0.581995 0.
-0.0319083 -0.0880305 0.
-0.0142845 -0.0381149 0.
0.0215442 0.0588369 0.
-0.221426 -0.6129 0.
0.0650174 0.180006 0.
0.013185 0.0364614 0.
-0.00460322 -0.012642 0.
-1.24756 -3.44596 0.
-3.08577 -8.54688 0.
-0.175692 -3.41261 0.
-0.00420562 -1.5328 0.
0.156947 0.42457 0.
2.14265 5.83694 0.
-0.526058 -9.61439 0.
1.25372 3.46632 0.
-122.315 -332.334 0.
-0.0311546 -34.1613 0.
13.4725 37.2769 0.
-194.158 -536.013 0.
-2.73368 -7.55733 0.
-5.43031 -14.9808 0.
-37.8962 -104.484 0.
3.80077 10.4888 0.
10.3296 28.3876 0.
-95.7616 -263.856 0.
-3.70341 -10.2133 0.
3.54442 9.78346 0.
-68.7859 -189.964 0.
11.533 31.8688 0.
-5.66484 -15.515 0.
-68.0803 -186.581 0.
-0.72957 -1.96932 0.
8.96989 24.0769 0.
-140.914 -368.399 0.
-99.6133 -264.683 0.
-103.292 -279.044 0.
-351.58 -932.715 0.
-8.26066 -22.237 0.
-6.28014 -16.3035 0.
-81.388 -211.786 0.
-38.1952 -95.2253 0.
-24.2273 -62.1479 0.
-2.9174 -7.51373 0.
13.4758 32.7063 0.
-469.493 -1098.74 0.
-80.1531 -171.628 0.
17.9132 39.7449 0.
-212.719 -439.574 0.
-32.0335 -58.0433 0.
19.0297 33.3381 0.
-22.6788 -62.2555 0.
-372.678 -400.869 0.
44.5265 71.0709 0.
37.2807 75.3771 0.
-24.8332 -49.206 0.
12.0128 25.8616 0.
-55.2041 -123.37 0.
13.0875 32.5002 0.
-24.1168 -59.6898 0.
19.2197 48.1368 0.
-10.6319 -27.2963 0.
-224.35 -569.48 0.
-37.7546 -97.3567 0.
-8.21413 -21.4265 0.
-18.6863 -50.0371 0.
-28.9029 -77.5237 0.
26.4164 71.2707 0.
26.3609 71.065 0.
1.60944 4.18906 0.
-244.906 -654.403 0.
-4.26197 -11.346 0.
1.03599 2.83727 0.
-128.768 -354.039 0.
10.0916 27.6899 0.
-43.1129 -118.438 0.
-8.5212 -23.5853 0.
-70.3102 -194.731 0.
19.0799 52.6016 0.
-239.344 -662.66 0.
-6.66391 -18.4577 0.
-11.5538 -32.0014 0.
-3.28204 -9.06132 0.
-10.0594 -27.6966 0.
8.45106 23.3929 0.
-0.0176745 -26.1892 0.
12.0135 33.0826 0.
-4.02592 -10.8865 0.
0.257138 0.68248 0.
7.25036 20.0704 0.
-0.251965 -6.57343 0.
3.22349 8.70667 0.
-229.535 -607.975 0.
-0.00581686 -3.23394 0.
-0.0428175 -5.42127 0.
-468.011 -1124.36 0.
0.347247 0.939872 0.
-222.083 -530.211 0.
-42.8998 -93.5389 0.
-100.596 -250.852 0.
-108.831 -300.123 0.
-269.37 -746.092 0.
-66.8808 -180.965 0.
-25.3335 -69.8651 0.
-325.264 -894.271 0.
-39.1347 -108.331 0.
-23.402 -64.1137 0.
-276.886 -703.128 0.
-1.43117 -3.64017 0.
-279.037 -606.604 0.
-0.00618487 -1.52242 0.
-238.134 -655.97 0.
-0.0146511 -3.62347 0.
0.00253137 1.1749 0.
0.0320362 5.72208 0.
-0.000921563 -10.1244 0.
2.98823 8.0341 0.
3.53029 9.73359 0.
15.3222 42.3816 0.
18.4287 51.0296 0.
15.8991 43.93 0.
10.1737 28.0667 0.
7.02041 19.3921 0.
21.155 58.3653 0.
-3.87131 -10.6378 0.
-8.37006 -23.1829 0.
-22.192 -61.2441 0.
9.70472 26.7821 0.
23.5773 65.2029 0.
-87.0956 -240.62 0.
9.97291 27.357 0.
-1.36017 -3.71289 0.
-2.08501 -5.63739 0.
-49.8082 -133.38 0.
-20.2817 -54.0088 0.
-431.534 -1149.17 0.
9.53734 25.7238 0.
-116.277 -311.825 0.
12.2868 33.0285 0.
-65.253 -169.778 0.
-56.1945 -144.497 0.
-68.3037 -170.879 0.
37.4492 95.8966 0.
5.82915 14.3146 0.
7.08924 17.2088 0.
-96.7172 -244.555 0.
-117.628 -252.003 0.
-28.3399 -62.2572 0.
-56.7674 -116.574 0.
-172.008 -309.598 0.
20.6741 36.0113 0.
27.4879 41.6978 0.
-26.4625 -60.2357 0.
33.0945 55.3735 0.
-14.2536 -73.5633 0.
32.1919 69.3634 0.
43.1671 91.7677 0.
-374.466 -835.238 0.
-11.2247 -27.8584 0.
-32.2735 -79.8437 0.
-20.1709 -51.3597 0.
-230.019 -593.78 0.
-97.6696 -249.394 0.
-80.5543 -207.943 0.
-61.1942 -157.916 0.
26.4064 70.8146 0.
5.17713 13.8875 0.
-8.74123 -23.8397 0.
10.0983 27.2585 0.
18.1626 48.4311 0.
-18.2147 -48.681 0.
-11.478 -30.6063 0.
-82.1249 -224.874 0.
-0.42449 -1.16067 0.
-0.751854 -2.06332 0.
-47.9313 -131.721 0.
6.27116 17.3685 0.
-63.7773 -176.617 0.
6.47795 17.8587 0.
2.12541 5.87038 0.
0.457094 1.26607 0.
-8.59393 -23.8037 0.
-0.014029 -53.0147 0.
-9.64964 -26.5691 0.
-0.00741334 -49.4637 0.
-0.418581 -55.3265 0.
-4.36053 -12.0154 0.
2.32132 6.26185 0.
-0.01249 -7.66786 0.
-3.39282e-05 -4.28656 0.
-0.211132 -25.1985 0.
-0.0773845 -7.20842 0.
-0.037547 -6.17304 0.
1.61315 4.46607 0.
-0.104825 -5.54342 0.
0.457675 1.19327 0.
0.000179535 0.469962 0.
-0.44121 -1.1417 0.
-0.0443137 -0.117018 0.
-0.00160308 -0.00431599 0.
-0.000380228 -0.221918 0.
-1.10761 -3.03555 0.
-9.79006 -26.8706 0.
-3.25661 -9.01808 0.
-0.000173742 -0.0393296 0.
-0.000232914 -0.0200864 0.
0.0973675 0.269461 0.
0.0425441 0.117232 0.
0.181909 0.499244 0.
0.284568 0.705003 0.
1.98537 5.20029 0.
0.134108 0.371128 0.
4.31918 11.6722 0.
-126.969 -349.891 0.
0.0271157 3.53875 0.
7.44539 20.6223 0.
0.682813 1.84511 0.
0.400182 1.08768 0.
-5.02162 -13.8888 0.
-6.83763 -18.9338 0.
-34.4975 -95.5435 0.
2.65006 7.3107 0.
4.65854 12.876 0.
21.2724 58.2572 0.
14.3142 39.3293 0.
19.5398 54.1161 0.
-1.90143 -5.25114 0.
-8.76541 -24.1847 0.
-4.57625 -12.6539 0.
5.62903 15.5664 0.
-5.16215 -14.1807 0.
-37.0351 -100.918 0.
-0.793208 -75.2341 0.
-208.854 -558.045 0.
6.71991 17.922 0.
-35.5259 -95.5202 0.
16.6643 44.876 0.
-12.9867 -34.7721 0.
27.7268 73.7924 0.
-72.9058 -190.107 0.
-109.2 -280.757 0.
-120.89 -303.505 0.
36.5337 93.3592 0.
-4.3117 -87.2568 0.
18.1576 44.0819 0.
-73.6398 -184.879 0.
-231.507 -496.243 0.
-19.6038 -42.5968 0.
19.4863 43.7822 0.
-131.578 -235.131 0.
-522.119 -906.177 0.
-8.84752 -13.222 0.
-21.8088 -47.2133 0.
41.1275 72.1204 0.
-452.301 -829.198 0.
37.9534 80.0892 0.
41.4884 87.0253 0.
23.8592 57.6761 0.
27.1883 64.5386 0.
-46.9423 -116.087 0.
-3.60301 -92.2115 0.
-37.1694 -93.9613 0.
19.0031 50.0841 0.
-78.4155 -202.634 0.
-201.55 -520.694 0.
20.8423 55.9776 0.
-22.0237 -58.7111 0.
-5.08024 -13.8583 0.
0.508318 1.37384 0.
-15.3427 -41.9379 0.
-16.9479 -45.3265 0.
-11.9568 -31.9342 0.
-12.1559 -32.8821 0.
11.0906 30.3185 0.
-27.1581 -74.5424 0.
-16.5716 -45.4751 0.
12.4533 34.4921 0.
-15.819 -43.7998 0.
1.36441 3.76783 0.
15.5549 42.9642 0.
-94.939 -262.951 0.
-15.0369 -41.4897 0.
-0.0212715 -60.8342 0.
6.75867 18.6102 0.
10.6882 29.3507 0.
-0.258362 -42.3737 0.
5.96584 16.4419 0.
-181.477 -487.642 0.
7.22608 19.9943 0.
-14.0001 -38.1779 0.
-0.227428 -28.4763 0.
-0.117169 -0.320075 0.
-0.0014524 -2.22076 0.
-0.0204453 -6.8042 0.
-0.138194 -4.77935 0.
-0.0205755 -2.09417 0.
-0.00149881 -2.56003 0.
-109.835 -281.395 0.
-23.5479 -61.5378 0.
-38.4464 -102.478 0.
-62.8917 -170.302 0.
-134.078 -371.324 0.
-40.6596 -111.93 0.
-20.3568 -54.4295 0.
-131.726 -361.385 0.
-3.42348 -9.34785 0.
-149.993 -415.402 0.
0.114493 0.317017 0.
0.559162 1.54873 0.
-0.0250818 -1.28166 0.
-0.24346 -5.32885 0.
1.35595 3.70347 0.
-0.291301 -19.8769 0.
-1.6341 -4.52154 0.
-3.95621e-06 -26.422 0.
-0.00129264 -24.7896 0.
-0.269564 -0.732601 0.
12.7855 34.7169 0.
-31.762 -87.8514 0.
-5.96394 -16.5147 0.
-7.75453 -21.4775 0.
-13.1129 -36.2679 0.
-8.349 -23.088 0.
-2.59558 -7.10727 0.
-104.511 -289.471 0.
-9.06909 -25.1143 0.
21.8207 60.2512 0.
16.6145 45.9285 0.
5.82164 16.0955 0.
-30.9427 -85.5522 0.
6.74942 18.4832 0.
-234.152 -636.959 0.
21.0385 56.7091 0.
-95.1406 -253.803 0.
-0.774063 -67.6707 0.
-13.5978 -36.5006 0.
12.3435 33.1674 0.
-14.6086 -39.0514 0.
-3.3754 -9.00487 0.
-125.345 -327.573 0.
2.5409 6.5331 0.
-9.8963 -25.7146 0.
-5.16476 -13.1688 0.
-4.24962 -86.9328 0.
-402.526 -984.244 0.
-4.9127 -12.2421 0.
23.0156 52.3367 0.
-32.4117 -69.6247 0.
12.2339 26.8584 0.
18.0447 36.7016 0.
-78.8551 -141.25 0.
33.5684 49.39 0.
-309.137 -660.683 0.
-22.2664 -96.2051 0.
-17.8247 -37.3561 0.
-23.4865 -48.5756 0.
-179.926 -372.368 0.
12.6903 30.5515 0.
-216.411 -511.996 0.
13.1611 32.5359 0.
-7.61868 -19.2148 0.
21.8395 54.9525 0.
20.4207 53.8842 0.
-89.0771 -233.266 0.
-11.2389 -29.0659 0.
-6.87148 -18.4844 0.
-1.88251 -5.02734 0.
26.9394 73.5094 0.
6.99993 18.9561 0.
25.2368 69.1215 0.
-15.1108 -40.4413 0.
-0.442851 -66.0428 0.
-11.5133 -31.2054 0.
-0.355083 -63.5393 0.
19.2724 52.5906 0.
-3.45708 -9.48836 0.
1.19626 3.31342 0.
-12.4779 -34.5609 0.
-0.0850059 -58.4062 0.
2.54521 7.03045 0.
-19.4766 -53.8704 0.
-12.6765 -34.9817 0.
-9.84465 -27.2392 0.
-71.8106 -197.752 0.
10.2245 28.0782 0.
-0.236447 -48.5516 0.
-72.1759 -198.919 0.
7.00526 19.4033 0.
-6.05964e-05 -26.6794 0.
-123.008 -335.68 0.
-0.0452762 -7.13768 0.
0.480129 1.31995 0.
-0.019345 -9.95658 0.
-100.846 -278.987 0.
2.27002 6.22631 0.
-137.592 -362.138 0.
1.44639 4.00364 0.
-18.6302 -44.6844 0.
0.0450552 0.114902 0.
-6.24949 -16.3265 0.
-33.3903 -91.2999 0.
-2.15143 -5.89669 0.
0.164946 0.456689 0.
-9.50288e-05 -0.368149 0.
-3.86884 -10.6501 0.
-1.50841 -4.10261 0.
-3.09708 -8.52956 0.
-62.235 -172.356 0.
-0.00494269 -1.87065 0.
-133.918 -366.269 0.
0.859794 2.31632 0.
-0.974915 -2.61563 0.
8.62373 22.9425 0.
-22.7464 -63.0015 0.
7.19201 19.9134 0.
-0.501261 -30.9538 0.
-187.728 -512.743 0.
-0.439479 -50.1351 0.
18.633 51.5854 0.
-102.501 -283.838 0.
-11.1886 -30.9896 0.
4.17348 11.5481 0.
-51.413 -142.236 0.
-2.59679 -7.05427 0.
-32.9269 -91.2019 0.
7.48235 20.7175 0.
-14.8188 -40.9098 0.
-2.27462 -6.29354 0.
14.8945 41.2036 0.
-88.2632 -243.988 0.
25.1554 68.782 0.
-9.12668 -24.8011 0.
-76.4979 -205.767 0.
-1.17818 -74.125 0.
-5.41426 -14.6262 0.
3.99424 10.7028 0.
5.36035 14.4501 0.
18.6746 49.8356 0.
17.967 48.0492 0.
-83.6086 -212.063 0.
2.1444 5.51459 0.
1.46945 3.8209 0.
-12.6926 -32.2972 0.
7.36927 18.3237 0.
-344.373 -836.049 0.
-14.6397 -36.2054 0.
19.9906 45.3032 0.
-144.11 -305.995 0.
-0.415153 -0.899541 0.
-7.14418 -70.1508 0.
-309.463 -550.324 0.
26.2188 54.631 0.
35.0212 73.1207 0.
-1.63151 -3.47127 0.
-33.2675 -68.7883 0.
-159.371 -323.593 0.
-24.5185 -54.6208 0.
-6.1833 -14.8315 0.
-92.5015 -218.22 0.
4.54815 11.5653 0.
-59.1457 -147.032 0.
5.14681 12.8857 0.
-11.6425 -30.7603 0.
-38.7753 -101.703 0.
18.9237 51.0676 0.
-63.2941 -167.791 0.
-20.4206 -54.6276 0.
22.1985 60.5839 0.
29.5776 80.1118 0.
-0.264547 -66.9267 0.
-213.468 -576.17 0.
-3.53662 -9.66345 0.
-11.6557 -31.6497 0.
-6.62826 -17.9357 0.
0.233737 0.638826 0.
-8.05071 -22.0997 0.
2.25288 6.23112 0.
-9.65975 -26.7558 0.
-7.19014 -19.8362 0.
9.74208 26.9114 0.
-0.035127 -28.3521 0.
6.0465 16.6848 0.
-98.2666 -271.824 0.
-22.4611 -60.6928 0.
-0.200633 -56.2771 0.
-24.7576 -68.0074 0.
-5.49901 -15.1001 0.
-5.88016e-05 -41.1268 0.
6.35403 17.5984 0.
-0.0933498 -36.7242 0.
7.08445 19.4139 0.
-68.3235 -182.521 0.
-0.999096 -2.76224 0.
2.27582 6.3004 0.
2.8243 7.6344 0.
-0.0276731 -5.19413 0.
-0.0245487 -3.56987 0.
0.192841 0.456818 0.
-0.0205153 -0.397367 0.
-3.44682 -8.72767 0.
-11.5273 -31.9007 0.
-0.0044139 -0.289192 0.
0.151028 0.413389 0.
-0.000357046 -0.276902 0.
-1.2091 -3.34872 0.
0.158279 0.428862 0.
-1.06606 -2.92935 0.
-2.67161 -7.39009 0.
0.781489 2.1165 0.
0.0777186 0.215044 0.
-0.0331311 -3.36618 0.
-97.7764 -265.252 0.
6.6641 17.7367 0.
5.11742 13.7973 0.
11.4135 31.568 0.
4.9459 13.043 0.
15.4043 41.6538 0.
-7.66124 -20.7632 0.
-7.29536 -20.015 0.
-60.4663 -167.474 0.
2.82754 7.8317 0.
-2.7889 -7.7196 0.
14.7536 40.2508 0.
-11.618 -31.4808 0.
-0.000398123 -58.8294 0.
-0.0208118 -53.2028 0.
-7.1138 -19.6355 0.
-7.35837 -20.3721 0.
-22.6924 -62.7661 0.
-21.2647 -58.5373 0.
-0.541854 -1.47938 0.
-17.9524 -48.7987 0.
-28.0953 -74.1067 0.
5.47673 14.6171 0.
0.0512951 0.139196 0.
8.85273 23.6759 0.
-9.23135 -24.9605 0.
-277.384 -737.997 0.
-5.4679 -14.6577 0.
29.1797 77.1151 0.
-45.2978 -115.208 0.
7.48465 19.4804 0.
-146.283 -359.107 0.
29.3785 73.1902 0.
9.43802 23.5704 0.
-4.65928 -85.6302 0.
20.6116 46.5469 0.
-14.9554 -32.2846 0.
30.2043 64.5815 0.
-16.0123 -35.3591 0.
-14.7922 -70.9273 0.
12.579 23.8353 0.
33.7928 64.6117 0.
21.1239 44.2976 0.
-11.1061 -83.9282 0.
-511.878 -1022.93 0.
7.3942 16.3524 0.
-169.764 -369.449 0.
-5.23667 -12.3211 0.
23.0395 58.4959 0.
14.4771 35.9326 0.
-4.60359 -97.0373 0.
-22.1683 -56.5458 0.
29.0555 76.3267 0.
-0.492794 -67.6977 0.
-14.8188 -39.4555 0.
-11.0141 -29.5097 0.
20.8491 56.937 0.
-16.0923 -43.5798 0.
-0.235235 -69.4059 0.
-84.2303 -227.72 0.
6.63343 18.1615 0.
-0.605424 -1.64673 0.
7.74102 21.1678 0.
22.5892 61.8275 0.
-106.8 -293.223 0.
-7.03393 -19.4781 0.
16.6781 46.1953 0.
-0.103529 -55.6573 0.
-86.0749 -237.895 0.
20.2987 55.9059 0.
9.88146 27.2601 0.
-4.90721 -13.3982 0.
5.15217 13.8597 0.
16.6891 45.8321 0.
-0.623123 -1.712 0.
-11.0906 -30.3584 0.
-0.000134147 -42.816 0.
-0.18692 -47.6587 0.
-4.12818 -11.3471 0.
-0.0316646 -11.6779 0.
-0.0382729 -1.34325 0.
-0.239591 -0.662581 0.
1.88689 5.20395 0.
-0.0792711 -4.68466 0.
2.02825 5.61197 0.
2.23385 6.05057 0.
-32.3817 -75.1703 0.
-6.10532 -14.39 0.
-4.89822 -11.7992 0.
-25.9108 -71.7428 0.
-17.1336 -47.3538 0.
-9.343 -25.2569 0.
-11.8158 -32.5282 0.
-42.6806 -118.065 0.
-0.402044 -1.09668 0.
-2.44694 -6.69893 0.
-17.4342 -47.7726 0.
-0.0154462 -0.934259 0.
-0.147283 -0.407763 0.
4.29235 11.6555 0.
-0.847568 -14.7898 0.
-5.27407 -14.3902 0.
2.49987 6.79387 0.
-74.2539 -205.041 0.
-1.19939 -46.3601 0.
18.1982 49.1617 0.
-11.6704 -31.9658 0.
7.14597 19.6157 0.
15.9884 44.284 0.
18.8942 52.2975 0.
4.38347 12.1366 0.
4.84175 13.1812 0.
10.3911 28.7211 0.
1.1273 3.12226 0.
-0.0387018 -53.0875 0.
-11.5283 -31.8805 0.
-7.81987 -21.6572 0.
-83.5794 -231.145 0.
6.59097 18.1842 0.
23.3663 63.7056 0.
0.536553 1.45895 0.
2.57678 6.95626 0.
-0.141419 -0.377372 0.
9.13295 24.8763 0.
-110.065 -293.522 0.
-0.864112 -2.34261 0.
21.5911 57.6002 0.
-11.4844 -29.8386 0.
30.7685 81.7733 0.
-136.812 -348.158 0.
-1.98966 -74.9678 0.
-6.20883 -15.2795 0.
16.1676 40.1908 0.
23.5786 58.4767 0.
-18.3764 -41.1951 0.
35.3358 79.508 0.
-9.25189 -70.9612 0.
32.2176 67.9624 0.
-8.44813 -71.6948 0.
-16.3833 -29.4352 0.
10.5935 18.4799 0.
3.48551 6.13924 0.
0.417183 0.862703 0.
-100.104 -201.854 0.
-11.3386 -23.4091 0.
27.7815 60.9831 0.
-145.034 -313.576 0.
-19.1109 -47.4708 0.
-18.1881 -44.9672 0.
32.8683 81.4024 0.
-135.74 -348.744 0.
35.1001 89.7257 0.
14.4387 37.9745 0.
16.7377 45.7566 0.
10.4972 28.0479 0.
-0.363343 -64.9267 0.
-0.289226 -66.7525 0.
-0.643518 -66.3675 0.
8.70203 23.9646 0.
4.27991 11.5801 0.
-1.46235 -4.01001 0.
7.06662 19.1761 0.
18.0083 49.3952 0.
-39.5036 -108.252 0.
-34.2815 -93.6134 0.
-7.64849 -21.1847 0.
1.08169 2.99601 0.
-8.17908 -22.5522 0.
-1.51314 -4.18092 0.
3.43555 9.4318 0.
1.62615 4.50351 0.
-10.3536 -28.6418 0.
-31.7709 -85.0969 0.
-37.3423 -102.537 0.
-7.23884 -19.8769 0.
-47.273 -128.946 0.
-4.10067 -11.1311 0.
8.93285 24.4635 0.
12.0465 33.0542 0.
3.31244 8.35974 0.
-0.41085 -10.2246 0.
-0.00556837 -10.4485 0.
-0.048989 -11.3153 0.
2.14715 5.78527 0.
-9.7829 -27.0483 0.
-0.0618684 -2.15107 0.
-4.36438 -10.3725 0.
0.178903 0.439632 0.
-0.00800585 -0.179826 0.
-0.744128 -2.05598 0.
-7.08826 -19.6282 0.
-2.54327 -6.93663 0.
-0.370932 -1.02495 0.
-0.0455619 -0.126056 0.
0.0642193 0.172019 0.
-2.38923 -6.45084 0.
4.79523 11.0352 0.
-4.04095 -10.904 0.
3.84932 10.5679 0.
-0.122584 -15.0793 0.
-0.687322 -10.6622 0.
-10.8216 -29.306 0.
9.02615 24.3855 0.
-5.2087 -13.4237 0.
16.8706 43.5341 0.
-9.58797 -25.8747 0.
0.684656 1.87622 0.
-3.33666 -9.16327 0.
-7.58235 -21.0016 0.
-0.0181651 -47.3271 0.
8.32636 22.9827 0.
2.09183 5.68333 0.
-9.90312 -27.2983 0.
-2.95644 -8.18806 0.
-9.25458 -25.5652 0.
-14.0186 -38.7937 0.
23.4846 65.0299 0.
3.49583 9.66675 0.
-8.37583 -23.1441 0.
1.29429 3.58337 0.
-5.00364 -13.6109 0.
0.19838 0.538956 0.
-1.33367 -3.54965 0.
23.2005 63.3693 0.
-84.5735 -226.037 0.
1.98876 5.4555 0.
10.7553 29.1348 0.
-23.0303 -60.1737 0.
12.7008 33.919 0.
-93.6617 -238.278 0.
-2.51234 -94.172 0.
21.9407 56.3886 0.
-10.1092 -24.9431 0.
-12.9008 -31.7414 0.
-17.0474 -40.2494 0.
-14.3163 -32.0884 0.
30.0826 63.2376 0.
-518.761 -1122.6 0.
-11.5207 -24.7145 0.
-102.865 -175.725 0.
15.2166 24.6295 0.
