# vtk DataFile Version 2.0
test grain
ASCII
DATASET UNSTRUCTURED_GRID
POINTS 5000 float
0.49938 0.000899482 0.
0.501544 0.000926865 0.
0.503696 0.000953984 0.
0.505829 0.000977638 0.
0.507868 0.000980306 0.
0.509908 0.000982981 0.
0.511939 0.000985905 0.
0.513958 0.000989186 0.
0.515977 0.000992477 0.
0.517986 0.000994513 0.
0.51999 0.000995907 0.
0.521993 0.000997303 0.
0.523995 0.000997648 0.
0.525996 0.000997858 0.
0.527997 0.000998065 0.
0.529997 0.000998236 0.
0.531998 0.000998408 0.
0.533998 0.000998578 0.
0.535999 0.000998746 0.
0.537999 0.000998914 0.
0.539999 0.000999011 0.
0.541999 0.00099905 0.
0.543999 0.000999089 0.
0.545999 0.000999063 0.
0.547999 0.000999018 0.
0.55 0.000998974 0.
0.551999 0.000998919 0.
0.553999 0.000998865 0.
0.555999 0.000998832 0.
0.557999 0.000998872 0.
0.56 0.000998912 0.
0.562 0.000998939 0.
0.564 0.000998949 0.
0.566 0.00099896 0.
0.568 0.000998949 0.
0.57 0.000998927 0.
0.572 0.000998906 0.
0.574 0.000998883 0.
0.576 0.00099886 0.
0.578 0.000998843 0.
0.58 0.000998874 0.
0.582 0.000998905 0.
0.584 0.000998928 0.
0.586 0.000998935 0.
0.588 0.000998941 0.
0.59 0.000998936 0.
0.592 0.000998923 0.
0.594 0.000998909 0.
0.596 0.000998885 0.
0.598 0.000998858 0.
0.6 0.000998831 0.
0.602 0.000998853 0.
0.604 0.000998874 0.
0.606 0.000998895 0.
0.608 0.000998912 0.
0.61 0.000998929 0.
0.612 0.000998936 0.
0.614 0.00099893 0.
0.616 0.000998923 0.
0.618 0.000998903 0.
0.62 0.000998876 0.
0.622 0.00099885 0.
0.624 0.00099887 0.
0.626 0.000998896 0.
0.628 0.000998923 0.
0.63 0.000998958 0.
0.632 0.000998992 0.
0.634 0.000999008 0.
0.636 0.000998986 0.
0.638 0.000998965 0.
0.64 0.000998938 0.
0.642001 0.000998909 0.
0.644001 0.000998879 0.
0.646001 0.000998901 0.
0.648001 0.000998939 0.
0.65 0.000998976 0.
0.652001 0.000999005 0.
0.654001 0.000999034 0.
0.656001 0.000999045 0.
0.658001 0.000998996 0.
0.660001 0.000998946 0.
0.662001 0.00099882 0.
0.664001 0.000998599 0.
0.666002 0.000998378 0.
0.668003 0.000998153 0.
0.670004 0.000997925 0.
0.672005 0.000997697 0.
0.674006 0.000997388 0.
0.676007 0.00099707 0.
0.678009 0.000996577 0.
0.680015 0.000994716 0.
0.682021 0.000992858 0.
0.684035 0.000990112 0.
0.686063 0.000985656 0.
0.688091 0.000981221 0.
0.69014 0.000976456 0.
0.692205 0.000971444 0.
0.694269 0.000966458 0.
0.696436 0.000941386 0.
0.698619 0.000914073 0.
0.499066 0.00269074 0.
0.501265 0.00277482 0.
0.503451 0.00285666 0.
0.505627 0.00293262 0.
0.507706 0.00294068 0.
0.509785 0.00294875 0.
0.51185 0.0029575 0.
0.513893 0.00296739 0.
0.515936 0.00297732 0.
0.517958 0.00298351 0.
0.519969 0.0029877 0.
0.52198 0.00299189 0.
0.523984 0.00299294 0.
0.525987 0.00299357 0.
0.52799 0.00299419 0.
0.529992 0.00299471 0.
0.531994 0.00299522 0.
0.533995 0.00299573 0.
0.535996 0.00299624 0.
0.537997 0.00299674 0.
0.539998 0.00299703 0.
0.541998 0.00299715 0.
0.543998 0.00299727 0.
0.545998 0.00299719 0.
0.547998 0.00299706 0.
0.549999 0.00299692 0.
0.551998 0.00299676 0.
0.553998 0.0029966 0.
0.555998 0.0029965 0.
0.557998 0.00299662 0.
0.559999 0.00299674 0.
0.561999 0.00299682 0.
0.563999 0.00299685 0.
0.565999 0.00299688 0.
0.567999 0.00299685 0.
0.569999 0.00299678 0.
0.571999 0.00299672 0.
0.573999 0.00299665 0.
0.575999 0.00299658 0.
0.577999 0.00299653 0.
0.579999 0.00299662 0.
0.581999 0.00299672 0.
0.584 0.00299678 0.
0.586 0.0029968 0.
0.588 0.00299682 0.
0.59 0.00299681 0.
0.592 0.00299677 0.
0.594 0.00299673 0.
0.596 0.00299665 0.
0.598 0.00299657 0.
0.6 0.00299649 0.
0.602 0.00299656 0.
0.604 0.00299662 0.
0.606 0.00299668 0.
0.608 0.00299674 0.
0.61 0.00299679 0.
0.612 0.00299681 0.
0.614 0.00299679 0.
0.616001 0.00299677 0.
0.618001 0.00299671 0.
0.620001 0.00299663 0.
0.622001 0.00299655 0.
0.624001 0.00299661 0.
0.626001 0.00299669 0.
0.628001 0.00299677 0.
0.630001 0.00299687 0.
0.632001 0.00299698 0.
0.634001 0.00299702 0.
0.636001 0.00299696 0.
0.638001 0.00299689 0.
0.640001 0.00299682 0.
0.642002 0.00299673 0.
0.644002 0.00299664 0.
0.646002 0.0029967 0.
0.648002 0.00299682 0.
0.650001 0.00299693 0.
0.652002 0.00299701 0.
0.654002 0.0029971 0.
0.656002 0.00299714 0.
0.658002 0.00299699 0.
0.660003 0.00299684 0.
0.662003 0.00299646 0.
0.664004 0.0029958 0.
0.666006 0.00299513 0.
0.668008 0.00299446 0.
0.670011 0.00299377 0.
0.672014 0.00299309 0.
0.674018 0.00299216 0.
0.676022 0.00299121 0.
0.678028 0.0029897 0.
0.680045 0.0029841 0.
0.682063 0.00297851 0.
0.684095 0.00297012 0.
0.686151 0.00295666 0.
0.688208 0.00294326 0.
0.690297 0.00292885 0.
0.692405 0.0029137 0.
0.694514 0.00289828 0.
0.696719 0.00281788 0.
0.69893 0.0027356 0.
0.498749 0.00447171 0.
0.50098 0.00461496 0.
0.503201 0.00475219 0.
0.50542 0.00488586 0.
0.50754 0.00490072 0.
0.509659 0.00491427 0.
0.511759 0.00492879 0.
0.513827 0.00494538 0.
0.515894 0.00496202 0.
0.51793 0.00497245 0.
0.519948 0.00497945 0.
0.521967 0.00498646 0.
0.523973 0.00498823 0.
0.525978 0.00498928 0.
0.527983 0.00499032 0.
0.529986 0.00499118 0.
0.53199 0.00499204 0.
0.533992 0.00499289 0.
0.535994 0.00499373 0.
0.537995 0.00499457 0.
0.539996 0.00499505 0.
0.541996 0.00499525 0.
0.543997 0.00499545 0.
0.545997 0.00499532 0.
0.547997 0.00499509 0.
0.549998 0.00499487 0.
0.551997 0.0049946 0.
0.553997 0.00499433 0.
0.555997 0.00499416 0.
0.557997 0.00499436 0.
0.559998 0.00499456 0.
0.561998 0.00499469 0.
0.563998 0.00499475 0.
0.565998 0.0049948 0.
0.567999 0.00499474 0.
0.569999 0.00499464 0.
0.571999 0.00499453 0.
0.573999 0.00499441 0.
0.575999 0.0049943 0.
0.577998 0.00499421 0.
0.579999 0.00499437 0.
0.581999 0.00499453 0.
0.583999 0.00499464 0.
0.585999 0.00499467 0.
0.587999 0.00499471 0.
0.59 0.00499468 0.
0.592 0.00499461 0.
0.594 0.00499454 0.
0.596 0.00499442 0.
0.598 0.00499429 0.
0.6 0.00499416 0.
0.602 0.00499426 0.
0.604 0.00499437 0.
0.606 0.00499447 0.
0.608 0.00499456 0.
0.61 0.00499465 0.
0.612001 0.00499468 0.
0.614001 0.00499465 0.
0.616001 0.00499462 0.
0.618001 0.00499452 0.
0.620002 0.00499438 0.
0.622002 0.00499425 0.
0.624002 0.00499435 0.
0.626001 0.00499448 0.
0.628001 0.00499462 0.
0.630001 0.00499479 0.
0.632002 0.00499496 0.
0.634002 0.00499504 0.
0.636002 0.00499493 0.
0.638002 0.00499482 0.
0.640002 0.00499469 0.
0.642003 0.00499454 0.
0.644003 0.00499439 0.
0.646003 0.00499451 0.
0.648003 0.00499469 0.
0.650002 0.00499488 0.
0.652003 0.00499502 0.
0.654003 0.00499517 0.
0.656003 0.00499523 0.
0.658004 0.00499498 0.
0.660004 0.00499473 0.
0.662006 0.0049941 0.
0.664007 0.00499299 0.
0.666009 0.00499189 0.
0.668013 0.00499076 0.
0.670018 0.00498962 0.
0.672023 0.00498848 0.
0.674029 0.00498693 0.
0.676036 0.00498533 0.
0.678046 0.00498278 0.
0.680076 0.00497343 0.
0.682105 0.00496408 0.
0.684155 0.00494984 0.
0.686241 0.00492725 0.
0.688327 0.00490477 0.
0.690458 0.00488054 0.
0.692611 0.00485511 0.
0.694768 0.00482384 0.
0.697007 0.00468591 0.
0.699247 0.00454823 0.
0.498466 0.00623122 0.
0.500705 0.0063983 0.
0.502932 0.00656084 0.
0.505156 0.00672052 0.
0.507307 0.00676401 0.
0.509453 0.00680118 0.
0.511581 0.00683674 0.
0.51367 0.00686653 0.
0.515759 0.00689654 0.
0.51782 0.0069192 0.
0.519863 0.00693749 0.
0.521907 0.0069559 0.
0.523926 0.00696427 0.
0.525941 0.00697106 0.
0.527955 0.00697741 0.
0.529964 0.00697922 0.
0.531972 0.00698103 0.
0.533979 0.00698309 0.
0.535984 0.00698571 0.
0.537988 0.00698834 0.
0.539991 0.00698996 0.
0.541992 0.00699076 0.
0.543994 0.00699156 0.
0.545994 0.00699171 0.
0.547995 0.00699166 0.
0.549996 0.00699162 0.
0.551996 0.00699125 0.
0.553995 0.00699087 0.
0.555995 0.00699065 0.
0.557996 0.00699093 0.
0.559996 0.00699122 0.
0.561997 0.00699141 0.
0.563997 0.00699149 0.
0.565997 0.00699156 0.
0.567998 0.00699149 0.
0.569998 0.00699134 0.
0.571998 0.0069912 0.
0.573998 0.00699105 0.
0.575998 0.0069909 0.
0.577997 0.0069908 0.
0.579998 0.006991 0.
0.581998 0.0069912 0.
0.583999 0.00699134 0.
0.585999 0.00699137 0.
0.587999 0.0069914 0.
0.589999 0.00699137 0.
0.592 0.00699128 0.
0.594 0.00699119 0.
0.596 0.00699105 0.
0.598 0.00699089 0.
0.6 0.00699073 0.
0.602 0.00699086 0.
0.604 0.00699099 0.
0.606 0.00699112 0.
0.608001 0.00699122 0.
0.610001 0.00699133 0.
0.612001 0.00699136 0.
0.614001 0.00699132 0.
0.616002 0.00699127 0.
0.618002 0.00699115 0.
0.620002 0.00699098 0.
0.622003 0.00699082 0.
0.624002 0.00699098 0.
0.626002 0.00699119 0.
0.628002 0.00699139 0.
0.630002 0.0069916 0.
0.632003 0.00699181 0.
0.634003 0.00699192 0.
0.636003 0.00699182 0.
0.638004 0.00699173 0.
0.640004 0.00699152 0.
0.642004 0.00699123 0.
0.644005 0.00699095 0.
0.646005 0.00699108 0.
0.648005 0.00699134 0.
0.650004 0.00699159 0.
0.652005 0.00699141 0.
0.654006 0.00699122 0.
0.656007 0.00699084 0.
0.658009 0.00698975 0.
0.660011 0.00698866 0.
0.662015 0.00698657 0.
0.664021 0.00698325 0.
0.666027 0.00697994 0.
0.668036 0.00697726 0.
0.670047 0.00697486 0.
0.672058 0.00697246 0.
0.674078 0.00696422 0.
0.676098 0.00695544 0.
0.678124 0.00694451 0.
0.680182 0.00692074 0.
0.68224 0.00689716 0.
0.684317 0.00686877 0.
0.686424 0.00683271 0.
0.688531 0.00679689 0.
0.690686 0.00674785 0.
0.69286 0.0066953 0.
0.695042 0.00663152 0.
0.697287 0.00647446 0.
0.699533 0.0063167 0.
0.498188 0.00798829 0.
0.500429 0.00817203 0.
0.502659 0.00835981 0.
0.504888 0.00854638 0.
0.507067 0.00862085 0.
0.50924 0.00868305 0.
0.511398 0.00874236 0.
0.513509 0.00878586 0.
0.515621 0.00882968 0.
0.517708 0.00886491 0.
0.519776 0.00889477 0.
0.521846 0.00892481 0.
0.523878 0.00894007 0.
0.525903 0.00895265 0.
0.527927 0.00896446 0.
0.529941 0.00896723 0.
0.531955 0.00896999 0.
0.533966 0.00897326 0.
0.535973 0.00897767 0.
0.53798 0.00898209 0.
0.539985 0.00898485 0.
0.541988 0.00898626 0.
0.54399 0.00898767 0.
0.545992 0.00898809 0.
0.547993 0.00898823 0.
0.549994 0.00898838 0.
0.551994 0.0089879 0.
0.553994 0.00898742 0.
0.555994 0.00898713 0.
0.557994 0.00898751 0.
0.559995 0.00898788 0.
0.561995 0.00898813 0.
0.563996 0.00898823 0.
0.565996 0.00898833 0.
0.567997 0.00898823 0.
0.569997 0.00898805 0.
0.571997 0.00898786 0.
0.573997 0.00898768 0.
0.575997 0.00898751 0.
0.577997 0.00898738 0.
0.579997 0.00898762 0.
0.581998 0.00898787 0.
0.583998 0.00898804 0.
0.585998 0.00898807 0.
0.587999 0.00898809 0.
0.589999 0.00898805 0.
0.591999 0.00898794 0.
0.594 0.00898784 0.
0.596 0.00898767 0.
0.598 0.00898748 0.
0.6 0.00898729 0.
0.602 0.00898745 0.
0.604 0.00898761 0.
0.606 0.00898776 0.
0.608001 0.00898788 0.
0.610001 0.008988 0.
0.612001 0.00898804 0.
0.614002 0.00898798 0.
0.616002 0.00898792 0.
0.618003 0.00898777 0.
0.620003 0.00898758 0.
0.622004 0.00898739 0.
0.624003 0.00898762 0.
0.626003 0.00898789 0.
0.628003 0.00898816 0.
0.630003 0.00898841 0.
0.632004 0.00898866 0.
0.634004 0.0089888 0.
0.636005 0.00898871 0.
0.638005 0.00898863 0.
0.640005 0.00898835 0.
0.642006 0.00898792 0.
0.644006 0.0089875 0.
0.646007 0.00898765 0.
0.648006 0.00898798 0.
0.650006 0.0089883 0.
0.652008 0.00898778 0.
0.654009 0.00898727 0.
0.656011 0.00898644 0.
0.658014 0.0089845 0.
0.660018 0.00898257 0.
0.662024 0.00897901 0.
0.664034 0.00897348 0.
0.666044 0.00896796 0.
0.668059 0.00896372 0.
0.670076 0.00896005 0.
0.672093 0.00895639 0.
0.674126 0.00894123 0.
0.67616 0.00892518 0.
0.678203 0.00890539 0.
0.680291 0.00886684 0.
0.682377 0.00882858 0.
0.684483 0.00878583 0.
0.686612 0.00873572 0.
0.68874 0.00868597 0.
0.690921 0.00860816 0.
0.693115 0.0085264 0.
0.695318 0.00842889 0.
0.697566 0.00825266 0.
0.699815 0.00807674 0.
0.497942 0.00974893 0.
0.500189 0.0099445 0.
0.502428 0.0101529 0.
0.504665 0.010359 0.
0.506865 0.0104624 0.
0.509058 0.0105499 0.
0.511237 0.010634 0.
0.513364 0.0106891 0.
0.515492 0.0107444 0.
0.517598 0.0107923 0.
0.519686 0.010836 0.
0.521774 0.0108801 0.
0.52382 0.0109051 0.
0.525858 0.0109263 0.
0.527894 0.0109463 0.
0.529912 0.0109505 0.
0.531931 0.0109547 0.
0.533948 0.0109597 0.
0.535958 0.0109665 0.
0.537969 0.0109733 0.
0.539977 0.0109778 0.
0.541981 0.0109802 0.
0.543985 0.0109827 0.
0.545988 0.0109837 0.
0.54799 0.0109843 0.
0.549992 0.0109849 0.
0.551992 0.0109846 0.
0.553992 0.0109842 0.
0.555992 0.010984 0.
0.557993 0.0109845 0.
0.559994 0.0109849 0.
0.561994 0.0109852 0.
0.563995 0.0109854 0.
0.565995 0.0109855 0.
0.567996 0.0109854 0.
0.569996 0.0109852 0.
0.571997 0.010985 0.
0.573996 0.0109848 0.
0.575996 0.0109846 0.
0.577996 0.0109845 0.
0.579997 0.0109847 0.
0.581997 0.010985 0.
0.583997 0.0109851 0.
0.585998 0.0109852 0.
0.587998 0.0109852 0.
0.589999 0.0109852 0.
0.591999 0.0109851 0.
0.594 0.010985 0.
0.596 0.0109848 0.
0.598 0.0109846 0.
0.6 0.0109844 0.
0.602 0.0109846 0.
0.604001 0.0109848 0.
0.606001 0.0109849 0.
0.608001 0.010985 0.
0.610001 0.0109851 0.
0.612002 0.0109852 0.
0.614002 0.0109851 0.
0.616003 0.010985 0.
0.618003 0.0109849 0.
0.620004 0.0109847 0.
0.622004 0.0109845 0.
0.624004 0.0109848 0.
0.626004 0.0109851 0.
0.628004 0.0109854 0.
0.630004 0.0109856 0.
0.632005 0.0109859 0.
0.634005 0.010986 0.
0.636006 0.0109859 0.
0.638006 0.0109858 0.
0.640007 0.0109855 0.
0.642008 0.0109849 0.
0.644008 0.0109843 0.
0.646009 0.0109843 0.
0.648009 0.0109845 0.
0.650009 0.0109847 0.
0.652012 0.0109835 0.
0.654014 0.0109823 0.
0.656017 0.0109806 0.
0.658023 0.0109772 0.
0.660029 0.0109739 0.
0.662039 0.0109682 0.
0.664053 0.0109596 0.
0.666068 0.010951 0.
0.668088 0.0109447 0.
0.670112 0.0109394 0.
0.672135 0.0109341 0.
0.674183 0.0109085 0.
0.676231 0.0108817 0.
0.678291 0.0108497 0.
0.680399 0.010795 0.
0.682506 0.0107408 0.
0.684631 0.0106845 0.
0.686776 0.0106229 0.
0.688921 0.0105616 0.
0.69112 0.0104558 0.
0.693331 0.0103466 0.
0.695551 0.0102196 0.
0.697806 0.0100283 0.
0.700062 0.00983653 0.
0.497812 0.0115263 0.
0.500055 0.0117215 0.
0.502292 0.0119372 0.
0.504527 0.0121511 0.
0.506729 0.0122801 0.
0.508923 0.0123947 0.
0.511107 0.0125058 0.
0.513241 0.0125708 0.
0.515376 0.0126362 0.
0.517491 0.0126975 0.
0.519591 0.0127584 0.
0.52169 0.0128199 0.
0.523751 0.0128582 0.
0.525803 0.0128911 0.
0.527853 0.0129227 0.
0.529877 0.0129288 0.
0.531902 0.0129349 0.
0.533924 0.0129422 0.
0.535939 0.0129521 0.
0.537955 0.012962 0.
0.539965 0.0129687 0.
0.541972 0.0129727 0.
0.543979 0.0129766 0.
0.545983 0.0129786 0.
0.547986 0.0129799 0.
0.549989 0.0129813 0.
0.551989 0.0129812 0.
0.55399 0.0129811 0.
0.555991 0.0129812 0.
0.557992 0.0129818 0.
0.559992 0.0129823 0.
0.561993 0.0129827 0.
0.563994 0.0129829 0.
0.565994 0.012983 0.
0.567995 0.012983 0.
0.569996 0.0129828 0.
0.571996 0.0129826 0.
0.573996 0.0129825 0.
0.575996 0.0129823 0.
0.577996 0.0129822 0.
0.579996 0.0129823 0.
0.581997 0.0129825 0.
0.583997 0.0129827 0.
0.585998 0.0129827 0.
0.587998 0.0129828 0.
0.589999 0.0129828 0.
0.591999 0.0129827 0.
0.594 0.0129826 0.
0.596 0.0129825 0.
0.598 0.0129823 0.
0.6 0.0129822 0.
0.602001 0.0129823 0.
0.604001 0.0129824 0.
0.606001 0.0129826 0.
0.608001 0.0129826 0.
0.610002 0.0129827 0.
0.612002 0.0129827 0.
0.614003 0.0129827 0.
0.616003 0.0129826 0.
0.618004 0.0129825 0.
0.620004 0.0129824 0.
0.622005 0.0129822 0.
0.624005 0.0129825 0.
0.626004 0.0129828 0.
0.628004 0.0129831 0.
0.630005 0.0129833 0.
0.632005 0.0129835 0.
0.634006 0.0129836 0.
0.636007 0.0129835 0.
0.638007 0.0129834 0.
0.640008 0.0129829 0.
0.642009 0.0129821 0.
0.64401 0.0129814 0.
0.646011 0.0129811 0.
0.648012 0.0129809 0.
0.650013 0.0129807 0.
0.652017 0.0129784 0.
0.654021 0.0129761 0.
0.656025 0.0129732 0.
0.658034 0.0129679 0.
0.660043 0.0129626 0.
0.662058 0.012954 0.
0.664078 0.0129413 0.
0.666098 0.0129288 0.
0.668125 0.0129199 0.
0.670154 0.0129125 0.
0.672184 0.0129051 0.
0.674248 0.0128647 0.
0.676313 0.0128231 0.
0.678389 0.0127749 0.
0.680505 0.0127014 0.
0.682622 0.0126288 0.
0.684755 0.0125586 0.
0.686907 0.0124868 0.
0.689058 0.0124146 0.
0.691259 0.0122842 0.
0.693469 0.0121505 0.
0.695691 0.0120019 0.
0.697942 0.0118071 0.
0.700194 0.011612 0.
0.497684 0.0133045 0.
0.499922 0.0134982 0.
0.502156 0.0137212 0.
0.504388 0.0139428 0.
0.506592 0.0140958 0.
0.508789 0.0142376 0.
0.510977 0.0143764 0.
0.513118 0.0144521 0.
0.515259 0.0145275 0.
0.517385 0.0146017 0.
0.519495 0.0146799 0.
0.521606 0.0147589 0.
0.523682 0.0148108 0.
0.525748 0.0148555 0.
0.527812 0.014899 0.
0.529842 0.0149071 0.
0.531872 0.0149152 0.
0.533899 0.0149246 0.
0.53592 0.0149376 0.
0.53794 0.0149506 0.
0.539954 0.0149596 0.
0.541963 0.0149651 0.
0.543972 0.0149705 0.
0.545977 0.0149734 0.
0.547982 0.0149755 0.
0.549986 0.0149777 0.
0.551987 0.0149779 0.
0.553988 0.0149781 0.
0.555989 0.0149784 0.
0.55799 0.0149791 0.
0.559991 0.0149798 0.
0.561992 0.0149802 0.
0.563993 0.0149804 0.
0.565994 0.0149806 0.
0.567994 0.0149805 0.
0.569995 0.0149804 0.
0.571996 0.0149803 0.
0.573995 0.0149801 0.
0.575995 0.01498 0.
0.577995 0.0149798 0.
0.579996 0.0149799 0.
0.581996 0.01498 0.
0.583997 0.0149802 0.
0.585997 0.0149803 0.
0.587998 0.0149804 0.
0.589999 0.0149804 0.
0.591999 0.0149803 0.
0.594 0.0149802 0.
0.596 0.0149801 0.
0.598 0.01498 0.
0.6 0.0149799 0.
0.602001 0.01498 0.
0.604001 0.0149801 0.
0.606001 0.0149802 0.
0.608001 0.0149802 0.
0.610002 0.0149803 0.
0.612002 0.0149803 0.
0.614003 0.0149802 0.
0.616004 0.0149802 0.
0.618004 0.0149801 0.
0.620005 0.01498 0.
0.622005 0.0149799 0.
0.624005 0.0149802 0.
0.626005 0.0149805 0.
0.628005 0.0149807 0.
0.630006 0.0149809 0.
0.632006 0.0149811 0.
0.634007 0.0149812 0.
0.636008 0.014981 0.
0.638009 0.0149809 0.
0.64001 0.0149803 0.
0.642011 0.0149794 0.
0.644012 0.0149785 0.
0.646014 0.0149779 0.
0.648015 0.0149773 0.
0.650017 0.0149768 0.
0.652022 0.0149734 0.
0.654027 0.01497 0.
0.656034 0.0149658 0.
0.658046 0.0149585 0.
0.660058 0.0149513 0.
0.662077 0.0149397 0.
0.664103 0.0149231 0.
0.666128 0.0149065 0.
0.668161 0.0148951 0.
0.670197 0.0148856 0.
0.672232 0.0148762 0.
0.674313 0.0148205 0.
0.676395 0.0147639 0.
0.678487 0.014699 0.
0.680612 0.0146069 0.
0.682738 0.0145156 0.
0.68488 0.014432 0.
0.687038 0.0143501 0.
0.689195 0.0142661 0.
0.691398 0.0141109 0.
0.693608 0.0139528 0.
0.69583 0.0137841 0.
0.698078 0.0135858 0.
0.700326 0.0133884 0.
0.497615 0.0151131 0.
0.499839 0.015301 0.
0.50206 0.0155266 0.
0.504279 0.0157504 0.
0.506476 0.0159184 0.
0.508667 0.0160763 0.
0.510851 0.0162306 0.
0.512995 0.0163171 0.
0.515138 0.0164022 0.
0.517268 0.0164866 0.
0.519383 0.016575 0.
0.521498 0.0166638 0.
0.523583 0.0167291 0.
0.525661 0.0167873 0.
0.527738 0.0168448 0.
0.529779 0.01686 0.
0.531819 0.0168751 0.
0.533856 0.0168909 0.
0.535883 0.0169086 0.
0.537909 0.0169264 0.
0.539929 0.0169393 0.
0.541943 0.016948 0.
0.543957 0.0169568 0.
0.545965 0.0169619 0.
0.547972 0.016966 0.
0.549978 0.0169701 0.
0.551981 0.0169712 0.
0.553983 0.0169722 0.
0.555985 0.0169733 0.
0.557987 0.0169744 0.
0.559989 0.0169755 0.
0.56199 0.0169763 0.
0.563991 0.0169766 0.
0.565992 0.0169769 0.
0.567993 0.0169769 0.
0.569994 0.0169769 0.
0.571995 0.0169768 0.
0.573995 0.0169767 0.
0.575994 0.0169765 0.
0.577994 0.0169764 0.
0.579995 0.0169765 0.
0.581996 0.0169767 0.
0.583996 0.0169768 0.
0.585997 0.0169769 0.
0.587998 0.016977 0.
0.589998 0.016977 0.
0.591999 0.0169769 0.
0.593999 0.0169769 0.
0.596 0.0169768 0.
0.598 0.0169767 0.
0.6 0.0169766 0.
0.602001 0.0169767 0.
0.604001 0.0169768 0.
0.606001 0.0169769 0.
0.608001 0.0169769 0.
0.610002 0.0169769 0.
0.612003 0.0169769 0.
0.614003 0.0169769 0.
0.616004 0.0169768 0.
0.618005 0.0169767 0.
0.620005 0.0169766 0.
0.622006 0.0169765 0.
0.624006 0.0169767 0.
0.626006 0.016977 0.
0.628006 0.0169773 0.
0.630007 0.0169774 0.
0.632008 0.0169775 0.
0.634009 0.0169774 0.
0.63601 0.0169771 0.
0.638011 0.0169767 0.
0.640013 0.0169757 0.
0.642015 0.0169743 0.
0.644017 0.0169728 0.
0.64602 0.0169711 0.
0.648023 0.0169694 0.
0.650026 0.0169677 0.
0.652035 0.0169619 0.
0.654043 0.0169561 0.
0.656053 0.0169491 0.
0.658071 0.0169378 0.
0.660089 0.0169265 0.
0.662114 0.0169103 0.
0.664146 0.0168887 0.
0.666179 0.0168671 0.
0.668223 0.0168478 0.
0.670271 0.0168293 0.
0.67232 0.0168103 0.
0.674412 0.0167398 0.
0.676504 0.0166688 0.
0.678605 0.0165904 0.
0.680732 0.0164896 0.
0.682859 0.0163892 0.
0.685004 0.0162953 0.
0.687162 0.0162028 0.
0.689321 0.016107 0.
0.691517 0.0159389 0.
0.693718 0.0157674 0.
0.69593 0.0155881 0.
0.698164 0.0153896 0.
0.700399 0.0151923 0.
0.497577 0.0169418 0.
0.499779 0.017118 0.
0.50198 0.0173419 0.
0.504179 0.0175646 0.
0.506366 0.0177427 0.
0.508547 0.0179122 0.
0.510725 0.0180788 0.
0.512871 0.0181775 0.
0.515016 0.0182735 0.
0.51715 0.0183688 0.
0.519268 0.018467 0.
0.521387 0.0185656 0.
0.523483 0.0186445 0.
0.525572 0.0187168 0.
0.527661 0.0187887 0.
0.529713 0.0188117 0.
0.531765 0.0188343 0.
0.533812 0.0188568 0.
0.535845 0.0188793 0.
0.537879 0.0189019 0.
0.539904 0.0189189 0.
0.541923 0.0189309 0.
0.543942 0.0189429 0.
0.545953 0.0189504 0.
0.547962 0.0189564 0.
0.549971 0.0189625 0.
0.551974 0.0189644 0.
0.553978 0.0189663 0.
0.555981 0.0189681 0.
0.557983 0.0189697 0.
0.559986 0.0189713 0.
0.561988 0.0189724 0.
0.563989 0.0189728 0.
0.565991 0.0189732 0.
0.567992 0.0189734 0.
0.569993 0.0189733 0.
0.571994 0.0189733 0.
0.573994 0.0189732 0.
0.575994 0.018973 0.
0.577994 0.0189729 0.
0.579994 0.0189731 0.
0.581995 0.0189733 0.
0.583996 0.0189734 0.
0.585997 0.0189735 0.
0.587997 0.0189735 0.
0.589998 0.0189736 0.
0.591999 0.0189736 0.
0.593999 0.0189736 0.
0.596 0.0189735 0.
0.598 0.0189734 0.
0.6 0.0189733 0.
0.602001 0.0189734 0.
0.604001 0.0189735 0.
0.606001 0.0189736 0.
0.608002 0.0189736 0.
0.610002 0.0189736 0.
0.612003 0.0189736 0.
0.614004 0.0189735 0.
0.616004 0.0189735 0.
0.618005 0.0189734 0.
0.620006 0.0189732 0.
0.622007 0.018973 0.
0.624007 0.0189733 0.
0.626007 0.0189735 0.
0.628007 0.0189738 0.
0.630008 0.0189738 0.
0.632009 0.0189739 0.
0.63401 0.0189737 0.
0.636012 0.0189732 0.
0.638014 0.0189726 0.
0.640016 0.0189712 0.
0.642019 0.0189691 0.
0.644022 0.018967 0.
0.646027 0.0189643 0.
0.648031 0.0189615 0.
0.650036 0.0189586 0.
0.652047 0.0189504 0.
0.654059 0.0189421 0.
0.656073 0.0189322 0.
0.658097 0.0189168 0.
0.66012 0.0189014 0.
0.662151 0.0188806 0.
0.664191 0.0188538 0.
0.66623 0.0188272 0.
0.668286 0.0187994 0.
0.670348 0.0187713 0.
0.67241 0.0187418 0.
0.674513 0.0186561 0.
0.676615 0.01857 0.
0.678725 0.0184779 0.
0.680854 0.018369 0.
0.682982 0.0182605 0.
0.685129 0.0181557 0.
0.687285 0.0180515 0.
0.689444 0.0179425 0.
0.691631 0.0177653 0.
0.69382 0.0175857 0.
0.696018 0.0174017 0.
0.69823 0.0172071 0.
0.700443 0.0170143 0.
0.497538 0.0187767 0.
0.49972 0.018941 0.
0.501903 0.0191626 0.
0.504085 0.0193836 0.
0.506262 0.0195705 0.
0.508438 0.0197504 0.
0.51061 0.0199276 0.
0.512759 0.020038 0.
0.514907 0.0201444 0.
0.517044 0.0202501 0.
0.519166 0.0203562 0.
0.521288 0.0204626 0.
0.523392 0.0205534 0.
0.52549 0.0206386 0.
0.527588 0.0207233 0.
0.529649 0.0207556 0.
0.53171 0.0207867 0.
0.533765 0.0208171 0.
0.535805 0.0208446 0.
0.537844 0.0208722 0.
0.539876 0.0208938 0.
0.5419 0.0209096 0.
0.543923 0.0209256 0.
0.545938 0.0209359 0.
0.54795 0.0209445 0.
0.549961 0.0209531 0.
0.551966 0.0209562 0.
0.553971 0.0209593 0.
0.555976 0.0209622 0.
0.557979 0.0209644 0.
0.559982 0.0209666 0.
0.561985 0.0209682 0.
0.563987 0.0209688 0.
0.565989 0.0209695 0.
0.56799 0.0209699 0.
0.569992 0.02097 0.
0.571993 0.0209702 0.
0.573993 0.0209701 0.
0.575993 0.02097 0.
0.577993 0.0209699 0.
0.579994 0.0209701 0.
0.581995 0.0209702 0.
0.583996 0.0209704 0.
0.585996 0.0209705 0.
0.587997 0.0209705 0.
0.589998 0.0209706 0.
0.591999 0.0209707 0.
0.593999 0.0209708 0.
0.596 0.0209707 0.
0.598 0.0209706 0.
0.6 0.0209705 0.
0.602001 0.0209706 0.
0.604001 0.0209707 0.
0.606001 0.0209708 0.
0.608002 0.0209707 0.
0.610003 0.0209706 0.
0.612003 0.0209706 0.
0.614004 0.0209705 0.
0.616005 0.0209705 0.
0.618006 0.0209703 0.
0.620007 0.0209702 0.
0.622007 0.02097 0.
0.624008 0.0209702 0.
0.626008 0.0209704 0.
0.628008 0.0209706 0.
0.630009 0.0209704 0.
0.632011 0.0209702 0.
0.634012 0.0209698 0.
0.636015 0.0209689 0.
0.638017 0.020968 0.
0.64002 0.0209659 0.
0.642025 0.0209631 0.
0.644029 0.0209602 0.
0.646035 0.0209561 0.
0.648042 0.0209517 0.
0.650048 0.0209472 0.
0.652063 0.0209359 0.
0.654078 0.0209246 0.
0.656097 0.0209112 0.
0.658126 0.0208911 0.
0.660155 0.0208711 0.
0.662192 0.0208453 0.
0.664238 0.0208135 0.
0.666284 0.0207817 0.
0.668349 0.0207442 0.
0.670421 0.0207054 0.
0.672494 0.0206643 0.
0.674604 0.0205654 0.
0.676715 0.0204662 0.
0.678831 0.0203626 0.
0.680962 0.0202472 0.
0.683093 0.020132 0.
0.685241 0.0200166 0.
0.687398 0.0199011 0.
0.689558 0.0197799 0.
0.691737 0.0195948 0.
0.693917 0.0194077 0.
0.696102 0.0192202 0.
0.698295 0.01903 0.
0.700488 0.0188423 0.
0.497507 0.0206399 0.
0.499678 0.0207904 0.
0.501853 0.021007 0.
0.504027 0.0212234 0.
0.506198 0.0214139 0.
0.508367 0.0215978 0.
0.510534 0.0217793 0.
0.512681 0.0218992 0.
0.514826 0.0220148 0.
0.516964 0.022129 0.
0.519086 0.0222401 0.
0.521209 0.0223513 0.
0.523316 0.022452 0.
0.525417 0.022549 0.
0.527519 0.0226456 0.
0.529587 0.0226889 0.
0.531654 0.0227305 0.
0.533716 0.0227706 0.
0.535761 0.0228035 0.
0.537806 0.0228365 0.
0.539843 0.0228632 0.
0.541872 0.0228838 0.
0.5439 0.0229045 0.
0.545919 0.0229184 0.
0.547934 0.02293 0.
0.549949 0.0229417 0.
0.551956 0.0229465 0.
0.553963 0.0229512 0.
0.555969 0.0229556 0.
0.557974 0.0229585 0.
0.559978 0.0229615 0.
0.561982 0.0229636 0.
0.563984 0.0229647 0.
0.565987 0.0229658 0.
0.567989 0.0229665 0.
0.56999 0.0229669 0.
0.571992 0.0229674 0.
0.573992 0.0229674 0.
0.575992 0.0229673 0.
0.577992 0.0229673 0.
0.579993 0.0229674 0.
0.581994 0.0229676 0.
0.583995 0.0229677 0.
0.585996 0.0229678 0.
0.587997 0.0229679 0.
0.589998 0.0229681 0.
0.591999 0.0229682 0.
0.593999 0.0229684 0.
0.596 0.0229684 0.
0.598 0.0229684 0.
0.6 0.0229683 0.
0.602001 0.0229683 0.
0.604001 0.0229684 0.
0.606001 0.0229684 0.
0.608002 0.0229682 0.
0.610003 0.0229681 0.
0.612003 0.022968 0.
0.614004 0.0229679 0.
0.616005 0.0229678 0.
0.618006 0.0229677 0.
0.620007 0.0229675 0.
0.622008 0.0229673 0.
0.624008 0.0229674 0.
0.626009 0.0229676 0.
0.628009 0.0229676 0.
0.630011 0.0229671 0.
0.632013 0.0229666 0.
0.634015 0.0229657 0.
0.636018 0.0229643 0.
0.638021 0.0229628 0.
0.640026 0.02296 0.
0.642031 0.0229561 0.
0.644037 0.0229521 0.
0.646046 0.0229463 0.
0.648055 0.0229399 0.
0.650064 0.0229334 0.
0.652083 0.0229183 0.
0.654102 0.0229032 0.
0.656124 0.0228855 0.
0.658159 0.02286 0.
0.660193 0.0228347 0.
0.662237 0.0228034 0.
0.664289 0.0227662 0.
0.66634 0.022729 0.
0.668412 0.0226799 0.
0.670489 0.0226282 0.
0.672568 0.0225739 0.
0.67468 0.0224639 0.
0.676793 0.0223537 0.
0.678911 0.0222414 0.
0.681042 0.0221224 0.
0.683172 0.0220035 0.
0.685319 0.0218798 0.
0.687473 0.021755 0.
0.689629 0.0216245 0.
0.691802 0.0214363 0.
0.693977 0.0212464 0.
0.696156 0.0210589 0.
0.698339 0.0208756 0.
0.700522 0.0206955 0.
0.497486 0.0225088 0.
0.499644 0.0226442 0.
0.501809 0.0228542 0.
0.503973 0.0230649 0.
0.506136 0.0232579 0.
0.508298 0.0234453 0.
0.510458 0.0236309 0.
0.512603 0.02376 0.
0.514746 0.0238847 0.
0.516883 0.0240078 0.
0.519006 0.0241237 0.
0.52113 0.0242399 0.
0.52324 0.0243502 0.
0.525345 0.024459 0.
0.52745 0.0245675 0.
0.529524 0.0246218 0.
0.531597 0.024674 0.
0.533666 0.0247239 0.
0.535717 0.0247622 0.
0.537768 0.0248007 0.
0.539811 0.0248326 0.
0.541844 0.0248579 0.
0.543878 0.0248833 0.
0.5459 0.0249008 0.
0.547918 0.0249155 0.
0.549937 0.0249303 0.
0.551946 0.0249368 0.
0.553955 0.0249431 0.
0.555963 0.0249489 0.
0.557969 0.0249526 0.
0.559974 0.0249563 0.
0.561979 0.0249591 0.
0.563982 0.0249606 0.
0.565985 0.0249621 0.
0.567987 0.0249631 0.
0.569989 0.0249638 0.
0.571991 0.0249646 0.
0.573991 0.0249647 0.
0.575992 0.0249646 0.
0.577992 0.0249646 0.
0.579993 0.0249648 0.
0.581994 0.0249649 0.
0.583995 0.024965 0.
0.585996 0.0249652 0.
0.587997 0.0249653 0.
0.589998 0.0249655 0.
0.591999 0.0249658 0.
0.593999 0.024966 0.
0.596 0.0249661 0.
0.598 0.0249661 0.
0.6 0.0249661 0.
0.602001 0.0249661 0.
0.604001 0.0249661 0.
0.606001 0.024966 0.
0.608002 0.0249658 0.
0.610003 0.0249655 0.
0.612004 0.0249654 0.
0.614004 0.0249652 0.
0.616005 0.0249651 0.
0.618007 0.024965 0.
0.620008 0.0249648 0.
0.622009 0.0249646 0.
0.624009 0.0249646 0.
0.62601 0.0249647 0.
0.62801 0.0249647 0.
0.630012 0.0249638 0.
0.632014 0.0249629 0.
0.634017 0.0249617 0.
0.636021 0.0249597 0.
0.638025 0.0249577 0.
0.640031 0.024954 0.
0.642038 0.0249491 0.
0.644045 0.0249441 0.
0.646056 0.0249365 0.
0.648067 0.0249281 0.
0.650079 0.0249195 0.
0.652102 0.0249006 0.
0.654125 0.0248817 0.
0.656152 0.0248597 0.
0.658192 0.0248289 0.
0.660232 0.0247982 0.
0.662281 0.0247614 0.
0.664339 0.0247187 0.
0.666397 0.0246762 0.
0.668475 0.0246151 0.
0.670558 0.0245505 0.
0.672643 0.0244831 0.
0.674757 0.024362 0.
0.676871 0.0242409 0.
0.67899 0.0241202 0.
0.681121 0.0239974 0.
0.683252 0.0238749 0.
0.685397 0.0237424 0.
0.687548 0.0236085 0.
0.6897 0.023469 0.
0.691866 0.0232784 0.
0.694032 0.0230865 0.
0.696203 0.0229 0.
0.698375 0.0227242 0.
0.700547 0.0225524 0.
0.497499 0.0243938 0.
0.499643 0.0245164 0.
0.501795 0.02472 0.
0.503946 0.0249242 0.
0.506099 0.025117 0.
0.508251 0.0253055 0.
0.510402 0.0254923 0.
0.512541 0.0256284 0.
0.51468 0.02576 0.
0.516813 0.0258897 0.
0.518934 0.026009 0.
0.521055 0.0261285 0.
0.523165 0.0262449 0.
0.52527 0.0263611 0.
0.527375 0.0264769 0.
0.529454 0.0265419 0.
0.531531 0.0266043 0.
0.533604 0.0266636 0.
0.53566 0.0267066 0.
0.537716 0.0267498 0.
0.539764 0.0267869 0.
0.541804 0.0268178 0.
0.543843 0.0268488 0.
0.545871 0.0268712 0.
0.547894 0.0268905 0.
0.549917 0.0269098 0.
0.551929 0.0269193 0.
0.553941 0.0269285 0.
0.555952 0.0269369 0.
0.557959 0.0269421 0.
0.559967 0.0269474 0.
0.561973 0.0269514 0.
0.563977 0.0269538 0.
0.565981 0.0269561 0.
0.567984 0.0269577 0.
0.569987 0.0269589 0.
0.571989 0.0269601 0.
0.57399 0.0269604 0.
0.57599 0.0269606 0.
0.577991 0.0269607 0.
0.579992 0.026961 0.
0.581993 0.0269612 0.
0.583995 0.0269615 0.
0.585996 0.0269617 0.
0.587997 0.0269619 0.
0.589998 0.0269621 0.
0.591998 0.0269625 0.
0.593999 0.0269628 0.
0.596 0.0269629 0.
0.598 0.0269629 0.
0.6 0.0269629 0.
0.602001 0.0269629 0.
0.604001 0.0269629 0.
0.606001 0.0269628 0.
0.608002 0.0269625 0.
0.610003 0.0269621 0.
0.612004 0.0269618 0.
0.614005 0.0269617 0.
0.616006 0.0269615 0.
0.618007 0.0269612 0.
0.620009 0.0269609 0.
0.62201 0.0269605 0.
0.624011 0.0269604 0.
0.626012 0.0269602 0.
0.628013 0.0269599 0.
0.630015 0.0269584 0.
0.632018 0.0269569 0.
0.634022 0.0269548 0.
0.636027 0.0269517 0.
0.638033 0.0269485 0.
0.64004 0.0269433 0.
0.64205 0.0269366 0.
0.64406 0.0269299 0.
0.646073 0.026919 0.
0.648088 0.0269071 0.
0.650104 0.0268949 0.
0.652132 0.026871 0.
0.654159 0.0268473 0.
0.656192 0.0268199 0.
0.658238 0.0267829 0.
0.660284 0.026746 0.
0.662339 0.0267038 0.
0.664402 0.0266567 0.
0.666464 0.0266096 0.
0.668546 0.0265381 0.
0.670632 0.0264625 0.
0.67272 0.0263837 0.
0.674833 0.0262563 0.
0.676945 0.0261286 0.
0.679063 0.0260027 0.
0.68119 0.0258772 0.
0.683317 0.0257519 0.
0.685457 0.0256128 0.
0.687602 0.0254719 0.
0.689749 0.0253258 0.
0.691904 0.0251353 0.
0.69406 0.0249436 0.
0.696218 0.0247603 0.
0.698375 0.0245944 0.
0.700533 0.0244319 0.
0.497542 0.0263047 0.
0.499665 0.0264173 0.
0.501801 0.0266084 0.
0.503935 0.0267999 0.
0.506074 0.0269877 0.
0.508214 0.0271744 0.
0.510354 0.0273598 0.
0.512487 0.0275006 0.
0.514618 0.027637 0.
0.516746 0.0277718 0.
0.518864 0.0278941 0.
0.520982 0.0280167 0.
0.523091 0.0281385 0.
0.525195 0.0282616 0.
0.527299 0.0283845 0.
0.529382 0.0284601 0.
0.531463 0.0285327 0.
0.533541 0.0286018 0.
0.535602 0.0286496 0.
0.537663 0.0286976 0.
0.539717 0.0287402 0.
0.541762 0.0287769 0.
0.543808 0.0288137 0.
0.545841 0.0288412 0.
0.547869 0.0288651 0.
0.549896 0.0288891 0.
0.551912 0.0289016 0.
0.553926 0.0289137 0.
0.55594 0.0289248 0.
0.55795 0.0289316 0.
0.559959 0.0289384 0.
0.561967 0.0289436 0.
0.563972 0.0289469 0.
0.565977 0.0289501 0.
0.567981 0.0289523 0.
0.569984 0.028954 0.
0.571987 0.0289557 0.
0.573988 0.0289562 0.
0.575989 0.0289565 0.
0.57799 0.0289568 0.
0.579991 0.0289572 0.
0.581993 0.0289575 0.
0.583994 0.0289579 0.
0.585995 0.0289581 0.
0.587996 0.0289584 0.
0.589997 0.0289587 0.
0.591998 0.0289591 0.
0.593999 0.0289595 0.
0.596 0.0289597 0.
0.598 0.0289597 0.
0.6 0.0289598 0.
0.602001 0.0289597 0.
0.604001 0.0289597 0.
0.606001 0.0289596 0.
0.608002 0.0289591 0.
0.610003 0.0289587 0.
0.612004 0.0289583 0.
0.614005 0.0289581 0.
0.616007 0.0289578 0.
0.618008 0.0289574 0.
0.62001 0.0289569 0.
0.622011 0.0289565 0.
0.624012 0.0289561 0.
0.626014 0.0289557 0.
0.628015 0.0289551 0.
0.630019 0.0289529 0.
0.632022 0.0289508 0.
0.634027 0.0289479 0.
0.636033 0.0289436 0.
0.63804 0.0289393 0.
0.64005 0.0289326 0.
0.642062 0.028924 0.
0.644074 0.0289155 0.
0.646091 0.0289014 0.
0.648109 0.0288859 0.
0.650128 0.0288699 0.
0.652161 0.0288411 0.
0.654194 0.0288122 0.
0.656233 0.0287792 0.
0.658285 0.0287358 0.
0.660337 0.0286926 0.
0.662398 0.0286448 0.
0.664465 0.0285929 0.
0.666533 0.0285411 0.
0.668618 0.028459 0.
0.670707 0.0283726 0.
0.672798 0.0282828 0.
0.674908 0.0281496 0.
0.677019 0.0280162 0.
0.679133 0.027886 0.
0.681255 0.0277579 0.
0.683377 0.02763 0.
0.68551 0.0274861 0.
0.687647 0.0273409 0.
0.689785 0.027191 0.
0.691927 0.0270041 0.
0.69407 0.0268163 0.
0.696211 0.0266424 0.
0.698346 0.0264946 0.
0.700482 0.0263496 0.
0.497581 0.0282185 0.
0.499684 0.028321 0.
0.501804 0.0284994 0.
0.503923 0.0286784 0.
0.50605 0.0288612 0.
0.508179 0.0290461 0.
0.510308 0.02923 0.
0.512435 0.0293754 0.
0.514561 0.0295163 0.
0.516684 0.0296561 0.
0.518799 0.0297813 0.
0.520914 0.0299066 0.
0.523023 0.0300331 0.
0.525127 0.0301623 0.
0.527231 0.0302913 0.
0.529317 0.0303769 0.
0.531402 0.0304593 0.
0.533483 0.0305377 0.
0.535548 0.0305898 0.
0.537613 0.030642 0.
0.539672 0.0306896 0.
0.541722 0.030732 0.
0.543773 0.0307747 0.
0.54581 0.0308074 0.
0.547842 0.0308362 0.
0.549874 0.0308651 0.
0.551893 0.0308811 0.
0.55391 0.0308966 0.
0.555927 0.0309108 0.
0.557939 0.0309193 0.
0.55995 0.0309279 0.
0.56196 0.0309346 0.
0.563966 0.030939 0.
0.565973 0.0309434 0.
0.567977 0.0309464 0.
0.569981 0.0309487 0.
0.571984 0.0309511 0.
0.573986 0.0309519 0.
0.575987 0.0309525 0.
0.577989 0.030953 0.
0.57999 0.0309536 0.
0.581992 0.0309541 0.
0.583994 0.0309546 0.
0.585995 0.0309549 0.
0.587996 0.0309553 0.
0.589997 0.0309557 0.
0.591998 0.0309562 0.
0.593999 0.0309567 0.
0.596 0.0309569 0.
0.598 0.030957 0.
0.6 0.0309571 0.
0.602001 0.030957 0.
0.604001 0.030957 0.
0.606001 0.0309568 0.
0.608002 0.0309562 0.
0.610003 0.0309556 0.
0.612005 0.0309551 0.
0.614006 0.0309547 0.
0.616007 0.0309544 0.
0.618009 0.0309538 0.
0.620011 0.0309532 0.
0.622012 0.0309525 0.
0.624014 0.0309517 0.
0.626016 0.030951 0.
0.628018 0.0309499 0.
0.630022 0.0309469 0.
0.632027 0.0309439 0.
0.634033 0.03094 0.
0.636041 0.0309343 0.
0.638049 0.0309286 0.
0.640061 0.03092 0.
0.642075 0.0309094 0.
0.64409 0.0308988 0.
0.64611 0.0308811 0.
0.648132 0.0308617 0.
0.650155 0.0308416 0.
0.652192 0.0308074 0.
0.65423 0.0307734 0.
0.656273 0.0307346 0.
0.65833 0.030685 0.
0.660387 0.0306357 0.
0.662452 0.0305829 0.
0.664523 0.0305268 0.
0.666595 0.0304709 0.
0.668683 0.0303786 0.
0.670775 0.0302819 0.
0.672868 0.0301821 0.
0.674977 0.030044 0.
0.677086 0.0299055 0.
0.679198 0.0297714 0.
0.681316 0.029641 0.
0.683433 0.0295106 0.
0.68556 0.0293621 0.
0.687689 0.0292126 0.
0.689819 0.029059 0.
0.69195 0.0288757 0.
0.694081 0.0286918 0.
0.696206 0.0285273 0.
0.69832 0.0283974 0.
0.700435 0.02827 0.
0.497599 0.0301498 0.
0.49969 0.0302432 0.
0.5018 0.0304093 0.
0.503909 0.0305758 0.
0.506029 0.0307515 0.
0.508152 0.0309324 0.
0.510275 0.0311125 0.
0.512397 0.0312601 0.
0.514519 0.0314032 0.
0.516639 0.0315456 0.
0.518752 0.0316729 0.
0.520864 0.0318003 0.
0.522971 0.0319301 0.
0.525074 0.0320633 0.
0.527178 0.0321963 0.
0.529265 0.0322908 0.
0.531351 0.0323823 0.
0.533433 0.0324694 0.
0.5355 0.032525 0.
0.537568 0.0325806 0.
0.539629 0.0326329 0.
0.541683 0.0326816 0.
0.543737 0.0327305 0.
0.545778 0.032769 0.
0.547814 0.032803 0.
0.54985 0.0328371 0.
0.551871 0.0328573 0.
0.553892 0.0328769 0.
0.555912 0.0328947 0.
0.557926 0.0329052 0.
0.55994 0.0329157 0.
0.561951 0.0329242 0.
0.563959 0.03293 0.
0.565967 0.0329358 0.
0.567973 0.0329399 0.
0.569977 0.0329431 0.
0.571981 0.0329463 0.
0.573984 0.0329475 0.
0.575986 0.0329485 0.
0.577988 0.0329495 0.
0.579989 0.0329502 0.
0.581991 0.0329509 0.
0.583993 0.0329515 0.
0.585994 0.032952 0.
0.587996 0.0329525 0.
0.589997 0.032953 0.
0.591998 0.0329536 0.
0.593999 0.0329542 0.
0.595999 0.0329545 0.
0.598 0.0329548 0.
0.6 0.032955 0.
0.602001 0.0329548 0.
0.604001 0.0329547 0.
0.606002 0.0329544 0.
0.608003 0.0329536 0.
0.610004 0.0329529 0.
0.612005 0.0329522 0.
0.614006 0.0329517 0.
0.616008 0.0329512 0.
0.61801 0.0329504 0.
0.620012 0.0329495 0.
0.622014 0.0329486 0.
0.624017 0.0329473 0.
0.626019 0.032946 0.
0.628022 0.0329443 0.
0.630027 0.0329402 0.
0.632033 0.0329362 0.
0.63404 0.0329309 0.
0.63605 0.0329235 0.
0.63806 0.0329161 0.
0.640074 0.0329055 0.
0.642091 0.0328925 0.
0.644108 0.0328796 0.
0.646132 0.0328578 0.
0.648157 0.0328339 0.
0.650182 0.0328091 0.
0.652224 0.0327692 0.
0.654265 0.0327293 0.
0.656313 0.0326845 0.
0.658373 0.0326288 0.
0.660432 0.0325733 0.
0.662499 0.032516 0.
0.664571 0.0324565 0.
0.666644 0.032397 0.
0.668734 0.0322952 0.
0.670827 0.032189 0.
0.672922 0.0320806 0.
0.675029 0.0319402 0.
0.677137 0.0317995 0.
0.679247 0.0316631 0.
0.681361 0.031531 0.
0.683475 0.0313988 0.
0.685597 0.0312482 0.
0.687721 0.0310968 0.
0.689845 0.0309418 0.
0.691969 0.0307646 0.
0.694092 0.030587 0.
0.696208 0.0304319 0.
0.69831 0.0303156 0.
0.700413 0.0302019 0.
0.497621 0.0320919 0.
0.499702 0.0321763 0.
0.501801 0.0323272 0.
0.503901 0.0324787 0.
0.506012 0.0326453 0.
0.508128 0.0328212 0.
0.510245 0.0329966 0.
0.512362 0.0331457 0.
0.514479 0.0332904 0.
0.516594 0.0334349 0.
0.518705 0.0335644 0.
0.520814 0.033694 0.
0.52292 0.0338269 0.
0.525022 0.0339641 0.
0.527125 0.0341012 0.
0.529213 0.0342046 0.
0.5313 0.0343051 0.
0.533384 0.034401 0.
0.535453 0.0344601 0.
0.537522 0.0345193 0.
0.539586 0.0345761 0.
0.541643 0.034631 0.
0.543701 0.0346862 0.
0.545746 0.0347304 0.
0.547785 0.0347697 0.
0.549825 0.0348091 0.
0.55185 0.0348335 0.
0.553874 0.034857 0.
0.555897 0.0348785 0.
0.557913 0.034891 0.
0.559929 0.0349035 0.
0.561942 0.0349138 0.
0.563952 0.0349211 0.
0.565961 0.0349283 0.
0.567968 0.0349334 0.
0.569973 0.0349375 0.
0.571978 0.0349415 0.
0.573981 0.0349432 0.
0.575984 0.0349445 0.
0.577986 0.0349459 0.
0.579988 0.0349468 0.
0.58199 0.0349477 0.
0.583992 0.0349485 0.
0.585994 0.0349491 0.
0.587995 0.0349497 0.
0.589996 0.0349503 0.
0.591998 0.0349511 0.
0.593999 0.0349518 0.
0.595999 0.0349522 0.
0.598 0.0349525 0.
0.6 0.0349528 0.
0.602001 0.0349526 0.
0.604001 0.0349524 0.
0.606002 0.034952 0.
0.608003 0.0349511 0.
0.610004 0.0349501 0.
0.612005 0.0349493 0.
0.614007 0.0349486 0.
0.616009 0.0349479 0.
0.618011 0.034947 0.
0.620013 0.0349459 0.
0.622016 0.0349448 0.
0.624019 0.0349429 0.
0.626022 0.034941 0.
0.628025 0.0349387 0.
0.630032 0.0349336 0.
0.632039 0.0349284 0.
0.634047 0.0349219 0.
0.636059 0.0349127 0.
0.638071 0.0349036 0.
0.640087 0.0348909 0.
0.642107 0.0348756 0.
0.644126 0.0348604 0.
0.646153 0.0348344 0.
0.648181 0.034806 0.
0.65021 0.0347766 0.
0.652256 0.0347308 0.
0.654301 0.0346852 0.
0.656352 0.0346342 0.
0.658415 0.0345724 0.
0.660478 0.0345107 0.
0.662546 0.034449 0.
0.66462 0.034386 0.
0.666693 0.0343231 0.
0.668785 0.0342116 0.
0.670879 0.0340957 0.
0.672975 0.033979 0.
0.675081 0.0338363 0.
0.677187 0.0336935 0.
0.679295 0.0335549 0.
0.681405 0.0334211 0.
0.683516 0.0332871 0.
0.685632 0.0331349 0.
0.68775 0.0329824 0.
0.689868 0.0328272 0.
0.691983 0.0326577 0.
0.694099 0.0324881 0.
0.696206 0.0323435 0.
0.698298 0.0322406 0.
0.700391 0.0321402 0.
0.497662 0.0340381 0.
0.499733 0.034115 0.
0.501822 0.0342524 0.
0.503911 0.0343904 0.
0.506014 0.0345486 0.
0.508123 0.0347196 0.
0.510232 0.0348904 0.
0.512343 0.0350402 0.
0.514454 0.0351859 0.
0.516565 0.0353318 0.
0.518671 0.035463 0.
0.520777 0.0355942 0.
0.522879 0.0357293 0.
0.524978 0.0358691 0.
0.527078 0.0360086 0.
0.529166 0.0361185 0.
0.531252 0.036226 0.
0.533336 0.0363291 0.
0.535406 0.0363912 0.
0.537475 0.0364534 0.
0.53954 0.0365137 0.
0.5416 0.036573 0.
0.543659 0.0366324 0.
0.545707 0.0366818 0.
0.547751 0.0367264 0.
0.549794 0.036771 0.
0.551823 0.0368004 0.
0.55385 0.0368288 0.
0.555876 0.0368548 0.
0.557895 0.03687 0.
0.559914 0.0368852 0.
0.56193 0.0368979 0.
0.563941 0.0369072 0.
0.565953 0.0369165 0.
0.567961 0.0369232 0.
0.569968 0.0369285 0.
0.571974 0.0369338 0.
0.573978 0.0369363 0.
0.575981 0.0369385 0.
0.577984 0.0369406 0.
0.579986 0.0369418 0.
0.581989 0.0369431 0.
0.583991 0.0369442 0.
0.585993 0.036945 0.
0.587995 0.0369458 0.
0.589996 0.0369467 0.
0.591997 0.0369476 0.
0.593998 0.0369485 0.
0.595999 0.036949 0.
0.598 0.0369494 0.
0.6 0.0369498 0.
0.602001 0.0369495 0.
0.604002 0.0369492 0.
0.606002 0.0369487 0.
0.608004 0.0369476 0.
0.610005 0.0369465 0.
0.612006 0.0369454 0.
0.614008 0.0369444 0.
0.61601 0.0369434 0.
0.618013 0.036942 0.
0.620016 0.0369405 0.
0.622019 0.0369389 0.
0.624022 0.0369361 0.
0.626026 0.0369331 0.
0.628031 0.0369297 0.
0.630039 0.0369229 0.
0.632047 0.0369162 0.
0.634058 0.0369078 0.
0.636072 0.0368963 0.
0.638086 0.0368849 0.
0.640105 0.0368695 0.
0.642127 0.0368513 0.
0.64415 0.0368332 0.
0.64618 0.0368023 0.
0.648212 0.0367687 0.
0.650245 0.0367338 0.
0.652294 0.0366825 0.
0.654343 0.0366314 0.
0.656397 0.0365754 0.
0.658461 0.0365098 0.
0.660525 0.0364443 0.
0.662594 0.0363786 0.
0.664668 0.0363117 0.
0.666742 0.0362447 0.
0.668833 0.0361268 0.
0.670926 0.0360047 0.
0.67302 0.0358822 0.
0.675122 0.0357384 0.
0.677225 0.0355942 0.
0.679329 0.0354541 0.
0.681435 0.0353188 0.
0.683541 0.0351833 0.
0.685651 0.0350304 0.
0.687762 0.0348775 0.
0.689873 0.0347226 0.
0.69198 0.0345602 0.
0.694087 0.0343981 0.
0.696185 0.0342628 0.
0.698268 0.0341717 0.
0.70035 0.0340828 0.
0.49772 0.0359932 0.
0.499782 0.0360645 0.
0.501862 0.0361906 0.
0.503941 0.0363172 0.
0.506034 0.036467 0.
0.508134 0.0366304 0.
0.510234 0.0367937 0.
0.512338 0.036942 0.
0.514442 0.0370872 0.
0.516546 0.037233 0.
0.518646 0.0373653 0.
0.520746 0.0374977 0.
0.522843 0.0376343 0.
0.524938 0.0377754 0.
0.527033 0.0379162 0.
0.529119 0.038032 0.
0.531204 0.0381462 0.
0.533288 0.0382563 0.
0.535358 0.0383215 0.
0.537428 0.0383866 0.
0.539494 0.0384505 0.
0.541555 0.0385139 0.
0.543616 0.0385775 0.
0.545668 0.038632 0.
0.547715 0.038682 0.
0.549763 0.0387322 0.
0.551795 0.0387667 0.
0.553826 0.0388001 0.
0.555855 0.0388307 0.
0.557877 0.0388487 0.
0.559899 0.0388667 0.
0.561917 0.0388819 0.
0.563931 0.0388933 0.
0.565944 0.0389046 0.
0.567954 0.0389129 0.
0.569962 0.0389194 0.
0.57197 0.038926 0.
0.573974 0.0389294 0.
0.575978 0.0389324 0.
0.577982 0.0389352 0.
0.579984 0.0389369 0.
0.581987 0.0389386 0.
0.58399 0.03894 0.
0.585992 0.038941 0.
0.587994 0.038942 0.
0.589995 0.0389431 0.
0.591997 0.0389442 0.
0.593998 0.0389453 0.
0.595999 0.0389459 0.
0.598 0.0389464 0.
0.6 0.0389468 0.
0.602001 0.0389464 0.
0.604002 0.038946 0.
0.606003 0.0389454 0.
0.608004 0.0389441 0.
0.610005 0.0389428 0.
0.612007 0.0389415 0.
0.614009 0.0389402 0.
0.616011 0.0389389 0.
0.618014 0.0389371 0.
0.620018 0.038935 0.
0.622021 0.0389329 0.
0.624026 0.0389291 0.
0.626031 0.0389251 0.
0.628036 0.0389206 0.
0.630046 0.0389122 0.
0.632056 0.0389039 0.
0.634068 0.0388936 0.
0.636085 0.0388797 0.
0.638101 0.0388659 0.
0.640123 0.0388478 0.
0.642149 0.0388267 0.
0.644174 0.0388057 0.
0.646208 0.0387696 0.
0.648243 0.0387306 0.
0.65028 0.0386901 0.
0.652333 0.0386331 0.
0.654385 0.0385763 0.
0.656442 0.0385152 0.
0.658507 0.0384462 0.
0.660572 0.0383773 0.
0.662643 0.0383073 0.
0.664717 0.038236 0.
0.666792 0.0381644 0.
0.66888 0.0380412 0.
0.670969 0.037914 0.
0.67306 0.0377873 0.
0.675157 0.0376428 0.
0.677255 0.0374981 0.
0.679354 0.0373572 0.
0.681454 0.0372213 0.
0.683554 0.0370853 0.
0.685657 0.0369337 0.
0.68776 0.0367827 0.
0.689862 0.0366307 0.
0.691959 0.0364767 0.
0.694056 0.0363231 0.
0.696145 0.0361959 0.
0.698218 0.0361145 0.
0.700292 0.0360352 0.
0.497774 0.0379501 0.
0.499829 0.0380159 0.
0.501899 0.0381308 0.
0.503968 0.0382461 0.
0.506052 0.0383871 0.
0.508144 0.0385428 0.
0.510236 0.0386987 0.
0.512333 0.0388456 0.
0.51443 0.0389903 0.
0.516527 0.0391361 0.
0.518622 0.0392697 0.
0.520717 0.0394032 0.
0.52281 0.0395413 0.
0.524901 0.0396836 0.
0.526992 0.0398255 0.
0.529077 0.0399467 0.
0.531161 0.0400671 0.
0.533245 0.0401834 0.
0.535315 0.0402517 0.
0.537385 0.0403199 0.
0.539452 0.0403871 0.
0.541515 0.0404542 0.
0.543577 0.0405214 0.
0.545631 0.0405807 0.
0.547682 0.0406359 0.
0.549733 0.0406912 0.
0.551768 0.0407309 0.
0.553802 0.0407693 0.
0.555834 0.0408047 0.
0.557858 0.0408254 0.
0.559883 0.0408462 0.
0.561903 0.040864 0.
0.563919 0.0408776 0.
0.565935 0.0408913 0.
0.567946 0.0409013 0.
0.569956 0.0409094 0.
0.571965 0.0409175 0.
0.57397 0.040922 0.
0.575974 0.040926 0.
0.577979 0.0409298 0.
0.579982 0.0409319 0.
0.581986 0.040934 0.
0.583989 0.0409358 0.
0.585991 0.0409371 0.
0.587993 0.0409384 0.
0.589995 0.0409396 0.
0.591996 0.0409409 0.
0.593998 0.0409422 0.
0.595999 0.040943 0.
0.598 0.0409436 0.
0.6 0.0409442 0.
0.602001 0.0409436 0.
0.604002 0.0409431 0.
0.606003 0.0409423 0.
0.608005 0.0409408 0.
0.610006 0.0409393 0.
0.612008 0.0409377 0.
0.614011 0.040936 0.
0.616013 0.0409344 0.
0.618017 0.040932 0.
0.620021 0.0409294 0.
0.622025 0.0409267 0.
0.62403 0.0409217 0.
0.626036 0.0409165 0.
0.628043 0.0409106 0.
0.630054 0.0409004 0.
0.632066 0.0408902 0.
0.63408 0.0408777 0.
0.636099 0.0408613 0.
0.638118 0.0408449 0.
0.640142 0.040824 0.
0.64217 0.0408001 0.
0.644197 0.0407761 0.
0.646234 0.0407349 0.
0.648273 0.0406905 0.
0.650313 0.0406444 0.
0.652368 0.0405822 0.
0.654424 0.0405201 0.
0.656483 0.0404545 0.
0.658549 0.0403823 0.
0.660615 0.0403103 0.
0.662686 0.0402363 0.
0.664762 0.0401607 0.
0.666837 0.0400846 0.
0.668923 0.0399566 0.
0.67101 0.0398249 0.
0.673097 0.0396943 0.
0.67519 0.0395493 0.
0.677282 0.0394039 0.
0.679377 0.0392623 0.
0.681472 0.0391258 0.
0.683567 0.0389891 0.
0.685663 0.0388388 0.
0.687758 0.0386896 0.
0.689852 0.0385405 0.
0.69194 0.038395 0.
0.694028 0.0382504 0.
0.696107 0.0381314 0.
0.698171 0.0380592 0.
0.700236 0.0379888 0.
0.49781 0.0399109 0.
0.499859 0.0399724 0.
0.501922 0.0400784 0.
0.503985 0.040185 0.
0.506062 0.0403184 0.
0.508148 0.0404668 0.
0.510235 0.0406156 0.
0.512327 0.0407604 0.
0.514419 0.0409037 0.
0.516512 0.0410486 0.
0.518604 0.0411827 0.
0.520695 0.0413167 0.
0.522784 0.0414552 0.
0.524873 0.0415977 0.
0.526962 0.0417399 0.
0.529046 0.0418644 0.
0.531129 0.0419887 0.
0.533211 0.0421092 0.
0.535281 0.0421813 0.
0.537352 0.0422532 0.
0.539419 0.0423237 0.
0.541482 0.0423933 0.
0.543545 0.0424629 0.
0.5456 0.0425264 0.
0.547652 0.0425865 0.
0.549705 0.0426468 0.
0.551742 0.0426919 0.
0.553778 0.0427356 0.
0.555813 0.042776 0.
0.557839 0.0427996 0.
0.559866 0.0428233 0.
0.561888 0.0428439 0.
0.563906 0.04286 0.
0.565924 0.0428762 0.
0.567937 0.0428884 0.
0.569948 0.0428983 0.
0.571959 0.0429083 0.
0.573965 0.0429141 0.
0.57597 0.0429193 0.
0.577976 0.0429242 0.
0.57998 0.0429268 0.
0.581983 0.0429294 0.
0.583987 0.0429317 0.
0.585989 0.0429333 0.
0.587992 0.0429349 0.
0.589994 0.0429365 0.
0.591996 0.0429379 0.
0.593997 0.0429394 0.
0.595998 0.0429404 0.
0.597999 0.0429411 0.
0.6 0.0429419 0.
0.602002 0.0429412 0.
0.604003 0.0429405 0.
0.606004 0.0429396 0.
0.608006 0.0429377 0.
0.610007 0.0429359 0.
0.61201 0.042934 0.
0.614012 0.0429319 0.
0.616015 0.0429298 0.
0.618019 0.0429269 0.
0.620024 0.0429235 0.
0.622029 0.0429202 0.
0.624035 0.0429137 0.
0.626042 0.042907 0.
0.62805 0.0428995 0.
0.630063 0.0428871 0.
0.632076 0.0428747 0.
0.634092 0.0428599 0.
0.636114 0.0428407 0.
0.638135 0.0428215 0.
0.640161 0.0427977 0.
0.642191 0.0427708 0.
0.644221 0.0427439 0.
0.64626 0.0426972 0.
0.648301 0.042647 0.
0.650343 0.0425951 0.
0.652399 0.0425284 0.
0.654456 0.0424619 0.
0.656515 0.0423924 0.
0.658582 0.0423176 0.
0.660648 0.0422429 0.
0.66272 0.0421654 0.
0.664795 0.0420861 0.
0.66687 0.0420062 0.
0.668955 0.0418752 0.
0.67104 0.0417409 0.
0.673126 0.041608 0.
0.675215 0.041463 0.
0.677305 0.0413177 0.
0.679395 0.0411762 0.
0.681487 0.0410397 0.
0.683578 0.0409028 0.
0.685669 0.0407547 0.
0.687759 0.0406084 0.
0.689848 0.0404628 0.
0.691929 0.0403248 0.
0.69401 0.040188 0.
0.696082 0.0400758 0.
0.698141 0.0400096 0.
0.700199 0.0399452 0.
0.497846 0.0418751 0.
0.499892 0.041932 0.
0.501949 0.0420303 0.
0.504006 0.0421292 0.
0.506077 0.042255 0.
0.508157 0.0423951 0.
0.510236 0.0425358 0.
0.512323 0.0426777 0.
0.51441 0.0428189 0.
0.516498 0.0429623 0.
0.518585 0.0430965 0.
0.520673 0.0432306 0.
0.52276 0.0433692 0.
0.524846 0.0435119 0.
0.526932 0.0436543 0.
0.529014 0.043782 0.
0.531096 0.0439103 0.
0.533177 0.044035 0.
0.535248 0.0441108 0.
0.537319 0.0441863 0.
0.539386 0.0442603 0.
0.541449 0.0443324 0.
0.543512 0.0444045 0.
0.545569 0.0444719 0.
0.547623 0.0445371 0.
0.549676 0.0446023 0.
0.551716 0.0446529 0.
0.553755 0.0447018 0.
0.555792 0.0447473 0.
0.55782 0.0447738 0.
0.559849 0.0448004 0.
0.561874 0.0448238 0.
0.563893 0.0448424 0.
0.565913 0.0448611 0.
0.567928 0.0448754 0.
0.56994 0.0448872 0.
0.571953 0.044899 0.
0.57396 0.0449061 0.
0.575966 0.0449125 0.
0.577973 0.0449186 0.
0.579977 0.0449217 0.
0.581981 0.0449248 0.
0.583985 0.0449275 0.
0.585988 0.0449295 0.
0.587991 0.0449315 0.
0.589993 0.0449333 0.
0.591995 0.044935 0.
0.593997 0.0449366 0.
0.595998 0.0449377 0.
0.597999 0.0449387 0.
0.6 0.0449396 0.
0.602002 0.0449388 0.
0.604003 0.0449379 0.
0.606005 0.0449368 0.
0.608007 0.0449347 0.
0.610008 0.0449326 0.
0.612011 0.0449303 0.
0.614014 0.0449278 0.
0.616017 0.0449253 0.
0.618022 0.0449218 0.
0.620027 0.0449177 0.
0.622033 0.0449136 0.
0.624041 0.0449058 0.
0.626049 0.0448975 0.
0.628058 0.0448884 0.
0.630073 0.0448738 0.
0.632087 0.0448593 0.
0.634105 0.044842 0.
0.636128 0.04482 0.
0.638152 0.044798 0.
0.64018 0.0447713 0.
0.642212 0.0447414 0.
0.644244 0.0447116 0.
0.646286 0.0446594 0.
0.648328 0.0446034 0.
0.650373 0.0445458 0.
0.65243 0.0444746 0.
0.654488 0.0444036 0.
0.656548 0.0443303 0.
0.658615 0.0442528 0.
0.660682 0.0441755 0.
0.662754 0.0440944 0.
0.664828 0.0440114 0.
0.666903 0.0439277 0.
0.668986 0.0437939 0.
0.67107 0.0436569 0.
0.673154 0.043522 0.
0.67524 0.043377 0.
0.677326 0.0432318 0.
0.679413 0.0430906 0.
0.6815 0.0429545 0.
0.683587 0.0428181 0.
0.685673 0.042673 0.
0.687757 0.0425304 0.
0.689841 0.0423893 0.
0.691915 0.0422595 0.
0.693988 0.0421311 0.
0.696054 0.0420254 0.
0.698108 0.0419636 0.
0.700161 0.0419036 0.
0.497892 0.0438406 0.
0.499935 0.0438938 0.
0.501987 0.043985 0.
0.504039 0.0440769 0.
0.506104 0.0441957 0.
0.508177 0.0443282 0.
0.51025 0.0444616 0.
0.512331 0.0446008 0.
0.514413 0.0447402 0.
0.516495 0.0448821 0.
0.518579 0.0450165 0.
0.520662 0.0451505 0.
0.522745 0.0452892 0.
0.524828 0.0454319 0.
0.526911 0.0455742 0.
0.528991 0.0457041 0.
0.531071 0.045835 0.
0.533149 0.0459625 0.
0.535219 0.0460415 0.
0.537289 0.04612 0.
0.539356 0.0461968 0.
0.541418 0.046271 0.
0.543481 0.0463452 0.
0.545538 0.0464157 0.
0.547592 0.0464842 0.
0.549646 0.0465527 0.
0.551688 0.0466083 0.
0.553728 0.0466625 0.
0.555767 0.0467129 0.
0.557798 0.0467421 0.
0.559828 0.0467713 0.
0.561855 0.0467974 0.
0.563877 0.0468188 0.
0.5659 0.0468403 0.
0.567917 0.0468572 0.
0.569931 0.0468714 0.
0.571945 0.0468857 0.
0.573953 0.0468947 0.
0.575961 0.0469029 0.
0.577968 0.0469106 0.
0.579973 0.0469145 0.
0.581978 0.0469184 0.
0.583983 0.0469219 0.
0.585986 0.0469243 0.
0.587989 0.0469268 0.
0.589992 0.046929 0.
0.591994 0.0469309 0.
0.593996 0.0469328 0.
0.595998 0.046934 0.
0.597999 0.046935 0.
0.6 0.046936 0.
0.602002 0.046935 0.
0.604004 0.0469341 0.
0.606005 0.0469328 0.
0.608008 0.0469303 0.
0.61001 0.0469279 0.
0.612013 0.0469252 0.
0.614017 0.0469221 0.
0.61602 0.046919 0.
0.618026 0.0469145 0.
0.620032 0.0469094 0.
0.622038 0.0469042 0.
0.624047 0.0468944 0.
0.626057 0.046884 0.
0.628067 0.0468727 0.
0.630084 0.0468555 0.
0.632101 0.0468383 0.
0.634121 0.0468183 0.
0.636146 0.0467934 0.
0.638172 0.0467686 0.
0.640202 0.046739 0.
0.642236 0.0467064 0.
0.644271 0.0466739 0.
0.646314 0.0466166 0.
0.648358 0.0465553 0.
0.650404 0.0464926 0.
0.652462 0.0464182 0.
0.654519 0.0463438 0.
0.65658 0.0462677 0.
0.658646 0.0461882 0.
0.660712 0.0461088 0.
0.662783 0.0460249 0.
0.664856 0.045939 0.
0.666929 0.045852 0.
0.669009 0.0457165 0.
0.67109 0.0455781 0.
0.673172 0.0454418 0.
0.675254 0.0452971 0.
0.677337 0.0451521 0.
0.67942 0.0450113 0.
0.681502 0.0448754 0.
0.683584 0.0447393 0.
0.685664 0.0445971 0.
0.687743 0.0444579 0.
0.689821 0.0443207 0.
0.691889 0.0441982 0.
0.693956 0.0440775 0.
0.696016 0.0439775 0.
0.698065 0.0439202 0.
0.700113 0.0438644 0.
0.497948 0.0458083 0.
0.499988 0.045859 0.
0.502037 0.0459445 0.
0.504085 0.0460308 0.
0.506145 0.0461443 0.
0.508211 0.0462705 0.
0.510278 0.0463978 0.
0.512353 0.0465333 0.
0.514428 0.0466692 0.
0.516504 0.0468081 0.
0.518583 0.0469416 0.
0.520661 0.0470749 0.
0.52274 0.0472129 0.
0.524818 0.0473553 0.
0.526896 0.0474973 0.
0.528973 0.0476286 0.
0.531048 0.0477613 0.
0.533124 0.0478908 0.
0.535192 0.0479726 0.
0.53726 0.0480537 0.
0.539326 0.0481332 0.
0.541387 0.0482095 0.
0.543449 0.0482858 0.
0.545506 0.0483591 0.
0.54756 0.0484306 0.
0.549615 0.0485022 0.
0.551658 0.048563 0.
0.553701 0.0486225 0.
0.555742 0.0486781 0.
0.557775 0.0487099 0.
0.559807 0.0487418 0.
0.561837 0.0487707 0.
0.563861 0.048795 0.
0.565886 0.0488192 0.
0.567905 0.0488387 0.
0.569921 0.0488555 0.
0.571937 0.0488722 0.
0.573947 0.0488831 0.
0.575955 0.0488931 0.
0.577964 0.0489026 0.
0.57997 0.0489073 0.
0.581975 0.048912 0.
0.583981 0.0489162 0.
0.585984 0.0489191 0.
0.587988 0.0489221 0.
0.589991 0.0489246 0.
0.591993 0.0489267 0.
0.593995 0.0489289 0.
0.595997 0.0489302 0.
0.597999 0.0489313 0.
0.6 0.0489324 0.
0.602002 0.0489313 0.
0.604004 0.0489302 0.
0.606006 0.0489287 0.
0.608009 0.048926 0.
0.610011 0.0489232 0.
0.612015 0.04892 0.
0.614019 0.0489163 0.
0.616023 0.0489125 0.
0.618029 0.0489072 0.
0.620037 0.048901 0.
0.622044 0.0488948 0.
0.624054 0.0488829 0.
0.626065 0.0488704 0.
0.628077 0.0488569 0.
0.630096 0.048837 0.
0.632115 0.048817 0.
0.634137 0.0487942 0.
0.636164 0.0487664 0.
0.638192 0.0487387 0.
0.640225 0.0487062 0.
0.642261 0.0486708 0.
0.644297 0.0486354 0.
0.646342 0.048573 0.
0.648388 0.0485064 0.
0.650436 0.0484387 0.
0.652493 0.0483611 0.
0.654551 0.0482837 0.
0.656612 0.0482048 0.
0.658676 0.0481235 0.
0.660741 0.0480423 0.
0.66281 0.0479558 0.
0.664881 0.0478673 0.
0.666952 0.0477777 0.
0.669029 0.0476412 0.
0.671105 0.0475021 0.
0.673183 0.0473654 0.
0.675261 0.0472215 0.
0.677338 0.0470772 0.
0.679416 0.0469376 0.
0.681493 0.0468029 0.
0.68357 0.0466679 0.
0.685643 0.0465294 0.
0.687716 0.0463944 0.
0.689788 0.0462616 0.
0.69185 0.0461448 0.
0.693911 0.0460301 0.
0.695967 0.0459346 0.
0.698012 0.045882 0.
0.700057 0.045831 0.
0.498002 0.0477769 0.
0.50004 0.047825 0.
0.502085 0.0479051 0.
0.504129 0.0479861 0.
0.506184 0.0480943 0.
0.508244 0.048214 0.
0.510305 0.0483352 0.
0.512373 0.0484668 0.
0.514443 0.0485992 0.
0.516514 0.0487351 0.
0.518587 0.0488679 0.
0.52066 0.0490006 0.
0.522734 0.0491381 0.
0.524809 0.0492802 0.
0.526883 0.049422 0.
0.528956 0.0495546 0.
0.531028 0.0496888 0.
0.5331 0.0498201 0.
0.535167 0.0499046 0.
0.537234 0.0499884 0.
0.539298 0.0500705 0.
0.541359 0.0501487 0.
0.54342 0.0502271 0.
0.545477 0.0503029 0.
0.547532 0.0503773 0.
0.549587 0.0504517 0.
0.551632 0.0505173 0.
0.553676 0.0505819 0.
0.555719 0.0506423 0.
0.557754 0.0506767 0.
0.559788 0.0507111 0.
0.561819 0.0507427 0.
0.563845 0.0507697 0.
0.565872 0.0507967 0.
0.567893 0.0508189 0.
0.569911 0.0508382 0.
0.571928 0.0508576 0.
0.573939 0.0508706 0.
0.575949 0.0508827 0.
0.577959 0.0508941 0.
0.579965 0.0508997 0.
0.581972 0.0509054 0.
0.583978 0.0509103 0.
0.585982 0.0509138 0.
0.587986 0.0509173 0.
0.589989 0.0509203 0.
0.591992 0.0509227 0.
0.593994 0.0509251 0.
0.595997 0.0509266 0.
0.597998 0.0509277 0.
0.6 0.0509289 0.
0.602003 0.0509276 0.
0.604005 0.0509264 0.
0.606007 0.0509247 0.
0.60801 0.0509216 0.
0.610013 0.0509185 0.
0.612017 0.0509148 0.
0.614022 0.0509103 0.
0.616027 0.0509058 0.
0.618034 0.0508994 0.
0.620042 0.050892 0.
0.62205 0.0508847 0.
0.624062 0.0508706 0.
0.626074 0.0508558 0.
0.628087 0.0508399 0.
0.630108 0.0508171 0.
0.632129 0.0507944 0.
0.634153 0.0507687 0.
0.636182 0.0507381 0.
0.638211 0.0507076 0.
0.640246 0.0506723 0.
0.642284 0.0506343 0.
0.644322 0.0505963 0.
0.646368 0.050529 0.
0.648415 0.0504575 0.
0.650464 0.0503849 0.
0.652522 0.0503045 0.
0.65458 0.0502242 0.
0.65664 0.0501429 0.
0.658703 0.0500598 0.
0.660767 0.0499768 0.
0.662834 0.0498878 0.
0.664903 0.0497968 0.
0.666973 0.0497045 0.
0.669046 0.0495673 0.
0.671119 0.0494277 0.
0.673193 0.0492906 0.
0.675266 0.0491473 0.
0.67734 0.0490038 0.
0.679412 0.0488651 0.
0.681484 0.0487315 0.
0.683555 0.0485977 0.
0.685623 0.0484629 0.
0.68769 0.0483322 0.
0.689756 0.0482037 0.
0.691812 0.0480927 0.
0.693868 0.047984 0.
0.695919 0.047893 0.
0.697961 0.0478449 0.
0.700003 0.0477984 0.
0.498043 0.0497466 0.
0.500079 0.0497927 0.
0.50212 0.0498686 0.
0.504161 0.0499455 0.
0.506212 0.0500494 0.
0.508268 0.050164 0.
0.510324 0.0502802 0.
0.512389 0.0504084 0.
0.514454 0.0505374 0.
0.516521 0.0506705 0.
0.518591 0.0508024 0.
0.520661 0.0509343 0.
0.522732 0.051071 0.
0.524803 0.0512125 0.
0.526873 0.0513537 0.
0.528944 0.0514865 0.
0.531014 0.051621 0.
0.533084 0.0517528 0.
0.53515 0.0518397 0.
0.537215 0.0519257 0.
0.539279 0.0520099 0.
0.541339 0.0520896 0.
0.543399 0.0521694 0.
0.545456 0.0522473 0.
0.547511 0.0523241 0.
0.549565 0.052401 0.
0.551611 0.0524709 0.
0.553655 0.0525401 0.
0.555699 0.0526049 0.
0.557734 0.0526417 0.
0.55977 0.0526786 0.
0.561802 0.0527127 0.
0.56383 0.0527424 0.
0.565857 0.0527721 0.
0.56788 0.0527972 0.
0.569899 0.0528194 0.
0.571919 0.0528417 0.
0.573931 0.0528571 0.
0.575942 0.0528714 0.
0.577953 0.052885 0.
0.579961 0.0528917 0.
0.581968 0.0528984 0.
0.583974 0.0529042 0.
0.585979 0.0529084 0.
0.587984 0.0529126 0.
0.589987 0.052916 0.
0.59199 0.0529187 0.
0.593993 0.0529214 0.
0.595996 0.052923 0.
0.597998 0.0529243 0.
0.6 0.0529255 0.
0.602003 0.052924 0.
0.604006 0.0529225 0.
0.606008 0.0529206 0.
0.608012 0.0529171 0.
0.610015 0.0529136 0.
0.61202 0.0529093 0.
0.614026 0.0529039 0.
0.616031 0.0528986 0.
0.618039 0.052891 0.
0.620048 0.0528825 0.
0.622057 0.052874 0.
0.62407 0.0528574 0.
0.626084 0.05284 0.
0.628098 0.0528214 0.
0.63012 0.0527957 0.
0.632143 0.0527699 0.
0.634168 0.0527413 0.
0.636199 0.0527079 0.
0.63823 0.0526746 0.
0.640265 0.0526367 0.
0.642304 0.0525962 0.
0.644343 0.0525557 0.
0.646389 0.052484 0.
0.648437 0.0524079 0.
0.650486 0.0523312 0.
0.652543 0.0522485 0.
0.654601 0.0521659 0.
0.65666 0.0520826 0.
0.658723 0.0519982 0.
0.660786 0.0519138 0.
0.662852 0.0518229 0.
0.664919 0.0517298 0.
0.666987 0.0516355 0.
0.669058 0.0514988 0.
0.671129 0.0513599 0.
0.6732 0.0512235 0.
0.67527 0.0510811 0.
0.67734 0.0509384 0.
0.679409 0.0508009 0.
0.681476 0.0506684 0.
0.683544 0.0505356 0.
0.685608 0.0504041 0.
0.687671 0.0502771 0.
0.689732 0.0501523 0.
0.691785 0.050046 0.
0.693836 0.0499421 0.
0.695884 0.0498548 0.
0.697923 0.0498101 0.
0.699961 0.049767 0.
0.498081 0.0517173 0.
0.500116 0.0517616 0.
0.502155 0.051834 0.
0.504194 0.0519073 0.
0.506242 0.0520072 0.
0.508294 0.052117 0.
0.510346 0.0522285 0.
0.512406 0.0523529 0.
0.514468 0.0524782 0.
0.51653 0.0526079 0.
0.518596 0.0527386 0.
0.520662 0.0528692 0.
0.522729 0.0530048 0.
0.524797 0.0531455 0.
0.526864 0.0532859 0.
0.528932 0.0534187 0.
0.531 0.0535533 0.
0.533068 0.0536855 0.
0.535133 0.0537747 0.
0.537196 0.053863 0.
0.539259 0.0539494 0.
0.541319 0.0540305 0.
0.543378 0.0541117 0.
0.545435 0.0541917 0.
0.547489 0.054271 0.
0.549544 0.0543503 0.
0.55159 0.0544245 0.
0.553635 0.0544982 0.
0.555678 0.0545675 0.
0.557715 0.0546067 0.
0.559751 0.0546461 0.
0.561785 0.0546828 0.
0.563814 0.0547151 0.
0.565843 0.0547475 0.
0.567867 0.0547754 0.
0.569888 0.0548005 0.
0.571909 0.0548257 0.
0.573923 0.0548435 0.
0.575935 0.0548602 0.
0.577947 0.0548759 0.
0.579956 0.0548836 0.
0.581964 0.0548913 0.
0.583971 0.0548981 0.
0.585976 0.054903 0.
0.587982 0.0549078 0.
0.589986 0.0549117 0.
0.591989 0.0549147 0.
0.593992 0.0549178 0.
0.595995 0.0549195 0.
0.597998 0.0549208 0.
0.6 0.0549222 0.
0.602003 0.0549205 0.
0.604006 0.0549187 0.
0.606009 0.0549165 0.
0.608013 0.0549127 0.
0.610018 0.0549088 0.
0.612023 0.0549038 0.
0.614029 0.0548976 0.
0.616036 0.0548913 0.
0.618044 0.0548827 0.
0.620054 0.054873 0.
0.622064 0.0548632 0.
0.624079 0.0548442 0.
0.626093 0.0548242 0.
0.62811 0.0548029 0.
0.630133 0.0547742 0.
0.632157 0.0547454 0.
0.634184 0.0547139 0.
0.636216 0.0546777 0.
0.638248 0.0546415 0.
0.640285 0.054601 0.
0.642324 0.054558 0.
0.644364 0.0545151 0.
0.646411 0.054439 0.
0.648459 0.0543584 0.
0.650508 0.0542774 0.
0.652565 0.0541925 0.
0.654622 0.0541077 0.
0.656681 0.0540224 0.
0.658743 0.0539366 0.
0.660805 0.0538508 0.
0.662869 0.0537579 0.
0.664935 0.053663 0.
0.667001 0.0535667 0.
0.66907 0.0534306 0.
0.671138 0.0532926 0.
0.673206 0.0531571 0.
0.675272 0.0530159 0.
0.677339 0.0528744 0.
0.679404 0.0527383 0.
0.681467 0.0526073 0.
0.683531 0.0524761 0.
0.685591 0.0523481 0.
0.687649 0.0522252 0.
0.689707 0.0521043 0.
0.691755 0.0520023 0.
0.693804 0.0519029 0.
0.695848 0.0518189 0.
0.697885 0.051777 0.
0.699922 0.0517367 0.
0.498128 0.0536887 0.
0.500161 0.0537316 0.
0.502198 0.0538008 0.
0.504235 0.0538709 0.
0.506279 0.0539672 0.
0.508328 0.0540724 0.
0.510376 0.0541796 0.
0.512433 0.0543005 0.
0.51449 0.0544224 0.
0.516549 0.0545492 0.
0.518611 0.054679 0.
0.520673 0.0548086 0.
0.522736 0.0549434 0.
0.5248 0.0550836 0.
0.526864 0.0552233 0.
0.528929 0.0553558 0.
0.530994 0.0554902 0.
0.533059 0.0556223 0.
0.535121 0.0557132 0.
0.537183 0.0558032 0.
0.539244 0.0558913 0.
0.541302 0.0559735 0.
0.54336 0.0560557 0.
0.545416 0.0561375 0.
0.547469 0.0562187 0.
0.549523 0.0563 0.
0.551568 0.0563777 0.
0.553613 0.0564552 0.
0.555657 0.0565281 0.
0.557694 0.0565693 0.
0.559731 0.0566106 0.
0.561766 0.0566494 0.
0.563796 0.0566842 0.
0.565826 0.0567189 0.
0.567852 0.0567494 0.
0.569874 0.0567773 0.
0.571896 0.0568052 0.
0.573912 0.0568258 0.
0.575926 0.0568452 0.
0.577939 0.0568636 0.
0.579949 0.0568726 0.
0.581958 0.0568816 0.
0.583966 0.0568895 0.
0.585973 0.0568953 0.
0.587979 0.0569011 0.
0.589983 0.0569057 0.
0.591987 0.0569091 0.
0.593991 0.0569126 0.
0.595994 0.0569145 0.
0.597997 0.0569158 0.
0.6 0.0569172 0.
0.602004 0.0569153 0.
0.604007 0.0569133 0.
0.606011 0.0569108 0.
0.608016 0.0569062 0.
0.61002 0.0569017 0.
0.612027 0.0568959 0.
0.614034 0.0568885 0.
0.616042 0.0568812 0.
0.618052 0.0568713 0.
0.620063 0.0568602 0.
0.622074 0.0568491 0.
0.62409 0.0568272 0.
0.626106 0.0568043 0.
0.628124 0.0567801 0.
0.630149 0.0567486 0.
0.632174 0.0567171 0.
0.634202 0.0566828 0.
0.636235 0.056644 0.
0.638268 0.0566053 0.
0.640306 0.0565628 0.
0.642346 0.0565179 0.
0.644386 0.0564732 0.
0.646432 0.0563934 0.
0.64848 0.056309 0.
0.650528 0.0562246 0.
0.652584 0.0561379 0.
0.65464 0.0560512 0.
0.656697 0.0559644 0.
0.658758 0.0558775 0.
0.660818 0.0557907 0.
0.662881 0.0556964 0.
0.664944 0.0556001 0.
0.667008 0.0555024 0.
0.669074 0.0553673 0.
0.671139 0.0552303 0.
0.673204 0.0550958 0.
0.675266 0.0549555 0.
0.677328 0.0548149 0.
0.67939 0.0546799 0.
0.681449 0.05455 0.
0.683509 0.05442 0.
0.685565 0.0542953 0.
0.687619 0.0541761 0.
0.689673 0.0540588 0.
0.691718 0.0539607 0.
0.693763 0.0538653 0.
0.695805 0.0537842 0.
0.69784 0.0537448 0.
0.699875 0.0537071 0.
0.498184 0.0556608 0.
0.500216 0.0557027 0.
0.502251 0.0557692 0.
0.504287 0.0558368 0.
0.506329 0.0559306 0.
0.508374 0.0560325 0.
0.510419 0.0561366 0.
0.512471 0.0562546 0.
0.514523 0.0563733 0.
0.516577 0.0564973 0.
0.518634 0.0566257 0.
0.520691 0.056754 0.
0.52275 0.0568874 0.
0.52481 0.0570264 0.
0.52687 0.0571651 0.
0.528931 0.0572966 0.
0.530992 0.0574301 0.
0.533054 0.0575614 0.
0.535113 0.0576535 0.
0.537173 0.0577447 0.
0.539232 0.057834 0.
0.541288 0.0579171 0.
0.543344 0.0580003 0.
0.545398 0.0580835 0.
0.54745 0.0581666 0.
0.549502 0.0582497 0.
0.551547 0.0583308 0.
0.553592 0.0584119 0.
0.555635 0.0584883 0.
0.557673 0.0585315 0.
0.55971 0.0585747 0.
0.561746 0.0586156 0.
0.563777 0.0586528 0.
0.565809 0.0586899 0.
0.567836 0.0587231 0.
0.56986 0.0587537 0.
0.571884 0.0587844 0.
0.5739 0.0588078 0.
0.575916 0.05883 0.
0.577931 0.0588512 0.
0.579942 0.0588615 0.
0.581952 0.0588718 0.
0.583962 0.0588809 0.
0.585969 0.0588877 0.
0.587976 0.0588944 0.
0.589981 0.0588996 0.
0.591986 0.0589035 0.
0.59399 0.0589075 0.
0.595994 0.0589094 0.
0.597997 0.0589108 0.
0.6 0.0589122 0.
0.602004 0.05891 0.
0.604008 0.0589078 0.
0.606012 0.058905 0.
0.608018 0.0588997 0.
0.610023 0.0588945 0.
0.61203 0.0588878 0.
0.614039 0.0588794 0.
0.616048 0.0588709 0.
0.618059 0.0588597 0.
0.620071 0.0588473 0.
0.622084 0.0588348 0.
0.624101 0.05881 0.
0.626119 0.0587841 0.
0.628138 0.058757 0.
0.630164 0.0587226 0.
0.632191 0.0586883 0.
0.63422 0.0586512 0.
0.636255 0.0586099 0.
0.638289 0.0585686 0.
0.640327 0.058524 0.
0.642367 0.0584774 0.
0.644407 0.058431 0.
0.646453 0.0583477 0.
0.6485 0.0582598 0.
0.650548 0.058172 0.
0.652602 0.0580836 0.
0.654656 0.0579953 0.
0.656712 0.0579071 0.
0.65877 0.0578194 0.
0.660828 0.0577318 0.
0.662888 0.0576367 0.
0.664949 0.0575396 0.
0.66701 0.0574412 0.
0.669071 0.0573075 0.
0.671132 0.0571722 0.
0.673193 0.0570393 0.
0.675251 0.0569004 0.
0.677309 0.0567611 0.
0.679366 0.0566278 0.
0.681421 0.0564994 0.
0.683477 0.0563709 0.
0.685528 0.056249 0.
0.687578 0.056133 0.
0.689627 0.0560186 0.
0.691669 0.0559232 0.
0.693711 0.0558306 0.
0.69575 0.0557513 0.
0.697784 0.0557139 0.
0.699818 0.0556781 0.
0.498239 0.0576333 0.
0.500271 0.057674 0.
0.502304 0.0577381 0.
0.504339 0.0578034 0.
0.506378 0.0578948 0.
0.508418 0.0579937 0.
0.51046 0.0580949 0.
0.512507 0.0582097 0.
0.514555 0.0583251 0.
0.516604 0.0584463 0.
0.518657 0.0585732 0.
0.52071 0.0587001 0.
0.522764 0.0588323 0.
0.52482 0.0589704 0.
0.526876 0.0591081 0.
0.528933 0.0592386 0.
0.530991 0.0593712 0.
0.533049 0.0595019 0.
0.535106 0.0595951 0.
0.537164 0.0596874 0.
0.53922 0.0597778 0.
0.541275 0.0598618 0.
0.54333 0.0599459 0.
0.545382 0.0600306 0.
0.547433 0.0601154 0.
0.549483 0.0602003 0.
0.551528 0.0602847 0.
0.553572 0.0603692 0.
0.555616 0.060449 0.
0.557654 0.0604938 0.
0.559692 0.0605388 0.
0.561727 0.0605817 0.
0.56376 0.060621 0.
0.565792 0.0606604 0.
0.56782 0.0606961 0.
0.569846 0.0607294 0.
0.571871 0.0607628 0.
0.573889 0.060789 0.
0.575906 0.0608141 0.
0.577922 0.0608379 0.
0.579934 0.0608495 0.
0.581946 0.0608611 0.
0.583956 0.0608715 0.
0.585964 0.0608793 0.
0.587972 0.0608871 0.
0.589978 0.0608931 0.
0.591983 0.0608976 0.
0.593989 0.0609021 0.
0.595993 0.0609042 0.
0.597997 0.0609056 0.
0.600001 0.0609071 0.
0.602005 0.0609045 0.
0.604009 0.060902 0.
0.606014 0.0608987 0.
0.608021 0.0608926 0.
0.610027 0.0608866 0.
0.612035 0.060879 0.
0.614045 0.0608694 0.
0.616055 0.0608598 0.
0.618067 0.0608473 0.
0.620081 0.0608335 0.
0.622094 0.0608197 0.
0.624113 0.0607921 0.
0.626132 0.0607633 0.
0.628152 0.0607333 0.
0.630179 0.0606961 0.
0.632207 0.060659 0.
0.634238 0.0606193 0.
0.636273 0.0605756 0.
0.638308 0.060532 0.
0.640346 0.0604855 0.
0.642386 0.0604374 0.
0.644427 0.0603893 0.
0.646472 0.0603027 0.
0.648519 0.0602114 0.
0.650566 0.0601204 0.
0.652618 0.0600304 0.
0.654671 0.0599405 0.
0.656725 0.059851 0.
0.658781 0.0597625 0.
0.660837 0.0596741 0.
0.662895 0.0595781 0.
0.664953 0.0594803 0.
0.667011 0.0593812 0.
0.669069 0.0592489 0.
0.671126 0.0591152 0.
0.673183 0.0589838 0.
0.675237 0.0588462 0.
0.677291 0.0587082 0.
0.679344 0.0585764 0.
0.681394 0.0584496 0.
0.683445 0.0583227 0.
0.685492 0.0582037 0.
0.687537 0.058091 0.
0.689582 0.0579795 0.
0.691621 0.0578867 0.
0.693659 0.0577967 0.
0.695696 0.0577191 0.
0.697729 0.0576836 0.
0.699762 0.0576498 0.
0.498285 0.0596071 0.
0.500315 0.0596468 0.
0.502347 0.059709 0.
0.504379 0.0597723 0.
0.506415 0.0598618 0.
0.508453 0.0599583 0.
0.510492 0.0600572 0.
0.512536 0.0601695 0.
0.51458 0.0602823 0.
0.516626 0.0604013 0.
0.518675 0.0605272 0.
0.520725 0.060653 0.
0.522776 0.0607842 0.
0.524829 0.0609214 0.
0.526881 0.0610582 0.
0.528936 0.0611871 0.
0.530991 0.0613179 0.
0.533047 0.061447 0.
0.535102 0.0615408 0.
0.537158 0.0616338 0.
0.539213 0.0617251 0.
0.541266 0.0618099 0.
0.543319 0.0618947 0.
0.54537 0.0619806 0.
0.54742 0.0620668 0.
0.54947 0.0621531 0.
0.551514 0.0622401 0.
0.553557 0.0623275 0.
0.5556 0.06241 0.
0.557638 0.0624563 0.
0.559676 0.0625026 0.
0.561712 0.0625471 0.
0.563745 0.0625885 0.
0.565777 0.0626299 0.
0.567806 0.062668 0.
0.569832 0.062704 0.
0.571858 0.0627401 0.
0.573877 0.0627692 0.
0.575895 0.0627971 0.
0.577912 0.0628237 0.
0.579925 0.0628366 0.
0.581938 0.0628496 0.
0.583949 0.0628613 0.
0.585958 0.0628702 0.
0.587967 0.0628791 0.
0.589975 0.062886 0.
0.591981 0.0628912 0.
0.593987 0.0628964 0.
0.595992 0.0628987 0.
0.597996 0.0629002 0.
0.600001 0.0629018 0.
0.602006 0.0628987 0.
0.604011 0.0628957 0.
0.606017 0.0628918 0.
0.608025 0.0628849 0.
0.610032 0.062878 0.
0.612041 0.0628693 0.
0.614052 0.0628585 0.
0.616063 0.0628477 0.
0.618076 0.0628339 0.
0.620091 0.0628187 0.
0.622105 0.0628035 0.
0.624125 0.0627732 0.
0.626144 0.0627416 0.
0.628166 0.0627087 0.
0.630194 0.0626687 0.
0.632222 0.0626288 0.
0.634253 0.0625866 0.
0.636288 0.0625409 0.
0.638323 0.0624952 0.
0.640362 0.0624472 0.
0.642401 0.0623979 0.
0.644441 0.0623485 0.
0.646486 0.0622591 0.
0.648532 0.0621649 0.
0.650578 0.0620714 0.
0.65263 0.0619801 0.
0.654681 0.0618889 0.
0.656734 0.0617984 0.
0.658788 0.0617093 0.
0.660843 0.0616203 0.
0.662899 0.0615239 0.
0.664955 0.0614258 0.
0.667011 0.0613265 0.
0.669066 0.0611964 0.
0.671121 0.061065 0.
0.673175 0.0609355 0.
0.675225 0.060799 0.
0.677276 0.060662 0.
0.679325 0.0605314 0.
0.681373 0.0604058 0.
0.68342 0.0602801 0.
0.685463 0.0601633 0.
0.687505 0.0600531 0.
0.689547 0.059944 0.
0.691583 0.059853 0.
0.693619 0.0597651 0.
0.695653 0.059689 0.
0.697684 0.0596552 0.
0.699715 0.0596232 0.
0.498327 0.061582 0.
0.500356 0.0616211 0.
0.502386 0.0616814 0.
0.504416 0.0617428 0.
0.506451 0.0618305 0.
0.508487 0.061925 0.
0.510523 0.0620219 0.
0.512565 0.0621319 0.
0.514606 0.0622423 0.
0.516649 0.0623592 0.
0.518695 0.0624837 0.
0.520741 0.0626081 0.
0.522789 0.0627379 0.
0.524838 0.0628738 0.
0.526886 0.0630093 0.
0.528938 0.0631363 0.
0.530991 0.0632651 0.
0.533045 0.0633923 0.
0.535098 0.0634867 0.
0.537152 0.0635803 0.
0.539205 0.0636723 0.
0.541257 0.0637579 0.
0.543309 0.0638435 0.
0.545359 0.0639306 0.
0.547407 0.0640182 0.
0.549456 0.0641058 0.
0.5515 0.0641954 0.
0.553543 0.0642857 0.
0.555585 0.064371 0.
0.557623 0.0644187 0.
0.55966 0.0644664 0.
0.561696 0.0645126 0.
0.563729 0.064556 0.
0.565762 0.0645994 0.
0.567792 0.06464 0.
0.569818 0.0646786 0.
0.571845 0.0647174 0.
0.573865 0.0647493 0.
0.575884 0.06478 0.
0.577903 0.0648094 0.
0.579916 0.0648237 0.
0.58193 0.064838 0.
0.583943 0.064851 0.
0.585953 0.0648611 0.
0.587963 0.0648712 0.
0.589971 0.064879 0.
0.591978 0.0648848 0.
0.593985 0.0648907 0.
0.59599 0.0648933 0.
0.597995 0.0648949 0.
0.600001 0.0648964 0.
0.602007 0.0648929 0.
0.604013 0.0648893 0.
0.60602 0.0648848 0.
0.608028 0.0648771 0.
0.610037 0.0648694 0.
0.612047 0.0648597 0.
0.614059 0.0648476 0.
0.616071 0.0648355 0.
0.618085 0.0648204 0.
0.620101 0.0648039 0.
0.622116 0.0647874 0.
0.624137 0.0647543 0.
0.626157 0.0647198 0.
0.628179 0.0646841 0.
0.630208 0.0646413 0.
0.632237 0.0645986 0.
0.634269 0.0645538 0.
0.636304 0.0645061 0.
0.638339 0.0644585 0.
0.640377 0.064409 0.
0.642416 0.0643583 0.
0.644455 0.0643077 0.
0.6465 0.0642155 0.
0.648545 0.0641185 0.
0.650591 0.0640223 0.
0.652641 0.0639298 0.
0.654692 0.0638374 0.
0.656743 0.0637458 0.
0.658796 0.0636562 0.
0.660849 0.0635666 0.
0.662902 0.0634698 0.
0.664956 0.0633715 0.
0.66701 0.0632721 0.
0.669063 0.0631445 0.
0.671115 0.0630157 0.
0.673166 0.0628885 0.
0.675213 0.0627535 0.
0.67726 0.0626179 0.
0.679306 0.0624888 0.
0.68135 0.0623647 0.
0.683394 0.0622404 0.
0.685434 0.0621256 0.
0.687473 0.0620178 0.
0.689513 0.0619108 0.
0.691547 0.0618214 0.
0.693581 0.0617351 0.
0.695614 0.0616603 0.
0.697643 0.0616286 0.
0.699673 0.0615987 0.
0.498376 0.0635576 0.
0.500403 0.0635964 0.
0.502432 0.0636549 0.
0.50446 0.0637145 0.
0.506493 0.0638008 0.
0.508527 0.0638934 0.
0.510562 0.0639885 0.
0.512601 0.0640964 0.
0.514639 0.0642046 0.
0.516679 0.0643196 0.
0.518722 0.0644429 0.
0.520765 0.0645662 0.
0.522809 0.0646949 0.
0.524854 0.0648299 0.
0.526899 0.0649644 0.
0.528948 0.0650897 0.
0.530998 0.0652165 0.
0.533049 0.0653419 0.
0.5351 0.0654367 0.
0.537151 0.0655306 0.
0.539202 0.0656231 0.
0.541252 0.0657093 0.
0.543302 0.0657955 0.
0.54535 0.0658835 0.
0.547397 0.0659722 0.
0.549444 0.0660609 0.
0.551486 0.0661527 0.
0.553528 0.0662454 0.
0.555569 0.0663331 0.
0.557606 0.0663818 0.
0.559643 0.0664306 0.
0.561678 0.0664779 0.
0.563711 0.0665228 0.
0.565744 0.0665678 0.
0.567773 0.0666102 0.
0.569801 0.0666509 0.
0.571828 0.0666916 0.
0.57385 0.0667263 0.
0.57587 0.0667599 0.
0.577889 0.066792 0.
0.579905 0.0668075 0.
0.58192 0.0668231 0.
0.583933 0.0668373 0.
0.585945 0.0668485 0.
0.587956 0.0668598 0.
0.589966 0.0668686 0.
0.591974 0.0668754 0.
0.593982 0.0668822 0.
0.595989 0.066885 0.
0.597995 0.0668867 0.
0.600001 0.0668884 0.
0.602009 0.0668842 0.
0.604016 0.06688 0.
0.606024 0.0668748 0.
0.608034 0.066866 0.
0.610044 0.0668573 0.
0.612055 0.0668465 0.
0.614068 0.0668332 0.
0.616081 0.0668199 0.
0.618097 0.0668036 0.
0.620114 0.066786 0.
0.622131 0.0667683 0.
0.624152 0.0667325 0.
0.626174 0.0666953 0.
0.628197 0.0666568 0.
0.630226 0.0666119 0.
0.632256 0.066567 0.
0.634287 0.0665204 0.
0.636322 0.0664714 0.
0.638357 0.0664224 0.
0.640393 0.0663716 0.
0.642431 0.0663198 0.
0.644469 0.0662679 0.
0.646513 0.0661734 0.
0.648557 0.066074 0.
0.650602 0.0659757 0.
0.65265 0.0658824 0.
0.654699 0.065789 0.
0.656748 0.0656968 0.
0.658799 0.0656068 0.
0.660849 0.0655168 0.
0.662901 0.0654197 0.
0.664952 0.0653214 0.
0.667003 0.0652219 0.
0.669053 0.0650967 0.
0.671102 0.0649704 0.
0.67315 0.0648454 0.
0.675193 0.0647114 0.
0.677237 0.064577 0.
0.679279 0.0644491 0.
0.68132 0.0643261 0.
0.68336 0.0642031 0.
0.685398 0.06409 0.
0.687435 0.0639843 0.
0.689472 0.0638793 0.
0.691505 0.0637912 0.
0.693537 0.0637064 0.
0.695568 0.0636326 0.
0.697596 0.0636029 0.
0.699623 0.0635749 0.
0.498435 0.065534 0.
0.500461 0.0655725 0.
0.502489 0.0656298 0.
0.504516 0.0656883 0.
0.506547 0.0657737 0.
0.508579 0.065865 0.
0.510611 0.0659589 0.
0.512647 0.0660652 0.
0.514682 0.0661718 0.
0.516719 0.0662854 0.
0.518758 0.0664077 0.
0.520797 0.0665298 0.
0.522837 0.0666574 0.
0.524879 0.0667911 0.
0.52692 0.0669243 0.
0.528966 0.0670474 0.
0.531012 0.0671718 0.
0.533059 0.0672947 0.
0.535107 0.0673894 0.
0.537155 0.0674832 0.
0.539203 0.0675758 0.
0.54125 0.0676623 0.
0.543297 0.0677487 0.
0.545343 0.0678375 0.
0.547388 0.0679271 0.
0.549433 0.0680167 0.
0.551474 0.0681106 0.
0.553514 0.0682054 0.
0.555553 0.0682953 0.
0.557589 0.068345 0.
0.559625 0.0683948 0.
0.56166 0.0684433 0.
0.563692 0.0684896 0.
0.565725 0.0685359 0.
0.567755 0.0685801 0.
0.569783 0.0686228 0.
0.571811 0.0686655 0.
0.573834 0.068703 0.
0.575855 0.0687394 0.
0.577876 0.0687744 0.
0.579892 0.0687912 0.
0.581909 0.068808 0.
0.583924 0.0688234 0.
0.585937 0.0688359 0.
0.587949 0.0688483 0.
0.58996 0.0688582 0.
0.59197 0.0688659 0.
0.593979 0.0688736 0.
0.595987 0.0688767 0.
0.597994 0.0688785 0.
0.600002 0.0688802 0.
0.60201 0.0688754 0.
0.604019 0.0688705 0.
0.606028 0.0688646 0.
0.608039 0.0688548 0.
0.610051 0.068845 0.
0.612063 0.0688331 0.
0.614078 0.0688186 0.
0.616092 0.0688042 0.
0.618109 0.0687867 0.
0.620127 0.0687679 0.
0.622146 0.0687491 0.
0.624168 0.0687105 0.
0.626191 0.0686704 0.
0.628215 0.0686292 0.
0.630245 0.0685822 0.
0.632275 0.0685352 0.
0.634306 0.0684869 0.
0.63634 0.0684367 0.
0.638374 0.0683866 0.
0.64041 0.0683345 0.
0.642447 0.0682814 0.
0.644484 0.0682282 0.
0.646526 0.0681316 0.
0.648568 0.0680301 0.
0.650611 0.0679299 0.
0.652657 0.067836 0.
0.654703 0.0677422 0.
0.65675 0.0676495 0.
0.658798 0.0675595 0.
0.660846 0.0674694 0.
0.662894 0.0673725 0.
0.664942 0.0672745 0.
0.66699 0.0671755 0.
0.669035 0.0670532 0.
0.671081 0.0669298 0.
0.673125 0.0668073 0.
0.675165 0.0666746 0.
0.677204 0.0665414 0.
0.679243 0.0664146 0.
0.68128 0.0662927 0.
0.683318 0.0661707 0.
0.685352 0.0660589 0.
0.687386 0.0659547 0.
0.68942 0.0658509 0.
0.691451 0.0657638 0.
0.693481 0.0656801 0.
0.695511 0.0656066 0.
0.697537 0.0655778 0.
0.699564 0.0655508 0.
0.498495 0.0675107 0.
0.50052 0.0675491 0.
0.502546 0.0676054 0.
0.504573 0.0676628 0.
0.506601 0.0677475 0.
0.508631 0.0678374 0.
0.51066 0.0679301 0.
0.512692 0.0680349 0.
0.514724 0.0681399 0.
0.516757 0.0682522 0.
0.518792 0.0683732 0.
0.520828 0.0684942 0.
0.522865 0.0686206 0.
0.524903 0.0687532 0.
0.526941 0.0688852 0.
0.528983 0.069006 0.
0.531025 0.069128 0.
0.533068 0.0692487 0.
0.535113 0.0693433 0.
0.537158 0.069437 0.
0.539203 0.0695297 0.
0.541248 0.0696164 0.
0.543293 0.0697032 0.
0.545337 0.0697927 0.
0.54738 0.0698832 0.
0.549423 0.0699738 0.
0.551462 0.0700696 0.
0.5535 0.0701665 0.
0.555539 0.0702584 0.
0.557574 0.0703091 0.
0.559609 0.0703598 0.
0.561643 0.0704093 0.
0.563675 0.0704569 0.
0.565707 0.0705044 0.
0.567737 0.0705502 0.
0.569766 0.0705947 0.
0.571795 0.0706392 0.
0.573818 0.0706792 0.
0.575841 0.0707184 0.
0.577863 0.070756 0.
0.57988 0.070774 0.
0.581898 0.0707919 0.
0.583914 0.0708086 0.
0.585928 0.0708222 0.
0.587942 0.0708358 0.
0.589954 0.0708467 0.
0.591965 0.0708553 0.
0.593976 0.0708639 0.
0.595985 0.0708673 0.
0.597994 0.0708692 0.
0.600002 0.0708711 0.
0.602012 0.0708656 0.
0.604022 0.07086 0.
0.606033 0.0708533 0.
0.608045 0.0708425 0.
0.610058 0.0708317 0.
0.612072 0.0708187 0.
0.614088 0.0708031 0.
0.616104 0.0707875 0.
0.618122 0.070769 0.
0.620141 0.0707491 0.
0.62216 0.0707292 0.
0.624183 0.070688 0.
0.626207 0.0706452 0.
0.628232 0.0706014 0.
0.630262 0.0705526 0.
0.632293 0.0705038 0.
0.634324 0.0704539 0.
0.636357 0.0704028 0.
0.638391 0.0703516 0.
0.640426 0.0702983 0.
0.642461 0.0702439 0.
0.644497 0.0701895 0.
0.646537 0.0700908 0.
0.648578 0.0699873 0.
0.650619 0.0698854 0.
0.652663 0.069791 0.
0.654707 0.0696965 0.
0.656751 0.0696035 0.
0.658797 0.0695134 0.
0.660842 0.0694232 0.
0.662887 0.0693265 0.
0.664931 0.0692288 0.
0.666976 0.0691302 0.
0.669018 0.0690106 0.
0.67106 0.06889 0.
0.673101 0.0687701 0.
0.675137 0.0686386 0.
0.677173 0.0685066 0.
0.679208 0.0683809 0.
0.681242 0.0682601 0.
0.683276 0.0681393 0.
0.685307 0.0680287 0.
0.687338 0.0679259 0.
0.689368 0.0678235 0.
0.691397 0.0677374 0.
0.693425 0.0676547 0.
0.695453 0.0675813 0.
0.697478 0.0675531 0.
0.699504 0.0675268 0.
0.498545 0.0694887 0.
0.500569 0.069527 0.
0.502594 0.0695826 0.
0.504619 0.0696395 0.
0.506645 0.0697235 0.
0.508672 0.0698126 0.
0.510699 0.0699044 0.
0.512728 0.0700081 0.
0.514757 0.0701119 0.
0.516787 0.0702232 0.
0.51882 0.0703435 0.
0.520852 0.0704636 0.
0.522886 0.0705893 0.
0.524921 0.0707211 0.
0.526956 0.0708523 0.
0.528995 0.0709708 0.
0.531035 0.0710902 0.
0.533075 0.0712083 0.
0.535118 0.0713024 0.
0.537161 0.0713959 0.
0.539204 0.0714884 0.
0.541246 0.0715753 0.
0.543289 0.0716623 0.
0.545331 0.0717522 0.
0.547372 0.0718432 0.
0.549414 0.0719341 0.
0.551452 0.0720313 0.
0.55349 0.0721298 0.
0.555527 0.0722233 0.
0.557561 0.0722748 0.
0.559596 0.0723264 0.
0.561629 0.0723767 0.
0.563661 0.0724251 0.
0.565693 0.0724734 0.
0.567723 0.0725204 0.
0.569751 0.0725663 0.
0.57178 0.0726122 0.
0.573804 0.0726546 0.
0.575827 0.0726964 0.
0.57785 0.0727366 0.
0.579868 0.0727556 0.
0.581886 0.0727747 0.
0.583904 0.0727924 0.
0.585919 0.0728072 0.
0.587934 0.072822 0.
0.589948 0.0728339 0.
0.59196 0.0728435 0.
0.593972 0.072853 0.
0.595983 0.0728568 0.
0.597993 0.0728587 0.
0.600004 0.0728607 0.
0.602015 0.0728545 0.
0.604027 0.0728482 0.
0.606039 0.0728407 0.
0.608052 0.0728289 0.
0.610066 0.0728171 0.
0.612081 0.0728031 0.
0.614098 0.0727863 0.
0.616115 0.0727696 0.
0.618134 0.07275 0.
0.620154 0.0727292 0.
0.622174 0.0727083 0.
0.624198 0.0726646 0.
0.626222 0.0726193 0.
0.628247 0.0725732 0.
0.630277 0.072523 0.
0.632307 0.0724728 0.
0.634339 0.0724219 0.
0.636371 0.0723701 0.
0.638404 0.0723184 0.
0.640438 0.0722641 0.
0.642473 0.0722087 0.
0.644508 0.0721532 0.
0.646547 0.0720529 0.
0.648587 0.0719479 0.
0.650627 0.0718447 0.
0.652669 0.0717501 0.
0.654711 0.0716556 0.
0.656753 0.0715623 0.
0.658796 0.0714723 0.
0.660839 0.0713822 0.
0.662882 0.0712859 0.
0.664924 0.0711888 0.
0.666966 0.0710909 0.
0.669005 0.0709741 0.
0.671045 0.0708564 0.
0.673083 0.0707388 0.
0.675116 0.070608 0.
0.677149 0.0704766 0.
0.679181 0.0703516 0.
0.681212 0.0702317 0.
0.683243 0.0701117 0.
0.685272 0.0700019 0.
0.687299 0.0699002 0.
0.689327 0.0697988 0.
0.691353 0.0697133 0.
0.693379 0.0696314 0.
0.695405 0.0695581 0.
0.697429 0.0695303 0.
0.699453 0.0695045 0.
0.498592 0.0714678 0.
0.500615 0.0715066 0.
0.502638 0.0715617 0.
0.504661 0.071618 0.
0.506685 0.0717016 0.
0.50871 0.0717898 0.
0.510735 0.0718809 0.
0.512762 0.0719836 0.
0.514789 0.0720865 0.
0.516817 0.0721971 0.
0.518847 0.0723163 0.
0.520876 0.0724354 0.
0.522907 0.0725601 0.
0.524939 0.0726909 0.
0.52697 0.072821 0.
0.529007 0.0729369 0.
0.531044 0.0730532 0.
0.533082 0.0731682 0.
0.535122 0.0732619 0.
0.537163 0.0733549 0.
0.539204 0.0734473 0.
0.541244 0.0735343 0.
0.543285 0.0736214 0.
0.545325 0.0737117 0.
0.547365 0.0738031 0.
0.549405 0.0738945 0.
0.551442 0.073993 0.
0.553479 0.0740931 0.
0.555516 0.0741882 0.
0.557549 0.0742406 0.
0.559582 0.074293 0.
0.561615 0.0743442 0.
0.563646 0.0743933 0.
0.565678 0.0744424 0.
0.567708 0.0744905 0.
0.569736 0.0745379 0.
0.571765 0.0745853 0.
0.57379 0.07463 0.
0.575813 0.0746744 0.
0.577837 0.0747172 0.
0.579856 0.0747373 0.
0.581875 0.0747574 0.
0.583893 0.0747763 0.
0.58591 0.0747922 0.
0.587926 0.0748081 0.
0.589941 0.0748211 0.
0.591955 0.0748316 0.
0.593968 0.0748421 0.
0.595981 0.0748462 0.
0.597993 0.0748483 0.
0.600005 0.0748503 0.
0.602018 0.0748434 0.
0.604031 0.0748364 0.
0.606044 0.0748281 0.
0.608059 0.0748153 0.
0.610074 0.0748025 0.
0.612091 0.0747874 0.
0.614109 0.0747695 0.
0.616126 0.0747517 0.
0.618146 0.0747311 0.
0.620167 0.0747093 0.
0.622187 0.0746874 0.
0.624212 0.0746412 0.
0.626237 0.0745934 0.
0.628262 0.074545 0.
0.630292 0.0744934 0.
0.632322 0.0744418 0.
0.634353 0.0743898 0.
0.636385 0.0743375 0.
0.638418 0.0742852 0.
0.640451 0.07423 0.
0.642485 0.0741734 0.
0.64452 0.0741168 0.
0.646557 0.0740151 0.
0.648596 0.0739084 0.
0.650634 0.073804 0.
0.652674 0.0737094 0.
0.654715 0.0736147 0.
0.656755 0.0735213 0.
0.658796 0.0734313 0.
0.660837 0.0733414 0.
0.662877 0.0732455 0.
0.664917 0.0731492 0.
0.666956 0.0730521 0.
0.668993 0.0729386 0.
0.671029 0.0728241 0.
0.673064 0.0727093 0.
0.675094 0.0725794 0.
0.677125 0.072449 0.
0.679154 0.0723249 0.
0.681182 0.0722059 0.
0.683211 0.0720868 0.
0.685237 0.0719777 0.
0.687263 0.0718769 0.
0.689289 0.0717762 0.
0.691313 0.0716913 0.
0.693337 0.0716101 0.
0.695361 0.0715369 0.
0.697383 0.0715096 0.
0.699406 0.0714844 0.
0.498646 0.0734477 0.
0.500667 0.0734871 0.
0.502688 0.073542 0.
0.504709 0.073598 0.
0.506732 0.0736813 0.
0.508755 0.0737688 0.
0.510778 0.0738592 0.
0.512803 0.0739612 0.
0.514827 0.0740632 0.
0.516853 0.0741732 0.
0.51888 0.0742917 0.
0.520907 0.0744101 0.
0.522934 0.0745341 0.
0.524963 0.074664 0.
0.526991 0.0747933 0.
0.529024 0.0749067 0.
0.531058 0.0750202 0.
0.533092 0.0751325 0.
0.53513 0.0752256 0.
0.537168 0.0753181 0.
0.539206 0.07541 0.
0.541244 0.0754971 0.
0.543283 0.0755842 0.
0.54532 0.0756748 0.
0.547358 0.0757664 0.
0.549396 0.0758581 0.
0.551431 0.0759575 0.
0.553467 0.0760586 0.
0.555502 0.0761548 0.
0.557534 0.076208 0.
0.559566 0.0762611 0.
0.561598 0.076313 0.
0.563629 0.0763624 0.
0.565659 0.0764119 0.
0.567689 0.0764608 0.
0.569718 0.076509 0.
0.571746 0.0765574 0.
0.573771 0.076604 0.
0.575796 0.0766504 0.
0.57782 0.0766952 0.
0.579841 0.0767162 0.
0.581861 0.0767371 0.
0.583881 0.0767568 0.
0.585899 0.0767736 0.
0.587917 0.0767903 0.
0.589933 0.0768041 0.
0.591949 0.0768154 0.
0.593964 0.0768267 0.
0.595978 0.0768309 0.
0.597992 0.0768331 0.
0.600006 0.0768352 0.
0.602021 0.0768277 0.
0.604036 0.0768202 0.
0.606051 0.0768113 0.
0.608068 0.0767977 0.
0.610084 0.0767842 0.
0.612102 0.0767683 0.
0.614121 0.0767498 0.
0.616141 0.0767312 0.
0.618161 0.0767098 0.
0.620183 0.0766872 0.
0.622204 0.0766646 0.
0.62423 0.0766162 0.
0.626255 0.0765662 0.
0.628282 0.076516 0.
0.630311 0.0764637 0.
0.632341 0.0764113 0.
0.634371 0.0763588 0.
0.636403 0.076306 0.
0.638434 0.0762533 0.
0.640466 0.0761973 0.
0.642499 0.07614 0.
0.644533 0.0760825 0.
0.646569 0.0759799 0.
0.648605 0.0758724 0.
0.650641 0.0757672 0.
0.652679 0.0756724 0.
0.654717 0.0755776 0.
0.656755 0.0754842 0.
0.658793 0.0753943 0.
0.660831 0.0753044 0.
0.662869 0.0752093 0.
0.664906 0.0751137 0.
0.666943 0.0750176 0.
0.668976 0.0749069 0.
0.671009 0.0747953 0.
0.67304 0.074683 0.
0.675067 0.074554 0.
0.677094 0.0744243 0.
0.679121 0.0743008 0.
0.681147 0.0741825 0.
0.683172 0.074064 0.
0.685197 0.0739555 0.
0.687221 0.0738553 0.
0.689244 0.0737553 0.
0.691267 0.0736709 0.
0.693289 0.0735901 0.
0.695311 0.0735169 0.
0.697331 0.0734899 0.
0.699352 0.0734651 0.
0.498709 0.0754289 0.
0.500729 0.0754694 0.
0.502749 0.0755244 0.
0.504768 0.0755806 0.
0.506789 0.075664 0.
0.50881 0.075751 0.
0.510831 0.0758409 0.
0.512853 0.0759423 0.
0.514875 0.0760438 0.
0.516898 0.0761534 0.
0.518921 0.0762715 0.
0.520945 0.0763895 0.
0.522969 0.0765129 0.
0.524994 0.076642 0.
0.527018 0.0767704 0.
0.529047 0.0768814 0.
0.531078 0.0769919 0.
0.533108 0.0771013 0.
0.535143 0.0771931 0.
0.537177 0.0772845 0.
0.539211 0.0773756 0.
0.541247 0.0774623 0.
0.543282 0.0775491 0.
0.545317 0.0776396 0.
0.547353 0.0777313 0.
0.549388 0.077823 0.
0.551421 0.077923 0.
0.553455 0.0780249 0.
0.555488 0.0781219 0.
0.557519 0.0781758 0.
0.55955 0.0782296 0.
0.561581 0.0782821 0.
0.563611 0.0783318 0.
0.565641 0.0783815 0.
0.56767 0.078431 0.
0.569698 0.0784801 0.
0.571727 0.0785293 0.
0.573753 0.0785777 0.
0.575778 0.0786261 0.
0.577803 0.0786729 0.
0.579825 0.0786947 0.
0.581847 0.0787165 0.
0.583868 0.0787371 0.
0.585887 0.0787547 0.
0.587907 0.0787723 0.
0.589925 0.0787869 0.
0.591942 0.0787989 0.
0.593959 0.0788109 0.
0.595976 0.0788154 0.
0.597991 0.0788176 0.
0.600007 0.0788198 0.
0.602024 0.0788117 0.
0.604041 0.0788037 0.
0.606058 0.0787941 0.
0.608076 0.0787799 0.
0.610095 0.0787657 0.
0.612114 0.0787491 0.
0.614135 0.0787297 0.
0.616155 0.0787104 0.
0.618177 0.0786882 0.
0.620199 0.0786648 0.
0.622222 0.0786414 0.
0.624248 0.0785909 0.
0.626274 0.0785389 0.
0.628301 0.0784869 0.
0.630331 0.078434 0.
0.63236 0.078381 0.
0.63439 0.0783279 0.
0.63642 0.0782749 0.
0.63845 0.0782218 0.
0.640482 0.0781651 0.
0.642514 0.078107 0.
0.644546 0.0780488 0.
0.646579 0.0779457 0.
0.648613 0.0778379 0.
0.650647 0.0777324 0.
0.652682 0.0776376 0.
0.654717 0.0775428 0.
0.656752 0.0774495 0.
0.658787 0.0773601 0.
0.660823 0.0772706 0.
0.662857 0.0771767 0.
0.66489 0.0770827 0.
0.666923 0.0769882 0.
0.668952 0.0768803 0.
0.670981 0.0767714 0.
0.673009 0.0766614 0.
0.675033 0.0765331 0.
0.677056 0.0764042 0.
0.67908 0.0762811 0.
0.681102 0.0761631 0.
0.683125 0.0760451 0.
0.685147 0.0759367 0.
0.687168 0.0758371 0.
0.68919 0.0757375 0.
0.69121 0.0756532 0.
0.693231 0.0755728 0.
0.695251 0.0754991 0.
0.69727 0.0754721 0.
0.699289 0.0754475 0.
0.498772 0.077411 0.
0.500791 0.0774525 0.
0.502809 0.0775078 0.
0.504827 0.0775643 0.
0.506846 0.0776477 0.
0.508864 0.0777342 0.
0.510883 0.0778237 0.
0.512902 0.0779246 0.
0.514921 0.0780254 0.
0.516941 0.0781348 0.
0.518961 0.0782524 0.
0.520981 0.0783699 0.
0.523002 0.0784927 0.
0.525023 0.0786209 0.
0.527045 0.0787485 0.
0.52907 0.0788569 0.
0.531097 0.0789645 0.
0.533124 0.079071 0.
0.535154 0.0791617 0.
0.537185 0.079252 0.
0.539216 0.0793423 0.
0.541249 0.0794287 0.
0.543282 0.0795151 0.
0.545314 0.0796057 0.
0.547347 0.0796975 0.
0.54938 0.0797892 0.
0.551411 0.0798897 0.
0.553443 0.0799922 0.
0.555474 0.0800899 0.
0.557504 0.0801444 0.
0.559535 0.0801988 0.
0.561564 0.0802518 0.
0.563594 0.0803017 0.
0.565623 0.0803516 0.
0.567652 0.0804015 0.
0.56968 0.0804514 0.
0.571709 0.0805012 0.
0.573736 0.0805512 0.
0.575762 0.0806014 0.
0.577788 0.08065 0.
0.579811 0.0806726 0.
0.581833 0.0806951 0.
0.583856 0.0807164 0.
0.585876 0.0807348 0.
0.587897 0.0807531 0.
0.589917 0.0807685 0.
0.591936 0.0807811 0.
0.593955 0.0807938 0.
0.595973 0.0807985 0.
0.597991 0.0808007 0.
0.600008 0.080803 0.
0.602027 0.0807944 0.
0.604046 0.0807858 0.
0.606064 0.0807757 0.
0.608085 0.0807609 0.
0.610105 0.080746 0.
0.612126 0.0807288 0.
0.614147 0.0807089 0.
0.616169 0.080689 0.
0.618191 0.0806661 0.
0.620215 0.0806419 0.
0.622238 0.0806177 0.
0.624265 0.0805654 0.
0.626292 0.0805115 0.
0.62832 0.080458 0.
0.630349 0.0804045 0.
0.632378 0.0803511 0.
0.634407 0.0802977 0.
0.636437 0.0802443 0.
0.638466 0.080191 0.
0.640497 0.0801338 0.
0.642528 0.080075 0.
0.644558 0.080016 0.
0.64659 0.0799126 0.
0.648622 0.0798046 0.
0.650654 0.0796989 0.
0.652686 0.079604 0.
0.654718 0.0795091 0.
0.65675 0.0794159 0.
0.658782 0.0793269 0.
0.660815 0.0792379 0.
0.662845 0.0791451 0.
0.664875 0.0790526 0.
0.666904 0.0789597 0.
0.66893 0.0788545 0.
0.670955 0.0787483 0.
0.672979 0.0786407 0.
0.674999 0.0785131 0.
0.67702 0.0783849 0.
0.67904 0.0782624 0.
0.681059 0.0781449 0.
0.683079 0.0780273 0.
0.685098 0.0779192 0.
0.687117 0.07782 0.
0.689135 0.0777208 0.
0.691154 0.0776366 0.
0.693172 0.0775564 0.
0.69519 0.0774822 0.
0.697208 0.0774554 0.
0.699226 0.0774309 0.
0.498826 0.0793951 0.
0.500843 0.0794378 0.
0.502859 0.0794936 0.
0.504876 0.0795507 0.
0.506892 0.0796343 0.
0.508907 0.0797207 0.
0.510923 0.0798103 0.
0.512939 0.0799109 0.
0.514955 0.0800114 0.
0.516971 0.0801206 0.
0.518989 0.0802378 0.
0.521006 0.080355 0.
0.523024 0.0804772 0.
0.525042 0.0806049 0.
0.527061 0.0807318 0.
0.529083 0.080838 0.
0.531107 0.0809429 0.
0.533131 0.0810467 0.
0.535159 0.081136 0.
0.537187 0.0812249 0.
0.539216 0.0813141 0.
0.541247 0.0814 0.
0.543277 0.0814858 0.
0.545308 0.0815762 0.
0.547339 0.0816679 0.
0.54937 0.0817596 0.
0.5514 0.0818599 0.
0.553431 0.0819624 0.
0.555461 0.0820603 0.
0.557491 0.0821151 0.
0.55952 0.0821698 0.
0.56155 0.082223 0.
0.563579 0.0822729 0.
0.565608 0.0823228 0.
0.567637 0.0823728 0.
0.569666 0.0824229 0.
0.571694 0.082473 0.
0.573721 0.0825242 0.
0.575748 0.0825759 0.
0.577774 0.0826261 0.
0.579798 0.0826493 0.
0.581821 0.0826725 0.
0.583844 0.0826944 0.
0.585866 0.0827134 0.
0.587888 0.0827323 0.
0.589909 0.0827483 0.
0.59193 0.0827615 0.
0.593951 0.0827748 0.
0.595971 0.0827796 0.
0.59799 0.0827819 0.
0.60001 0.0827842 0.
0.60203 0.0827751 0.
0.60405 0.0827661 0.
0.606071 0.0827555 0.
0.608093 0.0827402 0.
0.610114 0.0827248 0.
0.612136 0.0827072 0.
0.614159 0.0826869 0.
0.616181 0.0826667 0.
0.618205 0.0826431 0.
0.620228 0.082618 0.
0.622252 0.0825929 0.
0.62428 0.0825392 0.
0.626307 0.0824839 0.
0.628335 0.0824292 0.
0.630364 0.0823757 0.
0.632392 0.0823221 0.
0.634422 0.0822685 0.
0.636451 0.0822152 0.
0.638481 0.0821618 0.
0.640511 0.0821043 0.
0.642541 0.0820453 0.
0.644571 0.081986 0.
0.646601 0.0818829 0.
0.648632 0.0817752 0.
0.650662 0.08167 0.
0.652692 0.0815752 0.
0.654723 0.0814804 0.
0.656753 0.0813874 0.
0.658782 0.081299 0.
0.660812 0.0812105 0.
0.66284 0.0811191 0.
0.664867 0.0810284 0.
0.666894 0.0809372 0.
0.668917 0.0808344 0.
0.670939 0.0807306 0.
0.67296 0.080625 0.
0.674978 0.0804979 0.
0.676995 0.0803702 0.
0.679012 0.0802481 0.
0.681029 0.0801309 0.
0.683045 0.0800137 0.
0.685061 0.0799056 0.
0.687077 0.0798065 0.
0.689093 0.0797075 0.
0.691108 0.0796232 0.
0.693124 0.0795429 0.
0.69514 0.0794681 0.
0.697156 0.0794411 0.
0.699172 0.0794166 0.
0.498877 0.0813816 0.
0.500892 0.0814257 0.
0.502906 0.0814821 0.
0.504921 0.0815398 0.
0.506934 0.0816237 0.
0.508947 0.0817102 0.
0.51096 0.0817999 0.
0.512973 0.0819001 0.
0.514986 0.0820003 0.
0.517 0.0821091 0.
0.519014 0.0822256 0.
0.521029 0.0823421 0.
0.523044 0.0824636 0.
0.52506 0.0825906 0.
0.527075 0.0827167 0.
0.529095 0.0828204 0.
0.531116 0.0829224 0.
0.533137 0.0830233 0.
0.535163 0.0831109 0.
0.537189 0.0831983 0.
0.539216 0.0832861 0.
0.541244 0.0833714 0.
0.543273 0.0834567 0.
0.545301 0.0835467 0.
0.547331 0.0836383 0.
0.54936 0.0837299 0.
0.551389 0.0838302 0.
0.553418 0.0839327 0.
0.555448 0.0840307 0.
0.557477 0.0840858 0.
0.559506 0.0841407 0.
0.561536 0.0841941 0.
0.563565 0.084244 0.
0.565593 0.0842939 0.
0.567622 0.0843441 0.
0.569651 0.0843945 0.
0.571679 0.0844448 0.
0.573706 0.0844972 0.
0.575734 0.0845504 0.
0.577761 0.0846022 0.
0.579785 0.084626 0.
0.581809 0.0846498 0.
0.583832 0.0846724 0.
0.585856 0.084692 0.
0.587879 0.0847115 0.
0.589902 0.084728 0.
0.591924 0.0847419 0.
0.593946 0.0847557 0.
0.595968 0.0847608 0.
0.59799 0.0847632 0.
0.600011 0.0847655 0.
0.602033 0.0847559 0.
0.604055 0.0847463 0.
0.606078 0.0847353 0.
0.608101 0.0847194 0.
0.610124 0.0847036 0.
0.612147 0.0846855 0.
0.61417 0.084665 0.
0.616194 0.0846444 0.
0.618218 0.08462 0.
0.620242 0.0845941 0.
0.622267 0.0845681 0.
0.624294 0.0845129 0.
0.626322 0.0844563 0.
0.62835 0.0844005 0.
0.630378 0.0843468 0.
0.632407 0.084293 0.
0.634436 0.0842393 0.
0.636466 0.084186 0.
0.638495 0.0841326 0.
0.640524 0.0840749 0.
0.642554 0.0840156 0.
0.644583 0.083956 0.
0.646613 0.0838532 0.
0.648642 0.0837459 0.
0.650671 0.0836412 0.
0.652699 0.0835465 0.
0.654728 0.0834519 0.
0.656756 0.0833592 0.
0.658783 0.0832714 0.
0.660811 0.0831835 0.
0.662836 0.0830937 0.
0.664861 0.083005 0.
0.666885 0.0829159 0.
0.668905 0.0828156 0.
0.670924 0.0827145 0.
0.672942 0.082611 0.
0.674957 0.0824846 0.
0.676972 0.0823575 0.
0.678987 0.0822361 0.
0.681001 0.0821194 0.
0.683015 0.0820028 0.
0.685028 0.0818949 0.
0.687041 0.0817961 0.
0.689053 0.0816973 0.
0.691067 0.0816128 0.
0.69308 0.0815322 0.
0.695093 0.0814567 0.
0.697107 0.0814293 0.
0.69912 0.0814046 0.
0.498936 0.0833696 0.
0.500948 0.0834156 0.
0.50296 0.0834729 0.
0.504972 0.0835314 0.
0.506982 0.0836158 0.
0.508992 0.0837024 0.
0.511002 0.0837921 0.
0.513012 0.083892 0.
0.515022 0.0839919 0.
0.517033 0.0841006 0.
0.519044 0.0842167 0.
0.521055 0.0843329 0.
0.523068 0.0844537 0.
0.52508 0.0845799 0.
0.527093 0.0847052 0.
0.529109 0.0848065 0.
0.531126 0.0849057 0.
0.533144 0.0850039 0.
0.535167 0.0850899 0.
0.53719 0.0851756 0.
0.539214 0.0852622 0.
0.54124 0.0853467 0.
0.543266 0.0854312 0.
0.545293 0.0855209 0.
0.54732 0.0856124 0.
0.549347 0.0857037 0.
0.551375 0.085803 0.
0.553403 0.0859045 0.
0.555431 0.0860016 0.
0.55746 0.0860569 0.
0.559489 0.086112 0.
0.561518 0.0861656 0.
0.563547 0.0862154 0.
0.565576 0.0862652 0.
0.567604 0.0863155 0.
0.569633 0.086366 0.
0.571661 0.0864164 0.
0.573689 0.0864695 0.
0.575717 0.0865236 0.
0.577744 0.0865763 0.
0.57977 0.0866005 0.
0.581795 0.0866247 0.
0.58382 0.0866476 0.
0.585845 0.0866672 0.
0.58787 0.0866869 0.
0.589894 0.0867037 0.
0.591918 0.0867179 0.
0.593942 0.0867322 0.
0.595966 0.0867374 0.
0.597989 0.0867398 0.
0.600013 0.0867421 0.
0.602036 0.0867323 0.
0.60406 0.0867225 0.
0.606084 0.0867112 0.
0.608109 0.0866952 0.
0.610133 0.0866792 0.
0.612158 0.086661 0.
0.614183 0.0866403 0.
0.616207 0.0866197 0.
0.618233 0.0865948 0.
0.620258 0.0865683 0.
0.622284 0.0865417 0.
0.624312 0.0864857 0.
0.626339 0.0864283 0.
0.628368 0.086372 0.
0.630396 0.0863181 0.
0.632425 0.0862642 0.
0.634454 0.0862105 0.
0.636483 0.0861572 0.
0.638512 0.0861039 0.
0.640541 0.0860461 0.
0.64257 0.0859867 0.
0.644599 0.085927 0.
0.646627 0.0858254 0.
0.648655 0.0857195 0.
0.650683 0.085616 0.
0.652709 0.0855216 0.
0.654734 0.0854272 0.
0.65676 0.085335 0.
0.658785 0.0852478 0.
0.66081 0.0851606 0.
0.662832 0.0850724 0.
0.664854 0.0849855 0.
0.666875 0.0848983 0.
0.668891 0.0848006 0.
0.670907 0.0847019 0.
0.672922 0.0846006 0.
0.674934 0.0844748 0.
0.676946 0.0843484 0.
0.678957 0.0842275 0.
0.680968 0.0841111 0.
0.682979 0.0839948 0.
0.684989 0.0838869 0.
0.686999 0.0837883 0.
0.689009 0.0836897 0.
0.691019 0.0836047 0.
0.693029 0.083524 0.
0.695039 0.0834475 0.
0.69705 0.0834195 0.
0.699062 0.0833941 0.
0.499003 0.0853607 0.
0.501013 0.0854088 0.
0.503022 0.0854674 0.
0.505031 0.0855273 0.
0.507038 0.0856123 0.
0.509045 0.085699 0.
0.511052 0.0857889 0.
0.513059 0.0858885 0.
0.515066 0.0859881 0.
0.517073 0.0860967 0.
0.519081 0.0862128 0.
0.521089 0.0863288 0.
0.523097 0.086449 0.
0.525106 0.0865745 0.
0.527114 0.0866991 0.
0.529127 0.0867981 0.
0.53114 0.0868945 0.
0.533154 0.0869898 0.
0.535174 0.0870735 0.
0.537193 0.087157 0.
0.539214 0.0872415 0.
0.541237 0.087325 0.
0.54326 0.0874085 0.
0.545284 0.0874976 0.
0.547309 0.0875885 0.
0.549333 0.0876794 0.
0.551359 0.0877771 0.
0.553386 0.087877 0.
0.555414 0.0879727 0.
0.557442 0.0880282 0.
0.559471 0.0880833 0.
0.5615 0.088137 0.
0.563529 0.0881867 0.
0.565558 0.0882365 0.
0.567586 0.0882868 0.
0.569615 0.0883374 0.
0.571643 0.088388 0.
0.573672 0.0884417 0.
0.5757 0.0884965 0.
0.577728 0.08855 0.
0.579755 0.0885747 0.
0.581781 0.0885993 0.
0.583807 0.0886225 0.
0.585834 0.0886422 0.
0.58786 0.088662 0.
0.589886 0.088679 0.
0.591912 0.0886936 0.
0.593938 0.0887083 0.
0.595963 0.0887136 0.
0.597989 0.088716 0.
0.600014 0.0887183 0.
0.60204 0.0887083 0.
0.604065 0.0886982 0.
0.606091 0.0886867 0.
0.608117 0.0886706 0.
0.610143 0.0886544 0.
0.612169 0.0886361 0.
0.614195 0.0886154 0.
0.616221 0.0885946 0.
0.618248 0.0885693 0.
0.620274 0.0885422 0.
0.622301 0.0885151 0.
0.624329 0.0884584 0.
0.626358 0.0884003 0.
0.628386 0.0883434 0.
0.630414 0.0882894 0.
0.632443 0.0882355 0.
0.634472 0.0881816 0.
0.6365 0.0881284 0.
0.638529 0.0880752 0.
0.640558 0.0880174 0.
0.642586 0.0879581 0.
0.644615 0.0878984 0.
0.646642 0.0877985 0.
0.648668 0.0876947 0.
0.650695 0.087593 0.
0.652718 0.0874992 0.
0.654741 0.0874054 0.
0.656763 0.0873139 0.
0.658785 0.0872279 0.
0.660807 0.0871418 0.
0.662826 0.0870556 0.
0.664844 0.0869709 0.
0.666861 0.086886 0.
0.668874 0.0867908 0.
0.670886 0.0866947 0.
0.672897 0.0865956 0.
0.674905 0.0864704 0.
0.676913 0.0863445 0.
0.678921 0.086224 0.
0.680928 0.0861077 0.
0.682935 0.0859914 0.
0.684942 0.0858834 0.
0.686949 0.0857849 0.
0.688955 0.0856864 0.
0.690963 0.0856009 0.
0.69297 0.0855197 0.
0.694978 0.0854421 0.
0.696987 0.0854129 0.
0.698996 0.0853864 0.
0.499069 0.0873534 0.
0.501076 0.0874036 0.
0.503083 0.0874635 0.
0.50509 0.0875247 0.
0.507094 0.0876102 0.
0.509098 0.0876971 0.
0.511101 0.0877872 0.
0.513105 0.0878864 0.
0.515108 0.0879856 0.
0.517112 0.0880941 0.
0.519116 0.0882099 0.
0.52112 0.0883257 0.
0.523125 0.0884453 0.
0.52513 0.0885699 0.
0.527135 0.0886938 0.
0.529144 0.0887904 0.
0.531153 0.088884 0.
0.533164 0.0889765 0.
0.535179 0.0890579 0.
0.537195 0.089139 0.
0.539213 0.0892217 0.
0.541233 0.0893041 0.
0.543254 0.0893865 0.
0.545275 0.0894749 0.
0.547297 0.0895655 0.
0.549319 0.089656 0.
0.551344 0.089752 0.
0.55337 0.08985 0.
0.555397 0.0899442 0.
0.557425 0.0899998 0.
0.559454 0.0900549 0.
0.561483 0.0901086 0.
0.563512 0.0901583 0.
0.565541 0.0902079 0.
0.567569 0.0902582 0.
0.569598 0.0903089 0.
0.571627 0.0903595 0.
0.573655 0.0904136 0.
0.575684 0.090469 0.
0.577713 0.0905231 0.
0.579741 0.0905481 0.
0.581768 0.090573 0.
0.583796 0.0905965 0.
0.585824 0.0906162 0.
0.587852 0.090636 0.
0.589879 0.0906532 0.
0.591907 0.0906682 0.
0.593934 0.0906832 0.
0.595961 0.0906887 0.
0.597988 0.0906911 0.
0.600015 0.0906935 0.
0.602042 0.0906832 0.
0.604069 0.090673 0.
0.606097 0.0906612 0.
0.608124 0.0906451 0.
0.610151 0.0906289 0.
0.612179 0.0906105 0.
0.614206 0.0905896 0.
0.616234 0.0905688 0.
0.618261 0.0905431 0.
0.620289 0.0905156 0.
0.622317 0.090488 0.
0.624346 0.0904307 0.
0.626374 0.0903722 0.
0.628403 0.0903149 0.
0.630432 0.0902609 0.
0.63246 0.0902069 0.
0.634489 0.0901531 0.
0.636517 0.0901 0.
0.638546 0.0900469 0.
0.640574 0.0899892 0.
0.642602 0.0899301 0.
0.644631 0.0898703 0.
0.646656 0.0897724 0.
0.648682 0.0896706 0.
0.650706 0.0895708 0.
0.652727 0.0894776 0.
0.654747 0.0893843 0.
0.656767 0.0892936 0.
0.658786 0.0892087 0.
0.660805 0.0891238 0.
0.662821 0.0890395 0.
0.664835 0.088957 0.
0.666849 0.0888743 0.
0.668858 0.0887818 0.
0.670866 0.0886882 0.
0.672874 0.0885913 0.
0.674878 0.0884669 0.
0.676882 0.0883416 0.
0.678886 0.0882217 0.
0.680889 0.0881056 0.
0.682893 0.0879894 0.
0.684897 0.0878814 0.
0.6869 0.0877831 0.
0.688904 0.0876848 0.
0.690908 0.0875988 0.
0.692912 0.087517 0.
0.694917 0.0874383 0.
0.696924 0.0874078 0.
0.698932 0.0873802 0.
0.49912 0.0893491 0.
0.501125 0.0894015 0.
0.503129 0.0894632 0.
0.505133 0.089526 0.
0.507133 0.0896121 0.
0.509134 0.0896994 0.
0.511134 0.0897898 0.
0.513134 0.0898889 0.
0.515134 0.0899879 0.
0.517134 0.0900964 0.
0.519134 0.090212 0.
0.521134 0.0903276 0.
0.523135 0.0904466 0.
0.525137 0.0905705 0.
0.527138 0.0906935 0.
0.529145 0.0907875 0.
0.531152 0.0908781 0.
0.53316 0.0909676 0.
0.535174 0.0910467 0.
0.537188 0.0911256 0.
0.539204 0.0912061 0.
0.541223 0.0912869 0.
0.543242 0.0913678 0.
0.545263 0.0914553 0.
0.547283 0.0915455 0.
0.549304 0.0916357 0.
0.551329 0.0917294 0.
0.553355 0.0918247 0.
0.555382 0.0919164 0.
0.55741 0.0919721 0.
0.559439 0.0920272 0.
0.561468 0.0920809 0.
0.563497 0.0921302 0.
0.565526 0.0921795 0.
0.567555 0.0922296 0.
0.569584 0.0922802 0.
0.571612 0.0923307 0.
0.573642 0.092385 0.
0.575671 0.0924407 0.
0.5777 0.0924951 0.
0.579729 0.0925203 0.
0.581758 0.0925454 0.
0.583787 0.092569 0.
0.585816 0.0925887 0.
0.587845 0.0926084 0.
0.589874 0.0926258 0.
0.591902 0.0926412 0.
0.593931 0.0926565 0.
0.59596 0.092662 0.
0.597988 0.0926646 0.
0.600017 0.0926671 0.
0.602045 0.0926566 0.
0.604073 0.0926461 0.
0.606101 0.0926343 0.
0.60813 0.0926182 0.
0.610158 0.0926021 0.
0.612187 0.0925836 0.
0.614215 0.0925626 0.
0.616244 0.0925416 0.
0.618273 0.0925157 0.
0.620301 0.0924879 0.
0.62233 0.09246 0.
0.624359 0.0924024 0.
0.626388 0.0923438 0.
0.628417 0.0922865 0.
0.630446 0.0922325 0.
0.632475 0.0921785 0.
0.634504 0.092125 0.
0.636532 0.0920723 0.
0.638561 0.0920196 0.
0.640589 0.091962 0.
0.642617 0.091903 0.
0.644645 0.0918433 0.
0.646671 0.0917481 0.
0.648696 0.0916493 0.
0.65072 0.0915521 0.
0.652739 0.0914593 0.
0.654759 0.0913665 0.
0.656777 0.0912767 0.
0.658795 0.0911934 0.
0.660812 0.0911101 0.
0.662826 0.0910279 0.
0.664838 0.0909478 0.
0.66685 0.0908674 0.
0.668857 0.0907774 0.
0.670863 0.0906865 0.
0.672868 0.090592 0.
0.674868 0.0904684 0.
0.676869 0.0903438 0.
0.678869 0.0902244 0.
0.680868 0.0901082 0.
0.682868 0.0899921 0.
0.684868 0.0898839 0.
0.686867 0.0897857 0.
0.688867 0.0896874 0.
0.690868 0.0896008 0.
0.69287 0.0895184 0.
0.694871 0.0894386 0.
0.696876 0.0894064 0.
0.698881 0.0893773 0.
0.499163 0.0913472 0.
0.501165 0.0914022 0.
0.503166 0.091466 0.
0.505167 0.0915308 0.
0.507165 0.0916175 0.
0.509162 0.0917053 0.
0.511159 0.0917962 0.
0.513155 0.0918949 0.
0.515151 0.0919936 0.
0.517148 0.0921017 0.
0.519145 0.0922169 0.
0.521142 0.092332 0.
0.52314 0.0924498 0.
0.525139 0.0925725 0.
0.527138 0.0926943 0.
0.529143 0.0927855 0.
0.531148 0.092873 0.
0.533154 0.0929595 0.
0.535167 0.0930362 0.
0.537179 0.0931126 0.
0.539194 0.0931908 0.
0.541212 0.09327 0.
0.54323 0.0933492 0.
0.545249 0.0934358 0.
0.547269 0.0935257 0.
0.549289 0.0936155 0.
0.551314 0.0937068 0.
0.55334 0.0937994 0.
0.555367 0.0938886 0.
0.557396 0.0939443 0.
0.559424 0.0939995 0.
0.561453 0.0940532 0.
0.563482 0.0941021 0.
0.565511 0.094151 0.
0.56754 0.0942009 0.
0.569569 0.0942515 0.
0.571598 0.094302 0.
0.573628 0.0943565 0.
0.575658 0.0944124 0.
0.577687 0.0944671 0.
0.579717 0.0944925 0.
0.581747 0.0945178 0.
0.583777 0.0945415 0.
0.585807 0.0945612 0.
0.587838 0.0945809 0.
0.589868 0.0945985 0.
0.591898 0.0946141 0.
0.593929 0.0946297 0.
0.595958 0.0946354 0.
0.597988 0.0946381 0.
0.600018 0.0946406 0.
0.602047 0.09463 0.
0.604077 0.0946193 0.
0.606106 0.0946073 0.
0.608136 0.0945913 0.
0.610165 0.0945752 0.
0.612195 0.0945568 0.
0.614225 0.0945356 0.
0.616254 0.0945145 0.
0.618284 0.0944882 0.
0.620313 0.0944602 0.
0.622343 0.0944319 0.
0.624373 0.0943742 0.
0.626402 0.0943154 0.
0.628432 0.094258 0.
0.630461 0.0942041 0.
0.63249 0.0941502 0.
0.634519 0.0940968 0.
0.636547 0.0940445 0.
0.638575 0.0939922 0.
0.640604 0.0939348 0.
0.642632 0.0938759 0.
0.64466 0.0938162 0.
0.646685 0.0937239 0.
0.64871 0.0936281 0.
0.650734 0.0935335 0.
0.652752 0.0934411 0.
0.654771 0.0933488 0.
0.656788 0.09326 0.
0.658805 0.0931784 0.
0.660821 0.0930968 0.
0.662833 0.093017 0.
0.664844 0.0929394 0.
0.666854 0.0928615 0.
0.668858 0.0927742 0.
0.670862 0.0926861 0.
0.672865 0.0925941 0.
0.674863 0.0924716 0.
0.676861 0.0923482 0.
0.678858 0.0922297 0.
0.680855 0.0921139 0.
0.682851 0.0919979 0.
0.684847 0.0918899 0.
0.686844 0.0917919 0.
0.68884 0.0916938 0.
0.690838 0.0916065 0.
0.692835 0.0915235 0.
0.694833 0.0914427 0.
0.696835 0.0914084 0.
0.698837 0.0913773 0.
0.4992 0.0933471 0.
0.5012 0.0934044 0.
0.503198 0.0934701 0.
0.505197 0.0935368 0.
0.507191 0.0936241 0.
0.509185 0.0937124 0.
0.511179 0.0938036 0.
0.513172 0.0939021 0.
0.515165 0.0940005 0.
0.517158 0.0941083 0.
0.519153 0.094223 0.
0.521147 0.0943376 0.
0.523143 0.0944544 0.
0.525139 0.094576 0.
0.527135 0.0946967 0.
0.529138 0.094785 0.
0.531142 0.0948691 0.
0.533147 0.0949523 0.
0.535158 0.0950267 0.
0.537169 0.0951008 0.
0.539183 0.0951768 0.
0.5412 0.0952543 0.
0.543218 0.0953318 0.
0.545236 0.0954175 0.
0.547256 0.0955068 0.
0.549275 0.0955961 0.
0.5513 0.0956849 0.
0.553326 0.0957746 0.
0.555352 0.0958612 0.
0.557381 0.0959168 0.
0.55941 0.0959718 0.
0.561439 0.0960252 0.
0.563468 0.0960738 0.
0.565497 0.0961224 0.
0.567526 0.0961721 0.
0.569555 0.0962225 0.
0.571584 0.0962729 0.
0.573614 0.0963271 0.
0.575645 0.0963828 0.
0.577675 0.0964373 0.
0.579706 0.0964626 0.
0.581737 0.0964877 0.
0.583768 0.0965114 0.
0.585799 0.0965308 0.
0.58783 0.0965503 0.
0.589862 0.0965678 0.
0.591893 0.0965836 0.
0.593925 0.0965993 0.
0.595956 0.0966053 0.
0.597988 0.0966082 0.
0.600019 0.0966111 0.
0.60205 0.0966005 0.
0.604081 0.0965898 0.
0.606111 0.0965778 0.
0.608142 0.0965618 0.
0.610172 0.0965458 0.
0.612203 0.0965273 0.
0.614233 0.0965062 0.
0.616264 0.096485 0.
0.618294 0.0964587 0.
0.620325 0.0964305 0.
0.622356 0.0964021 0.
0.624386 0.0963446 0.
0.626416 0.0962862 0.
0.628446 0.0962292 0.
0.630475 0.0961755 0.
0.632504 0.0961218 0.
0.634533 0.0960688 0.
0.636561 0.0960168 0.
0.63859 0.0959649 0.
0.640618 0.0959078 0.
0.642646 0.0958493 0.
0.644674 0.0957899 0.
0.646699 0.0957005 0.
0.648724 0.0956077 0.
0.650748 0.0955158 0.
0.652765 0.095424 0.
0.654783 0.0953322 0.
0.6568 0.0952444 0.
0.658815 0.0951646 0.
0.660831 0.0950847 0.
0.662842 0.0950072 0.
0.664851 0.0949321 0.
0.66686 0.0948567 0.
0.668863 0.0947723 0.
0.670865 0.0946871 0.
0.672866 0.0945976 0.
0.674861 0.0944761 0.
0.676856 0.0943538 0.
0.678851 0.0942363 0.
0.680845 0.0941206 0.
0.682838 0.094005 0.
0.684831 0.0938971 0.
0.686824 0.0937993 0.
0.688817 0.0937014 0.
0.690811 0.0936136 0.
0.692806 0.0935299 0.
0.694801 0.0934481 0.
0.696799 0.0934119 0.
0.698798 0.0933787 0.
0.499227 0.0953491 0.
0.501223 0.0954087 0.
0.50322 0.0954765 0.
0.505215 0.0955452 0.
0.507207 0.095633 0.
0.509199 0.0957216 0.
0.51119 0.0958132 0.
0.513181 0.0959114 0.
0.515172 0.0960096 0.
0.517164 0.0961172 0.
0.519156 0.0962315 0.
0.521148 0.0963458 0.
0.523142 0.0964617 0.
0.525136 0.0965823 0.
0.527131 0.096702 0.
0.529133 0.0967868 0.
0.531136 0.0968669 0.
0.53314 0.0969463 0.
0.53515 0.0970183 0.
0.537161 0.0970901 0.
0.539174 0.0971637 0.
0.54119 0.0972396 0.
0.543207 0.0973154 0.
0.545225 0.0974 0.
0.547244 0.0974886 0.
0.549263 0.0975772 0.
0.551287 0.0976634 0.
0.553312 0.0977502 0.
0.555337 0.097834 0.
0.557366 0.0978894 0.
0.559395 0.0979441 0.
0.561424 0.0979972 0.
0.563454 0.0980455 0.
0.565483 0.0980938 0.
0.567512 0.0981433 0.
0.569541 0.0981935 0.
0.571571 0.0982438 0.
0.573601 0.0982976 0.
0.575632 0.0983529 0.
0.577663 0.0984071 0.
0.579694 0.0984323 0.
0.581726 0.0984573 0.
0.583758 0.0984808 0.
0.585791 0.0985001 0.
0.587823 0.0985193 0.
0.589856 0.0985368 0.
0.591889 0.0985527 0.
0.593922 0.0985685 0.
0.595954 0.0985747 0.
0.597987 0.098578 0.
0.60002 0.0985812 0.
0.602052 0.0985706 0.
0.604084 0.09856 0.
0.606116 0.0985481 0.
0.608148 0.098532 0.
0.610179 0.0985159 0.
0.612211 0.0984974 0.
0.614242 0.0984763 0.
0.616274 0.0984552 0.
0.618305 0.0984288 0.
0.620336 0.0984005 0.
0.622368 0.0983719 0.
0.624399 0.0983148 0.
0.626429 0.0982568 0.
0.628459 0.0982002 0.
0.630489 0.0981468 0.
0.632518 0.0980934 0.
0.634547 0.0980407 0.
0.636576 0.0979891 0.
0.638604 0.0979375 0.
0.640632 0.0978809 0.
0.64266 0.0978229 0.
0.644688 0.097764 0.
0.646713 0.0976775 0.
0.648737 0.097588 0.
0.650759 0.0974988 0.
0.652777 0.0974077 0.
0.654794 0.0973166 0.
0.65681 0.09723 0.
0.658824 0.097152 0.
0.660839 0.0970739 0.
0.662849 0.0969988 0.
0.664857 0.0969262 0.
0.666866 0.0968533 0.
0.668868 0.0967722 0.
0.670869 0.0966905 0.
0.672869 0.096604 0.
0.674862 0.0964834 0.
0.676855 0.0963621 0.
0.678848 0.0962453 0.
0.680839 0.0961297 0.
0.682831 0.0960142 0.
0.684822 0.0959065 0.
0.686813 0.0958088 0.
0.688804 0.095711 0.
0.690796 0.0956228 0.
0.692788 0.0955386 0.
0.69478 0.0954561 0.
0.696776 0.0954177 0.
0.698772 0.0953824 0.
CELLS 5000 10000
1 0
1 1
1 2
1 3
1 4
1 5
1 6
1 7
1 8
1 9
1 10
1 11
1 12
1 13
1 14
1 15
1 16
1 17
1 18
1 19
1 20
1 21
1 22
1 23
1 24
1 25
1 26
1 27
1 28
1 29
1 30
1 31
1 32
1 33
1 34
1 35
1 36
1 37
1 38
1 39
1 40
1 41
1 42
1 43
1 44
1 45
1 46
1 47
1 48
1 49
1 50
1 51
1 52
1 53
1 54
1 55
1 56
1 57
1 58
1 59
1 60
1 61
1 62
1 63
1 64
1 65
1 66
1 67
1 68
1 69
1 70
1 71
1 72
1 73
1 74
1 75
1 76
1 77
1 78
1 79
1 80
1 81
1 82
1 83
1 84
1 85
1 86
1 87
1 88
1 89
1 90
1 91
1 92
1 93
1 94
1 95
1 96
1 97
1 98
1 99
1 100
1 101
1 102
1 103
1 104
1 105
1 106
1 107
1 108
1 109
1 110
1 111
1 112
1 113
1 114
1 115
1 116
1 117
1 118
1 119
1 120
1 121
1 122
1 123
1 124
1 125
1 126
1 127
1 128
1 129
1 130
1 131
1 132
1 133
1 134
1 135
1 136
1 137
1 138
1 139
1 140
1 141
1 142
1 143
1 144
1 145
1 146
1 147
1 148
1 149
1 150
1 151
1 152
1 153
1 154
1 155
1 156
1 157
1 158
1 159
1 160
1 161
1 162
1 163
1 164
1 165
1 166
1 167
1 168
1 169
1 170
1 171
1 172
1 173
1 174
1 175
1 176
1 177
1 178
1 179
1 180
1 181
1 182
1 183
1 184
1 185
1 186
1 187
1 188
1 189
1 190
1 191
1 192
1 193
1 194
1 195
1 196
1 197
1 198
1 199
1 200
1 201
1 202
1 203
1 204
1 205
1 206
1 207
1 208
1 209
1 210
1 211
1 212
1 213
1 214
1 215
1 216
1 217
1 218
1 219
1 220
1 221
1 222
1 223
1 224
1 225
1 226
1 227
1 228
1 229
1 230
1 231
1 232
1 233
1 234
1 235
1 236
1 237
1 238
1 239
1 240
1 241
1 242
1 243
1 244
1 245
1 246
1 247
1 248
1 249
1 250
1 251
1 252
1 253
1 254
1 255
1 256
1 257
1 258
1 259
1 260
1 261
1 262
1 263
1 264
1 265
1 266
1 267
1 268
1 269
1 270
1 271
1 272
1 273
1 274
1 275
1 276
1 277
1 278
1 279
1 280
1 281
1 282
1 283
1 284
1 285
1 286
1 287
1 288
1 289
1 290
1 291
1 292
1 293
1 294
1 295
1 296
1 297
1 298
1 299
1 300
1 301
1 302
1 303
1 304
1 305
1 306
1 307
1 308
1 309
1 310
1 311
1 312
1 313
1 314
1 315
1 316
1 317
1 318
1 319
1 320
1 321
1 322
1 323
1 324
1 325
1 326
1 327
1 328
1 329
1 330
1 331
1 332
1 333
1 334
1 335
1 336
1 337
1 338
1 339
1 340
1 341
1 342
1 343
1 344
1 345
1 346
1 347
1 348
1 349
1 350
1 351
1 352
1 353
1 354
1 355
1 356
1 357
1 358
1 359
1 360
1 361
1 362
1 363
1 364
1 365
1 366
1 367
1 368
1 369
1 370
1 371
1 372
1 373
1 374
1 375
1 376
1 377
1 378
1 379
1 380
1 381
1 382
1 383
1 384
1 385
1 386
1 387
1 388
1 389
1 390
1 391
1 392
1 393
1 394
1 395
1 396
1 397
1 398
1 399
1 400
1 401
1 402
1 403
1 404
1 405
1 406
1 407
1 408
1 409
1 410
1 411
1 412
1 413
1 414
1 415
1 416
1 417
1 418
1 419
1 420
1 421
1 422
1 423
1 424
1 425
1 426
1 427
1 428
1 429
1 430
1 431
1 432
1 433
1 434
1 435
1 436
1 437
1 438
1 439
1 440
1 441
1 442
1 443
1 444
1 445
1 446
1 447
1 448
1 449
1 450
1 451
1 452
1 453
1 454
1 455
1 456
1 457
1 458
1 459
1 460
1 461
1 462
1 463
1 464
1 465
1 466
1 467
1 468
1 469
1 470
1 471
1 472
1 473
1 474
1 475
1 476
1 477
1 478
1 479
1 480
1 481
1 482
1 483
1 484
1 485
1 486
1 487
1 488
1 489
1 490
1 491
1 492
1 493
1 494
1 495
1 496
1 497
1 498
1 499
1 500
1 501
1 502
1 503
1 504
1 505
1 506
1 507
1 508
1 509
1 510
1 511
1 512
1 513
1 514
1 515
1 516
1 517
1 518
1 519
1 520
1 521
1 522
1 523
1 524
1 525
1 526
1 527
1 528
1 529
1 530
1 531
1 532
1 533
1 534
1 535
1 536
1 537
1 538
1 539
1 540
1 541
1 542
1 543
1 544
1 545
1 546
1 547
1 548
1 549
1 550
1 551
1 552
1 553
1 554
1 555
1 556
1 557
1 558
1 559
1 560
1 561
1 562
1 563
1 564
1 565
1 566
1 567
1 568
1 569
1 570
1 571
1 572
1 573
1 574
1 575
1 576
1 577
1 578
1 579
1 580
1 581
1 582
1 583
1 584
1 585
1 586
1 587
1 588
1 589
1 590
1 591
1 592
1 593
1 594
1 595
1 596
1 597
1 598
1 599
1 600
1 601
1 602
1 603
1 604
1 605
1 606
1 607
1 608
1 609
1 610
1 611
1 612
1 613
1 614
1 615
1 616
1 617
1 618
1 619
1 620
1 621
1 622
1 623
1 624
1 625
1 626
1 627
1 628
1 629
1 630
1 631
1 632
1 633
1 634
1 635
1 636
1 637
1 638
1 639
1 640
1 641
1 642
1 643
1 644
1 645
1 646
1 647
1 648
1 649
1 650
1 651
1 652
1 653
1 654
1 655
1 656
1 657
1 658
1 659
1 660
1 661
1 662
1 663
1 664
1 665
1 666
1 667
1 668
1 669
1 670
1 671
1 672
1 673
1 674
1 675
1 676
1 677
1 678
1 679
1 680
1 681
1 682
1 683
1 684
1 685
1 686
1 687
1 688
1 689
1 690
1 691
1 692
1 693
1 694
1 695
1 696
1 697
1 698
1 699
1 700
1 701
1 702
1 703
1 704
1 705
1 706
1 707
1 708
1 709
1 710
1 711
1 712
1 713
1 714
1 715
1 716
1 717
1 718
1 719
1 720
1 721
1 722
1 723
1 724
1 725
1 726
1 727
1 728
1 729
1 730
1 731
1 732
1 733
1 734
1 735
1 736
1 737
1 738
1 739
1 740
1 741
1 742
1 743
1 744
1 745
1 746
1 747
1 748
1 749
1 750
1 751
1 752
1 753
1 754
1 755
1 756
1 757
1 758
1 759
1 760
1 761
1 762
1 763
1 764
1 765
1 766
1 767
1 768
1 769
1 770
1 771
1 772
1 773
1 774
1 775
1 776
1 777
1 778
1 779
1 780
1 781
1 782
1 783
1 784
1 785
1 786
1 787
1 788
1 789
1 790
1 791
1 792
1 793
1 794
1 795
1 796
1 797
1 798
1 799
1 800
1 801
1 802
1 803
1 804
1 805
1 806
1 807
1 808
1 809
1 810
1 811
1 812
1 813
1 814
1 815
1 816
1 817
1 818
1 819
1 820
1 821
1 822
1 823
1 824
1 825
1 826
1 827
1 828
1 829
1 830
1 831
1 832
1 833
1 834
1 835
1 836
1 837
1 838
1 839
1 840
1 841
1 842
1 843
1 844
1 845
1 846
1 847
1 848
1 849
1 850
1 851
1 852
1 853
1 854
1 855
1 856
1 857
1 858
1 859
1 860
1 861
1 862
1 863
1 864
1 865
1 866
1 867
1 868
1 869
1 870
1 871
1 872
1 873
1 874
1 875
1 876
1 877
1 878
1 879
1 880
1 881
1 882
1 883
1 884
1 885
1 886
1 887
1 888
1 889
1 890
1 891
1 892
1 893
1 894
1 895
1 896
1 897
1 898
1 899
1 900
1 901
1 902
1 903
1 904
1 905
1 906
1 907
1 908
1 909
1 910
1 911
1 912
1 913
1 914
1 915
1 916
1 917
1 918
1 919
1 920
1 921
1 922
1 923
1 924
1 925
1 926
1 927
1 928
1 929
1 930
1 931
1 932
1 933
1 934
1 935
1 936
1 937
1 938
1 939
1 940
1 941
1 942
1 943
1 944
1 945
1 946
1 947
1 948
1 949
1 950
1 951
1 952
1 953
1 954
1 955
1 956
1 957
1 958
1 959
1 960
1 961
1 962
1 963
1 964
1 965
1 966
1 967
1 968
1 969
1 970
1 971
1 972
1 973
1 974
1 975
1 976
1 977
1 978
1 979
1 980
1 981
1 982
1 983
1 984
1 985
1 986
1 987
1 988
1 989
1 990
1 991
1 992
1 993
1 994
1 995
1 996
1 997
1 998
1 999
1 1000
1 1001
1 1002
1 1003
1 1004
1 1005
1 1006
1 1007
1 1008
1 1009
1 1010
1 1011
1 1012
1 1013
1 1014
1 1015
1 1016
1 1017
1 1018
1 1019
1 1020
1 1021
1 1022
1 1023
1 1024
1 1025
1 1026
1 1027
1 1028
1 1029
1 1030
1 1031
1 1032
1 1033
1 1034
1 1035
1 1036
1 1037
1 1038
1 1039
1 1040
1 1041
1 1042
1 1043
1 1044
1 1045
1 1046
1 1047
1 1048
1 1049
1 1050
1 1051
1 1052
1 1053
1 1054
1 1055
1 1056
1 1057
1 1058
1 1059
1 1060
1 1061
1 1062
1 1063
1 1064
1 1065
1 1066
1 1067
1 1068
1 1069
1 1070
1 1071
1 1072
1 1073
1 1074
1 1075
1 1076
1 1077
1 1078
1 1079
1 1080
1 1081
1 1082
1 1083
1 1084
1 1085
1 1086
1 1087
1 1088
1 1089
1 1090
1 1091
1 1092
1 1093
1 1094
1 1095
1 1096
1 1097
1 1098
1 1099
1 1100
1 1101
1 1102
1 1103
1 1104
1 1105
1 1106
1 1107
1 1108
1 1109
1 1110
1 1111
1 1112
1 1113
1 1114
1 1115
1 1116
1 1117
1 1118
1 1119
1 1120
1 1121
1 1122
1 1123
1 1124
1 1125
1 1126
1 1127
1 1128
1 1129
1 1130
1 1131
1 1132
1 1133
1 1134
1 1135
1 1136
1 1137
1 1138
1 1139
1 1140
1 1141
1 1142
1 1143
1 1144
1 1145
1 1146
1 1147
1 1148
1 1149
1 1150
1 1151
1 1152
1 1153
1 1154
1 1155
1 1156
1 1157
1 1158
1 1159
1 1160
1 1161
1 1162
1 1163
1 1164
1 1165
1 1166
1 1167
1 1168
1 1169
1 1170
1 1171
1 1172
1 1173
1 1174
1 1175
1 1176
1 1177
1 1178
1 1179
1 1180
1 1181
1 1182
1 1183
1 1184
1 1185
1 1186
1 1187
1 1188
1 1189
1 1190
1 1191
1 1192
1 1193
1 1194
1 1195
1 1196
1 1197
1 1198
1 1199
1 1200
1 1201
1 1202
1 1203
1 1204
1 1205
1 1206
1 1207
1 1208
1 1209
1 1210
1 1211
1 1212
1 1213
1 1214
1 1215
1 1216
1 1217
1 1218
1 1219
1 1220
1 1221
1 1222
1 1223
1 1224
1 1225
1 1226
1 1227
1 1228
1 1229
1 1230
1 1231
1 1232
1 1233
1 1234
1 1235
1 1236
1 1237
1 1238
1 1239
1 1240
1 1241
1 1242
1 1243
1 1244
1 1245
1 1246
1 1247
1 1248
1 1249
1 1250
1 1251
1 1252
1 1253
1 1254
1 1255
1 1256
1 1257
1 1258
1 1259
1 1260
1 1261
1 1262
1 1263
1 1264
1 1265
1 1266
1 1267
1 1268
1 1269
1 1270
1 1271
1 1272
1 1273
1 1274
1 1275
1 1276
1 1277
1 1278
1 1279
1 1280
1 1281
1 1282
1 1283
1 1284
1 1285
1 1286
1 1287
1 1288
1 1289
1 1290
1 1291
1 1292
1 1293
1 1294
1 1295
1 1296
1 1297
1 1298
1 1299
1 1300
1 1301
1 1302
1 1303
1 1304
1 1305
1 1306
1 1307
1 1308
1 1309
1 1310
1 1311
1 1312
1 1313
1 1314
1 1315
1 1316
1 1317
1 1318
1 1319
1 1320
1 1321
1 1322
1 1323
1 1324
1 1325
1 1326
1 1327
1 1328
1 1329
1 1330
1 1331
1 1332
1 1333
1 1334
1 1335
1 1336
1 1337
1 1338
1 1339
1 1340
1 1341
1 1342
1 1343
1 1344
1 1345
1 1346
1 1347
1 1348
1 1349
1 1350
1 1351
1 1352
1 1353
1 1354
1 1355
1 1356
1 1357
1 1358
1 1359
1 1360
1 1361
1 1362
1 1363
1 1364
1 1365
1 1366
1 1367
1 1368
1 1369
1 1370
1 1371
1 1372
1 1373
1 1374
1 1375
1 1376
1 1377
1 1378
1 1379
1 1380
1 1381
1 1382
1 1383
1 1384
1 1385
1 1386
1 1387
1 1388
1 1389
1 1390
1 1391
1 1392
1 1393
1 1394
1 1395
1 1396
1 1397
1 1398
1 1399
1 1400
1 1401
1 1402
1 1403
1 1404
1 1405
1 1406
1 1407
1 1408
1 1409
1 1410
1 1411
1 1412
1 1413
1 1414
1 1415
1 1416
1 1417
1 1418
1 1419
1 1420
1 1421
1 1422
1 1423
1 1424
1 1425
1 1426
1 1427
1 1428
1 1429
1 1430
1 1431
1 1432
1 1433
1 1434
1 1435
1 1436
1 1437
1 1438
1 1439
1 1440
1 1441
1 1442
1 1443
1 1444
1 1445
1 1446
1 1447
1 1448
1 1449
1 1450
1 1451
1 1452
1 1453
1 1454
1 1455
1 1456
1 1457
1 1458
1 1459
1 1460
1 1461
1 1462
1 1463
1 1464
1 1465
1 1466
1 1467
1 1468
1 1469
1 1470
1 1471
1 1472
1 1473
1 1474
1 1475
1 1476
1 1477
1 1478
1 1479
1 1480
1 1481
1 1482
1 1483
1 1484
1 1485
1 1486
1 1487
1 1488
1 1489
1 1490
1 1491
1 1492
1 1493
1 1494
1 1495
1 1496
1 1497
1 1498
1 1499
1 1500
1 1501
1 1502
1 1503
1 1504
1 1505
1 1506
1 1507
1 1508
1 1509
1 1510
1 1511
1 1512
1 1513
1 1514
1 1515
1 1516
1 1517
1 1518
1 1519
1 1520
1 1521
1 1522
1 1523
1 1524
1 1525
1 1526
1 1527
1 1528
1 1529
1 1530
1 1531
1 1532
1 1533
1 1534
1 1535
1 1536
1 1537
1 1538
1 1539
1 1540
1 1541
1 1542
1 1543
1 1544
1 1545
1 1546
1 1547
1 1548
1 1549
1 1550
1 1551
1 1552
1 1553
1 1554
1 1555
1 1556
1 1557
1 1558
1 1559
1 1560
1 1561
1 1562
1 1563
1 1564
1 1565
1 1566
1 1567
1 1568
1 1569
1 1570
1 1571
1 1572
1 1573
1 1574
1 1575
1 1576
1 1577
1 1578
1 1579
1 1580
1 1581
1 1582
1 1583
1 1584
1 1585
1 1586
1 1587
1 1588
1 1589
1 1590
1 1591
1 1592
1 1593
1 1594
1 1595
1 1596
1 1597
1 1598
1 1599
1 1600
1 1601
1 1602
1 1603
1 1604
1 1605
1 1606
1 1607
1 1608
1 1609
1 1610
1 1611
1 1612
1 1613
1 1614
1 1615
1 1616
1 1617
1 1618
1 1619
1 1620
1 1621
1 1622
1 1623
1 1624
1 1625
1 1626
1 1627
1 1628
1 1629
1 1630
1 1631
1 1632
1 1633
1 1634
1 1635
1 1636
1 1637
1 1638
1 1639
1 1640
1 1641
1 1642
1 1643
1 1644
1 1645
1 1646
1 1647
1 1648
1 1649
1 1650
1 1651
1 1652
1 1653
1 1654
1 1655
1 1656
1 1657
1 1658
1 1659
1 1660
1 1661
1 1662
1 1663
1 1664
1 1665
1 1666
1 1667
1 1668
1 1669
1 1670
1 1671
1 1672
1 1673
1 1674
1 1675
1 1676
1 1677
1 1678
1 1679
1 1680
1 1681
1 1682
1 1683
1 1684
1 1685
1 1686
1 1687
1 1688
1 1689
1 1690
1 1691
1 1692
1 1693
1 1694
1 1695
1 1696
1 1697
1 1698
1 1699
1 1700
1 1701
1 1702
1 1703
1 1704
1 1705
1 1706
1 1707
1 1708
1 1709
1 1710
1 1711
1 1712
1 1713
1 1714
1 1715
1 1716
1 1717
1 1718
1 1719
1 1720
1 1721
1 1722
1 1723
1 1724
1 1725
1 1726
1 1727
1 1728
1 1729
1 1730
1 1731
1 1732
1 1733
1 1734
1 1735
1 1736
1 1737
1 1738
1 1739
1 1740
1 1741
1 1742
1 1743
1 1744
1 1745
1 1746
1 1747
1 1748
1 1749
1 1750
1 1751
1 1752
1 1753
1 1754
1 1755
1 1756
1 1757
1 1758
1 1759
1 1760
1 1761
1 1762
1 1763
1 1764
1 1765
1 1766
1 1767
1 1768
1 1769
1 1770
1 1771
1 1772
1 1773
1 1774
1 1775
1 1776
1 1777
1 1778
1 1779
1 1780
1 1781
1 1782
1 1783
1 1784
1 1785
1 1786
1 1787
1 1788
1 1789
1 1790
1 1791
1 1792
1 1793
1 1794
1 1795
1 1796
1 1797
1 1798
1 1799
1 1800
1 1801
1 1802
1 1803
1 1804
1 1805
1 1806
1 1807
1 1808
1 1809
1 1810
1 1811
1 1812
1 1813
1 1814
1 1815
1 1816
1 1817
1 1818
1 1819
1 1820
1 1821
1 1822
1 1823
1 1824
1 1825
1 1826
1 1827
1 1828
1 1829
1 1830
1 1831
1 1832
1 1833
1 1834
1 1835
1 1836
1 1837
1 1838
1 1839
1 1840
1 1841
1 1842
1 1843
1 1844
1 1845
1 1846
1 1847
1 1848
1 1849
1 1850
1 1851
1 1852
1 1853
1 1854
1 1855
1 1856
1 1857
1 1858
1 1859
1 1860
1 1861
1 1862
1 1863
1 1864
1 1865
1 1866
1 1867
1 1868
1 1869
1 1870
1 1871
1 1872
1 1873
1 1874
1 1875
1 1876
1 1877
1 1878
1 1879
1 1880
1 1881
1 1882
1 1883
1 1884
1 1885
1 1886
1 1887
1 1888
1 1889
1 1890
1 1891
1 1892
1 1893
1 1894
1 1895
1 1896
1 1897
1 1898
1 1899
1 1900
1 1901
1 1902
1 1903
1 1904
1 1905
1 1906
1 1907
1 1908
1 1909
1 1910
1 1911
1 1912
1 1913
1 1914
1 1915
1 1916
1 1917
1 1918
1 1919
1 1920
1 1921
1 1922
1 1923
1 1924
1 1925
1 1926
1 1927
1 1928
1 1929
1 1930
1 1931
1 1932
1 1933
1 1934
1 1935
1 1936
1 1937
1 1938
1 1939
1 1940
1 1941
1 1942
1 1943
1 1944
1 1945
1 1946
1 1947
1 1948
1 1949
1 1950
1 1951
1 1952
1 1953
1 1954
1 1955
1 1956
1 1957
1 1958
1 1959
1 1960
1 1961
1 1962
1 1963
1 1964
1 1965
1 1966
1 1967
1 1968
1 1969
1 1970
1 1971
1 1972
1 1973
1 1974
1 1975
1 1976
1 1977
1 1978
1 1979
1 1980
1 1981
1 1982
1 1983
1 1984
1 1985
1 1986
1 1987
1 1988
1 1989
1 1990
1 1991
1 1992
1 1993
1 1994
1 1995
1 1996
1 1997
1 1998
1 1999
1 2000
1 2001
1 2002
1 2003
1 2004
1 2005
1 2006
1 2007
1 2008
1 2009
1 2010
1 2011
1 2012
1 2013
1 2014
1 2015
1 2016
1 2017
1 2018
1 2019
1 2020
1 2021
1 2022
1 2023
1 2024
1 2025
1 2026
1 2027
1 2028
1 2029
1 2030
1 2031
1 2032
1 2033
1 2034
1 2035
1 2036
1 2037
1 2038
1 2039
1 2040
1 2041
1 2042
1 2043
1 2044
1 2045
1 2046
1 2047
1 2048
1 2049
1 2050
1 2051
1 2052
1 2053
1 2054
1 2055
1 2056
1 2057
1 2058
1 2059
1 2060
1 2061
1 2062
1 2063
1 2064
1 2065
1 2066
1 2067
1 2068
1 2069
1 2070
1 2071
1 2072
1 2073
1 2074
1 2075
1 2076
1 2077
1 2078
1 2079
1 2080
1 2081
1 2082
1 2083
1 2084
1 2085
1 2086
1 2087
1 2088
1 2089
1 2090
1 2091
1 2092
1 2093
1 2094
1 2095
1 2096
1 2097
1 2098
1 2099
1 2100
1 2101
1 2102
1 2103
1 2104
1 2105
1 2106
1 2107
1 2108
1 2109
1 2110
1 2111
1 2112
1 2113
1 2114
1 2115
1 2116
1 2117
1 2118
1 2119
1 2120
1 2121
1 2122
1 2123
1 2124
1 2125
1 2126
1 2127
1 2128
1 2129
1 2130
1 2131
1 2132
1 2133
1 2134
1 2135
1 2136
1 2137
1 2138
1 2139
1 2140
1 2141
1 2142
1 2143
1 2144
1 2145
1 2146
1 2147
1 2148
1 2149
1 2150
1 2151
1 2152
1 2153
1 2154
1 2155
1 2156
1 2157
1 2158
1 2159
1 2160
1 2161
1 2162
1 2163
1 2164
1 2165
1 2166
1 2167
1 2168
1 2169
1 2170
1 2171
1 2172
1 2173
1 2174
1 2175
1 2176
1 2177
1 2178
1 2179
1 2180
1 2181
1 2182
1 2183
1 2184
1 2185
1 2186
1 2187
1 2188
1 2189
1 2190
1 2191
1 2192
1 2193
1 2194
1 2195
1 2196
1 2197
1 2198
1 2199
1 2200
1 2201
1 2202
1 2203
1 2204
1 2205
1 2206
1 2207
1 2208
1 2209
1 2210
1 2211
1 2212
1 2213
1 2214
1 2215
1 2216
1 2217
1 2218
1 2219
1 2220
1 2221
1 2222
1 2223
1 2224
1 2225
1 2226
1 2227
1 2228
1 2229
1 2230
1 2231
1 2232
1 2233
1 2234
1 2235
1 2236
1 2237
1 2238
1 2239
1 2240
1 2241
1 2242
1 2243
1 2244
1 2245
1 2246
1 2247
1 2248
1 2249
1 2250
1 2251
1 2252
1 2253
1 2254
1 2255
1 2256
1 2257
1 2258
1 2259
1 2260
1 2261
1 2262
1 2263
1 2264
1 2265
1 2266
1 2267
1 2268
1 2269
1 2270
1 2271
1 2272
1 2273
1 2274
1 2275
1 2276
1 2277
1 2278
1 2279
1 2280
1 2281
1 2282
1 2283
1 2284
1 2285
1 2286
1 2287
1 2288
1 2289
1 2290
1 2291
1 2292
1 2293
1 2294
1 2295
1 2296
1 2297
1 2298
1 2299
1 2300
1 2301
1 2302
1 2303
1 2304
1 2305
1 2306
1 2307
1 2308
1 2309
1 2310
1 2311
1 2312
1 2313
1 2314
1 2315
1 2316
1 2317
1 2318
1 2319
1 2320
1 2321
1 2322
1 2323
1 2324
1 2325
1 2326
1 2327
1 2328
1 2329
1 2330
1 2331
1 2332
1 2333
1 2334
1 2335
1 2336
1 2337
1 2338
1 2339
1 2340
1 2341
1 2342
1 2343
1 2344
1 2345
1 2346
1 2347
1 2348
1 2349
1 2350
1 2351
1 2352
1 2353
1 2354
1 2355
1 2356
1 2357
1 2358
1 2359
1 2360
1 2361
1 2362
1 2363
1 2364
1 2365
1 2366
1 2367
1 2368
1 2369
1 2370
1 2371
1 2372
1 2373
1 2374
1 2375
1 2376
1 2377
1 2378
1 2379
1 2380
1 2381
1 2382
1 2383
1 2384
1 2385
1 2386
1 2387
1 2388
1 2389
1 2390
1 2391
1 2392
1 2393
1 2394
1 2395
1 2396
1 2397
1 2398
1 2399
1 2400
1 2401
1 2402
1 2403
1 2404
1 2405
1 2406
1 2407
1 2408
1 2409
1 2410
1 2411
1 2412
1 2413
1 2414
1 2415
1 2416
1 2417
1 2418
1 2419
1 2420
1 2421
1 2422
1 2423
1 2424
1 2425
1 2426
1 2427
1 2428
1 2429
1 2430
1 2431
1 2432
1 2433
1 2434
1 2435
1 2436
1 2437
1 2438
1 2439
1 2440
1 2441
1 2442
1 2443
1 2444
1 2445
1 2446
1 2447
1 2448
1 2449
1 2450
1 2451
1 2452
1 2453
1 2454
1 2455
1 2456
1 2457
1 2458
1 2459
1 2460
1 2461
1 2462
1 2463
1 2464
1 2465
1 2466
1 2467
1 2468
1 2469
1 2470
1 2471
1 2472
1 2473
1 2474
1 2475
1 2476
1 2477
1 2478
1 2479
1 2480
1 2481
1 2482
1 2483
1 2484
1 2485
1 2486
1 2487
1 2488
1 2489
1 2490
1 2491
1 2492
1 2493
1 2494
1 2495
1 2496
1 2497
1 2498
1 2499
1 2500
1 2501
1 2502
1 2503
1 2504
1 2505
1 2506
1 2507
1 2508
1 2509
1 2510
1 2511
1 2512
1 2513
1 2514
1 2515
1 2516
1 2517
1 2518
1 2519
1 2520
1 2521
1 2522
1 2523
1 2524
1 2525
1 2526
1 2527
1 2528
1 2529
1 2530
1 2531
1 2532
1 2533
1 2534
1 2535
1 2536
1 2537
1 2538
1 2539
1 2540
1 2541
1 2542
1 2543
1 2544
1 2545
1 2546
1 2547
1 2548
1 2549
1 2550
1 2551
1 2552
1 2553
1 2554
1 2555
1 2556
1 2557
1 2558
1 2559
1 2560
1 2561
1 2562
1 2563
1 2564
1 2565
1 2566
1 2567
1 2568
1 2569
1 2570
1 2571
1 2572
1 2573
1 2574
1 2575
1 2576
1 2577
1 2578
1 2579
1 2580
1 2581
1 2582
1 2583
1 2584
1 2585
1 2586
1 2587
1 2588
1 2589
1 2590
1 2591
1 2592
1 2593
1 2594
1 2595
1 2596
1 2597
1 2598
1 2599
1 2600
1 2601
1 2602
1 2603
1 2604
1 2605
1 2606
1 2607
1 2608
1 2609
1 2610
1 2611
1 2612
1 2613
1 2614
1 2615
1 2616
1 2617
1 2618
1 2619
1 2620
1 2621
1 2622
1 2623
1 2624
1 2625
1 2626
1 2627
1 2628
1 2629
1 2630
1 2631
1 2632
1 2633
1 2634
1 2635
1 2636
1 2637
1 2638
1 2639
1 2640
1 2641
1 2642
1 2643
1 2644
1 2645
1 2646
1 2647
1 2648
1 2649
1 2650
1 2651
1 2652
1 2653
1 2654
1 2655
1 2656
1 2657
1 2658
1 2659
1 2660
1 2661
1 2662
1 2663
1 2664
1 2665
1 2666
1 2667
1 2668
1 2669
1 2670
1 2671
1 2672
1 2673
1 2674
1 2675
1 2676
1 2677
1 2678
1 2679
1 2680
1 2681
1 2682
1 2683
1 2684
1 2685
1 2686
1 2687
1 2688
1 2689
1 2690
1 2691
1 2692
1 2693
1 2694
1 2695
1 2696
1 2697
1 2698
1 2699
1 2700
1 2701
1 2702
1 2703
1 2704
1 2705
1 2706
1 2707
1 2708
1 2709
1 2710
1 2711
1 2712
1 2713
1 2714
1 2715
1 2716
1 2717
1 2718
1 2719
1 2720
1 2721
1 2722
1 2723
1 2724
1 2725
1 2726
1 2727
1 2728
1 2729
1 2730
1 2731
1 2732
1 2733
1 2734
1 2735
1 2736
1 2737
1 2738
1 2739
1 2740
1 2741
1 2742
1 2743
1 2744
1 2745
1 2746
1 2747
1 2748
1 2749
1 2750
1 2751
1 2752
1 2753
1 2754
1 2755
1 2756
1 2757
1 2758
1 2759
1 2760
1 2761
1 2762
1 2763
1 2764
1 2765
1 2766
1 2767
1 2768
1 2769
1 2770
1 2771
1 2772
1 2773
1 2774
1 2775
1 2776
1 2777
1 2778
1 2779
1 2780
1 2781
1 2782
1 2783
1 2784
1 2785
1 2786
1 2787
1 2788
1 2789
1 2790
1 2791
1 2792
1 2793
1 2794
1 2795
1 2796
1 2797
1 2798
1 2799
1 2800
1 2801
1 2802
1 2803
1 2804
1 2805
1 2806
1 2807
1 2808
1 2809
1 2810
1 2811
1 2812
1 2813
1 2814
1 2815
1 2816
1 2817
1 2818
1 2819
1 2820
1 2821
1 2822
1 2823
1 2824
1 2825
1 2826
1 2827
1 2828
1 2829
1 2830
1 2831
1 2832
1 2833
1 2834
1 2835
1 2836
1 2837
1 2838
1 2839
1 2840
1 2841
1 2842
1 2843
1 2844
1 2845
1 2846
1 2847
1 2848
1 2849
1 2850
1 2851
1 2852
1 2853
1 2854
1 2855
1 2856
1 2857
1 2858
1 2859
1 2860
1 2861
1 2862
1 2863
1 2864
1 2865
1 2866
1 2867
1 2868
1 2869
1 2870
1 2871
1 2872
1 2873
1 2874
1 2875
1 2876
1 2877
1 2878
1 2879
1 2880
1 2881
1 2882
1 2883
1 2884
1 2885
1 2886
1 2887
1 2888
1 2889
1 2890
1 2891
1 2892
1 2893
1 2894
1 2895
1 2896
1 2897
1 2898
1 2899
1 2900
1 2901
1 2902
1 2903
1 2904
1 2905
1 2906
1 2907
1 2908
1 2909
1 2910
1 2911
1 2912
1 2913
1 2914
1 2915
1 2916
1 2917
1 2918
1 2919
1 2920
1 2921
1 2922
1 2923
1 2924
1 2925
1 2926
1 2927
1 2928
1 2929
1 2930
1 2931
1 2932
1 2933
1 2934
1 2935
1 2936
1 2937
1 2938
1 2939
1 2940
1 2941
1 2942
1 2943
1 2944
1 2945
1 2946
1 2947
1 2948
1 2949
1 2950
1 2951
1 2952
1 2953
1 2954
1 2955
1 2956
1 2957
1 2958
1 2959
1 2960
1 2961
1 2962
1 2963
1 2964
1 2965
1 2966
1 2967
1 2968
1 2969
1 2970
1 2971
1 2972
1 2973
1 2974
1 2975
1 2976
1 2977
1 2978
1 2979
1 2980
1 2981
1 2982
1 2983
1 2984
1 2985
1 2986
1 2987
1 2988
1 2989
1 2990
1 2991
1 2992
1 2993
1 2994
1 2995
1 2996
1 2997
1 2998
1 2999
1 3000
1 3001
1 3002
1 3003
1 3004
1 3005
1 3006
1 3007
1 3008
1 3009
1 3010
1 3011
1 3012
1 3013
1 3014
1 3015
1 3016
1 3017
1 3018
1 3019
1 3020
1 3021
1 3022
1 3023
1 3024
1 3025
1 3026
1 3027
1 3028
1 3029
1 3030
1 3031
1 3032
1 3033
1 3034
1 3035
1 3036
1 3037
1 3038
1 3039
1 3040
1 3041
1 3042
1 3043
1 3044
1 3045
1 3046
1 3047
1 3048
1 3049
1 3050
1 3051
1 3052
1 3053
1 3054
1 3055
1 3056
1 3057
1 3058
1 3059
1 3060
1 3061
1 3062
1 3063
1 3064
1 3065
1 3066
1 3067
1 3068
1 3069
1 3070
1 3071
1 3072
1 3073
1 3074
1 3075
1 3076
1 3077
1 3078
1 3079
1 3080
1 3081
1 3082
1 3083
1 3084
1 3085
1 3086
1 3087
1 3088
1 3089
1 3090
1 3091
1 3092
1 3093
1 3094
1 3095
1 3096
1 3097
1 3098
1 3099
1 3100
1 3101
1 3102
1 3103
1 3104
1 3105
1 3106
1 3107
1 3108
1 3109
1 3110
1 3111
1 3112
1 3113
1 3114
1 3115
1 3116
1 3117
1 3118
1 3119
1 3120
1 3121
1 3122
1 3123
1 3124
1 3125
1 3126
1 3127
1 3128
1 3129
1 3130
1 3131
1 3132
1 3133
1 3134
1 3135
1 3136
1 3137
1 3138
1 3139
1 3140
1 3141
1 3142
1 3143
1 3144
1 3145
1 3146
1 3147
1 3148
1 3149
1 3150
1 3151
1 3152
1 3153
1 3154
1 3155
1 3156
1 3157
1 3158
1 3159
1 3160
1 3161
1 3162
1 3163
1 3164
1 3165
1 3166
1 3167
1 3168
1 3169
1 3170
1 3171
1 3172
1 3173
1 3174
1 3175
1 3176
1 3177
1 3178
1 3179
1 3180
1 3181
1 3182
1 3183
1 3184
1 3185
1 3186
1 3187
1 3188
1 3189
1 3190
1 3191
1 3192
1 3193
1 3194
1 3195
1 3196
1 3197
1 3198
1 3199
1 3200
1 3201
1 3202
1 3203
1 3204
1 3205
1 3206
1 3207
1 3208
1 3209
1 3210
1 3211
1 3212
1 3213
1 3214
1 3215
1 3216
1 3217
1 3218
1 3219
1 3220
1 3221
1 3222
1 3223
1 3224
1 3225
1 3226
1 3227
1 3228
1 3229
1 3230
1 3231
1 3232
1 3233
1 3234
1 3235
1 3236
1 3237
1 3238
1 3239
1 3240
1 3241
1 3242
1 3243
1 3244
1 3245
1 3246
1 3247
1 3248
1 3249
1 3250
1 3251
1 3252
1 3253
1 3254
1 3255
1 3256
1 3257
1 3258
1 3259
1 3260
1 3261
1 3262
1 3263
1 3264
1 3265
1 3266
1 3267
1 3268
1 3269
1 3270
1 3271
1 3272
1 3273
1 3274
1 3275
1 3276
1 3277
1 3278
1 3279
1 3280
1 3281
1 3282
1 3283
1 3284
1 3285
1 3286
1 3287
1 3288
1 3289
1 3290
1 3291
1 3292
1 3293
1 3294
1 3295
1 3296
1 3297
1 3298
1 3299
1 3300
1 3301
1 3302
1 3303
1 3304
1 3305
1 3306
1 3307
1 3308
1 3309
1 3310
1 3311
1 3312
1 3313
1 3314
1 3315
1 3316
1 3317
1 3318
1 3319
1 3320
1 3321
1 3322
1 3323
1 3324
1 3325
1 3326
1 3327
1 3328
1 3329
1 3330
1 3331
1 3332
1 3333
1 3334
1 3335
1 3336
1 3337
1 3338
1 3339
1 3340
1 3341
1 3342
1 3343
1 3344
1 3345
1 3346
1 3347
1 3348
1 3349
1 3350
1 3351
1 3352
1 3353
1 3354
1 3355
1 3356
1 3357
1 3358
1 3359
1 3360
1 3361
1 3362
1 3363
1 3364
1 3365
1 3366
1 3367
1 3368
1 3369
1 3370
1 3371
1 3372
1 3373
1 3374
1 3375
1 3376
1 3377
1 3378
1 3379
1 3380
1 3381
1 3382
1 3383
1 3384
1 3385
1 3386
1 3387
1 3388
1 3389
1 3390
1 3391
1 3392
1 3393
1 3394
1 3395
1 3396
1 3397
1 3398
1 3399
1 3400
1 3401
1 3402
1 3403
1 3404
1 3405
1 3406
1 3407
1 3408
1 3409
1 3410
1 3411
1 3412
1 3413
1 3414
1 3415
1 3416
1 3417
1 3418
1 3419
1 3420
1 3421
1 3422
1 3423
1 3424
1 3425
1 3426
1 3427
1 3428
1 3429
1 3430
1 3431
1 3432
1 3433
1 3434
1 3435
1 3436
1 3437
1 3438
1 3439
1 3440
1 3441
1 3442
1 3443
1 3444
1 3445
1 3446
1 3447
1 3448
1 3449
1 3450
1 3451
1 3452
1 3453
1 3454
1 3455
1 3456
1 3457
1 3458
1 3459
1 3460
1 3461
1 3462
1 3463
1 3464
1 3465
1 3466
1 3467
1 3468
1 3469
1 3470
1 3471
1 3472
1 3473
1 3474
1 3475
1 3476
1 3477
1 3478
1 3479
1 3480
1 3481
1 3482
1 3483
1 3484
1 3485
1 3486
1 3487
1 3488
1 3489
1 3490
1 3491
1 3492
1 3493
1 3494
1 3495
1 3496
1 3497
1 3498
1 3499
1 3500
1 3501
1 3502
1 3503
1 3504
1 3505
1 3506
1 3507
1 3508
1 3509
1 3510
1 3511
1 3512
1 3513
1 3514
1 3515
1 3516
1 3517
1 3518
1 3519
1 3520
1 3521
1 3522
1 3523
1 3524
1 3525
1 3526
1 3527
1 3528
1 3529
1 3530
1 3531
1 3532
1 3533
1 3534
1 3535
1 3536
1 3537
1 3538
1 3539
1 3540
1 3541
1 3542
1 3543
1 3544
1 3545
1 3546
1 3547
1 3548
1 3549
1 3550
1 3551
1 3552
1 3553
1 3554
1 3555
1 3556
1 3557
1 3558
1 3559
1 3560
1 3561
1 3562
1 3563
1 3564
1 3565
1 3566
1 3567
1 3568
1 3569
1 3570
1 3571
1 3572
1 3573
1 3574
1 3575
1 3576
1 3577
1 3578
1 3579
1 3580
1 3581
1 3582
1 3583
1 3584
1 3585
1 3586
1 3587
1 3588
1 3589
1 3590
1 3591
1 3592
1 3593
1 3594
1 3595
1 3596
1 3597
1 3598
1 3599
1 3600
1 3601
1 3602
1 3603
1 3604
1 3605
1 3606
1 3607
1 3608
1 3609
1 3610
1 3611
1 3612
1 3613
1 3614
1 3615
1 3616
1 3617
1 3618
1 3619
1 3620
1 3621
1 3622
1 3623
1 3624
1 3625
1 3626
1 3627
1 3628
1 3629
1 3630
1 3631
1 3632
1 3633
1 3634
1 3635
1 3636
1 3637
1 3638
1 3639
1 3640
1 3641
1 3642
1 3643
1 3644
1 3645
1 3646
1 3647
1 3648
1 3649
1 3650
1 3651
1 3652
1 3653
1 3654
1 3655
1 3656
1 3657
1 3658
1 3659
1 3660
1 3661
1 3662
1 3663
1 3664
1 3665
1 3666
1 3667
1 3668
1 3669
1 3670
1 3671
1 3672
1 3673
1 3674
1 3675
1 3676
1 3677
1 3678
1 3679
1 3680
1 3681
1 3682
1 3683
1 3684
1 3685
1 3686
1 3687
1 3688
1 3689
1 3690
1 3691
1 3692
1 3693
1 3694
1 3695
1 3696
1 3697
1 3698
1 3699
1 3700
1 3701
1 3702
1 3703
1 3704
1 3705
1 3706
1 3707
1 3708
1 3709
1 3710
1 3711
1 3712
1 3713
1 3714
1 3715
1 3716
1 3717
1 3718
1 3719
1 3720
1 3721
1 3722
1 3723
1 3724
1 3725
1 3726
1 3727
1 3728
1 3729
1 3730
1 3731
1 3732
1 3733
1 3734
1 3735
1 3736
1 3737
1 3738
1 3739
1 3740
1 3741
1 3742
1 3743
1 3744
1 3745
1 3746
1 3747
1 3748
1 3749
1 3750
1 3751
1 3752
1 3753
1 3754
1 3755
1 3756
1 3757
1 3758
1 3759
1 3760
1 3761
1 3762
1 3763
1 3764
1 3765
1 3766
1 3767
1 3768
1 3769
1 3770
1 3771
1 3772
1 3773
1 3774
1 3775
1 3776
1 3777
1 3778
1 3779
1 3780
1 3781
1 3782
1 3783
1 3784
1 3785
1 3786
1 3787
1 3788
1 3789
1 3790
1 3791
1 3792
1 3793
1 3794
1 3795
1 3796
1 3797
1 3798
1 3799
1 3800
1 3801
1 3802
1 3803
1 3804
1 3805
1 3806
1 3807
1 3808
1 3809
1 3810
1 3811
1 3812
1 3813
1 3814
1 3815
1 3816
1 3817
1 3818
1 3819
1 3820
1 3821
1 3822
1 3823
1 3824
1 3825
1 3826
1 3827
1 3828
1 3829
1 3830
1 3831
1 3832
1 3833
1 3834
1 3835
1 3836
1 3837
1 3838
1 3839
1 3840
1 3841
1 3842
1 3843
1 3844
1 3845
1 3846
1 3847
1 3848
1 3849
1 3850
1 3851
1 3852
1 3853
1 3854
1 3855
1 3856
1 3857
1 3858
1 3859
1 3860
1 3861
1 3862
1 3863
1 3864
1 3865
1 3866
1 3867
1 3868
1 3869
1 3870
1 3871
1 3872
1 3873
1 3874
1 3875
1 3876
1 3877
1 3878
1 3879
1 3880
1 3881
1 3882
1 3883
1 3884
1 3885
1 3886
1 3887
1 3888
1 3889
1 3890
1 3891
1 3892
1 3893
1 3894
1 3895
1 3896
1 3897
1 3898
1 3899
1 3900
1 3901
1 3902
1 3903
1 3904
1 3905
1 3906
1 3907
1 3908
1 3909
1 3910
1 3911
1 3912
1 3913
1 3914
1 3915
1 3916
1 3917
1 3918
1 3919
1 3920
1 3921
1 3922
1 3923
1 3924
1 3925
1 3926
1 3927
1 3928
1 3929
1 3930
1 3931
1 3932
1 3933
1 3934
1 3935
1 3936
1 3937
1 3938
1 3939
1 3940
1 3941
1 3942
1 3943
1 3944
1 3945
1 3946
1 3947
1 3948
1 3949
1 3950
1 3951
1 3952
1 3953
1 3954
1 3955
1 3956
1 3957
1 3958
1 3959
1 3960
1 3961
1 3962
1 3963
1 3964
1 3965
1 3966
1 3967
1 3968
1 3969
1 3970
1 3971
1 3972
1 3973
1 3974
1 3975
1 3976
1 3977
1 3978
1 3979
1 3980
1 3981
1 3982
1 3983
1 3984
1 3985
1 3986
1 3987
1 3988
1 3989
1 3990
1 3991
1 3992
1 3993
1 3994
1 3995
1 3996
1 3997
1 3998
1 3999
1 4000
1 4001
1 4002
1 4003
1 4004
1 4005
1 4006
1 4007
1 4008
1 4009
1 4010
1 4011
1 4012
1 4013
1 4014
1 4015
1 4016
1 4017
1 4018
1 4019
1 4020
1 4021
1 4022
1 4023
1 4024
1 4025
1 4026
1 4027
1 4028
1 4029
1 4030
1 4031
1 4032
1 4033
1 4034
1 4035
1 4036
1 4037
1 4038
1 4039
1 4040
1 4041
1 4042
1 4043
1 4044
1 4045
1 4046
1 4047
1 4048
1 4049
1 4050
1 4051
1 4052
1 4053
1 4054
1 4055
1 4056
1 4057
1 4058
1 4059
1 4060
1 4061
1 4062
1 4063
1 4064
1 4065
1 4066
1 4067
1 4068
1 4069
1 4070
1 4071
1 4072
1 4073
1 4074
1 4075
1 4076
1 4077
1 4078
1 4079
1 4080
1 4081
1 4082
1 4083
1 4084
1 4085
1 4086
1 4087
1 4088
1 4089
1 4090
1 4091
1 4092
1 4093
1 4094
1 4095
1 4096
1 4097
1 4098
1 4099
1 4100
1 4101
1 4102
1 4103
1 4104
1 4105
1 4106
1 4107
1 4108
1 4109
1 4110
1 4111
1 4112
1 4113
1 4114
1 4115
1 4116
1 4117
1 4118
1 4119
1 4120
1 4121
1 4122
1 4123
1 4124
1 4125
1 4126
1 4127
1 4128
1 4129
1 4130
1 4131
1 4132
1 4133
1 4134
1 4135
1 4136
1 4137
1 4138
1 4139
1 4140
1 4141
1 4142
1 4143
1 4144
1 4145
1 4146
1 4147
1 4148
1 4149
1 4150
1 4151
1 4152
1 4153
1 4154
1 4155
1 4156
1 4157
1 4158
1 4159
1 4160
1 4161
1 4162
1 4163
1 4164
1 4165
1 4166
1 4167
1 4168
1 4169
1 4170
1 4171
1 4172
1 4173
1 4174
1 4175
1 4176
1 4177
1 4178
1 4179
1 4180
1 4181
1 4182
1 4183
1 4184
1 4185
1 4186
1 4187
1 4188
1 4189
1 4190
1 4191
1 4192
1 4193
1 4194
1 4195
1 4196
1 4197
1 4198
1 4199
1 4200
1 4201
1 4202
1 4203
1 4204
1 4205
1 4206
1 4207
1 4208
1 4209
1 4210
1 4211
1 4212
1 4213
1 4214
1 4215
1 4216
1 4217
1 4218
1 4219
1 4220
1 4221
1 4222
1 4223
1 4224
1 4225
1 4226
1 4227
1 4228
1 4229
1 4230
1 4231
1 4232
1 4233
1 4234
1 4235
1 4236
1 4237
1 4238
1 4239
1 4240
1 4241
1 4242
1 4243
1 4244
1 4245
1 4246
1 4247
1 4248
1 4249
1 4250
1 4251
1 4252
1 4253
1 4254
1 4255
1 4256
1 4257
1 4258
1 4259
1 4260
1 4261
1 4262
1 4263
1 4264
1 4265
1 4266
1 4267
1 4268
1 4269
1 4270
1 4271
1 4272
1 4273
1 4274
1 4275
1 4276
1 4277
1 4278
1 4279
1 4280
1 4281
1 4282
1 4283
1 4284
1 4285
1 4286
1 4287
1 4288
1 4289
1 4290
1 4291
1 4292
1 4293
1 4294
1 4295
1 4296
1 4297
1 4298
1 4299
1 4300
1 4301
1 4302
1 4303
1 4304
1 4305
1 4306
1 4307
1 4308
1 4309
1 4310
1 4311
1 4312
1 4313
1 4314
1 4315
1 4316
1 4317
1 4318
1 4319
1 4320
1 4321
1 4322
1 4323
1 4324
1 4325
1 4326
1 4327
1 4328
1 4329
1 4330
1 4331
1 4332
1 4333
1 4334
1 4335
1 4336
1 4337
1 4338
1 4339
1 4340
1 4341
1 4342
1 4343
1 4344
1 4345
1 4346
1 4347
1 4348
1 4349
1 4350
1 4351
1 4352
1 4353
1 4354
1 4355
1 4356
1 4357
1 4358
1 4359
1 4360
1 4361
1 4362
1 4363
1 4364
1 4365
1 4366
1 4367
1 4368
1 4369
1 4370
1 4371
1 4372
1 4373
1 4374
1 4375
1 4376
1 4377
1 4378
1 4379
1 4380
1 4381
1 4382
1 4383
1 4384
1 4385
1 4386
1 4387
1 4388
1 4389
1 4390
1 4391
1 4392
1 4393
1 4394
1 4395
1 4396
1 4397
1 4398
1 4399
1 4400
1 4401
1 4402
1 4403
1 4404
1 4405
1 4406
1 4407
1 4408
1 4409
1 4410
1 4411
1 4412
1 4413
1 4414
1 4415
1 4416
1 4417
1 4418
1 4419
1 4420
1 4421
1 4422
1 4423
1 4424
1 4425
1 4426
1 4427
1 4428
1 4429
1 4430
1 4431
1 4432
1 4433
1 4434
1 4435
1 4436
1 4437
1 4438
1 4439
1 4440
1 4441
1 4442
1 4443
1 4444
1 4445
1 4446
1 4447
1 4448
1 4449
1 4450
1 4451
1 4452
1 4453
1 4454
1 4455
1 4456
1 4457
1 4458
1 4459
1 4460
1 4461
1 4462
1 4463
1 4464
1 4465
1 4466
1 4467
1 4468
1 4469
1 4470
1 4471
1 4472
1 4473
1 4474
1 4475
1 4476
1 4477
1 4478
1 4479
1 4480
1 4481
1 4482
1 4483
1 4484
1 4485
1 4486
1 4487
1 4488
1 4489
1 4490
1 4491
1 4492
1 4493
1 4494
1 4495
1 4496
1 4497
1 4498
1 4499
1 4500
1 4501
1 4502
1 4503
1 4504
1 4505
1 4506
1 4507
1 4508
1 4509
1 4510
1 4511
1 4512
1 4513
1 4514
1 4515
1 4516
1 4517
1 4518
1 4519
1 4520
1 4521
1 4522
1 4523
1 4524
1 4525
1 4526
1 4527
1 4528
1 4529
1 4530
1 4531
1 4532
1 4533
1 4534
1 4535
1 4536
1 4537
1 4538
1 4539
1 4540
1 4541
1 4542
1 4543
1 4544
1 4545
1 4546
1 4547
1 4548
1 4549
1 4550
1 4551
1 4552
1 4553
1 4554
1 4555
1 4556
1 4557
1 4558
1 4559
1 4560
1 4561
1 4562
1 4563
1 4564
1 4565
1 4566
1 4567
1 4568
1 4569
1 4570
1 4571
1 4572
1 4573
1 4574
1 4575
1 4576
1 4577
1 4578
1 4579
1 4580
1 4581
1 4582
1 4583
1 4584
1 4585
1 4586
1 4587
1 4588
1 4589
1 4590
1 4591
1 4592
1 4593
1 4594
1 4595
1 4596
1 4597
1 4598
1 4599
1 4600
1 4601
1 4602
1 4603
1 4604
1 4605
1 4606
1 4607
1 4608
1 4609
1 4610
1 4611
1 4612
1 4613
1 4614
1 4615
1 4616
1 4617
1 4618
1 4619
1 4620
1 4621
1 4622
1 4623
1 4624
1 4625
1 4626
1 4627
1 4628
1 4629
1 4630
1 4631
1 4632
1 4633
1 4634
1 4635
1 4636
1 4637
1 4638
1 4639
1 4640
1 4641
1 4642
1 4643
1 4644
1 4645
1 4646
1 4647
1 4648
1 4649
1 4650
1 4651
1 4652
1 4653
1 4654
1 4655
1 4656
1 4657
1 4658
1 4659
1 4660
1 4661
1 4662
1 4663
1 4664
1 4665
1 4666
1 4667
1 4668
1 4669
1 4670
1 4671
1 4672
1 4673
1 4674
1 4675
1 4676
1 4677
1 4678
1 4679
1 4680
1 4681
1 4682
1 4683
1 4684
1 4685
1 4686
1 4687
1 4688
1 4689
1 4690
1 4691
1 4692
1 4693
1 4694
1 4695
1 4696
1 4697
1 4698
1 4699
1 4700
1 4701
1 4702
1 4703
1 4704
1 4705
1 4706
1 4707
1 4708
1 4709
1 4710
1 4711
1 4712
1 4713
1 4714
1 4715
1 4716
1 4717
1 4718
1 4719
1 4720
1 4721
1 4722
1 4723
1 4724
1 4725
1 4726
1 4727
1 4728
1 4729
1 4730
1 4731
1 4732
1 4733
1 4734
1 4735
1 4736
1 4737
1 4738
1 4739
1 4740
1 4741
1 4742
1 4743
1 4744
1 4745
1 4746
1 4747
1 4748
1 4749
1 4750
1 4751
1 4752
1 4753
1 4754
1 4755
1 4756
1 4757
1 4758
1 4759
1 4760
1 4761
1 4762
1 4763
1 4764
1 4765
1 4766
1 4767
1 4768
1 4769
1 4770
1 4771
1 4772
1 4773
1 4774
1 4775
1 4776
1 4777
1 4778
1 4779
1 4780
1 4781
1 4782
1 4783
1 4784
1 4785
1 4786
1 4787
1 4788
1 4789
1 4790
1 4791
1 4792
1 4793
1 4794
1 4795
1 4796
1 4797
1 4798
1 4799
1 4800
1 4801
1 4802
1 4803
1 4804
1 4805
1 4806
1 4807
1 4808
1 4809
1 4810
1 4811
1 4812
1 4813
1 4814
1 4815
1 4816
1 4817
1 4818
1 4819
1 4820
1 4821
1 4822
1 4823
1 4824
1 4825
1 4826
1 4827
1 4828
1 4829
1 4830
1 4831
1 4832
1 4833
1 4834
1 4835
1 4836
1 4837
1 4838
1 4839
1 4840
1 4841
1 4842
1 4843
1 4844
1 4845
1 4846
1 4847
1 4848
1 4849
1 4850
1 4851
1 4852
1 4853
1 4854
1 4855
1 4856
1 4857
1 4858
1 4859
1 4860
1 4861
1 4862
1 4863
1 4864
1 4865
1 4866
1 4867
1 4868
1 4869
1 4870
1 4871
1 4872
1 4873
1 4874
1 4875
1 4876
1 4877
1 4878
1 4879
1 4880
1 4881
1 4882
1 4883
1 4884
1 4885
1 4886
1 4887
1 4888
1 4889
1 4890
1 4891
1 4892
1 4893
1 4894
1 4895
1 4896
1 4897
1 4898
1 4899
1 4900
1 4901
1 4902
1 4903
1 4904
1 4905
1 4906
1 4907
1 4908
1 4909
1 4910
1 4911
1 4912
1 4913
1 4914
1 4915
1 4916
1 4917
1 4918
1 4919
1 4920
1 4921
1 4922
1 4923
1 4924
1 4925
1 4926
1 4927
1 4928
1 4929
1 4930
1 4931
1 4932
1 4933
1 4934
1 4935
1 4936
1 4937
1 4938
1 4939
1 4940
1 4941
1 4942
1 4943
1 4944
1 4945
1 4946
1 4947
1 4948
1 4949
1 4950
1 4951
1 4952
1 4953
1 4954
1 4955
1 4956
1 4957
1 4958
1 4959
1 4960
1 4961
1 4962
1 4963
1 4964
1 4965
1 4966
1 4967
1 4968
1 4969
1 4970
1 4971
1 4972
1 4973
1 4974
1 4975
1 4976
1 4977
1 4978
1 4979
1 4980
1 4981
1 4982
1 4983
1 4984
1 4985
1 4986
1 4987
1 4988
1 4989
1 4990
1 4991
1 4992
1 4993
1 4994
1 4995
1 4996
1 4997
1 4998
1 4999
CELL_TYPES 5000
1 
1 
1 
1 
1 
1 
1 
1 
1 
1 
1 
1 
1 
1 
1 
1 
1 
1 
1 
1 
1 
1 
1 
1 
1 
1 
1 
1 
1 
1 
1 
1 
1 
1 
1 
1 
1 
1 
1 
1 
1 
1 
1 
1 
1 
1 
1 
1 
1 
1 
1 
1 
1 
1 
1 
1 
1 
1 
1 
1 
1 
1 
1 
1 
1 
1 
1 
1 
1 
1 
1 
1 
1 
1 
1 
1 
1 
1 
1 
1 
1 
1 
1 
1 
1 
1 
1 
1 
1 
1 
1 
1 
1 
1 
1 
1 
1 
1 
1 
1 
1 
1 
1 
1 
1 
1 
1 
1 
1 
1 
1 
1 
1 
1 
1 
1 
1 
1 
1 
1 
1 
1 
1 
1 
1 
1 
1 
1 
1 
1 
1 
1 
1 
1 
1 
1 
1 
1 
1 
1 
1 
1 
1 
1 
1 
1 
1 
1 
1 
1 
1 
1 
1 
1 
1 
1 
1 
1 
1 
1 
1 
1 
1 
1 
1 
1 
1 
1 
1 
1 
1 
1 
1 
1 
1 
1 
1 
1 
1 
1 
1 
1 
1 
1 
1 
1 
1 
1 
1 
1 
1 
1 
1 
1 
1 
1 
1 
1 
1 
1 
1 
1 
1 
1 
1 
1 
1 
1 
1 
1 
1 
1 
1 
1 
1 
1 
1 
1 
1 
1 
1 
1 
1 
1 
1 
1 
1 
1 
1 
1 
1 
1 
1 
1 
1 
1 
1 
1 
1 
1 
1 
1 
1 
1 
1 
1 
1 
1 
1 
1 
1 
1 
1 
1 
1 
1 
1 
1 
1 
1 
1 
1 
1 
1 
1 
1 
1 
1 
1 
1 
1 
1 
1 
1 
1 
1 
1 
1 
1 
1 
1 
1 
1 
1 
1 
1 
1 
1 
1 
1 
1 
1 
1 
1 
1 
1 
1 
1 
1 
1 
1 
1 
1 
1 
1 
1 
1 
1 
1 
1 
1 
1 
1 
1 
1 
1 
1 
1 
1 
1 
1 
1 
1 
1 
1 
1 
1 
1 
1 
1 
1 
1 
1 
1 
1 
1 
1 
1 
1 
1 
1 
1 
1 
1 
1 
1 
1 
1 
1 
1 
1 
1 
1 
1 
1 
1 
1 
1 
1 
1 
1 
1 
1 
1 
1 
1 
1 
1 
1 
1 
1 
1 
1 
1 
1 
1 
1 
1 
1 
1 
1 
1 
1 
1 
1 
1 
1 
1 
1 
1 
1 
1 
1 
1 
1 
1 
1 
1 
1 
1 
1 
1 
1 
1 
1 
1 
1 
1 
1 
1 
1 
1 
1 
1 
1 
1 
1 
1 
1 
1 
1 
1 
1 
1 
1 
1 
1 
1 
1 
1 
1 
1 
1 
1 
1 
1 
1 
1 
1 
1 
1 
1 
1 
1 
1 
1 
1 
1 
1 
1 
1 
1 
1 
1 
1 
1 
1 
1 
1 
1 
1 
1 
1 
1 
1 
1 
1 
1 
1 
1 
1 
1 
1 
1 
1 
1 
1 
1 
1 
1 
1 
1 
1 
1 
1 
1 
1 
1 
1 
1 
1 
1 
1 
1 
1 
1 
1 
1 
1 
1 
1 
1 
1 
1 
1 
1 
1 
1 
1 
1 
1 
1 
1 
1 
1 
1 
1 
1 
1 
1 
1 
1 
1 
1 
1 
1 
1 
1 
1 
1 
1 
1 
1 
1 
1 
1 
1 
1 
1 
1 
1 
1 
1 
1 
1 
1 
1 
1 
1 
1 
1 
1 
1 
1 
1 
1 
1 
1 
1 
1 
1 
1 
1 
1 
1 
1 
1 
1 
1 
1 
1 
1 
1 
1 
1 
1 
1 
1 
1 
1 
1 
1 
1 
1 
1 
1 
1 
1 
1 
1 
1 
1 
1 
1 
1 
1 
1 
1 
1 
1 
1 
1 
1 
1 
1 
1 
1 
1 
1 
1 
1 
1 
1 
1 
1 
1 
1 
1 
1 
1 
1 
1 
1 
1 
1 
1 
1 
1 
1 
1 
1 
1 
1 
1 
1 
1 
1 
1 
1 
1 
1 
1 
1 
1 
1 
1 
1 
1 
1 
1 
1 
1 
1 
1 
1 
1 
1 
1 
1 
1 
1 
1 
1 
1 
1 
1 
1 
1 
1 
1 
1 
1 
1 
1 
1 
1 
1 
1 
1 
1 
1 
1 
1 
1 
1 
1 
1 
1 
1 
1 
1 
1 
1 
1 
1 
1 
1 
1 
1 
1 
1 
1 
1 
1 
1 
1 
1 
1 
1 
1 
1 
1 
1 
1 
1 
1 
1 
1 
1 
1 
1 
1 
1 
1 
1 
1 
1 
1 
1 
1 
1 
1 
1 
1 
1 
1 
1 
1 
1 
1 
1 
1 
1 
1 
1 
1 
1 
1 
1 
1 
1 
1 
1 
1 
1 
1 
1 
1 
1 
1 
1 
1 
1 
1 
1 
1 
1 
1 
1 
1 
1 
1 
1 
1 
1 
1 
1 
1 
1 
1 
1 
1 
1 
1 
1 
1 
1 
1 
1 
1 
1 
1 
1 
1 
1 
1 
1 
1 
1 
1 
1 
1 
1 
1 
1 
1 
1 
1 
1 
1 
1 
1 
1 
1 
1 
1 
1 
1 
1 
1 
1 
1 
1 
1 
1 
1 
1 
1 
1 
1 
1 
1 
1 
1 
1 
1 
1 
1 
1 
1 
1 
1 
1 
1 
1 
1 
1 
1 
1 
1 
1 
1 
1 
1 
1 
1 
1 
1 
1 
1 
1 
1 
1 
1 
1 
1 
1 
1 
1 
1 
1 
1 
1 
1 
1 
1 
1 
1 
1 
1 
1 
1 
1 
1 
1 
1 
1 
1 
1 
1 
1 
1 
1 
1 
1 
1 
1 
1 
1 
1 
1 
1 
1 
1 
1 
1 
1 
1 
1 
1 
1 
1 
1 
1 
1 
1 
1 
1 
1 
1 
1 
1 
1 
1 
1 
1 
1 
1 
1 
1 
1 
1 
1 
1 
1 
1 
1 
1 
1 
1 
1 
1 
1 
1 
1 
1 
1 
1 
1 
1 
1 
1 
1 
1 
1 
1 
1 
1 
1 
1 
1 
1 
1 
1 
1 
1 
1 
1 
1 
1 
1 
1 
1 
1 
1 
1 
1 
1 
1 
1 
1 
1 
1 
1 
1 
1 
1 
1 
1 
1 
1 
1 
1 
1 
1 
1 
1 
1 
1 
1 
1 
1 
1 
1 
1 
1 
1 
1 
1 
1 
1 
1 
1 
1 
1 
1 
1 
1 
1 
1 
1 
1 
1 
1 
1 
1 
1 
1 
1 
1 
1 
1 
1 
1 
1 
1 
1 
1 
1 
1 
1 
1 
1 
1 
1 
1 
1 
1 
1 
1 
1 
1 
1 
1 
1 
1 
1 
1 
1 
1 
1 
1 
1 
1 
1 
1 
1 
1 
1 
1 
1 
1 
1 
1 
1 
1 
1 
1 
1 
1 
1 
1 
1 
1 
1 
1 
1 
1 
1 
1 
1 
1 
1 
1 
1 
1 
1 
1 
1 
1 
1 
1 
1 
1 
1 
1 
1 
1 
1 
1 
1 
1 
1 
1 
1 
1 
1 
1 
1 
1 
1 
1 
1 
1 
1 
1 
1 
1 
1 
1 
1 
1 
1 
1 
1 
1 
1 
1 
1 
1 
1 
1 
1 
1 
1 
1 
1 
1 
1 
1 
1 
1 
1 
1 
1 
1 
1 
1 
1 
1 
1 
1 
1 
1 
1 
1 
1 
1 
1 
1 
1 
1 
1 
1 
1 
1 
1 
1 
1 
1 
1 
1 
1 
1 
1 
1 
1 
1 
1 
1 
1 
1 
1 
1 
1 
1 
1 
1 
1 
1 
1 
1 
1 
1 
1 
1 
1 
1 
1 
1 
1 
1 
1 
1 
1 
1 
1 
1 
1 
1 
1 
1 
1 
1 
1 
1 
1 
1 
1 
1 
1 
1 
1 
1 
1 
1 
1 
1 
1 
1 
1 
1 
1 
1 
1 
1 
1 
1 
1 
1 
1 
1 
1 
1 
1 
1 
1 
1 
1 
1 
1 
1 
1 
1 
1 
1 
1 
1 
1 
1 
1 
1 
1 
1 
1 
1 
1 
1 
1 
1 
1 
1 
1 
1 
1 
1 
1 
1 
1 
1 
1 
1 
1 
1 
1 
1 
1 
1 
1 
1 
1 
1 
1 
1 
1 
1 
1 
1 
1 
1 
1 
1 
1 
1 
1 
1 
1 
1 
1 
1 
1 
1 
1 
1 
1 
1 
1 
1 
1 
1 
1 
1 
1 
1 
1 
1 
1 
1 
1 
1 
1 
1 
1 
1 
1 
1 
1 
1 
1 
1 
1 
1 
1 
1 
1 
1 
1 
1 
1 
1 
1 
1 
1 
1 
1 
1 
1 
1 
1 
1 
1 
1 
1 
1 
1 
1 
1 
1 
1 
1 
1 
1 
1 
1 
1 
1 
1 
1 
1 
1 
1 
1 
1 
1 
1 
1 
1 
1 
1 
1 
1 
1 
1 
1 
1 
1 
1 
1 
1 
1 
1 
1 
1 
1 
1 
1 
1 
1 
1 
1 
1 
1 
1 
1 
1 
1 
1 
1 
1 
1 
1 
1 
1 
1 
1 
1 
1 
1 
1 
1 
1 
1 
1 
1 
1 
1 
1 
1 
1 
1 
1 
1 
1 
1 
1 
1 
1 
1 
1 
1 
1 
1 
1 
1 
1 
1 
1 
1 
1 
1 
1 
1 
1 
1 
1 
1 
1 
1 
1 
1 
1 
1 
1 
1 
1 
1 
1 
1 
1 
1 
1 
1 
1 
1 
1 
1 
1 
1 
1 
1 
1 
1 
1 
1 
1 
1 
1 
1 
1 
1 
1 
1 
1 
1 
1 
1 
1 
1 
1 
1 
1 
1 
1 
1 
1 
1 
1 
1 
1 
1 
1 
1 
1 
1 
1 
1 
1 
1 
1 
1 
1 
1 
1 
1 
1 
1 
1 
1 
1 
1 
1 
1 
1 
1 
1 
1 
1 
1 
1 
1 
1 
1 
1 
1 
1 
1 
1 
1 
1 
1 
1 
1 
1 
1 
1 
1 
1 
1 
1 
1 
1 
1 
1 
1 
1 
1 
1 
1 
1 
1 
1 
1 
1 
1 
1 
1 
1 
1 
1 
1 
1 
1 
1 
1 
1 
1 
1 
1 
1 
1 
1 
1 
1 
1 
1 
1 
1 
1 
1 
1 
1 
1 
1 
1 
1 
1 
1 
1 
1 
1 
1 
1 
1 
1 
1 
1 
1 
1 
1 
1 
1 
1 
1 
1 
1 
1 
1 
1 
1 
1 
1 
1 
1 
1 
1 
1 
1 
1 
1 
1 
1 
1 
1 
1 
1 
1 
1 
1 
1 
1 
1 
1 
1 
1 
1 
1 
1 
1 
1 
1 
1 
1 
1 
1 
1 
1 
1 
1 
1 
1 
1 
1 
1 
1 
1 
1 
1 
1 
1 
1 
1 
1 
1 
1 
1 
1 
1 
1 
1 
1 
1 
1 
1 
1 
1 
1 
1 
1 
1 
1 
1 
1 
1 
1 
1 
1 
1 
1 
1 
1 
1 
1 
1 
1 
1 
1 
1 
1 
1 
1 
1 
1 
1 
1 
1 
1 
1 
1 
1 
1 
1 
1 
1 
1 
1 
1 
1 
1 
1 
1 
1 
1 
1 
1 
1 
1 
1 
1 
1 
1 
1 
1 
1 
1 
1 
1 
1 
1 
1 
1 
1 
1 
1 
1 
1 
1 
1 
1 
1 
1 
1 
1 
1 
1 
1 
1 
1 
1 
1 
1 
1 
1 
1 
1 
1 
1 
1 
1 
1 
1 
1 
1 
1 
1 
1 
1 
1 
1 
1 
1 
1 
1 
1 
1 
1 
1 
1 
1 
1 
1 
1 
1 
1 
1 
1 
1 
1 
1 
1 
1 
1 
1 
1 
1 
1 
1 
1 
1 
1 
1 
1 
1 
1 
1 
1 
1 
1 
1 
1 
1 
1 
1 
1 
1 
1 
1 
1 
1 
1 
1 
1 
1 
1 
1 
1 
1 
1 
1 
1 
1 
1 
1 
1 
1 
1 
1 
1 
1 
1 
1 
1 
1 
1 
1 
1 
1 
1 
1 
1 
1 
1 
1 
1 
1 
1 
1 
1 
1 
1 
1 
1 
1 
1 
1 
1 
1 
1 
1 
1 
1 
1 
1 
1 
1 
1 
1 
1 
1 
1 
1 
1 
1 
1 
1 
1 
1 
1 
1 
1 
1 
1 
1 
1 
1 
1 
1 
1 
1 
1 
1 
1 
1 
1 
1 
1 
1 
1 
1 
1 
1 
1 
1 
1 
1 
1 
1 
1 
1 
1 
1 
1 
1 
1 
1 
1 
1 
1 
1 
1 
1 
1 
1 
1 
1 
1 
1 
1 
1 
1 
1 
1 
1 
1 
1 
1 
1 
1 
1 
1 
1 
1 
1 
1 
1 
1 
1 
1 
1 
1 
1 
1 
1 
1 
1 
1 
1 
1 
1 
1 
1 
1 
1 
1 
1 
1 
1 
1 
1 
1 
1 
1 
1 
1 
1 
1 
1 
1 
1 
1 
1 
1 
1 
1 
1 
1 
1 
1 
1 
1 
1 
1 
1 
1 
1 
1 
1 
1 
1 
1 
1 
1 
1 
1 
1 
1 
1 
1 
1 
1 
1 
1 
1 
1 
1 
1 
1 
1 
1 
1 
1 
1 
1 
1 
1 
1 
1 
1 
1 
1 
1 
1 
1 
1 
1 
1 
1 
1 
1 
1 
1 
1 
1 
1 
1 
1 
1 
1 
1 
1 
1 
1 
1 
1 
1 
1 
1 
1 
1 
1 
1 
1 
1 
1 
1 
1 
1 
1 
1 
1 
1 
1 
1 
1 
1 
1 
1 
1 
1 
1 
1 
1 
1 
1 
1 
1 
1 
1 
1 
1 
1 
1 
1 
1 
1 
1 
1 
1 
1 
1 
1 
1 
1 
1 
1 
1 
1 
1 
1 
1 
1 
1 
1 
1 
1 
1 
1 
1 
1 
1 
1 
1 
1 
1 
1 
1 
1 
1 
1 
1 
1 
1 
1 
1 
1 
1 
1 
1 
1 
1 
1 
1 
1 
1 
1 
1 
1 
1 
1 
1 
1 
1 
1 
1 
1 
1 
1 
1 
1 
1 
1 
1 
1 
1 
1 
1 
1 
1 
1 
1 
1 
1 
1 
1 
1 
1 
1 
1 
1 
1 
1 
1 
1 
1 
1 
1 
1 
1 
1 
1 
1 
1 
1 
1 
1 
1 
1 
1 
1 
1 
1 
1 
1 
1 
1 
1 
1 
1 
1 
1 
1 
1 
1 
1 
1 
1 
1 
1 
1 
1 
1 
1 
1 
1 
1 
1 
1 
1 
1 
1 
1 
1 
1 
1 
1 
1 
1 
1 
1 
1 
1 
1 
1 
1 
1 
1 
1 
1 
1 
1 
1 
1 
1 
1 
1 
1 
1 
1 
1 
1 
1 
1 
1 
1 
1 
1 
1 
1 
1 
1 
1 
1 
1 
1 
1 
1 
1 
1 
1 
1 
1 
1 
1 
1 
1 
1 
1 
1 
1 
1 
1 
1 
1 
1 
1 
1 
1 
1 
1 
1 
1 
1 
1 
1 
1 
1 
1 
1 
1 
1 
1 
1 
1 
1 
1 
1 
1 
1 
1 
1 
1 
1 
1 
1 
1 
1 
1 
1 
1 
1 
1 
1 
1 
1 
1 
1 
1 
1 
1 
1 
1 
1 
1 
1 
1 
1 
1 
1 
1 
1 
1 
1 
1 
1 
1 
1 
1 
1 
1 
1 
1 
1 
1 
1 
1 
1 
1 
1 
1 
1 
1 
1 
1 
1 
1 
1 
1 
1 
1 
1 
1 
1 
1 
1 
1 
1 
1 
1 
1 
1 
1 
1 
1 
1 
1 
1 
1 
1 
1 
1 
1 
1 
1 
1 
1 
1 
1 
1 
1 
1 
1 
1 
1 
1 
1 
1 
1 
1 
1 
1 
1 
1 
1 
1 
1 
1 
1 
1 
1 
1 
1 
1 
1 
1 
1 
1 
1 
1 
1 
1 
1 
1 
1 
1 
1 
1 
1 
1 
1 
1 
1 
1 
1 
1 
1 
1 
1 
1 
1 
1 
1 
1 
1 
1 
1 
1 
1 
1 
1 
1 
1 
1 
1 
1 
1 
1 
1 
1 
1 
1 
1 
1 
1 
1 
1 
1 
1 
1 
1 
1 
1 
1 
1 
1 
1 
1 
1 
1 
1 
1 
1 
1 
1 
1 
1 
1 
1 
1 
1 
1 
1 
1 
1 
1 
1 
1 
1 
1 
1 
1 
1 
1 
1 
1 
1 
1 
1 
1 
1 
1 
1 
1 
1 
1 
1 
1 
1 
1 
1 
1 
1 
1 
1 
1 
1 
1 
1 
1 
1 
1 
1 
1 
1 
1 
1 
1 
1 
1 
1 
1 
1 
1 
1 
1 
1 
1 
1 
1 
1 
1 
1 
1 
1 
1 
1 
1 
1 
1 
1 
1 
1 
1 
1 
1 
1 
1 
1 
1 
1 
1 
1 
1 
1 
1 
1 
1 
1 
1 
1 
1 
1 
1 
1 
1 
1 
1 
1 
1 
1 
1 
1 
1 
1 
1 
1 
1 
1 
1 
1 
1 
1 
1 
1 
1 
1 
1 
1 
1 
1 
1 
1 
1 
1 
1 
1 
1 
1 
1 
1 
1 
1 
1 
1 
1 
1 
1 
1 
1 
1 
1 
1 
1 
1 
1 
1 
1 
1 
1 
1 
1 
1 
1 
1 
1 
1 
1 
1 
1 
1 
1 
1 
1 
1 
1 
1 
1 
1 
1 
1 
1 
1 
1 
1 
1 
1 
1 
1 
1 
1 
1 
1 
1 
1 
1 
1 
1 
1 
1 
1 
1 
1 
1 
1 
1 
1 
1 
1 
1 
1 
1 
1 
1 
1 
1 
1 
1 
1 
1 
1 
1 
1 
1 
1 
1 
1 
1 
1 
1 
1 
1 
1 
1 
1 
1 
1 
1 
1 
1 
1 
1 
1 
1 
1 
1 
1 
1 
1 
1 
1 
1 
1 
1 
1 
1 
1 
1 
1 
1 
1 
1 
1 
1 
1 
1 
1 
1 
1 
1 
1 
1 
1 
1 
1 
1 
1 
1 
1 
1 
1 
1 
1 
1 
1 
1 
1 
1 
1 
1 
1 
1 
1 
1 
1 
1 
1 
1 
1 
1 
1 
1 
1 
1 
1 
1 
1 
1 
1 
1 
1 
1 
1 
1 
1 
1 
1 
1 
1 
1 
1 
1 
1 
1 
1 
1 
1 
1 
1 
1 
1 
1 
1 
1 
1 
1 
1 
1 
1 
1 
1 
1 
1 
1 
1 
1 
1 
1 
1 
1 
1 
1 
1 
1 
1 
1 
1 
1 
1 
1 
1 
1 
1 
1 
1 
1 
1 
1 
1 
1 
1 
1 
1 
1 
1 
1 
1 
1 
1 
1 
1 
1 
1 
1 
1 
1 
1 
1 
1 
1 
1 
1 
1 
1 
1 
1 
1 
1 
1 
1 
1 
1 
1 
1 
1 
1 
1 
1 
1 
1 
1 
1 
1 
1 
1 
1 
1 
1 
1 
1 
1 
1 
1 
1 
1 
1 
1 
1 
1 
1 
1 
1 
1 
1 
1 
1 
1 
1 
1 
1 
1 
1 
1 
1 
1 
1 
1 
1 
1 
1 
1 
1 
1 
1 
1 
1 
1 
1 
1 
1 
1 
1 
1 
1 
1 
1 
1 
1 
1 
1 
1 
1 
1 
1 
1 
1 
1 
1 
1 
1 
1 
1 
1 
1 
1 
1 
1 
1 
1 
1 
1 
1 
1 
1 
1 
1 
1 
1 
1 
1 
1 
1 
1 
1 
1 
1 
1 
1 
1 
1 
1 
1 
1 
1 
1 
1 
1 
1 
1 
1 
1 
1 
1 
1 
1 
1 
1 
1 
1 
1 
1 
1 
1 
1 
1 
1 
1 
1 
1 
1 
1 
1 
1 
1 
1 
1 
1 
1 
1 
1 
1 
1 
1 
1 
1 
1 
1 
1 
1 
1 
1 
1 
1 
1 
1 
1 
1 
1 
1 
1 
1 
1 
1 
1 
1 
1 
1 
1 
1 
1 
1 
1 
1 
1 
1 
1 
1 
1 
1 
1 
1 
1 
1 
1 
1 
1 
1 
1 
1 
1 
1 
1 
1 
1 
1 
1 
1 
1 
1 
1 
1 
1 
1 
1 
1 
1 
1 
1 
1 
1 
1 
1 
1 
1 
1 
1 
1 
1 
1 
1 
1 
1 
1 
1 
1 
1 
1 
1 
1 
1 
1 
1 
1 
1 
1 
1 
1 
1 
1 
1 
1 
1 
1 
1 
1 
1 
1 
1 
1 
1 
1 
1 
1 
1 
1 
1 
1 
1 
1 
1 
1 
1 
1 
1 
1 
1 
1 
1 
1 
1 
1 
1 
1 
1 
1 
1 
1 
1 
1 
1 
1 
1 
1 
1 
1 
1 
1 
1 
1 
1 
1 
1 
1 
1 
1 
1 
1 
1 
1 
1 
1 
1 
1 
1 
1 
1 
1 
1 
1 
1 
1 
1 
1 
1 
1 
1 
1 
1 
1 
1 
1 
1 
1 
1 
1 
1 
1 
1 
1 
1 
1 
1 
1 
1 
1 
1 
1 
1 
1 
1 
1 
1 
1 
1 
1 
1 
1 
1 
1 
1 
1 
1 
1 
1 
1 
1 
1 
1 
1 
1 
1 
1 
1 
1 
1 
1 
1 
1 
1 
1 
1 
1 
1 
1 
1 
1 
1 
1 
1 
1 
1 
1 
1 
1 
1 
1 
1 
1 
1 
1 
1 
1 
1 
1 
1 
1 
1 
1 
1 
1 
1 
1 
1 
1 
1 
1 
1 
1 
1 
1 
1 
1 
1 
1 
1 
1 
1 
1 
1 
1 
1 
1 
1 
1 
1 
1 
1 
1 
1 
1 
1 
1 
1 
1 
1 
1 
1 
1 
1 
1 
1 
1 
1 
1 
1 
1 
1 
1 
1 
1 
1 
1 
1 
1 
1 
1 
1 
1 
1 
1 
1 
1 
1 
1 
1 
1 
1 
1 
1 
1 
1 
1 
1 
1 
1 
1 
1 
1 
1 
1 
1 
1 
1 
1 
1 
1 
1 
1 
1 
1 
1 
1 
1 
1 
1 
1 
1 
1 
1 
1 
1 
1 
1 
1 
1 
1 
1 
1 
1 
1 
1 
1 
1 
1 
1 
1 
1 
1 
1 
1 
1 
1 
1 
1 
1 
1 
1 
1 
1 
1 
1 
1 
1 
1 
1 
1 
1 
1 
1 
1 
1 
1 
1 
1 
1 
1 
1 
1 
1 
1 
1 
1 
1 
1 
1 
1 
1 
1 
1 
1 
1 
1 
1 
1 
1 
1 
1 
1 
1 
1 
1 
1 
1 
1 
1 
1 
1 
1 
1 
1 
1 
1 
1 
1 
1 
1 
1 
1 
1 
1 
1 
1 
1 
1 
1 
1 
1 
1 
1 
1 
1 
1 
1 
1 
1 
1 
1 
1 
1 
1 
1 
1 
1 
1 
1 
1 
1 
1 
1 
1 
1 
1 
1 
1 
1 
1 
1 
1 
1 
1 
1 
1 
1 
1 
1 
1 
1 
1 
1 
1 
1 
1 
1 
1 
1 
1 
1 
1 
1 
1 
1 
1 
1 
1 
1 
1 
1 
1 
1 
1 
1 
1 
1 
1 
1 
1 
1 
1 
1 
1 
1 
1 
1 
1 
1 
1 
1 
1 
1 
1 
1 
1 
1 
1 
1 
1 
1 
1 
1 
1 
1 
1 
1 
1 
1 
1 
1 
1 
1 
1 
1 
1 
1 
1 
1 
1 
1 
1 
1 
1 
1 
1 
1 
1 
1 
1 
1 
1 
1 
1 
1 
1 
1 
1 
1 
1 
1 
1 
1 
1 
1 
1 
1 
1 
1 
1 
1 
1 
1 
1 
1 
1 
1 
1 
1 
1 
1 
1 
1 
1 
1 
1 
1 
1 
1 
1 
1 
1 
1 
1 
1 
1 
1 
1 
1 
1 
1 
1 
1 
1 
1 
1 
1 
1 
1 
1 
1 
1 
1 
1 
1 
1 
1 
1 
1 
1 
1 
1 
1 
1 
1 
1 
1 
1 
1 
1 
1 
1 
1 
1 
1 
1 
1 
1 
1 
1 
1 
1 
1 
1 
1 
1 
1 
1 
1 
1 
1 
1 
1 
1 
1 
1 
1 
1 
1 
1 
1 
1 
1 
1 
1 
1 
1 
1 
1 
1 
1 
1 
1 
1 
1 
1 
1 
1 
1 
1 
1 
1 
1 
1 
1 
1 
1 
1 
1 
1 
1 
1 
1 
1 
1 
1 
1 
1 
1 
1 
1 
1 
1 
1 
1 
1 
1 
1 
1 
1 
1 
1 
1 
1 
1 
1 
1 
1 
1 
1 
1 
1 
1 
1 
1 
1 
1 
1 
1 
1 
1 
1 
1 
1 
1 
1 
1 
1 
1 
1 
1 
1 
1 
1 
1 
1 
1 
1 
1 
1 
1 
1 
1 
1 
1 
1 
1 
1 
1 
1 
1 
1 
1 
1 
1 
1 
1 
1 
1 
1 
1 
1 
1 
1 
1 
1 
1 
1 
1 
1 
1 
1 
1 
1 
1 
1 
1 
1 
1 
1 
1 
1 
1 
1 
1 
1 
1 
1 
1 
1 
1 
1 
1 
1 
1 
1 
1 
1 
1 
1 
1 
1 
1 
1 
1 
1 
1 
1 
1 
1 
1 
1 
1 
1 
1 
1 
1 
1 
1 
1 
1 
1 
1 
1 
1 
1 
1 
1 
1 
1 
1 
1 
1 
1 
1 
1 
1 
1 
1 
1 
1 
1 
1 
1 
1 
1 
1 
1 
1 
1 
1 
1 
1 
1 
1 
1 
1 
1 
1 
1 
1 
1 
1 
1 
1 
1 
1 
1 
1 
1 
1 
1 
1 
1 
1 
1 
1 
1 
1 
1 
1 
1 
1 
1 
1 
1 
1 
1 
1 
1 
1 
1 
1 
1 
1 
1 
1 
1 
1 
1 
1 
1 
1 
1 
1 
1 
1 
1 
1 
1 
1 
1 
1 
1 
1 
1 
1 
1 
1 
1 
1 
1 
1 
1 
1 
1 
1 
1 
1 
1 
1 
1 
1 
1 
1 
1 
1 
1 
1 
1 
1 
1 
1 
1 
1 
1 
1 
1 
1 
1 
1 
1 
1 
1 
1 
1 
1 
1 
1 
1 
1 
1 
1 
1 
1 
1 
1 
1 
1 
1 
1 
1 
1 
1 
1 
1 
1 
1 
1 
1 
1 
1 
1 
1 
1 
1 
1 
1 
1 
1 
1 
1 
1 
1 
1 
1 
1 
1 
1 
1 
1 
1 
1 
1 
1 
1 
1 
1 
1 
1 
1 
1 
1 
1 
1 
1 
1 
1 
1 
1 
1 
1 
1 
1 
1 
1 
1 
1 
1 
1 
1 
1 
1 
1 
1 
1 
1 
1 
1 
1 
1 
1 
1 
1 
1 
1 
1 
1 
1 
1 
1 
1 
1 
1 
1 
1 
1 
1 
1 
1 
1 
1 
1 
1 
1 
1 
1 
1 
1 
1 
1 
1 
1 
1 
1 
1 
1 
1 
1 
1 
1 
1 
1 
1 
1 
1 
1 
1 
1 
1 
1 
1 
1 
1 
1 
1 
1 
1 
1 
1 
1 
1 
1 
1 
1 
1 
1 
1 
1 
1 
1 
1 
1 
1 
1 
1 
1 
1 
1 
1 
1 
1 
1 
1 
1 
1 
1 
1 
1 
1 
1 
1 
1 
1 
1 
1 
1 
1 
1 
1 
1 
1 
1 
1 
1 
1 
1 
1 
1 
1 
1 
1 
1 
1 
1 
1 
1 
1 
1 
1 
1 
1 
1 
1 
1 
1 
1 
1 
1 
1 
1 
1 
1 
1 
1 
1 
1 
1 
1 
1 
1 
1 
1 
1 
1 
1 
1 
1 
1 
1 
1 
1 
1 
1 
1 
1 
1 
1 
1 
1 
1 
1 
1 
1 
1 
1 
1 
1 
1 
1 
1 
1 
1 
1 
1 
1 
1 
1 
1 
1 
1 
1 
1 
1 
1 
1 
1 
1 
1 
1 
1 
1 
1 
1 
1 
1 
1 
1 
1 
1 
1 
1 
1 
1 
1 
1 
1 
1 
1 
1 
1 
1 
1 
1 
1 
1 
1 
1 
1 
1 
1 
1 
1 
1 
1 
1 
1 
1 
1 
1 
1 
1 
1 
1 
1 
1 
1 
1 
1 
1 
1 
1 
1 
1 
1 
1 
1 
1 
1 
1 
1 
1 
1 
1 
1 
1 
1 
1 
1 
1 
1 
1 
1 
1 
1 
1 
1 
1 
1 
1 
1 
1 
1 
1 
1 
1 
1 
1 
1 
1 
1 
1 
1 
1 
1 
1 
1 
1 
1 
1 
1 
1 
1 
1 
1 
1 
1 
1 
1 
1 
1 
1 
1 
1 
1 
1 
1 
1 
1 
1 
1 
1 
1 
1 
1 
1 
1 
1 
1 
1 
1 
1 
1 
1 
1 
1 
1 
1 
1 
1 
1 
1 
1 
1 
1 
1 
1 
1 
1 
1 
1 
1 
1 
1 
1 
1 
1 
1 
1 
1 
1 
1 
1 
1 
1 
1 
1 
1 
1 
1 
1 
1 
1 
1 
1 
1 
1 
1 
1 
1 
1 
1 
1 
1 
1 
1 
1 
1 
1 
1 
1 
1 
1 
1 
1 
1 
1 
1 
1 
1 
1 
1 
1 
1 
1 
1 
1 
1 
1 
1 
1 
1 
1 
1 
1 
1 
1 
1 
1 
1 
1 
1 
1 
1 
1 
1 
1 
1 
1 
1 
1 
1 
1 
1 
1 
1 
1 
1 
1 
1 
1 
1 
1 
1 
1 
1 
1 
1 
1 
1 
1 
1 
1 
1 
1 
1 
1 
1 
1 
1 
1 
1 
1 
1 
1 
1 
1 
1 
1 
1 
1 
1 
1 
1 
1 
1 
1 
1 
1 
1 
1 
1 
1 
1 
1 
1 
1 
1 
1 
1 
1 
1 
1 
1 
1 
1 
1 
1 
1 
1 
1 
1 
1 
1 
1 
1 
1 
1 
1 
1 
1 
1 
1 
1 
1 
1 
1 
1 
1 
1 
1 
1 
1 
1 
1 
1 
1 
1 
1 
1 
1 
1 
1 
1 
1 
1 
1 
1 
1 
1 
1 
1 
1 
1 
1 
1 
1 
1 
1 
1 
1 
1 
1 
1 
1 
1 
1 
1 
1 
1 
1 
1 
1 
1 
1 
1 
1 
1 
1 
1 
1 
1 
1 
1 
1 
1 
1 
1 
1 
1 
1 
1 
1 
1 
1 
1 
1 
1 
1 
1 
1 
1 
1 
1 
1 
1 
1 
1 
1 
1 
1 
1 
1 
1 
1 
1 
1 
1 
1 
1 
1 
1 
1 
1 
1 
1 
1 
1 
1 
1 
1 
1 
1 
1 
1 
1 
1 
1 
1 
1 
1 
1 
1 
1 
1 
1 
1 
1 
1 
1 
1 
1 
1 
1 
1 
1 
1 
1 
1 
1 
1 
1 
1 
1 
1 
1 
1 
1 
1 
1 
1 
1 
1 
1 
1 
1 
1 
1 
1 
1 
1 
1 
1 
1 
1 
1 
1 
1 
1 
1 
1 
1 
1 
1 
1 
1 
1 
1 
1 
1 
1 
1 
1 
1 
1 
1 
1 
1 
1 
1 
1 
1 
1 
1 
1 
1 
1 
1 
1 
1 
1 
1 
1 
1 
1 
1 
1 
1 
1 
1 
1 
1 
1 
1 
1 
1 
1 
1 
1 
1 
1 
1 
1 
1 
1 
1 
1 
1 
1 
1 
1 
1 
1 
1 
1 
1 
1 
1 
1 
1 
1 
1 
1 
1 
1 
1 
1 
1 
1 
1 
1 
1 
1 
1 
1 
1 
1 
1 
1 
1 
1 
1 
1 
1 
1 
1 
1 
1 
1 
1 
1 
1 
1 
1 
1 
1 
1 
1 
1 
1 
1 
1 
1 
1 
1 
1 
1 
1 
1 
1 
1 
1 
1 
1 
1 
1 
1 
1 
1 
1 
1 
1 
1 
1 
1 
1 
1 
1 
1 
1 
1 
1 
1 
1 
1 
1 
1 
POINT_DATA 5000
VECTORS Stress float
-69.9723 -164.12 0.
-1380.86 -2960.59 0.
1.98785 4.16179 0.
-2431.92 -3113.16 0.
-386.718 -520.524 0.
-0.842388 -1.30587 0.
-3541.81 -5472.52 0.
-991.236 -1628.56 0.
-82.4283 -157.431 0.
-2637.53 -4431.16 0.
-1557.87 -2804.02 0.
-525.629 -1129.45 0.
-1426.79 -2173.46 0.
-1239.21 -1962.55 0.
-1177.45 -1897 0.
-997.293 -1743.21 0.
-814.458 -1592.1 0.
-816.074 -1662.85 0.
-691.133 -1466.45 0.
-565.978 -1270.27 0.
-606.233 -1227.06 0.
-574.666 -1181.75 0.
-543.107 -1136.44 0.
-565.102 -1183.3 0.
-575.329 -1261.23 0.
-588.533 -1336.18 0.
-688.082 -1469.7 0.
-724.126 -1537.06 0.
-664.043 -1501.15 0.
-633.417 -1454.95 0.
-603.452 -1408.09 0.
-609.59 -1401.19 0.
-600.291 -1389.29 0.
-591.142 -1377.23 0.
-597.25 -1385.36 0.
-602.494 -1422.96 0.
-613.861 -1454.43 0.
-686.992 -1525.92 0.
-699.923 -1556.09 0.
-636.813 -1529.59 0.
-614.72 -1492.11 0.
-598.404 -1448.86 0.
-607.27 -1438.34 0.
-602.031 -1431.18 0.
-597.705 -1423.11 0.
-594.935 -1426.92 0.
-602.638 -1444.9 0.
-610.34 -1462.87 0.
-616.92 -1492.88 0.
-633.069 -1530.56 0.
-649.218 -1568.24 0.
-686.092 -1558.18 0.
-672.514 -1526.5 0.
-611.928 -1476.64 0.
-603.019 -1455.85 0.
-594.11 -1435.07 0.
-596.595 -1429.56 0.
-600.949 -1436.45 0.
-606.883 -1441.75 0.
-604.977 -1447.06 0.
-618.076 -1485.39 0.
-636.742 -1518.14 0.
-693.707 -1542.13 0.
-678.564 -1506.81 0.
-600.391 -1425.54 0.
-584.896 -1375.28 0.
-574.098 -1320.32 0.
-573.203 -1309.72 0.
-586.68 -1338.95 0.
-602.705 -1365.64 0.
-603.536 -1372.63 0.
-627.201 -1403.79 0.
-651.6 -1434.22 0.
-698.693 -1478.94 0.
-672.697 -1435.52 0.
-638.138 -1387.73 0.
-591.226 -1267.9 0.
-590.991 -1209.84 0.
-564.001 -1175.37 0.
-601.092 -1233.73 0.
-638.235 -1292.03 0.
-585.829 -1330.56 0.
-750.451 -1593.88 0.
-915.7 -1856.57 0.
-904.7 -1738.88 0.
-1140.32 -1940.38 0.
-1372.31 -2145.5 0.
-1427.05 -2262.8 0.
-1676.8 -2626.94 0.
-254.863 -558.575 0.
-1563.29 -2849.98 0.
-3041.73 -4971.35 0.
-101.96 -202.235 0.
-616.827 -1039.24 0.
-3716.56 -5822.26 0.
-3.20648 -6.46731 0.
-26.1785 -32.5152 0.
-2004.76 -2409.81 0.
-2.88104 -19.1903 0.
-1082.61 -2258.25 0.
-3.42708 -8.70594 0.
0.75947 1.80861 0.
-2.12593 -35.1205 0.
-6.49055 -16.6342 0.
9.7457 16.5657 0.
-1.53358 -9.33876 0.
-0.844262 -4.83242 0.
-0.151458 -1.42156 0.
-0.0238432 -0.973463 0.
-248.822 -548.135 0.
-47.1829 -98.5302 0.
-32.4886 -78.3689 0.
-613.265 -1144.6 0.
-460.837 -898.159 0.
-636.6 -1113.68 0.
-484.286 -931.815 0.
-343.466 -738.46 0.
-592.659 -1370.54 0.
-477.974 -1163.8 0.
-368.065 -952.284 0.
-529.051 -1152.88 0.
-497.377 -1107.67 0.
-465.739 -1062.43 0.
-534.349 -1097.63 0.
-543.446 -1176.69 0.
-553.429 -1254.87 0.
-772.234 -1523.06 0.
-803.252 -1595.44 0.
-589.628 -1404.1 0.
-556.404 -1360.49 0.
-525.111 -1314.95 0.
-568.917 -1365.37 0.
-559.217 -1353.87 0.
-557.717 -1334.17 0.
-565.791 -1329.07 0.
-569.062 -1368.64 0.
-576.023 -1404.52 0.
-769.208 -1561.12 0.
-782.142 -1591.29 0.
-583.955 -1454.95 0.
-560.65 -1418.68 0.
-540.256 -1379.5 0.
-580.505 -1421.57 0.
-574.042 -1415.64 0.
-567.849 -1409.44 0.
-560.296 -1403.75 0.
-564.652 -1425.07 0.
-569.896 -1445.5 0.
-596.574 -1430.8 0.
-608.834 -1472.37 0.
-622.993 -1512.04 0.
-731.75 -1577.71 0.
-718.171 -1546.03 0.
-567.774 -1445.97 0.
-562.368 -1421.68 0.
-557.776 -1396.57 0.
-559.189 -1412.63 0.
-565.601 -1417.46 0.
-572.313 -1421.99 0.
-549.313 -1374.42 0.
-564.665 -1410.5 0.
-586.348 -1440.24 0.
-773.16 -1576.15 0.
-758.015 -1540.82 0.
-556.938 -1369.6 0.
-543 -1317.78 0.
-533.786 -1261.23 0.
-549.921 -1268.02 0.
-557.129 -1303.53 0.
-570.068 -1333.3 0.
-547.408 -1281.06 0.
-574.113 -1309.18 0.
-601.731 -1336.4 0.
-761.28 -1535.66 0.
-740.077 -1487.45 0.
-592.349 -1281.4 0.
-559.523 -1178.25 0.
-560.245 -1119.23 0.
-458.171 -1082.72 0.
-497.13 -1139.22 0.
-536.43 -1195.38 0.
-327.48 -877.984 0.
-462.919 -1170.64 0.
-608.42 -1453.24 0.
-260.798 -544.697 0.
-425.9 -817.13 0.
-613.7 -1066.87 0.
-322.702 -683.526 0.
-506.748 -1114.23 0.
-0.0282106 -1.94584 0.
-0.152718 -2.09497 0.
-128.57 -274.413 0.
2.88084 6.26975 0.
-0.298759 -1.70406 0.
-0.310755 -1.31857 0.
1.09353 7.15559 0.
10.229 17.1628 0.
-3.31266 -45.7209 0.
-0.458574 -5.81528 0.
13.3535 30.9436 0.
-5.60881 -15.0614 0.
10.3748 26.7497 0.
-0.517481 -27.5803 0.
0.217453 38.5851 0.
-2.28239 -12.8342 0.
-2.26028 -25.0364 0.
3.57604 8.27886 0.
0.0363424 1.04332 0.
-0.00522927 -4.1945 0.
0.624768 1.11161 0.
-0.0702395 -0.145539 0.
-7.19018 -17.0116 0.
-175.459 -360.821 0.
-127.111 -253.168 0.
-170.701 -255.407 0.
-171.402 -279.973 0.
-204.131 -372.004 0.
-408.313 -1039.16 0.
-310.032 -815.928 0.
-221.331 -583.118 0.
-463.165 -1067.41 0.
-432.673 -1021.01 0.
-406.115 -970.683 0.
-509.556 -1006 0.
-518.67 -1085.05 0.
-528.231 -1163.65 0.
-868.512 -1564.29 0.
-899.526 -1636.67 0.
-534.067 -1288.19 0.
-501.938 -1243.49 0.
-470.725 -1197.86 0.
-532.628 -1325.17 0.
-529.106 -1307.49 0.
-527.426 -1287.97 0.
-541.875 -1265.23 0.
-544.301 -1305.65 0.
-547.605 -1345.19 0.
-851.424 -1596.33 0.
-864.36 -1626.48 0.
-538.287 -1373.12 0.
-515.401 -1336.43 0.
-493.607 -1298.65 0.
-567.442 -1391.11 0.
-560.986 -1385.17 0.
-554.797 -1378.96 0.
-540.142 -1366.1 0.
-544.193 -1387.72 0.
-548.688 -1408.9 0.
-583.416 -1361.53 0.
-596.068 -1402.72 0.
-720.416 -1527.67 0.
-777.407 -1597.25 0.
-763.829 -1565.57 0.
-547.826 -1391.09 0.
-542.242 -1366.97 0.
-537.512 -1342 0.
-541.42 -1376.06 0.
-546.869 -1381.85 0.
-553.331 -1386.63 0.
-507.185 -1288.25 0.
-524.943 -1321.92 0.
-545.265 -1353.03 0.
-852.613 -1610.16 0.
-837.466 -1574.84 0.
-527.451 -1299.69 0.
-518.282 -1243.09 0.
-510.163 -1185.45 0.
-529.966 -1222.99 0.
-537.946 -1257.73 0.
-545.452 -1292.94 0.
-513.441 -1167.33 0.
-538.898 -1196.71 0.
-565.268 -1225.17 0.
-844.927 -1571.32 0.
-823.604 -1523.23 0.
-487.864 -1080.31 0.
-531.984 -1084.44 0.
-531.717 -1026.41 0.
-391.936 -950.479 0.
-423.794 -1014.09 0.
-460.418 -1072.93 0.
-142.168 -352.369 0.
-247.918 -674.876 0.
-368.192 -982.861 0.
-150.91 -326.464 0.
-117.603 -239.782 0.
-108.304 -208.929 0.
-170.819 -297.603 0.
-236.237 -482.593 0.
-0.0010584 -2.42522 0.
-0.0249027 -1.07559 0.
-0.16239 -2.64772 0.
-0.0212837 -0.222005 0.
2.69459 5.62227 0.
-1.02248 -5.26423 0.
0.0913874 1.36914 0.
16.4511 33.2237 0.
0.154097 6.9761 0.
-0.328458 -9.37494 0.
-2.26179 -49.8361 0.
10.4253 28.7526 0.
-266.378 -717.262 0.
16.6351 44.7306 0.
15.4686 41.5364 0.
-1810.83 -4118.7 0.
-2.49217 -26.5116 0.
-2259.43 -4192.13 0.
-5.72405 -11.2217 0.
2.89149 6.09388 0.
-3393.95 -7027.42 0.
-52.1047 -106.772 0.
1.65973 3.75315 0.
-2878.46 -5977.64 0.
-1007.3 -2231.58 0.
-1693.96 -2631.91 0.
-1266.89 -2139.52 0.
-871.341 -1615.6 0.
-1644.63 -3729.29 0.
-1065.56 -2579.6 0.
-529.535 -1386.86 0.
-1061.32 -2401.74 0.
-847.898 -2033.56 0.
-645.075 -1654.78 0.
-847.631 -1951.49 0.
-775.348 -1844.48 0.
-704.605 -1735.93 0.
-1143.97 -2332.26 0.
-1174.53 -2403.57 0.
-829.197 -2074.25 0.
-801.457 -2015.93 0.
-773.784 -1957.55 0.
-849.499 -2019.9 0.
-830.929 -2019.54 0.
-813.534 -2018 0.
-848.234 -1981.73 0.
-846.564 -2019.63 0.
-845.746 -2056.68 0.
-1164.57 -2350.16 0.
-1173.3 -2370.53 0.
-824.449 -2104.78 0.
-808.832 -2077.27 0.
-793.407 -2049.57 0.
-844.328 -2102.48 0.
-838.653 -2109.71 0.
-834.107 -2115.81 0.
-839.432 -2109.61 0.
-840.019 -2129.44 0.
-841.785 -2148.08 0.
-898.053 -2138.28 0.
-903.287 -2156.59 0.
-1035.14 -2272.04 0.
-1049.24 -2324.17 0.
-1043.06 -2309.75 0.
-845.826 -2140 0.
-842.802 -2121.64 0.
-841.409 -2101.65 0.
-833.415 -2117.13 0.
-843.014 -2122.96 0.
-853.615 -2127.78 0.
-805.577 -2069.7 0.
-815.786 -2086.68 0.
-826.161 -2103.49 0.
-1153.78 -2346.68 0.
-1133.11 -2298.43 0.
-810.563 -1973.24 0.
-813.933 -1932.61 0.
-818.499 -1890.77 0.
-802.284 -1936.51 0.
-809.409 -1915.99 0.
-817.305 -1894.7 0.
-768.298 -1835.67 0.
-813.491 -1928.48 0.
-858.783 -2021.19 0.
-1128.54 -2369.35 0.
-1107.68 -2320.71 0.
-653.479 -1646.4 0.
-783.067 -1902.23 0.
-895.77 -2109.28 0.
-620.536 -1645.4 0.
-891.327 -2188.58 0.
-1181.88 -2712 0.
-471.86 -1227.28 0.
-1129.58 -2702.57 0.
-1854.67 -4110.48 0.
-806.722 -1615.77 0.
-1295.11 -2365.97 0.
-1820.02 -3079.66 0.
-762.613 -1628.25 0.
-3117.99 -6322.19 0.
1.84388 4.46842 0.
-110.875 -237.611 0.
-3435.41 -7081.1 0.
-79.4167 -138.965 0.
-213.843 -362.403 0.
-2190.73 -3820.6 0.
13.5346 32.358 0.
-1322.2 -3058.43 0.
19.0821 51.1622 0.
18.2579 49.199 0.
8.38202 22.6784 0.
15.4442 42.6615 0.
-438.481 -1190.48 0.
-8.72942 -23.6808 0.
-0.367985 -40.6397 0.
-5.27817 -12.9203 0.
-0.613314 -12.7042 0.
9.47651 18.7114 0.
9.04426 18.9738 0.
-0.109264 -0.245322 0.
-0.0561004 -0.126212 0.
2.5099 6.07546 0.
-0.124645 -6.26507 0.
-234.807 -552.552 0.
-0.174397 -2.61182 0.
-20.8875 -40.8212 0.
-97.4144 -189.515 0.
-220.003 -427.026 0.
-723.542 -1853.2 0.
-236.228 -609.225 0.
-112.763 -305.263 0.
-690.034 -1700.19 0.
-508.652 -1299.65 0.
-350.81 -875.565 0.
-701.508 -1706.29 0.
-637.385 -1591.08 0.
-576.329 -1472.81 0.
-1077.93 -2303.95 0.
-1108.49 -2375.27 0.
-816.93 -2035.35 0.
-786.916 -1979.3 0.
-757.169 -1922.99 0.
-833.99 -1936.83 0.
-815.61 -1936.28 0.
-798.112 -1934.85 0.
-829.319 -1912.52 0.
-826.848 -1951.23 0.
-825.208 -1989.1 0.
-1152.25 -2344.84 0.
-1160.98 -2365.22 0.
-817.094 -2070.23 0.
-802.516 -2041.68 0.
-788.146 -2012.92 0.
-806.513 -2019.93 0.
-801.476 -2026.52 0.
-797.554 -2031.99 0.
-814.898 -2037.23 0.
-815.007 -2057.54 0.
-816.367 -2076.59 0.
-901.914 -2121.69 0.
-907.061 -2140.08 0.
-1104.33 -2295.17 0.
-1000.47 -2303.23 0.
-994.292 -2288.81 0.
-833.494 -2085.13 0.
-830.722 -2066.52 0.
-828.649 -2047.2 0.
-806.224 -2040.07 0.
-815.753 -2045.97 0.
-826.253 -2050.89 0.
-795.895 -2028.59 0.
-805.999 -2045.68 0.
-816.267 -2062.6 0.
-1135.88 -2338.96 0.
-1115.2 -2290.72 0.
-806.367 -1902.6 0.
-810.894 -1860.81 0.
-816.438 -1818 0.
-783.583 -1852.15 0.
-789.355 -1832.98 0.
-798.301 -1810.63 0.
-738.883 -1790.56 0.
-784.444 -1883 0.
-830.303 -1975.15 0.
-1089.97 -2306.17 0.
-1084.14 -2242.49 0.
-549.742 -1351.09 0.
-621.249 -1571.41 0.
-712.782 -1799.71 0.
-225.005 -568.922 0.
-440.477 -1168.05 0.
-684.092 -1739.03 0.
-62.066 -165.6 0.
-170.298 -429.967 0.
-630.095 -1556.62 0.
-106.175 -223.265 0.
-120.927 -232.153 0.
-180.463 -331.951 0.
1.88471 4.59813 0.
-118.463 -271.463 0.
-0.0951157 -5.3614 0.
-0.314374 -5.25015 0.
5.20093 11.5848 0.
7.46136 13.4428 0.
1.99655 3.46274 0.
7.92573 13.2583 0.
18.1467 46.7293 0.
2.20537 5.50833 0.
-0.31449 -40.8329 0.
-0.257179 -39.8093 0.
-284.583 -778.077 0.
-10.0136 -27.6941 0.
-8.12888 -22.2151 0.
1.35407 3.69391 0.
3.4992 9.56107 0.
-530.023 -1465.13 0.
11.4924 31.7274 0.
-1468.06 -3529.14 0.
4.82289 11.9001 0.
8.63213 22.1544 0.
-2173.79 -5748.84 0.
0.778771 2.0738 0.
1.28618 3.4615 0.
-2760.02 -6543.31 0.
-16.0667 -41.2518 0.
-1729.18 -3072.96 0.
-1019.44 -1862.43 0.
-335.84 -625.748 0.
-1867.48 -4493.15 0.
-954.254 -2430.5 0.
-130.758 -315.075 0.
-1400.82 -3151.51 0.
-913.276 -2181.14 0.
-460.244 -1176.26 0.
-979.078 -2178.13 0.
-728.223 -1706.38 0.
-487.791 -1224.21 0.
-998.872 -2072.83 0.
-887.512 -1892.07 0.
-583.585 -1451.68 0.
-545.888 -1393.18 0.
-509.054 -1333.81 0.
-573.764 -1345.14 0.
-560.409 -1333.69 0.
-547.542 -1321.75 0.
-549.353 -1309.48 0.
-536.994 -1291 0.
-524.79 -1272.36 0.
-846.897 -1656.37 0.
-844.627 -1651.08 0.
-523.337 -1290.65 0.
-538.104 -1333.67 0.
-553.007 -1376.55 0.
-554.247 -1400.88 0.
-543.595 -1383.54 0.
-533.558 -1365.59 0.
-549.661 -1361.95 0.
-544.848 -1350.06 0.
-540.301 -1337.91 0.
-602.086 -1411.51 0.
-575.105 -1402.1 0.
-799.286 -1509.51 0.
-648.591 -1539.4 0.
-655.489 -1555.49 0.
-530.706 -1344.96 0.
-542.853 -1372.38 0.
-567.092 -1387.72 0.
-545.321 -1372.94 0.
-543.374 -1363.23 0.
-541.64 -1353.31 0.
-521.326 -1320.31 0.
-511.846 -1292.13 0.
-502.39 -1263.93 0.
-811.373 -1618.9 0.
-812.467 -1621.43 0.
-533.85 -1224 0.
-548.024 -1246.82 0.
-562.327 -1269.51 0.
-559.472 -1290.3 0.
-573.808 -1302.86 0.
-588.324 -1315.25 0.
-525.509 -1291.83 0.
-583.254 -1389.95 0.
-638.692 -1490.39 0.
-942.399 -1885.04 0.
-1068.72 -2104.29 0.
-444.023 -1130.08 0.
-785.263 -1859.61 0.
-1131.82 -2551.99 0.
-406.117 -1053.47 0.
-979.268 -2366.72 0.
-1602.4 -3629.98 0.
-117.773 -297.078 0.
-1025.64 -2546.61 0.
-2207.46 -5235.95 0.
-440.306 -959.488 0.
-1130.56 -2299.67 0.
-1872.17 -3588.48 0.
0.707737 1.83512 0.
-2831.44 -6783.82 0.
3.84972 10.3525 0.
-0.16438 -10.9389 0.
-1940.28 -5137.73 0.
-204.337 -485.033 0.
-550.178 -1268.71 0.
-361.476 -990.331 0.
5.96231 16.4262 0.
-24.5476 -67.8486 0.
14.8877 40.5309 0.
-0.344857 -41.022 0.
-465.544 -1263.06 0.
-2.98697 -7.96888 0.
-151.709 -411.207 0.
15.9591 43.3265 0.
5.81124 15.8029 0.
-305.414 -845.56 0.
6.64823 18.4088 0.
10.6027 29.362 0.
0.487026 1.22423 0.
-0.369035 -13.6078 0.
-212.074 -573.811 0.
-2.05098 -5.6018 0.
-0.0177969 -6.88621 0.
-44.8912 -120.631 0.
1.28887 3.56381 0.
-76.6953 -130.896 0.
-109.62 -198.241 0.
-213.919 -405.098 0.
-554.77 -1440.16 0.
-143.102 -362.356 0.
-35.2945 -91.2835 0.
-660.777 -1598.52 0.
-238.379 -561.262 0.
-135.769 -342.858 0.
-606.878 -1492.27 0.
-385.498 -990.645 0.
-187.281 -465.861 0.
-790.936 -1770.11 0.
-699.242 -1569.61 0.
-526.466 -1353.68 0.
-495.187 -1288.75 0.
-463.622 -1224.11 0.
-526.361 -1273.26 0.
-515.311 -1259.5 0.
-502.452 -1247.56 0.
-525.133 -1258.94 0.
-510.586 -1242.65 0.
-498.268 -1224.13 0.
-834.45 -1651 0.
-832.178 -1645.71 0.
-514.285 -1263.74 0.
-528.962 -1306.85 0.
-543.794 -1349.81 0.
-543.626 -1339.54 0.
-533.452 -1321.72 0.
-523.919 -1303.27 0.
-532.463 -1331.13 0.
-527.922 -1318.97 0.
-523.569 -1306.62 0.
-590.619 -1409.71 0.
-566.313 -1397.63 0.
-756.846 -1486.22 0.
-638.639 -1535.1 0.
-645.538 -1551.2 0.
-519.686 -1301.55 0.
-531.46 -1329.35 0.
-543.646 -1356.74 0.
-522.277 -1321.03 0.
-520.553 -1311.1 0.
-520 -1299.99 0.
-508.764 -1307.88 0.
-499.865 -1279.12 0.
-491.091 -1250.23 0.
-790.713 -1610.01 0.
-791.807 -1612.54 0.
-500.122 -1172.73 0.
-514.223 -1195.62 0.
-533.743 -1213.09 0.
-503.825 -1196.15 0.
-518.088 -1208.79 0.
-532.096 -1221.68 0.
-444.921 -1123.09 0.
-484.929 -1238.97 0.
-536.944 -1342.85 0.
-679.567 -1480.37 0.
-787.641 -1717.99 0.
-160.765 -417.089 0.
-359.115 -948.193 0.
-662.044 -1684.92 0.
-80.1129 -217.384 0.
-164.735 -427.272 0.
-653.624 -1612.51 0.
-2.23844 -5.84277 0.
-95.1 -240.414 0.
-583.564 -1455.86 0.
-0.292796 -3.78142 0.
-24.0584 -53.8994 0.
-110.077 -239.92 0.
2.58333 7.05782 0.
-0.867853 -2.27411 0.
-0.0154599 -4.98514 0.
1.11287 3.04364 0.
-218.689 -594.165 0.
-35.4225 -90.7323 0.
-201.45 -497.944 0.
9.96148 27.4259 0.
15.3873 42.5191 0.
-83.2116 -230.371 0.
4.0094 10.9353 0.
5.88122 15.9989 0.
-122.141 -337.996 0.
-2.98959 -8.0568 0.
-282.581 -768.508 0.
7.61927 20.5703 0.
-7.59684 -20.5444 0.
-272.364 -748.646 0.
5.03802 13.8358 0.
-0.0775261 -18.7609 0.
8.65013 22.0693 0.
2.33977 6.15238 0.
-3.88628 -10.692 0.
-0.00956025 -12.0375 0.
-4.87482e-05 -14.2455 0.
-0.501356 -1.38754 0.
-0.0193111 -3.58289 0.
-1.64855 -2.78269 0.
-113.514 -201.762 0.
-217.618 -410.732 0.
-157.913 -410.383 0.
-52.1628 -137.541 0.
-0.017825 -2.43574 0.
-98.8247 -232.846 0.
-54.2824 -139.75 0.
-23.1483 -63.7204 0.
-293.572 -747.509 0.
-133.96 -336.5 0.
-109.237 -287.363 0.
-625.001 -1425.39 0.
-548.271 -1209.84 0.
-483.567 -1241.46 0.
-456.305 -1172.51 0.
-436.287 -1096.31 0.
-484.591 -1195.75 0.
-471.304 -1184.23 0.
-458.686 -1172.04 0.
-508.96 -1200.36 0.
-493.989 -1184.49 0.
-479.259 -1168.38 0.
-822.002 -1645.63 0.
-819.729 -1640.35 0.
-505.877 -1236.19 0.
-520.458 -1279.4 0.
-535.197 -1322.45 0.
-533.744 -1277.46 0.
-524.119 -1259.1 0.
-514.809 -1240.41 0.
-520.27 -1295.3 0.
-515.78 -1283.09 0.
-511.378 -1270.78 0.
-574.747 -1412.32 0.
-557.274 -1393.4 0.
-758.038 -1499.24 0.
-634.546 -1524.95 0.
-641.63 -1540.86 0.
-508.931 -1257.88 0.
-520.512 -1285.87 0.
-532.279 -1313.68 0.
-505.427 -1262.92 0.
-503.649 -1253.04 0.
-502.325 -1242.71 0.
-509.143 -1282.5 0.
-500.369 -1253.61 0.
-491.749 -1224.57 0.
-770.053 -1601.12 0.
-771.148 -1603.66 0.
-475.046 -1112.8 0.
-494.375 -1130.46 0.
-513.836 -1148 0.
-461.169 -1089.02 0.
-476.392 -1100.7 0.
-490.545 -1113.44 0.
-406.719 -911.966 0.
-435.541 -1039.06 0.
-468.483 -1162.03 0.
-476.421 -1016.01 0.
-566.449 -1271.8 0.
-94.4699 -260.911 0.
-137.838 -370.364 0.
-277.782 -732.344 0.
0.742136 2.05481 0.
-15.2867 -41.8993 0.
-98.1417 -261.378 0.
-0.24082 -0.637474 0.
-0.0359074 -0.0933397 0.
-81.0423 -204.456 0.
0.826624 2.063 0.
-0.150998 -2.19028 0.
0.0316319 4.37765 0.
-0.00144662 -12.1447 0.
0.971938 2.6433 0.
-6.07172e-05 -4.03861 0.
3.63895 10.0627 0.
-0.0997777 -0.27507 0.
8.96382 24.0764 0.
-38.6919 -100.906 0.
0.987035 2.72677 0.
1.49646 4.1428 0.
-318.11 -881.092 0.
5.30753 14.5015 0.
15.5524 42.3904 0.
-405.294 -1122.04 0.
-0.56501 -27.5404 0.
-0.555864 -41.6452 0.
3.352 8.77976 0.
8.69122 22.9661 0.
-19.0773 -51.5533 0.
-14.5775 -39.3867 0.
-9.44874 -25.525 0.
-927.008 -2498.39 0.
7.81556 20.9105 0.
-1184.43 -3223.45 0.
-38.326 -104.497 0.
4.9657 13.5998 0.
-1911.7 -5142.65 0.
-68.6594 -187.95 0.
-0.00247434 -11.7072 0.
-2341.81 -5327.79 0.
-413.444 -980.263 0.
-2133.55 -5076.66 0.
-719.093 -1793.24 0.
-125.741 -325.75 0.
-1831.01 -4429.9 0.
-869.181 -2220.69 0.
-191.195 -506.142 0.
-1415.84 -3511.45 0.
-836.312 -2171.01 0.
-300.562 -786.797 0.
-1256.41 -3046.09 0.
-998.958 -2504.89 0.
-947.724 -2385.13 0.
-803.096 -2088.61 0.
-666.034 -1784.53 0.
-801.58 -1948.31 0.
-749.743 -1874.62 0.
-698.713 -1800.12 0.
-794.094 -1899.02 0.
-767.931 -1874.23 0.
-742.641 -1848.57 0.
-1095.04 -2380.06 0.
-1090.8 -2370.18 0.
-765.891 -1931.88 0.
-756.602 -1918.74 0.
-747.914 -1905.01 0.
-732.263 -1877.81 0.
-734.469 -1887.1 0.
-736.999 -1896.08 0.
-768.923 -1935.45 0.
-752.283 -1911.09 0.
-741.118 -1881.25 0.
-824.242 -2050.52 0.
-816.466 -2061.76 0.
-1008.72 -2189.82 0.
-890.701 -2199.86 0.
-890.446 -2199.27 0.
-733.554 -1895.24 0.
-740.775 -1910.07 0.
-758.204 -1914.69 0.
-727.019 -1879.51 0.
-726.806 -1875.87 0.
-726.73 -1872.1 0.
-722.302 -1899.56 0.
-733.078 -1916.98 0.
-745.709 -1932.54 0.
-1065.47 -2355.26 0.
-1070.03 -2365.9 0.
-725.277 -1788.58 0.
-755.896 -1821.2 0.
-787.74 -1852.59 0.
-669.079 -1717.7 0.
-744.14 -1839.2 0.
-821.008 -1958.88 0.
-626.323 -1667.72 0.
-802.121 -2061.66 0.
-987.909 -2445.62 0.
-997.833 -2532.24 0.
-1352.65 -3292.62 0.
-238.316 -638.279 0.
-881.409 -2303.92 0.
-1594.47 -3942.02 0.
-155.042 -408.012 0.
-869.229 -2218.48 0.
-2060.09 -5016.51 0.
-71.6901 -178.508 0.
-655.584 -1577.61 0.
-2121.63 -5095.01 0.
-302.786 -730.973 0.
-2968.79 -6932.72 0.
2.65609 7.32609 0.
-0.0989193 -14.7451 0.
-1813.1 -4865.63 0.
3.49295 9.58673 0.
-3.74123 -10.2509 0.
-892.205 -2437.02 0.
4.21283 11.5168 0.
-629.729 -1710.6 0.
-0.0596898 -36.9644 0.
-4.55268 -12.5405 0.
-154.256 -424.178 0.
-0.680393 -44.8634 0.
0.400313 1.04883 0.
-96.028 -263.867 0.
-0.601207 -35.227 0.
1.86228 5.03129 0.
10.7378 27.8947 0.
7.68485 20.1502 0.
-173.67 -469.27 0.
-8.28469 -22.3846 0.
6.64224 17.9439 0.
-679.242 -1858.86 0.
-0.167283 -27.6246 0.
-313.828 -861.099 0.
4.82883 13.2868 0.
-0.0287304 -19.6633 0.
-206.129 -560.053 0.
1.09818 3.02841 0.
5.40672 14.9723 0.
-321.852 -823.44 0.
0.343369 0.913189 0.
-230.476 -570.341 0.
1.44712 3.72854 0.
0.603096 1.5747 0.
-461.89 -1180.67 0.
-111.498 -295.817 0.
0.963137 2.58544 0.
-722.921 -1901.66 0.
-226.001 -593.426 0.
-165.219 -443.19 0.
-902.119 -2367.02 0.
-678.793 -1791.27 0.
-716.57 -1915.19 0.
-587.176 -1603.28 0.
-469.127 -1280.02 0.
-692.029 -1748.32 0.
-643.5 -1671.3 0.
-602.646 -1586.61 0.
-753.195 -1794.27 0.
-727.791 -1768.72 0.
-703.162 -1742.39 0.
-1043.48 -2357.93 0.
-1039.24 -2348.04 0.
-741.678 -1851.76 0.
-732.569 -1838.44 0.
-724.025 -1824.56 0.
-718.492 -1832.18 0.
-720.249 -1841.93 0.
-722.32 -1851.36 0.
-753.75 -1897.65 0.
-742.593 -1867.8 0.
-731.629 -1837.76 0.
-808.852 -2034.83 0.
-793.041 -2054.11 0.
-1005.14 -2185.76 0.
-879.83 -2166.95 0.
-881.487 -2164.45 0.
-719.177 -1843.24 0.
-726.186 -1858.28 0.
-733.596 -1872.93 0.
-718.509 -1839.66 0.
-716.945 -1837.38 0.
-716.584 -1833.89 0.
-695.751 -1806.45 0.
-707.266 -1823.13 0.
-719.658 -1838.93 0.
-1033.71 -2338.15 0.
-1042.5 -2344.55 0.
-665.998 -1649.83 0.
-695.619 -1683.45 0.
-726.411 -1715.9 0.
-545.723 -1425.28 0.
-590.773 -1576.82 0.
-662.283 -1701.91 0.
-365.073 -1003.37 0.
-518.293 -1420.17 0.
-682.918 -1825.56 0.
-578.09 -1570 0.
-893.585 -2370.52 0.
-86.2021 -237.104 0.
-199.269 -536.067 0.
-682.037 -1798.82 0.
0.555836 1.52695 0.
-64.1124 -171.866 0.
-449.38 -1156.07 0.
0.217328 0.56987 0.
1.12241 2.78919 0.
-243.83 -577.94 0.
0.0875159 0.229269 0.
-71.1462 -179.952 0.
3.25559 9.01227 0.
2.08088 5.7524 0.
-308.192 -844.062 0.
0.566845 1.5596 0.
6.64243 18.2476 0.
-522.201 -1433.57 0.
-2.9983 -8.26848 0.
-724.371 -1990.61 0.
6.8503 18.8158 0.
-3.37434 -9.24892 0.
-145.32 -397.518 0.
7.44655 19.8424 0.
-4.81052 -12.5463 0.
-89.6846 -247.158 0.
9.0592 24.2974 0.
-68.4749 -186.171 0.
-245.896 -632.963 0.
-142.542 -370.601 0.
-374.248 -1011.09 0.
-62.0289 -167.596 0.
3.84842 10.3965 0.
-69.4368 -191.78 0.
-3.06892 -8.48507 0.
-673.708 -1862.33 0.
-220.045 -607.911 0.
-45.4842 -125.557 0.
-1239.49 -3432.11 0.
-107.314 -296.877 0.
4.44128 12.2121 0.
-1806.75 -4964.29 0.
1.05594 2.86936 0.
-2012.71 -4857.43 0.
-436.841 -1088.74 0.
-32.1425 -84.7002 0.
-1873.63 -4841.21 0.
-573.257 -1541.29 0.
-47.7505 -129.799 0.
-1569.22 -4038.17 0.
-718.81 -1912.48 0.
-115.121 -307.809 0.
-1337.12 -3345.47 0.
-860.668 -2252.83 0.
-907.876 -2276.12 0.
-675.701 -1771.54 0.
-457.682 -1252.8 0.
-733.709 -1816.27 0.
-604.005 -1555.6 0.
-480.259 -1288.98 0.
-636.476 -1487.88 0.
-543.815 -1299.68 0.
-445.023 -1117.61 0.
-775.737 -1801.28 0.
-757.682 -1772.23 0.
-501.421 -1210.36 0.
-504.836 -1224.89 0.
-508.462 -1239.21 0.
-510.69 -1283.09 0.
-502.758 -1263.22 0.
-495.263 -1242.92 0.
-524.644 -1273.66 0.
-500.71 -1210.93 0.
-477.032 -1147.95 0.
-523.115 -1356.83 0.
-511.87 -1324.9 0.
-669.168 -1410.11 0.
-602.917 -1419.36 0.
-616.29 -1451.75 0.
-463.568 -1156.08 0.
-485.581 -1216.11 0.
-507.662 -1276.08 0.
-496.178 -1262.29 0.
-504.661 -1284.03 0.
-514.853 -1304.05 0.
-491.015 -1239.89 0.
-494.285 -1243.28 0.
-498.016 -1246.22 0.
-773.447 -1819.23 0.
-803.851 -1854.51 0.
-430.553 -1075.73 0.
-546.282 -1306.73 0.
-659.778 -1539.95 0.
-461.43 -1240.97 0.
-625.762 -1598.42 0.
-799.195 -1946.76 0.
-419.413 -1149.24 0.
-706.697 -1849.15 0.
-1014.11 -2528.93 0.
-881.218 -2307.44 0.
-1460.04 -3644.88 0.
-66.2318 -177.575 0.
-696.084 -1849.51 0.
-1736.04 -4489.93 0.
-2.87232 -7.74848 0.
-544.153 -1451.66 0.
-2000.49 -5225.3 0.
-54.9061 -142.051 0.
-483.852 -1215.55 0.
-2022.82 -5009.36 0.
-0.0986931 -9.60039 0.
-1787.09 -4799.53 0.
4.69506 12.8406 0.
-0.0408942 -13.5229 0.
-1025.95 -2836.45 0.
-39.6886 -109.719 0.
-145.96 -403.263 0.
-392.786 -1084.24 0.
8.02939 22.0051 0.
-130.839 -361.737 0.
-0.18847 -30.4459 0.
-0.263051 -36.5154 0.
-395.727 -1075.39 0.
-114.403 -303.789 0.
-41.0072 -106.39 0.
-98.9688 -273.372 0.
-1.23575 -27.1081 0.
1.28015 3.29522 0.
0.249165 0.577258 0.
11.1673 26.2991 0.
-9.5955 -23.9103 0.
-1.3666 -32.8196 0.
7.87663 20.0879 0.
-361.694 -991.926 0.
-0.0911993 -26.2222 0.
-422.474 -1168.02 0.
-15.4389 -42.6706 0.
-5.37908 -14.8535 0.
-434.079 -1200.29 0.
5.60799 15.3967 0.
0.32377 0.878028 0.
-258.994 -716.473 0.
-0.627567 -1.73794 0.
-443.162 -1087.67 0.
0.181508 0.466424 0.
-0.0723327 -5.13052 0.
-562.382 -1517.67 0.
0.174619 0.470176 0.
1.40917 3.8367 0.
-640.417 -1737.8 0.
-136.244 -374.966 0.
-22.6356 -62.6684 0.
-752.06 -2031.84 0.
-323.579 -889.681 0.
-574.44 -1538.26 0.
-367.093 -1008.43 0.
-188.471 -505.456 0.
-535.655 -1412.16 0.
-418.537 -1138.79 0.
-310.75 -856.081 0.
-528.313 -1311.11 0.
-439.853 -1118.66 0.
-365.597 -923.262 0.
-732.132 -1720.28 0.
-705.649 -1699.66 0.
-464.742 -1155.36 0.
-468.294 -1169.76 0.
-471.932 -1184.07 0.
-487.838 -1229.08 0.
-480.505 -1208.62 0.
-473.797 -1187.52 0.
-508.3 -1258.84 0.
-484.25 -1196.22 0.
-460.387 -1133.42 0.
-524.971 -1355.23 0.
-514.013 -1323.02 0.
-605.915 -1378.5 0.
-604.718 -1403.73 0.
-617.954 -1436.26 0.
-459.396 -1139.39 0.
-481.393 -1199.44 0.
-503.552 -1259.33 0.
-466.893 -1199.26 0.
-474.45 -1221.92 0.
-483.082 -1243.51 0.
-464.559 -1173.64 0.
-467.678 -1177.19 0.
-471.239 -1180.29 0.
-701.254 -1709.5 0.
-735.39 -1741.06 0.
-317.332 -839.079 0.
-417.099 -1084.94 0.
-525.878 -1322.95 0.
-245.157 -671.182 0.
-386.159 -1052.17 0.
-541.147 -1419.18 0.
-165.83 -453.987 0.
-312.273 -851.122 0.
-587.898 -1563.41 0.
-240.118 -640.055 0.
-749.093 -1991.54 0.
0.219913 0.608781 0.
-124.689 -338.796 0.
-665.691 -1801.98 0.
1.50372 4.16173 0.
-8.49437 -23.2993 0.
-598.275 -1615.96 0.
1.66287 4.38654 0.
-0.217148 -6.48371 0.
-358.606 -890.823 0.
3.84277 10.5705 0.
-407.536 -1112.85 0.
-0.154386 -12.3801 0.
0.42065 1.14255 0.
-609.921 -1671.41 0.
-24.743 -68.2659 0.
-73.9537 -203.933 0.
-387.568 -1067.85 0.
8.96474 24.4004 0.
-293.15 -800.265 0.
-0.927112 -28.6787 0.
14.739 37.1884 0.
4.31009 10.6621 0.
7.96277 19.1997 0.
-5.22093 -12.3258 0.
-0.509993 -1.38022 0.
-2.90727 -7.34976 0.
-0.439183 -1.1425 0.
6.95125 16.1136 0.
-44.385 -104.621 0.
-341.588 -841.842 0.
-180.539 -450.103 0.
-177.788 -448.764 0.
-668.539 -1811.28 0.
-3.94841 -10.7218 0.
-171.288 -473.751 0.
-4.70097 -12.9955 0.
3.5464 9.79541 0.
-45.8095 -125.66 0.
-0.150215 -16.8095 0.
7.3554 19.5913 0.
-24.8553 -68.6203 0.
0.25861 0.708996 0.
-0.276732 -6.53296 0.
1.01164 2.65287 0.
-0.0287923 -3.04956 0.
-0.0540291 -4.4414 0.
0.052028 0.141511 0.
-0.0178987 -4.48981 0.
-173.267 -479.893 0.
-46.8819 -128.298 0.
0.906878 2.37149 0.
-270.241 -733.986 0.
-194.785 -537.306 0.
-280.1 -761.297 0.
-165.212 -439.264 0.
-146.295 -397.239 0.
-359.013 -986.641 0.
-259.19 -695.849 0.
-218.767 -582.916 0.
-428.788 -1125.69 0.
-352.976 -920.559 0.
-303.18 -804.908 0.
-697.35 -1630.46 0.
-671.973 -1608.73 0.
-426.029 -1102.4 0.
-431.514 -1114.87 0.
-436.016 -1128.31 0.
-467.174 -1172.88 0.
-461.135 -1151.12 0.
-455.563 -1128.89 0.
-494.086 -1241.89 0.
-470.174 -1179.13 0.
-446.3 -1116.34 0.
-529.022 -1351.43 0.
-518.159 -1319.13 0.
-622.487 -1384.03 0.
-608.947 -1385.67 0.
-621.892 -1418.49 0.
-456.169 -1121.75 0.
-478.229 -1181.74 0.
-500.174 -1241.84 0.
-446.314 -1127.52 0.
-452.575 -1151.48 0.
-459.139 -1175.13 0.
-438.653 -1106.85 0.
-441.413 -1110.75 0.
-442.932 -1115.9 0.
-640.54 -1588.3 0.
-672.602 -1621.93 0.
-260.685 -669.803 0.
-311.85 -839.217 0.
-403.578 -1094.34 0.
-162.487 -445.659 0.
-182.411 -491.833 0.
-314.104 -860.582 0.
-100.591 -278.168 0.
-124.05 -335.933 0.
-208.193 -551.375 0.
-129.796 -354.247 0.
-232.975 -619.806 0.
0.230953 0.635475 0.
-5.71921 -15.8309 0.
-184.686 -506.607 0.
-0.00957109 -3.38641 0.
1.41519 3.91979 0.
-19.7276 -54.4511 0.
-0.057591 -4.09032 0.
3.3599 8.79599 0.
0.402608 1.02712 0.
2.18146 6.0405 0.
3.38104 9.32922 0.
1.49705 3.94128 0.
-0.317886 -20.4728 0.
-189.341 -511.177 0.
-37.0743 -102.005 0.
-79.4204 -218.407 0.
-382.466 -1051.37 0.
-1.89999 -5.12886 0.
-678.817 -1839.28 0.
7.32049 18.6373 0.
-12.7826 -31.8815 0.
-221.201 -540.553 0.
0.602578 1.45664 0.
-0.891462 -2.10932 0.
-0.19568 -26.1192 0.
7.74639 19.8301 0.
-8.625 -22.6941 0.
-316.875 -734.556 0.
-67.9745 -160.388 0.
12.8786 30.7978 0.
1.41386 3.43516 0.
1.58096 3.90138 0.
3.67034 9.73529 0.
-0.587105 -26.908 0.
-142.5 -389.886 0.
-75.6002 -207.376 0.
-70.6277 -194.149 0.
-713.466 -1940.94 0.
5.57991 15.1395 0.
-0.172409 -18.2948 0.
-1351.97 -3733.63 0.
2.2367 6.15574 0.
-1669.46 -4355.17 0.
-326.999 -865.558 0.
-0.139033 -0.373914 0.
-1996.81 -5274.46 0.
-422.455 -1148.8 0.
-0.00928206 -5.60481 0.
-1819.35 -4889.55 0.
-574.973 -1585.89 0.
-16.8959 -45.1016 0.
-1554.6 -4110.87 0.
-761.058 -2078.27 0.
-1218.93 -3179.51 0.
-788.948 -2127.64 0.
-383.12 -1051.62 0.
-955.819 -2503.57 0.
-704.002 -1906.31 0.
-468.171 -1293.07 0.
-813.977 -2159.16 0.
-677.54 -1838.29 0.
-548.378 -1510.15 0.
-1011.48 -2493.11 0.
-955.17 -2393.5 0.
-712.136 -1898.35 0.
-675.776 -1812.95 0.
-640.07 -1726.91 0.
-680.568 -1754.19 0.
-664.147 -1716.81 0.
-649.499 -1677.65 0.
-701.596 -1787.57 0.
-684.002 -1737.4 0.
-666.728 -1686.91 0.
-776.507 -1937.96 0.
-743.671 -1939.47 0.
-885.757 -2021.95 0.
-837.491 -2008.38 0.
-841.92 -2019.55 0.
-655.94 -1656.72 0.
-681.628 -1728.72 0.
-708.16 -1799.87 0.
-643.861 -1691.59 0.
-664.573 -1745.21 0.
-687.315 -1796.8 0.
-646.236 -1741 0.
-685.181 -1834.21 0.
-726.388 -1925.16 0.
-940.662 -2392.3 0.
-1021.62 -2541.84 0.
-513.832 -1415.49 0.
-686.468 -1857.23 0.
-869.899 -2288.18 0.
-408.521 -1123.6 0.
-715.439 -1926.16 0.
-1042.4 -2708.69 0.
-294.751 -801.836 0.
-776.793 -2079.31 0.
-1284.42 -3331.19 0.
-707.27 -1920.1 0.
-1678.29 -4429.31 0.
-29.9956 -83.0744 0.
-550.049 -1510.86 0.
-1886.63 -5095.4 0.
2.16696 5.99798 0.
-361.12 -994.276 0.
-2069.37 -5612.18 0.
2.48833 6.63675 0.
-362.739 -955.203 0.
-1677.91 -4390.59 0.
-0.300086 -0.830074 0.
-1245.99 -3450.52 0.
3.01925 8.11018 0.
4.46126 11.9909 0.
-323.068 -866.624 0.
-7.94518 -21.7727 0.
-102.002 -279.253 0.
-195.661 -535.172 0.
3.87624 10.2525 0.
-0.386254 -1.01712 0.
-6.57361 -16.0414 0.
5.70795 13.799 0.
-47.0199 -113.208 0.
-241.353 -584.681 0.
-96.5417 -228.854 0.
6.5552 17.9248 0.
6.28005 15.638 0.
4.74412 12.3383 0.
-3.8816 -8.69976 0.
-2.58077 -30.2021 0.
-3.25927 -7.7302 0.
-6.35918 -15.3314 0.
-5.83557 -14.2984 0.
-197.938 -518.328 0.
-3.9233 -10.1812 0.
-757.476 -2067.41 0.
-52.1294 -142.871 0.
-46.2802 -127.13 0.
-867.59 -2334.27 0.
4.94805 13.2912 0.
-0.296218 -20.9561 0.
-397.844 -1093.17 0.
1.07078 2.91199 0.
-355.084 -940.922 0.
-0.109617 -8.40107 0.
-0.0573692 -7.72365 0.
-409.064 -1119.2 0.
1.90278 5.26769 0.
-0.00269719 -2.99387 0.
-600.742 -1659.78 0.
-63.9331 -175.067 0.
-0.0349455 -2.15373 0.
-751.583 -2056.22 0.
-268.459 -741.638 0.
-677.328 -1834.41 0.
-276.034 -752.395 0.
-213.524 -588.789 0.
-654.348 -1782.57 0.
-423.552 -1163.84 0.
-305.808 -828.827 0.
-654.129 -1791.77 0.
-529.778 -1458.7 0.
-426.424 -1123.8 0.
-908.724 -2296.09 0.
-855.769 -2193.08 0.
-658.041 -1780.32 0.
-622.189 -1694.41 0.
-586.918 -1607.91 0.
-658.326 -1699.96 0.
-642.99 -1661.49 0.
-629.208 -1621.47 0.
-693.605 -1730.95 0.
-676.248 -1680.54 0.
-659.215 -1629.81 0.
-751.832 -1926.28 0.
-730.021 -1916.77 0.
-867.972 -2011.87 0.
-838.459 -1994.79 0.
-844.962 -2003.89 0.
-641.268 -1593.57 0.
-666.061 -1666.47 0.
-691.781 -1738.44 0.
-616.653 -1607.92 0.
-635.983 -1662.92 0.
-656.7 -1716.54 0.
-592.748 -1575.14 0.
-628.141 -1671.91 0.
-664.943 -1767.27 0.
-841.563 -2121.77 0.
-914.524 -2279.35 0.
-359.449 -962.41 0.
-494.106 -1358.1 0.
-660.744 -1806.06 0.
-253.25 -694.423 0.
-353.075 -961.764 0.
-655.85 -1769.24 0.
-146.987 -405.73 0.
-231.257 -629.512 0.
-636.325 -1703.36 0.
-212.279 -585.32 0.
-741.811 -2019.9 0.
0.573063 1.57087 0.
-50.4145 -139.632 0.
-586.411 -1611.36 0.
1.35537 3.74978 0.
-0.22359 -0.619186 0.
-481.379 -1328.26 0.
-0.626751 -1.69232 0.
-0.14427 -10.2035 0.
-441.61 -1171.25 0.
2.52109 6.89159 0.
-556.642 -1535.79 0.
3.12141 8.36729 0.
-0.300216 -22.1073 0.
-893.137 -2379.07 0.
-77.7258 -211.82 0.
-193.23 -526.15 0.
-537.17 -1411.25 0.
2.23253 5.83449 0.
-25.5242 -66.414 0.
-36.1178 -88.5149 0.
10.1094 24.5445 0.
3.83087 9.21162 0.
-4.58305 -10.8903 0.
12.1506 27.4656 0.
-0.00649326 -0.0173148 0.
-0.964449 -22.0016 0.
-81.166 -213.087 0.
0.301811 0.67843 0.
-375.66 -870.296 0.
-233.828 -550.064 0.
-191.156 -457.259 0.
-194.642 -473.496 0.
-424.484 -1097.83 0.
0.462302 1.18144 0.
-279.268 -761.879 0.
-85.2267 -233.288 0.
-34.2186 -93.9213 0.
-309.896 -810.322 0.
-8.85517 -23.0552 0.
-0.569214 -19.8058 0.
-801.674 -2130.13 0.
0.611417 1.60736 0.
-1046.31 -2883.39 0.
-131.045 -361.258 0.
-0.00480837 -9.8021 0.
-1687.45 -4672.96 0.
-57.6432 -158.587 0.
1.82782 4.9785 0.
-1686.75 -4641.94 0.
-314.323 -870.144 0.
1.4209 3.88172 0.
-1564.72 -4186.15 0.
-495.697 -1354.41 0.
-1211.96 -3172.78 0.
-665.804 -1789.26 0.
-197.923 -544.019 0.
-1025.01 -2693.81 0.
-633.87 -1712.28 0.
-260.586 -712.892 0.
-780.401 -2052.55 0.
-545.026 -1472.96 0.
-322.748 -880.273 0.
-817.439 -2059.45 0.
-695.741 -1801.04 0.
-514.984 -1388.05 0.
-462.114 -1262.62 0.
-411.277 -1135.15 0.
-490.204 -1263.17 0.
-457.344 -1179.52 0.
-426.023 -1094.32 0.
-487.174 -1178.62 0.
-455.186 -1093.53 0.
-387.158 -1044.49 0.
-493.773 -1298.38 0.
-469.921 -1233.36 0.
-557.054 -1290.86 0.
-570.671 -1308.26 0.
-590.968 -1358.41 0.
-365.673 -1008.55 0.
-449.105 -1088.15 0.
-493.549 -1206.74 0.
-425.767 -1083.59 0.
-466.619 -1192.75 0.
-509.059 -1300.32 0.
-419.971 -1130.54 0.
-481.019 -1287.54 0.
-545.197 -1441.42 0.
-724.175 -1832.71 0.
-892.028 -2212.14 0.
-300.686 -820.131 0.
-582.942 -1576.92 0.
-881.05 -2317.85 0.
-212.66 -585.489 0.
-648.982 -1748.4 0.
-1116.76 -2933.09 0.
-168.611 -463.012 0.
-649.318 -1752.06 0.
-1283.51 -3377.95 0.
-397.715 -1096.39 0.
-1572.17 -4271.01 0.
-2.70257 -7.47709 0.
-218.387 -604.072 0.
-1729.72 -4764.62 0.
0.814549 2.24731 0.
-5.71815 -15.8144 0.
-1542.97 -4266.07 0.
-0.0150232 -7.18454 0.
-146.477 -404.344 0.
-940.533 -2603.18 0.
0.48758 1.27477 0.
-861.145 -2314.39 0.
-118.34 -309.574 0.
-24.9673 -65.0679 0.
-135.468 -361.938 0.
-164.232 -444.68 0.
-378.577 -1024.56 0.
3.703 9.58944 0.
4.83424 12.4624 0.
-427.019 -1096.09 0.
-338.734 -834.166 0.
-156.972 -382.876 0.
-129.198 -312.119 0.
-317.058 -752.686 0.
-50.8411 -114.122 0.
-65.9829 -175.331 0.
3.08631 7.00041 0.
0.504127 1.19627 0.
8.9767 18.0187 0.
1.18106 2.49481 0.
10.9806 23.5668 0.
8.4665 18.4447 0.
-1.66802 -3.68614 0.
-1.85093 -26.3921 0.
-6.13264 -14.7549 0.
-121.95 -296.981 0.
-95.7783 -255.651 0.
-62.6217 -168.317 0.
-470.008 -1224.25 0.
1.68537 4.38033 0.
-1.8024 -4.66397 0.
-510.635 -1332.28 0.
5.10168 13.0974 0.
-586.937 -1620.41 0.
-2.09197 -5.78829 0.
1.58643 4.39408 0.
-848.158 -2337.07 0.
0.615021 1.66412 0.
2.89168 7.70503 0.
-753.478 -2086.78 0.
0.0534037 0.146249 0.
-0.210793 -0.572075 0.
-732.669 -2007.61 0.
-103.873 -287.707 0.
-616.807 -1655.23 0.
-169.886 -463.902 0.
-94.9702 -262.874 0.
-615.541 -1669.2 0.
-243.712 -667.332 0.
-171.909 -475.301 0.
-544.44 -1488.25 0.
-325.494 -891.893 0.
-227.915 -616.072 0.
-655.46 -1671.8 0.
-547.487 -1399.56 0.
-449.278 -1230.98 0.
-399.193 -1102.74 0.
-351.354 -972.252 0.
-452.932 -1186.48 0.
-420.111 -1102.78 0.
-387.326 -1019.04 0.
-456.659 -1137.33 0.
-425.117 -1051.79 0.
-361.184 -998.643 0.
-483.766 -1265.44 0.
-460.184 -1200.15 0.
-510.934 -1219.17 0.
-540.264 -1255.04 0.
-559.5 -1306.25 0.
-353.992 -964.41 0.
-428.785 -1052.65 0.
-476.348 -1168.13 0.
-370.428 -1004.4 0.
-422.122 -1102.73 0.
-463.283 -1211.59 0.
-335.632 -913.829 0.
-393.969 -1073.58 0.
-455.874 -1229.77 0.
-527.977 -1362.68 0.
-682.474 -1755.67 0.
-193.654 -532.918 0.
-295.455 -810.326 0.
-575.905 -1569.49 0.
-125.28 -346.972 0.
-181.15 -498.014 0.
-629.848 -1697.32 0.
-62.7485 -173.229 0.
-152.796 -419.19 0.
-615.863 -1665.41 0.
-86.6389 -239.796 0.
-743.684 -2051.55 0.
0.338915 0.936999 0.
0.575371 1.59368 0.
-723.312 -2002.19 0.
-0.972683 -2.67583 0.
1.86419 5.146 0.
-858.488 -2355.53 0.
-0.258736 -0.716564 0.
-147.027 -407.24 0.
-725.16 -2008.32 0.
2.7621 7.00455 0.
-481.796 -1263.87 0.
-173.589 -456.588 0.
-27.4667 -71.9136 0.
-184.02 -479.351 0.
-30.9562 -80.8519 0.
-205.829 -539.84 0.
-2.48735 -6.20833 0.
5.89265 14.3789 0.
10.9011 26.0033 0.
10.1176 23.0291 0.
-6.37669 -14.2123 0.
-1.05867 -2.30877 0.
-16.1494 -34.0115 0.
-0.060404 -0.120206 0.
5.72922 14.527 0.
-1.50238 -3.41982 0.
-0.309634 -0.739232 0.
-3.98405 -23.7545 0.
6.08613 12.8873 0.
-0.638793 -1.38079 0.
2.76989 6.07743 0.
-252.243 -560.31 0.
-420.252 -989.92 0.
8.49738 20.1931 0.
-618.231 -1492.07 0.
-364.781 -962.868 0.
-164.703 -438.144 0.
-680.75 -1765.07 0.
0.162853 0.422532 0.
1.44711 3.73818 0.
-225.586 -578.124 0.
6.88574 17.2482 0.
-128.779 -356.261 0.
1.60107 4.43465 0.
-0.150215 -0.415467 0.
-45.5984 -122.808 0.
-0.152997 -8.10718 0.
3.11025 8.06893 0.
-57.3273 -156.997 0.
-0.0377735 -5.2947 0.
1.17305 3.16078 0.
-103.237 -285.928 0.
0.954334 2.62542 0.
-147.249 -398.166 0.
-73.5096 -202.252 0.
-16.4398 -45.5001 0.
-227.177 -623.487 0.
-149.787 -414.534 0.
-112.14 -310.251 0.
-328.643 -903.789 0.
-217.137 -593.413 0.
-202.094 -555.037 0.
-510.406 -1267.23 0.
-443.8 -1068.96 0.
-389.923 -1067.55 0.
-342.015 -937.111 0.
-317.961 -871.881 0.
-422.037 -1103.41 0.
-390.717 -1018.2 0.
-355.444 -936.946 0.
-429.787 -1092.39 0.
-374.343 -1030.75 0.
-342.393 -945.616 0.
-478.769 -1227.49 0.
-455.392 -1161.99 0.
-505.147 -1204.18 0.
-511.793 -1199.88 0.
-528.942 -1253.18 0.
-358.386 -950.123 0.
-389.261 -1036.36 0.
-466.598 -1122.07 0.
-351.76 -914.205 0.
-383.573 -1006.76 0.
-423.687 -1116.68 0.
-288.396 -775.298 0.
-314.18 -855.014 0.
-371.926 -1012.74 0.
-375.559 -981.253 0.
-492.014 -1280.1 0.
-136.123 -376.923 0.
-162.294 -449.315 0.
-290.724 -801.162 0.
-42.3782 -116.385 0.
-98.0906 -271.635 0.
-161.52 -442.974 0.
1.04377 2.88609 0.
-48.1359 -132.521 0.
-137.854 -377.664 0.
-0.40836 -1.11463 0.
-95.8911 -265.367 0.
0.0226999 0.0627119 0.
1.30351 3.61019 0.
-0.396466 -1.09701 0.
2.82535 7.7473 0.
-0.0169435 -6.9698 0.
-165.335 -453.804 0.
-15.5218 -42.8815 0.
-177.95 -491.2 0.
-1.54636 -20.1496 0.
4.77086 11.7297 0.
-122.595 -312.538 0.
-222.13 -587.852 0.
-93.2044 -245.308 0.
-550.42 -1444.27 0.
-308.035 -796.395 0.
-669.125 -1734.95 0.
-460.344 -1126.8 0.
-50.7846 -121.752 0.
-302.74 -708.352 0.
-176.613 -402.451 0.
-6.73306 -14.9923 0.
-3.06908 -26.0429 0.
-89.7608 -195.605 0.
-2.43133 -15.9802 0.
-0.407725 -11.8098 0.
-1.96866 -4.50163 0.
-121.032 -291.343 0.
11.4892 23.0393 0.
-308.989 -656.676 0.
-240.699 -522.799 0.
-135.7 -299.424 0.
-89.875 -201.246 0.
-4.38158 -10.1056 0.
-2.41655 -5.66334 0.
-6.06203 -14.4382 0.
-147.093 -376.515 0.
-28.5777 -71.4665 0.
3.87482 9.46983 0.
5.90661 14.719 0.
2.612 6.62696 0.
-385.509 -968.929 0.
-3.34311 -8.30061 0.
-1063.77 -2944.39 0.
-273.242 -756.108 0.
-0.279384 -0.771402 0.
-1165.11 -3185.92 0.
-63.0388 -171.128 0.
1.60951 4.32762 0.
-1688.07 -4656.93 0.
-251.881 -695.737 0.
-0.0226257 -4.74953 0.
-1599.09 -4386.83 0.
-300.185 -831.453 0.
-1397.02 -3725.82 0.
-654.758 -1785.64 0.
-168.791 -466.105 0.
-1175.8 -3170.57 0.
-621.895 -1704.27 0.
-245.981 -680.792 0.
-980.009 -2671.8 0.
-645.66 -1783.46 0.
-331.233 -914.8 0.
-1024.6 -2635.7 0.
-811.323 -2066.84 0.
-734.917 -1998.6 0.
-631.347 -1736.32 0.
-532.323 -1469.5 0.
-655.058 -1809.56 0.
-600.34 -1661.76 0.
-547.326 -1512.25 0.
-637.393 -1682.02 0.
-588.667 -1554.29 0.
-526.493 -1440.01 0.
-679.96 -1745.03 0.
-657.432 -1684.83 0.
-732.116 -1688.27 0.
-687.233 -1756.57 0.
-713.044 -1823.67 0.
-546.932 -1440.67 0.
-606.383 -1566 0.
-655.244 -1701.92 0.
-533.343 -1445.3 0.
-613.648 -1662.77 0.
-695.423 -1878.77 0.
-514.214 -1421.63 0.
-640.386 -1762.07 0.
-772.884 -2096.18 0.
-765.205 -2108.59 0.
-1042.16 -2841.28 0.
-265.33 -734.852 0.
-633.896 -1748.79 0.
-1055.32 -2875.87 0.
-208.124 -575.967 0.
-608.46 -1671.33 0.
-1237.91 -3347.2 0.
-133.374 -369.184 0.
-610.088 -1675.65 0.
-1393.32 -3756.46 0.
-240.931 -665.729 0.
-1629.33 -4488.02 0.
-0.348155 -0.955934 0.
-156.752 -431.855 0.
-1643.82 -4550.14 0.
-27.8429 -74.8202 0.
-61.4177 -167.413 0.
-953.253 -2592.41 0.
-149.705 -413.937 0.
-764.519 -2115.21 0.
-464.993 -1193.88 0.
6.34917 16.0405 0.
3.94989 9.81137 0.
-0.592765 -1.5205 0.
-1.59544 -4.08039 0.
2.35299 6.00057 0.
-67.5873 -167.097 0.
-163.599 -403.026 0.
5.06993 11.5788 0.
6.75022 15.1657 0.
-263.167 -602.659 0.
-148.97 -339.489 0.
-67.4712 -150.222 0.
1.1753 2.55504 0.
-209.7 -475.531 0.
0.40224 0.858471 0.
-122.264 -317.253 0.
-0.262817 -0.59144 0.
-0.78739 -1.85923 0.
8.57173 16.4255 0.
-3.66461 -7.44917 0.
-3.35749 -24.3004 0.
-2.24936 -4.88204 0.
-70.8708 -158.272 0.
4.50094 10.25 0.
-3.56368 -8.25153 0.
-2.64558 -6.22906 0.
-222.715 -568.199 0.
-87.4775 -218.371 0.
-470.569 -1143.26 0.
-73.6401 -183.333 0.
-78.877 -200.081 0.
-714.399 -1777.44 0.
0.809947 1.98077 0.
-282.489 -682.611 0.
-426.751 -1170.09 0.
-190.225 -518.695 0.
-748.927 -2034.86 0.
0.823846 2.22145 0.
2.88526 7.70079 0.
-658.469 -1822.97 0.
-1.20262 -3.2957 0.
-0.69938 -1.89441 0.
-732.681 -2028.58 0.
-29.2486 -80.6709 0.
-649.838 -1775.65 0.
-154.41 -426.82 0.
-58.1154 -160.941 0.
-634.62 -1740.92 0.
-234.208 -648.508 0.
-157.905 -436.199 0.
-632.863 -1745.25 0.
-307.916 -852.032 0.
-287.031 -794.58 0.
-864.051 -2207.5 0.
-680.603 -1608.57 0.
-616.418 -1699.48 0.
-517.495 -1432.47 0.
-438.494 -1204.3 0.
-594.602 -1645.85 0.
-540.853 -1497.05 0.
-488.324 -1347.04 0.
-604.012 -1593.96 0.
-553.822 -1467.68 0.
-512.405 -1362.9 0.
-668.641 -1683.56 0.
-645.381 -1624.09 0.
-677.654 -1661.76 0.
-669.596 -1679.31 0.
-692.001 -1749.82 0.
-526.73 -1354.48 0.
-563.695 -1462.45 0.
-613.242 -1597.7 0.
-475.184 -1267.78 0.
-544.573 -1476.59 0.
-623.886 -1695.09 0.
-396.767 -1086.16 0.
-500.636 -1382.85 0.
-626.363 -1723.86 0.
-555.876 -1526.57 0.
-821.54 -2270.97 0.
-208.745 -570.802 0.
-266.307 -736.96 0.
-633.475 -1748.32 0.
-122.273 -338.394 0.
-192.557 -533.336 0.
-620.609 -1708.58 0.
-39.9605 -110.678 0.
-120.941 -334.465 0.
-630.418 -1728.6 0.
-8.57875 -23.5338 0.
-698.835 -1934.51 0.
1.47578 4.01217 0.
-22.6791 -62.0337 0.
-766.895 -2103.2 0.
0.352972 0.933206 0.
-99.3422 -267.276 0.
-679.919 -1843.26 0.
-165.734 -454.377 0.
-773.257 -2138.94 0.
-246.002 -624.089 0.
3.52059 8.77036 0.
-697.048 -1699.2 0.
-82.243 -209.4 0.
-105.959 -268.941 0.
-283.051 -715.67 0.
-57.7413 -142.816 0.
-171.016 -421.53 0.
-7.98055 -18.3656 0.
-6.15341 -13.9306 0.
-1.72796 -3.84487 0.
7.22686 15.793 0.
4.58789 9.66358 0.
1.34834 2.73728 0.
0.331981 0.716715 0.
0.26806 0.540966 0.
-23.2953 -57.0888 0.
3.7782 8.27702 0.
-0.778025 -9.15594 0.
1.3162 2.53298 0.
-457.444 -940.922 0.
5.09879 10.8441 0.
-51.0221 -111.984 0.
-567.443 -1275.57 0.
-181.856 -409.324 0.
-48.5702 -111.021 0.
-223.013 -518.457 0.
-548.223 -1388.96 0.
-264.587 -658.991 0.
-244.292 -594.552 0.
-96.7031 -240.772 0.
-211.245 -535.745 0.
-20.874 -51.0503 0.
7.53145 17.9573 0.
0.579704 1.3888 0.
-628.947 -1715.38 0.
-172.6 -462.906 0.
-500.819 -1346.54 0.
-79.4002 -212.639 0.
-76.7017 -202.375 0.
-1058.13 -2876.49 0.
-34.6958 -93.0082 0.
-0.312883 -0.822768 0.
-1346.44 -3729.33 0.
-121.32 -332.28 0.
-1197.56 -3274.55 0.
-435.239 -1203.04 0.
-69.9457 -193.505 0.
-1162.48 -3144.2 0.
-500.543 -1375.4 0.
-161.369 -446.84 0.
-968.633 -2628.07 0.
-477.675 -1307.03 0.
-170.84 -473.051 0.
-891.27 -2415.79 0.
-572.281 -1569.68 0.
-570.134 -1553.19 0.
-436.845 -1205.02 0.
-308.005 -852.394 0.
-505.095 -1388.05 0.
-412.923 -1138.96 0.
-322.092 -888.52 0.
-439.356 -1168.61 0.
-391.229 -1036.38 0.
-344.741 -902.51 0.
-495.849 -1208.66 0.
-452.902 -1085.59 0.
-426.102 -1042.97 0.
-423.243 -1134.45 0.
-454.658 -1252.26 0.
-332.496 -830.091 0.
-408.075 -1032.75 0.
-482.774 -1236.29 0.
-327.533 -875.829 0.
-431.104 -1168.76 0.
-539.305 -1457.06 0.
-269.321 -738.891 0.
-451.888 -1240.89 0.
-641.135 -1736.22 0.
-566.149 -1557.06 0.
-962.608 -2614.72 0.
-133.525 -369.064 0.
-457.524 -1262.56 0.
-1023.35 -2796.03 0.
-117.966 -326.51 0.
-470.657 -1300.23 0.
-1206.4 -3291.78 0.
-55.8002 -154.471 0.
-409.664 -1133.7 0.
-1174.83 -3230.05 0.
-27.8528 -75.5048 0.
-1322.39 -3644.42 0.
-0.0957701 -4.40974 0.
-42.8034 -115.393 0.
-904.292 -2447.83 0.
-148.557 -394.712 0.
-248.55 -672.156 0.
-611.104 -1674.9 0.
-8.21279 -22.0792 0.
-511.73 -1368.39 0.
-38.1969 -87.5846 0.
-111.637 -273.568 0.
-280.488 -673.145 0.
-255.124 -644.236 0.
-174.325 -438.854 0.
-312.824 -784.444 0.
-183.224 -452.846 0.
-389.901 -960.843 0.
-320.421 -741.268 0.
-188.284 -428.975 0.
-16.079 -36.0627 0.
-466.449 -1008.49 0.
2.44477 5.08341 0.
-3.47965 -20.5199 0.
-3.5922 -7.92618 0.
-2.06812 -13.5408 0.
-150.529 -374.152 0.
-29.64 -62.7891 0.
-28.3537 -63.7513 0.
6.82361 11.9142 0.
-3.55976 -15.0875 0.
-3.27905 -16.0631 0.
-3.80801 -20.4124 0.
6.11609 12.2316 0.
0.908315 1.77638 0.
-3.68796 -7.43404 0.
-1.2245 -2.54325 0.
-75.6737 -180.748 0.
-92.8461 -223.609 0.
6.72342 16.249 0.
2.06887 5.04318 0.
-87.8418 -215.797 0.
-227.376 -535.095 0.
-9.43491 -22.2189 0.
-212.607 -507.213 0.
-554.861 -1493.7 0.
-90.7585 -239.989 0.
-417.151 -1117.25 0.
-48.9717 -130.075 0.
-63.0874 -164.908 0.
-713.302 -1903.06 0.
-9.20665 -24.2614 0.
0.474257 1.22203 0.
-774.412 -2131.79 0.
-0.0285244 -0.076737 0.
-647.243 -1788.41 0.
-67.0542 -185.534 0.
-9.28726 -25.5975 0.
-623.119 -1714.46 0.
-136.375 -377.495 0.
-77.1671 -213.152 0.
-578.328 -1592.45 0.
-185.295 -512.804 0.
-118.893 -325.334 0.
-633.266 -1741.93 0.
-344.418 -941.617 0.
-439.489 -1213.6 0.
-310.905 -860.609 0.
-259.188 -716.58 0.
-432.796 -1197.09 0.
-341.94 -946.633 0.
-281.466 -776.897 0.
-387.879 -1050.63 0.
-338.823 -919.313 0.
-300.19 -814.302 0.
-448.465 -1068.69 0.
-420.115 -992.252 0.
-392.446 -976.462 0.
-375.757 -1038.37 0.
-391.871 -1084.5 0.
-320.947 -806.758 0.
-351.767 -891.583 0.
-428.02 -1093.6 0.
-292.622 -775.379 0.
-343.706 -919.141 0.
-448.414 -1211 0.
-228.53 -632.13 0.
-289.791 -800.403 0.
-472.487 -1302.49 0.
-308.792 -855.064 0.
-645.161 -1777.98 0.
-82.7146 -224.669 0.
-160.87 -442.45 0.
-598.071 -1654.92 0.
-37.2433 -102.097 0.
-106.047 -292.844 0.
-647.587 -1789.2 0.
-22.072 -60.8844 0.
-42.2862 -116.995 0.
-640.061 -1770.44 0.
-0.049432 -5.01261 0.
-796.698 -2157.65 0.
-0.322302 -8.48275 0.
0.0494585 0.130007 0.
-650.162 -1732.75 0.
-33.1595 -87.2445 0.
-98.7151 -264.562 0.
-503.352 -1370.77 0.
-18.205 -48.0142 0.
-527.98 -1388.67 0.
-105.085 -242.903 0.
-12.0244 -27.8242 0.
-120.79 -279.501 0.
0.995189 2.42651 0.
4.60362 11.0982 0.
-7.57065 -18.0471 0.
3.5812 8.27971 0.
-5.57452 -12.5898 0.
8.96354 18.7054 0.
-6.58032 -13.5904 0.
-6.26211 -12.8017 0.
2.73688 5.36051 0.
7.4105 14.1046 0.
4.01555 7.42162 0.
-8.51929 -18.1213 0.
-2.51116 -5.14788 0.
-179.558 -443.575 0.
2.47694 4.86225 0.
-34.6101 -69.6735 0.
1.40675 2.48278 0.
0.749433 1.37876 0.
1.44715 2.72497 0.
0.471358 0.911521 0.
-277.298 -549.08 0.
-3.81409 -7.40674 0.
-276.434 -553.552 0.
-131.667 -272.124 0.
-388.817 -923.5 0.
-361.898 -864.965 0.
-446.79 -1072.18 0.
-393.651 -955.071 0.
-246.719 -605.165 0.
-566.909 -1322.19 0.
-198.897 -464.38 0.
-227.086 -534.486 0.
-482.83 -1281.24 0.
-6.03328 -15.7169 0.
-333.212 -888.243 0.
-54.3037 -143.035 0.
-48.649 -125.965 0.
-358.532 -939.617 0.
-0.24121 -8.26082 0.
1.55222 3.91847 0.
-199.032 -537.658 0.
1.60887 4.26426 0.
-105.955 -293.271 0.
-14.6563 -40.428 0.
1.09366 3.00121 0.
-115.299 -317.671 0.
-51.2422 -140.365 0.
0.627529 1.70623 0.
-201.736 -556.646 0.
-133.521 -364.237 0.
-66.9293 -177.272 0.
-385.171 -1058.16 0.
-299.45 -828.032 0.
-314.031 -868.833 0.
-258.45 -713.842 0.
-256.834 -710.157 0.
-370.785 -995.844 0.
-300.42 -805.314 0.
-289.012 -782.387 0.
-355.266 -959.409 0.
-324.926 -880.366 0.
-295.834 -804.377 0.
-467.321 -1037.08 0.
-444.378 -977.479 0.
-384.487 -974.217 0.
-390.864 -1043.93 0.
-393.088 -1047.07 0.
-325.716 -825.818 0.
-333.905 -847.195 0.
-389.717 -999.758 0.
-292.52 -770.446 0.
-296.086 -780.883 0.
-360.942 -961.529 0.
-212.991 -589.213 0.
-234.545 -649.637 0.
-311.211 -861.395 0.
-243.463 -670.716 0.
-336.783 -932.178 0.
-39.2535 -103.922 0.
-118.397 -320.128 0.
-196.768 -537.729 0.
0.109402 0.294239 0.
-42.09 -114.74 0.
-100.056 -275.349 0.
-3.47469 -9.51394 0.
-19.8975 -54.8242 0.
-110.421 -305.721 0.
2.11256 5.70297 0.
-255.623 -686.328 0.
-0.207871 -3.7646 0.
3.09008 7.88374 0.
-391.516 -1022.22 0.
-2.12153 -5.52456 0.
-19.1156 -50.7512 0.
-394.82 -1067.43 0.
-49.6408 -127.869 0.
-567.77 -1463.97 0.
-274.181 -638.352 0.
-250.531 -583.691 0.
-550.394 -1280.56 0.
-314.228 -758.675 0.
-463.115 -1105.58 0.
-434.246 -1025.12 0.
-417.68 -956.039 0.
-306.232 -684.15 0.
-154.769 -319.989 0.
-202.022 -413.097 0.
-3.3566 -6.79364 0.
-19.1919 -37.6895 0.
-5.39113 -10.2795 0.
0.54202 1.00272 0.
-8.97535 -19.5714 0.
4.38848 9.23126 0.
-9.43816 -23.6319 0.
-41.1277 -82.3916 0.
-28.8617 -59.3003 0.
4.73803 8.46432 0.
-294.593 -546.626 0.
-4.41806 -8.24433 0.
6.48376 12.4376 0.
-262.376 -517.187 0.
-119.188 -229.175 0.
-152.585 -303.048 0.
-180.472 -370.294 0.
2.77951 6.23266 0.
-1.5608 -16.9263 0.
-0.423039 -0.982194 0.
-1.44677 -17.7528 0.
-1.97646 -4.60777 0.
-39.0965 -84.9976 0.
-22.9464 -50.2939 0.
-1.96564 -4.34394 0.
-282.866 -715.743 0.
5.67347 14.4651 0.
-528.125 -1415.08 0.
-98.8604 -263.104 0.
-50.9964 -134.693 0.
-776.363 -2053.04 0.
-121.573 -318.306 0.
-0.315777 -9.23483 0.
-1294.5 -3558.1 0.
-95.6093 -256.705 0.
-1165.38 -3196.01 0.
-461.296 -1277.34 0.
-33.8768 -93.6743 0.
-1222.24 -3358.96 0.
-479.517 -1328.03 0.
-99.2149 -272.512 0.
-1105.99 -3040.33 0.
-464.491 -1286.33 0.
-204.957 -559.99 0.
-1026.64 -2826.01 0.
-558.253 -1541.17 0.
-760.085 -2087.88 0.
-545.427 -1506.87 0.
-366.865 -1013.81 0.
-649.788 -1797.29 0.
-526.569 -1458.09 0.
-405.39 -1120.69 0.
-581.889 -1590.77 0.
-518.523 -1415.97 0.
-456.308 -1240.02 0.
-657.437 -1551.05 0.
-640.653 -1506.96 0.
-562.283 -1365.5 0.
-607.589 -1508.15 0.
-633.528 -1596.24 0.
-458.595 -1195.32 0.
-544.022 -1416.66 0.
-620.896 -1646.55 0.
-383.235 -1055.9 0.
-535.114 -1480.05 0.
-698.996 -1928.51 0.
-338.551 -937.65 0.
-551.752 -1523.75 0.
-828.818 -2272.9 0.
-516.187 -1429.74 0.
-1062.96 -2933.8 0.
-154.394 -411.13 0.
-448.75 -1235.11 0.
-1152.2 -3183.33 0.
-41.3139 -112.772 0.
-440.165 -1215.86 0.
-1192.05 -3297.03 0.
1.50233 4.14004 0.
-440.299 -1219.53 0.
-1182.72 -3248.99 0.
-38.2594 -102.622 0.
-1184.88 -3205.23 0.
3.78716 9.67725 0.
-152.72 -397.706 0.
-794.968 -2112.06 0.
-32.3913 -84.5106 0.
-75.3474 -196.018 0.
-389.741 -1013.78 0.
2.43824 5.92784 0.
-294.615 -726.068 0.
-1.58217 -17.2037 0.
5.00099 11.2592 0.
1.60677 3.57171 0.
-3.46201 -7.83089 0.
6.99429 15.707 0.
5.28306 11.7772 0.
-2.27053 -4.96102 0.
-94.7866 -208.684 0.
-292.485 -599.123 0.
-142.655 -288.823 0.
-31.913 -63.9246 0.
-350.678 -690.079 0.
-0.740559 -1.41522 0.
7.29717 13.5171 0.
-12.862 -28.7947 0.
-2.02396 -4.37303 0.
-18.318 -46.1958 0.
0.938769 1.86752 0.
-1.2538 -8.2199 0.
2.88889 5.13002 0.
-3.68005 -6.89366 0.
-3.86865 -17.134 0.
-0.078337 -0.148578 0.
1.22741 2.39703 0.
7.48608 14.4259 0.
-55.8209 -108.869 0.
-147.95 -291.954 0.
-15.9793 -35.5235 0.
-169.389 -383.909 0.
-69.2495 -159.008 0.
-157.437 -362.315 0.
-35.1152 -80.9176 0.
-418.706 -913.345 0.
-31.2094 -68.672 0.
-307.334 -678.043 0.
-590.625 -1471.94 0.
-183.705 -460.937 0.
-725.525 -1927.46 0.
-256.64 -678.346 0.
-167.676 -439.968 0.
-683.91 -1790.74 0.
-166.621 -428.35 0.
-0.447087 -9.86639 0.
-787.844 -2127.34 0.
0.493067 1.30791 0.
-633.03 -1752.05 0.
-5.72798 -15.7369 0.
-0.690771 -1.89395 0.
-636.486 -1762.73 0.
-111.916 -308.837 0.
-37.0077 -100.991 0.
-610.721 -1691.58 0.
-214.615 -586.712 0.
-124.205 -333.814 0.
-735.165 -2033.77 0.
-420.842 -1164.73 0.
-573.84 -1585.88 0.
-370.496 -1025.39 0.
-338.228 -936.797 0.
-545.006 -1509.3 0.
-423.058 -1168.73 0.
-406.893 -1125.35 0.
-520.781 -1412.02 0.
-465.616 -1255.02 0.
-446.163 -1202.96 0.
-600.756 -1393.85 0.
-582.431 -1346.14 0.
-534.563 -1221.96 0.
-548.873 -1329.87 0.
-575.147 -1401.25 0.
-446.507 -1165.87 0.
-450.715 -1178.79 0.
-534.024 -1402.3 0.
-377.268 -1043.29 0.
-401.017 -1107.75 0.
-561.209 -1552.67 0.
-297.232 -819.264 0.
-352.503 -976.193 0.
-592.401 -1637.67 0.
-382.45 -1048.42 0.
-735.181 -2036.04 0.
-77.3474 -204.146 0.
-174.3 -470.28 0.
-619.531 -1712.36 0.
-4.48966 -12.1872 0.
-74.8616 -205.1 0.
-638.439 -1763.88 0.
-0.600751 -1.65029 0.
-4.38152 -12.0285 0.
-651.472 -1804.26 0.
0.000450597 0.00118409 0.
-775.861 -2059.21 0.
-1.31459 -3.31193 0.
-210.741 -542.424 0.
-777.304 -2042.06 0.
-197.315 -513.699 0.
-236.094 -612.536 0.
-732.528 -1900.26 0.
-158.035 -378.864 0.
-615.25 -1496.87 0.
-219.007 -493.293 0.
-16.9754 -37.7839 0.
-229.966 -504.796 0.
-52.5219 -118.859 0.
-114.758 -257.807 0.
-39.1968 -87.4413 0.
-106.695 -232.177 0.
-8.14473 -17.5992 0.
9.23557 18.8017 0.
-2.9536 -5.87405 0.
6.33455 12.3041 0.
-0.508208 -0.964421 0.
-2.81949 -5.08764 0.
-4.88874 -17.3153 0.
-1.20151 -9.57133 0.
-1.44587 -10.9976 0.
-30.4726 -79.7326 0.
2.54918 5.16428 0.
3.70435 6.17443 0.
7.10319 12.544 0.
-257.287 -481.01 0.
-2.71032 -4.90373 0.
0.935774 1.74334 0.
-485.885 -936.659 0.
-3.86644 -7.58863 0.
-438.319 -869.837 0.
-304.932 -612.809 0.
-328.386 -725.672 0.
-283.867 -637.496 0.
-393.282 -892.15 0.
-278.593 -633.16 0.
-159.38 -362.769 0.
-378.182 -826.512 0.
-176.513 -388.991 0.
-46.821 -104.22 0.
-423.075 -1037.84 0.
-23.2671 -57.3587 0.
-133.899 -344.131 0.
-71.4633 -184.295 0.
-46.2713 -119.709 0.
-402.489 -1046.32 0.
-114.517 -291.205 0.
-68.2898 -170.158 0.
-685.584 -1811.81 0.
0.0673278 0.177024 0.
-866.161 -2398.09 0.
-227.8 -627.586 0.
-0.149254 -0.404021 0.
-974.364 -2698.52 0.
-280.555 -772.988 0.
-33.0756 -90.9203 0.
-1011.08 -2797.65 0.
-274.526 -751.972 0.
-61.2461 -160.98 0.
-939.907 -2574.38 0.
-369.233 -1022.68 0.
-648.662 -1755.99 0.
-380.091 -1039.56 0.
-217.187 -601.243 0.
-537.981 -1466 0.
-362.126 -994.647 0.
-262.396 -726.253 0.
-431.207 -1165.9 0.
-351.343 -948.024 0.
-272.856 -728.768 0.
-456.665 -1042.18 0.
-432.622 -976.156 0.
-298.895 -816.848 0.
-405.393 -984.916 0.
-461.331 -1147.37 0.
-257.062 -706.475 0.
-353.71 -978.662 0.
-453.445 -1253.02 0.
-240.864 -666.272 0.
-380.556 -1033.96 0.
-612.136 -1649.18 0.
-184.871 -511.302 0.
-375.066 -1035.68 0.
-692.677 -1891.43 0.
-328.871 -903.069 0.
-964.107 -2658.53 0.
-19.8658 -52.5136 0.
-221.248 -598.309 0.
-976.46 -2702.03 0.
-17.6641 -47.6914 0.
-261.062 -709.54 0.
-971.773 -2691 0.
-11.0258 -30.0933 0.
-177.25 -488.79 0.
-805.83 -2232 0.
-32.8666 -86.1039 0.
-656.068 -1730.46 0.
-18.2836 -46.1222 0.
-91.3112 -232.026 0.
-331.117 -846.232 0.
-41.5224 -106.178 0.
-65.4565 -168.607 0.
-132.23 -339.565 0.
-71.67 -169.055 0.
-548.591 -1316.13 0.
-108.535 -241.801 0.
-260.986 -573.436 0.
-408.429 -885.29 0.
-188.099 -425.391 0.
-266.124 -597.493 0.
-397.328 -885.898 0.
-407.177 -884.466 0.
-333.628 -718.39 0.
-238.48 -484.079 0.
-315.845 -626.648 0.
6.03336 11.6637 0.
-446.645 -857.175 0.
1.70307 3.08097 0.
-4.01438 -14.1972 0.
-97.7879 -208.459 0.
4.12816 8.68414 0.
-4.08607 -10.3479 0.
-1.32013 -2.7263 0.
1.77545 2.92684 0.
-84.5754 -148.281 0.
-138.261 -257.932 0.
-4.34176 -6.96545 0.
2.57926 4.27946 0.
0.972035 1.66661 0.
-1.98495 -3.62169 0.
1.65594 3.09029 0.
6.21643 11.8695 0.
6.9321 14.0963 0.
3.62494 7.4216 0.
-2.45705 -16.2291 0.
-2.22198 -4.66175 0.
4.859 10.3926 0.
0.897998 1.86802 0.
7.20161 15.2083 0.
-5.39279 -11.5672 0.
-449.615 -1076.68 0.
-100.314 -237.886 0.
-316.944 -804.185 0.
-96.3835 -245.418 0.
-109.227 -278.995 0.
-430.473 -1113.21 0.
-86.1587 -218.055 0.
-3.71172 -9.2114 0.
-599.157 -1539.62 0.
-1.09007 -2.77035 0.
-592.414 -1638.82 0.
-4.80098 -13.1405 0.
-0.886637 -2.40533 0.
-631.781 -1744.99 0.
-51.5302 -140.254 0.
-8.95687 -24.2562 0.
-620.97 -1714.39 0.
-110.187 -296.449 0.
-18.0365 -47.0605 0.
-606.171 -1678.94 0.
-248.224 -675.329 0.
-428.524 -1175.93 0.
-227.899 -631.124 0.
-184.373 -509.457 0.
-383.762 -1053.9 0.
-260.578 -721.699 0.
-240.565 -665.615 0.
-342.68 -938.647 0.
-276.056 -757.358 0.
-258.919 -711.444 0.
-364.582 -821.088 0.
-352.464 -788.043 0.
-282.137 -758.908 0.
-337.987 -795.78 0.
-367.324 -881.606 0.
-247.107 -682.629 0.
-263.547 -727.151 0.
-330.583 -908.531 0.
-200.934 -554.598 0.
-241.925 -669.698 0.
-404.355 -1102.22 0.
-145.375 -398.332 0.
-205.466 -566.849 0.
-448.335 -1240.4 0.
-212.326 -565.289 0.
-612.97 -1693.81 0.
-19.5469 -50.8236 0.
-83.7318 -222.307 0.
-626.494 -1710.72 0.
0.0688254 0.183897 0.
-17.8908 -48.1644 0.
-636.261 -1748.06 0.
-2.61025 -7.10062 0.
-12.2734 -33.6558 0.
-586.988 -1621.77 0.
-0.838985 -2.13811 0.
-604.545 -1560.28 0.
-9.90959 -24.5652 0.
-82.0233 -205.174 0.
-424.361 -1071.51 0.
-119.332 -304.583 0.
-147.876 -380.032 0.
-363.23 -937.838 0.
-67.2197 -156.794 0.
-404.788 -936.306 0.
0.772541 1.61503 0.
-3.39302 -6.97894 0.
5.63781 11.4106 0.
1.11201 2.34239 0.
5.48654 11.3631 0.
1.93761 3.94746 0.
1.03924 2.04503 0.
0.446635 0.872759 0.
-0.417336 -0.774031 0.
10.4035 18.7502 0.
-0.312767 -0.547804 0.
8.41145 14.58 0.
-3.903 -6.60967 0.
2.56933 4.39476 0.
2.11812 4.45061 0.
-1.78519 -3.71261 0.
-1.32686 -2.73144 0.
-2.27991 -4.69573 0.
-3.12579 -9.68614 0.
2.93061 4.86943 0.
-60.3564 -101.874 0.
-4.68875 -7.56034 0.
-3.73832 -6.24105 0.
-97.3691 -168.184 0.
-6.21157 -11.2074 0.
-285.351 -525.527 0.
-52.8573 -99.8672 0.
-110.729 -223.552 0.
-521.366 -1064.38 0.
-253.55 -517.261 0.
-435.664 -905.365 0.
-441.494 -934.249 0.
-403.335 -823 0.
-351.08 -727.772 0.
-397.249 -837.033 0.
-684.171 -1629.94 0.
-241.675 -571.532 0.
-502.64 -1261.59 0.
-155.224 -389.962 0.
-168.499 -424.723 0.
-458.611 -1179.95 0.
-72.3666 -182.414 0.
-0.535592 -1.32507 0.
-510.412 -1269.75 0.
1.63726 4.00845 0.
-319.034 -879.193 0.
1.56161 4.2783 0.
-0.957012 -2.6012 0.
-289.64 -791.034 0.
-11.7274 -31.3081 0.
1.04527 2.77076 0.
-231.468 -630.526 0.
-63.724 -169.946 0.
-6.21982 -16.1694 0.
-285.33 -770.612 0.
-190.389 -501.898 0.
-239.097 -662.215 0.
-194.76 -538.306 0.
-154.109 -421.349 0.
-260.592 -721.74 0.
-239.234 -661.12 0.
-219.232 -601.943 0.
-296.793 -809.611 0.
-278.999 -764.161 0.
-261.164 -718.523 0.
-358.309 -824.027 0.
-357.96 -824.994 0.
-324.917 -810.245 0.
-342.285 -800.303 0.
-335.737 -785.809 0.
-238.08 -659.404 0.
-255.385 -707.184 0.
-277.188 -767.046 0.
-162.941 -441.936 0.
-202.355 -558.802 0.
-243.459 -674.168 0.
-116.908 -316.111 0.
-170.082 -464.714 0.
-228.997 -630.014 0.
-136.175 -347.624 0.
-270.705 -720.219 0.
-33.977 -87.0201 0.
-76.7899 -200.836 0.
-272.168 -723.775 0.
-0.351245 -0.928253 0.
-0.159368 -0.424567 0.
-298.24 -807.635 0.
0.683542 1.85391 0.
-2.74881 -7.51768 0.
-368.257 -1011.44 0.
0.349418 0.864416 0.
-551.641 -1391.5 0.
-4.1655 -10.1394 0.
-103.326 -254.364 0.
-518.806 -1295.58 0.
-207.745 -529.105 0.
-226.195 -579.805 0.
-596.078 -1530.6 0.
-219.071 -507.815 0.
-680.76 -1566.9 0.
-460.488 -956.273 0.
-464.834 -947.992 0.
-303.485 -608.381 0.
-436.77 -902.527 0.
-343.741 -698.187 0.
-158.535 -316.927 0.
-504.793 -989.396 0.
-22.4393 -43.5532 0.
-18.3688 -33.9801 0.
-139.593 -250.956 0.
-4.53807 -16.9186 0.
-62.0617 -108.413 0.
-2.78127 -4.74625 0.
3.90067 6.4966 0.
0.203546 0.407086 0.
-1.79711 -10.1606 0.
3.43809 6.72637 0.
-45.1343 -91.4081 0.
0.793261 1.30838 0.
3.55426 5.96632 0.
-173.797 -296.212 0.
-1.68576 -2.73347 0.
-5.30608 -8.91874 0.
-396.123 -689.715 0.
4.3689 7.79115 0.
-178.519 -325.53 0.
-231.544 -432.427 0.
-140 -280.388 0.
-92.3193 -186.137 0.
-111.182 -224.472 0.
-6.55376 -13.284 0.
0.337041 0.680793 0.
-4.66898 -8.87634 0.
-6.10318 -11.7065 0.
-29.0083 -56.1244 0.
-131.162 -290.092 0.
6.40778 14.33 0.
-33.9174 -81.995 0.
-14.5659 -35.183 0.
-72.5746 -174.868 0.
-309.96 -765.72 0.
-36.8503 -92.2248 0.
2.47783 6.26153 0.
-645.693 -1635.68 0.
-39.7797 -99.5152 0.
-757.438 -2097.96 0.
-257.401 -711.687 0.
0.335948 0.921664 0.
-957.942 -2653.27 0.
-339.068 -918.492 0.
1.35061 3.46822 0.
-1016.67 -2804.27 0.
-334.686 -889.935 0.
-68.6021 -183.386 0.
-1022.49 -2830.74 0.
-389.242 -1055.88 0.
-784.348 -2134.1 0.
-438.157 -1212.76 0.
-269.434 -742.284 0.
-660.724 -1805.05 0.
-411.056 -1136.87 0.
-307.789 -849.055 0.
-564.745 -1556.73 0.
-448.866 -1241.79 0.
-362.909 -1005.11 0.
-568.656 -1371.83 0.
-564.065 -1356.47 0.
-439.987 -1071.32 0.
-540.361 -1280.28 0.
-601.141 -1443.99 0.
-333.25 -919.714 0.
-432.726 -1195.53 0.
-612.697 -1684.85 0.
-279.896 -770.368 0.
-423.895 -1173.51 0.
-711.078 -1942.87 0.
-248.774 -682.213 0.
-432.758 -1198.66 0.
-792.931 -2166.03 0.
-350.077 -929.515 0.
-1008.46 -2789.81 0.
-16.9989 -43.8323 0.
-311.023 -806.267 0.
-996.65 -2739.33 0.
1.87079 4.73655 0.
-286.804 -764.302 0.
-955.988 -2639.86 0.
-27.7695 -76.1683 0.
-225.341 -621.642 0.
-674.652 -1867.46 0.
-26.3591 -64.2229 0.
-574.008 -1430.43 0.
-3.19267 -7.67566 0.
-5.61134 -13.5497 0.
-231.14 -560.172 0.
-8.77388 -21.7419 0.
-7.49348 -18.4076 0.
-25.0892 -61.1062 0.
6.36188 13.7682 0.
-11.7071 -24.9987 0.
-9.77915 -18.9051 0.
-14.0537 -27.1838 0.
-22.2768 -43.1136 0.
-1.46669 -2.94697 0.
-20.6489 -41.2418 0.
-125.798 -246.951 0.
-111.163 -215.8 0.
-155.715 -300.271 0.
-328.415 -607.731 0.
-142.26 -254.784 0.
8.57394 14.8712 0.
-360.897 -634.751 0.
-4.27064 -7.34737 0.
-3.89455 -13.0215 0.
-128.103 -253.547 0.
-11.007 -21.5422 0.
-21.9442 -42.4795 0.
-16.9451 -31.3111 0.
7.03753 11.0972 0.
-2.60203 -4.18243 0.
-0.434066 -0.71144 0.
0.339077 0.527723 0.
8.39888 13.4697 0.
1.85565 3.07015 0.
8.20074 14.054 0.
5.52837 9.77716 0.
-18.4597 -33.6634 0.
-0.941784 -1.84918 0.
-92.6308 -185.692 0.
-61.2795 -123.439 0.
-15.8162 -31.7573 0.
-57.8622 -115.698 0.
-116.843 -223.418 0.
-206.921 -399.275 0.
-103.543 -201.611 0.
-452.209 -984.722 0.
-91.3765 -201.185 0.
-548.112 -1316.17 0.
-277.422 -667.307 0.
-201.804 -485.32 0.
-736.378 -1791.6 0.
-281.016 -691.902 0.
-200.922 -500.59 0.
-729.874 -1811.2 0.
-134.936 -327.891 0.
-625.587 -1730.75 0.
-136.098 -374.993 0.
2.22315 6.06505 0.
-645.344 -1774.31 0.
-61.4059 -161.722 0.
0.596969 1.52693 0.
-639.804 -1711.66 0.
-112.86 -291.635 0.
-11.3979 -29.8572 0.
-640.493 -1752.25 0.
-242.071 -641.837 0.
-468.521 -1297.5 0.
-256.072 -704.811 0.
-181.06 -490.887 0.
-433.376 -1200.13 0.
-315.71 -869.039 0.
-276.654 -752.776 0.
-420.609 -1163.36 0.
-371.663 -1028.9 0.
-353.991 -978.838 0.
-483.216 -1113.93 0.
-477.569 -1099.62 0.
-447.71 -1044.23 0.
-473.835 -1077 0.
-491.034 -1111.06 0.
-294.447 -803.68 0.
-327.072 -903.736 0.
-413.114 -1142.34 0.
-221.692 -600.453 0.
-277.106 -760.903 0.
-429.596 -1189.9 0.
-149.255 -406.167 0.
-220.816 -607.994 0.
-454.113 -1257.8 0.
-190.437 -489.865 0.
-661.303 -1778.65 0.
0.947158 2.39075 0.
-71.4342 -178.814 0.
-641.044 -1700.34 0.
-0.245803 -4.61533 0.
-58.6168 -150.107 0.
-686.54 -1862.2 0.
1.68471 4.61925 0.
-176.414 -486.015 0.
-615.156 -1701.07 0.
-172.047 -407.521 0.
-758.21 -1848.31 0.
-182.177 -438.9 0.
-249.684 -602.899 0.
-730.702 -1758.87 0.
-133.903 -326.674 0.
-287.87 -695.107 0.
-532.587 -1274.9 0.
-158.372 -343.459 0.
-397.473 -847.619 0.
-84.3408 -160.997 0.
-235.836 -449.682 0.
-45.6469 -87.3656 0.
-79.5075 -159.395 0.
-18.9436 -37.6898 0.
-66.0898 -130.465 0.
-64.5905 -124.608 0.
5.00347 9.44735 0.
-1.34298 -2.40771 0.
2.53729 4.38681 0.
8.96734 14.9434 0.
7.93003 13.2805 0.
6.15091 10.0619 0.
-2.56933 -4.11013 0.
0.369958 0.678289 0.
3.94469 7.11556 0.
3.57679 6.35145 0.
-27.0698 -50.4804 0.
0.0472911 0.0735867 0.
-2.80925 -4.45671 0.
-180.879 -292.239 0.
5.06821 7.72146 0.
-1.69873 -2.66858 0.
-390.086 -633.93 0.
-4.45769 -7.64697 0.
-550.652 -973.603 0.
-135.933 -248.451 0.
-231.332 -450.391 0.
-495.296 -986.087 0.
-217.443 -433.847 0.
-253.222 -503.199 0.
-242.213 -479.414 0.
-335.565 -645.28 0.
-261.085 -506.979 0.
-194.425 -381.051 0.
-433.42 -926.961 0.
-184.256 -398.471 0.
-166.504 -400.838 0.
-156.602 -376.735 0.
-53.4394 -128.455 0.
-80.5517 -197.239 0.
-31.1704 -75.9555 0.
-3.85428 -9.3368 0.
-239.624 -571.969 0.
-44.7174 -104.576 0.
-346.093 -950.008 0.
-111.202 -304.198 0.
0.93949 2.55752 0.
-603.674 -1650.44 0.
-157.475 -422.731 0.
2.0124 5.28841 0.
-752.763 -2063.57 0.
-236.967 -618.276 0.
-1.28193 -3.17456 0.
-786.177 -2170.41 0.
-254.286 -679.587 0.
-654.873 -1792.03 0.
-303.526 -840.655 0.
-165.658 -456.846 0.
-625.252 -1679.58 0.
-317.276 -877.748 0.
-200.963 -553.646 0.
-517.146 -1367.69 0.
-325.281 -886.844 0.
-207.676 -574.067 0.
-458.462 -1077.84 0.
-433.262 -1030.66 0.
-240.135 -652.593 0.
-364.924 -949.826 0.
-498.031 -1303.75 0.
-185.647 -511.507 0.
-334.796 -922.189 0.
-564.857 -1520.59 0.
-189.752 -519.524 0.
-319.523 -884.861 0.
-647.585 -1764.18 0.
-156.673 -430.826 0.
-302.092 -835.309 0.
-647.081 -1783.43 0.
-231.113 -597.445 0.
-751.167 -2062.92 0.
-0.148588 -0.357723 0.
-176.924 -459.338 0.
-718.112 -1963.54 0.
-0.194199 -6.2437 0.
-95.6459 -250.426 0.
-506.476 -1351.5 0.
-15.6905 -42.8166 0.
-82.548 -222.767 0.
-261.129 -697.88 0.
-19.3361 -43.3676 0.
-191.843 -451.124 0.
-39.0282 -95.5208 0.
-52.3769 -127.794 0.
-159.439 -384.246 0.
-84.4402 -203.245 0.
-189.236 -451.052 0.
-248.974 -588.803 0.
-276.947 -601.183 0.
-465.726 -993.03 0.
-249.987 -470.246 0.
-240.998 -454.279 0.
-229.602 -433.653 0.
-313.591 -627.29 0.
-266.34 -528.907 0.
-194.028 -382.384 0.
-558.653 -1075.93 0.
-196.903 -369.554 0.
-85.1222 -152.791 0.
-430.619 -743.62 0.
-0.489045 -0.813908 0.
-350.33 -570.246 0.
-4.07192 -11.86 0.
-1.81363 -2.82981 0.
-114.89 -206.718 0.
-2.32151 -9.06157 0.
4.19535 7.30994 0.
-32.2483 -60.692 0.
-4.33271 -6.64697 0.
4.32606 6.76877 0.
-22.9318 -36.5984 0.
7.90771 11.7703 0.
-15.6276 -24.0013 0.
-1.82229 -2.70774 0.
-3.13168 -4.98889 0.
-4.06447 -12.653 0.
-4.09255 -6.87451 0.
-3.44538 -13.3809 0.
1.7418 3.13833 0.
-4.5435 -8.23478 0.
6.88887 12.5717 0.
7.35891 13.5255 0.
-3.29506 -13.8013 0.
-2.03191 -3.72352 0.
4.13399 7.66944 0.
-206.097 -418.689 0.
-54.655 -113.459 0.
-150.294 -357.12 0.
-66.1507 -159.054 0.
-41.1492 -100.183 0.
-308.816 -745.109 0.
-100.101 -240.894 0.
-58.885 -140.845 0.
-397.975 -947.009 0.
-59.8153 -139.372 0.
-394.454 -1079.07 0.
-102.459 -279.337 0.
-1.17235 -3.18039 0.
-535.36 -1436.3 0.
-80.7164 -210.591 0.
1.52911 3.89143 0.
-559.324 -1493.89 0.
-78.6327 -198.715 0.
0.586347 1.43098 0.
-535.469 -1450.62 0.
-117.107 -311.461 0.
-394.102 -1091.58 0.
-162.367 -447.198 0.
-64.2777 -175.214 0.
-345.202 -956.121 0.
-193.909 -531.613 0.
-112.907 -300.966 0.
-275.58 -762.933 0.
-214.472 -591.364 0.
-164.944 -442.878 0.
-346.037 -783.004 0.
-332.095 -750.804 0.
-201.258 -542.767 0.
-229.084 -634.069 0.
-266.04 -730.666 0.
-125.12 -335.383 0.
-193.65 -530.364 0.
-295.987 -819.615 0.
-93.9382 -254.433 0.
-173.447 -476.431 0.
-361.562 -1001.46 0.
-45.9676 -125.179 0.
-150.157 -412.283 0.
-402.381 -1113.72 0.
-83.0581 -215.531 0.
-522.308 -1404.26 0.
0.245309 0.579327 0.
-43.22 -108.278 0.
-563.775 -1495.38 0.
-0.574978 -1.43947 0.
-57.7872 -147.29 0.
-495.741 -1295.11 0.
-86.8841 -235.231 0.
-163.993 -439.339 0.
-408.499 -1087.89 0.
-3.19734 -7.1804 0.
-307.497 -721.346 0.
-46.8021 -115.623 0.
-100.432 -247.228 0.
-291.113 -713.796 0.
-30.5312 -72.8271 0.
-50.0436 -116.958 0.
-84.8308 -194.302 0.
-67.3497 -139.322 0.
-195.628 -399.291 0.
-21.9026 -39.2336 0.
5.45167 9.57135 0.
-3.82406 -6.58635 0.
1.23404 2.22573 0.
6.47436 11.6178 0.
3.28937 5.87372 0.
8.41868 14.6584 0.
1.61233 2.75509 0.
-4.35557 -7.18194 0.
7.33523 11.8184 0.
8.53092 13.4343 0.
-48.9445 -77.7965 0.
-43.3504 -67.3096 0.
-18.6835 -28.38 0.
-44.8812 -79.1766 0.
-7.45111 -12.9267 0.
-4.41095 -7.53283 0.
-0.156813 -0.304641 0.
-3.44989 -5.31541 0.
-2.61707 -4.08327 0.
-60.1825 -95.1041 0.
0.719403 1.05203 0.
1.32866 1.96202 0.
-72.4982 -108.147 0.
8.01286 12.643 0.
-293.837 -476.654 0.
-14.0811 -23.4638 0.
4.09934 7.21027 0.
-414.182 -742.535 0.
-43.7601 -78.2906 0.
-273.754 -492.761 0.
-483.606 -875.664 0.
-169.027 -300.953 0.
-452.209 -813.491 0.
-388.978 -708.187 0.
-529.307 -1058.85 0.
-323.5 -660.226 0.
-533.489 -1265.82 0.
-300.411 -721.32 0.
-141.04 -342.728 0.
-576.813 -1376.81 0.
-181.345 -431.337 0.
-124.138 -293.389 0.
-565.735 -1341.92 0.
-87.5167 -203.165 0.
-443.202 -1207.75 0.
-96.3491 -261.747 0.
2.73551 7.39275 0.
-467.052 -1222.15 0.
-3.15114 -7.96876 0.
2.04571 5.03048 0.
-359.755 -930.353 0.
-0.570327 -1.42077 0.
0.813201 1.9583 0.
-277.817 -737.79 0.
-18.9247 -49.8292 0.
-159.367 -438.469 0.
-59.0608 -161.018 0.
-9.73815 -26.1289 0.
-190.235 -519.879 0.
-119.028 -317.557 0.
-52.194 -132.175 0.
-220.694 -607.724 0.
-171.129 -461.417 0.
-128.885 -331.898 0.
-346.688 -782.961 0.
-332.958 -751.034 0.
-150.125 -393.256 0.
-176.215 -482.57 0.
-206.742 -572.617 0.
-70.6015 -182.726 0.
-135.58 -361.048 0.
-202.764 -551.771 0.
-14.0743 -37.996 0.
-79.0212 -215.581 0.
-158.301 -436.053 0.
-6.94652 -18.7716 0.
-42.0432 -114.38 0.
-160.76 -440.928 0.
0.175069 0.449158 0.
-285.249 -753.797 0.
0.252459 0.58667 0.
-0.229896 -4.30276 0.
-404.185 -1032.48 0.
0.829429 2.0112 0.
-28.3269 -70.1168 0.
-485.538 -1238.2 0.
-166.266 -447.319 0.
-246.874 -657.6 0.
-424.281 -961.599 0.
2.80882 6.31338 0.
-441.402 -1033.25 0.
-102.48 -254.91 0.
-218.032 -539.01 0.
-583.263 -1426.04 0.
-217.424 -513.562 0.
-384.681 -891.977 0.
-556.195 -1266.15 0.
-456.907 -926.345 0.
-530.812 -1060.31 0.
-458.564 -808.91 0.
-507.335 -877.103 0.
-144.718 -244.809 0.
-434.898 -776.974 0.
-175.995 -311.985 0.
-6.05079 -10.6619 0.
-370.369 -649.779 0.
8.97198 15.3793 0.
-30.6742 -50.2881 0.
-227.694 -364.689 0.
-2.33416 -3.65007 0.
-85.3862 -129.581 0.
1.01652 1.5282 0.
-3.37301 -5.02267 0.
-9.49598 -16.4994 0.
2.31211 3.95154 0.
-2.94797 -4.95768 0.
-19.232 -37.1417 0.
4.73841 7.28811 0.
-3.12371 -4.86612 0.
-172.227 -272.042 0.
4.11054 6.03164 0.
-6.49426 -9.62428 0.
-310.15 -465.128 0.
-5.89459 -9.20619 0.
-345.316 -556.039 0.
-80.1201 -137.304 0.
-178.939 -312.63 0.
-182.528 -325.459 0.
-144.76 -255.405 0.
-74.8273 -132.93 0.
-19.8749 -35.5641 0.
-60.6596 -105.61 0.
3.28557 5.70296 0.
6.71541 11.635 0.
-5.65581 -10.4724 0.
-9.53934 -17.6045 0.
1.3437 2.86467 0.
5.20969 11.3413 0.
4.95178 11.0047 0.
-0.857223 -1.89984 0.
-4.21422 -9.44082 0.
-19.0135 -43.0176 0.
-202.987 -455.751 0.
-1.53844 -3.42863 0.
-312.75 -835.638 0.
-87.7039 -235.354 0.
-50.9984 -137.545 0.
-529.719 -1403.68 0.
-170.052 -443.899 0.
-9.2467 -23.9992 0.
-679.492 -1860.9 0.
-239.018 -636.435 0.
-33.8201 -85.9687 0.
-816.296 -2255.94 0.
-258.2 -694.663 0.
-669.657 -1845.94 0.
-346.283 -957.335 0.
-191.972 -526.632 0.
-658.521 -1814.8 0.
-348.834 -962.381 0.
-208.181 -562.574 0.
-593.798 -1630.74 0.
-357.614 -989.721 0.
-234.196 -636.372 0.
-541.094 -1492.97 0.
-516.078 -1426.6 0.
-250.764 -683.343 0.
-368.543 -1020.54 0.
-539.261 -1483.92 0.
-228.852 -617.917 0.
-353.021 -973.698 0.
-615.56 -1698.64 0.
-191.986 -524.588 0.
-353.526 -975.258 0.
-662.161 -1830.95 0.
-185.371 -508.248 0.
-336.822 -932.02 0.
-638.768 -1757.32 0.
-227.285 -605.521 0.
-782.422 -2159.48 0.
-3.8825 -9.60724 0.
-219.492 -572.336 0.
-640.773 -1734.86 0.
-5.26132 -13.4739 0.
-84.0701 -212.726 0.
-367.589 -931.026 0.
-142.053 -377.346 0.
-253.592 -682.547 0.
-171.471 -399.336 0.
-1.84977 -4.24922 0.
-79.0001 -178.715 0.
-79.1924 -185.316 0.
-0.929705 -2.14204 0.
-0.216786 -0.490888 0.
-27.7996 -58.2131 0.
-9.54804 -19.8068 0.
-3.11232 -6.39393 0.
-9.40849 -17.3157 0.
-31.7462 -58.247 0.
-38.8566 -64.2902 0.
-50.6578 -83.5562 0.
-85.9224 -142.48 0.
-61.6605 -108.269 0.
-120.914 -211.359 0.
-180.87 -314.661 0.
-236.076 -414.997 0.
-142.469 -245.574 0.
-111.207 -181.204 0.
-356.321 -566.56 0.
-2.21427 -3.43709 0.
-292.63 -443.176 0.
-4.91626 -7.36311 0.
-1.74613 -2.59011 0.
-154.058 -266.14 0.
-5.85451 -9.92553 0.
-3.13245 -5.22371 0.
3.73488 6.48576 0.
3.38103 4.87413 0.
4.39609 6.39944 0.
1.4922 2.19397 0.
6.90877 9.64301 0.
3.14751 4.47185 0.
-3.50831 -5.0769 0.
5.68383 8.61313 0.
0.186547 0.292125 0.
2.31444 3.86648 0.
-13.8561 -23.6369 0.
-68.2211 -118.887 0.
7.3593 12.7407 0.
-2.90866 -5.09478 0.
-127.671 -226.527 0.
-71.0916 -122.719 0.
-155.929 -268.51 0.
-16.5225 -28.3868 0.
-216.455 -396.956 0.
-245.715 -450.089 0.
-296.686 -634.252 0.
-194.917 -424.82 0.
-95.7676 -212.786 0.
-565.328 -1254.03 0.
-282.126 -633.529 0.
-192.894 -437.825 0.
-664.852 -1471.26 0.
-212.877 -465.113 0.
-551.267 -1412.58 0.
-290.558 -775.699 0.
-227.321 -610.435 0.
-610.311 -1597.53 0.
-231.068 -594.375 0.
-62.1011 -158.633 0.
-520.423 -1406.72 0.
-135.042 -352.99 0.
-0.19215 -4.326 0.
-481.836 -1311.69 0.
-80.789 -212.937 0.
-338.925 -935.406 0.
-156.017 -424.627 0.
-41.8865 -112.104 0.
-312.031 -858.298 0.
-190.168 -514.748 0.
-75.0801 -197.729 0.
-304.27 -839.792 0.
-219.834 -598.619 0.
-139.785 -372.989 0.
-373.144 -1033.54 0.
-358.05 -985.446 0.
-160.672 -431.015 0.
-219.278 -601.304 0.
-287.211 -795.179 0.
-110.025 -292.389 0.
-201.84 -548.821 0.
-295.418 -814.303 0.
-49.9196 -134.026 0.
-169.99 -461.38 0.
-321.719 -883.057 0.
-19.0544 -51.9409 0.
-129.669 -355.681 0.
-321.451 -890.209 0.
-55.8041 -144.128 0.
-495.425 -1342.14 0.
0.356117 0.861085 0.
-134.686 -342.982 0.
-524.245 -1397.15 0.
-124.767 -324.306 0.
-227.788 -585.3 0.
-550.612 -1406.54 0.
-365.206 -936.737 0.
-487.807 -1267.54 0.
-419.626 -956.55 0.
-124.311 -280.937 0.
-604.126 -1345.85 0.
-213.58 -501.876 0.
-273.043 -629.876 0.
-439.816 -992.263 0.
-159.175 -336.061 0.
-182.154 -380.798 0.
-205.502 -425.174 0.
-281.515 -513.323 0.
-169.895 -309.092 0.
-117.7 -194.136 0.
-111.694 -183.617 0.
-37.5513 -61.4925 0.
-114.331 -197.743 0.
-1.30035 -2.21746 0.
-4.4134 -7.42975 0.
-25.8368 -44.0659 0.
0.542936 0.90536 0.
-3.81077 -11.7888 0.
-4.59733 -7.02124 0.
4.86651 7.21121 0.
4.63234 6.6253 0.
-3.25232 -4.60924 0.
3.70732 5.20792 0.
-2.70595 -4.31361 0.
4.52114 7.12205 0.
-2.87785 -4.48141 0.
0.353317 0.611092 0.
-2.17167 -3.09434 0.
-3.38609 -4.87183 0.
-111.069 -161.462 0.
4.24829 5.84015 0.
-56.4012 -78.9853 0.
-265.884 -380.664 0.
-88.1157 -132.71 0.
-501.898 -786.106 0.
-54.7915 -89.7777 0.
-215.196 -359.624 0.
-541.591 -920.366 0.
-49.1789 -84.1795 0.
-249.003 -431.913 0.
-428.401 -753.3 0.
-93.0549 -159.249 0.
-180.365 -307.665 0.
-313.728 -532.118 0.
-371.048 -675.83 0.
-283.192 -514.488 0.
-261.889 -556.52 0.
-177.242 -384.525 0.
-138.089 -305.912 0.
-169.441 -380.568 0.
-62.599 -142.339 0.
-38.1559 -87.6809 0.
-124.992 -278.224 0.
-16.0185 -35.7247 0.
-61.5056 -136.238 0.
-65.3902 -174.56 0.
-27.411 -72.5286 0.
-159.826 -399.801 0.
-44.9131 -112.249 0.
-12.8782 -32.2651 0.
-380.016 -1009.99 0.
-132.904 -347.221 0.
1.84023 4.73187 0.
-543.304 -1482.29 0.
-138.008 -366.686 0.
-516.817 -1427.1 0.
-249.775 -690.162 0.
-116.059 -314.517 0.
-565.983 -1567.64 0.
-275.001 -751.651 0.
-127.625 -342.386 0.
-535.101 -1479.96 0.
-291.631 -801.323 0.
-168.268 -447.663 0.
-494.212 -1361.83 0.
-464.727 -1281.21 0.
-212.855 -576.613 0.
-309.817 -855.703 0.
-489.192 -1351.88 0.
-158.282 -428.527 0.
-275.158 -754.813 0.
-535.489 -1483.18 0.
-114.499 -304.93 0.
-278.043 -759.065 0.
-558.308 -1546.27 0.
-107.318 -295.775 0.
-225.587 -624.786 0.
-476.831 -1310.67 0.
-110.2 -289.919 0.
-519.436 -1400.42 0.
-0.330158 -0.810691 0.
-85.9429 -213.603 0.
-290.638 -735.714 0.
-50.2 -126.904 0.
-21.7775 -55.3911 0.
-46.6007 -118.972 0.
-92.32 -226.378 0.
-203.486 -518.369 0.
5.07246 11.4179 0.
-2.8536 -6.28273 0.
-31.7592 -69.2424 0.
-118.905 -281.597 0.
-91.6912 -213.498 0.
-154.305 -352.694 0.
-184.018 -391.477 0.
-225.743 -475.384 0.
-257.167 -535.744 0.
-349.989 -631.344 0.
-412.558 -742.305 0.
-445.829 -738.63 0.
-98.9256 -162.022 0.
-26.3884 -43.0218 0.
-465.054 -788.994 0.
-288.748 -483.249 0.
-117.399 -193.872 0.
-536.671 -900.381 0.
-233.394 -382.742 0.
-33.6679 -53.9901 0.
-474.33 -716.285 0.
-97.3367 -142.529 0.
-223.698 -314.361 0.
-75.4648 -105.076 0.
-0.741568 -1.02364 0.
-48.4312 -76.7087 0.
-3.33731 -5.22416 0.
2.47189 3.82389 0.
-17.7806 -30.6219 0.
-18.5208 -26.0748 0.
-26.8324 -38.1452 0.
-21.7244 -31.1918 0.
0.94127 1.27344 0.
-34.1454 -47.0522 0.
-67.1096 -94.2843 0.
-3.27992 -4.66262 0.
-1.6273 -2.35313 0.
-1.21547 -1.80487 0.
0.735867 1.1022 0.
1.80623 2.72961 0.
3.90698 5.92287 0.
-4.29343 -11.1614 0.
5.23424 8.05657 0.
5.13509 7.86514 0.
9.27865 14.4342 0.
-31.0434 -49.09 0.
-54.4345 -93.4335 0.
-56.6584 -99.0071 0.
-64.9466 -136.878 0.
2.66021 5.67469 0.
1.24493 2.69048 0.
-52.3937 -117.415 0.
-67.0253 -153.95 0.
-86.1275 -202.376 0.
-201.046 -443.87 0.
-2.24723 -4.96354 0.
-183.15 -400.284 0.
-205.547 -537.726 0.
-160.926 -418.535 0.
-233.849 -590.353 0.
-84.7853 -213.357 0.
-58.1661 -146.618 0.
-344.118 -904.72 0.
-103.919 -268.086 0.
0.176455 0.447204 0.
-410.626 -1093.62 0.
-45.1206 -114.277 0.
-288.911 -799.584 0.
-118.741 -323.369 0.
-6.22376 -16.5689 0.
-270.458 -739.62 0.
-128.05 -345.69 0.
-4.48507 -12.1033 0.
-243.166 -668.187 0.
-141.257 -380.963 0.
-38.4444 -99.7713 0.
-245.805 -679.996 0.
-232.491 -641.428 0.
-67.8432 -181.724 0.
-136.2 -372.849 0.
-205.304 -567.841 0.
-33.3976 -89.9301 0.
-132.578 -360.182 0.
-236.994 -649.966 0.
-4.86477 -12.8809 0.
-119.06 -317.502 0.
-297.256 -811.706 0.
-1.77438 -4.82519 0.
-104.837 -289.769 0.
-282.435 -781.394 0.
-35.9687 -90.783 0.
-408.974 -1071.04 0.
2.90478 7.09412 0.
-83.1126 -205.413 0.
-300.781 -757.723 0.
-114.085 -290.845 0.
-86.1233 -220.313 0.
-163.164 -417.766 0.
-166.315 -403.729 0.
-276.285 -695.222 0.
-45.208 -99.4674 0.
-4.16244 -8.94587 0.
-141.262 -297.391 0.
-88.315 -205.741 0.
-40.6438 -93.2955 0.
0.687066 1.5541 0.
-62.075 -131.844 0.
-22.2595 -46.438 0.
-52.0878 -106.563 0.
-78.5274 -136.257 0.
-35.9514 -61.6685 0.
-36.2484 -56.6653 0.
0.938465 1.43117 0.
3.18922 4.74908 0.
1.09389 1.63662 0.
1.75541 2.59794 0.
-0.656405 -0.961329 0.
1.67741 2.50373 0.
1.26877 1.88215 0.
-3.37661 -4.97966 0.
-7.3524 -10.4496 0.
-20.2117 -29.2599 0.
-39.709 -54.7568 0.
-22.9646 -31.3941 0.
-14.9812 -20.3105 0.
-40.4707 -63.6571 0.
-35.4074 -55.0426 0.
-33.6767 -51.7444 0.
2.43301 4.1836 0.
0.489594 0.676533 0.
4.42403 6.11989 0.
-2.74911 -3.80755 0.
0.991254 1.31012 0.
-5.6607 -7.60293 0.
-53.3094 -72.7697 0.
-1.77441 -2.51232 0.
-159.865 -230.156 0.
6.46988 9.48105 0.
-12.5758 -18.581 0.
-260.456 -387.002 0.
7.13583 10.5834 0.
-102.785 -153.495 0.
-316.373 -476.909 0.
-21.0902 -31.544 0.
-390.952 -593.348 0.
-419.095 -647.223 0.
-353.048 -604.372 0.
-478.108 -836.754 0.
-351.521 -731.606 0.
-307.465 -648.228 0.
-267.609 -571.714 0.
-388.93 -880.054 0.
-253.354 -588.35 0.
-203.667 -483.882 0.
-402.699 -884.964 0.
-10.781 -23.5408 0.
-283.595 -614.582 0.
-366.878 -936.463 0.
-295.528 -751.43 0.
-323.503 -823.669 0.
-131.532 -333.299 0.
-102.785 -260.676 0.
-312.263 -811.828 0.
-76.8477 -195.692 0.
-0.296188 -6.46159 0.
-274.255 -706.132 0.
1.61608 3.91623 0.
-122.774 -335.759 0.
-2.76336 -7.38084 0.
-2.08419 -5.55695 0.
-133.888 -363.283 0.
-3.10316 -8.42455 0.
0.0290316 0.0780704 0.
-124.304 -339.287 0.
-27.215 -72.9595 0.
0.865121 2.238 0.
-74.6877 -206.761 0.
-67.2602 -186.125 0.
0.664259 1.77031 0.
-22.6238 -61.7184 0.
-89.1579 -246.121 0.
0.434925 1.16613 0.
-6.90644 -18.6988 0.
-107.89 -294.03 0.
0.53244 1.4034 0.
-7.36001 -19.5006 0.
-138.826 -371.063 0.
0.242553 0.65728 0.
0.966519 2.64485 0.
-110.496 -305.91 0.
-0.534341 -1.29117 0.
-297.694 -751.792 0.
1.71117 4.15735 0.
-80.1219 -196.932 0.
-316.809 -794.521 0.
-183.936 -473.345 0.
-157.916 -407.029 0.
-295.934 -761.297 0.
-241.955 -581.294 0.
-377.852 -938.721 0.
-259.059 -554.558 0.
-76.2112 -159.398 0.
-470.776 -967.08 0.
-276.293 -635.513 0.
-310.312 -702.309 0.
-346.491 -771.579 0.
-331.217 -703.207 0.
-309.88 -646.227 0.
-295.745 -605.4 0.
-592.936 -1007.64 0.
-335.453 -563.697 0.
-465.752 -721.557 0.
-318.67 -482.198 0.
-1.38595 -2.04239 0.
-274.973 -404.681 0.
-59.854 -87.1115 0.
6.36429 9.16617 0.
-245.91 -359.67 0.
5.92504 8.6172 0.
6.28383 9.08854 0.
-170.527 -243.286 0.
2.30785 3.23812 0.
-58.1101 -78.0576 0.
-3.25327 -4.30578 0.
-5.24806 -9.36576 0.
1.15358 1.72364 0.
1.25718 1.85809 0.
4.26139 6.23235 0.
-23.6967 -39.8142 0.
-0.311346 -0.42452 0.
-35.2944 -48.1802 0.
-144.067 -196.974 0.
-1.81421 -2.40844 0.
-79.7413 -107.668 0.
-216.525 -297.353 0.
-114.434 -161.246 0.
-246.571 -352.883 0.
-46.0197 -66.4897 0.
-151.895 -221.156 0.
-197.759 -290.447 0.
-161.924 -234.662 0.
-144.2 -210.426 0.
-123.223 -181.113 0.
-108.254 -157.851 0.
-4.97863 -7.35219 0.
-86.153 -128.032 0.
-9.59036 -15.4812 0.
-14.0934 -22.826 0.
1.55187 2.98512 0.
2.03989 3.95668 0.
-28.2901 -55.2784 0.
-1.03916 -2.13325 0.
-1.20909 -2.51518 0.
-0.671184 -1.41556 0.
2.66287 5.24444 0.
-2.31914 -4.72155 0.
2.92102 6.15148 0.
-205.169 -508.721 0.
-156.709 -382.589 0.
-86.9489 -219.761 0.
-54.6215 -140.132 0.
-101.678 -263.808 0.
-321.235 -848.251 0.
-136.553 -359.473 0.
-56.0883 -147.765 0.
-502.553 -1358.76 0.
-141.659 -373.768 0.
-473.165 -1291.6 0.
-262.997 -727.225 0.
-139.069 -383.681 0.
-500.364 -1385.91 0.
-281.428 -771.079 0.
-138.847 -371.488 0.
-489.78 -1354.5 0.
-301.108 -817.312 0.
-199.332 -529.312 0.
-442.89 -1225.59 0.
-429.324 -1187.68 0.
-224.857 -604.972 0.
-312.395 -854.236 0.
-454.806 -1258.03 0.
-180.828 -487.025 0.
-297.586 -817.285 0.
-478.491 -1325.31 0.
-138.525 -375.555 0.
-259.342 -715.303 0.
-445.191 -1232.71 0.
-118.084 -326.807 0.
-252.375 -698.811 0.
-435.716 -1202.92 0.
-73.4373 -183.515 0.
-450.822 -1189.22 0.
-86.2642 -228.016 0.
-102.643 -267.908 0.
-224.122 -576.807 0.
-114.695 -298.478 0.
-75.4851 -197.998 0.
-89.5219 -236.488 0.
-111.742 -261.909 0.
-186.398 -428.652 0.
-36.2409 -68.3966 0.
-20.5051 -38.2955 0.
-6.87581 -12.7075 0.
-1.2545 -9.01607 0.
1.60908 3.32057 0.
2.74017 5.56289 0.
-15.6067 -30.8906 0.
-1.75652 -3.43276 0.
-1.82371 -3.51902 0.
-54.2098 -87.3203 0.
-23.892 -38.1795 0.
-73.4107 -108.692 0.
-91.9446 -137.381 0.
-139.739 -203.751 0.
-186.57 -269.737 0.
-167.378 -239.395 0.
-207.193 -293.268 0.
-247.168 -354.183 0.
-200.43 -285.748 0.
-88.0042 -124.825 0.
-269.71 -386.246 0.
-147.217 -207.327 0.
-195.934 -263.027 0.
-87.7267 -115.888 0.
2.97978 3.87597 0.
-135.119 -199.176 0.
-14.3713 -20.9478 0.
-1.77728 -2.5638 0.
-0.371513 -0.542348 0.
-1.12848 -1.4283 0.
4.64511 5.96292 0.
1.8886 2.4593 0.
2.21339 2.83281 0.
2.15816 2.76993 0.
4.44461 5.72124 0.
5.79799 7.59811 0.
3.16582 4.21155 0.
-5.22313 -9.88577 0.
1.56701 2.13228 0.
0.74784 1.03529 0.
7.08555 9.81 0.
3.27659 4.63953 0.
-7.16491 -10.3862 0.
3.74125 5.52071 0.
1.5267 2.26929 0.
-98.1887 -146.924 0.
-13.9455 -22.5794 0.
-170.695 -277.257 0.
1.0815 2.08905 0.
-60.7795 -118.147 0.
-143.016 -279.583 0.
-146.073 -294.897 0.
-160.993 -329.144 0.
-169.767 -351.606 0.
-370.338 -716.616 0.
-165.03 -329.751 0.
-278.331 -577.243 0.
-373.347 -904.089 0.
-301.964 -719.272 0.
-281.365 -715.117 0.
-213.741 -553.436 0.
-237.298 -623.069 0.
-320.637 -839.871 0.
-149.187 -389.112 0.
-83.5741 -217.994 0.
-312.793 -829.788 0.
-72.9217 -187.707 0.
-203.024 -560.382 0.
-110.54 -305.963 0.
-21.7171 -59.0804 0.
-222.305 -610.845 0.
-96.8289 -261.892 0.
0.473888 1.26801 0.
-168.241 -460.208 0.
-85.5662 -232.441 0.
-0.747948 -2.03507 0.
-171.989 -476.064 0.
-155.646 -430.888 0.
-16.824 -45.612 0.
-82.2748 -224.485 0.
-144.722 -397.579 0.
-5.63157 -15.2186 0.
-73.4107 -199.738 0.
-170.515 -469.13 0.
-17.8741 -48.106 0.
-108.198 -296.177 0.
-201.577 -557.441 0.
-62.7901 -172.95 0.
-153.181 -423.728 0.
-245.248 -679.269 0.
-1.12244 -2.70007 0.
-253.747 -650.685 0.
-144.962 -386.956 0.
-161.261 -425.447 0.
-286.776 -745.494 0.
-237.961 -613.697 0.
-217.965 -565.577 0.
-307.194 -799.641 0.
-262.012 -601.608 0.
-364.841 -823.465 0.
-295.663 -562.064 0.
-186.87 -350.545 0.
-257.534 -476.466 0.
-108.212 -220.66 0.
-111.402 -223.484 0.
-112.341 -221.942 0.
-146.337 -287.954 0.
-19.7763 -38.4072 0.
-1.9101 -3.66196 0.
-231.398 -375.242 0.
-28.2915 -45.6352 0.
-103.647 -153.638 0.
2.05393 3.00582 0.
0.940773 1.35845 0.
-6.05125 -8.53502 0.
-0.734817 -1.02112 0.
7.73105 10.5921 0.
4.09532 5.57589 0.
3.63903 4.85678 0.
8.83467 11.5732 0.
-1.52668 -2.03705 0.
-1.47303 -1.93944 0.
-5.49165 -6.9159 0.
7.54122 9.5038 0.
4.78166 6.03155 0.
-2.68233 -3.76674 0.
0.835954 1.1582 0.
-1.4449 -1.9756 0.
2.46127 3.54825 0.
-1.9755 -2.48982 0.
3.36823 4.30657 0.
-12.5789 -16.3173 0.
-1.57914 -1.97336 0.
-83.1022 -104.114 0.
-82.1174 -103.115 0.
-174.848 -222.542 0.
-329.958 -425.604 0.
-0.876557 -1.14224 0.
-169.308 -224.141 0.
-399.35 -537.796 0.
-116.591 -157.667 0.
-263.806 -364.178 0.
-369.576 -521.364 0.
6.78541 10.0785 0.
-188.765 -282.177 0.
-334.031 -502.927 0.
-267.234 -433.534 0.
-339.142 -551.113 0.
-237.054 -455.249 0.
-206.488 -400.95 0.
-206.471 -404.731 0.
-178.035 -352.625 0.
-140.742 -282.09 0.
-87.3153 -177.231 0.
-229.735 -433.416 0.
-18.8684 -36.9938 0.
0.826499 1.58602 0.
-106.389 -250.478 0.
-95.7866 -228.605 0.
-39.6515 -105.488 0.
-39.0433 -102.774 0.
-96.8161 -252 0.
-111.949 -280.588 0.
-58.6678 -147.892 0.
-49.0523 -124.412 0.
-334.464 -857.35 0.
-74.6292 -187.48 0.
-313.838 -868.191 0.
-175.961 -485.356 0.
-82.427 -225.881 0.
-339.478 -938.402 0.
-204.106 -560.483 0.
-132.617 -360.592 0.
-389.29 -1075.32 0.
-236.226 -644.081 0.
-134.674 -359.445 0.
-366.441 -1014.42 0.
-349.407 -967.327 0.
-166.527 -445.495 0.
-249.064 -678.809 0.
-366.57 -1011.79 0.
-148.84 -404.132 0.
-226.277 -621.692 0.
-342.561 -947.644 0.
-126.873 -346.856 0.
-178.675 -492.478 0.
-264.057 -730.989 0.
-111.445 -308.139 0.
-265.93 -735.608 0.
-215.632 -550.713 0.
-0.658381 -1.6432 0.
-206.58 -510.375 0.
-75.1811 -194.635 0.
-51.8279 -134.915 0.
-81.7237 -213.355 0.
-106.114 -270.286 0.
-62.0148 -158.379 0.
-60.1237 -153.888 0.
-83.6581 -186.267 0.
-100.801 -221.324 0.
4.36627 8.29466 0.
-127.262 -240.244 0.
-269.368 -500.697 0.
-116.58 -230.237 0.
-202.319 -392.945 0.
-246.609 -472.212 0.
-232.643 -455.425 0.
-224.773 -434.287 0.
-218.542 -416.764 0.
-390.382 -637.508 0.
-199.719 -324.388 0.
-372.786 -552.17 0.
-212.398 -310.827 0.
5.43399 7.85477 0.
-390.237 -536.038 0.
-294.449 -399.228 0.
-169.391 -226.79 0.
-436.312 -576.037 0.
-200.492 -259.581 0.
-30.2416 -38.4322 0.
-286.916 -371.951 0.
-185.475 -237.479 0.
-90.5306 -112.574 0.
-43.6436 -54.2927 0.
-5.44095 -6.77317 0.
-14.3394 -19.9111 0.
2.19581 3.00781 0.
0.786657 1.06337 0.
-2.90408 -4.13359 0.
-47.0313 -58.9987 0.
-48.8105 -62.1217 0.
-58.4327 -75.4537 0.
-34.9887 -42.6798 0.
-59.1628 -72.2834 0.
-24.4296 -29.8908 0.
-61.1323 -75.6233 0.
-2.70276 -3.19186 0.
6.43816 7.56564 0.
9.13183 10.848 0.
-3.82677 -4.59694 0.
9.87011 11.9661 0.
6.68096 8.15008 0.
7.92642 9.7313 0.
3.56697 4.70044 0.
2.32976 3.1511 0.
2.97849 4.14236 0.
6.05311 9.22935 0.
-19.7848 -30.9325 0.
1.57727 3.03438 0.
3.51394 6.93376 0.
-41.1727 -83.3915 0.
-12.6049 -25.4367 0.
-6.34396 -12.898 0.
-19.0179 -39.0049 0.
-129.163 -241.976 0.
-29.6683 -56.1062 0.
-14.3805 -27.4784 0.
-128.476 -300.912 0.
-112.884 -268.075 0.
-69.9191 -185.592 0.
-71.1149 -186.847 0.
-126.243 -328.112 0.
-108.09 -273.012 0.
-69.6908 -176.985 0.
-77.2419 -197.371 0.
-203.13 -514.577 0.
-1.08162 -2.68361 0.
-153.599 -384.375 0.
-123.518 -337.623 0.
-57.5398 -155.748 0.
-130.977 -361.44 0.
-70.9336 -194.551 0.
-11.5875 -31.5076 0.
-127.974 -351.966 0.
-38.1803 -103.697 0.
-0.0628917 -3.84772 0.
-106.123 -293.857 0.
-100.686 -278.862 0.
1.16946 3.13235 0.
-34.9313 -94.8858 0.
-100.042 -274.763 0.
1.17791 3.18694 0.
-57.7783 -158.074 0.
-115.6 -318.745 0.
-39.55 -107.558 0.
-65.498 -179.704 0.
-89.3685 -246.647 0.
-63.4877 -172.565 0.
-197.3 -545.188 0.
-72.4913 -184.466 0.
-10.3918 -25.9776 0.
-158.57 -391.206 0.
-95.4574 -245.936 0.
-70.9858 -183.775 0.
-87.9101 -228.482 0.
-110.844 -281.651 0.
-67.252 -171.355 0.
-78.6234 -200.854 0.
-128.257 -287.507 0.
-142.766 -315.375 0.
-1.28455 -2.39268 0.
-25.3456 -46.6133 0.
-93.6487 -170.179 0.
-14.8688 -29.1129 0.
-11.8889 -23.1188 0.
-15.3949 -29.7314 0.
-2.49696 -4.85404 0.
4.27967 8.13582 0.
-0.196887 -0.366645 0.
-37.6922 -59.2054 0.
2.25212 3.41552 0.
5.8342 7.96002 0.
7.63906 10.1418 0.
9.18089 11.873 0.
6.29725 7.60627 0.
6.49186 7.8584 0.
4.45262 5.40109 0.
-7.85179 -9.37622 0.
4.21502 4.99922 0.
-3.3375 -3.93127 0.
-49.696 -62.4871 0.
-115.185 -143.142 0.
-83.5115 -102.392 0.
-81.2495 -99.7273 0.
-34.0667 -41.8512 0.
-55.1865 -75.7717 0.
-27.4833 -37.2082 0.
-6.55124 -8.75081 0.
-0.706142 -0.927854 0.
1.88996 2.22428 0.
7.35663 8.67204 0.
2.36814 2.79642 0.
-0.176787 -0.203218 0.
-0.484688 -0.566954 0.
-15.6659 -18.6574 0.
-5.6051 -8.11999 0.
7.67515 9.03256 0.
-2.54188 -2.96199 0.
-3.05817 -3.60274 0.
-117.105 -139.604 0.
1.24669 1.49371 0.
-20.363 -24.5447 0.
-99.1659 -120.226 0.
-1.72848 -2.20682 0.
-273.809 -359.035 0.
-354.535 -478.28 0.
-140.097 -210.699 0.
-526.153 -815.637 0.
-119.624 -228.121 0.
-188.032 -368.581 0.
-328.908 -661.582 0.
-161.967 -322.584 0.
-213.016 -428.254 0.
-277.655 -564.044 0.
-243.485 -453.108 0.
-246.557 -462.457 0.
-148.549 -281.17 0.
-148.537 -345.989 0.
-131.182 -309.864 0.
-102.35 -271.082 0.
-102.319 -268.367 0.
-159.09 -412.868 0.
-104.584 -266.184 0.
-92.1148 -235.796 0.
-101.147 -260.466 0.
-98.424 -246.134 0.
1.73409 4.24817 0.
-0.543744 -1.30243 0.
-98.2093 -265.326 0.
-30.0916 -80.3183 0.
-12.6759 -34.9611 0.
0.566898 1.55432 0.
1.05733 2.87487 0.
-0.0208453 -4.16569 0.
0.780092 2.10709 0.
0.0228908 0.0606831 0.
0.0464785 0.128699 0.
-0.105466 -0.292114 0.
-0.359283 -0.959049 0.
0.0700932 0.189748 0.
0.895102 2.44867 0.
1.24131 3.36251 0.
0.233812 0.639002 0.
0.623796 1.7162 0.
-0.68189 -1.85042 0.
1.32391 3.61979 0.
-4.63598 -12.7534 0.
-13.8739 -36.775 0.
-150.778 -411.339 0.
-47.5482 -121.12 0.
-31.3595 -78.5378 0.
-113.956 -280.875 0.
-116.555 -299.146 0.
-91.7256 -236.384 0.
-91.2673 -236.213 0.
-115.4 -292.524 0.
-72.7158 -184.845 0.
-99.5777 -253.905 0.
-171.955 -387.446 0.
-191.8 -425.468 0.
-145.597 -264.801 0.
-247.142 -444.671 0.
-193.145 -344.328 0.
-295.252 -579.909 0.
-234.767 -458.31 0.
-187.484 -363.678 0.
-343.098 -654.009 0.
-187.726 -348.129 0.
-147.217 -267.028 0.
-601.649 -925.023 0.
-114.686 -169.837 0.
-317.52 -426.453 0.
-205.795 -268.114 0.
-1.08232 -1.37296 0.
-78.3896 -93.0239 0.
6.80781 8.11292 0.
-3.44552 -4.11503 0.
-98.2848 -117.015 0.
0.535994 0.634448 0.
3.36516 3.95597 0.
6.56182 7.85333 0.
-27.6116 -33.2189 0.
-25.4078 -30.8478 0.
7.19537 8.56152 0.
3.57641 4.17306 0.
-2.46897 -3.04536 0.
-3.05054 -3.74442 0.
5.13363 6.27151 0.
2.92589 3.67744 0.
-75.6374 -86.1814 0.
-67.2454 -76.6517 0.
-50.9919 -58.1497 0.
-55.8787 -63.5544 0.
-119.024 -137.862 0.
-149.395 -176.228 0.
-128.659 -152.504 0.
-206.558 -242.626 0.
-75.79 -87.5694 0.
-123.627 -144.458 0.
-140.837 -166.46 0.
-273.702 -323.607 0.
-165.726 -197.154 0.
-118.748 -142.161 0.
-3.38316 -4.17618 0.
-69.88 -88.468 0.
-16.7716 -21.6616 0.
0.121563 0.179018 0.
-5.70758 -8.56133 0.
2.23923 4.1108 0.
-0.962402 -1.77759 0.
-1.33251 -2.47625 0.
1.27127 2.30538 0.
-0.482908 -0.886332 0.
1.27042 2.35928 0.
-15.0255 -26.1473 0.
1.50199 2.62368 0.
-38.975 -68.2423 0.
-113.096 -245.67 0.
-118.738 -265.476 0.
-91.2645 -231.046 0.
-87.2108 -221.054 0.
-115.459 -293.049 0.
-105.487 -267.834 0.
-91.0882 -233.485 0.
-97.5483 -252.294 0.
-199.849 -511.539 0.
-47.2834 -122.3 0.
-166.698 -435.356 0.
-245.528 -679.022 0.
-156.526 -429.901 0.
-182.317 -504.935 0.
-164.989 -456.586 0.
-158.205 -435.968 0.
-243.181 -671.518 0.
-181.004 -496.936 0.
-130.643 -355.371 0.
-263.286 -727.752 0.
-250.295 -693.008 0.
-147.955 -400.949 0.
-183.776 -503.264 0.
-231.815 -639.377 0.
-166.828 -457.785 0.
-182.822 -505.137 0.
-206.039 -570.679 0.
-152.018 -420.826 0.
-171.614 -474.765 0.
-195.03 -535.922 0.
-133.54 -364.217 0.
-234.069 -639.134 0.
-138.594 -348.815 0.
-31.131 -77.7549 0.
-164.34 -409.148 0.
-64.0348 -164.101 0.
-69.0227 -176.323 0.
-98.7873 -251.715 0.
-96.5199 -238.159 0.
-55.307 -133.341 0.
-53.3418 -125.636 0.
-125.02 -258.683 0.
-97.2263 -198.466 0.
-0.196827 -0.323951 0.
1.00277 1.64282 0.
-0.0551519 -0.089953 0.
-3.11795 -5.69443 0.
-0.000171677 -0.000312396 0.
2.61026 4.73341 0.
-22.2593 -38.5004 0.
-7.33271 -12.5454 0.
-2.63224 -4.4522 0.
-46.9221 -68.5971 0.
-8.52218 -12.2665 0.
-175.424 -230.823 0.
-143.032 -182.656 0.
9.34519 11.6164 0.
-95.5372 -111.525 0.
-175.78 -205.513 0.
-281.433 -329.51 0.
-192.115 -227.89 0.
-133.554 -157.499 0.
-82.7471 -96.9909 0.
-216.609 -254.506 0.
-157.429 -186.146 0.
-184.302 -222.193 0.
-96.8567 -114.351 0.
-76.0316 -87.9752 0.
-42.97 -51.1498 0.
-35.9399 -42.6265 0.
-32.5982 -38.533 0.
-0.934843 -1.05787 0.
8.00915 8.49916 0.
-0.13321 -0.140354 0.
-5.7814 -6.36224 0.
-2.09293 -2.2132 0.
-6.88707 -7.79884 0.
-3.8846 -4.1278 0.
-1.67734 -1.82939 0.
8.93191 9.80567 0.
7.81211 8.51904 0.
3.18988 3.48804 0.
1.56642 1.71789 0.
2.5444 2.7809 0.
6.06076 6.62581 0.
6.9314 7.57983 0.
1.74632 2.08888 0.
-4.63648 -7.5028 0.
-81.5873 -106.337 0.
-2.23807 -3.31169 0.
-47.3896 -71.4916 0.
-2.71107 -4.91681 0.
0.194081 0.353979 0.
-7.22001 -13.2514 0.
1.18393 2.1536 0.
-0.771866 -1.42122 0.
-118.224 -221.097 0.
-50.5058 -87.2666 0.
-181.347 -314.055 0.
-23.9121 -41.596 0.
-150.115 -327.276 0.
-166.459 -374.244 0.
-90.2035 -224.949 0.
-94.024 -234.752 0.
-130.273 -325.665 0.
-84.3778 -214.245 0.
-91.3205 -234.083 0.
-116.655 -301.77 0.
-94.9678 -243.531 0.
-34.6516 -89.8906 0.
-59.9825 -157.155 0.
-133.735 -368.718 0.
-55.2938 -151.053 0.
-27.6333 -76.5395 0.
-39.3102 -108.678 0.
-49.1855 -135.215 0.
-50.5493 -139.241 0.
-3.90655 -10.6932 0.
1.11271 3.01975 0.
-26.0381 -72.0475 0.
-23.0176 -63.7371 0.
-0.0117204 -0.0317019 0.
1.06322 2.90118 0.
-23.7829 -65.3205 0.
-19.4466 -53.1273 0.
-27.5717 -75.99 0.
-39.3272 -108.863 0.
-41.3778 -114.396 0.
-40.1189 -111.09 0.
-39.6477 -109.2 0.
-45.1143 -122.291 0.
-133.83 -363.072 0.
-70.737 -179.717 0.
-58.3136 -147.431 0.
-104.673 -263.279 0.
-112.934 -286.07 0.
-101.052 -255.226 0.
-118.941 -299.543 0.
-137.152 -337.399 0.
-106.949 -257.343 0.
-110.505 -259.947 0.
-167.383 -349.1 0.
-124.272 -255.112 0.
-10.1264 -16.54 0.
-104.552 -170.652 0.
-51.2391 -83.056 0.
-73.3364 -132.415 0.
0.461819 0.828536 0.
2.10292 3.76042 0.
-17.8968 -31.4967 0.
-9.98808 -17.3982 0.
2.38969 4.11778 0.
-54.503 -79.3761 0.
0.317829 0.454816 0.
-86.5548 -113.026 0.
4.75192 5.99974 0.
6.71726 8.20916 0.
6.90492 7.63177 0.
-4.45688 -4.86716 0.
0.296659 0.32048 0.
0.214158 0.232705 0.
6.56667 7.13224 0.
3.50717 3.80788 0.
4.3348 4.67207 0.
-2.02907 -2.18299 0.
-0.839161 -0.910719 0.
-1.6261 -1.76727 0.
3.40819 3.70886 0.
1.20574 1.31995 0.
0.464037 0.504251 0.
-1.11365 -1.20142 0.
-3.75086 -4.12829 0.
-1.79653 -1.87333 0.
1.05337 1.09033 0.
-2.35538 -2.41931 0.
-18.5519 -19.1563 0.
0.836413 0.865256 0.
5.6039 5.8079 0.
-39.4079 -41.6549 0.
-160.096 -170.263 0.
-41.0671 -43.2193 0.
-120.263 -126.756 0.
-315.511 -333.084 0.
-174.09 -181.956 0.
-113.518 -118.381 0.
-73.7761 -76.7663 0.
6.93111 8.34473 0.
-149.286 -187.798 0.
-264.089 -347.399 0.
1.40581 2.09037 0.
-399.055 -607.189 0.
-72.6221 -130.354 0.
-140.311 -253.765 0.
-207.854 -378.752 0.
-121.961 -222.753 0.
-169.762 -314.217 0.
-153.652 -288.222 0.
-142.546 -244.976 0.
-68.2764 -117.604 0.
-47.8357 -82.647 0.
-109.958 -239.541 0.
-125.596 -274.557 0.
-0.384798 -0.913626 0.
-27.1456 -65.4939 0.
-98.8099 -242.455 0.
-75.0018 -189.255 0.
-68.8148 -171.966 0.
-81.5306 -201.594 0.
-103.1 -251.149 0.
-37.0864 -90.7611 0.
-88.8222 -217.942 0.
-143.257 -383.147 0.
-92.6308 -247.565 0.
-105.495 -291.705 0.
-100.894 -278.2 0.
-125.171 -343.636 0.
-115.109 -316.833 0.
-97.8779 -268.196 0.
-105.237 -286.498 0.
-163.058 -451.446 0.
-151.596 -419.688 0.
-126.828 -343.672 0.
-112.924 -309.2 0.
-116.937 -322.476 0.
-124.758 -342.792 0.
-106.207 -293.141 0.
-99.8335 -276.257 0.
-105.841 -291.668 0.
-89.9996 -248.338 0.
-102.356 -282.713 0.
-73.8445 -192.091 0.
-126.968 -331.146 0.
-75.5995 -184.999 0.
-44.8081 -109.821 0.
-104.43 -255.469 0.
-64.7213 -157.146 0.
-52.4997 -127.079 0.
-71.822 -172.992 0.
-89.0203 -212.963 0.
-27.8834 -67.127 0.
-3.96988 -9.60793 0.
-123.231 -257.355 0.
-114.409 -236.003 0.
-39.2663 -63.7023 0.
-92.3772 -149.507 0.
-172.391 -278.337 0.
-226.148 -406.195 0.
-154.534 -275.094 0.
-61.8887 -109.31 0.
-244.494 -433.214 0.
-149.403 -263.338 0.
-61.0741 -106.961 0.
-420.258 -614.464 0.
0.87658 1.24841 0.
-295.108 -380.654 0.
-169.342 -211.166 0.
1.26992 1.53049 0.
-180.505 -190.393 0.
-195.46 -204.327 0.
-195.564 -202.814 0.
-327.84 -343.275 0.
-145.267 -151.915 0.
-80.3875 -84.0973 0.
-109.899 -116.124 0.
-6.10862 -6.44248 0.
1.28363 1.34919 0.
1.88795 1.98932 0.
-18.928 -19.9887 0.
-2.30573 -2.50206 0.
-3.55593 -3.8305 0.
5.95246 6.36542 0.
-5.852 -6.26874 0.
-58.9835 -60.4275 0.
-39.6279 -40.2934 0.
-17.6046 -17.7615 0.
-72.5201 -73.083 0.
-107.758 -108.68 0.
-85.9274 -87.5784 0.
-18.0343 -18.4618 0.
-5.86631 -6.0324 0.
7.40566 7.01819 0.
-5.62108 -5.05188 0.
1.07463 1.02589 0.
7.43285 7.12045 0.
8.71703 8.39199 0.
-1.07514 -1.04018 0.
4.12001 4.61576 0.
7.19327 8.31233 0.
2.56016 3.05896 0.
3.72821 5.26366 0.
-13.0657 -19.5479 0.
3.10569 5.7232 0.
0.901871 1.68966 0.
-54.4648 -103.654 0.
-0.432688 -0.82708 0.
1.82205 3.46468 0.
-62.1134 -117.224 0.
-41.3676 -70.6445 0.
-13.8852 -23.8577 0.
3.02372 5.22449 0.
-67.507 -147.815 0.
-73.2093 -160.972 0.
2.24011 5.35168 0.
-1.29561 -3.14556 0.
-60.9464 -150.418 0.
-26.8579 -67.4608 0.
-36.0396 -89.6566 0.
-51.8138 -127.566 0.
-32.1675 -79.5163 0.
-12.9499 -32.1193 0.
-39.0918 -97.2166 0.
-62.685 -167.239 0.
-18.1551 -48.3735 0.
-22.2849 -61.5504 0.
-15.7818 -43.4463 0.
-32.7722 -89.7861 0.
1.63429 4.50772 0.
-1.34901 -3.70522 0.
1.07836 2.94554 0.
-5.48414 -15.1809 0.
-2.97683 -8.24256 0.
-4.20561 -11.4508 0.
0.0731836 0.201033 0.
-0.253971 -0.701657 0.
-21.2734 -58.2885 0.
-10.6607 -29.3616 0.
-6.74552 -18.6409 0.
-32.8791 -90.5125 0.
-19.7007 -54.3158 0.
-25.895 -71.4819 0.
-8.48913 -22.1257 0.
-61.8308 -161.554 0.
-41.9346 -103.041 0.
-18.4942 -45.4986 0.
-24.2003 -59.5774 0.
-37.466 -91.3299 0.
-26.3608 -64.0383 0.
-31.2001 -75.4645 0.
-57.9719 -138.817 0.
-3.30546 -7.95447 0.
-6.01569 -14.5048 0.
-67.9213 -145.799 0.
-64.9346 -136.328 0.
-69.6318 -113.256 0.
-43.4629 -70.9914 0.
-24.0104 -39.3686 0.
-30.0984 -54.9679 0.
1.99965 3.61669 0.
1.3775 2.46793 0.
-78.9611 -144.723 0.
-12.7544 -23.1536 0.
-1.79982 -3.2313 0.
-7.54111 -10.6426 0.
4.15726 5.53465 0.
-1.86119 -2.16404 0.
-4.16819 -5.30739 0.
5.92364 6.40046 0.
-18.3505 -17.3258 0.
-14.3299 -13.5349 0.
-10.1582 -9.59853 0.
-2.96333 -2.79399 0.
-0.505586 -0.475731 0.
-5.59899 -5.64045 0.
-30.9834 -32.0607 0.
-57.1479 -59.0726 0.
-126.722 -130.81 0.
-87.8572 -89.7137 0.
-78.325 -80.258 0.
-18.1081 -19.4745 0.
-32.9628 -35.1966 0.
-36.4938 -38.6937 0.
1.73309 1.61448 0.
6.6894 6.22777 0.
1.53505 1.41331 0.
-1.79545 -1.63364 0.
2.84441 2.64612 0.
-0.218365 -0.204278 0.
-3.53676 -3.36681 0.
-1.66173 -1.57285 0.
-3.37546 -3.17568 0.
4.374 4.08769 0.
3.11253 2.91875 0.
2.76546 2.60246 0.
6.37818 6.09584 0.
-0.407717 -0.391596 0.
-83.245 -80.361 0.
-0.374725 -0.40484 0.
3.90917 4.35501 0.
-202.251 -232.725 0.
1.4447 2.04152 0.
-257.192 -387.46 0.
0.453915 0.838398 0.
-14.6608 -27.5249 0.
-161.292 -306.955 0.
0.811332 1.54463 0.
-12.8105 -24.2527 0.
-101.015 -189.875 0.
-56.454 -95.9525 0.
-27.8367 -47.5991 0.
-6.78712 -11.6708 0.
-20.6804 -45.5045 0.
-37.9771 -83.9491 0.
0.212471 0.510847 0.
-2.68718 -6.56676 0.
-40.96 -101.741 0.
-12.6668 -31.6595 0.
-7.18433 -17.7853 0.
-26.1913 -64.1831 0.
-3.97038 -9.94611 0.
-1.40242 -3.52264 0.
-30.2086 -76.0496 0.
-5.36288 -14.2689 0.
1.20476 3.20032 0.
1.17959 3.25408 0.
-0.0203171 -6.30724 0.
-0.841729 -2.30184 0.
1.99611 5.50435 0.
1.57342 4.32099 0.
-0.470707 -1.28566 0.
2.02105 5.59633 0.
0.107603 0.297873 0.
-0.0303561 -4.72014 0.
-0.957844 -2.63353 0.
0.985842 2.72449 0.
0.612298 1.67077 0.
-1.01035 -2.77371 0.
0.817329 2.25353 0.
-0.0239873 -0.0659532 0.
1.02476 2.8223 0.
-1.79796 -4.95878 0.
-0.935953 -2.44518 0.
-14.5115 -37.9943 0.
-18.9591 -46.7355 0.
-1.61987 -3.9969 0.
1.23579 3.05198 0.
-10.7099 -26.1896 0.
-2.20387 -5.36835 0.
0.896688 2.17507 0.
-53.4633 -127.899 0.
-14.034 -33.6411 0.
-4.52147 -10.8652 0.
-45.4355 -98.5546 0.
-31.3707 -66.5405 0.
-63.7012 -103.971 0.
-45.658 -74.8281 0.
-27.4656 -45.1912 0.
-130.89 -238.047 0.
-34.6423 -62.459 0.
-2.39597 -4.27905 0.
-214.296 -389.718 0.
-33.4726 -60.2034 0.
-2.09892 -3.73383 0.
-275.525 -389.804 0.
4.74874 6.26282 0.
-159.327 -181.202 0.
2.01255 2.20064 0.
-4.6426 -5.19511 0.
-96.978 -91.0353 0.
-15.2816 -14.3528 0.
-2.48541 -2.33556 0.
-5.06858 -4.6994 0.
-4.07664 -3.7732 0.
4.88623 4.515 0.
5.82201 5.47328 0.
2.16375 2.04863 0.
-0.490432 -0.467446 0.
2.47234 2.30569 0.
0.0152843 0.0141775 0.
-3.92907 -3.22316 0.
-3.98998 -3.4549 0.
-3.71865 -3.3798 0.
-3.03386 -2.71119 0.
-57.3006 -51.8859 0.
-9.35378 -8.36619 0.
-1.39095 -1.22838 0.
-148.903 -135.465 0.
-30.0577 -27.4618 0.
-17.7603 -16.5032 0.
-52.668 -48.618 0.
-142.5 -130.496 0.
5.52324 5.08957 0.
-40.3546 -37.2936 0.
-142.91 -132.392 0.
-68.8327 -65.6112 0.
-57.4844 -55.0822 0.
-37.3962 -36.0193 0.
-0.698825 -0.726191 0.
-36.9618 -39.5593 0.
-59.4692 -65.7623 0.
4.40712 5.97783 0.
2.79629 4.10861 0.
-2.12243 -3.81614 0.
2.22236 4.00495 0.
-4.32596 -7.81018 0.
0.82942 1.49003 0.
-1.59175 -6.79297 0.
0.0505259 0.0933708 0.
-13.2269 -22.2674 0.
3.42927 5.7861 0.
-1.76988 -2.99324 0.
-0.887379 -1.90976 0.
-43.2744 -93.1302 0.
0.323293 0.754027 0.
-7.78474 -18.2669 0.
-52.4885 -124.155 0.
-9.93844 -23.562 0.
-7.40381 -17.5385 0.
-25.9097 -61.317 0.
-3.47069 -8.42183 0.
-23.2122 -56.3265 0.
-39.3714 -95.5435 0.
-45.0453 -116.15 0.
-36.4863 -94.2719 0.
-13.3842 -36.5208 0.
-34.2093 -92.9989 0.
-58.8441 -159.298 0.
-12.0327 -32.9397 0.
-29.956 -81.5333 0.
-56.9349 -153.863 0.
-22.9246 -63.48 0.
-22.9659 -63.5339 0.
-59.4231 -162.249 0.
-25.7679 -70.715 0.
0.950471 2.61879 0.
-61.4954 -166.426 0.
-29.346 -79.761 0.
-8.6853 -23.6959 0.
-67.8915 -183.658 0.
-32.2507 -87.3982 0.
-11.0401 -29.9652 0.
-17.3864 -44.3089 0.
-40.9003 -104.244 0.
-27.4753 -64.6282 0.
-19.4843 -45.8583 0.
-18.1156 -42.6674 0.
-40.4607 -94.7692 0.
-8.25137 -19.2535 0.
-0.207143 -0.48165 0.
-42.7206 -97.5052 0.
-11.2199 -25.6556 0.
-0.20871 -0.478747 0.
-37.2016 -78.3947 0.
-2.53393 -5.30139 0.
-3.58003 -5.89696 0.
0.869355 1.43171 0.
-4.94951 -8.14843 0.
-6.88859 -12.2965 0.
2.35433 4.09165 0.
0.396037 0.669865 0.
2.77543 4.74098 0.
0.0295611 0.0504311 0.
1.81485 3.09261 0.
-17.5814 -23.5544 0.
-8.38361 -10.9403 0.
-158.271 -175.329 0.
-22.0519 -23.4976 0.
-5.42867 -5.73927 0.
-79.4744 -74.2075 0.
-54.0948 -50.5193 0.
-91.1684 -85.1484 0.
-167.542 -152.778 0.
-51.0475 -46.4723 0.
-7.71077 -7.00976 0.
-144.126 -131.485 0.
-54.5627 -50.1761 0.
-33.2821 -30.8341 0.
-28.9959 -26.485 0.
-146.547 -133.31 0.
-3.89138 -2.86273 0.
0.693856 0.617805 0.
-17.2433 -15.735 0.
3.54125 2.54812 0.
-28.5342 -23.183 0.
-0.940601 -0.754749 0.
-1.13256 -0.897893 0.
0.0335015 0.0280195 0.
-4.39662 -3.68647 0.
4.21452 3.62611 0.
-0.656127 -0.568197 0.
-21.4103 -18.6604 0.
-4.85042 -4.29887 0.
5.78535 5.15848 0.
-32.52 -29.1774 0.
0.457353 0.425714 0.
5.8851 5.46717 0.
7.56046 7.00943 0.
-2.99906 -2.9739 0.
2.64003 2.68009 0.
-75.3262 -78.1553 0.
4.53041 6.29726 0.
-2.20755 -3.34385 0.
-0.0306107 -0.0549684 0.
-5.47632 -9.85233 0.
-44.961 -80.9826 0.
-0.694787 -1.23789 0.
2.34814 4.24354 0.
-38.3594 -70.3934 0.
-27.9877 -47.1664 0.
-7.99884 -13.512 0.
0.797871 1.35109 0.
-1.51928 -3.28681 0.
-7.0456 -15.2355 0.
1.29545 3.0474 0.
-6.77284 -16.027 0.
-40.5561 -96.6876 0.
-2.07623 -4.97593 0.
-5.2114 -12.4777 0.
-20.3497 -48.6612 0.
1.62435 3.95205 0.
-2.28762 -5.56537 0.
-14.6503 -35.6468 0.
-7.92904 -20.451 0.
-9.05675 -23.4048 0.
1.56045 4.26192 0.
1.4163 3.85581 0.
-1.55659 -4.22269 0.
1.00483 2.74823 0.
2.50285 6.8076 0.
-0.952004 -2.57228 0.
0.705713 1.95409 0.
0.596011 1.6487 0.
1.10524 3.01825 0.
1.3336 3.65962 0.
-0.740785 -2.04067 0.
1.88311 5.10264 0.
-0.737075 -2.00493 0.
-0.432634 -1.18097 0.
-0.173854 -0.469326 0.
-0.304024 -0.822025 0.
-6.14963 -16.6521 0.
-0.888771 -2.28565 0.
-1.22134 -3.14086 0.
-24.4964 -57.5203 0.
-8.92314 -20.9639 0.
-10.5115 -24.7146 0.
-24.309 -57.4088 0.
-2.46366 -5.79615 0.
-0.543411 -1.27425 0.
-27.5687 -63.0124 0.
1.05357 2.41211 0.
-1.63306 -3.75319 0.
-15.2085 -32.0939 0.
-3.57787 -7.48679 0.
-18.2221 -30.1767 0.
1.36824 2.26632 0.
-4.74159 -7.85146 0.
-57.5437 -102.395 0.
-4.85485 -8.41069 0.
0.673929 1.13547 0.
-21.2082 -36.1331 0.
1.36421 2.32284 0.
3.08783 5.25161 0.
-38.7379 -52.8688 0.
4.0309 5.03361 0.
-77.1867 -79.8038 0.
-1.00199 -1.00526 0.
-3.93629 -3.72496 0.
-8.2846 -7.40158 0.
-3.5129 -3.1538 0.
-3.9693 -3.58052 0.
-46.7177 -40.6047 0.
-17.9043 -15.549 0.
-10.9948 -9.5413 0.
-19.0428 -16.3321 0.
6.40266 5.46303 0.
6.39527 5.43104 0.
2.5795 2.1575 0.
-4.26024 -3.55781 0.
1.70724 1.224 0.
-2.227 -1.67028 0.
1.32366 1.03698 0.
