# vtk DataFile Version 2.0
test grain
ASCII
DATASET UNSTRUCTURED_GRID
POINTS 5000 float
0.497786 0.000617382 0.
0.500599 0.000795825 0.
0.503077 0.000864321 0.
0.505535 0.00093097 0.
0.507653 0.00094664 0.
0.509771 0.000962587 0.
0.51186 0.000974665 0.
0.513904 0.000980024 0.
0.515947 0.000985413 0.
0.517969 0.000989374 0.
0.519979 0.000992592 0.
0.52199 0.000995821 0.
0.523993 0.000996646 0.
0.525994 0.00099716 0.
0.527996 0.000997652 0.
0.529997 0.000997955 0.
0.531998 0.000998258 0.
0.533998 0.000998536 0.
0.535999 0.000998762 0.
0.537999 0.000998989 0.
0.539999 0.000999133 0.
0.542 0.000999212 0.
0.544 0.000999291 0.
0.546 0.000999289 0.
0.548 0.000999264 0.
0.55 0.000999239 0.
0.552 0.000999218 0.
0.554 0.000999197 0.
0.556 0.00099919 0.
0.558 0.000999232 0.
0.56 0.000999274 0.
0.562 0.000999303 0.
0.564 0.000999317 0.
0.566 0.000999331 0.
0.568 0.000999326 0.
0.57 0.000999312 0.
0.572 0.000999298 0.
0.574 0.000999288 0.
0.576 0.000999279 0.
0.578 0.000999275 0.
0.58 0.000999317 0.
0.582 0.000999359 0.
0.584 0.000999387 0.
0.586 0.000999388 0.
0.588 0.000999389 0.
0.59 0.0009994 0.
0.592 0.000999419 0.
0.594 0.000999439 0.
0.596 0.000999392 0.
0.598 0.000999326 0.
0.6 0.000999261 0.
0.602 0.000999315 0.
0.604 0.000999369 0.
0.606 0.000999403 0.
0.608 0.00099937 0.
0.61 0.000999337 0.
0.612 0.000999322 0.
0.614 0.000999331 0.
0.616 0.00099934 0.
0.618 0.00099933 0.
0.62 0.000999309 0.
0.622 0.000999288 0.
0.624 0.000999277 0.
0.626 0.000999267 0.
0.628 0.000999261 0.
0.63 0.000999283 0.
0.632 0.000999304 0.
0.634 0.00099931 0.
0.636 0.000999285 0.
0.638 0.000999261 0.
0.64 0.000999222 0.
0.642 0.000999171 0.
0.644 0.00099912 0.
0.646 0.000999124 0.
0.648 0.000999142 0.
0.65 0.00099916 0.
0.652 0.000999196 0.
0.654 0.000999231 0.
0.656 0.000999228 0.
0.658001 0.000999092 0.
0.660001 0.000998956 0.
0.662001 0.000998677 0.
0.664002 0.00099822 0.
0.666002 0.000997763 0.
0.668004 0.000997607 0.
0.670005 0.000997601 0.
0.672007 0.000997595 0.
0.674009 0.000996472 0.
0.676011 0.000995216 0.
0.678016 0.000993546 0.
0.680036 0.000988687 0.
0.682056 0.000983852 0.
0.684089 0.000978715 0.
0.686149 0.000972924 0.
0.688209 0.000967167 0.
0.69037 0.000940567 0.
0.692586 0.000903936 0.
0.694822 0.000866187 0.
0.697603 0.000767273 0.
0.700391 0.000671879 0.
0.495821 0.00161236 0.
0.499129 0.00230355 0.
0.501963 0.00255694 0.
0.504775 0.00277576 0.
0.507138 0.00283224 0.
0.509432 0.00288247 0.
0.511663 0.00292331 0.
0.513757 0.00293955 0.
0.515852 0.00295589 0.
0.517907 0.00296797 0.
0.519938 0.00297767 0.
0.52197 0.0029874 0.
0.523978 0.00298993 0.
0.525982 0.00299147 0.
0.527987 0.00299295 0.
0.52999 0.00299386 0.
0.531993 0.00299477 0.
0.533995 0.00299561 0.
0.535997 0.00299629 0.
0.537998 0.00299697 0.
0.539998 0.0029974 0.
0.541999 0.00299764 0.
0.543999 0.00299787 0.
0.545999 0.00299787 0.
0.547999 0.00299779 0.
0.549999 0.00299772 0.
0.551999 0.00299765 0.
0.553999 0.00299759 0.
0.555999 0.00299757 0.
0.557999 0.0029977 0.
0.559999 0.00299782 0.
0.561999 0.00299791 0.
0.563999 0.00299795 0.
0.565999 0.00299799 0.
0.567999 0.00299798 0.
0.569999 0.00299794 0.
0.572 0.00299789 0.
0.573999 0.00299786 0.
0.575999 0.00299784 0.
0.577999 0.00299782 0.
0.579999 0.00299795 0.
0.581999 0.00299808 0.
0.583999 0.00299816 0.
0.585999 0.00299816 0.
0.587999 0.00299817 0.
0.589999 0.0029982 0.
0.591999 0.00299826 0.
0.593999 0.00299832 0.
0.596 0.00299818 0.
0.598 0.00299798 0.
0.6 0.00299778 0.
0.602 0.00299794 0.
0.604 0.00299811 0.
0.606 0.00299821 0.
0.608 0.00299811 0.
0.61 0.00299801 0.
0.612 0.00299797 0.
0.614 0.00299799 0.
0.616 0.00299802 0.
0.618 0.00299799 0.
0.620001 0.00299793 0.
0.622001 0.00299786 0.
0.624001 0.00299783 0.
0.626 0.0029978 0.
0.628 0.00299778 0.
0.63 0.00299785 0.
0.632 0.00299791 0.
0.634 0.00299793 0.
0.636001 0.00299786 0.
0.638001 0.00299778 0.
0.640001 0.00299766 0.
0.642001 0.00299751 0.
0.644001 0.00299736 0.
0.646001 0.00299737 0.
0.648001 0.00299743 0.
0.650001 0.00299748 0.
0.652001 0.00299759 0.
0.654001 0.00299769 0.
0.656001 0.00299768 0.
0.658002 0.00299728 0.
0.660002 0.00299687 0.
0.662003 0.00299603 0.
0.664005 0.00299466 0.
0.666007 0.00299329 0.
0.668011 0.00299282 0.
0.670015 0.00299281 0.
0.67202 0.00299279 0.
0.674027 0.00298939 0.
0.676034 0.00298561 0.
0.678048 0.0029805 0.
0.680104 0.00296581 0.
0.682159 0.00295119 0.
0.684241 0.0029357 0.
0.686368 0.00291815 0.
0.688494 0.00290069 0.
0.69089 0.00280475 0.
0.693367 0.00268863 0.
0.696058 0.00253233 0.
0.699191 0.00222483 0.
0.702402 0.00174462 0.
0.493583 0.00229611 0.
0.49714 0.00344549 0.
0.500661 0.00419865 0.
0.503833 0.00457781 0.
0.506576 0.00470671 0.
0.50906 0.00479463 0.
0.51146 0.00487103 0.
0.513607 0.00489838 0.
0.515755 0.00492589 0.
0.517844 0.00494635 0.
0.519897 0.0049626 0.
0.52195 0.00497889 0.
0.523963 0.0049832 0.
0.525971 0.00498578 0.
0.527978 0.00498825 0.
0.529983 0.00498977 0.
0.531988 0.00499129 0.
0.533992 0.00499267 0.
0.535994 0.00499381 0.
0.537996 0.00499494 0.
0.539997 0.00499567 0.
0.541998 0.00499606 0.
0.543998 0.00499646 0.
0.545999 0.00499645 0.
0.547999 0.00499632 0.
0.549999 0.0049962 0.
0.551999 0.00499609 0.
0.553998 0.00499598 0.
0.555998 0.00499595 0.
0.557998 0.00499616 0.
0.559999 0.00499637 0.
0.561999 0.00499652 0.
0.563999 0.00499658 0.
0.565999 0.00499665 0.
0.567999 0.00499663 0.
0.569999 0.00499656 0.
0.571999 0.00499649 0.
0.573999 0.00499644 0.
0.575999 0.00499639 0.
0.577999 0.00499637 0.
0.579999 0.00499658 0.
0.581999 0.00499679 0.
0.583999 0.00499694 0.
0.585999 0.00499694 0.
0.587999 0.00499695 0.
0.589999 0.004997 0.
0.591999 0.0049971 0.
0.593999 0.00499719 0.
0.595999 0.00499696 0.
0.598 0.00499663 0.
0.6 0.0049963 0.
0.602001 0.00499657 0.
0.604001 0.00499684 0.
0.606001 0.00499702 0.
0.608001 0.00499685 0.
0.610001 0.00499668 0.
0.612001 0.00499661 0.
0.614001 0.00499666 0.
0.616001 0.0049967 0.
0.618001 0.00499665 0.
0.620001 0.00499654 0.
0.622001 0.00499644 0.
0.624001 0.00499639 0.
0.626001 0.00499634 0.
0.628 0.00499631 0.
0.630001 0.00499641 0.
0.632001 0.00499652 0.
0.634001 0.00499655 0.
0.636001 0.00499643 0.
0.638001 0.0049963 0.
0.640001 0.00499611 0.
0.642002 0.00499585 0.
0.644002 0.0049956 0.
0.646002 0.00499562 0.
0.648001 0.00499571 0.
0.650001 0.0049958 0.
0.652001 0.00499598 0.
0.654002 0.00499616 0.
0.656002 0.00499614 0.
0.658003 0.00499546 0.
0.660003 0.00499478 0.
0.662005 0.00499338 0.
0.664009 0.00499109 0.
0.666013 0.00498881 0.
0.668018 0.00498804 0.
0.670026 0.00498802 0.
0.672033 0.00498799 0.
0.674045 0.00498227 0.
0.676058 0.00497596 0.
0.678081 0.00496726 0.
0.680173 0.00494259 0.
0.682264 0.00491804 0.
0.684398 0.0048921 0.
0.686594 0.00486252 0.
0.688788 0.00483312 0.
0.691488 0.00464386 0.
0.694254 0.00443939 0.
0.697572 0.00409218 0.
0.701096 0.0035352 0.
0.704755 0.00243356 0.
0.490895 0.00254663 0.
0.49498 0.00415374 0.
0.498983 0.00535378 0.
0.502279 0.00584303 0.
0.505401 0.00617476 0.
0.508044 0.00636142 0.
0.51067 0.00655025 0.
0.512979 0.00664534 0.
0.515284 0.00673863 0.
0.517507 0.00681035 0.
0.519641 0.00685464 0.
0.521777 0.00689966 0.
0.523838 0.00692485 0.
0.525884 0.00694653 0.
0.527928 0.00696692 0.
0.529943 0.00697069 0.
0.531958 0.00697446 0.
0.53397 0.00697833 0.
0.535978 0.00698242 0.
0.537986 0.00698652 0.
0.539991 0.00698927 0.
0.541993 0.00699092 0.
0.543995 0.00699257 0.
0.545996 0.00699318 0.
0.547997 0.00699348 0.
0.549998 0.00699378 0.
0.551998 0.0069937 0.
0.553997 0.00699362 0.
0.555997 0.00699362 0.
0.557997 0.00699394 0.
0.559998 0.00699425 0.
0.561998 0.00699447 0.
0.563998 0.00699455 0.
0.565998 0.00699464 0.
0.567998 0.00699461 0.
0.569998 0.00699452 0.
0.571999 0.00699443 0.
0.573998 0.00699437 0.
0.575998 0.0069943 0.
0.577998 0.00699427 0.
0.579998 0.00699449 0.
0.581998 0.00699471 0.
0.583998 0.00699487 0.
0.585998 0.00699494 0.
0.587998 0.006995 0.
0.589998 0.0069951 0.
0.591998 0.00699521 0.
0.593998 0.00699532 0.
0.595999 0.00699508 0.
0.598 0.00699475 0.
0.6 0.00699441 0.
0.602001 0.00699465 0.
0.604001 0.00699489 0.
0.606001 0.00699505 0.
0.608001 0.00699493 0.
0.610001 0.00699481 0.
0.612001 0.00699473 0.
0.614001 0.00699471 0.
0.616001 0.00699468 0.
0.618001 0.00699455 0.
0.620001 0.00699437 0.
0.622002 0.00699419 0.
0.624001 0.00699414 0.
0.626001 0.00699411 0.
0.628001 0.0069941 0.
0.630001 0.00699422 0.
0.632001 0.00699435 0.
0.634001 0.00699438 0.
0.636002 0.00699423 0.
0.638002 0.00699408 0.
0.640002 0.0069938 0.
0.642003 0.00699342 0.
0.644003 0.00699303 0.
0.646003 0.00699294 0.
0.648003 0.00699294 0.
0.650003 0.00699293 0.
0.652004 0.00699237 0.
0.654005 0.0069918 0.
0.656006 0.0069908 0.
0.65801 0.0069883 0.
0.660014 0.0069858 0.
0.662021 0.00698159 0.
0.664033 0.00697531 0.
0.666044 0.00696903 0.
0.668062 0.00696565 0.
0.670083 0.00696357 0.
0.672104 0.0069615 0.
0.674173 0.00692809 0.
0.676244 0.00689282 0.
0.678337 0.00685394 0.
0.680522 0.00679443 0.
0.682704 0.00673612 0.
0.685016 0.00664538 0.
0.687412 0.00653629 0.
0.689883 0.00638632 0.
0.692776 0.00603327 0.
0.695788 0.0056782 0.
0.699371 0.00519532 0.
0.703385 0.00429856 0.
0.707314 0.00276722 0.
0.48823 0.00262349 0.
0.492766 0.00454418 0.
0.496792 0.0059722 0.
0.500492 0.00689643 0.
0.503887 0.00749316 0.
0.506878 0.00785522 0.
0.509722 0.00817189 0.
0.512273 0.00835983 0.
0.514755 0.00852749 0.
0.51715 0.00866803 0.
0.51937 0.00874212 0.
0.521594 0.00881746 0.
0.52371 0.00886479 0.
0.525795 0.00890607 0.
0.527877 0.00894546 0.
0.529902 0.0089515 0.
0.531927 0.00895755 0.
0.533948 0.00896392 0.
0.535962 0.00897098 0.
0.537975 0.00897806 0.
0.539984 0.00898285 0.
0.541988 0.00898577 0.
0.543992 0.00898868 0.
0.545994 0.0089899 0.
0.547995 0.00899063 0.
0.549997 0.00899136 0.
0.551996 0.0089913 0.
0.553996 0.00899125 0.
0.555996 0.0089913 0.
0.557996 0.00899172 0.
0.559997 0.00899214 0.
0.561997 0.00899242 0.
0.563997 0.00899252 0.
0.565997 0.00899262 0.
0.567998 0.00899258 0.
0.569998 0.00899248 0.
0.571998 0.00899237 0.
0.573998 0.00899229 0.
0.575997 0.00899221 0.
0.577997 0.00899217 0.
0.579997 0.00899239 0.
0.581997 0.00899262 0.
0.583998 0.00899281 0.
0.585998 0.00899293 0.
0.587998 0.00899306 0.
0.589998 0.00899319 0.
0.591998 0.00899332 0.
0.593998 0.00899345 0.
0.595999 0.00899321 0.
0.598 0.00899286 0.
0.6 0.00899252 0.
0.602001 0.00899273 0.
0.604001 0.00899293 0.
0.606001 0.00899308 0.
0.608001 0.00899301 0.
0.610001 0.00899294 0.
0.612002 0.00899285 0.
0.614002 0.00899275 0.
0.616002 0.00899265 0.
0.618002 0.00899245 0.
0.620002 0.00899219 0.
0.622002 0.00899193 0.
0.624002 0.0089919 0.
0.626001 0.00899189 0.
0.628001 0.00899189 0.
0.630002 0.00899203 0.
0.632002 0.00899217 0.
0.634002 0.0089922 0.
0.636002 0.00899203 0.
0.638003 0.00899186 0.
0.640003 0.00899149 0.
0.642004 0.00899098 0.
0.644004 0.00899046 0.
0.646004 0.00899027 0.
0.648004 0.00899016 0.
0.650004 0.00899006 0.
0.652006 0.00898875 0.
0.654008 0.00898744 0.
0.656011 0.00898545 0.
0.658018 0.00898112 0.
0.660025 0.0089768 0.
0.662037 0.00896975 0.
0.664056 0.00895943 0.
0.666075 0.00894913 0.
0.668106 0.00894314 0.
0.670141 0.008939 0.
0.672177 0.00893486 0.
0.674306 0.00887132 0.
0.676439 0.00880597 0.
0.67861 0.00873522 0.
0.680895 0.0086383 0.
0.683174 0.00854339 0.
0.685736 0.00836124 0.
0.688365 0.00816019 0.
0.691216 0.00780099 0.
0.69429 0.00726601 0.
0.697726 0.00667031 0.
0.701495 0.00595142 0.
0.70566 0.00464749 0.
0.710259 0.00273851 0.
0.485453 0.00263002 0.
0.490226 0.00467317 0.
0.494599 0.00639781 0.
0.498546 0.00774663 0.
0.502234 0.00864518 0.
0.505683 0.00928216 0.
0.508734 0.00970787 0.
0.511548 0.00999999 0.
0.514183 0.0102402 0.
0.516751 0.0104709 0.
0.519053 0.0105779 0.
0.521363 0.0106886 0.
0.523543 0.0107683 0.
0.525672 0.0108404 0.
0.5278 0.0109118 0.
0.52984 0.0109215 0.
0.53188 0.0109313 0.
0.533914 0.0109416 0.
0.535935 0.010953 0.
0.537957 0.0109645 0.
0.539971 0.0109725 0.
0.541978 0.0109777 0.
0.543986 0.0109828 0.
0.54599 0.0109852 0.
0.547992 0.0109869 0.
0.549994 0.0109885 0.
0.551994 0.0109887 0.
0.553995 0.0109888 0.
0.555995 0.010989 0.
0.557995 0.0109896 0.
0.559996 0.0109902 0.
0.561996 0.0109906 0.
0.563996 0.0109907 0.
0.565997 0.0109908 0.
0.567997 0.0109908 0.
0.569997 0.0109907 0.
0.571997 0.0109906 0.
0.573997 0.0109905 0.
0.575997 0.0109904 0.
0.577996 0.0109904 0.
0.579997 0.0109906 0.
0.581997 0.0109909 0.
0.583997 0.0109911 0.
0.585997 0.0109912 0.
0.587997 0.0109914 0.
0.589997 0.0109915 0.
0.591997 0.0109916 0.
0.593998 0.0109917 0.
0.595998 0.0109915 0.
0.597999 0.0109912 0.
0.6 0.0109909 0.
0.602001 0.0109911 0.
0.604001 0.0109912 0.
0.606002 0.0109913 0.
0.608002 0.0109913 0.
0.610002 0.0109913 0.
0.612002 0.0109912 0.
0.614002 0.010991 0.
0.616002 0.0109909 0.
0.618002 0.0109907 0.
0.620002 0.0109904 0.
0.622003 0.0109901 0.
0.624002 0.01099 0.
0.626002 0.01099 0.
0.628002 0.01099 0.
0.630002 0.0109901 0.
0.632002 0.0109902 0.
0.634003 0.0109902 0.
0.636003 0.01099 0.
0.638004 0.0109898 0.
0.640004 0.0109893 0.
0.642005 0.0109885 0.
0.644006 0.0109878 0.
0.646006 0.0109873 0.
0.648007 0.0109869 0.
0.650007 0.0109865 0.
0.652011 0.0109838 0.
0.654014 0.0109812 0.
0.65602 0.0109775 0.
0.658032 0.0109698 0.
0.660044 0.0109621 0.
0.662064 0.0109511 0.
0.664093 0.0109362 0.
0.666122 0.0109213 0.
0.668173 0.0109066 0.
0.670232 0.0108923 0.
0.672293 0.0108776 0.
0.674486 0.0107742 0.
0.676678 0.0106714 0.
0.678936 0.0105595 0.
0.681319 0.0104206 0.
0.683708 0.0102838 0.
0.686506 0.00999998 0.
0.689374 0.009705 0.
0.692595 0.0090979 0.
0.695941 0.00836273 0.
0.699694 0.00754679 0.
0.703793 0.00640845 0.
0.70816 0.00478145 0.
0.71297 0.00270122 0.
0.482755 0.0026146 0.
0.488095 0.00481229 0.
0.492683 0.00674879 0.
0.496796 0.00842268 0.
0.500908 0.00960566 0.
0.504589 0.0104144 0.
0.507781 0.0109584 0.
0.51081 0.0114186 0.
0.513548 0.01179 0.
0.516255 0.0121675 0.
0.518661 0.012334 0.
0.521064 0.0124956 0.
0.523328 0.0126246 0.
0.525509 0.0127436 0.
0.527692 0.0128636 0.
0.529754 0.0128798 0.
0.531815 0.0128949 0.
0.533867 0.0129108 0.
0.535898 0.0129282 0.
0.537929 0.0129457 0.
0.539951 0.0129582 0.
0.541964 0.0129665 0.
0.543977 0.0129748 0.
0.545983 0.0129791 0.
0.547987 0.0129821 0.
0.549991 0.0129852 0.
0.551991 0.0129857 0.
0.553992 0.0129863 0.
0.555993 0.0129869 0.
0.557994 0.0129876 0.
0.559995 0.0129884 0.
0.561995 0.0129889 0.
0.563996 0.0129891 0.
0.565996 0.0129892 0.
0.567996 0.0129892 0.
0.569997 0.0129892 0.
0.571997 0.0129891 0.
0.573997 0.0129891 0.
0.575996 0.012989 0.
0.577996 0.012989 0.
0.579996 0.0129892 0.
0.581996 0.0129894 0.
0.583997 0.0129896 0.
0.585997 0.0129898 0.
0.587997 0.0129899 0.
0.589997 0.01299 0.
0.591997 0.0129901 0.
0.593997 0.0129901 0.
0.595998 0.01299 0.
0.597999 0.0129898 0.
0.6 0.0129896 0.
0.602001 0.0129897 0.
0.604001 0.0129897 0.
0.606002 0.0129898 0.
0.608002 0.0129898 0.
0.610002 0.0129898 0.
0.612002 0.0129897 0.
0.614002 0.0129895 0.
0.616002 0.0129894 0.
0.618003 0.0129892 0.
0.620003 0.0129889 0.
0.622003 0.0129887 0.
0.624003 0.0129886 0.
0.626002 0.0129885 0.
0.628002 0.0129884 0.
0.630003 0.0129885 0.
0.632003 0.0129885 0.
0.634004 0.0129885 0.
0.636004 0.0129882 0.
0.638005 0.0129879 0.
0.640005 0.0129872 0.
0.642007 0.0129861 0.
0.644008 0.012985 0.
0.646009 0.012984 0.
0.648011 0.012983 0.
0.650012 0.0129821 0.
0.652018 0.0129776 0.
0.654024 0.0129731 0.
0.656033 0.0129667 0.
0.658053 0.0129541 0.
0.660073 0.0129415 0.
0.662102 0.0129254 0.
0.664144 0.0129052 0.
0.666185 0.012885 0.
0.668266 0.0128538 0.
0.670362 0.0128196 0.
0.672464 0.0127817 0.
0.674724 0.0126258 0.
0.67698 0.0124722 0.
0.679355 0.0122945 0.
0.681862 0.012086 0.
0.684426 0.0118406 0.
0.687317 0.0113677 0.
0.690337 0.0108803 0.
0.693704 0.010181 0.
0.697344 0.00932294 0.
0.701373 0.00831081 0.
0.705669 0.0068134 0.
0.710373 0.00492736 0.
0.715691 0.00267916 0.
0.480345 0.00265205 0.
0.486076 0.00501255 0.
0.490862 0.00702766 0.
0.495158 0.00893347 0.
0.499531 0.0103407 0.
0.503299 0.0113397 0.
0.506746 0.0121278 0.
0.509981 0.0127665 0.
0.512879 0.0133009 0.
0.51571 0.0138237 0.
0.518248 0.0140817 0.
0.520747 0.0142955 0.
0.523106 0.0144757 0.
0.525341 0.0146426 0.
0.527579 0.0148122 0.
0.529666 0.0148378 0.
0.531749 0.0148583 0.
0.53382 0.0148799 0.
0.535861 0.0149033 0.
0.537902 0.0149267 0.
0.53993 0.0149438 0.
0.541949 0.0149553 0.
0.543967 0.0149668 0.
0.545976 0.0149729 0.
0.547981 0.0149774 0.
0.549987 0.0149819 0.
0.551988 0.0149828 0.
0.55399 0.0149837 0.
0.555991 0.0149847 0.
0.557993 0.0149856 0.
0.559994 0.0149866 0.
0.561994 0.0149872 0.
0.563995 0.0149874 0.
0.565995 0.0149876 0.
0.567996 0.0149877 0.
0.569996 0.0149876 0.
0.571996 0.0149876 0.
0.573996 0.0149876 0.
0.575996 0.0149876 0.
0.577995 0.0149876 0.
0.579996 0.0149878 0.
0.581996 0.014988 0.
0.583996 0.0149882 0.
0.585996 0.0149883 0.
0.587997 0.0149885 0.
0.589997 0.0149885 0.
0.591997 0.0149885 0.
0.593997 0.0149885 0.
0.595998 0.0149884 0.
0.597999 0.0149883 0.
0.6 0.0149882 0.
0.602001 0.0149882 0.
0.604001 0.0149883 0.
0.606002 0.0149883 0.
0.608002 0.0149883 0.
0.610002 0.0149883 0.
0.612002 0.0149882 0.
0.614003 0.014988 0.
0.616003 0.0149879 0.
0.618003 0.0149877 0.
0.620003 0.0149875 0.
0.622004 0.0149873 0.
0.624003 0.0149871 0.
0.626003 0.0149869 0.
0.628003 0.0149868 0.
0.630003 0.0149868 0.
0.632004 0.0149868 0.
0.634004 0.0149867 0.
0.636005 0.0149864 0.
0.638006 0.014986 0.
0.640007 0.014985 0.
0.642008 0.0149836 0.
0.64401 0.0149821 0.
0.646012 0.0149807 0.
0.648015 0.0149792 0.
0.650018 0.0149777 0.
0.652026 0.0149713 0.
0.654034 0.014965 0.
0.656046 0.0149559 0.
0.658074 0.0149383 0.
0.660101 0.0149208 0.
0.662141 0.0148996 0.
0.664194 0.0148741 0.
0.666248 0.0148487 0.
0.668362 0.0147996 0.
0.670494 0.0147452 0.
0.672642 0.0146818 0.
0.674971 0.0144722 0.
0.677291 0.0142667 0.
0.679805 0.0140145 0.
0.682441 0.0137339 0.
0.685186 0.0133319 0.
0.688155 0.0126738 0.
0.691371 0.0119608 0.
0.69485 0.0111271 0.
0.698687 0.0101266 0.
0.702999 0.00889136 0.
0.70742 0.00711598 0.
0.71234 0.00507285 0.
0.718112 0.00276219 0.
0.478176 0.00272642 0.
0.484221 0.00521669 0.
0.489139 0.00727218 0.
0.493571 0.00934798 0.
0.498006 0.0109041 0.
0.501966 0.0121622 0.
0.50567 0.0132177 0.
0.50907 0.0140212 0.
0.512151 0.0147094 0.
0.515024 0.0153053 0.
0.517678 0.0156745 0.
0.520238 0.0159509 0.
0.522699 0.0162036 0.
0.524989 0.016411 0.
0.527289 0.0166227 0.
0.529446 0.0166969 0.
0.531587 0.0167588 0.
0.533711 0.0168156 0.
0.535769 0.0168457 0.
0.537828 0.0168759 0.
0.539874 0.0169013 0.
0.541906 0.0169226 0.
0.543939 0.016944 0.
0.545955 0.0169556 0.
0.547965 0.0169642 0.
0.549976 0.0169727 0.
0.55198 0.0169751 0.
0.553983 0.0169774 0.
0.555986 0.0169797 0.
0.557988 0.0169814 0.
0.559991 0.0169831 0.
0.561992 0.0169842 0.
0.563993 0.0169847 0.
0.565994 0.0169851 0.
0.567995 0.0169853 0.
0.569995 0.0169854 0.
0.571996 0.0169854 0.
0.573995 0.0169854 0.
0.575995 0.0169854 0.
0.577995 0.0169855 0.
0.579995 0.0169857 0.
0.581995 0.016986 0.
0.583996 0.0169862 0.
0.585996 0.0169863 0.
0.587996 0.0169865 0.
0.589997 0.0169865 0.
0.591997 0.0169865 0.
0.593997 0.0169865 0.
0.595998 0.0169864 0.
0.597999 0.0169863 0.
0.6 0.0169862 0.
0.602001 0.0169862 0.
0.604001 0.0169863 0.
0.606002 0.0169863 0.
0.608002 0.0169863 0.
0.610002 0.0169863 0.
0.612002 0.0169862 0.
0.614003 0.016986 0.
0.616003 0.0169858 0.
0.618003 0.0169856 0.
0.620004 0.0169853 0.
0.622004 0.0169851 0.
0.624004 0.0169849 0.
0.626004 0.0169847 0.
0.628004 0.0169844 0.
0.630004 0.0169843 0.
0.632005 0.0169841 0.
0.634006 0.0169838 0.
0.636007 0.0169831 0.
0.638008 0.0169823 0.
0.640011 0.0169806 0.
0.642014 0.0169782 0.
0.644017 0.0169757 0.
0.646022 0.0169723 0.
0.648027 0.0169686 0.
0.650033 0.0169649 0.
0.652049 0.0169529 0.
0.654065 0.016941 0.
0.656088 0.0169246 0.
0.658132 0.0168951 0.
0.660177 0.0168657 0.
0.662239 0.0168339 0.
0.664319 0.0167989 0.
0.666397 0.0167641 0.
0.668581 0.0166621 0.
0.670783 0.0165512 0.
0.673015 0.0164287 0.
0.675395 0.0161818 0.
0.677762 0.0159406 0.
0.680403 0.015596 0.
0.683117 0.0152483 0.
0.685998 0.0146785 0.
0.689024 0.0138903 0.
0.692447 0.0129768 0.
0.696093 0.0119837 0.
0.700047 0.0108361 0.
0.704519 0.00935423 0.
0.709094 0.00738016 0.
0.714126 0.00529441 0.
0.720299 0.00287974 0.
0.476173 0.00287427 0.
0.482488 0.00543858 0.
0.487514 0.00751137 0.
0.492018 0.00963956 0.
0.496492 0.0113921 0.
0.500636 0.0128939 0.
0.504511 0.0141702 0.
0.508003 0.0150939 0.
0.511215 0.0159176 0.
0.514164 0.0166122 0.
0.516993 0.0171565 0.
0.519635 0.017534 0.
0.522232 0.0179004 0.
0.524596 0.0181555 0.
0.526973 0.0184166 0.
0.529208 0.018544 0.
0.531413 0.0186515 0.
0.533597 0.0187497 0.
0.535675 0.0187868 0.
0.537753 0.0188241 0.
0.539816 0.018858 0.
0.541862 0.0188893 0.
0.543909 0.0189207 0.
0.545933 0.0189381 0.
0.547949 0.0189508 0.
0.549965 0.0189635 0.
0.551971 0.0189674 0.
0.553976 0.0189711 0.
0.555981 0.0189746 0.
0.557984 0.0189771 0.
0.559987 0.0189795 0.
0.56199 0.0189812 0.
0.563991 0.0189819 0.
0.565992 0.0189826 0.
0.567993 0.018983 0.
0.569994 0.0189831 0.
0.571995 0.0189832 0.
0.573995 0.0189833 0.
0.575994 0.0189833 0.
0.577994 0.0189834 0.
0.579994 0.0189837 0.
0.581995 0.0189839 0.
0.583995 0.0189842 0.
0.585996 0.0189843 0.
0.587996 0.0189844 0.
0.589997 0.0189845 0.
0.591997 0.0189844 0.
0.593997 0.0189844 0.
0.595998 0.0189843 0.
0.597999 0.0189842 0.
0.6 0.0189841 0.
0.602001 0.0189842 0.
0.604001 0.0189842 0.
0.606002 0.0189843 0.
0.608002 0.0189843 0.
0.610002 0.0189843 0.
0.612003 0.0189842 0.
0.614003 0.018984 0.
0.616003 0.0189837 0.
0.618004 0.0189835 0.
0.620004 0.0189832 0.
0.622005 0.0189829 0.
0.624005 0.0189826 0.
0.626005 0.0189824 0.
0.628004 0.0189821 0.
0.630005 0.0189818 0.
0.632006 0.0189815 0.
0.634007 0.0189809 0.
0.636009 0.0189798 0.
0.638011 0.0189786 0.
0.640015 0.0189762 0.
0.642019 0.0189727 0.
0.644024 0.0189692 0.
0.646031 0.0189638 0.
0.648039 0.018958 0.
0.650048 0.0189519 0.
0.652072 0.0189343 0.
0.654096 0.0189166 0.
0.65613 0.0188927 0.
0.658192 0.0188508 0.
0.660254 0.0188092 0.
0.662341 0.0187664 0.
0.664448 0.0187211 0.
0.666555 0.0186761 0.
0.66882 0.0185103 0.
0.6711 0.0183361 0.
0.673425 0.018151 0.
0.675874 0.0178561 0.
0.678334 0.0175516 0.
0.681108 0.0170759 0.
0.683921 0.016598 0.
0.686929 0.0158164 0.
0.690017 0.0149499 0.
0.693569 0.0139232 0.
0.697405 0.0127581 0.
0.701479 0.0114329 0.
0.705989 0.00975789 0.
0.710671 0.00764354 0.
0.715794 0.00556668 0.
0.722188 0.00305301 0.
0.47415 0.00304219 0.
0.480852 0.00569949 0.
0.48593 0.00779064 0.
0.490554 0.00991761 0.
0.495047 0.0118379 0.
0.499317 0.0135318 0.
0.50324 0.0149348 0.
0.506842 0.0160288 0.
0.510199 0.0170492 0.
0.51327 0.017879 0.
0.516284 0.018596 0.
0.519025 0.019082 0.
0.521742 0.0195716 0.
0.524204 0.0198747 0.
0.526648 0.020172 0.
0.528957 0.0203562 0.
0.531219 0.020516 0.
0.533463 0.0206676 0.
0.535563 0.0207128 0.
0.537664 0.0207582 0.
0.539747 0.0208018 0.
0.541807 0.0208451 0.
0.543868 0.0208887 0.
0.545902 0.0209137 0.
0.547925 0.020932 0.
0.549949 0.0209503 0.
0.551958 0.0209565 0.
0.553966 0.0209625 0.
0.555974 0.020968 0.
0.557978 0.0209715 0.
0.559983 0.020975 0.
0.561987 0.0209774 0.
0.563989 0.0209786 0.
0.565991 0.0209798 0.
0.567992 0.0209804 0.
0.569993 0.0209808 0.
0.571994 0.0209812 0.
0.573994 0.0209813 0.
0.575994 0.0209814 0.
0.577993 0.0209815 0.
0.579994 0.0209818 0.
0.581994 0.0209821 0.
0.583995 0.0209823 0.
0.585996 0.0209824 0.
0.587996 0.0209826 0.
0.589997 0.0209826 0.
0.591997 0.0209826 0.
0.593997 0.0209826 0.
0.595998 0.0209825 0.
0.597999 0.0209824 0.
0.6 0.0209823 0.
0.602001 0.0209824 0.
0.604001 0.0209825 0.
0.606002 0.0209826 0.
0.608002 0.0209825 0.
0.610002 0.0209825 0.
0.612003 0.0209824 0.
0.614003 0.0209821 0.
0.616004 0.0209819 0.
0.618004 0.0209816 0.
0.620005 0.0209812 0.
0.622006 0.0209809 0.
0.624006 0.0209806 0.
0.626006 0.0209802 0.
0.628006 0.0209798 0.
0.630007 0.0209792 0.
0.632008 0.0209785 0.
0.63401 0.0209775 0.
0.636013 0.0209757 0.
0.638015 0.0209739 0.
0.64002 0.0209703 0.
0.642027 0.0209655 0.
0.644034 0.0209606 0.
0.646045 0.0209524 0.
0.648057 0.0209432 0.
0.65007 0.0209337 0.
0.652104 0.0209082 0.
0.654139 0.0208828 0.
0.656186 0.0208493 0.
0.658266 0.0207944 0.
0.660345 0.0207399 0.
0.66246 0.0206811 0.
0.6646 0.0206191 0.
0.666738 0.0205577 0.
0.669075 0.0203231 0.
0.671422 0.0200867 0.
0.673833 0.0198451 0.
0.676349 0.0195119 0.
0.678938 0.0191239 0.
0.681825 0.0185183 0.
0.684778 0.0178518 0.
0.687895 0.0168947 0.
0.691162 0.0158626 0.
0.694705 0.0147909 0.
0.698699 0.0134652 0.
0.702911 0.011918 0.
0.7074 0.0100767 0.
0.712133 0.0079199 0.
0.717381 0.00584528 0.
0.724191 0.00323596 0.
0.472344 0.00331919 0.
0.479376 0.00601736 0.
0.484519 0.00812504 0.
0.489236 0.0102377 0.
0.493774 0.0122911 0.
0.498071 0.0140997 0.
0.50204 0.0156258 0.
0.505771 0.0169235 0.
0.509223 0.0180895 0.
0.512455 0.0191005 0.
0.515598 0.019929 0.
0.518448 0.0204966 0.
0.521231 0.0210526 0.
0.523779 0.0214427 0.
0.526286 0.0218211 0.
0.528674 0.0220965 0.
0.530988 0.0223303 0.
0.533294 0.0225603 0.
0.535424 0.0226169 0.
0.537556 0.0226735 0.
0.539664 0.0227297 0.
0.541739 0.0227879 0.
0.543814 0.0228466 0.
0.54586 0.0228814 0.
0.547894 0.0229071 0.
0.549928 0.0229328 0.
0.551941 0.0229423 0.
0.553953 0.0229514 0.
0.555964 0.0229596 0.
0.557971 0.0229645 0.
0.559977 0.0229693 0.
0.561982 0.0229729 0.
0.563985 0.0229747 0.
0.565988 0.0229765 0.
0.56799 0.0229777 0.
0.569991 0.0229784 0.
0.571993 0.0229792 0.
0.573993 0.0229795 0.
0.575993 0.0229796 0.
0.577993 0.0229798 0.
0.579993 0.0229801 0.
0.581994 0.0229804 0.
0.583995 0.0229806 0.
0.585995 0.0229807 0.
0.587996 0.0229809 0.
0.589997 0.0229809 0.
0.591997 0.022981 0.
0.593998 0.022981 0.
0.595998 0.022981 0.
0.597999 0.0229809 0.
0.6 0.0229809 0.
0.602001 0.022981 0.
0.604001 0.022981 0.
0.606002 0.022981 0.
0.608002 0.022981 0.
0.610003 0.0229809 0.
0.612003 0.0229807 0.
0.614004 0.0229805 0.
0.616004 0.0229802 0.
0.618005 0.0229799 0.
0.620006 0.0229795 0.
0.622006 0.0229791 0.
0.624007 0.0229786 0.
0.626007 0.0229782 0.
0.628007 0.0229777 0.
0.630009 0.0229765 0.
0.63201 0.0229753 0.
0.634013 0.0229735 0.
0.636017 0.0229707 0.
0.638021 0.0229679 0.
0.640028 0.022963 0.
0.642037 0.0229564 0.
0.644047 0.0229499 0.
0.646063 0.0229376 0.
0.64808 0.022924 0.
0.650099 0.0229096 0.
0.652147 0.0228736 0.
0.654195 0.0228378 0.
0.656258 0.0227924 0.
0.658357 0.022723 0.
0.660455 0.0226541 0.
0.662607 0.0225682 0.
0.664789 0.0224744 0.
0.666979 0.0223738 0.
0.669361 0.0220594 0.
0.671748 0.021748 0.
0.67425 0.0214203 0.
0.676838 0.0210255 0.
0.679541 0.0205374 0.
0.682471 0.0198787 0.
0.685557 0.0190358 0.
0.688768 0.0179403 0.
0.692216 0.0167442 0.
0.695853 0.0155289 0.
0.699876 0.0141516 0.
0.704193 0.0123916 0.
0.708673 0.0104178 0.
0.713468 0.00825749 0.
0.71878 0.00620021 0.
0.726095 0.00349064 0.
0.47099 0.00380648 0.
0.478089 0.00642269 0.
0.483284 0.0085156 0.
0.488072 0.0106106 0.
0.492631 0.0127323 0.
0.496912 0.0146311 0.
0.500913 0.0162878 0.
0.504732 0.0177446 0.
0.508263 0.0190513 0.
0.51162 0.020205 0.
0.514811 0.0211044 0.
0.517808 0.0218234 0.
0.520676 0.0224848 0.
0.523336 0.0229922 0.
0.52591 0.0234542 0.
0.528383 0.0238269 0.
0.530749 0.0241358 0.
0.533115 0.024447 0.
0.535283 0.0245202 0.
0.537445 0.0245881 0.
0.53958 0.024657 0.
0.541669 0.0247302 0.
0.54376 0.024804 0.
0.545817 0.024849 0.
0.547862 0.0248821 0.
0.549906 0.0249153 0.
0.551923 0.0249281 0.
0.55394 0.0249403 0.
0.555954 0.0249513 0.
0.557963 0.0249575 0.
0.559971 0.0249637 0.
0.561978 0.0249683 0.
0.563982 0.0249708 0.
0.565986 0.0249733 0.
0.567988 0.0249749 0.
0.56999 0.0249761 0.
0.571992 0.0249773 0.
0.573992 0.0249776 0.
0.575992 0.0249779 0.
0.577992 0.0249782 0.
0.579993 0.0249784 0.
0.581994 0.0249787 0.
0.583994 0.0249789 0.
0.585995 0.024979 0.
0.587996 0.0249792 0.
0.589997 0.0249793 0.
0.591997 0.0249793 0.
0.593998 0.0249794 0.
0.595999 0.0249794 0.
0.598 0.0249795 0.
0.6 0.0249795 0.
0.602001 0.0249795 0.
0.604001 0.0249795 0.
0.606002 0.0249795 0.
0.608002 0.0249794 0.
0.610003 0.0249792 0.
0.612003 0.024979 0.
0.614004 0.0249788 0.
0.616005 0.0249785 0.
0.618005 0.0249781 0.
0.620006 0.0249777 0.
0.622007 0.0249772 0.
0.624008 0.0249767 0.
0.626008 0.0249762 0.
0.628009 0.0249755 0.
0.630011 0.0249738 0.
0.632013 0.0249721 0.
0.634016 0.0249696 0.
0.636021 0.0249658 0.
0.638027 0.024962 0.
0.640036 0.0249557 0.
0.642048 0.0249474 0.
0.64406 0.0249391 0.
0.646081 0.0249228 0.
0.648103 0.0249046 0.
0.650128 0.0248853 0.
0.65219 0.0248388 0.
0.654252 0.0247925 0.
0.656331 0.0247349 0.
0.658449 0.024651 0.
0.660566 0.0245676 0.
0.662757 0.0244521 0.
0.664982 0.0243258 0.
0.667226 0.0241808 0.
0.669654 0.0237857 0.
0.67208 0.0233987 0.
0.674692 0.022977 0.
0.677367 0.0225038 0.
0.680216 0.0218574 0.
0.683208 0.021082 0.
0.68637 0.0200858 0.
0.689643 0.0189228 0.
0.693213 0.0175907 0.
0.696966 0.0162215 0.
0.701003 0.0147608 0.
0.705347 0.0128734 0.
0.709814 0.0108088 0.
0.714651 0.00867143 0.
0.71999 0.00663983 0.
0.72748 0.00394457 0.
0.47024 0.00454789 0.
0.477058 0.0069519 0.
0.482284 0.00900184 0.
0.487092 0.0110762 0.
0.491595 0.013203 0.
0.495847 0.0151704 0.
0.499875 0.0169434 0.
0.503696 0.0184994 0.
0.507315 0.0199214 0.
0.510754 0.0212201 0.
0.514004 0.0222359 0.
0.517144 0.0231205 0.
0.520086 0.0238759 0.
0.522859 0.0245011 0.
0.525476 0.0250284 0.
0.528018 0.0254863 0.
0.530416 0.0258453 0.
0.532823 0.026211 0.
0.535049 0.0263354 0.
0.537257 0.0264418 0.
0.539434 0.0265438 0.
0.541546 0.0266316 0.
0.543659 0.0267202 0.
0.545737 0.0267807 0.
0.547799 0.0268284 0.
0.549862 0.0268765 0.
0.551887 0.0268969 0.
0.553911 0.0269161 0.
0.555933 0.0269333 0.
0.557946 0.0269424 0.
0.559959 0.0269515 0.
0.561969 0.0269585 0.
0.563974 0.0269627 0.
0.56598 0.0269669 0.
0.567984 0.0269697 0.
0.569987 0.0269717 0.
0.571989 0.0269738 0.
0.57399 0.0269745 0.
0.575991 0.026975 0.
0.577991 0.0269755 0.
0.579992 0.0269759 0.
0.581993 0.0269763 0.
0.583994 0.0269766 0.
0.585995 0.0269768 0.
0.587996 0.026977 0.
0.589996 0.0269771 0.
0.591997 0.0269772 0.
0.593998 0.0269773 0.
0.595999 0.0269774 0.
0.598 0.0269775 0.
0.6 0.0269775 0.
0.602001 0.0269776 0.
0.604001 0.0269776 0.
0.606001 0.0269776 0.
0.608002 0.0269773 0.
0.610003 0.026977 0.
0.612003 0.0269767 0.
0.614004 0.0269764 0.
0.616005 0.0269761 0.
0.618006 0.0269756 0.
0.620007 0.0269749 0.
0.622008 0.0269743 0.
0.624009 0.0269734 0.
0.62601 0.0269725 0.
0.628012 0.0269713 0.
0.630015 0.0269684 0.
0.632018 0.0269655 0.
0.634023 0.0269615 0.
0.636032 0.0269554 0.
0.63804 0.0269492 0.
0.640053 0.0269397 0.
0.642071 0.0269275 0.
0.644089 0.0269154 0.
0.646119 0.026891 0.
0.648152 0.0268637 0.
0.650188 0.0268343 0.
0.652272 0.0267684 0.
0.654355 0.0267033 0.
0.656462 0.026627 0.
0.658609 0.0265266 0.
0.660754 0.0264273 0.
0.662992 0.0262656 0.
0.665261 0.0260917 0.
0.667567 0.0258801 0.
0.670025 0.0254315 0.
0.672469 0.0249982 0.
0.675181 0.0244944 0.
0.677934 0.0239504 0.
0.680921 0.0231341 0.
0.683983 0.022229 0.
0.687226 0.021047 0.
0.690549 0.019807 0.
0.694171 0.0184079 0.
0.698018 0.0169006 0.
0.702066 0.0153047 0.
0.706379 0.0133748 0.
0.710836 0.0112627 0.
0.715618 0.00917749 0.
0.720944 0.00719381 0.
0.728108 0.0046956 0.
0.469988 0.00552527 0.
0.476251 0.00760083 0.
0.481424 0.00956671 0.
0.486196 0.0116036 0.
0.490642 0.013711 0.
0.49487 0.0157325 0.
0.49888 0.0175847 0.
0.502713 0.0192265 0.
0.506389 0.0207389 0.
0.509872 0.0221646 0.
0.51319 0.023311 0.
0.516449 0.0243481 0.
0.519423 0.0251622 0.
0.522274 0.0259094 0.
0.524935 0.0265101 0.
0.527576 0.027082 0.
0.530026 0.0275013 0.
0.532485 0.0279295 0.
0.534786 0.0281233 0.
0.537047 0.0282791 0.
0.539277 0.0284247 0.
0.541414 0.0285282 0.
0.543553 0.0286326 0.
0.545654 0.0287095 0.
0.547734 0.0287728 0.
0.549815 0.0288367 0.
0.55185 0.0288652 0.
0.553882 0.0288914 0.
0.555911 0.028915 0.
0.557928 0.028927 0.
0.559946 0.0289391 0.
0.561959 0.0289485 0.
0.563967 0.0289545 0.
0.565975 0.0289605 0.
0.56798 0.0289644 0.
0.569983 0.0289673 0.
0.571987 0.0289703 0.
0.573988 0.0289713 0.
0.575989 0.028972 0.
0.57799 0.0289728 0.
0.579991 0.0289733 0.
0.581992 0.0289739 0.
0.583994 0.0289743 0.
0.585995 0.0289745 0.
0.587995 0.0289747 0.
0.589996 0.0289749 0.
0.591997 0.0289751 0.
0.593998 0.0289753 0.
0.595999 0.0289754 0.
0.598 0.0289755 0.
0.6 0.0289756 0.
0.602001 0.0289756 0.
0.604001 0.0289757 0.
0.606001 0.0289756 0.
0.608002 0.0289752 0.
0.610003 0.0289748 0.
0.612004 0.0289744 0.
0.614005 0.0289741 0.
0.616006 0.0289737 0.
0.618007 0.028973 0.
0.620008 0.0289722 0.
0.62201 0.0289713 0.
0.624011 0.0289701 0.
0.626013 0.0289687 0.
0.628015 0.0289671 0.
0.630019 0.028963 0.
0.632024 0.0289589 0.
0.634031 0.0289533 0.
0.636042 0.0289448 0.
0.638053 0.0289363 0.
0.640071 0.0289235 0.
0.642095 0.0289074 0.
0.644119 0.0288913 0.
0.646159 0.0288584 0.
0.648202 0.0288218 0.
0.650251 0.0287813 0.
0.652358 0.0286949 0.
0.654464 0.0286096 0.
0.656601 0.0285127 0.
0.658783 0.0283931 0.
0.660962 0.028275 0.
0.663257 0.0280545 0.
0.665576 0.0278234 0.
0.667963 0.0275259 0.
0.670486 0.0270058 0.
0.673023 0.0264904 0.
0.675787 0.0258837 0.
0.678596 0.0252579 0.
0.681652 0.0243422 0.
0.684801 0.0232813 0.
0.688086 0.0219715 0.
0.691482 0.0206188 0.
0.695095 0.0191907 0.
0.699009 0.0175788 0.
0.703066 0.0158579 0.
0.707304 0.0139058 0.
0.711718 0.0117883 0.
0.716417 0.00975894 0.
0.721631 0.00787615 0.
0.728229 0.00573378 0.
0.46996 0.00662713 0.
0.47563 0.00835047 0.
0.480708 0.0101999 0.
0.48539 0.0121868 0.
0.48977 0.014262 0.
0.493961 0.0163169 0.
0.497946 0.0182258 0.
0.501787 0.0199368 0.
0.505498 0.0215396 0.
0.509002 0.0230445 0.
0.512385 0.0243269 0.
0.515675 0.0254321 0.
0.518702 0.026355 0.
0.521643 0.0272635 0.
0.524382 0.0279694 0.
0.527112 0.0286528 0.
0.529634 0.0291447 0.
0.532148 0.0296312 0.
0.534525 0.0298949 0.
0.536834 0.0300988 0.
0.539116 0.0302935 0.
0.541277 0.0304115 0.
0.54344 0.030531 0.
0.545563 0.0306253 0.
0.547661 0.0307059 0.
0.54976 0.0307876 0.
0.551805 0.0308259 0.
0.553846 0.0308607 0.
0.555884 0.0308921 0.
0.557906 0.0309077 0.
0.559929 0.0309234 0.
0.561946 0.0309359 0.
0.563957 0.0309441 0.
0.565968 0.0309524 0.
0.567974 0.0309579 0.
0.569979 0.030962 0.
0.571983 0.0309661 0.
0.573985 0.0309676 0.
0.575987 0.0309688 0.
0.577989 0.0309699 0.
0.57999 0.0309707 0.
0.581992 0.0309714 0.
0.583993 0.030972 0.
0.585994 0.0309723 0.
0.587995 0.0309726 0.
0.589996 0.0309729 0.
0.591997 0.0309732 0.
0.593998 0.0309734 0.
0.595999 0.0309736 0.
0.597999 0.0309737 0.
0.6 0.0309739 0.
0.602001 0.0309739 0.
0.604001 0.0309739 0.
0.606001 0.0309738 0.
0.608002 0.0309733 0.
0.610003 0.0309727 0.
0.612004 0.0309722 0.
0.614005 0.0309717 0.
0.616006 0.0309712 0.
0.618008 0.0309703 0.
0.62001 0.0309692 0.
0.622012 0.0309681 0.
0.624014 0.0309662 0.
0.626017 0.0309643 0.
0.628019 0.0309619 0.
0.630025 0.0309563 0.
0.632031 0.0309507 0.
0.634041 0.030943 0.
0.636055 0.0309314 0.
0.63807 0.0309198 0.
0.640094 0.0309029 0.
0.642124 0.0308823 0.
0.644154 0.0308617 0.
0.646206 0.0308183 0.
0.648261 0.0307706 0.
0.650324 0.0307168 0.
0.652452 0.0306087 0.
0.654579 0.0305021 0.
0.656746 0.030383 0.
0.65896 0.0302444 0.
0.661172 0.0301095 0.
0.663521 0.029829 0.
0.665889 0.0295406 0.
0.668364 0.029154 0.
0.670954 0.0285644 0.
0.673593 0.0279513 0.
0.676422 0.0272211 0.
0.679329 0.026438 0.
0.682411 0.0254391 0.
0.68561 0.024267 0.
0.688931 0.0228672 0.
0.692409 0.0214073 0.
0.696025 0.0199108 0.
0.699919 0.018261 0.
0.703987 0.0164333 0.
0.708167 0.0144657 0.
0.712509 0.0123717 0.
0.717101 0.0103988 0.
0.72216 0.00864344 0.
0.728124 0.00686698 0.
0.469989 0.00779555 0.
0.475193 0.00920567 0.
0.4801 0.0109055 0.
0.484665 0.0128325 0.
0.488997 0.0148697 0.
0.493145 0.0169331 0.
0.497111 0.0188852 0.
0.500934 0.0206541 0.
0.504669 0.022331 0.
0.508201 0.0239045 0.
0.511606 0.0252898 0.
0.514906 0.0264601 0.
0.51802 0.0275167 0.
0.521035 0.0285632 0.
0.523873 0.0293994 0.
0.52666 0.0301456 0.
0.529243 0.0306899 0.
0.531798 0.0312194 0.
0.534239 0.0315716 0.
0.536597 0.0318529 0.
0.538939 0.0321282 0.
0.541124 0.0322652 0.
0.543313 0.0324039 0.
0.545459 0.0325199 0.
0.547575 0.0326224 0.
0.549691 0.0327262 0.
0.55175 0.0327773 0.
0.553802 0.0328226 0.
0.555851 0.0328637 0.
0.557879 0.0328838 0.
0.559908 0.0329038 0.
0.56193 0.0329202 0.
0.563944 0.0329314 0.
0.565958 0.0329426 0.
0.567967 0.0329501 0.
0.569973 0.0329556 0.
0.571979 0.0329612 0.
0.573982 0.0329634 0.
0.575985 0.0329652 0.
0.577987 0.0329668 0.
0.579989 0.0329679 0.
0.581991 0.0329689 0.
0.583992 0.0329698 0.
0.585994 0.0329702 0.
0.587995 0.0329706 0.
0.589996 0.032971 0.
0.591997 0.0329714 0.
0.593998 0.0329718 0.
0.595999 0.0329721 0.
0.597999 0.0329723 0.
0.6 0.0329725 0.
0.602001 0.0329724 0.
0.604001 0.0329723 0.
0.606002 0.0329721 0.
0.608002 0.0329714 0.
0.610003 0.0329707 0.
0.612005 0.0329701 0.
0.614006 0.0329694 0.
0.616007 0.0329687 0.
0.61801 0.0329674 0.
0.620012 0.0329659 0.
0.622014 0.0329644 0.
0.624018 0.0329617 0.
0.626021 0.032959 0.
0.628025 0.0329556 0.
0.630033 0.0329481 0.
0.632041 0.0329406 0.
0.634053 0.0329302 0.
0.636073 0.0329146 0.
0.638092 0.0328991 0.
0.640122 0.0328774 0.
0.64216 0.0328513 0.
0.644197 0.0328254 0.
0.646263 0.0327685 0.
0.648333 0.0327065 0.
0.650413 0.0326355 0.
0.65256 0.0325021 0.
0.654706 0.0323706 0.
0.656904 0.0322176 0.
0.65915 0.0320428 0.
0.661398 0.0318676 0.
0.663802 0.0315178 0.
0.666211 0.0311685 0.
0.66876 0.0306905 0.
0.67139 0.0300578 0.
0.674119 0.0293622 0.
0.677005 0.0285323 0.
0.680012 0.0275941 0.
0.683138 0.0265026 0.
0.686386 0.0251963 0.
0.689731 0.0237439 0.
0.693256 0.0222049 0.
0.696914 0.0206213 0.
0.700778 0.0189452 0.
0.704802 0.0170586 0.
0.708937 0.0150829 0.
0.713225 0.0130176 0.
0.717698 0.011106 0.
0.722571 0.00949165 0.
0.727958 0.00803807 0.
0.470208 0.00903559 0.
0.474992 0.0101664 0.
0.479645 0.0117079 0.
0.48409 0.0135673 0.
0.488356 0.0155489 0.
0.492424 0.0175956 0.
0.496355 0.0195748 0.
0.500174 0.0213929 0.
0.503896 0.0231188 0.
0.507444 0.0247522 0.
0.510866 0.0262358 0.
0.514176 0.0274741 0.
0.517364 0.0286443 0.
0.520422 0.0297785 0.
0.523315 0.0307085 0.
0.526131 0.0315271 0.
0.528804 0.0321787 0.
0.531422 0.0327829 0.
0.533942 0.033236 0.
0.536351 0.033597 0.
0.538756 0.03396 0.
0.54097 0.0341175 0.
0.543183 0.0342755 0.
0.545355 0.0344134 0.
0.547488 0.0345379 0.
0.549622 0.034664 0.
0.551694 0.0347283 0.
0.553759 0.0347842 0.
0.555818 0.0348353 0.
0.557852 0.0348597 0.
0.559886 0.0348843 0.
0.561914 0.0349045 0.
0.563931 0.0349186 0.
0.565949 0.0349327 0.
0.56796 0.0349422 0.
0.569967 0.0349492 0.
0.571975 0.0349563 0.
0.573979 0.0349592 0.
0.575982 0.0349615 0.
0.577985 0.0349638 0.
0.579988 0.0349651 0.
0.58199 0.0349665 0.
0.583992 0.0349675 0.
0.585993 0.034968 0.
0.587995 0.0349686 0.
0.589996 0.0349691 0.
0.591997 0.0349696 0.
0.593998 0.0349702 0.
0.595998 0.0349705 0.
0.597999 0.0349708 0.
0.6 0.0349711 0.
0.602 0.0349709 0.
0.604001 0.0349708 0.
0.606002 0.0349704 0.
0.608003 0.0349696 0.
0.610004 0.0349688 0.
0.612005 0.0349679 0.
0.614007 0.034967 0.
0.616008 0.0349661 0.
0.618011 0.0349645 0.
0.620014 0.0349626 0.
0.622017 0.0349607 0.
0.624021 0.0349573 0.
0.626026 0.0349537 0.
0.628031 0.0349494 0.
0.630041 0.0349399 0.
0.632051 0.0349305 0.
0.634066 0.0349175 0.
0.63609 0.0348979 0.
0.638115 0.0348783 0.
0.640151 0.0348517 0.
0.642196 0.0348203 0.
0.64424 0.034789 0.
0.64632 0.0347184 0.
0.648405 0.0346419 0.
0.650502 0.0345531 0.
0.652669 0.0343942 0.
0.654835 0.0342374 0.
0.657066 0.0340483 0.
0.659344 0.0338368 0.
0.661633 0.0336189 0.
0.664093 0.033195 0.
0.66655 0.0327767 0.
0.669193 0.0321848 0.
0.671884 0.0314747 0.
0.674687 0.0306623 0.
0.677585 0.0297806 0.
0.680673 0.0287174 0.
0.683832 0.0275483 0.
0.687119 0.0261086 0.
0.690488 0.0246048 0.
0.694031 0.0230165 0.
0.697706 0.0213616 0.
0.701543 0.0196442 0.
0.705515 0.0177361 0.
0.709593 0.0157698 0.
0.713801 0.0137473 0.
0.718163 0.0119063 0.
0.722774 0.0104315 0.
0.727685 0.00927241 0.
0.470587 0.0103166 0.
0.474989 0.0112376 0.
0.479372 0.012625 0.
0.483663 0.0143946 0.
0.487833 0.0163108 0.
0.491828 0.0183305 0.
0.495721 0.0203202 0.
0.499509 0.0221669 0.
0.503204 0.0239284 0.
0.506748 0.0256064 0.
0.510173 0.0271747 0.
0.513485 0.0284809 0.
0.516718 0.0297282 0.
0.519783 0.0308995 0.
0.522736 0.0319778 0.
0.525589 0.0328852 0.
0.528348 0.0336463 0.
0.53102 0.0343174 0.
0.533618 0.034871 0.
0.536062 0.0352904 0.
0.538506 0.0357229 0.
0.540757 0.0359142 0.
0.543 0.0360997 0.
0.545203 0.0362669 0.
0.547356 0.0364114 0.
0.549513 0.0365577 0.
0.551606 0.0366432 0.
0.553688 0.0367192 0.
0.555766 0.0367895 0.
0.557807 0.036819 0.
0.559849 0.0368485 0.
0.561883 0.0368741 0.
0.563907 0.0368941 0.
0.565932 0.0369142 0.
0.567947 0.0369276 0.
0.569957 0.0369373 0.
0.571967 0.0369469 0.
0.573973 0.0369514 0.
0.575977 0.0369551 0.
0.577982 0.0369586 0.
0.579985 0.0369605 0.
0.581988 0.0369625 0.
0.58399 0.0369641 0.
0.585992 0.0369649 0.
0.587994 0.0369658 0.
0.589995 0.0369666 0.
0.591996 0.0369673 0.
0.593997 0.036968 0.
0.595998 0.0369685 0.
0.597999 0.0369689 0.
0.6 0.0369693 0.
0.602001 0.036969 0.
0.604001 0.0369687 0.
0.606002 0.0369682 0.
0.608003 0.0369671 0.
0.610005 0.036966 0.
0.612006 0.0369647 0.
0.614008 0.0369634 0.
0.616011 0.0369621 0.
0.618014 0.0369598 0.
0.620018 0.036957 0.
0.622022 0.0369542 0.
0.624028 0.0369492 0.
0.626034 0.0369438 0.
0.628041 0.0369376 0.
0.630055 0.0369245 0.
0.632069 0.0369114 0.
0.63409 0.0368933 0.
0.636122 0.036866 0.
0.638155 0.0368389 0.
0.6402 0.0368062 0.
0.642252 0.0367695 0.
0.644304 0.0367329 0.
0.64641 0.0366354 0.
0.648519 0.0365321 0.
0.650642 0.0364173 0.
0.652828 0.0362402 0.
0.655011 0.0360649 0.
0.65728 0.0358323 0.
0.659591 0.0355794 0.
0.661922 0.035313 0.
0.664409 0.0348397 0.
0.666915 0.0343595 0.
0.669648 0.0336547 0.
0.672395 0.0328711 0.
0.675277 0.0319183 0.
0.678203 0.0309374 0.
0.681316 0.0298042 0.
0.684514 0.0285556 0.
0.687802 0.0270285 0.
0.691178 0.0254627 0.
0.694717 0.0238544 0.
0.698403 0.0221424 0.
0.702186 0.0203915 0.
0.706107 0.018483 0.
0.710108 0.0165381 0.
0.714223 0.0145741 0.
0.718461 0.0128087 0.
0.722819 0.0114622 0.
0.727289 0.0105283 0.
0.47106 0.0116336 0.
0.47511 0.0123876 0.
0.479249 0.0136454 0.
0.483377 0.0153151 0.
0.487425 0.0171598 0.
0.491348 0.0191429 0.
0.495176 0.0211204 0.
0.498922 0.0229815 0.
0.502589 0.0247644 0.
0.506116 0.0264834 0.
0.509514 0.0281084 0.
0.512833 0.0294857 0.
0.51608 0.030765 0.
0.519153 0.032002 0.
0.522155 0.0332196 0.
0.52504 0.0341949 0.
0.527867 0.035055 0.
0.530559 0.0357702 0.
0.533218 0.0363985 0.
0.535701 0.0368957 0.
0.538191 0.0374168 0.
0.540501 0.037673 0.
0.542785 0.0379009 0.
0.545032 0.0381089 0.
0.547212 0.0382752 0.
0.549395 0.0384435 0.
0.551512 0.0385526 0.
0.553615 0.0386508 0.
0.555712 0.0387426 0.
0.557761 0.0387772 0.
0.55981 0.0388119 0.
0.561852 0.0388431 0.
0.563883 0.0388692 0.
0.565914 0.0388955 0.
0.567934 0.0389128 0.
0.569947 0.0389252 0.
0.57196 0.0389375 0.
0.573967 0.0389435 0.
0.575972 0.0389486 0.
0.577978 0.0389534 0.
0.579982 0.0389559 0.
0.581986 0.0389585 0.
0.583989 0.0389606 0.
0.585991 0.0389618 0.
0.587993 0.0389631 0.
0.589995 0.0389641 0.
0.591996 0.038965 0.
0.593997 0.0389659 0.
0.595998 0.0389665 0.
0.597999 0.0389669 0.
0.6 0.0389674 0.
0.602001 0.038967 0.
0.604002 0.0389666 0.
0.606002 0.0389659 0.
0.608004 0.0389645 0.
0.610005 0.0389631 0.
0.612007 0.0389616 0.
0.61401 0.0389598 0.
0.616013 0.038958 0.
0.618017 0.038955 0.
0.620022 0.0389513 0.
0.622027 0.0389477 0.
0.624034 0.038941 0.
0.626042 0.0389339 0.
0.628051 0.0389256 0.
0.630069 0.0389088 0.
0.632087 0.0388921 0.
0.634114 0.0388685 0.
0.636155 0.0388334 0.
0.638196 0.0387984 0.
0.640249 0.0387594 0.
0.64231 0.0387172 0.
0.644371 0.0386752 0.
0.646505 0.0385468 0.
0.648643 0.0384129 0.
0.650795 0.038269 0.
0.653006 0.0380715 0.
0.655214 0.0378759 0.
0.657538 0.0375834 0.
0.659898 0.0372717 0.
0.662301 0.0369246 0.
0.664835 0.0363695 0.
0.667382 0.0358115 0.
0.670131 0.0350613 0.
0.672926 0.0342125 0.
0.675861 0.0331379 0.
0.678834 0.0320575 0.
0.681954 0.0308465 0.
0.685154 0.0295326 0.
0.688451 0.0279565 0.
0.691834 0.0263369 0.
0.695334 0.0247084 0.
0.698996 0.0229662 0.
0.702737 0.0211973 0.
0.706596 0.0192979 0.
0.710505 0.0173855 0.
0.714513 0.0154916 0.
0.718611 0.0138125 0.
0.722738 0.0125878 0.
0.72684 0.0118225 0.
0.471519 0.0129622 0.
0.475284 0.0136 0.
0.479211 0.0147464 0.
0.483176 0.0163064 0.
0.487101 0.018078 0.
0.490938 0.0200115 0.
0.494706 0.0219719 0.
0.498413 0.0238388 0.
0.502026 0.025628 0.
0.505515 0.0273792 0.
0.508899 0.0290434 0.
0.512216 0.0304782 0.
0.515452 0.0317956 0.
0.518541 0.0330882 0.
0.521584 0.0344108 0.
0.524495 0.0354434 0.
0.527352 0.0364097 0.
0.530082 0.0371912 0.
0.5328 0.0379022 0.
0.535337 0.0384863 0.
0.537873 0.0390952 0.
0.540245 0.0394244 0.
0.542571 0.0396942 0.
0.544863 0.0399457 0.
0.547066 0.0401296 0.
0.549274 0.0403173 0.
0.551414 0.0404506 0.
0.553536 0.0405731 0.
0.555653 0.0406899 0.
0.55771 0.0407295 0.
0.559767 0.0407691 0.
0.561817 0.040806 0.
0.563855 0.0408392 0.
0.565892 0.0408726 0.
0.567917 0.0408948 0.
0.569933 0.0409104 0.
0.57195 0.0409262 0.
0.573959 0.0409341 0.
0.575966 0.0409408 0.
0.577974 0.0409472 0.
0.579978 0.0409506 0.
0.581983 0.0409539 0.
0.583987 0.0409567 0.
0.585989 0.0409584 0.
0.587992 0.0409601 0.
0.589994 0.0409615 0.
0.591995 0.0409626 0.
0.593997 0.0409637 0.
0.595998 0.0409644 0.
0.597999 0.040965 0.
0.6 0.0409656 0.
0.602001 0.040965 0.
0.604002 0.0409644 0.
0.606003 0.0409636 0.
0.608005 0.0409619 0.
0.610007 0.0409601 0.
0.612009 0.0409581 0.
0.614012 0.0409557 0.
0.616016 0.0409532 0.
0.618021 0.0409493 0.
0.620027 0.0409447 0.
0.622033 0.04094 0.
0.624043 0.0409312 0.
0.626053 0.0409219 0.
0.628064 0.040911 0.
0.630087 0.0408896 0.
0.63211 0.0408683 0.
0.634143 0.0408385 0.
0.636192 0.0407948 0.
0.638241 0.0407514 0.
0.640304 0.0407056 0.
0.642375 0.0406578 0.
0.644445 0.0406102 0.
0.646604 0.0404473 0.
0.648766 0.0402816 0.
0.650948 0.0401101 0.
0.653182 0.039897 0.
0.655414 0.0396837 0.
0.657798 0.0393245 0.
0.660209 0.0389539 0.
0.662689 0.0385207 0.
0.665274 0.037882 0.
0.667888 0.0372085 0.
0.670663 0.0363678 0.
0.673475 0.0354495 0.
0.676424 0.0343242 0.
0.679441 0.0331623 0.
0.682567 0.031888 0.
0.685769 0.0304827 0.
0.689055 0.0288928 0.
0.692447 0.0272277 0.
0.695921 0.0255705 0.
0.699533 0.0238209 0.
0.703226 0.0220454 0.
0.706999 0.0201765 0.
0.710835 0.0182949 0.
0.71473 0.0164741 0.
0.718683 0.0148935 0.
0.722613 0.0137755 0.
0.726412 0.013135 0.
0.471942 0.0143399 0.
0.47549 0.0148767 0.
0.479231 0.0159071 0.
0.483025 0.0173588 0.
0.486842 0.0190553 0.
0.490594 0.0209377 0.
0.494296 0.0228737 0.
0.497949 0.0247375 0.
0.501501 0.0265244 0.
0.504963 0.0282991 0.
0.50834 0.0299861 0.
0.51164 0.031483 0.
0.514864 0.0328407 0.
0.517985 0.0341782 0.
0.521037 0.0355339 0.
0.523969 0.0366628 0.
0.526856 0.0377396 0.
0.529634 0.0386048 0.
0.532399 0.0393823 0.
0.534984 0.0400267 0.
0.537532 0.0406865 0.
0.539952 0.0410949 0.
0.54232 0.0414151 0.
0.544662 0.0417224 0.
0.546897 0.0419367 0.
0.549139 0.0421559 0.
0.551307 0.0423233 0.
0.553448 0.0424783 0.
0.555586 0.0426284 0.
0.557652 0.0426731 0.
0.559718 0.0427179 0.
0.561776 0.042761 0.
0.563821 0.0428027 0.
0.565866 0.0428446 0.
0.567896 0.0428728 0.
0.569917 0.0428926 0.
0.571938 0.0429125 0.
0.573949 0.0429228 0.
0.575959 0.0429317 0.
0.577968 0.0429401 0.
0.579973 0.0429444 0.
0.581979 0.0429487 0.
0.583984 0.0429523 0.
0.585987 0.0429546 0.
0.58799 0.0429568 0.
0.589993 0.0429587 0.
0.591995 0.0429601 0.
0.593996 0.0429615 0.
0.595998 0.0429624 0.
0.597999 0.0429631 0.
0.6 0.0429638 0.
0.602001 0.0429631 0.
0.604003 0.0429623 0.
0.606004 0.0429612 0.
0.608006 0.0429591 0.
0.610008 0.0429569 0.
0.612011 0.0429542 0.
0.614015 0.042951 0.
0.616019 0.0429477 0.
0.618026 0.0429427 0.
0.620033 0.0429369 0.
0.622041 0.0429311 0.
0.624053 0.0429196 0.
0.626066 0.0429075 0.
0.628081 0.0428933 0.
0.630109 0.0428662 0.
0.632138 0.0428392 0.
0.634178 0.0428019 0.
0.636236 0.0427484 0.
0.638293 0.0426952 0.
0.640367 0.0426415 0.
0.642451 0.0425866 0.
0.644535 0.0425302 0.
0.646713 0.0423245 0.
0.648892 0.0421176 0.
0.651108 0.0419017 0.
0.653391 0.0416481 0.
0.655663 0.0414023 0.
0.658086 0.0409886 0.
0.660526 0.040572 0.
0.663064 0.0400632 0.
0.665691 0.0393679 0.
0.668364 0.0385881 0.
0.671163 0.0376655 0.
0.674009 0.0366504 0.
0.676962 0.0354743 0.
0.679997 0.0342624 0.
0.683125 0.0329455 0.
0.686341 0.0314501 0.
0.689617 0.029839 0.
0.693003 0.0281461 0.
0.696455 0.0264668 0.
0.70002 0.0247131 0.
0.703667 0.0229376 0.
0.707363 0.0211031 0.
0.711113 0.0192669 0.
0.714892 0.0175219 0.
0.7187 0.0160428 0.
0.722452 0.0150259 0.
0.726022 0.0144664 0.
0.472373 0.015741 0.
0.475752 0.0162005 0.
0.479323 0.0171344 0.
0.482972 0.0184888 0.
0.486672 0.0201108 0.
0.49033 0.021931 0.
0.493964 0.0238366 0.
0.497552 0.0256848 0.
0.501052 0.0274667 0.
0.504479 0.0292519 0.
0.507832 0.0309512 0.
0.51112 0.0325084 0.
0.514338 0.0338965 0.
0.517459 0.0352578 0.
0.520504 0.0366404 0.
0.523456 0.0378673 0.
0.526368 0.0390377 0.
0.529182 0.0399787 0.
0.531959 0.040788 0.
0.534582 0.0415067 0.
0.537153 0.0422352 0.
0.539632 0.0427407 0.
0.542053 0.0431215 0.
0.544457 0.0434956 0.
0.546725 0.0437411 0.
0.549 0.0439922 0.
0.551199 0.0441941 0.
0.553359 0.0443819 0.
0.555517 0.0445665 0.
0.557592 0.0446166 0.
0.559668 0.0446665 0.
0.561735 0.0447158 0.
0.563787 0.0447661 0.
0.565839 0.0448166 0.
0.567875 0.0448508 0.
0.569901 0.0448748 0.
0.571926 0.0448988 0.
0.57394 0.0449115 0.
0.575951 0.0449225 0.
0.577962 0.0449329 0.
0.579969 0.0449382 0.
0.581976 0.0449435 0.
0.583981 0.044948 0.
0.585985 0.0449508 0.
0.587989 0.0449536 0.
0.589992 0.0449558 0.
0.591994 0.0449576 0.
0.593996 0.0449593 0.
0.595997 0.0449603 0.
0.597999 0.0449612 0.
0.6 0.0449621 0.
0.602002 0.0449611 0.
0.604003 0.0449602 0.
0.606005 0.0449589 0.
0.608007 0.0449563 0.
0.61001 0.0449537 0.
0.612014 0.0449504 0.
0.614018 0.0449463 0.
0.616023 0.0449422 0.
0.618031 0.0449362 0.
0.62004 0.0449292 0.
0.622049 0.0449222 0.
0.624064 0.044908 0.
0.626079 0.044893 0.
0.628097 0.0448755 0.
0.630132 0.0448427 0.
0.632166 0.04481 0.
0.634213 0.0447651 0.
0.636279 0.0447018 0.
0.638344 0.0446388 0.
0.640431 0.0445771 0.
0.642528 0.0445151 0.
0.644627 0.044448 0.
0.646822 0.0441992 0.
0.649018 0.0439509 0.
0.651275 0.043689 0.
0.653608 0.0433926 0.
0.655936 0.0430981 0.
0.658402 0.0426221 0.
0.660878 0.0421496 0.
0.663471 0.0415426 0.
0.666122 0.040791 0.
0.668841 0.039929 0.
0.671649 0.0389445 0.
0.674522 0.0378483 0.
0.67748 0.0366235 0.
0.680525 0.0353543 0.
0.683645 0.0340096 0.
0.686851 0.0324402 0.
0.690118 0.0307989 0.
0.693493 0.0291038 0.
0.696915 0.0274093 0.
0.700421 0.0256649 0.
0.704022 0.023892 0.
0.707656 0.0220921 0.
0.711303 0.0203147 0.
0.714979 0.0186472 0.
0.718629 0.0172606 0.
0.722211 0.0163433 0.
0.725601 0.0158502 0.
0.472835 0.0171601 0.
0.476075 0.0175667 0.
0.479498 0.0184329 0.
0.483022 0.0197013 0.
0.486595 0.0212418 0.
0.490161 0.0230005 0.
0.493718 0.0248653 0.
0.497234 0.026688 0.
0.500676 0.0284638 0.
0.504076 0.0302457 0.
0.507403 0.0319571 0.
0.510664 0.0335584 0.
0.513856 0.0349692 0.
0.516969 0.0363539 0.
0.520005 0.0377581 0.
0.522969 0.0390594 0.
0.525888 0.0402763 0.
0.528728 0.0412924 0.
0.531513 0.0421733 0.
0.534179 0.0429745 0.
0.536772 0.0437682 0.
0.5393 0.0443725 0.
0.541768 0.0448109 0.
0.544222 0.045239 0.
0.546517 0.0455093 0.
0.548816 0.0457905 0.
0.551041 0.0460284 0.
0.553217 0.0462421 0.
0.555394 0.0464533 0.
0.557492 0.0465218 0.
0.55959 0.0465887 0.
0.561677 0.046653 0.
0.563737 0.0467118 0.
0.565797 0.0467709 0.
0.56784 0.046813 0.
0.569873 0.0468442 0.
0.571906 0.0468755 0.
0.573923 0.0468925 0.
0.575938 0.0469073 0.
0.577952 0.0469214 0.
0.579961 0.0469281 0.
0.581969 0.0469349 0.
0.583977 0.0469408 0.
0.585982 0.0469446 0.
0.587986 0.0469485 0.
0.58999 0.0469514 0.
0.591993 0.0469537 0.
0.593995 0.046956 0.
0.595997 0.0469573 0.
0.597999 0.0469583 0.
0.6 0.0469593 0.
0.602002 0.046958 0.
0.604004 0.0469568 0.
0.606006 0.046955 0.
0.608009 0.0469517 0.
0.610013 0.0469483 0.
0.612017 0.046944 0.
0.614024 0.0469384 0.
0.61603 0.0469329 0.
0.61804 0.0469252 0.
0.620051 0.0469163 0.
0.622063 0.0469075 0.
0.624081 0.0468886 0.
0.626101 0.0468688 0.
0.628124 0.0468456 0.
0.630168 0.0468033 0.
0.632212 0.0467613 0.
0.634268 0.0467071 0.
0.636342 0.046635 0.
0.638415 0.0465632 0.
0.640527 0.0464822 0.
0.642653 0.0463987 0.
0.644781 0.0463056 0.
0.646991 0.0460294 0.
0.649197 0.0457522 0.
0.651484 0.0454452 0.
0.653851 0.0451101 0.
0.656226 0.0447744 0.
0.658728 0.0442441 0.
0.661236 0.0437169 0.
0.663881 0.0430075 0.
0.666553 0.0421883 0.
0.66931 0.0412354 0.
0.672127 0.0402041 0.
0.675014 0.039042 0.
0.677963 0.0377816 0.
0.68101 0.0364566 0.
0.684118 0.0350732 0.
0.687314 0.0334603 0.
0.690552 0.0317977 0.
0.693891 0.0301082 0.
0.697283 0.0284091 0.
0.700738 0.0266765 0.
0.704269 0.0249207 0.
0.707844 0.0231556 0.
0.711402 0.0214408 0.
0.714963 0.0198573 0.
0.718467 0.0185519 0.
0.721888 0.0177153 0.
0.725135 0.0172795 0.
0.473323 0.018597 0.
0.476451 0.0189787 0.
0.479753 0.0197972 0.
0.483148 0.0209854 0.
0.4866 0.0224445 0.
0.490074 0.0241443 0.
0.493551 0.0259609 0.
0.496992 0.0277523 0.
0.500383 0.0295166 0.
0.503743 0.0312834 0.
0.507027 0.0330023 0.
0.510258 0.034633 0.
0.513423 0.0360652 0.
0.516523 0.0374704 0.
0.519539 0.0388877 0.
0.52251 0.0402388 0.
0.525432 0.0414925 0.
0.528289 0.0425992 0.
0.531082 0.0435415 0.
0.533786 0.0444162 0.
0.536392 0.0452503 0.
0.538955 0.0459325 0.
0.541447 0.0464136 0.
0.543933 0.0469 0.
0.546265 0.0472253 0.
0.548591 0.0475581 0.
0.550853 0.0478453 0.
0.553053 0.0480865 0.
0.555255 0.0483259 0.
0.557382 0.0484182 0.
0.559507 0.0485058 0.
0.561616 0.0485881 0.
0.563685 0.0486558 0.
0.565753 0.0487237 0.
0.567805 0.0487742 0.
0.569845 0.0488128 0.
0.571886 0.0488516 0.
0.573907 0.0488732 0.
0.575925 0.0488919 0.
0.577942 0.0489097 0.
0.579953 0.048918 0.
0.581963 0.0489263 0.
0.583972 0.0489335 0.
0.585978 0.0489384 0.
0.587984 0.0489433 0.
0.589988 0.048947 0.
0.591991 0.0489498 0.
0.593994 0.0489527 0.
0.595997 0.0489542 0.
0.597998 0.0489553 0.
0.6 0.0489564 0.
0.602003 0.0489549 0.
0.604005 0.0489533 0.
0.606008 0.0489512 0.
0.608011 0.048947 0.
0.610015 0.0489429 0.
0.612021 0.0489374 0.
0.614029 0.0489305 0.
0.616037 0.0489235 0.
0.618049 0.048914 0.
0.620063 0.0489033 0.
0.622077 0.0488926 0.
0.6241 0.0488689 0.
0.626123 0.048844 0.
0.628152 0.0488149 0.
0.630206 0.0487627 0.
0.63226 0.0487109 0.
0.634325 0.0486468 0.
0.636408 0.0485655 0.
0.63849 0.0484846 0.
0.640634 0.0483795 0.
0.642795 0.0482685 0.
0.64496 0.0481426 0.
0.647195 0.0478373 0.
0.649425 0.0475319 0.
0.651748 0.0471623 0.
0.654134 0.0467625 0.
0.656544 0.0463562 0.
0.659075 0.0457909 0.
0.661609 0.0452276 0.
0.66428 0.0444473 0.
0.666979 0.0435654 0.
0.669768 0.0425355 0.
0.672592 0.0414581 0.
0.675479 0.0402372 0.
0.678428 0.0389478 0.
0.681466 0.0375711 0.
0.684551 0.0361419 0.
0.687723 0.0345131 0.
0.690942 0.0328356 0.
0.694227 0.0311555 0.
0.697573 0.0294643 0.
0.700973 0.0277484 0.
0.704421 0.0260191 0.
0.707926 0.0242941 0.
0.711409 0.0226386 0.
0.714858 0.0211358 0.
0.718235 0.0199113 0.
0.721511 0.019134 0.
0.724635 0.0187437 0.
0.473816 0.0200723 0.
0.476856 0.0204372 0.
0.480038 0.0212028 0.
0.483313 0.0223148 0.
0.486658 0.0237043 0.
0.490046 0.0253471 0.
0.493435 0.0271073 0.
0.496807 0.0288668 0.
0.500147 0.030609 0.
0.503451 0.0323587 0.
0.5067 0.0340845 0.
0.509903 0.0357268 0.
0.513037 0.0371843 0.
0.516106 0.0386085 0.
0.519118 0.0400357 0.
0.522087 0.0414277 0.
0.525 0.0427114 0.
0.527868 0.0438918 0.
0.53066 0.0448843 0.
0.533378 0.0458208 0.
0.536002 0.0466975 0.
0.538608 0.0474643 0.
0.541125 0.0480061 0.
0.543641 0.0485537 0.
0.546013 0.0489333 0.
0.548368 0.0493176 0.
0.550667 0.0496587 0.
0.552891 0.0499256 0.
0.555118 0.0501876 0.
0.557271 0.0503039 0.
0.55942 0.0504143 0.
0.56155 0.0505179 0.
0.563627 0.0505938 0.
0.565704 0.0506702 0.
0.567765 0.0507292 0.
0.569813 0.0507762 0.
0.571861 0.0508236 0.
0.573887 0.0508506 0.
0.575909 0.0508739 0.
0.57793 0.0508961 0.
0.579942 0.0509061 0.
0.581955 0.0509161 0.
0.583966 0.0509248 0.
0.585973 0.050931 0.
0.58798 0.0509373 0.
0.589986 0.050942 0.
0.591989 0.0509455 0.
0.593993 0.0509489 0.
0.595996 0.0509507 0.
0.597998 0.050952 0.
0.600001 0.0509533 0.
0.602003 0.0509514 0.
0.604006 0.0509494 0.
0.60601 0.0509468 0.
0.608014 0.0509417 0.
0.610019 0.0509366 0.
0.612026 0.0509298 0.
0.614036 0.0509211 0.
0.616046 0.0509124 0.
0.61806 0.0509008 0.
0.620077 0.050888 0.
0.622094 0.0508752 0.
0.624121 0.050846 0.
0.62615 0.0508154 0.
0.628184 0.0507793 0.
0.630249 0.0507159 0.
0.632312 0.0506532 0.
0.634388 0.0505795 0.
0.636479 0.0504903 0.
0.638569 0.0504014 0.
0.640742 0.0502679 0.
0.642935 0.0501282 0.
0.645136 0.0499719 0.
0.647396 0.0496413 0.
0.649652 0.0493087 0.
0.652009 0.0488692 0.
0.654415 0.0484048 0.
0.656866 0.0479286 0.
0.659433 0.0473096 0.
0.66201 0.0466739 0.
0.66469 0.0458303 0.
0.667395 0.0449095 0.
0.670211 0.0438312 0.
0.673047 0.0427018 0.
0.675927 0.0414302 0.
0.678856 0.0401132 0.
0.681886 0.0387036 0.
0.684957 0.0372305 0.
0.688086 0.0355954 0.
0.691278 0.0339109 0.
0.694523 0.0322391 0.
0.697805 0.0305671 0.
0.701156 0.0288677 0.
0.704523 0.0271671 0.
0.707936 0.0254917 0.
0.711345 0.0238942 0.
0.714703 0.022463 0.
0.717962 0.0213117 0.
0.721121 0.0205852 0.
0.724141 0.0202255 0.
0.474298 0.0215823 0.
0.47725 0.0219235 0.
0.480326 0.0226358 0.
0.483494 0.0236837 0.
0.486744 0.0250136 0.
0.490043 0.0265951 0.
0.493356 0.0282991 0.
0.496668 0.0300268 0.
0.499952 0.0317441 0.
0.503212 0.0334785 0.
0.506425 0.0352052 0.
0.509589 0.0368507 0.
0.512687 0.0383326 0.
0.515744 0.0397719 0.
0.518741 0.0412054 0.
0.521691 0.0426265 0.
0.524595 0.0439406 0.
0.527463 0.0451758 0.
0.530237 0.0462123 0.
0.532974 0.0472222 0.
0.535627 0.0481435 0.
0.538271 0.0489815 0.
0.540818 0.0495824 0.
0.543349 0.0501677 0.
0.545753 0.0505941 0.
0.54813 0.0510208 0.
0.550463 0.0514128 0.
0.552721 0.0517059 0.
0.55499 0.0520005 0.
0.557165 0.0521542 0.
0.559325 0.0523009 0.
0.561469 0.052437 0.
0.563557 0.0525214 0.
0.565646 0.0526063 0.
0.567717 0.0526751 0.
0.569774 0.0527324 0.
0.571832 0.0527902 0.
0.573864 0.0528238 0.
0.57589 0.0528527 0.
0.577915 0.0528803 0.
0.57993 0.0528922 0.
0.581945 0.0529041 0.
0.583958 0.0529146 0.
0.585967 0.0529225 0.
0.587976 0.0529303 0.
0.589982 0.0529362 0.
0.591987 0.0529405 0.
0.593992 0.0529448 0.
0.595995 0.0529469 0.
0.597998 0.0529484 0.
0.600001 0.0529499 0.
0.602005 0.0529475 0.
0.604008 0.052945 0.
0.606012 0.0529418 0.
0.608018 0.0529355 0.
0.610024 0.0529293 0.
0.612033 0.0529209 0.
0.614045 0.05291 0.
0.616057 0.0528991 0.
0.618075 0.0528852 0.
0.620094 0.0528701 0.
0.622114 0.0528549 0.
0.624148 0.052819 0.
0.626182 0.0527815 0.
0.628224 0.0527368 0.
0.630299 0.0526597 0.
0.632374 0.0525833 0.
0.634461 0.0524991 0.
0.636563 0.0524029 0.
0.638664 0.052307 0.
0.640856 0.0521265 0.
0.643064 0.0519367 0.
0.645289 0.0517345 0.
0.647587 0.0513865 0.
0.649873 0.0510385 0.
0.652266 0.0505383 0.
0.654686 0.0500215 0.
0.657176 0.0494851 0.
0.659777 0.048821 0.
0.662393 0.0481123 0.
0.665089 0.0472007 0.
0.667812 0.0462171 0.
0.670619 0.0451193 0.
0.673464 0.0439521 0.
0.676344 0.0426356 0.
0.67926 0.0412833 0.
0.682261 0.0398565 0.
0.685315 0.0383513 0.
0.688418 0.036711 0.
0.691569 0.03503 0.
0.694776 0.0333638 0.
0.698002 0.0317117 0.
0.701291 0.030035 0.
0.704596 0.0283602 0.
0.707917 0.026732 0.
0.711239 0.0251998 0.
0.714516 0.0238326 0.
0.717682 0.0227427 0.
0.720743 0.0220603 0.
0.723681 0.0217297 0.
0.474782 0.0231002 0.
0.477657 0.0234282 0.
0.480642 0.024103 0.
0.483723 0.0251059 0.
0.486883 0.0263774 0.
0.490098 0.0278987 0.
0.493344 0.0295522 0.
0.496596 0.031244 0.
0.499826 0.0329348 0.
0.50304 0.0346519 0.
0.506204 0.0363697 0.
0.509327 0.038014 0.
0.5124 0.0395137 0.
0.515426 0.0409562 0.
0.518391 0.0423977 0.
0.521327 0.0438417 0.
0.524218 0.0451797 0.
0.527064 0.0464429 0.
0.529836 0.047538 0.
0.532577 0.0486141 0.
0.535253 0.0495796 0.
0.537907 0.0504415 0.
0.540463 0.0510939 0.
0.543006 0.0517356 0.
0.545458 0.0522252 0.
0.54787 0.052702 0.
0.550246 0.0531571 0.
0.552545 0.053483 0.
0.554857 0.0538113 0.
0.557057 0.054002 0.
0.559229 0.0541852 0.
0.561387 0.0543558 0.
0.563487 0.0544488 0.
0.565587 0.0545422 0.
0.567669 0.0546207 0.
0.569736 0.0546884 0.
0.571803 0.0547565 0.
0.57384 0.0547969 0.
0.57587 0.0548315 0.
0.5779 0.0548645 0.
0.579917 0.0548783 0.
0.581935 0.054892 0.
0.58395 0.0549044 0.
0.585961 0.0549139 0.
0.587971 0.0549233 0.
0.589979 0.0549304 0.
0.591984 0.0549355 0.
0.59399 0.0549406 0.
0.595994 0.0549431 0.
0.597998 0.0549448 0.
0.600001 0.0549465 0.
0.602006 0.0549436 0.
0.60401 0.0549406 0.
0.606015 0.0549367 0.
0.608022 0.0549294 0.
0.610029 0.054922 0.
0.61204 0.054912 0.
0.614054 0.0548989 0.
0.616068 0.0548857 0.
0.618089 0.0548696 0.
0.620112 0.0548521 0.
0.622135 0.0548346 0.
0.624174 0.0547919 0.
0.626214 0.0547475 0.
0.628263 0.054694 0.
0.63035 0.0546031 0.
0.632437 0.054513 0.
0.634536 0.0544186 0.
0.636649 0.0543154 0.
0.638761 0.0542125 0.
0.640971 0.0539815 0.
0.643194 0.0537412 0.
0.645447 0.0534957 0.
0.647783 0.0531239 0.
0.650108 0.0527513 0.
0.65255 0.0521792 0.
0.655007 0.0516075 0.
0.657533 0.0510035 0.
0.660135 0.050298 0.
0.662773 0.0495283 0.
0.665477 0.0485678 0.
0.668209 0.0475277 0.
0.671009 0.0463965 0.
0.67384 0.0452014 0.
0.67671 0.0438599 0.
0.679623 0.0424779 0.
0.682596 0.0410376 0.
0.68562 0.039509 0.
0.688691 0.0378681 0.
0.6918 0.0361987 0.
0.694967 0.03454 0.
0.698143 0.0329084 0.
0.701363 0.0312598 0.
0.704605 0.0296125 0.
0.70785 0.0280269 0.
0.711083 0.0265573 0.
0.714276 0.0252525 0.
0.717364 0.0242116 0.
0.720348 0.0235614 0.
0.723219 0.0232494 0.
0.475285 0.0246324 0.
0.478098 0.0249624 0.
0.481012 0.0256154 0.
0.484014 0.0265765 0.
0.487086 0.0277965 0.
0.49023 0.029267 0.
0.493411 0.0308713 0.
0.496595 0.0325209 0.
0.499772 0.034183 0.
0.50293 0.0358807 0.
0.506042 0.0375816 0.
0.509122 0.0392209 0.
0.512154 0.0407284 0.
0.515143 0.0421716 0.
0.518088 0.0436211 0.
0.521003 0.045075 0.
0.523862 0.0464291 0.
0.526689 0.0477182 0.
0.529459 0.0488647 0.
0.532194 0.0499804 0.
0.534867 0.0509636 0.
0.537523 0.0518639 0.
0.540102 0.0525923 0.
0.542663 0.0532944 0.
0.545158 0.0538483 0.
0.5476 0.0543737 0.
0.550013 0.0548923 0.
0.552341 0.0552374 0.
0.554675 0.0555953 0.
0.556898 0.0558255 0.
0.559085 0.0560425 0.
0.561263 0.0562476 0.
0.563379 0.0563487 0.
0.565496 0.0564507 0.
0.567595 0.0565407 0.
0.569674 0.056622 0.
0.571754 0.0567042 0.
0.5738 0.056755 0.
0.575838 0.0567986 0.
0.577876 0.0568405 0.
0.579897 0.0568566 0.
0.581918 0.0568728 0.
0.583936 0.0568877 0.
0.58595 0.0568998 0.
0.587963 0.0569119 0.
0.589973 0.0569209 0.
0.59198 0.0569273 0.
0.593987 0.0569337 0.
0.595992 0.0569366 0.
0.597997 0.0569386 0.
0.600002 0.0569405 0.
0.602007 0.0569367 0.
0.604013 0.056933 0.
0.606019 0.056928 0.
0.608029 0.0569188 0.
0.610039 0.0569096 0.
0.612052 0.056897 0.
0.61407 0.0568804 0.
0.616088 0.0568639 0.
0.618112 0.056845 0.
0.620139 0.0568251 0.
0.622165 0.0568051 0.
0.624216 0.0567499 0.
0.626268 0.0566929 0.
0.62833 0.056626 0.
0.630429 0.0565212 0.
0.632527 0.0564173 0.
0.634643 0.0563108 0.
0.636775 0.0561981 0.
0.638904 0.0560866 0.
0.641134 0.0558078 0.
0.643367 0.0555232 0.
0.64564 0.0552373 0.
0.647995 0.0548511 0.
0.650357 0.0544514 0.
0.652841 0.0538119 0.
0.655332 0.0531863 0.
0.657895 0.052509 0.
0.660503 0.0517441 0.
0.66315 0.0509062 0.
0.665854 0.0499184 0.
0.668585 0.0488396 0.
0.67137 0.0476849 0.
0.67419 0.046457 0.
0.677041 0.0451034 0.
0.679928 0.0437028 0.
0.682878 0.0422538 0.
0.685868 0.0407145 0.
0.688907 0.0390715 0.
0.691969 0.0374145 0.
0.695083 0.0357742 0.
0.698216 0.0341608 0.
0.701371 0.0325423 0.
0.704542 0.0309302 0.
0.707717 0.029384 0.
0.710868 0.0279701 0.
0.713978 0.0267224 0.
0.716991 0.0257292 0.
0.719904 0.0250954 0.
0.722717 0.0247915 0.
0.47582 0.0261957 0.
0.478579 0.0265279 0.
0.481427 0.0271596 0.
0.484355 0.0280903 0.
0.487355 0.0292711 0.
0.490436 0.0306968 0.
0.49354 0.0322475 0.
0.496657 0.0338558 0.
0.499774 0.0354895 0.
0.502864 0.0371583 0.
0.50592 0.038839 0.
0.508952 0.0404701 0.
0.511943 0.0419772 0.
0.5149 0.04342 0.
0.517816 0.0448708 0.
0.520701 0.0463269 0.
0.523538 0.0477002 0.
0.526345 0.0490079 0.
0.529101 0.0501873 0.
0.531819 0.0513207 0.
0.534491 0.0523468 0.
0.53715 0.0532841 0.
0.53975 0.054075 0.
0.542323 0.0548212 0.
0.544841 0.0554301 0.
0.547297 0.0559798 0.
0.549737 0.0565273 0.
0.552083 0.0569318 0.
0.554435 0.0573503 0.
0.556695 0.0576325 0.
0.558909 0.0578844 0.
0.561119 0.0581278 0.
0.563257 0.0582397 0.
0.565397 0.0583524 0.
0.567515 0.0584556 0.
0.569608 0.0585521 0.
0.571702 0.0586495 0.
0.573758 0.0587115 0.
0.575805 0.0587647 0.
0.577851 0.0588159 0.
0.579876 0.0588346 0.
0.5819 0.0588532 0.
0.583922 0.0588706 0.
0.585939 0.0588854 0.
0.587955 0.0589003 0.
0.589967 0.0589113 0.
0.591976 0.058919 0.
0.593984 0.0589267 0.
0.595991 0.0589301 0.
0.597997 0.0589323 0.
0.600002 0.0589345 0.
0.602009 0.0589299 0.
0.604016 0.0589253 0.
0.606024 0.0589192 0.
0.608036 0.058908 0.
0.610048 0.0588969 0.
0.612064 0.0588817 0.
0.614086 0.0588616 0.
0.616108 0.0588416 0.
0.618135 0.05882 0.
0.620166 0.0587975 0.
0.622196 0.0587751 0.
0.624261 0.0587062 0.
0.626326 0.0586356 0.
0.628401 0.058554 0.
0.630513 0.0584341 0.
0.632624 0.0583153 0.
0.634763 0.0581937 0.
0.636921 0.0580672 0.
0.63908 0.0579374 0.
0.641339 0.05761 0.
0.643599 0.0572809 0.
0.64591 0.0569394 0.
0.648289 0.0564987 0.
0.650671 0.0560471 0.
0.653157 0.0553889 0.
0.655658 0.0547435 0.
0.658242 0.0539992 0.
0.660856 0.0531821 0.
0.663514 0.0522832 0.
0.666211 0.0512673 0.
0.66894 0.0501584 0.
0.671713 0.0489848 0.
0.67451 0.047732 0.
0.677341 0.0463688 0.
0.680208 0.0449588 0.
0.683122 0.0435018 0.
0.686073 0.0419575 0.
0.68907 0.0403237 0.
0.69209 0.0386779 0.
0.695146 0.0370572 0.
0.698225 0.0354694 0.
0.701321 0.0338817 0.
0.70442 0.0323052 0.
0.707519 0.0308004 0.
0.710596 0.0294334 0.
0.713628 0.0282331 0.
0.716574 0.0272817 0.
0.719423 0.0266566 0.
0.722178 0.0263524 0.
0.476359 0.0277802 0.
0.479069 0.028112 0.
0.481856 0.0287296 0.
0.484721 0.0296351 0.
0.487659 0.0307841 0.
0.490668 0.0321626 0.
0.493698 0.0336668 0.
0.496751 0.0352374 0.
0.499798 0.0368363 0.
0.502822 0.0384749 0.
0.50583 0.0401369 0.
0.508814 0.0417537 0.
0.511763 0.0432552 0.
0.514685 0.044698 0.
0.517571 0.0461462 0.
0.520427 0.0476008 0.
0.523238 0.0489902 0.
0.526014 0.0503122 0.
0.528752 0.0515163 0.
0.531457 0.0526686 0.
0.534126 0.0537294 0.
0.536782 0.0546915 0.
0.539394 0.0555329 0.
0.541969 0.0563169 0.
0.544508 0.0569882 0.
0.546987 0.057567 0.
0.549455 0.0581513 0.
0.551826 0.058618 0.
0.554196 0.0590965 0.
0.556491 0.0594361 0.
0.558734 0.0597227 0.
0.560974 0.0600034 0.
0.563134 0.0601246 0.
0.565295 0.0602475 0.
0.567433 0.0603644 0.
0.569537 0.0604751 0.
0.571642 0.0605867 0.
0.57371 0.0606613 0.
0.575767 0.0607258 0.
0.577824 0.0607887 0.
0.579852 0.0608097 0.
0.58188 0.0608307 0.
0.583905 0.0608507 0.
0.585925 0.0608686 0.
0.587944 0.0608865 0.
0.589959 0.0608998 0.
0.59197 0.0609091 0.
0.593981 0.0609184 0.
0.595989 0.0609224 0.
0.597996 0.0609248 0.
0.600003 0.0609272 0.
0.602012 0.0609216 0.
0.60402 0.0609159 0.
0.60603 0.0609084 0.
0.608045 0.060895 0.
0.61006 0.0608817 0.
0.61208 0.0608636 0.
0.614105 0.06084 0.
0.616131 0.0608164 0.
0.618163 0.0607913 0.
0.620198 0.0607653 0.
0.622233 0.0607394 0.
0.624311 0.060655 0.
0.62639 0.0605697 0.
0.628478 0.0604732 0.
0.630601 0.0603403 0.
0.632723 0.0602082 0.
0.634884 0.0600713 0.
0.637067 0.0599329 0.
0.639257 0.0597824 0.
0.641545 0.0594078 0.
0.643831 0.0590344 0.
0.646182 0.0586336 0.
0.648588 0.058137 0.
0.651002 0.0576137 0.
0.653504 0.056913 0.
0.656017 0.05623 0.
0.658597 0.0554577 0.
0.661203 0.054611 0.
0.663866 0.0536619 0.
0.666556 0.0526218 0.
0.669273 0.0514861 0.
0.67203 0.0502984 0.
0.674819 0.0490246 0.
0.677619 0.047655 0.
0.680454 0.0462419 0.
0.683337 0.0447829 0.
0.686249 0.0432321 0.
0.689198 0.0416104 0.
0.692174 0.0399841 0.
0.695174 0.0383807 0.
0.698198 0.0368185 0.
0.701235 0.0352643 0.
0.704272 0.0337225 0.
0.707298 0.0322559 0.
0.710301 0.0309329 0.
0.713264 0.0297713 0.
0.716144 0.0288572 0.
0.718935 0.0282423 0.
0.721636 0.0279396 0.
0.476882 0.0293945 0.
0.479543 0.0297197 0.
0.482276 0.0303216 0.
0.485084 0.031203 0.
0.487964 0.0323211 0.
0.490907 0.0336601 0.
0.493874 0.0351254 0.
0.496862 0.0366569 0.
0.49984 0.0382219 0.
0.502808 0.0398351 0.
0.505767 0.0414728 0.
0.5087 0.0430697 0.
0.511613 0.0445674 0.
0.514501 0.046009 0.
0.517355 0.0474499 0.
0.520179 0.0489048 0.
0.522958 0.0503086 0.
0.525707 0.0516406 0.
0.528425 0.052862 0.
0.531113 0.0540269 0.
0.533776 0.0551158 0.
0.536428 0.0560948 0.
0.539045 0.0569836 0.
0.541625 0.0578102 0.
0.544183 0.0585458 0.
0.546686 0.0591536 0.
0.549177 0.059763 0.
0.551562 0.0602726 0.
0.553939 0.0607902 0.
0.556263 0.0611803 0.
0.558535 0.0614988 0.
0.560812 0.0618158 0.
0.562998 0.0619669 0.
0.565182 0.0621167 0.
0.56734 0.0622577 0.
0.569454 0.0623827 0.
0.571568 0.0625087 0.
0.573649 0.0625992 0.
0.575721 0.0626792 0.
0.577792 0.0627577 0.
0.579824 0.0627811 0.
0.581856 0.0628045 0.
0.583885 0.0628271 0.
0.585908 0.0628486 0.
0.587931 0.0628701 0.
0.589949 0.0628861 0.
0.591962 0.0628973 0.
0.593976 0.0629086 0.
0.595986 0.0629132 0.
0.597995 0.0629159 0.
0.600004 0.0629186 0.
0.602015 0.0629116 0.
0.604026 0.0629046 0.
0.606039 0.0628955 0.
0.608057 0.0628794 0.
0.610076 0.0628633 0.
0.612099 0.062842 0.
0.614128 0.0628148 0.
0.616158 0.0627876 0.
0.618196 0.0627575 0.
0.620238 0.0627262 0.
0.62228 0.0626945 0.
0.624373 0.062591 0.
0.626466 0.0624867 0.
0.628569 0.0623726 0.
0.630702 0.0622273 0.
0.632835 0.062083 0.
0.635028 0.0619089 0.
0.637245 0.0617273 0.
0.639469 0.0615335 0.
0.64178 0.0611408 0.
0.644085 0.0607456 0.
0.646463 0.0602968 0.
0.648884 0.0597603 0.
0.651327 0.0591743 0.
0.653843 0.0584368 0.
0.656371 0.0577115 0.
0.658954 0.0569002 0.
0.661556 0.0560237 0.
0.664205 0.0550475 0.
0.666883 0.0539885 0.
0.669587 0.0528292 0.
0.672321 0.0516293 0.
0.675087 0.0503433 0.
0.677875 0.0489693 0.
0.680678 0.0475521 0.
0.683518 0.0460971 0.
0.686394 0.0445457 0.
0.6893 0.0429329 0.
0.69223 0.0413279 0.
0.695178 0.0397457 0.
0.698148 0.0382063 0.
0.701125 0.0366857 0.
0.7041 0.0351799 0.
0.707068 0.0337455 0.
0.710003 0.0324587 0.
0.712902 0.0313323 0.
0.715724 0.030451 0.
0.718463 0.0298495 0.
0.721115 0.0295527 0.
0.4774 0.0310323 0.
0.480016 0.0313462 0.
0.482704 0.0319347 0.
0.485465 0.0327953 0.
0.488292 0.0338907 0.
0.491175 0.0351975 0.
0.494085 0.0366265 0.
0.497007 0.0381222 0.
0.499925 0.0396595 0.
0.502841 0.041246 0.
0.505746 0.0428538 0.
0.508634 0.0444316 0.
0.511508 0.0459213 0.
0.514356 0.0473539 0.
0.517171 0.0487889 0.
0.519957 0.050244 0.
0.522705 0.0516524 0.
0.525421 0.0529883 0.
0.528118 0.0542256 0.
0.530796 0.0553983 0.
0.53345 0.0565065 0.
0.536089 0.0575034 0.
0.538705 0.058433 0.
0.541285 0.0592963 0.
0.543849 0.0600736 0.
0.546355 0.060699 0.
0.548845 0.0613383 0.
0.551256 0.061895 0.
0.553656 0.0624559 0.
0.556018 0.062907 0.
0.558328 0.0632659 0.
0.560645 0.063625 0.
0.56286 0.0638066 0.
0.565067 0.0639836 0.
0.567247 0.0641504 0.
0.56937 0.0642898 0.
0.571493 0.0644303 0.
0.573588 0.0645366 0.
0.575674 0.0646322 0.
0.57776 0.0647265 0.
0.579796 0.0647524 0.
0.581831 0.0647782 0.
0.583864 0.0648036 0.
0.585891 0.0648286 0.
0.587917 0.0648536 0.
0.589938 0.0648723 0.
0.591954 0.0648855 0.
0.593971 0.0648987 0.
0.595983 0.0649041 0.
0.597994 0.064907 0.
0.600005 0.0649099 0.
0.602019 0.0649016 0.
0.604032 0.0648933 0.
0.606048 0.0648825 0.
0.608069 0.0648637 0.
0.610091 0.0648449 0.
0.612118 0.0648204 0.
0.614151 0.0647895 0.
0.616185 0.0647586 0.
0.618229 0.0647236 0.
0.620278 0.0646869 0.
0.622327 0.0646491 0.
0.624435 0.0645263 0.
0.626543 0.064403 0.
0.62866 0.0642715 0.
0.630805 0.0641138 0.
0.632947 0.0639572 0.
0.635175 0.0637425 0.
0.637427 0.0635167 0.
0.639689 0.0632771 0.
0.642033 0.0628558 0.
0.644369 0.0624328 0.
0.646781 0.0619224 0.
0.649216 0.0613369 0.
0.651674 0.0607005 0.
0.654189 0.0599447 0.
0.656724 0.0591871 0.
0.659306 0.0583431 0.
0.661903 0.057436 0.
0.664538 0.0564356 0.
0.667193 0.0553657 0.
0.669876 0.0541913 0.
0.672589 0.0529794 0.
0.675329 0.0516842 0.
0.67809 0.0503126 0.
0.68087 0.0488948 0.
0.683672 0.0474432 0.
0.686498 0.0459023 0.
0.68936 0.0443021 0.
0.692243 0.0427169 0.
0.695142 0.0411597 0.
0.698056 0.0396432 0.
0.700979 0.0381517 0.
0.703895 0.0366823 0.
0.706802 0.0352762 0.
0.709683 0.0340164 0.
0.712526 0.0329172 0.
0.715296 0.0320623 0.
0.717989 0.0314787 0.
0.720599 0.0311876 0.
0.477937 0.0326876 0.
0.480516 0.032993 0.
0.483167 0.0335766 0.
0.485884 0.0344227 0.
0.488665 0.0355032 0.
0.491491 0.0367805 0.
0.494341 0.0381774 0.
0.4972 0.0396421 0.
0.500063 0.0411533 0.
0.50292 0.0427079 0.
0.505773 0.0442864 0.
0.508617 0.0458433 0.
0.511445 0.0473155 0.
0.514246 0.048739 0.
0.51702 0.0501678 0.
0.519767 0.0516141 0.
0.522477 0.0530219 0.
0.525165 0.0543613 0.
0.527847 0.0556074 0.
0.530503 0.0567838 0.
0.533139 0.0579083 0.
0.535762 0.0589222 0.
0.538373 0.0598783 0.
0.540944 0.0607568 0.
0.543501 0.0615577 0.
0.546012 0.0622287 0.
0.548507 0.0629087 0.
0.550941 0.0635108 0.
0.553362 0.0641126 0.
0.55576 0.0646255 0.
0.558099 0.0650144 0.
0.560439 0.0653999 0.
0.562681 0.0656155 0.
0.564909 0.0658251 0.
0.567114 0.0660238 0.
0.569247 0.0661702 0.
0.571382 0.0663172 0.
0.573493 0.0664393 0.
0.575594 0.0665546 0.
0.577696 0.0666696 0.
0.579744 0.0667042 0.
0.58179 0.0667382 0.
0.583833 0.0667705 0.
0.585864 0.0667989 0.
0.587895 0.0668272 0.
0.58992 0.066849 0.
0.591941 0.066865 0.
0.593961 0.066881 0.
0.595978 0.0668873 0.
0.597993 0.0668907 0.
0.600008 0.0668941 0.
0.602026 0.0668835 0.
0.604043 0.066873 0.
0.606063 0.0668597 0.
0.60809 0.0668374 0.
0.610117 0.0668152 0.
0.61215 0.066787 0.
0.614188 0.0667523 0.
0.616226 0.0667177 0.
0.618284 0.0666726 0.
0.620347 0.0666244 0.
0.622412 0.0665735 0.
0.624535 0.0664299 0.
0.626657 0.0662867 0.
0.62879 0.06614 0.
0.630946 0.0659764 0.
0.633099 0.0658135 0.
0.635356 0.0655536 0.
0.637634 0.0652838 0.
0.63993 0.0650036 0.
0.642299 0.0645626 0.
0.644664 0.0641148 0.
0.647105 0.0635391 0.
0.649554 0.0629045 0.
0.652028 0.0622141 0.
0.654541 0.0614333 0.
0.657075 0.0606499 0.
0.659648 0.0597856 0.
0.662235 0.0588564 0.
0.664854 0.0578369 0.
0.667488 0.0567545 0.
0.670145 0.0555725 0.
0.672829 0.0543527 0.
0.675542 0.0530537 0.
0.67827 0.0516852 0.
0.681019 0.0502724 0.
0.68379 0.0488264 0.
0.686574 0.0472968 0.
0.689381 0.0457194 0.
0.692215 0.0441554 0.
0.695061 0.0426226 0.
0.697919 0.0411328 0.
0.700783 0.0396693 0.
0.703642 0.0382321 0.
0.70649 0.0368539 0.
0.709315 0.0356148 0.
0.712109 0.0345364 0.
0.714836 0.0336995 0.
0.717489 0.0331298 0.
0.720065 0.0328389 0.
0.478499 0.0343572 0.
0.481047 0.0346611 0.
0.483666 0.0352486 0.
0.486341 0.0360831 0.
0.489076 0.0371529 0.
0.491846 0.0384063 0.
0.494638 0.0397757 0.
0.497439 0.0412126 0.
0.500243 0.0426964 0.
0.503042 0.0442213 0.
0.505845 0.0457728 0.
0.508639 0.0473009 0.
0.511414 0.0487545 0.
0.514165 0.0501661 0.
0.516893 0.0515811 0.
0.519595 0.0530142 0.
0.522274 0.0544206 0.
0.524938 0.0557574 0.
0.527593 0.0570091 0.
0.530226 0.0581893 0.
0.532845 0.0593245 0.
0.535453 0.0603498 0.
0.538045 0.0613206 0.
0.540607 0.0622163 0.
0.543157 0.0630437 0.
0.545671 0.0637531 0.
0.548167 0.0644639 0.
0.550614 0.065102 0.
0.553041 0.0657218 0.
0.555455 0.0662691 0.
0.557812 0.066691 0.
0.560176 0.0671193 0.
0.562456 0.0673866 0.
0.564714 0.0676426 0.
0.566954 0.0678861 0.
0.569105 0.0680394 0.
0.571258 0.0681932 0.
0.573388 0.0683327 0.
0.575507 0.0684704 0.
0.577627 0.0686082 0.
0.579688 0.0686535 0.
0.581748 0.0686966 0.
0.583801 0.0687368 0.
0.585836 0.0687684 0.
0.587871 0.0688002 0.
0.589901 0.0688251 0.
0.591927 0.0688439 0.
0.593952 0.0688628 0.
0.595972 0.0688702 0.
0.597992 0.0688741 0.
0.600011 0.0688779 0.
0.602033 0.0688651 0.
0.604055 0.0688523 0.
0.606079 0.0688364 0.
0.608112 0.0688105 0.
0.610144 0.0687847 0.
0.612182 0.0687527 0.
0.614226 0.068714 0.
0.61627 0.0686754 0.
0.618341 0.068619 0.
0.620421 0.0685579 0.
0.622503 0.0684916 0.
0.624644 0.068325 0.
0.626784 0.0681591 0.
0.628937 0.0679957 0.
0.631113 0.0678247 0.
0.633286 0.0676546 0.
0.635576 0.0673343 0.
0.637879 0.0670082 0.
0.640208 0.0666729 0.
0.642597 0.066203 0.
0.644984 0.0657309 0.
0.647434 0.0651256 0.
0.649893 0.0644597 0.
0.652378 0.0637241 0.
0.654889 0.062923 0.
0.657419 0.0621145 0.
0.659978 0.0612332 0.
0.662552 0.0602868 0.
0.66515 0.0592548 0.
0.667763 0.058163 0.
0.670395 0.0569755 0.
0.673049 0.0557525 0.
0.675729 0.0544527 0.
0.678425 0.0530891 0.
0.681139 0.051684 0.
0.683871 0.0502494 0.
0.686618 0.0487336 0.
0.689377 0.0471806 0.
0.69215 0.0456462 0.
0.694942 0.0441363 0.
0.69774 0.0426702 0.
0.700543 0.0412355 0.
0.703348 0.0398267 0.
0.70614 0.0384733 0.
0.708909 0.0372516 0.
0.711654 0.0361878 0.
0.714342 0.0353625 0.
0.71696 0.034804 0.
0.719505 0.0345078 0.
0.479064 0.0360472 0.
0.48158 0.0363495 0.
0.484165 0.036937 0.
0.486802 0.0377654 0.
0.489492 0.0388296 0.
0.492209 0.0400618 0.
0.494948 0.0414064 0.
0.497694 0.042819 0.
0.500444 0.044278 0.
0.503191 0.0457761 0.
0.505941 0.0472965 0.
0.508678 0.0487974 0.
0.511399 0.0502323 0.
0.514098 0.0516256 0.
0.516778 0.0530242 0.
0.519443 0.0544456 0.
0.522092 0.0558446 0.
0.524726 0.0571747 0.
0.527353 0.05843 0.
0.529966 0.0596122 0.
0.532565 0.060752 0.
0.535152 0.0617859 0.
0.537727 0.0627714 0.
0.54028 0.0636839 0.
0.542818 0.0645264 0.
0.545327 0.0652653 0.
0.547814 0.0659987 0.
0.550271 0.0666664 0.
0.552708 0.0673084 0.
0.55514 0.0678931 0.
0.557522 0.0683623 0.
0.55991 0.0688332 0.
0.562228 0.0691519 0.
0.564518 0.0694544 0.
0.566795 0.0697476 0.
0.568963 0.0699064 0.
0.571132 0.0700646 0.
0.573281 0.0702191 0.
0.575416 0.0703775 0.
0.577553 0.0705364 0.
0.579628 0.0705948 0.
0.5817 0.0706492 0.
0.583764 0.0706993 0.
0.585804 0.0707342 0.
0.587845 0.0707692 0.
0.58988 0.0707973 0.
0.59191 0.070819 0.
0.593941 0.0708408 0.
0.595966 0.0708493 0.
0.59799 0.0708536 0.
0.600014 0.0708579 0.
0.602042 0.0708428 0.
0.604069 0.0708276 0.
0.606099 0.070809 0.
0.608137 0.0707794 0.
0.610175 0.0707498 0.
0.612219 0.070714 0.
0.614269 0.0706716 0.
0.616319 0.0706292 0.
0.618404 0.0705589 0.
0.620498 0.0704824 0.
0.622598 0.0703988 0.
0.624755 0.0702124 0.
0.62691 0.0700265 0.
0.629085 0.069849 0.
0.63128 0.0696718 0.
0.633474 0.0694926 0.
0.635798 0.069108 0.
0.638126 0.0687255 0.
0.640489 0.0683378 0.
0.642903 0.0678314 0.
0.645316 0.0673136 0.
0.647775 0.0666744 0.
0.650238 0.0659888 0.
0.652725 0.0652299 0.
0.655231 0.0644132 0.
0.657755 0.0635833 0.
0.660299 0.06269 0.
0.662855 0.0617292 0.
0.665433 0.0606883 0.
0.668023 0.0595892 0.
0.670627 0.0583996 0.
0.673253 0.0571745 0.
0.675899 0.0558787 0.
0.67856 0.0545207 0.
0.681239 0.0531254 0.
0.683933 0.0517057 0.
0.686637 0.0502097 0.
0.689352 0.0486791 0.
0.692071 0.0471733 0.
0.6948 0.0456929 0.
0.697541 0.0442461 0.
0.700284 0.0428356 0.
0.703034 0.0414557 0.
0.705778 0.0401233 0.
0.708498 0.0389147 0.
0.711193 0.0378646 0.
0.713843 0.0370451 0.
0.716429 0.0364968 0.
0.718947 0.0361948 0.
0.479605 0.0377452 0.
0.482092 0.0380482 0.
0.484646 0.0386387 0.
0.487248 0.0394658 0.
0.489894 0.0405234 0.
0.492565 0.0417376 0.
0.49526 0.0430648 0.
0.497955 0.0444565 0.
0.500653 0.0458926 0.
0.503349 0.0473627 0.
0.506043 0.0488565 0.
0.508726 0.0503325 0.
0.511392 0.051744 0.
0.514042 0.0531188 0.
0.51668 0.0545044 0.
0.519309 0.0559102 0.
0.521924 0.0572939 0.
0.52453 0.0586172 0.
0.527134 0.0598718 0.
0.529722 0.0610538 0.
0.532299 0.0621953 0.
0.534866 0.0632371 0.
0.537419 0.0642307 0.
0.539953 0.0651548 0.
0.542479 0.0660101 0.
0.544982 0.0667773 0.
0.547465 0.067533 0.
0.549932 0.0682322 0.
0.552379 0.0688944 0.
0.554824 0.069506 0.
0.557225 0.0700107 0.
0.559619 0.070505 0.
0.561961 0.0708656 0.
0.56427 0.0712027 0.
0.566574 0.071536 0.
0.568777 0.0717165 0.
0.570987 0.0719009 0.
0.573167 0.0720821 0.
0.575317 0.0722623 0.
0.577468 0.0724432 0.
0.579558 0.0725206 0.
0.581643 0.0725918 0.
0.583719 0.0726562 0.
0.585766 0.0726945 0.
0.587813 0.0727328 0.
0.589854 0.0727642 0.
0.59189 0.072789 0.
0.593927 0.0728138 0.
0.595958 0.0728235 0.
0.597989 0.0728283 0.
0.600019 0.0728331 0.
0.602052 0.0728155 0.
0.604086 0.0727978 0.
0.606122 0.0727761 0.
0.608167 0.0727423 0.
0.610211 0.0727086 0.
0.612263 0.0726687 0.
0.614321 0.0726225 0.
0.616379 0.0725764 0.
0.618478 0.0724856 0.
0.620584 0.0723862 0.
0.622699 0.0722785 0.
0.624871 0.0720739 0.
0.62704 0.0718699 0.
0.62925 0.0716623 0.
0.631487 0.0714551 0.
0.633722 0.0712428 0.
0.636062 0.0708258 0.
0.638401 0.0704084 0.
0.640784 0.0699815 0.
0.643211 0.0694498 0.
0.645646 0.0688923 0.
0.648112 0.0682247 0.
0.650581 0.0675127 0.
0.653068 0.0667328 0.
0.655565 0.0659049 0.
0.658083 0.0650583 0.
0.660615 0.0641567 0.
0.663152 0.0631845 0.
0.665705 0.0621385 0.
0.66827 0.0610367 0.
0.670849 0.059847 0.
0.673443 0.0586205 0.
0.676055 0.0573314 0.
0.678682 0.0559843 0.
0.681322 0.0545998 0.
0.683978 0.0531959 0.
0.686638 0.0517227 0.
0.68931 0.0502179 0.
0.69198 0.048736 0.
0.694654 0.047284 0.
0.697334 0.0458599 0.
0.700024 0.0444659 0.
0.70272 0.0431083 0.
0.705416 0.0417978 0.
0.708095 0.0405979 0.
0.710747 0.0395585 0.
0.713358 0.0387427 0.
0.715912 0.0382016 0.
0.718405 0.0378957 0.
0.480139 0.0394552 0.
0.482604 0.0397684 0.
0.485131 0.0403638 0.
0.487698 0.0411881 0.
0.490306 0.0422393 0.
0.492941 0.0434472 0.
0.49559 0.0447605 0.
0.498232 0.0461308 0.
0.500883 0.047546 0.
0.503527 0.0489943 0.
0.506168 0.0504624 0.
0.508795 0.0519098 0.
0.51141 0.0532981 0.
0.514015 0.0546568 0.
0.516608 0.0560261 0.
0.519197 0.0574076 0.
0.521777 0.0587741 0.
0.524356 0.0600874 0.
0.526928 0.0613355 0.
0.52949 0.0625146 0.
0.532042 0.0636544 0.
0.534582 0.0647003 0.
0.537113 0.0656979 0.
0.53963 0.0666327 0.
0.542143 0.067499 0.
0.54464 0.0682893 0.
0.547118 0.0690626 0.
0.549586 0.0697857 0.
0.552035 0.0704555 0.
0.554481 0.0710769 0.
0.556892 0.0716191 0.
0.559296 0.0721457 0.
0.561666 0.0725539 0.
0.564002 0.0729309 0.
0.566337 0.0733085 0.
0.568585 0.0735219 0.
0.570838 0.0737344 0.
0.573053 0.0739437 0.
0.575217 0.0741459 0.
0.577383 0.074349 0.
0.579488 0.0744456 0.
0.581585 0.0745337 0.
0.583675 0.0746131 0.
0.585728 0.0746547 0.
0.587781 0.0746963 0.
0.589828 0.074731 0.
0.59187 0.0747589 0.
0.593913 0.0747868 0.
0.595951 0.0747977 0.
0.597987 0.0748031 0.
0.600024 0.0748083 0.
0.602063 0.0747881 0.
0.604103 0.074768 0.
0.606145 0.0747432 0.
0.608196 0.0747052 0.
0.610247 0.0746672 0.
0.612307 0.0746233 0.
0.614373 0.0745733 0.
0.616439 0.0745234 0.
0.618551 0.0744112 0.
0.620671 0.0742888 0.
0.622801 0.0741572 0.
0.624987 0.0739343 0.
0.627171 0.0737122 0.
0.629422 0.0734701 0.
0.631706 0.0732254 0.
0.633993 0.072966 0.
0.63636 0.0725123 0.
0.638724 0.0720607 0.
0.641129 0.0715908 0.
0.643556 0.071031 0.
0.645994 0.0704419 0.
0.648456 0.0697631 0.
0.650923 0.0690337 0.
0.653405 0.0682382 0.
0.655893 0.0674 0.
0.6584 0.0665402 0.
0.660919 0.0656337 0.
0.663442 0.0646534 0.
0.665972 0.0636048 0.
0.668509 0.0625029 0.
0.671057 0.0613187 0.
0.67362 0.0600954 0.
0.676195 0.0588139 0.
0.678782 0.0574815 0.
0.681381 0.056115 0.
0.683995 0.0547286 0.
0.686611 0.0532787 0.
0.689235 0.0518031 0.
0.691859 0.050345 0.
0.694485 0.048915 0.
0.697112 0.0475137 0.
0.699747 0.0461382 0.
0.702394 0.0447953 0.
0.70504 0.0435037 0.
0.70768 0.0423105 0.
0.710295 0.0412747 0.
0.712872 0.040459 0.
0.715393 0.0399235 0.
0.717861 0.0396173 0.
0.480698 0.041187 0.
0.483142 0.0415136 0.
0.48564 0.0421101 0.
0.488178 0.042938 0.
0.490756 0.0439946 0.
0.49335 0.0452015 0.
0.495947 0.0464972 0.
0.498542 0.0478492 0.
0.501142 0.0492483 0.
0.503732 0.0506714 0.
0.506318 0.0521126 0.
0.508892 0.0535328 0.
0.511458 0.054899 0.
0.514012 0.0562394 0.
0.516558 0.0575856 0.
0.519106 0.0589415 0.
0.52165 0.0602875 0.
0.524192 0.0615845 0.
0.526729 0.0628204 0.
0.529259 0.063994 0.
0.53178 0.0651303 0.
0.534297 0.0661771 0.
0.536807 0.0671754 0.
0.539307 0.0681186 0.
0.541806 0.0689927 0.
0.544299 0.0698015 0.
0.546772 0.0705824 0.
0.549235 0.0713177 0.
0.551683 0.0720033 0.
0.554131 0.0726431 0.
0.556552 0.0732217 0.
0.558966 0.0737783 0.
0.56136 0.0742338 0.
0.56372 0.0746484 0.
0.566078 0.0750574 0.
0.568364 0.0753017 0.
0.570647 0.0755426 0.
0.572888 0.0757812 0.
0.575062 0.0759958 0.
0.577239 0.0762105 0.
0.579369 0.0763331 0.
0.581493 0.0764478 0.
0.583608 0.0765523 0.
0.58567 0.0765973 0.
0.587733 0.0766425 0.
0.58979 0.0766803 0.
0.591841 0.0767108 0.
0.593892 0.0767413 0.
0.595939 0.076753 0.
0.597985 0.0767586 0.
0.600031 0.076764 0.
0.60208 0.0767418 0.
0.604128 0.0767196 0.
0.60618 0.0766921 0.
0.608241 0.0766498 0.
0.610301 0.0766076 0.
0.612372 0.0765588 0.
0.61445 0.0765039 0.
0.616528 0.0764491 0.
0.618662 0.0763095 0.
0.620801 0.0761602 0.
0.622954 0.076003 0.
0.625154 0.0757685 0.
0.627349 0.0755348 0.
0.62963 0.0752568 0.
0.631948 0.0749781 0.
0.63428 0.074676 0.
0.63667 0.0741912 0.
0.639057 0.0737067 0.
0.641479 0.073193 0.
0.643908 0.0726021 0.
0.64635 0.071979 0.
0.648809 0.0712893 0.
0.651271 0.0705485 0.
0.653743 0.0697439 0.
0.656221 0.0689 0.
0.658716 0.0680307 0.
0.661218 0.0671209 0.
0.663722 0.0661357 0.
0.666231 0.0650876 0.
0.668745 0.0639865 0.
0.671262 0.0628107 0.
0.67379 0.061596 0.
0.676325 0.0603298 0.
0.678869 0.0590139 0.
0.681421 0.0576679 0.
0.683986 0.0563065 0.
0.686555 0.0548817 0.
0.689131 0.0534334 0.
0.691703 0.0520039 0.
0.694281 0.050596 0.
0.696861 0.0492102 0.
0.699442 0.0478556 0.
0.702039 0.0465269 0.
0.704637 0.0452488 0.
0.707232 0.0440628 0.
0.709812 0.0430234 0.
0.712358 0.0421979 0.
0.71485 0.041661 0.
0.717293 0.0413557 0.
0.481287 0.042941 0.
0.483708 0.0432811 0.
0.486181 0.0438811 0.
0.488693 0.0447272 0.
0.491234 0.0457923 0.
0.493781 0.046991 0.
0.49633 0.0482741 0.
0.498879 0.0496156 0.
0.501425 0.0509928 0.
0.503959 0.052391 0.
0.506492 0.0538087 0.
0.509014 0.0552027 0.
0.511524 0.0565446 0.
0.514024 0.0578617 0.
0.516522 0.0591839 0.
0.519026 0.0605127 0.
0.521527 0.0618326 0.
0.524028 0.0631086 0.
0.526529 0.0643301 0.
0.529027 0.0654964 0.
0.531519 0.0666237 0.
0.534012 0.0676678 0.
0.536504 0.0686647 0.
0.538991 0.0696148 0.
0.54148 0.0704942 0.
0.543963 0.0713141 0.
0.546427 0.0721021 0.
0.548887 0.0728523 0.
0.551335 0.0735512 0.
0.553784 0.0742037 0.
0.556213 0.0748095 0.
0.558634 0.0753842 0.
0.561044 0.0758708 0.
0.563419 0.0763015 0.
0.565794 0.076731 0.
0.568105 0.0770257 0.
0.570407 0.0773154 0.
0.572678 0.0775996 0.
0.574872 0.077827 0.
0.577071 0.0780546 0.
0.579233 0.078207 0.
0.581389 0.0783534 0.
0.583538 0.0784881 0.
0.58561 0.0785371 0.
0.587682 0.0785863 0.
0.589749 0.0786276 0.
0.591809 0.0786608 0.
0.59387 0.078694 0.
0.595927 0.0787067 0.
0.597982 0.0787125 0.
0.600038 0.0787181 0.
0.602096 0.0786937 0.
0.604155 0.0786695 0.
0.606217 0.0786389 0.
0.608287 0.078592 0.
0.610357 0.0785452 0.
0.612441 0.0784909 0.
0.614533 0.07843 0.
0.616624 0.0783695 0.
0.618787 0.0781974 0.
0.620952 0.0780168 0.
0.623137 0.0778307 0.
0.625365 0.077581 0.
0.627588 0.0773325 0.
0.629901 0.0769977 0.
0.632237 0.0766642 0.
0.634589 0.0763106 0.
0.636989 0.0758163 0.
0.63939 0.0753186 0.
0.641822 0.0747814 0.
0.644258 0.0741659 0.
0.646703 0.0735166 0.
0.64916 0.0728192 0.
0.651617 0.072068 0.
0.654079 0.0712545 0.
0.656546 0.0704063 0.
0.659027 0.0695324 0.
0.661513 0.06862 0.
0.663999 0.0676313 0.
0.666488 0.0665869 0.
0.668977 0.0654905 0.
0.671465 0.064325 0.
0.673957 0.0631222 0.
0.676451 0.0618761 0.
0.67895 0.0605823 0.
0.681455 0.0592584 0.
0.683967 0.0579227 0.
0.68648 0.05653 0.
0.689003 0.0551104 0.
0.691523 0.0537064 0.
0.694047 0.0523237 0.
0.69658 0.0509522 0.
0.699114 0.0496146 0.
0.701658 0.0483028 0.
0.704209 0.0470327 0.
0.70676 0.04585 0.
0.7093 0.0448075 0.
0.711813 0.0439689 0.
0.71428 0.0434181 0.
0.716701 0.0431103 0.
0.481884 0.0447094 0.
0.484283 0.0450647 0.
0.486731 0.0456796 0.
0.48921 0.0465485 0.
0.491707 0.0476126 0.
0.494212 0.0488076 0.
0.496718 0.0500873 0.
0.499216 0.0514122 0.
0.501708 0.052768 0.
0.50419 0.0541487 0.
0.506668 0.055541 0.
0.509134 0.0569051 0.
0.511589 0.0582219 0.
0.514036 0.0595171 0.
0.516485 0.0608144 0.
0.518945 0.0621113 0.
0.521402 0.0634023 0.
0.523863 0.0646575 0.
0.526331 0.0658636 0.
0.528798 0.0670178 0.
0.531262 0.0681332 0.
0.533735 0.069173 0.
0.536212 0.0701667 0.
0.538686 0.0711199 0.
0.541159 0.0720012 0.
0.543631 0.0728309 0.
0.54609 0.0736261 0.
0.548547 0.0743866 0.
0.550995 0.0750937 0.
0.553444 0.0757568 0.
0.555879 0.0763826 0.
0.558304 0.0769745 0.
0.560726 0.077492 0.
0.563116 0.0779488 0.
0.565508 0.0784023 0.
0.567845 0.0787416 0.
0.570167 0.0790803 0.
0.572467 0.0794165 0.
0.574682 0.0796557 0.
0.576903 0.0798942 0.
0.579096 0.0800721 0.
0.581284 0.0802499 0.
0.583463 0.0804184 0.
0.585546 0.0804712 0.
0.587629 0.0805241 0.
0.589707 0.0805688 0.
0.591777 0.0806044 0.
0.593847 0.0806401 0.
0.595914 0.0806535 0.
0.597979 0.0806592 0.
0.600045 0.0806647 0.
0.602115 0.0806386 0.
0.604184 0.0806126 0.
0.606256 0.0805793 0.
0.608336 0.0805282 0.
0.610415 0.0804773 0.
0.612512 0.0804167 0.
0.614618 0.0803492 0.
0.616724 0.0802818 0.
0.618914 0.0800774 0.
0.621104 0.0798677 0.
0.623321 0.079655 0.
0.625579 0.0793912 0.
0.627829 0.0791281 0.
0.630173 0.0787294 0.
0.632528 0.0783411 0.
0.6349 0.0779388 0.
0.637309 0.0774244 0.
0.63972 0.0769025 0.
0.642155 0.0763483 0.
0.644592 0.0757221 0.
0.647042 0.0750556 0.
0.649501 0.0743507 0.
0.651956 0.0735905 0.
0.654412 0.0727706 0.
0.656868 0.0719182 0.
0.659335 0.0710423 0.
0.661804 0.0701296 0.
0.664271 0.0691408 0.
0.66674 0.0681022 0.
0.669206 0.0670131 0.
0.671664 0.0658626 0.
0.674125 0.0646744 0.
0.676581 0.0634477 0.
0.679034 0.062179 0.
0.681489 0.0608812 0.
0.683951 0.05957 0.
0.686409 0.0582083 0.
0.688876 0.0568214 0.
0.691344 0.055443 0.
0.693812 0.0540834 0.
0.696291 0.0527298 0.
0.698778 0.0514055 0.
0.701276 0.0501082 0.
0.70378 0.0488478 0.
0.706289 0.0476624 0.
0.70879 0.0466148 0.
0.711266 0.0457693 0.
0.713704 0.0451979 0.
0.716101 0.0448801 0.
0.482471 0.0464931 0.
0.484847 0.0468674 0.
0.487263 0.0475022 0.
0.489707 0.048387 0.
0.492164 0.049455 0.
0.494631 0.0506549 0.
0.497089 0.0519239 0.
0.499537 0.0532343 0.
0.501978 0.0545783 0.
0.504406 0.0559383 0.
0.506829 0.0573014 0.
0.50924 0.0586388 0.
0.51164 0.0599323 0.
0.514038 0.061205 0.
0.516439 0.0624724 0.
0.518852 0.0637351 0.
0.52127 0.0649988 0.
0.523695 0.0662336 0.
0.526129 0.0674196 0.
0.528567 0.0685592 0.
0.531008 0.0696615 0.
0.533463 0.0706936 0.
0.535922 0.0716805 0.
0.538381 0.0726341 0.
0.540842 0.0735177 0.
0.543306 0.0743544 0.
0.54576 0.0751544 0.
0.548214 0.0759235 0.
0.550661 0.076639 0.
0.553109 0.0773109 0.
0.555547 0.0779545 0.
0.557977 0.0785622 0.
0.560408 0.0791058 0.
0.562814 0.0795853 0.
0.565215 0.0800522 0.
0.567571 0.0804257 0.
0.569908 0.0808032 0.
0.572233 0.0811836 0.
0.574485 0.0814281 0.
0.576746 0.0816734 0.
0.57897 0.0818877 0.
0.581175 0.0821149 0.
0.583375 0.0823349 0.
0.585472 0.0823923 0.
0.58757 0.0824499 0.
0.589661 0.0824986 0.
0.591741 0.0825367 0.
0.593821 0.0825749 0.
0.595899 0.0825888 0.
0.597977 0.0825942 0.
0.600054 0.0825992 0.
0.602135 0.0825715 0.
0.604216 0.0825438 0.
0.606299 0.082508 0.
0.608388 0.082453 0.
0.610476 0.0823981 0.
0.612589 0.0823268 0.
0.614714 0.0822459 0.
0.616841 0.0821617 0.
0.619064 0.0819119 0.
0.621283 0.0816599 0.
0.623532 0.081414 0.
0.625817 0.0811379 0.
0.628098 0.0808596 0.
0.630456 0.0804248 0.
0.632822 0.079997 0.
0.635211 0.0795565 0.
0.637628 0.0790267 0.
0.640048 0.0784848 0.
0.642486 0.077915 0.
0.644923 0.0772779 0.
0.647372 0.0765974 0.
0.649827 0.0758875 0.
0.65228 0.0751202 0.
0.654734 0.0742947 0.
0.657185 0.0734384 0.
0.659641 0.0725622 0.
0.662095 0.0716511 0.
0.664544 0.0706661 0.
0.666993 0.0696362 0.
0.669437 0.0685562 0.
0.671867 0.067421 0.
0.674296 0.0662526 0.
0.676716 0.0650484 0.
0.679129 0.0638021 0.
0.681536 0.0625303 0.
0.683948 0.0612481 0.
0.686355 0.0599156 0.
0.688767 0.05856 0.
0.691179 0.0572096 0.
0.693593 0.0558721 0.
0.696019 0.054536 0.
0.698455 0.0532249 0.
0.700907 0.0519372 0.
0.703366 0.0506879 0.
0.705831 0.0495028 0.
0.708297 0.0484423 0.
0.710738 0.0475887 0.
0.713144 0.0469983 0.
0.715514 0.0466672 0.
0.483062 0.048299 0.
0.485411 0.0486947 0.
0.487796 0.0493535 0.
0.490205 0.050256 0.
0.492627 0.0513345 0.
0.495052 0.0525355 0.
0.497462 0.0537962 0.
0.499862 0.0551018 0.
0.502248 0.0564293 0.
0.504618 0.0577627 0.
0.506987 0.059101 0.
0.509343 0.0604123 0.
0.51169 0.0616811 0.
0.514038 0.0629271 0.
0.516394 0.0641639 0.
0.518767 0.0653939 0.
0.521143 0.0666277 0.
0.52353 0.0678356 0.
0.525931 0.0689995 0.
0.528342 0.0701231 0.
0.530761 0.0712086 0.
0.533196 0.0722296 0.
0.535638 0.073208 0.
0.538084 0.0741597 0.
0.540535 0.0750428 0.
0.542989 0.0758828 0.
0.545436 0.0766865 0.
0.547883 0.0774625 0.
0.550327 0.078184 0.
0.552773 0.0788617 0.
0.555213 0.0795209 0.
0.557644 0.0801398 0.
0.560076 0.0806933 0.
0.562485 0.0811931 0.
0.56489 0.0816807 0.
0.567268 0.0820877 0.
0.569628 0.0825033 0.
0.571983 0.082931 0.
0.574279 0.0831929 0.
0.576584 0.0834506 0.
0.578842 0.0836993 0.
0.581065 0.0839764 0.
0.583286 0.08425 0.
0.585398 0.0843133 0.
0.58751 0.0843756 0.
0.589614 0.0844284 0.
0.591704 0.084469 0.
0.593795 0.0845097 0.
0.595884 0.0845242 0.
0.597974 0.0845292 0.
0.600063 0.0845338 0.
0.602156 0.0845044 0.
0.604249 0.084475 0.
0.606342 0.0844365 0.
0.60844 0.0843776 0.
0.610537 0.0843188 0.
0.612667 0.0842361 0.
0.61481 0.0841416 0.
0.616961 0.0840384 0.
0.619217 0.0837428 0.
0.621467 0.0834469 0.
0.623753 0.0831626 0.
0.626074 0.0828622 0.
0.628393 0.0825494 0.
0.630765 0.0820835 0.
0.633143 0.0816283 0.
0.635543 0.0811605 0.
0.63796 0.0806155 0.
0.640382 0.0800577 0.
0.64282 0.0794787 0.
0.645256 0.078833 0.
0.647701 0.0781397 0.
0.65015 0.077426 0.
0.652597 0.0766535 0.
0.655043 0.0758255 0.
0.65749 0.0749679 0.
0.659937 0.0740934 0.
0.662379 0.0731852 0.
0.664811 0.0722067 0.
0.66724 0.071189 0.
0.66966 0.0701222 0.
0.672064 0.0690043 0.
0.67446 0.0678569 0.
0.676848 0.0666795 0.
0.679222 0.0654598 0.
0.681584 0.0642133 0.
0.683945 0.0629607 0.
0.686304 0.061661 0.
0.688664 0.0603365 0.
0.69102 0.059013 0.
0.693378 0.0576973 0.
0.69575 0.0563794 0.
0.698132 0.0550838 0.
0.700534 0.0538049 0.
0.702949 0.0525601 0.
0.705372 0.051379 0.
0.707799 0.0503053 0.
0.710208 0.0494358 0.
0.712583 0.0488237 0.
0.714924 0.0484729 0.
0.483683 0.050142 0.
0.486004 0.0505594 0.
0.488359 0.0512465 0.
0.490734 0.05217 0.
0.493115 0.0532607 0.
0.495493 0.0544638 0.
0.497853 0.0557227 0.
0.500196 0.0570173 0.
0.502522 0.058322 0.
0.504836 0.0596356 0.
0.507146 0.0609465 0.
0.509445 0.0622251 0.
0.51174 0.0634684 0.
0.514039 0.0646875 0.
0.516351 0.0658921 0.
0.518678 0.0670849 0.
0.521012 0.0682831 0.
0.523363 0.0694623 0.
0.525732 0.0706019 0.
0.528117 0.0717042 0.
0.530514 0.0727708 0.
0.532931 0.0737789 0.
0.535358 0.0747472 0.
0.537789 0.0756943 0.
0.540227 0.0765756 0.
0.542671 0.0774159 0.
0.545111 0.0782222 0.
0.547553 0.0790021 0.
0.549993 0.0797281 0.
0.552435 0.0804098 0.
0.554873 0.0810776 0.
0.557302 0.0817047 0.
0.559735 0.0822698 0.
0.56215 0.0827942 0.
0.56456 0.0833031 0.
0.566957 0.0837405 0.
0.569337 0.0841935 0.
0.571715 0.0846625 0.
0.574051 0.0849449 0.
0.576383 0.0852098 0.
0.578663 0.0854839 0.
0.580897 0.0857979 0.
0.583137 0.0861085 0.
0.585283 0.0861928 0.
0.587427 0.0862702 0.
0.589558 0.0863346 0.
0.591661 0.0863763 0.
0.593765 0.086418 0.
0.595868 0.0864324 0.
0.597971 0.0864366 0.
0.600074 0.0864403 0.
0.602181 0.0864097 0.
0.604287 0.0863792 0.
0.606395 0.0863391 0.
0.608507 0.0862786 0.
0.610618 0.0862181 0.
0.612776 0.0861154 0.
0.614948 0.0859979 0.
0.617132 0.0858655 0.
0.61941 0.0855386 0.
0.621682 0.0852119 0.
0.623997 0.0848984 0.
0.626346 0.0845763 0.
0.628698 0.0842305 0.
0.631082 0.0837359 0.
0.63347 0.0832534 0.
0.63588 0.0827589 0.
0.638299 0.0821977 0.
0.640723 0.0816237 0.
0.64316 0.0810372 0.
0.645592 0.0803861 0.
0.648031 0.0796832 0.
0.650475 0.0789654 0.
0.652915 0.0781901 0.
0.655353 0.0773615 0.
0.657789 0.0765052 0.
0.660226 0.0756353 0.
0.662657 0.074732 0.
0.665074 0.0737621 0.
0.667483 0.0727583 0.
0.669879 0.0717079 0.
0.672257 0.0706094 0.
0.674625 0.069484 0.
0.676979 0.0683351 0.
0.679317 0.0671465 0.
0.681637 0.0659316 0.
0.68395 0.06471 0.
0.686254 0.0634455 0.
0.68856 0.0621551 0.
0.690863 0.0608598 0.
0.693162 0.0595691 0.
0.695476 0.05827 0.
0.697801 0.0569879 0.
0.700146 0.0557236 0.
0.70251 0.0544832 0.
0.704888 0.0533008 0.
0.707273 0.052215 0.
0.709645 0.051326 0.
0.711988 0.0506871 0.
0.714303 0.0503077 0.
0.484339 0.0520189 0.
0.48663 0.0524637 0.
0.488951 0.0531879 0.
0.491285 0.0541335 0.
0.493621 0.0552384 0.
0.495946 0.0564445 0.
0.498246 0.0576958 0.
0.500528 0.058975 0.
0.502791 0.0602614 0.
0.505045 0.0615491 0.
0.507297 0.0628256 0.
0.509539 0.0640751 0.
0.511781 0.0652919 0.
0.514031 0.0664799 0.
0.516294 0.0676483 0.
0.518575 0.0688006 0.
0.52087 0.0699632 0.
0.523186 0.0711124 0.
0.525525 0.0722207 0.
0.527885 0.0732991 0.
0.530263 0.0743454 0.
0.532664 0.075339 0.
0.535075 0.0762966 0.
0.537492 0.0772366 0.
0.539919 0.0781154 0.
0.542354 0.0789541 0.
0.544788 0.0797624 0.
0.547224 0.0805454 0.
0.54966 0.0812745 0.
0.552101 0.0819585 0.
0.554537 0.0826344 0.
0.556967 0.0832703 0.
0.559401 0.0838439 0.
0.56182 0.0843867 0.
0.564235 0.0849122 0.
0.566642 0.0853677 0.
0.569031 0.0858326 0.
0.571415 0.0863054 0.
0.57376 0.0866296 0.
0.576101 0.0869307 0.
0.57841 0.0872402 0.
0.580676 0.0875887 0.
0.582951 0.087936 0.
0.585145 0.0880527 0.
0.587331 0.0881529 0.
0.589498 0.0882347 0.
0.591615 0.0882774 0.
0.593733 0.0883201 0.
0.59585 0.0883345 0.
0.597967 0.0883378 0.
0.600085 0.0883406 0.
0.602207 0.0883085 0.
0.604328 0.0882765 0.
0.606452 0.0882345 0.
0.608581 0.0881722 0.
0.610708 0.08811 0.
0.612904 0.0879789 0.
0.615117 0.0878289 0.
0.617347 0.0876556 0.
0.619652 0.0872944 0.
0.62195 0.0869348 0.
0.62429 0.0865879 0.
0.626649 0.08624 0.
0.629012 0.0858613 0.
0.631402 0.0853596 0.
0.633797 0.0848649 0.
0.636212 0.084351 0.
0.638632 0.0837754 0.
0.641058 0.0831899 0.
0.643494 0.0825977 0.
0.645925 0.0819408 0.
0.648359 0.0812301 0.
0.650798 0.080509 0.
0.653232 0.0797322 0.
0.655663 0.0789036 0.
0.658091 0.0780487 0.
0.660517 0.0771849 0.
0.662934 0.0762887 0.
0.665337 0.0753296 0.
0.667729 0.0743402 0.
0.670104 0.0733081 0.
0.672457 0.0722303 0.
0.674797 0.0711308 0.
0.677121 0.0700132 0.
0.679423 0.0688565 0.
0.681703 0.0676764 0.
0.683968 0.0664917 0.
0.686219 0.0652642 0.
0.688467 0.064011 0.
0.690712 0.0627451 0.
0.692954 0.0614787 0.
0.695208 0.0602046 0.
0.697472 0.0589394 0.
0.699754 0.0576884 0.
0.702059 0.0564591 0.
0.704384 0.0552754 0.
0.706722 0.0541738 0.
0.709055 0.0532614 0.
0.711361 0.0525943 0.
0.713647 0.052175 0.
0.485004 0.053929 0.
0.487261 0.0544095 0.
0.489542 0.0551745 0.
0.491828 0.0561407 0.
0.494107 0.0572557 0.
0.496369 0.0584588 0.
0.498604 0.0596986 0.
0.50082 0.0609616 0.
0.50302 0.0622238 0.
0.505214 0.0634797 0.
0.507406 0.0647245 0.
0.509595 0.0659435 0.
0.511788 0.0671295 0.
0.513989 0.0682846 0.
0.516206 0.0694167 0.
0.518448 0.070533 0.
0.520709 0.0716613 0.
0.522995 0.0727764 0.
0.525309 0.0738546 0.
0.527648 0.0749084 0.
0.530008 0.0759331 0.
0.532393 0.0769095 0.
0.534793 0.0778551 0.
0.537198 0.0787865 0.
0.539617 0.079663 0.
0.542044 0.080499 0.
0.544473 0.0813082 0.
0.546903 0.0820923 0.
0.549336 0.0828239 0.
0.551774 0.0835102 0.
0.554208 0.0841923 0.
0.556638 0.0848365 0.
0.559073 0.085418 0.
0.561496 0.0859747 0.
0.563914 0.0865112 0.
0.566326 0.0869825 0.
0.568721 0.0874561 0.
0.571113 0.0879399 0.
0.573469 0.0883069 0.
0.575819 0.0886443 0.
0.578154 0.0889912 0.
0.580454 0.089374 0.
0.582763 0.0897565 0.
0.585006 0.0899065 0.
0.587235 0.090029 0.
0.589439 0.0901301 0.
0.59157 0.0901735 0.
0.593702 0.0902168 0.
0.595833 0.090231 0.
0.597965 0.0902335 0.
0.600097 0.0902354 0.
0.602232 0.090202 0.
0.604368 0.0901686 0.
0.606508 0.0901251 0.
0.608653 0.0900616 0.
0.610797 0.0899984 0.
0.613034 0.0898368 0.
0.615286 0.089654 0.
0.617562 0.0894397 0.
0.619895 0.0890449 0.
0.622221 0.0886526 0.
0.624583 0.0882716 0.
0.626954 0.0878946 0.
0.629328 0.0874816 0.
0.631724 0.0869697 0.
0.634124 0.0864644 0.
0.63654 0.0859386 0.
0.638959 0.0853527 0.
0.641387 0.0847578 0.
0.643823 0.0841601 0.
0.646252 0.0834973 0.
0.648682 0.0827804 0.
0.651116 0.0820564 0.
0.653544 0.0812804 0.
0.655968 0.0804528 0.
0.658389 0.0796003 0.
0.660805 0.0787427 0.
0.663211 0.0778545 0.
0.6656 0.0769089 0.
0.667978 0.0759348 0.
0.670337 0.0749204 0.
0.67267 0.0738641 0.
0.674985 0.0727898 0.
0.677281 0.0717036 0.
0.67955 0.0705824 0.
0.681795 0.0694368 0.
0.684021 0.0682882 0.
0.686225 0.0670984 0.
0.688417 0.0658833 0.
0.690602 0.0646502 0.
0.692786 0.0634096 0.
0.694979 0.0621604 0.
0.697181 0.0609195 0.
0.699397 0.0596858 0.
0.701635 0.0584688 0.
0.703896 0.0572891 0.
0.706178 0.056178 0.
0.708463 0.0552397 0.
0.710728 0.0545459 0.
0.71298 0.0540808 0.
0.485641 0.0558777 0.
0.487857 0.0563985 0.
0.490087 0.057197 0.
0.492314 0.0581779 0.
0.494526 0.0592985 0.
0.496717 0.0604939 0.
0.498884 0.061718 0.
0.501032 0.0629579 0.
0.503169 0.0641908 0.
0.505304 0.0654158 0.
0.507444 0.0666283 0.
0.509586 0.0678141 0.
0.511733 0.06897 0.
0.513893 0.070094 0.
0.516074 0.0711946 0.
0.518286 0.0722772 0.
0.52052 0.0733712 0.
0.522781 0.0744554 0.
0.525076 0.075504 0.
0.5274 0.0765318 0.
0.529745 0.0775348 0.
0.53212 0.0784932 0.
0.534511 0.0794258 0.
0.536909 0.0803487 0.
0.539319 0.0812223 0.
0.541739 0.082053 0.
0.544163 0.082861 0.
0.54659 0.0836448 0.
0.549021 0.0843785 0.
0.551458 0.0850673 0.
0.553893 0.0857538 0.
0.556322 0.086405 0.
0.558756 0.0869932 0.
0.561183 0.0875615 0.
0.563603 0.0881089 0.
0.56602 0.0885967 0.
0.568425 0.0890775 0.
0.570826 0.0895702 0.
0.573198 0.0899705 0.
0.57556 0.090334 0.
0.577914 0.0907002 0.
0.580238 0.0910858 0.
0.582568 0.0914653 0.
0.584854 0.0916666 0.
0.587131 0.0918519 0.
0.58938 0.0920058 0.
0.591526 0.0920499 0.
0.593673 0.092094 0.
0.595819 0.0921082 0.
0.597964 0.0921102 0.
0.60011 0.0921115 0.
0.602259 0.0920762 0.
0.604407 0.0920408 0.
0.606562 0.0919938 0.
0.608724 0.0919255 0.
0.610885 0.0918576 0.
0.61317 0.0916366 0.
0.615468 0.0913963 0.
0.617781 0.0911383 0.
0.620132 0.0907411 0.
0.622478 0.0903396 0.
0.624858 0.0899411 0.
0.627243 0.0895408 0.
0.62963 0.0891006 0.
0.632033 0.0885794 0.
0.63444 0.0880642 0.
0.636858 0.087525 0.
0.639277 0.08693 0.
0.641704 0.0863289 0.
0.644139 0.0857273 0.
0.646567 0.0850591 0.
0.648996 0.084337 0.
0.651427 0.0836103 0.
0.65385 0.0828351 0.
0.65627 0.0820099 0.
0.658684 0.0811625 0.
0.661092 0.080313 0.
0.663489 0.079432 0.
0.665869 0.0784988 0.
0.668236 0.0775407 0.
0.670581 0.0765453 0.
0.672899 0.0755105 0.
0.675196 0.0744627 0.
0.67747 0.0734058 0.
0.679712 0.072317 0.
0.681928 0.0712087 0.
0.68412 0.0700941 0.
0.686286 0.0689392 0.
0.688434 0.0677581 0.
0.690568 0.0665587 0.
0.692696 0.0653491 0.
0.694827 0.0641249 0.
0.696968 0.0629085 0.
0.699119 0.0616996 0.
0.701286 0.0605011 0.
0.703475 0.0593285 0.
0.705689 0.058214 0.
0.707914 0.0572545 0.
0.71013 0.056537 0.
0.71234 0.0560289 0.
0.486229 0.0578641 0.
0.488395 0.0584265 0.
0.490563 0.0592513 0.
0.492719 0.0602436 0.
0.494856 0.0613608 0.
0.496974 0.0625408 0.
0.499071 0.0637437 0.
0.501154 0.0649576 0.
0.503233 0.0661604 0.
0.505318 0.0673522 0.
0.507412 0.0685331 0.
0.509515 0.069689 0.
0.511629 0.070815 0.
0.513762 0.07191 0.
0.515919 0.0729843 0.
0.518111 0.0740365 0.
0.520325 0.0751004 0.
0.522568 0.0761538 0.
0.52485 0.0771715 0.
0.527161 0.0781732 0.
0.529496 0.079155 0.
0.531861 0.0800961 0.
0.534242 0.081016 0.
0.53663 0.0819264 0.
0.539033 0.0827941 0.
0.541446 0.0836184 0.
0.543867 0.0844239 0.
0.546294 0.0852078 0.
0.548723 0.0859415 0.
0.551159 0.0866302 0.
0.553592 0.0873197 0.
0.556021 0.0879768 0.
0.558457 0.0885706 0.
0.560888 0.0891489 0.
0.563313 0.089706 0.
0.565735 0.0902055 0.
0.568145 0.090695 0.
0.570549 0.0912007 0.
0.57293 0.091624 0.
0.5753 0.0920022 0.
0.577667 0.0923845 0.
0.580014 0.0927778 0.
0.582367 0.0931653 0.
0.584696 0.093419 0.
0.587024 0.0936703 0.
0.589321 0.0938814 0.
0.591482 0.0939263 0.
0.593644 0.0939712 0.
0.595804 0.0939854 0.
0.597964 0.093987 0.
0.600124 0.0939877 0.
0.602285 0.0939503 0.
0.604447 0.0939131 0.
0.606617 0.0938623 0.
0.608795 0.0937892 0.
0.610972 0.0937164 0.
0.613312 0.0934285 0.
0.615659 0.0931224 0.
0.618011 0.0928167 0.
0.620379 0.0924079 0.
0.622744 0.0919923 0.
0.625132 0.0915841 0.
0.627521 0.0911743 0.
0.629915 0.0907174 0.
0.632322 0.0901883 0.
0.634735 0.089664 0.
0.637156 0.0891136 0.
0.639577 0.0885104 0.
0.642005 0.0879042 0.
0.644438 0.0872991 0.
0.646864 0.0866267 0.
0.649291 0.0859024 0.
0.65172 0.0851749 0.
0.654141 0.0844005 0.
0.656557 0.0835775 0.
0.658967 0.082736 0.
0.661368 0.0818963 0.
0.663756 0.0810266 0.
0.666126 0.0801075 0.
0.668483 0.0791636 0.
0.670817 0.0781877 0.
0.673122 0.0771759 0.
0.675404 0.0761552 0.
0.677662 0.0751276 0.
0.679885 0.0740666 0.
0.682081 0.0729912 0.
0.68425 0.0719108 0.
0.686389 0.0707884 0.
0.688505 0.0696387 0.
0.690602 0.0684682 0.
0.692684 0.0672882 0.
0.694764 0.0660939 0.
0.696844 0.0649038 0.
0.698931 0.063719 0.
0.701031 0.0625431 0.
0.703148 0.0613878 0.
0.705285 0.0602787 0.
0.707438 0.0593038 0.
0.709593 0.0585637 0.
0.711751 0.05802 0.
0.486726 0.059888 0.
0.488832 0.0604916 0.
0.490931 0.0613319 0.
0.493014 0.0623263 0.
0.495079 0.0634322 0.
0.497126 0.0645938 0.
0.499159 0.0657741 0.
0.501191 0.0669591 0.
0.503228 0.0681312 0.
0.505272 0.0692945 0.
0.507331 0.0704481 0.
0.509406 0.0715712 0.
0.511499 0.0726675 0.
0.513619 0.0737372 0.
0.515762 0.0747882 0.
0.517939 0.0758135 0.
0.52014 0.0768464 0.
0.522371 0.07787 0.
0.524646 0.0788598 0.
0.526949 0.0798369 0.
0.529275 0.0807981 0.
0.531628 0.0817197 0.
0.533998 0.082624 0.
0.536377 0.0835211 0.
0.538774 0.0843813 0.
0.541183 0.0851992 0.
0.543601 0.086002 0.
0.546022 0.0867821 0.
0.548447 0.0875135 0.
0.550881 0.088201 0.
0.553313 0.088892 0.
0.555745 0.0895541 0.
0.558183 0.0901532 0.
0.560615 0.0907379 0.
0.56304 0.0913008 0.
0.565462 0.0918093 0.
0.567871 0.0923095 0.
0.570276 0.0928286 0.
0.572667 0.0932734 0.
0.575044 0.0936654 0.
0.577422 0.0940616 0.
0.579793 0.0944606 0.
0.582169 0.0948509 0.
0.584541 0.0951478 0.
0.586915 0.0954631 0.
0.589258 0.0957352 0.
0.591435 0.0957804 0.
0.593613 0.0958258 0.
0.595789 0.0958404 0.
0.597963 0.0958418 0.
0.600137 0.0958423 0.
0.602313 0.0958039 0.
0.604489 0.0957656 0.
0.606675 0.0957114 0.
0.60887 0.0956335 0.
0.611064 0.0955561 0.
0.613451 0.0951992 0.
0.615847 0.0948313 0.
0.618235 0.0944859 0.
0.620622 0.0940682 0.
0.623005 0.0936414 0.
0.6254 0.0932238 0.
0.627793 0.0928041 0.
0.630191 0.0923323 0.
0.632598 0.0917965 0.
0.635009 0.0912646 0.
0.637427 0.0907058 0.
0.63985 0.0900972 0.
0.642279 0.089487 0.
0.644712 0.0888777 0.
0.647138 0.0882016 0.
0.649564 0.0874767 0.
0.651989 0.0867507 0.
0.654404 0.0859808 0.
0.656816 0.0851618 0.
0.659223 0.0843256 0.
0.66162 0.083495 0.
0.664001 0.0826375 0.
0.666361 0.0817354 0.
0.668706 0.0808096 0.
0.671029 0.0798526 0.
0.673326 0.0788623 0.
0.675597 0.0778689 0.
0.677843 0.0768688 0.
0.680052 0.0758349 0.
0.682235 0.0747874 0.
0.684392 0.0737367 0.
0.686514 0.0726473 0.
0.688609 0.0715273 0.
0.69068 0.0703853 0.
0.692732 0.0692314 0.
0.694773 0.0680643 0.
0.696807 0.0669032 0.
0.69884 0.0657441 0.
0.700879 0.0645899 0.
0.702928 0.0634532 0.
0.704994 0.0623556 0.
0.707076 0.0613782 0.
0.709165 0.0606227 0.
0.711261 0.0600547 0.
0.487101 0.0619338 0.
0.489145 0.0625741 0.
0.491176 0.0634285 0.
0.49319 0.0644248 0.
0.495189 0.0655218 0.
0.497179 0.0666654 0.
0.499167 0.0678213 0.
0.501163 0.0689812 0.
0.503169 0.0701297 0.
0.505187 0.0712667 0.
0.507225 0.0723897 0.
0.509287 0.0734785 0.
0.511374 0.0745493 0.
0.513487 0.0755979 0.
0.515618 0.0766238 0.
0.517786 0.0776198 0.
0.519981 0.0786225 0.
0.522209 0.0796182 0.
0.524482 0.0805825 0.
0.526774 0.0815328 0.
0.52909 0.0824697 0.
0.531432 0.0833694 0.
0.533796 0.0842601 0.
0.536174 0.0851457 0.
0.538563 0.0859922 0.
0.540964 0.0868005 0.
0.543376 0.0876009 0.
0.545794 0.0883782 0.
0.548215 0.0891035 0.
0.55065 0.0897916 0.
0.553085 0.0904849 0.
0.555511 0.0911446 0.
0.557944 0.0917459 0.
0.560372 0.0923362 0.
0.562797 0.0929055 0.
0.565219 0.0934205 0.
0.567632 0.0939304 0.
0.570041 0.0944608 0.
0.572444 0.0949228 0.
0.574834 0.0953241 0.
0.577223 0.0957181 0.
0.579613 0.0961167 0.
0.582006 0.0965057 0.
0.584402 0.0968432 0.
0.586808 0.0972291 0.
0.589186 0.0975711 0.
0.591383 0.0976182 0.
0.59358 0.0976653 0.
0.595773 0.0976808 0.
0.597962 0.0976825 0.
0.600152 0.097683 0.
0.602343 0.0976434 0.
0.604534 0.0976039 0.
0.606738 0.0975451 0.
0.608953 0.0974603 0.
0.611168 0.097374 0.
0.61358 0.0969389 0.
0.615995 0.0965028 0.
0.618404 0.0961313 0.
0.62081 0.0957151 0.
0.623213 0.0952866 0.
0.625619 0.0948675 0.
0.628024 0.094438 0.
0.63043 0.0939546 0.
0.63284 0.093413 0.
0.635252 0.0928736 0.
0.637668 0.0923091 0.
0.640085 0.091697 0.
0.642508 0.0910847 0.
0.644937 0.0904728 0.
0.647363 0.0897982 0.
0.649793 0.0890709 0.
0.652219 0.0883442 0.
0.654628 0.0875825 0.
0.657033 0.0867695 0.
0.659432 0.08594 0.
0.661823 0.0851194 0.
0.664201 0.0842786 0.
0.666557 0.0833931 0.
0.668893 0.082483 0.
0.671205 0.0815486 0.
0.673493 0.0805838 0.
0.675757 0.0796161 0.
0.677997 0.0786421 0.
0.680198 0.0776325 0.
0.682374 0.0766127 0.
0.684525 0.0755921 0.
0.68664 0.0745344 0.
0.688727 0.0734432 0.
0.690783 0.0723288 0.
0.692815 0.0712025 0.
0.694834 0.0700597 0.
0.696837 0.068923 0.
0.69883 0.0677882 0.
0.700824 0.0666561 0.
0.702818 0.0655377 0.
0.704822 0.0644482 0.
0.706839 0.0634672 0.
0.708865 0.0626961 0.
0.710901 0.0621093 0.
CELLS 5000 10000
1 0
1 1
1 2
1 3
1 4
1 5
1 6
1 7
1 8
1 9
1 10
1 11
1 12
1 13
1 14
1 15
1 16
1 17
1 18
1 19
1 20
1 21
1 22
1 23
1 24
1 25
1 26
1 27
1 28
1 29
1 30
1 31
1 32
1 33
1 34
1 35
1 36
1 37
1 38
1 39
1 40
1 41
1 42
1 43
1 44
1 45
1 46
1 47
1 48
1 49
1 50
1 51
1 52
1 53
1 54
1 55
1 56
1 57
1 58
1 59
1 60
1 61
1 62
1 63
1 64
1 65
1 66
1 67
1 68
1 69
1 70
1 71
1 72
1 73
1 74
1 75
1 76
1 77
1 78
1 79
1 80
1 81
1 82
1 83
1 84
1 85
1 86
1 87
1 88
1 89
1 90
1 91
1 92
1 93
1 94
1 95
1 96
1 97
1 98
1 99
1 100
1 101
1 102
1 103
1 104
1 105
1 106
1 107
1 108
1 109
1 110
1 111
1 112
1 113
1 114
1 115
1 116
1 117
1 118
1 119
1 120
1 121
1 122
1 123
1 124
1 125
1 126
1 127
1 128
1 129
1 130
1 131
1 132
1 133
1 134
1 135
1 136
1 137
1 138
1 139
1 140
1 141
1 142
1 143
1 144
1 145
1 146
1 147
1 148
1 149
1 150
1 151
1 152
1 153
1 154
1 155
1 156
1 157
1 158
1 159
1 160
1 161
1 162
1 163
1 164
1 165
1 166
1 167
1 168
1 169
1 170
1 171
1 172
1 173
1 174
1 175
1 176
1 177
1 178
1 179
1 180
1 181
1 182
1 183
1 184
1 185
1 186
1 187
1 188
1 189
1 190
1 191
1 192
1 193
1 194
1 195
1 196
1 197
1 198
1 199
1 200
1 201
1 202
1 203
1 204
1 205
1 206
1 207
1 208
1 209
1 210
1 211
1 212
1 213
1 214
1 215
1 216
1 217
1 218
1 219
1 220
1 221
1 222
1 223
1 224
1 225
1 226
1 227
1 228
1 229
1 230
1 231
1 232
1 233
1 234
1 235
1 236
1 237
1 238
1 239
1 240
1 241
1 242
1 243
1 244
1 245
1 246
1 247
1 248
1 249
1 250
1 251
1 252
1 253
1 254
1 255
1 256
1 257
1 258
1 259
1 260
1 261
1 262
1 263
1 264
1 265
1 266
1 267
1 268
1 269
1 270
1 271
1 272
1 273
1 274
1 275
1 276
1 277
1 278
1 279
1 280
1 281
1 282
1 283
1 284
1 285
1 286
1 287
1 288
1 289
1 290
1 291
1 292
1 293
1 294
1 295
1 296
1 297
1 298
1 299
1 300
1 301
1 302
1 303
1 304
1 305
1 306
1 307
1 308
1 309
1 310
1 311
1 312
1 313
1 314
1 315
1 316
1 317
1 318
1 319
1 320
1 321
1 322
1 323
1 324
1 325
1 326
1 327
1 328
1 329
1 330
1 331
1 332
1 333
1 334
1 335
1 336
1 337
1 338
1 339
1 340
1 341
1 342
1 343
1 344
1 345
1 346
1 347
1 348
1 349
1 350
1 351
1 352
1 353
1 354
1 355
1 356
1 357
1 358
1 359
1 360
1 361
1 362
1 363
1 364
1 365
1 366
1 367
1 368
1 369
1 370
1 371
1 372
1 373
1 374
1 375
1 376
1 377
1 378
1 379
1 380
1 381
1 382
1 383
1 384
1 385
1 386
1 387
1 388
1 389
1 390
1 391
1 392
1 393
1 394
1 395
1 396
1 397
1 398
1 399
1 400
1 401
1 402
1 403
1 404
1 405
1 406
1 407
1 408
1 409
1 410
1 411
1 412
1 413
1 414
1 415
1 416
1 417
1 418
1 419
1 420
1 421
1 422
1 423
1 424
1 425
1 426
1 427
1 428
1 429
1 430
1 431
1 432
1 433
1 434
1 435
1 436
1 437
1 438
1 439
1 440
1 441
1 442
1 443
1 444
1 445
1 446
1 447
1 448
1 449
1 450
1 451
1 452
1 453
1 454
1 455
1 456
1 457
1 458
1 459
1 460
1 461
1 462
1 463
1 464
1 465
1 466
1 467
1 468
1 469
1 470
1 471
1 472
1 473
1 474
1 475
1 476
1 477
1 478
1 479
1 480
1 481
1 482
1 483
1 484
1 485
1 486
1 487
1 488
1 489
1 490
1 491
1 492
1 493
1 494
1 495
1 496
1 497
1 498
1 499
1 500
1 501
1 502
1 503
1 504
1 505
1 506
1 507
1 508
1 509
1 510
1 511
1 512
1 513
1 514
1 515
1 516
1 517
1 518
1 519
1 520
1 521
1 522
1 523
1 524
1 525
1 526
1 527
1 528
1 529
1 530
1 531
1 532
1 533
1 534
1 535
1 536
1 537
1 538
1 539
1 540
1 541
1 542
1 543
1 544
1 545
1 546
1 547
1 548
1 549
1 550
1 551
1 552
1 553
1 554
1 555
1 556
1 557
1 558
1 559
1 560
1 561
1 562
1 563
1 564
1 565
1 566
1 567
1 568
1 569
1 570
1 571
1 572
1 573
1 574
1 575
1 576
1 577
1 578
1 579
1 580
1 581
1 582
1 583
1 584
1 585
1 586
1 587
1 588
1 589
1 590
1 591
1 592
1 593
1 594
1 595
1 596
1 597
1 598
1 599
1 600
1 601
1 602
1 603
1 604
1 605
1 606
1 607
1 608
1 609
1 610
1 611
1 612
1 613
1 614
1 615
1 616
1 617
1 618
1 619
1 620
1 621
1 622
1 623
1 624
1 625
1 626
1 627
1 628
1 629
1 630
1 631
1 632
1 633
1 634
1 635
1 636
1 637
1 638
1 639
1 640
1 641
1 642
1 643
1 644
1 645
1 646
1 647
1 648
1 649
1 650
1 651
1 652
1 653
1 654
1 655
1 656
1 657
1 658
1 659
1 660
1 661
1 662
1 663
1 664
1 665
1 666
1 667
1 668
1 669
1 670
1 671
1 672
1 673
1 674
1 675
1 676
1 677
1 678
1 679
1 680
1 681
1 682
1 683
1 684
1 685
1 686
1 687
1 688
1 689
1 690
1 691
1 692
1 693
1 694
1 695
1 696
1 697
1 698
1 699
1 700
1 701
1 702
1 703
1 704
1 705
1 706
1 707
1 708
1 709
1 710
1 711
1 712
1 713
1 714
1 715
1 716
1 717
1 718
1 719
1 720
1 721
1 722
1 723
1 724
1 725
1 726
1 727
1 728
1 729
1 730
1 731
1 732
1 733
1 734
1 735
1 736
1 737
1 738
1 739
1 740
1 741
1 742
1 743
1 744
1 745
1 746
1 747
1 748
1 749
1 750
1 751
1 752
1 753
1 754
1 755
1 756
1 757
1 758
1 759
1 760
1 761
1 762
1 763
1 764
1 765
1 766
1 767
1 768
1 769
1 770
1 771
1 772
1 773
1 774
1 775
1 776
1 777
1 778
1 779
1 780
1 781
1 782
1 783
1 784
1 785
1 786
1 787
1 788
1 789
1 790
1 791
1 792
1 793
1 794
1 795
1 796
1 797
1 798
1 799
1 800
1 801
1 802
1 803
1 804
1 805
1 806
1 807
1 808
1 809
1 810
1 811
1 812
1 813
1 814
1 815
1 816
1 817
1 818
1 819
1 820
1 821
1 822
1 823
1 824
1 825
1 826
1 827
1 828
1 829
1 830
1 831
1 832
1 833
1 834
1 835
1 836
1 837
1 838
1 839
1 840
1 841
1 842
1 843
1 844
1 845
1 846
1 847
1 848
1 849
1 850
1 851
1 852
1 853
1 854
1 855
1 856
1 857
1 858
1 859
1 860
1 861
1 862
1 863
1 864
1 865
1 866
1 867
1 868
1 869
1 870
1 871
1 872
1 873
1 874
1 875
1 876
1 877
1 878
1 879
1 880
1 881
1 882
1 883
1 884
1 885
1 886
1 887
1 888
1 889
1 890
1 891
1 892
1 893
1 894
1 895
1 896
1 897
1 898
1 899
1 900
1 901
1 902
1 903
1 904
1 905
1 906
1 907
1 908
1 909
1 910
1 911
1 912
1 913
1 914
1 915
1 916
1 917
1 918
1 919
1 920
1 921
1 922
1 923
1 924
1 925
1 926
1 927
1 928
1 929
1 930
1 931
1 932
1 933
1 934
1 935
1 936
1 937
1 938
1 939
1 940
1 941
1 942
1 943
1 944
1 945
1 946
1 947
1 948
1 949
1 950
1 951
1 952
1 953
1 954
1 955
1 956
1 957
1 958
1 959
1 960
1 961
1 962
1 963
1 964
1 965
1 966
1 967
1 968
1 969
1 970
1 971
1 972
1 973
1 974
1 975
1 976
1 977
1 978
1 979
1 980
1 981
1 982
1 983
1 984
1 985
1 986
1 987
1 988
1 989
1 990
1 991
1 992
1 993
1 994
1 995
1 996
1 997
1 998
1 999
1 1000
1 1001
1 1002
1 1003
1 1004
1 1005
1 1006
1 1007
1 1008
1 1009
1 1010
1 1011
1 1012
1 1013
1 1014
1 1015
1 1016
1 1017
1 1018
1 1019
1 1020
1 1021
1 1022
1 1023
1 1024
1 1025
1 1026
1 1027
1 1028
1 1029
1 1030
1 1031
1 1032
1 1033
1 1034
1 1035
1 1036
1 1037
1 1038
1 1039
1 1040
1 1041
1 1042
1 1043
1 1044
1 1045
1 1046
1 1047
1 1048
1 1049
1 1050
1 1051
1 1052
1 1053
1 1054
1 1055
1 1056
1 1057
1 1058
1 1059
1 1060
1 1061
1 1062
1 1063
1 1064
1 1065
1 1066
1 1067
1 1068
1 1069
1 1070
1 1071
1 1072
1 1073
1 1074
1 1075
1 1076
1 1077
1 1078
1 1079
1 1080
1 1081
1 1082
1 1083
1 1084
1 1085
1 1086
1 1087
1 1088
1 1089
1 1090
1 1091
1 1092
1 1093
1 1094
1 1095
1 1096
1 1097
1 1098
1 1099
1 1100
1 1101
1 1102
1 1103
1 1104
1 1105
1 1106
1 1107
1 1108
1 1109
1 1110
1 1111
1 1112
1 1113
1 1114
1 1115
1 1116
1 1117
1 1118
1 1119
1 1120
1 1121
1 1122
1 1123
1 1124
1 1125
1 1126
1 1127
1 1128
1 1129
1 1130
1 1131
1 1132
1 1133
1 1134
1 1135
1 1136
1 1137
1 1138
1 1139
1 1140
1 1141
1 1142
1 1143
1 1144
1 1145
1 1146
1 1147
1 1148
1 1149
1 1150
1 1151
1 1152
1 1153
1 1154
1 1155
1 1156
1 1157
1 1158
1 1159
1 1160
1 1161
1 1162
1 1163
1 1164
1 1165
1 1166
1 1167
1 1168
1 1169
1 1170
1 1171
1 1172
1 1173
1 1174
1 1175
1 1176
1 1177
1 1178
1 1179
1 1180
1 1181
1 1182
1 1183
1 1184
1 1185
1 1186
1 1187
1 1188
1 1189
1 1190
1 1191
1 1192
1 1193
1 1194
1 1195
1 1196
1 1197
1 1198
1 1199
1 1200
1 1201
1 1202
1 1203
1 1204
1 1205
1 1206
1 1207
1 1208
1 1209
1 1210
1 1211
1 1212
1 1213
1 1214
1 1215
1 1216
1 1217
1 1218
1 1219
1 1220
1 1221
1 1222
1 1223
1 1224
1 1225
1 1226
1 1227
1 1228
1 1229
1 1230
1 1231
1 1232
1 1233
1 1234
1 1235
1 1236
1 1237
1 1238
1 1239
1 1240
1 1241
1 1242
1 1243
1 1244
1 1245
1 1246
1 1247
1 1248
1 1249
1 1250
1 1251
1 1252
1 1253
1 1254
1 1255
1 1256
1 1257
1 1258
1 1259
1 1260
1 1261
1 1262
1 1263
1 1264
1 1265
1 1266
1 1267
1 1268
1 1269
1 1270
1 1271
1 1272
1 1273
1 1274
1 1275
1 1276
1 1277
1 1278
1 1279
1 1280
1 1281
1 1282
1 1283
1 1284
1 1285
1 1286
1 1287
1 1288
1 1289
1 1290
1 1291
1 1292
1 1293
1 1294
1 1295
1 1296
1 1297
1 1298
1 1299
1 1300
1 1301
1 1302
1 1303
1 1304
1 1305
1 1306
1 1307
1 1308
1 1309
1 1310
1 1311
1 1312
1 1313
1 1314
1 1315
1 1316
1 1317
1 1318
1 1319
1 1320
1 1321
1 1322
1 1323
1 1324
1 1325
1 1326
1 1327
1 1328
1 1329
1 1330
1 1331
1 1332
1 1333
1 1334
1 1335
1 1336
1 1337
1 1338
1 1339
1 1340
1 1341
1 1342
1 1343
1 1344
1 1345
1 1346
1 1347
1 1348
1 1349
1 1350
1 1351
1 1352
1 1353
1 1354
1 1355
1 1356
1 1357
1 1358
1 1359
1 1360
1 1361
1 1362
1 1363
1 1364
1 1365
1 1366
1 1367
1 1368
1 1369
1 1370
1 1371
1 1372
1 1373
1 1374
1 1375
1 1376
1 1377
1 1378
1 1379
1 1380
1 1381
1 1382
1 1383
1 1384
1 1385
1 1386
1 1387
1 1388
1 1389
1 1390
1 1391
1 1392
1 1393
1 1394
1 1395
1 1396
1 1397
1 1398
1 1399
1 1400
1 1401
1 1402
1 1403
1 1404
1 1405
1 1406
1 1407
1 1408
1 1409
1 1410
1 1411
1 1412
1 1413
1 1414
1 1415
1 1416
1 1417
1 1418
1 1419
1 1420
1 1421
1 1422
1 1423
1 1424
1 1425
1 1426
1 1427
1 1428
1 1429
1 1430
1 1431
1 1432
1 1433
1 1434
1 1435
1 1436
1 1437
1 1438
1 1439
1 1440
1 1441
1 1442
1 1443
1 1444
1 1445
1 1446
1 1447
1 1448
1 1449
1 1450
1 1451
1 1452
1 1453
1 1454
1 1455
1 1456
1 1457
1 1458
1 1459
1 1460
1 1461
1 1462
1 1463
1 1464
1 1465
1 1466
1 1467
1 1468
1 1469
1 1470
1 1471
1 1472
1 1473
1 1474
1 1475
1 1476
1 1477
1 1478
1 1479
1 1480
1 1481
1 1482
1 1483
1 1484
1 1485
1 1486
1 1487
1 1488
1 1489
1 1490
1 1491
1 1492
1 1493
1 1494
1 1495
1 1496
1 1497
1 1498
1 1499
1 1500
1 1501
1 1502
1 1503
1 1504
1 1505
1 1506
1 1507
1 1508
1 1509
1 1510
1 1511
1 1512
1 1513
1 1514
1 1515
1 1516
1 1517
1 1518
1 1519
1 1520
1 1521
1 1522
1 1523
1 1524
1 1525
1 1526
1 1527
1 1528
1 1529
1 1530
1 1531
1 1532
1 1533
1 1534
1 1535
1 1536
1 1537
1 1538
1 1539
1 1540
1 1541
1 1542
1 1543
1 1544
1 1545
1 1546
1 1547
1 1548
1 1549
1 1550
1 1551
1 1552
1 1553
1 1554
1 1555
1 1556
1 1557
1 1558
1 1559
1 1560
1 1561
1 1562
1 1563
1 1564
1 1565
1 1566
1 1567
1 1568
1 1569
1 1570
1 1571
1 1572
1 1573
1 1574
1 1575
1 1576
1 1577
1 1578
1 1579
1 1580
1 1581
1 1582
1 1583
1 1584
1 1585
1 1586
1 1587
1 1588
1 1589
1 1590
1 1591
1 1592
1 1593
1 1594
1 1595
1 1596
1 1597
1 1598
1 1599
1 1600
1 1601
1 1602
1 1603
1 1604
1 1605
1 1606
1 1607
1 1608
1 1609
1 1610
1 1611
1 1612
1 1613
1 1614
1 1615
1 1616
1 1617
1 1618
1 1619
1 1620
1 1621
1 1622
1 1623
1 1624
1 1625
1 1626
1 1627
1 1628
1 1629
1 1630
1 1631
1 1632
1 1633
1 1634
1 1635
1 1636
1 1637
1 1638
1 1639
1 1640
1 1641
1 1642
1 1643
1 1644
1 1645
1 1646
1 1647
1 1648
1 1649
1 1650
1 1651
1 1652
1 1653
1 1654
1 1655
1 1656
1 1657
1 1658
1 1659
1 1660
1 1661
1 1662
1 1663
1 1664
1 1665
1 1666
1 1667
1 1668
1 1669
1 1670
1 1671
1 1672
1 1673
1 1674
1 1675
1 1676
1 1677
1 1678
1 1679
1 1680
1 1681
1 1682
1 1683
1 1684
1 1685
1 1686
1 1687
1 1688
1 1689
1 1690
1 1691
1 1692
1 1693
1 1694
1 1695
1 1696
1 1697
1 1698
1 1699
1 1700
1 1701
1 1702
1 1703
1 1704
1 1705
1 1706
1 1707
1 1708
1 1709
1 1710
1 1711
1 1712
1 1713
1 1714
1 1715
1 1716
1 1717
1 1718
1 1719
1 1720
1 1721
1 1722
1 1723
1 1724
1 1725
1 1726
1 1727
1 1728
1 1729
1 1730
1 1731
1 1732
1 1733
1 1734
1 1735
1 1736
1 1737
1 1738
1 1739
1 1740
1 1741
1 1742
1 1743
1 1744
1 1745
1 1746
1 1747
1 1748
1 1749
1 1750
1 1751
1 1752
1 1753
1 1754
1 1755
1 1756
1 1757
1 1758
1 1759
1 1760
1 1761
1 1762
1 1763
1 1764
1 1765
1 1766
1 1767
1 1768
1 1769
1 1770
1 1771
1 1772
1 1773
1 1774
1 1775
1 1776
1 1777
1 1778
1 1779
1 1780
1 1781
1 1782
1 1783
1 1784
1 1785
1 1786
1 1787
1 1788
1 1789
1 1790
1 1791
1 1792
1 1793
1 1794
1 1795
1 1796
1 1797
1 1798
1 1799
1 1800
1 1801
1 1802
1 1803
1 1804
1 1805
1 1806
1 1807
1 1808
1 1809
1 1810
1 1811
1 1812
1 1813
1 1814
1 1815
1 1816
1 1817
1 1818
1 1819
1 1820
1 1821
1 1822
1 1823
1 1824
1 1825
1 1826
1 1827
1 1828
1 1829
1 1830
1 1831
1 1832
1 1833
1 1834
1 1835
1 1836
1 1837
1 1838
1 1839
1 1840
1 1841
1 1842
1 1843
1 1844
1 1845
1 1846
1 1847
1 1848
1 1849
1 1850
1 1851
1 1852
1 1853
1 1854
1 1855
1 1856
1 1857
1 1858
1 1859
1 1860
1 1861
1 1862
1 1863
1 1864
1 1865
1 1866
1 1867
1 1868
1 1869
1 1870
1 1871
1 1872
1 1873
1 1874
1 1875
1 1876
1 1877
1 1878
1 1879
1 1880
1 1881
1 1882
1 1883
1 1884
1 1885
1 1886
1 1887
1 1888
1 1889
1 1890
1 1891
1 1892
1 1893
1 1894
1 1895
1 1896
1 1897
1 1898
1 1899
1 1900
1 1901
1 1902
1 1903
1 1904
1 1905
1 1906
1 1907
1 1908
1 1909
1 1910
1 1911
1 1912
1 1913
1 1914
1 1915
1 1916
1 1917
1 1918
1 1919
1 1920
1 1921
1 1922
1 1923
1 1924
1 1925
1 1926
1 1927
1 1928
1 1929
1 1930
1 1931
1 1932
1 1933
1 1934
1 1935
1 1936
1 1937
1 1938
1 1939
1 1940
1 1941
1 1942
1 1943
1 1944
1 1945
1 1946
1 1947
1 1948
1 1949
1 1950
1 1951
1 1952
1 1953
1 1954
1 1955
1 1956
1 1957
1 1958
1 1959
1 1960
1 1961
1 1962
1 1963
1 1964
1 1965
1 1966
1 1967
1 1968
1 1969
1 1970
1 1971
1 1972
1 1973
1 1974
1 1975
1 1976
1 1977
1 1978
1 1979
1 1980
1 1981
1 1982
1 1983
1 1984
1 1985
1 1986
1 1987
1 1988
1 1989
1 1990
1 1991
1 1992
1 1993
1 1994
1 1995
1 1996
1 1997
1 1998
1 1999
1 2000
1 2001
1 2002
1 2003
1 2004
1 2005
1 2006
1 2007
1 2008
1 2009
1 2010
1 2011
1 2012
1 2013
1 2014
1 2015
1 2016
1 2017
1 2018
1 2019
1 2020
1 2021
1 2022
1 2023
1 2024
1 2025
1 2026
1 2027
1 2028
1 2029
1 2030
1 2031
1 2032
1 2033
1 2034
1 2035
1 2036
1 2037
1 2038
1 2039
1 2040
1 2041
1 2042
1 2043
1 2044
1 2045
1 2046
1 2047
1 2048
1 2049
1 2050
1 2051
1 2052
1 2053
1 2054
1 2055
1 2056
1 2057
1 2058
1 2059
1 2060
1 2061
1 2062
1 2063
1 2064
1 2065
1 2066
1 2067
1 2068
1 2069
1 2070
1 2071
1 2072
1 2073
1 2074
1 2075
1 2076
1 2077
1 2078
1 2079
1 2080
1 2081
1 2082
1 2083
1 2084
1 2085
1 2086
1 2087
1 2088
1 2089
1 2090
1 2091
1 2092
1 2093
1 2094
1 2095
1 2096
1 2097
1 2098
1 2099
1 2100
1 2101
1 2102
1 2103
1 2104
1 2105
1 2106
1 2107
1 2108
1 2109
1 2110
1 2111
1 2112
1 2113
1 2114
1 2115
1 2116
1 2117
1 2118
1 2119
1 2120
1 2121
1 2122
1 2123
1 2124
1 2125
1 2126
1 2127
1 2128
1 2129
1 2130
1 2131
1 2132
1 2133
1 2134
1 2135
1 2136
1 2137
1 2138
1 2139
1 2140
1 2141
1 2142
1 2143
1 2144
1 2145
1 2146
1 2147
1 2148
1 2149
1 2150
1 2151
1 2152
1 2153
1 2154
1 2155
1 2156
1 2157
1 2158
1 2159
1 2160
1 2161
1 2162
1 2163
1 2164
1 2165
1 2166
1 2167
1 2168
1 2169
1 2170
1 2171
1 2172
1 2173
1 2174
1 2175
1 2176
1 2177
1 2178
1 2179
1 2180
1 2181
1 2182
1 2183
1 2184
1 2185
1 2186
1 2187
1 2188
1 2189
1 2190
1 2191
1 2192
1 2193
1 2194
1 2195
1 2196
1 2197
1 2198
1 2199
1 2200
1 2201
1 2202
1 2203
1 2204
1 2205
1 2206
1 2207
1 2208
1 2209
1 2210
1 2211
1 2212
1 2213
1 2214
1 2215
1 2216
1 2217
1 2218
1 2219
1 2220
1 2221
1 2222
1 2223
1 2224
1 2225
1 2226
1 2227
1 2228
1 2229
1 2230
1 2231
1 2232
1 2233
1 2234
1 2235
1 2236
1 2237
1 2238
1 2239
1 2240
1 2241
1 2242
1 2243
1 2244
1 2245
1 2246
1 2247
1 2248
1 2249
1 2250
1 2251
1 2252
1 2253
1 2254
1 2255
1 2256
1 2257
1 2258
1 2259
1 2260
1 2261
1 2262
1 2263
1 2264
1 2265
1 2266
1 2267
1 2268
1 2269
1 2270
1 2271
1 2272
1 2273
1 2274
1 2275
1 2276
1 2277
1 2278
1 2279
1 2280
1 2281
1 2282
1 2283
1 2284
1 2285
1 2286
1 2287
1 2288
1 2289
1 2290
1 2291
1 2292
1 2293
1 2294
1 2295
1 2296
1 2297
1 2298
1 2299
1 2300
1 2301
1 2302
1 2303
1 2304
1 2305
1 2306
1 2307
1 2308
1 2309
1 2310
1 2311
1 2312
1 2313
1 2314
1 2315
1 2316
1 2317
1 2318
1 2319
1 2320
1 2321
1 2322
1 2323
1 2324
1 2325
1 2326
1 2327
1 2328
1 2329
1 2330
1 2331
1 2332
1 2333
1 2334
1 2335
1 2336
1 2337
1 2338
1 2339
1 2340
1 2341
1 2342
1 2343
1 2344
1 2345
1 2346
1 2347
1 2348
1 2349
1 2350
1 2351
1 2352
1 2353
1 2354
1 2355
1 2356
1 2357
1 2358
1 2359
1 2360
1 2361
1 2362
1 2363
1 2364
1 2365
1 2366
1 2367
1 2368
1 2369
1 2370
1 2371
1 2372
1 2373
1 2374
1 2375
1 2376
1 2377
1 2378
1 2379
1 2380
1 2381
1 2382
1 2383
1 2384
1 2385
1 2386
1 2387
1 2388
1 2389
1 2390
1 2391
1 2392
1 2393
1 2394
1 2395
1 2396
1 2397
1 2398
1 2399
1 2400
1 2401
1 2402
1 2403
1 2404
1 2405
1 2406
1 2407
1 2408
1 2409
1 2410
1 2411
1 2412
1 2413
1 2414
1 2415
1 2416
1 2417
1 2418
1 2419
1 2420
1 2421
1 2422
1 2423
1 2424
1 2425
1 2426
1 2427
1 2428
1 2429
1 2430
1 2431
1 2432
1 2433
1 2434
1 2435
1 2436
1 2437
1 2438
1 2439
1 2440
1 2441
1 2442
1 2443
1 2444
1 2445
1 2446
1 2447
1 2448
1 2449
1 2450
1 2451
1 2452
1 2453
1 2454
1 2455
1 2456
1 2457
1 2458
1 2459
1 2460
1 2461
1 2462
1 2463
1 2464
1 2465
1 2466
1 2467
1 2468
1 2469
1 2470
1 2471
1 2472
1 2473
1 2474
1 2475
1 2476
1 2477
1 2478
1 2479
1 2480
1 2481
1 2482
1 2483
1 2484
1 2485
1 2486
1 2487
1 2488
1 2489
1 2490
1 2491
1 2492
1 2493
1 2494
1 2495
1 2496
1 2497
1 2498
1 2499
1 2500
1 2501
1 2502
1 2503
1 2504
1 2505
1 2506
1 2507
1 2508
1 2509
1 2510
1 2511
1 2512
1 2513
1 2514
1 2515
1 2516
1 2517
1 2518
1 2519
1 2520
1 2521
1 2522
1 2523
1 2524
1 2525
1 2526
1 2527
1 2528
1 2529
1 2530
1 2531
1 2532
1 2533
1 2534
1 2535
1 2536
1 2537
1 2538
1 2539
1 2540
1 2541
1 2542
1 2543
1 2544
1 2545
1 2546
1 2547
1 2548
1 2549
1 2550
1 2551
1 2552
1 2553
1 2554
1 2555
1 2556
1 2557
1 2558
1 2559
1 2560
1 2561
1 2562
1 2563
1 2564
1 2565
1 2566
1 2567
1 2568
1 2569
1 2570
1 2571
1 2572
1 2573
1 2574
1 2575
1 2576
1 2577
1 2578
1 2579
1 2580
1 2581
1 2582
1 2583
1 2584
1 2585
1 2586
1 2587
1 2588
1 2589
1 2590
1 2591
1 2592
1 2593
1 2594
1 2595
1 2596
1 2597
1 2598
1 2599
1 2600
1 2601
1 2602
1 2603
1 2604
1 2605
1 2606
1 2607
1 2608
1 2609
1 2610
1 2611
1 2612
1 2613
1 2614
1 2615
1 2616
1 2617
1 2618
1 2619
1 2620
1 2621
1 2622
1 2623
1 2624
1 2625
1 2626
1 2627
1 2628
1 2629
1 2630
1 2631
1 2632
1 2633
1 2634
1 2635
1 2636
1 2637
1 2638
1 2639
1 2640
1 2641
1 2642
1 2643
1 2644
1 2645
1 2646
1 2647
1 2648
1 2649
1 2650
1 2651
1 2652
1 2653
1 2654
1 2655
1 2656
1 2657
1 2658
1 2659
1 2660
1 2661
1 2662
1 2663
1 2664
1 2665
1 2666
1 2667
1 2668
1 2669
1 2670
1 2671
1 2672
1 2673
1 2674
1 2675
1 2676
1 2677
1 2678
1 2679
1 2680
1 2681
1 2682
1 2683
1 2684
1 2685
1 2686
1 2687
1 2688
1 2689
1 2690
1 2691
1 2692
1 2693
1 2694
1 2695
1 2696
1 2697
1 2698
1 2699
1 2700
1 2701
1 2702
1 2703
1 2704
1 2705
1 2706
1 2707
1 2708
1 2709
1 2710
1 2711
1 2712
1 2713
1 2714
1 2715
1 2716
1 2717
1 2718
1 2719
1 2720
1 2721
1 2722
1 2723
1 2724
1 2725
1 2726
1 2727
1 2728
1 2729
1 2730
1 2731
1 2732
1 2733
1 2734
1 2735
1 2736
1 2737
1 2738
1 2739
1 2740
1 2741
1 2742
1 2743
1 2744
1 2745
1 2746
1 2747
1 2748
1 2749
1 2750
1 2751
1 2752
1 2753
1 2754
1 2755
1 2756
1 2757
1 2758
1 2759
1 2760
1 2761
1 2762
1 2763
1 2764
1 2765
1 2766
1 2767
1 2768
1 2769
1 2770
1 2771
1 2772
1 2773
1 2774
1 2775
1 2776
1 2777
1 2778
1 2779
1 2780
1 2781
1 2782
1 2783
1 2784
1 2785
1 2786
1 2787
1 2788
1 2789
1 2790
1 2791
1 2792
1 2793
1 2794
1 2795
1 2796
1 2797
1 2798
1 2799
1 2800
1 2801
1 2802
1 2803
1 2804
1 2805
1 2806
1 2807
1 2808
1 2809
1 2810
1 2811
1 2812
1 2813
1 2814
1 2815
1 2816
1 2817
1 2818
1 2819
1 2820
1 2821
1 2822
1 2823
1 2824
1 2825
1 2826
1 2827
1 2828
1 2829
1 2830
1 2831
1 2832
1 2833
1 2834
1 2835
1 2836
1 2837
1 2838
1 2839
1 2840
1 2841
1 2842
1 2843
1 2844
1 2845
1 2846
1 2847
1 2848
1 2849
1 2850
1 2851
1 2852
1 2853
1 2854
1 2855
1 2856
1 2857
1 2858
1 2859
1 2860
1 2861
1 2862
1 2863
1 2864
1 2865
1 2866
1 2867
1 2868
1 2869
1 2870
1 2871
1 2872
1 2873
1 2874
1 2875
1 2876
1 2877
1 2878
1 2879
1 2880
1 2881
1 2882
1 2883
1 2884
1 2885
1 2886
1 2887
1 2888
1 2889
1 2890
1 2891
1 2892
1 2893
1 2894
1 2895
1 2896
1 2897
1 2898
1 2899
1 2900
1 2901
1 2902
1 2903
1 2904
1 2905
1 2906
1 2907
1 2908
1 2909
1 2910
1 2911
1 2912
1 2913
1 2914
1 2915
1 2916
1 2917
1 2918
1 2919
1 2920
1 2921
1 2922
1 2923
1 2924
1 2925
1 2926
1 2927
1 2928
1 2929
1 2930
1 2931
1 2932
1 2933
1 2934
1 2935
1 2936
1 2937
1 2938
1 2939
1 2940
1 2941
1 2942
1 2943
1 2944
1 2945
1 2946
1 2947
1 2948
1 2949
1 2950
1 2951
1 2952
1 2953
1 2954
1 2955
1 2956
1 2957
1 2958
1 2959
1 2960
1 2961
1 2962
1 2963
1 2964
1 2965
1 2966
1 2967
1 2968
1 2969
1 2970
1 2971
1 2972
1 2973
1 2974
1 2975
1 2976
1 2977
1 2978
1 2979
1 2980
1 2981
1 2982
1 2983
1 2984
1 2985
1 2986
1 2987
1 2988
1 2989
1 2990
1 2991
1 2992
1 2993
1 2994
1 2995
1 2996
1 2997
1 2998
1 2999
1 3000
1 3001
1 3002
1 3003
1 3004
1 3005
1 3006
1 3007
1 3008
1 3009
1 3010
1 3011
1 3012
1 3013
1 3014
1 3015
1 3016
1 3017
1 3018
1 3019
1 3020
1 3021
1 3022
1 3023
1 3024
1 3025
1 3026
1 3027
1 3028
1 3029
1 3030
1 3031
1 3032
1 3033
1 3034
1 3035
1 3036
1 3037
1 3038
1 3039
1 3040
1 3041
1 3042
1 3043
1 3044
1 3045
1 3046
1 3047
1 3048
1 3049
1 3050
1 3051
1 3052
1 3053
1 3054
1 3055
1 3056
1 3057
1 3058
1 3059
1 3060
1 3061
1 3062
1 3063
1 3064
1 3065
1 3066
1 3067
1 3068
1 3069
1 3070
1 3071
1 3072
1 3073
1 3074
1 3075
1 3076
1 3077
1 3078
1 3079
1 3080
1 3081
1 3082
1 3083
1 3084
1 3085
1 3086
1 3087
1 3088
1 3089
1 3090
1 3091
1 3092
1 3093
1 3094
1 3095
1 3096
1 3097
1 3098
1 3099
1 3100
1 3101
1 3102
1 3103
1 3104
1 3105
1 3106
1 3107
1 3108
1 3109
1 3110
1 3111
1 3112
1 3113
1 3114
1 3115
1 3116
1 3117
1 3118
1 3119
1 3120
1 3121
1 3122
1 3123
1 3124
1 3125
1 3126
1 3127
1 3128
1 3129
1 3130
1 3131
1 3132
1 3133
1 3134
1 3135
1 3136
1 3137
1 3138
1 3139
1 3140
1 3141
1 3142
1 3143
1 3144
1 3145
1 3146
1 3147
1 3148
1 3149
1 3150
1 3151
1 3152
1 3153
1 3154
1 3155
1 3156
1 3157
1 3158
1 3159
1 3160
1 3161
1 3162
1 3163
1 3164
1 3165
1 3166
1 3167
1 3168
1 3169
1 3170
1 3171
1 3172
1 3173
1 3174
1 3175
1 3176
1 3177
1 3178
1 3179
1 3180
1 3181
1 3182
1 3183
1 3184
1 3185
1 3186
1 3187
1 3188
1 3189
1 3190
1 3191
1 3192
1 3193
1 3194
1 3195
1 3196
1 3197
1 3198
1 3199
1 3200
1 3201
1 3202
1 3203
1 3204
1 3205
1 3206
1 3207
1 3208
1 3209
1 3210
1 3211
1 3212
1 3213
1 3214
1 3215
1 3216
1 3217
1 3218
1 3219
1 3220
1 3221
1 3222
1 3223
1 3224
1 3225
1 3226
1 3227
1 3228
1 3229
1 3230
1 3231
1 3232
1 3233
1 3234
1 3235
1 3236
1 3237
1 3238
1 3239
1 3240
1 3241
1 3242
1 3243
1 3244
1 3245
1 3246
1 3247
1 3248
1 3249
1 3250
1 3251
1 3252
1 3253
1 3254
1 3255
1 3256
1 3257
1 3258
1 3259
1 3260
1 3261
1 3262
1 3263
1 3264
1 3265
1 3266
1 3267
1 3268
1 3269
1 3270
1 3271
1 3272
1 3273
1 3274
1 3275
1 3276
1 3277
1 3278
1 3279
1 3280
1 3281
1 3282
1 3283
1 3284
1 3285
1 3286
1 3287
1 3288
1 3289
1 3290
1 3291
1 3292
1 3293
1 3294
1 3295
1 3296
1 3297
1 3298
1 3299
1 3300
1 3301
1 3302
1 3303
1 3304
1 3305
1 3306
1 3307
1 3308
1 3309
1 3310
1 3311
1 3312
1 3313
1 3314
1 3315
1 3316
1 3317
1 3318
1 3319
1 3320
1 3321
1 3322
1 3323
1 3324
1 3325
1 3326
1 3327
1 3328
1 3329
1 3330
1 3331
1 3332
1 3333
1 3334
1 3335
1 3336
1 3337
1 3338
1 3339
1 3340
1 3341
1 3342
1 3343
1 3344
1 3345
1 3346
1 3347
1 3348
1 3349
1 3350
1 3351
1 3352
1 3353
1 3354
1 3355
1 3356
1 3357
1 3358
1 3359
1 3360
1 3361
1 3362
1 3363
1 3364
1 3365
1 3366
1 3367
1 3368
1 3369
1 3370
1 3371
1 3372
1 3373
1 3374
1 3375
1 3376
1 3377
1 3378
1 3379
1 3380
1 3381
1 3382
1 3383
1 3384
1 3385
1 3386
1 3387
1 3388
1 3389
1 3390
1 3391
1 3392
1 3393
1 3394
1 3395
1 3396
1 3397
1 3398
1 3399
1 3400
1 3401
1 3402
1 3403
1 3404
1 3405
1 3406
1 3407
1 3408
1 3409
1 3410
1 3411
1 3412
1 3413
1 3414
1 3415
1 3416
1 3417
1 3418
1 3419
1 3420
1 3421
1 3422
1 3423
1 3424
1 3425
1 3426
1 3427
1 3428
1 3429
1 3430
1 3431
1 3432
1 3433
1 3434
1 3435
1 3436
1 3437
1 3438
1 3439
1 3440
1 3441
1 3442
1 3443
1 3444
1 3445
1 3446
1 3447
1 3448
1 3449
1 3450
1 3451
1 3452
1 3453
1 3454
1 3455
1 3456
1 3457
1 3458
1 3459
1 3460
1 3461
1 3462
1 3463
1 3464
1 3465
1 3466
1 3467
1 3468
1 3469
1 3470
1 3471
1 3472
1 3473
1 3474
1 3475
1 3476
1 3477
1 3478
1 3479
1 3480
1 3481
1 3482
1 3483
1 3484
1 3485
1 3486
1 3487
1 3488
1 3489
1 3490
1 3491
1 3492
1 3493
1 3494
1 3495
1 3496
1 3497
1 3498
1 3499
1 3500
1 3501
1 3502
1 3503
1 3504
1 3505
1 3506
1 3507
1 3508
1 3509
1 3510
1 3511
1 3512
1 3513
1 3514
1 3515
1 3516
1 3517
1 3518
1 3519
1 3520
1 3521
1 3522
1 3523
1 3524
1 3525
1 3526
1 3527
1 3528
1 3529
1 3530
1 3531
1 3532
1 3533
1 3534
1 3535
1 3536
1 3537
1 3538
1 3539
1 3540
1 3541
1 3542
1 3543
1 3544
1 3545
1 3546
1 3547
1 3548
1 3549
1 3550
1 3551
1 3552
1 3553
1 3554
1 3555
1 3556
1 3557
1 3558
1 3559
1 3560
1 3561
1 3562
1 3563
1 3564
1 3565
1 3566
1 3567
1 3568
1 3569
1 3570
1 3571
1 3572
1 3573
1 3574
1 3575
1 3576
1 3577
1 3578
1 3579
1 3580
1 3581
1 3582
1 3583
1 3584
1 3585
1 3586
1 3587
1 3588
1 3589
1 3590
1 3591
1 3592
1 3593
1 3594
1 3595
1 3596
1 3597
1 3598
1 3599
1 3600
1 3601
1 3602
1 3603
1 3604
1 3605
1 3606
1 3607
1 3608
1 3609
1 3610
1 3611
1 3612
1 3613
1 3614
1 3615
1 3616
1 3617
1 3618
1 3619
1 3620
1 3621
1 3622
1 3623
1 3624
1 3625
1 3626
1 3627
1 3628
1 3629
1 3630
1 3631
1 3632
1 3633
1 3634
1 3635
1 3636
1 3637
1 3638
1 3639
1 3640
1 3641
1 3642
1 3643
1 3644
1 3645
1 3646
1 3647
1 3648
1 3649
1 3650
1 3651
1 3652
1 3653
1 3654
1 3655
1 3656
1 3657
1 3658
1 3659
1 3660
1 3661
1 3662
1 3663
1 3664
1 3665
1 3666
1 3667
1 3668
1 3669
1 3670
1 3671
1 3672
1 3673
1 3674
1 3675
1 3676
1 3677
1 3678
1 3679
1 3680
1 3681
1 3682
1 3683
1 3684
1 3685
1 3686
1 3687
1 3688
1 3689
1 3690
1 3691
1 3692
1 3693
1 3694
1 3695
1 3696
1 3697
1 3698
1 3699
1 3700
1 3701
1 3702
1 3703
1 3704
1 3705
1 3706
1 3707
1 3708
1 3709
1 3710
1 3711
1 3712
1 3713
1 3714
1 3715
1 3716
1 3717
1 3718
1 3719
1 3720
1 3721
1 3722
1 3723
1 3724
1 3725
1 3726
1 3727
1 3728
1 3729
1 3730
1 3731
1 3732
1 3733
1 3734
1 3735
1 3736
1 3737
1 3738
1 3739
1 3740
1 3741
1 3742
1 3743
1 3744
1 3745
1 3746
1 3747
1 3748
1 3749
1 3750
1 3751
1 3752
1 3753
1 3754
1 3755
1 3756
1 3757
1 3758
1 3759
1 3760
1 3761
1 3762
1 3763
1 3764
1 3765
1 3766
1 3767
1 3768
1 3769
1 3770
1 3771
1 3772
1 3773
1 3774
1 3775
1 3776
1 3777
1 3778
1 3779
1 3780
1 3781
1 3782
1 3783
1 3784
1 3785
1 3786
1 3787
1 3788
1 3789
1 3790
1 3791
1 3792
1 3793
1 3794
1 3795
1 3796
1 3797
1 3798
1 3799
1 3800
1 3801
1 3802
1 3803
1 3804
1 3805
1 3806
1 3807
1 3808
1 3809
1 3810
1 3811
1 3812
1 3813
1 3814
1 3815
1 3816
1 3817
1 3818
1 3819
1 3820
1 3821
1 3822
1 3823
1 3824
1 3825
1 3826
1 3827
1 3828
1 3829
1 3830
1 3831
1 3832
1 3833
1 3834
1 3835
1 3836
1 3837
1 3838
1 3839
1 3840
1 3841
1 3842
1 3843
1 3844
1 3845
1 3846
1 3847
1 3848
1 3849
1 3850
1 3851
1 3852
1 3853
1 3854
1 3855
1 3856
1 3857
1 3858
1 3859
1 3860
1 3861
1 3862
1 3863
1 3864
1 3865
1 3866
1 3867
1 3868
1 3869
1 3870
1 3871
1 3872
1 3873
1 3874
1 3875
1 3876
1 3877
1 3878
1 3879
1 3880
1 3881
1 3882
1 3883
1 3884
1 3885
1 3886
1 3887
1 3888
1 3889
1 3890
1 3891
1 3892
1 3893
1 3894
1 3895
1 3896
1 3897
1 3898
1 3899
1 3900
1 3901
1 3902
1 3903
1 3904
1 3905
1 3906
1 3907
1 3908
1 3909
1 3910
1 3911
1 3912
1 3913
1 3914
1 3915
1 3916
1 3917
1 3918
1 3919
1 3920
1 3921
1 3922
1 3923
1 3924
1 3925
1 3926
1 3927
1 3928
1 3929
1 3930
1 3931
1 3932
1 3933
1 3934
1 3935
1 3936
1 3937
1 3938
1 3939
1 3940
1 3941
1 3942
1 3943
1 3944
1 3945
1 3946
1 3947
1 3948
1 3949
1 3950
1 3951
1 3952
1 3953
1 3954
1 3955
1 3956
1 3957
1 3958
1 3959
1 3960
1 3961
1 3962
1 3963
1 3964
1 3965
1 3966
1 3967
1 3968
1 3969
1 3970
1 3971
1 3972
1 3973
1 3974
1 3975
1 3976
1 3977
1 3978
1 3979
1 3980
1 3981
1 3982
1 3983
1 3984
1 3985
1 3986
1 3987
1 3988
1 3989
1 3990
1 3991
1 3992
1 3993
1 3994
1 3995
1 3996
1 3997
1 3998
1 3999
1 4000
1 4001
1 4002
1 4003
1 4004
1 4005
1 4006
1 4007
1 4008
1 4009
1 4010
1 4011
1 4012
1 4013
1 4014
1 4015
1 4016
1 4017
1 4018
1 4019
1 4020
1 4021
1 4022
1 4023
1 4024
1 4025
1 4026
1 4027
1 4028
1 4029
1 4030
1 4031
1 4032
1 4033
1 4034
1 4035
1 4036
1 4037
1 4038
1 4039
1 4040
1 4041
1 4042
1 4043
1 4044
1 4045
1 4046
1 4047
1 4048
1 4049
1 4050
1 4051
1 4052
1 4053
1 4054
1 4055
1 4056
1 4057
1 4058
1 4059
1 4060
1 4061
1 4062
1 4063
1 4064
1 4065
1 4066
1 4067
1 4068
1 4069
1 4070
1 4071
1 4072
1 4073
1 4074
1 4075
1 4076
1 4077
1 4078
1 4079
1 4080
1 4081
1 4082
1 4083
1 4084
1 4085
1 4086
1 4087
1 4088
1 4089
1 4090
1 4091
1 4092
1 4093
1 4094
1 4095
1 4096
1 4097
1 4098
1 4099
1 4100
1 4101
1 4102
1 4103
1 4104
1 4105
1 4106
1 4107
1 4108
1 4109
1 4110
1 4111
1 4112
1 4113
1 4114
1 4115
1 4116
1 4117
1 4118
1 4119
1 4120
1 4121
1 4122
1 4123
1 4124
1 4125
1 4126
1 4127
1 4128
1 4129
1 4130
1 4131
1 4132
1 4133
1 4134
1 4135
1 4136
1 4137
1 4138
1 4139
1 4140
1 4141
1 4142
1 4143
1 4144
1 4145
1 4146
1 4147
1 4148
1 4149
1 4150
1 4151
1 4152
1 4153
1 4154
1 4155
1 4156
1 4157
1 4158
1 4159
1 4160
1 4161
1 4162
1 4163
1 4164
1 4165
1 4166
1 4167
1 4168
1 4169
1 4170
1 4171
1 4172
1 4173
1 4174
1 4175
1 4176
1 4177
1 4178
1 4179
1 4180
1 4181
1 4182
1 4183
1 4184
1 4185
1 4186
1 4187
1 4188
1 4189
1 4190
1 4191
1 4192
1 4193
1 4194
1 4195
1 4196
1 4197
1 4198
1 4199
1 4200
1 4201
1 4202
1 4203
1 4204
1 4205
1 4206
1 4207
1 4208
1 4209
1 4210
1 4211
1 4212
1 4213
1 4214
1 4215
1 4216
1 4217
1 4218
1 4219
1 4220
1 4221
1 4222
1 4223
1 4224
1 4225
1 4226
1 4227
1 4228
1 4229
1 4230
1 4231
1 4232
1 4233
1 4234
1 4235
1 4236
1 4237
1 4238
1 4239
1 4240
1 4241
1 4242
1 4243
1 4244
1 4245
1 4246
1 4247
1 4248
1 4249
1 4250
1 4251
1 4252
1 4253
1 4254
1 4255
1 4256
1 4257
1 4258
1 4259
1 4260
1 4261
1 4262
1 4263
1 4264
1 4265
1 4266
1 4267
1 4268
1 4269
1 4270
1 4271
1 4272
1 4273
1 4274
1 4275
1 4276
1 4277
1 4278
1 4279
1 4280
1 4281
1 4282
1 4283
1 4284
1 4285
1 4286
1 4287
1 4288
1 4289
1 4290
1 4291
1 4292
1 4293
1 4294
1 4295
1 4296
1 4297
1 4298
1 4299
1 4300
1 4301
1 4302
1 4303
1 4304
1 4305
1 4306
1 4307
1 4308
1 4309
1 4310
1 4311
1 4312
1 4313
1 4314
1 4315
1 4316
1 4317
1 4318
1 4319
1 4320
1 4321
1 4322
1 4323
1 4324
1 4325
1 4326
1 4327
1 4328
1 4329
1 4330
1 4331
1 4332
1 4333
1 4334
1 4335
1 4336
1 4337
1 4338
1 4339
1 4340
1 4341
1 4342
1 4343
1 4344
1 4345
1 4346
1 4347
1 4348
1 4349
1 4350
1 4351
1 4352
1 4353
1 4354
1 4355
1 4356
1 4357
1 4358
1 4359
1 4360
1 4361
1 4362
1 4363
1 4364
1 4365
1 4366
1 4367
1 4368
1 4369
1 4370
1 4371
1 4372
1 4373
1 4374
1 4375
1 4376
1 4377
1 4378
1 4379
1 4380
1 4381
1 4382
1 4383
1 4384
1 4385
1 4386
1 4387
1 4388
1 4389
1 4390
1 4391
1 4392
1 4393
1 4394
1 4395
1 4396
1 4397
1 4398
1 4399
1 4400
1 4401
1 4402
1 4403
1 4404
1 4405
1 4406
1 4407
1 4408
1 4409
1 4410
1 4411
1 4412
1 4413
1 4414
1 4415
1 4416
1 4417
1 4418
1 4419
1 4420
1 4421
1 4422
1 4423
1 4424
1 4425
1 4426
1 4427
1 4428
1 4429
1 4430
1 4431
1 4432
1 4433
1 4434
1 4435
1 4436
1 4437
1 4438
1 4439
1 4440
1 4441
1 4442
1 4443
1 4444
1 4445
1 4446
1 4447
1 4448
1 4449
1 4450
1 4451
1 4452
1 4453
1 4454
1 4455
1 4456
1 4457
1 4458
1 4459
1 4460
1 4461
1 4462
1 4463
1 4464
1 4465
1 4466
1 4467
1 4468
1 4469
1 4470
1 4471
1 4472
1 4473
1 4474
1 4475
1 4476
1 4477
1 4478
1 4479
1 4480
1 4481
1 4482
1 4483
1 4484
1 4485
1 4486
1 4487
1 4488
1 4489
1 4490
1 4491
1 4492
1 4493
1 4494
1 4495
1 4496
1 4497
1 4498
1 4499
1 4500
1 4501
1 4502
1 4503
1 4504
1 4505
1 4506
1 4507
1 4508
1 4509
1 4510
1 4511
1 4512
1 4513
1 4514
1 4515
1 4516
1 4517
1 4518
1 4519
1 4520
1 4521
1 4522
1 4523
1 4524
1 4525
1 4526
1 4527
1 4528
1 4529
1 4530
1 4531
1 4532
1 4533
1 4534
1 4535
1 4536
1 4537
1 4538
1 4539
1 4540
1 4541
1 4542
1 4543
1 4544
1 4545
1 4546
1 4547
1 4548
1 4549
1 4550
1 4551
1 4552
1 4553
1 4554
1 4555
1 4556
1 4557
1 4558
1 4559
1 4560
1 4561
1 4562
1 4563
1 4564
1 4565
1 4566
1 4567
1 4568
1 4569
1 4570
1 4571
1 4572
1 4573
1 4574
1 4575
1 4576
1 4577
1 4578
1 4579
1 4580
1 4581
1 4582
1 4583
1 4584
1 4585
1 4586
1 4587
1 4588
1 4589
1 4590
1 4591
1 4592
1 4593
1 4594
1 4595
1 4596
1 4597
1 4598
1 4599
1 4600
1 4601
1 4602
1 4603
1 4604
1 4605
1 4606
1 4607
1 4608
1 4609
1 4610
1 4611
1 4612
1 4613
1 4614
1 4615
1 4616
1 4617
1 4618
1 4619
1 4620
1 4621
1 4622
1 4623
1 4624
1 4625
1 4626
1 4627
1 4628
1 4629
1 4630
1 4631
1 4632
1 4633
1 4634
1 4635
1 4636
1 4637
1 4638
1 4639
1 4640
1 4641
1 4642
1 4643
1 4644
1 4645
1 4646
1 4647
1 4648
1 4649
1 4650
1 4651
1 4652
1 4653
1 4654
1 4655
1 4656
1 4657
1 4658
1 4659
1 4660
1 4661
1 4662
1 4663
1 4664
1 4665
1 4666
1 4667
1 4668
1 4669
1 4670
1 4671
1 4672
1 4673
1 4674
1 4675
1 4676
1 4677
1 4678
1 4679
1 4680
1 4681
1 4682
1 4683
1 4684
1 4685
1 4686
1 4687
1 4688
1 4689
1 4690
1 4691
1 4692
1 4693
1 4694
1 4695
1 4696
1 4697
1 4698
1 4699
1 4700
1 4701
1 4702
1 4703
1 4704
1 4705
1 4706
1 4707
1 4708
1 4709
1 4710
1 4711
1 4712
1 4713
1 4714
1 4715
1 4716
1 4717
1 4718
1 4719
1 4720
1 4721
1 4722
1 4723
1 4724
1 4725
1 4726
1 4727
1 4728
1 4729
1 4730
1 4731
1 4732
1 4733
1 4734
1 4735
1 4736
1 4737
1 4738
1 4739
1 4740
1 4741
1 4742
1 4743
1 4744
1 4745
1 4746
1 4747
1 4748
1 4749
1 4750
1 4751
1 4752
1 4753
1 4754
1 4755
1 4756
1 4757
1 4758
1 4759
1 4760
1 4761
1 4762
1 4763
1 4764
1 4765
1 4766
1 4767
1 4768
1 4769
1 4770
1 4771
1 4772
1 4773
1 4774
1 4775
1 4776
1 4777
1 4778
1 4779
1 4780
1 4781
1 4782
1 4783
1 4784
1 4785
1 4786
1 4787
1 4788
1 4789
1 4790
1 4791
1 4792
1 4793
1 4794
1 4795
1 4796
1 4797
1 4798
1 4799
1 4800
1 4801
1 4802
1 4803
1 4804
1 4805
1 4806
1 4807
1 4808
1 4809
1 4810
1 4811
1 4812
1 4813
1 4814
1 4815
1 4816
1 4817
1 4818
1 4819
1 4820
1 4821
1 4822
1 4823
1 4824
1 4825
1 4826
1 4827
1 4828
1 4829
1 4830
1 4831
1 4832
1 4833
1 4834
1 4835
1 4836
1 4837
1 4838
1 4839
1 4840
1 4841
1 4842
1 4843
1 4844
1 4845
1 4846
1 4847
1 4848
1 4849
1 4850
1 4851
1 4852
1 4853
1 4854
1 4855
1 4856
1 4857
1 4858
1 4859
1 4860
1 4861
1 4862
1 4863
1 4864
1 4865
1 4866
1 4867
1 4868
1 4869
1 4870
1 4871
1 4872
1 4873
1 4874
1 4875
1 4876
1 4877
1 4878
1 4879
1 4880
1 4881
1 4882
1 4883
1 4884
1 4885
1 4886
1 4887
1 4888
1 4889
1 4890
1 4891
1 4892
1 4893
1 4894
1 4895
1 4896
1 4897
1 4898
1 4899
1 4900
1 4901
1 4902
1 4903
1 4904
1 4905
1 4906
1 4907
1 4908
1 4909
1 4910
1 4911
1 4912
1 4913
1 4914
1 4915
1 4916
1 4917
1 4918
1 4919
1 4920
1 4921
1 4922
1 4923
1 4924
1 4925
1 4926
1 4927
1 4928
1 4929
1 4930
1 4931
1 4932
1 4933
1 4934
1 4935
1 4936
1 4937
1 4938
1 4939
1 4940
1 4941
1 4942
1 4943
1 4944
1 4945
1 4946
1 4947
1 4948
1 4949
1 4950
1 4951
1 4952
1 4953
1 4954
1 4955
1 4956
1 4957
1 4958
1 4959
1 4960
1 4961
1 4962
1 4963
1 4964
1 4965
1 4966
1 4967
1 4968
1 4969
1 4970
1 4971
1 4972
1 4973
1 4974
1 4975
1 4976
1 4977
1 4978
1 4979
1 4980
1 4981
1 4982
1 4983
1 4984
1 4985
1 4986
1 4987
1 4988
1 4989
1 4990
1 4991
1 4992
1 4993
1 4994
1 4995
1 4996
1 4997
1 4998
1 4999
CELL_TYPES 5000
1 
1 
1 
1 
1 
1 
1 
1 
1 
1 
1 
1 
1 
1 
1 
1 
1 
1 
1 
1 
1 
1 
1 
1 
1 
1 
1 
1 
1 
1 
1 
1 
1 
1 
1 
1 
1 
1 
1 
1 
1 
1 
1 
1 
1 
1 
1 
1 
1 
1 
1 
1 
1 
1 
1 
1 
1 
1 
1 
1 
1 
1 
1 
1 
1 
1 
1 
1 
1 
1 
1 
1 
1 
1 
1 
1 
1 
1 
1 
1 
1 
1 
1 
1 
1 
1 
1 
1 
1 
1 
1 
1 
1 
1 
1 
1 
1 
1 
1 
1 
1 
1 
1 
1 
1 
1 
1 
1 
1 
1 
1 
1 
1 
1 
1 
1 
1 
1 
1 
1 
1 
1 
1 
1 
1 
1 
1 
1 
1 
1 
1 
1 
1 
1 
1 
1 
1 
1 
1 
1 
1 
1 
1 
1 
1 
1 
1 
1 
1 
1 
1 
1 
1 
1 
1 
1 
1 
1 
1 
1 
1 
1 
1 
1 
1 
1 
1 
1 
1 
1 
1 
1 
1 
1 
1 
1 
1 
1 
1 
1 
1 
1 
1 
1 
1 
1 
1 
1 
1 
1 
1 
1 
1 
1 
1 
1 
1 
1 
1 
1 
1 
1 
1 
1 
1 
1 
1 
1 
1 
1 
1 
1 
1 
1 
1 
1 
1 
1 
1 
1 
1 
1 
1 
1 
1 
1 
1 
1 
1 
1 
1 
1 
1 
1 
1 
1 
1 
1 
1 
1 
1 
1 
1 
1 
1 
1 
1 
1 
1 
1 
1 
1 
1 
1 
1 
1 
1 
1 
1 
1 
1 
1 
1 
1 
1 
1 
1 
1 
1 
1 
1 
1 
1 
1 
1 
1 
1 
1 
1 
1 
1 
1 
1 
1 
1 
1 
1 
1 
1 
1 
1 
1 
1 
1 
1 
1 
1 
1 
1 
1 
1 
1 
1 
1 
1 
1 
1 
1 
1 
1 
1 
1 
1 
1 
1 
1 
1 
1 
1 
1 
1 
1 
1 
1 
1 
1 
1 
1 
1 
1 
1 
1 
1 
1 
1 
1 
1 
1 
1 
1 
1 
1 
1 
1 
1 
1 
1 
1 
1 
1 
1 
1 
1 
1 
1 
1 
1 
1 
1 
1 
1 
1 
1 
1 
1 
1 
1 
1 
1 
1 
1 
1 
1 
1 
1 
1 
1 
1 
1 
1 
1 
1 
1 
1 
1 
1 
1 
1 
1 
1 
1 
1 
1 
1 
1 
1 
1 
1 
1 
1 
1 
1 
1 
1 
1 
1 
1 
1 
1 
1 
1 
1 
1 
1 
1 
1 
1 
1 
1 
1 
1 
1 
1 
1 
1 
1 
1 
1 
1 
1 
1 
1 
1 
1 
1 
1 
1 
1 
1 
1 
1 
1 
1 
1 
1 
1 
1 
1 
1 
1 
1 
1 
1 
1 
1 
1 
1 
1 
1 
1 
1 
1 
1 
1 
1 
1 
1 
1 
1 
1 
1 
1 
1 
1 
1 
1 
1 
1 
1 
1 
1 
1 
1 
1 
1 
1 
1 
1 
1 
1 
1 
1 
1 
1 
1 
1 
1 
1 
1 
1 
1 
1 
1 
1 
1 
1 
1 
1 
1 
1 
1 
1 
1 
1 
1 
1 
1 
1 
1 
1 
1 
1 
1 
1 
1 
1 
1 
1 
1 
1 
1 
1 
1 
1 
1 
1 
1 
1 
1 
1 
1 
1 
1 
1 
1 
1 
1 
1 
1 
1 
1 
1 
1 
1 
1 
1 
1 
1 
1 
1 
1 
1 
1 
1 
1 
1 
1 
1 
1 
1 
1 
1 
1 
1 
1 
1 
1 
1 
1 
1 
1 
1 
1 
1 
1 
1 
1 
1 
1 
1 
1 
1 
1 
1 
1 
1 
1 
1 
1 
1 
1 
1 
1 
1 
1 
1 
1 
1 
1 
1 
1 
1 
1 
1 
1 
1 
1 
1 
1 
1 
1 
1 
1 
1 
1 
1 
1 
1 
1 
1 
1 
1 
1 
1 
1 
1 
1 
1 
1 
1 
1 
1 
1 
1 
1 
1 
1 
1 
1 
1 
1 
1 
1 
1 
1 
1 
1 
1 
1 
1 
1 
1 
1 
1 
1 
1 
1 
1 
1 
1 
1 
1 
1 
1 
1 
1 
1 
1 
1 
1 
1 
1 
1 
1 
1 
1 
1 
1 
1 
1 
1 
1 
1 
1 
1 
1 
1 
1 
1 
1 
1 
1 
1 
1 
1 
1 
1 
1 
1 
1 
1 
1 
1 
1 
1 
1 
1 
1 
1 
1 
1 
1 
1 
1 
1 
1 
1 
1 
1 
1 
1 
1 
1 
1 
1 
1 
1 
1 
1 
1 
1 
1 
1 
1 
1 
1 
1 
1 
1 
1 
1 
1 
1 
1 
1 
1 
1 
1 
1 
1 
1 
1 
1 
1 
1 
1 
1 
1 
1 
1 
1 
1 
1 
1 
1 
1 
1 
1 
1 
1 
1 
1 
1 
1 
1 
1 
1 
1 
1 
1 
1 
1 
1 
1 
1 
1 
1 
1 
1 
1 
1 
1 
1 
1 
1 
1 
1 
1 
1 
1 
1 
1 
1 
1 
1 
1 
1 
1 
1 
1 
1 
1 
1 
1 
1 
1 
1 
1 
1 
1 
1 
1 
1 
1 
1 
1 
1 
1 
1 
1 
1 
1 
1 
1 
1 
1 
1 
1 
1 
1 
1 
1 
1 
1 
1 
1 
1 
1 
1 
1 
1 
1 
1 
1 
1 
1 
1 
1 
1 
1 
1 
1 
1 
1 
1 
1 
1 
1 
1 
1 
1 
1 
1 
1 
1 
1 
1 
1 
1 
1 
1 
1 
1 
1 
1 
1 
1 
1 
1 
1 
1 
1 
1 
1 
1 
1 
1 
1 
1 
1 
1 
1 
1 
1 
1 
1 
1 
1 
1 
1 
1 
1 
1 
1 
1 
1 
1 
1 
1 
1 
1 
1 
1 
1 
1 
1 
1 
1 
1 
1 
1 
1 
1 
1 
1 
1 
1 
1 
1 
1 
1 
1 
1 
1 
1 
1 
1 
1 
1 
1 
1 
1 
1 
1 
1 
1 
1 
1 
1 
1 
1 
1 
1 
1 
1 
1 
1 
1 
1 
1 
1 
1 
1 
1 
1 
1 
1 
1 
1 
1 
1 
1 
1 
1 
1 
1 
1 
1 
1 
1 
1 
1 
1 
1 
1 
1 
1 
1 
1 
1 
1 
1 
1 
1 
1 
1 
1 
1 
1 
1 
1 
1 
1 
1 
1 
1 
1 
1 
1 
1 
1 
1 
1 
1 
1 
1 
1 
1 
1 
1 
1 
1 
1 
1 
1 
1 
1 
1 
1 
1 
1 
1 
1 
1 
1 
1 
1 
1 
1 
1 
1 
1 
1 
1 
1 
1 
1 
1 
1 
1 
1 
1 
1 
1 
1 
1 
1 
1 
1 
1 
1 
1 
1 
1 
1 
1 
1 
1 
1 
1 
1 
1 
1 
1 
1 
1 
1 
1 
1 
1 
1 
1 
1 
1 
1 
1 
1 
1 
1 
1 
1 
1 
1 
1 
1 
1 
1 
1 
1 
1 
1 
1 
1 
1 
1 
1 
1 
1 
1 
1 
1 
1 
1 
1 
1 
1 
1 
1 
1 
1 
1 
1 
1 
1 
1 
1 
1 
1 
1 
1 
1 
1 
1 
1 
1 
1 
1 
1 
1 
1 
1 
1 
1 
1 
1 
1 
1 
1 
1 
1 
1 
1 
1 
1 
1 
1 
1 
1 
1 
1 
1 
1 
1 
1 
1 
1 
1 
1 
1 
1 
1 
1 
1 
1 
1 
1 
1 
1 
1 
1 
1 
1 
1 
1 
1 
1 
1 
1 
1 
1 
1 
1 
1 
1 
1 
1 
1 
1 
1 
1 
1 
1 
1 
1 
1 
1 
1 
1 
1 
1 
1 
1 
1 
1 
1 
1 
1 
1 
1 
1 
1 
1 
1 
1 
1 
1 
1 
1 
1 
1 
1 
1 
1 
1 
1 
1 
1 
1 
1 
1 
1 
1 
1 
1 
1 
1 
1 
1 
1 
1 
1 
1 
1 
1 
1 
1 
1 
1 
1 
1 
1 
1 
1 
1 
1 
1 
1 
1 
1 
1 
1 
1 
1 
1 
1 
1 
1 
1 
1 
1 
1 
1 
1 
1 
1 
1 
1 
1 
1 
1 
1 
1 
1 
1 
1 
1 
1 
1 
1 
1 
1 
1 
1 
1 
1 
1 
1 
1 
1 
1 
1 
1 
1 
1 
1 
1 
1 
1 
1 
1 
1 
1 
1 
1 
1 
1 
1 
1 
1 
1 
1 
1 
1 
1 
1 
1 
1 
1 
1 
1 
1 
1 
1 
1 
1 
1 
1 
1 
1 
1 
1 
1 
1 
1 
1 
1 
1 
1 
1 
1 
1 
1 
1 
1 
1 
1 
1 
1 
1 
1 
1 
1 
1 
1 
1 
1 
1 
1 
1 
1 
1 
1 
1 
1 
1 
1 
1 
1 
1 
1 
1 
1 
1 
1 
1 
1 
1 
1 
1 
1 
1 
1 
1 
1 
1 
1 
1 
1 
1 
1 
1 
1 
1 
1 
1 
1 
1 
1 
1 
1 
1 
1 
1 
1 
1 
1 
1 
1 
1 
1 
1 
1 
1 
1 
1 
1 
1 
1 
1 
1 
1 
1 
1 
1 
1 
1 
1 
1 
1 
1 
1 
1 
1 
1 
1 
1 
1 
1 
1 
1 
1 
1 
1 
1 
1 
1 
1 
1 
1 
1 
1 
1 
1 
1 
1 
1 
1 
1 
1 
1 
1 
1 
1 
1 
1 
1 
1 
1 
1 
1 
1 
1 
1 
1 
1 
1 
1 
1 
1 
1 
1 
1 
1 
1 
1 
1 
1 
1 
1 
1 
1 
1 
1 
1 
1 
1 
1 
1 
1 
1 
1 
1 
1 
1 
1 
1 
1 
1 
1 
1 
1 
1 
1 
1 
1 
1 
1 
1 
1 
1 
1 
1 
1 
1 
1 
1 
1 
1 
1 
1 
1 
1 
1 
1 
1 
1 
1 
1 
1 
1 
1 
1 
1 
1 
1 
1 
1 
1 
1 
1 
1 
1 
1 
1 
1 
1 
1 
1 
1 
1 
1 
1 
1 
1 
1 
1 
1 
1 
1 
1 
1 
1 
1 
1 
1 
1 
1 
1 
1 
1 
1 
1 
1 
1 
1 
1 
1 
1 
1 
1 
1 
1 
1 
1 
1 
1 
1 
1 
1 
1 
1 
1 
1 
1 
1 
1 
1 
1 
1 
1 
1 
1 
1 
1 
1 
1 
1 
1 
1 
1 
1 
1 
1 
1 
1 
1 
1 
1 
1 
1 
1 
1 
1 
1 
1 
1 
1 
1 
1 
1 
1 
1 
1 
1 
1 
1 
1 
1 
1 
1 
1 
1 
1 
1 
1 
1 
1 
1 
1 
1 
1 
1 
1 
1 
1 
1 
1 
1 
1 
1 
1 
1 
1 
1 
1 
1 
1 
1 
1 
1 
1 
1 
1 
1 
1 
1 
1 
1 
1 
1 
1 
1 
1 
1 
1 
1 
1 
1 
1 
1 
1 
1 
1 
1 
1 
1 
1 
1 
1 
1 
1 
1 
1 
1 
1 
1 
1 
1 
1 
1 
1 
1 
1 
1 
1 
1 
1 
1 
1 
1 
1 
1 
1 
1 
1 
1 
1 
1 
1 
1 
1 
1 
1 
1 
1 
1 
1 
1 
1 
1 
1 
1 
1 
1 
1 
1 
1 
1 
1 
1 
1 
1 
1 
1 
1 
1 
1 
1 
1 
1 
1 
1 
1 
1 
1 
1 
1 
1 
1 
1 
1 
1 
1 
1 
1 
1 
1 
1 
1 
1 
1 
1 
1 
1 
1 
1 
1 
1 
1 
1 
1 
1 
1 
1 
1 
1 
1 
1 
1 
1 
1 
1 
1 
1 
1 
1 
1 
1 
1 
1 
1 
1 
1 
1 
1 
1 
1 
1 
1 
1 
1 
1 
1 
1 
1 
1 
1 
1 
1 
1 
1 
1 
1 
1 
1 
1 
1 
1 
1 
1 
1 
1 
1 
1 
1 
1 
1 
1 
1 
1 
1 
1 
1 
1 
1 
1 
1 
1 
1 
1 
1 
1 
1 
1 
1 
1 
1 
1 
1 
1 
1 
1 
1 
1 
1 
1 
1 
1 
1 
1 
1 
1 
1 
1 
1 
1 
1 
1 
1 
1 
1 
1 
1 
1 
1 
1 
1 
1 
1 
1 
1 
1 
1 
1 
1 
1 
1 
1 
1 
1 
1 
1 
1 
1 
1 
1 
1 
1 
1 
1 
1 
1 
1 
1 
1 
1 
1 
1 
1 
1 
1 
1 
1 
1 
1 
1 
1 
1 
1 
1 
1 
1 
1 
1 
1 
1 
1 
1 
1 
1 
1 
1 
1 
1 
1 
1 
1 
1 
1 
1 
1 
1 
1 
1 
1 
1 
1 
1 
1 
1 
1 
1 
1 
1 
1 
1 
1 
1 
1 
1 
1 
1 
1 
1 
1 
1 
1 
1 
1 
1 
1 
1 
1 
1 
1 
1 
1 
1 
1 
1 
1 
1 
1 
1 
1 
1 
1 
1 
1 
1 
1 
1 
1 
1 
1 
1 
1 
1 
1 
1 
1 
1 
1 
1 
1 
1 
1 
1 
1 
1 
1 
1 
1 
1 
1 
1 
1 
1 
1 
1 
1 
1 
1 
1 
1 
1 
1 
1 
1 
1 
1 
1 
1 
1 
1 
1 
1 
1 
1 
1 
1 
1 
1 
1 
1 
1 
1 
1 
1 
1 
1 
1 
1 
1 
1 
1 
1 
1 
1 
1 
1 
1 
1 
1 
1 
1 
1 
1 
1 
1 
1 
1 
1 
1 
1 
1 
1 
1 
1 
1 
1 
1 
1 
1 
1 
1 
1 
1 
1 
1 
1 
1 
1 
1 
1 
1 
1 
1 
1 
1 
1 
1 
1 
1 
1 
1 
1 
1 
1 
1 
1 
1 
1 
1 
1 
1 
1 
1 
1 
1 
1 
1 
1 
1 
1 
1 
1 
1 
1 
1 
1 
1 
1 
1 
1 
1 
1 
1 
1 
1 
1 
1 
1 
1 
1 
1 
1 
1 
1 
1 
1 
1 
1 
1 
1 
1 
1 
1 
1 
1 
1 
1 
1 
1 
1 
1 
1 
1 
1 
1 
1 
1 
1 
1 
1 
1 
1 
1 
1 
1 
1 
1 
1 
1 
1 
1 
1 
1 
1 
1 
1 
1 
1 
1 
1 
1 
1 
1 
1 
1 
1 
1 
1 
1 
1 
1 
1 
1 
1 
1 
1 
1 
1 
1 
1 
1 
1 
1 
1 
1 
1 
1 
1 
1 
1 
1 
1 
1 
1 
1 
1 
1 
1 
1 
1 
1 
1 
1 
1 
1 
1 
1 
1 
1 
1 
1 
1 
1 
1 
1 
1 
1 
1 
1 
1 
1 
1 
1 
1 
1 
1 
1 
1 
1 
1 
1 
1 
1 
1 
1 
1 
1 
1 
1 
1 
1 
1 
1 
1 
1 
1 
1 
1 
1 
1 
1 
1 
1 
1 
1 
1 
1 
1 
1 
1 
1 
1 
1 
1 
1 
1 
1 
1 
1 
1 
1 
1 
1 
1 
1 
1 
1 
1 
1 
1 
1 
1 
1 
1 
1 
1 
1 
1 
1 
1 
1 
1 
1 
1 
1 
1 
1 
1 
1 
1 
1 
1 
1 
1 
1 
1 
1 
1 
1 
1 
1 
1 
1 
1 
1 
1 
1 
1 
1 
1 
1 
1 
1 
1 
1 
1 
1 
1 
1 
1 
1 
1 
1 
1 
1 
1 
1 
1 
1 
1 
1 
1 
1 
1 
1 
1 
1 
1 
1 
1 
1 
1 
1 
1 
1 
1 
1 
1 
1 
1 
1 
1 
1 
1 
1 
1 
1 
1 
1 
1 
1 
1 
1 
1 
1 
1 
1 
1 
1 
1 
1 
1 
1 
1 
1 
1 
1 
1 
1 
1 
1 
1 
1 
1 
1 
1 
1 
1 
1 
1 
1 
1 
1 
1 
1 
1 
1 
1 
1 
1 
1 
1 
1 
1 
1 
1 
1 
1 
1 
1 
1 
1 
1 
1 
1 
1 
1 
1 
1 
1 
1 
1 
1 
1 
1 
1 
1 
1 
1 
1 
1 
1 
1 
1 
1 
1 
1 
1 
1 
1 
1 
1 
1 
1 
1 
1 
1 
1 
1 
1 
1 
1 
1 
1 
1 
1 
1 
1 
1 
1 
1 
1 
1 
1 
1 
1 
1 
1 
1 
1 
1 
1 
1 
1 
1 
1 
1 
1 
1 
1 
1 
1 
1 
1 
1 
1 
1 
1 
1 
1 
1 
1 
1 
1 
1 
1 
1 
1 
1 
1 
1 
1 
1 
1 
1 
1 
1 
1 
1 
1 
1 
1 
1 
1 
1 
1 
1 
1 
1 
1 
1 
1 
1 
1 
1 
1 
1 
1 
1 
1 
1 
1 
1 
1 
1 
1 
1 
1 
1 
1 
1 
1 
1 
1 
1 
1 
1 
1 
1 
1 
1 
1 
1 
1 
1 
1 
1 
1 
1 
1 
1 
1 
1 
1 
1 
1 
1 
1 
1 
1 
1 
1 
1 
1 
1 
1 
1 
1 
1 
1 
1 
1 
1 
1 
1 
1 
1 
1 
1 
1 
1 
1 
1 
1 
1 
1 
1 
1 
1 
1 
1 
1 
1 
1 
1 
1 
1 
1 
1 
1 
1 
1 
1 
1 
1 
1 
1 
1 
1 
1 
1 
1 
1 
1 
1 
1 
1 
1 
1 
1 
1 
1 
1 
1 
1 
1 
1 
1 
1 
1 
1 
1 
1 
1 
1 
1 
1 
1 
1 
1 
1 
1 
1 
1 
1 
1 
1 
1 
1 
1 
1 
1 
1 
1 
1 
1 
1 
1 
1 
1 
1 
1 
1 
1 
1 
1 
1 
1 
1 
1 
1 
1 
1 
1 
1 
1 
1 
1 
1 
1 
1 
1 
1 
1 
1 
1 
1 
1 
1 
1 
1 
1 
1 
1 
1 
1 
1 
1 
1 
1 
1 
1 
1 
1 
1 
1 
1 
1 
1 
1 
1 
1 
1 
1 
1 
1 
1 
1 
1 
1 
1 
1 
1 
1 
1 
1 
1 
1 
1 
1 
1 
1 
1 
1 
1 
1 
1 
1 
1 
1 
1 
1 
1 
1 
1 
1 
1 
1 
1 
1 
1 
1 
1 
1 
1 
1 
1 
1 
1 
1 
1 
1 
1 
1 
1 
1 
1 
1 
1 
1 
1 
1 
1 
1 
1 
1 
1 
1 
1 
1 
1 
1 
1 
1 
1 
1 
1 
1 
1 
1 
1 
1 
1 
1 
1 
1 
1 
1 
1 
1 
1 
1 
1 
1 
1 
1 
1 
1 
1 
1 
1 
1 
1 
1 
1 
1 
1 
1 
1 
1 
1 
1 
1 
1 
1 
1 
1 
1 
1 
1 
1 
1 
1 
1 
1 
1 
1 
1 
1 
1 
1 
1 
1 
1 
1 
1 
1 
1 
1 
1 
1 
1 
1 
1 
1 
1 
1 
1 
1 
1 
1 
1 
1 
1 
1 
1 
1 
1 
1 
1 
1 
1 
1 
1 
1 
1 
1 
1 
1 
1 
1 
1 
1 
1 
1 
1 
1 
1 
1 
1 
1 
1 
1 
1 
1 
1 
1 
1 
1 
1 
1 
1 
1 
1 
1 
1 
1 
1 
1 
1 
1 
1 
1 
1 
1 
1 
1 
1 
1 
1 
1 
1 
1 
1 
1 
1 
1 
1 
1 
1 
1 
1 
1 
1 
1 
1 
1 
1 
1 
1 
1 
1 
1 
1 
1 
1 
1 
1 
1 
1 
1 
1 
1 
1 
1 
1 
1 
1 
1 
1 
1 
1 
1 
1 
1 
1 
1 
1 
1 
1 
1 
1 
1 
1 
1 
1 
1 
1 
1 
1 
1 
1 
1 
1 
1 
1 
1 
1 
1 
1 
1 
1 
1 
1 
1 
1 
1 
1 
1 
1 
1 
1 
1 
1 
1 
1 
1 
1 
1 
1 
1 
1 
1 
1 
1 
1 
1 
1 
1 
1 
1 
1 
1 
1 
1 
1 
1 
1 
1 
1 
1 
1 
1 
1 
1 
1 
1 
1 
1 
1 
1 
1 
1 
1 
1 
1 
1 
1 
1 
1 
1 
1 
1 
1 
1 
1 
1 
1 
1 
1 
1 
1 
1 
1 
1 
1 
1 
1 
1 
1 
1 
1 
1 
1 
1 
1 
1 
1 
1 
1 
1 
1 
1 
1 
1 
1 
1 
1 
1 
1 
1 
1 
1 
1 
1 
1 
1 
1 
1 
1 
1 
1 
1 
1 
1 
1 
1 
1 
1 
1 
1 
1 
1 
1 
1 
1 
1 
1 
1 
1 
1 
1 
1 
1 
1 
1 
1 
1 
1 
1 
1 
1 
1 
1 
1 
1 
1 
1 
1 
1 
1 
1 
1 
1 
1 
1 
1 
1 
1 
1 
1 
1 
1 
1 
1 
1 
1 
1 
1 
1 
1 
1 
1 
1 
1 
1 
1 
1 
1 
1 
1 
1 
1 
1 
1 
1 
1 
1 
1 
1 
1 
1 
1 
1 
1 
1 
1 
1 
1 
1 
1 
1 
1 
1 
1 
1 
1 
1 
1 
1 
1 
1 
1 
1 
1 
1 
1 
1 
1 
1 
1 
1 
1 
1 
1 
1 
1 
1 
1 
1 
1 
1 
1 
1 
1 
1 
1 
1 
1 
1 
1 
1 
1 
1 
1 
1 
1 
1 
1 
1 
1 
1 
1 
1 
1 
1 
1 
1 
1 
1 
1 
1 
1 
1 
1 
1 
1 
1 
1 
1 
1 
1 
1 
1 
1 
1 
1 
1 
1 
1 
1 
1 
1 
1 
1 
1 
1 
1 
1 
1 
1 
1 
1 
1 
1 
1 
1 
1 
1 
1 
1 
1 
1 
1 
1 
1 
1 
1 
1 
1 
1 
1 
1 
1 
1 
1 
1 
1 
1 
1 
1 
1 
1 
1 
1 
1 
1 
1 
1 
1 
1 
1 
1 
1 
1 
1 
1 
1 
1 
1 
1 
1 
1 
1 
1 
1 
1 
1 
1 
1 
1 
1 
1 
1 
1 
1 
1 
1 
1 
1 
1 
1 
1 
1 
1 
1 
1 
1 
1 
1 
1 
1 
1 
1 
1 
1 
1 
1 
1 
1 
1 
1 
1 
1 
1 
1 
1 
1 
1 
1 
1 
1 
1 
1 
1 
1 
1 
1 
1 
1 
1 
1 
1 
1 
1 
1 
1 
1 
1 
1 
1 
1 
1 
1 
1 
1 
1 
1 
1 
1 
1 
1 
1 
1 
1 
1 
1 
1 
1 
1 
1 
1 
1 
1 
1 
1 
1 
1 
1 
1 
1 
1 
1 
1 
1 
1 
1 
1 
1 
1 
1 
1 
1 
1 
1 
1 
1 
1 
1 
1 
1 
1 
1 
1 
1 
1 
1 
1 
1 
1 
1 
1 
1 
1 
1 
1 
1 
1 
1 
1 
1 
1 
1 
1 
1 
1 
1 
1 
1 
1 
1 
1 
1 
1 
1 
1 
1 
1 
1 
1 
1 
1 
1 
1 
1 
1 
1 
1 
1 
1 
1 
1 
1 
1 
1 
1 
1 
1 
1 
1 
1 
1 
1 
1 
1 
1 
1 
1 
1 
1 
1 
1 
1 
1 
1 
1 
1 
1 
1 
1 
1 
1 
1 
1 
1 
1 
1 
1 
1 
1 
1 
1 
1 
1 
1 
1 
1 
1 
1 
1 
1 
1 
1 
1 
1 
1 
1 
1 
1 
1 
1 
1 
1 
1 
1 
1 
1 
1 
1 
1 
1 
1 
1 
1 
1 
1 
1 
1 
1 
1 
1 
1 
1 
1 
1 
1 
1 
1 
1 
1 
1 
1 
1 
1 
1 
1 
1 
1 
1 
1 
1 
1 
1 
1 
1 
1 
1 
1 
1 
1 
1 
1 
1 
1 
1 
1 
1 
1 
1 
1 
1 
1 
1 
1 
1 
1 
1 
1 
1 
1 
1 
1 
1 
1 
1 
1 
1 
1 
1 
1 
1 
1 
1 
1 
1 
1 
1 
1 
1 
1 
1 
1 
1 
1 
1 
1 
1 
1 
1 
1 
1 
1 
1 
1 
1 
1 
1 
1 
1 
1 
1 
1 
1 
1 
1 
1 
1 
1 
1 
1 
1 
1 
1 
1 
1 
1 
1 
1 
1 
1 
1 
1 
1 
1 
1 
1 
1 
1 
1 
1 
1 
1 
1 
1 
1 
1 
1 
1 
1 
1 
1 
1 
1 
1 
1 
1 
1 
1 
1 
1 
1 
1 
1 
1 
1 
1 
1 
1 
1 
1 
1 
1 
1 
1 
1 
1 
1 
1 
1 
1 
1 
1 
1 
1 
1 
1 
1 
1 
1 
1 
1 
1 
1 
1 
1 
1 
1 
1 
1 
1 
1 
1 
1 
1 
1 
1 
1 
1 
1 
1 
1 
1 
1 
1 
1 
1 
1 
1 
1 
1 
1 
1 
1 
1 
1 
1 
1 
1 
1 
1 
1 
1 
1 
1 
1 
1 
1 
1 
1 
1 
1 
1 
1 
1 
1 
1 
1 
1 
1 
1 
1 
1 
1 
1 
1 
1 
1 
1 
1 
1 
1 
1 
1 
1 
1 
1 
1 
1 
1 
1 
1 
1 
1 
1 
1 
1 
1 
1 
1 
1 
1 
1 
1 
1 
1 
1 
1 
1 
1 
1 
1 
1 
1 
1 
1 
1 
1 
1 
1 
1 
1 
1 
1 
1 
1 
1 
1 
1 
1 
1 
1 
1 
1 
1 
1 
1 
1 
1 
1 
1 
1 
1 
1 
1 
1 
1 
1 
1 
1 
1 
1 
1 
1 
1 
1 
1 
1 
1 
1 
1 
1 
1 
1 
1 
1 
1 
1 
1 
1 
1 
1 
1 
1 
1 
1 
1 
1 
1 
1 
1 
1 
1 
1 
1 
1 
1 
1 
1 
1 
1 
1 
1 
1 
1 
1 
1 
1 
1 
1 
1 
1 
1 
1 
1 
1 
1 
1 
1 
1 
1 
1 
1 
1 
1 
1 
1 
1 
1 
1 
1 
1 
1 
1 
1 
1 
1 
1 
1 
1 
1 
1 
1 
1 
1 
1 
1 
1 
1 
1 
1 
1 
1 
1 
1 
1 
1 
1 
1 
1 
1 
1 
1 
1 
1 
1 
1 
1 
1 
1 
1 
1 
1 
1 
1 
1 
1 
1 
1 
1 
1 
1 
1 
1 
1 
1 
1 
1 
1 
1 
1 
1 
1 
1 
1 
1 
1 
1 
1 
1 
1 
1 
1 
1 
1 
1 
1 
1 
1 
1 
1 
1 
1 
1 
1 
1 
1 
1 
1 
1 
1 
1 
1 
1 
1 
1 
1 
1 
1 
1 
1 
1 
1 
1 
1 
1 
1 
1 
1 
1 
1 
1 
1 
1 
1 
1 
1 
1 
1 
1 
1 
1 
1 
1 
1 
1 
1 
1 
1 
1 
1 
1 
1 
1 
1 
1 
1 
1 
1 
1 
1 
1 
1 
1 
1 
1 
1 
1 
1 
1 
1 
1 
1 
1 
1 
1 
1 
1 
1 
1 
1 
1 
1 
1 
1 
1 
1 
1 
1 
1 
1 
1 
1 
1 
1 
1 
1 
1 
1 
1 
1 
1 
1 
1 
1 
1 
1 
1 
1 
1 
1 
1 
1 
1 
1 
1 
1 
1 
1 
1 
1 
1 
1 
1 
1 
1 
1 
1 
1 
1 
1 
1 
1 
1 
1 
1 
1 
1 
1 
1 
1 
1 
1 
1 
1 
1 
1 
1 
1 
1 
1 
1 
1 
1 
1 
1 
1 
1 
1 
1 
1 
1 
1 
1 
1 
1 
1 
1 
1 
1 
1 
1 
1 
1 
1 
1 
1 
1 
1 
1 
1 
1 
1 
1 
1 
1 
1 
1 
1 
1 
1 
1 
1 
1 
1 
1 
1 
1 
1 
1 
1 
1 
1 
1 
1 
1 
1 
1 
1 
1 
1 
1 
1 
1 
1 
1 
1 
1 
1 
1 
1 
1 
1 
1 
1 
1 
1 
1 
1 
1 
1 
1 
1 
1 
1 
1 
1 
1 
1 
1 
1 
1 
1 
1 
1 
1 
1 
1 
1 
1 
1 
1 
1 
1 
1 
1 
1 
1 
1 
1 
1 
1 
1 
1 
1 
1 
1 
1 
1 
1 
1 
1 
1 
1 
1 
1 
1 
1 
1 
1 
1 
1 
1 
1 
1 
1 
1 
1 
1 
1 
1 
1 
1 
1 
1 
1 
1 
1 
1 
1 
1 
1 
1 
1 
1 
1 
1 
1 
1 
1 
1 
1 
1 
1 
1 
1 
1 
1 
1 
1 
1 
1 
1 
1 
1 
1 
1 
1 
1 
1 
1 
1 
1 
1 
1 
1 
1 
1 
1 
1 
1 
1 
1 
1 
1 
1 
1 
1 
1 
1 
1 
1 
1 
1 
1 
1 
1 
1 
1 
1 
1 
1 
1 
1 
1 
1 
1 
1 
1 
1 
1 
1 
1 
1 
1 
1 
1 
1 
1 
1 
1 
1 
1 
1 
1 
1 
1 
1 
1 
1 
1 
1 
1 
1 
1 
1 
1 
1 
1 
1 
1 
1 
1 
1 
1 
1 
1 
1 
1 
1 
1 
1 
1 
1 
1 
1 
1 
1 
1 
1 
1 
1 
1 
1 
1 
1 
1 
1 
1 
1 
1 
1 
1 
1 
1 
1 
1 
1 
1 
1 
1 
1 
1 
1 
1 
1 
1 
1 
1 
1 
1 
1 
1 
1 
1 
1 
1 
1 
1 
1 
1 
1 
1 
1 
1 
1 
1 
1 
1 
1 
1 
1 
1 
1 
1 
1 
1 
1 
1 
1 
1 
1 
1 
1 
1 
1 
1 
1 
1 
1 
1 
1 
1 
1 
1 
1 
1 
1 
1 
1 
1 
1 
1 
1 
1 
1 
1 
1 
1 
1 
1 
1 
1 
1 
1 
1 
1 
1 
1 
1 
1 
1 
1 
1 
1 
1 
1 
1 
1 
1 
1 
1 
1 
1 
1 
1 
1 
1 
1 
1 
1 
1 
1 
1 
1 
1 
1 
1 
1 
1 
1 
1 
1 
1 
1 
1 
1 
1 
1 
1 
1 
1 
1 
1 
1 
1 
1 
1 
1 
1 
1 
1 
1 
1 
1 
1 
1 
1 
1 
1 
1 
1 
1 
1 
1 
1 
1 
1 
1 
1 
1 
1 
1 
1 
1 
1 
1 
1 
1 
1 
1 
1 
1 
1 
1 
1 
1 
1 
1 
1 
1 
1 
1 
1 
1 
1 
1 
1 
1 
1 
1 
1 
1 
1 
1 
1 
1 
1 
1 
1 
1 
1 
1 
1 
1 
1 
1 
1 
1 
1 
1 
1 
1 
1 
1 
1 
1 
1 
1 
1 
1 
1 
1 
1 
1 
1 
1 
1 
1 
1 
1 
1 
1 
1 
1 
1 
1 
1 
1 
1 
1 
1 
1 
1 
1 
1 
1 
1 
1 
1 
1 
1 
1 
1 
1 
1 
1 
1 
1 
1 
1 
1 
1 
1 
1 
1 
1 
1 
1 
1 
1 
1 
1 
1 
1 
1 
1 
1 
1 
1 
1 
1 
1 
1 
1 
1 
1 
1 
1 
1 
1 
1 
1 
1 
1 
1 
1 
1 
1 
1 
1 
1 
1 
1 
1 
1 
1 
1 
1 
1 
1 
1 
1 
1 
1 
1 
1 
1 
1 
1 
1 
1 
1 
1 
1 
1 
1 
1 
1 
1 
1 
1 
1 
1 
1 
1 
1 
1 
1 
1 
1 
1 
1 
1 
1 
1 
1 
1 
1 
1 
1 
1 
1 
1 
1 
1 
1 
1 
1 
1 
1 
1 
1 
1 
1 
1 
1 
1 
1 
1 
1 
1 
1 
1 
1 
1 
1 
1 
1 
1 
1 
1 
1 
1 
1 
1 
1 
1 
1 
1 
1 
1 
1 
1 
1 
1 
1 
1 
1 
1 
1 
1 
1 
1 
1 
1 
POINT_DATA 5000
VECTORS Stress float
-2872.48 -4829.24 0.
-3249.53 -4713.06 0.
-363.684 -636.827 0.
-233.45 -625.806 0.
-3481.35 -6844.91 0.
-648.266 -1451.94 0.
-3560.12 -4499.75 0.
-52.2924 -75.2023 0.
-202.696 -165.909 0.
-4024.52 -6316.93 0.
-1492.84 -2579.62 0.
-163.478 -319.165 0.
-1974.03 -3032.1 0.
-1556.06 -2464.99 0.
-1347.68 -2185.08 0.
-1072.83 -1870.52 0.
-798.546 -1555.4 0.
-808.334 -1638.1 0.
-639.839 -1374.11 0.
-473.987 -1107.47 0.
-527.605 -1059.75 0.
-473.952 -962.912 0.
-420.308 -866.063 0.
-448.604 -886.643 0.
-445.579 -933.649 0.
-445.531 -977.675 0.
-508.581 -1060.41 0.
-526.173 -1084.72 0.
-484.288 -1028.6 0.
-452.144 -978.865 0.
-420.662 -928.466 0.
-420.199 -915.909 0.
-409.461 -900.65 0.
-398.874 -885.241 0.
-384.113 -878.47 0.
-385.388 -906.803 0.
-392.787 -929.012 0.
-449.415 -979.583 0.
-454.66 -991.815 0.
-414.975 -961.03 0.
-386.692 -909.113 0.
-364.188 -851.418 0.
-350.671 -825.144 0.
-348.113 -824.241 0.
-346.468 -822.425 0.
-355.198 -813.304 0.
-343.873 -786.877 0.
-332.549 -760.45 0.
-295.459 -768.613 0.
-322.067 -866.855 0.
-356.551 -957.215 0.
-387.98 -921.156 0.
-358.347 -852.018 0.
-346.488 -810.886 0.
-365.084 -854.278 0.
-383.679 -897.67 0.
-401.112 -920.174 0.
-396.61 -906.399 0.
-393.689 -891.044 0.
-375.183 -878.939 0.
-384.596 -908.661 0.
-399.577 -932.815 0.
-453.666 -989.7 0.
-459.133 -1002.46 0.
-417.216 -973.321 0.
-409.707 -941.694 0.
-406.896 -905.37 0.
-410.378 -907.434 0.
-424.891 -939.087 0.
-441.952 -968.193 0.
-440.845 -989.194 0.
-477.706 -1051.15 0.
-515.303 -1112.37 0.
-575.339 -1182.33 0.
-558.865 -1161.12 0.
-533.826 -1135.55 0.
-482.154 -1009.45 0.
-479.703 -946.225 0.
-434.309 -921.43 0.
-520.649 -1094.7 0.
-607.042 -1267.91 0.
-543.97 -1325.05 0.
-860.253 -1891.64 0.
-1183.5 -2451.26 0.
-1194.58 -2044.16 0.
-1357.23 -1889.81 0.
-1496.8 -1758.54 0.
-1676.77 -2693.27 0.
-2535.29 -4267.14 0.
-83.7981 -143.254 0.
-967.388 -1825.01 0.
-4769.99 -7490.54 0.
-501.387 -949.478 0.
-645.488 -929.434 0.
-3332.21 -4088.35 0.
-21.217 -52.6783 0.
-3915.35 -5979.88 0.
-60.1517 -125.37 0.
-4330.86 -6524.1 0.
-769.993 -1335.26 0.
-2829.22 -5366.07 0.
3.83913 9.58692 0.
-0.381652 -1.08303 0.
-10.2044 -24.8205 0.
-587.243 -1380.17 0.
-255.556 -476.809 0.
-176.227 -301.776 0.
-97.9462 -82.8664 0.
-347.822 -206.707 0.
-99.5084 -133.415 0.
-96.2209 -128.942 0.
-189.439 -369.188 0.
-813.596 -1290.14 0.
-453.343 -663.817 0.
-523.785 -1013.47 0.
-308.951 -638.279 0.
-130.496 -226.714 0.
-528.149 -1181.29 0.
-386.041 -890.744 0.
-267.739 -576.396 0.
-434.523 -978.785 0.
-380.762 -882.039 0.
-329.247 -783.048 0.
-444.143 -812.254 0.
-439.989 -860.391 0.
-436.721 -907.636 0.
-585.386 -1110.65 0.
-597.954 -1139.98 0.
-462.161 -953.953 0.
-427.419 -906.81 0.
-394.609 -857.736 0.
-425.439 -899.771 0.
-414.301 -884.913 0.
-411.362 -861.854 0.
-366.89 -828.269 0.
-366.192 -858.575 0.
-369.185 -885.19 0.
-519.392 -1009.55 0.
-524.642 -1021.78 0.
-413.446 -908.39 0.
-383.955 -857.68 0.
-357.375 -804.058 0.
-342.218 -816.23 0.
-338.437 -816.552 0.
-334.925 -816.604 0.
-379.145 -815.246 0.
-364.477 -792.165 0.
-350.697 -768.195 0.
-245.984 -598.794 0.
-270.885 -698.757 0.
-301.944 -792.546 0.
-372.954 -914.683 0.
-344.695 -844.17 0.
-352.18 -801.571 0.
-374.277 -841.46 0.
-397.188 -880.536 0.
-413.412 -924.54 0.
-410.969 -908.708 0.
-408.827 -892.575 0.
-359.073 -823.257 0.
-370.74 -850.726 0.
-388.738 -871.864 0.
-525.36 -1020.4 0.
-530.824 -1033.16 0.
-400.895 -929.004 0.
-394.944 -895.818 0.
-393.717 -857.908 0.
-408.496 -874.905 0.
-416.741 -912.829 0.
-430.716 -945.021 0.
-387.895 -898.999 0.
-427.798 -957.92 0.
-468.613 -1015.93 0.
-647.627 -1243.22 0.
-635.947 -1217.22 0.
-405.71 -993.952 0.
-454.274 -921.449 0.
-452.782 -857.259 0.
-322.98 -761.978 0.
-409.816 -934.789 0.
-499.958 -1104.29 0.
-168.179 -345.66 0.
-393.698 -1003.64 0.
-655.882 -1624.95 0.
-256.945 -241.51 0.
-259.221 -242.846 0.
-240.795 -269.588 0.
-75.683 -94.2932 0.
-573.927 -1395.04 0.
-21.1616 -15.8361 0.
-110.76 -219.13 0.
-215.468 -509.474 0.
-392.464 -589.512 0.
-167.309 -378.229 0.
-233.778 -528.986 0.
-0.00217994 -0.713849 0.
-18.7174 -47.215 0.
3.24052 7.62439 0.
-6.67429 -12.3223 0.
-4.97956 -8.94428 0.
8.78111 19.409 0.
4.34388 10.6543 0.
0.131643 0.336526 0.
-0.279714 -2.40665 0.
-252.058 -611.384 0.
-299.822 -509.395 0.
-207.307 -258.197 0.
-177.959 -135.031 0.
-491.751 -273.854 0.
-50.2964 -34.8428 0.
-60.7594 -65.9599 0.
-339.676 -465.531 0.
-264.571 -251.382 0.
-136.014 -95.0389 0.
0.636563 0.380105 0.
0.561293 0.414046 0.
-1.11578 -1.05342 0.
-329.265 -643.178 0.
-218.818 -320.808 0.
-49.0771 -60.1967 0.
-400.106 -839.151 0.
-352.989 -735.748 0.
-309.474 -628.744 0.
-445.643 -731.904 0.
-441.507 -780.025 0.
-437.818 -827.69 0.
-674.316 -1148.76 0.
-686.883 -1178.09 0.
-458.888 -860.45 0.
-425.242 -812.208 0.
-392.513 -763.05 0.
-435.063 -879.249 0.
-430.102 -858.213 0.
-426.984 -835.333 0.
-357.208 -770.527 0.
-355.667 -801.676 0.
-355.004 -831.947 0.
-589.37 -1039.52 0.
-594.624 -1051.74 0.
-419.107 -848.56 0.
-390.038 -797.425 0.
-362.061 -745.199 0.
-347.465 -793.616 0.
-343.693 -793.93 0.
-340.188 -793.978 0.
-417.579 -802.703 0.
-402.608 -779.925 0.
-388.08 -756.703 0.
-195.734 -429.749 0.
-220.609 -529.753 0.
-1489.41 -1378.56 0.
-376.285 -889.853 0.
-353.061 -814.303 0.
-382.077 -768.05 0.
-403.995 -808.118 0.
-426.767 -847.331 0.
-445.349 -909.27 0.
-441.944 -894.401 0.
-439.551 -878.519 0.
-356.5 -754.038 0.
-370.573 -779.103 0.
-387.211 -801.603 0.
-597.055 -1051.09 0.
-602.515 -1063.86 0.
-398.539 -870.721 0.
-397.359 -832.763 0.
-397.228 -793.756 0.
-409.94 -839.049 0.
-418.958 -876.202 0.
-427.502 -913.829 0.
-357.108 -786.643 0.
-395.762 -846.817 0.
-435.329 -906.079 0.
-740.976 -1283.05 0.
-729.177 -1257.17 0.
-388.652 -830.318 0.
-430.558 -829.28 0.
-428.077 -766.075 0.
-293.718 -520.46 0.
-350.243 -723.62 0.
-420.553 -912.995 0.
-48.146 -79.5399 0.
-51.5495 -62.6494 0.
-282.632 -644.266 0.
-346.358 -293.384 0.
-113.326 -124.801 0.
-72.0349 -122.696 0.
-73.1174 -93.7028 0.
-66.9268 -78.368 0.
-39.0409 -32.1715 0.
-29.0027 -50.6869 0.
-163.014 -300.959 0.
-375.574 -490.996 0.
-127.121 -246.781 0.
-160.134 -346.189 0.
1.21302 3.26811 0.
-0.0212579 -2.54389 0.
-0.151827 -2.17318 0.
-0.889267 -6.93247 0.
-2688.81 -5161.16 0.
-3394.82 -7033.38 0.
4.75291 11.1707 0.
-0.898132 -17.9197 0.
-3624.56 -7344.38 0.
4.05421 8.43767 0.
-3075.79 -6141.75 0.
0.235621 0.601168 0.
-2645.03 -3781.08 0.
-61.7664 -133.969 0.
-3208.85 -5686.25 0.
-161.432 -154.115 0.
-76.9509 -83.672 0.
-4298.99 -8805.41 0.
-50.1776 -48.681 0.
-2424.62 -3981.95 0.
-1563.62 -2643.13 0.
-762.812 -1244.1 0.
-2162.4 -4176.06 0.
-1148.64 -2308.02 0.
-258.626 -316.209 0.
-1205.37 -2746.89 0.
-808.894 -1924.78 0.
-458.01 -1057.07 0.
-745.678 -1703.4 0.
-616.268 -1427.89 0.
-493.023 -1146.23 0.
-881.888 -1697.7 0.
-874.915 -1681.45 0.
-640.545 -1342.01 0.
-608.164 -1272.85 0.
-575.851 -1203.62 0.
-627.487 -1251.43 0.
-609.792 -1253.1 0.
-593.271 -1253.6 0.
-570.284 -1184.18 0.
-561.516 -1205.54 0.
-553.599 -1226.05 0.
-799.142 -1479.71 0.
-803.793 -1490.6 0.
-586.004 -1276.42 0.
-581.269 -1274.32 0.
-576.727 -1272.02 0.
-607.622 -1318.94 0.
-584.194 -1284.75 0.
-561.895 -1249.43 0.
-608.13 -1235.76 0.
-599.294 -1233.62 0.
-591.637 -1230.29 0.
-307.944 -793.957 0.
-304.348 -805.781 0.
-1993.73 -1844 0.
-494.625 -1171.54 0.
-508.108 -1178.17 0.
-603.993 -1259.58 0.
-594.996 -1227.27 0.
-587.631 -1193.34 0.
-572.281 -1213.82 0.
-598.957 -1259.5 0.
-626.635 -1304.18 0.
-579.334 -1274.07 0.
-602.757 -1321.92 0.
-626.346 -1369.6 0.
-858.107 -1602.66 0.
-854.079 -1593.25 0.
-589.861 -1322.29 0.
-598.382 -1293.68 0.
-608.1 -1263.87 0.
-586.8 -1321.34 0.
-605.496 -1327.82 0.
-624.963 -1333.53 0.
-549.435 -1269.37 0.
-591.288 -1354.4 0.
-633.24 -1439.33 0.
-902.734 -1859.04 0.
-931.058 -1925.16 0.
-477.199 -1152.22 0.
-712.42 -1699.29 0.
-942.471 -2185.85 0.
-444.453 -1052.26 0.
-973.226 -2284.72 0.
-1569.96 -3449.22 0.
-192.829 -318.251 0.
-1356.19 -3045.09 0.
-2659.28 -5632.16 0.
-540.739 -830.358 0.
-1386.01 -2021.8 0.
-2274.55 -3169.96 0.
-92.2004 -251.326 0.
-4529.18 -9092.31 0.
-0.389806 -1.06857 0.
-0.0865974 -0.200167 0.
-4555.41 -8501.73 0.
1.67939 3.18178 0.
-3539.66 -5656.24 0.
0.408987 0.761529 0.
-3971.31 -6931.19 0.
-4.6265 -17.4571 0.
-2492.34 -4935.17 0.
5.15937 10.4798 0.
-6.60769 -15.5341 0.
20.0828 45.4293 0.
14.7889 36.8149 0.
-117.583 -265.453 0.
-1203.2 -2416.89 0.
-0.619372 -4.42728 0.
-211.055 -577.567 0.
0.839041 2.21519 0.
0.349187 0.677509 0.
-5.56935 -13.3468 0.
-389.516 -727.845 0.
-113.389 -116.644 0.
-157.031 -123.048 0.
-53.5923 -40.1312 0.
-43.1849 -42.7831 0.
-111.21 -150.859 0.
-88.3855 -98.6422 0.
-91.8461 -65.0466 0.
-326.592 -317.473 0.
-22.2711 -11.729 0.
-71.7992 -30.0323 0.
-655.046 -1517.89 0.
-322.349 -630.871 0.
-47.2885 -57.9377 0.
-581.559 -1369.79 0.
-472.162 -1074.17 0.
-370.955 -770.361 0.
-847.775 -1683.12 0.
-840.799 -1666.87 0.
-649.077 -1312.02 0.
-614.421 -1245.13 0.
-580.03 -1177.98 0.
-628.791 -1175.57 0.
-611.29 -1177.04 0.
-594.669 -1177.64 0.
-596.134 -1134.16 0.
-586.567 -1156.32 0.
-577.831 -1177.65 0.
-824.952 -1490.75 0.
-829.6 -1501.64 0.
-591.907 -1247.53 0.
-588.211 -1244.38 0.
-584.723 -1241.03 0.
-647.092 -1269.52 0.
-624.305 -1234.69 0.
-602.632 -1198.75 0.
-613.308 -1176.12 0.
-603.998 -1174.46 0.
-595.938 -1171.54 0.
-259.18 -672.627 0.
-255.897 -684.14 0.
-2533.26 -2068.71 0.
-493.29 -1040.64 0.
-507.023 -1047.02 0.
-633.598 -1222.68 0.
-624.852 -1190.12 0.
-616.805 -1156.86 0.
-572.031 -1148.31 0.
-598.635 -1194.06 0.
-626.21 -1238.85 0.
-614.314 -1252.11 0.
-637.631 -1300.06 0.
-661.112 -1347.85 0.
-888.297 -1615.58 0.
-884.266 -1606.17 0.
-589.709 -1253.38 0.
-599.389 -1223.61 0.
-610.086 -1192.82 0.
-572.515 -1238.89 0.
-589.86 -1246.71 0.
-610.378 -1251.37 0.
-540.889 -1233.2 0.
-583.109 -1317.87 0.
-625.628 -1402.23 0.
-831.409 -1781.88 0.
-874.767 -1832.97 0.
-340.924 -600.098 0.
-499.613 -1130.32 0.
-698.542 -1648.3 0.
-64.0563 -156.762 0.
-126.988 -153.879 0.
-635.44 -1409.39 0.
-113.473 -128.054 0.
-118.358 -150.547 0.
-301.173 -540.468 0.
-90.9101 -203.041 0.
-50.7924 -117.962 0.
-102.864 -176.701 0.
-2.97371 -4.3649 0.
-82.7156 -210.381 0.
-0.016883 -1.0619 0.
-0.0456412 -0.537956 0.
0.752259 1.33574 0.
-0.844138 -9.21435 0.
3.53876 6.6314 0.
5.01136 9.87107 0.
2.17526 3.66002 0.
6.47518 10.9878 0.
-95.2434 -210.183 0.
0.0407462 38.8246 0.
-1898.4 -3920.86 0.
-2447.11 -4728.28 0.
-5.03579 -45.734 0.
-3700.18 -7876.53 0.
-0.112762 -45.1786 0.
5.67639 11.8324 0.
-257.893 -702.532 0.
1.42574 3.83389 0.
-3669.32 -8114 0.
-553.287 -1182.89 0.
-3325.22 -5232.61 0.
-2.84869 -7.05149 0.
-20.9507 -57.4571 0.
-3963.65 -9537.6 0.
-41.6167 -56.5819 0.
-3063.27 -4549.22 0.
-1074.07 -1258.18 0.
-1.87286 -1.07907 0.
-2995.6 -6040.48 0.
-1166.8 -2071.38 0.
-106.67 -42.5071 0.
-2042.53 -4337.68 0.
-1024.39 -2275.06 0.
-141.819 -76.8469 0.
-1167.01 -2546.65 0.
-734.482 -1619.21 0.
-329.093 -664.631 0.
-919.299 -1746.36 0.
-778.676 -1508.89 0.
-556.413 -1111.33 0.
-492.384 -991.415 0.
-429.217 -870.64 0.
-488.652 -848.231 0.
-471.133 -827.072 0.
-454.102 -805.425 0.
-457.131 -791.824 0.
-445.414 -774.845 0.
-433.853 -757.711 0.
-669.33 -1094.68 0.
-661.127 -1075.54 0.
-421.321 -737.123 0.
-422.393 -748.177 0.
-423.601 -759.093 0.
-492.511 -800.221 0.
-490.118 -802.155 0.
-488.338 -803.475 0.
-500.364 -828.603 0.
-517.784 -868.601 0.
-535.468 -908.334 0.
-130.811 -358.494 0.
-105.198 -288.081 0.
-2416.34 -1689.82 0.
-361.569 -597.936 0.
-380.458 -647.413 0.
-527.89 -895.345 0.
-521.931 -880.517 0.
-528.062 -853.598 0.
-468.428 -809.174 0.
-473.196 -815.131 0.
-478.178 -820.876 0.
-464.193 -798.851 0.
-457.88 -778.051 0.
-451.591 -757.228 0.
-674.051 -1101.03 0.
-690.029 -1138.28 0.
-408.339 -765.951 0.
-428.35 -802.393 0.
-448.492 -838.705 0.
-437.013 -870.565 0.
-462.906 -910.106 0.
-488.98 -949.465 0.
-428.741 -956.545 0.
-538.4 -1177.23 0.
-648.138 -1397.83 0.
-858.533 -1776.78 0.
-1054.34 -2091.19 0.
-292.293 -530.81 0.
-829.344 -1835.12 0.
-1404.25 -3069.74 0.
-24.9562 -53.2157 0.
-1001.72 -2371.32 0.
-2490.71 -5663.4 0.
-235.384 -276.84 0.
-804.126 -1196.51 0.
-2647.02 -4510.01 0.
-138.433 -382.264 0.
-4151.27 -8996.53 0.
-55.6356 -113.541 0.
-88.6615 -149.032 0.
-3496.62 -5885.74 0.
-22.8249 -39.4547 0.
-3900.56 -7717.66 0.
-0.160102 -4.08091 0.
-3087.51 -7634.93 0.
-1.21453 -20.1395 0.
-1.39041 -8.53948 0.
7.28742 12.9062 0.
11.2144 18.4805 0.
-2077.44 -4610.71 0.
7.02648 18.5345 0.
-12.188 -23.5766 0.
-25.8731 -47.0738 0.
43.9569 114.468 0.
-4.79886 -11.3929 0.
13.6486 36.239 0.
-0.189078 -1.28419 0.
-727.244 -1397.74 0.
-2879.08 -6646.26 0.
-0.0132729 -9.53602 0.
-276.683 -746.233 0.
-0.0977849 -4.18018 0.
0.0211225 0.0426359 0.
-8.74072 -22.6472 0.
-49.2814 -89.3482 0.
-18.0616 -24.9217 0.
-2.30848 -2.15061 0.
-34.0458 -20.9873 0.
-0.563295 -0.358107 0.
-0.529055 -0.165383 0.
-4.9679 -2.36519 0.
-137.17 -64.1447 0.
-437.521 -821.169 0.
-21.5985 -14.5336 0.
-30.0591 -18.917 0.
-674.143 -1518.47 0.
-304.534 -527.034 0.
-18.5063 -6.72585 0.
-665.032 -1309.6 0.
-541.095 -1055.31 0.
-450.044 -949.175 0.
-395.758 -819.495 0.
-344.405 -686.883 0.
-440.925 -776.219 0.
-425.716 -752.752 0.
-408.698 -731.094 0.
-459.581 -752.724 0.
-445.683 -737.928 0.
-434.015 -720.903 0.
-678.397 -1098.54 0.
-670.195 -1079.4 0.
-418.127 -712.72 0.
-419.107 -723.868 0.
-420.241 -734.861 0.
-485.909 -740.592 0.
-483.994 -742.054 0.
-482.721 -742.874 0.
-482.012 -797.274 0.
-499.708 -837.004 0.
-517.593 -876.545 0.
-119.759 -331.025 0.
-94.3083 -260.448 0.
-1997.18 -1505.09 0.
-367.408 -572.211 0.
-385.991 -621.996 0.
-523.859 -854.929 0.
-517.527 -840.475 0.
-511.605 -825.61 0.
-459.325 -763.245 0.
-464.317 -768.977 0.
-470.479 -773.539 0.
-443.608 -782.977 0.
-437.874 -761.596 0.
-432.266 -740.09 0.
-659.22 -1094.65 0.
-675.195 -1131.9 0.
-393.319 -722.692 0.
-413.256 -759.21 0.
-438.611 -790.309 0.
-390.855 -780.493 0.
-416.674 -820.109 0.
-442.237 -859.98 0.
-326.859 -672.952 0.
-413.489 -916.732 0.
-507.128 -1153.5 0.
-513.131 -1103.25 0.
-680.075 -1446.8 0.
-17.2246 -44.1931 0.
-190.61 -257.375 0.
-687.911 -1571.69 0.
-30.842 -46.0546 0.
-36.6624 -49.3607 0.
-335.434 -640.06 0.
-62.2591 -99.2743 0.
-96.0069 -103.95 0.
-107.955 -138.333 0.
0.00104868 0.045866 0.
-139.497 -385.807 0.
-0.270865 -1.31924 0.
1.28096 1.91392 0.
-1.29702 -2.17156 0.
-0.0407752 -0.435453 0.
-103.141 -227.07 0.
3.59842 9.70601 0.
-231.974 -625.033 0.
-41.2119 -110.833 0.
-2043.53 -5360.6 0.
11.168 19.4062 0.
-0.247754 -24.8786 0.
5.34857 14.3638 0.
-14.9673 -36.9016 0.
-3637.96 -6219.13 0.
-38.4829 -123.511 0.
-23.3528 -57.6024 0.
36.962 84.8915 0.
-1.61771 -45.4401 0.
-1.85839 -64.3842 0.
-192.632 -397.137 0.
-2.44362 -5.73453 0.
5.35104 14.8134 0.
-119.403 -329.708 0.
-0.158001 -2.04164 0.
0.407409 0.731528 0.
-1.83146 -4.29576 0.
-74.1089 -117.607 0.
-60.4227 -75.3972 0.
-41.8105 -40.4471 0.
-37.1656 -25.2489 0.
-0.619112 -0.275361 0.
0.0921314 0.0428173 0.
-26.4408 -9.55449 0.
-199.253 -103.842 0.
-19.3055 -14.8618 0.
-18.4877 -13.1609 0.
-26.1365 -16.9912 0.
-287.805 -383.762 0.
-70.4644 -26.1865 0.
-61.2518 -22.1709 0.
-459.631 -823.983 0.
-353.027 -552.227 0.
-367.587 -763.11 0.
-319.491 -627.216 0.
-272.814 -489.904 0.
-398.83 -698.575 0.
-381.39 -677.341 0.
-364.619 -655.437 0.
-470.078 -705.577 0.
-455.763 -691.2 0.
-441.69 -676.582 0.
-687.464 -1102.39 0.
-679.262 -1083.26 0.
-415.577 -687.673 0.
-416.457 -698.922 0.
-417.496 -710.013 0.
-480.043 -680.226 0.
-478.68 -681.143 0.
-477.633 -681.745 0.
-468.664 -760.941 0.
-486.417 -800.622 0.
-504.258 -840.214 0.
-109.384 -302.879 0.
-83.8911 -232.343 0.
-2114.72 -1567.96 0.
-376.966 -542.766 0.
-395.245 -592.857 0.
-520.093 -814.248 0.
-513.567 -799.989 0.
-507.226 -785.544 0.
-456.416 -711.123 0.
-461.353 -716.908 0.
-466.745 -722.238 0.
-435.964 -754.162 0.
-430.354 -732.655 0.
-424.898 -710.994 0.
-644.389 -1088.27 0.
-660.36 -1125.52 0.
-386.953 -670.78 0.
-412.114 -702.074 0.
-437.408 -733.236 0.
-357.69 -677.429 0.
-384.465 -716.089 0.
-410.172 -755.818 0.
-245.019 -369.316 0.
-326.421 -618.392 0.
-410.91 -864.382 0.
-232.79 -364.656 0.
-375.42 -732.791 0.
-35.4497 -60.5441 0.
-19.9548 -39.3557 0.
-32.0934 -66.3457 0.
-40.4095 -50.1404 0.
-49.1386 -68.9685 0.
-88.3941 -117.748 0.
-60.5792 -95.9859 0.
-94.096 -102.19 0.
-108.087 -141.019 0.
0.0144946 0.889501 0.
-13.809 -38.2256 0.
-0.345647 -2.56088 0.
-0.953444 -3.42737 0.
-0.523875 -1.20096 0.
-0.0430838 -1.83151 0.
-63.4056 -154.925 0.
0.173345 0.47907 0.
-310.738 -854.303 0.
-1.27444 -3.40136 0.
9.32599 24.5751 0.
-2249.33 -5105.3 0.
-0.221869 -12.7282 0.
-3.0746 -8.01915 0.
52.8076 124.951 0.
-41.9683 -73.9203 0.
59.5716 92.8421 0.
-338.472 -845.208 0.
-2357.72 -5260.01 0.
-0.166815 -13.7412 0.
28.6345 73.9383 0.
-756.142 -1613.9 0.
8.8511 20.8029 0.
-0.0660271 -24.0715 0.
-47.3233 -127.59 0.
-38.3794 -91.9487 0.
-3549.84 -7517.96 0.
-6.64639 -15.151 0.
-2835.66 -6742.31 0.
-18.0944 -11.1388 0.
-0.195233 -0.131505 0.
-4151.25 -8718.57 0.
-39.3882 -32.6355 0.
-2879.86 -4505.04 0.
-168.86 -150.76 0.
-94.9548 -77.8261 0.
-3184.14 -7459.05 0.
-319.438 -501.313 0.
-1.13901 -0.696999 0.
-1990.2 -4556.95 0.
-793.256 -1753.42 0.
-59.0117 -21.3737 0.
-1253.67 -2791.69 0.
-809.871 -1867.1 0.
-878.532 -1998.4 0.
-649.838 -1501.35 0.
-438.423 -987.015 0.
-642.593 -1371.87 0.
-556.085 -1217.3 0.
-470.382 -1061.92 0.
-628.665 -1152.27 0.
-591.982 -1102.94 0.
-556.171 -1052.74 0.
-859.897 -1557.96 0.
-853.781 -1543.71 0.
-573.812 -1119.95 0.
-557.045 -1089.35 0.
-540.878 -1058.16 0.
-558.409 -1036.78 0.
-562.374 -1050.18 0.
-566.663 -1063.25 0.
-578.117 -1109.51 0.
-574.879 -1116.42 0.
-577.116 -1117.85 0.
-243.26 -673.279 0.
-244.942 -678.405 0.
-2021.16 -1941.58 0.
-549.811 -992.09 0.
-542.59 -974.475 0.
-585.781 -1108.87 0.
-586.363 -1108.21 0.
-597.153 -1097.34 0.
-560.795 -1062.2 0.
-571.527 -1084.11 0.
-582.397 -1105.89 0.
-554.813 -1130.14 0.
-565.41 -1147.15 0.
-577.863 -1162.3 0.
-821.973 -1578.01 0.
-841.542 -1623.66 0.
-534.413 -1093.45 0.
-591.16 -1187.02 0.
-649.132 -1279.37 0.
-461.831 -1114.28 0.
-578.422 -1368.67 0.
-702.104 -1615.96 0.
-418.013 -978.298 0.
-691.555 -1695.9 0.
-1002.24 -2376.35 0.
-875.251 -2011.19 0.
-1526.09 -3488.36 0.
-45.0078 -93.0374 0.
-751.3 -1703.45 0.
-2404.83 -5552.43 0.
-76.6739 -133.351 0.
-62.7648 -74.7539 0.
-3471.26 -8276.72 0.
-7.68079 -7.54765 0.
-67.2544 -178.717 0.
-3347.52 -6204.68 0.
0.0127359 0.47817 0.
-3912.92 -9397.17 0.
1.31107 2.74467 0.
-0.670643 -1.36707 0.
-3066.88 -6007.29 0.
1.42071 3.74229 0.
-2243.38 -5249.15 0.
-46.5853 -128.785 0.
8.92303 24.4772 0.
-1.68883 -4.47562 0.
-41.607 -111.027 0.
-10.67 -29.4931 0.
-0.840376 -35.0804 0.
4.05255 10.264 0.
-8.27013 -19.9267 0.
-116.376 -209.177 0.
14.8138 26.7837 0.
-2.95957 -7.37931 0.
-11.5684 -29.0621 0.
34.0524 89.3507 0.
-6.08028 -15.6295 0.
-2071.82 -4569.72 0.
20.7643 54.1349 0.
-678.428 -1564.96 0.
-2608.06 -5422.53 0.
6.86301 16.4619 0.
-237.097 -573.685 0.
-0.0297727 -2.97965 0.
-175.001 -270.406 0.
-42.687 -24.3079 0.
-16.9167 -8.22765 0.
-0.175085 -0.122614 0.
-25.3355 -25.8197 0.
-36.8808 -50.6866 0.
-29.1429 -37.4148 0.
-24.1907 -26.8884 0.
-72.577 -51.3797 0.
-39.8031 -22.0032 0.
-1.53427 -0.877026 0.
-526.825 -960.897 0.
-68.059 -24.6285 0.
-68.8001 -24.8396 0.
-670.56 -1477.93 0.
-278.903 -499.854 0.
-561.485 -1286.8 0.
-364.012 -758.144 0.
-183.129 -212.895 0.
-492.311 -1143.41 0.
-418.052 -976.543 0.
-354.337 -799.132 0.
-564.633 -1037.63 0.
-528.715 -987.528 0.
-493.572 -936.655 0.
-831.568 -1545.78 0.
-825.451 -1531.53 0.
-563.237 -1045.67 0.
-546.649 -1014.9 0.
-530.627 -983.563 0.
-525.34 -982.874 0.
-528.859 -996.729 0.
-532.691 -1010.27 0.
-545.439 -1064.21 0.
-547.688 -1065.63 0.
-550.13 -1066.86 0.
-245.43 -679.419 0.
-247.142 -684.517 0.
-1857.07 -1868.73 0.
-561.003 -994.587 0.
-553.768 -976.986 0.
-556.57 -1050.52 0.
-556.937 -1050.07 0.
-557.705 -1049.22 0.
-547.936 -1020.5 0.
-557.32 -1043.76 0.
-567.907 -1065.82 0.
-539.463 -1041.84 0.
-550.801 -1058.1 0.
-563.017 -1073.49 0.
-784.605 -1558.51 0.
-808.411 -1599.93 0.
-482.04 -957.672 0.
-537.788 -1052.26 0.
-594.707 -1145.68 0.
-302.203 -701.396 0.
-399.637 -975.051 0.
-508.247 -1237.53 0.
-14.8297 -38.9611 0.
-289.881 -646.99 0.
-561.464 -1367.3 0.
-114.256 -95.3298 0.
-724.927 -1615.63 0.
-75.0977 -85.8462 0.
-66.8786 -68.2951 0.
-133.978 -152.026 0.
-164.113 -159.686 0.
-91.4797 -99.4656 0.
-107.542 -142.548 0.
-0.0182878 -0.0262883 0.
0.0569782 0.235431 0.
-56.8943 -155.567 0.
-0.00027897 -0.0400916 0.
1.09933 2.76539 0.
-0.083177 -0.910882 0.
0.476777 1.04801 0.
3.16304e-05 0.420505 0.
2.26002 6.01943 0.
5.74784 15.7747 0.
-1588.17 -4345.16 0.
-0.120126 -20.5182 0.
-0.552516 -24.4774 0.
-167.33 -447.653 0.
16.1709 44.5698 0.
-0.00615415 -1.66513 0.
-2047.62 -5072.08 0.
57.8193 141.526 0.
-1550.58 -2878.02 0.
-66.2908 -123.288 0.
61.7225 155.924 0.
-4.02124 -106.102 0.
9.2772 23.7876 0.
-2189.83 -5599.8 0.
-0.0710537 -11.0471 0.
-1.09428 -34.4445 0.
-1022.05 -2444.22 0.
11.0104 27.6787 0.
4.85301 11.6728 0.
-8.25823e-06 -23.7103 0.
-4.19214e-05 -1.35949 0.
-0.688821 -9.03334 0.
-80.4996 -43.0888 0.
-425.792 -556.496 0.
-2191.53 -4803.72 0.
-61.2028 -145.009 0.
-3065.79 -5315.76 0.
-57.3839 -156.169 0.
-11.5157 -31.0253 0.
-3172.2 -8038.67 0.
-0.750379 -0.000545359 0.
0.636853 0.230118 0.
-2600.73 -5685.32 0.
-432.793 -654.33 0.
-29.4055 -11.3061 0.
-1702.01 -3875.94 0.
-804.55 -1772.43 0.
-1104.39 -2451.34 0.
-692.31 -1550.24 0.
-308.5 -620.859 0.
-775.465 -1705.6 0.
-562.753 -1283.55 0.
-367.912 -843.631 0.
-590.619 -1122.96 0.
-467.789 -864.383 0.
-339.886 -610.878 0.
-678.702 -1269.3 0.
-646.626 -1207.55 0.
-428.96 -639.256 0.
-436.442 -663.275 0.
-444.136 -687.082 0.
-429.555 -731.518 0.
-425.692 -721.169 0.
-422.268 -710.384 0.
-437.946 -755.392 0.
-429.795 -729.51 0.
-421.9 -703.371 0.
-124.924 -344.098 0.
-109.617 -301.152 0.
-1552.93 -1350.66 0.
-414.953 -593.847 0.
-421.202 -613.88 0.
-415.972 -663.365 0.
-430.53 -705.987 0.
-445.155 -748.541 0.
-433.866 -719.64 0.
-433.739 -721.283 0.
-435.319 -721.218 0.
-418.152 -675.992 0.
-438.33 -718.837 0.
-458.97 -761.222 0.
-622.345 -1298.27 0.
-657.808 -1345.36 0.
-311.126 -597.758 0.
-478.462 -949.134 0.
-643.564 -1302.74 0.
-316.552 -771.581 0.
-592.786 -1458.8 0.
-898.492 -2116.55 0.
-236.598 -464.637 0.
-718.406 -1636.3 0.
-1246.14 -2762.03 0.
-763.502 -1653.71 0.
-2035.99 -4748.82 0.
-71.2416 -82.7789 0.
-72.6053 -83.8167 0.
-2908.17 -7094.75 0.
-127.376 -183.433 0.
-33.9384 -73.1786 0.
-2457.83 -4098.82 0.
-0.482787 -1.00428 0.
-3819.28 -9270.26 0.
0.00921481 1.10601 0.
-0.00299852 -0.900694 0.
-2450.65 -6634.31 0.
-0.07616 -1.31703 0.
0.655394 1.52967 0.
-0.000144588 -4.7669 0.
-0.0135813 -1.04224 0.
6.21244 16.9619 0.
-2.41612 -6.66426 0.
-508.579 -1331.69 0.
-0.519732 -39.1934 0.
-290.623 -777.365 0.
-17.319 -47.5413 0.
35.6637 97.7201 0.
-1.17463 -2.80229 0.
-1169.6 -2814.02 0.
-20.0643 -313.158 0.
-1339.41 -2561.19 0.
52.6301 134.44 0.
9.40223 24.1223 0.
-865.729 -2333.88 0.
43.1407 116.299 0.
-0.357524 -46.2624 0.
-409.954 -1064.18 0.
-2189.14 -5364.01 0.
11.6697 30.0863 0.
-1.62669 -25.7955 0.
-0.00445504 -3.45696 0.
-2923.19 -6964.38 0.
-0.219161 -8.18144 0.
-2938.07 -6751.72 0.
-20.1885 -45.8669 0.
-0.284907 -1.34155 0.
-0.0480887 -2.01877 0.
-0.0149011 -0.533101 0.
-50.6867 -120.258 0.
-8.31744 -9.53113 0.
-47.3481 -26.0604 0.
-26.3373 -10.6345 0.
-0.371948 -0.134286 0.
-0.475409 -0.172095 0.
-7.18854 -2.65733 0.
-15.1068 -5.50017 0.
-619.383 -1285.6 0.
-49.7945 -30.961 0.
-512.959 -1148.77 0.
-148.846 -198.405 0.
-34.0882 -30.5318 0.
-474.638 -1093.25 0.
-291.543 -641.286 0.
-139.43 -158.338 0.
-443.508 -929.549 0.
-324.872 -666.71 0.
-220.44 -400.917 0.
-597.535 -1172.22 0.
-557.031 -1118.89 0.
-391.354 -583.856 0.
-398.974 -607.741 0.
-406.681 -631.54 0.
-387.56 -669.305 0.
-384.3 -658.358 0.
-381.665 -646.785 0.
-405.961 -733.869 0.
-397.698 -708.099 0.
-389.622 -682.141 0.
-138.244 -380.141 0.
-122.488 -337.644 0.
-1007.06 -1112.22 0.
-417.94 -611.165 0.
-423.115 -632.271 0.
-393.102 -638.656 0.
-407.646 -681.294 0.
-422.352 -723.769 0.
-383.489 -647.57 0.
-382.44 -650.136 0.
-382.466 -651.628 0.
-373.484 -601.951 0.
-393.514 -644.946 0.
-413.987 -687.499 0.
-523.778 -1177.25 0.
-562.976 -1220.63 0.
-158.771 -292.516 0.
-296.875 -672.089 0.
-449.686 -1038.11 0.
-17.7542 -43.6553 0.
-254.897 -582.906 0.
-512.58 -1289.28 0.
-8.39747 -18.0759 0.
-1.46474 -3.70378 0.
-461.158 -919.029 0.
-57.9893 -71.0421 0.
-620.963 -1199.62 0.
-34.9266 -48.0851 0.
-32.7884 -42.5638 0.
-190.353 -310.708 0.
-0.00514389 -0.00706466 0.
-2.9194 -4.4611 0.
-29.5691 -81.3238 0.
0.0195891 0.15904 0.
-126.616 -346.795 0.
-0.122589 -4.85673 0.
1.07906 2.8994 0.
0.61114 1.66718 0.
2.22008 6.03176 0.
-2784.53 -6783.08 0.
-0.241348 -15.7074 0.
-0.0451979 -4.14231 0.
5.13465 13.9513 0.
-0.000623659 -0.00172467 0.
-451.872 -1203.68 0.
-48.7689 -132.372 0.
-390.566 -1045.58 0.
-123.362 -337.42 0.
43.8398 120.142 0.
-8.11428 -132.332 0.
-1181.34 -2757.42 0.
-23.9103 -342.587 0.
-9.63175 -119.514 0.
-964.36 -2485.98 0.
43.4163 112.204 0.
27.1019 74.365 0.
5.89203 15.9649 0.
6.52721 17.7027 0.
-739.409 -1944.8 0.
26.5882 73.6195 0.
11.0658 29.0198 0.
-2804.26 -7184.94 0.
6.46241 17.558 0.
-144.396 -367.146 0.
3.9403 10.5655 0.
-137.98 -310.571 0.
0.800878 2.14422 0.
1.31539 2.81363 0.
1.57775 4.18046 0.
-0.00307148 -0.453545 0.
-54.7569 -92.9689 0.
-7.92341 -7.01665 0.
-84.3736 -45.9069 0.
-65.4854 -28.5669 0.
-42.9222 -15.9671 0.
-15.8154 -6.03068 0.
-13.0412 -5.21125 0.
-23.8791 -9.0024 0.
-44.9179 -21.4752 0.
-50.4918 -31.1611 0.
-20.2569 -24.7254 0.
-20.282 -24.9801 0.
-28.8282 -28.4836 0.
-227.304 -427.411 0.
-32.5464 -29.0363 0.
-31.8555 -25.7002 0.
-310.542 -721.993 0.
-206.426 -444.566 0.
-136.955 -247.996 0.
-525.191 -1066.32 0.
-485.792 -1011.87 0.
-351.714 -530.49 0.
-361.269 -552.444 0.
-369.841 -575.383 0.
-347.754 -604.904 0.
-345.791 -592.662 0.
-344.295 -579.953 0.
-376.105 -710.217 0.
-367.985 -684.304 0.
-359.903 -658.353 0.
-151.871 -415.877 0.
-135.635 -373.86 0.
-900.109 -1064.81 0.
-448.789 -600.62 0.
-453.786 -621.903 0.
-371.177 -613.003 0.
-385.786 -655.577 0.
-400.281 -698.266 0.
-341.817 -566.795 0.
-339.477 -570.655 0.
-337.439 -574.211 0.
-329.367 -527.359 0.
-349.042 -570.712 0.
-367.474 -615.307 0.
-436.689 -1044.76 0.
-473.818 -1090.21 0.
-64.2803 -53.3599 0.
-178.614 -331.717 0.
-310.254 -719.04 0.
-30.0944 -60.4049 0.
-22.5313 -34.3358 0.
-206.332 -382.356 0.
-20.7329 -34.4631 0.
-7.39005 -13.6803 0.
-7.96966 -16.6081 0.
-85.6442 -89.8928 0.
-87.802 -96.6464 0.
-28.6161 -47.8533 0.
-38.3771 -41.0791 0.
-52.2492 -73.1567 0.
-0.0944956 -0.221484 0.
-4.1715 -8.2589 0.
-30.7043 -81.387 0.
0.0849106 0.788951 0.
-86.0143 -229.286 0.
0.0652889 1.38496 0.
0.88562 2.30628 0.
-0.0426448 -2.83167 0.
-0.00918814 -4.23387 0.
-8.70562 -22.5843 0.
7.77859 21.0242 0.
-2556.96 -6107.96 0.
-912.687 -2446.39 0.
9.4784 25.9865 0.
-473.056 -1273.2 0.
-20.6213 -55.3736 0.
-0.158722 -110.061 0.
-1377.54 -3756.64 0.
-16.9003 -46.326 0.
19.2809 47.266 0.
-1167.71 -2679.12 0.
-7.41485 -99.2981 0.
-5.33541 -12.7215 0.
-15.9512 -42.3717 0.
-3.81906 -149.169 0.
5.32096 14.6286 0.
14.2357 38.7396 0.
-610.66 -1690.06 0.
-174.335 -481.116 0.
11.4955 31.8383 0.
4.58114 12.1535 0.
-9.82688 -26.9538 0.
4.40686 12.0842 0.
-21.29 -55.4674 0.
3.18657 8.68418 0.
-0.00302085 -0.00752648 0.
-70.4617 -167.617 0.
-2542.73 -5561.08 0.
-14.1058 -29.0243 0.
0.186369 2.03993 0.
-3279.15 -7343.42 0.
-43.1536 -76.5385 0.
-2276.96 -4905.78 0.
-77.6934 -132.585 0.
-38.5653 -50.3059 0.
-2640.54 -6275.37 0.
-9.37736 -5.4052 0.
0.14076 0.0728335 0.
-2229.16 -5480.05 0.
-296.152 -471.002 0.
-1578.69 -3526.89 0.
-709.579 -1557.27 0.
-37.0473 -63.7758 0.
-1116.72 -2751.9 0.
-617.644 -1552.89 0.
-160.285 -312.154 0.
-747.55 -1893.73 0.
-499.517 -1300.59 0.
-278.306 -680.632 0.
-718.12 -1763.08 0.
-639.363 -1606.96 0.
-546.048 -1155.74 0.
-501.722 -1051.77 0.
-458.05 -947.145 0.
-451.957 -947.874 0.
-441.237 -923.791 0.
-432.291 -897.935 0.
-465.074 -1009.04 0.
-451.854 -969.088 0.
-438.954 -928.816 0.
-277.156 -765.646 0.
-269.802 -746.75 0.
-865.953 -1362.89 0.
-606.325 -976.21 0.
-602.454 -968.504 0.
-423.083 -866.281 0.
-455.983 -955.107 0.
-489.726 -1043.09 0.
-449.934 -945.615 0.
-462.026 -979.125 0.
-476.15 -1010.6 0.
-404.424 -958.627 0.
-460.926 -1092.78 0.
-519.691 -1224.66 0.
-639.788 -1620.39 0.
-762.399 -1882.87 0.
-275.187 -596.4 0.
-570.758 -1447.52 0.
-896.898 -2268.08 0.
-19.1132 -36.7642 0.
-646.874 -1633.81 0.
-1308.28 -3241.99 0.
-27.9998 -61.2938 0.
-725.069 -1507.09 0.
-1890.28 -4176.49 0.
-4.67716 -9.61121 0.
-2555.39 -6151.27 0.
-2.14622 -5.29082 0.
-62.7012 -142.528 0.
-2887.33 -7470.63 0.
-0.0697822 -0.204057 0.
-0.205253 -0.635372 0.
-2789.09 -5651.8 0.
-0.00334159 -0.376424 0.
-2170.12 -4856.93 0.
1.84649 5.07383 0.
-2533.24 -6628.41 0.
4.1844 11.1925 0.
-7.45357e-07 -0.00190678 0.
0.0293158 6.47494 0.
-0.128621 -16.5015 0.
2.57391 7.10936 0.
-744.231 -2011.64 0.
17.2946 47.4594 0.
-590.344 -1599.67 0.
-0.0729306 -0.193924 0.
24.5623 67.7244 0.
-18.15 -49.8932 0.
-279.049 -765.187 0.
-18.3248 -45.4086 0.
-65.1106 -148.417 0.
-5617.34 -12823.6 0.
-0.0435778 -163.679 0.
-27.1835 -71.681 0.
41.99 110.613 0.
7.66662 21.1156 0.
18.8237 51.417 0.
-1431.06 -3962.54 0.
14.5248 40.1474 0.
0.478771 1.32611 0.
-747.083 -2003.82 0.
-2.35332 -6.48419 0.
-0.114183 -49.717 0.
20.6909 55.9951 0.
-1366.31 -3431.11 0.
-1753.08 -4168.04 0.
3.75647 9.34851 0.
0.00529767 1.77867 0.
0.0673328 0.802005 0.
-0.0552691 -1.65131 0.
-115.145 -195.098 0.
-29.1147 -46.8191 0.
-61.0492 -155.754 0.
-25.4751 -70.4132 0.
0.0501032 0.210793 0.
-17.5306 -12.5939 0.
-2.02613 -1.07277 0.
0.416595 0.215245 0.
-136.051 -119.553 0.
-26.0314 -12.9695 0.
-304.813 -561.654 0.
-20.921 -24.1214 0.
-19.8134 -33.943 0.
-542.727 -1333.9 0.
-85.0378 -91.7398 0.
-53.9395 -43.3747 0.
-505.053 -1333.35 0.
-285.968 -710.913 0.
-75.3988 -99.1359 0.
-582.999 -1475.27 0.
-514.132 -1309.21 0.
-468.795 -1027.79 0.
-424.974 -923.298 0.
-381.735 -818.227 0.
-421.263 -890.026 0.
-411.63 -864.856 0.
-403.552 -838.131 0.
-441.464 -945.727 0.
-428.48 -905.537 0.
-415.82 -865.023 0.
-281.698 -777.792 0.
-274.11 -759.13 0.
-636.371 -1262.05 0.
-636.044 -995.316 0.
-632.237 -987.547 0.
-375.045 -788.833 0.
-407.053 -878.56 0.
-439.988 -967.361 0.
-410.509 -856.707 0.
-421.223 -891.598 0.
-433.324 -925.102 0.
-315.664 -747.611 0.
-364.476 -889.48 0.
-417.903 -1026.73 0.
-480.397 -1211.22 0.
-586.823 -1490 0.
-52.4486 -81.1858 0.
-284.176 -621.235 0.
-578.717 -1474.05 0.
-24.7749 -46.4771 0.
-24.7886 -54.5128 0.
-527.233 -1263.48 0.
-68.4068 -86.3328 0.
-34.0408 -52.2414 0.
-260.815 -252.508 0.
-7.69788 -11.4443 0.
-7.27428 -10.7538 0.
-0.748544 -1.61537 0.
-42.2208 -88.1078 0.
-198.067 -448.971 0.
-0.0267453 -0.510357 0.
-0.0899285 -0.739807 0.
-0.1755 -1.07622 0.
-0.00937877 -1.86154 0.
0.629071 1.66424 0.
1.27363 3.38342 0.
-147.621 -407.112 0.
-0.0252378 -6.31948 0.
-2338.97 -5893.48 0.
-0.0350067 -10.5268 0.
6.93509 18.9141 0.
-0.551803 -1.52124 0.
-877.87 -2386.96 0.
7.42381 20.4323 0.
-0.00478647 -65.1788 0.
-445.283 -1173.98 0.
0.0328808 0.0908352 0.
-0.319631 -105.437 0.
-11.4962 -30.8536 0.
-4.51727 -99.0858 0.
-35.105 -80.6458 0.
35.7377 98.3132 0.
-0.0139816 -75.1096 0.
32.6541 85.3081 0.
47.6459 131.339 0.
-26.5836 -73.3349 0.
-733.673 -2010.72 0.
21.6163 59.7497 0.
-57.2342 -158.373 0.
6.76843 18.7462 0.
-745.497 -2048.14 0.
-6.18889 -17.0961 0.
20.3279 56.131 0.
11.6911 32.3774 0.
-667.261 -1740.95 0.
-0.0161491 -16.6651 0.
2.4803 6.3398 0.
-0.00163209 -0.929607 0.
-0.225704 -4.64943 0.
0.016212 2.86513 0.
-112.52 -192.211 0.
-256.16 -430.187 0.
-2145.33 -5352.3 0.
0.000190862 0.25771 0.
0.345968 0.920236 0.
-2238.27 -5493.68 0.
-2.34147 -5.14411 0.
-107.123 -199.481 0.
-2249.58 -5212.44 0.
-29.2744 -15.2266 0.
-1745.33 -4051.3 0.
-475.881 -1004.33 0.
-5.23097 -7.99576 0.
-1396.96 -3390.88 0.
-577.254 -1386.57 0.
-42.4848 -24.6531 0.
-928.445 -2315.01 0.
-512.67 -1305.23 0.
-127.072 -265.272 0.
-708.365 -1720.1 0.
-531.64 -1328.2 0.
-481.135 -1066 0.
-393.106 -878.218 0.
-310.937 -684.579 0.
-373.701 -780.225 0.
-343.526 -702.866 0.
-314.891 -623.968 0.
-357.758 -697.117 0.
-320.459 -599.637 0.
-247.119 -538.198 0.
-169.629 -467.557 0.
-149.21 -411.936 0.
-685.392 -917.712 0.
-491.583 -635.421 0.
-517.646 -704.306 0.
-234.236 -553.728 0.
-306.238 -621.052 0.
-343.572 -723.044 0.
-309.906 -620.915 0.
-367.118 -768.222 0.
-425.919 -913.94 0.
-294.57 -710.228 0.
-399.203 -979.151 0.
-516.144 -1235.77 0.
-574.071 -1421.51 0.
-813.318 -1983.82 0.
-89.102 -129.235 0.
-578.397 -1475.25 0.
-1096.47 -2792.49 0.
-23.7423 -63.9986 0.
-541.123 -1298.7 0.
-1654.84 -4067.25 0.
-58.6814 -34.9869 0.
-401.263 -526.278 0.
-1924.95 -4245.94 0.
-21.0276 -29.1353 0.
-2415.48 -5918.68 0.
-154.061 -390.699 0.
-28.7262 -71.5682 0.
-1857.24 -4105.93 0.
-0.00631882 -0.507743 0.
-2578.02 -6502.72 0.
-93.6586 -246.801 0.
1.12285 3.08871 0.
-0.00994709 -0.701899 0.
1.99919 5.14663 0.
1.58798 4.38569 0.
-0.0476992 -18.7776 0.
-0.435082 -16.1893 0.
10.2994 28.4521 0.
-1618.31 -4371.75 0.
-0.0908729 -35.0335 0.
-0.0670064 -53.0426 0.
-51.3573 -141.324 0.
4.41447 12.2062 0.
-1291.04 -3384.98 0.
4.81917 13.3314 0.
6.71385 18.4679 0.
-125.189 -337.373 0.
59.713 163.143 0.
0.0323502 0.0752756 0.
-268.427 -724.595 0.
-0.7679 -237.555 0.
8.48382 21.9136 0.
-0.261705 -133.347 0.
-220.655 -609.539 0.
-13.2122 -36.3077 0.
-0.553394 -1.52899 0.
-176.776 -489.482 0.
-245.772 -675.285 0.
30.0481 82.3187 0.
-29.8904 -82.6994 0.
-2096.75 -5805.08 0.
9.68617 26.8214 0.
-155.873 -418.836 0.
0.026079 5.92071 0.
0.0546117 2.0251 0.
-82.7349 -224.51 0.
-2076.29 -5472.52 0.
-0.288343 -6.40298 0.
-1721.54 -3624.77 0.
-0.270954 -1.67001 0.
-169.553 -467.405 0.
-0.0157823 -0.697098 0.
-1.90629e-06 -0.82264 0.
0.0111776 0.0257148 0.
-0.00116283 -0.539684 0.
-0.0322207 -0.275768 0.
-31.3236 -14.2219 0.
-43.9808 -21.9434 0.
-140.695 -188.652 0.
-0.568035 -0.860447 0.
-0.411582 -0.568049 0.
-451.932 -1063.66 0.
-28.8198 -27.6016 0.
-26.8076 -22.9041 0.
-510.537 -1302.21 0.
-128.096 -258.033 0.
-6.96023 -13.0095 0.
-462.27 -1151.81 0.
-304.633 -740.574 0.
-353.016 -823.702 0.
-272.452 -628.407 0.
-198.293 -426.706 0.
-295.481 -685.985 0.
-265.347 -608.577 0.
-235.248 -531.134 0.
-324.836 -654.794 0.
-287.981 -556.864 0.
-220.703 -489.358 0.
-195.762 -526.937 0.
-174.94 -471.724 0.
-295.753 -698.795 0.
-408.213 -588.78 0.
-432.896 -659.053 0.
-208.348 -496.543 0.
-266.842 -577.383 0.
-307.298 -676.261 0.
-220.879 -473.057 0.
-274.71 -623.77 0.
-329.347 -773.678 0.
-163.871 -342.488 0.
-260.923 -619.086 0.
-367.879 -885.782 0.
-292.34 -671.291 0.
-511.408 -1254.21 0.
-24.4676 -44.8721 0.
-67.9674 -77.5033 0.
-569.896 -1412.7 0.
-25.3367 -58.1334 0.
-10.1188 -24.0195 0.
-359.016 -832.069 0.
-44.5432 -26.9605 0.
-21.5407 -32.6927 0.
-36.791 -72.4531 0.
-16.5448 -26.1796 0.
-112.132 -254.705 0.
-0.236512 -0.418278 0.
0.0406711 0.0618615 0.
-0.283996 -0.497066 0.
0.000324543 1.51429 0.
-411.021 -1124.16 0.
-0.00256923 -0.707503 0.
-0.0730088 -2.88802 0.
-2212.46 -5739.8 0.
-0.00081506 -3.5982 0.
-1600.83 -3695.03 0.
0.000589293 0.367054 0.
4.31558 11.37 0.
8.82945 24.4464 0.
-209.792 -571.025 0.
-210.876 -583.723 0.
4.83256 13.35 0.
-388.159 -1068.3 0.
33.8652 93.755 0.
37.3326 103.374 0.
-208.818 -578.149 0.
-26.3725 -72.9629 0.
-551.392 -1492.99 0.
-0.629185 -132.804 0.
-14.6887 -203.375 0.
-771.845 -2007.03 0.
-1.2028 -76.0241 0.
-0.130618 -53.3824 0.
-0.344201 -157.058 0.
-417.921 -1155.83 0.
-20.1611 -55.2209 0.
11.9184 32.9136 0.
-316.822 -877.52 0.
-1226.5 -3365.37 0.
12.5423 34.2798 0.
-22.2179 -61.5225 0.
0.315627 0.854832 0.
20.808 57.5237 0.
-97.0071 -264.819 0.
-0.237845 -32.0715 0.
-1659.86 -4131.23 0.
1.9523 5.34003 0.
-90.1267 -238.71 0.
-0.153285 -6.55521 0.
1.26878 2.72317 0.
2.89077 7.14847 0.
0.273877 4.48948 0.
-0.0151547 -0.295292 0.
0.00739128 0.727705 0.
-0.0240438 -0.962183 0.
0.462203 1.27687 0.
0.017435 0.2459 0.
-45.8432 -20.3314 0.
-60.5668 -29.8159 0.
-1.46868 -2.29774 0.
-1.3062 -1.81956 0.
-0.86887 -1.09194 0.
-15.919 -31.4681 0.
-15.0495 -27.5797 0.
-15.736 -20.8838 0.
-131.915 -250.125 0.
-27.2358 -20.1235 0.
-18.6445 -18.3332 0.
-246.785 -552.902 0.
-125.684 -220.344 0.
-239.706 -566.601 0.
-164.508 -365.886 0.
-114.577 -228.966 0.
-237.691 -571.316 0.
-208.234 -493.223 0.
-181.314 -412.591 0.
-295.556 -608.828 0.
-243.725 -525.87 0.
-206.424 -428.382 0.
-248.179 -560.032 0.
-231.001 -501.18 0.
-355.756 -678.373 0.
-333.27 -533.712 0.
-358.488 -603.46 0.
-208.162 -459.583 0.
-231.042 -530.119 0.
-278.475 -622.027 0.
-168.474 -314.242 0.
-216.008 -445.614 0.
-270.288 -595.903 0.
-56.466 -66.7324 0.
-144.698 -239.622 0.
-244.476 -510.936 0.
-33.249 -46.4951 0.
-233.928 -500.168 0.
-52.9451 -58.4046 0.
-36.1299 -49.6178 0.
-35.2036 -58.3752 0.
-39.2447 -63.1556 0.
-32.7413 -39.4537 0.
-38.0687 -26.4605 0.
-109.743 -57.1136 0.
-85.9871 -62.6809 0.
-61.4932 -70.6587 0.
-22.2852 -34.0033 0.
-73.2256 -171.833 0.
-0.0974822 -0.168976 0.
-0.160991 -0.40617 0.
-0.0885709 -0.160526 0.
-0.00625977 -0.891298 0.
0.00216002 0.990073 0.
-0.0009609 -1.27897 0.
-0.050972 -3.51627 0.
-48.4858 -120.404 0.
-7.81934e-05 -1.81105 0.
2.02229 5.18592 0.
-840.786 -2259.32 0.
4.33684 11.5206 0.
7.21335 19.9789 0.
4.13404 11.0275 0.
-336.431 -930.883 0.
-0.0468554 -45.7484 0.
-1239.35 -3412.03 0.
16.9905 47.0608 0.
11.573 32.0553 0.
-620.633 -1719.01 0.
-26.3944 -73.0781 0.
-1211.08 -3296.15 0.
-26.7654 -73.4102 0.
16.9004 46.7116 0.
24.0871 66.6898 0.
0.0344787 82.0835 0.
-0.407103 -61.91 0.
3.88839 10.6977 0.
-339.46 -939.708 0.
21.8284 59.8107 0.
-300.516 -829.488 0.
-117.587 -322.916 0.
-20.0563 -54.9422 0.
-3.30586 -9.01227 0.
-129.241 -356.742 0.
-0.631414 -59.0756 0.
6.45545 17.7946 0.
-178.707 -491.681 0.
-356.687 -987.933 0.
-0.22708 -0.574923 0.
7.64718 21.0144 0.
-152.556 -415.11 0.
2.30907 6.26395 0.
-0.239848 -3.62454 0.
-1299.75 -3469.6 0.
-0.00343213 -1.57471 0.
-2198.05 -4693.45 0.
-27.2773 -65.9826 0.
-1644.93 -3273.2 0.
-41.4628 -93.6798 0.
-3.43488 -8.42568 0.
-2192.42 -5729.35 0.
-8.50234 -11.6212 0.
-1844.66 -3796.77 0.
-249.191 -288.771 0.
-12.2395 -19.7829 0.
-1888.99 -4858.35 0.
-222.606 -543.091 0.
-0.043715 -0.0391009 0.
-1206.52 -3137.97 0.
-486.864 -1258.98 0.
-43.1242 -68.7084 0.
-878.676 -2241.71 0.
-510.949 -1299.28 0.
-610.098 -1561.11 0.
-437.957 -1143.43 0.
-277.14 -714.433 0.
-464.643 -1198.95 0.
-364.578 -946.711 0.
-268.294 -690.688 0.
-383.556 -941.938 0.
-336.977 -818.886 0.
-294.527 -691.705 0.
-337.234 -841.336 0.
-316.368 -780.482 0.
-361.616 -906.217 0.
-443.885 -839.306 0.
-476.098 -922.382 0.
-280.487 -693.976 0.
-350.573 -893.374 0.
-423.598 -1089.83 0.
-291.313 -693.655 0.
-403.786 -1014.18 0.
-522.456 -1328.5 0.
-262.175 -613.079 0.
-487.255 -1224.88 0.
-724.594 -1824.43 0.
-549.243 -1353.15 0.
-1020.42 -2568.29 0.
-18.5914 -39.1672 0.
-462.945 -1165.56 0.
-1464.5 -3760.69 0.
-11.645 -14.5372 0.
-56.8469 -51.7059 0.
-2188.09 -5575.12 0.
-163.181 -126.809 0.
-44.9402 -66.8267 0.
-1938.41 -3596.09 0.
-58.6253 -115.661 0.
-2529.82 -6843.86 0.
-0.00148673 -0.00404326 0.
-96.6203 -168.353 0.
-2168.93 -4155.81 0.
-0.0289285 -2.22762 0.
-1968.77 -5268.54 0.
-45.5125 -110.209 0.
1.91583 5.20114 0.
-0.350081 -14.7324 0.
2.3097e-05 3.90397 0.
0.114773 10.9959 0.
-605.065 -1668.79 0.
-208.098 -576.176 0.
5.57274 15.4229 0.
-0.843615 -52.3026 0.
-404.896 -1119.6 0.
11.2133 31.0152 0.
9.66307 26.5281 0.
25.8856 71.6631 0.
-215.877 -588.022 0.
33.9378 93.9923 0.
-38.2142 -105.842 0.
-1292.23 -3532.84 0.
34.7091 95.2395 0.
-0.206707 -172.024 0.
13.7643 37.7318 0.
0.172568 46.7951 0.
23.2565 62.3117 0.
-358.555 -983.811 0.
33.0394 88.961 0.
32.875 90.1559 0.
-1014.88 -2800 0.
-229.421 -629.025 0.
-8.64356 -23.6333 0.
21.887 59.5007 0.
-264.805 -729.845 0.
4.33642 11.677 0.
-0.209974 -57.435 0.
-10.372 -28.6595 0.
-416.91 -1151.54 0.
-0.648312 -26.7905 0.
9.7319 26.8085 0.
-898.142 -2013.89 0.
-187.843 -473.743 0.
-554.448 -1502.42 0.
-479.323 -1321.59 0.
-0.0363824 -5.86722 0.
-0.978971 -2.33345 0.
0.437099 1.10839 0.
-82.6076 -189.348 0.
-13.2511 -32.6491 0.
0.627635 1.63828 0.
-7.99729 -15.8858 0.
0.0373982 0.0787095 0.
0.141893 0.165454 0.
-1.34504 -1.84395 0.
-10.9677 -17.1614 0.
-111.457 -286.818 0.
-15.0349 -34.5576 0.
-0.0333953 -0.0393039 0.
-447.93 -1175.9 0.
-26.906 -30.8623 0.
-37.6742 -60.5126 0.
-525.853 -1375.67 0.
-171.721 -418.817 0.
-393.922 -1040.12 0.
-235.319 -608.682 0.
-97.5458 -215.164 0.
-374.319 -964.572 0.
-277.42 -709.104 0.
-182.135 -452.024 0.
-344.008 -842.8 0.
-299.98 -717.186 0.
-266.062 -611.741 0.
-305.123 -763.749 0.
-282.3 -704.849 0.
-314.372 -803.768 0.
-436.018 -776.87 0.
-469.058 -859.123 0.
-236.586 -577.993 0.
-298.721 -745.518 0.
-371.667 -942.085 0.
-175.722 -368.008 0.
-283.417 -673.792 0.
-396.906 -993.4 0.
-29.1536 -43.7106 0.
-222.418 -520.7 0.
-448.74 -1131.69 0.
-126.663 -142.247 0.
-572.322 -1384.34 0.
-26.6782 -53.3862 0.
-13.4198 -15.5964 0.
-391.398 -974.841 0.
-5.87591 -6.65164 0.
-5.20723 -4.13677 0.
-36.4505 -56.8359 0.
-356.662 -249.988 0.
-19.4604 -42.4796 0.
-31.2687 -76.2929 0.
-63.1282 -113.817 0.
-100.039 -212.67 0.
0.0821944 1.38212 0.
1.57489 2.9754 0.
-0.263501 -0.902772 0.
-0.00067041 -1.51674 0.
-0.0957215 -5.27616 0.
-0.0725813 -3.02977 0.
-2012.03 -4551.43 0.
-0.0528353 -20.4789 0.
-1459.14 -3913.6 0.
-0.466748 -18.2891 0.
-423.668 -1173.03 0.
14.9386 41.3437 0.
-665.003 -1828.36 0.
5.65826 15.082 0.
-598.576 -1653.86 0.
10.0542 27.7514 0.
36.199 98.8668 0.
-228.618 -631.936 0.
-109.734 -299.378 0.
-729.636 -2020.88 0.
-249.701 -691.584 0.
36.9843 102.433 0.
27.5293 75.5012 0.
35.925 99.0747 0.
50.2641 138.273 0.
-0.0720079 -2.10909 0.
28.9961 75.6622 0.
35.438 96.8376 0.
4.77524 13.2035 0.
28.5394 78.3593 0.
-22.6582 -61.5354 0.
-556.445 -1522.88 0.
-9.29159 -25.3516 0.
-50.8904 -136.404 0.
-948.806 -2512.67 0.
-2.83489 -7.61013 0.
-190.982 -528.55 0.
9.48998 26.2112 0.
-586.546 -1610.78 0.
16.3946 42.2476 0.
-898.895 -2463.07 0.
5.86792 16.2376 0.
-85.461 -217.545 0.
-53.0323 -143.685 0.
0.816065 2.25604 0.
-0.0241543 -0.945802 0.
1.88907 4.7423 0.
-0.0580218 -2.91762 0.
-31.4453 -77.5932 0.
-1121.87 -2447.15 0.
0.219533 0.599274 0.
-1677.02 -4637.91 0.
-8.93917 -23.9325 0.
-1885.32 -3125.37 0.
-36.2549 -45.7425 0.
-0.655581 -0.693665 0.
-1971.06 -5322.69 0.
-3.55258 -6.53077 0.
-12.0652 -29.8345 0.
-1435.27 -3647.44 0.
-294.219 -745.623 0.
-17.7852 -23.8911 0.
-1016.33 -2623.6 0.
-448.934 -1157 0.
-675.913 -1714.27 0.
-401.112 -1043.04 0.
-139.84 -358.284 0.
-504.241 -1249.15 0.
-351.018 -867.604 0.
-204.317 -479.531 0.
-374.399 -915.248 0.
-295.023 -705.728 0.
-216.891 -494.964 0.
-277.927 -662.548 0.
-241.907 -561.88 0.
-325.653 -511.897 0.
-382.901 -636.157 0.
-430.856 -766.21 0.
-179.794 -418.519 0.
-288.34 -725.477 0.
-400.071 -1029.25 0.
-172.885 -391.748 0.
-392.148 -975.177 0.
-621.993 -1548.02 0.
-142.138 -308.438 0.
-454.417 -1129.16 0.
-783.803 -1932.78 0.
-453.737 -1050.34 0.
-1215.03 -3021.74 0.
-11.6843 -5.5954 0.
-150.073 -341.084 0.
-1716.75 -4344.96 0.
-78.5306 -108.856 0.
-27.1923 -51.564 0.
-1945.98 -5097.26 0.
-361.75 -380.456 0.
-927.582 -1113.86 0.
-980.356 -2545.78 0.
-50.2059 -53.5249 0.
-1134 -3058.74 0.
-346.145 -792.06 0.
-0.171943 -1.76957 0.
0.300809 1.80512 0.
0.00057432 0.366935 0.
-0.00346541 -0.694755 0.
2.12276 5.74083 0.
3.41547 8.34245 0.
-0.00411886 -24.4505 0.
-734.493 -2013.6 0.
9.80806 26.6286 0.
-333.382 -916.627 0.
-0.788085 -2.18029 0.
-500.336 -1373.94 0.
-93.7033 -257.652 0.
12.3456 32.6081 0.
-7.87458 -21.6733 0.
10.7856 29.3827 0.
-454.635 -1253.43 0.
-27.167 -74.2386 0.
30.1562 82.0867 0.
-412.875 -1142.99 0.
-19.8429 -54.9597 0.
-333.139 -912.698 0.
-1124.63 -3095.71 0.
-16.6895 -46.0383 0.
-934.931 -1894.59 0.
4.93987 12.4305 0.
25.912 71.7187 0.
20.6366 57.1181 0.
-645.587 -1775.34 0.
16.5165 44.7851 0.
-117.291 -317.753 0.
-32.9916 -89.8054 0.
-15.6479 -41.8086 0.
-9.47527 -24.936 0.
25.9678 69.4669 0.
-187.375 -518.422 0.
-91.4421 -252.426 0.
-539.61 -1470.31 0.
-53.3175 -139.506 0.
-655.597 -1813.7 0.
-0.0270912 -28.4372 0.
-25.9835 -66.6956 0.
-3.29957 -8.95252 0.
-1211.49 -3350.99 0.
1.42435 3.89421 0.
-1878.73 -4180.4 0.
1.23708 3.05709 0.
-881.027 -1914.17 0.
-0.0806299 -1.53826 0.
-0.00888147 -1.36646 0.
-28.2067 -78.1262 0.
-11.6107 -32.1131 0.
-41.7931 -63.7492 0.
-10.8358 -14.0934 0.
0.9349 1.03538 0.
-180.77 -485.43 0.
-0.126492 -0.243783 0.
-6.64687 -14.8347 0.
-221.549 -546.809 0.
-9.81646 -19.8643 0.
-4.79987 -11.5536 0.
-496.945 -1304.39 0.
-22.6386 -22.4616 0.
-368.198 -963.36 0.
-108.11 -276.9 0.
-8.6576 -10.9855 0.
-357.994 -868.396 0.
-212.171 -479.299 0.
-99.464 -168.189 0.
-276.031 -703.224 0.
-196.353 -493.958 0.
-127.901 -310.198 0.
-241.508 -517.688 0.
-221.269 -462.481 0.
-131.865 -356.639 0.
-321.392 -526.97 0.
-346.337 -593.051 0.
-107.219 -266.578 0.
-174.146 -452.621 0.
-284.022 -758.336 0.
-9.46064 -12.4026 0.
-174.028 -418.38 0.
-392.564 -1002.86 0.
-34.4347 -47.4828 0.
-85.643 -120.291 0.
-402.408 -937.34 0.
-10.2852 -23.2451 0.
-512.95 -1258.1 0.
-4.31875 -1.60636 0.
-15.9354 -22.8718 0.
-137.762 -295.661 0.
-17.1363 -41.127 0.
-9.01912 -22.5725 0.
-10.0753 -25.6111 0.
0.207785 0.412829 0.
-108.08 -187.119 0.
-0.00541337 -0.289422 0.
-0.0245184 -0.234189 0.
-64.9206 -128.722 0.
-0.0191816 -1.09686 0.
-2520.12 -6283.59 0.
-0.020842 -8.12077 0.
3.6424 9.76857 0.
-2006.22 -5054.3 0.
-0.125986 -10.8365 0.
-0.508193 -13.9021 0.
-0.0432227 -10.1101 0.
-251.88 -697.11 0.
1.00403 2.72576 0.
-744.581 -2037.48 0.
-7.33581 -20.2882 0.
-265.493 -728.243 0.
-99.6819 -273.35 0.
-2.12052 -90.2863 0.
-862.21 -2364.37 0.
30.1971 82.1999 0.
-309.651 -850.582 0.
-451.819 -1236.33 0.
28.7003 77.8729 0.
-680.16 -1881.15 0.
-7.6946 -21.3127 0.
-6.01714 -16.6461 0.
-0.0255998 -103.963 0.
-59.0005 -163.115 0.
0.898415 2.42082 0.
36.8597 98.5647 0.
18.8051 52.002 0.
-575.654 -1594.22 0.
26.8165 72.4794 0.
-11.0886 -30.0186 0.
-91.1357 -246.466 0.
-10.2579 -27.6273 0.
-264.872 -705.281 0.
11.242 29.4641 0.
0.847238 2.29762 0.
-980.939 -2712.77 0.
-434.105 -1197.48 0.
-327.963 -864.876 0.
-34.5276 -90.1618 0.
-346.002 -958.012 0.
-0.0911236 -16.5526 0.
-2.96544 -7.65546 0.
-0.16416 -21.7383 0.
-26.4483 -72.3791 0.
-0.0588801 -5.32746 0.
0.526956 1.30523 0.
1.524 4.05387 0.
-0.27163 -2.61874 0.
0.0845145 2.03733 0.
-0.0493818 -7.14377 0.
-33.1759 -90.1257 0.
-16.226 -42.861 0.
0.589493 1.33213 0.
-0.140412 -0.25921 0.
0.642967 0.784134 0.
-0.0532056 -0.0481024 0.
-0.136598 -0.274695 0.
-2.48695 -4.87204 0.
-5.30538 -12.2583 0.
-1.38285 -3.65603 0.
0.0758378 0.204108 0.
-20.3923 -17.9554 0.
-17.742 -12.9538 0.
-79.8065 -193.13 0.
-10.5358 -19.6185 0.
-5.25346 -8.32553 0.
-222.505 -476.88 0.
-101.635 -143.148 0.
-68.5292 -51.6636 0.
-203.836 -510.65 0.
-143.578 -352.925 0.
-85.679 -197.143 0.
-253.695 -498.829 0.
-238.698 -460.626 0.
-119.54 -308.646 0.
-312.097 -529.795 0.
-322.537 -553.511 0.
-67.1817 -140.808 0.
-108.657 -266.284 0.
-198.219 -522.481 0.
-10.2754 -22.9027 0.
-19.2685 -40.93 0.
-186.625 -434.206 0.
-57.0268 -68.4575 0.
-48.6151 -48.5286 0.
-41.3519 -28.558 0.
-17.3923 -33.3307 0.
-5.19306 -7.52222 0.
-5.10775 -2.29129 0.
-15.9339 -35.532 0.
-83.8866 -106.74 0.
-9.76317 -23.4196 0.
-8.11218 -20.6183 0.
-7.20617 -19.0902 0.
-0.0736591 -0.391089 0.
0.106515 0.185332 0.
-0.000427448 -0.0396315 0.
0.00809477 0.333852 0.
-10.1727 -21.9096 0.
8.06258e-07 0.00447888 0.
-0.103895 -5.3222 0.
4.19928 11.5922 0.
0.731876 1.97924 0.
-0.210398 -8.3497 0.
-0.0239655 -8.90928 0.
-1693.97 -4548.7 0.
3.31606 8.94007 0.
-333.966 -924.159 0.
11.5884 31.4589 0.
-133.653 -366.199 0.
-566.06 -1566.18 0.
0.175274 0.456641 0.
-339.269 -927.268 0.
-6.33519 -16.8986 0.
-326.461 -891.025 0.
-10.5157 -28.611 0.
-16.4997 -44.0267 0.
-245.44 -672.803 0.
-1.82989 -4.94825 0.
-11.8864 -32.6994 0.
-733.444 -2031.47 0.
-0.0279619 -108.665 0.
-0.723539 -82.0517 0.
17.0324 46.6108 0.
-70.1824 -189.578 0.
-25.2476 -67.7157 0.
39.1302 108.07 0.
-0.000121985 -87.1491 0.
15.6927 42.4356 0.
-461.515 -1247.3 0.
32.6586 88.1637 0.
-19.5182 -52.6201 0.
-407.945 -1082 0.
4.5697 11.8352 0.
-133.636 -361.626 0.
2.25247 5.99959 0.
-37.2316 -102.656 0.
-696.68 -1832.14 0.
-27.7777 -72.3797 0.
-493.422 -1358.76 0.
0.175731 0.478038 0.
-788.855 -2090.88 0.
-0.0523661 -18.3809 0.
-148.821 -403.07 0.
5.54767 14.7328 0.
3.87077 10.1079 0.
-0.0056061 -1.38634 0.
-69.6034 -192.789 0.
-1946.2 -5278.3 0.
-0.135842 -7.33693 0.
-1635.99 -2641.4 0.
-22.4625 -42.9807 0.
-25.6093 -58.7519 0.
-2048.01 -4686.63 0.
0.769928 1.72281 0.
-1409 -3691.91 0.
-20.8392 -55.7464 0.
-15.2793 -41.3724 0.
-1620.38 -4269.97 0.
-2.70364 -7.25772 0.
-1.74735 -4.67264 0.
-1257.01 -3288.16 0.
-209.852 -537.186 0.
-853.647 -2097 0.
-431.528 -1052.75 0.
-57.2532 -93.9132 0.
-693.082 -1772.3 0.
-409.221 -1037.82 0.
-136.443 -296.097 0.
-469.909 -1259.33 0.
-330.237 -871.991 0.
-191.866 -483.355 0.
-425.056 -941.452 0.
-392.624 -845.062 0.
-241.6 -521.556 0.
-377.462 -859.364 0.
-454.454 -1074.38 0.
-172.714 -416.647 0.
-369.577 -978.903 0.
-568.392 -1539.21 0.
-63.5023 -96.2464 0.
-421.205 -1097.17 0.
-806.119 -2107.18 0.
-81.4547 -99.806 0.
-482.423 -1075.3 0.
-1017.67 -2369.63 0.
-130.41 -164.072 0.
-1464.61 -3716.99 0.
-12.9296 -20.2334 0.
-15.2199 -25.4848 0.
-1768.39 -4609.16 0.
-33.2905 -75.7221 0.
-32.5013 -76.0633 0.
-1609.84 -3725.19 0.
-0.0487678 -0.822685 0.
-2063.94 -4738.74 0.
-29.7944 -75.8159 0.
-19.4599 -44.7883 0.
-1983.79 -4517.32 0.
-5.22524e-06 -1.71577 0.
-1196.26 -3285.82 0.
-0.00416483 -5.80661 0.
3.17685 8.64337 0.
-0.180673 -25.2466 0.
3.35312 9.28687 0.
0.560176 1.53044 0.
9.72703 26.6366 0.
-1010.85 -2799.6 0.
-3.69618 -10.0321 0.
5.56986 15.1537 0.
-385.528 -1067.82 0.
-1.2928 -3.40319 0.
-837.598 -2279.77 0.
-15.1112 -40.0542 0.
38.0405 99.1907 0.
-644.359 -1752.47 0.
12.4259 33.0299 0.
-18.6615 -51.2479 0.
-14.5835 -39.3039 0.
6.02433 16.5827 0.
-8.12572 -22.5031 0.
-308.751 -855.118 0.
-16.7929 -45.7175 0.
-0.131492 -72.8142 0.
-61.6528 -166.948 0.
42.4834 114.285 0.
24.5034 67.56 0.
-20.0108 -55.0253 0.
-107.925 -292.145 0.
-336.356 -907.181 0.
9.96924 26.2569 0.
-193.528 -522.344 0.
4.63927 12.2462 0.
-2.70783 -82.4224 0.
-701.645 -1894.28 0.
-7.37791 -19.5909 0.
-243.753 -658.512 0.
-5.77919 -15.3639 0.
-26.0493 -67.7219 0.
-881.797 -2411.32 0.
4.44995 11.9985 0.
-506.419 -1363.91 0.
-0.0188677 -27.6552 0.
-266.885 -713.446 0.
-105.469 -289.62 0.
-1392.49 -3803.83 0.
-59.3589 -163.773 0.
-0.00103019 -12.2638 0.
-0.0153989 -8.23469 0.
3.45176 9.51826 0.
0.427292 0.877134 0.
-0.147931 -0.592022 0.
0.823389 1.75342 0.
-0.148211 -1.32703 0.
-0.0377197 -0.707265 0.
-42.753 -115.081 0.
-8.06665 -22.2134 0.
-3.86928 -10.6944 0.
-4.87344 -13.3851 0.
-2.65155 -7.21141 0.
-1.76642 -4.7788 0.
-368.293 -951.335 0.
-29.4364 -40.7402 0.
-377.126 -854.242 0.
-13.1502 -30.214 0.
-12.2102 -21.313 0.
-382.898 -995.438 0.
-109.642 -249.781 0.
-7.50791 -11.4649 0.
-355.984 -904.259 0.
-225.162 -533.973 0.
-133.035 -265.649 0.
-389.067 -765.968 0.
-355.746 -665.291 0.
-89.4112 -189.236 0.
-243.291 -606.366 0.
-316.796 -808.561 0.
-98.3761 -127.283 0.
-214.55 -480.792 0.
-411.511 -1043.21 0.
-24.9208 -51.9021 0.
-21.4583 -50.7294 0.
-413.226 -1041.86 0.
-34.0357 -49.6081 0.
-29.6295 -34.9258 0.
-332.472 -677.324 0.
-50.7298 -59.5871 0.
-367.894 -725.404 0.
-11.2919 -18.5142 0.
-13.8798 -22.7021 0.
-50.1181 -95.9302 0.
-41.2813 -48.5504 0.
-33.4562 -38.6293 0.
-46.0517 -70.4433 0.
0.000300437 0.153839 0.
0.577543 1.56074 0.
-2.46742 -6.27912 0.
-1.7358 -4.07609 0.
-0.153062 -0.327889 0.
-0.0220644 -2.42768 0.
1.21887 3.36851 0.
-0.0102331 -11.7967 0.
-1769.08 -4623.9 0.
-0.00573317 -18.921 0.
2.05691 5.68258 0.
11.7188 31.0909 0.
-0.133159 -31.3285 0.
1.4765 3.96499 0.
-921.857 -2541.29 0.
22.9645 61.8479 0.
-473.719 -1309.92 0.
6.81011 17.8754 0.
-244.759 -663.35 0.
1.02364 2.69474 0.
20.3401 52.6536 0.
-343.307 -934.16 0.
20.0268 53.0281 0.
8.55785 22.3464 0.
-588.808 -1580.86 0.
-169.419 -466.868 0.
-1.20252 -100.367 0.
-166.099 -460.016 0.
21.2619 58.1301 0.
11.9692 33.1453 0.
2.97908 8.24893 0.
1.90009 5.20849 0.
19.0636 51.725 0.
26.3376 72.6449 0.
-829.529 -2248.65 0.
2.89495 7.42147 0.
32.0669 84.2353 0.
-1137.46 -3071.75 0.
-6.28304 -15.6874 0.
12.4313 31.6587 0.
-593.499 -1597.32 0.
7.14422 18.3653 0.
-486.952 -1309.64 0.
14.3419 37.9135 0.
-547.093 -1431.28 0.
8.5347 21.8665 0.
14.118 37.6953 0.
-773.522 -2110.18 0.
3.33584 9.2394 0.
-926.758 -2566.09 0.
-0.0666365 -15.8448 0.
1.86707 4.83745 0.
-0.0104523 -11.2266 0.
-0.24804 -0.686463 0.
0.450688 1.23812 0.
4.70782 12.1906 0.
0.313301 0.611867 0.
1.14941 1.93 0.
-73.657 -202.611 0.
-1509.93 -4182.23 0.
0.0214239 1.4621 0.
-1605.4 -2680.32 0.
-0.0617742 -0.409834 0.
-0.0110714 -0.309208 0.
-1616.19 -4323.68 0.
0.0136747 0.0295411 0.
-8.18509 -22.6644 0.
-1342.49 -3563.22 0.
-13.9983 -13.0171 0.
-942.353 -2190.69 0.
-401.185 -894.053 0.
-8.62474 -5.28436 0.
-798.621 -2075.84 0.
-367.247 -947.57 0.
-9.46258 -24.7938 0.
-553.124 -1402.49 0.
-338.843 -838.622 0.
-132.066 -267.249 0.
-456.946 -991.556 0.
-407.482 -844.09 0.
-102.436 -275.672 0.
-283.612 -777.142 0.
-412.854 -1116.11 0.
-81.3912 -109.938 0.
-362.031 -906.335 0.
-658.712 -1691.95 0.
-17.1051 -34.9133 0.
-367.051 -928.087 0.
-954.292 -2473.81 0.
-19.652 -23.0188 0.
-415.638 -839.751 0.
-1101.51 -2438.66 0.
-26.9693 -22.9981 0.
-1500.37 -3714.52 0.
-0.111578 -0.0235234 0.
-16.1018 -42.1541 0.
-1705.37 -4548.28 0.
-144.782 -194.49 0.
-115.007 -150.32 0.
-1659.28 -2722.89 0.
0.449498 1.23794 0.
-1714.64 -4713.18 0.
0.87502 2.24704 0.
-0.373699 -0.895385 0.
-0.263007 -0.581526 0.
2.82086 7.29972 0.
0.56723 1.5378 0.
5.69396 15.7281 0.
-0.412513 -19.1286 0.
5.58075 15.4144 0.
-1296.25 -3557.8 0.
-0.177692 -10.6876 0.
-0.154735 -40.0407 0.
6.1827 16.3302 0.
-627.528 -1717.85 0.
13.0542 35.3494 0.
-495.962 -1366.1 0.
14.7095 38.496 0.
18.884 48.9801 0.
-776.794 -2029.89 0.
3.33415 8.82524 0.
17.2699 45.0579 0.
-821.362 -2164.99 0.
-14.747 -38.3458 0.
-1.54862 -3.8592 0.
-730.153 -2015.29 0.
18.5942 50.1947 0.
7.05217 18.9979 0.
1.8532 4.86333 0.
8.15754 22.5616 0.
23.28 64.4277 0.
-2.65084 -7.2452 0.
-7.1003 -19.3897 0.
-178.11 -474.497 0.
-14.3603 -36.8162 0.
24.5667 62.7846 0.
-699.02 -1828.83 0.
10.9889 28.618 0.
-18.1145 -47.5182 0.
-439.547 -1109.7 0.
27.2982 69.628 0.
-18.3037 -46.9439 0.
-923.569 -2472.33 0.
-0.129898 -0.341306 0.
-327.884 -853.915 0.
-5.87886 -14.9675 0.
-5.68982 -15.0286 0.
-171.633 -457.792 0.
-548.235 -1513.74 0.
-0.0310111 -35.3489 0.
-0.0724748 -13.7189 0.
6.21827 16.1236 0.
1.95877 5.41994 0.
-1.18992 -3.20651 0.
-1022.82 -2822.32 0.
-0.000376026 -10.965 0.
-1238.07 -2655.96 0.
-0.183464 -4.72418 0.
-0.00356166 -1.19577 0.
-110.295 -296.59 0.
0.000583653 1.46907 0.
0.0733709 0.250644 0.
-0.0561245 -0.392555 0.
-0.00286779 -0.0555901 0.
-0.0255116 -0.057229 0.
0.0395448 0.0869291 0.
-4.89705 -12.466 0.
-251.279 -608.047 0.
-3.24223 -7.37207 0.
-242.639 -475.236 0.
-0.16655 -0.236732 0.
-3.23446 -1.39147 0.
-385.519 -960.939 0.
-4.12004 -11.2778 0.
-7.8916 -21.2014 0.
-324.51 -805.619 0.
-130.198 -271.327 0.
-6.82986 -14.4699 0.
-275.496 -547.884 0.
-232.001 -439.307 0.
-2.24429 -1.99051 0.
-133.35 -347.728 0.
-229.412 -616.775 0.
-18.7315 -42.977 0.
-75.37 -151.896 0.
-329.704 -854.744 0.
-17.5239 -43.1812 0.
-9.36556 -19.1282 0.
-353.703 -902.884 0.
-9.96101 -12.4823 0.
-25.9256 -40.6093 0.
-190.082 -344.15 0.
-12.8516 -13.7951 0.
0.244666 0.0973751 0.
-0.14326 -0.0252619 0.
-5.53744 -12.358 0.
-55.8818 -148.12 0.
-18.5567 -44.6858 0.
-12.7302 -33.6523 0.
-33.1577 -81.4485 0.
0.718602 1.91417 0.
-50.4793 -139.796 0.
0.673945 1.7024 0.
-13.4408 -30.0903 0.
-1630.43 -3616.28 0.
-0.00609339 -10.6917 0.
-1274.49 -3455.3 0.
5.61683 15.5077 0.
7.95836 21.0808 0.
7.74749 21.1681 0.
-38.2948 -105.983 0.
-1.96828 -5.42694 0.
-625.309 -1728.85 0.
-0.605969 -21.4755 0.
-424.802 -1151.91 0.
13.9046 37.5007 0.
7.92806 21.7184 0.
-332.751 -868.777 0.
-16.2605 -42.0508 0.
2.87746 6.99182 0.
-412.912 -1090.17 0.
6.61062 17.2026 0.
15.5429 38.6737 0.
-24.3175 -62.9512 0.
3.13603 7.85326 0.
-13.1513 -35.1354 0.
-523.842 -1419.44 0.
3.36506 9.13328 0.
32.5696 86.4132 0.
-0.000649397 -68.6856 0.
33.3814 92.3023 0.
-0.658323 -91.5086 0.
-211.091 -579.874 0.
1.02224 2.5456 0.
-2.52236 -79.9934 0.
-3.10135 -84.7896 0.
-386.55 -1009.43 0.
5.22649 13.6158 0.
-291.233 -764.016 0.
-538.355 -1346.24 0.
-19.1766 -48.8028 0.
-75.35 -192.82 0.
-273.677 -728.626 0.
20.3174 53.3263 0.
-329.961 -854.55 0.
-2.24234 -56.1028 0.
-160.176 -430.274 0.
-175.413 -468.09 0.
-320.488 -887.696 0.
-0.153371 -31.8192 0.
4.46852 12.1926 0.
5.69955 15.7418 0.
-1050.77 -2787.09 0.
-0.0917112 -0.252229 0.
-0.323103 -0.892949 0.
0.909557 2.51669 0.
-0.532938 -8.35332 0.
2.84863 7.68016 0.
3.50282 9.53742 0.
-161.572 -388.057 0.
-0.0175505 -1.17412 0.
-0.0553606 -0.219127 0.
-0.108199 -0.781469 0.
0.399677 0.965883 0.
0.0482918 0.110446 0.
0.0285829 0.0640279 0.
-2.77346 -6.25247 0.
-27.4059 -61.6159 0.
-5.91 -13.8522 0.
-1.11928 -1.58815 0.
-0.442872 -0.525216 0.
-2.129 -2.69064 0.
-14.4775 -27.1304 0.
-13.7252 -25.8073 0.
-21.711 -36.1319 0.
-146.303 -299.203 0.
-11.8336 -24.1976 0.
-10.0378 -20.5192 0.
-183.014 -325.089 0.
-153.554 -248.208 0.
-11.2362 -28.8604 0.
-68.6994 -98.0651 0.
-127.811 -267.983 0.
-14.4894 -38.7304 0.
-12.349 -34.1942 0.
-91.2597 -199.45 0.
-22.6705 -50.6243 0.
-12.1925 -24.6496 0.
-8.70574 -15.336 0.
-10.1055 -9.07624 0.
-25.784 -46.2504 0.
-57.8388 -99.343 0.
-13.2123 -23.1299 0.
-0.499117 -0.301202 0.
-0.246555 -0.0354967 0.
0.164808 0.079882 0.
-51.5613 -137.475 0.
-9.79528 -27.0269 0.
0.281217 0.753869 0.
-7.32695 -20.2782 0.
1.59005 4.08364 0.
-0.0208067 -3.54128 0.
-0.208477 -6.76125 0.
2.11283 4.95709 0.
5.62672 15.1575 0.
3.44982 9.53653 0.
-0.00488239 -1.87743 0.
9.56137 26.2866 0.
-1054.29 -2865.71 0.
-0.161049 -13.5568 0.
-0.0082358 -28.0452 0.
-4.7968 -13.186 0.
-393.908 -1086.92 0.
2.48129 6.3564 0.
-241.411 -647.103 0.
21.7367 58.3664 0.
-2.81301 -7.48887 0.
-117.587 -306.021 0.
-277.187 -715.169 0.
-10.177 -24.6937 0.
-749.491 -1974.65 0.
-156.143 -405.245 0.
27.4282 68.1711 0.
-131.511 -338.856 0.
-622.328 -1565.73 0.
-13.0176 -31.6215 0.
22.384 58.3404 0.
-344.909 -943.153 0.
26.742 71.7159 0.
15.5239 42.9505 0.
-17.5019 -48.3241 0.
-8.74355 -23.7727 0.
-0.139766 -0.370803 0.
21.3374 53.4922 0.
-555.504 -1438.65 0.
30.716 78.0627 0.
-9.2095 -22.8338 0.
-373.924 -974.352 0.
-654.732 -1718.11 0.
1.22981 2.87315 0.
-97.643 -247.953 0.
-106.534 -272.011 0.
22.6057 58.6738 0.
20.9039 54.5514 0.
-261.429 -673.066 0.
-1.57816 -4.01451 0.
-120.339 -323.323 0.
-168.066 -448.647 0.
-32.9976 -91.1707 0.
-0.358634 -33.4011 0.
-1183.06 -3276.77 0.
-1.12602 -3.10201 0.
-3.33195 -9.04899 0.
8.62065 23.8694 0.
0.918362 2.54337 0.
-0.0147711 -7.94617 0.
-0.117281 -3.48029 0.
-1227.34 -3355.2 0.
3.30364 9.13712 0.
-1029.35 -2058.23 0.
-0.567376 -1.29376 0.
-1359.6 -2951.49 0.
-0.411741 -0.98818 0.
0.0911173 0.243043 0.
-1567.85 -4269.39 0.
-6.41012 -17.7373 0.
0.00294195 0.185472 0.
-1381.48 -3536.64 0.
-0.0142025 -0.0510317 0.
-1053.85 -2412.54 0.
-340.634 -727.557 0.
-3.99938 -10.8802 0.
-1019.2 -2573.27 0.
-289.27 -649.767 0.
-9.24915 -10.808 0.
-694.987 -1801.14 0.
-349.58 -874.325 0.
-29.3832 -35.8349 0.
-510.888 -1245.75 0.
-446.22 -1083.86 0.
-76.9604 -111.376 0.
-372.196 -929.719 0.
-591.575 -1531.32 0.
-7.29424 -20.1617 0.
-301.894 -794.755 0.
-813.571 -2137.05 0.
-33.7626 -62.7373 0.
-262.57 -627.619 0.
-1178.63 -3092.42 0.
-27.2391 -60.5354 0.
-306.414 -636.783 0.
-1042.35 -2359.62 0.
-16.4532 -45.5557 0.
-1488.57 -3685.15 0.
-28.8219 -76.157 0.
-6.38769 -14.0174 0.
-1213.2 -2817 0.
0.137062 0.357603 0.
-1551.76 -3428.9 0.
2.51337 6.48734 0.
1.10046 3.0429 0.
-1167.69 -3213.03 0.
-51.6571 -121.017 0.
-0.461128 -7.46269 0.
5.72913 15.4551 0.
-0.0099805 -9.59411 0.
-0.000407111 -0.239341 0.
8.05002 22.2863 0.
-62.5881 -172.696 0.
7.20102 19.4594 0.
-12.0136 -33.1004 0.
-0.150426 -32.0049 0.
-851.151 -2341.79 0.
11.1765 28.4928 0.
-8.17185 -21.0437 0.
22.1855 59.292 0.
-484.417 -1284.52 0.
18.3287 44.2758 0.
-565.494 -1418.71 0.
13.3429 32.3467 0.
-1.72648 -4.29688 0.
-56.8535 -147.232 0.
-211.6 -525.451 0.
30.138 72.9536 0.
-149.138 -377.985 0.
6.32887 15.4929 0.
-5.48774 -14.3064 0.
-13.0791 -35.2378 0.
24.3434 63.1711 0.
-280.881 -772.936 0.
-0.0762788 -59.0507 0.
12.6727 32.5487 0.
18.0398 48.3665 0.
24.8224 62.7008 0.
-534.387 -1393.13 0.
4.84293 11.5333 0.
-78.1715 -193.944 0.
-349.812 -912.263 0.
22.9998 58.2701 0.
-283.709 -663.853 0.
-531.735 -1348.11 0.
28.9146 70.7075 0.
-236.126 -609.387 0.
-17.582 -45.604 0.
0.696747 1.78249 0.
17.2751 43.6164 0.
-638.323 -1716.91 0.
-290.469 -775.92 0.
-87.3156 -237.929 0.
-0.282739 -31.7129 0.
-122.994 -340.284 0.
7.45792 20.4821 0.
0.823338 2.26368 0.
-0.00731405 -15.5011 0.
-987.311 -2702.85 0.
-49.8796 -138.096 0.
-147.616 -400.631 0.
4.207 11.5687 0.
-0.0191809 -1.32879 0.
1.77411 3.73846 0.
1.26589 2.97546 0.
-0.151694 -0.366743 0.
-0.0293391 -1.12324 0.
-0.00147117 -0.779018 0.
-35.2264 -85.4591 0.
-14.8521 -39.7861 0.
-13.4694 -36.4116 0.
-0.0262015 -0.0820247 0.
0.174271 0.14505 0.
-95.5528 -80.8798 0.
-5.40193 -11.34 0.
-6.86547 -14.8288 0.
-229.494 -476.171 0.
-11.6685 -14.4239 0.
-15.7331 -17.6761 0.
-287.725 -698.633 0.
-6.79063 -12.1635 0.
-11.2005 -18.172 0.
-245.454 -529.78 0.
-185.357 -363.196 0.
-19.5889 -38.5286 0.
-87.5611 -121.639 0.
-257.936 -599.501 0.
-11.7585 -32.0467 0.
-9.25897 -25.642 0.
-201.333 -457.106 0.
-32.5449 -58.7604 0.
-35.9704 -69.1342 0.
-229.938 -542.86 0.
-35.2201 -69.4241 0.
-26.1634 -46.6726 0.
-18.5235 -30.5677 0.
-6.12002 -12.3647 0.
-37.5198 -100.155 0.
-2.71091 -7.22106 0.
0.0654101 0.152597 0.
-0.158573 -0.834152 0.
-0.0033859 -0.697147 0.
-292.121 -786.819 0.
-0.326082 -7.92339 0.
-0.00816781 -1.42413 0.
-0.37334 -1.03227 0.
-0.345647 -7.59601 0.
-1336.74 -3135.95 0.
1.28122 3.51785 0.
-1059.97 -2834.54 0.
0.376271 13.7995 0.
5.82783 15.9276 0.
2.73106 7.56268 0.
11.6195 31.4105 0.
-794.167 -2180.81 0.
9.87321 26.7083 0.
-371.877 -1020.06 0.
-1.69747 -43.8177 0.
-163.752 -419.559 0.
-2.05567 -5.46627 0.
-357.509 -943.144 0.
25.1596 60.2511 0.
2.47004 5.67062 0.
-941.712 -2278.52 0.
16.862 41.7432 0.
-13.3567 -32.2159 0.
-614.28 -1524.5 0.
-19.2959 -46.6941 0.
32.1618 76.3692 0.
23.4315 57.8566 0.
-209.183 -545.733 0.
-5.13234 -13.0158 0.
19.4004 51.2561 0.
-2.39645 -58.1493 0.
13.911 38.4641 0.
-1.48293 -55.883 0.
-142.353 -385.842 0.
28.7433 73.1966 0.
-3.57771 -67.3445 0.
6.91025 16.4633 0.
-1198.62 -2982.55 0.
10.0479 24.7505 0.
-3.00157 -74.3387 0.
-677.284 -1586.9 0.
30.0781 72.3038 0.
-16.2269 -39.5799 0.
-579.147 -1485.39 0.
-122.648 -316.048 0.
-0.267066 -0.669852 0.
-14.1419 -35.4281 0.
-332.905 -895.094 0.
-9.17677 -23.7429 0.
7.93629 21.477 0.
-1.48045 -3.97878 0.
1.4881 4.11077 0.
-1.7928 -4.90661 0.
-903.844 -2494.08 0.
-2.95639 -8.18802 0.
-0.124436 -17.6093 0.
-0.000116256 -16.7712 0.
-0.10456 -21.0669 0.
-65.7364 -173.155 0.
-0.196212 -3.4691 0.
-0.0971971 -0.845518 0.
-0.0325964 -0.502431 0.
-168.728 -467.095 0.
-1261.92 -3483.99 0.
-0.00337269 -2.19991 0.
-983.511 -1747.79 0.
-23.2003 -53.8226 0.
-154.595 -398.061 0.
-1247.86 -3367.1 0.
0.166192 0.388575 0.
-979.022 -2080.39 0.
-267.131 -451.443 0.
-10.487 -17.927 0.
-1066.21 -2792.32 0.
-143.792 -267.569 0.
-17.9023 -18.7086 0.
-826.284 -2094.64 0.
-301.418 -732.732 0.
-10.1873 -9.59139 0.
-563.721 -1390.93 0.
-486.601 -1211.4 0.
0.126124 0.219818 0.
-373.668 -906.804 0.
-722.911 -1849.57 0.
-10.8497 -27.2424 0.
-239.452 -575.509 0.
-953.68 -2479.52 0.
-15.9414 -23.554 0.
-11.0731 -11.9323 0.
-987.875 -2506.56 0.
-162.825 -239.74 0.
-1238.33 -2677.58 0.
-4.67432 -10.336 0.
-7.88809 -17.7218 0.
-1296.09 -3435.55 0.
0.0111548 0.356151 0.
-10.4 -25.3282 0.
-1285.84 -2812.82 0.
-41.7886 -114.16 0.
0.318768 0.876914 0.
-0.275626 -5.65602 0.
2.47322 6.65378 0.
-0.00101473 -4.11318 0.
-0.151055 -5.6397 0.
-0.315612 -0.762206 0.
2.90912 8.05695 0.
-114.738 -312.907 0.
2.87443 7.94454 0.
-525.006 -1453.76 0.
-0.474985 -22.9727 0.
1.30994 3.54172 0.
-257.84 -708.383 0.
-12.5964 -33.694 0.
-346.7 -932.005 0.
14.2543 35.9672 0.
-373.497 -952.987 0.
2.70295 6.95801 0.
-38.8009 -95.3777 0.
-3.78247 -8.97556 0.
-15.6216 -35.7724 0.
-34.164 -82.7591 0.
-495.926 -1221.45 0.
-5.70963 -13.6899 0.
-6.31634 -68.577 0.
-200.06 -483.996 0.
-11.7956 -28.3352 0.
-8.76051 -19.9414 0.
-143.517 -374.664 0.
-81.4759 -206.688 0.
-251.129 -675.054 0.
-1.73361 -56.9752 0.
-0.913758 -2.52923 0.
-1.17327 -58.3564 0.
-1.3245 -56.176 0.
-11.1913 -26.5678 0.
4.51654 11.1947 0.
-97.1162 -231.5 0.
22.0066 49.6765 0.
3.17923 7.80947 0.
-59.4282 -149.815 0.
-181.848 -427.342 0.
-10.7134 -25.6872 0.
-316.628 -770.486 0.
-294.245 -749.325 0.
9.62846 24.2013 0.
-120.776 -300.569 0.
-289.692 -720.115 0.
14.7599 38.2002 0.
-1.83739 -4.72218 0.
-325.19 -871.293 0.
0.440412 1.17148 0.
-116.888 -321.41 0.
-1.35643 -3.71509 0.
-91.9044 -254.421 0.
6.38755 17.638 0.
-0.120368 -13.3337 0.
3.38501 9.37022 0.
-0.0669931 -24.5662 0.
-723.701 -2002.61 0.
2.99061 8.10081 0.
-992.213 -2205.84 0.
-0.243888 -7.29399 0.
-0.00020871 -5.67806 0.
-0.00679706 -3.54328 0.
-0.0140876 -3.40674 0.
0.336401 0.875951 0.
-0.00582442 -1.18921 0.
-0.00184841 -0.0259304 0.
0.251737 0.654137 0.
0.00701431 0.0896323 0.
-2.35297 -4.24247 0.
-1.7247 -2.88391 0.
-9.00525 -14.4697 0.
-172.023 -418.763 0.
-3.53454 -4.15847 0.
-3.71956 -5.49522 0.
-103.863 -187.832 0.
-10.6478 -11.6999 0.
-13.2807 -13.7751 0.
-109.866 -158.776 0.
-19.5389 -21.8965 0.
0.151024 0.21472 0.
-4.51884 -7.14725 0.
-125.179 -180.73 0.
-19.4014 -44.2293 0.
-14.4314 -34.1575 0.
-82.8093 -105.279 0.
-17.2725 -31.2287 0.
-13.0892 -22.283 0.
-11.765 -20.303 0.
-16.3088 -28.454 0.
-276.753 -627.465 0.
-4.78196 -10.6246 0.
-8.10203 -18.1627 0.
-13.1671 -30.1084 0.
0.00148489 0.123169 0.
-0.00654128 -0.269139 0.
-26.5126 -66.3246 0.
1.58944 4.3626 0.
-1209.49 -3275.66 0.
-0.878042 -2.43018 0.
2.95064 8.12515 0.
-1078.6 -2911.56 0.
4.58399 12.0104 0.
-0.744986 -17.1274 0.
-0.0110481 -7.54502 0.
-10.8939 -30.0794 0.
-0.0736871 -25.6197 0.
-394.688 -1092.91 0.
5.02324 13.7894 0.
-7.48674 -20.5212 0.
-0.925024 -36.8924 0.
-69.9095 -184.507 0.
-608.367 -1499.09 0.
-1.92748 -4.68012 0.
-169.523 -432.859 0.
-16.8972 -43.1096 0.
-17.1987 -40.0704 0.
-579.307 -1359.86 0.
-582.481 -1328.73 0.
6.55193 14.7324 0.
-193.181 -472.961 0.
-15.898 -37.8776 0.
5.5818 12.7352 0.
12.203 27.1272 0.
-599.578 -1459.44 0.
-2.35376 -5.4293 0.
18.8074 45.5213 0.
-5.07364 -64.0625 0.
-116.982 -318.917 0.
16.7074 44.1258 0.
-9.00099e-05 -40.5182 0.
-2.65365 -6.86397 0.
-11.3821 -30.1477 0.
-6.14348 -14.7015 0.
-641.406 -1604.62 0.
-7.34557 -61.0704 0.
-312.896 -706.997 0.
-594.301 -1453.85 0.
-274.499 -690.135 0.
-18.14 -39.9335 0.
-29.0124 -69.3802 0.
-339.954 -824.876 0.
0.920501 2.27131 0.
0.231129 0.579852 0.
-530.938 -1310.52 0.
2.22133 5.20093 0.
1.94349 4.99733 0.
12.0503 30.7536 0.
-616.3 -1632.77 0.
2.46366 6.48193 0.
-659.448 -1808.6 0.
6.69331 18.2808 0.
8.21979 22.3231 0.
4.76823 13.0845 0.
-9.30656 -25.5106 0.
-707.636 -1926.37 0.
9.9327 27.2343 0.
5.88464 16.2824 0.
4.91028 13.1103 0.
2.31309 5.6124 0.
2.21467 5.91357 0.
-0.00463322 -10.8066 0.
-168.638 -431.882 0.
0.0159685 0.614873 0.
0.00641135 0.386745 0.
-0.00158904 -1.18486 0.
-0.0322393 -0.941073 0.
-0.00177923 -0.0527867 0.
-0.0666813 -0.847183 0.
-0.0432867 -0.299088 0.
-16.565 -20.9666 0.
-34.3466 -42.4708 0.
-1.10608 -1.73302 0.
-1.34671 -2.4467 0.
-1.68195 -3.47356 0.
-21.7568 -26.6691 0.
-15.5164 -17.9257 0.
-17.6287 -19.512 0.
-36.6285 -37.7364 0.
-34.1706 -33.8399 0.
-5.6039 -6.16816 0.
-13.3661 -21.2249 0.
-26.0084 -48.2488 0.
-35.3834 -56.4001 0.
-29.8492 -45.5749 0.
-27.4221 -39.8087 0.
-33.3806 -51.672 0.
-25.3582 -42.2491 0.
-19.4147 -33.6343 0.
-15.3272 -31.4172 0.
-6.19057 -17.0467 0.
-4.59125 -10.2483 0.
-8.3212 -18.605 0.
-13.6774 -30.9249 0.
-0.00175606 -0.574859 0.
-0.0248602 -2.30896 0.
-5.65049 -14.8804 0.
2.26796 5.9952 0.
0.804161 2.22626 0.
1.92255 5.32208 0.
-0.0191509 -9.03908 0.
-0.0455234 -7.84956 0.
1.28046 3.46434 0.
-864.224 -2266.38 0.
4.07314 11.2688 0.
-2.22653 -6.1671 0.
-0.120385 -21.3337 0.
-294.481 -813.715 0.
14.3789 39.3399 0.
-1.13812 -3.10914 0.
-88.1506 -227.861 0.
-204.874 -532.344 0.
-34.8465 -85.6732 0.
4.61522 11.2059 0.
19.3641 46.6002 0.
-489.053 -1236.73 0.
-538.041 -1255.4 0.
3.08693 7.08974 0.
-325.544 -741.471 0.
-264.702 -593.453 0.
-5.6176 -12.9785 0.
-67.5363 -159.858 0.
-606.008 -1382.26 0.
-2.94072 -6.54358 0.
-13.812 -31.4381 0.
8.73608 20.4448 0.
-323.867 -787.962 0.
15.677 36.7948 0.
-0.795885 -44.8824 0.
-4.71859 -12.1335 0.
-3.55868 -9.0817 0.
-1.11205 -45.5564 0.
19.3475 51.7416 0.
-95.7929 -231.401 0.
-11.6519 -27.0054 0.
-7.75102 -64.6184 0.
-92.3673 -208.922 0.
-185.913 -454.074 0.
-12.7613 -27.2475 0.
-666.881 -1471.47 0.
-466.934 -1113.62 0.
-0.243603 -0.562481 0.
-63.5146 -156.419 0.
-470.763 -1177.56 0.
-4.30935 -51.8757 0.
-7.37401 -17.2789 0.
-518.545 -1324.94 0.
12.8733 32.6119 0.
-322.599 -850.229 0.
-49.4049 -129.34 0.
11.1171 28.8795 0.
3.02735 8.24291 0.
11.7556 31.8081 0.
-556.041 -1526.06 0.
-5.12511 -14.0347 0.
-46.7314 -128.839 0.
7.48293 20.7071 0.
0.695566 1.91484 0.
5.87369 15.4874 0.
5.48253 13.9322 0.
-758.07 -1907.94 0.
-0.0703799 -2.31369 0.
-886.867 -2157.15 0.
1.36946 3.78373 0.
-900.32 -2095.69 0.
0.543135 1.50347 0.
-9.44878e-05 -1.20269 0.
-1199.59 -3290 0.
0.407582 1.10074 0.
-0.0321469 -0.38023 0.
-1277.42 -2837.73 0.
0.021271 0.105799 0.
-833.228 -2158.19 0.
-11.7135 -13.6345 0.
-13.723 -18.7706 0.
-885.383 -2313.29 0.
-143.363 -272.153 0.
-20.7916 -31.3028 0.
-605.851 -1468.05 0.
-472.505 -1139.62 0.
-12.9266 -14.461 0.
-256.76 -524.471 0.
-842.022 -2136.43 0.
-20.1669 -16.7498 0.
-56.8061 -41.9605 0.
-1025.94 -2568.7 0.
-8.33102 -8.36721 0.
-16.3883 -24.1873 0.
-1216.67 -2644.21 0.
-9.44856 -26.1596 0.
-1153.39 -2594.46 0.
-0.0710143 -1.09042 0.
-7.42164 -20.5442 0.
-1259.15 -3302.06 0.
0.873324 2.12294 0.
-41.9559 -93.273 0.
-1226.13 -2441.78 0.
3.20609 8.8421 0.
-518.518 -1432.89 0.
-135.445 -367.246 0.
3.20233 8.83046 0.
-0.00521346 -12.4922 0.
-0.0679395 -23.5815 0.
-1.424 -3.82561 0.
7.03651 19.39 0.
-563.355 -1559.63 0.
8.09403 22.213 0.
-121.288 -333.749 0.
5.89455 16.0635 0.
-151.113 -411.106 0.
-70.2194 -182.082 0.
-100.743 -262.878 0.
-61.4183 -151.034 0.
-267.034 -648.965 0.
-112.504 -270.356 0.
-26.7749 -64.0656 0.
-313.181 -733.675 0.
-5.16849 -59.8249 0.
13.6614 30.2679 0.
-13.9086 -31.1338 0.
11.7651 27.3531 0.
12.5017 28.2527 0.
11.4565 26.205 0.
15.4355 34.3986 0.
13.6321 31.0671 0.
-5.92898 -54.5189 0.
-123.748 -302.712 0.
-4.29873 -57.9431 0.
-4.13634 -11.0641 0.
-1.67672 -4.34222 0.
17.188 44.4805 0.
-11.398 -30.1909 0.
11.5074 24.7324 0.
0.781953 1.7523 0.
-11.386 -23.7208 0.
-894.097 -1946.51 0.
1.30199 3.08753 0.
-6.23716 -62.9478 0.
0.793233 1.70141 0.
-330.523 -733.207 0.
21.0768 47.2529 0.
-57.5779 -131.933 0.
-571.552 -1403.61 0.
10.863 25.8624 0.
-0.970315 -2.25264 0.
-348.564 -817.482 0.
-267.377 -677.933 0.
-9.92868 -24.4808 0.
-176.053 -439.874 0.
-70.8401 -184.505 0.
10.4759 27.0661 0.
-51.8004 -140.633 0.
6.98983 18.819 0.
-225.238 -617.672 0.
-0.100078 -0.273773 0.
-89.3257 -247.392 0.
-1.36794 -3.78427 0.
-658.89 -1813.89 0.
-91.8522 -251.727 0.
-132.24 -360.479 0.
-189.173 -512.766 0.
-0.0128005 -9.19125 0.
-0.0406973 -1.29689 0.
9.36519e-05 4.3447 0.
-13.2066 -36.516 0.
-0.000330351 -1.85427 0.
-0.000235472 -2.00841 0.
-0.408141 -1.11047 0.
0.33326 0.844165 0.
0.0232592 0.185026 0.
-8.75815 -18.3303 0.
-0.0062121 -0.0644471 0.
-69.5117 -78.6757 0.
-28.6521 -29.2635 0.
-18.5089 -28.2777 0.
-11.093 -16.8921 0.
-7.77206 -11.96 0.
-15.4144 -26.3161 0.
-29.7714 -41.6766 0.
-8.93808 -12.6866 0.
-22.2583 -21.5882 0.
-21.8831 -19.4184 0.
-22.3009 -17.8314 0.
-25.9346 -23.5632 0.
-15.9164 -13.7454 0.
-11.6452 -9.64204 0.
-13.841 -14.8389 0.
-20.0503 -33.0602 0.
-28.6472 -54.4766 0.
-2.43038 -6.07285 0.
-10.2816 -27.2019 0.
-0.0745083 -1.15867 0.
0.32298 0.88609 0.
0.446535 1.21545 0.
1.55344 4.03948 0.
1.33458 3.28194 0.
-17.9763 -41.6286 0.
1.97096 5.35666 0.
3.65197 10.1068 0.
-0.0557695 -16.6563 0.
-898.529 -2361.73 0.
9.42999 25.6748 0.
-618.846 -1675.13 0.
7.5341 20.5784 0.
7.59763 20.8171 0.
-187.261 -518.593 0.
5.64581 15.4474 0.
-311.156 -851.911 0.
6.97353 18.7811 0.
-247.815 -671.244 0.
-43.322 -112.682 0.
-98.0966 -256.656 0.
3.79441 9.48719 0.
-208.486 -506.64 0.
-304.459 -730.644 0.
-191.746 -458.271 0.
-4.4 -9.85044 0.
-159.745 -369.389 0.
-6.22882 -54.9016 0.
1.75598 3.77269 0.
-430.257 -1008.25 0.
-194.405 -442.978 0.
13.2624 28.8642 0.
-9.27638 -20.7113 0.
-221.774 -506.048 0.
0.35905 0.79544 0.
-1.68979 -3.95632 0.
-5.20802 -48.0564 0.
-138.621 -373.512 0.
-41.0709 -107.222 0.
-2.25281 -47.1446 0.
-3.28831 -8.3492 0.
19.5559 42.3244 0.
-296.874 -671.203 0.
2.32302 4.84101 0.
13.6433 27.2702 0.
19.1018 41.415 0.
-609.732 -1356.56 0.
-7.53825 -61.0365 0.
11.215 23.1472 0.
21.2253 47.1914 0.
-645.289 -1466.57 0.
-11.0662 -25.8568 0.
3.18268 7.56058 0.
-12.1386 -28.2102 0.
-343.09 -805.28 0.
14.5782 32.8645 0.
-91.1767 -222.993 0.
0.152866 0.379091 0.
-99.8411 -258.636 0.
-101.073 -261.015 0.
1.19249 3.23399 0.
5.62094 15.1171 0.
-136.364 -373.612 0.
0.732554 2.00184 0.
-489.882 -1356.23 0.
7.8457 21.6529 0.
3.29977 9.11062 0.
5.56485 15.3095 0.
2.68382 7.3498 0.
-19.0471 -52.7556 0.
-0.061276 -10.9452 0.
0.0162772 1.09311 0.
-0.00251172 -3.7974 0.
-11.3869 -31.509 0.
0.835923 2.31473 0.
-189.469 -462.802 0.
-590.417 -1626.98 0.
0.00161576 0.192021 0.
0.315831 0.864119 0.
-897.392 -2346.21 0.
-0.0157985 -0.0413864 0.
-890.475 -2080.21 0.
-14.0308 -27.7756 0.
-22.9444 -43.3045 0.
-829.019 -2129.03 0.
-7.29062 -14.6428 0.
-6.16521 -12.191 0.
-544.171 -1341.35 0.
-420.807 -972.362 0.
-37.9744 -28.2416 0.
-173.888 -230.746 0.
-805.477 -2036.7 0.
0.14282 0.130818 0.
-4.34349 -4.72624 0.
-1014.08 -2425.55 0.
-15.723 -25.3125 0.
-16.6332 -28.5842 0.
-983.186 -1987.63 0.
-3.45823 -8.60831 0.
-881.416 -2355.72 0.
1.0705 2.94287 0.
-0.0239491 -3.1363 0.
-562.112 -1443.17 0.
1.95409 5.26943 0.
-0.156978 -5.29444 0.
4.29595 10.7802 0.
4.65355 12.4141 0.
0.421144 1.15746 0.
2.00325 5.53609 0.
-0.25471 -16.3607 0.
-0.0322143 -23.9438 0.
-280.335 -770.576 0.
5.6153 15.3492 0.
-4.76502 -13.0453 0.
8.08693 22.3514 0.
-21.5775 -58.8314 0.
-522.504 -1425.19 0.
13.7293 36.909 0.
-18.952 -50.907 0.
-13.6486 -35.6069 0.
-678.687 -1776.17 0.
7.48485 18.626 0.
1.55388 3.84305 0.
7.68041 18.3951 0.
-393.077 -938.453 0.
-5.54959 -53.6698 0.
16.3298 35.6879 0.
-770.298 -1669.19 0.
-13.3471 -28.3747 0.
2.43632 5.48291 0.
-335.305 -770.165 0.
-97.5916 -211.157 0.
17.7683 37.2063 0.
-5.40409 -11.4816 0.
-158.039 -350.56 0.
-35.0068 -83.825 0.
-2.60695 -5.91165 0.
1.59435 3.40841 0.
15.4964 39.0697 0.
6.34481 15.8076 0.
-107.202 -272.71 0.
26.5277 57.8309 0.
-395.66 -901.301 0.
-14.1409 -27.4398 0.
-91.6114 -184.007 0.
-18.352 -39.345 0.
-462.598 -1018.34 0.
1.56709 3.11567 0.
-297.327 -611.781 0.
-242.851 -535.163 0.
-6.50102 -13.7447 0.
2.36876 5.52263 0.
-438.469 -1037.66 0.
-82.4261 -191.765 0.
3.75037 8.40841 0.
-247.501 -556.498 0.
-178.238 -432.092 0.
-125.482 -308.448 0.
-26.2039 -67.5641 0.
-91.7332 -236.732 0.
-468.946 -1270.46 0.
10.383 27.8935 0.
-49.8799 -136.731 0.
6.0921 16.6455 0.
-146.706 -405.546 0.
1.98022 5.44468 0.
-0.139641 -19.5821 0.
-3.55823 -9.81702 0.
-0.95447 -2.62374 0.
-487.665 -1350.69 0.
1.66924 4.58949 0.
-689.857 -1773.65 0.
-0.239138 -9.80911 0.
-0.251066 -15.3993 0.
-1082.66 -2671.44 0.
-0.00370265 -3.6856 0.
-9.30965e-06 -0.317264 0.
0.413984 1.14666 0.
-8.42476e-05 -1.36112 0.
-20.0395 -55.2826 0.
-0.0117794 -0.207909 0.
-0.0110307 -0.129822 0.
-0.015936 -0.184727 0.
-8.2339 -19.6239 0.
-17.285 -36.3151 0.
-9.75798 -19.9882 0.
-8.23556 -16.7582 0.
-13.0143 -19.4784 0.
-0.0248249 -0.031561 0.
-29.7434 -22.8148 0.
-12.0983 -9.10091 0.
-9.45622 -6.9471 0.
-1.40626 -1.36558 0.
-1.36062 -1.56958 0.
-8.76127 -12.2368 0.
-10.0293 -19.9883 0.
-11.3288 -23.2741 0.
-13.1858 -27.5073 0.
-0.311439 -0.804474 0.
-8.71861 -20.5076 0.
-0.000828215 -2.26353 0.
0.0337601 3.16176 0.
1.81604 4.50995 0.
0.00405078 0.648651 0.
-1138.5 -2933.88 0.
-0.0466556 -5.35154 0.
-0.806645 -2.23337 0.
-750.006 -2034.46 0.
9.67173 26.7813 0.
3.08006 8.3444 0.
4.36083 12.0763 0.
-41.4389 -114.714 0.
11.6606 31.8969 0.
-3.77006 -10.3282 0.
-480.622 -1299.77 0.
-4.22685 -11.3399 0.
-152.538 -414.365 0.
-1.7037 -4.57161 0.
-135.756 -364.005 0.
-44.8477 -115.648 0.
1.67325 4.40213 0.
-462.116 -1142.74 0.
-12.3118 -30.3017 0.
14.5601 35.3283 0.
-37.916 -90.3001 0.
-501.986 -1118.22 0.
-12.2087 -26.617 0.
13.2234 26.3185 0.
-109.843 -230.796 0.
-15.2506 -34.352 0.
-6.73056 -54.328 0.
-14.6482 -31.4791 0.
-581.517 -1209.73 0.
-12.3547 -24.9 0.
-8.49577 -54.7101 0.
3.7512 8.08403 0.
-236.698 -550.268 0.
-4.21958 -37.1688 0.
-1.20982 -32.1767 0.
-80.9828 -202.048 0.
-28.0408 -71.4252 0.
3.68637 7.65186 0.
-96.4304 -208.113 0.
-46.9138 -91.4524 0.
-439.385 -887.494 0.
-212.685 -450.043 0.
3.01727 6.08879 0.
13.2504 26.2563 0.
-826.602 -1697.11 0.
-3.75422 -7.61755 0.
-5.05323 -10.5856 0.
-60.7027 -141.175 0.
-206.786 -488.816 0.
-14.5263 -33.7178 0.
13.9385 31.1663 0.
-581.191 -1303.91 0.
-8.81981 -21.571 0.
-6.45545 -15.6844 0.
-34.4059 -88.6406 0.
-188.737 -486.597 0.
-4.85023 -13.124 0.
3.44472 9.20941 0.
-250.591 -684.147 0.
10.9308 29.7219 0.
-20.6443 -56.919 0.
-0.115922 -23.0444 0.
-0.0796814 -0.215516 0.
-310.555 -859.852 0.
7.42678 20.5606 0.
0.993591 2.74554 0.
-0.110166 -14.3408 0.
3.49329 9.06758 0.
-0.315944 -15.8749 0.
-0.201602 -15.9064 0.
-0.0393041 -10.2251 0.
-0.140719 -8.56966 0.
0.00179072 0.131797 0.
-0.00338276 -0.336114 0.
-0.00766263 -0.994464 0.
0.289351 0.779209 0.
0.596404 1.40864 0.
0.0155091 0.258806 0.
-0.00429393 -0.122227 0.
-0.00302403 -0.0692738 0.
-19.6609 -40.0435 0.
-12.5028 -25.4305 0.
-13.2112 -27.1455 0.
-11.8905 -16.8285 0.
-0.822647 -0.971212 0.
-22.4069 -17.6369 0.
-12.1354 -9.63871 0.
-9.51998 -7.39655 0.
-19.6043 -16.1859 0.
-11.0881 -13.2368 0.
-5.80193 -9.0974 0.
-13.6983 -26.4663 0.
-8.68195 -20.3477 0.
-13.7599 -30.212 0.
0.0285482 0.0753317 0.
0.378928 0.935708 0.
-3.41333e-05 -1.09377 0.
-0.00556572 -0.515262 0.
2.20289 5.54389 0.
0.0025648 1.6814 0.
-17.1408 -46.8798 0.
-0.121539 -9.3951 0.
-0.00613057 -18.865 0.
0.034541 0.0947301 0.
5.98455 16.4625 0.
-460.264 -1263.29 0.
10.6181 29.2446 0.
-44.5089 -123.134 0.
-6.24585 -17.0972 0.
-51.7588 -141.88 0.
4.68709 12.5351 0.
-13.0848 -35.0252 0.
-48.8744 -130.933 0.
-49.6804 -133.057 0.
-412.104 -1102.87 0.
-91.03 -235.633 0.
14.1056 36.0844 0.
18.7764 43.7033 0.
-306.961 -751.373 0.
-45.5364 -110.267 0.
6.03271 14.2043 0.
-169.081 -375.837 0.
16.5236 35.9397 0.
-193.869 -388.554 0.
9.80607 18.7124 0.
-61.753 -139.273 0.
-387.658 -835.005 0.
-4.14533 -8.54298 0.
-145.051 -299.18 0.
0.74295 1.48473 0.
19.5927 39.9619 0.
-8.2466 -45.7772 0.
11.3632 25.0853 0.
-8.1616 -18.4066 0.
-133.277 -341.893 0.
-2.7347 -38.8718 0.
9.89907 24.7557 0.
24.8268 52.1155 0.
-332.634 -728.145 0.
-242.184 -474.961 0.
-2.68656 -5.13802 0.
-16.5233 -32.4334 0.
-295.325 -588.909 0.
13.8806 27.4116 0.
-8.12123 -15.3505 0.
0.52907 1.06255 0.
-806.52 -1669.23 0.
-0.201487 -0.467668 0.
11.669 26.368 0.
-65.8258 -153.837 0.
-13.8383 -30.8587 0.
13.121 30.1752 0.
-5.32472 -12.9446 0.
-181.658 -438.379 0.
-161.644 -416.005 0.
-87.185 -219.053 0.
7.52742 20.058 0.
2.35572 6.28777 0.
-308.65 -838.623 0.
7.45157 20.1508 0.
-0.911293 -2.45121 0.
-207.877 -572.49 0.
-30.8215 -84.7758 0.
-78.5261 -217.458 0.
0.173349 0.478636 0.
-0.0707416 -20.0456 0.
-0.250067 -18.98 0.
-0.224851 -9.47547 0.
0.739258 1.97074 0.
-230.707 -632.173 0.
-278.532 -770.825 0.
3.78225 10.4614 0.
-835.091 -1658.23 0.
-31.6613 -68.8667 0.
-5.82664 -14.4137 0.
-788.058 -1974.16 0.
-0.0347202 -1.24881 0.
-789.595 -1769.87 0.
-0.813411 -1.81767 0.
-0.0356238 -0.295477 0.
-734.75 -1815.64 0.
-13.6455 -26.4872 0.
-1.09423 -2.17519 0.
-404.747 -1033.42 0.
-351.294 -870.368 0.
-60.8313 -55.1366 0.
-89.3148 -106.3 0.
-664.875 -1631.76 0.
-13.3379 -10.7733 0.
-0.0477927 -0.0346074 0.
-856.962 -2074.2 0.
0.00224063 0.445788 0.
-17.4429 -12.8084 0.
-777.273 -1517.55 0.
-0.000770492 -1.49095 0.
-752.22 -2058.58 0.
-0.0296889 -5.32262 0.
-0.287224 -0.730474 0.
-537.374 -1303.18 0.
4.00736 10.8931 0.
2.30567 6.38607 0.
5.5991 14.9165 0.
-0.0302917 -17.5181 0.
9.05904 25.083 0.
-0.6318 -1.74745 0.
-132.656 -366.278 0.
-4.87022 -13.3839 0.
-370.653 -1024.94 0.
4.43936 12.1837 0.
-71.101 -195.007 0.
-46.1506 -123.084 0.
-56.331 -150.4 0.
-252.374 -663.917 0.
2.04163 5.37121 0.
-9.48799 -24.9584 0.
-134.679 -350.022 0.
-335.289 -860.463 0.
-1.83127 -4.25346 0.
18.1858 41.8339 0.
-402.793 -973.748 0.
-18.8563 -44.2803 0.
-6.06387 -48.8589 0.
15.363 33.3402 0.
-424.815 -858.897 0.
-6.81452 -13.1016 0.
-2.47414 -4.52606 0.
-558.037 -1201.96 0.
23.8263 49.0817 0.
-10.6924 -20.0223 0.
-7.43516 -13.4763 0.
-379.975 -773.813 0.
26.3278 51.6242 0.
-4.35319 -40.0097 0.
11.3195 24.5515 0.
-5.83651 -15.1231 0.
-149.013 -364.443 0.
22.9114 46.8299 0.
-179.913 -383.318 0.
-359.144 -796.951 0.
18.6924 34.9387 0.
-90.7585 -173.156 0.
-97.7759 -189.823 0.
-165.132 -326.055 0.
4.34938 7.92947 0.
-246.365 -463.07 0.
-22.1634 -44.013 0.
21.1246 40.2852 0.
7.41158 16.287 0.
-481.139 -1095.53 0.
-188.065 -442.769 0.
20.5603 45.5211 0.
16.1029 37.2801 0.
-18.8984 -45.6532 0.
-259.121 -621.335 0.
6.78505 17.0771 0.
-55.7425 -140.232 0.
-370.676 -986.321 0.
-9.36229 -24.9477 0.
-82.4835 -222.908 0.
-3.60975 -9.75456 0.
5.52972 14.9468 0.
-160.241 -441.134 0.
7.20355 19.8045 0.
-152.292 -420.965 0.
5.72956 15.7488 0.
-0.142915 -20.3804 0.
-51.1183 -140.076 0.
-230.921 -630.033 0.
-357.438 -973.108 0.
2.2067 6.10613 0.
0.414942 1.1453 0.
-0.033711 -4.71098 0.
-6.58372 -14.6052 0.
-0.69028 -1.6738 0.
0.119871 0.31784 0.
1.05889 2.92121 0.
-0.0814391 -2.20959 0.
-13.4603 -26.4074 0.
-8.6163 -16.297 0.
-9.4562 -17.2998 0.
-38.0965 -77.065 0.
-22.3264 -42.7639 0.
-5.57723 -11.0877 0.
-21.2481 -23.7245 0.
-18.7903 -19.5624 0.
-16.1826 -19.7675 0.
0.20733 0.257501 0.
-0.127646 -0.160156 0.
-0.132928 -0.140633 0.
-0.205932 -0.143576 0.
-0.461491 -0.185873 0.
0.000279093 0.574066 0.
0.734376 0.039181 0.
-19.1956 -50.8734 0.
-0.0394152 -2.18643 0.
-19.1344 -52.9971 0.
-0.00959297 -7.38033 0.
1.09283 2.89023 0.
2.37031 5.84827 0.
5.93775 16.4428 0.
-457.6 -1239.45 0.
3.30051 9.14021 0.
-389.27 -1078.2 0.
9.03456 25.0238 0.
-0.000290071 -23.5587 0.
-141.163 -390.88 0.
-4.58908 -12.5802 0.
-199.93 -551.978 0.
8.9958 24.6685 0.
0.730802 2.00381 0.
-49.2584 -130.976 0.
-208.783 -555.672 0.
-57.2857 -149.918 0.
-22.9995 -60.1828 0.
-76.5897 -200.424 0.
1.1605 2.97641 0.
-86.4935 -223.129 0.
-440.327 -1021.16 0.
3.16853 7.27329 0.
-0.792499 -1.80931 0.
-227.492 -533.112 0.
-506.422 -1094.27 0.
0.922969 1.93598 0.
-9.05946 -17.6323 0.
-582.374 -1129.87 0.
19.6281 36.1934 0.
-3.10966 -6.04376 0.
-40.2147 -82.8184 0.
-360.037 -673.864 0.
4.12376 7.46719 0.
21.0075 39.145 0.
-30.3005 -59.201 0.
-191.086 -423.832 0.
21.234 46.1523 0.
13.0923 34.8654 0.
-150.18 -377.558 0.
-12.1733 -24.3943 0.
14.1225 29.0539 0.
-4.14001 -7.56067 0.
-307.583 -572.714 0.
-244.886 -466.049 0.
24.1336 42.9424 0.
18.2602 33.0602 0.
-17.1084 -31.0138 0.
-357.483 -667.849 0.
23.427 42.8564 0.
-0.289457 -0.552193 0.
9.2312 20.453 0.
-51.7596 -118.817 0.
-2.57188 -27.8428 0.
21.5514 48.0394 0.
-357.725 -832.521 0.
-71.9373 -172.632 0.
12.9752 30.1251 0.
12.7926 32.2341 0.
-116.129 -292.536 0.
-79.9423 -212.303 0.
0.400421 1.06334 0.
-8.9638 -23.8873 0.
-24.7546 -66.6634 0.
9.5999 25.8573 0.
-190.08 -523.082 0.
5.51108 15.1444 0.
-141.022 -387.2 0.
5.42426 14.8835 0.
-290.615 -798.616 0.
-24.6449 -67.4926 0.
0.977547 2.66602 0.
4.24172 11.687 0.
8.26978 22.8864 0.
-0.101923 -14.273 0.
-0.0889926 -4.82261 0.
-0.426761 -6.41665 0.
-0.20699 -6.46768 0.
-0.0110194 -1.80342 0.
-584.55 -1617.95 0.
1.78787 4.75042 0.
-730.399 -1126.33 0.
-16.2061 -32.3155 0.
-3.15014 -8.24279 0.
-656.633 -1573.61 0.
-10.3455 -22.711 0.
-0.0290716 -0.14462 0.
-291.051 -659.299 0.
-389.422 -929.722 0.
-34.2192 -24.4633 0.
-50.4676 -51.6495 0.
-509.949 -1246.27 0.
-54.9576 -23.7364 0.
-47.0802 -20.4266 0.
-458.218 -996.119 0.
0.339544 0.763781 0.
-592.71 -1510.12 0.
-0.420063 -4.1408 0.
-203.231 -532.731 0.
-0.720279 -1.94622 0.
-0.000473047 -4.96908 0.
1.82796 4.93921 0.
-0.688328 -24.715 0.
2.38685 6.57642 0.
-3.0117 -8.29992 0.
-0.0131805 -22.3742 0.
4.09444 11.3382 0.
-0.00437641 -27.7386 0.
-155.888 -431.707 0.
-165.903 -455.791 0.
9.17481 25.16 0.
9.80352 27.0051 0.
11.3774 31.1728 0.
-273.848 -750.09 0.
-26.6343 -70.9082 0.
9.97198 26.5835 0.
6.54508 17.0318 0.
-9.84184 -25.6059 0.
-134.269 -344.562 0.
-90.94 -232.678 0.
2.59286 6.61562 0.
-73.4561 -169.904 0.
0.237901 0.544905 0.
14.2974 32.5688 0.
0.926097 2.07676 0.
-475.116 -1029.03 0.
8.27572 17.3877 0.
19.4974 39.8264 0.
-9.64581 -17.6919 0.
5.52096 10.2677 0.
-59.503 -112.603 0.
11.1529 20.7921 0.
4.33556 7.55742 0.
-242.934 -439.345 0.
-107.404 -197.674 0.
14.6178 26.719 0.
-1.30357 -2.83249 0.
16.3484 33.2761 0.
-9.45928 -20.1944 0.
-10.7503 -26.7453 0.
-3.29184 -6.52891 0.
-16.5615 -33.7296 0.
-0.485483 -0.884019 0.
-38.7184 -71.9702 0.
19.5064 33.8735 0.
2.47387 4.36737 0.
-305.74 -548.484 0.
-34.94 -62.9239 0.
-4.71584 -8.10531 0.
15.1209 27.6415 0.
-696.354 -1332.25 0.
18.5459 41.4462 0.
6.98702 15.3974 0.
-8.12445 -18.4484 0.
-7.65141 -17.177 0.
19.3215 42.9942 0.
-7.26267 -16.6577 0.
-236.718 -550.828 0.
-46.1313 -116.378 0.
-25.0182 -63.088 0.
7.5017 19.8072 0.
-9.63308 -25.5251 0.
-72.4011 -192.528 0.
-225.43 -604.766 0.
-109.379 -293.469 0.
1.46284 3.98519 0.
3.14446 8.56032 0.
-99.0619 -271.611 0.
-3.10414 -8.50468 0.
11.0265 30.1883 0.
-7.35751 -20.1365 0.
-6.18601 -16.8585 0.
-2.76032 -7.64234 0.
10.1175 27.9967 0.
-397.852 -1101.94 0.
-0.00598927 -0.0164552 0.
-591.842 -1382.41 0.
-0.262651 -7.86094 0.
0.93687 2.57407 0.
1.89339 5.0722 0.
2.52666 6.33582 0.
-0.0115462 -0.713807 0.
0.188615 0.522272 0.
0.0211801 0.346077 0.
-21.4175 -55.9519 0.
-7.16866 -16.2249 0.
0.0927656 0.119919 0.
-25.9135 -15.6135 0.
-21.7761 -16.3164 0.
-10.4944 -13.3326 0.
0.0218584 0.0809854 0.
0.0862053 0.108209 0.
-20.2372 -7.6345 0.
-5.06334 -5.98301 0.
-55.851 -50.092 0.
0.603016 1.54585 0.
-2.85079e-07 -1.40499 0.
0.414889 4.85766 0.
1.38877 3.84114 0.
-213.714 -554.874 0.
1.65981 4.48419 0.
-684.153 -1785.65 0.
0.922993 2.54977 0.
3.16071 8.7523 0.
-294.625 -816.051 0.
-0.031043 -20.0035 0.
-0.0129839 -21.744 0.
-4.20709 -11.6327 0.
-73.6027 -203.852 0.
-4.58671 -12.5802 0.
1.06727 2.92264 0.
-22.7026 -62.0739 0.
-0.334217 -33.837 0.
-83.2147 -227.761 0.
-101.222 -269.731 0.
-95.7077 -255.338 0.
5.6186 14.5474 0.
2.08917 5.37728 0.
-89.4717 -229.068 0.
-107.726 -274.966 0.
-2.4249 -6.1722 0.
7.12005 16.3446 0.
15.0795 33.4862 0.
-405.417 -920.212 0.
6.60715 14.7802 0.
-9.19369 -19.143 0.
-7.45179 -15.6821 0.
12.3111 25.1841 0.
-42.2335 -76.7699 0.
4.34049 7.50324 0.
-383.609 -703.098 0.
-160.025 -289.81 0.
5.37825 9.29482 0.
15.7896 26.838 0.
-16.6327 -30.1888 0.
8.87958 16.0199 0.
16.4865 29.53 0.
5.30793 11.0895 0.
-4.18012 -22.3579 0.
-20.0772 -50.2054 0.
-37.1522 -72.8356 0.
-168.171 -338.456 0.
18.3214 30.8512 0.
-15.8466 -26.9663 0.
-10.4012 -17.9106 0.
-507.201 -885.388 0.
25.7284 42.8072 0.
12.6079 20.9226 0.
-407.684 -689.325 0.
-12.6513 -23.106 0.
5.17933 9.42037 0.
-0.880932 -1.87577 0.
-84.4912 -185.296 0.
-328.814 -743.528 0.
10.544 22.7669 0.
11.9766 26.593 0.
-3.24277 -37.181 0.
-156.306 -364.874 0.
-2.07013 -39.8193 0.
-53.7745 -133.705 0.
-23.651 -59.2379 0.
-75.7193 -200.168 0.
-147.513 -391.353 0.
-24.9076 -65.6266 0.
-10.9989 -29.0051 0.
-32.374 -87.9721 0.
6.65763 18.0761 0.
-94.9172 -259.859 0.
7.47312 20.4424 0.
-2.44906 -6.6938 0.
-34.1061 -93.3439 0.
-3.25296 -8.88964 0.
-298.592 -825.547 0.
-0.000845366 -26.54 0.
-57.1981 -157.654 0.
-0.209315 -18.8072 0.
7.86541 20.1705 0.
1.36577 3.60544 0.
5.17244 14.2845 0.
2.80405 7.23 0.
1.92429 4.56825 0.
0.0744163 0.513788 0.
-0.0100578 -0.956002 0.
0.0160036 0.316153 0.
-26.588 -49.0347 0.
-16.8189 -15.8741 0.
0.041461 0.0382415 0.
-21.0179 -13.4883 0.
-18.2347 -13.7733 0.
-28.2305 -23.9632 0.
-12.3879 -8.59386 0.
-25.9381 -13.8314 0.
-11.2016 -4.23664 0.
-3.76319 -5.62013 0.
-32.6685 -24.5609 0.
0.0161398 1.37829 0.
2.56648e-05 0.0220296 0.
0.143646 1.80649 0.
0.0194092 2.502 0.
1.21738 3.33444 0.
4.34928 12.0408 0.
4.67989 12.7449 0.
8.79885 24.2131 0.
-2.74241 -7.58074 0.
-30.4242 -84.2558 0.
-6.1949 -17.0825 0.
-154.829 -427.549 0.
-1.16963 -3.2186 0.
-1.27957 -3.54125 0.
-53.9399 -147.728 0.
-59.1339 -161.694 0.
-156.892 -424.591 0.
3.5244 9.51325 0.
-28.6274 -77.055 0.
12.193 32.534 0.
-131.474 -351.158 0.
-112.403 -289.41 0.
2.9222 7.4805 0.
-9.14928 -23.0775 0.
15.0766 37.6543 0.
-184.181 -467.554 0.
-284.109 -660.407 0.
16.9558 38.1432 0.
11.3151 24.6627 0.
-29.4184 -65.6295 0.
-401.058 -833.466 0.
8.07051 15.9707 0.
-5.33844 -25.4976 0.
-538.681 -968.608 0.
25.5043 43.5581 0.
-10.5393 -34.2675 0.
10.1407 16.59 0.
-352.255 -602.823 0.
-76.8181 -129.388 0.
16.0906 26.674 0.
12.0753 20.1723 0.
6.95694 12.2952 0.
-8.6803 -18.6664 0.
-3.46222 -20.4842 0.
11.6733 19.6227 0.
21.8641 38.4387 0.
12.3752 22.767 0.
-12.7772 -21.1268 0.
-61.2801 -102.304 0.
-59.3593 -101.283 0.
-11.5674 -33.8365 0.
15.5138 24.8831 0.
-25.4388 -41.4921 0.
-373.768 -620.766 0.
-7.54012 -13.3498 0.
-60.6253 -108.536 0.
0.486665 1.03045 0.
-9.14507 -19.9595 0.
-9.58993 -20.9559 0.
-4.93122 -10.6176 0.
-465.177 -1029.54 0.
16.1058 37.1874 0.
12.5547 28.4322 0.
8.3469 20.5774 0.
-137.257 -341.146 0.
-77.5955 -194.248 0.
-209.722 -552.929 0.
-0.77172 -2.01816 0.
-9.94158 -26.2477 0.
-17.2663 -45.6215 0.
-178.462 -483.633 0.
-4.35874 -11.8008 0.
-45.3287 -122.631 0.
-72.6783 -198.122 0.
9.55571 25.9993 0.
-25.4871 -69.7405 0.
3.9003 10.6563 0.
-0.00424779 -23.4226 0.
10.5374 29.1825 0.
-5.77013 -15.7224 0.
7.46189 19.6864 0.
-1.08225 -22.2289 0.
6.67615 17.9154 0.
6.32007 16.2432 0.
-262.606 -705.164 0.
-2.93649e-05 -1.83159 0.
3.12365 8.25365 0.
-578.439 -1312.78 0.
-0.0109518 -2.56684 0.
-306.602 -612.243 0.
-39.0659 -62.1827 0.
-90.7209 -178.792 0.
-125.757 -273.362 0.
-329.306 -860.139 0.
0.0781183 0.0558456 0.
0.144661 0.0709076 0.
-379.931 -926.965 0.
-0.198972 -0.089308 0.
-0.016302 -0.00548193 0.
-374.999 -732.203 0.
0.00197667 0.539727 0.
-487.269 -1295.51 0.
2.94408 7.98315 0.
4.3215 11.9198 0.
-241.91 -638.779 0.
-0.0200918 -7.1441 0.
6.67875 18.4774 0.
-0.103467 -21.2161 0.
-4.19847 -11.5701 0.
-0.567293 -1.56243 0.
-0.908687 -2.50524 0.
-134.702 -371.803 0.
-0.100938 -27.8644 0.
-113.583 -312.792 0.
7.00749 18.9938 0.
-140.959 -384.753 0.
-29.2521 -78.9845 0.
-33.7134 -90.7642 0.
-157.637 -423.107 0.
-10.5737 -27.4549 0.
6.05312 15.6449 0.
-30.5231 -78.1519 0.
-66.2167 -168.498 0.
-38.8968 -97.7467 0.
-5.86132 -14.5836 0.
11.9068 27.7489 0.
-9.95928 -23.4407 0.
7.66672 17.4825 0.
-84.0913 -182.213 0.
13.5006 28.819 0.
-218.436 -453.763 0.
9.1323 18.0266 0.
-2.73406 -5.135 0.
-2.26997 -3.77065 0.
-218.67 -368.301 0.
-432.557 -709.354 0.
11.7399 18.963 0.
-10.8287 -31.2245 0.
-90.5982 -151.105 0.
19.229 31.576 0.
26.1382 43.3381 0.
-12.789 -20.7729 0.
1.31744 2.66556 0.
4.21074 8.25414 0.
17.3421 29.2914 0.
-2.76 -4.8826 0.
-14.0604 -22.5739 0.
-29.3749 -47.6175 0.
-9.39795 -13.9778 0.
-7.77113 -11.9425 0.
-180.038 -280.312 0.
22.0664 34.7519 0.
-11.6654 -32.491 0.
-136.647 -225.557 0.
-19.4979 -33.9656 0.
-201.273 -353.758 0.
5.31514 10.8914 0.
15.1151 32.0967 0.
12.1865 26.7973 0.
10.3871 22.2954 0.
-4.66473 -10.3055 0.
1.34643 2.99866 0.
-137.334 -312.498 0.
-74.0332 -182.471 0.
-99.4424 -246.949 0.
6.06404 15.0835 0.
-2.01558 -5.26317 0.
-2.23099 -5.80959 0.
-139.502 -368.884 0.
-21.0216 -55.6508 0.
-87.0272 -235.153 0.
-1.48809 -4.01235 0.
0.410723 1.10896 0.
-67.62 -183.66 0.
10.7432 29.1151 0.
-99.8415 -273.179 0.
0.213143 0.582228 0.
-2.06495e-05 -23.9185 0.
0.876685 2.42587 0.
-59.0936 -163.678 0.
-52.5382 -143.6 0.
-3.40193 -9.23534 0.
-361.96 -957.314 0.
-0.0625081 -6.42056 0.
4.11932 11.2834 0.
2.88635 7.96926 0.
0.00525232 0.206906 0.
1.5826 4.12322 0.
1.06681e-05 0.0391181 0.
-43.1666 -93.1388 0.
-24.3028 -46.411 0.
-11.0775 -14.921 0.
-27.3959 -26.8272 0.
-2.92507 -1.6615 0.
-0.513565 -0.28283 0.
-0.157202 -0.0665306 0.
-7.24857 -2.71072 0.
-0.113255 -0.0320434 0.
-0.0181085 -0.00392802 0.
0.484373 0.247938 0.
-0.126674 -5.49017 0.
-0.00440558 -4.18674 0.
-0.0892009 -6.10946 0.
4.80112 13.298 0.
4.28816 11.6294 0.
0.95234 2.63771 0.
-231.794 -639.629 0.
-4.30857 -11.8815 0.
-155.589 -429.66 0.
-0.198316 -0.546097 0.
-4.36016 -12.0189 0.
-86.2905 -238.082 0.
-0.129352 -27.954 0.
-120.663 -331.642 0.
1.26278 3.41858 0.
-42.8676 -116.075 0.
-5.47105 -14.6645 0.
-92.4973 -248.299 0.
-64.1244 -167.307 0.
-97.7672 -253.991 0.
-85.2255 -220.418 0.
-11.7713 -29.0281 0.
6.16282 15.1049 0.
-103.511 -259.04 0.
-47.9653 -118.853 0.
-12.1891 -28.4959 0.
-7.0643 -16.2317 0.
-3.84539 -39.3799 0.
-216.881 -466.739 0.
12.5739 26.6833 0.
-6.22062 -12.5064 0.
-2.02524 -3.9185 0.
1.71156 3.19899 0.
-261.234 -430.546 0.
19.051 30.8563 0.
6.36292 10.2517 0.
-251.862 -401.176 0.
8.51508 13.3775 0.
1.45511 2.23364 0.
-13.8281 -34.917 0.
-405.431 -667.966 0.
-26.2504 -42.3063 0.
-4.88862 -9.83846 0.
11.2266 21.8711 0.
18.153 30.8238 0.
-81.5471 -145.245 0.
14.5662 20.7106 0.
13.9885 20.1712 0.
13.2594 19.378 0.
-145.675 -217.757 0.
-256.809 -388.437 0.
-12.6803 -31.7965 0.
12.3169 19.5157 0.
-228.491 -381.283 0.
-168.102 -287.254 0.
-13.6597 -23.0736 0.
10.8468 22.3521 0.
5.50496 11.7596 0.
-138.953 -307.293 0.
-6.80658 -13.9834 0.
4.06488 8.65355 0.
4.34596 9.72513 0.
-93.5607 -213.901 0.
-128.359 -299.574 0.
-1.93344 -33.6244 0.
-3.17431 -7.89927 0.
-16.7849 -43.6419 0.
-58.4355 -151.476 0.
-33.7299 -89.3953 0.
2.48224 6.52219 0.
-43.1456 -116.167 0.
-19.9298 -53.7347 0.
-19.993 -53.9784 0.
-68.0231 -184.019 0.
8.45432 22.8138 0.
-47.9259 -131.093 0.
-4.81676 -13.0123 0.
-25.323 -69.9893 0.
2.8278 7.82436 0.
3.40292 9.42289 0.
-31.3583 -85.4089 0.
7.94037 21.462 0.
-0.142338 -21.9677 0.
-0.0131955 -14.9038 0.
-0.00201543 -2.21259 0.
4.7431 13.0082 0.
-0.0383912 -1.31547 0.
-0.0437768 -5.32233 0.
0.218154 0.587777 0.
-158.549 -317.371 0.
-9.85339 -19.9503 0.
-59.0486 -135.725 0.
-69.3991 -111.74 0.
-186.831 -460.925 0.
-61.0011 -31.7795 0.
-18.3939 -6.97572 0.
-181.178 -345.115 0.
-0.099417 -0.00204823 0.
-185.136 -425.537 0.
0.0294573 0.00315395 0.
0.0572745 1.51149 0.
2.72483 7.51573 0.
0.122376 6.36643 0.
4.38625 12.1128 0.
3.42396 9.41721 0.
-0.0242354 -15.3546 0.
-1.26896 -3.51468 0.
5.87764 16.1793 0.
-31.3617 -86.4651 0.
-0.00961374 -0.0264765 0.
-26.0507 -71.8605 0.
-10.7139 -29.2841 0.
0.552061 1.50836 0.
9.77667 26.8123 0.
-12.5641 -33.9698 0.
-137.456 -371.672 0.
-7.00782 -18.7463 0.
-8.53276 -22.8493 0.
7.16758 18.7634 0.
-34.5654 -89.8255 0.
-78.7225 -203.676 0.
-188.729 -468.473 0.
2.56081 6.31433 0.
6.35681 15.4357 0.
-22.3714 -55.2015 0.
-320.741 -752.576 0.
10.2166 23.5482 0.
0.858462 1.94379 0.
0.454562 0.952368 0.
-96.311 -202.876 0.
-278.352 -563.163 0.
6.43142 12.5201 0.
-1.89814 -3.55403 0.
-233.192 -381.1 0.
-51.3905 -82.5581 0.
-75.1104 -120.682 0.
-6.88694 -10.8479 0.
-196.561 -304.236 0.
-379.269 -572.129 0.
17.495 25.9392 0.
24.9787 37.2355 0.
16.5324 24.4058 0.
-3.81204 -5.96355 0.
10.2871 19.9018 0.
9.27983 14.1219 0.
-9.75131 -27.6958 0.
20.0242 27.9748 0.
21.1263 29.9008 0.
8.28231 11.8969 0.
-10.1012 -14.1521 0.
5.8438 8.24222 0.
22.6269 34.3385 0.
-143.741 -229.75 0.
-1.40695 -2.24014 0.
-7.95791 -13.1033 0.
-277.386 -473.878 0.
0.593017 1.22825 0.
-0.212093 -0.442169 0.
13.3975 28.3396 0.
3.47873 7.20933 0.
-254.619 -547.212 0.
-6.966 -15.6632 0.
11.0071 24.3791 0.
4.69692 10.5838 0.
3.5624 8.68897 0.
-70.6873 -175.982 0.
-151.856 -392.957 0.
-1.28656 -31.3576 0.
-3.64531 -9.53409 0.
-18.4633 -48.4152 0.
-86.6336 -227.776 0.
-64.3028 -173.351 0.
-42.0183 -113.433 0.
-5.00703 -13.2779 0.
6.33511 16.8017 0.
-23.1748 -62.6984 0.
-5.72035 -15.4584 0.
-56.0701 -154.755 0.
-0.825386 -2.2814 0.
10.6042 29.3446 0.
-14.2875 -38.765 0.
-4.68462 -12.6043 0.
0.80309 2.22004 0.
6.65095 18.4183 0.
-140.556 -379.084 0.
0.932105 2.54206 0.
-1.49483 -4.11152 0.
-252.039 -681.911 0.
2.31033 6.30946 0.
-18.7095 -40.7016 0.
-8.02419 -14.2294 0.
-3.66126 -5.3595 0.
-46.7024 -59.297 0.
-13.8995 -9.85957 0.
-35.0712 -17.5452 0.
-10.6314 -3.85338 0.
-9.86989 -4.1719 0.
0.0246942 0.0479016 0.
0.0688467 0.0631676 0.
-83.2651 -208.618 0.
-0.150909 -13.6732 0.
-176.817 -483.991 0.
2.16894 6.00619 0.
-131.646 -364.296 0.
5.67178 15.5704 0.
2.26907 6.21011 0.
6.4313 17.7833 0.
3.06631 8.42333 0.
3.7122 10.2161 0.
4.71864 12.9532 0.
-29.6687 -81.6204 0.
8.61113 23.5094 0.
-5.69327 -15.4898 0.
-2.81371 -7.62683 0.
-8.33728 -22.163 0.
-90.1558 -243.474 0.
-38.5336 -102.863 0.
-7.31206 -19.5416 0.
0.162286 0.424302 0.
3.70491 9.62276 0.
12.2684 31.6487 0.
3.66809 9.14944 0.
-1.43382 -3.55669 0.
-6.67975 -16.2087 0.
0.879908 2.11566 0.
-7.24527 -16.5161 0.
2.36466 5.46749 0.
15.9106 36.1386 0.
-115.799 -244.874 0.
-8.99109 -18.4138 0.
13.5017 26.373 0.
13.8963 27.2046 0.
15.9779 30.0691 0.
-30.6709 -50.1652 0.
-7.42839 -11.9494 0.
-258.263 -413.476 0.
-131.543 -206.425 0.
13.4492 20.7097 0.
-1.56423 -2.29401 0.
-104.29 -151.505 0.
4.82611 7.03357 0.
21.678 31.3307 0.
-14.6255 -32.3133 0.
-1.45588 -2.61635 0.
-3.56269 -5.43972 0.
-95.2865 -151.303 0.
-17.0937 -23.4127 0.
12.6355 16.8233 0.
-10.1724 -13.8356 0.
-4.60352 -6.29469 0.
-162.302 -223.104 0.
2.977 4.54772 0.
-8.63287 -22.9052 0.
-8.69539 -13.8799 0.
12.8482 21.448 0.
-82.3463 -142.874 0.
7.91445 16.1029 0.
-1.04999 -2.16581 0.
-67.2894 -140.892 0.
-7.42582 -15.5308 0.
-5.01696 -10.4255 0.
-3.56422 -30.309 0.
-3.45354 -32.0845 0.
-189.663 -427.673 0.
-11.2118 -27.3521 0.
11.8913 28.2067 0.
2.86316 7.14746 0.
-1.44774 -35.4204 0.
-22.3169 -58.2461 0.
-40.2674 -105.376 0.
-88.0841 -231.144 0.
0.52784 1.38997 0.
1.86936 4.95529 0.
4.67527 12.4006 0.
5.56919 14.7731 0.
-78.343 -212.025 0.
-2.62863 -7.10572 0.
2.11362 5.70721 0.
10.0546 27.7513 0.
-1.87439 -5.13798 0.
-84.0334 -222.683 0.
5.61291 14.8036 0.
-1.25884 -3.48495 0.
-2.57384 -7.12197 0.
0.633086 1.75046 0.
1.59452 4.35268 0.
5.78879 15.9293 0.
3.30765 9.16155 0.
4.71195 12.2523 0.
-17.6026 -39.1169 0.
-7.56004 -11.8203 0.
-5.19446 -7.57646 0.
-34.1816 -35.0904 0.
-19.0334 -13.6102 0.
-24.7598 -11.2978 0.
-4.47444 -1.65231 0.
-3.76577 -1.7166 0.
0.128461 0.199792 0.
0.000192182 0.253379 0.
-0.0457081 -0.0864381 0.
-0.0272856 -0.925853 0.
-0.0024796 -14.1214 0.
3.38359 9.32548 0.
-0.00400696 -22.218 0.
5.36419 14.7175 0.
-5.51581 -15.1232 0.
-71.9132 -197.039 0.
5.90819 15.9931 0.
-17.3444 -47.0223 0.
5.35881 14.6533 0.
-98.8332 -270.975 0.
-10.6606 -29.0697 0.
-10.5927 -28.7807 0.
-8.14649 -22.0485 0.
1.36082 3.61636 0.
-3.20026 -8.49705 0.
-6.22801 -16.1892 0.
-107.343 -286.238 0.
-58.1687 -151.886 0.
-7.23112 -18.7555 0.
6.82263 17.0682 0.
0.302307 0.744052 0.
11.025 26.6688 0.
-130.895 -317.376 0.
-7.16536 -17.216 0.
-2.8949 -31.7126 0.
-3.61402 -32.4183 0.
-4.17714 -31.3629 0.
-98.2132 -209.972 0.
2.50093 5.17786 0.
11.0733 21.59 0.
0.800157 1.50693 0.
14.9588 28.2769 0.
-113.813 -185.214 0.
-14.3949 -23.0563 0.
-21.5672 -35.0501 0.
-43.9515 -68.6619 0.
-13.9521 -21.3861 0.
17.345 24.8371 0.
9.7178 13.649 0.
-8.42756 -11.622 0.
-178.549 -252.234 0.
-0.656774 -0.918467 0.
1.10591 1.99145 0.
-1.72362 -2.63594 0.
-8.38058 -19.8354 0.
8.98588 11.4417 0.
-11.9845 -15.6905 0.
16.9756 22.5053 0.
-59.6412 -79.3897 0.
-11.4588 -19.2367 0.
12.6204 18.7654 0.
10.1392 15.6248 0.
-152.198 -243.139 0.
-2.15127 -3.35783 0.
-7.24397 -25.3981 0.
-5.43495 -10.9302 0.
-7.58271 -15.4628 0.
-19.1922 -39.7266 0.
-4.0715 -8.17699 0.
7.01261 14.7209 0.
0.738929 1.61063 0.
-10.0178 -22.2268 0.
-51.3698 -115.988 0.
-6.29726 -14.6068 0.
4.4341 10.5062 0.
-3.94106 -9.84207 0.
3.90525 9.86496 0.
-74.3325 -189.859 0.
0.715632 1.76303 0.
7.22633 18.1624 0.
-5.33621 -14.0324 0.
-5.42321 -14.358 0.
-18.4602 -48.9687 0.
-46.9111 -124.443 0.
4.82701 13.0666 0.
-2.44478 -6.44617 0.
-4.09806 -10.8976 0.
-3.47331 -9.49882 0.
-2.42119 -6.62697 0.
-26.0325 -68.8317 0.
9.11962 24.0016 0.
-59.6226 -164.465 0.
6.30925 17.3742 0.
-0.0589846 -17.134 0.
5.93724 16.2212 0.
-0.0237576 -0.0654012 0.
6.13802 16.1114 0.
7.16771 17.174 0.
-51.863 -72.3376 0.
-4.10667 -5.8335 0.
-3.40059 -4.03673 0.
-49.2125 -79.6863 0.
-18.4012 -20.7708 0.
-19.3806 -13.5104 0.
-17.1945 -13.8992 0.
-78.1502 -100.627 0.
-1.93986e-05 -0.267604 0.
-0.18098 -0.353802 0.
-96.3363 -171.844 0.
7.76533 19.2358 0.
-0.0863414 -17.2051 0.
-0.591614 -1.6151 0.
0.90408 2.4925 0.
-6.87056 -18.839 0.
-11.3014 -30.9665 0.
-6.25743 -16.92 0.
0.110688 0.299744 0.
-6.92442 -18.7792 0.
7.28141 19.4347 0.
-2.14521 -5.70194 0.
5.90832 15.4495 0.
-85.9583 -233.199 0.
-86.6188 -230.276 0.
0.356696 0.947597 0.
-11.1109 -29.4904 0.
-7.11168 -18.4622 0.
-1.00091 -31.6799 0.
-1.5348 -28.0978 0.
-2.6756 -6.9304 0.
-118.358 -296.747 0.
6.56134 16.1779 0.
5.42954 13.1552 0.
13.9633 31.9849 0.
4.78749 11.4962 0.
-84.9154 -194.343 0.
7.02999 15.4951 0.
-1.43514 -2.9328 0.
11.7559 22.9021 0.
-8.36197 -17.5071 0.
-43.3387 -84.3173 0.
-5.06085 -23.8016 0.
-1.79974 -3.26386 0.
-7.19267 -10.6001 0.
-49.8424 -79.4068 0.
-94.8029 -155.186 0.
-7.92928 -12.2256 0.
-10.6027 -24.4182 0.
-362.623 -504.484 0.
5.32125 7.27769 0.
4.11356 5.53179 0.
19.7371 26.3748 0.
17.5132 23.3341 0.
3.49399 6.42393 0.
-6.60098 -14.0808 0.
4.28425 5.20568 0.
14.9165 18.6093 0.
-205.071 -262.909 0.
-16.791 -19.6231 0.
-13.3946 -18.3609 0.
14.9367 18.8321 0.
-2.02098 -3.00269 0.
-6.81406 -9.1903 0.
-5.66123 -11.3554 0.
7.62997 12.1695 0.
6.56352 11.513 0.
-1.02479 -2.03545 0.
-3.49252 -11.1754 0.
-6.49273 -12.2198 0.
-6.04113 -12.2606 0.
-88.2447 -187.398 0.
-6.70924 -14.8726 0.
3.1837 5.81543 0.
-3.87679 -27.7564 0.
2.11148 4.89133 0.
-68.5586 -162.281 0.
7.20496 18.0039 0.
3.9997 8.24716 0.
-2.16177 -29.2613 0.
-5.40721 -13.2677 0.
-7.93306 -19.8739 0.
10.1503 26.6583 0.
-65.7836 -173.946 0.
-63.4677 -168.351 0.
13.6029 31.9492 0.
-58.1051 -149.324 0.
-0.73475 -1.9299 0.
-2.28911 -6.06626 0.
-56.8159 -155.136 0.
-0.157536 -27.8664 0.
-5.94067 -15.6739 0.
7.29358 19.1541 0.
-34.1595 -93.5912 0.
-0.852646 -10.6803 0.
-1.46109 -3.79764 0.
-14.7696 -40.8132 0.
-32.7098 -89.9395 0.
4.58007 11.4685 0.
6.84567 15.352 0.
-18.828 -26.9475 0.
-10.6586 -18.2808 0.
-12.2804 -19.27 0.
-11.9154 -26.4274 0.
-29.9283 -31.2543 0.
-33.1509 -20.8589 0.
-27.5381 -17.8213 0.
-22.0939 -16.4436 0.
0.00891606 1.40593 0.
0.00147224 0.0334358 0.
-3.89034 -20.049 0.
-1.37926 -15.0733 0.
-1.7416 -4.37557 0.
-0.506505 -1.31259 0.
0.408458 1.05514 0.
-1.44487 -25.7191 0.
-10.0512 -27.5238 0.
6.79616 18.3832 0.
-3.32631 -9.011 0.
-28.4477 -77.1784 0.
-5.10652 -13.5712 0.
-11.5426 -30.5443 0.
-22.1058 -57.8372 0.
10.7638 27.4601 0.
-0.834374 -1.99576 0.
-15.0688 -40.0181 0.
-22.3963 -59.4237 0.
-75.3008 -195.265 0.
-9.28058 -23.8738 0.
5.00641 12.3163 0.
-4.96437 -11.5632 0.
-4.42076 -30.0826 0.
-6.28815 -15.5391 0.
-1.94454 -32.5371 0.
-38.593 -88.1967 0.
-6.87307 -15.166 0.
-4.06914 -21.9966 0.
7.12895 15.7427 0.
-119.998 -247.309 0.
-1.17731 -2.30947 0.
13.1219 24.4769 0.
4.64344 7.22965 0.
-5.63901 -26.2014 0.
-5.22891 -21.6513 0.
2.40682 3.58867 0.
16.1962 21.8164 0.
12.6885 15.4096 0.
14.9677 23.1864 0.
-9.84354 -22.7627 0.
4.54872 5.61644 0.
7.03752 7.56422 0.
-5.85528 -7.64525 0.
-29.9539 -38.2479 0.
6.90194 8.81318 0.
10.7394 13.6636 0.
