# vtk DataFile Version 2.0
test grain
ASCII
DATASET UNSTRUCTURED_GRID
POINTS 5000 float
0.497753 0.000611249 0.
0.500589 0.000795192 0.
0.503071 0.000863289 0.
0.505533 0.000929489 0.
0.507651 0.00094614 0.
0.509771 0.000963117 0.
0.511861 0.000975686 0.
0.513904 0.000980558 0.
0.515947 0.000985454 0.
0.517969 0.000989323 0.
0.519979 0.000992671 0.
0.52199 0.00099603 0.
0.523993 0.000996833 0.
0.525994 0.000997307 0.
0.527996 0.000997758 0.
0.529997 0.000998029 0.
0.531998 0.000998299 0.
0.533998 0.000998554 0.
0.535999 0.000998777 0.
0.537999 0.000999 0.
0.539999 0.000999137 0.
0.541999 0.000999206 0.
0.544 0.000999275 0.
0.546 0.000999272 0.
0.548 0.000999248 0.
0.55 0.000999224 0.
0.552 0.000999211 0.
0.554 0.000999197 0.
0.556 0.000999195 0.
0.558 0.000999231 0.
0.56 0.000999267 0.
0.562 0.000999299 0.
0.564 0.000999326 0.
0.566 0.000999352 0.
0.568 0.000999351 0.
0.57 0.000999337 0.
0.572 0.000999323 0.
0.574 0.000999294 0.
0.576 0.000999262 0.
0.578 0.000999238 0.
0.58 0.000999274 0.
0.582 0.000999309 0.
0.584 0.000999332 0.
0.586 0.000999327 0.
0.588 0.000999322 0.
0.59 0.000999369 0.
0.592 0.000999456 0.
0.594 0.000999544 0.
0.596 0.000999461 0.
0.598 0.000999328 0.
0.6 0.000999196 0.
0.602 0.000999292 0.
0.604 0.000999387 0.
0.606 0.000999447 0.
0.608 0.000999386 0.
0.61 0.000999325 0.
0.612 0.000999289 0.
0.614 0.000999284 0.
0.616 0.000999279 0.
0.618 0.000999267 0.
0.62 0.000999253 0.
0.622 0.000999239 0.
0.624 0.000999243 0.
0.626 0.00099925 0.
0.628 0.00099926 0.
0.63 0.000999294 0.
0.632 0.000999328 0.
0.634 0.00099934 0.
0.636 0.000999308 0.
0.638 0.000999276 0.
0.64 0.00099923 0.
0.642 0.000999173 0.
0.644 0.000999116 0.
0.646 0.000999151 0.
0.648 0.000999212 0.
0.65 0.000999274 0.
0.652 0.000999276 0.
0.654 0.000999278 0.
0.656 0.000999257 0.
0.658001 0.000999155 0.
0.660001 0.000999052 0.
0.662001 0.000998784 0.
0.664002 0.00099831 0.
0.666003 0.000997836 0.
0.668004 0.000997652 0.
0.670005 0.000997612 0.
0.672007 0.000997572 0.
0.674009 0.000996584 0.
0.676011 0.000995482 0.
0.678016 0.000993943 0.
0.680036 0.000989041 0.
0.682056 0.000984163 0.
0.684089 0.000979025 0.
0.686149 0.000973305 0.
0.688209 0.000967618 0.
0.690372 0.000940493 0.
0.692591 0.000903096 0.
0.694832 0.000864332 0.
0.69763 0.000762831 0.
0.700434 0.000664203 0.
0.495717 0.00158309 0.
0.499076 0.00229329 0.
0.50194 0.00255435 0.
0.504763 0.00277168 0.
0.507133 0.00282999 0.
0.509431 0.00288355 0.
0.511664 0.00292652 0.
0.513758 0.00294126 0.
0.515852 0.00295608 0.
0.517907 0.0029678 0.
0.519939 0.0029779 0.
0.52197 0.00298802 0.
0.523978 0.00299049 0.
0.525982 0.00299191 0.
0.527987 0.00299327 0.
0.52999 0.00299408 0.
0.531993 0.0029949 0.
0.533995 0.00299566 0.
0.535996 0.00299633 0.
0.537997 0.002997 0.
0.539998 0.00299741 0.
0.541998 0.00299762 0.
0.543999 0.00299782 0.
0.545999 0.00299782 0.
0.547999 0.00299774 0.
0.549999 0.00299767 0.
0.551999 0.00299763 0.
0.553999 0.00299759 0.
0.555999 0.00299758 0.
0.557999 0.00299769 0.
0.559999 0.0029978 0.
0.561999 0.0029979 0.
0.563999 0.00299798 0.
0.565999 0.00299806 0.
0.567999 0.00299805 0.
0.569999 0.00299801 0.
0.571999 0.00299797 0.
0.573999 0.00299788 0.
0.575999 0.00299779 0.
0.577999 0.00299771 0.
0.579999 0.00299782 0.
0.581999 0.00299793 0.
0.583999 0.00299799 0.
0.585999 0.00299798 0.
0.587999 0.00299797 0.
0.589999 0.00299811 0.
0.591999 0.00299837 0.
0.593999 0.00299863 0.
0.595999 0.00299838 0.
0.598 0.00299799 0.
0.6 0.00299759 0.
0.602001 0.00299787 0.
0.604001 0.00299816 0.
0.606001 0.00299834 0.
0.608001 0.00299816 0.
0.610001 0.00299798 0.
0.612001 0.00299787 0.
0.614001 0.00299785 0.
0.616001 0.00299784 0.
0.618001 0.0029978 0.
0.620001 0.00299776 0.
0.622001 0.00299772 0.
0.624001 0.00299773 0.
0.626001 0.00299775 0.
0.628001 0.00299778 0.
0.630001 0.00299788 0.
0.632001 0.00299798 0.
0.634001 0.00299802 0.
0.636001 0.00299792 0.
0.638001 0.00299783 0.
0.640001 0.00299769 0.
0.642001 0.00299752 0.
0.644001 0.00299735 0.
0.646001 0.00299745 0.
0.648001 0.00299764 0.
0.650001 0.00299782 0.
0.652001 0.00299783 0.
0.654001 0.00299783 0.
0.656001 0.00299777 0.
0.658002 0.00299746 0.
0.660002 0.00299716 0.
0.662003 0.00299635 0.
0.664006 0.00299493 0.
0.666008 0.0029935 0.
0.668011 0.00299296 0.
0.670015 0.00299284 0.
0.67202 0.00299272 0.
0.674027 0.00298973 0.
0.676034 0.00298642 0.
0.678048 0.00298169 0.
0.680103 0.00296687 0.
0.682159 0.00295212 0.
0.684241 0.00293665 0.
0.686367 0.00291931 0.
0.688492 0.00290208 0.
0.690898 0.00280397 0.
0.693386 0.00268532 0.
0.696102 0.00252276 0.
0.699267 0.00220729 0.
0.702544 0.00170298 0.
0.493353 0.00221876 0.
0.496989 0.00340116 0.
0.500613 0.00419529 0.
0.503807 0.00457179 0.
0.506566 0.00470163 0.
0.509056 0.00479552 0.
0.511462 0.00487661 0.
0.513608 0.00490141 0.
0.515755 0.00492633 0.
0.517844 0.00494606 0.
0.519897 0.00496296 0.
0.52195 0.00497993 0.
0.523963 0.00498414 0.
0.525971 0.00498651 0.
0.527978 0.00498878 0.
0.529983 0.00499014 0.
0.531988 0.00499149 0.
0.533992 0.00499277 0.
0.535994 0.00499388 0.
0.537996 0.004995 0.
0.539997 0.00499569 0.
0.541997 0.00499603 0.
0.543998 0.00499637 0.
0.545998 0.00499636 0.
0.547998 0.00499624 0.
0.549999 0.00499612 0.
0.551998 0.00499605 0.
0.553998 0.00499599 0.
0.555998 0.00499597 0.
0.557998 0.00499616 0.
0.559998 0.00499634 0.
0.561998 0.0049965 0.
0.563998 0.00499663 0.
0.565998 0.00499676 0.
0.567998 0.00499676 0.
0.569998 0.00499669 0.
0.571999 0.00499662 0.
0.573998 0.00499647 0.
0.575998 0.00499631 0.
0.577998 0.00499619 0.
0.579998 0.00499637 0.
0.581998 0.00499655 0.
0.583998 0.00499666 0.
0.585998 0.00499663 0.
0.587998 0.00499661 0.
0.589998 0.00499684 0.
0.591998 0.00499728 0.
0.593998 0.00499772 0.
0.595998 0.0049973 0.
0.597999 0.00499664 0.
0.6 0.00499598 0.
0.602001 0.00499646 0.
0.604001 0.00499693 0.
0.606002 0.00499724 0.
0.608002 0.00499693 0.
0.610002 0.00499663 0.
0.612001 0.00499645 0.
0.614001 0.00499642 0.
0.616001 0.00499639 0.
0.618002 0.00499634 0.
0.620002 0.00499627 0.
0.622002 0.00499619 0.
0.624002 0.00499622 0.
0.626001 0.00499625 0.
0.628001 0.0049963 0.
0.630001 0.00499647 0.
0.632001 0.00499664 0.
0.634001 0.0049967 0.
0.636002 0.00499654 0.
0.638002 0.00499638 0.
0.640002 0.00499615 0.
0.642002 0.00499587 0.
0.644002 0.00499558 0.
0.646002 0.00499576 0.
0.648002 0.00499606 0.
0.650002 0.00499637 0.
0.652002 0.00499638 0.
0.654002 0.00499639 0.
0.656002 0.00499628 0.
0.658003 0.00499577 0.
0.660004 0.00499526 0.
0.662006 0.00499392 0.
0.664009 0.00499154 0.
0.666013 0.00498917 0.
0.668019 0.00498826 0.
0.670026 0.00498807 0.
0.672033 0.00498787 0.
0.674045 0.00498284 0.
0.676057 0.00497731 0.
0.678081 0.00496924 0.
0.680172 0.00494434 0.
0.682264 0.00491957 0.
0.684397 0.0048937 0.
0.686592 0.0048645 0.
0.688785 0.00483548 0.
0.691506 0.00464149 0.
0.694292 0.0044324 0.
0.697669 0.0040685 0.
0.701291 0.00347791 0.
0.705039 0.00234033 0.
0.490466 0.0023892 0.
0.494708 0.00406259 0.
0.498833 0.00531539 0.
0.502198 0.00582743 0.
0.505356 0.00615661 0.
0.508011 0.00635254 0.
0.510651 0.00655259 0.
0.512965 0.00664725 0.
0.515275 0.00673742 0.
0.517502 0.00680807 0.
0.519637 0.00685447 0.
0.521775 0.00690167 0.
0.523836 0.00692697 0.
0.525883 0.00694819 0.
0.527927 0.00696812 0.
0.529942 0.00697142 0.
0.531957 0.00697472 0.
0.533969 0.00697831 0.
0.535977 0.0069825 0.
0.537985 0.00698671 0.
0.53999 0.00698946 0.
0.541992 0.00699102 0.
0.543995 0.00699258 0.
0.545996 0.00699318 0.
0.547996 0.00699351 0.
0.549997 0.00699383 0.
0.551997 0.00699375 0.
0.553996 0.00699366 0.
0.555996 0.00699366 0.
0.557997 0.00699396 0.
0.559997 0.00699425 0.
0.561997 0.00699448 0.
0.563997 0.00699464 0.
0.565997 0.0069948 0.
0.567997 0.00699478 0.
0.569998 0.00699467 0.
0.571998 0.00699457 0.
0.573997 0.00699442 0.
0.575997 0.00699427 0.
0.577997 0.00699415 0.
0.579997 0.00699436 0.
0.581997 0.00699456 0.
0.583997 0.0069947 0.
0.585997 0.00699471 0.
0.587997 0.00699472 0.
0.589997 0.00699494 0.
0.591997 0.00699532 0.
0.593997 0.00699571 0.
0.595998 0.00699529 0.
0.597999 0.00699463 0.
0.6 0.00699398 0.
0.602001 0.00699447 0.
0.604002 0.00699497 0.
0.606003 0.00699529 0.
0.608003 0.00699499 0.
0.610003 0.00699469 0.
0.612003 0.00699451 0.
0.614003 0.00699446 0.
0.616003 0.00699441 0.
0.618003 0.0069943 0.
0.620003 0.00699415 0.
0.622003 0.006994 0.
0.624003 0.00699403 0.
0.626002 0.00699408 0.
0.628002 0.00699414 0.
0.630002 0.00699431 0.
0.632002 0.00699447 0.
0.634002 0.00699454 0.
0.636003 0.00699442 0.
0.638003 0.0069943 0.
0.640003 0.00699403 0.
0.642003 0.00699365 0.
0.644004 0.00699326 0.
0.646004 0.0069933 0.
0.648004 0.00699345 0.
0.650003 0.00699361 0.
0.652004 0.00699295 0.
0.654006 0.0069923 0.
0.656007 0.00699127 0.
0.658011 0.00698896 0.
0.660015 0.00698665 0.
0.662022 0.00698254 0.
0.664033 0.00697624 0.
0.666044 0.00696996 0.
0.668062 0.00696617 0.
0.670083 0.00696351 0.
0.672105 0.00696086 0.
0.674174 0.00692894 0.
0.676245 0.00689527 0.
0.678339 0.00685763 0.
0.680526 0.00679838 0.
0.682709 0.0067403 0.
0.685027 0.00664794 0.
0.687431 0.00653676 0.
0.68992 0.00637998 0.
0.692846 0.00601469 0.
0.695905 0.00564821 0.
0.699548 0.00515034 0.
0.70378 0.00416725 0.
0.70782 0.00261519 0.
0.487517 0.00237199 0.
0.492222 0.00434569 0.
0.496408 0.00582734 0.
0.500326 0.00686559 0.
0.503771 0.00746038 0.
0.506806 0.00783087 0.
0.509672 0.00816485 0.
0.512241 0.00836069 0.
0.514734 0.00852472 0.
0.517138 0.00866321 0.
0.519362 0.00874102 0.
0.521589 0.00882019 0.
0.523706 0.00886813 0.
0.525792 0.00890868 0.
0.527875 0.00894734 0.
0.5299 0.00895261 0.
0.531925 0.00895788 0.
0.533947 0.00896378 0.
0.535961 0.00897107 0.
0.537974 0.00897838 0.
0.539983 0.00898321 0.
0.541987 0.00898599 0.
0.543991 0.00898877 0.
0.545993 0.00899 0.
0.547994 0.00899077 0.
0.549996 0.00899155 0.
0.551995 0.00899145 0.
0.553995 0.00899134 0.
0.555995 0.00899135 0.
0.557995 0.00899175 0.
0.559996 0.00899216 0.
0.561996 0.00899247 0.
0.563996 0.00899265 0.
0.565996 0.00899284 0.
0.567997 0.00899281 0.
0.569997 0.00899266 0.
0.571997 0.00899251 0.
0.573996 0.00899237 0.
0.575996 0.00899222 0.
0.577996 0.00899212 0.
0.579996 0.00899234 0.
0.581996 0.00899257 0.
0.583996 0.00899274 0.
0.585996 0.00899278 0.
0.587996 0.00899283 0.
0.589996 0.00899303 0.
0.591996 0.00899337 0.
0.593995 0.0089937 0.
0.595997 0.00899327 0.
0.597999 0.00899262 0.
0.6 0.00899197 0.
0.602002 0.00899249 0.
0.604003 0.008993 0.
0.606004 0.00899334 0.
0.608004 0.00899305 0.
0.610004 0.00899276 0.
0.612004 0.00899256 0.
0.614004 0.0089925 0.
0.616004 0.00899243 0.
0.618004 0.00899226 0.
0.620004 0.00899203 0.
0.622004 0.0089918 0.
0.624003 0.00899184 0.
0.626003 0.00899191 0.
0.628003 0.00899199 0.
0.630003 0.00899215 0.
0.632003 0.00899231 0.
0.634003 0.00899239 0.
0.636004 0.00899231 0.
0.638004 0.00899223 0.
0.640004 0.00899192 0.
0.642005 0.00899143 0.
0.644005 0.00899094 0.
0.646005 0.00899083 0.
0.648005 0.00899084 0.
0.650005 0.00899085 0.
0.652007 0.00898953 0.
0.654009 0.0089882 0.
0.656012 0.00898625 0.
0.658019 0.00898213 0.
0.660025 0.00897801 0.
0.662038 0.0089711 0.
0.664057 0.00896086 0.
0.666075 0.00895063 0.
0.668106 0.00894395 0.
0.670142 0.00893879 0.
0.672177 0.00893365 0.
0.674308 0.00887256 0.
0.676441 0.00880968 0.
0.678614 0.00874078 0.
0.680903 0.00864468 0.
0.683186 0.00855053 0.
0.685767 0.00836311 0.
0.688413 0.00815695 0.
0.691317 0.00777431 0.
0.694439 0.00721858 0.
0.69798 0.00660566 0.
0.701933 0.00580158 0.
0.706283 0.0044403 0.
0.710993 0.00253504 0.
0.484293 0.00224722 0.
0.489346 0.00434247 0.
0.493924 0.00611572 0.
0.4981 0.00758366 0.
0.502024 0.00859487 0.
0.505565 0.00923789 0.
0.508647 0.00968723 0.
0.511493 0.01 0.
0.514146 0.0102351 0.
0.516733 0.0104627 0.
0.519039 0.0105753 0.
0.521354 0.0106917 0.
0.523536 0.0107729 0.
0.525667 0.0108439 0.
0.527797 0.010914 0.
0.529837 0.0109229 0.
0.531878 0.0109317 0.
0.533912 0.0109415 0.
0.535934 0.0109532 0.
0.537956 0.010965 0.
0.53997 0.0109731 0.
0.541977 0.010978 0.
0.543985 0.010983 0.
0.545988 0.0109854 0.
0.547991 0.0109871 0.
0.549993 0.0109888 0.
0.551993 0.0109889 0.
0.553993 0.010989 0.
0.555994 0.0109891 0.
0.557994 0.0109897 0.
0.559994 0.0109902 0.
0.561995 0.0109906 0.
0.563995 0.0109908 0.
0.565995 0.0109911 0.
0.567996 0.010991 0.
0.569996 0.0109909 0.
0.571996 0.0109908 0.
0.573996 0.0109906 0.
0.575995 0.0109905 0.
0.577995 0.0109904 0.
0.579995 0.0109906 0.
0.581995 0.0109909 0.
0.583995 0.010991 0.
0.585995 0.0109911 0.
0.587995 0.0109912 0.
0.589995 0.0109914 0.
0.591995 0.0109916 0.
0.593995 0.0109918 0.
0.595996 0.0109914 0.
0.597998 0.0109908 0.
0.6 0.0109903 0.
0.602002 0.0109907 0.
0.604003 0.0109912 0.
0.606004 0.0109915 0.
0.608004 0.0109912 0.
0.610004 0.010991 0.
0.612004 0.0109909 0.
0.614004 0.0109908 0.
0.616004 0.0109907 0.
0.618004 0.0109905 0.
0.620004 0.0109902 0.
0.622005 0.01099 0.
0.624004 0.01099 0.
0.626004 0.0109901 0.
0.628003 0.0109901 0.
0.630004 0.0109903 0.
0.632004 0.0109904 0.
0.634004 0.0109905 0.
0.636005 0.0109904 0.
0.638005 0.0109903 0.
0.640006 0.0109898 0.
0.642006 0.0109891 0.
0.644007 0.0109884 0.
0.646008 0.010988 0.
0.648008 0.0109877 0.
0.650009 0.0109873 0.
0.652012 0.0109848 0.
0.654015 0.0109822 0.
0.656021 0.0109786 0.
0.658033 0.0109712 0.
0.660045 0.0109638 0.
0.662064 0.0109531 0.
0.664093 0.0109383 0.
0.666122 0.0109235 0.
0.668173 0.0109079 0.
0.670233 0.0108922 0.
0.672294 0.0108762 0.
0.674488 0.010776 0.
0.676682 0.0106764 0.
0.678945 0.0105662 0.
0.681335 0.010428 0.
0.683734 0.0102906 0.
0.686562 0.00999935 0.
0.689471 0.00968947 0.
0.692779 0.00904092 0.
0.696231 0.0082802 0.
0.700117 0.00744353 0.
0.70456 0.00609732 0.
0.709166 0.00448631 0.
0.714155 0.00232412 0.
0.481027 0.00211414 0.
0.486665 0.00431636 0.
0.491515 0.00625632 0.
0.495992 0.00807585 0.
0.500604 0.00953767 0.
0.504368 0.0103389 0.
0.507629 0.0109062 0.
0.510724 0.0114001 0.
0.513492 0.0117756 0.
0.516224 0.0121552 0.
0.518639 0.0123288 0.
0.521047 0.0124986 0.
0.523316 0.0126307 0.
0.525501 0.0127477 0.
0.527687 0.0128656 0.
0.52975 0.0128811 0.
0.531812 0.0128955 0.
0.533866 0.012911 0.
0.535897 0.0129286 0.
0.537928 0.0129463 0.
0.539949 0.0129589 0.
0.541962 0.0129671 0.
0.543975 0.0129753 0.
0.545981 0.0129795 0.
0.547985 0.0129825 0.
0.549989 0.0129855 0.
0.55199 0.012986 0.
0.553991 0.0129865 0.
0.555992 0.012987 0.
0.557993 0.0129878 0.
0.559993 0.0129885 0.
0.561994 0.012989 0.
0.563994 0.0129892 0.
0.565995 0.0129894 0.
0.567995 0.0129895 0.
0.569995 0.0129894 0.
0.571995 0.0129894 0.
0.573995 0.0129893 0.
0.575995 0.0129891 0.
0.577994 0.012989 0.
0.579994 0.0129892 0.
0.581994 0.0129894 0.
0.583994 0.0129896 0.
0.585994 0.0129897 0.
0.587995 0.0129898 0.
0.589995 0.0129899 0.
0.591995 0.01299 0.
0.593995 0.01299 0.
0.595996 0.0129897 0.
0.597998 0.0129893 0.
0.6 0.0129889 0.
0.602002 0.0129892 0.
0.604003 0.0129894 0.
0.606005 0.0129896 0.
0.608005 0.0129896 0.
0.610005 0.0129895 0.
0.612005 0.0129895 0.
0.614005 0.0129893 0.
0.616005 0.0129892 0.
0.618005 0.012989 0.
0.620005 0.0129888 0.
0.622005 0.0129885 0.
0.624005 0.0129885 0.
0.626004 0.0129886 0.
0.628004 0.0129886 0.
0.630004 0.0129887 0.
0.632005 0.0129888 0.
0.634005 0.0129888 0.
0.636006 0.0129886 0.
0.638006 0.0129884 0.
0.640007 0.0129878 0.
0.642008 0.0129868 0.
0.644009 0.0129857 0.
0.646011 0.0129848 0.
0.648012 0.012984 0.
0.650014 0.0129831 0.
0.65202 0.0129787 0.
0.654025 0.0129743 0.
0.656034 0.0129681 0.
0.658054 0.012956 0.
0.660073 0.0129438 0.
0.662103 0.0129281 0.
0.664143 0.0129081 0.
0.666184 0.0128881 0.
0.668266 0.0128556 0.
0.670362 0.0128198 0.
0.672466 0.0127807 0.
0.674728 0.0126284 0.
0.676986 0.0124783 0.
0.679372 0.0123 0.
0.681894 0.0120892 0.
0.684486 0.0118311 0.
0.687422 0.0113366 0.
0.690518 0.0108221 0.
0.693973 0.0100889 0.
0.697789 0.00920708 0.
0.702155 0.00801906 0.
0.706821 0.00633334 0.
0.711775 0.00451957 0.
0.717379 0.00213669 0.
0.477918 0.00204594 0.
0.483918 0.0043015 0.
0.489206 0.00632571 0.
0.493968 0.00838797 0.
0.498948 0.0101352 0.
0.50287 0.0111789 0.
0.506496 0.0120312 0.
0.509836 0.0127162 0.
0.512801 0.0132744 0.
0.515663 0.0138048 0.
0.518217 0.014073 0.
0.520724 0.0142976 0.
0.523089 0.0144834 0.
0.525329 0.0146475 0.
0.527573 0.0148141 0.
0.529662 0.014839 0.
0.531746 0.0148591 0.
0.533819 0.0148803 0.
0.53586 0.0149039 0.
0.5379 0.0149276 0.
0.539929 0.0149447 0.
0.541948 0.0149561 0.
0.543966 0.0149675 0.
0.545974 0.0149735 0.
0.54798 0.0149779 0.
0.549985 0.0149822 0.
0.551987 0.0149831 0.
0.553989 0.014984 0.
0.55599 0.0149849 0.
0.557991 0.0149858 0.
0.559992 0.0149867 0.
0.561993 0.0149873 0.
0.563993 0.0149876 0.
0.565994 0.0149878 0.
0.567994 0.0149879 0.
0.569995 0.014988 0.
0.571995 0.014988 0.
0.573994 0.0149879 0.
0.575994 0.0149877 0.
0.577994 0.0149877 0.
0.579994 0.0149878 0.
0.581994 0.014988 0.
0.583994 0.0149882 0.
0.585994 0.0149883 0.
0.587994 0.0149884 0.
0.589994 0.0149884 0.
0.591994 0.0149883 0.
0.593994 0.0149883 0.
0.595996 0.014988 0.
0.597998 0.0149878 0.
0.6 0.0149875 0.
0.602002 0.0149876 0.
0.604004 0.0149877 0.
0.606005 0.0149878 0.
0.608005 0.0149879 0.
0.610005 0.014988 0.
0.612005 0.014988 0.
0.614005 0.0149879 0.
0.616005 0.0149878 0.
0.618005 0.0149876 0.
0.620006 0.0149873 0.
0.622006 0.0149871 0.
0.624005 0.0149871 0.
0.626005 0.0149871 0.
0.628005 0.0149871 0.
0.630005 0.0149871 0.
0.632005 0.0149872 0.
0.634006 0.0149872 0.
0.636007 0.0149869 0.
0.638007 0.0149866 0.
0.640008 0.0149857 0.
0.64201 0.0149844 0.
0.644011 0.014983 0.
0.646014 0.0149816 0.
0.648016 0.0149802 0.
0.650019 0.0149788 0.
0.652027 0.0149726 0.
0.654035 0.0149664 0.
0.656048 0.0149576 0.
0.658075 0.0149407 0.
0.660102 0.0149238 0.
0.662141 0.0149031 0.
0.664194 0.0148778 0.
0.666247 0.0148527 0.
0.668362 0.014802 0.
0.670495 0.0147455 0.
0.672644 0.0146812 0.
0.674976 0.0144756 0.
0.677299 0.014274 0.
0.679834 0.0140176 0.
0.682493 0.0137315 0.
0.685291 0.0132967 0.
0.688318 0.0126039 0.
0.691661 0.0118498 0.
0.695282 0.0109708 0.
0.699295 0.00997693 0.
0.70416 0.00837972 0.
0.709112 0.00644339 0.
0.714482 0.00436962 0.
0.720688 0.00206435 0.
0.474884 0.00195865 0.
0.48121 0.00429121 0.
0.486845 0.00631699 0.
0.49176 0.00853453 0.
0.496916 0.0104082 0.
0.501266 0.0118786 0.
0.505289 0.013064 0.
0.508838 0.01393 0.
0.512048 0.0146685 0.
0.514947 0.0152739 0.
0.517627 0.0156602 0.
0.5202 0.0159485 0.
0.522676 0.0162101 0.
0.524972 0.0164147 0.
0.527278 0.0166238 0.
0.529438 0.0166972 0.
0.531582 0.0167589 0.
0.533708 0.0168156 0.
0.535767 0.0168463 0.
0.537826 0.0168772 0.
0.539872 0.0169028 0.
0.541904 0.0169238 0.
0.543937 0.0169449 0.
0.545953 0.0169564 0.
0.547964 0.0169647 0.
0.549974 0.0169731 0.
0.551978 0.0169755 0.
0.553982 0.0169778 0.
0.555985 0.01698 0.
0.557987 0.0169816 0.
0.559989 0.0169833 0.
0.561991 0.0169844 0.
0.563991 0.0169849 0.
0.565992 0.0169854 0.
0.567993 0.0169856 0.
0.569993 0.0169857 0.
0.571994 0.0169858 0.
0.573994 0.0169857 0.
0.575993 0.0169857 0.
0.577993 0.0169857 0.
0.579993 0.0169858 0.
0.581993 0.016986 0.
0.583993 0.0169862 0.
0.585994 0.0169862 0.
0.587994 0.0169862 0.
0.589994 0.0169862 0.
0.591994 0.016986 0.
0.593995 0.0169859 0.
0.595996 0.0169857 0.
0.597998 0.0169854 0.
0.6 0.0169851 0.
0.602002 0.0169852 0.
0.604003 0.0169853 0.
0.606005 0.0169855 0.
0.608005 0.0169856 0.
0.610005 0.0169858 0.
0.612005 0.0169859 0.
0.614005 0.0169858 0.
0.616006 0.0169857 0.
0.618006 0.0169855 0.
0.620006 0.0169853 0.
0.622006 0.016985 0.
0.624006 0.0169849 0.
0.626006 0.0169849 0.
0.628005 0.0169848 0.
0.630006 0.0169847 0.
0.632007 0.0169846 0.
0.634008 0.0169843 0.
0.636009 0.0169836 0.
0.63801 0.0169829 0.
0.640012 0.0169813 0.
0.642015 0.016979 0.
0.644018 0.0169767 0.
0.646023 0.0169735 0.
0.648029 0.0169699 0.
0.650034 0.0169663 0.
0.65205 0.0169546 0.
0.654066 0.0169429 0.
0.656089 0.0169271 0.
0.658133 0.0168989 0.
0.660177 0.0168709 0.
0.662239 0.0168396 0.
0.664318 0.0168044 0.
0.666397 0.0167694 0.
0.668584 0.0166649 0.
0.67079 0.0165513 0.
0.673025 0.0164278 0.
0.675408 0.0161836 0.
0.677778 0.0159458 0.
0.680452 0.0155918 0.
0.683194 0.0152372 0.
0.686156 0.0146088 0.
0.689262 0.0137731 0.
0.692866 0.0128097 0.
0.69678 0.0117179 0.
0.701014 0.0104926 0.
0.706065 0.00861282 0.
0.711331 0.0065091 0.
0.717047 0.00429103 0.
0.723799 0.00200376 0.
0.471734 0.00187841 0.
0.478256 0.00428723 0.
0.484425 0.00622962 0.
0.489572 0.00854923 0.
0.494896 0.0105972 0.
0.499594 0.0124429 0.
0.503841 0.013882 0.
0.507654 0.0149515 0.
0.511025 0.015828 0.
0.514006 0.0165436 0.
0.516903 0.0171345 0.
0.519571 0.0175248 0.
0.522202 0.0179041 0.
0.524572 0.0181571 0.
0.526956 0.0184163 0.
0.529196 0.0185433 0.
0.531405 0.0186508 0.
0.533593 0.0187492 0.
0.535672 0.0187874 0.
0.53775 0.0188257 0.
0.539813 0.01886 0.
0.54186 0.0188908 0.
0.543907 0.0189219 0.
0.545931 0.018939 0.
0.547947 0.0189515 0.
0.549964 0.018964 0.
0.551969 0.0189678 0.
0.553975 0.0189715 0.
0.55598 0.018975 0.
0.557983 0.0189774 0.
0.559986 0.0189798 0.
0.561988 0.0189815 0.
0.56399 0.0189822 0.
0.565991 0.0189829 0.
0.567992 0.0189832 0.
0.569992 0.0189834 0.
0.571993 0.0189835 0.
0.573993 0.0189836 0.
0.575992 0.0189836 0.
0.577992 0.0189837 0.
0.579992 0.0189838 0.
0.581993 0.018984 0.
0.583993 0.0189841 0.
0.585993 0.0189841 0.
0.587994 0.0189841 0.
0.589994 0.0189839 0.
0.591994 0.0189837 0.
0.593995 0.0189835 0.
0.595996 0.0189833 0.
0.597998 0.0189831 0.
0.6 0.0189828 0.
0.602002 0.0189829 0.
0.604003 0.018983 0.
0.606004 0.0189831 0.
0.608005 0.0189834 0.
0.610005 0.0189836 0.
0.612005 0.0189837 0.
0.614006 0.0189837 0.
0.616006 0.0189836 0.
0.618006 0.0189834 0.
0.620007 0.0189832 0.
0.622007 0.0189829 0.
0.624007 0.0189828 0.
0.626006 0.0189827 0.
0.628006 0.0189825 0.
0.630007 0.0189822 0.
0.632008 0.0189819 0.
0.634009 0.0189813 0.
0.636011 0.0189803 0.
0.638013 0.0189792 0.
0.640016 0.0189769 0.
0.642021 0.0189737 0.
0.644025 0.0189704 0.
0.646033 0.0189652 0.
0.648041 0.0189596 0.
0.650049 0.0189537 0.
0.652073 0.0189364 0.
0.654097 0.0189191 0.
0.656131 0.018896 0.
0.658193 0.0188562 0.
0.660254 0.0188167 0.
0.66234 0.0187743 0.
0.664448 0.0187283 0.
0.666555 0.0186827 0.
0.668827 0.0185134 0.
0.671115 0.0183357 0.
0.673446 0.0181489 0.
0.6759 0.0178545 0.
0.678374 0.0175474 0.
0.681192 0.0170564 0.
0.684067 0.0165458 0.
0.687183 0.0156854 0.
0.690378 0.0147777 0.
0.694135 0.0136969 0.
0.698405 0.0123416 0.
0.702948 0.010757 0.
0.708184 0.00874445 0.
0.713657 0.00640215 0.
0.719924 0.00432226 0.
0.726997 0.00188602 0.
0.468082 0.00169631 0.
0.475241 0.00425828 0.
0.481985 0.00617133 0.
0.48742 0.00851718 0.
0.492855 0.0107239 0.
0.497733 0.0127501 0.
0.502212 0.0144709 0.
0.506289 0.0157798 0.
0.50982 0.0168626 0.
0.513009 0.0177553 0.
0.516133 0.018553 0.
0.518929 0.0190657 0.
0.521697 0.0195693 0.
0.524174 0.019874 0.
0.526624 0.0201698 0.
0.528941 0.0203538 0.
0.531208 0.0205141 0.
0.533457 0.0206667 0.
0.535558 0.0207133 0.
0.53766 0.0207602 0.
0.539743 0.0208045 0.
0.541805 0.0208472 0.
0.543866 0.0208902 0.
0.5459 0.0209148 0.
0.547924 0.0209328 0.
0.549948 0.0209509 0.
0.551956 0.0209571 0.
0.553965 0.020963 0.
0.555972 0.0209685 0.
0.557977 0.0209719 0.
0.559982 0.0209753 0.
0.561985 0.0209778 0.
0.563987 0.0209789 0.
0.565989 0.0209801 0.
0.56799 0.0209808 0.
0.569991 0.0209811 0.
0.571992 0.0209815 0.
0.573992 0.0209816 0.
0.575992 0.0209817 0.
0.577991 0.0209818 0.
0.579992 0.020982 0.
0.581992 0.0209821 0.
0.583993 0.0209822 0.
0.585993 0.0209822 0.
0.587994 0.0209821 0.
0.589994 0.020982 0.
0.591995 0.0209817 0.
0.593995 0.0209814 0.
0.595997 0.0209812 0.
0.597999 0.020981 0.
0.6 0.0209808 0.
0.602002 0.0209808 0.
0.604003 0.0209809 0.
0.606004 0.0209811 0.
0.608004 0.0209813 0.
0.610005 0.0209816 0.
0.612005 0.0209818 0.
0.614006 0.0209817 0.
0.616006 0.0209817 0.
0.618007 0.0209815 0.
0.620007 0.0209813 0.
0.622008 0.020981 0.
0.624008 0.0209808 0.
0.626007 0.0209806 0.
0.628007 0.0209803 0.
0.630009 0.0209797 0.
0.63201 0.020979 0.
0.634012 0.020978 0.
0.636014 0.0209762 0.
0.638017 0.0209745 0.
0.640022 0.0209712 0.
0.642029 0.0209666 0.
0.644035 0.0209621 0.
0.646046 0.0209541 0.
0.648058 0.0209452 0.
0.650071 0.020936 0.
0.652106 0.0209108 0.
0.65414 0.0208858 0.
0.656187 0.0208535 0.
0.658266 0.0208011 0.
0.660345 0.0207491 0.
0.66246 0.0206906 0.
0.664601 0.0206276 0.
0.666741 0.0205651 0.
0.669088 0.0203255 0.
0.671445 0.0200851 0.
0.673864 0.0198409 0.
0.676388 0.0195061 0.
0.679007 0.0191072 0.
0.681948 0.0184808 0.
0.685028 0.0177349 0.
0.688285 0.0166781 0.
0.691743 0.0155834 0.
0.695526 0.0144453 0.
0.700052 0.0128668 0.
0.704882 0.0109049 0.
0.710315 0.00877115 0.
0.715973 0.00625636 0.
0.722931 0.00430868 0.
0.730937 0.00164511 0.
0.463772 0.00150128 0.
0.472205 0.00419389 0.
0.479534 0.00614114 0.
0.485264 0.00844217 0.
0.490866 0.0107978 0.
0.49594 0.0129744 0.
0.500628 0.014943 0.
0.504956 0.0165224 0.
0.508642 0.0177951 0.
0.512075 0.0189078 0.
0.515362 0.0198453 0.
0.518301 0.0204623 0.
0.521145 0.0210339 0.
0.523728 0.0214335 0.
0.526251 0.0218126 0.
0.528653 0.0220901 0.
0.530973 0.0223263 0.
0.533285 0.0225591 0.
0.535417 0.0226176 0.
0.53755 0.0226761 0.
0.539659 0.0227333 0.
0.541735 0.0227906 0.
0.543811 0.0228484 0.
0.545857 0.0228827 0.
0.547892 0.0229081 0.
0.549926 0.0229335 0.
0.551939 0.022943 0.
0.553952 0.0229521 0.
0.555963 0.0229602 0.
0.557969 0.022965 0.
0.559976 0.0229697 0.
0.561981 0.0229732 0.
0.563984 0.0229751 0.
0.565986 0.0229769 0.
0.567988 0.0229781 0.
0.56999 0.0229789 0.
0.571991 0.0229796 0.
0.573991 0.0229798 0.
0.575991 0.02298 0.
0.577991 0.0229801 0.
0.579992 0.0229802 0.
0.581992 0.0229804 0.
0.583993 0.0229805 0.
0.585993 0.0229804 0.
0.587994 0.0229804 0.
0.589994 0.0229802 0.
0.591995 0.0229798 0.
0.593996 0.0229795 0.
0.595997 0.0229793 0.
0.597999 0.0229791 0.
0.6 0.022979 0.
0.602002 0.0229791 0.
0.604003 0.0229791 0.
0.606004 0.0229793 0.
0.608004 0.0229796 0.
0.610005 0.0229799 0.
0.612005 0.02298 0.
0.614006 0.02298 0.
0.616006 0.0229799 0.
0.618007 0.0229797 0.
0.620008 0.0229795 0.
0.622008 0.0229792 0.
0.624008 0.0229789 0.
0.626009 0.0229786 0.
0.628009 0.0229781 0.
0.630011 0.022977 0.
0.632012 0.0229758 0.
0.634015 0.0229741 0.
0.636019 0.0229714 0.
0.638023 0.0229686 0.
0.64003 0.0229639 0.
0.642039 0.0229577 0.
0.644049 0.0229515 0.
0.646064 0.0229397 0.
0.648082 0.0229265 0.
0.6501 0.0229126 0.
0.652148 0.022877 0.
0.654196 0.0228416 0.
0.656259 0.0227973 0.
0.658358 0.0227305 0.
0.660457 0.0226642 0.
0.66261 0.0225784 0.
0.664795 0.0224834 0.
0.66699 0.0223805 0.
0.669387 0.0220568 0.
0.671786 0.0217376 0.
0.67431 0.0214082 0.
0.676913 0.021013 0.
0.679666 0.020494 0.
0.682636 0.0198215 0.
0.685931 0.0188417 0.
0.689325 0.0176224 0.
0.693066 0.016326 0.
0.697077 0.0149585 0.
0.701702 0.013266 0.
0.706716 0.0110262 0.
0.712334 0.00877784 0.
0.718243 0.00619178 0.
0.725918 0.00429094 0.
0.735796 0.00141643 0.
0.458441 0.00143591 0.
0.469296 0.00415093 0.
0.477168 0.00615615 0.
0.483293 0.00839007 0.
0.48905 0.0108629 0.
0.494248 0.0131649 0.
0.499042 0.0152819 0.
0.503502 0.0170511 0.
0.507467 0.0186396 0.
0.511105 0.0199287 0.
0.514432 0.0209255 0.
0.517575 0.0217459 0.
0.520528 0.0224387 0.
0.523259 0.022973 0.
0.525859 0.0234386 0.
0.528358 0.0238161 0.
0.53073 0.0241291 0.
0.533104 0.0244452 0.
0.535274 0.024521 0.
0.537438 0.0245913 0.
0.539574 0.0246614 0.
0.541665 0.0247335 0.
0.543756 0.0248061 0.
0.545814 0.0248505 0.
0.54786 0.0248832 0.
0.549905 0.0249161 0.
0.551922 0.0249289 0.
0.553938 0.0249411 0.
0.555953 0.024952 0.
0.557961 0.0249581 0.
0.55997 0.0249641 0.
0.561976 0.0249687 0.
0.56398 0.0249712 0.
0.565984 0.0249738 0.
0.567986 0.0249754 0.
0.569988 0.0249766 0.
0.57199 0.0249778 0.
0.57399 0.0249781 0.
0.57599 0.0249782 0.
0.57799 0.0249784 0.
0.579991 0.0249785 0.
0.581992 0.0249786 0.
0.583993 0.0249787 0.
0.585993 0.0249787 0.
0.587994 0.0249787 0.
0.589995 0.0249785 0.
0.591995 0.024978 0.
0.593996 0.0249775 0.
0.595997 0.0249774 0.
0.597999 0.0249773 0.
0.6 0.0249772 0.
0.602001 0.0249773 0.
0.604002 0.0249774 0.
0.606003 0.0249775 0.
0.608004 0.0249778 0.
0.610004 0.0249781 0.
0.612005 0.0249783 0.
0.614006 0.0249782 0.
0.616006 0.0249781 0.
0.618007 0.0249779 0.
0.620008 0.0249777 0.
0.622009 0.0249774 0.
0.624009 0.024977 0.
0.62601 0.0249765 0.
0.62801 0.0249759 0.
0.630012 0.0249743 0.
0.632015 0.0249726 0.
0.634018 0.0249702 0.
0.636023 0.0249665 0.
0.638028 0.0249628 0.
0.640038 0.0249567 0.
0.64205 0.0249488 0.
0.644062 0.0249409 0.
0.646082 0.0249253 0.
0.648105 0.0249077 0.
0.650129 0.024889 0.
0.652191 0.0248429 0.
0.654252 0.0247971 0.
0.656332 0.0247407 0.
0.658451 0.0246594 0.
0.660569 0.0245787 0.
0.662764 0.0244629 0.
0.664995 0.0243353 0.
0.667246 0.0241857 0.
0.669692 0.0237771 0.
0.672134 0.0233783 0.
0.674788 0.0229566 0.
0.677495 0.0224838 0.
0.680454 0.0217483 0.
0.683513 0.0209294 0.
0.68689 0.0198006 0.
0.690462 0.018466 0.
0.694364 0.0170125 0.
0.698654 0.0153636 0.
0.703382 0.0134978 0.
0.708607 0.0110967 0.
0.71434 0.00868669 0.
0.720597 0.00620621 0.
0.728771 0.0042384 0.
0.741848 0.00145935 0.
0.453134 0.00163141 0.
0.466581 0.00405986 0.
0.474942 0.00619409 0.
0.481484 0.00843006 0.
0.487297 0.0109093 0.
0.492574 0.0133316 0.
0.497454 0.0155174 0.
0.502032 0.0174701 0.
0.506294 0.0193857 0.
0.509995 0.0207854 0.
0.513458 0.0219394 0.
0.516812 0.0229916 0.
0.519864 0.0237944 0.
0.522751 0.0244709 0.
0.525405 0.0250044 0.
0.52798 0.0254705 0.
0.530384 0.0258348 0.
0.532802 0.0262063 0.
0.535034 0.0263344 0.
0.537245 0.026444 0.
0.539425 0.026548 0.
0.541538 0.0266345 0.
0.543653 0.0267217 0.
0.545733 0.0267816 0.
0.547796 0.0268291 0.
0.54986 0.0268771 0.
0.551886 0.0268976 0.
0.553909 0.0269169 0.
0.555931 0.0269342 0.
0.557944 0.0269431 0.
0.559957 0.026952 0.
0.561967 0.026959 0.
0.563973 0.0269632 0.
0.565979 0.0269675 0.
0.567982 0.0269703 0.
0.569985 0.0269723 0.
0.571987 0.0269743 0.
0.573988 0.0269749 0.
0.575989 0.0269753 0.
0.577989 0.0269757 0.
0.57999 0.0269759 0.
0.581991 0.0269762 0.
0.583992 0.0269763 0.
0.585993 0.0269763 0.
0.587994 0.0269763 0.
0.589995 0.0269761 0.
0.591996 0.0269758 0.
0.593996 0.0269754 0.
0.595998 0.0269752 0.
0.597999 0.0269752 0.
0.6 0.0269751 0.
0.602001 0.0269752 0.
0.604002 0.0269753 0.
0.606003 0.0269754 0.
0.608003 0.0269756 0.
0.610004 0.0269758 0.
0.612005 0.0269759 0.
0.614006 0.0269758 0.
0.616007 0.0269757 0.
0.618008 0.0269754 0.
0.620009 0.0269749 0.
0.62201 0.0269744 0.
0.624011 0.0269737 0.
0.626012 0.0269728 0.
0.628013 0.0269718 0.
0.630017 0.0269689 0.
0.63202 0.0269661 0.
0.634025 0.0269622 0.
0.636033 0.0269562 0.
0.638041 0.0269501 0.
0.640055 0.0269409 0.
0.642073 0.0269293 0.
0.64409 0.0269177 0.
0.646121 0.026894 0.
0.648154 0.0268676 0.
0.65019 0.0268389 0.
0.652274 0.0267736 0.
0.654357 0.0267091 0.
0.656464 0.0266337 0.
0.658616 0.0265346 0.
0.660764 0.0264369 0.
0.663011 0.0262732 0.
0.665287 0.026097 0.
0.667605 0.0258774 0.
0.670081 0.0254132 0.
0.672545 0.0249685 0.
0.675321 0.0244661 0.
0.678138 0.0239059 0.
0.681298 0.0229333 0.
0.684523 0.0219163 0.
0.687987 0.0206022 0.
0.691669 0.019188 0.
0.69571 0.0175864 0.
0.700179 0.0157359 0.
0.704991 0.013665 0.
0.710404 0.0111577 0.
0.716259 0.00861544 0.
0.722762 0.00628956 0.
0.731321 0.00410715 0.
0.746932 0.00183985 0.
0.449322 0.00201461 0.
0.464149 0.0039966 0.
0.472807 0.00626384 0.
0.479656 0.00849498 0.
0.485548 0.0109208 0.
0.490917 0.0134566 0.
0.495887 0.0157197 0.
0.500612 0.0178344 0.
0.505082 0.0200059 0.
0.508805 0.0215227 0.
0.51246 0.0228813 0.
0.515983 0.0241331 0.
0.519109 0.0250327 0.
0.522096 0.0258345 0.
0.524797 0.0264479 0.
0.527496 0.0270562 0.
0.529967 0.0274859 0.
0.532451 0.0279209 0.
0.534764 0.0281198 0.
0.53703 0.0282797 0.
0.539264 0.0284285 0.
0.541403 0.0285305 0.
0.543545 0.0286335 0.
0.545648 0.0287098 0.
0.54773 0.0287731 0.
0.549813 0.0288369 0.
0.551848 0.0288657 0.
0.55388 0.0288922 0.
0.555909 0.0289161 0.
0.557927 0.0289279 0.
0.559944 0.0289398 0.
0.561957 0.0289492 0.
0.563965 0.0289551 0.
0.565973 0.0289611 0.
0.567978 0.0289651 0.
0.569982 0.0289679 0.
0.571985 0.0289708 0.
0.573986 0.0289717 0.
0.575987 0.0289724 0.
0.577988 0.028973 0.
0.57999 0.0289734 0.
0.581991 0.0289737 0.
0.583992 0.0289739 0.
0.585993 0.0289739 0.
0.587994 0.0289739 0.
0.589995 0.0289738 0.
0.591996 0.0289735 0.
0.593997 0.0289733 0.
0.595998 0.0289731 0.
0.597999 0.028973 0.
0.6 0.0289729 0.
0.602001 0.0289731 0.
0.604002 0.0289732 0.
0.606002 0.0289734 0.
0.608003 0.0289734 0.
0.610004 0.0289735 0.
0.612005 0.0289735 0.
0.614006 0.0289734 0.
0.616007 0.0289733 0.
0.618008 0.0289728 0.
0.62001 0.0289721 0.
0.622011 0.0289714 0.
0.624013 0.0289703 0.
0.626015 0.0289691 0.
0.628016 0.0289676 0.
0.630021 0.0289636 0.
0.632025 0.0289596 0.
0.634032 0.028954 0.
0.636043 0.0289457 0.
0.638054 0.0289374 0.
0.640072 0.0289249 0.
0.642096 0.0289094 0.
0.644119 0.028894 0.
0.64616 0.028862 0.
0.648204 0.0288265 0.
0.650253 0.0287869 0.
0.65236 0.0287013 0.
0.654466 0.0286167 0.
0.656607 0.0285201 0.
0.658796 0.0284003 0.
0.660982 0.0282821 0.
0.66329 0.028057 0.
0.665622 0.0278215 0.
0.66803 0.02751 0.
0.670577 0.0269698 0.
0.673158 0.0264365 0.
0.676001 0.0258243 0.
0.678925 0.0251342 0.
0.682188 0.024025 0.
0.685599 0.0227983 0.
0.689117 0.0213504 0.
0.69295 0.0198 0.
0.697112 0.01804 0.
0.701737 0.016029 0.
0.706583 0.013795 0.
0.712093 0.0112258 0.
0.718045 0.00861636 0.
0.724837 0.00639314 0.
0.7336 0.00406041 0.
0.749622 0.00229512 0.
0.44741 0.0024887 0.
0.461929 0.00403142 0.
0.470817 0.00638444 0.
0.477911 0.00858838 0.
0.48386 0.0109497 0.
0.48933 0.0135604 0.
0.494375 0.0159155 0.
0.499234 0.0181535 0.
0.503677 0.0203646 0.
0.507595 0.0221643 0.
0.511459 0.0237511 0.
0.515025 0.025078 0.
0.51824 0.0261241 0.
0.521338 0.0271015 0.
0.524168 0.027857 0.
0.526977 0.0286044 0.
0.529545 0.029124 0.
0.532096 0.0296184 0.
0.534496 0.0298886 0.
0.536811 0.0300973 0.
0.539099 0.0302966 0.
0.541263 0.030413 0.
0.543429 0.0305308 0.
0.545555 0.0306244 0.
0.547656 0.0307053 0.
0.549757 0.0307873 0.
0.551803 0.0308261 0.
0.553844 0.0308615 0.
0.555882 0.0308934 0.
0.557905 0.0309088 0.
0.559927 0.0309242 0.
0.561945 0.0309366 0.
0.563955 0.0309449 0.
0.565966 0.0309531 0.
0.567973 0.0309586 0.
0.569977 0.0309626 0.
0.571982 0.0309666 0.
0.573984 0.030968 0.
0.575985 0.0309691 0.
0.577987 0.0309701 0.
0.579989 0.0309706 0.
0.58199 0.0309712 0.
0.583992 0.0309716 0.
0.585993 0.0309716 0.
0.587994 0.0309716 0.
0.589995 0.0309716 0.
0.591996 0.0309715 0.
0.593997 0.0309714 0.
0.595998 0.0309713 0.
0.597999 0.0309712 0.
0.6 0.0309711 0.
0.602001 0.0309712 0.
0.604001 0.0309714 0.
0.606002 0.0309715 0.
0.608003 0.0309714 0.
0.610004 0.0309713 0.
0.612005 0.0309712 0.
0.614006 0.030971 0.
0.616008 0.0309707 0.
0.618009 0.03097 0.
0.620011 0.0309691 0.
0.622013 0.0309681 0.
0.624016 0.0309664 0.
0.626018 0.0309647 0.
0.628021 0.0309625 0.
0.630027 0.030957 0.
0.632033 0.0309514 0.
0.634042 0.0309438 0.
0.636057 0.0309323 0.
0.638071 0.0309209 0.
0.640095 0.0309046 0.
0.642125 0.0308847 0.
0.644155 0.030865 0.
0.646207 0.0308223 0.
0.648263 0.0307754 0.
0.650327 0.0307226 0.
0.652456 0.0306158 0.
0.654583 0.0305104 0.
0.656756 0.0303902 0.
0.658981 0.0302492 0.
0.661203 0.0301128 0.
0.663571 0.0298258 0.
0.665957 0.0295309 0.
0.668462 0.0291234 0.
0.671082 0.028509 0.
0.673803 0.027863 0.
0.676738 0.0271089 0.
0.67984 0.0261697 0.
0.683131 0.024978 0.
0.68668 0.0236076 0.
0.690303 0.0220183 0.
0.694261 0.0203313 0.
0.698534 0.0184077 0.
0.703287 0.0162404 0.
0.708255 0.0138592 0.
0.71379 0.0112189 0.
0.719837 0.00866086 0.
0.726831 0.0065105 0.
0.73573 0.00408081 0.
0.750559 0.00284861 0.
0.446485 0.00306233 0.
0.460018 0.00419897 0.
0.468925 0.00653248 0.
0.47621 0.00869811 0.
0.482266 0.0110129 0.
0.487846 0.0136808 0.
0.492918 0.0160974 0.
0.497843 0.0184299 0.
0.50232 0.0206758 0.
0.506427 0.0227611 0.
0.510421 0.0245297 0.
0.514004 0.0259014 0.
0.517398 0.0271772 0.
0.520592 0.0283065 0.
0.523575 0.0292267 0.
0.526461 0.0300624 0.
0.529111 0.0306511 0.
0.531711 0.0311897 0.
0.534191 0.0315555 0.
0.53656 0.031845 0.
0.538916 0.0321296 0.
0.541106 0.0322646 0.
0.543299 0.0324013 0.
0.54545 0.0325168 0.
0.547568 0.0326202 0.
0.549687 0.032725 0.
0.551746 0.032777 0.
0.5538 0.0328233 0.
0.555849 0.0328653 0.
0.557877 0.032885 0.
0.559906 0.0329048 0.
0.561928 0.032921 0.
0.563942 0.0329321 0.
0.565957 0.0329434 0.
0.567965 0.0329508 0.
0.569971 0.0329563 0.
0.571977 0.0329618 0.
0.57398 0.0329638 0.
0.575983 0.0329654 0.
0.577986 0.0329669 0.
0.579988 0.0329677 0.
0.58199 0.0329686 0.
0.583991 0.0329692 0.
0.585993 0.0329693 0.
0.587994 0.0329695 0.
0.589995 0.0329696 0.
0.591996 0.0329696 0.
0.593997 0.0329697 0.
0.595998 0.0329697 0.
0.597999 0.0329697 0.
0.6 0.0329696 0.
0.602001 0.0329697 0.
0.604001 0.0329698 0.
0.606002 0.0329698 0.
0.608003 0.0329695 0.
0.610004 0.0329693 0.
0.612005 0.0329689 0.
0.614007 0.0329685 0.
0.616008 0.0329681 0.
0.618011 0.032967 0.
0.620013 0.0329657 0.
0.622015 0.0329644 0.
0.624019 0.032962 0.
0.626022 0.0329594 0.
0.628026 0.0329563 0.
0.630034 0.032949 0.
0.632042 0.0329416 0.
0.634054 0.0329313 0.
0.636074 0.0329157 0.
0.638094 0.0329001 0.
0.640123 0.0328791 0.
0.64216 0.0328542 0.
0.644197 0.0328294 0.
0.646264 0.0327727 0.
0.648335 0.0327107 0.
0.650416 0.0326402 0.
0.652568 0.032509 0.
0.654717 0.0323796 0.
0.656923 0.0322214 0.
0.659182 0.0320378 0.
0.661445 0.0318549 0.
0.663877 0.0314976 0.
0.666311 0.0311419 0.
0.668903 0.0306375 0.
0.671557 0.0299822 0.
0.674413 0.0292312 0.
0.677432 0.0283587 0.
0.680722 0.0271649 0.
0.684108 0.0258549 0.
0.687739 0.0243561 0.
0.691481 0.0226276 0.
0.69553 0.0207991 0.
0.699914 0.0187434 0.
0.704805 0.0164129 0.
0.709843 0.0139202 0.
0.715412 0.0112273 0.
0.721582 0.008736 0.
0.728722 0.00665057 0.
0.737674 0.00421517 0.
0.750893 0.00350679 0.
0.446542 0.00375351 0.
0.458548 0.0044947 0.
0.46725 0.00671854 0.
0.474613 0.00885409 0.
0.480784 0.0111419 0.
0.486402 0.0137794 0.
0.49149 0.0162708 0.
0.496491 0.0186826 0.
0.501019 0.0209727 0.
0.505276 0.0233169 0.
0.509265 0.0251545 0.
0.512996 0.0266856 0.
0.516572 0.0281887 0.
0.51983 0.0294209 0.
0.5229 0.0304556 0.
0.52582 0.0313697 0.
0.528611 0.0321029 0.
0.53129 0.0327287 0.
0.533873 0.0332087 0.
0.5363 0.0335817 0.
0.538727 0.0339586 0.
0.540947 0.0341149 0.
0.543167 0.0342706 0.
0.545344 0.0344079 0.
0.547479 0.034534 0.
0.549616 0.0346617 0.
0.55169 0.0347275 0.
0.553755 0.0347849 0.
0.555816 0.0348372 0.
0.55785 0.0348612 0.
0.559884 0.0348853 0.
0.561911 0.0349053 0.
0.563929 0.0349194 0.
0.565947 0.0349336 0.
0.567958 0.034943 0.
0.569966 0.03495 0.
0.571973 0.0349569 0.
0.573977 0.0349596 0.
0.575981 0.0349617 0.
0.577984 0.0349637 0.
0.579986 0.0349648 0.
0.581989 0.0349659 0.
0.583991 0.0349668 0.
0.585992 0.0349671 0.
0.587994 0.0349674 0.
0.589995 0.0349676 0.
0.591996 0.0349678 0.
0.593997 0.0349679 0.
0.595998 0.0349681 0.
0.597999 0.0349681 0.
0.6 0.0349682 0.
0.602001 0.0349682 0.
0.604001 0.0349682 0.
0.606002 0.0349681 0.
0.608003 0.0349676 0.
0.610004 0.0349672 0.
0.612006 0.0349667 0.
0.614007 0.034966 0.
0.616009 0.0349654 0.
0.618012 0.034964 0.
0.620015 0.0349623 0.
0.622018 0.0349606 0.
0.624022 0.0349575 0.
0.626027 0.0349541 0.
0.628032 0.0349501 0.
0.630042 0.0349409 0.
0.632052 0.0349318 0.
0.634067 0.0349188 0.
0.636091 0.0348991 0.
0.638116 0.0348793 0.
0.640152 0.0348536 0.
0.642196 0.0348237 0.
0.64424 0.0347938 0.
0.646322 0.0347226 0.
0.648408 0.0346454 0.
0.650507 0.0345568 0.
0.652681 0.0344009 0.
0.654852 0.0342472 0.
0.657095 0.0340478 0.
0.659388 0.0338208 0.
0.661697 0.0335895 0.
0.664197 0.0331558 0.
0.666689 0.0327291 0.
0.669409 0.0320981 0.
0.672147 0.031358 0.
0.675106 0.0304535 0.
0.678142 0.0295253 0.
0.681596 0.028111 0.
0.685098 0.0266803 0.
0.688768 0.0250525 0.
0.692616 0.0232039 0.
0.696805 0.021187 0.
0.701265 0.0190473 0.
0.706225 0.0165856 0.
0.711312 0.0140251 0.
0.716908 0.0112919 0.
0.723152 0.00888348 0.
0.730404 0.00680658 0.
0.739152 0.00450514 0.
0.750724 0.00426706 0.
0.447185 0.00452879 0.
0.457582 0.00494342 0.
0.465898 0.00699482 0.
0.473197 0.00907423 0.
0.479432 0.0113342 0.
0.485081 0.0139249 0.
0.490191 0.0164854 0.
0.495239 0.0189619 0.
0.4998 0.021283 0.
0.50412 0.023767 0.
0.508116 0.025713 0.
0.512003 0.0274393 0.
0.515696 0.0290834 0.
0.518988 0.0304013 0.
0.522156 0.0316251 0.
0.525146 0.0326443 0.
0.528086 0.0335287 0.
0.530838 0.0342342 0.
0.533525 0.0348316 0.
0.535988 0.0352643 0.
0.538458 0.0357133 0.
0.540721 0.0359064 0.
0.542973 0.0360903 0.
0.545185 0.0362578 0.
0.547343 0.0364048 0.
0.549503 0.0365538 0.
0.551598 0.0366414 0.
0.553682 0.0367192 0.
0.555762 0.0367912 0.
0.557803 0.0368202 0.
0.559845 0.0368492 0.
0.56188 0.0368746 0.
0.563905 0.0368948 0.
0.565929 0.0369151 0.
0.567945 0.0369284 0.
0.569955 0.036938 0.
0.571966 0.0369475 0.
0.573971 0.0369517 0.
0.575976 0.0369551 0.
0.57798 0.0369583 0.
0.579984 0.03696 0.
0.581987 0.0369617 0.
0.58399 0.0369631 0.
0.585991 0.0369638 0.
0.587993 0.0369644 0.
0.589995 0.0369649 0.
0.591996 0.0369653 0.
0.593997 0.0369657 0.
0.595998 0.036966 0.
0.597999 0.0369662 0.
0.6 0.0369664 0.
0.602001 0.0369663 0.
0.604001 0.0369661 0.
0.606002 0.0369658 0.
0.608003 0.0369651 0.
0.610005 0.0369643 0.
0.612006 0.0369634 0.
0.614009 0.0369623 0.
0.616011 0.0369612 0.
0.618014 0.0369591 0.
0.620018 0.0369566 0.
0.622022 0.0369541 0.
0.624028 0.0369493 0.
0.626035 0.0369443 0.
0.628042 0.0369382 0.
0.630056 0.0369255 0.
0.63207 0.0369128 0.
0.634091 0.0368948 0.
0.636123 0.0368674 0.
0.638156 0.0368403 0.
0.6402 0.0368084 0.
0.642252 0.0367733 0.
0.644305 0.0367382 0.
0.646414 0.0366388 0.
0.648527 0.0365336 0.
0.650654 0.0364182 0.
0.652849 0.0362437 0.
0.65504 0.0360712 0.
0.657326 0.0358231 0.
0.659655 0.0355497 0.
0.662013 0.0352649 0.
0.664546 0.0347811 0.
0.667107 0.034285 0.
0.669946 0.033531 0.
0.672788 0.0326866 0.
0.67587 0.0315751 0.
0.678997 0.0304612 0.
0.682468 0.0290058 0.
0.686082 0.0274511 0.
0.689769 0.0257004 0.
0.693679 0.0237625 0.
0.698027 0.0215575 0.
0.702604 0.0193059 0.
0.707567 0.0167619 0.
0.712675 0.0141621 0.
0.718264 0.0114355 0.
0.724561 0.00910427 0.
0.731776 0.0070326 0.
0.74017 0.00494396 0.
0.750114 0.00507538 0.
0.448082 0.00536916 0.
0.457018 0.00549818 0.
0.464833 0.00734664 0.
0.471992 0.00937165 0.
0.478227 0.0115898 0.
0.483901 0.0141389 0.
0.488998 0.0167338 0.
0.494067 0.0192715 0.
0.498638 0.0216094 0.
0.502954 0.024127 0.
0.506991 0.0262377 0.
0.511025 0.0281688 0.
0.514746 0.0298547 0.
0.518105 0.0313185 0.
0.52136 0.0327397 0.
0.524448 0.0338627 0.
0.527524 0.0348871 0.
0.530291 0.0356287 0.
0.533053 0.036322 0.
0.535574 0.0368442 0.
0.538107 0.0373909 0.
0.540443 0.0376564 0.
0.542744 0.0378852 0.
0.545006 0.0380953 0.
0.547192 0.0382655 0.
0.549381 0.0384379 0.
0.551501 0.0385497 0.
0.553606 0.0386501 0.
0.555706 0.0387439 0.
0.557756 0.0387781 0.
0.559806 0.0388123 0.
0.561848 0.0388433 0.
0.56388 0.0388697 0.
0.565911 0.0388962 0.
0.567931 0.0389136 0.
0.569945 0.0389258 0.
0.571958 0.038938 0.
0.573965 0.0389437 0.
0.575971 0.0389484 0.
0.577977 0.0389528 0.
0.579981 0.0389552 0.
0.581985 0.0389575 0.
0.583988 0.0389594 0.
0.585991 0.0389604 0.
0.587993 0.0389614 0.
0.589995 0.0389622 0.
0.591996 0.0389629 0.
0.593997 0.0389635 0.
0.595998 0.0389639 0.
0.597999 0.0389643 0.
0.6 0.0389646 0.
0.602001 0.0389643 0.
0.604001 0.038964 0.
0.606002 0.0389636 0.
0.608004 0.0389625 0.
0.610005 0.0389614 0.
0.612007 0.0389601 0.
0.61401 0.0389585 0.
0.616013 0.038957 0.
0.618017 0.0389542 0.
0.620022 0.0389509 0.
0.622027 0.0389476 0.
0.624035 0.0389411 0.
0.626043 0.0389343 0.
0.628052 0.0389262 0.
0.63007 0.0389098 0.
0.632089 0.0388935 0.
0.634115 0.0388702 0.
0.636156 0.0388351 0.
0.638197 0.0388001 0.
0.64025 0.038762 0.
0.642311 0.0387214 0.
0.644371 0.0386808 0.
0.646512 0.0385492 0.
0.648656 0.0384122 0.
0.650816 0.0382666 0.
0.653039 0.0380699 0.
0.655256 0.0378756 0.
0.657612 0.0375606 0.
0.660004 0.037224 0.
0.662457 0.0368461 0.
0.665049 0.0362655 0.
0.667668 0.0356816 0.
0.670521 0.0348975 0.
0.673478 0.0339209 0.
0.676643 0.0326342 0.
0.679904 0.0313164 0.
0.683361 0.0298166 0.
0.687024 0.028183 0.
0.690803 0.0262768 0.
0.694708 0.0242976 0.
0.69919 0.0219245 0.
0.703841 0.0195731 0.
0.708818 0.0169697 0.
0.713931 0.0143216 0.
0.719499 0.0116557 0.
0.725789 0.00939006 0.
0.732877 0.00735694 0.
0.740793 0.00550233 0.
0.749423 0.00592606 0.
0.448796 0.00620448 0.
0.456603 0.00612068 0.
0.463963 0.00776486 0.
0.470945 0.00973755 0.
0.477129 0.0118975 0.
0.482799 0.0143927 0.
0.48789 0.0170083 0.
0.49294 0.0195775 0.
0.497492 0.0219417 0.
0.501812 0.0244602 0.
0.505901 0.0267392 0.
0.510008 0.0288237 0.
0.513731 0.0305298 0.
0.517224 0.0321949 0.
0.520543 0.0337588 0.
0.523732 0.0350002 0.
0.526819 0.0360909 0.
0.529688 0.0369537 0.
0.53254 0.0377682 0.
0.535152 0.0384066 0.
0.537747 0.0390504 0.
0.540163 0.0393984 0.
0.542514 0.0396716 0.
0.544829 0.0399275 0.
0.547039 0.0401162 0.
0.549255 0.0403094 0.
0.5514 0.0404464 0.
0.553524 0.0405713 0.
0.555644 0.0406905 0.
0.557703 0.0407297 0.
0.559761 0.0407691 0.
0.561812 0.0408059 0.
0.563851 0.0408394 0.
0.565889 0.0408732 0.
0.567914 0.0408954 0.
0.569931 0.0409109 0.
0.571948 0.0409264 0.
0.573957 0.040934 0.
0.575965 0.0409404 0.
0.577972 0.0409465 0.
0.579977 0.0409496 0.
0.581982 0.0409527 0.
0.583986 0.0409553 0.
0.585989 0.0409568 0.
0.587992 0.0409582 0.
0.589994 0.0409594 0.
0.591995 0.0409604 0.
0.593997 0.0409613 0.
0.595998 0.0409619 0.
0.597999 0.0409624 0.
0.6 0.0409629 0.
0.602001 0.0409624 0.
0.604002 0.0409619 0.
0.606003 0.0409612 0.
0.608005 0.0409598 0.
0.610006 0.0409583 0.
0.612009 0.0409565 0.
0.614012 0.0409543 0.
0.616016 0.0409521 0.
0.618021 0.0409485 0.
0.620027 0.0409442 0.
0.622033 0.0409399 0.
0.624043 0.0409313 0.
0.626053 0.0409222 0.
0.628065 0.0409116 0.
0.630088 0.0408906 0.
0.632111 0.0408697 0.
0.634144 0.0408404 0.
0.636193 0.0407971 0.
0.638242 0.040754 0.
0.640305 0.0407086 0.
0.642376 0.0406612 0.
0.644447 0.0406142 0.
0.646615 0.0404472 0.
0.648786 0.0402776 0.
0.650979 0.0401035 0.
0.653227 0.0398901 0.
0.655471 0.0396763 0.
0.657903 0.0392872 0.
0.660359 0.038887 0.
0.662915 0.0384049 0.
0.665577 0.0377223 0.
0.668309 0.0369947 0.
0.671215 0.0361028 0.
0.674208 0.0350113 0.
0.677404 0.0336374 0.
0.680798 0.0321491 0.
0.684296 0.0305776 0.
0.687945 0.0288742 0.
0.691841 0.0268067 0.
0.695829 0.0247109 0.
0.700341 0.0222734 0.
0.70501 0.0198442 0.
0.709986 0.0171976 0.
0.715083 0.0145284 0.
0.720644 0.0119243 0.
0.726859 0.00973661 0.
0.733805 0.00774632 0.
0.741244 0.00612741 0.
0.748912 0.0067651 0.
0.449298 0.00708815 0.
0.456316 0.00679994 0.
0.463252 0.00824569 0.
0.470023 0.0101536 0.
0.476112 0.0122454 0.
0.48175 0.0146841 0.
0.486845 0.017304 0.
0.491839 0.019882 0.
0.496382 0.0222827 0.
0.500735 0.0248078 0.
0.504861 0.0272179 0.
0.508941 0.0293749 0.
0.51274 0.0311899 0.
0.51638 0.0330483 0.
0.51974 0.0346796 0.
0.522978 0.0360393 0.
0.526118 0.0372578 0.
0.529103 0.038257 0.
0.532034 0.0391773 0.
0.534736 0.0399169 0.
0.537349 0.0406081 0.
0.539836 0.0410493 0.
0.542233 0.0413758 0.
0.544606 0.0416917 0.
0.546854 0.0419149 0.
0.54911 0.0421442 0.
0.551287 0.0423173 0.
0.553432 0.0424748 0.
0.555574 0.0426274 0.
0.557642 0.0426723 0.
0.55971 0.0427172 0.
0.56177 0.0427606 0.
0.563816 0.0428027 0.
0.565861 0.0428449 0.
0.567892 0.0428731 0.
0.569914 0.0428927 0.
0.571936 0.0429124 0.
0.573947 0.0429224 0.
0.575957 0.042931 0.
0.577966 0.0429392 0.
0.579972 0.0429432 0.
0.581978 0.0429473 0.
0.583983 0.0429507 0.
0.585987 0.0429528 0.
0.58799 0.0429549 0.
0.589993 0.0429565 0.
0.591994 0.0429578 0.
0.593996 0.042959 0.
0.595998 0.0429598 0.
0.597999 0.0429605 0.
0.6 0.0429612 0.
0.602001 0.0429605 0.
0.604002 0.0429598 0.
0.606004 0.0429589 0.
0.608006 0.0429569 0.
0.610008 0.0429549 0.
0.612011 0.0429525 0.
0.614015 0.0429495 0.
0.616019 0.0429465 0.
0.618026 0.0429419 0.
0.620034 0.0429364 0.
0.622041 0.042931 0.
0.624053 0.0429197 0.
0.626066 0.0429077 0.
0.628081 0.0428938 0.
0.63011 0.0428671 0.
0.632139 0.0428405 0.
0.634179 0.042804 0.
0.636237 0.0427517 0.
0.638294 0.0426997 0.
0.640371 0.0426444 0.
0.642457 0.0425871 0.
0.644543 0.0425283 0.
0.646733 0.0423173 0.
0.648923 0.0421054 0.
0.651158 0.0418825 0.
0.653466 0.0416215 0.
0.655762 0.0413686 0.
0.658243 0.0409223 0.
0.660732 0.0404768 0.
0.663366 0.0399043 0.
0.666089 0.0391463 0.
0.668933 0.038282 0.
0.671891 0.0372897 0.
0.674988 0.0359907 0.
0.678155 0.0345778 0.
0.681647 0.0329738 0.
0.685218 0.0313179 0.
0.688831 0.0295501 0.
0.692866 0.0273118 0.
0.696961 0.025069 0.
0.701475 0.0226123 0.
0.706125 0.0201269 0.
0.711089 0.0174552 0.
0.716177 0.014774 0.
0.72172 0.0122392 0.
0.727799 0.0101434 0.
0.734584 0.00820172 0.
0.741597 0.00681383 0.
0.748556 0.00762663 0.
0.449739 0.0079655 0.
0.456194 0.00752756 0.
0.462768 0.00880801 0.
0.469294 0.0106424 0.
0.475228 0.0126566 0.
0.480813 0.0150477 0.
0.485898 0.0176487 0.
0.490824 0.0202241 0.
0.495374 0.022672 0.
0.499736 0.025192 0.
0.503844 0.0276569 0.
0.507921 0.0298913 0.
0.511803 0.0318416 0.
0.51551 0.0338072 0.
0.518904 0.0355004 0.
0.522225 0.0370545 0.
0.525411 0.0383839 0.
0.528504 0.0395074 0.
0.531443 0.0404724 0.
0.534212 0.0413122 0.
0.536883 0.0420978 0.
0.539472 0.0426689 0.
0.541931 0.0430619 0.
0.544377 0.0434513 0.
0.546664 0.0437102 0.
0.548961 0.043976 0.
0.551173 0.0441863 0.
0.553338 0.0443767 0.
0.555503 0.044564 0.
0.557581 0.0446147 0.
0.559659 0.0446653 0.
0.561728 0.0447151 0.
0.563781 0.0447657 0.
0.565834 0.0448165 0.
0.56787 0.0448507 0.
0.569897 0.0448745 0.
0.571924 0.0448984 0.
0.573938 0.0449109 0.
0.575949 0.0449216 0.
0.577961 0.0449318 0.
0.579968 0.0449368 0.
0.581975 0.0449419 0.
0.583981 0.0449461 0.
0.585985 0.0449488 0.
0.587988 0.0449515 0.
0.589991 0.0449536 0.
0.591994 0.0449552 0.
0.593996 0.0449567 0.
0.595997 0.0449578 0.
0.597999 0.0449586 0.
0.6 0.0449594 0.
0.602001 0.0449586 0.
0.604003 0.0449577 0.
0.606004 0.0449565 0.
0.608007 0.044954 0.
0.61001 0.0449516 0.
0.612013 0.0449485 0.
0.614018 0.0449447 0.
0.616023 0.0449409 0.
0.618031 0.0449352 0.
0.62004 0.0449286 0.
0.622049 0.0449221 0.
0.624064 0.044908 0.
0.626079 0.0448932 0.
0.628097 0.0448759 0.
0.630132 0.0448435 0.
0.632167 0.0448111 0.
0.634215 0.0447674 0.
0.636281 0.0447061 0.
0.638347 0.0446452 0.
0.640437 0.0445799 0.
0.642537 0.0445125 0.
0.644641 0.04444 0.
0.646851 0.0441848 0.
0.64906 0.0439304 0.
0.651346 0.0436559 0.
0.653718 0.0433439 0.
0.656087 0.0430308 0.
0.658624 0.0425153 0.
0.661163 0.0420075 0.
0.663901 0.041309 0.
0.66665 0.0404898 0.
0.669571 0.0395224 0.
0.672572 0.0384431 0.
0.675763 0.0369429 0.
0.678984 0.0354131 0.
0.682475 0.0337837 0.
0.686131 0.0320198 0.
0.689765 0.0301386 0.
0.693844 0.0278059 0.
0.698025 0.025446 0.
0.702521 0.0229773 0.
0.707143 0.0204488 0.
0.712075 0.0177701 0.
0.717159 0.0150852 0.
0.722656 0.0126265 0.
0.728585 0.0106185 0.
0.735134 0.00874757 0.
0.741725 0.00754954 0.
0.74818 0.00852358 0.
0.450248 0.00887 0.
0.456285 0.00831169 0.
0.462497 0.0094657 0.
0.468761 0.0112093 0.
0.474514 0.0131457 0.
0.480034 0.0154959 0.
0.485071 0.0180617 0.
0.489929 0.0206296 0.
0.49446 0.0231141 0.
0.498817 0.0256266 0.
0.502917 0.0281206 0.
0.506978 0.0304196 0.
0.510899 0.0324874 0.
0.514637 0.0344962 0.
0.518082 0.0363005 0.
0.521471 0.0380271 0.
0.524704 0.0394436 0.
0.527825 0.0406589 0.
0.530789 0.0417073 0.
0.53367 0.0426834 0.
0.5364 0.0435614 0.
0.539097 0.0442727 0.
0.54161 0.0447295 0.
0.544109 0.0451769 0.
0.546431 0.0454645 0.
0.548757 0.0457649 0.
0.551004 0.0460153 0.
0.553186 0.0462316 0.
0.555371 0.0464456 0.
0.557474 0.0465164 0.
0.559577 0.0465856 0.
0.561668 0.0466517 0.
0.563729 0.0467108 0.
0.56579 0.04677 0.
0.567835 0.0468122 0.
0.569869 0.0468433 0.
0.571903 0.0468745 0.
0.573921 0.0468914 0.
0.575936 0.0469061 0.
0.577951 0.04692 0.
0.579959 0.0469265 0.
0.581968 0.046933 0.
0.583976 0.0469386 0.
0.585981 0.0469424 0.
0.587986 0.0469461 0.
0.58999 0.046949 0.
0.591992 0.0469512 0.
0.593995 0.0469534 0.
0.595997 0.0469547 0.
0.597998 0.0469556 0.
0.6 0.0469566 0.
0.602002 0.0469555 0.
0.604004 0.0469543 0.
0.606006 0.0469527 0.
0.608009 0.0469494 0.
0.610012 0.0469462 0.
0.612017 0.046942 0.
0.614023 0.0469368 0.
0.61603 0.0469315 0.
0.61804 0.0469241 0.
0.620051 0.0469157 0.
0.622063 0.0469073 0.
0.624081 0.0468886 0.
0.626101 0.046869 0.
0.628124 0.0468459 0.
0.630169 0.0468036 0.
0.632214 0.0467616 0.
0.634272 0.0467084 0.
0.636347 0.0466386 0.
0.638422 0.0465691 0.
0.640542 0.0464814 0.
0.642676 0.0463889 0.
0.644815 0.0462874 0.
0.647039 0.0460045 0.
0.649259 0.045721 0.
0.651583 0.0453942 0.
0.653997 0.045037 0.
0.656434 0.0446716 0.
0.659019 0.0440947 0.
0.661618 0.0435154 0.
0.664452 0.0426913 0.
0.667275 0.0417773 0.
0.670266 0.0406651 0.
0.673289 0.0395037 0.
0.676531 0.0378683 0.
0.679818 0.0362261 0.
0.683267 0.0345821 0.
0.687012 0.0326988 0.
0.690726 0.0306684 0.
0.694769 0.028307 0.
0.698969 0.0258744 0.
0.703444 0.0233921 0.
0.708043 0.0208324 0.
0.712916 0.0181558 0.
0.717976 0.0154905 0.
0.723419 0.013105 0.
0.729178 0.0111719 0.
0.735434 0.00939083 0.
0.741637 0.00831942 0.
0.747697 0.00941454 0.
0.450851 0.00977363 0.
0.456509 0.00915169 0.
0.462428 0.0102099 0.
0.468386 0.0118508 0.
0.473984 0.0137183 0.
0.479393 0.0160229 0.
0.484364 0.0185492 0.
0.489154 0.0211044 0.
0.493649 0.02361 0.
0.497979 0.0261125 0.
0.502064 0.0286239 0.
0.506096 0.0309701 0.
0.510026 0.0331155 0.
0.513775 0.0351508 0.
0.517279 0.0370886 0.
0.520705 0.0389329 0.
0.523949 0.040424 0.
0.52711 0.0417817 0.
0.530132 0.0429166 0.
0.533124 0.0440163 0.
0.535901 0.0449606 0.
0.538632 0.0457621 0.
0.541181 0.0462707 0.
0.543746 0.0467978 0.
0.546132 0.0471551 0.
0.548503 0.0475162 0.
0.550799 0.047824 0.
0.553008 0.0480687 0.
0.555221 0.0483118 0.
0.557356 0.0484084 0.
0.559488 0.0485004 0.
0.561605 0.0485862 0.
0.563674 0.0486539 0.
0.565744 0.048722 0.
0.567798 0.0487725 0.
0.56984 0.0488112 0.
0.571882 0.0488501 0.
0.573904 0.0488717 0.
0.575923 0.0488903 0.
0.57794 0.0489079 0.
0.579951 0.048916 0.
0.581962 0.048924 0.
0.583971 0.048931 0.
0.585977 0.0489359 0.
0.587983 0.0489407 0.
0.589988 0.0489445 0.
0.591991 0.0489473 0.
0.593994 0.0489501 0.
0.595996 0.0489516 0.
0.597998 0.0489527 0.
0.6 0.0489538 0.
0.602002 0.0489523 0.
0.604004 0.0489509 0.
0.606007 0.0489489 0.
0.608011 0.0489448 0.
0.610015 0.0489407 0.
0.61202 0.0489355 0.
0.614028 0.0489287 0.
0.616036 0.048922 0.
0.618048 0.0489129 0.
0.620063 0.0489026 0.
0.622077 0.0488923 0.
0.6241 0.0488689 0.
0.626123 0.0488443 0.
0.628152 0.0488152 0.
0.630208 0.0487625 0.
0.632263 0.0487102 0.
0.634331 0.048647 0.
0.636417 0.0485681 0.
0.638502 0.0484896 0.
0.640659 0.0483739 0.
0.642835 0.0482499 0.
0.645017 0.0481123 0.
0.647272 0.0477993 0.
0.64952 0.0474865 0.
0.65189 0.0470827 0.
0.654329 0.0466467 0.
0.656826 0.0461951 0.
0.659462 0.0455799 0.
0.662113 0.0449539 0.
0.665006 0.0440422 0.
0.667925 0.0430062 0.
0.670983 0.041761 0.
0.674075 0.040432 0.
0.677284 0.0387743 0.
0.680653 0.0370265 0.
0.684119 0.0353038 0.
0.687858 0.0333548 0.
0.691627 0.0312117 0.
0.695668 0.0287976 0.
0.699821 0.0263524 0.
0.704257 0.0238591 0.
0.70882 0.0212838 0.
0.713613 0.0186237 0.
0.71862 0.0159956 0.
0.724001 0.0136704 0.
0.729581 0.0118002 0.
0.735556 0.0101253 0.
0.741382 0.00913113 0.
0.74708 0.0102916 0.
0.451488 0.0106856 0.
0.456843 0.0100406 0.
0.462465 0.0110061 0.
0.468126 0.0125495 0.
0.473602 0.0143596 0.
0.478862 0.016613 0.
0.483745 0.0190948 0.
0.488473 0.0216351 0.
0.49292 0.0241411 0.
0.497198 0.0266353 0.
0.501273 0.029162 0.
0.505284 0.0315419 0.
0.509203 0.0337436 0.
0.512935 0.035806 0.
0.516511 0.0378737 0.
0.519931 0.039769 0.
0.523192 0.0413725 0.
0.526382 0.0428594 0.
0.52947 0.0440924 0.
0.532499 0.0452471 0.
0.535289 0.0462347 0.
0.538084 0.0471639 0.
0.540723 0.047787 0.
0.543366 0.0484033 0.
0.54583 0.0488356 0.
0.548245 0.0492575 0.
0.550596 0.0496291 0.
0.552832 0.0499004 0.
0.555072 0.0501663 0.
0.557237 0.0502887 0.
0.559396 0.0504058 0.
0.561535 0.0505151 0.
0.563614 0.050591 0.
0.565693 0.0506672 0.
0.567756 0.0507264 0.
0.569806 0.0507738 0.
0.571857 0.0508216 0.
0.573884 0.0508486 0.
0.575906 0.0508719 0.
0.577928 0.050894 0.
0.579941 0.0509038 0.
0.581954 0.0509135 0.
0.583965 0.0509221 0.
0.585972 0.0509283 0.
0.58798 0.0509345 0.
0.589985 0.0509393 0.
0.591989 0.0509428 0.
0.593993 0.0509464 0.
0.595995 0.0509481 0.
0.597998 0.0509494 0.
0.6 0.0509507 0.
0.602003 0.0509489 0.
0.604005 0.050947 0.
0.606009 0.0509445 0.
0.608013 0.0509395 0.
0.610018 0.0509345 0.
0.612025 0.0509278 0.
0.614035 0.0509193 0.
0.616045 0.0509108 0.
0.61806 0.0508996 0.
0.620077 0.0508872 0.
0.622093 0.0508749 0.
0.624121 0.0508459 0.
0.62615 0.0508155 0.
0.628185 0.0507794 0.
0.630252 0.0507149 0.
0.632318 0.0506511 0.
0.634396 0.0505781 0.
0.636492 0.0504912 0.
0.638586 0.0504047 0.
0.64078 0.0502563 0.
0.642995 0.0500996 0.
0.645218 0.0499295 0.
0.647503 0.0495898 0.
0.64978 0.0492487 0.
0.652196 0.0487573 0.
0.654662 0.0482428 0.
0.657238 0.0476988 0.
0.659952 0.0470104 0.
0.662716 0.0462649 0.
0.665611 0.0452952 0.
0.66858 0.0441779 0.
0.6717 0.0428281 0.
0.674874 0.0413172 0.
0.678056 0.039637 0.
0.681458 0.0378138 0.
0.684971 0.0360048 0.
0.688696 0.0339941 0.
0.69247 0.0317732 0.
0.696488 0.0293188 0.
0.700612 0.0268627 0.
0.704988 0.0243707 0.
0.709518 0.021786 0.
0.714218 0.0191537 0.
0.719136 0.0165764 0.
0.724424 0.0143089 0.
0.729856 0.0124949 0.
0.735549 0.0109276 0.
0.741085 0.0100056 0.
0.746435 0.0111441 0.
0.452122 0.0116022 0.
0.457215 0.0109595 0.
0.462536 0.0118417 0.
0.467961 0.0132968 0.
0.4733 0.0150547 0.
0.478395 0.0172531 0.
0.483201 0.0196912 0.
0.48786 0.0222097 0.
0.492266 0.0247141 0.
0.496497 0.0272095 0.
0.500553 0.0297384 0.
0.504537 0.0321411 0.
0.508419 0.0343818 0.
0.512158 0.036484 0.
0.515757 0.0386325 0.
0.519147 0.0405568 0.
0.522452 0.0423099 0.
0.525655 0.043893 0.
0.52877 0.0451975 0.
0.531806 0.0463993 0.
0.534683 0.0474903 0.
0.537539 0.0485348 0.
0.540268 0.0492795 0.
0.542971 0.0499599 0.
0.545496 0.0504556 0.
0.547939 0.0509247 0.
0.550339 0.0513602 0.
0.552624 0.0516607 0.
0.554928 0.0519652 0.
0.557121 0.0521295 0.
0.559293 0.0522868 0.
0.561448 0.0524324 0.
0.563539 0.0525167 0.
0.565632 0.0526015 0.
0.567706 0.0526707 0.
0.569766 0.0527289 0.
0.571827 0.0527876 0.
0.573859 0.0528214 0.
0.575886 0.0528503 0.
0.577912 0.0528779 0.
0.579928 0.0528896 0.
0.581943 0.0529012 0.
0.583957 0.0529117 0.
0.585966 0.0529196 0.
0.587975 0.0529274 0.
0.589981 0.0529334 0.
0.591986 0.0529378 0.
0.593991 0.0529421 0.
0.595994 0.0529443 0.
0.597997 0.0529458 0.
0.6 0.0529473 0.
0.602004 0.052945 0.
0.604007 0.0529426 0.
0.606011 0.0529395 0.
0.608017 0.0529333 0.
0.610023 0.0529272 0.
0.612032 0.052919 0.
0.614044 0.0529082 0.
0.616056 0.0528975 0.
0.618074 0.052884 0.
0.620094 0.0528693 0.
0.622114 0.0528545 0.
0.624148 0.0528188 0.
0.626183 0.0527815 0.
0.628226 0.0527365 0.
0.630304 0.0526574 0.
0.632382 0.0525791 0.
0.634474 0.0524949 0.
0.636582 0.0524004 0.
0.63869 0.0523062 0.
0.640908 0.0521036 0.
0.643145 0.0518902 0.
0.645401 0.0516681 0.
0.647732 0.0513073 0.
0.650047 0.0509496 0.
0.652515 0.0503829 0.
0.654984 0.0498104 0.
0.657649 0.0491813 0.
0.660441 0.0484278 0.
0.663317 0.0475528 0.
0.666259 0.0464793 0.
0.669274 0.0452421 0.
0.672395 0.0438657 0.
0.675644 0.042199 0.
0.678857 0.0404332 0.
0.682254 0.0385822 0.
0.685774 0.0367187 0.
0.689486 0.0346426 0.
0.693257 0.0323565 0.
0.697237 0.029877 0.
0.701346 0.0274078 0.
0.705651 0.0249264 0.
0.710138 0.0223395 0.
0.714759 0.0197332 0.
0.719572 0.0172121 0.
0.724725 0.0150083 0.
0.730042 0.0132463 0.
0.735466 0.0117786 0.
0.740724 0.0109317 0.
0.745807 0.011997 0.
0.452783 0.0124765 0.
0.457632 0.0118991 0.
0.462704 0.0127295 0.
0.467932 0.0141084 0.
0.473113 0.0158195 0.
0.478049 0.0179657 0.
0.482785 0.0203627 0.
0.487356 0.0228564 0.
0.491713 0.0253529 0.
0.495896 0.027847 0.
0.499922 0.0303687 0.
0.503867 0.0327828 0.
0.507712 0.0350491 0.
0.511432 0.0371791 0.
0.515009 0.039363 0.
0.518392 0.0413478 0.
0.521726 0.0432306 0.
0.524931 0.0448546 0.
0.528059 0.0462552 0.
0.531111 0.0475348 0.
0.534068 0.0487189 0.
0.536955 0.0498268 0.
0.53973 0.0506628 0.
0.542458 0.0514125 0.
0.545082 0.0520168 0.
0.547582 0.0525539 0.
0.550056 0.0530764 0.
0.552405 0.0534162 0.
0.554776 0.0537611 0.
0.557005 0.0539673 0.
0.559189 0.0541652 0.
0.56136 0.0543495 0.
0.563464 0.0544423 0.
0.56557 0.0545356 0.
0.567656 0.0546147 0.
0.569726 0.0546838 0.
0.571797 0.0547534 0.
0.573835 0.0547941 0.
0.575866 0.0548287 0.
0.577896 0.0548617 0.
0.579915 0.0548753 0.
0.581933 0.0548889 0.
0.583948 0.0549013 0.
0.585959 0.0549108 0.
0.58797 0.0549203 0.
0.589978 0.0549275 0.
0.591983 0.0549327 0.
0.593989 0.0549379 0.
0.595993 0.0549404 0.
0.597997 0.0549421 0.
0.6 0.0549439 0.
0.602005 0.0549411 0.
0.604009 0.0549382 0.
0.606014 0.0549344 0.
0.608021 0.0549272 0.
0.610028 0.0549199 0.
0.612039 0.0549101 0.
0.614053 0.0548971 0.
0.616067 0.0548841 0.
0.618088 0.0548684 0.
0.620111 0.0548513 0.
0.622134 0.0548342 0.
0.624174 0.0547916 0.
0.626216 0.0547473 0.
0.628267 0.0546932 0.
0.630357 0.0545994 0.
0.632446 0.0545065 0.
0.634551 0.0544115 0.
0.636673 0.0543093 0.
0.638794 0.0542075 0.
0.641039 0.0539465 0.
0.643297 0.0536761 0.
0.645589 0.0534038 0.
0.647972 0.0530115 0.
0.650347 0.0526148 0.
0.652916 0.0519542 0.
0.65546 0.0513096 0.
0.658177 0.0505821 0.
0.660957 0.0498004 0.
0.663928 0.0488041 0.
0.666912 0.0476436 0.
0.669988 0.0462568 0.
0.673105 0.0448239 0.
0.676375 0.0430737 0.
0.679615 0.041242 0.
0.683021 0.039355 0.
0.686527 0.0374472 0.
0.690201 0.0353195 0.
0.693961 0.0329781 0.
0.697897 0.0304897 0.
0.701989 0.0280125 0.
0.706222 0.0255483 0.
0.71065 0.0229655 0.
0.715193 0.0203889 0.
0.719902 0.0179214 0.
0.724898 0.0157792 0.
0.730084 0.0140662 0.
0.735287 0.0126845 0.
0.740292 0.0118888 0.
0.745133 0.0128355 0.
0.453497 0.0133729 0.
0.458135 0.012876 0.
0.463019 0.0136778 0.
0.468064 0.0149939 0.
0.473063 0.0166616 0.
0.477849 0.0187654 0.
0.482505 0.0211208 0.
0.486973 0.0235858 0.
0.491265 0.0260651 0.
0.495392 0.0285502 0.
0.499382 0.0310595 0.
0.503275 0.0334784 0.
0.507058 0.0357499 0.
0.510744 0.0379027 0.
0.514298 0.0400903 0.
0.517679 0.0421484 0.
0.521004 0.0441111 0.
0.524207 0.0457765 0.
0.527365 0.0473052 0.
0.530426 0.0486412 0.
0.533431 0.0498779 0.
0.536316 0.0510201 0.
0.539159 0.0519956 0.
0.541933 0.0528415 0.
0.544657 0.0535646 0.
0.547208 0.0541684 0.
0.549747 0.0547785 0.
0.55215 0.0551432 0.
0.55456 0.0555241 0.
0.556824 0.0557775 0.
0.559024 0.0560121 0.
0.561218 0.0562345 0.
0.563344 0.0563369 0.
0.565472 0.0564404 0.
0.567578 0.0565322 0.
0.569661 0.0566155 0.
0.571745 0.0566997 0.
0.573793 0.0567511 0.
0.575833 0.056795 0.
0.577872 0.0568372 0.
0.579893 0.0568532 0.
0.581915 0.0568693 0.
0.583934 0.0568841 0.
0.585948 0.0568964 0.
0.587961 0.0569087 0.
0.589972 0.0569179 0.
0.591979 0.0569244 0.
0.593986 0.0569309 0.
0.595991 0.0569339 0.
0.597996 0.0569359 0.
0.600001 0.0569379 0.
0.602006 0.0569342 0.
0.604012 0.0569306 0.
0.606018 0.0569257 0.
0.608028 0.0569166 0.
0.610037 0.0569075 0.
0.612051 0.0568951 0.
0.614069 0.0568787 0.
0.616087 0.0568623 0.
0.618111 0.0568438 0.
0.620138 0.0568242 0.
0.622164 0.0568046 0.
0.624218 0.0567487 0.
0.626272 0.0566911 0.
0.628336 0.0566229 0.
0.63044 0.0565145 0.
0.632542 0.0564072 0.
0.634669 0.0562975 0.
0.636814 0.0561824 0.
0.638957 0.0560686 0.
0.641231 0.0557523 0.
0.643503 0.0554332 0.
0.645823 0.055116 0.
0.648229 0.0547039 0.
0.650675 0.0542608 0.
0.653338 0.0535116 0.
0.655969 0.0527852 0.
0.658772 0.0519222 0.
0.661586 0.0510375 0.
0.664561 0.0499796 0.
0.667577 0.0487537 0.
0.67069 0.0472552 0.
0.673833 0.0457191 0.
0.67708 0.0439395 0.
0.68034 0.0420677 0.
0.683717 0.040149 0.
0.687219 0.0381922 0.
0.690846 0.0360364 0.
0.694587 0.0336502 0.
0.698466 0.0311647 0.
0.702518 0.0286914 0.
0.706695 0.0262392 0.
0.711043 0.0236756 0.
0.715507 0.0211299 0.
0.72011 0.0187157 0.
0.724936 0.016628 0.
0.729953 0.0149631 0.
0.734966 0.0136547 0.
0.739754 0.0128893 0.
0.744357 0.0136352 0.
0.454294 0.014288 0.
0.458756 0.013893 0.
0.46347 0.0146825 0.
0.468323 0.015945 0.
0.47314 0.0175843 0.
0.477795 0.0196529 0.
0.482338 0.0219649 0.
0.486698 0.024393 0.
0.490907 0.026846 0.
0.494973 0.0293158 0.
0.498904 0.0318044 0.
0.502731 0.0342203 0.
0.506461 0.0364918 0.
0.51011 0.038656 0.
0.51362 0.0408364 0.
0.516988 0.0429573 0.
0.520307 0.0449605 0.
0.52351 0.0466996 0.
0.526673 0.0483259 0.
0.529742 0.0497109 0.
0.532758 0.0509936 0.
0.535675 0.0521987 0.
0.538585 0.0532969 0.
0.541402 0.0542264 0.
0.544195 0.0550542 0.
0.546773 0.0556781 0.
0.549372 0.0563153 0.
0.551822 0.056771 0.
0.554264 0.057242 0.
0.556582 0.0575672 0.
0.558818 0.0578399 0.
0.561051 0.058105 0.
0.563206 0.0582208 0.
0.565364 0.0583375 0.
0.567495 0.0584444 0.
0.569592 0.0585434 0.
0.571689 0.0586434 0.
0.573749 0.0587066 0.
0.575798 0.0587604 0.
0.577847 0.0588122 0.
0.579872 0.0588307 0.
0.581897 0.0588493 0.
0.583919 0.0588667 0.
0.585936 0.0588818 0.
0.587953 0.0588969 0.
0.589965 0.0589081 0.
0.591974 0.058916 0.
0.593983 0.0589238 0.
0.595989 0.0589273 0.
0.597995 0.0589296 0.
0.600001 0.0589319 0.
0.602008 0.0589273 0.
0.604014 0.0589228 0.
0.606022 0.0589168 0.
0.608034 0.0589058 0.
0.610047 0.0588949 0.
0.612063 0.0588798 0.
0.614085 0.0588599 0.
0.616106 0.0588401 0.
0.618134 0.0588187 0.
0.620165 0.0587965 0.
0.622196 0.0587744 0.
0.624263 0.058704 0.
0.626331 0.058632 0.
0.628411 0.0585481 0.
0.630529 0.058424 0.
0.632646 0.058301 0.
0.634802 0.0581723 0.
0.636981 0.0580379 0.
0.639164 0.0578967 0.
0.641484 0.0575226 0.
0.643798 0.0571506 0.
0.646191 0.056763 0.
0.648647 0.0562842 0.
0.651141 0.0557629 0.
0.653808 0.054998 0.
0.656504 0.0542124 0.
0.659361 0.0532292 0.
0.662231 0.0522323 0.
0.66523 0.0510739 0.
0.668254 0.0497981 0.
0.67138 0.0482432 0.
0.674546 0.046614 0.
0.677764 0.0448046 0.
0.681026 0.0429049 0.
0.684386 0.0409627 0.
0.687859 0.0389638 0.
0.691431 0.0367898 0.
0.695137 0.0343762 0.
0.698958 0.0318982 0.
0.702953 0.0294404 0.
0.70708 0.0269992 0.
0.711323 0.0244692 0.
0.715703 0.0219567 0.
0.720197 0.0195939 0.
0.724857 0.0175473 0.
0.729679 0.0159308 0.
0.734505 0.0146861 0.
0.739109 0.0139385 0.
0.743489 0.0144761 0.
0.455163 0.0152189 0.
0.459447 0.0149578 0.
0.46399 0.015735 0.
0.468647 0.0169432 0.
0.473293 0.0185665 0.
0.477827 0.0206049 0.
0.48223 0.0228665 0.
0.486487 0.0252568 0.
0.490612 0.027679 0.
0.494604 0.0301271 0.
0.498474 0.0325981 0.
0.502241 0.0350068 0.
0.50591 0.0372704 0.
0.50951 0.0394407 0.
0.512975 0.0416111 0.
0.516342 0.0437816 0.
0.519625 0.0458025 0.
0.522818 0.0476214 0.
0.525979 0.0493143 0.
0.529045 0.0507459 0.
0.532073 0.0520966 0.
0.535028 0.0533544 0.
0.537985 0.0545409 0.
0.540806 0.0555237 0.
0.543619 0.0564312 0.
0.546291 0.0571312 0.
0.548975 0.0578282 0.
0.55149 0.0583832 0.
0.553964 0.0589443 0.
0.556339 0.0593527 0.
0.558609 0.0596634 0.
0.560881 0.0599692 0.
0.563065 0.0600975 0.
0.565252 0.0602271 0.
0.567408 0.0603502 0.
0.569517 0.0604638 0.
0.571626 0.0605784 0.
0.573697 0.0606546 0.
0.575758 0.0607204 0.
0.577819 0.0607845 0.
0.579847 0.0608054 0.
0.581876 0.0608264 0.
0.583902 0.0608465 0.
0.585922 0.0608647 0.
0.587942 0.0608829 0.
0.589957 0.0608964 0.
0.591968 0.0609059 0.
0.593979 0.0609154 0.
0.595987 0.0609195 0.
0.597994 0.0609221 0.
0.600001 0.0609246 0.
0.60201 0.060919 0.
0.604019 0.0609134 0.
0.606029 0.0609061 0.
0.608044 0.0608928 0.
0.610058 0.0608796 0.
0.612078 0.0608617 0.
0.614104 0.0608382 0.
0.616129 0.0608149 0.
0.618162 0.0607899 0.
0.620198 0.0607641 0.
0.622233 0.0607383 0.
0.624316 0.0606515 0.
0.626398 0.0605638 0.
0.628492 0.0604641 0.
0.630623 0.0603261 0.
0.632753 0.0601893 0.
0.634938 0.0600406 0.
0.637148 0.0598891 0.
0.639375 0.0597173 0.
0.641742 0.0592868 0.
0.644098 0.0588617 0.
0.646572 0.0583971 0.
0.649091 0.0578457 0.
0.65167 0.0571984 0.
0.654369 0.0563455 0.
0.65711 0.0554907 0.
0.65997 0.0544818 0.
0.662879 0.0533961 0.
0.665894 0.0521571 0.
0.668946 0.0507773 0.
0.672058 0.0492117 0.
0.675233 0.0475139 0.
0.678441 0.0456634 0.
0.681686 0.0437478 0.
0.685013 0.0418004 0.
0.688451 0.0397683 0.
0.691977 0.0375718 0.
0.695625 0.0351474 0.
0.6994 0.0326766 0.
0.703318 0.0302482 0.
0.707389 0.0278178 0.
0.711537 0.0253228 0.
0.715829 0.022848 0.
0.720204 0.0205343 0.
0.724715 0.0185225 0.
0.729352 0.0169373 0.
0.733972 0.0157525 0.
0.738418 0.0150427 0.
0.742607 0.015378 0.
0.45603 0.0162072 0.
0.460153 0.016059 0.
0.464519 0.0168049 0.
0.468995 0.0179833 0.
0.473491 0.0195978 0.
0.477894 0.0216029 0.
0.482167 0.0238162 0.
0.486332 0.0261723 0.
0.49037 0.028565 0.
0.494289 0.0309893 0.
0.498096 0.0334419 0.
0.50179 0.0358341 0.
0.505409 0.0380933 0.
0.50895 0.0402618 0.
0.512378 0.0424211 0.
0.515724 0.0446176 0.
0.518961 0.0466611 0.
0.522154 0.0485532 0.
0.52529 0.0502631 0.
0.52836 0.0517753 0.
0.531394 0.053189 0.
0.53438 0.0544833 0.
0.53732 0.0556972 0.
0.540181 0.0567724 0.
0.543036 0.0577856 0.
0.545802 0.058576 0.
0.548565 0.0593224 0.
0.551144 0.0599569 0.
0.55362 0.0605757 0.
0.556053 0.0610641 0.
0.558365 0.0614057 0.
0.56069 0.0617469 0.
0.56291 0.061916 0.
0.565124 0.0620839 0.
0.567306 0.0622396 0.
0.569426 0.0623675 0.
0.571547 0.0624965 0.
0.573634 0.0625895 0.
0.57571 0.062672 0.
0.577786 0.0627531 0.
0.579819 0.0627764 0.
0.581851 0.0627997 0.
0.583881 0.0628225 0.
0.585904 0.0628443 0.
0.587928 0.0628662 0.
0.589946 0.0628825 0.
0.59196 0.062894 0.
0.593973 0.0629055 0.
0.595984 0.0629103 0.
0.597993 0.0629131 0.
0.600002 0.0629159 0.
0.602013 0.062909 0.
0.604024 0.0629021 0.
0.606037 0.0628931 0.
0.608055 0.0628771 0.
0.610074 0.0628612 0.
0.612097 0.06284 0.
0.614127 0.0628129 0.
0.616156 0.0627859 0.
0.618195 0.0627558 0.
0.620238 0.0627244 0.
0.622281 0.0626926 0.
0.62438 0.0625853 0.
0.626478 0.0624773 0.
0.628589 0.0623584 0.
0.630735 0.0622066 0.
0.632878 0.0620561 0.
0.635117 0.0618534 0.
0.637385 0.0616405 0.
0.639669 0.0614098 0.
0.642062 0.0609628 0.
0.644441 0.0605168 0.
0.646975 0.0599918 0.
0.649544 0.0593873 0.
0.652199 0.0586108 0.
0.654929 0.0576753 0.
0.657732 0.0567188 0.
0.660612 0.0556553 0.
0.663544 0.0545146 0.
0.666551 0.0532342 0.
0.669625 0.0517576 0.
0.672728 0.0501589 0.
0.675888 0.0484163 0.
0.679076 0.046546 0.
0.68232 0.0446119 0.
0.685611 0.0426626 0.
0.689002 0.0406089 0.
0.692485 0.0383851 0.
0.696066 0.0359663 0.
0.699799 0.0335022 0.
0.703634 0.0311027 0.
0.70763 0.0286917 0.
0.711699 0.0262326 0.
0.71589 0.0238002 0.
0.720162 0.0215226 0.
0.724532 0.0195501 0.
0.729005 0.0179804 0.
0.733441 0.0168421 0.
0.737729 0.0161753 0.
0.741763 0.016359 0.
0.456893 0.0172412 0.
0.460873 0.0171874 0.
0.465083 0.0179093 0.
0.469414 0.01908 0.
0.473768 0.0206882 0.
0.478021 0.0226568 0.
0.482194 0.0248353 0.
0.486261 0.0271583 0.
0.490203 0.0295207 0.
0.494049 0.03192 0.
0.497787 0.0343506 0.
0.501409 0.0367225 0.
0.504972 0.0389728 0.
0.508446 0.0411309 0.
0.511829 0.0432752 0.
0.515133 0.0454731 0.
0.518339 0.0475424 0.
0.521502 0.0494784 0.
0.524619 0.0512103 0.
0.527701 0.0528061 0.
0.530729 0.054254 0.
0.533711 0.0555681 0.
0.536653 0.0568328 0.
0.539549 0.0579976 0.
0.542434 0.0590934 0.
0.545253 0.0599556 0.
0.54802 0.0607349 0.
0.55066 0.0614546 0.
0.553205 0.0621519 0.
0.555737 0.0627499 0.
0.558106 0.0631345 0.
0.560492 0.0635207 0.
0.562751 0.0637304 0.
0.564994 0.0639373 0.
0.567204 0.0641285 0.
0.569335 0.0642707 0.
0.571467 0.0644141 0.
0.573569 0.0645238 0.
0.575661 0.0646232 0.
0.577754 0.0647215 0.
0.57979 0.0647473 0.
0.581826 0.0647731 0.
0.58386 0.0647985 0.
0.585887 0.0648239 0.
0.587914 0.0648494 0.
0.589935 0.0648685 0.
0.591951 0.064882 0.
0.593968 0.0648956 0.
0.59598 0.064901 0.
0.597992 0.0649041 0.
0.600003 0.0649071 0.
0.602016 0.0648989 0.
0.60403 0.0648907 0.
0.606046 0.0648801 0.
0.608067 0.0648614 0.
0.610089 0.0648427 0.
0.612117 0.0648184 0.
0.61415 0.0647876 0.
0.616184 0.0647569 0.
0.618229 0.0647216 0.
0.620279 0.0646847 0.
0.62233 0.0646464 0.
0.624445 0.0645183 0.
0.626559 0.0643899 0.
0.628687 0.0642522 0.
0.630847 0.0640865 0.
0.633004 0.0639222 0.
0.635304 0.0636591 0.
0.637633 0.0633819 0.
0.639983 0.0630877 0.
0.642424 0.0626057 0.
0.644857 0.0621196 0.
0.64747 0.0614934 0.
0.650071 0.0608261 0.
0.652762 0.0599581 0.
0.655503 0.0589722 0.
0.658362 0.057933 0.
0.661262 0.0568185 0.
0.664221 0.0555935 0.
0.667214 0.0542814 0.
0.670288 0.0527409 0.
0.673376 0.0511018 0.
0.676517 0.0493296 0.
0.679679 0.047453 0.
0.682898 0.0455099 0.
0.686166 0.0435521 0.
0.689513 0.0414902 0.
0.692937 0.0392485 0.
0.69645 0.0368435 0.
0.700114 0.0343971 0.
0.703882 0.0320168 0.
0.707788 0.0296369 0.
0.71178 0.027211 0.
0.715868 0.024825 0.
0.720042 0.02258 0.
0.724277 0.0206337 0.
0.728602 0.0190736 0.
0.732878 0.0179622 0.
0.737022 0.0173162 0.
0.740932 0.0173971 0.
0.457781 0.0183072 0.
0.46165 0.0183542 0.
0.465735 0.0190684 0.
0.46993 0.020241 0.
0.474126 0.0218411 0.
0.478253 0.0237856 0.
0.482323 0.0259403 0.
0.486275 0.028225 0.
0.490132 0.0305574 0.
0.493893 0.0329272 0.
0.497551 0.0353297 0.
0.501102 0.0376778 0.
0.504595 0.0399135 0.
0.507996 0.042051 0.
0.511331 0.0441777 0.
0.514587 0.046365 0.
0.517748 0.0484468 0.
0.520886 0.0504079 0.
0.523991 0.0521722 0.
0.527056 0.0538241 0.
0.530065 0.0552934 0.
0.533047 0.0566546 0.
0.53599 0.0579586 0.
0.538909 0.0591755 0.
0.541795 0.0602882 0.
0.544638 0.0612397 0.
0.547429 0.0621045 0.
0.550153 0.0629332 0.
0.552763 0.063707 0.
0.555398 0.0644239 0.
0.557821 0.0648441 0.
0.560237 0.0652542 0.
0.562536 0.0655075 0.
0.564808 0.0657584 0.
0.567054 0.0659939 0.
0.569199 0.0661437 0.
0.571347 0.0662943 0.
0.573467 0.066421 0.
0.575576 0.0665417 0.
0.577685 0.0666623 0.
0.579735 0.0666977 0.
0.581784 0.0667322 0.
0.583828 0.0667651 0.
0.585859 0.0667938 0.
0.58789 0.0668226 0.
0.589916 0.0668449 0.
0.591937 0.0668612 0.
0.593958 0.0668775 0.
0.595975 0.066884 0.
0.59799 0.0668876 0.
0.600005 0.0668911 0.
0.602023 0.0668807 0.
0.604041 0.0668704 0.
0.606061 0.0668572 0.
0.608088 0.0668351 0.
0.610115 0.066813 0.
0.612148 0.066785 0.
0.614187 0.0667504 0.
0.616225 0.0667159 0.
0.618285 0.0666697 0.
0.62035 0.0666202 0.
0.622418 0.0665674 0.
0.624552 0.0664167 0.
0.626684 0.0662667 0.
0.628833 0.0661115 0.
0.631011 0.0659376 0.
0.633184 0.0657653 0.
0.635536 0.0654319 0.
0.637914 0.065093 0.
0.64032 0.0647469 0.
0.642803 0.0642385 0.
0.645306 0.0637023 0.
0.647984 0.0629734 0.
0.650642 0.062207 0.
0.653388 0.0612291 0.
0.656129 0.060207 0.
0.659004 0.0591253 0.
0.661917 0.0579704 0.
0.66489 0.0566653 0.
0.667878 0.0552918 0.
0.670939 0.053725 0.
0.674004 0.0520573 0.
0.677109 0.0502663 0.
0.680245 0.0483883 0.
0.68343 0.046444 0.
0.686668 0.0444784 0.
0.689969 0.0424176 0.
0.69334 0.0401651 0.
0.696779 0.0377786 0.
0.700357 0.0353624 0.
0.704054 0.0330036 0.
0.707859 0.0306606 0.
0.711757 0.0282694 0.
0.715743 0.0259339 0.
0.719812 0.023718 0.
0.723927 0.0217839 0.
0.728109 0.0202337 0.
0.732247 0.0191221 0.
0.736261 0.0184783 0.
0.740075 0.0184824 0.
0.458723 0.0194221 0.
0.462496 0.0195595 0.
0.466466 0.0202824 0.
0.470512 0.0214575 0.
0.474568 0.0230607 0.
0.478586 0.0249926 0.
0.482533 0.0271189 0.
0.486372 0.0293687 0.
0.490143 0.0316704 0.
0.493814 0.0340084 0.
0.497379 0.0363775 0.
0.500856 0.0386994 0.
0.504267 0.0409112 0.
0.507594 0.0430212 0.
0.510874 0.045126 0.
0.514068 0.047291 0.
0.517195 0.0493831 0.
0.520306 0.0513564 0.
0.523377 0.0531475 0.
0.526422 0.0548318 0.
0.529414 0.0563362 0.
0.532393 0.057743 0.
0.535329 0.0590668 0.
0.538261 0.0603064 0.
0.541145 0.0614529 0.
0.544013 0.0624965 0.
0.546826 0.0634407 0.
0.549611 0.0643679 0.
0.552252 0.0651725 0.
0.554889 0.0659221 0.
0.557367 0.0664137 0.
0.559855 0.0669021 0.
0.562238 0.0672338 0.
0.564564 0.0675462 0.
0.566873 0.0678445 0.
0.569041 0.0680029 0.
0.571212 0.0681622 0.
0.573355 0.0683081 0.
0.575482 0.068453 0.
0.577611 0.0685983 0.
0.579676 0.0686453 0.
0.581739 0.0686896 0.
0.583795 0.0687309 0.
0.58583 0.0687631 0.
0.587866 0.0687953 0.
0.589897 0.0688206 0.
0.591922 0.0688398 0.
0.593948 0.068859 0.
0.595969 0.0688666 0.
0.597988 0.0688707 0.
0.600008 0.0688747 0.
0.60203 0.0688621 0.
0.604052 0.0688495 0.
0.606077 0.0688338 0.
0.60811 0.0688081 0.
0.610142 0.0687825 0.
0.612181 0.0687507 0.
0.614225 0.0687121 0.
0.616269 0.0686737 0.
0.618344 0.0686152 0.
0.620426 0.0685514 0.
0.622515 0.0684816 0.
0.624671 0.0683054 0.
0.626825 0.0681304 0.
0.629004 0.0679548 0.
0.631213 0.0677696 0.
0.633418 0.067585 0.
0.635824 0.0671511 0.
0.638238 0.0667251 0.
0.640719 0.0663069 0.
0.643254 0.0657718 0.
0.645815 0.0651879 0.
0.648514 0.0644113 0.
0.651232 0.0635456 0.
0.654024 0.062482 0.
0.656807 0.0614017 0.
0.659678 0.0602823 0.
0.662581 0.0590973 0.
0.665548 0.0577342 0.
0.668532 0.0563 0.
0.671562 0.054721 0.
0.674612 0.053031 0.
0.677682 0.0512282 0.
0.680783 0.0493514 0.
0.683923 0.0474153 0.
0.687121 0.0454486 0.
0.690374 0.0433886 0.
0.693686 0.0411405 0.
0.697069 0.0387702 0.
0.700544 0.0363951 0.
0.704154 0.0340633 0.
0.707854 0.0317588 0.
0.71165 0.0294095 0.
0.71553 0.027113 0.
0.719484 0.0249327 0.
0.723486 0.0230021 0.
0.727535 0.0214518 0.
0.731551 0.0203317 0.
0.735451 0.0196759 0.
0.739171 0.0196043 0.
0.459683 0.0205981 0.
0.463356 0.0207978 0.
0.467202 0.0215344 0.
0.471114 0.0227183 0.
0.475055 0.0243311 0.
0.478957 0.0262531 0.
0.482781 0.0283501 0.
0.486531 0.0305747 0.
0.490205 0.0328424 0.
0.49378 0.0351484 0.
0.497253 0.0374816 0.
0.500646 0.0397738 0.
0.503964 0.0419514 0.
0.507224 0.0440338 0.
0.51044 0.0461129 0.
0.513581 0.0482533 0.
0.516678 0.0503498 0.
0.51974 0.0523242 0.
0.522782 0.05414 0.
0.525802 0.0558376 0.
0.528777 0.0573832 0.
0.531743 0.0588209 0.
0.534684 0.0601645 0.
0.537609 0.0614316 0.
0.540496 0.0626075 0.
0.543373 0.063714 0.
0.546192 0.0647225 0.
0.548973 0.065665 0.
0.551643 0.0665227 0.
0.554317 0.0673491 0.
0.556888 0.0679629 0.
0.559454 0.0685332 0.
0.561933 0.0689509 0.
0.564315 0.0693253 0.
0.56669 0.069694 0.
0.568881 0.0698598 0.
0.571074 0.070025 0.
0.57324 0.0701876 0.
0.575385 0.0703548 0.
0.577532 0.0705225 0.
0.579612 0.070584 0.
0.581689 0.0706409 0.
0.583757 0.0706931 0.
0.585798 0.0707285 0.
0.587839 0.0707639 0.
0.589874 0.0707924 0.
0.591905 0.0708145 0.
0.593936 0.0708366 0.
0.595962 0.0708453 0.
0.597987 0.0708499 0.
0.600011 0.0708545 0.
0.602039 0.0708396 0.
0.604066 0.0708247 0.
0.606096 0.0708063 0.
0.608135 0.0707769 0.
0.610173 0.0707476 0.
0.612218 0.070712 0.
0.614268 0.0706697 0.
0.616318 0.0706276 0.
0.618408 0.0705536 0.
0.620507 0.0704729 0.
0.622615 0.0703837 0.
0.624793 0.0701853 0.
0.626966 0.0699888 0.
0.629177 0.0697953 0.
0.631418 0.0695997 0.
0.633663 0.0693893 0.
0.636117 0.0688561 0.
0.638568 0.0683426 0.
0.641139 0.0678547 0.
0.64375 0.0672693 0.
0.646404 0.0665783 0.
0.649125 0.0657334 0.
0.65186 0.0648112 0.
0.654669 0.0637161 0.
0.65749 0.0625833 0.
0.66036 0.0614183 0.
0.66326 0.0601821 0.
0.666203 0.0587988 0.
0.669172 0.0573198 0.
0.672174 0.0557269 0.
0.675189 0.0540227 0.
0.678234 0.0522151 0.
0.681298 0.050343 0.
0.684391 0.0484162 0.
0.687537 0.0464557 0.
0.690744 0.0444012 0.
0.693991 0.0421656 0.
0.697311 0.0398185 0.
0.700704 0.0374779 0.
0.704201 0.0351848 0.
0.70781 0.0329149 0.
0.711489 0.0306152 0.
0.715263 0.0283515 0.
0.719105 0.026199 0.
0.723004 0.0242741 0.
0.726927 0.0227116 0.
0.730825 0.0215785 0.
0.73462 0.0209145 0.
0.738251 0.0207757 0.
0.460608 0.0218109 0.
0.464184 0.0220537 0.
0.467916 0.0228133 0.
0.471718 0.0240167 0.
0.475553 0.0256396 0.
0.479342 0.0275522 0.
0.483063 0.0296323 0.
0.486723 0.0318292 0.
0.490297 0.034063 0.
0.493771 0.0363366 0.
0.497148 0.0386358 0.
0.500453 0.0408924 0.
0.503683 0.0430336 0.
0.506881 0.0450915 0.
0.510031 0.0471417 0.
0.513122 0.0492556 0.
0.516177 0.0513447 0.
0.519198 0.0533178 0.
0.522213 0.0551509 0.
0.525198 0.0568573 0.
0.528158 0.0584403 0.
0.531116 0.0598952 0.
0.534043 0.0612591 0.
0.536951 0.062552 0.
0.539839 0.0637529 0.
0.542707 0.0648925 0.
0.545518 0.0659401 0.
0.548311 0.066927 0.
0.551031 0.0678559 0.
0.553737 0.0687492 0.
0.556384 0.0694776 0.
0.559001 0.0701002 0.
0.561548 0.0705904 0.
0.56396 0.0710034 0.
0.56638 0.0714198 0.
0.568635 0.071628 0.
0.570896 0.0718387 0.
0.573114 0.0720413 0.
0.575276 0.0722314 0.
0.577442 0.0724224 0.
0.579539 0.0725053 0.
0.581629 0.0725813 0.
0.583711 0.0726499 0.
0.585758 0.0726884 0.
0.587806 0.0727271 0.
0.589848 0.0727587 0.
0.591885 0.0727839 0.
0.593922 0.0728091 0.
0.595954 0.0728191 0.
0.597985 0.0728242 0.
0.600015 0.0728293 0.
0.602049 0.072812 0.
0.604083 0.0727947 0.
0.60612 0.0727733 0.
0.608165 0.0727397 0.
0.61021 0.0727062 0.
0.612262 0.0726666 0.
0.61432 0.0726206 0.
0.616379 0.0725747 0.
0.618485 0.0724778 0.
0.620599 0.0723715 0.
0.622727 0.0722542 0.
0.624928 0.0720307 0.
0.627125 0.0718094 0.
0.629393 0.0715726 0.
0.631696 0.0713338 0.
0.634014 0.071061 0.
0.636489 0.0704811 0.
0.638941 0.0699156 0.
0.641588 0.0693773 0.
0.644265 0.0687522 0.
0.647 0.0679454 0.
0.649751 0.0670249 0.
0.652526 0.0660091 0.
0.655334 0.0648987 0.
0.658168 0.063749 0.
0.661037 0.0625507 0.
0.663937 0.0612562 0.
0.666862 0.0598566 0.
0.6698 0.0583488 0.
0.67277 0.0567496 0.
0.675754 0.0550336 0.
0.678761 0.0532266 0.
0.68179 0.0513653 0.
0.684843 0.0494501 0.
0.687931 0.047499 0.
0.691077 0.0454593 0.
0.69426 0.0432396 0.
0.697511 0.040921 0.
0.700836 0.0386117 0.
0.704227 0.0363564 0.
0.707734 0.0341234 0.
0.711312 0.0318662 0.
0.714972 0.029639 0.
0.718706 0.0275081 0.
0.722492 0.0255893 0.
0.726317 0.0240075 0.
0.730107 0.0228547 0.
0.7338 0.022185 0.
0.737346 0.0219992 0.
0.46152 0.0230566 0.
0.465011 0.023341 0.
0.468648 0.024132 0.
0.472357 0.0253639 0.
0.476089 0.0269978 0.
0.479776 0.0289121 0.
0.483404 0.030977 0.
0.486959 0.0331427 0.
0.490428 0.0353493 0.
0.493799 0.0375878 0.
0.497086 0.0398527 0.
0.500294 0.0420672 0.
0.503447 0.0441757 0.
0.506579 0.0462036 0.
0.509656 0.0482202 0.
0.512702 0.0503055 0.
0.515705 0.0523752 0.
0.51869 0.0543425 0.
0.521661 0.0561804 0.
0.524619 0.0578948 0.
0.527558 0.0595062 0.
0.53049 0.0609675 0.
0.533402 0.0623559 0.
0.536293 0.0636684 0.
0.53917 0.0648826 0.
0.542028 0.0660453 0.
0.544843 0.0671443 0.
0.547641 0.0681694 0.
0.550396 0.0691471 0.
0.553119 0.0700726 0.
0.555807 0.0708854 0.
0.558453 0.0715724 0.
0.561081 0.0721716 0.
0.563548 0.0726391 0.
0.566031 0.0731151 0.
0.568373 0.073385 0.
0.570708 0.0736463 0.
0.572986 0.0738936 0.
0.575167 0.0741067 0.
0.57735 0.0743212 0.
0.579464 0.0744257 0.
0.581569 0.074521 0.
0.583665 0.0746066 0.
0.585719 0.0746483 0.
0.587773 0.0746901 0.
0.589821 0.074725 0.
0.591864 0.0747533 0.
0.593907 0.0747816 0.
0.595946 0.0747928 0.
0.597983 0.0747985 0.
0.60002 0.0748041 0.
0.60206 0.0747844 0.
0.6041 0.0747646 0.
0.606143 0.0747403 0.
0.608195 0.0747025 0.
0.610246 0.0746648 0.
0.612306 0.0746211 0.
0.614373 0.0745714 0.
0.61644 0.0745218 0.
0.618562 0.0744008 0.
0.620692 0.0742688 0.
0.622841 0.0741231 0.
0.625066 0.0738742 0.
0.627286 0.073628 0.
0.629622 0.0733387 0.
0.632002 0.0730433 0.
0.634417 0.072682 0.
0.636958 0.0720414 0.
0.639484 0.0714205 0.
0.642169 0.0708104 0.
0.644854 0.0701511 0.
0.647625 0.0692608 0.
0.650396 0.0682821 0.
0.653194 0.0671976 0.
0.656003 0.066062 0.
0.658841 0.0648875 0.
0.661704 0.0636718 0.
0.6646 0.0623344 0.
0.667505 0.0609127 0.
0.670427 0.0593889 0.
0.673356 0.0577858 0.
0.676299 0.0560702 0.
0.679266 0.0542672 0.
0.682253 0.0524196 0.
0.685258 0.050525 0.
0.688294 0.048588 0.
0.691374 0.0465679 0.
0.694487 0.0443746 0.
0.697656 0.04209 0.
0.700907 0.039813 0.
0.704213 0.0375903 0.
0.707607 0.0353998 0.
0.711093 0.0331779 0.
0.714642 0.0309857 0.
0.718266 0.0288763 0.
0.721945 0.0269601 0.
0.725664 0.0253542 0.
0.729365 0.0241706 0.
0.732965 0.0234871 0.
0.736425 0.0232668 0.
0.462462 0.0243398 0.
0.465882 0.0246756 0.
0.469437 0.0255007 0.
0.473061 0.0267708 0.
0.476694 0.0284285 0.
0.480282 0.0303463 0.
0.483803 0.0323904 0.
0.487251 0.0345324 0.
0.490604 0.0367068 0.
0.493876 0.0389084 0.
0.497064 0.0411365 0.
0.500177 0.0433071 0.
0.503258 0.0453784 0.
0.506308 0.0473674 0.
0.509319 0.0493524 0.
0.51231 0.0514001 0.
0.515259 0.0534418 0.
0.518194 0.0553954 0.
0.521125 0.0572285 0.
0.524047 0.058947 0.
0.526957 0.0605715 0.
0.529864 0.062047 0.
0.532759 0.0634551 0.
0.535626 0.0647783 0.
0.538495 0.0660077 0.
0.541348 0.0671925 0.
0.544167 0.0683314 0.
0.546965 0.0693801 0.
0.549742 0.0703916 0.
0.55248 0.0713464 0.
0.555209 0.0722523 0.
0.557888 0.0730179 0.
0.560578 0.0737271 0.
0.563113 0.074259 0.
0.565652 0.0747822 0.
0.568071 0.0751069 0.
0.570464 0.0754173 0.
0.572795 0.0757165 0.
0.57499 0.075943 0.
0.577191 0.0761703 0.
0.579335 0.0763043 0.
0.58147 0.0764301 0.
0.583596 0.0765448 0.
0.58566 0.0765901 0.
0.587724 0.0766355 0.
0.589782 0.0766737 0.
0.591834 0.0767045 0.
0.593885 0.0767353 0.
0.595933 0.0767474 0.
0.59798 0.0767534 0.
0.600026 0.0767592 0.
0.602076 0.0767375 0.
0.604125 0.0767158 0.
0.606178 0.0766887 0.
0.608239 0.0766467 0.
0.6103 0.0766049 0.
0.612372 0.0765561 0.
0.614453 0.076501 0.
0.616533 0.0764462 0.
0.618683 0.0762922 0.
0.620838 0.0761287 0.
0.623018 0.0759509 0.
0.625267 0.0756839 0.
0.627504 0.0754205 0.
0.6299 0.0750756 0.
0.632337 0.0747306 0.
0.634849 0.0742815 0.
0.637453 0.0735854 0.
0.640062 0.0729024 0.
0.642784 0.0722025 0.
0.645501 0.0714444 0.
0.648278 0.070499 0.
0.65106 0.0694933 0.
0.653871 0.0683737 0.
0.656681 0.0672212 0.
0.659515 0.0660182 0.
0.662369 0.064778 0.
0.665254 0.0634159 0.
0.668136 0.0619752 0.
0.671035 0.060444 0.
0.67394 0.058837 0.
0.676837 0.0571266 0.
0.679756 0.0553379 0.
0.682697 0.0535065 0.
0.685652 0.0516366 0.
0.68863 0.0497228 0.
0.691639 0.0477289 0.
0.694674 0.0455728 0.
0.697757 0.0433261 0.
0.700915 0.0410908 0.
0.704139 0.0388988 0.
0.707429 0.0367456 0.
0.710807 0.0345683 0.
0.714258 0.0324039 0.
0.717768 0.0303172 0.
0.721337 0.0283988 0.
0.724952 0.0267647 0.
0.728554 0.0255405 0.
0.732076 0.024816 0.
0.735458 0.0245587 0.
0.463459 0.0256698 0.
0.466812 0.026061 0.
0.47029 0.0269247 0.
0.473826 0.0282471 0.
0.477356 0.0299331 0.
0.480839 0.0318443 0.
0.484253 0.0338781 0.
0.487584 0.0359975 0.
0.490823 0.0381287 0.
0.493994 0.0403008 0.
0.497072 0.0424846 0.
0.500101 0.0446105 0.
0.503097 0.0466355 0.
0.506063 0.0485837 0.
0.509008 0.0505329 0.
0.511931 0.0525335 0.
0.514821 0.0545431 0.
0.517707 0.0564749 0.
0.520591 0.0582972 0.
0.523483 0.0600184 0.
0.526364 0.0616448 0.
0.529242 0.0631337 0.
0.532114 0.0645546 0.
0.534969 0.065891 0.
0.537827 0.0671401 0.
0.540672 0.068337 0.
0.543494 0.0695035 0.
0.546291 0.0705797 0.
0.549077 0.071618 0.
0.551838 0.0726074 0.
0.554599 0.0735728 0.
0.557314 0.074418 0.
0.560029 0.0751828 0.
0.562619 0.0757598 0.
0.565206 0.0763135 0.
0.567699 0.0767285 0.
0.570139 0.0771257 0.
0.572538 0.0775131 0.
0.574765 0.0777555 0.
0.576999 0.0779989 0.
0.579184 0.0781671 0.
0.581357 0.0783296 0.
0.583522 0.0784794 0.
0.585597 0.0785289 0.
0.587672 0.0785785 0.
0.589741 0.0786202 0.
0.591802 0.0786537 0.
0.593863 0.0786873 0.
0.595921 0.0787003 0.
0.597977 0.0787065 0.
0.600033 0.0787125 0.
0.602093 0.0786888 0.
0.604152 0.0786651 0.
0.606215 0.0786351 0.
0.608286 0.0785885 0.
0.610356 0.078542 0.
0.612443 0.0784874 0.
0.614539 0.0784258 0.
0.616635 0.0783646 0.
0.618822 0.0781707 0.
0.621011 0.0779693 0.
0.623238 0.0777528 0.
0.625532 0.0774605 0.
0.627816 0.0771725 0.
0.630297 0.0767235 0.
0.632786 0.0762912 0.
0.635356 0.0757504 0.
0.637982 0.0750467 0.
0.640646 0.0743318 0.
0.643399 0.0735643 0.
0.646151 0.0727084 0.
0.648941 0.0717145 0.
0.651732 0.0706727 0.
0.654541 0.0695447 0.
0.65736 0.0683748 0.
0.660188 0.0671484 0.
0.663032 0.06588 0.
0.665894 0.0645059 0.
0.668763 0.0630481 0.
0.671632 0.0615153 0.
0.674512 0.059907 0.
0.677375 0.0582042 0.
0.680243 0.056436 0.
0.683129 0.054627 0.
0.68603 0.0527836 0.
0.68895 0.0508999 0.
0.691887 0.0489363 0.
0.69484 0.0468254 0.
0.697829 0.0446253 0.
0.700882 0.0424352 0.
0.704012 0.0402853 0.
0.707203 0.0381635 0.
0.710468 0.0360308 0.
0.713816 0.0338973 0.
0.717219 0.031828 0.
0.720683 0.029904 0.
0.724192 0.0282375 0.
0.727693 0.0269703 0.
0.731132 0.0261827 0.
0.734449 0.0258761 0.
0.464482 0.027044 0.
0.467765 0.0274866 0.
0.471165 0.0284046 0.
0.474604 0.0297804 0.
0.478029 0.0314863 0.
0.481408 0.0333958 0.
0.484715 0.0354274 0.
0.487924 0.0375071 0.
0.491062 0.0396101 0.
0.494119 0.0417476 0.
0.497091 0.0438802 0.
0.500033 0.0459581 0.
0.502938 0.0479334 0.
0.505828 0.0498414 0.
0.508698 0.0517486 0.
0.511552 0.0537005 0.
0.514388 0.0556739 0.
0.51722 0.057577 0.
0.520071 0.0593904 0.
0.522933 0.0611082 0.
0.525777 0.0627311 0.
0.528632 0.0642331 0.
0.531486 0.0656584 0.
0.534323 0.067009 0.
0.537167 0.0682749 0.
0.54001 0.0694834 0.
0.542829 0.0706657 0.
0.545625 0.0717715 0.
0.548415 0.0728323 0.
0.551198 0.0738539 0.
0.553974 0.0748442 0.
0.5567 0.0757299 0.
0.559429 0.0765446 0.
0.562091 0.0772165 0.
0.564741 0.0778281 0.
0.567318 0.0783318 0.
0.569807 0.0788164 0.
0.572278 0.0793075 0.
0.574538 0.0795649 0.
0.576805 0.0798225 0.
0.579032 0.0800204 0.
0.581242 0.0802187 0.
0.583444 0.0804081 0.
0.58553 0.0804616 0.
0.587617 0.0805154 0.
0.589698 0.0805608 0.
0.591768 0.0805966 0.
0.593839 0.0806325 0.
0.595907 0.0806463 0.
0.597974 0.0806525 0.
0.600041 0.0806585 0.
0.602111 0.080633 0.
0.604181 0.0806076 0.
0.606254 0.0805749 0.
0.608334 0.0805243 0.
0.610414 0.0804738 0.
0.612515 0.080412 0.
0.614629 0.0803427 0.
0.616742 0.0802729 0.
0.618964 0.08004 0.
0.621184 0.0798034 0.
0.623462 0.0795494 0.
0.625804 0.0792327 0.
0.628148 0.0789095 0.
0.630708 0.0783506 0.
0.633255 0.0778254 0.
0.635899 0.0771789 0.
0.638565 0.0764269 0.
0.641269 0.0756591 0.
0.644021 0.074868 0.
0.64679 0.0739514 0.
0.649589 0.0729256 0.
0.652397 0.0718476 0.
0.655206 0.0707028 0.
0.658023 0.0695202 0.
0.660852 0.068279 0.
0.66369 0.0669842 0.
0.666529 0.0656037 0.
0.669372 0.0641352 0.
0.672223 0.0626035 0.
0.675068 0.060998 0.
0.677904 0.059305 0.
0.68073 0.0575588 0.
0.683563 0.0557765 0.
0.686403 0.0539627 0.
0.689263 0.0521089 0.
0.692131 0.0501796 0.
0.695008 0.0481165 0.
0.697907 0.0459692 0.
0.700852 0.0438259 0.
0.703871 0.0417229 0.
0.706957 0.0396435 0.
0.710111 0.0375465 0.
0.713351 0.0354448 0.
0.716654 0.033393 0.
0.720012 0.0314641 0.
0.723424 0.0297625 0.
0.726827 0.0284506 0.
0.73018 0.0275963 0.
0.73343 0.0272249 0.
0.465505 0.0284598 0.
0.468712 0.0289571 0.
0.472023 0.029939 0.
0.475365 0.0313528 0.
0.478694 0.0330825 0.
0.481971 0.0350003 0.
0.485159 0.0370141 0.
0.48826 0.039064 0.
0.491287 0.0411433 0.
0.494222 0.0432317 0.
0.497104 0.0453179 0.
0.499952 0.0473424 0.
0.502772 0.0492685 0.
0.505584 0.0511367 0.
0.508376 0.0529989 0.
0.511167 0.0548982 0.
0.51395 0.0568303 0.
0.51674 0.0587075 0.
0.519562 0.0605079 0.
0.522383 0.062216 0.
0.525196 0.0638333 0.
0.528031 0.0653455 0.
0.53086 0.0667694 0.
0.533685 0.068134 0.
0.536522 0.0694137 0.
0.539357 0.0706309 0.
0.54217 0.0718271 0.
0.544968 0.0729606 0.
0.54776 0.0740405 0.
0.550552 0.0750749 0.
0.553328 0.0760759 0.
0.556076 0.0770158 0.
0.558825 0.0778867 0.
0.561547 0.0786517 0.
0.564253 0.079311 0.
0.566909 0.0798888 0.
0.569414 0.0804292 0.
0.571928 0.0809931 0.
0.574255 0.0812792 0.
0.576596 0.0815645 0.
0.578879 0.0818156 0.
0.581117 0.0820713 0.
0.583352 0.0823216 0.
0.585454 0.0823807 0.
0.587557 0.0824401 0.
0.589651 0.0824901 0.
0.591732 0.0825283 0.
0.593813 0.0825666 0.
0.595892 0.0825809 0.
0.597971 0.0825867 0.
0.600049 0.0825922 0.
0.602131 0.0825651 0.
0.604213 0.0825381 0.
0.606297 0.0825029 0.
0.608386 0.0824486 0.
0.610475 0.0823944 0.
0.612595 0.0823193 0.
0.61473 0.0822329 0.
0.616871 0.0821399 0.
0.619153 0.0818438 0.
0.621424 0.081551 0.
0.623766 0.0812456 0.
0.626161 0.0809037 0.
0.62857 0.0805337 0.
0.631149 0.0799207 0.
0.633744 0.07932 0.
0.636454 0.0785871 0.
0.639159 0.0777905 0.
0.6419 0.0769643 0.
0.644662 0.0761313 0.
0.647442 0.0751653 0.
0.650237 0.0741247 0.
0.653048 0.0730243 0.
0.655857 0.0718663 0.
0.658675 0.0706644 0.
0.661499 0.069412 0.
0.664332 0.068096 0.
0.667162 0.0667111 0.
0.669982 0.0652378 0.
0.672807 0.0637084 0.
0.675625 0.0621087 0.
0.678424 0.0604308 0.
0.681217 0.0587063 0.
0.684005 0.0569526 0.
0.686784 0.0551705 0.
0.689582 0.0533477 0.
0.692385 0.0514536 0.
0.695189 0.0494385 0.
0.698005 0.0473471 0.
0.700846 0.045258 0.
0.703751 0.0431981 0.
0.706723 0.0411651 0.
0.709762 0.0391114 0.
0.712891 0.0370352 0.
0.71609 0.0350024 0.
0.719354 0.0330694 0.
0.722666 0.0313394 0.
0.72598 0.0299739 0.
0.729246 0.029061 0.
0.732422 0.0286255 0.
0.466536 0.0299272 0.
0.469665 0.0304826 0.
0.472888 0.0315283 0.
0.47614 0.0329849 0.
0.479376 0.0347455 0.
0.482539 0.0366661 0.
0.485613 0.0386597 0.
0.488605 0.040692 0.
0.491504 0.0427301 0.
0.494329 0.0447699 0.
0.497116 0.0468063 0.
0.499871 0.0487728 0.
0.502611 0.0506512 0.
0.505339 0.052476 0.
0.508063 0.054292 0.
0.510795 0.0561401 0.
0.51353 0.0580256 0.
0.51628 0.0598716 0.
0.519061 0.0616506 0.
0.521841 0.0633448 0.
0.52463 0.0649562 0.
0.527439 0.0664723 0.
0.530251 0.0678943 0.
0.533064 0.0692697 0.
0.53589 0.070558 0.
0.538717 0.071783 0.
0.541523 0.0729897 0.
0.544319 0.0741454 0.
0.547109 0.0752347 0.
0.549902 0.0762821 0.
0.552678 0.0773004 0.
0.55544 0.0782788 0.
0.558203 0.0791879 0.
0.560953 0.0800268 0.
0.563672 0.0807141 0.
0.566368 0.0813495 0.
0.568931 0.0819617 0.
0.571508 0.0826097 0.
0.573942 0.0829692 0.
0.576372 0.0832978 0.
0.578724 0.0836058 0.
0.58099 0.0839195 0.
0.583258 0.0842325 0.
0.585378 0.0842995 0.
0.587496 0.0843646 0.
0.589605 0.0844193 0.
0.591696 0.0844599 0.
0.593787 0.0845006 0.
0.595877 0.0845154 0.
0.597968 0.0845208 0.
0.600058 0.0845259 0.
0.602152 0.0844972 0.
0.604245 0.0844685 0.
0.60634 0.0844309 0.
0.608438 0.0843728 0.
0.610536 0.0843149 0.
0.612676 0.0842254 0.
0.614833 0.0841217 0.
0.617007 0.0840015 0.
0.61935 0.0836414 0.
0.621677 0.0832876 0.
0.624108 0.0829158 0.
0.626586 0.0825234 0.
0.629094 0.0820538 0.
0.631705 0.0813566 0.
0.634327 0.0806902 0.
0.637051 0.0799453 0.
0.639782 0.0791219 0.
0.64254 0.0782485 0.
0.645313 0.0773742 0.
0.648098 0.0763684 0.
0.65089 0.0753067 0.
0.653701 0.0741962 0.
0.656501 0.073032 0.
0.65931 0.0718136 0.
0.662126 0.0705487 0.
0.664953 0.0692199 0.
0.667771 0.0678302 0.
0.670578 0.0663579 0.
0.673378 0.0648342 0.
0.676165 0.0632439 0.
0.678932 0.0615847 0.
0.681687 0.0598869 0.
0.684436 0.0581625 0.
0.687164 0.0564137 0.
0.689895 0.0546258 0.
0.692631 0.0527701 0.
0.695367 0.0508069 0.
0.698108 0.0487695 0.
0.700854 0.0467365 0.
0.703643 0.0447286 0.
0.706496 0.042736 0.
0.70941 0.0407347 0.
0.712416 0.0386909 0.
0.715508 0.0366734 0.
0.718677 0.0347378 0.
0.721895 0.0329798 0.
0.72512 0.0315575 0.
0.728302 0.0305889 0.
0.731404 0.0300854 0.
0.467602 0.0314508 0.
0.470657 0.0320693 0.
0.473801 0.0331903 0.
0.476967 0.034705 0.
0.480092 0.0364918 0.
0.483136 0.0384103 0.
0.486092 0.0403905 0.
0.48895 0.0423855 0.
0.491723 0.044377 0.
0.494447 0.0463729 0.
0.497132 0.0483472 0.
0.499796 0.0502528 0.
0.502453 0.052083 0.
0.505102 0.0538625 0.
0.507759 0.0556317 0.
0.510433 0.0574213 0.
0.513121 0.0592539 0.
0.515829 0.061065 0.
0.518562 0.0628146 0.
0.521306 0.0644932 0.
0.524069 0.0660958 0.
0.526857 0.0676087 0.
0.529652 0.069031 0.
0.532451 0.0704119 0.
0.535264 0.0717068 0.
0.53808 0.0729413 0.
0.54088 0.074155 0.
0.543672 0.0753239 0.
0.546458 0.076424 0.
0.549248 0.0774837 0.
0.552024 0.0785132 0.
0.554795 0.0795108 0.
0.557574 0.0804426 0.
0.560337 0.0813302 0.
0.563069 0.0820812 0.
0.565797 0.0827836 0.
0.568424 0.0834714 0.
0.571059 0.0841978 0.
0.573596 0.0846392 0.
0.576095 0.0850035 0.
0.5785 0.0853602 0.
0.580784 0.0857166 0.
0.583088 0.0860759 0.
0.585251 0.0861712 0.
0.587408 0.0862557 0.
0.589548 0.0863252 0.
0.591652 0.0863667 0.
0.593756 0.0864081 0.
0.59586 0.0864228 0.
0.597964 0.0864274 0.
0.600068 0.0864315 0.
0.602176 0.0864017 0.
0.604284 0.0863719 0.
0.606393 0.0863327 0.
0.608506 0.0862731 0.
0.610618 0.0862135 0.
0.612794 0.0860977 0.
0.614988 0.0859641 0.
0.617215 0.0858005 0.
0.619603 0.0853926 0.
0.621969 0.0849963 0.
0.624485 0.084566 0.
0.62704 0.0841252 0.
0.629636 0.0835441 0.
0.632276 0.0827651 0.
0.634939 0.0820193 0.
0.637676 0.0812421 0.
0.640416 0.0804002 0.
0.643184 0.0795078 0.
0.645971 0.0785967 0.
0.648758 0.0775653 0.
0.651545 0.076482 0.
0.654351 0.0753644 0.
0.65715 0.0741968 0.
0.659944 0.0729662 0.
0.662744 0.0716912 0.
0.665559 0.0703551 0.
0.668366 0.0689616 0.
0.671153 0.0674951 0.
0.673934 0.0659814 0.
0.676695 0.064403 0.
0.679429 0.0627623 0.
0.682148 0.0610935 0.
0.684858 0.0594033 0.
0.687539 0.0576892 0.
0.690211 0.0559398 0.
0.692879 0.0541263 0.
0.695539 0.0522218 0.
0.698202 0.050249 0.
0.700863 0.0482675 0.
0.703541 0.0463168 0.
0.706272 0.0443744 0.
0.709058 0.042419 0.
0.711927 0.0404257 0.
0.714891 0.0384263 0.
0.717949 0.0364904 0.
0.721075 0.0347044 0.
0.724212 0.033221 0.
0.727307 0.0321907 0.
0.730336 0.0316102 0.
0.468713 0.0330293 0.
0.471701 0.0337376 0.
0.474764 0.0349444 0.
0.477824 0.0365166 0.
0.480826 0.0383207 0.
0.483743 0.0402378 0.
0.486558 0.0421843 0.
0.48928 0.0441361 0.
0.491937 0.0460837 0.
0.494549 0.0480183 0.
0.497138 0.0499288 0.
0.499717 0.0517768 0.
0.502289 0.0535554 0.
0.504862 0.0552892 0.
0.507454 0.0570051 0.
0.510069 0.0587312 0.
0.51271 0.0605111 0.
0.515368 0.0622801 0.
0.518059 0.063997 0.
0.520771 0.0656575 0.
0.523511 0.0672462 0.
0.526278 0.0687533 0.
0.52906 0.0701789 0.
0.531847 0.0715597 0.
0.534646 0.0728621 0.
0.537448 0.074106 0.
0.540243 0.0753237 0.
0.543028 0.0765032 0.
0.54581 0.0776129 0.
0.548602 0.0786819 0.
0.551388 0.0797271 0.
0.554171 0.0807355 0.
0.556954 0.0816847 0.
0.559724 0.0826069 0.
0.562472 0.0834249 0.
0.565215 0.0841765 0.
0.567887 0.084903 0.
0.570539 0.0856385 0.
0.57312 0.0861707 0.
0.575656 0.0866117 0.
0.578146 0.0870605 0.
0.580494 0.0874669 0.
0.582865 0.0878793 0.
0.585096 0.0880194 0.
0.587304 0.0881332 0.
0.589488 0.0882249 0.
0.591606 0.0882672 0.
0.593724 0.0883096 0.
0.595843 0.088324 0.
0.597961 0.0883278 0.
0.600079 0.088331 0.
0.602202 0.0882996 0.
0.604324 0.0882682 0.
0.60645 0.0882271 0.
0.60858 0.0881658 0.
0.610709 0.0881046 0.
0.612937 0.0879507 0.
0.615185 0.0877739 0.
0.61749 0.087546 0.
0.619944 0.0870768 0.
0.622374 0.0866215 0.
0.624958 0.0861143 0.
0.627549 0.0856265 0.
0.630192 0.0849533 0.
0.632855 0.0841268 0.
0.635552 0.083333 0.
0.638296 0.0825309 0.
0.641046 0.081659 0.
0.643818 0.0807474 0.
0.646611 0.0798099 0.
0.649403 0.0787631 0.
0.652195 0.0776599 0.
0.654998 0.0765343 0.
0.65779 0.0753614 0.
0.66058 0.0741222 0.
0.663368 0.0728384 0.
0.666161 0.0714998 0.
0.668951 0.0701042 0.
0.671724 0.0686446 0.
0.674483 0.0671423 0.
0.67722 0.065581 0.
0.679925 0.0639606 0.
0.682611 0.0623198 0.
0.685281 0.0606692 0.
0.687921 0.0589921 0.
0.690537 0.0572828 0.
0.693136 0.0555186 0.
0.695725 0.0536721 0.
0.698302 0.0517719 0.
0.700875 0.0498508 0.
0.703456 0.0479481 0.
0.706069 0.0460643 0.
0.708728 0.0441635 0.
0.711454 0.0422217 0.
0.714272 0.0402606 0.
0.717194 0.03833 0.
0.720207 0.0365186 0.
0.723253 0.0349771 0.
0.726264 0.0338683 0.
0.729219 0.0331998 0.
0.469846 0.0346787 0.
0.472761 0.0355002 0.
0.475721 0.0367805 0.
0.478659 0.0383979 0.
0.481523 0.0402151 0.
0.484292 0.0421075 0.
0.486959 0.0440098 0.
0.489552 0.0459158 0.
0.492088 0.0478043 0.
0.494599 0.0496778 0.
0.497099 0.0515259 0.
0.499595 0.053315 0.
0.502092 0.0550468 0.
0.504596 0.0567328 0.
0.507123 0.0583926 0.
0.509687 0.0600624 0.
0.51228 0.0617883 0.
0.514892 0.0635127 0.
0.517547 0.0651975 0.
0.520237 0.0668367 0.
0.522954 0.0684104 0.
0.525707 0.0699105 0.
0.528478 0.0713382 0.
0.531251 0.0727168 0.
0.534039 0.0740261 0.
0.536833 0.0752767 0.
0.539618 0.0764971 0.
0.542396 0.0776866 0.
0.545181 0.078806 0.
0.547981 0.0798816 0.
0.550771 0.0809403 0.
0.553554 0.0819594 0.
0.556343 0.0829247 0.
0.559118 0.0838696 0.
0.561875 0.0847344 0.
0.564624 0.0855045 0.
0.567324 0.0862608 0.
0.569995 0.0870323 0.
0.572625 0.0876687 0.
0.575206 0.0881962 0.
0.577781 0.0887516 0.
0.580194 0.0892082 0.
0.582635 0.0896728 0.
0.584939 0.0898607 0.
0.5872 0.0900032 0.
0.589429 0.09012 0.
0.591561 0.0901628 0.
0.593693 0.0902055 0.
0.595826 0.0902197 0.
0.597958 0.0902226 0.
0.600091 0.0902249 0.
0.602228 0.0901921 0.
0.604364 0.0901594 0.
0.606506 0.0901167 0.
0.608653 0.0900543 0.
0.6108 0.0899922 0.
0.613082 0.0897968 0.
0.615386 0.0895762 0.
0.617774 0.0892798 0.
0.620296 0.088749 0.
0.622805 0.0882237 0.
0.625448 0.0876332 0.
0.628081 0.0870702 0.
0.630759 0.0863035 0.
0.633441 0.0854507 0.
0.636162 0.0846332 0.
0.638912 0.083812 0.
0.641672 0.082914 0.
0.644448 0.081986 0.
0.647244 0.0810204 0.
0.650033 0.0799606 0.
0.652825 0.0788423 0.
0.655628 0.0777098 0.
0.658419 0.0765308 0.
0.661201 0.0752863 0.
0.663982 0.0739926 0.
0.666762 0.0726542 0.
0.669532 0.0712598 0.
0.672286 0.0698101 0.
0.675029 0.068318 0.
0.677746 0.0667725 0.
0.680425 0.0651767 0.
0.683084 0.0635629 0.
0.685719 0.0619501 0.
0.688316 0.0603145 0.
0.690888 0.0586437 0.
0.69343 0.0569264 0.
0.695949 0.0551394 0.
0.698449 0.0533056 0.
0.700933 0.0514534 0.
0.703419 0.0496045 0.
0.705929 0.0477694 0.
0.708467 0.0459311 0.
0.711054 0.0440507 0.
0.713719 0.0421365 0.
0.716484 0.0402329 0.
0.719355 0.038408 0.
0.722287 0.0368163 0.
0.725205 0.0356223 0.
0.728082 0.0348642 0.
0.470948 0.0364161 0.
0.473768 0.0373357 0.
0.476608 0.0386772 0.
0.479401 0.0403307 0.
0.482105 0.0421344 0.
0.484717 0.0439819 0.
0.487243 0.0458373 0.
0.489704 0.0476846 0.
0.492134 0.0495113 0.
0.494556 0.0513257 0.
0.496976 0.0531131 0.
0.4994 0.0548505 0.
0.501829 0.0565392 0.
0.504273 0.058178 0.
0.50675 0.0597917 0.
0.509269 0.061409 0.
0.511816 0.0630803 0.
0.514394 0.0647629 0.
0.517025 0.0664159 0.
0.519697 0.0680326 0.
0.522399 0.0695928 0.
0.525143 0.0710837 0.
0.527902 0.0725117 0.
0.530667 0.0738878 0.
0.533447 0.0752039 0.
0.536228 0.0764577 0.
0.539005 0.0776792 0.
0.541785 0.078877 0.
0.544577 0.0800054 0.
0.547381 0.0810869 0.
0.550171 0.0821583 0.
0.552955 0.0831869 0.
0.555746 0.0841636 0.
0.558523 0.0851228 0.
0.561287 0.0860249 0.
0.564044 0.0868217 0.
0.566771 0.0876095 0.
0.569465 0.0884158 0.
0.57214 0.0891387 0.
0.574769 0.0897413 0.
0.577396 0.0903562 0.
0.579857 0.0908284 0.
0.58233 0.0912994 0.
0.584714 0.0915678 0.
0.58706 0.0918001 0.
0.589371 0.0919953 0.
0.591517 0.0920387 0.
0.593665 0.0920821 0.
0.595811 0.0920963 0.
0.597958 0.0920985 0.
0.600104 0.0921002 0.
0.602254 0.0920654 0.
0.604404 0.0920307 0.
0.60656 0.0919842 0.
0.608724 0.0919164 0.
0.610888 0.0918491 0.
0.61327 0.0915597 0.
0.615659 0.0912542 0.
0.61812 0.0908779 0.
0.620666 0.0903324 0.
0.623234 0.0897748 0.
0.625926 0.0891266 0.
0.628609 0.0884751 0.
0.631316 0.087647 0.
0.63402 0.0867654 0.
0.636759 0.0859302 0.
0.639514 0.0850859 0.
0.642282 0.0841652 0.
0.645063 0.0832248 0.
0.647859 0.0822343 0.
0.650646 0.0811619 0.
0.653437 0.0800339 0.
0.656238 0.0788953 0.
0.659028 0.0777095 0.
0.661809 0.07646 0.
0.664586 0.0751597 0.
0.667358 0.0738208 0.
0.670115 0.0724297 0.
0.672851 0.0709907 0.
0.675579 0.0695101 0.
0.678279 0.0679799 0.
0.680936 0.0664084 0.
0.683573 0.064823 0.
0.68618 0.0632468 0.
0.688743 0.0616495 0.
0.691273 0.0600174 0.
0.69377 0.0583424 0.
0.696234 0.0566095 0.
0.698669 0.0548365 0.
0.701078 0.0530444 0.
0.703475 0.0512574 0.
0.705885 0.0494719 0.
0.708321 0.0476883 0.
0.710785 0.0458763 0.
0.7133 0.0440214 0.
0.715899 0.0421603 0.
0.718601 0.0403465 0.
0.721386 0.0387206 0.
0.724192 0.0374506 0.
0.72698 0.036609 0.
0.471979 0.0382397 0.
0.474682 0.0392358 0.
0.477376 0.0406344 0.
0.48 0.0422897 0.
0.482535 0.0440534 0.
0.484996 0.0458538 0.
0.487384 0.0476495 0.
0.489735 0.0494348 0.
0.492078 0.0512047 0.
0.494421 0.0529602 0.
0.496775 0.0546948 0.
0.49914 0.0563907 0.
0.501516 0.0580378 0.
0.50392 0.0596404 0.
0.50636 0.0612161 0.
0.508841 0.0627842 0.
0.511356 0.0644071 0.
0.513911 0.0660496 0.
0.516524 0.067668 0.
0.519183 0.069262 0.
0.521873 0.0708059 0.
0.524602 0.072282 0.
0.52735 0.0737095 0.
0.530106 0.0750835 0.
0.532873 0.0764008 0.
0.535646 0.077655 0.
0.538424 0.0788778 0.
0.541208 0.0800827 0.
0.544003 0.0812167 0.
0.546806 0.082303 0.
0.549595 0.0833859 0.
0.552378 0.0844221 0.
0.555172 0.0854066 0.
0.557952 0.0863781 0.
0.560722 0.0873118 0.
0.563487 0.0881333 0.
0.566235 0.0889506 0.
0.568948 0.0897853 0.
0.571651 0.0905415 0.
0.5743 0.0911851 0.
0.576946 0.0918497 0.
0.579474 0.0923879 0.
0.581998 0.0928994 0.
0.584473 0.0932597 0.
0.586913 0.093589 0.
0.589311 0.0938706 0.
0.591473 0.0939147 0.
0.593635 0.0939588 0.
0.595796 0.0939728 0.
0.597957 0.0939745 0.
0.600118 0.0939754 0.
0.602281 0.0939386 0.
0.604443 0.0939019 0.
0.606615 0.0938514 0.
0.608797 0.0937783 0.
0.610977 0.0937055 0.
0.613475 0.0933068 0.
0.615968 0.0928983 0.
0.618513 0.0924181 0.
0.621091 0.0918185 0.
0.623709 0.0911941 0.
0.626413 0.0905331 0.
0.629124 0.0898402 0.
0.631855 0.0889835 0.
0.63458 0.0880801 0.
0.637331 0.0872252 0.
0.640091 0.0863562 0.
0.642862 0.0854207 0.
0.645649 0.0844676 0.
0.648447 0.0834573 0.
0.651232 0.0823725 0.
0.65402 0.0812388 0.
0.656819 0.0800975 0.
0.659608 0.0789055 0.
0.662387 0.0776505 0.
0.665162 0.0763457 0.
0.667929 0.0750087 0.
0.670678 0.0736249 0.
0.673399 0.0721978 0.
0.676107 0.0707322 0.
0.678791 0.069219 0.
0.681432 0.0676721 0.
0.684048 0.0661183 0.
0.686632 0.0645766 0.
0.689169 0.0630135 0.
0.691668 0.0614155 0.
0.694132 0.0597796 0.
0.696557 0.0580918 0.
0.698943 0.0563738 0.
0.701295 0.0546331 0.
0.703624 0.0528986 0.
0.70595 0.0511672 0.
0.70829 0.0494341 0.
0.710651 0.0476851 0.
0.713037 0.0459016 0.
0.715477 0.0440906 0.
0.718004 0.042309 0.
0.720615 0.0406799 0.
0.723276 0.0393537 0.
0.725949 0.0384262 0.
0.472874 0.0401394 0.
0.475435 0.0411938 0.
0.477959 0.0426176 0.
0.480411 0.0442544 0.
0.482793 0.0459741 0.
0.485115 0.0477159 0.
0.487392 0.0494496 0.
0.489664 0.051179 0.
0.491939 0.0528955 0.
0.494224 0.0546027 0.
0.496527 0.0562963 0.
0.498847 0.0579505 0.
0.501193 0.0595675 0.
0.503571 0.0611398 0.
0.505979 0.0626765 0.
0.508432 0.0642033 0.
0.510929 0.0657817 0.
0.513469 0.0673826 0.
0.51607 0.0689689 0.
0.518718 0.0705386 0.
0.521393 0.0720593 0.
0.52411 0.0735191 0.
0.526844 0.0749421 0.
0.529586 0.0763103 0.
0.532344 0.0776236 0.
0.535114 0.0788789 0.
0.537892 0.0801051 0.
0.540676 0.0813102 0.
0.543467 0.0824464 0.
0.546265 0.0835379 0.
0.54905 0.0846255 0.
0.551837 0.0856698 0.
0.554631 0.0866591 0.
0.557411 0.0876394 0.
0.560185 0.0885927 0.
0.562962 0.0894424 0.
0.565726 0.0902815 0.
0.568451 0.0911272 0.
0.571165 0.0919135 0.
0.573832 0.0926097 0.
0.576497 0.093325 0.
0.579088 0.0939306 0.
0.581665 0.0944781 0.
0.584229 0.0949227 0.
0.586763 0.0953435 0.
0.589247 0.0957238 0.
0.591426 0.0957683 0.
0.593605 0.0958129 0.
0.595781 0.0958271 0.
0.597956 0.0958286 0.
0.600132 0.0958292 0.
0.602309 0.0957913 0.
0.604486 0.0957534 0.
0.606674 0.0956992 0.
0.608873 0.0956207 0.
0.61107 0.0955427 0.
0.613683 0.0950251 0.
0.616285 0.0945184 0.
0.618902 0.0939392 0.
0.621515 0.0932876 0.
0.624181 0.0925992 0.
0.6269 0.0919022 0.
0.629623 0.0911607 0.
0.632362 0.0902979 0.
0.635109 0.0893932 0.
0.637869 0.088522 0.
0.640634 0.0876317 0.
0.643406 0.0866857 0.
0.64619 0.08572 0.
0.648988 0.0846962 0.
0.651779 0.0836012 0.
0.654564 0.0824642 0.
0.657356 0.0813223 0.
0.66014 0.0801293 0.
0.662919 0.0788686 0.
0.665688 0.0775606 0.
0.668451 0.0762279 0.
0.671196 0.0748565 0.
0.673908 0.073442 0.
0.676597 0.0719938 0.
0.679262 0.0705042 0.
0.681888 0.0689827 0.
0.684486 0.0674625 0.
0.687048 0.0659571 0.
0.689568 0.0644222 0.
0.692048 0.0628519 0.
0.694488 0.0612536 0.
0.696887 0.0596095 0.
0.699239 0.0579337 0.
0.70155 0.056241 0.
0.703833 0.0545498 0.
0.706099 0.0528628 0.
0.708361 0.0511823 0.
0.710637 0.0494845 0.
0.712928 0.0477664 0.
0.715234 0.0460224 0.
0.7176 0.0442753 0.
0.720038 0.0426584 0.
0.722536 0.0413119 0.
0.72507 0.0403168 0.
0.473566 0.0420751 0.
0.475973 0.0431836 0.
0.478332 0.0446331 0.
0.480638 0.0462427 0.
0.482888 0.0479119 0.
0.485101 0.0495977 0.
0.487307 0.0512773 0.
0.489522 0.0529562 0.
0.491752 0.0546345 0.
0.493997 0.0563029 0.
0.496269 0.057958 0.
0.498571 0.05958 0.
0.500904 0.0611717 0.
0.503257 0.0627073 0.
0.50564 0.0642064 0.
0.508081 0.0656925 0.
0.510566 0.0672247 0.
0.5131 0.0687886 0.
0.515689 0.070344 0.
0.51832 0.0718829 0.
0.520984 0.0733767 0.
0.523692 0.0748167 0.
0.526409 0.0762289 0.
0.52914 0.0775875 0.
0.531894 0.078892 0.
0.534665 0.0801468 0.
0.537439 0.0813772 0.
0.540216 0.0825805 0.
0.542999 0.0837134 0.
0.545794 0.084811 0.
0.548578 0.0859 0.
0.551359 0.0869435 0.
0.554155 0.0879402 0.
0.556942 0.0889333 0.
0.559724 0.0898938 0.
0.562509 0.090761 0.
0.565267 0.0916157 0.
0.567994 0.0924769 0.
0.570724 0.0932878 0.
0.573419 0.0940295 0.
0.576115 0.0947851 0.
0.578775 0.0954296 0.
0.581405 0.0959866 0.
0.584025 0.0964978 0.
0.586619 0.0970467 0.
0.589176 0.0975591 0.
0.591373 0.0976054 0.
0.593572 0.0976519 0.
0.595766 0.0976671 0.
0.597956 0.0976685 0.
0.600147 0.0976691 0.
0.60234 0.0976298 0.
0.604532 0.0975907 0.
0.606739 0.0975313 0.
0.608958 0.0974453 0.
0.611184 0.0973513 0.
0.613858 0.0966681 0.
0.616517 0.0960366 0.
0.619186 0.0954132 0.
0.621862 0.0947413 0.
0.624592 0.0940016 0.
0.627333 0.0932731 0.
0.630074 0.0924919 0.
0.632819 0.091618 0.
0.635564 0.0907153 0.
0.638331 0.0898333 0.
0.641106 0.088931 0.
0.643877 0.0879811 0.
0.646661 0.0869997 0.
0.649454 0.0859658 0.
0.652243 0.0848706 0.
0.655035 0.0837277 0.
0.657823 0.0825834 0.
0.660598 0.0813985 0.
0.663368 0.0801404 0.
0.666135 0.0788246 0.
0.668892 0.0774953 0.
0.671634 0.0761457 0.
0.674343 0.0747509 0.
0.677017 0.0733188 0.
0.679664 0.0718571 0.
0.682276 0.0703675 0.
0.684862 0.0688797 0.
0.687406 0.0674127 0.
0.689909 0.0659137 0.
0.692378 0.0643672 0.
0.694807 0.062795 0.
0.697189 0.0611958 0.
0.699526 0.0595649 0.
0.701813 0.0579095 0.
0.704061 0.0562603 0.
0.706292 0.0546074 0.
0.708506 0.0529668 0.
0.710715 0.0513187 0.
0.712934 0.049652 0.
0.715147 0.0479698 0.
0.717384 0.0462703 0.
0.71967 0.0446617 0.
0.72201 0.0432903 0.
0.724398 0.0422383 0.
CELLS 5000 10000
1 0
1 1
1 2
1 3
1 4
1 5
1 6
1 7
1 8
1 9
1 10
1 11
1 12
1 13
1 14
1 15
1 16
1 17
1 18
1 19
1 20
1 21
1 22
1 23
1 24
1 25
1 26
1 27
1 28
1 29
1 30
1 31
1 32
1 33
1 34
1 35
1 36
1 37
1 38
1 39
1 40
1 41
1 42
1 43
1 44
1 45
1 46
1 47
1 48
1 49
1 50
1 51
1 52
1 53
1 54
1 55
1 56
1 57
1 58
1 59
1 60
1 61
1 62
1 63
1 64
1 65
1 66
1 67
1 68
1 69
1 70
1 71
1 72
1 73
1 74
1 75
1 76
1 77
1 78
1 79
1 80
1 81
1 82
1 83
1 84
1 85
1 86
1 87
1 88
1 89
1 90
1 91
1 92
1 93
1 94
1 95
1 96
1 97
1 98
1 99
1 100
1 101
1 102
1 103
1 104
1 105
1 106
1 107
1 108
1 109
1 110
1 111
1 112
1 113
1 114
1 115
1 116
1 117
1 118
1 119
1 120
1 121
1 122
1 123
1 124
1 125
1 126
1 127
1 128
1 129
1 130
1 131
1 132
1 133
1 134
1 135
1 136
1 137
1 138
1 139
1 140
1 141
1 142
1 143
1 144
1 145
1 146
1 147
1 148
1 149
1 150
1 151
1 152
1 153
1 154
1 155
1 156
1 157
1 158
1 159
1 160
1 161
1 162
1 163
1 164
1 165
1 166
1 167
1 168
1 169
1 170
1 171
1 172
1 173
1 174
1 175
1 176
1 177
1 178
1 179
1 180
1 181
1 182
1 183
1 184
1 185
1 186
1 187
1 188
1 189
1 190
1 191
1 192
1 193
1 194
1 195
1 196
1 197
1 198
1 199
1 200
1 201
1 202
1 203
1 204
1 205
1 206
1 207
1 208
1 209
1 210
1 211
1 212
1 213
1 214
1 215
1 216
1 217
1 218
1 219
1 220
1 221
1 222
1 223
1 224
1 225
1 226
1 227
1 228
1 229
1 230
1 231
1 232
1 233
1 234
1 235
1 236
1 237
1 238
1 239
1 240
1 241
1 242
1 243
1 244
1 245
1 246
1 247
1 248
1 249
1 250
1 251
1 252
1 253
1 254
1 255
1 256
1 257
1 258
1 259
1 260
1 261
1 262
1 263
1 264
1 265
1 266
1 267
1 268
1 269
1 270
1 271
1 272
1 273
1 274
1 275
1 276
1 277
1 278
1 279
1 280
1 281
1 282
1 283
1 284
1 285
1 286
1 287
1 288
1 289
1 290
1 291
1 292
1 293
1 294
1 295
1 296
1 297
1 298
1 299
1 300
1 301
1 302
1 303
1 304
1 305
1 306
1 307
1 308
1 309
1 310
1 311
1 312
1 313
1 314
1 315
1 316
1 317
1 318
1 319
1 320
1 321
1 322
1 323
1 324
1 325
1 326
1 327
1 328
1 329
1 330
1 331
1 332
1 333
1 334
1 335
1 336
1 337
1 338
1 339
1 340
1 341
1 342
1 343
1 344
1 345
1 346
1 347
1 348
1 349
1 350
1 351
1 352
1 353
1 354
1 355
1 356
1 357
1 358
1 359
1 360
1 361
1 362
1 363
1 364
1 365
1 366
1 367
1 368
1 369
1 370
1 371
1 372
1 373
1 374
1 375
1 376
1 377
1 378
1 379
1 380
1 381
1 382
1 383
1 384
1 385
1 386
1 387
1 388
1 389
1 390
1 391
1 392
1 393
1 394
1 395
1 396
1 397
1 398
1 399
1 400
1 401
1 402
1 403
1 404
1 405
1 406
1 407
1 408
1 409
1 410
1 411
1 412
1 413
1 414
1 415
1 416
1 417
1 418
1 419
1 420
1 421
1 422
1 423
1 424
1 425
1 426
1 427
1 428
1 429
1 430
1 431
1 432
1 433
1 434
1 435
1 436
1 437
1 438
1 439
1 440
1 441
1 442
1 443
1 444
1 445
1 446
1 447
1 448
1 449
1 450
1 451
1 452
1 453
1 454
1 455
1 456
1 457
1 458
1 459
1 460
1 461
1 462
1 463
1 464
1 465
1 466
1 467
1 468
1 469
1 470
1 471
1 472
1 473
1 474
1 475
1 476
1 477
1 478
1 479
1 480
1 481
1 482
1 483
1 484
1 485
1 486
1 487
1 488
1 489
1 490
1 491
1 492
1 493
1 494
1 495
1 496
1 497
1 498
1 499
1 500
1 501
1 502
1 503
1 504
1 505
1 506
1 507
1 508
1 509
1 510
1 511
1 512
1 513
1 514
1 515
1 516
1 517
1 518
1 519
1 520
1 521
1 522
1 523
1 524
1 525
1 526
1 527
1 528
1 529
1 530
1 531
1 532
1 533
1 534
1 535
1 536
1 537
1 538
1 539
1 540
1 541
1 542
1 543
1 544
1 545
1 546
1 547
1 548
1 549
1 550
1 551
1 552
1 553
1 554
1 555
1 556
1 557
1 558
1 559
1 560
1 561
1 562
1 563
1 564
1 565
1 566
1 567
1 568
1 569
1 570
1 571
1 572
1 573
1 574
1 575
1 576
1 577
1 578
1 579
1 580
1 581
1 582
1 583
1 584
1 585
1 586
1 587
1 588
1 589
1 590
1 591
1 592
1 593
1 594
1 595
1 596
1 597
1 598
1 599
1 600
1 601
1 602
1 603
1 604
1 605
1 606
1 607
1 608
1 609
1 610
1 611
1 612
1 613
1 614
1 615
1 616
1 617
1 618
1 619
1 620
1 621
1 622
1 623
1 624
1 625
1 626
1 627
1 628
1 629
1 630
1 631
1 632
1 633
1 634
1 635
1 636
1 637
1 638
1 639
1 640
1 641
1 642
1 643
1 644
1 645
1 646
1 647
1 648
1 649
1 650
1 651
1 652
1 653
1 654
1 655
1 656
1 657
1 658
1 659
1 660
1 661
1 662
1 663
1 664
1 665
1 666
1 667
1 668
1 669
1 670
1 671
1 672
1 673
1 674
1 675
1 676
1 677
1 678
1 679
1 680
1 681
1 682
1 683
1 684
1 685
1 686
1 687
1 688
1 689
1 690
1 691
1 692
1 693
1 694
1 695
1 696
1 697
1 698
1 699
1 700
1 701
1 702
1 703
1 704
1 705
1 706
1 707
1 708
1 709
1 710
1 711
1 712
1 713
1 714
1 715
1 716
1 717
1 718
1 719
1 720
1 721
1 722
1 723
1 724
1 725
1 726
1 727
1 728
1 729
1 730
1 731
1 732
1 733
1 734
1 735
1 736
1 737
1 738
1 739
1 740
1 741
1 742
1 743
1 744
1 745
1 746
1 747
1 748
1 749
1 750
1 751
1 752
1 753
1 754
1 755
1 756
1 757
1 758
1 759
1 760
1 761
1 762
1 763
1 764
1 765
1 766
1 767
1 768
1 769
1 770
1 771
1 772
1 773
1 774
1 775
1 776
1 777
1 778
1 779
1 780
1 781
1 782
1 783
1 784
1 785
1 786
1 787
1 788
1 789
1 790
1 791
1 792
1 793
1 794
1 795
1 796
1 797
1 798
1 799
1 800
1 801
1 802
1 803
1 804
1 805
1 806
1 807
1 808
1 809
1 810
1 811
1 812
1 813
1 814
1 815
1 816
1 817
1 818
1 819
1 820
1 821
1 822
1 823
1 824
1 825
1 826
1 827
1 828
1 829
1 830
1 831
1 832
1 833
1 834
1 835
1 836
1 837
1 838
1 839
1 840
1 841
1 842
1 843
1 844
1 845
1 846
1 847
1 848
1 849
1 850
1 851
1 852
1 853
1 854
1 855
1 856
1 857
1 858
1 859
1 860
1 861
1 862
1 863
1 864
1 865
1 866
1 867
1 868
1 869
1 870
1 871
1 872
1 873
1 874
1 875
1 876
1 877
1 878
1 879
1 880
1 881
1 882
1 883
1 884
1 885
1 886
1 887
1 888
1 889
1 890
1 891
1 892
1 893
1 894
1 895
1 896
1 897
1 898
1 899
1 900
1 901
1 902
1 903
1 904
1 905
1 906
1 907
1 908
1 909
1 910
1 911
1 912
1 913
1 914
1 915
1 916
1 917
1 918
1 919
1 920
1 921
1 922
1 923
1 924
1 925
1 926
1 927
1 928
1 929
1 930
1 931
1 932
1 933
1 934
1 935
1 936
1 937
1 938
1 939
1 940
1 941
1 942
1 943
1 944
1 945
1 946
1 947
1 948
1 949
1 950
1 951
1 952
1 953
1 954
1 955
1 956
1 957
1 958
1 959
1 960
1 961
1 962
1 963
1 964
1 965
1 966
1 967
1 968
1 969
1 970
1 971
1 972
1 973
1 974
1 975
1 976
1 977
1 978
1 979
1 980
1 981
1 982
1 983
1 984
1 985
1 986
1 987
1 988
1 989
1 990
1 991
1 992
1 993
1 994
1 995
1 996
1 997
1 998
1 999
1 1000
1 1001
1 1002
1 1003
1 1004
1 1005
1 1006
1 1007
1 1008
1 1009
1 1010
1 1011
1 1012
1 1013
1 1014
1 1015
1 1016
1 1017
1 1018
1 1019
1 1020
1 1021
1 1022
1 1023
1 1024
1 1025
1 1026
1 1027
1 1028
1 1029
1 1030
1 1031
1 1032
1 1033
1 1034
1 1035
1 1036
1 1037
1 1038
1 1039
1 1040
1 1041
1 1042
1 1043
1 1044
1 1045
1 1046
1 1047
1 1048
1 1049
1 1050
1 1051
1 1052
1 1053
1 1054
1 1055
1 1056
1 1057
1 1058
1 1059
1 1060
1 1061
1 1062
1 1063
1 1064
1 1065
1 1066
1 1067
1 1068
1 1069
1 1070
1 1071
1 1072
1 1073
1 1074
1 1075
1 1076
1 1077
1 1078
1 1079
1 1080
1 1081
1 1082
1 1083
1 1084
1 1085
1 1086
1 1087
1 1088
1 1089
1 1090
1 1091
1 1092
1 1093
1 1094
1 1095
1 1096
1 1097
1 1098
1 1099
1 1100
1 1101
1 1102
1 1103
1 1104
1 1105
1 1106
1 1107
1 1108
1 1109
1 1110
1 1111
1 1112
1 1113
1 1114
1 1115
1 1116
1 1117
1 1118
1 1119
1 1120
1 1121
1 1122
1 1123
1 1124
1 1125
1 1126
1 1127
1 1128
1 1129
1 1130
1 1131
1 1132
1 1133
1 1134
1 1135
1 1136
1 1137
1 1138
1 1139
1 1140
1 1141
1 1142
1 1143
1 1144
1 1145
1 1146
1 1147
1 1148
1 1149
1 1150
1 1151
1 1152
1 1153
1 1154
1 1155
1 1156
1 1157
1 1158
1 1159
1 1160
1 1161
1 1162
1 1163
1 1164
1 1165
1 1166
1 1167
1 1168
1 1169
1 1170
1 1171
1 1172
1 1173
1 1174
1 1175
1 1176
1 1177
1 1178
1 1179
1 1180
1 1181
1 1182
1 1183
1 1184
1 1185
1 1186
1 1187
1 1188
1 1189
1 1190
1 1191
1 1192
1 1193
1 1194
1 1195
1 1196
1 1197
1 1198
1 1199
1 1200
1 1201
1 1202
1 1203
1 1204
1 1205
1 1206
1 1207
1 1208
1 1209
1 1210
1 1211
1 1212
1 1213
1 1214
1 1215
1 1216
1 1217
1 1218
1 1219
1 1220
1 1221
1 1222
1 1223
1 1224
1 1225
1 1226
1 1227
1 1228
1 1229
1 1230
1 1231
1 1232
1 1233
1 1234
1 1235
1 1236
1 1237
1 1238
1 1239
1 1240
1 1241
1 1242
1 1243
1 1244
1 1245
1 1246
1 1247
1 1248
1 1249
1 1250
1 1251
1 1252
1 1253
1 1254
1 1255
1 1256
1 1257
1 1258
1 1259
1 1260
1 1261
1 1262
1 1263
1 1264
1 1265
1 1266
1 1267
1 1268
1 1269
1 1270
1 1271
1 1272
1 1273
1 1274
1 1275
1 1276
1 1277
1 1278
1 1279
1 1280
1 1281
1 1282
1 1283
1 1284
1 1285
1 1286
1 1287
1 1288
1 1289
1 1290
1 1291
1 1292
1 1293
1 1294
1 1295
1 1296
1 1297
1 1298
1 1299
1 1300
1 1301
1 1302
1 1303
1 1304
1 1305
1 1306
1 1307
1 1308
1 1309
1 1310
1 1311
1 1312
1 1313
1 1314
1 1315
1 1316
1 1317
1 1318
1 1319
1 1320
1 1321
1 1322
1 1323
1 1324
1 1325
1 1326
1 1327
1 1328
1 1329
1 1330
1 1331
1 1332
1 1333
1 1334
1 1335
1 1336
1 1337
1 1338
1 1339
1 1340
1 1341
1 1342
1 1343
1 1344
1 1345
1 1346
1 1347
1 1348
1 1349
1 1350
1 1351
1 1352
1 1353
1 1354
1 1355
1 1356
1 1357
1 1358
1 1359
1 1360
1 1361
1 1362
1 1363
1 1364
1 1365
1 1366
1 1367
1 1368
1 1369
1 1370
1 1371
1 1372
1 1373
1 1374
1 1375
1 1376
1 1377
1 1378
1 1379
1 1380
1 1381
1 1382
1 1383
1 1384
1 1385
1 1386
1 1387
1 1388
1 1389
1 1390
1 1391
1 1392
1 1393
1 1394
1 1395
1 1396
1 1397
1 1398
1 1399
1 1400
1 1401
1 1402
1 1403
1 1404
1 1405
1 1406
1 1407
1 1408
1 1409
1 1410
1 1411
1 1412
1 1413
1 1414
1 1415
1 1416
1 1417
1 1418
1 1419
1 1420
1 1421
1 1422
1 1423
1 1424
1 1425
1 1426
1 1427
1 1428
1 1429
1 1430
1 1431
1 1432
1 1433
1 1434
1 1435
1 1436
1 1437
1 1438
1 1439
1 1440
1 1441
1 1442
1 1443
1 1444
1 1445
1 1446
1 1447
1 1448
1 1449
1 1450
1 1451
1 1452
1 1453
1 1454
1 1455
1 1456
1 1457
1 1458
1 1459
1 1460
1 1461
1 1462
1 1463
1 1464
1 1465
1 1466
1 1467
1 1468
1 1469
1 1470
1 1471
1 1472
1 1473
1 1474
1 1475
1 1476
1 1477
1 1478
1 1479
1 1480
1 1481
1 1482
1 1483
1 1484
1 1485
1 1486
1 1487
1 1488
1 1489
1 1490
1 1491
1 1492
1 1493
1 1494
1 1495
1 1496
1 1497
1 1498
1 1499
1 1500
1 1501
1 1502
1 1503
1 1504
1 1505
1 1506
1 1507
1 1508
1 1509
1 1510
1 1511
1 1512
1 1513
1 1514
1 1515
1 1516
1 1517
1 1518
1 1519
1 1520
1 1521
1 1522
1 1523
1 1524
1 1525
1 1526
1 1527
1 1528
1 1529
1 1530
1 1531
1 1532
1 1533
1 1534
1 1535
1 1536
1 1537
1 1538
1 1539
1 1540
1 1541
1 1542
1 1543
1 1544
1 1545
1 1546
1 1547
1 1548
1 1549
1 1550
1 1551
1 1552
1 1553
1 1554
1 1555
1 1556
1 1557
1 1558
1 1559
1 1560
1 1561
1 1562
1 1563
1 1564
1 1565
1 1566
1 1567
1 1568
1 1569
1 1570
1 1571
1 1572
1 1573
1 1574
1 1575
1 1576
1 1577
1 1578
1 1579
1 1580
1 1581
1 1582
1 1583
1 1584
1 1585
1 1586
1 1587
1 1588
1 1589
1 1590
1 1591
1 1592
1 1593
1 1594
1 1595
1 1596
1 1597
1 1598
1 1599
1 1600
1 1601
1 1602
1 1603
1 1604
1 1605
1 1606
1 1607
1 1608
1 1609
1 1610
1 1611
1 1612
1 1613
1 1614
1 1615
1 1616
1 1617
1 1618
1 1619
1 1620
1 1621
1 1622
1 1623
1 1624
1 1625
1 1626
1 1627
1 1628
1 1629
1 1630
1 1631
1 1632
1 1633
1 1634
1 1635
1 1636
1 1637
1 1638
1 1639
1 1640
1 1641
1 1642
1 1643
1 1644
1 1645
1 1646
1 1647
1 1648
1 1649
1 1650
1 1651
1 1652
1 1653
1 1654
1 1655
1 1656
1 1657
1 1658
1 1659
1 1660
1 1661
1 1662
1 1663
1 1664
1 1665
1 1666
1 1667
1 1668
1 1669
1 1670
1 1671
1 1672
1 1673
1 1674
1 1675
1 1676
1 1677
1 1678
1 1679
1 1680
1 1681
1 1682
1 1683
1 1684
1 1685
1 1686
1 1687
1 1688
1 1689
1 1690
1 1691
1 1692
1 1693
1 1694
1 1695
1 1696
1 1697
1 1698
1 1699
1 1700
1 1701
1 1702
1 1703
1 1704
1 1705
1 1706
1 1707
1 1708
1 1709
1 1710
1 1711
1 1712
1 1713
1 1714
1 1715
1 1716
1 1717
1 1718
1 1719
1 1720
1 1721
1 1722
1 1723
1 1724
1 1725
1 1726
1 1727
1 1728
1 1729
1 1730
1 1731
1 1732
1 1733
1 1734
1 1735
1 1736
1 1737
1 1738
1 1739
1 1740
1 1741
1 1742
1 1743
1 1744
1 1745
1 1746
1 1747
1 1748
1 1749
1 1750
1 1751
1 1752
1 1753
1 1754
1 1755
1 1756
1 1757
1 1758
1 1759
1 1760
1 1761
1 1762
1 1763
1 1764
1 1765
1 1766
1 1767
1 1768
1 1769
1 1770
1 1771
1 1772
1 1773
1 1774
1 1775
1 1776
1 1777
1 1778
1 1779
1 1780
1 1781
1 1782
1 1783
1 1784
1 1785
1 1786
1 1787
1 1788
1 1789
1 1790
1 1791
1 1792
1 1793
1 1794
1 1795
1 1796
1 1797
1 1798
1 1799
1 1800
1 1801
1 1802
1 1803
1 1804
1 1805
1 1806
1 1807
1 1808
1 1809
1 1810
1 1811
1 1812
1 1813
1 1814
1 1815
1 1816
1 1817
1 1818
1 1819
1 1820
1 1821
1 1822
1 1823
1 1824
1 1825
1 1826
1 1827
1 1828
1 1829
1 1830
1 1831
1 1832
1 1833
1 1834
1 1835
1 1836
1 1837
1 1838
1 1839
1 1840
1 1841
1 1842
1 1843
1 1844
1 1845
1 1846
1 1847
1 1848
1 1849
1 1850
1 1851
1 1852
1 1853
1 1854
1 1855
1 1856
1 1857
1 1858
1 1859
1 1860
1 1861
1 1862
1 1863
1 1864
1 1865
1 1866
1 1867
1 1868
1 1869
1 1870
1 1871
1 1872
1 1873
1 1874
1 1875
1 1876
1 1877
1 1878
1 1879
1 1880
1 1881
1 1882
1 1883
1 1884
1 1885
1 1886
1 1887
1 1888
1 1889
1 1890
1 1891
1 1892
1 1893
1 1894
1 1895
1 1896
1 1897
1 1898
1 1899
1 1900
1 1901
1 1902
1 1903
1 1904
1 1905
1 1906
1 1907
1 1908
1 1909
1 1910
1 1911
1 1912
1 1913
1 1914
1 1915
1 1916
1 1917
1 1918
1 1919
1 1920
1 1921
1 1922
1 1923
1 1924
1 1925
1 1926
1 1927
1 1928
1 1929
1 1930
1 1931
1 1932
1 1933
1 1934
1 1935
1 1936
1 1937
1 1938
1 1939
1 1940
1 1941
1 1942
1 1943
1 1944
1 1945
1 1946
1 1947
1 1948
1 1949
1 1950
1 1951
1 1952
1 1953
1 1954
1 1955
1 1956
1 1957
1 1958
1 1959
1 1960
1 1961
1 1962
1 1963
1 1964
1 1965
1 1966
1 1967
1 1968
1 1969
1 1970
1 1971
1 1972
1 1973
1 1974
1 1975
1 1976
1 1977
1 1978
1 1979
1 1980
1 1981
1 1982
1 1983
1 1984
1 1985
1 1986
1 1987
1 1988
1 1989
1 1990
1 1991
1 1992
1 1993
1 1994
1 1995
1 1996
1 1997
1 1998
1 1999
1 2000
1 2001
1 2002
1 2003
1 2004
1 2005
1 2006
1 2007
1 2008
1 2009
1 2010
1 2011
1 2012
1 2013
1 2014
1 2015
1 2016
1 2017
1 2018
1 2019
1 2020
1 2021
1 2022
1 2023
1 2024
1 2025
1 2026
1 2027
1 2028
1 2029
1 2030
1 2031
1 2032
1 2033
1 2034
1 2035
1 2036
1 2037
1 2038
1 2039
1 2040
1 2041
1 2042
1 2043
1 2044
1 2045
1 2046
1 2047
1 2048
1 2049
1 2050
1 2051
1 2052
1 2053
1 2054
1 2055
1 2056
1 2057
1 2058
1 2059
1 2060
1 2061
1 2062
1 2063
1 2064
1 2065
1 2066
1 2067
1 2068
1 2069
1 2070
1 2071
1 2072
1 2073
1 2074
1 2075
1 2076
1 2077
1 2078
1 2079
1 2080
1 2081
1 2082
1 2083
1 2084
1 2085
1 2086
1 2087
1 2088
1 2089
1 2090
1 2091
1 2092
1 2093
1 2094
1 2095
1 2096
1 2097
1 2098
1 2099
1 2100
1 2101
1 2102
1 2103
1 2104
1 2105
1 2106
1 2107
1 2108
1 2109
1 2110
1 2111
1 2112
1 2113
1 2114
1 2115
1 2116
1 2117
1 2118
1 2119
1 2120
1 2121
1 2122
1 2123
1 2124
1 2125
1 2126
1 2127
1 2128
1 2129
1 2130
1 2131
1 2132
1 2133
1 2134
1 2135
1 2136
1 2137
1 2138
1 2139
1 2140
1 2141
1 2142
1 2143
1 2144
1 2145
1 2146
1 2147
1 2148
1 2149
1 2150
1 2151
1 2152
1 2153
1 2154
1 2155
1 2156
1 2157
1 2158
1 2159
1 2160
1 2161
1 2162
1 2163
1 2164
1 2165
1 2166
1 2167
1 2168
1 2169
1 2170
1 2171
1 2172
1 2173
1 2174
1 2175
1 2176
1 2177
1 2178
1 2179
1 2180
1 2181
1 2182
1 2183
1 2184
1 2185
1 2186
1 2187
1 2188
1 2189
1 2190
1 2191
1 2192
1 2193
1 2194
1 2195
1 2196
1 2197
1 2198
1 2199
1 2200
1 2201
1 2202
1 2203
1 2204
1 2205
1 2206
1 2207
1 2208
1 2209
1 2210
1 2211
1 2212
1 2213
1 2214
1 2215
1 2216
1 2217
1 2218
1 2219
1 2220
1 2221
1 2222
1 2223
1 2224
1 2225
1 2226
1 2227
1 2228
1 2229
1 2230
1 2231
1 2232
1 2233
1 2234
1 2235
1 2236
1 2237
1 2238
1 2239
1 2240
1 2241
1 2242
1 2243
1 2244
1 2245
1 2246
1 2247
1 2248
1 2249
1 2250
1 2251
1 2252
1 2253
1 2254
1 2255
1 2256
1 2257
1 2258
1 2259
1 2260
1 2261
1 2262
1 2263
1 2264
1 2265
1 2266
1 2267
1 2268
1 2269
1 2270
1 2271
1 2272
1 2273
1 2274
1 2275
1 2276
1 2277
1 2278
1 2279
1 2280
1 2281
1 2282
1 2283
1 2284
1 2285
1 2286
1 2287
1 2288
1 2289
1 2290
1 2291
1 2292
1 2293
1 2294
1 2295
1 2296
1 2297
1 2298
1 2299
1 2300
1 2301
1 2302
1 2303
1 2304
1 2305
1 2306
1 2307
1 2308
1 2309
1 2310
1 2311
1 2312
1 2313
1 2314
1 2315
1 2316
1 2317
1 2318
1 2319
1 2320
1 2321
1 2322
1 2323
1 2324
1 2325
1 2326
1 2327
1 2328
1 2329
1 2330
1 2331
1 2332
1 2333
1 2334
1 2335
1 2336
1 2337
1 2338
1 2339
1 2340
1 2341
1 2342
1 2343
1 2344
1 2345
1 2346
1 2347
1 2348
1 2349
1 2350
1 2351
1 2352
1 2353
1 2354
1 2355
1 2356
1 2357
1 2358
1 2359
1 2360
1 2361
1 2362
1 2363
1 2364
1 2365
1 2366
1 2367
1 2368
1 2369
1 2370
1 2371
1 2372
1 2373
1 2374
1 2375
1 2376
1 2377
1 2378
1 2379
1 2380
1 2381
1 2382
1 2383
1 2384
1 2385
1 2386
1 2387
1 2388
1 2389
1 2390
1 2391
1 2392
1 2393
1 2394
1 2395
1 2396
1 2397
1 2398
1 2399
1 2400
1 2401
1 2402
1 2403
1 2404
1 2405
1 2406
1 2407
1 2408
1 2409
1 2410
1 2411
1 2412
1 2413
1 2414
1 2415
1 2416
1 2417
1 2418
1 2419
1 2420
1 2421
1 2422
1 2423
1 2424
1 2425
1 2426
1 2427
1 2428
1 2429
1 2430
1 2431
1 2432
1 2433
1 2434
1 2435
1 2436
1 2437
1 2438
1 2439
1 2440
1 2441
1 2442
1 2443
1 2444
1 2445
1 2446
1 2447
1 2448
1 2449
1 2450
1 2451
1 2452
1 2453
1 2454
1 2455
1 2456
1 2457
1 2458
1 2459
1 2460
1 2461
1 2462
1 2463
1 2464
1 2465
1 2466
1 2467
1 2468
1 2469
1 2470
1 2471
1 2472
1 2473
1 2474
1 2475
1 2476
1 2477
1 2478
1 2479
1 2480
1 2481
1 2482
1 2483
1 2484
1 2485
1 2486
1 2487
1 2488
1 2489
1 2490
1 2491
1 2492
1 2493
1 2494
1 2495
1 2496
1 2497
1 2498
1 2499
1 2500
1 2501
1 2502
1 2503
1 2504
1 2505
1 2506
1 2507
1 2508
1 2509
1 2510
1 2511
1 2512
1 2513
1 2514
1 2515
1 2516
1 2517
1 2518
1 2519
1 2520
1 2521
1 2522
1 2523
1 2524
1 2525
1 2526
1 2527
1 2528
1 2529
1 2530
1 2531
1 2532
1 2533
1 2534
1 2535
1 2536
1 2537
1 2538
1 2539
1 2540
1 2541
1 2542
1 2543
1 2544
1 2545
1 2546
1 2547
1 2548
1 2549
1 2550
1 2551
1 2552
1 2553
1 2554
1 2555
1 2556
1 2557
1 2558
1 2559
1 2560
1 2561
1 2562
1 2563
1 2564
1 2565
1 2566
1 2567
1 2568
1 2569
1 2570
1 2571
1 2572
1 2573
1 2574
1 2575
1 2576
1 2577
1 2578
1 2579
1 2580
1 2581
1 2582
1 2583
1 2584
1 2585
1 2586
1 2587
1 2588
1 2589
1 2590
1 2591
1 2592
1 2593
1 2594
1 2595
1 2596
1 2597
1 2598
1 2599
1 2600
1 2601
1 2602
1 2603
1 2604
1 2605
1 2606
1 2607
1 2608
1 2609
1 2610
1 2611
1 2612
1 2613
1 2614
1 2615
1 2616
1 2617
1 2618
1 2619
1 2620
1 2621
1 2622
1 2623
1 2624
1 2625
1 2626
1 2627
1 2628
1 2629
1 2630
1 2631
1 2632
1 2633
1 2634
1 2635
1 2636
1 2637
1 2638
1 2639
1 2640
1 2641
1 2642
1 2643
1 2644
1 2645
1 2646
1 2647
1 2648
1 2649
1 2650
1 2651
1 2652
1 2653
1 2654
1 2655
1 2656
1 2657
1 2658
1 2659
1 2660
1 2661
1 2662
1 2663
1 2664
1 2665
1 2666
1 2667
1 2668
1 2669
1 2670
1 2671
1 2672
1 2673
1 2674
1 2675
1 2676
1 2677
1 2678
1 2679
1 2680
1 2681
1 2682
1 2683
1 2684
1 2685
1 2686
1 2687
1 2688
1 2689
1 2690
1 2691
1 2692
1 2693
1 2694
1 2695
1 2696
1 2697
1 2698
1 2699
1 2700
1 2701
1 2702
1 2703
1 2704
1 2705
1 2706
1 2707
1 2708
1 2709
1 2710
1 2711
1 2712
1 2713
1 2714
1 2715
1 2716
1 2717
1 2718
1 2719
1 2720
1 2721
1 2722
1 2723
1 2724
1 2725
1 2726
1 2727
1 2728
1 2729
1 2730
1 2731
1 2732
1 2733
1 2734
1 2735
1 2736
1 2737
1 2738
1 2739
1 2740
1 2741
1 2742
1 2743
1 2744
1 2745
1 2746
1 2747
1 2748
1 2749
1 2750
1 2751
1 2752
1 2753
1 2754
1 2755
1 2756
1 2757
1 2758
1 2759
1 2760
1 2761
1 2762
1 2763
1 2764
1 2765
1 2766
1 2767
1 2768
1 2769
1 2770
1 2771
1 2772
1 2773
1 2774
1 2775
1 2776
1 2777
1 2778
1 2779
1 2780
1 2781
1 2782
1 2783
1 2784
1 2785
1 2786
1 2787
1 2788
1 2789
1 2790
1 2791
1 2792
1 2793
1 2794
1 2795
1 2796
1 2797
1 2798
1 2799
1 2800
1 2801
1 2802
1 2803
1 2804
1 2805
1 2806
1 2807
1 2808
1 2809
1 2810
1 2811
1 2812
1 2813
1 2814
1 2815
1 2816
1 2817
1 2818
1 2819
1 2820
1 2821
1 2822
1 2823
1 2824
1 2825
1 2826
1 2827
1 2828
1 2829
1 2830
1 2831
1 2832
1 2833
1 2834
1 2835
1 2836
1 2837
1 2838
1 2839
1 2840
1 2841
1 2842
1 2843
1 2844
1 2845
1 2846
1 2847
1 2848
1 2849
1 2850
1 2851
1 2852
1 2853
1 2854
1 2855
1 2856
1 2857
1 2858
1 2859
1 2860
1 2861
1 2862
1 2863
1 2864
1 2865
1 2866
1 2867
1 2868
1 2869
1 2870
1 2871
1 2872
1 2873
1 2874
1 2875
1 2876
1 2877
1 2878
1 2879
1 2880
1 2881
1 2882
1 2883
1 2884
1 2885
1 2886
1 2887
1 2888
1 2889
1 2890
1 2891
1 2892
1 2893
1 2894
1 2895
1 2896
1 2897
1 2898
1 2899
1 2900
1 2901
1 2902
1 2903
1 2904
1 2905
1 2906
1 2907
1 2908
1 2909
1 2910
1 2911
1 2912
1 2913
1 2914
1 2915
1 2916
1 2917
1 2918
1 2919
1 2920
1 2921
1 2922
1 2923
1 2924
1 2925
1 2926
1 2927
1 2928
1 2929
1 2930
1 2931
1 2932
1 2933
1 2934
1 2935
1 2936
1 2937
1 2938
1 2939
1 2940
1 2941
1 2942
1 2943
1 2944
1 2945
1 2946
1 2947
1 2948
1 2949
1 2950
1 2951
1 2952
1 2953
1 2954
1 2955
1 2956
1 2957
1 2958
1 2959
1 2960
1 2961
1 2962
1 2963
1 2964
1 2965
1 2966
1 2967
1 2968
1 2969
1 2970
1 2971
1 2972
1 2973
1 2974
1 2975
1 2976
1 2977
1 2978
1 2979
1 2980
1 2981
1 2982
1 2983
1 2984
1 2985
1 2986
1 2987
1 2988
1 2989
1 2990
1 2991
1 2992
1 2993
1 2994
1 2995
1 2996
1 2997
1 2998
1 2999
1 3000
1 3001
1 3002
1 3003
1 3004
1 3005
1 3006
1 3007
1 3008
1 3009
1 3010
1 3011
1 3012
1 3013
1 3014
1 3015
1 3016
1 3017
1 3018
1 3019
1 3020
1 3021
1 3022
1 3023
1 3024
1 3025
1 3026
1 3027
1 3028
1 3029
1 3030
1 3031
1 3032
1 3033
1 3034
1 3035
1 3036
1 3037
1 3038
1 3039
1 3040
1 3041
1 3042
1 3043
1 3044
1 3045
1 3046
1 3047
1 3048
1 3049
1 3050
1 3051
1 3052
1 3053
1 3054
1 3055
1 3056
1 3057
1 3058
1 3059
1 3060
1 3061
1 3062
1 3063
1 3064
1 3065
1 3066
1 3067
1 3068
1 3069
1 3070
1 3071
1 3072
1 3073
1 3074
1 3075
1 3076
1 3077
1 3078
1 3079
1 3080
1 3081
1 3082
1 3083
1 3084
1 3085
1 3086
1 3087
1 3088
1 3089
1 3090
1 3091
1 3092
1 3093
1 3094
1 3095
1 3096
1 3097
1 3098
1 3099
1 3100
1 3101
1 3102
1 3103
1 3104
1 3105
1 3106
1 3107
1 3108
1 3109
1 3110
1 3111
1 3112
1 3113
1 3114
1 3115
1 3116
1 3117
1 3118
1 3119
1 3120
1 3121
1 3122
1 3123
1 3124
1 3125
1 3126
1 3127
1 3128
1 3129
1 3130
1 3131
1 3132
1 3133
1 3134
1 3135
1 3136
1 3137
1 3138
1 3139
1 3140
1 3141
1 3142
1 3143
1 3144
1 3145
1 3146
1 3147
1 3148
1 3149
1 3150
1 3151
1 3152
1 3153
1 3154
1 3155
1 3156
1 3157
1 3158
1 3159
1 3160
1 3161
1 3162
1 3163
1 3164
1 3165
1 3166
1 3167
1 3168
1 3169
1 3170
1 3171
1 3172
1 3173
1 3174
1 3175
1 3176
1 3177
1 3178
1 3179
1 3180
1 3181
1 3182
1 3183
1 3184
1 3185
1 3186
1 3187
1 3188
1 3189
1 3190
1 3191
1 3192
1 3193
1 3194
1 3195
1 3196
1 3197
1 3198
1 3199
1 3200
1 3201
1 3202
1 3203
1 3204
1 3205
1 3206
1 3207
1 3208
1 3209
1 3210
1 3211
1 3212
1 3213
1 3214
1 3215
1 3216
1 3217
1 3218
1 3219
1 3220
1 3221
1 3222
1 3223
1 3224
1 3225
1 3226
1 3227
1 3228
1 3229
1 3230
1 3231
1 3232
1 3233
1 3234
1 3235
1 3236
1 3237
1 3238
1 3239
1 3240
1 3241
1 3242
1 3243
1 3244
1 3245
1 3246
1 3247
1 3248
1 3249
1 3250
1 3251
1 3252
1 3253
1 3254
1 3255
1 3256
1 3257
1 3258
1 3259
1 3260
1 3261
1 3262
1 3263
1 3264
1 3265
1 3266
1 3267
1 3268
1 3269
1 3270
1 3271
1 3272
1 3273
1 3274
1 3275
1 3276
1 3277
1 3278
1 3279
1 3280
1 3281
1 3282
1 3283
1 3284
1 3285
1 3286
1 3287
1 3288
1 3289
1 3290
1 3291
1 3292
1 3293
1 3294
1 3295
1 3296
1 3297
1 3298
1 3299
1 3300
1 3301
1 3302
1 3303
1 3304
1 3305
1 3306
1 3307
1 3308
1 3309
1 3310
1 3311
1 3312
1 3313
1 3314
1 3315
1 3316
1 3317
1 3318
1 3319
1 3320
1 3321
1 3322
1 3323
1 3324
1 3325
1 3326
1 3327
1 3328
1 3329
1 3330
1 3331
1 3332
1 3333
1 3334
1 3335
1 3336
1 3337
1 3338
1 3339
1 3340
1 3341
1 3342
1 3343
1 3344
1 3345
1 3346
1 3347
1 3348
1 3349
1 3350
1 3351
1 3352
1 3353
1 3354
1 3355
1 3356
1 3357
1 3358
1 3359
1 3360
1 3361
1 3362
1 3363
1 3364
1 3365
1 3366
1 3367
1 3368
1 3369
1 3370
1 3371
1 3372
1 3373
1 3374
1 3375
1 3376
1 3377
1 3378
1 3379
1 3380
1 3381
1 3382
1 3383
1 3384
1 3385
1 3386
1 3387
1 3388
1 3389
1 3390
1 3391
1 3392
1 3393
1 3394
1 3395
1 3396
1 3397
1 3398
1 3399
1 3400
1 3401
1 3402
1 3403
1 3404
1 3405
1 3406
1 3407
1 3408
1 3409
1 3410
1 3411
1 3412
1 3413
1 3414
1 3415
1 3416
1 3417
1 3418
1 3419
1 3420
1 3421
1 3422
1 3423
1 3424
1 3425
1 3426
1 3427
1 3428
1 3429
1 3430
1 3431
1 3432
1 3433
1 3434
1 3435
1 3436
1 3437
1 3438
1 3439
1 3440
1 3441
1 3442
1 3443
1 3444
1 3445
1 3446
1 3447
1 3448
1 3449
1 3450
1 3451
1 3452
1 3453
1 3454
1 3455
1 3456
1 3457
1 3458
1 3459
1 3460
1 3461
1 3462
1 3463
1 3464
1 3465
1 3466
1 3467
1 3468
1 3469
1 3470
1 3471
1 3472
1 3473
1 3474
1 3475
1 3476
1 3477
1 3478
1 3479
1 3480
1 3481
1 3482
1 3483
1 3484
1 3485
1 3486
1 3487
1 3488
1 3489
1 3490
1 3491
1 3492
1 3493
1 3494
1 3495
1 3496
1 3497
1 3498
1 3499
1 3500
1 3501
1 3502
1 3503
1 3504
1 3505
1 3506
1 3507
1 3508
1 3509
1 3510
1 3511
1 3512
1 3513
1 3514
1 3515
1 3516
1 3517
1 3518
1 3519
1 3520
1 3521
1 3522
1 3523
1 3524
1 3525
1 3526
1 3527
1 3528
1 3529
1 3530
1 3531
1 3532
1 3533
1 3534
1 3535
1 3536
1 3537
1 3538
1 3539
1 3540
1 3541
1 3542
1 3543
1 3544
1 3545
1 3546
1 3547
1 3548
1 3549
1 3550
1 3551
1 3552
1 3553
1 3554
1 3555
1 3556
1 3557
1 3558
1 3559
1 3560
1 3561
1 3562
1 3563
1 3564
1 3565
1 3566
1 3567
1 3568
1 3569
1 3570
1 3571
1 3572
1 3573
1 3574
1 3575
1 3576
1 3577
1 3578
1 3579
1 3580
1 3581
1 3582
1 3583
1 3584
1 3585
1 3586
1 3587
1 3588
1 3589
1 3590
1 3591
1 3592
1 3593
1 3594
1 3595
1 3596
1 3597
1 3598
1 3599
1 3600
1 3601
1 3602
1 3603
1 3604
1 3605
1 3606
1 3607
1 3608
1 3609
1 3610
1 3611
1 3612
1 3613
1 3614
1 3615
1 3616
1 3617
1 3618
1 3619
1 3620
1 3621
1 3622
1 3623
1 3624
1 3625
1 3626
1 3627
1 3628
1 3629
1 3630
1 3631
1 3632
1 3633
1 3634
1 3635
1 3636
1 3637
1 3638
1 3639
1 3640
1 3641
1 3642
1 3643
1 3644
1 3645
1 3646
1 3647
1 3648
1 3649
1 3650
1 3651
1 3652
1 3653
1 3654
1 3655
1 3656
1 3657
1 3658
1 3659
1 3660
1 3661
1 3662
1 3663
1 3664
1 3665
1 3666
1 3667
1 3668
1 3669
1 3670
1 3671
1 3672
1 3673
1 3674
1 3675
1 3676
1 3677
1 3678
1 3679
1 3680
1 3681
1 3682
1 3683
1 3684
1 3685
1 3686
1 3687
1 3688
1 3689
1 3690
1 3691
1 3692
1 3693
1 3694
1 3695
1 3696
1 3697
1 3698
1 3699
1 3700
1 3701
1 3702
1 3703
1 3704
1 3705
1 3706
1 3707
1 3708
1 3709
1 3710
1 3711
1 3712
1 3713
1 3714
1 3715
1 3716
1 3717
1 3718
1 3719
1 3720
1 3721
1 3722
1 3723
1 3724
1 3725
1 3726
1 3727
1 3728
1 3729
1 3730
1 3731
1 3732
1 3733
1 3734
1 3735
1 3736
1 3737
1 3738
1 3739
1 3740
1 3741
1 3742
1 3743
1 3744
1 3745
1 3746
1 3747
1 3748
1 3749
1 3750
1 3751
1 3752
1 3753
1 3754
1 3755
1 3756
1 3757
1 3758
1 3759
1 3760
1 3761
1 3762
1 3763
1 3764
1 3765
1 3766
1 3767
1 3768
1 3769
1 3770
1 3771
1 3772
1 3773
1 3774
1 3775
1 3776
1 3777
1 3778
1 3779
1 3780
1 3781
1 3782
1 3783
1 3784
1 3785
1 3786
1 3787
1 3788
1 3789
1 3790
1 3791
1 3792
1 3793
1 3794
1 3795
1 3796
1 3797
1 3798
1 3799
1 3800
1 3801
1 3802
1 3803
1 3804
1 3805
1 3806
1 3807
1 3808
1 3809
1 3810
1 3811
1 3812
1 3813
1 3814
1 3815
1 3816
1 3817
1 3818
1 3819
1 3820
1 3821
1 3822
1 3823
1 3824
1 3825
1 3826
1 3827
1 3828
1 3829
1 3830
1 3831
1 3832
1 3833
1 3834
1 3835
1 3836
1 3837
1 3838
1 3839
1 3840
1 3841
1 3842
1 3843
1 3844
1 3845
1 3846
1 3847
1 3848
1 3849
1 3850
1 3851
1 3852
1 3853
1 3854
1 3855
1 3856
1 3857
1 3858
1 3859
1 3860
1 3861
1 3862
1 3863
1 3864
1 3865
1 3866
1 3867
1 3868
1 3869
1 3870
1 3871
1 3872
1 3873
1 3874
1 3875
1 3876
1 3877
1 3878
1 3879
1 3880
1 3881
1 3882
1 3883
1 3884
1 3885
1 3886
1 3887
1 3888
1 3889
1 3890
1 3891
1 3892
1 3893
1 3894
1 3895
1 3896
1 3897
1 3898
1 3899
1 3900
1 3901
1 3902
1 3903
1 3904
1 3905
1 3906
1 3907
1 3908
1 3909
1 3910
1 3911
1 3912
1 3913
1 3914
1 3915
1 3916
1 3917
1 3918
1 3919
1 3920
1 3921
1 3922
1 3923
1 3924
1 3925
1 3926
1 3927
1 3928
1 3929
1 3930
1 3931
1 3932
1 3933
1 3934
1 3935
1 3936
1 3937
1 3938
1 3939
1 3940
1 3941
1 3942
1 3943
1 3944
1 3945
1 3946
1 3947
1 3948
1 3949
1 3950
1 3951
1 3952
1 3953
1 3954
1 3955
1 3956
1 3957
1 3958
1 3959
1 3960
1 3961
1 3962
1 3963
1 3964
1 3965
1 3966
1 3967
1 3968
1 3969
1 3970
1 3971
1 3972
1 3973
1 3974
1 3975
1 3976
1 3977
1 3978
1 3979
1 3980
1 3981
1 3982
1 3983
1 3984
1 3985
1 3986
1 3987
1 3988
1 3989
1 3990
1 3991
1 3992
1 3993
1 3994
1 3995
1 3996
1 3997
1 3998
1 3999
1 4000
1 4001
1 4002
1 4003
1 4004
1 4005
1 4006
1 4007
1 4008
1 4009
1 4010
1 4011
1 4012
1 4013
1 4014
1 4015
1 4016
1 4017
1 4018
1 4019
1 4020
1 4021
1 4022
1 4023
1 4024
1 4025
1 4026
1 4027
1 4028
1 4029
1 4030
1 4031
1 4032
1 4033
1 4034
1 4035
1 4036
1 4037
1 4038
1 4039
1 4040
1 4041
1 4042
1 4043
1 4044
1 4045
1 4046
1 4047
1 4048
1 4049
1 4050
1 4051
1 4052
1 4053
1 4054
1 4055
1 4056
1 4057
1 4058
1 4059
1 4060
1 4061
1 4062
1 4063
1 4064
1 4065
1 4066
1 4067
1 4068
1 4069
1 4070
1 4071
1 4072
1 4073
1 4074
1 4075
1 4076
1 4077
1 4078
1 4079
1 4080
1 4081
1 4082
1 4083
1 4084
1 4085
1 4086
1 4087
1 4088
1 4089
1 4090
1 4091
1 4092
1 4093
1 4094
1 4095
1 4096
1 4097
1 4098
1 4099
1 4100
1 4101
1 4102
1 4103
1 4104
1 4105
1 4106
1 4107
1 4108
1 4109
1 4110
1 4111
1 4112
1 4113
1 4114
1 4115
1 4116
1 4117
1 4118
1 4119
1 4120
1 4121
1 4122
1 4123
1 4124
1 4125
1 4126
1 4127
1 4128
1 4129
1 4130
1 4131
1 4132
1 4133
1 4134
1 4135
1 4136
1 4137
1 4138
1 4139
1 4140
1 4141
1 4142
1 4143
1 4144
1 4145
1 4146
1 4147
1 4148
1 4149
1 4150
1 4151
1 4152
1 4153
1 4154
1 4155
1 4156
1 4157
1 4158
1 4159
1 4160
1 4161
1 4162
1 4163
1 4164
1 4165
1 4166
1 4167
1 4168
1 4169
1 4170
1 4171
1 4172
1 4173
1 4174
1 4175
1 4176
1 4177
1 4178
1 4179
1 4180
1 4181
1 4182
1 4183
1 4184
1 4185
1 4186
1 4187
1 4188
1 4189
1 4190
1 4191
1 4192
1 4193
1 4194
1 4195
1 4196
1 4197
1 4198
1 4199
1 4200
1 4201
1 4202
1 4203
1 4204
1 4205
1 4206
1 4207
1 4208
1 4209
1 4210
1 4211
1 4212
1 4213
1 4214
1 4215
1 4216
1 4217
1 4218
1 4219
1 4220
1 4221
1 4222
1 4223
1 4224
1 4225
1 4226
1 4227
1 4228
1 4229
1 4230
1 4231
1 4232
1 4233
1 4234
1 4235
1 4236
1 4237
1 4238
1 4239
1 4240
1 4241
1 4242
1 4243
1 4244
1 4245
1 4246
1 4247
1 4248
1 4249
1 4250
1 4251
1 4252
1 4253
1 4254
1 4255
1 4256
1 4257
1 4258
1 4259
1 4260
1 4261
1 4262
1 4263
1 4264
1 4265
1 4266
1 4267
1 4268
1 4269
1 4270
1 4271
1 4272
1 4273
1 4274
1 4275
1 4276
1 4277
1 4278
1 4279
1 4280
1 4281
1 4282
1 4283
1 4284
1 4285
1 4286
1 4287
1 4288
1 4289
1 4290
1 4291
1 4292
1 4293
1 4294
1 4295
1 4296
1 4297
1 4298
1 4299
1 4300
1 4301
1 4302
1 4303
1 4304
1 4305
1 4306
1 4307
1 4308
1 4309
1 4310
1 4311
1 4312
1 4313
1 4314
1 4315
1 4316
1 4317
1 4318
1 4319
1 4320
1 4321
1 4322
1 4323
1 4324
1 4325
1 4326
1 4327
1 4328
1 4329
1 4330
1 4331
1 4332
1 4333
1 4334
1 4335
1 4336
1 4337
1 4338
1 4339
1 4340
1 4341
1 4342
1 4343
1 4344
1 4345
1 4346
1 4347
1 4348
1 4349
1 4350
1 4351
1 4352
1 4353
1 4354
1 4355
1 4356
1 4357
1 4358
1 4359
1 4360
1 4361
1 4362
1 4363
1 4364
1 4365
1 4366
1 4367
1 4368
1 4369
1 4370
1 4371
1 4372
1 4373
1 4374
1 4375
1 4376
1 4377
1 4378
1 4379
1 4380
1 4381
1 4382
1 4383
1 4384
1 4385
1 4386
1 4387
1 4388
1 4389
1 4390
1 4391
1 4392
1 4393
1 4394
1 4395
1 4396
1 4397
1 4398
1 4399
1 4400
1 4401
1 4402
1 4403
1 4404
1 4405
1 4406
1 4407
1 4408
1 4409
1 4410
1 4411
1 4412
1 4413
1 4414
1 4415
1 4416
1 4417
1 4418
1 4419
1 4420
1 4421
1 4422
1 4423
1 4424
1 4425
1 4426
1 4427
1 4428
1 4429
1 4430
1 4431
1 4432
1 4433
1 4434
1 4435
1 4436
1 4437
1 4438
1 4439
1 4440
1 4441
1 4442
1 4443
1 4444
1 4445
1 4446
1 4447
1 4448
1 4449
1 4450
1 4451
1 4452
1 4453
1 4454
1 4455
1 4456
1 4457
1 4458
1 4459
1 4460
1 4461
1 4462
1 4463
1 4464
1 4465
1 4466
1 4467
1 4468
1 4469
1 4470
1 4471
1 4472
1 4473
1 4474
1 4475
1 4476
1 4477
1 4478
1 4479
1 4480
1 4481
1 4482
1 4483
1 4484
1 4485
1 4486
1 4487
1 4488
1 4489
1 4490
1 4491
1 4492
1 4493
1 4494
1 4495
1 4496
1 4497
1 4498
1 4499
1 4500
1 4501
1 4502
1 4503
1 4504
1 4505
1 4506
1 4507
1 4508
1 4509
1 4510
1 4511
1 4512
1 4513
1 4514
1 4515
1 4516
1 4517
1 4518
1 4519
1 4520
1 4521
1 4522
1 4523
1 4524
1 4525
1 4526
1 4527
1 4528
1 4529
1 4530
1 4531
1 4532
1 4533
1 4534
1 4535
1 4536
1 4537
1 4538
1 4539
1 4540
1 4541
1 4542
1 4543
1 4544
1 4545
1 4546
1 4547
1 4548
1 4549
1 4550
1 4551
1 4552
1 4553
1 4554
1 4555
1 4556
1 4557
1 4558
1 4559
1 4560
1 4561
1 4562
1 4563
1 4564
1 4565
1 4566
1 4567
1 4568
1 4569
1 4570
1 4571
1 4572
1 4573
1 4574
1 4575
1 4576
1 4577
1 4578
1 4579
1 4580
1 4581
1 4582
1 4583
1 4584
1 4585
1 4586
1 4587
1 4588
1 4589
1 4590
1 4591
1 4592
1 4593
1 4594
1 4595
1 4596
1 4597
1 4598
1 4599
1 4600
1 4601
1 4602
1 4603
1 4604
1 4605
1 4606
1 4607
1 4608
1 4609
1 4610
1 4611
1 4612
1 4613
1 4614
1 4615
1 4616
1 4617
1 4618
1 4619
1 4620
1 4621
1 4622
1 4623
1 4624
1 4625
1 4626
1 4627
1 4628
1 4629
1 4630
1 4631
1 4632
1 4633
1 4634
1 4635
1 4636
1 4637
1 4638
1 4639
1 4640
1 4641
1 4642
1 4643
1 4644
1 4645
1 4646
1 4647
1 4648
1 4649
1 4650
1 4651
1 4652
1 4653
1 4654
1 4655
1 4656
1 4657
1 4658
1 4659
1 4660
1 4661
1 4662
1 4663
1 4664
1 4665
1 4666
1 4667
1 4668
1 4669
1 4670
1 4671
1 4672
1 4673
1 4674
1 4675
1 4676
1 4677
1 4678
1 4679
1 4680
1 4681
1 4682
1 4683
1 4684
1 4685
1 4686
1 4687
1 4688
1 4689
1 4690
1 4691
1 4692
1 4693
1 4694
1 4695
1 4696
1 4697
1 4698
1 4699
1 4700
1 4701
1 4702
1 4703
1 4704
1 4705
1 4706
1 4707
1 4708
1 4709
1 4710
1 4711
1 4712
1 4713
1 4714
1 4715
1 4716
1 4717
1 4718
1 4719
1 4720
1 4721
1 4722
1 4723
1 4724
1 4725
1 4726
1 4727
1 4728
1 4729
1 4730
1 4731
1 4732
1 4733
1 4734
1 4735
1 4736
1 4737
1 4738
1 4739
1 4740
1 4741
1 4742
1 4743
1 4744
1 4745
1 4746
1 4747
1 4748
1 4749
1 4750
1 4751
1 4752
1 4753
1 4754
1 4755
1 4756
1 4757
1 4758
1 4759
1 4760
1 4761
1 4762
1 4763
1 4764
1 4765
1 4766
1 4767
1 4768
1 4769
1 4770
1 4771
1 4772
1 4773
1 4774
1 4775
1 4776
1 4777
1 4778
1 4779
1 4780
1 4781
1 4782
1 4783
1 4784
1 4785
1 4786
1 4787
1 4788
1 4789
1 4790
1 4791
1 4792
1 4793
1 4794
1 4795
1 4796
1 4797
1 4798
1 4799
1 4800
1 4801
1 4802
1 4803
1 4804
1 4805
1 4806
1 4807
1 4808
1 4809
1 4810
1 4811
1 4812
1 4813
1 4814
1 4815
1 4816
1 4817
1 4818
1 4819
1 4820
1 4821
1 4822
1 4823
1 4824
1 4825
1 4826
1 4827
1 4828
1 4829
1 4830
1 4831
1 4832
1 4833
1 4834
1 4835
1 4836
1 4837
1 4838
1 4839
1 4840
1 4841
1 4842
1 4843
1 4844
1 4845
1 4846
1 4847
1 4848
1 4849
1 4850
1 4851
1 4852
1 4853
1 4854
1 4855
1 4856
1 4857
1 4858
1 4859
1 4860
1 4861
1 4862
1 4863
1 4864
1 4865
1 4866
1 4867
1 4868
1 4869
1 4870
1 4871
1 4872
1 4873
1 4874
1 4875
1 4876
1 4877
1 4878
1 4879
1 4880
1 4881
1 4882
1 4883
1 4884
1 4885
1 4886
1 4887
1 4888
1 4889
1 4890
1 4891
1 4892
1 4893
1 4894
1 4895
1 4896
1 4897
1 4898
1 4899
1 4900
1 4901
1 4902
1 4903
1 4904
1 4905
1 4906
1 4907
1 4908
1 4909
1 4910
1 4911
1 4912
1 4913
1 4914
1 4915
1 4916
1 4917
1 4918
1 4919
1 4920
1 4921
1 4922
1 4923
1 4924
1 4925
1 4926
1 4927
1 4928
1 4929
1 4930
1 4931
1 4932
1 4933
1 4934
1 4935
1 4936
1 4937
1 4938
1 4939
1 4940
1 4941
1 4942
1 4943
1 4944
1 4945
1 4946
1 4947
1 4948
1 4949
1 4950
1 4951
1 4952
1 4953
1 4954
1 4955
1 4956
1 4957
1 4958
1 4959
1 4960
1 4961
1 4962
1 4963
1 4964
1 4965
1 4966
1 4967
1 4968
1 4969
1 4970
1 4971
1 4972
1 4973
1 4974
1 4975
1 4976
1 4977
1 4978
1 4979
1 4980
1 4981
1 4982
1 4983
1 4984
1 4985
1 4986
1 4987
1 4988
1 4989
1 4990
1 4991
1 4992
1 4993
1 4994
1 4995
1 4996
1 4997
1 4998
1 4999
CELL_TYPES 5000
1 
1 
1 
1 
1 
1 
1 
1 
1 
1 
1 
1 
1 
1 
1 
1 
1 
1 
1 
1 
1 
1 
1 
1 
1 
1 
1 
1 
1 
1 
1 
1 
1 
1 
1 
1 
1 
1 
1 
1 
1 
1 
1 
1 
1 
1 
1 
1 
1 
1 
1 
1 
1 
1 
1 
1 
1 
1 
1 
1 
1 
1 
1 
1 
1 
1 
1 
1 
1 
1 
1 
1 
1 
1 
1 
1 
1 
1 
1 
1 
1 
1 
1 
1 
1 
1 
1 
1 
1 
1 
1 
1 
1 
1 
1 
1 
1 
1 
1 
1 
1 
1 
1 
1 
1 
1 
1 
1 
1 
1 
1 
1 
1 
1 
1 
1 
1 
1 
1 
1 
1 
1 
1 
1 
1 
1 
1 
1 
1 
1 
1 
1 
1 
1 
1 
1 
1 
1 
1 
1 
1 
1 
1 
1 
1 
1 
1 
1 
1 
1 
1 
1 
1 
1 
1 
1 
1 
1 
1 
1 
1 
1 
1 
1 
1 
1 
1 
1 
1 
1 
1 
1 
1 
1 
1 
1 
1 
1 
1 
1 
1 
1 
1 
1 
1 
1 
1 
1 
1 
1 
1 
1 
1 
1 
1 
1 
1 
1 
1 
1 
1 
1 
1 
1 
1 
1 
1 
1 
1 
1 
1 
1 
1 
1 
1 
1 
1 
1 
1 
1 
1 
1 
1 
1 
1 
1 
1 
1 
1 
1 
1 
1 
1 
1 
1 
1 
1 
1 
1 
1 
1 
1 
1 
1 
1 
1 
1 
1 
1 
1 
1 
1 
1 
1 
1 
1 
1 
1 
1 
1 
1 
1 
1 
1 
1 
1 
1 
1 
1 
1 
1 
1 
1 
1 
1 
1 
1 
1 
1 
1 
1 
1 
1 
1 
1 
1 
1 
1 
1 
1 
1 
1 
1 
1 
1 
1 
1 
1 
1 
1 
1 
1 
1 
1 
1 
1 
1 
1 
1 
1 
1 
1 
1 
1 
1 
1 
1 
1 
1 
1 
1 
1 
1 
1 
1 
1 
1 
1 
1 
1 
1 
1 
1 
1 
1 
1 
1 
1 
1 
1 
1 
1 
1 
1 
1 
1 
1 
1 
1 
1 
1 
1 
1 
1 
1 
1 
1 
1 
1 
1 
1 
1 
1 
1 
1 
1 
1 
1 
1 
1 
1 
1 
1 
1 
1 
1 
1 
1 
1 
1 
1 
1 
1 
1 
1 
1 
1 
1 
1 
1 
1 
1 
1 
1 
1 
1 
1 
1 
1 
1 
1 
1 
1 
1 
1 
1 
1 
1 
1 
1 
1 
1 
1 
1 
1 
1 
1 
1 
1 
1 
1 
1 
1 
1 
1 
1 
1 
1 
1 
1 
1 
1 
1 
1 
1 
1 
1 
1 
1 
1 
1 
1 
1 
1 
1 
1 
1 
1 
1 
1 
1 
1 
1 
1 
1 
1 
1 
1 
1 
1 
1 
1 
1 
1 
1 
1 
1 
1 
1 
1 
1 
1 
1 
1 
1 
1 
1 
1 
1 
1 
1 
1 
1 
1 
1 
1 
1 
1 
1 
1 
1 
1 
1 
1 
1 
1 
1 
1 
1 
1 
1 
1 
1 
1 
1 
1 
1 
1 
1 
1 
1 
1 
1 
1 
1 
1 
1 
1 
1 
1 
1 
1 
1 
1 
1 
1 
1 
1 
1 
1 
1 
1 
1 
1 
1 
1 
1 
1 
1 
1 
1 
1 
1 
1 
1 
1 
1 
1 
1 
1 
1 
1 
1 
1 
1 
1 
1 
1 
1 
1 
1 
1 
1 
1 
1 
1 
1 
1 
1 
1 
1 
1 
1 
1 
1 
1 
1 
1 
1 
1 
1 
1 
1 
1 
1 
1 
1 
1 
1 
1 
1 
1 
1 
1 
1 
1 
1 
1 
1 
1 
1 
1 
1 
1 
1 
1 
1 
1 
1 
1 
1 
1 
1 
1 
1 
1 
1 
1 
1 
1 
1 
1 
1 
1 
1 
1 
1 
1 
1 
1 
1 
1 
1 
1 
1 
1 
1 
1 
1 
1 
1 
1 
1 
1 
1 
1 
1 
1 
1 
1 
1 
1 
1 
1 
1 
1 
1 
1 
1 
1 
1 
1 
1 
1 
1 
1 
1 
1 
1 
1 
1 
1 
1 
1 
1 
1 
1 
1 
1 
1 
1 
1 
1 
1 
1 
1 
1 
1 
1 
1 
1 
1 
1 
1 
1 
1 
1 
1 
1 
1 
1 
1 
1 
1 
1 
1 
1 
1 
1 
1 
1 
1 
1 
1 
1 
1 
1 
1 
1 
1 
1 
1 
1 
1 
1 
1 
1 
1 
1 
1 
1 
1 
1 
1 
1 
1 
1 
1 
1 
1 
1 
1 
1 
1 
1 
1 
1 
1 
1 
1 
1 
1 
1 
1 
1 
1 
1 
1 
1 
1 
1 
1 
1 
1 
1 
1 
1 
1 
1 
1 
1 
1 
1 
1 
1 
1 
1 
1 
1 
1 
1 
1 
1 
1 
1 
1 
1 
1 
1 
1 
1 
1 
1 
1 
1 
1 
1 
1 
1 
1 
1 
1 
1 
1 
1 
1 
1 
1 
1 
1 
1 
1 
1 
1 
1 
1 
1 
1 
1 
1 
1 
1 
1 
1 
1 
1 
1 
1 
1 
1 
1 
1 
1 
1 
1 
1 
1 
1 
1 
1 
1 
1 
1 
1 
1 
1 
1 
1 
1 
1 
1 
1 
1 
1 
1 
1 
1 
1 
1 
1 
1 
1 
1 
1 
1 
1 
1 
1 
1 
1 
1 
1 
1 
1 
1 
1 
1 
1 
1 
1 
1 
1 
1 
1 
1 
1 
1 
1 
1 
1 
1 
1 
1 
1 
1 
1 
1 
1 
1 
1 
1 
1 
1 
1 
1 
1 
1 
1 
1 
1 
1 
1 
1 
1 
1 
1 
1 
1 
1 
1 
1 
1 
1 
1 
1 
1 
1 
1 
1 
1 
1 
1 
1 
1 
1 
1 
1 
1 
1 
1 
1 
1 
1 
1 
1 
1 
1 
1 
1 
1 
1 
1 
1 
1 
1 
1 
1 
1 
1 
1 
1 
1 
1 
1 
1 
1 
1 
1 
1 
1 
1 
1 
1 
1 
1 
1 
1 
1 
1 
1 
1 
1 
1 
1 
1 
1 
1 
1 
1 
1 
1 
1 
1 
1 
1 
1 
1 
1 
1 
1 
1 
1 
1 
1 
1 
1 
1 
1 
1 
1 
1 
1 
1 
1 
1 
1 
1 
1 
1 
1 
1 
1 
1 
1 
1 
1 
1 
1 
1 
1 
1 
1 
1 
1 
1 
1 
1 
1 
1 
1 
1 
1 
1 
1 
1 
1 
1 
1 
1 
1 
1 
1 
1 
1 
1 
1 
1 
1 
1 
1 
1 
1 
1 
1 
1 
1 
1 
1 
1 
1 
1 
1 
1 
1 
1 
1 
1 
1 
1 
1 
1 
1 
1 
1 
1 
1 
1 
1 
1 
1 
1 
1 
1 
1 
1 
1 
1 
1 
1 
1 
1 
1 
1 
1 
1 
1 
1 
1 
1 
1 
1 
1 
1 
1 
1 
1 
1 
1 
1 
1 
1 
1 
1 
1 
1 
1 
1 
1 
1 
1 
1 
1 
1 
1 
1 
1 
1 
1 
1 
1 
1 
1 
1 
1 
1 
1 
1 
1 
1 
1 
1 
1 
1 
1 
1 
1 
1 
1 
1 
1 
1 
1 
1 
1 
1 
1 
1 
1 
1 
1 
1 
1 
1 
1 
1 
1 
1 
1 
1 
1 
1 
1 
1 
1 
1 
1 
1 
1 
1 
1 
1 
1 
1 
1 
1 
1 
1 
1 
1 
1 
1 
1 
1 
1 
1 
1 
1 
1 
1 
1 
1 
1 
1 
1 
1 
1 
1 
1 
1 
1 
1 
1 
1 
1 
1 
1 
1 
1 
1 
1 
1 
1 
1 
1 
1 
1 
1 
1 
1 
1 
1 
1 
1 
1 
1 
1 
1 
1 
1 
1 
1 
1 
1 
1 
1 
1 
1 
1 
1 
1 
1 
1 
1 
1 
1 
1 
1 
1 
1 
1 
1 
1 
1 
1 
1 
1 
1 
1 
1 
1 
1 
1 
1 
1 
1 
1 
1 
1 
1 
1 
1 
1 
1 
1 
1 
1 
1 
1 
1 
1 
1 
1 
1 
1 
1 
1 
1 
1 
1 
1 
1 
1 
1 
1 
1 
1 
1 
1 
1 
1 
1 
1 
1 
1 
1 
1 
1 
1 
1 
1 
1 
1 
1 
1 
1 
1 
1 
1 
1 
1 
1 
1 
1 
1 
1 
1 
1 
1 
1 
1 
1 
1 
1 
1 
1 
1 
1 
1 
1 
1 
1 
1 
1 
1 
1 
1 
1 
1 
1 
1 
1 
1 
1 
1 
1 
1 
1 
1 
1 
1 
1 
1 
1 
1 
1 
1 
1 
1 
1 
1 
1 
1 
1 
1 
1 
1 
1 
1 
1 
1 
1 
1 
1 
1 
1 
1 
1 
1 
1 
1 
1 
1 
1 
1 
1 
1 
1 
1 
1 
1 
1 
1 
1 
1 
1 
1 
1 
1 
1 
1 
1 
1 
1 
1 
1 
1 
1 
1 
1 
1 
1 
1 
1 
1 
1 
1 
1 
1 
1 
1 
1 
1 
1 
1 
1 
1 
1 
1 
1 
1 
1 
1 
1 
1 
1 
1 
1 
1 
1 
1 
1 
1 
1 
1 
1 
1 
1 
1 
1 
1 
1 
1 
1 
1 
1 
1 
1 
1 
1 
1 
1 
1 
1 
1 
1 
1 
1 
1 
1 
1 
1 
1 
1 
1 
1 
1 
1 
1 
1 
1 
1 
1 
1 
1 
1 
1 
1 
1 
1 
1 
1 
1 
1 
1 
1 
1 
1 
1 
1 
1 
1 
1 
1 
1 
1 
1 
1 
1 
1 
1 
1 
1 
1 
1 
1 
1 
1 
1 
1 
1 
1 
1 
1 
1 
1 
1 
1 
1 
1 
1 
1 
1 
1 
1 
1 
1 
1 
1 
1 
1 
1 
1 
1 
1 
1 
1 
1 
1 
1 
1 
1 
1 
1 
1 
1 
1 
1 
1 
1 
1 
1 
1 
1 
1 
1 
1 
1 
1 
1 
1 
1 
1 
1 
1 
1 
1 
1 
1 
1 
1 
1 
1 
1 
1 
1 
1 
1 
1 
1 
1 
1 
1 
1 
1 
1 
1 
1 
1 
1 
1 
1 
1 
1 
1 
1 
1 
1 
1 
1 
1 
1 
1 
1 
1 
1 
1 
1 
1 
1 
1 
1 
1 
1 
1 
1 
1 
1 
1 
1 
1 
1 
1 
1 
1 
1 
1 
1 
1 
1 
1 
1 
1 
1 
1 
1 
1 
1 
1 
1 
1 
1 
1 
1 
1 
1 
1 
1 
1 
1 
1 
1 
1 
1 
1 
1 
1 
1 
1 
1 
1 
1 
1 
1 
1 
1 
1 
1 
1 
1 
1 
1 
1 
1 
1 
1 
1 
1 
1 
1 
1 
1 
1 
1 
1 
1 
1 
1 
1 
1 
1 
1 
1 
1 
1 
1 
1 
1 
1 
1 
1 
1 
1 
1 
1 
1 
1 
1 
1 
1 
1 
1 
1 
1 
1 
1 
1 
1 
1 
1 
1 
1 
1 
1 
1 
1 
1 
1 
1 
1 
1 
1 
1 
1 
1 
1 
1 
1 
1 
1 
1 
1 
1 
1 
1 
1 
1 
1 
1 
1 
1 
1 
1 
1 
1 
1 
1 
1 
1 
1 
1 
1 
1 
1 
1 
1 
1 
1 
1 
1 
1 
1 
1 
1 
1 
1 
1 
1 
1 
1 
1 
1 
1 
1 
1 
1 
1 
1 
1 
1 
1 
1 
1 
1 
1 
1 
1 
1 
1 
1 
1 
1 
1 
1 
1 
1 
1 
1 
1 
1 
1 
1 
1 
1 
1 
1 
1 
1 
1 
1 
1 
1 
1 
1 
1 
1 
1 
1 
1 
1 
1 
1 
1 
1 
1 
1 
1 
1 
1 
1 
1 
1 
1 
1 
1 
1 
1 
1 
1 
1 
1 
1 
1 
1 
1 
1 
1 
1 
1 
1 
1 
1 
1 
1 
1 
1 
1 
1 
1 
1 
1 
1 
1 
1 
1 
1 
1 
1 
1 
1 
1 
1 
1 
1 
1 
1 
1 
1 
1 
1 
1 
1 
1 
1 
1 
1 
1 
1 
1 
1 
1 
1 
1 
1 
1 
1 
1 
1 
1 
1 
1 
1 
1 
1 
1 
1 
1 
1 
1 
1 
1 
1 
1 
1 
1 
1 
1 
1 
1 
1 
1 
1 
1 
1 
1 
1 
1 
1 
1 
1 
1 
1 
1 
1 
1 
1 
1 
1 
1 
1 
1 
1 
1 
1 
1 
1 
1 
1 
1 
1 
1 
1 
1 
1 
1 
1 
1 
1 
1 
1 
1 
1 
1 
1 
1 
1 
1 
1 
1 
1 
1 
1 
1 
1 
1 
1 
1 
1 
1 
1 
1 
1 
1 
1 
1 
1 
1 
1 
1 
1 
1 
1 
1 
1 
1 
1 
1 
1 
1 
1 
1 
1 
1 
1 
1 
1 
1 
1 
1 
1 
1 
1 
1 
1 
1 
1 
1 
1 
1 
1 
1 
1 
1 
1 
1 
1 
1 
1 
1 
1 
1 
1 
1 
1 
1 
1 
1 
1 
1 
1 
1 
1 
1 
1 
1 
1 
1 
1 
1 
1 
1 
1 
1 
1 
1 
1 
1 
1 
1 
1 
1 
1 
1 
1 
1 
1 
1 
1 
1 
1 
1 
1 
1 
1 
1 
1 
1 
1 
1 
1 
1 
1 
1 
1 
1 
1 
1 
1 
1 
1 
1 
1 
1 
1 
1 
1 
1 
1 
1 
1 
1 
1 
1 
1 
1 
1 
1 
1 
1 
1 
1 
1 
1 
1 
1 
1 
1 
1 
1 
1 
1 
1 
1 
1 
1 
1 
1 
1 
1 
1 
1 
1 
1 
1 
1 
1 
1 
1 
1 
1 
1 
1 
1 
1 
1 
1 
1 
1 
1 
1 
1 
1 
1 
1 
1 
1 
1 
1 
1 
1 
1 
1 
1 
1 
1 
1 
1 
1 
1 
1 
1 
1 
1 
1 
1 
1 
1 
1 
1 
1 
1 
1 
1 
1 
1 
1 
1 
1 
1 
1 
1 
1 
1 
1 
1 
1 
1 
1 
1 
1 
1 
1 
1 
1 
1 
1 
1 
1 
1 
1 
1 
1 
1 
1 
1 
1 
1 
1 
1 
1 
1 
1 
1 
1 
1 
1 
1 
1 
1 
1 
1 
1 
1 
1 
1 
1 
1 
1 
1 
1 
1 
1 
1 
1 
1 
1 
1 
1 
1 
1 
1 
1 
1 
1 
1 
1 
1 
1 
1 
1 
1 
1 
1 
1 
1 
1 
1 
1 
1 
1 
1 
1 
1 
1 
1 
1 
1 
1 
1 
1 
1 
1 
1 
1 
1 
1 
1 
1 
1 
1 
1 
1 
1 
1 
1 
1 
1 
1 
1 
1 
1 
1 
1 
1 
1 
1 
1 
1 
1 
1 
1 
1 
1 
1 
1 
1 
1 
1 
1 
1 
1 
1 
1 
1 
1 
1 
1 
1 
1 
1 
1 
1 
1 
1 
1 
1 
1 
1 
1 
1 
1 
1 
1 
1 
1 
1 
1 
1 
1 
1 
1 
1 
1 
1 
1 
1 
1 
1 
1 
1 
1 
1 
1 
1 
1 
1 
1 
1 
1 
1 
1 
1 
1 
1 
1 
1 
1 
1 
1 
1 
1 
1 
1 
1 
1 
1 
1 
1 
1 
1 
1 
1 
1 
1 
1 
1 
1 
1 
1 
1 
1 
1 
1 
1 
1 
1 
1 
1 
1 
1 
1 
1 
1 
1 
1 
1 
1 
1 
1 
1 
1 
1 
1 
1 
1 
1 
1 
1 
1 
1 
1 
1 
1 
1 
1 
1 
1 
1 
1 
1 
1 
1 
1 
1 
1 
1 
1 
1 
1 
1 
1 
1 
1 
1 
1 
1 
1 
1 
1 
1 
1 
1 
1 
1 
1 
1 
1 
1 
1 
1 
1 
1 
1 
1 
1 
1 
1 
1 
1 
1 
1 
1 
1 
1 
1 
1 
1 
1 
1 
1 
1 
1 
1 
1 
1 
1 
1 
1 
1 
1 
1 
1 
1 
1 
1 
1 
1 
1 
1 
1 
1 
1 
1 
1 
1 
1 
1 
1 
1 
1 
1 
1 
1 
1 
1 
1 
1 
1 
1 
1 
1 
1 
1 
1 
1 
1 
1 
1 
1 
1 
1 
1 
1 
1 
1 
1 
1 
1 
1 
1 
1 
1 
1 
1 
1 
1 
1 
1 
1 
1 
1 
1 
1 
1 
1 
1 
1 
1 
1 
1 
1 
1 
1 
1 
1 
1 
1 
1 
1 
1 
1 
1 
1 
1 
1 
1 
1 
1 
1 
1 
1 
1 
1 
1 
1 
1 
1 
1 
1 
1 
1 
1 
1 
1 
1 
1 
1 
1 
1 
1 
1 
1 
1 
1 
1 
1 
1 
1 
1 
1 
1 
1 
1 
1 
1 
1 
1 
1 
1 
1 
1 
1 
1 
1 
1 
1 
1 
1 
1 
1 
1 
1 
1 
1 
1 
1 
1 
1 
1 
1 
1 
1 
1 
1 
1 
1 
1 
1 
1 
1 
1 
1 
1 
1 
1 
1 
1 
1 
1 
1 
1 
1 
1 
1 
1 
1 
1 
1 
1 
1 
1 
1 
1 
1 
1 
1 
1 
1 
1 
1 
1 
1 
1 
1 
1 
1 
1 
1 
1 
1 
1 
1 
1 
1 
1 
1 
1 
1 
1 
1 
1 
1 
1 
1 
1 
1 
1 
1 
1 
1 
1 
1 
1 
1 
1 
1 
1 
1 
1 
1 
1 
1 
1 
1 
1 
1 
1 
1 
1 
1 
1 
1 
1 
1 
1 
1 
1 
1 
1 
1 
1 
1 
1 
1 
1 
1 
1 
1 
1 
1 
1 
1 
1 
1 
1 
1 
1 
1 
1 
1 
1 
1 
1 
1 
1 
1 
1 
1 
1 
1 
1 
1 
1 
1 
1 
1 
1 
1 
1 
1 
1 
1 
1 
1 
1 
1 
1 
1 
1 
1 
1 
1 
1 
1 
1 
1 
1 
1 
1 
1 
1 
1 
1 
1 
1 
1 
1 
1 
1 
1 
1 
1 
1 
1 
1 
1 
1 
1 
1 
1 
1 
1 
1 
1 
1 
1 
1 
1 
1 
1 
1 
1 
1 
1 
1 
1 
1 
1 
1 
1 
1 
1 
1 
1 
1 
1 
1 
1 
1 
1 
1 
1 
1 
1 
1 
1 
1 
1 
1 
1 
1 
1 
1 
1 
1 
1 
1 
1 
1 
1 
1 
1 
1 
1 
1 
1 
1 
1 
1 
1 
1 
1 
1 
1 
1 
1 
1 
1 
1 
1 
1 
1 
1 
1 
1 
1 
1 
1 
1 
1 
1 
1 
1 
1 
1 
1 
1 
1 
1 
1 
1 
1 
1 
1 
1 
1 
1 
1 
1 
1 
1 
1 
1 
1 
1 
1 
1 
1 
1 
1 
1 
1 
1 
1 
1 
1 
1 
1 
1 
1 
1 
1 
1 
1 
1 
1 
1 
1 
1 
1 
1 
1 
1 
1 
1 
1 
1 
1 
1 
1 
1 
1 
1 
1 
1 
1 
1 
1 
1 
1 
1 
1 
1 
1 
1 
1 
1 
1 
1 
1 
1 
1 
1 
1 
1 
1 
1 
1 
1 
1 
1 
1 
1 
1 
1 
1 
1 
1 
1 
1 
1 
1 
1 
1 
1 
1 
1 
1 
1 
1 
1 
1 
1 
1 
1 
1 
1 
1 
1 
1 
1 
1 
1 
1 
1 
1 
1 
1 
1 
1 
1 
1 
1 
1 
1 
1 
1 
1 
1 
1 
1 
1 
1 
1 
1 
1 
1 
1 
1 
1 
1 
1 
1 
1 
1 
1 
1 
1 
1 
1 
1 
1 
1 
1 
1 
1 
1 
1 
1 
1 
1 
1 
1 
1 
1 
1 
1 
1 
1 
1 
1 
1 
1 
1 
1 
1 
1 
1 
1 
1 
1 
1 
1 
1 
1 
1 
1 
1 
1 
1 
1 
1 
1 
1 
1 
1 
1 
1 
1 
1 
1 
1 
1 
1 
1 
1 
1 
1 
1 
1 
1 
1 
1 
1 
1 
1 
1 
1 
1 
1 
1 
1 
1 
1 
1 
1 
1 
1 
1 
1 
1 
1 
1 
1 
1 
1 
1 
1 
1 
1 
1 
1 
1 
1 
1 
1 
1 
1 
1 
1 
1 
1 
1 
1 
1 
1 
1 
1 
1 
1 
1 
1 
1 
1 
1 
1 
1 
1 
1 
1 
1 
1 
1 
1 
1 
1 
1 
1 
1 
1 
1 
1 
1 
1 
1 
1 
1 
1 
1 
1 
1 
1 
1 
1 
1 
1 
1 
1 
1 
1 
1 
1 
1 
1 
1 
1 
1 
1 
1 
1 
1 
1 
1 
1 
1 
1 
1 
1 
1 
1 
1 
1 
1 
1 
1 
1 
1 
1 
1 
1 
1 
1 
1 
1 
1 
1 
1 
1 
1 
1 
1 
1 
1 
1 
1 
1 
1 
1 
1 
1 
1 
1 
1 
1 
1 
1 
1 
1 
1 
1 
1 
1 
1 
1 
1 
1 
1 
1 
1 
1 
1 
1 
1 
1 
1 
1 
1 
1 
1 
1 
1 
1 
1 
1 
1 
1 
1 
1 
1 
1 
1 
1 
1 
1 
1 
1 
1 
1 
1 
1 
1 
1 
1 
1 
1 
1 
1 
1 
1 
1 
1 
1 
1 
1 
1 
1 
1 
1 
1 
1 
1 
1 
1 
1 
1 
1 
1 
1 
1 
1 
1 
1 
1 
1 
1 
1 
1 
1 
1 
1 
1 
1 
1 
1 
1 
1 
1 
1 
1 
1 
1 
1 
1 
1 
1 
1 
1 
1 
1 
1 
1 
1 
1 
1 
1 
1 
1 
1 
1 
1 
1 
1 
1 
1 
1 
1 
1 
1 
1 
1 
1 
1 
1 
1 
1 
1 
1 
1 
1 
1 
1 
1 
1 
1 
1 
1 
1 
1 
1 
1 
1 
1 
1 
1 
1 
1 
1 
1 
1 
1 
1 
1 
1 
1 
1 
1 
1 
1 
1 
1 
1 
1 
1 
1 
1 
1 
1 
1 
1 
1 
1 
1 
1 
1 
1 
1 
1 
1 
1 
1 
1 
1 
1 
1 
1 
1 
1 
1 
1 
1 
1 
1 
1 
1 
1 
1 
1 
1 
1 
1 
1 
1 
1 
1 
1 
1 
1 
1 
1 
1 
1 
1 
1 
1 
1 
1 
1 
1 
1 
1 
1 
1 
1 
1 
1 
1 
1 
1 
1 
1 
1 
1 
1 
1 
1 
1 
1 
1 
1 
1 
1 
1 
1 
1 
1 
1 
1 
1 
1 
1 
1 
1 
1 
1 
1 
1 
1 
1 
1 
1 
1 
1 
1 
1 
1 
1 
1 
1 
1 
1 
1 
1 
1 
1 
1 
1 
1 
1 
1 
1 
1 
1 
1 
1 
1 
1 
1 
1 
1 
1 
1 
1 
1 
1 
1 
1 
1 
1 
1 
1 
1 
1 
1 
1 
1 
1 
1 
1 
1 
1 
1 
1 
1 
1 
1 
1 
1 
1 
1 
1 
1 
1 
1 
1 
1 
1 
1 
1 
1 
1 
1 
1 
1 
1 
1 
1 
1 
1 
1 
1 
1 
1 
1 
1 
1 
1 
1 
1 
1 
1 
1 
1 
1 
1 
1 
1 
1 
1 
1 
1 
1 
1 
1 
1 
1 
1 
1 
1 
1 
1 
1 
1 
1 
1 
1 
1 
1 
1 
1 
1 
1 
1 
1 
1 
1 
1 
1 
1 
1 
1 
1 
1 
1 
1 
1 
1 
1 
1 
1 
1 
1 
1 
1 
1 
1 
1 
1 
1 
1 
1 
1 
1 
1 
1 
1 
1 
1 
1 
1 
1 
1 
1 
1 
1 
1 
1 
1 
1 
1 
1 
1 
1 
1 
1 
1 
1 
1 
1 
1 
1 
1 
1 
1 
1 
1 
1 
1 
1 
1 
1 
1 
1 
1 
1 
1 
1 
1 
1 
1 
1 
1 
1 
1 
1 
1 
1 
1 
1 
1 
1 
1 
1 
1 
1 
1 
1 
1 
1 
1 
1 
1 
1 
1 
1 
1 
1 
1 
1 
1 
1 
1 
1 
1 
1 
1 
1 
1 
1 
1 
1 
1 
1 
1 
1 
1 
1 
1 
1 
1 
1 
1 
1 
1 
1 
1 
1 
1 
1 
1 
1 
1 
1 
1 
1 
1 
1 
1 
1 
1 
1 
1 
1 
1 
1 
1 
1 
1 
1 
1 
1 
1 
1 
1 
1 
1 
1 
1 
1 
1 
1 
1 
1 
1 
1 
1 
1 
1 
1 
1 
1 
1 
1 
1 
1 
1 
1 
1 
1 
1 
1 
1 
1 
1 
1 
1 
1 
1 
1 
1 
1 
1 
1 
1 
1 
1 
1 
1 
1 
1 
1 
1 
1 
1 
1 
1 
1 
1 
1 
1 
1 
1 
1 
1 
1 
1 
1 
1 
1 
1 
1 
1 
1 
1 
1 
1 
1 
1 
1 
1 
1 
1 
1 
1 
1 
1 
1 
1 
1 
1 
1 
1 
1 
1 
1 
1 
1 
1 
1 
1 
1 
1 
1 
1 
1 
1 
1 
1 
1 
1 
1 
1 
1 
1 
1 
1 
1 
1 
1 
1 
1 
1 
1 
1 
1 
1 
1 
1 
1 
1 
1 
1 
1 
1 
1 
1 
1 
1 
1 
1 
1 
1 
1 
1 
1 
1 
1 
1 
1 
1 
1 
1 
1 
1 
1 
1 
1 
1 
1 
1 
1 
1 
1 
1 
1 
1 
1 
1 
1 
1 
1 
1 
1 
1 
1 
1 
1 
1 
1 
1 
1 
1 
1 
1 
1 
1 
1 
1 
1 
1 
1 
1 
1 
1 
1 
1 
1 
1 
1 
1 
1 
1 
1 
1 
1 
1 
1 
1 
1 
1 
1 
1 
1 
1 
1 
1 
1 
1 
1 
1 
1 
1 
1 
1 
1 
1 
1 
1 
1 
1 
1 
1 
1 
1 
1 
1 
1 
1 
1 
1 
1 
1 
1 
1 
1 
1 
1 
1 
1 
1 
1 
1 
1 
1 
1 
1 
1 
1 
1 
1 
1 
1 
1 
1 
1 
1 
1 
1 
1 
1 
1 
1 
1 
1 
1 
1 
1 
1 
1 
1 
1 
1 
1 
1 
1 
1 
1 
1 
1 
1 
1 
1 
1 
1 
1 
1 
1 
1 
1 
1 
1 
1 
1 
1 
1 
1 
1 
1 
1 
1 
1 
1 
1 
1 
1 
1 
1 
1 
1 
1 
1 
1 
1 
1 
1 
1 
1 
1 
1 
1 
1 
1 
1 
1 
1 
1 
1 
1 
1 
1 
1 
1 
1 
1 
1 
1 
1 
1 
1 
1 
1 
1 
1 
1 
1 
1 
1 
1 
1 
1 
1 
1 
1 
1 
1 
1 
1 
1 
1 
1 
1 
1 
1 
1 
1 
1 
1 
1 
1 
1 
1 
1 
1 
1 
1 
1 
1 
1 
1 
1 
1 
1 
1 
1 
1 
1 
1 
1 
1 
1 
1 
1 
1 
1 
1 
1 
1 
1 
1 
1 
1 
1 
1 
1 
1 
1 
1 
1 
1 
1 
1 
1 
1 
1 
1 
1 
1 
1 
1 
1 
1 
1 
1 
1 
1 
1 
1 
1 
1 
1 
1 
1 
1 
1 
1 
1 
1 
1 
1 
1 
1 
1 
1 
1 
1 
1 
1 
1 
1 
1 
1 
1 
1 
1 
1 
1 
1 
1 
1 
1 
1 
1 
1 
1 
1 
1 
1 
1 
1 
1 
1 
1 
1 
1 
1 
1 
1 
1 
1 
1 
1 
1 
1 
1 
1 
1 
1 
1 
1 
1 
1 
1 
1 
1 
1 
1 
1 
1 
1 
1 
1 
1 
1 
1 
1 
1 
1 
1 
1 
1 
1 
1 
1 
1 
1 
1 
1 
1 
1 
1 
1 
1 
1 
1 
1 
1 
1 
1 
1 
1 
1 
1 
1 
1 
1 
1 
1 
1 
1 
1 
1 
1 
1 
1 
1 
1 
1 
1 
1 
1 
1 
1 
1 
1 
1 
1 
1 
1 
1 
1 
1 
1 
1 
1 
1 
1 
1 
1 
1 
1 
1 
1 
1 
1 
1 
1 
1 
1 
1 
1 
1 
1 
1 
1 
1 
1 
1 
1 
1 
1 
1 
1 
1 
1 
1 
1 
1 
1 
1 
1 
1 
1 
1 
1 
1 
1 
1 
1 
1 
1 
1 
1 
1 
1 
1 
1 
1 
1 
1 
1 
1 
1 
1 
1 
1 
1 
1 
1 
1 
1 
1 
1 
1 
1 
1 
1 
1 
1 
1 
1 
1 
1 
1 
1 
1 
1 
1 
1 
1 
1 
1 
1 
1 
1 
1 
1 
1 
1 
1 
1 
1 
1 
1 
1 
1 
1 
1 
1 
1 
1 
1 
1 
1 
1 
1 
1 
1 
1 
1 
1 
1 
1 
1 
1 
1 
1 
1 
1 
1 
1 
1 
1 
1 
1 
1 
1 
1 
1 
1 
1 
1 
1 
1 
1 
1 
1 
1 
1 
1 
1 
1 
1 
1 
1 
1 
1 
1 
1 
1 
1 
1 
1 
1 
1 
1 
1 
1 
1 
1 
1 
1 
1 
1 
1 
1 
1 
1 
1 
1 
1 
1 
1 
1 
1 
1 
1 
1 
1 
1 
1 
1 
1 
1 
1 
1 
1 
1 
1 
1 
1 
1 
1 
1 
1 
1 
1 
1 
1 
1 
1 
1 
1 
1 
1 
1 
1 
1 
1 
1 
1 
1 
1 
1 
1 
1 
1 
1 
1 
1 
1 
1 
1 
1 
1 
1 
1 
1 
1 
1 
1 
1 
1 
1 
1 
1 
1 
1 
1 
1 
1 
1 
1 
1 
1 
1 
1 
1 
1 
1 
1 
1 
1 
1 
1 
1 
1 
1 
1 
1 
1 
1 
1 
1 
1 
1 
1 
1 
1 
1 
1 
1 
1 
1 
1 
1 
1 
1 
1 
1 
1 
1 
1 
1 
1 
1 
1 
1 
1 
1 
1 
1 
1 
1 
1 
1 
1 
1 
1 
1 
1 
1 
1 
1 
1 
1 
1 
1 
1 
1 
1 
1 
1 
1 
1 
1 
1 
1 
1 
1 
1 
1 
1 
1 
1 
1 
1 
1 
1 
1 
1 
1 
1 
1 
1 
1 
1 
1 
1 
1 
1 
1 
1 
1 
1 
1 
1 
1 
1 
1 
1 
1 
1 
1 
1 
1 
1 
1 
1 
1 
1 
1 
1 
1 
1 
1 
1 
1 
1 
1 
1 
1 
1 
1 
1 
1 
1 
1 
1 
1 
1 
1 
1 
1 
1 
1 
1 
1 
1 
1 
1 
1 
1 
1 
1 
1 
1 
1 
1 
1 
1 
1 
1 
1 
1 
1 
1 
1 
1 
1 
1 
1 
1 
1 
1 
1 
1 
1 
1 
1 
1 
1 
1 
1 
1 
1 
1 
1 
1 
1 
1 
1 
1 
1 
1 
1 
1 
1 
1 
1 
1 
1 
1 
1 
1 
1 
1 
1 
1 
1 
1 
1 
1 
1 
1 
1 
1 
1 
1 
1 
1 
1 
1 
1 
1 
1 
1 
1 
1 
1 
1 
1 
1 
1 
1 
1 
1 
1 
1 
1 
1 
1 
1 
1 
1 
1 
1 
1 
1 
1 
1 
1 
1 
1 
1 
1 
1 
1 
1 
1 
1 
1 
1 
1 
1 
1 
1 
1 
1 
1 
1 
1 
1 
1 
1 
1 
1 
1 
1 
1 
1 
1 
1 
1 
1 
1 
1 
1 
1 
1 
1 
1 
1 
1 
1 
1 
1 
1 
1 
1 
1 
1 
1 
1 
1 
1 
1 
1 
1 
1 
1 
1 
1 
POINT_DATA 5000
VECTORS Stress float
-2035.31 -3780.83 0.
-3122.83 -3624.34 0.
-231.088 -333.591 0.
-549.798 -1016.75 0.
-3486.84 -6829.71 0.
-34.4568 -69.8329 0.
-3053 -3103.65 0.
-10.9567 -13.9307 0.
-217.834 -199.221 0.
-4062.87 -6393.26 0.
-1456.18 -2480.87 0.
-48.4911 -48.6354 0.
-1882.6 -2788.22 0.
-1487.05 -2273.41 0.
-1308.61 -2043.5 0.
-1055.96 -1772.66 0.
-796.295 -1508.83 0.
-804.156 -1609.08 0.
-634.729 -1350.77 0.
-468.27 -1089.48 0.
-518.667 -1049.36 0.
-470.059 -964.286 0.
-421.459 -879.201 0.
-456.413 -905.509 0.
-453.882 -953.67 0.
-454.329 -998.85 0.
-520.455 -1074.6 0.
-533.688 -1088.73 0.
-481.664 -1023.04 0.
-452.437 -980.106 0.
-423.871 -936.514 0.
-419.332 -920.635 0.
-403.077 -892.503 0.
-386.973 -864.221 0.
-386.432 -856.471 0.
-384.905 -878.268 0.
-389.501 -893.941 0.
-449.664 -969.351 0.
-469.031 -1014.53 0.
-435.751 -1011.08 0.
-410.634 -966.544 0.
-391.295 -916.234 0.
-391.319 -902.154 0.
-392.494 -909.963 0.
-394.583 -916.859 0.
-382.866 -861.057 0.
-332.708 -744.017 0.
-297.456 -612.072 0.
-258.586 -593.749 0.
-299.571 -804.562 0.
-359.823 -996.094 0.
-364.289 -917.932 0.
-330.86 -769.806 0.
-332.204 -753.356 0.
-367.288 -835.221 0.
-402.371 -917.087 0.
-410.651 -960.269 0.
-414.602 -966.218 0.
-420.135 -970.587 0.
-411.235 -963.571 0.
-417.187 -985.215 0.
-428.706 -1001.29 0.
-484.514 -1041.64 0.
-480.212 -1031.6 0.
-426.913 -979.459 0.
-411.904 -930.328 0.
-401.591 -876.501 0.
-389.895 -865.949 0.
-409.775 -910.123 0.
-432.203 -951.749 0.
-445.904 -985.169 0.
-484.212 -1050.5 0.
-523.255 -1115.09 0.
-544.551 -1134.03 0.
-504.444 -1057.67 0.
-455.779 -976.973 0.
-451.862 -908.833 0.
-469.09 -891.523 0.
-418.916 -885.551 0.
-485.697 -1013.18 0.
-552.531 -1140.75 0.
-500.285 -1189.9 0.
-826.054 -1778.63 0.
-1158.79 -2360.39 0.
-1159.72 -1980.38 0.
-1342.35 -1872.67 0.
-1501.92 -1788.03 0.
-1640.34 -2552.48 0.
-2406.57 -3913.85 0.
-46.4101 -52.5842 0.
-802.774 -1330.78 0.
-4625.7 -7061.04 0.
-292.923 -394.518 0.
-330.555 -340.084 0.
-2960.97 -3414.48 0.
-84.7411 -114.689 0.
-3632.24 -5399.9 0.
-337.946 -754.799 0.
-3951.16 -6288.51 0.
-561.51 -950.547 0.
-1768.03 -3543.1 0.
-35.3931 -88.144 0.
-187.478 -274.703 0.
-224.306 -285.253 0.
-233.554 -320.671 0.
-29.1563 -61.4178 0.
-71.0179 -52.8377 0.
-70.7101 -37.4447 0.
-491.162 -335.882 0.
-182.688 -189.695 0.
-73.0688 -38.9099 0.
-108.932 -83.8517 0.
-757.285 -1060.99 0.
-419.502 -487.058 0.
-521.898 -892.606 0.
-326.872 -563.613 0.
-169.344 -197.123 0.
-520.777 -1147.51 0.
-373.962 -866.421 0.
-254.747 -557.732 0.
-429.282 -954.204 0.
-379.236 -870.556 0.
-332.363 -783.736 0.
-450.755 -830.612 0.
-447.094 -879.903 0.
-444.321 -928.302 0.
-608.201 -1129.54 0.
-616.411 -1148.69 0.
-459.591 -948.403 0.
-427.764 -908.068 0.
-397.87 -865.8 0.
-419.08 -902.159 0.
-402.426 -874.427 0.
-393.972 -838.495 0.
-389.75 -815.064 0.
-386.248 -838.834 0.
-386.436 -858.915 0.
-536.503 -1006.54 0.
-555.873 -1051.72 0.
-433.593 -958.162 0.
-407.266 -914.837 0.
-383.851 -868.601 0.
-399.962 -900.567 0.
-399.915 -909.601 0.
-400.137 -918.365 0.
-422.021 -869.539 0.
-368.522 -755.844 0.
-315.91 -641.262 0.
-160.485 -310.603 0.
-208.006 -514.929 0.
-261.311 -713.434 0.
-330.283 -782.236 0.
-296.388 -634.56 0.
-364.011 -755.244 0.
-402.595 -833.606 0.
-441.992 -911.155 0.
-409.137 -958.718 0.
-415.148 -962.609 0.
-421.459 -966.201 0.
-389.246 -905.367 0.
-397.452 -924.758 0.
-411.989 -937.817 0.
-578.505 -1081.89 0.
-574.201 -1071.85 0.
-426.701 -942.045 0.
-413.251 -891.355 0.
-404.524 -835.94 0.
-383.979 -831.696 0.
-397.592 -882.139 0.
-416.936 -926.851 0.
-409.626 -902.12 0.
-450.975 -964.414 0.
-493.238 -1025.8 0.
-593.08 -1184.72 0.
-557.769 -1103.57 0.
-343.28 -811.719 0.
-453.174 -833.356 0.
-471.361 -815.088 0.
-308.44 -726.445 0.
-375.715 -853.605 0.
-446.297 -977.458 0.
-171.645 -210.149 0.
-392.226 -904.688 0.
-663.887 -1548.15 0.
-204.92 -170.508 0.
-220.859 -224.9 0.
-224.76 -296.036 0.
-152.294 -96.1059 0.
-504.441 -1053.99 0.
-57.4864 -52.2844 0.
-32.2969 -41.9949 0.
-126.511 -99.5204 0.
-495.691 -315.174 0.
-147.481 -78.0087 0.
-234.261 -181.352 0.
-1.27506 -0.00944157 0.
-179.254 -433.57 0.
-180.531 -453.607 0.
-159.816 -433.779 0.
-40.987 -68.5921 0.
-0.312169 -2.3133 0.
-21.6382 -45.8636 0.
-171.693 -265.242 0.
-164.853 -221.606 0.
-157.896 -229.547 0.
-48.4457 -85.4872 0.
-109.026 -66.7979 0.
-136.813 -64.1938 0.
-758.343 -502.535 0.
-145.164 -104.293 0.
-76.7047 -40.0348 0.
-253.543 -205.53 0.
-176.538 -103.804 0.
-144.316 -82.9693 0.
-30.1837 -19.311 0.
-30.6849 -12.9441 0.
-54.1751 -22.3543 0.
-312.546 -610.794 0.
-198.844 -296.428 0.
-84.5282 -73.872 0.
-387.001 -811.941 0.
-342.24 -723 0.
-300.338 -631.2 0.
-451.058 -749.753 0.
-447.414 -799.029 0.
-444.218 -847.848 0.
-708.072 -1172.35 0.
-716.282 -1191.5 0.
-456.372 -854.915 0.
-425.64 -813.481 0.
-395.824 -771.131 0.
-423.213 -879.298 0.
-412.737 -845.388 0.
-404.104 -809.635 0.
-400.61 -766.115 0.
-396.262 -790.73 0.
-392.792 -814.467 0.
-623.342 -1043.74 0.
-642.716 -1088.9 0.
-438.625 -898.058 0.
-412.72 -854.309 0.
-387.907 -809.469 0.
-422.307 -885.279 0.
-422.268 -894.306 0.
-422.496 -903.065 0.
-475.663 -863.534 0.
-421.862 -750.144 0.
-368.506 -636.31 0.
-36.7046 -53.1365 0.
-108.466 -233.272 0.
-2791.59 -2009.64 0.
-294.545 -648.271 0.
-258.54 -502.689 0.
-420.024 -732.927 0.
-458.427 -811.466 0.
-497.683 -889.151 0.
-427.261 -937.531 0.
-432.309 -942.386 0.
-438.37 -946.228 0.
-380.794 -833.625 0.
-391.406 -850.611 0.
-404.583 -865.032 0.
-672.495 -1122.14 0.
-668.191 -1112.11 0.
-440.454 -890.667 0.
-431.776 -835.203 0.
-424.146 -778.691 0.
-381.39 -794.116 0.
-395.776 -843.787 0.
-409.69 -893.932 0.
-395.51 -796.91 0.
-435.612 -860.456 0.
-476.627 -923.091 0.
-662.668 -1214.34 0.
-627.242 -1133.32 0.
-397.064 -708.828 0.
-458.65 -753.716 0.
-475.85 -736.437 0.
-280.031 -485.273 0.
-316.993 -642.77 0.
-367.74 -786.483 0.
-62.172 -92.1456 0.
-48.453 -69.9346 0.
-323.357 -581.529 0.
-277.167 -215.162 0.
-58.6251 -100.682 0.
-92.8418 -154.785 0.
-231.183 -125.999 0.
-223.267 -119.803 0.
-66.5554 -53.771 0.
-38.6339 -45.4448 0.
-70.1128 -57.7421 0.
-871.996 -415.253 0.
-386.002 -251.342 0.
-367.854 -244.824 0.
2.26842 0.827696 0.
-142.964 -238.018 0.
-135.05 -334.53 0.
-130.547 -213.496 0.
-2729.52 -4803.54 0.
-2932.16 -5953.17 0.
-139.828 -330.882 0.
-0.401438 -4.39635 0.
-3152.22 -4583.77 0.
-40.2442 -104.464 0.
-2806.67 -5161.62 0.
-139.476 -262.523 0.
-1931.62 -2475.9 0.
-292.149 -337.063 0.
-3418.39 -6192.71 0.
-56.9032 -47.4538 0.
-18.7784 -50.8211 0.
-4040.73 -7548.17 0.
-75.7321 -45.6245 0.
-2243.69 -3433.73 0.
-1453.75 -2313.26 0.
-716.51 -1140.06 0.
-2167.24 -4237.67 0.
-1118.84 -2288.87 0.
-194.197 -216.296 0.
-1181.87 -2616.6 0.
-795.843 -1825.93 0.
-441.464 -1003.62 0.
-729.694 -1651.08 0.
-593.57 -1359.91 0.
-463.612 -1062.57 0.
-862.592 -1639.81 0.
-866.894 -1649.88 0.
-631.202 -1326.37 0.
-598.235 -1255.84 0.
-565.335 -1185.25 0.
-599.65 -1219.89 0.
-575.888 -1207.4 0.
-553.302 -1193.74 0.
-601.955 -1163.8 0.
-603.171 -1208.43 0.
-605.239 -1252.21 0.
-849.747 -1494.81 0.
-846.87 -1488.13 0.
-605.601 -1250.03 0.
-595.65 -1235.74 0.
-585.891 -1221.26 0.
-625.622 -1270.51 0.
-610.372 -1255.38 0.
-596.249 -1239.14 0.
-691.105 -1271.8 0.
-699.864 -1310.7 0.
-709.801 -1348.42 0.
-184.546 -406.494 0.
-172.08 -415.25 0.
-3586.82 -2582.7 0.
-332.637 -793.024 0.
-341.59 -765.66 0.
-674.233 -1288.62 0.
-674.9 -1278.85 0.
-677.198 -1267.45 0.
-601.493 -1259.19 0.
-612.719 -1268.82 0.
-624.946 -1277.44 0.
-581.227 -1240.19 0.
-605.532 -1290.09 0.
-630.003 -1339.84 0.
-890.71 -1586.4 0.
-887.209 -1578.23 0.
-625.734 -1310.68 0.
-640.55 -1296.77 0.
-656.563 -1281.65 0.
-583.691 -1311.74 0.
-581.562 -1269.64 0.
-580.205 -1226.76 0.
-504.612 -1139.55 0.
-541.35 -1212.64 0.
-578.186 -1285.63 0.
-822.305 -1712.38 0.
-864.116 -1809.98 0.
-504.733 -1103.1 0.
-716.342 -1595.07 0.
-922.779 -2026.52 0.
-390.914 -841.734 0.
-915.271 -2064 0.
-1507.59 -3218.3 0.
-108.698 -170.037 0.
-1330.39 -2761.19 0.
-2610.2 -5294.19 0.
-351.541 -577.423 0.
-1317.72 -2050.82 0.
-2327.16 -3480.93 0.
-175.046 -102.83 0.
-4469.77 -7793.92 0.
-44.2167 -20.3949 0.
-23.6998 -8.88299 0.
-3780.26 -4843.63 0.
-13.6982 -31.8724 0.
-2027.13 -2881.65 0.
-78.5956 -190.776 0.
-3229.53 -5771.85 0.
-692.575 -1236.23 0.
-1162.6 -1808.11 0.
-196.274 -360.909 0.
-120.583 -333.841 0.
6.4863 13.89 0.
-0.0158047 -0.295699 0.
-3493.53 -7477.72 0.
-223.139 -497.819 0.
-53.9794 -143.599 0.
-385.121 -637.873 0.
-144.297 -190.111 0.
-260.082 -192.643 0.
-133.596 -101.769 0.
-258.32 -473.405 0.
0.0809898 0.219839 0.
-14.8624 -38.2607 0.
-70.2432 -66.786 0.
-53.7001 -32.0308 0.
-83.4136 -56.0942 0.
-86.3616 -70.664 0.
-114.066 -122.398 0.
-317.015 -373.621 0.
-69.8763 -50.4804 0.
0.232346 0.168793 0.
-630.799 -1418.64 0.
-310.701 -560.979 0.
-75.3507 -95.7104 0.
-576.23 -1322.06 0.
-460.122 -1010.76 0.
-352.204 -691.275 0.
-806.201 -1615.69 0.
-810.504 -1625.75 0.
-636.684 -1295.07 0.
-601.438 -1226.82 0.
-566.459 -1158.3 0.
-597.967 -1142.76 0.
-574.4 -1130.08 0.
-551.713 -1116.52 0.
-621.786 -1111.19 0.
-622.201 -1156.62 0.
-623.447 -1201.22 0.
-890.222 -1512.14 0.
-887.343 -1505.47 0.
-651.532 -1238.29 0.
-642.62 -1222.96 0.
-633.916 -1207.42 0.
-668.999 -1222.75 0.
-654.388 -1206.99 0.
-640.892 -1190.12 0.
-739.822 -1230.81 0.
-748.106 -1270.18 0.
-757.641 -1308.31 0.
-60.0101 -137.566 0.
-56.2338 -137.632 0.
-4355.39 -2905.56 0.
-232.249 -529.412 0.
-234.505 -508.742 0.
-709.702 -1254.23 0.
-710.618 -1244.22 0.
-712.234 -1233.5 0.
-650.314 -1214.7 0.
-661.467 -1224.4 0.
-673.59 -1233.13 0.
-648.412 -1232.04 0.
-672.609 -1282.05 0.
-696.97 -1331.89 0.
-914.202 -1596.44 0.
-910.699 -1588.28 0.
-634.721 -1245.7 0.
-650.698 -1230.62 0.
-667.692 -1214.53 0.
-582.033 -1234.68 0.
-578.553 -1193.93 0.
-578.246 -1150 0.
-467.557 -1091.15 0.
-504.662 -1163.88 0.
-542.066 -1236.3 0.
-789.437 -1651.72 0.
-846.282 -1734.3 0.
-353.777 -544.653 0.
-488.848 -1019.76 0.
-664.16 -1482.61 0.
-65.6371 -87.9696 0.
-63.2893 -82.4592 0.
-616.253 -1196.92 0.
-60.0249 -124.07 0.
-41.5281 -76.3248 0.
-286.247 -216.439 0.
-21.1986 -56.2968 0.
-51.4321 -109.201 0.
-199.994 -378.394 0.
-111.694 -75.7379 0.
-47.7383 -27.0513 0.
-140.72 -57.2269 0.
-152.81 -55.6573 0.
-158.982 -60.4148 0.
-0.0601813 -0.493904 0.
-54.6325 -150.991 0.
-53.4867 -118.166 0.
-222.077 -315.999 0.
-72.5592 -181.776 0.
-210.162 -342.31 0.
0.0157175 3.8793 0.
-1437.8 -3206.92 0.
-3405.76 -5830.85 0.
1.63352 3.50265 0.
-0.376254 -10.1883 0.
-0.0461564 -1.83881 0.
-76.1738 -200.003 0.
-306.664 -463.57 0.
-125.409 -144.642 0.
-2439.18 -4030.35 0.
-481.96 -569.748 0.
-2740.32 -5569.82 0.
-142.644 -119.036 0.
-111.354 -58.06 0.
-3505.8 -6944.74 0.
-67.7264 -31.8143 0.
-2874.46 -4327.91 0.
-795.096 -948.481 0.
-69.2335 -32.0031 0.
-2890.88 -5835.09 0.
-1059.13 -1898.96 0.
-43.5708 -51.0283 0.
-2028.14 -4224.28 0.
-1001.97 -2154.17 0.
-33.0408 -26.8177 0.
-1138.12 -2438.23 0.
-723.369 -1552.25 0.
-335.747 -639.14 0.
-872.463 -1694.38 0.
-729.93 -1452.44 0.
-537.753 -1066.38 0.
-477.161 -954.468 0.
-417.43 -841.691 0.
-469.752 -826.123 0.
-459.653 -822.282 0.
-450.041 -817.952 0.
-487.336 -805.502 0.
-461.188 -754.853 0.
-435.196 -704.048 0.
-719.322 -1069.22 0.
-717.317 -1064.54 0.
-509.888 -751.556 0.
-515.95 -774.244 0.
-522.149 -796.796 0.
-553.777 -822.92 0.
-542.896 -805.047 0.
-532.628 -786.56 0.
-621.461 -868.098 0.
-667.981 -976.004 0.
-714.766 -1083.64 0.
2.28529e-06 0.0313616 0.
0.0694322 0.522954 0.
-4128.27 -2457.12 0.
-58.4825 -85.0639 0.
-105.411 -198.861 0.
-683.779 -1125.7 0.
-638.77 -1019.75 0.
-605.852 -901.714 0.
-546.216 -818.089 0.
-553.356 -829.581 0.
-560.709 -840.86 0.
-529.697 -818.389 0.
-527.588 -807.398 0.
-525.503 -796.383 0.
-717.578 -1115.99 0.
-726.469 -1136.7 0.
-447.177 -751.958 0.
-460.294 -772.312 0.
-473.542 -792.536 0.
-426.788 -805.868 0.
-461.022 -864.87 0.
-495.437 -923.691 0.
-390.926 -909.525 0.
-491.824 -1109.77 0.
-592.802 -1309.94 0.
-858.674 -1714.02 0.
-1057.86 -2036.31 0.
-298.59 -483.425 0.
-818.187 -1747 0.
-1375.64 -2940.88 0.
-77.8779 -113.266 0.
-996.632 -2110.56 0.
-2435.81 -5286.7 0.
-49.7814 -87.9025 0.
-792.207 -738.003 0.
-2616.33 -4009.4 0.
-45.8236 -79.6141 0.
-3891.13 -8491.5 0.
-139 -153.829 0.
-87.7387 -64.0485 0.
-2934.39 -4365.61 0.
-96.1186 -42.2439 0.
-3731.07 -6014.99 0.
-0.237515 -0.283158 0.
-1412.31 -3294.7 0.
-177.616 -293.402 0.
-315.674 -346.228 0.
-405.671 -802.844 0.
-0.268506 -6.53823 0.
-2212.57 -4142.05 0.
0.00452794 0.4695 0.
-2980.36 -7024.79 0.
21.6247 34.5098 0.
0.394552 5.26145 0.
2.88485 6.19213 0.
-0.310614 -6.09137 0.
-99.6457 -253.866 0.
-710.424 -1378.22 0.
-2392.45 -3866.11 0.
0.530288 0.250062 0.
0.438313 1.05219 0.
0.0145305 0.0360321 0.
-222.255 -212.686 0.
-143.217 -67.8784 0.
-26.9754 -9.97816 0.
-25.1739 -9.71793 0.
-117.506 -78.2725 0.
-57.156 -28.1445 0.
-69.2412 -36.7148 0.
-49.9339 -67.1947 0.
-30.2152 -15.4737 0.
-37.6572 -50.9014 0.
-433.475 -705.588 0.
-36.826 -28.0908 0.
-37.7607 -28.7293 0.
-640.401 -1407.86 0.
-288.571 -457.916 0.
-59.276 -63.7399 0.
-611.497 -1254.76 0.
-485.645 -996.009 0.
-448.731 -911.65 0.
-397.881 -789.973 0.
-349.964 -665.364 0.
-443.195 -763.178 0.
-435.407 -757.028 0.
-425.81 -752.687 0.
-468.355 -757.236 0.
-440.025 -708.766 0.
-413.923 -658.067 0.
-725.332 -1071.77 0.
-723.325 -1067.08 0.
-512.42 -729.604 0.
-518.39 -752.387 0.
-524.515 -775.015 0.
-566.886 -771.745 0.
-556.483 -753.399 0.
-546.721 -734.411 0.
-561.579 -818.964 0.
-608.381 -926.604 0.
-655.37 -1034.06 0.
0.0655989 0.782773 0.
0.0716221 0.687656 0.
-3460.91 -2166.01 0.
-45.8322 -40.2021 0.
-94.1283 -152.639 0.
-660.408 -1076.98 0.
-615.023 -971.407 0.
-570.05 -865.422 0.
-546.867 -776.345 0.
-554.231 -787.611 0.
-562.765 -797.707 0.
-511.997 -803.756 0.
-510.469 -792.181 0.
-509.067 -780.48 0.
-717.057 -1115.74 0.
-725.944 -1136.46 0.
-414.331 -701.057 0.
-427.375 -721.486 0.
-445.837 -736.496 0.
-383.046 -716.842 0.
-417.206 -775.921 0.
-451.11 -835.255 0.
-305.242 -632.86 0.
-383.108 -856.2 0.
-467.984 -1072.53 0.
-506.75 -1037.71 0.
-677.07 -1389.13 0.
-61.8384 -100.466 0.
-166.526 -167.989 0.
-649.445 -1438.44 0.
-64.3686 -106.088 0.
-50.9073 -72.1134 0.
-321.538 -279.613 0.
-39.5613 -51.1934 0.
-28.8153 -35.3982 0.
-28.017 -54.5259 0.
-39.966 -65.7261 0.
-40.1743 -66.6665 0.
-252.214 -201.531 0.
-151.264 -91.4865 0.
-220.698 -114.109 0.
0.254218 0.363443 0.
0.74313 0.777242 0.
-0.721686 -0.346322 0.
-1950.64 -4086.36 0.
-126.522 -215.832 0.
-2781.99 -4579.75 0.
-178.484 -385.714 0.
-0.0845275 -1.15073 0.
-98.5526 -248.706 0.
-0.033675 -7.91961 0.
-225.771 -452.637 0.
-635.324 -902.66 0.
7.24314 14.8985 0.
-2440.71 -4710.68 0.
-0.114159 -24.5748 0.
0.0446136 0.120753 0.
-368.952 -862.459 0.
-38.2567 -98.1324 0.
-0.151931 -0.02165 0.
0.0654652 0.586717 0.
0.495833 1.3712 0.
-321.8 -302.066 0.
-175.69 -78.0965 0.
-20.6677 -7.75245 0.
-55.6017 -22.0187 0.
-120.949 -59.9154 0.
-62.6379 -27.3751 0.
-74.7225 -35.3608 0.
-47.2118 -67.8555 0.
-48.5907 -62.061 0.
-56.2862 -71.0226 0.
-67.6292 -85.2561 0.
-51.4798 -40.7462 0.
-51.5234 -39.3695 0.
-249.202 -270.956 0.
-57.5649 -31.4804 0.
-73.6349 -65.2385 0.
-399.397 -766.284 0.
-290.874 -490.062 0.
-383.621 -733.005 0.
-338.961 -605.119 0.
-295.719 -475.815 0.
-422.271 -694.601 0.
-412.252 -690.685 0.
-402.904 -686.098 0.
-457.421 -700.922 0.
-428.672 -652.868 0.
-400.163 -604.572 0.
-731.342 -1074.31 0.
-729.332 -1069.63 0.
-515.597 -707.008 0.
-521.467 -729.893 0.
-527.496 -752.618 0.
-580.732 -719.832 0.
-570.88 -700.941 0.
-561.343 -681.733 0.
-506.703 -764.826 0.
-553.566 -872.42 0.
-600.517 -979.927 0.
0.000209974 0.555454 0.
0.00700817 0.828715 0.
-3560.23 -2221.08 0.
-23.1033 -30.8073 0.
-87.3294 -101.934 0.
-637.302 -1028 0.
-591.721 -922.619 0.
-546.326 -817.052 0.
-553.713 -728.408 0.
-561.022 -739.726 0.
-568.786 -750.589 0.
-507.24 -776.181 0.
-505.837 -764.478 0.
-504.587 -752.62 0.
-716.537 -1115.49 0.
-725.419 -1136.21 0.
-390.138 -641.504 0.
-408.408 -656.708 0.
-426.809 -671.78 0.
-352.295 -614.824 0.
-387.412 -672.948 0.
-421.46 -732.141 0.
-239.602 -336.152 0.
-312.236 -564.783 0.
-387.957 -790.327 0.
-219.886 -296.332 0.
-365.897 -672.347 0.
-59.895 -100.201 0.
-40.9545 -59.07 0.
-44.6168 -66.1559 0.
-56.2781 -93.6962 0.
-42.3882 -64.7399 0.
-40.4675 -63.3139 0.
-50.2317 -63.8085 0.
-35.2588 -23.4641 0.
-43.2473 -45.7308 0.
-63.9024 -76.1566 0.
-117.437 -135.132 0.
-542.35 -432.769 0.
-392.93 -166.188 0.
-395.666 -166.612 0.
0.984733 1.62068 0.
-0.180324 -0.269682 0.
-1.1818 -0.515429 0.
-869.921 -1786.69 0.
-0.0889092 -1.41747 0.
-42.9215 -118.878 0.
-1525.52 -2198.5 0.
-23.5487 -53.282 0.
-3571.18 -7787.58 0.
8.82743 23.4011 0.
-3382.53 -5467.53 0.
-2919.94 -4501.73 0.
14.6221 29.2734 0.
19.2236 40.8852 0.
6.02467 15.1823 0.
-26.6427 -65.7893 0.
-2742.73 -5866.64 0.
0.599531 1.49628 0.
0.493064 0.23368 0.
-0.455601 -2.89998 0.
-2455.05 -4288.14 0.
-2105.92 -2607.38 0.
-49.0355 -21.5538 0.
-2406.86 -5140.96 0.
-76.1431 -59.2857 0.
-96.8727 -71.4668 0.
-3847.17 -7550.15 0.
-49.8446 -21.9682 0.
-2923.74 -4566.9 0.
-38.2054 -24.2926 0.
-41.7149 -28.2364 0.
-3092.16 -6947.17 0.
-212.239 -144.627 0.
-28.5521 -22.1457 0.
-1922.95 -4413.98 0.
-733.234 -1657.92 0.
-69.3068 -111.419 0.
-1222.2 -2712.57 0.
-771.927 -1789.57 0.
-910.902 -1956.42 0.
-675.834 -1464.32 0.
-458.171 -954.818 0.
-654.594 -1338.51 0.
-571.2 -1191.2 0.
-488.612 -1043.08 0.
-629.603 -1141.3 0.
-603.452 -1116.54 0.
-578.172 -1090.9 0.
-924.153 -1584.95 0.
-899.333 -1527.06 0.
-624.732 -1076.59 0.
-621.539 -1077.67 0.
-618.945 -1078.15 0.
-658.022 -1094.77 0.
-680.2 -1150.67 0.
-702.703 -1206.24 0.
-666.53 -1263.47 0.
-678.36 -1305.52 0.
-695.665 -1342.1 0.
-68.7034 -190.203 0.
-65.9278 -182.449 0.
-3290.28 -2637.86 0.
-301.292 -546.245 0.
-301.757 -545.41 0.
-711.216 -1346.75 0.
-695.278 -1307.54 0.
-689.548 -1258.12 0.
-688.542 -1201.48 0.
-676.63 -1170.56 0.
-664.856 -1139.5 0.
-605.56 -1130.29 0.
-611.806 -1137.14 0.
-619.908 -1142.14 0.
-870.272 -1552.35 0.
-885.535 -1587.95 0.
-506.75 -1022.32 0.
-575.413 -1143.69 0.
-645.299 -1263.85 0.
-483.918 -1123.92 0.
-598.973 -1374.72 0.
-723.202 -1616.34 0.
-423.268 -954.972 0.
-679.394 -1631.96 0.
-982.353 -2262.12 0.
-828.101 -1865.93 0.
-1461.5 -3302.42 0.
-58.417 -111.907 0.
-724.89 -1457.15 0.
-2355.16 -5252.82 0.
-28.9851 -52.7315 0.
-33.1278 -56.9762 0.
-3128.17 -6886.35 0.
-75.9272 -66.5802 0.
-60.7068 -32.5412 0.
-3288.88 -5137.77 0.
-5.20538 -1.92682 0.
-3132.99 -6748.57 0.
-227.435 -131.669 0.
-734.474 -805.868 0.
-1795.33 -3940.58 0.
0.7304 1.27592 0.
-1940.84 -3812.5 0.
-187.782 -69.3531 0.
0.0206901 1.7941 0.
-0.15453 -2.77448 0.
-673.364 -1551.48 0.
-585.593 -1265.35 0.
12.1361 33.6059 0.
11.7655 28.9055 0.
20.1697 45.5616 0.
18.4368 27.0329 0.
-3.31182 -5.21298 0.
36.6443 63.4065 0.
-2010.21 -4002 0.
-2.95057 -31.9158 0.
-2600.56 -5612.33 0.
0.0972545 11.7996 0.
-0.948692 -4.24414 0.
0.732549 0.339437 0.
-261.022 -709.253 0.
-877.044 -1715.99 0.
-1.34885 -0.289234 0.
0.225159 0.160101 0.
-40.3618 -33.8519 0.
-41.9571 -46.0352 0.
-41.2738 -48.937 0.
-125.344 -160.903 0.
-72.827 -45.7257 0.
-69.1705 -84.6993 0.
-24.965 -13.339 0.
-40.0343 -24.1446 0.
-31.8965 -24.8846 0.
-24.5167 -12.5968 0.
-24.0359 -13.9903 0.
-407.144 -806.737 0.
-34.3819 -60.2535 0.
-48.3568 -91.539 0.
-645.316 -1403.56 0.
-252.992 -421.259 0.
-587.628 -1258.98 0.
-389.733 -729.329 0.
-208.43 -183.084 0.
-505.621 -1110.61 0.
-434.478 -951.003 0.
-373.879 -780.856 0.
-585.797 -1035.31 0.
-560.41 -1009.78 0.
-535.798 -983.477 0.
-891.89 -1571.1 0.
-867.068 -1513.21 0.
-586.71 -990.535 0.
-583.694 -991.444 0.
-581.243 -991.787 0.
-613.805 -1036.08 0.
-635.535 -1092.44 0.
-657.579 -1148.48 0.
-616.917 -1210.9 0.
-634.235 -1247.47 0.
-651.746 -1283.86 0.
-85.6041 -236.773 0.
-82.7427 -229.105 0.
-2987.43 -2505.53 0.
-358.633 -560.115 0.
-358.96 -559.418 0.
-679.527 -1287.33 0.
-663.371 -1248.33 0.
-647.615 -1208.94 0.
-648.717 -1148.23 0.
-635.456 -1118.65 0.
-623.397 -1087.87 0.
-576.446 -1036.09 0.
-583.433 -1042.2 0.
-591.298 -1047.43 0.
-831.356 -1532.19 0.
-850.854 -1563.56 0.
-438.58 -879.782 0.
-506.245 -1002.18 0.
-575.081 -1123.4 0.
-319.992 -709.202 0.
-415.891 -979.264 0.
-523.517 -1237.6 0.
-46.0896 -111.295 0.
-285.515 -586.304 0.
-539.665 -1265.97 0.
-42.6425 -90.2581 0.
-658.711 -1428.79 0.
-61.6326 -122.315 0.
-42.663 -71.2155 0.
-35.9781 -55.8987 0.
-49.2288 -116.692 0.
-38.182 -88.0081 0.
-58.5972 -147.937 0.
-109.108 -80.088 0.
-77.9253 -35.702 0.
-115.796 -119.283 0.
-0.143991 -0.0645241 0.
0.585773 0.30401 0.
-325.256 -300.413 0.
-826.849 -1075.11 0.
0.450119 0.8838 0.
-0.243476 -0.744392 0.
-72.4716 -185.758 0.
-1933.16 -3984.44 0.
-0.00808937 -1.46526 0.
2.08681 5.13478 0.
-1788.66 -4071.35 0.
-272.762 -553.351 0.
-0.389485 -26.9335 0.
-3.19795 -7.11114 0.
-5.48334 -26.1378 0.
-1007.11 -1364.68 0.
-1387.49 -2019.02 0.
-10.5758 -52.4927 0.
34.061 74.1701 0.
-1.08255 -16.3262 0.
-0.847915 -24.0186 0.
-0.00534318 -4.07374 0.
-0.490845 -3.78632 0.
-2303.23 -4248.39 0.
-89.0887 -217.138 0.
-289.252 -701.49 0.
0.229717 1.64159 0.
0.854729 0.711358 0.
-3.70368 -5.15583 0.
-16.487 -30.3342 0.
-453.404 -716.293 0.
-1842.49 -4223.6 0.
-51.8977 -19.9905 0.
-2725.25 -4816.15 0.
-32.498 -29.108 0.
-25.4582 -21.3511 0.
-2972.21 -6964.98 0.
-40.4444 -40.618 0.
-48.5348 -57.0755 0.
-2484.95 -5371.16 0.
-306.114 -385.696 0.
-9.38266 -6.31391 0.
-1657.92 -3778.45 0.
-760.555 -1660.84 0.
-1132.16 -2354.13 0.
-728.144 -1496.62 0.
-353.22 -610.026 0.
-814.489 -1703.01 0.
-596.151 -1265.61 0.
-389.213 -816.805 0.
-604.328 -1085.24 0.
-475.08 -811.683 0.
-340.759 -543.2 0.
-710.641 -1249.3 0.
-699.775 -1237.03 0.
-484.827 -705.644 0.
-490.64 -725.763 0.
-496.665 -745.671 0.
-504.077 -793.037 0.
-493.259 -766.451 0.
-482.878 -739.428 0.
-453.016 -799.851 0.
-483.671 -864.519 0.
-514.583 -928.931 0.
-4.80591 -11.6996 0.
-3.00079 -7.18857 0.
-2537.46 -1955.88 0.
-278.285 -225.143 0.
-282.209 -238.521 0.
-503.486 -858.993 0.
-492.427 -841.843 0.
-481.435 -824.626 0.
-487.72 -782.509 0.
-494.977 -801.38 0.
-503.942 -818.542 0.
-470.164 -742.802 0.
-468.31 -734.225 0.
-466.918 -725.187 0.
-669.373 -1296.94 0.
-718.088 -1374.94 0.
-313.244 -622.276 0.
-469.085 -946.846 0.
-622.693 -1273.65 0.
-314.368 -735.894 0.
-599.674 -1413.5 0.
-905.644 -2070.44 0.
-231.259 -401.235 0.
-699.264 -1528.99 0.
-1224.71 -2599.3 0.
-694.893 -1423.45 0.
-1918.43 -4404.71 0.
-54.7259 -99.3989 0.
-52.4459 -92.4687 0.
-2930.91 -6696.18 0.
-49.9749 -111.765 0.
-29.4906 -55.6515 0.
-2752.5 -3377.16 0.
-50.4907 -24.8211 0.
-3674.95 -7685.07 0.
-104.601 -158.674 0.
-94.0972 -98.8111 0.
-2795.37 -6078.87 0.
-578.406 -533.681 0.
-977.766 -1294.24 0.
1.85484 3.48351 0.
0.0846859 0.232867 0.
1.44337 3.88593 0.
-192.003 -347.027 0.
-1696.8 -3423.79 0.
-0.590754 -17.384 0.
6.71456 17.0743 0.
-1877.31 -3655.58 0.
14.0621 35.2757 0.
-2728.41 -5385.09 0.
-14.3848 -79.9157 0.
-2005.39 -2799.5 0.
-912.417 -1426.75 0.
-17.6794 -78.7795 0.
-2485.15 -5219.98 0.
12.0185 26.9038 0.
-7.35547 -17.6958 0.
2.42877 6.48818 0.
2.08676 4.86058 0.
4.67972 12.9468 0.
-35.835 -84.3146 0.
-372.772 -985.758 0.
-0.297591 -2.20941 0.
-2921.38 -5423.32 0.
-65.915 -159.371 0.
-2380.88 -4734.95 0.
-13.6668 -34.0932 0.
-91.5941 -117.762 0.
-62.5469 -27.9515 0.
-80.6551 -49.5926 0.
-13.4323 -12.7066 0.
-8.75369 -7.82482 0.
-32.7651 -20.1803 0.
-39.8141 -29.1559 0.
-55.3245 -61.5151 0.
-27.5274 -50.2805 0.
-4.92983 -2.23606 0.
0.303033 0.117962 0.
-590.988 -1203.84 0.
-50.3205 -56.6084 0.
-555.478 -1028.87 0.
-170.269 -151.31 0.
-98.5462 -104.068 0.
-506.415 -1099.41 0.
-317.022 -632.753 0.
-158.612 -135.109 0.
-455.563 -891.127 0.
-330.506 -613.309 0.
-219.653 -332.536 0.
-611.2 -1144.37 0.
-591.907 -1140.53 0.
-426.577 -641.396 0.
-432.527 -661.382 0.
-438.563 -681.283 0.
-430.017 -717.079 0.
-419.797 -689.894 0.
-410.203 -662.084 0.
-407.192 -772.408 0.
-437.736 -837.19 0.
-468.469 -901.784 0.
-43.2026 -119.574 0.
-24.6705 -67.7974 0.
-1570.09 -1536.79 0.
-356.472 -333.193 0.
-360.155 -346.81 0.
-438.886 -816.409 0.
-427.811 -799.273 0.
-416.898 -781.975 0.
-417.586 -701.977 0.
-423.923 -721.77 0.
-431.334 -740.49 0.
-399.691 -657.695 0.
-397.687 -649.266 0.
-396.125 -640.393 0.
-546.377 -1165.47 0.
-598.83 -1239.75 0.
-181.516 -325.858 0.
-308.117 -678.616 0.
-449.426 -1017.83 0.
-25.3498 -58.2431 0.
-253.656 -547.321 0.
-511.175 -1253.32 0.
-20.0516 -46.963 0.
-14.8621 -30.3959 0.
-436.161 -723.214 0.
-32.9501 -56.058 0.
-545.801 -872.596 0.
-48.1295 -92.9029 0.
-44.663 -84.9501 0.
-51.577 -102.302 0.
-46.8998 -90.4267 0.
-25.5001 -48.275 0.
-30.6278 -70.5223 0.
0.0158588 0.0177939 0.
-91.1264 -179.448 0.
-0.0333055 -1.17746 0.
-0.302053 -0.761663 0.
-195.149 -250.683 0.
-168.142 -365.248 0.
-769.85 -1578.56 0.
-2385.81 -5147.66 0.
2.38551 3.74545 0.
0.00842204 0.891152 0.
5.00984 11.0268 0.
-936.191 -1862.72 0.
-0.0141594 -4.104 0.
0.672969 1.63679 0.
10.1025 25.472 0.
-3.31492 -65.4167 0.
8.06483 16.8766 0.
27.0573 46.344 0.
-224.506 -341.832 0.
-236.868 -439.374 0.
-29.101 -101.196 0.
28.1142 64.5492 0.
0.160944 3.79378 0.
-2344.23 -5398.66 0.
-0.0242396 -24.0527 0.
1.36951 3.25213 0.
-0.0634054 -2.03034 0.
-14.0959 -32.6118 0.
-1.91785 -5.25274 0.
-1057.2 -2324.3 0.
-54.6781 -105.121 0.
-0.120909 -3.62233 0.
-48.5282 -128.032 0.
-17.0157 -38.0244 0.
-208.178 -278.199 0.
-81.5685 -43.4823 0.
-88.8991 -46.4301 0.
-14.2562 -12.053 0.
-6.64517 -3.99646 0.
-34.6357 -21.0789 0.
-51.9361 -38.1727 0.
-71.3737 -74.3916 0.
-24.5351 -54.5991 0.
-1.44129 -0.542268 0.
-0.192645 -0.0695729 0.
-67.0841 -59.2814 0.
-81.6601 -84.2739 0.
-100.543 -105.309 0.
-95.9103 -99.5213 0.
-105.129 -108.042 0.
-260.108 -434.046 0.
-57.0806 -74.4316 0.
-80.4212 -71.1908 0.
-322.051 -681.762 0.
-210.522 -390.344 0.
-134.508 -178.911 0.
-520.582 -1030.62 0.
-502.396 -1025.67 0.
-366.294 -579.182 0.
-374.177 -597.239 0.
-381.076 -616.28 0.
-358.144 -638.933 0.
-349.219 -610.454 0.
-340.761 -581.507 0.
-363.497 -742.836 0.
-394.186 -807.477 0.
-424.914 -872.078 0.
-87.6644 -241.997 0.
-69.0875 -190.269 0.
-1164.5 -1361.4 0.
-436.529 -439.373 0.
-440.258 -452.942 0.
-375.23 -772.881 0.
-364.219 -755.679 0.
-353.093 -738.592 0.
-356.158 -612.739 0.
-361.204 -633.826 0.
-366.553 -654.611 0.
-329.769 -572.038 0.
-327.406 -563.963 0.
-323.802 -557.13 0.
-434.86 -1022.52 0.
-485.245 -1098.89 0.
-99.4633 -103.716 0.
-210.476 -347.06 0.
-330.604 -707.561 0.
-41.2429 -68.6533 0.
-34.1615 -65.348 0.
-206.037 -346.87 0.
-34.4876 -63.3609 0.
-23.3766 -53.17 0.
-21.084 -49.5274 0.
-41.2985 -70.5437 0.
-52.1209 -98.7877 0.
-53.0201 -111.787 0.
-42.7285 -90.0899 0.
-41.3553 -86.2716 0.
-56.9927 -89.0738 0.
-41.2947 -61.7899 0.
-30.9806 -49.1595 0.
0.0184072 0.206702 0.
-77.0884 -213.326 0.
0.0618444 1.37908 0.
0.390408 1.53592 0.
0.902915 1.49456 0.
-8.24799 -21.9386 0.
-238.291 -591.92 0.
-228.342 -478.962 0.
3.51239 9.67095 0.
-0.00595324 -0.521494 0.
3.65536 8.07894 0.
-556.824 -1077.6 0.
-1811.05 -4778.3 0.
11.2573 26.1705 0.
-2.34599 -5.77145 0.
-2.40357 -28.0906 0.
-1913.09 -4079.5 0.
-22.0263 -81.9125 0.
-20.803 -33.772 0.
2.33724 4.77007 0.
-33.8332 -118.32 0.
46.2657 105.53 0.
32.5358 78.7372 0.
15.7744 38.7592 0.
26.8699 72.7779 0.
-602.706 -1441.86 0.
6.02325 14.2228 0.
-6.01991 -13.6711 0.
-592.349 -1257.71 0.
-407.454 -924.261 0.
1.96624 4.07218 0.
-0.0650932 -2.32974 0.
-50.9519 -126.496 0.
-1711.74 -3879.83 0.
-2114.77 -2613.96 0.
-13.9337 -10.1014 0.
0.0244048 0.685176 0.
-3086.5 -6905.97 0.
-46.7913 -61.4129 0.
-2262.31 -3908.11 0.
-46.9134 -82.369 0.
-41.1606 -85.8642 0.
-2517.48 -5839.04 0.
-40.5302 -85.7438 0.
-30.8746 -56.3762 0.
-2321.51 -5492.94 0.
-327.485 -395.216 0.
-1632.3 -3387.17 0.
-763.012 -1409.81 0.
-53.3631 -50.9995 0.
-1119.48 -2635.25 0.
-622.192 -1459.79 0.
-163.04 -246.195 0.
-772.039 -1852.11 0.
-536.459 -1278.24 0.
-319.731 -685.516 0.
-733.397 -1758.77 0.
-654.527 -1597.97 0.
-500.489 -1132.96 0.
-462.515 -1043.82 0.
-425.195 -954.023 0.
-447.501 -985.964 0.
-454.184 -1002.49 0.
-462.64 -1017.24 0.
-461.275 -1107.67 0.
-428.27 -1021.54 0.
-395.584 -935.092 0.
-187.391 -515.63 0.
-196.672 -544.117 0.
-877.757 -1485.96 0.
-525.928 -775.613 0.
-508.27 -734.999 0.
-383.381 -894.335 0.
-419.019 -989.555 0.
-455.501 -1083.93 0.
-438.573 -989.64 0.
-439.506 -997.109 0.
-442.469 -1002.55 0.
-379.145 -955.143 0.
-441.911 -1103.91 0.
-506.939 -1250.41 0.
-653.823 -1637.05 0.
-763.61 -1869.62 0.
-289.956 -567.816 0.
-587.443 -1423.41 0.
-919.259 -2244.68 0.
-27.2246 -72.4702 0.
-651.839 -1558.87 0.
-1313.79 -3132.22 0.
-13.8963 -27.1123 0.
-706.256 -1288.96 0.
-1834.5 -3898.38 0.
-35.4449 -71.5385 0.
-2448.59 -5399.82 0.
-57.9541 -124.575 0.
-36.8843 -62.9837 0.
-2721.59 -6539.64 0.
-18.8935 -51.6024 0.
-43.0939 -99.7073 0.
-2696.95 -4674.35 0.
-12.7302 -25.9215 0.
-2171.24 -4527.68 0.
0.0696302 0.703247 0.
-2139.71 -4677.21 0.
0.818622 0.448387 0.
-12.4505 -33.3734 0.
-1.53948 -3.37381 0.
-17.6479 -38.8469 0.
3.1615 8.75541 0.
-2369.33 -5404.6 0.
-1.54893 -13.8841 0.
-0.0040784 -4.9193 0.
-0.594828 -39.5146 0.
-3.82193 -37.1063 0.
-1839.84 -4457.94 0.
-5.41668 -44.225 0.
45.2173 106.817 0.
32.052 52.1176 0.
8.60334 76.2955 0.
-19.1833 -144.773 0.
91.0556 154.785 0.
-1097.56 -2495.5 0.
30.1842 70.7268 0.
-3.99598 -9.81115 0.
15.425 40.5392 0.
-1768.61 -4253.49 0.
-1441.44 -3324.56 0.
1.36039 3.26502 0.
-117.241 -266.224 0.
-110.856 -250.644 0.
-0.0955281 -5.38933 0.
-2527.62 -5113.48 0.
-1.16338 -2.77712 0.
-533.916 -1377.92 0.
-0.397595 -2.63423 0.
-0.0137349 -0.729865 0.
0.00706078 0.407264 0.
-85.1066 -170.533 0.
-42.1557 -44.699 0.
-28.4357 -55.7931 0.
-18.3344 -39.7688 0.
-11.0274 -27.7573 0.
-62.1104 -115.924 0.
-41.8619 -66.8375 0.
-48.7311 -78.5461 0.
-124.127 -158.967 0.
-81.9191 -91.7136 0.
-334.677 -440.79 0.
-32.4613 -50.6713 0.
-31.5407 -47.6784 0.
-535.36 -1202.58 0.
-25.075 -38.3681 0.
-18.9344 -15.0689 0.
-531.259 -1287.01 0.
-320.118 -688.366 0.
-105.73 -112.139 0.
-595.874 -1464.7 0.
-527.69 -1293.16 0.
-402.445 -973.909 0.
-361.076 -888.147 0.
-324.001 -798.093 0.
-396.618 -919.46 0.
-404.387 -934.899 0.
-413.71 -948.784 0.
-413.687 -1034.08 0.
-380.914 -947.712 0.
-348.464 -861.02 0.
-241.992 -642.924 0.
-252.161 -670.518 0.
-596.039 -1362.77 0.
-527.173 -866.355 0.
-509.515 -825.745 0.
-351.548 -823.833 0.
-386.295 -919.954 0.
-421.968 -1015.15 0.
-368.552 -887.618 0.
-368.107 -896.466 0.
-369.048 -903.927 0.
-284.435 -741.583 0.
-341.346 -896.231 0.
-404.464 -1044.67 0.
-493.714 -1227.55 0.
-587.313 -1476.41 0.
-73.739 -116.905 0.
-302.75 -597.943 0.
-599.205 -1455.24 0.
-44.1847 -84.6979 0.
-26.6936 -53.0081 0.
-529.547 -1150.73 0.
-60.7859 -57.4343 0.
-28.532 -52.028 0.
-157.778 -124.172 0.
-54.9414 -97.013 0.
-74.4133 -107.895 0.
-56.3493 -78.6491 0.
-50.1983 -75.064 0.
-73.0471 -135.438 0.
-0.343589 -0.937519 0.
-7.40123 -20.0723 0.
-35.3512 -86.3114 0.
-0.208005 -0.415626 0.
-54.5186 -107.85 0.
0.017146 0.631431 0.
-175.604 -429.42 0.
-14.2645 -39.0836 0.
-1776.91 -3751.21 0.
-250.308 -407.598 0.
-23.3117 -53.1005 0.
0.00264552 0.657216 0.
0.00237159 1.12341 0.
-1.01357 -8.65844 0.
1.25746 3.47222 0.
12.7929 33.7134 0.
23.0062 60.6048 0.
5.36496 13.3946 0.
-5.38049 -71.3144 0.
56.3246 127.994 0.
24.4691 42.3556 0.
-21.005 -279.494 0.
43.3922 98.6502 0.
6.01665 10.2314 0.
13.405 31.0276 0.
-8.96598 -98.8931 0.
-1548.15 -3813.71 0.
-2.73287 -73.9019 0.
12.2104 32.6198 0.
18.9627 51.2369 0.
-0.607764 -1.48251 0.
-649.713 -1489.9 0.
-64.1451 -144.426 0.
-707.782 -1638.82 0.
-1.32922 -8.16214 0.
-0.585414 -7.05925 0.
-2.80687 -7.76837 0.
-0.0959779 -0.951638 0.
0.00265998 0.690278 0.
0.00340513 0.112333 0.
-89.1617 -138.588 0.
-327.554 -587.398 0.
-2074.51 -4163.7 0.
-26.4415 -65.5978 0.
-8.36137 -21.2915 0.
-2279.03 -5609.23 0.
-43.1666 -56.2271 0.
-36.584 -39.7376 0.
-2360.26 -5242.43 0.
-40.8981 -31.4146 0.
-1776.08 -3737.46 0.
-516.513 -780.89 0.
-7.9898 -22.1097 0.
-1403.39 -3290.27 0.
-577.805 -1280.69 0.
-24.0484 -36.0568 0.
-937.001 -2273.92 0.
-529.938 -1273.73 0.
-152.453 -243.956 0.
-711.478 -1715.13 0.
-549.46 -1354.69 0.
-447.796 -1061.15 0.
-364.485 -885.435 0.
-287.383 -703.513 0.
-349.454 -851.96 0.
-311.94 -757.478 0.
-275.966 -661.456 0.
-296.119 -719.711 0.
-259.84 -624.616 0.
-209.725 -543.358 0.
-160.175 -402.373 0.
-137.473 -329.092 0.
-677.175 -935.904 0.
-367.354 -485.491 0.
-390.034 -552.909 0.
-221.511 -532.2 0.
-277.542 -639.558 0.
-322.096 -758.392 0.
-253.115 -649.394 0.
-311.079 -798.448 0.
-372.211 -944.334 0.
-291.931 -739.276 0.
-395.272 -991.364 0.
-509.649 -1232.42 0.
-577.767 -1428.8 0.
-809.785 -1961.25 0.
-104.561 -99.0409 0.
-570.666 -1390.93 0.
-1068.1 -2651.48 0.
-21.8903 -49.4558 0.
-545.193 -1210.28 0.
-1695.44 -4062.9 0.
-89.147 -87.9937 0.
-397.17 -298.313 0.
-1883.96 -3739.36 0.
-74.1517 -91.4915 0.
-2490.81 -5836.26 0.
-260.961 -450.665 0.
-48.9026 -89.5063 0.
-1980.04 -2634.87 0.
0.000506478 0.350943 0.
-2629.73 -6619.83 0.
-0.329158 -1.67087 0.
-0.259939 -1.49524 0.
0.5179 0.827227 0.
-0.00357151 -2.22543 0.
-60.7131 -162.185 0.
-0.908145 -2.24557 0.
1.37109 2.23063 0.
-244.098 -516.438 0.
-313.103 -686.831 0.
4.61982 12.3845 0.
-0.00803412 -17.7263 0.
-1977.77 -5208.31 0.
9.11264 25.1105 0.
-197.573 -512.625 0.
9.08814 23.5154 0.
-484.82 -1197.45 0.
7.01817 16.5389 0.
-1917.6 -4215.46 0.
114.673 196.507 0.
-9.53349 -59.9979 0.
81.8505 190.622 0.
50.5816 99.5575 0.
-57.7092 -133.887 0.
-7.12005 -111.374 0.
-8.58602 -22.9426 0.
18.6396 48.5386 0.
2.53129 6.75436 0.
18.0615 48.6138 0.
-107.727 -266.773 0.
-1509.79 -3478.44 0.
-0.0740313 -22.3094 0.
-650.295 -1578.14 0.
3.60246 7.09801 0.
-1.10493 -11.4279 0.
-0.0375382 -0.103821 0.
0.236751 9.04445 0.
-2279.6 -4913.59 0.
0.650166 1.75083 0.
-1709.67 -3702.84 0.
-1.26037 -2.6536 0.
-48.9541 -127.985 0.
-9.68219 -26.3462 0.
0.0216613 0.0566063 0.
-59.9572 -109.613 0.
-32.9548 -60.8347 0.
-23.9071 -33.7209 0.
-40.361 -73.6642 0.
-5.67096 -11.906 0.
-18.7436 -33.2214 0.
-12.5651 -17.8004 0.
-18.1126 -28.9213 0.
-444.356 -900.335 0.
-16.8584 -32.5059 0.
-23.7777 -52.4088 0.
-508.533 -1249.11 0.
-132.58 -216.743 0.
-22.582 -22.5691 0.
-459.461 -1119.23 0.
-309.652 -746.358 0.
-325.212 -805.217 0.
-249.96 -621.396 0.
-180.875 -431.406 0.
-282.48 -713.184 0.
-244.89 -618.766 0.
-209.387 -522.262 0.
-274.26 -682.131 0.
-238.426 -586.587 0.
-201.541 -492.095 0.
-180.842 -499.7 0.
-158.935 -425.632 0.
-260.437 -705.017 0.
-350.054 -512.753 0.
-372.309 -580.599 0.
-193.779 -459.25 0.
-233.081 -583.347 0.
-273.491 -706.337 0.
-183.036 -479.154 0.
-238.78 -630.454 0.
-298.413 -777.865 0.
-156.075 -366.074 0.
-250.704 -626.967 0.
-352.664 -880.529 0.
-273.862 -671.414 0.
-484.745 -1225.41 0.
-20.9984 -35.8087 0.
-19.5349 -30.1851 0.
-536.486 -1272.97 0.
-14.3644 -34.0623 0.
-15.9069 -39.5782 0.
-411.547 -839.613 0.
-56.8336 -77.6924 0.
-19.7323 -46.922 0.
-19.4315 -42.4982 0.
-21.9901 -39.9503 0.
-71.1635 -115.172 0.
-12.8192 -25.7723 0.
-25.0323 -52.6345 0.
-39.8342 -84.0531 0.
0.00596372 1.64467 0.
-161.736 -447.952 0.
0.235216 1.17638 0.
0.00535727 0.0420127 0.
-2339.8 -5433.9 0.
-0.00820299 -0.41762 0.
-276.095 -747.574 0.
0.346419 0.755126 0.
2.902 4.09059 0.
-339.171 -838.328 0.
-0.520588 -16.3667 0.
-0.419587 -14.9542 0.
-0.000738446 -6.40533 0.
2.55102 7.01605 0.
-306.483 -844.797 0.
-2518.47 -6402.69 0.
-1.32449 -35.3256 0.
-1885.51 -4623.87 0.
-5.29392 -12.5023 0.
-12.1578 -132.311 0.
-18.2693 -31.2084 0.
-26.3964 -147.35 0.
42.6764 95.8802 0.
25.801 51.7081 0.
-1306.28 -3036.79 0.
6.58092 15.78 0.
-9.07003 -24.0886 0.
-1.60496 -57.9609 0.
31.2468 83.284 0.
-24.4668 -65.6427 0.
-551.515 -1389.84 0.
-6.22821 -15.649 0.
-0.090265 -22.0125 0.
-658.951 -1646.27 0.
0.0996962 7.13601 0.
-0.620859 -5.61616 0.
-1292.82 -2822.76 0.
0.311911 11.3389 0.
1.89948 1.37105 0.
0.606937 1.98174 0.
-0.443083 -0.978552 0.
0.0109552 0.0295465 0.
0.0739963 0.194511 0.
-2.53112 -5.84052 0.
-5.60955 -10.1128 0.
-59.7671 -104.438 0.
-38.8574 -56.5602 0.
-13.5467 -25.5898 0.
-23.9704 -66.1171 0.
-3.75324e-05 -0.0849522 0.
-49.0657 -58.6082 0.
-28.383 -29.6031 0.
-42.5737 -49.4607 0.
-19.668 -37.8024 0.
-22.0762 -50.348 0.
-33.9444 -64.6159 0.
-124.114 -180.253 0.
-14.0765 -16.2602 0.
-18.6272 -19.2162 0.
-232.22 -498.562 0.
-122.56 -200.757 0.
-231.413 -520.502 0.
-159.755 -333.036 0.
-115.242 -207.486 0.
-223.215 -566.701 0.
-187.446 -470.45 0.
-152.399 -373.476 0.
-269.35 -627.603 0.
-236.396 -529.175 0.
-202.715 -431.473 0.
-230.728 -567.809 0.
-205.288 -497.282 0.
-309.926 -680.453 0.
-335.043 -537.727 0.
-356.974 -605.898 0.
-178.833 -419.441 0.
-207.674 -508.083 0.
-246.849 -632.318 0.
-136.931 -310.605 0.
-186.059 -442.882 0.
-243.901 -592.109 0.
-55.4301 -83.9685 0.
-121.704 -249.657 0.
-217.144 -507.176 0.
-12.4807 -29.0775 0.
-199.666 -449.618 0.
-48.8187 -46.964 0.
-30.9882 -33.8368 0.
-31.7047 -41.6319 0.
-11.2426 -28.0437 0.
-17.1466 -40.1896 0.
-64.2176 -84.2052 0.
-109.568 -96.2092 0.
-36.3968 -66.0591 0.
-36.9613 -64.5562 0.
-13.5364 -19.8608 0.
-37.3068 -67.4267 0.
-18.4904 -30.7572 0.
-24.2269 -43.6418 0.
-38.6112 -74.5138 0.
0.0130302 2.12565 0.
-30.998 -85.8591 0.
-0.00101869 -1.71762 0.
1.41434 3.48406 0.
1.40232 3.58183 0.
0.98152 2.5717 0.
-1571.42 -3499.15 0.
-1065.07 -2368.6 0.
0.105202 10.8693 0.
-486.913 -1293.64 0.
1.28014 3.34589 0.
-1624.35 -3839.11 0.
5.41643 15.0022 0.
11.5707 32.0422 0.
23.4316 64.7169 0.
-5.54427 -15.1878 0.
35.5631 95.0713 0.
-1.45558 -66.5574 0.
57.1011 139.797 0.
-55.0694 -126.489 0.
74.1611 118.832 0.
-357.805 -653.4 0.
-804.096 -1657.96 0.
-28.14 -178.842 0.
-96.2361 -231.658 0.
-2.09928 -5.02391 0.
-13.6763 -36.1571 0.
9.71612 25.2222 0.
-15.0371 -40.0606 0.
-808.957 -2168.77 0.
-7.35767 -20.3339 0.
0.87633 2.23 0.
16.6841 45.7933 0.
-700.578 -1782.76 0.
0.0483547 5.15926 0.
-926.971 -1806.93 0.
2.29117 16.6208 0.
11.7752 0.143043 0.
4.92414 6.46986 0.
0.263407 2.60044 0.
0.0809547 0.200149 0.
-1680.67 -2771.29 0.
-71.5566 -138.743 0.
-2386.05 -4469.71 0.
-1.62268 -3.57771 0.
-1689.24 -3633.57 0.
-20.5068 -22.7759 0.
-22.8811 -42.4179 0.
-2134.46 -5352.96 0.
-0.885548 -1.65398 0.
-1968.2 -3471.35 0.
-178.399 -161.129 0.
-13.0901 -29.0299 0.
-1947.33 -4744.67 0.
-242.523 -344.307 0.
-30.2623 -59.3579 0.
-1207.85 -3056.48 0.
-489.142 -1193.11 0.
-27.2009 -61.8483 0.
-889.507 -2216.02 0.
-532.953 -1316.15 0.
-628.346 -1573.37 0.
-451.305 -1146.56 0.
-284.942 -709.077 0.
-468.611 -1215.66 0.
-374.746 -977.118 0.
-284.444 -735.01 0.
-405.081 -1038.44 0.
-344.562 -864.251 0.
-288.281 -685.824 0.
-332.454 -834.472 0.
-300.864 -748.256 0.
-310.651 -793.179 0.
-434.057 -810.397 0.
-469.205 -906.992 0.
-265.013 -648.175 0.
-339.238 -882.021 0.
-418.951 -1110.38 0.
-266.456 -686.669 0.
-388.578 -1016.08 0.
-515.711 -1340.47 0.
-269.697 -661.405 0.
-484.234 -1231.76 0.
-712.675 -1788.2 0.
-528.3 -1328.48 0.
-1005.03 -2551.62 0.
-54.6336 -101.601 0.
-460.38 -1059.73 0.
-1454.77 -3598.43 0.
-61.7692 -95.7355 0.
-19.1308 -50.9112 0.
-2214.25 -5404.46 0.
-53.3352 -64.5771 0.
-51.7361 -65.2444 0.
-2090.36 -3300.1 0.
-8.29743 -5.25446 0.
-2321.55 -5906.02 0.
-3.72395 -5.40498 0.
-44.5165 -122.532 0.
-1923.26 -3777.19 0.
-0.0497779 -1.55512 0.
-1821.39 -3949.98 0.
-0.146361 -4.08036 0.
-0.134999 -5.95996 0.
-0.100394 -2.33075 0.
0.00844924 0.289615 0.
0.115803 4.11197 0.
-243.754 -530.901 0.
-189.884 -517.838 0.
-692.038 -1892.92 0.
6.92472 18.2748 0.
-4.03071 -11.0621 0.
-128.865 -356.899 0.
8.78099 24.1397 0.
17.0759 46.9167 0.
9.52052 25.8148 0.
24.3015 64.4929 0.
-18.8157 -48.9059 0.
-9.38768 -142.181 0.
-574.852 -1328.56 0.
-1431.88 -2307.71 0.
-324.733 -862.712 0.
-2.40557 -96.7192 0.
46.7481 119.866 0.
-135.034 -323.128 0.
64.5716 157.111 0.
-1504.02 -3961.95 0.
0.160975 0.418093 0.
-1540.17 -4102.55 0.
-0.383097 -70.583 0.
-0.208238 -63.3407 0.
-127.421 -327.853 0.
17.0165 46.7281 0.
21.3665 59.1607 0.
-0.14974 -31.2412 0.
-495.115 -1053.82 0.
6.04624 13.893 0.
12.7313 0.420386 0.
7.31597 3.6716 0.
-2233.62 -5450.54 0.
-0.619118 -5.04999 0.
-1.51962 -2.90068 0.
0.56051 1.09349 0.
-128.271 -355.249 0.
-0.0237432 -0.507453 0.
-33.4047 -61.6651 0.
-0.195561 -0.399599 0.
-18.2908 -27.2562 0.
-43.3352 -72.528 0.
-3.13382 -4.14041 0.
-23.4612 -58.1864 0.
-8.15959 -17.1336 0.
-3.3694 -8.43406 0.
-82.0292 -93.8365 0.
-24.3047 -53.3321 0.
-33.3507 -66.8195 0.
-433.691 -1011.83 0.
-21.5186 -47.1083 0.
-33.2366 -75.3138 0.
-533.513 -1309.69 0.
-194.374 -391.587 0.
-411.014 -1029.78 0.
-245.196 -591.506 0.
-99.6182 -191.746 0.
-380.65 -978.522 0.
-290.269 -736.438 0.
-201.487 -492.756 0.
-373.683 -945.206 0.
-313.394 -770.773 0.
-266.594 -613.131 0.
-325.122 -783.834 0.
-293.504 -697.643 0.
-278.124 -705.046 0.
-434.089 -758.181 0.
-472.064 -851.953 0.
-233.7 -551.896 0.
-297.939 -755.902 0.
-377.582 -984.357 0.
-140.995 -353.041 0.
-255.225 -670.834 0.
-377.498 -1000.2 0.
-56.7331 -87.5298 0.
-225.653 -536.834 0.
-439.127 -1108.64 0.
-90.4587 -125.401 0.
-550.055 -1367.13 0.
-49.8127 -85.8117 0.
-46.0391 -76.4748 0.
-350.324 -711.519 0.
-74.6091 -101.786 0.
-25.8418 -67.9668 0.
-16.3267 -43.5805 0.
-273.444 -157.117 0.
-106.133 -88.5259 0.
-166.83 -175.202 0.
-17.9752 -24.405 0.
-72.4153 -123.366 0.
0.445169 0.289105 0.
0.0107817 0.472798 0.
-56.7032 -153.761 0.
-0.026793 -3.4715 0.
1.14657 2.7736 0.
-0.22943 -6.72339 0.
-2076.59 -5071.28 0.
-0.42613 -4.86561 0.
1.54865 3.96408 0.
0.118703 5.53653 0.
-246.74 -560.217 0.
-149.327 -409.036 0.
4.07415 11.2845 0.
-1.38464 -3.67924 0.
4.08592 11.0359 0.
-0.251762 -8.19084 0.
-1264.11 -3439.22 0.
4.46865 12.2083 0.
-74.0681 -198.912 0.
-1.69927 -81.5165 0.
38.9357 100.319 0.
30.8169 72.6963 0.
-1018.25 -2369.13 0.
-400.834 -892.147 0.
32.1779 84.2477 0.
17.4476 43.859 0.
33.6717 86.1954 0.
-168.525 -401.949 0.
5.09434 12.445 0.
20.4919 54.8915 0.
19.8559 54.5227 0.
0.982263 2.65244 0.
-0.222692 -40.1518 0.
18.0054 49.113 0.
-259.881 -675.014 0.
-1147.8 -3153.72 0.
18.3945 50.9272 0.
-0.577032 -32.2944 0.
-487.32 -1118.46 0.
1.26491 18.1334 0.
-1215.09 -3018.08 0.
-119.443 -316.653 0.
-69.5258 -180.054 0.
-0.00566055 -0.99416 0.
-2.09669 -4.99061 0.
1.92979 3.83853 0.
-65.4751 -177.759 0.
0.463065 1.05884 0.
-20.2313 -36.4853 0.
-1148.71 -2610.44 0.
-10.1393 -18.4109 0.
-1552.02 -3995.37 0.
-49.8447 -131.396 0.
-1815.96 -3180.1 0.
-20.8002 -51.8461 0.
-5.31286 -12.4575 0.
-1926.14 -4944.9 0.
-5.25916 -9.31136 0.
-14.4331 -37.0165 0.
-1467.42 -3545.63 0.
-322.957 -666.886 0.
-29.4612 -79.1409 0.
-1067.58 -2661.06 0.
-479.847 -1145.29 0.
-677.074 -1675.35 0.
-415.014 -1025.69 0.
-164.591 -364.383 0.
-520.482 -1302.04 0.
-353.04 -880.46 0.
-190.626 -453.848 0.
-387.741 -956.733 0.
-301.619 -728.581 0.
-221.39 -494.536 0.
-313.12 -686.784 0.
-266.141 -560.542 0.
-350.834 -490.104 0.
-387.959 -615.677 0.
-441.13 -757.909 0.
-183.295 -402.047 0.
-303.333 -752.357 0.
-432.502 -1093.54 0.
-163.026 -384.518 0.
-372.192 -956.439 0.
-592.074 -1517.64 0.
-152.589 -301.183 0.
-456.178 -1096.36 0.
-780.154 -1871.14 0.
-434.636 -1022.82 0.
-1210.02 -3025.3 0.
-41.3767 -69.5218 0.
-117.07 -215.705 0.
-1683.73 -4231.8 0.
-98.7717 -101.416 0.
-5.63955 -14.4512 0.
-1636.95 -3785.01 0.
-89.633 -101.186 0.
-1662.07 -2780.64 0.
-414.298 -1145.34 0.
-54.3013 -116.548 0.
-1093.66 -2765.66 0.
-126.011 -315.762 0.
0.00329066 0.103309 0.
7.40334e-06 0.176289 0.
0.00324345 2.1681 0.
-0.0469584 -1.43906 0.
2.17371 5.58373 0.
3.09541 7.55949 0.
-0.0253483 -0.455602 0.
-1761.59 -3801.27 0.
-934.182 -2104.6 0.
-563.896 -1356.85 0.
-103.028 -283.07 0.
-161.685 -427.438 0.
-19.7263 -52.6646 0.
-10.4866 -27.8386 0.
15.3222 40.8966 0.
27.594 76.0738 0.
-0.451863 -55.7717 0.
-307.03 -817.792 0.
-1.69239 -74.8891 0.
-191.968 -491.598 0.
35.7764 83.3886 0.
-40.7583 -99.6721 0.
-92.0265 -199.233 0.
36.5805 93.1182 0.
-492.496 -1186.55 0.
58.371 148.869 0.
-247.009 -588.512 0.
-10.5835 -27.7712 0.
40.8818 109.612 0.
-0.290889 -65.9861 0.
-1.31457 -93.5222 0.
-0.488868 -86.4586 0.
-182.265 -493.254 0.
-1291.39 -3399.81 0.
-0.017353 -47.3827 0.
-0.0080804 -50.842 0.
-235.043 -625.508 0.
-0.00720725 -2.61589 0.
0.000171751 5.12346 0.
-388.178 -946.691 0.
-73.3315 -197 0.
-73.4711 -201.421 0.
-0.113146 -11.5321 0.
0.952945 2.57156 0.
1.23192 2.60864 0.
-1735.04 -4145.43 0.
-2.96446 -7.5889 0.
-977.754 -2279.23 0.
0.493903 1.01289 0.
-0.11415 -1.32608 0.
-23.2263 -50.7877 0.
-17.7689 -44.6941 0.
-41.4755 -114.859 0.
-19.6662 -53.5835 0.
-3.4721 -9.187 0.
-45.5375 -42.9413 0.
-6.08634 -14.159 0.
-17.51 -47.2274 0.
-167.92 -260.587 0.
-15.5869 -37.9239 0.
-21.8914 -59.3192 0.
-540.114 -1312.15 0.
-36.8034 -53.6997 0.
-380.676 -933.457 0.
-130.931 -270.988 0.
-25.1193 -52.6862 0.
-353.753 -912.386 0.
-191.978 -484.964 0.
-62.8682 -135.982 0.
-311.329 -747.259 0.
-226.603 -517.664 0.
-152.291 -314.387 0.
-278.192 -542.564 0.
-246.994 -461.782 0.
-185.032 -326.908 0.
-332.482 -509.081 0.
-362.644 -587.341 0.
-116.904 -248.867 0.
-202.358 -471.235 0.
-328.495 -815.542 0.
-26.5806 -68.1306 0.
-172.595 -425.904 0.
-381.995 -997.886 0.
-40.3573 -59.145 0.
-63.5673 -78.9574 0.
-385.863 -856.227 0.
-34.966 -42.541 0.
-513.587 -1267.89 0.
-34.0495 -67.6003 0.
-27.1435 -50.7925 0.
-98.9874 -197.006 0.
-16.7036 -46.1766 0.
-4.29253 -11.5149 0.
-5.07418 -13.5726 0.
-4.16573 -6.01824 0.
-303.57 -838.935 0.
0.217958 0.0916589 0.
0.155485 0.350068 0.
-8.88898 -18.0256 0.
-0.0296799 -1.8931 0.
-2446.17 -5982.53 0.
1.42461 3.87756 0.
1.0143 2.67712 0.
-1794.84 -4115.75 0.
-0.201448 -6.33107 0.
-0.140183 -2.56645 0.
-0.00033777 -0.00875358 0.
-0.688809 -5.83428 0.
-1.43034 -3.43256 0.
-0.938557 -31.6846 0.
-57.7478 -159.052 0.
-268.436 -711.696 0.
-34.9252 -93.6023 0.
-327.15 -855.001 0.
-0.578456 -70.2749 0.
-0.209214 -71.0916 0.
-16.6451 -45.7079 0.
-1369.11 -3626.46 0.
-314.394 -824.777 0.
-943.884 -2407.98 0.
-11.8894 -31.6932 0.
-16.7897 -41.3086 0.
40.8879 86.0525 0.
-3.44743 -66.6991 0.
-220.808 -502.457 0.
-6.86373 -175.089 0.
-718.938 -1716.45 0.
-58.2586 -152.694 0.
-92.8152 -249.257 0.
18.3134 49.3205 0.
-92.5277 -246.414 0.
18.8118 50.0534 0.
-529.644 -1423.34 0.
11.1503 30.8362 0.
-12.323 -34.042 0.
22.4524 62.1693 0.
-658.907 -1759.44 0.
10.2786 28.3401 0.
-215.259 -578.164 0.
-296.492 -737.505 0.
-37.1132 -100.525 0.
-94.1433 -260.64 0.
3.97886 11.0168 0.
-1766.25 -3919.49 0.
1.84244 4.25465 0.
-32.7685 -83.312 0.
0.396997 1.06173 0.
0.951783 2.63592 0.
0.16407 0.38444 0.
0.75287 1.95682 0.
-0.829048 -1.69012 0.
-5.0336 -12.4399 0.
-14.209 -39.0283 0.
-25.9557 -60.1743 0.
-4.24892 -8.58024 0.
-7.72634 -12.502 0.
-10.6271 -16.1981 0.
-23.6859 -54.4226 0.
-0.95455 -2.23204 0.
-9.86292 -24.3478 0.
-19.4106 -52.2917 0.
-47.8297 -88.846 0.
-42.948 -67.7977 0.
-114.386 -161.456 0.
-42.2425 -40.7437 0.
-44.4203 -57.3124 0.
-201.305 -508.448 0.
-66.0904 -134.761 0.
-25.0606 -41.7983 0.
-248.715 -569.61 0.
-183.726 -391.239 0.
-120.135 -215.773 0.
-291.871 -524.347 0.
-265.914 -460.566 0.
-125.325 -206.765 0.
-329.219 -514.497 0.
-344.878 -550.392 0.
-80.7479 -124.161 0.
-140.486 -286.236 0.
-248.712 -578.632 0.
-37.2904 -72.7402 0.
-41.3843 -75.7597 0.
-188.332 -461.714 0.
-49.1383 -60.9247 0.
-43.3441 -39.5901 0.
-36.6004 -34.8408 0.
-39.4681 -41.3005 0.
-59.9472 -70.3351 0.
-27.8404 -65.6458 0.
-22.2644 -50.7668 0.
-22.9727 -46.1662 0.
-11.075 -30.5218 0.
-2.94455 -8.02455 0.
-3.89197 -9.85499 0.
0.209717 0.233583 0.
-4.06455 -4.44605 0.
-0.0279976 -0.249934 0.
-4.07601e-05 -0.809096 0.
-0.140214 -0.357613 0.
0.956618 2.6308 0.
-64.5531 -172.566 0.
-0.0243218 -4.41556 0.
-0.0355498 -2.06314 0.
3.97156 10.7795 0.
-0.261932 -6.508 0.
-1332.5 -3097.26 0.
3.39721 8.80453 0.
9.21929 25.4978 0.
-4.18546 -10.4596 0.
-446.501 -1221.84 0.
-1.95719 -5.3997 0.
-556.295 -1476.55 0.
21.5259 58.5028 0.
-1073.16 -2768.63 0.
15.3695 41.8625 0.
-0.320015 -86.1989 0.
-20.2861 -55.7592 0.
39.9636 108.418 0.
9.32753 25.6113 0.
-29.5603 -73.6282 0.
-578.985 -1540.06 0.
-338.525 -837.114 0.
38.2747 78.5863 0.
35.962 84.9181 0.
-10.3915 -53.4228 0.
60.0278 150.522 0.
52.0746 124.794 0.
5.50534 14.4085 0.
-124.628 -335.459 0.
30.1037 81.2994 0.
-195.829 -519.45 0.
-186.132 -496.941 0.
-703.216 -1878.6 0.
-13.9588 -38.6261 0.
-117.437 -323.877 0.
-778.372 -2132.4 0.
22.2463 61.599 0.
12.0611 33.3153 0.
-538.548 -1442.2 0.
4.60868 12.7222 0.
-8.0382 -21.88 0.
-1052.16 -2620.06 0.
-0.00502128 -7.53993 0.
-89.3661 -211.17 0.
-0.653773 -1.61314 0.
-0.525029 -1.36239 0.
0.867449 2.37118 0.
0.62726 1.70705 0.
-1533.65 -3357.28 0.
0.0359966 0.0962637 0.
-1504.24 -3422.85 0.
-35.086 -93.0168 0.
-8.02179 -21.6923 0.
-2023.17 -4440.66 0.
-24.7322 -57.789 0.
-1399.68 -3133.61 0.
-36.9006 -72.5781 0.
-35.6533 -69.9204 0.
-1548.75 -3860.72 0.
-0.000710137 -0.0166208 0.
0.09847 0.0900293 0.
-1308.42 -3293.08 0.
-242.981 -493.029 0.
-902.858 -2139.63 0.
-477.42 -1087.6 0.
-93.0711 -127.746 0.
-700.388 -1825.91 0.
-408.124 -1066.2 0.
-127.644 -298.525 0.
-523.944 -1336.72 0.
-362.1 -897.693 0.
-201.227 -457.7 0.
-423.399 -936.965 0.
-394.925 -849.85 0.
-229.462 -511.29 0.
-452.579 -890.393 0.
-522.959 -1090.04 0.
-164.596 -368.173 0.
-368.611 -952.668 0.
-578.992 -1530.8 0.
-58.5135 -102.273 0.
-433.007 -1105.46 0.
-824.932 -2127.51 0.
-61.9747 -78.0613 0.
-495.009 -1028.99 0.
-1035.54 -2325.53 0.
-120.552 -175.4 0.
-1443.19 -3677.49 0.
-8.7703 -15.4073 0.
-16.6279 -35.7579 0.
-1823.46 -4638.27 0.
-24.291 -48.7017 0.
-27.5856 -56.608 0.
-1854.2 -2946.24 0.
-4.22887 -11.3695 0.
-1879.66 -4642.52 0.
-23.4806 -59.8573 0.
-96.0753 -213.517 0.
-1797.26 -3484.96 0.
0.218114 0.592395 0.
-1172.65 -3188.03 0.
-0.0011814 -0.275684 0.
-0.0820485 -5.84443 0.
0.00292369 0.834941 0.
2.69105 6.99276 0.
5.28605 14.4249 0.
-1107.22 -2648.32 0.
7.43743 20.5991 0.
-3.84888 -9.87965 0.
-392.009 -1075.12 0.
-0.0272737 -24.5456 0.
-631.166 -1676.63 0.
-13.1309 -35.8838 0.
2.91131 8.03979 0.
-63.7373 -174.067 0.
11.4116 31.3018 0.
-7.86532 -21.6363 0.
-85.249 -231.586 0.
14.4514 39.7135 0.
-31.7112 -79.6224 0.
-2.446 -6.4859 0.
-1188.47 -2949.7 0.
18.6581 37.5515 0.
-22.6925 -49.9757 0.
-14.3588 -25.5704 0.
-43.1784 -106.736 0.
7.03936 19.1135 0.
20.82 54.3977 0.
-249.365 -673.212 0.
28.8502 78.1159 0.
-854.733 -2264.72 0.
-868.291 -2326.41 0.
-10.2288 -27.5419 0.
19.0924 52.8546 0.
-329.312 -907.192 0.
-1250.35 -3433.79 0.
-0.000405629 -42.538 0.
-2.07492 -5.74715 0.
-866.494 -2317.51 0.
13.9264 38.4142 0.
-835.911 -2160.54 0.
-0.0658802 -9.98748 0.
5.61876 15.5159 0.
9.32767 24.946 0.
-0.21395 -7.02157 0.
1.29315 3.40641 0.
-1635.46 -4015.27 0.
1.7123 4.73271 0.
0.89377 2.30715 0.
0.599812 1.64155 0.
-42.7405 -117.18 0.
-6.47334 -17.9117 0.
0.000479667 0.137999 0.
-17.3089 -47.1332 0.
-10.287 -28.3468 0.
-50.2643 -99.1318 0.
-35.0595 -67.8937 0.
-34.8418 -67.5622 0.
-19.7783 -45.557 0.
-20.2001 -39.7421 0.
-20.155 -34.7989 0.
-383.132 -898.125 0.
-44.8763 -79.486 0.
-397.938 -874.795 0.
-55.6365 -79.9041 0.
-49.7942 -65.5371 0.
-409.597 -1059.1 0.
-127.344 -288.791 0.
-51.0891 -88.7672 0.
-390.79 -981.127 0.
-237.704 -559.222 0.
-122.524 -240.068 0.
-353.649 -747.015 0.
-324.285 -655.613 0.
-62.0898 -62.2878 0.
-365.971 -657.78 0.
-432.855 -844.595 0.
-56.3315 -96.7714 0.
-186.35 -465.846 0.
-392.91 -1048.07 0.
-37.9428 -59.4307 0.
-46.4753 -58.2671 0.
-427.334 -1079.36 0.
-44.408 -38.7027 0.
-45.3708 -41.636 0.
-337.018 -629.406 0.
-63.7164 -60.0695 0.
-325.803 -703.467 0.
-16.1033 -24.1451 0.
-25.2166 -44.5709 0.
-35.2479 -67.5014 0.
-24.5607 -40.3795 0.
-33.7801 -62.5944 0.
-50.5555 -109.269 0.
-7.41145e-05 -1.6258 0.
-78.8168 -208.918 0.
-8.8483 -21.9759 0.
-4.77886 -10.7583 0.
-0.335993 -0.661693 0.
-6.28222 -17.3993 0.
-125.538 -334.958 0.
0.000651375 1.22541 0.
-1551.03 -3949.15 0.
4.44664 12.2759 0.
-0.241241 -12.5092 0.
3.17287 8.71492 0.
6.99236 17.3558 0.
-326.349 -872.18 0.
1.38709 3.62699 0.
-372.203 -1022.16 0.
10.804 29.8341 0.
-440.207 -1169.86 0.
-0.304882 -80.0183 0.
5.69776 15.7526 0.
-853.302 -2335.88 0.
-250.511 -687.244 0.
-13.043 -35.904 0.
-459.194 -1250 0.
-0.448215 -141.063 0.
-58.8266 -148.629 0.
-8.62251 -22.7671 0.
1.4854 4.07492 0.
-175.705 -347.986 0.
-2.07269 -19.5695 0.
23.3612 45.95 0.
19.6962 54.1347 0.
5.52721 14.9973 0.
-9.62413 -25.0982 0.
-398.124 -1078.43 0.
50.3508 136.661 0.
-1013.7 -2686.05 0.
16.7387 46.0224 0.
-0.945171 -89.3941 0.
-0.526911 -1.4591 0.
-423.502 -1165.86 0.
27.7926 76.9518 0.
9.48496 26.2701 0.
-110.085 -304.868 0.
13.8209 37.6906 0.
1.31681 3.62889 0.
-317.614 -834.822 0.
13.1102 35.9972 0.
7.03101 19.3839 0.
-0.107264 -25.3495 0.
-1313.84 -3161.98 0.
1.74386 4.7523 0.
-0.797672 -2.16495 0.
0.108286 0.299846 0.
0.240043 0.638313 0.
-0.00315061 -2.54405 0.
-21.4641 -59.3408 0.
0.173521 0.473744 0.
-183.481 -493.869 0.
-1453.65 -3898.55 0.
-22.3107 -56.6783 0.
-1580.87 -2560.67 0.
-19.1125 -43.2694 0.
-13.6215 -16.9868 0.
-1514.61 -3801 0.
-18.3596 -40.4844 0.
-22.4252 -57.293 0.
-1322.19 -3402.7 0.
-21.8066 -24.0076 0.
-976.343 -2190.68 0.
-416.698 -872.246 0.
-34.8075 -37.7845 0.
-825.708 -2102.57 0.
-377.158 -938.444 0.
-22.3969 -38.3804 0.
-565.161 -1435.98 0.
-345.84 -862.104 0.
-133.177 -281.565 0.
-420.784 -996.199 0.
-360.42 -823.286 0.
-105.22 -244.317 0.
-404.269 -816.937 0.
-538.537 -1167.54 0.
-61.2749 -104.222 0.
-338.839 -892.072 0.
-631.516 -1670.07 0.
-36.5851 -41.1498 0.
-362.27 -898.904 0.
-959.908 -2452.54 0.
-39.461 -37.2873 0.
-383.63 -747.404 0.
-1064.64 -2345.79 0.
-45.0689 -43.1308 0.
-1543.33 -3559.16 0.
-31.2075 -59.3492 0.
-24.5692 -48.05 0.
-1715.12 -4587.73 0.
-36.0301 -57.2131 0.
-54.1509 -94.3443 0.
-1469.28 -2880.36 0.
0.493649 1.27488 0.
-1068.25 -2746.85 0.
-1.56477 -3.80457 0.
1.17885 2.60647 0.
0.266307 0.528635 0.
-24.5953 -64.6793 0.
-75.2848 -188.576 0.
5.44416 15.0271 0.
-0.114811 -5.86536 0.
-0.361846 -0.948426 0.
-891.673 -2068.9 0.
-0.0414619 -19.8556 0.
-0.600687 -15.5593 0.
-399.903 -1083.6 0.
0.0755979 4.37671 0.
-176.416 -484.969 0.
-2.73253 -7.55741 0.
-285.754 -759.401 0.
-6.15368 -16.9476 0.
10.4578 28.938 0.
-7.53796 -20.8649 0.
-1167.98 -3206.83 0.
-34.957 -96.2859 0.
-775.897 -2116.84 0.
-0.444164 -136.921 0.
-826.077 -2097.21 0.
-4.83172 -12.6905 0.
26.2139 71.8677 0.
49.398 112.016 0.
35.6597 71.8228 0.
28.7785 55.343 0.
16.968 45.9203 0.
-4.93858 -13.388 0.
-708.632 -1844.78 0.
31.55 86.9359 0.
-31.7959 -86.4998 0.
-0.953057 -116.478 0.
-0.195073 -105.465 0.
17.5204 47.4737 0.
21.2206 58.7732 0.
-969.377 -2669.03 0.
16.0824 44.4993 0.
4.03724 11.178 0.
-199.023 -550.922 0.
-0.27638 -35.7228 0.
-8.07838 -22.1673 0.
-196.313 -522.115 0.
-0.0251354 -13.1295 0.
-1073.84 -2841.85 0.
-0.0484381 -17.2745 0.
-86.5274 -220.547 0.
6.30162 17.382 0.
0.691842 1.90009 0.
0.77706 2.14438 0.
-1582.62 -3962.1 0.
-0.0101793 -3.45565 0.
-1465 -3010.14 0.
0.46114 1.26818 0.
0.546927 1.5102 0.
-61.5408 -170.282 0.
-14.026 -38.8415 0.
-13.3373 -36.9409 0.
-2.77227 -6.06627 0.
-0.0416536 -0.292971 0.
-16.784 -33.7837 0.
-13.2295 -33.8903 0.
-20.5441 -56.9018 0.
-195.803 -357.418 0.
-25.0929 -26.8176 0.
-236.386 -453.823 0.
-23.3755 -16.92 0.
-29.1655 -40.263 0.
-391.668 -973.165 0.
-24.7887 -40.5241 0.
-18.0658 -31.4439 0.
-326.397 -838.376 0.
-128.252 -292.854 0.
-33.1504 -35.0332 0.
-248.581 -556.503 0.
-194.184 -422.47 0.
-73.4084 -52.1085 0.
-209.333 -368.384 0.
-310.435 -649.081 0.
-25.6027 -41.4304 0.
-74.9941 -145.95 0.
-323.985 -842.495 0.
-24.7148 -36.2081 0.
-25.2754 -40.6536 0.
-341.925 -881.507 0.
-27.2654 -32.7765 0.
-23.2766 -24.4156 0.
-162.388 -294.145 0.
-41.102 -31.9394 0.
-40.3283 -52.04 0.
-17.5853 -41.9407 0.
-12.0185 -29.6322 0.
-34.9127 -95.1843 0.
-31.1855 -43.1047 0.
-38.1437 -66.7486 0.
-65.3586 -136.355 0.
0.204274 0.4659 0.
-16.845 -42.7183 0.
-28.4197 -73.9588 0.
-1389.95 -3068.35 0.
0.121937 1.62565 0.
-686.126 -1385.05 0.
-99.4203 -227.839 0.
0.00395461 1.64773 0.
3.66918 9.88471 0.
2.61553 7.03271 0.
-88.9007 -216.933 0.
-327.546 -829.171 0.
-0.433649 -38.9762 0.
-298.316 -815.694 0.
8.26399 22.8753 0.
-327.725 -901.61 0.
26.7968 74.1849 0.
7.19627 19.8404 0.
-190.126 -524.977 0.
-13.816 -38.2542 0.
7.39137 20.4678 0.
-112.025 -307.767 0.
-155.622 -428.899 0.
-523.217 -1430.68 0.
8.25946 22.6893 0.
-24.3506 -66.0588 0.
54.9658 143.46 0.
-4.05954 -11.1175 0.
28.6556 63.0056 0.
-9.02885 -39.0355 0.
27.935 52.3617 0.
12.0098 31.7465 0.
23.2677 62.9854 0.
-350.477 -910.142 0.
45.2579 124.667 0.
-414.838 -1130.97 0.
38.4559 106.151 0.
31.4868 87.0094 0.
1.45819 4.03889 0.
27.529 76.2504 0.
-405.798 -1118.69 0.
18.6408 51.5276 0.
-171.182 -472.434 0.
-790.348 -2186.11 0.
-1.09499 -2.97004 0.
-1.19704 -3.29684 0.
-0.0472496 -44.8646 0.
8.33665 23.0367 0.
-0.990475 -2.6444 0.
2.40025 6.61889 0.
4.98966 13.071 0.
-0.000466779 -1.61602 0.
-858.779 -1900.43 0.
0.951708 2.53868 0.
1.04459 2.84684 0.
-3.05952e-07 -7.45468 0.
-0.0855469 -0.231249 0.
0.184987 0.511453 0.
0.139604 0.383691 0.
-36.4429 -98.9625 0.
-7.52417 -19.0712 0.
-1.07952 -2.5597 0.
0.00517608 0.51188 0.
0.204414 0.545502 0.
-24.702 -45.8433 0.
-30.6566 -55.0603 0.
-46.0417 -74.0384 0.
-23.6999 -38.5226 0.
-29.308 -29.1294 0.
-18.6265 -12.27 0.
-20.0401 -17.0267 0.
-25.1798 -40.6891 0.
-37.6471 -57.0846 0.
-30.2298 -42.4929 0.
-26.5317 -38.355 0.
-141.232 -328.031 0.
-21.1987 -25.0513 0.
-33.7531 -29.8994 0.
-165.347 -337.683 0.
-124.982 -235.339 0.
-9.84115 -13.8505 0.
-100.009 -99.5827 0.
-164.173 -281.16 0.
-41.1371 -48.5641 0.
-40.1185 -44.5289 0.
-107.328 -196.522 0.
-18.2917 -25.6258 0.
-19.7663 -29.2508 0.
-21.1365 -36.5828 0.
-28.7803 -30.6863 0.
-24.8329 -27.0801 0.
-50.8717 -80.6578 0.
-44.3946 -29.943 0.
-54.8558 -55.1466 0.
-8.00268 -20.5339 0.
-6.77827 -16.7106 0.
-24.9779 -63.1552 0.
-30.7065 -38.7843 0.
-38.5012 -58.2246 0.
-57.3975 -126.05 0.
0.501355 1.02129 0.
-15.9616 -37.412 0.
0.731884 1.81778 0.
-85.3863 -140.533 0.
0.0750392 9.0906 0.
0.406981 1.94358 0.
5.21139 7.17509 0.
-1096.23 -2764.7 0.
3.53316 9.60912 0.
-0.0607872 -9.0358 0.
-0.106143 -31.4779 0.
-382.069 -986.947 0.
11.024 29.6737 0.
-70.7017 -194.455 0.
12.0104 33.2242 0.
-136.939 -377.003 0.
12.3064 34.0851 0.
-167.609 -462.993 0.
-357.244 -988.167 0.
-278.752 -769.29 0.
6.10226 16.9016 0.
-18.0039 -49.8492 0.
-555.247 -1531.32 0.
32.6753 90.4938 0.
-11.2344 -30.8331 0.
6.95089 18.8695 0.
-625.404 -1620.37 0.
33.2074 90.7954 0.
-6.12547 -13.0586 0.
-15.4835 -51.7869 0.
-77.67 -141.127 0.
-3.77286 -111.548 0.
-299.076 -807.702 0.
-16.3496 -42.3467 0.
40.1584 110.552 0.
-256.222 -699.93 0.
-12.6571 -34.93 0.
-136.145 -376.744 0.
-11.9393 -33.0687 0.
-291.781 -808.179 0.
-22.0259 -60.6598 0.
-2.52768 -6.97773 0.
-212.246 -585.791 0.
-5.28249 -14.5138 0.
-10.3911 -28.3546 0.
-50.1073 -138.37 0.
-0.0796075 -39.7412 0.
-448.262 -1219.55 0.
9.81727 27.169 0.
4.34303 11.9946 0.
5.41756 14.4305 0.
-633.835 -1659.42 0.
-1.9383 -4.46909 0.
6.95388 18.7619 0.
1.61022 4.44204 0.
3.15428 8.70013 0.
-0.0301705 -1.40669 0.
-1097.69 -2541.29 0.
0.17778 0.476972 0.
-1262.88 -2735.69 0.
-99.1702 -274.65 0.
-1335.92 -2572.27 0.
-35.466 -97.3091 0.
-12.2509 -31.8079 0.
-1447.47 -3766.51 0.
-44.2126 -96.4731 0.
-61.7026 -69.4305 0.
-1307.59 -3006.24 0.
-63.8319 -56.3985 0.
-1052.61 -2436.36 0.
-330.72 -713.218 0.
-38.0855 -42.7366 0.
-1008.22 -2595.85 0.
-256.599 -618.678 0.
-27.6407 -22.6613 0.
-697.766 -1834.49 0.
-346.528 -890.367 0.
-34.6503 -21.5131 0.
-508.924 -1279.62 0.
-437.339 -1101.57 0.
-113.749 -135.485 0.
-394.525 -948.896 0.
-614.603 -1552.06 0.
-46.9589 -72.8661 0.
-314.398 -785.932 0.
-821.146 -2111.57 0.
-18.8781 -36.723 0.
-220.581 -558.409 0.
-1139.9 -3023.76 0.
-28.8657 -43.6433 0.
-310.588 -586.395 0.
-1079.5 -2341.1 0.
-36.5005 -29.3726 0.
-1381.66 -3452.23 0.
0.171369 0.00859811 0.
-20.7601 -55.7969 0.
-1128.63 -2823.12 0.
-12.6889 -11.7897 0.
-1669.86 -3802.59 0.
-0.136293 -0.380516 0.
0.49771 0.777752 0.
-1268.68 -3010.87 0.
-404.886 -713.822 0.
-0.313015 -1.80565 0.
-0.001417 -3.15097 0.
-1.01041 -8.93324 0.
0.0692445 16.5759 0.
3.58934 9.83257 0.
7.49694 20.4388 0.
6.67135 18.3074 0.
5.81294 16.031 0.
-391.091 -1026.02 0.
8.86872 24.5583 0.
-47.1932 -130.244 0.
-14.2641 -39.4237 0.
-25.721 -71.1949 0.
14.7907 40.9647 0.
-165.885 -458.385 0.
-655.112 -1802.35 0.
-200.903 -554.68 0.
-439.785 -1218.11 0.
-0.0247305 -99.4915 0.
-923.641 -2548.9 0.
-0.00523389 -106.425 0.
-1321.88 -3620.17 0.
-3.65232 -9.91775 0.
-17.6261 -45.2512 0.
-168.131 -458.426 0.
-491.84 -1016.11 0.
-11.4042 -51.7215 0.
-460.703 -803.062 0.
22.3551 55.2336 0.
-185.353 -498.917 0.
12.576 34.1947 0.
15.8871 43.6943 0.
7.33298 20.071 0.
30.0545 82.9291 0.
-915.754 -2536.13 0.
-67.9916 -188.309 0.
-714.783 -1979.77 0.
-2.41856 -6.65654 0.
-29.1102 -80.2219 0.
-275.369 -760 0.
13.3619 36.7137 0.
-33.2733 -90.7455 0.
-637.204 -1763 0.
7.8702 21.6391 0.
-406.107 -1109.29 0.
-0.00383649 -43.7024 0.
12.3779 34.2187 0.
-74.3393 -202.245 0.
-315.214 -852.344 0.
-0.00744755 -6.78763 0.
-0.0295053 -3.39942 0.
3.94969 10.3783 0.
-1338.11 -3294.03 0.
-0.00720403 -13.0027 0.
1.25219 2.85508 0.
-0.0294551 -1.40102 0.
-25.6711 -70.7184 0.
-19.4723 -53.7303 0.
-20.5808 -55.0263 0.
-29.1795 -75.2574 0.
-4.47249 -9.63695 0.
-61.8191 -130.11 0.
-43.3905 -78.6155 0.
-25.0565 -29.0659 0.
-69.7206 -63.5408 0.
-60.2226 -55.1921 0.
-86.6718 -112.871 0.
-49.9032 -47.3549 0.
-28.9982 -40.3996 0.
-192.648 -460.863 0.
-33.7963 -39.7676 0.
-18.431 -20.1537 0.
-288.221 -713.325 0.
-34.9701 -18.9784 0.
-39.9908 -23.677 0.
-251.53 -567.11 0.
-184.514 -384.364 0.
-22.9919 -28.0937 0.
-91.3228 -131.456 0.
-261.421 -611.867 0.
-46.0664 -53.6936 0.
-43.9871 -53.5786 0.
-198.648 -419.142 0.
-10.5879 -10.8842 0.
-20.883 -36.9901 0.
-186.807 -474.25 0.
-30.849 -41.2634 0.
-26.2465 -29.6139 0.
-22.7834 -24.7063 0.
-19.8546 -13.6477 0.
-17.2054 -9.88801 0.
0.049109 0.146072 0.
0.00130401 0.100736 0.
-27.7377 -69.572 0.
0.0117165 0.000920881 0.
0.423637 0.00781032 0.
0.446946 2.25989 0.
3.24563 0.816471 0.
-33.252 -91.1046 0.
-188.117 -399.218 0.
-1083.82 -2161.26 0.
5.49888 14.9463 0.
-0.515655 -6.72183 0.
-0.614622 -24.1871 0.
3.93429 10.8962 0.
-6.55076 -17.8344 0.
-559.669 -1477.56 0.
-0.0190332 -19.0934 0.
-347.451 -922.232 0.
-10.6345 -29.4556 0.
-208.143 -575.583 0.
18.0737 49.8979 0.
-8.68472 -24.0413 0.
-250.384 -693.098 0.
-147.304 -407.137 0.
2.7536 7.5823 0.
-118.146 -326.305 0.
-662.773 -1835.45 0.
32.5504 90.08 0.
-372.399 -1030.36 0.
-94.8572 -262.702 0.
-0.708566 -1.93719 0.
33.0162 89.646 0.
15.8624 42.9286 0.
-779.413 -2115.58 0.
-519.154 -1041.88 0.
-13.7801 -58.9809 0.
-1495.5 -3139.78 0.
-149.561 -354.737 0.
-0.00206422 -65.1222 0.
17.364 47.0517 0.
-484.852 -1331.96 0.
-0.480173 -115.868 0.
-159.682 -440.61 0.
-10.2069 -28.0284 0.
-727.736 -2015.17 0.
-457.577 -1253.64 0.
-26.3563 -72.4967 0.
0.402619 1.10216 0.
-267.63 -738.606 0.
14.0144 38.5053 0.
-27.07 -73.7733 0.
18.669 49.6731 0.
11.1818 30.9673 0.
-292.749 -802.306 0.
8.06384 22.3353 0.
-624.004 -1687.7 0.
-37.3655 -101.549 0.
-71.7824 -197.27 0.
-0.096247 -17.4394 0.
-971.687 -2559.88 0.
-0.258765 -28.6863 0.
-0.141537 -6.58469 0.
8.40785 23.0206 0.
-0.21471 -2.41578 0.
-0.122303 -4.63958 0.
-1.83847 -5.08812 0.
0.0575544 0.158094 0.
0.44363 1.1756 0.
-1412.81 -3714.83 0.
0.453639 1.02964 0.
-838.449 -1550.46 0.
-40.2543 -70.2943 0.
-119.351 -236.365 0.
-1119.18 -2864.7 0.
-59.8634 -54.5658 0.
-936.978 -2035.15 0.
-222.066 -419.97 0.
-8.80249 -7.70054 0.
-1044.66 -2799.16 0.
-104.503 -236.708 0.
-24.6439 -28.6941 0.
-842.691 -2163.79 0.
-300.397 -745.842 0.
-18.9629 -14.3553 0.
-565.305 -1431.82 0.
-488.388 -1252.83 0.
-30.9308 -19.9234 0.
-363.955 -930.414 0.
-706.268 -1856.87 0.
-42.2736 -48.5812 0.
-237.085 -567.785 0.
-958.078 -2484.25 0.
-26.438 -50.6947 0.
-22.4915 -39.7571 0.
-988.344 -2505.53 0.
-87.651 -160.642 0.
-1280.5 -2705.07 0.
-7.66246 -5.5201 0.
-21.5253 -38.1405 0.
-1185.04 -3139.81 0.
-21.0727 -57.9188 0.
-22.4554 -60.3236 0.
-1113.44 -2773.93 0.
-55.3242 -121.816 0.
0.384133 0.142433 0.
-0.0467644 -0.726533 0.
2.50031 1.62102 0.
0.0424761 4.44098 0.
-38.7915 -97.8595 0.
-325.977 -759.4 0.
-0.00168282 -17.7476 0.
-428.332 -1143.85 0.
-135.16 -372.956 0.
4.71216 12.93 0.
-2.55465 -6.94582 0.
-268.338 -708.794 0.
-103.347 -284.139 0.
-428.077 -1146.59 0.
-12.1601 -33.6743 0.
-289.757 -794.723 0.
-236.582 -652.229 0.
-34.4183 -95.2855 0.
-103.65 -286.641 0.
-121.501 -335.878 0.
-0.409727 -83.8103 0.
-345.733 -955.095 0.
17.7848 48.8717 0.
-88.8508 -245.803 0.
12.6951 34.9055 0.
-0.00608481 -101.147 0.
1.36683 3.78522 0.
-52.1805 -141.643 0.
23.883 64.4893 0.
-560.302 -1551.42 0.
0.0608947 9.62373 0.
-4.38375 -9.49818 0.
12.9237 34.6925 0.
-7.21785 -18.5657 0.
18.4674 51.0256 0.
-27.6311 -74.5639 0.
-281.369 -771.79 0.
5.74139 15.7476 0.
-718.27 -1982.27 0.
-14.5311 -39.8731 0.
-193.857 -536.803 0.
-390.122 -1067.9 0.
-212.719 -584.795 0.
1.12685 3.08396 0.
-362.715 -993.916 0.
-9.22863 -25.3736 0.
-60.6377 -165.09 0.
26.7258 71.0508 0.
-14.0053 -38.7728 0.
-3.1579 -8.65295 0.
-75.0617 -207.318 0.
-86.0615 -232.449 0.
-2.87029 -7.79268 0.
5.22637 14.4574 0.
2.89456 7.99726 0.
-159.006 -428.082 0.
7.14443 19.678 0.
-0.0566694 -6.70597 0.
-0.19908 -22.7027 0.
-0.442654 -5.10645 0.
-9.88756 -22.753 0.
-1133.64 -2773.72 0.
-49.5663 -136.094 0.
-0.0513126 -1.57568 0.
-57.7829 -150.357 0.
-0.118181 -1.19108 0.
-7.59339 -16.2572 0.
-18.8779 -30.1104 0.
-38.2355 -70.1991 0.
-50.1199 -99.2636 0.
-6.15006 -6.42957 0.
-49.7292 -22.8561 0.
-38.7777 -17.5905 0.
-26.4899 -16.4822 0.
-162.239 -397.797 0.
-24.432 -21.0763 0.
-20.8874 -25.5046 0.
-110.581 -219.911 0.
-27.7626 -18.7793 0.
-14.8091 -12.831 0.
-88.6704 -186.352 0.
-31.5976 -21.189 0.
-27.6909 -16.1269 0.
-32.2408 -23.5056 0.
-88.9117 -172.077 0.
-25.3919 -21.6596 0.
-25.3201 -23.8507 0.
-55.8064 -107.227 0.
-18.6649 -21.3228 0.
-16.6473 -15.2749 0.
-19.499 -23.6826 0.
-19.8959 -7.72726 0.
-197.389 -427.584 0.
-0.130085 -0.00714711 0.
0.0356678 0.00015603 0.
-10.2866 -24.7446 0.
-8.58837 -21.6258 0.
-11.9633 -33.0183 0.
-36.8638 -97.9762 0.
-5.01476 -13.5075 0.
-1239.79 -3101.21 0.
-1.50635 -3.79933 0.
-26.0475 -58.3874 0.
-877.277 -1863.3 0.
-0.00559662 -2.67636 0.
-201.638 -515.665 0.
3.17901 8.76547 0.
-378.413 -1033.11 0.
-3.81977 -10.5747 0.
-600.736 -1658.21 0.
13.8461 37.5896 0.
-210.864 -556.76 0.
-84.5335 -233.319 0.
-94.75 -260.456 0.
-46.8957 -129.785 0.
-186.492 -511.141 0.
-153.393 -422.245 0.
-14.9689 -41.4441 0.
26.3365 72.6699 0.
-831.653 -2299.41 0.
-0.439449 -81.1714 0.
20.5712 56.8436 0.
24.5787 67.506 0.
-690.951 -1910.6 0.
14.5442 39.9675 0.
31.1617 86.2974 0.
32.8516 90.9717 0.
-246.31 -668.352 0.
-207.335 -558.539 0.
18.7655 51.6263 0.
-0.00919162 -33.5583 0.
-19.1978 -39.9248 0.
-0.812643 -35.3067 0.
-12.7202 -31.8627 0.
18.9884 52.1377 0.
-847.239 -2274.09 0.
-0.633498 -120.439 0.
-0.460686 -114.469 0.
-25.2682 -69.7209 0.
22.154 60.7447 0.
-248.094 -686.889 0.
-83.3237 -228.132 0.
-409.28 -1124.48 0.
-14.2246 -38.9212 0.
14.6625 40.1497 0.
-35.1519 -96.5636 0.
-233.603 -635.117 0.
-0.804784 -69.6482 0.
-0.0280398 -60.6778 0.
3.58613 9.80638 0.
-100.416 -277.708 0.
6.68566 18.5006 0.
0.284382 0.771293 0.
-515.575 -1427.94 0.
1.40242 3.87548 0.
-11.3441 -30.9898 0.
-0.00177201 -16.6144 0.
-0.0479502 -13.991 0.
5.90539 16.0827 0.
-1118.21 -2528.37 0.
-0.316874 -7.3197 0.
-88.5709 -239.204 0.
0.96844 2.67097 0.
-0.204619 -4.51549 0.
0.511584 1.17059 0.
0.0731125 0.162998 0.
-3.50201 -9.16576 0.
-16.0155 -26.977 0.
-34.5652 -67.507 0.
-34.4093 -60.494 0.
-0.159778 -0.0341967 0.
-0.0688303 -0.0062258 0.
-57.951 -25.8347 0.
-46.5835 -23.505 0.
-24.7211 -15.647 0.
-17.8624 -15.7129 0.
-19.5147 -23.9038 0.
-36.1992 -30.02 0.
-24.9235 -18.426 0.
-15.7436 -13.3877 0.
-26.9827 -17.6607 0.
-26.0034 -16.6367 0.
-24.9833 -13.7118 0.
-25.9885 -12.0869 0.
-41.1443 -26.2361 0.
-14.4863 -10.4328 0.
-14.8531 -12.5684 0.
-15.0107 -15.5123 0.
-22.2931 -24.3014 0.
-20.6786 -18.066 0.
-18.9819 -13.3135 0.
-33.1969 -13.2627 0.
-45.1555 -29.3787 0.
-0.375201 -0.0510825 0.
0.068182 0.000692448 0.
-0.930322 -2.42354 0.
-0.218985 -0.895987 0.
-3.34133 -8.26911 0.
-12.5828 -34.4711 0.
0.432216 1.19618 0.
-9.48115 -25.0563 0.
-0.154885 -5.09454 0.
0.0960704 0.224508 0.
-0.0569517 -5.49261 0.
-599.641 -1464.36 0.
-2.92096 -8.03097 0.
6.50924 17.7663 0.
-372.337 -1027.42 0.
-2.54713 -7.05405 0.
-0.295927 -34.5003 0.
-426.839 -1124.13 0.
8.19374 22.5261 0.
-117.055 -323.836 0.
-15.1043 -41.4627 0.
-203.294 -562.086 0.
-165.085 -452.114 0.
-5.94624 -16.2593 0.
-734.475 -2033.44 0.
-1.37525 -3.79117 0.
-92.9134 -256.897 0.
24.9828 68.2312 0.
-342.436 -947.225 0.
-13.4233 -36.8535 0.
-546.109 -1509.66 0.
-0.323741 -93.3576 0.
18.739 51.8923 0.
-1.8575 -5.14365 0.
-0.0590352 -0.163494 0.
-656.599 -1764.2 0.
10.609 28.8978 0.
39.8502 109.874 0.
-20.9192 -41.3557 0.
-0.275826 -0.703658 0.
34.5664 95.72 0.
-228.911 -621.489 0.
5.77201 15.9874 0.
-12.6356 -34.6665 0.
-432.659 -1187.63 0.
-0.470178 -99.5469 0.
-588.422 -1611.28 0.
-0.563436 -84.1645 0.
-20.2081 -55.3332 0.
-28.8709 -79.0572 0.
-104.362 -285.507 0.
23.8132 65.1906 0.
-99.6989 -273.625 0.
-246.828 -669.955 0.
-13.6487 -36.7357 0.
-410.801 -1135.62 0.
17.0065 46.6264 0.
-100.121 -277.143 0.
18.9091 52.2718 0.
-389.467 -1055.56 0.
11.7142 32.1643 0.
0.203442 0.562297 0.
-31.4847 -86.7304 0.
-117.985 -323.249 0.
-812.237 -2148.54 0.
8.00587 21.9922 0.
-1.19966 -14.9399 0.
-0.171242 -7.40357 0.
7.45821 20.6463 0.
-0.01141 -1.53581 0.
2.40943 6.12449 0.
-796.487 -1845.43 0.
-0.0196434 -2.51582 0.
-958.218 -1964.46 0.
-62.2119 -166.781 0.
0.0919905 0.165999 0.
-1005.12 -2754.36 0.
-1.26741 -1.58607 0.
-6.71559 -11.8247 0.
-1218.66 -2635.37 0.
-14.1755 -10.5047 0.
-814.775 -2143.7 0.
-10.7554 -9.01604 0.
-5.20801 -3.2365 0.
-880.465 -2312.13 0.
-124.351 -278.988 0.
-39.8316 -37.4793 0.
-587.638 -1544.78 0.
-439.936 -1188.93 0.
-52.6333 -58.2144 0.
-229.926 -560.662 0.
-813.875 -2148.36 0.
-31.0594 -50.8752 0.
-37.7228 -77.3531 0.
-957.696 -2483.43 0.
-39.157 -72.4999 0.
-33.2526 -54.1025 0.
-1111.79 -2427.02 0.
-25.0207 -38.8554 0.
-1068.94 -2695.23 0.
-2.87717 -7.59537 0.
-46.6376 -120.767 0.
-956.957 -2238.95 0.
0.574407 1.57775 0.
-37.8461 -78.3159 0.
-1148.66 -2429.71 0.
-0.00351661 -2.8891 0.
-691.198 -1837.58 0.
3.31362 8.69365 0.
-0.669785 -10.6791 0.
-0.0003663 -0.584693 0.
-44.1178 -116.077 0.
-0.0584099 -29.9718 0.
-488.031 -1331.27 0.
3.50437 9.63574 0.
-0.732009 -2.02352 0.
10.9571 30.0523 0.
-333.35 -891.17 0.
-0.0137293 -51.934 0.
-135.482 -375.206 0.
-11.6621 -31.9679 0.
-122.065 -335.912 0.
-350.356 -958.673 0.
-1.63396 -4.51094 0.
-122.045 -337.944 0.
20.5523 56.6036 0.
23.2503 63.4307 0.
-0.44474 -70.3156 0.
13.2123 35.5687 0.
-467.985 -1284.45 0.
4.14072 11.2887 0.
-479.487 -1317.06 0.
8.90815 24.1587 0.
-746.776 -2068.08 0.
18.1247 50.1955 0.
4.08473 11.2253 0.
-333.738 -906.642 0.
33.6008 90.8669 0.
31.7192 58.6567 0.
-31.5745 -77.74 0.
9.29557 25.592 0.
7.60017 21.0194 0.
14.8262 41.0638 0.
-2.74923 -7.56515 0.
-18.8882 -51.6944 0.
31.1535 85.4221 0.
-107.395 -293.938 0.
-8.24052 -22.4683 0.
-115.891 -317.36 0.
-172.109 -470.481 0.
-58.7206 -160.605 0.
-57.8259 -157.475 0.
-502.096 -1376.76 0.
-0.653095 -71.7539 0.
16.7667 45.0731 0.
-306.916 -847.457 0.
-2.03205 -5.55883 0.
-218.485 -605.083 0.
-0.0648996 -48.0058 0.
-208.152 -565.868 0.
2.02846 5.57977 0.
-5.20954 -14.4012 0.
-4.54367 -12.5852 0.
-36.1817 -99.6803 0.
0.234066 0.648312 0.
-0.0453663 -30.2418 0.
0.0214129 8.17509 0.
-621.433 -1553.99 0.
-0.61465 -23.6089 0.
-1243.66 -2921.17 0.
3.3595 9.06758 0.
1.76035 4.37145 0.
1.70286 4.71439 0.
-57.9293 -160.453 0.
-0.112079 -0.479786 0.
0.597251 0.848248 0.
-41.4883 -108.645 0.
-2.38457 -2.60737 0.
-10.6353 -16.833 0.
-0.965186 -1.65233 0.
0.186592 0.00814003 0.
-59.3288 -98.9912 0.
-18.7891 -22.1046 0.
-12.5059 -9.84747 0.
-8.66966 -4.44662 0.
-18.284 -14.6212 0.
-24.5145 -29.5605 0.
-30.0235 -30.1172 0.
-29.988 -37.954 0.
-32.9838 -33.0471 0.
-47.7808 -53.5675 0.
-56.9138 -81.3907 0.
-3.47653 -5.45248 0.
-16.0179 -26.3341 0.
-23.68 -53.0837 0.
-27.0225 -38.4951 0.
-17.8521 -17.1929 0.
-24.8577 -33.5481 0.
-7.44597 -20.622 0.
-33.5216 -86.1314 0.
-0.246841 -0.683632 0.
-4.11441 -11.1796 0.
-19.9694 -52.6241 0.
-0.0257891 -2.37842 0.
0.701362 1.64604 0.
0.23319 5.75846 0.
-0.0210662 -8.39474 0.
-150.82 -412.748 0.
1.575 4.16234 0.
-992.106 -2439.01 0.
8.16233 22.5499 0.
0.647527 1.75457 0.
1.01868 2.81366 0.
-181.933 -498.544 0.
12.7061 35.0376 0.
-366.386 -1004.72 0.
3.81137 10.5167 0.
-255.18 -690.079 0.
3.48104 9.62923 0.
-19.4049 -53.7446 0.
-160.879 -440.282 0.
-185.676 -510.33 0.
-116.246 -317.837 0.
6.20803 17.1295 0.
5.157 14.1658 0.
-29.5355 -81.2669 0.
0.706991 1.92602 0.
-317.841 -866.521 0.
27.1871 73.1461 0.
-295.905 -812.289 0.
26.106 71.0979 0.
-422.071 -1159.32 0.
-12.563 -34.0775 0.
-136.975 -379.353 0.
-690.43 -1912.14 0.
-48.3919 -134.033 0.
-0.0309211 -103.381 0.
22.4585 58.9012 0.
-2.75134 -4.63045 0.
5.30822 13.3082 0.
1.01525 2.81161 0.
21.7679 60.248 0.
-130.678 -361.891 0.
-566.703 -1563.72 0.
-5.48943 -14.7738 0.
4.46945 12.2716 0.
15.015 39.2768 0.
-218.486 -595.832 0.
1.11294 3.04137 0.
-323.107 -881.577 0.
-105.481 -288.444 0.
-74.6099 -203.401 0.
-229.889 -629.658 0.
-12.7643 -34.5197 0.
-251.717 -675.689 0.
-12.2703 -33.4048 0.
11.2858 30.7964 0.
-287.027 -795.012 0.
21.0537 58.0182 0.
-131.198 -357.64 0.
6.51468 17.9472 0.
-248.976 -689.601 0.
-0.556083 -1.54025 0.
-94.1697 -260.308 0.
-1.43214 -3.96227 0.
6.14071 16.9857 0.
-0.0185021 -32.2089 0.
-93.499 -242.739 0.
3.71393 10.0301 0.
-0.352686 -11.8713 0.
0.00151458 0.651865 0.
-0.0780154 -4.35978 0.
-0.00218371 -0.758113 0.
-23.3266 -58.7107 0.
-0.078941 -0.339628 0.
-81.9414 -185.445 0.
-569.081 -1475.4 0.
-63.8165 -81.0587 0.
-4.58238 -1.73282 0.
-826.817 -2209.92 0.
-18.5088 -22.4406 0.
-842.857 -1817.22 0.
-22.1082 -33.8643 0.
-40.891 -61.1999 0.
-820.022 -2169.99 0.
-20.1479 -25.3326 0.
-26.5852 -33.5638 0.
-523.713 -1413.14 0.
-378.599 -1015.2 0.
-58.5988 -94.5025 0.
-126.048 -282.844 0.
-758.733 -2005.08 0.
-7.47604 -4.27982 0.
-19.8164 -47.0317 0.
-898.291 -2281.96 0.
-42.9786 -80.6672 0.
-31.987 -51.0664 0.
-890.197 -1738.93 0.
-0.00897736 -0.0904638 0.
-863.882 -2340.69 0.
0.172817 0.47597 0.
-139.996 -335.794 0.
-125.968 -340.963 0.
-0.0305843 -1.80436 0.
0.0731874 1.02916 0.
-0.31737 -5.01388 0.
2.76633 7.44689 0.
-10.7669 -29.8214 0.
-0.068538 -7.16768 0.
-1.23774 -3.14481 0.
-0.00136814 -29.2866 0.
-412.99 -1130.25 0.
8.54992 23.644 0.
9.93686 27.3129 0.
13.1489 36.3326 0.
-197.175 -542.543 0.
4.4292 12.2645 0.
-204.899 -558.898 0.
9.87662 27.2959 0.
-430.698 -1191.99 0.
-357.778 -977.259 0.
-103.573 -282.218 0.
7.12156 19.2293 0.
-99.3741 -274.031 0.
-7.91103 -21.7138 0.
-376.723 -1035.45 0.
-7.48854 -20.3719 0.
24.4968 66.7219 0.
-88.0186 -236.651 0.
-1.11441 -70.3566 0.
-68.9536 -187.585 0.
33.9568 91.2579 0.
-14.1222 -38.3212 0.
-10.0461 -27.2792 0.
-242.704 -672.16 0.
-77.2495 -213.962 0.
-10.657 -29.4441 0.
30.0355 82.0498 0.
19.2972 53.255 0.
-365.295 -896.758 0.
-11.3251 -31.2794 0.
-6.37349 -17.6457 0.
-166.6 -461.279 0.
20.2006 54.7196 0.
36.6004 98.7355 0.
-183.06 -503.351 0.
17.9451 46.9033 0.
-551.079 -1503.11 0.
-6.04281 -16.5107 0.
-707.383 -1925.66 0.
-7.29421 -19.7586 0.
-103.429 -282.289 0.
15.9325 42.964 0.
6.36744 17.1774 0.
-94.4806 -253.359 0.
20.9942 55.4871 0.
-50.5996 -137.7 0.
-341.649 -924.317 0.
-11.6029 -31.9096 0.
-281.696 -769.732 0.
-4.43032 -12.2207 0.
-91.723 -254.051 0.
9.97679 27.6336 0.
-125.279 -346.871 0.
-0.0521652 -36.3313 0.
-503.769 -1390.28 0.
12.7915 35.4122 0.
-15.4125 -41.1274 0.
-0.0819262 -25.4836 0.
-0.172939 -10.4027 0.
4.52941 12.0523 0.
-872.229 -2096.2 0.
3.74377 9.66539 0.
-0.02079 -2.57102 0.
-1017.24 -2516.97 0.
-0.00162728 -0.994901 0.
-31.8007 -67.744 0.
1.9041e-05 0.294459 0.
0.098728 0.368637 0.
0.0323813 0.000165528 0.
-3.62774 -5.53689 0.
-3.70482 -9.42146 0.
-1.96806 -4.5186 0.
-1.93705 -3.57229 0.
-17.4277 -22.8679 0.
-11.2507 -15.1378 0.
-17.5513 -23.24 0.
-20.5132 -26.9962 0.
-15.9996 -20.2444 0.
-21.5604 -15.3758 0.
-32.4301 -41.4229 0.
-41.2411 -69.5221 0.
-0.179133 -0.217157 0.
-14.1756 -10.8111 0.
-31.2967 -65.4821 0.
-23.4315 -33.691 0.
-18.2276 -13.9291 0.
-20.726 -19.1136 0.
0.0299979 0.187786 0.
0.180618 0.465643 0.
-0.0396312 -2.14828 0.
-0.0336701 -2.29721 0.
-518.415 -1332.32 0.
-0.400465 -3.79379 0.
-821.295 -1765.86 0.
0.000235716 2.42059 0.
-760.911 -1983.54 0.
9.87386 27.2215 0.
7.32333 20.074 0.
1.16754 3.05002 0.
-0.0563399 -0.155972 0.
-5.66626 -15.6085 0.
-0.10953 -0.303314 0.
4.49144 12.3683 0.
1.0397 2.87674 0.
-109.817 -302.916 0.
12.9409 35.842 0.
1.22404 3.37048 0.
-97.7321 -269.808 0.
12.2535 33.197 0.
13.8184 37.154 0.
-104.293 -284.283 0.
3.83605 10.3621 0.
-336.537 -927.408 0.
-80.2165 -219.992 0.
4.71796 12.6744 0.
-139.727 -379.598 0.
-1.57703 -72.1267 0.
-594.562 -1596.88 0.
-14.9524 -39.8835 0.
-562.31 -1527.89 0.
-4.44062 -11.9483 0.
-44.0281 -119.529 0.
-204.757 -556.94 0.
0.704946 1.94141 0.
-152.168 -421.47 0.
-24.5351 -67.5817 0.
-149.298 -403.236 0.
-6.66407 -18.2504 0.
-0.0750841 -87.2241 0.
-15.3488 -42.1369 0.
-16.611 -46.0007 0.
14.0177 37.3418 0.
-11.3754 -30.8474 0.
-260.728 -705.386 0.
14.985 38.5349 0.
-346.739 -906.017 0.
-0.727334 -70.6965 0.
8.22079 22.4605 0.
-158.938 -431.927 0.
-2.7137 -7.36287 0.
-370.466 -1012.42 0.
-3.52855 -9.49107 0.
-136.251 -366.549 0.
15.299 40.4465 0.
5.47105 14.4706 0.
-168.345 -456.784 0.
-8.16185 -21.8081 0.
-10.4443 -28.6549 0.
7.42362 20.354 0.
17.9613 49.6466 0.
-21.6357 -59.925 0.
-4.70915 -13.0432 0.
-414.527 -1148.15 0.
-14.1678 -39.0958 0.
-64.2493 -177.548 0.
-3.55905 -9.85711 0.
-58.5704 -159.026 0.
-297.05 -809.619 0.
-514.444 -1331.95 0.
-0.15023 -19.977 0.
5.38413 14.8964 0.
-0.211044 -10.959 0.
3.93217 10.8062 0.
1.69946 4.48695 0.
2.36104 6.48926 0.
-0.000583153 -0.385914 0.
-0.0205371 -0.278671 0.
0.220363 0.389478 0.
0.137718 0.0745742 0.
-3.99028 -4.98894 0.
-3.49504 -9.61745 0.
-1.12664 -3.06978 0.
-0.00374136 -0.0706953 0.
-14.0069 -20.368 0.
-5.95229 -9.55229 0.
-8.93718 -13.3067 0.
-3.11006 -4.30482 0.
-6.1664 -7.50312 0.
-15.2051 -5.48982 0.
-25.9989 -31.07 0.
-35.8885 -58.2308 0.
-3.30706 -2.35683 0.
-8.00918 -8.70758 0.
-26.6466 -31.2742 0.
-15.9012 -13.4096 0.
-16.1296 -12.8001 0.
-16.6557 -15.1504 0.
-0.0855371 -0.444805 0.
-0.050661 -0.737567 0.
0.0428554 1.50274 0.
-0.00093499 -1.49381 0.
-0.0792753 -2.81816 0.
0.00708856 0.0950599 0.
3.03611 6.33947 0.
-0.0313613 -11.7518 0.
-0.0765621 -8.70494 0.
-0.157012 -11.0251 0.
-568.026 -1491.91 0.
4.18894 11.5916 0.
-0.0350278 -34.8009 0.
4.39974 12.1043 0.
-9.25666 -25.6371 0.
-180.255 -499.251 0.
3.05692 8.46471 0.
12.636 34.9585 0.
14.0146 38.8178 0.
1.32913 3.61733 0.
-40.5678 -111.843 0.
-32.587 -88.2412 0.
7.36745 19.7982 0.
-187.743 -511.977 0.
-105.982 -286.433 0.
3.64663 9.91807 0.
-209.5 -574.061 0.
-3.54915 -9.53601 0.
-222.261 -597.54 0.
20.7961 54.8298 0.
-116.475 -312.834 0.
-16.6466 -44.3868 0.
14.1587 37.109 0.
-178.34 -480.415 0.
13.4987 35.6013 0.
-550.669 -1500.33 0.
16.827 45.442 0.
35.1118 95.6496 0.
-345.45 -947.104 0.
16.5119 45.7119 0.
-14.8092 -40.0722 0.
-5.22167 -14.3412 0.
-263.347 -716.067 0.
16.4392 44.9583 0.
-21.4813 -57.3246 0.
-472.839 -1284.39 0.
12.838 32.8516 0.
22.448 57.7048 0.
-254.661 -665.016 0.
2.73718 7.40004 0.
-484.1 -1322.28 0.
10.1302 27.0066 0.
-199.308 -541.721 0.
-4.71428 -12.6736 0.
-22.3562 -59.9684 0.
-227.963 -611.416 0.
15.2161 40.2589 0.
-304.927 -806.765 0.
-30.662 -82.0512 0.
18.3096 48.8688 0.
-152.489 -417.277 0.
-61.1171 -166.041 0.
-0.0236356 -46.4663 0.
10.3395 28.6325 0.
-23.8773 -66.1329 0.
-165.251 -457.283 0.
-40.9329 -112.807 0.
10.2678 28.1462 0.
-4.28565 -11.8704 0.
-4.56225 -12.6322 0.
-153.571 -422.298 0.
-0.000414859 -20.4657 0.
8.27579 22.7657 0.
-0.0617007 -24.2855 0.
4.41018 11.8675 0.
5.38941 14.8888 0.
-527.386 -1400.68 0.
1.52841 4.23261 0.
-640.418 -1438.02 0.
-13.8926 -27.5997 0.
-62.4294 -144.916 0.
-690.506 -1749.53 0.
-8.71217 -19.5723 0.
-660.748 -1475.67 0.
-5.86574 -10.4791 0.
-0.00706338 -0.0444124 0.
-692.874 -1796.64 0.
-15.7905 -27.2424 0.
-34.4963 -59.3976 0.
-423.095 -1160.23 0.
-350.715 -971.366 0.
-65.3144 -142.127 0.
-68.7111 -157.525 0.
-635.92 -1630.49 0.
-8.60767 -15.6896 0.
-24.1798 -47.5201 0.
-778.923 -2054.48 0.
-0.0775522 -0.099474 0.
-0.167294 -0.153482 0.
-741.926 -1361.04 0.
-0.0148906 -0.74923 0.
-734.576 -1952.04 0.
0.000238156 1.06741 0.
-0.0377566 -3.45124 0.
-572.393 -1497.99 0.
0.941647 2.26363 0.
-0.89723 -7.98122 0.
5.70389 15.5019 0.
6.12396 16.884 0.
-0.0925514 -12.9906 0.
3.75632 10.0655 0.
5.16949 14.2897 0.
-379.547 -1051 0.
-0.13786 -31.1417 0.
-32.7791 -90.7041 0.
-12.7728 -35.3761 0.
-272.133 -752.892 0.
-0.0323039 -41.3658 0.
-110.916 -307.18 0.
4.51331 12.25 0.
-0.525128 -55.4547 0.
-212.066 -574.039 0.
-12.1885 -32.7358 0.
3.55949 9.5042 0.
-114.308 -309.133 0.
17.4206 47.3271 0.
-37.534 -102.775 0.
-16.5552 -44.4951 0.
18.0977 47.4557 0.
-456.829 -1206.87 0.
-2.58884 -6.6871 0.
-309.327 -824.268 0.
3.63574 9.55932 0.
-324.318 -872.669 0.
-16.2802 -43.0387 0.
-1.53373 -78.759 0.
-145.067 -392.731 0.
2.84995 7.77898 0.
16.0876 44.5592 0.
-176.079 -486.368 0.
-215.82 -574.375 0.
11.7151 32.4451 0.
23.1676 62.8727 0.
26.1003 71.7301 0.
-16.9048 -45.2038 0.
-58.3466 -158.695 0.
-10.0817 -25.96 0.
23.8161 61.2068 0.
19.9886 50.7236 0.
28.6236 77.4131 0.
22.509 60.0072 0.
-224.404 -599.147 0.
-11.9137 -32.4416 0.
-45.0129 -121.255 0.
-142.404 -380.816 0.
3.4718 9.16921 0.
6.24238 16.5289 0.
-206.09 -545.749 0.
-65.9495 -176.288 0.
-134.375 -358.235 0.
-22.5448 -61.1567 0.
5.958 16.1708 0.
19.1447 52.9954 0.
-4.18911 -11.6029 0.
-190.599 -527.66 0.
-37.7495 -104.467 0.
-90.8518 -250.011 0.
3.28181 8.97804 0.
-184.936 -512.179 0.
15.0266 41.6124 0.
-40.7657 -112.658 0.
0.784944 2.17174 0.
3.39891 9.39619 0.
7.60467 21.0164 0.
-556.182 -1443.03 0.
-0.115854 -20.4698 0.
-2.30378 -6.35226 0.
0.00298674 0.418235 0.
0.273592 0.458963 0.
0.326687 0.635225 0.
-29.2099 -64.384 0.
-15.3754 -39.2657 0.
-0.000139858 -0.134194 0.
-39.3339 -63.9177 0.
-13.9944 -22.1168 0.
-6.20885 -11.1657 0.
-0.000326652 -0.0100708 0.
-8.4651 -17.0184 0.
-30.0593 -55.1546 0.
-16.4295 -38.5653 0.
-6.50045 -15.5412 0.
-23.6932 -42.2551 0.
-14.7758 -19.5889 0.
-23.2851 -43.6264 0.
-15.2847 -41.5941 0.
-22.4431 -61.9147 0.
-36.1479 -99.8945 0.
-0.113436 -0.267963 0.
-0.580973 -0.876976 0.
0.320547 0.367711 0.
-0.00129765 -1.13538 0.
-0.0120632 -0.999586 0.
1.85165 5.1184 0.
-0.0184411 -6.23972 0.
-0.00157617 -2.27173 0.
-0.183184 -7.28455 0.
-600.371 -1479.07 0.
4.63467 12.8322 0.
-442.257 -1218.36 0.
-0.0829438 -28.0856 0.
-4.749 -12.8937 0.
6.81301 18.8088 0.
-154.178 -427.045 0.
2.69809 7.44107 0.
-208.993 -577.251 0.
5.35101 14.8202 0.
-67.8244 -187.632 0.
8.94143 24.7074 0.
-475.029 -1315.24 0.
-11.3852 -30.8115 0.
-1.30324 -3.51927 0.
-31.1108 -84.1663 0.
-131.853 -353.94 0.
-8.69024 -23.185 0.
-182.127 -492.902 0.
-62.1816 -168.738 0.
-1.23483 -60.3528 0.
-387.756 -1042.54 0.
-1.65169 -4.32421 0.
-39.0519 -103.407 0.
-2.23523 -5.78016 0.
-9.54222 -24.3084 0.
-203.042 -535.603 0.
12.5521 32.1482 0.
-261.132 -692.325 0.
-6.02255 -15.9674 0.
-43.8163 -118.94 0.
-543.496 -1487.19 0.
23.9396 64.4492 0.
26.3224 72.857 0.
8.60972 23.2832 0.
-6.52124 -18.0435 0.
-7.08526 -19.3595 0.
-261.336 -721.051 0.
-185.594 -497.39 0.
1.41767 3.55108 0.
-472.019 -1223.83 0.
-2.22161 -5.47922 0.
-111.616 -283.929 0.
-52.6245 -142.375 0.
16.4099 43.7695 0.
-282.893 -756.72 0.
12.5478 33.429 0.
-419.155 -1131.11 0.
-112.675 -300.342 0.
8.05535 21.3041 0.
-110.177 -291.888 0.
11.468 29.8812 0.
-105.028 -280.43 0.
-22.3725 -59.5739 0.
-52.8389 -143.199 0.
-31.5638 -85.5848 0.
-355.658 -984.947 0.
-1.11465 -3.0847 0.
-15.2502 -42.2203 0.
-34.3556 -95.0831 0.
-223.807 -614.833 0.
-97.8588 -266.956 0.
-125.586 -347.837 0.
-9.20367 -25.4899 0.
-21.9097 -60.6738 0.
-0.0736962 -39.6129 0.
-469.98 -1294.06 0.
-0.244725 -0.677704 0.
-0.966592 -2.54674 0.
1.16988 3.21714 0.
-0.0051791 -14.4218 0.
3.59757 9.49756 0.
0.312961 0.527718 0.
0.692299 1.3316 0.
-7.01989 -15.0954 0.
-340.446 -942.976 0.
0.153874 0.425104 0.
-449.881 -1019.47 0.
-36.5256 -79.9526 0.
-22.8513 -51.2534 0.
-505.944 -1360.1 0.
-13.1277 -26.0881 0.
-31.814 -58.8742 0.
-242.181 -667.702 0.
-344.017 -952.442 0.
-44.6095 -112.473 0.
-41.8632 -105.42 0.
-484.183 -1268.34 0.
-52.9085 -146.499 0.
-26.4398 -72.2526 0.
-355.385 -845.337 0.
0.346495 0.825592 0.
-591.994 -1609 0.
-0.379244 -1.03086 0.
-0.0189014 -2.4955 0.
0.696903 1.92996 0.
3.13698 8.60403 0.
1.83142 5.06976 0.
-0.0170378 -10.1295 0.
1.74255 4.73528 0.
3.94847 10.1552 0.
5.21973 14.4271 0.
-16.2812 -44.9962 0.
-55.7081 -153.073 0.
-79.8962 -218.85 0.
-0.0815852 -41.4528 0.
-34.4135 -95.3057 0.
1.8275 5.03934 0.
-330.555 -912.855 0.
1.82024 5.04136 0.
-153.038 -423.391 0.
-5.12744 -14.1466 0.
-232.597 -640.853 0.
-96.7822 -261.099 0.
-81.9937 -220.725 0.
4.1194 10.8206 0.
-195.232 -525.563 0.
16.0814 42.8682 0.
12.4481 33.4537 0.
-268.269 -727.203 0.
2.16402 5.72013 0.
9.71194 25.5719 0.
-314.863 -822.655 0.
-2.53747 -6.57408 0.
-440.848 -1139.75 0.
7.091 18.0925 0.
-169.885 -449.948 0.
15.467 39.8104 0.
-6.83202 -17.0286 0.
21.0877 54.7596 0.
21.9818 57.171 0.
-294.223 -806.746 0.
-0.708657 -1.9135 0.
19.5685 54.201 0.
-123.779 -326.829 0.
-116.51 -320.724 0.
-0.286894 -86.1385 0.
-89.1429 -246.599 0.
11.5517 29.3188 0.
11.1919 28.248 0.
20.9943 52.3234 0.
3.07453 7.60267 0.
-677.068 -1726.74 0.
-7.01647 -18.3728 0.
-283.846 -757.913 0.
-1.57758 -4.10347 0.
-28.8156 -76.2471 0.
-280.449 -758.392 0.
8.97493 23.2266 0.
-151.337 -400.641 0.
19.8116 52.5454 0.
10.0486 26.2268 0.
-143.822 -383.546 0.
-9.04134 -23.602 0.
-102.857 -278.472 0.
-58.532 -158.544 0.
10.8317 29.9251 0.
-10.0953 -27.9206 0.
-66.0417 -182.85 0.
-25.5623 -70.7523 0.
-155.882 -425.084 0.
-12.7077 -34.6409 0.
-144.704 -400.803 0.
-0.000657632 -42.038 0.
-250.516 -692.709 0.
3.78126 10.4338 0.
-196.969 -544.31 0.
-0.00259499 -29.2479 0.
-1.81767 -4.8498 0.
5.67625 15.6621 0.
3.29264 9.03216 0.
-380.45 -1047.52 0.
5.77003 15.895 0.
-566.2 -1223.95 0.
-0.180374 -5.59985 0.
-28.2194 -77.9145 0.
-0.0790449 -0.212821 0.
-13.2146 -33.6277 0.
-3.34129 -8.87705 0.
-0.000371228 -0.4174 0.
-10.4976 -23.3422 0.
-10.1262 -21.4147 0.
-32.8427 -64.6377 0.
-1.75187 -4.22948 0.
-14.231 -32.8761 0.
-18.3108 -47.2875 0.
-5.3023 -14.1742 0.
-6.35242 -17.4298 0.
-22.7228 -61.1994 0.
-9.79414 -25.158 0.
-20.052 -48.8326 0.
0.139977 0.382315 0.
-2.37742 -6.25661 0.
-0.00651335 -2.57346 0.
-0.014481 -1.79922 0.
-177.327 -453.216 0.
-0.0292384 -5.04146 0.
-391.598 -963.799 0.
3.84978 10.4365 0.
6.61152 18.2371 0.
7.26774 19.569 0.
1.69726 4.67947 0.
-0.00723667 -19.1357 0.
-52.0642 -143.78 0.
13.6374 37.7066 0.
-103.452 -286.157 0.
15.0681 41.4646 0.
0.469575 1.29467 0.
2.19965 6.08791 0.
7.4899 20.7436 0.
14.1651 39.0721 0.
-6.19584 -17.0614 0.
-67.5765 -180.837 0.
-7.18004 -19.1536 0.
-298.906 -790.945 0.
15.3552 40.3102 0.
-71.8135 -187.775 0.
-188.408 -501.789 0.
5.19866 13.9542 0.
3.3658 9.03076 0.
-34.962 -92.5075 0.
20.7239 54.6291 0.
-118.706 -309.663 0.
8.03443 20.7801 0.
16.1564 41.09 0.
-26.5612 -67.8672 0.
-4.33954 -11.0231 0.
-300.003 -775.529 0.
19.327 47.9445 0.
-7.02317 -17.0858 0.
-312.898 -815.144 0.
27.9803 74.1322 0.
-44.858 -121.47 0.
-39.6089 -109.593 0.
-7.05183 -19.5298 0.
-123.862 -337.537 0.
14.8162 39.6892 0.
14.0385 34.8641 0.
-158.08 -404.242 0.
-48.327 -122.969 0.
-3.30994 -8.30995 0.
-82.785 -205.298 0.
20.0335 48.217 0.
-212.083 -555.825 0.
-286.487 -765.528 0.
14.6231 38.0884 0.
-245.107 -649.219 0.
-10.0398 -26.3445 0.
10.686 28.3779 0.
-9.17866 -24.3494 0.
0.442181 1.15792 0.
-86.8531 -227.147 0.
-154.753 -411.162 0.
-1.55018 -57.4958 0.
-43.7782 -115.109 0.
-22.8331 -61.7856 0.
1.46749 3.90005 0.
0.320654 0.886127 0.
15.3074 42.3465 0.
13.0551 36.0196 0.
0.614011 1.6937 0.
-25.4868 -69.415 0.
-10.4652 -28.4887 0.
-27.2906 -75.5783 0.
2.62103 7.25198 0.
4.62058 12.732 0.
-2.93894 -8.071 0.
-0.879699 -2.43276 0.
2.53324 7.00141 0.
-274.664 -747.088 0.
-0.119069 -31.7332 0.
-0.959176 -2.65672 0.
-0.0498342 -4.56703 0.
-0.219745 -0.528632 0.
4.09335 11.1345 0.
-0.670166 -1.82281 0.
0.826369 2.14512 0.
-0.0374084 -0.508929 0.
-0.0900424 -0.249101 0.
0.134863 0.365969 0.
-12.7662 -28.7754 0.
-24.6969 -50.2827 0.
-39.2141 -80.0051 0.
0.00209792 0.00579709 0.
-14.9626 -35.4832 0.
-9.52777 -22.6221 0.
-0.00656845 -0.104749 0.
-2.63946 -7.1019 0.
-2.76997 -7.60171 0.
-2.02166 -5.571 0.
-1.97159 -5.431 0.
0.732872 2.01584 0.
0.297612 0.821435 0.
-0.000304216 -0.455374 0.
-0.0391726 -4.71166 0.
-0.240854 -5.23764 0.
-0.000123763 -8.29528 0.
-0.150385 -8.49661 0.
1.60593 4.43135 0.
-369.765 -999.88 0.
-2.35935 -6.52988 0.
6.96101 19.1434 0.
2.24039 6.18321 0.
-118.184 -327.157 0.
8.62163 23.837 0.
-64.0612 -177.188 0.
-0.192913 -0.531037 0.
0.43119 1.18866 0.
-7.05522 -19.5163 0.
-0.00615152 -45.7929 0.
-15.0588 -41.2987 0.
-96.1949 -264.264 0.
-53.4486 -143.407 0.
-37.2828 -99.7407 0.
-77.4499 -204.928 0.
-27.4101 -71.9108 0.
-63.115 -165.191 0.
0.386869 1.02958 0.
-137.147 -367.648 0.
16.7404 44.8596 0.
-30.5817 -81.0034 0.
-112.664 -297.304 0.
-15.4063 -39.4791 0.
-34.8072 -89.8536 0.
-25.8172 -65.8595 0.
-153.688 -393.114 0.
-168.209 -428.473 0.
-2.7118 -56.8503 0.
-560.514 -1386.03 0.
22.4108 54.2391 0.
-63.0197 -164.658 0.
-3.09831 -7.91166 0.
-12.907 -33.5299 0.
-0.0680017 -64.4868 0.
-0.656135 -1.78667 0.
6.09028 16.0938 0.
-0.654596 -68.8922 0.
-14.1534 -35.4658 0.
-129.123 -332.847 0.
-4.06895 -68.0784 0.
-249.897 -632.604 0.
-4.76288 -54.648 0.
18.6757 47.979 0.
-347.328 -911.454 0.
-9.69505 -24.8289 0.
-480.722 -1252.84 0.
0.693407 1.75618 0.
-2.62358 -6.85685 0.
-339.811 -898.223 0.
14.5067 37.1897 0.
-3.98356 -10.4231 0.
-166.602 -436.678 0.
-6.91053 -17.7261 0.
-2.86092 -7.42097 0.
-309.526 -811.315 0.
-6.02016 -16.0174 0.
-13.65 -36.2719 0.
-265.575 -733.149 0.
-41.8893 -115.265 0.
-0.0705722 -43.8447 0.
9.04451 24.9493 0.
-41.1477 -111.968 0.
-37.0274 -100.817 0.
-16.4267 -45.4855 0.
-7.74301 -21.4165 0.
2.0957 5.76585 0.
14.0369 38.4708 0.
-53.0819 -146.876 0.
9.972 27.5584 0.
-150.558 -412.263 0.
5.09232 14.0484 0.
4.08258 11.2549 0.
-0.1087 -5.17613 0.
-0.394634 -11.3798 0.
2.07795 5.49286 0.
-373.826 -944.461 0.
-0.00357894 -2.03148 0.
-0.0600888 -1.21129 0.
-421.893 -1117.36 0.
0.413038 1.12663 0.
-175.248 -426.07 0.
-20.6639 -49.3495 0.
-99.137 -270.453 0.
-108.759 -291.505 0.
-318.427 -880.361 0.
-15.4668 -38.0946 0.
-22.7186 -60.5991 0.
-376.399 -1013.63 0.
-14.7545 -40.3318 0.
-19.8778 -46.5889 0.
-317.24 -645.783 0.
-0.00180484 -0.515361 0.
-439.001 -1193.91 0.
-9.01493e-05 -7.64435 0.
-45.2297 -121.414 0.
-0.163057 -4.00196 0.
0.00815729 4.86708 0.
3.15052 8.593 0.
-0.000196256 -10.0795 0.
-2.21552 -6.08055 0.
8.2539 22.8362 0.
-135.69 -375.671 0.
13.7393 38.0394 0.
-200.874 -556.383 0.
12.0382 33.2813 0.
-24.4984 -67.7567 0.
-16.1063 -44.295 0.
-129.282 -355.28 0.
-6.27178 -17.3381 0.
-3.11533 -8.6231 0.
3.76736 10.3222 0.
15.0347 41.1854 0.
-41.3552 -111.246 0.
-42.3767 -113.683 0.
9.99806 26.3159 0.
-138.448 -362.921 0.
-155.952 -408.553 0.
-49.9587 -130.21 0.
-122.101 -326.867 0.
-28.3428 -75.8517 0.
-1.19854 -56.4906 0.
-230.647 -609.274 0.
-1.85047 -56.9316 0.
0.700051 1.77033 0.
-548.974 -1404.59 0.
17.599 44.1692 0.
-530.192 -1356.08 0.
-3.02228 -65.7044 0.
13.9317 32.5928 0.
-103.479 -249.057 0.
-7.42467 -18.31 0.
-31.599 -80.9317 0.
-1.68877 -75.4356 0.
20.7101 52.7124 0.
17.6783 48.4872 0.
20.9697 56.2002 0.
-448.605 -1227.31 0.
-7.51678 -19.0182 0.
-4.93525 -11.5743 0.
-126.193 -309.304 0.
2.43683 5.35112 0.
11.0258 25.8405 0.
-11.0212 -28.3374 0.
-1.93393 -4.91354 0.
-7.92444 -20.3316 0.
-75.25 -196.557 0.
11.7213 29.8209 0.
-161.525 -420.039 0.
4.72 12.003 0.
5.30435 13.5849 0.
-192.527 -503.417 0.
-9.41889 -23.7543 0.
-2.72352 -6.9691 0.
-102.425 -264.747 0.
-2.22114 -5.69895 0.
-26.3187 -70.013 0.
-99.8246 -265.199 0.
0.453536 1.24689 0.
-37.4911 -103.045 0.
1.01473 2.79989 0.
6.17685 17.0395 0.
4.09572 11.137 0.
-31.4017 -85.4636 0.
5.90446 16.3464 0.
7.88424 21.7991 0.
-13.334 -36.6237 0.
-115.309 -315.691 0.
-37.4427 -103.597 0.
-9.37002 -25.8923 0.
-36.9875 -101.77 0.
-3.97687 -11.0015 0.
-0.110683 -0.302437 0.
9.63623 26.0733 0.
-209.686 -554.325 0.
-0.0241202 -5.78271 0.
-49.8166 -134.002 0.
-0.0045582 -3.53853 0.
0.104485 1.83151 0.
0.0144741 0.336098 0.
0.00152746 0.211217 0.
-18.1269 -45.9394 0.
-10.0282 -25.9985 0.
-54.3182 -134.365 0.
-13.9465 -35.0774 0.
-17.2301 -43.5758 0.
-5.26238 -12.7026 0.
-3.36266 -7.88904 0.
-22.5126 -62.0448 0.
0.279504 0.749153 0.
-0.00196643 -0.600965 0.
-0.0300387 -0.627456 0.
1.05874 2.77989 0.
1.17851 3.25736 0.
2.93657 7.93931 0.
-15.9748 -44.1793 0.
0.146625 0.403206 0.
-0.00528624 -18.5029 0.
-355.705 -967.463 0.
-0.019072 -12.8614 0.
-0.595263 -1.64547 0.
7.81099 21.6031 0.
-72.1403 -199.77 0.
-7.58793 -20.9966 0.
-77.5609 -214.683 0.
13.95 38.5642 0.
-78.333 -216.644 0.
-10.8482 -29.8047 0.
-73.329 -201.307 0.
3.68284 10.1136 0.
-268.253 -742.128 0.
-27.8096 -76.1162 0.
11.0984 30.372 0.
1.43907 3.85674 0.
-285.262 -767.306 0.
7.64238 20.0928 0.
13.8522 36.2475 0.
-90.1375 -236.394 0.
-36.1278 -94.267 0.
0.739452 1.94226 0.
-120.965 -323.259 0.
19.1421 50.3762 0.
2.12893 5.53265 0.
-150.562 -388.271 0.
-12.6054 -31.9997 0.
-107.224 -275.434 0.
22.1529 55.8247 0.
-6.65953 -16.6671 0.
-13.2615 -33.2423 0.
-1.04857 -2.50611 0.
2.13122 4.78748 0.
-13.314 -33.3372 0.
5.83091 13.9842 0.
-35.1764 -93.6307 0.
19.4178 50.1668 0.
-2.7167 -7.49575 0.
23.2297 63.0501 0.
23.6841 55.5707 0.
25.1445 60.2995 0.
-144.475 -342.292 0.
10.2402 23.3376 0.
7.95161 17.8093 0.
-111.557 -266.314 0.
-13.031 -32.443 0.
-12.0952 -30.7622 0.
-13.3153 -34.2152 0.
6.69714 16.7644 0.
-46.754 -119.463 0.
-0.872334 -2.1785 0.
7.58203 19.3081 0.
5.41896 13.8614 0.
-37.4383 -94.3095 0.
13.0408 32.7979 0.
-168.044 -428.914 0.
-9.3801 -23.6964 0.
-12.7443 -32.6666 0.
-43.7236 -116.296 0.
-6.47142 -17.193 0.
2.66061 7.30601 0.
-25.7781 -70.7643 0.
-179.665 -495.762 0.
-8.70642 -23.9582 0.
-17.4972 -47.5569 0.
-23.5787 -64.145 0.
-174.759 -483.688 0.
-4.31949 -11.938 0.
-83.8773 -229.472 0.
3.14822 8.61165 0.
-66.0172 -182.643 0.
-8.54373 -23.607 0.
-27.3133 -75.3999 0.
-0.150711 -0.41708 0.
-267.56 -736.827 0.
5.61462 15.1282 0.
-4.77038 -12.9519 0.
-0.000947307 -15.5249 0.
1.87363 5.15667 0.
2.03364 5.54436 0.
0.28469 4.72151 0.
0.0258878 0.704975 0.
-47.4687 -125.961 0.
-75.3122 -204.562 0.
-15.709 -42.3847 0.
-52.7983 -145.517 0.
-8.63418 -22.2948 0.
-160.593 -443.4 0.
-10.1743 -26.2299 0.
-12.9222 -35.2588 0.
-151.245 -404.832 0.
0.19669 0.543751 0.
-123.237 -323.005 0.
0.27133 0.704316 0.
1.39535 3.4974 0.
0.652331 1.76863 0.
3.35335 8.69777 0.
-2.05406 -5.66386 0.
1.41676 3.89422 0.
-0.00217261 -15.9078 0.
-0.438316 -1.18447 0.
2.71708 7.48355 0.
-11.9379 -32.8051 0.
12.4302 34.3659 0.
-13.2248 -36.5484 0.
-6.14842 -17 0.
-4.67923 -12.8809 0.
-0.14422 -41.0092 0.
-21.0538 -57.8299 0.
-39.4436 -108.254 0.
3.54321 9.73811 0.
0.440116 1.20726 0.
-9.80855 -26.3229 0.
-31.9366 -87.3194 0.
-4.90075 -13.1703 0.
-10.8785 -29.0757 0.
-117.554 -310.232 0.
3.5608 9.35107 0.
-7.91573 -20.6884 0.
-6.61009 -17.1823 0.
-5.35422 -13.9862 0.
6.52493 17.187 0.
-1.29629 -47.353 0.
-158.844 -417.188 0.
11.9413 30.9714 0.
-10.9209 -27.4866 0.
-12.7195 -32.4111 0.
20.4174 51.5565 0.
-26.8844 -68.013 0.
-8.75308 -22.023 0.
8.89267 21.8556 0.
3.01498 7.40938 0.
14.8104 34.082 0.
9.764 21.0218 0.
-108.559 -264.967 0.
-3.6763 -9.36566 0.
-2.56746 -41.2233 0.
-88.4048 -244.775 0.
19.0939 50.8159 0.
-3.26644 -7.67821 0.
-197.848 -475.097 0.
-5.87239 -56.3767 0.
-5.90427 -13.4893 0.
16.8497 38.4513 0.
-13.6765 -32.1123 0.
7.90384 19.6839 0.
-104.626 -266.2 0.
-8.91725 -21.938 0.
-24.8281 -62.4368 0.
-62.2003 -159.572 0.
17.0727 42.6904 0.
-95.9668 -244.606 0.
-49.2229 -125.703 0.
14.5075 36.7144 0.
-2.23425 -5.60199 0.
-78.717 -200.333 0.
10.4081 26.263 0.
0.100381 0.257045 0.
-61.812 -164.383 0.
19.5593 50.8861 0.
2.20426 6.04507 0.
-17.4949 -47.9615 0.
-7.29928 -19.9946 0.
2.56334 7.04565 0.
-57.2237 -155.464 0.
-57.4413 -156.202 0.
12.5502 34.2793 0.
3.20825 8.79495 0.
-62.7804 -171.614 0.
-1.31602 -3.59689 0.
-128.095 -354.351 0.
-6.50951 -17.8684 0.
-110.907 -307.035 0.
-1.49196 -4.13195 0.
-64.9894 -178.528 0.
-1.57787 -4.23435 0.
-1.00417 -32.1233 0.
-0.0126402 -10.3749 0.
-0.00917117 -23.3649 0.
-134.091 -368.145 0.
-0.0695144 -9.28707 0.
-89.47 -239.642 0.
-5.05769e-05 -3.01943 0.
-26.8786 -74.1464 0.
-7.89359 -21.8522 0.
-22.1289 -60.7741 0.
-6.35718 -16.0427 0.
-23.5735 -60.6087 0.
-0.872677 -2.07024 0.
-4.94785 -12.9367 0.
-21.2644 -58.8355 0.
-0.00316969 -0.655971 0.
-8.6796e-05 -0.506281 0.
-96.9088 -257.591 0.
1.56942 4.2629 0.
-73.2838 -198.29 0.
0.995029 2.73498 0.
-115.876 -320.78 0.
-0.0797019 -24.2217 0.
2.22068 6.15017 0.
1.33224 3.54553 0.
-3.62543 -9.90774 0.
-20.2193 -55.5606 0.
-69.154 -190.092 0.
0.469033 1.27599 0.
-7.50017 -20.7169 0.
12.5161 34.413 0.
14.7862 40.5612 0.
5.24175 14.1543 0.
-23.6753 -64.0337 0.
-4.20426 -11.5424 0.
2.47721 6.78698 0.
-4.92882 -13.2225 0.
-12.3035 -32.9595 0.
-69.3744 -185.913 0.
-11.0357 -29.4115 0.
5.40959 14.0114 0.
5.85546 15.359 0.
-3.78454 -9.9712 0.
-1.22903 -3.19072 0.
-125.376 -334.945 0.
-18.5232 -48.9309 0.
-1.08925 -2.84123 0.
-1.84151 -45.3165 0.
-0.436521 -1.12949 0.
-2.18389 -53.821 0.
20.4678 52.3392 0.
-169.75 -430.245 0.
-2.07247 -39.769 0.
-121.461 -307.119 0.
-4.39635 -10.8644 0.
3.31446 7.99345 0.
-93.6555 -220.603 0.
16.6709 36.8195 0.
-3.84747 -47.0231 0.
23.5759 56.0151 0.
-0.1758 -0.435812 0.
27.5765 64.5646 0.
-89.6237 -240.512 0.
11.2537 26.4757 0.
20.0054 45.2787 0.
0.0912825 0.203993 0.
-100.289 -229.349 0.
-4.76115 -10.7718 0.
-100.582 -241.743 0.
-49.2805 -122.665 0.
-2.93697 -47.8357 0.
2.00324 5.00325 0.
14.0131 35.391 0.
1.912 4.73416 0.
4.47327 11.1958 0.
-124.073 -316.555 0.
-1.07014 -2.69247 0.
-65.3751 -166.231 0.
-2.54785 -6.36773 0.
-5.2778 -13.0514 0.
-6.47525 -16.6591 0.
-5.8584 -14.9881 0.
18.3082 45.4471 0.
-7.12573 -18.4699 0.
-55.9985 -147.082 0.
-5.89118 -15.778 0.
-10.6147 -28.805 0.
-10.4713 -28.7461 0.
-10.1784 -28.0305 0.
-8.17031 -21.338 0.
5.18466 13.731 0.
5.64134 15.4346 0.
8.24351 22.6338 0.
-8.10987 -22.1469 0.
3.87487 10.3454 0.
13.2575 36.3609 0.
8.74456 24.0369 0.
12.0854 33.4729 0.
3.66656 10.1512 0.
-2.11753 -5.66103 0.
-0.574753 -1.53311 0.
-25.1975 -69.7831 0.
-0.0479634 -10.0549 0.
-0.755827 -2.09156 0.
-0.0580645 -4.53903 0.
0.483621 1.33483 0.
-0.0551203 -5.26969 0.
-23.6829 -65.4808 0.
-8.0121 -21.9777 0.
-14.3694 -38.1602 0.
-9.57706 -23.9571 0.
-31.9407 -81.1153 0.
-0.0425855 -0.104091 0.
-1.4406 -3.75597 0.
-19.9238 -54.7861 0.
-0.00732347 -0.73365 0.
7.78748e-05 0.124282 0.
-0.00106423 -0.663926 0.
-0.164525 -10.2749 0.
-0.0108704 -8.72783 0.
6.33688 17.2256 0.
1.58814 4.39451 0.
-0.0649144 -29.6325 0.
-34.6657 -96.0179 0.
-1.86963 -4.89828 0.
0.389434 1.0539 0.
-13.3229 -36.6088 0.
-27.0685 -74.4027 0.
5.96322 16.2476 0.
5.55625 15.1076 0.
12.1782 33.4445 0.
15.3394 42.0234 0.
-8.32591 -22.4577 0.
-22.076 -59.6454 0.
10.2809 27.7701 0.
-88.3645 -241.793 0.
4.82208 12.9316 0.
-9.37363 -25.1018 0.
0.647787 1.6729 0.
12.726 33.8159 0.
-1.99922 -5.19059 0.
0.226536 0.57287 0.
-169.75 -446.834 0.
8.88873 23.0486 0.
-1.37867 -3.61199 0.
-0.948681 -49.8562 0.
13.9703 36.2034 0.
-6.64232 -16.8088 0.
-10.6324 -27.4387 0.
-118.737 -301.149 0.
7.90483 19.7405 0.
-11.4127 -29.0377 0.
-2.55697 -50.8828 0.
-2.26616 -40.3585 0.
-18.1617 -45.0957 0.
23.6675 57.3798 0.
-2.68639 -6.24548 0.
-4.18743 -43.4118 0.
17.5316 40.2186 0.
-0.00926242 -0.020805 0.
1.2262 3.11617 0.
12.6782 30.5332 0.
-7.45008 -47.8357 0.
27.2184 58.1262 0.
14.2316 31.0946 0.
21.7092 48.5167 0.
-4.86423 -45.6949 0.
21.6534 50.208 0.
-190.124 -466.987 0.
-4.42604 -10.403 0.
-2.68089 -45.2735 0.
-157.813 -395.75 0.
20.5866 49.2661 0.
7.75648 19.2451 0.
13.0154 32.6079 0.
11.1894 27.7482 0.
-4.45691 -11.2735 0.
-55.3636 -141.461 0.
-2.19479 -5.38333 0.
-2.113 -43.8201 0.
-50.28 -130.043 0.
8.02616 18.897 0.
3.10888 7.74182 0.
14.6565 37.8499 0.
-24.5049 -64.1533 0.
-2.39208 -6.40746 0.
15.5838 42.3039 0.
11.0513 30.299 0.
16.3416 43.1311 0.
-0.961631 -39.8786 0.
3.5123 9.32696 0.
-15.9518 -43.5513 0.
1.9135 5.24417 0.
-8.33063 -21.9664 0.
3.91998 10.4566 0.
-0.174214 -38.8253 0.
-0.379769 -1.04309 0.
6.59276 18.2499 0.
3.19151 8.66967 0.
7.84627 20.8446 0.
-8.25331 -22.0177 0.
-28.5431 -78.6688 0.
0.509893 1.37231 0.
0.799907 2.21484 0.
7.82654 20.8193 0.
-0.00265268 -3.76514 0.
1.4355 3.92688 0.
-11.5351 -29.1845 0.
-1.7523 -4.53287 0.
-15.4993 -39.4432 0.
-12.4395 -34.2821 0.
-22.7172 -58.8279 0.
-1.79467 -4.6237 0.
-0.597782 -1.44797 0.
-60.097 -134.183 0.
-4.94309e-05 -0.210415 0.
-0.000706702 -1.49756 0.
-19.2287 -52.8328 0.
-0.199553 -11.116 0.
4.79123 13.2704 0.
-0.216234 -16.2745 0.
1.77663 4.89441 0.
1.91366 5.2199 0.
6.40744 17.707 0.
13.7634 36.0711 0.
-9.18974 -24.1454 0.
3.01152 8.27475 0.
-13.1318 -36.0938 0.
-9.17553 -25.0377 0.
-6.10621 -16.6295 0.
4.1645 11.1287 0.
-201.653 -551.532 0.
6.77495 18.2538 0.
-35.5199 -95.8627 0.
1.68149 4.53416 0.
15.1562 40.0916 0.
-128.601 -344.788 0.
-4.32586 -11.5804 0.
11.4628 29.4356 0.
17.6622 46.7884 0.
-132.237 -344.335 0.
-1.65878 -4.20684 0.
8.18928 20.2081 0.
-0.70908 -1.83686 0.
-5.01816 -13.1751 0.
0.246851 0.623338 0.
-57.9291 -150.458 0.
-1.57896 -40.6516 0.
9.19447 22.596 0.
-7.39047 -18.8154 0.
-2.02091 -45.8676 0.
-1.95318 -35.8038 0.
-3.53537 -8.78249 0.
-6.08044 -14.9925 0.
-0.153399 -0.357971 0.
15.9787 38.9155 0.
14.5514 34.7003 0.
17.152 37.742 0.
-61.1619 -137.699 0.
-2.02081 -4.46349 0.
20.4078 49.6005 0.
9.56825 22.7879 0.
5.1866 10.3845 0.
4.86824 10.1591 0.
-5.99612 -51.4493 0.
8.03299 16.1112 0.
3.05838 6.95431 0.
1.57653 3.74411 0.
-7.38249 -16.9379 0.
9.8812 23.3134 0.
-31.0458 -75.7747 0.
-2.26226 -29.3245 0.
-2.77518 -41.9887 0.
-141.515 -352.06 0.
3.56545 8.21466 0.
-7.24745 -18.16 0.
11.5424 29.3605 0.
19.9907 45.8438 0.
-1.62728 -3.9872 0.
-5.73154 -14.3505 0.
5.53649 12.6828 0.
-2.8748 -39.1066 0.
-85.4658 -213.933 0.
-6.67695 -17.1821 0.
2.18133 5.32848 0.
1.55361 4.16399 0.
-26.2738 -71.3735 0.
-0.977938 -2.48754 0.
6.92433 18.1718 0.
-3.34317 -8.78519 0.
-57.1271 -152.173 0.
-38.3006 -104.335 0.
8.88645 23.0798 0.
10.7891 28.4202 0.
-59.0875 -157.529 0.
-100.818 -276 0.
-33.9074 -93.0595 0.
-6.67932 -17.772 0.
-69.966 -189.301 0.
3.28477 8.72764 0.
-14.2693 -38.074 0.
-31.8975 -87.0314 0.
12.2853 32.3749 0.
-1.3707 -3.64567 0.
7.33296 19.2421 0.
-40.6219 -112.1 0.
-0.0210974 -0.997235 0.
0.209974 0.56525 0.
0.134096 0.362161 0.
-1.67449 -4.52428 0.
-5.20472 -14.3059 0.
-23.1741 -60.1581 0.
0.12395 0.312111 0.
-0.0437502 -0.585709 0.
-14.3536 -31.557 0.
0.507914 1.36427 0.
0.212314 0.582936 0.
0.476364 3.70613 0.
-0.23756 -6.28383 0.
-11.0139 -30.0924 0.
7.82662 19.7993 0.
-2.08062 -5.69187 0.
-0.192735 -15.8498 0.
7.10752 19.5226 0.
5.02544 13.1635 0.
-29.4607 -77.3644 0.
6.25665 16.4031 0.
-3.86842 -10.6322 0.
-50.4805 -137.958 0.
9.94685 27.1321 0.
-9.7172 -25.8331 0.
5.5268 14.5409 0.
-2.70505 -7.27935 0.
-29.6567 -79.9461 0.
-44.3378 -119.387 0.
-2.75391 -7.26712 0.
0.27901 0.686409 0.
14.8977 39.8699 0.
-34.4668 -88.0244 0.
9.90587 24.5229 0.
-45.7516 -119.576 0.
9.43184 24.0135 0.
-3.05553 -7.53613 0.
1.41296 3.26099 0.
-85.7312 -225.877 0.
11.0519 27.9773 0.
5.98243 14.0873 0.
12.4469 31.6547 0.
9.14033 22.3921 0.
8.54471 19.9044 0.
16.5829 41.7782 0.
2.08976 5.20507 0.
-3.58941 -38.5032 0.
-79.6201 -197.994 0.
-2.37823 -31.1245 0.
-4.13179 -37.8897 0.
-103.539 -253.339 0.
12.5074 28.2461 0.
-5.04905 -32.4512 0.
-6.00453 -48.7231 0.
-6.93641 -51.9249 0.
20.492 48.0029 0.
