# vtk DataFile Version 2.0
test grain
ASCII
DATASET UNSTRUCTURED_GRID
POINTS 5000 float
0.499609 0.000943013 0.
0.501702 0.00095777 0.
0.50379 0.000972842 0.
0.505867 0.000985731 0.
0.507895 0.000987437 0.
0.509924 0.000989147 0.
0.511946 0.000991158 0.
0.513959 0.000993594 0.
0.515973 0.000996036 0.
0.51798 0.000997374 0.
0.519983 0.000998135 0.
0.521987 0.000998896 0.
0.523988 0.000999248 0.
0.525989 0.000999546 0.
0.527991 0.000999818 0.
0.529992 0.000999882 0.
0.531993 0.000999947 0.
0.533994 0.001 0.
0.535995 0.00100003 0.
0.537996 0.00100006 0.
0.539996 0.00100013 0.
0.541997 0.00100023 0.
0.543997 0.00100033 0.
0.545998 0.0010003 0.
0.547998 0.00100023 0.
0.549998 0.00100016 0.
0.551998 0.00100022 0.
0.553999 0.00100028 0.
0.555999 0.00100034 0.
0.557999 0.00100042 0.
0.559999 0.0010005 0.
0.561999 0.00100055 0.
0.563999 0.00100058 0.
0.566 0.00100062 0.
0.568 0.00100059 0.
0.57 0.00100054 0.
0.572 0.00100049 0.
0.574 0.00100055 0.
0.576 0.00100062 0.
0.578 0.00100067 0.
0.58 0.00100066 0.
0.582 0.00100064 0.
0.584 0.00100063 0.
0.586 0.00100062 0.
0.588 0.0010006 0.
0.59 0.00100061 0.
0.592 0.00100062 0.
0.594 0.00100064 0.
0.596 0.00100063 0.
0.598 0.00100061 0.
0.6 0.0010006 0.
0.602 0.00100061 0.
0.604 0.00100062 0.
0.606 0.00100063 0.
0.608 0.00100063 0.
0.61 0.00100062 0.
0.612 0.00100062 0.
0.614 0.00100063 0.
0.616 0.00100063 0.
0.618 0.00100062 0.
0.62 0.00100061 0.
0.622 0.00100059 0.
0.624 0.00100054 0.
0.626 0.00100048 0.
0.628 0.00100044 0.
0.63 0.00100049 0.
0.632 0.00100055 0.
0.634 0.00100058 0.
0.636001 0.00100054 0.
0.638001 0.0010005 0.
0.640001 0.00100042 0.
0.642001 0.00100032 0.
0.644002 0.00100022 0.
0.646002 0.00100019 0.
0.648002 0.00100017 0.
0.650002 0.00100016 0.
0.652002 0.00100019 0.
0.654003 0.00100023 0.
0.656003 0.00100024 0.
0.658004 0.00100014 0.
0.660004 0.00100005 0.
0.662005 0.000999999 0.
0.664006 0.001 0.
0.666006 0.001 0.
0.668008 0.000999906 0.
0.670009 0.000999757 0.
0.672011 0.000999608 0.
0.674012 0.0009993 0.
0.676013 0.000998973 0.
0.678015 0.000998528 0.
0.680021 0.000997201 0.
0.682026 0.000995876 0.
0.684036 0.000993966 0.
0.686056 0.000990951 0.
0.688076 0.000987945 0.
0.690109 0.000984956 0.
0.692152 0.00098197 0.
0.694195 0.000978993 0.
0.696291 0.000967021 0.
0.698397 0.000953612 0.
0.499395 0.00282643 0.
0.501514 0.00287082 0.
0.503626 0.0029163 0.
0.50573 0.00295704 0.
0.507779 0.00296218 0.
0.509829 0.00296733 0.
0.511871 0.0029733 0.
0.513901 0.00298064 0.
0.515932 0.002988 0.
0.517948 0.00299209 0.
0.519958 0.00299438 0.
0.521967 0.00299667 0.
0.523971 0.00299774 0.
0.525974 0.00299863 0.
0.527978 0.00299945 0.
0.529981 0.00299965 0.
0.531984 0.00299984 0.
0.533986 0.003 0.
0.535988 0.00300009 0.
0.53799 0.00300017 0.
0.539991 0.00300038 0.
0.541992 0.00300068 0.
0.543993 0.00300099 0.
0.545994 0.0030009 0.
0.547994 0.00300069 0.
0.549995 0.00300049 0.
0.551995 0.00300066 0.
0.553996 0.00300083 0.
0.555996 0.00300101 0.
0.557997 0.00300125 0.
0.559997 0.00300149 0.
0.561998 0.00300166 0.
0.563998 0.00300175 0.
0.565999 0.00300185 0.
0.567999 0.00300178 0.
0.569999 0.00300162 0.
0.572 0.00300147 0.
0.574 0.00300164 0.
0.575999 0.00300185 0.
0.577999 0.00300202 0.
0.58 0.00300198 0.
0.582 0.00300193 0.
0.584 0.00300189 0.
0.586 0.00300185 0.
0.588 0.00300181 0.
0.59 0.00300182 0.
0.592 0.00300187 0.
0.594 0.00300191 0.
0.596 0.00300189 0.
0.598 0.00300184 0.
0.6 0.00300179 0.
0.602 0.00300183 0.
0.604 0.00300186 0.
0.606 0.00300188 0.
0.608 0.00300188 0.
0.61 0.00300187 0.
0.612 0.00300187 0.
0.614 0.00300188 0.
0.616 0.00300189 0.
0.618 0.00300187 0.
0.62 0.00300182 0.
0.622001 0.00300178 0.
0.624 0.00300162 0.
0.626 0.00300144 0.
0.628 0.00300131 0.
0.630001 0.00300148 0.
0.632001 0.00300166 0.
0.634001 0.00300174 0.
0.636002 0.00300162 0.
0.638002 0.0030015 0.
0.640003 0.00300127 0.
0.642004 0.00300097 0.
0.644004 0.00300066 0.
0.646005 0.00300056 0.
0.648005 0.00300052 0.
0.650005 0.00300047 0.
0.652006 0.00300058 0.
0.654007 0.00300069 0.
0.656008 0.00300072 0.
0.658009 0.00300043 0.
0.66001 0.00300015 0.
0.662012 0.003 0.
0.664014 0.00300001 0.
0.666016 0.00300001 0.
0.668019 0.00299972 0.
0.670023 0.00299927 0.
0.672027 0.00299882 0.
0.674031 0.00299789 0.
0.676035 0.00299691 0.
0.67804 0.00299554 0.
0.680054 0.00299156 0.
0.682067 0.00298757 0.
0.68409 0.00298173 0.
0.686129 0.00297264 0.
0.688168 0.00296358 0.
0.690223 0.0029546 0.
0.692289 0.00294559 0.
0.694354 0.00293662 0.
0.696478 0.00289871 0.
0.698611 0.00285818 0.
0.49918 0.00470635 0.
0.501323 0.00478051 0.
0.50346 0.00485676 0.
0.505591 0.00492813 0.
0.507662 0.00493674 0.
0.509734 0.00494536 0.
0.511796 0.00495522 0.
0.513843 0.0049675 0.
0.515891 0.00497982 0.
0.517917 0.00498677 0.
0.519932 0.00499059 0.
0.521946 0.00499441 0.
0.523953 0.00499622 0.
0.525959 0.00499771 0.
0.527965 0.00499908 0.
0.529969 0.00499941 0.
0.531974 0.00499973 0.
0.533978 0.005 0.
0.535981 0.00500014 0.
0.537984 0.00500029 0.
0.539985 0.00500063 0.
0.541987 0.00500113 0.
0.543988 0.00500164 0.
0.54599 0.00500149 0.
0.547991 0.00500116 0.
0.549992 0.00500082 0.
0.551992 0.00500109 0.
0.553993 0.00500137 0.
0.555993 0.00500168 0.
0.557994 0.00500208 0.
0.559996 0.00500248 0.
0.561996 0.00500277 0.
0.563997 0.00500292 0.
0.565998 0.00500308 0.
0.567998 0.00500296 0.
0.569999 0.00500271 0.
0.571999 0.00500246 0.
0.573999 0.00500273 0.
0.575999 0.00500308 0.
0.577999 0.00500337 0.
0.579999 0.0050033 0.
0.582 0.00500322 0.
0.584 0.00500315 0.
0.586 0.00500308 0.
0.588 0.00500302 0.
0.59 0.00500303 0.
0.592 0.00500311 0.
0.594001 0.00500319 0.
0.596001 0.00500315 0.
0.598001 0.00500307 0.
0.6 0.00500299 0.
0.602 0.00500305 0.
0.604 0.0050031 0.
0.605999 0.00500314 0.
0.607999 0.00500313 0.
0.609999 0.00500312 0.
0.612 0.00500313 0.
0.614 0.00500314 0.
0.616 0.00500315 0.
0.618 0.00500311 0.
0.620001 0.00500304 0.
0.622001 0.00500297 0.
0.624001 0.0050027 0.
0.626001 0.0050024 0.
0.628 0.00500218 0.
0.630001 0.00500247 0.
0.632002 0.00500276 0.
0.634002 0.00500289 0.
0.636003 0.00500269 0.
0.638004 0.00500249 0.
0.640005 0.00500212 0.
0.642006 0.00500161 0.
0.644007 0.0050011 0.
0.646008 0.00500093 0.
0.648009 0.00500086 0.
0.650009 0.00500079 0.
0.65201 0.00500097 0.
0.654012 0.00500116 0.
0.656013 0.00500119 0.
0.658015 0.00500072 0.
0.660017 0.00500024 0.
0.662019 0.00499999 0.
0.664023 0.00500001 0.
0.666026 0.00500002 0.
0.668031 0.00499952 0.
0.670037 0.00499877 0.
0.672043 0.00499803 0.
0.674049 0.00499648 0.
0.676056 0.00499484 0.
0.678065 0.00499251 0.
0.680087 0.00498584 0.
0.682109 0.00497919 0.
0.684144 0.00496927 0.
0.686203 0.00495405 0.
0.688261 0.00493887 0.
0.690338 0.00492387 0.
0.692427 0.00490879 0.
0.694515 0.00489351 0.
0.696668 0.00482721 0.
0.698827 0.00475917 0.
0.499027 0.0065607 0.
0.501173 0.00665102 0.
0.503313 0.00674671 0.
0.505449 0.00683822 0.
0.507534 0.00685879 0.
0.509619 0.00687896 0.
0.511694 0.00689929 0.
0.513751 0.00692026 0.
0.515808 0.00694132 0.
0.517847 0.00695565 0.
0.519876 0.0069656 0.
0.521904 0.00697559 0.
0.523919 0.00698117 0.
0.525932 0.00698598 0.
0.527944 0.00699055 0.
0.529952 0.0069926 0.
0.53196 0.00699464 0.
0.533967 0.00699649 0.
0.535971 0.0069979 0.
0.537976 0.00699931 0.
0.539979 0.00700031 0.
0.541981 0.00700098 0.
0.543983 0.00700165 0.
0.545984 0.00700165 0.
0.547986 0.00700146 0.
0.549988 0.00700127 0.
0.551988 0.00700164 0.
0.553989 0.00700202 0.
0.55599 0.0070024 0.
0.557991 0.00700279 0.
0.559993 0.00700318 0.
0.561994 0.00700353 0.
0.563995 0.00700384 0.
0.565996 0.00700415 0.
0.567997 0.00700426 0.
0.569997 0.00700427 0.
0.571998 0.00700429 0.
0.573998 0.00700453 0.
0.575998 0.0070048 0.
0.577998 0.00700504 0.
0.579998 0.00700502 0.
0.581999 0.00700501 0.
0.583999 0.00700501 0.
0.585999 0.00700507 0.
0.588 0.00700513 0.
0.59 0.00700519 0.
0.592 0.00700524 0.
0.594 0.00700529 0.
0.596 0.00700525 0.
0.598 0.00700519 0.
0.6 0.00700512 0.
0.602 0.00700523 0.
0.604 0.00700534 0.
0.606 0.00700541 0.
0.608 0.00700534 0.
0.61 0.00700527 0.
0.612 0.00700519 0.
0.614001 0.00700512 0.
0.616001 0.00700504 0.
0.618001 0.00700494 0.
0.620002 0.00700484 0.
0.622002 0.00700473 0.
0.624002 0.00700447 0.
0.626002 0.00700418 0.
0.628002 0.00700393 0.
0.630003 0.00700397 0.
0.632004 0.00700401 0.
0.634005 0.00700392 0.
0.636006 0.00700358 0.
0.638007 0.00700324 0.
0.640009 0.0070028 0.
0.64201 0.00700226 0.
0.644011 0.00700173 0.
0.646012 0.0070014 0.
0.648013 0.00700113 0.
0.650014 0.00700086 0.
0.652016 0.00700103 0.
0.654018 0.0070012 0.
0.65602 0.00700114 0.
0.658022 0.00700028 0.
0.660025 0.00699942 0.
0.662029 0.00699807 0.
0.664034 0.00699613 0.
0.66604 0.00699419 0.
0.668048 0.00699203 0.
0.670058 0.00698977 0.
0.672068 0.00698752 0.
0.674083 0.00698198 0.
0.676099 0.00697614 0.
0.678118 0.00696899 0.
0.680154 0.00695467 0.
0.68219 0.00694042 0.
0.684239 0.00692195 0.
0.686307 0.00689727 0.
0.688375 0.00687272 0.
0.690464 0.00684561 0.
0.692564 0.00681729 0.
0.694665 0.00678779 0.
0.696822 0.00670527 0.
0.698984 0.00662116 0.
0.498875 0.00841338 0.
0.501023 0.00851819 0.
0.503166 0.00863345 0.
0.505306 0.00874512 0.
0.507404 0.00877898 0.
0.509502 0.0088111 0.
0.51159 0.00884242 0.
0.513657 0.00887227 0.
0.515724 0.00890226 0.
0.517777 0.0089242 0.
0.519819 0.00894036 0.
0.521861 0.00895658 0.
0.523885 0.00896604 0.
0.525905 0.0089742 0.
0.527924 0.008982 0.
0.529935 0.00898577 0.
0.531947 0.00898954 0.
0.533956 0.00899296 0.
0.535962 0.00899564 0.
0.537968 0.00899831 0.
0.539972 0.00899999 0.
0.541974 0.00900082 0.
0.543977 0.00900165 0.
0.545979 0.0090018 0.
0.547981 0.00900176 0.
0.549983 0.00900171 0.
0.551984 0.00900219 0.
0.553985 0.00900267 0.
0.555986 0.00900312 0.
0.557988 0.0090035 0.
0.55999 0.00900388 0.
0.561991 0.00900429 0.
0.563992 0.00900475 0.
0.565994 0.00900521 0.
0.567995 0.00900556 0.
0.569996 0.00900584 0.
0.571997 0.00900612 0.
0.573997 0.00900633 0.
0.575997 0.00900653 0.
0.577997 0.00900671 0.
0.579997 0.00900675 0.
0.581998 0.00900679 0.
0.583999 0.00900688 0.
0.585999 0.00900706 0.
0.587999 0.00900725 0.
0.589999 0.00900735 0.
0.592 0.00900737 0.
0.594 0.00900739 0.
0.596 0.00900736 0.
0.598 0.00900731 0.
0.6 0.00900725 0.
0.602 0.00900741 0.
0.604 0.00900758 0.
0.606 0.00900767 0.
0.608001 0.00900754 0.
0.610001 0.00900741 0.
0.612001 0.00900726 0.
0.614001 0.00900709 0.
0.616002 0.00900692 0.
0.618002 0.00900677 0.
0.620003 0.00900663 0.
0.622003 0.0090065 0.
0.624004 0.00900623 0.
0.626004 0.00900595 0.
0.628004 0.00900568 0.
0.630005 0.00900547 0.
0.632006 0.00900525 0.
0.634007 0.00900495 0.
0.636009 0.00900447 0.
0.638011 0.00900399 0.
0.640012 0.00900347 0.
0.642014 0.00900292 0.
0.644015 0.00900236 0.
0.646017 0.00900187 0.
0.648018 0.0090014 0.
0.650019 0.00900093 0.
0.652022 0.00900109 0.
0.654024 0.00900125 0.
0.656027 0.00900109 0.
0.65803 0.00899984 0.
0.660033 0.00899859 0.
0.662039 0.00899612 0.
0.664046 0.00899223 0.
0.666054 0.00898833 0.
0.668065 0.00898453 0.
0.670079 0.00898076 0.
0.672093 0.00897699 0.
0.674117 0.00896739 0.
0.676142 0.00895732 0.
0.678171 0.00894518 0.
0.680222 0.0089231 0.
0.682273 0.00890112 0.
0.684335 0.00887385 0.
0.686413 0.00883948 0.
0.68849 0.00880529 0.
0.690591 0.00876534 0.
0.692703 0.00872323 0.
0.694815 0.00867867 0.
0.696975 0.00857994 0.
0.699139 0.00847996 0.
0.498756 0.0102788 0.
0.500905 0.010392 0.
0.50305 0.01052 0.
0.505192 0.0106444 0.
0.507299 0.0106916 0.
0.509405 0.010736 0.
0.511502 0.0107784 0.
0.513575 0.0108156 0.
0.515648 0.0108528 0.
0.51771 0.0108822 0.
0.519762 0.0109057 0.
0.521814 0.0109293 0.
0.523845 0.0109441 0.
0.525872 0.0109571 0.
0.527897 0.0109695 0.
0.529912 0.0109751 0.
0.531927 0.0109807 0.
0.53394 0.010986 0.
0.535948 0.0109904 0.
0.537957 0.0109948 0.
0.539963 0.0109976 0.
0.541966 0.010999 0.
0.54397 0.0110004 0.
0.545973 0.0110009 0.
0.547976 0.0110011 0.
0.549979 0.0110012 0.
0.55198 0.0110019 0.
0.553981 0.0110025 0.
0.555983 0.0110031 0.
0.557985 0.0110035 0.
0.559986 0.0110039 0.
0.561988 0.0110044 0.
0.56399 0.011005 0.
0.565991 0.0110055 0.
0.567993 0.011006 0.
0.569994 0.0110065 0.
0.571995 0.0110069 0.
0.573996 0.0110072 0.
0.575996 0.0110075 0.
0.577996 0.0110078 0.
0.579997 0.0110079 0.
0.581997 0.011008 0.
0.583998 0.0110082 0.
0.585998 0.0110085 0.
0.587999 0.0110088 0.
0.589999 0.0110089 0.
0.591999 0.0110089 0.
0.594 0.0110089 0.
0.596 0.0110089 0.
0.598 0.0110089 0.
0.6 0.0110089 0.
0.602001 0.011009 0.
0.604001 0.0110092 0.
0.606001 0.0110093 0.
0.608001 0.0110092 0.
0.610001 0.011009 0.
0.612002 0.0110088 0.
0.614002 0.0110085 0.
0.616003 0.0110082 0.
0.618003 0.011008 0.
0.620004 0.0110078 0.
0.622005 0.0110076 0.
0.624005 0.0110072 0.
0.626006 0.0110068 0.
0.628006 0.0110064 0.
0.630007 0.0110059 0.
0.632009 0.0110055 0.
0.63401 0.011005 0.
0.636012 0.0110045 0.
0.638014 0.011004 0.
0.640016 0.0110034 0.
0.642018 0.0110028 0.
0.64402 0.0110022 0.
0.646021 0.0110015 0.
0.648023 0.0110008 0.
0.650024 0.0110001 0.
0.652028 0.011 0.
0.654031 0.0109999 0.
0.656035 0.0109993 0.
0.658039 0.0109973 0.
0.660044 0.0109952 0.
0.662052 0.0109913 0.
0.664062 0.0109852 0.
0.666072 0.0109791 0.
0.668088 0.0109735 0.
0.670105 0.010968 0.
0.672123 0.0109625 0.
0.674155 0.0109467 0.
0.676189 0.0109302 0.
0.678227 0.0109112 0.
0.680288 0.0108813 0.
0.682349 0.0108514 0.
0.68442 0.0108162 0.
0.686503 0.010774 0.
0.688586 0.010732 0.
0.690696 0.0106795 0.
0.692814 0.0106239 0.
0.694934 0.0105653 0.
0.697095 0.0104565 0.
0.699261 0.0103463 0.
0.4987 0.0121615 0.
0.500843 0.0122737 0.
0.502982 0.0124051 0.
0.505119 0.0125335 0.
0.507227 0.0125942 0.
0.509332 0.0126517 0.
0.51143 0.0127059 0.
0.513505 0.0127487 0.
0.515581 0.0127915 0.
0.517647 0.0128284 0.
0.519704 0.0128607 0.
0.521762 0.0128931 0.
0.523799 0.0129149 0.
0.525832 0.0129343 0.
0.527864 0.012953 0.
0.529883 0.0129606 0.
0.531902 0.0129682 0.
0.533919 0.0129755 0.
0.535931 0.0129822 0.
0.537943 0.0129889 0.
0.539951 0.0129933 0.
0.541957 0.0129956 0.
0.543962 0.012998 0.
0.545966 0.0129989 0.
0.54797 0.0129994 0.
0.549973 0.0129999 0.
0.551975 0.0130007 0.
0.553977 0.0130015 0.
0.555979 0.0130023 0.
0.557981 0.0130028 0.
0.559983 0.0130033 0.
0.561985 0.0130038 0.
0.563987 0.0130044 0.
0.565989 0.0130051 0.
0.56799 0.0130057 0.
0.569992 0.0130062 0.
0.571993 0.0130067 0.
0.573994 0.0130072 0.
0.575994 0.0130078 0.
0.577995 0.0130082 0.
0.579996 0.0130084 0.
0.581996 0.0130086 0.
0.583997 0.0130089 0.
0.585997 0.0130093 0.
0.587998 0.0130098 0.
0.589999 0.01301 0.
0.591999 0.0130099 0.
0.593999 0.0130099 0.
0.596 0.0130099 0.
0.598 0.0130099 0.
0.6 0.01301 0.
0.602001 0.0130101 0.
0.604001 0.0130102 0.
0.606001 0.0130103 0.
0.608001 0.0130102 0.
0.610002 0.0130101 0.
0.612002 0.0130099 0.
0.614003 0.0130094 0.
0.616004 0.0130089 0.
0.618005 0.0130085 0.
0.620005 0.0130082 0.
0.622006 0.013008 0.
0.624007 0.0130074 0.
0.626008 0.0130067 0.
0.628008 0.013006 0.
0.63001 0.0130054 0.
0.632011 0.0130047 0.
0.634013 0.0130041 0.
0.636015 0.0130036 0.
0.638017 0.0130031 0.
0.640019 0.0130025 0.
0.642022 0.0130019 0.
0.644024 0.0130012 0.
0.646026 0.0130003 0.
0.648028 0.0129994 0.
0.65003 0.0129985 0.
0.652034 0.0129978 0.
0.654039 0.0129972 0.
0.656043 0.0129959 0.
0.65805 0.0129926 0.
0.660057 0.0129893 0.
0.662068 0.0129836 0.
0.664082 0.012975 0.
0.666096 0.0129665 0.
0.668115 0.0129588 0.
0.670136 0.0129513 0.
0.672158 0.0129439 0.
0.674198 0.0129194 0.
0.67624 0.012894 0.
0.678287 0.0128662 0.
0.680352 0.0128279 0.
0.682418 0.0127898 0.
0.684492 0.0127472 0.
0.686576 0.0126993 0.
0.68866 0.0126514 0.
0.690769 0.0125862 0.
0.692886 0.0125168 0.
0.695004 0.012445 0.
0.69716 0.012334 0.
0.699319 0.012222 0.
0.498645 0.0140443 0.
0.500782 0.0141553 0.
0.502915 0.0142899 0.
0.505047 0.0144224 0.
0.507154 0.0144962 0.
0.509259 0.0145669 0.
0.511358 0.0146332 0.
0.513436 0.0146816 0.
0.515514 0.0147301 0.
0.517583 0.0147744 0.
0.519646 0.0148154 0.
0.521709 0.0148566 0.
0.523753 0.0148855 0.
0.525793 0.0149114 0.
0.527831 0.0149365 0.
0.529854 0.0149461 0.
0.531877 0.0149557 0.
0.533898 0.0149651 0.
0.535914 0.014974 0.
0.537929 0.0149829 0.
0.53994 0.0149889 0.
0.541947 0.0149922 0.
0.543955 0.0149955 0.
0.54596 0.0149969 0.
0.547964 0.0149977 0.
0.549968 0.0149985 0.
0.55197 0.0149995 0.
0.553973 0.0150006 0.
0.555975 0.0150015 0.
0.557977 0.0150021 0.
0.55998 0.0150026 0.
0.561982 0.0150032 0.
0.563984 0.0150039 0.
0.565986 0.0150047 0.
0.567988 0.0150053 0.
0.569989 0.0150059 0.
0.571991 0.0150065 0.
0.573992 0.0150073 0.
0.575993 0.015008 0.
0.577994 0.0150087 0.
0.579995 0.015009 0.
0.581995 0.0150093 0.
0.583996 0.0150096 0.
0.585997 0.0150102 0.
0.587998 0.0150108 0.
0.589998 0.015011 0.
0.591999 0.0150109 0.
0.593999 0.0150108 0.
0.596 0.0150109 0.
0.598 0.015011 0.
0.6 0.0150111 0.
0.602001 0.0150112 0.
0.604001 0.0150112 0.
0.606001 0.0150113 0.
0.608001 0.0150113 0.
0.610002 0.0150113 0.
0.612003 0.0150109 0.
0.614004 0.0150102 0.
0.616005 0.0150095 0.
0.618006 0.015009 0.
0.620007 0.0150087 0.
0.622008 0.0150084 0.
0.624009 0.0150075 0.
0.62601 0.0150066 0.
0.628011 0.0150057 0.
0.630012 0.0150048 0.
0.632014 0.0150039 0.
0.634016 0.0150032 0.
0.636018 0.0150027 0.
0.638021 0.0150023 0.
0.640023 0.0150017 0.
0.642026 0.015001 0.
0.644028 0.0150002 0.
0.646031 0.0149992 0.
0.648034 0.014998 0.
0.650036 0.0149968 0.
0.652041 0.0149956 0.
0.654046 0.0149944 0.
0.656052 0.0149924 0.
0.658061 0.0149879 0.
0.660071 0.0149834 0.
0.662084 0.0149758 0.
0.664102 0.0149648 0.
0.66612 0.0149539 0.
0.668143 0.0149441 0.
0.670168 0.0149347 0.
0.672193 0.0149253 0.
0.674242 0.0148918 0.
0.676292 0.0148576 0.
0.678346 0.0148208 0.
0.680416 0.0147743 0.
0.682487 0.0147279 0.
0.684564 0.0146781 0.
0.686649 0.0146243 0.
0.688734 0.0145707 0.
0.690842 0.0144923 0.
0.692957 0.0144092 0.
0.695074 0.0143246 0.
0.697224 0.0142114 0.
0.699377 0.0140977 0.
0.498635 0.0159489 0.
0.500762 0.0160581 0.
0.502884 0.0161924 0.
0.505004 0.0163246 0.
0.507105 0.0164064 0.
0.509204 0.0164854 0.
0.511298 0.0165594 0.
0.513376 0.0166114 0.
0.515453 0.0166636 0.
0.517524 0.0167122 0.
0.519588 0.0167581 0.
0.521652 0.0168041 0.
0.523701 0.0168405 0.
0.525746 0.0168745 0.
0.52779 0.0169077 0.
0.529817 0.0169197 0.
0.531844 0.0169317 0.
0.533869 0.0169436 0.
0.535888 0.0169557 0.
0.537908 0.0169678 0.
0.539922 0.0169765 0.
0.541933 0.0169821 0.
0.543944 0.0169877 0.
0.545951 0.0169909 0.
0.547957 0.0169932 0.
0.549962 0.0169956 0.
0.551965 0.0169973 0.
0.553968 0.0169989 0.
0.55597 0.0170004 0.
0.557973 0.0170011 0.
0.559976 0.0170018 0.
0.561978 0.0170026 0.
0.563981 0.0170035 0.
0.565983 0.0170043 0.
0.567985 0.0170051 0.
0.569987 0.0170058 0.
0.571989 0.0170065 0.
0.57399 0.0170075 0.
0.575991 0.0170085 0.
0.577992 0.0170095 0.
0.579993 0.0170099 0.
0.581994 0.0170103 0.
0.583995 0.0170108 0.
0.585996 0.0170114 0.
0.587997 0.0170119 0.
0.589998 0.0170121 0.
0.591999 0.0170121 0.
0.593999 0.017012 0.
0.596 0.0170122 0.
0.598 0.0170125 0.
0.6 0.0170128 0.
0.602001 0.0170128 0.
0.604001 0.0170127 0.
0.606001 0.0170126 0.
0.608002 0.0170124 0.
0.610003 0.0170122 0.
0.612004 0.0170118 0.
0.614005 0.0170111 0.
0.616006 0.0170104 0.
0.618007 0.0170098 0.
0.620009 0.0170093 0.
0.62201 0.0170088 0.
0.624011 0.0170078 0.
0.626012 0.0170067 0.
0.628013 0.0170056 0.
0.630015 0.0170046 0.
0.632017 0.0170036 0.
0.634019 0.0170027 0.
0.636022 0.017002 0.
0.638024 0.0170013 0.
0.640027 0.0170004 0.
0.64203 0.0169994 0.
0.644033 0.0169984 0.
0.646036 0.0169966 0.
0.64804 0.0169946 0.
0.650043 0.0169925 0.
0.65205 0.0169896 0.
0.654057 0.0169868 0.
0.656065 0.0169829 0.
0.658078 0.0169758 0.
0.660091 0.0169688 0.
0.662109 0.0169583 0.
0.664131 0.0169441 0.
0.666153 0.0169299 0.
0.668181 0.0169162 0.
0.670212 0.0169027 0.
0.672242 0.0168891 0.
0.674295 0.0168479 0.
0.676348 0.0168061 0.
0.678405 0.0167625 0.
0.680476 0.0167115 0.
0.682547 0.0166606 0.
0.684624 0.0166064 0.
0.686708 0.0165487 0.
0.688792 0.0164911 0.
0.690893 0.0164057 0.
0.692999 0.0163154 0.
0.695108 0.0162242 0.
0.697244 0.0161121 0.
0.699385 0.0159996 0.
0.49864 0.0178606 0.
0.500752 0.0179667 0.
0.502859 0.0180987 0.
0.504965 0.0182289 0.
0.507058 0.0183175 0.
0.50915 0.0184037 0.
0.511239 0.0184849 0.
0.513316 0.0185406 0.
0.515393 0.0185963 0.
0.517464 0.0186493 0.
0.519529 0.0186999 0.
0.521594 0.0187507 0.
0.523648 0.0187947 0.
0.525698 0.0188369 0.
0.527748 0.0188786 0.
0.52978 0.0188931 0.
0.531811 0.0189075 0.
0.53384 0.018922 0.
0.535863 0.0189373 0.
0.537886 0.0189527 0.
0.539905 0.0189642 0.
0.541919 0.018972 0.
0.543933 0.0189799 0.
0.545942 0.0189848 0.
0.547949 0.0189888 0.
0.549956 0.0189927 0.
0.55196 0.018995 0.
0.553963 0.0189972 0.
0.555966 0.0189992 0.
0.557969 0.0190001 0.
0.559972 0.019001 0.
0.561975 0.019002 0.
0.563978 0.019003 0.
0.56598 0.019004 0.
0.567982 0.0190048 0.
0.569985 0.0190056 0.
0.571987 0.0190064 0.
0.573988 0.0190077 0.
0.575989 0.019009 0.
0.57799 0.0190102 0.
0.579992 0.0190108 0.
0.581993 0.0190114 0.
0.583994 0.019012 0.
0.585995 0.0190125 0.
0.587996 0.0190131 0.
0.589997 0.0190133 0.
0.591998 0.0190132 0.
0.593999 0.0190132 0.
0.596 0.0190136 0.
0.598 0.019014 0.
0.6 0.0190145 0.
0.602001 0.0190143 0.
0.604001 0.0190141 0.
0.606001 0.0190139 0.
0.608002 0.0190135 0.
0.610003 0.0190131 0.
0.612004 0.0190126 0.
0.614006 0.0190119 0.
0.616007 0.0190112 0.
0.618009 0.0190106 0.
0.62001 0.01901 0.
0.622012 0.0190093 0.
0.624013 0.0190081 0.
0.626014 0.0190069 0.
0.628015 0.0190056 0.
0.630018 0.0190044 0.
0.63202 0.0190033 0.
0.634023 0.0190022 0.
0.636025 0.0190012 0.
0.638028 0.0190003 0.
0.640031 0.0189991 0.
0.642035 0.0189979 0.
0.644038 0.0189966 0.
0.646042 0.0189941 0.
0.648046 0.0189912 0.
0.65005 0.0189882 0.
0.652059 0.0189837 0.
0.654068 0.0189791 0.
0.656079 0.0189732 0.
0.658095 0.0189637 0.
0.660112 0.0189541 0.
0.662134 0.0189407 0.
0.66416 0.0189232 0.
0.666186 0.0189058 0.
0.66822 0.0188881 0.
0.670256 0.0188702 0.
0.672292 0.0188521 0.
0.674348 0.0188031 0.
0.676405 0.0187536 0.
0.678465 0.0187032 0.
0.680536 0.0186478 0.
0.682607 0.0185925 0.
0.684684 0.0185341 0.
0.686766 0.0184725 0.
0.688848 0.018411 0.
0.690941 0.0183196 0.
0.693038 0.0182239 0.
0.695135 0.018128 0.
0.697255 0.0180189 0.
0.699378 0.0179095 0.
0.498645 0.0197833 0.
0.500743 0.0198855 0.
0.502838 0.0200138 0.
0.504931 0.0201404 0.
0.507018 0.0202339 0.
0.509105 0.0203256 0.
0.51119 0.0204123 0.
0.513266 0.0204711 0.
0.515342 0.02053 0.
0.517413 0.0205866 0.
0.519479 0.0206412 0.
0.521544 0.0206959 0.
0.523601 0.0207463 0.
0.525656 0.0207956 0.
0.52771 0.0208442 0.
0.529744 0.0208622 0.
0.531779 0.0208798 0.
0.533811 0.0208976 0.
0.535837 0.0209159 0.
0.537864 0.0209341 0.
0.539885 0.0209484 0.
0.541903 0.020959 0.
0.54392 0.0209696 0.
0.545931 0.0209766 0.
0.54794 0.0209824 0.
0.549949 0.0209883 0.
0.551953 0.0209914 0.
0.553957 0.0209944 0.
0.555961 0.020997 0.
0.557965 0.0209984 0.
0.559969 0.0209997 0.
0.561972 0.0210009 0.
0.563975 0.0210019 0.
0.565977 0.021003 0.
0.56798 0.021004 0.
0.569982 0.021005 0.
0.571985 0.021006 0.
0.573986 0.0210074 0.
0.575987 0.0210089 0.
0.577989 0.0210103 0.
0.57999 0.0210109 0.
0.581992 0.0210116 0.
0.583993 0.0210123 0.
0.585994 0.0210129 0.
0.587996 0.0210134 0.
0.589997 0.0210138 0.
0.591998 0.0210139 0.
0.593999 0.0210139 0.
0.596 0.0210144 0.
0.598 0.021015 0.
0.6 0.0210156 0.
0.602001 0.0210153 0.
0.604001 0.021015 0.
0.606002 0.0210146 0.
0.608003 0.021014 0.
0.610004 0.0210134 0.
0.612005 0.0210127 0.
0.614007 0.021012 0.
0.616009 0.0210113 0.
0.61801 0.0210106 0.
0.620012 0.0210099 0.
0.622014 0.0210092 0.
0.624015 0.0210079 0.
0.626016 0.0210064 0.
0.628018 0.021005 0.
0.63002 0.0210037 0.
0.632023 0.0210023 0.
0.634026 0.0210011 0.
0.636029 0.0209999 0.
0.638032 0.0209988 0.
0.640035 0.0209973 0.
0.642039 0.0209956 0.
0.644043 0.0209938 0.
0.646048 0.0209904 0.
0.648053 0.0209865 0.
0.650058 0.0209825 0.
0.65207 0.0209757 0.
0.654081 0.0209689 0.
0.656094 0.0209607 0.
0.658114 0.0209482 0.
0.660134 0.0209358 0.
0.662159 0.0209194 0.
0.664189 0.0208989 0.
0.666219 0.0208784 0.
0.668256 0.0208564 0.
0.670296 0.0208339 0.
0.672336 0.0208111 0.
0.674395 0.0207556 0.
0.676454 0.0206996 0.
0.678516 0.0206434 0.
0.680587 0.0205842 0.
0.682658 0.0205252 0.
0.684734 0.0204632 0.
0.686815 0.0203985 0.
0.688896 0.0203339 0.
0.690982 0.0202382 0.
0.693071 0.0201385 0.
0.695159 0.0200394 0.
0.697264 0.0199341 0.
0.699373 0.0198284 0.
0.498647 0.021737 0.
0.500737 0.0218306 0.
0.502826 0.0219492 0.
0.504913 0.0220666 0.
0.506996 0.0221606 0.
0.509078 0.0222533 0.
0.511158 0.0223419 0.
0.513232 0.0224032 0.
0.515306 0.0224647 0.
0.517376 0.0225241 0.
0.519441 0.0225816 0.
0.521507 0.0226392 0.
0.523564 0.0226944 0.
0.525619 0.0227492 0.
0.527674 0.0228035 0.
0.529711 0.022826 0.
0.531748 0.0228482 0.
0.533783 0.0228701 0.
0.535811 0.022891 0.
0.53784 0.0229119 0.
0.539864 0.0229291 0.
0.541884 0.0229428 0.
0.543904 0.0229566 0.
0.545917 0.0229661 0.
0.547929 0.0229742 0.
0.54994 0.0229823 0.
0.551946 0.0229864 0.
0.553951 0.0229903 0.
0.555956 0.0229939 0.
0.557961 0.0229958 0.
0.559965 0.0229977 0.
0.561969 0.0229992 0.
0.563972 0.0230003 0.
0.565975 0.0230014 0.
0.567977 0.0230026 0.
0.56998 0.0230039 0.
0.571983 0.0230052 0.
0.573984 0.0230066 0.
0.575986 0.0230082 0.
0.577987 0.0230096 0.
0.579989 0.0230103 0.
0.58199 0.023011 0.
0.583992 0.0230117 0.
0.585993 0.0230124 0.
0.587995 0.0230131 0.
0.589996 0.0230136 0.
0.591997 0.0230139 0.
0.593999 0.0230142 0.
0.595999 0.0230148 0.
0.598 0.0230154 0.
0.6 0.0230161 0.
0.602001 0.0230156 0.
0.604002 0.0230152 0.
0.606003 0.0230147 0.
0.608004 0.0230139 0.
0.610005 0.0230131 0.
0.612007 0.0230122 0.
0.614008 0.0230114 0.
0.61601 0.0230106 0.
0.618012 0.0230099 0.
0.620013 0.0230092 0.
0.622015 0.0230086 0.
0.624017 0.023007 0.
0.626018 0.0230054 0.
0.62802 0.0230038 0.
0.630023 0.0230023 0.
0.632025 0.0230008 0.
0.634029 0.0229994 0.
0.636032 0.0229981 0.
0.638035 0.0229968 0.
0.640039 0.0229949 0.
0.642044 0.0229925 0.
0.644049 0.0229901 0.
0.646055 0.0229856 0.
0.648062 0.0229805 0.
0.650069 0.0229754 0.
0.652082 0.0229658 0.
0.654096 0.0229562 0.
0.656112 0.022945 0.
0.658135 0.0229292 0.
0.660158 0.0229135 0.
0.662186 0.022894 0.
0.664217 0.0228706 0.
0.666249 0.0228472 0.
0.668289 0.0228206 0.
0.670331 0.0227931 0.
0.672374 0.0227651 0.
0.674433 0.0227046 0.
0.676491 0.0226436 0.
0.678553 0.0225829 0.
0.680623 0.0225207 0.
0.682693 0.0224586 0.
0.684767 0.0223939 0.
0.686845 0.0223271 0.
0.688923 0.0222603 0.
0.691006 0.0221647 0.
0.693089 0.022066 0.
0.695172 0.0219688 0.
0.69727 0.0218729 0.
0.699373 0.0217769 0.
0.498649 0.0236907 0.
0.500732 0.0237757 0.
0.502814 0.0238847 0.
0.504895 0.0239928 0.
0.506973 0.0240872 0.
0.50905 0.024181 0.
0.511127 0.0242715 0.
0.513199 0.0243353 0.
0.515271 0.0243993 0.
0.517339 0.0244616 0.
0.519404 0.0245219 0.
0.521469 0.0245824 0.
0.523527 0.0246424 0.
0.525582 0.0247028 0.
0.527638 0.0247626 0.
0.529678 0.0247898 0.
0.531717 0.0248165 0.
0.533755 0.0248426 0.
0.535785 0.0248661 0.
0.537816 0.0248896 0.
0.539843 0.0249098 0.
0.541865 0.0249266 0.
0.543888 0.0249435 0.
0.545904 0.0249556 0.
0.547918 0.0249659 0.
0.549931 0.0249763 0.
0.551938 0.0249814 0.
0.553945 0.0249863 0.
0.555951 0.0249907 0.
0.557956 0.0249932 0.
0.559961 0.0249957 0.
0.561965 0.0249976 0.
0.563969 0.0249987 0.
0.565972 0.0249998 0.
0.567975 0.0250012 0.
0.569978 0.0250028 0.
0.571981 0.0250043 0.
0.573982 0.0250059 0.
0.575984 0.0250074 0.
0.577985 0.0250089 0.
0.579987 0.0250097 0.
0.581989 0.0250104 0.
0.583991 0.0250112 0.
0.585992 0.025012 0.
0.587994 0.0250128 0.
0.589996 0.0250134 0.
0.591997 0.025014 0.
0.593998 0.0250145 0.
0.595999 0.0250152 0.
0.598 0.0250159 0.
0.6 0.0250166 0.
0.602002 0.025016 0.
0.604003 0.0250155 0.
0.606004 0.0250148 0.
0.608005 0.0250138 0.
0.610006 0.0250127 0.
0.612008 0.0250117 0.
0.614009 0.0250108 0.
0.616011 0.0250099 0.
0.618013 0.0250092 0.
0.620015 0.0250085 0.
0.622017 0.0250079 0.
0.624018 0.0250062 0.
0.62602 0.0250044 0.
0.628022 0.0250026 0.
0.630025 0.0250009 0.
0.632028 0.0249992 0.
0.634032 0.0249977 0.
0.636035 0.0249963 0.
0.638039 0.0249949 0.
0.640043 0.0249925 0.
0.642049 0.0249894 0.
0.644054 0.0249863 0.
0.646062 0.0249808 0.
0.64807 0.0249746 0.
0.650079 0.0249682 0.
0.652095 0.0249558 0.
0.654111 0.0249434 0.
0.65613 0.0249293 0.
0.658156 0.0249102 0.
0.660182 0.0248912 0.
0.662212 0.0248685 0.
0.664246 0.0248422 0.
0.66628 0.024816 0.
0.668322 0.0247847 0.
0.670367 0.0247522 0.
0.672412 0.024719 0.
0.67447 0.0246535 0.
0.676529 0.0245875 0.
0.678591 0.0245223 0.
0.680659 0.0244571 0.
0.682728 0.024392 0.
0.6848 0.0243245 0.
0.686875 0.0242556 0.
0.68895 0.0241867 0.
0.691029 0.0240912 0.
0.693107 0.0239934 0.
0.695186 0.0238981 0.
0.697277 0.0238117 0.
0.699372 0.0237253 0.
0.498676 0.0256489 0.
0.500752 0.0257291 0.
0.502827 0.0258316 0.
0.5049 0.0259332 0.
0.506971 0.0260264 0.
0.509042 0.0261196 0.
0.511112 0.0262096 0.
0.51318 0.0262745 0.
0.515248 0.0263395 0.
0.517314 0.0264035 0.
0.519376 0.0264662 0.
0.521438 0.0265289 0.
0.523495 0.0265916 0.
0.525549 0.0266548 0.
0.527603 0.0267173 0.
0.529644 0.0267493 0.
0.531685 0.0267807 0.
0.533724 0.0268108 0.
0.535757 0.026836 0.
0.537789 0.0268613 0.
0.539818 0.0268837 0.
0.541842 0.0269032 0.
0.543867 0.0269226 0.
0.545886 0.0269376 0.
0.547902 0.0269509 0.
0.549919 0.0269643 0.
0.551928 0.0269714 0.
0.553936 0.0269782 0.
0.555944 0.0269844 0.
0.55795 0.0269879 0.
0.559956 0.0269914 0.
0.561962 0.0269942 0.
0.563965 0.0269962 0.
0.565969 0.0269981 0.
0.567973 0.027 0.
0.569976 0.0270018 0.
0.571979 0.0270037 0.
0.57398 0.0270054 0.
0.575982 0.0270071 0.
0.577983 0.0270087 0.
0.579985 0.0270095 0.
0.581988 0.0270103 0.
0.58399 0.0270111 0.
0.585991 0.0270121 0.
0.587993 0.027013 0.
0.589995 0.0270138 0.
0.591996 0.0270145 0.
0.593998 0.0270151 0.
0.595999 0.0270158 0.
0.598 0.0270165 0.
0.6 0.0270173 0.
0.602002 0.0270166 0.
0.604003 0.0270159 0.
0.606004 0.0270151 0.
0.608006 0.027014 0.
0.610007 0.0270129 0.
0.612009 0.0270119 0.
0.614011 0.0270109 0.
0.616013 0.0270099 0.
0.618015 0.0270091 0.
0.620017 0.0270083 0.
0.622019 0.0270075 0.
0.62402 0.0270056 0.
0.626022 0.0270036 0.
0.628024 0.0270016 0.
0.630027 0.0269996 0.
0.632031 0.0269976 0.
0.634034 0.0269955 0.
0.636039 0.0269931 0.
0.638043 0.0269907 0.
0.640049 0.0269873 0.
0.642056 0.0269831 0.
0.644063 0.0269789 0.
0.646073 0.0269712 0.
0.648083 0.0269627 0.
0.650094 0.0269538 0.
0.652113 0.0269382 0.
0.654132 0.0269226 0.
0.656153 0.0269054 0.
0.658181 0.0268837 0.
0.660209 0.0268621 0.
0.662241 0.0268371 0.
0.664277 0.0268091 0.
0.666312 0.0267811 0.
0.668355 0.0267457 0.
0.670401 0.0267084 0.
0.672446 0.0266704 0.
0.674503 0.0266025 0.
0.67656 0.026534 0.
0.67862 0.0264665 0.
0.680685 0.0263994 0.
0.68275 0.0263323 0.
0.684818 0.0262632 0.
0.686888 0.0261929 0.
0.688958 0.0261226 0.
0.691029 0.0260296 0.
0.693101 0.0259345 0.
0.695173 0.0258421 0.
0.697256 0.0257622 0.
0.699344 0.0256826 0.
0.498722 0.027617 0.
0.500788 0.0276916 0.
0.502852 0.0277859 0.
0.504913 0.0278794 0.
0.506976 0.0279699 0.
0.509039 0.0280609 0.
0.511101 0.028149 0.
0.513165 0.0282147 0.
0.515228 0.0282803 0.
0.51729 0.0283458 0.
0.519349 0.0284107 0.
0.521408 0.0284756 0.
0.523463 0.0285408 0.
0.525516 0.0286065 0.
0.527568 0.0286716 0.
0.529611 0.0287083 0.
0.531653 0.0287444 0.
0.533694 0.0287786 0.
0.535728 0.0288057 0.
0.537762 0.0288328 0.
0.539792 0.0288574 0.
0.541819 0.0288795 0.
0.543847 0.0289016 0.
0.545868 0.0289195 0.
0.547887 0.0289359 0.
0.549906 0.0289523 0.
0.551917 0.0289613 0.
0.553927 0.0289701 0.
0.555937 0.028978 0.
0.557945 0.0289826 0.
0.559952 0.0289871 0.
0.561958 0.0289909 0.
0.563962 0.0289937 0.
0.565967 0.0289965 0.
0.56797 0.0289988 0.
0.569973 0.0290009 0.
0.571977 0.029003 0.
0.573978 0.0290049 0.
0.57598 0.0290068 0.
0.577982 0.0290085 0.
0.579984 0.0290093 0.
0.581986 0.0290101 0.
0.583988 0.029011 0.
0.58599 0.0290122 0.
0.587992 0.0290133 0.
0.589994 0.0290142 0.
0.591996 0.0290149 0.
0.593997 0.0290156 0.
0.595998 0.0290164 0.
0.597999 0.0290172 0.
0.6 0.0290179 0.
0.602002 0.0290171 0.
0.604003 0.0290163 0.
0.606005 0.0290154 0.
0.608006 0.0290143 0.
0.610008 0.0290132 0.
0.61201 0.0290121 0.
0.614012 0.029011 0.
0.616014 0.0290099 0.
0.618016 0.0290089 0.
0.620018 0.029008 0.
0.622021 0.0290071 0.
0.624022 0.029005 0.
0.626024 0.0290028 0.
0.628026 0.0290005 0.
0.63003 0.0289982 0.
0.632033 0.028996 0.
0.634037 0.0289933 0.
0.636042 0.0289899 0.
0.638047 0.0289866 0.
0.640054 0.0289821 0.
0.642063 0.0289768 0.
0.644071 0.0289715 0.
0.646083 0.0289616 0.
0.648096 0.0289507 0.
0.650109 0.0289394 0.
0.652131 0.0289205 0.
0.654152 0.0289016 0.
0.656177 0.0288812 0.
0.658207 0.0288569 0.
0.660237 0.0288326 0.
0.662271 0.0288054 0.
0.664308 0.0287756 0.
0.666345 0.0287458 0.
0.668389 0.0287062 0.
0.670434 0.0286643 0.
0.67248 0.0286215 0.
0.674535 0.0285514 0.
0.676591 0.0284807 0.
0.678648 0.028411 0.
0.680708 0.0283423 0.
0.682769 0.0282736 0.
0.684832 0.0282031 0.
0.686896 0.0281318 0.
0.68896 0.0280605 0.
0.691023 0.0279715 0.
0.693087 0.0278811 0.
0.695149 0.0277933 0.
0.697221 0.0277205 0.
0.699298 0.027648 0.
0.498765 0.0295904 0.
0.500822 0.0296589 0.
0.502874 0.0297447 0.
0.504925 0.0298299 0.
0.50698 0.0299172 0.
0.509036 0.0300055 0.
0.511093 0.0300914 0.
0.513152 0.0301577 0.
0.515212 0.030224 0.
0.51727 0.0302908 0.
0.519327 0.0303575 0.
0.521383 0.0304243 0.
0.523436 0.0304914 0.
0.525488 0.0305591 0.
0.527539 0.0306263 0.
0.529583 0.0306672 0.
0.531625 0.0307074 0.
0.533666 0.0307453 0.
0.535702 0.0307741 0.
0.537737 0.030803 0.
0.539769 0.0308297 0.
0.541798 0.0308542 0.
0.543827 0.0308786 0.
0.54585 0.0308993 0.
0.547871 0.0309186 0.
0.549893 0.0309379 0.
0.551905 0.0309493 0.
0.553918 0.0309605 0.
0.555929 0.0309706 0.
0.557938 0.0309763 0.
0.559946 0.030982 0.
0.561953 0.0309868 0.
0.563958 0.0309904 0.
0.565963 0.030994 0.
0.567968 0.0309969 0.
0.569971 0.0309994 0.
0.571975 0.0310019 0.
0.573977 0.031004 0.
0.575978 0.0310059 0.
0.57798 0.0310078 0.
0.579983 0.0310087 0.
0.581985 0.0310095 0.
0.583987 0.0310106 0.
0.585989 0.0310118 0.
0.587991 0.0310131 0.
0.589993 0.0310142 0.
0.591995 0.031015 0.
0.593996 0.0310159 0.
0.595998 0.0310167 0.
0.597999 0.0310174 0.
0.6 0.0310182 0.
0.602002 0.0310173 0.
0.604004 0.0310164 0.
0.606005 0.0310154 0.
0.608007 0.0310142 0.
0.610009 0.031013 0.
0.612011 0.0310118 0.
0.614013 0.0310106 0.
0.616015 0.0310094 0.
0.618017 0.0310083 0.
0.62002 0.0310073 0.
0.622022 0.0310062 0.
0.624024 0.0310039 0.
0.626026 0.0310015 0.
0.628028 0.030999 0.
0.630032 0.0309963 0.
0.632036 0.0309936 0.
0.634041 0.0309903 0.
0.636047 0.030986 0.
0.638053 0.0309817 0.
0.640061 0.030976 0.
0.642071 0.0309693 0.
0.644081 0.0309626 0.
0.646094 0.0309503 0.
0.648109 0.0309367 0.
0.650124 0.0309228 0.
0.652148 0.0309007 0.
0.654172 0.0308788 0.
0.656198 0.0308554 0.
0.65823 0.0308287 0.
0.660262 0.030802 0.
0.662297 0.0307727 0.
0.664335 0.0307412 0.
0.666373 0.0307097 0.
0.668417 0.0306664 0.
0.670463 0.0306203 0.
0.672509 0.0305735 0.
0.674562 0.0305016 0.
0.676616 0.0304292 0.
0.678671 0.0303579 0.
0.680728 0.0302877 0.
0.682785 0.0302176 0.
0.684844 0.0301459 0.
0.686903 0.0300739 0.
0.688962 0.0300019 0.
0.691018 0.0299171 0.
0.693074 0.0298313 0.
0.695128 0.0297485 0.
0.697189 0.0296823 0.
0.699255 0.0296168 0.
0.498784 0.0315799 0.
0.500837 0.0316414 0.
0.502886 0.0317181 0.
0.504933 0.0317945 0.
0.506984 0.0318762 0.
0.509037 0.0319592 0.
0.51109 0.0320405 0.
0.513147 0.032107 0.
0.515203 0.0321736 0.
0.517259 0.032241 0.
0.519313 0.0323085 0.
0.521367 0.0323761 0.
0.523418 0.0324444 0.
0.525468 0.0325133 0.
0.527518 0.0325818 0.
0.529561 0.0326259 0.
0.531603 0.0326695 0.
0.533644 0.0327105 0.
0.53568 0.0327411 0.
0.537715 0.0327717 0.
0.539748 0.0328004 0.
0.541778 0.0328269 0.
0.543808 0.0328534 0.
0.545833 0.0328767 0.
0.547855 0.0328988 0.
0.549878 0.0329209 0.
0.551893 0.0329352 0.
0.553907 0.0329492 0.
0.55592 0.0329619 0.
0.55793 0.032969 0.
0.55994 0.0329761 0.
0.561948 0.0329821 0.
0.563954 0.0329864 0.
0.56596 0.0329908 0.
0.567965 0.0329943 0.
0.569969 0.0329973 0.
0.571973 0.0330004 0.
0.573975 0.0330025 0.
0.575977 0.0330045 0.
0.577979 0.0330065 0.
0.579982 0.0330075 0.
0.581984 0.0330085 0.
0.583986 0.0330097 0.
0.585988 0.0330111 0.
0.58799 0.0330125 0.
0.589992 0.0330137 0.
0.591994 0.0330147 0.
0.593996 0.0330158 0.
0.595997 0.0330166 0.
0.597999 0.0330173 0.
0.6 0.033018 0.
0.602002 0.033017 0.
0.604004 0.0330161 0.
0.606006 0.0330151 0.
0.608008 0.0330138 0.
0.61001 0.0330125 0.
0.612012 0.0330112 0.
0.614014 0.0330099 0.
0.616016 0.0330086 0.
0.618018 0.0330073 0.
0.620021 0.033006 0.
0.622023 0.0330047 0.
0.624026 0.0330023 0.
0.626028 0.0329997 0.
0.628031 0.0329971 0.
0.630035 0.0329938 0.
0.632039 0.0329905 0.
0.634045 0.0329865 0.
0.636052 0.0329813 0.
0.638059 0.0329761 0.
0.640068 0.032969 0.
0.64208 0.0329606 0.
0.644091 0.0329521 0.
0.646107 0.0329371 0.
0.648123 0.0329205 0.
0.65014 0.0329036 0.
0.652166 0.0328786 0.
0.654191 0.0328536 0.
0.656219 0.0328276 0.
0.658251 0.0327987 0.
0.660284 0.0327699 0.
0.662319 0.0327388 0.
0.664357 0.0327056 0.
0.666395 0.0326724 0.
0.668439 0.0326261 0.
0.670484 0.0325768 0.
0.672529 0.0325268 0.
0.674581 0.0324541 0.
0.676633 0.0323809 0.
0.678686 0.0323089 0.
0.68074 0.0322382 0.
0.682795 0.0321676 0.
0.68485 0.0320958 0.
0.686906 0.0320243 0.
0.688962 0.0319527 0.
0.691014 0.0318734 0.
0.693066 0.0317936 0.
0.695116 0.0317165 0.
0.697173 0.0316567 0.
0.699234 0.0315974 0.
0.498803 0.0335698 0.
0.500852 0.0336242 0.
0.502897 0.0336917 0.
0.50494 0.0337591 0.
0.506988 0.0338352 0.
0.509037 0.0339128 0.
0.511087 0.0339896 0.
0.513141 0.0340563 0.
0.515195 0.0341232 0.
0.517247 0.0341912 0.
0.519299 0.0342596 0.
0.52135 0.034328 0.
0.5234 0.0343973 0.
0.525449 0.0344675 0.
0.527497 0.0345372 0.
0.52954 0.0345847 0.
0.531581 0.0346315 0.
0.533622 0.0346757 0.
0.535658 0.034708 0.
0.537693 0.0347404 0.
0.539727 0.0347709 0.
0.541758 0.0347995 0.
0.543789 0.0348282 0.
0.545815 0.0348541 0.
0.54784 0.034879 0.
0.549864 0.0349039 0.
0.551881 0.0349211 0.
0.553896 0.0349379 0.
0.555911 0.0349532 0.
0.557922 0.0349617 0.
0.559933 0.0349702 0.
0.561943 0.0349773 0.
0.563949 0.0349824 0.
0.565956 0.0349875 0.
0.567962 0.0349916 0.
0.569966 0.0349952 0.
0.571971 0.0349988 0.
0.573974 0.0350011 0.
0.575976 0.0350032 0.
0.577978 0.0350051 0.
0.579981 0.0350063 0.
0.581983 0.0350075 0.
0.583985 0.0350088 0.
0.585987 0.0350103 0.
0.587989 0.0350118 0.
0.589991 0.0350132 0.
0.591993 0.0350144 0.
0.593995 0.0350157 0.
0.595997 0.0350165 0.
0.597999 0.0350171 0.
0.6 0.0350178 0.
0.602003 0.0350168 0.
0.604005 0.0350158 0.
0.606007 0.0350148 0.
0.608009 0.0350134 0.
0.610011 0.035012 0.
0.612013 0.0350106 0.
0.614015 0.0350091 0.
0.616017 0.0350077 0.
0.61802 0.0350062 0.
0.620022 0.0350047 0.
0.622025 0.0350032 0.
0.624027 0.0350007 0.
0.62603 0.034998 0.
0.628033 0.0349952 0.
0.630038 0.0349913 0.
0.632043 0.0349873 0.
0.634049 0.0349827 0.
0.636057 0.0349766 0.
0.638065 0.0349705 0.
0.640076 0.0349621 0.
0.642089 0.0349519 0.
0.644102 0.0349417 0.
0.646119 0.0349238 0.
0.648137 0.0349043 0.
0.650156 0.0348844 0.
0.652183 0.0348564 0.
0.65421 0.0348285 0.
0.656239 0.0347997 0.
0.658272 0.0347687 0.
0.660306 0.0347377 0.
0.662341 0.0347048 0.
0.664379 0.0346699 0.
0.666418 0.0346351 0.
0.668461 0.0345858 0.
0.670505 0.0345333 0.
0.67255 0.0344802 0.
0.674599 0.0344067 0.
0.676649 0.0343327 0.
0.6787 0.03426 0.
0.680752 0.0341887 0.
0.682804 0.0341176 0.
0.684857 0.0340457 0.
0.686909 0.0339747 0.
0.688962 0.0339036 0.
0.69101 0.0338296 0.
0.693058 0.0337559 0.
0.695104 0.0336847 0.
0.697157 0.033631 0.
0.699214 0.0335779 0.
0.498834 0.0355524 0.
0.50088 0.0356031 0.
0.502922 0.0356654 0.
0.504962 0.0357276 0.
0.507006 0.0357998 0.
0.509052 0.0358735 0.
0.511098 0.0359466 0.
0.513147 0.0360132 0.
0.515196 0.0360798 0.
0.517245 0.036148 0.
0.519294 0.0362169 0.
0.521342 0.0362859 0.
0.523389 0.0363555 0.
0.525435 0.036426 0.
0.527481 0.0364961 0.
0.529522 0.0365461 0.
0.531563 0.0365956 0.
0.533603 0.036642 0.
0.535638 0.0366753 0.
0.537674 0.0367085 0.
0.539707 0.0367403 0.
0.541738 0.0367705 0.
0.543769 0.0368007 0.
0.545797 0.0368286 0.
0.547822 0.0368556 0.
0.549848 0.0368826 0.
0.551866 0.0369025 0.
0.553883 0.036922 0.
0.5559 0.0369398 0.
0.557913 0.0369499 0.
0.559925 0.03696 0.
0.561936 0.0369687 0.
0.563944 0.0369754 0.
0.565953 0.0369821 0.
0.567959 0.0369874 0.
0.569964 0.0369918 0.
0.571969 0.0369963 0.
0.573972 0.036999 0.
0.575975 0.0370014 0.
0.577977 0.0370037 0.
0.57998 0.0370052 0.
0.581982 0.0370067 0.
0.583984 0.0370082 0.
0.585987 0.0370098 0.
0.587989 0.0370114 0.
0.589991 0.0370128 0.
0.591993 0.0370142 0.
0.593995 0.0370155 0.
0.595997 0.0370163 0.
0.597999 0.0370168 0.
0.6 0.0370174 0.
0.602003 0.0370165 0.
0.604005 0.0370155 0.
0.606007 0.0370145 0.
0.608009 0.0370131 0.
0.610011 0.0370117 0.
0.612013 0.0370101 0.
0.614016 0.0370085 0.
0.616018 0.0370068 0.
0.618021 0.0370051 0.
0.620023 0.0370033 0.
0.622026 0.0370015 0.
0.624029 0.0369985 0.
0.626032 0.0369955 0.
0.628035 0.0369921 0.
0.630041 0.0369871 0.
0.632047 0.0369821 0.
0.634054 0.036976 0.
0.636063 0.0369681 0.
0.638073 0.0369602 0.
0.640085 0.03695 0.
0.6421 0.0369383 0.
0.644115 0.0369265 0.
0.646134 0.0369061 0.
0.648153 0.0368837 0.
0.650174 0.0368609 0.
0.652201 0.0368309 0.
0.654229 0.0368008 0.
0.656259 0.0367701 0.
0.658292 0.0367375 0.
0.660325 0.036705 0.
0.662361 0.0366708 0.
0.664398 0.0366352 0.
0.666436 0.0365995 0.
0.668478 0.0365481 0.
0.670521 0.0364933 0.
0.672564 0.0364379 0.
0.674611 0.0363644 0.
0.676658 0.0362904 0.
0.678706 0.0362177 0.
0.680754 0.0361464 0.
0.682803 0.0360751 0.
0.684851 0.0360035 0.
0.686899 0.0359329 0.
0.688948 0.0358622 0.
0.690992 0.0357924 0.
0.693036 0.0357233 0.
0.695078 0.0356564 0.
0.697127 0.0356068 0.
0.699181 0.0355579 0.
0.498877 0.0375354 0.
0.500919 0.0375833 0.
0.502957 0.0376412 0.
0.504993 0.0376992 0.
0.507032 0.0377675 0.
0.509073 0.0378372 0.
0.511113 0.0379066 0.
0.513158 0.0379725 0.
0.515202 0.0380384 0.
0.517246 0.0381064 0.
0.51929 0.0381756 0.
0.521335 0.0382449 0.
0.523379 0.0383146 0.
0.525422 0.0383852 0.
0.527466 0.0384553 0.
0.529506 0.0385078 0.
0.531545 0.0385597 0.
0.533584 0.0386083 0.
0.535619 0.0386424 0.
0.537655 0.0386765 0.
0.539688 0.0387095 0.
0.541719 0.0387413 0.
0.54375 0.0387731 0.
0.545778 0.0388029 0.
0.547805 0.0388319 0.
0.549832 0.038861 0.
0.551851 0.0388837 0.
0.55387 0.038906 0.
0.555889 0.0389263 0.
0.557903 0.0389381 0.
0.559917 0.0389498 0.
0.561929 0.0389601 0.
0.563939 0.0389684 0.
0.565949 0.0389767 0.
0.567956 0.0389831 0.
0.569961 0.0389884 0.
0.571967 0.0389937 0.
0.57397 0.0389968 0.
0.575973 0.0389996 0.
0.577976 0.0390023 0.
0.579979 0.0390041 0.
0.581981 0.0390059 0.
0.583984 0.0390076 0.
0.585986 0.0390093 0.
0.587988 0.0390109 0.
0.589991 0.0390124 0.
0.591993 0.0390139 0.
0.593995 0.0390153 0.
0.595997 0.039016 0.
0.597999 0.0390166 0.
0.6 0.0390171 0.
0.602003 0.0390162 0.
0.604005 0.0390153 0.
0.606007 0.0390142 0.
0.608009 0.0390128 0.
0.610011 0.0390113 0.
0.612014 0.0390097 0.
0.614016 0.0390078 0.
0.616019 0.0390059 0.
0.618022 0.0390039 0.
0.620024 0.0390018 0.
0.622027 0.0389997 0.
0.624031 0.0389964 0.
0.626034 0.0389929 0.
0.628038 0.0389891 0.
0.630044 0.038983 0.
0.632051 0.0389768 0.
0.634059 0.0389694 0.
0.63607 0.0389596 0.
0.638081 0.0389498 0.
0.640095 0.038938 0.
0.642111 0.0389246 0.
0.644128 0.0389113 0.
0.646148 0.0388881 0.
0.64817 0.0388629 0.
0.650191 0.0388373 0.
0.65222 0.0388051 0.
0.654248 0.038773 0.
0.656278 0.0387403 0.
0.658311 0.0387063 0.
0.660345 0.0386722 0.
0.66238 0.0386368 0.
0.664417 0.0386003 0.
0.666454 0.0385639 0.
0.668495 0.0385105 0.
0.670536 0.0384537 0.
0.672577 0.0383962 0.
0.674621 0.0383229 0.
0.676665 0.0382491 0.
0.67871 0.0381766 0.
0.680754 0.0381055 0.
0.682798 0.0380344 0.
0.684842 0.0379637 0.
0.686884 0.0378941 0.
0.688927 0.0378245 0.
0.690966 0.0377588 0.
0.693004 0.0376941 0.
0.695041 0.0376312 0.
0.697087 0.0375846 0.
0.699137 0.0375388 0.
0.498917 0.039523 0.
0.500957 0.039567 0.
0.502991 0.0396198 0.
0.505023 0.0396728 0.
0.507058 0.039737 0.
0.509093 0.0398026 0.
0.511128 0.0398683 0.
0.513168 0.0399337 0.
0.515207 0.0399991 0.
0.517248 0.040067 0.
0.519289 0.0401364 0.
0.52133 0.0402059 0.
0.523371 0.0402756 0.
0.525412 0.0403462 0.
0.527454 0.0404164 0.
0.529492 0.0404707 0.
0.53153 0.0405244 0.
0.533568 0.0405748 0.
0.535603 0.0406099 0.
0.537638 0.040645 0.
0.539671 0.0406792 0.
0.541703 0.0407123 0.
0.543734 0.0407453 0.
0.545762 0.0407768 0.
0.54779 0.0408078 0.
0.549817 0.0408388 0.
0.551838 0.0408641 0.
0.553858 0.040889 0.
0.555878 0.0409119 0.
0.557893 0.0409252 0.
0.559909 0.0409386 0.
0.561922 0.0409505 0.
0.563933 0.0409603 0.
0.565944 0.0409702 0.
0.567952 0.0409778 0.
0.569958 0.0409842 0.
0.571964 0.0409906 0.
0.573968 0.0409943 0.
0.575971 0.0409976 0.
0.577975 0.0410007 0.
0.579978 0.0410027 0.
0.58198 0.0410047 0.
0.583983 0.0410067 0.
0.585985 0.0410084 0.
0.587988 0.0410102 0.
0.58999 0.0410118 0.
0.591992 0.0410133 0.
0.593995 0.0410147 0.
0.595997 0.0410154 0.
0.597999 0.0410159 0.
0.6 0.0410164 0.
0.602003 0.0410155 0.
0.604005 0.0410146 0.
0.606007 0.0410135 0.
0.60801 0.0410121 0.
0.610012 0.0410106 0.
0.612014 0.0410089 0.
0.614017 0.0410068 0.
0.61602 0.0410047 0.
0.618022 0.0410024 0.
0.620026 0.041 0.
0.622029 0.0409977 0.
0.624033 0.0409938 0.
0.626037 0.0409897 0.
0.628041 0.0409852 0.
0.630048 0.0409778 0.
0.632056 0.0409704 0.
0.634065 0.0409615 0.
0.636077 0.04095 0.
0.63809 0.0409384 0.
0.640105 0.0409249 0.
0.642123 0.0409099 0.
0.64414 0.0408949 0.
0.646162 0.0408692 0.
0.648184 0.0408414 0.
0.650207 0.0408132 0.
0.652236 0.0407792 0.
0.654265 0.0407452 0.
0.656295 0.0407108 0.
0.658328 0.0406754 0.
0.660361 0.04064 0.
0.662396 0.0406034 0.
0.664433 0.040566 0.
0.666469 0.0405286 0.
0.668508 0.0404737 0.
0.670548 0.0404153 0.
0.672588 0.0403563 0.
0.674629 0.0402832 0.
0.676671 0.0402097 0.
0.678712 0.0401375 0.
0.680752 0.0400665 0.
0.682793 0.0399954 0.
0.684832 0.0399254 0.
0.68687 0.039857 0.
0.688908 0.0397886 0.
0.690941 0.0397268 0.
0.692974 0.0396666 0.
0.695007 0.0396079 0.
0.697049 0.0395644 0.
0.699095 0.0395218 0.
0.498943 0.0415133 0.
0.50098 0.0415541 0.
0.503012 0.0416029 0.
0.505042 0.0416521 0.
0.507074 0.041713 0.
0.509106 0.041775 0.
0.511139 0.0418376 0.
0.513176 0.041902 0.
0.515213 0.0419663 0.
0.517251 0.0420334 0.
0.51929 0.0421024 0.
0.521329 0.0421715 0.
0.523368 0.0422408 0.
0.525408 0.0423108 0.
0.527447 0.0423805 0.
0.529484 0.0424357 0.
0.531521 0.0424904 0.
0.533558 0.0425418 0.
0.535592 0.042578 0.
0.537627 0.0426142 0.
0.539659 0.0426494 0.
0.54169 0.0426834 0.
0.543722 0.0427174 0.
0.54575 0.0427504 0.
0.547777 0.042783 0.
0.549804 0.0428157 0.
0.551826 0.0428434 0.
0.553847 0.0428709 0.
0.555867 0.0428962 0.
0.557883 0.0429112 0.
0.5599 0.0429262 0.
0.561914 0.0429398 0.
0.563926 0.0429512 0.
0.565938 0.0429625 0.
0.567947 0.0429715 0.
0.569954 0.0429792 0.
0.571961 0.042987 0.
0.573965 0.0429913 0.
0.575969 0.0429951 0.
0.577973 0.0429988 0.
0.579976 0.043001 0.
0.58198 0.0430033 0.
0.583982 0.0430054 0.
0.585985 0.0430073 0.
0.587987 0.0430092 0.
0.58999 0.0430108 0.
0.591992 0.0430123 0.
0.593994 0.0430138 0.
0.595996 0.0430145 0.
0.597998 0.043015 0.
0.6 0.0430154 0.
0.602003 0.0430145 0.
0.604005 0.0430135 0.
0.606008 0.0430124 0.
0.60801 0.0430109 0.
0.610012 0.0430095 0.
0.612015 0.0430077 0.
0.614017 0.0430054 0.
0.61602 0.0430031 0.
0.618024 0.0430006 0.
0.620027 0.042998 0.
0.622031 0.0429953 0.
0.624035 0.0429907 0.
0.62604 0.0429858 0.
0.628045 0.0429805 0.
0.630053 0.0429716 0.
0.632061 0.0429627 0.
0.634072 0.0429523 0.
0.636085 0.0429391 0.
0.638099 0.0429259 0.
0.640115 0.0429106 0.
0.642134 0.0428938 0.
0.644152 0.0428771 0.
0.646174 0.0428492 0.
0.648197 0.042819 0.
0.65022 0.0427885 0.
0.652249 0.0427529 0.
0.654277 0.0427174 0.
0.656307 0.0426816 0.
0.65834 0.0426451 0.
0.660372 0.0426086 0.
0.662407 0.042571 0.
0.664443 0.0425325 0.
0.666479 0.042494 0.
0.668516 0.0424383 0.
0.670555 0.0423793 0.
0.672593 0.0423197 0.
0.674633 0.0422474 0.
0.676672 0.0421747 0.
0.678711 0.0421032 0.
0.68075 0.0420328 0.
0.682788 0.0419624 0.
0.684825 0.0418938 0.
0.68686 0.0418274 0.
0.688896 0.0417609 0.
0.690926 0.0417021 0.
0.692956 0.0416452 0.
0.694985 0.0415896 0.
0.697025 0.0415488 0.
0.699069 0.041509 0.
0.498967 0.0435036 0.
0.501002 0.0435411 0.
0.503032 0.043586 0.
0.505061 0.0436315 0.
0.50709 0.043689 0.
0.509119 0.0437475 0.
0.511149 0.043807 0.
0.513184 0.0438703 0.
0.515219 0.0439334 0.
0.517255 0.0439997 0.
0.519291 0.0440685 0.
0.521328 0.0441372 0.
0.523365 0.0442059 0.
0.525403 0.0442755 0.
0.52744 0.0443446 0.
0.529476 0.0444007 0.
0.531512 0.0444563 0.
0.533548 0.0445088 0.
0.535581 0.0445461 0.
0.537615 0.0445834 0.
0.539647 0.0446196 0.
0.541678 0.0446545 0.
0.543709 0.0446894 0.
0.545738 0.0447239 0.
0.547765 0.0447582 0.
0.549792 0.0447925 0.
0.551814 0.0448227 0.
0.553835 0.0448528 0.
0.555856 0.0448805 0.
0.557873 0.0448972 0.
0.559891 0.0449139 0.
0.561906 0.0449291 0.
0.563919 0.044942 0.
0.565932 0.0449549 0.
0.567942 0.0449653 0.
0.56995 0.0449743 0.
0.571958 0.0449833 0.
0.573963 0.0449883 0.
0.575967 0.0449927 0.
0.577972 0.0449969 0.
0.579975 0.0449994 0.
0.581979 0.0450018 0.
0.583982 0.0450041 0.
0.585984 0.0450061 0.
0.587987 0.0450081 0.
0.589989 0.0450099 0.
0.591991 0.0450114 0.
0.593993 0.0450129 0.
0.595996 0.0450136 0.
0.597998 0.045014 0.
0.6 0.0450145 0.
0.602003 0.0450134 0.
0.604005 0.0450124 0.
0.606008 0.0450113 0.
0.60801 0.0450098 0.
0.610013 0.0450084 0.
0.612015 0.0450065 0.
0.614018 0.045004 0.
0.616021 0.0450015 0.
0.618025 0.0449988 0.
0.620028 0.0449959 0.
0.622032 0.044993 0.
0.624037 0.0449876 0.
0.626043 0.044982 0.
0.628048 0.0449757 0.
0.630058 0.0449654 0.
0.632067 0.044955 0.
0.634078 0.044943 0.
0.636093 0.0449281 0.
0.638108 0.0449133 0.
0.640125 0.0448962 0.
0.642145 0.0448778 0.
0.644164 0.0448593 0.
0.646186 0.0448291 0.
0.648209 0.0447966 0.
0.650233 0.0447639 0.
0.652261 0.0447267 0.
0.65429 0.0446895 0.
0.656319 0.0446523 0.
0.658352 0.0446148 0.
0.660384 0.0445772 0.
0.662418 0.0445385 0.
0.664453 0.044499 0.
0.666488 0.0444595 0.
0.668525 0.044403 0.
0.670561 0.0443432 0.
0.672599 0.0442831 0.
0.674636 0.0442116 0.
0.676674 0.0441396 0.
0.678711 0.0440689 0.
0.680747 0.0439992 0.
0.682783 0.0439294 0.
0.684818 0.0438622 0.
0.686851 0.0437978 0.
0.688884 0.0437333 0.
0.690912 0.0436775 0.
0.692939 0.0436239 0.
0.694965 0.0435714 0.
0.697003 0.0435334 0.
0.699045 0.0434963 0.
0.498998 0.045487 0.
0.501031 0.045524 0.
0.50306 0.0455677 0.
0.505087 0.0456119 0.
0.507113 0.0456676 0.
0.50914 0.0457241 0.
0.511168 0.0457816 0.
0.5132 0.0458434 0.
0.515232 0.045905 0.
0.517265 0.0459703 0.
0.519299 0.0460387 0.
0.521333 0.0461071 0.
0.523368 0.0461751 0.
0.525404 0.046244 0.
0.527439 0.0463124 0.
0.529473 0.0463689 0.
0.531508 0.0464249 0.
0.533542 0.0464779 0.
0.535574 0.0465158 0.
0.537607 0.0465537 0.
0.539638 0.0465907 0.
0.541668 0.0466267 0.
0.543699 0.0466626 0.
0.545727 0.0466982 0.
0.547753 0.0467338 0.
0.54978 0.0467694 0.
0.551802 0.0468013 0.
0.553824 0.0468331 0.
0.555845 0.0468625 0.
0.557863 0.0468804 0.
0.55988 0.0468984 0.
0.561897 0.0469149 0.
0.563911 0.0469295 0.
0.565925 0.046944 0.
0.567936 0.046956 0.
0.569945 0.0469665 0.
0.571954 0.0469771 0.
0.57396 0.0469832 0.
0.575965 0.0469886 0.
0.57797 0.0469939 0.
0.579974 0.0469969 0.
0.581977 0.0469999 0.
0.583981 0.0470026 0.
0.585983 0.0470049 0.
0.587986 0.0470071 0.
0.589989 0.047009 0.
0.591991 0.0470105 0.
0.593993 0.0470121 0.
0.595996 0.0470129 0.
0.597998 0.0470135 0.
0.600001 0.0470141 0.
0.602003 0.0470128 0.
0.604006 0.0470116 0.
0.606008 0.0470103 0.
0.608011 0.0470088 0.
0.610013 0.0470072 0.
0.612016 0.0470052 0.
0.614019 0.0470025 0.
0.616022 0.0469997 0.
0.618026 0.0469964 0.
0.62003 0.0469928 0.
0.622035 0.0469892 0.
0.62404 0.0469827 0.
0.626046 0.0469759 0.
0.628053 0.0469684 0.
0.630064 0.0469563 0.
0.632074 0.0469442 0.
0.634087 0.0469305 0.
0.636103 0.0469139 0.
0.638118 0.0468973 0.
0.640136 0.046879 0.
0.642156 0.0468595 0.
0.644176 0.0468401 0.
0.646198 0.0468082 0.
0.648221 0.0467738 0.
0.650245 0.0467393 0.
0.652273 0.046701 0.
0.654301 0.0466627 0.
0.65633 0.0466244 0.
0.658361 0.0465858 0.
0.660392 0.0465473 0.
0.662425 0.0465077 0.
0.664459 0.0464676 0.
0.666493 0.0464275 0.
0.668528 0.0463709 0.
0.670563 0.0463111 0.
0.672598 0.0462509 0.
0.674633 0.0461803 0.
0.676668 0.0461093 0.
0.678703 0.0460396 0.
0.680736 0.0459707 0.
0.68277 0.0459017 0.
0.684802 0.0458358 0.
0.686832 0.0457728 0.
0.688863 0.0457097 0.
0.690888 0.0456558 0.
0.692913 0.0456042 0.
0.694937 0.0455535 0.
0.696974 0.0455173 0.
0.699014 0.0454821 0.
0.499037 0.0474725 0.
0.501068 0.0475088 0.
0.503094 0.0475512 0.
0.505119 0.0475938 0.
0.507143 0.0476481 0.
0.509167 0.0477031 0.
0.511192 0.047759 0.
0.513221 0.0478189 0.
0.515249 0.0478786 0.
0.517278 0.0479427 0.
0.519309 0.0480105 0.
0.52134 0.0480782 0.
0.523373 0.0481454 0.
0.525406 0.0482134 0.
0.527438 0.0482809 0.
0.529471 0.0483376 0.
0.531504 0.0483939 0.
0.533536 0.0484472 0.
0.535567 0.0484857 0.
0.537599 0.0485241 0.
0.539629 0.048562 0.
0.541659 0.0485989 0.
0.543688 0.0486359 0.
0.545716 0.0486726 0.
0.547742 0.0487094 0.
0.549769 0.0487462 0.
0.551791 0.0487798 0.
0.553812 0.0488134 0.
0.555834 0.0488445 0.
0.557852 0.0488636 0.
0.55987 0.0488828 0.
0.561887 0.0489007 0.
0.563902 0.0489169 0.
0.565917 0.0489331 0.
0.56793 0.0489467 0.
0.56994 0.0489588 0.
0.571951 0.0489709 0.
0.573957 0.0489781 0.
0.575963 0.0489846 0.
0.577968 0.0489908 0.
0.579972 0.0489944 0.
0.581976 0.0489979 0.
0.58398 0.0490012 0.
0.585983 0.0490036 0.
0.587986 0.0490061 0.
0.589988 0.0490081 0.
0.591991 0.0490097 0.
0.593993 0.0490113 0.
0.595996 0.0490122 0.
0.597998 0.0490129 0.
0.600001 0.0490137 0.
0.602003 0.0490123 0.
0.604006 0.0490109 0.
0.606008 0.0490094 0.
0.608011 0.0490078 0.
0.610014 0.0490061 0.
0.612017 0.0490039 0.
0.61402 0.0490009 0.
0.616024 0.0489979 0.
0.618028 0.048994 0.
0.620032 0.0489897 0.
0.622037 0.0489854 0.
0.624044 0.0489778 0.
0.62605 0.0489698 0.
0.628058 0.0489611 0.
0.63007 0.0489472 0.
0.632082 0.0489333 0.
0.634095 0.0489178 0.
0.636112 0.0488995 0.
0.638129 0.0488813 0.
0.640148 0.0488617 0.
0.642167 0.0488412 0.
0.644187 0.0488207 0.
0.64621 0.0487871 0.
0.648233 0.0487509 0.
0.650257 0.0487146 0.
0.652284 0.0486753 0.
0.654311 0.0486359 0.
0.65634 0.0485966 0.
0.65837 0.048557 0.
0.6604 0.0485174 0.
0.662431 0.0484771 0.
0.664464 0.0484365 0.
0.666497 0.0483959 0.
0.66853 0.0483393 0.
0.670563 0.0482795 0.
0.672596 0.0482195 0.
0.674628 0.0481501 0.
0.676661 0.0480803 0.
0.678693 0.0480119 0.
0.680723 0.047944 0.
0.682753 0.0478762 0.
0.684781 0.0478117 0.
0.686808 0.0477503 0.
0.688835 0.047689 0.
0.690858 0.0476364 0.
0.692881 0.0475862 0.
0.694903 0.047537 0.
0.696938 0.0475025 0.
0.698975 0.047469 0.
0.499075 0.0494629 0.
0.501104 0.0494973 0.
0.503128 0.049537 0.
0.50515 0.049577 0.
0.507172 0.0496295 0.
0.509193 0.0496828 0.
0.511216 0.0497371 0.
0.513241 0.0497953 0.
0.515266 0.0498535 0.
0.517292 0.0499165 0.
0.51932 0.0499837 0.
0.521348 0.0500509 0.
0.523378 0.0501173 0.
0.525409 0.0501844 0.
0.527439 0.0502511 0.
0.52947 0.0503078 0.
0.531501 0.0503642 0.
0.533532 0.0504176 0.
0.535563 0.0504566 0.
0.537593 0.0504956 0.
0.539623 0.0505341 0.
0.541652 0.0505718 0.
0.54368 0.0506095 0.
0.545707 0.0506473 0.
0.547733 0.0506853 0.
0.54976 0.0507233 0.
0.551781 0.0507586 0.
0.553803 0.0507938 0.
0.555824 0.0508266 0.
0.557843 0.0508467 0.
0.559861 0.0508669 0.
0.561879 0.050886 0.
0.563895 0.0509035 0.
0.56591 0.0509211 0.
0.567924 0.0509362 0.
0.569935 0.05095 0.
0.571946 0.0509637 0.
0.573953 0.0509723 0.
0.57596 0.05098 0.
0.577966 0.0509874 0.
0.57997 0.0509915 0.
0.581975 0.0509956 0.
0.583979 0.0509992 0.
0.585982 0.0510019 0.
0.587985 0.0510046 0.
0.589988 0.0510068 0.
0.59199 0.0510086 0.
0.593993 0.0510103 0.
0.595996 0.0510113 0.
0.597998 0.051012 0.
0.600001 0.0510127 0.
0.602003 0.0510112 0.
0.604006 0.0510098 0.
0.606009 0.0510083 0.
0.608011 0.0510064 0.
0.610014 0.0510046 0.
0.612017 0.0510021 0.
0.614021 0.0509988 0.
0.616025 0.0509955 0.
0.61803 0.0509911 0.
0.620035 0.0509861 0.
0.62204 0.0509811 0.
0.624047 0.0509722 0.
0.626054 0.0509629 0.
0.628063 0.0509527 0.
0.630076 0.050937 0.
0.632089 0.0509212 0.
0.634103 0.0509041 0.
0.636121 0.0508846 0.
0.638138 0.050865 0.
0.640157 0.0508444 0.
0.642177 0.050823 0.
0.644197 0.0508016 0.
0.64622 0.0507664 0.
0.648243 0.0507285 0.
0.650266 0.0506906 0.
0.652293 0.0506501 0.
0.65432 0.0506097 0.
0.656347 0.0505694 0.
0.658376 0.0505291 0.
0.660406 0.0504888 0.
0.662436 0.0504478 0.
0.664468 0.0504067 0.
0.666499 0.0503655 0.
0.668531 0.050309 0.
0.670562 0.0502495 0.
0.672594 0.0501897 0.
0.674623 0.0501214 0.
0.676653 0.0500526 0.
0.678682 0.0499852 0.
0.680709 0.0499183 0.
0.682736 0.0498514 0.
0.684762 0.0497882 0.
0.686785 0.0497286 0.
0.688808 0.0496689 0.
0.690829 0.0496179 0.
0.692849 0.0495695 0.
0.69487 0.0495219 0.
0.696902 0.0494895 0.
0.698937 0.0494581 0.
0.4991 0.0514586 0.
0.501127 0.0514901 0.
0.50315 0.0515266 0.
0.505171 0.0515637 0.
0.507191 0.0516143 0.
0.509211 0.0516656 0.
0.511232 0.0517183 0.
0.513256 0.0517757 0.
0.51528 0.051833 0.
0.517304 0.0518951 0.
0.519331 0.0519615 0.
0.521357 0.0520278 0.
0.523385 0.0520931 0.
0.525414 0.052159 0.
0.527443 0.0522246 0.
0.529473 0.0522808 0.
0.531503 0.0523368 0.
0.533532 0.05239 0.
0.535562 0.0524294 0.
0.537592 0.0524688 0.
0.53962 0.0525077 0.
0.541648 0.0525458 0.
0.543676 0.052584 0.
0.545702 0.0526227 0.
0.547728 0.0526618 0.
0.549753 0.0527009 0.
0.551775 0.0527377 0.
0.553796 0.0527745 0.
0.555817 0.0528087 0.
0.557835 0.0528297 0.
0.559854 0.0528507 0.
0.561871 0.0528707 0.
0.563888 0.0528892 0.
0.565904 0.0529078 0.
0.567917 0.0529245 0.
0.569929 0.05294 0.
0.571942 0.0529556 0.
0.573949 0.0529656 0.
0.575956 0.0529748 0.
0.577963 0.0529836 0.
0.579968 0.0529882 0.
0.581973 0.0529927 0.
0.583977 0.0529968 0.
0.585981 0.0529998 0.
0.587984 0.0530027 0.
0.589987 0.0530052 0.
0.59199 0.0530071 0.
0.593993 0.0530091 0.
0.595995 0.05301 0.
0.597998 0.0530106 0.
0.600001 0.0530112 0.
0.602003 0.0530098 0.
0.604006 0.0530084 0.
0.606009 0.0530069 0.
0.608012 0.0530048 0.
0.610015 0.0530027 0.
0.612018 0.0529998 0.
0.614023 0.0529962 0.
0.616027 0.0529925 0.
0.618032 0.0529875 0.
0.620038 0.0529819 0.
0.622043 0.0529763 0.
0.624051 0.0529659 0.
0.626059 0.052955 0.
0.628068 0.0529432 0.
0.630082 0.0529255 0.
0.632096 0.0529079 0.
0.634111 0.0528893 0.
0.636128 0.0528688 0.
0.638146 0.0528484 0.
0.640165 0.0528269 0.
0.642184 0.0528048 0.
0.644204 0.0527826 0.
0.646226 0.052746 0.
0.648249 0.0527066 0.
0.650272 0.0526673 0.
0.652298 0.0526259 0.
0.654324 0.0525845 0.
0.656351 0.0525434 0.
0.658379 0.0525026 0.
0.660408 0.0524619 0.
0.662437 0.0524205 0.
0.664468 0.0523789 0.
0.666498 0.0523374 0.
0.668528 0.0522813 0.
0.670558 0.0522225 0.
0.672588 0.0521634 0.
0.674617 0.0520964 0.
0.676645 0.0520291 0.
0.678672 0.051963 0.
0.680697 0.0518968 0.
0.682723 0.0518307 0.
0.684747 0.0517685 0.
0.686769 0.0517103 0.
0.688791 0.051652 0.
0.69081 0.0516025 0.
0.692829 0.0515558 0.
0.694848 0.05151 0.
0.696878 0.0514794 0.
0.698911 0.05145 0.
0.499124 0.0534542 0.
0.501149 0.0534829 0.
0.503171 0.0535162 0.
0.505191 0.0535504 0.
0.50721 0.0535991 0.
0.509229 0.0536485 0.
0.511249 0.0536996 0.
0.513271 0.0537561 0.
0.515294 0.0538125 0.
0.517317 0.0538737 0.
0.519341 0.0539392 0.
0.521366 0.0540047 0.
0.523392 0.0540689 0.
0.52542 0.0541337 0.
0.527447 0.0541981 0.
0.529476 0.0542539 0.
0.531504 0.0543095 0.
0.533533 0.0543624 0.
0.535561 0.0544021 0.
0.53759 0.0544419 0.
0.539618 0.0544812 0.
0.541645 0.0545199 0.
0.543672 0.0545585 0.
0.545697 0.0545981 0.
0.547722 0.0546383 0.
0.549747 0.0546785 0.
0.551768 0.0547168 0.
0.553789 0.0547552 0.
0.555809 0.0547909 0.
0.557828 0.0548127 0.
0.559846 0.0548345 0.
0.561864 0.0548553 0.
0.56388 0.0548749 0.
0.565897 0.0548945 0.
0.567911 0.0549127 0.
0.569924 0.0549301 0.
0.571937 0.0549475 0.
0.573945 0.054959 0.
0.575953 0.0549696 0.
0.57796 0.0549797 0.
0.579966 0.0549848 0.
0.581971 0.0549899 0.
0.583976 0.0549944 0.
0.58598 0.0549976 0.
0.587984 0.0550009 0.
0.589987 0.0550035 0.
0.59199 0.0550057 0.
0.593993 0.0550078 0.
0.595995 0.0550087 0.
0.597998 0.0550092 0.
0.6 0.0550097 0.
0.602004 0.0550084 0.
0.604007 0.055007 0.
0.60601 0.0550055 0.
0.608013 0.0550031 0.
0.610016 0.0550007 0.
0.612019 0.0549976 0.
0.614024 0.0549935 0.
0.616028 0.0549894 0.
0.618034 0.0549839 0.
0.62004 0.0549777 0.
0.622047 0.0549715 0.
0.624055 0.0549596 0.
0.626064 0.0549471 0.
0.628074 0.0549336 0.
0.630088 0.0549141 0.
0.632102 0.0548946 0.
0.634118 0.0548744 0.
0.636136 0.0548531 0.
0.638153 0.0548318 0.
0.640172 0.0548095 0.
0.642192 0.0547866 0.
0.644211 0.0547637 0.
0.646233 0.0547256 0.
0.648255 0.0546847 0.
0.650277 0.0546439 0.
0.652303 0.0546016 0.
0.654329 0.0545593 0.
0.656355 0.0545174 0.
0.658382 0.0544762 0.
0.66041 0.0544351 0.
0.662439 0.0543933 0.
0.664468 0.0543512 0.
0.666497 0.0543092 0.
0.668526 0.0542536 0.
0.670555 0.0541955 0.
0.672583 0.0541371 0.
0.67461 0.0540715 0.
0.676636 0.0540055 0.
0.678662 0.0539406 0.
0.680686 0.0538753 0.
0.682709 0.05381 0.
0.684732 0.0537489 0.
0.686753 0.053692 0.
0.688774 0.0536351 0.
0.690792 0.0535872 0.
0.692809 0.0535423 0.
0.694826 0.0534981 0.
0.696855 0.0534694 0.
0.698887 0.0534419 0.
0.499153 0.0554402 0.
0.501177 0.0554693 0.
0.503198 0.0555027 0.
0.505217 0.0555369 0.
0.507235 0.0555849 0.
0.509253 0.0556334 0.
0.511271 0.0556835 0.
0.513292 0.0557388 0.
0.515313 0.055794 0.
0.517335 0.0558544 0.
0.519357 0.0559194 0.
0.52138 0.0559844 0.
0.523405 0.0560477 0.
0.525431 0.0561116 0.
0.527456 0.0561751 0.
0.529483 0.05623 0.
0.531509 0.0562848 0.
0.533536 0.0563371 0.
0.535564 0.0563772 0.
0.537591 0.0564172 0.
0.539618 0.056457 0.
0.541644 0.0564961 0.
0.543669 0.0565353 0.
0.545694 0.0565756 0.
0.547718 0.0566165 0.
0.549742 0.0566575 0.
0.551762 0.056697 0.
0.553783 0.0567367 0.
0.555803 0.0567735 0.
0.557821 0.0567959 0.
0.559839 0.0568183 0.
0.561856 0.0568398 0.
0.563873 0.0568601 0.
0.565889 0.0568805 0.
0.567904 0.0568998 0.
0.569917 0.0569184 0.
0.571931 0.0569371 0.
0.57394 0.0569502 0.
0.575948 0.0569624 0.
0.577957 0.056974 0.
0.579963 0.0569798 0.
0.581969 0.0569857 0.
0.583974 0.0569909 0.
0.585978 0.0569947 0.
0.587982 0.0569985 0.
0.589986 0.0570016 0.
0.591989 0.057004 0.
0.593992 0.0570064 0.
0.595995 0.0570074 0.
0.597998 0.057008 0.
0.600001 0.0570086 0.
0.602004 0.0570071 0.
0.604007 0.0570055 0.
0.60601 0.0570037 0.
0.608013 0.057001 0.
0.610017 0.0569982 0.
0.612021 0.0569945 0.
0.614026 0.0569897 0.
0.616031 0.056985 0.
0.618037 0.0569787 0.
0.620044 0.0569717 0.
0.622051 0.0569647 0.
0.62406 0.0569511 0.
0.62607 0.056937 0.
0.628081 0.0569219 0.
0.630095 0.0569012 0.
0.63211 0.0568804 0.
0.634126 0.0568592 0.
0.636143 0.0568372 0.
0.638161 0.0568152 0.
0.64018 0.0567923 0.
0.642199 0.0567687 0.
0.644218 0.0567452 0.
0.646239 0.056706 0.
0.64826 0.0566638 0.
0.650282 0.0566218 0.
0.652306 0.0565789 0.
0.654331 0.056536 0.
0.656356 0.0564936 0.
0.658383 0.0564519 0.
0.660409 0.0564102 0.
0.662436 0.0563681 0.
0.664464 0.0563258 0.
0.666492 0.0562835 0.
0.668519 0.0562288 0.
0.670546 0.0561718 0.
0.672572 0.0561147 0.
0.674597 0.0560502 0.
0.676622 0.0559854 0.
0.678645 0.0559216 0.
0.680668 0.0558569 0.
0.68269 0.0557923 0.
0.68471 0.055732 0.
0.68673 0.0556762 0.
0.688749 0.0556203 0.
0.690767 0.0555731 0.
0.692783 0.0555289 0.
0.6948 0.0554853 0.
0.696827 0.0554572 0.
0.698858 0.0554304 0.
0.499189 0.0574264 0.
0.501211 0.0574562 0.
0.503231 0.05749 0.
0.505249 0.0575244 0.
0.507265 0.0575718 0.
0.509282 0.0576196 0.
0.511299 0.0576689 0.
0.513318 0.057723 0.
0.515336 0.0577771 0.
0.517356 0.0578367 0.
0.519377 0.057901 0.
0.521398 0.0579653 0.
0.52342 0.0580277 0.
0.525443 0.0580905 0.
0.527466 0.0581529 0.
0.529491 0.0582068 0.
0.531516 0.0582607 0.
0.533541 0.0583122 0.
0.535567 0.0583525 0.
0.537593 0.0583928 0.
0.539618 0.058433 0.
0.541643 0.0584727 0.
0.543667 0.0585124 0.
0.545691 0.0585533 0.
0.547714 0.0585949 0.
0.549737 0.0586365 0.
0.551757 0.0586772 0.
0.553777 0.0587181 0.
0.555797 0.0587562 0.
0.557814 0.0587791 0.
0.559832 0.0588021 0.
0.561849 0.0588242 0.
0.563865 0.0588453 0.
0.565882 0.0588664 0.
0.567897 0.0588868 0.
0.56991 0.0589067 0.
0.571924 0.0589267 0.
0.573934 0.0589413 0.
0.575944 0.0589551 0.
0.577953 0.0589682 0.
0.57996 0.0589748 0.
0.581966 0.0589814 0.
0.583972 0.0589873 0.
0.585977 0.0589917 0.
0.587981 0.0589961 0.
0.589985 0.0589996 0.
0.591989 0.0590023 0.
0.593992 0.0590049 0.
0.595995 0.0590061 0.
0.597998 0.0590068 0.
0.600001 0.0590075 0.
0.602004 0.0590058 0.
0.604007 0.0590041 0.
0.60601 0.059002 0.
0.608014 0.0589988 0.
0.610018 0.0589957 0.
0.612022 0.0589915 0.
0.614028 0.058986 0.
0.616033 0.0589805 0.
0.61804 0.0589734 0.
0.620048 0.0589656 0.
0.622055 0.0589579 0.
0.624066 0.0589427 0.
0.626076 0.0589268 0.
0.628088 0.0589101 0.
0.630103 0.0588882 0.
0.632118 0.0588662 0.
0.634134 0.058844 0.
0.636151 0.0588213 0.
0.638169 0.0587987 0.
0.640187 0.0587751 0.
0.642205 0.0587509 0.
0.644224 0.0587268 0.
0.646244 0.0586864 0.
0.648265 0.058643 0.
0.650286 0.0585999 0.
0.65231 0.0585564 0.
0.654333 0.058513 0.
0.656357 0.05847 0.
0.658382 0.0584279 0.
0.660407 0.0583858 0.
0.662433 0.0583433 0.
0.664459 0.0583007 0.
0.666485 0.0582582 0.
0.66851 0.0582047 0.
0.670535 0.0581491 0.
0.67256 0.0580933 0.
0.674582 0.0580302 0.
0.676604 0.0579667 0.
0.678626 0.057904 0.
0.680646 0.0578401 0.
0.682666 0.0577762 0.
0.684685 0.0577167 0.
0.686702 0.0576619 0.
0.68872 0.057607 0.
0.690736 0.0575603 0.
0.692751 0.0575164 0.
0.694767 0.0574731 0.
0.696794 0.0574456 0.
0.698823 0.0574194 0.
0.499225 0.0594178 0.
0.501246 0.0594468 0.
0.503264 0.0594795 0.
0.505281 0.0595129 0.
0.507296 0.0595594 0.
0.509311 0.0596062 0.
0.511326 0.0596546 0.
0.513343 0.0597078 0.
0.51536 0.0597609 0.
0.517378 0.0598198 0.
0.519396 0.0598836 0.
0.521415 0.0599473 0.
0.523435 0.0600088 0.
0.525456 0.0600707 0.
0.527476 0.0601321 0.
0.529499 0.060185 0.
0.531522 0.0602378 0.
0.533546 0.0602885 0.
0.535571 0.0603291 0.
0.537596 0.0603697 0.
0.53962 0.0604102 0.
0.541643 0.0604502 0.
0.543667 0.0604902 0.
0.545689 0.0605318 0.
0.547712 0.0605741 0.
0.549734 0.0606163 0.
0.551753 0.0606582 0.
0.553773 0.0607003 0.
0.555792 0.0607395 0.
0.557809 0.0607629 0.
0.559826 0.0607863 0.
0.561843 0.060809 0.
0.563859 0.0608307 0.
0.565875 0.0608524 0.
0.56789 0.0608737 0.
0.569904 0.0608947 0.
0.571919 0.0609157 0.
0.573929 0.0609318 0.
0.575939 0.0609473 0.
0.577949 0.060962 0.
0.579956 0.0609693 0.
0.581963 0.0609767 0.
0.58397 0.0609832 0.
0.585975 0.0609883 0.
0.58798 0.0609933 0.
0.589984 0.0609972 0.
0.591988 0.0610001 0.
0.593991 0.0610031 0.
0.595995 0.0610044 0.
0.597998 0.0610052 0.
0.600001 0.061006 0.
0.602004 0.061004 0.
0.604007 0.0610021 0.
0.606011 0.0609998 0.
0.608015 0.0609962 0.
0.610019 0.0609926 0.
0.612024 0.0609878 0.
0.61403 0.0609817 0.
0.616036 0.0609755 0.
0.618044 0.0609677 0.
0.620052 0.0609592 0.
0.62206 0.0609506 0.
0.624071 0.0609338 0.
0.626082 0.0609162 0.
0.628094 0.0608979 0.
0.630109 0.0608749 0.
0.632124 0.060852 0.
0.63414 0.0608289 0.
0.636157 0.0608057 0.
0.638174 0.0607825 0.
0.640192 0.0607584 0.
0.64221 0.0607337 0.
0.644229 0.060709 0.
0.646248 0.0606676 0.
0.648268 0.0606231 0.
0.650289 0.0605789 0.
0.652311 0.0605349 0.
0.654334 0.0604909 0.
0.656357 0.0604474 0.
0.658381 0.060405 0.
0.660405 0.0603625 0.
0.662429 0.0603198 0.
0.664454 0.0602772 0.
0.666479 0.0602345 0.
0.668502 0.060182 0.
0.670525 0.0601276 0.
0.672548 0.060073 0.
0.674568 0.0600111 0.
0.676587 0.0599489 0.
0.678606 0.0598871 0.
0.680624 0.0598238 0.
0.682642 0.0597605 0.
0.684659 0.0597017 0.
0.686675 0.0596478 0.
0.688691 0.0595939 0.
0.690705 0.0595478 0.
0.69272 0.0595047 0.
0.694734 0.0594621 0.
0.696759 0.0594357 0.
0.698787 0.0594106 0.
0.499251 0.0614157 0.
0.501271 0.0614422 0.
0.503288 0.0614723 0.
0.505304 0.0615033 0.
0.507318 0.0615489 0.
0.509332 0.0615948 0.
0.511346 0.0616424 0.
0.513362 0.061695 0.
0.515378 0.0617476 0.
0.517395 0.061806 0.
0.519412 0.0618694 0.
0.521429 0.0619328 0.
0.523448 0.0619935 0.
0.525468 0.0620544 0.
0.527487 0.0621148 0.
0.529509 0.0621663 0.
0.531531 0.0622177 0.
0.533553 0.0622673 0.
0.535577 0.062308 0.
0.5376 0.0623487 0.
0.539623 0.0623893 0.
0.541646 0.0624294 0.
0.543669 0.0624696 0.
0.54569 0.0625116 0.
0.547711 0.0625544 0.
0.549732 0.0625973 0.
0.551751 0.0626402 0.
0.55377 0.0626834 0.
0.555789 0.0627236 0.
0.557806 0.0627473 0.
0.559823 0.0627711 0.
0.561839 0.0627942 0.
0.563855 0.0628163 0.
0.565871 0.0628384 0.
0.567885 0.0628603 0.
0.569899 0.0628821 0.
0.571913 0.062904 0.
0.573924 0.0629217 0.
0.575935 0.0629389 0.
0.577945 0.0629552 0.
0.579952 0.0629633 0.
0.58196 0.0629714 0.
0.583966 0.0629787 0.
0.585972 0.0629843 0.
0.587977 0.0629899 0.
0.589982 0.0629942 0.
0.591986 0.0629976 0.
0.59399 0.0630009 0.
0.595994 0.0630023 0.
0.597997 0.0630031 0.
0.600001 0.0630038 0.
0.602005 0.0630018 0.
0.604008 0.0629997 0.
0.606012 0.0629972 0.
0.608017 0.0629931 0.
0.610021 0.0629889 0.
0.612027 0.0629836 0.
0.614033 0.0629767 0.
0.61604 0.0629699 0.
0.618047 0.0629614 0.
0.620056 0.0629522 0.
0.622064 0.0629429 0.
0.624076 0.0629244 0.
0.626087 0.062905 0.
0.628099 0.0628851 0.
0.630114 0.0628614 0.
0.632129 0.0628377 0.
0.634144 0.062814 0.
0.636161 0.0627903 0.
0.638178 0.0627666 0.
0.640195 0.0627422 0.
0.642213 0.0627171 0.
0.644231 0.0626921 0.
0.64625 0.0626498 0.
0.648269 0.0626043 0.
0.650289 0.0625592 0.
0.652311 0.0625147 0.
0.654332 0.0624703 0.
0.656354 0.0624264 0.
0.658377 0.062384 0.
0.6604 0.0623416 0.
0.662424 0.0622989 0.
0.664447 0.0622563 0.
0.666471 0.0622137 0.
0.668493 0.0621624 0.
0.670515 0.0621094 0.
0.672536 0.0620562 0.
0.674555 0.0619954 0.
0.676573 0.0619342 0.
0.678591 0.0618734 0.
0.680607 0.0618103 0.
0.682624 0.0617472 0.
0.68464 0.0616888 0.
0.686655 0.0616356 0.
0.68867 0.0615824 0.
0.690684 0.0615371 0.
0.692697 0.0614949 0.
0.694711 0.0614532 0.
0.696734 0.0614285 0.
0.69876 0.0614052 0.
0.499277 0.0634135 0.
0.501295 0.0634377 0.
0.503311 0.0634651 0.
0.505326 0.0634938 0.
0.507339 0.0635384 0.
0.509352 0.0635834 0.
0.511366 0.0636303 0.
0.513381 0.0636823 0.
0.515396 0.0637342 0.
0.517412 0.0637922 0.
0.519428 0.0638552 0.
0.521444 0.0639183 0.
0.523462 0.0639782 0.
0.52548 0.064038 0.
0.527498 0.0640974 0.
0.529518 0.0641475 0.
0.531539 0.0641975 0.
0.53356 0.064246 0.
0.535582 0.0642868 0.
0.537605 0.0643277 0.
0.539627 0.0643684 0.
0.541649 0.0644087 0.
0.54367 0.0644489 0.
0.545691 0.0644914 0.
0.547711 0.0645348 0.
0.549731 0.0645782 0.
0.55175 0.0646221 0.
0.553768 0.0646665 0.
0.555786 0.0647076 0.
0.557802 0.0647318 0.
0.559819 0.0647559 0.
0.561835 0.0647793 0.
0.563851 0.0648018 0.
0.565866 0.0648243 0.
0.567881 0.064847 0.
0.569895 0.0648696 0.
0.571908 0.0648923 0.
0.573919 0.0649116 0.
0.57593 0.0649304 0.
0.57794 0.0649484 0.
0.579948 0.0649572 0.
0.581956 0.0649661 0.
0.583963 0.0649741 0.
0.585969 0.0649803 0.
0.587975 0.0649865 0.
0.58998 0.0649913 0.
0.591985 0.064995 0.
0.593989 0.0649987 0.
0.595993 0.0650001 0.
0.597997 0.0650009 0.
0.600001 0.0650017 0.
0.602005 0.0649995 0.
0.604009 0.0649974 0.
0.606013 0.0649946 0.
0.608018 0.0649899 0.
0.610024 0.0649852 0.
0.612029 0.0649793 0.
0.614036 0.0649718 0.
0.616043 0.0649644 0.
0.618051 0.0649552 0.
0.62006 0.0649451 0.
0.622069 0.0649351 0.
0.62408 0.064915 0.
0.626092 0.0648938 0.
0.628104 0.0648723 0.
0.630119 0.0648478 0.
0.632133 0.0648234 0.
0.634149 0.0647991 0.
0.636165 0.064775 0.
0.638181 0.0647508 0.
0.640198 0.0647259 0.
0.642215 0.0647006 0.
0.644233 0.0646752 0.
0.646251 0.064632 0.
0.64827 0.0645856 0.
0.650289 0.0645396 0.
0.65231 0.0644946 0.
0.654331 0.0644497 0.
0.656352 0.0644055 0.
0.658374 0.064363 0.
0.660396 0.0643206 0.
0.662418 0.0642779 0.
0.66444 0.0642354 0.
0.666462 0.0641929 0.
0.668483 0.0641428 0.
0.670504 0.0640912 0.
0.672525 0.0640394 0.
0.674542 0.0639797 0.
0.676559 0.0639196 0.
0.678576 0.0638597 0.
0.680591 0.0637968 0.
0.682606 0.063734 0.
0.684621 0.063676 0.
0.686635 0.0636235 0.
0.68865 0.063571 0.
0.690663 0.0635265 0.
0.692675 0.0634852 0.
0.694687 0.0634443 0.
0.696709 0.0634213 0.
0.698733 0.0633999 0.
0.499305 0.0654012 0.
0.501323 0.0654264 0.
0.503338 0.0654545 0.
0.505352 0.0654839 0.
0.507365 0.0655284 0.
0.509377 0.0655731 0.
0.51139 0.0656197 0.
0.513404 0.065671 0.
0.515418 0.0657222 0.
0.517433 0.0657798 0.
0.519448 0.0658426 0.
0.521463 0.0659054 0.
0.523479 0.0659647 0.
0.525496 0.0660237 0.
0.527512 0.0660822 0.
0.529531 0.0661312 0.
0.53155 0.06618 0.
0.53357 0.0662275 0.
0.535591 0.0662683 0.
0.537612 0.0663091 0.
0.539633 0.0663499 0.
0.541653 0.0663903 0.
0.543673 0.0664308 0.
0.545693 0.0664737 0.
0.547712 0.0665174 0.
0.549731 0.0665612 0.
0.551749 0.0666058 0.
0.553766 0.0666508 0.
0.555783 0.0666925 0.
0.557799 0.066717 0.
0.559815 0.0667414 0.
0.56183 0.0667652 0.
0.563846 0.0667881 0.
0.565861 0.066811 0.
0.567875 0.0668341 0.
0.569888 0.0668573 0.
0.571902 0.0668805 0.
0.573913 0.066901 0.
0.575924 0.0669211 0.
0.577935 0.0669402 0.
0.579943 0.0669498 0.
0.581951 0.0669593 0.
0.583959 0.0669679 0.
0.585966 0.0669748 0.
0.587972 0.0669816 0.
0.589978 0.0669869 0.
0.591983 0.0669911 0.
0.593988 0.0669952 0.
0.595992 0.0669968 0.
0.597997 0.0669977 0.
0.600001 0.0669985 0.
0.602006 0.0669961 0.
0.60401 0.0669936 0.
0.606015 0.0669905 0.
0.608021 0.0669853 0.
0.610026 0.06698 0.
0.612033 0.0669735 0.
0.61404 0.0669654 0.
0.616048 0.0669573 0.
0.618056 0.0669475 0.
0.620066 0.0669368 0.
0.622075 0.0669262 0.
0.624086 0.0669048 0.
0.626098 0.0668824 0.
0.62811 0.0668597 0.
0.630125 0.0668348 0.
0.632139 0.0668099 0.
0.634154 0.0667851 0.
0.636169 0.0667606 0.
0.638185 0.0667362 0.
0.640201 0.0667109 0.
0.642218 0.0666852 0.
0.644235 0.0666594 0.
0.646252 0.0666156 0.
0.64827 0.0665685 0.
0.650288 0.0665218 0.
0.652308 0.0664766 0.
0.654328 0.0664315 0.
0.656348 0.0663871 0.
0.658368 0.0663448 0.
0.660389 0.0663024 0.
0.66241 0.0662598 0.
0.66443 0.0662172 0.
0.666451 0.0661745 0.
0.66847 0.0661256 0.
0.670489 0.0660754 0.
0.672508 0.066025 0.
0.674524 0.0659662 0.
0.67654 0.065907 0.
0.678555 0.0658477 0.
0.68057 0.0657851 0.
0.682584 0.0657226 0.
0.684598 0.0656651 0.
0.686611 0.0656132 0.
0.688624 0.0655612 0.
0.690637 0.0655168 0.
0.692649 0.0654756 0.
0.694661 0.0654347 0.
0.696681 0.0654118 0.
0.698704 0.0653906 0.
0.49934 0.0673886 0.
0.501356 0.0674151 0.
0.503371 0.0674444 0.
0.505384 0.0674747 0.
0.507396 0.0675192 0.
0.509407 0.0675638 0.
0.511419 0.0676101 0.
0.513432 0.0676607 0.
0.515444 0.0677113 0.
0.517457 0.0677685 0.
0.519471 0.0678311 0.
0.521485 0.0678936 0.
0.523499 0.0679522 0.
0.525514 0.0680103 0.
0.527528 0.0680679 0.
0.529546 0.0681156 0.
0.531563 0.0681632 0.
0.533581 0.0682096 0.
0.5356 0.0682503 0.
0.53762 0.068291 0.
0.539639 0.0683318 0.
0.541658 0.0683724 0.
0.543677 0.068413 0.
0.545695 0.0684562 0.
0.547713 0.0685004 0.
0.549731 0.0685445 0.
0.551748 0.0685897 0.
0.553764 0.0686352 0.
0.55578 0.0686775 0.
0.557796 0.0687023 0.
0.559811 0.068727 0.
0.561826 0.0687512 0.
0.56384 0.0687744 0.
0.565855 0.0687977 0.
0.567869 0.0688212 0.
0.569882 0.068845 0.
0.571895 0.0688687 0.
0.573907 0.0688903 0.
0.575918 0.0689117 0.
0.577929 0.0689321 0.
0.579938 0.0689423 0.
0.581947 0.0689525 0.
0.583955 0.0689618 0.
0.585962 0.0689692 0.
0.587969 0.0689766 0.
0.589975 0.0689825 0.
0.591981 0.0689871 0.
0.593987 0.0689917 0.
0.595992 0.0689935 0.
0.597997 0.0689944 0.
0.600001 0.0689953 0.
0.602006 0.0689926 0.
0.604012 0.0689898 0.
0.606017 0.0689864 0.
0.608023 0.0689806 0.
0.61003 0.0689747 0.
0.612037 0.0689676 0.
0.614045 0.068959 0.
0.616053 0.0689503 0.
0.618062 0.0689398 0.
0.620071 0.0689285 0.
0.622081 0.0689172 0.
0.624092 0.0688946 0.
0.626104 0.068871 0.
0.628117 0.0688472 0.
0.63013 0.0688218 0.
0.632144 0.0687964 0.
0.634159 0.0687712 0.
0.636174 0.0687464 0.
0.638189 0.0687216 0.
0.640205 0.068696 0.
0.64222 0.0686699 0.
0.644236 0.0686438 0.
0.646253 0.0685994 0.
0.64827 0.0685516 0.
0.650287 0.0685042 0.
0.652306 0.0684589 0.
0.654324 0.0684136 0.
0.656343 0.0683692 0.
0.658362 0.068327 0.
0.660381 0.0682848 0.
0.662401 0.0682423 0.
0.664419 0.0681996 0.
0.666438 0.0681569 0.
0.668456 0.0681092 0.
0.670473 0.0680605 0.
0.67249 0.0680116 0.
0.674504 0.0679537 0.
0.676518 0.0678954 0.
0.678532 0.0678368 0.
0.680545 0.0677746 0.
0.682558 0.0677124 0.
0.684571 0.0676552 0.
0.686582 0.0676039 0.
0.688594 0.0675525 0.
0.690606 0.0675081 0.
0.692617 0.0674668 0.
0.694629 0.0674257 0.
0.696648 0.0674028 0.
0.69867 0.0673815 0.
0.499375 0.069381 0.
0.50139 0.0694072 0.
0.503403 0.0694362 0.
0.505416 0.0694663 0.
0.507427 0.0695105 0.
0.509437 0.0695548 0.
0.511448 0.0696008 0.
0.513459 0.0696509 0.
0.51547 0.069701 0.
0.517482 0.0697579 0.
0.519494 0.0698202 0.
0.521506 0.0698825 0.
0.523519 0.0699404 0.
0.525532 0.0699977 0.
0.527544 0.0700545 0.
0.52956 0.070101 0.
0.531576 0.0701473 0.
0.533592 0.0701927 0.
0.53561 0.0702333 0.
0.537627 0.070274 0.
0.539645 0.0703148 0.
0.541663 0.0703555 0.
0.543681 0.0703962 0.
0.545698 0.0704397 0.
0.547715 0.0704842 0.
0.549732 0.0705288 0.
0.551747 0.0705744 0.
0.553763 0.0706205 0.
0.555778 0.0706632 0.
0.557793 0.0706882 0.
0.559808 0.0707132 0.
0.561822 0.0707376 0.
0.563836 0.0707612 0.
0.56585 0.0707848 0.
0.567864 0.0708087 0.
0.569877 0.0708328 0.
0.57189 0.070857 0.
0.573901 0.0708796 0.
0.575913 0.0709021 0.
0.577924 0.0709236 0.
0.579933 0.0709344 0.
0.581942 0.0709453 0.
0.583951 0.0709552 0.
0.585958 0.0709632 0.
0.587966 0.0709712 0.
0.589973 0.0709775 0.
0.591979 0.0709825 0.
0.593985 0.0709875 0.
0.595991 0.0709894 0.
0.597996 0.0709904 0.
0.600002 0.0709914 0.
0.602007 0.0709884 0.
0.604013 0.0709854 0.
0.606019 0.0709816 0.
0.608026 0.0709752 0.
0.610033 0.0709688 0.
0.61204 0.0709612 0.
0.614049 0.070952 0.
0.616057 0.0709428 0.
0.618066 0.0709318 0.
0.620076 0.07092 0.
0.622086 0.0709081 0.
0.624098 0.0708844 0.
0.62611 0.0708596 0.
0.628122 0.0708348 0.
0.630135 0.0708091 0.
0.632149 0.0707833 0.
0.634163 0.0707578 0.
0.636177 0.0707327 0.
0.638192 0.0707076 0.
0.640207 0.0706817 0.
0.642222 0.0706553 0.
0.644237 0.070629 0.
0.646253 0.0705841 0.
0.648269 0.0705357 0.
0.650285 0.0704878 0.
0.652303 0.0704423 0.
0.65432 0.0703967 0.
0.656338 0.0703522 0.
0.658356 0.0703101 0.
0.660374 0.0702681 0.
0.662391 0.0702256 0.
0.664409 0.0701829 0.
0.666426 0.0701403 0.
0.668441 0.0700937 0.
0.670457 0.0700463 0.
0.672472 0.0699987 0.
0.674484 0.0699418 0.
0.676497 0.0698844 0.
0.678509 0.0698265 0.
0.68052 0.0697645 0.
0.682532 0.0697025 0.
0.684543 0.0696456 0.
0.686554 0.0695946 0.
0.688565 0.0695437 0.
0.690575 0.0694996 0.
0.692586 0.0694585 0.
0.694596 0.0694176 0.
0.696614 0.0693953 0.
0.698634 0.0693747 0.
0.499402 0.0713795 0.
0.501416 0.0714039 0.
0.503428 0.071431 0.
0.505439 0.0714595 0.
0.507449 0.0715034 0.
0.509459 0.0715474 0.
0.511469 0.0715931 0.
0.513479 0.0716429 0.
0.51549 0.0716927 0.
0.5175 0.0717495 0.
0.519512 0.0718118 0.
0.521523 0.0718741 0.
0.523534 0.0719314 0.
0.525546 0.0719879 0.
0.527558 0.0720438 0.
0.529572 0.072089 0.
0.531587 0.0721341 0.
0.533602 0.0721784 0.
0.535618 0.0722189 0.
0.537635 0.0722595 0.
0.539652 0.0723001 0.
0.541668 0.0723406 0.
0.543685 0.0723811 0.
0.545701 0.0724248 0.
0.547717 0.0724697 0.
0.549733 0.0725145 0.
0.551748 0.0725604 0.
0.553763 0.0726068 0.
0.555778 0.0726498 0.
0.557792 0.0726749 0.
0.559806 0.0727001 0.
0.56182 0.0727247 0.
0.563834 0.0727485 0.
0.565847 0.0727724 0.
0.56786 0.0727965 0.
0.569873 0.0728209 0.
0.571886 0.0728452 0.
0.573897 0.0728688 0.
0.575908 0.0728923 0.
0.577919 0.0729148 0.
0.579929 0.0729262 0.
0.581938 0.0729375 0.
0.583947 0.072948 0.
0.585955 0.0729565 0.
0.587963 0.0729651 0.
0.58997 0.0729719 0.
0.591976 0.0729772 0.
0.593983 0.0729824 0.
0.595989 0.0729845 0.
0.597996 0.0729856 0.
0.600002 0.0729867 0.
0.602008 0.0729834 0.
0.604015 0.0729801 0.
0.606021 0.072976 0.
0.608029 0.0729691 0.
0.610036 0.0729623 0.
0.612044 0.0729542 0.
0.614053 0.0729445 0.
0.616061 0.0729349 0.
0.618071 0.0729234 0.
0.620081 0.0729111 0.
0.622091 0.0728987 0.
0.624102 0.0728741 0.
0.626114 0.0728483 0.
0.628126 0.0728226 0.
0.630139 0.0727967 0.
0.632152 0.0727708 0.
0.634166 0.072745 0.
0.63618 0.0727197 0.
0.638193 0.0726943 0.
0.640208 0.0726683 0.
0.642222 0.0726418 0.
0.644237 0.0726153 0.
0.646252 0.0725701 0.
0.648268 0.0725214 0.
0.650283 0.0724732 0.
0.652299 0.0724275 0.
0.654316 0.0723817 0.
0.656332 0.072337 0.
0.658349 0.0722952 0.
0.660366 0.0722534 0.
0.662383 0.0722112 0.
0.664399 0.072169 0.
0.666415 0.0721267 0.
0.668429 0.0720811 0.
0.670443 0.0720347 0.
0.672457 0.0719882 0.
0.674469 0.0719322 0.
0.67648 0.0718757 0.
0.678491 0.0718185 0.
0.680502 0.0717564 0.
0.682512 0.0716943 0.
0.684523 0.0716374 0.
0.686533 0.0715868 0.
0.688543 0.0715362 0.
0.690553 0.0714923 0.
0.692562 0.0714517 0.
0.694572 0.0714112 0.
0.696588 0.0713901 0.
0.698607 0.071371 0.
0.499428 0.073378 0.
0.50144 0.0734007 0.
0.503452 0.0734258 0.
0.505462 0.0734529 0.
0.507471 0.0734964 0.
0.50948 0.07354 0.
0.511489 0.0735855 0.
0.513499 0.073635 0.
0.515509 0.0736844 0.
0.517519 0.0737411 0.
0.519529 0.0738034 0.
0.521539 0.0738657 0.
0.52355 0.0739223 0.
0.525561 0.073978 0.
0.527571 0.074033 0.
0.529585 0.074077 0.
0.531598 0.0741209 0.
0.533612 0.0741641 0.
0.535627 0.0742045 0.
0.537642 0.074245 0.
0.539658 0.0742854 0.
0.541674 0.0743257 0.
0.543689 0.074366 0.
0.545704 0.0744099 0.
0.547719 0.0744551 0.
0.549734 0.0745003 0.
0.551749 0.0745464 0.
0.553763 0.0745931 0.
0.555777 0.0746363 0.
0.557791 0.0746616 0.
0.559805 0.074687 0.
0.561818 0.0747118 0.
0.563831 0.0747359 0.
0.565844 0.07476 0.
0.567856 0.0747844 0.
0.569869 0.0748089 0.
0.571881 0.0748335 0.
0.573893 0.0748579 0.
0.575904 0.0748825 0.
0.577915 0.0749059 0.
0.579924 0.0749179 0.
0.581934 0.0749298 0.
0.583943 0.0749408 0.
0.585951 0.0749499 0.
0.587959 0.074959 0.
0.589967 0.0749662 0.
0.591974 0.0749718 0.
0.593981 0.0749774 0.
0.595988 0.0749796 0.
0.597995 0.0749808 0.
0.600002 0.074982 0.
0.602009 0.0749784 0.
0.604016 0.0749748 0.
0.606024 0.0749704 0.
0.608032 0.0749631 0.
0.610039 0.0749557 0.
0.612048 0.0749471 0.
0.614057 0.074937 0.
0.616065 0.0749269 0.
0.618075 0.074915 0.
0.620085 0.0749022 0.
0.622095 0.0748894 0.
0.624107 0.0748638 0.
0.626118 0.074837 0.
0.62813 0.0748104 0.
0.630143 0.0747843 0.
0.632155 0.0747582 0.
0.634168 0.0747323 0.
0.636182 0.0747067 0.
0.638195 0.0746811 0.
0.640209 0.0746548 0.
0.642223 0.0746282 0.
0.644237 0.0746016 0.
0.646251 0.0745561 0.
0.648266 0.0745071 0.
0.650281 0.0744587 0.
0.652296 0.0744126 0.
0.654311 0.0743666 0.
0.656327 0.0743218 0.
0.658343 0.0742802 0.
0.660358 0.0742387 0.
0.662374 0.0741969 0.
0.664389 0.074155 0.
0.666403 0.0741131 0.
0.668417 0.0740685 0.
0.67043 0.0740232 0.
0.672443 0.0739777 0.
0.674453 0.0739226 0.
0.676464 0.073867 0.
0.678474 0.0738104 0.
0.680484 0.0737483 0.
0.682493 0.0736861 0.
0.684503 0.0736292 0.
0.686512 0.073579 0.
0.688522 0.0735287 0.
0.690531 0.0734852 0.
0.692539 0.073445 0.
0.694548 0.0734049 0.
0.696563 0.073385 0.
0.69858 0.0733674 0.
0.499457 0.0753681 0.
0.501468 0.0753921 0.
0.503479 0.0754186 0.
0.505489 0.0754467 0.
0.507497 0.0754902 0.
0.509505 0.0755336 0.
0.511513 0.075579 0.
0.513522 0.0756282 0.
0.515531 0.0756774 0.
0.51754 0.0757341 0.
0.519549 0.0757964 0.
0.521558 0.0758587 0.
0.523568 0.075915 0.
0.525577 0.0759702 0.
0.527587 0.0760248 0.
0.529599 0.0760677 0.
0.531611 0.0761104 0.
0.533623 0.0761526 0.
0.535637 0.0761926 0.
0.537651 0.0762327 0.
0.539665 0.076273 0.
0.541679 0.0763133 0.
0.543694 0.0763537 0.
0.545708 0.0763977 0.
0.547721 0.0764429 0.
0.549735 0.0764881 0.
0.551749 0.0765342 0.
0.553762 0.0765808 0.
0.555775 0.0766239 0.
0.557788 0.0766495 0.
0.559801 0.076675 0.
0.561814 0.0767001 0.
0.563827 0.0767244 0.
0.565839 0.0767487 0.
0.567851 0.0767732 0.
0.569863 0.0767979 0.
0.571875 0.0768226 0.
0.573887 0.0768474 0.
0.575898 0.0768724 0.
0.577908 0.0768963 0.
0.579918 0.0769086 0.
0.581928 0.0769209 0.
0.583938 0.0769324 0.
0.585947 0.0769418 0.
0.587956 0.0769512 0.
0.589964 0.0769587 0.
0.591972 0.0769647 0.
0.59398 0.0769706 0.
0.595987 0.0769728 0.
0.597995 0.076974 0.
0.600002 0.0769752 0.
0.60201 0.0769714 0.
0.604018 0.0769675 0.
0.606026 0.0769629 0.
0.608034 0.0769553 0.
0.610043 0.0769477 0.
0.612052 0.0769388 0.
0.614061 0.0769284 0.
0.616071 0.076918 0.
0.618081 0.0769057 0.
0.620091 0.0768925 0.
0.622101 0.0768792 0.
0.624113 0.0768533 0.
0.626124 0.0768262 0.
0.628135 0.0767993 0.
0.630148 0.0767731 0.
0.63216 0.0767468 0.
0.634172 0.0767208 0.
0.636185 0.0766951 0.
0.638198 0.0766694 0.
0.640211 0.0766429 0.
0.642224 0.076616 0.
0.644237 0.0765891 0.
0.646251 0.0765437 0.
0.648264 0.0764947 0.
0.650278 0.0764462 0.
0.652292 0.0764001 0.
0.654306 0.076354 0.
0.65632 0.0763091 0.
0.658335 0.0762677 0.
0.660349 0.0762262 0.
0.662363 0.0761848 0.
0.664377 0.0761435 0.
0.66639 0.0761021 0.
0.668402 0.0760585 0.
0.670414 0.0760144 0.
0.672425 0.07597 0.
0.674435 0.0759154 0.
0.676444 0.0758602 0.
0.678453 0.0758039 0.
0.680462 0.0757417 0.
0.682471 0.0756796 0.
0.684479 0.0756228 0.
0.686488 0.0755728 0.
0.688497 0.0755228 0.
0.690505 0.0754791 0.
0.692513 0.0754387 0.
0.694521 0.0753984 0.
0.696535 0.075378 0.
0.698551 0.0753599 0.
0.499492 0.0773585 0.
0.501502 0.0773842 0.
0.503511 0.0774122 0.
0.50552 0.0774417 0.
0.507527 0.0774849 0.
0.509534 0.0775282 0.
0.511542 0.0775734 0.
0.513549 0.0776224 0.
0.515557 0.0776714 0.
0.517565 0.077728 0.
0.519572 0.0777903 0.
0.52158 0.0778526 0.
0.523588 0.0779086 0.
0.525596 0.0779634 0.
0.527604 0.0780175 0.
0.529615 0.0780591 0.
0.531625 0.0781007 0.
0.533635 0.0781418 0.
0.535648 0.0781814 0.
0.53766 0.078221 0.
0.539672 0.078261 0.
0.541685 0.0783014 0.
0.543698 0.0783418 0.
0.545711 0.0783859 0.
0.547724 0.0784311 0.
0.549736 0.0784763 0.
0.551749 0.0785222 0.
0.553761 0.0785686 0.
0.555773 0.0786117 0.
0.557786 0.0786374 0.
0.559798 0.0786632 0.
0.56181 0.0786884 0.
0.563822 0.0787129 0.
0.565834 0.0787374 0.
0.567846 0.0787621 0.
0.569858 0.0787869 0.
0.57187 0.0788117 0.
0.573881 0.0788368 0.
0.575891 0.0788622 0.
0.577902 0.0788865 0.
0.579913 0.0788993 0.
0.581923 0.078912 0.
0.583933 0.0789239 0.
0.585942 0.0789336 0.
0.587952 0.0789434 0.
0.589961 0.0789512 0.
0.59197 0.0789574 0.
0.593978 0.0789636 0.
0.595987 0.078966 0.
0.597995 0.0789672 0.
0.600003 0.0789684 0.
0.602011 0.0789643 0.
0.60402 0.0789602 0.
0.606028 0.0789553 0.
0.608037 0.0789475 0.
0.610046 0.0789396 0.
0.612056 0.0789305 0.
0.614066 0.0789198 0.
0.616076 0.0789091 0.
0.618086 0.0788964 0.
0.620097 0.0788827 0.
0.622108 0.0788691 0.
0.624119 0.0788428 0.
0.62613 0.0788154 0.
0.628141 0.0787882 0.
0.630153 0.0787619 0.
0.632164 0.0787355 0.
0.634176 0.0787093 0.
0.636188 0.0786835 0.
0.638201 0.0786577 0.
0.640213 0.0786311 0.
0.642225 0.0786039 0.
0.644238 0.0785767 0.
0.646251 0.0785314 0.
0.648263 0.0784826 0.
0.650275 0.0784342 0.
0.652288 0.078388 0.
0.654301 0.0783419 0.
0.656313 0.078297 0.
0.658326 0.0782557 0.
0.66034 0.0782144 0.
0.662352 0.0781734 0.
0.664364 0.0781327 0.
0.666376 0.0780919 0.
0.668386 0.0780494 0.
0.670396 0.0780064 0.
0.672406 0.0779632 0.
0.674413 0.0779091 0.
0.676421 0.0778543 0.
0.678429 0.0777983 0.
0.680437 0.0777361 0.
0.682445 0.077674 0.
0.684452 0.0776172 0.
0.686459 0.0775674 0.
0.688467 0.0775176 0.
0.690474 0.0774739 0.
0.692482 0.0774334 0.
0.69449 0.0773929 0.
0.696502 0.0773719 0.
0.698515 0.0773531 0.
0.499527 0.0793524 0.
0.501536 0.0793786 0.
0.503544 0.0794069 0.
0.505552 0.0794368 0.
0.507558 0.0794799 0.
0.509564 0.0795231 0.
0.51157 0.0795682 0.
0.513576 0.079617 0.
0.515583 0.0796658 0.
0.517589 0.0797225 0.
0.519595 0.0797848 0.
0.521602 0.0798472 0.
0.523608 0.0799029 0.
0.525614 0.0799573 0.
0.527621 0.0800108 0.
0.529629 0.0800513 0.
0.531638 0.0800917 0.
0.533647 0.0801318 0.
0.535657 0.080171 0.
0.537668 0.0802102 0.
0.539679 0.08025 0.
0.541691 0.0802904 0.
0.543702 0.0803307 0.
0.545714 0.0803748 0.
0.547725 0.08042 0.
0.549737 0.0804653 0.
0.551749 0.080511 0.
0.55376 0.0805572 0.
0.555772 0.0806001 0.
0.557784 0.0806259 0.
0.559796 0.0806517 0.
0.561807 0.0806771 0.
0.563819 0.0807018 0.
0.56583 0.0807264 0.
0.567842 0.0807512 0.
0.569853 0.0807761 0.
0.571865 0.0808009 0.
0.573876 0.0808264 0.
0.575886 0.080852 0.
0.577897 0.0808767 0.
0.579908 0.0808897 0.
0.581918 0.0809028 0.
0.583929 0.0809149 0.
0.585939 0.0809249 0.
0.587949 0.080935 0.
0.589958 0.0809431 0.
0.591968 0.0809495 0.
0.593977 0.080956 0.
0.595986 0.0809585 0.
0.597995 0.0809597 0.
0.600003 0.0809609 0.
0.602012 0.0809566 0.
0.604021 0.0809523 0.
0.606031 0.0809471 0.
0.60804 0.0809391 0.
0.61005 0.080931 0.
0.61206 0.0809216 0.
0.61407 0.0809107 0.
0.61608 0.0808997 0.
0.618091 0.0808867 0.
0.620102 0.0808728 0.
0.622113 0.0808588 0.
0.624124 0.0808323 0.
0.626135 0.0808047 0.
0.628146 0.0807775 0.
0.630157 0.080751 0.
0.632168 0.0807246 0.
0.63418 0.0806984 0.
0.636191 0.0806725 0.
0.638203 0.0806466 0.
0.640215 0.0806198 0.
0.642227 0.0805925 0.
0.644239 0.0805652 0.
0.64625 0.0805201 0.
0.648262 0.0804716 0.
0.650273 0.0804234 0.
0.652285 0.0803771 0.
0.654296 0.0803307 0.
0.656307 0.0802857 0.
0.658319 0.0802446 0.
0.660331 0.0802035 0.
0.662342 0.0801629 0.
0.664352 0.0801226 0.
0.666363 0.0800824 0.
0.668371 0.0800408 0.
0.670379 0.0799989 0.
0.672387 0.0799568 0.
0.674393 0.0799032 0.
0.6764 0.079849 0.
0.678406 0.0797934 0.
0.680412 0.079731 0.
0.682418 0.0796687 0.
0.684425 0.0796118 0.
0.686431 0.0795622 0.
0.688437 0.0795125 0.
0.690444 0.0794688 0.
0.692451 0.0794284 0.
0.694458 0.079388 0.
0.696468 0.0793669 0.
0.69848 0.0793482 0.
0.499553 0.0813512 0.
0.501561 0.0813766 0.
0.503568 0.0814041 0.
0.505575 0.0814335 0.
0.50758 0.0814766 0.
0.509585 0.0815197 0.
0.51159 0.0815649 0.
0.513595 0.0816136 0.
0.515601 0.0816623 0.
0.517606 0.081719 0.
0.519611 0.0817815 0.
0.521616 0.081844 0.
0.523622 0.0818995 0.
0.525627 0.0819535 0.
0.527633 0.0820067 0.
0.52964 0.0820461 0.
0.531648 0.0820853 0.
0.533656 0.0821245 0.
0.535665 0.0821632 0.
0.537675 0.0822019 0.
0.539685 0.0822413 0.
0.541695 0.0822813 0.
0.543706 0.0823214 0.
0.545716 0.0823654 0.
0.547727 0.0824107 0.
0.549738 0.082456 0.
0.551749 0.0825012 0.
0.55376 0.0825469 0.
0.555771 0.0825893 0.
0.557782 0.0826151 0.
0.559794 0.0826409 0.
0.561805 0.0826663 0.
0.563816 0.082691 0.
0.565828 0.0827158 0.
0.567839 0.0827406 0.
0.56985 0.0827655 0.
0.571861 0.0827904 0.
0.573872 0.0828159 0.
0.575883 0.0828418 0.
0.577893 0.0828666 0.
0.579904 0.0828798 0.
0.581915 0.082893 0.
0.583925 0.0829053 0.
0.585935 0.0829155 0.
0.587946 0.0829258 0.
0.589956 0.0829341 0.
0.591965 0.0829409 0.
0.593975 0.0829476 0.
0.595985 0.0829501 0.
0.597994 0.0829514 0.
0.600004 0.0829527 0.
0.602014 0.0829482 0.
0.604023 0.0829437 0.
0.606033 0.0829383 0.
0.608043 0.08293 0.
0.610053 0.0829217 0.
0.612063 0.0829121 0.
0.614074 0.082901 0.
0.616084 0.0828899 0.
0.618095 0.0828767 0.
0.620106 0.0828626 0.
0.622117 0.0828485 0.
0.624127 0.0828219 0.
0.626138 0.0827943 0.
0.628149 0.082767 0.
0.63016 0.0827407 0.
0.632171 0.0827143 0.
0.634182 0.0826881 0.
0.636193 0.082662 0.
0.638204 0.082636 0.
0.640216 0.0826092 0.
0.642227 0.082582 0.
0.644239 0.0825548 0.
0.64625 0.0825102 0.
0.648261 0.0824623 0.
0.650271 0.0824147 0.
0.652282 0.0823682 0.
0.654292 0.0823217 0.
0.656303 0.0822766 0.
0.658313 0.0822358 0.
0.660324 0.0821951 0.
0.662334 0.0821549 0.
0.664343 0.0821152 0.
0.666352 0.0820754 0.
0.66836 0.0820347 0.
0.670367 0.0819937 0.
0.672374 0.0819525 0.
0.674379 0.0818994 0.
0.676385 0.0818456 0.
0.67839 0.0817903 0.
0.680395 0.0817278 0.
0.6824 0.0816653 0.
0.684406 0.0816082 0.
0.686411 0.0815586 0.
0.688416 0.081509 0.
0.690422 0.0814654 0.
0.692428 0.0814251 0.
0.694433 0.0813849 0.
0.696443 0.0813643 0.
0.698453 0.0813466 0.
0.499579 0.08335 0.
0.501585 0.0833747 0.
0.503591 0.0834014 0.
0.505596 0.0834303 0.
0.507601 0.0834734 0.
0.509605 0.0835165 0.
0.51161 0.0835616 0.
0.513614 0.0836102 0.
0.515618 0.0836588 0.
0.517622 0.0837156 0.
0.519627 0.0837782 0.
0.521631 0.0838408 0.
0.523635 0.083896 0.
0.52564 0.0839497 0.
0.527645 0.0840025 0.
0.529651 0.0840408 0.
0.531658 0.0840789 0.
0.533664 0.0841172 0.
0.535673 0.0841554 0.
0.537681 0.0841935 0.
0.53969 0.0842325 0.
0.5417 0.0842723 0.
0.543709 0.0843121 0.
0.545719 0.084356 0.
0.547729 0.0844013 0.
0.549739 0.0844466 0.
0.551749 0.0844914 0.
0.553759 0.0845366 0.
0.55577 0.0845785 0.
0.557781 0.0846043 0.
0.559792 0.0846301 0.
0.561803 0.0846555 0.
0.563814 0.0846803 0.
0.565825 0.0847051 0.
0.567836 0.08473 0.
0.569847 0.0847549 0.
0.571857 0.0847798 0.
0.573868 0.0848055 0.
0.575879 0.0848315 0.
0.57789 0.0848565 0.
0.5799 0.0848699 0.
0.581911 0.0848833 0.
0.583921 0.0848958 0.
0.585932 0.0849062 0.
0.587942 0.0849166 0.
0.589953 0.0849251 0.
0.591963 0.0849322 0.
0.593974 0.0849392 0.
0.595984 0.0849418 0.
0.597994 0.0849432 0.
0.600004 0.0849445 0.
0.602015 0.0849398 0.
0.604025 0.0849351 0.
0.606035 0.0849295 0.
0.608046 0.084921 0.
0.610056 0.0849125 0.
0.612067 0.0849027 0.
0.614077 0.0848913 0.
0.616088 0.08488 0.
0.618099 0.0848666 0.
0.62011 0.0848524 0.
0.62212 0.0848381 0.
0.624131 0.0848115 0.
0.626142 0.0847839 0.
0.628152 0.0847566 0.
0.630163 0.0847303 0.
0.632173 0.084704 0.
0.634184 0.0846778 0.
0.636195 0.0846516 0.
0.638206 0.0846255 0.
0.640217 0.0845987 0.
0.642228 0.0845715 0.
0.644239 0.0845443 0.
0.646249 0.0845004 0.
0.648259 0.084453 0.
0.650269 0.0844059 0.
0.652279 0.0843593 0.
0.654288 0.0843126 0.
0.656298 0.0842675 0.
0.658307 0.0842271 0.
0.660317 0.0841866 0.
0.662326 0.0841469 0.
0.664334 0.0841077 0.
0.666342 0.0840684 0.
0.668348 0.0840286 0.
0.670354 0.0839885 0.
0.67236 0.0839483 0.
0.674365 0.0838956 0.
0.67637 0.0838422 0.
0.678374 0.0837873 0.
0.680378 0.0837246 0.
0.682382 0.0836619 0.
0.684387 0.0836047 0.
0.686391 0.0835551 0.
0.688396 0.0835055 0.
0.6904 0.083462 0.
0.692405 0.0834219 0.
0.69441 0.0833819 0.
0.696418 0.0833619 0.
0.698427 0.083345 0.
0.499608 0.0853457 0.
0.501613 0.0853714 0.
0.503618 0.0853991 0.
0.505623 0.085429 0.
0.507626 0.0854722 0.
0.509629 0.0855154 0.
0.511632 0.0855605 0.
0.513635 0.085609 0.
0.515638 0.0856575 0.
0.517641 0.0857143 0.
0.519644 0.085777 0.
0.521647 0.0858397 0.
0.52365 0.0858946 0.
0.525654 0.085948 0.
0.527657 0.0860004 0.
0.529662 0.0860376 0.
0.531667 0.0860747 0.
0.533673 0.086112 0.
0.53568 0.0861496 0.
0.537687 0.0861871 0.
0.539694 0.0862257 0.
0.541703 0.0862653 0.
0.543711 0.086305 0.
0.54572 0.0863489 0.
0.547729 0.0863941 0.
0.549737 0.0864393 0.
0.551747 0.0864833 0.
0.553757 0.0865275 0.
0.555766 0.0865686 0.
0.557777 0.0865943 0.
0.559788 0.08662 0.
0.561798 0.0866454 0.
0.563809 0.0866702 0.
0.56582 0.086695 0.
0.56783 0.0867198 0.
0.569841 0.0867448 0.
0.571852 0.0867697 0.
0.573862 0.0867952 0.
0.575873 0.086821 0.
0.577884 0.0868458 0.
0.579895 0.0868593 0.
0.581906 0.0868727 0.
0.583917 0.0868852 0.
0.585928 0.0868957 0.
0.587939 0.0869061 0.
0.58995 0.0869147 0.
0.591961 0.0869218 0.
0.593972 0.0869289 0.
0.595983 0.0869315 0.
0.597994 0.0869329 0.
0.600005 0.0869342 0.
0.602016 0.0869295 0.
0.604027 0.0869248 0.
0.606037 0.0869191 0.
0.608048 0.0869105 0.
0.610059 0.0869019 0.
0.61207 0.0868921 0.
0.614082 0.0868807 0.
0.616093 0.0868693 0.
0.618104 0.0868559 0.
0.620115 0.0868416 0.
0.622126 0.0868273 0.
0.624137 0.086801 0.
0.626148 0.0867737 0.
0.628158 0.0867468 0.
0.630169 0.0867207 0.
0.632179 0.0866947 0.
0.634189 0.0866687 0.
0.6362 0.0866427 0.
0.63821 0.0866168 0.
0.640221 0.0865899 0.
0.642231 0.0865625 0.
0.644242 0.086535 0.
0.646251 0.0864918 0.
0.64826 0.0864453 0.
0.650269 0.086399 0.
0.652278 0.0863522 0.
0.654286 0.0863054 0.
0.656294 0.0862603 0.
0.658302 0.0862202 0.
0.660311 0.0861802 0.
0.662318 0.086141 0.
0.664325 0.0861025 0.
0.666332 0.0860639 0.
0.668337 0.086025 0.
0.670342 0.0859858 0.
0.672346 0.0859466 0.
0.67435 0.0858941 0.
0.676353 0.0858409 0.
0.678356 0.0857861 0.
0.680359 0.0857233 0.
0.682362 0.0856605 0.
0.684365 0.0856032 0.
0.686369 0.0855536 0.
0.688372 0.085504 0.
0.690375 0.0854603 0.
0.692379 0.0854201 0.
0.694383 0.0853798 0.
0.696389 0.085359 0.
0.698396 0.0853412 0.
0.499643 0.0873424 0.
0.501647 0.0873695 0.
0.503651 0.0873983 0.
0.505654 0.0874293 0.
0.507656 0.0874725 0.
0.509657 0.0875158 0.
0.511659 0.0875609 0.
0.51366 0.0876091 0.
0.515661 0.0876573 0.
0.517663 0.0877142 0.
0.519664 0.0877769 0.
0.521665 0.0878397 0.
0.523667 0.0878943 0.
0.525669 0.0879471 0.
0.52767 0.0879991 0.
0.529674 0.0880352 0.
0.531677 0.0880713 0.
0.533681 0.0881076 0.
0.535687 0.0881444 0.
0.537692 0.0881813 0.
0.539699 0.0882194 0.
0.541706 0.0882589 0.
0.543713 0.0882984 0.
0.545721 0.0883421 0.
0.547728 0.0883873 0.
0.549736 0.0884324 0.
0.551745 0.0884754 0.
0.553753 0.0885185 0.
0.555762 0.0885587 0.
0.557773 0.0885844 0.
0.559783 0.0886101 0.
0.561793 0.0886354 0.
0.563804 0.0886601 0.
0.565814 0.0886849 0.
0.567825 0.0887097 0.
0.569835 0.0887347 0.
0.571846 0.0887596 0.
0.573857 0.0887849 0.
0.575867 0.0888105 0.
0.577878 0.0888351 0.
0.57989 0.0888486 0.
0.581901 0.0888621 0.
0.583913 0.0888746 0.
0.585924 0.0888851 0.
0.587936 0.0888955 0.
0.589947 0.0889042 0.
0.591959 0.0889113 0.
0.593971 0.0889184 0.
0.595982 0.0889211 0.
0.597994 0.0889225 0.
0.600005 0.0889239 0.
0.602017 0.0889191 0.
0.604028 0.0889144 0.
0.60604 0.0889087 0.
0.608051 0.0889 0.
0.610063 0.0888914 0.
0.612074 0.0888814 0.
0.614086 0.08887 0.
0.616097 0.0888586 0.
0.618109 0.0888452 0.
0.62012 0.0888308 0.
0.622132 0.0888164 0.
0.624143 0.0887905 0.
0.626154 0.0887636 0.
0.628164 0.088737 0.
0.630174 0.0887112 0.
0.632184 0.0886854 0.
0.634194 0.0886596 0.
0.636205 0.0886339 0.
0.638215 0.0886082 0.
0.640225 0.0885813 0.
0.642235 0.0885536 0.
0.644245 0.0885259 0.
0.646253 0.0884834 0.
0.648261 0.0884379 0.
0.650269 0.0883924 0.
0.652276 0.0883455 0.
0.654283 0.0882986 0.
0.656291 0.0882536 0.
0.658298 0.0882139 0.
0.660305 0.0881743 0.
0.662311 0.0881357 0.
0.664316 0.088098 0.
0.666321 0.0880602 0.
0.668325 0.0880222 0.
0.670328 0.087984 0.
0.672331 0.0879458 0.
0.674333 0.0878937 0.
0.676334 0.0878407 0.
0.678336 0.0877861 0.
0.680337 0.0877233 0.
0.682338 0.0876605 0.
0.68434 0.087603 0.
0.686341 0.0875535 0.
0.688343 0.0875039 0.
0.690345 0.08746 0.
0.692347 0.0874196 0.
0.69435 0.0873792 0.
0.696354 0.0873573 0.
0.69836 0.0873385 0.
0.499678 0.0893403 0.
0.501681 0.0893684 0.
0.503683 0.0893982 0.
0.505685 0.0894301 0.
0.507685 0.0894733 0.
0.509685 0.0895166 0.
0.511685 0.0895616 0.
0.513684 0.0896097 0.
0.515684 0.0896578 0.
0.517683 0.0897147 0.
0.519683 0.0897776 0.
0.521682 0.0898405 0.
0.523682 0.0898946 0.
0.525682 0.089947 0.
0.527682 0.0899984 0.
0.529684 0.0900335 0.
0.531686 0.0900686 0.
0.533688 0.090104 0.
0.535693 0.0901402 0.
0.537697 0.0901764 0.
0.539702 0.090214 0.
0.541708 0.0902532 0.
0.543714 0.0902923 0.
0.54572 0.090336 0.
0.547727 0.0903812 0.
0.549734 0.0904264 0.
0.551742 0.0904683 0.
0.55375 0.0905102 0.
0.555759 0.0905493 0.
0.557769 0.0905748 0.
0.559779 0.0906003 0.
0.561789 0.0906255 0.
0.563799 0.0906502 0.
0.565809 0.0906748 0.
0.56782 0.0906997 0.
0.56983 0.0907246 0.
0.571841 0.0907495 0.
0.573851 0.0907746 0.
0.575862 0.0907999 0.
0.577874 0.0908243 0.
0.579885 0.0908377 0.
0.581897 0.0908511 0.
0.583909 0.0908636 0.
0.585921 0.090874 0.
0.587933 0.0908844 0.
0.589945 0.0908931 0.
0.591957 0.0909003 0.
0.59397 0.0909075 0.
0.595982 0.0909102 0.
0.597994 0.0909116 0.
0.600006 0.0909131 0.
0.602018 0.0909082 0.
0.60403 0.0909034 0.
0.606042 0.0908977 0.
0.608054 0.090889 0.
0.610066 0.0908803 0.
0.612078 0.0908704 0.
0.61409 0.090859 0.
0.616102 0.0908476 0.
0.618113 0.0908341 0.
0.620125 0.0908197 0.
0.622137 0.0908053 0.
0.624148 0.0907799 0.
0.626159 0.0907536 0.
0.62817 0.0907275 0.
0.630179 0.0907017 0.
0.632189 0.090676 0.
0.634199 0.0906503 0.
0.636209 0.0906248 0.
0.638219 0.0905993 0.
0.640229 0.0905725 0.
0.642239 0.090545 0.
0.644248 0.0905175 0.
0.646256 0.0904761 0.
0.648263 0.0904317 0.
0.65027 0.0903872 0.
0.652276 0.0903401 0.
0.654282 0.090293 0.
0.656288 0.0902479 0.
0.658294 0.0902086 0.
0.6603 0.0901693 0.
0.662305 0.0901313 0.
0.664309 0.0900942 0.
0.666312 0.0900571 0.
0.668314 0.09002 0.
0.670316 0.0899828 0.
0.672317 0.0899455 0.
0.674317 0.0898938 0.
0.676317 0.0898413 0.
0.678317 0.089787 0.
0.680316 0.089724 0.
0.682316 0.0896611 0.
0.684315 0.0896036 0.
0.686315 0.0895539 0.
0.688315 0.0895043 0.
0.690315 0.0894603 0.
0.692316 0.0894197 0.
0.694317 0.0893791 0.
0.69632 0.0893565 0.
0.698323 0.0893371 0.
0.499703 0.0913412 0.
0.501704 0.0913703 0.
0.503705 0.0914009 0.
0.505705 0.0914336 0.
0.507704 0.0914768 0.
0.509702 0.09152 0.
0.5117 0.0915651 0.
0.513699 0.0916132 0.
0.515697 0.0916613 0.
0.517695 0.0917183 0.
0.519693 0.0917813 0.
0.521691 0.0918443 0.
0.52369 0.0918979 0.
0.525689 0.0919496 0.
0.527688 0.0920002 0.
0.529689 0.0920344 0.
0.53169 0.0920684 0.
0.533691 0.0921028 0.
0.535695 0.0921383 0.
0.537698 0.0921739 0.
0.539702 0.0922108 0.
0.541708 0.0922493 0.
0.543713 0.0922878 0.
0.545719 0.0923313 0.
0.547725 0.0923766 0.
0.549731 0.0924218 0.
0.551739 0.0924624 0.
0.553747 0.092503 0.
0.555755 0.0925408 0.
0.557765 0.0925658 0.
0.559775 0.0925908 0.
0.561785 0.0926158 0.
0.563795 0.0926403 0.
0.565805 0.0926649 0.
0.567816 0.0926897 0.
0.569826 0.0927146 0.
0.571836 0.0927395 0.
0.573847 0.0927643 0.
0.575859 0.0927892 0.
0.57787 0.0928131 0.
0.579882 0.0928264 0.
0.581894 0.0928397 0.
0.583906 0.092852 0.
0.585918 0.0928623 0.
0.587931 0.0928726 0.
0.589943 0.0928813 0.
0.591956 0.0928886 0.
0.593969 0.0928959 0.
0.595981 0.0928987 0.
0.597994 0.0929001 0.
0.600006 0.0929015 0.
0.602018 0.0928967 0.
0.604031 0.0928918 0.
0.606043 0.092886 0.
0.608055 0.0928774 0.
0.610068 0.0928687 0.
0.61208 0.0928588 0.
0.614092 0.0928474 0.
0.616105 0.092836 0.
0.618117 0.0928226 0.
0.620129 0.0928083 0.
0.622141 0.0927939 0.
0.624152 0.0927692 0.
0.626163 0.0927436 0.
0.628173 0.0927181 0.
0.630183 0.0926923 0.
0.632193 0.0926666 0.
0.634203 0.0926409 0.
0.636213 0.0926155 0.
0.638223 0.0925901 0.
0.640233 0.0925638 0.
0.642242 0.092537 0.
0.644251 0.0925102 0.
0.646258 0.0924701 0.
0.648266 0.0924272 0.
0.650272 0.092384 0.
0.652278 0.0923367 0.
0.654283 0.0922894 0.
0.656288 0.0922444 0.
0.658293 0.0922056 0.
0.660298 0.0921669 0.
0.662302 0.0921294 0.
0.664305 0.0920929 0.
0.666308 0.0920564 0.
0.668309 0.0920202 0.
0.67031 0.091984 0.
0.67231 0.0919477 0.
0.674309 0.0918966 0.
0.676308 0.0918447 0.
0.678306 0.0917908 0.
0.680304 0.0917278 0.
0.682303 0.0916648 0.
0.684301 0.0916071 0.
0.686299 0.0915574 0.
0.688298 0.0915077 0.
0.690297 0.0914634 0.
0.692296 0.0914225 0.
0.694295 0.0913816 0.
0.696296 0.0913586 0.
0.698298 0.091339 0.
0.499727 0.0933422 0.
0.501726 0.0933723 0.
0.503725 0.0934038 0.
0.505724 0.0934373 0.
0.507721 0.0934804 0.
0.509719 0.0935236 0.
0.511716 0.0935687 0.
0.513713 0.0936168 0.
0.515709 0.0936649 0.
0.517706 0.093722 0.
0.519703 0.093785 0.
0.5217 0.093848 0.
0.523698 0.0939011 0.
0.525695 0.0939521 0.
0.527693 0.0940021 0.
0.529693 0.0940352 0.
0.531693 0.0940681 0.
0.533694 0.0941016 0.
0.535697 0.0941365 0.
0.537699 0.0941714 0.
0.539703 0.0942076 0.
0.541707 0.0942454 0.
0.543712 0.0942832 0.
0.545717 0.0943266 0.
0.547723 0.0943719 0.
0.549728 0.0944173 0.
0.551736 0.0944566 0.
0.553744 0.0944957 0.
0.555752 0.0945322 0.
0.557762 0.0945568 0.
0.559771 0.0945814 0.
0.561781 0.094606 0.
0.563791 0.0946305 0.
0.565801 0.094655 0.
0.567812 0.0946797 0.
0.569822 0.0947046 0.
0.571832 0.0947295 0.
0.573843 0.0947539 0.
0.575855 0.0947784 0.
0.577866 0.094802 0.
0.579878 0.0948151 0.
0.581891 0.0948282 0.
0.583903 0.0948405 0.
0.585916 0.0948507 0.
0.587929 0.0948609 0.
0.589942 0.0948695 0.
0.591955 0.0948769 0.
0.593968 0.0948843 0.
0.595981 0.0948871 0.
0.597994 0.0948886 0.
0.600006 0.09489 0.
0.602019 0.0948851 0.
0.604032 0.0948802 0.
0.606045 0.0948744 0.
0.608057 0.0948657 0.
0.61007 0.0948571 0.
0.612082 0.0948472 0.
0.614095 0.0948358 0.
0.616108 0.0948245 0.
0.61812 0.0948111 0.
0.620132 0.0947969 0.
0.622144 0.0947826 0.
0.624156 0.0947585 0.
0.626167 0.0947336 0.
0.628177 0.0947088 0.
0.630187 0.0946829 0.
0.632197 0.0946571 0.
0.634207 0.0946314 0.
0.636217 0.0946062 0.
0.638226 0.0945809 0.
0.640236 0.0945551 0.
0.642245 0.094529 0.
0.644254 0.0945028 0.
0.646261 0.0944642 0.
0.648268 0.0944227 0.
0.650275 0.0943808 0.
0.652279 0.0943333 0.
0.654284 0.0942858 0.
0.656288 0.0942408 0.
0.658292 0.0942026 0.
0.660297 0.0941644 0.
0.6623 0.0941275 0.
0.664302 0.0940915 0.
0.666304 0.0940556 0.
0.668304 0.0940203 0.
0.670303 0.0939852 0.
0.672303 0.09395 0.
0.674301 0.0938995 0.
0.676299 0.0938481 0.
0.678296 0.0937947 0.
0.680293 0.0937316 0.
0.68229 0.0936685 0.
0.684287 0.0936107 0.
0.686284 0.0935609 0.
0.688281 0.0935112 0.
0.690279 0.0934666 0.
0.692277 0.0934255 0.
0.694275 0.0933843 0.
0.696274 0.0933609 0.
0.698273 0.0933411 0.
0.499743 0.095344 0.
0.501741 0.0953751 0.
0.503739 0.0954077 0.
0.505736 0.0954421 0.
0.507732 0.0954853 0.
0.509728 0.0955285 0.
0.511724 0.0955736 0.
0.51372 0.0956216 0.
0.515716 0.0956696 0.
0.517712 0.0957267 0.
0.519708 0.0957898 0.
0.521703 0.0958529 0.
0.5237 0.0959053 0.
0.525698 0.0959556 0.
0.527695 0.0960049 0.
0.529695 0.0960369 0.
0.531694 0.0960689 0.
0.533694 0.0961014 0.
0.535696 0.0961356 0.
0.537698 0.0961699 0.
0.539701 0.0962055 0.
0.541705 0.0962425 0.
0.54371 0.0962796 0.
0.545715 0.0963226 0.
0.54772 0.0963676 0.
0.549725 0.0964126 0.
0.551732 0.0964507 0.
0.55374 0.0964884 0.
0.555748 0.0965237 0.
0.557757 0.0965481 0.
0.559767 0.0965726 0.
0.561776 0.096597 0.
0.563786 0.0966213 0.
0.565796 0.0966456 0.
0.567806 0.0966702 0.
0.569817 0.096695 0.
0.571827 0.0967198 0.
0.573838 0.0967436 0.
0.57585 0.0967673 0.
0.577862 0.0967901 0.
0.579875 0.0968031 0.
0.581887 0.0968161 0.
0.5839 0.0968281 0.
0.585913 0.0968383 0.
0.587927 0.0968484 0.
0.58994 0.096857 0.
0.591953 0.0968642 0.
0.593967 0.0968715 0.
0.59598 0.0968743 0.
0.597994 0.0968758 0.
0.600007 0.0968772 0.
0.60202 0.0968724 0.
0.604033 0.0968675 0.
0.606047 0.0968618 0.
0.608059 0.0968532 0.
0.610072 0.0968446 0.
0.612085 0.0968348 0.
0.614098 0.0968235 0.
0.616111 0.0968123 0.
0.618124 0.0967991 0.
0.620136 0.0967851 0.
0.622148 0.096771 0.
0.62416 0.0967478 0.
0.626171 0.0967238 0.
0.628182 0.0966997 0.
0.630192 0.0966741 0.
0.632202 0.0966484 0.
0.634212 0.0966229 0.
0.636221 0.0965979 0.
0.638231 0.0965728 0.
0.64024 0.0965472 0.
0.642249 0.0965214 0.
0.644258 0.0964955 0.
0.646265 0.096458 0.
0.648271 0.0964177 0.
0.650278 0.096377 0.
0.652282 0.0963297 0.
0.654286 0.0962824 0.
0.65629 0.0962377 0.
0.658294 0.0962002 0.
0.660297 0.0961628 0.
0.6623 0.0961265 0.
0.664301 0.0960912 0.
0.666302 0.0960559 0.
0.668302 0.0960215 0.
0.670301 0.0959873 0.
0.6723 0.0959531 0.
0.674297 0.0959032 0.
0.676294 0.0958524 0.
0.678291 0.0957995 0.
0.680287 0.0957363 0.
0.682283 0.0956731 0.
0.684279 0.0956153 0.
0.686275 0.0955656 0.
0.688271 0.0955159 0.
0.690267 0.0954711 0.
0.692264 0.0954296 0.
0.694261 0.0953881 0.
0.696259 0.0953641 0.
0.698257 0.0953437 0.
0.499754 0.0973466 0.
0.501751 0.0973788 0.
0.503748 0.0974122 0.
0.505745 0.0974475 0.
0.50774 0.0974907 0.
0.509735 0.097534 0.
0.511731 0.0975791 0.
0.513726 0.097627 0.
0.515721 0.0976748 0.
0.517716 0.0977319 0.
0.519711 0.097795 0.
0.521706 0.0978582 0.
0.523702 0.09791 0.
0.525699 0.0979595 0.
0.527696 0.098008 0.
0.529695 0.098039 0.
0.531695 0.0980699 0.
0.533694 0.0981015 0.
0.535696 0.0981351 0.
0.537697 0.0981687 0.
0.539699 0.0982036 0.
0.541703 0.0982399 0.
0.543707 0.0982762 0.
0.545711 0.0983187 0.
0.547716 0.0983633 0.
0.549721 0.098408 0.
0.551728 0.0984449 0.
0.553736 0.0984813 0.
0.555743 0.0985154 0.
0.557753 0.0985396 0.
0.559762 0.0985639 0.
0.561771 0.0985881 0.
0.563781 0.0986122 0.
0.565791 0.0986362 0.
0.567801 0.0986608 0.
0.569811 0.0986855 0.
0.571821 0.0987102 0.
0.573833 0.0987333 0.
0.575845 0.0987561 0.
0.577857 0.0987782 0.
0.579871 0.098791 0.
0.581884 0.0988038 0.
0.583898 0.0988158 0.
0.585911 0.0988258 0.
0.587925 0.0988359 0.
0.589938 0.0988443 0.
0.591952 0.0988514 0.
0.593966 0.0988586 0.
0.59598 0.0988613 0.
0.597994 0.0988629 0.
0.600007 0.0988644 0.
0.602021 0.0988596 0.
0.604035 0.0988549 0.
0.606049 0.0988492 0.
0.608062 0.0988407 0.
0.610075 0.0988321 0.
0.612088 0.0988223 0.
0.614101 0.0988112 0.
0.616114 0.0988 0.
0.618127 0.098787 0.
0.62014 0.0987732 0.
0.622153 0.0987595 0.
0.624164 0.0987371 0.
0.626176 0.0987141 0.
0.628187 0.0986907 0.
0.630197 0.0986653 0.
0.632207 0.0986398 0.
0.634217 0.0986145 0.
0.636227 0.0985896 0.
0.638236 0.0985647 0.
0.640245 0.0985394 0.
0.642254 0.0985139 0.
0.644262 0.0984884 0.
0.646269 0.0984519 0.
0.648275 0.0984129 0.
0.650281 0.0983733 0.
0.652285 0.0983262 0.
0.654289 0.0982791 0.
0.656292 0.0982348 0.
0.658295 0.0981982 0.
0.660298 0.0981615 0.
0.6623 0.0981259 0.
0.664301 0.0980912 0.
0.666302 0.0980565 0.
0.668301 0.098023 0.
0.6703 0.0979898 0.
0.672299 0.0979565 0.
0.674295 0.0979073 0.
0.676292 0.0978572 0.
0.678288 0.0978048 0.
0.680283 0.0977416 0.
0.682278 0.0976784 0.
0.684273 0.0976205 0.
0.686269 0.0975709 0.
0.688264 0.0975213 0.
0.690259 0.0974763 0.
0.692255 0.0974344 0.
0.694251 0.0973925 0.
0.696248 0.0973679 0.
0.698246 0.097347 0.
CELLS 5000 10000
1 0
1 1
1 2
1 3
1 4
1 5
1 6
1 7
1 8
1 9
1 10
1 11
1 12
1 13
1 14
1 15
1 16
1 17
1 18
1 19
1 20
1 21
1 22
1 23
1 24
1 25
1 26
1 27
1 28
1 29
1 30
1 31
1 32
1 33
1 34
1 35
1 36
1 37
1 38
1 39
1 40
1 41
1 42
1 43
1 44
1 45
1 46
1 47
1 48
1 49
1 50
1 51
1 52
1 53
1 54
1 55
1 56
1 57
1 58
1 59
1 60
1 61
1 62
1 63
1 64
1 65
1 66
1 67
1 68
1 69
1 70
1 71
1 72
1 73
1 74
1 75
1 76
1 77
1 78
1 79
1 80
1 81
1 82
1 83
1 84
1 85
1 86
1 87
1 88
1 89
1 90
1 91
1 92
1 93
1 94
1 95
1 96
1 97
1 98
1 99
1 100
1 101
1 102
1 103
1 104
1 105
1 106
1 107
1 108
1 109
1 110
1 111
1 112
1 113
1 114
1 115
1 116
1 117
1 118
1 119
1 120
1 121
1 122
1 123
1 124
1 125
1 126
1 127
1 128
1 129
1 130
1 131
1 132
1 133
1 134
1 135
1 136
1 137
1 138
1 139
1 140
1 141
1 142
1 143
1 144
1 145
1 146
1 147
1 148
1 149
1 150
1 151
1 152
1 153
1 154
1 155
1 156
1 157
1 158
1 159
1 160
1 161
1 162
1 163
1 164
1 165
1 166
1 167
1 168
1 169
1 170
1 171
1 172
1 173
1 174
1 175
1 176
1 177
1 178
1 179
1 180
1 181
1 182
1 183
1 184
1 185
1 186
1 187
1 188
1 189
1 190
1 191
1 192
1 193
1 194
1 195
1 196
1 197
1 198
1 199
1 200
1 201
1 202
1 203
1 204
1 205
1 206
1 207
1 208
1 209
1 210
1 211
1 212
1 213
1 214
1 215
1 216
1 217
1 218
1 219
1 220
1 221
1 222
1 223
1 224
1 225
1 226
1 227
1 228
1 229
1 230
1 231
1 232
1 233
1 234
1 235
1 236
1 237
1 238
1 239
1 240
1 241
1 242
1 243
1 244
1 245
1 246
1 247
1 248
1 249
1 250
1 251
1 252
1 253
1 254
1 255
1 256
1 257
1 258
1 259
1 260
1 261
1 262
1 263
1 264
1 265
1 266
1 267
1 268
1 269
1 270
1 271
1 272
1 273
1 274
1 275
1 276
1 277
1 278
1 279
1 280
1 281
1 282
1 283
1 284
1 285
1 286
1 287
1 288
1 289
1 290
1 291
1 292
1 293
1 294
1 295
1 296
1 297
1 298
1 299
1 300
1 301
1 302
1 303
1 304
1 305
1 306
1 307
1 308
1 309
1 310
1 311
1 312
1 313
1 314
1 315
1 316
1 317
1 318
1 319
1 320
1 321
1 322
1 323
1 324
1 325
1 326
1 327
1 328
1 329
1 330
1 331
1 332
1 333
1 334
1 335
1 336
1 337
1 338
1 339
1 340
1 341
1 342
1 343
1 344
1 345
1 346
1 347
1 348
1 349
1 350
1 351
1 352
1 353
1 354
1 355
1 356
1 357
1 358
1 359
1 360
1 361
1 362
1 363
1 364
1 365
1 366
1 367
1 368
1 369
1 370
1 371
1 372
1 373
1 374
1 375
1 376
1 377
1 378
1 379
1 380
1 381
1 382
1 383
1 384
1 385
1 386
1 387
1 388
1 389
1 390
1 391
1 392
1 393
1 394
1 395
1 396
1 397
1 398
1 399
1 400
1 401
1 402
1 403
1 404
1 405
1 406
1 407
1 408
1 409
1 410
1 411
1 412
1 413
1 414
1 415
1 416
1 417
1 418
1 419
1 420
1 421
1 422
1 423
1 424
1 425
1 426
1 427
1 428
1 429
1 430
1 431
1 432
1 433
1 434
1 435
1 436
1 437
1 438
1 439
1 440
1 441
1 442
1 443
1 444
1 445
1 446
1 447
1 448
1 449
1 450
1 451
1 452
1 453
1 454
1 455
1 456
1 457
1 458
1 459
1 460
1 461
1 462
1 463
1 464
1 465
1 466
1 467
1 468
1 469
1 470
1 471
1 472
1 473
1 474
1 475
1 476
1 477
1 478
1 479
1 480
1 481
1 482
1 483
1 484
1 485
1 486
1 487
1 488
1 489
1 490
1 491
1 492
1 493
1 494
1 495
1 496
1 497
1 498
1 499
1 500
1 501
1 502
1 503
1 504
1 505
1 506
1 507
1 508
1 509
1 510
1 511
1 512
1 513
1 514
1 515
1 516
1 517
1 518
1 519
1 520
1 521
1 522
1 523
1 524
1 525
1 526
1 527
1 528
1 529
1 530
1 531
1 532
1 533
1 534
1 535
1 536
1 537
1 538
1 539
1 540
1 541
1 542
1 543
1 544
1 545
1 546
1 547
1 548
1 549
1 550
1 551
1 552
1 553
1 554
1 555
1 556
1 557
1 558
1 559
1 560
1 561
1 562
1 563
1 564
1 565
1 566
1 567
1 568
1 569
1 570
1 571
1 572
1 573
1 574
1 575
1 576
1 577
1 578
1 579
1 580
1 581
1 582
1 583
1 584
1 585
1 586
1 587
1 588
1 589
1 590
1 591
1 592
1 593
1 594
1 595
1 596
1 597
1 598
1 599
1 600
1 601
1 602
1 603
1 604
1 605
1 606
1 607
1 608
1 609
1 610
1 611
1 612
1 613
1 614
1 615
1 616
1 617
1 618
1 619
1 620
1 621
1 622
1 623
1 624
1 625
1 626
1 627
1 628
1 629
1 630
1 631
1 632
1 633
1 634
1 635
1 636
1 637
1 638
1 639
1 640
1 641
1 642
1 643
1 644
1 645
1 646
1 647
1 648
1 649
1 650
1 651
1 652
1 653
1 654
1 655
1 656
1 657
1 658
1 659
1 660
1 661
1 662
1 663
1 664
1 665
1 666
1 667
1 668
1 669
1 670
1 671
1 672
1 673
1 674
1 675
1 676
1 677
1 678
1 679
1 680
1 681
1 682
1 683
1 684
1 685
1 686
1 687
1 688
1 689
1 690
1 691
1 692
1 693
1 694
1 695
1 696
1 697
1 698
1 699
1 700
1 701
1 702
1 703
1 704
1 705
1 706
1 707
1 708
1 709
1 710
1 711
1 712
1 713
1 714
1 715
1 716
1 717
1 718
1 719
1 720
1 721
1 722
1 723
1 724
1 725
1 726
1 727
1 728
1 729
1 730
1 731
1 732
1 733
1 734
1 735
1 736
1 737
1 738
1 739
1 740
1 741
1 742
1 743
1 744
1 745
1 746
1 747
1 748
1 749
1 750
1 751
1 752
1 753
1 754
1 755
1 756
1 757
1 758
1 759
1 760
1 761
1 762
1 763
1 764
1 765
1 766
1 767
1 768
1 769
1 770
1 771
1 772
1 773
1 774
1 775
1 776
1 777
1 778
1 779
1 780
1 781
1 782
1 783
1 784
1 785
1 786
1 787
1 788
1 789
1 790
1 791
1 792
1 793
1 794
1 795
1 796
1 797
1 798
1 799
1 800
1 801
1 802
1 803
1 804
1 805
1 806
1 807
1 808
1 809
1 810
1 811
1 812
1 813
1 814
1 815
1 816
1 817
1 818
1 819
1 820
1 821
1 822
1 823
1 824
1 825
1 826
1 827
1 828
1 829
1 830
1 831
1 832
1 833
1 834
1 835
1 836
1 837
1 838
1 839
1 840
1 841
1 842
1 843
1 844
1 845
1 846
1 847
1 848
1 849
1 850
1 851
1 852
1 853
1 854
1 855
1 856
1 857
1 858
1 859
1 860
1 861
1 862
1 863
1 864
1 865
1 866
1 867
1 868
1 869
1 870
1 871
1 872
1 873
1 874
1 875
1 876
1 877
1 878
1 879
1 880
1 881
1 882
1 883
1 884
1 885
1 886
1 887
1 888
1 889
1 890
1 891
1 892
1 893
1 894
1 895
1 896
1 897
1 898
1 899
1 900
1 901
1 902
1 903
1 904
1 905
1 906
1 907
1 908
1 909
1 910
1 911
1 912
1 913
1 914
1 915
1 916
1 917
1 918
1 919
1 920
1 921
1 922
1 923
1 924
1 925
1 926
1 927
1 928
1 929
1 930
1 931
1 932
1 933
1 934
1 935
1 936
1 937
1 938
1 939
1 940
1 941
1 942
1 943
1 944
1 945
1 946
1 947
1 948
1 949
1 950
1 951
1 952
1 953
1 954
1 955
1 956
1 957
1 958
1 959
1 960
1 961
1 962
1 963
1 964
1 965
1 966
1 967
1 968
1 969
1 970
1 971
1 972
1 973
1 974
1 975
1 976
1 977
1 978
1 979
1 980
1 981
1 982
1 983
1 984
1 985
1 986
1 987
1 988
1 989
1 990
1 991
1 992
1 993
1 994
1 995
1 996
1 997
1 998
1 999
1 1000
1 1001
1 1002
1 1003
1 1004
1 1005
1 1006
1 1007
1 1008
1 1009
1 1010
1 1011
1 1012
1 1013
1 1014
1 1015
1 1016
1 1017
1 1018
1 1019
1 1020
1 1021
1 1022
1 1023
1 1024
1 1025
1 1026
1 1027
1 1028
1 1029
1 1030
1 1031
1 1032
1 1033
1 1034
1 1035
1 1036
1 1037
1 1038
1 1039
1 1040
1 1041
1 1042
1 1043
1 1044
1 1045
1 1046
1 1047
1 1048
1 1049
1 1050
1 1051
1 1052
1 1053
1 1054
1 1055
1 1056
1 1057
1 1058
1 1059
1 1060
1 1061
1 1062
1 1063
1 1064
1 1065
1 1066
1 1067
1 1068
1 1069
1 1070
1 1071
1 1072
1 1073
1 1074
1 1075
1 1076
1 1077
1 1078
1 1079
1 1080
1 1081
1 1082
1 1083
1 1084
1 1085
1 1086
1 1087
1 1088
1 1089
1 1090
1 1091
1 1092
1 1093
1 1094
1 1095
1 1096
1 1097
1 1098
1 1099
1 1100
1 1101
1 1102
1 1103
1 1104
1 1105
1 1106
1 1107
1 1108
1 1109
1 1110
1 1111
1 1112
1 1113
1 1114
1 1115
1 1116
1 1117
1 1118
1 1119
1 1120
1 1121
1 1122
1 1123
1 1124
1 1125
1 1126
1 1127
1 1128
1 1129
1 1130
1 1131
1 1132
1 1133
1 1134
1 1135
1 1136
1 1137
1 1138
1 1139
1 1140
1 1141
1 1142
1 1143
1 1144
1 1145
1 1146
1 1147
1 1148
1 1149
1 1150
1 1151
1 1152
1 1153
1 1154
1 1155
1 1156
1 1157
1 1158
1 1159
1 1160
1 1161
1 1162
1 1163
1 1164
1 1165
1 1166
1 1167
1 1168
1 1169
1 1170
1 1171
1 1172
1 1173
1 1174
1 1175
1 1176
1 1177
1 1178
1 1179
1 1180
1 1181
1 1182
1 1183
1 1184
1 1185
1 1186
1 1187
1 1188
1 1189
1 1190
1 1191
1 1192
1 1193
1 1194
1 1195
1 1196
1 1197
1 1198
1 1199
1 1200
1 1201
1 1202
1 1203
1 1204
1 1205
1 1206
1 1207
1 1208
1 1209
1 1210
1 1211
1 1212
1 1213
1 1214
1 1215
1 1216
1 1217
1 1218
1 1219
1 1220
1 1221
1 1222
1 1223
1 1224
1 1225
1 1226
1 1227
1 1228
1 1229
1 1230
1 1231
1 1232
1 1233
1 1234
1 1235
1 1236
1 1237
1 1238
1 1239
1 1240
1 1241
1 1242
1 1243
1 1244
1 1245
1 1246
1 1247
1 1248
1 1249
1 1250
1 1251
1 1252
1 1253
1 1254
1 1255
1 1256
1 1257
1 1258
1 1259
1 1260
1 1261
1 1262
1 1263
1 1264
1 1265
1 1266
1 1267
1 1268
1 1269
1 1270
1 1271
1 1272
1 1273
1 1274
1 1275
1 1276
1 1277
1 1278
1 1279
1 1280
1 1281
1 1282
1 1283
1 1284
1 1285
1 1286
1 1287
1 1288
1 1289
1 1290
1 1291
1 1292
1 1293
1 1294
1 1295
1 1296
1 1297
1 1298
1 1299
1 1300
1 1301
1 1302
1 1303
1 1304
1 1305
1 1306
1 1307
1 1308
1 1309
1 1310
1 1311
1 1312
1 1313
1 1314
1 1315
1 1316
1 1317
1 1318
1 1319
1 1320
1 1321
1 1322
1 1323
1 1324
1 1325
1 1326
1 1327
1 1328
1 1329
1 1330
1 1331
1 1332
1 1333
1 1334
1 1335
1 1336
1 1337
1 1338
1 1339
1 1340
1 1341
1 1342
1 1343
1 1344
1 1345
1 1346
1 1347
1 1348
1 1349
1 1350
1 1351
1 1352
1 1353
1 1354
1 1355
1 1356
1 1357
1 1358
1 1359
1 1360
1 1361
1 1362
1 1363
1 1364
1 1365
1 1366
1 1367
1 1368
1 1369
1 1370
1 1371
1 1372
1 1373
1 1374
1 1375
1 1376
1 1377
1 1378
1 1379
1 1380
1 1381
1 1382
1 1383
1 1384
1 1385
1 1386
1 1387
1 1388
1 1389
1 1390
1 1391
1 1392
1 1393
1 1394
1 1395
1 1396
1 1397
1 1398
1 1399
1 1400
1 1401
1 1402
1 1403
1 1404
1 1405
1 1406
1 1407
1 1408
1 1409
1 1410
1 1411
1 1412
1 1413
1 1414
1 1415
1 1416
1 1417
1 1418
1 1419
1 1420
1 1421
1 1422
1 1423
1 1424
1 1425
1 1426
1 1427
1 1428
1 1429
1 1430
1 1431
1 1432
1 1433
1 1434
1 1435
1 1436
1 1437
1 1438
1 1439
1 1440
1 1441
1 1442
1 1443
1 1444
1 1445
1 1446
1 1447
1 1448
1 1449
1 1450
1 1451
1 1452
1 1453
1 1454
1 1455
1 1456
1 1457
1 1458
1 1459
1 1460
1 1461
1 1462
1 1463
1 1464
1 1465
1 1466
1 1467
1 1468
1 1469
1 1470
1 1471
1 1472
1 1473
1 1474
1 1475
1 1476
1 1477
1 1478
1 1479
1 1480
1 1481
1 1482
1 1483
1 1484
1 1485
1 1486
1 1487
1 1488
1 1489
1 1490
1 1491
1 1492
1 1493
1 1494
1 1495
1 1496
1 1497
1 1498
1 1499
1 1500
1 1501
1 1502
1 1503
1 1504
1 1505
1 1506
1 1507
1 1508
1 1509
1 1510
1 1511
1 1512
1 1513
1 1514
1 1515
1 1516
1 1517
1 1518
1 1519
1 1520
1 1521
1 1522
1 1523
1 1524
1 1525
1 1526
1 1527
1 1528
1 1529
1 1530
1 1531
1 1532
1 1533
1 1534
1 1535
1 1536
1 1537
1 1538
1 1539
1 1540
1 1541
1 1542
1 1543
1 1544
1 1545
1 1546
1 1547
1 1548
1 1549
1 1550
1 1551
1 1552
1 1553
1 1554
1 1555
1 1556
1 1557
1 1558
1 1559
1 1560
1 1561
1 1562
1 1563
1 1564
1 1565
1 1566
1 1567
1 1568
1 1569
1 1570
1 1571
1 1572
1 1573
1 1574
1 1575
1 1576
1 1577
1 1578
1 1579
1 1580
1 1581
1 1582
1 1583
1 1584
1 1585
1 1586
1 1587
1 1588
1 1589
1 1590
1 1591
1 1592
1 1593
1 1594
1 1595
1 1596
1 1597
1 1598
1 1599
1 1600
1 1601
1 1602
1 1603
1 1604
1 1605
1 1606
1 1607
1 1608
1 1609
1 1610
1 1611
1 1612
1 1613
1 1614
1 1615
1 1616
1 1617
1 1618
1 1619
1 1620
1 1621
1 1622
1 1623
1 1624
1 1625
1 1626
1 1627
1 1628
1 1629
1 1630
1 1631
1 1632
1 1633
1 1634
1 1635
1 1636
1 1637
1 1638
1 1639
1 1640
1 1641
1 1642
1 1643
1 1644
1 1645
1 1646
1 1647
1 1648
1 1649
1 1650
1 1651
1 1652
1 1653
1 1654
1 1655
1 1656
1 1657
1 1658
1 1659
1 1660
1 1661
1 1662
1 1663
1 1664
1 1665
1 1666
1 1667
1 1668
1 1669
1 1670
1 1671
1 1672
1 1673
1 1674
1 1675
1 1676
1 1677
1 1678
1 1679
1 1680
1 1681
1 1682
1 1683
1 1684
1 1685
1 1686
1 1687
1 1688
1 1689
1 1690
1 1691
1 1692
1 1693
1 1694
1 1695
1 1696
1 1697
1 1698
1 1699
1 1700
1 1701
1 1702
1 1703
1 1704
1 1705
1 1706
1 1707
1 1708
1 1709
1 1710
1 1711
1 1712
1 1713
1 1714
1 1715
1 1716
1 1717
1 1718
1 1719
1 1720
1 1721
1 1722
1 1723
1 1724
1 1725
1 1726
1 1727
1 1728
1 1729
1 1730
1 1731
1 1732
1 1733
1 1734
1 1735
1 1736
1 1737
1 1738
1 1739
1 1740
1 1741
1 1742
1 1743
1 1744
1 1745
1 1746
1 1747
1 1748
1 1749
1 1750
1 1751
1 1752
1 1753
1 1754
1 1755
1 1756
1 1757
1 1758
1 1759
1 1760
1 1761
1 1762
1 1763
1 1764
1 1765
1 1766
1 1767
1 1768
1 1769
1 1770
1 1771
1 1772
1 1773
1 1774
1 1775
1 1776
1 1777
1 1778
1 1779
1 1780
1 1781
1 1782
1 1783
1 1784
1 1785
1 1786
1 1787
1 1788
1 1789
1 1790
1 1791
1 1792
1 1793
1 1794
1 1795
1 1796
1 1797
1 1798
1 1799
1 1800
1 1801
1 1802
1 1803
1 1804
1 1805
1 1806
1 1807
1 1808
1 1809
1 1810
1 1811
1 1812
1 1813
1 1814
1 1815
1 1816
1 1817
1 1818
1 1819
1 1820
1 1821
1 1822
1 1823
1 1824
1 1825
1 1826
1 1827
1 1828
1 1829
1 1830
1 1831
1 1832
1 1833
1 1834
1 1835
1 1836
1 1837
1 1838
1 1839
1 1840
1 1841
1 1842
1 1843
1 1844
1 1845
1 1846
1 1847
1 1848
1 1849
1 1850
1 1851
1 1852
1 1853
1 1854
1 1855
1 1856
1 1857
1 1858
1 1859
1 1860
1 1861
1 1862
1 1863
1 1864
1 1865
1 1866
1 1867
1 1868
1 1869
1 1870
1 1871
1 1872
1 1873
1 1874
1 1875
1 1876
1 1877
1 1878
1 1879
1 1880
1 1881
1 1882
1 1883
1 1884
1 1885
1 1886
1 1887
1 1888
1 1889
1 1890
1 1891
1 1892
1 1893
1 1894
1 1895
1 1896
1 1897
1 1898
1 1899
1 1900
1 1901
1 1902
1 1903
1 1904
1 1905
1 1906
1 1907
1 1908
1 1909
1 1910
1 1911
1 1912
1 1913
1 1914
1 1915
1 1916
1 1917
1 1918
1 1919
1 1920
1 1921
1 1922
1 1923
1 1924
1 1925
1 1926
1 1927
1 1928
1 1929
1 1930
1 1931
1 1932
1 1933
1 1934
1 1935
1 1936
1 1937
1 1938
1 1939
1 1940
1 1941
1 1942
1 1943
1 1944
1 1945
1 1946
1 1947
1 1948
1 1949
1 1950
1 1951
1 1952
1 1953
1 1954
1 1955
1 1956
1 1957
1 1958
1 1959
1 1960
1 1961
1 1962
1 1963
1 1964
1 1965
1 1966
1 1967
1 1968
1 1969
1 1970
1 1971
1 1972
1 1973
1 1974
1 1975
1 1976
1 1977
1 1978
1 1979
1 1980
1 1981
1 1982
1 1983
1 1984
1 1985
1 1986
1 1987
1 1988
1 1989
1 1990
1 1991
1 1992
1 1993
1 1994
1 1995
1 1996
1 1997
1 1998
1 1999
1 2000
1 2001
1 2002
1 2003
1 2004
1 2005
1 2006
1 2007
1 2008
1 2009
1 2010
1 2011
1 2012
1 2013
1 2014
1 2015
1 2016
1 2017
1 2018
1 2019
1 2020
1 2021
1 2022
1 2023
1 2024
1 2025
1 2026
1 2027
1 2028
1 2029
1 2030
1 2031
1 2032
1 2033
1 2034
1 2035
1 2036
1 2037
1 2038
1 2039
1 2040
1 2041
1 2042
1 2043
1 2044
1 2045
1 2046
1 2047
1 2048
1 2049
1 2050
1 2051
1 2052
1 2053
1 2054
1 2055
1 2056
1 2057
1 2058
1 2059
1 2060
1 2061
1 2062
1 2063
1 2064
1 2065
1 2066
1 2067
1 2068
1 2069
1 2070
1 2071
1 2072
1 2073
1 2074
1 2075
1 2076
1 2077
1 2078
1 2079
1 2080
1 2081
1 2082
1 2083
1 2084
1 2085
1 2086
1 2087
1 2088
1 2089
1 2090
1 2091
1 2092
1 2093
1 2094
1 2095
1 2096
1 2097
1 2098
1 2099
1 2100
1 2101
1 2102
1 2103
1 2104
1 2105
1 2106
1 2107
1 2108
1 2109
1 2110
1 2111
1 2112
1 2113
1 2114
1 2115
1 2116
1 2117
1 2118
1 2119
1 2120
1 2121
1 2122
1 2123
1 2124
1 2125
1 2126
1 2127
1 2128
1 2129
1 2130
1 2131
1 2132
1 2133
1 2134
1 2135
1 2136
1 2137
1 2138
1 2139
1 2140
1 2141
1 2142
1 2143
1 2144
1 2145
1 2146
1 2147
1 2148
1 2149
1 2150
1 2151
1 2152
1 2153
1 2154
1 2155
1 2156
1 2157
1 2158
1 2159
1 2160
1 2161
1 2162
1 2163
1 2164
1 2165
1 2166
1 2167
1 2168
1 2169
1 2170
1 2171
1 2172
1 2173
1 2174
1 2175
1 2176
1 2177
1 2178
1 2179
1 2180
1 2181
1 2182
1 2183
1 2184
1 2185
1 2186
1 2187
1 2188
1 2189
1 2190
1 2191
1 2192
1 2193
1 2194
1 2195
1 2196
1 2197
1 2198
1 2199
1 2200
1 2201
1 2202
1 2203
1 2204
1 2205
1 2206
1 2207
1 2208
1 2209
1 2210
1 2211
1 2212
1 2213
1 2214
1 2215
1 2216
1 2217
1 2218
1 2219
1 2220
1 2221
1 2222
1 2223
1 2224
1 2225
1 2226
1 2227
1 2228
1 2229
1 2230
1 2231
1 2232
1 2233
1 2234
1 2235
1 2236
1 2237
1 2238
1 2239
1 2240
1 2241
1 2242
1 2243
1 2244
1 2245
1 2246
1 2247
1 2248
1 2249
1 2250
1 2251
1 2252
1 2253
1 2254
1 2255
1 2256
1 2257
1 2258
1 2259
1 2260
1 2261
1 2262
1 2263
1 2264
1 2265
1 2266
1 2267
1 2268
1 2269
1 2270
1 2271
1 2272
1 2273
1 2274
1 2275
1 2276
1 2277
1 2278
1 2279
1 2280
1 2281
1 2282
1 2283
1 2284
1 2285
1 2286
1 2287
1 2288
1 2289
1 2290
1 2291
1 2292
1 2293
1 2294
1 2295
1 2296
1 2297
1 2298
1 2299
1 2300
1 2301
1 2302
1 2303
1 2304
1 2305
1 2306
1 2307
1 2308
1 2309
1 2310
1 2311
1 2312
1 2313
1 2314
1 2315
1 2316
1 2317
1 2318
1 2319
1 2320
1 2321
1 2322
1 2323
1 2324
1 2325
1 2326
1 2327
1 2328
1 2329
1 2330
1 2331
1 2332
1 2333
1 2334
1 2335
1 2336
1 2337
1 2338
1 2339
1 2340
1 2341
1 2342
1 2343
1 2344
1 2345
1 2346
1 2347
1 2348
1 2349
1 2350
1 2351
1 2352
1 2353
1 2354
1 2355
1 2356
1 2357
1 2358
1 2359
1 2360
1 2361
1 2362
1 2363
1 2364
1 2365
1 2366
1 2367
1 2368
1 2369
1 2370
1 2371
1 2372
1 2373
1 2374
1 2375
1 2376
1 2377
1 2378
1 2379
1 2380
1 2381
1 2382
1 2383
1 2384
1 2385
1 2386
1 2387
1 2388
1 2389
1 2390
1 2391
1 2392
1 2393
1 2394
1 2395
1 2396
1 2397
1 2398
1 2399
1 2400
1 2401
1 2402
1 2403
1 2404
1 2405
1 2406
1 2407
1 2408
1 2409
1 2410
1 2411
1 2412
1 2413
1 2414
1 2415
1 2416
1 2417
1 2418
1 2419
1 2420
1 2421
1 2422
1 2423
1 2424
1 2425
1 2426
1 2427
1 2428
1 2429
1 2430
1 2431
1 2432
1 2433
1 2434
1 2435
1 2436
1 2437
1 2438
1 2439
1 2440
1 2441
1 2442
1 2443
1 2444
1 2445
1 2446
1 2447
1 2448
1 2449
1 2450
1 2451
1 2452
1 2453
1 2454
1 2455
1 2456
1 2457
1 2458
1 2459
1 2460
1 2461
1 2462
1 2463
1 2464
1 2465
1 2466
1 2467
1 2468
1 2469
1 2470
1 2471
1 2472
1 2473
1 2474
1 2475
1 2476
1 2477
1 2478
1 2479
1 2480
1 2481
1 2482
1 2483
1 2484
1 2485
1 2486
1 2487
1 2488
1 2489
1 2490
1 2491
1 2492
1 2493
1 2494
1 2495
1 2496
1 2497
1 2498
1 2499
1 2500
1 2501
1 2502
1 2503
1 2504
1 2505
1 2506
1 2507
1 2508
1 2509
1 2510
1 2511
1 2512
1 2513
1 2514
1 2515
1 2516
1 2517
1 2518
1 2519
1 2520
1 2521
1 2522
1 2523
1 2524
1 2525
1 2526
1 2527
1 2528
1 2529
1 2530
1 2531
1 2532
1 2533
1 2534
1 2535
1 2536
1 2537
1 2538
1 2539
1 2540
1 2541
1 2542
1 2543
1 2544
1 2545
1 2546
1 2547
1 2548
1 2549
1 2550
1 2551
1 2552
1 2553
1 2554
1 2555
1 2556
1 2557
1 2558
1 2559
1 2560
1 2561
1 2562
1 2563
1 2564
1 2565
1 2566
1 2567
1 2568
1 2569
1 2570
1 2571
1 2572
1 2573
1 2574
1 2575
1 2576
1 2577
1 2578
1 2579
1 2580
1 2581
1 2582
1 2583
1 2584
1 2585
1 2586
1 2587
1 2588
1 2589
1 2590
1 2591
1 2592
1 2593
1 2594
1 2595
1 2596
1 2597
1 2598
1 2599
1 2600
1 2601
1 2602
1 2603
1 2604
1 2605
1 2606
1 2607
1 2608
1 2609
1 2610
1 2611
1 2612
1 2613
1 2614
1 2615
1 2616
1 2617
1 2618
1 2619
1 2620
1 2621
1 2622
1 2623
1 2624
1 2625
1 2626
1 2627
1 2628
1 2629
1 2630
1 2631
1 2632
1 2633
1 2634
1 2635
1 2636
1 2637
1 2638
1 2639
1 2640
1 2641
1 2642
1 2643
1 2644
1 2645
1 2646
1 2647
1 2648
1 2649
1 2650
1 2651
1 2652
1 2653
1 2654
1 2655
1 2656
1 2657
1 2658
1 2659
1 2660
1 2661
1 2662
1 2663
1 2664
1 2665
1 2666
1 2667
1 2668
1 2669
1 2670
1 2671
1 2672
1 2673
1 2674
1 2675
1 2676
1 2677
1 2678
1 2679
1 2680
1 2681
1 2682
1 2683
1 2684
1 2685
1 2686
1 2687
1 2688
1 2689
1 2690
1 2691
1 2692
1 2693
1 2694
1 2695
1 2696
1 2697
1 2698
1 2699
1 2700
1 2701
1 2702
1 2703
1 2704
1 2705
1 2706
1 2707
1 2708
1 2709
1 2710
1 2711
1 2712
1 2713
1 2714
1 2715
1 2716
1 2717
1 2718
1 2719
1 2720
1 2721
1 2722
1 2723
1 2724
1 2725
1 2726
1 2727
1 2728
1 2729
1 2730
1 2731
1 2732
1 2733
1 2734
1 2735
1 2736
1 2737
1 2738
1 2739
1 2740
1 2741
1 2742
1 2743
1 2744
1 2745
1 2746
1 2747
1 2748
1 2749
1 2750
1 2751
1 2752
1 2753
1 2754
1 2755
1 2756
1 2757
1 2758
1 2759
1 2760
1 2761
1 2762
1 2763
1 2764
1 2765
1 2766
1 2767
1 2768
1 2769
1 2770
1 2771
1 2772
1 2773
1 2774
1 2775
1 2776
1 2777
1 2778
1 2779
1 2780
1 2781
1 2782
1 2783
1 2784
1 2785
1 2786
1 2787
1 2788
1 2789
1 2790
1 2791
1 2792
1 2793
1 2794
1 2795
1 2796
1 2797
1 2798
1 2799
1 2800
1 2801
1 2802
1 2803
1 2804
1 2805
1 2806
1 2807
1 2808
1 2809
1 2810
1 2811
1 2812
1 2813
1 2814
1 2815
1 2816
1 2817
1 2818
1 2819
1 2820
1 2821
1 2822
1 2823
1 2824
1 2825
1 2826
1 2827
1 2828
1 2829
1 2830
1 2831
1 2832
1 2833
1 2834
1 2835
1 2836
1 2837
1 2838
1 2839
1 2840
1 2841
1 2842
1 2843
1 2844
1 2845
1 2846
1 2847
1 2848
1 2849
1 2850
1 2851
1 2852
1 2853
1 2854
1 2855
1 2856
1 2857
1 2858
1 2859
1 2860
1 2861
1 2862
1 2863
1 2864
1 2865
1 2866
1 2867
1 2868
1 2869
1 2870
1 2871
1 2872
1 2873
1 2874
1 2875
1 2876
1 2877
1 2878
1 2879
1 2880
1 2881
1 2882
1 2883
1 2884
1 2885
1 2886
1 2887
1 2888
1 2889
1 2890
1 2891
1 2892
1 2893
1 2894
1 2895
1 2896
1 2897
1 2898
1 2899
1 2900
1 2901
1 2902
1 2903
1 2904
1 2905
1 2906
1 2907
1 2908
1 2909
1 2910
1 2911
1 2912
1 2913
1 2914
1 2915
1 2916
1 2917
1 2918
1 2919
1 2920
1 2921
1 2922
1 2923
1 2924
1 2925
1 2926
1 2927
1 2928
1 2929
1 2930
1 2931
1 2932
1 2933
1 2934
1 2935
1 2936
1 2937
1 2938
1 2939
1 2940
1 2941
1 2942
1 2943
1 2944
1 2945
1 2946
1 2947
1 2948
1 2949
1 2950
1 2951
1 2952
1 2953
1 2954
1 2955
1 2956
1 2957
1 2958
1 2959
1 2960
1 2961
1 2962
1 2963
1 2964
1 2965
1 2966
1 2967
1 2968
1 2969
1 2970
1 2971
1 2972
1 2973
1 2974
1 2975
1 2976
1 2977
1 2978
1 2979
1 2980
1 2981
1 2982
1 2983
1 2984
1 2985
1 2986
1 2987
1 2988
1 2989
1 2990
1 2991
1 2992
1 2993
1 2994
1 2995
1 2996
1 2997
1 2998
1 2999
1 3000
1 3001
1 3002
1 3003
1 3004
1 3005
1 3006
1 3007
1 3008
1 3009
1 3010
1 3011
1 3012
1 3013
1 3014
1 3015
1 3016
1 3017
1 3018
1 3019
1 3020
1 3021
1 3022
1 3023
1 3024
1 3025
1 3026
1 3027
1 3028
1 3029
1 3030
1 3031
1 3032
1 3033
1 3034
1 3035
1 3036
1 3037
1 3038
1 3039
1 3040
1 3041
1 3042
1 3043
1 3044
1 3045
1 3046
1 3047
1 3048
1 3049
1 3050
1 3051
1 3052
1 3053
1 3054
1 3055
1 3056
1 3057
1 3058
1 3059
1 3060
1 3061
1 3062
1 3063
1 3064
1 3065
1 3066
1 3067
1 3068
1 3069
1 3070
1 3071
1 3072
1 3073
1 3074
1 3075
1 3076
1 3077
1 3078
1 3079
1 3080
1 3081
1 3082
1 3083
1 3084
1 3085
1 3086
1 3087
1 3088
1 3089
1 3090
1 3091
1 3092
1 3093
1 3094
1 3095
1 3096
1 3097
1 3098
1 3099
1 3100
1 3101
1 3102
1 3103
1 3104
1 3105
1 3106
1 3107
1 3108
1 3109
1 3110
1 3111
1 3112
1 3113
1 3114
1 3115
1 3116
1 3117
1 3118
1 3119
1 3120
1 3121
1 3122
1 3123
1 3124
1 3125
1 3126
1 3127
1 3128
1 3129
1 3130
1 3131
1 3132
1 3133
1 3134
1 3135
1 3136
1 3137
1 3138
1 3139
1 3140
1 3141
1 3142
1 3143
1 3144
1 3145
1 3146
1 3147
1 3148
1 3149
1 3150
1 3151
1 3152
1 3153
1 3154
1 3155
1 3156
1 3157
1 3158
1 3159
1 3160
1 3161
1 3162
1 3163
1 3164
1 3165
1 3166
1 3167
1 3168
1 3169
1 3170
1 3171
1 3172
1 3173
1 3174
1 3175
1 3176
1 3177
1 3178
1 3179
1 3180
1 3181
1 3182
1 3183
1 3184
1 3185
1 3186
1 3187
1 3188
1 3189
1 3190
1 3191
1 3192
1 3193
1 3194
1 3195
1 3196
1 3197
1 3198
1 3199
1 3200
1 3201
1 3202
1 3203
1 3204
1 3205
1 3206
1 3207
1 3208
1 3209
1 3210
1 3211
1 3212
1 3213
1 3214
1 3215
1 3216
1 3217
1 3218
1 3219
1 3220
1 3221
1 3222
1 3223
1 3224
1 3225
1 3226
1 3227
1 3228
1 3229
1 3230
1 3231
1 3232
1 3233
1 3234
1 3235
1 3236
1 3237
1 3238
1 3239
1 3240
1 3241
1 3242
1 3243
1 3244
1 3245
1 3246
1 3247
1 3248
1 3249
1 3250
1 3251
1 3252
1 3253
1 3254
1 3255
1 3256
1 3257
1 3258
1 3259
1 3260
1 3261
1 3262
1 3263
1 3264
1 3265
1 3266
1 3267
1 3268
1 3269
1 3270
1 3271
1 3272
1 3273
1 3274
1 3275
1 3276
1 3277
1 3278
1 3279
1 3280
1 3281
1 3282
1 3283
1 3284
1 3285
1 3286
1 3287
1 3288
1 3289
1 3290
1 3291
1 3292
1 3293
1 3294
1 3295
1 3296
1 3297
1 3298
1 3299
1 3300
1 3301
1 3302
1 3303
1 3304
1 3305
1 3306
1 3307
1 3308
1 3309
1 3310
1 3311
1 3312
1 3313
1 3314
1 3315
1 3316
1 3317
1 3318
1 3319
1 3320
1 3321
1 3322
1 3323
1 3324
1 3325
1 3326
1 3327
1 3328
1 3329
1 3330
1 3331
1 3332
1 3333
1 3334
1 3335
1 3336
1 3337
1 3338
1 3339
1 3340
1 3341
1 3342
1 3343
1 3344
1 3345
1 3346
1 3347
1 3348
1 3349
1 3350
1 3351
1 3352
1 3353
1 3354
1 3355
1 3356
1 3357
1 3358
1 3359
1 3360
1 3361
1 3362
1 3363
1 3364
1 3365
1 3366
1 3367
1 3368
1 3369
1 3370
1 3371
1 3372
1 3373
1 3374
1 3375
1 3376
1 3377
1 3378
1 3379
1 3380
1 3381
1 3382
1 3383
1 3384
1 3385
1 3386
1 3387
1 3388
1 3389
1 3390
1 3391
1 3392
1 3393
1 3394
1 3395
1 3396
1 3397
1 3398
1 3399
1 3400
1 3401
1 3402
1 3403
1 3404
1 3405
1 3406
1 3407
1 3408
1 3409
1 3410
1 3411
1 3412
1 3413
1 3414
1 3415
1 3416
1 3417
1 3418
1 3419
1 3420
1 3421
1 3422
1 3423
1 3424
1 3425
1 3426
1 3427
1 3428
1 3429
1 3430
1 3431
1 3432
1 3433
1 3434
1 3435
1 3436
1 3437
1 3438
1 3439
1 3440
1 3441
1 3442
1 3443
1 3444
1 3445
1 3446
1 3447
1 3448
1 3449
1 3450
1 3451
1 3452
1 3453
1 3454
1 3455
1 3456
1 3457
1 3458
1 3459
1 3460
1 3461
1 3462
1 3463
1 3464
1 3465
1 3466
1 3467
1 3468
1 3469
1 3470
1 3471
1 3472
1 3473
1 3474
1 3475
1 3476
1 3477
1 3478
1 3479
1 3480
1 3481
1 3482
1 3483
1 3484
1 3485
1 3486
1 3487
1 3488
1 3489
1 3490
1 3491
1 3492
1 3493
1 3494
1 3495
1 3496
1 3497
1 3498
1 3499
1 3500
1 3501
1 3502
1 3503
1 3504
1 3505
1 3506
1 3507
1 3508
1 3509
1 3510
1 3511
1 3512
1 3513
1 3514
1 3515
1 3516
1 3517
1 3518
1 3519
1 3520
1 3521
1 3522
1 3523
1 3524
1 3525
1 3526
1 3527
1 3528
1 3529
1 3530
1 3531
1 3532
1 3533
1 3534
1 3535
1 3536
1 3537
1 3538
1 3539
1 3540
1 3541
1 3542
1 3543
1 3544
1 3545
1 3546
1 3547
1 3548
1 3549
1 3550
1 3551
1 3552
1 3553
1 3554
1 3555
1 3556
1 3557
1 3558
1 3559
1 3560
1 3561
1 3562
1 3563
1 3564
1 3565
1 3566
1 3567
1 3568
1 3569
1 3570
1 3571
1 3572
1 3573
1 3574
1 3575
1 3576
1 3577
1 3578
1 3579
1 3580
1 3581
1 3582
1 3583
1 3584
1 3585
1 3586
1 3587
1 3588
1 3589
1 3590
1 3591
1 3592
1 3593
1 3594
1 3595
1 3596
1 3597
1 3598
1 3599
1 3600
1 3601
1 3602
1 3603
1 3604
1 3605
1 3606
1 3607
1 3608
1 3609
1 3610
1 3611
1 3612
1 3613
1 3614
1 3615
1 3616
1 3617
1 3618
1 3619
1 3620
1 3621
1 3622
1 3623
1 3624
1 3625
1 3626
1 3627
1 3628
1 3629
1 3630
1 3631
1 3632
1 3633
1 3634
1 3635
1 3636
1 3637
1 3638
1 3639
1 3640
1 3641
1 3642
1 3643
1 3644
1 3645
1 3646
1 3647
1 3648
1 3649
1 3650
1 3651
1 3652
1 3653
1 3654
1 3655
1 3656
1 3657
1 3658
1 3659
1 3660
1 3661
1 3662
1 3663
1 3664
1 3665
1 3666
1 3667
1 3668
1 3669
1 3670
1 3671
1 3672
1 3673
1 3674
1 3675
1 3676
1 3677
1 3678
1 3679
1 3680
1 3681
1 3682
1 3683
1 3684
1 3685
1 3686
1 3687
1 3688
1 3689
1 3690
1 3691
1 3692
1 3693
1 3694
1 3695
1 3696
1 3697
1 3698
1 3699
1 3700
1 3701
1 3702
1 3703
1 3704
1 3705
1 3706
1 3707
1 3708
1 3709
1 3710
1 3711
1 3712
1 3713
1 3714
1 3715
1 3716
1 3717
1 3718
1 3719
1 3720
1 3721
1 3722
1 3723
1 3724
1 3725
1 3726
1 3727
1 3728
1 3729
1 3730
1 3731
1 3732
1 3733
1 3734
1 3735
1 3736
1 3737
1 3738
1 3739
1 3740
1 3741
1 3742
1 3743
1 3744
1 3745
1 3746
1 3747
1 3748
1 3749
1 3750
1 3751
1 3752
1 3753
1 3754
1 3755
1 3756
1 3757
1 3758
1 3759
1 3760
1 3761
1 3762
1 3763
1 3764
1 3765
1 3766
1 3767
1 3768
1 3769
1 3770
1 3771
1 3772
1 3773
1 3774
1 3775
1 3776
1 3777
1 3778
1 3779
1 3780
1 3781
1 3782
1 3783
1 3784
1 3785
1 3786
1 3787
1 3788
1 3789
1 3790
1 3791
1 3792
1 3793
1 3794
1 3795
1 3796
1 3797
1 3798
1 3799
1 3800
1 3801
1 3802
1 3803
1 3804
1 3805
1 3806
1 3807
1 3808
1 3809
1 3810
1 3811
1 3812
1 3813
1 3814
1 3815
1 3816
1 3817
1 3818
1 3819
1 3820
1 3821
1 3822
1 3823
1 3824
1 3825
1 3826
1 3827
1 3828
1 3829
1 3830
1 3831
1 3832
1 3833
1 3834
1 3835
1 3836
1 3837
1 3838
1 3839
1 3840
1 3841
1 3842
1 3843
1 3844
1 3845
1 3846
1 3847
1 3848
1 3849
1 3850
1 3851
1 3852
1 3853
1 3854
1 3855
1 3856
1 3857
1 3858
1 3859
1 3860
1 3861
1 3862
1 3863
1 3864
1 3865
1 3866
1 3867
1 3868
1 3869
1 3870
1 3871
1 3872
1 3873
1 3874
1 3875
1 3876
1 3877
1 3878
1 3879
1 3880
1 3881
1 3882
1 3883
1 3884
1 3885
1 3886
1 3887
1 3888
1 3889
1 3890
1 3891
1 3892
1 3893
1 3894
1 3895
1 3896
1 3897
1 3898
1 3899
1 3900
1 3901
1 3902
1 3903
1 3904
1 3905
1 3906
1 3907
1 3908
1 3909
1 3910
1 3911
1 3912
1 3913
1 3914
1 3915
1 3916
1 3917
1 3918
1 3919
1 3920
1 3921
1 3922
1 3923
1 3924
1 3925
1 3926
1 3927
1 3928
1 3929
1 3930
1 3931
1 3932
1 3933
1 3934
1 3935
1 3936
1 3937
1 3938
1 3939
1 3940
1 3941
1 3942
1 3943
1 3944
1 3945
1 3946
1 3947
1 3948
1 3949
1 3950
1 3951
1 3952
1 3953
1 3954
1 3955
1 3956
1 3957
1 3958
1 3959
1 3960
1 3961
1 3962
1 3963
1 3964
1 3965
1 3966
1 3967
1 3968
1 3969
1 3970
1 3971
1 3972
1 3973
1 3974
1 3975
1 3976
1 3977
1 3978
1 3979
1 3980
1 3981
1 3982
1 3983
1 3984
1 3985
1 3986
1 3987
1 3988
1 3989
1 3990
1 3991
1 3992
1 3993
1 3994
1 3995
1 3996
1 3997
1 3998
1 3999
1 4000
1 4001
1 4002
1 4003
1 4004
1 4005
1 4006
1 4007
1 4008
1 4009
1 4010
1 4011
1 4012
1 4013
1 4014
1 4015
1 4016
1 4017
1 4018
1 4019
1 4020
1 4021
1 4022
1 4023
1 4024
1 4025
1 4026
1 4027
1 4028
1 4029
1 4030
1 4031
1 4032
1 4033
1 4034
1 4035
1 4036
1 4037
1 4038
1 4039
1 4040
1 4041
1 4042
1 4043
1 4044
1 4045
1 4046
1 4047
1 4048
1 4049
1 4050
1 4051
1 4052
1 4053
1 4054
1 4055
1 4056
1 4057
1 4058
1 4059
1 4060
1 4061
1 4062
1 4063
1 4064
1 4065
1 4066
1 4067
1 4068
1 4069
1 4070
1 4071
1 4072
1 4073
1 4074
1 4075
1 4076
1 4077
1 4078
1 4079
1 4080
1 4081
1 4082
1 4083
1 4084
1 4085
1 4086
1 4087
1 4088
1 4089
1 4090
1 4091
1 4092
1 4093
1 4094
1 4095
1 4096
1 4097
1 4098
1 4099
1 4100
1 4101
1 4102
1 4103
1 4104
1 4105
1 4106
1 4107
1 4108
1 4109
1 4110
1 4111
1 4112
1 4113
1 4114
1 4115
1 4116
1 4117
1 4118
1 4119
1 4120
1 4121
1 4122
1 4123
1 4124
1 4125
1 4126
1 4127
1 4128
1 4129
1 4130
1 4131
1 4132
1 4133
1 4134
1 4135
1 4136
1 4137
1 4138
1 4139
1 4140
1 4141
1 4142
1 4143
1 4144
1 4145
1 4146
1 4147
1 4148
1 4149
1 4150
1 4151
1 4152
1 4153
1 4154
1 4155
1 4156
1 4157
1 4158
1 4159
1 4160
1 4161
1 4162
1 4163
1 4164
1 4165
1 4166
1 4167
1 4168
1 4169
1 4170
1 4171
1 4172
1 4173
1 4174
1 4175
1 4176
1 4177
1 4178
1 4179
1 4180
1 4181
1 4182
1 4183
1 4184
1 4185
1 4186
1 4187
1 4188
1 4189
1 4190
1 4191
1 4192
1 4193
1 4194
1 4195
1 4196
1 4197
1 4198
1 4199
1 4200
1 4201
1 4202
1 4203
1 4204
1 4205
1 4206
1 4207
1 4208
1 4209
1 4210
1 4211
1 4212
1 4213
1 4214
1 4215
1 4216
1 4217
1 4218
1 4219
1 4220
1 4221
1 4222
1 4223
1 4224
1 4225
1 4226
1 4227
1 4228
1 4229
1 4230
1 4231
1 4232
1 4233
1 4234
1 4235
1 4236
1 4237
1 4238
1 4239
1 4240
1 4241
1 4242
1 4243
1 4244
1 4245
1 4246
1 4247
1 4248
1 4249
1 4250
1 4251
1 4252
1 4253
1 4254
1 4255
1 4256
1 4257
1 4258
1 4259
1 4260
1 4261
1 4262
1 4263
1 4264
1 4265
1 4266
1 4267
1 4268
1 4269
1 4270
1 4271
1 4272
1 4273
1 4274
1 4275
1 4276
1 4277
1 4278
1 4279
1 4280
1 4281
1 4282
1 4283
1 4284
1 4285
1 4286
1 4287
1 4288
1 4289
1 4290
1 4291
1 4292
1 4293
1 4294
1 4295
1 4296
1 4297
1 4298
1 4299
1 4300
1 4301
1 4302
1 4303
1 4304
1 4305
1 4306
1 4307
1 4308
1 4309
1 4310
1 4311
1 4312
1 4313
1 4314
1 4315
1 4316
1 4317
1 4318
1 4319
1 4320
1 4321
1 4322
1 4323
1 4324
1 4325
1 4326
1 4327
1 4328
1 4329
1 4330
1 4331
1 4332
1 4333
1 4334
1 4335
1 4336
1 4337
1 4338
1 4339
1 4340
1 4341
1 4342
1 4343
1 4344
1 4345
1 4346
1 4347
1 4348
1 4349
1 4350
1 4351
1 4352
1 4353
1 4354
1 4355
1 4356
1 4357
1 4358
1 4359
1 4360
1 4361
1 4362
1 4363
1 4364
1 4365
1 4366
1 4367
1 4368
1 4369
1 4370
1 4371
1 4372
1 4373
1 4374
1 4375
1 4376
1 4377
1 4378
1 4379
1 4380
1 4381
1 4382
1 4383
1 4384
1 4385
1 4386
1 4387
1 4388
1 4389
1 4390
1 4391
1 4392
1 4393
1 4394
1 4395
1 4396
1 4397
1 4398
1 4399
1 4400
1 4401
1 4402
1 4403
1 4404
1 4405
1 4406
1 4407
1 4408
1 4409
1 4410
1 4411
1 4412
1 4413
1 4414
1 4415
1 4416
1 4417
1 4418
1 4419
1 4420
1 4421
1 4422
1 4423
1 4424
1 4425
1 4426
1 4427
1 4428
1 4429
1 4430
1 4431
1 4432
1 4433
1 4434
1 4435
1 4436
1 4437
1 4438
1 4439
1 4440
1 4441
1 4442
1 4443
1 4444
1 4445
1 4446
1 4447
1 4448
1 4449
1 4450
1 4451
1 4452
1 4453
1 4454
1 4455
1 4456
1 4457
1 4458
1 4459
1 4460
1 4461
1 4462
1 4463
1 4464
1 4465
1 4466
1 4467
1 4468
1 4469
1 4470
1 4471
1 4472
1 4473
1 4474
1 4475
1 4476
1 4477
1 4478
1 4479
1 4480
1 4481
1 4482
1 4483
1 4484
1 4485
1 4486
1 4487
1 4488
1 4489
1 4490
1 4491
1 4492
1 4493
1 4494
1 4495
1 4496
1 4497
1 4498
1 4499
1 4500
1 4501
1 4502
1 4503
1 4504
1 4505
1 4506
1 4507
1 4508
1 4509
1 4510
1 4511
1 4512
1 4513
1 4514
1 4515
1 4516
1 4517
1 4518
1 4519
1 4520
1 4521
1 4522
1 4523
1 4524
1 4525
1 4526
1 4527
1 4528
1 4529
1 4530
1 4531
1 4532
1 4533
1 4534
1 4535
1 4536
1 4537
1 4538
1 4539
1 4540
1 4541
1 4542
1 4543
1 4544
1 4545
1 4546
1 4547
1 4548
1 4549
1 4550
1 4551
1 4552
1 4553
1 4554
1 4555
1 4556
1 4557
1 4558
1 4559
1 4560
1 4561
1 4562
1 4563
1 4564
1 4565
1 4566
1 4567
1 4568
1 4569
1 4570
1 4571
1 4572
1 4573
1 4574
1 4575
1 4576
1 4577
1 4578
1 4579
1 4580
1 4581
1 4582
1 4583
1 4584
1 4585
1 4586
1 4587
1 4588
1 4589
1 4590
1 4591
1 4592
1 4593
1 4594
1 4595
1 4596
1 4597
1 4598
1 4599
1 4600
1 4601
1 4602
1 4603
1 4604
1 4605
1 4606
1 4607
1 4608
1 4609
1 4610
1 4611
1 4612
1 4613
1 4614
1 4615
1 4616
1 4617
1 4618
1 4619
1 4620
1 4621
1 4622
1 4623
1 4624
1 4625
1 4626
1 4627
1 4628
1 4629
1 4630
1 4631
1 4632
1 4633
1 4634
1 4635
1 4636
1 4637
1 4638
1 4639
1 4640
1 4641
1 4642
1 4643
1 4644
1 4645
1 4646
1 4647
1 4648
1 4649
1 4650
1 4651
1 4652
1 4653
1 4654
1 4655
1 4656
1 4657
1 4658
1 4659
1 4660
1 4661
1 4662
1 4663
1 4664
1 4665
1 4666
1 4667
1 4668
1 4669
1 4670
1 4671
1 4672
1 4673
1 4674
1 4675
1 4676
1 4677
1 4678
1 4679
1 4680
1 4681
1 4682
1 4683
1 4684
1 4685
1 4686
1 4687
1 4688
1 4689
1 4690
1 4691
1 4692
1 4693
1 4694
1 4695
1 4696
1 4697
1 4698
1 4699
1 4700
1 4701
1 4702
1 4703
1 4704
1 4705
1 4706
1 4707
1 4708
1 4709
1 4710
1 4711
1 4712
1 4713
1 4714
1 4715
1 4716
1 4717
1 4718
1 4719
1 4720
1 4721
1 4722
1 4723
1 4724
1 4725
1 4726
1 4727
1 4728
1 4729
1 4730
1 4731
1 4732
1 4733
1 4734
1 4735
1 4736
1 4737
1 4738
1 4739
1 4740
1 4741
1 4742
1 4743
1 4744
1 4745
1 4746
1 4747
1 4748
1 4749
1 4750
1 4751
1 4752
1 4753
1 4754
1 4755
1 4756
1 4757
1 4758
1 4759
1 4760
1 4761
1 4762
1 4763
1 4764
1 4765
1 4766
1 4767
1 4768
1 4769
1 4770
1 4771
1 4772
1 4773
1 4774
1 4775
1 4776
1 4777
1 4778
1 4779
1 4780
1 4781
1 4782
1 4783
1 4784
1 4785
1 4786
1 4787
1 4788
1 4789
1 4790
1 4791
1 4792
1 4793
1 4794
1 4795
1 4796
1 4797
1 4798
1 4799
1 4800
1 4801
1 4802
1 4803
1 4804
1 4805
1 4806
1 4807
1 4808
1 4809
1 4810
1 4811
1 4812
1 4813
1 4814
1 4815
1 4816
1 4817
1 4818
1 4819
1 4820
1 4821
1 4822
1 4823
1 4824
1 4825
1 4826
1 4827
1 4828
1 4829
1 4830
1 4831
1 4832
1 4833
1 4834
1 4835
1 4836
1 4837
1 4838
1 4839
1 4840
1 4841
1 4842
1 4843
1 4844
1 4845
1 4846
1 4847
1 4848
1 4849
1 4850
1 4851
1 4852
1 4853
1 4854
1 4855
1 4856
1 4857
1 4858
1 4859
1 4860
1 4861
1 4862
1 4863
1 4864
1 4865
1 4866
1 4867
1 4868
1 4869
1 4870
1 4871
1 4872
1 4873
1 4874
1 4875
1 4876
1 4877
1 4878
1 4879
1 4880
1 4881
1 4882
1 4883
1 4884
1 4885
1 4886
1 4887
1 4888
1 4889
1 4890
1 4891
1 4892
1 4893
1 4894
1 4895
1 4896
1 4897
1 4898
1 4899
1 4900
1 4901
1 4902
1 4903
1 4904
1 4905
1 4906
1 4907
1 4908
1 4909
1 4910
1 4911
1 4912
1 4913
1 4914
1 4915
1 4916
1 4917
1 4918
1 4919
1 4920
1 4921
1 4922
1 4923
1 4924
1 4925
1 4926
1 4927
1 4928
1 4929
1 4930
1 4931
1 4932
1 4933
1 4934
1 4935
1 4936
1 4937
1 4938
1 4939
1 4940
1 4941
1 4942
1 4943
1 4944
1 4945
1 4946
1 4947
1 4948
1 4949
1 4950
1 4951
1 4952
1 4953
1 4954
1 4955
1 4956
1 4957
1 4958
1 4959
1 4960
1 4961
1 4962
1 4963
1 4964
1 4965
1 4966
1 4967
1 4968
1 4969
1 4970
1 4971
1 4972
1 4973
1 4974
1 4975
1 4976
1 4977
1 4978
1 4979
1 4980
1 4981
1 4982
1 4983
1 4984
1 4985
1 4986
1 4987
1 4988
1 4989
1 4990
1 4991
1 4992
1 4993
1 4994
1 4995
1 4996
1 4997
1 4998
1 4999
CELL_TYPES 5000
1 
1 
1 
1 
1 
1 
1 
1 
1 
1 
1 
1 
1 
1 
1 
1 
1 
1 
1 
1 
1 
1 
1 
1 
1 
1 
1 
1 
1 
1 
1 
1 
1 
1 
1 
1 
1 
1 
1 
1 
1 
1 
1 
1 
1 
1 
1 
1 
1 
1 
1 
1 
1 
1 
1 
1 
1 
1 
1 
1 
1 
1 
1 
1 
1 
1 
1 
1 
1 
1 
1 
1 
1 
1 
1 
1 
1 
1 
1 
1 
1 
1 
1 
1 
1 
1 
1 
1 
1 
1 
1 
1 
1 
1 
1 
1 
1 
1 
1 
1 
1 
1 
1 
1 
1 
1 
1 
1 
1 
1 
1 
1 
1 
1 
1 
1 
1 
1 
1 
1 
1 
1 
1 
1 
1 
1 
1 
1 
1 
1 
1 
1 
1 
1 
1 
1 
1 
1 
1 
1 
1 
1 
1 
1 
1 
1 
1 
1 
1 
1 
1 
1 
1 
1 
1 
1 
1 
1 
1 
1 
1 
1 
1 
1 
1 
1 
1 
1 
1 
1 
1 
1 
1 
1 
1 
1 
1 
1 
1 
1 
1 
1 
1 
1 
1 
1 
1 
1 
1 
1 
1 
1 
1 
1 
1 
1 
1 
1 
1 
1 
1 
1 
1 
1 
1 
1 
1 
1 
1 
1 
1 
1 
1 
1 
1 
1 
1 
1 
1 
1 
1 
1 
1 
1 
1 
1 
1 
1 
1 
1 
1 
1 
1 
1 
1 
1 
1 
1 
1 
1 
1 
1 
1 
1 
1 
1 
1 
1 
1 
1 
1 
1 
1 
1 
1 
1 
1 
1 
1 
1 
1 
1 
1 
1 
1 
1 
1 
1 
1 
1 
1 
1 
1 
1 
1 
1 
1 
1 
1 
1 
1 
1 
1 
1 
1 
1 
1 
1 
1 
1 
1 
1 
1 
1 
1 
1 
1 
1 
1 
1 
1 
1 
1 
1 
1 
1 
1 
1 
1 
1 
1 
1 
1 
1 
1 
1 
1 
1 
1 
1 
1 
1 
1 
1 
1 
1 
1 
1 
1 
1 
1 
1 
1 
1 
1 
1 
1 
1 
1 
1 
1 
1 
1 
1 
1 
1 
1 
1 
1 
1 
1 
1 
1 
1 
1 
1 
1 
1 
1 
1 
1 
1 
1 
1 
1 
1 
1 
1 
1 
1 
1 
1 
1 
1 
1 
1 
1 
1 
1 
1 
1 
1 
1 
1 
1 
1 
1 
1 
1 
1 
1 
1 
1 
1 
1 
1 
1 
1 
1 
1 
1 
1 
1 
1 
1 
1 
1 
1 
1 
1 
1 
1 
1 
1 
1 
1 
1 
1 
1 
1 
1 
1 
1 
1 
1 
1 
1 
1 
1 
1 
1 
1 
1 
1 
1 
1 
1 
1 
1 
1 
1 
1 
1 
1 
1 
1 
1 
1 
1 
1 
1 
1 
1 
1 
1 
1 
1 
1 
1 
1 
1 
1 
1 
1 
1 
1 
1 
1 
1 
1 
1 
1 
1 
1 
1 
1 
1 
1 
1 
1 
1 
1 
1 
1 
1 
1 
1 
1 
1 
1 
1 
1 
1 
1 
1 
1 
1 
1 
1 
1 
1 
1 
1 
1 
1 
1 
1 
1 
1 
1 
1 
1 
1 
1 
1 
1 
1 
1 
1 
1 
1 
1 
1 
1 
1 
1 
1 
1 
1 
1 
1 
1 
1 
1 
1 
1 
1 
1 
1 
1 
1 
1 
1 
1 
1 
1 
1 
1 
1 
1 
1 
1 
1 
1 
1 
1 
1 
1 
1 
1 
1 
1 
1 
1 
1 
1 
1 
1 
1 
1 
1 
1 
1 
1 
1 
1 
1 
1 
1 
1 
1 
1 
1 
1 
1 
1 
1 
1 
1 
1 
1 
1 
1 
1 
1 
1 
1 
1 
1 
1 
1 
1 
1 
1 
1 
1 
1 
1 
1 
1 
1 
1 
1 
1 
1 
1 
1 
1 
1 
1 
1 
1 
1 
1 
1 
1 
1 
1 
1 
1 
1 
1 
1 
1 
1 
1 
1 
1 
1 
1 
1 
1 
1 
1 
1 
1 
1 
1 
1 
1 
1 
1 
1 
1 
1 
1 
1 
1 
1 
1 
1 
1 
1 
1 
1 
1 
1 
1 
1 
1 
1 
1 
1 
1 
1 
1 
1 
1 
1 
1 
1 
1 
1 
1 
1 
1 
1 
1 
1 
1 
1 
1 
1 
1 
1 
1 
1 
1 
1 
1 
1 
1 
1 
1 
1 
1 
1 
1 
1 
1 
1 
1 
1 
1 
1 
1 
1 
1 
1 
1 
1 
1 
1 
1 
1 
1 
1 
1 
1 
1 
1 
1 
1 
1 
1 
1 
1 
1 
1 
1 
1 
1 
1 
1 
1 
1 
1 
1 
1 
1 
1 
1 
1 
1 
1 
1 
1 
1 
1 
1 
1 
1 
1 
1 
1 
1 
1 
1 
1 
1 
1 
1 
1 
1 
1 
1 
1 
1 
1 
1 
1 
1 
1 
1 
1 
1 
1 
1 
1 
1 
1 
1 
1 
1 
1 
1 
1 
1 
1 
1 
1 
1 
1 
1 
1 
1 
1 
1 
1 
1 
1 
1 
1 
1 
1 
1 
1 
1 
1 
1 
1 
1 
1 
1 
1 
1 
1 
1 
1 
1 
1 
1 
1 
1 
1 
1 
1 
1 
1 
1 
1 
1 
1 
1 
1 
1 
1 
1 
1 
1 
1 
1 
1 
1 
1 
1 
1 
1 
1 
1 
1 
1 
1 
1 
1 
1 
1 
1 
1 
1 
1 
1 
1 
1 
1 
1 
1 
1 
1 
1 
1 
1 
1 
1 
1 
1 
1 
1 
1 
1 
1 
1 
1 
1 
1 
1 
1 
1 
1 
1 
1 
1 
1 
1 
1 
1 
1 
1 
1 
1 
1 
1 
1 
1 
1 
1 
1 
1 
1 
1 
1 
1 
1 
1 
1 
1 
1 
1 
1 
1 
1 
1 
1 
1 
1 
1 
1 
1 
1 
1 
1 
1 
1 
1 
1 
1 
1 
1 
1 
1 
1 
1 
1 
1 
1 
1 
1 
1 
1 
1 
1 
1 
1 
1 
1 
1 
1 
1 
1 
1 
1 
1 
1 
1 
1 
1 
1 
1 
1 
1 
1 
1 
1 
1 
1 
1 
1 
1 
1 
1 
1 
1 
1 
1 
1 
1 
1 
1 
1 
1 
1 
1 
1 
1 
1 
1 
1 
1 
1 
1 
1 
1 
1 
1 
1 
1 
1 
1 
1 
1 
1 
1 
1 
1 
1 
1 
1 
1 
1 
1 
1 
1 
1 
1 
1 
1 
1 
1 
1 
1 
1 
1 
1 
1 
1 
1 
1 
1 
1 
1 
1 
1 
1 
1 
1 
1 
1 
1 
1 
1 
1 
1 
1 
1 
1 
1 
1 
1 
1 
1 
1 
1 
1 
1 
1 
1 
1 
1 
1 
1 
1 
1 
1 
1 
1 
1 
1 
1 
1 
1 
1 
1 
1 
1 
1 
1 
1 
1 
1 
1 
1 
1 
1 
1 
1 
1 
1 
1 
1 
1 
1 
1 
1 
1 
1 
1 
1 
1 
1 
1 
1 
1 
1 
1 
1 
1 
1 
1 
1 
1 
1 
1 
1 
1 
1 
1 
1 
1 
1 
1 
1 
1 
1 
1 
1 
1 
1 
1 
1 
1 
1 
1 
1 
1 
1 
1 
1 
1 
1 
1 
1 
1 
1 
1 
1 
1 
1 
1 
1 
1 
1 
1 
1 
1 
1 
1 
1 
1 
1 
1 
1 
1 
1 
1 
1 
1 
1 
1 
1 
1 
1 
1 
1 
1 
1 
1 
1 
1 
1 
1 
1 
1 
1 
1 
1 
1 
1 
1 
1 
1 
1 
1 
1 
1 
1 
1 
1 
1 
1 
1 
1 
1 
1 
1 
1 
1 
1 
1 
1 
1 
1 
1 
1 
1 
1 
1 
1 
1 
1 
1 
1 
1 
1 
1 
1 
1 
1 
1 
1 
1 
1 
1 
1 
1 
1 
1 
1 
1 
1 
1 
1 
1 
1 
1 
1 
1 
1 
1 
1 
1 
1 
1 
1 
1 
1 
1 
1 
1 
1 
1 
1 
1 
1 
1 
1 
1 
1 
1 
1 
1 
1 
1 
1 
1 
1 
1 
1 
1 
1 
1 
1 
1 
1 
1 
1 
1 
1 
1 
1 
1 
1 
1 
1 
1 
1 
1 
1 
1 
1 
1 
1 
1 
1 
1 
1 
1 
1 
1 
1 
1 
1 
1 
1 
1 
1 
1 
1 
1 
1 
1 
1 
1 
1 
1 
1 
1 
1 
1 
1 
1 
1 
1 
1 
1 
1 
1 
1 
1 
1 
1 
1 
1 
1 
1 
1 
1 
1 
1 
1 
1 
1 
1 
1 
1 
1 
1 
1 
1 
1 
1 
1 
1 
1 
1 
1 
1 
1 
1 
1 
1 
1 
1 
1 
1 
1 
1 
1 
1 
1 
1 
1 
1 
1 
1 
1 
1 
1 
1 
1 
1 
1 
1 
1 
1 
1 
1 
1 
1 
1 
1 
1 
1 
1 
1 
1 
1 
1 
1 
1 
1 
1 
1 
1 
1 
1 
1 
1 
1 
1 
1 
1 
1 
1 
1 
1 
1 
1 
1 
1 
1 
1 
1 
1 
1 
1 
1 
1 
1 
1 
1 
1 
1 
1 
1 
1 
1 
1 
1 
1 
1 
1 
1 
1 
1 
1 
1 
1 
1 
1 
1 
1 
1 
1 
1 
1 
1 
1 
1 
1 
1 
1 
1 
1 
1 
1 
1 
1 
1 
1 
1 
1 
1 
1 
1 
1 
1 
1 
1 
1 
1 
1 
1 
1 
1 
1 
1 
1 
1 
1 
1 
1 
1 
1 
1 
1 
1 
1 
1 
1 
1 
1 
1 
1 
1 
1 
1 
1 
1 
1 
1 
1 
1 
1 
1 
1 
1 
1 
1 
1 
1 
1 
1 
1 
1 
1 
1 
1 
1 
1 
1 
1 
1 
1 
1 
1 
1 
1 
1 
1 
1 
1 
1 
1 
1 
1 
1 
1 
1 
1 
1 
1 
1 
1 
1 
1 
1 
1 
1 
1 
1 
1 
1 
1 
1 
1 
1 
1 
1 
1 
1 
1 
1 
1 
1 
1 
1 
1 
1 
1 
1 
1 
1 
1 
1 
1 
1 
1 
1 
1 
1 
1 
1 
1 
1 
1 
1 
1 
1 
1 
1 
1 
1 
1 
1 
1 
1 
1 
1 
1 
1 
1 
1 
1 
1 
1 
1 
1 
1 
1 
1 
1 
1 
1 
1 
1 
1 
1 
1 
1 
1 
1 
1 
1 
1 
1 
1 
1 
1 
1 
1 
1 
1 
1 
1 
1 
1 
1 
1 
1 
1 
1 
1 
1 
1 
1 
1 
1 
1 
1 
1 
1 
1 
1 
1 
1 
1 
1 
1 
1 
1 
1 
1 
1 
1 
1 
1 
1 
1 
1 
1 
1 
1 
1 
1 
1 
1 
1 
1 
1 
1 
1 
1 
1 
1 
1 
1 
1 
1 
1 
1 
1 
1 
1 
1 
1 
1 
1 
1 
1 
1 
1 
1 
1 
1 
1 
1 
1 
1 
1 
1 
1 
1 
1 
1 
1 
1 
1 
1 
1 
1 
1 
1 
1 
1 
1 
1 
1 
1 
1 
1 
1 
1 
1 
1 
1 
1 
1 
1 
1 
1 
1 
1 
1 
1 
1 
1 
1 
1 
1 
1 
1 
1 
1 
1 
1 
1 
1 
1 
1 
1 
1 
1 
1 
1 
1 
1 
1 
1 
1 
1 
1 
1 
1 
1 
1 
1 
1 
1 
1 
1 
1 
1 
1 
1 
1 
1 
1 
1 
1 
1 
1 
1 
1 
1 
1 
1 
1 
1 
1 
1 
1 
1 
1 
1 
1 
1 
1 
1 
1 
1 
1 
1 
1 
1 
1 
1 
1 
1 
1 
1 
1 
1 
1 
1 
1 
1 
1 
1 
1 
1 
1 
1 
1 
1 
1 
1 
1 
1 
1 
1 
1 
1 
1 
1 
1 
1 
1 
1 
1 
1 
1 
1 
1 
1 
1 
1 
1 
1 
1 
1 
1 
1 
1 
1 
1 
1 
1 
1 
1 
1 
1 
1 
1 
1 
1 
1 
1 
1 
1 
1 
1 
1 
1 
1 
1 
1 
1 
1 
1 
1 
1 
1 
1 
1 
1 
1 
1 
1 
1 
1 
1 
1 
1 
1 
1 
1 
1 
1 
1 
1 
1 
1 
1 
1 
1 
1 
1 
1 
1 
1 
1 
1 
1 
1 
1 
1 
1 
1 
1 
1 
1 
1 
1 
1 
1 
1 
1 
1 
1 
1 
1 
1 
1 
1 
1 
1 
1 
1 
1 
1 
1 
1 
1 
1 
1 
1 
1 
1 
1 
1 
1 
1 
1 
1 
1 
1 
1 
1 
1 
1 
1 
1 
1 
1 
1 
1 
1 
1 
1 
1 
1 
1 
1 
1 
1 
1 
1 
1 
1 
1 
1 
1 
1 
1 
1 
1 
1 
1 
1 
1 
1 
1 
1 
1 
1 
1 
1 
1 
1 
1 
1 
1 
1 
1 
1 
1 
1 
1 
1 
1 
1 
1 
1 
1 
1 
1 
1 
1 
1 
1 
1 
1 
1 
1 
1 
1 
1 
1 
1 
1 
1 
1 
1 
1 
1 
1 
1 
1 
1 
1 
1 
1 
1 
1 
1 
1 
1 
1 
1 
1 
1 
1 
1 
1 
1 
1 
1 
1 
1 
1 
1 
1 
1 
1 
1 
1 
1 
1 
1 
1 
1 
1 
1 
1 
1 
1 
1 
1 
1 
1 
1 
1 
1 
1 
1 
1 
1 
1 
1 
1 
1 
1 
1 
1 
1 
1 
1 
1 
1 
1 
1 
1 
1 
1 
1 
1 
1 
1 
1 
1 
1 
1 
1 
1 
1 
1 
1 
1 
1 
1 
1 
1 
1 
1 
1 
1 
1 
1 
1 
1 
1 
1 
1 
1 
1 
1 
1 
1 
1 
1 
1 
1 
1 
1 
1 
1 
1 
1 
1 
1 
1 
1 
1 
1 
1 
1 
1 
1 
1 
1 
1 
1 
1 
1 
1 
1 
1 
1 
1 
1 
1 
1 
1 
1 
1 
1 
1 
1 
1 
1 
1 
1 
1 
1 
1 
1 
1 
1 
1 
1 
1 
1 
1 
1 
1 
1 
1 
1 
1 
1 
1 
1 
1 
1 
1 
1 
1 
1 
1 
1 
1 
1 
1 
1 
1 
1 
1 
1 
1 
1 
1 
1 
1 
1 
1 
1 
1 
1 
1 
1 
1 
1 
1 
1 
1 
1 
1 
1 
1 
1 
1 
1 
1 
1 
1 
1 
1 
1 
1 
1 
1 
1 
1 
1 
1 
1 
1 
1 
1 
1 
1 
1 
1 
1 
1 
1 
1 
1 
1 
1 
1 
1 
1 
1 
1 
1 
1 
1 
1 
1 
1 
1 
1 
1 
1 
1 
1 
1 
1 
1 
1 
1 
1 
1 
1 
1 
1 
1 
1 
1 
1 
1 
1 
1 
1 
1 
1 
1 
1 
1 
1 
1 
1 
1 
1 
1 
1 
1 
1 
1 
1 
1 
1 
1 
1 
1 
1 
1 
1 
1 
1 
1 
1 
1 
1 
1 
1 
1 
1 
1 
1 
1 
1 
1 
1 
1 
1 
1 
1 
1 
1 
1 
1 
1 
1 
1 
1 
1 
1 
1 
1 
1 
1 
1 
1 
1 
1 
1 
1 
1 
1 
1 
1 
1 
1 
1 
1 
1 
1 
1 
1 
1 
1 
1 
1 
1 
1 
1 
1 
1 
1 
1 
1 
1 
1 
1 
1 
1 
1 
1 
1 
1 
1 
1 
1 
1 
1 
1 
1 
1 
1 
1 
1 
1 
1 
1 
1 
1 
1 
1 
1 
1 
1 
1 
1 
1 
1 
1 
1 
1 
1 
1 
1 
1 
1 
1 
1 
1 
1 
1 
1 
1 
1 
1 
1 
1 
1 
1 
1 
1 
1 
1 
1 
1 
1 
1 
1 
1 
1 
1 
1 
1 
1 
1 
1 
1 
1 
1 
1 
1 
1 
1 
1 
1 
1 
1 
1 
1 
1 
1 
1 
1 
1 
1 
1 
1 
1 
1 
1 
1 
1 
1 
1 
1 
1 
1 
1 
1 
1 
1 
1 
1 
1 
1 
1 
1 
1 
1 
1 
1 
1 
1 
1 
1 
1 
1 
1 
1 
1 
1 
1 
1 
1 
1 
1 
1 
1 
1 
1 
1 
1 
1 
1 
1 
1 
1 
1 
1 
1 
1 
1 
1 
1 
1 
1 
1 
1 
1 
1 
1 
1 
1 
1 
1 
1 
1 
1 
1 
1 
1 
1 
1 
1 
1 
1 
1 
1 
1 
1 
1 
1 
1 
1 
1 
1 
1 
1 
1 
1 
1 
1 
1 
1 
1 
1 
1 
1 
1 
1 
1 
1 
1 
1 
1 
1 
1 
1 
1 
1 
1 
1 
1 
1 
1 
1 
1 
1 
1 
1 
1 
1 
1 
1 
1 
1 
1 
1 
1 
1 
1 
1 
1 
1 
1 
1 
1 
1 
1 
1 
1 
1 
1 
1 
1 
1 
1 
1 
1 
1 
1 
1 
1 
1 
1 
1 
1 
1 
1 
1 
1 
1 
1 
1 
1 
1 
1 
1 
1 
1 
1 
1 
1 
1 
1 
1 
1 
1 
1 
1 
1 
1 
1 
1 
1 
1 
1 
1 
1 
1 
1 
1 
1 
1 
1 
1 
1 
1 
1 
1 
1 
1 
1 
1 
1 
1 
1 
1 
1 
1 
1 
1 
1 
1 
1 
1 
1 
1 
1 
1 
1 
1 
1 
1 
1 
1 
1 
1 
1 
1 
1 
1 
1 
1 
1 
1 
1 
1 
1 
1 
1 
1 
1 
1 
1 
1 
1 
1 
1 
1 
1 
1 
1 
1 
1 
1 
1 
1 
1 
1 
1 
1 
1 
1 
1 
1 
1 
1 
1 
1 
1 
1 
1 
1 
1 
1 
1 
1 
1 
1 
1 
1 
1 
1 
1 
1 
1 
1 
1 
1 
1 
1 
1 
1 
1 
1 
1 
1 
1 
1 
1 
1 
1 
1 
1 
1 
1 
1 
1 
1 
1 
1 
1 
1 
1 
1 
1 
1 
1 
1 
1 
1 
1 
1 
1 
1 
1 
1 
1 
1 
1 
1 
1 
1 
1 
1 
1 
1 
1 
1 
1 
1 
1 
1 
1 
1 
1 
1 
1 
1 
1 
1 
1 
1 
1 
1 
1 
1 
1 
1 
1 
1 
1 
1 
1 
1 
1 
1 
1 
1 
1 
1 
1 
1 
1 
1 
1 
1 
1 
1 
1 
1 
1 
1 
1 
1 
1 
1 
1 
1 
1 
1 
1 
1 
1 
1 
1 
1 
1 
1 
1 
1 
1 
1 
1 
1 
1 
1 
1 
1 
1 
1 
1 
1 
1 
1 
1 
1 
1 
1 
1 
1 
1 
1 
1 
1 
1 
1 
1 
1 
1 
1 
1 
1 
1 
1 
1 
1 
1 
1 
1 
1 
1 
1 
1 
1 
1 
1 
1 
1 
1 
1 
1 
1 
1 
1 
1 
1 
1 
1 
1 
1 
1 
1 
1 
1 
1 
1 
1 
1 
1 
1 
1 
1 
1 
1 
1 
1 
1 
1 
1 
1 
1 
1 
1 
1 
1 
1 
1 
1 
1 
1 
1 
1 
1 
1 
1 
1 
1 
1 
1 
1 
1 
1 
1 
1 
1 
1 
1 
1 
1 
1 
1 
1 
1 
1 
1 
1 
1 
1 
1 
1 
1 
1 
1 
1 
1 
1 
1 
1 
1 
1 
1 
1 
1 
1 
1 
1 
1 
1 
1 
1 
1 
1 
1 
1 
1 
1 
1 
1 
1 
1 
1 
1 
1 
1 
1 
1 
1 
1 
1 
1 
1 
1 
1 
1 
1 
1 
1 
1 
1 
1 
1 
1 
1 
1 
1 
1 
1 
1 
1 
1 
1 
1 
1 
1 
1 
1 
1 
1 
1 
1 
1 
1 
1 
1 
1 
1 
1 
1 
1 
1 
1 
1 
1 
1 
1 
1 
1 
1 
1 
1 
1 
1 
1 
1 
1 
1 
1 
1 
1 
1 
1 
1 
1 
1 
1 
1 
1 
1 
1 
1 
1 
1 
1 
1 
1 
1 
1 
1 
1 
1 
1 
1 
1 
1 
1 
1 
1 
1 
1 
1 
1 
1 
1 
1 
1 
1 
1 
1 
1 
1 
1 
1 
1 
1 
1 
1 
1 
1 
1 
1 
1 
1 
1 
1 
1 
1 
1 
1 
1 
1 
1 
1 
1 
1 
1 
1 
1 
1 
1 
1 
1 
1 
1 
1 
1 
1 
1 
1 
1 
1 
1 
1 
1 
1 
1 
1 
1 
1 
1 
1 
1 
1 
1 
1 
1 
1 
1 
1 
1 
1 
1 
1 
1 
1 
1 
1 
1 
1 
1 
1 
1 
1 
1 
1 
1 
1 
1 
1 
1 
1 
1 
1 
1 
1 
1 
1 
1 
1 
1 
1 
1 
1 
1 
1 
1 
1 
1 
1 
1 
1 
1 
1 
1 
1 
1 
1 
1 
1 
1 
1 
1 
1 
1 
1 
1 
1 
1 
1 
1 
1 
1 
1 
1 
1 
1 
1 
1 
1 
1 
1 
1 
1 
1 
1 
1 
1 
1 
1 
1 
1 
1 
1 
1 
1 
1 
1 
1 
1 
1 
1 
1 
1 
1 
1 
1 
1 
1 
1 
1 
1 
1 
1 
1 
1 
1 
1 
1 
1 
1 
1 
1 
1 
1 
1 
1 
1 
1 
1 
1 
1 
1 
1 
1 
1 
1 
1 
1 
1 
1 
1 
1 
1 
1 
1 
1 
1 
1 
1 
1 
1 
1 
1 
1 
1 
1 
1 
1 
1 
1 
1 
1 
1 
1 
1 
1 
1 
1 
1 
1 
1 
1 
1 
1 
1 
1 
1 
1 
1 
1 
1 
1 
1 
1 
1 
1 
1 
1 
1 
1 
1 
1 
1 
1 
1 
1 
1 
1 
1 
1 
1 
1 
1 
1 
1 
1 
1 
1 
1 
1 
1 
1 
1 
1 
1 
1 
1 
1 
1 
1 
1 
1 
1 
1 
1 
1 
1 
1 
1 
1 
1 
1 
1 
1 
1 
1 
1 
1 
1 
1 
1 
1 
1 
1 
1 
1 
1 
1 
1 
1 
1 
1 
1 
1 
1 
1 
1 
1 
1 
1 
1 
1 
1 
1 
1 
1 
1 
1 
1 
1 
1 
1 
1 
1 
1 
1 
1 
1 
1 
1 
1 
1 
1 
1 
1 
1 
1 
1 
1 
1 
1 
1 
1 
1 
1 
1 
1 
1 
1 
1 
1 
1 
1 
1 
1 
1 
1 
1 
1 
1 
1 
1 
1 
1 
1 
1 
1 
1 
1 
1 
1 
1 
1 
1 
1 
1 
1 
1 
1 
1 
1 
1 
1 
1 
1 
1 
1 
1 
1 
1 
1 
1 
1 
1 
1 
1 
1 
1 
1 
1 
1 
1 
1 
1 
1 
1 
1 
1 
1 
1 
1 
1 
1 
1 
1 
1 
1 
1 
1 
1 
1 
1 
1 
1 
1 
1 
1 
1 
1 
1 
1 
1 
1 
1 
1 
1 
1 
1 
1 
1 
1 
1 
1 
1 
1 
1 
1 
1 
1 
1 
1 
1 
1 
1 
1 
1 
1 
1 
1 
1 
1 
1 
1 
1 
1 
1 
1 
1 
1 
1 
1 
1 
1 
1 
1 
1 
1 
1 
1 
1 
1 
1 
1 
1 
1 
1 
1 
1 
1 
1 
1 
1 
1 
1 
1 
1 
1 
1 
1 
1 
1 
1 
1 
1 
1 
1 
1 
1 
1 
1 
1 
1 
1 
1 
1 
1 
1 
1 
1 
1 
1 
1 
1 
1 
1 
1 
1 
1 
1 
1 
1 
1 
1 
1 
1 
1 
1 
1 
1 
1 
1 
1 
1 
1 
1 
1 
1 
1 
1 
1 
1 
1 
1 
1 
1 
1 
1 
1 
1 
1 
1 
1 
1 
1 
1 
1 
1 
1 
1 
1 
1 
1 
1 
1 
1 
1 
1 
1 
1 
1 
1 
1 
1 
1 
1 
1 
1 
1 
1 
1 
1 
1 
1 
1 
1 
1 
1 
1 
1 
1 
1 
1 
1 
1 
1 
1 
1 
1 
1 
1 
1 
1 
1 
1 
1 
1 
1 
1 
1 
1 
1 
1 
1 
1 
1 
1 
1 
1 
1 
1 
1 
1 
1 
1 
1 
1 
1 
1 
1 
1 
1 
1 
1 
1 
1 
1 
1 
1 
1 
1 
1 
1 
1 
1 
1 
1 
1 
1 
1 
1 
1 
1 
1 
1 
1 
1 
1 
1 
1 
1 
1 
1 
1 
1 
1 
1 
1 
1 
1 
1 
1 
1 
1 
1 
1 
1 
1 
1 
1 
1 
1 
1 
1 
1 
1 
1 
1 
1 
1 
1 
1 
1 
1 
1 
1 
1 
1 
1 
1 
1 
1 
1 
1 
1 
1 
1 
1 
1 
1 
1 
1 
1 
1 
1 
1 
1 
1 
1 
1 
1 
1 
1 
1 
1 
1 
1 
1 
1 
1 
1 
1 
1 
1 
1 
1 
1 
1 
1 
1 
1 
1 
1 
1 
1 
1 
1 
1 
1 
1 
1 
1 
1 
1 
1 
1 
1 
1 
1 
1 
1 
1 
1 
1 
1 
1 
1 
1 
1 
1 
1 
1 
1 
1 
1 
1 
1 
1 
1 
1 
1 
1 
1 
1 
1 
1 
1 
1 
1 
1 
1 
1 
1 
1 
1 
1 
1 
1 
1 
1 
1 
1 
1 
1 
1 
1 
1 
1 
1 
1 
1 
1 
1 
1 
1 
1 
1 
1 
1 
1 
1 
1 
1 
1 
1 
1 
1 
1 
1 
1 
1 
1 
1 
1 
1 
1 
1 
1 
1 
1 
1 
1 
1 
1 
1 
1 
1 
1 
1 
1 
1 
1 
1 
1 
1 
1 
1 
1 
1 
1 
1 
1 
1 
1 
1 
1 
1 
1 
1 
1 
1 
1 
1 
1 
1 
1 
1 
1 
1 
1 
1 
1 
1 
1 
1 
1 
1 
1 
1 
1 
1 
1 
1 
1 
1 
1 
1 
1 
1 
1 
1 
1 
1 
1 
1 
1 
1 
1 
1 
1 
1 
1 
1 
1 
1 
1 
1 
1 
1 
1 
1 
1 
1 
1 
1 
1 
1 
1 
1 
1 
1 
1 
1 
1 
1 
1 
1 
1 
1 
1 
1 
1 
1 
1 
1 
1 
1 
1 
1 
1 
1 
1 
1 
1 
1 
1 
1 
1 
1 
1 
1 
1 
1 
1 
1 
1 
1 
1 
1 
1 
1 
1 
1 
1 
1 
1 
1 
1 
1 
1 
1 
1 
1 
1 
1 
1 
1 
1 
1 
1 
1 
1 
1 
1 
1 
1 
1 
1 
1 
1 
1 
1 
1 
1 
1 
1 
1 
1 
1 
1 
1 
1 
1 
1 
1 
1 
1 
1 
1 
1 
1 
1 
1 
1 
1 
1 
1 
1 
1 
1 
1 
1 
1 
1 
1 
1 
1 
1 
1 
1 
1 
1 
1 
1 
1 
1 
1 
1 
1 
1 
1 
1 
1 
1 
1 
1 
1 
1 
1 
1 
1 
1 
1 
1 
1 
1 
1 
1 
1 
1 
1 
1 
1 
1 
1 
1 
1 
1 
1 
1 
1 
1 
1 
1 
1 
1 
1 
1 
1 
1 
1 
1 
1 
1 
1 
1 
1 
1 
1 
1 
1 
1 
1 
1 
1 
1 
1 
1 
1 
1 
1 
1 
1 
1 
1 
1 
1 
1 
1 
1 
1 
1 
1 
1 
1 
1 
1 
1 
1 
1 
1 
1 
1 
1 
1 
1 
1 
1 
1 
1 
1 
1 
1 
1 
1 
1 
1 
1 
1 
1 
1 
1 
1 
1 
1 
1 
1 
1 
1 
1 
1 
1 
1 
1 
1 
1 
1 
1 
1 
1 
1 
1 
1 
1 
1 
1 
1 
1 
1 
1 
1 
1 
1 
1 
1 
1 
1 
1 
1 
1 
1 
1 
1 
1 
1 
1 
1 
1 
1 
1 
1 
1 
1 
1 
1 
1 
1 
1 
1 
1 
1 
1 
1 
1 
1 
1 
1 
1 
1 
1 
1 
1 
1 
1 
1 
1 
1 
1 
1 
1 
1 
1 
1 
1 
1 
1 
1 
1 
1 
1 
1 
1 
1 
1 
1 
1 
1 
1 
1 
1 
1 
1 
1 
1 
1 
1 
1 
1 
1 
1 
1 
1 
1 
1 
1 
1 
1 
1 
1 
1 
1 
1 
1 
1 
1 
1 
1 
1 
1 
1 
1 
1 
1 
1 
1 
1 
1 
1 
1 
1 
1 
1 
1 
1 
1 
1 
1 
1 
1 
1 
1 
1 
1 
1 
1 
1 
1 
1 
1 
1 
1 
1 
1 
1 
1 
1 
1 
1 
1 
1 
1 
1 
1 
1 
1 
1 
1 
1 
1 
1 
1 
1 
1 
1 
1 
1 
1 
1 
1 
1 
1 
1 
1 
1 
1 
1 
1 
1 
1 
1 
1 
1 
1 
1 
1 
1 
1 
1 
1 
1 
1 
1 
1 
1 
1 
1 
1 
1 
1 
1 
1 
1 
1 
1 
1 
1 
1 
1 
1 
1 
1 
1 
1 
1 
1 
1 
1 
1 
1 
1 
1 
1 
1 
1 
1 
1 
1 
1 
1 
1 
1 
1 
1 
1 
1 
1 
1 
1 
1 
1 
1 
1 
1 
1 
1 
1 
1 
1 
1 
1 
1 
1 
1 
1 
1 
1 
1 
1 
1 
1 
1 
1 
1 
1 
1 
1 
1 
1 
1 
1 
1 
1 
1 
1 
1 
1 
1 
1 
1 
1 
1 
1 
1 
1 
1 
1 
1 
1 
1 
1 
1 
1 
1 
1 
1 
1 
1 
1 
1 
1 
1 
1 
1 
1 
1 
1 
1 
1 
1 
1 
1 
1 
1 
1 
1 
1 
1 
1 
1 
1 
1 
1 
1 
1 
1 
1 
1 
1 
1 
1 
1 
1 
1 
1 
1 
1 
1 
1 
1 
1 
1 
1 
1 
1 
1 
1 
1 
1 
1 
1 
1 
1 
1 
1 
1 
1 
1 
1 
1 
1 
1 
1 
1 
1 
1 
1 
1 
1 
1 
1 
1 
1 
1 
1 
1 
1 
1 
1 
1 
1 
1 
1 
1 
1 
1 
1 
1 
1 
1 
1 
1 
1 
1 
1 
1 
1 
1 
1 
1 
1 
1 
1 
1 
1 
1 
1 
1 
1 
1 
1 
1 
1 
1 
1 
1 
1 
1 
1 
1 
1 
1 
1 
1 
1 
1 
1 
1 
1 
1 
1 
1 
1 
1 
1 
1 
1 
1 
1 
1 
1 
1 
1 
1 
1 
1 
1 
1 
1 
1 
1 
1 
1 
1 
1 
1 
1 
1 
1 
1 
1 
1 
1 
1 
1 
1 
1 
1 
1 
1 
1 
1 
1 
1 
1 
1 
1 
1 
1 
1 
1 
1 
1 
1 
1 
1 
1 
1 
1 
1 
1 
1 
1 
1 
1 
1 
1 
1 
1 
1 
1 
1 
1 
1 
1 
1 
1 
1 
1 
1 
1 
1 
1 
1 
1 
1 
1 
1 
1 
1 
1 
1 
1 
1 
1 
1 
1 
1 
1 
1 
1 
1 
1 
1 
1 
1 
1 
1 
1 
1 
1 
1 
1 
1 
1 
1 
1 
1 
1 
1 
1 
1 
1 
1 
1 
1 
1 
1 
1 
1 
1 
1 
1 
1 
1 
1 
1 
1 
1 
1 
1 
1 
1 
1 
1 
1 
1 
1 
1 
1 
1 
1 
1 
1 
1 
1 
1 
1 
1 
1 
1 
1 
1 
1 
1 
1 
1 
1 
1 
1 
1 
1 
1 
1 
1 
1 
1 
1 
1 
1 
1 
1 
1 
1 
1 
1 
1 
1 
1 
1 
1 
1 
POINT_DATA 5000
VECTORS Stress float
-113.038 -254.941 0.
-1286.88 -2656.46 0.
-3.14103 -6.55486 0.
-1594.03 -2256.37 0.
-215.019 -327.207 0.
-120.43 -202.623 0.
-2731.38 -4420.59 0.
-911.567 -1597.23 0.
-25.4286 -51.6893 0.
-1769.89 -2753.29 0.
-1147.97 -1911.12 0.
-529.494 -1065.5 0.
-1389.13 -1833.29 0.
-1125.16 -1516.54 0.
-837.212 -1160.03 0.
-762.597 -1121.53 0.
-688.465 -1082.55 0.
-890.415 -1357.62 0.
-819.696 -1364.74 0.
-739.494 -1381.35 0.
-826.157 -1474.88 0.
-766.208 -1336.24 0.
-705.68 -1198.19 0.
-713.652 -1253.16 0.
-754.798 -1348.55 0.
-793.494 -1446.38 0.
-946.59 -1526.04 0.
-903.614 -1461.08 0.
-709.757 -1335.85 0.
-669.259 -1225.02 0.
-621.041 -1121.9 0.
-641.366 -1101.95 0.
-617.284 -1074.17 0.
-590.992 -1048.6 0.
-615.922 -1111 0.
-636.704 -1180.48 0.
-657.433 -1250 0.
-708.361 -1221.49 0.
-664.418 -1139.25 0.
-554.593 -1033.16 0.
-555.538 -1048.84 0.
-556.488 -1064.51 0.
-592.412 -1091.28 0.
-600.357 -1109.83 0.
-608.303 -1128.38 0.
-603.279 -1123.49 0.
-594.331 -1102.61 0.
-585.383 -1081.74 0.
-625.093 -1109.64 0.
-634.989 -1132.73 0.
-644.885 -1155.82 0.
-686.251 -1162.04 0.
-680.218 -1147.95 0.
-602.041 -1105.55 0.
-602.136 -1105.78 0.
-602.232 -1106.01 0.
-594.256 -1101.76 0.
-593.159 -1099.19 0.
-592.062 -1096.62 0.
-565.898 -1097.36 0.
-579.033 -1117.41 0.
-594.75 -1134.88 0.
-721.604 -1240.18 0.
-760.256 -1314.49 0.
-673.694 -1313.63 0.
-648.151 -1225.92 0.
-622.022 -1138.8 0.
-596.66 -1079.74 0.
-627.464 -1122.07 0.
-656.868 -1165.8 0.
-657.959 -1207.46 0.
-726.631 -1331.87 0.
-792.612 -1458.96 0.
-948.551 -1536.79 0.
-961.536 -1548.18 0.
-777.54 -1414.54 0.
-716.296 -1309.07 0.
-695.856 -1256.83 0.
-758.075 -1284.31 0.
-805.593 -1426.1 0.
-862.811 -1558.18 0.
-761.342 -1448.41 0.
-833.042 -1374.68 0.
-891.181 -1314.5 0.
-700.86 -1041.27 0.
-837.976 -1185.33 0.
-976.507 -1327.96 0.
-1238.75 -1644.73 0.
-1525.8 -1988.09 0.
-190.7 -456.035 0.
-1174.86 -2046.64 0.
-2237.97 -3558.29 0.
-58.9309 -159.463 0.
-437.978 -890.207 0.
-2702.16 -4472.65 0.
-1.21671 -8.66858 0.
-236.066 -422.461 0.
-1534.33 -2347 0.
-2.82061 -26.3626 0.
-257.225 -574.68 0.
14.5505 34.9728 0.
-2.63864 -6.14562 0.
-1.16538 -19.8656 0.
3.84386 6.64263 0.
-1.12529 -5.47139 0.
1.4079 3.05549 0.
-6.91354 -13.7094 0.
0.924621 2.01573 0.
-0.104856 -2.03181 0.
-37.103 -75.5125 0.
-52.69 -112.639 0.
-123.39 -293.887 0.
-439.351 -688.11 0.
-299.428 -500.918 0.
-184.447 -396.226 0.
-133.774 -340.82 0.
-96.9745 -266.712 0.
-429.763 -845.269 0.
-377.225 -855.662 0.
-345.858 -862.174 0.
-565.532 -1214.8 0.
-504.108 -1082 0.
-442.596 -950.257 0.
-509.958 -978.033 0.
-536.098 -1088.45 0.
-558.92 -1202.19 0.
-863.51 -1399.12 0.
-822.09 -1332.59 0.
-521.288 -1070.76 0.
-460.574 -961.044 0.
-411.758 -853.438 0.
-490.005 -923.667 0.
-459.044 -902.755 0.
-454.402 -855.524 0.
-515.994 -998.732 0.
-537.041 -1067.95 0.
-557.749 -1137.5 0.
-732.365 -1177.6 0.
-690.68 -1093.09 0.
-471.03 -937.423 0.
-466.58 -958.495 0.
-465.665 -976.032 0.
-548.104 -1011.48 0.
-545.308 -1040.77 0.
-543.426 -1069.14 0.
-560.462 -1073.71 0.
-551.512 -1052.84 0.
-542.563 -1031.96 0.
-616.437 -1065.82 0.
-620.262 -1094.99 0.
-630.155 -1118.08 0.
-783.762 -1172.39 0.
-777.739 -1158.3 0.
-563.432 -1057.59 0.
-563.525 -1057.82 0.
-563.618 -1058.05 0.
-520.683 -1038.81 0.
-527.222 -1028.6 0.
-536.409 -1015.76 0.
-480.004 -1005.36 0.
-500.529 -1018.02 0.
-521.826 -1029.91 0.
-756.122 -1203.58 0.
-791.287 -1281.38 0.
-550.532 -1151.46 0.
-505.315 -1083.41 0.
-480.861 -994.604 0.
-421.531 -876.003 0.
-459.241 -911.442 0.
-498.136 -945.695 0.
-475.564 -904.857 0.
-517.721 -1055.82 0.
-587.162 -1179.5 0.
-833.024 -1374.98 0.
-846.825 -1385.56 0.
-595.7 -1240.4 0.
-517.543 -1064.87 0.
-518.414 -986.385 0.
-450.087 -971.18 0.
-518.281 -1108.25 0.
-587.505 -1248.53 0.
-298.443 -747.352 0.
-255.008 -667.428 0.
-268.873 -607.672 0.
-29.5153 -62.0209 0.
-80.6151 -221.975 0.
-137.446 -371.68 0.
-248.972 -408.529 0.
-402.675 -593.154 0.
-108.579 -223.86 0.
-92.0944 -187.367 0.
-154.572 -371.193 0.
0.0215245 0.701688 0.
-0.0313789 -3.27882 0.
-6.0133 -14.8169 0.
3.72786 8.46197 0.
-3.13411 -19.1498 0.
-1.517 -6.46714 0.
-0.230098 -5.17171 0.
-3.65926 -9.02975 0.
2.59615 6.58533 0.
-0.661717 -1.68074 0.
-0.690859 -36.4326 0.
-2.43303 -13.8155 0.
6.24774 13.6209 0.
-0.365462 -6.49688 0.
-0.541319 -5.30147 0.
0.400407 0.977661 0.
-0.0302574 -1.74878 0.
-22.4444 -49.8184 0.
-26.9658 -61.4563 0.
-62.4441 -147.385 0.
-314.241 -573.504 0.
-272.136 -513.832 0.
-832.073 -1690.08 0.
-418.718 -980.849 0.
-265.103 -716.906 0.
-986.935 -2108.27 0.
-778.926 -1664.08 0.
-516.452 -1117.52 0.
-823.956 -1395.11 0.
-751.756 -1291.84 0.
-695.533 -1250.16 0.
-680.401 -1164.83 0.
-662.989 -1189.51 0.
-715.673 -1276.61 0.
-976.142 -1603.28 0.
-983.838 -1628.75 0.
-624.839 -1085.36 0.
-528.997 -912.468 0.
-499.37 -887.944 0.
-640.379 -1096.98 0.
-567.936 -933.362 0.
-543.762 -890.347 0.
-577.671 -956.234 0.
-503.393 -788.005 0.
-528.681 -882.437 0.
-705.875 -986.667 0.
-757.019 -1117.77 0.
-548.627 -837.573 0.
-445.676 -626.075 0.
-417.839 -595.966 0.
-467.447 -768.882 0.
-501.999 -895.471 0.
-432.707 -798.266 0.
-464.656 -739.555 0.
-457.812 -754.12 0.
-443.448 -746.851 0.
-617.695 -862.16 0.
-625.784 -882.548 0.
-816.163 -1148.35 0.
-745.935 -867.98 0.
-776.385 -939.095 0.
-477.818 -759.069 0.
-479.32 -736.799 0.
-509.155 -813.045 0.
-456.153 -798.206 0.
-448.899 -774.52 0.
-458.406 -752.218 0.
-444.785 -671.366 0.
-487.543 -774.352 0.
-528.437 -836.539 0.
-788.307 -1083.91 0.
-844.253 -1203.74 0.
-459.556 -717.701 0.
-482.895 -863.988 0.
-542.948 -986.216 0.
-513.095 -941.731 0.
-512.027 -936.141 0.
-595.794 -1089.3 0.
-525.518 -943.831 0.
-591.558 -1120.5 0.
-602.602 -1055.17 0.
-994 -1612.86 0.
-980.093 -1576.32 0.
-701.026 -1213.52 0.
-702.597 -1217.77 0.
-709.624 -1135.53 0.
-613.186 -1167.28 0.
-722.978 -1318.91 0.
-836.121 -1471.11 0.
-482.41 -1131.25 0.
-931.334 -2065.36 0.
-1019.03 -2169.23 0.
-65.0675 -134.533 0.
-309.989 -768.015 0.
-659.224 -1360.56 0.
-188.25 -262.754 0.
-182.792 -249.617 0.
-115.831 -222.516 0.
-97.3599 -180.692 0.
-83.1379 -150.339 0.
-0.270273 -5.01615 0.
-0.00830094 -6.6267 0.
3.20679 8.68739 0.
-0.773677 -11.197 0.
-1.7149 -14.0833 0.
-0.0899999 -25.1132 0.
-0.116452 -9.50185 0.
9.11233 24.0328 0.
7.558 20.2775 0.
-284.1 -758.233 0.
-3.96863 -10.523 0.
8.95709 23.5879 0.
-1454.06 -3239.85 0.
-1.68219 -19.3917 0.
-1470.17 -3151.79 0.
-149.144 -320.752 0.
-1.39168 -3.14723 0.
-2281.51 -4488.27 0.
-257.835 -532.245 0.
1.00107 2.43713 0.
-1874.33 -3862.6 0.
-762.623 -1789.21 0.
-1127.65 -2321.05 0.
-619.739 -1439.29 0.
-190.941 -507.284 0.
-715.065 -1779.66 0.
-345.594 -934.215 0.
-128.506 -344.372 0.
-432.247 -770.229 0.
-404.042 -760.009 0.
-411.459 -809.736 0.
-525.681 -855.803 0.
-469.819 -817.538 0.
-420.75 -790.527 0.
-662.675 -1065.44 0.
-613.5 -981.357 0.
-327.384 -487.012 0.
-345.061 -554.247 0.
-373.292 -646.388 0.
-473.407 -765.34 0.
-431.826 -715.381 0.
-392.15 -656.197 0.
-416.127 -615.334 0.
-341.328 -490.966 0.
-260.031 -376.309 0.
-471.726 -638.875 0.
-485.129 -690.464 0.
-390.235 -480.044 0.
-375.299 -448.043 0.
-361.22 -419.081 0.
-392.931 -594.469 0.
-366.906 -532.322 0.
-333.897 -479.22 0.
-354.282 -466.947 0.
-317.9 -432.554 0.
-266.739 -414.608 0.
-314.68 -429.623 0.
-336.941 -435.737 0.
-455.108 -548.785 0.
-472.963 -476.565 0.
-413.585 -473.663 0.
-193.591 -403.835 0.
-286.67 -422.245 0.
-334.172 -486.773 0.
-349.264 -461.47 0.
-386.464 -491.08 0.
-407.493 -536.827 0.
-344.322 -428.602 0.
-353.02 -444.445 0.
-362.276 -461.564 0.
-435.3 -660.113 0.
-443.499 -639.137 0.
-255.662 -360.646 0.
-312.624 -474.236 0.
-383.555 -648.343 0.
-340.064 -654.05 0.
-367.978 -671.178 0.
-403.477 -682.34 0.
-390.844 -638.446 0.
-359.946 -561.496 0.
-348.38 -536.256 0.
-672.445 -1003.3 0.
-738.623 -1093.42 0.
-437.243 -744.89 0.
-469.322 -728.267 0.
-516.66 -740.344 0.
-294.537 -619.529 0.
-348.788 -736.451 0.
-421.237 -836.467 0.
-114.484 -271.09 0.
-392.076 -1062.28 0.
-912.703 -2346.13 0.
-340.012 -811.964 0.
-770.35 -1641 0.
-1287.69 -2423.57 0.
-746.996 -1548.32 0.
-2111.38 -4098.69 0.
-0.293809 -0.761521 0.
-90.79 -200.875 0.
-2249.32 -4528.7 0.
-0.728982 -14.2362 0.
-75.2199 -173.704 0.
-1582.97 -3394.78 0.
-1.85887 -22.162 0.
-1080.05 -2511.69 0.
3.81447 10.2954 0.
10.4547 28.2341 0.
-35.1922 -95.082 0.
-84.7882 -227.93 0.
-169.36 -457.792 0.
12.4116 33.4085 0.
-0.48714 -34.5465 0.
-3.48706 -8.30838 0.
1.38558 3.41947 0.
-18.62 -42.4483 0.
6.03142 14.3927 0.
1.04266 2.62984 0.
-0.116957 -0.27333 0.
2.77959 7.04193 0.
-0.00193327 -0.429303 0.
-126.103 -281.459 0.
0.0737866 0.631334 0.
-124.467 -290.207 0.
-83.9368 -217.127 0.
-93.442 -250.815 0.
-305.358 -844.634 0.
-136.214 -371.365 0.
-99.5092 -274.283 0.
-291.215 -548.804 0.
-289.08 -540.622 0.
-314.493 -615.376 0.
-473.719 -753.419 0.
-420.066 -710.152 0.
-365.925 -683.55 0.
-714.137 -1086.77 0.
-668.611 -998.226 0.
-277.176 -442.946 0.
-326.088 -511.741 0.
-352.788 -603.428 0.
-453.419 -663.55 0.
-410.665 -610.853 0.
-365.099 -561.966 0.
-401.405 -578.436 0.
-318.52 -461.968 0.
-230.228 -352.204 0.
-502.496 -641.662 0.
-528.489 -695.502 0.
-437.854 -495.702 0.
-424.064 -462.765 0.
-412.698 -432.239 0.
-473.356 -567.879 0.
-449.349 -522.752 0.
-411.079 -505.995 0.
-378.689 -465.68 0.
-332.131 -443.44 0.
-280.746 -425.431 0.
-281.583 -434.201 0.
-293.725 -453.619 0.
-487.182 -556.734 0.
-393.589 -449.203 0.
-337.898 -443.04 0.
-200.283 -412.696 0.
-293.253 -430.615 0.
-370.916 -464.432 0.
-408.796 -480.991 0.
-428.751 -500.633 0.
-457.289 -537.959 0.
-418.741 -456.941 0.
-436.778 -462.75 0.
-435.702 -489.686 0.
-446.937 -662.586 0.
-440.253 -643.554 0.
-271.461 -363.059 0.
-326.054 -478.794 0.
-402.129 -650.155 0.
-297.908 -527.922 0.
-363.164 -505.626 0.
-402.379 -508.094 0.
-362.687 -632.256 0.
-333.258 -558.525 0.
-307.201 -483.766 0.
-705.689 -1000.47 0.
-784.629 -1082.83 0.
-339.377 -576.35 0.
-350.123 -581.176 0.
-393.989 -587.335 0.
-212.316 -412.408 0.
-184.779 -363.455 0.
-237.149 -459.232 0.
-66.4876 -183.614 0.
-158.21 -436.578 0.
-409.082 -1128.56 0.
-188.666 -427.403 0.
-72.8909 -152.7 0.
-0.301235 -1.68195 0.
-21.6021 -59.689 0.
-125.448 -310.068 0.
-6.41087e-05 -0.5603 0.
2.70947 7.09654 0.
-3.82378 -9.26197 0.
-0.413046 -11.7265 0.
-1.17496 -19.3177 0.
8.08095 18.5389 0.
1.60905 3.98392 0.
12.2039 30.1553 0.
-4.40656 -11.9396 0.
-6.44648 -17.4743 0.
-102.301 -277.353 0.
3.85797 10.6212 0.
7.1788 19.4935 0.
-0.098112 -0.266697 0.
-3.79754 -10.3337 0.
-279.519 -771.864 0.
3.57887 9.85673 0.
-850.726 -2227.16 0.
-147.126 -391.962 0.
5.26441 14.2299 0.
-1385.74 -3630.34 0.
-54.792 -147.61 0.
-0.0547358 -0.149959 0.
-1851.15 -4468.32 0.
-125.777 -327.765 0.
-1418.91 -2883.22 0.
-754.76 -1616.91 0.
-133.52 -306.884 0.
-1414.86 -3257.13 0.
-713.482 -1816.74 0.
-112.495 -308.143 0.
-1065.5 -2111 0.
-739.468 -1516.7 0.
-421.748 -914.505 0.
-747.163 -1210.2 0.
-628.541 -1063.98 0.
-564.01 -1018.94 0.
-926.661 -1570.91 0.
-846.538 -1498.19 0.
-560.052 -1068.18 0.
-542.529 -1030.85 0.
-526.155 -994.217 0.
-595.476 -1026.64 0.
-565.747 -999.537 0.
-542.444 -966.013 0.
-713.624 -1129.73 0.
-677.901 -1078.07 0.
-645.183 -1023.4 0.
-949.241 -1457.88 0.
-862.911 -1327.03 0.
-693.397 -928.135 0.
-665.304 -861.149 0.
-638.488 -792.477 0.
-651.584 -891.487 0.
-615.713 -821.308 0.
-583.746 -758.533 0.
-571.421 -766.43 0.
-578.231 -783.97 0.
-586.194 -800.355 0.
-533.651 -898.526 0.
-512.222 -849.026 0.
-667.691 -936.006 0.
-620.916 -898.338 0.
-642.303 -943.377 0.
-555.603 -873.695 0.
-536.978 -837.894 0.
-518.866 -801.581 0.
-459.011 -643.814 0.
-535.958 -738.359 0.
-588.197 -876.472 0.
-672.902 -814.94 0.
-693.661 -862.866 0.
-716.433 -908.78 0.
-819.712 -1299.15 0.
-906.461 -1460.8 0.
-653.105 -1097.89 0.
-718.735 -1243.18 0.
-789.84 -1391.1 0.
-637.157 -1088.72 0.
-608.382 -1055.94 0.
-581.251 -1021.52 0.
-508.172 -1114.3 0.
-537.004 -1122.3 0.
-566.34 -1131.92 0.
-825.325 -1415.98 0.
-918.323 -1495.78 0.
-483.974 -868.3 0.
-594.409 -1051.99 0.
-779.912 -1364.21 0.
-371.182 -942.991 0.
-749.55 -1726.22 0.
-1167.46 -2490.96 0.
-91.1098 -242.636 0.
-655.56 -1757.96 0.
-1374.97 -3372.81 0.
-97.6428 -211.909 0.
-622.042 -1341.88 0.
-1243.85 -2622 0.
-99.2361 -265.134 0.
-1788.76 -4405.04 0.
-0.766551 -2.00701 0.
-33.0738 -85.7814 0.
-1328.49 -3427.5 0.
-0.19975 -15.2418 0.
-36.7752 -98.7322 0.
-687.84 -1844.24 0.
-2.90124 -8.00865 0.
-31.7743 -87.7012 0.
-0.0825209 -32.0026 0.
2.17297 5.97124 0.
13.9264 38.197 0.
7.25824 20.0194 0.
-60.8242 -164.893 0.
12.5496 34.0628 0.
-9.59787 -26.0789 0.
-203.257 -562.804 0.
0.810512 2.24485 0.
-241.91 -640.381 0.
6.95107 18.671 0.
3.93189 10.6956 0.
-96.8339 -263.484 0.
0.341317 0.939544 0.
3.62755 10.0469 0.
-186.796 -496.999 0.
-3.03579 -8.27744 0.
-121.706 -291.122 0.
-32.4418 -83.3979 0.
-22.2407 -58.7188 0.
-371.061 -972.786 0.
-60.2895 -162.903 0.
-44.0957 -122.119 0.
-447.622 -1143.37 0.
-206.901 -500.326 0.
-155.553 -364.076 0.
-456.754 -714.38 0.
-373.942 -599.013 0.
-294.258 -485.786 0.
-696.791 -1346.78 0.
-644.047 -1320.32 0.
-444.969 -949.598 0.
-431.691 -927.975 0.
-426.877 -919.078 0.
-539.712 -884.639 0.
-514.929 -856.63 0.
-490.458 -843.236 0.
-631.564 -937.936 0.
-600.598 -893.581 0.
-568.94 -850.233 0.
-744.447 -1226.24 0.
-666.272 -1112.22 0.
-712.358 -894.219 0.
-680.34 -831.278 0.
-648.875 -768.27 0.
-603.891 -738.502 0.
-580.078 -674.003 0.
-535.573 -653.437 0.
-543.991 -692.146 0.
-546.519 -710.705 0.
-551.526 -731.135 0.
-497.025 -854.182 0.
-475.187 -804.603 0.
-490.557 -826.152 0.
-628.724 -810.692 0.
-681.976 -823.174 0.
-558.592 -812.616 0.
-513.661 -738.479 0.
-487.707 -693.826 0.
-338.703 -590.981 0.
-433.935 -631.815 0.
-532.409 -701.123 0.
-556.864 -735.907 0.
-576.06 -774.888 0.
-604.289 -825.099 0.
-676.486 -1146.27 0.
-764.176 -1281.32 0.
-607.211 -981.184 0.
-649.906 -1079.5 0.
-711.913 -1214.37 0.
-561.819 -1004.48 0.
-539.056 -964.5 0.
-522.657 -924.877 0.
-386.718 -974.698 0.
-389.061 -942.918 0.
-408.193 -944.115 0.
-639.102 -1184.79 0.
-682.148 -1210.99 0.
-196.997 -273.673 0.
-316.608 -564.995 0.
-452.143 -839.554 0.
-128.241 -308.647 0.
-150.249 -358.001 0.
-450.449 -1145.1 0.
-86.5925 -234.809 0.
-84.7471 -227.284 0.
-294.419 -814.479 0.
-129.316 -276.38 0.
-95.6868 -209.518 0.
-109.486 -240.4 0.
2.49083 6.89897 0.
-6.49208 -17.3506 0.
1.35284 3.62114 0.
-0.257773 -14.1425 0.
-257.518 -677.174 0.
-0.153202 -18.3871 0.
-0.0834169 -0.226379 0.
-325.328 -881.527 0.
-2.95454 -8.18304 0.
-136.924 -379.201 0.
-5.79747 -15.9181 0.
-4.4713 -12.2522 0.
9.74554 26.6477 0.
6.78046 18.7305 0.
-218.536 -591.555 0.
-19.05 -51.6248 0.
-38.4411 -104.293 0.
-305.265 -838.186 0.
0.755852 2.07598 0.
-3.25872 -8.70051 0.
0.840215 2.27241 0.
4.19487 11.4671 0.
-24.1155 -66.5401 0.
-2.91344e-05 -12.1524 0.
-0.0288575 -14.1564 0.
0.736445 2.0041 0.
-0.00792149 -7.48602 0.
-35.4264 -91.7223 0.
-22.3144 -58.9814 0.
-14.0045 -37.7607 0.
-33.2652 -91.8045 0.
-15.7278 -43.2183 0.
-6.22242 -16.3612 0.
-160.513 -404.472 0.
-133.71 -347.773 0.
-118.858 -311.473 0.
-446.083 -737.592 0.
-484.161 -908.312 0.
-250.719 -313.608 0.
-729.863 -1462.81 0.
-423.283 -806.932 0.
-213.722 -454.366 0.
-403.898 -804.899 0.
-390.385 -776.718 0.
-606.308 -836.456 0.
-293.419 -565.793 0.
-319.033 -650.942 0.
-643.074 -859.163 0.
-464.311 -605.185 0.
-390.926 -542.931 0.
-534.777 -907.51 0.
-437.238 -619.005 0.
-332.028 -498.632 0.
-290.341 -436.52 0.
-270.702 -428.957 0.
-256.961 -368.745 0.
-237.913 -330.021 0.
-219.349 -289.536 0.
-270.906 -373.605 0.
-298.86 -410.971 0.
-285.131 -380.864 0.
-266.444 -397.357 0.
-308.775 -501.243 0.
-519.038 -710.989 0.
-449.128 -562.663 0.
-429.602 -500.19 0.
-265.374 -392.578 0.
-265.8 -376.888 0.
-496.424 -444.746 0.
-233.594 -240.665 0.
-230.239 -235.311 0.
-233.505 -247.648 0.
-199.53 -331.487 0.
-228.139 -394.898 0.
-278.707 -492.867 0.
-500.133 -756.965 0.
-575.233 -931.662 0.
-336.84 -513.478 0.
-615.042 -817.283 0.
-289.922 -447.678 0.
-259.538 -488.894 0.
-371.518 -509.854 0.
-224.707 -415.312 0.
-221.32 -434.125 0.
-426.303 -886.896 0.
-374.251 -793.063 0.
-336.565 -400.253 0.
-676.922 -1191.2 0.
-114.504 -191.995 0.
-179.456 -285.463 0.
-295.337 -575.812 0.
-100.036 -263.355 0.
-102.967 -263.969 0.
-107.362 -267.539 0.
-83.0131 -224.879 0.
-81.4861 -218.8 0.
-85.5635 -229.488 0.
-237.659 -474.734 0.
-172.651 -370.799 0.
-118.304 -267.73 0.
2.15259 5.89675 0.
4.05644 11.1922 0.
-0.0599312 -0.162995 0.
-0.0744765 -0.201073 0.
-32.6307 -87.4345 0.
-1.43011 -3.9169 0.
-2.80258 -7.66985 0.
-81.5298 -222.899 0.
-0.0208365 -29.0048 0.
-427.442 -1182.34 0.
-0.118088 -0.323225 0.
9.85848 26.923 0.
-131.802 -359.189 0.
7.67105 20.3539 0.
5.40299 13.7205 0.
-0.659564 -25.2442 0.
10.6384 28.3695 0.
-34.8593 -94.1854 0.
-4.29562 -11.6303 0.
-405.329 -1108.7 0.
-20.4277 -55.7089 0.
1.09231 2.96923 0.
-755.081 -2048.33 0.
-25.4812 -69.6634 0.
-4.56598 -12.5752 0.
-1467.84 -3965.45 0.
-4.61846 -12.6055 0.
-1409.41 -3165.94 0.
-702.324 -1693.85 0.
-115.045 -300.474 0.
-1506.13 -3926.18 0.
-608.979 -1653.21 0.
-40.0278 -110.757 0.
-1242.55 -3104.98 0.
-607.863 -1640.24 0.
-62.3483 -170.804 0.
-919.845 -2206.96 0.
-509.919 -1194.1 0.
-245.142 -470.625 0.
-710.629 -1456.75 0.
-583.928 -1205.24 0.
-462.54 -901.201 0.
-400.255 -831.404 0.
-348.891 -758.04 0.
-533.837 -867.64 0.
-507.443 -826.459 0.
-477.624 -792.096 0.
-552.545 -732.02 0.
-511.822 -660.474 0.
-462.003 -599.399 0.
-553.853 -883.127 0.
-505.956 -784.864 0.
-477.545 -561.676 0.
-413.62 -500.058 0.
-368.645 -469.892 0.
-304.437 -435.726 0.
-330.884 -419.26 0.
-360.408 -410.353 0.
-384.223 -416.37 0.
-404.596 -446.737 0.
-436.283 -491.062 0.
-440.639 -591.778 0.
-446.648 -606.576 0.
-437.999 -652.836 0.
-630.277 -631.616 0.
-655.272 -563.052 0.
-417.461 -481.516 0.
-485.855 -472.568 0.
-514.161 -502.163 0.
-420.399 -457.725 0.
-413.283 -431.127 0.
-374.666 -433.463 0.
-423.433 -477.717 0.
-403.078 -528.194 0.
-382.944 -593.876 0.
-581.272 -869.795 0.
-609.067 -914.421 0.
-452.544 -603.954 0.
-497.274 -680.869 0.
-539.591 -758.484 0.
-468.262 -700.56 0.
-534.221 -819.172 0.
-598.456 -936.859 0.
-364.106 -829.438 0.
-455.971 -1011.48 0.
-549.454 -1194.18 0.
-704.098 -1507.39 0.
-890.65 -1910.03 0.
-224.184 -579.207 0.
-520.814 -1396.76 0.
-981.816 -2491.53 0.
-36.2518 -93.079 0.
-596.754 -1620.87 0.
-1305.78 -3317.96 0.
-86.4717 -239.423 0.
-494.297 -1319.92 0.
-1403.49 -3529.76 0.
-375.921 -940.398 0.
-1532.79 -3437.79 0.
-318.307 -872.115 0.
-52.8968 -144.738 0.
-1011.44 -2769.08 0.
-109.813 -300.496 0.
-131.865 -359.935 0.
-563.287 -1534.31 0.
3.18078 8.73321 0.
-44.0133 -121.031 0.
-388.841 -1070.79 0.
-0.19467 -20.5655 0.
2.32741 6.27399 0.
9.99494 26.4066 0.
-0.79075 -25.2398 0.
3.26673 8.17089 0.
7.7256 20.6474 0.
8.78269 22.1474 0.
-3.94378 -10.2356 0.
1.82911 4.86525 0.
-565.816 -1516.8 0.
-0.541358 -1.45421 0.
-543.745 -1497.3 0.
-34.6757 -95.3079 0.
-2.979 -8.1719 0.
-493.656 -1346.57 0.
5.4996 15.0964 0.
6.17016 17.0344 0.
-36.6005 -100.846 0.
-1.0967 -3.03762 0.
3.51655 9.66188 0.
-20.001 -50.9819 0.
-0.364634 -0.966849 0.
-440.531 -1212.57 0.
-66.1298 -182.827 0.
-13.7616 -38.117 0.
-312.579 -857.637 0.
-45.2826 -122.527 0.
-8.07305 -21.4644 0.
-496.979 -1315.85 0.
-159.314 -372.017 0.
-165.636 -388.216 0.
-568.896 -1180.62 0.
-457.141 -918.434 0.
-391.452 -715.87 0.
-358.895 -619.125 0.
-325.513 -527.052 0.
-492.396 -736.471 0.
-469.999 -693.788 0.
-404.774 -694.5 0.
-484.852 -688.465 0.
-459.611 -602.946 0.
-426.432 -549.61 0.
-614.554 -905.223 0.
-567.774 -808.708 0.
-337.778 -521.99 0.
-276.283 -457.03 0.
-234.005 -395.21 0.
-291.157 -431.639 0.
-303.763 -409.404 0.
-311.916 -391.3 0.
-346.291 -398.868 0.
-381.193 -435.249 0.
-411.542 -479.731 0.
-499.566 -604.201 0.
-506.048 -620.413 0.
-472.069 -670.475 0.
-707.485 -671.633 0.
-733.417 -602.457 0.
-366.745 -469.822 0.
-436.809 -458.625 0.
-498.738 -455.765 0.
-371.661 -406.482 0.
-348.961 -392.263 0.
-307.051 -402.366 0.
-325.243 -444.674 0.
-305.992 -496.591 0.
-315.596 -571.816 0.
-647.008 -892.976 0.
-674.611 -936.874 0.
-350.823 -534.535 0.
-438.916 -568.809 0.
-480.317 -656.241 0.
-396.585 -586.109 0.
-486.991 -677.498 0.
-548.136 -804.594 0.
-306.016 -664.19 0.
-389.664 -854.523 0.
-480 -1042.31 0.
-472.712 -1132.45 0.
-633.505 -1561.49 0.
-178.942 -458.804 0.
-151.424 -376.454 0.
-458.733 -1221.56 0.
-2.77571 -7.19505 0.
-55.9401 -146.504 0.
-269.652 -746.889 0.
-0.306598 -0.848447 0.
-6.73114 -18.0785 0.
-279.91 -741.33 0.
-0.0603304 -4.23095 0.
-207.803 -537.745 0.
0.0551008 0.152354 0.
-84.721 -233.806 0.
-280.698 -773.454 0.
-11.2054 -30.884 0.
-24.5227 -67.4652 0.
-495.792 -1359.16 0.
-18.2879 -50.1183 0.
-51.192 -140.55 0.
-604.121 -1663.74 0.
-3.30671 -8.81821 0.
-330.407 -877.274 0.
-0.218903 -0.581609 0.
-2.75854 -7.15036 0.
6.11129 15.3578 0.
-7.40466 -19.9377 0.
-290.073 -725.607 0.
6.09915 15.0345 0.
1.7087 4.23723 0.
8.11357 20.1249 0.
5.87218 14.7106 0.
-100.998 -277.847 0.
-13.6292 -37.4934 0.
-0.226165 -0.622288 0.
-236.54 -653.929 0.
-2.34289 -6.47985 0.
-3.13336 -8.66701 0.
-615.794 -1700.15 0.
-105.373 -290.078 0.
-1.3165 -3.60393 0.
-1217.11 -3251.76 0.
-101.819 -273.706 0.
-996.167 -2671.45 0.
-310.835 -857.121 0.
-42.0643 -116.412 0.
-1216.04 -3225.76 0.
-392.231 -1085.99 0.
-71.9621 -177.529 0.
-1122.42 -2839.67 0.
-528.759 -1382.2 0.
-129.18 -299.362 0.
-1034.1 -2183 0.
-738.512 -1574.76 0.
-653.874 -1298.28 0.
-522.587 -993.928 0.
-396.35 -699.512 0.
-501.94 -782.829 0.
-477.462 -775.202 0.
-454.267 -766.522 0.
-603.397 -808.73 0.
-583.655 -755.701 0.
-564.452 -707.619 0.
-767.453 -1191.15 0.
-751.513 -1164.71 0.
-660.537 -834.059 0.
-652.285 -809.987 0.
-649.797 -801.083 0.
-756.254 -889.552 0.
-684.72 -868.83 0.
-616.744 -854.87 0.
-685.885 -830.33 0.
-629.591 -685.183 0.
-510.314 -604.827 0.
-660.413 -841.373 0.
-649.18 -811.654 0.
-847.601 -827.224 0.
-793.583 -736.384 0.
-850.004 -790.265 0.
-592.714 -682.106 0.
-652.677 -810.931 0.
-708.792 -951.226 0.
-526.785 -794.018 0.
-555.487 -822.424 0.
-575.873 -875.332 0.
-596.627 -841.444 0.
-590.515 -833.003 0.
-584.958 -824.2 0.
-775.266 -1215.74 0.
-815.382 -1317.25 0.
-491.828 -753.651 0.
-498.992 -770.829 0.
-512.715 -808.232 0.
-428.542 -709.1 0.
-480.401 -809.585 0.
-538.427 -908.674 0.
-352.443 -705.618 0.
-506.297 -1066.54 0.
-667.315 -1430.82 0.
-581.813 -1544.83 0.
-947.628 -2312.3 0.
-124.494 -283.546 0.
-476.037 -1246.3 0.
-1172.02 -3008.16 0.
-92.5042 -247.529 0.
-350.51 -968.633 0.
-1245.3 -3285.55 0.
-56.3449 -154.337 0.
-389.646 -1025.73 0.
-1172.26 -3006.17 0.
0.591929 1.63249 0.
-953.958 -2638.36 0.
2.49696 6.76531 0.
-79.9926 -218.251 0.
-473.578 -1300.86 0.
5.63394 15.4923 0.
-0.797867 -2.19626 0.
-119.405 -329.209 0.
-0.898185 -2.48578 0.
-114.914 -317.386 0.
-199.248 -511.08 0.
4.53046 11.3034 0.
6.03296 15.0283 0.
6.02048 15.6336 0.
-60.6373 -158.17 0.
-109.963 -277.933 0.
-0.248826 -24.9208 0.
-13.2559 -32.3455 0.
-0.863027 -2.11867 0.
-5.9317 -14.6504 0.
-1.27006 -3.12818 0.
9.87045 24.5622 0.
-126.782 -347.809 0.
-19.3491 -53.0793 0.
-2.33073 -6.39478 0.
-299.55 -825.568 0.
0.700405 1.93157 0.
-3.26452 -9.00311 0.
-390.999 -1075.06 0.
-0.293643 -0.802953 0.
-0.124947 -13.8339 0.
-554.894 -1526.96 0.
3.29173 9.09653 0.
-426.088 -1171 0.
-17.2463 -47.7672 0.
0.0118614 1.6794 0.
-479.207 -1325.12 0.
-50.3647 -133.781 0.
-34.5703 -83.7246 0.
-474.551 -1280.17 0.
-125.412 -322.633 0.
-112.457 -288.574 0.
-587.696 -1353.71 0.
-357.121 -702.84 0.
-435.536 -942.091 0.
-305.96 -634.199 0.
-189.758 -325.909 0.
-400.414 -663.389 0.
-368.696 -632.061 0.
-340.285 -602.86 0.
-525.876 -738.608 0.
-493.195 -701.948 0.
-472.679 -662.936 0.
-713.016 -1129.03 0.
-699.092 -1104.74 0.
-595.1 -722.387 0.
-587.855 -725.972 0.
-610.516 -776.345 0.
-713.556 -871.54 0.
-650.529 -858.324 0.
-587.578 -846.309 0.
-580.928 -783.534 0.
-531.531 -644.865 0.
-481.874 -590.849 0.
-654.343 -709.191 0.
-635.617 -668.723 0.
-631.863 -687.555 0.
-692.671 -705.633 0.
-773.111 -733.955 0.
-595.852 -680.974 0.
-639.831 -754.267 0.
-708.243 -858.103 0.
-522.188 -795.891 0.
-564.556 -808.685 0.
-580.106 -849.27 0.
-574.519 -836.237 0.
-561.049 -782.396 0.
-567.206 -761.654 0.
-666.413 -1127.58 0.
-705.799 -1224.46 0.
-370.106 -668.23 0.
-385.253 -677.094 0.
-404.174 -683.593 0.
-320.869 -561.203 0.
-376.66 -661.012 0.
-431.034 -759.505 0.
-134.86 -279.904 0.
-250.889 -599.969 0.
-397.399 -977.925 0.
-203.671 -465.423 0.
-510.499 -1290.87 0.
-84.9932 -216.367 0.
-115.711 -316.265 0.
-467.043 -1292.12 0.
-48.6037 -129.743 0.
-61.0782 -168.752 0.
-474.989 -1303.04 0.
0.000183882 1.28186 0.
-24.8719 -67.9522 0.
-569.28 -1514.42 0.
-0.0109104 -9.7162 0.
-400.075 -1105.37 0.
3.96866 10.7261 0.
-34.238 -93.1881 0.
-424.41 -1162.11 0.
5.01013 13.7294 0.
-0.301276 -0.826704 0.
-198.007 -544.849 0.
-63.9113 -176.335 0.
-157.954 -434.304 0.
-12.8753 -32.0613 0.
-4.55347 -11.3214 0.
4.5257 11.2349 0.
9.31801 24.03 0.
-6.59672 -16.7978 0.
-15.2225 -38.2611 0.
-135.099 -366.753 0.
-43.227 -105.011 0.
-1.9523 -4.77232 0.
-85.5049 -210.156 0.
-376.24 -918.886 0.
-22.2565 -54.9904 0.
-527.651 -1443.12 0.
-56.1193 -153.435 0.
-4.43784 -12.1353 0.
-404.067 -1108.81 0.
-18.3781 -50.4562 0.
5.75931 15.8108 0.
-192.307 -525.375 0.
3.05961 8.2909 0.
4.2993 11.5227 0.
-31.9916 -88.6011 0.
1.03437 2.84797 0.
-2.06704e-05 -1.36477 0.
2.7281 7.46279 0.
-0.174079 -6.37682 0.
-34.447 -94.8869 0.
-12.5628 -32.9176 0.
-0.447001 -4.06616 0.
-127.769 -348.906 0.
-113.212 -303.753 0.
-103.324 -271.544 0.
-330.657 -559.291 0.
-305.82 -476.416 0.
-271.448 -459.451 0.
-187.31 -240.422 0.
-156.21 -166.9 0.
-285.771 -423.908 0.
-216.129 -422.443 0.
-197.815 -381.839 0.
-282.232 -393.433 0.
-260.656 -386.071 0.
-191.356 -355.359 0.
-424.649 -499.527 0.
-406.7 -511.287 0.
-139.29 -177.354 0.
-144.275 -188.196 0.
-150.569 -201.971 0.
-178.573 -227.697 0.
-183.809 -241.265 0.
-190.677 -265.297 0.
-93.7109 -249.162 0.
-107.089 -296.618 0.
-132.646 -366.759 0.
-282.177 -506.792 0.
-293.39 -528.309 0.
-283.822 -551.192 0.
-286.208 -553.389 0.
-286.168 -515.903 0.
-179.727 -423.848 0.
-161.946 -357.949 0.
-179.228 -306.132 0.
-137.278 -256.268 0.
-144.403 -255.013 0.
-151.375 -263.999 0.
-250.107 -253.061 0.
-246.013 -243.053 0.
-241.84 -232.797 0.
-324.057 -471.165 0.
-359.267 -544.434 0.
-126.019 -309.463 0.
-210.616 -451.215 0.
-248.458 -589.665 0.
-205.998 -281.662 0.
-293.171 -522.137 0.
-417.042 -645.451 0.
-124.05 -248.485 0.
-128.725 -262.861 0.
-186.289 -422.2 0.
-199.876 -396.027 0.
-225.533 -453.237 0.
-73.3736 -173.725 0.
-97.0015 -251.184 0.
-126.663 -343.646 0.
-5.84535 -15.4352 0.
-16.7966 -46.3759 0.
-32.2911 -88.9325 0.
3.415 9.27236 0.
1.99346e-06 0.433565 0.
0.289988 0.794879 0.
1.13564 3.06083 0.
-30.2291 -82.1376 0.
-0.509895 -1.37461 0.
3.00966 8.17438 0.
-376.164 -1026.78 0.
6.3864 17.4296 0.
6.35397 17.369 0.
-452.372 -1243.74 0.
-118.088 -323.974 0.
-226.132 -617.338 0.
-240.059 -595.282 0.
-5.11971 -12.6847 0.
9.42716 23.3202 0.
-140.497 -359.347 0.
-41.2959 -104.255 0.
-68.4094 -170.347 0.
-1.85628 -20.0457 0.
0.357299 0.697123 0.
-2.85145 -18.9479 0.
4.85352 10.5421 0.
3.88593 8.53615 0.
-0.479361 -1.08129 0.
-41.2477 -107.408 0.
-4.38593 -11.5725 0.
-2.82066 -7.53552 0.
-88.8259 -240.031 0.
-20.6923 -56.0062 0.
1.38287 3.74745 0.
-302.828 -822.455 0.
-26.6532 -72.5958 0.
-25.0913 -68.5019 0.
-908.13 -2515.09 0.
-33.0666 -91.5323 0.
-925.113 -2498.01 0.
-387.941 -1066.53 0.
-64.1531 -177.683 0.
-1040.35 -2812.98 0.
-365.673 -1009.2 0.
-15.1533 -41.7828 0.
-1198.62 -3265.19 0.
-448.284 -1241.47 0.
-61.9615 -167.059 0.
-1106.65 -2747.63 0.
-597.96 -1425.94 0.
-794.588 -1994.41 0.
-533.862 -1322.42 0.
-287.959 -639.418 0.
-641.777 -1412.15 0.
-453.801 -999.993 0.
-283.776 -566.485 0.
-505.033 -688.57 0.
-413.332 -487.111 0.
-251.748 -400 0.
-522.841 -826.409 0.
-496.183 -771.776 0.
-355.71 -280.244 0.
-361.171 -283.173 0.
-378.554 -324.449 0.
-439.992 -385.023 0.
-425.496 -347.301 0.
-379.299 -344.841 0.
-357.551 -349 0.
-325.12 -396.891 0.
-282.76 -460.369 0.
-385.216 -556.251 0.
-361.014 -585.909 0.
-398.522 -636.416 0.
-406.5 -603.958 0.
-423.751 -573.561 0.
-344.292 -499.13 0.
-412.47 -459.38 0.
-479.886 -421.9 0.
-335.842 -366.028 0.
-345.323 -360.487 0.
-349.436 -353.889 0.
-374.619 -404.223 0.
-379.02 -415.984 0.
-385.666 -440.387 0.
-476.376 -846.043 0.
-525.829 -924.109 0.
-240.702 -411.393 0.
-371.851 -661.364 0.
-493.417 -921.725 0.
-287.786 -636.22 0.
-463.436 -1123.64 0.
-669.857 -1589.98 0.
-224.905 -583.747 0.
-503.267 -1393.96 0.
-815.705 -2185.69 0.
-531.863 -1346.59 0.
-1148.93 -2963.01 0.
-50.6001 -137.902 0.
-413.547 -1145.45 0.
-1223.6 -3320.44 0.
-16.5692 -45.8786 0.
-369.35 -1009.12 0.
-1063.14 -2858.23 0.
-13.766 -38.1175 0.
-358.573 -985.518 0.
-861.868 -2340.22 0.
-38.3422 -104.819 0.
-690.86 -1899.67 0.
1.06867 2.92918 0.
-21.465 -58.5284 0.
-208.014 -563.371 0.
-4.67919 -12.583 0.
4.74409 12.6784 0.
-17.7131 -47.043 0.
-131.464 -345.443 0.
-167.819 -438.351 0.
5.6402 13.2006 0.
11.6982 26.4261 0.
-2.66129 -22.62 0.
4.1807 9.0955 0.
-3.3704 -21.4996 0.
-3.33038 -16.3756 0.
1.63621 3.64166 0.
7.85802 15.1799 0.
9.44631 19.353 0.
6.60391 14.3156 0.
7.7139 16.8894 0.
-286.059 -640.77 0.
-362.013 -871.158 0.
-151.864 -398.898 0.
-24.1098 -64.0679 0.
-660.858 -1772.31 0.
-152.945 -411.468 0.
-66.7616 -179.912 0.
-642.072 -1738.92 0.
-126.31 -343.551 0.
-57.6111 -157.096 0.
-611.714 -1690.56 0.
-13.9957 -38.4885 0.
-481.739 -1324.7 0.
-9.66917 -26.7787 0.
-1.85348 -5.11067 0.
-450.439 -1239.83 0.
-0.935774 -2.58573 0.
1.46379 3.9732 0.
-464.842 -1287.21 0.
-51.4125 -141.245 0.
-34.5768 -91.3382 0.
-578.682 -1429.13 0.
-224.034 -450.65 0.
-456.564 -1253.41 0.
-212.317 -562.933 0.
-163.415 -400.226 0.
-498.289 -1028.55 0.
-341.053 -584.132 0.
-167.477 -359.583 0.
-477.206 -574.861 0.
-339.321 -424.993 0.
-326.281 -432.019 0.
-496.235 -771.061 0.
-457.755 -732.669 0.
-275.186 -240.845 0.
-238.892 -238.232 0.
-259.41 -248.272 0.
-409.318 -352.817 0.
-379.877 -331.473 0.
-325.489 -335.544 0.
-317.938 -346.931 0.
-290.106 -392.501 0.
-247.793 -452.206 0.
-346.12 -542.217 0.
-325.396 -572.471 0.
-373.245 -628.481 0.
-360.432 -588.108 0.
-402.023 -567.541 0.
-247.905 -461.175 0.
-311.083 -430.314 0.
-367.968 -406.076 0.
-339.147 -360.488 0.
-366.308 -344.603 0.
-376.05 -347.453 0.
-259.141 -299.47 0.
-279.421 -301.332 0.
-301.318 -317.589 0.
-480.108 -791.931 0.
-523.979 -862.949 0.
-277.315 -429.744 0.
-340.231 -509.421 0.
-464.28 -768.754 0.
-189.04 -486.271 0.
-242.11 -620.444 0.
-413.436 -1115.72 0.
-148.007 -395.36 0.
-152.247 -414.296 0.
-441.121 -1220.97 0.
-168.475 -399.185 0.
-542.588 -1434.77 0.
-18.2307 -48.9551 0.
-42.9198 -118.426 0.
-462.336 -1280.59 0.
-0.0184773 -6.95292 0.
-0.37525 -1.03899 0.
-499.391 -1364.67 0.
0.0969998 0.268414 0.
-0.726323 -2.01173 0.
-450.993 -1240.31 0.
-27.974 -75.7556 0.
-581.752 -1586.72 0.
-46.4098 -126.839 0.
-99.5307 -270.388 0.
-650.149 -1746.24 0.
1.36234 3.67233 0.
-159.58 -428.167 0.
-579.67 -1548.31 0.
-214.593 -555.595 0.
-411.288 -1057.22 0.
-284.646 -664.295 0.
5.01931 11.2311 0.
-2.20111 -17.6622 0.
-3.77402 -8.32385 0.
1.70808 3.5178 0.
-4.27229 -21.2673 0.
6.09801 13.2 0.
9.5624 18.2529 0.
8.08581 16.4483 0.
-249.919 -539.821 0.
-169.479 -367.716 0.
3.81895 8.21874 0.
5.21011 11.3562 0.
3.57681 8.90725 0.
4.509 11.3943 0.
-4.0051 -10.311 0.
-0.50453 -16.8152 0.
0.97611 2.53327 0.
-56.28 -147.13 0.
-2.13779 -5.57887 0.
-2.58725 -6.73943 0.
-330.303 -879.434 0.
-17.5031 -46.5374 0.
-530.282 -1467.38 0.
-158.042 -436.086 0.
-27.5813 -75.8408 0.
-768.017 -2126.44 0.
-235.943 -653.491 0.
-0.437692 -1.2058 0.
-959.93 -2656.44 0.
-247.568 -682.117 0.
-16.7869 -44.0913 0.
-1030.8 -2718.83 0.
-340.573 -848.686 0.
-736.094 -1983.8 0.
-374.447 -1035.18 0.
-85.0343 -231.643 0.
-607.038 -1505.14 0.
-389.735 -971.349 0.
-198.551 -429.228 0.
-624.562 -1046.57 0.
-510.867 -776.256 0.
-376.438 -528.479 0.
-625.579 -1221.13 0.
-584.71 -1132.35 0.
-470.871 -645.798 0.
-443.844 -571.894 0.
-427.005 -545.794 0.
-562.73 -632.869 0.
-534.813 -567.031 0.
-506.397 -499.358 0.
-543.334 -457.994 0.
-418.642 -403.9 0.
-306.618 -353.984 0.
-482.126 -408.716 0.
-517.779 -416.001 0.
-600.579 -452.011 0.
-500.994 -411.71 0.
-522.894 -428.135 0.
-349.79 -380.935 0.
-409.288 -391.063 0.
-463.101 -418.963 0.
-440.334 -500.348 0.
-476.197 -579.361 0.
-512.765 -658.492 0.
-382.886 -610.803 0.
-430.389 -701.394 0.
-474.357 -804.354 0.
-600.118 -1174.2 0.
-635.391 -1234.83 0.
-309.351 -488.224 0.
-432.617 -797.459 0.
-560.791 -1107.07 0.
-101.493 -280.979 0.
-329.699 -912.297 0.
-603.07 -1618.5 0.
-72.0877 -190.005 0.
-375.118 -1035.77 0.
-796.721 -2134.44 0.
-246.78 -679.09 0.
-1021.93 -2789.08 0.
-3.67681 -9.88619 0.
-204.188 -563.497 0.
-927.147 -2565.64 0.
-0.00916557 -8.50377 0.
-192.018 -531.818 0.
-703.783 -1948.02 0.
-16.7483 -45.9946 0.
-106.722 -293.494 0.
-443.702 -1223.9 0.
-35.9544 -91.6953 0.
-211.194 -539.856 0.
-1.11262 -2.86615 0.
3.98116 10.2806 0.
-45.2051 -116.964 0.
6.56624 17.2982 0.
-4.03851 -10.5904 0.
5.20138 13.5759 0.
-58.508 -144.737 0.
-67.5946 -165.985 0.
4.7039 10.395 0.
5.07768 11.2372 0.
-6.1889 -13.1404 0.
-173.917 -388.803 0.
1.21261 2.52576 0.
10.1577 19.4728 0.
-1.09092 -10.937 0.
7.99485 15.1449 0.
-2.37332 -14.7078 0.
6.95137 14.9853 0.
6.38412 13.7028 0.
-1.91895 -16.2105 0.
-126.084 -276.543 0.
-15.87 -39.3229 0.
-12.8657 -32.3714 0.
-73.1045 -187.949 0.
-4.50294 -11.6264 0.
2.94132 7.62513 0.
-200.149 -518.672 0.
-31.9346 -82.5805 0.
0.671868 1.73357 0.
-432.672 -1140.01 0.
-24.2278 -63.7202 0.
-443.621 -1225.52 0.
-74.3604 -204.762 0.
-4.75107 -13.0366 0.
-511.54 -1415.37 0.
-29.5381 -81.3799 0.
-1.47308 -4.02146 0.
-522.95 -1443.53 0.
-11.4652 -31.0578 0.
-2.67608 -6.86015 0.
-543.796 -1494.53 0.
-92.6056 -223.027 0.
-391.646 -1084.69 0.
-101.604 -266.103 0.
-59.0342 -157.013 0.
-344.012 -902.408 0.
-148.336 -356.111 0.
-130.568 -299.421 0.
-359.432 -765.938 0.
-277.639 -464.937 0.
-213.565 -449.114 0.
-564.594 -1051.05 0.
-515.473 -976.889 0.
-462.77 -673.656 0.
-438.209 -594.235 0.
-421.733 -549.377 0.
-556.267 -622.939 0.
-528.327 -558.068 0.
-499.555 -489.199 0.
-457.806 -418.131 0.
-362.078 -377.951 0.
-275.048 -339.467 0.
-379.889 -377.815 0.
-375.283 -369.317 0.
-410.513 -381.743 0.
-392.029 -373.596 0.
-407.985 -389.75 0.
-364.051 -384.109 0.
-413.126 -390.562 0.
-454.076 -415.499 0.
-417.983 -459.463 0.
-460.551 -534.316 0.
-495.557 -615.326 0.
-316.568 -590.718 0.
-375.603 -670.738 0.
-418.192 -776.091 0.
-467.205 -953.336 0.
-491.266 -1023.66 0.
-122.274 -316.605 0.
-198.229 -443.152 0.
-311.095 -762.86 0.
-63.3055 -175.332 0.
-83.7156 -231.729 0.
-328.345 -909.285 0.
-37.1813 -90.0258 0.
-72.8091 -185.136 0.
-390.942 -1082.21 0.
-37.7272 -95.521 0.
-542.134 -1500.25 0.
1.44374 3.78675 0.
-4.84497 -13.2346 0.
-543.959 -1502.31 0.
2.92839 8.02065 0.
-43.7966 -120.828 0.
-501.191 -1387.46 0.
1.15265 3.16019 0.
-71.0359 -194.945 0.
-422.565 -1162.69 0.
-44.0232 -111.994 0.
-391.86 -1001.25 0.
4.85854 12.3225 0.
-4.52819 -11.522 0.
-56.7655 -144.87 0.
1.08295 2.85502 0.
-0.233263 -0.612143 0.
-84.9894 -221.651 0.
-82.9334 -203.391 0.
-98.629 -240.087 0.
7.29558 16.3112 0.
4.56329 9.88254 0.
-0.596074 -1.24717 0.
-1.19111 -12.0933 0.
0.472581 1.00388 0.
2.52724 5.04431 0.
-0.964832 -9.79212 0.
-0.158061 -0.299027 0.
2.33213 4.74666 0.
-281.876 -614.647 0.
0.216053 0.468695 0.
-258.302 -564.444 0.
-296.335 -658.783 0.
-143.484 -354.393 0.
-86.9733 -218.06 0.
-436.262 -1119.23 0.
-231.164 -595.98 0.
-48.5977 -125.842 0.
-532.568 -1367.23 0.
-182.555 -467.592 0.
-48.139 -122.968 0.
-537.672 -1400.61 0.
-21.8779 -56.8653 0.
-326.287 -899.339 0.
-19.4765 -53.5298 0.
0.946369 2.5912 0.
-229.977 -633.006 0.
1.54408 4.21553 0.
0.829771 2.23823 0.
-85.4739 -234.86 0.
-0.0382568 -0.101812 0.
2.13198 5.36486 0.
-90.4253 -239.403 0.
-54.3922 -133.526 0.
-122.235 -294.943 0.
-86.4981 -204.156 0.
-56.4799 -140.535 0.
-120.205 -326.553 0.
-110.069 -289.056 0.
-103.643 -257.241 0.
-198.653 -428.606 0.
-126.241 -342.817 0.
-134.852 -365.618 0.
-303.344 -471.267 0.
-267.642 -426.288 0.
-271.661 -434.005 0.
-212.768 -361.844 0.
-212.947 -361.605 0.
-302.947 -420.814 0.
-271.41 -386.151 0.
-229.919 -355.327 0.
-157.639 -297.967 0.
-161.443 -249.359 0.
-163.189 -216.127 0.
-164.29 -211.23 0.
-178.937 -231.202 0.
-225.511 -265.067 0.
-188.604 -237.574 0.
-139.305 -202.513 0.
-134.648 -197.313 0.
-152.817 -232.223 0.
-164.77 -275.254 0.
-196.277 -324.257 0.
-312.183 -393.746 0.
-357.553 -469.012 0.
-215.524 -350.661 0.
-223.67 -390.322 0.
-275.011 -427.829 0.
-281.167 -439.252 0.
-376.542 -653.454 0.
-69.027 -184.543 0.
-83.3537 -223.495 0.
-152.516 -417.54 0.
-56.542 -156.135 0.
-75.7867 -209.368 0.
-96.187 -265.175 0.
-24.8081 -53.742 0.
-49.2112 -108.416 0.
-76.2581 -179.71 0.
-14.5406 -37.2143 0.
-69.6238 -184.885 0.
0.567291 1.45453 0.
1.58115 4.24787 0.
-119.719 -328.645 0.
3.16638 8.56095 0.
-0.299299 -0.817935 0.
-287.055 -790.444 0.
-0.20324 -0.556371 0.
-55.9461 -153.252 0.
-355.34 -974.608 0.
-69.2742 -175.859 0.
-574.458 -1464.84 0.
-19.5779 -48.8447 0.
-244.577 -613.362 0.
-466.22 -1172.48 0.
-90.0741 -237.315 0.
-208.446 -545.035 0.
-325.447 -843.86 0.
-249.31 -605.436 0.
-200.721 -484.184 0.
-178.387 -405.645 0.
-149.884 -329.903 0.
-0.281495 -0.595572 0.
-175.08 -393.079 0.
-2.26123 -4.75986 0.
2.76099 5.42688 0.
-2.76477 -11.7537 0.
-3.41077 -9.73144 0.
-1.99208 -3.3458 0.
5.53717 9.86089 0.
4.48934 8.47773 0.
-2.32769 -4.58579 0.
7.56078 15.5452 0.
-0.586688 -1.30815 0.
-6.68134 -14.9487 0.
5.85257 13.4401 0.
-0.205624 -0.483312 0.
-3.97004 -9.55114 0.
-11.7709 -28.3664 0.
-0.802517 -1.95848 0.
-3.59174 -8.87565 0.
-323.093 -816.932 0.
-67.517 -171.699 0.
-471.728 -1296.6 0.
-186.711 -513.53 0.
-36.0405 -99.1726 0.
-583.241 -1612.02 0.
-224.642 -619.912 0.
-33.2436 -91.4643 0.
-771.751 -2137.08 0.
-231.975 -640.292 0.
-11.725 -31.8697 0.
-949.291 -2620.94 0.
-236.879 -654.639 0.
-845.248 -2282.83 0.
-407.812 -1128.57 0.
-83.5432 -203.684 0.
-710.99 -1956.03 0.
-358.688 -992.566 0.
-132.026 -349.099 0.
-496.265 -1371.3 0.
-260.573 -690.292 0.
-108.724 -300.165 0.
-462.971 -1014.89 0.
-398.516 -834.371 0.
-418.606 -695.633 0.
-345.899 -554.433 0.
-282.765 -421.592 0.
-368.035 -455.488 0.
-354.36 -409.766 0.
-317.268 -392.32 0.
-310.704 -355.878 0.
-337.995 -315.309 0.
-350.26 -293.182 0.
-411.611 -298.981 0.
-436.125 -326.291 0.
-346.532 -319.756 0.
-340.378 -295.434 0.
-297.718 -264.285 0.
-347.97 -297.236 0.
-352.8 -318.971 0.
-354.913 -351.448 0.
-286.529 -363.233 0.
-378.559 -420.395 0.
-438.28 -514.917 0.
-305.988 -471.686 0.
-368.981 -636.563 0.
-439.577 -796.862 0.
-399.104 -803.24 0.
-496.551 -1086.58 0.
-127.78 -353.905 0.
-288.981 -790.142 0.
-579.773 -1605.8 0.
-133.032 -354.225 0.
-384.598 -1065.27 0.
-795.745 -2176 0.
-94.562 -241.293 0.
-423.005 -1170.39 0.
-890.517 -2394.98 0.
-209.927 -579.478 0.
-938.516 -2594.67 0.
-19.064 -52.2228 0.
-215.657 -595.53 0.
-730.422 -2021.61 0.
-29.3534 -80.814 0.
-184.719 -509.28 0.
-539.007 -1487.34 0.
-9.94644 -27.2654 0.
-118.04 -322.868 0.
-398.658 -1086.88 0.
-39.02 -96.5687 0.
-215.098 -529.754 0.
0.689092 1.65085 0.
-1.06183 -14.0489 0.
-2.41778 -5.58547 0.
-0.945399 -15.7288 0.
-0.531932 -1.27277 0.
-32.4306 -76.5683 0.
-62.7376 -137.069 0.
-12.1886 -26.2906 0.
-2.47069 -15.9543 0.
-0.431774 -0.837454 0.
2.76286 5.06571 0.
-0.0743715 -0.133668 0.
-2.83021 -10.1002 0.
-3.68843 -11.5667 0.
-2.61341 -11.2226 0.
-3.73974 -10.3721 0.
-3.45373 -11.3599 0.
-49.1171 -87.2032 0.
-1.89671 -3.52929 0.
-184.476 -357.193 0.
-60.1675 -135.078 0.
-115.971 -261.541 0.
-297.733 -676.695 0.
-288.201 -651.412 0.
-258.359 -597.947 0.
-236.4 -560.403 0.
-410.743 -979.33 0.
-345.464 -834.352 0.
-105.323 -257.89 0.
-665.028 -1661.14 0.
-146.183 -366.486 0.
-496.765 -1362.09 0.
-211.02 -578.816 0.
-61.3833 -168.378 0.
-521.091 -1436.63 0.
-159.935 -439.905 0.
-15.9784 -43.7645 0.
-503.993 -1391.82 0.
-12.1005 -33.0651 0.
2.91687 7.79795 0.
-520.767 -1440.52 0.
-1.31955 -3.37745 0.
-401.294 -1110.33 0.
-58.7496 -147.869 0.
-36.2184 -80.0512 0.
-368.516 -1020.72 0.
-105.494 -286.026 0.
-96.6707 -256.035 0.
-366.849 -945.014 0.
-119.758 -328.017 0.
-96.2756 -262.176 0.
-368.462 -726.411 0.
-323.12 -499.322 0.
-377.07 -557.296 0.
-293.346 -430.072 0.
-249.775 -365.777 0.
-293.484 -421.044 0.
-276.747 -380.304 0.
-236.071 -363.913 0.
-236.769 -334.86 0.
-264.989 -292.213 0.
-281.116 -261.919 0.
-395.131 -297.327 0.
-420.923 -323.844 0.
-284.733 -292.611 0.
-294.675 -274.211 0.
-250.951 -246.89 0.
-252.347 -254.265 0.
-252.562 -283.237 0.
-250.456 -323.901 0.
-191.29 -322.578 0.
-283.136 -381.402 0.
-352.43 -465.66 0.
-287.774 -378.189 0.
-323.472 -451.171 0.
-391.191 -615.935 0.
-270.839 -469.676 0.
-378.731 -800.393 0.
-125.258 -345.596 0.
-145.379 -400.272 0.
-378.542 -1024.87 0.
-92.919 -250.088 0.
-127.295 -345.687 0.
-395.64 -1095.83 0.
-28.5676 -68.89 0.
-51.3111 -134.703 0.
-423.524 -1170.9 0.
-1.22461 -3.23811 0.
-556.732 -1539.71 0.
0.413342 1.11515 0.
-48.0058 -131.456 0.
-535.502 -1477.55 0.
-48.469 -133.199 0.
-168.4 -463.585 0.
-525.811 -1448.4 0.
-80.3431 -219.841 0.
-219.157 -598.206 0.
-501.106 -1362.92 0.
-138.634 -338.719 0.
-657.109 -1599.57 0.
-143.676 -342.147 0.
-361.291 -843.315 0.
-324.413 -743.465 0.
-311.859 -731.2 0.
-267.406 -619.195 0.
-241.783 -553.322 0.
-387.702 -859.461 0.
-20.127 -43.8783 0.
-2.73368 -5.61063 0.
-2.85416 -14.953 0.
2.80403 5.11294 0.
5.24621 9.37979 0.
-3.22218 -11.2354 0.
3.45753 5.61044 0.
1.42019 2.60144 0.
-3.49709 -5.40735 0.
-35.4768 -58.6905 0.
-227.463 -400.806 0.
6.18506 11.3207 0.
-164.927 -315.362 0.
-76.1282 -172.525 0.
-2.06197 -4.68961 0.
-2.80652 -6.47713 0.
4.88821 10.8681 0.
-4.17244 -9.35064 0.
3.6105 8.15569 0.
-1.13936 -2.57916 0.
1.46354 3.34401 0.
-0.0158549 -0.036571 0.
-42.3171 -98.8348 0.
-18.528 -43.4716 0.
-124.116 -329.371 0.
-17.1969 -45.6482 0.
-1.52521 -4.05011 0.
-248.644 -668.113 0.
-54.3587 -146.12 0.
-25.0009 -67.1566 0.
-418.392 -1139.19 0.
-69.3513 -188.468 0.
-6.5567 -17.7453 0.
-628.168 -1732.37 0.
-73.4703 -199.262 0.
-667.264 -1818.02 0.
-251.895 -696.922 0.
-64.9144 -172.943 0.
-702.079 -1909.79 0.
-258.244 -706.954 0.
-51.482 -141.801 0.
-542.163 -1499.6 0.
-238.553 -660.75 0.
-54.5934 -151.213 0.
-427.786 -954.943 0.
-289.964 -573.577 0.
-359.185 -628.89 0.
-298.621 -474.45 0.
-242.586 -333.198 0.
-360.993 -432.901 0.
-315.479 -344.007 0.
-238.227 -292.133 0.
-278.754 -320.62 0.
-267.635 -348.756 0.
-263.837 -381.664 0.
-379.915 -459.796 0.
-378.171 -468.62 0.
-400.145 -486.281 0.
-314.445 -434.579 0.
-337.291 -432.547 0.
-310.965 -406.574 0.
-302.113 -370.662 0.
-302.213 -348.848 0.
-211.81 -297.822 0.
-304.053 -396.692 0.
-363.132 -536.732 0.
-240.758 -331.931 0.
-307.467 -494.449 0.
-370.839 -666.794 0.
-272.996 -593.291 0.
-472.55 -1130.97 0.
-69.4951 -189.412 0.
-287.704 -796.61 0.
-637.444 -1761.43 0.
-62.6726 -157.265 0.
-283.865 -786.075 0.
-764.562 -2088.92 0.
-49.1327 -130.874 0.
-248.526 -688.348 0.
-649.924 -1782.18 0.
-55.0048 -147.908 0.
-572.465 -1570.57 0.
-28.3701 -75.9701 0.
-74.3021 -199.721 0.
-361.214 -975.063 0.
-15.0048 -40.204 0.
-28.4289 -76.1821 0.
-199.219 -534.163 0.
-0.225951 -10.8764 0.
-17.0998 -45.0863 0.
-77.8206 -205.136 0.
-13.5806 -31.0523 0.
-51.4899 -116.836 0.
-2.3438 -5.25149 0.
-0.995518 -2.2197 0.
-1.34964 -12.6286 0.
2.26623 5.1409 0.
3.56318 8.06991 0.
-42.1822 -94.1096 0.
-78.2825 -174.909 0.
-112.426 -248.428 0.
-194.281 -400.857 0.
-252.74 -487.888 0.
-2.94175 -5.32927 0.
-167.129 -295.641 0.
-14.9704 -25.2617 0.
2.36914 3.79873 0.
3.83543 8.20902 0.
-0.858182 -1.40209 0.
4.37374 7.40145 0.
2.62084 4.58694 0.
-2.36961 -10.1746 0.
3.18605 6.19246 0.
-22.4999 -50.838 0.
-1.95265 -4.4344 0.
-1.52012 -3.47091 0.
-54.371 -120.406 0.
-14.0606 -31.3811 0.
-2.98053 -6.70557 0.
-49.2331 -110.096 0.
-24.0065 -54.2117 0.
-17.8691 -40.7463 0.
-231.275 -536.675 0.
-79.469 -185.279 0.
-269.109 -711.842 0.
-71.4785 -189.268 0.
-21.855 -57.9213 0.
-310.943 -833.644 0.
-66.7935 -179.019 0.
-20.3062 -54.3913 0.
-398.589 -1078.92 0.
-44.9485 -121.336 0.
-0.00767468 -0.0206063 0.
-481.795 -1309.48 0.
-3.42785 -9.00936 0.
-409.089 -1128.97 0.
-56.7808 -154.462 0.
-2.69863 -6.88614 0.
-412.81 -1139.57 0.
-53.5061 -145.739 0.
-24.1552 -64.3188 0.
-298.89 -827.825 0.
-70.3443 -189.599 0.
-50.2595 -134.796 0.
-237.755 -554.282 0.
-112.48 -224.178 0.
-249.507 -445.235 0.
-186.675 -272.615 0.
-196.554 -294.526 0.
-273.862 -374.171 0.
-220.61 -298.172 0.
-214.872 -269.916 0.
-255.326 -305.48 0.
-260.698 -335.378 0.
-280.143 -391.323 0.
-290.344 -422.31 0.
-295.821 -434.627 0.
-308.468 -449.875 0.
-329.61 -441.597 0.
-330.643 -432.41 0.
-262.754 -389.584 0.
-258.58 -341.261 0.
-248.879 -316.719 0.
-200.973 -284.772 0.
-198.815 -289.257 0.
-264.648 -417.229 0.
-164.524 -238.668 0.
-172.525 -253.54 0.
-232.046 -427.986 0.
-88.1039 -162.846 0.
-292.043 -671.004 0.
-58.5575 -135.402 0.
-97.8474 -246.516 0.
-356.22 -986.318 0.
-18.3489 -46.3885 0.
-64.0138 -169.822 0.
-445.106 -1232.37 0.
0.755162 1.94423 0.
-52.5007 -142.672 0.
-420.439 -1163.38 0.
-1.33942 -3.49352 0.
-467.676 -1263.04 0.
-2.90339 -7.74189 0.
-51.0598 -136.702 0.
-393.557 -1057.49 0.
-23.7532 -63.4466 0.
-54.5944 -145.865 0.
-299.27 -800.278 0.
-23.8442 -62.7602 0.
-66.7642 -175.52 0.
-255.513 -670.818 0.
-58.5359 -133.282 0.
-158.191 -357.561 0.
-55.564 -123.08 0.
-33.1196 -72.9903 0.
-31.8965 -69.9475 0.
-0.629387 -1.41657 0.
-10.169 -22.8431 0.
-63.3243 -141.812 0.
-3.49239 -7.81485 0.
1.62957 3.58976 0.
-18.3598 -38.621 0.
-45.96 -90.7535 0.
-1.46123 -2.69057 0.
-1.79577 -7.81999 0.
-1.52219 -2.68424 0.
-0.00324535 -0.00549213 0.
2.83835 6.06352 0.
4.89713 8.06274 0.
0.64288 1.09728 0.
-186.772 -329.134 0.
-0.0873294 -0.161962 0.
-430.873 -856.123 0.
-97.0033 -216.652 0.
-50.5006 -113.393 0.
-366.583 -823.666 0.
-131.309 -289.711 0.
-181.484 -403.564 0.
-280.347 -628.043 0.
-233.573 -514.563 0.
-359.599 -799.642 0.
-157.334 -354 0.
-522.833 -1206.71 0.
-215.87 -499.208 0.
-417.223 -1099.59 0.
-177.671 -468.626 0.
-89.6459 -236.765 0.
-374.367 -1001.59 0.
-112.577 -300.748 0.
-29.7718 -79.4952 0.
-333.54 -897.071 0.
-18.9504 -50.7604 0.
-2.12061 -5.64508 0.
-283.531 -753.639 0.
-0.20685 -5.6957 0.
-127.574 -352.683 0.
-1.39577 -3.69588 0.
-0.0562548 -0.140907 0.
-85.0216 -231.265 0.
-28.4193 -74.3026 0.
-9.79527 -25.6471 0.
-89.784 -229.445 0.
-72.2611 -181.341 0.
-57.9883 -144.699 0.
-107.695 -224.46 0.
-134.934 -294.978 0.
-117.373 -124.596 0.
-182.994 -277.66 0.
-167.527 -244.027 0.
-231.996 -253.881 0.
-202.815 -225.198 0.
-198.452 -220.269 0.
-271.716 -276.327 0.
-218.875 -263.236 0.
-213.395 -277.485 0.
-138.212 -249.805 0.
-116.65 -242.775 0.
-129.903 -249.91 0.
-223.771 -272.954 0.
-256.12 -270.194 0.
-193.851 -220.026 0.
-191.223 -221.535 0.
-231.877 -255.461 0.
-136.659 -190.676 0.
-135.329 -182.782 0.
-177.091 -200.157 0.
-108.776 -159.699 0.
-63.8905 -60.6734 0.
-143.807 -241.102 0.
-111.524 -165.658 0.
-150.976 -256.628 0.
-77.2636 -139.814 0.
-95.6451 -183.915 0.
-137.494 -314.019 0.
-1.05013 -2.65988 0.
-10.9283 -28.7533 0.
-90.0633 -244.998 0.
1.56715 3.92983 0.
0.504498 1.33433 0.
-173.593 -479.404 0.
0.662341 1.67652 0.
-317.874 -839.851 0.
-0.455224 -1.20838 0.
-38.9167 -103.764 0.
-384.472 -1028.2 0.
-47.3362 -126.039 0.
-135.181 -360.228 0.
-402.218 -1072.89 0.
-91.8785 -240.814 0.
-209.359 -547.627 0.
-435.756 -1137.81 0.
-285.448 -646.186 0.
-491.71 -1106.4 0.
-220.291 -483.093 0.
-367.678 -800.808 0.
-166.147 -359.695 0.
-340.236 -756.437 0.
-135.346 -301.127 0.
-129.706 -288.205 0.
-399.074 -887.117 0.
-62.1046 -135.213 0.
-52.0744 -111.617 0.
-403.043 -809.994 0.
3.61203 6.72962 0.
-102.904 -191.573 0.
0.995008 1.77687 0.
1.02903 1.76091 0.
-0.717966 -2.67187 0.
0.244279 0.353482 0.
1.79465 2.71673 0.
2.84613 4.49702 0.
-3.69251 -11.9209 0.
1.03909 1.79998 0.
-2.01371 -9.95524 0.
-2.26902 -12.1394 0.
5.84863 11.6592 0.
2.94742 5.82953 0.
-2.00327 -12.0647 0.
-2.38156 -4.87227 0.
-34.8798 -70.4435 0.
-25.108 -51.4446 0.
-31.967 -66.4769 0.
-103.961 -224.32 0.
-68.4122 -149.785 0.
-194.792 -498.336 0.
-70.7883 -182.857 0.
-52.6713 -137.076 0.
-267.725 -708.586 0.
-75.0289 -199.921 0.
-58.8097 -157.459 0.
-390.303 -1050.73 0.
-86.3259 -232.525 0.
-45.1026 -121.231 0.
-552.399 -1488.18 0.
-91.3251 -244.15 0.
-561.669 -1541.26 0.
-250.15 -690.299 0.
-56.0106 -155.085 0.
-659.518 -1799.76 0.
-269.949 -744.325 0.
-61.8913 -169.974 0.
-626.998 -1728.02 0.
-225.223 -623.722 0.
-87.5986 -226.348 0.
-491.623 -1287.54 0.
-214.393 -532.559 0.
-370.808 -843.952 0.
-239.952 -492.199 0.
-138.766 -227.666 0.
-265.11 -492.187 0.
-218.981 -341.939 0.
-157.065 -212.547 0.
-280.328 -316.624 0.
-236.659 -277.72 0.
-204.175 -274.687 0.
-168.482 -263.459 0.
-146.9 -256.197 0.
-173.158 -268.75 0.
-192.494 -260.225 0.
-234.029 -266.308 0.
-192.5 -243.167 0.
-224.69 -270.215 0.
-271.342 -383.661 0.
-119.142 -197.219 0.
-198.089 -352.018 0.
-255.277 -528.268 0.
-106.516 -204.501 0.
-245.24 -542.511 0.
-402.547 -980.778 0.
-246.905 -624.133 0.
-571.949 -1512.87 0.
-75.658 -184.037 0.
-243.85 -675.343 0.
-706.81 -1938.43 0.
-57.3357 -157.562 0.
-280.111 -774.602 0.
-657.355 -1803.62 0.
-62.4997 -172.614 0.
-249.282 -690.181 0.
-513.43 -1417.09 0.
-97.8159 -259.419 0.
-525.519 -1402.95 0.
-38.5619 -103.233 0.
-65.9028 -176.287 0.
-355.224 -945.454 0.
-54.4642 -144.491 0.
-62.7159 -165.536 0.
-222.204 -583.018 0.
-48.5468 -124.565 0.
-66.9593 -169.803 0.
-151.049 -377.815 0.
-60.1945 -127.439 0.
-82.8074 -173.561 0.
-15.0007 -30.6025 0.
-12.2916 -24.7813 0.
-11.103 -22.1269 0.
1.56301 3.17259 0.
6.60335 13.1008 0.
-3.3342 -6.46785 0.
-3.63825 -6.874 0.
0.412789 0.759425 0.
-3.7336 -6.69239 0.
-7.60592 -13.2019 0.
3.6197 6.03714 0.
0.972958 1.63887 0.
5.21356 8.44517 0.
-2.6964 -7.34163 0.
-0.427705 -1.61416 0.
-1.14378 -1.68158 0.
-2.47223 -3.80858 0.
-68.145 -109.73 0.
-3.33871 -5.48477 0.
-172.863 -296.688 0.
-1.03186 -1.93365 0.
4.71986 9.05203 0.
-354.931 -698.596 0.
-75.5574 -148.138 0.
-173.401 -346.561 0.
-398.855 -813.2 0.
-145.607 -290.735 0.
-364.919 -740.309 0.
-327.54 -673.644 0.
-412.653 -881.399 0.
-368.641 -798.252 0.
-453.924 -1156.45 0.
-274.173 -704.565 0.
-132.588 -344.128 0.
-456.581 -1203.73 0.
-262.379 -696.336 0.
-105.317 -281.349 0.
-478.242 -1278.52 0.
-171.661 -459.024 0.
-61.9844 -165.211 0.
-505.966 -1346.19 0.
-74.741 -196.168 0.
-427.717 -1180.27 0.
-117.671 -325.822 0.
-10.7969 -29.8234 0.
-355.774 -982.367 0.
-53.6883 -147.942 0.
-16.5452 -44.4175 0.
-306.683 -849.457 0.
-82.7924 -221.43 0.
-30.8407 -78.8038 0.
-359.338 -890.67 0.
-164.555 -358.898 0.
-273.886 -577.902 0.
-153.298 -268.245 0.
-119.848 -201.004 0.
-182.793 -315.31 0.
-123.484 -184.412 0.
-119.628 -194.636 0.
-192.668 -247.584 0.
-192.201 -259.559 0.
-193.478 -273.872 0.
-199.866 -277.617 0.
-183.076 -271.744 0.
-172.118 -268.601 0.
-163.813 -248.181 0.
-158.901 -230.417 0.
-199.699 -256.69 0.
-188.122 -240.719 0.
-218.718 -276.453 0.
-96.9015 -179.456 0.
-86.7606 -158.336 0.
-158.627 -319.828 0.
-91.443 -190.051 0.
-135.833 -297.021 0.
-279.423 -657.139 0.
-185.382 -430.207 0.
-392.564 -1010.96 0.
-22.3301 -52.8921 0.
-78.0995 -205.23 0.
-351.227 -972.838 0.
-5.54922 -14.7175 0.
-60.053 -164.772 0.
-376.081 -1040.97 0.
-16.2476 -44.691 0.
-159.463 -441.625 0.
-423.231 -1171.08 0.
-95.1471 -249.74 0.
-513.649 -1355.36 0.
-79.0924 -210.507 0.
-193 -512.744 0.
-488.85 -1291.84 0.
-100.618 -266.095 0.
-259.892 -682.886 0.
-479.348 -1251.79 0.
-114.021 -291.604 0.
-290.715 -732.196 0.
-469.581 -1168.88 0.
-417.629 -873.634 0.
-331.673 -685.952 0.
-354.645 -713.792 0.
-343.815 -684.368 0.
-125.459 -246.902 0.
-416.658 -835.195 0.
-79.8047 -156.049 0.
-2.04214 -3.90324 0.
-286.294 -532.569 0.
1.01218 1.83221 0.
3.43785 6.05892 0.
-158.432 -274.114 0.
2.50891 4.17819 0.
-10.448 -17.8365 0.
-2.10647 -3.45336 0.
-1.05986 -1.66555 0.
-0.82128 -3.14681 0.
2.39469 3.58304 0.
0.882209 1.38557 0.
-174.44 -286.962 0.
-30.1712 -49.0437 0.
-197.451 -335.749 0.
6.76782 12.4636 0.
-96.6864 -182.499 0.
-167.735 -325.22 0.
-85.8511 -166.366 0.
-8.18569 -16.1134 0.
4.74277 9.34637 0.
1.25308 2.39944 0.
-1.96931 -10.2675 0.
-11.6963 -22.8443 0.
-48.4142 -97.3267 0.
-25.0609 -50.409 0.
-3.97516 -9.62704 0.
-11.4375 -27.918 0.
-21.7214 -53.4368 0.
-28.969 -72.6596 0.
-29.2177 -73.7316 0.
-29.1986 -74.1371 0.
-122.677 -312.226 0.
-20.9564 -53.3354 0.
-10.9348 -27.9298 0.
-261.932 -670.416 0.
-45.5156 -115.375 0.
-276.599 -766.009 0.
-84.016 -232.656 0.
-29.3661 -81.2524 0.
-425.614 -1178.06 0.
-137.915 -381.833 0.
-28.8993 -79.3686 0.
-527.366 -1457.58 0.
-111.947 -309.684 0.
-39.4225 -106.536 0.
-507.163 -1344.62 0.
-157.386 -389.278 0.
-326.689 -796.074 0.
-191.733 -419.124 0.
-94.0956 -153.872 0.
-248.684 -541.128 0.
-174.556 -340.26 0.
-120.173 -187.2 0.
-235.997 -383.42 0.
-188.759 -257.248 0.
-135.392 -173.809 0.
-240.093 -305.929 0.
-243.773 -307.55 0.
-129.862 -173.249 0.
-217.32 -305.998 0.
-214.368 -342.273 0.
-144.354 -200.115 0.
-190.248 -279.879 0.
-250.541 -445.075 0.
-93.0836 -189.414 0.
-167.362 -330.707 0.
-281.074 -603.07 0.
-83.4939 -178.963 0.
-187.057 -471.83 0.
-350.421 -938.392 0.
-179.175 -408.122 0.
-575.135 -1522.34 0.
-23.5025 -62.286 0.
-103.684 -286.08 0.
-541.769 -1499.42 0.
-22.1653 -60.4421 0.
-131.921 -364.085 0.
-386.523 -1070.12 0.
-26.7644 -73.674 0.
-84.7929 -234.007 0.
-253.563 -700.718 0.
-44.7089 -113.174 0.
-240.076 -608.96 0.
-14.4548 -36.7576 0.
-26.1094 -66.3055 0.
-121.592 -308.756 0.
-21.8303 -55.2834 0.
-23.9979 -60.262 0.
-31.4052 -78.192 0.
-31.4662 -76.7351 0.
-17.7145 -42.8856 0.
-9.28609 -22.3167 0.
-22.2108 -44.0316 0.
-57.8662 -114.74 0.
-21.2818 -41.4544 0.
-1.92973 -3.71221 0.
0.787841 1.4969 0.
-21.8913 -43.2089 0.
-76.9723 -148.221 0.
-100.91 -189.657 0.
-214.68 -392.2 0.
-72.372 -128.631 0.
-10.3278 -17.8694 0.
-188.668 -326.066 0.
-74.4526 -123.569 0.
-110.388 -191.541 0.
4.04408 6.71611 0.
-0.48834 -0.776163 0.
1.51305 3.1344 0.
-1.9906 -6.62668 0.
-2.56401 -4.41683 0.
2.67754 4.7435 0.
3.89001 6.57764 0.
-89.464 -155.898 0.
2.58429 4.70444 0.
-2.22617 -10.4303 0.
-41.6366 -80.457 0.
0.0682311 0.131675 0.
-5.53512 -10.7357 0.
-35.7079 -69.6051 0.
-9.88235 -18.9038 0.
-34.8145 -67.2643 0.
-45.5056 -88.8077 0.
-126.825 -252.355 0.
-76.7499 -152.708 0.
-111.877 -269.327 0.
-74.1657 -180.121 0.
-74.024 -181.34 0.
-186.665 -466.392 0.
-58.6311 -146.887 0.
-62.639 -157.961 0.
-262.078 -666.402 0.
-63.9316 -162.884 0.
-34.4707 -88.1193 0.
-340.569 -859.45 0.
-50.8716 -128.288 0.
-287.889 -796.321 0.
-96.8854 -267.906 0.
-19.8138 -54.6676 0.
-331.684 -918.3 0.
-59.8483 -164.764 0.
-11.644 -31.5502 0.
-337.264 -933.976 0.
-51.3824 -140.136 0.
-16.1245 -42.217 0.
-289.303 -791.5 0.
-71.8848 -197.74 0.
-172.455 -414.632 0.
-84.8382 -180.207 0.
-63.3751 -122.876 0.
-143.252 -289.666 0.
-99.1611 -155.879 0.
-104.831 -170.317 0.
-151.487 -289.975 0.
-105.064 -164.587 0.
-103.668 -149.157 0.
-198.869 -282.278 0.
-200.878 -280.197 0.
-131.029 -186.173 0.
-124.36 -166.03 0.
-136.194 -188.11 0.
-98.5616 -178.429 0.
-100.583 -181.089 0.
-167.649 -330.475 0.
-86.3426 -169.167 0.
-103.922 -203.67 0.
-161.653 -363.962 0.
-45.4676 -122.343 0.
-72.1716 -192.462 0.
-194.875 -517.505 0.
-68.4536 -186.928 0.
-343.021 -946.089 0.
0.327837 0.826438 0.
-42.3693 -114.123 0.
-360.399 -996.776 0.
-9.33651 -25.1245 0.
-77.0526 -210.786 0.
-332.144 -916.513 0.
-20.3053 -55.6515 0.
-119.156 -327.827 0.
-287.891 -793.204 0.
-61.3675 -154.123 0.
-337.286 -842.773 0.
-44.9082 -113.742 0.
-73.8896 -186.906 0.
-271.982 -685.612 0.
-60.1847 -152.112 0.
-66.9317 -167.719 0.
-189.572 -471.507 0.
-82.6517 -200.657 0.
-67.9812 -163.709 0.
-92.4899 -220.748 0.
-78.6004 -154.533 0.
-112.5 -221.234 0.
-58.494 -114.009 0.
-16.624 -31.9786 0.
-5.55087 -10.543 0.
-53.3939 -102.544 0.
-13.1419 -24.9697 0.
-8.40753 -15.812 0.
-33.7914 -62.5784 0.
5.63031 10.0377 0.
6.36617 10.9201 0.
-55.8552 -98.7871 0.
0.764345 1.32451 0.
-0.28073 -0.533997 0.
0.521889 0.964271 0.
-1.31556 -2.36238 0.
3.15154 6.52268 0.
1.89489 3.1233 0.
-1.72844 -2.93086 0.
-143.881 -251.98 0.
-24.174 -41.0053 0.
-355.009 -621.361 0.
2.90953 5.21921 0.
-48.2407 -89.2809 0.
-425.36 -814.915 0.
-54.5965 -104.175 0.
-160.618 -307.921 0.
-407.627 -787.027 0.
-69.1961 -132.224 0.
-297.902 -576.944 0.
-280.888 -549.44 0.
-273.831 -541.161 0.
-421.699 -837.075 0.
-364.279 -875.635 0.
-235.933 -572.467 0.
-136.301 -333.243 0.
-370.258 -922.556 0.
-224.762 -562.369 0.
-103.194 -258.717 0.
-403.49 -1019.7 0.
-150.261 -382.527 0.
-81.205 -207.609 0.
-384.752 -956.79 0.
-52.1945 -130.904 0.
-250.749 -692.268 0.
-66.6469 -183.742 0.
-8.74026 -24.0027 0.
-197.135 -543.629 0.
-23.9018 -65.1082 0.
1.19064 3.17096 0.
-102.167 -280.586 0.
-12.0216 -31.9489 0.
0.815997 2.04243 0.
-86.4947 -231.236 0.
-54.7366 -147.638 0.
-85.5527 -221.387 0.
-56.3673 -140.093 0.
-43.2356 -97.3953 0.
-131.065 -237.714 0.
-116.644 -193.92 0.
-105.284 -165.297 0.
-93.6179 -141.249 0.
-86.2788 -125.491 0.
-78.6484 -109.122 0.
-112.538 -143.27 0.
-118.456 -155.843 0.
-107.294 -126.125 0.
-105.467 -129.819 0.
-104.957 -134.723 0.
-65.4064 -142.701 0.
-72.3524 -165.355 0.
-79.5575 -187.75 0.
-113.625 -179.876 0.
-151.397 -294.177 0.
-118.614 -220.891 0.
-55.9394 -133.444 0.
-57.5595 -139.817 0.
-77.5736 -189.65 0.
-40.4709 -101.155 0.
-83.6769 -229.587 0.
0.586171 1.40905 0.
0.425806 1.10252 0.
-131.093 -358.222 0.
-0.785282 -2.08285 0.
-37.7656 -102.06 0.
-239.491 -656.449 0.
-16.4814 -44.9398 0.
-110.192 -301.775 0.
-275.342 -755.676 0.
-82.2399 -204.664 0.
-421.101 -1035.71 0.
-90.6827 -228.614 0.
-176.451 -443.789 0.
-426.054 -1063.37 0.
-100.838 -254.403 0.
-245.056 -613.341 0.
-391.13 -969.756 0.
-144.622 -350.099 0.
-245.578 -588.738 0.
-350.522 -831.109 0.
-478.499 -932.61 0.
-208.49 -406.667 0.
-332.482 -649.297 0.
-270.317 -521.008 0.
-21.3083 -40.4637 0.
-415.105 -787.61 0.
-137.878 -258.849 0.
-42.4725 -78.8733 0.
-411.228 -762.539 0.
-32.5685 -58.0245 0.
3.22132 5.50987 0.
-276.498 -482.683 0.
-17.8193 -30.5941 0.
-94.1074 -176.361 0.
-17.2865 -31.4286 0.
-3.13352 -5.53116 0.
-1.84755 -7.30293 0.
5.34973 7.72822 0.
-3.37819 -4.97646 0.
-5.31105 -7.97617 0.
2.07536 3.12082 0.
2.21397 3.4041 0.
2.00683 3.12705 0.
-1.8209 -2.89656 0.
5.6173 9.12765 0.
6.61399 10.9293 0.
-0.23999 -0.404973 0.
-2.14729 -3.70176 0.
-3.16047 -5.5066 0.
-3.01844 -5.37846 0.
-33.1073 -60.3983 0.
-96.1045 -178.342 0.
-72.1869 -135.166 0.
-82.1494 -187.832 0.
-62.3283 -144.994 0.
-75.176 -177.847 0.
-92.2444 -222.1 0.
-48.5938 -118.153 0.
-40.2985 -98.8889 0.
-167.762 -413.601 0.
-53.2486 -133.008 0.
-35.8523 -90.2129 0.
-313.013 -759.563 0.
-62.2437 -154.306 0.
-266.208 -732.049 0.
-122.512 -337.501 0.
-37.7354 -103.985 0.
-298.201 -825.642 0.
-121.928 -337.418 0.
-43.2064 -119.304 0.
-416.707 -1153.63 0.
-106.314 -294.458 0.
-29.6493 -81.9557 0.
-482.939 -1333.47 0.
-97.2642 -268.416 0.
-341.334 -927.695 0.
-150.58 -403.238 0.
-69.7221 -192.875 0.
-272.156 -644.899 0.
-123.244 -237.441 0.
-79.9965 -120.35 0.
-148.117 -327.463 0.
-62.2452 -117.539 0.
-54.8588 -101.585 0.
-121.61 -197.779 0.
-106.995 -156.961 0.
-83.9895 -105.746 0.
-82.9343 -109.967 0.
-113.074 -193.039 0.
-52.85 -118.758 0.
-89.2586 -203.855 0.
-189.494 -449.438 0.
-82.8032 -161.544 0.
-142.544 -311.488 0.
-311.118 -797.753 0.
-77.5248 -212.838 0.
-167.06 -431.375 0.
-375.485 -986.401 0.
-87.7709 -239.416 0.
-519.607 -1434.55 0.
-34.0686 -93.8632 0.
-109.708 -303.75 0.
-394.616 -1092.99 0.
-31.2005 -85.67 0.
-126.442 -348.386 0.
-278.224 -767.155 0.
-21.0676 -57.5332 0.
-113.009 -307.923 0.
-249.736 -678.556 0.
-77.7576 -187.802 0.
-298.922 -708.651 0.
-25.0768 -61.2713 0.
-49.264 -119.325 0.
-153.17 -366.449 0.
-33.8014 -81.7996 0.
-36.6755 -87.8458 0.
-44.7696 -106.111 0.
-69.5046 -160.183 0.
-60.9952 -139.141 0.
-82.2544 -185.644 0.
-53.669 -98.3992 0.
-37.0912 -67.0166 0.
-15.595 -27.7768 0.
-3.30269 -5.72263 0.
-2.20146 -3.71359 0.
5.97747 9.82917 0.
1.2761 2.0554 0.
5.2001 8.20908 0.
0.231149 0.364339 0.
-3.23668 -5.00639 0.
-3.92695 -5.96351 0.
-2.1588 -3.30283 0.
-2.29556 -3.45228 0.
-16.8445 -26.5848 0.
1.15566 1.79024 0.
2.15325 3.27197 0.
3.82795 6.76553 0.
5.1718 7.49981 0.
4.09424 6.05664 0.
-52.3774 -79.0178 0.
4.6235 6.90174 0.
-185.065 -281.563 0.
3.19871 4.89756 0.
3.95547 6.18404 0.
-251.553 -402.585 0.
-4.11763 -6.71761 0.
-131.673 -219.616 0.
-379.541 -647.413 0.
-70.0251 -120.353 0.
-341.661 -602.554 0.
-393.412 -710.944 0.
-198.789 -365.932 0.
-536.262 -996.112 0.
-319.881 -726.408 0.
-242.314 -559.309 0.
-167.404 -393.146 0.
-399.616 -950.812 0.
-264.864 -637.499 0.
-134.226 -327.396 0.
-409.435 -991.143 0.
-232.912 -571.085 0.
-98.1027 -243.63 0.
-464.289 -1101.87 0.
-114.111 -278.016 0.
-340.211 -928.657 0.
-192.36 -526.19 0.
-54.8179 -150.199 0.
-293.513 -812.067 0.
-117.135 -323.811 0.
-40.1277 -110.604 0.
-276.028 -764.408 0.
-29.4451 -81.2663 0.
0.834166 2.28401 0.
-244.197 -676.329 0.
-43.4189 -118.397 0.
-171.637 -459.086 0.
-52.7377 -142.056 0.
-29.5365 -81.5677 0.
-154.791 -340.842 0.
-83.7838 -149.632 0.
-64.4171 -102.03 0.
-47.7196 -124.122 0.
-40.2309 -108.035 0.
-34.4206 -90.6656 0.
-70.7883 -76.7038 0.
-75.019 -87.6815 0.
-62.933 -85.0555 0.
-62.7125 -87.6446 0.
-63.4202 -90.6879 0.
-44.8091 -91.5006 0.
-54.0365 -110.316 0.
-77.4627 -171.956 0.
-44.447 -115.305 0.
-82.5721 -208.938 0.
-165.388 -434.432 0.
-16.3342 -45.1159 0.
-48.3109 -129.446 0.
-191.488 -492.096 0.
-37.8114 -104.466 0.
-273.68 -757.297 0.
-0.319174 -0.875398 0.
-37.792 -104.377 0.
-297.119 -822.585 0.
-46.2966 -126.906 0.
-162.55 -447.113 0.
-315.219 -867.158 0.
-73.157 -197.998 0.
-209.67 -565.77 0.
-348.896 -938.791 0.
-123.165 -292.073 0.
-473.158 -1097.7 0.
-93.5272 -225.229 0.
-250.905 -596.072 0.
-425.287 -998.703 0.
-158.52 -380.427 0.
-272.547 -645.31 0.
-391.998 -916.348 0.
-194.687 -444.063 0.
-240.861 -543.905 0.
-285.414 -638.488 0.
-576.706 -1048.42 0.
-130.259 -233.73 0.
-417.213 -733.037 0.
-292.661 -499.118 0.
-11.5233 -19.1176 0.
-298.864 -483.88 0.
-53.5119 -84.8779 0.
-2.23799 -3.47869 0.
-200.559 -311.108 0.
-3.14972 -4.80935 0.
-3.11264 -4.6649 0.
-129.854 -196.773 0.
-4.76837 -7.11562 0.
-28.0651 -44.5723 0.
0.460012 0.716892 0.
4.6202 7.06087 0.
0.716915 1.25952 0.
-2.86374 -6.61022 0.
-1.53684 -2.28334 0.
-143.9 -217.966 0.
-35.6849 -52.831 0.
-151.847 -229.696 0.
-13.0618 -19.6325 0.
-105.583 -162.162 0.
-177.963 -279.669 0.
-123.064 -198.059 0.
-98.126 -161.506 0.
-58.393 -98.2958 0.
3.0043 5.07189 0.
-10.8712 -18.5084 0.
-41.3334 -70.9634 0.
-2.82326 -4.9761 0.
-26.683 -47.6265 0.
-45.1474 -99.1849 0.
-25.3921 -56.2082 0.
-17.4954 -39.0307 0.
-4.52667 -10.3091 0.
-3.56017 -8.1785 0.
-15.0005 -34.7534 0.
-25.4231 -58.5479 0.
-9.78843 -22.71 0.
-10.636 -24.8641 0.
-85.6536 -195.125 0.
-26.2048 -60.0605 0.
-83.0247 -219.983 0.
-30.6051 -81.3282 0.
-16.2346 -43.1918 0.
-138.03 -375.651 0.
-45.919 -125.125 0.
-24.2617 -66.1137 0.
-215.847 -591.59 0.
-39.4792 -108.414 0.
-18.6918 -51.226 0.
-308.863 -851.984 0.
-54.7581 -150.595 0.
-270.893 -723.1 0.
-79.4299 -200.676 0.
-44.0298 -111.361 0.
-243.953 -638.125 0.
-106.559 -252.657 0.
-67.9379 -158.635 0.
-145.647 -386.259 0.
-70.899 -183.311 0.
-60.9495 -159.294 0.
-151.034 -314.536 0.
-134.75 -268.753 0.
-89.3098 -165.077 0.
-102.639 -200.999 0.
-152.467 -337.442 0.
-56.9601 -153.376 0.
-77.4044 -198.877 0.
-191.457 -519.71 0.
-66.0423 -168.667 0.
-111.414 -271.736 0.
-280.774 -739.707 0.
-32.9153 -86.8945 0.
-77.1866 -199.953 0.
-279.542 -743.502 0.
-53.2505 -146.564 0.
-290.25 -798.375 0.
-17.2388 -47.2781 0.
-36.6835 -100.706 0.
-176.086 -481.903 0.
-22.1756 -59.5925 0.
-42.3477 -113.889 0.
-122.499 -329.332 0.
-5.3265 -13.9467 0.
-20.1828 -52.6276 0.
-63.3937 -164.373 0.
-22.5346 -50.493 0.
-65.9248 -146.793 0.
-0.0155813 -0.0356213 0.
-8.81165 -19.917 0.
-28.3454 -63.3376 0.
-0.541875 -1.23716 0.
2.45224 5.56048 0.
-1.40164 -3.15605 0.
-4.56663 -9.96209 0.
-15.9963 -34.6056 0.
-48.2928 -103.593 0.
-19.4957 -33.9206 0.
-2.50025 -4.27815 0.
-24.1727 -40.0118 0.
0.0500914 0.0822031 0.
-55.3699 -90.2183 0.
-86.7445 -138.343 0.
-97.2332 -151.742 0.
-67.6832 -103.459 0.
-175.262 -268.044 0.
-83.6341 -125.799 0.
-22.5495 -33.3239 0.
-121.143 -182.196 0.
-55.614 -82.2774 0.
-92.0984 -147.208 0.
-2.91479 -4.57078 0.
-2.36848 -3.64074 0.
3.09135 5.97162 0.
4.06971 6.25258 0.
-2.50492 -3.92615 0.
-38.9597 -62.3383 0.
1.00944 1.51378 0.
-25.7193 -39.0116 0.
-2.88298 -4.3106 0.
1.69028 2.58722 0.
-42.3127 -66.3384 0.
2.45709 3.9204 0.
-2.07068 -3.38485 0.
-42.605 -71.3593 0.
-4.48609 -7.59691 0.
-32.1284 -54.8726 0.
-109.36 -188.341 0.
-26.5414 -46.6277 0.
-113.443 -201.89 0.
-87.8635 -191.713 0.
-49.4696 -108.724 0.
-27.2172 -60.2784 0.
-67.5593 -153.157 0.
-59.6605 -136.537 0.
-60.3426 -139.363 0.
-145.858 -333.062 0.
-53.5713 -123.515 0.
-38.591 -89.6709 0.
-246.471 -544.584 0.
-58.0312 -130.544 0.
-174.742 -458.923 0.
-75.9331 -200.53 0.
-26.5727 -70.4147 0.
-188.922 -510.314 0.
-66.2808 -179.262 0.
-21.8571 -59.1525 0.
-213.322 -581.866 0.
-40.8716 -111.549 0.
-16.5976 -45.1632 0.
-238.725 -649.874 0.
-29.9409 -80.8985 0.
-157.777 -418.143 0.
-37.076 -97.4924 0.
-5.05103 -13.46 0.
-115.212 -293.086 0.
-55.1692 -143.866 0.
-18.6849 -51.6607 0.
-51.5847 -125.536 0.
-42.0452 -103.771 0.
-33.5945 -82.7283 0.
-89.8513 -165.303 0.
-93.5109 -175.886 0.
-63.5639 -132.661 0.
-60.1289 -126.486 0.
-57.0846 -119.45 0.
-28.9753 -76.9989 0.
-47.1986 -121.315 0.
-68.1243 -169.492 0.
-9.8022 -26.9828 0.
-50.5501 -134.237 0.
-129.697 -333.845 0.
-5.52385 -15.0981 0.
-37.9425 -101.446 0.
-179.993 -479.501 0.
-30.2934 -81.882 0.
-238.316 -647.261 0.
-16.1383 -43.9809 0.
-37.8809 -103.4 0.
-202.963 -552.4 0.
-18.266 -48.8787 0.
-79.6501 -212.787 0.
-191.381 -510.634 0.
-24.2594 -63.3376 0.
-74.5887 -193.478 0.
-171.235 -440.563 0.
-65.8213 -144.618 0.
-245.198 -529.733 0.
-27.0465 -61.2554 0.
-46.308 -103.627 0.
-132.735 -292.894 0.
-48.6217 -110.093 0.
-55.1319 -123.9 0.
-62.5105 -139.429 0.
-14.5026 -31.4311 0.
-41.7755 -89.7797 0.
-86.4694 -184.376 0.
-110.985 -192.909 0.
-2.43862 -4.17117 0.
-84.8817 -140.697 0.
-9.79607 -16.1239 0.
1.35468 2.2094 0.
-24.6972 -39.2429 0.
-0.0113021 -0.0174872 0.
3.38336 5.09871 0.
-21.0008 -31.9437 0.
-2.33496 -3.49498 0.
-0.406594 -0.598987 0.
-5.5031 -8.36923 0.
-1.67737 -2.52893 0.
-3.30216 -5.65034 0.
2.64202 4.42475 0.
-1.71772 -2.8161 0.
-0.942304 -4.76716 0.
-1.68804 -2.5684 0.
-43.5937 -67.7427 0.
-92.8836 -147.519 0.
-57.0672 -83.6809 0.
-252.771 -374.754 0.
-17.9671 -26.7134 0.
-93.3388 -142.234 0.
-361.92 -566.615 0.
-83.0797 -130.639 0.
-183.482 -295.329 0.
-279.932 -460.647 0.
-24.4891 -41.6012 0.
-270.655 -462.2 0.
-275.381 -474.822 0.
-73.8786 -129.348 0.
-499.106 -879.318 0.
-223.947 -486.052 0.
-205.241 -448.325 0.
-184.968 -406.766 0.
-325.349 -727.184 0.
-240.355 -545.006 0.
-156.136 -358.886 0.
-356.773 -800.914 0.
-215.261 -489.407 0.
-87.4455 -201.577 0.
-412.979 -884.997 0.
-94.9135 -209.098 0.
-251.598 -655.726 0.
-153.466 -401.785 0.
-57.9926 -152.75 0.
-222.632 -596.654 0.
-91.6595 -245.709 0.
-18.3033 -49.1465 0.
-171.225 -464.8 0.
-38.5989 -104.559 0.
-14.8925 -40.1753 0.
-116.468 -314.131 0.
-4.84839 -12.8597 0.
-31.5252 -85.2387 0.
-4.08903 -11.2025 0.
-0.00127983 -0.00352827 0.
-47.6924 -125.047 0.
-11.4198 -31.3457 0.
-2.22305 -6.12376 0.
-51.5035 -128.073 0.
-64.4951 -166.845 0.
-49.7192 -127.138 0.
-107.136 -224.884 0.
-98.8505 -212.284 0.
-50.7617 -114.882 0.
-67.8081 -158.626 0.
-62.9815 -150.14 0.
-36.596 -100.5 0.
-32.8056 -88.4729 0.
-35.8428 -94.4131 0.
-0.235428 -0.651286 0.
-6.72676 -18.5812 0.
-38.0347 -102.961 0.
-0.190404 -0.52681 0.
-10.395 -28.5436 0.
-43.8005 -118.093 0.
-7.2326 -19.0623 0.
-139.205 -374.308 0.
-16.6029 -44.901 0.
-36.9182 -100.069 0.
-192.731 -522.067 0.
-17.4322 -46.4376 0.
-126.242 -334.474 0.
-245.979 -651.17 0.
-74.6029 -193.698 0.
-171.835 -442.111 0.
-271.427 -693.013 0.
-127.818 -274.461 0.
-431.083 -905.842 0.
-86.0536 -192.415 0.
-219.779 -482.801 0.
-353.274 -766.166 0.
-189.631 -424.735 0.
-244.102 -541.514 0.
-300.242 -659.483 0.
-218.967 -471.9 0.
-200.942 -429.998 0.
-183.29 -389.355 0.
-504.858 -876.686 0.
-28.734 -49.1055 0.
-264.976 -438.19 0.
-240.65 -394.873 0.
5.29407 8.66284 0.
-292.999 -458.053 0.
-177.921 -271.209 0.
-61.5423 -91.4467 0.
-323.274 -485.319 0.
-68.1809 -100.69 0.
-1.77124 -2.57567 0.
-203.994 -302.565 0.
-71.6558 -105.611 0.
-76.6149 -128.982 0.
-9.64827 -15.916 0.
-1.35452 -2.18727 0.
-1.63724 -5.35136 0.
3.18383 4.37408 0.
1.46034 2.02534 0.
2.47291 3.46209 0.
-5.01467 -6.58976 0.
-9.09084 -11.9823 0.
0.109232 0.146238 0.
0.0108829 0.0148217 0.
-1.38811 -1.92376 0.
-4.0856 -8.42344 0.
5.76726 8.083 0.
-3.84136 -8.27317 0.
6.42146 9.51542 0.
2.41768 3.68482 0.
-14.9697 -23.4895 0.
-4.74242 -7.6333 0.
-70.2284 -115.208 0.
-55.3358 -110.08 0.
-15.2614 -30.6843 0.
-6.652 -13.5164 0.
-34.8352 -72.6249 0.
-23.9593 -50.8005 0.
-21.4147 -46.1831 0.
-27.6588 -59.349 0.
-31.7287 -68.8802 0.
-38.849 -85.3273 0.
-130.543 -268.169 0.
-59.8443 -123.654 0.
-113.048 -286.921 0.
-35.8424 -92.0577 0.
-34.3855 -88.9202 0.
-133.012 -354.657 0.
-48.7952 -130.828 0.
-31.1718 -83.8932 0.
-188.427 -514.096 0.
-62.9097 -171.749 0.
-40.1752 -109.649 0.
-277.537 -747.33 0.
-64.2544 -174.655 0.
-257.967 -689.325 0.
-83.5252 -221.535 0.
-44.1284 -118.497 0.
-238.34 -643.577 0.
-84.9794 -226.328 0.
-46.2451 -125.854 0.
-174.968 -478.319 0.
-54.3087 -145.592 0.
-22.5065 -61.6264 0.
-102.154 -246.755 0.
-77.2858 -187.456 0.
-30.8818 -84.1836 0.
-51.1424 -136.979 0.
-135.992 -370.746 0.
-45.0247 -124.377 0.
-76.4716 -207.739 0.
-221.302 -605.702 0.
-48.3007 -132.452 0.
-77.2977 -208.307 0.
-233.158 -630.759 0.
-36.255 -98.0184 0.
-94.6814 -253.248 0.
-264.046 -707.654 0.
-56.5453 -152.953 0.
-260.091 -698.109 0.
-48.5384 -132.564 0.
-63.5476 -173.238 0.
-169.696 -460.95 0.
-46.4455 -123.477 0.
-54.4799 -144.067 0.
-127.761 -335.227 0.
-40.9702 -103.236 0.
-44.5831 -111.491 0.
-109.532 -271.341 0.
-64.0505 -128.913 0.
-138.819 -277.925 0.
-52.7504 -111.298 0.
-45.6649 -95.1824 0.
-35.4406 -73.0249 0.
-26.1099 -54.8123 0.
-30.9806 -64.1657 0.
-41.7214 -85.285 0.
-2.1547 -4.2941 0.
-1.37341 -2.69982 0.
-45.6528 -88.5438 0.
-83.3822 -134.074 0.
4.97042 7.78339 0.
-16.196 -24.402 0.
6.73425 9.85106 0.
-3.87062 -8.43042 0.
-2.19324 -2.94137 0.
-2.85883 -3.81121 0.
7.24355 9.60161 0.
2.80253 3.7386 0.
-2.05734 -2.70811 0.
0.898427 1.16739 0.
-3.52935 -6.32869 0.
-3.7412 -4.89457 0.
-6.79923 -9.80324 0.
-1.83743 -2.6281 0.
1.29199 1.83301 0.
-1.54491 -4.9241 0.
-1.18263 -1.62286 0.
-11.9995 -16.6271 0.
-7.66466 -10.7213 0.
-24.5635 -32.0228 0.
-114.855 -150.3 0.
-2.34235 -3.1059 0.
-0.453384 -0.611715 0.
-184.624 -252.919 0.
-15.4897 -21.1744 0.
-108.365 -149.406 0.
-200.93 -279.712 0.
-10.574 -15.3139 0.
-301.646 -448.485 0.
-294.929 -451.286 0.
-74.5905 -118.792 0.
-581.529 -941.339 0.
-195.847 -386.274 0.
-217.867 -433.079 0.
-240.315 -481.329 0.
-255.831 -518.094 0.
-218.126 -449.541 0.
-183.094 -384.238 0.
-344.936 -721.89 0.
-225.448 -480.022 0.
-109.491 -237.082 0.
-390.962 -780.989 0.
-165.623 -334.098 0.
-255.815 -642.052 0.
-176.601 -447.476 0.
-97.7767 -250.166 0.
-247.956 -657.578 0.
-162.308 -433.605 0.
-77.2343 -207.626 0.
-239.008 -649.491 0.
-112.331 -305.99 0.
-53.0819 -144.611 0.
-186.91 -499.843 0.
-45.035 -120.791 0.
-107.048 -287.158 0.
-40.3579 -109.223 0.
-6.59008 -18.0512 0.
-67.6362 -177.243 0.
-28.2385 -75.9253 0.
-12.934 -35.5088 0.
-57.7898 -157.692 0.
-27.0909 -74.8535 0.
-4.13396 -11.3219 0.
-56.2096 -141.115 0.
-48.774 -123.878 0.
-18.8356 -51.8845 0.
-36.9701 -102.324 0.
-56.5126 -155.451 0.
-24.9953 -69.2076 0.
-42.5322 -116.561 0.
-72.4412 -195.33 0.
-12.9446 -35.7658 0.
-30.3664 -82.9264 0.
-70.7697 -189.617 0.
-5.50624 -15.1106 0.
-35.3512 -96.2352 0.
-127.368 -344.196 0.
-46.8762 -125.154 0.
-219.182 -581.259 0.
-69.1003 -188.334 0.
-145.32 -394.43 0.
-252.999 -682.688 0.
-97.7623 -259.991 0.
-180.367 -475.644 0.
-263.945 -689.483 0.
-117.361 -293.298 0.
-198.607 -491.339 0.
-280.193 -685.353 0.
-207.118 -407.099 0.
-423.162 -825.193 0.
-124.61 -259.314 0.
-227.598 -466.26 0.
-335.391 -676.04 0.
-223.509 -455.767 0.
-222.979 -448.844 0.
-223.119 -443.623 0.
-285.881 -561.836 0.
-227.845 -442.746 0.
-170.875 -328.103 0.
-594.895 -951.414 0.
-54.765 -84.9185 0.
-284.587 -421.075 0.
-240.71 -345.635 0.
2.82937 3.9497 0.
-160.051 -212.314 0.
-77.8029 -102.568 0.
-1.60346 -2.1025 0.
-147.056 -193.635 0.
-0.510262 -0.663255 0.
-1.57552 -2.02144 0.
-52.3723 -67.7666 0.
-16.525 -21.4051 0.
-8.3821 -12.1045 0.
-5.20189 -7.45152 0.
1.1074 1.57354 0.
3.50552 5.72911 0.
-34.8345 -47.7642 0.
-50.7078 -70.2147 0.
-72.1916 -100.955 0.
-104.351 -135.048 0.
-107.698 -139.827 0.
-96.4576 -126.576 0.
-108.384 -144.614 0.
-126.641 -171.815 0.
-77.2565 -103.855 0.
-109.975 -149.127 0.
-123.965 -169.663 0.
-55.3259 -78.1589 0.
-3.92321 -5.70868 0.
-35.8304 -52.6244 0.
4.47179 6.92094 0.
-28.1027 -44.3594 0.
0.326902 0.633529 0.
2.96826 5.7638 0.
-1.25684 -2.44495 0.
-13.8042 -26.5916 0.
-11.9149 -23.261 0.
-7.44356 -14.7276 0.
2.686 5.38199 0.
-0.371987 -0.755424 0.
-18.2509 -37.5382 0.
-28.7012 -54.8117 0.
-9.53193 -18.2091 0.
-14.0211 -33.7805 0.
-12.2229 -29.7412 0.
-14.0283 -34.4585 0.
-32.5023 -84.017 0.
-24.5576 -63.797 0.
-15.9636 -41.6738 0.
-61.1994 -162.219 0.
-28.6795 -75.9605 0.
-26.7271 -70.6291 0.
-126.676 -321.719 0.
-33.209 -85.053 0.
-156.9 -433.729 0.
-39.1704 -108.004 0.
-20.9968 -57.9162 0.
-174.869 -474.941 0.
-34.9535 -93.3165 0.
-9.7612 -26.3526 0.
-154.112 -416.456 0.
-56.2541 -151.067 0.
-29.3518 -79.9204 0.
-127.634 -329.514 0.
-102.36 -281.01 0.
-53.0904 -146.166 0.
-72.7012 -200.483 0.
-147.593 -401.416 0.
-25.417 -68.1516 0.
-55.7566 -148.425 0.
-181.198 -493.121 0.
-7.36663 -20.3577 0.
-40.7596 -112.036 0.
-169.859 -467.087 0.
-12.0109 -33.2545 0.
-32.8872 -90.9992 0.
-158.908 -440.046 0.
-31.4495 -80.2595 0.
-115.073 -291.012 0.
-25.0045 -66.0679 0.
-30.0098 -79.2308 0.
-38.9936 -102.834 0.
-15.4187 -39.8369 0.
-17.4939 -44.9298 0.
-16.8884 -43.1229 0.
-17.2374 -41.2987 0.
-18.0308 -42.7545 0.
-15.4 -36.1353 0.
-26.0562 -48.316 0.
-44.2318 -81.5886 0.
-15.5838 -30.5831 0.
-2.90244 -5.64423 0.
-2.77577 -5.3497 0.
-5.73395 -11.067 0.
-5.80724 -11.0928 0.
-13.936 -26.3513 0.
2.58776 4.92744 0.
1.5445 2.92894 0.
2.93615 5.54594 0.
-35.6928 -55.6235 0.
3.93217 5.96592 0.
-40.4801 -58.5155 0.
-58.7778 -82.8823 0.
-58.2776 -79.7476 0.
-95.2418 -124.926 0.
-109.65 -142.965 0.
-94.7552 -122.827 0.
-111.862 -145.364 0.
-100.976 -129.49 0.
-76.0495 -96.2761 0.
-87.8103 -112.464 0.
-89.7476 -115.042 0.
-62.2663 -89.9116 0.
-16.2204 -23.2646 0.
-8.83232 -12.5664 0.
-0.589293 -1.04658 0.
0.720825 1.02732 0.
-0.416837 -0.600578 0.
-0.672336 -0.979704 0.
-12.8195 -16.8521 0.
-15.4667 -20.3965 0.
3.93796 5.2245 0.
-11.5316 -15.4201 0.
-28.5122 -38.4441 0.
5.25808 7.00405 0.
-6.47797 -8.80682 0.
-47.718 -66.1814 0.
1.87082 2.69697 0.
-28.4847 -41.424 0.
-69.3649 -101.703 0.
-0.700152 -1.081 0.
-112.603 -177.27 0.
-34.6753 -66.4464 0.
-24.1167 -46.3194 0.
-10.6952 -20.5853 0.
-66.5619 -127.891 0.
-44.695 -87.0285 0.
-29.0863 -57.4162 0.
-16.9453 -33.651 0.
-34.1212 -68.6256 0.
-47.7453 -97.2437 0.
-99.3146 -184.874 0.
-35.7284 -66.7355 0.
-86.7741 -207.4 0.
-27.9493 -67.7462 0.
-28.8377 -70.5987 0.
-97.5587 -249.711 0.
-40.5707 -104.66 0.
-26.1785 -67.8867 0.
-110.434 -292.301 0.
-44.1509 -117.045 0.
-31.4153 -83.1316 0.
-141.738 -352.762 0.
-29.3502 -73.8161 0.
-108.086 -299.128 0.
-31.4561 -87.0014 0.
-14.2291 -39.365 0.
-74.1483 -200.717 0.
-21.7225 -58.9568 0.
-1.88802 -5.16266 0.
-35.4436 -95.677 0.
-20.3056 -55.5701 0.
-6.28198 -17.3638 0.
-35.0786 -92.2971 0.
-27.5472 -76.0988 0.
-13.4016 -36.7591 0.
-22.3998 -61.9312 0.
-31.4627 -84.7335 0.
-9.74377 -26.71 0.
-26.0799 -70.8382 0.
-45.478 -122.408 0.
-1.93816 -5.36767 0.
-20.3846 -56.3442 0.
-93.0546 -256.491 0.
-6.8038 -18.8435 0.
-28.3149 -78.4274 0.
-125.967 -348.847 0.
-31.6037 -79.6893 0.
-150.544 -374.112 0.
-30.7357 -80.7982 0.
-46.8517 -123.012 0.
-108.074 -282.385 0.
-36.3769 -93.235 0.
-31.7727 -80.939 0.
-83.1568 -209.836 0.
-32.2909 -77.3751 0.
-34.0983 -80.8472 0.
-79.1454 -184.82 0.
-49.6796 -90.3364 0.
-101.083 -182.731 0.
-63.1563 -122.811 0.
-47.9177 -92.3108 0.
-29.8363 -56.9587 0.
-25.452 -48.7462 0.
-50.8384 -96.3716 0.
-74.7009 -140.246 0.
-18.0596 -34.0381 0.
-26.0884 -48.9671 0.
-25.5999 -47.8545 0.
-118.807 -185.81 0.
2.17599 3.30866 0.
-72.5439 -103.46 0.
-20.6511 -29.2733 0.
-3.05435 -4.3028 0.
-52.8652 -71.8154 0.
-10.5753 -14.0973 0.
3.49702 4.57562 0.
-10.3812 -13.5335 0.
-6.14626 -7.92337 0.
2.84412 3.62706 0.
-17.2231 -22.3381 0.
-23.4309 -30.3012 0.
-4.42288 -6.68339 0.
-1.35917 -2.02942 0.
0.515141 0.760357 0.
-0.947558 -3.57464 0.
-39.9357 -55.847 0.
-68.9995 -97.4778 0.
-46.228 -66.05 0.
-103.447 -133.839 0.
-177.479 -230.398 0.
-56.2047 -72.981 0.
-76.5697 -100.201 0.
-237.186 -312.82 0.
-170.351 -223.167 0.
-157.853 -210.783 0.
-143.781 -195.883 0.
-23.2019 -33.4008 0.
-218.624 -315.415 0.
-188.257 -274.545 0.
-4.4323 -6.82626 0.
-467.335 -735.911 0.
-106.883 -202.634 0.
-163.066 -309.853 0.
-268.358 -510.701 0.
-186.343 -356.027 0.
-193.283 -373.27 0.
-201.572 -393.356 0.
-259.922 -506.646 0.
-181.196 -358.495 0.
-101.905 -204.981 0.
-303.922 -548.327 0.
-191.555 -346.31 0.
-203.335 -482.13 0.
-137.424 -330.46 0.
-74.5436 -181.688 0.
-183.122 -462.79 0.
-122.696 -312.947 0.
-62.5345 -160.918 0.
-155.725 -411.088 0.
-83.687 -221.716 0.
-38.7029 -102.552 0.
-135.158 -330.599 0.
-24.7977 -61.1981 0.
-42.597 -117.968 0.
-23.6906 -65.6121 0.
-8.36115 -23.1581 0.
-37.965 -103.675 0.
-9.99653 -27.4042 0.
0.265688 0.731917 0.
-13.5174 -37.1282 0.
-2.13447 -5.90375 0.
0.0507351 0.140455 0.
-2.7395 -7.4627 0.
-2.03235 -5.62844 0.
-0.37254 -1.01954 0.
-0.3155 -0.873876 0.
-1.21172 -3.31797 0.
-0.440492 -1.21884 0.
-11.2665 -31.0454 0.
-28.0672 -76.8394 0.
-0.951863 -2.6355 0.
-8.61936 -23.8715 0.
-38.4772 -106.422 0.
-3.90489 -10.8007 0.
-22.815 -63.1385 0.
-65.7115 -181.821 0.
-27.2256 -67.8829 0.
-164.948 -404.358 0.
-40.416 -105.725 0.
-102.114 -266.279 0.
-169.295 -439.132 0.
-73.4678 -186.711 0.
-130.29 -327.788 0.
-187.832 -467.28 0.
-90.6145 -215.447 0.
-155.827 -363.893 0.
-220.279 -506.453 0.
-217.778 -385.277 0.
-326.167 -575.294 0.
-134.934 -260.008 0.
-197.51 -376.943 0.
-262.85 -496.321 0.
-233.562 -441.91 0.
-200.242 -375.958 0.
-164.519 -306.299 0.
-303.337 -564.478 0.
-163.705 -303.9 0.
-96.1752 -177.852 0.
-481.668 -758.05 0.
-25.6716 -39.128 0.
-186.067 -262.965 0.
-204.562 -287.044 0.
-14.6583 -20.4616 0.
-147.576 -198.109 0.
-140.696 -185.375 0.
-136.064 -176.017 0.
-216.627 -277.216 0.
-81.3354 -102.885 0.
-52.8061 -66.0839 0.
-137.396 -175.07 0.
-113.547 -144.324 0.
-52.1739 -77.5725 0.
-31.7623 -46.6426 0.
-7.95165 -11.5399 0.
1.95105 2.81113 0.
-3.04968 -4.731 0.
0.158351 0.195388 0.
4.91924 6.11155 0.
-0.618286 -0.730147 0.
-0.73501 -0.875897 0.
-6.02012 -7.20045 0.
-0.7699 -0.919775 0.
-2.06404 -2.46268 0.
-2.83018 -3.37067 0.
-1.87559 -2.24803 0.
3.02586 3.65055 0.
0.126616 0.160599 0.
-1.23029 -1.58315 0.
1.1035 1.44166 0.
-0.569958 -0.795603 0.
-37.7229 -54.9221 0.
-4.10102 -7.10423 0.
3.00023 5.23186 0.
-2.67305 -4.69512 0.
-31.6892 -56.6334 0.
-8.17683 -14.7927 0.
-8.03575 -14.7107 0.
0.0655978 0.121045 0.
-19.9022 -37.5349 0.
-51.3698 -99.1717 0.
-63.6899 -112.221 0.
-52.0397 -92.708 0.
-49.743 -118.476 0.
-47.3601 -113.636 0.
-41.2271 -99.6493 0.
-49.1983 -124.105 0.
-39.4099 -100.041 0.
-42.2435 -107.905 0.
-58.0467 -153.475 0.
-40.405 -106.822 0.
-39.6705 -104.865 0.
-132.314 -324.187 0.
-59.5041 -146.308 0.
-162.354 -449.564 0.
-61.5309 -170.385 0.
-33.8243 -93.6775 0.
-140.681 -387.932 0.
-56.9747 -157.042 0.
-28.9682 -80.0187 0.
-125.336 -346.609 0.
-46.0903 -127.657 0.
-36.2883 -100.244 0.
-89.8969 -247.938 0.
-86.2685 -238.939 0.
-41.1158 -112.762 0.
-54.875 -151.799 0.
-117.5 -325.445 0.
-43.0412 -119.069 0.
-54.9829 -152.176 0.
-122.344 -337.244 0.
-28.1637 -77.9291 0.
-61.9325 -171.152 0.
-147.981 -408.791 0.
-36.4277 -100.868 0.
-62.8892 -174.142 0.
-160.733 -444.907 0.
-55.0673 -134.918 0.
-115.894 -282.555 0.
-43.1275 -111.635 0.
-43.8487 -113.593 0.
-42.3819 -109.874 0.
-45.3119 -114.238 0.
-49.5302 -124.122 0.
-52.7531 -131.398 0.
-59.4798 -141.809 0.
-48.731 -114.944 0.
-41.6602 -97.1771 0.
-58.1413 -101.496 0.
-69.9047 -120.897 0.
-56.3658 -105.039 0.
-36.6157 -66.7154 0.
-19.4432 -34.6652 0.
-18.5455 -32.8281 0.
-23.9126 -41.7674 0.
-38.4247 -66.2689 0.
-17.8444 -30.4903 0.
-7.98768 -13.5223 0.
-17.3014 -29.0447 0.
-42.627 -61.733 0.
-0.670918 -0.929464 0.
2.67745 3.40967 0.
1.71151 2.14441 0.
-2.92907 -3.61278 0.
0.903922 1.07332 0.
4.39337 5.20138 0.
2.62981 3.10449 0.
-3.05099 -3.56002 0.
-11.1574 -13.0071 0.
-2.30551 -2.68559 0.
-13.9227 -16.4073 0.
-11.0046 -12.9153 0.
-1.59711 -2.07075 0.
4.36014 5.59478 0.
1.22063 1.55032 0.
0.152144 0.215629 0.
-4.54662 -5.51433 0.
-2.47782 -3.02501 0.
-6.49763 -7.98452 0.
-20.2809 -23.8796 0.
-29.2428 -34.7447 0.
-13.4838 -15.9478 0.
-11.7764 -13.9093 0.
-94.0101 -110.753 0.
-98.0397 -115.196 0.
-46.8802 -55.5043 0.
-31.3848 -37.4125 0.
-4.27377 -5.3009 0.
-241.225 -302.158 0.
-229.489 -291.787 0.
-45.0935 -61.9011 0.
-499.103 -715.893 0.
-97.9971 -164.656 0.
-153.54 -259.574 0.
-318.001 -541.245 0.
-158.363 -276.307 0.
-177.596 -313.208 0.
-199.432 -355.643 0.
-216.346 -395.835 0.
-180.861 -339.162 0.
-145.493 -279.521 0.
-213.482 -372.63 0.
-237.655 -419.16 0.
-190.188 -448.987 0.
-141.705 -337.632 0.
-96.8289 -232.721 0.
-169.45 -424.025 0.
-125.927 -317.598 0.
-83.6377 -212.577 0.
-144.663 -379.639 0.
-102.697 -269.976 0.
-62.0357 -163.098 0.
-131.629 -318.683 0.
-64.2119 -155.792 0.
-50.9675 -141.159 0.
-37.708 -104.445 0.
-25.6934 -71.1607 0.
-27.5692 -75.7084 0.
-18.7423 -51.6805 0.
-8.65665 -23.9372 0.
-29.0159 -80.1514 0.
-20.6887 -57.3042 0.
-15.3987 -42.5145 0.
-28.3029 -78.1543 0.
-21.6126 -59.8394 0.
-13.2884 -36.461 0.
-21.3555 -59.0796 0.
-28.675 -79.3743 0.
-8.82532 -24.3699 0.
-17.0331 -47.1784 0.
-25.911 -71.5358 0.
-18.8527 -52.196 0.
-30.2925 -83.7737 0.
-45.005 -124.268 0.
-32.6507 -90.3534 0.
-41.317 -114.374 0.
-63.7666 -176.541 0.
-71.8756 -171.948 0.
-143.149 -341.243 0.
-81.5005 -210.258 0.
-122.08 -314.997 0.
-161.644 -416.686 0.
-98.5903 -247 0.
-143.267 -356.07 0.
-188.827 -465.518 0.
-99.1868 -235.773 0.
-147.098 -344.143 0.
-198.034 -455.283 0.
-270.16 -463.961 0.
-218.716 -373.422 0.
-155.71 -286.833 0.
-203.49 -366.731 0.
-250.672 -442.072 0.
-236.528 -410.488 0.
-187.707 -321.448 0.
-152.651 -258.028 0.
-359.952 -594.557 0.
-141.128 -231.605 0.
-100.02 -162.845 0.
-483.195 -688.225 0.
-50.3705 -68.5194 0.
-202.935 -254.304 0.
-218.863 -269.607 0.
3.37657 4.09367 0.
-19.5262 -22.9486 0.
-23.1941 -27.1794 0.
-76.5482 -89.4007 0.
-61.9366 -71.7793 0.
-12.7075 -14.7224 0.
-18.4027 -21.3038 0.
-22.241 -26.1379 0.
-12.277 -14.3693 0.
1.0979 1.39837 0.
1.36955 1.72648 0.
3.79707 4.73948 0.
3.57478 4.9804 0.
-68.1262 -81.6159 0.
-39.9911 -48.2316 0.
-72.4644 -87.3894 0.
-74.9313 -87.954 0.
-75.098 -88.9301 0.
-76.4273 -89.3559 0.
-75.6166 -88.2647 0.
-43.8373 -51.1015 0.
-103.307 -119.984 0.
-83.5496 -97.7218 0.
-102.419 -120.601 0.
-81.6552 -98.832 0.
-56.4663 -69.3251 0.
-30.4418 -37.2826 0.
4.78286 6.32931 0.
-36.4149 -49.9417 0.
1.84601 2.92767 0.
-2.66744 -4.2798 0.
0.877617 1.42484 0.
-0.823997 -1.39767 0.
-1.60835 -2.74575 0.
-1.97205 -3.38901 0.
0.206707 0.363119 0.
0.388881 0.692867 0.
-2.0394 -3.6857 0.
-16.9967 -28.0576 0.
-27.8973 -46.4334 0.
-14.2524 -32.14 0.
-19.0887 -43.2468 0.
-23.4612 -53.4036 0.
-25.9119 -61.5889 0.
-25.8103 -61.7435 0.
-27.2552 -65.603 0.
-28.7117 -71.8194 0.
-14.6712 -36.8995 0.
-6.21101 -15.7038 0.
-57.3066 -131.788 0.
-47.3335 -108.266 0.
-70.2404 -191.972 0.
-22.4319 -61.3793 0.
-19.8382 -54.1413 0.
-87.1705 -240.718 0.
-36.2498 -100.152 0.
-28.9979 -80.0423 0.
-88.9532 -246.196 0.
-36.511 -100.846 0.
-26.4893 -72.8244 0.
-71.9349 -199.181 0.
-68.3955 -189.287 0.
-45.2649 -124.307 0.
-46.4652 -128.393 0.
-73.2854 -202.961 0.
-27.1485 -74.5851 0.
-36.872 -101.719 0.
-86.9197 -240.347 0.
-27.5305 -75.8129 0.
-34.8726 -96.2395 0.
-93.1807 -257.132 0.
-19.6136 -53.586 0.
-17.5208 -47.8822 0.
-64.3312 -175.189 0.
-42.0725 -93.5521 0.
-54.4652 -121.961 0.
-9.72354 -24.1435 0.
-10.842 -26.766 0.
-16.7195 -41.0267 0.
-28.2319 -66.594 0.
-24.4146 -57.2017 0.
-24.188 -56.2537 0.
-26.6357 -59.547 0.
-19.9235 -44.0475 0.
-29.3021 -63.9391 0.
-27.7239 -44.8053 0.
-12.0595 -19.4486 0.
-10.5752 -18.2662 0.
-1.05651 -1.79887 0.
-2.06512 -3.46385 0.
-3.44883 -5.71056 0.
0.430259 0.705969 0.
-0.466926 -0.759213 0.
-3.46473 -5.42844 0.
-0.502987 -0.776525 0.
3.58183 5.45075 0.
-26.7291 -36.2893 0.
0.39622 0.527241 0.
-62.0419 -76.3033 0.
-85.37 -103.266 0.
-63.6495 -75.7762 0.
-93.3858 -108.593 0.
-86.8558 -100.695 0.
-112.44 -129.93 0.
-43.3027 -49.8785 0.
-69.0807 -79.5104 0.
-78.916 -90.781 0.
-69.0015 -80.866 0.
-60.0715 -70.1033 0.
-55.1084 -68.7124 0.
-27.6512 -34.1897 0.
-28.9986 -35.5147 0.
1.53879 2.32093 0.
-9.53875 -11.5618 0.
-4.14963 -4.97661 0.
0.151562 0.17192 0.
-1.38905 -1.58137 0.
4.97108 5.68091 0.
-2.82481 -3.17225 0.
0.55799 0.628843 0.
-5.62503 -6.3629 0.
-37.1018 -42.0794 0.
-14.0736 -16.0753 0.
-13.9502 -16.0472 0.
3.462 4.1233 0.
-15.0303 -18.0276 0.
-61.3811 -74.1757 0.
-4.91655 -6.56052 0.
-86.8882 -120.19 0.
-1.70173 -2.67094 0.
-3.24929 -5.15968 0.
-36.8198 -59.1451 0.
-26.2393 -43.9653 0.
-20.5111 -34.5882 0.
-14.8571 -25.221 0.
-10.5961 -18.4488 0.
-20.5301 -36.2435 0.
-28.7889 -51.5365 0.
-33.9486 -55.477 0.
-46.8585 -77.2107 0.
-20.2682 -45.8088 0.
-22.7152 -51.602 0.
-27.1438 -61.9661 0.
-41.9417 -99.3682 0.
-29.8667 -71.3026 0.
-29.277 -70.3482 0.
-51.4099 -127.647 0.
-27.8502 -69.669 0.
-18.865 -47.4798 0.
-58.2177 -133.208 0.
-37.1768 -84.8264 0.
-34.9691 -95.7885 0.
-19.4618 -53.2228 0.
-12.8846 -35.1503 0.
-22.3053 -61.6067 0.
-17.7918 -49.0841 0.
-13.699 -37.7377 0.
-19.1783 -53.1052 0.
-15.132 -41.807 0.
-13.9516 -38.3696 0.
-15.7068 -43.49 0.
-12.7156 -35.1881 0.
-16.1206 -44.2968 0.
-18.7612 -51.8479 0.
-20.8783 -57.8269 0.
-11.2579 -30.9521 0.
-14.2893 -39.4433 0.
-16.4795 -45.6013 0.
-15.9217 -43.7554 0.
-20.247 -55.7932 0.
-27.3966 -75.645 0.
-19.3786 -52.9727 0.
-16.4803 -45.0614 0.
-39.8708 -108.912 0.
-60.1713 -131.655 0.
-55.9612 -123.738 0.
-25.3196 -62.5603 0.
-25.5161 -62.6795 0.
-42.0801 -102.613 0.
-36.9281 -86.8335 0.
-30.1965 -70.5506 0.
-27.7566 -64.3875 0.
-31.5301 -70.4091 0.
-28.3228 -62.5025 0.
-35.2984 -76.9025 0.
-44.5545 -71.4237 0.
-25.8009 -41.2554 0.
-32.7017 -56.1379 0.
-21.4393 -36.2914 0.
-12.1162 -20.2167 0.
-20.9063 -34.159 0.
-28.2207 -45.6751 0.
-29.7665 -47.7523 0.
-43.9205 -68.0313 0.
-6.14503 -9.3871 0.
0.324727 0.488921 0.
-86.0258 -117.226 0.
-6.08013 -8.09914 0.
-62.1271 -75.6512 0.
-8.87816 -10.6955 0.
2.83885 3.38294 0.
-28.8967 -33.3554 0.
-13.5109 -15.4198 0.
-19.4726 -21.98 0.
-4.1772 -4.67153 0.
-6.04416 -6.75954 0.
-2.26442 -2.53269 0.
4.8155 5.51231 0.
2.76018 3.15062 0.
-1.24153 -1.41329 0.
2.06702 2.55082 0.
-0.673254 -0.831452 0.
-0.437853 -0.643543 0.
-58.4024 -68.8591 0.
-16.9734 -19.7938 0.
-55.9236 -62.0069 0.
-65.8691 -73.2402 0.
-77.3902 -86.2988 0.
-45.399 -49.9065 0.
-89.3977 -98.5908 0.
-163.228 -180.722 0.
-166.36 -184.841 0.
-113.032 -126.34 0.
-66.7612 -75.1378 0.
-7.155 -8.40375 0.
-156.203 -184.823 0.
-140.879 -168.204 0.
-24.1656 -32.5238 0.
-369.824 -511.351 0.
-24.9568 -38.7367 0.
-73.5336 -115.368 0.
-303.479 -480.322 0.
-79.6632 -131.62 0.
-130.394 -216.139 0.
-195.138 -324.304 0.
-132.377 -227.077 0.
-128.421 -223.359 0.
-122.286 -215.733 0.
-50.2821 -81.348 0.
-251.525 -407.231 0.
-96.4485 -217.938 0.
-80.4224 -182.91 0.
-65.9034 -150.799 0.
-96.8607 -228.183 0.
-77.296 -183.368 0.
-58.303 -139.384 0.
-85.399 -209.529 0.
-61.366 -151.817 0.
-37.0304 -92.4683 0.
-56.9562 -129.738 0.
-34.4375 -78.2182 0.
-22.164 -60.7155 0.
-15.0737 -41.1951 0.
-8.70544 -23.7278 0.
-14.0079 -38.6056 0.
-12.2259 -33.6376 0.
-9.87053 -27.1015 0.
-5.63806 -15.6118 0.
-5.37856 -14.8604 0.
-3.79996 -10.4534 0.
-1.19905 -3.32026 0.
-1.32098 -3.65543 0.
-3.12909 -8.59504 0.
-4.19212 -11.5813 0.
-5.02421 -13.9145 0.
-5.49505 -15.1163 0.
-6.29522 -17.3829 0.
-8.05062 -22.2807 0.
-8.5316 -23.3813 0.
-12.5324 -34.4568 0.
-18.6787 -51.4842 0.
-19.6949 -53.8649 0.
-16.3843 -44.8179 0.
-16.8427 -46.0787 0.
-65.6613 -141.727 0.
-56.9042 -124.265 0.
-58.5864 -143.498 0.
-75.8406 -184.339 0.
-92.1033 -222.242 0.
-76.2162 -178.037 0.
-91.3667 -211.657 0.
-107.934 -248.007 0.
-67.2074 -149.696 0.
-88.0937 -193.612 0.
-109.89 -238.276 0.
-282.586 -448.586 0.
-45.7171 -72.5007 0.
-111.483 -188.921 0.
-136.262 -227.22 0.
-161.496 -265.215 0.
-229.902 -365.399 0.
-134.928 -214.002 0.
-94.1523 -148.54 0.
-305.969 -465.913 0.
-74.8528 -112.804 0.
-16.3193 -24.2853 0.
-343.405 -464.206 0.
-36.9492 -49.4376 0.
-139.105 -166.918 0.
-153.177 -181.738 0.
-13.935 -16.353 0.
-78.4353 -88.492 0.
-96.817 -108.024 0.
-156.125 -172.336 0.
-130.915 -143.127 0.
-91.5325 -100.091 0.
-63.0079 -68.935 0.
-39.2197 -43.8859 0.
-55.541 -61.9947 0.
-74.4081 -82.8575 0.
-9.23516 -11.1503 0.
-19.8123 -23.9428 0.
3.29722 4.0001 0.
4.52162 4.79283 0.
2.94555 3.08431 0.
-3.79573 -3.87248 0.
-1.58983 -1.61598 0.
3.5815 3.62632 0.
-5.13815 -5.21937 0.
-2.10556 -2.13256 0.
4.67316 4.75851 0.
-4.77173 -4.88593 0.
4.31856 4.40443 0.
-2.74874 -2.79186 0.
2.92154 3.08105 0.
-3.78488 -4.04982 0.
5.82843 6.33251 0.
3.40168 4.1146 0.
-15.734 -19.8593 0.
-0.354628 -0.496437 0.
0.655748 0.941783 0.
-10.7162 -15.8095 0.
-11.4065 -17.6567 0.
-4.09225 -6.40493 0.
-0.168342 -0.266619 0.
0.466108 0.781495 0.
-9.37074 -16.273 0.
-19.3854 -34.8785 0.
-19.0184 -31.5598 0.
-50.9792 -86.0294 0.
-33.453 -79.3635 0.
-29.9755 -71.1889 0.
-25.4035 -60.3958 0.
-26.0574 -63.4142 0.
-20.424 -49.7728 0.
-21.5248 -52.5052 0.
-34.2825 -86.002 0.
-30.8857 -77.6852 0.
-32.4095 -81.6839 0.
-35.6789 -82.5589 0.
-74.4818 -171.572 0.
-50.9724 -140.536 0.
-41.1546 -113.25 0.
-38.9716 -106.981 0.
-41.6775 -115.232 0.
-30.9773 -85.4306 0.
-37.6704 -103.519 0.
-34.641 -95.7762 0.
-24.5431 -67.6811 0.
-30.1448 -82.801 0.
-46.5928 -129.031 0.
-45.3453 -125.564 0.
-38.3184 -105.324 0.
-30.7764 -84.9689 0.
-29.5891 -81.898 0.
-34.821 -95.6729 0.
-28.6148 -78.9021 0.
-46.7669 -129.263 0.
-25.7467 -70.5051 0.
-33.1034 -90.9694 0.
-47.4567 -130.776 0.
-30.7992 -84.581 0.
-41.5139 -114.343 0.
-60.3682 -166.627 0.
-83.3476 -188.936 0.
-40.9801 -93.4587 0.
-30.1481 -75.9068 0.
-29.7561 -74.2075 0.
-32.5856 -80.4509 0.
-29.2375 -70.1841 0.
-22.855 -54.3997 0.
-16.3193 -38.5102 0.
-23.0795 -52.7293 0.
-27.246 -62.3432 0.
-32.4672 -74.3991 0.
-42.5558 -69.1511 0.
-8.17014 -13.0015 0.
-27.7472 -46.3656 0.
-9.53169 -15.3987 0.
-0.651709 -1.01807 0.
-0.85582 -1.27096 0.
-7.04024 -10.3532 0.
-7.54555 -10.9971 0.
-22.9536 -32.2046 0.
4.00916 5.4808 0.
0.648392 0.864662 0.
-2.3706 -2.91192 0.
2.9339 3.47807 0.
-1.2606 -1.3571 0.
0.415074 0.440266 0.
-5.11524 -5.62854 0.
2.66303 2.69425 0.
2.51828 2.55965 0.
1.69011 1.72555 0.
1.4366 1.45948 0.
-0.355618 -0.360692 0.
-3.4298 -3.4732 0.
-2.32682 -2.37555 0.
-2.63351 -2.68263 0.
-0.503611 -0.511886 0.
4.32878 4.55749 0.
5.01372 5.31767 0.
0.851593 1.00687 0.
1.09512 1.14147 0.
-4.03398 -4.1533 0.
-3.95366 -3.9526 0.
2.31139 2.30127 0.
0.998399 0.989713 0.
1.01617 1.0132 0.
1.00376 1.00607 0.
-11.6012 -11.6915 0.
-65.2784 -65.6448 0.
-10.8236 -10.8377 0.
3.7683 3.75661 0.
4.67617 4.79032 0.
-152.6 -158.528 0.
-154.684 -163.003 0.
-26.044 -30.3268 0.
-344.215 -415.822 0.
-13.1278 -17.8992 0.
-48.0408 -67.2137 0.
-318.193 -458.013 0.
-67.492 -101.181 0.
-66.9524 -101.325 0.
-186.567 -282.956 0.
-130.392 -213.048 0.
-102.915 -174.826 0.
-78.023 -137.938 0.
-16.6027 -27.7132 0.
-228.951 -387.253 0.
-44.4035 -105.418 0.
-52.469 -124.628 0.
-65.0835 -154.595 0.
-51.4259 -124.546 0.
-56.3773 -136.655 0.
-61.9847 -150.379 0.
-69.025 -172.448 0.
-60.0217 -150.466 0.
-51.6438 -129.88 0.
-34.413 -79.2677 0.
-39.871 -91.684 0.
-21.4207 -59.1136 0.
-18.2813 -50.3554 0.
-12.9344 -35.5495 0.
-11.5639 -31.9884 0.
-10.9029 -30.0951 0.
-11.7485 -32.3281 0.
-11.8387 -32.7194 0.
-10.6639 -29.391 0.
-8.30301 -22.7941 0.
-10.222 -28.3063 0.
-10.073 -27.8949 0.
-12.1275 -33.3494 0.
-11.6306 -32.1126 0.
-9.63864 -26.677 0.
-13.9733 -38.4013 0.
-12.412 -34.2278 0.
-13.8255 -38.219 0.
-11.209 -30.7032 0.
-13.3814 -36.7807 0.
-11.6978 -32.2451 0.
-14.0209 -38.5143 0.
-18.327 -50.4907 0.
-21.6318 -59.7323 0.
-38.2156 -87.1085 0.
-35.6532 -81.3258 0.
-69.6154 -174.177 0.
-66.7208 -165.28 0.
-64.307 -157.681 0.
-76.7541 -184.616 0.
-62.7816 -149.668 0.
-49.0659 -115.908 0.
-76.4385 -173.427 0.
-51.8202 -118.132 0.
-51.3915 -117.396 0.
-244.653 -396.66 0.
-15.7734 -25.1452 0.
-75.3155 -122.863 0.
-114.687 -179.822 0.
-154.703 -233.73 0.
-225.264 -321.545 0.
-60.4823 -86.1635 0.
-61.7031 -87.2175 0.
-325.227 -442.633 0.
-74.2341 -98.5306 0.
-22.4939 -29.1402 0.
-324.24 -380.367 0.
-27.5594 -31.4842 0.
-101.572 -106.504 0.
-105.276 -108.825 0.
3.23479 3.29767 0.
-2.1865 -2.16914 0.
-0.851048 -0.848566 0.
-20.5536 -20.591 0.
-8.20003 -8.24971 0.
-12.0069 -12.0613 0.
-6.22874 -6.24742 0.
-9.54144 -9.59403 0.
-0.723583 -0.726109 0.
2.87264 2.87709 0.
-3.55041 -3.77083 0.
-0.933087 -0.967551 0.
-1.89444 -2.18292 0.
-12.6037 -12.9255 0.
0.268299 0.271718 0.
-42.3175 -41.4504 0.
-54.1596 -52.8123 0.
-78.672 -76.3673 0.
-29.668 -29.2743 0.
-90.6098 -89.8866 0.
-133.831 -133.507 0.
-148.292 -146.443 0.
-68.8497 -67.6729 0.
-51.2342 -50.1158 0.
-71.6782 -71.2816 0.
-47.6779 -48.0219 0.
3.52815 3.67156 0.
-2.50907 -2.73283 0.
-9.06296 -9.94187 0.
2.66256 3.39621 0.
-0.589368 -0.774536 0.
-2.98276 -4.0411 0.
-0.786868 -1.10856 0.
-7.67462 -10.7728 0.
-11.8546 -16.5826 0.
-7.65849 -11.5266 0.
-11.9536 -18.2983 0.
-20.8364 -32.4194 0.
-1.64587 -4.45328 0.
-18.9929 -30.6311 0.
-26.2582 -59.3438 0.
-10.8159 -24.4782 0.
-3.99241 -9.04571 0.
-21.9062 -50.4586 0.
-6.51652 -15.0416 0.
-7.00251 -16.2028 0.
-17.6832 -42.5893 0.
-18.0563 -43.6241 0.
-16.4649 -39.9125 0.
-18.0267 -39.8148 0.
-48.2045 -106.758 0.
-13.1993 -36.0424 0.
-15.5247 -42.2935 0.
-35.0967 -95.2877 0.
-17.3393 -47.7238 0.
-18.7933 -51.5419 0.
-30.9695 -84.5468 0.
-13.9305 -38.3028 0.
-13.1937 -36.1274 0.
-20.65 -56.2665 0.
-22.7425 -62.9836 0.
-20.4227 -56.5194 0.
-16.5288 -45.4827 0.
-8.0668 -22.2413 0.
-6.40355 -17.6839 0.
-25.5566 -69.7744 0.
-13.3771 -36.6484 0.
-12.1649 -33.4257 0.
-25.96 -70.194 0.
-18.8128 -51.0405 0.
-17.4218 -47.4121 0.
-25.6709 -69.0863 0.
-18.2379 -49.3002 0.
-20.5927 -55.8573 0.
-49.0986 -105.352 0.
-9.17189 -19.6701 0.
-16.445 -38.7412 0.
-13.1337 -30.8301 0.
-12.2232 -28.5819 0.
-8.56493 -19.8005 0.
-8.05118 -18.5055 0.
-14.7878 -33.8045 0.
-6.28473 -13.7948 0.
-12.3421 -27.0696 0.
-19.5306 -42.7963 0.
-18.0266 -28.0588 0.
2.81414 4.19933 0.
-7.22053 -10.4669 0.
-7.09801 -10.1733 0.
-5.95861 -8.44577 0.
-0.840251 -1.12882 0.
-1.05598 -1.41335 0.
-1.60598 -2.14156 0.
-3.69857 -4.70884 0.
-1.59421 -1.95675 0.
0.0785323 0.0929739 0.
-15.3912 -16.1198 0.
-16.1002 -17.6916 0.
-49.8383 -50.8309 0.
-51.369 -51.6783 0.
-54.2838 -53.9102 0.
-45.7014 -44.4316 0.
-81.8793 -80.0138 0.
-156.565 -153.739 0.
-98.859 -98.5057 0.
-75.0624 -74.6851 0.
-40.6212 -40.3569 0.
-52.3792 -51.8625 0.
-59.5503 -58.8575 0.
-66.5156 -65.6283 0.
0.59226 0.59555 0.
-21.8507 -22.1672 0.
0.814399 0.907364 0.
-0.989247 -0.95279 0.
0.570075 0.532768 0.
-3.73861 -3.35803 0.
0.0971163 0.0869157 0.
0.834143 0.743653 0.
-2.47003 -2.26367 0.
5.07565 4.6728 0.
4.67385 4.32359 0.
-10.7858 -9.98038 0.
-8.47465 -7.80405 0.
-1.69626 -1.55444 0.
-1.94819 -1.80213 0.
0.302636 0.280469 0.
-16.4901 -15.3115 0.
1.49876 1.53618 0.
-32.1817 -34.8489 0.
-0.750214 -0.945102 0.
-0.0715846 -0.0930006 0.
-21.3727 -28.6442 0.
-6.1374 -8.5806 0.
-12.8095 -17.8448 0.
-13.543 -18.8026 0.
-26.3437 -39.7099 0.
-17.5164 -26.8729 0.
-24.2398 -37.8125 0.
-2.02288 -3.19053 0.
-17.5508 -28.8082 0.
-30.7754 -69.0143 0.
-16.7579 -37.6452 0.
-8.89835 -20.0166 0.
-24.3002 -56.123 0.
-9.71676 -22.4964 0.
-8.54397 -19.8288 0.
-20.2371 -48.6086 0.
-18.0107 -43.4062 0.
-16.499 -39.8949 0.
-17.2968 -38.4894 0.
-21.9797 -49.1066 0.
-8.11711 -22.1577 0.
-10.0716 -27.4294 0.
-11.3693 -30.8872 0.
-2.95645 -8.14191 0.
-4.64118 -12.7391 0.
-2.85734 -7.8121 0.
1.17505 3.23651 0.
-1.19289 -3.27368 0.
-3.82275 -10.4448 0.
-2.81154 -7.78592 0.
-0.300501 -0.831552 0.
-1.04658 -2.87699 0.
-0.988378 -2.72276 0.
-1.57202 -4.33814 0.
-6.66895 -18.2455 0.
-5.78778 -15.8827 0.
-2.55935 -7.04218 0.
-3.72948 -10.1281 0.
-0.121794 -0.331754 0.
-0.713689 -1.94935 0.
-5.98757 -16.1089 0.
-9.29357 -25.0942 0.
-14.148 -38.3262 0.
-22.6025 -49.11 0.
-7.26197 -15.7319 0.
-19.1941 -45.0695 0.
-18.0394 -42.1981 0.
-18.6957 -43.5602 0.
-12.9177 -29.8185 0.
-14.1242 -32.4154 0.
-20.662 -47.1481 0.
-9.22083 -20.1362 0.
-15.1666 -33.092 0.
-29.8631 -65.0611 0.
-13.1997 -20.9414 0.
-0.183493 -0.278687 0.
-11.7532 -16.9251 0.
-13.2491 -18.8603 0.
-34.3733 -48.2937 0.
-10.2585 -13.6912 0.
-4.79583 -6.37661 0.
-0.158714 -0.210272 0.
-27.4816 -34.7086 0.
-1.56891 -1.90916 0.
3.35378 3.93115 0.
-50.5173 -51.7828 0.
2.50336 2.46226 0.
-0.858042 -0.785302 0.
4.84842 4.43969 0.
1.28242 1.17512 0.
-6.5352 -5.94294 0.
-9.834 -8.96712 0.
-22.7809 -20.8263 0.
-0.0296039 -0.0271067 0.
-2.90339 -2.66197 0.
-2.252 -2.06727 0.
0.00761093 0.00693202 0.
-0.247424 -0.226904 0.
-0.368368 -0.340019 0.
-0.367115 -0.340792 0.
-0.713979 -0.677467 0.
1.24486 1.32328 0.
-21.1122 -19.8706 0.
2.06424 1.88476 0.
-19.4027 -17.0177 0.
-32.8478 -28.6898 0.
-51.5886 -44.8685 0.
-25.5166 -22.7455 0.
-57.4924 -51.4174 0.
-99.8404 -89.5752 0.
-113.702 -102.951 0.
-55.265 -49.8144 0.
-28.9793 -25.9906 0.
-0.898505 -0.815007 0.
-78.0052 -70.8576 0.
-101.143 -92.0229 0.
-1.60962 -1.62142 0.
-217.749 -230.852 0.
-1.78703 -2.22151 0.
-17.3513 -22.255 0.
-184.676 -243.74 0.
-12.547 -17.4092 0.
-17.7894 -24.598 0.
-133.267 -183.999 0.
-55.8195 -84.2644 0.
-39.5365 -60.7496 0.
-25.8613 -40.4568 0.
-1.17756 -1.8905 0.
-90.6826 -152.517 0.
-33.6418 -74.8417 0.
-22.7366 -50.6718 0.
-25.7724 -57.4636 0.
-33.4016 -77.3213 0.
-20.2528 -47.0146 0.
-20.5233 -47.7536 0.
-28.5824 -68.4633 0.
-20.5071 -49.2926 0.
-16.5131 -39.8267 0.
-16.8519 -37.7802 0.
-22.4898 -50.6139 0.
-4.92142 -13.4297 0.
-6.43809 -17.5281 0.
-4.96495 -13.4862 0.
1.52875 4.21205 0.
1.45459 3.99541 0.
-0.664563 -1.8184 0.
-0.502148 -1.38491 0.
-1.09944 -3.0227 0.
-1.14189 -3.12725 0.
0.0862973 0.238975 0.
-0.151916 -0.420373 0.
1.12303 3.08409 0.
0.642505 1.7684 0.
0.146596 0.404239 0.
-1.69028 -4.63237 0.
-1.11217 -3.05641 0.
0.0892142 0.245763 0.
-0.150992 -0.411444 0.
1.33874 3.65783 0.
0.195289 0.534899 0.
0.128028 0.344114 0.
-3.2067 -8.64964 0.
-8.53338 -23.0898 0.
-14.9001 -32.7121 0.
-7.76301 -16.9835 0.
-28.4974 -66.6406 0.
-24.2436 -56.5021 0.
-27.2756 -63.3067 0.
-38.067 -87.5883 0.
-31.7153 -72.5973 0.
-33.7518 -76.813 0.
-45.6603 -98.9356 0.
-20.729 -44.9801 0.
-40.5358 -87.7656 0.
-110.469 -180.008 0.
0.669416 1.03648 0.
-21.9043 -31.3077 0.
-39.1206 -55.1834 0.
-93.2786 -129.527 0.
-158.879 -210.503 0.
-12.0234 -15.8798 0.
-1.91221 -2.51664 0.
-188.306 -233.862 0.
-26.7706 -32.2458 0.
0.626802 0.726757 0.
-221.194 -220.878 0.
-3.82235 -3.66905 0.
-101.385 -90.9045 0.
-76.6209 -68.7299 0.
2.37243 2.12664 0.
-36.442 -32.5645 0.
-44.516 -39.9028 0.
-112.332 -100.958 0.
-81.4549 -72.568 0.
-47.676 -42.5512 0.
-35.7255 -31.9451 0.
-32.5587 -28.8946 0.
-38.9005 -34.7758 0.
-47.4915 -42.7484 0.
-2.26652 -2.04545 0.
-13.1331 -12.1208 0.
-1.40014 -1.08736 0.
-1.71727 -1.4505 0.
0.86253 0.702857 0.
-2.78928 -2.20716 0.
-4.46782 -2.67332 0.
-2.62694 -2.06648 0.
0.882342 0.714837 0.
-0.234239 -0.189761 0.
-2.383 -1.9304 0.
-3.52287 -2.95508 0.
2.79415 2.3467 0.
1.16629 0.98063 0.
-4.24576 -3.02406 0.
1.41337 1.21901 0.
-11.9234 -10.393 0.
3.3592 3.17937 0.
-19.7664 -19.8813 0.
-0.204418 -0.239537 0.
2.60147 3.12275 0.
-10.077 -12.3956 0.
-0.728323 -0.961929 0.
1.80083 2.42969 0.
-13.6608 -18.8148 0.
-2.30698 -3.4696 0.
0.614237 0.929115 0.
2.10744 3.20647 0.
-0.885856 -1.41429 0.
-2.01734 -3.37159 0.
-11.2386 -24.8769 0.
-6.41006 -14.1744 0.
-2.06158 -4.55358 0.
-2.41577 -5.6107 0.
-4.12635 -9.63064 0.
-7.96305 -18.6732 0.
-7.77271 -18.7795 0.
-5.50573 -13.3735 0.
-4.71171 -11.5041 0.
-2.42554 -5.56984 0.
-11.1266 -25.4244 0.
-0.659519 -1.79154 0.
-1.7845 -4.82181 0.
-3.23018 -8.67771 0.
-2.55345 -6.96729 0.
-4.34782 -11.8367 0.
-15.5853 -42.3185 0.
-3.80328 -10.4523 0.
-6.45579 -17.7113 0.
-7.45767 -20.4218 0.
-4.45914 -12.3459 0.
-0.750244 -2.07601 0.
-11.0479 -30.3495 0.
-4.26697 -11.7396 0.
-2.71905 -7.49113 0.
-9.18934 -25.1292 0.
-6.41993 -17.594 0.
-6.07277 -16.6753 0.
-7.26066 -19.6548 0.
-8.26044 -22.439 0.
-6.33568 -17.2668 0.
-11.3483 -30.256 0.
-8.04258 -21.5289 0.
-6.05047 -16.2568 0.
-7.56003 -16.8652 0.
1.47745 3.28037 0.
-5.34722 -12.4803 0.
-5.62871 -13.0678 0.
-5.98082 -13.809 0.
-6.87706 -15.6801 0.
-6.90864 -15.7761 0.
-5.63427 -12.8867 0.
0.673095 1.44585 0.
-3.94374 -8.45148 0.
-11.0604 -23.6432 0.
-4.48355 -7.2197 0.
-1.5952 -4.10885 0.
0.0144313 0.0197027 0.
-1.21491 -1.65249 0.
-5.0645 -6.86174 0.
-11.996 -15.4686 0.
-0.0877865 -0.109931 0.
1.95445 2.37564 0.
0.236481 0.267722 0.
1.13574 1.26426 0.
-0.451565 -0.494482 0.
-27.604 -25.9363 0.
-0.0642257 -0.0577151 0.
-7.85589 -6.71279 0.
-2.97195 -2.52167 0.
-0.219291 -0.184797 0.
5.67292 4.76578 0.
-1.08001 -0.906594 0.
5.24836 4.40288 0.
3.48589 2.83043 0.
0.458546 0.372968 0.
-3.36816 -2.74414 0.
5.06628 4.04869 0.
3.19896 2.5791 0.
0.801263 0.651592 0.
2.50292 1.94684 0.
-0.692782 -0.558741 0.
1.58895 1.36697 0.
-2.92405 -2.43269 0.
4.19326 3.36917 0.
-9.11348 -7.13379 0.
-8.91639 -6.9586 0.
-7.30167 -5.68083 0.
-9.09865 -7.25531 0.
-17.0612 -13.6 0.
-33.9792 -27.0756 0.
-42.0749 -35.0511 0.
-16.0577 -13.3944 0.
-12.1112 -10.1136 0.
3.04153 2.5732 0.
-1.35387 -1.15715 0.
-46.5188 -40.2049 0.
-1.81927 -1.6862 0.
-38.1521 -37.7253 0.
0.765607 0.882443 0.
-12.5732 -14.8424 0.
-56.4549 -68.2213 0.
-1.88066 -2.48964 0.
3.04811 4.12463 0.
-58.8154 -81.1245 0.
-13.3489 -19.8605 0.
-3.00738 -4.50272 0.
-3.75636 -5.65429 0.
-0.124186 -0.200399 0.
-16.7036 -28.3106 0.
-14.8799 -32.6484 0.
-10.0485 -22.0223 0.
-8.20574 -17.9556 0.
-6.80738 -15.8796 0.
-9.87977 -23.1574 0.
-10.3064 -24.2733 0.
-9.91328 -23.999 0.
-7.06342 -17.1933 0.
-7.70755 -18.8556 0.
1.52845 3.58409 0.
-3.27041 -7.63094 0.
1.10445 3.00797 0.
-0.201828 -0.546996 0.
-0.636156 -1.71498 0.
0.220499 0.602211 0.
-1.97008 -5.36893 0.
-2.11077 -5.73946 0.
-1.61165 -4.43178 0.
-0.740646 -2.03336 0.
-1.06679 -2.92353 0.
-1.24048 -3.43406 0.
0.298309 0.825304 0.
0.373349 1.02661 0.
0.196153 0.540127 0.
1.05049 2.89631 0.
0.387867 1.06193 0.
-0.300326 -0.823896 0.
0.198774 0.546312 0.
-0.458429 -1.24156 0.
-1.26409 -3.43519 0.
-2.14136 -5.83743 0.
-4.59406 -12.2525 0.
-1.41894 -3.79919 0.
-1.71603 -4.61091 0.
-1.33486 -3.05434 0.
-0.488045 -1.11216 0.
-6.24017 -14.6726 0.
-7.25652 -16.9722 0.
-8.50509 -19.7833 0.
-6.87368 -15.6767 0.
-6.55792 -14.9797 0.
-5.0301 -11.5087 0.
-10.286 -21.7152 0.
-14.0077 -29.5154 0.
-17.8834 -37.6122 0.
-16.4712 -26.9279 0.
2.15411 3.31248 0.
-4.19929 -5.69361 0.
-3.50497 -4.73619 0.
-10.1842 -13.7052 0.
-64.0887 -82.9211 0.
1.00829 1.26781 0.
-2.2082 -3.38613 0.
-62.2553 -69.1923 0.
-1.32887 -1.45564 0.
-0.594333 -0.64047 0.
-44.9592 -41.2382 0.
2.91601 2.5551 0.
-46.1332 -39.1112 0.
-4.15764 -3.49688 0.
3.05014 2.54775 0.
-6.35521 -5.29913 0.
-11.6867 -9.73818 0.
-43.581 -36.2863 0.
-31.4373 -25.1593 0.
-23.7831 -19.0701 0.
-11.7891 -9.47093 0.
-2.29115 -1.81015 0.
-3.41075 -2.71864 0.
-17.916 -14.4056 0.
0.0901703 0.0689645 0.
-15.9837 -12.6659 0.
