# vtk DataFile Version 2.0
test grain
ASCII
DATASET UNSTRUCTURED_GRID
POINTS 5000 float
0.497764 0.00061435 0.
0.500591 0.000795012 0.
0.503072 0.00086353 0.
0.505533 0.000930214 0.
0.507651 0.000946579 0.
0.509771 0.000963251 0.
0.511861 0.000975634 0.
0.513904 0.000980538 0.
0.515947 0.000985468 0.
0.517969 0.000989323 0.
0.519979 0.000992631 0.
0.52199 0.00099595 0.
0.523993 0.000996751 0.
0.525994 0.000997227 0.
0.527996 0.000997685 0.
0.529997 0.000997987 0.
0.531998 0.000998289 0.
0.533998 0.000998563 0.
0.535999 0.000998782 0.
0.537999 0.000999 0.
0.539999 0.000999135 0.
0.541999 0.000999201 0.
0.544 0.000999267 0.
0.546 0.000999262 0.
0.548 0.000999237 0.
0.55 0.000999212 0.
0.552 0.000999199 0.
0.554 0.000999186 0.
0.556 0.000999185 0.
0.558 0.00099923 0.
0.56 0.000999275 0.
0.562 0.000999309 0.
0.564 0.000999329 0.
0.566 0.000999349 0.
0.568 0.000999336 0.
0.57 0.000999306 0.
0.572 0.000999277 0.
0.574 0.000999273 0.
0.576 0.000999273 0.
0.578 0.000999275 0.
0.58 0.000999293 0.
0.582 0.000999311 0.
0.584 0.000999326 0.
0.586 0.000999331 0.
0.588 0.000999337 0.
0.59 0.000999365 0.
0.592 0.00099941 0.
0.594 0.000999455 0.
0.596 0.000999407 0.
0.598 0.000999333 0.
0.6 0.000999258 0.
0.602 0.000999313 0.
0.604 0.000999368 0.
0.606 0.000999405 0.
0.608 0.000999377 0.
0.61 0.000999349 0.
0.612 0.000999335 0.
0.614 0.000999336 0.
0.616 0.000999338 0.
0.618 0.000999309 0.
0.62 0.000999265 0.
0.622 0.000999221 0.
0.624 0.000999231 0.
0.626 0.000999248 0.
0.628 0.000999268 0.
0.63 0.00099931 0.
0.632 0.000999352 0.
0.634 0.00099937 0.
0.636 0.000999339 0.
0.638 0.000999309 0.
0.64 0.00099927 0.
0.642 0.000999226 0.
0.644 0.000999182 0.
0.646 0.00099917 0.
0.648 0.000999167 0.
0.65 0.000999164 0.
0.652 0.000999183 0.
0.654 0.000999201 0.
0.656 0.000999199 0.
0.658001 0.000999126 0.
0.660001 0.000999053 0.
0.662001 0.000998798 0.
0.664002 0.000998316 0.
0.666002 0.000997834 0.
0.668004 0.000997673 0.
0.670005 0.000997672 0.
0.672006 0.00099767 0.
0.674009 0.000996593 0.
0.676011 0.000995388 0.
0.678016 0.000993761 0.
0.680036 0.000988894 0.
0.682055 0.000984051 0.
0.684089 0.000978945 0.
0.686149 0.000973251 0.
0.688209 0.000967591 0.
0.690371 0.000940672 0.
0.692589 0.000903551 0.
0.694827 0.000865107 0.
0.697619 0.000764245 0.
0.700417 0.000666874 0.
0.495758 0.0015989 0.
0.499091 0.00229757 0.
0.501943 0.00255447 0.
0.504765 0.00277341 0.
0.507134 0.00283153 0.
0.509431 0.0028841 0.
0.511663 0.00292635 0.
0.513757 0.0029412 0.
0.515852 0.00295612 0.
0.517907 0.00296781 0.
0.519938 0.00297778 0.
0.52197 0.00298778 0.
0.523978 0.00299024 0.
0.525982 0.00299168 0.
0.527987 0.00299305 0.
0.52999 0.00299396 0.
0.531993 0.00299486 0.
0.533995 0.00299569 0.
0.535996 0.00299634 0.
0.537998 0.002997 0.
0.539998 0.0029974 0.
0.541998 0.0029976 0.
0.543999 0.0029978 0.
0.545999 0.00299779 0.
0.547999 0.00299771 0.
0.549999 0.00299764 0.
0.551999 0.0029976 0.
0.553999 0.00299756 0.
0.555999 0.00299756 0.
0.557999 0.00299769 0.
0.559999 0.00299782 0.
0.561999 0.00299793 0.
0.563999 0.00299799 0.
0.565999 0.00299805 0.
0.567999 0.00299801 0.
0.569999 0.00299792 0.
0.572 0.00299783 0.
0.573999 0.00299782 0.
0.575999 0.00299782 0.
0.577999 0.00299782 0.
0.579999 0.00299788 0.
0.581999 0.00299793 0.
0.583999 0.00299798 0.
0.585999 0.00299799 0.
0.587999 0.00299801 0.
0.589999 0.00299809 0.
0.591999 0.00299823 0.
0.593999 0.00299837 0.
0.596 0.00299822 0.
0.598 0.002998 0.
0.6 0.00299778 0.
0.602 0.00299794 0.
0.604001 0.0029981 0.
0.606001 0.00299821 0.
0.608001 0.00299813 0.
0.610001 0.00299805 0.
0.612001 0.002998 0.
0.614001 0.00299801 0.
0.616001 0.00299801 0.
0.618001 0.00299793 0.
0.620001 0.0029978 0.
0.622001 0.00299766 0.
0.624001 0.00299769 0.
0.626001 0.00299774 0.
0.628 0.0029978 0.
0.63 0.00299793 0.
0.632001 0.00299806 0.
0.634001 0.00299811 0.
0.636001 0.00299802 0.
0.638001 0.00299793 0.
0.640001 0.00299781 0.
0.642001 0.00299768 0.
0.644001 0.00299755 0.
0.646001 0.00299751 0.
0.648001 0.0029975 0.
0.650001 0.00299749 0.
0.652001 0.00299755 0.
0.654001 0.0029976 0.
0.656001 0.0029976 0.
0.658002 0.00299738 0.
0.660002 0.00299716 0.
0.662003 0.00299639 0.
0.664005 0.00299495 0.
0.666007 0.0029935 0.
0.668011 0.00299302 0.
0.670015 0.00299302 0.
0.672019 0.00299302 0.
0.674026 0.00298975 0.
0.676034 0.00298613 0.
0.678047 0.00298114 0.
0.680103 0.00296643 0.
0.682158 0.00295179 0.
0.68424 0.00293642 0.
0.686366 0.00291916 0.
0.688492 0.00290201 0.
0.690893 0.00280471 0.
0.693377 0.00268697 0.
0.696084 0.00252611 0.
0.69924 0.00221261 0.
0.702484 0.00172115 0.
0.493457 0.00226138 0.
0.497049 0.00342452 0.
0.500619 0.00419435 0.
0.50381 0.00457375 0.
0.506567 0.00470459 0.
0.509056 0.00479672 0.
0.511461 0.00487632 0.
0.513607 0.00490129 0.
0.515755 0.00492638 0.
0.517844 0.00494607 0.
0.519897 0.00496277 0.
0.521949 0.00497953 0.
0.523963 0.00498373 0.
0.52597 0.00498612 0.
0.527978 0.00498842 0.
0.529983 0.00498993 0.
0.531988 0.00499144 0.
0.533992 0.00499281 0.
0.535994 0.00499391 0.
0.537996 0.004995 0.
0.539997 0.00499567 0.
0.541997 0.004996 0.
0.543998 0.00499634 0.
0.545998 0.00499631 0.
0.547998 0.00499619 0.
0.549999 0.00499606 0.
0.551998 0.00499599 0.
0.553998 0.00499593 0.
0.555998 0.00499593 0.
0.557998 0.00499615 0.
0.559998 0.00499637 0.
0.561999 0.00499654 0.
0.563999 0.00499664 0.
0.565999 0.00499674 0.
0.567999 0.00499668 0.
0.569999 0.00499653 0.
0.571999 0.00499638 0.
0.573999 0.00499637 0.
0.575999 0.00499637 0.
0.577998 0.00499637 0.
0.579999 0.00499647 0.
0.581999 0.00499656 0.
0.583999 0.00499663 0.
0.585999 0.00499666 0.
0.587999 0.00499669 0.
0.589999 0.00499682 0.
0.591999 0.00499705 0.
0.593999 0.00499728 0.
0.595999 0.00499704 0.
0.598 0.00499666 0.
0.6 0.00499629 0.
0.602001 0.00499657 0.
0.604001 0.00499684 0.
0.606001 0.00499702 0.
0.608001 0.00499688 0.
0.610001 0.00499675 0.
0.612001 0.00499667 0.
0.614001 0.00499668 0.
0.616001 0.00499669 0.
0.618001 0.00499655 0.
0.620001 0.00499633 0.
0.622001 0.0049961 0.
0.624001 0.00499616 0.
0.626001 0.00499624 0.
0.628001 0.00499634 0.
0.630001 0.00499655 0.
0.632001 0.00499676 0.
0.634001 0.00499685 0.
0.636001 0.0049967 0.
0.638001 0.00499654 0.
0.640001 0.00499635 0.
0.642002 0.00499613 0.
0.644002 0.00499591 0.
0.646002 0.00499585 0.
0.648001 0.00499584 0.
0.650001 0.00499582 0.
0.652001 0.00499591 0.
0.654002 0.004996 0.
0.656002 0.00499599 0.
0.658003 0.00499563 0.
0.660003 0.00499526 0.
0.662005 0.00499398 0.
0.664009 0.00499157 0.
0.666012 0.00498916 0.
0.668018 0.00498837 0.
0.670025 0.00498837 0.
0.672032 0.00498836 0.
0.674044 0.00498288 0.
0.676056 0.00497683 0.
0.67808 0.00496834 0.
0.680171 0.00494362 0.
0.682263 0.00491903 0.
0.684396 0.00489332 0.
0.686591 0.00486426 0.
0.688784 0.00483538 0.
0.691496 0.00464312 0.
0.694273 0.00443569 0.
0.697633 0.00407608 0.
0.701213 0.00350104 0.
0.704913 0.00238379 0.
0.490673 0.00247512 0.
0.494828 0.00411275 0.
0.498885 0.00533284 0.
0.502218 0.00583149 0.
0.505367 0.00616508 0.
0.508018 0.00635767 0.
0.510654 0.00655316 0.
0.512967 0.00664742 0.
0.515276 0.00673821 0.
0.517503 0.00680886 0.
0.519638 0.00685424 0.
0.521775 0.00690038 0.
0.523837 0.00692574 0.
0.525883 0.00694735 0.
0.527927 0.00696767 0.
0.529942 0.00697119 0.
0.531957 0.00697472 0.
0.533969 0.00697842 0.
0.535977 0.00698248 0.
0.537985 0.00698654 0.
0.53999 0.00698925 0.
0.541992 0.00699085 0.
0.543995 0.00699244 0.
0.545996 0.00699303 0.
0.547997 0.00699332 0.
0.549997 0.00699361 0.
0.551997 0.00699358 0.
0.553997 0.00699355 0.
0.555997 0.00699361 0.
0.557997 0.00699396 0.
0.559997 0.00699431 0.
0.561998 0.00699455 0.
0.563998 0.00699464 0.
0.565998 0.00699474 0.
0.567998 0.00699468 0.
0.569998 0.00699454 0.
0.571999 0.0069944 0.
0.573998 0.00699435 0.
0.575998 0.00699431 0.
0.577998 0.0069943 0.
0.579998 0.00699445 0.
0.581998 0.0069946 0.
0.583998 0.00699472 0.
0.585998 0.00699478 0.
0.587998 0.00699483 0.
0.589998 0.00699497 0.
0.591998 0.00699518 0.
0.593998 0.00699539 0.
0.595999 0.00699515 0.
0.598 0.00699477 0.
0.6 0.0069944 0.
0.602001 0.00699468 0.
0.604001 0.00699495 0.
0.606002 0.00699515 0.
0.608002 0.00699504 0.
0.610002 0.00699494 0.
0.612002 0.00699485 0.
0.614002 0.00699479 0.
0.616002 0.00699474 0.
0.618002 0.00699455 0.
0.620002 0.00699431 0.
0.622002 0.00699407 0.
0.624002 0.00699412 0.
0.626002 0.00699421 0.
0.628001 0.00699431 0.
0.630001 0.00699449 0.
0.632002 0.00699467 0.
0.634002 0.00699474 0.
0.636002 0.00699461 0.
0.638002 0.00699448 0.
0.640002 0.0069942 0.
0.642003 0.00699382 0.
0.644003 0.00699343 0.
0.646003 0.00699333 0.
0.648003 0.0069933 0.
0.650002 0.00699328 0.
0.652004 0.00699263 0.
0.654005 0.00699199 0.
0.656006 0.00699099 0.
0.65801 0.00698877 0.
0.660014 0.00698656 0.
0.662021 0.00698247 0.
0.664032 0.00697609 0.
0.666043 0.00696972 0.
0.668061 0.0069663 0.
0.670082 0.00696423 0.
0.672103 0.00696216 0.
0.674171 0.00692907 0.
0.676243 0.00689415 0.
0.678336 0.00685554 0.
0.680523 0.00679607 0.
0.682706 0.00673781 0.
0.685022 0.0066468 0.
0.687423 0.00653742 0.
0.689904 0.00638363 0.
0.692813 0.0060225 0.
0.695857 0.00565814 0.
0.699486 0.0051633 0.
0.703607 0.00422746 0.
0.70759 0.00268191 0.
0.487873 0.00250316 0.
0.492486 0.00445595 0.
0.496579 0.00590436 0.
0.500377 0.00687243 0.
0.503805 0.00747282 0.
0.506823 0.00784279 0.
0.509682 0.00816899 0.
0.512247 0.00836091 0.
0.514738 0.00852606 0.
0.517141 0.00866508 0.
0.519364 0.00874097 0.
0.521591 0.00881814 0.
0.523707 0.00886604 0.
0.525793 0.00890738 0.
0.527875 0.0089468 0.
0.5299 0.00895236 0.
0.531925 0.00895793 0.
0.533947 0.00896396 0.
0.535961 0.008971 0.
0.537975 0.00897805 0.
0.539983 0.00898281 0.
0.541987 0.00898567 0.
0.543992 0.00898854 0.
0.545994 0.00898974 0.
0.547995 0.00899044 0.
0.549996 0.00899115 0.
0.551996 0.00899117 0.
0.553996 0.00899118 0.
0.555996 0.00899129 0.
0.557996 0.00899177 0.
0.559996 0.00899225 0.
0.561997 0.00899255 0.
0.563997 0.00899264 0.
0.565997 0.00899273 0.
0.567997 0.00899267 0.
0.569998 0.00899254 0.
0.571998 0.00899241 0.
0.573998 0.00899233 0.
0.575997 0.00899226 0.
0.577997 0.00899222 0.
0.579997 0.00899243 0.
0.581997 0.00899265 0.
0.583997 0.00899282 0.
0.585997 0.0089929 0.
0.587997 0.00899298 0.
0.589997 0.00899312 0.
0.591998 0.00899331 0.
0.593998 0.00899351 0.
0.595998 0.00899326 0.
0.597999 0.00899288 0.
0.6 0.00899251 0.
0.602001 0.00899279 0.
0.604002 0.00899307 0.
0.606002 0.00899327 0.
0.608002 0.0089932 0.
0.610002 0.00899313 0.
0.612002 0.00899303 0.
0.614002 0.0089929 0.
0.616002 0.00899278 0.
0.618002 0.00899256 0.
0.620003 0.00899229 0.
0.622003 0.00899203 0.
0.624003 0.00899208 0.
0.626002 0.00899217 0.
0.628002 0.00899227 0.
0.630002 0.00899242 0.
0.632002 0.00899257 0.
0.634002 0.00899264 0.
0.636003 0.00899252 0.
0.638003 0.00899241 0.
0.640003 0.00899205 0.
0.642004 0.0089915 0.
0.644004 0.00899096 0.
0.646004 0.0089908 0.
0.648004 0.00899077 0.
0.650004 0.00899073 0.
0.652006 0.00898934 0.
0.654008 0.00898796 0.
0.656011 0.00898597 0.
0.658018 0.0089819 0.
0.660024 0.00897783 0.
0.662037 0.0089709 0.
0.664056 0.00896051 0.
0.666074 0.00895015 0.
0.668105 0.00894412 0.
0.67014 0.00893995 0.
0.672175 0.00893579 0.
0.674304 0.00887269 0.
0.676437 0.00880778 0.
0.678609 0.00873737 0.
0.680898 0.0086406 0.
0.683181 0.00854583 0.
0.685756 0.00836227 0.
0.688397 0.00815993 0.
0.691273 0.00778574 0.
0.694369 0.00723699 0.
0.697883 0.00662218 0.
0.701746 0.00586478 0.
0.705997 0.00453724 0.
0.710659 0.00261847 0.
0.484863 0.00242649 0.
0.489783 0.00452459 0.
0.494251 0.00627159 0.
0.498297 0.0076662 0.
0.502093 0.00861071 0.
0.505595 0.00925903 0.
0.508667 0.00969726 0.
0.511503 0.01 0.
0.514154 0.0102371 0.
0.516737 0.0104659 0.
0.519043 0.0105758 0.
0.521357 0.0106895 0.
0.523538 0.0107704 0.
0.525669 0.0108423 0.
0.527798 0.0109134 0.
0.529838 0.0109226 0.
0.531878 0.0109318 0.
0.533913 0.0109417 0.
0.535934 0.0109531 0.
0.537956 0.0109645 0.
0.53997 0.0109725 0.
0.541978 0.0109775 0.
0.543985 0.0109826 0.
0.545989 0.010985 0.
0.547991 0.0109867 0.
0.549994 0.0109883 0.
0.551994 0.0109885 0.
0.553994 0.0109887 0.
0.555994 0.010989 0.
0.557995 0.0109897 0.
0.559995 0.0109903 0.
0.561996 0.0109907 0.
0.563996 0.0109908 0.
0.565996 0.0109909 0.
0.567997 0.0109909 0.
0.569997 0.0109908 0.
0.571997 0.0109907 0.
0.573997 0.0109906 0.
0.575997 0.0109905 0.
0.577996 0.0109905 0.
0.579996 0.0109907 0.
0.581997 0.0109909 0.
0.583997 0.0109911 0.
0.585997 0.0109912 0.
0.587997 0.0109914 0.
0.589997 0.0109915 0.
0.591997 0.0109916 0.
0.593997 0.0109917 0.
0.595998 0.0109915 0.
0.597999 0.0109912 0.
0.6 0.0109909 0.
0.602001 0.0109911 0.
0.604002 0.0109914 0.
0.606003 0.0109915 0.
0.608003 0.0109915 0.
0.610003 0.0109915 0.
0.612003 0.0109914 0.
0.614003 0.0109912 0.
0.616003 0.0109911 0.
0.618003 0.0109909 0.
0.620003 0.0109906 0.
0.622003 0.0109903 0.
0.624003 0.0109904 0.
0.626003 0.0109904 0.
0.628002 0.0109905 0.
0.630003 0.0109906 0.
0.632003 0.0109907 0.
0.634003 0.0109907 0.
0.636004 0.0109906 0.
0.638004 0.0109905 0.
0.640004 0.01099 0.
0.642005 0.0109892 0.
0.644006 0.0109884 0.
0.646006 0.010988 0.
0.648007 0.0109877 0.
0.650007 0.0109873 0.
0.652011 0.0109847 0.
0.654014 0.010982 0.
0.65602 0.0109783 0.
0.658032 0.0109709 0.
0.660044 0.0109635 0.
0.662063 0.0109526 0.
0.664092 0.0109376 0.
0.666121 0.0109227 0.
0.668171 0.010908 0.
0.670231 0.0108937 0.
0.672291 0.010879 0.
0.674484 0.010776 0.
0.676677 0.0106737 0.
0.678939 0.0105618 0.
0.681328 0.0104227 0.
0.683725 0.0102854 0.
0.686544 0.01 0.
0.689436 0.00969795 0.
0.692696 0.00906354 0.
0.696111 0.00830472 0.
0.699961 0.00746629 0.
0.704204 0.0062446 0.
0.708698 0.00461386 0.
0.713602 0.00252707 0.
0.48189 0.00233411 0.
0.487404 0.00457722 0.
0.4921 0.00651877 0.
0.496375 0.00826435 0.
0.500712 0.00955653 0.
0.504439 0.01037 0.
0.507673 0.0109282 0.
0.510748 0.011407 0.
0.513508 0.0117806 0.
0.516233 0.0121596 0.
0.518645 0.0123305 0.
0.521053 0.0124972 0.
0.52332 0.0126283 0.
0.525504 0.0127462 0.
0.527689 0.0128651 0.
0.529752 0.0128808 0.
0.531813 0.0128955 0.
0.533866 0.0129111 0.
0.535897 0.0129284 0.
0.537928 0.0129457 0.
0.53995 0.0129581 0.
0.541963 0.0129664 0.
0.543976 0.0129746 0.
0.545982 0.0129788 0.
0.547986 0.0129819 0.
0.54999 0.012985 0.
0.551991 0.0129856 0.
0.553992 0.0129862 0.
0.555993 0.0129869 0.
0.557993 0.0129877 0.
0.559994 0.0129885 0.
0.561995 0.012989 0.
0.563995 0.0129892 0.
0.565996 0.0129894 0.
0.567996 0.0129894 0.
0.569996 0.0129893 0.
0.571997 0.0129892 0.
0.573996 0.0129891 0.
0.575996 0.0129891 0.
0.577996 0.0129891 0.
0.579996 0.0129893 0.
0.581996 0.0129895 0.
0.583996 0.0129897 0.
0.585996 0.0129898 0.
0.587997 0.0129899 0.
0.589997 0.01299 0.
0.591997 0.01299 0.
0.593997 0.0129901 0.
0.595998 0.0129899 0.
0.597999 0.0129897 0.
0.6 0.0129895 0.
0.602001 0.0129897 0.
0.604002 0.0129899 0.
0.606003 0.01299 0.
0.608003 0.01299 0.
0.610003 0.01299 0.
0.612003 0.0129899 0.
0.614003 0.0129898 0.
0.616003 0.0129896 0.
0.618004 0.0129894 0.
0.620004 0.0129892 0.
0.622004 0.012989 0.
0.624004 0.0129889 0.
0.626003 0.0129889 0.
0.628003 0.0129889 0.
0.630003 0.012989 0.
0.632004 0.0129891 0.
0.634004 0.0129891 0.
0.636005 0.0129889 0.
0.638005 0.0129887 0.
0.640006 0.012988 0.
0.642007 0.0129869 0.
0.644008 0.0129858 0.
0.646009 0.0129849 0.
0.648011 0.012984 0.
0.650013 0.012983 0.
0.652018 0.0129786 0.
0.654024 0.0129741 0.
0.656033 0.0129678 0.
0.658052 0.0129555 0.
0.660072 0.0129432 0.
0.662101 0.0129272 0.
0.664142 0.012907 0.
0.666183 0.0128868 0.
0.668265 0.0128556 0.
0.670361 0.0128216 0.
0.672464 0.0127838 0.
0.674725 0.0126282 0.
0.676983 0.0124749 0.
0.679366 0.0122955 0.
0.681883 0.0120847 0.
0.684464 0.0118329 0.
0.687381 0.0113509 0.
0.69044 0.0108482 0.
0.693849 0.0101247 0.
0.697614 0.00923477 0.
0.701802 0.00814593 0.
0.70625 0.00656529 0.
0.711102 0.00470567 0.
0.716587 0.00244542 0.
0.479122 0.00230567 0.
0.485023 0.00464824 0.
0.490043 0.00669056 0.
0.494559 0.00869188 0.
0.499202 0.010231 0.
0.503034 0.0112455 0.
0.506577 0.0120696 0.
0.509884 0.0127349 0.
0.512828 0.0132835 0.
0.515678 0.0138113 0.
0.518227 0.014076 0.
0.520732 0.0142971 0.
0.523096 0.0144811 0.
0.525334 0.0146461 0.
0.527576 0.0148136 0.
0.529664 0.0148387 0.
0.531747 0.014859 0.
0.533819 0.0148803 0.
0.53586 0.0149035 0.
0.537901 0.0149268 0.
0.53993 0.0149438 0.
0.541948 0.0149551 0.
0.543967 0.0149665 0.
0.545975 0.0149726 0.
0.547981 0.0149771 0.
0.549986 0.0149817 0.
0.551988 0.0149827 0.
0.55399 0.0149837 0.
0.555991 0.0149847 0.
0.557992 0.0149857 0.
0.559993 0.0149866 0.
0.561994 0.0149873 0.
0.563994 0.0149875 0.
0.565995 0.0149878 0.
0.567995 0.0149878 0.
0.569996 0.0149877 0.
0.571996 0.0149877 0.
0.573996 0.0149877 0.
0.575996 0.0149877 0.
0.577995 0.0149877 0.
0.579995 0.0149879 0.
0.581996 0.014988 0.
0.583996 0.0149882 0.
0.585996 0.0149884 0.
0.587996 0.0149885 0.
0.589997 0.0149886 0.
0.591997 0.0149885 0.
0.593997 0.0149884 0.
0.595998 0.0149883 0.
0.597999 0.0149882 0.
0.6 0.0149881 0.
0.602001 0.0149882 0.
0.604002 0.0149883 0.
0.606003 0.0149884 0.
0.608003 0.0149885 0.
0.610003 0.0149885 0.
0.612003 0.0149885 0.
0.614004 0.0149884 0.
0.616004 0.0149882 0.
0.618004 0.014988 0.
0.620004 0.0149878 0.
0.622004 0.0149877 0.
0.624004 0.0149875 0.
0.626004 0.0149874 0.
0.628003 0.0149873 0.
0.630004 0.0149874 0.
0.632004 0.0149874 0.
0.634005 0.0149874 0.
0.636005 0.0149871 0.
0.638006 0.0149869 0.
0.640007 0.014986 0.
0.642009 0.0149846 0.
0.64401 0.0149832 0.
0.646013 0.0149817 0.
0.648015 0.0149802 0.
0.650018 0.0149787 0.
0.652026 0.0149725 0.
0.654034 0.0149662 0.
0.656046 0.0149573 0.
0.658073 0.0149401 0.
0.6601 0.0149228 0.
0.66214 0.0149018 0.
0.664193 0.0148763 0.
0.666246 0.0148508 0.
0.668361 0.0148019 0.
0.670494 0.0147477 0.
0.672643 0.0146846 0.
0.674975 0.0144751 0.
0.677299 0.0142697 0.
0.679826 0.0140135 0.
0.682476 0.0137283 0.
0.685249 0.0133099 0.
0.68825 0.0126358 0.
0.691525 0.0118988 0.
0.695075 0.0110351 0.
0.699065 0.0100054 0.
0.703598 0.008627 0.
0.708263 0.00675714 0.
0.713436 0.00476163 0.
0.71942 0.00242722 0.
0.476553 0.00230564 0.
0.482805 0.00471895 0.
0.488061 0.00681816 0.
0.492702 0.0089783 0.
0.497437 0.0106682 0.
0.501554 0.0120007 0.
0.505426 0.0131258 0.
0.508921 0.0139638 0.
0.512087 0.0146826 0.
0.514975 0.0152853 0.
0.517646 0.0156656 0.
0.520215 0.0159503 0.
0.522684 0.0162089 0.
0.524978 0.0164142 0.
0.527282 0.016624 0.
0.529441 0.0166976 0.
0.531584 0.0167593 0.
0.53371 0.0168158 0.
0.535768 0.0168459 0.
0.537827 0.0168762 0.
0.539873 0.0169014 0.
0.541905 0.0169225 0.
0.543938 0.0169436 0.
0.545954 0.0169552 0.
0.547965 0.0169638 0.
0.549975 0.0169724 0.
0.551979 0.0169749 0.
0.553983 0.0169773 0.
0.555986 0.0169796 0.
0.557988 0.0169814 0.
0.55999 0.0169831 0.
0.561992 0.0169843 0.
0.563993 0.0169848 0.
0.565994 0.0169853 0.
0.567994 0.0169855 0.
0.569995 0.0169855 0.
0.571995 0.0169855 0.
0.573995 0.0169856 0.
0.575995 0.0169856 0.
0.577995 0.0169856 0.
0.579995 0.0169858 0.
0.581995 0.016986 0.
0.583996 0.0169862 0.
0.585996 0.0169863 0.
0.587996 0.0169864 0.
0.589996 0.0169864 0.
0.591997 0.0169864 0.
0.593997 0.0169863 0.
0.595998 0.0169862 0.
0.597999 0.0169861 0.
0.6 0.016986 0.
0.602001 0.0169861 0.
0.604002 0.0169862 0.
0.606003 0.0169863 0.
0.608003 0.0169864 0.
0.610003 0.0169865 0.
0.612004 0.0169865 0.
0.614004 0.0169863 0.
0.616004 0.0169862 0.
0.618005 0.016986 0.
0.620005 0.0169857 0.
0.622005 0.0169855 0.
0.624005 0.0169853 0.
0.626005 0.0169852 0.
0.628004 0.0169851 0.
0.630005 0.016985 0.
0.632006 0.0169849 0.
0.634007 0.0169846 0.
0.636008 0.0169839 0.
0.638009 0.0169833 0.
0.640011 0.0169816 0.
0.642014 0.0169793 0.
0.644017 0.0169769 0.
0.646022 0.0169735 0.
0.648027 0.0169699 0.
0.650033 0.0169662 0.
0.652049 0.0169543 0.
0.654065 0.0169425 0.
0.656088 0.0169264 0.
0.658132 0.0168974 0.
0.660176 0.0168686 0.
0.662238 0.0168369 0.
0.664318 0.0168016 0.
0.666397 0.0167665 0.
0.668583 0.0166643 0.
0.670788 0.0165532 0.
0.673023 0.0164304 0.
0.675407 0.016183 0.
0.677778 0.0159416 0.
0.680438 0.0155901 0.
0.683168 0.0152366 0.
0.686089 0.0146377 0.
0.689154 0.0138264 0.
0.692662 0.0128838 0.
0.696439 0.0118369 0.
0.700567 0.0106384 0.
0.705282 0.00898778 0.
0.710201 0.00690687 0.
0.715629 0.00487588 0.
0.722035 0.0024308 0.
0.473949 0.00232936 0.
0.480512 0.00480148 0.
0.486074 0.00687556 0.
0.490855 0.00912629 0.
0.495685 0.0110258 0.
0.500052 0.0126513 0.
0.504115 0.0140079 0.
0.507781 0.0150037 0.
0.5111 0.0158639 0.
0.51407 0.0165724 0.
0.516944 0.0171441 0.
0.519599 0.0175299 0.
0.522212 0.0179044 0.
0.52458 0.018158 0.
0.526962 0.0184176 0.
0.5292 0.0185444 0.
0.531408 0.0186517 0.
0.533596 0.0187496 0.
0.535673 0.018787 0.
0.537752 0.0188245 0.
0.539815 0.0188582 0.
0.541861 0.0188892 0.
0.543908 0.0189203 0.
0.545932 0.0189376 0.
0.547948 0.0189503 0.
0.549965 0.0189631 0.
0.55197 0.0189671 0.
0.553976 0.0189709 0.
0.555981 0.0189745 0.
0.557984 0.018977 0.
0.559987 0.0189795 0.
0.56199 0.0189813 0.
0.563991 0.018982 0.
0.565992 0.0189827 0.
0.567993 0.0189831 0.
0.569994 0.0189833 0.
0.571995 0.0189834 0.
0.573994 0.0189835 0.
0.575994 0.0189835 0.
0.577994 0.0189835 0.
0.579994 0.0189838 0.
0.581995 0.018984 0.
0.583995 0.0189842 0.
0.585996 0.0189843 0.
0.587996 0.0189843 0.
0.589996 0.0189843 0.
0.591997 0.0189843 0.
0.593997 0.0189843 0.
0.595998 0.0189842 0.
0.597999 0.018984 0.
0.6 0.0189838 0.
0.602001 0.018984 0.
0.604002 0.0189841 0.
0.606003 0.0189843 0.
0.608003 0.0189844 0.
0.610004 0.0189845 0.
0.612004 0.0189845 0.
0.614004 0.0189843 0.
0.616005 0.0189842 0.
0.618005 0.0189839 0.
0.620005 0.0189836 0.
0.622006 0.0189833 0.
0.624006 0.0189831 0.
0.626006 0.018983 0.
0.628005 0.0189829 0.
0.630006 0.0189826 0.
0.632007 0.0189823 0.
0.634008 0.0189818 0.
0.63601 0.0189807 0.
0.638012 0.0189796 0.
0.640015 0.0189773 0.
0.64202 0.0189739 0.
0.644024 0.0189705 0.
0.646032 0.0189652 0.
0.64804 0.0189594 0.
0.650048 0.0189535 0.
0.652072 0.0189359 0.
0.654096 0.0189184 0.
0.65613 0.0188948 0.
0.658192 0.0188538 0.
0.660253 0.018813 0.
0.66234 0.0187702 0.
0.664449 0.0187243 0.
0.666556 0.0186786 0.
0.668826 0.0185122 0.
0.671112 0.0183373 0.
0.673442 0.0181509 0.
0.675896 0.0178543 0.
0.678366 0.0175464 0.
0.681163 0.0170605 0.
0.684005 0.016565 0.
0.687065 0.0157442 0.
0.690204 0.0148556 0.
0.693852 0.0137983 0.
0.697886 0.0125418 0.
0.70221 0.0110859 0.
0.70701 0.00925563 0.
0.712074 0.00704164 0.
0.717738 0.00502107 0.
0.724536 0.00242847 0.
0.471284 0.00236392 0.
0.478299 0.00492066 0.
0.484119 0.00696161 0.
0.489098 0.00926036 0.
0.494002 0.0113366 0.
0.498502 0.0131576 0.
0.502657 0.0146832 0.
0.506492 0.0158695 0.
0.509968 0.016937 0.
0.513115 0.0178097 0.
0.516204 0.0185732 0.
0.518973 0.0190745 0.
0.521714 0.0195725 0.
0.524183 0.0198763 0.
0.526632 0.0201723 0.
0.528946 0.0203558 0.
0.531212 0.0205156 0.
0.53346 0.0206676 0.
0.535561 0.020713 0.
0.537662 0.0207588 0.
0.539745 0.0208024 0.
0.541806 0.0208451 0.
0.543867 0.0208882 0.
0.545901 0.020913 0.
0.547925 0.0209314 0.
0.549949 0.0209499 0.
0.551957 0.0209562 0.
0.553966 0.0209623 0.
0.555973 0.0209679 0.
0.557978 0.0209714 0.
0.559983 0.020975 0.
0.561986 0.0209775 0.
0.563988 0.0209787 0.
0.56599 0.0209799 0.
0.567992 0.0209806 0.
0.569993 0.020981 0.
0.571994 0.0209814 0.
0.573993 0.0209815 0.
0.575993 0.0209816 0.
0.577993 0.0209816 0.
0.579994 0.0209819 0.
0.581994 0.0209821 0.
0.583995 0.0209823 0.
0.585995 0.0209824 0.
0.587996 0.0209824 0.
0.589996 0.0209825 0.
0.591997 0.0209824 0.
0.593997 0.0209824 0.
0.595998 0.0209823 0.
0.597999 0.0209822 0.
0.6 0.020982 0.
0.602001 0.0209822 0.
0.604002 0.0209823 0.
0.606003 0.0209824 0.
0.608003 0.0209825 0.
0.610004 0.0209827 0.
0.612004 0.0209827 0.
0.614004 0.0209825 0.
0.616005 0.0209823 0.
0.618006 0.020982 0.
0.620006 0.0209816 0.
0.622007 0.0209813 0.
0.624007 0.0209811 0.
0.626007 0.0209809 0.
0.628007 0.0209807 0.
0.630008 0.0209801 0.
0.632009 0.0209795 0.
0.634011 0.0209785 0.
0.636014 0.0209767 0.
0.638016 0.0209749 0.
0.640021 0.0209715 0.
0.642028 0.0209668 0.
0.644034 0.0209621 0.
0.646045 0.020954 0.
0.648057 0.0209449 0.
0.65007 0.0209355 0.
0.652105 0.0209101 0.
0.654139 0.0208848 0.
0.656186 0.0208518 0.
0.658266 0.0207979 0.
0.660345 0.0207445 0.
0.66246 0.0206854 0.
0.664601 0.0206223 0.
0.666741 0.02056 0.
0.669086 0.020324 0.
0.67144 0.0200867 0.
0.673859 0.0198428 0.
0.676383 0.0195066 0.
0.678988 0.0191108 0.
0.6819 0.0184922 0.
0.68491 0.0177866 0.
0.688091 0.0167802 0.
0.691449 0.0157129 0.
0.695085 0.0146185 0.
0.699323 0.0131684 0.
0.703865 0.0114123 0.
0.708746 0.00941658 0.
0.713922 0.00715741 0.
0.719871 0.00512054 0.
0.72745 0.00240719 0.
0.468431 0.00246682 0.
0.476261 0.00507161 0.
0.482334 0.00709391 0.
0.487449 0.00940538 0.
0.492424 0.0116023 0.
0.497015 0.0135809 0.
0.501258 0.0152568 0.
0.505284 0.016685 0.
0.508868 0.0179083 0.
0.512229 0.0189942 0.
0.515469 0.019885 0.
0.518373 0.0204804 0.
0.521186 0.0210471 0.
0.523751 0.0214423 0.
0.526265 0.0218183 0.
0.52866 0.0220928 0.
0.530978 0.0223284 0.
0.533289 0.0225608 0.
0.53542 0.0226176 0.
0.537553 0.0226745 0.
0.539661 0.0227306 0.
0.541737 0.022788 0.
0.543813 0.0228458 0.
0.545859 0.0228805 0.
0.547893 0.0229064 0.
0.549927 0.0229324 0.
0.55194 0.022942 0.
0.553952 0.0229512 0.
0.555964 0.0229596 0.
0.55797 0.0229644 0.
0.559977 0.0229693 0.
0.561982 0.0229729 0.
0.563985 0.0229748 0.
0.565988 0.0229767 0.
0.56799 0.0229779 0.
0.569991 0.0229787 0.
0.571992 0.0229795 0.
0.573992 0.0229797 0.
0.575992 0.0229798 0.
0.577993 0.0229799 0.
0.579993 0.0229801 0.
0.581994 0.0229804 0.
0.583995 0.0229806 0.
0.585995 0.0229807 0.
0.587996 0.0229808 0.
0.589996 0.0229808 0.
0.591997 0.0229808 0.
0.593997 0.0229807 0.
0.595998 0.0229807 0.
0.597999 0.0229807 0.
0.6 0.0229806 0.
0.602001 0.0229807 0.
0.604002 0.0229807 0.
0.606002 0.0229808 0.
0.608003 0.0229809 0.
0.610003 0.0229809 0.
0.612004 0.0229809 0.
0.614005 0.0229808 0.
0.616005 0.0229806 0.
0.618006 0.0229803 0.
0.620007 0.0229799 0.
0.622007 0.0229795 0.
0.624008 0.0229792 0.
0.626008 0.0229789 0.
0.628008 0.0229785 0.
0.63001 0.0229774 0.
0.632012 0.0229762 0.
0.634014 0.0229746 0.
0.636018 0.0229718 0.
0.638022 0.0229691 0.
0.640029 0.0229643 0.
0.642038 0.0229579 0.
0.644048 0.0229515 0.
0.646063 0.0229395 0.
0.648081 0.022926 0.
0.650099 0.0229118 0.
0.652148 0.0228758 0.
0.654196 0.02284 0.
0.656259 0.022795 0.
0.658358 0.0227269 0.
0.660457 0.0226594 0.
0.662609 0.0225726 0.
0.664793 0.0224769 0.
0.666985 0.0223743 0.
0.669377 0.022057 0.
0.671772 0.0217432 0.
0.674288 0.0214127 0.
0.676888 0.0210151 0.
0.679618 0.0205115 0.
0.682568 0.0198409 0.
0.685743 0.0189328 0.
0.689032 0.0177776 0.
0.692621 0.0165252 0.
0.6964 0.0152536 0.
0.70067 0.0137494 0.
0.705371 0.0117249 0.
0.710334 0.00959469 0.
0.715641 0.00732618 0.
0.721791 0.005277 0.
0.730512 0.00248289 0.
0.465856 0.00269952 0.
0.474459 0.00527225 0.
0.480661 0.00729527 0.
0.485951 0.00955991 0.
0.490991 0.0118512 0.
0.495623 0.0139682 0.
0.499942 0.0157851 0.
0.504057 0.0173771 0.
0.507776 0.0187922 0.
0.511311 0.0200527 0.
0.514604 0.0210118 0.
0.517691 0.0217853 0.
0.520603 0.0224675 0.
0.523299 0.02299 0.
0.525882 0.0234487 0.
0.528365 0.0238194 0.
0.530736 0.024132 0.
0.533109 0.0244476 0.
0.535277 0.0245215 0.
0.537441 0.0245897 0.
0.539576 0.0246583 0.
0.541667 0.0247304 0.
0.543758 0.024803 0.
0.545816 0.0248479 0.
0.547861 0.0248813 0.
0.549906 0.0249148 0.
0.551923 0.0249278 0.
0.553939 0.0249401 0.
0.555954 0.0249512 0.
0.557962 0.0249575 0.
0.559971 0.0249637 0.
0.561978 0.0249684 0.
0.563981 0.0249709 0.
0.565985 0.0249735 0.
0.567988 0.0249752 0.
0.56999 0.0249763 0.
0.571991 0.0249775 0.
0.573992 0.0249778 0.
0.575992 0.024978 0.
0.577992 0.0249782 0.
0.579993 0.0249784 0.
0.581994 0.0249786 0.
0.583994 0.0249788 0.
0.585995 0.024979 0.
0.587996 0.0249791 0.
0.589996 0.0249792 0.
0.591997 0.0249791 0.
0.593998 0.024979 0.
0.595999 0.0249791 0.
0.597999 0.0249791 0.
0.6 0.0249792 0.
0.602001 0.0249792 0.
0.604002 0.0249792 0.
0.606002 0.0249792 0.
0.608003 0.0249792 0.
0.610003 0.0249792 0.
0.612004 0.0249792 0.
0.614005 0.024979 0.
0.616006 0.0249789 0.
0.618006 0.0249786 0.
0.620007 0.0249782 0.
0.622008 0.0249778 0.
0.624009 0.0249773 0.
0.626009 0.0249768 0.
0.62801 0.0249762 0.
0.630012 0.0249746 0.
0.632014 0.024973 0.
0.634017 0.0249707 0.
0.636023 0.024967 0.
0.638028 0.0249632 0.
0.640037 0.0249571 0.
0.642049 0.024949 0.
0.644061 0.0249409 0.
0.646082 0.0249249 0.
0.648104 0.024907 0.
0.650129 0.0248879 0.
0.652191 0.0248412 0.
0.654253 0.0247949 0.
0.656332 0.0247378 0.
0.658451 0.0246554 0.
0.660569 0.0245736 0.
0.662762 0.0244564 0.
0.664989 0.0243274 0.
0.667236 0.0241792 0.
0.669675 0.0237796 0.
0.672111 0.0233887 0.
0.674745 0.0229637 0.
0.677438 0.0224875 0.
0.68034 0.0218055 0.
0.683364 0.0210085 0.
0.686619 0.0199386 0.
0.690018 0.0186931 0.
0.69375 0.0172925 0.
0.697709 0.015818 0.
0.702046 0.0141792 0.
0.706788 0.0120202 0.
0.711787 0.00980707 0.
0.717205 0.00755975 0.
0.723511 0.00547334 0.
0.733209 0.00272567 0.
0.464038 0.0031338 0.
0.472973 0.0055786 0.
0.479233 0.00759981 0.
0.484657 0.00980562 0.
0.489676 0.0121263 0.
0.49433 0.0143612 0.
0.498699 0.0162717 0.
0.502832 0.0179891 0.
0.50669 0.0195776 0.
0.510325 0.0209854 0.
0.513707 0.0220853 0.
0.516978 0.0230554 0.
0.519979 0.0238417 0.
0.522812 0.0244976 0.
0.525441 0.0250204 0.
0.527994 0.025475 0.
0.530397 0.0258392 0.
0.532811 0.0262104 0.
0.535041 0.0263362 0.
0.53725 0.0264428 0.
0.539429 0.0265446 0.
0.541542 0.0266313 0.
0.543656 0.0267188 0.
0.545735 0.0267791 0.
0.547798 0.0268272 0.
0.549861 0.0268758 0.
0.551886 0.0268964 0.
0.55391 0.0269158 0.
0.555932 0.0269333 0.
0.557945 0.0269424 0.
0.559958 0.0269515 0.
0.561968 0.0269585 0.
0.563974 0.0269628 0.
0.56598 0.0269671 0.
0.567984 0.0269699 0.
0.569986 0.0269719 0.
0.571989 0.026974 0.
0.57399 0.0269746 0.
0.57599 0.0269751 0.
0.577991 0.0269755 0.
0.579992 0.0269759 0.
0.581993 0.0269762 0.
0.583994 0.0269765 0.
0.585995 0.0269767 0.
0.587996 0.0269769 0.
0.589996 0.026977 0.
0.591997 0.026977 0.
0.593998 0.0269771 0.
0.595999 0.0269771 0.
0.598 0.0269772 0.
0.6 0.0269772 0.
0.602001 0.0269772 0.
0.604002 0.0269772 0.
0.606002 0.0269772 0.
0.608003 0.0269771 0.
0.610003 0.026977 0.
0.612004 0.0269769 0.
0.614005 0.0269767 0.
0.616006 0.0269765 0.
0.618007 0.026976 0.
0.620008 0.0269754 0.
0.62201 0.0269748 0.
0.624011 0.026974 0.
0.626012 0.0269732 0.
0.628013 0.0269722 0.
0.630016 0.0269693 0.
0.63202 0.0269665 0.
0.634025 0.0269625 0.
0.636033 0.0269565 0.
0.638041 0.0269505 0.
0.640055 0.0269411 0.
0.642073 0.0269293 0.
0.64409 0.0269174 0.
0.646121 0.0268933 0.
0.648154 0.0268665 0.
0.65019 0.0268373 0.
0.652274 0.0267712 0.
0.654357 0.0267059 0.
0.656464 0.02663 0.
0.658614 0.0265308 0.
0.660761 0.0264328 0.
0.663002 0.0262685 0.
0.665274 0.0260913 0.
0.667585 0.0258748 0.
0.670054 0.0254201 0.
0.672509 0.0249827 0.
0.675251 0.0244754 0.
0.678034 0.0239231 0.
0.681103 0.023048 0.
0.684237 0.0220886 0.
0.68758 0.0208245 0.
0.691052 0.0194992 0.
0.694857 0.0180163 0.
0.698968 0.0163598 0.
0.703366 0.0145369 0.
0.708122 0.0123107 0.
0.713143 0.0100476 0.
0.718568 0.00788561 0.
0.72493 0.0057364 0.
0.734747 0.00319335 0.
0.463035 0.0037662 0.
0.471746 0.0059979 0.
0.47797 0.00797048 0.
0.483457 0.0101045 0.
0.488444 0.0124296 0.
0.4931 0.0147315 0.
0.497483 0.0167281 0.
0.501667 0.0185659 0.
0.505621 0.0202891 0.
0.509303 0.0218267 0.
0.512796 0.0230959 0.
0.516217 0.0242431 0.
0.519271 0.0251029 0.
0.522196 0.0258912 0.
0.52487 0.0264892 0.
0.527537 0.0270671 0.
0.529997 0.0274927 0.
0.532467 0.027927 0.
0.534774 0.0281233 0.
0.537038 0.0282793 0.
0.53927 0.0284248 0.
0.541409 0.0285273 0.
0.543549 0.0286307 0.
0.545651 0.0287075 0.
0.547732 0.0287713 0.
0.549814 0.0288356 0.
0.551849 0.0288645 0.
0.553881 0.0288911 0.
0.55591 0.0289151 0.
0.557928 0.0289271 0.
0.559945 0.0289392 0.
0.561958 0.0289486 0.
0.563967 0.0289546 0.
0.565975 0.0289607 0.
0.56798 0.0289646 0.
0.569983 0.0289675 0.
0.571986 0.0289704 0.
0.573988 0.0289714 0.
0.575989 0.0289721 0.
0.57799 0.0289728 0.
0.579991 0.0289733 0.
0.581992 0.0289738 0.
0.583993 0.0289742 0.
0.585994 0.0289744 0.
0.587995 0.0289746 0.
0.589996 0.0289748 0.
0.591997 0.028975 0.
0.593998 0.0289752 0.
0.595999 0.0289752 0.
0.598 0.0289752 0.
0.6 0.0289752 0.
0.602001 0.0289752 0.
0.604001 0.0289753 0.
0.606002 0.0289753 0.
0.608003 0.0289751 0.
0.610004 0.0289748 0.
0.612005 0.0289746 0.
0.614006 0.0289744 0.
0.616007 0.0289741 0.
0.618008 0.0289735 0.
0.62001 0.0289726 0.
0.622011 0.0289718 0.
0.624013 0.0289707 0.
0.626014 0.0289696 0.
0.628016 0.0289681 0.
0.630021 0.028964 0.
0.632025 0.0289599 0.
0.634032 0.0289543 0.
0.636043 0.0289459 0.
0.638054 0.0289376 0.
0.640073 0.028925 0.
0.642096 0.0289093 0.
0.64412 0.0288936 0.
0.64616 0.0288611 0.
0.648204 0.028825 0.
0.650253 0.0287849 0.
0.65236 0.0286981 0.
0.654466 0.0286124 0.
0.656605 0.0285158 0.
0.658791 0.0283969 0.
0.660974 0.0282796 0.
0.663274 0.0280554 0.
0.665598 0.0278203 0.
0.667995 0.027515 0.
0.670529 0.0269854 0.
0.673087 0.026461 0.
0.675888 0.025848 0.
0.678748 0.0251996 0.
0.681901 0.0242139 0.
0.685164 0.0230649 0.
0.688555 0.0216661 0.
0.692139 0.0202086 0.
0.695991 0.0186592 0.
0.700179 0.0168906 0.
0.704637 0.0148862 0.
0.709333 0.0126284 0.
0.714347 0.0103545 0.
0.719764 0.00826446 0.
0.72605 0.00614873 0.
0.735396 0.0039001 0.
0.462669 0.00461463 0.
0.470737 0.00652154 0.
0.476874 0.00839927 0.
0.482356 0.0104547 0.
0.487282 0.0127588 0.
0.491928 0.0150789 0.
0.496327 0.0171801 0.
0.500566 0.0191196 0.
0.504569 0.0209463 0.
0.508293 0.0225947 0.
0.511889 0.0240421 0.
0.515348 0.0252573 0.
0.518482 0.0262397 0.
0.521505 0.0272039 0.
0.524283 0.0279311 0.
0.527051 0.0286306 0.
0.529593 0.0291333 0.
0.532123 0.0296268 0.
0.534509 0.0298941 0.
0.536823 0.0300979 0.
0.539108 0.0302928 0.
0.54127 0.0304099 0.
0.543435 0.0305284 0.
0.545559 0.0306226 0.
0.547658 0.0307038 0.
0.549758 0.0307862 0.
0.551804 0.030825 0.
0.553845 0.0308603 0.
0.555883 0.0308922 0.
0.557906 0.0309078 0.
0.559928 0.0309235 0.
0.561946 0.030936 0.
0.563956 0.0309443 0.
0.565967 0.0309526 0.
0.567974 0.0309581 0.
0.569979 0.0309621 0.
0.571983 0.0309662 0.
0.573985 0.0309677 0.
0.575987 0.0309688 0.
0.577989 0.0309699 0.
0.57999 0.0309706 0.
0.581992 0.0309713 0.
0.583993 0.0309719 0.
0.585994 0.0309722 0.
0.587995 0.0309725 0.
0.589996 0.0309728 0.
0.591997 0.030973 0.
0.593998 0.0309733 0.
0.595999 0.0309734 0.
0.598 0.0309735 0.
0.6 0.0309735 0.
0.602001 0.0309735 0.
0.604001 0.0309735 0.
0.606002 0.0309735 0.
0.608003 0.0309731 0.
0.610004 0.0309728 0.
0.612005 0.0309724 0.
0.614006 0.030972 0.
0.616007 0.0309716 0.
0.618009 0.0309707 0.
0.620011 0.0309696 0.
0.622013 0.0309685 0.
0.624015 0.0309668 0.
0.626018 0.0309652 0.
0.628021 0.030963 0.
0.630027 0.0309573 0.
0.632033 0.0309517 0.
0.634042 0.030944 0.
0.636057 0.0309325 0.
0.638072 0.030921 0.
0.640096 0.0309045 0.
0.642126 0.0308844 0.
0.644155 0.0308643 0.
0.646207 0.0308212 0.
0.648263 0.0307738 0.
0.650327 0.0307203 0.
0.652455 0.030612 0.
0.654583 0.0305052 0.
0.656753 0.0303858 0.
0.658973 0.0302472 0.
0.661189 0.0301127 0.
0.663547 0.0298277 0.
0.665921 0.0295348 0.
0.668409 0.0291364 0.
0.671013 0.0285338 0.
0.673689 0.0279037 0.
0.676567 0.027159 0.
0.67956 0.026322 0.
0.682742 0.025255 0.
0.686087 0.0239686 0.
0.689536 0.0224614 0.
0.693238 0.0208705 0.
0.697146 0.0192273 0.
0.70135 0.0173732 0.
0.705822 0.0152441 0.
0.710474 0.0129674 0.
0.715454 0.0107132 0.
0.720846 0.00868313 0.
0.727 0.00666246 0.
0.735398 0.00481729 0.
0.462656 0.00562679 0.
0.46993 0.00714898 0.
0.475918 0.00889721 0.
0.481337 0.0108655 0.
0.486224 0.013135 0.
0.490864 0.0154591 0.
0.495274 0.0176488 0.
0.499537 0.0196643 0.
0.50356 0.0215592 0.
0.507353 0.0233372 0.
0.511003 0.0249272 0.
0.514468 0.0261904 0.
0.517729 0.0273388 0.
0.520833 0.0284547 0.
0.523736 0.02934 0.
0.526572 0.0301114 0.
0.529185 0.0306707 0.
0.531757 0.0312069 0.
0.534214 0.0315653 0.
0.536579 0.0318487 0.
0.538929 0.0321266 0.
0.541117 0.0322625 0.
0.543307 0.0324001 0.
0.545455 0.0325161 0.
0.547572 0.0326195 0.
0.549689 0.0327243 0.
0.551748 0.032776 0.
0.553801 0.0328221 0.
0.55585 0.0328639 0.
0.557878 0.0328839 0.
0.559907 0.0329039 0.
0.561929 0.0329202 0.
0.563943 0.0329314 0.
0.565958 0.0329426 0.
0.567967 0.0329501 0.
0.569973 0.0329557 0.
0.571979 0.0329612 0.
0.573982 0.0329634 0.
0.575984 0.0329652 0.
0.577987 0.0329668 0.
0.579989 0.0329678 0.
0.581991 0.0329688 0.
0.583992 0.0329696 0.
0.585994 0.0329701 0.
0.587995 0.0329705 0.
0.589996 0.0329709 0.
0.591997 0.0329712 0.
0.593998 0.0329716 0.
0.595999 0.0329718 0.
0.598 0.032972 0.
0.6 0.0329722 0.
0.602001 0.0329721 0.
0.604001 0.032972 0.
0.606002 0.0329718 0.
0.608003 0.0329713 0.
0.610004 0.0329707 0.
0.612005 0.0329702 0.
0.614007 0.0329696 0.
0.616008 0.032969 0.
0.61801 0.0329678 0.
0.620013 0.0329663 0.
0.622015 0.0329648 0.
0.624019 0.0329624 0.
0.626022 0.0329598 0.
0.628026 0.0329566 0.
0.630034 0.0329491 0.
0.632042 0.0329416 0.
0.634055 0.0329313 0.
0.636074 0.0329157 0.
0.638094 0.0329002 0.
0.640124 0.0328789 0.
0.642161 0.0328537 0.
0.644198 0.0328285 0.
0.646265 0.0327716 0.
0.648335 0.0327095 0.
0.650416 0.0326385 0.
0.652565 0.0325053 0.
0.654713 0.0323739 0.
0.656915 0.032219 0.
0.659167 0.0320413 0.
0.661422 0.0318636 0.
0.663836 0.0315097 0.
0.666255 0.0311565 0.
0.668824 0.0306637 0.
0.671465 0.0300161 0.
0.67425 0.029293 0.
0.677197 0.0284403 0.
0.680329 0.0274145 0.
0.68357 0.0262436 0.
0.686982 0.0248108 0.
0.690504 0.0232125 0.
0.694258 0.0215322 0.
0.698263 0.0197704 0.
0.70248 0.0178227 0.
0.7069 0.0156288 0.
0.711517 0.0133546 0.
0.71648 0.0111247 0.
0.72181 0.00915971 0.
0.727816 0.00726427 0.
0.735174 0.00586691 0.
0.462931 0.00671878 0.
0.469404 0.00788181 0.
0.475159 0.00948043 0.
0.480479 0.011379 0.
0.485315 0.0135817 0.
0.489906 0.0158882 0.
0.494301 0.0181432 0.
0.498564 0.0201947 0.
0.502607 0.0221621 0.
0.506457 0.0240611 0.
0.510118 0.0257381 0.
0.513622 0.0271045 0.
0.517 0.0283975 0.
0.520154 0.0296146 0.
0.523124 0.030617 0.
0.525994 0.0314642 0.
0.528719 0.0321447 0.
0.531361 0.0327593 0.
0.533907 0.0332235 0.
0.536326 0.0335887 0.
0.538744 0.033957 0.
0.54096 0.0341138 0.
0.543176 0.0342706 0.
0.54535 0.0344083 0.
0.547484 0.0345341 0.
0.549619 0.0346615 0.
0.551692 0.0347268 0.
0.553757 0.0347836 0.
0.555817 0.0348356 0.
0.557851 0.0348599 0.
0.559885 0.0348843 0.
0.561912 0.0349044 0.
0.56393 0.0349186 0.
0.565948 0.0349327 0.
0.567959 0.0349422 0.
0.569967 0.0349492 0.
0.571974 0.0349563 0.
0.573978 0.0349592 0.
0.575982 0.0349615 0.
0.577985 0.0349637 0.
0.579987 0.034965 0.
0.58199 0.0349663 0.
0.583992 0.0349674 0.
0.585993 0.0349679 0.
0.587995 0.0349685 0.
0.589996 0.034969 0.
0.591997 0.0349694 0.
0.593998 0.0349698 0.
0.595999 0.0349702 0.
0.597999 0.0349706 0.
0.6 0.0349709 0.
0.602001 0.0349707 0.
0.604001 0.0349705 0.
0.606002 0.0349701 0.
0.608003 0.0349694 0.
0.610004 0.0349687 0.
0.612006 0.034968 0.
0.614007 0.0349672 0.
0.616009 0.0349664 0.
0.618012 0.0349649 0.
0.620015 0.0349631 0.
0.622018 0.0349612 0.
0.624022 0.0349579 0.
0.626027 0.0349545 0.
0.628032 0.0349503 0.
0.630042 0.0349409 0.
0.632052 0.0349315 0.
0.634067 0.0349185 0.
0.636092 0.0348989 0.
0.638116 0.0348793 0.
0.640153 0.0348533 0.
0.642197 0.0348229 0.
0.644242 0.0347925 0.
0.646322 0.0347215 0.
0.648408 0.0346445 0.
0.650506 0.0345555 0.
0.652676 0.0343972 0.
0.654844 0.034241 0.
0.657081 0.0340478 0.
0.659366 0.0338305 0.
0.661663 0.0336076 0.
0.664137 0.0331795 0.
0.666606 0.0327572 0.
0.669288 0.0321458 0.
0.672004 0.0314184 0.
0.674875 0.030555 0.
0.677829 0.0296556 0.
0.681083 0.0284685 0.
0.684388 0.0271861 0.
0.687842 0.0256106 0.
0.691432 0.0239391 0.
0.695222 0.0221872 0.
0.699271 0.0203242 0.
0.703501 0.0182893 0.
0.707874 0.0160611 0.
0.712443 0.0138031 0.
0.71735 0.0116168 0.
0.722591 0.00972526 0.
0.728357 0.007976 0.
0.734834 0.00696448 0.
0.463391 0.00783572 0.
0.469163 0.0087348 0.
0.474648 0.0101734 0.
0.479785 0.0119877 0.
0.484552 0.0141132 0.
0.489089 0.0163929 0.
0.493454 0.0186864 0.
0.49769 0.020759 0.
0.501738 0.0227823 0.
0.505624 0.0247812 0.
0.509272 0.0265243 0.
0.512811 0.0280069 0.
0.516271 0.0294028 0.
0.519425 0.0306562 0.
0.522475 0.0318429 0.
0.525395 0.0327885 0.
0.528234 0.0335961 0.
0.530937 0.0342815 0.
0.533571 0.0348517 0.
0.536027 0.0352761 0.
0.538485 0.035716 0.
0.540742 0.0359081 0.
0.542988 0.0360926 0.
0.545196 0.0362601 0.
0.547351 0.0364065 0.
0.549509 0.0365548 0.
0.551602 0.0366415 0.
0.553685 0.0367184 0.
0.555763 0.0367896 0.
0.557805 0.0368188 0.
0.559847 0.0368481 0.
0.561882 0.0368736 0.
0.563906 0.0368938 0.
0.565931 0.036914 0.
0.567946 0.0369275 0.
0.569956 0.0369372 0.
0.571967 0.0369469 0.
0.573972 0.0369513 0.
0.575977 0.036955 0.
0.577982 0.0369585 0.
0.579985 0.0369604 0.
0.581988 0.0369623 0.
0.58399 0.0369639 0.
0.585992 0.0369648 0.
0.587994 0.0369657 0.
0.589995 0.0369664 0.
0.591996 0.0369671 0.
0.593998 0.0369677 0.
0.595999 0.0369682 0.
0.597999 0.0369686 0.
0.6 0.036969 0.
0.602001 0.0369687 0.
0.604002 0.0369683 0.
0.606002 0.0369679 0.
0.608004 0.0369669 0.
0.610005 0.0369659 0.
0.612007 0.0369648 0.
0.614009 0.0369636 0.
0.616011 0.0369623 0.
0.618015 0.0369601 0.
0.620019 0.0369574 0.
0.622022 0.0369547 0.
0.624029 0.0369498 0.
0.626035 0.0369446 0.
0.628042 0.0369385 0.
0.630056 0.0369255 0.
0.63207 0.0369125 0.
0.634091 0.0368943 0.
0.636124 0.0368671 0.
0.638156 0.03684 0.
0.640201 0.0368079 0.
0.642253 0.0367723 0.
0.644306 0.0367368 0.
0.646413 0.0366383 0.
0.648524 0.036534 0.
0.650649 0.0364185 0.
0.652839 0.0362417 0.
0.655026 0.0360668 0.
0.657302 0.0358282 0.
0.659621 0.0355673 0.
0.661962 0.0352939 0.
0.664464 0.0348169 0.
0.66699 0.0343304 0.
0.66978 0.0336025 0.
0.672573 0.032789 0.
0.675547 0.0317461 0.
0.678553 0.0307169 0.
0.681826 0.0294807 0.
0.685198 0.0280805 0.
0.688654 0.0264102 0.
0.692293 0.0246538 0.
0.696116 0.0228405 0.
0.700175 0.0209115 0.
0.704384 0.0188071 0.
0.708715 0.0165668 0.
0.713218 0.0143365 0.
0.71805 0.0122073 0.
0.723139 0.0103873 0.
0.72864 0.00880455 0.
0.734377 0.00806172 0.
0.463967 0.00897817 0.
0.469158 0.00966474 0.
0.474328 0.0109637 0.
0.479254 0.0126868 0.
0.483932 0.0147344 0.
0.488399 0.0169756 0.
0.492705 0.0192688 0.
0.496903 0.0213645 0.
0.500945 0.0234242 0.
0.504825 0.0254754 0.
0.508459 0.0272964 0.
0.512035 0.0289029 0.
0.515503 0.0303224 0.
0.518691 0.0316623 0.
0.52181 0.0330269 0.
0.524783 0.0340599 0.
0.527721 0.0349871 0.
0.530442 0.0357099 0.
0.533143 0.0363597 0.
0.535644 0.0368675 0.
0.538154 0.037402 0.
0.540475 0.0376629 0.
0.542768 0.037891 0.
0.545022 0.0381 0.
0.547204 0.0382691 0.
0.549389 0.0384404 0.
0.551507 0.0385509 0.
0.55361 0.0386499 0.
0.555708 0.0387424 0.
0.557757 0.0387767 0.
0.559807 0.038811 0.
0.56185 0.0388421 0.
0.563881 0.0388685 0.
0.565913 0.0388951 0.
0.567933 0.0389126 0.
0.569946 0.038925 0.
0.571959 0.0389374 0.
0.573966 0.0389434 0.
0.575972 0.0389484 0.
0.577978 0.0389532 0.
0.579982 0.0389558 0.
0.581985 0.0389583 0.
0.583989 0.0389604 0.
0.585991 0.0389616 0.
0.587993 0.0389628 0.
0.589995 0.0389639 0.
0.591996 0.0389647 0.
0.593997 0.0389656 0.
0.595998 0.0389661 0.
0.597999 0.0389666 0.
0.6 0.0389671 0.
0.602001 0.0389666 0.
0.604002 0.0389662 0.
0.606003 0.0389656 0.
0.608004 0.0389644 0.
0.610006 0.0389632 0.
0.612008 0.0389617 0.
0.61401 0.0389599 0.
0.616013 0.0389582 0.
0.618017 0.0389552 0.
0.620022 0.0389517 0.
0.622027 0.0389482 0.
0.624035 0.0389416 0.
0.626043 0.0389347 0.
0.628052 0.0389265 0.
0.63007 0.0389098 0.
0.632088 0.0388931 0.
0.634115 0.0388696 0.
0.636156 0.0388345 0.
0.638197 0.0387996 0.
0.64025 0.0387613 0.
0.642311 0.0387203 0.
0.644372 0.0386794 0.
0.646509 0.0385495 0.
0.64865 0.038414 0.
0.650806 0.0382689 0.
0.653022 0.0380707 0.
0.655234 0.0378747 0.
0.657571 0.0375736 0.
0.659945 0.0372524 0.
0.662367 0.0368937 0.
0.664923 0.0363289 0.
0.667498 0.0357597 0.
0.670305 0.0349947 0.
0.673177 0.0340824 0.
0.676221 0.0328864 0.
0.679305 0.0317251 0.
0.682578 0.0304243 0.
0.685965 0.0289402 0.
0.689441 0.0272029 0.
0.693116 0.0253598 0.
0.696936 0.0235038 0.
0.700971 0.0215246 0.
0.705149 0.0193807 0.
0.709443 0.0171425 0.
0.713858 0.0149541 0.
0.718602 0.012885 0.
0.723504 0.0111469 0.
0.728708 0.00973486 0.
0.733877 0.00919773 0.
0.464502 0.0101175 0.
0.469251 0.010661 0.
0.47411 0.0118256 0.
0.478842 0.0134595 0.
0.483415 0.0154281 0.
0.487783 0.017611 0.
0.492048 0.0198932 0.
0.496207 0.0220134 0.
0.500204 0.0240865 0.
0.504044 0.0261628 0.
0.507688 0.0280627 0.
0.511287 0.0297793 0.
0.514725 0.0312128 0.
0.517969 0.0326419 0.
0.521139 0.0341315 0.
0.524166 0.0352566 0.
0.527131 0.0362808 0.
0.529916 0.0370927 0.
0.532689 0.037837 0.
0.535257 0.0384422 0.
0.537817 0.0390706 0.
0.540208 0.0394101 0.
0.542546 0.0396811 0.
0.54485 0.0399346 0.
0.547055 0.040122 0.
0.549266 0.0403137 0.
0.551408 0.0404489 0.
0.55353 0.0405719 0.
0.555648 0.0406892 0.
0.557705 0.0407284 0.
0.559764 0.0407677 0.
0.561814 0.0408045 0.
0.563852 0.0408381 0.
0.565891 0.0408719 0.
0.567915 0.0408944 0.
0.569932 0.0409101 0.
0.571949 0.0409259 0.
0.573958 0.0409338 0.
0.575966 0.0409406 0.
0.577973 0.040947 0.
0.579978 0.0409504 0.
0.581983 0.0409537 0.
0.583987 0.0409565 0.
0.585989 0.0409582 0.
0.587992 0.0409598 0.
0.589994 0.0409612 0.
0.591995 0.0409623 0.
0.593997 0.0409634 0.
0.595998 0.0409641 0.
0.597999 0.0409647 0.
0.6 0.0409653 0.
0.602001 0.0409647 0.
0.604002 0.0409641 0.
0.606003 0.0409633 0.
0.608005 0.0409617 0.
0.610007 0.0409601 0.
0.612009 0.0409582 0.
0.614013 0.0409558 0.
0.616016 0.0409534 0.
0.618021 0.0409496 0.
0.620027 0.0409451 0.
0.622033 0.0409406 0.
0.624043 0.0409319 0.
0.626053 0.0409227 0.
0.628065 0.0409119 0.
0.630088 0.0408906 0.
0.632111 0.0408694 0.
0.634144 0.0408398 0.
0.636193 0.0407962 0.
0.638242 0.0407528 0.
0.640305 0.0407076 0.
0.642376 0.0406606 0.
0.644446 0.0406138 0.
0.64661 0.040449 0.
0.648777 0.0402815 0.
0.650963 0.0401083 0.
0.653204 0.0398938 0.
0.65544 0.0396791 0.
0.657843 0.0393088 0.
0.660272 0.038927 0.
0.662783 0.0384754 0.
0.6654 0.0378198 0.
0.668063 0.0371202 0.
0.670902 0.0362527 0.
0.673808 0.0352489 0.
0.676878 0.0339812 0.
0.680033 0.0327182 0.
0.683313 0.0313543 0.
0.686712 0.0297637 0.
0.690203 0.0279774 0.
0.693895 0.0260724 0.
0.697721 0.0241675 0.
0.701709 0.0221487 0.
0.705834 0.0199946 0.
0.710077 0.0177824 0.
0.714411 0.0156356 0.
0.719039 0.0136339 0.
0.723775 0.0119783 0.
0.728669 0.0107231 0.
0.733421 0.0103234 0.
0.464968 0.0113069 0.
0.469374 0.0117082 0.
0.473971 0.0127453 0.
0.478516 0.0142964 0.
0.482971 0.0161815 0.
0.487246 0.0183066 0.
0.491464 0.0205692 0.
0.495561 0.0227003 0.
0.499506 0.02477 0.
0.503318 0.0268697 0.
0.506972 0.0288316 0.
0.510552 0.0306173 0.
0.513987 0.0321104 0.
0.517298 0.0336172 0.
0.52049 0.0351498 0.
0.523553 0.0363953 0.
0.526557 0.0375434 0.
0.529417 0.038464 0.
0.532248 0.039287 0.
0.534878 0.0399654 0.
0.537452 0.0406454 0.
0.5399 0.0410711 0.
0.542282 0.041394 0.
0.544639 0.0417054 0.
0.546879 0.0419258 0.
0.549126 0.0421518 0.
0.551298 0.042322 0.
0.55344 0.0424769 0.
0.555579 0.0426267 0.
0.557646 0.0426712 0.
0.559714 0.0427158 0.
0.561773 0.042759 0.
0.563818 0.0428012 0.
0.565864 0.0428437 0.
0.567894 0.0428721 0.
0.569916 0.0428921 0.
0.571937 0.0429122 0.
0.573948 0.0429225 0.
0.575958 0.0429314 0.
0.577967 0.0429398 0.
0.579973 0.0429441 0.
0.581979 0.0429485 0.
0.583984 0.0429521 0.
0.585987 0.0429543 0.
0.58799 0.0429566 0.
0.589993 0.0429583 0.
0.591994 0.0429598 0.
0.593996 0.0429612 0.
0.595998 0.0429621 0.
0.597999 0.0429628 0.
0.6 0.0429636 0.
0.602001 0.0429627 0.
0.604003 0.0429619 0.
0.606004 0.0429608 0.
0.608006 0.0429588 0.
0.610008 0.0429568 0.
0.612011 0.0429543 0.
0.614016 0.0429511 0.
0.61602 0.0429479 0.
0.618026 0.0429431 0.
0.620034 0.0429374 0.
0.622041 0.0429317 0.
0.624054 0.0429203 0.
0.626066 0.0429083 0.
0.628081 0.0428942 0.
0.63011 0.0428672 0.
0.632139 0.0428404 0.
0.634179 0.0428033 0.
0.636236 0.0427501 0.
0.638293 0.0426971 0.
0.640369 0.0426432 0.
0.642454 0.0425881 0.
0.644539 0.0425314 0.
0.646722 0.0423231 0.
0.648907 0.0421139 0.
0.651132 0.0418945 0.
0.653425 0.041637 0.
0.655706 0.0413875 0.
0.658151 0.0409615 0.
0.66061 0.0405339 0.
0.66319 0.0400013 0.
0.665859 0.0392818 0.
0.6686 0.0384581 0.
0.67147 0.0374967 0.
0.674433 0.0363531 0.
0.677515 0.0350286 0.
0.680708 0.0337078 0.
0.683998 0.0322902 0.
0.687421 0.0305828 0.
0.690926 0.0287516 0.
0.694614 0.0268058 0.
0.698442 0.0248571 0.
0.702393 0.0228028 0.
0.706467 0.0206493 0.
0.710657 0.0184719 0.
0.714904 0.0163774 0.
0.719382 0.0144549 0.
0.723966 0.0128783 0.
0.72859 0.0117614 0.
0.733022 0.0114475 0.
0.465421 0.012505 0.
0.469578 0.0127962 0.
0.473957 0.0137432 0.
0.478324 0.0152175 0.
0.482626 0.0170141 0.
0.486816 0.0190796 0.
0.490969 0.0213103 0.
0.494991 0.023436 0.
0.498899 0.0255046 0.
0.502668 0.027614 0.
0.506304 0.0296135 0.
0.509869 0.0314521 0.
0.513312 0.0330139 0.
0.516654 0.0345746 0.
0.519846 0.0361214 0.
0.52295 0.0375133 0.
0.525986 0.0387682 0.
0.528909 0.0397921 0.
0.53175 0.0406481 0.
0.534429 0.0414073 0.
0.53704 0.0421671 0.
0.53956 0.0427042 0.
0.541999 0.0430908 0.
0.544422 0.0434722 0.
0.546698 0.0437265 0.
0.548982 0.0439872 0.
0.551187 0.0441932 0.
0.553349 0.0443802 0.
0.55551 0.0445639 0.
0.557587 0.0446139 0.
0.559663 0.0446639 0.
0.561732 0.0447133 0.
0.563784 0.0447642 0.
0.565836 0.0448152 0.
0.567873 0.0448498 0.
0.569899 0.0448741 0.
0.571925 0.0448984 0.
0.573939 0.0449111 0.
0.57595 0.0449221 0.
0.577961 0.0449326 0.
0.579968 0.0449379 0.
0.581975 0.0449432 0.
0.583981 0.0449477 0.
0.585985 0.0449505 0.
0.587989 0.0449533 0.
0.589991 0.0449555 0.
0.591994 0.0449572 0.
0.593996 0.0449589 0.
0.595997 0.04496 0.
0.597999 0.0449609 0.
0.6 0.0449619 0.
0.602002 0.0449608 0.
0.604003 0.0449598 0.
0.606005 0.0449584 0.
0.608007 0.044956 0.
0.61001 0.0449535 0.
0.612014 0.0449504 0.
0.614019 0.0449464 0.
0.616023 0.0449425 0.
0.618031 0.0449366 0.
0.62004 0.0449297 0.
0.622049 0.0449229 0.
0.624064 0.0449087 0.
0.626079 0.0448938 0.
0.628097 0.0448764 0.
0.630132 0.0448437 0.
0.632167 0.0448112 0.
0.634214 0.0447667 0.
0.63628 0.0447038 0.
0.638345 0.0446412 0.
0.640433 0.0445786 0.
0.642532 0.0445152 0.
0.644633 0.0444466 0.
0.646836 0.0441947 0.
0.649038 0.0439434 0.
0.651306 0.043676 0.
0.653655 0.0433727 0.
0.655999 0.0430705 0.
0.658491 0.0425794 0.
0.660991 0.0420935 0.
0.663647 0.0414503 0.
0.666344 0.0406721 0.
0.66914 0.0397523 0.
0.672028 0.0387172 0.
0.675037 0.0374501 0.
0.67813 0.0360678 0.
0.681355 0.0346883 0.
0.684654 0.0332104 0.
0.688068 0.0314212 0.
0.691585 0.0295329 0.
0.695272 0.0275642 0.
0.699075 0.0255895 0.
0.702979 0.0235223 0.
0.707007 0.021371 0.
0.71114 0.0192312 0.
0.715293 0.0171952 0.
0.719616 0.0153599 0.
0.724022 0.0138596 0.
0.728409 0.012852 0.
0.732591 0.0126075 0.
0.465927 0.0137373 0.
0.469896 0.0139475 0.
0.47407 0.0148273 0.
0.478255 0.0162203 0.
0.482399 0.0179293 0.
0.486513 0.0199407 0.
0.490572 0.022122 0.
0.494517 0.0242331 0.
0.498372 0.0262957 0.
0.50211 0.0284053 0.
0.505724 0.0304339 0.
0.509255 0.0323107 0.
0.512681 0.0339288 0.
0.516039 0.0355129 0.
0.519235 0.0370977 0.
0.522371 0.038614 0.
0.52542 0.0399276 0.
0.528367 0.0410423 0.
0.531228 0.0419758 0.
0.533974 0.042833 0.
0.53662 0.0436691 0.
0.53921 0.0443224 0.
0.541699 0.0447698 0.
0.544173 0.0452077 0.
0.546479 0.0454891 0.
0.54879 0.0457821 0.
0.551025 0.0460259 0.
0.553204 0.0462384 0.
0.555384 0.0464482 0.
0.557485 0.0465174 0.
0.559585 0.046585 0.
0.561673 0.0466502 0.
0.563733 0.0467095 0.
0.565794 0.0467691 0.
0.567838 0.0468116 0.
0.569871 0.0468431 0.
0.571905 0.0468747 0.
0.573922 0.046892 0.
0.575937 0.0469068 0.
0.577951 0.046921 0.
0.57996 0.0469278 0.
0.581969 0.0469346 0.
0.583976 0.0469404 0.
0.585981 0.0469442 0.
0.587986 0.0469481 0.
0.58999 0.0469511 0.
0.591992 0.0469533 0.
0.593995 0.0469556 0.
0.595997 0.0469569 0.
0.597999 0.046958 0.
0.6 0.046959 0.
0.602002 0.0469577 0.
0.604004 0.0469564 0.
0.606006 0.0469547 0.
0.608009 0.0469514 0.
0.610013 0.0469482 0.
0.612017 0.046944 0.
0.614024 0.0469386 0.
0.61603 0.0469332 0.
0.61804 0.0469256 0.
0.620051 0.0469169 0.
0.622063 0.0469082 0.
0.624082 0.0468894 0.
0.626101 0.0468696 0.
0.628124 0.0468465 0.
0.630169 0.0468043 0.
0.632213 0.0467624 0.
0.634269 0.0467084 0.
0.636343 0.0466367 0.
0.638417 0.0465653 0.
0.640533 0.0464822 0.
0.642662 0.0463959 0.
0.644796 0.0463 0.
0.647012 0.0460204 0.
0.649225 0.04574 0.
0.651527 0.0454249 0.
0.653912 0.0450806 0.
0.65631 0.0447331 0.
0.658842 0.0441849 0.
0.661383 0.043639 0.
0.66411 0.0428817 0.
0.666846 0.0420256 0.
0.669695 0.0409864 0.
0.672584 0.039903 0.
0.675623 0.0385388 0.
0.678719 0.0371141 0.
0.681954 0.0356684 0.
0.685263 0.0341269 0.
0.688669 0.0322851 0.
0.692172 0.0303434 0.
0.695836 0.0283652 0.
0.699606 0.0263813 0.
0.703462 0.0243122 0.
0.707426 0.0221746 0.
0.711484 0.020077 0.
0.715557 0.0181024 0.
0.719723 0.0163481 0.
0.723929 0.0149279 0.
0.728103 0.0139921 0.
0.732086 0.0137657 0.
0.466499 0.0149903 0.
0.470302 0.0151543 0.
0.474287 0.0159841 0.
0.478277 0.0172934 0.
0.482288 0.0189252 0.
0.48631 0.0208817 0.
0.490268 0.0230076 0.
0.49414 0.0250972 0.
0.497936 0.0271465 0.
0.501629 0.0292464 0.
0.505203 0.0312951 0.
0.508695 0.033197 0.
0.512108 0.0348614 0.
0.515461 0.0364637 0.
0.518654 0.0380796 0.
0.521812 0.0396878 0.
0.524851 0.04104 0.
0.527832 0.0422814 0.
0.530714 0.0432837 0.
0.533525 0.0442292 0.
0.536193 0.0451136 0.
0.538821 0.0458518 0.
0.541336 0.0463456 0.
0.543854 0.0468533 0.
0.546208 0.0471954 0.
0.548554 0.0475432 0.
0.550831 0.0478397 0.
0.553035 0.0480797 0.
0.555242 0.0483179 0.
0.557372 0.0484116 0.
0.559499 0.048501 0.
0.561612 0.0485849 0.
0.56368 0.048653 0.
0.56575 0.0487215 0.
0.567802 0.0487723 0.
0.569843 0.0488114 0.
0.571884 0.0488506 0.
0.573905 0.0488725 0.
0.575924 0.0488913 0.
0.577941 0.0489092 0.
0.579952 0.0489175 0.
0.581962 0.0489258 0.
0.583971 0.048933 0.
0.585977 0.0489379 0.
0.587983 0.0489428 0.
0.589988 0.0489466 0.
0.591991 0.0489495 0.
0.593994 0.0489523 0.
0.595996 0.0489538 0.
0.597998 0.048955 0.
0.6 0.0489561 0.
0.602002 0.0489546 0.
0.604005 0.048953 0.
0.606007 0.0489509 0.
0.608011 0.0489469 0.
0.610015 0.0489428 0.
0.612021 0.0489375 0.
0.614029 0.0489306 0.
0.616037 0.0489238 0.
0.618049 0.0489144 0.
0.620063 0.0489038 0.
0.622077 0.0488932 0.
0.6241 0.0488697 0.
0.626123 0.048845 0.
0.628152 0.0488159 0.
0.630206 0.0487637 0.
0.63226 0.0487118 0.
0.634326 0.0486479 0.
0.63641 0.0485668 0.
0.638492 0.0484862 0.
0.640643 0.0483775 0.
0.642811 0.0482622 0.
0.644984 0.048132 0.
0.647228 0.0478227 0.
0.649466 0.0475134 0.
0.651807 0.0471309 0.
0.654214 0.046717 0.
0.656657 0.0462928 0.
0.659228 0.0457071 0.
0.661804 0.0451203 0.
0.664569 0.0442853 0.
0.667353 0.0433416 0.
0.670248 0.0422022 0.
0.673166 0.0410289 0.
0.676183 0.0396253 0.
0.679295 0.0381628 0.
0.682524 0.0366556 0.
0.685824 0.0350364 0.
0.689217 0.0331759 0.
0.692712 0.0311883 0.
0.696325 0.0292131 0.
0.700053 0.0272293 0.
0.703844 0.0251715 0.
0.707726 0.023058 0.
0.7117 0.021007 0.
0.715695 0.0190954 0.
0.719715 0.0174083 0.
0.723741 0.0160702 0.
0.7277 0.0152059 0.
0.731496 0.0149819 0.
0.467084 0.0162538 0.
0.470742 0.0164015 0.
0.474535 0.0171819 0.
0.478364 0.0184202 0.
0.482266 0.0199875 0.
0.486177 0.0218821 0.
0.490028 0.0239541 0.
0.493834 0.026015 0.
0.497567 0.0280423 0.
0.501199 0.0301295 0.
0.504734 0.0321929 0.
0.508197 0.0341069 0.
0.511596 0.0358161 0.
0.514912 0.0374359 0.
0.518118 0.0390755 0.
0.521265 0.0407228 0.
0.524305 0.0421471 0.
0.527306 0.0434956 0.
0.530206 0.0445638 0.
0.533041 0.0455683 0.
0.535725 0.0464943 0.
0.538404 0.0473298 0.
0.540965 0.0479054 0.
0.543528 0.0484879 0.
0.545935 0.0488931 0.
0.548317 0.0492955 0.
0.550638 0.0496499 0.
0.552868 0.0499157 0.
0.555101 0.0501765 0.
0.557259 0.0502948 0.
0.559411 0.0504081 0.
0.561544 0.0505143 0.
0.563622 0.0505906 0.
0.5657 0.0506673 0.
0.567761 0.0507268 0.
0.56981 0.0507745 0.
0.571859 0.0508224 0.
0.573885 0.0508497 0.
0.575907 0.0508732 0.
0.577929 0.0508956 0.
0.579941 0.0509055 0.
0.581954 0.0509155 0.
0.583965 0.0509242 0.
0.585972 0.0509305 0.
0.58798 0.0509367 0.
0.589985 0.0509415 0.
0.591989 0.050945 0.
0.593993 0.0509486 0.
0.595995 0.0509504 0.
0.597998 0.0509517 0.
0.6 0.0509529 0.
0.602003 0.0509511 0.
0.604006 0.0509492 0.
0.606009 0.0509466 0.
0.608014 0.0509416 0.
0.610019 0.0509365 0.
0.612026 0.0509299 0.
0.614036 0.0509212 0.
0.616045 0.0509126 0.
0.61806 0.0509012 0.
0.620077 0.0508886 0.
0.622093 0.0508759 0.
0.624121 0.0508468 0.
0.62615 0.0508164 0.
0.628184 0.0507803 0.
0.630249 0.0507167 0.
0.632313 0.0506537 0.
0.63439 0.05058 0.
0.636482 0.050491 0.
0.638573 0.0504023 0.
0.640755 0.0502634 0.
0.642959 0.0501178 0.
0.64517 0.0499563 0.
0.647441 0.0496209 0.
0.649706 0.0492837 0.
0.652086 0.0488255 0.
0.654514 0.0483424 0.
0.657015 0.0478392 0.
0.659644 0.0471909 0.
0.662286 0.0465116 0.
0.665054 0.0456115 0.
0.667855 0.044616 0.
0.67079 0.0434052 0.
0.673738 0.0421436 0.
0.676743 0.0406906 0.
0.679834 0.0392077 0.
0.68306 0.0376563 0.
0.686357 0.0359546 0.
0.689722 0.0340839 0.
0.693194 0.0320692 0.
0.696762 0.0300961 0.
0.700436 0.0281248 0.
0.704165 0.0260828 0.
0.707954 0.0240032 0.
0.711832 0.0220001 0.
0.715731 0.0201567 0.
0.719634 0.0185315 0.
0.723496 0.0172562 0.
0.727283 0.0164581 0.
0.730904 0.0162374 0.
0.467653 0.0175305 0.
0.471168 0.0176741 0.
0.474797 0.0184184 0.
0.478497 0.0195925 0.
0.482286 0.0211015 0.
0.486078 0.022933 0.
0.489844 0.0249522 0.
0.493578 0.0269779 0.
0.497249 0.0289867 0.
0.500831 0.0310619 0.
0.504321 0.0331287 0.
0.507759 0.0350528 0.
0.511124 0.0367999 0.
0.514424 0.0384359 0.
0.517623 0.0400891 0.
0.520742 0.0417631 0.
0.523783 0.0432571 0.
0.526789 0.04468 0.
0.529682 0.0458 0.
0.532537 0.0468811 0.
0.535269 0.0478694 0.
0.537994 0.0487894 0.
0.540604 0.0494455 0.
0.543196 0.050078 0.
0.545643 0.0505367 0.
0.54805 0.050983 0.
0.550412 0.051394 0.
0.552682 0.0516876 0.
0.554967 0.051984 0.
0.557149 0.0521415 0.
0.559313 0.0522927 0.
0.561461 0.0524329 0.
0.56355 0.0525176 0.
0.56564 0.0526027 0.
0.567712 0.052672 0.
0.569771 0.0527303 0.
0.57183 0.0527889 0.
0.573861 0.0528228 0.
0.575888 0.0528519 0.
0.577913 0.0528796 0.
0.579928 0.0528915 0.
0.581944 0.0529033 0.
0.583957 0.0529139 0.
0.585966 0.0529218 0.
0.587975 0.0529297 0.
0.589981 0.0529357 0.
0.591986 0.05294 0.
0.593991 0.0529443 0.
0.595994 0.0529465 0.
0.597997 0.052948 0.
0.600001 0.0529495 0.
0.602004 0.0529472 0.
0.604008 0.0529448 0.
0.606012 0.0529416 0.
0.608018 0.0529354 0.
0.610024 0.0529293 0.
0.612033 0.052921 0.
0.614045 0.0529101 0.
0.616057 0.0528993 0.
0.618074 0.0528856 0.
0.620094 0.0528707 0.
0.622114 0.0528557 0.
0.624147 0.0528199 0.
0.626182 0.0527825 0.
0.628224 0.0527377 0.
0.6303 0.0526601 0.
0.632376 0.0525832 0.
0.634465 0.0524988 0.
0.636569 0.0524026 0.
0.638672 0.0523068 0.
0.640874 0.0521172 0.
0.643095 0.0519179 0.
0.645332 0.0517084 0.
0.647644 0.0513563 0.
0.649943 0.0510043 0.
0.652364 0.0504782 0.
0.654804 0.0499413 0.
0.657367 0.0493674 0.
0.66005 0.0486651 0.
0.662753 0.0478889 0.
0.665541 0.0469034 0.
0.66837 0.0458224 0.
0.6713 0.0445938 0.
0.674271 0.0432663 0.
0.677276 0.0417672 0.
0.680355 0.0402449 0.
0.683551 0.0386728 0.
0.686841 0.0369031 0.
0.690185 0.0350122 0.
0.693628 0.0329913 0.
0.697151 0.0310207 0.
0.700764 0.0290667 0.
0.704432 0.0270449 0.
0.708138 0.0250025 0.
0.711913 0.0230435 0.
0.715712 0.0212702 0.
0.719505 0.0197093 0.
0.723225 0.0184858 0.
0.72686 0.0177425 0.
0.730346 0.0175345 0.
0.46823 0.0188066 0.
0.47162 0.0189747 0.
0.475114 0.0196967 0.
0.478701 0.0208255 0.
0.482372 0.0222748 0.
0.486055 0.0240494 0.
0.489744 0.0260176 0.
0.493405 0.0280053 0.
0.497011 0.0299966 0.
0.500535 0.0320519 0.
0.503982 0.0341136 0.
0.507386 0.0360439 0.
0.510718 0.0378178 0.
0.513985 0.0394588 0.
0.517153 0.0411256 0.
0.520254 0.0428216 0.
0.523289 0.0443701 0.
0.526277 0.0458156 0.
0.529176 0.0470228 0.
0.532039 0.0481802 0.
0.534811 0.0492304 0.
0.537552 0.0501841 0.
0.54018 0.0509045 0.
0.542787 0.0515983 0.
0.545297 0.0521361 0.
0.547748 0.0526408 0.
0.550167 0.0531259 0.
0.552489 0.0534556 0.
0.554827 0.053789 0.
0.557039 0.0539856 0.
0.559215 0.0541749 0.
0.561376 0.0543512 0.
0.563478 0.0544443 0.
0.56558 0.0545379 0.
0.567664 0.054617 0.
0.569732 0.0546858 0.
0.5718 0.0547551 0.
0.573837 0.0547958 0.
0.575868 0.0548305 0.
0.577898 0.0548636 0.
0.579916 0.0548774 0.
0.581933 0.0548912 0.
0.583949 0.0549036 0.
0.58596 0.0549132 0.
0.58797 0.0549227 0.
0.589978 0.0549298 0.
0.591983 0.0549349 0.
0.593989 0.0549401 0.
0.595993 0.0549426 0.
0.597997 0.0549443 0.
0.600001 0.0549461 0.
0.602005 0.0549432 0.
0.604009 0.0549404 0.
0.606014 0.0549365 0.
0.608021 0.0549293 0.
0.610029 0.054922 0.
0.612039 0.0549121 0.
0.614053 0.054899 0.
0.616068 0.054886 0.
0.618088 0.05487 0.
0.620111 0.0548527 0.
0.622134 0.0548355 0.
0.624173 0.0547929 0.
0.626214 0.0547485 0.
0.628264 0.0546948 0.
0.630352 0.0546031 0.
0.632439 0.0545121 0.
0.63454 0.0544173 0.
0.636656 0.054314 0.
0.638771 0.054211 0.
0.640995 0.0539669 0.
0.643232 0.0537136 0.
0.6455 0.0534589 0.
0.647854 0.0530826 0.
0.650197 0.0527034 0.
0.652685 0.0520934 0.
0.655176 0.0514917 0.
0.657786 0.05084 0.
0.660477 0.0500979 0.
0.663218 0.0492378 0.
0.666017 0.0481859 0.
0.668867 0.0470246 0.
0.671791 0.0457597 0.
0.67476 0.0443901 0.
0.677756 0.0428645 0.
0.680838 0.0412975 0.
0.684001 0.0397044 0.
0.687269 0.0378873 0.
0.690582 0.0359771 0.
0.693989 0.0339677 0.
0.697469 0.0320002 0.
0.701015 0.0300704 0.
0.704621 0.0280734 0.
0.708247 0.0260683 0.
0.711923 0.0241554 0.
0.715625 0.0224424 0.
0.7193 0.0209456 0.
0.7229 0.019773 0.
0.726405 0.0190608 0.
0.729771 0.0188545 0.
0.468839 0.0201156 0.
0.47212 0.0203199 0.
0.475505 0.0210283 0.
0.478987 0.0221143 0.
0.482541 0.0235149 0.
0.486132 0.0252425 0.
0.489736 0.0271555 0.
0.493321 0.0291045 0.
0.496856 0.0310717 0.
0.500311 0.0331033 0.
0.50372 0.0351523 0.
0.507075 0.0370815 0.
0.510358 0.0388686 0.
0.513588 0.0405209 0.
0.516733 0.0421954 0.
0.519809 0.0439008 0.
0.52282 0.0454858 0.
0.52579 0.0469573 0.
0.528694 0.048243 0.
0.531554 0.0494507 0.
0.534337 0.0505318 0.
0.537078 0.0515268 0.
0.539741 0.0523405 0.
0.542374 0.0531056 0.
0.544943 0.0537252 0.
0.547434 0.054287 0.
0.549902 0.0548476 0.
0.552263 0.0551978 0.
0.554631 0.0555645 0.
0.556871 0.0558043 0.
0.559062 0.0560285 0.
0.561245 0.0562405 0.
0.563365 0.0563423 0.
0.565487 0.056445 0.
0.567588 0.056536 0.
0.569668 0.0566187 0.
0.57175 0.0567022 0.
0.573797 0.0567534 0.
0.575836 0.0567973 0.
0.577874 0.0568394 0.
0.579895 0.0568556 0.
0.581916 0.0568718 0.
0.583935 0.0568867 0.
0.585948 0.0568989 0.
0.587962 0.0569111 0.
0.589972 0.0569202 0.
0.591979 0.0569267 0.
0.593986 0.0569331 0.
0.595991 0.0569361 0.
0.597996 0.0569381 0.
0.600001 0.0569401 0.
0.602006 0.0569364 0.
0.604012 0.0569328 0.
0.606019 0.0569278 0.
0.608028 0.0569187 0.
0.610038 0.0569096 0.
0.612051 0.0568971 0.
0.614069 0.0568807 0.
0.616087 0.0568643 0.
0.618111 0.0568456 0.
0.620138 0.0568258 0.
0.622164 0.056806 0.
0.624216 0.0567506 0.
0.626269 0.0566935 0.
0.628331 0.0566262 0.
0.630432 0.0565202 0.
0.632531 0.0564153 0.
0.634651 0.0563073 0.
0.636788 0.056193 0.
0.638921 0.0560802 0.
0.641168 0.0557848 0.
0.643416 0.0554846 0.
0.645707 0.0551888 0.
0.64808 0.0547988 0.
0.65047 0.0543861 0.
0.653017 0.0536976 0.
0.655557 0.0530318 0.
0.658221 0.0522863 0.
0.660924 0.051471 0.
0.663681 0.0505316 0.
0.666483 0.0494469 0.
0.669343 0.0482274 0.
0.672255 0.0469357 0.
0.675217 0.0455151 0.
0.678202 0.04398 0.
0.681261 0.0423783 0.
0.684401 0.0407518 0.
0.687634 0.0389201 0.
0.690917 0.0369917 0.
0.694271 0.0350001 0.
0.697701 0.0330445 0.
0.701186 0.0311365 0.
0.704721 0.0291748 0.
0.708273 0.027206 0.
0.711849 0.0253447 0.
0.71545 0.023684 0.
0.719021 0.022241 0.
0.722498 0.0211151 0.
0.725884 0.0204198 0.
0.729149 0.0201932 0.
0.469488 0.0214683 0.
0.472676 0.0217099 0.
0.47596 0.0224016 0.
0.47934 0.0234581 0.
0.482792 0.0248252 0.
0.486298 0.0265044 0.
0.489812 0.0283652 0.
0.493312 0.0302739 0.
0.496762 0.0322075 0.
0.500153 0.0342126 0.
0.503508 0.03624 0.
0.506802 0.0381622 0.
0.510048 0.0399568 0.
0.513235 0.0416174 0.
0.516345 0.0432923 0.
0.519391 0.0450019 0.
0.522387 0.0466228 0.
0.525336 0.0481139 0.
0.52823 0.0494561 0.
0.531078 0.0506894 0.
0.533867 0.0518273 0.
0.536614 0.0528653 0.
0.539308 0.0537577 0.
0.541962 0.0545781 0.
0.544569 0.0552677 0.
0.547083 0.0558524 0.
0.54959 0.0564363 0.
0.551978 0.0568609 0.
0.554368 0.0573038 0.
0.556652 0.0576052 0.
0.558874 0.0578654 0.
0.561093 0.0581173 0.
0.563237 0.0582307 0.
0.565384 0.0583451 0.
0.567507 0.0584499 0.
0.569601 0.0585478 0.
0.571697 0.0586467 0.
0.573754 0.0587095 0.
0.575802 0.0587631 0.
0.577849 0.0588148 0.
0.579874 0.0588334 0.
0.581898 0.0588521 0.
0.58392 0.0588695 0.
0.585937 0.0588845 0.
0.587954 0.0588994 0.
0.589966 0.0589105 0.
0.591975 0.0589183 0.
0.593983 0.0589261 0.
0.59599 0.0589296 0.
0.597995 0.0589319 0.
0.600001 0.0589341 0.
0.602008 0.0589296 0.
0.604015 0.058925 0.
0.606023 0.058919 0.
0.608035 0.058908 0.
0.610047 0.058897 0.
0.612063 0.0588819 0.
0.614085 0.058862 0.
0.616106 0.0588421 0.
0.618134 0.0588206 0.
0.620165 0.0587983 0.
0.622195 0.058776 0.
0.624261 0.0587066 0.
0.626327 0.0586356 0.
0.628403 0.0585534 0.
0.630518 0.0584321 0.
0.632631 0.0583119 0.
0.634776 0.0581871 0.
0.636941 0.0580567 0.
0.639108 0.0579218 0.
0.64139 0.0575749 0.
0.64367 0.0572275 0.
0.646012 0.0568715 0.
0.64842 0.0564219 0.
0.650837 0.0559473 0.
0.653384 0.0552379 0.
0.655948 0.0545429 0.
0.658643 0.0537131 0.
0.661358 0.0528302 0.
0.664135 0.0518108 0.
0.666936 0.0506922 0.
0.669799 0.0494363 0.
0.672701 0.0481193 0.
0.675644 0.0466564 0.
0.678613 0.045107 0.
0.681657 0.0434853 0.
0.684758 0.0418289 0.
0.687944 0.0399962 0.
0.691194 0.0380585 0.
0.694492 0.0360843 0.
0.697863 0.0341508 0.
0.701285 0.032263 0.
0.704739 0.0303462 0.
0.70822 0.0284167 0.
0.711702 0.0265993 0.
0.715197 0.0249897 0.
0.718669 0.0235944 0.
0.722041 0.0225013 0.
0.725318 0.021812 0.
0.728485 0.0215633 0.
0.470153 0.0228594 0.
0.473249 0.0231322 0.
0.476442 0.0238145 0.
0.479729 0.0248446 0.
0.483089 0.0261832 0.
0.486503 0.0278154 0.
0.489927 0.0296278 0.
0.493336 0.031492 0.
0.496703 0.0333911 0.
0.500034 0.0353655 0.
0.50333 0.0373688 0.
0.506574 0.0392846 0.
0.509774 0.0410767 0.
0.512913 0.0427427 0.
0.515988 0.0444174 0.
0.519012 0.0461286 0.
0.521981 0.0477773 0.
0.524896 0.0492841 0.
0.52778 0.0506706 0.
0.530614 0.0519316 0.
0.533407 0.0531202 0.
0.536155 0.0541892 0.
0.538868 0.0551442 0.
0.54153 0.056006 0.
0.54417 0.0567698 0.
0.546721 0.0573886 0.
0.549269 0.058011 0.
0.551692 0.058512 0.
0.554105 0.0590308 0.
0.556431 0.0594026 0.
0.558685 0.0596984 0.
0.560938 0.0599888 0.
0.563107 0.0601126 0.
0.565278 0.0602381 0.
0.567422 0.0603575 0.
0.569529 0.0604698 0.
0.571636 0.060583 0.
0.573705 0.0606586 0.
0.575763 0.0607239 0.
0.577821 0.0607875 0.
0.579849 0.0608084 0.
0.581878 0.0608294 0.
0.583903 0.0608495 0.
0.585923 0.0608675 0.
0.587943 0.0608855 0.
0.589958 0.0608989 0.
0.591968 0.0609084 0.
0.593979 0.0609178 0.
0.595987 0.0609219 0.
0.597994 0.0609244 0.
0.600002 0.0609269 0.
0.60201 0.0609213 0.
0.604019 0.0609157 0.
0.606029 0.0609083 0.
0.608044 0.0608951 0.
0.610059 0.0608819 0.
0.612079 0.0608639 0.
0.614104 0.0608405 0.
0.616129 0.0608171 0.
0.618162 0.060792 0.
0.620197 0.0607661 0.
0.622232 0.0607402 0.
0.624312 0.0606551 0.
0.626391 0.0605691 0.
0.628482 0.0604716 0.
0.630608 0.060337 0.
0.632732 0.0602033 0.
0.634902 0.0600612 0.
0.637095 0.0599166 0.
0.639298 0.0597572 0.
0.641614 0.0593601 0.
0.643925 0.0589654 0.
0.646322 0.0585446 0.
0.648772 0.0580325 0.
0.651239 0.0574668 0.
0.653807 0.0566994 0.
0.656393 0.0559534 0.
0.659078 0.0550991 0.
0.661792 0.0541688 0.
0.664579 0.0530889 0.
0.667382 0.0519313 0.
0.670234 0.0506445 0.
0.673125 0.0493093 0.
0.676061 0.0478118 0.
0.679004 0.0462449 0.
0.682014 0.0446184 0.
0.685084 0.0429385 0.
0.68822 0.0411058 0.
0.691422 0.0391696 0.
0.694673 0.0372129 0.
0.697972 0.0353092 0.
0.701333 0.0334417 0.
0.704715 0.0315637 0.
0.70812 0.0296805 0.
0.711517 0.0279026 0.
0.714912 0.0263373 0.
0.718283 0.0249845 0.
0.721563 0.023923 0.
0.724745 0.0232377 0.
0.727821 0.0229761 0.
0.470802 0.024296 0.
0.473814 0.0245886 0.
0.476923 0.0252552 0.
0.480121 0.026261 0.
0.483398 0.0275757 0.
0.486727 0.0291675 0.
0.490064 0.0309359 0.
0.493386 0.0327535 0.
0.496682 0.0346219 0.
0.49995 0.0365636 0.
0.503188 0.0385421 0.
0.50638 0.0404465 0.
0.509532 0.0422309 0.
0.512627 0.0439031 0.
0.515672 0.0455742 0.
0.518661 0.0472852 0.
0.521592 0.0489544 0.
0.524488 0.0504778 0.
0.527353 0.0518944 0.
0.530168 0.0531808 0.
0.532961 0.0544134 0.
0.535707 0.0554985 0.
0.538428 0.056509 0.
0.541105 0.0574256 0.
0.543772 0.0582638 0.
0.546364 0.0589239 0.
0.548949 0.0595733 0.
0.551396 0.0601278 0.
0.553814 0.0606978 0.
0.556177 0.0611328 0.
0.558467 0.0614609 0.
0.560765 0.0617883 0.
0.562964 0.0619461 0.
0.565159 0.0621023 0.
0.567326 0.0622487 0.
0.569442 0.0623756 0.
0.571559 0.0625036 0.
0.573643 0.0625954 0.
0.575716 0.0626767 0.
0.577789 0.0627563 0.
0.579821 0.0627797 0.
0.581853 0.0628031 0.
0.583883 0.0628258 0.
0.585906 0.0628474 0.
0.587929 0.062869 0.
0.589947 0.0628851 0.
0.59196 0.0628965 0.
0.593974 0.0629079 0.
0.595984 0.0629127 0.
0.597993 0.0629154 0.
0.600003 0.0629182 0.
0.602014 0.0629113 0.
0.604025 0.0629044 0.
0.606038 0.0628954 0.
0.608056 0.0628795 0.
0.610074 0.0628636 0.
0.612097 0.0628424 0.
0.614127 0.0628153 0.
0.616156 0.0627883 0.
0.618194 0.0627582 0.
0.620236 0.0627269 0.
0.622279 0.0626952 0.
0.624374 0.0625905 0.
0.626469 0.062485 0.
0.628575 0.0623693 0.
0.630713 0.0622218 0.
0.632849 0.0620754 0.
0.635059 0.0618898 0.
0.637294 0.0616951 0.
0.639539 0.0614863 0.
0.641879 0.0610717 0.
0.644211 0.0606556 0.
0.646647 0.0601826 0.
0.649124 0.0596265 0.
0.651636 0.0589757 0.
0.654223 0.0581558 0.
0.656838 0.0573475 0.
0.659528 0.0564444 0.
0.662239 0.0554751 0.
0.665013 0.0543711 0.
0.667814 0.0531789 0.
0.670652 0.0518624 0.
0.67352 0.0505019 0.
0.676437 0.0489924 0.
0.679371 0.0474101 0.
0.682345 0.045781 0.
0.685375 0.0440851 0.
0.688465 0.0422548 0.
0.691609 0.0403294 0.
0.694816 0.038384 0.
0.698051 0.0365104 0.
0.701341 0.034671 0.
0.704655 0.0328281 0.
0.707983 0.0309922 0.
0.711307 0.029249 0.
0.714613 0.0277165 0.
0.717892 0.0264037 0.
0.721088 0.0253749 0.
0.724188 0.0246961 0.
0.72718 0.0244281 0.
0.471448 0.0257705 0.
0.474385 0.0260682 0.
0.47742 0.0267228 0.
0.480544 0.0277127 0.
0.483744 0.0290115 0.
0.486989 0.0305694 0.
0.490244 0.0322928 0.
0.49349 0.0340744 0.
0.496717 0.0359115 0.
0.499921 0.0378191 0.
0.5031 0.0397731 0.
0.506238 0.0416583 0.
0.50934 0.0434311 0.
0.51239 0.0451049 0.
0.515392 0.0467676 0.
0.518338 0.0484765 0.
0.521242 0.0501548 0.
0.524104 0.051689 0.
0.526944 0.053128 0.
0.529752 0.0544401 0.
0.532532 0.0556911 0.
0.535272 0.0568034 0.
0.537995 0.0578648 0.
0.54068 0.0588351 0.
0.543362 0.0597246 0.
0.545965 0.0604082 0.
0.548546 0.0610901 0.
0.551028 0.0617034 0.
0.553482 0.0623283 0.
0.555901 0.0628413 0.
0.558238 0.0632121 0.
0.560586 0.0635842 0.
0.562818 0.0637765 0.
0.565038 0.0639638 0.
0.567229 0.0641393 0.
0.569355 0.0642809 0.
0.571482 0.0644236 0.
0.57358 0.0645317 0.
0.575668 0.064629 0.
0.577757 0.0647251 0.
0.579793 0.0647509 0.
0.581829 0.0647767 0.
0.583862 0.064802 0.
0.585888 0.0648272 0.
0.587915 0.0648524 0.
0.589936 0.0648713 0.
0.591953 0.0648847 0.
0.593969 0.0648981 0.
0.595981 0.0649035 0.
0.597992 0.0649065 0.
0.600003 0.0649095 0.
0.602017 0.0649013 0.
0.60403 0.0648932 0.
0.606046 0.0648825 0.
0.608068 0.0648639 0.
0.610089 0.0648453 0.
0.612116 0.0648209 0.
0.61415 0.0647901 0.
0.616183 0.0647594 0.
0.618227 0.0647243 0.
0.620276 0.0646877 0.
0.622326 0.0646497 0.
0.624437 0.0645251 0.
0.626547 0.0644001 0.
0.628669 0.0642665 0.
0.630819 0.0641061 0.
0.632967 0.0639469 0.
0.63522 0.0637133 0.
0.6375 0.0634669 0.
0.639793 0.0632057 0.
0.642171 0.0627602 0.
0.644539 0.062314 0.
0.647023 0.0617652 0.
0.649522 0.0611526 0.
0.652059 0.0604373 0.
0.65465 0.0595913 0.
0.657282 0.0587321 0.
0.659975 0.0577865 0.
0.662689 0.0567707 0.
0.665447 0.0556427 0.
0.668227 0.0544345 0.
0.671043 0.0530978 0.
0.673893 0.0517106 0.
0.676781 0.0501946 0.
0.679695 0.0486064 0.
0.68264 0.0469768 0.
0.685628 0.0452767 0.
0.688664 0.0434507 0.
0.691749 0.0415414 0.
0.694897 0.0396144 0.
0.698081 0.0377641 0.
0.701296 0.0359588 0.
0.704541 0.0341506 0.
0.7078 0.0323559 0.
0.711045 0.030651 0.
0.714278 0.029137 0.
0.717476 0.0278531 0.
0.720597 0.0268544 0.
0.723623 0.0261885 0.
0.726543 0.0259063 0.
0.47211 0.0272723 0.
0.474988 0.027572 0.
0.477964 0.0282293 0.
0.48102 0.0292117 0.
0.484146 0.0305001 0.
0.487311 0.0320259 0.
0.490489 0.0337137 0.
0.493659 0.0354627 0.
0.496815 0.0372628 0.
0.499954 0.0391402 0.
0.503071 0.0410649 0.
0.50615 0.0429243 0.
0.509197 0.0446834 0.
0.512195 0.04635 0.
0.515148 0.0480018 0.
0.518055 0.0497029 0.
0.52092 0.0513795 0.
0.523751 0.0529255 0.
0.526574 0.0543772 0.
0.529358 0.0557045 0.
0.532117 0.0569721 0.
0.534848 0.058115 0.
0.537569 0.0592128 0.
0.540252 0.0602084 0.
0.542921 0.0611091 0.
0.545536 0.0618565 0.
0.548127 0.0625947 0.
0.55065 0.0632689 0.
0.553136 0.0639464 0.
0.555609 0.064541 0.
0.557984 0.0649443 0.
0.56036 0.0653431 0.
0.562624 0.0655738 0.
0.564868 0.0657977 0.
0.567088 0.0660091 0.
0.569226 0.066158 0.
0.571367 0.0663076 0.
0.573481 0.0664321 0.
0.575586 0.0665496 0.
0.577691 0.0666669 0.
0.57974 0.0667019 0.
0.581787 0.0667362 0.
0.58383 0.0667689 0.
0.585861 0.0667974 0.
0.587892 0.0668259 0.
0.589918 0.0668479 0.
0.591939 0.066864 0.
0.593959 0.0668802 0.
0.595976 0.0668867 0.
0.597991 0.0668902 0.
0.600006 0.0668937 0.
0.602024 0.0668833 0.
0.604042 0.066873 0.
0.606061 0.0668598 0.
0.608088 0.0668378 0.
0.610115 0.0668157 0.
0.612148 0.0667877 0.
0.614186 0.0667531 0.
0.616224 0.0667186 0.
0.618282 0.0666732 0.
0.620345 0.0666246 0.
0.622412 0.0665731 0.
0.624539 0.0664267 0.
0.626665 0.0662809 0.
0.628804 0.0661313 0.
0.630969 0.0659644 0.
0.633129 0.0657986 0.
0.63542 0.0655104 0.
0.637734 0.0652131 0.
0.640068 0.0649075 0.
0.642477 0.06444 0.
0.644886 0.0639626 0.
0.647408 0.0633351 0.
0.649929 0.0626613 0.
0.652497 0.0618709 0.
0.655094 0.060994 0.
0.657729 0.0600992 0.
0.660413 0.0591251 0.
0.663122 0.0580736 0.
0.665866 0.0569246 0.
0.668628 0.0556948 0.
0.671416 0.0543504 0.
0.674236 0.0529438 0.
0.677093 0.0514262 0.
0.679975 0.0498379 0.
0.68289 0.0482091 0.
0.685838 0.0465113 0.
0.688827 0.044695 0.
0.691847 0.0428048 0.
0.694924 0.0409075 0.
0.698047 0.03908 0.
0.701198 0.0373037 0.
0.704359 0.0355379 0.
0.707549 0.0337809 0.
0.710721 0.0321099 0.
0.713878 0.0306131 0.
0.717006 0.0293469 0.
0.720063 0.0283646 0.
0.723026 0.0277107 0.
0.725885 0.0274121 0.
0.472802 0.0287993 0.
0.475629 0.029108 0.
0.478551 0.0297771 0.
0.481541 0.0307564 0.
0.484597 0.032034 0.
0.487686 0.033538 0.
0.49079 0.0351951 0.
0.493882 0.0369078 0.
0.496969 0.0386764 0.
0.500042 0.0405254 0.
0.503089 0.0424144 0.
0.506109 0.044247 0.
0.509094 0.0459871 0.
0.512031 0.047637 0.
0.514934 0.049275 0.
0.517796 0.050962 0.
0.520624 0.0526334 0.
0.523429 0.0541859 0.
0.526221 0.0556444 0.
0.528978 0.0569859 0.
0.531719 0.0582665 0.
0.534441 0.0594322 0.
0.537145 0.0605452 0.
0.539819 0.0615621 0.
0.542482 0.0624915 0.
0.545107 0.0632944 0.
0.547704 0.0640789 0.
0.550254 0.0648063 0.
0.552749 0.0654996 0.
0.55524 0.066128 0.
0.557642 0.0665768 0.
0.560055 0.0670353 0.
0.562371 0.0673291 0.
0.564655 0.0676045 0.
0.566919 0.0678666 0.
0.569077 0.0680231 0.
0.571238 0.0681801 0.
0.573373 0.0683227 0.
0.575496 0.0684633 0.
0.57762 0.0686041 0.
0.579683 0.0686503 0.
0.581743 0.0686941 0.
0.583798 0.068735 0.
0.585833 0.0687668 0.
0.587869 0.0687988 0.
0.589899 0.0688239 0.
0.591924 0.0688429 0.
0.59395 0.068862 0.
0.59597 0.0688695 0.
0.597989 0.0688736 0.
0.600009 0.0688776 0.
0.602031 0.068865 0.
0.604053 0.0688523 0.
0.606077 0.0688366 0.
0.60811 0.068811 0.
0.610142 0.0687854 0.
0.61218 0.0687536 0.
0.614224 0.068715 0.
0.616268 0.0686766 0.
0.61834 0.0686196 0.
0.62042 0.0685575 0.
0.622505 0.06849 0.
0.624652 0.0683192 0.
0.626797 0.0681493 0.
0.628961 0.0679817 0.
0.631149 0.0678065 0.
0.633333 0.0676323 0.
0.635665 0.0672686 0.
0.638007 0.0669035 0.
0.640388 0.0665359 0.
0.64283 0.0660403 0.
0.645271 0.0655326 0.
0.647801 0.0648708 0.
0.650343 0.0641496 0.
0.652936 0.0632981 0.
0.65554 0.0623932 0.
0.658178 0.0614606 0.
0.660845 0.0604643 0.
0.66354 0.0593857 0.
0.666265 0.058222 0.
0.669007 0.0569747 0.
0.67177 0.0556244 0.
0.674559 0.0542047 0.
0.677377 0.0526878 0.
0.680223 0.0511056 0.
0.683102 0.0494815 0.
0.686008 0.0477879 0.
0.688945 0.0459907 0.
0.691913 0.0441226 0.
0.694911 0.0422557 0.
0.697959 0.0404598 0.
0.701042 0.0387101 0.
0.704127 0.0369803 0.
0.707237 0.0352629 0.
0.710342 0.0336217 0.
0.713428 0.0321397 0.
0.716485 0.0308857 0.
0.719484 0.0299089 0.
0.722394 0.02926 0.
0.725202 0.0289422 0.
0.473498 0.0303569 0.
0.476273 0.0306777 0.
0.479141 0.0313537 0.
0.48207 0.0323311 0.
0.48506 0.0336028 0.
0.488081 0.0350889 0.
0.491111 0.0367146 0.
0.494135 0.0383979 0.
0.497159 0.0401403 0.
0.50016 0.0419556 0.
0.50314 0.0438111 0.
0.506094 0.0456162 0.
0.509008 0.0473291 0.
0.511887 0.0489606 0.
0.514738 0.0505837 0.
0.517557 0.0522527 0.
0.520352 0.0539143 0.
0.523122 0.0554698 0.
0.525879 0.0569303 0.
0.528615 0.058284 0.
0.531335 0.0595716 0.
0.534041 0.0607523 0.
0.536729 0.0618797 0.
0.539397 0.0629224 0.
0.542048 0.0638697 0.
0.544672 0.064715 0.
0.54726 0.0655284 0.
0.549819 0.0662841 0.
0.55233 0.0670052 0.
0.554847 0.0676783 0.
0.557292 0.0681989 0.
0.559743 0.0687176 0.
0.562113 0.0690775 0.
0.564437 0.0694046 0.
0.56675 0.0697232 0.
0.568928 0.0698858 0.
0.571107 0.0700478 0.
0.573263 0.0702062 0.
0.575402 0.070368 0.
0.577543 0.0705303 0.
0.579621 0.0705903 0.
0.581695 0.0706461 0.
0.583761 0.0706974 0.
0.585801 0.0707326 0.
0.587842 0.0707677 0.
0.589877 0.070796 0.
0.591907 0.0708179 0.
0.593938 0.0708399 0.
0.595964 0.0708485 0.
0.597988 0.0708531 0.
0.600012 0.0708576 0.
0.602039 0.0708427 0.
0.604067 0.0708277 0.
0.606096 0.0708093 0.
0.608135 0.07078 0.
0.610172 0.0707507 0.
0.612217 0.0707151 0.
0.614267 0.0706728 0.
0.616317 0.0706306 0.
0.618403 0.0705591 0.
0.620499 0.0704811 0.
0.622602 0.0703954 0.
0.624767 0.0702036 0.
0.626929 0.0700126 0.
0.629118 0.0698298 0.
0.63133 0.0696472 0.
0.633543 0.0694587 0.
0.635912 0.0690174 0.
0.638284 0.0685841 0.
0.640716 0.0681582 0.
0.6432 0.0676218 0.
0.645687 0.0670507 0.
0.648232 0.0663379 0.
0.650779 0.0655854 0.
0.653375 0.0647178 0.
0.655983 0.0637887 0.
0.65862 0.0628236 0.
0.661272 0.0618083 0.
0.663949 0.0607077 0.
0.66665 0.0595342 0.
0.669372 0.0582715 0.
0.672103 0.056919 0.
0.674863 0.0554925 0.
0.677647 0.0539775 0.
0.680448 0.0524012 0.
0.683284 0.0507893 0.
0.68615 0.0491048 0.
0.689036 0.0473264 0.
0.691945 0.0454893 0.
0.694881 0.0436496 0.
0.697844 0.0418852 0.
0.700852 0.0401681 0.
0.703868 0.0384665 0.
0.7069 0.0367861 0.
0.709937 0.03517 0.
0.712963 0.0337013 0.
0.715952 0.0324555 0.
0.718892 0.0314825 0.
0.721753 0.0308388 0.
0.72452 0.0305016 0.
0.474168 0.0319324 0.
0.476894 0.0322651 0.
0.479709 0.0329479 0.
0.482585 0.0339299 0.
0.485519 0.0351961 0.
0.488477 0.0366675 0.
0.491444 0.0382681 0.
0.494406 0.0399294 0.
0.497361 0.0416412 0.
0.500293 0.0434264 0.
0.503204 0.0452527 0.
0.506087 0.0470236 0.
0.508934 0.0487097 0.
0.51176 0.0503243 0.
0.51456 0.0519299 0.
0.517337 0.0535778 0.
0.520093 0.0552263 0.
0.522828 0.0567792 0.
0.525559 0.0582376 0.
0.528268 0.0596005 0.
0.530968 0.0608933 0.
0.533655 0.0620866 0.
0.536321 0.0632222 0.
0.538973 0.0642846 0.
0.541612 0.0652461 0.
0.54423 0.0661244 0.
0.546812 0.0669649 0.
0.549381 0.0677575 0.
0.551913 0.0685079 0.
0.554451 0.0692154 0.
0.556932 0.0697937 0.
0.559397 0.0703481 0.
0.561803 0.0707633 0.
0.564151 0.0711263 0.
0.566498 0.0714879 0.
0.56872 0.0716795 0.
0.570949 0.0718755 0.
0.573143 0.0720655 0.
0.575299 0.0722492 0.
0.577456 0.0724337 0.
0.579549 0.0725137 0.
0.581637 0.0725876 0.
0.583716 0.0726544 0.
0.585762 0.0726928 0.
0.587809 0.0727312 0.
0.589851 0.0727628 0.
0.591887 0.0727878 0.
0.593924 0.0728128 0.
0.595956 0.0728227 0.
0.597986 0.0728278 0.
0.600016 0.0728327 0.
0.60205 0.0728154 0.
0.604083 0.072798 0.
0.60612 0.0727766 0.
0.608164 0.0727431 0.
0.610209 0.0727097 0.
0.61226 0.07267 0.
0.614319 0.0726239 0.
0.616377 0.0725779 0.
0.618478 0.0724849 0.
0.620587 0.0723831 0.
0.622707 0.0722718 0.
0.62489 0.0720595 0.
0.62707 0.0718482 0.
0.629301 0.07163 0.
0.631563 0.0714118 0.
0.633827 0.0711796 0.
0.636215 0.0707016 0.
0.638596 0.0702263 0.
0.641063 0.0697583 0.
0.643577 0.069192 0.
0.646103 0.068559 0.
0.648661 0.0677999 0.
0.651224 0.0669995 0.
0.653819 0.0661108 0.
0.656422 0.0651748 0.
0.659054 0.0641903 0.
0.661696 0.0631572 0.
0.664352 0.0620404 0.
0.667023 0.0608593 0.
0.66972 0.0595893 0.
0.672428 0.058235 0.
0.67515 0.0568046 0.
0.677896 0.0552989 0.
0.68066 0.0537297 0.
0.683447 0.0521299 0.
0.686264 0.0504647 0.
0.689101 0.0487051 0.
0.691957 0.0468981 0.
0.694831 0.0450916 0.
0.697724 0.0433523 0.
0.700649 0.0416664 0.
0.703597 0.0399926 0.
0.706561 0.0383392 0.
0.709528 0.0367491 0.
0.712495 0.0352889 0.
0.71543 0.0340472 0.
0.718314 0.0330749 0.
0.721126 0.0324335 0.
0.723854 0.0320857 0.
0.474826 0.0335262 0.
0.477513 0.0338792 0.
0.480286 0.0345708 0.
0.483116 0.0355601 0.
0.485996 0.0368221 0.
0.4889 0.0382882 0.
0.491805 0.0398685 0.
0.494703 0.0415057 0.
0.497589 0.0431919 0.
0.500453 0.0449546 0.
0.503294 0.046744 0.
0.506107 0.0484816 0.
0.508894 0.0501426 0.
0.511664 0.0517355 0.
0.514411 0.0533196 0.
0.517142 0.0549442 0.
0.519857 0.0565726 0.
0.522559 0.0581165 0.
0.525253 0.0595683 0.
0.52794 0.0609371 0.
0.530611 0.0622298 0.
0.533269 0.0634315 0.
0.535916 0.0645714 0.
0.538554 0.0656494 0.
0.541177 0.0666238 0.
0.543788 0.0675288 0.
0.546366 0.0683948 0.
0.548936 0.0692166 0.
0.551479 0.0699818 0.
0.554021 0.0706997 0.
0.556518 0.071327 0.
0.558999 0.0719279 0.
0.561447 0.0724119 0.
0.563832 0.0728201 0.
0.566222 0.0732314 0.
0.568503 0.0734662 0.
0.570786 0.0736991 0.
0.573023 0.0739236 0.
0.575194 0.0741293 0.
0.577368 0.074336 0.
0.579477 0.0744364 0.
0.581578 0.0745284 0.
0.58367 0.0746112 0.
0.585723 0.0746529 0.
0.587777 0.0746947 0.
0.589825 0.0747295 0.
0.591867 0.0747576 0.
0.59391 0.0747858 0.
0.595948 0.0747968 0.
0.597984 0.0748024 0.
0.600021 0.0748079 0.
0.602061 0.0747881 0.
0.6041 0.0747683 0.
0.606143 0.0747439 0.
0.608194 0.0747062 0.
0.610245 0.0746686 0.
0.612304 0.0746249 0.
0.614371 0.0745749 0.
0.616437 0.074525 0.
0.618553 0.0744097 0.
0.620676 0.0742838 0.
0.622813 0.0741471 0.
0.625014 0.0739141 0.
0.627212 0.0736825 0.
0.629494 0.0734228 0.
0.631813 0.0731592 0.
0.634143 0.072866 0.
0.636571 0.0723453 0.
0.638989 0.0718302 0.
0.641487 0.0713073 0.
0.644002 0.0707085 0.
0.646539 0.0700291 0.
0.6491 0.0692441 0.
0.651668 0.0684099 0.
0.654258 0.0675042 0.
0.656854 0.0665513 0.
0.659474 0.0655556 0.
0.662107 0.0645134 0.
0.664746 0.0633849 0.
0.667393 0.0621964 0.
0.670057 0.060925 0.
0.672733 0.0595748 0.
0.675424 0.0581449 0.
0.678125 0.0566506 0.
0.680846 0.0550986 0.
0.683585 0.0535132 0.
0.686348 0.0518702 0.
0.689129 0.0501401 0.
0.691929 0.0483619 0.
0.694743 0.0465866 0.
0.697573 0.0448727 0.
0.700425 0.0432122 0.
0.7033 0.0415667 0.
0.7062 0.0399362 0.
0.709104 0.0383661 0.
0.712009 0.0369157 0.
0.714893 0.0356704 0.
0.71773 0.0346937 0.
0.720496 0.0340508 0.
0.723183 0.0337003 0.
0.475507 0.0351501 0.
0.478162 0.0355267 0.
0.480896 0.0362245 0.
0.483686 0.0372286 0.
0.486519 0.0384982 0.
0.489366 0.0399627 0.
0.492205 0.0415202 0.
0.495036 0.0431377 0.
0.49785 0.0448042 0.
0.500645 0.0465369 0.
0.503415 0.0482907 0.
0.506161 0.0499975 0.
0.508887 0.0516266 0.
0.511596 0.0531939 0.
0.514288 0.0547561 0.
0.516971 0.056352 0.
0.51964 0.0579528 0.
0.522299 0.0594817 0.
0.524961 0.060922 0.
0.527613 0.06229 0.
0.530249 0.0635805 0.
0.532885 0.064788 0.
0.535514 0.0659283 0.
0.538132 0.0670175 0.
0.540741 0.068005 0.
0.543347 0.0689304 0.
0.545921 0.0698127 0.
0.548488 0.0706477 0.
0.551035 0.0714311 0.
0.55358 0.072171 0.
0.556095 0.0728479 0.
0.558592 0.0734943 0.
0.561077 0.0740505 0.
0.563496 0.0745015 0.
0.565921 0.0749498 0.
0.568252 0.0752236 0.
0.570574 0.0754931 0.
0.572848 0.0757551 0.
0.57503 0.0759732 0.
0.577217 0.0761916 0.
0.579353 0.0763195 0.
0.581482 0.0764402 0.
0.583602 0.0765501 0.
0.585665 0.0765952 0.
0.587728 0.0766405 0.
0.589786 0.0766785 0.
0.591837 0.0767092 0.
0.593888 0.07674 0.
0.595935 0.076752 0.
0.597981 0.0767578 0.
0.600027 0.0767634 0.
0.602077 0.0767416 0.
0.604126 0.0767199 0.
0.606178 0.0766928 0.
0.608238 0.0766509 0.
0.610298 0.0766091 0.
0.612369 0.0765604 0.
0.614448 0.0765053 0.
0.616527 0.0764505 0.
0.618667 0.0763056 0.
0.620812 0.0761511 0.
0.622975 0.0759862 0.
0.625195 0.0757391 0.
0.627406 0.0754941 0.
0.629727 0.0751909 0.
0.632088 0.0748872 0.
0.634479 0.0745374 0.
0.636943 0.0739795 0.
0.6394 0.0734248 0.
0.64192 0.0728427 0.
0.644441 0.0721984 0.
0.646988 0.0714669 0.
0.649549 0.0706686 0.
0.652118 0.0698137 0.
0.654698 0.0688968 0.
0.657285 0.0679317 0.
0.659893 0.0669256 0.
0.662509 0.0658763 0.
0.665129 0.0647424 0.
0.667754 0.0635475 0.
0.67039 0.062277 0.
0.673031 0.0609351 0.
0.675684 0.0595128 0.
0.678346 0.0580342 0.
0.681015 0.0565043 0.
0.683702 0.0549418 0.
0.686406 0.0533251 0.
0.689126 0.0516284 0.
0.691864 0.0498845 0.
0.694614 0.0481412 0.
0.697379 0.0464527 0.
0.700166 0.0448136 0.
0.702969 0.0431944 0.
0.7058 0.041588 0.
0.708645 0.0400321 0.
0.711487 0.0385904 0.
0.714317 0.0373369 0.
0.717109 0.0363471 0.
0.719834 0.0356914 0.
0.722485 0.03534 0.
0.476223 0.036807 0.
0.478847 0.0372012 0.
0.481546 0.037914 0.
0.484296 0.0389446 0.
0.487075 0.040226 0.
0.489861 0.0416818 0.
0.492636 0.0432247 0.
0.495401 0.044828 0.
0.49814 0.0464688 0.
0.500865 0.0481722 0.
0.503563 0.0498965 0.
0.506244 0.0515654 0.
0.508903 0.0531593 0.
0.511548 0.0547007 0.
0.514182 0.0562367 0.
0.51681 0.0577969 0.
0.519427 0.0593672 0.
0.522046 0.0608753 0.
0.524667 0.0622985 0.
0.527285 0.0636621 0.
0.529894 0.0649476 0.
0.532507 0.0661552 0.
0.535114 0.0672956 0.
0.537717 0.068393 0.
0.540316 0.069393 0.
0.542911 0.0703313 0.
0.545481 0.0712268 0.
0.548045 0.0720784 0.
0.550595 0.0728793 0.
0.553142 0.0736356 0.
0.55567 0.0743495 0.
0.558181 0.0750269 0.
0.560685 0.0756208 0.
0.56313 0.0760966 0.
0.56558 0.0765716 0.
0.567951 0.0769105 0.
0.570303 0.077242 0.
0.572618 0.0775642 0.
0.574826 0.0777962 0.
0.577038 0.0780286 0.
0.57921 0.0781881 0.
0.581374 0.0783429 0.
0.583529 0.0784855 0.
0.585603 0.0785346 0.
0.587677 0.0785839 0.
0.589745 0.0786254 0.
0.591805 0.0786589 0.
0.593866 0.0786925 0.
0.595923 0.0787055 0.
0.597979 0.0787115 0.
0.600034 0.0787173 0.
0.602093 0.0786934 0.
0.604152 0.0786697 0.
0.606214 0.0786396 0.
0.608285 0.0785931 0.
0.610355 0.0785468 0.
0.612439 0.0784924 0.
0.614532 0.0784313 0.
0.616625 0.0783704 0.
0.618796 0.0781902 0.
0.620971 0.0780019 0.
0.623172 0.0778041 0.
0.625428 0.0775377 0.
0.627676 0.0772737 0.
0.630045 0.0768976 0.
0.632435 0.0765265 0.
0.634856 0.0761129 0.
0.637332 0.0755467 0.
0.639813 0.0749786 0.
0.642348 0.0743599 0.
0.64488 0.0736722 0.
0.647435 0.0729037 0.
0.649996 0.0720935 0.
0.652563 0.0712223 0.
0.655135 0.0702936 0.
0.657714 0.0693174 0.
0.660308 0.0683059 0.
0.662907 0.0672502 0.
0.665507 0.0661134 0.
0.668109 0.0649162 0.
0.670719 0.0636483 0.
0.673326 0.062316 0.
0.67594 0.0609089 0.
0.678557 0.0594516 0.
0.681178 0.0579451 0.
0.683809 0.0564105 0.
0.686452 0.054827 0.
0.689104 0.0531657 0.
0.691772 0.0514618 0.
0.694455 0.0497528 0.
0.697152 0.0480898 0.
0.699871 0.0464712 0.
0.70261 0.0448739 0.
0.705368 0.0432927 0.
0.70815 0.0417486 0.
0.710935 0.0403104 0.
0.713713 0.0390451 0.
0.716455 0.0380413 0.
0.719141 0.0373596 0.
0.721759 0.0369988 0.
0.476954 0.0384848 0.
0.479546 0.0388996 0.
0.482207 0.0396416 0.
0.484909 0.0406986 0.
0.487629 0.0419826 0.
0.490359 0.0434357 0.
0.493074 0.0449733 0.
0.495767 0.0465543 0.
0.498438 0.0481734 0.
0.501092 0.049856 0.
0.503715 0.0515426 0.
0.506328 0.0531705 0.
0.50892 0.0547313 0.
0.511502 0.0562451 0.
0.514074 0.0577491 0.
0.516646 0.0592742 0.
0.519218 0.0608098 0.
0.521792 0.0622913 0.
0.524377 0.0636981 0.
0.526966 0.065053 0.
0.529547 0.0663309 0.
0.532136 0.0675359 0.
0.534727 0.0686753 0.
0.537313 0.0697758 0.
0.539898 0.0707854 0.
0.542482 0.0717355 0.
0.545049 0.0726444 0.
0.547609 0.0735082 0.
0.550162 0.0743213 0.
0.552712 0.075091 0.
0.555248 0.075826 0.
0.557764 0.0765224 0.
0.560283 0.0771511 0.
0.562757 0.0776749 0.
0.565234 0.0781871 0.
0.567646 0.0785861 0.
0.570028 0.0789799 0.
0.572388 0.0793716 0.
0.574621 0.0796164 0.
0.576859 0.0798609 0.
0.579066 0.0800475 0.
0.581263 0.080236 0.
0.583452 0.0804151 0.
0.585537 0.0804681 0.
0.587623 0.0805213 0.
0.589702 0.0805663 0.
0.591772 0.0806023 0.
0.593842 0.0806383 0.
0.595909 0.080652 0.
0.597976 0.080658 0.
0.600042 0.0806637 0.
0.602111 0.0806382 0.
0.604181 0.0806127 0.
0.606253 0.08058 0.
0.608333 0.0805294 0.
0.610412 0.080479 0.
0.61251 0.0804181 0.
0.614619 0.0803498 0.
0.616727 0.0802815 0.
0.618928 0.0800663 0.
0.62113 0.0798466 0.
0.623372 0.0796179 0.
0.625666 0.079333 0.
0.627952 0.0790482 0.
0.630368 0.0785915 0.
0.632788 0.0781521 0.
0.635243 0.0776732 0.
0.637736 0.0770783 0.
0.640237 0.0764752 0.
0.642773 0.0758379 0.
0.645307 0.0751286 0.
0.647867 0.074341 0.
0.650434 0.0735183 0.
0.653 0.0726329 0.
0.655565 0.0716949 0.
0.658136 0.0707087 0.
0.660719 0.0696941 0.
0.6633 0.0686339 0.
0.665878 0.0674974 0.
0.668459 0.0663028 0.
0.671041 0.0650417 0.
0.673618 0.0637193 0.
0.676195 0.0623299 0.
0.67877 0.0608977 0.
0.68134 0.0594187 0.
0.683917 0.0579105 0.
0.686498 0.0563634 0.
0.689087 0.0547422 0.
0.691684 0.0530761 0.
0.694295 0.0514049 0.
0.696922 0.0497687 0.
0.699566 0.0481733 0.
0.702241 0.0465944 0.
0.704935 0.0450329 0.
0.70765 0.0435039 0.
0.710379 0.0420639 0.
0.713106 0.0407839 0.
0.715799 0.0397678 0.
0.718444 0.0390587 0.
0.721027 0.0386728 0.
0.477678 0.0401877 0.
0.480233 0.0406283 0.
0.482848 0.0414027 0.
0.485499 0.0424728 0.
0.48817 0.0437676 0.
0.490846 0.0452276 0.
0.493494 0.0467497 0.
0.49612 0.0483128 0.
0.498723 0.0499218 0.
0.5013 0.0515744 0.
0.503853 0.053222 0.
0.5064 0.0548133 0.
0.508925 0.056339 0.
0.511444 0.0578216 0.
0.513955 0.0592955 0.
0.516474 0.0607804 0.
0.519002 0.0622783 0.
0.521536 0.0637343 0.
0.524091 0.0651231 0.
0.526647 0.0664639 0.
0.529201 0.0677318 0.
0.53177 0.0689301 0.
0.534342 0.0700668 0.
0.536912 0.0711679 0.
0.539486 0.0721863 0.
0.54206 0.0731454 0.
0.544624 0.0740656 0.
0.547183 0.0749397 0.
0.549736 0.0757637 0.
0.552285 0.076543 0.
0.554825 0.0772971 0.
0.55735 0.0780141 0.
0.55988 0.0786729 0.
0.562381 0.0792388 0.
0.564878 0.0797779 0.
0.567321 0.0802234 0.
0.569722 0.0806631 0.
0.572116 0.0811102 0.
0.574392 0.0813666 0.
0.576681 0.0816258 0.
0.578927 0.0818547 0.
0.581147 0.0820956 0.
0.583364 0.0823299 0.
0.585463 0.0823881 0.
0.587563 0.0824466 0.
0.589655 0.082496 0.
0.591736 0.0825344 0.
0.593816 0.0825729 0.
0.595895 0.0825872 0.
0.597973 0.0825928 0.
0.60005 0.0825981 0.
0.602132 0.0825709 0.
0.604213 0.0825438 0.
0.606296 0.0825085 0.
0.608384 0.0824542 0.
0.610473 0.0824 0.
0.612588 0.0823274 0.
0.614717 0.0822444 0.
0.616849 0.082157 0.
0.619094 0.0818894 0.
0.621332 0.0816216 0.
0.623617 0.081352 0.
0.625947 0.0810487 0.
0.628275 0.0807387 0.
0.630708 0.0802399 0.
0.633147 0.0797533 0.
0.635632 0.0792207 0.
0.638141 0.0786016 0.
0.640658 0.0779678 0.
0.643199 0.0773071 0.
0.645737 0.0765739 0.
0.648295 0.0757738 0.
0.650857 0.0749453 0.
0.653422 0.0740501 0.
0.655984 0.0731026 0.
0.658549 0.0721078 0.
0.66112 0.0710926 0.
0.663691 0.0700308 0.
0.666252 0.0688965 0.
0.66881 0.0677069 0.
0.671365 0.0664574 0.
0.67391 0.0651477 0.
0.676454 0.0637767 0.
0.67899 0.0623711 0.
0.681511 0.0609228 0.
0.684035 0.0594423 0.
0.686559 0.0579293 0.
0.689085 0.0563504 0.
0.691615 0.054725 0.
0.694151 0.053091 0.
0.696708 0.0514818 0.
0.699279 0.0499101 0.
0.701882 0.0483523 0.
0.704514 0.0468036 0.
0.707168 0.0452888 0.
0.709837 0.0438497 0.
0.712515 0.0425495 0.
0.715164 0.0415165 0.
0.717763 0.0407886 0.
0.720306 0.0403773 0.
0.478401 0.0419203 0.
0.480918 0.0423897 0.
0.483489 0.0431967 0.
0.486097 0.0442845 0.
0.488721 0.0456024 0.
0.491334 0.0470601 0.
0.493916 0.0485686 0.
0.496478 0.0501269 0.
0.499003 0.0517175 0.
0.501504 0.0533345 0.
0.50399 0.054948 0.
0.506469 0.0564986 0.
0.508927 0.0579865 0.
0.511382 0.0594399 0.
0.513839 0.0608804 0.
0.516309 0.0623227 0.
0.518793 0.0637826 0.
0.521291 0.0652087 0.
0.523809 0.066574 0.
0.526333 0.0678957 0.
0.528864 0.0691522 0.
0.531411 0.0703413 0.
0.533965 0.071473 0.
0.536521 0.0725714 0.
0.539082 0.0735951 0.
0.541648 0.07456 0.
0.544209 0.0754896 0.
0.54676 0.0763722 0.
0.54931 0.0772048 0.
0.551858 0.0779913 0.
0.5544 0.0787622 0.
0.556929 0.0794943 0.
0.559463 0.0801651 0.
0.561972 0.080763 0.
0.564473 0.0813292 0.
0.566947 0.0818206 0.
0.569378 0.0823076 0.
0.57181 0.0828118 0.
0.57415 0.0831037 0.
0.576497 0.0833865 0.
0.578787 0.0836575 0.
0.581029 0.0839513 0.
0.583273 0.0842427 0.
0.585388 0.0843079 0.
0.587503 0.0843717 0.
0.589609 0.0844256 0.
0.591699 0.0844665 0.
0.59379 0.0845075 0.
0.59588 0.0845223 0.
0.597969 0.0845276 0.
0.600059 0.0845325 0.
0.602152 0.0845036 0.
0.604245 0.0844748 0.
0.606339 0.084437 0.
0.608436 0.0843788 0.
0.610534 0.0843208 0.
0.612668 0.0842358 0.
0.614816 0.084138 0.
0.616976 0.0840284 0.
0.619264 0.0837079 0.
0.621543 0.0833893 0.
0.623881 0.0830698 0.
0.62626 0.0827309 0.
0.628643 0.0823678 0.
0.631095 0.081825 0.
0.633551 0.0813003 0.
0.636049 0.08074 0.
0.638562 0.0801065 0.
0.641087 0.0794483 0.
0.643629 0.0787706 0.
0.646169 0.0780182 0.
0.648721 0.077205 0.
0.651278 0.0763701 0.
0.653834 0.0754698 0.
0.656389 0.0745161 0.
0.658949 0.0735162 0.
0.66151 0.0725012 0.
0.664067 0.0714408 0.
0.666613 0.0703132 0.
0.669154 0.0691313 0.
0.671681 0.0678954 0.
0.674194 0.0666027 0.
0.676701 0.0652556 0.
0.679203 0.0638768 0.
0.681681 0.0624608 0.
0.68415 0.0610139 0.
0.686617 0.0595367 0.
0.689086 0.0579988 0.
0.691553 0.0564156 0.
0.694017 0.0548207 0.
0.696499 0.05324 0.
0.698998 0.0516896 0.
0.701526 0.0501565 0.
0.704086 0.0486226 0.
0.706681 0.0471143 0.
0.709293 0.0456795 0.
0.711917 0.0443614 0.
0.714523 0.0432985 0.
0.717082 0.0425499 0.
0.719587 0.042113 0.
0.479152 0.0436903 0.
0.481631 0.0441926 0.
0.484167 0.04504 0.
0.486731 0.0461588 0.
0.489295 0.0474954 0.
0.491842 0.048948 0.
0.494359 0.0504553 0.
0.49684 0.0519988 0.
0.499284 0.0535617 0.
0.501714 0.0551514 0.
0.504128 0.0567222 0.
0.506534 0.0582256 0.
0.508927 0.05968 0.
0.511323 0.061101 0.
0.513725 0.062502 0.
0.516147 0.0639005 0.
0.51859 0.065318 0.
0.521047 0.0667092 0.
0.523528 0.0680467 0.
0.526022 0.0693476 0.
0.528528 0.0705903 0.
0.531055 0.0717659 0.
0.533591 0.0728904 0.
0.536131 0.0739837 0.
0.538683 0.0750114 0.
0.54124 0.0759791 0.
0.543793 0.0769149 0.
0.546338 0.0778045 0.
0.548883 0.0786436 0.
0.551428 0.0794363 0.
0.553969 0.0802161 0.
0.5565 0.080957 0.
0.559036 0.0816395 0.
0.561553 0.0822725 0.
0.564062 0.0828701 0.
0.566562 0.0834056 0.
0.569021 0.0839395 0.
0.571484 0.0844948 0.
0.573882 0.0848256 0.
0.576267 0.0851252 0.
0.578589 0.0854291 0.
0.580845 0.0857617 0.
0.583112 0.0860934 0.
0.585266 0.0861831 0.
0.587416 0.0862644 0.
0.589552 0.0863318 0.
0.591656 0.0863737 0.
0.593759 0.0864155 0.
0.595863 0.0864303 0.
0.597966 0.0864348 0.
0.600069 0.0864389 0.
0.602176 0.0864089 0.
0.604283 0.0863789 0.
0.606391 0.0863395 0.
0.608503 0.0862798 0.
0.610614 0.0862201 0.
0.61278 0.0861124 0.
0.614962 0.0859887 0.
0.617163 0.0858446 0.
0.619482 0.0854865 0.
0.621788 0.0851323 0.
0.62417 0.084772 0.
0.626592 0.0844001 0.
0.629022 0.083984 0.
0.631492 0.0833996 0.
0.633964 0.0828336 0.
0.636474 0.0822449 0.
0.638989 0.0815939 0.
0.641518 0.0809158 0.
0.644063 0.0802264 0.
0.646603 0.07946 0.
0.649149 0.0786368 0.
0.6517 0.0777952 0.
0.654247 0.0768922 0.
0.656793 0.0759354 0.
0.65934 0.0749341 0.
0.661891 0.0739196 0.
0.664437 0.0728632 0.
0.666965 0.0717446 0.
0.669486 0.0705752 0.
0.671992 0.0693559 0.
0.674474 0.0680795 0.
0.676948 0.0667585 0.
0.67941 0.0654126 0.
0.681849 0.0640304 0.
0.684272 0.0626197 0.
0.68668 0.0611839 0.
0.689086 0.0596914 0.
0.691489 0.0581532 0.
0.693887 0.056598 0.
0.696293 0.0550516 0.
0.698714 0.0535251 0.
0.701165 0.0520127 0.
0.703646 0.050503 0.
0.706168 0.0490021 0.
0.70872 0.047565 0.
0.711287 0.0462371 0.
0.713845 0.0451374 0.
0.716361 0.0443568 0.
0.718834 0.0438812 0.
0.479943 0.0455037 0.
0.482388 0.0460494 0.
0.48488 0.0469428 0.
0.487386 0.0480962 0.
0.489886 0.0494475 0.
0.492361 0.0509013 0.
0.494798 0.0523985 0.
0.497193 0.0539189 0.
0.499559 0.05546 0.
0.501911 0.0570098 0.
0.504251 0.0585307 0.
0.506589 0.0599943 0.
0.508918 0.0614118 0.
0.511254 0.0627938 0.
0.513604 0.0641542 0.
0.515978 0.0655048 0.
0.518376 0.0668779 0.
0.520794 0.068232 0.
0.523241 0.0695392 0.
0.525705 0.0708154 0.
0.528189 0.0720399 0.
0.530697 0.0732004 0.
0.533217 0.0743181 0.
0.535746 0.0754053 0.
0.538288 0.0764337 0.
0.540834 0.0774025 0.
0.543379 0.0783431 0.
0.545919 0.0792399 0.
0.54846 0.0800831 0.
0.551005 0.0808801 0.
0.553545 0.0816691 0.
0.556077 0.08242 0.
0.558615 0.0831117 0.
0.561139 0.0837706 0.
0.563657 0.084395 0.
0.566169 0.0849579 0.
0.568643 0.0855086 0.
0.571112 0.0860698 0.
0.573528 0.0864574 0.
0.575931 0.0868059 0.
0.578297 0.0871605 0.
0.580595 0.0875339 0.
0.582907 0.0879087 0.
0.585117 0.0880366 0.
0.587316 0.0881444 0.
0.589492 0.0882318 0.
0.591609 0.0882746 0.
0.593727 0.0883174 0.
0.595845 0.0883321 0.
0.597962 0.0883359 0.
0.60008 0.0883392 0.
0.602202 0.0883076 0.
0.604323 0.0882761 0.
0.606447 0.0882348 0.
0.608576 0.0881733 0.
0.610705 0.0881119 0.
0.612915 0.0879716 0.
0.615143 0.0878107 0.
0.617401 0.0876169 0.
0.619762 0.0872151 0.
0.622109 0.0868191 0.
0.624528 0.0864087 0.
0.626965 0.0860013 0.
0.629414 0.0855395 0.
0.631893 0.0849416 0.
0.634379 0.0843527 0.
0.636894 0.0837435 0.
0.639411 0.0830751 0.
0.641943 0.0823814 0.
0.644487 0.0816833 0.
0.647027 0.0809049 0.
0.649571 0.0800724 0.
0.65212 0.0792244 0.
0.65466 0.0783198 0.
0.657197 0.0773594 0.
0.659733 0.0763592 0.
0.66227 0.0753484 0.
0.664802 0.0742965 0.
0.667317 0.0731869 0.
0.669818 0.0720318 0.
0.672301 0.0708333 0.
0.674758 0.0695755 0.
0.6772 0.0682811 0.
0.679627 0.0669707 0.
0.682025 0.065627 0.
0.684405 0.0642545 0.
0.686759 0.0628627 0.
0.689101 0.0614183 0.
0.691437 0.0599311 0.
0.693766 0.0584174 0.
0.696101 0.0569036 0.
0.698444 0.055411 0.
0.700812 0.0539238 0.
0.703209 0.0524363 0.
0.705647 0.0509554 0.
0.708125 0.0495154 0.
0.71063 0.0481729 0.
0.713132 0.0470378 0.
0.715602 0.0462177 0.
0.718038 0.0456887 0.
0.480751 0.0473602 0.
0.483153 0.0479626 0.
0.485588 0.048901 0.
0.488028 0.0500873 0.
0.490453 0.0514487 0.
0.492842 0.052895 0.
0.49519 0.054373 0.
0.497498 0.0558705 0.
0.499784 0.0573796 0.
0.50206 0.0588826 0.
0.50433 0.060358 0.
0.506603 0.0617796 0.
0.508872 0.0631579 0.
0.511153 0.064502 0.
0.513455 0.0658201 0.
0.515784 0.0671244 0.
0.518144 0.0684559 0.
0.520526 0.0697729 0.
0.522942 0.0710488 0.
0.525383 0.0722967 0.
0.527847 0.0735024 0.
0.53034 0.074647 0.
0.53285 0.0757559 0.
0.535367 0.0768348 0.
0.537899 0.0778621 0.
0.540437 0.0788324 0.
0.542974 0.0797762 0.
0.545509 0.0806789 0.
0.548047 0.0815255 0.
0.550591 0.0823267 0.
0.553128 0.0831231 0.
0.555662 0.0838835 0.
0.558202 0.0845839 0.
0.560732 0.0852597 0.
0.563251 0.0858986 0.
0.565766 0.0864759 0.
0.568252 0.0870462 0.
0.570732 0.0876275 0.
0.57317 0.0880765 0.
0.575593 0.0884754 0.
0.578001 0.0888853 0.
0.580342 0.0892993 0.
0.582699 0.089716 0.
0.584968 0.0898835 0.
0.587214 0.0900171 0.
0.589433 0.0901271 0.
0.591564 0.0901705 0.
0.593696 0.0902139 0.
0.595828 0.0902284 0.
0.597959 0.0902314 0.
0.600091 0.0902338 0.
0.602227 0.0902009 0.
0.604363 0.0901681 0.
0.606503 0.0901252 0.
0.608649 0.0900626 0.
0.610794 0.0900003 0.
0.61305 0.0898247 0.
0.615325 0.0896261 0.
0.617644 0.0893814 0.
0.620048 0.0889363 0.
0.622437 0.0884967 0.
0.624889 0.0880336 0.
0.627345 0.0875823 0.
0.629811 0.0870731 0.
0.632297 0.0864615 0.
0.634792 0.0858584 0.
0.63731 0.0852357 0.
0.639828 0.084554 0.
0.642363 0.0838479 0.
0.644905 0.0831402 0.
0.647443 0.0823516 0.
0.649982 0.0815119 0.
0.652527 0.080659 0.
0.655065 0.0797542 0.
0.657596 0.0787903 0.
0.660122 0.077792 0.
0.662647 0.0767862 0.
0.665164 0.0757425 0.
0.667664 0.0746428 0.
0.670152 0.0735014 0.
0.672617 0.0723219 0.
0.675051 0.0710874 0.
0.677466 0.0698204 0.
0.679861 0.0685425 0.
0.682223 0.0672381 0.
0.684562 0.0659067 0.
0.686872 0.0645575 0.
0.68916 0.0631589 0.
0.691429 0.0617218 0.
0.693689 0.0602565 0.
0.695954 0.0587784 0.
0.698223 0.0573173 0.
0.700509 0.0558652 0.
0.702819 0.0544052 0.
0.705165 0.0529464 0.
0.707555 0.0515162 0.
0.709982 0.0501614 0.
0.712421 0.0489912 0.
0.714835 0.0481272 0.
0.717227 0.0475462 0.
0.481531 0.0492679 0.
0.483878 0.0499325 0.
0.486244 0.0509072 0.
0.488605 0.0521151 0.
0.490939 0.0534757 0.
0.493233 0.0549064 0.
0.495488 0.056361 0.
0.497709 0.057828 0.
0.499916 0.059296 0.
0.502123 0.060754 0.
0.504331 0.0621844 0.
0.506546 0.0635644 0.
0.508763 0.0649078 0.
0.510999 0.0662147 0.
0.51326 0.0674935 0.
0.515555 0.0687572 0.
0.517883 0.0700496 0.
0.520233 0.0713297 0.
0.522626 0.0725724 0.
0.525051 0.0737938 0.
0.527501 0.0749816 0.
0.529984 0.0761084 0.
0.532485 0.0772055 0.
0.534993 0.0782763 0.
0.537517 0.0793024 0.
0.540046 0.0802735 0.
0.542577 0.081217 0.
0.545108 0.0821238 0.
0.547644 0.0829731 0.
0.550188 0.0837788 0.
0.552727 0.0845812 0.
0.555261 0.0853501 0.
0.557801 0.0860573 0.
0.560333 0.0867449 0.
0.562855 0.0873978 0.
0.565375 0.0879933 0.
0.567875 0.0885798 0.
0.570368 0.0891794 0.
0.572829 0.0896788 0.
0.575275 0.0901161 0.
0.577712 0.0905592 0.
0.580081 0.090976 0.
0.582459 0.0913885 0.
0.584783 0.091617 0.
0.587095 0.0918271 0.
0.589374 0.0920026 0.
0.59152 0.0920468 0.
0.593667 0.0920909 0.
0.595813 0.0921055 0.
0.597958 0.092108 0.
0.600104 0.0921099 0.
0.602253 0.0920751 0.
0.604402 0.0920403 0.
0.606557 0.0919938 0.
0.608719 0.0919262 0.
0.610881 0.0918588 0.
0.613206 0.0916093 0.
0.615542 0.0913412 0.
0.617911 0.0910398 0.
0.620335 0.0905878 0.
0.622757 0.0901323 0.
0.625233 0.0896411 0.
0.627712 0.0891514 0.
0.630194 0.088605 0.
0.632688 0.0879805 0.
0.635194 0.0873639 0.
0.637713 0.086725 0.
0.640233 0.0860293 0.
0.642767 0.0853168 0.
0.64531 0.0846006 0.
0.647847 0.0838035 0.
0.650384 0.0829574 0.
0.652925 0.0821003 0.
0.655458 0.0811966 0.
0.657985 0.0802317 0.
0.660507 0.0792366 0.
0.663022 0.0782358 0.
0.665528 0.0772001 0.
0.668015 0.076112 0.
0.67049 0.0749856 0.
0.672943 0.0738233 0.
0.675358 0.0726111 0.
0.677753 0.0713757 0.
0.680122 0.070131 0.
0.682454 0.0688593 0.
0.68476 0.067568 0.
0.687031 0.0662618 0.
0.689277 0.064906 0.
0.691495 0.0635115 0.
0.693694 0.0620916 0.
0.695891 0.0606578 0.
0.698087 0.0592286 0.
0.700298 0.0578103 0.
0.702525 0.0563879 0.
0.704776 0.0549574 0.
0.707069 0.0535438 0.
0.709401 0.0521874 0.
0.711759 0.0509928 0.
0.714109 0.0500877 0.
0.716446 0.0494616 0.
0.482254 0.0512297 0.
0.484535 0.0519461 0.
0.486818 0.0529502 0.
0.489085 0.0541697 0.
0.491316 0.05552 0.
0.493513 0.0569257 0.
0.495677 0.0583504 0.
0.497816 0.0597815 0.
0.499956 0.0612068 0.
0.502103 0.0626193 0.
0.504257 0.0640078 0.
0.506427 0.0653536 0.
0.508605 0.0666619 0.
0.510809 0.0679349 0.
0.513044 0.0691836 0.
0.515313 0.0704122 0.
0.517614 0.0716656 0.
0.519944 0.0729089 0.
0.522321 0.0741209 0.
0.524735 0.0753163 0.
0.527172 0.0764819 0.
0.529643 0.07759 0.
0.532134 0.0786754 0.
0.534634 0.0797379 0.
0.537148 0.08076 0.
0.539669 0.0817273 0.
0.542196 0.0826686 0.
0.544726 0.0835795 0.
0.547262 0.0844305 0.
0.549808 0.0852395 0.
0.552346 0.0860461 0.
0.554879 0.0868212 0.
0.557419 0.0875336 0.
0.559954 0.088231 0.
0.562481 0.0888971 0.
0.565006 0.0895062 0.
0.567516 0.0901078 0.
0.570016 0.0907251 0.
0.572492 0.0912563 0.
0.574947 0.0917175 0.
0.5774 0.0921886 0.
0.579801 0.0926229 0.
0.582207 0.0930474 0.
0.58459 0.0933395 0.
0.58697 0.093631 0.
0.589314 0.0938781 0.
0.591475 0.093923 0.
0.593637 0.093968 0.
0.595798 0.0939826 0.
0.597957 0.0939847 0.
0.600117 0.0939859 0.
0.602279 0.0939492 0.
0.604441 0.0939125 0.
0.606611 0.0938622 0.
0.60879 0.0937894 0.
0.610969 0.093717 0.
0.61337 0.0933828 0.
0.615776 0.0930334 0.
0.6182 0.0926646 0.
0.620647 0.0921858 0.
0.623093 0.0916997 0.
0.625578 0.0912 0.
0.628063 0.0906988 0.
0.630556 0.0901336 0.
0.633059 0.0894988 0.
0.635573 0.0888694 0.
0.638096 0.0882163 0.
0.640618 0.0875083 0.
0.643152 0.0867905 0.
0.645692 0.0860676 0.
0.648227 0.085265 0.
0.650764 0.0844129 0.
0.653305 0.0835529 0.
0.655834 0.0826498 0.
0.658356 0.0816857 0.
0.660873 0.0806974 0.
0.663383 0.0797035 0.
0.665879 0.0786766 0.
0.668354 0.0776006 0.
0.670815 0.0764909 0.
0.673254 0.0753485 0.
0.675658 0.0741593 0.
0.678037 0.0729533 0.
0.680384 0.0717422 0.
0.682692 0.0705023 0.
0.684975 0.0692447 0.
0.687222 0.0679775 0.
0.689436 0.0666626 0.
0.691617 0.0653078 0.
0.693771 0.0639241 0.
0.695915 0.0625302 0.
0.698048 0.0611395 0.
0.700187 0.0597543 0.
0.702336 0.058368 0.
0.704502 0.0569748 0.
0.706697 0.0555888 0.
0.708926 0.0542414 0.
0.711185 0.0530349 0.
0.713454 0.0520951 0.
0.715723 0.0514302 0.
0.482873 0.053236 0.
0.485072 0.053994 0.
0.487262 0.0550212 0.
0.489428 0.0562426 0.
0.491563 0.05757 0.
0.493669 0.0589464 0.
0.495752 0.0603408 0.
0.49783 0.0617321 0.
0.499919 0.0631158 0.
0.502018 0.0644908 0.
0.504133 0.0658435 0.
0.50627 0.067152 0.
0.508425 0.0684284 0.
0.510611 0.0696738 0.
0.512828 0.070896 0.
0.515077 0.0720892 0.
0.517362 0.0733058 0.
0.51968 0.0745173 0.
0.522049 0.0757002 0.
0.52445 0.0768668 0.
0.526875 0.0780081 0.
0.529337 0.0790988 0.
0.531818 0.0801721 0.
0.534306 0.0812228 0.
0.53681 0.0822353 0.
0.539324 0.083198 0.
0.541848 0.0841381 0.
0.544378 0.0850504 0.
0.546913 0.0859015 0.
0.549453 0.0867112 0.
0.551989 0.0875189 0.
0.554523 0.088299 0.
0.557064 0.0890164 0.
0.5596 0.0897209 0.
0.562132 0.0903967 0.
0.56466 0.0910168 0.
0.567171 0.0916309 0.
0.569671 0.0922646 0.
0.572159 0.0928257 0.
0.574622 0.0933116 0.
0.57709 0.0938077 0.
0.579523 0.0942601 0.
0.581959 0.0946914 0.
0.584396 0.0950357 0.
0.586844 0.0954062 0.
0.58925 0.0957316 0.
0.591428 0.095777 0.
0.593606 0.0958225 0.
0.595782 0.0958375 0.
0.597956 0.0958394 0.
0.600131 0.0958405 0.
0.602307 0.0958026 0.
0.604483 0.0957649 0.
0.606669 0.0957111 0.
0.608865 0.0956333 0.
0.611061 0.0955561 0.
0.613534 0.095132 0.
0.616011 0.0947058 0.
0.618483 0.0942774 0.
0.620954 0.0937742 0.
0.623424 0.0932631 0.
0.625916 0.0927521 0.
0.628406 0.0922372 0.
0.630903 0.0916568 0.
0.633406 0.0910155 0.
0.635922 0.0903768 0.
0.638448 0.0897121 0.
0.640975 0.0889949 0.
0.643509 0.0882726 0.
0.646047 0.0875427 0.
0.64858 0.086737 0.
0.651113 0.0858841 0.
0.653649 0.0850222 0.
0.656178 0.0841194 0.
0.658697 0.0831583 0.
0.661208 0.082177 0.
0.66371 0.0811924 0.
0.666198 0.0801774 0.
0.668664 0.0791148 0.
0.671113 0.078022 0.
0.673538 0.0769006 0.
0.675928 0.0757404 0.
0.678296 0.0745639 0.
0.680629 0.0733813 0.
0.682921 0.0721683 0.
0.685186 0.0709436 0.
0.687418 0.0697122 0.
0.689615 0.068434 0.
0.69177 0.0671145 0.
0.693894 0.0657663 0.
0.696002 0.0644044 0.
0.698089 0.0630482 0.
0.700172 0.0616991 0.
0.702255 0.0603484 0.
0.704348 0.05899 0.
0.706458 0.057635 0.
0.708591 0.0563096 0.
0.710749 0.0551036 0.
0.712926 0.0541383 0.
0.715116 0.0534395 0.
0.483341 0.0552705 0.
0.485455 0.0560674 0.
0.487553 0.0571151 0.
0.489629 0.0583325 0.
0.491678 0.0596398 0.
0.49371 0.060989 0.
0.495738 0.0623497 0.
0.497772 0.0637067 0.
0.499826 0.0650604 0.
0.501896 0.0664026 0.
0.503986 0.0677157 0.
0.50611 0.0689895 0.
0.508259 0.0702391 0.
0.510432 0.0714559 0.
0.512632 0.0726484 0.
0.51487 0.0738071 0.
0.517151 0.0749896 0.
0.519465 0.0761693 0.
0.521822 0.0773211 0.
0.524212 0.0784606 0.
0.526629 0.0795762 0.
0.529083 0.0806488 0.
0.531551 0.081704 0.
0.534031 0.0827409 0.
0.536527 0.083741 0.
0.539038 0.0846988 0.
0.541563 0.0856393 0.
0.544084 0.0865472 0.
0.54661 0.0873928 0.
0.549148 0.0882043 0.
0.551686 0.0890161 0.
0.55422 0.0897972 0.
0.556764 0.0905203 0.
0.559297 0.0912286 0.
0.561823 0.091909 0.
0.564348 0.0925363 0.
0.566861 0.0931612 0.
0.569365 0.0938095 0.
0.571866 0.0943939 0.
0.57435 0.0949035 0.
0.576835 0.0954087 0.
0.5793 0.0958654 0.
0.581765 0.0962925 0.
0.584237 0.0966825 0.
0.586725 0.0971472 0.
0.589178 0.0975674 0.
0.591375 0.0976147 0.
0.593573 0.097662 0.
0.595765 0.0976779 0.
0.597955 0.09768 0.
0.600145 0.0976811 0.
0.602336 0.0976421 0.
0.604528 0.0976031 0.
0.606733 0.0975445 0.
0.608949 0.0974596 0.
0.611169 0.0973705 0.
0.613677 0.0968339 0.
0.616184 0.0963143 0.
0.618689 0.0958556 0.
0.621192 0.0953491 0.
0.623698 0.0948263 0.
0.626204 0.0943099 0.
0.628706 0.0937813 0.
0.631211 0.093189 0.
0.633718 0.0925419 0.
0.636231 0.0918938 0.
0.63875 0.0912222 0.
0.64127 0.0905052 0.
0.643806 0.0897774 0.
0.646349 0.0890383 0.
0.64888 0.088233 0.
0.651413 0.0873779 0.
0.653944 0.0865164 0.
0.656463 0.0856214 0.
0.658978 0.0846656 0.
0.661489 0.0836869 0.
0.663986 0.0827104 0.
0.666467 0.0817133 0.
0.668921 0.0806721 0.
0.671359 0.0795955 0.
0.673777 0.078493 0.
0.676158 0.0773637 0.
0.678514 0.076223 0.
0.680835 0.0750716 0.
0.683118 0.073881 0.
0.685374 0.0726825 0.
0.687597 0.071487 0.
0.689785 0.0702482 0.
0.691931 0.0689624 0.
0.694038 0.0676445 0.
0.696121 0.0663142 0.
0.698181 0.0649873 0.
0.700229 0.0636667 0.
0.702265 0.0623503 0.
0.704301 0.0610283 0.
0.706344 0.0597009 0.
0.708397 0.0583924 0.
0.710467 0.0571883 0.
0.712557 0.0562018 0.
0.714663 0.0554681 0.
CELLS 5000 10000
1 0
1 1
1 2
1 3
1 4
1 5
1 6
1 7
1 8
1 9
1 10
1 11
1 12
1 13
1 14
1 15
1 16
1 17
1 18
1 19
1 20
1 21
1 22
1 23
1 24
1 25
1 26
1 27
1 28
1 29
1 30
1 31
1 32
1 33
1 34
1 35
1 36
1 37
1 38
1 39
1 40
1 41
1 42
1 43
1 44
1 45
1 46
1 47
1 48
1 49
1 50
1 51
1 52
1 53
1 54
1 55
1 56
1 57
1 58
1 59
1 60
1 61
1 62
1 63
1 64
1 65
1 66
1 67
1 68
1 69
1 70
1 71
1 72
1 73
1 74
1 75
1 76
1 77
1 78
1 79
1 80
1 81
1 82
1 83
1 84
1 85
1 86
1 87
1 88
1 89
1 90
1 91
1 92
1 93
1 94
1 95
1 96
1 97
1 98
1 99
1 100
1 101
1 102
1 103
1 104
1 105
1 106
1 107
1 108
1 109
1 110
1 111
1 112
1 113
1 114
1 115
1 116
1 117
1 118
1 119
1 120
1 121
1 122
1 123
1 124
1 125
1 126
1 127
1 128
1 129
1 130
1 131
1 132
1 133
1 134
1 135
1 136
1 137
1 138
1 139
1 140
1 141
1 142
1 143
1 144
1 145
1 146
1 147
1 148
1 149
1 150
1 151
1 152
1 153
1 154
1 155
1 156
1 157
1 158
1 159
1 160
1 161
1 162
1 163
1 164
1 165
1 166
1 167
1 168
1 169
1 170
1 171
1 172
1 173
1 174
1 175
1 176
1 177
1 178
1 179
1 180
1 181
1 182
1 183
1 184
1 185
1 186
1 187
1 188
1 189
1 190
1 191
1 192
1 193
1 194
1 195
1 196
1 197
1 198
1 199
1 200
1 201
1 202
1 203
1 204
1 205
1 206
1 207
1 208
1 209
1 210
1 211
1 212
1 213
1 214
1 215
1 216
1 217
1 218
1 219
1 220
1 221
1 222
1 223
1 224
1 225
1 226
1 227
1 228
1 229
1 230
1 231
1 232
1 233
1 234
1 235
1 236
1 237
1 238
1 239
1 240
1 241
1 242
1 243
1 244
1 245
1 246
1 247
1 248
1 249
1 250
1 251
1 252
1 253
1 254
1 255
1 256
1 257
1 258
1 259
1 260
1 261
1 262
1 263
1 264
1 265
1 266
1 267
1 268
1 269
1 270
1 271
1 272
1 273
1 274
1 275
1 276
1 277
1 278
1 279
1 280
1 281
1 282
1 283
1 284
1 285
1 286
1 287
1 288
1 289
1 290
1 291
1 292
1 293
1 294
1 295
1 296
1 297
1 298
1 299
1 300
1 301
1 302
1 303
1 304
1 305
1 306
1 307
1 308
1 309
1 310
1 311
1 312
1 313
1 314
1 315
1 316
1 317
1 318
1 319
1 320
1 321
1 322
1 323
1 324
1 325
1 326
1 327
1 328
1 329
1 330
1 331
1 332
1 333
1 334
1 335
1 336
1 337
1 338
1 339
1 340
1 341
1 342
1 343
1 344
1 345
1 346
1 347
1 348
1 349
1 350
1 351
1 352
1 353
1 354
1 355
1 356
1 357
1 358
1 359
1 360
1 361
1 362
1 363
1 364
1 365
1 366
1 367
1 368
1 369
1 370
1 371
1 372
1 373
1 374
1 375
1 376
1 377
1 378
1 379
1 380
1 381
1 382
1 383
1 384
1 385
1 386
1 387
1 388
1 389
1 390
1 391
1 392
1 393
1 394
1 395
1 396
1 397
1 398
1 399
1 400
1 401
1 402
1 403
1 404
1 405
1 406
1 407
1 408
1 409
1 410
1 411
1 412
1 413
1 414
1 415
1 416
1 417
1 418
1 419
1 420
1 421
1 422
1 423
1 424
1 425
1 426
1 427
1 428
1 429
1 430
1 431
1 432
1 433
1 434
1 435
1 436
1 437
1 438
1 439
1 440
1 441
1 442
1 443
1 444
1 445
1 446
1 447
1 448
1 449
1 450
1 451
1 452
1 453
1 454
1 455
1 456
1 457
1 458
1 459
1 460
1 461
1 462
1 463
1 464
1 465
1 466
1 467
1 468
1 469
1 470
1 471
1 472
1 473
1 474
1 475
1 476
1 477
1 478
1 479
1 480
1 481
1 482
1 483
1 484
1 485
1 486
1 487
1 488
1 489
1 490
1 491
1 492
1 493
1 494
1 495
1 496
1 497
1 498
1 499
1 500
1 501
1 502
1 503
1 504
1 505
1 506
1 507
1 508
1 509
1 510
1 511
1 512
1 513
1 514
1 515
1 516
1 517
1 518
1 519
1 520
1 521
1 522
1 523
1 524
1 525
1 526
1 527
1 528
1 529
1 530
1 531
1 532
1 533
1 534
1 535
1 536
1 537
1 538
1 539
1 540
1 541
1 542
1 543
1 544
1 545
1 546
1 547
1 548
1 549
1 550
1 551
1 552
1 553
1 554
1 555
1 556
1 557
1 558
1 559
1 560
1 561
1 562
1 563
1 564
1 565
1 566
1 567
1 568
1 569
1 570
1 571
1 572
1 573
1 574
1 575
1 576
1 577
1 578
1 579
1 580
1 581
1 582
1 583
1 584
1 585
1 586
1 587
1 588
1 589
1 590
1 591
1 592
1 593
1 594
1 595
1 596
1 597
1 598
1 599
1 600
1 601
1 602
1 603
1 604
1 605
1 606
1 607
1 608
1 609
1 610
1 611
1 612
1 613
1 614
1 615
1 616
1 617
1 618
1 619
1 620
1 621
1 622
1 623
1 624
1 625
1 626
1 627
1 628
1 629
1 630
1 631
1 632
1 633
1 634
1 635
1 636
1 637
1 638
1 639
1 640
1 641
1 642
1 643
1 644
1 645
1 646
1 647
1 648
1 649
1 650
1 651
1 652
1 653
1 654
1 655
1 656
1 657
1 658
1 659
1 660
1 661
1 662
1 663
1 664
1 665
1 666
1 667
1 668
1 669
1 670
1 671
1 672
1 673
1 674
1 675
1 676
1 677
1 678
1 679
1 680
1 681
1 682
1 683
1 684
1 685
1 686
1 687
1 688
1 689
1 690
1 691
1 692
1 693
1 694
1 695
1 696
1 697
1 698
1 699
1 700
1 701
1 702
1 703
1 704
1 705
1 706
1 707
1 708
1 709
1 710
1 711
1 712
1 713
1 714
1 715
1 716
1 717
1 718
1 719
1 720
1 721
1 722
1 723
1 724
1 725
1 726
1 727
1 728
1 729
1 730
1 731
1 732
1 733
1 734
1 735
1 736
1 737
1 738
1 739
1 740
1 741
1 742
1 743
1 744
1 745
1 746
1 747
1 748
1 749
1 750
1 751
1 752
1 753
1 754
1 755
1 756
1 757
1 758
1 759
1 760
1 761
1 762
1 763
1 764
1 765
1 766
1 767
1 768
1 769
1 770
1 771
1 772
1 773
1 774
1 775
1 776
1 777
1 778
1 779
1 780
1 781
1 782
1 783
1 784
1 785
1 786
1 787
1 788
1 789
1 790
1 791
1 792
1 793
1 794
1 795
1 796
1 797
1 798
1 799
1 800
1 801
1 802
1 803
1 804
1 805
1 806
1 807
1 808
1 809
1 810
1 811
1 812
1 813
1 814
1 815
1 816
1 817
1 818
1 819
1 820
1 821
1 822
1 823
1 824
1 825
1 826
1 827
1 828
1 829
1 830
1 831
1 832
1 833
1 834
1 835
1 836
1 837
1 838
1 839
1 840
1 841
1 842
1 843
1 844
1 845
1 846
1 847
1 848
1 849
1 850
1 851
1 852
1 853
1 854
1 855
1 856
1 857
1 858
1 859
1 860
1 861
1 862
1 863
1 864
1 865
1 866
1 867
1 868
1 869
1 870
1 871
1 872
1 873
1 874
1 875
1 876
1 877
1 878
1 879
1 880
1 881
1 882
1 883
1 884
1 885
1 886
1 887
1 888
1 889
1 890
1 891
1 892
1 893
1 894
1 895
1 896
1 897
1 898
1 899
1 900
1 901
1 902
1 903
1 904
1 905
1 906
1 907
1 908
1 909
1 910
1 911
1 912
1 913
1 914
1 915
1 916
1 917
1 918
1 919
1 920
1 921
1 922
1 923
1 924
1 925
1 926
1 927
1 928
1 929
1 930
1 931
1 932
1 933
1 934
1 935
1 936
1 937
1 938
1 939
1 940
1 941
1 942
1 943
1 944
1 945
1 946
1 947
1 948
1 949
1 950
1 951
1 952
1 953
1 954
1 955
1 956
1 957
1 958
1 959
1 960
1 961
1 962
1 963
1 964
1 965
1 966
1 967
1 968
1 969
1 970
1 971
1 972
1 973
1 974
1 975
1 976
1 977
1 978
1 979
1 980
1 981
1 982
1 983
1 984
1 985
1 986
1 987
1 988
1 989
1 990
1 991
1 992
1 993
1 994
1 995
1 996
1 997
1 998
1 999
1 1000
1 1001
1 1002
1 1003
1 1004
1 1005
1 1006
1 1007
1 1008
1 1009
1 1010
1 1011
1 1012
1 1013
1 1014
1 1015
1 1016
1 1017
1 1018
1 1019
1 1020
1 1021
1 1022
1 1023
1 1024
1 1025
1 1026
1 1027
1 1028
1 1029
1 1030
1 1031
1 1032
1 1033
1 1034
1 1035
1 1036
1 1037
1 1038
1 1039
1 1040
1 1041
1 1042
1 1043
1 1044
1 1045
1 1046
1 1047
1 1048
1 1049
1 1050
1 1051
1 1052
1 1053
1 1054
1 1055
1 1056
1 1057
1 1058
1 1059
1 1060
1 1061
1 1062
1 1063
1 1064
1 1065
1 1066
1 1067
1 1068
1 1069
1 1070
1 1071
1 1072
1 1073
1 1074
1 1075
1 1076
1 1077
1 1078
1 1079
1 1080
1 1081
1 1082
1 1083
1 1084
1 1085
1 1086
1 1087
1 1088
1 1089
1 1090
1 1091
1 1092
1 1093
1 1094
1 1095
1 1096
1 1097
1 1098
1 1099
1 1100
1 1101
1 1102
1 1103
1 1104
1 1105
1 1106
1 1107
1 1108
1 1109
1 1110
1 1111
1 1112
1 1113
1 1114
1 1115
1 1116
1 1117
1 1118
1 1119
1 1120
1 1121
1 1122
1 1123
1 1124
1 1125
1 1126
1 1127
1 1128
1 1129
1 1130
1 1131
1 1132
1 1133
1 1134
1 1135
1 1136
1 1137
1 1138
1 1139
1 1140
1 1141
1 1142
1 1143
1 1144
1 1145
1 1146
1 1147
1 1148
1 1149
1 1150
1 1151
1 1152
1 1153
1 1154
1 1155
1 1156
1 1157
1 1158
1 1159
1 1160
1 1161
1 1162
1 1163
1 1164
1 1165
1 1166
1 1167
1 1168
1 1169
1 1170
1 1171
1 1172
1 1173
1 1174
1 1175
1 1176
1 1177
1 1178
1 1179
1 1180
1 1181
1 1182
1 1183
1 1184
1 1185
1 1186
1 1187
1 1188
1 1189
1 1190
1 1191
1 1192
1 1193
1 1194
1 1195
1 1196
1 1197
1 1198
1 1199
1 1200
1 1201
1 1202
1 1203
1 1204
1 1205
1 1206
1 1207
1 1208
1 1209
1 1210
1 1211
1 1212
1 1213
1 1214
1 1215
1 1216
1 1217
1 1218
1 1219
1 1220
1 1221
1 1222
1 1223
1 1224
1 1225
1 1226
1 1227
1 1228
1 1229
1 1230
1 1231
1 1232
1 1233
1 1234
1 1235
1 1236
1 1237
1 1238
1 1239
1 1240
1 1241
1 1242
1 1243
1 1244
1 1245
1 1246
1 1247
1 1248
1 1249
1 1250
1 1251
1 1252
1 1253
1 1254
1 1255
1 1256
1 1257
1 1258
1 1259
1 1260
1 1261
1 1262
1 1263
1 1264
1 1265
1 1266
1 1267
1 1268
1 1269
1 1270
1 1271
1 1272
1 1273
1 1274
1 1275
1 1276
1 1277
1 1278
1 1279
1 1280
1 1281
1 1282
1 1283
1 1284
1 1285
1 1286
1 1287
1 1288
1 1289
1 1290
1 1291
1 1292
1 1293
1 1294
1 1295
1 1296
1 1297
1 1298
1 1299
1 1300
1 1301
1 1302
1 1303
1 1304
1 1305
1 1306
1 1307
1 1308
1 1309
1 1310
1 1311
1 1312
1 1313
1 1314
1 1315
1 1316
1 1317
1 1318
1 1319
1 1320
1 1321
1 1322
1 1323
1 1324
1 1325
1 1326
1 1327
1 1328
1 1329
1 1330
1 1331
1 1332
1 1333
1 1334
1 1335
1 1336
1 1337
1 1338
1 1339
1 1340
1 1341
1 1342
1 1343
1 1344
1 1345
1 1346
1 1347
1 1348
1 1349
1 1350
1 1351
1 1352
1 1353
1 1354
1 1355
1 1356
1 1357
1 1358
1 1359
1 1360
1 1361
1 1362
1 1363
1 1364
1 1365
1 1366
1 1367
1 1368
1 1369
1 1370
1 1371
1 1372
1 1373
1 1374
1 1375
1 1376
1 1377
1 1378
1 1379
1 1380
1 1381
1 1382
1 1383
1 1384
1 1385
1 1386
1 1387
1 1388
1 1389
1 1390
1 1391
1 1392
1 1393
1 1394
1 1395
1 1396
1 1397
1 1398
1 1399
1 1400
1 1401
1 1402
1 1403
1 1404
1 1405
1 1406
1 1407
1 1408
1 1409
1 1410
1 1411
1 1412
1 1413
1 1414
1 1415
1 1416
1 1417
1 1418
1 1419
1 1420
1 1421
1 1422
1 1423
1 1424
1 1425
1 1426
1 1427
1 1428
1 1429
1 1430
1 1431
1 1432
1 1433
1 1434
1 1435
1 1436
1 1437
1 1438
1 1439
1 1440
1 1441
1 1442
1 1443
1 1444
1 1445
1 1446
1 1447
1 1448
1 1449
1 1450
1 1451
1 1452
1 1453
1 1454
1 1455
1 1456
1 1457
1 1458
1 1459
1 1460
1 1461
1 1462
1 1463
1 1464
1 1465
1 1466
1 1467
1 1468
1 1469
1 1470
1 1471
1 1472
1 1473
1 1474
1 1475
1 1476
1 1477
1 1478
1 1479
1 1480
1 1481
1 1482
1 1483
1 1484
1 1485
1 1486
1 1487
1 1488
1 1489
1 1490
1 1491
1 1492
1 1493
1 1494
1 1495
1 1496
1 1497
1 1498
1 1499
1 1500
1 1501
1 1502
1 1503
1 1504
1 1505
1 1506
1 1507
1 1508
1 1509
1 1510
1 1511
1 1512
1 1513
1 1514
1 1515
1 1516
1 1517
1 1518
1 1519
1 1520
1 1521
1 1522
1 1523
1 1524
1 1525
1 1526
1 1527
1 1528
1 1529
1 1530
1 1531
1 1532
1 1533
1 1534
1 1535
1 1536
1 1537
1 1538
1 1539
1 1540
1 1541
1 1542
1 1543
1 1544
1 1545
1 1546
1 1547
1 1548
1 1549
1 1550
1 1551
1 1552
1 1553
1 1554
1 1555
1 1556
1 1557
1 1558
1 1559
1 1560
1 1561
1 1562
1 1563
1 1564
1 1565
1 1566
1 1567
1 1568
1 1569
1 1570
1 1571
1 1572
1 1573
1 1574
1 1575
1 1576
1 1577
1 1578
1 1579
1 1580
1 1581
1 1582
1 1583
1 1584
1 1585
1 1586
1 1587
1 1588
1 1589
1 1590
1 1591
1 1592
1 1593
1 1594
1 1595
1 1596
1 1597
1 1598
1 1599
1 1600
1 1601
1 1602
1 1603
1 1604
1 1605
1 1606
1 1607
1 1608
1 1609
1 1610
1 1611
1 1612
1 1613
1 1614
1 1615
1 1616
1 1617
1 1618
1 1619
1 1620
1 1621
1 1622
1 1623
1 1624
1 1625
1 1626
1 1627
1 1628
1 1629
1 1630
1 1631
1 1632
1 1633
1 1634
1 1635
1 1636
1 1637
1 1638
1 1639
1 1640
1 1641
1 1642
1 1643
1 1644
1 1645
1 1646
1 1647
1 1648
1 1649
1 1650
1 1651
1 1652
1 1653
1 1654
1 1655
1 1656
1 1657
1 1658
1 1659
1 1660
1 1661
1 1662
1 1663
1 1664
1 1665
1 1666
1 1667
1 1668
1 1669
1 1670
1 1671
1 1672
1 1673
1 1674
1 1675
1 1676
1 1677
1 1678
1 1679
1 1680
1 1681
1 1682
1 1683
1 1684
1 1685
1 1686
1 1687
1 1688
1 1689
1 1690
1 1691
1 1692
1 1693
1 1694
1 1695
1 1696
1 1697
1 1698
1 1699
1 1700
1 1701
1 1702
1 1703
1 1704
1 1705
1 1706
1 1707
1 1708
1 1709
1 1710
1 1711
1 1712
1 1713
1 1714
1 1715
1 1716
1 1717
1 1718
1 1719
1 1720
1 1721
1 1722
1 1723
1 1724
1 1725
1 1726
1 1727
1 1728
1 1729
1 1730
1 1731
1 1732
1 1733
1 1734
1 1735
1 1736
1 1737
1 1738
1 1739
1 1740
1 1741
1 1742
1 1743
1 1744
1 1745
1 1746
1 1747
1 1748
1 1749
1 1750
1 1751
1 1752
1 1753
1 1754
1 1755
1 1756
1 1757
1 1758
1 1759
1 1760
1 1761
1 1762
1 1763
1 1764
1 1765
1 1766
1 1767
1 1768
1 1769
1 1770
1 1771
1 1772
1 1773
1 1774
1 1775
1 1776
1 1777
1 1778
1 1779
1 1780
1 1781
1 1782
1 1783
1 1784
1 1785
1 1786
1 1787
1 1788
1 1789
1 1790
1 1791
1 1792
1 1793
1 1794
1 1795
1 1796
1 1797
1 1798
1 1799
1 1800
1 1801
1 1802
1 1803
1 1804
1 1805
1 1806
1 1807
1 1808
1 1809
1 1810
1 1811
1 1812
1 1813
1 1814
1 1815
1 1816
1 1817
1 1818
1 1819
1 1820
1 1821
1 1822
1 1823
1 1824
1 1825
1 1826
1 1827
1 1828
1 1829
1 1830
1 1831
1 1832
1 1833
1 1834
1 1835
1 1836
1 1837
1 1838
1 1839
1 1840
1 1841
1 1842
1 1843
1 1844
1 1845
1 1846
1 1847
1 1848
1 1849
1 1850
1 1851
1 1852
1 1853
1 1854
1 1855
1 1856
1 1857
1 1858
1 1859
1 1860
1 1861
1 1862
1 1863
1 1864
1 1865
1 1866
1 1867
1 1868
1 1869
1 1870
1 1871
1 1872
1 1873
1 1874
1 1875
1 1876
1 1877
1 1878
1 1879
1 1880
1 1881
1 1882
1 1883
1 1884
1 1885
1 1886
1 1887
1 1888
1 1889
1 1890
1 1891
1 1892
1 1893
1 1894
1 1895
1 1896
1 1897
1 1898
1 1899
1 1900
1 1901
1 1902
1 1903
1 1904
1 1905
1 1906
1 1907
1 1908
1 1909
1 1910
1 1911
1 1912
1 1913
1 1914
1 1915
1 1916
1 1917
1 1918
1 1919
1 1920
1 1921
1 1922
1 1923
1 1924
1 1925
1 1926
1 1927
1 1928
1 1929
1 1930
1 1931
1 1932
1 1933
1 1934
1 1935
1 1936
1 1937
1 1938
1 1939
1 1940
1 1941
1 1942
1 1943
1 1944
1 1945
1 1946
1 1947
1 1948
1 1949
1 1950
1 1951
1 1952
1 1953
1 1954
1 1955
1 1956
1 1957
1 1958
1 1959
1 1960
1 1961
1 1962
1 1963
1 1964
1 1965
1 1966
1 1967
1 1968
1 1969
1 1970
1 1971
1 1972
1 1973
1 1974
1 1975
1 1976
1 1977
1 1978
1 1979
1 1980
1 1981
1 1982
1 1983
1 1984
1 1985
1 1986
1 1987
1 1988
1 1989
1 1990
1 1991
1 1992
1 1993
1 1994
1 1995
1 1996
1 1997
1 1998
1 1999
1 2000
1 2001
1 2002
1 2003
1 2004
1 2005
1 2006
1 2007
1 2008
1 2009
1 2010
1 2011
1 2012
1 2013
1 2014
1 2015
1 2016
1 2017
1 2018
1 2019
1 2020
1 2021
1 2022
1 2023
1 2024
1 2025
1 2026
1 2027
1 2028
1 2029
1 2030
1 2031
1 2032
1 2033
1 2034
1 2035
1 2036
1 2037
1 2038
1 2039
1 2040
1 2041
1 2042
1 2043
1 2044
1 2045
1 2046
1 2047
1 2048
1 2049
1 2050
1 2051
1 2052
1 2053
1 2054
1 2055
1 2056
1 2057
1 2058
1 2059
1 2060
1 2061
1 2062
1 2063
1 2064
1 2065
1 2066
1 2067
1 2068
1 2069
1 2070
1 2071
1 2072
1 2073
1 2074
1 2075
1 2076
1 2077
1 2078
1 2079
1 2080
1 2081
1 2082
1 2083
1 2084
1 2085
1 2086
1 2087
1 2088
1 2089
1 2090
1 2091
1 2092
1 2093
1 2094
1 2095
1 2096
1 2097
1 2098
1 2099
1 2100
1 2101
1 2102
1 2103
1 2104
1 2105
1 2106
1 2107
1 2108
1 2109
1 2110
1 2111
1 2112
1 2113
1 2114
1 2115
1 2116
1 2117
1 2118
1 2119
1 2120
1 2121
1 2122
1 2123
1 2124
1 2125
1 2126
1 2127
1 2128
1 2129
1 2130
1 2131
1 2132
1 2133
1 2134
1 2135
1 2136
1 2137
1 2138
1 2139
1 2140
1 2141
1 2142
1 2143
1 2144
1 2145
1 2146
1 2147
1 2148
1 2149
1 2150
1 2151
1 2152
1 2153
1 2154
1 2155
1 2156
1 2157
1 2158
1 2159
1 2160
1 2161
1 2162
1 2163
1 2164
1 2165
1 2166
1 2167
1 2168
1 2169
1 2170
1 2171
1 2172
1 2173
1 2174
1 2175
1 2176
1 2177
1 2178
1 2179
1 2180
1 2181
1 2182
1 2183
1 2184
1 2185
1 2186
1 2187
1 2188
1 2189
1 2190
1 2191
1 2192
1 2193
1 2194
1 2195
1 2196
1 2197
1 2198
1 2199
1 2200
1 2201
1 2202
1 2203
1 2204
1 2205
1 2206
1 2207
1 2208
1 2209
1 2210
1 2211
1 2212
1 2213
1 2214
1 2215
1 2216
1 2217
1 2218
1 2219
1 2220
1 2221
1 2222
1 2223
1 2224
1 2225
1 2226
1 2227
1 2228
1 2229
1 2230
1 2231
1 2232
1 2233
1 2234
1 2235
1 2236
1 2237
1 2238
1 2239
1 2240
1 2241
1 2242
1 2243
1 2244
1 2245
1 2246
1 2247
1 2248
1 2249
1 2250
1 2251
1 2252
1 2253
1 2254
1 2255
1 2256
1 2257
1 2258
1 2259
1 2260
1 2261
1 2262
1 2263
1 2264
1 2265
1 2266
1 2267
1 2268
1 2269
1 2270
1 2271
1 2272
1 2273
1 2274
1 2275
1 2276
1 2277
1 2278
1 2279
1 2280
1 2281
1 2282
1 2283
1 2284
1 2285
1 2286
1 2287
1 2288
1 2289
1 2290
1 2291
1 2292
1 2293
1 2294
1 2295
1 2296
1 2297
1 2298
1 2299
1 2300
1 2301
1 2302
1 2303
1 2304
1 2305
1 2306
1 2307
1 2308
1 2309
1 2310
1 2311
1 2312
1 2313
1 2314
1 2315
1 2316
1 2317
1 2318
1 2319
1 2320
1 2321
1 2322
1 2323
1 2324
1 2325
1 2326
1 2327
1 2328
1 2329
1 2330
1 2331
1 2332
1 2333
1 2334
1 2335
1 2336
1 2337
1 2338
1 2339
1 2340
1 2341
1 2342
1 2343
1 2344
1 2345
1 2346
1 2347
1 2348
1 2349
1 2350
1 2351
1 2352
1 2353
1 2354
1 2355
1 2356
1 2357
1 2358
1 2359
1 2360
1 2361
1 2362
1 2363
1 2364
1 2365
1 2366
1 2367
1 2368
1 2369
1 2370
1 2371
1 2372
1 2373
1 2374
1 2375
1 2376
1 2377
1 2378
1 2379
1 2380
1 2381
1 2382
1 2383
1 2384
1 2385
1 2386
1 2387
1 2388
1 2389
1 2390
1 2391
1 2392
1 2393
1 2394
1 2395
1 2396
1 2397
1 2398
1 2399
1 2400
1 2401
1 2402
1 2403
1 2404
1 2405
1 2406
1 2407
1 2408
1 2409
1 2410
1 2411
1 2412
1 2413
1 2414
1 2415
1 2416
1 2417
1 2418
1 2419
1 2420
1 2421
1 2422
1 2423
1 2424
1 2425
1 2426
1 2427
1 2428
1 2429
1 2430
1 2431
1 2432
1 2433
1 2434
1 2435
1 2436
1 2437
1 2438
1 2439
1 2440
1 2441
1 2442
1 2443
1 2444
1 2445
1 2446
1 2447
1 2448
1 2449
1 2450
1 2451
1 2452
1 2453
1 2454
1 2455
1 2456
1 2457
1 2458
1 2459
1 2460
1 2461
1 2462
1 2463
1 2464
1 2465
1 2466
1 2467
1 2468
1 2469
1 2470
1 2471
1 2472
1 2473
1 2474
1 2475
1 2476
1 2477
1 2478
1 2479
1 2480
1 2481
1 2482
1 2483
1 2484
1 2485
1 2486
1 2487
1 2488
1 2489
1 2490
1 2491
1 2492
1 2493
1 2494
1 2495
1 2496
1 2497
1 2498
1 2499
1 2500
1 2501
1 2502
1 2503
1 2504
1 2505
1 2506
1 2507
1 2508
1 2509
1 2510
1 2511
1 2512
1 2513
1 2514
1 2515
1 2516
1 2517
1 2518
1 2519
1 2520
1 2521
1 2522
1 2523
1 2524
1 2525
1 2526
1 2527
1 2528
1 2529
1 2530
1 2531
1 2532
1 2533
1 2534
1 2535
1 2536
1 2537
1 2538
1 2539
1 2540
1 2541
1 2542
1 2543
1 2544
1 2545
1 2546
1 2547
1 2548
1 2549
1 2550
1 2551
1 2552
1 2553
1 2554
1 2555
1 2556
1 2557
1 2558
1 2559
1 2560
1 2561
1 2562
1 2563
1 2564
1 2565
1 2566
1 2567
1 2568
1 2569
1 2570
1 2571
1 2572
1 2573
1 2574
1 2575
1 2576
1 2577
1 2578
1 2579
1 2580
1 2581
1 2582
1 2583
1 2584
1 2585
1 2586
1 2587
1 2588
1 2589
1 2590
1 2591
1 2592
1 2593
1 2594
1 2595
1 2596
1 2597
1 2598
1 2599
1 2600
1 2601
1 2602
1 2603
1 2604
1 2605
1 2606
1 2607
1 2608
1 2609
1 2610
1 2611
1 2612
1 2613
1 2614
1 2615
1 2616
1 2617
1 2618
1 2619
1 2620
1 2621
1 2622
1 2623
1 2624
1 2625
1 2626
1 2627
1 2628
1 2629
1 2630
1 2631
1 2632
1 2633
1 2634
1 2635
1 2636
1 2637
1 2638
1 2639
1 2640
1 2641
1 2642
1 2643
1 2644
1 2645
1 2646
1 2647
1 2648
1 2649
1 2650
1 2651
1 2652
1 2653
1 2654
1 2655
1 2656
1 2657
1 2658
1 2659
1 2660
1 2661
1 2662
1 2663
1 2664
1 2665
1 2666
1 2667
1 2668
1 2669
1 2670
1 2671
1 2672
1 2673
1 2674
1 2675
1 2676
1 2677
1 2678
1 2679
1 2680
1 2681
1 2682
1 2683
1 2684
1 2685
1 2686
1 2687
1 2688
1 2689
1 2690
1 2691
1 2692
1 2693
1 2694
1 2695
1 2696
1 2697
1 2698
1 2699
1 2700
1 2701
1 2702
1 2703
1 2704
1 2705
1 2706
1 2707
1 2708
1 2709
1 2710
1 2711
1 2712
1 2713
1 2714
1 2715
1 2716
1 2717
1 2718
1 2719
1 2720
1 2721
1 2722
1 2723
1 2724
1 2725
1 2726
1 2727
1 2728
1 2729
1 2730
1 2731
1 2732
1 2733
1 2734
1 2735
1 2736
1 2737
1 2738
1 2739
1 2740
1 2741
1 2742
1 2743
1 2744
1 2745
1 2746
1 2747
1 2748
1 2749
1 2750
1 2751
1 2752
1 2753
1 2754
1 2755
1 2756
1 2757
1 2758
1 2759
1 2760
1 2761
1 2762
1 2763
1 2764
1 2765
1 2766
1 2767
1 2768
1 2769
1 2770
1 2771
1 2772
1 2773
1 2774
1 2775
1 2776
1 2777
1 2778
1 2779
1 2780
1 2781
1 2782
1 2783
1 2784
1 2785
1 2786
1 2787
1 2788
1 2789
1 2790
1 2791
1 2792
1 2793
1 2794
1 2795
1 2796
1 2797
1 2798
1 2799
1 2800
1 2801
1 2802
1 2803
1 2804
1 2805
1 2806
1 2807
1 2808
1 2809
1 2810
1 2811
1 2812
1 2813
1 2814
1 2815
1 2816
1 2817
1 2818
1 2819
1 2820
1 2821
1 2822
1 2823
1 2824
1 2825
1 2826
1 2827
1 2828
1 2829
1 2830
1 2831
1 2832
1 2833
1 2834
1 2835
1 2836
1 2837
1 2838
1 2839
1 2840
1 2841
1 2842
1 2843
1 2844
1 2845
1 2846
1 2847
1 2848
1 2849
1 2850
1 2851
1 2852
1 2853
1 2854
1 2855
1 2856
1 2857
1 2858
1 2859
1 2860
1 2861
1 2862
1 2863
1 2864
1 2865
1 2866
1 2867
1 2868
1 2869
1 2870
1 2871
1 2872
1 2873
1 2874
1 2875
1 2876
1 2877
1 2878
1 2879
1 2880
1 2881
1 2882
1 2883
1 2884
1 2885
1 2886
1 2887
1 2888
1 2889
1 2890
1 2891
1 2892
1 2893
1 2894
1 2895
1 2896
1 2897
1 2898
1 2899
1 2900
1 2901
1 2902
1 2903
1 2904
1 2905
1 2906
1 2907
1 2908
1 2909
1 2910
1 2911
1 2912
1 2913
1 2914
1 2915
1 2916
1 2917
1 2918
1 2919
1 2920
1 2921
1 2922
1 2923
1 2924
1 2925
1 2926
1 2927
1 2928
1 2929
1 2930
1 2931
1 2932
1 2933
1 2934
1 2935
1 2936
1 2937
1 2938
1 2939
1 2940
1 2941
1 2942
1 2943
1 2944
1 2945
1 2946
1 2947
1 2948
1 2949
1 2950
1 2951
1 2952
1 2953
1 2954
1 2955
1 2956
1 2957
1 2958
1 2959
1 2960
1 2961
1 2962
1 2963
1 2964
1 2965
1 2966
1 2967
1 2968
1 2969
1 2970
1 2971
1 2972
1 2973
1 2974
1 2975
1 2976
1 2977
1 2978
1 2979
1 2980
1 2981
1 2982
1 2983
1 2984
1 2985
1 2986
1 2987
1 2988
1 2989
1 2990
1 2991
1 2992
1 2993
1 2994
1 2995
1 2996
1 2997
1 2998
1 2999
1 3000
1 3001
1 3002
1 3003
1 3004
1 3005
1 3006
1 3007
1 3008
1 3009
1 3010
1 3011
1 3012
1 3013
1 3014
1 3015
1 3016
1 3017
1 3018
1 3019
1 3020
1 3021
1 3022
1 3023
1 3024
1 3025
1 3026
1 3027
1 3028
1 3029
1 3030
1 3031
1 3032
1 3033
1 3034
1 3035
1 3036
1 3037
1 3038
1 3039
1 3040
1 3041
1 3042
1 3043
1 3044
1 3045
1 3046
1 3047
1 3048
1 3049
1 3050
1 3051
1 3052
1 3053
1 3054
1 3055
1 3056
1 3057
1 3058
1 3059
1 3060
1 3061
1 3062
1 3063
1 3064
1 3065
1 3066
1 3067
1 3068
1 3069
1 3070
1 3071
1 3072
1 3073
1 3074
1 3075
1 3076
1 3077
1 3078
1 3079
1 3080
1 3081
1 3082
1 3083
1 3084
1 3085
1 3086
1 3087
1 3088
1 3089
1 3090
1 3091
1 3092
1 3093
1 3094
1 3095
1 3096
1 3097
1 3098
1 3099
1 3100
1 3101
1 3102
1 3103
1 3104
1 3105
1 3106
1 3107
1 3108
1 3109
1 3110
1 3111
1 3112
1 3113
1 3114
1 3115
1 3116
1 3117
1 3118
1 3119
1 3120
1 3121
1 3122
1 3123
1 3124
1 3125
1 3126
1 3127
1 3128
1 3129
1 3130
1 3131
1 3132
1 3133
1 3134
1 3135
1 3136
1 3137
1 3138
1 3139
1 3140
1 3141
1 3142
1 3143
1 3144
1 3145
1 3146
1 3147
1 3148
1 3149
1 3150
1 3151
1 3152
1 3153
1 3154
1 3155
1 3156
1 3157
1 3158
1 3159
1 3160
1 3161
1 3162
1 3163
1 3164
1 3165
1 3166
1 3167
1 3168
1 3169
1 3170
1 3171
1 3172
1 3173
1 3174
1 3175
1 3176
1 3177
1 3178
1 3179
1 3180
1 3181
1 3182
1 3183
1 3184
1 3185
1 3186
1 3187
1 3188
1 3189
1 3190
1 3191
1 3192
1 3193
1 3194
1 3195
1 3196
1 3197
1 3198
1 3199
1 3200
1 3201
1 3202
1 3203
1 3204
1 3205
1 3206
1 3207
1 3208
1 3209
1 3210
1 3211
1 3212
1 3213
1 3214
1 3215
1 3216
1 3217
1 3218
1 3219
1 3220
1 3221
1 3222
1 3223
1 3224
1 3225
1 3226
1 3227
1 3228
1 3229
1 3230
1 3231
1 3232
1 3233
1 3234
1 3235
1 3236
1 3237
1 3238
1 3239
1 3240
1 3241
1 3242
1 3243
1 3244
1 3245
1 3246
1 3247
1 3248
1 3249
1 3250
1 3251
1 3252
1 3253
1 3254
1 3255
1 3256
1 3257
1 3258
1 3259
1 3260
1 3261
1 3262
1 3263
1 3264
1 3265
1 3266
1 3267
1 3268
1 3269
1 3270
1 3271
1 3272
1 3273
1 3274
1 3275
1 3276
1 3277
1 3278
1 3279
1 3280
1 3281
1 3282
1 3283
1 3284
1 3285
1 3286
1 3287
1 3288
1 3289
1 3290
1 3291
1 3292
1 3293
1 3294
1 3295
1 3296
1 3297
1 3298
1 3299
1 3300
1 3301
1 3302
1 3303
1 3304
1 3305
1 3306
1 3307
1 3308
1 3309
1 3310
1 3311
1 3312
1 3313
1 3314
1 3315
1 3316
1 3317
1 3318
1 3319
1 3320
1 3321
1 3322
1 3323
1 3324
1 3325
1 3326
1 3327
1 3328
1 3329
1 3330
1 3331
1 3332
1 3333
1 3334
1 3335
1 3336
1 3337
1 3338
1 3339
1 3340
1 3341
1 3342
1 3343
1 3344
1 3345
1 3346
1 3347
1 3348
1 3349
1 3350
1 3351
1 3352
1 3353
1 3354
1 3355
1 3356
1 3357
1 3358
1 3359
1 3360
1 3361
1 3362
1 3363
1 3364
1 3365
1 3366
1 3367
1 3368
1 3369
1 3370
1 3371
1 3372
1 3373
1 3374
1 3375
1 3376
1 3377
1 3378
1 3379
1 3380
1 3381
1 3382
1 3383
1 3384
1 3385
1 3386
1 3387
1 3388
1 3389
1 3390
1 3391
1 3392
1 3393
1 3394
1 3395
1 3396
1 3397
1 3398
1 3399
1 3400
1 3401
1 3402
1 3403
1 3404
1 3405
1 3406
1 3407
1 3408
1 3409
1 3410
1 3411
1 3412
1 3413
1 3414
1 3415
1 3416
1 3417
1 3418
1 3419
1 3420
1 3421
1 3422
1 3423
1 3424
1 3425
1 3426
1 3427
1 3428
1 3429
1 3430
1 3431
1 3432
1 3433
1 3434
1 3435
1 3436
1 3437
1 3438
1 3439
1 3440
1 3441
1 3442
1 3443
1 3444
1 3445
1 3446
1 3447
1 3448
1 3449
1 3450
1 3451
1 3452
1 3453
1 3454
1 3455
1 3456
1 3457
1 3458
1 3459
1 3460
1 3461
1 3462
1 3463
1 3464
1 3465
1 3466
1 3467
1 3468
1 3469
1 3470
1 3471
1 3472
1 3473
1 3474
1 3475
1 3476
1 3477
1 3478
1 3479
1 3480
1 3481
1 3482
1 3483
1 3484
1 3485
1 3486
1 3487
1 3488
1 3489
1 3490
1 3491
1 3492
1 3493
1 3494
1 3495
1 3496
1 3497
1 3498
1 3499
1 3500
1 3501
1 3502
1 3503
1 3504
1 3505
1 3506
1 3507
1 3508
1 3509
1 3510
1 3511
1 3512
1 3513
1 3514
1 3515
1 3516
1 3517
1 3518
1 3519
1 3520
1 3521
1 3522
1 3523
1 3524
1 3525
1 3526
1 3527
1 3528
1 3529
1 3530
1 3531
1 3532
1 3533
1 3534
1 3535
1 3536
1 3537
1 3538
1 3539
1 3540
1 3541
1 3542
1 3543
1 3544
1 3545
1 3546
1 3547
1 3548
1 3549
1 3550
1 3551
1 3552
1 3553
1 3554
1 3555
1 3556
1 3557
1 3558
1 3559
1 3560
1 3561
1 3562
1 3563
1 3564
1 3565
1 3566
1 3567
1 3568
1 3569
1 3570
1 3571
1 3572
1 3573
1 3574
1 3575
1 3576
1 3577
1 3578
1 3579
1 3580
1 3581
1 3582
1 3583
1 3584
1 3585
1 3586
1 3587
1 3588
1 3589
1 3590
1 3591
1 3592
1 3593
1 3594
1 3595
1 3596
1 3597
1 3598
1 3599
1 3600
1 3601
1 3602
1 3603
1 3604
1 3605
1 3606
1 3607
1 3608
1 3609
1 3610
1 3611
1 3612
1 3613
1 3614
1 3615
1 3616
1 3617
1 3618
1 3619
1 3620
1 3621
1 3622
1 3623
1 3624
1 3625
1 3626
1 3627
1 3628
1 3629
1 3630
1 3631
1 3632
1 3633
1 3634
1 3635
1 3636
1 3637
1 3638
1 3639
1 3640
1 3641
1 3642
1 3643
1 3644
1 3645
1 3646
1 3647
1 3648
1 3649
1 3650
1 3651
1 3652
1 3653
1 3654
1 3655
1 3656
1 3657
1 3658
1 3659
1 3660
1 3661
1 3662
1 3663
1 3664
1 3665
1 3666
1 3667
1 3668
1 3669
1 3670
1 3671
1 3672
1 3673
1 3674
1 3675
1 3676
1 3677
1 3678
1 3679
1 3680
1 3681
1 3682
1 3683
1 3684
1 3685
1 3686
1 3687
1 3688
1 3689
1 3690
1 3691
1 3692
1 3693
1 3694
1 3695
1 3696
1 3697
1 3698
1 3699
1 3700
1 3701
1 3702
1 3703
1 3704
1 3705
1 3706
1 3707
1 3708
1 3709
1 3710
1 3711
1 3712
1 3713
1 3714
1 3715
1 3716
1 3717
1 3718
1 3719
1 3720
1 3721
1 3722
1 3723
1 3724
1 3725
1 3726
1 3727
1 3728
1 3729
1 3730
1 3731
1 3732
1 3733
1 3734
1 3735
1 3736
1 3737
1 3738
1 3739
1 3740
1 3741
1 3742
1 3743
1 3744
1 3745
1 3746
1 3747
1 3748
1 3749
1 3750
1 3751
1 3752
1 3753
1 3754
1 3755
1 3756
1 3757
1 3758
1 3759
1 3760
1 3761
1 3762
1 3763
1 3764
1 3765
1 3766
1 3767
1 3768
1 3769
1 3770
1 3771
1 3772
1 3773
1 3774
1 3775
1 3776
1 3777
1 3778
1 3779
1 3780
1 3781
1 3782
1 3783
1 3784
1 3785
1 3786
1 3787
1 3788
1 3789
1 3790
1 3791
1 3792
1 3793
1 3794
1 3795
1 3796
1 3797
1 3798
1 3799
1 3800
1 3801
1 3802
1 3803
1 3804
1 3805
1 3806
1 3807
1 3808
1 3809
1 3810
1 3811
1 3812
1 3813
1 3814
1 3815
1 3816
1 3817
1 3818
1 3819
1 3820
1 3821
1 3822
1 3823
1 3824
1 3825
1 3826
1 3827
1 3828
1 3829
1 3830
1 3831
1 3832
1 3833
1 3834
1 3835
1 3836
1 3837
1 3838
1 3839
1 3840
1 3841
1 3842
1 3843
1 3844
1 3845
1 3846
1 3847
1 3848
1 3849
1 3850
1 3851
1 3852
1 3853
1 3854
1 3855
1 3856
1 3857
1 3858
1 3859
1 3860
1 3861
1 3862
1 3863
1 3864
1 3865
1 3866
1 3867
1 3868
1 3869
1 3870
1 3871
1 3872
1 3873
1 3874
1 3875
1 3876
1 3877
1 3878
1 3879
1 3880
1 3881
1 3882
1 3883
1 3884
1 3885
1 3886
1 3887
1 3888
1 3889
1 3890
1 3891
1 3892
1 3893
1 3894
1 3895
1 3896
1 3897
1 3898
1 3899
1 3900
1 3901
1 3902
1 3903
1 3904
1 3905
1 3906
1 3907
1 3908
1 3909
1 3910
1 3911
1 3912
1 3913
1 3914
1 3915
1 3916
1 3917
1 3918
1 3919
1 3920
1 3921
1 3922
1 3923
1 3924
1 3925
1 3926
1 3927
1 3928
1 3929
1 3930
1 3931
1 3932
1 3933
1 3934
1 3935
1 3936
1 3937
1 3938
1 3939
1 3940
1 3941
1 3942
1 3943
1 3944
1 3945
1 3946
1 3947
1 3948
1 3949
1 3950
1 3951
1 3952
1 3953
1 3954
1 3955
1 3956
1 3957
1 3958
1 3959
1 3960
1 3961
1 3962
1 3963
1 3964
1 3965
1 3966
1 3967
1 3968
1 3969
1 3970
1 3971
1 3972
1 3973
1 3974
1 3975
1 3976
1 3977
1 3978
1 3979
1 3980
1 3981
1 3982
1 3983
1 3984
1 3985
1 3986
1 3987
1 3988
1 3989
1 3990
1 3991
1 3992
1 3993
1 3994
1 3995
1 3996
1 3997
1 3998
1 3999
1 4000
1 4001
1 4002
1 4003
1 4004
1 4005
1 4006
1 4007
1 4008
1 4009
1 4010
1 4011
1 4012
1 4013
1 4014
1 4015
1 4016
1 4017
1 4018
1 4019
1 4020
1 4021
1 4022
1 4023
1 4024
1 4025
1 4026
1 4027
1 4028
1 4029
1 4030
1 4031
1 4032
1 4033
1 4034
1 4035
1 4036
1 4037
1 4038
1 4039
1 4040
1 4041
1 4042
1 4043
1 4044
1 4045
1 4046
1 4047
1 4048
1 4049
1 4050
1 4051
1 4052
1 4053
1 4054
1 4055
1 4056
1 4057
1 4058
1 4059
1 4060
1 4061
1 4062
1 4063
1 4064
1 4065
1 4066
1 4067
1 4068
1 4069
1 4070
1 4071
1 4072
1 4073
1 4074
1 4075
1 4076
1 4077
1 4078
1 4079
1 4080
1 4081
1 4082
1 4083
1 4084
1 4085
1 4086
1 4087
1 4088
1 4089
1 4090
1 4091
1 4092
1 4093
1 4094
1 4095
1 4096
1 4097
1 4098
1 4099
1 4100
1 4101
1 4102
1 4103
1 4104
1 4105
1 4106
1 4107
1 4108
1 4109
1 4110
1 4111
1 4112
1 4113
1 4114
1 4115
1 4116
1 4117
1 4118
1 4119
1 4120
1 4121
1 4122
1 4123
1 4124
1 4125
1 4126
1 4127
1 4128
1 4129
1 4130
1 4131
1 4132
1 4133
1 4134
1 4135
1 4136
1 4137
1 4138
1 4139
1 4140
1 4141
1 4142
1 4143
1 4144
1 4145
1 4146
1 4147
1 4148
1 4149
1 4150
1 4151
1 4152
1 4153
1 4154
1 4155
1 4156
1 4157
1 4158
1 4159
1 4160
1 4161
1 4162
1 4163
1 4164
1 4165
1 4166
1 4167
1 4168
1 4169
1 4170
1 4171
1 4172
1 4173
1 4174
1 4175
1 4176
1 4177
1 4178
1 4179
1 4180
1 4181
1 4182
1 4183
1 4184
1 4185
1 4186
1 4187
1 4188
1 4189
1 4190
1 4191
1 4192
1 4193
1 4194
1 4195
1 4196
1 4197
1 4198
1 4199
1 4200
1 4201
1 4202
1 4203
1 4204
1 4205
1 4206
1 4207
1 4208
1 4209
1 4210
1 4211
1 4212
1 4213
1 4214
1 4215
1 4216
1 4217
1 4218
1 4219
1 4220
1 4221
1 4222
1 4223
1 4224
1 4225
1 4226
1 4227
1 4228
1 4229
1 4230
1 4231
1 4232
1 4233
1 4234
1 4235
1 4236
1 4237
1 4238
1 4239
1 4240
1 4241
1 4242
1 4243
1 4244
1 4245
1 4246
1 4247
1 4248
1 4249
1 4250
1 4251
1 4252
1 4253
1 4254
1 4255
1 4256
1 4257
1 4258
1 4259
1 4260
1 4261
1 4262
1 4263
1 4264
1 4265
1 4266
1 4267
1 4268
1 4269
1 4270
1 4271
1 4272
1 4273
1 4274
1 4275
1 4276
1 4277
1 4278
1 4279
1 4280
1 4281
1 4282
1 4283
1 4284
1 4285
1 4286
1 4287
1 4288
1 4289
1 4290
1 4291
1 4292
1 4293
1 4294
1 4295
1 4296
1 4297
1 4298
1 4299
1 4300
1 4301
1 4302
1 4303
1 4304
1 4305
1 4306
1 4307
1 4308
1 4309
1 4310
1 4311
1 4312
1 4313
1 4314
1 4315
1 4316
1 4317
1 4318
1 4319
1 4320
1 4321
1 4322
1 4323
1 4324
1 4325
1 4326
1 4327
1 4328
1 4329
1 4330
1 4331
1 4332
1 4333
1 4334
1 4335
1 4336
1 4337
1 4338
1 4339
1 4340
1 4341
1 4342
1 4343
1 4344
1 4345
1 4346
1 4347
1 4348
1 4349
1 4350
1 4351
1 4352
1 4353
1 4354
1 4355
1 4356
1 4357
1 4358
1 4359
1 4360
1 4361
1 4362
1 4363
1 4364
1 4365
1 4366
1 4367
1 4368
1 4369
1 4370
1 4371
1 4372
1 4373
1 4374
1 4375
1 4376
1 4377
1 4378
1 4379
1 4380
1 4381
1 4382
1 4383
1 4384
1 4385
1 4386
1 4387
1 4388
1 4389
1 4390
1 4391
1 4392
1 4393
1 4394
1 4395
1 4396
1 4397
1 4398
1 4399
1 4400
1 4401
1 4402
1 4403
1 4404
1 4405
1 4406
1 4407
1 4408
1 4409
1 4410
1 4411
1 4412
1 4413
1 4414
1 4415
1 4416
1 4417
1 4418
1 4419
1 4420
1 4421
1 4422
1 4423
1 4424
1 4425
1 4426
1 4427
1 4428
1 4429
1 4430
1 4431
1 4432
1 4433
1 4434
1 4435
1 4436
1 4437
1 4438
1 4439
1 4440
1 4441
1 4442
1 4443
1 4444
1 4445
1 4446
1 4447
1 4448
1 4449
1 4450
1 4451
1 4452
1 4453
1 4454
1 4455
1 4456
1 4457
1 4458
1 4459
1 4460
1 4461
1 4462
1 4463
1 4464
1 4465
1 4466
1 4467
1 4468
1 4469
1 4470
1 4471
1 4472
1 4473
1 4474
1 4475
1 4476
1 4477
1 4478
1 4479
1 4480
1 4481
1 4482
1 4483
1 4484
1 4485
1 4486
1 4487
1 4488
1 4489
1 4490
1 4491
1 4492
1 4493
1 4494
1 4495
1 4496
1 4497
1 4498
1 4499
1 4500
1 4501
1 4502
1 4503
1 4504
1 4505
1 4506
1 4507
1 4508
1 4509
1 4510
1 4511
1 4512
1 4513
1 4514
1 4515
1 4516
1 4517
1 4518
1 4519
1 4520
1 4521
1 4522
1 4523
1 4524
1 4525
1 4526
1 4527
1 4528
1 4529
1 4530
1 4531
1 4532
1 4533
1 4534
1 4535
1 4536
1 4537
1 4538
1 4539
1 4540
1 4541
1 4542
1 4543
1 4544
1 4545
1 4546
1 4547
1 4548
1 4549
1 4550
1 4551
1 4552
1 4553
1 4554
1 4555
1 4556
1 4557
1 4558
1 4559
1 4560
1 4561
1 4562
1 4563
1 4564
1 4565
1 4566
1 4567
1 4568
1 4569
1 4570
1 4571
1 4572
1 4573
1 4574
1 4575
1 4576
1 4577
1 4578
1 4579
1 4580
1 4581
1 4582
1 4583
1 4584
1 4585
1 4586
1 4587
1 4588
1 4589
1 4590
1 4591
1 4592
1 4593
1 4594
1 4595
1 4596
1 4597
1 4598
1 4599
1 4600
1 4601
1 4602
1 4603
1 4604
1 4605
1 4606
1 4607
1 4608
1 4609
1 4610
1 4611
1 4612
1 4613
1 4614
1 4615
1 4616
1 4617
1 4618
1 4619
1 4620
1 4621
1 4622
1 4623
1 4624
1 4625
1 4626
1 4627
1 4628
1 4629
1 4630
1 4631
1 4632
1 4633
1 4634
1 4635
1 4636
1 4637
1 4638
1 4639
1 4640
1 4641
1 4642
1 4643
1 4644
1 4645
1 4646
1 4647
1 4648
1 4649
1 4650
1 4651
1 4652
1 4653
1 4654
1 4655
1 4656
1 4657
1 4658
1 4659
1 4660
1 4661
1 4662
1 4663
1 4664
1 4665
1 4666
1 4667
1 4668
1 4669
1 4670
1 4671
1 4672
1 4673
1 4674
1 4675
1 4676
1 4677
1 4678
1 4679
1 4680
1 4681
1 4682
1 4683
1 4684
1 4685
1 4686
1 4687
1 4688
1 4689
1 4690
1 4691
1 4692
1 4693
1 4694
1 4695
1 4696
1 4697
1 4698
1 4699
1 4700
1 4701
1 4702
1 4703
1 4704
1 4705
1 4706
1 4707
1 4708
1 4709
1 4710
1 4711
1 4712
1 4713
1 4714
1 4715
1 4716
1 4717
1 4718
1 4719
1 4720
1 4721
1 4722
1 4723
1 4724
1 4725
1 4726
1 4727
1 4728
1 4729
1 4730
1 4731
1 4732
1 4733
1 4734
1 4735
1 4736
1 4737
1 4738
1 4739
1 4740
1 4741
1 4742
1 4743
1 4744
1 4745
1 4746
1 4747
1 4748
1 4749
1 4750
1 4751
1 4752
1 4753
1 4754
1 4755
1 4756
1 4757
1 4758
1 4759
1 4760
1 4761
1 4762
1 4763
1 4764
1 4765
1 4766
1 4767
1 4768
1 4769
1 4770
1 4771
1 4772
1 4773
1 4774
1 4775
1 4776
1 4777
1 4778
1 4779
1 4780
1 4781
1 4782
1 4783
1 4784
1 4785
1 4786
1 4787
1 4788
1 4789
1 4790
1 4791
1 4792
1 4793
1 4794
1 4795
1 4796
1 4797
1 4798
1 4799
1 4800
1 4801
1 4802
1 4803
1 4804
1 4805
1 4806
1 4807
1 4808
1 4809
1 4810
1 4811
1 4812
1 4813
1 4814
1 4815
1 4816
1 4817
1 4818
1 4819
1 4820
1 4821
1 4822
1 4823
1 4824
1 4825
1 4826
1 4827
1 4828
1 4829
1 4830
1 4831
1 4832
1 4833
1 4834
1 4835
1 4836
1 4837
1 4838
1 4839
1 4840
1 4841
1 4842
1 4843
1 4844
1 4845
1 4846
1 4847
1 4848
1 4849
1 4850
1 4851
1 4852
1 4853
1 4854
1 4855
1 4856
1 4857
1 4858
1 4859
1 4860
1 4861
1 4862
1 4863
1 4864
1 4865
1 4866
1 4867
1 4868
1 4869
1 4870
1 4871
1 4872
1 4873
1 4874
1 4875
1 4876
1 4877
1 4878
1 4879
1 4880
1 4881
1 4882
1 4883
1 4884
1 4885
1 4886
1 4887
1 4888
1 4889
1 4890
1 4891
1 4892
1 4893
1 4894
1 4895
1 4896
1 4897
1 4898
1 4899
1 4900
1 4901
1 4902
1 4903
1 4904
1 4905
1 4906
1 4907
1 4908
1 4909
1 4910
1 4911
1 4912
1 4913
1 4914
1 4915
1 4916
1 4917
1 4918
1 4919
1 4920
1 4921
1 4922
1 4923
1 4924
1 4925
1 4926
1 4927
1 4928
1 4929
1 4930
1 4931
1 4932
1 4933
1 4934
1 4935
1 4936
1 4937
1 4938
1 4939
1 4940
1 4941
1 4942
1 4943
1 4944
1 4945
1 4946
1 4947
1 4948
1 4949
1 4950
1 4951
1 4952
1 4953
1 4954
1 4955
1 4956
1 4957
1 4958
1 4959
1 4960
1 4961
1 4962
1 4963
1 4964
1 4965
1 4966
1 4967
1 4968
1 4969
1 4970
1 4971
1 4972
1 4973
1 4974
1 4975
1 4976
1 4977
1 4978
1 4979
1 4980
1 4981
1 4982
1 4983
1 4984
1 4985
1 4986
1 4987
1 4988
1 4989
1 4990
1 4991
1 4992
1 4993
1 4994
1 4995
1 4996
1 4997
1 4998
1 4999
CELL_TYPES 5000
1 
1 
1 
1 
1 
1 
1 
1 
1 
1 
1 
1 
1 
1 
1 
1 
1 
1 
1 
1 
1 
1 
1 
1 
1 
1 
1 
1 
1 
1 
1 
1 
1 
1 
1 
1 
1 
1 
1 
1 
1 
1 
1 
1 
1 
1 
1 
1 
1 
1 
1 
1 
1 
1 
1 
1 
1 
1 
1 
1 
1 
1 
1 
1 
1 
1 
1 
1 
1 
1 
1 
1 
1 
1 
1 
1 
1 
1 
1 
1 
1 
1 
1 
1 
1 
1 
1 
1 
1 
1 
1 
1 
1 
1 
1 
1 
1 
1 
1 
1 
1 
1 
1 
1 
1 
1 
1 
1 
1 
1 
1 
1 
1 
1 
1 
1 
1 
1 
1 
1 
1 
1 
1 
1 
1 
1 
1 
1 
1 
1 
1 
1 
1 
1 
1 
1 
1 
1 
1 
1 
1 
1 
1 
1 
1 
1 
1 
1 
1 
1 
1 
1 
1 
1 
1 
1 
1 
1 
1 
1 
1 
1 
1 
1 
1 
1 
1 
1 
1 
1 
1 
1 
1 
1 
1 
1 
1 
1 
1 
1 
1 
1 
1 
1 
1 
1 
1 
1 
1 
1 
1 
1 
1 
1 
1 
1 
1 
1 
1 
1 
1 
1 
1 
1 
1 
1 
1 
1 
1 
1 
1 
1 
1 
1 
1 
1 
1 
1 
1 
1 
1 
1 
1 
1 
1 
1 
1 
1 
1 
1 
1 
1 
1 
1 
1 
1 
1 
1 
1 
1 
1 
1 
1 
1 
1 
1 
1 
1 
1 
1 
1 
1 
1 
1 
1 
1 
1 
1 
1 
1 
1 
1 
1 
1 
1 
1 
1 
1 
1 
1 
1 
1 
1 
1 
1 
1 
1 
1 
1 
1 
1 
1 
1 
1 
1 
1 
1 
1 
1 
1 
1 
1 
1 
1 
1 
1 
1 
1 
1 
1 
1 
1 
1 
1 
1 
1 
1 
1 
1 
1 
1 
1 
1 
1 
1 
1 
1 
1 
1 
1 
1 
1 
1 
1 
1 
1 
1 
1 
1 
1 
1 
1 
1 
1 
1 
1 
1 
1 
1 
1 
1 
1 
1 
1 
1 
1 
1 
1 
1 
1 
1 
1 
1 
1 
1 
1 
1 
1 
1 
1 
1 
1 
1 
1 
1 
1 
1 
1 
1 
1 
1 
1 
1 
1 
1 
1 
1 
1 
1 
1 
1 
1 
1 
1 
1 
1 
1 
1 
1 
1 
1 
1 
1 
1 
1 
1 
1 
1 
1 
1 
1 
1 
1 
1 
1 
1 
1 
1 
1 
1 
1 
1 
1 
1 
1 
1 
1 
1 
1 
1 
1 
1 
1 
1 
1 
1 
1 
1 
1 
1 
1 
1 
1 
1 
1 
1 
1 
1 
1 
1 
1 
1 
1 
1 
1 
1 
1 
1 
1 
1 
1 
1 
1 
1 
1 
1 
1 
1 
1 
1 
1 
1 
1 
1 
1 
1 
1 
1 
1 
1 
1 
1 
1 
1 
1 
1 
1 
1 
1 
1 
1 
1 
1 
1 
1 
1 
1 
1 
1 
1 
1 
1 
1 
1 
1 
1 
1 
1 
1 
1 
1 
1 
1 
1 
1 
1 
1 
1 
1 
1 
1 
1 
1 
1 
1 
1 
1 
1 
1 
1 
1 
1 
1 
1 
1 
1 
1 
1 
1 
1 
1 
1 
1 
1 
1 
1 
1 
1 
1 
1 
1 
1 
1 
1 
1 
1 
1 
1 
1 
1 
1 
1 
1 
1 
1 
1 
1 
1 
1 
1 
1 
1 
1 
1 
1 
1 
1 
1 
1 
1 
1 
1 
1 
1 
1 
1 
1 
1 
1 
1 
1 
1 
1 
1 
1 
1 
1 
1 
1 
1 
1 
1 
1 
1 
1 
1 
1 
1 
1 
1 
1 
1 
1 
1 
1 
1 
1 
1 
1 
1 
1 
1 
1 
1 
1 
1 
1 
1 
1 
1 
1 
1 
1 
1 
1 
1 
1 
1 
1 
1 
1 
1 
1 
1 
1 
1 
1 
1 
1 
1 
1 
1 
1 
1 
1 
1 
1 
1 
1 
1 
1 
1 
1 
1 
1 
1 
1 
1 
1 
1 
1 
1 
1 
1 
1 
1 
1 
1 
1 
1 
1 
1 
1 
1 
1 
1 
1 
1 
1 
1 
1 
1 
1 
1 
1 
1 
1 
1 
1 
1 
1 
1 
1 
1 
1 
1 
1 
1 
1 
1 
1 
1 
1 
1 
1 
1 
1 
1 
1 
1 
1 
1 
1 
1 
1 
1 
1 
1 
1 
1 
1 
1 
1 
1 
1 
1 
1 
1 
1 
1 
1 
1 
1 
1 
1 
1 
1 
1 
1 
1 
1 
1 
1 
1 
1 
1 
1 
1 
1 
1 
1 
1 
1 
1 
1 
1 
1 
1 
1 
1 
1 
1 
1 
1 
1 
1 
1 
1 
1 
1 
1 
1 
1 
1 
1 
1 
1 
1 
1 
1 
1 
1 
1 
1 
1 
1 
1 
1 
1 
1 
1 
1 
1 
1 
1 
1 
1 
1 
1 
1 
1 
1 
1 
1 
1 
1 
1 
1 
1 
1 
1 
1 
1 
1 
1 
1 
1 
1 
1 
1 
1 
1 
1 
1 
1 
1 
1 
1 
1 
1 
1 
1 
1 
1 
1 
1 
1 
1 
1 
1 
1 
1 
1 
1 
1 
1 
1 
1 
1 
1 
1 
1 
1 
1 
1 
1 
1 
1 
1 
1 
1 
1 
1 
1 
1 
1 
1 
1 
1 
1 
1 
1 
1 
1 
1 
1 
1 
1 
1 
1 
1 
1 
1 
1 
1 
1 
1 
1 
1 
1 
1 
1 
1 
1 
1 
1 
1 
1 
1 
1 
1 
1 
1 
1 
1 
1 
1 
1 
1 
1 
1 
1 
1 
1 
1 
1 
1 
1 
1 
1 
1 
1 
1 
1 
1 
1 
1 
1 
1 
1 
1 
1 
1 
1 
1 
1 
1 
1 
1 
1 
1 
1 
1 
1 
1 
1 
1 
1 
1 
1 
1 
1 
1 
1 
1 
1 
1 
1 
1 
1 
1 
1 
1 
1 
1 
1 
1 
1 
1 
1 
1 
1 
1 
1 
1 
1 
1 
1 
1 
1 
1 
1 
1 
1 
1 
1 
1 
1 
1 
1 
1 
1 
1 
1 
1 
1 
1 
1 
1 
1 
1 
1 
1 
1 
1 
1 
1 
1 
1 
1 
1 
1 
1 
1 
1 
1 
1 
1 
1 
1 
1 
1 
1 
1 
1 
1 
1 
1 
1 
1 
1 
1 
1 
1 
1 
1 
1 
1 
1 
1 
1 
1 
1 
1 
1 
1 
1 
1 
1 
1 
1 
1 
1 
1 
1 
1 
1 
1 
1 
1 
1 
1 
1 
1 
1 
1 
1 
1 
1 
1 
1 
1 
1 
1 
1 
1 
1 
1 
1 
1 
1 
1 
1 
1 
1 
1 
1 
1 
1 
1 
1 
1 
1 
1 
1 
1 
1 
1 
1 
1 
1 
1 
1 
1 
1 
1 
1 
1 
1 
1 
1 
1 
1 
1 
1 
1 
1 
1 
1 
1 
1 
1 
1 
1 
1 
1 
1 
1 
1 
1 
1 
1 
1 
1 
1 
1 
1 
1 
1 
1 
1 
1 
1 
1 
1 
1 
1 
1 
1 
1 
1 
1 
1 
1 
1 
1 
1 
1 
1 
1 
1 
1 
1 
1 
1 
1 
1 
1 
1 
1 
1 
1 
1 
1 
1 
1 
1 
1 
1 
1 
1 
1 
1 
1 
1 
1 
1 
1 
1 
1 
1 
1 
1 
1 
1 
1 
1 
1 
1 
1 
1 
1 
1 
1 
1 
1 
1 
1 
1 
1 
1 
1 
1 
1 
1 
1 
1 
1 
1 
1 
1 
1 
1 
1 
1 
1 
1 
1 
1 
1 
1 
1 
1 
1 
1 
1 
1 
1 
1 
1 
1 
1 
1 
1 
1 
1 
1 
1 
1 
1 
1 
1 
1 
1 
1 
1 
1 
1 
1 
1 
1 
1 
1 
1 
1 
1 
1 
1 
1 
1 
1 
1 
1 
1 
1 
1 
1 
1 
1 
1 
1 
1 
1 
1 
1 
1 
1 
1 
1 
1 
1 
1 
1 
1 
1 
1 
1 
1 
1 
1 
1 
1 
1 
1 
1 
1 
1 
1 
1 
1 
1 
1 
1 
1 
1 
1 
1 
1 
1 
1 
1 
1 
1 
1 
1 
1 
1 
1 
1 
1 
1 
1 
1 
1 
1 
1 
1 
1 
1 
1 
1 
1 
1 
1 
1 
1 
1 
1 
1 
1 
1 
1 
1 
1 
1 
1 
1 
1 
1 
1 
1 
1 
1 
1 
1 
1 
1 
1 
1 
1 
1 
1 
1 
1 
1 
1 
1 
1 
1 
1 
1 
1 
1 
1 
1 
1 
1 
1 
1 
1 
1 
1 
1 
1 
1 
1 
1 
1 
1 
1 
1 
1 
1 
1 
1 
1 
1 
1 
1 
1 
1 
1 
1 
1 
1 
1 
1 
1 
1 
1 
1 
1 
1 
1 
1 
1 
1 
1 
1 
1 
1 
1 
1 
1 
1 
1 
1 
1 
1 
1 
1 
1 
1 
1 
1 
1 
1 
1 
1 
1 
1 
1 
1 
1 
1 
1 
1 
1 
1 
1 
1 
1 
1 
1 
1 
1 
1 
1 
1 
1 
1 
1 
1 
1 
1 
1 
1 
1 
1 
1 
1 
1 
1 
1 
1 
1 
1 
1 
1 
1 
1 
1 
1 
1 
1 
1 
1 
1 
1 
1 
1 
1 
1 
1 
1 
1 
1 
1 
1 
1 
1 
1 
1 
1 
1 
1 
1 
1 
1 
1 
1 
1 
1 
1 
1 
1 
1 
1 
1 
1 
1 
1 
1 
1 
1 
1 
1 
1 
1 
1 
1 
1 
1 
1 
1 
1 
1 
1 
1 
1 
1 
1 
1 
1 
1 
1 
1 
1 
1 
1 
1 
1 
1 
1 
1 
1 
1 
1 
1 
1 
1 
1 
1 
1 
1 
1 
1 
1 
1 
1 
1 
1 
1 
1 
1 
1 
1 
1 
1 
1 
1 
1 
1 
1 
1 
1 
1 
1 
1 
1 
1 
1 
1 
1 
1 
1 
1 
1 
1 
1 
1 
1 
1 
1 
1 
1 
1 
1 
1 
1 
1 
1 
1 
1 
1 
1 
1 
1 
1 
1 
1 
1 
1 
1 
1 
1 
1 
1 
1 
1 
1 
1 
1 
1 
1 
1 
1 
1 
1 
1 
1 
1 
1 
1 
1 
1 
1 
1 
1 
1 
1 
1 
1 
1 
1 
1 
1 
1 
1 
1 
1 
1 
1 
1 
1 
1 
1 
1 
1 
1 
1 
1 
1 
1 
1 
1 
1 
1 
1 
1 
1 
1 
1 
1 
1 
1 
1 
1 
1 
1 
1 
1 
1 
1 
1 
1 
1 
1 
1 
1 
1 
1 
1 
1 
1 
1 
1 
1 
1 
1 
1 
1 
1 
1 
1 
1 
1 
1 
1 
1 
1 
1 
1 
1 
1 
1 
1 
1 
1 
1 
1 
1 
1 
1 
1 
1 
1 
1 
1 
1 
1 
1 
1 
1 
1 
1 
1 
1 
1 
1 
1 
1 
1 
1 
1 
1 
1 
1 
1 
1 
1 
1 
1 
1 
1 
1 
1 
1 
1 
1 
1 
1 
1 
1 
1 
1 
1 
1 
1 
1 
1 
1 
1 
1 
1 
1 
1 
1 
1 
1 
1 
1 
1 
1 
1 
1 
1 
1 
1 
1 
1 
1 
1 
1 
1 
1 
1 
1 
1 
1 
1 
1 
1 
1 
1 
1 
1 
1 
1 
1 
1 
1 
1 
1 
1 
1 
1 
1 
1 
1 
1 
1 
1 
1 
1 
1 
1 
1 
1 
1 
1 
1 
1 
1 
1 
1 
1 
1 
1 
1 
1 
1 
1 
1 
1 
1 
1 
1 
1 
1 
1 
1 
1 
1 
1 
1 
1 
1 
1 
1 
1 
1 
1 
1 
1 
1 
1 
1 
1 
1 
1 
1 
1 
1 
1 
1 
1 
1 
1 
1 
1 
1 
1 
1 
1 
1 
1 
1 
1 
1 
1 
1 
1 
1 
1 
1 
1 
1 
1 
1 
1 
1 
1 
1 
1 
1 
1 
1 
1 
1 
1 
1 
1 
1 
1 
1 
1 
1 
1 
1 
1 
1 
1 
1 
1 
1 
1 
1 
1 
1 
1 
1 
1 
1 
1 
1 
1 
1 
1 
1 
1 
1 
1 
1 
1 
1 
1 
1 
1 
1 
1 
1 
1 
1 
1 
1 
1 
1 
1 
1 
1 
1 
1 
1 
1 
1 
1 
1 
1 
1 
1 
1 
1 
1 
1 
1 
1 
1 
1 
1 
1 
1 
1 
1 
1 
1 
1 
1 
1 
1 
1 
1 
1 
1 
1 
1 
1 
1 
1 
1 
1 
1 
1 
1 
1 
1 
1 
1 
1 
1 
1 
1 
1 
1 
1 
1 
1 
1 
1 
1 
1 
1 
1 
1 
1 
1 
1 
1 
1 
1 
1 
1 
1 
1 
1 
1 
1 
1 
1 
1 
1 
1 
1 
1 
1 
1 
1 
1 
1 
1 
1 
1 
1 
1 
1 
1 
1 
1 
1 
1 
1 
1 
1 
1 
1 
1 
1 
1 
1 
1 
1 
1 
1 
1 
1 
1 
1 
1 
1 
1 
1 
1 
1 
1 
1 
1 
1 
1 
1 
1 
1 
1 
1 
1 
1 
1 
1 
1 
1 
1 
1 
1 
1 
1 
1 
1 
1 
1 
1 
1 
1 
1 
1 
1 
1 
1 
1 
1 
1 
1 
1 
1 
1 
1 
1 
1 
1 
1 
1 
1 
1 
1 
1 
1 
1 
1 
1 
1 
1 
1 
1 
1 
1 
1 
1 
1 
1 
1 
1 
1 
1 
1 
1 
1 
1 
1 
1 
1 
1 
1 
1 
1 
1 
1 
1 
1 
1 
1 
1 
1 
1 
1 
1 
1 
1 
1 
1 
1 
1 
1 
1 
1 
1 
1 
1 
1 
1 
1 
1 
1 
1 
1 
1 
1 
1 
1 
1 
1 
1 
1 
1 
1 
1 
1 
1 
1 
1 
1 
1 
1 
1 
1 
1 
1 
1 
1 
1 
1 
1 
1 
1 
1 
1 
1 
1 
1 
1 
1 
1 
1 
1 
1 
1 
1 
1 
1 
1 
1 
1 
1 
1 
1 
1 
1 
1 
1 
1 
1 
1 
1 
1 
1 
1 
1 
1 
1 
1 
1 
1 
1 
1 
1 
1 
1 
1 
1 
1 
1 
1 
1 
1 
1 
1 
1 
1 
1 
1 
1 
1 
1 
1 
1 
1 
1 
1 
1 
1 
1 
1 
1 
1 
1 
1 
1 
1 
1 
1 
1 
1 
1 
1 
1 
1 
1 
1 
1 
1 
1 
1 
1 
1 
1 
1 
1 
1 
1 
1 
1 
1 
1 
1 
1 
1 
1 
1 
1 
1 
1 
1 
1 
1 
1 
1 
1 
1 
1 
1 
1 
1 
1 
1 
1 
1 
1 
1 
1 
1 
1 
1 
1 
1 
1 
1 
1 
1 
1 
1 
1 
1 
1 
1 
1 
1 
1 
1 
1 
1 
1 
1 
1 
1 
1 
1 
1 
1 
1 
1 
1 
1 
1 
1 
1 
1 
1 
1 
1 
1 
1 
1 
1 
1 
1 
1 
1 
1 
1 
1 
1 
1 
1 
1 
1 
1 
1 
1 
1 
1 
1 
1 
1 
1 
1 
1 
1 
1 
1 
1 
1 
1 
1 
1 
1 
1 
1 
1 
1 
1 
1 
1 
1 
1 
1 
1 
1 
1 
1 
1 
1 
1 
1 
1 
1 
1 
1 
1 
1 
1 
1 
1 
1 
1 
1 
1 
1 
1 
1 
1 
1 
1 
1 
1 
1 
1 
1 
1 
1 
1 
1 
1 
1 
1 
1 
1 
1 
1 
1 
1 
1 
1 
1 
1 
1 
1 
1 
1 
1 
1 
1 
1 
1 
1 
1 
1 
1 
1 
1 
1 
1 
1 
1 
1 
1 
1 
1 
1 
1 
1 
1 
1 
1 
1 
1 
1 
1 
1 
1 
1 
1 
1 
1 
1 
1 
1 
1 
1 
1 
1 
1 
1 
1 
1 
1 
1 
1 
1 
1 
1 
1 
1 
1 
1 
1 
1 
1 
1 
1 
1 
1 
1 
1 
1 
1 
1 
1 
1 
1 
1 
1 
1 
1 
1 
1 
1 
1 
1 
1 
1 
1 
1 
1 
1 
1 
1 
1 
1 
1 
1 
1 
1 
1 
1 
1 
1 
1 
1 
1 
1 
1 
1 
1 
1 
1 
1 
1 
1 
1 
1 
1 
1 
1 
1 
1 
1 
1 
1 
1 
1 
1 
1 
1 
1 
1 
1 
1 
1 
1 
1 
1 
1 
1 
1 
1 
1 
1 
1 
1 
1 
1 
1 
1 
1 
1 
1 
1 
1 
1 
1 
1 
1 
1 
1 
1 
1 
1 
1 
1 
1 
1 
1 
1 
1 
1 
1 
1 
1 
1 
1 
1 
1 
1 
1 
1 
1 
1 
1 
1 
1 
1 
1 
1 
1 
1 
1 
1 
1 
1 
1 
1 
1 
1 
1 
1 
1 
1 
1 
1 
1 
1 
1 
1 
1 
1 
1 
1 
1 
1 
1 
1 
1 
1 
1 
1 
1 
1 
1 
1 
1 
1 
1 
1 
1 
1 
1 
1 
1 
1 
1 
1 
1 
1 
1 
1 
1 
1 
1 
1 
1 
1 
1 
1 
1 
1 
1 
1 
1 
1 
1 
1 
1 
1 
1 
1 
1 
1 
1 
1 
1 
1 
1 
1 
1 
1 
1 
1 
1 
1 
1 
1 
1 
1 
1 
1 
1 
1 
1 
1 
1 
1 
1 
1 
1 
1 
1 
1 
1 
1 
1 
1 
1 
1 
1 
1 
1 
1 
1 
1 
1 
1 
1 
1 
1 
1 
1 
1 
1 
1 
1 
1 
1 
1 
1 
1 
1 
1 
1 
1 
1 
1 
1 
1 
1 
1 
1 
1 
1 
1 
1 
1 
1 
1 
1 
1 
1 
1 
1 
1 
1 
1 
1 
1 
1 
1 
1 
1 
1 
1 
1 
1 
1 
1 
1 
1 
1 
1 
1 
1 
1 
1 
1 
1 
1 
1 
1 
1 
1 
1 
1 
1 
1 
1 
1 
1 
1 
1 
1 
1 
1 
1 
1 
1 
1 
1 
1 
1 
1 
1 
1 
1 
1 
1 
1 
1 
1 
1 
1 
1 
1 
1 
1 
1 
1 
1 
1 
1 
1 
1 
1 
1 
1 
1 
1 
1 
1 
1 
1 
1 
1 
1 
1 
1 
1 
1 
1 
1 
1 
1 
1 
1 
1 
1 
1 
1 
1 
1 
1 
1 
1 
1 
1 
1 
1 
1 
1 
1 
1 
1 
1 
1 
1 
1 
1 
1 
1 
1 
1 
1 
1 
1 
1 
1 
1 
1 
1 
1 
1 
1 
1 
1 
1 
1 
1 
1 
1 
1 
1 
1 
1 
1 
1 
1 
1 
1 
1 
1 
1 
1 
1 
1 
1 
1 
1 
1 
1 
1 
1 
1 
1 
1 
1 
1 
1 
1 
1 
1 
1 
1 
1 
1 
1 
1 
1 
1 
1 
1 
1 
1 
1 
1 
1 
1 
1 
1 
1 
1 
1 
1 
1 
1 
1 
1 
1 
1 
1 
1 
1 
1 
1 
1 
1 
1 
1 
1 
1 
1 
1 
1 
1 
1 
1 
1 
1 
1 
1 
1 
1 
1 
1 
1 
1 
1 
1 
1 
1 
1 
1 
1 
1 
1 
1 
1 
1 
1 
1 
1 
1 
1 
1 
1 
1 
1 
1 
1 
1 
1 
1 
1 
1 
1 
1 
1 
1 
1 
1 
1 
1 
1 
1 
1 
1 
1 
1 
1 
1 
1 
1 
1 
1 
1 
1 
1 
1 
1 
1 
1 
1 
1 
1 
1 
1 
1 
1 
1 
1 
1 
1 
1 
1 
1 
1 
1 
1 
1 
1 
1 
1 
1 
1 
1 
1 
1 
1 
1 
1 
1 
1 
1 
1 
1 
1 
1 
1 
1 
1 
1 
1 
1 
1 
1 
1 
1 
1 
1 
1 
1 
1 
1 
1 
1 
1 
1 
1 
1 
1 
1 
1 
1 
1 
1 
1 
1 
1 
1 
1 
1 
1 
1 
1 
1 
1 
1 
1 
1 
1 
1 
1 
1 
1 
1 
1 
1 
1 
1 
1 
1 
1 
1 
1 
1 
1 
1 
1 
1 
1 
1 
1 
1 
1 
1 
1 
1 
1 
1 
1 
1 
1 
1 
1 
1 
1 
1 
1 
1 
1 
1 
1 
1 
1 
1 
1 
1 
1 
1 
1 
1 
1 
1 
1 
1 
1 
1 
1 
1 
1 
1 
1 
1 
1 
1 
1 
1 
1 
1 
1 
1 
1 
1 
1 
1 
1 
1 
1 
1 
1 
1 
1 
1 
1 
1 
1 
1 
1 
1 
1 
1 
1 
1 
1 
1 
1 
1 
1 
1 
1 
1 
1 
1 
1 
1 
1 
1 
1 
1 
1 
1 
1 
1 
1 
1 
1 
1 
1 
1 
1 
1 
1 
1 
1 
1 
1 
1 
1 
1 
1 
1 
1 
1 
1 
1 
1 
1 
1 
1 
1 
1 
1 
1 
1 
1 
1 
1 
1 
1 
1 
1 
1 
1 
1 
1 
1 
1 
1 
1 
1 
1 
1 
1 
1 
1 
1 
1 
1 
1 
1 
1 
1 
1 
1 
1 
1 
1 
1 
1 
1 
1 
1 
1 
1 
1 
1 
1 
1 
1 
1 
1 
1 
1 
1 
1 
1 
1 
1 
1 
1 
1 
1 
1 
1 
1 
1 
1 
1 
1 
1 
1 
1 
1 
1 
1 
1 
1 
1 
1 
1 
1 
1 
1 
1 
1 
1 
1 
1 
1 
1 
1 
1 
1 
1 
1 
1 
1 
1 
1 
1 
1 
1 
1 
1 
1 
1 
1 
1 
1 
1 
1 
1 
1 
1 
1 
1 
1 
1 
1 
1 
1 
1 
1 
1 
1 
1 
1 
1 
1 
1 
1 
1 
1 
1 
1 
1 
1 
1 
1 
1 
1 
1 
1 
1 
1 
1 
1 
1 
1 
1 
1 
1 
1 
1 
1 
1 
1 
1 
1 
1 
1 
1 
1 
1 
1 
1 
1 
1 
1 
1 
1 
1 
1 
1 
1 
1 
1 
1 
1 
1 
1 
1 
1 
1 
1 
1 
1 
1 
1 
1 
1 
1 
1 
1 
1 
1 
1 
1 
1 
1 
1 
1 
1 
1 
1 
1 
1 
1 
1 
1 
1 
1 
1 
1 
1 
1 
1 
1 
1 
1 
1 
1 
1 
1 
1 
1 
1 
1 
1 
1 
1 
1 
1 
1 
1 
1 
1 
1 
1 
1 
1 
1 
1 
1 
1 
1 
1 
1 
1 
1 
1 
1 
1 
1 
1 
1 
1 
1 
1 
1 
1 
1 
1 
1 
1 
1 
1 
1 
1 
1 
1 
1 
1 
1 
1 
1 
1 
1 
1 
1 
1 
1 
1 
1 
1 
1 
1 
1 
1 
1 
1 
1 
1 
1 
1 
1 
1 
1 
1 
1 
1 
1 
1 
1 
1 
1 
1 
1 
1 
1 
1 
1 
1 
1 
1 
1 
1 
1 
1 
1 
1 
1 
1 
1 
1 
1 
1 
1 
1 
1 
1 
1 
1 
1 
1 
1 
1 
1 
1 
1 
1 
1 
1 
1 
1 
1 
1 
1 
1 
1 
1 
1 
1 
1 
1 
1 
1 
1 
1 
1 
1 
1 
1 
1 
1 
1 
1 
1 
1 
1 
1 
1 
1 
1 
1 
1 
1 
1 
1 
1 
1 
1 
1 
1 
1 
1 
1 
1 
1 
1 
1 
1 
1 
1 
1 
1 
1 
1 
1 
1 
1 
1 
1 
1 
1 
1 
1 
1 
1 
1 
1 
1 
1 
1 
1 
1 
1 
1 
1 
1 
1 
1 
1 
1 
1 
1 
1 
1 
1 
1 
1 
1 
1 
1 
1 
1 
1 
1 
1 
1 
1 
1 
1 
1 
1 
1 
1 
1 
1 
1 
1 
1 
1 
1 
1 
1 
1 
1 
1 
1 
1 
1 
1 
1 
1 
1 
1 
1 
1 
1 
1 
1 
1 
1 
1 
1 
1 
1 
1 
1 
1 
1 
1 
1 
1 
1 
1 
1 
1 
1 
1 
1 
1 
1 
1 
1 
1 
1 
1 
1 
1 
1 
1 
1 
1 
1 
1 
1 
1 
1 
1 
1 
1 
1 
1 
1 
1 
1 
1 
1 
1 
1 
1 
1 
1 
1 
1 
1 
1 
1 
1 
1 
1 
1 
1 
1 
1 
1 
1 
1 
1 
1 
1 
1 
1 
1 
1 
1 
1 
1 
1 
1 
1 
1 
1 
1 
1 
1 
1 
1 
1 
1 
1 
1 
1 
1 
1 
1 
1 
1 
1 
1 
1 
1 
1 
1 
1 
1 
1 
1 
1 
1 
1 
1 
1 
1 
1 
1 
1 
1 
1 
1 
1 
1 
1 
1 
1 
1 
1 
1 
1 
1 
1 
1 
1 
1 
1 
1 
1 
1 
1 
1 
1 
1 
1 
1 
1 
1 
1 
1 
1 
1 
1 
1 
1 
1 
1 
1 
1 
1 
1 
1 
1 
1 
1 
1 
1 
1 
1 
1 
1 
1 
1 
1 
1 
1 
1 
1 
1 
1 
1 
1 
1 
1 
1 
1 
1 
1 
1 
1 
1 
1 
1 
1 
1 
1 
1 
1 
1 
1 
1 
1 
1 
1 
1 
1 
1 
1 
1 
1 
1 
1 
1 
1 
1 
1 
1 
1 
1 
1 
1 
1 
1 
1 
1 
1 
1 
1 
1 
1 
1 
1 
1 
1 
1 
1 
1 
1 
1 
1 
1 
1 
1 
1 
1 
1 
1 
1 
1 
1 
1 
1 
1 
1 
1 
1 
1 
1 
1 
1 
1 
1 
1 
1 
1 
1 
1 
1 
1 
1 
1 
1 
1 
1 
1 
1 
1 
1 
1 
1 
1 
1 
1 
1 
1 
1 
1 
1 
1 
1 
1 
1 
1 
1 
1 
1 
1 
1 
1 
1 
1 
1 
1 
1 
1 
1 
1 
1 
1 
1 
1 
1 
1 
1 
1 
1 
1 
1 
1 
1 
1 
1 
1 
1 
1 
1 
1 
1 
1 
1 
1 
1 
1 
1 
1 
1 
1 
1 
1 
1 
1 
1 
1 
1 
1 
1 
1 
1 
1 
1 
1 
1 
1 
1 
1 
1 
1 
1 
1 
1 
1 
1 
1 
1 
1 
1 
1 
1 
1 
1 
1 
1 
1 
1 
1 
1 
1 
1 
1 
1 
1 
1 
1 
1 
1 
1 
1 
1 
1 
1 
1 
1 
1 
1 
1 
1 
1 
1 
1 
1 
1 
1 
1 
1 
1 
1 
1 
1 
1 
1 
1 
1 
1 
1 
1 
1 
1 
1 
1 
1 
1 
1 
1 
1 
1 
1 
1 
1 
1 
1 
1 
1 
1 
1 
1 
1 
1 
1 
1 
1 
1 
1 
1 
1 
1 
1 
1 
1 
1 
1 
1 
1 
1 
1 
1 
1 
1 
1 
1 
1 
1 
1 
1 
1 
1 
1 
1 
1 
1 
1 
1 
1 
1 
1 
1 
1 
1 
1 
1 
1 
1 
1 
1 
1 
1 
1 
1 
1 
1 
1 
1 
1 
1 
1 
1 
1 
1 
1 
1 
1 
1 
1 
1 
1 
1 
1 
1 
1 
1 
1 
1 
1 
1 
1 
1 
1 
1 
1 
1 
1 
1 
1 
1 
1 
1 
1 
1 
1 
1 
1 
1 
1 
1 
1 
1 
1 
1 
1 
1 
1 
1 
1 
1 
1 
1 
1 
1 
1 
1 
1 
1 
1 
1 
1 
1 
1 
1 
1 
1 
1 
1 
1 
1 
1 
1 
1 
1 
1 
1 
1 
1 
1 
1 
1 
1 
1 
1 
1 
1 
1 
1 
1 
1 
1 
1 
1 
1 
1 
1 
1 
1 
1 
1 
1 
1 
1 
1 
1 
1 
1 
1 
1 
1 
1 
1 
1 
1 
1 
1 
1 
1 
1 
1 
1 
1 
1 
1 
1 
1 
1 
1 
1 
1 
1 
1 
1 
1 
1 
1 
1 
1 
1 
1 
1 
1 
1 
1 
1 
1 
1 
1 
1 
1 
1 
1 
1 
1 
1 
1 
1 
1 
1 
1 
1 
1 
1 
1 
1 
1 
1 
1 
1 
1 
1 
1 
1 
1 
1 
1 
1 
1 
1 
1 
1 
1 
1 
1 
1 
1 
1 
1 
1 
1 
1 
1 
1 
1 
1 
1 
1 
1 
1 
1 
1 
1 
1 
1 
1 
1 
1 
1 
1 
1 
1 
1 
1 
1 
1 
1 
1 
1 
1 
1 
1 
1 
1 
1 
1 
1 
1 
1 
1 
1 
1 
1 
1 
1 
1 
1 
1 
1 
1 
1 
1 
1 
1 
1 
1 
1 
1 
1 
1 
1 
1 
1 
1 
1 
1 
1 
1 
1 
1 
1 
1 
1 
1 
1 
1 
1 
1 
1 
1 
1 
1 
1 
1 
1 
1 
1 
1 
1 
1 
1 
1 
1 
1 
1 
1 
1 
1 
1 
1 
1 
1 
1 
1 
1 
1 
1 
1 
1 
1 
1 
1 
1 
1 
1 
1 
1 
1 
1 
1 
1 
1 
1 
1 
1 
1 
1 
1 
1 
1 
1 
1 
1 
1 
1 
1 
1 
1 
1 
1 
1 
1 
1 
1 
1 
1 
1 
1 
1 
1 
1 
1 
1 
1 
1 
1 
1 
1 
1 
1 
1 
1 
1 
1 
1 
1 
1 
1 
1 
1 
1 
1 
1 
1 
1 
1 
1 
1 
1 
1 
1 
1 
1 
1 
1 
1 
1 
1 
1 
1 
1 
1 
1 
1 
1 
1 
1 
1 
1 
1 
1 
1 
1 
1 
1 
1 
1 
1 
1 
1 
1 
1 
1 
1 
1 
1 
1 
1 
1 
1 
1 
1 
1 
1 
1 
1 
1 
1 
1 
1 
1 
1 
1 
1 
1 
1 
1 
1 
1 
1 
1 
1 
1 
1 
1 
1 
1 
1 
1 
1 
1 
1 
1 
1 
1 
1 
1 
1 
1 
1 
1 
1 
1 
1 
1 
1 
1 
1 
1 
1 
1 
1 
1 
1 
1 
1 
1 
1 
1 
1 
1 
1 
1 
1 
1 
1 
1 
1 
1 
1 
1 
1 
1 
1 
1 
1 
1 
1 
1 
1 
1 
1 
1 
1 
1 
1 
1 
1 
1 
1 
1 
1 
1 
1 
1 
1 
1 
1 
1 
1 
1 
1 
1 
1 
1 
1 
1 
1 
1 
1 
1 
1 
1 
1 
1 
1 
1 
1 
1 
1 
1 
1 
1 
1 
1 
1 
1 
1 
1 
1 
1 
1 
1 
1 
1 
1 
1 
1 
1 
1 
1 
1 
1 
1 
1 
1 
1 
1 
1 
1 
1 
1 
1 
1 
1 
1 
1 
1 
1 
1 
1 
1 
1 
1 
1 
1 
1 
1 
1 
1 
1 
1 
1 
1 
1 
1 
1 
1 
1 
1 
1 
1 
1 
1 
1 
1 
1 
1 
1 
1 
1 
1 
1 
1 
1 
1 
1 
1 
1 
1 
1 
1 
1 
1 
1 
1 
1 
1 
1 
1 
1 
1 
1 
1 
1 
1 
1 
1 
1 
1 
1 
1 
1 
1 
1 
1 
1 
1 
1 
1 
1 
1 
1 
1 
1 
1 
1 
1 
1 
1 
1 
1 
1 
1 
1 
1 
1 
1 
1 
1 
1 
1 
1 
1 
1 
1 
1 
1 
1 
1 
1 
1 
1 
1 
1 
1 
1 
1 
1 
1 
1 
1 
1 
1 
1 
1 
1 
1 
1 
1 
1 
1 
1 
1 
1 
POINT_DATA 5000
VECTORS Stress float
-1604.25 -2451.14 0.
-3256.95 -4169.67 0.
-98.0097 -230.398 0.
-147.254 -274.054 0.
-3268.82 -6366.07 0.
-0.0591612 -0.140707 0.
-3066.27 -3168.29 0.
-11.3317 -19.3301 0.
-211.894 -138.786 0.
-4051.73 -6379.55 0.
-1470.88 -2527.51 0.
-94.731 -149.925 0.
-1904.99 -2890.64 0.
-1507.96 -2372.39 0.
-1349.16 -2149.55 0.
-1075.66 -1838.12 0.
-802.722 -1526.13 0.
-788.661 -1602.28 0.
-623.279 -1345.56 0.
-460.541 -1086.2 0.
-522.961 -1052.64 0.
-476.647 -972.925 0.
-430.341 -893.2 0.
-456.806 -917.454 0.
-454.69 -966.582 0.
-455.553 -1012.73 0.
-518.465 -1086.5 0.
-531.377 -1099.88 0.
-486.131 -1034.82 0.
-452.639 -981.937 0.
-419.808 -928.393 0.
-409.059 -906.57 0.
-394.267 -881.851 0.
-379.625 -856.982 0.
-385.253 -866.999 0.
-394.9 -914.868 0.
-410.67 -956.612 0.
-455.522 -996.082 0.
-456.146 -997.53 0.
-415.823 -961.357 0.
-400.382 -939.401 0.
-390.718 -911.667 0.
-388.309 -904.725 0.
-383.022 -897.458 0.
-378.65 -889.277 0.
-372.253 -857.2 0.
-347.541 -799.536 0.
-322.829 -741.873 0.
-284.403 -743.519 0.
-314.264 -852.901 0.
-352.963 -953.438 0.
-371.661 -913.326 0.
-340.134 -839.771 0.
-342.249 -800.788 0.
-358.393 -838.459 0.
-374.537 -876.13 0.
-391.275 -900.246 0.
-392.093 -898.883 0.
-394.491 -895.939 0.
-388.405 -908.807 0.
-410.634 -968.431 0.
-438.43 -1022.49 0.
-482.222 -1052.4 0.
-472.772 -1030.36 0.
-418.522 -968.145 0.
-399.044 -908.59 0.
-384.264 -844.338 0.
-378.244 -828.933 0.
-395.585 -867.183 0.
-415.473 -902.886 0.
-423.994 -926.436 0.
-457.105 -979.641 0.
-490.95 -1032.11 0.
-550.768 -1119.26 0.
-547.02 -1127.74 0.
-534.708 -1131.87 0.
-488.009 -1023.9 0.
-493.959 -980.276 0.
-441.519 -950.237 0.
-493.199 -1042.63 0.
-544.932 -1134.97 0.
-495.982 -1173.89 0.
-826.862 -1774.55 0.
-1164.71 -2368.25 0.
-1182.06 -1969.91 0.
-1342.21 -1809.74 0.
-1479.28 -1672.63 0.
-1622.9 -2536.41 0.
-2449.12 -4034.96 0.
-83.5891 -143.177 0.
-875.311 -1552.56 0.
-4685.5 -7236.1 0.
-254.554 -579.842 0.
-329.072 -431.338 0.
-2959.5 -3448.54 0.
-277.769 -509.108 0.
-3840.67 -5527.78 0.
-257.988 -699.158 0.
-4108.97 -6746.82 0.
-1810.54 -3024.03 0.
-1412.64 -2281.56 0.
-6.28187 -14.828 0.
-82.4935 -222.499 0.
-56.1071 -154.089 0.
-10.756 -29.4702 0.
-0.00643602 -0.256876 0.
-6.85845 -6.1674 0.
-18.912 -22.1889 0.
-442.518 -278.056 0.
-133.727 -188.791 0.
-80.1812 -68.9432 0.
-127.556 -189.39 0.
-731.751 -1142.88 0.
-392.459 -565.497 0.
-561.679 -993.518 0.
-348.202 -621.47 0.
-172.222 -211.925 0.
-497.639 -1140.82 0.
-358.643 -857.549 0.
-243.453 -550.471 0.
-426.685 -970.29 0.
-380.262 -890.671 0.
-336.085 -808.805 0.
-440.091 -837.817 0.
-436.847 -888.075 0.
-434.49 -937.441 0.
-592.812 -1135.69 0.
-600.7 -1154.09 0.
-461.597 -959.139 0.
-425.507 -908.85 0.
-391.348 -856.629 0.
-397.797 -883.363 0.
-382.604 -859.044 0.
-375.611 -826.525 0.
-375.732 -820.097 0.
-383.407 -869.938 0.
-394.771 -916.091 0.
-531.881 -1028.79 0.
-532.51 -1030.23 0.
-411.982 -907.719 0.
-395.332 -886.97 0.
-381.593 -863.31 0.
-388.507 -899.521 0.
-381.997 -893.478 0.
-375.758 -887.166 0.
-390.987 -856.912 0.
-362.931 -802.594 0.
-335.762 -747.387 0.
-226.048 -561.547 0.
-255.397 -671.458 0.
-291.152 -774.943 0.
-346.622 -871.38 0.
-325.285 -787.63 0.
-348.133 -791.555 0.
-367.778 -825.723 0.
-388.238 -859.078 0.
-400.742 -903.399 0.
-403.619 -899.978 0.
-406.796 -896.256 0.
-371.991 -852.999 0.
-396.475 -910.372 0.
-427.29 -961.412 0.
-559.659 -1085.55 0.
-550.208 -1063.51 0.
-405.036 -925.041 0.
-387.116 -863.927 0.
-373.92 -798.088 0.
-386.02 -800.545 0.
-397.092 -845.065 0.
-413.895 -883.853 0.
-396.667 -847.22 0.
-432.818 -897.389 0.
-469.881 -946.645 0.
-626.461 -1181.62 0.
-627.508 -1185.31 0.
-370.42 -972.987 0.
-457.154 -934.629 0.
-464.063 -890.043 0.
-318.668 -785.818 0.
-370.838 -877.743 0.
-426.316 -966.361 0.
-175.873 -203.163 0.
-405.316 -905.891 0.
-682.084 -1561.29 0.
-292.385 -187.8 0.
-292.16 -183.302 0.
-271.235 -204.209 0.
-14.633 -31.9691 0.
-520.49 -1173 0.
-128.56 -160.021 0.
-104.268 -104.34 0.
-229.34 -248.993 0.
-496.821 -375.747 0.
-119.797 -108.836 0.
-92.7132 -145.753 0.
-172.385 -344.533 0.
-400.58 -951.58 0.
-89.8427 -240.668 0.
-354.994 -756.908 0.
-140.155 -259.665 0.
-1.0227 -6.83612 0.
3.51755 7.63611 0.
-85.7304 -236.952 0.
0.192897 0.507326 0.
-9.20254 -25.4894 0.
0.017369 0.860589 0.
-12.0364 -9.01725 0.
-27.5682 -26.1938 0.
-681.894 -432.518 0.
-89.6547 -84.8979 0.
-26.5928 -47.2079 0.
-262.058 -297.797 0.
-165.617 -102.639 0.
-29.7564 -23.5926 0.
-51.6804 -21.4859 0.
-53.4423 -20.0393 0.
-59.6182 -21.5245 0.
-287.918 -598.063 0.
-180.582 -282.964 0.
-35.113 -35.8118 0.
-389.073 -829.274 0.
-349.295 -742.999 0.
-313.117 -653.123 0.
-429.338 -752.219 0.
-426.112 -802.46 0.
-423.334 -852.245 0.
-679.285 -1172.75 0.
-687.172 -1191.16 0.
-455.916 -864.604 0.
-420.922 -813.215 0.
-386.844 -760.911 0.
-390.919 -855.772 0.
-381.904 -825.275 0.
-374.732 -792.934 0.
-373.754 -765.652 0.
-380.584 -816.339 0.
-388.293 -866.147 0.
-608.241 -1061.49 0.
-608.874 -1062.93 0.
-415.331 -846.892 0.
-399.104 -825.719 0.
-383.967 -803.455 0.
-402.405 -880.616 0.
-395.905 -874.566 0.
-389.672 -868.249 0.
-424.207 -842.138 0.
-395.847 -788.124 0.
-367.931 -733.665 0.
-166.231 -381.035 0.
-196.21 -490.334 0.
-1844.73 -1533.61 0.
-339.925 -811.091 0.
-318.893 -727.032 0.
-378.222 -758.117 0.
-397.688 -792.463 0.
-418.009 -825.955 0.
-429.846 -886.916 0.
-431.76 -884.457 0.
-434.688 -880.987 0.
-369.114 -783.654 0.
-396.005 -838.622 0.
-425.461 -891.026 0.
-637.095 -1118.7 0.
-627.643 -1096.67 0.
-405.516 -867.973 0.
-392.366 -802.085 0.
-380.266 -735.149 0.
-397.122 -768.83 0.
-408.967 -812.578 0.
-420.338 -856.8 0.
-391.502 -745.842 0.
-426.404 -797.264 0.
-462.218 -847.773 0.
-723.215 -1222.91 0.
-724.143 -1226.72 0.
-380.156 -822.624 0.
-430.464 -841.191 0.
-436.385 -797.592 0.
-277.882 -539.334 0.
-299.737 -661.595 0.
-335.377 -770.072 0.
-42.0264 -15.2018 0.
-64.523 -27.8943 0.
-353.832 -599.96 0.
-429.76 -260.216 0.
-178.931 -101.084 0.
-140.107 -88.1642 0.
-55.2337 -77.9507 0.
-39.4194 -73.6357 0.
-174.735 -177.447 0.
-150.508 -121.887 0.
-198.335 -111.36 0.
-837.786 -425.796 0.
-312.918 -240.774 0.
-214.656 -254.415 0.
-162.653 -312.745 0.
-436.601 -998.466 0.
-40.1407 -109.029 0.
1.86202 4.22117 0.
-3211.79 -5229.73 0.
-1827.51 -3239.7 0.
-2.07732 -12.0096 0.
-2.9892 -17.5009 0.
-2731.07 -3965.51 0.
-0.016471 -2.71169 0.
-2682.18 -3899.9 0.
-255 -489.384 0.
-2006.06 -2729.99 0.
-275.555 -295.531 0.
-3239.55 -5842.7 0.
1.39604 0.258214 0.
0.182438 0.0252371 0.
-4133.88 -8375.49 0.
-0.266218 -0.312482 0.
-2204.28 -3534.24 0.
-1395.24 -2367.48 0.
-656.073 -1130.83 0.
-2120.28 -4178.51 0.
-1107.17 -2312.09 0.
-217.81 -321.903 0.
-1196.3 -2764.26 0.
-797.387 -1936.47 0.
-444.064 -1063.08 0.
-732.611 -1710.12 0.
-604.133 -1436.79 0.
-481.82 -1157.29 0.
-869.63 -1701 0.
-858.802 -1675.75 0.
-616.21 -1324.34 0.
-577.334 -1240.03 0.
-538.525 -1155.65 0.
-572.095 -1194.95 0.
-561.638 -1213.51 0.
-552.356 -1230.9 0.
-574.145 -1176.61 0.
-558.545 -1182.02 0.
-543.797 -1186.58 0.
-795.346 -1449.76 0.
-804.955 -1472.21 0.
-582.364 -1261.4 0.
-563.42 -1226.14 0.
-544.669 -1190.69 0.
-587.96 -1231 0.
-574.221 -1219.41 0.
-561.61 -1206.69 0.
-590.425 -1201.16 0.
-588.589 -1215.34 0.
-587.931 -1228.34 0.
-287.184 -728.105 0.
-280.127 -739.182 0.
-2438.47 -2030.51 0.
-414.239 -1029.42 0.
-422.168 -1022.2 0.
-601.857 -1224.5 0.
-594.611 -1196.28 0.
-588.995 -1166.42 0.
-559.212 -1179.48 0.
-582.221 -1216.6 0.
-606.232 -1252.73 0.
-537.288 -1194.2 0.
-547.495 -1211.21 0.
-557.869 -1228.06 0.
-818.467 -1474.84 0.
-816.871 -1471.11 0.
-566.736 -1213.15 0.
-588.664 -1215.82 0.
-611.788 -1217.29 0.
-601.4 -1289.05 0.
-608.481 -1268.43 0.
-616.334 -1247.04 0.
-558.202 -1190.01 0.
-609.005 -1295.92 0.
-659.907 -1401.74 0.
-874.738 -1764.2 0.
-877.742 -1771.25 0.
-387.809 -934.689 0.
-623.444 -1482.73 0.
-853.908 -1970.27 0.
-378.323 -849.504 0.
-913.031 -2095.93 0.
-1515.7 -3274.39 0.
-238.824 -184.973 0.
-1393.26 -2890.99 0.
-2687.4 -5457.28 0.
-621.425 -678.374 0.
-1470.91 -1879.77 0.
-2363.65 -3037.88 0.
-39.3372 -26.1713 0.
-4558.77 -8725.83 0.
-2.64872 -0.343513 0.
-77.3235 -143.598 0.
-4185.93 -6586.3 0.
-123.135 -299.575 0.
-2646.79 -3273.04 0.
-0.00882293 -1.09121 0.
-4146.93 -8342.71 0.
-0.0113682 -0.272227 0.
-4217.24 -6609.31 0.
-1.636 -3.3781 0.
14.1627 26.5112 0.
-0.403348 -0.785223 0.
10.3219 24.4386 0.
-2346.15 -5069.05 0.
1.03192 5.99375 0.
-0.309673 -2.42204 0.
1.52842 4.19239 0.
-204.587 -194.793 0.
-468.124 -622.043 0.
-310.078 -314.165 0.
-136.363 -211.27 0.
1.66618 0.370877 0.
1.36821 0.199488 0.
0.0845303 0.03119 0.
-6.67825 -3.29553 0.
0.332399 0.856068 0.
0.335757 0.926263 0.
-0.0276057 -1.07368 0.
-258.492 -308.778 0.
-48.7045 -36.5694 0.
-43.7931 -20.4896 0.
-634.08 -1530.18 0.
-298.935 -637.469 0.
-54.9921 -25.2822 0.
-579.644 -1381.29 0.
-471.183 -1087.84 0.
-370.912 -786.204 0.
-825.268 -1682.04 0.
-814.438 -1656.8 0.
-610.011 -1288.04 0.
-568.857 -1206 0.
-527.968 -1123.7 0.
-576.975 -1120.62 0.
-566.713 -1138.98 0.
-557.332 -1156.47 0.
-585.845 -1120.53 0.
-569.445 -1126.74 0.
-553.877 -1132.12 0.
-820.643 -1460.57 0.
-830.249 -1483.03 0.
-595.471 -1235.6 0.
-577.567 -1199.3 0.
-559.87 -1162.8 0.
-627.874 -1181.76 0.
-614.775 -1169.53 0.
-602.79 -1156.19 0.
-604.685 -1145.4 0.
-602.375 -1160.06 0.
-601.314 -1173.47 0.
-228.678 -582.878 0.
-223.519 -592.059 0.
-3039.92 -2281.75 0.
-365.696 -863.378 0.
-372.079 -857.705 0.
-646.792 -1194.16 0.
-639.796 -1165.69 0.
-633.5 -1136.51 0.
-568.258 -1117.95 0.
-591.196 -1155.15 0.
-615.105 -1191.38 0.
-562.76 -1168.17 0.
-572.861 -1185.28 0.
-583.126 -1202.23 0.
-853.643 -1489.89 0.
-852.044 -1486.16 0.
-585.596 -1152.39 0.
-608.683 -1153.91 0.
-632.787 -1154.4 0.
-600.793 -1212.44 0.
-606.522 -1193.17 0.
-615.424 -1170.73 0.
-538.44 -1149.04 0.
-589.61 -1254.59 0.
-641.079 -1359.85 0.
-809.088 -1689.44 0.
-827.124 -1681.47 0.
-262.619 -387.322 0.
-421.718 -918.521 0.
-621.056 -1437.48 0.
-39.9335 -39.5418 0.
-70.2161 -40.0587 0.
-635.989 -1258.1 0.
-108.639 -67.7863 0.
-116.655 -101.716 0.
-344.779 -371.949 0.
-166.461 -140.955 0.
-103.751 -95.5457 0.
-206.159 -115.22 0.
-35.6194 -13.0188 0.
-46.0168 -17.1424 0.
-9.04572 -5.66708 0.
-2.50752 -2.37186 0.
-153.826 -331.981 0.
-200.242 -237.753 0.
-371.406 -288.117 0.
1.69135 4.63879 0.
-859.602 -2313.1 0.
7.82162 16.5136 0.
-3.70917 -16.3696 0.
-2.33081 -35.7397 0.
-3786.54 -6338.1 0.
-1084.92 -1848.19 0.
7.86268 16.1374 0.
12.7876 31.4856 0.
-0.145937 -27.7886 0.
1.99107 3.14724 0.
-0.014926 -3.17786 0.
-0.0312578 -1.80704 0.
-1909.01 -3402.31 0.
-194.246 -158.079 0.
-2867.57 -5183.54 0.
-48.4408 -133.366 0.
-0.077664 -0.102275 0.
-3429.16 -7592.73 0.
-35.5474 -67.1837 0.
-2781.48 -4509.79 0.
-768.988 -1123.52 0.
1.28973 0.0381149 0.
-2870.71 -5908.5 0.
-1054.21 -1967.92 0.
-33.24 -30.4332 0.
-2006.48 -4311.68 0.
-998.803 -2273.4 0.
-103.809 -122.414 0.
-1167.24 -2570.94 0.
-728.225 -1628.37 0.
-316.338 -658.669 0.
-889.807 -1731.1 0.
-748.105 -1491.11 0.
-520.678 -1092.61 0.
-463.54 -988.768 0.
-407.264 -884.058 0.
-473.925 -865.854 0.
-449.044 -827.521 0.
-424.652 -788.699 0.
-432.274 -774.984 0.
-422.625 -762.832 0.
-413.132 -750.524 0.
-670.7 -1089.95 0.
-658.099 -1060.55 0.
-433.799 -722.544 0.
-440.768 -747.349 0.
-447.874 -772.018 0.
-516.092 -815.585 0.
-506.169 -799.949 0.
-496.859 -783.7 0.
-505.281 -816.102 0.
-537.103 -889.711 0.
-569.192 -963.055 0.
-110.578 -299.578 0.
-79.7798 -216.74 0.
-2917.63 -1923.1 0.
-215.209 -445.438 0.
-234.304 -493.381 0.
-563.986 -924.988 0.
-552.911 -898.223 0.
-553.927 -859.368 0.
-475.5 -798.293 0.
-476.516 -795.497 0.
-477.746 -792.488 0.
-439.142 -751.72 0.
-428.247 -720.239 0.
-417.375 -688.735 0.
-683.158 -1064.61 0.
-707.658 -1121.74 0.
-451.688 -773.588 0.
-465.807 -796.282 0.
-480.057 -818.846 0.
-463.799 -839.112 0.
-486.438 -871.056 0.
-509.259 -902.818 0.
-420.927 -883.178 0.
-519.349 -1077.63 0.
-617.851 -1272.01 0.
-840.757 -1673.67 0.
-1051.38 -2022.64 0.
-307.345 -497.944 0.
-820.536 -1746.66 0.
-1371.58 -2925.67 0.
-10.8159 -18.064 0.
-1036.55 -2205.87 0.
-2518.81 -5482.56 0.
-256.367 -134.729 0.
-857.512 -1010.35 0.
-2696.8 -4315.82 0.
-166.299 -67.279 0.
-4230.11 -8534.96 0.
-122.606 -83.2248 0.
-168.486 -139.654 0.
-3572.68 -4983.62 0.
-78.6502 -67.3098 0.
-3445.81 -5955.85 0.
5.5144 0.435436 0.
-2364.88 -4819.78 0.
-0.0119046 -0.552959 0.
-0.000836034 -4.67156 0.
-0.0978455 -7.16422 0.
8.32872 15.8967 0.
-3312.18 -6652.17 0.
-2.9297 -18.7295 0.
31.8467 59.0039 0.
-21.5191 -83.2915 0.
-0.504245 -5.82744 0.
5.91589 13.9478 0.
0.0134311 0.634476 0.
2.56355 3.14672 0.
-1219.49 -2383.95 0.
-2452.86 -4238.36 0.
0.0316055 5.97106 0.
-21.3166 -21.8351 0.
-359.906 -588.005 0.
-138.503 -227.971 0.
-80.2824 -83.6152 0.
-1.30323 -0.352715 0.
-0.31819 -0.0597351 0.
-35.7051 -92.6519 0.
-19.1785 -49.4326 0.
0.458669 0.754213 0.
0.0818752 0.0309304 0.
-0.315434 -0.296673 0.
-17.7036 -34.0042 0.
-417.087 -801.669 0.
-57.6321 -47.4126 0.
-58.499 -52.1568 0.
-654.74 -1534.39 0.
-278.616 -527.809 0.
-13.0773 -4.72667 0.
-643.759 -1297.88 0.
-518.743 -1041.07 0.
-432.026 -938.042 0.
-384.632 -824.432 0.
-340.171 -707.889 0.
-437.347 -798.628 0.
-414.777 -757.984 0.
-390.398 -719.149 0.
-416.529 -728.087 0.
-404.699 -718.117 0.
-395.099 -705.917 0.
-667.357 -1088.5 0.
-654.755 -1059.1 0.
-448.133 -705.647 0.
-455.009 -730.548 0.
-462.039 -755.294 0.
-505.578 -754.282 0.
-496.133 -738.174 0.
-487.33 -721.424 0.
-491.846 -786.878 0.
-523.947 -860.219 0.
-556.236 -933.371 0.
-95.0735 -260.128 0.
-64.7284 -176.835 0.
-2453.71 -1719.18 0.
-202.597 -417.98 0.
-221.626 -465.992 0.
-539.375 -875.749 0.
-527.927 -849.357 0.
-516.89 -822.555 0.
-463.102 -750.952 0.
-464.342 -747.929 0.
-466.752 -743.737 0.
-454.734 -751.354 0.
-444.42 -719.291 0.
-434.232 -687.102 0.
-676.896 -1061.9 0.
-701.392 -1119.04 0.
-419.579 -723.001 0.
-433.623 -745.771 0.
-453.086 -763.122 0.
-405.335 -743.764 0.
-427.9 -775.782 0.
-450.209 -808.057 0.
-305.775 -593.884 0.
-381.169 -811.429 0.
-463.573 -1021.97 0.
-512.16 -1007.38 0.
-693.919 -1385.51 0.
-46.6938 -56.3947 0.
-210.637 -181.098 0.
-684.025 -1439.74 0.
-26.4375 -29.8286 0.
-31.0546 -28.9229 0.
-406.894 -477.631 0.
-63.5012 -45.7581 0.
-72.5852 -33.2553 0.
-102.687 -37.6683 0.
-67.3377 -25.1269 0.
-76.9558 -33.5679 0.
0.835222 0.107105 0.
-19.8522 -41.4613 0.
-110.474 -279.274 0.
-1.90322 -0.497593 0.
-1.46258 -0.0692253 0.
3.50618 2.81996 0.
-1057.5 -2201.64 0.
2.46275 3.24287 0.
-2886.61 -6856.36 0.
0.595592 13.5973 0.
10.7006 24.8043 0.
-3.61268 -40.8123 0.
13.6575 25.041 0.
-1385.01 -2297.76 0.
-2670.07 -4192.09 0.
-5.04365 -35.486 0.
-1145.25 -2609.19 0.
12.5131 31.9527 0.
-0.661685 -17.5689 0.
-198.651 -372.803 0.
-254.649 -589.769 0.
-0.000297492 -1.52832 0.
2.44795 2.81092 0.
-209.746 -335.411 0.
-534.577 -439.906 0.
-224.214 -159.203 0.
0.744733 0.40006 0.
0.623472 0.211342 0.
0.552992 0.324419 0.
-73.3655 -116.08 0.
-23.9408 -12.2391 0.
-0.403353 -0.245083 0.
1.22788 1.32887 0.
-91.1399 -87.9389 0.
-62.8183 -55.3549 0.
-57.6717 -57.0037 0.
-56.2835 -66.4688 0.
-248.76 -391.314 0.
-40.4706 -26.1752 0.
-26.2918 -12.3514 0.
-446.576 -815.789 0.
-338.895 -541.509 0.
-367.285 -759.559 0.
-326.084 -639.737 0.
-286.301 -518.498 0.
-406.402 -725.769 0.
-381.601 -687.357 0.
-357.469 -648.274 0.
-408.832 -673.144 0.
-396.585 -663.591 0.
-384.579 -653.798 0.
-664.013 -1087.04 0.
-651.412 -1057.64 0.
-463.11 -688.106 0.
-469.886 -713.11 0.
-476.82 -737.954 0.
-495.801 -692.242 0.
-486.907 -675.589 0.
-478.33 -658.62 0.
-483.415 -752.65 0.
-515.575 -825.941 0.
-547.823 -899.145 0.
-80.4919 -219.755 0.
-50.5923 -136.015 0.
-2540.5 -1768.88 0.
-191.147 -389.359 0.
-210.592 -436.959 0.
-515.03 -826.245 0.
-503.387 -800.047 0.
-491.931 -773.664 0.
-456.898 -697.416 0.
-458.083 -694.446 0.
-459.723 -691.021 0.
-483.269 -738.045 0.
-473.08 -705.855 0.
-463.046 -673.512 0.
-670.634 -1059.2 0.
-695.125 -1116.34 0.
-396.123 -663.761 0.
-415.391 -681.307 0.
-434.792 -698.721 0.
-359.863 -635.423 0.
-383.385 -666.486 0.
-405.837 -698.618 0.
-210.666 -284.547 0.
-280.833 -507.383 0.
-354.087 -727.133 0.
-248.623 -276.03 0.
-406.072 -678.763 0.
-85.5833 -74.9021 0.
-31.3581 -12.7268 0.
-7.72655 -11.2637 0.
-63.5072 -44.8943 0.
-70.6516 -43.3251 0.
-108.984 -67.9567 0.
-72.5747 -40.5186 0.
-102.623 -38.198 0.
-133.216 -48.4349 0.
-113.721 -51.523 0.
-101.291 -44.6127 0.
0.900585 0.0959406 0.
0.34706 0.0116865 0.
-31.7263 -72.2583 0.
-7.69923 -2.82831 0.
-2.26717 -2.20847e-05 0.
3.12388 3.11243 0.
-890.705 -2209.83 0.
-0.378695 -5.61279 0.
-0.000112628 -34.4726 0.
-3254.93 -7578.83 0.
4.96183 11.461 0.
-4.54626 -40.6996 0.
-4.89368 -39.7706 0.
35.166 55.5604 0.
43.9805 73.7516 0.
-13.3158 -139.695 0.
-2.92851 -58.8668 0.
6.7535 17.7292 0.
17.9468 45.6412 0.
-84.3393 -160.878 0.
-0.592655 -9.39937 0.
0.000702539 5.47717 0.
0.647038 0.980583 0.
-1933.83 -2721.01 0.
-2351.41 -3295.44 0.
2.41386 1.54381 0.
-2512.45 -5082.03 0.
1.38255 0.0180378 0.
0.553387 0.0844468 0.
-3862.29 -7645.04 0.
-1.58297 -3.75492 0.
-2924.49 -4536.99 0.
-104.724 -135.437 0.
-64.2995 -86.1331 0.
-3152.77 -7275.99 0.
-298.128 -411.976 0.
-31.0604 -23.234 0.
-1952.2 -4597.33 0.
-751.927 -1786.17 0.
-66.2173 -90.9356 0.
-1278.64 -2826.35 0.
-834.193 -1892.72 0.
-871.694 -2021.86 0.
-637.1 -1511.07 0.
-419.785 -983.008 0.
-643.929 -1370.75 0.
-558.137 -1217.85 0.
-473.151 -1064.14 0.
-587.455 -1128.03 0.
-544.393 -1063.82 0.
-502.202 -998.725 0.
-840.798 -1524.93 0.
-839.072 -1520.92 0.
-592.393 -1119.2 0.
-577.097 -1092.04 0.
-562.402 -1064.29 0.
-581.314 -1052.96 0.
-597.311 -1094.43 0.
-613.633 -1135.58 0.
-623.222 -1177.26 0.
-606.694 -1153.16 0.
-595.641 -1123.58 0.
-207.884 -566.888 0.
-220.12 -601.898 0.
-2414.47 -2166.42 0.
-389.924 -891.737 0.
-381.919 -872.936 0.
-584.93 -1157.07 0.
-574.763 -1131.33 0.
-574.805 -1095.39 0.
-560.949 -1051.86 0.
-563.777 -1055.33 0.
-566.742 -1058.66 0.
-584.78 -1116.32 0.
-610.192 -1167.88 0.
-637.458 -1217.59 0.
-855.756 -1586.8 0.
-852.648 -1579.54 0.
-497.651 -991.115 0.
-557.288 -1091.43 0.
-618.15 -1190.52 0.
-446.929 -1040.81 0.
-571.073 -1312.82 0.
-702.309 -1577.73 0.
-434.879 -943.885 0.
-699.341 -1640.39 0.
-1000.95 -2299.74 0.
-876.037 -1913.59 0.
-1514.74 -3362.41 0.
-6.48587 -5.44531 0.
-764.864 -1567.61 0.
-2419.57 -5419.26 0.
-143.943 -105.162 0.
-95.8484 -43.7572 0.
-3461.68 -7789.51 0.
-0.152454 -0.00141452 0.
-45.6587 -21.709 0.
-3341.48 -5803.63 0.
-26.3643 -16.6079 0.
-3802.72 -7725.19 0.
-16.6355 -38.3145 0.
-20.5553 -56.8392 0.
-2388.38 -4866.79 0.
-581.052 -377.235 0.
-2153.57 -3596.94 0.
4.68964 1.8582 0.
2.90007 9.52238 0.
4.19399 10.5487 0.
15.4138 42.4676 0.
7.19291 18.9552 0.
12.6347 28.9774 0.
-2470.94 -5382.24 0.
0.9045 5.25753 0.
-418.021 -625.909 0.
-2253.75 -3688.89 0.
71.6374 144.451 0.
19.8764 46.9068 0.
11.834 30.1051 0.
-656.223 -1667.27 0.
-1146.07 -2214.85 0.
11.5545 27.5971 0.
-313.101 -796.607 0.
0.216032 0.58 0.
-821.31 -1674.56 0.
2.50503 1.60256 0.
4.42569 1.23202 0.
0.634482 5.63486 0.
0.785665 0.00876069 0.
1.43323 0.679932 0.
0.0947183 0.243721 0.
-0.744407 -1.75717 0.
-132.335 -133.451 0.
-140.847 -115.056 0.
-149.984 -113.899 0.
-54.7723 -76.9866 0.
-42.5887 -45.5885 0.
-33.2219 -24.8597 0.
-472.943 -994.542 0.
-59.4958 -62.5306 0.
-72.772 -94.0512 0.
-691.975 -1524.77 0.
-301.725 -535.595 0.
-532.173 -1300.65 0.
-328.787 -758.254 0.
-141.992 -199.263 0.
-500.852 -1145.38 0.
-427.31 -980.184 0.
-364.312 -804.442 0.
-543.91 -1022.17 0.
-501.612 -957.185 0.
-460.088 -891.422 0.
-827.25 -1519.09 0.
-825.523 -1515.09 0.
-546.643 -1029.84 0.
-531.524 -1002.51 0.
-516.971 -974.617 0.
-554.88 -1001.89 0.
-570.43 -1043.82 0.
-586.294 -1085.44 0.
-587.76 -1130.76 0.
-576.72 -1101.17 0.
-565.871 -1071.4 0.
-216.484 -586.942 0.
-229.167 -621.504 0.
-2227.81 -2083.89 0.
-413.374 -895.596 0.
-405.977 -876.187 0.
-541.908 -1092.8 0.
-531.526 -1067.27 0.
-521.546 -1041.35 0.
-545.929 -1009.24 0.
-547.409 -1014.05 0.
-550.092 -1017.67 0.
-546.628 -1018.25 0.
-572.782 -1069.07 0.
-599.814 -1119.02 0.
-807.618 -1562.67 0.
-808.745 -1551.17 0.
-439.122 -852.703 0.
-497.761 -954.034 0.
-557.571 -1054.19 0.
-282.973 -626.085 0.
-387.963 -917.365 0.
-504.129 -1197.47 0.
-65.7263 -44.8339 0.
-334.284 -607.124 0.
-596.762 -1306.31 0.
-57.7176 -34.8356 0.
-699.503 -1483.51 0.
-14.171 -11.9939 0.
-32.6906 -26.6559 0.
-81.6918 -77.2872 0.
-220.912 -175.781 0.
-76.1066 -36.3885 0.
-50.9483 -21.8605 0.
0.171765 0.0623461 0.
-41.0721 -16.8741 0.
-98.045 -59.3657 0.
-0.827734 -0.396026 0.
-54.963 -73.7799 0.
-113.032 -156.119 0.
-209.658 -100.062 0.
0.481296 1.89008 0.
-320.489 -312.702 0.
4.25813 11.7712 0.
-2136.06 -4852.4 0.
3.02924 12.1388 0.
3.86844 10.0303 0.
11.9181 32.4506 0.
-1.78597 -41.84 0.
-3.37465 -74.9658 0.
-3.09532 -74.7322 0.
26.1655 63.2339 0.
-28.74 -188.885 0.
-52.6963 -96.2471 0.
33.966 63.0507 0.
-2206 -5042.32 0.
30.7358 76.0717 0.
-0.945203 -83.8425 0.
12.3303 32.8069 0.
6.07977 14.2092 0.
-1410.75 -3555.27 0.
-0.411662 -27.247 0.
-272.987 -665.2 0.
0.440212 10.0327 0.
3.17364 3.61556 0.
5.2324 2.87703 0.
-1.90867 -0.732249 0.
-458.765 -385.811 0.
-1949.14 -4520.5 0.
0.22099 0.289166 0.
-2918.46 -4629.79 0.
-78.7186 -29.4866 0.
-107.776 -54.1338 0.
-3057.16 -7412.7 0.
-22.1166 -39.4784 0.
-22.9351 -44.9417 0.
-2579.09 -5797.05 0.
-386.32 -689.987 0.
-49.273 -26.0521 0.
-1704.89 -3884.34 0.
-802.284 -1768.88 0.
-1056.01 -2415.21 0.
-643.36 -1528.55 0.
-263.726 -608.869 0.
-782.117 -1714.24 0.
-562.357 -1275.77 0.
-360.469 -819.435 0.
-575.877 -1093.24 0.
-454.735 -838.598 0.
-328.52 -589.027 0.
-695.237 -1279.8 0.
-675.032 -1245.74 0.
-420.765 -681.15 0.
-424.341 -696.051 0.
-428.128 -710.741 0.
-460.799 -762.101 0.
-443.677 -720.81 0.
-426.992 -679.083 0.
-432.491 -729.642 0.
-444.45 -750.68 0.
-456.665 -771.461 0.
-117.965 -317.951 0.
-90.0854 -243.131 0.
-1843.73 -1466.53 0.
-268.372 -464.111 0.
-288.128 -515.68 0.
-397.454 -716.608 0.
-408.389 -750.775 0.
-419.391 -784.875 0.
-449.173 -766.636 0.
-445.408 -759.798 0.
-443.352 -751.251 0.
-418.841 -679.029 0.
-422.082 -682.348 0.
-425.785 -685.205 0.
-625.364 -1268.99 0.
-681.265 -1363.76 0.
-328.982 -646.03 0.
-486.162 -973.708 0.
-641.109 -1303.62 0.
-318.727 -756.862 0.
-587.565 -1426.82 0.
-889.23 -2063.94 0.
-282.392 -426.697 0.
-757.225 -1581.91 0.
-1278.85 -2690.33 0.
-740.704 -1521.95 0.
-1990.16 -4563.49 0.
-5.40049 -9.40764 0.
-13.4503 -9.10569 0.
-2922.98 -6998.64 0.
-165.959 -142.509 0.
-54.886 -31.1449 0.
-2608.16 -3566.8 0.
-58.4455 -22.0217 0.
-3723.98 -8809.65 0.
-12.7102 -14.317 0.
-35.3504 -53.564 0.
-2196.03 -5522.96 0.
-422.401 -241.36 0.
-398.638 -151.905 0.
-227.784 -290.606 0.
-301.966 -422.973 0.
-9.18943e-05 -3.65833 0.
-213.869 -498.952 0.
-1226.18 -2806.14 0.
-0.155204 -14.6685 0.
17.5435 47.114 0.
-2.46989 -37.2925 0.
-3.85093 -62.5434 0.
4.50959 11.095 0.
-251.382 -606.186 0.
-548.689 -1159.03 0.
-769.576 -1503.99 0.
-24.2193 -64.0937 0.
-12.0372 -29.0721 0.
-2.85126 -110.157 0.
-2.7866 -7.43506 0.
3.91225 10.392 0.
-316.798 -820.946 0.
-0.467845 -29.347 0.
-0.433945 -25.3314 0.
4.61039 12.0535 0.
-0.110143 -10.2295 0.
-3013.18 -6487.75 0.
-0.0657225 -1.87593 0.
-2404.88 -4072.42 0.
-0.0437725 -0.0621759 0.
-118.547 -201.86 0.
-0.25604 -0.808629 0.
0.000267818 0.0135998 0.
-14.0622 -7.81059 0.
-52.8149 -32.3721 0.
-106.758 -118.868 0.
-41.5995 -51.4459 0.
-46.6787 -60.6115 0.
-55.4737 -48.7371 0.
-48.1637 -22.8558 0.
-48.9352 -21.9955 0.
-613.279 -1290.23 0.
-44.9947 -17.1588 0.
-484.632 -1110.57 0.
-116.432 -178.197 0.
-16.5214 -16.8397 0.
-461.942 -1093.63 0.
-271.789 -625.238 0.
-112.62 -125.86 0.
-437.727 -903.667 0.
-320.78 -644.764 0.
-218.036 -382.906 0.
-611.001 -1181.4 0.
-582.368 -1155.76 0.
-378.867 -623.913 0.
-382.581 -638.68 0.
-386.38 -653.361 0.
-403.846 -693.478 0.
-387.324 -651.587 0.
-371.428 -609.071 0.
-382.924 -700.587 0.
-394.771 -721.738 0.
-406.806 -742.701 0.
-146.235 -383.908 0.
-117.69 -309.755 0.
-1249.06 -1207.17 0.
-293.092 -521.078 0.
-313.522 -571.968 0.
-367.567 -688.893 0.
-378.488 -723.075 0.
-389.571 -757.095 0.
-381.951 -687.349 0.
-377.266 -681.432 0.
-373.656 -674.439 0.
-353.176 -595.985 0.
-356.269 -599.45 0.
-359.805 -602.473 0.
-523.826 -1146.72 0.
-583.465 -1237.78 0.
-170.782 -338.267 0.
-298.73 -694.137 0.
-441.385 -1036.46 0.
-27.5086 -11.4244 0.
-242.737 -547.918 0.
-493.024 -1237.02 0.
-14.8485 -5.38768 0.
-26.2897 -10.5345 0.
-474.554 -813.317 0.
-34.9958 -21.4445 0.
-596.42 -1022.91 0.
-8.40897 -8.66338 0.
-5.64137 -3.74184 0.
-183.869 -206.909 0.
-26.1294 -19.2968 0.
-0.21128 -0.141646 0.
-4.0423 -2.7723 0.
-1.04153 -0.398283 0.
-45.0643 -21.5889 0.
-21.8215 -19.8222 0.
-19.8066 -16.9049 0.
-157.836 -398.401 0.
-1.2298 -2.97667 0.
-2143.19 -3069.44 0.
-1583.34 -2817.86 0.
-514.325 -899.149 0.
-0.000281231 -9.24435 0.
-0.0395626 -19.7829 0.
-874.774 -2017.34 0.
10.3757 26.3741 0.
17.0849 46.7583 0.
-2157.6 -5006.75 0.
-5.76365 -76.6717 0.
-1521.72 -3688.65 0.
-924.364 -2226.09 0.
-83.6975 -169.393 0.
-20.4113 -281.92 0.
62.1868 166.142 0.
6.33417 15.5736 0.
3.56118 9.05172 0.
-16.989 -44.9417 0.
2.72663 7.23188 0.
-119.869 -331.194 0.
9.54655 25.9335 0.
6.88479 18.2307 0.
-1072.85 -2958.72 0.
-0.0083941 -17.3585 0.
-218.904 -550.027 0.
4.3914 11.8123 0.
-0.739133 -1.20084 0.
0.205029 1.18906 0.
-246.494 -570.579 0.
-112.14 -153.733 0.
2.00383 0.0444144 0.
-3.9974 -2.42722 0.
-22.907 -20.0138 0.
-139.373 -116.049 0.
-70.3097 -63.8684 0.
-78.5181 -73.959 0.
-57.4354 -49.7065 0.
-53.734 -28.2312 0.
-61.3157 -28.2458 0.
-43.1605 -16.4704 0.
-36.9013 -13.3558 0.
-26.9748 -13.3664 0.
-27.74 -20.6891 0.
-43.1076 -42.0765 0.
-195.259 -419.534 0.
0.242342 0.0205395 0.
0.512563 0.0331778 0.
-313.721 -699.947 0.
-211.296 -426.458 0.
-143.515 -233.824 0.
-535.588 -1074.17 0.
-508.061 -1047.42 0.
-334.936 -568.709 0.
-340.583 -581.546 0.
-345.247 -595.366 0.
-349.082 -622.668 0.
-333.855 -579.481 0.
-319.096 -535.826 0.
-335.486 -669.402 0.
-347.477 -690.411 0.
-359.506 -711.383 0.
-185.091 -439.277 0.
-156.284 -365.39 0.
-1073.3 -1130.28 0.
-329.42 -566.437 0.
-347.929 -619.244 0.
-338.625 -660.232 0.
-349.612 -694.351 0.
-360.483 -728.584 0.
-323.435 -599.357 0.
-317.46 -594.73 0.
-311.787 -589.801 0.
-288.062 -512.39 0.
-290.8 -516.21 0.
-292.295 -521.272 0.
-433.767 -1012.98 0.
-491.337 -1106.12 0.
-71.409 -95.6304 0.
-174.624 -351.241 0.
-296.106 -714.855 0.
-38.45 -19.6396 0.
-0.459981 -0.256608 0.
-179.836 -327.079 0.
-3.47469 -1.32757 0.
-15.0677 -5.61019 0.
-23.0887 -13.8616 0.
-52.3745 -28.9534 0.
-40.0934 -23.4428 0.
-18.3462 -13.7276 0.
-13.9889 -7.3394 0.
-18.5483 -6.77748 0.
-10.4327 -10.2263 0.
-0.110843 -0.103303 0.
1.36497 1.12643 0.
0.404804 0.146282 0.
-6.27223 -3.56825 0.
-34.6653 -26.8487 0.
-38.0564 -30.2907 0.
-144.456 -286.795 0.
-0.0660093 -0.230631 0.
0.128289 0.275663 0.
-780.667 -1951.63 0.
-421.37 -1144.59 0.
-2.02629e-05 -2.30879 0.
4.03014 11.0341 0.
-634.898 -1471.53 0.
-809.331 -2056.72 0.
0.0525311 3.92385 0.
-1.92725 -99.0646 0.
-0.803252 -116.436 0.
15.5293 38.575 0.
14.8091 39.9151 0.
16.2214 32.5462 0.
-17.1732 -325.022 0.
16.8524 45.3449 0.
-489.668 -1222.96 0.
39.7962 99.1724 0.
-1591.3 -4186.16 0.
-0.000607255 -37.1173 0.
-13.0077 -36.0285 0.
16.2423 44.538 0.
2.27153 5.98429 0.
2.47564 6.84525 0.
7.26294 20.117 0.
-78.1894 -204.022 0.
-0.00673092 -1.86597 0.
-0.866467 -4.23154 0.
-1455.71 -3026.82 0.
-1878.06 -2727.16 0.
-53.3036 -106.744 0.
-55.898 -114.152 0.
-3162.28 -6763.22 0.
-12.9488 -16.7183 0.
-2240.29 -4595.23 0.
-34.4117 -12.4511 0.
-25.2038 -12.1802 0.
-2616.49 -6256.26 0.
-13.8195 -13.7893 0.
-15.8924 -15.6626 0.
-2259.66 -5548.44 0.
-284.3 -467.748 0.
-1572.85 -3457.18 0.
-704.268 -1488.88 0.
-20.286 -8.6919 0.
-1070.72 -2695.48 0.
-573.42 -1519.79 0.
-117.907 -302.313 0.
-763.719 -1914.65 0.
-520.489 -1330.42 0.
-299.606 -723.846 0.
-729.95 -1774.96 0.
-642.599 -1594.37 0.
-503.082 -1121.08 0.
-464.758 -1031.11 0.
-427.09 -940.495 0.
-449.617 -963.292 0.
-442.318 -947.183 0.
-436.791 -929.302 0.
-437.225 -1008.73 0.
-404.35 -922.913 0.
-371.795 -836.78 0.
-262.618 -702.685 0.
-271.691 -723.442 0.
-1004.73 -1439.75 0.
-467.207 -926.427 0.
-459.379 -909.489 0.
-382.188 -843.896 0.
-411.991 -925.502 0.
-442.638 -1006.26 0.
-389.824 -902.478 0.
-404.906 -942.965 0.
-422.02 -981.419 0.
-368.357 -950.464 0.
-433.797 -1105.47 0.
-501.499 -1258.22 0.
-642.635 -1622.69 0.
-740.534 -1827.51 0.
-206.134 -483.539 0.
-520.884 -1379.39 0.
-866.887 -2243.98 0.
-20.946 -26.7162 0.
-642.904 -1615.85 0.
-1313.47 -3209.18 0.
-40.2872 -38.7704 0.
-725.968 -1399.07 0.
-1855.94 -4012.11 0.
-1.90187 -1.04136 0.
-2462 -5744.88 0.
0.484567 0.235177 0.
-16.3758 -9.08855 0.
-2848.01 -7217.46 0.
-64.8303 -90.0105 0.
-75.7788 -115.501 0.
-2655.68 -4695.64 0.
-39.5782 -55.8432 0.
-2145.71 -4343.81 0.
-0.715007 -0.0227256 0.
-2246.41 -5381.86 0.
-0.404431 -4.7566 0.
1.04701 4.64984 0.
0.243021 2.84631 0.
-416.583 -1135.72 0.
1.53853 4.17305 0.
-1204 -3066.66 0.
2.42427 6.5793 0.
4.44537 11.8214 0.
-2031.73 -5157.93 0.
26.5219 69.5567 0.
3.18112 8.39756 0.
31.2322 84.6165 0.
-2.233 -5.54953 0.
55.5329 150.876 0.
43.071 100.131 0.
-15.1141 -348.529 0.
-441.381 -1145.84 0.
-1581.99 -4004.96 0.
-84.2034 -228.819 0.
-1.28256 -120.725 0.
-0.00428752 -20.3887 0.
-39.4692 -109.203 0.
-111.394 -306.94 0.
-856.078 -2368.9 0.
4.25408 11.7536 0.
-12.5218 -34.6553 0.
2.36964 6.54512 0.
-754.633 -2082.99 0.
-199.452 -551.948 0.
-741.47 -1916.4 0.
-8.01663e-05 -7.62876 0.
-13.0029 -29.4002 0.
-0.0304364 -0.487985 0.
-109.503 -277.499 0.
1.4649 0.00531993 0.
-55.1336 -20.1887 0.
-15.2532 -6.64835 0.
-28.5115 -14.6038 0.
-13.1195 -12.5737 0.
-14.7868 -13.8971 0.
-17.8025 -16.2733 0.
-136.091 -191.168 0.
-30.6206 -12.5168 0.
-297.143 -502.393 0.
-12.7803 -4.9618 0.
-7.35457 -2.73012 0.
-485.348 -1272.37 0.
-32.2861 -50.692 0.
-12.1182 -26.8914 0.
-516.926 -1340.95 0.
-300.953 -729.115 0.
-84.3738 -137.058 0.
-583.944 -1477.27 0.
-507.277 -1285.93 0.
-432.123 -995.818 0.
-394.307 -905.337 0.
-357.072 -814.273 0.
-415.793 -904.102 0.
-409.58 -886.908 0.
-404.921 -868.159 0.
-408.125 -943.064 0.
-375.484 -857.011 0.
-343.167 -770.633 0.
-282.134 -720.753 0.
-291.505 -741.21 0.
-757.771 -1331.46 0.
-480.313 -938.413 0.
-472.551 -921.411 0.
-360.82 -777.877 0.
-389.73 -860.384 0.
-419.568 -941.963 0.
-339.079 -808.72 0.
-352.783 -850.589 0.
-367.875 -891.07 0.
-282.702 -740.785 0.
-341.103 -902.864 0.
-407.371 -1057.08 0.
-472.304 -1208.79 0.
-554.013 -1429.89 0.
0.172699 0.0398224 0.
-224.108 -548.81 0.
-537.846 -1446.38 0.
-28.3795 -30.0267 0.
-29.937 -30.3363 0.
-509.973 -1219.55 0.
-81.5195 -85.9627 0.
-36.8839 -35.0531 0.
-195.321 -146.899 0.
-0.619935 -0.408927 0.
-0.44945 -0.245969 0.
0.0621653 0.0275298 0.
-7.90167 -3.67477 0.
-98.7136 -181.963 0.
-20.9117 -35.2058 0.
-38.9171 -71.1582 0.
-56.7527 -108.434 0.
-32.015 -40.7244 0.
-82.1245 -68.4701 0.
0.284518 0.867012 0.
-41.1545 -85.6841 0.
-0.074654 -0.685998 0.
-2844.52 -6048.67 0.
-0.12265 -20.8924 0.
-288.467 -798.108 0.
7.43982 20.116 0.
-907.759 -2306.27 0.
-119.001 -311.083 0.
-0.976783 -61.8355 0.
12.2717 33.3934 0.
26.8074 68.6882 0.
-214.339 -565.489 0.
-0.984084 -128.668 0.
-25.9072 -64.4675 0.
-1.23452 -206.165 0.
-26.4178 -62.1724 0.
-11.4434 -283.689 0.
-440.799 -1140.29 0.
10.1018 26.4934 0.
-96.9554 -265.984 0.
32.0607 87.1574 0.
34.6368 95.8212 0.
-145.504 -401.477 0.
-608.076 -1679.53 0.
19.2974 52.3476 0.
5.84891 16.15 0.
-314.679 -868.712 0.
-384.771 -1065.06 0.
-333.818 -916.675 0.
-144.27 -398.978 0.
-281.036 -772.565 0.
6.35234 17.1585 0.
-0.0588719 -0.145767 0.
0.0293733 1.64243 0.
-147.474 -407.976 0.
-187.503 -358.827 0.
-2146.28 -4958.12 0.
-79.1933 -75.1219 0.
-109.532 -99.8135 0.
-2265.89 -5712.74 0.
-42.4129 -46.9789 0.
-26.2321 -21.4778 0.
-2271.85 -5324.31 0.
-23.3936 -8.45303 0.
-1750.6 -3947.38 0.
-491.487 -939.821 0.
-9.5684 -4.5034 0.
-1366.45 -3359.23 0.
-543.001 -1366.93 0.
-9.88654 -13.6652 0.
-933.256 -2352.9 0.
-519.055 -1333.63 0.
-134.789 -284.428 0.
-703.593 -1732.79 0.
-527.934 -1335.62 0.
-466.967 -1074.77 0.
-377.137 -877.148 0.
-293.395 -673.439 0.
-362.204 -778.198 0.
-327.02 -689.151 0.
-293.376 -598.564 0.
-315.946 -676.867 0.
-295.835 -619.494 0.
-239.683 -598.161 0.
-202.468 -519.193 0.
-166.734 -415.599 0.
-765.495 -922.082 0.
-340.681 -546.12 0.
-369.536 -621.53 0.
-223.07 -537.49 0.
-303.83 -625.244 0.
-349.923 -747.665 0.
-263.758 -630.164 0.
-318.489 -771.683 0.
-374.809 -911.612 0.
-257.944 -696.179 0.
-358.177 -937.732 0.
-466.016 -1171.68 0.
-556.91 -1402.69 0.
-813.87 -1993.37 0.
-65.2417 -157.049 0.
-543.09 -1476.32 0.
-1052.26 -2764.27 0.
-10.771 -3.90907 0.
-505.278 -1277.16 0.
-1635.05 -4080.26 0.
-51.9694 -71.2437 0.
-376.18 -373.351 0.
-1853.06 -3932.28 0.
0.494783 0.696913 0.
-2358.75 -5833.43 0.
-173.146 -413.381 0.
-38.9234 -58.5296 0.
-1828.98 -3413.08 0.
-0.439512 -1.29156 0.
-2484.09 -6147.76 0.
-226.074 -519.011 0.
-22.4285 -27.3252 0.
-54.5762 -45.9067 0.
0.955858 2.64236 0.
-54.6985 -147.13 0.
-0.417534 -7.26155 0.
-107.959 -239.687 0.
-0.0833675 -20.0131 0.
-1681.68 -4564.41 0.
7.59493 20.4661 0.
5.42786 14.6888 0.
-449.725 -1166.92 0.
4.40824 11.7922 0.
32.7422 89.2753 0.
-9.2185 -25.5336 0.
-1586.13 -4183.25 0.
22.6527 61.8157 0.
-2.22659 -5.55058 0.
-0.548751 -120.908 0.
-660.275 -1507.07 0.
-1.20372 -222.274 0.
-115.524 -297.615 0.
62.0547 163.617 0.
-72.6184 -199.311 0.
43.1995 118.047 0.
-36.49 -100.981 0.
-326.287 -897.68 0.
27.633 74.6793 0.
17.9508 49.2637 0.
-0.0481558 -30.6465 0.
-0.211375 -17.9564 0.
-286.53 -793.171 0.
-100.06 -274.003 0.
-92.2234 -254.918 0.
-62.3987 -172.822 0.
6.71503 18.5309 0.
-2264.34 -4475.29 0.
-0.0355409 -1.12783 0.
-1645.12 -3795.21 0.
-0.156413 -2.18475 0.
-35.6446 -43.0143 0.
-41.9452 -48.4265 0.
-61.2921 -66.607 0.
-75.2159 -171.838 0.
-10.6973 -22.8396 0.
-0.104353 -0.112973 0.
-50.1041 -35.8582 0.
-0.280953 -0.01543 0.
-106.546 -98.2004 0.
-0.0481477 -0.0254396 0.
-2.58364 -1.87469 0.
-413.958 -982.51 0.
-1.19303 -1.61359 0.
-1.24351 -1.61564 0.
-512.177 -1329.33 0.
-127.94 -279.026 0.
-21.59 -11.2893 0.
-453.455 -1162.22 0.
-291.611 -750.995 0.
-325.708 -822.058 0.
-239.4 -620.857 0.
-163.8 -408.946 0.
-289.5 -686.324 0.
-254.357 -597.228 0.
-219.249 -508.096 0.
-286.472 -636.021 0.
-266.806 -578.199 0.
-216.716 -550.801 0.
-206.71 -548.167 0.
-166.051 -449.501 0.
-280.112 -662.135 0.
-321.828 -527.128 0.
-349.302 -603.925 0.
-186.59 -469.938 0.
-249.759 -575.293 0.
-298.974 -694.602 0.
-188.583 -488.241 0.
-239.931 -633.166 0.
-293.555 -775.814 0.
-116.863 -316.96 0.
-206.192 -569.506 0.
-304.323 -813.252 0.
-273.256 -654.057 0.
-509.087 -1266.31 0.
-17.4186 -47.0421 0.
-29.6104 -72.7616 0.
-516.992 -1384.29 0.
-0.28027 -0.0593639 0.
0.118359 0.0856503 0.
-333.774 -847.685 0.
-24.8867 -18.5693 0.
0.0898459 0.0441925 0.
0.197768 0.00372024 0.
0.18469 0.38122 0.
-70.8014 -187.544 0.
-30.1336 -82.9748 0.
-8.17234 -13.6346 0.
-1.35793 -1.53849 0.
-0.195092 -0.627066 0.
-215.77 -482.013 0.
-0.160957 -0.907769 0.
-98.9549 -177.13 0.
-2127.44 -5141.68 0.
-175.35 -398.354 0.
-1972.64 -2609.92 0.
-0.242295 -7.83954 0.
6.4863 15.2373 0.
6.25472 17.1921 0.
11.804 32.3643 0.
11.7152 31.4647 0.
-0.3211 -27.8524 0.
-2363.41 -6128.9 0.
22.0715 59.1557 0.
-15.6562 -42.7498 0.
39.2137 108.613 0.
-1.36506 -139.652 0.
56.1389 153.633 0.
57.2446 143.051 0.
-1.66638 -3.92812 0.
-0.00667277 -137.337 0.
0.105881 55.054 0.
-128.993 -330.915 0.
-374.897 -992.169 0.
-59.5201 -163.409 0.
-36.1099 -99.0891 0.
-147.875 -409.334 0.
-533.22 -1475.34 0.
-10.8472 -30.0194 0.
2.34344 6.46614 0.
-5.24579 -14.465 0.
-45.9913 -126.861 0.
-185.308 -513.054 0.
-266.519 -728.54 0.
-61.714 -170.521 0.
-1067.55 -2956.91 0.
7.00912 19.2694 0.
-299.296 -677.978 0.
-0.0999651 -8.65074 0.
-73.5883 -180.998 0.
-0.0713353 -1.2837 0.
0.854589 2.14967 0.
-11.7373 -17.1395 0.
-24.8791 -34.4398 0.
-82.5579 -221.992 0.
-7.10241 -19.0009 0.
0.33313 0.523779 0.
0.106321 0.0551983 0.
-0.0170183 -0.00272711 0.
-0.439379 -0.0766662 0.
-0.016051 -0.00979843 0.
-3.25799 -2.53317 0.
-1.37185 -1.96594 0.
-1.3337 -1.84628 0.
-1.24656 -1.66586 0.
-125.615 -271.256 0.
-30.6991 -23.549 0.
-25.8866 -10.0374 0.
-233.569 -561.407 0.
-110.431 -226.68 0.
-210.214 -543.581 0.
-132.078 -334.149 0.
-80.6246 -187.095 0.
-237.226 -574.022 0.
-202.759 -484.24 0.
-170.83 -391.919 0.
-260.641 -591.532 0.
-225.998 -548.683 0.
-205.886 -491.304 0.
-224.912 -563.181 0.
-186.462 -462.311 0.
-275.158 -613.877 0.
-311.4 -499.71 0.
-339.409 -575.978 0.
-181.218 -417.203 0.
-214.662 -506.367 0.
-257.046 -632.518 0.
-150.22 -335.171 0.
-195.394 -460.629 0.
-248.663 -603.654 0.
-10.9275 -28.9004 0.
-69.0874 -189.056 0.
-160.413 -437.042 0.
-22.4044 -22.0777 0.
-234.144 -509.423 0.
-26.5088 -71.1288 0.
-9.5869 -24.1992 0.
-1.2768 -2.09095 0.
0.135788 0.14842 0.
-3.4539 -5.40071 0.
-16.3624 -35.6897 0.
-42.8086 -34.764 0.
-1.7477 -0.840237 0.
0.022977 0.0091194 0.
-4.25874 -11.7926 0.
-45.4749 -124.709 0.
-4.67832 -11.6678 0.
-0.0542257 -0.0996989 0.
-0.446377 -0.963947 0.
0.0105079 0.0372323 0.
-67.4986 -126.804 0.
0.080353 1.89341 0.
0.0188133 0.0403869 0.
-118.881 -234.864 0.
-7.27368 -17.4311 0.
-103.327 -221.118 0.
-1078.1 -2768.98 0.
-0.363644 -9.98141 0.
8.1673 22.4868 0.
4.85023 13.3578 0.
-284.116 -770.188 0.
9.85226 26.4521 0.
17.3632 48.0696 0.
-1079.74 -2925.48 0.
-5.59184 -15.293 0.
-0.00689934 -127.034 0.
40.8259 110.878 0.
43.6632 118.696 0.
-19.7299 -51.3454 0.
41.8399 96.2507 0.
56.8763 155.696 0.
65.339 180.952 0.
-311.303 -795.077 0.
39.0837 107.968 0.
-156.091 -428.603 0.
-558.796 -1538.84 0.
-426.252 -1180.18 0.
20.9638 58.0142 0.
37.4943 103.698 0.
-72.7512 -201.183 0.
-0.0733899 -33.2656 0.
-153.23 -422.972 0.
-83.8069 -232.079 0.
-0.29864 -24.9298 0.
-397.56 -1081.52 0.
6.85932 18.9571 0.
-0.051435 -10.4371 0.
-0.500212 -11.7144 0.
4.02229 11.0277 0.
-0.0391865 -0.0965386 0.
-1507.66 -3687.58 0.
-8.18895 -18.6637 0.
-2399.48 -4616.62 0.
-88.9442 -174.386 0.
-1620.19 -3757.92 0.
-17.5865 -44.2792 0.
0.37288 0.11164 0.
-2139.08 -5498.08 0.
-16.9621 -17.7298 0.
-1908.81 -3579.33 0.
-207.933 -290.956 0.
-60.6759 -103.519 0.
-1933.83 -4953.92 0.
-217.341 -527.251 0.
0.0918484 0.173143 0.
-1196.89 -3142.34 0.
-466.902 -1250.7 0.
-21.244 -39.3615 0.
-861.834 -2236.36 0.
-492.569 -1294.94 0.
-597.837 -1555.1 0.
-420.507 -1121.73 0.
-253.355 -678.184 0.
-448.635 -1194.38 0.
-357.214 -963.72 0.
-270.048 -728.806 0.
-369.131 -970.648 0.
-311.269 -821.267 0.
-257.536 -667.758 0.
-305.97 -807.767 0.
-292.978 -764.958 0.
-342.369 -893.483 0.
-443.182 -859.453 0.
-471.302 -932.983 0.
-257.003 -676.855 0.
-322.457 -865.8 0.
-389.836 -1052.82 0.
-244.293 -655.575 0.
-370.387 -998.457 0.
-501.072 -1336.75 0.
-238.868 -631.171 0.
-454.826 -1221.79 0.
-685.095 -1798.09 0.
-513.931 -1328.5 0.
-985.828 -2550.32 0.
0.594441 0.348288 0.
-423.196 -1113.31 0.
-1422.9 -3694.18 0.
-5.51749 -14.1453 0.
-3.55923 -9.06537 0.
-2139.54 -5511.59 0.
-128.661 -89.1199 0.
-19.4793 -16.2765 0.
-1920.95 -3398.8 0.
-0.0314721 -0.70688 0.
-2309 -6126.59 0.
-0.0283107 -0.249041 0.
-0.109166 -0.978705 0.
-1948.59 -4149.58 0.
-30.8902 -79.1978 0.
-1832.5 -4133.95 0.
1.42727 3.75578 0.
1.73088 4.19401 0.
2.59841 6.81344 0.
-0.789269 -1.92664 0.
-0.00678463 -0.565255 0.
-493.285 -1331.72 0.
-130.546 -361.418 0.
-0.0333147 -17.122 0.
-0.0559445 -45.8113 0.
-1410.12 -3851.25 0.
19.3559 51.7901 0.
-0.000474063 -55.5037 0.
-901.095 -2495.13 0.
-563.755 -1546.23 0.
20.1334 55.7481 0.
49.9261 135.991 0.
-3.13936 -8.55186 0.
31.6672 87.7068 0.
3.60855 8.02245 0.
1.59477 54.3626 0.
-0.574781 -83.48 0.
-335.468 -852.818 0.
-0.146301 -142.175 0.
-179.283 -492.279 0.
-330.745 -913.015 0.
-2.11719 -5.86399 0.
15.8901 43.9844 0.
-1.67282 -4.62292 0.
-467.055 -1292.64 0.
-12.0224 -33.1739 0.
-254.99 -704.333 0.
-37.6965 -104.405 0.
-224.871 -622.745 0.
-295.985 -811.072 0.
-0.266915 -34.6954 0.
3.15672 8.60024 0.
5.23679 13.9571 0.
-1187.06 -3104.82 0.
0.0077899 3.24796 0.
1.1679 2.478 0.
0.943642 2.28504 0.
-179.44 -375.525 0.
0.392111 0.964277 0.
-76.4986 -209.336 0.
-0.00397185 -0.403519 0.
0.36013 0.173995 0.
-3.40858 -2.71558 0.
-30.8749 -29.5265 0.
0.686256 1.05786 0.
-2.9145 -4.85217 0.
-20.5139 -38.6207 0.
-114.523 -297.216 0.
-0.15413 -0.410185 0.
-0.000304982 -0.150334 0.
-431.918 -1131.25 0.
-2.81758 -1.59097 0.
-3.80496 -2.82736 0.
-503.168 -1352.32 0.
-149.916 -394.041 0.
-391.092 -1047.69 0.
-225.104 -602.752 0.
-79.4456 -196.238 0.
-345.713 -946.433 0.
-258.261 -711.747 0.
-172.42 -475.45 0.
-330.497 -871.909 0.
-275.185 -719.964 0.
-229.984 -588.19 0.
-285.593 -751.536 0.
-272.574 -708.753 0.
-322.035 -823.702 0.
-431.824 -795.521 0.
-460.772 -868.228 0.
-208.867 -565.976 0.
-263.434 -725.981 0.
-331.532 -912.308 0.
-115.692 -319.531 0.
-235.053 -649.645 0.
-361.5 -992.291 0.
-45.2527 -73.8623 0.
-226.012 -533.009 0.
-443.193 -1122.79 0.
-65.8263 -111.739 0.
-513.76 -1358.99 0.
-2.79905 -5.22396 0.
-0.910362 -1.90289 0.
-353.214 -905.379 0.
-7.45946 -17.6703 0.
0.0519799 0.128542 0.
-12.2231 -33.4169 0.
-409.353 -254.049 0.
-74.1979 -58.3093 0.
-42.1105 -75.8939 0.
0.144147 0.37086 0.
0.237368 0.609207 0.
-6.22749 -14.0716 0.
-3.24394 -7.43514 0.
-0.928798 -2.13109 0.
0.494816 1.36937 0.
-39.6914 -103.527 0.
2.39848 6.46766 0.
-2184.88 -5169.25 0.
2.67277 7.13248 0.
-154.051 -373.622 0.
15.8652 41.8081 0.
-113.223 -311.467 0.
-93.7455 -259.486 0.
-982.934 -2719 0.
-0.0158419 -30.6809 0.
-0.0246856 -37.0528 0.
-818.764 -2256.13 0.
14.255 39.4774 0.
6.02448 16.6745 0.
-1202.19 -3307.56 0.
-20.1978 -55.9111 0.
-0.848591 -141.82 0.
-28.8583 -78.7327 0.
-0.0115917 -142.466 0.
-20.4133 -156.745 0.
-1057.67 -2254.13 0.
20.9196 54.8898 0.
-0.874144 -78.1105 0.
-40.1142 -110.839 0.
-284.813 -781.956 0.
-51.7658 -142.961 0.
-5.78377 -16.0151 0.
38.6297 106.949 0.
-4.79719 -13.2454 0.
-897.317 -2484.21 0.
35.2662 97.1594 0.
-317.607 -877.86 0.
-36.1398 -100.099 0.
-292.141 -808.512 0.
-394.493 -1084.77 0.
14.1575 38.4588 0.
-1002.64 -2761.85 0.
-0.922895 -2.55116 0.
-313.565 -860.664 0.
0.00156466 1.58135 0.
-0.0657485 -0.147727 0.
-0.286624 -6.75827 0.
-4.51607 -10.9703 0.
-0.09154 -4.45887 0.
-30.2727 -77.6536 0.
-1051.47 -2426.78 0.
-0.254325 -0.626344 0.
-1586.55 -4031.46 0.
-57.9597 -57.6193 0.
-1705.3 -3257.32 0.
0.456983 0.921283 0.
-0.0796685 -0.459974 0.
-1931.26 -5249.17 0.
-0.0981975 -0.218086 0.
-0.064434 -0.356552 0.
-1449.51 -3669.15 0.
-284.302 -711.958 0.
-0.123536 -0.0163681 0.
-1000.36 -2603.96 0.
-428.864 -1128.84 0.
-684.365 -1732.85 0.
-405.651 -1055.31 0.
-140.736 -363.975 0.
-475.676 -1226.67 0.
-317.836 -842.507 0.
-166.256 -452.086 0.
-354.946 -916.494 0.
-275.563 -706.941 0.
-197.423 -496.146 0.
-266.491 -656.623 0.
-223.342 -539.324 0.
-354.377 -496.036 0.
-360.899 -617.8 0.
-418.951 -771.42 0.
-167.678 -439.713 0.
-278.873 -752.881 0.
-393.253 -1062.86 0.
-138.865 -380.348 0.
-344.631 -932.537 0.
-559.364 -1475.76 0.
-135.601 -271.574 0.
-449.637 -1093.05 0.
-781.203 -1896.99 0.
-385.918 -1009.22 0.
-1156.03 -3004.51 0.
-1.15054 -2.9744 0.
-115.094 -295.821 0.
-1667.27 -4270.14 0.
-39.2627 -49.522 0.
-7.76889 -21.3857 0.
-1849.23 -4742.48 0.
-404.507 -440.434 0.
-1337.81 -1906.63 0.
-660.625 -1779.05 0.
-0.123953 -0.250232 0.
-903.81 -2402.78 0.
-303.84 -772.087 0.
-25.1319 -58.513 0.
-21.4939 -51.8441 0.
-0.0119117 -2.56972 0.
-3.56043 -9.7598 0.
3.21447 8.79264 0.
-9.1158 -24.1641 0.
0.617308 1.67569 0.
-1480.76 -3568.99 0.
4.95615 13.5988 0.
-183.356 -507.531 0.
-118.168 -327.015 0.
-361.169 -998.881 0.
4.20425 11.6412 0.
-0.123481 -66.6776 0.
-1318.94 -3646.22 0.
16.457 45.5461 0.
-145.286 -401.759 0.
-25.4742 -70.4683 0.
-455.527 -1260.54 0.
31.837 88.1753 0.
-442.114 -1207.39 0.
35.8365 99.2087 0.
16.8993 39.4597 0.
-1511.13 -3514.43 0.
15.1739 38.1601 0.
-1.85488 -104.212 0.
-451.448 -1247.32 0.
-235.927 -647.589 0.
23.2805 64.4445 0.
-105.791 -292.79 0.
40.4826 111.134 0.
9.21293 25.4117 0.
1.10482 3.05393 0.
13.8809 38.1739 0.
-271 -749.501 0.
8.25019 22.7645 0.
-281.444 -778.04 0.
-32.5159 -89.7823 0.
7.01174 19.3378 0.
-148.367 -407.047 0.
7.95379 21.9947 0.
-46.3877 -128.479 0.
-0.0585771 -6.74646 0.
1.08169 2.53007 0.
2.23358 5.85121 0.
-1688.64 -4345.56 0.
0.914409 2.40175 0.
-981.321 -2585.85 0.
-0.206979 -0.572408 0.
-0.09372 -2.03821 0.
-20.8585 -29.7428 0.
-5.89906 -8.95045 0.
-24.2221 -43.4137 0.
-0.0452983 -0.192594 0.
0.234776 0.424916 0.
-150.439 -415.381 0.
-0.0930244 -0.220915 0.
0.0445257 0.094469 0.
-208.092 -518.464 0.
0.128572 0.096869 0.
-0.290544 -0.0333509 0.
-475.008 -1271.46 0.
0.0194869 0.0437175 0.
-376.186 -982.321 0.
-113.811 -287.918 0.
-11.8616 -14.2705 0.
-312.341 -826.944 0.
-162.377 -434.747 0.
-45.7985 -120.268 0.
-270.855 -710.589 0.
-191.172 -501.293 0.
-122.715 -317.502 0.
-225.21 -509.679 0.
-197.842 -437.84 0.
-138.45 -311.359 0.
-298.172 -508.096 0.
-333.217 -597.747 0.
-110.146 -294.222 0.
-179.72 -486.474 0.
-292.243 -798.398 0.
-5.62466 -11.8001 0.
-141.257 -386.463 0.
-346.251 -939.72 0.
-16.163 -5.93755 0.
-57.5888 -78.1055 0.
-374.462 -897.573 0.
-0.050587 -0.0328285 0.
-468.973 -1247.45 0.
-7.28065 -19.9714 0.
-1.3437 -3.57861 0.
-86.1295 -236.437 0.
-10.4005 -27.6404 0.
-12.2569 -33.4229 0.
-15.2796 -42.2238 0.
0.00147339 0.0336385 0.
-169.177 -441.183 0.
-8.11041 -16.752 0.
-0.201697 -0.914525 0.
0.556347 0.903946 0.
0.763591 2.03595 0.
-2464.76 -6049.99 0.
1.80061 4.98607 0.
-29.6077 -78.3499 0.
-1920.36 -4611.78 0.
-149.978 -347.796 0.
1.60889 4.3306 0.
-0.0337775 -6.72166 0.
-528.277 -1302.11 0.
-0.141682 -16.6289 0.
-959.807 -2637.23 0.
-119.03 -329.318 0.
20.2336 55.7366 0.
-115.179 -319.025 0.
-5.80535 -15.947 0.
-206.16 -556.362 0.
28.929 79.9699 0.
-285.366 -788.154 0.
-3.80335 -10.3712 0.
-438.204 -1212.05 0.
-11.398 -31.5636 0.
-797.456 -2179.5 0.
10.8831 30.1077 0.
48.7437 113.045 0.
-242.249 -568.151 0.
19.8687 47.2868 0.
37.9277 98.8266 0.
-1272.65 -3515.51 0.
28.9063 80.0464 0.
38.539 106.683 0.
-269.839 -746.312 0.
-17.5526 -48.1176 0.
-254.26 -700.539 0.
-0.025928 -0.0700042 0.
31.392 86.1739 0.
-276.733 -765.811 0.
6.17276 17.0036 0.
-206.913 -571.085 0.
24.7146 62.6083 0.
-155.43 -430.211 0.
1.40586 3.85776 0.
-0.0478486 -0.132353 0.
-56.3573 -155.556 0.
-0.0106568 -18.8451 0.
-1554.48 -3920.96 0.
1.92393 5.20828 0.
-67.8052 -182.077 0.
0.392484 1.06672 0.
-0.00747975 -2.88547 0.
0.784477 2.16864 0.
-0.0676972 -1.56862 0.
0.373967 0.692468 0.
-0.0416568 -0.333737 0.
0.254854 0.674268 0.
0.236399 0.382652 0.
-0.289056 -0.904324 0.
-19.3023 -52.7313 0.
-13.6692 -37.6528 0.
-14.5498 -37.4187 0.
0.047004 0.072723 0.
0.0291322 0.129064 0.
0.11384 0.142435 0.
-0.0178613 -0.0251867 0.
0.0313482 0.0699406 0.
-84.5464 -215.253 0.
-18.7781 -28.0028 0.
-9.98022 -13.906 0.
-157.607 -418.618 0.
-33.1125 -81.2574 0.
-0.414363 -1.08525 0.
-212.937 -524.135 0.
-152.676 -366.38 0.
-94.775 -210.568 0.
-232.534 -488.737 0.
-210.409 -433.899 0.
-103.033 -212.178 0.
-287.659 -510.405 0.
-308.203 -557.692 0.
-85.1516 -174.904 0.
-129.272 -306.587 0.
-221.48 -568.991 0.
-10.2818 -28.4706 0.
-5.5651 -15.4138 0.
-144.13 -392.688 0.
-16.528 -6.8237 0.
-0.0933604 -2.20153e-05 0.
0.000381881 0.000139118 0.
-0.346979 -0.153343 0.
-5.99178 -10.8775 0.
-16.288 -36.9918 0.
-3.35572 -9.21674 0.
-37.9982 -55.2265 0.
-43.5363 -52.4816 0.
-18.3602 -45.3599 0.
-25.1113 -53.2468 0.
-0.0105082 -1.15215 0.
-0.00412946 -0.277348 0.
-9.23903 -17.7258 0.
0.0384161 0.0666951 0.
0.498785 0.762418 0.
1.04609 2.85057 0.
-19.5174 -53.6162 0.
0.614677 1.70255 0.
-0.063246 -5.40492 0.
-16.8541 -42.3209 0.
0.886403 2.14378 0.
-1330.01 -2686 0.
-0.0131468 -3.95996 0.
-91.8755 -230.419 0.
1.76062 4.71385 0.
-7.60127 -20.8166 0.
-135.239 -374.064 0.
19.3205 53.1773 0.
-377.998 -1046.94 0.
13.7559 37.6149 0.
26.6827 72.0654 0.
-343.184 -934.299 0.
-392.45 -1082.16 0.
-24.5031 -66.7614 0.
-588.641 -1630.32 0.
40.0625 110.923 0.
21.252 58.8641 0.
-50.074 -138.337 0.
5.72221 13.1739 0.
-208.678 -485.484 0.
-131.594 -291.838 0.
44.5796 113.414 0.
-538.047 -1485.7 0.
-23.0681 -63.883 0.
17.4719 48.3633 0.
-240.371 -664.295 0.
-0.531593 -108.764 0.
-454.908 -1251.89 0.
11.2372 30.2158 0.
-10.5664 -28.9547 0.
15.3047 41.9356 0.
2.73237 7.51213 0.
-64.0586 -176.452 0.
21.0115 57.1595 0.
-300.725 -832.893 0.
-4.89192 -13.4309 0.
10.8667 30.067 0.
-820.143 -2182.84 0.
3.63153 10.0534 0.
-0.679657 -1.74676 0.
-0.0309234 -8.8267 0.
-43.4875 -119.16 0.
1.1428 3.15645 0.
0.0363184 0.974694 0.
-1328.25 -3162.21 0.
0.894137 2.47509 0.
-1377.59 -2873.06 0.
-24.812 -59.1436 0.
-4.77951 -12.1339 0.
-2049.31 -4965.54 0.
0.462104 0.847199 0.
-1351.94 -3582.92 0.
0.234273 0.0104449 0.
-17.5945 -47.3801 0.
-1590.58 -4209.25 0.
-4.83837 -13.3042 0.
-6.19849 -17.1216 0.
-1254.55 -3311.36 0.
-185.495 -502.789 0.
-831.186 -2070.19 0.
-417.467 -1052.48 0.
-48.8768 -122.902 0.
-668.33 -1779.67 0.
-379.047 -1027.96 0.
-100.612 -269.233 0.
-481.281 -1281.38 0.
-333.817 -877.7 0.
-187.59 -472.787 0.
-374.48 -926.316 0.
-349.248 -846.759 0.
-214.042 -543.778 0.
-403.732 -873.531 0.
-464.357 -1050.42 0.
-138.674 -353.396 0.
-344.133 -935.665 0.
-551.543 -1515.98 0.
-35.2246 -78.991 0.
-397.641 -1083.49 0.
-784.687 -2099.67 0.
-52.305 -82.6476 0.
-457.786 -1049.32 0.
-992.685 -2339.68 0.
-99.232 -130.794 0.
-1422.37 -3658.15 0.
-1.5733 -3.28539 0.
-6.45623 -15.0073 0.
-1760.97 -4637.08 0.
-8.38369 -19.9924 0.
-52.0028 -101.742 0.
-1754.02 -3758.58 0.
-0.00174081 -1.09869 0.
-1793.79 -4309.41 0.
0.855961 1.40341 0.
-25.9156 -44.4251 0.
-1780.83 -3854.77 0.
1.01047 2.78834 0.
-879.46 -2340.23 0.
-0.000643906 -10.0758 0.
1.02815 2.79293 0.
6.79915 18.4721 0.
-0.0912481 -1.83941 0.
8.90434 24.5732 0.
-580.019 -1595.11 0.
14.8476 37.481 0.
6.99779 18.4481 0.
11.909 32.682 0.
-510.091 -1411.01 0.
-3.40575 -9.36506 0.
-1013.34 -2806.07 0.
-26.923 -73.7769 0.
2.48949 6.72689 0.
-458.995 -1249.94 0.
-480.607 -1322.53 0.
-18.36 -50.0135 0.
24.8632 67.4839 0.
-449.911 -1245.49 0.
-2.11486 -5.85689 0.
-117.082 -322.62 0.
-24.7915 -56.6276 0.
-90.6582 -208.954 0.
-1071.58 -2605.51 0.
30.9565 82.6142 0.
4.06584 11.196 0.
2.99334 8.29015 0.
-644.083 -1782.86 0.
-12.7559 -34.4047 0.
-646.927 -1768.53 0.
29.4649 78.1337 0.
11.2562 30.1408 0.
-540.203 -1477.95 0.
-19.0072 -50.7492 0.
-357.833 -981.373 0.
-35.8507 -98.5126 0.
-50.6584 -137.56 0.
-355.082 -981.951 0.
18.1641 47.4908 0.
-676.731 -1843.54 0.
-66.9284 -180.094 0.
-0.00163354 -27.374 0.
6.96698 18.3777 0.
-928.827 -2405.41 0.
7.22867 19.4135 0.
-1680.28 -4119.38 0.
-0.0315911 -6.17872 0.
0.0456796 1.30015 0.
1.76499 4.86616 0.
-88.547 -214.455 0.
-6.21988 -15.9409 0.
-0.0165273 -1.34802 0.
0.0815565 0.188101 0.
-0.0512096 -0.634708 0.
-3.47747 -5.52522 0.
-1.95737 -3.81621 0.
-24.6831 -54.6593 0.
-0.0259299 -0.156036 0.
0.193918 0.468735 0.
-2.17123 -5.88086 0.
-359.786 -988.624 0.
-5.1777 -14.1627 0.
-332.243 -807.719 0.
-5.05 -10.0497 0.
-8.73879 -11.2303 0.
-372.99 -1014.56 0.
-94.3448 -251.641 0.
-0.755773 -1.27994 0.
-353.616 -920.394 0.
-214.761 -533.997 0.
-113.628 -250.534 0.
-304.523 -736.272 0.
-278.401 -652.43 0.
-37.3247 -102.35 0.
-314.97 -639.989 0.
-372.099 -804.042 0.
-50.673 -58.87 0.
-175.93 -431.924 0.
-381.496 -1014.36 0.
-10.3284 -26.6604 0.
-12.8945 -27.7551 0.
-393.735 -1038.11 0.
-13.2827 -30.5693 0.
-11.9824 -26.4784 0.
-305.34 -644.899 0.
-30.462 -32.7103 0.
-337.855 -671.559 0.
-0.0148935 -0.0413425 0.
-2.1848 -4.31738 0.
-12.8099 -35.3094 0.
0.0201464 0.383181 0.
-0.000109199 -0.0290534 0.
-8.74555 -23.6948 0.
-0.00126729 -1.96157 0.
-0.0730453 -2.25087 0.
0.0532075 0.100249 0.
-10.1778 -19.5057 0.
-42.5529 -82.6984 0.
-0.333902 -0.924683 0.
-228.468 -629.995 0.
-0.000715653 -0.859401 0.
-1811.87 -4599.24 0.
-0.382343 -18.403 0.
-0.613146 -14.7984 0.
-0.340183 -23.6744 0.
-227.311 -629.59 0.
-276.369 -735.843 0.
11.4988 29.8081 0.
9.49477 26.1029 0.
-414.499 -1147.19 0.
-30.5941 -84.5254 0.
24.3613 63.7407 0.
-128.129 -350.151 0.
-14.139 -38.2165 0.
-734.077 -1967.4 0.
1.11394 2.96979 0.
-301.646 -822.29 0.
-0.975689 -113.129 0.
-35.4273 -98.0579 0.
-28.6285 -79.246 0.
-14.0941 -39.0272 0.
-0.622325 -126.691 0.
6.27432 14.3122 0.
-1.03234 -111.398 0.
-3.20693 -8.49785 0.
28.1724 77.7349 0.
11.29 31.27 0.
13.8603 38.3541 0.
23.0844 62.3239 0.
-199.549 -544.844 0.
-21.4888 -56.9567 0.
-20.1666 -53.7665 0.
-0.748095 -1.98214 0.
14.7288 39.2229 0.
-1025.81 -2805.34 0.
-26.3904 -70.7749 0.
-160.551 -435.155 0.
-234.616 -646.906 0.
15.5861 42.667 0.
-385.842 -1059.89 0.
10.4883 28.9207 0.
-8.43115e-05 -17.5257 0.
-4.13615 -11.456 0.
-193.573 -519.347 0.
6.18448 17.074 0.
4.069 10.6022 0.
0.000557047 7.67877 0.
3.31823 8.51187 0.
0.00693985 1.76911 0.
-82.0225 -209.2 0.
0.0331332 0.088618 0.
-42.0041 -115.25 0.
-1536.54 -4255.56 0.
0.443697 1.22163 0.
-1556.62 -2578.4 0.
-6.09356 -8.17811 0.
-2.33069 -3.10562 0.
-1567.84 -4228.87 0.
-0.00807438 -0.339712 0.
0.242953 0.532224 0.
-1304.97 -3506.06 0.
0.0215145 0.130745 0.
-936.772 -2247.9 0.
-383.977 -930.147 0.
-11.4671 -19.6308 0.
-785.908 -2085.27 0.
-348.321 -942.84 0.
0.185973 0.34496 0.
-541.866 -1418.84 0.
-329.076 -858.88 0.
-123.076 -292.13 0.
-372.556 -980.886 0.
-315.746 -816.257 0.
-120.171 -280.75 0.
-358.693 -804.452 0.
-486.738 -1140.56 0.
-55.9783 -89.7859 0.
-336.025 -884.884 0.
-632.113 -1669.2 0.
-7.23783 -19.0032 0.
-348.908 -916.47 0.
-939.99 -2468.02 0.
-3.42258 -7.26433 0.
-378.94 -792.827 0.
-1056.59 -2374.85 0.
-2.814 -7.59723 0.
-1480.21 -3658.15 0.
0.180582 0.429347 0.
0.101777 0.260389 0.
-1779.28 -4707.2 0.
0.079923 0.216135 0.
-17.5295 -47.7356 0.
-1603.7 -2769.15 0.
0.966576 2.67614 0.
-1513.06 -4176.2 0.
-0.258298 -2.05664 0.
-0.719315 -1.53254 0.
-24.6326 -52.2045 0.
0.442004 1.21762 0.
1.55937 4.3172 0.
-0.00016759 -5.5631 0.
-24.2722 -65.1664 0.
-0.2168 -26.5747 0.
-1380.29 -3604.03 0.
13.2852 34.162 0.
-122.815 -337.715 0.
-42.1423 -113.108 0.
-469.813 -1265.94 0.
7.18123 19.7707 0.
-126.732 -350.87 0.
-216.175 -595.304 0.
-0.407859 -1.06266 0.
-261.75 -712.972 0.
23.869 64.4976 0.
4.071 10.8841 0.
-18.7619 -49.9359 0.
-859.383 -2345.91 0.
39.1818 106.338 0.
-6.78602 -18.0893 0.
-172.165 -476.111 0.
17.9707 49.7678 0.
-0.114603 -50.7689 0.
30.4666 78.3668 0.
-21.4942 -57.867 0.
6.05244 15.9104 0.
-561.918 -1553.05 0.
3.8598 10.6909 0.
-0.140404 -86.2261 0.
-49.8005 -134.602 0.
-81.7974 -223.055 0.
-18.4929 -49.0066 0.
-674.144 -1788.01 0.
-2.51652 -6.65056 0.
11.4859 30.5069 0.
-10.7461 -28.2377 0.
-488.983 -1308.31 0.
-364.414 -985.914 0.
-8.6522 -23.5509 0.
-5.28491 -14.3955 0.
-187.58 -518.003 0.
-0.116486 -27.6134 0.
-964.327 -2663.69 0.
8.88408 24.6051 0.
-59.0665 -162.071 0.
-0.0170012 -26.2938 0.
-0.163091 -14.3635 0.
1.12236 2.99607 0.
-1712.9 -3766.12 0.
-0.0189598 -0.377353 0.
-1352.27 -2742.68 0.
1.89358 4.69359 0.
1.29832 3.59579 0.
-153.626 -386.608 0.
-0.158852 -1.46737 0.
-5.99135 -5.88648 0.
0.179221 0.0419941 0.
-0.00401252 -0.0646983 0.
-0.0022332 -0.198534 0.
0.00173527 0.0835684 0.
-0.0538844 -0.312158 0.
-173.724 -476.672 0.
-0.05592 -0.47753 0.
-228.539 -544.846 0.
-16.4711 -33.2826 0.
-11.4206 -20.7414 0.
-354.522 -967.659 0.
-0.0451788 -0.130464 0.
0.147899 0.251223 0.
-302.308 -825.578 0.
-109.945 -294.738 0.
-11.5563 -22.3852 0.
-207.887 -544.414 0.
-157.045 -418.668 0.
-71.927 -69.9399 0.
-174.264 -360.396 0.
-269.137 -626.59 0.
-11.8867 -28.5084 0.
-66.3318 -137.714 0.
-320.063 -839.258 0.
-9.75965 -22.7776 0.
-5.80667 -12.0778 0.
-346.293 -901.451 0.
-5.64797 -3.43606 0.
-6.96905 -6.20919 0.
-159.624 -296.061 0.
0.00236144 0.0374374 0.
-0.0207631 -0.180242 0.
0.142662 0.373316 0.
-0.00179065 -0.203608 0.
-58.3423 -159.532 0.
-0.00368288 -0.587037 0.
-0.00197379 -0.484026 0.
-16.8178 -44.1306 0.
-0.0142391 -1.68587 0.
0.835744 2.28739 0.
-21.9794 -60.6805 0.
-38.6102 -102.44 0.
-1367.47 -3394.66 0.
-0.493293 -1.33146 0.
-3.19666 -8.84696 0.
5.80326 16.0377 0.
-0.103246 -15.9287 0.
-0.0575662 -27.6651 0.
-118.334 -316.649 0.
0.469976 1.26205 0.
-383.1 -1036.11 0.
-5.52941 -14.9497 0.
-50.213 -136.194 0.
-255.02 -706.054 0.
27.8429 72.8264 0.
-279.823 -767.171 0.
-11.1097 -29.1088 0.
-850.613 -2307.2 0.
-20.8918 -56.3988 0.
-129.417 -345.436 0.
5.29333 14.0645 0.
-5.199 -13.893 0.
-512.017 -1390.36 0.
-1.2371 -77.1327 0.
-564.982 -1560.01 0.
-298.185 -824.35 0.
-0.0403553 -72.4973 0.
-64.4055 -165.455 0.
-329.087 -879.313 0.
-143.843 -374.576 0.
-740.87 -2050.37 0.
-0.0858315 -0.233725 0.
35.5924 98.1915 0.
-456.253 -1234.73 0.
8.32232 21.7355 0.
-8.96361 -23.7572 0.
-16.9915 -44.7936 0.
-70.4944 -185.838 0.
-181.933 -482.074 0.
7.04244 18.4547 0.
-8.34612 -21.9906 0.
-677.545 -1829.76 0.
-128.038 -346.581 0.
7.37062 19.961 0.
8.79042 24.3376 0.
-0.19877 -0.542732 0.
-361.917 -1000.68 0.
-3.32989 -9.21814 0.
-24.4353 -67.6318 0.
-0.0162676 -26.051 0.
-1068.48 -2883.62 0.
-0.0573451 -9.73587 0.
3.4797 8.4815 0.
5.09925 13.5357 0.
3.64613 7.71397 0.
-0.194396 -4.83201 0.
-0.00710816 -6.27293 0.
-224.951 -492.043 0.
1.00854 1.76234 0.
0.384656 0.0694874 0.
0.233819 0.312448 0.
-0.0235115 -0.167127 0.
-0.37166 -0.820665 0.
-0.0142087 -0.0393554 0.
0.0506286 0.0752048 0.
0.00783474 0.0709505 0.
-0.00179327 -0.0182939 0.
-22.1419 -48.9189 0.
-16.4794 -35.4915 0.
-11.325 -22.7108 0.
-3.19151 -5.14755 0.
-0.0880149 -0.204768 0.
0.19262 0.301596 0.
-118.97 -316.96 0.
-9.51004 -23.8814 0.
-10.5686 -28.3471 0.
-132.186 -328.818 0.
-95.3782 -234.763 0.
-40.3419 -38.9496 0.
-75.4464 -96.0902 0.
-133.377 -263.158 0.
-22.6106 -33.5474 0.
-17.1918 -30.3686 0.
-98.5772 -191.229 0.
-21.3626 -35.0203 0.
-14.7581 -20.3015 0.
-14.3657 -17.3128 0.
-14.2284 -12.0617 0.
-21.1055 -27.8371 0.
-48.8107 -60.0151 0.
-0.00139989 -0.0440182 0.
0.373675 0.892152 0.
-8.27026e-05 -0.269937 0.
0.118476 0.327934 0.
-14.7266 -39.2609 0.
5.37101e-05 0.0120264 0.
-0.00095851 -0.422577 0.
-3.47749 -9.15721 0.
-0.0146869 -0.532632 0.
-0.0252224 -1.44343 0.
-0.00400726 -2.9643 0.
-0.112231 -0.299971 0.
-0.343043 -12.1719 0.
-0.0189251 -8.68904 0.
-1353.38 -3396.43 0.
-0.142154 -11.4458 0.
-979.373 -2505.13 0.
2.14246 5.93312 0.
-32.9429 -89.6516 0.
-3.84476 -10.3387 0.
-263.549 -724.93 0.
8.30166 22.5849 0.
15.0581 41.0887 0.
-261.695 -724.73 0.
2.79595 7.23888 0.
-464.518 -1266.19 0.
-3.73802 -9.73538 0.
-281.041 -759.225 0.
-1.71492 -4.62598 0.
-2.37624 -88.8743 0.
-137.65 -365.164 0.
24.5632 65.5528 0.
-417.244 -1133.83 0.
-2.91984 -7.79648 0.
-0.434343 -98.3388 0.
-201.372 -554.31 0.
-0.000525546 -110.022 0.
-469.57 -1205.64 0.
16.5436 45.4881 0.
21.4921 57.6256 0.
-1.86663 -5.06285 0.
-0.373768 -1.01803 0.
-529.271 -1460.3 0.
20.8996 53.7335 0.
16.3216 42.6572 0.
-278.011 -736.878 0.
-1.35901 -3.48716 0.
-121.483 -319.448 0.
24.9839 62.6062 0.
26.6719 69.6974 0.
0.81261 2.1349 0.
22.3775 59.1899 0.
-453.921 -1220.18 0.
-338.837 -910.711 0.
-42.6292 -116.396 0.
-7.8181 -21.2544 0.
-7.9251 -21.9351 0.
-0.0145752 -26.4416 0.
-911.139 -2521.61 0.
-1.42252 -3.92599 0.
1.54217 4.21047 0.
-0.0102125 -9.32923 0.
-0.495901 -15.6488 0.
0.0152368 2.78003 0.
-0.0640718 -15.3523 0.
-1546.11 -4078.93 0.
0.051742 1.81537 0.
-1216.39 -2469.55 0.
0.751864 1.7401 0.
-1324.09 -2640.39 0.
0.938848 1.36657 0.
0.0750499 0.394291 0.
-1508.94 -4116.27 0.
-0.0102306 -0.00336148 0.
-0.198522 -0.0187321 0.
-1319.71 -3401.56 0.
3.04813e-05 0.602213 0.
-1007.88 -2415.65 0.
-299.58 -739.617 0.
-4.73423 -11.852 0.
-974.797 -2602.63 0.
-243.988 -668.968 0.
-5.08081 -8.53411 0.
-681.52 -1845.67 0.
-326.08 -895.417 0.
-7.8084 -21.5374 0.
-463.391 -1230.26 0.
-396.829 -1063.92 0.
-78.8175 -109.773 0.
-373.527 -927.777 0.
-592.858 -1529.25 0.
-11.776 -21.8674 0.
-304.288 -766.636 0.
-806.905 -2086.08 0.
-4.44245 -6.0771 0.
-235.894 -544.206 0.
-1145.11 -2993.22 0.
-15.8666 -12.4175 0.
-293.198 -586.182 0.
-1044.32 -2345.1 0.
-9.13495e-05 -0.299185 0.
-1429.22 -3613.32 0.
0.124668 0.314956 0.
0.155143 0.421327 0.
-1145.2 -2694.03 0.
0.569563 1.54422 0.
-1707.31 -4106.03 0.
-0.00811372 -0.232201 0.
-0.285548 -0.78565 0.
-961.181 -2576.03 0.
-22.9937 -52.0317 0.
-0.0304417 -2.28978 0.
-0.0297441 -1.15389 0.
5.64042 15.6161 0.
10.754 29.7023 0.
9.45321 25.8914 0.
-35.5767 -93.5291 0.
-653.097 -1786.85 0.
-18.3623 -50.4814 0.
-1.8983 -5.10996 0.
10.6039 28.9865 0.
-423.463 -1169.19 0.
-0.324954 -25.6684 0.
-399.219 -1103.46 0.
18.9752 50.8702 0.
-99.2764 -268.807 0.
-12.233 -31.6588 0.
12.8107 32.9596 0.
-86.2125 -232.425 0.
-0.0148897 -0.0386709 0.
-109.841 -290.909 0.
-23.1618 -61.7387 0.
7.76557 20.9366 0.
-1.39888 -93.7282 0.
11.3634 31.1715 0.
-1.47393 -4.06953 0.
-0.38375 -51.5997 0.
-11.3847 -30.2542 0.
2.68427 7.37242 0.
19.2978 51.2741 0.
14.7543 40.386 0.
-8.64082 -23.5476 0.
-261.302 -721.237 0.
20.0782 51.605 0.
-149.487 -391.016 0.
-14.1661 -36.8403 0.
-2.32453 -5.9576 0.
-487.435 -1279.24 0.
-3.62253 -76.5444 0.
-320.658 -835.688 0.
17.4176 45.6234 0.
-11.5924 -30.632 0.
-9.02997 -23.8908 0.
-25.7331 -66.1489 0.
-703.739 -1914.75 0.
-0.431307 -43.3521 0.
-0.00317011 -39.6447 0.
9.57537 26.4382 0.
-6.61442 -18.3208 0.
-0.996088 -2.74158 0.
-5.31045 -14.6415 0.
-0.000260944 -11.0147 0.
-1051.72 -2864.21 0.
3.14727 8.71222 0.
7.84602 21.6099 0.
-62.7435 -172.821 0.
4.2274 11.7089 0.
-0.00816505 -0.0781243 0.
0.0302205 0.698055 0.
-0.00756615 -0.997144 0.
-0.346699 -1.54611 0.
0.158251 1.91067 0.
-3.61323 -4.03691 0.
-0.838397 -0.384007 0.
0.011521 9.05142e-08 0.
0.334912 0.325625 0.
0.127245 0.686285 0.
-33.4166 -91.3886 0.
-0.14664 -0.232175 0.
-0.0144425 -0.0413622 0.
-183.168 -504.032 0.
-8.2212 -16.6481 0.
-9.90649 -18.9038 0.
-277.512 -744.609 0.
-7.01177 -19.0876 0.
-7.46113 -20.6359 0.
-212.052 -520.332 0.
-150.062 -349.3 0.
-26.7529 -40.2186 0.
-83.0408 -117.19 0.
-253.37 -594.918 0.
-13.9878 -34.2573 0.
-5.08768 -7.85679 0.
-190.154 -408.828 0.
-8.29898 -12.8244 0.
-8.48577 -3.1316 0.
-208.078 -448.533 0.
-19.4805 -15.1434 0.
-28.6572 -28.5811 0.
-39.6727 -47.5931 0.
-0.00026153 -0.196652 0.
-1.13072 -3.0783 0.
0.162897 0.434288 0.
-0.000196626 -0.294249 0.
-0.00174539 -0.178496 0.
-0.0759231 -1.95654 0.
-0.0153253 -1.73701 0.
-0.216478 -5.14387 0.
0.547738 1.48868 0.
1.67288 4.63256 0.
-0.243876 -5.43868 0.
-1243.73 -2633.06 0.
-0.0868118 -6.38099 0.
-923.578 -2386.03 0.
0.00617237 1.43193 0.
-0.0282199 -24.8196 0.
5.7424 15.8799 0.
-268.071 -740.255 0.
-9.10058 -24.8298 0.
-2.08575 -5.61881 0.
10.0929 27.4533 0.
-382.717 -1053.78 0.
-9.69863 -26.2381 0.
-674.148 -1856.05 0.
3.36846 9.00553 0.
-9.80384 -26.3243 0.
-496.911 -1277.42 0.
-21.5058 -56.2526 0.
-19.8616 -53.529 0.
-18.7122 -48.4805 0.
3.18266 8.15162 0.
-832.888 -2217.59 0.
-1.01243 -101.992 0.
-4.24929 -11.381 0.
-489.382 -1343.88 0.
-11.6873 -31.7209 0.
-0.272563 -76.2295 0.
12.8552 34.082 0.
16.0901 44.1321 0.
-0.728014 -64.88 0.
-247.145 -681.234 0.
-160.012 -436.374 0.
2.4997 6.67419 0.
-149.889 -385.154 0.
-245.974 -644.109 0.
-7.64031 -19.8501 0.
-547.457 -1401.09 0.
-5.9699 -14.7492 0.
-3.80755 -75.5586 0.
-244.359 -635.064 0.
26.2123 67.2609 0.
-5.41341 -14.2899 0.
-8.6664 -22.9049 0.
-44.1027 -112.873 0.
-2.08155 -5.23649 0.
13.5516 36.462 0.
-517.917 -1431.93 0.
12.829 35.2816 0.
-2.6904 -7.44887 0.
7.67447 21.057 0.
-295.294 -814.129 0.
-7.68685e-05 -21.1843 0.
2.56543 6.93791 0.
1.38481 3.83297 0.
-0.0415066 -22.091 0.
-108.582 -298.708 0.
-0.204322 -9.23415 0.
0.0581444 0.799723 0.
0.033777 1.07154 0.
-0.0124968 -3.29775 0.
-1354.41 -3647.71 0.
-0.0746732 -2.86154 0.
-921.476 -1932.99 0.
-5.65344 -7.01568 0.
-16.8317 -34.5342 0.
-1190.14 -3170.18 0.
0.0350931 0.0959873 0.
-926.85 -2089.39 0.
-217.084 -471.77 0.
-5.9355 -16.4224 0.
-1035.89 -2822.99 0.
-102.107 -281.938 0.
-1.82578 -5.02613 0.
-807.82 -2129.53 0.
-278.759 -757.963 0.
-13.7483 -33.7619 0.
-553.064 -1407.87 0.
-473.4 -1222.37 0.
-11.6015 -24.6324 0.
-358.429 -891.017 0.
-696.682 -1808.09 0.
-8.95894 -12.5307 0.
-233.137 -528.381 0.
-948.066 -2434.2 0.
-2.91256 -7.66582 0.
-4.85523 -12.9568 0.
-999.433 -2474.78 0.
-140.846 -205.457 0.
-1235.71 -2675.59 0.
0.0603354 0.294755 0.
0.174681 0.476525 0.
-1260.94 -3308.98 0.
0.236483 0.652046 0.
0.22804 0.62993 0.
-1124.41 -2496.29 0.
0.464462 1.27452 0.
-0.113814 -0.296036 0.
2.96857 7.39724 0.
2.68123 7.19674 0.
2.03923 5.63964 0.
4.20217 11.0103 0.
1.04246 2.40405 0.
-0.0537342 -17.2692 0.
2.32165 6.196 0.
1.85439 5.12253 0.
-852.867 -2344.68 0.
-0.14072 -37.9754 0.
-1.12722 -3.12215 0.
-0.258227 -45.2522 0.
-461.831 -1265.84 0.
-0.399624 -40.1867 0.
-330.248 -906.195 0.
-3.29726 -8.90036 0.
-56.4928 -154.72 0.
-71.9338 -191.761 0.
-4.40099 -11.6594 0.
-526.86 -1344.56 0.
-71.6464 -187.273 0.
19.759 51.1264 0.
-1017.48 -2626.45 0.
21.7319 55.5302 0.
-161.324 -428.916 0.
-120.005 -325.96 0.
-7.49797 -19.7835 0.
-13.9341 -38.31 0.
18.3312 49.8448 0.
-8.84718 -24.4458 0.
-11.9674 -31.6496 0.
-275.816 -755.348 0.
-8.56304 -23.3902 0.
13.6577 36.8929 0.
9.47757 24.668 0.
4.80564 12.1611 0.
-164.516 -422.709 0.
-3.24927 -89.0005 0.
1.80399 4.68259 0.
-182.695 -467.221 0.
15.2617 37.445 0.
-8.91282 -21.9104 0.
24.486 62.3624 0.
-1.83962 -4.68342 0.
-623.823 -1645.22 0.
7.00071 18.0542 0.
-66.7936 -170.157 0.
-5.71264 -14.3014 0.
-181.932 -487.086 0.
-1.64562 -4.35806 0.
-0.207521 -39.8131 0.
-0.429093 -40.5755 0.
-495.337 -1370.09 0.
-1.61868 -4.43669 0.
4.10674 11.368 0.
8.84958 23.8139 0.
-0.00723945 -21.1997 0.
-0.012532 -8.31834 0.
-947.058 -2501.17 0.
-0.0262938 -9.04752 0.
-1096.65 -2761.15 0.
-27.5506 -75.6103 0.
-14.8682 -40.9191 0.
0.776283 2.1452 0.
-0.00451507 -3.38733 0.
-20.5497 -54.5165 0.
-0.561874 -0.944886 0.
-9.67221 -25.4527 0.
0.273902 0.750195 0.
0.277903 0.738895 0.
-5.9916 -16.4 0.
-3.16615 -8.49858 0.
-5.19155 -14.3644 0.
-159.47 -439.72 0.
-4.44171 -10.7861 0.
-3.73187 -8.60541 0.
-77.9388 -211.147 0.
-1.58342 -4.25496 0.
-6.56553 -18.1632 0.
-113.137 -181.695 0.
-19.6521 -39.4538 0.
-8.08234 -22.3354 0.
-3.37478 -9.17282 0.
-90.2007 -135.445 0.
-15.5909 -16.2304 0.
-14.16 -16.4081 0.
-90.4952 -65.6672 0.
-14.7358 -22.1397 0.
-6.37534 -16.8413 0.
-10.0188 -27.035 0.
-18.0936 -23.9368 0.
-267.602 -594.507 0.
0.103497 0.159262 0.
-0.0211693 -0.219908 0.
-4.50469 -10.9857 0.
0.294724 0.816322 0.
-0.00376332 -0.698422 0.
0.528889 1.38152 0.
-0.00860294 -1.99022 0.
-1289.08 -3345.3 0.
0.638885 1.73868 0.
0.376987 0.98837 0.
-1046.91 -2628.49 0.
-0.528646 -15.4261 0.
-0.471734 -8.03461 0.
5.12465 14.1932 0.
0.279249 0.761843 0.
-3.09598 -8.57123 0.
-406.634 -1122.54 0.
-4.87173 -13.3635 0.
-10.9194 -30.194 0.
13.689 37.4541 0.
-297.506 -816.156 0.
-3.93499 -10.6271 0.
-186.862 -510.726 0.
-4.9473 -13.3226 0.
-10.5299 -28.3467 0.
-419.625 -1115.27 0.
-77.575 -204.894 0.
-3.43885 -64.1176 0.
-744.106 -1945.29 0.
12.6063 32.5983 0.
-314.742 -811.133 0.
-19.7585 -50.3642 0.
14.3578 36.3097 0.
-376.014 -1025.59 0.
26.8071 71.1327 0.
-0.647233 -70.7127 0.
28.9751 76.4818 0.
16.8987 46.8056 0.
3.80394 10.4868 0.
1.8993 5.24878 0.
9.99655 26.6094 0.
-19.8153 -53.9466 0.
11.5953 30.3126 0.
2.13446 5.40215 0.
9.52579 23.4135 0.
-4.77211 -12.1529 0.
-353.087 -915.916 0.
8.02484 19.2393 0.
-401.211 -985.578 0.
-69.0759 -168.622 0.
-10.1647 -25.6862 0.
-401.622 -1014.86 0.
-4.73836 -12.1775 0.
2.44464 6.27808 0.
-542.885 -1374.64 0.
-2.24882 -5.63362 0.
-273.198 -729.913 0.
-7.13424 -18.8535 0.
0.81471 2.21409 0.
8.73266 23.8965 0.
-187.13 -515.791 0.
5.63612 15.3242 0.
3.04825 8.4245 0.
12.2432 32.8168 0.
-867.6 -2333.76 0.
9.21448 25.1754 0.
0.798444 2.19648 0.
-0.116813 -17.2481 0.
0.30994 0.809337 0.
-0.611052 -1.67819 0.
0.973929 2.68745 0.
-0.023898 -3.40505 0.
2.03474 5.21397 0.
-18.4376 -48.8516 0.
-0.0905801 -0.241586 0.
-5.95865 -13.1979 0.
0.310121 0.832056 0.
-0.0374839 -1.17301 0.
-0.0705431 -1.09216 0.
-7.47604 -20.6892 0.
-10.1253 -27.9444 0.
-12.2239 -29.5444 0.
-8.26252 -17.2728 0.
-8.45603 -19.3198 0.
-7.24457 -19.5293 0.
-1.91676 -4.00964 0.
-3.2372 -6.93182 0.
-56.0544 -64.408 0.
-50.9531 -54.6291 0.
-8.7189 -21.762 0.
-0.000545849 -0.14305 0.
-0.0824155 -0.226044 0.
-37.3725 -36.5736 0.
-31.4175 -28.6307 0.
-29.3724 -24.9443 0.
-35.9688 -31.1545 0.
-19.4067 -28.6001 0.
-12.5546 -31.4898 0.
-20.3619 -25.6131 0.
-10.5903 -6.66891 0.
0.227899 0.293442 0.
0.0654154 0.112988 0.
-4.29459 -8.66098 0.
-0.00113521 -0.788113 0.
-0.014131 -1.29359 0.
0.539668 1.38566 0.
-0.00500081 -0.382709 0.
2.86206 7.84735 0.
3.25184 8.94715 0.
-0.0866515 -6.16502 0.
6.14867 16.8423 0.
0.502336 1.33595 0.
-868.731 -2236.78 0.
6.05008 16.7571 0.
4.62621 12.7632 0.
3.20601 8.87971 0.
-6.75812 -18.7006 0.
-0.19028 -36.6515 0.
-503.567 -1385.8 0.
14.1874 38.8668 0.
-230.948 -634.174 0.
13.482 36.3032 0.
-16.0618 -43.4363 0.
8.19511 22.0141 0.
-263.734 -708.083 0.
2.58605 6.57325 0.
-460.817 -1213.29 0.
-3.90396 -74.3478 0.
-355.567 -928.668 0.
-18.2536 -47.1782 0.
34.1896 83.5143 0.
-167.994 -427.09 0.
29.6121 74.9122 0.
-4.48138 -81.0528 0.
-467.456 -1249.25 0.
-11.2979 -30.7254 0.
-12.6641 -33.5729 0.
5.43815 14.963 0.
15.3907 41.547 0.
-37.7521 -103.858 0.
0.506304 1.36263 0.
29.4937 74.9808 0.
-240.274 -631.377 0.
-3.13664 -7.41773 0.
-10.6948 -26.4163 0.
-30.6961 -78.1404 0.
-4.19226 -70.216 0.
3.08108 7.40614 0.
-352.78 -868.561 0.
22.3648 53.1121 0.
-105.81 -265.164 0.
-151.644 -379.36 0.
-47.592 -121.793 0.
-57.3814 -146.712 0.
-143.528 -361.929 0.
4.3668 10.904 0.
-375.439 -1000.81 0.
6.74496 17.7851 0.
-377.049 -1031.93 0.
-5.81149 -15.9069 0.
-9.51919 -26.1021 0.
5.70895 15.3774 0.
-583.452 -1614.87 0.
-3.06125 -8.44764 0.
3.16665 8.65813 0.
-0.0302873 -30.9456 0.
6.86667 19.0024 0.
0.0166023 1.63092 0.
-0.129071 -5.90339 0.
-0.0121778 -3.51372 0.
-0.124362 -5.41377 0.
-683.077 -1847.97 0.
-0.00774567 -5.42926 0.
-896.113 -1824.43 0.
-31.9185 -69.018 0.
-21.7191 -50.9513 0.
-1146.65 -3105.25 0.
-0.000935284 -0.314408 0.
0.00408325 0.698026 0.
-1279.63 -2851.78 0.
0.0475194 0.1297 0.
-818.878 -2179.25 0.
-8.59332 -15.0928 0.
-10.8847 -21.0891 0.
-861.999 -2341.98 0.
-110.737 -299.332 0.
-15.7364 -39.5851 0.
-594.802 -1481.53 0.
-449.88 -1126.19 0.
0.0167027 0.038164 0.
-218.926 -477.746 0.
-801.592 -2083.71 0.
-18.6449 -15.9032 0.
-22.7649 -20.4906 0.
-1023.31 -2471.1 0.
-11.5847 -7.83664 0.
-0.142826 -0.0438115 0.
-1178.02 -2499.96 0.
-5.8816 -6.751 0.
-1157.09 -2625.55 0.
-0.283214 -0.659757 0.
-6.32314 -17.3923 0.
-1208.36 -3138.48 0.
0.76148 1.72497 0.
-0.405534 -2.26681 0.
-1193.16 -2200.93 0.
-0.00293998 -2.35418 0.
-649.934 -1800.2 0.
-0.00388095 -5.54528 0.
4.17433 11.3436 0.
8.79724 24.3467 0.
1.3756 3.74313 0.
0.103679 0.27429 0.
-3.45075 -9.55386 0.
-800.649 -2208.57 0.
4.57386 12.6683 0.
9.732 26.955 0.
-7.55809 -20.6158 0.
-254.316 -698.089 0.
-6.66942 -18.0467 0.
-162.637 -447.015 0.
18.5539 49.8017 0.
-97.6907 -263.397 0.
11.4617 30.7082 0.
-266.284 -713.114 0.
-2.46851 -60.2532 0.
-214.279 -562.356 0.
-89.9625 -222.298 0.
21.9129 55.4824 0.
-50.3566 -130.113 0.
-5.47051 -13.4687 0.
20.7769 48.7366 0.
-425.928 -1077.24 0.
31.7878 77.9268 0.
-3.37934 -74.7159 0.
-461.899 -1261.56 0.
-33.5869 -89.4775 0.
24.6751 68.168 0.
14.859 40.4503 0.
10.019 26.6362 0.
-129.896 -353.172 0.
-155.926 -398.922 0.
-14.0324 -34.9238 0.
-4.75899 -67.9817 0.
-316.041 -785.365 0.
-7.00257 -16.4935 0.
-26.617 -64.5098 0.
-122.987 -296.507 0.
-10.5702 -24.4015 0.
-33.7281 -80.2763 0.
-341.822 -849.093 0.
-13.8881 -33.386 0.
-116.676 -297.256 0.
-267.172 -679.989 0.
8.2963 20.6442 0.
14.3637 35.746 0.
-231.261 -615.161 0.
15.674 41.4033 0.
-127.34 -348.574 0.
-5.90263 -16.1605 0.
-44.8721 -122.238 0.
14.9577 40.1172 0.
-125.301 -346.498 0.
12.3243 33.9629 0.
1.975 5.45094 0.
6.11725 16.9412 0.
2.28064 6.31657 0.
-711.4 -1949.15 0.
-0.00405195 -21.3521 0.
-838.333 -2143.02 0.
-0.0212444 -8.63506 0.
1.99862 5.52789 0.
-0.0101711 -3.27888 0.
-21.4758 -51.3927 0.
-6.86202 -17.6215 0.
-0.00365326 -1.13011 0.
0.268239 0.727066 0.
-0.00720606 -0.492138 0.
-0.022222 -0.940077 0.
0.0091818 0.321189 0.
-6.85258e-06 -0.10068 0.
-48.5469 -118.289 0.
-23.1285 -37.8727 0.
-15.9529 -29.2599 0.
-19.7465 -32.6247 0.
-16.9035 -29.3604 0.
-24.1297 -46.1914 0.
-19.681 -37.6145 0.
-3.59123 -7.73467 0.
-3.75868 -2.38792 0.
-4.41903 -3.81693 0.
-4.11017 -6.20293 0.
-21.0356 -22.7277 0.
-6.16343 -6.63823 0.
-6.54685 -7.20421 0.
-17.4596 -11.7504 0.
-1.93736 -0.712888 0.
-0.198587 -0.020087 0.
-14.6769 -14.8973 0.
-37.1856 -51.0357 0.
0.137642 0.336165 0.
-0.00162679 -0.00444236 0.
0.278925 0.762403 0.
-0.0894953 -1.65933 0.
-0.423093 -3.69999 0.
0.101833 0.201418 0.
3.59563 9.66211 0.
0.290031 0.797839 0.
-0.015177 -14.4142 0.
-773.64 -2039.54 0.
-0.122486 -21.8391 0.
-0.0531705 -22.6679 0.
2.91647 7.92569 0.
-2.81391 -7.77935 0.
-2.51647 -6.95635 0.
-12.2386 -33.8885 0.
-622.352 -1723.65 0.
6.9263 18.8327 0.
-144.767 -396.335 0.
14.1181 38.0704 0.
-46.904 -126.529 0.
1.72928 4.62579 0.
-388.454 -1043.84 0.
14.4134 37.6197 0.
-333.041 -889.436 0.
17.8674 44.7723 0.
9.0774 21.6537 0.
-776.653 -1926.07 0.
-2.29089 -55.8116 0.
-3.02543 -54.1054 0.
-995.302 -2466.21 0.
-13.6588 -32.3654 0.
13.616 31.3077 0.
-34.2115 -83.9598 0.
22.1017 55.8928 0.
29.5232 71.0377 0.
-75.1583 -201.345 0.
-199.56 -552.616 0.
-150.11 -411.788 0.
-4.45629 -11.5687 0.
8.79149 23.4997 0.
-3.52933 -58.7163 0.
-2.85635 -64.8155 0.
-4.68856 -70.2383 0.
29.2579 66.8247 0.
14.2036 33.3774 0.
-122.384 -296.068 0.
-5.48225 -60.2556 0.
-0.214864 -0.497286 0.
-226.17 -539.8 0.
-5.0882 -62.7545 0.
-77.6123 -187.445 0.
-347.618 -881.488 0.
6.20217 15.4099 0.
-0.6595 -1.63551 0.
-181.562 -450.372 0.
1.16161 3.07052 0.
15.813 41.5554 0.
-240.171 -657.544 0.
6.98431 19.127 0.
-249.623 -675.962 0.
-0.545651 -39.3291 0.
5.44047 15.0297 0.
6.15321 16.9318 0.
-0.00138446 -28.6803 0.
-287.881 -794.306 0.
-0.017588 -33.2481 0.
1.6665 4.59609 0.
2.26029 6.25838 0.
-0.290496 -15.516 0.
-2.18048e-05 -0.414216 0.
-5.81728e-05 -2.86975 0.
0.000678643 0.140134 0.
-5.96741 -15.7021 0.
-0.115959 -0.318011 0.
-45.2985 -112.573 0.
-458.574 -1250.92 0.
-0.143492 -0.393007 0.
-2.90997 -7.96233 0.
-882.822 -2409.53 0.
6.11122e-05 0.113915 0.
-881.564 -1923.04 0.
-9.76589 -20.1613 0.
-14.0719 -30.486 0.
-829.655 -2165.08 0.
-19.7298 -26.7375 0.
-16.5923 -17.7915 0.
-504.102 -1363.91 0.
-381.69 -985.499 0.
-59.593 -25.2031 0.
-141.555 -207.49 0.
-761.067 -1951.35 0.
-7.11461 -11.2288 0.
0.176719 0.0895296 0.
-986.98 -2271.6 0.
0.0330016 3.74265e-05 0.
0.0929524 4.48676e-07 0.
-990.178 -1890.61 0.
-6.98 -6.03475 0.
-916.748 -2360.36 0.
-0.00777912 -0.481498 0.
0.478367 1.31535 0.
-683.431 -1806.63 0.
1.37789 3.53738 0.
-0.111927 -1.45945 0.
0.270794 3.7082 0.
3.60266 9.28527 0.
-0.11646 -9.75189 0.
-0.0100276 -16.257 0.
0.246475 0.656608 0.
-0.0120288 -29.2725 0.
-710.494 -1940.13 0.
12.2623 33.9278 0.
-0.0587871 -35.3128 0.
10.2338 28.1978 0.
-24.9434 -68.9756 0.
-126.084 -342.999 0.
-22.6023 -61.7577 0.
-176.76 -482.478 0.
-2.24458 -6.03035 0.
-432.441 -1162.85 0.
-4.24601 -10.9135 0.
-278.747 -746.736 0.
10.9818 28.4874 0.
-1.84514 -55.5109 0.
-406.621 -1010.15 0.
-8.08614 -19.2327 0.
-8.78671 -20.4268 0.
-602.051 -1515.75 0.
0.923525 2.25127 0.
16.1498 37.2861 0.
24.2546 58.1172 0.
6.38688 14.6515 0.
37.6371 83.4183 0.
-413.491 -1058.03 0.
11.6987 28.5014 0.
-2.60372 -62.604 0.
-1.82655 -4.44482 0.
-8.36417 -22.5494 0.
-1.54155 -4.04825 0.
-0.0221244 -0.0596754 0.
-2.20613 -5.39557 0.
-201.82 -509.825 0.
4.2159 9.28804 0.
-11.4208 -26.1527 0.
-482.371 -1131.67 0.
14.4498 34.8849 0.
2.38357 5.44838 0.
-270.336 -627.829 0.
15.2519 33.9615 0.
-4.73889 -60.5006 0.
-337.883 -820.478 0.
19.3988 47.4114 0.
16.3671 40.6915 0.
-163.378 -403.745 0.
-8.13183 -19.8476 0.
5.87424 15.4496 0.
7.15257 18.6937 0.
5.24877 14.3759 0.
1.13671 3.09203 0.
-149.713 -405.074 0.
-6.64618 -17.8071 0.
-5.70573 -15.7456 0.
-8.21109 -22.7319 0.
6.64039 18.3641 0.
-194.101 -537.006 0.
-9.91886e-05 -22.3296 0.
-0.00800367 -21.2336 0.
2.68284 7.40998 0.
-0.146475 -19.6397 0.
-0.175584 -0.477974 0.
-832.916 -2021 0.
-23.9397 -62.2573 0.
-0.0217352 -10.7859 0.
-1133.37 -2791.68 0.
-0.000324168 -6.20194 0.
0.00347122 0.385906 0.
0.416573 1.14783 0.
-1.36731 -3.78313 0.
0.40601 1.11666 0.
-0.0245463 -1.04485 0.
-18.2658 -47.0309 0.
-3.90022 -7.64919 0.
-13.0723 -32.1631 0.
-14.966 -22.9977 0.
-7.62847 -7.78991 0.
-14.4047 -17.2174 0.
-6.90278 -9.36953 0.
0.0040022 0.0208501 0.
-11.9714 -4.63038 0.
-17.3675 -9.36226 0.
-22.2981 -18.6146 0.
-11.3089 -13.5513 0.
-3.72702 -2.36287 0.
0.22162 0.00394588 0.
0.244205 0.0904172 0.
-0.293969 -0.00127422 0.
-0.262126 -0.000333202 0.
0.335926 0.39935 0.
-13.6533 -23.7379 0.
1.41048 3.57824 0.
-0.00140607 -0.798774 0.
0.66671 1.82635 0.
-0.155251 -6.22415 0.
-1053.09 -2559.44 0.
5.89489 15.8421 0.
-0.00219733 -12.621 0.
-646.202 -1732.58 0.
-0.0104437 -26.3422 0.
-0.301598 -23.4181 0.
6.04126 16.7059 0.
1.52402 4.20917 0.
-4.68803 -12.9651 0.
-236.286 -654.117 0.
-94.2246 -259.428 0.
-47.5499 -131.184 0.
3.70464 10.0666 0.
-60.5931 -165.367 0.
15.0383 40.5333 0.
-9.8362 -26.3214 0.
-50.7024 -130.484 0.
12.8811 33.0397 0.
-53.2272 -131.962 0.
-121.791 -313.773 0.
-205.396 -495.453 0.
-7.00762 -16.7092 0.
-562.44 -1333.27 0.
30.3873 70.4253 0.
-14.666 -34.2185 0.
-249.249 -605.15 0.
-10.4785 -24.1021 0.
8.7502 21.3193 0.
-846.292 -1939.03 0.
13.9383 30.7952 0.
-11.4744 -27.3087 0.
-61.475 -151.735 0.
-127.358 -324.511 0.
10.7584 26.4692 0.
7.19865 19.4966 0.
4.41324 11.7214 0.
-167.561 -455.878 0.
-20.602 -50.8174 0.
7.83493 18.4776 0.
17.6054 38.874 0.
-1.00336 -2.27973 0.
8.01132 18.7362 0.
29.6062 65.24 0.
-670.848 -1533.84 0.
-38.94 -90.6949 0.
12.3952 27.3489 0.
-14.0576 -33.1035 0.
-11.6637 -27.2795 0.
-5.6783 -13.8913 0.
-311.822 -776.023 0.
-23.8551 -58.7419 0.
-5.50531 -13.4229 0.
-306.826 -802.486 0.
18.6979 48.5879 0.
-113.916 -308.834 0.
-56.6334 -153.513 0.
-18.4571 -50.0278 0.
-6.51536 -17.4471 0.
9.48231 25.6264 0.
-48.9046 -135.318 0.
4.10743 11.3491 0.
-92.3835 -255.878 0.
10.9234 30.2336 0.
-200.739 -556.008 0.
-11.9771 -33.1087 0.
-706.563 -1935.21 0.
-1.63993 -4.53054 0.
-89.2044 -228.487 0.
4.68831 12.6873 0.
4.64442 12.8587 0.
1.63499 4.41468 0.
3.08777 8.44041 0.
-0.0736599 -1.62179 0.
0.147454 0.388138 0.
-4.73861 -12.7847 0.
0.0707709 0.18497 0.
0.679967 1.6126 0.
-13.765 -33.6034 0.
-3.24292 -8.87574 0.
-18.7148 -51.4206 0.
-12.804 -19.4409 0.
-7.69442 -9.28948 0.
-16.1433 -25.051 0.
-6.74344 -7.04549 0.
0.0190085 0.0217228 0.
-17.2567 -6.68898 0.
-24.379 -12.3964 0.
-29.5049 -21.7408 0.
-15.3654 -15.6976 0.
-7.20561 -4.63038 0.
0.100447 0.08861 0.
-5.95441 -2.49878 0.
-0.273737 -0.00368575 0.
0.00218208 1.40005e-05 0.
0.581785 0.775499 0.
-0.161671 -0.551477 0.
1.62048 3.96743 0.
-0.00683011 -0.623097 0.
0.325722 0.90219 0.
3.40483 9.24187 0.
-0.183858 -5.4899 0.
7.29035 19.5074 0.
2.39116 6.62135 0.
7.58132 20.8004 0.
7.26823 19.6312 0.
-495.619 -1314.94 0.
8.1902 22.6396 0.
-0.568618 -1.57496 0.
6.34269 17.5322 0.
-199.83 -553.02 0.
-22.6502 -62.3515 0.
-197.154 -544.594 0.
3.00902 8.16543 0.
-180.378 -491.705 0.
2.16889 5.82446 0.
5.91198 15.8644 0.
-105.474 -270.865 0.
-150.693 -385.789 0.
-50.6309 -126.119 0.
-8.52829 -21.1343 0.
-490.179 -1185.66 0.
-3.73472 -55.5454 0.
18.7375 43.0326 0.
-383.72 -886.448 0.
0.0740009 0.173183 0.
-20.5995 -49.7833 0.
-156.714 -358.943 0.
1.03335 2.29373 0.
-80.0625 -182.718 0.
-113.238 -249.346 0.
-3.2024 -7.63575 0.
-0.683679 -1.58339 0.
-104.947 -270.201 0.
-4.89676 -12.1882 0.
-55.3916 -150.741 0.
-2.95251 -7.60144 0.
-1.28285 -2.8087 0.
1.10353 2.52699 0.
28.3027 60.2558 0.
-410.109 -908.929 0.
2.79656 6.33637 0.
24.0467 51.602 0.
1.40475 3.09776 0.
-249.197 -570.754 0.
29.6551 63.8271 0.
-686.946 -1499.95 0.
-9.25034 -20.9855 0.
-2.14325 -5.02476 0.
13.0316 31.9181 0.
-56.4578 -140.644 0.
16.1269 39.0024 0.
-172.076 -419.373 0.
-180.617 -469.738 0.
13.1266 33.305 0.
-130.881 -333.872 0.
-126.164 -340.649 0.
-72.2846 -195.141 0.
-0.552187 -41.4764 0.
-0.741779 -2.00445 0.
-145.352 -401.897 0.
-0.0591488 -40.5214 0.
-21.8014 -60.3569 0.
-31.2168 -86.239 0.
-187.727 -519.513 0.
-5.88995 -16.2375 0.
-39.1619 -108.156 0.
-0.00429682 -26.9437 0.
4.69594 12.8477 0.
3.26432 8.98373 0.
6.97989 19.2078 0.
-258.994 -695.879 0.
-0.00416912 -8.51477 0.
-904.192 -1689.71 0.
-0.0692493 -1.85354 0.
0.00273226 0.188658 0.
-797.202 -2176 0.
0.577117 1.31702 0.
-773.604 -1422.27 0.
-5.97637 -15.846 0.
-7.95903 -20.7859 0.
-744.059 -1889.12 0.
-16.0125 -38.6409 0.
-3.08639 -6.10331 0.
-414.943 -1083.87 0.
-346.497 -932.248 0.
-62.1676 -72.3057 0.
-60.807 -97.0025 0.
-624.537 -1577.99 0.
0.0146666 0.0109607 0.
0.202497 0.126275 0.
-850.598 -1958.74 0.
-2.25799 -1.1166 0.
-1.22704 -0.755919 0.
-767.368 -1464.64 0.
0.171354 0.449952 0.
-728.44 -1927.94 0.
-0.000268465 -1.61729 0.
-0.0248131 -1.62383 0.
-640.506 -1668.85 0.
1.38412 3.55044 0.
-0.103193 -5.77042 0.
0.0215764 1.36193 0.
6.43326 17.7866 0.
-0.00827172 -16.523 0.
8.75014 23.9804 0.
7.91059 21.3634 0.
11.0753 30.5457 0.
-462.339 -1278.19 0.
-5.66682 -15.655 0.
-135.297 -374.286 0.
-10.0722 -27.7212 0.
-145.08 -400.686 0.
-5.26905 -14.3403 0.
-72.997 -198.744 0.
-49.8478 -133.333 0.
-125.908 -336.587 0.
2.69617 6.97313 0.
-50.6276 -129.313 0.
-298.478 -747.411 0.
6.02837 15.0144 0.
8.34618 20.2522 0.
-244.445 -586.122 0.
10.5086 24.1676 0.
10.5973 24.4178 0.
-168.022 -394.779 0.
13.2479 29.8857 0.
-250.262 -570.923 0.
-577.312 -1273.78 0.
-40.3051 -83.8918 0.
-9.67968 -56.8773 0.
-21.8016 -52.1037 0.
5.87149 13.6246 0.
-6.67661 -16.5656 0.
15.7886 37.6683 0.
17.1425 46.0466 0.
16.599 43.3575 0.
-5.78969 -12.8714 0.
-95.6789 -222.505 0.
-74.474 -159.044 0.
31.2089 63.702 0.
21.787 44.9602 0.
-198.579 -424.878 0.
-69.6707 -153.817 0.
-0.839843 -1.78229 0.
1.04895 2.23459 0.
-117.756 -254.507 0.
-4.90245 -52.5619 0.
-342.521 -804.541 0.
9.84802 24.1544 0.
-2.24151 -5.46561 0.
6.91333 16.7043 0.
-114.8 -279.435 0.
-9.48447 -22.4728 0.
6.3333 16.0314 0.
-73.6583 -187.48 0.
-191.124 -513.824 0.
-40.7152 -108.512 0.
-0.522569 -39.043 0.
-7.06711 -19.0951 0.
-273.434 -755.335 0.
12.3856 33.9779 0.
-238.235 -658.982 0.
-22.4957 -62.1884 0.
-179.983 -497.182 0.
12.2765 33.723 0.
-17.5942 -48.7327 0.
-233.045 -645.449 0.
-0.00861214 -26.0349 0.
-693.828 -1880.03 0.
3.62366 10.0305 0.
0.866277 2.38696 0.
1.99211 5.47413 0.
0.90658 2.30415 0.
-0.0046351 -1.89021 0.
0.046512 1.60325 0.
-0.0779079 -0.339454 0.
0.0367102 0.453198 0.
-5.64723 -15.1779 0.
0.0627465 0.173565 0.
-0.011411 -0.186023 0.
-36.1045 -91.8587 0.
-7.85438 -14.6847 0.
-2.45113 -5.63995 0.
-35.6122 -28.0502 0.
-35.2107 -32.3661 0.
-26.0606 -42.6114 0.
-0.675617 -0.931032 0.
0.166321 0.178888 0.
-9.2136 -5.21555 0.
-11.0313 -5.18908 0.
-24.4296 -9.2485 0.
-0.116974 -0.0215728 0.
0.0957521 0.0650264 0.
-0.161434 -0.13794 0.
0.0251234 0.624567 0.
0.38841 1.07578 0.
-1.80263e-08 -0.508449 0.
-0.0167719 -1.81555 0.
2.41084 6.18689 0.
3.19256 8.70936 0.
-516.545 -1335.6 0.
9.24172 25.598 0.
-359.958 -990.035 0.
9.42483 26.0961 0.
9.77487 26.9984 0.
-2.86432 -7.83827 0.
8.44114 23.2115 0.
-15.6893 -43.29 0.
-8.43688 -23.1896 0.
-34.5438 -95.0067 0.
12.8824 35.4481 0.
-346.443 -956.65 0.
3.7514 10.1894 0.
3.62392 9.82166 0.
-37.4594 -99.7636 0.
-438.282 -1166.43 0.
-55.2477 -142.872 0.
-1.28478 -3.30057 0.
-212.289 -533.997 0.
-195.384 -489.099 0.
-7.37969 -17.5738 0.
10.4026 25.0372 0.
10.0051 23.0517 0.
16.1916 35.861 0.
-33.8149 -79.7964 0.
-820.823 -1858.44 0.
1.79272 3.8961 0.
-72.8465 -160.239 0.
6.8477 14.6091 0.
-16.217 -32.4873 0.
-13.3279 -25.6572 0.
-90.8222 -211.287 0.
8.83006 19.9293 0.
-8.04972 -19.5942 0.
-3.93206 -49.6916 0.
-0.753175 -39.1304 0.
-4.48468 -46.2508 0.
-251.356 -594.572 0.
-1.58131 -3.16104 0.
16.4149 33.6433 0.
-14.1839 -29.1433 0.
-45.2199 -96.3656 0.
-3.52611 -7.16347 0.
-239.033 -507.962 0.
-126.659 -266.726 0.
-12.2342 -24.8187 0.
15.6265 35.6634 0.
-158.732 -374.124 0.
6.15638 14.6285 0.
-33.9097 -82.8669 0.
-109.006 -273.462 0.
8.05615 18.8426 0.
-93.9308 -223.366 0.
-25.8264 -65.2177 0.
-0.582338 -1.4712 0.
-46.7105 -124.754 0.
-34.7561 -92.4676 0.
-257.073 -689.423 0.
-83.7713 -226.315 0.
-8.14878 -22.3048 0.
4.43128 12.1319 0.
-207.019 -572.895 0.
2.4417 6.75381 0.
-198.46 -546.78 0.
-135.863 -373.657 0.
-98.1297 -269.587 0.
-72.1143 -199.624 0.
-0.0463087 -26.7 0.
8.67599 23.7501 0.
-0.000137997 -11.675 0.
-0.00181134 -16.0381 0.
3.74843 10.0786 0.
-0.024078 -2.25679 0.
0.000865534 1.03147 0.
0.225817 5.26368 0.
-341.919 -752.025 0.
-10.8494 -27.3558 0.
-543.373 -1251.47 0.
-9.94288 -25.6856 0.
-0.0417716 -0.301504 0.
-537.94 -1421.03 0.
-6.43632 -15.3478 0.
-0.0194547 -0.00981859 0.
-290.861 -684.657 0.
-374.992 -933.822 0.
-31.8875 -12.3194 0.
-39.3438 -41.2321 0.
-500.527 -1231.45 0.
-82.245 -34.9419 0.
-34.9219 -13.9438 0.
-448.387 -824.055 0.
-0.0641552 -0.100342 0.
-640.865 -1599.27 0.
-0.197001 -4.33343 0.
-85.4542 -234.51 0.
1.20597 3.30344 0.
-0.00011748 -1.31059 0.
-0.0354662 -6.17284 0.
-0.310882 -19.2814 0.
-0.000524103 -11.0742 0.
0.147904 0.399877 0.
1.70416 4.71595 0.
-0.0282109 -23.1254 0.
10.3111 28.5094 0.
-264.486 -729.959 0.
5.71757 15.6802 0.
5.51925 15.122 0.
-5.43251 -14.89 0.
-3.76433 -10.3257 0.
-361.565 -984.307 0.
-0.408103 -40.9478 0.
1.28409 3.54504 0.
14.487 39.2652 0.
-219.725 -594.206 0.
16.1616 42.6414 0.
-3.30757 -8.68078 0.
-218.553 -565.07 0.
3.74828 9.62961 0.
12.7738 32.2126 0.
-105.779 -266.123 0.
-209.764 -501.096 0.
13.508 31.2858 0.
-167.015 -384.997 0.
-436.803 -965.357 0.
8.91422 19.0019 0.
-148.407 -337.807 0.
-6.47246 -55.649 0.
-8.33934 -49.7536 0.
0.611806 1.17622 0.
-328.141 -659.721 0.
-13.9399 -26.8865 0.
6.88586 14.7508 0.
-1.71394 -3.87593 0.
-105.342 -261.709 0.
-4.58755 -10.9626 0.
-0.50928 -22.6346 0.
-3.97262 -33.3497 0.
-0.671362 -1.54016 0.
3.10923 6.24106 0.
-370.191 -762.78 0.
30.2138 58.23 0.
-5.12019 -10.0075 0.
6.85985 13.9395 0.
-118.859 -252.912 0.
5.52643 10.7292 0.
-272.082 -551.994 0.
1.18397 2.71044 0.
-2.70692 -6.1162 0.
7.6085 18.1188 0.
-326.315 -799.482 0.
2.09839 5.04344 0.
16.6778 39.1465 0.
-409.993 -979.49 0.
-7.24106 -18.0507 0.
-6.80553 -17.1409 0.
-117.202 -312.448 0.
-29.5467 -78.4657 0.
-13.0588 -34.4881 0.
0.0772095 0.204523 0.
-187.161 -511.155 0.
-7.15009 -19.5318 0.
-68.032 -188.331 0.
12.4985 34.5872 0.
-5.20372 -14.3902 0.
-106.743 -293.428 0.
1.83784 5.04659 0.
-26.1537 -72.2146 0.
-0.111397 -27.6914 0.
3.82129 10.521 0.
-0.00869059 -24.0754 0.
-408.683 -1114.35 0.
-0.00445622 -13.0797 0.
-0.00473897 -1.43857 0.
-633.399 -1601.52 0.
-0.0294507 -9.59139 0.
1.04905 2.48092 0.
0.173547 0.471336 0.
-49.8948 -132.743 0.
-0.0482478 -0.494188 0.
0.468907 0.837191 0.
-28.3745 -68.0661 0.
-18.0475 -36.3112 0.
-14.8517 -20.786 0.
-31.2443 -32.7322 0.
-18.2169 -6.62833 0.
-18.9511 -9.4595 0.
-4.23538 -2.4636 0.
-7.47195 -5.23846 0.
-66.7601 -27.8947 0.
-12.4101 -5.91741 0.
-1.60318 -1.49141 0.
0.229178 0.560361 0.
-0.0590973 -0.366517 0.
0.0883382 1.38365 0.
2.1353 5.89155 0.
-282.429 -767.192 0.
4.17083 10.9855 0.
-544.519 -1301.99 0.
-0.0931675 -24.0452 0.
-313.051 -848.539 0.
-1.0752 -2.96135 0.
0.185955 0.513486 0.
-0.00689651 -24.8097 0.
2.98961 8.27937 0.
-141.718 -392.149 0.
-9.80853 -26.8815 0.
-53.0917 -145.657 0.
-7.81859 -21.3782 0.
-9.91162 -27.1266 0.
-1.36392 -3.68691 0.
-7.02771 -18.9732 0.
-137.75 -361.821 0.
-27.0025 -70.5961 0.
-138.699 -374.191 0.
-110.893 -292.559 0.
-0.150826 -0.395894 0.
-2.41526 -6.15213 0.
-11.2598 -28.9276 0.
-119.011 -299.975 0.
5.30388 13.1834 0.
-177.934 -426.294 0.
0.703971 1.63527 0.
6.14164 13.2763 0.
9.71061 21.5707 0.
26.8801 57.366 0.
15.5288 33.0798 0.
10.1408 22.2328 0.
-367.293 -732.49 0.
-9.47981 -18.1189 0.
0.984479 1.79575 0.
-95.1853 -183.956 0.
5.20228 11.0638 0.
1.03331 2.16663 0.
8.43264 20.2377 0.
-4.78589 -49.8644 0.
-5.25703 -39.0467 0.
-4.97733 -48.5938 0.
-10.1057 -19.871 0.
-119.284 -240.534 0.
6.2555 12.3464 0.
25.6178 49.0982 0.
-414.101 -806.756 0.
14.8771 28.5054 0.
-8.46346 -43.6294 0.
-8.68379 -45.921 0.
-36.4652 -74.1128 0.
0.036271 0.0793113 0.
-180.902 -408.031 0.
16.5162 39.4244 0.
6.23831 14.664 0.
-51.6507 -123.795 0.
19.165 45.1554 0.
-0.334073 -0.782785 0.
-10.877 -27.0255 0.
16.2831 40.8821 0.
5.5049 14.6502 0.
-9.57308 -24.9438 0.
-17.0228 -44.8605 0.
-20.0509 -53.0008 0.
-92.4776 -251.983 0.
-1.80529 -4.91958 0.
-5.98467 -16.1678 0.
-3.77861 -10.4357 0.
6.96895 19.2575 0.
-78.8754 -216.711 0.
-6.89652 -18.9263 0.
-19.4105 -53.3722 0.
-37.7172 -102.855 0.
-230.95 -638.267 0.
-2.66943 -7.39131 0.
1.76336 4.85722 0.
4.36455 12.0839 0.
-0.0529658 -7.06582 0.
-0.0907311 -9.03483 0.
1.83223e-05 0.048708 0.
-0.113213 -3.43254 0.
1.16413 3.21674 0.
-0.0651227 -3.18471 0.
0.310972 0.629789 0.
0.643918 1.05435 0.
-50.1799 -78.9228 0.
-42.5544 -55.6039 0.
-38.6135 -39.3939 0.
-20.2077 -34.0312 0.
-7.91399 -7.92869 0.
-41.8901 -28.7604 0.
-26.0789 -10.6039 0.
-35.0312 -17.6842 0.
-54.3456 -26.0669 0.
-0.0144677 -0.0862059 0.
-0.0289624 -0.0698428 0.
-0.00205746 -0.266698 0.
-0.0563862 -0.914856 0.
0.402083 5.50796 0.
-0.0100971 -0.970988 0.
-0.00387714 -4.17303 0.
-0.143429 -17.9164 0.
5.20953 13.1384 0.
-0.000888968 -22.191 0.
-17.1728 -47.3972 0.
-22.9624 -63.6019 0.
-12.6113 -34.9309 0.
-311.789 -863.601 0.
-0.00304844 -30.6288 0.
-96.1205 -266.232 0.
4.70033 12.8731 0.
-72.3713 -198.423 0.
7.93063 21.7309 0.
-3.13734 -8.60045 0.
-25.412 -68.5515 0.
-79.1627 -213.274 0.
-161.936 -423.102 0.
-23.1385 -60.4942 0.
-7.4467 -19.4818 0.
-95.9088 -253.063 0.
-32.1864 -84.4939 0.
-1.69069 -44.007 0.
8.93423 22.5242 0.
-361.986 -911.784 0.
5.605 13.9295 0.
5.57607 13.0447 0.
13.9615 32.5334 0.
-148.076 -321.738 0.
-5.64588 -38.8054 0.
23.4289 50.0469 0.
-537.383 -1137.18 0.
19.8706 40.2335 0.
26.5117 48.9678 0.
28.2826 53.6938 0.
-16.8952 -30.5133 0.
15.3457 27.4925 0.
-42.7812 -90.2902 0.
15.5968 32.45 0.
-92.1753 -228.767 0.
11.8255 27.8049 0.
-3.33227 -28.9174 0.
-58.562 -135.225 0.
-5.98434 -11.0292 0.
-9.6714 -46.7901 0.
24.5325 46.1333 0.
-204.974 -390.919 0.
-8.58033 -38.8644 0.
0.739751 1.39094 0.
-370.812 -698.265 0.
22.1098 41.5964 0.
4.18466 8.14864 0.
-5.77411 -12.6054 0.
-336.052 -756.319 0.
-5.09287 -11.7057 0.
-23.5885 -55.2735 0.
-201.793 -482.139 0.
19.2184 43.9904 0.
11.2869 26.4096 0.
-3.78901 -9.38214 0.
-149.064 -372.937 0.
-4.77453 -12.4333 0.
15.1061 39.3494 0.
-122.532 -322.198 0.
-58.9283 -155.427 0.
-1.14003 -38.6833 0.
11.6244 31.2473 0.
-6.48504 -17.5033 0.
-68.7368 -189.663 0.
-5.21895 -14.4092 0.
-61.7616 -169.6 0.
-2.60986 -7.11407 0.
-250.164 -684.545 0.
1.68604 4.5996 0.
-54.2176 -150.163 0.
-3.43449 -9.50612 0.
1.90239 5.2454 0.
-0.0387972 -25.2014 0.
7.85603 21.1524 0.
4.98903 13.7546 0.
5.05687 13.6687 0.
-377.79 -825.521 0.
-0.213538 -5.2007 0.
-0.0053562 -3.22524 0.
-620.932 -1423.4 0.
-0.0118282 -0.187142 0.
-265.617 -513.946 0.
-44.0839 -51.6865 0.
-109.295 -189.955 0.
-134.85 -313.907 0.
-314.874 -844.623 0.
-26.0844 -20.1285 0.
-23.8544 -13.6947 0.
-385.66 -920.193 0.
-12.8402 -12.5275 0.
-24.7965 -25.6662 0.
-387.482 -619.725 0.
-0.0051185 -1.67256 0.
-417.227 -1086.73 0.
-0.130383 -6.61168 0.
-0.0140894 -9.85408 0.
-266.851 -691.362 0.
6.99328 19.246 0.
4.02779 10.5433 0.
-0.115218 -27.1289 0.
-17.7427 -49.1257 0.
-14.0993 -39.0517 0.
1.11514 3.0887 0.
-4.10173 -11.3218 0.
-1.95443 -5.39746 0.
-58.7624 -162.351 0.
-3.83924 -10.5076 0.
-201.13 -551.059 0.
-6.38123 -17.4811 0.
10.1451 27.8051 0.
-4.15897 -11.264 0.
-42.068 -113.095 0.
-39.0626 -102.06 0.
-92.3462 -241.439 0.
-15.9256 -40.8054 0.
8.02873 20.4556 0.
-155.358 -407.859 0.
-223.024 -563.985 0.
3.80767 9.56349 0.
15.3808 37.8787 0.
-12.0076 -29.8363 0.
-140.256 -329.759 0.
16.1562 36.8909 0.
-302.912 -662.089 0.
-342.363 -714.241 0.
17.7345 35.4049 0.
3.62131 7.25528 0.
-10.1785 -20.4518 0.
22.2286 40.8862 0.
-8.74541 -35.8069 0.
-207.071 -370.113 0.
19.6483 34.8456 0.
18.4343 36.4574 0.
21.6331 42.0146 0.
-38.3274 -77.9583 0.
7.3938 18.0766 0.
5.7374 11.896 0.
7.64392 16.5655 0.
-3.84536 -6.97717 0.
-14.3229 -26.6703 0.
5.55628 10.3849 0.
18.5293 32.9448 0.
11.5026 21.112 0.
-21.1212 -38.8835 0.
-84.6962 -153.307 0.
8.09232 15.251 0.
-190.535 -371.839 0.
17.3704 38.1587 0.
-102.747 -224.707 0.
7.75554 17.7615 0.
-152.28 -355.539 0.
-3.67006 -8.38803 0.
16.3242 37.3 0.
-64.6467 -151.001 0.
-76.5404 -188.796 0.
-6.00102 -14.6086 0.
-8.04329 -20.9397 0.
3.11077 8.1009 0.
-58.5393 -152.497 0.
2.02351 5.23469 0.
7.40167 19.1653 0.
-1.26504 -3.39701 0.
-21.5761 -58.1803 0.
-232.383 -640.515 0.
6.43645 17.6267 0.
9.29429 25.2725 0.
3.83415 10.4346 0.
-45.9833 -125.867 0.
4.83845 13.204 0.
-78.067 -216.029 0.
-0.0520905 -26.571 0.
-0.170883 -32.138 0.
-200.84 -556.293 0.
-0.00494356 -27.845 0.
-207.609 -562.143 0.
-0.00240898 -13.1992 0.
-0.489883 -8.43703 0.
0.0107835 1.01983 0.
-0.0146963 -1.91122 0.
-0.000192147 -0.120136 0.
-0.0532264 -1.49025 0.
-11.2232 -18.4397 0.
-10.1206 -16.537 0.
-28.8151 -48.5695 0.
-50.5643 -74.623 0.
-15.2094 -14.2947 0.
-18.4316 -16.7147 0.
-12.5459 -9.89298 0.
-36.5286 -20.4913 0.
-0.0913974 -0.104442 0.
0.270854 0.296413 0.
-2.58677 -3.01577 0.
-0.019075 -3.86971 0.
-0.0112634 -1.48848 0.
-0.218546 -9.14621 0.
-0.000865288 -13.8665 0.
-0.102993 -8.16869 0.
-0.0675006 -23.5442 0.
-224.458 -610.248 0.
6.79599 18.4184 0.
-34.1314 -93.8119 0.
-10.6134 -29.394 0.
6.83884 18.9407 0.
11.3374 31.244 0.
11.5506 31.8535 0.
-131.789 -356.892 0.
11.2476 30.4608 0.
-5.2845 -14.3106 0.
4.03387 11.0481 0.
-211.701 -579.986 0.
-7.058 -19.0815 0.
-1.43779 -3.89102 0.
-5.78148 -15.244 0.
-39.7319 -103.877 0.
-77.5822 -198.573 0.
1.27722 3.25049 0.
13.2155 32.3188 0.
-53.6498 -135.134 0.
-8.19332 -20.4968 0.
17.4794 43.179 0.
-5.85682 -14.1442 0.
-175.419 -414.483 0.
18.9222 43.4454 0.
-83.953 -180.184 0.
11.2056 23.5595 0.
14.5786 29.2658 0.
11.6728 22.9796 0.
-5.37097 -10.6091 0.
-575.677 -1055.29 0.
2.53406 4.53545 0.
-11.2558 -19.2704 0.
13.4423 23.5786 0.
16.1578 28.1405 0.
13.5211 26.0903 0.
-9.38252 -45.4619 0.
-2.99687 -7.33031 0.
2.94097 6.17694 0.
-22.5833 -49.6276 0.
-163.134 -290.562 0.
-12.6446 -41.5199 0.
-1.15584 -1.97066 0.
-3.98589 -6.96615 0.
-52.5091 -94.2432 0.
11.9584 20.9757 0.
-254.825 -462.382 0.
-12.443 -23.476 0.
-7.82766 -14.9177 0.
-7.88608 -16.8187 0.
-205.929 -453.041 0.
-105.438 -240.443 0.
10.6027 23.6848 0.
-61.6052 -141.518 0.
-1.42077 -3.23973 0.
7.00016 16.3248 0.
-2.6677 -42.2842 0.
-21.9581 -53.3887 0.
-114.343 -297.615 0.
6.77999 17.6511 0.
-7.52696 -19.2765 0.
-3.21669 -8.32557 0.
-6.57383 -17.0303 0.
-172.077 -461.704 0.
-53.3685 -143.779 0.
-1.52701 -4.17418 0.
-7.7552 -21.2314 0.
-76.3487 -207.257 0.
2.06049 5.59821 0.
-4.1113 -11.2566 0.
6.34543 17.322 0.
11.0228 30.0137 0.
-76.4442 -210.616 0.
6.1998 17.0496 0.
7.28139 20.1597 0.
-0.169748 -0.46924 0.
-0.0258049 -17.9212 0.
-0.0108477 -4.27532 0.
-0.132446 -4.61301 0.
0.00902611 4.74324 0.
-0.167139 -13.7083 0.
-0.000327775 -0.403348 0.
-22.2969 -54.2982 0.
-134.047 -285.198 0.
-9.81558 -23.2366 0.
-30.6347 -66.3779 0.
-63.9245 -84.5697 0.
-187.094 -430.297 0.
-64.2539 -54.4086 0.
-28.9422 -21.1075 0.
-171.832 -331.891 0.
-0.840589 -2.31976 0.
-127.066 -312.114 0.
-0.465632 -1.27042 0.
-0.0821792 -4.49258 0.
1.51311 4.19077 0.
0.231519 8.69683 0.
-0.00450178 -3.0819 0.
6.76206 18.6064 0.
0.332723 0.921556 0.
8.01815 22.0982 0.
8.9126 24.0694 0.
-128.407 -349.911 0.
11.2396 31.1133 0.
-26.3361 -72.9355 0.
-0.0916081 -31.658 0.
9.41653 25.9243 0.
0.268276 0.725574 0.
7.34273 19.8578 0.
-65.3302 -176.669 0.
-2.59335 -6.99636 0.
-4.23861 -11.6113 0.
-7.80404 -21.0594 0.
-94.283 -254.672 0.
11.5133 30.3218 0.
-3.11316 -8.14232 0.
-59.2287 -151.44 0.
2.92012 7.42334 0.
-7.53284 -18.5164 0.
1.06976 2.58541 0.
-47.3376 -117.917 0.
-219.589 -544.085 0.
-2.45421 -40.3639 0.
-7.18101 -16.3669 0.
13.6475 31.5069 0.
-217.653 -469.373 0.
18.7732 39.0456 0.
-5.44986 -10.9255 0.
-322.48 -623.702 0.
-6.45242 -34.0213 0.
7.31691 13.6449 0.
-46.855 -83.3894 0.
24.1365 42.0545 0.
11.6079 19.1568 0.
-4.82413 -7.75003 0.
-226.262 -433.51 0.
-9.41655 -44.5706 0.
1.66503 4.05972 0.
-254.467 -542.248 0.
-79.6494 -135.442 0.
-17.31 -28.1616 0.
-73.7003 -120.893 0.
-23.6487 -39.5224 0.
-114.623 -195.959 0.
7.30736 12.4159 0.
-96.461 -169.344 0.
-130.794 -237.608 0.
6.74747 12.5233 0.
-16.0336 -30.6714 0.
-22.3557 -47.9353 0.
-97.371 -215.413 0.
10.4107 22.608 0.
-6.41614 -14.4094 0.
-176.871 -408.256 0.
-6.22305 -13.8007 0.
-7.3419 -16.7909 0.
-13.4365 -32.3593 0.
-52.2837 -126.958 0.
-32.7606 -80.2102 0.
-3.45305 -8.7496 0.
-3.53936 -9.03494 0.
-52.2012 -135.179 0.
7.50099 19.4419 0.
-8.82199 -23.3505 0.
5.66763 15.0348 0.
-60.1012 -164.236 0.
-2.70115 -7.39262 0.
-119.033 -322.568 0.
-49.1566 -133.326 0.
-5.75627 -15.5181 0.
8.22307 22.3699 0.
-7.54941 -20.5416 0.
-97.6785 -268.504 0.
-0.939126 -2.57557 0.
4.84031 13.3827 0.
3.96266 10.9263 0.
-2.1701 -6.00916 0.
1.87454 5.16905 0.
-0.0578709 -15.9949 0.
-231.143 -599.964 0.
-0.267387 -15.6062 0.
-119.662 -297.119 0.
-4.97797e-05 -7.05866 0.
-40.8835 -88.981 0.
-6.53672 -13.0795 0.
-6.07996 -13.0042 0.
-43.6213 -66.1258 0.
-23.9982 -28.8205 0.
-38.5354 -30.424 0.
-15.0681 -12.0676 0.
-11.782 -15.5025 0.
-1.33507 -3.64785 0.
-0.985722 -2.72962 0.
-71.0757 -196.01 0.
-0.00218348 -4.05795 0.
-130.653 -335.268 0.
-1.66933e-05 -21.3232 0.
-177.851 -491.172 0.
7.23488 19.9758 0.
4.7809 13.1924 0.
-0.75463 -2.08999 0.
1.48954 4.00803 0.
-49.0407 -133.219 0.
0.421318 1.16548 0.
-4.58545 -12.6938 0.
-7.33639 -20.1018 0.
-1.20284 -3.28953 0.
-0.619533 -1.67314 0.
-36.0038 -97.227 0.
11.9611 32.2392 0.
10.7107 28.8258 0.
-3.89055 -10.4559 0.
9.02218 23.5787 0.
-90.9706 -245.261 0.
-54.3625 -143.015 0.
5.1599 13.4779 0.
-8.36366 -21.2345 0.
-9.07532 -23.0437 0.
-214.315 -529.439 0.
-1.46294 -3.55515 0.
8.36837 19.9736 0.
16.6679 39.6229 0.
-3.54542 -8.61547 0.
-78.1064 -178.609 0.
18.9068 41.84 0.
-90.2739 -195.625 0.
-92.0513 -192.201 0.
14.5594 29.2991 0.
1.32067 2.47682 0.
-3.37902 -6.43081 0.
-84.1404 -159.285 0.
17.8835 31.95 0.
-15.6937 -27.1552 0.
-37.1249 -60.6336 0.
18.0691 28.7451 0.
-5.63751 -21.0331 0.
-10.6974 -34.1614 0.
-22.2381 -40.7052 0.
-2.50617 -5.30493 0.
25.7065 40.7555 0.
-131.907 -210.892 0.
-86.7992 -138.72 0.
-12.1664 -31.3634 0.
6.32573 10.271 0.
18.7432 31.8255 0.
-169.577 -297.547 0.
1.04633 1.88343 0.
8.32507 15.4951 0.
-151.588 -291.011 0.
-5.18261 -32.5175 0.
1.71239 3.6164 0.
-69.9267 -153.225 0.
12.4656 28.1555 0.
1.46607 3.27394 0.
3.79365 8.44381 0.
-40.7327 -93.5326 0.
-27.3426 -65.7619 0.
10.6333 24.2182 0.
5.23018 12.3037 0.
-4.56189 -11.5189 0.
-50.6595 -128.883 0.
-35.7777 -92.6962 0.
-1.30908 -35.8179 0.
4.49549 11.8719 0.
9.91605 26.247 0.
-16.0958 -43.9696 0.
-13.4182 -36.7124 0.
-0.256135 -34.1994 0.
1.12516 3.02761 0.
7.62756 20.5936 0.
-0.628753 -1.70922 0.
-32.9663 -89.6367 0.
-97.6237 -267.649 0.
9.32545 25.4965 0.
-20.8621 -57.0945 0.
0.484849 1.32258 0.
-113.295 -312.085 0.
-0.110403 -26.7769 0.
-0.0802487 -11.707 0.
-2.81721 -7.5294 0.
-0.0958918 -13.8811 0.
0.380654 1.02598 0.
-0.0755119 -9.08623 0.
-37.5478 -84.2746 0.
-4.10399 -6.0509 0.
-9.49495 -16.7125 0.
-41.8173 -67.5948 0.
-31.8134 -43.2599 0.
-28.0665 -25.4355 0.
-10.1889 -8.224 0.
-13.3351 -16.2387 0.
-2.25449 -6.03894 0.
-1.73729 -4.79583 0.
-9.82467 -23.1292 0.
6.38226 17.2901 0.
-0.0541437 -7.32361 0.
1.12731 3.10433 0.
-5.06772 -14.0339 0.
-5.16204 -14.2188 0.
-24.8371 -68.5856 0.
-0.511512 -1.36067 0.
-26.5131 -70.6489 0.
5.32588 14.4207 0.
8.82991 24.4029 0.
-37.5577 -103.904 0.
-16.811 -46.0789 0.
-16.2834 -44.5488 0.
2.50276 6.67436 0.
-2.00908 -5.33236 0.
-9.06998 -24.3853 0.
-52.9667 -142.187 0.
4.54996 11.9955 0.
12.311 32.1806 0.
3.91653 10.1441 0.
-91.0898 -239.367 0.
-7.87832 -20.5524 0.
-1.49981 -3.80944 0.
-4.34853 -10.9197 0.
11.3821 27.4939 0.
-2.06705 -36.6241 0.
14.3868 34.7887 0.
-5.1173 -12.1685 0.
15.9778 37.3544 0.
-161.012 -369.494 0.
18.4197 40.882 0.
3.53253 7.24751 0.
-4.57199 -23.9566 0.
2.28533 4.61216 0.
-96.416 -181.643 0.
8.24117 14.9403 0.
-191.362 -367.183 0.
-89.7172 -162.421 0.
6.51749 11.1281 0.
-2.24327 -3.43038 0.
-122.349 -192.229 0.
10.4977 18.4101 0.
18.8997 31.3384 0.
3.89269 6.11208 0.
2.04904 4.43833 0.
-231.431 -360.021 0.
7.93366 11.128 0.
21.9637 31.7734 0.
22.9703 35.4119 0.
-98.881 -163.025 0.
-6.01986 -9.83175 0.
18.0295 30.9417 0.
-92.4215 -166.887 0.
14.051 26.2085 0.
-6.08345 -21.9286 0.
-3.48852 -22.6895 0.
11.5081 24.5357 0.
-125.161 -276.92 0.
-2.10046 -4.46357 0.
-8.01894 -18.0305 0.
18.4361 41.2042 0.
-18.5475 -42.7857 0.
12.9523 27.896 0.
14.1255 32.3612 0.
-2.99273 -7.0833 0.
-7.00317 -17.6205 0.
-1.80981 -27.481 0.
5.7598 14.5786 0.
2.24643 5.73989 0.
-19.388 -51.0853 0.
-1.45165 -3.83379 0.
-1.35081 -34.7987 0.
-4.25701 -11.4359 0.
-2.94525 -7.99721 0.
6.86597 18.5046 0.
-36.8475 -99.6366 0.
-5.73884 -15.5892 0.
9.98671 27.133 0.
-0.515288 -31.4619 0.
10.9557 29.32 0.
-12.2887 -33.5242 0.
5.01698 13.6349 0.
3.59262 9.7226 0.
-1.16937 -3.18454 0.
9.37779 25.315 0.
5.95189 16.2102 0.
1.40528 3.87636 0.
-63.9011 -175.078 0.
4.20248 10.8539 0.
-40.6326 -49.3702 0.
-5.18643 -5.78609 0.
-15.7878 -22.0751 0.
-38.6184 -74.8176 0.
-19.4185 -29.5425 0.
-7.7792 -4.19227 0.
-5.40945 -3.84041 0.
-71.1338 -89.718 0.
-11.9217 -25.0568 0.
-2.84509 -5.96094 0.
-25.6568 -38.4016 0.
-0.114089 -3.62372 0.
-0.00301075 -5.79377 0.
-0.209915 -23.8817 0.
3.9136 10.7769 0.
2.81187 7.72279 0.
-21.2657 -58.5967 0.
3.53745 9.39608 0.
-4.23001 -11.2554 0.
-6.90101 -18.8777 0.
2.33797 6.35932 0.
5.38208 14.8763 0.
-47.599 -130.515 0.
-38.4081 -105.118 0.
6.78841 18.0946 0.
12.2968 32.6194 0.
-3.71398 -9.71318 0.
1.0858 2.79262 0.
-92.5172 -243.97 0.
-0.126444 -0.330618 0.
5.25247 13.1921 0.
-5.06819 -12.6657 0.
4.61483 11.4759 0.
-131.035 -333.03 0.
0.718481 1.8051 0.
15.3436 37.3273 0.
7.24315 16.619 0.
-74.1706 -179.487 0.
12.72 30.262 0.
13.0507 30.5201 0.
-3.79429 -29.0519 0.
-8.71599 -19.404 0.
4.87155 10.0698 0.
3.23055 6.28758 0.
7.85815 14.4133 0.
-80.4793 -152.075 0.
-9.38908 -17.0686 0.
6.02546 10.9899 0.
13.5934 22.6077 0.
-7.13811 -12.32 0.
4.46816 6.75287 0.
1.14165 1.64499 0.
2.61297 3.60143 0.
-132.061 -219.282 0.
7.40857 11.6285 0.
11.1001 14.7849 0.
-10.825 -20.5946 0.
16.7859 22.578 0.
0.640895 0.93509 0.
-5.26133 -8.1982 0.
-8.77635 -23.1902 0.
-8.41 -26.0336 0.
-15.4817 -26.5908 0.
25.8278 33.2858 0.
8.63803 13.2903 0.
4.10929 7.20536 0.
15.9369 32.9959 0.
-3.78765 -12.8316 0.
3.32461 6.63943 0.
0.54707 1.16972 0.
-58.462 -132.543 0.
16.4265 36.5337 0.
-6.38199 -35.2589 0.
14.0229 29.9509 0.
3.70901 8.55644 0.
-57.3492 -136.716 0.
10.9011 24.5703 0.
-0.585287 -1.39688 0.
-5.86021 -14.8771 0.
-11.7816 -30.1903 0.
-72.0323 -189.359 0.
-1.82022 -4.29311 0.
-15.7885 -40.271 0.
-12.6303 -33.8337 0.
-50.8876 -137.893 0.
10.9613 29.591 0.
-55.8816 -151.34 0.
-1.77908 -4.33141 0.
-0.115626 -0.297994 0.
7.64069 20.2789 0.
-0.520047 -31.7668 0.
-4.7394 -12.8837 0.
-2.06104 -5.57876 0.
10.2842 27.7031 0.
-0.228625 -21.2133 0.
8.856 21.3129 0.
-3.94771 -10.892 0.
-0.08669 -19.3789 0.
5.17271 13.6633 0.
7.90955 18.884 0.
0.527049 0.515115 0.
-1.29531 -1.48164 0.
-11.102 -15.3133 0.
-11.8934 -27.7652 0.
-17.428 -48.2493 0.
-17.5277 -9.88985 0.
-6.4391 -5.47715 0.
-10.0227 -17.6305 0.
-35.3688 -33.2093 0.
-15.3471 -16.3903 0.
-1.59573 -9.24427 0.
-0.241201 -3.75198 0.
-16.2718 -42.9868 0.
-1.81706 -4.54705 0.
4.46019 11.0462 0.
9.86986 27.0135 0.
-12.1888 -33.4948 0.
9.58819 25.4293 0.
1.62411 4.31519 0.
-3.60875 -9.84792 0.
-9.39163 -25.4712 0.
-25.2441 -68.0003 0.
3.31946 8.35213 0.
-43.5059 -119.12 0.
-40.6383 -108.287 0.
11.1891 29.6674 0.
-23.6367 -61.612 0.
-3.65856 -9.37107 0.
4.10534 9.97472 0.
2.41294 6.31278 0.
-2.34089 -5.86469 0.
-1.09632 -2.73278 0.
6.71545 16.6559 0.
7.65138 17.4749 0.
-18.969 -47.6953 0.
-3.40642 -8.36284 0.
6.88296 15.9025 0.
11.0145 23.3949 0.
11.1361 20.5199 0.
-2.64795 -33.7641 0.
12.3851 26.2815 0.
-5.59009 -30.7676 0.
1.4315 2.43296 0.
-5.00313 -27.2442 0.
2.79876 5.14616 0.
-2.89552 -4.60687 0.
10.7159 19.3915 0.
-227.777 -423.35 0.
1.16158 1.95495 0.
5.12008 7.84122 0.
-95.3518 -141.738 0.
7.9104 11.1943 0.
-8.78509 -17.0597 0.
-11.0596 -28.0971 0.
-10.3976 -28.1807 0.
