# vtk DataFile Version 2.0
test grain
ASCII
DATASET UNSTRUCTURED_GRID
POINTS 5000 float
0.497825 0.000623712 0.
0.500622 0.000798849 0.
0.503092 0.000867406 0.
0.50554 0.000934079 0.
0.507656 0.00094835 0.
0.509772 0.000962839 0.
0.51186 0.000974065 0.
0.513904 0.000979689 0.
0.515947 0.000985346 0.
0.517969 0.000989424 0.
0.519979 0.000992677 0.
0.52199 0.00099594 0.
0.523993 0.000996682 0.
0.525994 0.000997098 0.
0.527996 0.000997506 0.
0.529997 0.000997846 0.
0.531998 0.000998186 0.
0.533998 0.00099849 0.
0.535999 0.000998724 0.
0.537999 0.000998957 0.
0.539999 0.00099909 0.
0.542 0.000999142 0.
0.544 0.000999193 0.
0.546 0.000999204 0.
0.548 0.000999202 0.
0.55 0.0009992 0.
0.552 0.000999161 0.
0.554 0.000999122 0.
0.556 0.000999102 0.
0.558 0.000999147 0.
0.56 0.000999192 0.
0.562 0.000999232 0.
0.564 0.000999265 0.
0.566 0.000999299 0.
0.568 0.00099929 0.
0.57 0.00099926 0.
0.572 0.000999229 0.
0.574 0.000999222 0.
0.576 0.000999218 0.
0.578 0.000999218 0.
0.58 0.000999256 0.
0.582 0.000999295 0.
0.584 0.000999323 0.
0.586 0.000999332 0.
0.588 0.00099934 0.
0.59 0.000999351 0.
0.592 0.000999363 0.
0.594 0.000999374 0.
0.596 0.000999346 0.
0.598 0.000999306 0.
0.6 0.000999266 0.
0.602 0.000999292 0.
0.604 0.000999317 0.
0.606 0.000999335 0.
0.608 0.000999323 0.
0.61 0.000999311 0.
0.612 0.000999305 0.
0.614 0.000999308 0.
0.616 0.00099931 0.
0.618 0.000999286 0.
0.62 0.000999249 0.
0.622 0.000999212 0.
0.624 0.000999207 0.
0.626 0.000999206 0.
0.628 0.000999208 0.
0.63 0.000999228 0.
0.632 0.000999248 0.
0.634 0.000999254 0.
0.636 0.000999231 0.
0.638 0.000999208 0.
0.64 0.000999178 0.
0.642 0.000999142 0.
0.644 0.000999106 0.
0.646 0.000999108 0.
0.648 0.000999122 0.
0.65 0.000999136 0.
0.652 0.00099915 0.
0.654 0.000999163 0.
0.656 0.000999148 0.
0.658001 0.000999032 0.
0.660001 0.000998917 0.
0.662001 0.000998652 0.
0.664002 0.000998201 0.
0.666003 0.000997751 0.
0.668004 0.000997596 0.
0.670005 0.000997588 0.
0.672007 0.000997579 0.
0.674009 0.000996433 0.
0.676012 0.000995152 0.
0.678016 0.000993474 0.
0.680036 0.000988738 0.
0.682056 0.000984025 0.
0.684089 0.000978947 0.
0.686149 0.000973112 0.
0.688209 0.000967312 0.
0.690367 0.000941326 0.
0.69258 0.000905577 0.
0.694811 0.000869039 0.
0.697575 0.00077341 0.
0.700347 0.000680969 0.
0.495939 0.00163799 0.
0.499211 0.00231804 0.
0.502011 0.00256633 0.
0.504796 0.00278522 0.
0.507148 0.00283841 0.
0.509436 0.00288393 0.
0.511663 0.00292144 0.
0.513757 0.00293849 0.
0.515853 0.00295565 0.
0.517907 0.00296811 0.
0.519939 0.00297792 0.
0.52197 0.00298776 0.
0.523978 0.00299004 0.
0.525982 0.00299129 0.
0.527987 0.00299252 0.
0.52999 0.00299354 0.
0.531993 0.00299456 0.
0.533995 0.00299547 0.
0.535997 0.00299617 0.
0.537998 0.00299687 0.
0.539998 0.00299727 0.
0.541999 0.00299743 0.
0.543999 0.00299758 0.
0.545999 0.00299761 0.
0.547999 0.00299761 0.
0.549999 0.0029976 0.
0.551999 0.00299748 0.
0.553999 0.00299737 0.
0.555999 0.00299731 0.
0.557999 0.00299744 0.
0.559999 0.00299758 0.
0.561999 0.0029977 0.
0.563999 0.0029978 0.
0.565999 0.0029979 0.
0.568 0.00299787 0.
0.57 0.00299778 0.
0.572 0.00299769 0.
0.573999 0.00299767 0.
0.575999 0.00299765 0.
0.577999 0.00299765 0.
0.579999 0.00299777 0.
0.582 0.00299788 0.
0.584 0.00299797 0.
0.586 0.002998 0.
0.588 0.00299802 0.
0.59 0.00299805 0.
0.592 0.00299809 0.
0.594 0.00299812 0.
0.596 0.00299804 0.
0.598 0.00299792 0.
0.6 0.0029978 0.
0.602 0.00299788 0.
0.604 0.00299795 0.
0.606 0.002998 0.
0.608 0.00299797 0.
0.61 0.00299793 0.
0.612 0.00299792 0.
0.614 0.00299792 0.
0.616 0.00299793 0.
0.618 0.00299786 0.
0.62 0.00299775 0.
0.622001 0.00299764 0.
0.624 0.00299762 0.
0.626 0.00299762 0.
0.628 0.00299762 0.
0.63 0.00299768 0.
0.632 0.00299774 0.
0.634 0.00299776 0.
0.636 0.00299769 0.
0.638001 0.00299762 0.
0.640001 0.00299753 0.
0.642001 0.00299742 0.
0.644001 0.00299732 0.
0.646001 0.00299732 0.
0.648001 0.00299737 0.
0.650001 0.00299741 0.
0.652001 0.00299745 0.
0.654001 0.00299749 0.
0.656001 0.00299744 0.
0.658002 0.0029971 0.
0.660002 0.00299675 0.
0.662003 0.00299595 0.
0.664005 0.0029946 0.
0.666008 0.00299325 0.
0.668011 0.00299279 0.
0.670015 0.00299277 0.
0.67202 0.00299274 0.
0.674027 0.00298927 0.
0.676035 0.00298542 0.
0.678048 0.00298029 0.
0.680104 0.00296597 0.
0.682159 0.00295173 0.
0.684241 0.00293639 0.
0.686368 0.0029187 0.
0.688493 0.00290111 0.
0.69088 0.00280767 0.
0.693347 0.00269445 0.
0.696004 0.00254588 0.
0.69909 0.00224851 0.
0.702254 0.00178152 0.
0.493819 0.00236565 0.
0.497325 0.00348669 0.
0.500758 0.00421456 0.
0.503884 0.00459381 0.
0.506594 0.0047189 0.
0.509068 0.00479837 0.
0.51146 0.00486777 0.
0.513607 0.00489651 0.
0.515755 0.00492543 0.
0.517845 0.00494659 0.
0.519897 0.00496301 0.
0.521949 0.00497948 0.
0.523963 0.00498339 0.
0.52597 0.00498547 0.
0.527978 0.00498752 0.
0.529983 0.00498922 0.
0.531988 0.00499092 0.
0.533992 0.00499245 0.
0.535994 0.00499362 0.
0.537996 0.00499478 0.
0.539997 0.00499545 0.
0.541998 0.00499571 0.
0.543998 0.00499597 0.
0.545999 0.00499602 0.
0.547999 0.00499601 0.
0.549999 0.004996 0.
0.551999 0.00499581 0.
0.553998 0.00499561 0.
0.555998 0.00499551 0.
0.557998 0.00499574 0.
0.559999 0.00499596 0.
0.561999 0.00499616 0.
0.563999 0.00499633 0.
0.565999 0.00499649 0.
0.567999 0.00499645 0.
0.569999 0.0049963 0.
0.571999 0.00499615 0.
0.573999 0.00499611 0.
0.575999 0.00499609 0.
0.577999 0.00499609 0.
0.579999 0.00499628 0.
0.581999 0.00499647 0.
0.583999 0.00499662 0.
0.585999 0.00499666 0.
0.587999 0.0049967 0.
0.589999 0.00499675 0.
0.591999 0.00499681 0.
0.593999 0.00499687 0.
0.596 0.00499673 0.
0.598 0.00499653 0.
0.6 0.00499633 0.
0.602 0.00499646 0.
0.604 0.00499659 0.
0.606 0.00499667 0.
0.608001 0.00499661 0.
0.610001 0.00499655 0.
0.612001 0.00499653 0.
0.614001 0.00499654 0.
0.616001 0.00499655 0.
0.618001 0.00499643 0.
0.620001 0.00499625 0.
0.622001 0.00499606 0.
0.624001 0.00499604 0.
0.626 0.00499603 0.
0.628 0.00499604 0.
0.63 0.00499614 0.
0.632001 0.00499624 0.
0.634001 0.00499627 0.
0.636001 0.00499615 0.
0.638001 0.00499604 0.
0.640001 0.00499589 0.
0.642002 0.00499571 0.
0.644002 0.00499553 0.
0.646002 0.00499554 0.
0.648001 0.00499561 0.
0.650001 0.00499568 0.
0.652001 0.00499575 0.
0.654002 0.00499582 0.
0.656002 0.00499574 0.
0.658003 0.00499516 0.
0.660003 0.00499458 0.
0.662005 0.00499326 0.
0.664009 0.004991 0.
0.666013 0.00498875 0.
0.668019 0.00498799 0.
0.670026 0.00498795 0.
0.672033 0.00498791 0.
0.674045 0.00498207 0.
0.676058 0.00497564 0.
0.678081 0.00496692 0.
0.680173 0.00494289 0.
0.682264 0.00491896 0.
0.684398 0.00489323 0.
0.686593 0.00486341 0.
0.688788 0.00483379 0.
0.691468 0.00464994 0.
0.694214 0.00445077 0.
0.697441 0.00412435 0.
0.700876 0.00359151 0.
0.704487 0.00250696 0.
0.491315 0.00271689 0.
0.495288 0.00422906 0.
0.499182 0.00539987 0.
0.502405 0.00588078 0.
0.505472 0.00621253 0.
0.508095 0.00638235 0.
0.5107 0.00655104 0.
0.512998 0.00664474 0.
0.515295 0.00674079 0.
0.517512 0.00681379 0.
0.519644 0.00685694 0.
0.521778 0.00690075 0.
0.523839 0.0069251 0.
0.525884 0.00694604 0.
0.527927 0.00696575 0.
0.529942 0.00696968 0.
0.531957 0.00697362 0.
0.53397 0.00697764 0.
0.535978 0.00698185 0.
0.537986 0.00698607 0.
0.539991 0.00698883 0.
0.541993 0.00699039 0.
0.543995 0.00699196 0.
0.545996 0.00699261 0.
0.547997 0.00699299 0.
0.549998 0.00699337 0.
0.551998 0.00699324 0.
0.553997 0.0069931 0.
0.555997 0.00699306 0.
0.557997 0.00699336 0.
0.559998 0.00699366 0.
0.561998 0.00699391 0.
0.563998 0.00699409 0.
0.565998 0.00699427 0.
0.567999 0.00699422 0.
0.569999 0.00699406 0.
0.571999 0.00699391 0.
0.573999 0.00699388 0.
0.575998 0.00699388 0.
0.577998 0.0069939 0.
0.579998 0.00699415 0.
0.581999 0.00699439 0.
0.583999 0.00699458 0.
0.585999 0.00699466 0.
0.587999 0.00699474 0.
0.589999 0.0069948 0.
0.591999 0.00699485 0.
0.593999 0.00699491 0.
0.595999 0.00699475 0.
0.598 0.00699454 0.
0.6 0.00699432 0.
0.602001 0.0069945 0.
0.604001 0.00699467 0.
0.606001 0.00699479 0.
0.608001 0.00699469 0.
0.610001 0.00699459 0.
0.612001 0.00699452 0.
0.614001 0.00699448 0.
0.616001 0.00699444 0.
0.618001 0.00699427 0.
0.620001 0.00699403 0.
0.622001 0.00699379 0.
0.624001 0.00699376 0.
0.626001 0.00699376 0.
0.628001 0.00699377 0.
0.630001 0.00699388 0.
0.632001 0.006994 0.
0.634001 0.00699402 0.
0.636002 0.00699387 0.
0.638002 0.00699372 0.
0.640002 0.00699348 0.
0.642002 0.00699315 0.
0.644003 0.00699282 0.
0.646003 0.00699274 0.
0.648003 0.00699274 0.
0.650002 0.00699273 0.
0.652004 0.00699209 0.
0.654005 0.00699145 0.
0.656006 0.00699041 0.
0.65801 0.00698794 0.
0.660014 0.00698548 0.
0.662021 0.0069813 0.
0.664033 0.00697504 0.
0.666044 0.00696878 0.
0.668062 0.0069655 0.
0.670083 0.00696356 0.
0.672105 0.00696163 0.
0.674173 0.00692822 0.
0.676244 0.00689295 0.
0.678336 0.00685446 0.
0.680518 0.00679645 0.
0.682697 0.0067396 0.
0.685 0.00665194 0.
0.687385 0.0065462 0.
0.689835 0.00640205 0.
0.692698 0.00605768 0.
0.695653 0.00571802 0.
0.69913 0.0052576 0.
0.703012 0.00440424 0.
0.706846 0.00291697 0.
0.488853 0.00289593 0.
0.493291 0.00472368 0.
0.49718 0.00609274 0.
0.500714 0.00696483 0.
0.504048 0.00756125 0.
0.506987 0.00790498 0.
0.509795 0.00818795 0.
0.512319 0.00835991 0.
0.514782 0.00853181 0.
0.51716 0.00867521 0.
0.519377 0.00874669 0.
0.521598 0.00881929 0.
0.523711 0.00886513 0.
0.525795 0.00890541 0.
0.527876 0.00894385 0.
0.5299 0.00895004 0.
0.531925 0.00895623 0.
0.533947 0.00896276 0.
0.535961 0.00897003 0.
0.537975 0.00897731 0.
0.539984 0.00898218 0.
0.541988 0.00898507 0.
0.543992 0.00898795 0.
0.545994 0.0089892 0.
0.547995 0.00898997 0.
0.549997 0.00899075 0.
0.551996 0.00899067 0.
0.553996 0.00899058 0.
0.555996 0.00899061 0.
0.557996 0.00899098 0.
0.559997 0.00899136 0.
0.561997 0.00899165 0.
0.563997 0.00899184 0.
0.565998 0.00899204 0.
0.567998 0.00899199 0.
0.569998 0.00899183 0.
0.571998 0.00899166 0.
0.573998 0.00899166 0.
0.575998 0.00899167 0.
0.577998 0.00899171 0.
0.579998 0.00899201 0.
0.581998 0.00899231 0.
0.583998 0.00899255 0.
0.585998 0.00899266 0.
0.587998 0.00899277 0.
0.589999 0.00899285 0.
0.591999 0.00899289 0.
0.593999 0.00899294 0.
0.595999 0.00899277 0.
0.598 0.00899254 0.
0.6 0.00899231 0.
0.602001 0.00899253 0.
0.604001 0.00899276 0.
0.606001 0.0089929 0.
0.608001 0.00899276 0.
0.610001 0.00899263 0.
0.612001 0.00899251 0.
0.614001 0.00899242 0.
0.616002 0.00899233 0.
0.618002 0.00899211 0.
0.620002 0.00899181 0.
0.622002 0.00899152 0.
0.624002 0.00899149 0.
0.626001 0.00899148 0.
0.628001 0.00899149 0.
0.630001 0.00899162 0.
0.632002 0.00899175 0.
0.634002 0.00899178 0.
0.636002 0.00899159 0.
0.638003 0.00899141 0.
0.640003 0.00899106 0.
0.642003 0.00899059 0.
0.644004 0.00899012 0.
0.646004 0.00898995 0.
0.648004 0.00898986 0.
0.650004 0.00898977 0.
0.652006 0.00898843 0.
0.654008 0.00898709 0.
0.656011 0.00898506 0.
0.658018 0.0089807 0.
0.660025 0.00897635 0.
0.662037 0.0089693 0.
0.664057 0.00895898 0.
0.666076 0.00894869 0.
0.668106 0.00894291 0.
0.670142 0.00893905 0.
0.672177 0.0089352 0.
0.674306 0.0088718 0.
0.676438 0.00880658 0.
0.678606 0.00873684 0.
0.680886 0.00864241 0.
0.68316 0.00854988 0.
0.685696 0.00837599 0.
0.688299 0.00818278 0.
0.691098 0.00783935 0.
0.694127 0.0073177 0.
0.697442 0.00676184 0.
0.701062 0.00609165 0.
0.705143 0.00480259 0.
0.709539 0.00299343 0.
0.48641 0.00296628 0.
0.491046 0.00501616 0.
0.495195 0.00660482 0.
0.498959 0.00789324 0.
0.502497 0.00874728 0.
0.505862 0.00937052 0.
0.508861 0.00974838 0.
0.511624 0.01 0.
0.514231 0.0102484 0.
0.516771 0.0104821 0.
0.519067 0.0105854 0.
0.521371 0.0106923 0.
0.523546 0.0107697 0.
0.525673 0.0108402 0.
0.527798 0.0109099 0.
0.529838 0.0109196 0.
0.531878 0.0109294 0.
0.533912 0.0109397 0.
0.535934 0.0109515 0.
0.537956 0.0109634 0.
0.53997 0.0109716 0.
0.541978 0.0109768 0.
0.543986 0.0109819 0.
0.54599 0.0109844 0.
0.547992 0.010986 0.
0.549994 0.0109877 0.
0.551994 0.0109878 0.
0.553995 0.010988 0.
0.555995 0.0109882 0.
0.557995 0.0109887 0.
0.559996 0.0109893 0.
0.561996 0.0109896 0.
0.563997 0.0109898 0.
0.565997 0.01099 0.
0.567997 0.01099 0.
0.569998 0.0109899 0.
0.571998 0.0109898 0.
0.573998 0.0109898 0.
0.575997 0.0109898 0.
0.577997 0.0109899 0.
0.579997 0.0109902 0.
0.581998 0.0109905 0.
0.583998 0.0109907 0.
0.585998 0.0109909 0.
0.587998 0.010991 0.
0.589998 0.0109911 0.
0.591998 0.0109911 0.
0.593998 0.0109912 0.
0.595999 0.010991 0.
0.598 0.0109908 0.
0.6 0.0109906 0.
0.602001 0.0109908 0.
0.604001 0.010991 0.
0.606001 0.0109912 0.
0.608001 0.010991 0.
0.610002 0.0109909 0.
0.612002 0.0109908 0.
0.614002 0.0109907 0.
0.616002 0.0109905 0.
0.618002 0.0109903 0.
0.620002 0.0109899 0.
0.622002 0.0109896 0.
0.624002 0.0109896 0.
0.626002 0.0109895 0.
0.628002 0.0109895 0.
0.630002 0.0109896 0.
0.632002 0.0109897 0.
0.634003 0.0109897 0.
0.636003 0.0109895 0.
0.638003 0.0109893 0.
0.640004 0.0109888 0.
0.642005 0.0109881 0.
0.644005 0.0109873 0.
0.646006 0.0109869 0.
0.648007 0.0109865 0.
0.650007 0.0109861 0.
0.652011 0.0109834 0.
0.654014 0.0109808 0.
0.65602 0.010977 0.
0.658032 0.0109693 0.
0.660044 0.0109615 0.
0.662064 0.0109505 0.
0.664093 0.0109356 0.
0.666122 0.0109207 0.
0.668173 0.0109064 0.
0.670232 0.0108927 0.
0.672292 0.0108785 0.
0.674483 0.0107754 0.
0.676673 0.0106729 0.
0.678926 0.0105635 0.
0.681301 0.0104287 0.
0.683677 0.010297 0.
0.686434 0.0100256 0.
0.689253 0.00974558 0.
0.692391 0.00916433 0.
0.695638 0.0084654 0.
0.699247 0.00770171 0.
0.703119 0.00665578 0.
0.707271 0.00508123 0.
0.711938 0.0030497 0.
0.484045 0.00300756 0.
0.489215 0.00530965 0.
0.493573 0.00712734 0.
0.497447 0.00867666 0.
0.501265 0.00974044 0.
0.504861 0.0105455 0.
0.507979 0.0110463 0.
0.51093 0.0114561 0.
0.513629 0.0118189 0.
0.516297 0.0121844 0.
0.518687 0.0123452 0.
0.521079 0.0125028 0.
0.523335 0.0126285 0.
0.525512 0.0127447 0.
0.52769 0.0128617 0.
0.529752 0.0128774 0.
0.531813 0.0128922 0.
0.533865 0.012908 0.
0.535897 0.012926 0.
0.537929 0.0129441 0.
0.53995 0.012957 0.
0.541963 0.0129654 0.
0.543977 0.0129738 0.
0.545983 0.0129781 0.
0.547987 0.0129811 0.
0.549991 0.0129842 0.
0.551992 0.0129847 0.
0.553992 0.0129853 0.
0.555993 0.0129859 0.
0.557994 0.0129866 0.
0.559995 0.0129874 0.
0.561995 0.0129879 0.
0.563996 0.0129881 0.
0.565996 0.0129883 0.
0.567997 0.0129883 0.
0.569997 0.0129883 0.
0.571998 0.0129882 0.
0.573997 0.0129883 0.
0.575997 0.0129883 0.
0.577997 0.0129884 0.
0.579997 0.0129887 0.
0.581997 0.0129889 0.
0.583997 0.0129892 0.
0.585998 0.0129893 0.
0.587998 0.0129895 0.
0.589998 0.0129895 0.
0.591998 0.0129895 0.
0.593998 0.0129895 0.
0.595999 0.0129895 0.
0.598 0.0129894 0.
0.6 0.0129893 0.
0.602001 0.0129894 0.
0.604001 0.0129895 0.
0.606001 0.0129896 0.
0.608002 0.0129895 0.
0.610002 0.0129895 0.
0.612002 0.0129893 0.
0.614002 0.0129892 0.
0.616002 0.012989 0.
0.618002 0.0129887 0.
0.620003 0.0129884 0.
0.622003 0.0129881 0.
0.624003 0.012988 0.
0.626002 0.0129879 0.
0.628002 0.0129878 0.
0.630002 0.0129879 0.
0.632003 0.0129879 0.
0.634003 0.0129878 0.
0.636004 0.0129875 0.
0.638004 0.0129873 0.
0.640005 0.0129866 0.
0.642006 0.0129855 0.
0.644008 0.0129845 0.
0.646009 0.0129835 0.
0.648011 0.0129825 0.
0.650012 0.0129816 0.
0.652018 0.012977 0.
0.654024 0.0129725 0.
0.656033 0.0129661 0.
0.658053 0.0129534 0.
0.660073 0.0129408 0.
0.662103 0.0129247 0.
0.664144 0.0129045 0.
0.666185 0.0128844 0.
0.668266 0.0128538 0.
0.670361 0.0128206 0.
0.672462 0.0127836 0.
0.674717 0.0126285 0.
0.676968 0.0124756 0.
0.67933 0.0123041 0.
0.681819 0.0121043 0.
0.684352 0.011875 0.
0.687194 0.011426 0.
0.690142 0.0109606 0.
0.693412 0.0102801 0.
0.696898 0.00948319 0.
0.7007 0.00856858 0.
0.704758 0.00717046 0.
0.709116 0.00538312 0.
0.714271 0.00311459 0.
0.482099 0.00313807 0.
0.48765 0.00563884 0.
0.492067 0.0076098 0.
0.496052 0.00929998 0.
0.500041 0.0105528 0.
0.503712 0.0115435 0.
0.50703 0.0122712 0.
0.510165 0.0128547 0.
0.512997 0.0133578 0.
0.515779 0.0138528 0.
0.518289 0.0140965 0.
0.520772 0.0143062 0.
0.523117 0.0144824 0.
0.525346 0.0146452 0.
0.527578 0.0148105 0.
0.529665 0.014835 0.
0.531747 0.0148549 0.
0.533818 0.014876 0.
0.535859 0.0149003 0.
0.537901 0.0149247 0.
0.53993 0.0149423 0.
0.541949 0.0149539 0.
0.543967 0.0149656 0.
0.545976 0.0149718 0.
0.547981 0.0149762 0.
0.549987 0.0149807 0.
0.551989 0.0149817 0.
0.55399 0.0149826 0.
0.555992 0.0149836 0.
0.557993 0.0149845 0.
0.559994 0.0149854 0.
0.561995 0.0149861 0.
0.563995 0.0149863 0.
0.565996 0.0149865 0.
0.567996 0.0149866 0.
0.569997 0.0149866 0.
0.571997 0.0149867 0.
0.573997 0.0149867 0.
0.575996 0.0149868 0.
0.577996 0.0149869 0.
0.579996 0.0149871 0.
0.581997 0.0149874 0.
0.583997 0.0149876 0.
0.585997 0.0149877 0.
0.587997 0.0149879 0.
0.589998 0.014988 0.
0.591998 0.0149879 0.
0.593998 0.0149879 0.
0.595999 0.0149879 0.
0.598 0.0149879 0.
0.6 0.0149879 0.
0.602001 0.014988 0.
0.604001 0.014988 0.
0.606002 0.014988 0.
0.608002 0.014988 0.
0.610002 0.014988 0.
0.612002 0.0149879 0.
0.614002 0.0149877 0.
0.616003 0.0149875 0.
0.618003 0.0149872 0.
0.620003 0.0149869 0.
0.622003 0.0149865 0.
0.624003 0.0149864 0.
0.626003 0.0149863 0.
0.628002 0.0149861 0.
0.630003 0.0149861 0.
0.632003 0.0149861 0.
0.634004 0.0149859 0.
0.636005 0.0149856 0.
0.638006 0.0149853 0.
0.640007 0.0149844 0.
0.642008 0.014983 0.
0.64401 0.0149816 0.
0.646012 0.0149801 0.
0.648015 0.0149786 0.
0.650017 0.014977 0.
0.652026 0.0149706 0.
0.654034 0.0149642 0.
0.656046 0.0149551 0.
0.658074 0.0149375 0.
0.660101 0.0149199 0.
0.662141 0.0148988 0.
0.664195 0.0148733 0.
0.666248 0.0148479 0.
0.668362 0.0147999 0.
0.670493 0.0147468 0.
0.672639 0.0146847 0.
0.674959 0.0144763 0.
0.677272 0.014272 0.
0.679762 0.0140315 0.
0.68237 0.0137645 0.
0.685064 0.0133949 0.
0.687977 0.0127713 0.
0.691088 0.0120895 0.
0.694453 0.0112828 0.
0.698091 0.0103572 0.
0.702055 0.00927947 0.
0.706175 0.00765185 0.
0.710702 0.00569232 0.
0.716249 0.00329469 0.
0.480391 0.0033228 0.
0.486229 0.00597869 0.
0.490655 0.00806057 0.
0.49474 0.00985692 0.
0.498805 0.0112856 0.
0.502548 0.0124621 0.
0.506055 0.0134182 0.
0.509333 0.0141628 0.
0.512309 0.0148011 0.
0.515131 0.0153579 0.
0.517742 0.0156995 0.
0.52028 0.0159703 0.
0.522719 0.016216 0.
0.525003 0.0164182 0.
0.527296 0.0166243 0.
0.529449 0.0166956 0.
0.531587 0.0167555 0.
0.53371 0.0168107 0.
0.535769 0.016842 0.
0.537828 0.0168734 0.
0.539873 0.0168995 0.
0.541906 0.0169209 0.
0.543938 0.0169423 0.
0.545955 0.016954 0.
0.547965 0.0169626 0.
0.549976 0.0169712 0.
0.55198 0.0169736 0.
0.553984 0.016976 0.
0.555987 0.0169782 0.
0.557989 0.01698 0.
0.559991 0.0169817 0.
0.561993 0.0169829 0.
0.563993 0.0169834 0.
0.565994 0.0169839 0.
0.567995 0.0169842 0.
0.569996 0.0169843 0.
0.571996 0.0169844 0.
0.573996 0.0169845 0.
0.575996 0.0169845 0.
0.577995 0.0169847 0.
0.579996 0.0169849 0.
0.581996 0.0169852 0.
0.583997 0.0169855 0.
0.585997 0.0169856 0.
0.587997 0.0169857 0.
0.589998 0.0169858 0.
0.591998 0.0169858 0.
0.593998 0.0169858 0.
0.595999 0.0169858 0.
0.598 0.0169858 0.
0.6 0.0169858 0.
0.602001 0.0169858 0.
0.604001 0.0169859 0.
0.606002 0.0169859 0.
0.608002 0.0169859 0.
0.610002 0.0169859 0.
0.612002 0.0169858 0.
0.614003 0.0169856 0.
0.616003 0.0169854 0.
0.618003 0.0169851 0.
0.620004 0.0169847 0.
0.622004 0.0169843 0.
0.624004 0.0169841 0.
0.626003 0.0169839 0.
0.628003 0.0169837 0.
0.630004 0.0169835 0.
0.632005 0.0169833 0.
0.634006 0.0169829 0.
0.636007 0.0169822 0.
0.638008 0.0169815 0.
0.64001 0.0169798 0.
0.642014 0.0169773 0.
0.644017 0.0169749 0.
0.646022 0.0169715 0.
0.648027 0.0169678 0.
0.650032 0.016964 0.
0.652049 0.016952 0.
0.654065 0.0169401 0.
0.656088 0.0169236 0.
0.658133 0.0168938 0.
0.660177 0.0168642 0.
0.662239 0.0168327 0.
0.664319 0.0167982 0.
0.666397 0.0167638 0.
0.668576 0.0166648 0.
0.670775 0.016557 0.
0.672999 0.0164373 0.
0.675367 0.0161922 0.
0.677725 0.0159522 0.
0.68033 0.0156267 0.
0.683011 0.0152955 0.
0.685824 0.0147766 0.
0.688785 0.0140328 0.
0.692068 0.0131578 0.
0.695537 0.0122292 0.
0.699273 0.0111673 0.
0.7033 0.00987667 0.
0.707503 0.00812063 0.
0.712047 0.00607563 0.
0.717748 0.00361827 0.
0.479 0.00365072 0.
0.484921 0.00633891 0.
0.489367 0.00850361 0.
0.493512 0.010381 0.
0.497577 0.0119533 0.
0.50141 0.0133088 0.
0.505049 0.0144589 0.
0.508368 0.0152963 0.
0.511453 0.0160566 0.
0.51434 0.0167056 0.
0.517093 0.0172014 0.
0.519703 0.0175678 0.
0.522264 0.0179202 0.
0.524619 0.0181685 0.
0.526988 0.0184221 0.
0.529217 0.0185447 0.
0.531417 0.0186486 0.
0.533597 0.0187437 0.
0.535675 0.0187824 0.
0.537753 0.0188212 0.
0.539815 0.0188559 0.
0.541862 0.0188872 0.
0.543909 0.0189187 0.
0.545933 0.0189361 0.
0.547949 0.0189489 0.
0.549966 0.0189617 0.
0.551971 0.0189656 0.
0.553977 0.0189694 0.
0.555982 0.0189729 0.
0.557985 0.0189754 0.
0.559988 0.018978 0.
0.561991 0.0189797 0.
0.563992 0.0189805 0.
0.565993 0.0189813 0.
0.567994 0.0189817 0.
0.569995 0.0189819 0.
0.571996 0.0189821 0.
0.573995 0.0189822 0.
0.575995 0.0189823 0.
0.577995 0.0189824 0.
0.579995 0.0189827 0.
0.581996 0.0189831 0.
0.583996 0.0189834 0.
0.585997 0.0189835 0.
0.587997 0.0189836 0.
0.589998 0.0189837 0.
0.591998 0.0189837 0.
0.593998 0.0189838 0.
0.595999 0.0189837 0.
0.598 0.0189837 0.
0.6 0.0189836 0.
0.602001 0.0189837 0.
0.604001 0.0189837 0.
0.606002 0.0189838 0.
0.608002 0.0189838 0.
0.610002 0.0189838 0.
0.612003 0.0189837 0.
0.614003 0.0189835 0.
0.616003 0.0189833 0.
0.618004 0.018983 0.
0.620004 0.0189825 0.
0.622005 0.0189821 0.
0.624005 0.0189818 0.
0.626004 0.0189816 0.
0.628004 0.0189814 0.
0.630005 0.018981 0.
0.632006 0.0189806 0.
0.634007 0.0189799 0.
0.636009 0.0189788 0.
0.638011 0.0189777 0.
0.640014 0.0189752 0.
0.642019 0.0189716 0.
0.644023 0.0189681 0.
0.646031 0.0189627 0.
0.648039 0.0189569 0.
0.650048 0.0189509 0.
0.652072 0.0189332 0.
0.654096 0.0189156 0.
0.65613 0.0188915 0.
0.658193 0.0188492 0.
0.660255 0.0188072 0.
0.662341 0.0187648 0.
0.664448 0.0187205 0.
0.666554 0.0186765 0.
0.668809 0.0185162 0.
0.671082 0.0183473 0.
0.673394 0.0181667 0.
0.675825 0.0178752 0.
0.678264 0.0175787 0.
0.680992 0.0171301 0.
0.683753 0.0166853 0.
0.68668 0.0159697 0.
0.689687 0.0151442 0.
0.693085 0.0141599 0.
0.696665 0.0131087 0.
0.700434 0.0119366 0.
0.704485 0.0104333 0.
0.708743 0.00859521 0.
0.713276 0.00652148 0.
0.718982 0.00401684 0.
0.477907 0.00412454 0.
0.483726 0.00675 0.
0.488188 0.00896898 0.
0.492367 0.0109063 0.
0.496412 0.0125855 0.
0.500312 0.0140863 0.
0.503977 0.0153481 0.
0.507358 0.0163265 0.
0.510564 0.017259 0.
0.513529 0.0180191 0.
0.516433 0.0186697 0.
0.519123 0.0191329 0.
0.521793 0.0196019 0.
0.524237 0.0198939 0.
0.526672 0.0201825 0.
0.528973 0.0203598 0.
0.531228 0.0205144 0.
0.533465 0.0206608 0.
0.535564 0.0207076 0.
0.537664 0.0207548 0.
0.539746 0.0207994 0.
0.541807 0.0208426 0.
0.543868 0.0208863 0.
0.545902 0.0209113 0.
0.547926 0.0209296 0.
0.54995 0.0209481 0.
0.551958 0.0209544 0.
0.553967 0.0209604 0.
0.555975 0.020966 0.
0.557979 0.0209696 0.
0.559984 0.0209733 0.
0.561987 0.0209759 0.
0.563989 0.0209771 0.
0.565991 0.0209784 0.
0.567993 0.0209791 0.
0.569994 0.0209795 0.
0.571995 0.0209799 0.
0.573995 0.0209801 0.
0.575994 0.0209802 0.
0.577994 0.0209804 0.
0.579995 0.0209808 0.
0.581995 0.0209811 0.
0.583996 0.0209814 0.
0.585996 0.0209815 0.
0.587997 0.0209817 0.
0.589997 0.0209818 0.
0.591998 0.0209818 0.
0.593998 0.0209819 0.
0.595999 0.0209819 0.
0.598 0.0209819 0.
0.6 0.0209818 0.
0.602001 0.0209819 0.
0.604001 0.0209819 0.
0.606002 0.0209819 0.
0.608002 0.0209819 0.
0.610003 0.0209819 0.
0.612003 0.0209818 0.
0.614003 0.0209816 0.
0.616004 0.0209814 0.
0.618004 0.020981 0.
0.620005 0.0209805 0.
0.622006 0.02098 0.
0.624005 0.0209797 0.
0.626005 0.0209794 0.
0.628005 0.020979 0.
0.630007 0.0209783 0.
0.632008 0.0209776 0.
0.634009 0.0209764 0.
0.636012 0.0209746 0.
0.638015 0.0209728 0.
0.64002 0.0209692 0.
0.642027 0.0209642 0.
0.644033 0.0209593 0.
0.646044 0.0209511 0.
0.648057 0.020942 0.
0.650069 0.0209325 0.
0.652104 0.020907 0.
0.654139 0.0208817 0.
0.656186 0.0208481 0.
0.658266 0.0207924 0.
0.660346 0.0207372 0.
0.662459 0.0206794 0.
0.664597 0.0206193 0.
0.666734 0.0205599 0.
0.669058 0.0203333 0.
0.671392 0.020104 0.
0.673784 0.0198684 0.
0.676278 0.0195402 0.
0.67883 0.0191703 0.
0.681659 0.0185997 0.
0.684532 0.0179943 0.
0.687555 0.0171166 0.
0.690693 0.0161444 0.
0.694106 0.0150881 0.
0.697761 0.0139309 0.
0.701574 0.0126287 0.
0.705586 0.0109873 0.
0.709868 0.00908157 0.
0.714434 0.00697995 0.
0.720051 0.00453957 0.
0.477084 0.00477193 0.
0.482694 0.00727039 0.
0.487168 0.00949716 0.
0.491353 0.0114746 0.
0.49541 0.013236 0.
0.499337 0.014844 0.
0.502997 0.0162037 0.
0.506445 0.0173298 0.
0.509731 0.0183886 0.
0.512805 0.0192901 0.
0.515814 0.0200415 0.
0.518588 0.0205735 0.
0.521319 0.0211037 0.
0.523837 0.0214755 0.
0.526328 0.0218422 0.
0.528701 0.0221067 0.
0.531004 0.0223324 0.
0.533299 0.0225535 0.
0.535428 0.0226115 0.
0.537558 0.0226696 0.
0.539664 0.0227269 0.
0.541739 0.0227851 0.
0.543814 0.0228438 0.
0.54586 0.0228786 0.
0.547894 0.0229043 0.
0.549929 0.0229301 0.
0.551941 0.0229397 0.
0.553954 0.022949 0.
0.555965 0.0229574 0.
0.557972 0.0229625 0.
0.559978 0.0229675 0.
0.561983 0.0229712 0.
0.563986 0.0229731 0.
0.565989 0.022975 0.
0.567991 0.0229762 0.
0.569992 0.0229771 0.
0.571994 0.0229779 0.
0.573994 0.0229782 0.
0.575994 0.0229784 0.
0.577994 0.0229786 0.
0.579994 0.022979 0.
0.581995 0.0229793 0.
0.583996 0.0229796 0.
0.585996 0.0229798 0.
0.587997 0.02298 0.
0.589997 0.0229801 0.
0.591998 0.0229802 0.
0.593998 0.0229803 0.
0.595999 0.0229803 0.
0.598 0.0229803 0.
0.6 0.0229803 0.
0.602001 0.0229803 0.
0.604001 0.0229803 0.
0.606002 0.0229804 0.
0.608002 0.0229803 0.
0.610003 0.0229803 0.
0.612003 0.0229801 0.
0.614004 0.0229799 0.
0.616004 0.0229796 0.
0.618005 0.0229792 0.
0.620006 0.0229787 0.
0.622006 0.0229783 0.
0.624006 0.0229778 0.
0.626007 0.0229773 0.
0.628007 0.0229768 0.
0.630009 0.0229755 0.
0.63201 0.0229743 0.
0.634013 0.0229725 0.
0.636017 0.0229696 0.
0.638021 0.0229667 0.
0.640028 0.0229617 0.
0.642037 0.0229551 0.
0.644047 0.0229484 0.
0.646062 0.0229362 0.
0.64808 0.0229226 0.
0.650099 0.0229083 0.
0.652147 0.0228724 0.
0.654195 0.0228367 0.
0.656258 0.022791 0.
0.658356 0.0227206 0.
0.660454 0.0226507 0.
0.662603 0.022567 0.
0.664782 0.0224768 0.
0.666967 0.0223808 0.
0.669335 0.0220778 0.
0.671706 0.0217767 0.
0.674179 0.021459 0.
0.676738 0.0210716 0.
0.679385 0.0206123 0.
0.682255 0.0199886 0.
0.685229 0.019239 0.
0.688332 0.0182362 0.
0.6916 0.0171282 0.
0.695042 0.0159776 0.
0.698736 0.0147378 0.
0.702582 0.0133166 0.
0.706559 0.0115823 0.
0.71083 0.00962346 0.
0.715414 0.00752394 0.
0.720852 0.00524226 0.
0.476618 0.0056661 0.
0.481839 0.0078987 0.
0.486305 0.010092 0.
0.49048 0.0120918 0.
0.49455 0.0139156 0.
0.498443 0.0155758 0.
0.502087 0.0170385 0.
0.505591 0.0182922 0.
0.508923 0.0194531 0.
0.512075 0.0204583 0.
0.515129 0.0212895 0.
0.51801 0.0219427 0.
0.520812 0.0225653 0.
0.523422 0.0230404 0.
0.525972 0.0234871 0.
0.528421 0.0238443 0.
0.530774 0.0241421 0.
0.533126 0.0244411 0.
0.535289 0.0245145 0.
0.537449 0.0245839 0.
0.539581 0.0246537 0.
0.54167 0.0247269 0.
0.54376 0.0248008 0.
0.545817 0.0248458 0.
0.547862 0.0248788 0.
0.549907 0.0249119 0.
0.551924 0.0249251 0.
0.553941 0.0249376 0.
0.555955 0.0249488 0.
0.557964 0.0249553 0.
0.559972 0.0249618 0.
0.561979 0.0249666 0.
0.563983 0.0249692 0.
0.565987 0.0249717 0.
0.567989 0.0249734 0.
0.569991 0.0249747 0.
0.571992 0.0249759 0.
0.573993 0.0249763 0.
0.575993 0.0249766 0.
0.577993 0.0249769 0.
0.579994 0.0249772 0.
0.581995 0.0249775 0.
0.583995 0.0249777 0.
0.585996 0.024978 0.
0.587997 0.0249783 0.
0.589997 0.0249785 0.
0.591998 0.0249786 0.
0.593998 0.0249787 0.
0.595999 0.0249788 0.
0.598 0.0249788 0.
0.6 0.0249788 0.
0.602001 0.0249788 0.
0.604001 0.0249788 0.
0.606002 0.0249788 0.
0.608002 0.0249787 0.
0.610003 0.0249787 0.
0.612003 0.0249785 0.
0.614004 0.0249781 0.
0.616005 0.0249778 0.
0.618005 0.0249774 0.
0.620006 0.0249769 0.
0.622007 0.0249765 0.
0.624008 0.0249759 0.
0.626008 0.0249753 0.
0.628008 0.0249745 0.
0.63001 0.0249728 0.
0.632013 0.024971 0.
0.634016 0.0249685 0.
0.636021 0.0249645 0.
0.638027 0.0249606 0.
0.640036 0.0249541 0.
0.642048 0.0249458 0.
0.64406 0.0249376 0.
0.646081 0.0249213 0.
0.648103 0.0249032 0.
0.650128 0.0248839 0.
0.65219 0.0248375 0.
0.654252 0.0247914 0.
0.656331 0.0247334 0.
0.658447 0.0246482 0.
0.660563 0.0245635 0.
0.66275 0.0244517 0.
0.664971 0.0243307 0.
0.667208 0.0241932 0.
0.669617 0.0238132 0.
0.672026 0.0234397 0.
0.674596 0.0230338 0.
0.677232 0.0225731 0.
0.679993 0.021976 0.
0.682909 0.0212447 0.
0.685948 0.0203623 0.
0.689084 0.0193086 0.
0.692442 0.0180893 0.
0.695927 0.0168411 0.
0.699627 0.0155251 0.
0.703473 0.0140212 0.
0.707412 0.0122244 0.
0.711628 0.0102405 0.
0.716188 0.00818832 0.
0.721385 0.0060996 0.
0.476398 0.00674206 0.
0.481225 0.00867805 0.
0.485643 0.0107869 0.
0.489779 0.012784 0.
0.493796 0.0146342 0.
0.497626 0.016329 0.
0.501263 0.017874 0.
0.50477 0.0192206 0.
0.508134 0.020442 0.
0.511341 0.0215745 0.
0.514435 0.0225041 0.
0.517413 0.0232881 0.
0.520276 0.0239918 0.
0.522976 0.0245661 0.
0.525562 0.0250748 0.
0.528072 0.0255137 0.
0.530454 0.0258588 0.
0.532841 0.0262084 0.
0.53506 0.0263305 0.
0.537263 0.0264386 0.
0.539437 0.0265415 0.
0.541548 0.0266285 0.
0.54366 0.0267161 0.
0.545738 0.0267763 0.
0.5478 0.0268242 0.
0.549863 0.0268726 0.
0.551889 0.0268934 0.
0.553912 0.026913 0.
0.555934 0.0269307 0.
0.557947 0.02694 0.
0.55996 0.0269494 0.
0.56197 0.0269566 0.
0.563976 0.0269609 0.
0.565982 0.0269653 0.
0.567985 0.0269681 0.
0.569988 0.0269702 0.
0.57199 0.0269723 0.
0.573991 0.026973 0.
0.575991 0.0269736 0.
0.577992 0.0269741 0.
0.579993 0.0269746 0.
0.581994 0.026975 0.
0.583995 0.0269754 0.
0.585996 0.0269757 0.
0.587997 0.026976 0.
0.589997 0.0269762 0.
0.591998 0.0269765 0.
0.593998 0.0269767 0.
0.595999 0.0269768 0.
0.598 0.0269768 0.
0.6 0.0269768 0.
0.602001 0.0269768 0.
0.604001 0.0269767 0.
0.606002 0.0269767 0.
0.608002 0.0269765 0.
0.610003 0.0269764 0.
0.612004 0.0269761 0.
0.614004 0.0269758 0.
0.616005 0.0269754 0.
0.618006 0.0269748 0.
0.620007 0.0269741 0.
0.622009 0.0269734 0.
0.624009 0.0269725 0.
0.62601 0.0269715 0.
0.628012 0.0269703 0.
0.630015 0.0269673 0.
0.632018 0.0269643 0.
0.634023 0.0269602 0.
0.636031 0.026954 0.
0.638039 0.0269478 0.
0.640053 0.0269381 0.
0.642071 0.0269259 0.
0.644089 0.0269136 0.
0.646119 0.0268892 0.
0.648152 0.0268621 0.
0.650188 0.0268327 0.
0.652272 0.0267672 0.
0.654355 0.0267026 0.
0.656459 0.0266262 0.
0.658604 0.026525 0.
0.660745 0.0264248 0.
0.662977 0.0262685 0.
0.665239 0.0261011 0.
0.667533 0.0259014 0.
0.669972 0.0254716 0.
0.672399 0.0250532 0.
0.675056 0.0245713 0.
0.677757 0.0240469 0.
0.68062 0.0233026 0.
0.683575 0.0224698 0.
0.686678 0.0214295 0.
0.689843 0.0203031 0.
0.693235 0.0190324 0.
0.696749 0.0177016 0.
0.70042 0.0163281 0.
0.704246 0.0147559 0.
0.708155 0.012931 0.
0.712249 0.0109608 0.
0.716713 0.00899698 0.
0.721608 0.00714324 0.
0.476358 0.00791954 0.
0.480833 0.00960132 0.
0.485105 0.011572 0.
0.489168 0.0135344 0.
0.493116 0.0153906 0.
0.496885 0.0171099 0.
0.500495 0.0187144 0.
0.504002 0.0201288 0.
0.507372 0.021413 0.
0.510619 0.0226591 0.
0.513742 0.0236707 0.
0.516794 0.0245716 0.
0.519679 0.0253253 0.
0.522443 0.0260027 0.
0.525067 0.0265821 0.
0.527659 0.0271259 0.
0.530083 0.0275255 0.
0.532514 0.0279322 0.
0.534801 0.0281195 0.
0.537057 0.0282772 0.
0.539282 0.028424 0.
0.541418 0.0285255 0.
0.543555 0.0286276 0.
0.545655 0.0287039 0.
0.547736 0.0287677 0.
0.549817 0.0288321 0.
0.551852 0.0288612 0.
0.553883 0.0288881 0.
0.555912 0.0289123 0.
0.55793 0.0289245 0.
0.559947 0.0289368 0.
0.56196 0.0289465 0.
0.563968 0.0289526 0.
0.565976 0.0289588 0.
0.567981 0.0289628 0.
0.569985 0.0289657 0.
0.571988 0.0289687 0.
0.573989 0.0289697 0.
0.57599 0.0289706 0.
0.577991 0.0289714 0.
0.579992 0.0289719 0.
0.581993 0.0289725 0.
0.583994 0.028973 0.
0.585995 0.0289733 0.
0.587996 0.0289736 0.
0.589997 0.028974 0.
0.591998 0.0289743 0.
0.593998 0.0289747 0.
0.595999 0.0289748 0.
0.598 0.0289748 0.
0.6 0.0289749 0.
0.602001 0.0289748 0.
0.604001 0.0289747 0.
0.606002 0.0289746 0.
0.608002 0.0289743 0.
0.610003 0.0289741 0.
0.612004 0.0289738 0.
0.614005 0.0289734 0.
0.616006 0.028973 0.
0.618007 0.0289723 0.
0.620009 0.0289713 0.
0.62201 0.0289704 0.
0.624011 0.0289691 0.
0.626013 0.0289677 0.
0.628015 0.0289661 0.
0.630019 0.0289619 0.
0.632024 0.0289576 0.
0.63403 0.0289519 0.
0.636041 0.0289434 0.
0.638052 0.0289348 0.
0.640071 0.0289218 0.
0.642095 0.0289056 0.
0.644118 0.0288893 0.
0.646158 0.0288564 0.
0.648202 0.02882 0.
0.65025 0.0287796 0.
0.652357 0.0286939 0.
0.654463 0.0286092 0.
0.656597 0.0285128 0.
0.658773 0.0283932 0.
0.660947 0.028275 0.
0.663231 0.028062 0.
0.66554 0.0278386 0.
0.667906 0.0275605 0.
0.670403 0.0270671 0.
0.672905 0.0265765 0.
0.675611 0.0259958 0.
0.678347 0.0254041 0.
0.681263 0.0245658 0.
0.684269 0.0236235 0.
0.687404 0.0224711 0.
0.690597 0.0212668 0.
0.693974 0.0199618 0.
0.697508 0.0185712 0.
0.701155 0.0171436 0.
0.704911 0.0155305 0.
0.708769 0.0137063 0.
0.712755 0.0117687 0.
0.717012 0.00993638 0.
0.721629 0.0083426 0.
0.476443 0.00919546 0.
0.480592 0.0106318 0.
0.484675 0.0124383 0.
0.488643 0.0143456 0.
0.492503 0.0161913 0.
0.496208 0.0179193 0.
0.499797 0.0195739 0.
0.503284 0.0210383 0.
0.506646 0.022376 0.
0.509912 0.0236892 0.
0.513064 0.0247849 0.
0.516146 0.0257589 0.
0.519056 0.0265985 0.
0.521892 0.0274078 0.
0.524568 0.0280704 0.
0.527232 0.0287173 0.
0.529712 0.0291811 0.
0.53219 0.0296408 0.
0.534545 0.0298921 0.
0.536849 0.0300984 0.
0.539124 0.0302946 0.
0.541282 0.0304093 0.
0.543443 0.0305252 0.
0.545565 0.0306183 0.
0.547663 0.0306999 0.
0.549762 0.0307827 0.
0.551807 0.0308217 0.
0.553848 0.0308571 0.
0.555885 0.0308891 0.
0.557908 0.030905 0.
0.55993 0.0309209 0.
0.561948 0.0309337 0.
0.563958 0.0309422 0.
0.565969 0.0309506 0.
0.567976 0.0309563 0.
0.56998 0.0309603 0.
0.571985 0.0309644 0.
0.573986 0.030966 0.
0.575988 0.0309672 0.
0.57799 0.0309685 0.
0.579991 0.0309693 0.
0.581993 0.0309701 0.
0.583994 0.0309707 0.
0.585995 0.0309711 0.
0.587996 0.0309715 0.
0.589997 0.0309719 0.
0.591998 0.0309724 0.
0.593998 0.0309728 0.
0.595999 0.030973 0.
0.598 0.0309731 0.
0.6 0.0309731 0.
0.602001 0.030973 0.
0.604001 0.0309729 0.
0.606002 0.0309727 0.
0.608002 0.0309723 0.
0.610003 0.0309719 0.
0.612004 0.0309715 0.
0.614005 0.030971 0.
0.616007 0.0309705 0.
0.618008 0.0309695 0.
0.62001 0.0309683 0.
0.622012 0.030967 0.
0.624014 0.0309652 0.
0.626017 0.0309632 0.
0.628019 0.0309609 0.
0.630025 0.0309551 0.
0.632031 0.0309494 0.
0.63404 0.0309415 0.
0.636055 0.0309299 0.
0.63807 0.0309182 0.
0.640094 0.0309012 0.
0.642124 0.0308803 0.
0.644154 0.0308594 0.
0.646205 0.0308161 0.
0.648261 0.0307687 0.
0.650323 0.0307152 0.
0.65245 0.030608 0.
0.654576 0.0305023 0.
0.656739 0.0303846 0.
0.658945 0.0302471 0.
0.661149 0.0301129 0.
0.663483 0.0298413 0.
0.665837 0.029562 0.
0.668282 0.0292044 0.
0.670837 0.0286499 0.
0.673423 0.0280736 0.
0.676183 0.0273792 0.
0.678979 0.0266617 0.
0.681919 0.0257407 0.
0.684948 0.0247198 0.
0.688109 0.0234932 0.
0.691338 0.0222214 0.
0.694678 0.020877 0.
0.698184 0.0194518 0.
0.701822 0.0179779 0.
0.705519 0.0163435 0.
0.709295 0.0145348 0.
0.713177 0.0126486 0.
0.717204 0.0109615 0.
0.721505 0.00961181 0.
0.476565 0.0105424 0.
0.480425 0.0117438 0.
0.484324 0.0133863 0.
0.488192 0.015228 0.
0.491962 0.0170477 0.
0.495621 0.018776 0.
0.499187 0.0204571 0.
0.502624 0.0219685 0.
0.505991 0.0233519 0.
0.509269 0.0247035 0.
0.512426 0.0258696 0.
0.515519 0.0269152 0.
0.518476 0.027851 0.
0.521372 0.0287731 0.
0.524117 0.0295316 0.
0.526824 0.030236 0.
0.529354 0.0307487 0.
0.53187 0.0312477 0.
0.534279 0.0315779 0.
0.536624 0.0318585 0.
0.53895 0.0321316 0.
0.541133 0.0322637 0.
0.543319 0.0323972 0.
0.545464 0.0325114 0.
0.547578 0.0326157 0.
0.549694 0.0327214 0.
0.551752 0.032773 0.
0.553804 0.0328187 0.
0.555852 0.0328603 0.
0.557881 0.0328807 0.
0.559909 0.0329012 0.
0.561931 0.0329179 0.
0.563945 0.0329293 0.
0.56596 0.0329407 0.
0.567968 0.0329483 0.
0.569974 0.0329539 0.
0.57198 0.0329595 0.
0.573983 0.0329618 0.
0.575986 0.0329636 0.
0.577988 0.0329654 0.
0.57999 0.0329665 0.
0.581992 0.0329675 0.
0.583993 0.0329684 0.
0.585994 0.032969 0.
0.587996 0.0329695 0.
0.589997 0.03297 0.
0.591997 0.0329706 0.
0.593998 0.0329711 0.
0.595999 0.0329713 0.
0.598 0.0329715 0.
0.6 0.0329717 0.
0.602001 0.0329715 0.
0.604001 0.0329714 0.
0.606002 0.0329711 0.
0.608003 0.0329705 0.
0.610004 0.03297 0.
0.612005 0.0329693 0.
0.614006 0.0329686 0.
0.616008 0.0329679 0.
0.61801 0.0329666 0.
0.620012 0.032965 0.
0.622014 0.0329634 0.
0.624018 0.0329607 0.
0.626021 0.0329579 0.
0.628025 0.0329546 0.
0.630033 0.0329469 0.
0.632041 0.0329393 0.
0.634053 0.0329288 0.
0.636073 0.032913 0.
0.638092 0.0328973 0.
0.640122 0.0328753 0.
0.64216 0.032849 0.
0.644197 0.0328228 0.
0.646262 0.0327664 0.
0.648332 0.0327049 0.
0.650411 0.0326345 0.
0.652557 0.0325021 0.
0.654701 0.0323715 0.
0.656892 0.0322228 0.
0.659127 0.0320537 0.
0.661364 0.0318841 0.
0.663749 0.0315428 0.
0.666142 0.0312018 0.
0.668645 0.030762 0.
0.671238 0.0301695 0.
0.673894 0.0295236 0.
0.676699 0.0287397 0.
0.679558 0.0279033 0.
0.682527 0.0269068 0.
0.685586 0.0257824 0.
0.688748 0.0245162 0.
0.691997 0.0231939 0.
0.695335 0.0218095 0.
0.698802 0.0203587 0.
0.702393 0.0188582 0.
0.706044 0.0172127 0.
0.709747 0.0154291 0.
0.713522 0.013608 0.
0.717367 0.0120612 0.
0.721328 0.0109302 0.
0.476758 0.011945 0.
0.480371 0.01295 0.
0.484096 0.0144406 0.
0.487855 0.0161977 0.
0.491526 0.0179691 0.
0.495121 0.0196876 0.
0.498637 0.0213742 0.
0.502049 0.0229214 0.
0.505402 0.0243427 0.
0.508672 0.0257172 0.
0.511834 0.0269587 0.
0.514933 0.0280619 0.
0.517927 0.0290787 0.
0.520852 0.0300643 0.
0.523631 0.0308921 0.
0.526363 0.0316688 0.
0.528962 0.0322735 0.
0.531531 0.0328363 0.
0.534006 0.033253 0.
0.536393 0.0336093 0.
0.538773 0.0339659 0.
0.540982 0.0341169 0.
0.543193 0.0342681 0.
0.545362 0.0344032 0.
0.547493 0.0345303 0.
0.549625 0.0346592 0.
0.551696 0.0347241 0.
0.55376 0.0347801 0.
0.555819 0.0348314 0.
0.557854 0.0348563 0.
0.559888 0.0348814 0.
0.561915 0.034902 0.
0.563932 0.0349163 0.
0.56595 0.0349307 0.
0.567961 0.0349403 0.
0.569968 0.0349474 0.
0.571976 0.0349545 0.
0.57398 0.0349575 0.
0.575983 0.03496 0.
0.577986 0.0349623 0.
0.579988 0.0349637 0.
0.581991 0.034965 0.
0.583992 0.0349662 0.
0.585994 0.0349668 0.
0.587995 0.0349675 0.
0.589996 0.0349681 0.
0.591997 0.0349687 0.
0.593998 0.0349694 0.
0.595999 0.0349697 0.
0.598 0.03497 0.
0.6 0.0349702 0.
0.602001 0.03497 0.
0.604001 0.0349698 0.
0.606002 0.0349695 0.
0.608003 0.0349688 0.
0.610004 0.034968 0.
0.612005 0.0349672 0.
0.614007 0.0349662 0.
0.616009 0.0349652 0.
0.618011 0.0349636 0.
0.620014 0.0349617 0.
0.622017 0.0349597 0.
0.624021 0.0349563 0.
0.626026 0.0349526 0.
0.628031 0.0349483 0.
0.630041 0.0349387 0.
0.632051 0.0349292 0.
0.634066 0.034916 0.
0.63609 0.0348961 0.
0.638115 0.0348763 0.
0.640151 0.0348494 0.
0.642196 0.0348177 0.
0.64424 0.034786 0.
0.64632 0.0347162 0.
0.648405 0.0346406 0.
0.650501 0.0345527 0.
0.652665 0.0343949 0.
0.654827 0.0342392 0.
0.657048 0.0340579 0.
0.659313 0.0338568 0.
0.661586 0.0336485 0.
0.664024 0.0332337 0.
0.666462 0.0328241 0.
0.669034 0.032284 0.
0.67167 0.0316216 0.
0.674386 0.030884 0.
0.677209 0.0300401 0.
0.680109 0.0291196 0.
0.683093 0.0280712 0.
0.686174 0.0268505 0.
0.689326 0.025544 0.
0.692584 0.0241886 0.
0.695907 0.0227732 0.
0.699335 0.0213042 0.
0.702873 0.0197882 0.
0.706476 0.018147 0.
0.710096 0.0164032 0.
0.713757 0.014671 0.
0.717432 0.0132461 0.
0.721109 0.0123055 0.
0.477046 0.0134109 0.
0.480449 0.0142658 0.
0.484012 0.0156145 0.
0.487624 0.0172542 0.
0.491194 0.0189656 0.
0.494728 0.0206643 0.
0.498185 0.0223431 0.
0.501562 0.0239114 0.
0.50489 0.0253581 0.
0.508138 0.0267549 0.
0.511298 0.0280606 0.
0.514386 0.0292057 0.
0.517391 0.0302713 0.
0.52032 0.0313012 0.
0.523137 0.0322286 0.
0.525894 0.0330834 0.
0.528555 0.0337808 0.
0.531169 0.0343994 0.
0.533706 0.0348997 0.
0.536123 0.0353142 0.
0.538537 0.035733 0.
0.540779 0.0359154 0.
0.543016 0.0360943 0.
0.545214 0.0362583 0.
0.547364 0.036405 0.
0.549517 0.0365533 0.
0.551609 0.0366391 0.
0.55369 0.0367148 0.
0.555767 0.036785 0.
0.557809 0.0368152 0.
0.55985 0.0368454 0.
0.561884 0.0368716 0.
0.563909 0.0368918 0.
0.565933 0.0369121 0.
0.567948 0.0369256 0.
0.569958 0.0369353 0.
0.571968 0.0369451 0.
0.573974 0.0369496 0.
0.575978 0.0369534 0.
0.577983 0.036957 0.
0.579986 0.036959 0.
0.581988 0.036961 0.
0.583991 0.0369627 0.
0.585993 0.0369637 0.
0.587994 0.0369646 0.
0.589996 0.0369655 0.
0.591997 0.0369663 0.
0.593998 0.0369672 0.
0.595999 0.0369676 0.
0.598 0.0369679 0.
0.6 0.0369683 0.
0.602001 0.036968 0.
0.604002 0.0369677 0.
0.606002 0.0369672 0.
0.608003 0.0369662 0.
0.610005 0.0369651 0.
0.612006 0.0369639 0.
0.614009 0.0369625 0.
0.616011 0.0369611 0.
0.618014 0.0369588 0.
0.620018 0.036956 0.
0.622022 0.0369532 0.
0.624028 0.0369481 0.
0.626034 0.0369427 0.
0.628041 0.0369364 0.
0.630055 0.0369232 0.
0.632069 0.0369101 0.
0.63409 0.0368917 0.
0.636122 0.0368642 0.
0.638155 0.0368369 0.
0.640199 0.0368036 0.
0.642252 0.0367664 0.
0.644305 0.0367292 0.
0.646409 0.0366338 0.
0.648517 0.0365328 0.
0.650637 0.0364197 0.
0.652819 0.0362437 0.
0.654998 0.0360694 0.
0.657252 0.0358492 0.
0.659546 0.035611 0.
0.661858 0.0353574 0.
0.664324 0.0348922 0.
0.666801 0.0344255 0.
0.669439 0.0337843 0.
0.672111 0.0330579 0.
0.674881 0.032226 0.
0.677715 0.0313141 0.
0.680638 0.0303088 0.
0.683633 0.0292259 0.
0.68671 0.0279312 0.
0.689842 0.0265928 0.
0.693082 0.0252171 0.
0.696393 0.0237794 0.
0.699772 0.0223006 0.
0.703243 0.0207805 0.
0.706787 0.0191545 0.
0.710331 0.0174638 0.
0.713864 0.0158381 0.
0.717385 0.0145303 0.
0.720831 0.0137208 0.
0.477401 0.0149277 0.
0.48063 0.0156683 0.
0.484021 0.0168785 0.
0.487485 0.0183997 0.
0.490965 0.0200447 0.
0.494417 0.0217039 0.
0.49781 0.0233636 0.
0.501151 0.0249464 0.
0.504446 0.0264043 0.
0.507665 0.0278174 0.
0.5108 0.029174 0.
0.513878 0.0303521 0.
0.51688 0.0314618 0.
0.519803 0.0325331 0.
0.522644 0.0335423 0.
0.525422 0.0344535 0.
0.528129 0.0352334 0.
0.530764 0.0358986 0.
0.533349 0.0364776 0.
0.535798 0.0369522 0.
0.538249 0.0374368 0.
0.54054 0.0376765 0.
0.542813 0.0378989 0.
0.545049 0.0381034 0.
0.547223 0.0382708 0.
0.549401 0.0384399 0.
0.551516 0.0385487 0.
0.553617 0.0386462 0.
0.555714 0.0387375 0.
0.557763 0.038773 0.
0.559812 0.0388086 0.
0.561853 0.0388404 0.
0.563884 0.0388667 0.
0.565915 0.0388931 0.
0.567934 0.0389106 0.
0.569948 0.0389231 0.
0.571961 0.0389357 0.
0.573967 0.0389417 0.
0.575973 0.0389469 0.
0.577979 0.0389517 0.
0.579983 0.0389544 0.
0.581986 0.038957 0.
0.58399 0.0389592 0.
0.585992 0.0389605 0.
0.587994 0.0389618 0.
0.589995 0.0389629 0.
0.591997 0.0389639 0.
0.593998 0.038965 0.
0.595999 0.0389655 0.
0.598 0.0389659 0.
0.6 0.0389663 0.
0.602001 0.0389659 0.
0.604002 0.0389656 0.
0.606003 0.038965 0.
0.608004 0.0389636 0.
0.610005 0.0389622 0.
0.612007 0.0389606 0.
0.61401 0.0389588 0.
0.616013 0.038957 0.
0.618017 0.0389539 0.
0.620022 0.0389502 0.
0.622027 0.0389466 0.
0.624034 0.0389398 0.
0.626042 0.0389327 0.
0.628051 0.0389244 0.
0.630069 0.0389075 0.
0.632087 0.0388907 0.
0.634114 0.038867 0.
0.636155 0.0388316 0.
0.638196 0.0387964 0.
0.640249 0.0387566 0.
0.642311 0.0387136 0.
0.644372 0.0386707 0.
0.646503 0.0385462 0.
0.648637 0.0384161 0.
0.650785 0.038275 0.
0.65299 0.0380788 0.
0.655191 0.0378845 0.
0.657495 0.0376107 0.
0.659834 0.0373194 0.
0.662203 0.0369916 0.
0.664701 0.036451 0.
0.667205 0.0359182 0.
0.669863 0.0352279 0.
0.672557 0.0344627 0.
0.675365 0.033545 0.
0.678214 0.0325735 0.
0.681146 0.0314888 0.
0.684132 0.0303566 0.
0.68721 0.0290259 0.
0.690324 0.0276673 0.
0.693515 0.0262774 0.
0.696786 0.0248287 0.
0.700131 0.0233499 0.
0.703535 0.0218293 0.
0.706998 0.0202364 0.
0.71047 0.0186069 0.
0.713878 0.01709 0.
0.717238 0.015916 0.
0.720498 0.0152024 0.
0.477771 0.0164619 0.
0.480839 0.0171118 0.
0.484071 0.0182074 0.
0.48741 0.0196173 0.
0.490794 0.021186 0.
0.494159 0.0227931 0.
0.497502 0.0244336 0.
0.500806 0.0260184 0.
0.504046 0.0274799 0.
0.507223 0.0289035 0.
0.510343 0.0302913 0.
0.513398 0.0315046 0.
0.516391 0.0326543 0.
0.519306 0.0337588 0.
0.522174 0.034835 0.
0.524968 0.0357798 0.
0.527704 0.0366485 0.
0.530357 0.037376 0.
0.532985 0.0380415 0.
0.535472 0.0385817 0.
0.53796 0.0391311 0.
0.540301 0.03943 0.
0.54261 0.0396954 0.
0.544885 0.0399437 0.
0.547082 0.0401276 0.
0.549283 0.0403148 0.
0.55142 0.0404472 0.
0.55354 0.0405686 0.
0.555655 0.0406844 0.
0.557712 0.040725 0.
0.559769 0.0407657 0.
0.561818 0.0408033 0.
0.563856 0.0408366 0.
0.565893 0.0408701 0.
0.567918 0.0408924 0.
0.569934 0.0409083 0.
0.571951 0.0409242 0.
0.57396 0.0409322 0.
0.575967 0.040939 0.
0.577974 0.0409455 0.
0.579979 0.040949 0.
0.581983 0.0409524 0.
0.583987 0.0409553 0.
0.58599 0.040957 0.
0.587992 0.0409587 0.
0.589994 0.0409602 0.
0.591996 0.0409615 0.
0.593997 0.0409627 0.
0.595998 0.0409634 0.
0.597999 0.040964 0.
0.6 0.0409645 0.
0.602001 0.040964 0.
0.604002 0.0409634 0.
0.606003 0.0409626 0.
0.608005 0.0409609 0.
0.610007 0.0409591 0.
0.612009 0.0409571 0.
0.614012 0.0409546 0.
0.616016 0.0409522 0.
0.618021 0.0409482 0.
0.620027 0.0409435 0.
0.622033 0.0409388 0.
0.624043 0.04093 0.
0.626053 0.0409207 0.
0.628065 0.0409098 0.
0.630087 0.0408884 0.
0.63211 0.040867 0.
0.634143 0.0408371 0.
0.636192 0.0407929 0.
0.638241 0.0407491 0.
0.640304 0.0407026 0.
0.642375 0.040654 0.
0.644445 0.0406055 0.
0.6466 0.0404481 0.
0.648757 0.0402877 0.
0.650932 0.04012 0.
0.653159 0.0399082 0.
0.655382 0.0396964 0.
0.657738 0.0393635 0.
0.660122 0.039019 0.
0.66255 0.0386129 0.
0.66508 0.0379964 0.
0.667626 0.0373741 0.
0.670304 0.0366146 0.
0.67301 0.0357965 0.
0.675823 0.0348424 0.
0.67869 0.033817 0.
0.68163 0.0326698 0.
0.68461 0.0314804 0.
0.687662 0.0301335 0.
0.690768 0.0287635 0.
0.693927 0.0273627 0.
0.697136 0.0259089 0.
0.700436 0.0244355 0.
0.703773 0.0229258 0.
0.707157 0.0213725 0.
0.710547 0.0198165 0.
0.71386 0.0184055 0.
0.717071 0.0173517 0.
0.720169 0.01672 0.
0.478117 0.0180215 0.
0.481047 0.0185959 0.
0.48415 0.0195907 0.
0.487375 0.0208969 0.
0.490662 0.022378 0.
0.493953 0.0239356 0.
0.497246 0.0255532 0.
0.50049 0.0271269 0.
0.50368 0.0285899 0.
0.506832 0.030021 0.
0.509927 0.0314225 0.
0.512957 0.0326736 0.
0.51594 0.0338616 0.
0.518866 0.0349946 0.
0.521745 0.0361025 0.
0.524547 0.0371018 0.
0.527306 0.0380524 0.
0.529983 0.0388441 0.
0.532643 0.0395798 0.
0.535159 0.0401664 0.
0.537661 0.0407518 0.
0.540044 0.0411157 0.
0.542387 0.0414302 0.
0.544702 0.0417303 0.
0.546925 0.0419414 0.
0.549152 0.0421566 0.
0.551314 0.0423213 0.
0.553453 0.0424745 0.
0.555589 0.0426228 0.
0.557654 0.0426685 0.
0.55972 0.0427143 0.
0.561777 0.0427581 0.
0.563822 0.0428 0.
0.565867 0.042842 0.
0.567897 0.0428704 0.
0.569918 0.0428904 0.
0.571939 0.0429105 0.
0.57395 0.0429209 0.
0.575959 0.0429298 0.
0.577968 0.0429383 0.
0.579974 0.0429427 0.
0.58198 0.0429472 0.
0.583985 0.0429509 0.
0.585988 0.0429532 0.
0.587991 0.0429555 0.
0.589993 0.0429574 0.
0.591995 0.0429589 0.
0.593997 0.0429604 0.
0.595998 0.0429613 0.
0.597999 0.042962 0.
0.6 0.0429628 0.
0.602002 0.042962 0.
0.604003 0.0429612 0.
0.606004 0.0429602 0.
0.608006 0.042958 0.
0.610008 0.0429559 0.
0.612011 0.0429532 0.
0.614015 0.0429499 0.
0.61602 0.0429466 0.
0.618026 0.0429416 0.
0.620034 0.0429357 0.
0.622041 0.0429298 0.
0.624053 0.0429183 0.
0.626066 0.0429063 0.
0.628081 0.0428922 0.
0.630109 0.0428651 0.
0.632138 0.0428382 0.
0.634178 0.0428006 0.
0.636235 0.0427464 0.
0.638292 0.0426924 0.
0.640366 0.0426384 0.
0.642449 0.0425834 0.
0.644532 0.0425272 0.
0.646704 0.0423283 0.
0.648877 0.0421281 0.
0.651082 0.0419198 0.
0.653349 0.041674 0.
0.655607 0.0414347 0.
0.657998 0.0410489 0.
0.660409 0.0406591 0.
0.66288 0.0401835 0.
0.665434 0.0395171 0.
0.668017 0.0388198 0.
0.670712 0.0379998 0.
0.673439 0.0371175 0.
0.676256 0.0361136 0.
0.67912 0.0350539 0.
0.682061 0.0338663 0.
0.685044 0.032629 0.
0.688077 0.0312685 0.
0.691157 0.0298907 0.
0.694294 0.0284802 0.
0.697461 0.027021 0.
0.700702 0.0255608 0.
0.703982 0.0240685 0.
0.707286 0.0225604 0.
0.710583 0.0210897 0.
0.713809 0.0197794 0.
0.716902 0.0188229 0.
0.71986 0.0182583 0.
0.478473 0.0196158 0.
0.481298 0.0201326 0.
0.48429 0.0210419 0.
0.487405 0.0222392 0.
0.490599 0.0236351 0.
0.493819 0.0251417 0.
0.497047 0.0267242 0.
0.500228 0.0282804 0.
0.503381 0.0297425 0.
0.506494 0.0311736 0.
0.509553 0.0325786 0.
0.51257 0.0338625 0.
0.515547 0.0350772 0.
0.518462 0.0362296 0.
0.521334 0.0373662 0.
0.524141 0.0384192 0.
0.526917 0.0394348 0.
0.529608 0.0402728 0.
0.532271 0.0410456 0.
0.534816 0.041699 0.
0.537339 0.0423433 0.
0.53977 0.0427847 0.
0.542154 0.043154 0.
0.544515 0.0435142 0.
0.546764 0.043753 0.
0.549019 0.0439965 0.
0.551208 0.0441935 0.
0.553365 0.0443789 0.
0.555522 0.0445609 0.
0.557596 0.0446119 0.
0.55967 0.0446628 0.
0.561736 0.0447128 0.
0.563788 0.0447632 0.
0.56584 0.0448139 0.
0.567876 0.0448483 0.
0.569901 0.0448725 0.
0.571927 0.0448967 0.
0.57394 0.0449095 0.
0.575951 0.0449206 0.
0.577962 0.044931 0.
0.579969 0.0449365 0.
0.581976 0.0449419 0.
0.583982 0.0449465 0.
0.585985 0.0449494 0.
0.587989 0.0449523 0.
0.589992 0.0449545 0.
0.591994 0.0449563 0.
0.593996 0.044958 0.
0.595998 0.0449592 0.
0.597999 0.0449601 0.
0.6 0.0449611 0.
0.602002 0.0449601 0.
0.604003 0.0449591 0.
0.606005 0.0449577 0.
0.608008 0.0449551 0.
0.61001 0.0449526 0.
0.612014 0.0449493 0.
0.614019 0.0449452 0.
0.616023 0.0449411 0.
0.618031 0.0449349 0.
0.62004 0.0449278 0.
0.622049 0.0449208 0.
0.624064 0.0449066 0.
0.626079 0.0448918 0.
0.628097 0.0448744 0.
0.630132 0.0448418 0.
0.632166 0.0448092 0.
0.634213 0.044764 0.
0.636278 0.0446995 0.
0.638342 0.0446354 0.
0.640428 0.044574 0.
0.642523 0.0445126 0.
0.64462 0.0444467 0.
0.646809 0.0442062 0.
0.648997 0.0439658 0.
0.651237 0.0437165 0.
0.653546 0.043435 0.
0.655849 0.0431558 0.
0.658276 0.0427094 0.
0.660717 0.0422655 0.
0.663228 0.0417092 0.
0.665798 0.0409932 0.
0.668407 0.040235 0.
0.671105 0.039373 0.
0.673848 0.0384356 0.
0.676669 0.0373853 0.
0.679529 0.0362821 0.
0.682455 0.0350733 0.
0.685421 0.0338013 0.
0.688438 0.0324344 0.
0.691492 0.0310567 0.
0.694597 0.0296387 0.
0.697726 0.0281783 0.
0.700913 0.0267325 0.
0.704129 0.0252716 0.
0.707357 0.023811 0.
0.710565 0.0224236 0.
0.713691 0.0212184 0.
0.716678 0.0203465 0.
0.719524 0.0198252 0.
0.478859 0.0212493 0.
0.481597 0.0217154 0.
0.484491 0.0225437 0.
0.487507 0.0236467 0.
0.490614 0.0249626 0.
0.49376 0.0264127 0.
0.49691 0.0279522 0.
0.500036 0.0294856 0.
0.503143 0.0309439 0.
0.506213 0.0323658 0.
0.50925 0.0337715 0.
0.512245 0.0350779 0.
0.515195 0.0363076 0.
0.518091 0.0374806 0.
0.520955 0.0386388 0.
0.523764 0.0397325 0.
0.526533 0.0407766 0.
0.52923 0.0416699 0.
0.5319 0.0424982 0.
0.534473 0.0432224 0.
0.537015 0.0439221 0.
0.539488 0.0444411 0.
0.541906 0.0448622 0.
0.544304 0.045273 0.
0.546573 0.0455334 0.
0.548846 0.0458018 0.
0.551058 0.0460305 0.
0.55323 0.0462419 0.
0.555404 0.0464506 0.
0.557499 0.0465188 0.
0.559594 0.0465855 0.
0.561679 0.0466498 0.
0.563738 0.0467088 0.
0.565798 0.0467682 0.
0.567841 0.0468105 0.
0.569874 0.0468418 0.
0.571907 0.0468732 0.
0.573924 0.0468904 0.
0.575938 0.0469053 0.
0.577952 0.0469194 0.
0.579961 0.0469263 0.
0.58197 0.0469332 0.
0.583977 0.0469392 0.
0.585982 0.0469431 0.
0.587987 0.046947 0.
0.58999 0.0469501 0.
0.591993 0.0469524 0.
0.593995 0.0469547 0.
0.595997 0.046956 0.
0.597999 0.0469571 0.
0.6 0.0469582 0.
0.602002 0.0469569 0.
0.604004 0.0469557 0.
0.606006 0.0469539 0.
0.60801 0.0469505 0.
0.610013 0.0469471 0.
0.612017 0.0469428 0.
0.614024 0.0469372 0.
0.61603 0.0469317 0.
0.61804 0.0469239 0.
0.620052 0.0469149 0.
0.622063 0.046906 0.
0.624082 0.0468871 0.
0.626101 0.0468674 0.
0.628124 0.0468443 0.
0.630168 0.0468026 0.
0.632212 0.0467611 0.
0.634267 0.0467065 0.
0.63634 0.0466331 0.
0.638413 0.04656 0.
0.640522 0.0464804 0.
0.642643 0.046399 0.
0.644766 0.046309 0.
0.646967 0.046042 0.
0.649165 0.0457736 0.
0.65143 0.045485 0.
0.653767 0.0451712 0.
0.656107 0.0448579 0.
0.658562 0.0443589 0.
0.661028 0.0438628 0.
0.663575 0.0432257 0.
0.666161 0.042458 0.
0.668791 0.0416359 0.
0.671491 0.0407335 0.
0.674237 0.0397492 0.
0.677047 0.0386654 0.
0.6799 0.0375262 0.
0.682806 0.0363012 0.
0.685752 0.0350067 0.
0.688738 0.0336348 0.
0.69176 0.03226 0.
0.694824 0.0308459 0.
0.697919 0.0293895 0.
0.701051 0.0279592 0.
0.704201 0.0265366 0.
0.707351 0.025134 0.
0.71047 0.0238227 0.
0.713503 0.0227103 0.
0.716394 0.0219183 0.
0.719147 0.0214394 0.
0.479259 0.022897 0.
0.481929 0.023325 0.
0.484742 0.0240916 0.
0.487672 0.0251141 0.
0.490694 0.0263549 0.
0.493758 0.0277443 0.
0.496836 0.0292397 0.
0.499908 0.0307463 0.
0.502963 0.032189 0.
0.505994 0.0335977 0.
0.508997 0.0350031 0.
0.511958 0.0363212 0.
0.514879 0.0375601 0.
0.517762 0.0387492 0.
0.520607 0.0399215 0.
0.523404 0.04104 0.
0.526165 0.0421157 0.
0.528868 0.0430656 0.
0.531542 0.0439388 0.
0.534141 0.0447216 0.
0.536694 0.0454554 0.
0.539192 0.0460398 0.
0.541626 0.0465039 0.
0.544048 0.0469697 0.
0.546345 0.0472736 0.
0.548641 0.0475818 0.
0.550883 0.0478511 0.
0.553076 0.0480899 0.
0.555272 0.0483268 0.
0.557393 0.0484175 0.
0.559513 0.0485035 0.
0.561618 0.0485846 0.
0.563686 0.0486527 0.
0.565754 0.048721 0.
0.567806 0.0487716 0.
0.569846 0.0488103 0.
0.571886 0.0488491 0.
0.573907 0.0488709 0.
0.575925 0.0488898 0.
0.577942 0.0489077 0.
0.579953 0.0489161 0.
0.581963 0.0489244 0.
0.583972 0.0489317 0.
0.585978 0.0489367 0.
0.587984 0.0489418 0.
0.589988 0.0489456 0.
0.591991 0.0489485 0.
0.593995 0.0489513 0.
0.595997 0.0489529 0.
0.597999 0.048954 0.
0.600001 0.0489552 0.
0.602003 0.0489537 0.
0.604005 0.0489522 0.
0.606008 0.0489501 0.
0.608011 0.0489459 0.
0.610015 0.0489417 0.
0.612021 0.0489362 0.
0.614029 0.0489292 0.
0.616037 0.0489222 0.
0.618049 0.0489126 0.
0.620063 0.0489018 0.
0.622077 0.048891 0.
0.6241 0.0488673 0.
0.626124 0.0488424 0.
0.628152 0.0488134 0.
0.630206 0.0487622 0.
0.632259 0.0487112 0.
0.634324 0.0486469 0.
0.636406 0.0485641 0.
0.638487 0.0484818 0.
0.640624 0.0483797 0.
0.642777 0.0482727 0.
0.644933 0.0481521 0.
0.647156 0.0478576 0.
0.649375 0.0475624 0.
0.65167 0.0472211 0.
0.654023 0.0468525 0.
0.656389 0.0464774 0.
0.658863 0.0459443 0.
0.661342 0.0454171 0.
0.663911 0.0447216 0.
0.666514 0.0439114 0.
0.669164 0.0430329 0.
0.671861 0.0420955 0.
0.674602 0.0410685 0.
0.677402 0.0399575 0.
0.680242 0.0387884 0.
0.683121 0.0375527 0.
0.686039 0.0362443 0.
0.688998 0.0348718 0.
0.69198 0.0334997 0.
0.694995 0.0320941 0.
0.698042 0.0306558 0.
0.701118 0.029245 0.
0.704205 0.0278606 0.
0.707277 0.0265171 0.
0.710311 0.0252802 0.
0.713258 0.0242451 0.
0.716069 0.0235266 0.
0.718748 0.0230891 0.
0.47965 0.0245595 0.
0.482268 0.0249604 0.
0.485014 0.0256713 0.
0.487864 0.0266202 0.
0.490806 0.0277901 0.
0.493793 0.0291239 0.
0.496806 0.0305759 0.
0.499818 0.0320446 0.
0.502823 0.0334657 0.
0.505811 0.0348651 0.
0.50878 0.0362664 0.
0.511709 0.0375899 0.
0.514605 0.0388368 0.
0.517462 0.0400383 0.
0.520287 0.0412191 0.
0.523071 0.0423597 0.
0.525821 0.0434585 0.
0.528523 0.0444516 0.
0.531196 0.0453593 0.
0.533806 0.046191 0.
0.53637 0.0469661 0.
0.538897 0.0476246 0.
0.541346 0.0481391 0.
0.543791 0.0486605 0.
0.546118 0.0490082 0.
0.548438 0.0493559 0.
0.55071 0.0496682 0.
0.552925 0.0499327 0.
0.555142 0.0501927 0.
0.557287 0.0503062 0.
0.559429 0.0504134 0.
0.561553 0.0505144 0.
0.563629 0.0505908 0.
0.565706 0.0506675 0.
0.567765 0.0507267 0.
0.569813 0.0507737 0.
0.571861 0.050821 0.
0.573887 0.0508481 0.
0.575909 0.0508717 0.
0.57793 0.050894 0.
0.579942 0.0509041 0.
0.581955 0.0509141 0.
0.583966 0.050923 0.
0.585973 0.0509293 0.
0.58798 0.0509357 0.
0.589986 0.0509405 0.
0.59199 0.050944 0.
0.593993 0.0509476 0.
0.595996 0.0509494 0.
0.597998 0.0509507 0.
0.600001 0.050952 0.
0.602003 0.0509502 0.
0.604006 0.0509483 0.
0.606009 0.0509457 0.
0.608014 0.0509405 0.
0.610019 0.0509353 0.
0.612026 0.0509285 0.
0.614036 0.0509197 0.
0.616046 0.050911 0.
0.61806 0.0508994 0.
0.620077 0.0508865 0.
0.622094 0.0508736 0.
0.624121 0.0508443 0.
0.62615 0.0508135 0.
0.628184 0.0507776 0.
0.630248 0.0507156 0.
0.632311 0.0506541 0.
0.634386 0.0505802 0.
0.636476 0.0504893 0.
0.638566 0.0503988 0.
0.640728 0.0502706 0.
0.64291 0.0501368 0.
0.645097 0.0499878 0.
0.647342 0.0496694 0.
0.649582 0.0493485 0.
0.651907 0.0489492 0.
0.654278 0.0485262 0.
0.656671 0.0480913 0.
0.659166 0.047512 0.
0.661666 0.0469328 0.
0.664244 0.0461841 0.
0.66685 0.0453465 0.
0.669519 0.0444274 0.
0.672217 0.0434576 0.
0.674948 0.042394 0.
0.677724 0.0412629 0.
0.680549 0.0400733 0.
0.683411 0.0388265 0.
0.686293 0.0375069 0.
0.689215 0.0361398 0.
0.692164 0.034774 0.
0.695132 0.0333768 0.
0.69813 0.0319597 0.
0.701142 0.0305782 0.
0.704163 0.029233 0.
0.707166 0.0279443 0.
0.710119 0.0267756 0.
0.712988 0.0258105 0.
0.715736 0.0251516 0.
0.718362 0.0247536 0.
0.48002 0.0262407 0.
0.482595 0.0266144 0.
0.485281 0.0272688 0.
0.488059 0.0281532 0.
0.490927 0.0292641 0.
0.493847 0.0305471 0.
0.496796 0.0319489 0.
0.499756 0.0333783 0.
0.502717 0.0347831 0.
0.505669 0.0361701 0.
0.508599 0.037561 0.
0.511496 0.0388898 0.
0.514365 0.0401451 0.
0.5172 0.0413526 0.
0.520002 0.0425381 0.
0.522765 0.0436952 0.
0.525503 0.0448127 0.
0.528202 0.0458423 0.
0.530866 0.046781 0.
0.533488 0.0476612 0.
0.536065 0.0484758 0.
0.538616 0.0492018 0.
0.541083 0.0497592 0.
0.543538 0.0503136 0.
0.545891 0.0507002 0.
0.548233 0.0510818 0.
0.550533 0.0514354 0.
0.552773 0.0517249 0.
0.55502 0.052015 0.
0.557184 0.0521629 0.
0.559337 0.0523034 0.
0.561476 0.0524341 0.
0.563562 0.0525189 0.
0.565648 0.052604 0.
0.567718 0.0526728 0.
0.569775 0.05273 0.
0.571832 0.0527875 0.
0.573863 0.0528212 0.
0.575889 0.0528503 0.
0.577914 0.052878 0.
0.57993 0.05289 0.
0.581945 0.052902 0.
0.583958 0.0529127 0.
0.585967 0.0529206 0.
0.587976 0.0529286 0.
0.589982 0.0529346 0.
0.591987 0.0529389 0.
0.593992 0.0529433 0.
0.595995 0.0529455 0.
0.597998 0.052947 0.
0.600001 0.0529486 0.
0.602004 0.0529462 0.
0.604008 0.0529438 0.
0.606012 0.0529405 0.
0.608018 0.0529343 0.
0.610024 0.052928 0.
0.612033 0.0529196 0.
0.614045 0.0529086 0.
0.616057 0.0528975 0.
0.618074 0.0528837 0.
0.620094 0.0528685 0.
0.622114 0.0528534 0.
0.624147 0.0528171 0.
0.626181 0.0527793 0.
0.628223 0.0527347 0.
0.630298 0.0526595 0.
0.632372 0.052585 0.
0.634459 0.0525005 0.
0.63656 0.0524022 0.
0.63866 0.0523043 0.
0.640837 0.052135 0.
0.643029 0.0519568 0.
0.645236 0.0517663 0.
0.647512 0.0514304 0.
0.649779 0.0510939 0.
0.652133 0.0506432 0.
0.65452 0.0501758 0.
0.656938 0.0496904 0.
0.659451 0.0490742 0.
0.661971 0.0484454 0.
0.664558 0.0476472 0.
0.667169 0.0467725 0.
0.669836 0.0458221 0.
0.672535 0.0448302 0.
0.675264 0.043735 0.
0.67802 0.0425847 0.
0.680817 0.0413808 0.
0.683657 0.0401296 0.
0.686518 0.0388017 0.
0.689403 0.0374393 0.
0.692313 0.0360847 0.
0.69524 0.0346996 0.
0.698192 0.0333014 0.
0.701148 0.0319476 0.
0.7041 0.0306468 0.
0.707038 0.0294108 0.
0.709921 0.0283029 0.
0.712721 0.0273957 0.
0.715414 0.0267902 0.
0.718 0.0264305 0.
0.480393 0.0279278 0.
0.48293 0.0282782 0.
0.485563 0.0288883 0.
0.488281 0.0297254 0.
0.491086 0.0307845 0.
0.493941 0.0320154 0.
0.496834 0.0333681 0.
0.499749 0.0347624 0.
0.502669 0.0361478 0.
0.505578 0.0375142 0.
0.508464 0.0388952 0.
0.51133 0.040227 0.
0.51417 0.0414829 0.
0.516972 0.0426914 0.
0.519743 0.0438809 0.
0.522493 0.0450511 0.
0.525215 0.0461813 0.
0.527902 0.04724 0.
0.530557 0.0482066 0.
0.533183 0.0491307 0.
0.535764 0.0499763 0.
0.538319 0.0507338 0.
0.540792 0.0513317 0.
0.543257 0.0519316 0.
0.545645 0.0523689 0.
0.548014 0.0527915 0.
0.550348 0.0531953 0.
0.552618 0.0535148 0.
0.554896 0.0538355 0.
0.557081 0.0540175 0.
0.559246 0.0541914 0.
0.561397 0.0543536 0.
0.563494 0.0544467 0.
0.565591 0.0545403 0.
0.567671 0.0546187 0.
0.569737 0.0546861 0.
0.571803 0.0547539 0.
0.573839 0.0547943 0.
0.57587 0.0548289 0.
0.577899 0.054862 0.
0.579917 0.054876 0.
0.581934 0.0548899 0.
0.58395 0.0549024 0.
0.58596 0.054912 0.
0.587971 0.0549215 0.
0.589979 0.0549287 0.
0.591984 0.0549339 0.
0.59399 0.0549391 0.
0.595994 0.0549416 0.
0.597998 0.0549434 0.
0.600001 0.0549451 0.
0.602006 0.0549422 0.
0.60401 0.0549393 0.
0.606015 0.0549353 0.
0.608022 0.054928 0.
0.610029 0.0549207 0.
0.61204 0.0549107 0.
0.614054 0.0548974 0.
0.616068 0.0548841 0.
0.618089 0.054868 0.
0.620112 0.0548506 0.
0.622135 0.0548332 0.
0.624173 0.0547899 0.
0.626212 0.054745 0.
0.628261 0.0546916 0.
0.630348 0.0546032 0.
0.632434 0.0545154 0.
0.634532 0.0544206 0.
0.636644 0.054315 0.
0.638755 0.0542097 0.
0.640946 0.0539963 0.
0.64315 0.0537735 0.
0.645378 0.0535436 0.
0.647686 0.0531857 0.
0.649983 0.0528273 0.
0.652374 0.0523149 0.
0.654788 0.0517989 0.
0.657232 0.0512614 0.
0.659743 0.0506103 0.
0.662272 0.0499406 0.
0.664859 0.0491117 0.
0.667468 0.0482026 0.
0.670126 0.0472233 0.
0.672811 0.0462089 0.
0.67553 0.0450952 0.
0.678277 0.0439295 0.
0.681054 0.0427137 0.
0.683858 0.0414602 0.
0.68669 0.0401337 0.
0.689545 0.0387785 0.
0.692419 0.0374347 0.
0.6953 0.0360699 0.
0.698204 0.0346938 0.
0.701109 0.0333633 0.
0.704001 0.0321025 0.
0.706871 0.0309203 0.
0.709693 0.0298676 0.
0.712435 0.0290066 0.
0.715084 0.0284403 0.
0.717638 0.0281086 0.
0.480785 0.0296237 0.
0.483291 0.0299598 0.
0.485883 0.0305382 0.
0.488551 0.0313361 0.
0.491294 0.0323476 0.
0.49409 0.0335325 0.
0.496934 0.034841 0.
0.499803 0.0361991 0.
0.502674 0.0375554 0.
0.505535 0.0389025 0.
0.508382 0.0402727 0.
0.511208 0.0415983 0.
0.514006 0.0428496 0.
0.516776 0.0440605 0.
0.519528 0.0452533 0.
0.522257 0.0464289 0.
0.524954 0.047567 0.
0.527626 0.0486492 0.
0.530274 0.0496382 0.
0.532892 0.0505858 0.
0.535464 0.0514523 0.
0.538017 0.0522473 0.
0.540502 0.0528994 0.
0.542977 0.0535445 0.
0.545395 0.0540315 0.
0.547788 0.0544938 0.
0.550149 0.0549467 0.
0.552437 0.0552857 0.
0.554731 0.0556317 0.
0.556934 0.0558484 0.
0.559112 0.0560544 0.
0.561282 0.056249 0.
0.563392 0.0563493 0.
0.565503 0.0564502 0.
0.567598 0.0565394 0.
0.569676 0.0566203 0.
0.571755 0.056702 0.
0.5738 0.0567526 0.
0.575838 0.0567961 0.
0.577875 0.0568378 0.
0.579896 0.0568541 0.
0.581917 0.0568704 0.
0.583936 0.0568855 0.
0.585949 0.0568977 0.
0.587963 0.05691 0.
0.589973 0.0569191 0.
0.59198 0.0569256 0.
0.593987 0.0569321 0.
0.595992 0.0569351 0.
0.597997 0.0569371 0.
0.600002 0.0569391 0.
0.602007 0.0569353 0.
0.604013 0.0569316 0.
0.606019 0.0569266 0.
0.608029 0.0569174 0.
0.610038 0.0569082 0.
0.612052 0.0568956 0.
0.61407 0.0568789 0.
0.616088 0.0568623 0.
0.618112 0.0568434 0.
0.620138 0.0568234 0.
0.622165 0.0568035 0.
0.624215 0.0567482 0.
0.626266 0.0566911 0.
0.628327 0.0566246 0.
0.630424 0.0565217 0.
0.63252 0.0564198 0.
0.634633 0.0563149 0.
0.636762 0.056203 0.
0.638888 0.0560918 0.
0.641095 0.055835 0.
0.643308 0.0555712 0.
0.645552 0.0553034 0.
0.647874 0.0549311 0.
0.650198 0.0545527 0.
0.652619 0.0539799 0.
0.655056 0.0534164 0.
0.657523 0.0528276 0.
0.660036 0.0521363 0.
0.662566 0.0514178 0.
0.665148 0.0505646 0.
0.667747 0.0496346 0.
0.670389 0.0486362 0.
0.673061 0.0476017 0.
0.67576 0.0464749 0.
0.678482 0.0453017 0.
0.681242 0.04408 0.
0.684018 0.0428249 0.
0.686816 0.0415033 0.
0.689633 0.0401602 0.
0.692472 0.038828 0.
0.695312 0.0374837 0.
0.698161 0.0361383 0.
0.701015 0.0348337 0.
0.70385 0.0336066 0.
0.70666 0.0324707 0.
0.70942 0.0314712 0.
0.712111 0.0306524 0.
0.714717 0.0301117 0.
0.717241 0.0297996 0.
0.481203 0.0313358 0.
0.483683 0.0316607 0.
0.486236 0.0322107 0.
0.488859 0.0329788 0.
0.491548 0.0339517 0.
0.494296 0.0350985 0.
0.497089 0.0363639 0.
0.499902 0.0376809 0.
0.502719 0.0390084 0.
0.505531 0.0403371 0.
0.508332 0.0416881 0.
0.511111 0.0430015 0.
0.513874 0.044249 0.
0.516618 0.0454604 0.
0.519341 0.0466495 0.
0.522044 0.0478276 0.
0.524722 0.0489743 0.
0.52738 0.0500722 0.
0.530011 0.0510737 0.
0.532614 0.0520398 0.
0.535178 0.0529345 0.
0.537728 0.0537601 0.
0.540223 0.0544549 0.
0.542703 0.0551289 0.
0.545133 0.0556589 0.
0.547534 0.0561485 0.
0.549911 0.0566379 0.
0.552214 0.0570174 0.
0.554522 0.057405 0.
0.556754 0.0576634 0.
0.558954 0.0579034 0.
0.561149 0.0581347 0.
0.563277 0.058244 0.
0.565407 0.0583538 0.
0.567519 0.0584551 0.
0.569611 0.0585509 0.
0.571704 0.0586477 0.
0.573759 0.0587094 0.
0.575805 0.0587622 0.
0.57785 0.0588131 0.
0.579875 0.0588318 0.
0.581899 0.0588506 0.
0.583921 0.0588682 0.
0.585938 0.0588832 0.
0.587954 0.0588983 0.
0.589967 0.0589094 0.
0.591975 0.0589172 0.
0.593984 0.058925 0.
0.59599 0.0589285 0.
0.597996 0.0589307 0.
0.600002 0.058933 0.
0.602009 0.0589284 0.
0.604016 0.0589238 0.
0.606024 0.0589177 0.
0.608036 0.0589066 0.
0.610048 0.0588955 0.
0.612064 0.0588802 0.
0.614086 0.0588601 0.
0.616107 0.05884 0.
0.618135 0.0588183 0.
0.620166 0.0587958 0.
0.622196 0.0587733 0.
0.624259 0.0587048 0.
0.626323 0.0586346 0.
0.628397 0.0585537 0.
0.630505 0.058435 0.
0.632613 0.0583175 0.
0.634745 0.0582011 0.
0.636895 0.058081 0.
0.639044 0.0579585 0.
0.641276 0.0576566 0.
0.643511 0.0573518 0.
0.645784 0.0570342 0.
0.648121 0.0566137 0.
0.650457 0.0561927 0.
0.65288 0.0556008 0.
0.655323 0.0550139 0.
0.6578 0.054383 0.
0.660313 0.053659 0.
0.662847 0.0528999 0.
0.66542 0.0520245 0.
0.668009 0.0510736 0.
0.670633 0.0500616 0.
0.673283 0.0490125 0.
0.675963 0.047876 0.
0.678664 0.0466986 0.
0.681393 0.0454763 0.
0.684141 0.0442232 0.
0.686907 0.0429096 0.
0.689684 0.0415815 0.
0.692477 0.0402666 0.
0.695279 0.0389419 0.
0.698076 0.0376262 0.
0.700871 0.0363542 0.
0.703651 0.0351595 0.
0.706406 0.0340609 0.
0.709112 0.0331032 0.
0.711754 0.032323 0.
0.71432 0.0318008 0.
0.716813 0.0315012 0.
0.481623 0.0330575 0.
0.48408 0.0333715 0.
0.486599 0.0338989 0.
0.489181 0.0346431 0.
0.491823 0.0355843 0.
0.494523 0.0366952 0.
0.497262 0.0379178 0.
0.500018 0.0391987 0.
0.502783 0.0404999 0.
0.505544 0.0418042 0.
0.508299 0.0431338 0.
0.51104 0.044436 0.
0.51377 0.0456764 0.
0.516482 0.0468825 0.
0.519176 0.0480678 0.
0.521857 0.0492466 0.
0.524514 0.0504 0.
0.527148 0.0515066 0.
0.529759 0.0525193 0.
0.532348 0.0535021 0.
0.534904 0.0544177 0.
0.537444 0.0552617 0.
0.539942 0.0559927 0.
0.542423 0.0566948 0.
0.544865 0.0572713 0.
0.547277 0.0577924 0.
0.549672 0.0583214 0.
0.551991 0.0587447 0.
0.554314 0.0591735 0.
0.556574 0.0594751 0.
0.558797 0.0597488 0.
0.561016 0.0600165 0.
0.563162 0.0601334 0.
0.56531 0.0602514 0.
0.567439 0.0603645 0.
0.569542 0.0604747 0.
0.571646 0.0605859 0.
0.573712 0.0606599 0.
0.575767 0.0607236 0.
0.577823 0.0607856 0.
0.579851 0.0608068 0.
0.581879 0.060828 0.
0.583904 0.0608481 0.
0.585924 0.0608662 0.
0.587944 0.0608844 0.
0.589958 0.0608978 0.
0.591969 0.0609072 0.
0.59398 0.0609166 0.
0.595988 0.0609206 0.
0.597995 0.0609231 0.
0.600002 0.0609256 0.
0.602011 0.06092 0.
0.60402 0.0609144 0.
0.60603 0.0609069 0.
0.608045 0.0608936 0.
0.61006 0.0608802 0.
0.61208 0.0608621 0.
0.614105 0.0608384 0.
0.61613 0.0608148 0.
0.618163 0.0607895 0.
0.620198 0.0607634 0.
0.622233 0.0607374 0.
0.624309 0.0606542 0.
0.626385 0.0605699 0.
0.628471 0.0604745 0.
0.630589 0.0603422 0.
0.632707 0.0602108 0.
0.634857 0.0600827 0.
0.637027 0.0599561 0.
0.639201 0.0598198 0.
0.641458 0.0594745 0.
0.643714 0.0591288 0.
0.646016 0.0587587 0.
0.648369 0.05829 0.
0.650724 0.0578143 0.
0.653152 0.0571939 0.
0.655596 0.0565848 0.
0.658075 0.0559236 0.
0.660584 0.0551775 0.
0.663116 0.054385 0.
0.66568 0.0534914 0.
0.668257 0.0525231 0.
0.670863 0.0515011 0.
0.673493 0.0504414 0.
0.676146 0.0492975 0.
0.678821 0.0481177 0.
0.681522 0.0468976 0.
0.684238 0.0456499 0.
0.686972 0.0443461 0.
0.689712 0.0430337 0.
0.692459 0.0417386 0.
0.695215 0.0404375 0.
0.697969 0.0391484 0.
0.700714 0.0379057 0.
0.703435 0.0367445 0.
0.706136 0.0356812 0.
0.708796 0.0347553 0.
0.711393 0.0340102 0.
0.713921 0.0335049 0.
0.716384 0.0332183 0.
0.482029 0.0347965 0.
0.48446 0.035095 0.
0.486947 0.0356008 0.
0.489493 0.0363228 0.
0.492094 0.037235 0.
0.494751 0.0383144 0.
0.497438 0.0395006 0.
0.500146 0.0407512 0.
0.50286 0.0420233 0.
0.505571 0.0433041 0.
0.508286 0.0446139 0.
0.510991 0.0459011 0.
0.513686 0.0471302 0.
0.516368 0.048331 0.
0.519038 0.0495131 0.
0.521695 0.0506932 0.
0.524327 0.0518482 0.
0.526937 0.052961 0.
0.529528 0.0539821 0.
0.5321 0.0549751 0.
0.534643 0.0559086 0.
0.537172 0.0567669 0.
0.53967 0.0575314 0.
0.542153 0.0582622 0.
0.544609 0.0588846 0.
0.547032 0.0594351 0.
0.549438 0.0599916 0.
0.551768 0.0604448 0.
0.554099 0.0608989 0.
0.556379 0.0612392 0.
0.558624 0.0615452 0.
0.56087 0.0618486 0.
0.563038 0.0619882 0.
0.565205 0.0621258 0.
0.567351 0.062258 0.
0.569462 0.0623834 0.
0.571573 0.06251 0.
0.573652 0.0625995 0.
0.575722 0.0626778 0.
0.577791 0.0627544 0.
0.579823 0.062778 0.
0.581854 0.0628016 0.
0.583884 0.0628245 0.
0.585907 0.0628461 0.
0.58793 0.0628678 0.
0.589948 0.062884 0.
0.591961 0.0628953 0.
0.593975 0.0629066 0.
0.595985 0.0629114 0.
0.597994 0.0629141 0.
0.600003 0.0629169 0.
0.602015 0.0629099 0.
0.604026 0.062903 0.
0.606039 0.0628939 0.
0.608057 0.0628779 0.
0.610075 0.0628618 0.
0.612099 0.0628405 0.
0.614128 0.0628131 0.
0.616157 0.0627858 0.
0.618196 0.0627556 0.
0.620237 0.0627242 0.
0.622279 0.0626925 0.
0.624369 0.0625912 0.
0.626459 0.0624889 0.
0.628558 0.0623768 0.
0.630685 0.0622334 0.
0.632811 0.0620909 0.
0.634986 0.0619317 0.
0.637182 0.0617681 0.
0.639382 0.0615952 0.
0.641657 0.0612343 0.
0.64393 0.0608686 0.
0.64625 0.0604573 0.
0.648611 0.0599529 0.
0.650981 0.0594333 0.
0.653413 0.0587902 0.
0.65586 0.0581582 0.
0.658341 0.0574654 0.
0.660844 0.0566986 0.
0.66337 0.0558797 0.
0.665921 0.0549726 0.
0.668487 0.0539887 0.
0.671074 0.0529583 0.
0.673682 0.0518927 0.
0.67631 0.0507463 0.
0.678958 0.049564 0.
0.681629 0.0483466 0.
0.684314 0.0471051 0.
0.687012 0.0458159 0.
0.689721 0.0445179 0.
0.692427 0.0432406 0.
0.695138 0.0419651 0.
0.697843 0.0407062 0.
0.700543 0.039489 0.
0.703219 0.0383535 0.
0.705869 0.0373216 0.
0.708486 0.0364237 0.
0.711046 0.0357083 0.
0.713544 0.0352206 0.
0.715977 0.0349496 0.
0.48243 0.0365456 0.
0.484837 0.0368276 0.
0.487296 0.0373152 0.
0.489813 0.03802 0.
0.49238 0.0389096 0.
0.494995 0.0399629 0.
0.497638 0.0411188 0.
0.500299 0.0423405 0.
0.502964 0.0435853 0.
0.505635 0.0448461 0.
0.508309 0.046135 0.
0.510975 0.0474005 0.
0.513636 0.0486169 0.
0.51629 0.0498113 0.
0.518931 0.0509898 0.
0.521558 0.0521653 0.
0.524161 0.0533196 0.
0.526746 0.0544347 0.
0.529316 0.0554632 0.
0.53187 0.056464 0.
0.534398 0.0574094 0.
0.536915 0.0582795 0.
0.539408 0.0590727 0.
0.541888 0.059826 0.
0.544349 0.0604804 0.
0.546771 0.0610475 0.
0.549179 0.0616289 0.
0.551525 0.062118 0.
0.553868 0.0626052 0.
0.556173 0.0629914 0.
0.558445 0.0633352 0.
0.560721 0.063678 0.
0.562911 0.0638413 0.
0.565098 0.0639987 0.
0.567263 0.0641509 0.
0.569381 0.0642915 0.
0.571501 0.0644335 0.
0.573593 0.0645386 0.
0.575676 0.0646315 0.
0.577759 0.064723 0.
0.579794 0.0647491 0.
0.58183 0.0647752 0.
0.583863 0.0648008 0.
0.58589 0.064826 0.
0.587916 0.0648512 0.
0.589937 0.0648701 0.
0.591953 0.0648834 0.
0.593969 0.0648967 0.
0.595982 0.0649021 0.
0.597993 0.0649051 0.
0.600004 0.0649081 0.
0.602018 0.0648998 0.
0.604031 0.0648916 0.
0.606047 0.0648809 0.
0.608069 0.0648621 0.
0.61009 0.0648434 0.
0.612118 0.0648188 0.
0.614151 0.0647878 0.
0.616184 0.0647568 0.
0.618229 0.0647216 0.
0.620277 0.0646849 0.
0.622326 0.0646472 0.
0.62443 0.0645275 0.
0.626533 0.0644072 0.
0.628645 0.0642788 0.
0.63078 0.0641243 0.
0.632915 0.0639706 0.
0.635117 0.0637775 0.
0.63734 0.0635763 0.
0.639569 0.0633649 0.
0.641869 0.0629797 0.
0.644164 0.0625906 0.
0.646504 0.0621329 0.
0.648873 0.0615912 0.
0.651251 0.0610329 0.
0.653679 0.0603749 0.
0.656122 0.0597279 0.
0.658601 0.0590099 0.
0.661097 0.0582246 0.
0.663612 0.0573831 0.
0.666146 0.0564665 0.
0.668694 0.0554735 0.
0.671265 0.0544367 0.
0.673851 0.0533644 0.
0.676452 0.0522181 0.
0.67907 0.0510399 0.
0.68171 0.0498274 0.
0.684358 0.048593 0.
0.687021 0.0473197 0.
0.689692 0.0460427 0.
0.692361 0.0447831 0.
0.695032 0.0435297 0.
0.697692 0.0422996 0.
0.700346 0.0411113 0.
0.70298 0.0399945 0.
0.705589 0.0389846 0.
0.708166 0.038109 0.
0.710694 0.0374189 0.
0.713165 0.0369462 0.
0.715576 0.03669 0.
0.482849 0.0383018 0.
0.485236 0.0385716 0.
0.487675 0.0390495 0.
0.490165 0.0397439 0.
0.492698 0.0406155 0.
0.495274 0.0416465 0.
0.497873 0.0427761 0.
0.500488 0.0439713 0.
0.503111 0.045191 0.
0.505737 0.0464327 0.
0.508368 0.0476952 0.
0.510995 0.048938 0.
0.513625 0.0501417 0.
0.516244 0.0513267 0.
0.518852 0.052496 0.
0.521446 0.0536644 0.
0.52402 0.0548167 0.
0.526579 0.0559325 0.
0.529126 0.0569635 0.
0.531658 0.0579683 0.
0.534169 0.0589234 0.
0.536669 0.059804 0.
0.539157 0.0606156 0.
0.541632 0.0613808 0.
0.544087 0.0620641 0.
0.546509 0.0626572 0.
0.548919 0.0632656 0.
0.551276 0.0637873 0.
0.553629 0.0643051 0.
0.555955 0.064736 0.
0.558248 0.0651078 0.
0.56054 0.0654763 0.
0.562751 0.0656675 0.
0.564955 0.0658502 0.
0.567138 0.066027 0.
0.569265 0.0661754 0.
0.571395 0.0663242 0.
0.573501 0.0664446 0.
0.575599 0.0665557 0.
0.577697 0.0666662 0.
0.579744 0.066701 0.
0.58179 0.0667351 0.
0.583832 0.0667677 0.
0.585863 0.0667962 0.
0.587893 0.0668247 0.
0.589919 0.0668467 0.
0.591939 0.0668627 0.
0.59396 0.0668788 0.
0.595977 0.0668852 0.
0.597992 0.0668886 0.
0.600007 0.0668921 0.
0.602025 0.0668816 0.
0.604043 0.0668712 0.
0.606063 0.066858 0.
0.60809 0.0668358 0.
0.610116 0.0668136 0.
0.612149 0.0667854 0.
0.614187 0.0667505 0.
0.616226 0.0667158 0.
0.618282 0.0666709 0.
0.620344 0.0666231 0.
0.622407 0.0665729 0.
0.624525 0.0664339 0.
0.626641 0.0662951 0.
0.628766 0.0661529 0.
0.630911 0.0659937 0.
0.633053 0.0658349 0.
0.635277 0.0656047 0.
0.637521 0.0653655 0.
0.639774 0.065119 0.
0.642091 0.064718 0.
0.644406 0.0643096 0.
0.646763 0.0638032 0.
0.649137 0.0632259 0.
0.651522 0.0626319 0.
0.653945 0.0619558 0.
0.656383 0.0612895 0.
0.658852 0.0605556 0.
0.661336 0.0597596 0.
0.663839 0.0589001 0.
0.666356 0.0579742 0.
0.668883 0.0569754 0.
0.67143 0.0559384 0.
0.673993 0.0548635 0.
0.676567 0.0537169 0.
0.679157 0.0525424 0.
0.681762 0.0513409 0.
0.684376 0.0501169 0.
0.686999 0.04886 0.
0.689631 0.0476039 0.
0.692258 0.0463686 0.
0.694887 0.0451383 0.
0.697505 0.0439319 0.
0.700113 0.0427706 0.
0.702704 0.0416735 0.
0.705273 0.0406801 0.
0.707817 0.0398184 0.
0.710314 0.0391496 0.
0.712762 0.0386885 0.
0.715155 0.0384403 0.
0.483294 0.0400671 0.
0.485665 0.0403297 0.
0.488082 0.0408051 0.
0.490544 0.0414902 0.
0.493045 0.0423474 0.
0.495584 0.0433632 0.
0.49814 0.0444694 0.
0.500713 0.0456414 0.
0.50329 0.0468379 0.
0.505871 0.0480593 0.
0.50846 0.0492959 0.
0.511052 0.050518 0.
0.513642 0.0517042 0.
0.516221 0.0528736 0.
0.518792 0.0540324 0.
0.521352 0.0551931 0.
0.523896 0.0563402 0.
0.526428 0.0574512 0.
0.528952 0.0584839 0.
0.531461 0.0594928 0.
0.533956 0.0604546 0.
0.536444 0.0613396 0.
0.53892 0.0621649 0.
0.541382 0.062942 0.
0.543831 0.0636504 0.
0.54625 0.0642651 0.
0.548656 0.0648905 0.
0.551019 0.0654374 0.
0.553373 0.065973 0.
0.55571 0.066433 0.
0.558015 0.066831 0.
0.560322 0.0672292 0.
0.562559 0.0674621 0.
0.564783 0.0676827 0.
0.56699 0.0678944 0.
0.569133 0.0680494 0.
0.571277 0.0682049 0.
0.573401 0.0683419 0.
0.575515 0.0684736 0.
0.577631 0.0686051 0.
0.57969 0.0686503 0.
0.581748 0.0686936 0.
0.5838 0.068734 0.
0.585835 0.0687658 0.
0.58787 0.0687976 0.
0.5899 0.0688227 0.
0.591925 0.0688416 0.
0.593951 0.0688605 0.
0.595971 0.068868 0.
0.59799 0.0688719 0.
0.60001 0.0688758 0.
0.602032 0.0688631 0.
0.604054 0.0688504 0.
0.606079 0.0688345 0.
0.608111 0.0688087 0.
0.610143 0.068783 0.
0.612181 0.068751 0.
0.614225 0.0687122 0.
0.616269 0.0686735 0.
0.618338 0.0686178 0.
0.620415 0.0685575 0.
0.622495 0.0684928 0.
0.624629 0.0683326 0.
0.626761 0.0681727 0.
0.628903 0.0680156 0.
0.631062 0.0678511 0.
0.633219 0.0676871 0.
0.635466 0.067409 0.
0.637727 0.0671231 0.
0.640002 0.0668328 0.
0.642331 0.0664088 0.
0.644658 0.0659827 0.
0.647023 0.0654503 0.
0.6494 0.0648515 0.
0.651788 0.0642292 0.
0.654206 0.0635399 0.
0.656636 0.0628571 0.
0.659092 0.0621081 0.
0.66156 0.0613031 0.
0.664046 0.0604336 0.
0.666546 0.0595023 0.
0.669053 0.0584986 0.
0.671576 0.0574617 0.
0.674113 0.0563886 0.
0.676659 0.0552463 0.
0.67922 0.0540763 0.
0.681792 0.0528851 0.
0.68437 0.0516763 0.
0.686952 0.050442 0.
0.68954 0.0492062 0.
0.692125 0.0479915 0.
0.694708 0.046787 0.
0.697282 0.0456048 0.
0.699849 0.0444638 0.
0.702398 0.0433858 0.
0.704927 0.0424075 0.
0.707438 0.0415529 0.
0.709907 0.0408985 0.
0.712331 0.0404475 0.
0.714704 0.0402035 0.
0.483742 0.0418452 0.
0.486093 0.0421002 0.
0.488488 0.0425725 0.
0.490923 0.0432507 0.
0.493396 0.0441021 0.
0.495897 0.0451029 0.
0.498413 0.046187 0.
0.500946 0.0473391 0.
0.503482 0.0485148 0.
0.506023 0.0497159 0.
0.508573 0.0509299 0.
0.511124 0.0521276 0.
0.51367 0.0532946 0.
0.516208 0.0544495 0.
0.518743 0.0555983 0.
0.521269 0.0567463 0.
0.523785 0.0578843 0.
0.52629 0.0589904 0.
0.52879 0.0600249 0.
0.531279 0.0610335 0.
0.533756 0.0619977 0.
0.536228 0.0628866 0.
0.538692 0.0637242 0.
0.541143 0.0645118 0.
0.543579 0.0652336 0.
0.545989 0.0658658 0.
0.548386 0.0665072 0.
0.550753 0.0670779 0.
0.553114 0.0676322 0.
0.555463 0.0681248 0.
0.557782 0.0685519 0.
0.560104 0.0689797 0.
0.562365 0.0692524 0.
0.564611 0.0695108 0.
0.566843 0.0697609 0.
0.569 0.0699212 0.
0.571159 0.0700811 0.
0.573299 0.0702324 0.
0.575429 0.0703833 0.
0.57756 0.0705347 0.
0.579632 0.0705923 0.
0.581701 0.0706466 0.
0.583763 0.0706966 0.
0.585803 0.0707315 0.
0.587843 0.0707666 0.
0.589878 0.0707947 0.
0.591909 0.0708165 0.
0.593939 0.0708384 0.
0.595965 0.0708469 0.
0.597989 0.0708513 0.
0.600013 0.0708557 0.
0.60204 0.0708406 0.
0.604068 0.0708256 0.
0.606098 0.070807 0.
0.608136 0.0707774 0.
0.610174 0.070748 0.
0.612218 0.0707122 0.
0.614268 0.0706697 0.
0.616318 0.0706274 0.
0.6184 0.0705585 0.
0.62049 0.0704835 0.
0.622585 0.0704025 0.
0.624733 0.070224 0.
0.62688 0.0700456 0.
0.629039 0.0698763 0.
0.631212 0.0697077 0.
0.633384 0.0695388 0.
0.635655 0.069208 0.
0.637935 0.0688755 0.
0.640231 0.0685447 0.
0.642573 0.0680948 0.
0.644913 0.0676383 0.
0.647284 0.0670814 0.
0.649662 0.0664691 0.
0.652051 0.0658274 0.
0.65446 0.0651263 0.
0.656882 0.0644296 0.
0.659323 0.0636708 0.
0.661775 0.062857 0.
0.664242 0.0619796 0.
0.666721 0.0610475 0.
0.669206 0.0600428 0.
0.671706 0.0590063 0.
0.674218 0.057934 0.
0.676735 0.0567988 0.
0.679265 0.0556389 0.
0.681806 0.0544599 0.
0.684349 0.0532644 0.
0.686891 0.0520528 0.
0.689436 0.050843 0.
0.691977 0.0496474 0.
0.694517 0.0484629 0.
0.697047 0.0473049 0.
0.699573 0.0461852 0.
0.702087 0.04512 0.
0.704579 0.0441562 0.
0.707057 0.043308 0.
0.709499 0.0426598 0.
0.7119 0.0422164 0.
0.714254 0.0419756 0.
0.484172 0.0436298 0.
0.486502 0.0438793 0.
0.488877 0.0443522 0.
0.491289 0.0450266 0.
0.493732 0.0458718 0.
0.496199 0.0468569 0.
0.498683 0.0479255 0.
0.50118 0.0490614 0.
0.503677 0.0502171 0.
0.506181 0.0513991 0.
0.50869 0.0525905 0.
0.511198 0.0537654 0.
0.513703 0.0549165 0.
0.516204 0.0560575 0.
0.518703 0.0571916 0.
0.521197 0.0583254 0.
0.523685 0.0594543 0.
0.526167 0.0605546 0.
0.528644 0.0615852 0.
0.531111 0.0625909 0.
0.53357 0.0635577 0.
0.536027 0.0644494 0.
0.538473 0.0652928 0.
0.540904 0.0660862 0.
0.543326 0.0668194 0.
0.54573 0.0674708 0.
0.548121 0.0681277 0.
0.550494 0.0687206 0.
0.552859 0.0692916 0.
0.555217 0.0698075 0.
0.557544 0.0702541 0.
0.55987 0.0706966 0.
0.56215 0.0710039 0.
0.564411 0.0712964 0.
0.566666 0.0715841 0.
0.568847 0.0717556 0.
0.571032 0.0719291 0.
0.573194 0.0720996 0.
0.575335 0.0722721 0.
0.577478 0.0724454 0.
0.579563 0.0725204 0.
0.581645 0.0725901 0.
0.583719 0.0726534 0.
0.585765 0.0726916 0.
0.587811 0.07273 0.
0.589853 0.0727614 0.
0.591889 0.0727864 0.
0.593925 0.0728114 0.
0.595957 0.0728211 0.
0.597987 0.072826 0.
0.600018 0.0728308 0.
0.602051 0.0728132 0.
0.604084 0.0727956 0.
0.606121 0.0727739 0.
0.608165 0.0727402 0.
0.61021 0.0727065 0.
0.612262 0.0726667 0.
0.61432 0.0726207 0.
0.616377 0.0725747 0.
0.618471 0.0724868 0.
0.620573 0.0723906 0.
0.622681 0.0722873 0.
0.62484 0.0720919 0.
0.626998 0.0718968 0.
0.629182 0.0717052 0.
0.631387 0.0715156 0.
0.633589 0.0713249 0.
0.635873 0.0709639 0.
0.638161 0.0706 0.
0.640469 0.0702387 0.
0.642813 0.069773 0.
0.645163 0.0692923 0.
0.647538 0.0687167 0.
0.649919 0.0680916 0.
0.652308 0.067431 0.
0.654709 0.0667186 0.
0.657121 0.0660093 0.
0.659549 0.0652445 0.
0.661984 0.0644247 0.
0.664429 0.0635423 0.
0.666885 0.06261 0.
0.669348 0.0616069 0.
0.671823 0.0605746 0.
0.674308 0.0595053 0.
0.676799 0.0583766 0.
0.679298 0.057228 0.
0.681804 0.0560667 0.
0.684314 0.054886 0.
0.686822 0.0536924 0.
0.689327 0.0525067 0.
0.691825 0.0513356 0.
0.694322 0.0501681 0.
0.696814 0.049026 0.
0.699302 0.0479257 0.
0.701782 0.0468731 0.
0.704244 0.0459189 0.
0.70669 0.0450779 0.
0.709105 0.0444334 0.
0.711484 0.0439941 0.
0.713822 0.043753 0.
0.484597 0.0454224 0.
0.486913 0.0456719 0.
0.489271 0.0461504 0.
0.491658 0.0468192 0.
0.494074 0.0476585 0.
0.496513 0.0486356 0.
0.498966 0.049694 0.
0.501425 0.0508126 0.
0.503886 0.0519504 0.
0.506354 0.0531152 0.
0.508822 0.0542848 0.
0.511291 0.055441 0.
0.513758 0.0565749 0.
0.516221 0.0576975 0.
0.518684 0.058817 0.
0.521145 0.0599357 0.
0.523605 0.0610526 0.
0.526059 0.0621409 0.
0.52851 0.0631651 0.
0.530955 0.0641675 0.
0.533392 0.0651342 0.
0.535827 0.0660242 0.
0.538253 0.0668699 0.
0.540667 0.0676691 0.
0.543077 0.0684111 0.
0.545473 0.0690779 0.
0.547858 0.0697454 0.
0.55023 0.0703547 0.
0.552594 0.0709338 0.
0.554952 0.07146 0.
0.557285 0.0719316 0.
0.559617 0.0723961 0.
0.561918 0.0727407 0.
0.564201 0.0730706 0.
0.566481 0.0733998 0.
0.56869 0.0735881 0.
0.570903 0.0737759 0.
0.573088 0.0739656 0.
0.575241 0.0741598 0.
0.577395 0.074355 0.
0.579494 0.0744479 0.
0.581588 0.0745332 0.
0.583674 0.0746101 0.
0.585727 0.0746517 0.
0.58778 0.0746934 0.
0.589827 0.0747281 0.
0.591869 0.0747562 0.
0.593912 0.0747843 0.
0.595949 0.0747952 0.
0.597986 0.0748007 0.
0.600022 0.074806 0.
0.602062 0.0747858 0.
0.604101 0.0747656 0.
0.606144 0.0747409 0.
0.608195 0.0747029 0.
0.610246 0.074665 0.
0.612306 0.0746213 0.
0.614372 0.0745716 0.
0.616437 0.074522 0.
0.618543 0.0744142 0.
0.620656 0.0742966 0.
0.622777 0.0741713 0.
0.624947 0.073959 0.
0.627116 0.0737472 0.
0.62933 0.0735307 0.
0.631571 0.0733156 0.
0.63381 0.0730924 0.
0.636111 0.0726996 0.
0.638414 0.0723063 0.
0.640736 0.0719164 0.
0.643081 0.0714306 0.
0.64543 0.0709259 0.
0.6478 0.070343 0.
0.650175 0.0697128 0.
0.65256 0.0690374 0.
0.654952 0.0683163 0.
0.657354 0.0675971 0.
0.659768 0.066829 0.
0.662186 0.0660061 0.
0.664611 0.065122 0.
0.667043 0.0641915 0.
0.66948 0.0631914 0.
0.671927 0.0621645 0.
0.674382 0.0611039 0.
0.676842 0.0599871 0.
0.67931 0.0588502 0.
0.681782 0.0577055 0.
0.684254 0.0565453 0.
0.686725 0.0553729 0.
0.689195 0.054204 0.
0.691656 0.0530533 0.
0.694113 0.0519073 0.
0.696568 0.0507791 0.
0.699021 0.0496919 0.
0.701469 0.0486515 0.
0.703903 0.0477026 0.
0.706322 0.0468638 0.
0.708711 0.0462218 0.
0.711067 0.0457882 0.
0.713388 0.0455432 0.
0.485046 0.0472255 0.
0.487348 0.0474801 0.
0.489687 0.047966 0.
0.492053 0.0486332 0.
0.494446 0.0494761 0.
0.496857 0.0504502 0.
0.499273 0.0514956 0.
0.501695 0.0525977 0.
0.50412 0.0537206 0.
0.50655 0.054866 0.
0.508977 0.0560174 0.
0.511407 0.0571531 0.
0.513834 0.0582676 0.
0.516258 0.059374 0.
0.518685 0.0604787 0.
0.521111 0.0615772 0.
0.523538 0.0626767 0.
0.52596 0.0637511 0.
0.528382 0.0647675 0.
0.5308 0.0657629 0.
0.533213 0.0667238 0.
0.535626 0.0676109 0.
0.538033 0.0684581 0.
0.54043 0.0692613 0.
0.542828 0.070009 0.
0.545217 0.0706873 0.
0.547596 0.0713602 0.
0.549964 0.0719841 0.
0.552324 0.0725722 0.
0.554683 0.0731116 0.
0.557021 0.073606 0.
0.559359 0.0740903 0.
0.561676 0.0744699 0.
0.563978 0.0748348 0.
0.566275 0.0751937 0.
0.568507 0.0754004 0.
0.57074 0.0756037 0.
0.572942 0.075812 0.
0.575103 0.0760188 0.
0.577265 0.0762253 0.
0.579385 0.0763417 0.
0.581501 0.0764505 0.
0.583608 0.0765494 0.
0.58567 0.0765944 0.
0.587732 0.0766395 0.
0.589789 0.0766773 0.
0.591839 0.076708 0.
0.593891 0.0767387 0.
0.595938 0.0767505 0.
0.597984 0.0767561 0.
0.600029 0.0767616 0.
0.602078 0.0767394 0.
0.604127 0.0767172 0.
0.606179 0.0766896 0.
0.60824 0.0766474 0.
0.6103 0.0766052 0.
0.61237 0.0765569 0.
0.614447 0.0765027 0.
0.616523 0.0764487 0.
0.618649 0.0763163 0.
0.62078 0.0761743 0.
0.622919 0.076026 0.
0.625098 0.0758037 0.
0.627273 0.0755813 0.
0.629508 0.0753397 0.
0.631774 0.0751005 0.
0.634044 0.074848 0.
0.636358 0.074429 0.
0.638675 0.0740079 0.
0.641007 0.0735906 0.
0.643352 0.073086 0.
0.645701 0.0725571 0.
0.648067 0.071965 0.
0.650435 0.0713291 0.
0.652811 0.0706449 0.
0.655194 0.0699206 0.
0.657585 0.0691945 0.
0.659985 0.0684243 0.
0.662385 0.0675996 0.
0.66479 0.0667162 0.
0.667199 0.0657902 0.
0.66961 0.0647973 0.
0.672028 0.0637775 0.
0.674449 0.0627278 0.
0.676873 0.0616285 0.
0.679304 0.0605095 0.
0.681737 0.0593821 0.
0.684173 0.058239 0.
0.686604 0.0570899 0.
0.689034 0.0559445 0.
0.691461 0.0548081 0.
0.693881 0.0536793 0.
0.696298 0.0525678 0.
0.698716 0.0514917 0.
0.70113 0.0504617 0.
0.703534 0.0495174 0.
0.705928 0.0486757 0.
0.708296 0.0480267 0.
0.71063 0.0475964 0.
0.712933 0.0473463 0.
0.485523 0.0490406 0.
0.487809 0.0493052 0.
0.490132 0.0498012 0.
0.492477 0.0504755 0.
0.494844 0.0513262 0.
0.49722 0.0522928 0.
0.499601 0.0533288 0.
0.501987 0.0544189 0.
0.504374 0.0555255 0.
0.506762 0.056652 0.
0.509151 0.0577848 0.
0.511541 0.0589007 0.
0.513926 0.0599987 0.
0.516309 0.0610887 0.
0.518696 0.0621722 0.
0.521084 0.0632485 0.
0.523475 0.0643301 0.
0.525863 0.0653893 0.
0.528255 0.0663937 0.
0.530646 0.0673766 0.
0.533033 0.0683296 0.
0.535425 0.0692123 0.
0.537815 0.0700589 0.
0.5402 0.0708643 0.
0.542585 0.0716145 0.
0.544965 0.0723018 0.
0.547336 0.0729794 0.
0.549702 0.0736173 0.
0.552059 0.0742122 0.
0.554417 0.074759 0.
0.556759 0.0752679 0.
0.559098 0.0757635 0.
0.561424 0.0761657 0.
0.563733 0.0765477 0.
0.56604 0.0769274 0.
0.568291 0.0771716 0.
0.570539 0.0774077 0.
0.572763 0.0776453 0.
0.574938 0.0778634 0.
0.577116 0.0780813 0.
0.579262 0.0782239 0.
0.581404 0.0783604 0.
0.583538 0.0784855 0.
0.58561 0.0785343 0.
0.587682 0.0785832 0.
0.589748 0.0786245 0.
0.591808 0.0786579 0.
0.593869 0.0786913 0.
0.595925 0.0787041 0.
0.597981 0.07871 0.
0.600037 0.0787156 0.
0.602095 0.0786913 0.
0.604154 0.0786669 0.
0.606216 0.0786364 0.
0.608286 0.0785894 0.
0.610356 0.0785426 0.
0.612438 0.0784892 0.
0.614527 0.0784296 0.
0.616616 0.0783703 0.
0.618767 0.0782092 0.
0.620922 0.0780392 0.
0.623086 0.0778659 0.
0.625283 0.0776321 0.
0.627476 0.0773985 0.
0.629731 0.0771182 0.
0.632007 0.0768394 0.
0.634288 0.0765471 0.
0.636609 0.0761195 0.
0.638932 0.0756883 0.
0.641272 0.0752543 0.
0.643621 0.0747373 0.
0.64597 0.0741895 0.
0.648332 0.0735918 0.
0.650694 0.0729509 0.
0.653061 0.0722583 0.
0.655432 0.0715329 0.
0.657812 0.070804 0.
0.660197 0.0700331 0.
0.662581 0.0692069 0.
0.664967 0.0683259 0.
0.667354 0.0674053 0.
0.669739 0.0664232 0.
0.672126 0.0654168 0.
0.674514 0.0643805 0.
0.6769 0.0632979 0.
0.679292 0.0621998 0.
0.681682 0.0610956 0.
0.684075 0.0599715 0.
0.686465 0.0588409 0.
0.688854 0.0577182 0.
0.691241 0.0566008 0.
0.693626 0.0554859 0.
0.696009 0.054389 0.
0.69839 0.0533239 0.
0.70077 0.0523008 0.
0.703144 0.0513599 0.
0.70551 0.0505172 0.
0.707855 0.0498546 0.
0.710169 0.0494208 0.
0.712457 0.0491641 0.
0.486006 0.0508669 0.
0.488277 0.0511462 0.
0.49058 0.0516545 0.
0.492901 0.0523386 0.
0.495237 0.0531942 0.
0.497581 0.0541572 0.
0.499929 0.0551898 0.
0.502279 0.0562651 0.
0.504627 0.0573544 0.
0.506979 0.0584651 0.
0.509326 0.0595801 0.
0.511674 0.060678 0.
0.514016 0.061758 0.
0.516357 0.0628289 0.
0.518704 0.0638919 0.
0.521056 0.0649464 0.
0.523411 0.0660079 0.
0.525766 0.0670484 0.
0.528128 0.0680395 0.
0.530492 0.0690095 0.
0.532857 0.069952 0.
0.53523 0.0708284 0.
0.537603 0.0716705 0.
0.539973 0.0724751 0.
0.542346 0.0732263 0.
0.544719 0.0739216 0.
0.547084 0.0746031 0.
0.549446 0.0752502 0.
0.5518 0.0758484 0.
0.554156 0.0764022 0.
0.556498 0.0769239 0.
0.558839 0.0774305 0.
0.561171 0.0778556 0.
0.563488 0.0782581 0.
0.565804 0.0786594 0.
0.568074 0.078938 0.
0.570339 0.079207 0.
0.572584 0.0794774 0.
0.574775 0.0797057 0.
0.576969 0.0799328 0.
0.579139 0.0800983 0.
0.581306 0.0802622 0.
0.583465 0.0804162 0.
0.585547 0.0804685 0.
0.587629 0.0805211 0.
0.589706 0.0805656 0.
0.591776 0.0806014 0.
0.593846 0.0806373 0.
0.595913 0.0806508 0.
0.597978 0.0806567 0.
0.600044 0.0806623 0.
0.602114 0.0806361 0.
0.604183 0.08061 0.
0.606255 0.0805767 0.
0.608334 0.0805256 0.
0.610414 0.0804747 0.
0.612508 0.0804156 0.
0.61461 0.0803501 0.
0.616712 0.080285 0.
0.618887 0.080095 0.
0.621064 0.0798988 0.
0.623253 0.0797029 0.
0.625468 0.0794588 0.
0.62768 0.0792146 0.
0.629952 0.0788911 0.
0.632239 0.0785726 0.
0.634532 0.0782448 0.
0.636858 0.0778047 0.
0.639185 0.0773607 0.
0.641528 0.0769114 0.
0.643876 0.076385 0.
0.646226 0.0758232 0.
0.648586 0.0752204 0.
0.650945 0.0745757 0.
0.653307 0.0738777 0.
0.655669 0.0731518 0.
0.658037 0.0724208 0.
0.660406 0.071652 0.
0.662772 0.0708277 0.
0.665141 0.0699521 0.
0.667507 0.0690387 0.
0.669866 0.0680685 0.
0.672226 0.0670765 0.
0.674581 0.0660584 0.
0.67693 0.0649952 0.
0.679282 0.0639152 0.
0.681631 0.0628329 0.
0.68398 0.0617314 0.
0.686329 0.0606219 0.
0.688677 0.0595171 0.
0.691023 0.0584171 0.
0.693368 0.0573186 0.
0.695715 0.0562345 0.
0.698063 0.0551794 0.
0.700411 0.0541638 0.
0.702755 0.0532211 0.
0.705092 0.0523774 0.
0.707412 0.0517028 0.
0.709705 0.0512608 0.
0.711976 0.0509955 0.
0.486476 0.0527059 0.
0.48873 0.0530035 0.
0.491011 0.0535233 0.
0.493306 0.054218 0.
0.495614 0.0550811 0.
0.497928 0.056044 0.
0.500243 0.0570689 0.
0.502557 0.0581314 0.
0.504869 0.0592105 0.
0.50718 0.0603054 0.
0.509488 0.0614018 0.
0.511794 0.0624807 0.
0.514093 0.0635429 0.
0.516394 0.0645966 0.
0.518703 0.0656399 0.
0.521018 0.066668 0.
0.523341 0.0677077 0.
0.525664 0.0687314 0.
0.527998 0.0697089 0.
0.530338 0.070663 0.
0.53268 0.0715925 0.
0.535033 0.0724582 0.
0.53739 0.0732935 0.
0.539748 0.0740963 0.
0.542112 0.074848 0.
0.544477 0.0755492 0.
0.546836 0.0762316 0.
0.549193 0.0768866 0.
0.551544 0.0774895 0.
0.553898 0.0780488 0.
0.556242 0.0785805 0.
0.558583 0.0790965 0.
0.560921 0.0795412 0.
0.563245 0.0799579 0.
0.565565 0.080371 0.
0.56785 0.0806775 0.
0.570127 0.0809736 0.
0.572391 0.0812718 0.
0.574607 0.0815044 0.
0.57683 0.081737 0.
0.579023 0.0819333 0.
0.581204 0.0821379 0.
0.583381 0.0823337 0.
0.585476 0.0823903 0.
0.587571 0.0824471 0.
0.58966 0.0824953 0.
0.59174 0.0825336 0.
0.59382 0.082572 0.
0.595898 0.0825861 0.
0.597976 0.0825916 0.
0.600053 0.0825968 0.
0.602134 0.082569 0.
0.604215 0.0825413 0.
0.606298 0.0825054 0.
0.608386 0.0824505 0.
0.610475 0.0823957 0.
0.612582 0.0823274 0.
0.6147 0.0822506 0.
0.616819 0.0821719 0.
0.619016 0.0819437 0.
0.621213 0.0817115 0.
0.623424 0.0814905 0.
0.625661 0.0812411 0.
0.627893 0.0809917 0.
0.630178 0.0806377 0.
0.632471 0.080289 0.
0.634774 0.0799336 0.
0.637104 0.0794856 0.
0.639436 0.079032 0.
0.641782 0.0785693 0.
0.644129 0.0780348 0.
0.646478 0.0774613 0.
0.648834 0.0768554 0.
0.651187 0.0762078 0.
0.653543 0.0755052 0.
0.6559 0.0747793 0.
0.65826 0.0740479 0.
0.660616 0.0732823 0.
0.662967 0.072462 0.
0.665317 0.0715959 0.
0.667663 0.0706931 0.
0.669998 0.0697359 0.
0.672331 0.0687595 0.
0.674655 0.0677598 0.
0.67697 0.0667179 0.
0.679284 0.0656582 0.
0.681593 0.0645961 0.
0.683901 0.0635141 0.
0.686207 0.0624262 0.
0.688512 0.0613423 0.
0.69082 0.0602572 0.
0.693126 0.059173 0.
0.695438 0.0581016 0.
0.697752 0.0570541 0.
0.700066 0.0560456 0.
0.702381 0.0551027 0.
0.704691 0.0542544 0.
0.706986 0.0535665 0.
0.709256 0.0531141 0.
0.711506 0.0528398 0.
0.486949 0.0545625 0.
0.489185 0.0548832 0.
0.491441 0.0554155 0.
0.493712 0.0561239 0.
0.495992 0.056994 0.
0.498277 0.0579565 0.
0.500559 0.0589766 0.
0.502838 0.0600323 0.
0.505111 0.0610998 0.
0.507381 0.0621759 0.
0.509647 0.0632543 0.
0.511913 0.064315 0.
0.51417 0.0653611 0.
0.516432 0.0663968 0.
0.518706 0.0674154 0.
0.520986 0.0684171 0.
0.523274 0.0694362 0.
0.525564 0.0704404 0.
0.52787 0.0713998 0.
0.530184 0.0723356 0.
0.532505 0.0732501 0.
0.53484 0.0741037 0.
0.537183 0.0749305 0.
0.53953 0.0757294 0.
0.541884 0.0764779 0.
0.54424 0.0771813 0.
0.546591 0.0778638 0.
0.548942 0.0785253 0.
0.551288 0.0791311 0.
0.553639 0.079693 0.
0.555984 0.0802341 0.
0.558325 0.0807572 0.
0.560664 0.0812118 0.
0.562989 0.0816414 0.
0.565312 0.0820686 0.
0.567612 0.082402 0.
0.569904 0.0827259 0.
0.572189 0.0830576 0.
0.574435 0.083299 0.
0.576688 0.0835402 0.
0.578905 0.0837654 0.
0.581102 0.0840109 0.
0.583297 0.0842505 0.
0.585404 0.0843119 0.
0.587512 0.084373 0.
0.589613 0.084425 0.
0.591703 0.0844658 0.
0.593794 0.0845066 0.
0.595884 0.0845214 0.
0.597973 0.0845266 0.
0.600062 0.0845314 0.
0.602155 0.0845019 0.
0.604248 0.0844725 0.
0.606341 0.084434 0.
0.608439 0.0843753 0.
0.610536 0.0843166 0.
0.612658 0.0842386 0.
0.614791 0.0841504 0.
0.616928 0.0840563 0.
0.619147 0.0837899 0.
0.621364 0.0835207 0.
0.6236 0.083273 0.
0.625862 0.0830121 0.
0.628121 0.082746 0.
0.630416 0.0823656 0.
0.632719 0.0819938 0.
0.635031 0.0816166 0.
0.63736 0.0811578 0.
0.639693 0.0806951 0.
0.642038 0.080225 0.
0.644382 0.0796845 0.
0.646729 0.0791005 0.
0.64908 0.0784931 0.
0.651427 0.0778435 0.
0.653776 0.077138 0.
0.656124 0.0764144 0.
0.658474 0.0756859 0.
0.66082 0.0749258 0.
0.663157 0.0741111 0.
0.66549 0.0732562 0.
0.667815 0.0723666 0.
0.670124 0.0714267 0.
0.672429 0.0704686 0.
0.674726 0.0694884 0.
0.677009 0.0684683 0.
0.679285 0.0674299 0.
0.681554 0.0663923 0.
0.683825 0.065331 0.
0.68609 0.0642609 0.
0.688351 0.0631965 0.
0.690618 0.0621277 0.
0.692886 0.0610576 0.
0.695159 0.0599985 0.
0.697438 0.0589585 0.
0.699721 0.0579539 0.
0.702005 0.0570096 0.
0.704288 0.0561569 0.
0.706559 0.0554556 0.
0.708805 0.0549889 0.
0.711032 0.0547037 0.
0.487451 0.056446 0.
0.489666 0.0567915 0.
0.491898 0.0573386 0.
0.494143 0.0580648 0.
0.496394 0.0589422 0.
0.498647 0.0599071 0.
0.500893 0.0609261 0.
0.50313 0.0619714 0.
0.505361 0.0630234 0.
0.507588 0.0640842 0.
0.509811 0.0651451 0.
0.512033 0.0661857 0.
0.514249 0.0672131 0.
0.516474 0.0682274 0.
0.518709 0.069221 0.
0.520951 0.0701973 0.
0.523203 0.0711916 0.
0.525462 0.0721706 0.
0.527738 0.0731089 0.
0.530029 0.0740256 0.
0.53233 0.0749234 0.
0.534649 0.0757632 0.
0.536977 0.0765785 0.
0.53931 0.0773704 0.
0.541653 0.0781145 0.
0.544 0.0788184 0.
0.546344 0.0795002 0.
0.54869 0.0801648 0.
0.551033 0.0807727 0.
0.553381 0.0813367 0.
0.555723 0.0818857 0.
0.558063 0.082414 0.
0.560403 0.0828789 0.
0.562731 0.0833222 0.
0.565056 0.0837624 0.
0.567367 0.0841198 0.
0.569672 0.0844708 0.
0.571972 0.0848332 0.
0.574243 0.0850816 0.
0.576514 0.0853279 0.
0.578748 0.0855739 0.
0.580954 0.0858498 0.
0.583164 0.0861202 0.
0.585299 0.0861971 0.
0.587433 0.08627 0.
0.589557 0.0863312 0.
0.59166 0.086373 0.
0.593764 0.0864149 0.
0.595867 0.0864295 0.
0.59797 0.0864339 0.
0.600073 0.0864378 0.
0.60218 0.0864072 0.
0.604286 0.0863767 0.
0.606394 0.0863368 0.
0.608505 0.0862765 0.
0.610615 0.0862164 0.
0.61276 0.086123 0.
0.614916 0.0860168 0.
0.617078 0.0859 0.
0.619311 0.0856072 0.
0.621542 0.0853117 0.
0.623797 0.0850454 0.
0.626077 0.0847756 0.
0.628357 0.0844929 0.
0.630661 0.0840884 0.
0.63297 0.083694 0.
0.635291 0.0832969 0.
0.637621 0.0828274 0.
0.639954 0.0823545 0.
0.642298 0.0818773 0.
0.644638 0.0813336 0.
0.646981 0.0807414 0.
0.649327 0.0801333 0.
0.651669 0.0794828 0.
0.65401 0.0787765 0.
0.656349 0.0780566 0.
0.658688 0.0773328 0.
0.661021 0.0765807 0.
0.663344 0.0757748 0.
0.665659 0.0749335 0.
0.667964 0.0740579 0.
0.670251 0.0731349 0.
0.67253 0.072197 0.
0.674796 0.0712411 0.
0.677049 0.0702465 0.
0.679291 0.0692315 0.
0.68152 0.0682186 0.
0.683747 0.0671824 0.
0.685971 0.0661345 0.
0.688189 0.0650872 0.
0.690412 0.064036 0.
0.692637 0.0629798 0.
0.69487 0.0619322 0.
0.697109 0.0609026 0.
0.699354 0.0599017 0.
0.701607 0.0589538 0.
0.70386 0.0580933 0.
0.706104 0.0573782 0.
0.708325 0.0568917 0.
0.710531 0.0565923 0.
0.487986 0.0583599 0.
0.490176 0.0587312 0.
0.492381 0.0592981 0.
0.494597 0.0600463 0.
0.496815 0.060931 0.
0.499029 0.0618984 0.
0.501233 0.0629108 0.
0.503425 0.0639454 0.
0.505609 0.0649855 0.
0.50779 0.0660287 0.
0.509969 0.067067 0.
0.512147 0.0680874 0.
0.514321 0.0690956 0.
0.516505 0.0700873 0.
0.5187 0.0710551 0.
0.520902 0.0720016 0.
0.52312 0.0729676 0.
0.525348 0.0739213 0.
0.527599 0.074835 0.
0.529868 0.0757301 0.
0.53215 0.0766084 0.
0.534453 0.0774323 0.
0.536768 0.0782348 0.
0.539089 0.0790194 0.
0.541422 0.0797586 0.
0.543761 0.0804608 0.
0.546099 0.0811412 0.
0.54844 0.0818078 0.
0.55078 0.0824175 0.
0.553126 0.0829828 0.
0.555467 0.0835389 0.
0.557806 0.0840717 0.
0.560148 0.0845436 0.
0.562477 0.0849961 0.
0.564804 0.0854453 0.
0.567121 0.0858186 0.
0.569431 0.0861805 0.
0.571736 0.0865505 0.
0.574013 0.0868239 0.
0.576289 0.0870912 0.
0.578541 0.0873607 0.
0.580769 0.0876648 0.
0.583002 0.087965 0.
0.585174 0.0880661 0.
0.587343 0.0881566 0.
0.589497 0.0882312 0.
0.591614 0.0882741 0.
0.593732 0.088317 0.
0.595849 0.0883315 0.
0.597966 0.088335 0.
0.600084 0.088338 0.
0.602206 0.0883059 0.
0.604327 0.0882739 0.
0.60645 0.0882323 0.
0.608578 0.0881706 0.
0.610704 0.088109 0.
0.612878 0.0879946 0.
0.615064 0.0878638 0.
0.617259 0.0877162 0.
0.61951 0.0873969 0.
0.621757 0.087076 0.
0.624027 0.0867897 0.
0.626313 0.0865029 0.
0.628601 0.0861979 0.
0.630909 0.0857869 0.
0.633222 0.0853831 0.
0.635545 0.0849721 0.
0.637876 0.0844937 0.
0.640209 0.084014 0.
0.642552 0.0835319 0.
0.64489 0.0829845 0.
0.64723 0.0823855 0.
0.649573 0.0817776 0.
0.65191 0.0811273 0.
0.654245 0.0804213 0.
0.656576 0.0797056 0.
0.658905 0.0789878 0.
0.661227 0.0782441 0.
0.663535 0.0774477 0.
0.665833 0.0766225 0.
0.668119 0.0757642 0.
0.670384 0.074859 0.
0.67264 0.0739418 0.
0.674879 0.0730121 0.
0.6771 0.0720463 0.
0.679309 0.0710602 0.
0.681499 0.0700748 0.
0.683681 0.0690635 0.
0.68586 0.0680408 0.
0.688032 0.0670133 0.
0.69021 0.0659787 0.
0.69239 0.0649389 0.
0.694577 0.0639039 0.
0.696772 0.0628835 0.
0.698975 0.0618896 0.
0.701189 0.0609405 0.
0.703408 0.0600687 0.
0.705622 0.0593392 0.
0.707818 0.0588255 0.
0.710001 0.0585052 0.
0.488526 0.0603083 0.
0.490688 0.0607031 0.
0.492863 0.061292 0.
0.495043 0.0620596 0.
0.49722 0.0629498 0.
0.499389 0.0639175 0.
0.501545 0.0649232 0.
0.503688 0.0659462 0.
0.505826 0.0669696 0.
0.50796 0.0679917 0.
0.510093 0.0690082 0.
0.512228 0.070007 0.
0.514361 0.0709938 0.
0.516506 0.0719599 0.
0.518661 0.0729005 0.
0.520828 0.07382 0.
0.523017 0.0747602 0.
0.52522 0.0756868 0.
0.527448 0.0765747 0.
0.529699 0.0774462 0.
0.531965 0.0783031 0.
0.534256 0.0791115 0.
0.536559 0.0799008 0.
0.538871 0.0806763 0.
0.541195 0.0814095 0.
0.543527 0.0821081 0.
0.54586 0.0827866 0.
0.548197 0.083454 0.
0.550534 0.0840653 0.
0.552877 0.0846318 0.
0.555218 0.0851934 0.
0.557556 0.0857301 0.
0.559897 0.0862086 0.
0.562228 0.086669 0.
0.564556 0.0871259 0.
0.566876 0.0875125 0.
0.56919 0.0878839 0.
0.571501 0.0882644 0.
0.573784 0.0885627 0.
0.576065 0.0888506 0.
0.578334 0.0891437 0.
0.580585 0.0894754 0.
0.582841 0.0898039 0.
0.585051 0.0899296 0.
0.587254 0.0900372 0.
0.589439 0.0901265 0.
0.59157 0.0901701 0.
0.593701 0.0902137 0.
0.595832 0.090228 0.
0.597964 0.0902306 0.
0.600095 0.0902326 0.
0.602231 0.0901992 0.
0.604367 0.090166 0.
0.606506 0.090123 0.
0.608649 0.0900605 0.
0.610792 0.0899982 0.
0.612996 0.0898613 0.
0.615212 0.0897059 0.
0.61744 0.0895277 0.
0.619707 0.0891827 0.
0.621971 0.0888368 0.
0.624255 0.0885311 0.
0.626548 0.0882266 0.
0.628842 0.0878981 0.
0.631156 0.0874799 0.
0.633472 0.0870697 0.
0.635797 0.0866473 0.
0.638128 0.086161 0.
0.640461 0.0856751 0.
0.642801 0.0851886 0.
0.645137 0.0846374 0.
0.647475 0.0840332 0.
0.649815 0.0834257 0.
0.652147 0.0827759 0.
0.654476 0.082072 0.
0.6568 0.081362 0.
0.65912 0.0806513 0.
0.661432 0.0799167 0.
0.663728 0.0791313 0.
0.666014 0.0783203 0.
0.668285 0.0774795 0.
0.670531 0.0765953 0.
0.672766 0.0756997 0.
0.674981 0.0747952 0.
0.677173 0.0738587 0.
0.679352 0.0729021 0.
0.681508 0.0719463 0.
0.683651 0.0709621 0.
0.685784 0.0699641 0.
0.687909 0.068958 0.
0.690041 0.0679423 0.
0.692174 0.0669201 0.
0.694314 0.0659019 0.
0.69646 0.0648932 0.
0.698615 0.0639054 0.
0.700784 0.0629576 0.
0.702962 0.0620772 0.
0.705139 0.0613345 0.
0.707304 0.0607921 0.
0.709462 0.060447 0.
0.489037 0.0622889 0.
0.491167 0.0627036 0.
0.493304 0.0633154 0.
0.495441 0.0640979 0.
0.497568 0.0649927 0.
0.499687 0.0659579 0.
0.501793 0.066953 0.
0.503885 0.0679603 0.
0.505975 0.0689644 0.
0.508062 0.0699654 0.
0.510152 0.0709589 0.
0.512249 0.0719339 0.
0.514346 0.0728971 0.
0.516455 0.0738386 0.
0.518579 0.0747556 0.
0.520721 0.0756517 0.
0.522886 0.0765646 0.
0.525068 0.0774638 0.
0.52728 0.0783257 0.
0.529518 0.0791738 0.
0.531772 0.080012 0.
0.534054 0.0808043 0.
0.53635 0.0815774 0.
0.538654 0.0823425 0.
0.540971 0.0830704 0.
0.543297 0.0837642 0.
0.545626 0.0844395 0.
0.54796 0.0851059 0.
0.550296 0.085718 0.
0.552638 0.0862849 0.
0.554977 0.0868503 0.
0.557313 0.0873907 0.
0.559654 0.0878748 0.
0.561987 0.0883418 0.
0.564317 0.0888056 0.
0.566642 0.089205 0.
0.568962 0.0895848 0.
0.571281 0.0899735 0.
0.573575 0.0902904 0.
0.575865 0.0905915 0.
0.578148 0.0908946 0.
0.580419 0.0912308 0.
0.582693 0.0915605 0.
0.584933 0.0917246 0.
0.587166 0.0918765 0.
0.58938 0.0920022 0.
0.591526 0.0920466 0.
0.593672 0.092091 0.
0.595818 0.0921053 0.
0.597963 0.0921074 0.
0.600109 0.0921087 0.
0.602258 0.0920734 0.
0.604406 0.0920381 0.
0.606559 0.0919923 0.
0.608716 0.0919264 0.
0.610873 0.0918608 0.
0.613109 0.0916833 0.
0.615356 0.0914866 0.
0.617611 0.0912756 0.
0.619891 0.0909287 0.
0.622169 0.0905763 0.
0.624466 0.0902609 0.
0.626768 0.0899439 0.
0.629071 0.0895971 0.
0.631391 0.0891726 0.
0.633712 0.0887568 0.
0.63604 0.0883225 0.
0.63837 0.0878288 0.
0.640704 0.0873384 0.
0.643043 0.0868486 0.
0.645377 0.0862942 0.
0.647712 0.0856868 0.
0.650049 0.0850801 0.
0.652379 0.0844311 0.
0.654704 0.0837303 0.
0.657024 0.0830271 0.
0.659337 0.082325 0.
0.66164 0.081599 0.
0.663927 0.0808255 0.
0.666205 0.0800301 0.
0.668465 0.0792048 0.
0.670698 0.0783404 0.
0.672916 0.0774689 0.
0.675112 0.0765907 0.
0.677281 0.0756822 0.
0.679433 0.0747552 0.
0.68156 0.0738267 0.
0.683672 0.0728689 0.
0.685768 0.071895 0.
0.687853 0.0709111 0.
0.689938 0.0699175 0.
0.692023 0.0689135 0.
0.694115 0.0679126 0.
0.696212 0.0669204 0.
0.698316 0.0659444 0.
0.700433 0.0649998 0.
0.702561 0.0641127 0.
0.704695 0.0633577 0.
0.706823 0.0627917 0.
0.708948 0.0624181 0.
0.489504 0.0642971 0.
0.491595 0.0647338 0.
0.493688 0.0653681 0.
0.495774 0.0661607 0.
0.497848 0.0670544 0.
0.499914 0.0680116 0.
0.501966 0.0689929 0.
0.504008 0.069983 0.
0.506052 0.0709668 0.
0.508098 0.0719445 0.
0.510152 0.0729145 0.
0.512216 0.073867 0.
0.514284 0.0748071 0.
0.51637 0.0757252 0.
0.518473 0.0766223 0.
0.520597 0.0774948 0.
0.522745 0.0783815 0.
0.524913 0.0792555 0.
0.527116 0.0800922 0.
0.529345 0.0809182 0.
0.531589 0.0817352 0.
0.533861 0.0825097 0.
0.53615 0.083268 0.
0.538447 0.0840224 0.
0.540758 0.0847435 0.
0.543078 0.085431 0.
0.545404 0.0861013 0.
0.547735 0.0867642 0.
0.550068 0.0873754 0.
0.552409 0.0879419 0.
0.554749 0.0885106 0.
0.557086 0.0890543 0.
0.559427 0.0895426 0.
0.561764 0.0900156 0.
0.564098 0.0904852 0.
0.566426 0.0908943 0.
0.568749 0.0912828 0.
0.571068 0.0916814 0.
0.573369 0.0920113 0.
0.575667 0.0923208 0.
0.577962 0.0926323 0.
0.58025 0.0929755 0.
0.582543 0.0933128 0.
0.584812 0.0935156 0.
0.587077 0.0937132 0.
0.589321 0.0938778 0.
0.591482 0.0939231 0.
0.593643 0.0939683 0.
0.595803 0.0939827 0.
0.597962 0.0939841 0.
0.600122 0.0939848 0.
0.602284 0.0939475 0.
0.604446 0.0939102 0.
0.606612 0.0938614 0.
0.608784 0.0937922 0.
0.610955 0.0937232 0.
0.613226 0.0935008 0.
0.615505 0.0932585 0.
0.617786 0.0930134 0.
0.62008 0.0926611 0.
0.622371 0.0923035 0.
0.624675 0.0919804 0.
0.62698 0.0916548 0.
0.629287 0.0912947 0.
0.631609 0.0908642 0.
0.633933 0.090443 0.
0.636263 0.0899993 0.
0.638596 0.0894995 0.
0.640932 0.0890055 0.
0.643271 0.0885127 0.
0.645604 0.087955 0.
0.647938 0.0873457 0.
0.650273 0.0867413 0.
0.652598 0.0860949 0.
0.65492 0.0853988 0.
0.657236 0.0847028 0.
0.659544 0.0840101 0.
0.66184 0.0832938 0.
0.664119 0.0825321 0.
0.666387 0.0817526 0.
0.668638 0.0809462 0.
0.670861 0.0801021 0.
0.673069 0.0792525 0.
0.675251 0.0784001 0.
0.677404 0.0775168 0.
0.679536 0.0766188 0.
0.681643 0.0757177 0.
0.683731 0.0747842 0.
0.6858 0.0738331 0.
0.687853 0.07287 0.
0.689903 0.0718976 0.
0.691946 0.070915 0.
0.69399 0.0699334 0.
0.696037 0.0689573 0.
0.698089 0.0679955 0.
0.700154 0.0670609 0.
0.702229 0.0661743 0.
0.70431 0.0654101 0.
0.706393 0.0648241 0.
0.708479 0.0644206 0.
0.489896 0.0663318 0.
0.491945 0.0667907 0.
0.493989 0.0674422 0.
0.496023 0.0682388 0.
0.498043 0.0691279 0.
0.500054 0.0700752 0.
0.502058 0.0710414 0.
0.50406 0.0720113 0.
0.506069 0.0729731 0.
0.508083 0.0739294 0.
0.510106 0.0748789 0.
0.512147 0.0758084 0.
0.514197 0.0767246 0.
0.516269 0.0776203 0.
0.51836 0.0784984 0.
0.520473 0.0793488 0.
0.522611 0.0802114 0.
0.524772 0.0810613 0.
0.526968 0.0818726 0.
0.529189 0.0826747 0.
0.531426 0.0834712 0.
0.533691 0.0842301 0.
0.535973 0.0849744 0.
0.538262 0.0857169 0.
0.540566 0.0864294 0.
0.542878 0.087108 0.
0.5452 0.0877717 0.
0.547529 0.0884302 0.
0.549861 0.0890401 0.
0.552201 0.0896056 0.
0.554542 0.0901762 0.
0.556879 0.0907221 0.
0.55922 0.0912138 0.
0.561555 0.0916911 0.
0.563888 0.0921645 0.
0.566218 0.0925821 0.
0.56854 0.0929798 0.
0.57086 0.0933873 0.
0.573169 0.0937291 0.
0.575473 0.0940462 0.
0.577779 0.0943646 0.
0.580085 0.0947107 0.
0.582396 0.0950502 0.
0.584692 0.0952858 0.
0.586986 0.095527 0.
0.589258 0.0957316 0.
0.591435 0.0957773 0.
0.593612 0.0958231 0.
0.595788 0.0958378 0.
0.597962 0.0958391 0.
0.600136 0.0958395 0.
0.602312 0.095801 0.
0.604487 0.0957626 0.
0.606668 0.0957116 0.
0.608853 0.0956397 0.
0.611038 0.095568 0.
0.613339 0.0953006 0.
0.615649 0.0950155 0.
0.617955 0.0947426 0.
0.620263 0.0943878 0.
0.622568 0.0940271 0.
0.624878 0.0936968 0.
0.627187 0.0933633 0.
0.629499 0.0929911 0.
0.63182 0.0925547 0.
0.634143 0.0921277 0.
0.636472 0.0916766 0.
0.638802 0.0911742 0.
0.641137 0.0906785 0.
0.643475 0.0901827 0.
0.64581 0.0896222 0.
0.648144 0.0890123 0.
0.650476 0.0884103 0.
0.652798 0.0877672 0.
0.655116 0.0870776 0.
0.657427 0.0863912 0.
0.659728 0.0857092 0.
0.66202 0.0850024 0.
0.664292 0.0842535 0.
0.666553 0.0834894 0.
0.668794 0.0827009 0.
0.671008 0.0818789 0.
0.673207 0.0810535 0.
0.675381 0.0802247 0.
0.677525 0.0793634 0.
0.679647 0.0784901 0.
0.681742 0.0776157 0.
0.683814 0.0767082 0.
0.685865 0.0757799 0.
0.687896 0.0748362 0.
0.689919 0.073883 0.
0.69193 0.0729209 0.
0.693937 0.0719603 0.
0.695943 0.0710027 0.
0.697949 0.0700556 0.
0.699961 0.069131 0.
0.701983 0.0682483 0.
0.704012 0.0674813 0.
0.706049 0.0668839 0.
0.708091 0.0664545 0.
0.490192 0.0683794 0.
0.492196 0.0688627 0.
0.49419 0.0695325 0.
0.496172 0.0703345 0.
0.498143 0.0712185 0.
0.500113 0.0721543 0.
0.502083 0.0731048 0.
0.504055 0.0740552 0.
0.506039 0.0749995 0.
0.50803 0.0759368 0.
0.510035 0.0768634 0.
0.512063 0.0777682 0.
0.514106 0.0786623 0.
0.516172 0.0795379 0.
0.518255 0.0803991 0.
0.520362 0.0812257 0.
0.522495 0.0820623 0.
0.524653 0.082887 0.
0.526846 0.0836718 0.
0.529063 0.0844537 0.
0.531296 0.0852317 0.
0.533553 0.0859707 0.
0.535826 0.0866982 0.
0.538108 0.0874287 0.
0.540406 0.0881323 0.
0.542713 0.0888003 0.
0.545035 0.0894606 0.
0.547364 0.0901161 0.
0.549691 0.0907182 0.
0.552027 0.0912811 0.
0.554364 0.0918519 0.
0.556699 0.0923989 0.
0.559038 0.0928927 0.
0.561373 0.0933751 0.
0.563707 0.0938529 0.
0.566039 0.0942764 0.
0.568364 0.0946823 0.
0.570688 0.0950965 0.
0.573002 0.0954442 0.
0.575312 0.0957628 0.
0.577626 0.0960785 0.
0.579944 0.0964245 0.
0.582264 0.0967654 0.
0.584577 0.097032 0.
0.586892 0.0973191 0.
0.589188 0.097568 0.
0.591384 0.0976154 0.
0.59358 0.0976629 0.
0.595772 0.0976784 0.
0.597961 0.0976798 0.
0.600151 0.0976803 0.
0.602342 0.0976406 0.
0.604532 0.097601 0.
0.606728 0.0975472 0.
0.608928 0.0974717 0.
0.611128 0.0973963 0.
0.613448 0.0970806 0.
0.615772 0.096752 0.
0.618091 0.0964563 0.
0.620409 0.0961017 0.
0.622724 0.0957418 0.
0.625039 0.0954129 0.
0.627354 0.0950748 0.
0.629674 0.0946937 0.
0.632 0.0942524 0.
0.634326 0.0938195 0.
0.636654 0.0933632 0.
0.638983 0.0928578 0.
0.641315 0.0923599 0.
0.643649 0.091863 0.
0.64598 0.0913024 0.
0.648311 0.0906943 0.
0.650643 0.0900948 0.
0.652961 0.0894587 0.
0.655277 0.0887743 0.
0.657587 0.0880939 0.
0.659882 0.0874244 0.
0.662168 0.0867306 0.
0.664432 0.0859975 0.
0.666686 0.0852497 0.
0.668923 0.0844794 0.
0.671132 0.0836773 0.
0.673325 0.0828727 0.
0.675492 0.0820697 0.
0.67763 0.0812324 0.
0.679747 0.0803837 0.
0.681839 0.0795334 0.
0.683906 0.0786497 0.
0.685947 0.0777442 0.
0.687964 0.0768224 0.
0.689971 0.0758901 0.
0.691961 0.0749476 0.
0.693943 0.0740048 0.
0.695918 0.0730636 0.
0.697889 0.0721324 0.
0.699861 0.0712177 0.
0.701838 0.070338 0.
0.703818 0.0695647 0.
0.705808 0.0689557 0.
0.707807 0.0685048 0.
CELLS 5000 10000
1 0
1 1
1 2
1 3
1 4
1 5
1 6
1 7
1 8
1 9
1 10
1 11
1 12
1 13
1 14
1 15
1 16
1 17
1 18
1 19
1 20
1 21
1 22
1 23
1 24
1 25
1 26
1 27
1 28
1 29
1 30
1 31
1 32
1 33
1 34
1 35
1 36
1 37
1 38
1 39
1 40
1 41
1 42
1 43
1 44
1 45
1 46
1 47
1 48
1 49
1 50
1 51
1 52
1 53
1 54
1 55
1 56
1 57
1 58
1 59
1 60
1 61
1 62
1 63
1 64
1 65
1 66
1 67
1 68
1 69
1 70
1 71
1 72
1 73
1 74
1 75
1 76
1 77
1 78
1 79
1 80
1 81
1 82
1 83
1 84
1 85
1 86
1 87
1 88
1 89
1 90
1 91
1 92
1 93
1 94
1 95
1 96
1 97
1 98
1 99
1 100
1 101
1 102
1 103
1 104
1 105
1 106
1 107
1 108
1 109
1 110
1 111
1 112
1 113
1 114
1 115
1 116
1 117
1 118
1 119
1 120
1 121
1 122
1 123
1 124
1 125
1 126
1 127
1 128
1 129
1 130
1 131
1 132
1 133
1 134
1 135
1 136
1 137
1 138
1 139
1 140
1 141
1 142
1 143
1 144
1 145
1 146
1 147
1 148
1 149
1 150
1 151
1 152
1 153
1 154
1 155
1 156
1 157
1 158
1 159
1 160
1 161
1 162
1 163
1 164
1 165
1 166
1 167
1 168
1 169
1 170
1 171
1 172
1 173
1 174
1 175
1 176
1 177
1 178
1 179
1 180
1 181
1 182
1 183
1 184
1 185
1 186
1 187
1 188
1 189
1 190
1 191
1 192
1 193
1 194
1 195
1 196
1 197
1 198
1 199
1 200
1 201
1 202
1 203
1 204
1 205
1 206
1 207
1 208
1 209
1 210
1 211
1 212
1 213
1 214
1 215
1 216
1 217
1 218
1 219
1 220
1 221
1 222
1 223
1 224
1 225
1 226
1 227
1 228
1 229
1 230
1 231
1 232
1 233
1 234
1 235
1 236
1 237
1 238
1 239
1 240
1 241
1 242
1 243
1 244
1 245
1 246
1 247
1 248
1 249
1 250
1 251
1 252
1 253
1 254
1 255
1 256
1 257
1 258
1 259
1 260
1 261
1 262
1 263
1 264
1 265
1 266
1 267
1 268
1 269
1 270
1 271
1 272
1 273
1 274
1 275
1 276
1 277
1 278
1 279
1 280
1 281
1 282
1 283
1 284
1 285
1 286
1 287
1 288
1 289
1 290
1 291
1 292
1 293
1 294
1 295
1 296
1 297
1 298
1 299
1 300
1 301
1 302
1 303
1 304
1 305
1 306
1 307
1 308
1 309
1 310
1 311
1 312
1 313
1 314
1 315
1 316
1 317
1 318
1 319
1 320
1 321
1 322
1 323
1 324
1 325
1 326
1 327
1 328
1 329
1 330
1 331
1 332
1 333
1 334
1 335
1 336
1 337
1 338
1 339
1 340
1 341
1 342
1 343
1 344
1 345
1 346
1 347
1 348
1 349
1 350
1 351
1 352
1 353
1 354
1 355
1 356
1 357
1 358
1 359
1 360
1 361
1 362
1 363
1 364
1 365
1 366
1 367
1 368
1 369
1 370
1 371
1 372
1 373
1 374
1 375
1 376
1 377
1 378
1 379
1 380
1 381
1 382
1 383
1 384
1 385
1 386
1 387
1 388
1 389
1 390
1 391
1 392
1 393
1 394
1 395
1 396
1 397
1 398
1 399
1 400
1 401
1 402
1 403
1 404
1 405
1 406
1 407
1 408
1 409
1 410
1 411
1 412
1 413
1 414
1 415
1 416
1 417
1 418
1 419
1 420
1 421
1 422
1 423
1 424
1 425
1 426
1 427
1 428
1 429
1 430
1 431
1 432
1 433
1 434
1 435
1 436
1 437
1 438
1 439
1 440
1 441
1 442
1 443
1 444
1 445
1 446
1 447
1 448
1 449
1 450
1 451
1 452
1 453
1 454
1 455
1 456
1 457
1 458
1 459
1 460
1 461
1 462
1 463
1 464
1 465
1 466
1 467
1 468
1 469
1 470
1 471
1 472
1 473
1 474
1 475
1 476
1 477
1 478
1 479
1 480
1 481
1 482
1 483
1 484
1 485
1 486
1 487
1 488
1 489
1 490
1 491
1 492
1 493
1 494
1 495
1 496
1 497
1 498
1 499
1 500
1 501
1 502
1 503
1 504
1 505
1 506
1 507
1 508
1 509
1 510
1 511
1 512
1 513
1 514
1 515
1 516
1 517
1 518
1 519
1 520
1 521
1 522
1 523
1 524
1 525
1 526
1 527
1 528
1 529
1 530
1 531
1 532
1 533
1 534
1 535
1 536
1 537
1 538
1 539
1 540
1 541
1 542
1 543
1 544
1 545
1 546
1 547
1 548
1 549
1 550
1 551
1 552
1 553
1 554
1 555
1 556
1 557
1 558
1 559
1 560
1 561
1 562
1 563
1 564
1 565
1 566
1 567
1 568
1 569
1 570
1 571
1 572
1 573
1 574
1 575
1 576
1 577
1 578
1 579
1 580
1 581
1 582
1 583
1 584
1 585
1 586
1 587
1 588
1 589
1 590
1 591
1 592
1 593
1 594
1 595
1 596
1 597
1 598
1 599
1 600
1 601
1 602
1 603
1 604
1 605
1 606
1 607
1 608
1 609
1 610
1 611
1 612
1 613
1 614
1 615
1 616
1 617
1 618
1 619
1 620
1 621
1 622
1 623
1 624
1 625
1 626
1 627
1 628
1 629
1 630
1 631
1 632
1 633
1 634
1 635
1 636
1 637
1 638
1 639
1 640
1 641
1 642
1 643
1 644
1 645
1 646
1 647
1 648
1 649
1 650
1 651
1 652
1 653
1 654
1 655
1 656
1 657
1 658
1 659
1 660
1 661
1 662
1 663
1 664
1 665
1 666
1 667
1 668
1 669
1 670
1 671
1 672
1 673
1 674
1 675
1 676
1 677
1 678
1 679
1 680
1 681
1 682
1 683
1 684
1 685
1 686
1 687
1 688
1 689
1 690
1 691
1 692
1 693
1 694
1 695
1 696
1 697
1 698
1 699
1 700
1 701
1 702
1 703
1 704
1 705
1 706
1 707
1 708
1 709
1 710
1 711
1 712
1 713
1 714
1 715
1 716
1 717
1 718
1 719
1 720
1 721
1 722
1 723
1 724
1 725
1 726
1 727
1 728
1 729
1 730
1 731
1 732
1 733
1 734
1 735
1 736
1 737
1 738
1 739
1 740
1 741
1 742
1 743
1 744
1 745
1 746
1 747
1 748
1 749
1 750
1 751
1 752
1 753
1 754
1 755
1 756
1 757
1 758
1 759
1 760
1 761
1 762
1 763
1 764
1 765
1 766
1 767
1 768
1 769
1 770
1 771
1 772
1 773
1 774
1 775
1 776
1 777
1 778
1 779
1 780
1 781
1 782
1 783
1 784
1 785
1 786
1 787
1 788
1 789
1 790
1 791
1 792
1 793
1 794
1 795
1 796
1 797
1 798
1 799
1 800
1 801
1 802
1 803
1 804
1 805
1 806
1 807
1 808
1 809
1 810
1 811
1 812
1 813
1 814
1 815
1 816
1 817
1 818
1 819
1 820
1 821
1 822
1 823
1 824
1 825
1 826
1 827
1 828
1 829
1 830
1 831
1 832
1 833
1 834
1 835
1 836
1 837
1 838
1 839
1 840
1 841
1 842
1 843
1 844
1 845
1 846
1 847
1 848
1 849
1 850
1 851
1 852
1 853
1 854
1 855
1 856
1 857
1 858
1 859
1 860
1 861
1 862
1 863
1 864
1 865
1 866
1 867
1 868
1 869
1 870
1 871
1 872
1 873
1 874
1 875
1 876
1 877
1 878
1 879
1 880
1 881
1 882
1 883
1 884
1 885
1 886
1 887
1 888
1 889
1 890
1 891
1 892
1 893
1 894
1 895
1 896
1 897
1 898
1 899
1 900
1 901
1 902
1 903
1 904
1 905
1 906
1 907
1 908
1 909
1 910
1 911
1 912
1 913
1 914
1 915
1 916
1 917
1 918
1 919
1 920
1 921
1 922
1 923
1 924
1 925
1 926
1 927
1 928
1 929
1 930
1 931
1 932
1 933
1 934
1 935
1 936
1 937
1 938
1 939
1 940
1 941
1 942
1 943
1 944
1 945
1 946
1 947
1 948
1 949
1 950
1 951
1 952
1 953
1 954
1 955
1 956
1 957
1 958
1 959
1 960
1 961
1 962
1 963
1 964
1 965
1 966
1 967
1 968
1 969
1 970
1 971
1 972
1 973
1 974
1 975
1 976
1 977
1 978
1 979
1 980
1 981
1 982
1 983
1 984
1 985
1 986
1 987
1 988
1 989
1 990
1 991
1 992
1 993
1 994
1 995
1 996
1 997
1 998
1 999
1 1000
1 1001
1 1002
1 1003
1 1004
1 1005
1 1006
1 1007
1 1008
1 1009
1 1010
1 1011
1 1012
1 1013
1 1014
1 1015
1 1016
1 1017
1 1018
1 1019
1 1020
1 1021
1 1022
1 1023
1 1024
1 1025
1 1026
1 1027
1 1028
1 1029
1 1030
1 1031
1 1032
1 1033
1 1034
1 1035
1 1036
1 1037
1 1038
1 1039
1 1040
1 1041
1 1042
1 1043
1 1044
1 1045
1 1046
1 1047
1 1048
1 1049
1 1050
1 1051
1 1052
1 1053
1 1054
1 1055
1 1056
1 1057
1 1058
1 1059
1 1060
1 1061
1 1062
1 1063
1 1064
1 1065
1 1066
1 1067
1 1068
1 1069
1 1070
1 1071
1 1072
1 1073
1 1074
1 1075
1 1076
1 1077
1 1078
1 1079
1 1080
1 1081
1 1082
1 1083
1 1084
1 1085
1 1086
1 1087
1 1088
1 1089
1 1090
1 1091
1 1092
1 1093
1 1094
1 1095
1 1096
1 1097
1 1098
1 1099
1 1100
1 1101
1 1102
1 1103
1 1104
1 1105
1 1106
1 1107
1 1108
1 1109
1 1110
1 1111
1 1112
1 1113
1 1114
1 1115
1 1116
1 1117
1 1118
1 1119
1 1120
1 1121
1 1122
1 1123
1 1124
1 1125
1 1126
1 1127
1 1128
1 1129
1 1130
1 1131
1 1132
1 1133
1 1134
1 1135
1 1136
1 1137
1 1138
1 1139
1 1140
1 1141
1 1142
1 1143
1 1144
1 1145
1 1146
1 1147
1 1148
1 1149
1 1150
1 1151
1 1152
1 1153
1 1154
1 1155
1 1156
1 1157
1 1158
1 1159
1 1160
1 1161
1 1162
1 1163
1 1164
1 1165
1 1166
1 1167
1 1168
1 1169
1 1170
1 1171
1 1172
1 1173
1 1174
1 1175
1 1176
1 1177
1 1178
1 1179
1 1180
1 1181
1 1182
1 1183
1 1184
1 1185
1 1186
1 1187
1 1188
1 1189
1 1190
1 1191
1 1192
1 1193
1 1194
1 1195
1 1196
1 1197
1 1198
1 1199
1 1200
1 1201
1 1202
1 1203
1 1204
1 1205
1 1206
1 1207
1 1208
1 1209
1 1210
1 1211
1 1212
1 1213
1 1214
1 1215
1 1216
1 1217
1 1218
1 1219
1 1220
1 1221
1 1222
1 1223
1 1224
1 1225
1 1226
1 1227
1 1228
1 1229
1 1230
1 1231
1 1232
1 1233
1 1234
1 1235
1 1236
1 1237
1 1238
1 1239
1 1240
1 1241
1 1242
1 1243
1 1244
1 1245
1 1246
1 1247
1 1248
1 1249
1 1250
1 1251
1 1252
1 1253
1 1254
1 1255
1 1256
1 1257
1 1258
1 1259
1 1260
1 1261
1 1262
1 1263
1 1264
1 1265
1 1266
1 1267
1 1268
1 1269
1 1270
1 1271
1 1272
1 1273
1 1274
1 1275
1 1276
1 1277
1 1278
1 1279
1 1280
1 1281
1 1282
1 1283
1 1284
1 1285
1 1286
1 1287
1 1288
1 1289
1 1290
1 1291
1 1292
1 1293
1 1294
1 1295
1 1296
1 1297
1 1298
1 1299
1 1300
1 1301
1 1302
1 1303
1 1304
1 1305
1 1306
1 1307
1 1308
1 1309
1 1310
1 1311
1 1312
1 1313
1 1314
1 1315
1 1316
1 1317
1 1318
1 1319
1 1320
1 1321
1 1322
1 1323
1 1324
1 1325
1 1326
1 1327
1 1328
1 1329
1 1330
1 1331
1 1332
1 1333
1 1334
1 1335
1 1336
1 1337
1 1338
1 1339
1 1340
1 1341
1 1342
1 1343
1 1344
1 1345
1 1346
1 1347
1 1348
1 1349
1 1350
1 1351
1 1352
1 1353
1 1354
1 1355
1 1356
1 1357
1 1358
1 1359
1 1360
1 1361
1 1362
1 1363
1 1364
1 1365
1 1366
1 1367
1 1368
1 1369
1 1370
1 1371
1 1372
1 1373
1 1374
1 1375
1 1376
1 1377
1 1378
1 1379
1 1380
1 1381
1 1382
1 1383
1 1384
1 1385
1 1386
1 1387
1 1388
1 1389
1 1390
1 1391
1 1392
1 1393
1 1394
1 1395
1 1396
1 1397
1 1398
1 1399
1 1400
1 1401
1 1402
1 1403
1 1404
1 1405
1 1406
1 1407
1 1408
1 1409
1 1410
1 1411
1 1412
1 1413
1 1414
1 1415
1 1416
1 1417
1 1418
1 1419
1 1420
1 1421
1 1422
1 1423
1 1424
1 1425
1 1426
1 1427
1 1428
1 1429
1 1430
1 1431
1 1432
1 1433
1 1434
1 1435
1 1436
1 1437
1 1438
1 1439
1 1440
1 1441
1 1442
1 1443
1 1444
1 1445
1 1446
1 1447
1 1448
1 1449
1 1450
1 1451
1 1452
1 1453
1 1454
1 1455
1 1456
1 1457
1 1458
1 1459
1 1460
1 1461
1 1462
1 1463
1 1464
1 1465
1 1466
1 1467
1 1468
1 1469
1 1470
1 1471
1 1472
1 1473
1 1474
1 1475
1 1476
1 1477
1 1478
1 1479
1 1480
1 1481
1 1482
1 1483
1 1484
1 1485
1 1486
1 1487
1 1488
1 1489
1 1490
1 1491
1 1492
1 1493
1 1494
1 1495
1 1496
1 1497
1 1498
1 1499
1 1500
1 1501
1 1502
1 1503
1 1504
1 1505
1 1506
1 1507
1 1508
1 1509
1 1510
1 1511
1 1512
1 1513
1 1514
1 1515
1 1516
1 1517
1 1518
1 1519
1 1520
1 1521
1 1522
1 1523
1 1524
1 1525
1 1526
1 1527
1 1528
1 1529
1 1530
1 1531
1 1532
1 1533
1 1534
1 1535
1 1536
1 1537
1 1538
1 1539
1 1540
1 1541
1 1542
1 1543
1 1544
1 1545
1 1546
1 1547
1 1548
1 1549
1 1550
1 1551
1 1552
1 1553
1 1554
1 1555
1 1556
1 1557
1 1558
1 1559
1 1560
1 1561
1 1562
1 1563
1 1564
1 1565
1 1566
1 1567
1 1568
1 1569
1 1570
1 1571
1 1572
1 1573
1 1574
1 1575
1 1576
1 1577
1 1578
1 1579
1 1580
1 1581
1 1582
1 1583
1 1584
1 1585
1 1586
1 1587
1 1588
1 1589
1 1590
1 1591
1 1592
1 1593
1 1594
1 1595
1 1596
1 1597
1 1598
1 1599
1 1600
1 1601
1 1602
1 1603
1 1604
1 1605
1 1606
1 1607
1 1608
1 1609
1 1610
1 1611
1 1612
1 1613
1 1614
1 1615
1 1616
1 1617
1 1618
1 1619
1 1620
1 1621
1 1622
1 1623
1 1624
1 1625
1 1626
1 1627
1 1628
1 1629
1 1630
1 1631
1 1632
1 1633
1 1634
1 1635
1 1636
1 1637
1 1638
1 1639
1 1640
1 1641
1 1642
1 1643
1 1644
1 1645
1 1646
1 1647
1 1648
1 1649
1 1650
1 1651
1 1652
1 1653
1 1654
1 1655
1 1656
1 1657
1 1658
1 1659
1 1660
1 1661
1 1662
1 1663
1 1664
1 1665
1 1666
1 1667
1 1668
1 1669
1 1670
1 1671
1 1672
1 1673
1 1674
1 1675
1 1676
1 1677
1 1678
1 1679
1 1680
1 1681
1 1682
1 1683
1 1684
1 1685
1 1686
1 1687
1 1688
1 1689
1 1690
1 1691
1 1692
1 1693
1 1694
1 1695
1 1696
1 1697
1 1698
1 1699
1 1700
1 1701
1 1702
1 1703
1 1704
1 1705
1 1706
1 1707
1 1708
1 1709
1 1710
1 1711
1 1712
1 1713
1 1714
1 1715
1 1716
1 1717
1 1718
1 1719
1 1720
1 1721
1 1722
1 1723
1 1724
1 1725
1 1726
1 1727
1 1728
1 1729
1 1730
1 1731
1 1732
1 1733
1 1734
1 1735
1 1736
1 1737
1 1738
1 1739
1 1740
1 1741
1 1742
1 1743
1 1744
1 1745
1 1746
1 1747
1 1748
1 1749
1 1750
1 1751
1 1752
1 1753
1 1754
1 1755
1 1756
1 1757
1 1758
1 1759
1 1760
1 1761
1 1762
1 1763
1 1764
1 1765
1 1766
1 1767
1 1768
1 1769
1 1770
1 1771
1 1772
1 1773
1 1774
1 1775
1 1776
1 1777
1 1778
1 1779
1 1780
1 1781
1 1782
1 1783
1 1784
1 1785
1 1786
1 1787
1 1788
1 1789
1 1790
1 1791
1 1792
1 1793
1 1794
1 1795
1 1796
1 1797
1 1798
1 1799
1 1800
1 1801
1 1802
1 1803
1 1804
1 1805
1 1806
1 1807
1 1808
1 1809
1 1810
1 1811
1 1812
1 1813
1 1814
1 1815
1 1816
1 1817
1 1818
1 1819
1 1820
1 1821
1 1822
1 1823
1 1824
1 1825
1 1826
1 1827
1 1828
1 1829
1 1830
1 1831
1 1832
1 1833
1 1834
1 1835
1 1836
1 1837
1 1838
1 1839
1 1840
1 1841
1 1842
1 1843
1 1844
1 1845
1 1846
1 1847
1 1848
1 1849
1 1850
1 1851
1 1852
1 1853
1 1854
1 1855
1 1856
1 1857
1 1858
1 1859
1 1860
1 1861
1 1862
1 1863
1 1864
1 1865
1 1866
1 1867
1 1868
1 1869
1 1870
1 1871
1 1872
1 1873
1 1874
1 1875
1 1876
1 1877
1 1878
1 1879
1 1880
1 1881
1 1882
1 1883
1 1884
1 1885
1 1886
1 1887
1 1888
1 1889
1 1890
1 1891
1 1892
1 1893
1 1894
1 1895
1 1896
1 1897
1 1898
1 1899
1 1900
1 1901
1 1902
1 1903
1 1904
1 1905
1 1906
1 1907
1 1908
1 1909
1 1910
1 1911
1 1912
1 1913
1 1914
1 1915
1 1916
1 1917
1 1918
1 1919
1 1920
1 1921
1 1922
1 1923
1 1924
1 1925
1 1926
1 1927
1 1928
1 1929
1 1930
1 1931
1 1932
1 1933
1 1934
1 1935
1 1936
1 1937
1 1938
1 1939
1 1940
1 1941
1 1942
1 1943
1 1944
1 1945
1 1946
1 1947
1 1948
1 1949
1 1950
1 1951
1 1952
1 1953
1 1954
1 1955
1 1956
1 1957
1 1958
1 1959
1 1960
1 1961
1 1962
1 1963
1 1964
1 1965
1 1966
1 1967
1 1968
1 1969
1 1970
1 1971
1 1972
1 1973
1 1974
1 1975
1 1976
1 1977
1 1978
1 1979
1 1980
1 1981
1 1982
1 1983
1 1984
1 1985
1 1986
1 1987
1 1988
1 1989
1 1990
1 1991
1 1992
1 1993
1 1994
1 1995
1 1996
1 1997
1 1998
1 1999
1 2000
1 2001
1 2002
1 2003
1 2004
1 2005
1 2006
1 2007
1 2008
1 2009
1 2010
1 2011
1 2012
1 2013
1 2014
1 2015
1 2016
1 2017
1 2018
1 2019
1 2020
1 2021
1 2022
1 2023
1 2024
1 2025
1 2026
1 2027
1 2028
1 2029
1 2030
1 2031
1 2032
1 2033
1 2034
1 2035
1 2036
1 2037
1 2038
1 2039
1 2040
1 2041
1 2042
1 2043
1 2044
1 2045
1 2046
1 2047
1 2048
1 2049
1 2050
1 2051
1 2052
1 2053
1 2054
1 2055
1 2056
1 2057
1 2058
1 2059
1 2060
1 2061
1 2062
1 2063
1 2064
1 2065
1 2066
1 2067
1 2068
1 2069
1 2070
1 2071
1 2072
1 2073
1 2074
1 2075
1 2076
1 2077
1 2078
1 2079
1 2080
1 2081
1 2082
1 2083
1 2084
1 2085
1 2086
1 2087
1 2088
1 2089
1 2090
1 2091
1 2092
1 2093
1 2094
1 2095
1 2096
1 2097
1 2098
1 2099
1 2100
1 2101
1 2102
1 2103
1 2104
1 2105
1 2106
1 2107
1 2108
1 2109
1 2110
1 2111
1 2112
1 2113
1 2114
1 2115
1 2116
1 2117
1 2118
1 2119
1 2120
1 2121
1 2122
1 2123
1 2124
1 2125
1 2126
1 2127
1 2128
1 2129
1 2130
1 2131
1 2132
1 2133
1 2134
1 2135
1 2136
1 2137
1 2138
1 2139
1 2140
1 2141
1 2142
1 2143
1 2144
1 2145
1 2146
1 2147
1 2148
1 2149
1 2150
1 2151
1 2152
1 2153
1 2154
1 2155
1 2156
1 2157
1 2158
1 2159
1 2160
1 2161
1 2162
1 2163
1 2164
1 2165
1 2166
1 2167
1 2168
1 2169
1 2170
1 2171
1 2172
1 2173
1 2174
1 2175
1 2176
1 2177
1 2178
1 2179
1 2180
1 2181
1 2182
1 2183
1 2184
1 2185
1 2186
1 2187
1 2188
1 2189
1 2190
1 2191
1 2192
1 2193
1 2194
1 2195
1 2196
1 2197
1 2198
1 2199
1 2200
1 2201
1 2202
1 2203
1 2204
1 2205
1 2206
1 2207
1 2208
1 2209
1 2210
1 2211
1 2212
1 2213
1 2214
1 2215
1 2216
1 2217
1 2218
1 2219
1 2220
1 2221
1 2222
1 2223
1 2224
1 2225
1 2226
1 2227
1 2228
1 2229
1 2230
1 2231
1 2232
1 2233
1 2234
1 2235
1 2236
1 2237
1 2238
1 2239
1 2240
1 2241
1 2242
1 2243
1 2244
1 2245
1 2246
1 2247
1 2248
1 2249
1 2250
1 2251
1 2252
1 2253
1 2254
1 2255
1 2256
1 2257
1 2258
1 2259
1 2260
1 2261
1 2262
1 2263
1 2264
1 2265
1 2266
1 2267
1 2268
1 2269
1 2270
1 2271
1 2272
1 2273
1 2274
1 2275
1 2276
1 2277
1 2278
1 2279
1 2280
1 2281
1 2282
1 2283
1 2284
1 2285
1 2286
1 2287
1 2288
1 2289
1 2290
1 2291
1 2292
1 2293
1 2294
1 2295
1 2296
1 2297
1 2298
1 2299
1 2300
1 2301
1 2302
1 2303
1 2304
1 2305
1 2306
1 2307
1 2308
1 2309
1 2310
1 2311
1 2312
1 2313
1 2314
1 2315
1 2316
1 2317
1 2318
1 2319
1 2320
1 2321
1 2322
1 2323
1 2324
1 2325
1 2326
1 2327
1 2328
1 2329
1 2330
1 2331
1 2332
1 2333
1 2334
1 2335
1 2336
1 2337
1 2338
1 2339
1 2340
1 2341
1 2342
1 2343
1 2344
1 2345
1 2346
1 2347
1 2348
1 2349
1 2350
1 2351
1 2352
1 2353
1 2354
1 2355
1 2356
1 2357
1 2358
1 2359
1 2360
1 2361
1 2362
1 2363
1 2364
1 2365
1 2366
1 2367
1 2368
1 2369
1 2370
1 2371
1 2372
1 2373
1 2374
1 2375
1 2376
1 2377
1 2378
1 2379
1 2380
1 2381
1 2382
1 2383
1 2384
1 2385
1 2386
1 2387
1 2388
1 2389
1 2390
1 2391
1 2392
1 2393
1 2394
1 2395
1 2396
1 2397
1 2398
1 2399
1 2400
1 2401
1 2402
1 2403
1 2404
1 2405
1 2406
1 2407
1 2408
1 2409
1 2410
1 2411
1 2412
1 2413
1 2414
1 2415
1 2416
1 2417
1 2418
1 2419
1 2420
1 2421
1 2422
1 2423
1 2424
1 2425
1 2426
1 2427
1 2428
1 2429
1 2430
1 2431
1 2432
1 2433
1 2434
1 2435
1 2436
1 2437
1 2438
1 2439
1 2440
1 2441
1 2442
1 2443
1 2444
1 2445
1 2446
1 2447
1 2448
1 2449
1 2450
1 2451
1 2452
1 2453
1 2454
1 2455
1 2456
1 2457
1 2458
1 2459
1 2460
1 2461
1 2462
1 2463
1 2464
1 2465
1 2466
1 2467
1 2468
1 2469
1 2470
1 2471
1 2472
1 2473
1 2474
1 2475
1 2476
1 2477
1 2478
1 2479
1 2480
1 2481
1 2482
1 2483
1 2484
1 2485
1 2486
1 2487
1 2488
1 2489
1 2490
1 2491
1 2492
1 2493
1 2494
1 2495
1 2496
1 2497
1 2498
1 2499
1 2500
1 2501
1 2502
1 2503
1 2504
1 2505
1 2506
1 2507
1 2508
1 2509
1 2510
1 2511
1 2512
1 2513
1 2514
1 2515
1 2516
1 2517
1 2518
1 2519
1 2520
1 2521
1 2522
1 2523
1 2524
1 2525
1 2526
1 2527
1 2528
1 2529
1 2530
1 2531
1 2532
1 2533
1 2534
1 2535
1 2536
1 2537
1 2538
1 2539
1 2540
1 2541
1 2542
1 2543
1 2544
1 2545
1 2546
1 2547
1 2548
1 2549
1 2550
1 2551
1 2552
1 2553
1 2554
1 2555
1 2556
1 2557
1 2558
1 2559
1 2560
1 2561
1 2562
1 2563
1 2564
1 2565
1 2566
1 2567
1 2568
1 2569
1 2570
1 2571
1 2572
1 2573
1 2574
1 2575
1 2576
1 2577
1 2578
1 2579
1 2580
1 2581
1 2582
1 2583
1 2584
1 2585
1 2586
1 2587
1 2588
1 2589
1 2590
1 2591
1 2592
1 2593
1 2594
1 2595
1 2596
1 2597
1 2598
1 2599
1 2600
1 2601
1 2602
1 2603
1 2604
1 2605
1 2606
1 2607
1 2608
1 2609
1 2610
1 2611
1 2612
1 2613
1 2614
1 2615
1 2616
1 2617
1 2618
1 2619
1 2620
1 2621
1 2622
1 2623
1 2624
1 2625
1 2626
1 2627
1 2628
1 2629
1 2630
1 2631
1 2632
1 2633
1 2634
1 2635
1 2636
1 2637
1 2638
1 2639
1 2640
1 2641
1 2642
1 2643
1 2644
1 2645
1 2646
1 2647
1 2648
1 2649
1 2650
1 2651
1 2652
1 2653
1 2654
1 2655
1 2656
1 2657
1 2658
1 2659
1 2660
1 2661
1 2662
1 2663
1 2664
1 2665
1 2666
1 2667
1 2668
1 2669
1 2670
1 2671
1 2672
1 2673
1 2674
1 2675
1 2676
1 2677
1 2678
1 2679
1 2680
1 2681
1 2682
1 2683
1 2684
1 2685
1 2686
1 2687
1 2688
1 2689
1 2690
1 2691
1 2692
1 2693
1 2694
1 2695
1 2696
1 2697
1 2698
1 2699
1 2700
1 2701
1 2702
1 2703
1 2704
1 2705
1 2706
1 2707
1 2708
1 2709
1 2710
1 2711
1 2712
1 2713
1 2714
1 2715
1 2716
1 2717
1 2718
1 2719
1 2720
1 2721
1 2722
1 2723
1 2724
1 2725
1 2726
1 2727
1 2728
1 2729
1 2730
1 2731
1 2732
1 2733
1 2734
1 2735
1 2736
1 2737
1 2738
1 2739
1 2740
1 2741
1 2742
1 2743
1 2744
1 2745
1 2746
1 2747
1 2748
1 2749
1 2750
1 2751
1 2752
1 2753
1 2754
1 2755
1 2756
1 2757
1 2758
1 2759
1 2760
1 2761
1 2762
1 2763
1 2764
1 2765
1 2766
1 2767
1 2768
1 2769
1 2770
1 2771
1 2772
1 2773
1 2774
1 2775
1 2776
1 2777
1 2778
1 2779
1 2780
1 2781
1 2782
1 2783
1 2784
1 2785
1 2786
1 2787
1 2788
1 2789
1 2790
1 2791
1 2792
1 2793
1 2794
1 2795
1 2796
1 2797
1 2798
1 2799
1 2800
1 2801
1 2802
1 2803
1 2804
1 2805
1 2806
1 2807
1 2808
1 2809
1 2810
1 2811
1 2812
1 2813
1 2814
1 2815
1 2816
1 2817
1 2818
1 2819
1 2820
1 2821
1 2822
1 2823
1 2824
1 2825
1 2826
1 2827
1 2828
1 2829
1 2830
1 2831
1 2832
1 2833
1 2834
1 2835
1 2836
1 2837
1 2838
1 2839
1 2840
1 2841
1 2842
1 2843
1 2844
1 2845
1 2846
1 2847
1 2848
1 2849
1 2850
1 2851
1 2852
1 2853
1 2854
1 2855
1 2856
1 2857
1 2858
1 2859
1 2860
1 2861
1 2862
1 2863
1 2864
1 2865
1 2866
1 2867
1 2868
1 2869
1 2870
1 2871
1 2872
1 2873
1 2874
1 2875
1 2876
1 2877
1 2878
1 2879
1 2880
1 2881
1 2882
1 2883
1 2884
1 2885
1 2886
1 2887
1 2888
1 2889
1 2890
1 2891
1 2892
1 2893
1 2894
1 2895
1 2896
1 2897
1 2898
1 2899
1 2900
1 2901
1 2902
1 2903
1 2904
1 2905
1 2906
1 2907
1 2908
1 2909
1 2910
1 2911
1 2912
1 2913
1 2914
1 2915
1 2916
1 2917
1 2918
1 2919
1 2920
1 2921
1 2922
1 2923
1 2924
1 2925
1 2926
1 2927
1 2928
1 2929
1 2930
1 2931
1 2932
1 2933
1 2934
1 2935
1 2936
1 2937
1 2938
1 2939
1 2940
1 2941
1 2942
1 2943
1 2944
1 2945
1 2946
1 2947
1 2948
1 2949
1 2950
1 2951
1 2952
1 2953
1 2954
1 2955
1 2956
1 2957
1 2958
1 2959
1 2960
1 2961
1 2962
1 2963
1 2964
1 2965
1 2966
1 2967
1 2968
1 2969
1 2970
1 2971
1 2972
1 2973
1 2974
1 2975
1 2976
1 2977
1 2978
1 2979
1 2980
1 2981
1 2982
1 2983
1 2984
1 2985
1 2986
1 2987
1 2988
1 2989
1 2990
1 2991
1 2992
1 2993
1 2994
1 2995
1 2996
1 2997
1 2998
1 2999
1 3000
1 3001
1 3002
1 3003
1 3004
1 3005
1 3006
1 3007
1 3008
1 3009
1 3010
1 3011
1 3012
1 3013
1 3014
1 3015
1 3016
1 3017
1 3018
1 3019
1 3020
1 3021
1 3022
1 3023
1 3024
1 3025
1 3026
1 3027
1 3028
1 3029
1 3030
1 3031
1 3032
1 3033
1 3034
1 3035
1 3036
1 3037
1 3038
1 3039
1 3040
1 3041
1 3042
1 3043
1 3044
1 3045
1 3046
1 3047
1 3048
1 3049
1 3050
1 3051
1 3052
1 3053
1 3054
1 3055
1 3056
1 3057
1 3058
1 3059
1 3060
1 3061
1 3062
1 3063
1 3064
1 3065
1 3066
1 3067
1 3068
1 3069
1 3070
1 3071
1 3072
1 3073
1 3074
1 3075
1 3076
1 3077
1 3078
1 3079
1 3080
1 3081
1 3082
1 3083
1 3084
1 3085
1 3086
1 3087
1 3088
1 3089
1 3090
1 3091
1 3092
1 3093
1 3094
1 3095
1 3096
1 3097
1 3098
1 3099
1 3100
1 3101
1 3102
1 3103
1 3104
1 3105
1 3106
1 3107
1 3108
1 3109
1 3110
1 3111
1 3112
1 3113
1 3114
1 3115
1 3116
1 3117
1 3118
1 3119
1 3120
1 3121
1 3122
1 3123
1 3124
1 3125
1 3126
1 3127
1 3128
1 3129
1 3130
1 3131
1 3132
1 3133
1 3134
1 3135
1 3136
1 3137
1 3138
1 3139
1 3140
1 3141
1 3142
1 3143
1 3144
1 3145
1 3146
1 3147
1 3148
1 3149
1 3150
1 3151
1 3152
1 3153
1 3154
1 3155
1 3156
1 3157
1 3158
1 3159
1 3160
1 3161
1 3162
1 3163
1 3164
1 3165
1 3166
1 3167
1 3168
1 3169
1 3170
1 3171
1 3172
1 3173
1 3174
1 3175
1 3176
1 3177
1 3178
1 3179
1 3180
1 3181
1 3182
1 3183
1 3184
1 3185
1 3186
1 3187
1 3188
1 3189
1 3190
1 3191
1 3192
1 3193
1 3194
1 3195
1 3196
1 3197
1 3198
1 3199
1 3200
1 3201
1 3202
1 3203
1 3204
1 3205
1 3206
1 3207
1 3208
1 3209
1 3210
1 3211
1 3212
1 3213
1 3214
1 3215
1 3216
1 3217
1 3218
1 3219
1 3220
1 3221
1 3222
1 3223
1 3224
1 3225
1 3226
1 3227
1 3228
1 3229
1 3230
1 3231
1 3232
1 3233
1 3234
1 3235
1 3236
1 3237
1 3238
1 3239
1 3240
1 3241
1 3242
1 3243
1 3244
1 3245
1 3246
1 3247
1 3248
1 3249
1 3250
1 3251
1 3252
1 3253
1 3254
1 3255
1 3256
1 3257
1 3258
1 3259
1 3260
1 3261
1 3262
1 3263
1 3264
1 3265
1 3266
1 3267
1 3268
1 3269
1 3270
1 3271
1 3272
1 3273
1 3274
1 3275
1 3276
1 3277
1 3278
1 3279
1 3280
1 3281
1 3282
1 3283
1 3284
1 3285
1 3286
1 3287
1 3288
1 3289
1 3290
1 3291
1 3292
1 3293
1 3294
1 3295
1 3296
1 3297
1 3298
1 3299
1 3300
1 3301
1 3302
1 3303
1 3304
1 3305
1 3306
1 3307
1 3308
1 3309
1 3310
1 3311
1 3312
1 3313
1 3314
1 3315
1 3316
1 3317
1 3318
1 3319
1 3320
1 3321
1 3322
1 3323
1 3324
1 3325
1 3326
1 3327
1 3328
1 3329
1 3330
1 3331
1 3332
1 3333
1 3334
1 3335
1 3336
1 3337
1 3338
1 3339
1 3340
1 3341
1 3342
1 3343
1 3344
1 3345
1 3346
1 3347
1 3348
1 3349
1 3350
1 3351
1 3352
1 3353
1 3354
1 3355
1 3356
1 3357
1 3358
1 3359
1 3360
1 3361
1 3362
1 3363
1 3364
1 3365
1 3366
1 3367
1 3368
1 3369
1 3370
1 3371
1 3372
1 3373
1 3374
1 3375
1 3376
1 3377
1 3378
1 3379
1 3380
1 3381
1 3382
1 3383
1 3384
1 3385
1 3386
1 3387
1 3388
1 3389
1 3390
1 3391
1 3392
1 3393
1 3394
1 3395
1 3396
1 3397
1 3398
1 3399
1 3400
1 3401
1 3402
1 3403
1 3404
1 3405
1 3406
1 3407
1 3408
1 3409
1 3410
1 3411
1 3412
1 3413
1 3414
1 3415
1 3416
1 3417
1 3418
1 3419
1 3420
1 3421
1 3422
1 3423
1 3424
1 3425
1 3426
1 3427
1 3428
1 3429
1 3430
1 3431
1 3432
1 3433
1 3434
1 3435
1 3436
1 3437
1 3438
1 3439
1 3440
1 3441
1 3442
1 3443
1 3444
1 3445
1 3446
1 3447
1 3448
1 3449
1 3450
1 3451
1 3452
1 3453
1 3454
1 3455
1 3456
1 3457
1 3458
1 3459
1 3460
1 3461
1 3462
1 3463
1 3464
1 3465
1 3466
1 3467
1 3468
1 3469
1 3470
1 3471
1 3472
1 3473
1 3474
1 3475
1 3476
1 3477
1 3478
1 3479
1 3480
1 3481
1 3482
1 3483
1 3484
1 3485
1 3486
1 3487
1 3488
1 3489
1 3490
1 3491
1 3492
1 3493
1 3494
1 3495
1 3496
1 3497
1 3498
1 3499
1 3500
1 3501
1 3502
1 3503
1 3504
1 3505
1 3506
1 3507
1 3508
1 3509
1 3510
1 3511
1 3512
1 3513
1 3514
1 3515
1 3516
1 3517
1 3518
1 3519
1 3520
1 3521
1 3522
1 3523
1 3524
1 3525
1 3526
1 3527
1 3528
1 3529
1 3530
1 3531
1 3532
1 3533
1 3534
1 3535
1 3536
1 3537
1 3538
1 3539
1 3540
1 3541
1 3542
1 3543
1 3544
1 3545
1 3546
1 3547
1 3548
1 3549
1 3550
1 3551
1 3552
1 3553
1 3554
1 3555
1 3556
1 3557
1 3558
1 3559
1 3560
1 3561
1 3562
1 3563
1 3564
1 3565
1 3566
1 3567
1 3568
1 3569
1 3570
1 3571
1 3572
1 3573
1 3574
1 3575
1 3576
1 3577
1 3578
1 3579
1 3580
1 3581
1 3582
1 3583
1 3584
1 3585
1 3586
1 3587
1 3588
1 3589
1 3590
1 3591
1 3592
1 3593
1 3594
1 3595
1 3596
1 3597
1 3598
1 3599
1 3600
1 3601
1 3602
1 3603
1 3604
1 3605
1 3606
1 3607
1 3608
1 3609
1 3610
1 3611
1 3612
1 3613
1 3614
1 3615
1 3616
1 3617
1 3618
1 3619
1 3620
1 3621
1 3622
1 3623
1 3624
1 3625
1 3626
1 3627
1 3628
1 3629
1 3630
1 3631
1 3632
1 3633
1 3634
1 3635
1 3636
1 3637
1 3638
1 3639
1 3640
1 3641
1 3642
1 3643
1 3644
1 3645
1 3646
1 3647
1 3648
1 3649
1 3650
1 3651
1 3652
1 3653
1 3654
1 3655
1 3656
1 3657
1 3658
1 3659
1 3660
1 3661
1 3662
1 3663
1 3664
1 3665
1 3666
1 3667
1 3668
1 3669
1 3670
1 3671
1 3672
1 3673
1 3674
1 3675
1 3676
1 3677
1 3678
1 3679
1 3680
1 3681
1 3682
1 3683
1 3684
1 3685
1 3686
1 3687
1 3688
1 3689
1 3690
1 3691
1 3692
1 3693
1 3694
1 3695
1 3696
1 3697
1 3698
1 3699
1 3700
1 3701
1 3702
1 3703
1 3704
1 3705
1 3706
1 3707
1 3708
1 3709
1 3710
1 3711
1 3712
1 3713
1 3714
1 3715
1 3716
1 3717
1 3718
1 3719
1 3720
1 3721
1 3722
1 3723
1 3724
1 3725
1 3726
1 3727
1 3728
1 3729
1 3730
1 3731
1 3732
1 3733
1 3734
1 3735
1 3736
1 3737
1 3738
1 3739
1 3740
1 3741
1 3742
1 3743
1 3744
1 3745
1 3746
1 3747
1 3748
1 3749
1 3750
1 3751
1 3752
1 3753
1 3754
1 3755
1 3756
1 3757
1 3758
1 3759
1 3760
1 3761
1 3762
1 3763
1 3764
1 3765
1 3766
1 3767
1 3768
1 3769
1 3770
1 3771
1 3772
1 3773
1 3774
1 3775
1 3776
1 3777
1 3778
1 3779
1 3780
1 3781
1 3782
1 3783
1 3784
1 3785
1 3786
1 3787
1 3788
1 3789
1 3790
1 3791
1 3792
1 3793
1 3794
1 3795
1 3796
1 3797
1 3798
1 3799
1 3800
1 3801
1 3802
1 3803
1 3804
1 3805
1 3806
1 3807
1 3808
1 3809
1 3810
1 3811
1 3812
1 3813
1 3814
1 3815
1 3816
1 3817
1 3818
1 3819
1 3820
1 3821
1 3822
1 3823
1 3824
1 3825
1 3826
1 3827
1 3828
1 3829
1 3830
1 3831
1 3832
1 3833
1 3834
1 3835
1 3836
1 3837
1 3838
1 3839
1 3840
1 3841
1 3842
1 3843
1 3844
1 3845
1 3846
1 3847
1 3848
1 3849
1 3850
1 3851
1 3852
1 3853
1 3854
1 3855
1 3856
1 3857
1 3858
1 3859
1 3860
1 3861
1 3862
1 3863
1 3864
1 3865
1 3866
1 3867
1 3868
1 3869
1 3870
1 3871
1 3872
1 3873
1 3874
1 3875
1 3876
1 3877
1 3878
1 3879
1 3880
1 3881
1 3882
1 3883
1 3884
1 3885
1 3886
1 3887
1 3888
1 3889
1 3890
1 3891
1 3892
1 3893
1 3894
1 3895
1 3896
1 3897
1 3898
1 3899
1 3900
1 3901
1 3902
1 3903
1 3904
1 3905
1 3906
1 3907
1 3908
1 3909
1 3910
1 3911
1 3912
1 3913
1 3914
1 3915
1 3916
1 3917
1 3918
1 3919
1 3920
1 3921
1 3922
1 3923
1 3924
1 3925
1 3926
1 3927
1 3928
1 3929
1 3930
1 3931
1 3932
1 3933
1 3934
1 3935
1 3936
1 3937
1 3938
1 3939
1 3940
1 3941
1 3942
1 3943
1 3944
1 3945
1 3946
1 3947
1 3948
1 3949
1 3950
1 3951
1 3952
1 3953
1 3954
1 3955
1 3956
1 3957
1 3958
1 3959
1 3960
1 3961
1 3962
1 3963
1 3964
1 3965
1 3966
1 3967
1 3968
1 3969
1 3970
1 3971
1 3972
1 3973
1 3974
1 3975
1 3976
1 3977
1 3978
1 3979
1 3980
1 3981
1 3982
1 3983
1 3984
1 3985
1 3986
1 3987
1 3988
1 3989
1 3990
1 3991
1 3992
1 3993
1 3994
1 3995
1 3996
1 3997
1 3998
1 3999
1 4000
1 4001
1 4002
1 4003
1 4004
1 4005
1 4006
1 4007
1 4008
1 4009
1 4010
1 4011
1 4012
1 4013
1 4014
1 4015
1 4016
1 4017
1 4018
1 4019
1 4020
1 4021
1 4022
1 4023
1 4024
1 4025
1 4026
1 4027
1 4028
1 4029
1 4030
1 4031
1 4032
1 4033
1 4034
1 4035
1 4036
1 4037
1 4038
1 4039
1 4040
1 4041
1 4042
1 4043
1 4044
1 4045
1 4046
1 4047
1 4048
1 4049
1 4050
1 4051
1 4052
1 4053
1 4054
1 4055
1 4056
1 4057
1 4058
1 4059
1 4060
1 4061
1 4062
1 4063
1 4064
1 4065
1 4066
1 4067
1 4068
1 4069
1 4070
1 4071
1 4072
1 4073
1 4074
1 4075
1 4076
1 4077
1 4078
1 4079
1 4080
1 4081
1 4082
1 4083
1 4084
1 4085
1 4086
1 4087
1 4088
1 4089
1 4090
1 4091
1 4092
1 4093
1 4094
1 4095
1 4096
1 4097
1 4098
1 4099
1 4100
1 4101
1 4102
1 4103
1 4104
1 4105
1 4106
1 4107
1 4108
1 4109
1 4110
1 4111
1 4112
1 4113
1 4114
1 4115
1 4116
1 4117
1 4118
1 4119
1 4120
1 4121
1 4122
1 4123
1 4124
1 4125
1 4126
1 4127
1 4128
1 4129
1 4130
1 4131
1 4132
1 4133
1 4134
1 4135
1 4136
1 4137
1 4138
1 4139
1 4140
1 4141
1 4142
1 4143
1 4144
1 4145
1 4146
1 4147
1 4148
1 4149
1 4150
1 4151
1 4152
1 4153
1 4154
1 4155
1 4156
1 4157
1 4158
1 4159
1 4160
1 4161
1 4162
1 4163
1 4164
1 4165
1 4166
1 4167
1 4168
1 4169
1 4170
1 4171
1 4172
1 4173
1 4174
1 4175
1 4176
1 4177
1 4178
1 4179
1 4180
1 4181
1 4182
1 4183
1 4184
1 4185
1 4186
1 4187
1 4188
1 4189
1 4190
1 4191
1 4192
1 4193
1 4194
1 4195
1 4196
1 4197
1 4198
1 4199
1 4200
1 4201
1 4202
1 4203
1 4204
1 4205
1 4206
1 4207
1 4208
1 4209
1 4210
1 4211
1 4212
1 4213
1 4214
1 4215
1 4216
1 4217
1 4218
1 4219
1 4220
1 4221
1 4222
1 4223
1 4224
1 4225
1 4226
1 4227
1 4228
1 4229
1 4230
1 4231
1 4232
1 4233
1 4234
1 4235
1 4236
1 4237
1 4238
1 4239
1 4240
1 4241
1 4242
1 4243
1 4244
1 4245
1 4246
1 4247
1 4248
1 4249
1 4250
1 4251
1 4252
1 4253
1 4254
1 4255
1 4256
1 4257
1 4258
1 4259
1 4260
1 4261
1 4262
1 4263
1 4264
1 4265
1 4266
1 4267
1 4268
1 4269
1 4270
1 4271
1 4272
1 4273
1 4274
1 4275
1 4276
1 4277
1 4278
1 4279
1 4280
1 4281
1 4282
1 4283
1 4284
1 4285
1 4286
1 4287
1 4288
1 4289
1 4290
1 4291
1 4292
1 4293
1 4294
1 4295
1 4296
1 4297
1 4298
1 4299
1 4300
1 4301
1 4302
1 4303
1 4304
1 4305
1 4306
1 4307
1 4308
1 4309
1 4310
1 4311
1 4312
1 4313
1 4314
1 4315
1 4316
1 4317
1 4318
1 4319
1 4320
1 4321
1 4322
1 4323
1 4324
1 4325
1 4326
1 4327
1 4328
1 4329
1 4330
1 4331
1 4332
1 4333
1 4334
1 4335
1 4336
1 4337
1 4338
1 4339
1 4340
1 4341
1 4342
1 4343
1 4344
1 4345
1 4346
1 4347
1 4348
1 4349
1 4350
1 4351
1 4352
1 4353
1 4354
1 4355
1 4356
1 4357
1 4358
1 4359
1 4360
1 4361
1 4362
1 4363
1 4364
1 4365
1 4366
1 4367
1 4368
1 4369
1 4370
1 4371
1 4372
1 4373
1 4374
1 4375
1 4376
1 4377
1 4378
1 4379
1 4380
1 4381
1 4382
1 4383
1 4384
1 4385
1 4386
1 4387
1 4388
1 4389
1 4390
1 4391
1 4392
1 4393
1 4394
1 4395
1 4396
1 4397
1 4398
1 4399
1 4400
1 4401
1 4402
1 4403
1 4404
1 4405
1 4406
1 4407
1 4408
1 4409
1 4410
1 4411
1 4412
1 4413
1 4414
1 4415
1 4416
1 4417
1 4418
1 4419
1 4420
1 4421
1 4422
1 4423
1 4424
1 4425
1 4426
1 4427
1 4428
1 4429
1 4430
1 4431
1 4432
1 4433
1 4434
1 4435
1 4436
1 4437
1 4438
1 4439
1 4440
1 4441
1 4442
1 4443
1 4444
1 4445
1 4446
1 4447
1 4448
1 4449
1 4450
1 4451
1 4452
1 4453
1 4454
1 4455
1 4456
1 4457
1 4458
1 4459
1 4460
1 4461
1 4462
1 4463
1 4464
1 4465
1 4466
1 4467
1 4468
1 4469
1 4470
1 4471
1 4472
1 4473
1 4474
1 4475
1 4476
1 4477
1 4478
1 4479
1 4480
1 4481
1 4482
1 4483
1 4484
1 4485
1 4486
1 4487
1 4488
1 4489
1 4490
1 4491
1 4492
1 4493
1 4494
1 4495
1 4496
1 4497
1 4498
1 4499
1 4500
1 4501
1 4502
1 4503
1 4504
1 4505
1 4506
1 4507
1 4508
1 4509
1 4510
1 4511
1 4512
1 4513
1 4514
1 4515
1 4516
1 4517
1 4518
1 4519
1 4520
1 4521
1 4522
1 4523
1 4524
1 4525
1 4526
1 4527
1 4528
1 4529
1 4530
1 4531
1 4532
1 4533
1 4534
1 4535
1 4536
1 4537
1 4538
1 4539
1 4540
1 4541
1 4542
1 4543
1 4544
1 4545
1 4546
1 4547
1 4548
1 4549
1 4550
1 4551
1 4552
1 4553
1 4554
1 4555
1 4556
1 4557
1 4558
1 4559
1 4560
1 4561
1 4562
1 4563
1 4564
1 4565
1 4566
1 4567
1 4568
1 4569
1 4570
1 4571
1 4572
1 4573
1 4574
1 4575
1 4576
1 4577
1 4578
1 4579
1 4580
1 4581
1 4582
1 4583
1 4584
1 4585
1 4586
1 4587
1 4588
1 4589
1 4590
1 4591
1 4592
1 4593
1 4594
1 4595
1 4596
1 4597
1 4598
1 4599
1 4600
1 4601
1 4602
1 4603
1 4604
1 4605
1 4606
1 4607
1 4608
1 4609
1 4610
1 4611
1 4612
1 4613
1 4614
1 4615
1 4616
1 4617
1 4618
1 4619
1 4620
1 4621
1 4622
1 4623
1 4624
1 4625
1 4626
1 4627
1 4628
1 4629
1 4630
1 4631
1 4632
1 4633
1 4634
1 4635
1 4636
1 4637
1 4638
1 4639
1 4640
1 4641
1 4642
1 4643
1 4644
1 4645
1 4646
1 4647
1 4648
1 4649
1 4650
1 4651
1 4652
1 4653
1 4654
1 4655
1 4656
1 4657
1 4658
1 4659
1 4660
1 4661
1 4662
1 4663
1 4664
1 4665
1 4666
1 4667
1 4668
1 4669
1 4670
1 4671
1 4672
1 4673
1 4674
1 4675
1 4676
1 4677
1 4678
1 4679
1 4680
1 4681
1 4682
1 4683
1 4684
1 4685
1 4686
1 4687
1 4688
1 4689
1 4690
1 4691
1 4692
1 4693
1 4694
1 4695
1 4696
1 4697
1 4698
1 4699
1 4700
1 4701
1 4702
1 4703
1 4704
1 4705
1 4706
1 4707
1 4708
1 4709
1 4710
1 4711
1 4712
1 4713
1 4714
1 4715
1 4716
1 4717
1 4718
1 4719
1 4720
1 4721
1 4722
1 4723
1 4724
1 4725
1 4726
1 4727
1 4728
1 4729
1 4730
1 4731
1 4732
1 4733
1 4734
1 4735
1 4736
1 4737
1 4738
1 4739
1 4740
1 4741
1 4742
1 4743
1 4744
1 4745
1 4746
1 4747
1 4748
1 4749
1 4750
1 4751
1 4752
1 4753
1 4754
1 4755
1 4756
1 4757
1 4758
1 4759
1 4760
1 4761
1 4762
1 4763
1 4764
1 4765
1 4766
1 4767
1 4768
1 4769
1 4770
1 4771
1 4772
1 4773
1 4774
1 4775
1 4776
1 4777
1 4778
1 4779
1 4780
1 4781
1 4782
1 4783
1 4784
1 4785
1 4786
1 4787
1 4788
1 4789
1 4790
1 4791
1 4792
1 4793
1 4794
1 4795
1 4796
1 4797
1 4798
1 4799
1 4800
1 4801
1 4802
1 4803
1 4804
1 4805
1 4806
1 4807
1 4808
1 4809
1 4810
1 4811
1 4812
1 4813
1 4814
1 4815
1 4816
1 4817
1 4818
1 4819
1 4820
1 4821
1 4822
1 4823
1 4824
1 4825
1 4826
1 4827
1 4828
1 4829
1 4830
1 4831
1 4832
1 4833
1 4834
1 4835
1 4836
1 4837
1 4838
1 4839
1 4840
1 4841
1 4842
1 4843
1 4844
1 4845
1 4846
1 4847
1 4848
1 4849
1 4850
1 4851
1 4852
1 4853
1 4854
1 4855
1 4856
1 4857
1 4858
1 4859
1 4860
1 4861
1 4862
1 4863
1 4864
1 4865
1 4866
1 4867
1 4868
1 4869
1 4870
1 4871
1 4872
1 4873
1 4874
1 4875
1 4876
1 4877
1 4878
1 4879
1 4880
1 4881
1 4882
1 4883
1 4884
1 4885
1 4886
1 4887
1 4888
1 4889
1 4890
1 4891
1 4892
1 4893
1 4894
1 4895
1 4896
1 4897
1 4898
1 4899
1 4900
1 4901
1 4902
1 4903
1 4904
1 4905
1 4906
1 4907
1 4908
1 4909
1 4910
1 4911
1 4912
1 4913
1 4914
1 4915
1 4916
1 4917
1 4918
1 4919
1 4920
1 4921
1 4922
1 4923
1 4924
1 4925
1 4926
1 4927
1 4928
1 4929
1 4930
1 4931
1 4932
1 4933
1 4934
1 4935
1 4936
1 4937
1 4938
1 4939
1 4940
1 4941
1 4942
1 4943
1 4944
1 4945
1 4946
1 4947
1 4948
1 4949
1 4950
1 4951
1 4952
1 4953
1 4954
1 4955
1 4956
1 4957
1 4958
1 4959
1 4960
1 4961
1 4962
1 4963
1 4964
1 4965
1 4966
1 4967
1 4968
1 4969
1 4970
1 4971
1 4972
1 4973
1 4974
1 4975
1 4976
1 4977
1 4978
1 4979
1 4980
1 4981
1 4982
1 4983
1 4984
1 4985
1 4986
1 4987
1 4988
1 4989
1 4990
1 4991
1 4992
1 4993
1 4994
1 4995
1 4996
1 4997
1 4998
1 4999
CELL_TYPES 5000
1 
1 
1 
1 
1 
1 
1 
1 
1 
1 
1 
1 
1 
1 
1 
1 
1 
1 
1 
1 
1 
1 
1 
1 
1 
1 
1 
1 
1 
1 
1 
1 
1 
1 
1 
1 
1 
1 
1 
1 
1 
1 
1 
1 
1 
1 
1 
1 
1 
1 
1 
1 
1 
1 
1 
1 
1 
1 
1 
1 
1 
1 
1 
1 
1 
1 
1 
1 
1 
1 
1 
1 
1 
1 
1 
1 
1 
1 
1 
1 
1 
1 
1 
1 
1 
1 
1 
1 
1 
1 
1 
1 
1 
1 
1 
1 
1 
1 
1 
1 
1 
1 
1 
1 
1 
1 
1 
1 
1 
1 
1 
1 
1 
1 
1 
1 
1 
1 
1 
1 
1 
1 
1 
1 
1 
1 
1 
1 
1 
1 
1 
1 
1 
1 
1 
1 
1 
1 
1 
1 
1 
1 
1 
1 
1 
1 
1 
1 
1 
1 
1 
1 
1 
1 
1 
1 
1 
1 
1 
1 
1 
1 
1 
1 
1 
1 
1 
1 
1 
1 
1 
1 
1 
1 
1 
1 
1 
1 
1 
1 
1 
1 
1 
1 
1 
1 
1 
1 
1 
1 
1 
1 
1 
1 
1 
1 
1 
1 
1 
1 
1 
1 
1 
1 
1 
1 
1 
1 
1 
1 
1 
1 
1 
1 
1 
1 
1 
1 
1 
1 
1 
1 
1 
1 
1 
1 
1 
1 
1 
1 
1 
1 
1 
1 
1 
1 
1 
1 
1 
1 
1 
1 
1 
1 
1 
1 
1 
1 
1 
1 
1 
1 
1 
1 
1 
1 
1 
1 
1 
1 
1 
1 
1 
1 
1 
1 
1 
1 
1 
1 
1 
1 
1 
1 
1 
1 
1 
1 
1 
1 
1 
1 
1 
1 
1 
1 
1 
1 
1 
1 
1 
1 
1 
1 
1 
1 
1 
1 
1 
1 
1 
1 
1 
1 
1 
1 
1 
1 
1 
1 
1 
1 
1 
1 
1 
1 
1 
1 
1 
1 
1 
1 
1 
1 
1 
1 
1 
1 
1 
1 
1 
1 
1 
1 
1 
1 
1 
1 
1 
1 
1 
1 
1 
1 
1 
1 
1 
1 
1 
1 
1 
1 
1 
1 
1 
1 
1 
1 
1 
1 
1 
1 
1 
1 
1 
1 
1 
1 
1 
1 
1 
1 
1 
1 
1 
1 
1 
1 
1 
1 
1 
1 
1 
1 
1 
1 
1 
1 
1 
1 
1 
1 
1 
1 
1 
1 
1 
1 
1 
1 
1 
1 
1 
1 
1 
1 
1 
1 
1 
1 
1 
1 
1 
1 
1 
1 
1 
1 
1 
1 
1 
1 
1 
1 
1 
1 
1 
1 
1 
1 
1 
1 
1 
1 
1 
1 
1 
1 
1 
1 
1 
1 
1 
1 
1 
1 
1 
1 
1 
1 
1 
1 
1 
1 
1 
1 
1 
1 
1 
1 
1 
1 
1 
1 
1 
1 
1 
1 
1 
1 
1 
1 
1 
1 
1 
1 
1 
1 
1 
1 
1 
1 
1 
1 
1 
1 
1 
1 
1 
1 
1 
1 
1 
1 
1 
1 
1 
1 
1 
1 
1 
1 
1 
1 
1 
1 
1 
1 
1 
1 
1 
1 
1 
1 
1 
1 
1 
1 
1 
1 
1 
1 
1 
1 
1 
1 
1 
1 
1 
1 
1 
1 
1 
1 
1 
1 
1 
1 
1 
1 
1 
1 
1 
1 
1 
1 
1 
1 
1 
1 
1 
1 
1 
1 
1 
1 
1 
1 
1 
1 
1 
1 
1 
1 
1 
1 
1 
1 
1 
1 
1 
1 
1 
1 
1 
1 
1 
1 
1 
1 
1 
1 
1 
1 
1 
1 
1 
1 
1 
1 
1 
1 
1 
1 
1 
1 
1 
1 
1 
1 
1 
1 
1 
1 
1 
1 
1 
1 
1 
1 
1 
1 
1 
1 
1 
1 
1 
1 
1 
1 
1 
1 
1 
1 
1 
1 
1 
1 
1 
1 
1 
1 
1 
1 
1 
1 
1 
1 
1 
1 
1 
1 
1 
1 
1 
1 
1 
1 
1 
1 
1 
1 
1 
1 
1 
1 
1 
1 
1 
1 
1 
1 
1 
1 
1 
1 
1 
1 
1 
1 
1 
1 
1 
1 
1 
1 
1 
1 
1 
1 
1 
1 
1 
1 
1 
1 
1 
1 
1 
1 
1 
1 
1 
1 
1 
1 
1 
1 
1 
1 
1 
1 
1 
1 
1 
1 
1 
1 
1 
1 
1 
1 
1 
1 
1 
1 
1 
1 
1 
1 
1 
1 
1 
1 
1 
1 
1 
1 
1 
1 
1 
1 
1 
1 
1 
1 
1 
1 
1 
1 
1 
1 
1 
1 
1 
1 
1 
1 
1 
1 
1 
1 
1 
1 
1 
1 
1 
1 
1 
1 
1 
1 
1 
1 
1 
1 
1 
1 
1 
1 
1 
1 
1 
1 
1 
1 
1 
1 
1 
1 
1 
1 
1 
1 
1 
1 
1 
1 
1 
1 
1 
1 
1 
1 
1 
1 
1 
1 
1 
1 
1 
1 
1 
1 
1 
1 
1 
1 
1 
1 
1 
1 
1 
1 
1 
1 
1 
1 
1 
1 
1 
1 
1 
1 
1 
1 
1 
1 
1 
1 
1 
1 
1 
1 
1 
1 
1 
1 
1 
1 
1 
1 
1 
1 
1 
1 
1 
1 
1 
1 
1 
1 
1 
1 
1 
1 
1 
1 
1 
1 
1 
1 
1 
1 
1 
1 
1 
1 
1 
1 
1 
1 
1 
1 
1 
1 
1 
1 
1 
1 
1 
1 
1 
1 
1 
1 
1 
1 
1 
1 
1 
1 
1 
1 
1 
1 
1 
1 
1 
1 
1 
1 
1 
1 
1 
1 
1 
1 
1 
1 
1 
1 
1 
1 
1 
1 
1 
1 
1 
1 
1 
1 
1 
1 
1 
1 
1 
1 
1 
1 
1 
1 
1 
1 
1 
1 
1 
1 
1 
1 
1 
1 
1 
1 
1 
1 
1 
1 
1 
1 
1 
1 
1 
1 
1 
1 
1 
1 
1 
1 
1 
1 
1 
1 
1 
1 
1 
1 
1 
1 
1 
1 
1 
1 
1 
1 
1 
1 
1 
1 
1 
1 
1 
1 
1 
1 
1 
1 
1 
1 
1 
1 
1 
1 
1 
1 
1 
1 
1 
1 
1 
1 
1 
1 
1 
1 
1 
1 
1 
1 
1 
1 
1 
1 
1 
1 
1 
1 
1 
1 
1 
1 
1 
1 
1 
1 
1 
1 
1 
1 
1 
1 
1 
1 
1 
1 
1 
1 
1 
1 
1 
1 
1 
1 
1 
1 
1 
1 
1 
1 
1 
1 
1 
1 
1 
1 
1 
1 
1 
1 
1 
1 
1 
1 
1 
1 
1 
1 
1 
1 
1 
1 
1 
1 
1 
1 
1 
1 
1 
1 
1 
1 
1 
1 
1 
1 
1 
1 
1 
1 
1 
1 
1 
1 
1 
1 
1 
1 
1 
1 
1 
1 
1 
1 
1 
1 
1 
1 
1 
1 
1 
1 
1 
1 
1 
1 
1 
1 
1 
1 
1 
1 
1 
1 
1 
1 
1 
1 
1 
1 
1 
1 
1 
1 
1 
1 
1 
1 
1 
1 
1 
1 
1 
1 
1 
1 
1 
1 
1 
1 
1 
1 
1 
1 
1 
1 
1 
1 
1 
1 
1 
1 
1 
1 
1 
1 
1 
1 
1 
1 
1 
1 
1 
1 
1 
1 
1 
1 
1 
1 
1 
1 
1 
1 
1 
1 
1 
1 
1 
1 
1 
1 
1 
1 
1 
1 
1 
1 
1 
1 
1 
1 
1 
1 
1 
1 
1 
1 
1 
1 
1 
1 
1 
1 
1 
1 
1 
1 
1 
1 
1 
1 
1 
1 
1 
1 
1 
1 
1 
1 
1 
1 
1 
1 
1 
1 
1 
1 
1 
1 
1 
1 
1 
1 
1 
1 
1 
1 
1 
1 
1 
1 
1 
1 
1 
1 
1 
1 
1 
1 
1 
1 
1 
1 
1 
1 
1 
1 
1 
1 
1 
1 
1 
1 
1 
1 
1 
1 
1 
1 
1 
1 
1 
1 
1 
1 
1 
1 
1 
1 
1 
1 
1 
1 
1 
1 
1 
1 
1 
1 
1 
1 
1 
1 
1 
1 
1 
1 
1 
1 
1 
1 
1 
1 
1 
1 
1 
1 
1 
1 
1 
1 
1 
1 
1 
1 
1 
1 
1 
1 
1 
1 
1 
1 
1 
1 
1 
1 
1 
1 
1 
1 
1 
1 
1 
1 
1 
1 
1 
1 
1 
1 
1 
1 
1 
1 
1 
1 
1 
1 
1 
1 
1 
1 
1 
1 
1 
1 
1 
1 
1 
1 
1 
1 
1 
1 
1 
1 
1 
1 
1 
1 
1 
1 
1 
1 
1 
1 
1 
1 
1 
1 
1 
1 
1 
1 
1 
1 
1 
1 
1 
1 
1 
1 
1 
1 
1 
1 
1 
1 
1 
1 
1 
1 
1 
1 
1 
1 
1 
1 
1 
1 
1 
1 
1 
1 
1 
1 
1 
1 
1 
1 
1 
1 
1 
1 
1 
1 
1 
1 
1 
1 
1 
1 
1 
1 
1 
1 
1 
1 
1 
1 
1 
1 
1 
1 
1 
1 
1 
1 
1 
1 
1 
1 
1 
1 
1 
1 
1 
1 
1 
1 
1 
1 
1 
1 
1 
1 
1 
1 
1 
1 
1 
1 
1 
1 
1 
1 
1 
1 
1 
1 
1 
1 
1 
1 
1 
1 
1 
1 
1 
1 
1 
1 
1 
1 
1 
1 
1 
1 
1 
1 
1 
1 
1 
1 
1 
1 
1 
1 
1 
1 
1 
1 
1 
1 
1 
1 
1 
1 
1 
1 
1 
1 
1 
1 
1 
1 
1 
1 
1 
1 
1 
1 
1 
1 
1 
1 
1 
1 
1 
1 
1 
1 
1 
1 
1 
1 
1 
1 
1 
1 
1 
1 
1 
1 
1 
1 
1 
1 
1 
1 
1 
1 
1 
1 
1 
1 
1 
1 
1 
1 
1 
1 
1 
1 
1 
1 
1 
1 
1 
1 
1 
1 
1 
1 
1 
1 
1 
1 
1 
1 
1 
1 
1 
1 
1 
1 
1 
1 
1 
1 
1 
1 
1 
1 
1 
1 
1 
1 
1 
1 
1 
1 
1 
1 
1 
1 
1 
1 
1 
1 
1 
1 
1 
1 
1 
1 
1 
1 
1 
1 
1 
1 
1 
1 
1 
1 
1 
1 
1 
1 
1 
1 
1 
1 
1 
1 
1 
1 
1 
1 
1 
1 
1 
1 
1 
1 
1 
1 
1 
1 
1 
1 
1 
1 
1 
1 
1 
1 
1 
1 
1 
1 
1 
1 
1 
1 
1 
1 
1 
1 
1 
1 
1 
1 
1 
1 
1 
1 
1 
1 
1 
1 
1 
1 
1 
1 
1 
1 
1 
1 
1 
1 
1 
1 
1 
1 
1 
1 
1 
1 
1 
1 
1 
1 
1 
1 
1 
1 
1 
1 
1 
1 
1 
1 
1 
1 
1 
1 
1 
1 
1 
1 
1 
1 
1 
1 
1 
1 
1 
1 
1 
1 
1 
1 
1 
1 
1 
1 
1 
1 
1 
1 
1 
1 
1 
1 
1 
1 
1 
1 
1 
1 
1 
1 
1 
1 
1 
1 
1 
1 
1 
1 
1 
1 
1 
1 
1 
1 
1 
1 
1 
1 
1 
1 
1 
1 
1 
1 
1 
1 
1 
1 
1 
1 
1 
1 
1 
1 
1 
1 
1 
1 
1 
1 
1 
1 
1 
1 
1 
1 
1 
1 
1 
1 
1 
1 
1 
1 
1 
1 
1 
1 
1 
1 
1 
1 
1 
1 
1 
1 
1 
1 
1 
1 
1 
1 
1 
1 
1 
1 
1 
1 
1 
1 
1 
1 
1 
1 
1 
1 
1 
1 
1 
1 
1 
1 
1 
1 
1 
1 
1 
1 
1 
1 
1 
1 
1 
1 
1 
1 
1 
1 
1 
1 
1 
1 
1 
1 
1 
1 
1 
1 
1 
1 
1 
1 
1 
1 
1 
1 
1 
1 
1 
1 
1 
1 
1 
1 
1 
1 
1 
1 
1 
1 
1 
1 
1 
1 
1 
1 
1 
1 
1 
1 
1 
1 
1 
1 
1 
1 
1 
1 
1 
1 
1 
1 
1 
1 
1 
1 
1 
1 
1 
1 
1 
1 
1 
1 
1 
1 
1 
1 
1 
1 
1 
1 
1 
1 
1 
1 
1 
1 
1 
1 
1 
1 
1 
1 
1 
1 
1 
1 
1 
1 
1 
1 
1 
1 
1 
1 
1 
1 
1 
1 
1 
1 
1 
1 
1 
1 
1 
1 
1 
1 
1 
1 
1 
1 
1 
1 
1 
1 
1 
1 
1 
1 
1 
1 
1 
1 
1 
1 
1 
1 
1 
1 
1 
1 
1 
1 
1 
1 
1 
1 
1 
1 
1 
1 
1 
1 
1 
1 
1 
1 
1 
1 
1 
1 
1 
1 
1 
1 
1 
1 
1 
1 
1 
1 
1 
1 
1 
1 
1 
1 
1 
1 
1 
1 
1 
1 
1 
1 
1 
1 
1 
1 
1 
1 
1 
1 
1 
1 
1 
1 
1 
1 
1 
1 
1 
1 
1 
1 
1 
1 
1 
1 
1 
1 
1 
1 
1 
1 
1 
1 
1 
1 
1 
1 
1 
1 
1 
1 
1 
1 
1 
1 
1 
1 
1 
1 
1 
1 
1 
1 
1 
1 
1 
1 
1 
1 
1 
1 
1 
1 
1 
1 
1 
1 
1 
1 
1 
1 
1 
1 
1 
1 
1 
1 
1 
1 
1 
1 
1 
1 
1 
1 
1 
1 
1 
1 
1 
1 
1 
1 
1 
1 
1 
1 
1 
1 
1 
1 
1 
1 
1 
1 
1 
1 
1 
1 
1 
1 
1 
1 
1 
1 
1 
1 
1 
1 
1 
1 
1 
1 
1 
1 
1 
1 
1 
1 
1 
1 
1 
1 
1 
1 
1 
1 
1 
1 
1 
1 
1 
1 
1 
1 
1 
1 
1 
1 
1 
1 
1 
1 
1 
1 
1 
1 
1 
1 
1 
1 
1 
1 
1 
1 
1 
1 
1 
1 
1 
1 
1 
1 
1 
1 
1 
1 
1 
1 
1 
1 
1 
1 
1 
1 
1 
1 
1 
1 
1 
1 
1 
1 
1 
1 
1 
1 
1 
1 
1 
1 
1 
1 
1 
1 
1 
1 
1 
1 
1 
1 
1 
1 
1 
1 
1 
1 
1 
1 
1 
1 
1 
1 
1 
1 
1 
1 
1 
1 
1 
1 
1 
1 
1 
1 
1 
1 
1 
1 
1 
1 
1 
1 
1 
1 
1 
1 
1 
1 
1 
1 
1 
1 
1 
1 
1 
1 
1 
1 
1 
1 
1 
1 
1 
1 
1 
1 
1 
1 
1 
1 
1 
1 
1 
1 
1 
1 
1 
1 
1 
1 
1 
1 
1 
1 
1 
1 
1 
1 
1 
1 
1 
1 
1 
1 
1 
1 
1 
1 
1 
1 
1 
1 
1 
1 
1 
1 
1 
1 
1 
1 
1 
1 
1 
1 
1 
1 
1 
1 
1 
1 
1 
1 
1 
1 
1 
1 
1 
1 
1 
1 
1 
1 
1 
1 
1 
1 
1 
1 
1 
1 
1 
1 
1 
1 
1 
1 
1 
1 
1 
1 
1 
1 
1 
1 
1 
1 
1 
1 
1 
1 
1 
1 
1 
1 
1 
1 
1 
1 
1 
1 
1 
1 
1 
1 
1 
1 
1 
1 
1 
1 
1 
1 
1 
1 
1 
1 
1 
1 
1 
1 
1 
1 
1 
1 
1 
1 
1 
1 
1 
1 
1 
1 
1 
1 
1 
1 
1 
1 
1 
1 
1 
1 
1 
1 
1 
1 
1 
1 
1 
1 
1 
1 
1 
1 
1 
1 
1 
1 
1 
1 
1 
1 
1 
1 
1 
1 
1 
1 
1 
1 
1 
1 
1 
1 
1 
1 
1 
1 
1 
1 
1 
1 
1 
1 
1 
1 
1 
1 
1 
1 
1 
1 
1 
1 
1 
1 
1 
1 
1 
1 
1 
1 
1 
1 
1 
1 
1 
1 
1 
1 
1 
1 
1 
1 
1 
1 
1 
1 
1 
1 
1 
1 
1 
1 
1 
1 
1 
1 
1 
1 
1 
1 
1 
1 
1 
1 
1 
1 
1 
1 
1 
1 
1 
1 
1 
1 
1 
1 
1 
1 
1 
1 
1 
1 
1 
1 
1 
1 
1 
1 
1 
1 
1 
1 
1 
1 
1 
1 
1 
1 
1 
1 
1 
1 
1 
1 
1 
1 
1 
1 
1 
1 
1 
1 
1 
1 
1 
1 
1 
1 
1 
1 
1 
1 
1 
1 
1 
1 
1 
1 
1 
1 
1 
1 
1 
1 
1 
1 
1 
1 
1 
1 
1 
1 
1 
1 
1 
1 
1 
1 
1 
1 
1 
1 
1 
1 
1 
1 
1 
1 
1 
1 
1 
1 
1 
1 
1 
1 
1 
1 
1 
1 
1 
1 
1 
1 
1 
1 
1 
1 
1 
1 
1 
1 
1 
1 
1 
1 
1 
1 
1 
1 
1 
1 
1 
1 
1 
1 
1 
1 
1 
1 
1 
1 
1 
1 
1 
1 
1 
1 
1 
1 
1 
1 
1 
1 
1 
1 
1 
1 
1 
1 
1 
1 
1 
1 
1 
1 
1 
1 
1 
1 
1 
1 
1 
1 
1 
1 
1 
1 
1 
1 
1 
1 
1 
1 
1 
1 
1 
1 
1 
1 
1 
1 
1 
1 
1 
1 
1 
1 
1 
1 
1 
1 
1 
1 
1 
1 
1 
1 
1 
1 
1 
1 
1 
1 
1 
1 
1 
1 
1 
1 
1 
1 
1 
1 
1 
1 
1 
1 
1 
1 
1 
1 
1 
1 
1 
1 
1 
1 
1 
1 
1 
1 
1 
1 
1 
1 
1 
1 
1 
1 
1 
1 
1 
1 
1 
1 
1 
1 
1 
1 
1 
1 
1 
1 
1 
1 
1 
1 
1 
1 
1 
1 
1 
1 
1 
1 
1 
1 
1 
1 
1 
1 
1 
1 
1 
1 
1 
1 
1 
1 
1 
1 
1 
1 
1 
1 
1 
1 
1 
1 
1 
1 
1 
1 
1 
1 
1 
1 
1 
1 
1 
1 
1 
1 
1 
1 
1 
1 
1 
1 
1 
1 
1 
1 
1 
1 
1 
1 
1 
1 
1 
1 
1 
1 
1 
1 
1 
1 
1 
1 
1 
1 
1 
1 
1 
1 
1 
1 
1 
1 
1 
1 
1 
1 
1 
1 
1 
1 
1 
1 
1 
1 
1 
1 
1 
1 
1 
1 
1 
1 
1 
1 
1 
1 
1 
1 
1 
1 
1 
1 
1 
1 
1 
1 
1 
1 
1 
1 
1 
1 
1 
1 
1 
1 
1 
1 
1 
1 
1 
1 
1 
1 
1 
1 
1 
1 
1 
1 
1 
1 
1 
1 
1 
1 
1 
1 
1 
1 
1 
1 
1 
1 
1 
1 
1 
1 
1 
1 
1 
1 
1 
1 
1 
1 
1 
1 
1 
1 
1 
1 
1 
1 
1 
1 
1 
1 
1 
1 
1 
1 
1 
1 
1 
1 
1 
1 
1 
1 
1 
1 
1 
1 
1 
1 
1 
1 
1 
1 
1 
1 
1 
1 
1 
1 
1 
1 
1 
1 
1 
1 
1 
1 
1 
1 
1 
1 
1 
1 
1 
1 
1 
1 
1 
1 
1 
1 
1 
1 
1 
1 
1 
1 
1 
1 
1 
1 
1 
1 
1 
1 
1 
1 
1 
1 
1 
1 
1 
1 
1 
1 
1 
1 
1 
1 
1 
1 
1 
1 
1 
1 
1 
1 
1 
1 
1 
1 
1 
1 
1 
1 
1 
1 
1 
1 
1 
1 
1 
1 
1 
1 
1 
1 
1 
1 
1 
1 
1 
1 
1 
1 
1 
1 
1 
1 
1 
1 
1 
1 
1 
1 
1 
1 
1 
1 
1 
1 
1 
1 
1 
1 
1 
1 
1 
1 
1 
1 
1 
1 
1 
1 
1 
1 
1 
1 
1 
1 
1 
1 
1 
1 
1 
1 
1 
1 
1 
1 
1 
1 
1 
1 
1 
1 
1 
1 
1 
1 
1 
1 
1 
1 
1 
1 
1 
1 
1 
1 
1 
1 
1 
1 
1 
1 
1 
1 
1 
1 
1 
1 
1 
1 
1 
1 
1 
1 
1 
1 
1 
1 
1 
1 
1 
1 
1 
1 
1 
1 
1 
1 
1 
1 
1 
1 
1 
1 
1 
1 
1 
1 
1 
1 
1 
1 
1 
1 
1 
1 
1 
1 
1 
1 
1 
1 
1 
1 
1 
1 
1 
1 
1 
1 
1 
1 
1 
1 
1 
1 
1 
1 
1 
1 
1 
1 
1 
1 
1 
1 
1 
1 
1 
1 
1 
1 
1 
1 
1 
1 
1 
1 
1 
1 
1 
1 
1 
1 
1 
1 
1 
1 
1 
1 
1 
1 
1 
1 
1 
1 
1 
1 
1 
1 
1 
1 
1 
1 
1 
1 
1 
1 
1 
1 
1 
1 
1 
1 
1 
1 
1 
1 
1 
1 
1 
1 
1 
1 
1 
1 
1 
1 
1 
1 
1 
1 
1 
1 
1 
1 
1 
1 
1 
1 
1 
1 
1 
1 
1 
1 
1 
1 
1 
1 
1 
1 
1 
1 
1 
1 
1 
1 
1 
1 
1 
1 
1 
1 
1 
1 
1 
1 
1 
1 
1 
1 
1 
1 
1 
1 
1 
1 
1 
1 
1 
1 
1 
1 
1 
1 
1 
1 
1 
1 
1 
1 
1 
1 
1 
1 
1 
1 
1 
1 
1 
1 
1 
1 
1 
1 
1 
1 
1 
1 
1 
1 
1 
1 
1 
1 
1 
1 
1 
1 
1 
1 
1 
1 
1 
1 
1 
1 
1 
1 
1 
1 
1 
1 
1 
1 
1 
1 
1 
1 
1 
1 
1 
1 
1 
1 
1 
1 
1 
1 
1 
1 
1 
1 
1 
1 
1 
1 
1 
1 
1 
1 
1 
1 
1 
1 
1 
1 
1 
1 
1 
1 
1 
1 
1 
1 
1 
1 
1 
1 
1 
1 
1 
1 
1 
1 
1 
1 
1 
1 
1 
1 
1 
1 
1 
1 
1 
1 
1 
1 
1 
1 
1 
1 
1 
1 
1 
1 
1 
1 
1 
1 
1 
1 
1 
1 
1 
1 
1 
1 
1 
1 
1 
1 
1 
1 
1 
1 
1 
1 
1 
1 
1 
1 
1 
1 
1 
1 
1 
1 
1 
1 
1 
1 
1 
1 
1 
1 
1 
1 
1 
1 
1 
1 
1 
1 
1 
1 
1 
1 
1 
1 
1 
1 
1 
1 
1 
1 
1 
1 
1 
1 
1 
1 
1 
1 
1 
1 
1 
1 
1 
1 
1 
1 
1 
1 
1 
1 
1 
1 
1 
1 
1 
1 
1 
1 
1 
1 
1 
1 
1 
1 
1 
1 
1 
1 
1 
1 
1 
1 
1 
1 
1 
1 
1 
1 
1 
1 
1 
1 
1 
1 
1 
1 
1 
1 
1 
1 
1 
1 
1 
1 
1 
1 
1 
1 
1 
1 
1 
1 
1 
1 
1 
1 
1 
1 
1 
1 
1 
1 
1 
1 
1 
1 
1 
1 
1 
1 
1 
1 
1 
1 
1 
1 
1 
1 
1 
1 
1 
1 
1 
1 
1 
1 
1 
1 
1 
1 
1 
1 
1 
1 
1 
1 
1 
1 
1 
1 
1 
1 
1 
1 
1 
1 
1 
1 
1 
1 
1 
1 
1 
1 
1 
1 
1 
1 
1 
1 
1 
1 
1 
1 
1 
1 
1 
1 
1 
1 
1 
1 
1 
1 
1 
1 
1 
1 
1 
1 
1 
1 
1 
1 
1 
1 
1 
1 
1 
1 
1 
1 
1 
1 
1 
1 
1 
1 
1 
1 
1 
1 
1 
1 
1 
1 
1 
1 
1 
1 
1 
1 
1 
1 
1 
1 
1 
1 
1 
1 
1 
1 
1 
1 
1 
1 
1 
1 
1 
1 
1 
1 
1 
1 
1 
1 
1 
1 
1 
1 
1 
1 
1 
1 
1 
1 
1 
1 
1 
1 
1 
1 
1 
1 
1 
1 
1 
1 
1 
1 
1 
1 
1 
1 
1 
1 
1 
1 
1 
1 
1 
1 
1 
1 
1 
1 
1 
1 
1 
1 
1 
1 
1 
1 
1 
1 
1 
1 
1 
1 
1 
1 
1 
1 
1 
1 
1 
1 
1 
1 
1 
1 
1 
1 
1 
1 
1 
1 
1 
1 
1 
1 
1 
1 
1 
1 
1 
1 
1 
1 
1 
1 
1 
1 
1 
1 
1 
1 
1 
1 
1 
1 
1 
1 
1 
1 
1 
1 
1 
1 
1 
1 
1 
1 
1 
1 
1 
1 
1 
1 
1 
1 
1 
1 
1 
1 
1 
1 
1 
1 
1 
1 
1 
1 
1 
1 
1 
1 
1 
1 
1 
1 
1 
1 
1 
1 
1 
1 
1 
1 
1 
1 
1 
1 
1 
1 
1 
1 
1 
1 
1 
1 
1 
1 
1 
1 
1 
1 
1 
1 
1 
1 
1 
1 
1 
1 
1 
1 
1 
1 
1 
1 
1 
1 
1 
1 
1 
1 
1 
1 
1 
1 
1 
1 
1 
1 
1 
1 
1 
1 
1 
1 
1 
1 
1 
1 
1 
1 
1 
1 
1 
1 
1 
1 
1 
1 
1 
1 
1 
1 
1 
1 
1 
1 
1 
1 
1 
1 
1 
1 
1 
1 
1 
1 
1 
1 
1 
1 
1 
1 
1 
1 
1 
1 
1 
1 
1 
1 
1 
1 
1 
1 
1 
1 
1 
1 
1 
1 
1 
1 
1 
1 
1 
1 
1 
1 
1 
1 
1 
1 
1 
1 
1 
1 
1 
1 
1 
1 
1 
1 
1 
1 
1 
1 
1 
1 
1 
1 
1 
1 
1 
1 
1 
1 
1 
1 
1 
1 
1 
1 
1 
1 
1 
1 
1 
1 
1 
1 
1 
1 
1 
1 
1 
1 
1 
1 
1 
1 
1 
1 
1 
1 
1 
1 
1 
1 
1 
1 
1 
1 
1 
1 
1 
1 
1 
1 
1 
1 
1 
1 
1 
1 
1 
1 
1 
1 
1 
1 
1 
1 
1 
1 
1 
1 
1 
1 
1 
1 
1 
1 
1 
1 
1 
1 
1 
1 
1 
1 
1 
1 
1 
1 
1 
1 
1 
1 
1 
1 
1 
1 
1 
1 
1 
1 
1 
1 
1 
1 
1 
1 
1 
1 
1 
1 
1 
1 
1 
1 
1 
1 
1 
1 
1 
1 
1 
1 
1 
1 
1 
1 
1 
1 
1 
1 
1 
1 
1 
1 
1 
1 
1 
1 
1 
1 
1 
1 
1 
1 
1 
1 
1 
1 
1 
1 
1 
1 
1 
1 
1 
1 
1 
1 
1 
1 
1 
1 
1 
1 
1 
1 
1 
1 
1 
1 
1 
1 
1 
1 
1 
1 
1 
1 
1 
1 
1 
1 
1 
1 
1 
1 
1 
1 
1 
1 
1 
1 
1 
1 
1 
1 
1 
1 
1 
1 
1 
1 
1 
1 
1 
1 
1 
1 
1 
1 
1 
1 
1 
1 
1 
1 
1 
1 
1 
1 
1 
1 
1 
1 
1 
1 
1 
1 
1 
1 
1 
1 
1 
1 
1 
1 
1 
1 
1 
1 
1 
1 
1 
1 
1 
1 
1 
1 
1 
1 
1 
1 
1 
1 
1 
1 
1 
1 
1 
1 
1 
1 
1 
1 
1 
1 
1 
1 
1 
1 
1 
1 
1 
1 
1 
1 
1 
1 
1 
1 
1 
1 
1 
1 
1 
1 
1 
1 
1 
1 
1 
1 
1 
1 
1 
1 
1 
1 
1 
1 
1 
1 
1 
1 
1 
1 
1 
1 
1 
1 
1 
1 
1 
1 
1 
1 
1 
1 
1 
1 
1 
1 
1 
1 
1 
1 
1 
1 
1 
1 
1 
1 
1 
1 
1 
1 
1 
1 
1 
1 
1 
1 
1 
1 
1 
1 
1 
1 
1 
1 
1 
1 
1 
1 
1 
1 
1 
1 
1 
1 
1 
1 
1 
1 
1 
1 
1 
1 
1 
1 
1 
1 
1 
1 
1 
1 
1 
1 
1 
1 
1 
1 
1 
1 
1 
1 
1 
1 
1 
1 
1 
1 
1 
1 
1 
1 
1 
1 
1 
1 
1 
1 
1 
1 
1 
1 
1 
1 
1 
1 
1 
1 
1 
1 
1 
1 
1 
1 
1 
1 
1 
1 
1 
1 
1 
1 
1 
1 
1 
1 
1 
1 
1 
1 
1 
1 
1 
1 
1 
1 
1 
1 
1 
1 
1 
1 
1 
1 
1 
1 
1 
1 
1 
1 
1 
1 
1 
1 
1 
1 
1 
1 
1 
1 
1 
1 
1 
1 
1 
1 
1 
1 
1 
1 
1 
1 
1 
1 
1 
1 
1 
1 
1 
1 
1 
1 
1 
1 
1 
1 
1 
1 
1 
1 
1 
1 
1 
1 
1 
1 
1 
1 
1 
1 
1 
1 
1 
1 
1 
1 
1 
1 
1 
1 
1 
1 
1 
1 
1 
1 
1 
1 
1 
1 
1 
1 
1 
1 
1 
1 
1 
1 
1 
1 
1 
1 
1 
1 
1 
1 
1 
1 
1 
1 
1 
1 
1 
1 
1 
1 
1 
1 
1 
1 
1 
1 
1 
1 
1 
1 
1 
1 
1 
1 
1 
1 
1 
1 
1 
1 
1 
1 
1 
1 
1 
1 
1 
1 
1 
1 
1 
1 
1 
1 
1 
1 
1 
1 
1 
1 
1 
1 
1 
1 
1 
1 
1 
1 
1 
1 
1 
1 
1 
1 
1 
1 
1 
1 
1 
1 
1 
1 
1 
1 
1 
1 
1 
1 
1 
1 
1 
1 
1 
1 
1 
1 
1 
1 
1 
1 
1 
1 
1 
1 
1 
1 
1 
1 
1 
1 
1 
1 
1 
1 
1 
1 
1 
1 
1 
1 
1 
1 
1 
1 
1 
1 
1 
1 
1 
1 
1 
1 
1 
1 
1 
1 
1 
1 
1 
1 
1 
1 
1 
1 
1 
1 
1 
1 
1 
1 
1 
1 
1 
1 
1 
1 
1 
1 
1 
1 
1 
1 
1 
1 
1 
1 
1 
1 
1 
1 
1 
1 
1 
1 
1 
1 
1 
1 
1 
1 
1 
1 
1 
1 
1 
1 
1 
1 
1 
1 
1 
1 
1 
1 
1 
1 
1 
1 
1 
1 
1 
1 
1 
1 
1 
1 
1 
1 
1 
1 
1 
1 
1 
1 
1 
1 
1 
1 
1 
1 
1 
1 
1 
1 
1 
1 
1 
1 
1 
1 
1 
1 
1 
1 
1 
1 
1 
1 
1 
1 
1 
1 
1 
1 
1 
1 
1 
1 
1 
1 
1 
1 
1 
1 
1 
1 
1 
1 
1 
1 
1 
1 
1 
1 
1 
1 
1 
1 
1 
1 
1 
1 
1 
1 
1 
1 
1 
1 
1 
1 
1 
1 
1 
1 
1 
1 
1 
1 
1 
1 
1 
1 
1 
1 
1 
1 
1 
1 
1 
1 
1 
1 
1 
1 
1 
1 
1 
1 
1 
1 
1 
1 
1 
1 
1 
1 
1 
1 
1 
1 
1 
1 
1 
1 
1 
1 
1 
1 
1 
1 
1 
1 
1 
1 
1 
1 
1 
1 
1 
1 
1 
1 
1 
1 
1 
1 
1 
1 
1 
1 
1 
1 
1 
1 
1 
1 
1 
1 
1 
1 
1 
1 
1 
1 
1 
1 
1 
1 
1 
1 
1 
1 
1 
1 
1 
1 
1 
1 
1 
1 
1 
1 
1 
1 
1 
1 
1 
1 
1 
1 
1 
1 
1 
1 
1 
1 
1 
1 
1 
1 
1 
1 
POINT_DATA 5000
VECTORS Stress float
-1046.78 -2377.87 0.
-3431.52 -4906.57 0.
-404.936 -818.766 0.
-73.6735 -203.102 0.
-3030.77 -5427.44 0.
-1135.63 -2070.77 0.
-3756.41 -5395.25 0.
-88.1605 -181.2 0.
-138.384 -287.381 0.
-4058.14 -6283.92 0.
-1506.43 -2510.94 0.
-146.528 -225.3 0.
-1961.64 -2998.99 0.
-1596.75 -2555.73 0.
-1419.87 -2375.24 0.
-1124.77 -2013.4 0.
-830.221 -1651.02 0.
-836.887 -1702.57 0.
-661.998 -1423.67 0.
-489.753 -1142.12 0.
-538.193 -1104.73 0.
-501.533 -1047.54 0.
-464.881 -990.345 0.
-493.54 -999.265 0.
-477.685 -1016.34 0.
-464.808 -1030.43 0.
-551.77 -1142.06 0.
-579.154 -1189.21 0.
-528.763 -1143.44 0.
-495.372 -1090.79 0.
-462.642 -1037.48 0.
-451.249 -1009.48 0.
-429.354 -968.185 0.
-407.609 -926.743 0.
-420.999 -933.664 0.
-429.141 -978.02 0.
-443.407 -1016.25 0.
-477.791 -1056.79 0.
-481.884 -1066.34 0.
-430.517 -1028.93 0.
-403.818 -980.707 0.
-382.897 -926.707 0.
-394.972 -910.698 0.
-388.141 -899.826 0.
-382.224 -888.04 0.
-376.831 -874.57 0.
-370.537 -859.881 0.
-364.243 -845.192 0.
-324.778 -859.589 0.
-347.671 -915.957 0.
-371.449 -971.437 0.
-409.916 -956.129 0.
-393.223 -917.184 0.
-373.227 -887.062 0.
-380.762 -904.647 0.
-388.298 -922.231 0.
-406.525 -937.062 0.
-406.378 -933.451 0.
-407.813 -928.259 0.
-404.822 -938.238 0.
-424.215 -991.247 0.
-449.175 -1038.69 0.
-497.911 -1086.88 0.
-498.354 -1087.92 0.
-449.066 -1047 0.
-441.008 -1014.09 0.
-437.646 -976.481 0.
-433.291 -974.841 0.
-448.361 -1007.79 0.
-465.978 -1038.2 0.
-472.27 -1052.88 0.
-499.723 -1092.89 0.
-527.911 -1132.16 0.
-584.644 -1201.1 0.
-571.124 -1186.79 0.
-549.039 -1168.11 0.
-503.951 -1068.75 0.
-514.055 -1034.82 0.
-477.353 -1027.4 0.
-552.014 -1173.42 0.
-626.728 -1319.39 0.
-555.158 -1357.08 0.
-867.373 -1914.18 0.
-1186.56 -2464.3 0.
-1197.02 -2057.33 0.
-1362.01 -1908.44 0.
-1503.92 -1782.61 0.
-1693.36 -2742.58 0.
-2564.05 -4344.84 0.
-121.164 -271.148 0.
-962.945 -1757.51 0.
-4694.31 -7257.09 0.
-392.404 -636.717 0.
-565.854 -685.336 0.
-3281.92 -3912.91 0.
1.25012 1.89941 0.
-3680.92 -5534.29 0.
-26.8067 -60.9066 0.
-3438.51 -4811.69 0.
-1185.58 -1649.14 0.
-3522.31 -7771.98 0.
-0.0800737 -19.8259 0.
0.58529 1.17966 0.
2.51967 6.65494 0.
-743.543 -1779.18 0.
-119.404 -213.828 0.
-127.399 -118.312 0.
-138.698 -197.111 0.
-201.464 -310.976 0.
-135.644 -269.355 0.
-146.911 -194.589 0.
-302.239 -316.985 0.
-804.957 -1257.89 0.
-497.861 -755.601 0.
-579.792 -1196.85 0.
-344.67 -774.348 0.
-145.927 -315.463 0.
-553.179 -1244.27 0.
-404.675 -938.81 0.
-279.977 -609.541 0.
-426.107 -1015.6 0.
-389.339 -958.511 0.
-354.816 -899.173 0.
-477.314 -919.843 0.
-460.329 -938.047 0.
-444.23 -955.359 0.
-646.752 -1200.08 0.
-669.111 -1252.25 0.
-498.214 -1065.19 0.
-462.225 -1015.13 0.
-428.167 -963.144 0.
-437.27 -985.108 0.
-414.974 -944.216 0.
-400.878 -895.124 0.
-426.582 -893.237 0.
-432.752 -939.566 0.
-442.611 -982.206 0.
-544.114 -1085.19 0.
-548.212 -1094.73 0.
-396.234 -962.25 0.
-368.325 -915.234 0.
-343.327 -865.307 0.
-399.888 -907.516 0.
-391.834 -897.868 0.
-384.05 -887.95 0.
-388.723 -871.343 0.
-379.085 -859.999 0.
-370.334 -847.767 0.
-295.158 -730.956 0.
-309.444 -795.939 0.
-329.096 -855.544 0.
-409.303 -955.835 0.
-392.608 -916.893 0.
-367.104 -872.682 0.
-378.142 -886.764 0.
-389.994 -900.032 0.
-413.766 -939.261 0.
-415.678 -933.593 0.
-417.889 -927.624 0.
-396.341 -885.824 0.
-417.986 -936.583 0.
-445.964 -981.01 0.
-578.04 -1121.19 0.
-578.48 -1122.23 0.
-428.319 -1000.78 0.
-421.818 -966.315 0.
-420.042 -927.123 0.
-420.078 -937.455 0.
-428.878 -976.678 0.
-443.409 -1010.17 0.
-435.138 -969.465 0.
-465.632 -1006.43 0.
-497.038 -1042.48 0.
-655.76 -1261.49 0.
-647.033 -1242.39 0.
-406.505 -1020.34 0.
-467.503 -977.081 0.
-478.566 -942.185 0.
-361.573 -866.03 0.
-436.727 -1011.59 0.
-515.189 -1153.84 0.
-168.497 -373.032 0.
-389.947 -1021.51 0.
-648.064 -1633.32 0.
-256.215 -253.329 0.
-260.832 -260.127 0.
-244.748 -292.33 0.
-107.415 -111.163 0.
-590.478 -1467.77 0.
-98.1601 -99.1186 0.
-126.075 -206.98 0.
-174.397 -311.955 0.
-317.754 -295.572 0.
-160.435 -117.365 0.
-155.976 -104.338 0.
-0.726856 -4.04627 0.
-2.69969 -7.34836 0.
5.14605 11.1355 0.
2.3584 3.5738 0.
-738.069 -1283.5 0.
-260.515 -606.89 0.
-0.115424 -37.25 0.
3.12283 6.84415 0.
-0.0541358 -3.70728 0.
-300.468 -605.12 0.
-76.3319 -160.129 0.
-136.291 -116.683 0.
-191.135 -214.702 0.
-280.551 -344.416 0.
-158.923 -269.752 0.
-167.194 -199.933 0.
-581.144 -456.074 0.
-264.48 -215.188 0.
-209.923 -162.308 0.
-91.2621 -117.972 0.
-9.05994 -12.6193 0.
-7.7405 -9.03257 0.
-350.773 -704.676 0.
-233.927 -367.378 0.
-91.8606 -57.7645 0.
-372.686 -867.806 0.
-342.562 -804.06 0.
-316.039 -736.713 0.
-467.049 -834.458 0.
-450.08 -852.648 0.
-433.558 -870.38 0.
-753.859 -1245.97 0.
-776.216 -1298.14 0.
-486.519 -968.077 0.
-451.626 -916.921 0.
-417.648 -864.849 0.
-427.676 -956.355 0.
-411.556 -909.284 0.
-397.28 -860.371 0.
-439.706 -845.268 0.
-445.032 -892.442 0.
-451.236 -938.738 0.
-610.438 -1113.59 0.
-614.539 -1123.12 0.
-369.14 -888.381 0.
-341.652 -840.94 0.
-315.255 -792.408 0.
-418.504 -890.633 0.
-410.46 -880.977 0.
-402.682 -871.055 0.
-415.102 -853.63 0.
-405.159 -842.59 0.
-395.661 -831.106 0.
-267.013 -600.848 0.
-279.464 -667.673 0.
-1258.44 -1280.5 0.
-408.691 -955.541 0.
-392.188 -916.406 0.
-385.188 -834.097 0.
-396.047 -848.357 0.
-407.76 -861.763 0.
-440.645 -921.823 0.
-441.592 -917.119 0.
-443.552 -911.402 0.
-401.395 -819.872 0.
-425.447 -868.228 0.
-452.063 -914.02 0.
-658.168 -1155.5 0.
-658.606 -1156.54 0.
-421.537 -940.606 0.
-419.807 -901.365 0.
-419.126 -861.075 0.
-410.191 -896.742 0.
-419.763 -935.195 0.
-428.861 -974.122 0.
-420.169 -863.884 0.
-449.414 -902.102 0.
-479.571 -939.408 0.
-747.937 -1300.82 0.
-739.09 -1281.83 0.
-380.756 -852.988 0.
-435.218 -881.245 0.
-445.294 -847.337 0.
-327.859 -622.592 0.
-372.7 -798.497 0.
-431.327 -960.617 0.
-51.1696 -88.6725 0.
-44.3897 -68.3953 0.
-263.945 -647.968 0.
-342.455 -303.851 0.
-111.769 -140.738 0.
-95.9524 -120.973 0.
-108.12 -90.007 0.
-106.848 -110.561 0.
-87.4105 -88.3385 0.
-76.83 -79.7071 0.
-139.921 -155.752 0.
-349.286 -201.96 0.
-119.219 -43.2637 0.
-77.9578 -28.8217 0.
-0.0309198 -0.239466 0.
-1.54804 -4.16754 0.
12.8428 26.3606 0.
-0.53435 -7.2987 0.
-3311.89 -6270.42 0.
-555.473 -1071.63 0.
-0.13589 -27.3493 0.
-2.08156 -22.708 0.
-3059.14 -5764.16 0.
-0.707412 -15.5058 0.
-2954.28 -5498.23 0.
0.00269551 1.87622 0.
-4293.57 -7484.56 0.
-0.93357 -2.53465 0.
-2964.99 -4313.53 0.
-57.439 -96.7326 0.
-37.1598 -83.9314 0.
-4486.9 -9273.54 0.
-107.297 -118.79 0.
-2431.36 -4229.61 0.
-1574.08 -2899.75 0.
-776.984 -1509.69 0.
-2207.06 -4446.8 0.
-1171.7 -2528.71 0.
-260.096 -486.855 0.
-1222.15 -2889.07 0.
-809.732 -2029.77 0.
-442.904 -1124.87 0.
-768.198 -1793.11 0.
-647.321 -1537.5 0.
-532.61 -1275.73 0.
-956.243 -1824.79 0.
-940.153 -1787.26 0.
-639.684 -1409.32 0.
-615.311 -1358.85 0.
-591.004 -1308.31 0.
-645.245 -1366.54 0.
-628.498 -1370.42 0.
-612.926 -1373.13 0.
-648.494 -1330.32 0.
-640.438 -1353.34 0.
-633.234 -1375.5 0.
-830.761 -1589.43 0.
-823.991 -1573.67 0.
-554.762 -1315.2 0.
-536.268 -1280.99 0.
-517.968 -1246.58 0.
-607.042 -1306.2 0.
-591.884 -1291.3 0.
-577.853 -1275.28 0.
-602.877 -1264.37 0.
-598.609 -1272.88 0.
-595.519 -1280.22 0.
-420.787 -979.753 0.
-417.121 -991.747 0.
-1694.75 -1766.23 0.
-522.421 -1260.8 0.
-519.985 -1228.9 0.
-553.437 -1211.39 0.
-566.915 -1231.52 0.
-582.023 -1250.02 0.
-609.964 -1306.9 0.
-629.669 -1336.31 0.
-650.375 -1364.72 0.
-606.883 -1322.3 0.
-622.817 -1352.65 0.
-638.916 -1382.84 0.
-860.338 -1618.42 0.
-861.327 -1620.72 0.
-609.593 -1364.11 0.
-620.54 -1341.16 0.
-632.683 -1317.02 0.
-607.284 -1376.31 0.
-626.761 -1384.61 0.
-647.009 -1392.14 0.
-600.174 -1346.66 0.
-647.422 -1444.27 0.
-694.769 -1541.78 0.
-923.501 -1938.61 0.
-946.66 -1992.68 0.
-487.96 -1207.82 0.
-711.334 -1727.25 0.
-929.537 -2186.16 0.
-424.353 -1040.02 0.
-971.858 -2316.16 0.
-1587.32 -3524.34 0.
-196.82 -411.015 0.
-1364.74 -3148.35 0.
-2672.38 -5745.94 0.
-567.931 -892.461 0.
-1367.24 -1976.7 0.
-2209.82 -3017.65 0.
-100.801 -217.586 0.
-4490.25 -8988.24 0.
0.41898 0.0598338 0.
-148.559 -207.244 0.
-4409.13 -8241.63 0.
-6.46059 -6.98291 0.
-3323.12 -4539.23 0.
4.18422 9.92402 0.
-3477.34 -6604.28 0.
-10.4525 -21.7356 0.
-3210.08 -6373.74 0.
9.21013 20.8794 0.
12.24 26.9483 0.
-655.822 -1418.07 0.
-0.847418 -35.8582 0.
-351.407 -802.635 0.
-833.243 -1598.25 0.
-0.5929 -10.0836 0.
-0.370673 -9.01172 0.
0.00565054 5.31081 0.
-0.052388 -0.307403 0.
0.618209 1.59205 0.
-196.237 -474.234 0.
-13.7696 -36.8941 0.
-24.5343 -63.2714 0.
-124.552 -131.785 0.
-130.514 -128.754 0.
-153.44 -160.516 0.
-77.8006 -119.473 0.
-76.5134 -131.828 0.
-289.699 -553.723 0.
-56.5127 -66.8294 0.
-69.3515 -65.448 0.
-666.457 -1657.86 0.
-317.798 -733.619 0.
-7.13996 -2.92248 0.
-612.217 -1462.97 0.
-511.357 -1187.25 0.
-418.686 -903.346 0.
-900.006 -1800.74 0.
-883.913 -1763.21 0.
-634.454 -1373.43 0.
-607.806 -1325.23 0.
-581.424 -1276.77 0.
-657.459 -1295.35 0.
-640.907 -1299.04 0.
-625.234 -1301.85 0.
-631.487 -1261.94 0.
-622.634 -1285.75 0.
-614.611 -1308.74 0.
-850.778 -1597.98 0.
-844.007 -1582.23 0.
-584.265 -1296.43 0.
-566.812 -1261.18 0.
-549.566 -1225.73 0.
-616.327 -1243.83 0.
-601.809 -1228.3 0.
-588.405 -1211.66 0.
-616.401 -1208.3 0.
-611.658 -1217.29 0.
-608.165 -1225.03 0.
-410.261 -881.341 0.
-407.2 -892.73 0.
-2168.18 -1962.61 0.
-542.567 -1138.48 0.
-541.003 -1105.7 0.
-577.284 -1172.01 0.
-591.012 -1191.89 0.
-605.439 -1211.08 0.
-619.388 -1245.52 0.
-639.018 -1275.01 0.
-659.619 -1303.53 0.
-629.831 -1295.17 0.
-645.659 -1325.64 0.
-661.652 -1355.93 0.
-864.871 -1620.34 0.
-865.856 -1622.64 0.
-620.199 -1299.81 0.
-632.303 -1275.7 0.
-645.425 -1250.58 0.
-619.292 -1305.12 0.
-637.416 -1314.77 0.
-658.712 -1321.25 0.
-576.456 -1303.98 0.
-624.072 -1401.23 0.
-671.987 -1498.18 0.
-836.596 -1854.78 0.
-874.791 -1893.82 0.
-357.266 -658.076 0.
-504.1 -1160.64 0.
-691.174 -1650.97 0.
-65.881 -113.614 0.
-127.805 -174.253 0.
-646.528 -1482.01 0.
-106.958 -204.33 0.
-121.562 -232.278 0.
-295.442 -646.306 0.
-126.608 -269.125 0.
-40.0079 -76.2694 0.
-24.9811 -47.8514 0.
-0.34417 -1.10747 0.
-151.984 -335.212 0.
0.638899 1.79043 0.
0.387897 1.47945 0.
0.0485836 0.13938 0.
-3.35104 -6.86536 0.
4.30829 5.51963 0.
-0.0717573 -2.27464 0.
-380.889 -882.462 0.
-14.0661 -30.4063 0.
16.8557 40.8358 0.
4.18215 9.01502 0.
-1634.76 -3201.67 0.
-22.6473 -112.863 0.
-593.542 -1337.85 0.
-3169.85 -7039.58 0.
17.8906 45.6638 0.
10.5993 25.0343 0.
4.05334 10.6245 0.
-0.00621594 -6.18515 0.
-2921.3 -5006.44 0.
-44.6951 -84.8059 0.
-3690.05 -6717.04 0.
-193.339 -460.836 0.
-30.5246 -73.5863 0.
-3967.99 -9723.97 0.
-36.8081 -13.2985 0.
-2826.82 -4642.75 0.
-961.05 -1566 0.
-53.1144 -22.0071 0.
-3018.45 -6586.29 0.
-1114.11 -2442.04 0.
-66.8232 -39.4805 0.
-2073.57 -4513.63 0.
-1034.1 -2401.15 0.
-127.259 -156.044 0.
-1187.43 -2636.19 0.
-760.901 -1722.8 0.
-361.509 -782.272 0.
-952.383 -1858.15 0.
-808.509 -1613.1 0.
-557.079 -1195.7 0.
-487.024 -1061.71 0.
-417.83 -926.859 0.
-500.309 -915.738 0.
-492.063 -916.221 0.
-484.306 -916.215 0.
-444.23 -870.201 0.
-416.826 -816.62 0.
-389.578 -762.883 0.
-664.656 -1118.55 0.
-659.459 -1106.42 0.
-423.435 -776.552 0.
-433.265 -808.036 0.
-443.231 -839.383 0.
-496.898 -881.428 0.
-488.671 -869.752 0.
-481.059 -857.462 0.
-517.87 -877.956 0.
-525.528 -895.18 0.
-533.452 -912.138 0.
-287.406 -507.624 0.
-263.473 -450.167 0.
-2027.62 -1546.98 0.
-408.982 -701.366 0.
-427.149 -749.29 0.
-496.964 -898.791 0.
-482.819 -864.868 0.
-480.765 -818.854 0.
-474.881 -793.661 0.
-485.373 -812.969 0.
-496.077 -832.064 0.
-467.256 -821.761 0.
-472.311 -827.487 0.
-477.389 -833.189 0.
-677.645 -1165.51 0.
-691.07 -1196.81 0.
-451.278 -838.795 0.
-474.406 -882.507 0.
-497.664 -926.089 0.
-491.861 -961.53 0.
-513.371 -990.833 0.
-535.061 -1019.95 0.
-442.183 -1004.36 0.
-547.149 -1214.08 0.
-652.195 -1423.73 0.
-855.573 -1810.79 0.
-1060.18 -2145.74 0.
-320.121 -611.527 0.
-863.244 -1930 0.
-1444.22 -3178.78 0.
-41.4261 -86.356 0.
-1005.42 -2462.75 0.
-2489.85 -5743.95 0.
-207.47 -338.101 0.
-772.777 -1249.94 0.
-2612.24 -4555.62 0.
-160.71 -381.633 0.
-4088.1 -8702.18 0.
-90.6599 -196.13 0.
-79.0401 -157.733 0.
-3326.62 -6008.58 0.
-7.02789 -17.7483 0.
-3154.97 -6795.98 0.
-1.86138 -4.0885 0.
-2630.19 -6000.27 0.
-0.0150485 -5.82973 0.
-0.390773 -21.0394 0.
-2.09304 -36.9202 0.
-79.4414 -175.411 0.
-2.63877 -6.22895 0.
2.27406 5.89137 0.
-19.2434 -108.145 0.
-3343.84 -5812.6 0.
-1847.52 -4196.09 0.
24.2526 60.3845 0.
8.31064 21.1836 0.
0.0699481 0.868656 0.
15.7718 40.3772 0.
-3418.81 -8277.76 0.
-0.0885282 -14.5775 0.
-1.33133 -9.4191 0.
1.27008 3.27421 0.
-89.55 -245.326 0.
0.129797 1.70125 0.
-39.6521 -18.5199 0.
-0.749077 -0.00199491 0.
0.750889 0.318316 0.
-0.40687 -0.290811 0.
-39.6555 -21.3351 0.
-154.635 -279.314 0.
-13.0662 -9.37856 0.
-36.6801 -15.8081 0.
-484.969 -1004.56 0.
-42.3374 -20.4985 0.
-25.3829 -25.2884 0.
-664.681 -1595.16 0.
-301.053 -617.78 0.
-42.7564 -15.8506 0.
-679.474 -1413.41 0.
-552.28 -1151.54 0.
-478.244 -1045.35 0.
-417.932 -901.598 0.
-360.553 -754.911 0.
-454.773 -844.657 0.
-448.838 -842.833 0.
-441.093 -842.818 0.
-423.365 -821.115 0.
-393.78 -769.716 0.
-366.424 -716.088 0.
-692.561 -1130.48 0.
-687.365 -1118.36 0.
-430.379 -756.488 0.
-440.116 -788.067 0.
-450.007 -819.492 0.
-494.641 -823.663 0.
-486.894 -811.515 0.
-479.788 -798.726 0.
-508.452 -850.457 0.
-516.387 -867.411 0.
-524.51 -884.177 0.
-282.844 -454.932 0.
-259.411 -396.976 0.
-1658.35 -1383.63 0.
-384.881 -671.162 0.
-403.009 -719.128 0.
-504.219 -863.209 0.
-489.701 -829.66 0.
-475.594 -795.701 0.
-474.215 -751.344 0.
-484.93 -770.427 0.
-496.815 -788.34 0.
-449.444 -807.079 0.
-455.079 -812.224 0.
-460.84 -817.244 0.
-692.484 -1171.85 0.
-705.905 -1203.15 0.
-428.11 -792.044 0.
-451.162 -835.832 0.
-479.632 -874.202 0.
-412.678 -857.3 0.
-434.113 -886.678 0.
-455.293 -916.313 0.
-325.371 -714.361 0.
-407.309 -947.18 0.
-496.257 -1172.99 0.
-547.234 -1153.16 0.
-722.966 -1517.25 0.
-63.1027 -104.895 0.
-223.119 -351.703 0.
-726.5 -1680.19 0.
-34.0842 -59.952 0.
-40.2355 -95.0318 0.
-302.595 -706.775 0.
-66.121 -147.059 0.
-84.0218 -156.208 0.
-87.0206 -188.166 0.
-0.167673 -0.418439 0.
-133.926 -368.879 0.
-0.253127 -3.82151 0.
1.4828 3.31108 0.
-27.671 -58.8779 0.
2.07455 5.45606 0.
-4.25399 -10.4585 0.
1.97266 4.89628 0.
-131.728 -315.087 0.
-0.00190734 -21.3773 0.
-1819.44 -4597.91 0.
2.5367 6.28378 0.
17.4323 45.7703 0.
-1899.54 -4425.95 0.
20.5836 54.1519 0.
24.0187 46.8463 0.
69.1211 142.096 0.
30.3624 75.9812 0.
21.4758 53.6608 0.
3.70169 9.40095 0.
-2317.38 -6015.12 0.
-0.926825 -37.5771 0.
-735.992 -1892.28 0.
12.2659 33.9224 0.
3.20924 7.10636 0.
-0.415716 -17.0451 0.
-47.0358 -127.252 0.
-0.541202 -3.33573 0.
-0.718025 -0.0393517 0.
-1.02503 -0.00678024 0.
-0.681378 -0.040655 0.
-0.418256 -0.195791 0.
-30.7857 -23.8188 0.
-53.3514 -57.4746 0.
-8.84016 -5.92055 0.
-12.9314 -6.24784 0.
-111.25 -42.7262 0.
-84.8657 -35.4756 0.
-64.7897 -41.0518 0.
-248.46 -447.608 0.
-35.6319 -13.4159 0.
-48.6383 -18.5539 0.
-455.431 -919.816 0.
-345.565 -640.471 0.
-423.319 -871.095 0.
-369.2 -721.127 0.
-316.498 -569.742 0.
-414.871 -767.944 0.
-406.703 -768.355 0.
-399.206 -768.096 0.
-410.547 -763.983 0.
-380.544 -713.001 0.
-350.783 -661.779 0.
-720.467 -1142.41 0.
-715.271 -1130.29 0.
-437.968 -735.78 0.
-447.604 -767.463 0.
-457.399 -798.986 0.
-493.121 -765.161 0.
-485.925 -752.469 0.
-479.045 -739.461 0.
-504.038 -817.953 0.
-512.03 -834.858 0.
-520.109 -851.675 0.
-278.621 -401.902 0.
-255.529 -343.604 0.
-1745.19 -1433.35 0.
-361.309 -640.428 0.
-379.202 -688.633 0.
-511.738 -827.362 0.
-497.027 -794.009 0.
-482.501 -760.47 0.
-479.744 -702.832 0.
-490.404 -721.969 0.
-501.518 -740.652 0.
-444.574 -779.455 0.
-450.334 -784.475 0.
-456.249 -789.341 0.
-707.322 -1178.18 0.
-720.739 -1209.49 0.
-413.595 -736.64 0.
-441.871 -775.205 0.
-470.278 -813.639 0.
-346.487 -740.078 0.
-368.879 -768.501 0.
-390.202 -797.993 0.
-228.602 -404.32 0.
-305.313 -642.434 0.
-385.111 -877.462 0.
-303.956 -430.473 0.
-455.367 -819.156 0.
-73.1942 -127.414 0.
-63.3782 -120.828 0.
-89.378 -154.239 0.
-38.5092 -41.9773 0.
-47.9993 -73.4765 0.
-64.173 -130.026 0.
-76.3685 -150.141 0.
-91.2679 -163.475 0.
-95.2455 -200.831 0.
1.06557 1.69272 0.
0.175835 0.376566 0.
-0.0626123 -2.26032 0.
0.535075 1.30454 0.
1.75596 4.04116 0.
1.03507 2.78092 0.
2.58998 6.58877 0.
-0.696031 -1.84571 0.
-144.413 -366.276 0.
7.42952 20.4673 0.
-264.629 -692.906 0.
-1103.17 -2712.43 0.
2.4792 6.44128 0.
4.99658 13.1977 0.
-362.356 -963.76 0.
-2078.92 -4034 0.
2.12836 4.40388 0.
40.3773 100.489 0.
-17.623 -44.1436 0.
-2.97237 -7.52194 0.
-0.017019 -70.9001 0.
6.95465 18.4755 0.
-311.846 -822.576 0.
1.57457e-06 0.437331 0.
4.38513 10.0059 0.
7.34613 17.3081 0.
-2967.28 -6655.04 0.
0.172951 0.45729 0.
-2747.03 -6490.21 0.
-60.4909 -127.288 0.
-38.5831 -92.7891 0.
-4156.34 -9210.91 0.
-0.0111343 -0.298543 0.
-2788.81 -5330.72 0.
-267.195 -482.591 0.
-1.94343 -1.05445 0.
-3206.65 -7629.99 0.
-364.022 -724.626 0.
-87.218 -51.424 0.
-2008.95 -4800.06 0.
-796.002 -1959.38 0.
-49.063 -39.4582 0.
-1311.4 -2985.11 0.
-864.723 -2053.73 0.
-956.937 -2185.56 0.
-715.531 -1658.87 0.
-491.405 -1114.9 0.
-670.644 -1467.63 0.
-574.706 -1291.06 0.
-479.574 -1113.68 0.
-585.906 -1180.4 0.
-552.915 -1139.69 0.
-520.796 -1098.1 0.
-909.559 -1645.85 0.
-906.57 -1638.89 0.
-608.21 -1211.55 0.
-586.56 -1169.57 0.
-565.509 -1126.98 0.
-569.061 -1096.98 0.
-578.696 -1123.61 0.
-588.656 -1149.92 0.
-638.772 -1205.48 0.
-624.085 -1185.68 0.
-614.874 -1160.4 0.
-416.582 -803.249 0.
-421.423 -810.916 0.
-1724.7 -1845.08 0.
-540.697 -1094.12 0.
-544.801 -1096.15 0.
-618.535 -1201.02 0.
-615.38 -1191.64 0.
-622.433 -1172.05 0.
-616.727 -1137.17 0.
-616.923 -1134.49 0.
-617.256 -1131.67 0.
-571.941 -1150.41 0.
-589.41 -1183.46 0.
-608.735 -1214.65 0.
-869.863 -1629.92 0.
-884.033 -1662.96 0.
-547.605 -1112.5 0.
-611.002 -1221.59 0.
-675.624 -1329.46 0.
-456.322 -1161.8 0.
-577.191 -1426.18 0.
-705.151 -1683.47 0.
-432.604 -1075.07 0.
-725.572 -1838.01 0.
-1055.68 -2563.8 0.
-974.028 -2205.45 0.
-1611.24 -3650.72 0.
-89.6036 -169.044 0.
-758.345 -1792.02 0.
-2404.48 -5623.42 0.
-75.3484 -115.329 0.
-140.417 -194.848 0.
-3523.41 -8639.37 0.
-25.4972 -43.1462 0.
-135.245 -371.552 0.
-3298.82 -5990.89 0.
0.57851 1.4666 0.
-3529.43 -8872.84 0.
0.0979319 3.25789 0.
0.331453 2.77313 0.
-2535.61 -5688.7 0.
-523.855 -1073.42 0.
-1919.57 -3429.58 0.
5.75809 15.7176 0.
-154.659 -406.882 0.
-0.0378724 -5.74466 0.
12.4927 33.2636 0.
-1551.27 -3874.34 0.
38.3708 98.7298 0.
9.28636 24.8249 0.
3.28026 8.48246 0.
120.96 321.04 0.
-151.11 -316.28 0.
26.9584 66.794 0.
-207.975 -522.156 0.
38.002 105.003 0.
24.6287 68.1397 0.
-10.1878 -27.3667 0.
4.72664 12.8778 0.
-96.1083 -263.13 0.
-3437.16 -8161.59 0.
-0.491761 -16.7913 0.
4.11123 8.78656 0.
1.93301 4.97266 0.
-111.326 -230.048 0.
-24.3997 -56.195 0.
-10.03 -25.6897 0.
0.189698 0.520685 0.
-0.0216468 -0.66797 0.
-77.7879 -156.753 0.
-0.678149 -0.305888 0.
-4.99501 -2.34783 0.
-83.3185 -97.4031 0.
-48.1813 -20.1817 0.
-57.0443 -39.1691 0.
-522.878 -1194.6 0.
-61.1021 -51.718 0.
-44.8039 -31.0162 0.
-753.357 -1682.11 0.
-358.827 -697.252 0.
-625.804 -1467.99 0.
-415.607 -909.672 0.
-222 -334.768 0.
-521.224 -1239.56 0.
-437.534 -1050.68 0.
-364.388 -851.266 0.
-558.705 -1081.53 0.
-526.483 -1040.05 0.
-495.035 -997.797 0.
-876.331 -1631.57 0.
-873.342 -1624.62 0.
-589.403 -1133.75 0.
-567.932 -1091.59 0.
-547.025 -1048.86 0.
-546.038 -1047.38 0.
-555.227 -1074.46 0.
-564.73 -1101.24 0.
-616.613 -1164.69 0.
-607.414 -1139.4 0.
-598.408 -1113.92 0.
-441.888 -791.661 0.
-447.263 -798.794 0.
-1565.01 -1774.11 0.
-546.845 -1067.43 0.
-550.974 -1069.44 0.
-598.16 -1146.45 0.
-594.791 -1137.29 0.
-591.822 -1127.72 0.
-600.036 -1093.82 0.
-598.884 -1092.49 0.
-598.935 -1089.96 0.
-569.731 -1067.74 0.
-587.941 -1100.05 0.
-607.028 -1131.48 0.
-833.831 -1610.99 0.
-852.235 -1639.8 0.
-503.453 -980.255 0.
-565.849 -1090.36 0.
-629.417 -1199.3 0.
-311.949 -755.464 0.
-413.659 -1039.11 0.
-526.544 -1311.59 0.
-64.1146 -109.322 0.
-329.657 -791.664 0.
-620.676 -1557.34 0.
-189.602 -263.803 0.
-775.739 -1763.11 0.
-85.9111 -156.578 0.
-68.6786 -123.065 0.
-126.482 -191.118 0.
-124.342 -157.401 0.
-169.038 -198.998 0.
-243.969 -402.313 0.
-2.2679 -4.38208 0.
-26.6981 -63.914 0.
-82.3638 -211.449 0.
0.343103 0.941918 0.
-0.00105806 -1.78281 0.
0.100353 1.42266 0.
0.354481 3.07967 0.
0.0452123 8.48265 0.
-97.4629 -218.004 0.
-0.000246216 -0.427116 0.
-2055.42 -5203.57 0.
8.19667 21.9842 0.
-0.30498 -25.7691 0.
15.0173 40.2823 0.
29.3474 80.5386 0.
-104.821 -284.604 0.
-17.2411 -46.525 0.
-16.3736 -42.2843 0.
41.0976 109.944 0.
-165.491 -352.259 0.
-646.086 -1592.36 0.
-5.61471 -179.823 0.
-14.4079 -39.7351 0.
16.0605 44.4064 0.
-54.3946 -147.272 0.
-11.4085 -30.6509 0.
-60.192 -165.216 0.
1.44945 4.01087 0.
4.38518 11.8278 0.
-0.0825648 -20.312 0.
-0.220904 -5.24181 0.
3.41914 9.37713 0.
-3.33233 -8.1319 0.
-286.601 -697.841 0.
-2160.2 -5042.43 0.
1.04868 2.87224 0.
-2896.41 -6242.84 0.
-40.0989 -45.8149 0.
-38.5412 -41.2499 0.
-3186.97 -8358.14 0.
-73.2108 -147.107 0.
0.734213 0.0680938 0.
-2580.5 -5896.76 0.
-432.705 -912.613 0.
-85.1854 -86.994 0.
-1811.49 -4165.11 0.
-884.118 -1992.11 0.
-1161.61 -2609.49 0.
-731.637 -1666.55 0.
-329.929 -695.337 0.
-791.892 -1759.28 0.
-579.874 -1338.83 0.
-385.727 -900.52 0.
-608.701 -1173.76 0.
-480.609 -902.899 0.
-347.443 -637.107 0.
-707.845 -1316.36 0.
-683.305 -1272.18 0.
-440.502 -706.245 0.
-449.555 -733.931 0.
-458.819 -761.406 0.
-462.707 -804.78 0.
-441.442 -753.824 0.
-420.614 -702.432 0.
-464.174 -747.368 0.
-458.653 -727.619 0.
-453.388 -707.614 0.
-307.392 -444.289 0.
-302.537 -429.521 0.
-1348.15 -1316.09 0.
-415.79 -649.836 0.
-418.461 -664.615 0.
-427.445 -702.935 0.
-431.322 -720.633 0.
-435.267 -738.264 0.
-455.646 -726.587 0.
-473.096 -769.238 0.
-492.254 -810.181 0.
-466.883 -746.408 0.
-466.543 -741.37 0.
-466.665 -735.871 0.
-659.682 -1307.84 0.
-710.713 -1391.27 0.
-348.872 -662.319 0.
-511.039 -1001.63 0.
-670.973 -1343.16 0.
-328.939 -808.85 0.
-620.408 -1531.63 0.
-941.348 -2224.94 0.
-266.609 -571.147 0.
-739.961 -1723.12 0.
-1259.24 -2829.17 0.
-754.244 -1709.65 0.
-2027.9 -4807.35 0.
-67.3629 -107.965 0.
-51.1543 -74.428 0.
-2841.72 -7078.23 0.
-137.094 -281.511 0.
-75.601 -150.003 0.
-2421.54 -4777.07 0.
-12.5506 -22.04 0.
-3651.81 -9033.19 0.
0.00608276 2.53278 0.
-64.4595 -171.53 0.
-2301.36 -6260.03 0.
0.589789 8.20559 0.
-0.010983 -0.0813371 0.
0.151779 14.6273 0.
1.38316 19.6141 0.
0.0147769 22.2351 0.
-541.849 -1389.77 0.
-0.252193 -23.5832 0.
-879.511 -2364.64 0.
-0.942927 -81.983 0.
33.8272 93.2244 0.
-918.193 -2542.69 0.
33.2742 90.4462 0.
37.5759 96.9667 0.
-2.49588 -224.233 0.
84.7891 205.945 0.
-3.29428 -179.588 0.
72.6247 186.885 0.
-41.8265 -115.152 0.
-178.818 -494.279 0.
9.73341 26.818 0.
-106.82 -287.116 0.
-378.382 -1040.81 0.
-0.0307703 -42.0855 0.
-0.131495 -37.5607 0.
4.2659 11.7294 0.
-2794.02 -6667.77 0.
1.04819 2.6924 0.
-2786.13 -6765.36 0.
-0.031086 -1.1188 0.
-0.000278608 -2.89685 0.
-0.0329276 -3.82827 0.
-0.152813 -3.48756 0.
-16.6855 -29.472 0.
-20.2083 -25.4748 0.
-88.5905 -241.823 0.
-7.70878 -17.755 0.
0.251648 0.107654 0.
-82.081 -52.778 0.
-67.4444 -24.8317 0.
-88.3956 -57.7695 0.
-677.252 -1553.13 0.
-86.6151 -31.298 0.
-589.745 -1318.99 0.
-208.007 -326.475 0.
-66.4224 -26.2642 0.
-504.496 -1152.68 0.
-322.099 -702.325 0.
-170.686 -220.983 0.
-475.899 -986.494 0.
-352.003 -711.367 0.
-242.31 -433.286 0.
-634.21 -1222.5 0.
-601.243 -1186.74 0.
-397.482 -648.524 0.
-406.673 -676.076 0.
-415.95 -703.543 0.
-432.016 -747.417 0.
-411.353 -695.86 0.
-391.315 -643.677 0.
-425.187 -722.842 0.
-419.552 -703.207 0.
-414.105 -683.383 0.
-272.976 -522.848 0.
-270.502 -505.699 0.
-929.154 -1132.02 0.
-446.426 -671.515 0.
-448.951 -686.44 0.
-380.592 -667.949 0.
-384.455 -685.664 0.
-388.479 -703.217 0.
-404.536 -654.199 0.
-421.063 -697.778 0.
-438.666 -740.282 0.
-407.056 -665.859 0.
-406.567 -660.969 0.
-406.52 -655.635 0.
-575.973 -1193.21 0.
-630.74 -1272.91 0.
-183.808 -351.624 0.
-316.746 -719.126 0.
-464.391 -1073.08 0.
-55.7698 -67.8492 0.
-291.28 -659.555 0.
-564.203 -1401.52 0.
-71.1421 -106.849 0.
-41.2271 -59.8397 0.
-480.733 -994.586 0.
-83.7873 -50.7159 0.
-597.091 -1251.41 0.
-26.5416 -67.7557 0.
-17.7155 -40.7202 0.
-138.169 -330.35 0.
-41.4341 -46.4307 0.
-38.1452 -39.9431 0.
-68.0203 -119.493 0.
2.33736 0.561508 0.
-296.996 -818.047 0.
0.163189 1.52297 0.
-37.9582 -104.578 0.
-162.35 -446.779 0.
3.08768 7.81019 0.
-2736.05 -6415.69 0.
-0.827078 -22.0212 0.
-0.0142666 -0.211429 0.
0.0626791 22.2715 0.
-376.085 -995.075 0.
-0.435425 -53.4684 0.
-0.000139685 -84.2752 0.
0.48127 1.30281 0.
-2.54947 -7.0452 0.
-0.00482556 -115.484 0.
-1071.62 -2930.74 0.
-369.659 -955.633 0.
159.968 417.625 0.
0.343908 140.038 0.
-4.22191 -203.353 0.
-0.660532 -158.384 0.
-279.71 -768.974 0.
-1026.6 -2838.07 0.
20.2052 55.8588 0.
-396.508 -1066.19 0.
-879.38 -2421.59 0.
-0.0537094 -51.0709 0.
-1164.44 -3183.34 0.
1.19437 3.30359 0.
-8.77763 -21.5476 0.
8.29244 22.3408 0.
1.97865 4.7347 0.
0.0202759 1.65438 0.
0.760186 2.10429 0.
-0.0678745 -5.68099 0.
-0.137641 -3.07679 0.
-4.85283 -9.12181 0.
-5.3137 -7.0112 0.
-37.9881 -103.032 0.
-0.365126 -0.0860303 0.
0.213383 0.0216714 0.
-96.6934 -35.7213 0.
-102.237 -37.3691 0.
-127.23 -74.2604 0.
-109.207 -54.613 0.
-72.0515 -28.5916 0.
-56.9974 -25.0535 0.
-60.6722 -23.5687 0.
-68.2016 -24.727 0.
-270.592 -492.595 0.
-85.2273 -44.9121 0.
-97.3003 -67.2153 0.
-357.242 -785.079 0.
-247.869 -495.363 0.
-173.139 -286.504 0.
-569.399 -1119.82 0.
-537.539 -1082.95 0.
-352.427 -592.836 0.
-363.553 -618.458 0.
-373.696 -645.065 0.
-403.514 -687.865 0.
-384.148 -635.011 0.
-365.25 -581.689 0.
-388.329 -696.187 0.
-382.836 -676.41 0.
-377.382 -656.594 0.
-296.595 -543.372 0.
-291.626 -528.716 0.
-879.878 -1109.33 0.
-499.683 -670.574 0.
-502.03 -685.675 0.
-334.683 -632.019 0.
-338.611 -649.671 0.
-342.423 -667.437 0.
-362.13 -573.106 0.
-377.366 -617.983 0.
-392.905 -662.557 0.
-347.779 -584.76 0.
-346.933 -580.224 0.
-344.846 -576.93 0.
-503.742 -1067.1 0.
-556.439 -1148.88 0.
-88.6004 -95.0255 0.
-185.779 -373.3 0.
-312.254 -748.55 0.
-88.1511 -77.1111 0.
-94.7166 -87.7617 0.
-266.722 -498.426 0.
-101.676 -120.034 0.
-83.6342 -75.7052 0.
-67.5062 -48.5402 0.
-94.6095 -82.4345 0.
-104.219 -85.6206 0.
-9.52618 -24.5634 0.
-9.14356 -25.2839 0.
-28.0533 -67.6231 0.
-54.0803 -51.042 0.
-50.3499 -43.7304 0.
-52.1793 -50.8283 0.
0.108675 2.09996 0.
-43.9772 -117.662 0.
0.590165 3.28224 0.
-13.335 -34.3367 0.
-140.562 -387.808 0.
-0.325026 -14.3265 0.
2.35914 5.69297 0.
9.48529 25.0272 0.
-2445.57 -6015.39 0.
-309.708 -857.491 0.
19.6034 54.0221 0.
-0.252767 -41.3275 0.
2.65625 7.35276 0.
-1377.72 -3804.92 0.
17.3977 48.1547 0.
3.72149 10.3058 0.
-0.581512 -173.4 0.
-691.867 -1795.52 0.
-11.4872 -399.695 0.
80.644 220.617 0.
-3.93709 -168.697 0.
47.354 130.412 0.
-613.797 -1686.48 0.
16.5334 45.7934 0.
35.0936 97.1287 0.
-735.011 -1978.93 0.
7.1827 19.8516 0.
-264.415 -731.727 0.
-833.755 -2294.31 0.
-0.77017 -2.13322 0.
-0.732568 -21.7999 0.
-0.0183405 -4.98044 0.
-0.0557283 -1.24396 0.
-0.573426 -11.4229 0.
-2617.36 -6606.91 0.
-34.4409 -91.5103 0.
9.00221e-05 0.127461 0.
-3761 -9238.64 0.
0.730694 0.430211 0.
-2186.87 -4570.33 0.
0.263202 0.150289 0.
0.176847 0.352021 0.
-2822.43 -7041.81 0.
-95.4291 -45.3492 0.
-52.7396 -19.1023 0.
-2336.81 -5837.53 0.
-360.537 -709.969 0.
-1641.23 -3671.66 0.
-776.754 -1707.53 0.
-68.7858 -25.4897 0.
-1161.28 -2859.84 0.
-651.317 -1626.05 0.
-180.239 -353.378 0.
-793.589 -1949.37 0.
-555.261 -1378.88 0.
-343.755 -781.562 0.
-791.525 -1860.72 0.
-704.82 -1681.13 0.
-533.364 -1175.88 0.
-491.112 -1076.75 0.
-449.515 -976.963 0.
-497.76 -1006.83 0.
-492.13 -994.619 0.
-488.273 -980.638 0.
-518.852 -1078.79 0.
-490.143 -1002.69 0.
-461.754 -926.279 0.
-391.203 -862.734 0.
-388.953 -846.986 0.
-878.582 -1362.51 0.
-599.46 -995.132 0.
-610.106 -1021.3 0.
-454.819 -948.382 0.
-481.792 -1023.39 0.
-509.609 -1097.56 0.
-470.73 -984.23 0.
-471.065 -990.301 0.
-473.432 -994.34 0.
-409.093 -959.552 0.
-482.396 -1132.91 0.
-557.961 -1304.01 0.
-719.185 -1704.53 0.
-832.262 -1944.75 0.
-300.272 -625.056 0.
-604.928 -1497.46 0.
-940.154 -2339.3 0.
-95.1518 -81.9973 0.
-681.102 -1685.25 0.
-1328.69 -3271.64 0.
-76.3742 -40.2514 0.
-756.598 -1602.66 0.
-1946.61 -4329.77 0.
-32.9515 -65.5085 0.
-2602.32 -6297.15 0.
-67.5779 -164.862 0.
-82.7977 -188.666 0.
-2829.86 -7305.22 0.
-0.0184982 -0.0343611 0.
-68.0427 -188.457 0.
-2801.55 -6041.81 0.
-0.00721181 -2.85314 0.
-2225.58 -5876.12 0.
2.79308 7.33479 0.
-2589.4 -5922.85 0.
0.145304 3.22444 0.
-0.128466 -9.4654 0.
-0.790728 -17.4676 0.
7.72818 20.8255 0.
9.29086 25.515 0.
-355.384 -984.178 0.
-40.3718 -111.752 0.
19.6052 53.7213 0.
-0.0539219 -62.4275 0.
8.94306 24.5323 0.
-5.73565 -15.8863 0.
27.8744 77.1846 0.
-0.169474 -91.4589 0.
94.3357 259.192 0.
-4.32241 -158.448 0.
-2.08824 -158.443 0.
-4.25817 -162.906 0.
22.6325 62.5155 0.
-934.562 -2568.13 0.
31.5756 87.4548 0.
30.4492 84.3275 0.
-1018.33 -2747.05 0.
-0.00135475 -67.9477 0.
-301.878 -834.95 0.
-0.308668 -64.1973 0.
13.7216 37.9583 0.
-0.599618 -27.6609 0.
-937.436 -2551.21 0.
-1567.75 -3774.61 0.
-0.194551 -0.497454 0.
7.31813 19.9292 0.
2.47327 6.80896 0.
-0.0740454 -8.84852 0.
-80.0578 -220.23 0.
0.134839 1.01619 0.
0.391802 0.533297 0.
0.146058 0.166371 0.
0.88222 1.46815 0.
-149.319 -254.264 0.
-65.039 -32.3356 0.
-21.3763 -8.86188 0.
-330.278 -605.361 0.
-105.331 -41.3633 0.
-376.927 -717.476 0.
-50.2318 -18.9458 0.
-62.6792 -23.3554 0.
-561.033 -1444.82 0.
-99.8315 -160.446 0.
-28.2259 -14.979 0.
-554.018 -1390.21 0.
-344.047 -791.025 0.
-143.785 -201.302 0.
-673.818 -1586.04 0.
-594.33 -1399.17 0.
-461.982 -1050.45 0.
-420.236 -950.793 0.
-379.072 -850.559 0.
-467.346 -949.098 0.
-462.803 -935.802 0.
-459.815 -920.952 0.
-502.31 -1018.5 0.
-473.836 -942.171 0.
-445.686 -865.515 0.
-396.376 -855.499 0.
-392.103 -841.775 0.
-721.023 -1292.53 0.
-584.526 -995.1 0.
-595.237 -1021.21 0.
-458.025 -892.898 0.
-484.105 -968.807 0.
-511.111 -1043.79 0.
-414.773 -888.232 0.
-413.73 -895.683 0.
-414.074 -901.746 0.
-333.466 -754.178 0.
-399.08 -935.262 0.
-469.311 -1111.73 0.
-542.054 -1287.74 0.
-638.946 -1544.25 0.
-113.544 -115.719 0.
-347.635 -683.765 0.
-651.249 -1557.87 0.
-93.9916 -98.6368 0.
-82.2869 -68.198 0.
-549.933 -1293.08 0.
-104.827 -74.9126 0.
-81.8521 -64.7855 0.
-303.354 -400.563 0.
-39.225 -49.5083 0.
-73.6251 -108.77 0.
-72.3398 -91.7271 0.
-93.9847 -107.46 0.
-185.872 -381.822 0.
-0.0155652 -0.116249 0.
0.000430159 0.583975 0.
-33.3099 -81.1467 0.
1.19917 3.20577 0.
0.194313 0.537346 0.
-0.0794598 -12.3313 0.
-0.0820518 -4.96779 0.
0.0206336 6.59823 0.
-2396.63 -6337.82 0.
-3.26516 -9.00209 0.
-0.125279 -18.7037 0.
8.47282 23.0945 0.
-424.233 -1172.92 0.
-104.008 -288.078 0.
-344.562 -946.074 0.
-0.115443 -64.4306 0.
-14.107 -38.6454 0.
-410.725 -1127.9 0.
-429.422 -1188.98 0.
-0.109283 -129.693 0.
31.7564 86.7206 0.
-6.3319 -291.839 0.
-2465.82 -6299.64 0.
-0.149657 -27.1266 0.
-5.52302 -15.2843 0.
-0.483633 -131.763 0.
-4.09089e-05 -97.5062 0.
-436.75 -1209.7 0.
-1.09731 -3.02259 0.
-16.7998 -46.5213 0.
-364.086 -1006.35 0.
-0.245161 -45.1144 0.
-0.0669832 -40.7165 0.
-91.8784 -254.06 0.
-744.68 -2058.03 0.
-0.0417765 -4.66559 0.
-0.208294 -8.18323 0.
5.60365 15.3807 0.
0.861409 2.38587 0.
4.7646 12.6672 0.
-0.000337184 -0.0158336 0.
-164.451 -421.32 0.
-2387.87 -5451.83 0.
-0.471051 -2.04095 0.
0.439306 1.74746 0.
-2469.37 -6720.33 0.
-82.1254 -137.111 0.
-47.8188 -41.022 0.
-2321.33 -5506.22 0.
-47.9171 -57.0005 0.
-1895.34 -4406.03 0.
-592.634 -1277.86 0.
-79.2036 -39.389 0.
-1409.37 -3495.61 0.
-584.715 -1482.17 0.
-39.6967 -42.9679 0.
-985.679 -2389.33 0.
-564.399 -1366.71 0.
-173.297 -313.906 0.
-785.982 -1784.7 0.
-602.922 -1389.79 0.
-481.999 -1079.19 0.
-394.126 -891.756 0.
-312.113 -698.465 0.
-404.154 -801.72 0.
-365.826 -705.333 0.
-329.038 -607.407 0.
-388.867 -698.651 0.
-368.414 -640.478 0.
-311.921 -618.345 0.
-297.505 -597.976 0.
-277.554 -534.426 0.
-702.517 -972.758 0.
-456.372 -638.092 0.
-466.714 -670.296 0.
-272.901 -537.734 0.
-351.731 -620.97 0.
-395.893 -738.873 0.
-296.573 -624.553 0.
-364.076 -795.871 0.
-433.167 -965.6 0.
-335.335 -765.319 0.
-426.346 -1002.45 0.
-529.665 -1227.27 0.
-599.734 -1424.85 0.
-844.46 -1999.95 0.
-143.367 -163.867 0.
-630.11 -1503.79 0.
-1145.63 -2814.93 0.
-75.4892 -67.0325 0.
-592.265 -1374.65 0.
-1727.64 -4193.85 0.
-128.223 -112.715 0.
-429.887 -702.13 0.
-1971.05 -4461.52 0.
-48.266 -35.5419 0.
-2425.57 -5814.9 0.
-220.9 -543.149 0.
-0.0875515 -0.0421472 0.
-1769.19 -4111.55 0.
7.6668e-07 1.68723 0.
-2343.69 -5673.49 0.
-371.565 -1027.73 0.
1.9901 5.14496 0.
0.308121 0.841009 0.
-0.00283747 -2.01502 0.
-0.31967 -18.1909 0.
0.00473767 2.04829 0.
-109.846 -300.692 0.
10.7562 29.7239 0.
-1236.57 -3414.56 0.
-7.34056 -19.8473 0.
-458.806 -1264.78 0.
-212.091 -587.344 0.
-743.423 -2040.78 0.
-9.7447 -26.7922 0.
0.733658 2.00694 0.
-693.894 -1902.86 0.
-427.546 -1183.73 0.
-0.032896 -142.636 0.
-0.254717 -106.108 0.
1.26312 92.2576 0.
-0.937621 -30.0158 0.
-0.235585 -85.5926 0.
-296.76 -821.939 0.
-0.256494 -137.814 0.
-18.7306 -51.8796 0.
-720.207 -1993.85 0.
16.5156 44.6225 0.
-16.0475 -44.3861 0.
-817 -2256.11 0.
8.42231 22.9896 0.
-366.405 -1014.49 0.
-44.1766 -122.208 0.
-387.479 -1072.73 0.
17.7414 46.8735 0.
-0.281458 -15.1555 0.
0.190483 0.512524 0.
-2200.26 -5853.65 0.
-0.118983 -14.0626 0.
-1740.78 -4480.02 0.
-0.0307285 -4.17995 0.
-13.3514 -29.4976 0.
-0.0369953 -0.479168 0.
0.202357 1.15039 0.
-135.135 -340.08 0.
-0.379071 -0.189981 0.
-30.2955 -31.638 0.
-6.50555 -5.20322 0.
-3.52282 -1.60329 0.
-261.473 -517.676 0.
-61.4436 -34.2883 0.
-62.4403 -34.9521 0.
-491.57 -1176.19 0.
-33.2511 -15.6571 0.
-51.4479 -37.3378 0.
-566.61 -1376.06 0.
-178.659 -319.034 0.
-59.7654 -26.4061 0.
-529.016 -1203.31 0.
-365.959 -788.151 0.
-377.26 -846.91 0.
-296.854 -651.964 0.
-222.855 -450.611 0.
-326.825 -707.868 0.
-288.537 -611.43 0.
-250.284 -514.957 0.
-350.503 -653.992 0.
-330.494 -595.371 0.
-280.062 -567.173 0.
-259.372 -619.966 0.
-239.389 -556.45 0.
-340.104 -765.51 0.
-457.904 -627.835 0.
-466.861 -661.428 0.
-211.002 -465.114 0.
-276.326 -561.868 0.
-323.612 -676.66 0.
-210.778 -478.08 0.
-274.9 -652.808 0.
-339.829 -826.73 0.
-196.179 -393.939 0.
-279.609 -638.736 0.
-372.942 -873.63 0.
-325.219 -677.737 0.
-549.765 -1273.46 0.
-70.7962 -52.2953 0.
-95.1106 -95.4907 0.
-594.507 -1424.6 0.
-73.1374 -66.2025 0.
-94.3778 -83.2625 0.
-443.08 -963.955 0.
-90.2488 -53.545 0.
-96.4786 -59.9796 0.
-108.067 -89.1858 0.
-26.0427 -21.9384 0.
-150.904 -280.612 0.
-2.64374 -3.59027 0.
-0.282101 -0.167915 0.
-0.541767 -0.0863072 0.
-0.0612634 -0.900328 0.
-680.875 -1885.75 0.
-0.0121587 -4.88999 0.
-0.0522413 -6.20764 0.
-2478.63 -6296.72 0.
-0.0424432 -13.2724 0.
-2235.58 -5985.44 0.
0.0011331 0.0800796 0.
-107.709 -298.294 0.
-3.40436 -9.42185 0.
-601.562 -1662.49 0.
-79.4097 -212.786 0.
-313.68 -861.114 0.
-282.319 -781.141 0.
-453.242 -1245.48 0.
-0.504433 -96.35 0.
-223.085 -609.121 0.
19.3602 52.9424 0.
-11.843 -32.2106 0.
-11.5256 -31.9237 0.
-0.206254 -161.71 0.
-7.26376 -214.736 0.
-140.157 -377.339 0.
12.5519 34.7315 0.
-1020.52 -2825.75 0.
-1.11866 -3.07989 0.
26.9073 74.5253 0.
-595.563 -1646.93 0.
-61.5922 -166.321 0.
-538.455 -1486.01 0.
33.8639 91.9671 0.
16.0864 43.8973 0.
-452.099 -1251.96 0.
-24.8116 -68.6607 0.
-358.847 -987.795 0.
18.0172 47.2367 0.
-1955.75 -5254.19 0.
2.15652 5.92328 0.
-21.0674 -57.1679 0.
2.18931 6.03746 0.
1.1182 2.83432 0.
0.00112204 0.877802 0.
0.0890824 3.81312 0.
0.00851165 0.525776 0.
0.0320752 2.93258 0.
-54.8784 -127.561 0.
0.172523 0.113017 0.
-16.3204 -19.1615 0.
-7.22719 -6.33561 0.
-4.78031 -2.08195 0.
-58.3392 -49.9863 0.
-46.0256 -31.3174 0.
-46.9057 -31.9921 0.
-51.6268 -41.159 0.
-39.3771 -18.6522 0.
-60.6845 -34.601 0.
-186.826 -323.514 0.
-66.2726 -31.1716 0.
-64.1053 -31.4917 0.
-296.75 -597.224 0.
-172.831 -258.124 0.
-287.328 -599.826 0.
-212.293 -399.461 0.
-162.524 -262.892 0.
-269.925 -593.587 0.
-232.313 -496.462 0.
-197.239 -396.798 0.
-315.782 -605.69 0.
-280.796 -562.043 0.
-260.341 -503.865 0.
-247.315 -615.88 0.
-227.886 -551.811 0.
-330.929 -715.442 0.
-467.863 -609.153 0.
-477.348 -642.218 0.
-174.805 -412.718 0.
-204.517 -499.171 0.
-258.781 -606.998 0.
-161.604 -320.649 0.
-219.431 -476.039 0.
-284.004 -650.346 0.
-88.7519 -106.108 0.
-154.927 -255.622 0.
-241.082 -495.124 0.
-87.0813 -42.3134 0.
-279.5 -522.533 0.
-65.1652 -64.7903 0.
-54.5351 -41.2224 0.
-47.7368 -47.2558 0.
-94.4155 -74.8865 0.
-123.559 -108.549 0.
-141.747 -155.283 0.
-101.604 -62.5693 0.
-129.07 -74.9364 0.
-141.257 -104.246 0.
-6.16579 -6.51084 0.
-184.756 -283.206 0.
-3.72477 -4.33373 0.
0.597503 0.481306 0.
0.923967 0.526096 0.
0.278621 2.37828 0.
0.809261 2.15959 0.
1.94294 5.33341 0.
-0.0305477 -8.27601 0.
-0.189915 -6.72805 0.
4.21077 11.6614 0.
-100.49 -274.84 0.
12.3064 33.5529 0.
-1039.66 -2872.03 0.
0.0149131 0.0413025 0.
-78.423 -216.883 0.
-59.845 -159.506 0.
-442.981 -1210.6 0.
-453.558 -1252.9 0.
-406.472 -1117.96 0.
-14.0567 -38.4813 0.
-221.02 -602.363 0.
-3.05705 -8.33631 0.
-24.2241 -65.6861 0.
-695.44 -1925.5 0.
40.0636 110.905 0.
27.4311 71.4746 0.
-1175.13 -3247.95 0.
-85.4456 -236.31 0.
2.83221 7.6329 0.
8.91526 24.5088 0.
-1229.87 -3406.09 0.
22.9678 61.2386 0.
-215.249 -581.062 0.
-847.013 -2329.77 0.
11.4611 30.9826 0.
-2.50746 -6.79832 0.
-948.061 -2625.53 0.
19.2456 53.2722 0.
-564.142 -1513.03 0.
8.23855 21.4815 0.
-252.38 -691.416 0.
10.551 29.2095 0.
2.05582 5.65331 0.
3.31927 9.19378 0.
-0.111321 -5.1361 0.
-165.398 -457.132 0.
5.17559 14.3042 0.
-2896.15 -7786.89 0.
1.46604 3.69937 0.
-1648.36 -3068.82 0.
-150.313 -246.307 0.
-10.9136 -20.1647 0.
-2309.13 -6169.12 0.
-1.76829 -2.51456 0.
-1925.14 -4316.7 0.
-336.819 -606.47 0.
-80.0095 -71.508 0.
-1940.52 -4949.14 0.
-289.297 -673.528 0.
-49.5225 -31.561 0.
-1284.22 -3269.29 0.
-545.929 -1346.85 0.
-23.4491 -17.6988 0.
-936.429 -2293.33 0.
-571.285 -1356.92 0.
-655.175 -1615.54 0.
-477.545 -1185.08 0.
-310.987 -743.556 0.
-495.817 -1228.29 0.
-409.696 -1008.59 0.
-327.357 -785.112 0.
-438.524 -1035.64 0.
-381.643 -888.551 0.
-328.891 -737.335 0.
-357.484 -883.975 0.
-341.644 -834.839 0.
-374.963 -967.277 0.
-530.983 -910.654 0.
-553.2 -970.38 0.
-296.434 -705.797 0.
-377.9 -931.774 0.
-462.305 -1154.81 0.
-305 -755.563 0.
-412.373 -1064.18 0.
-525.945 -1366.6 0.
-284.861 -657.052 0.
-510.587 -1270.36 0.
-748.572 -1871.42 0.
-588.383 -1400.51 0.
-1055.97 -2607.18 0.
-59.7263 -68.4596 0.
-503.405 -1212.34 0.
-1502.46 -3808.6 0.
-68.2483 -49.9954 0.
-96.3521 -117.467 0.
-2221.04 -5660.63 0.
-100.803 -112.46 0.
-153.185 -152.38 0.
-1913.73 -4085.05 0.
-133.201 -197.444 0.
-2345.72 -6279.49 0.
-178.113 -351.103 0.
-212.522 -351.437 0.
-2068.17 -4076.17 0.
-0.00725783 -3.23703 0.
-2027.51 -5480.4 0.
-0.0869986 -0.235337 0.
-0.00213164 -1.35541 0.
-0.308865 -10.6087 0.
-0.0611969 -18.4318 0.
-53.2526 -147.241 0.
-0.427207 -1.16413 0.
-0.0327666 -29.3634 0.
-667.068 -1844.72 0.
20.5083 51.0157 0.
-163.887 -434.156 0.
-132.899 -362.847 0.
10.9278 29.8131 0.
-374.3 -1030.44 0.
-157.078 -430.432 0.
20.6925 55.2959 0.
36.1015 98.1536 0.
-0.118662 -0.320724 0.
17.269 46.3703 0.
-1038.05 -2873.54 0.
-2.6809 -150.669 0.
-1189.47 -3264.3 0.
2.07761 5.74728 0.
29.3916 79.0239 0.
-124.513 -341.812 0.
-10.7441 -29.0721 0.
13.8239 37.8598 0.
-829.398 -2237.93 0.
-40.2751 -110.333 0.
24.0944 64.9608 0.
-289.995 -780.167 0.
13.6112 35.4197 0.
-166.724 -459.673 0.
-419.969 -1120.98 0.
10.7147 27.7898 0.
-117.207 -323.751 0.
8.48083 23.4604 0.
-1392.71 -3830.05 0.
-67.5611 -186.999 0.
-1881.31 -5170.97 0.
-0.000959805 -14.9425 0.
6.06263 16.6418 0.
0.25675 0.684013 0.
1.72106 4.68094 0.
-0.66101 -2.70963 0.
1.30105 2.65224 0.
-0.110721 -2.12221 0.
-36.3756 -91.4371 0.
0.000331485 0.413347 0.
-47.6326 -39.7662 0.
-22.6705 -8.99799 0.
-44.1568 -20.4303 0.
-174.551 -369.948 0.
-58.4526 -31.9576 0.
-53.7949 -26.3506 0.
-523.201 -1306.42 0.
-44.6354 -24.4763 0.
-28.203 -19.0187 0.
-587.004 -1432.69 0.
-238.231 -479.082 0.
-424.039 -1088.16 0.
-259.324 -644.547 0.
-114.68 -239.617 0.
-400.372 -991.696 0.
-317.419 -768.778 0.
-236.08 -544.246 0.
-389.99 -933.6 0.
-335.168 -784.439 0.
-290.956 -654.948 0.
-359.751 -821.121 0.
-341.956 -773.94 0.
-366.09 -900.691 0.
-464.973 -823.299 0.
-488.02 -882.203 0.
-283.132 -602.926 0.
-356.643 -797.032 0.
-440.965 -1020.18 0.
-185.327 -428.161 0.
-287.925 -722.041 0.
-396.315 -1029.75 0.
-62.3727 -78.2188 0.
-246.498 -566.5 0.
-473.467 -1178.99 0.
-144.144 -180.302 0.
-586.235 -1413.92 0.
-72.0077 -72.5278 0.
-63.0056 -38.2829 0.
-451.633 -1061.84 0.
-45.4719 -32.1689 0.
-51.3774 -57.2605 0.
-78.2714 -127.592 0.
-234.683 -223.077 0.
-52.4027 -69.9626 0.
-8.89827 -11.1904 0.
-170.933 -241.985 0.
-269.478 -504.867 0.
-0.144543 -1.88947 0.
0.340314 0.6705 0.
0.527762 0.927155 0.
2.422 6.46429 0.
-35.3794 -97.9935 0.
4.77889 13.1192 0.
-1960.12 -5089.85 0.
2.02601 5.57261 0.
-1215.71 -3366.34 0.
4.11943 10.9548 0.
-0.242416 -34.4209 0.
-0.383517 -49.6601 0.
-617.071 -1709.12 0.
-1.24007 -3.22369 0.
-562.088 -1478.81 0.
-118.382 -322.856 0.
8.04583 21.927 0.
-354.512 -976.927 0.
-277.783 -743.872 0.
4.27834 11.403 0.
14.6149 38.3949 0.
-122.28 -329.394 0.
-14.7666 -39.8245 0.
6.08566 16.7994 0.
-1.93891 -108.584 0.
-154.121 -422.536 0.
-48.8945 -135.358 0.
-6.06039 -16.2546 0.
-714.568 -1958.43 0.
15.7043 42.3285 0.
-98.1697 -268.045 0.
-580.441 -1566.75 0.
-3.70341 -9.89161 0.
-79.3414 -213.299 0.
-1141.8 -3043.31 0.
1.94752 5.02035 0.
-143.082 -393.378 0.
10.6864 28.8299 0.
19.6651 50.7387 0.
6.99771 17.3659 0.
-946.96 -2615.93 0.
4.61308 12.658 0.
-3.34764 -9.23159 0.
-0.366675 -15.8118 0.
1.19484 3.30013 0.
-0.0229638 -2.98251 0.
1.71094 4.70975 0.
-4.15473e-07 -0.00777775 0.
1.85735 3.87214 0.
-1016.94 -2371.29 0.
-0.149823 -5.01751 0.
-1738.37 -4814.07 0.
0.135568 0.348303 0.
-1837.8 -3475.25 0.
-107.38 -114.584 0.
-22.8678 -10.3088 0.
-2043.42 -5448.31 0.
-26.1278 -10.1784 0.
-14.8001 -5.62773 0.
-1473.88 -3743.4 0.
-343.758 -837.816 0.
-62.8812 -69.5525 0.
-1086.17 -2702.52 0.
-517.856 -1233.29 0.
-710.085 -1772.64 0.
-429.096 -1086.93 0.
-161.637 -387.683 0.
-514.657 -1263.53 0.
-357.037 -874.65 0.
-205.16 -480.03 0.
-391.604 -931.66 0.
-326.959 -756.501 0.
-263.557 -580.099 0.
-349.968 -735.786 0.
-294.324 -589.332 0.
-315.001 -474.955 0.
-360.861 -621.099 0.
-422.859 -783.924 0.
-255.214 -491.313 0.
-360.356 -790.307 0.
-468.683 -1086.12 0.
-168.038 -413.55 0.
-387.296 -996.99 0.
-617.136 -1569.85 0.
-149.288 -344.521 0.
-468.735 -1181.82 0.
-804.431 -2002.87 0.
-470.79 -1098.64 0.
-1220.49 -3038.14 0.
-45.1694 -34.2854 0.
-177.349 -331.495 0.
-1711.84 -4254.22 0.
-45.5485 -89.3787 0.
-54.3562 -96.3637 0.
-2059.16 -5581.99 0.
-280.016 -382.524 0.
-532.337 -684.831 0.
-1416.9 -3233.81 0.
-140.38 -182.976 0.
-1194.13 -3059.32 0.
-505.378 -1131.91 0.
1.15883 2.63611 0.
0.722762 1.46258 0.
-0.00759716 -0.246459 0.
3.24761 8.92262 0.
4.48971 12.4039 0.
-0.398204 -1.06047 0.
-0.256989 -29.2774 0.
-517.409 -1429.92 0.
12.0271 32.8579 0.
-0.2123 -29.1865 0.
14.339 38.4987 0.
-495.004 -1368.01 0.
27.0016 70.1509 0.
17.516 45.1017 0.
-169.531 -461.824 0.
-679.127 -1848.89 0.
6.22103 16.6711 0.
-350.349 -935.712 0.
-241.736 -642.288 0.
29.6857 77.8325 0.
-281.432 -755.32 0.
-923.73 -2502.7 0.
5.85241 16.1891 0.
12.8552 34.3696 0.
-275.484 -761.474 0.
-796.673 -2206.65 0.
-383.963 -1026.78 0.
21.7966 57.2215 0.
-91.1023 -244.482 0.
-1127 -3066.38 0.
-18.1994 -46.9412 0.
-201.346 -536.067 0.
-537.696 -1440.78 0.
26.0319 66.7195 0.
15.7448 40.4631 0.
-273.932 -750.458 0.
-0.541916 -40.0018 0.
-79.1538 -203.696 0.
3.8397 10.2474 0.
-541.321 -1499.35 0.
-0.187681 -22.5093 0.
0.387034 1.06144 0.
10.5268 27.3717 0.
-1300.83 -3579.05 0.
-0.962897 -2.65917 0.
-1620.17 -4280.87 0.
-0.106878 -6.2737 0.
-1059.18 -2506.67 0.
-0.185525 -4.98354 0.
-0.0184344 -5.1394 0.
-96.3676 -265.372 0.
-5.87068e-07 -0.00643668 0.
-30.4152 -13.0694 0.
-19.9096 -7.58573 0.
-13.2376 -4.97727 0.
-249.433 -600.648 0.
-9.33094 -3.67895 0.
-7.66237 -3.11909 0.
-277.603 -688.951 0.
-33.1867 -25.6275 0.
-48.5848 -56.0664 0.
-545.636 -1378.35 0.
-46.1233 -55.3084 0.
-414.034 -1032.41 0.
-147.929 -331.294 0.
-39.9789 -40.4051 0.
-347.439 -874.539 0.
-197.521 -477.803 0.
-81.2763 -158.497 0.
-307.683 -725.81 0.
-242.74 -550.912 0.
-189.023 -401.52 0.
-303.63 -586.683 0.
-263.765 -485.686 0.
-202.688 -368.081 0.
-299.138 -511.822 0.
-338.126 -610.681 0.
-170.986 -334.372 0.
-234.51 -512.45 0.
-340.983 -810.201 0.
-23.1186 -29.2372 0.
-178.648 -444.251 0.
-397.175 -1028.74 0.
-22.3501 -54.748 0.
-64.3091 -160.597 0.
-388.499 -994.012 0.
-41.1851 -36.4128 0.
-535.861 -1281.83 0.
-23.2497 -31.4477 0.
-29.7263 -31.0795 0.
-126.837 -224.275 0.
-19.1146 -52.0818 0.
-14.8128 -40.4761 0.
-104.792 -260.554 0.
-2.63237 -4.52912 0.
-91.567 -136.175 0.
-0.183934 -0.873283 0.
-0.00121334 -0.257796 0.
-143.75 -358.823 0.
-0.0250674 -4.77313 0.
-1950.92 -5002.38 0.
-29.2381 -80.9369 0.
-90.5821 -249.381 0.
-1861.4 -4974.92 0.
-0.112226 -16.6398 0.
0.363561 0.98286 0.
-0.449963 -27.343 0.
-145.802 -399.979 0.
17.0428 46.3723 0.
-971.897 -2676.37 0.
13.2014 35.2818 0.
-366.767 -1008.35 0.
-6.93745 -18.0153 0.
16.0289 41.2502 0.
-20.1262 -54.7619 0.
-50.2025 -136.507 0.
-0.843771 -2.25095 0.
8.59234 21.5369 0.
-317.005 -839.88 0.
18.2264 47.6963 0.
19.8473 50.1599 0.
-428.766 -1167.62 0.
-314.761 -871.764 0.
19.1395 51.516 0.
-654.744 -1806.02 0.
32.6048 89.322 0.
-3.32931 -88.1594 0.
-198.438 -522.2 0.
-491.523 -1312.74 0.
-2.525 -77.276 0.
-21.5687 -55.6871 0.
-265.737 -705.275 0.
-150.601 -402.459 0.
-34.5644 -88.3279 0.
-232.34 -595.334 0.
-1164.82 -3175.38 0.
-0.645878 -50.7632 0.
-148.275 -395.802 0.
-140.691 -373.966 0.
-118.481 -327.638 0.
16.8313 45.1981 0.
-1391.36 -3841.54 0.
-3.84423 -10.3902 0.
-127.796 -353.961 0.
0.226451 0.626271 0.
0.28115 0.728869 0.
-0.0854768 -12.4963 0.
3.44098 8.66157 0.
-0.133211 -10.092 0.
-0.000301184 -7.97636 0.
-86.1081 -237.888 0.
-0.0121988 -1.85051 0.
-0.0908454 -1.37045 0.
-16.9053 -6.12744 0.
-9.64169 -3.48899 0.
-42.3943 -32.4565 0.
-2.25073 -0.944378 0.
-1.25247 -0.548619 0.
0.205333 0.342081 0.
-16.2017 -13.8289 0.
-38.0792 -38.7546 0.
-42.8689 -50.6955 0.
-31.1334 -45.8947 0.
-142.618 -267.548 0.
-47.9407 -34.6681 0.
-54.0322 -41.2533 0.
-190.592 -475.18 0.
-65.6227 -133.803 0.
-27.1117 -24.1152 0.
-244.571 -544.774 0.
-199.337 -421.138 0.
-158.042 -297.866 0.
-305.899 -563.581 0.
-271.272 -479.585 0.
-186.776 -310.263 0.
-289.628 -514.557 0.
-314.113 -571.057 0.
-119.295 -203.602 0.
-157.368 -321.113 0.
-243.529 -569.345 0.
-27.4676 -35.976 0.
-36.5224 -49.7206 0.
-200.705 -464.142 0.
-17.8602 -49.4679 0.
-15.2485 -42.0052 0.
-18.3044 -46.4049 0.
-60.5156 -44.1729 0.
-37.711 -13.6756 0.
-14.8152 -16.5776 0.
-21.3328 -21.2267 0.
-42.8678 -78.7812 0.
-8.73076 -23.6992 0.
-6.1338 -16.7688 0.
-15.3562 -42.2616 0.
-10.832 -15.9644 0.
-2.50469 -4.03178 0.
0.704842 1.67032 0.
-0.000380524 -1.65912 0.
-22.2452 -58.4363 0.
-0.00443399 -0.446607 0.
-301.874 -830.095 0.
5.7398 15.898 0.
0.654236 1.79659 0.
3.30363 8.81335 0.
-0.0134359 -11.602 0.
-1590.21 -4385.29 0.
-0.656895 -33.3535 0.
-122.964 -333.795 0.
-0.329559 -35.3827 0.
-596.711 -1639.29 0.
-10.2993 -27.3915 0.
20.5512 54.7532 0.
-221.222 -574.419 0.
-226.046 -581.329 0.
-7.5919 -19.9049 0.
-296.647 -798.406 0.
-503.49 -1337.9 0.
-3.9773 -89.3121 0.
39.2615 95.5869 0.
-601.427 -1570.43 0.
23.6206 59.5692 0.
-1.72607 -64.9322 0.
-0.506673 -54.7361 0.
-427.729 -1160.57 0.
-62.587 -168.687 0.
-176.066 -482.325 0.
-29.7455 -75.9312 0.
-899.689 -2373.24 0.
-82.8917 -220.305 0.
3.71164 9.56507 0.
-419.523 -1083.5 0.
-408.112 -1079.62 0.
-12.9948 -33.0145 0.
-287.152 -731.836 0.
-173.312 -442.704 0.
-5.32658 -14.1024 0.
-0.911727 -61.3811 0.
-510.496 -1356.22 0.
-352.986 -934.313 0.
1.25222 3.4475 0.
-4.56123 -12.1607 0.
-564.856 -1550.53 0.
0.987204 2.64146 0.
-57.1002 -157.503 0.
-0.65406 -1.78366 0.
1.9145 5.09628 0.
5.62392 15.493 0.
-2.21048 -6.12006 0.
-1758.38 -4784.27 0.
-0.0303775 -7.81899 0.
-1331.87 -2784.31 0.
-68.5114 -165.596 0.
-164.018 -416.13 0.
-2129.62 -5225.73 0.
-0.0156333 -0.0228658 0.
-1513.32 -4032 0.
-37.3728 -26.6691 0.
-20.5358 -14.834 0.
-1694.45 -4452.03 0.
-5.4572 -7.35544 0.
-26.2006 -47.5123 0.
-1304.87 -3398.61 0.
-240.18 -613.143 0.
-888.182 -2145.74 0.
-475.91 -1124.64 0.
-111.483 -188.956 0.
-707.902 -1857.88 0.
-415.194 -1102.73 0.
-133.569 -340.32 0.
-513.221 -1312.96 0.
-370.866 -919.402 0.
-229.813 -524.542 0.
-462.913 -991.934 0.
-437.566 -912.085 0.
-286.201 -601.922 0.
-404.491 -901.855 0.
-465.532 -1079.69 0.
-166.397 -397.025 0.
-377.409 -992.203 0.
-590.372 -1585.43 0.
-88.3932 -155.696 0.
-442.095 -1152.22 0.
-825.58 -2155.27 0.
-53.9834 -127.828 0.
-450.846 -1115.24 0.
-985.379 -2418.1 0.
-147.589 -250.771 0.
-1498.64 -3841.84 0.
-19.9337 -52.7469 0.
-30.2483 -77.4864 0.
-1731.49 -4467.06 0.
-14.365 -30.9063 0.
-61.1589 -136.398 0.
-1596.96 -3979.77 0.
-0.565582 -0.948012 0.
-2265.14 -5027.29 0.
-66.6992 -164.094 0.
-115.888 -265.562 0.
-1846.29 -4526.2 0.
0.938996 2.58942 0.
-978.749 -2707.8 0.
2.51381 6.9617 0.
6.43542 17.6367 0.
1.48882 3.96683 0.
-0.00194118 -17.6161 0.
-52.6137 -145.531 0.
-1.23916 -3.27455 0.
-1106.29 -3008.2 0.
11.2257 30.2768 0.
-211.664 -579.818 0.
-9.06155 -23.9738 0.
-6.70797 -17.7865 0.
6.23859 15.3461 0.
-169.637 -436.23 0.
-8.84293 -23.0147 0.
-4.43615 -11.2605 0.
-583.977 -1544.11 0.
-581.758 -1458.44 0.
-12.29 -29.9263 0.
18.3898 43.6044 0.
18.066 45.4935 0.
18.6055 49.0351 0.
31.9937 79.6748 0.
23.5351 61.9104 0.
-312.087 -840.818 0.
-516.172 -1414.02 0.
-274.53 -704.211 0.
10.2836 25.5719 0.
-3.10936 -69.2344 0.
-108.067 -279.449 0.
-654.844 -1693.74 0.
-3.87916 -9.6146 0.
19.6623 49.7077 0.
-575.77 -1463.54 0.
30.0612 71.5346 0.
13.2605 34.9098 0.
-9.17926 -24.4171 0.
-550.038 -1455.26 0.
-86.7704 -228.671 0.
-444.989 -1191.72 0.
-0.805127 -39.4572 0.
3.67054 10.0036 0.
-0.542679 -1.43721 0.
-66.6548 -181.536 0.
-3.17391 -8.62221 0.
-1380.48 -3808.09 0.
-0.440226 -1.21721 0.
-0.000409713 -10.3168 0.
-300.994 -832.787 0.
3.40474 9.42903 0.
-17.6031 -44.3584 0.
0.0650969 0.170334 0.
0.845755 2.29921 0.
-0.0932472 -0.227694 0.
0.13463 0.34408 0.
-60.8262 -45.9257 0.
-35.0098 -24.006 0.
-43.7624 -34.2229 0.
-0.00506876 -0.0401897 0.
0.101039 0.297594 0.
0.205901 0.407891 0.
-411.147 -1059.06 0.
-22.6331 -38.6473 0.
-384.462 -891.221 0.
-19.8338 -31.309 0.
-33.3458 -64.4736 0.
-407.437 -1085.22 0.
-125.334 -318.878 0.
-21.444 -26.7631 0.
-382.134 -950.542 0.
-248.623 -574.029 0.
-153.808 -299.479 0.
-416.834 -812.123 0.
-390.598 -727.988 0.
-165.106 -282.924 0.
-301.251 -662.106 0.
-358.797 -827.11 0.
-61.9212 -96.8959 0.
-193.755 -481.85 0.
-404.882 -1077.21 0.
-62.6896 -78.55 0.
-66.7164 -76.6645 0.
-429.374 -1088.5 0.
-13.6633 -36.1571 0.
-17.6713 -48.3969 0.
-315.27 -752.539 0.
-55.3768 -71.5587 0.
-340.842 -824.421 0.
-2.79728 -7.73044 0.
-15.1043 -40.9838 0.
-35.4886 -95.198 0.
-0.0690988 -0.226242 0.
0.710254 0.892429 0.
-73.9614 -151.596 0.
0.0542714 1.31893 0.
-20.8102 -47.322 0.
-1.00644 -2.62213 0.
-28.3057 -69.0776 0.
-109.63 -251.882 0.
-0.0881278 -10.3038 0.
-0.0266395 -11.0633 0.
-0.00776176 -7.88696 0.
-1499.03 -4138.83 0.
8.25919 22.5574 0.
-0.370806 -1.02065 0.
-73.4944 -203.497 0.
-0.649839 -31.5298 0.
-593.557 -1608.7 0.
-1.19371 -51.3408 0.
3.97779 10.8603 0.
12.5524 33.0254 0.
-693.366 -1832.14 0.
20.5656 50.2768 0.
6.22865 16.2697 0.
-778.117 -2004.38 0.
3.27109 8.27011 0.
-19.3147 -48.5886 0.
-580.821 -1457.67 0.
6.28036 15.3057 0.
12.4673 29.8042 0.
-2.55236 -5.82703 0.
-439.643 -1172.48 0.
22.0281 55.8089 0.
20.4928 54.3908 0.
-656.481 -1767.73 0.
-140.589 -385.795 0.
20.7946 49.4999 0.
-3.0758 -69.0033 0.
-10.4733 -26.3423 0.
-576.54 -1496.17 0.
1.54389 3.73492 0.
-2.50715 -6.21968 0.
-591.37 -1486.95 0.
-4.83017 -12.2269 0.
16.1014 38.128 0.
-804.963 -2102.26 0.
14.3119 37.8551 0.
-177.49 -444.179 0.
-47.691 -118.851 0.
-1060.97 -2812.04 0.
18.3495 47.9792 0.
-7.4146 -20.0645 0.
-0.287252 -27.0854 0.
-1353 -3747.56 0.
-0.777273 -2.09462 0.
-0.0482579 -11.1384 0.
-0.0111183 -10.6898 0.
5.89551 16.3296 0.
1.67468 4.63502 0.
4.71613 12.9178 0.
-1.86516 -4.9581 0.
-0.0243902 -4.21493 0.
-156.384 -431.675 0.
-1527.66 -4228.37 0.
-0.0373563 -1.73308 0.
-1567.34 -2929 0.
-55.9374 -71.2184 0.
-133.278 -263.074 0.
-1654.99 -4465.3 0.
-12.1451 -32.4907 0.
-0.00141788 -0.381862 0.
-1362.09 -3627.55 0.
-32.4671 -60.5691 0.
-963.232 -2302.47 0.
-412.931 -979.071 0.
-15.3234 -24.2391 0.
-801.059 -2123.94 0.
-372.178 -1001.62 0.
-31.896 -69.7882 0.
-575.646 -1464.96 0.
-352.539 -887.539 0.
-138.205 -301.346 0.
-470.424 -1018.66 0.
-419.414 -867.595 0.
-160.749 -345.1 0.
-344.215 -843.536 0.
-484.284 -1212.22 0.
-89.4681 -186.772 0.
-354.776 -946.556 0.
-635.84 -1695.84 0.
-31.5004 -31.7338 0.
-382.573 -974.487 0.
-985.02 -2555.72 0.
-36.0799 -83.3489 0.
-390.071 -864.939 0.
-1053.49 -2404.34 0.
-22.3254 -57.8603 0.
-1513.57 -3980.25 0.
0.640153 0.000277014 0.
-23.9887 -65.1041 0.
-1722.69 -4457.09 0.
-0.842858 -1.71575 0.
-75.1711 -156.89 0.
-1654.86 -3288.91 0.
1.18888 3.28105 0.
-1528.62 -4228.09 0.
-0.0248628 -2.66219 0.
1.3573 3.50569 0.
-5.56089 -13.6211 0.
-0.191954 -10.3699 0.
0.545069 1.48172 0.
-0.0664851 -18.4487 0.
-89.929 -249.073 0.
-0.455652 -1.22449 0.
-995.297 -2749.53 0.
13.3779 36.0924 0.
12.2847 32.3924 0.
11.8594 32.0528 0.
-1.50196 -46.7278 0.
-894.19 -2332.23 0.
-12.7864 -31.9529 0.
-439.43 -1071.7 0.
-213.566 -518.941 0.
18.5609 45.97 0.
-125.895 -322.105 0.
-459.775 -1156.25 0.
-44.3506 -111.117 0.
-19.78 -47.5199 0.
10.5301 25.6972 0.
-362.616 -875.085 0.
-6.11903 -14.1137 0.
-0.490038 -1.24851 0.
-3.2463 -51.2985 0.
-235.101 -629.428 0.
-1.2876 -39.3065 0.
14.1171 37.652 0.
21.8511 52.4285 0.
-508.645 -1281.8 0.
2.59857 6.57042 0.
28.656 69.5835 0.
23.8634 57.803 0.
-624.159 -1549.62 0.
-383.684 -959.578 0.
-9.58334 -22.358 0.
4.34399 10.2353 0.
-586.311 -1521.18 0.
-17.8752 -44.911 0.
-183.225 -456.671 0.
-69.1986 -171.714 0.
-287.06 -754.959 0.
8.96355 23.1887 0.
-473.275 -1281.24 0.
3.44038 9.18778 0.
5.10518 14.1099 0.
3.49433 9.34521 0.
11.5133 28.6336 0.
6.26583 17.2989 0.
-0.109093 -15.3108 0.
-1008.88 -2790.83 0.
-0.00243807 -11.1011 0.
-1494.35 -3530.41 0.
0.141185 0.388163 0.
2.65941 7.2015 0.
-95.1845 -241.754 0.
0.601134 1.48043 0.
0.161981 0.289569 0.
-3.26698 -6.01924 0.
-39.2994 -73.8659 0.
-30.361 -81.4199 0.
-0.00582387 -0.468379 0.
-0.00621955 -0.48946 0.
-265.256 -704.557 0.
-28.6022 -54.543 0.
-250.345 -585.056 0.
-3.09231 -7.94345 0.
0.0880543 0.0945988 0.
-365.626 -999.449 0.
-6.99186 -19.3064 0.
-12.3938 -33.0486 0.
-341.388 -864.908 0.
-140.35 -314.951 0.
-21.3674 -29.9543 0.
-284.271 -572.976 0.
-239.229 -460.797 0.
-15.3985 -24.3826 0.
-160.995 -398.194 0.
-269.253 -695.619 0.
-53.703 -100.565 0.
-91.6741 -202.183 0.
-330.386 -868.66 0.
-18.3178 -36.009 0.
-21.0335 -40.5057 0.
-371.002 -1001.98 0.
-28.5685 -55.8045 0.
-28.0025 -50.223 0.
-163.783 -307.636 0.
-9.4684 -26.2031 0.
-110.977 -257.459 0.
0.424395 0.22199 0.
0.0870198 0.167992 0.
-13.5868 -37.4778 0.
-0.0665137 -1.0923 0.
-0.136234 -0.311004 0.
-11.7811 -26.1108 0.
0.64692 1.78061 0.
-161.899 -447.306 0.
1.95087 5.40349 0.
-89.7983 -240.376 0.
-1366.43 -3372.34 0.
4.42004 12.0808 0.
-1262.65 -3497.32 0.
7.07876 19.2775 0.
-0.0106626 -25.1724 0.
8.87261 23.4225 0.
-419.655 -1151.27 0.
9.81266 26.3339 0.
-19.2789 -51.6592 0.
1.11689 2.75769 0.
7.48637 18.8368 0.
-407.616 -1011.23 0.
-6.36505 -15.8401 0.
-196.581 -453.198 0.
-669.178 -1614.81 0.
-137.082 -338.761 0.
17.5115 42.8838 0.
-59.6876 -149.609 0.
-292.574 -729.753 0.
-40.5441 -97.8193 0.
-12.0772 -27.9739 0.
-587.559 -1432.52 0.
26.7719 62.4329 0.
-1.51059 -50.0609 0.
-3.74099 -67.3502 0.
-0.828961 -40.8943 0.
-3.0663 -7.90498 0.
-126.694 -339.087 0.
-3.7759 -61.7664 0.
-381.688 -971.332 0.
-4.62451 -60.5183 0.
-10.5188 -25.4121 0.
-445.536 -1080.08 0.
-292.041 -726.736 0.
19.4154 45.5153 0.
-8.96786 -20.8175 0.
-403.374 -946.288 0.
9.38898 23.3204 0.
-30.7157 -77.0573 0.
-694.073 -1724.29 0.
-92.6918 -229.003 0.
-140.592 -357.838 0.
3.16093 8.00297 0.
-819.93 -2196.32 0.
4.60194 12.1337 0.
1.19331 3.07408 0.
3.27919 8.71046 0.
2.58777 6.94846 0.
-1191.86 -3253.99 0.
-2.73775 -7.57033 0.
-1.09707 -3.03857 0.
-0.0157349 -4.58697 0.
1.09637 2.91857 0.
-0.000844352 -2.54263 0.
-0.0553049 -4.72712 0.
-102.894 -241.878 0.
0.613123 1.40995 0.
0.795799 1.6467 0.
0.00507364 0.0494896 0.
-0.0355809 -0.637825 0.
-20.629 -56.761 0.
0.00228142 0.0729158 0.
-0.013371 -0.490269 0.
-52.7232 -87.7333 0.
-36.4479 -47.5875 0.
-8.81526 -20.1684 0.
-1.77251 -2.64322 0.
-0.0352529 -0.0154576 0.
-6.88192 -16.5993 0.
-8.02183 -20.5674 0.
-9.70655 -26.4746 0.
-156.988 -355.861 0.
-28.0486 -26.0003 0.
-19.7826 -27.5939 0.
-187.086 -348.167 0.
-156.079 -267.683 0.
-8.48092 -21.8557 0.
-61.5109 -134.476 0.
-129.702 -335.916 0.
-67.2826 -106.556 0.
-44.1491 -57.5933 0.
-108.553 -230.33 0.
-12.7896 -34.1534 0.
-14.5582 -37.2637 0.
-17.712 -42.8756 0.
-52.0869 -62.7856 0.
-51.4754 -59.5435 0.
-52.4674 -61.4314 0.
-6.84502 -17.6204 0.
-18.5534 -46.0216 0.
0.138656 0.0404512 0.
0.327104 0.465131 0.
-0.433975 -1.00869 0.
-0.0103984 -0.578185 0.
0.335962 0.847445 0.
-1.13431 -2.73394 0.
0.442726 1.17736 0.
-178.257 -481.603 0.
1.98175 5.48799 0.
0.410482 1.11681 0.
-0.338086 -0.872822 0.
1.09218 2.93515 0.
-3.03136 -8.37664 0.
6.07957 16.8153 0.
-859.554 -2376.37 0.
-1.09354 -38.4713 0.
-43.4805 -118.07 0.
-10.8117 -28.8473 0.
-271.265 -722.836 0.
-104.991 -261.422 0.
-121.265 -302.808 0.
-65.3347 -161.236 0.
6.06358 15.0253 0.
-37.118 -85.7736 0.
-29.3052 -67.073 0.
-312.598 -771.189 0.
-265.272 -648.042 0.
-4.40782 -68.7738 0.
-237.278 -589.124 0.
-904.789 -2199.75 0.
19.8652 46.2453 0.
-5.95471 -67.8023 0.
21.3968 50.505 0.
-322.317 -844.378 0.
-2.41288 -51.0767 0.
-89.5203 -240.225 0.
-219.452 -567.371 0.
-24.1515 -65.0444 0.
29.1231 65.7326 0.
-11.8546 -28.3904 0.
11.2079 26.1761 0.
-457.121 -1098.82 0.
-1.86948 -4.54639 0.
0.546014 1.29077 0.
-381.531 -894.289 0.
-603.208 -1433.96 0.
11.9977 26.6963 0.
-79.8125 -197.961 0.
-61.4926 -154.054 0.
-333.434 -824.302 0.
-8.61963 -20.376 0.
-660.119 -1650.85 0.
-119.326 -296.831 0.
-8.21734 -20.2856 0.
-0.98959 -36.2185 0.
-207.342 -537.046 0.
-320.374 -865.213 0.
-7.4928 -19.9138 0.
-71.2152 -196.881 0.
-0.0104519 -16.9998 0.
-0.0105919 -10.3299 0.
-0.105651 -11.8304 0.
-0.0199797 -2.34195 0.
-1272.24 -3402.21 0.
-0.021612 -6.3334 0.
-1290.01 -3365.14 0.
-13.0191 -35.0087 0.
-1434.05 -2892.46 0.
-31.3143 -69.598 0.
-0.110782 -2.40843 0.
-1653.12 -4539.52 0.
-8.60307 -21.4427 0.
-0.0445458 -0.452854 0.
-1411.07 -3715.26 0.
-35.3825 -93.6486 0.
-1042.81 -2543.2 0.
-330.524 -848.935 0.
-16.7171 -43.9489 0.
-1005.86 -2666.86 0.
-266.129 -722.017 0.
-5.41986 -12.8 0.
-700.298 -1860.7 0.
-356.587 -937.889 0.
-55.408 -86.0829 0.
-533.388 -1312.79 0.
-463.834 -1139.49 0.
-54.197 -146.498 0.
-346.861 -958.695 0.
-563.581 -1554.24 0.
-28.285 -45.131 0.
-321.78 -843.909 0.
-834.236 -2190.97 0.
-25.3366 -65.7656 0.
-239.015 -652.523 0.
-1147.11 -3089.65 0.
-28.4659 -29.8693 0.
-339.106 -725.154 0.
-1104.57 -2504.25 0.
-7.90409 -21.1936 0.
-1497.88 -3727.08 0.
-14.7784 -39.9745 0.
-14.3291 -39.6511 0.
-1602.93 -4289.82 0.
0.88399 2.08228 0.
0.891834 1.95814 0.
-1404.3 -3203.36 0.
-0.00342541 -2.51423 0.
-933.722 -2487.13 0.
-0.297829 -13.141 0.
3.45408 9.46258 0.
-0.789571 -14.2907 0.
-0.167697 -8.11164 0.
4.83292 13.2515 0.
5.92089 16.2709 0.
-269.774 -747.205 0.
-0.0427058 -0.113684 0.
-333.932 -890.058 0.
-95.0134 -251.912 0.
-1090.72 -2885.32 0.
-29.1756 -72.9615 0.
-31.1806 -78.197 0.
-6.55035 -16.3173 0.
-526.365 -1298.13 0.
-471.618 -1089.97 0.
-9.30748 -21.3459 0.
11.9688 28.1583 0.
-143.325 -349.66 0.
-65.5087 -157.268 0.
20.1033 47.1135 0.
-359.145 -877.441 0.
-5.31105 -12.4429 0.
14.0697 32.7819 0.
-5.21818 -11.3851 0.
-0.150385 -0.370823 0.
15.5708 36.9468 0.
-70.8995 -192.911 0.
-8.38056 -20.7068 0.
9.986 21.5198 0.
24.8951 57.2477 0.
-31.3561 -76.4452 0.
-365.565 -848.193 0.
-3.46862 -7.71973 0.
22.3925 51.1796 0.
-0.77401 -1.81788 0.
-894.373 -2097.83 0.
26.2131 59.8853 0.
6.97808 15.4747 0.
-661.306 -1640.08 0.
-152.93 -382.69 0.
-20.2152 -48.7381 0.
12.3683 29.0348 0.
-219.579 -517.836 0.
-355.395 -866.355 0.
-61.18 -147.224 0.
-125.081 -325.236 0.
-128.165 -333.325 0.
-479.255 -1281.84 0.
-1.3624 -3.5814 0.
-37.3551 -103.425 0.
-2.34732 -6.43297 0.
-1000.53 -2750.87 0.
-12.531 -34.4803 0.
-138.618 -381.455 0.
-66.4021 -183.922 0.
4.96841 13.5935 0.
-0.0949949 -2.28352 0.
1.1689 3.18995 0.
-2.40548 -5.46538 0.
0.686782 1.6838 0.
0.752754 1.98914 0.
-45.7696 -126.008 0.
-6.27654 -16.8099 0.
0.197642 0.518327 0.
-18.0236 -41.3858 0.
-21.3831 -55.2196 0.
-77.1606 -207.416 0.
-24.5363 -65.0839 0.
-18.7126 -50.2889 0.
-213.429 -576.467 0.
-10.1498 -27.2734 0.
-7.5177 -20.7785 0.
-284.851 -754.674 0.
-22.559 -44.7806 0.
-27.8567 -66.0803 0.
-267.592 -596.668 0.
-202.608 -418.68 0.
-6.53 -16.9305 0.
-54.1023 -142.522 0.
-221.842 -614.302 0.
-18.2822 -45.1288 0.
-21.0419 -49.9234 0.
-208.053 -517.557 0.
-30.0711 -61.8953 0.
-28.9472 -45.3054 0.
-195.03 -538.197 0.
-22.7221 -26.6867 0.
-39.7145 -44.9315 0.
-46.7743 -73.7156 0.
0.0129773 0.0358221 0.
-20.6835 -57.2558 0.
-2.68359 -7.33545 0.
-2.22129 -6.13989 0.
-36.7407 -98.1168 0.
0.659765 1.57226 0.
0.621442 1.39062 0.
-0.161672 -5.52514 0.
-0.000481359 -7.99608 0.
-0.0327016 -1.77645 0.
4.81032 13.2585 0.
-1746.11 -4630.56 0.
8.32482 22.2333 0.
-7.51391 -20.63 0.
-1078.36 -2985.46 0.
11.7838 32.0643 0.
-160.807 -444.304 0.
8.16218 21.6086 0.
-565.416 -1498.88 0.
-1.38353 -39.0256 0.
-11.7046 -30.1092 0.
-4.7804 -12.0059 0.
-473.098 -1192.19 0.
6.61721 16.3528 0.
-2.91566 -52.3571 0.
-59.3438 -137.679 0.
6.41098 14.7354 0.
-3.94939 -9.23459 0.
6.87744 15.8034 0.
-598.708 -1432.82 0.
0.431841 1.00987 0.
-8.27327 -18.7486 0.
-7.76559 -69.8385 0.
-640.135 -1515.55 0.
3.32668 7.37047 0.
-131.194 -324.768 0.
-2.94256 -42.1098 0.
11.6526 31.2102 0.
0.975389 2.42162 0.
17.4158 38.2944 0.
-184.511 -432.344 0.
4.06641 9.10805 0.
-7.75516 -59.8669 0.
10.8598 23.9938 0.
-661.708 -1500.4 0.
-93.4357 -214.77 0.
-4.46175 -9.86215 0.
16.479 37.4487 0.
-352.491 -779.285 0.
-168.604 -377.592 0.
5.61724 13.4174 0.
-156.234 -376.426 0.
-461.086 -1076.51 0.
-30.7378 -71.9393 0.
-176.408 -426.729 0.
-15.756 -37.7754 0.
-112.16 -292.699 0.
-59.9918 -156.621 0.
-308.906 -818.231 0.
-7.31341 -19.263 0.
-878.612 -2429.85 0.
8.02625 21.7313 0.
3.49473 9.63184 0.
-4.59774 -12.6688 0.
-114.747 -316.193 0.
-0.0479742 -0.130628 0.
2.62805 6.79172 0.
-0.0266776 -0.988654 0.
-0.00169992 -0.509707 0.
-132.121 -365.524 0.
-1355.15 -3504.6 0.
-0.00971814 -4.13277 0.
-1041.91 -2844.75 0.
0.250189 0.68547 0.
-2.55194 -6.81683 0.
-1219.42 -3220.67 0.
-5.02313 -11.2095 0.
-938.179 -2227.18 0.
-223.383 -571.111 0.
-10.5582 -19.3187 0.
-1051.65 -2874.03 0.
-125.574 -337.555 0.
-16.1463 -37.2133 0.
-823.096 -2146.73 0.
-298.702 -791.147 0.
-5.96891 -14.0362 0.
-575.235 -1461.3 0.
-500.418 -1287.22 0.
-17.1077 -32.2709 0.
-344.767 -954.418 0.
-684.161 -1871.65 0.
-10.449 -28.8043 0.
-230.026 -607.25 0.
-937.962 -2508.37 0.
-18.5714 -28.5197 0.
-25.7488 -43.743 0.
-984.536 -2598.03 0.
-155.699 -348.39 0.
-1210.77 -2781.78 0.
-4.45614 -12.2826 0.
-1.36349 -3.77651 0.
-1260.85 -3435.6 0.
0.399083 1.10511 0.
-17.8394 -49.2324 0.
-823.382 -2154.62 0.
-0.67847 -1.60706 0.
0.00365741 0.0380049 0.
0.0846921 3.14486 0.
-0.00948239 -8.15927 0.
0.0143934 1.87295 0.
-0.00744713 -4.22036 0.
-42.9667 -118.735 0.
6.59851 17.4622 0.
-0.624477 -1.70397 0.
-2.16572 -5.89075 0.
12.679 34.561 0.
-345.568 -944.214 0.
-0.78213 -35.6966 0.
-353.968 -933.089 0.
6.52413 16.5692 0.
-48.5867 -124.303 0.
16.6299 40.4232 0.
-475.42 -1202.96 0.
-37.0595 -90.8061 0.
-3.02958 -50.6746 0.
26.689 60.1236 0.
-0.309302 -0.712584 0.
-359.29 -835.681 0.
-5.53737 -60.5023 0.
-14.6161 -32.7041 0.
-248.217 -578.689 0.
-187.375 -421.656 0.
26.5146 58.0185 0.
-58.4226 -131.209 0.
-5.44082 -12.263 0.
-351.838 -875.263 0.
-192.591 -459.56 0.
8.09463 18.5004 0.
-62.3396 -155.396 0.
14.7956 31.3523 0.
19.3164 42.6773 0.
0.749872 1.53238 0.
-57.6412 -123.529 0.
10.5199 23.039 0.
-213.06 -479.311 0.
-14.4419 -30.892 0.
-124.478 -273.376 0.
-77.5538 -168.677 0.
-388.455 -855.599 0.
-14.0557 -30.0278 0.
-118.552 -282.93 0.
-472.801 -1139.63 0.
-90.5584 -209.601 0.
21.2183 49.7709 0.
-123.182 -296.978 0.
7.04824 16.8272 0.
-669.416 -1748.2 0.
-33.9425 -88.9213 0.
-6.64646 -17.5804 0.
-6.35946 -16.7462 0.
-225.127 -618.431 0.
-0.0397839 -0.106235 0.
6.69802 18.4825 0.
-7.47611 -20.625 0.
-39.7726 -109.712 0.
-761.198 -2078.72 0.
-0.237046 -14.8934 0.
-1064.55 -2706.73 0.
1.97847 5.43368 0.
0.415551 1.14658 0.
1.09191 3.02372 0.
2.62699 7.11667 0.
0.0023991 0.00639136 0.
-1.19417 -3.0288 0.
-6.39057 -15.8485 0.
-5.44052 -14.0566 0.
-0.0229216 -0.901987 0.
-15.8137 -42.9864 0.
-5.81557 -16.0582 0.
-1.39825 -3.78618 0.
-192.153 -525.199 0.
-7.36799 -19.3539 0.
-16.2394 -44.1924 0.
-100.656 -259.414 0.
-6.32808 -17.3638 0.
-4.8109 -11.9572 0.
-89.7335 -215.579 0.
-33.6416 -52.2168 0.
-17.0616 -29.4364 0.
-11.561 -22.3121 0.
-84.2213 -214.454 0.
-13.8047 -36.6142 0.
-5.77451 -14.183 0.
-63.6686 -124.947 0.
-7.1171 -13.6309 0.
-11.8229 -25.1357 0.
-25.2661 -54.6524 0.
-5.75279 -14.7502 0.
-289.691 -791.507 0.
-0.76294 -2.11255 0.
0.222501 0.61475 0.
0.271691 0.741045 0.
-0.00155648 -0.454601 0.
-0.000111164 -0.973442 0.
-50.3821 -139.508 0.
0.918871 2.48913 0.
-1537.15 -4034.35 0.
-0.0345972 -12.5872 0.
3.67489 9.8896 0.
-930.587 -2457.35 0.
-0.00471402 -18.2248 0.
3.23786 8.94396 0.
-0.405256 -17.3304 0.
-3.44964 -9.34939 0.
3.07545 8.29355 0.
-0.290075 -29.3109 0.
-549.688 -1491.29 0.
-38.2098 -98.6314 0.
-68.7462 -180.272 0.
5.40613 13.6482 0.
-805.811 -2048.93 0.
-2.03349 -4.91133 0.
4.40373 10.4671 0.
-176.993 -429.552 0.
-692.23 -1662.3 0.
18.2464 40.5793 0.
-5.99976 -13.0849 0.
-488.547 -1128.71 0.
-205.114 -465.237 0.
17.8781 39.8486 0.
13.651 29.8385 0.
-362.657 -809.285 0.
4.31057 9.36337 0.
-494.444 -1119.45 0.
-9.39388 -20.1619 0.
-7.96041 -49.9652 0.
16.2232 36.9524 0.
18.5528 42.4463 0.
-56.3503 -140.144 0.
-3.33604 -7.14129 0.
-110.741 -247.371 0.
-14.8207 -30.3862 0.
-674.222 -1452.46 0.
8.84232 19.1805 0.
-14.8678 -30.8256 0.
13.0325 27.6988 0.
-864.467 -1882.5 0.
17.1408 37.158 0.
12.8865 26.744 0.
-212.864 -455.811 0.
-323.862 -772.686 0.
-258.58 -622.111 0.
-4.7729 -10.844 0.
19.51 45.4618 0.
-634.007 -1522.67 0.
-277.5 -660.142 0.
13.892 35.8324 0.
11.8055 30.4161 0.
-644.175 -1699.54 0.
-3.54247 -9.32571 0.
8.70048 23.6841 0.
-0.76267 -34.8644 0.
-30.6714 -83.691 0.
-559.576 -1544.82 0.
5.25588 14.5345 0.
4.5334 12.2771 0.
6.56113 17.3138 0.
-0.119989 -9.2332 0.
1.29758 3.58425 0.
2.72579 7.49606 0.
2.52583 6.88931 0.
0.0359058 0.991936 0.
0.0123244 0.0256811 0.
-4.79911 -10.4944 0.
-15.8559 -35.9875 0.
0.0168399 0.046289 0.
-0.000545678 -0.739233 0.
0.000126535 0.246433 0.
-5.47016 -14.8943 0.
-1.61825 -4.21092 0.
-11.6284 -28.533 0.
-9.79815 -26.1173 0.
-18.6263 -50.1859 0.
-15.2217 -36.1109 0.
-12.4917 -25.8928 0.
-9.53744 -18.8866 0.
-21.6089 -44.2113 0.
-23.3415 -43.878 0.
-33.3413 -51.5897 0.
-24.6416 -43.3747 0.
-23.7415 -52.7176 0.
-19.6606 -43.9131 0.
-11.8053 -23.8675 0.
-13.049 -19.8065 0.
-15.07 -23.2651 0.
-21.3848 -39.4421 0.
-33.1226 -70.1854 0.
-2.57592 -6.10601 0.
-9.86539 -25.2813 0.
-0.168072 -0.465334 0.
-0.00255106 -0.874615 0.
-0.00932616 -0.947043 0.
-0.00947007 -0.959442 0.
0.201674 0.555024 0.
-33.2914 -92.0106 0.
2.09375 5.79903 0.
-0.247353 -0.664355 0.
-0.0115387 -10.1533 0.
-0.0536993 -6.81138 0.
4.4504 11.7823 0.
0.726328 2.00372 0.
-496.551 -1372.02 0.
4.1126 11.2755 0.
-590.48 -1622.19 0.
-4.02001 -10.7312 0.
2.83399 7.59996 0.
-309.174 -831.964 0.
-29.11 -75.0561 0.
-311.845 -804.826 0.
13.3198 32.4732 0.
-139.121 -351.811 0.
-46.4025 -111.31 0.
-260.526 -614.97 0.
-11.8053 -26.241 0.
-222.183 -529.15 0.
-722.718 -1582.21 0.
20.7996 44.7507 0.
-5.7521 -12.3461 0.
-224.493 -505.444 0.
-523.363 -1160.81 0.
-84.3857 -183.669 0.
-175.825 -368.031 0.
-1.46541 -3.16277 0.
-73.3045 -167.694 0.
-279.772 -605.229 0.
23.971 49.0358 0.
11.5266 26.5397 0.
18.1208 39.8178 0.
-66.7806 -169.985 0.
16.1436 34.948 0.
-290.584 -657.198 0.
-260.478 -536.312 0.
-3.58235 -7.11277 0.
17.2094 34.2121 0.
-675.299 -1400.4 0.
-146.823 -309.84 0.
10.3721 20.6105 0.
-5.51992 -11.1267 0.
-529.576 -1101.51 0.
-245.339 -526.809 0.
2.69764 6.22447 0.
22.186 51.5977 0.
19.2132 43.3344 0.
-451.064 -1044.24 0.
-22.4215 -53.6086 0.
19.5151 44.7942 0.
3.5674 9.11913 0.
-7.88452 -20.1217 0.
-240.528 -635.303 0.
1.52383 4.01035 0.
-47.3517 -126.869 0.
-3.13533 -8.46881 0.
8.51071 23.1587 0.
-278.767 -772.105 0.
-0.808106 -2.21429 0.
4.76539 12.7976 0.
0.655307 1.7109 0.
1.98854 5.40632 0.
4.04559 11.0694 0.
-0.00503237 -13.6224 0.
-1190.56 -3282.44 0.
-0.00621638 -1.48896 0.
-1074.09 -2101.52 0.
-59.3035 -109.403 0.
-27.091 -59.9775 0.
-1174.01 -3125.71 0.
-0.00390838 -0.167432 0.
0.10759 1.06234 0.
-1340.57 -3394.56 0.
-0.0109276 -0.198374 0.
-830.793 -2213.29 0.
-12.6909 -26.0411 0.
-25.2541 -47.9367 0.
-893.276 -2416.41 0.
-144.437 -367.803 0.
-28.5122 -60.5527 0.
-576.133 -1519.05 0.
-440.641 -1214.25 0.
-17.7109 -39.8793 0.
-257.449 -606.958 0.
-830.941 -2220.29 0.
-22.9772 -44.3326 0.
-68.6465 -106.999 0.
-1001.22 -2667.16 0.
-24.0474 -58.229 0.
-17.5753 -48.2849 0.
-1159.9 -2708.53 0.
0.0896171 0.162811 0.
-1156.42 -2919.92 0.
-0.0173736 -0.22436 0.
0.468056 1.28181 0.
-1263.18 -3426.05 0.
-9.41342 -25.9397 0.
0.119647 0.310475 0.
-1095.04 -2334.36 0.
-0.00346059 -5.0757 0.
-702.071 -1893.8 0.
-0.278079 -0.763855 0.
1.09541 2.99884 0.
4.92929 13.209 0.
6.06237 16.494 0.
-210.709 -583.3 0.
-10.5343 -28.7961 0.
-332.532 -911.061 0.
-5.71434 -15.3642 0.
-109.483 -293.715 0.
-19.111 -49.1975 0.
-32.8325 -84.5588 0.
-386.11 -996.103 0.
11.4389 27.68 0.
14.5186 34.9897 0.
-184.579 -439.418 0.
-677.983 -1586.25 0.
-219.601 -484.676 0.
22.7238 49.8739 0.
-4.32514 -8.73375 0.
-71.9839 -152.6 0.
-57.9692 -123.925 0.
-17.9135 -37.7264 0.
-4.68304 -9.73164 0.
-219.334 -475.231 0.
-301.731 -635.051 0.
8.71869 17.3269 0.
-8.74637 -41.3542 0.
-291.311 -636.582 0.
15.4975 31.9533 0.
-217.535 -507.211 0.
-7.80059 -17.3341 0.
12.9721 32.6049 0.
10.5199 21.8047 0.
-5.74365 -12.5774 0.
-4.15123 -8.02964 0.
-283.391 -562.232 0.
-15.7722 -31.3463 0.
-567.961 -1178.15 0.
-8.79121 -43.7766 0.
-3.04818 -6.0582 0.
9.36739 18.935 0.
-237.532 -495.741 0.
14.094 29.0686 0.
6.17678 14.0983 0.
-71.2709 -163.844 0.
-292.878 -654.894 0.
10.5918 22.5589 0.
-7.77264 -17.5159 0.
5.24504 12.022 0.
-647.243 -1637.04 0.
-231.709 -585.466 0.
-15.9428 -40.6042 0.
11.4702 29.2728 0.
-512.716 -1366.88 0.
-79.064 -212.755 0.
-23.3631 -63.3783 0.
-45.8431 -126.529 0.
-0.137815 -13.4533 0.
-817.665 -2252.15 0.
6.2828 16.9416 0.
-839.131 -2275.2 0.
5.12549 14.1308 0.
5.52248 15.2946 0.
-0.0154673 -4.83159 0.
-0.189062 -11.2327 0.
1.31349 2.43795 0.
0.957403 1.97758 0.
-0.0197281 -0.276248 0.
0.000297922 0.577983 0.
1.05228 2.74377 0.
-0.0122098 -0.140679 0.
-0.00943121 -0.150349 0.
-0.0140974 -0.226117 0.
-16.898 -34.0897 0.
-15.6254 -31.0022 0.
-20.4934 -39.4433 0.
-32.0478 -62.6473 0.
-19.8591 -44.1917 0.
-21.6477 -51.9094 0.
-44.6644 -84.7896 0.
-20.3158 -39.3885 0.
-12.651 -31.9515 0.
-14.4003 -35.1904 0.
-30.2894 -58.4005 0.
-19.9728 -40.2523 0.
-20.4892 -40.8322 0.
-20.7511 -41.631 0.
-24.861 -58.7249 0.
-17.4991 -38.3969 0.
-24.2921 -53.4763 0.
-0.0839178 -0.512818 0.
-0.0922847 -0.526108 0.
-0.204494 -1.84787 0.
-0.0650183 -2.43948 0.
0.343893 0.94824 0.
-0.00155044 -3.7071 0.
-0.0453574 -2.83423 0.
-0.0669945 -0.166277 0.
-0.0311901 -13.8748 0.
-0.00698356 -10.3812 0.
-0.00131716 -10.7836 0.
-1090.61 -2987.9 0.
6.84851 18.5766 0.
-91.6953 -250.274 0.
-111.605 -307.002 0.
-13.2157 -36.0078 0.
-188.748 -515.667 0.
-9.98697 -26.7822 0.
-160.973 -430.769 0.
4.34525 11.178 0.
2.74248 7.07045 0.
-217.177 -559.529 0.
-230.942 -554.794 0.
-279.274 -667.527 0.
-4.34061 -9.879 0.
14.1248 32.0186 0.
-370.151 -811.189 0.
-262.415 -571.851 0.
10.0463 20.3058 0.
14.7336 29.2703 0.
-396.486 -843.605 0.
-103.755 -217.635 0.
-209.588 -437.201 0.
24.5904 48.7823 0.
-133.967 -283.543 0.
-535.523 -1069.01 0.
16.497 31.0728 0.
-11.78 -23.5325 0.
-6.55797 -34.1153 0.
-5.3764 -12.1223 0.
-6.3556 -13.8498 0.
-1.97833 -3.95416 0.
14.0095 29.681 0.
-288.737 -648.153 0.
-53.8817 -104.063 0.
-302.209 -599.053 0.
18.4879 34.6772 0.
7.53473 14.2184 0.
-3.71227 -7.08128 0.
-668.883 -1324.11 0.
-12.4766 -25.3 0.
-9.08217 -17.7597 0.
15.3494 34.3999 0.
-219.937 -495.772 0.
-369.032 -836.419 0.
1.38324 2.88991 0.
-72.2174 -153.505 0.
-203.55 -458.197 0.
-303.78 -695.056 0.
-60.1901 -145.781 0.
0.934701 2.25521 0.
-383.959 -972.007 0.
-1.37863 -35.9418 0.
-104.318 -265.374 0.
-364.977 -976.878 0.
0.26621 0.712469 0.
-352.143 -967.003 0.
1.72831 4.73604 0.
-12.9696 -35.6149 0.
6.35687 17.0256 0.
4.02453 10.3309 0.
-0.00643427 -15.8528 0.
-0.0024405 -2.85763 0.
-0.0970462 -8.42712 0.
-0.0554512 -1.67006 0.
1.49607 3.13739 0.
-0.0813362 -0.964162 0.
-105.522 -282.924 0.
-951.762 -2611.2 0.
-0.227721 -0.610729 0.
1.24244 3.18515 0.
-1002 -2393.67 0.
0.238995 0.614405 0.
-937.721 -2246.16 0.
-24.2359 -54.3768 0.
-19.3656 -41.9959 0.
-818.855 -2230.37 0.
-13.6708 -31.5255 0.
-6.77852 -17.0655 0.
-532.862 -1400.84 0.
-389.96 -1033.55 0.
-11.5095 -28.943 0.
-162.99 -277.724 0.
-799.692 -2140.41 0.
-5.16087 -10.3548 0.
-1.01939 -1.99214 0.
-972.702 -2556.15 0.
-16.0104 -39.2066 0.
-5.96042 -15.9381 0.
-943.143 -2006.27 0.
-0.00158769 -0.511789 0.
-968.662 -2639.71 0.
0.0261179 1.38901 0.
0.924935 2.55988 0.
-615.281 -1699.79 0.
1.95408 5.41171 0.
-0.00604771 -0.646922 0.
-0.208105 -5.18699 0.
-0.0479198 -4.44939 0.
0.665063 1.83837 0.
7.51194 20.7676 0.
-118.266 -326.574 0.
10.5281 28.3198 0.
9.40569 25.5093 0.
-373.696 -1019.28 0.
-10.1925 -27.5315 0.
-164.343 -443.704 0.
-17.2054 -46.0151 0.
-428.249 -1142.82 0.
4.60485 11.7531 0.
0.957568 2.4504 0.
-13.929 -33.5902 0.
2.16789 5.21418 0.
-263.77 -625.709 0.
-211.973 -479.676 0.
-28.8215 -65.0479 0.
-5.47824 -40.3925 0.
-82.3066 -178.108 0.
-811.84 -1645.41 0.
0.487134 0.968802 0.
6.69657 13.5528 0.
-184.243 -384.815 0.
-217.22 -455.274 0.
-306.468 -609.821 0.
3.04797 5.76488 0.
-9.81668 -17.7706 0.
-35.7968 -67.571 0.
-359.28 -721.028 0.
11.6467 22.6181 0.
1.43985 3.28285 0.
-5.04766 -11.1199 0.
17.1991 35.155 0.
-89.2961 -193.883 0.
-59.6857 -135.003 0.
-5.36432 -9.80411 0.
-5.19603 -9.868 0.
-10.4981 -46.5219 0.
-434.736 -804.86 0.
-491.23 -933.506 0.
24.807 44.9656 0.
31.0691 57.4988 0.
-501.233 -979.729 0.
-191.518 -423.829 0.
5.28015 11.7652 0.
-1.69461 -3.63273 0.
-71.9631 -150.017 0.
-800.2 -1695.7 0.
-2.01985 -4.53695 0.
3.67702 8.07479 0.
-43.8589 -105.829 0.
-186.841 -449.115 0.
-183.955 -463.601 0.
-17.8393 -45.0354 0.
8.00677 20.7026 0.
-50.4285 -135.092 0.
7.06358 18.7839 0.
-168.873 -462.18 0.
-2.77315 -7.56435 0.
-0.130387 -23.466 0.
-0.223399 -13.1404 0.
-0.32449 -9.1054 0.
-547.868 -1480.95 0.
-0.104701 -20.4653 0.
-637.436 -1747.12 0.
-0.000397815 -11.1639 0.
-635.899 -1590.62 0.
1.77505 4.41334 0.
-0.0120481 -3.48967 0.
-27.2397 -72.0178 0.
0.240857 0.614099 0.
1.46752 3.48781 0.
-4.03408 -10.6847 0.
0.113503 0.274561 0.
-8.38188 -17.4544 0.
-3.51966 -9.39436 0.
-5.80015 -15.6262 0.
-8.00767 -20.101 0.
-4.8409 -12.4276 0.
-14.1839 -31.5998 0.
-23.4789 -49.2929 0.
-18.1209 -39.7168 0.
-18.1855 -40.0915 0.
-8.83006 -18.2671 0.
-3.45886 -6.24997 0.
-10.895 -24.3426 0.
-4.13894 -11.2855 0.
-11.2122 -31.0336 0.
-5.34176 -14.3915 0.
0.0296679 0.0817088 0.
-10.5138 -19.6581 0.
-0.000543902 -1.43354 0.
-9.80437 -26.4982 0.
0.0376876 1.11437 0.
1.5412 4.2084 0.
-0.000126949 -3.74955 0.
-0.0301872 -6.92483 0.
-1218.66 -2999.65 0.
2.19519 6.03068 0.
4.61555 12.6517 0.
-779.48 -2141.51 0.
0.429475 1.18911 0.
-0.000526337 -21.7911 0.
-2.41571 -6.43815 0.
-3.87597 -10.4313 0.
-223.539 -606.286 0.
0.410427 1.11021 0.
-284.217 -768.519 0.
5.70391 14.9987 0.
-7.80215 -20.6128 0.
-348.539 -883.548 0.
-145.53 -369.668 0.
-223.092 -536.467 0.
-25.9143 -62.1732 0.
-26.2945 -62.9277 0.
-87.2464 -196.798 0.
-559.659 -1253.5 0.
-245.989 -516.487 0.
6.97531 14.3025 0.
-72.3559 -146.627 0.
3.69047 7.34861 0.
-1.15903 -2.33519 0.
8.75963 17.0193 0.
8.10355 15.2076 0.
-414.119 -827.426 0.
-11.318 -21.4354 0.
-38.7055 -69.8172 0.
1.61416 2.858 0.
-12.0117 -23.1549 0.
12.2727 23.9512 0.
-80.5255 -185.789 0.
-6.26839 -13.966 0.
-3.07976 -17.8175 0.
7.916 16.6096 0.
-8.46929 -33.3616 0.
13.5354 24.9745 0.
-137.519 -263.842 0.
-103.701 -187.559 0.
-144.702 -262.97 0.
6.24277 11.116 0.
-206.157 -368.725 0.
-10.0446 -18.5684 0.
-452.605 -885.141 0.
12.242 24.7146 0.
1.76911 3.66832 0.
18.4355 39.2989 0.
-374.147 -777.658 0.
-112.879 -238.798 0.
-5.24852 -41.1979 0.
-321.602 -709.266 0.
-70.2792 -168.947 0.
-32.1846 -77.0716 0.
6.94727 17.6929 0.
9.6972 24.8254 0.
2.96515 7.63212 0.
-282.653 -752.418 0.
1.2488 3.29837 0.
-4.70994 -12.8339 0.
-2.47765 -6.7229 0.
-258.234 -700.172 0.
-95.3722 -258.794 0.
-109.694 -297.818 0.
-123.043 -337.799 0.
8.28195 22.8904 0.
-0.00579525 -14.1105 0.
1.74703 4.82783 0.
6.02215 16.3486 0.
-0.188219 -8.6601 0.
2.27682 6.30393 0.
-5.67796 -14.443 0.
0.501225 1.20763 0.
-0.227504 -2.10299 0.
-0.119188 -0.301635 0.
0.182371 0.419957 0.
-3.22143 -7.85744 0.
-3.49089 -9.44984 0.
-4.76317 -13.1885 0.
-3.55677 -9.37237 0.
-13.246 -27.9893 0.
-21.7792 -48.1689 0.
-24.3473 -51.7492 0.
-18.4913 -41.7563 0.
-26.3706 -50.157 0.
-16.1351 -28.712 0.
-10.776 -16.8621 0.
-18.143 -39.5346 0.
-9.84303 -27.0732 0.
-13.4582 -36.1652 0.
-6.32049 -17.4957 0.
0.0928514 0.254635 0.
0.0412714 0.104401 0.
-0.00312373 -0.743648 0.
-0.00139041 -0.846182 0.
-0.213263 -4.6585 0.
-0.0532124 -3.64568 0.
-0.00522046 -2.86277 0.
3.80505 10.5324 0.
2.67255 7.15737 0.
2.0663 5.71231 0.
-0.0250875 -16.924 0.
-75.8647 -209.142 0.
5.79643 16.0408 0.
-254.359 -704.466 0.
-11.0294 -29.6353 0.
-46.9043 -126.032 0.
-5.75738 -15.5966 0.
10.7146 29.0225 0.
-260.445 -705.401 0.
10.0468 26.2099 0.
-26.3706 -69.1609 0.
5.36594 13.4775 0.
-10.5145 -26.3023 0.
-223.204 -535.156 0.
-336.811 -805.662 0.
-81.1813 -193.789 0.
-7.46758 -16.7667 0.
13.4673 30.1517 0.
-292.731 -611.66 0.
-6.65346 -42.3499 0.
-11.74 -22.2422 0.
21.6373 39.6824 0.
-114.745 -230.092 0.
-240.19 -463.575 0.
7.69244 14.3479 0.
17.1319 31.3999 0.
-18.8123 -35.6875 0.
-280.558 -504.696 0.
-10.2221 -18.0276 0.
-52.0055 -100.702 0.
-8.61499 -16.1206 0.
-4.13643 -7.48373 0.
0.409022 0.876023 0.
3.48716 7.00922 0.
-2.17187 -4.61298 0.
-10.1039 -18.1092 0.
-324.533 -605.222 0.
-66.0284 -116.594 0.
8.45815 14.2037 0.
13.7333 23.4622 0.
25.1248 44.1866 0.
-591.876 -1045.16 0.
-8.75156 -16.166 0.
-8.83157 -36.5817 0.
7.0343 14.1069 0.
-273.125 -563.28 0.
-437.125 -927.962 0.
9.62464 18.7383 0.
-11.8098 -23.4258 0.
-3.5512 -7.64146 0.
-532.525 -1179.56 0.
-29.899 -71.5958 0.
-3.66395 -8.76683 0.
8.02403 19.3968 0.
-138.292 -352.405 0.
-36.6424 -93.8628 0.
-236.716 -626.324 0.
-2.70477 -6.99465 0.
-95.0907 -256.748 0.
7.13534 19.2378 0.
-119.356 -321.478 0.
-42.29 -114.294 0.
-75.0398 -202.885 0.
4.80728 13.295 0.
-1.26881 -3.51384 0.
4.00838 11.0994 0.
-0.068165 -17.8496 0.
-129.322 -352.532 0.
-684.231 -1839.01 0.
-0.100855 -9.11083 0.
-626.403 -1481.45 0.
1.55079 3.97583 0.
-24.3278 -65.9075 0.
-792.395 -1940.24 0.
0.682433 1.88973 0.
-815.851 -1913.82 0.
-20.9131 -51.8228 0.
0.124394 0.180797 0.
-733.129 -1938.38 0.
-31.9474 -69.4435 0.
-21.5298 -44.5578 0.
-409.198 -1131.64 0.
-352.709 -953.885 0.
-66.3019 -102.429 0.
-95.3485 -163.661 0.
-662.776 -1707.89 0.
-20.751 -54.5979 0.
-2.249 -6.09775 0.
-848.262 -2210.07 0.
-0.101418 -0.271459 0.
-7.44905 -20.5606 0.
-821.345 -1492.62 0.
-0.0140227 -2.24074 0.
-808.055 -2238.17 0.
0.921415 2.55205 0.
1.75635 4.54153 0.
-738.698 -1618.79 0.
-0.00384603 -5.08772 0.
-473.101 -1303.73 0.
0.52574 1.4562 0.
5.95179 16.4799 0.
-73.8633 -204.406 0.
-0.534281 -1.47142 0.
-1.00147 -2.77102 0.
-2.65041 -7.12307 0.
-152.716 -410.5 0.
2.08779 5.64798 0.
9.33063 25.2145 0.
9.37538 25.4253 0.
-70.5953 -182.646 0.
-261.556 -680.779 0.
-2.59043 -6.51107 0.
-127.092 -318.202 0.
10.5265 24.8453 0.
-103.66 -247.332 0.
-174.316 -414.936 0.
-442.417 -995.29 0.
-4.02826 -33.5883 0.
1.43031 2.83396 0.
-118.456 -240.126 0.
-449.514 -850.542 0.
-6.40714 -11.7421 0.
-4.14174 -7.3746 0.
8.10082 15.5649 0.
21.5424 39.9253 0.
20.9062 37.4643 0.
-5.86646 -10.3527 0.
-4.03243 -6.90551 0.
-183.447 -322.475 0.
-241.405 -470.44 0.
-10.3354 -19.419 0.
-8.2936 -15.0546 0.
-2.89462 -6.32076 0.
13.4211 27.2988 0.
-20.1305 -43.3638 0.
-7.00618 -12.6947 0.
-11.0105 -19.2864 0.
-1.0719 -1.75144 0.
-229.128 -380.321 0.
-321.017 -541.544 0.
-23.2533 -40.3565 0.
-11.2499 -35.8969 0.
-10.112 -17.4362 0.
-513.825 -914.164 0.
-6.79961 -13.541 0.
2.39119 4.54232 0.
12.9761 25.5676 0.
-12.0214 -23.3292 0.
-555.633 -1096.08 0.
-104.132 -225.136 0.
7.01453 15.4052 0.
-7.24583 -17.0998 0.
-131.498 -313.417 0.
-264.089 -635.88 0.
-369.479 -935.982 0.
-17.8123 -44.1038 0.
10.2046 26.2777 0.
5.27944 13.6196 0.
-285.688 -771.87 0.
-6.65159 -17.939 0.
-19.3408 -52.0941 0.
-122.442 -329.427 0.
-71.9717 -193.702 0.
-507.419 -1401.62 0.
8.66725 23.8695 0.
-475.407 -1316.36 0.
-3.10551 -8.56493 0.
4.69381 12.8416 0.
4.90279 13.537 0.
-9.23137e-05 -8.00285 0.
-0.44661 -1.10467 0.
0.451564 1.1853 0.
2.15034 5.88474 0.
-0.0309995 -4.37125 0.
0.0100017 1.41451 0.
-5.26451 -12.777 0.
-0.0599905 -0.122456 0.
0.115738 0.177921 0.
-38.4099 -73.198 0.
-23.001 -36.6843 0.
-20.4049 -44.419 0.
-24.9803 -46.292 0.
-30.6519 -55.3205 0.
-7.89943 -15.0956 0.
-2.45233 -5.62112 0.
-6.61448 -16.5388 0.
-30.013 -67.1005 0.
-3.43348 -9.43206 0.
-34.7906 -44.0371 0.
0.0809575 0.219269 0.
0.0845296 0.232866 0.
-5.67071 -15.6493 0.
-0.048375 -1.55116 0.
-0.673567 -1.85603 0.
-0.000508707 -8.06906 0.
-0.0212625 -1.06866 0.
-0.501125 -7.18174 0.
2.69546 7.41987 0.
1.28522 3.55455 0.
-234.733 -644.455 0.
-348.666 -964.556 0.
-58.7274 -160.545 0.
-3.10602 -8.48074 0.
5.51415 15.1926 0.
-9.03156 -24.2784 0.
-350.282 -941.904 0.
1.80407 4.87444 0.
-15.7913 -42.6205 0.
-189.545 -511.015 0.
7.06002 18.0789 0.
-6.91487 -17.7319 0.
-210.472 -529.194 0.
-386.001 -966.4 0.
-12.522 -29.5046 0.
-1.11925 -2.59837 0.
-3.10911 -34.351 0.
-200.206 -452.572 0.
9.3383 20.3154 0.
-149.301 -294.357 0.
8.72219 16.8452 0.
-3.13275 -5.934 0.
19.9603 36.5641 0.
-4.16819 -7.38983 0.
16.9995 28.7762 0.
-10.3426 -32.1134 0.
-177.897 -310.492 0.
-18.7793 -32.36 0.
-3.87072 -6.61965 0.
-12.102 -20.3344 0.
-11.3527 -18.7466 0.
-21.7653 -41.0914 0.
-9.53282 -17.3705 0.
-61.9361 -138.148 0.
-4.711 -9.27738 0.
-4.79467 -9.71784 0.
-12.9286 -21.8664 0.
3.63757 6.32896 0.
6.72261 10.8589 0.
-325.577 -533.675 0.
-2.02209 -3.14378 0.
2.50173 4.02166 0.
-63.0841 -102.438 0.
-11.4906 -19.5025 0.
-453.613 -795.168 0.
-6.27168 -26.6334 0.
7.8934 14.876 0.
-46.4777 -90.9503 0.
0.12561 0.242985 0.
-20.9146 -41.23 0.
11.7516 25.3026 0.
-128.566 -283.028 0.
11.15 26.2158 0.
-101.178 -240.264 0.
-27.1668 -65.2034 0.
-16.4763 -40.8712 0.
-11.7376 -29.0935 0.
-212.966 -546.894 0.
4.03415 10.381 0.
-25.3108 -68.372 0.
9.66006 26.0588 0.
-1.38583 -3.71784 0.
-105.571 -281.221 0.
-33.3673 -88.6168 0.
-24.185 -66.478 0.
-0.145708 -26.2773 0.
0.412203 1.14161 0.
6.31007 17.4227 0.
-3.32371 -9.11362 0.
0.0229687 0.0634092 0.
-0.0655866 -8.9497 0.
1.39318 3.54193 0.
-0.0777601 -4.82565 0.
-0.00167507 -0.567039 0.
-543.676 -1490.79 0.
1.11293 2.92936 0.
-699.042 -1237.95 0.
-11.0731 -30.2603 0.
-0.0373133 -0.155812 0.
-640.535 -1646.32 0.
-24.3986 -58.6878 0.
-12.2887 -14.585 0.
-272.039 -727.811 0.
-348.835 -965.713 0.
-20.3609 -50.0005 0.
-33.4655 -80.9994 0.
-490.799 -1278.44 0.
-72.697 -68.3904 0.
-19.3906 -41.3267 0.
-416.147 -962.227 0.
0.194882 0.520163 0.
-605.067 -1645.31 0.
0.0183063 0.43539 0.
-165.528 -455.872 0.
-0.0481632 -3.54966 0.
4.02672 11.1505 0.
0.0342444 2.35294 0.
2.96989 7.34683 0.
6.31995 16.8976 0.
-0.143269 -19.837 0.
-71.0777 -194.902 0.
-115.252 -318.699 0.
4.67523 12.724 0.
3.56889 9.70349 0.
-230.008 -625.442 0.
8.6281 22.6798 0.
-35.6332 -93.7061 0.
-105.237 -283.949 0.
-167.891 -452.464 0.
-184.373 -472.643 0.
11.9296 30.6221 0.
4.78863 12.309 0.
-1.5616 -30.9571 0.
-13.0514 -32.72 0.
-184.111 -432.72 0.
-140.307 -325.04 0.
-13.2368 -29.9554 0.
3.89616 8.58996 0.
8.65262 18.9199 0.
-564.043 -1104.71 0.
16.4609 31.6126 0.
2.16058 3.88888 0.
10.7474 18.5567 0.
13.7895 24.4208 0.
-355.743 -593.51 0.
-6.73442 -10.8447 0.
8.25148 12.6054 0.
-15.3077 -23.5846 0.
-218.66 -372.82 0.
-126.532 -212.158 0.
6.36018 10.4853 0.
4.5791 8.24051 0.
-0.203221 -0.351248 0.
9.71011 21.2761 0.
6.83719 13.6673 0.
-83.9161 -172.8 0.
-59.8582 -100.447 0.
-297.761 -514.731 0.
26.614 39.4757 0.
20.6275 31.2088 0.
7.25183 11.3588 0.
-129.519 -204.683 0.
-395.161 -629.699 0.
-2.5122 -3.94704 0.
-13.5397 -21.6223 0.
9.48611 17.089 0.
-298.771 -558.276 0.
-399.241 -775.603 0.
-0.0342175 -0.0644414 0.
11.9902 23.3444 0.
-2.00761 -4.33574 0.
-386.223 -852.139 0.
-70.1042 -164.107 0.
-6.11033 -14.2807 0.
9.47583 22.3573 0.
-28.8071 -71.5306 0.
-272.875 -676.516 0.
-150.065 -384.354 0.
1.28361 3.29455 0.
-104.17 -278.769 0.
-11.1014 -29.7452 0.
5.6131 15.0631 0.
-115.429 -307.687 0.
-13.5256 -35.9432 0.
-22.1491 -60.429 0.
6.82628 18.4735 0.
-0.432677 -1.15852 0.
6.98762 19.3104 0.
5.6889 15.7522 0.
-392.288 -1086.35 0.
3.48199 9.61937 0.
-425.869 -1044.76 0.
-0.143673 -10.6402 0.
-0.209066 -0.579075 0.
-36.9961 -96.779 0.
2.02935 4.86096 0.
0.169551 0.450902 0.
0.0147843 0.1896 0.
0.314193 0.636879 0.
-37.1785 -100.698 0.
-10.556 -13.4264 0.
-0.121765 -0.10539 0.
-18.0636 -28.799 0.
-10.1335 -18.314 0.
-18.6939 -36.983 0.
-7.89441 -16.9349 0.
-8.11103 -19.206 0.
-0.0506165 -0.13249 0.
-0.107021 -0.271597 0.
-10.7214 -29.4716 0.
-3.37073e-05 -0.0234779 0.
0.587086 1.42141 0.
-0.715778 -10.4647 0.
-0.00743579 -2.46258 0.
-273.926 -746.942 0.
-0.0726652 -7.2015 0.
-622.042 -1647.07 0.
-0.235962 -0.641158 0.
3.29995 9.03583 0.
-364.432 -1002.02 0.
-2.90815 -7.95744 0.
-4.72059 -13.0386 0.
-0.24354 -25.774 0.
3.72002 10.0663 0.
-24.8186 -67.1195 0.
-6.47444 -17.0366 0.
-66.2595 -174.415 0.
-15.3431 -40.5964 0.
-51.1674 -135.936 0.
10.2693 26.3857 0.
-95.5176 -245.769 0.
-68.4895 -176.463 0.
-239.982 -590.447 0.
11.3169 27.5737 0.
0.773839 1.75078 0.
-128.932 -298.096 0.
-349.255 -793.994 0.
-361.36 -801.36 0.
-0.698869 -1.50959 0.
16.2635 30.9653 0.
-58.5485 -111.741 0.
-596.767 -1068.1 0.
9.30235 15.9225 0.
18.8965 31.0807 0.
16.8418 25.8494 0.
-8.23984 -13.0461 0.
-165.557 -248.071 0.
-16.654 -25.195 0.
0.94508 1.50012 0.
20.3 31.6431 0.
5.25167 8.64145 0.
-189.459 -342.125 0.
-4.19804 -7.2732 0.
10.9808 24.7832 0.
-23.1792 -47.0872 0.
-2.66555 -4.30537 0.
-5.60201 -8.72265 0.
17.9493 28.1516 0.
-16.2603 -23.9374 0.
-454.002 -681.656 0.
-150.782 -232.05 0.
24.523 35.6888 0.
13.646 20.2859 0.
0.882267 1.36607 0.
-460.605 -724.342 0.
-3.30274 -5.88556 0.
1.62223 2.89325 0.
1.29922 2.41004 0.
7.18801 13.5412 0.
-636.17 -1240.43 0.
14.2007 30.7721 0.
6.14144 13.3228 0.
9.36245 21.6088 0.
-2.12832 -4.9585 0.
-307.64 -723.505 0.
-76.7871 -190.836 0.
2.82348 7.01333 0.
-10.7995 -27.312 0.
-0.507071 -1.27983 0.
-75.5129 -190.169 0.
-79.0517 -211.921 0.
-46.1893 -124.009 0.
-124.441 -331.931 0.
-2.75237 -7.31848 0.
-63.9441 -174.162 0.
-9.9364 -27.0679 0.
-119.248 -324.821 0.
-102.781 -284.68 0.
1.95509 5.41372 0.
-3.82433 -10.5722 0.
-0.0505094 -9.71009 0.
3.00269 8.01459 0.
-0.161845 -14.7039 0.
5.14156 14.2404 0.
-35.628 -87.5268 0.
2.72927 5.99374 0.
6.47743 11.8876 0.
-0.0161974 -0.281282 0.
0.444838 0.965768 0.
-33.8891 -81.4354 0.
0.0806418 0.0873721 0.
-0.0150549 -0.0130446 0.
-13.8359 -19.6496 0.
-4.58168 -10.7061 0.
-47.0817 -57.1329 0.
-37.8567 -35.7912 0.
-45.3151 -47.7661 0.
-0.0736438 -0.180648 0.
-0.154342 -0.366717 0.
-0.506411 -1.17701 0.
1.21978e-05 0.30095 0.
1.15493 3.01136 0.
-1.15168 -13.9856 0.
2.74252 7.32776 0.
2.00834 5.56262 0.
2.425 6.68522 0.
3.79331 10.3208 0.
-3.0877 -8.34776 0.
1.62559 4.4335 0.
-34.5912 -94.9377 0.
-2.385 -6.59753 0.
-163.97 -454.094 0.
-2.88538 -7.84606 0.
-6.10177 -16.5747 0.
8.52123 22.9228 0.
10.9062 28.7321 0.
-153.369 -403.965 0.
-10.81 -28.5637 0.
-23.3174 -61.8659 0.
6.3163 15.9357 0.
-7.06495 -17.7261 0.
-5.21211 -13.4602 0.
-122.293 -299.5 0.
-1.02239 -2.47797 0.
-119.802 -270.122 0.
4.76616 10.5909 0.
8.90999 19.5796 0.
-35.3271 -78.6954 0.
6.90678 14.996 0.
-319.282 -602.922 0.
10.9614 20.0105 0.
2.20259 3.71439 0.
15.2722 25.8829 0.
-8.42411 -25.8508 0.
-3.90923 -5.91766 0.
-11.9956 -28.84 0.
12.2007 17.0636 0.
-26.4778 -39.3086 0.
-19.7319 -29.5527 0.
-2.9639 -4.56061 0.
16.6004 25.098 0.
18.7519 30.7316 0.
13.1576 23.4457 0.
-0.309815 -0.515564 0.
2.34809 4.62318 0.
1.89819 2.8766 0.
8.21632 12.5506 0.
-28.1709 -43.3111 0.
-277.442 -405.165 0.
-88.155 -131.374 0.
6.26943 8.79511 0.
14.3178 20.4787 0.
-266.302 -388.764 0.
-3.31472 -5.05209 0.
9.45656 13.9953 0.
1.42852 2.43235 0.
-1.18095 -2.08857 0.
-101.558 -187.003 0.
-4.42893 -8.34583 0.
-6.27046 -11.6657 0.
-0.110105 -0.23188 0.
-115.296 -251.496 0.
-28.3638 -64.0361 0.
-103.422 -240.13 0.
-20.177 -47.3046 0.
-4.57454 -11.1523 0.
-24.3756 -59.6163 0.
-22.7986 -57.4644 0.
8.7363 21.9762 0.
0.910217 2.28491 0.
-173.143 -464.332 0.
5.02459 13.4508 0.
-0.402864 -1.07304 0.
-5.41844 -14.439 0.
-107.61 -292.807 0.
-6.58972 -17.9342 0.
-14.7552 -40.1611 0.
-133.171 -368.572 0.
-1.29265 -3.57138 0.
2.32338 6.37789 0.
-0.214641 -19.1126 0.
-0.00264874 -0.104608 0.
-258.149 -674.955 0.
6.28475 16.376 0.
-239.07 -659.524 0.
1.14564 3.14672 0.
4.19392 10.8954 0.
-575.041 -1384.46 0.
-0.000264128 -0.703553 0.
-312.907 -738.779 0.
-52.2956 -142.861 0.
-86.1487 -238.333 0.
-116.344 -319.092 0.
-343.251 -948.586 0.
-33.2518 -24.7711 0.
-14.7132 -18.0469 0.
-385.411 -1006.07 0.
-3.56938 -9.6715 0.
-7.80214 -21.4659 0.
-304.045 -631.276 0.
-0.0154751 -4.40016 0.
-453.627 -1171.19 0.
2.35528 6.48514 0.
0.960781 2.65992 0.
-290.2 -794.465 0.
-1.70565 -4.6873 0.
2.43049 6.70374 0.
-0.214025 -17.316 0.
3.68504 10.008 0.
5.34616 14.627 0.
-1.07002 -2.95668 0.
-142.804 -395.249 0.
-6.07219 -16.4882 0.
-16.566 -44.9351 0.
-20.4305 -54.2399 0.
9.42663 25.0378 0.
7.07658 18.8032 0.
-95.1617 -251.057 0.
-236.531 -626.448 0.
-76.4788 -192.115 0.
3.34791 8.3606 0.
-8.45237 -20.9926 0.
8.75297 20.6973 0.
-10.9422 -26.3737 0.
-331.007 -743.548 0.
-2.60052 -5.76026 0.
-6.88624 -15.25 0.
7.10044 15.3594 0.
-3.19887 -6.75069 0.
-307.244 -575.465 0.
-7.44904 -31.0997 0.
-18.62 -31.4093 0.
19.5082 31.328 0.
1.31743 2.01875 0.
-439.937 -659.311 0.
11.0793 16.1578 0.
25.5499 35.0989 0.
12.5273 16.9892 0.
-38.6975 -56.8678 0.
-270.227 -409.979 0.
8.20841 12.2432 0.
-61.3276 -100.793 0.
-8.55489 -13.4348 0.
16.2358 24.3773 0.
-0.786359 -1.56698 0.
-59.9615 -89.1251 0.
-121.439 -181.816 0.
0.767946 1.02243 0.
18.6317 24.93 0.
-1.29614 -1.74158 0.
14.3237 19.7273 0.
-703.616 -985.19 0.
7.15217 10.5665 0.
9.5806 13.683 0.
-54.3067 -80.186 0.
15.0841 25.4154 0.
-317.174 -555.479 0.
14.5793 25.1685 0.
12.172 21.8792 0.
-0.528608 -0.985756 0.
14.4886 30.6914 0.
-41.1263 -90.3055 0.
-122.093 -277.461 0.
6.23065 13.9737 0.
-10.0951 -23.1241 0.
-5.98289 -14.5576 0.
-234.762 -572.702 0.
-147.363 -370.062 0.
0.812378 2.03649 0.
-4.54744 -11.2706 0.
-15.3614 -41.0159 0.
-6.05974 -16.2286 0.
-125.171 -332.865 0.
-4.06449 -10.8122 0.
-74.6728 -198.756 0.
-53.27 -144.829 0.
-57.9006 -157.433 0.
-76.8849 -212.179 0.
7.70955 21.1637 0.
-145.449 -397.517 0.
-69.2529 -188.717 0.
-54.9847 -149.352 0.
-34.5313 -93.5083 0.
0.673328 1.8276 0.
1.96212 5.43262 0.
3.96541 10.8396 0.
0.0279152 0.996632 0.
1.4985 4.07228 0.
-0.0473664 -4.36285 0.
-2.74068 -7.2573 0.
0.0473576 0.115122 0.
-0.329635 -0.754684 0.
-18.6708 -36.7508 0.
-5.06005 -3.09222 0.
-10.6564 -12.4902 0.
0.043687 0.30211 0.
-10.1572 -27.6968 0.
-0.84963 -2.23622 0.
-5.85471 -16.2157 0.
-29.4135 -79.5287 0.
2.90378 7.93628 0.
0.553143 1.50977 0.
-0.0539839 -11.1591 0.
1.76005 4.87391 0.
-1.23751 -3.41168 0.
-0.287921 -0.79674 0.
-267.597 -738.814 0.
-80.3089 -217.529 0.
-41.793 -113.591 0.
-193.955 -528.372 0.
7.00837 19.3389 0.
-81.0683 -224.165 0.
-98.9323 -268.356 0.
-164.045 -444.557 0.
-11.933 -31.5491 0.
-14.5389 -38.4564 0.
-43.2606 -114.468 0.
9.57515 25.2811 0.
-0.686537 -29.9541 0.
-82.339 -205.846 0.
-24.5744 -61.0723 0.
-21.1271 -50.3609 0.
-194.606 -460.596 0.
5.48051 12.9018 0.
-30.6276 -67.451 0.
-50.482 -111.408 0.
-324.355 -722.962 0.
0.577131 1.25871 0.
9.71014 20.6655 0.
-112.617 -204.794 0.
-2.47824 -4.34868 0.
-421.091 -711.861 0.
-2.81448 -4.51246 0.
-3.60501 -5.50757 0.
-1.98699 -2.76771 0.
19.518 27.9937 0.
-276.834 -373.532 0.
-118.501 -157.791 0.
7.9019 10.3965 0.
2.85357 3.81855 0.
16.0825 21.6592 0.
-64.7748 -106.866 0.
-41.103 -64.6808 0.
19.2806 28.9603 0.
7.20737 12.8793 0.
-8.50205 -11.1848 0.
-2.03416 -2.72643 0.
5.2623 6.84233 0.
-18.8652 -24.6222 0.
-211.681 -277.123 0.
-16.3365 -22.0373 0.
17.2035 22.2957 0.
22.686 31.2595 0.
1.34723 1.91728 0.
-369.882 -543.874 0.
-0.784548 -1.30382 0.
12.3783 21.0009 0.
11.4429 19.8216 0.
8.74699 15.744 0.
-325.346 -606.918 0.
-7.49989 -15.9809 0.
4.81316 10.2794 0.
-3.1386 -6.85053 0.
-6.17465 -13.9111 0.
-178.703 -411.426 0.
-62.5999 -151.991 0.
-21.3601 -52.0406 0.
-8.03316 -19.2226 0.
-3.37127 -8.3172 0.
-4.81992 -11.9285 0.
-152.465 -407.344 0.
0.0126344 0.0338496 0.
-81.3688 -215.993 0.
-67.2076 -178.482 0.
10.514 27.6791 0.
6.62532 17.8722 0.
5.19168 13.9943 0.
-96.4967 -264.688 0.
-4.50217 -12.3206 0.
-3.98923 -10.9188 0.
5.69214 15.5351 0.
-3.1455 -8.55807 0.
-32.3458 -89.2439 0.
-0.0116235 -19.3191 0.
3.22085 8.91996 0.
-0.000395573 -0.0538494 0.
7.28823 18.9197 0.
-1.21604e-06 -0.928618 0.
-0.0017762 -4.61837 0.
-182.124 -456.248 0.
-34.1695 -86.3291 0.
-58.3828 -155.31 0.
-48.7837 -101.202 0.
-194.483 -491.835 0.
-11.8815 -28.1736 0.
0.008689 0.206633 0.
-159.652 -441.891 0.
-1.2843e-05 -0.909258 0.
-134.232 -307.314 0.
-70.035 -190.585 0.
4.02899 10.6322 0.
1.48568 4.11452 0.
7.27872 19.8098 0.
1.44921 4.00554 0.
0.00403616 0.0111668 0.
-0.00333643 -13.7128 0.
-22.3012 -61.7683 0.
0.875364 2.36682 0.
-14.9105 -40.4517 0.
-0.084741 -24.1835 0.
0.417157 1.1466 0.
-0.444553 -1.22277 0.
3.25081 8.7177 0.
8.47872 22.7303 0.
-53.0898 -139.746 0.
-65.0056 -171.198 0.
-136.95 -360.767 0.
-18.418 -48.6373 0.
-7.22755 -18.9826 0.
-7.21814 -17.7146 0.
-3.88223 -9.45083 0.
-45.6088 -108.91 0.
-51.9693 -123.33 0.
-0.772485 -1.82216 0.
-206.951 -457.697 0.
-3.58036 -7.79921 0.
6.27007 13.8245 0.
12.183 26.7971 0.
9.82907 21.0988 0.
-327.331 -601.99 0.
-6.67008 -26.3266 0.
-2.77733 -4.59204 0.
-0.956789 -1.52983 0.
21.4208 32.5879 0.
2.35816 3.20168 0.
10.9643 14.9464 0.
-12.4076 -24.6944 0.
-17.2834 -22.5436 0.
12.1686 15.7009 0.
-5.75553 -7.39251 0.
19.5861 25.3874 0.
11.5284 15.026 0.
-6.74769 -9.72273 0.
14.9489 21.0445 0.
-14.7453 -24.5468 0.
-13.0291 -16.8066 0.
-224.416 -295.042 0.
-130.732 -165.748 0.
-18.5847 -23.4477 0.
-11.9804 -14.9874 0.
-4.81517 -6.08476 0.
-174.211 -218.215 0.
9.97015 13.6621 0.
8.98022 12.716 0.
9.23732 13.6003 0.
3.09739 5.16282 0.
-158.331 -269.305 0.
-53.6394 -93.1731 0.
12.43 22.39 0.
9.09291 16.7566 0.
12.7982 26.8328 0.
7.17288 15.3787 0.
-162.959 -357.186 0.
-1.69566 -3.8379 0.
-3.09507 -29.5423 0.
5.16027 12.1542 0.
0.193361 0.457701 0.
8.72446 20.7588 0.
-0.510302 -1.25708 0.
-119.911 -296.331 0.
1.81983 4.86291 0.
10.5283 27.7451 0.
-2.92991 -7.64624 0.
-4.06037 -10.6342 0.
2.81721 7.40433 0.
-4.84877 -13.0763 0.
-3.39533 -9.14969 0.
-122.381 -334.654 0.
-0.429648 -1.1717 0.
3.46686 9.42517 0.
-2.68181 -7.32863 0.
-3.25808 -8.87709 0.
-86.9964 -240.96 0.
-2.93559 -8.13094 0.
-145.585 -402.177 0.
-2.26535 -6.273 0.
-3.38768 -9.3799 0.
-209.679 -580.711 0.
2.59887 6.81939 0.
-16.4366 -42.3768 0.
-6.97767 -18.5606 0.
3.4971e-05 0.0204106 0.
-33.0972 -90.9057 0.
0.00919358 0.0122611 0.
-1.12972 -2.5474 0.
0.0472496 0.14004 0.
0.27356 0.01665 0.
0.0551934 1.42854 0.
-0.00606233 -0.745859 0.
-140.864 -351.266 0.
5.81175 15.4606 0.
-197.674 -547.386 0.
1.82846 5.06397 0.
3.3019 9.14474 0.
-137.022 -379.193 0.
-2.62748 -7.24409 0.
-2.31318 -6.39592 0.
-5.11757 -13.8067 0.
1.73727 4.70378 0.
-2.07252 -5.6833 0.
-2.92342 -8.02309 0.
-151.324 -415.691 0.
7.74128 20.775 0.
9.20228 24.6887 0.
-0.602852 -1.56232 0.
-5.61224 -14.446 0.
10.2537 26.5926 0.
-64.6065 -170.651 0.
-59.4376 -156.14 0.
-120.32 -295.515 0.
9.73944 23.7188 0.
3.64399 8.49052 0.
3.70084 8.60962 0.
4.67695 10.8649 0.
-72.9133 -162.111 0.
-5.21624 -11.4183 0.
-84.2 -183.922 0.
9.94933 21.3733 0.
-3.44895 -25.5875 0.
-29.4114 -54.8687 0.
-2.71444 -4.88181 0.
-145.9 -238.135 0.
-2.4946 -3.94659 0.
-7.18568 -19.0147 0.
-32.1917 -42.5456 0.
9.57384 12.718 0.
14.919 19.91 0.
16.9079 21.5721 0.
0.21335 0.266487 0.
2.70327 3.23406 0.
-126.752 -157.739 0.
-71.3571 -89.5253 0.
-10.1802 -14.5375 0.
17.1707 23.9557 0.
-1.40267 -1.73777 0.
-36.4483 -45.9925 0.
11.3171 13.8882 0.
-0.268476 -0.322526 0.
18.2902 22.2553 0.
-40.9782 -50.4962 0.
-79.2439 -96.8865 0.
-27.4541 -33.2783 0.
-7.73462 -10.7057 0.
-10.0863 -14.3409 0.
-237.727 -347.208 0.
8.08811 13.5169 0.
8.47728 14.4657 0.
-7.53351 -12.8064 0.
11.5998 20.6348 0.
-124.319 -230.711 0.
3.81248 8.02367 0.
5.13911 11.0633 0.
-3.77154 -7.78289 0.
13.4839 29.2909 0.
2.86043 6.435 0.
4.08613 9.56624 0.
11.9155 28.0372 0.
-129.324 -305.828 0.
-65.6877 -161.555 0.
0.633272 1.50582 0.
-6.75429 -17.6496 0.
-5.0535 -13.2977 0.
4.56853 11.9009 0.
5.06621 13.2454 0.
-46.7434 -122.635 0.
-102.668 -276.8 0.
-0.310188 -26.4527 0.
-1.51748 -4.08309 0.
8.31037 22.3583 0.
-8.68599 -23.3657 0.
4.58414 12.4193 0.
-0.225093 -21.9112 0.
-21.4755 -59.463 0.
1.12395 3.1119 0.
6.26599 17.304 0.
0.542807 1.50288 0.
-0.164526 -0.455616 0.
3.12301 8.52044 0.
0.067939 1.35313 0.
-5.65972 -15.3081 0.
1.0928e-05 0.0124141 0.
-0.00693537 -0.949602 0.
-26.0812 -71.9157 0.
-0.0517029 -0.275943 0.
-14.6928 -17.7665 0.
0.104067 0.0507359 0.
0.0697366 0.00411816 0.
1.4328 3.50217 0.
0.000760473 0.873063 0.
0.225091 0.60727 0.
8.36873 21.1535 0.
1.34875 3.6735 0.
-4.60312 -12.7491 0.
0.287728 0.796827 0.
1.63746 4.49636 0.
-3.1102 -8.55044 0.
-1.33426 -3.67189 0.
7.99584 21.2872 0.
-43.7689 -116.597 0.
7.68424 20.7536 0.
-1.3267 -3.57155 0.
-19.2523 -52.7977 0.
4.40873 11.8405 0.
-15.4373 -41.4503 0.
-3.98505 -10.2965 0.
10.7304 27.5342 0.
3.29397 8.53159 0.
-4.11284 -10.5631 0.
6.58754 16.7728 0.
-82.9958 -203.915 0.
3.58926 8.7451 0.
-83.8626 -194.193 0.
6.45706 14.9379 0.
2.86249 6.61267 0.
0.413321 0.898571 0.
-0.160036 -0.334418 0.
-202.597 -438.223 0.
-30.8203 -65.5116 0.
-2.90096 -6.06897 0.
-11.0043 -20.5369 0.
3.1811 5.64193 0.
-88.6259 -142.288 0.
7.43548 11.5702 0.
17.0135 25.7343 0.
-56.5001 -76.1879 0.
-10.0417 -17.575 0.
-5.13172 -6.67228 0.
-226.961 -286.485 0.
22.6078 27.9645 0.
-4.90298 -5.7374 0.
1.35453 1.57553 0.
18.8939 21.8221 0.
5.00205 7.06731 0.
-47.007 -64.9313 0.
11.7613 13.4444 0.
4.28414 5.01193 0.
-4.23836 -5.06869 0.
21.2079 25.0864 0.
-172.943 -206.933 0.
4.54324 4.99365 0.
-1.64101 -1.88044 0.
3.65022 4.36713 0.
-8.79957 -17.6473 0.
2.11426 2.98172 0.
-44.2038 -64.1335 0.
4.35829 6.99179 0.
-6.68555 -11.0352 0.
0.308788 0.52482 0.
14.4619 25.9161 0.
-75.6485 -141.673 0.
14.6853 28.7069 0.
11.7569 23.5761 0.
10.7112 22.0475 0.
13.6606 29.9785 0.
-109.814 -249.605 0.
2.32387 5.4068 0.
-6.79934 -15.9 0.
4.79225 10.6692 0.
-2.10668 -27.9717 0.
-5.28849 -12.5598 0.
-0.78205 -2.04012 0.
-2.34923 -6.17245 0.
-71.4664 -189.06 0.
-62.4698 -163.02 0.
4.50424 11.1185 0.
-2.84614 -7.40024 0.
-3.43356 -9.00981 0.
-4.50892 -12.1291 0.
1.58607 4.26606 0.
-0.475238 -1.2781 0.
5.19126 13.9749 0.
-0.307312 -23.1794 0.
-33.5334 -92.7216 0.
-2.71314 -7.50026 0.
-0.0211525 -15.4549 0.
0.312184 0.864219 0.
-48.148 -131.2 0.
-0.398773 -11.7764 0.
-1.43153 -18.7401 0.
-59.7929 -129.566 0.
-12.2396 -28.2956 0.
-10.1816 -25.2692 0.
-39.1637 -93.3972 0.
-25.708 -62.2267 0.
-15.3909 -22.9833 0.
-14.0444 -32.6817 0.
-95.833 -176.268 0.
-0.0630831 -3.81215 0.
0.191612 0.529763 0.
-21.2194 -56.6808 0.
-0.247289 -3.60028 0.
6.201 15.7051 0.
3.94897 10.9377 0.
5.48512 15.1892 0.
5.8056 15.8801 0.
-1.61812 -4.43294 0.
-72.3271 -198.411 0.
-1.72899 -4.59079 0.
-21.2202 -56.3816 0.
-1.48259 -3.99405 0.
-6.66655 -17.899 0.
5.26938 14.0994 0.
-3.44215 -8.88108 0.
-0.473577 -1.21289 0.
-84.9248 -218.667 0.
-42.1457 -107.771 0.
-32.9212 -85.1529 0.
-3.76255 -9.64907 0.
6.53544 16.6124 0.
5.48908 12.8406 0.
2.64997 6.13286 0.
7.2559 15.3907 0.
-47.5501 -109.34 0.
-36.9776 -84.9148 0.
-23.4464 -51.6672 0.
5.67705 12.0225 0.
10.1554 20.0474 0.
3.42693 6.42998 0.
-27.1828 -56.2101 0.
-79.9828 -152.582 0.
12.9354 23.4328 0.
-14.5047 -22.4505 0.
8.16461 11.6715 0.
-8.41904 -20.3698 0.
-215.404 -294.094 0.
-9.49744 -12.4219 0.
15.6292 19.6115 0.
-4.82714 -5.5986 0.
-12.6589 -16.3823 0.
-15.2778 -22.5518 0.
-81.1509 -92.233 0.
-1.13845 -1.28634 0.
-6.59006 -11.4843 0.
-6.33048 -11.1435 0.
-6.50372 -7.23473 0.
2.35934 2.68272 0.
-81.8768 -94.9676 0.
-17.2535 -14.7878 0.
17.0655 16.8614 0.
-11.4122 -14.0121 0.
4.52464 5.19944 0.
-22.9662 -27.592 0.
17.0795 16.4912 0.
-8.85918 -11.2711 0.
8.63166 11.5103 0.
-6.2612 -18.4059 0.
-7.03733 -11.604 0.
4.20846 7.15166 0.
-5.87938 -12.8617 0.
4.4778 7.36802 0.
-5.01604 -9.76699 0.
-5.80733 -11.6089 0.
-84.2997 -173.119 0.
-7.32994 -16.2693 0.
14.0296 25.92 0.
7.89193 16.3246 0.
-2.754 -5.90237 0.
-39.3873 -87.4538 0.
-7.56316 -17.7819 0.
-78.9741 -187.32 0.
-24.0958 -62.7544 0.
-2.40332 -17.481 0.
7.63066 18.2746 0.
9.43626 22.7146 0.
-32.716 -81.0374 0.
8.31032 21.5292 0.
-25.1879 -65.8802 0.
-22.3857 -60.2018 0.
-0.593472 -1.59586 0.
-24.5743 -66.0714 0.
-54.9093 -146.781 0.
-1.02724 -6.61696 0.
-1.24183 -3.09439 0.
1.56817 4.06225 0.
0.695333 1.85558 0.
2.06274 5.65111 0.
6.84523 18.698 0.
8.18269 19.9704 0.
7.37299 16.2786 0.
0.696253 1.55589 0.
0.579577 1.38254 0.
-0.211861 -0.537663 0.
-3.38715 -8.57982 0.
-0.000321054 -0.000822873 0.
-0.0701961 -0.383329 0.
-0.0244147 -0.70356 0.
-0.0213795 -0.747275 0.
1.99031 5.07038 0.
-0.00817971 -2.71661 0.
-1.86069 -11.3075 0.
-0.928004 -9.19752 0.
-1.50235 -24.0864 0.
-40.0498 -108.883 0.
7.46993 20.3583 0.
-0.673231 -21.3576 0.
6.91237 16.4905 0.
8.46553 18.1672 0.
-5.7895 -15.3298 0.
-13.962 -36.9969 0.
-5.94484 -15.9725 0.
-15.9011 -42.5735 0.
-39.4417 -102.184 0.
6.95832 17.8898 0.
3.85119 9.82693 0.
2.74105 6.47144 0.
-2.62634 -22.4928 0.
7.38242 14.9803 0.
-66.1659 -169.422 0.
2.16221 5.48727 0.
-20.3241 -47.3658 0.
-3.04162 -7.01118 0.
3.83093 8.24755 0.
11.5306 22.6078 0.
-6.13499 -23.793 0.
-33.0512 -73.9323 0.
-3.14342 -6.75578 0.
-53.8825 -105.737 0.
3.52033 6.54726 0.
-2.14142 -3.78389 0.
6.23504 9.40152 0.
-5.44026 -10.0874 0.
-25.3363 -39.8191 0.
-5.86692 -8.46489 0.
-5.64785 -10.4888 0.
7.4151 8.03175 0.
-8.57177 -15.7524 0.
-4.25155 -5.38681 0.
-5.27823 -5.9384 0.
11.7836 12.9052 0.
12.8288 13.7104 0.
-17.9329 -13.9097 0.
2.46421 2.71909 0.
2.14378 2.58761 0.
-9.24022 -14.1667 0.
